 "x_c",  "y_c",  "u_c",  "v_c",  "exx",  "eyy",  "exy",  "e1",  "e2",  "gamma",  "e_vonmises",  "sigma",  "x",  "y",  "u",  "v"
-700,715,0,0,0,0,0,0,0,0,0,-1,524,309,0,0
-693,715,0,0,0,0,0,0,0,0,0,-1,531,309,0,0
-686,715,0,0,0,0,0,0,0,0,0,-1,538,309,0,0
-679,715,0,0,0,0,0,0,0,0,0,-1,545,309,0,0
-672,715,0,0,0,0,0,0,0,0,0,-1,552,309,0,0
-665,715,0,0,0,0,0,0,0,0,0,-1,559,309,0,0
-658,715,0,0,0,0,0,0,0,0,0,-1,566,309,0,0
-651,715,0,0,0,0,0,0,0,0,0,-1,573,309,0,0
-644,715,0,0,0,0,0,0,0,0,0,-1,580,309,0,0
-637,715,0,0,0,0,0,0,0,0,0,-1,587,309,0,0
-630,715,0,0,0,0,0,0,0,0,0,-1,594,309,0,0
-623,715,0,0,0,0,0,0,0,0,0,-1,601,309,0,0
-616,715,0,0,0,0,0,0,0,0,0,-1,608,309,0,0
-609,715,0,0,0,0,0,0,0,0,0,-1,615,309,0,0
-602,715,0,0,0,0,0,0,0,0,0,-1,622,309,0,0
-595,715,0,0,0,0,0,0,0,0,0,-1,629,309,0,0
-588,715,0,0,0,0,0,0,0,0,0,-1,636,309,0,0
-581,715,0,0,0,0,0,0,0,0,0,-1,643,309,0,0
-574,715,0,0,0,0,0,0,0,0,0,-1,650,309,0,0
-567,715,0,0,0,0,0,0,0,0,0,-1,657,309,0,0
-560,715,0,0,0,0,0,0,0,0,0,-1,664,309,0,0
-553,715,0,0,0,0,0,0,0,0,0,-1,671,309,0,0
-546,715,0,0,0,0,0,0,0,0,0,-1,678,309,0,0
-539,715,0,0,0,0,0,0,0,0,0,-1,685,309,0,0
-532,715,0,0,0,0,0,0,0,0,0,-1,692,309,0,0
-525,715,0,0,0,0,0,0,0,0,0,-1,699,309,0,0
-518,715,0,0,0,0,0,0,0,0,0,-1,706,309,0,0
-511,715,0,0,0,0,0,0,0,0,0,-1,713,309,0,0
-504,715,0,0,0,0,0,0,0,0,0,-1,720,309,0,0
-497,715,0,0,0,0,0,0,0,0,0,-1,727,309,0,0
-490,715,0,0,0,0,0,0,0,0,0,-1,734,309,0,0
-483,715,0,0,0,0,0,0,0,0,0,-1,741,309,0,0
-476,715,0,0,0,0,0,0,0,0,0,-1,748,309,0,0
-469,715,0,0,0,0,0,0,0,0,0,-1,755,309,0,0
-462,715,0,0,0,0,0,0,0,0,0,-1,762,309,0,0
-455,715,0,0,0,0,0,0,0,0,0,-1,769,309,0,0
-448,715,0,0,0,0,0,0,0,0,0,-1,776,309,0,0
-441,715,0,0,0,0,0,0,0,0,0,-1,783,309,0,0
-434,715,0,0,0,0,0,0,0,0,0,-1,790,309,0,0
-427,715,0,0,0,0,0,0,0,0,0,-1,797,309,0,0
-420,715,0,0,0,0,0,0,0,0,0,-1,804,309,0,0
-413,715,0,0,0,0,0,0,0,0,0,-1,811,309,0,0
-406,715,0,0,0,0,0,0,0,0,0,-1,818,309,0,0
-399,715,0,0,0,0,0,0,0,0,0,-1,825,309,0,0
-392,715,0,0,0,0,0,0,0,0,0,-1,832,309,0,0
-385,715,0,0,0,0,0,0,0,0,0,-1,839,309,0,0
-378,715,0,0,0,0,0,0,0,0,0,-1,846,309,0,0
-371,715,0,0,0,0,0,0,0,0,0,-1,853,309,0,0
-364,715,0,0,0,0,0,0,0,0,0,-1,860,309,0,0
-357,715,0,0,0,0,0,0,0,0,0,-1,867,309,0,0
-350,715,0,0,0,0,0,0,0,0,0,-1,874,309,0,0
-343,715,0,0,0,0,0,0,0,0,0,-1,881,309,0,0
-336,715,0,0,0,0,0,0,0,0,0,-1,888,309,0,0
-329,715,0,0,0,0,0,0,0,0,0,-1,895,309,0,0
-322,715,0,0,0,0,0,0,0,0,0,-1,902,309,0,0
-315,715,0,0,0,0,0,0,0,0,0,-1,909,309,0,0
-308,715,0,0,0,0,0,0,0,0,0,-1,916,309,0,0
-301,715,0,0,0,0,0,0,0,0,0,-1,923,309,0,0
-294,715,0,0,0,0,0,0,0,0,0,-1,930,309,0,0
-287,715,0,0,0,0,0,0,0,0,0,-1,937,309,0,0
-280,715,0,0,0,0,0,0,0,0,0,-1,944,309,0,0
-273,715,0,0,0,0,0,0,0,0,0,-1,951,309,0,0
-266,715,0,0,0,0,0,0,0,0,0,-1,958,309,0,0
-259,715,0,0,0,0,0,0,0,0,0,-1,965,309,0,0
-252,715,0,0,0,0,0,0,0,0,0,-1,972,309,0,0
-245,715,0,0,0,0,0,0,0,0,0,-1,979,309,0,0
-238,715,0,0,0,0,0,0,0,0,0,-1,986,309,0,0
-231,715,0,0,0,0,0,0,0,0,0,-1,993,309,0,0
-224,715,0,0,0,0,0,0,0,0,0,-1,1000,309,0,0
-217,715,0,0,0,0,0,0,0,0,0,-1,1007,309,0,0
-210,715,0,0,0,0,0,0,0,0,0,-1,1014,309,0,0
-203,715,0,0,0,0,0,0,0,0,0,-1,1021,309,0,0
-196,715,0,0,0,0,0,0,0,0,0,-1,1028,309,0,0
-189,715,0,0,0,0,0,0,0,0,0,-1,1035,309,0,0
-182,715,0,0,0,0,0,0,0,0,0,-1,1042,309,0,0
-175,715,0,0,0,0,0,0,0,0,0,-1,1049,309,0,0
-168,715,0,0,0,0,0,0,0,0,0,-1,1056,309,0,0
-161,715,0,0,0,0,0,0,0,0,0,-1,1063,309,0,0
-154,715,0,0,0,0,0,0,0,0,0,-1,1070,309,0,0
-147,715,0,0,0,0,0,0,0,0,0,-1,1077,309,0,0
-140,715,0,0,0,0,0,0,0,0,0,-1,1084,309,0,0
-133,715,0,0,0,0,0,0,0,0,0,-1,1091,309,0,0
-126,715,0,0,0,0,0,0,0,0,0,-1,1098,309,0,0
-119,715,0,0,0,0,0,0,0,0,0,-1,1105,309,0,0
-112,715,0,0,0,0,0,0,0,0,0,-1,1112,309,0,0
-105,715,0,0,0,0,0,0,0,0,0,-1,1119,309,0,0
-98,715,0,0,0,0,0,0,0,0,0,-1,1126,309,0,0
-91,715,0,0,0,0,0,0,0,0,0,-1,1133,309,0,0
-84,715,0,0,0,0,0,0,0,0,0,-1,1140,309,0,0
-77,715,0,0,0,0,0,0,0,0,0,-1,1147,309,0,0
-70,715,0,0,0,0,0,0,0,0,0,-1,1154,309,0,0
-63,715,0,0,0,0,0,0,0,0,0,-1,1161,309,0,0
-56,715,0,0,0,0,0,0,0,0,0,-1,1168,309,0,0
-49,715,0,0,0,0,0,0,0,0,0,-1,1175,309,0,0
-42,715,0,0,0,0,0,0,0,0,0,-1,1182,309,0,0
-35,715,0,0,0,0,0,0,0,0,0,-1,1189,309,0,0
-28,715,0,0,0,0,0,0,0,0,0,-1,1196,309,0,0
-21,715,0,0,0,0,0,0,0,0,0,-1,1203,309,0,0
-14,715,0,0,0,0,0,0,0,0,0,-1,1210,309,0,0
-7,715,0,0,0,0,0,0,0,0,0,-1,1217,309,0,0
0,715,0,0,0,0,0,0,0,0,0,-1,1224,309,0,0
7,715,0,0,0,0,0,0,0,0,0,-1,1231,309,0,0
14,715,0,0,0,0,0,0,0,0,0,-1,1238,309,0,0
21,715,0,0,0,0,0,0,0,0,0,-1,1245,309,0,0
28,715,0,0,0,0,0,0,0,0,0,-1,1252,309,0,0
35,715,0,0,0,0,0,0,0,0,0,-1,1259,309,0,0
42,715,0,0,0,0,0,0,0,0,0,-1,1266,309,0,0
49,715,0,0,0,0,0,0,0,0,0,-1,1273,309,0,0
56,715,0,0,0,0,0,0,0,0,0,-1,1280,309,0,0
63,715,2.60205,-41.5302,-0.0363941,0.000751725,-0.0433575,0.0293468,-0.0649892,-0.987758,0.0557457,0.044868,1287,309,2.60211,41.5302
70,715,1.92749,-41.6192,-0.0361087,0.031272,-0.0441597,0.0531255,-0.0579622,-1.11126,0.0641568,0.0459764,1294,309,1.9275,41.6192
77,715,0,0,0,0,0,0,0,0,0,-1,1301,309,0,0
84,715,0,0,0,0,0,0,0,0,0,-1,1308,309,0,0
91,715,0,0,0,0,0,0,0,0,0,-1,1315,309,0,0
98,715,0,0,0,0,0,0,0,0,0,-1,1322,309,0,0
105,715,0,0,0,0,0,0,0,0,0,-1,1329,309,0,0
112,715,0,0,0,0,0,0,0,0,0,-1,1336,309,0,0
119,715,0,0,0,0,0,0,0,0,0,-1,1343,309,0,0
126,715,0,0,0,0,0,0,0,0,0,-1,1350,309,0,0
133,715,0,0,0,0,0,0,0,0,0,-1,1357,309,0,0
140,715,0,0,0,0,0,0,0,0,0,-1,1364,309,0,0
147,715,0,0,0,0,0,0,0,0,0,-1,1371,309,0,0
154,715,0,0,0,0,0,0,0,0,0,-1,1378,309,0,0
161,715,0,0,0,0,0,0,0,0,0,-1,1385,309,0,0
168,715,0,0,0,0,0,0,0,0,0,-1,1392,309,0,0
175,715,0,0,0,0,0,0,0,0,0,-1,1399,309,0,0
182,715,0,0,0,0,0,0,0,0,0,-1,1406,309,0,0
189,715,0,0,0,0,0,0,0,0,0,-1,1413,309,0,0
196,715,0,0,0,0,0,0,0,0,0,-1,1420,309,0,0
203,715,0,0,0,0,0,0,0,0,0,-1,1427,309,0,0
210,715,0,0,0,0,0,0,0,0,0,-1,1434,309,0,0
217,715,0,0,0,0,0,0,0,0,0,-1,1441,309,0,0
224,715,0,0,0,0,0,0,0,0,0,-1,1448,309,0,0
231,715,0,0,0,0,0,0,0,0,0,-1,1455,309,0,0
238,715,0,0,0,0,0,0,0,0,0,-1,1462,309,0,0
245,715,0,0,0,0,0,0,0,0,0,-1,1469,309,0,0
252,715,0,0,0,0,0,0,0,0,0,-1,1476,309,0,0
259,715,0,0,0,0,0,0,0,0,0,-1,1483,309,0,0
266,715,0,0,0,0,0,0,0,0,0,-1,1490,309,0,0
273,715,0,0,0,0,0,0,0,0,0,-1,1497,309,0,0
280,715,0,0,0,0,0,0,0,0,0,-1,1504,309,0,0
287,715,0,0,0,0,0,0,0,0,0,-1,1511,309,0,0
294,715,0,0,0,0,0,0,0,0,0,-1,1518,309,0,0
301,715,0,0,0,0,0,0,0,0,0,-1,1525,309,0,0
308,715,0,0,0,0,0,0,0,0,0,-1,1532,309,0,0
315,715,0,0,0,0,0,0,0,0,0,-1,1539,309,0,0
322,715,0,0,0,0,0,0,0,0,0,-1,1546,309,0,0
329,715,0,0,0,0,0,0,0,0,0,-1,1553,309,0,0
336,715,0,0,0,0,0,0,0,0,0,-1,1560,309,0,0
343,715,0,0,0,0,0,0,0,0,0,-1,1567,309,0,0
350,715,0,0,0,0,0,0,0,0,0,-1,1574,309,0,0
357,715,0,0,0,0,0,0,0,0,0,-1,1581,309,0,0
364,715,0,0,0,0,0,0,0,0,0,-1,1588,309,0,0
371,715,0,0,0,0,0,0,0,0,0,-1,1595,309,0,0
378,715,0,0,0,0,0,0,0,0,0,-1,1602,309,0,0
385,715,0,0,0,0,0,0,0,0,0,-1,1609,309,0,0
392,715,0,0,0,0,0,0,0,0,0,-1,1616,309,0,0
399,715,0,0,0,0,0,0,0,0,0,-1,1623,309,0,0
406,715,0,0,0,0,0,0,0,0,0,-1,1630,309,0,0
413,715,0,0,0,0,0,0,0,0,0,-1,1637,309,0,0
420,715,0,0,0,0,0,0,0,0,0,-1,1644,309,0,0
427,715,0,0,0,0,0,0,0,0,0,-1,1651,309,0,0
434,715,0,0,0,0,0,0,0,0,0,-1,1658,309,0,0
441,715,0,0,0,0,0,0,0,0,0,-1,1665,309,0,0
448,715,0,0,0,0,0,0,0,0,0,-1,1672,309,0,0
455,715,0,0,0,0,0,0,0,0,0,-1,1679,309,0,0
462,715,0,0,0,0,0,0,0,0,0,-1,1686,309,0,0
469,715,0,0,0,0,0,0,0,0,0,-1,1693,309,0,0
476,715,0,0,0,0,0,0,0,0,0,-1,1700,309,0,0
483,715,0,0,0,0,0,0,0,0,0,-1,1707,309,0,0
490,715,0,0,0,0,0,0,0,0,0,-1,1714,309,0,0
497,715,0,0,0,0,0,0,0,0,0,-1,1721,309,0,0
504,715,0,0,0,0,0,0,0,0,0,-1,1728,309,0,0
511,715,0,0,0,0,0,0,0,0,0,-1,1735,309,0,0
518,715,0,0,0,0,0,0,0,0,0,-1,1742,309,0,0
525,715,0,0,0,0,0,0,0,0,0,-1,1749,309,0,0
532,715,0,0,0,0,0,0,0,0,0,-1,1756,309,0,0
539,715,0,0,0,0,0,0,0,0,0,-1,1763,309,0,0
546,715,0,0,0,0,0,0,0,0,0,-1,1770,309,0,0
553,715,0,0,0,0,0,0,0,0,0,-1,1777,309,0,0
560,715,0,0,0,0,0,0,0,0,0,-1,1784,309,0,0
567,715,0,0,0,0,0,0,0,0,0,-1,1791,309,0,0
574,715,0,0,0,0,0,0,0,0,0,-1,1798,309,0,0
581,715,0,0,0,0,0,0,0,0,0,-1,1805,309,0,0
588,715,0,0,0,0,0,0,0,0,0,-1,1812,309,0,0
595,715,0,0,0,0,0,0,0,0,0,-1,1819,309,0,0
602,715,0,0,0,0,0,0,0,0,0,-1,1826,309,0,0
609,715,0,0,0,0,0,0,0,0,0,-1,1833,309,0,0
616,715,0,0,0,0,0,0,0,0,0,-1,1840,309,0,0
623,715,0,0,0,0,0,0,0,0,0,-1,1847,309,0,0
630,715,0,0,0,0,0,0,0,0,0,-1,1854,309,0,0
637,715,0,0,0,0,0,0,0,0,0,-1,1861,309,0,0
644,715,0,0,0,0,0,0,0,0,0,-1,1868,309,0,0
651,715,0,0,0,0,0,0,0,0,0,-1,1875,309,0,0
658,715,0,0,0,0,0,0,0,0,0,-1,1882,309,0,0
665,715,0,0,0,0,0,0,0,0,0,-1,1889,309,0,0
672,715,0,0,0,0,0,0,0,0,0,-1,1896,309,0,0
679,715,0,0,0,0,0,0,0,0,0,-1,1903,309,0,0
686,715,0,0,0,0,0,0,0,0,0,-1,1910,309,0,0
693,715,0,0,0,0,0,0,0,0,0,-1,1917,309,0,0
700,715,0,0,0,0,0,0,0,0,0,-1,1924,309,0,0
707,715,0,0,0,0,0,0,0,0,0,-1,1931,309,0,0
714,715,0,0,0,0,0,0,0,0,0,-1,1938,309,0,0
721,715,0,0,0,0,0,0,0,0,0,-1,1945,309,0,0
728,715,0,0,0,0,0,0,0,0,0,-1,1952,309,0,0
735,715,0,0,0,0,0,0,0,0,0,-1,1959,309,0,0
742,715,0,0,0,0,0,0,0,0,0,-1,1966,309,0,0
749,715,0,0,0,0,0,0,0,0,0,-1,1973,309,0,0
756,715,0,0,0,0,0,0,0,0,0,-1,1980,309,0,0
763,715,0,0,0,0,0,0,0,0,0,-1,1987,309,0,0
770,715,0,0,0,0,0,0,0,0,0,-1,1994,309,0,0
777,715,0,0,0,0,0,0,0,0,0,-1,2001,309,0,0
784,715,0,0,0,0,0,0,0,0,0,-1,2008,309,0,0
791,715,0,0,0,0,0,0,0,0,0,-1,2015,309,0,0
798,715,0,0,0,0,0,0,0,0,0,-1,2022,309,0,0
805,715,0,0,0,0,0,0,0,0,0,-1,2029,309,0,0
812,715,0,0,0,0,0,0,0,0,0,-1,2036,309,0,0
-700,708,0,0,0,0,0,0,0,0,0,-1,524,316,0,0
-693,708,0,0,0,0,0,0,0,0,0,-1,531,316,0,0
-686,708,0,0,0,0,0,0,0,0,0,-1,538,316,0,0
-679,708,0,0,0,0,0,0,0,0,0,-1,545,316,0,0
-672,708,0,0,0,0,0,0,0,0,0,-1,552,316,0,0
-665,708,0,0,0,0,0,0,0,0,0,-1,559,316,0,0
-658,708,0,0,0,0,0,0,0,0,0,-1,566,316,0,0
-651,708,0,0,0,0,0,0,0,0,0,-1,573,316,0,0
-644,708,0,0,0,0,0,0,0,0,0,-1,580,316,0,0
-637,708,0,0,0,0,0,0,0,0,0,-1,587,316,0,0
-630,708,0,0,0,0,0,0,0,0,0,-1,594,316,0,0
-623,708,0,0,0,0,0,0,0,0,0,-1,601,316,0,0
-616,708,0,0,0,0,0,0,0,0,0,-1,608,316,0,0
-609,708,0,0,0,0,0,0,0,0,0,-1,615,316,0,0
-602,708,0,0,0,0,0,0,0,0,0,-1,622,316,0,0
-595,708,0,0,0,0,0,0,0,0,0,-1,629,316,0,0
-588,708,0,0,0,0,0,0,0,0,0,-1,636,316,0,0
-581,708,0,0,0,0,0,0,0,0,0,-1,643,316,0,0
-574,708,0,0,0,0,0,0,0,0,0,-1,650,316,0,0
-567,708,0,0,0,0,0,0,0,0,0,-1,657,316,0,0
-560,708,0,0,0,0,0,0,0,0,0,-1,664,316,0,0
-553,708,0,0,0,0,0,0,0,0,0,-1,671,316,0,0
-546,708,0,0,0,0,0,0,0,0,0,-1,678,316,0,0
-539,708,0,0,0,0,0,0,0,0,0,-1,685,316,0,0
-532,708,0,0,0,0,0,0,0,0,0,-1,692,316,0,0
-525,708,0,0,0,0,0,0,0,0,0,-1,699,316,0,0
-518,708,0,0,0,0,0,0,0,0,0,-1,706,316,0,0
-511,708,0,0,0,0,0,0,0,0,0,-1,713,316,0,0
-504,708,0,0,0,0,0,0,0,0,0,-1,720,316,0,0
-497,708,0,0,0,0,0,0,0,0,0,-1,727,316,0,0
-490,708,0,0,0,0,0,0,0,0,0,-1,734,316,0,0
-483,708,0,0,0,0,0,0,0,0,0,-1,741,316,0,0
-476,708,0,0,0,0,0,0,0,0,0,-1,748,316,0,0
-469,708,0,0,0,0,0,0,0,0,0,-1,755,316,0,0
-462,708,0,0,0,0,0,0,0,0,0,-1,762,316,0,0
-455,708,0,0,0,0,0,0,0,0,0,-1,769,316,0,0
-448,708,0,0,0,0,0,0,0,0,0,-1,776,316,0,0
-441,708,0,0,0,0,0,0,0,0,0,-1,783,316,0,0
-434,708,0,0,0,0,0,0,0,0,0,-1,790,316,0,0
-427,708,0,0,0,0,0,0,0,0,0,-1,797,316,0,0
-420,708,0,0,0,0,0,0,0,0,0,-1,804,316,0,0
-413,708,0,0,0,0,0,0,0,0,0,-1,811,316,0,0
-406,708,0,0,0,0,0,0,0,0,0,-1,818,316,0,0
-399,708,0,0,0,0,0,0,0,0,0,-1,825,316,0,0
-392,708,0,0,0,0,0,0,0,0,0,-1,832,316,0,0
-385,708,0,0,0,0,0,0,0,0,0,-1,839,316,0,0
-378,708,0,0,0,0,0,0,0,0,0,-1,846,316,0,0
-371,708,0,0,0,0,0,0,0,0,0,-1,853,316,0,0
-364,708,0,0,0,0,0,0,0,0,0,-1,860,316,0,0
-357,708,0,0,0,0,0,0,0,0,0,-1,867,316,0,0
-350,708,0,0,0,0,0,0,0,0,0,-1,874,316,0,0
-343,708,0,0,0,0,0,0,0,0,0,-1,881,316,0,0
-336,708,0,0,0,0,0,0,0,0,0,-1,888,316,0,0
-329,708,0,0,0,0,0,0,0,0,0,-1,895,316,0,0
-322,708,0,0,0,0,0,0,0,0,0,-1,902,316,0,0
-315,708,0,0,0,0,0,0,0,0,0,-1,909,316,0,0
-308,708,0,0,0,0,0,0,0,0,0,-1,916,316,0,0
-301,708,0,0,0,0,0,0,0,0,0,-1,923,316,0,0
-294,708,0,0,0,0,0,0,0,0,0,-1,930,316,0,0
-287,708,0,0,0,0,0,0,0,0,0,-1,937,316,0,0
-280,708,0,0,0,0,0,0,0,0,0,-1,944,316,0,0
-273,708,0,0,0,0,0,0,0,0,0,-1,951,316,0,0
-266,708,0,0,0,0,0,0,0,0,0,-1,958,316,0,0
-259,708,0,0,0,0,0,0,0,0,0,-1,965,316,0,0
-252,708,0,0,0,0,0,0,0,0,0,-1,972,316,0,0
-245,708,0,0,0,0,0,0,0,0,0,-1,979,316,0,0
-238,708,0,0,0,0,0,0,0,0,0,-1,986,316,0,0
-231,708,0,0,0,0,0,0,0,0,0,-1,993,316,0,0
-224,708,0,0,0,0,0,0,0,0,0,-1,1000,316,0,0
-217,708,0,0,0,0,0,0,0,0,0,-1,1007,316,0,0
-210,708,0,0,0,0,0,0,0,0,0,-1,1014,316,0,0
-203,708,0,0,0,0,0,0,0,0,0,-1,1021,316,0,0
-196,708,0,0,0,0,0,0,0,0,0,-1,1028,316,0,0
-189,708,0,0,0,0,0,0,0,0,0,-1,1035,316,0,0
-182,708,0,0,0,0,0,0,0,0,0,-1,1042,316,0,0
-175,708,0,0,0,0,0,0,0,0,0,-1,1049,316,0,0
-168,708,0,0,0,0,0,0,0,0,0,-1,1056,316,0,0
-161,708,0,0,0,0,0,0,0,0,0,-1,1063,316,0,0
-154,708,0,0,0,0,0,0,0,0,0,-1,1070,316,0,0
-147,708,0,0,0,0,0,0,0,0,0,-1,1077,316,0,0
-140,708,0,0,0,0,0,0,0,0,0,-1,1084,316,0,0
-133,708,0,0,0,0,0,0,0,0,0,-1,1091,316,0,0
-126,708,0,0,0,0,0,0,0,0,0,-1,1098,316,0,0
-119,708,0,0,0,0,0,0,0,0,0,-1,1105,316,0,0
-112,708,0,0,0,0,0,0,0,0,0,-1,1112,316,0,0
-105,708,0,0,0,0,0,0,0,0,0,-1,1119,316,0,0
-98,708,0,0,0,0,0,0,0,0,0,-1,1126,316,0,0
-91,708,0,0,0,0,0,0,0,0,0,-1,1133,316,0,0
-84,708,0,0,0,0,0,0,0,0,0,-1,1140,316,0,0
-77,708,0,0,0,0,0,0,0,0,0,-1,1147,316,0,0
-70,708,0,0,0,0,0,0,0,0,0,-1,1154,316,0,0
-63,708,0,0,0,0,0,0,0,0,0,-1,1161,316,0,0
-56,708,0,0,0,0,0,0,0,0,0,-1,1168,316,0,0
-49,708,0,0,0,0,0,0,0,0,0,-1,1175,316,0,0
-42,708,0,0,0,0,0,0,0,0,0,-1,1182,316,0,0
-35,708,-2.71204,-6.31558,0,0,0,0,0,0,0,-1,1189,316,-2.712,6.3156
-28,708,-2.92371,-5.53253,0,0,0,0,0,0,0,-1,1196,316,-2.92375,5.53254
-21,708,-0.417969,-24.5911,0,0,0,0,0,0,0,-1,1203,316,-0.418022,24.5911
-14,708,5.73181,-48.5143,0,0,0,0,0,0,0,-1,1210,316,5.73179,48.5143
-7,708,5.48267,-47.673,0,0,0,0,0,0,0,-1,1217,316,5.48266,47.673
0,708,5.23352,-46.8317,0,0,0,0,0,0,0,-1,1224,316,5.23353,46.8317
7,708,4.36658,-45.5712,-0.0393195,-0.150523,0.00364937,-0.0391998,-0.150642,0.0327701,0.0902455,0.0474275,1231,316,4.36653,45.5712
14,708,3.97595,-44.6636,-0.0407958,-0.132527,-0.00284525,-0.0407076,-0.132615,-0.0309777,0.0784443,0.0459808,1238,316,3.97598,44.6636
21,708,3.54578,-43.8581,-0.0414067,-0.11471,-0.0107498,-0.0398628,-0.116254,-0.142648,0.0682147,0.0453782,1245,316,3.5458,43.8581
28,708,3.2041,-43.5827,-0.0373729,-0.0984024,-0.0194344,-0.0317096,-0.104066,-0.283551,0.061591,0.0434051,1252,316,3.20411,43.5827
35,708,3.01624,-42.1868,0,0,0,0,0,0,0,-1,1259,316,3.0162,42.1868
42,708,4.99817,-39.0482,0,0,0,0,0,0,0,-1,1266,316,4.99818,39.0482
49,708,4.50073,-39.8585,0,0,0,0,0,0,0,-1,1273,316,4.50079,39.8585
56,708,3.88538,-40.3182,-0.024665,0.00198827,-0.0322378,0.0235453,-0.0462221,-0.981394,0.0409833,0.044976,1280,316,3.88534,40.3182
63,708,3.33594,-40.7693,-0.0237084,0.0274718,-0.0343054,0.0446802,-0.0409168,-1.10585,0.0494354,0.0441104,1287,316,3.33593,40.7693
70,708,2.77136,-41.2008,-0.0237231,0.0539915,-0.0337283,0.066588,-0.0363195,-1.21337,0.0602643,0.0426463,1294,316,2.77137,41.2008
77,708,2.11707,-41.4301,-0.026214,0.0809206,-0.0313433,0.0894166,-0.03471,-1.30609,0.0739482,0.0413543,1301,316,2.11705,41.4301
84,708,1.3009,-41.4908,0,0,0,0,0,0,0,-1,1308,316,1.30085,41.4909
91,708,7.27014,-37.8123,-0.040587,0.127882,-0.026565,0.131971,-0.0446767,-1.41805,0.106057,0.0461172,1315,316,7.27017,37.8123
98,708,6.27307,-38.8404,-0.0496529,0.145381,-0.0261409,0.148824,-0.0530958,-1.43984,0.120867,0.0455156,1322,316,6.27308,38.8404
105,708,5.25024,-39.7833,0,0,0,0,0,0,0,-1,1329,316,5.2503,39.7833
112,708,4.34436,-40.6899,-0.0631659,0.171837,-0.0266999,0.174833,-0.0661612,-1.45908,0.143776,0.0462649,1336,316,4.34436,40.6899
119,708,3.59692,-42.0265,0,0,0,0,0,0,0,-1,1343,316,3.59693,42.0265
126,708,2.67786,-43.0175,0,0,0,0,0,0,0,-1,1350,316,2.6779,43.0174
133,708,16.8003,-36.9436,0,0,0,0,0,0,0,-1,1357,316,16.8003,36.9436
140,708,17.6902,-37.0591,0,0,0,0,0,0,0,-1,1364,316,17.6902,37.059
147,708,18.1012,-38.0665,0,0,0,0,0,0,0,-1,1371,316,18.1011,38.0665
154,708,0,0,0,0,0,0,0,0,0,-1,1378,316,0,0
161,708,0,0,0,0,0,0,0,0,0,-1,1385,316,0,0
168,708,0,0,0,0,0,0,0,0,0,-1,1392,316,0,0
175,708,0,0,0,0,0,0,0,0,0,-1,1399,316,0,0
182,708,0,0,0,0,0,0,0,0,0,-1,1406,316,0,0
189,708,0,0,0,0,0,0,0,0,0,-1,1413,316,0,0
196,708,0,0,0,0,0,0,0,0,0,-1,1420,316,0,0
203,708,0,0,0,0,0,0,0,0,0,-1,1427,316,0,0
210,708,0,0,0,0,0,0,0,0,0,-1,1434,316,0,0
217,708,0,0,0,0,0,0,0,0,0,-1,1441,316,0,0
224,708,0,0,0,0,0,0,0,0,0,-1,1448,316,0,0
231,708,0,0,0,0,0,0,0,0,0,-1,1455,316,0,0
238,708,0,0,0,0,0,0,0,0,0,-1,1462,316,0,0
245,708,0,0,0,0,0,0,0,0,0,-1,1469,316,0,0
252,708,0,0,0,0,0,0,0,0,0,-1,1476,316,0,0
259,708,0,0,0,0,0,0,0,0,0,-1,1483,316,0,0
266,708,0,0,0,0,0,0,0,0,0,-1,1490,316,0,0
273,708,0,0,0,0,0,0,0,0,0,-1,1497,316,0,0
280,708,0,0,0,0,0,0,0,0,0,-1,1504,316,0,0
287,708,0,0,0,0,0,0,0,0,0,-1,1511,316,0,0
294,708,0,0,0,0,0,0,0,0,0,-1,1518,316,0,0
301,708,0,0,0,0,0,0,0,0,0,-1,1525,316,0,0
308,708,0,0,0,0,0,0,0,0,0,-1,1532,316,0,0
315,708,0,0,0,0,0,0,0,0,0,-1,1539,316,0,0
322,708,0,0,0,0,0,0,0,0,0,-1,1546,316,0,0
329,708,0,0,0,0,0,0,0,0,0,-1,1553,316,0,0
336,708,0,0,0,0,0,0,0,0,0,-1,1560,316,0,0
343,708,0,0,0,0,0,0,0,0,0,-1,1567,316,0,0
350,708,0,0,0,0,0,0,0,0,0,-1,1574,316,0,0
357,708,0,0,0,0,0,0,0,0,0,-1,1581,316,0,0
364,708,0,0,0,0,0,0,0,0,0,-1,1588,316,0,0
371,708,0,0,0,0,0,0,0,0,0,-1,1595,316,0,0
378,708,0,0,0,0,0,0,0,0,0,-1,1602,316,0,0
385,708,0,0,0,0,0,0,0,0,0,-1,1609,316,0,0
392,708,0,0,0,0,0,0,0,0,0,-1,1616,316,0,0
399,708,0,0,0,0,0,0,0,0,0,-1,1623,316,0,0
406,708,0,0,0,0,0,0,0,0,0,-1,1630,316,0,0
413,708,0,0,0,0,0,0,0,0,0,-1,1637,316,0,0
420,708,0,0,0,0,0,0,0,0,0,-1,1644,316,0,0
427,708,0,0,0,0,0,0,0,0,0,-1,1651,316,0,0
434,708,0,0,0,0,0,0,0,0,0,-1,1658,316,0,0
441,708,0,0,0,0,0,0,0,0,0,-1,1665,316,0,0
448,708,0,0,0,0,0,0,0,0,0,-1,1672,316,0,0
455,708,0,0,0,0,0,0,0,0,0,-1,1679,316,0,0
462,708,0,0,0,0,0,0,0,0,0,-1,1686,316,0,0
469,708,0,0,0,0,0,0,0,0,0,-1,1693,316,0,0
476,708,0,0,0,0,0,0,0,0,0,-1,1700,316,0,0
483,708,0,0,0,0,0,0,0,0,0,-1,1707,316,0,0
490,708,0,0,0,0,0,0,0,0,0,-1,1714,316,0,0
497,708,0,0,0,0,0,0,0,0,0,-1,1721,316,0,0
504,708,0,0,0,0,0,0,0,0,0,-1,1728,316,0,0
511,708,0,0,0,0,0,0,0,0,0,-1,1735,316,0,0
518,708,0,0,0,0,0,0,0,0,0,-1,1742,316,0,0
525,708,0,0,0,0,0,0,0,0,0,-1,1749,316,0,0
532,708,0,0,0,0,0,0,0,0,0,-1,1756,316,0,0
539,708,0,0,0,0,0,0,0,0,0,-1,1763,316,0,0
546,708,0,0,0,0,0,0,0,0,0,-1,1770,316,0,0
553,708,0,0,0,0,0,0,0,0,0,-1,1777,316,0,0
560,708,0,0,0,0,0,0,0,0,0,-1,1784,316,0,0
567,708,0,0,0,0,0,0,0,0,0,-1,1791,316,0,0
574,708,0,0,0,0,0,0,0,0,0,-1,1798,316,0,0
581,708,0,0,0,0,0,0,0,0,0,-1,1805,316,0,0
588,708,0,0,0,0,0,0,0,0,0,-1,1812,316,0,0
595,708,0,0,0,0,0,0,0,0,0,-1,1819,316,0,0
602,708,0,0,0,0,0,0,0,0,0,-1,1826,316,0,0
609,708,0,0,0,0,0,0,0,0,0,-1,1833,316,0,0
616,708,0,0,0,0,0,0,0,0,0,-1,1840,316,0,0
623,708,0,0,0,0,0,0,0,0,0,-1,1847,316,0,0
630,708,0,0,0,0,0,0,0,0,0,-1,1854,316,0,0
637,708,0,0,0,0,0,0,0,0,0,-1,1861,316,0,0
644,708,0,0,0,0,0,0,0,0,0,-1,1868,316,0,0
651,708,0,0,0,0,0,0,0,0,0,-1,1875,316,0,0
658,708,0,0,0,0,0,0,0,0,0,-1,1882,316,0,0
665,708,0,0,0,0,0,0,0,0,0,-1,1889,316,0,0
672,708,0,0,0,0,0,0,0,0,0,-1,1896,316,0,0
679,708,0,0,0,0,0,0,0,0,0,-1,1903,316,0,0
686,708,0,0,0,0,0,0,0,0,0,-1,1910,316,0,0
693,708,0,0,0,0,0,0,0,0,0,-1,1917,316,0,0
700,708,0,0,0,0,0,0,0,0,0,-1,1924,316,0,0
707,708,0,0,0,0,0,0,0,0,0,-1,1931,316,0,0
714,708,0,0,0,0,0,0,0,0,0,-1,1938,316,0,0
721,708,0,0,0,0,0,0,0,0,0,-1,1945,316,0,0
728,708,0,0,0,0,0,0,0,0,0,-1,1952,316,0,0
735,708,0,0,0,0,0,0,0,0,0,-1,1959,316,0,0
742,708,0,0,0,0,0,0,0,0,0,-1,1966,316,0,0
749,708,0,0,0,0,0,0,0,0,0,-1,1973,316,0,0
756,708,0,0,0,0,0,0,0,0,0,-1,1980,316,0,0
763,708,0,0,0,0,0,0,0,0,0,-1,1987,316,0,0
770,708,0,0,0,0,0,0,0,0,0,-1,1994,316,0,0
777,708,0,0,0,0,0,0,0,0,0,-1,2001,316,0,0
784,708,0,0,0,0,0,0,0,0,0,-1,2008,316,0,0
791,708,0,0,0,0,0,0,0,0,0,-1,2015,316,0,0
798,708,0,0,0,0,0,0,0,0,0,-1,2022,316,0,0
805,708,0,0,0,0,0,0,0,0,0,-1,2029,316,0,0
812,708,0,0,0,0,0,0,0,0,0,-1,2036,316,0,0
-700,701,0,0,0,0,0,0,0,0,0,-1,524,323,0,0
-693,701,0,0,0,0,0,0,0,0,0,-1,531,323,0,0
-686,701,0,0,0,0,0,0,0,0,0,-1,538,323,0,0
-679,701,0,0,0,0,0,0,0,0,0,-1,545,323,0,0
-672,701,0,0,0,0,0,0,0,0,0,-1,552,323,0,0
-665,701,0,0,0,0,0,0,0,0,0,-1,559,323,0,0
-658,701,0,0,0,0,0,0,0,0,0,-1,566,323,0,0
-651,701,0,0,0,0,0,0,0,0,0,-1,573,323,0,0
-644,701,0,0,0,0,0,0,0,0,0,-1,580,323,0,0
-637,701,0,0,0,0,0,0,0,0,0,-1,587,323,0,0
-630,701,0,0,0,0,0,0,0,0,0,-1,594,323,0,0
-623,701,0,0,0,0,0,0,0,0,0,-1,601,323,0,0
-616,701,0,0,0,0,0,0,0,0,0,-1,608,323,0,0
-609,701,0,0,0,0,0,0,0,0,0,-1,615,323,0,0
-602,701,0,0,0,0,0,0,0,0,0,-1,622,323,0,0
-595,701,0,0,0,0,0,0,0,0,0,-1,629,323,0,0
-588,701,0,0,0,0,0,0,0,0,0,-1,636,323,0,0
-581,701,0,0,0,0,0,0,0,0,0,-1,643,323,0,0
-574,701,0,0,0,0,0,0,0,0,0,-1,650,323,0,0
-567,701,0,0,0,0,0,0,0,0,0,-1,657,323,0,0
-560,701,0,0,0,0,0,0,0,0,0,-1,664,323,0,0
-553,701,0,0,0,0,0,0,0,0,0,-1,671,323,0,0
-546,701,0,0,0,0,0,0,0,0,0,-1,678,323,0,0
-539,701,0,0,0,0,0,0,0,0,0,-1,685,323,0,0
-532,701,0,0,0,0,0,0,0,0,0,-1,692,323,0,0
-525,701,0,0,0,0,0,0,0,0,0,-1,699,323,0,0
-518,701,0,0,0,0,0,0,0,0,0,-1,706,323,0,0
-511,701,0,0,0,0,0,0,0,0,0,-1,713,323,0,0
-504,701,0,0,0,0,0,0,0,0,0,-1,720,323,0,0
-497,701,0,0,0,0,0,0,0,0,0,-1,727,323,0,0
-490,701,0,0,0,0,0,0,0,0,0,-1,734,323,0,0
-483,701,0,0,0,0,0,0,0,0,0,-1,741,323,0,0
-476,701,0,0,0,0,0,0,0,0,0,-1,748,323,0,0
-469,701,0,0,0,0,0,0,0,0,0,-1,755,323,0,0
-462,701,0,0,0,0,0,0,0,0,0,-1,762,323,0,0
-455,701,0,0,0,0,0,0,0,0,0,-1,769,323,0,0
-448,701,0,0,0,0,0,0,0,0,0,-1,776,323,0,0
-441,701,0,0,0,0,0,0,0,0,0,-1,783,323,0,0
-434,701,0,0,0,0,0,0,0,0,0,-1,790,323,0,0
-427,701,0,0,0,0,0,0,0,0,0,-1,797,323,0,0
-420,701,0,0,0,0,0,0,0,0,0,-1,804,323,0,0
-413,701,0,0,0,0,0,0,0,0,0,-1,811,323,0,0
-406,701,0,0,0,0,0,0,0,0,0,-1,818,323,0,0
-399,701,0,0,0,0,0,0,0,0,0,-1,825,323,0,0
-392,701,0,0,0,0,0,0,0,0,0,-1,832,323,0,0
-385,701,0,0,0,0,0,0,0,0,0,-1,839,323,0,0
-378,701,0,0,0,0,0,0,0,0,0,-1,846,323,0,0
-371,701,0,0,0,0,0,0,0,0,0,-1,853,323,0,0
-364,701,0,0,0,0,0,0,0,0,0,-1,860,323,0,0
-357,701,0,0,0,0,0,0,0,0,0,-1,867,323,0,0
-350,701,0,0,0,0,0,0,0,0,0,-1,874,323,0,0
-343,701,0,0,0,0,0,0,0,0,0,-1,881,323,0,0
-336,701,0,0,0,0,0,0,0,0,0,-1,888,323,0,0
-329,701,0,0,0,0,0,0,0,0,0,-1,895,323,0,0
-322,701,0,0,0,0,0,0,0,0,0,-1,902,323,0,0
-315,701,0,0,0,0,0,0,0,0,0,-1,909,323,0,0
-308,701,0,0,0,0,0,0,0,0,0,-1,916,323,0,0
-301,701,0,0,0,0,0,0,0,0,0,-1,923,323,0,0
-294,701,0,0,0,0,0,0,0,0,0,-1,930,323,0,0
-287,701,0,0,0,0,0,0,0,0,0,-1,937,323,0,0
-280,701,0,0,0,0,0,0,0,0,0,-1,944,323,0,0
-273,701,0,0,0,0,0,0,0,0,0,-1,951,323,0,0
-266,701,0,0,0,0,0,0,0,0,0,-1,958,323,0,0
-259,701,0,0,0,0,0,0,0,0,0,-1,965,323,0,0
-252,701,0,0,0,0,0,0,0,0,0,-1,972,323,0,0
-245,701,0,0,0,0,0,0,0,0,0,-1,979,323,0,0
-238,701,0,0,0,0,0,0,0,0,0,-1,986,323,0,0
-231,701,0,0,0,0,0,0,0,0,0,-1,993,323,0,0
-224,701,0,0,0,0,0,0,0,0,0,-1,1000,323,0,0
-217,701,0,0,0,0,0,0,0,0,0,-1,1007,323,0,0
-210,701,0,0,0,0,0,0,0,0,0,-1,1014,323,0,0
-203,701,0,0,0,0,0,0,0,0,0,-1,1021,323,0,0
-196,701,0,0,0,0,0,0,0,0,0,-1,1028,323,0,0
-189,701,0,0,0,0,0,0,0,0,0,-1,1035,323,0,0
-182,701,0,0,0,0,0,0,0,0,0,-1,1042,323,0,0
-175,701,0,0,0,0,0,0,0,0,0,-1,1049,323,0,0
-168,701,0,0,0,0,0,0,0,0,0,-1,1056,323,0,0
-161,701,0,0,0,0,0,0,0,0,0,-1,1063,323,0,0
-154,701,0,0,0,0,0,0,0,0,0,-1,1070,323,0,0
-147,701,0,0,0,0,0,0,0,0,0,-1,1077,323,0,0
-140,701,0,0,0,0,0,0,0,0,0,-1,1084,323,0,0
-133,701,0,0,0,0,0,0,0,0,0,-1,1091,323,0,0
-126,701,0,0,0,0,0,0,0,0,0,-1,1098,323,0,0
-119,701,0,0,0,0,0,0,0,0,0,-1,1105,323,0,0
-112,701,0,0,0,0,0,0,0,0,0,-1,1112,323,0,0
-105,701,0,0,0,0,0,0,0,0,0,-1,1119,323,0,0
-98,701,0,0,0,0,0,0,0,0,0,-1,1126,323,0,0
-91,701,0,0,0,0,0,0,0,0,0,-1,1133,323,0,0
-84,701,0,0,0,0,0,0,0,0,0,-1,1140,323,0,0
-77,701,0,0,0,0,0,0,0,0,0,-1,1147,323,0,0
-70,701,-12.7566,-30.413,0,0,0,0,0,0,0,-1,1154,323,-12.7566,30.413
-63,701,-18.3169,-21.2322,0,0,0,0,0,0,0,-1,1161,323,-18.3169,21.2322
-56,701,-0.420166,-0.101776,0,0,0,0,0,0,0,-1,1168,323,-0.420119,0.101777
-49,701,-1.09021,-0.155762,0,0,0,0,0,0,0,-1,1175,323,-1.09024,0.155768
-42,701,-0.210327,-0.299133,0,0,0,0,0,0,0,-1,1182,323,-0.210379,0.29914
-35,701,-2.9635,-7.98676,0,0,0,0,0,0,0,-1,1189,323,-2.9635,7.98676
-28,701,-6.64417,-5.4917,0,0,0,0,0,0,0,-1,1196,323,-6.64411,5.4917
-21,701,5.77478,-39.884,0,0,0,0,0,0,0,-1,1203,323,5.77475,39.884
-14,701,5.46716,-47.333,0,0,0,0,0,0,0,-1,1210,323,5.46717,47.333
-7,701,5.43872,-46.4106,0,0,0,0,0,0,0,-1,1217,323,5.43869,46.4106
0,701,4.98267,-45.1371,0,0,0,0,0,0,0,-1,1224,323,4.98263,45.1371
7,701,4.52856,-44.3878,-0.0319574,-0.102469,-0.00377855,-0.0317555,-0.102671,-0.0533836,0.0606975,0.0468297,1231,323,4.52855,44.3877
14,701,4.151,-43.6164,-0.032792,-0.088695,-0.0083514,-0.031571,-0.089916,-0.145169,0.0526746,0.0446177,1238,323,4.15102,43.6164
21,701,3.72998,-42.9309,-0.0328035,-0.0750311,-0.0139712,-0.0285996,-0.079235,-0.292281,0.0463323,0.0425851,1245,323,3.73001,42.9309
28,701,3.21313,-42.0685,-0.0288951,-0.0622334,-0.020135,-0.0194246,-0.0717039,-0.439646,0.0428223,0.0451629,1252,323,3.21312,42.0686
35,701,3.26501,-42.0243,-0.0227839,-0.0408884,-0.0214149,-0.00858659,-0.0550857,-0.585434,0.0342226,0.0458294,1259,323,3.26502,42.0243
42,701,3.29102,-41.3146,0,0,0,0,0,0,0,-1,1266,323,3.291,41.3146
49,701,3.64893,-41.0333,0,0,0,0,0,0,0,-1,1273,323,3.64894,41.0333
56,701,4.63513,-40.5009,-0.0171848,0.0201101,-0.0261699,0.0335965,-0.0306713,-1.09495,0.0371179,0.0431714,1280,323,4.63518,40.5009
63,701,4.27466,-40.6549,-0.0163333,0.0412063,-0.0269097,0.0518298,-0.0269568,-1.19479,0.0462369,0.0436821,1287,323,4.2747,40.6549
70,701,3.86206,-40.852,-0.0166114,0.0628466,-0.0257681,0.0704715,-0.0242363,-1.2831,0.05681,0.044504,1294,323,3.86207,40.852
77,701,3.82214,-40.5259,-0.0190615,0.0844413,-0.0235234,0.0895366,-0.0241568,-1.35748,0.0691642,0.0452331,1301,323,3.82211,40.5259
84,701,7.64539,-38.0821,-0.0238308,0.104536,-0.0214387,0.108022,-0.0273167,-1.40961,0.082639,0.045681,1308,323,7.64542,38.0821
91,701,6.5127,-38.783,-0.0307256,0.12079,-0.0199763,0.12338,-0.0333151,-1.44189,0.0953191,0.0454367,1315,323,6.51264,38.783
98,701,5.59497,-39.858,-0.0377747,0.134011,-0.0195753,0.136214,-0.0399771,-1.45876,0.106662,0.043759,1322,323,5.59497,39.858
105,701,4.70532,-40.89,0,0,0,0,0,0,0,-1,1329,323,4.70533,40.8899
112,701,3.53662,-41.7869,0,0,0,0,0,0,0,-1,1336,323,3.53661,41.7869
119,701,2.59473,-42.7881,0,0,0,0,0,0,0,-1,1343,323,2.59476,42.7881
126,701,14.7488,-37.5791,0,0,0,0,0,0,0,-1,1350,323,14.7487,37.5791
133,701,15.462,-37.684,0,0,0,0,0,0,0,-1,1357,323,15.462,37.684
140,701,16.296,-37.8999,0,0,0,0,0,0,0,-1,1364,323,16.296,37.8999
147,701,17.3104,-38.2804,0,0,0,0,0,0,0,-1,1371,323,17.3104,38.2804
154,701,18.2086,-38.5696,0,0,0,0,0,0,0,-1,1378,323,18.2086,38.5696
161,701,4.09717,-35.8294,0,0,0,0,0,0,0,-1,1385,323,4.09715,35.8294
168,701,30.7272,1.76184,0,0,0,0,0,0,0,-1,1392,323,30.7272,-1.76184
175,701,31.5035,2.25711,0,0,0,0,0,0,0,-1,1399,323,31.5036,-2.25712
182,701,8.80652,5.42807,0,0,0,0,0,0,0,-1,1406,323,8.8065,-5.42808
189,701,8.58081,4.24493,0,0,0,0,0,0,0,-1,1413,323,8.58082,-4.24494
196,701,0,0,0,0,0,0,0,0,0,-1,1420,323,0,0
203,701,0,0,0,0,0,0,0,0,0,-1,1427,323,0,0
210,701,0,0,0,0,0,0,0,0,0,-1,1434,323,0,0
217,701,0,0,0,0,0,0,0,0,0,-1,1441,323,0,0
224,701,0,0,0,0,0,0,0,0,0,-1,1448,323,0,0
231,701,0,0,0,0,0,0,0,0,0,-1,1455,323,0,0
238,701,0,0,0,0,0,0,0,0,0,-1,1462,323,0,0
245,701,0,0,0,0,0,0,0,0,0,-1,1469,323,0,0
252,701,0,0,0,0,0,0,0,0,0,-1,1476,323,0,0
259,701,0,0,0,0,0,0,0,0,0,-1,1483,323,0,0
266,701,0,0,0,0,0,0,0,0,0,-1,1490,323,0,0
273,701,0,0,0,0,0,0,0,0,0,-1,1497,323,0,0
280,701,0,0,0,0,0,0,0,0,0,-1,1504,323,0,0
287,701,0,0,0,0,0,0,0,0,0,-1,1511,323,0,0
294,701,0,0,0,0,0,0,0,0,0,-1,1518,323,0,0
301,701,0,0,0,0,0,0,0,0,0,-1,1525,323,0,0
308,701,0,0,0,0,0,0,0,0,0,-1,1532,323,0,0
315,701,0,0,0,0,0,0,0,0,0,-1,1539,323,0,0
322,701,0,0,0,0,0,0,0,0,0,-1,1546,323,0,0
329,701,0,0,0,0,0,0,0,0,0,-1,1553,323,0,0
336,701,0,0,0,0,0,0,0,0,0,-1,1560,323,0,0
343,701,0,0,0,0,0,0,0,0,0,-1,1567,323,0,0
350,701,0,0,0,0,0,0,0,0,0,-1,1574,323,0,0
357,701,0,0,0,0,0,0,0,0,0,-1,1581,323,0,0
364,701,0,0,0,0,0,0,0,0,0,-1,1588,323,0,0
371,701,0,0,0,0,0,0,0,0,0,-1,1595,323,0,0
378,701,0,0,0,0,0,0,0,0,0,-1,1602,323,0,0
385,701,0,0,0,0,0,0,0,0,0,-1,1609,323,0,0
392,701,0,0,0,0,0,0,0,0,0,-1,1616,323,0,0
399,701,0,0,0,0,0,0,0,0,0,-1,1623,323,0,0
406,701,0,0,0,0,0,0,0,0,0,-1,1630,323,0,0
413,701,0,0,0,0,0,0,0,0,0,-1,1637,323,0,0
420,701,0,0,0,0,0,0,0,0,0,-1,1644,323,0,0
427,701,0,0,0,0,0,0,0,0,0,-1,1651,323,0,0
434,701,0,0,0,0,0,0,0,0,0,-1,1658,323,0,0
441,701,0,0,0,0,0,0,0,0,0,-1,1665,323,0,0
448,701,0,0,0,0,0,0,0,0,0,-1,1672,323,0,0
455,701,0,0,0,0,0,0,0,0,0,-1,1679,323,0,0
462,701,0,0,0,0,0,0,0,0,0,-1,1686,323,0,0
469,701,0,0,0,0,0,0,0,0,0,-1,1693,323,0,0
476,701,0,0,0,0,0,0,0,0,0,-1,1700,323,0,0
483,701,0,0,0,0,0,0,0,0,0,-1,1707,323,0,0
490,701,0,0,0,0,0,0,0,0,0,-1,1714,323,0,0
497,701,0,0,0,0,0,0,0,0,0,-1,1721,323,0,0
504,701,0,0,0,0,0,0,0,0,0,-1,1728,323,0,0
511,701,0,0,0,0,0,0,0,0,0,-1,1735,323,0,0
518,701,0,0,0,0,0,0,0,0,0,-1,1742,323,0,0
525,701,0,0,0,0,0,0,0,0,0,-1,1749,323,0,0
532,701,0,0,0,0,0,0,0,0,0,-1,1756,323,0,0
539,701,0,0,0,0,0,0,0,0,0,-1,1763,323,0,0
546,701,0,0,0,0,0,0,0,0,0,-1,1770,323,0,0
553,701,0,0,0,0,0,0,0,0,0,-1,1777,323,0,0
560,701,0,0,0,0,0,0,0,0,0,-1,1784,323,0,0
567,701,0,0,0,0,0,0,0,0,0,-1,1791,323,0,0
574,701,0,0,0,0,0,0,0,0,0,-1,1798,323,0,0
581,701,0,0,0,0,0,0,0,0,0,-1,1805,323,0,0
588,701,0,0,0,0,0,0,0,0,0,-1,1812,323,0,0
595,701,0,0,0,0,0,0,0,0,0,-1,1819,323,0,0
602,701,0,0,0,0,0,0,0,0,0,-1,1826,323,0,0
609,701,0,0,0,0,0,0,0,0,0,-1,1833,323,0,0
616,701,0,0,0,0,0,0,0,0,0,-1,1840,323,0,0
623,701,0,0,0,0,0,0,0,0,0,-1,1847,323,0,0
630,701,0,0,0,0,0,0,0,0,0,-1,1854,323,0,0
637,701,0,0,0,0,0,0,0,0,0,-1,1861,323,0,0
644,701,0,0,0,0,0,0,0,0,0,-1,1868,323,0,0
651,701,0,0,0,0,0,0,0,0,0,-1,1875,323,0,0
658,701,0,0,0,0,0,0,0,0,0,-1,1882,323,0,0
665,701,0,0,0,0,0,0,0,0,0,-1,1889,323,0,0
672,701,0,0,0,0,0,0,0,0,0,-1,1896,323,0,0
679,701,0,0,0,0,0,0,0,0,0,-1,1903,323,0,0
686,701,0,0,0,0,0,0,0,0,0,-1,1910,323,0,0
693,701,0,0,0,0,0,0,0,0,0,-1,1917,323,0,0
700,701,0,0,0,0,0,0,0,0,0,-1,1924,323,0,0
707,701,0,0,0,0,0,0,0,0,0,-1,1931,323,0,0
714,701,0,0,0,0,0,0,0,0,0,-1,1938,323,0,0
721,701,0,0,0,0,0,0,0,0,0,-1,1945,323,0,0
728,701,0,0,0,0,0,0,0,0,0,-1,1952,323,0,0
735,701,0,0,0,0,0,0,0,0,0,-1,1959,323,0,0
742,701,0,0,0,0,0,0,0,0,0,-1,1966,323,0,0
749,701,0,0,0,0,0,0,0,0,0,-1,1973,323,0,0
756,701,0,0,0,0,0,0,0,0,0,-1,1980,323,0,0
763,701,0,0,0,0,0,0,0,0,0,-1,1987,323,0,0
770,701,0,0,0,0,0,0,0,0,0,-1,1994,323,0,0
777,701,0,0,0,0,0,0,0,0,0,-1,2001,323,0,0
784,701,0,0,0,0,0,0,0,0,0,-1,2008,323,0,0
791,701,0,0,0,0,0,0,0,0,0,-1,2015,323,0,0
798,701,0,0,0,0,0,0,0,0,0,-1,2022,323,0,0
805,701,0,0,0,0,0,0,0,0,0,-1,2029,323,0,0
812,701,0,0,0,0,0,0,0,0,0,-1,2036,323,0,0
-700,694,0,0,0,0,0,0,0,0,0,-1,524,330,0,0
-693,694,0,0,0,0,0,0,0,0,0,-1,531,330,0,0
-686,694,0,0,0,0,0,0,0,0,0,-1,538,330,0,0
-679,694,0,0,0,0,0,0,0,0,0,-1,545,330,0,0
-672,694,0,0,0,0,0,0,0,0,0,-1,552,330,0,0
-665,694,0,0,0,0,0,0,0,0,0,-1,559,330,0,0
-658,694,0,0,0,0,0,0,0,0,0,-1,566,330,0,0
-651,694,0,0,0,0,0,0,0,0,0,-1,573,330,0,0
-644,694,0,0,0,0,0,0,0,0,0,-1,580,330,0,0
-637,694,0,0,0,0,0,0,0,0,0,-1,587,330,0,0
-630,694,0,0,0,0,0,0,0,0,0,-1,594,330,0,0
-623,694,0,0,0,0,0,0,0,0,0,-1,601,330,0,0
-616,694,0,0,0,0,0,0,0,0,0,-1,608,330,0,0
-609,694,0,0,0,0,0,0,0,0,0,-1,615,330,0,0
-602,694,0,0,0,0,0,0,0,0,0,-1,622,330,0,0
-595,694,0,0,0,0,0,0,0,0,0,-1,629,330,0,0
-588,694,0,0,0,0,0,0,0,0,0,-1,636,330,0,0
-581,694,0,0,0,0,0,0,0,0,0,-1,643,330,0,0
-574,694,0,0,0,0,0,0,0,0,0,-1,650,330,0,0
-567,694,0,0,0,0,0,0,0,0,0,-1,657,330,0,0
-560,694,0,0,0,0,0,0,0,0,0,-1,664,330,0,0
-553,694,0,0,0,0,0,0,0,0,0,-1,671,330,0,0
-546,694,0,0,0,0,0,0,0,0,0,-1,678,330,0,0
-539,694,0,0,0,0,0,0,0,0,0,-1,685,330,0,0
-532,694,0,0,0,0,0,0,0,0,0,-1,692,330,0,0
-525,694,0,0,0,0,0,0,0,0,0,-1,699,330,0,0
-518,694,0,0,0,0,0,0,0,0,0,-1,706,330,0,0
-511,694,0,0,0,0,0,0,0,0,0,-1,713,330,0,0
-504,694,0,0,0,0,0,0,0,0,0,-1,720,330,0,0
-497,694,0,0,0,0,0,0,0,0,0,-1,727,330,0,0
-490,694,0,0,0,0,0,0,0,0,0,-1,734,330,0,0
-483,694,0,0,0,0,0,0,0,0,0,-1,741,330,0,0
-476,694,0,0,0,0,0,0,0,0,0,-1,748,330,0,0
-469,694,0,0,0,0,0,0,0,0,0,-1,755,330,0,0
-462,694,0,0,0,0,0,0,0,0,0,-1,762,330,0,0
-455,694,0,0,0,0,0,0,0,0,0,-1,769,330,0,0
-448,694,0,0,0,0,0,0,0,0,0,-1,776,330,0,0
-441,694,0,0,0,0,0,0,0,0,0,-1,783,330,0,0
-434,694,0,0,0,0,0,0,0,0,0,-1,790,330,0,0
-427,694,0,0,0,0,0,0,0,0,0,-1,797,330,0,0
-420,694,0,0,0,0,0,0,0,0,0,-1,804,330,0,0
-413,694,0,0,0,0,0,0,0,0,0,-1,811,330,0,0
-406,694,0,0,0,0,0,0,0,0,0,-1,818,330,0,0
-399,694,0,0,0,0,0,0,0,0,0,-1,825,330,0,0
-392,694,0,0,0,0,0,0,0,0,0,-1,832,330,0,0
-385,694,0,0,0,0,0,0,0,0,0,-1,839,330,0,0
-378,694,0,0,0,0,0,0,0,0,0,-1,846,330,0,0
-371,694,0,0,0,0,0,0,0,0,0,-1,853,330,0,0
-364,694,0,0,0,0,0,0,0,0,0,-1,860,330,0,0
-357,694,0,0,0,0,0,0,0,0,0,-1,867,330,0,0
-350,694,0,0,0,0,0,0,0,0,0,-1,874,330,0,0
-343,694,0,0,0,0,0,0,0,0,0,-1,881,330,0,0
-336,694,0,0,0,0,0,0,0,0,0,-1,888,330,0,0
-329,694,0,0,0,0,0,0,0,0,0,-1,895,330,0,0
-322,694,0,0,0,0,0,0,0,0,0,-1,902,330,0,0
-315,694,0,0,0,0,0,0,0,0,0,-1,909,330,0,0
-308,694,0,0,0,0,0,0,0,0,0,-1,916,330,0,0
-301,694,0,0,0,0,0,0,0,0,0,-1,923,330,0,0
-294,694,0,0,0,0,0,0,0,0,0,-1,930,330,0,0
-287,694,0,0,0,0,0,0,0,0,0,-1,937,330,0,0
-280,694,0,0,0,0,0,0,0,0,0,-1,944,330,0,0
-273,694,0,0,0,0,0,0,0,0,0,-1,951,330,0,0
-266,694,0,0,0,0,0,0,0,0,0,-1,958,330,0,0
-259,694,0,0,0,0,0,0,0,0,0,-1,965,330,0,0
-252,694,0,0,0,0,0,0,0,0,0,-1,972,330,0,0
-245,694,0,0,0,0,0,0,0,0,0,-1,979,330,0,0
-238,694,0,0,0,0,0,0,0,0,0,-1,986,330,0,0
-231,694,0,0,0,0,0,0,0,0,0,-1,993,330,0,0
-224,694,0,0,0,0,0,0,0,0,0,-1,1000,330,0,0
-217,694,0,0,0,0,0,0,0,0,0,-1,1007,330,0,0
-210,694,0,0,0,0,0,0,0,0,0,-1,1014,330,0,0
-203,694,0,0,0,0,0,0,0,0,0,-1,1021,330,0,0
-196,694,0,0,0,0,0,0,0,0,0,-1,1028,330,0,0
-189,694,0,0,0,0,0,0,0,0,0,-1,1035,330,0,0
-182,694,0,0,0,0,0,0,0,0,0,-1,1042,330,0,0
-175,694,0,0,0,0,0,0,0,0,0,-1,1049,330,0,0
-168,694,0,0,0,0,0,0,0,0,0,-1,1056,330,0,0
-161,694,0,0,0,0,0,0,0,0,0,-1,1063,330,0,0
-154,694,0,0,0,0,0,0,0,0,0,-1,1070,330,0,0
-147,694,0,0,0,0,0,0,0,0,0,-1,1077,330,0,0
-140,694,0,0,0,0,0,0,0,0,0,-1,1084,330,0,0
-133,694,0,0,0,0,0,0,0,0,0,-1,1091,330,0,0
-126,694,0,0,0,0,0,0,0,0,0,-1,1098,330,0,0
-119,694,0,0,0,0,0,0,0,0,0,-1,1105,330,0,0
-112,694,0,0,0,0,0,0,0,0,0,-1,1112,330,0,0
-105,694,2.5188,-19.3963,0,0,0,0,0,0,0,-1,1119,330,2.51882,19.3963
-98,694,1.34875,-10.1051,0,0,0,0,0,0,0,-1,1126,330,1.34874,10.1051
-91,694,6.62366,-46.8039,0,0,0,0,0,0,0,-1,1133,330,6.62363,46.8039
-84,694,0.0577393,-40.8823,0,0,0,0,0,0,0,-1,1140,330,0.0577026,40.8823
-77,694,-5.51379,-31.2714,0,0,0,0,0,0,0,-1,1147,330,-5.51383,31.2714
-70,694,-11.9945,-25.5143,0,0,0,0,0,0,0,-1,1154,330,-11.9945,25.5143
-63,694,-18.4752,-19.7572,0,0,0,0,0,0,0,-1,1161,330,-18.4752,19.7572
-56,694,-6.50623,-0.649139,0,0,0,0,0,0,0,-1,1168,330,-6.5062,0.649126
-49,694,-1.11426,0.0341797,0,0,0,0,0,0,0,-1,1175,330,-1.11424,-0.0341846
-42,694,-0.346313,-0.709595,0,0,0,0,0,0,0,-1,1182,330,-0.346298,0.709581
-35,694,-0.459106,-1.24713,0,0,0,0,0,0,0,-1,1189,330,-0.459142,1.24714
-28,694,-6.48413,-3.95972,0,0,0,0,0,0,0,-1,1196,330,-6.48414,3.9597
-21,694,5.77185,-39.7137,0,0,0,0,0,0,0,-1,1203,330,5.77182,39.7137
-14,694,6.57617,-40.0761,0,0,0,0,0,0,0,-1,1210,330,6.57618,40.0761
-7,694,5.19495,-45.5146,-0.0216384,-0.0866271,-0.00450243,-0.021328,-0.0869376,-0.0688418,0.0523188,0.0450437,1217,330,5.1949,45.5146
0,694,4.98401,-44.4543,0,0,0,0,0,0,0,-1,1224,330,4.98398,44.4543
7,694,4.49805,-43.4189,0,0,0,0,0,0,0,-1,1231,330,4.49811,43.4189
14,694,6.69995,-39.9838,0,0,0,0,0,0,0,-1,1238,330,6.69998,39.9838
21,694,3.854,-41.8898,-0.0261613,-0.0452606,-0.0146843,-0.0181945,-0.0532273,-0.497094,0.0312392,0.0443821,1245,330,3.854,41.8898
28,694,3.55945,-41.5267,-0.0226915,-0.0354836,-0.0189591,-0.00907867,-0.0490965,-0.622713,0.0301637,0.0436289,1252,330,3.55945,41.5267
35,694,3.35571,-41.5425,-0.0175223,-0.0183896,-0.0191111,0.00116004,-0.037072,-0.774055,0.0251103,0.0454962,1259,330,3.35566,41.5425
42,694,3.75427,-41.4688,-0.0155092,-0.00380275,-0.0201975,0.0113725,-0.0306845,-0.926435,0.0251204,0.048408,1266,330,3.75427,41.4687
49,694,4.16895,-41.2365,-0.0145103,0.0145336,-0.0208076,0.0253857,-0.0253624,-1.09006,0.0292995,0.0479422,1273,330,4.16891,41.2365
56,694,4.61145,-40.7838,-0.0126842,0.0298593,-0.0209384,0.0384356,-0.0212605,-1.18205,0.0349378,0.0442173,1280,330,4.61148,40.7838
63,694,4.87061,-40.7034,-0.0119959,0.0466321,-0.0209384,0.0533421,-0.018706,-1.26067,0.0431695,0.0448511,1287,330,4.87063,40.7034
70,694,4.83301,-40.875,-0.0124151,0.0636142,-0.0196604,0.0683973,-0.0171982,-1.33215,0.0522825,0.0440835,1294,330,4.83303,40.875
77,694,4.84595,-41.0474,-0.0146139,0.0805909,-0.0177143,0.0837801,-0.0178031,-1.39267,0.0626368,0.0481814,1301,330,4.84595,41.0474
84,694,5.1377,-41.4391,-0.0184775,0.0961582,-0.01616,0.0983927,-0.020712,-1.43339,0.0734787,0.0494304,1308,330,5.13771,41.4391
91,694,5.72156,-39.614,-0.0237757,0.108557,-0.0150872,0.110256,-0.025474,-1.4587,0.0833037,0.0457293,1315,330,5.72155,39.614
98,694,5.05652,-40.6158,-0.0291762,0.118566,-0.0146554,0.120006,-0.030616,-1.47287,0.0919247,0.0449945,1322,330,5.0565,40.6157
105,694,4.00537,-41.3112,0,0,0,0,0,0,0,-1,1329,330,4.00536,41.3113
112,694,2.72327,-42.8555,0,0,0,0,0,0,0,-1,1336,330,2.72331,42.8555
119,694,4.44275,-38.5684,0,0,0,0,0,0,0,-1,1343,330,4.44273,38.5684
126,694,4.11169,-38.1003,0,0,0,0,0,0,0,-1,1350,330,4.11169,38.1004
133,694,14.2781,-37.6765,0,0,0,0,0,0,0,-1,1357,330,14.2781,37.6766
140,694,15.5029,-38.0882,0,0,0,0,0,0,0,-1,1364,330,15.5029,38.0882
147,694,3.75378,-38.1902,0,0,0,0,0,0,0,-1,1371,330,3.7538,38.1902
154,694,3.06482,-38.0461,0,0,0,0,0,0,0,-1,1378,330,3.06478,38.0461
161,694,4.76746,-36.9827,0,0,0,0,0,0,0,-1,1385,330,4.76745,36.9827
168,694,30.451,0.196686,0,0,0,0,0,0,0,-1,1392,330,30.4511,-0.196674
175,694,31.0701,0.869873,0,0,0,0,0,0,0,-1,1399,330,31.07,-0.869874
182,694,8.29028,5.75238,0,0,0,0,0,0,0,-1,1406,330,8.29034,-5.75237
189,694,7.9801,4.46118,0,0,0,0,0,0,0,-1,1413,330,7.9801,-4.46118
196,694,7.39331,3.32632,0,0,0,0,0,0,0,-1,1420,330,7.39329,-3.32633
203,694,7.04492,2.20529,0,0,0,0,0,0,0,-1,1427,330,7.04496,-2.20529
210,694,6.44714,0.646912,0,0,0,0,0,0,0,-1,1434,330,6.44717,-0.646903
217,694,7.12061,-0.644958,0,0,0,0,0,0,0,-1,1441,330,7.12059,0.644961
224,694,6.74011,-1.70544,0,0,0,0,0,0,0,-1,1448,330,6.74013,1.70546
231,694,0,0,0,0,0,0,0,0,0,-1,1455,330,0,0
238,694,0,0,0,0,0,0,0,0,0,-1,1462,330,0,0
245,694,0,0,0,0,0,0,0,0,0,-1,1469,330,0,0
252,694,0,0,0,0,0,0,0,0,0,-1,1476,330,0,0
259,694,0,0,0,0,0,0,0,0,0,-1,1483,330,0,0
266,694,0,0,0,0,0,0,0,0,0,-1,1490,330,0,0
273,694,0,0,0,0,0,0,0,0,0,-1,1497,330,0,0
280,694,0,0,0,0,0,0,0,0,0,-1,1504,330,0,0
287,694,0,0,0,0,0,0,0,0,0,-1,1511,330,0,0
294,694,0,0,0,0,0,0,0,0,0,-1,1518,330,0,0
301,694,0,0,0,0,0,0,0,0,0,-1,1525,330,0,0
308,694,0,0,0,0,0,0,0,0,0,-1,1532,330,0,0
315,694,0,0,0,0,0,0,0,0,0,-1,1539,330,0,0
322,694,0,0,0,0,0,0,0,0,0,-1,1546,330,0,0
329,694,0,0,0,0,0,0,0,0,0,-1,1553,330,0,0
336,694,0,0,0,0,0,0,0,0,0,-1,1560,330,0,0
343,694,0,0,0,0,0,0,0,0,0,-1,1567,330,0,0
350,694,0,0,0,0,0,0,0,0,0,-1,1574,330,0,0
357,694,0,0,0,0,0,0,0,0,0,-1,1581,330,0,0
364,694,0,0,0,0,0,0,0,0,0,-1,1588,330,0,0
371,694,0,0,0,0,0,0,0,0,0,-1,1595,330,0,0
378,694,0,0,0,0,0,0,0,0,0,-1,1602,330,0,0
385,694,0,0,0,0,0,0,0,0,0,-1,1609,330,0,0
392,694,0,0,0,0,0,0,0,0,0,-1,1616,330,0,0
399,694,0,0,0,0,0,0,0,0,0,-1,1623,330,0,0
406,694,0,0,0,0,0,0,0,0,0,-1,1630,330,0,0
413,694,0,0,0,0,0,0,0,0,0,-1,1637,330,0,0
420,694,0,0,0,0,0,0,0,0,0,-1,1644,330,0,0
427,694,0,0,0,0,0,0,0,0,0,-1,1651,330,0,0
434,694,0,0,0,0,0,0,0,0,0,-1,1658,330,0,0
441,694,0,0,0,0,0,0,0,0,0,-1,1665,330,0,0
448,694,0,0,0,0,0,0,0,0,0,-1,1672,330,0,0
455,694,0,0,0,0,0,0,0,0,0,-1,1679,330,0,0
462,694,0,0,0,0,0,0,0,0,0,-1,1686,330,0,0
469,694,0,0,0,0,0,0,0,0,0,-1,1693,330,0,0
476,694,0,0,0,0,0,0,0,0,0,-1,1700,330,0,0
483,694,0,0,0,0,0,0,0,0,0,-1,1707,330,0,0
490,694,0,0,0,0,0,0,0,0,0,-1,1714,330,0,0
497,694,0,0,0,0,0,0,0,0,0,-1,1721,330,0,0
504,694,0,0,0,0,0,0,0,0,0,-1,1728,330,0,0
511,694,0,0,0,0,0,0,0,0,0,-1,1735,330,0,0
518,694,0,0,0,0,0,0,0,0,0,-1,1742,330,0,0
525,694,0,0,0,0,0,0,0,0,0,-1,1749,330,0,0
532,694,0,0,0,0,0,0,0,0,0,-1,1756,330,0,0
539,694,0,0,0,0,0,0,0,0,0,-1,1763,330,0,0
546,694,0,0,0,0,0,0,0,0,0,-1,1770,330,0,0
553,694,0,0,0,0,0,0,0,0,0,-1,1777,330,0,0
560,694,0,0,0,0,0,0,0,0,0,-1,1784,330,0,0
567,694,0,0,0,0,0,0,0,0,0,-1,1791,330,0,0
574,694,0,0,0,0,0,0,0,0,0,-1,1798,330,0,0
581,694,0,0,0,0,0,0,0,0,0,-1,1805,330,0,0
588,694,0,0,0,0,0,0,0,0,0,-1,1812,330,0,0
595,694,0,0,0,0,0,0,0,0,0,-1,1819,330,0,0
602,694,0,0,0,0,0,0,0,0,0,-1,1826,330,0,0
609,694,0,0,0,0,0,0,0,0,0,-1,1833,330,0,0
616,694,0,0,0,0,0,0,0,0,0,-1,1840,330,0,0
623,694,0,0,0,0,0,0,0,0,0,-1,1847,330,0,0
630,694,0,0,0,0,0,0,0,0,0,-1,1854,330,0,0
637,694,0,0,0,0,0,0,0,0,0,-1,1861,330,0,0
644,694,0,0,0,0,0,0,0,0,0,-1,1868,330,0,0
651,694,0,0,0,0,0,0,0,0,0,-1,1875,330,0,0
658,694,0,0,0,0,0,0,0,0,0,-1,1882,330,0,0
665,694,0,0,0,0,0,0,0,0,0,-1,1889,330,0,0
672,694,0,0,0,0,0,0,0,0,0,-1,1896,330,0,0
679,694,0,0,0,0,0,0,0,0,0,-1,1903,330,0,0
686,694,0,0,0,0,0,0,0,0,0,-1,1910,330,0,0
693,694,0,0,0,0,0,0,0,0,0,-1,1917,330,0,0
700,694,0,0,0,0,0,0,0,0,0,-1,1924,330,0,0
707,694,0,0,0,0,0,0,0,0,0,-1,1931,330,0,0
714,694,0,0,0,0,0,0,0,0,0,-1,1938,330,0,0
721,694,0,0,0,0,0,0,0,0,0,-1,1945,330,0,0
728,694,0,0,0,0,0,0,0,0,0,-1,1952,330,0,0
735,694,0,0,0,0,0,0,0,0,0,-1,1959,330,0,0
742,694,0,0,0,0,0,0,0,0,0,-1,1966,330,0,0
749,694,0,0,0,0,0,0,0,0,0,-1,1973,330,0,0
756,694,0,0,0,0,0,0,0,0,0,-1,1980,330,0,0
763,694,0,0,0,0,0,0,0,0,0,-1,1987,330,0,0
770,694,0,0,0,0,0,0,0,0,0,-1,1994,330,0,0
777,694,0,0,0,0,0,0,0,0,0,-1,2001,330,0,0
784,694,0,0,0,0,0,0,0,0,0,-1,2008,330,0,0
791,694,0,0,0,0,0,0,0,0,0,-1,2015,330,0,0
798,694,0,0,0,0,0,0,0,0,0,-1,2022,330,0,0
805,694,0,0,0,0,0,0,0,0,0,-1,2029,330,0,0
812,694,0,0,0,0,0,0,0,0,0,-1,2036,330,0,0
-700,687,0,0,0,0,0,0,0,0,0,-1,524,337,0,0
-693,687,0,0,0,0,0,0,0,0,0,-1,531,337,0,0
-686,687,0,0,0,0,0,0,0,0,0,-1,538,337,0,0
-679,687,0,0,0,0,0,0,0,0,0,-1,545,337,0,0
-672,687,0,0,0,0,0,0,0,0,0,-1,552,337,0,0
-665,687,0,0,0,0,0,0,0,0,0,-1,559,337,0,0
-658,687,0,0,0,0,0,0,0,0,0,-1,566,337,0,0
-651,687,0,0,0,0,0,0,0,0,0,-1,573,337,0,0
-644,687,0,0,0,0,0,0,0,0,0,-1,580,337,0,0
-637,687,0,0,0,0,0,0,0,0,0,-1,587,337,0,0
-630,687,0,0,0,0,0,0,0,0,0,-1,594,337,0,0
-623,687,0,0,0,0,0,0,0,0,0,-1,601,337,0,0
-616,687,0,0,0,0,0,0,0,0,0,-1,608,337,0,0
-609,687,0,0,0,0,0,0,0,0,0,-1,615,337,0,0
-602,687,0,0,0,0,0,0,0,0,0,-1,622,337,0,0
-595,687,0,0,0,0,0,0,0,0,0,-1,629,337,0,0
-588,687,0,0,0,0,0,0,0,0,0,-1,636,337,0,0
-581,687,0,0,0,0,0,0,0,0,0,-1,643,337,0,0
-574,687,0,0,0,0,0,0,0,0,0,-1,650,337,0,0
-567,687,0,0,0,0,0,0,0,0,0,-1,657,337,0,0
-560,687,0,0,0,0,0,0,0,0,0,-1,664,337,0,0
-553,687,0,0,0,0,0,0,0,0,0,-1,671,337,0,0
-546,687,0,0,0,0,0,0,0,0,0,-1,678,337,0,0
-539,687,0,0,0,0,0,0,0,0,0,-1,685,337,0,0
-532,687,0,0,0,0,0,0,0,0,0,-1,692,337,0,0
-525,687,0,0,0,0,0,0,0,0,0,-1,699,337,0,0
-518,687,0,0,0,0,0,0,0,0,0,-1,706,337,0,0
-511,687,0,0,0,0,0,0,0,0,0,-1,713,337,0,0
-504,687,0,0,0,0,0,0,0,0,0,-1,720,337,0,0
-497,687,0,0,0,0,0,0,0,0,0,-1,727,337,0,0
-490,687,0,0,0,0,0,0,0,0,0,-1,734,337,0,0
-483,687,0,0,0,0,0,0,0,0,0,-1,741,337,0,0
-476,687,0,0,0,0,0,0,0,0,0,-1,748,337,0,0
-469,687,0,0,0,0,0,0,0,0,0,-1,755,337,0,0
-462,687,0,0,0,0,0,0,0,0,0,-1,762,337,0,0
-455,687,0,0,0,0,0,0,0,0,0,-1,769,337,0,0
-448,687,0,0,0,0,0,0,0,0,0,-1,776,337,0,0
-441,687,0,0,0,0,0,0,0,0,0,-1,783,337,0,0
-434,687,0,0,0,0,0,0,0,0,0,-1,790,337,0,0
-427,687,0,0,0,0,0,0,0,0,0,-1,797,337,0,0
-420,687,0,0,0,0,0,0,0,0,0,-1,804,337,0,0
-413,687,0,0,0,0,0,0,0,0,0,-1,811,337,0,0
-406,687,0,0,0,0,0,0,0,0,0,-1,818,337,0,0
-399,687,0,0,0,0,0,0,0,0,0,-1,825,337,0,0
-392,687,0,0,0,0,0,0,0,0,0,-1,832,337,0,0
-385,687,0,0,0,0,0,0,0,0,0,-1,839,337,0,0
-378,687,0,0,0,0,0,0,0,0,0,-1,846,337,0,0
-371,687,0,0,0,0,0,0,0,0,0,-1,853,337,0,0
-364,687,0,0,0,0,0,0,0,0,0,-1,860,337,0,0
-357,687,0,0,0,0,0,0,0,0,0,-1,867,337,0,0
-350,687,0,0,0,0,0,0,0,0,0,-1,874,337,0,0
-343,687,0,0,0,0,0,0,0,0,0,-1,881,337,0,0
-336,687,0,0,0,0,0,0,0,0,0,-1,888,337,0,0
-329,687,0,0,0,0,0,0,0,0,0,-1,895,337,0,0
-322,687,0,0,0,0,0,0,0,0,0,-1,902,337,0,0
-315,687,0,0,0,0,0,0,0,0,0,-1,909,337,0,0
-308,687,0,0,0,0,0,0,0,0,0,-1,916,337,0,0
-301,687,0,0,0,0,0,0,0,0,0,-1,923,337,0,0
-294,687,0,0,0,0,0,0,0,0,0,-1,930,337,0,0
-287,687,0,0,0,0,0,0,0,0,0,-1,937,337,0,0
-280,687,0,0,0,0,0,0,0,0,0,-1,944,337,0,0
-273,687,0,0,0,0,0,0,0,0,0,-1,951,337,0,0
-266,687,0,0,0,0,0,0,0,0,0,-1,958,337,0,0
-259,687,0,0,0,0,0,0,0,0,0,-1,965,337,0,0
-252,687,0,0,0,0,0,0,0,0,0,-1,972,337,0,0
-245,687,0,0,0,0,0,0,0,0,0,-1,979,337,0,0
-238,687,0,0,0,0,0,0,0,0,0,-1,986,337,0,0
-231,687,0,0,0,0,0,0,0,0,0,-1,993,337,0,0
-224,687,0,0,0,0,0,0,0,0,0,-1,1000,337,0,0
-217,687,0,0,0,0,0,0,0,0,0,-1,1007,337,0,0
-210,687,0,0,0,0,0,0,0,0,0,-1,1014,337,0,0
-203,687,0,0,0,0,0,0,0,0,0,-1,1021,337,0,0
-196,687,0,0,0,0,0,0,0,0,0,-1,1028,337,0,0
-189,687,0,0,0,0,0,0,0,0,0,-1,1035,337,0,0
-182,687,0,0,0,0,0,0,0,0,0,-1,1042,337,0,0
-175,687,0,0,0,0,0,0,0,0,0,-1,1049,337,0,0
-168,687,0,0,0,0,0,0,0,0,0,-1,1056,337,0,0
-161,687,0,0,0,0,0,0,0,0,0,-1,1063,337,0,0
-154,687,0,0,0,0,0,0,0,0,0,-1,1070,337,0,0
-147,687,0,0,0,0,0,0,0,0,0,-1,1077,337,0,0
-140,687,0,0,0,0,0,0,0,0,0,-1,1084,337,0,0
-133,687,7.93958,-37.548,0,0,0,0,0,0,0,-1,1091,337,7.93957,37.548
-126,687,7.81189,-35.631,0,0,0,0,0,0,0,-1,1098,337,7.81194,35.631
-119,687,7.70825,-33.9236,0,0,0,0,0,0,0,-1,1105,337,7.70826,33.9236
-112,687,7.99866,-32.2983,0,0,0,0,0,0,0,-1,1112,337,7.99866,32.2983
-105,687,1.3208,-29.8313,0,0,0,0,0,0,0,-1,1119,337,1.3208,29.8313
-98,687,13.7111,-47.5645,0,0,0,0,0,0,0,-1,1126,337,13.711,47.5645
-91,687,7.22083,-41.1667,0,0,0,0,0,0,0,-1,1133,337,7.22079,41.1666
-84,687,0.745117,-35.0345,0,0,0,0,0,0,0,-1,1140,337,0.745155,35.0345
-77,687,-5.74353,-28.9553,0,0,0,0,0,0,0,-1,1147,337,-5.74357,28.9553
-70,687,-11.6842,-19.8473,0,0,0,0,0,0,0,-1,1154,337,-11.6842,19.8473
-63,687,-17.6757,-14.8966,0,0,0,0,0,0,0,-1,1161,337,-17.6756,14.8966
-56,687,-18.104,7.81931,0,0,0,0,0,0,0,-1,1168,337,-18.104,-7.81931
-49,687,-15.6449,-9.94391,0,0,0,0,0,0,0,-1,1175,337,-15.6449,9.94392
-42,687,-4.2019,-0.405609,0,0,0,0,0,0,0,-1,1182,337,-4.20192,0.405614
-35,687,-4.42273,-0.688171,0,0,0,0,0,0,0,-1,1189,337,-4.42276,0.688178
-28,687,-1.14038,-1.39072,0,0,0,0,0,0,0,-1,1196,337,-1.14035,1.3907
-21,687,6.22559,-39.7491,0,0,0,0,0,0,0,-1,1203,337,6.22561,39.7491
-14,687,6.47534,-40.259,-0.0154468,-0.0604662,-0.00668241,-0.0144758,-0.0614371,-0.14429,0.0370868,0.0484521,1210,337,6.47535,40.259
-7,687,6.64221,-40.6675,-0.0183348,-0.0534057,-0.00667204,-0.0171083,-0.0546321,-0.181787,0.0322676,0.0493603,1217,337,6.64217,40.6675
0,687,4.91101,-43.4085,0,0,0,0,0,0,0,-1,1224,337,4.91102,43.4085
7,687,6.47729,-40.3636,-0.021147,-0.0384726,-0.00895856,-0.0173479,-0.0422717,-0.401091,0.0245359,0.0486745,1231,337,6.47734,40.3636
14,687,6.44604,-40.5529,-0.0212792,-0.0310263,-0.0111533,-0.0139812,-0.0383244,-0.579418,0.0223945,0.0476419,1238,337,6.44603,40.5529
21,687,5.58899,-41.2899,-0.0208821,-0.0236001,-0.0138464,-0.00832817,-0.0361541,-0.736481,0.021862,0.0478581,1245,337,5.58896,41.2899
28,687,5.62012,-41.2112,-0.0179856,-0.0163346,-0.0167297,-0.000410026,-0.0339102,-0.810051,0.0224713,0.0489888,1252,337,5.62009,41.2112
35,687,4.11682,-41.4162,-0.0138347,-0.00310366,-0.0163033,0.00869429,-0.0256327,-0.944369,0.0206072,0.0435736,1259,337,4.11681,41.4162
42,687,4.29956,-41.5105,-0.0121377,0.00797951,-0.0166463,0.0173702,-0.0215284,-1.05717,0.0225008,0.0446154,1266,337,4.29962,41.5105
49,687,4.75879,-41.451,-0.0112895,0.0222912,-0.0166849,0.0291715,-0.0181699,-1.17967,0.0275775,0.0461747,1273,337,4.75878,41.451
56,687,5.12793,-41.2975,-0.00990947,0.0339278,-0.0164621,0.0394213,-0.015403,-1.24871,0.0326496,0.0471934,1280,337,5.12798,41.2975
63,687,5.55603,-41.1079,-0.00938565,0.0467975,-0.0160955,0.0510818,-0.01367,-1.31064,0.0394096,0.0478106,1287,337,5.55609,41.1079
70,687,5.8479,-40.9693,0,0,0,0,0,0,0,-1,1294,337,5.84789,40.9693
77,687,5.38989,-40.9505,0,0,0,0,0,0,0,-1,1301,337,5.38994,40.9505
84,687,5.14685,-40.2013,0,0,0,0,0,0,0,-1,1308,337,5.1468,40.2013
91,687,4.995,-40.3871,-0.0187085,0.0941361,-0.01133,0.0952624,-0.0198348,-1.47171,0.0710488,0.0430272,1315,337,4.99505,40.3871
98,687,4.60522,-41.3855,-0.0228001,0.101666,-0.0108687,0.102608,-0.023742,-1.48435,0.0775408,0.0454812,1322,337,4.60526,41.3855
105,687,3.9209,-42.066,-0.0260765,0.108189,-0.0104104,0.108991,-0.0268789,-1.49387,0.0830824,0.046048,1329,337,3.9209,42.066
112,687,3.625,-42.8847,0,0,0,0,0,0,0,-1,1336,337,3.62495,42.8847
119,687,4.55688,-38.7811,0,0,0,0,0,0,0,-1,1343,337,4.55686,38.7811
126,687,4.36499,-38.7246,0,0,0,0,0,0,0,-1,1350,337,4.365,38.7246
133,687,4.14978,-38.6401,0,0,0,0,0,0,0,-1,1357,337,4.14975,38.6401
140,687,4.01318,-38.7701,0,0,0,0,0,0,0,-1,1364,337,4.0132,38.7701
147,687,3.81213,-38.6658,0,0,0,0,0,0,0,-1,1371,337,3.81219,38.6658
154,687,3.94287,-38.8627,0,0,0,0,0,0,0,-1,1378,337,3.94292,38.8627
161,687,29.3895,-1.90628,0,0,0,0,0,0,0,-1,1385,337,29.3895,1.90628
168,687,29.8564,-1.19434,0,0,0,0,0,0,0,-1,1392,337,29.8564,1.19434
175,687,30.3419,-0.453583,0,0,0,0,0,0,0,-1,1399,337,30.3419,0.45357
182,687,6.67249,0.289917,0,0,0,0,0,0,0,-1,1406,337,6.67247,-0.289916
189,687,7.76062,4.53635,0,0,0,0,0,0,0,-1,1413,337,7.76064,-4.53636
196,687,6.99048,3.2966,0,0,0,0,0,0,0,-1,1420,337,6.99046,-3.2966
203,687,6.36499,2.1445,0,0,0,0,0,0,0,-1,1427,337,6.36499,-2.14451
210,687,6.68066,0.674652,0,0,0,0,0,0,0,-1,1434,337,6.68062,-0.674655
217,687,5.99683,-0.630493,0,0,0,0,0,0,0,-1,1441,337,5.99684,0.630497
224,687,5.52917,0.524902,0,0,0,0,0,0,0,-1,1448,337,5.5292,-0.524915
231,687,5.85583,-1.73651,0,0,0,0,0,0,0,-1,1455,337,5.85577,1.73651
238,687,5.96582,-2.96774,0,0,0,0,0,0,0,-1,1462,337,5.96577,2.96773
245,687,1.28259,2.32211,0,0,0,0,0,0,0,-1,1469,337,1.28258,-2.32211
252,687,1.97278,3.88422,0,0,0,0,0,0,0,-1,1476,337,1.97281,-3.88421
259,687,0,0,0,0,0,0,0,0,0,-1,1483,337,0,0
266,687,0,0,0,0,0,0,0,0,0,-1,1490,337,0,0
273,687,0,0,0,0,0,0,0,0,0,-1,1497,337,0,0
280,687,0,0,0,0,0,0,0,0,0,-1,1504,337,0,0
287,687,0,0,0,0,0,0,0,0,0,-1,1511,337,0,0
294,687,0,0,0,0,0,0,0,0,0,-1,1518,337,0,0
301,687,0,0,0,0,0,0,0,0,0,-1,1525,337,0,0
308,687,0,0,0,0,0,0,0,0,0,-1,1532,337,0,0
315,687,0,0,0,0,0,0,0,0,0,-1,1539,337,0,0
322,687,0,0,0,0,0,0,0,0,0,-1,1546,337,0,0
329,687,0,0,0,0,0,0,0,0,0,-1,1553,337,0,0
336,687,0,0,0,0,0,0,0,0,0,-1,1560,337,0,0
343,687,0,0,0,0,0,0,0,0,0,-1,1567,337,0,0
350,687,0,0,0,0,0,0,0,0,0,-1,1574,337,0,0
357,687,0,0,0,0,0,0,0,0,0,-1,1581,337,0,0
364,687,0,0,0,0,0,0,0,0,0,-1,1588,337,0,0
371,687,0,0,0,0,0,0,0,0,0,-1,1595,337,0,0
378,687,0,0,0,0,0,0,0,0,0,-1,1602,337,0,0
385,687,0,0,0,0,0,0,0,0,0,-1,1609,337,0,0
392,687,0,0,0,0,0,0,0,0,0,-1,1616,337,0,0
399,687,0,0,0,0,0,0,0,0,0,-1,1623,337,0,0
406,687,0,0,0,0,0,0,0,0,0,-1,1630,337,0,0
413,687,0,0,0,0,0,0,0,0,0,-1,1637,337,0,0
420,687,0,0,0,0,0,0,0,0,0,-1,1644,337,0,0
427,687,0,0,0,0,0,0,0,0,0,-1,1651,337,0,0
434,687,0,0,0,0,0,0,0,0,0,-1,1658,337,0,0
441,687,0,0,0,0,0,0,0,0,0,-1,1665,337,0,0
448,687,0,0,0,0,0,0,0,0,0,-1,1672,337,0,0
455,687,0,0,0,0,0,0,0,0,0,-1,1679,337,0,0
462,687,0,0,0,0,0,0,0,0,0,-1,1686,337,0,0
469,687,0,0,0,0,0,0,0,0,0,-1,1693,337,0,0
476,687,0,0,0,0,0,0,0,0,0,-1,1700,337,0,0
483,687,0,0,0,0,0,0,0,0,0,-1,1707,337,0,0
490,687,0,0,0,0,0,0,0,0,0,-1,1714,337,0,0
497,687,0,0,0,0,0,0,0,0,0,-1,1721,337,0,0
504,687,0,0,0,0,0,0,0,0,0,-1,1728,337,0,0
511,687,0,0,0,0,0,0,0,0,0,-1,1735,337,0,0
518,687,0,0,0,0,0,0,0,0,0,-1,1742,337,0,0
525,687,0,0,0,0,0,0,0,0,0,-1,1749,337,0,0
532,687,0,0,0,0,0,0,0,0,0,-1,1756,337,0,0
539,687,0,0,0,0,0,0,0,0,0,-1,1763,337,0,0
546,687,0,0,0,0,0,0,0,0,0,-1,1770,337,0,0
553,687,0,0,0,0,0,0,0,0,0,-1,1777,337,0,0
560,687,0,0,0,0,0,0,0,0,0,-1,1784,337,0,0
567,687,0,0,0,0,0,0,0,0,0,-1,1791,337,0,0
574,687,0,0,0,0,0,0,0,0,0,-1,1798,337,0,0
581,687,0,0,0,0,0,0,0,0,0,-1,1805,337,0,0
588,687,0,0,0,0,0,0,0,0,0,-1,1812,337,0,0
595,687,0,0,0,0,0,0,0,0,0,-1,1819,337,0,0
602,687,0,0,0,0,0,0,0,0,0,-1,1826,337,0,0
609,687,0,0,0,0,0,0,0,0,0,-1,1833,337,0,0
616,687,0,0,0,0,0,0,0,0,0,-1,1840,337,0,0
623,687,0,0,0,0,0,0,0,0,0,-1,1847,337,0,0
630,687,0,0,0,0,0,0,0,0,0,-1,1854,337,0,0
637,687,0,0,0,0,0,0,0,0,0,-1,1861,337,0,0
644,687,0,0,0,0,0,0,0,0,0,-1,1868,337,0,0
651,687,0,0,0,0,0,0,0,0,0,-1,1875,337,0,0
658,687,0,0,0,0,0,0,0,0,0,-1,1882,337,0,0
665,687,0,0,0,0,0,0,0,0,0,-1,1889,337,0,0
672,687,0,0,0,0,0,0,0,0,0,-1,1896,337,0,0
679,687,0,0,0,0,0,0,0,0,0,-1,1903,337,0,0
686,687,0,0,0,0,0,0,0,0,0,-1,1910,337,0,0
693,687,0,0,0,0,0,0,0,0,0,-1,1917,337,0,0
700,687,0,0,0,0,0,0,0,0,0,-1,1924,337,0,0
707,687,0,0,0,0,0,0,0,0,0,-1,1931,337,0,0
714,687,0,0,0,0,0,0,0,0,0,-1,1938,337,0,0
721,687,0,0,0,0,0,0,0,0,0,-1,1945,337,0,0
728,687,0,0,0,0,0,0,0,0,0,-1,1952,337,0,0
735,687,0,0,0,0,0,0,0,0,0,-1,1959,337,0,0
742,687,0,0,0,0,0,0,0,0,0,-1,1966,337,0,0
749,687,0,0,0,0,0,0,0,0,0,-1,1973,337,0,0
756,687,0,0,0,0,0,0,0,0,0,-1,1980,337,0,0
763,687,0,0,0,0,0,0,0,0,0,-1,1987,337,0,0
770,687,0,0,0,0,0,0,0,0,0,-1,1994,337,0,0
777,687,0,0,0,0,0,0,0,0,0,-1,2001,337,0,0
784,687,0,0,0,0,0,0,0,0,0,-1,2008,337,0,0
791,687,0,0,0,0,0,0,0,0,0,-1,2015,337,0,0
798,687,0,0,0,0,0,0,0,0,0,-1,2022,337,0,0
805,687,0,0,0,0,0,0,0,0,0,-1,2029,337,0,0
812,687,0,0,0,0,0,0,0,0,0,-1,2036,337,0,0
-700,680,0,0,0,0,0,0,0,0,0,-1,524,344,0,0
-693,680,0,0,0,0,0,0,0,0,0,-1,531,344,0,0
-686,680,0,0,0,0,0,0,0,0,0,-1,538,344,0,0
-679,680,0,0,0,0,0,0,0,0,0,-1,545,344,0,0
-672,680,0,0,0,0,0,0,0,0,0,-1,552,344,0,0
-665,680,0,0,0,0,0,0,0,0,0,-1,559,344,0,0
-658,680,0,0,0,0,0,0,0,0,0,-1,566,344,0,0
-651,680,0,0,0,0,0,0,0,0,0,-1,573,344,0,0
-644,680,0,0,0,0,0,0,0,0,0,-1,580,344,0,0
-637,680,0,0,0,0,0,0,0,0,0,-1,587,344,0,0
-630,680,0,0,0,0,0,0,0,0,0,-1,594,344,0,0
-623,680,0,0,0,0,0,0,0,0,0,-1,601,344,0,0
-616,680,0,0,0,0,0,0,0,0,0,-1,608,344,0,0
-609,680,0,0,0,0,0,0,0,0,0,-1,615,344,0,0
-602,680,0,0,0,0,0,0,0,0,0,-1,622,344,0,0
-595,680,0,0,0,0,0,0,0,0,0,-1,629,344,0,0
-588,680,0,0,0,0,0,0,0,0,0,-1,636,344,0,0
-581,680,0,0,0,0,0,0,0,0,0,-1,643,344,0,0
-574,680,0,0,0,0,0,0,0,0,0,-1,650,344,0,0
-567,680,0,0,0,0,0,0,0,0,0,-1,657,344,0,0
-560,680,0,0,0,0,0,0,0,0,0,-1,664,344,0,0
-553,680,0,0,0,0,0,0,0,0,0,-1,671,344,0,0
-546,680,0,0,0,0,0,0,0,0,0,-1,678,344,0,0
-539,680,0,0,0,0,0,0,0,0,0,-1,685,344,0,0
-532,680,0,0,0,0,0,0,0,0,0,-1,692,344,0,0
-525,680,0,0,0,0,0,0,0,0,0,-1,699,344,0,0
-518,680,0,0,0,0,0,0,0,0,0,-1,706,344,0,0
-511,680,0,0,0,0,0,0,0,0,0,-1,713,344,0,0
-504,680,0,0,0,0,0,0,0,0,0,-1,720,344,0,0
-497,680,0,0,0,0,0,0,0,0,0,-1,727,344,0,0
-490,680,0,0,0,0,0,0,0,0,0,-1,734,344,0,0
-483,680,0,0,0,0,0,0,0,0,0,-1,741,344,0,0
-476,680,0,0,0,0,0,0,0,0,0,-1,748,344,0,0
-469,680,0,0,0,0,0,0,0,0,0,-1,755,344,0,0
-462,680,0,0,0,0,0,0,0,0,0,-1,762,344,0,0
-455,680,0,0,0,0,0,0,0,0,0,-1,769,344,0,0
-448,680,0,0,0,0,0,0,0,0,0,-1,776,344,0,0
-441,680,0,0,0,0,0,0,0,0,0,-1,783,344,0,0
-434,680,0,0,0,0,0,0,0,0,0,-1,790,344,0,0
-427,680,0,0,0,0,0,0,0,0,0,-1,797,344,0,0
-420,680,0,0,0,0,0,0,0,0,0,-1,804,344,0,0
-413,680,0,0,0,0,0,0,0,0,0,-1,811,344,0,0
-406,680,0,0,0,0,0,0,0,0,0,-1,818,344,0,0
-399,680,0,0,0,0,0,0,0,0,0,-1,825,344,0,0
-392,680,0,0,0,0,0,0,0,0,0,-1,832,344,0,0
-385,680,0,0,0,0,0,0,0,0,0,-1,839,344,0,0
-378,680,0,0,0,0,0,0,0,0,0,-1,846,344,0,0
-371,680,0,0,0,0,0,0,0,0,0,-1,853,344,0,0
-364,680,0,0,0,0,0,0,0,0,0,-1,860,344,0,0
-357,680,0,0,0,0,0,0,0,0,0,-1,867,344,0,0
-350,680,0,0,0,0,0,0,0,0,0,-1,874,344,0,0
-343,680,0,0,0,0,0,0,0,0,0,-1,881,344,0,0
-336,680,0,0,0,0,0,0,0,0,0,-1,888,344,0,0
-329,680,0,0,0,0,0,0,0,0,0,-1,895,344,0,0
-322,680,0,0,0,0,0,0,0,0,0,-1,902,344,0,0
-315,680,0,0,0,0,0,0,0,0,0,-1,909,344,0,0
-308,680,0,0,0,0,0,0,0,0,0,-1,916,344,0,0
-301,680,0,0,0,0,0,0,0,0,0,-1,923,344,0,0
-294,680,0,0,0,0,0,0,0,0,0,-1,930,344,0,0
-287,680,0,0,0,0,0,0,0,0,0,-1,937,344,0,0
-280,680,0,0,0,0,0,0,0,0,0,-1,944,344,0,0
-273,680,0,0,0,0,0,0,0,0,0,-1,951,344,0,0
-266,680,0,0,0,0,0,0,0,0,0,-1,958,344,0,0
-259,680,0,0,0,0,0,0,0,0,0,-1,965,344,0,0
-252,680,0,0,0,0,0,0,0,0,0,-1,972,344,0,0
-245,680,0,0,0,0,0,0,0,0,0,-1,979,344,0,0
-238,680,0,0,0,0,0,0,0,0,0,-1,986,344,0,0
-231,680,0,0,0,0,0,0,0,0,0,-1,993,344,0,0
-224,680,0,0,0,0,0,0,0,0,0,-1,1000,344,0,0
-217,680,0,0,0,0,0,0,0,0,0,-1,1007,344,0,0
-210,680,0,0,0,0,0,0,0,0,0,-1,1014,344,0,0
-203,680,0,0,0,0,0,0,0,0,0,-1,1021,344,0,0
-196,680,0,0,0,0,0,0,0,0,0,-1,1028,344,0,0
-189,680,0,0,0,0,0,0,0,0,0,-1,1035,344,0,0
-182,680,0,0,0,0,0,0,0,0,0,-1,1042,344,0,0
-175,680,0,0,0,0,0,0,0,0,0,-1,1049,344,0,0
-168,680,0,0,0,0,0,0,0,0,0,-1,1056,344,0,0
-161,680,0,0,0,0,0,0,0,0,0,-1,1063,344,0,0
-154,680,2.25244,-29.1442,0,0,0,0,0,0,0,-1,1070,344,2.25241,29.1442
-147,680,9.29614,-33.0369,0,0,0,0,0,0,0,-1,1077,344,9.29612,33.0369
-140,680,6.98022,-36.6899,0,0,0,0,0,0,0,-1,1084,344,6.98023,36.6899
-133,680,5.89795,-35.7619,0,0,0,0,0,0,0,-1,1091,344,5.89789,35.7619
-126,680,7.58716,-35.439,0,0,0,0,0,0,0,-1,1098,344,7.58714,35.439
-119,680,7.4646,-34.0222,0,0,0,0,0,0,0,-1,1105,344,7.46462,34.0222
-112,680,7.7467,-32.4407,0,0,0,0,0,0,0,-1,1112,344,7.74668,32.4407
-105,680,20.6371,-48.461,0,0,0,0,0,0,0,-1,1119,344,20.6371,48.461
-98,680,14.2684,-41.9997,0,0,0,0,0,0,0,-1,1126,344,14.2685,41.9997
-91,680,7.89648,-35.5147,0,0,0,0,0,0,0,-1,1133,344,7.8965,35.5147
-84,680,1.47168,-29.471,0,0,0,0,0,0,0,-1,1140,344,1.47163,29.471
-77,680,-4.95337,-23.3355,0,0,0,0,0,0,0,-1,1147,344,-4.9534,23.3356
-70,680,-11.5099,-17.4337,0,0,0,0,0,0,0,-1,1154,344,-11.5098,17.4338
-63,680,-17.2391,-1.43134,0,0,0,0,0,0,0,-1,1161,344,-17.2392,1.43133
-56,680,-6.96912,-8.83356,0,0,0,0,0,0,0,-1,1168,344,-6.96907,8.83354
-49,680,-6.7677,-2.24063,0,0,0,0,0,0,0,-1,1175,344,-6.76772,2.24063
-42,680,-1.02368,0.618805,0,0,0,0,0,0,0,-1,1182,344,-1.0237,-0.618797
-35,680,-0.947876,-0.942719,0,0,0,0,0,0,0,-1,1189,344,-0.947842,0.942731
-28,680,-1.46118,-1.10574,0,0,0,0,0,0,0,-1,1196,344,-1.4612,1.10575
-21,680,6.15344,-40.2937,0,0,0,0,0,0,0,-1,1203,344,6.15344,40.2937
-14,680,6.21899,-40.5424,-0.0135355,-0.0339185,-0.00692339,-0.0114063,-0.0360477,-0.298359,0.0212746,0.0458039,1210,344,6.219,40.5424
-7,680,6.29553,-40.7703,-0.0153832,-0.0293411,-0.00716185,-0.0123623,-0.032362,-0.399167,0.0188569,0.0469619,1217,344,6.29551,40.7703
0,680,6.2876,-41.1044,0,0,0,0,0,0,0,-1,1224,344,6.28762,41.1044
7,680,6.47412,-41.1359,-0.017056,-0.0190496,-0.00886571,-0.00913126,-0.0269744,-0.729417,0.0158421,0.0497231,1231,344,6.47416,41.1359
14,680,6.18042,-41.0414,-0.0170102,-0.0138366,-0.0103367,-0.00496565,-0.0258812,-0.861559,0.0158602,0.0448796,1238,344,6.18041,41.0414
21,680,6.03369,-41.2324,-0.0165925,-0.00859367,-0.0121293,0.000178583,-0.0253648,-0.944651,0.0169697,0.0464179,1245,344,6.03365,41.2324
28,680,5.65955,-41.559,-0.0142889,-0.00334054,-0.0140089,0.00622578,-0.0238552,-0.971657,0.0183345,0.0466936,1252,344,5.65949,41.559
35,680,5.76379,-41.6079,-0.0110996,0.00657067,-0.0133518,0.0137458,-0.0182747,-1.07768,0.0185486,0.046862,1259,344,5.76375,41.6079
42,680,5.17749,-41.6973,-0.00975061,0.0147529,-0.0132852,0.0205732,-0.015571,-1.15787,0.0209344,0.0467054,1266,344,5.17752,41.6973
49,680,5.27588,-41.7779,-0.00907622,0.0255931,-0.0130286,0.0299433,-0.0134264,-1.24854,0.0256377,0.0452232,1273,344,5.27584,41.7779
56,680,5.32007,-41.6715,-0.00808119,0.0341574,-0.0126637,0.0376631,-0.0115869,-1.30072,0.0297334,0.0423846,1280,344,5.32003,41.6715
63,680,5.26123,-41.4437,-0.00770074,0.0436961,-0.012159,0.0464274,-0.0104321,-1.34983,0.0349518,0.0411534,1287,344,5.26126,41.4437
70,680,5.23254,-41.1926,-0.0081287,0.0531677,-0.0111399,0.0551295,-0.0100904,-1.39648,0.0405373,0.0404366,1294,344,5.23248,41.1926
77,680,5.25806,-40.9949,-0.00962168,0.0631147,-0.00983945,0.0644222,-0.0109292,-1.43868,0.0470166,0.042868,1301,344,5.25809,40.9949
84,680,4.89453,-41.0741,-0.0119374,0.0721383,-0.00899964,0.0730909,-0.0128899,-1.46535,0.0535436,0.045113,1308,344,4.89449,41.0741
91,680,4.49438,-41.1909,-0.0148688,0.0791484,-0.00836847,0.0798875,-0.0156079,-1.48271,0.0591514,0.0443109,1315,344,4.49434,41.1909
98,680,4.16687,-41.9133,-0.0179342,0.0847239,-0.00789487,0.0853275,-0.0185378,-1.49449,0.063966,0.0443962,1322,344,4.16691,41.9133
105,680,3.82874,-42.784,-0.0204303,0.0896099,-0.0073843,0.0901032,-0.0209236,-1.50409,0.0681229,0.0435763,1329,344,3.82879,42.784
112,680,3.49512,-43.6206,0,0,0,0,0,0,0,-1,1336,344,3.4951,43.6206
119,680,4.79663,-39.5311,0,0,0,0,0,0,0,-1,1343,344,4.79664,39.5311
126,680,4.53345,-39.5104,-0.0230807,0.105432,-0.00389987,0.10555,-0.023199,-1.54049,0.07924,0.0404066,1350,344,4.5335,39.5104
133,680,4.27856,-39.5566,-0.0257163,0.10914,-0.0017371,0.109162,-0.0257386,-1.55792,0.0827004,0.0438104,1357,344,4.27852,39.5566
140,680,4.52881,-40.0051,0,0,0,0,0,0,0,-1,1364,344,4.52876,40.0051
147,680,4.50244,-39.9257,0,0,0,0,0,0,0,-1,1371,344,4.50239,39.9257
154,680,4.5022,-39.4143,0,0,0,0,0,0,0,-1,1378,344,4.50221,39.4143
161,680,4.3075,-38.8314,0,0,0,0,0,0,0,-1,1385,344,4.30746,38.8314
168,680,29.4142,-2.51651,0,0,0,0,0,0,0,-1,1392,344,29.4142,2.51652
175,680,6.66541,0.942078,0,0,0,0,0,0,0,-1,1399,344,6.66538,-0.942088
182,680,6.52917,0.532379,0,0,0,0,0,0,0,-1,1406,344,6.52922,-0.532385
189,680,7.55884,4.77695,0,0,0,0,0,0,0,-1,1413,344,7.55886,-4.77694
196,680,6.55627,3.35254,0,0,0,0,0,0,0,-1,1420,344,6.55622,-3.35255
203,680,5.7334,1.90753,0,0,0,0,0,0,0,-1,1427,344,5.73341,-1.90754
210,680,5.27515,0.493622,0,0,0,0,0,0,0,-1,1434,344,5.27514,-0.493632
217,680,6.56384,-0.374176,0,0,0,0,0,0,0,-1,1441,344,6.56379,0.374176
224,680,3.9491,-0.640228,0,0,0,0,0,0,0,-1,1448,344,3.94908,0.64024
231,680,4.24866,-1.96881,0,0,0,0,0,0,0,-1,1455,344,4.2486,1.96882
238,680,4.29333,-3.23984,0,0,0,0,0,0,0,-1,1462,344,4.29332,3.23984
245,680,2.44397,0.985382,0,0,0,0,0,0,0,-1,1469,344,2.44402,-0.985394
252,680,3.07349,2.18951,0,0,0,0,0,0,0,-1,1476,344,3.0735,-2.18952
259,680,2.82971,1.30682,0,0,0,0,0,0,0,-1,1483,344,2.82972,-1.30684
266,680,2.67554,1.44067,0,0,0,0,0,0,0,-1,1490,344,2.67551,-1.44066
273,680,2.46411,1.54666,0,0,0,0,0,0,0,-1,1497,344,2.46407,-1.54666
280,680,0,0,0,0,0,0,0,0,0,-1,1504,344,0,0
287,680,0,0,0,0,0,0,0,0,0,-1,1511,344,0,0
294,680,0,0,0,0,0,0,0,0,0,-1,1518,344,0,0
301,680,0,0,0,0,0,0,0,0,0,-1,1525,344,0,0
308,680,0,0,0,0,0,0,0,0,0,-1,1532,344,0,0
315,680,0,0,0,0,0,0,0,0,0,-1,1539,344,0,0
322,680,0,0,0,0,0,0,0,0,0,-1,1546,344,0,0
329,680,0,0,0,0,0,0,0,0,0,-1,1553,344,0,0
336,680,0,0,0,0,0,0,0,0,0,-1,1560,344,0,0
343,680,0,0,0,0,0,0,0,0,0,-1,1567,344,0,0
350,680,0,0,0,0,0,0,0,0,0,-1,1574,344,0,0
357,680,0,0,0,0,0,0,0,0,0,-1,1581,344,0,0
364,680,0,0,0,0,0,0,0,0,0,-1,1588,344,0,0
371,680,0,0,0,0,0,0,0,0,0,-1,1595,344,0,0
378,680,0,0,0,0,0,0,0,0,0,-1,1602,344,0,0
385,680,0,0,0,0,0,0,0,0,0,-1,1609,344,0,0
392,680,0,0,0,0,0,0,0,0,0,-1,1616,344,0,0
399,680,0,0,0,0,0,0,0,0,0,-1,1623,344,0,0
406,680,0,0,0,0,0,0,0,0,0,-1,1630,344,0,0
413,680,0,0,0,0,0,0,0,0,0,-1,1637,344,0,0
420,680,0,0,0,0,0,0,0,0,0,-1,1644,344,0,0
427,680,0,0,0,0,0,0,0,0,0,-1,1651,344,0,0
434,680,0,0,0,0,0,0,0,0,0,-1,1658,344,0,0
441,680,0,0,0,0,0,0,0,0,0,-1,1665,344,0,0
448,680,0,0,0,0,0,0,0,0,0,-1,1672,344,0,0
455,680,0,0,0,0,0,0,0,0,0,-1,1679,344,0,0
462,680,0,0,0,0,0,0,0,0,0,-1,1686,344,0,0
469,680,0,0,0,0,0,0,0,0,0,-1,1693,344,0,0
476,680,0,0,0,0,0,0,0,0,0,-1,1700,344,0,0
483,680,0,0,0,0,0,0,0,0,0,-1,1707,344,0,0
490,680,0,0,0,0,0,0,0,0,0,-1,1714,344,0,0
497,680,0,0,0,0,0,0,0,0,0,-1,1721,344,0,0
504,680,0,0,0,0,0,0,0,0,0,-1,1728,344,0,0
511,680,0,0,0,0,0,0,0,0,0,-1,1735,344,0,0
518,680,0,0,0,0,0,0,0,0,0,-1,1742,344,0,0
525,680,0,0,0,0,0,0,0,0,0,-1,1749,344,0,0
532,680,0,0,0,0,0,0,0,0,0,-1,1756,344,0,0
539,680,0,0,0,0,0,0,0,0,0,-1,1763,344,0,0
546,680,0,0,0,0,0,0,0,0,0,-1,1770,344,0,0
553,680,0,0,0,0,0,0,0,0,0,-1,1777,344,0,0
560,680,0,0,0,0,0,0,0,0,0,-1,1784,344,0,0
567,680,0,0,0,0,0,0,0,0,0,-1,1791,344,0,0
574,680,0,0,0,0,0,0,0,0,0,-1,1798,344,0,0
581,680,0,0,0,0,0,0,0,0,0,-1,1805,344,0,0
588,680,0,0,0,0,0,0,0,0,0,-1,1812,344,0,0
595,680,0,0,0,0,0,0,0,0,0,-1,1819,344,0,0
602,680,0,0,0,0,0,0,0,0,0,-1,1826,344,0,0
609,680,0,0,0,0,0,0,0,0,0,-1,1833,344,0,0
616,680,0,0,0,0,0,0,0,0,0,-1,1840,344,0,0
623,680,0,0,0,0,0,0,0,0,0,-1,1847,344,0,0
630,680,0,0,0,0,0,0,0,0,0,-1,1854,344,0,0
637,680,0,0,0,0,0,0,0,0,0,-1,1861,344,0,0
644,680,0,0,0,0,0,0,0,0,0,-1,1868,344,0,0
651,680,0,0,0,0,0,0,0,0,0,-1,1875,344,0,0
658,680,0,0,0,0,0,0,0,0,0,-1,1882,344,0,0
665,680,0,0,0,0,0,0,0,0,0,-1,1889,344,0,0
672,680,0,0,0,0,0,0,0,0,0,-1,1896,344,0,0
679,680,0,0,0,0,0,0,0,0,0,-1,1903,344,0,0
686,680,0,0,0,0,0,0,0,0,0,-1,1910,344,0,0
693,680,0,0,0,0,0,0,0,0,0,-1,1917,344,0,0
700,680,0,0,0,0,0,0,0,0,0,-1,1924,344,0,0
707,680,0,0,0,0,0,0,0,0,0,-1,1931,344,0,0
714,680,0,0,0,0,0,0,0,0,0,-1,1938,344,0,0
721,680,0,0,0,0,0,0,0,0,0,-1,1945,344,0,0
728,680,0,0,0,0,0,0,0,0,0,-1,1952,344,0,0
735,680,0,0,0,0,0,0,0,0,0,-1,1959,344,0,0
742,680,0,0,0,0,0,0,0,0,0,-1,1966,344,0,0
749,680,0,0,0,0,0,0,0,0,0,-1,1973,344,0,0
756,680,0,0,0,0,0,0,0,0,0,-1,1980,344,0,0
763,680,0,0,0,0,0,0,0,0,0,-1,1987,344,0,0
770,680,0,0,0,0,0,0,0,0,0,-1,1994,344,0,0
777,680,0,0,0,0,0,0,0,0,0,-1,2001,344,0,0
784,680,0,0,0,0,0,0,0,0,0,-1,2008,344,0,0
791,680,0,0,0,0,0,0,0,0,0,-1,2015,344,0,0
798,680,0,0,0,0,0,0,0,0,0,-1,2022,344,0,0
805,680,0,0,0,0,0,0,0,0,0,-1,2029,344,0,0
812,680,0,0,0,0,0,0,0,0,0,-1,2036,344,0,0
-700,673,0,0,0,0,0,0,0,0,0,-1,524,351,0,0
-693,673,0,0,0,0,0,0,0,0,0,-1,531,351,0,0
-686,673,0,0,0,0,0,0,0,0,0,-1,538,351,0,0
-679,673,0,0,0,0,0,0,0,0,0,-1,545,351,0,0
-672,673,0,0,0,0,0,0,0,0,0,-1,552,351,0,0
-665,673,0,0,0,0,0,0,0,0,0,-1,559,351,0,0
-658,673,0,0,0,0,0,0,0,0,0,-1,566,351,0,0
-651,673,0,0,0,0,0,0,0,0,0,-1,573,351,0,0
-644,673,0,0,0,0,0,0,0,0,0,-1,580,351,0,0
-637,673,0,0,0,0,0,0,0,0,0,-1,587,351,0,0
-630,673,0,0,0,0,0,0,0,0,0,-1,594,351,0,0
-623,673,0,0,0,0,0,0,0,0,0,-1,601,351,0,0
-616,673,0,0,0,0,0,0,0,0,0,-1,608,351,0,0
-609,673,0,0,0,0,0,0,0,0,0,-1,615,351,0,0
-602,673,0,0,0,0,0,0,0,0,0,-1,622,351,0,0
-595,673,0,0,0,0,0,0,0,0,0,-1,629,351,0,0
-588,673,0,0,0,0,0,0,0,0,0,-1,636,351,0,0
-581,673,0,0,0,0,0,0,0,0,0,-1,643,351,0,0
-574,673,0,0,0,0,0,0,0,0,0,-1,650,351,0,0
-567,673,0,0,0,0,0,0,0,0,0,-1,657,351,0,0
-560,673,0,0,0,0,0,0,0,0,0,-1,664,351,0,0
-553,673,0,0,0,0,0,0,0,0,0,-1,671,351,0,0
-546,673,0,0,0,0,0,0,0,0,0,-1,678,351,0,0
-539,673,0,0,0,0,0,0,0,0,0,-1,685,351,0,0
-532,673,0,0,0,0,0,0,0,0,0,-1,692,351,0,0
-525,673,0,0,0,0,0,0,0,0,0,-1,699,351,0,0
-518,673,0,0,0,0,0,0,0,0,0,-1,706,351,0,0
-511,673,0,0,0,0,0,0,0,0,0,-1,713,351,0,0
-504,673,0,0,0,0,0,0,0,0,0,-1,720,351,0,0
-497,673,0,0,0,0,0,0,0,0,0,-1,727,351,0,0
-490,673,0,0,0,0,0,0,0,0,0,-1,734,351,0,0
-483,673,0,0,0,0,0,0,0,0,0,-1,741,351,0,0
-476,673,0,0,0,0,0,0,0,0,0,-1,748,351,0,0
-469,673,0,0,0,0,0,0,0,0,0,-1,755,351,0,0
-462,673,0,0,0,0,0,0,0,0,0,-1,762,351,0,0
-455,673,0,0,0,0,0,0,0,0,0,-1,769,351,0,0
-448,673,0,0,0,0,0,0,0,0,0,-1,776,351,0,0
-441,673,0,0,0,0,0,0,0,0,0,-1,783,351,0,0
-434,673,0,0,0,0,0,0,0,0,0,-1,790,351,0,0
-427,673,0,0,0,0,0,0,0,0,0,-1,797,351,0,0
-420,673,0,0,0,0,0,0,0,0,0,-1,804,351,0,0
-413,673,0,0,0,0,0,0,0,0,0,-1,811,351,0,0
-406,673,0,0,0,0,0,0,0,0,0,-1,818,351,0,0
-399,673,0,0,0,0,0,0,0,0,0,-1,825,351,0,0
-392,673,0,0,0,0,0,0,0,0,0,-1,832,351,0,0
-385,673,0,0,0,0,0,0,0,0,0,-1,839,351,0,0
-378,673,0,0,0,0,0,0,0,0,0,-1,846,351,0,0
-371,673,0,0,0,0,0,0,0,0,0,-1,853,351,0,0
-364,673,0,0,0,0,0,0,0,0,0,-1,860,351,0,0
-357,673,0,0,0,0,0,0,0,0,0,-1,867,351,0,0
-350,673,0,0,0,0,0,0,0,0,0,-1,874,351,0,0
-343,673,0,0,0,0,0,0,0,0,0,-1,881,351,0,0
-336,673,0,0,0,0,0,0,0,0,0,-1,888,351,0,0
-329,673,0,0,0,0,0,0,0,0,0,-1,895,351,0,0
-322,673,0,0,0,0,0,0,0,0,0,-1,902,351,0,0
-315,673,0,0,0,0,0,0,0,0,0,-1,909,351,0,0
-308,673,0,0,0,0,0,0,0,0,0,-1,916,351,0,0
-301,673,0,0,0,0,0,0,0,0,0,-1,923,351,0,0
-294,673,0,0,0,0,0,0,0,0,0,-1,930,351,0,0
-287,673,0,0,0,0,0,0,0,0,0,-1,937,351,0,0
-280,673,0,0,0,0,0,0,0,0,0,-1,944,351,0,0
-273,673,0,0,0,0,0,0,0,0,0,-1,951,351,0,0
-266,673,0,0,0,0,0,0,0,0,0,-1,958,351,0,0
-259,673,0,0,0,0,0,0,0,0,0,-1,965,351,0,0
-252,673,0,0,0,0,0,0,0,0,0,-1,972,351,0,0
-245,673,0,0,0,0,0,0,0,0,0,-1,979,351,0,0
-238,673,0,0,0,0,0,0,0,0,0,-1,986,351,0,0
-231,673,0,0,0,0,0,0,0,0,0,-1,993,351,0,0
-224,673,0,0,0,0,0,0,0,0,0,-1,1000,351,0,0
-217,673,0,0,0,0,0,0,0,0,0,-1,1007,351,0,0
-210,673,0,0,0,0,0,0,0,0,0,-1,1014,351,0,0
-203,673,0,0,0,0,0,0,0,0,0,-1,1021,351,0,0
-196,673,0,0,0,0,0,0,0,0,0,-1,1028,351,0,0
-189,673,0,0,0,0,0,0,0,0,0,-1,1035,351,0,0
-182,673,0,0,0,0,0,0,0,0,0,-1,1042,351,0,0
-175,673,7.10449,-31.8279,0,0,0,0,0,0,0,-1,1049,351,7.10448,31.8279
-168,673,7.33081,-32.7122,0,0,0,0,0,0,0,-1,1056,351,7.33085,32.7122
-161,673,7.8938,-33.5352,0,0,0,0,0,0,0,-1,1063,351,7.89385,33.5352
-154,673,8.80566,-35.3518,0,0,0,0,0,0,0,-1,1070,351,8.80563,35.3518
-147,673,6.83533,-35.4857,0,0,0,0,0,0,0,-1,1077,351,6.83532,35.4858
-140,673,6.99841,-35.4937,0,0,0,0,0,0,0,-1,1084,351,6.99841,35.4937
-133,673,6.18286,-35.1225,0,0,0,0,0,0,0,-1,1091,351,6.18281,35.1225
-126,673,6.0929,-35.0725,0,0,0,0,0,0,0,-1,1098,351,6.09293,35.0725
-119,673,6.98071,-34.0173,0,0,0,0,0,0,0,-1,1105,351,6.98074,34.0173
-112,673,7.27234,-32.5801,0,0,0,0,0,0,0,-1,1112,351,7.27231,32.5801
-105,673,21.1144,-43.3143,0,0,0,0,0,0,0,-1,1119,351,21.1143,43.3143
-98,673,14.8014,-36.7519,0,0,0,0,0,0,0,-1,1126,351,14.8014,36.7519
-91,673,8.54944,-29.9639,0,0,0,0,0,0,0,-1,1133,351,8.54949,29.9639
-84,673,2.17102,-24.3204,0,0,0,0,0,0,0,-1,1140,351,2.17107,24.3204
-77,673,-4.25378,-18.8346,0,0,0,0,0,0,0,-1,1147,351,-4.25381,18.8346
-70,673,-10.7933,-13.6681,0,0,0,0,0,0,0,-1,1154,351,-10.7934,13.6681
-63,673,-17.3896,-8.24469,0,0,0,0,0,0,0,-1,1161,351,-17.3896,8.2447
-56,673,-18.0282,2.79053,0,0,0,0,0,0,0,-1,1168,351,-18.0283,-2.79052
-49,673,-0.926758,-0.115448,0,0,0,0,0,0,0,-1,1175,351,-0.926732,0.115444
-42,673,-1.15015,0.289917,0,0,0,0,0,0,0,-1,1182,351,-1.15017,-0.289932
-35,673,-0.919556,-1.00711,0,0,0,0,0,0,0,-1,1189,351,-0.919514,1.00711
-28,673,5.28918,-39.2331,0,0,0,0,0,0,0,-1,1196,351,5.28924,39.2331
-21,673,5.96777,-40.7589,0,0,0,0,0,0,0,-1,1203,351,5.96773,40.7589
-14,673,5.96899,-41.0117,-0.0115277,-0.0158077,-0.00626365,-0.00704857,-0.0202868,-0.620789,0.0118929,0.0468428,1210,351,5.96894,41.0117
-7,673,6.00024,-41.3029,-0.012676,-0.0129499,-0.00662508,-0.00618645,-0.0194394,-0.775067,0.0114679,0.0443424,1217,351,6.00024,41.3029
0,673,5.9032,-41.6266,-0.0133458,-0.00982768,-0.00714849,-0.004225,-0.0189485,-0.906039,0.011486,0.048089,1224,351,5.90315,41.6265
7,673,6.00195,-41.3689,0,0,0,0,0,0,0,-1,1231,351,6.00189,41.3689
14,673,5.89514,-41.4064,-0.0134136,-0.00256811,-0.00884408,0.00238334,-0.018365,-1.06041,0.0131102,0.0440224,1238,351,5.89519,41.4064
21,673,5.75391,-41.7242,-0.0130225,0.00103826,-0.00999886,0.00623094,-0.0182152,-1.09181,0.0146684,0.0296606,1245,351,5.75395,41.7242
28,673,5.69446,-41.8456,-0.0112649,0.00474286,-0.0111793,0.0104881,-0.0170102,-1.09607,0.0160243,0.0222934,1252,351,5.6944,41.8456
35,673,5.63269,-41.8684,-0.00890937,0.0119354,-0.0105015,0.0163086,-0.0132825,-1.17621,0.0171142,0.0340935,1259,351,5.63275,41.8684
42,673,5.43127,-41.9371,-0.00788812,0.0178043,-0.010243,0.0213881,-0.0114719,-1.23423,0.0192575,0.0369209,1266,351,5.43123,41.9371
49,673,5.35083,-41.9979,-0.00738062,0.0257668,-0.00987083,0.0284835,-0.0100974,-1.30222,0.0231024,0.0217591,1273,351,5.35082,41.9979
56,673,5.33191,-41.9687,-0.00669455,0.0318742,-0.00949072,0.0340831,-0.00890345,-1.34212,0.0261991,0.0171137,1280,351,5.33193,41.9687
63,673,5.38086,-41.7911,-0.00643298,0.0386925,-0.0089828,0.0404149,-0.00815538,-1.38135,0.0300331,0.0216256,1287,351,5.38087,41.7911
70,673,5.31555,-41.6981,-0.00680151,0.0454097,-0.00816817,0.0466578,-0.00804955,-1.41918,0.0341065,0.034916,1294,351,5.3155,41.698
77,673,5.3374,-41.5001,-0.00796033,0.0527816,-0.00714291,0.0536103,-0.008789,-1.4553,0.0390014,0.0406684,1301,351,5.3374,41.5001
84,673,4.97461,-41.681,-0.00969433,0.0594614,-0.00652912,0.0600724,-0.0103054,-1.47748,0.0438886,0.0459899,1308,351,4.9746,41.681
91,673,4.61304,-41.8907,0,0,0,0,0,0,0,-1,1315,351,4.61299,41.8907
98,673,4.09131,-42.6205,0,0,0,0,0,0,0,-1,1322,351,4.09133,42.6206
105,673,4.54651,-41.0164,0,0,0,0,0,0,0,-1,1329,351,4.54655,41.0165
112,673,4.46069,-40.8934,0,0,0,0,0,0,0,-1,1336,351,4.46071,40.8934
119,673,4.63098,-40.6698,0,0,0,0,0,0,0,-1,1343,351,4.63102,40.6698
126,673,4.51587,-40.5457,-0.0177419,0.0822496,-0.00228601,0.0823018,-0.0177941,-1.54795,0.0616611,0.0433399,1350,351,4.51582,40.5457
133,673,4.44385,-40.5676,-0.0192172,0.0839691,-0.000619613,0.0839728,-0.0192209,-1.56479,0.0633681,0.0474712,1357,351,4.44388,40.5676
140,673,4.54468,-40.5965,-0.0200501,0.0756423,-0.00309013,0.075742,-0.0201498,-1.53855,0.0583821,0.0478975,1364,351,4.54463,40.5965
147,673,4.49231,-40.4769,-0.0162587,0.0747396,-0.000926602,0.0747491,-0.0162682,-1.56062,0.056048,0.0449338,1371,351,4.49236,40.4769
154,673,4.47375,-40.0186,-0.0110293,0.0733907,0.00348888,0.0735347,-0.0111732,1.52956,0.0531405,0.042315,1378,351,4.47381,40.0187
161,673,4.4043,-39.6167,0,0,0,0,0,0,0,-1,1385,351,4.40425,39.6167
168,673,6.87061,1.83954,0,0,0,0,0,0,0,-1,1392,351,6.87063,-1.83953
175,673,6.6228,1.1459,0,0,0,0,0,0,0,-1,1399,351,6.62276,-1.14591
182,673,6.37244,0.796112,0,0,0,0,0,0,0,-1,1406,351,6.3724,-0.796102
189,673,6.12097,0.265472,0,0,0,0,0,0,0,-1,1413,351,6.121,-0.265482
196,673,6.02173,3.12717,0,0,0,0,0,0,0,-1,1420,351,6.02176,-3.12717
203,673,5.04456,1.6351,0,0,0,0,0,0,0,-1,1427,351,5.04455,-1.63509
210,673,4.79224,0.447479,0,0,0,0,0,0,0,-1,1434,351,4.79229,-0.447469
217,673,2.01648,0.972687,0,0,0,0,0,0,0,-1,1441,351,2.01644,-0.972691
224,673,2.3689,-1.80539,0,0,0,0,0,0,0,-1,1448,351,2.36896,1.80539
231,673,2.65857,-2.18497,0,0,0,0,0,0,0,-1,1455,351,2.65852,2.18496
238,673,3.77844,-2.06088,0,0,0,0,0,0,0,-1,1462,351,3.77839,2.06088
245,673,3.5376,-0.190399,0,0,0,0,0,0,0,-1,1469,351,3.53759,0.1904
252,673,3.80518,0.55603,0,0,0,0,0,0,0,-1,1476,351,3.80519,-0.556022
259,673,3.88562,1.29617,0,0,0,0,0,0,0,-1,1483,351,3.88562,-1.29618
266,673,4.22424,2.04834,0,0,0,0,0,0,0,-1,1490,351,4.22429,-2.04834
273,673,6.07886,0.385895,0,0,0,0,0,0,0,-1,1497,351,6.0789,-0.385906
280,673,6.97534,-0.0820007,0,0,0,0,0,0,0,-1,1504,351,6.97536,0.0820122
287,673,7.66968,-0.348541,0,0,0,0,0,0,0,-1,1511,351,7.66969,0.348534
294,673,8.20996,0.28537,0,0,0,0,0,0,0,-1,1518,351,8.20993,-0.28536
301,673,0,0,0,0,0,0,0,0,0,-1,1525,351,0,0
308,673,0,0,0,0,0,0,0,0,0,-1,1532,351,0,0
315,673,0,0,0,0,0,0,0,0,0,-1,1539,351,0,0
322,673,0,0,0,0,0,0,0,0,0,-1,1546,351,0,0
329,673,0,0,0,0,0,0,0,0,0,-1,1553,351,0,0
336,673,0,0,0,0,0,0,0,0,0,-1,1560,351,0,0
343,673,0,0,0,0,0,0,0,0,0,-1,1567,351,0,0
350,673,0,0,0,0,0,0,0,0,0,-1,1574,351,0,0
357,673,0,0,0,0,0,0,0,0,0,-1,1581,351,0,0
364,673,0,0,0,0,0,0,0,0,0,-1,1588,351,0,0
371,673,0,0,0,0,0,0,0,0,0,-1,1595,351,0,0
378,673,0,0,0,0,0,0,0,0,0,-1,1602,351,0,0
385,673,0,0,0,0,0,0,0,0,0,-1,1609,351,0,0
392,673,0,0,0,0,0,0,0,0,0,-1,1616,351,0,0
399,673,0,0,0,0,0,0,0,0,0,-1,1623,351,0,0
406,673,0,0,0,0,0,0,0,0,0,-1,1630,351,0,0
413,673,0,0,0,0,0,0,0,0,0,-1,1637,351,0,0
420,673,0,0,0,0,0,0,0,0,0,-1,1644,351,0,0
427,673,0,0,0,0,0,0,0,0,0,-1,1651,351,0,0
434,673,0,0,0,0,0,0,0,0,0,-1,1658,351,0,0
441,673,0,0,0,0,0,0,0,0,0,-1,1665,351,0,0
448,673,0,0,0,0,0,0,0,0,0,-1,1672,351,0,0
455,673,0,0,0,0,0,0,0,0,0,-1,1679,351,0,0
462,673,0,0,0,0,0,0,0,0,0,-1,1686,351,0,0
469,673,0,0,0,0,0,0,0,0,0,-1,1693,351,0,0
476,673,0,0,0,0,0,0,0,0,0,-1,1700,351,0,0
483,673,0,0,0,0,0,0,0,0,0,-1,1707,351,0,0
490,673,0,0,0,0,0,0,0,0,0,-1,1714,351,0,0
497,673,0,0,0,0,0,0,0,0,0,-1,1721,351,0,0
504,673,0,0,0,0,0,0,0,0,0,-1,1728,351,0,0
511,673,0,0,0,0,0,0,0,0,0,-1,1735,351,0,0
518,673,0,0,0,0,0,0,0,0,0,-1,1742,351,0,0
525,673,0,0,0,0,0,0,0,0,0,-1,1749,351,0,0
532,673,0,0,0,0,0,0,0,0,0,-1,1756,351,0,0
539,673,0,0,0,0,0,0,0,0,0,-1,1763,351,0,0
546,673,0,0,0,0,0,0,0,0,0,-1,1770,351,0,0
553,673,0,0,0,0,0,0,0,0,0,-1,1777,351,0,0
560,673,0,0,0,0,0,0,0,0,0,-1,1784,351,0,0
567,673,0,0,0,0,0,0,0,0,0,-1,1791,351,0,0
574,673,0,0,0,0,0,0,0,0,0,-1,1798,351,0,0
581,673,0,0,0,0,0,0,0,0,0,-1,1805,351,0,0
588,673,0,0,0,0,0,0,0,0,0,-1,1812,351,0,0
595,673,0,0,0,0,0,0,0,0,0,-1,1819,351,0,0
602,673,0,0,0,0,0,0,0,0,0,-1,1826,351,0,0
609,673,0,0,0,0,0,0,0,0,0,-1,1833,351,0,0
616,673,0,0,0,0,0,0,0,0,0,-1,1840,351,0,0
623,673,0,0,0,0,0,0,0,0,0,-1,1847,351,0,0
630,673,0,0,0,0,0,0,0,0,0,-1,1854,351,0,0
637,673,0,0,0,0,0,0,0,0,0,-1,1861,351,0,0
644,673,0,0,0,0,0,0,0,0,0,-1,1868,351,0,0
651,673,0,0,0,0,0,0,0,0,0,-1,1875,351,0,0
658,673,0,0,0,0,0,0,0,0,0,-1,1882,351,0,0
665,673,0,0,0,0,0,0,0,0,0,-1,1889,351,0,0
672,673,0,0,0,0,0,0,0,0,0,-1,1896,351,0,0
679,673,0,0,0,0,0,0,0,0,0,-1,1903,351,0,0
686,673,0,0,0,0,0,0,0,0,0,-1,1910,351,0,0
693,673,0,0,0,0,0,0,0,0,0,-1,1917,351,0,0
700,673,0,0,0,0,0,0,0,0,0,-1,1924,351,0,0
707,673,0,0,0,0,0,0,0,0,0,-1,1931,351,0,0
714,673,0,0,0,0,0,0,0,0,0,-1,1938,351,0,0
721,673,0,0,0,0,0,0,0,0,0,-1,1945,351,0,0
728,673,0,0,0,0,0,0,0,0,0,-1,1952,351,0,0
735,673,0,0,0,0,0,0,0,0,0,-1,1959,351,0,0
742,673,0,0,0,0,0,0,0,0,0,-1,1966,351,0,0
749,673,0,0,0,0,0,0,0,0,0,-1,1973,351,0,0
756,673,0,0,0,0,0,0,0,0,0,-1,1980,351,0,0
763,673,0,0,0,0,0,0,0,0,0,-1,1987,351,0,0
770,673,0,0,0,0,0,0,0,0,0,-1,1994,351,0,0
777,673,0,0,0,0,0,0,0,0,0,-1,2001,351,0,0
784,673,0,0,0,0,0,0,0,0,0,-1,2008,351,0,0
791,673,0,0,0,0,0,0,0,0,0,-1,2015,351,0,0
798,673,0,0,0,0,0,0,0,0,0,-1,2022,351,0,0
805,673,0,0,0,0,0,0,0,0,0,-1,2029,351,0,0
812,673,0,0,0,0,0,0,0,0,0,-1,2036,351,0,0
-700,666,0,0,0,0,0,0,0,0,0,-1,524,358,0,0
-693,666,0,0,0,0,0,0,0,0,0,-1,531,358,0,0
-686,666,0,0,0,0,0,0,0,0,0,-1,538,358,0,0
-679,666,0,0,0,0,0,0,0,0,0,-1,545,358,0,0
-672,666,0,0,0,0,0,0,0,0,0,-1,552,358,0,0
-665,666,0,0,0,0,0,0,0,0,0,-1,559,358,0,0
-658,666,0,0,0,0,0,0,0,0,0,-1,566,358,0,0
-651,666,0,0,0,0,0,0,0,0,0,-1,573,358,0,0
-644,666,0,0,0,0,0,0,0,0,0,-1,580,358,0,0
-637,666,0,0,0,0,0,0,0,0,0,-1,587,358,0,0
-630,666,0,0,0,0,0,0,0,0,0,-1,594,358,0,0
-623,666,0,0,0,0,0,0,0,0,0,-1,601,358,0,0
-616,666,0,0,0,0,0,0,0,0,0,-1,608,358,0,0
-609,666,0,0,0,0,0,0,0,0,0,-1,615,358,0,0
-602,666,0,0,0,0,0,0,0,0,0,-1,622,358,0,0
-595,666,0,0,0,0,0,0,0,0,0,-1,629,358,0,0
-588,666,0,0,0,0,0,0,0,0,0,-1,636,358,0,0
-581,666,0,0,0,0,0,0,0,0,0,-1,643,358,0,0
-574,666,0,0,0,0,0,0,0,0,0,-1,650,358,0,0
-567,666,0,0,0,0,0,0,0,0,0,-1,657,358,0,0
-560,666,0,0,0,0,0,0,0,0,0,-1,664,358,0,0
-553,666,0,0,0,0,0,0,0,0,0,-1,671,358,0,0
-546,666,0,0,0,0,0,0,0,0,0,-1,678,358,0,0
-539,666,0,0,0,0,0,0,0,0,0,-1,685,358,0,0
-532,666,0,0,0,0,0,0,0,0,0,-1,692,358,0,0
-525,666,0,0,0,0,0,0,0,0,0,-1,699,358,0,0
-518,666,0,0,0,0,0,0,0,0,0,-1,706,358,0,0
-511,666,0,0,0,0,0,0,0,0,0,-1,713,358,0,0
-504,666,0,0,0,0,0,0,0,0,0,-1,720,358,0,0
-497,666,0,0,0,0,0,0,0,0,0,-1,727,358,0,0
-490,666,0,0,0,0,0,0,0,0,0,-1,734,358,0,0
-483,666,0,0,0,0,0,0,0,0,0,-1,741,358,0,0
-476,666,0,0,0,0,0,0,0,0,0,-1,748,358,0,0
-469,666,0,0,0,0,0,0,0,0,0,-1,755,358,0,0
-462,666,0,0,0,0,0,0,0,0,0,-1,762,358,0,0
-455,666,0,0,0,0,0,0,0,0,0,-1,769,358,0,0
-448,666,0,0,0,0,0,0,0,0,0,-1,776,358,0,0
-441,666,0,0,0,0,0,0,0,0,0,-1,783,358,0,0
-434,666,0,0,0,0,0,0,0,0,0,-1,790,358,0,0
-427,666,0,0,0,0,0,0,0,0,0,-1,797,358,0,0
-420,666,0,0,0,0,0,0,0,0,0,-1,804,358,0,0
-413,666,0,0,0,0,0,0,0,0,0,-1,811,358,0,0
-406,666,0,0,0,0,0,0,0,0,0,-1,818,358,0,0
-399,666,0,0,0,0,0,0,0,0,0,-1,825,358,0,0
-392,666,0,0,0,0,0,0,0,0,0,-1,832,358,0,0
-385,666,0,0,0,0,0,0,0,0,0,-1,839,358,0,0
-378,666,0,0,0,0,0,0,0,0,0,-1,846,358,0,0
-371,666,0,0,0,0,0,0,0,0,0,-1,853,358,0,0
-364,666,0,0,0,0,0,0,0,0,0,-1,860,358,0,0
-357,666,0,0,0,0,0,0,0,0,0,-1,867,358,0,0
-350,666,0,0,0,0,0,0,0,0,0,-1,874,358,0,0
-343,666,0,0,0,0,0,0,0,0,0,-1,881,358,0,0
-336,666,0,0,0,0,0,0,0,0,0,-1,888,358,0,0
-329,666,0,0,0,0,0,0,0,0,0,-1,895,358,0,0
-322,666,0,0,0,0,0,0,0,0,0,-1,902,358,0,0
-315,666,0,0,0,0,0,0,0,0,0,-1,909,358,0,0
-308,666,0,0,0,0,0,0,0,0,0,-1,916,358,0,0
-301,666,0,0,0,0,0,0,0,0,0,-1,923,358,0,0
-294,666,0,0,0,0,0,0,0,0,0,-1,930,358,0,0
-287,666,0,0,0,0,0,0,0,0,0,-1,937,358,0,0
-280,666,0,0,0,0,0,0,0,0,0,-1,944,358,0,0
-273,666,0,0,0,0,0,0,0,0,0,-1,951,358,0,0
-266,666,0,0,0,0,0,0,0,0,0,-1,958,358,0,0
-259,666,0,0,0,0,0,0,0,0,0,-1,965,358,0,0
-252,666,0,0,0,0,0,0,0,0,0,-1,972,358,0,0
-245,666,0,0,0,0,0,0,0,0,0,-1,979,358,0,0
-238,666,0,0,0,0,0,0,0,0,0,-1,986,358,0,0
-231,666,0,0,0,0,0,0,0,0,0,-1,993,358,0,0
-224,666,0,0,0,0,0,0,0,0,0,-1,1000,358,0,0
-217,666,0,0,0,0,0,0,0,0,0,-1,1007,358,0,0
-210,666,0,0,0,0,0,0,0,0,0,-1,1014,358,0,0
-203,666,0,0,0,0,0,0,0,0,0,-1,1021,358,0,0
-196,666,4.03418,-28.8724,0,0,0,0,0,0,0,-1,1028,358,4.03422,28.8724
-189,666,5.00366,-29.597,0,0,0,0,0,0,0,-1,1035,358,5.00363,29.597
-182,666,6.83252,-30.9843,0,0,0,0,0,0,0,-1,1042,358,6.83247,30.9844
-175,666,7.01611,-31.8763,0,0,0,0,0,0,0,-1,1049,358,7.01617,31.8762
-168,666,7.21545,-32.7414,0,0,0,0,0,0,0,-1,1056,358,7.2154,32.7414
-161,666,7.69116,-33.6269,0,0,0,0,0,0,0,-1,1063,358,7.69121,33.6269
-154,666,8.37183,-35.0303,0,0,0,0,0,0,0,-1,1070,358,8.37179,35.0303
-147,666,7.16418,-35.2599,0,0,0,0,0,0,0,-1,1077,358,7.16414,35.2599
-140,666,6.81665,-34.9268,0,0,0,0,0,0,0,-1,1084,358,6.81667,34.9268
-133,666,6.47253,-34.7932,0,0,0,0,0,0,0,-1,1091,358,6.47249,34.7932
-126,666,6.04785,-34.7825,0,0,0,0,0,0,0,-1,1098,358,6.04791,34.7825
-119,666,5.62927,-34.7841,0,0,0,0,0,0,0,-1,1105,358,5.62923,34.7841
-112,666,6.77014,-32.8165,0,0,0,0,0,0,0,-1,1112,358,6.77013,32.8165
-105,666,6.30908,-29.0855,0,0,0,0,0,0,0,-1,1119,358,6.30905,29.0855
-98,666,15.4427,-31.5168,0,0,0,0,0,0,0,-1,1126,358,15.4428,31.5168
-91,666,9.5127,-25.1347,0,0,0,0,0,0,0,-1,1133,358,9.51269,25.1347
-84,666,2.91589,-19.4071,0,0,0,0,0,0,0,-1,1140,358,2.91592,19.4071
-77,666,-3.48083,-14.0782,0,0,0,0,0,0,0,-1,1147,358,-3.48081,14.0782
-70,666,-9.99438,-8.90146,0,0,0,0,0,0,0,-1,1154,358,-9.99433,8.90146
-63,666,-11.7778,-0.975189,0,0,0,0,0,0,0,-1,1161,358,-11.7778,0.97519
-56,666,0.424683,-2.04132,0,0,0,0,0,0,0,-1,1168,358,0.424665,2.04132
-49,666,0.754395,-2.23169,0,0,0,0,0,0,0,-1,1175,358,0.754383,2.23169
-42,666,1.34473,-3.53897,0,0,0,0,0,0,0,-1,1182,358,1.34476,3.53896
-35,666,5.85889,-41.1859,0,0,0,0,0,0,0,-1,1189,358,5.85886,41.1859
-28,666,6.06848,-40.9857,0,0,0,0,0,0,0,-1,1196,358,6.06847,40.9857
-21,666,5.98718,-41.2072,-0.00853819,-0.00579892,-0.00475468,-0.00222054,-0.0121166,-0.925631,0.00744869,0.0376245,1203,358,5.9872,41.2072
-14,666,5.85193,-41.3877,-0.0094816,-0.00440303,-0.00512977,-0.00121846,-0.0126662,-1.01522,0.00806868,0.0343603,1210,358,5.85199,41.3877
-7,666,5.77771,-41.5788,-0.010157,-0.00267849,-0.00553661,0.000263276,-0.0130988,-1.0824,0.0088216,0.0225542,1217,358,5.77766,41.5788
0,666,5.7699,-41.7481,-0.0104798,-0.000713192,-0.00596927,0.00211576,-0.0133087,-1.12823,0.00965531,0.0147723,1224,358,5.76985,41.7481
7,666,5.70081,-41.8102,-0.0105206,0.00170826,-0.0064838,0.00450595,-0.0133183,-1.16344,0.0107019,0.0202517,1231,358,5.70078,41.8102
14,666,5.64319,-41.8354,-0.0103105,0.00401885,-0.00710165,0.00694209,-0.0132337,-1.18031,0.0118358,0.0189907,1238,358,5.64324,41.8354
21,666,5.55981,-42.0251,-0.009965,0.00643362,-0.00782548,0.00956863,-0.0131,-1.18976,0.0131406,0.0147098,1245,358,5.55983,42.0251
28,666,5.51501,-42.1382,-0.0086681,0.00897823,-0.00854061,0.0124347,-0.0121246,-1.18623,0.0141797,0.0161066,1252,358,5.51502,42.1382
35,666,5.51416,-42.1231,-0.00698703,0.0140285,-0.00795308,0.0166989,-0.00965746,-1.24685,0.0153968,0.0154518,1259,358,5.51416,42.1231
42,666,5.43799,-42.1798,-0.00624472,0.0181103,-0.00763611,0.0203065,-0.00844086,-1.29075,0.017062,0.0159024,1266,358,5.43796,42.1798
49,666,5.3584,-42.2336,-0.00588028,0.0237714,-0.00725566,0.0254516,-0.0075605,-1.34323,0.0199708,0.0141451,1273,358,5.35843,42.2336
56,666,5.30835,-42.2473,-0.00542711,0.0279877,-0.00692464,0.0293659,-0.00680528,-1.37434,0.0221962,0.0150912,1280,358,5.30832,42.2473
63,666,5.27905,-42.3076,-0.00525975,0.032677,-0.0064794,0.0337531,-0.00633588,-1.40621,0.0248844,0.0177203,1287,358,5.27902,42.3076
70,666,5.25793,-42.287,-0.00556258,0.0372592,-0.00585459,0.0380452,-0.00634859,-1.43734,0.0277231,0.0179079,1294,358,5.25798,42.287
77,666,5.19983,-42.1602,-0.00643823,0.0425767,-0.00506005,0.0430937,-0.00695515,-1.46899,0.0313061,0.0217085,1301,358,5.19979,42.1602
84,666,5.177,-42.1648,-0.00771483,0.0473934,-0.00461268,0.0477769,-0.00809825,-1.48786,0.0348656,0.0290657,1308,358,5.17697,42.1648
91,666,5.13208,-42.2199,-0.00924216,0.0510277,-0.00422069,0.0513219,-0.0095363,-1.50122,0.0377965,0.025909,1315,358,5.13213,42.2199
98,666,4.96387,-42.1339,-0.0108936,0.0538621,-0.0037987,0.0540841,-0.0111156,-1.5124,0.0402759,0.0218231,1322,358,4.96385,42.1339
105,666,4.85303,-41.9889,-0.0122668,0.0563713,-0.00333973,0.0565334,-0.0124289,-1.52229,0.0424429,0.0260665,1329,358,4.85301,41.9889
112,666,4.82361,-41.8729,0,0,0,0,0,0,0,-1,1336,358,4.82361,41.8729
119,666,4.78186,-41.7061,0,0,0,0,0,0,0,-1,1343,358,4.78182,41.7061
126,666,4.62219,-41.3131,-0.01337,0.0623211,-0.00119174,0.0623398,-0.0133887,-1.55506,0.0466675,0.0332338,1350,358,4.62214,41.3131
133,666,4.61548,-41.1964,-0.0140584,0.0628634,6.21926e-05,0.0628635,-0.0140585,1.56999,0.0472968,0.0313857,1357,358,4.61549,41.1964
140,666,4.54578,-41.2187,-0.0141816,0.0570379,-0.00117129,0.0570572,-0.0142008,-1.55436,0.0435505,0.0295321,1364,358,4.54581,41.2187
147,666,4.44238,-41.0437,-0.0115457,0.055843,0.000498692,0.0558467,-0.0115494,1.5634,0.0416186,0.0264226,1371,358,4.4424,41.0437
154,666,4.45154,-40.6164,-0.00827375,0.0542097,0.00343915,0.0543984,-0.00846248,1.51598,0.0393906,0.0234184,1378,358,4.45152,40.6164
161,666,4.47107,-40.37,-0.00666626,0.0529046,0.00578262,0.0534607,-0.00722239,1.47492,0.0382757,0.031484,1385,358,4.4711,40.37
168,666,4.47498,-40.1051,0,0,0,0,0,0,0,-1,1392,358,4.47499,40.1051
175,666,4.51685,-40.3212,0,0,0,0,0,0,0,-1,1399,358,4.51687,40.3212
182,666,2.60876,-5.17068,0,0,0,0,0,0,0,-1,1406,358,2.6088,5.17068
189,666,2.46973,-5.49979,0,0,0,0,0,0,0,-1,1413,358,2.46975,5.49979
196,666,2.32458,-5.23651,0,0,0,0,0,0,0,-1,1420,358,2.32461,5.23653
203,666,2.28064,-3.88004,0,0,0,0,0,0,0,-1,1427,358,2.28059,3.88003
210,666,3.02576,-5.83548,0,0,0,0,0,0,0,-1,1434,358,3.02581,5.83547
217,666,2.30444,-5.36011,0,0,0,0,0,0,0,-1,1441,358,2.30447,5.3601
224,666,1.82324,-6.03101,0,0,0,0,0,0,0,-1,1448,358,1.82322,6.031
231,666,2.29797,-10.1093,0,0,0,0,0,0,0,-1,1455,358,2.29801,10.1093
238,666,2.52429,-6.10568,0,0,0,0,0,0,0,-1,1462,358,2.52423,6.10567
245,666,4.53345,-1.38205,0,0,0,0,0,0,0,-1,1469,358,4.53349,1.38204
252,666,4.77405,-0.246979,0,0,0,0,0,0,0,-1,1476,358,4.77405,0.246993
259,666,4.83655,1.14087,0,0,0,0,0,0,0,-1,1483,358,4.83652,-1.14087
266,666,6.14148,0.749512,0,0,0,0,0,0,0,-1,1490,358,6.14144,-0.749519
273,666,3.17737,-33.7881,0,0,0,0,0,0,0,-1,1497,358,3.17735,33.7881
280,666,-8.74878,-17.2596,0,0,0,0,0,0,0,-1,1504,358,-8.74875,17.2596
287,666,-7.06934,-20.3464,0,0,0,0,0,0,0,-1,1511,358,-7.06933,20.3464
294,666,-5.74683,-22.5017,0,0,0,0,0,0,0,-1,1518,358,-5.74685,22.5017
301,666,-6.6886,-23.5144,0,0,0,0,0,0,0,-1,1525,358,-6.68864,23.5144
308,666,-7.45471,-24.766,0,0,0,0,0,0,0,-1,1532,358,-7.45475,24.766
315,666,1.76294,-0.284027,0,0,0,0,0,0,0,-1,1539,358,1.76291,0.284016
322,666,0,0,0,0,0,0,0,0,0,-1,1546,358,0,0
329,666,0,0,0,0,0,0,0,0,0,-1,1553,358,0,0
336,666,0,0,0,0,0,0,0,0,0,-1,1560,358,0,0
343,666,0,0,0,0,0,0,0,0,0,-1,1567,358,0,0
350,666,0,0,0,0,0,0,0,0,0,-1,1574,358,0,0
357,666,0,0,0,0,0,0,0,0,0,-1,1581,358,0,0
364,666,0,0,0,0,0,0,0,0,0,-1,1588,358,0,0
371,666,0,0,0,0,0,0,0,0,0,-1,1595,358,0,0
378,666,0,0,0,0,0,0,0,0,0,-1,1602,358,0,0
385,666,0,0,0,0,0,0,0,0,0,-1,1609,358,0,0
392,666,0,0,0,0,0,0,0,0,0,-1,1616,358,0,0
399,666,0,0,0,0,0,0,0,0,0,-1,1623,358,0,0
406,666,0,0,0,0,0,0,0,0,0,-1,1630,358,0,0
413,666,0,0,0,0,0,0,0,0,0,-1,1637,358,0,0
420,666,0,0,0,0,0,0,0,0,0,-1,1644,358,0,0
427,666,0,0,0,0,0,0,0,0,0,-1,1651,358,0,0
434,666,0,0,0,0,0,0,0,0,0,-1,1658,358,0,0
441,666,0,0,0,0,0,0,0,0,0,-1,1665,358,0,0
448,666,0,0,0,0,0,0,0,0,0,-1,1672,358,0,0
455,666,0,0,0,0,0,0,0,0,0,-1,1679,358,0,0
462,666,0,0,0,0,0,0,0,0,0,-1,1686,358,0,0
469,666,0,0,0,0,0,0,0,0,0,-1,1693,358,0,0
476,666,0,0,0,0,0,0,0,0,0,-1,1700,358,0,0
483,666,0,0,0,0,0,0,0,0,0,-1,1707,358,0,0
490,666,0,0,0,0,0,0,0,0,0,-1,1714,358,0,0
497,666,0,0,0,0,0,0,0,0,0,-1,1721,358,0,0
504,666,0,0,0,0,0,0,0,0,0,-1,1728,358,0,0
511,666,0,0,0,0,0,0,0,0,0,-1,1735,358,0,0
518,666,0,0,0,0,0,0,0,0,0,-1,1742,358,0,0
525,666,0,0,0,0,0,0,0,0,0,-1,1749,358,0,0
532,666,0,0,0,0,0,0,0,0,0,-1,1756,358,0,0
539,666,0,0,0,0,0,0,0,0,0,-1,1763,358,0,0
546,666,0,0,0,0,0,0,0,0,0,-1,1770,358,0,0
553,666,0,0,0,0,0,0,0,0,0,-1,1777,358,0,0
560,666,0,0,0,0,0,0,0,0,0,-1,1784,358,0,0
567,666,0,0,0,0,0,0,0,0,0,-1,1791,358,0,0
574,666,0,0,0,0,0,0,0,0,0,-1,1798,358,0,0
581,666,0,0,0,0,0,0,0,0,0,-1,1805,358,0,0
588,666,0,0,0,0,0,0,0,0,0,-1,1812,358,0,0
595,666,0,0,0,0,0,0,0,0,0,-1,1819,358,0,0
602,666,0,0,0,0,0,0,0,0,0,-1,1826,358,0,0
609,666,0,0,0,0,0,0,0,0,0,-1,1833,358,0,0
616,666,0,0,0,0,0,0,0,0,0,-1,1840,358,0,0
623,666,0,0,0,0,0,0,0,0,0,-1,1847,358,0,0
630,666,0,0,0,0,0,0,0,0,0,-1,1854,358,0,0
637,666,0,0,0,0,0,0,0,0,0,-1,1861,358,0,0
644,666,0,0,0,0,0,0,0,0,0,-1,1868,358,0,0
651,666,0,0,0,0,0,0,0,0,0,-1,1875,358,0,0
658,666,0,0,0,0,0,0,0,0,0,-1,1882,358,0,0
665,666,0,0,0,0,0,0,0,0,0,-1,1889,358,0,0
672,666,0,0,0,0,0,0,0,0,0,-1,1896,358,0,0
679,666,0,0,0,0,0,0,0,0,0,-1,1903,358,0,0
686,666,0,0,0,0,0,0,0,0,0,-1,1910,358,0,0
693,666,0,0,0,0,0,0,0,0,0,-1,1917,358,0,0
700,666,0,0,0,0,0,0,0,0,0,-1,1924,358,0,0
707,666,0,0,0,0,0,0,0,0,0,-1,1931,358,0,0
714,666,0,0,0,0,0,0,0,0,0,-1,1938,358,0,0
721,666,0,0,0,0,0,0,0,0,0,-1,1945,358,0,0
728,666,0,0,0,0,0,0,0,0,0,-1,1952,358,0,0
735,666,0,0,0,0,0,0,0,0,0,-1,1959,358,0,0
742,666,0,0,0,0,0,0,0,0,0,-1,1966,358,0,0
749,666,0,0,0,0,0,0,0,0,0,-1,1973,358,0,0
756,666,0,0,0,0,0,0,0,0,0,-1,1980,358,0,0
763,666,0,0,0,0,0,0,0,0,0,-1,1987,358,0,0
770,666,0,0,0,0,0,0,0,0,0,-1,1994,358,0,0
777,666,0,0,0,0,0,0,0,0,0,-1,2001,358,0,0
784,666,0,0,0,0,0,0,0,0,0,-1,2008,358,0,0
791,666,0,0,0,0,0,0,0,0,0,-1,2015,358,0,0
798,666,0,0,0,0,0,0,0,0,0,-1,2022,358,0,0
805,666,0,0,0,0,0,0,0,0,0,-1,2029,358,0,0
812,666,0,0,0,0,0,0,0,0,0,-1,2036,358,0,0
-700,659,0,0,0,0,0,0,0,0,0,-1,524,365,0,0
-693,659,0,0,0,0,0,0,0,0,0,-1,531,365,0,0
-686,659,0,0,0,0,0,0,0,0,0,-1,538,365,0,0
-679,659,0,0,0,0,0,0,0,0,0,-1,545,365,0,0
-672,659,0,0,0,0,0,0,0,0,0,-1,552,365,0,0
-665,659,0,0,0,0,0,0,0,0,0,-1,559,365,0,0
-658,659,0,0,0,0,0,0,0,0,0,-1,566,365,0,0
-651,659,0,0,0,0,0,0,0,0,0,-1,573,365,0,0
-644,659,0,0,0,0,0,0,0,0,0,-1,580,365,0,0
-637,659,0,0,0,0,0,0,0,0,0,-1,587,365,0,0
-630,659,0,0,0,0,0,0,0,0,0,-1,594,365,0,0
-623,659,0,0,0,0,0,0,0,0,0,-1,601,365,0,0
-616,659,0,0,0,0,0,0,0,0,0,-1,608,365,0,0
-609,659,0,0,0,0,0,0,0,0,0,-1,615,365,0,0
-602,659,0,0,0,0,0,0,0,0,0,-1,622,365,0,0
-595,659,0,0,0,0,0,0,0,0,0,-1,629,365,0,0
-588,659,0,0,0,0,0,0,0,0,0,-1,636,365,0,0
-581,659,0,0,0,0,0,0,0,0,0,-1,643,365,0,0
-574,659,0,0,0,0,0,0,0,0,0,-1,650,365,0,0
-567,659,0,0,0,0,0,0,0,0,0,-1,657,365,0,0
-560,659,0,0,0,0,0,0,0,0,0,-1,664,365,0,0
-553,659,0,0,0,0,0,0,0,0,0,-1,671,365,0,0
-546,659,0,0,0,0,0,0,0,0,0,-1,678,365,0,0
-539,659,0,0,0,0,0,0,0,0,0,-1,685,365,0,0
-532,659,0,0,0,0,0,0,0,0,0,-1,692,365,0,0
-525,659,0,0,0,0,0,0,0,0,0,-1,699,365,0,0
-518,659,0,0,0,0,0,0,0,0,0,-1,706,365,0,0
-511,659,0,0,0,0,0,0,0,0,0,-1,713,365,0,0
-504,659,0,0,0,0,0,0,0,0,0,-1,720,365,0,0
-497,659,0,0,0,0,0,0,0,0,0,-1,727,365,0,0
-490,659,0,0,0,0,0,0,0,0,0,-1,734,365,0,0
-483,659,0,0,0,0,0,0,0,0,0,-1,741,365,0,0
-476,659,0,0,0,0,0,0,0,0,0,-1,748,365,0,0
-469,659,0,0,0,0,0,0,0,0,0,-1,755,365,0,0
-462,659,0,0,0,0,0,0,0,0,0,-1,762,365,0,0
-455,659,0,0,0,0,0,0,0,0,0,-1,769,365,0,0
-448,659,0,0,0,0,0,0,0,0,0,-1,776,365,0,0
-441,659,0,0,0,0,0,0,0,0,0,-1,783,365,0,0
-434,659,0,0,0,0,0,0,0,0,0,-1,790,365,0,0
-427,659,0,0,0,0,0,0,0,0,0,-1,797,365,0,0
-420,659,0,0,0,0,0,0,0,0,0,-1,804,365,0,0
-413,659,0,0,0,0,0,0,0,0,0,-1,811,365,0,0
-406,659,0,0,0,0,0,0,0,0,0,-1,818,365,0,0
-399,659,0,0,0,0,0,0,0,0,0,-1,825,365,0,0
-392,659,0,0,0,0,0,0,0,0,0,-1,832,365,0,0
-385,659,0,0,0,0,0,0,0,0,0,-1,839,365,0,0
-378,659,0,0,0,0,0,0,0,0,0,-1,846,365,0,0
-371,659,0,0,0,0,0,0,0,0,0,-1,853,365,0,0
-364,659,0,0,0,0,0,0,0,0,0,-1,860,365,0,0
-357,659,0,0,0,0,0,0,0,0,0,-1,867,365,0,0
-350,659,0,0,0,0,0,0,0,0,0,-1,874,365,0,0
-343,659,0,0,0,0,0,0,0,0,0,-1,881,365,0,0
-336,659,0,0,0,0,0,0,0,0,0,-1,888,365,0,0
-329,659,0,0,0,0,0,0,0,0,0,-1,895,365,0,0
-322,659,0,0,0,0,0,0,0,0,0,-1,902,365,0,0
-315,659,0,0,0,0,0,0,0,0,0,-1,909,365,0,0
-308,659,0,0,0,0,0,0,0,0,0,-1,916,365,0,0
-301,659,0,0,0,0,0,0,0,0,0,-1,923,365,0,0
-294,659,0,0,0,0,0,0,0,0,0,-1,930,365,0,0
-287,659,0,0,0,0,0,0,0,0,0,-1,937,365,0,0
-280,659,0,0,0,0,0,0,0,0,0,-1,944,365,0,0
-273,659,0,0,0,0,0,0,0,0,0,-1,951,365,0,0
-266,659,0,0,0,0,0,0,0,0,0,-1,958,365,0,0
-259,659,0,0,0,0,0,0,0,0,0,-1,965,365,0,0
-252,659,0,0,0,0,0,0,0,0,0,-1,972,365,0,0
-245,659,0,0,0,0,0,0,0,0,0,-1,979,365,0,0
-238,659,0,0,0,0,0,0,0,0,0,-1,986,365,0,0
-231,659,0,0,0,0,0,0,0,0,0,-1,993,365,0,0
-224,659,0,0,0,0,0,0,0,0,0,-1,1000,365,0,0
-217,659,10.1305,-25.2622,0,0,0,0,0,0,0,-1,1007,365,10.1305,25.2622
-210,659,9.65643,-25.515,0,0,0,0,0,0,0,-1,1014,365,9.65642,25.515
-203,659,8.58911,-25.7432,0,0,0,0,0,0,0,-1,1021,365,8.58916,25.7432
-196,659,2.68323,-27.8121,0,0,0,0,0,0,0,-1,1028,365,2.6832,27.8121
-189,659,6.88049,-28.9412,0,0,0,0,0,0,0,-1,1035,365,6.88045,28.9412
-182,659,6.94189,-30.6316,0,0,0,0,0,0,0,-1,1042,365,6.94189,30.6316
-175,659,6.948,-32.0092,0,0,0,0,0,0,0,-1,1049,365,6.94798,32.0093
-168,659,7.1416,-32.7405,0,0,0,0,0,0,0,-1,1056,365,7.14157,32.7405
-161,659,7.57361,-33.7099,0,0,0,0,0,0,0,-1,1063,365,7.57355,33.7099
-154,659,7.71448,-34.8995,0,0,0,0,0,0,0,-1,1070,365,7.7145,34.8995
-147,659,7.4491,-35.1653,0,0,0,0,0,0,0,-1,1077,365,7.44909,35.1653
-140,659,7.25598,-34.575,0,0,0,0,0,0,0,-1,1084,365,7.256,34.5749
-133,659,6.36145,-34.6414,0,0,0,0,0,0,0,-1,1091,365,6.3614,34.6414
-126,659,6.49487,-35.682,0,0,0,0,0,0,0,-1,1098,365,6.49493,35.682
-119,659,6.56091,-35.7425,0,0,0,0,0,0,0,-1,1105,365,6.56091,35.7425
-112,659,6.24353,-35.0562,0,0,0,0,0,0,0,-1,1112,365,6.24349,35.0562
-105,659,5.38696,-30.5854,0,0,0,0,0,0,0,-1,1119,365,5.387,30.5854
-98,659,4.68042,-26.2438,0,0,0,0,0,0,0,-1,1126,365,4.68041,26.2438
-91,659,4.20776,-20.8654,0,0,0,0,0,0,0,-1,1133,365,4.20777,20.8654
-84,659,2.8584,-17.8303,0,0,0,0,0,0,0,-1,1140,365,2.85836,17.8303
-77,659,2.80139,-15.3457,0,0,0,0,0,0,0,-1,1147,365,2.80139,15.3457
-70,659,2.9353,-12.7028,0,0,0,0,0,0,0,-1,1154,365,2.93533,12.7028
-63,659,2.11267,-9.7796,0,0,0,0,0,0,0,-1,1161,365,2.11266,9.7796
-56,659,2.11182,-9.91541,0,0,0,0,0,0,0,-1,1168,365,2.11178,9.91541
-49,659,5.96741,-40.6072,0,0,0,0,0,0,0,-1,1175,365,5.96747,40.6072
-42,659,5.94482,-40.8257,0,0,0,0,0,0,0,-1,1182,365,5.94488,40.8257
-35,659,5.8667,-41.0817,-0.00555951,0.0015709,-0.00298006,0.00265235,-0.00664097,-1.22268,0.00552777,0.0428547,1189,365,5.86669,41.0817
-28,659,5.87036,-41.2136,-0.00622247,0.00117558,-0.00323916,0.00239335,-0.00744025,-1.21119,0.00592143,0.0171569,1196,365,5.87041,41.2136
-21,659,5.82532,-41.4142,-0.00684631,0.00127391,-0.00354035,0.00260069,-0.00817309,-1.21224,0.00649166,0.0133489,1203,365,5.82534,41.4142
-14,659,5.74219,-41.6106,-0.00742706,0.00199131,-0.003904,0.00339912,-0.00883487,-1.2247,0.007292,0.0113085,1210,365,5.74219,41.6106
-7,659,5.6842,-41.7611,-0.0077674,0.00288788,-0.00427902,0.00439352,-0.00927304,-1.23246,0.00805629,0.0111365,1217,365,5.68417,41.7611
0,659,5.6571,-41.8828,-0.00786201,0.00396076,-0.00462309,0.00555387,-0.00945512,-1.23894,0.00876248,0.00958546,1224,365,5.65716,41.8828
7,659,5.62024,-41.9842,-0.00778424,0.00537881,-0.00498639,0.00705443,-0.00945987,-1.24661,0.00956819,0.00939571,1231,365,5.62027,41.9842
14,659,5.55957,-42.0661,-0.00751139,0.00681482,-0.00536203,0.00859942,-0.00929599,-1.24951,0.0103345,0.0112798,1238,365,5.55963,42.0661
21,659,5.51184,-42.1578,-0.0071633,0.00839992,-0.00577969,0.0103115,-0.0090749,-1.25138,0.0112003,0.0120721,1245,365,5.51189,42.1578
28,659,5.45837,-42.2391,-0.00618892,0.01013,-0.0061869,0.0122104,-0.00826931,-1.24642,0.0118967,0.011707,1252,365,5.45833,42.2391
35,659,5.44092,-42.2911,-0.00496585,0.013652,-0.00570661,0.0152619,-0.00657578,-1.29583,0.0129362,0.0124097,1259,365,5.44087,42.2911
42,659,5.42151,-42.3534,-0.00439451,0.0165211,-0.00538367,0.0178255,-0.00569892,-1.33309,0.0141706,0.0137124,1266,365,5.42154,42.3534
49,659,5.34753,-42.4058,-0.00410364,0.0205613,-0.00503418,0.0215492,-0.00509156,-1.37702,0.0163301,0.013961,1273,365,5.34752,42.4058
56,659,5.25232,-42.4057,-0.00378014,0.0235243,-0.00476343,0.0243314,-0.00458729,-1.40294,0.0179466,0.0167714,1280,365,5.2523,42.4057
63,659,5.25439,-42.4218,-0.0036537,0.0267793,-0.0043974,0.0274019,-0.00427636,-1.43013,0.0198476,0.0161009,1287,365,5.25437,42.4219
70,659,5.20801,-42.4288,-0.00387867,0.0299112,-0.00392936,0.0303621,-0.00432959,-1.45654,0.0218282,0.0171716,1294,365,5.20803,42.4288
77,659,5.12622,-42.4107,-0.00452845,0.0337244,-0.00332456,0.0340112,-0.00481524,-1.48475,0.0244379,0.0184659,1301,365,5.12628,42.4107
84,659,5.12195,-42.3922,-0.00547769,0.0371134,-0.00301238,0.0373254,-0.00568969,-1.50053,0.0269809,0.0135067,1308,365,5.12191,42.3922
91,659,5.08594,-42.3351,-0.00660621,0.0395689,-0.00272855,0.0397296,-0.00676688,-1.51198,0.0290063,0.0110698,1315,365,5.08595,42.3352
98,659,5.02197,-42.2198,-0.00784759,0.0414093,-0.00238425,0.0415244,-0.00796273,-1.52254,0.0306836,0.0080467,1322,365,5.02203,42.2198
105,659,4.9812,-42.1136,-0.00888156,0.0430224,-0.00201168,0.0431002,-0.00895941,-1.53212,0.0321389,0.0101877,1329,365,4.98114,42.1136
112,659,4.93884,-42.0003,-0.00955003,0.0443316,-0.00170994,0.0443858,-0.00960424,-1.5391,0.0332575,0.0146159,1336,365,4.93882,42.0003
119,659,4.87769,-41.8708,-0.00988154,0.0453532,-0.00123599,0.0453808,-0.00990918,-1.54843,0.0340411,0.0164443,1343,365,4.87771,41.8708
126,659,4.81763,-41.6821,-0.00968522,0.0457657,-0.000500302,0.0457703,-0.00968973,-1.56177,0.034204,0.0149609,1350,365,4.8176,41.6821
133,659,4.76672,-41.5077,-0.00991763,0.0458041,0.000440448,0.0458075,-0.00992111,1.56289,0.0343267,0.013677,1357,365,4.76677,41.5077
140,659,4.71631,-41.4073,-0.00972554,0.0420379,-1.38718e-05,0.0420379,-0.00972554,-1.57053,0.0317673,0.011304,1364,365,4.71627,41.4073
147,659,4.67456,-41.2369,-0.0080032,0.04104,0.00122155,0.0410704,-0.00803361,1.54591,0.0304139,0.0105293,1371,365,4.67457,41.2369
154,659,4.61426,-41.0044,-0.00605051,0.0397129,0.00314893,0.0399286,-0.00626617,1.50242,0.0289348,0.0118081,1378,365,4.61431,41.0044
161,659,4.5929,-40.7748,-0.00509673,0.0386741,0.00473103,0.0391796,-0.00560225,1.46435,0.0281735,0.0131405,1385,365,4.59295,40.7748
168,659,4.58606,-40.5177,-0.00473775,0.036043,0.00553755,0.0367815,-0.00547631,1.43821,0.0265355,0.0195479,1392,365,4.58606,40.5177
175,659,4.55078,-40.291,-0.00477173,0.0334754,0.00598321,0.0343895,-0.00568586,1.41919,0.0250378,0.041956,1399,365,4.55075,40.291
182,659,4.40259,-40.1517,0,0,0,0,0,0,0,-1,1406,365,4.40258,40.1517
189,659,4.4635,-39.6879,0,0,0,0,0,0,0,-1,1413,365,4.46346,39.6879
196,659,2.41248,-13.4371,0,0,0,0,0,0,0,-1,1420,365,2.41243,13.4371
203,659,2.38623,-12.2163,0,0,0,0,0,0,0,-1,1427,365,2.38617,12.2163
210,659,2.20789,-13.9792,0,0,0,0,0,0,0,-1,1434,365,2.20794,13.9792
217,659,2.24121,-13.487,0,0,0,0,0,0,0,-1,1441,365,2.24116,13.487
224,659,2.3479,-15.2926,0,0,0,0,0,0,0,-1,1448,365,2.34793,15.2926
231,659,2.47974,-17.8629,0,0,0,0,0,0,0,-1,1455,365,2.47976,17.8628
238,659,3.57886,-21.1258,0,0,0,0,0,0,0,-1,1462,365,3.57889,21.1258
245,659,3.29883,-25.0283,0,0,0,0,0,0,0,-1,1469,365,3.29889,25.0283
252,659,2.81909,-24.1604,0,0,0,0,0,0,0,-1,1476,365,2.81905,24.1604
259,659,2.33069,-3.36703,0,0,0,0,0,0,0,-1,1483,365,2.33073,3.36702
266,659,3.40918,-35.2544,0,0,0,0,0,0,0,-1,1490,365,3.40913,35.2544
273,659,3.56543,-35.3557,0,0,0,0,0,0,0,-1,1497,365,3.56547,35.3557
280,659,3.6676,-33.6738,0,0,0,0,0,0,0,-1,1504,365,3.66757,33.6738
287,659,3.37708,-36.2786,0,0,0,0,0,0,0,-1,1511,365,3.37708,36.2786
294,659,3.56787,-37.8655,0,0,0,0,0,0,0,-1,1518,365,3.56782,37.8655
301,659,-4.51111,-22.7441,0,0,0,0,0,0,0,-1,1525,365,-4.51114,22.7441
308,659,-5.40295,-24.1075,0,0,0,0,0,0,0,-1,1532,365,-5.4029,24.1075
315,659,-6.55835,-24.4516,0,0,0,0,0,0,0,-1,1539,365,-6.55841,24.4516
322,659,-7.44983,-23.6558,0,0,0,0,0,0,0,-1,1546,365,-7.44988,23.6558
329,659,-7.67749,-23.0449,0,0,0,0,0,0,0,-1,1553,365,-7.67745,23.0449
336,659,-7.71436,-22.4188,0,0,0,0,0,0,0,-1,1560,365,-7.71432,22.4188
343,659,0,0,0,0,0,0,0,0,0,-1,1567,365,0,0
350,659,0,0,0,0,0,0,0,0,0,-1,1574,365,0,0
357,659,0,0,0,0,0,0,0,0,0,-1,1581,365,0,0
364,659,0,0,0,0,0,0,0,0,0,-1,1588,365,0,0
371,659,0,0,0,0,0,0,0,0,0,-1,1595,365,0,0
378,659,0,0,0,0,0,0,0,0,0,-1,1602,365,0,0
385,659,0,0,0,0,0,0,0,0,0,-1,1609,365,0,0
392,659,0,0,0,0,0,0,0,0,0,-1,1616,365,0,0
399,659,0,0,0,0,0,0,0,0,0,-1,1623,365,0,0
406,659,0,0,0,0,0,0,0,0,0,-1,1630,365,0,0
413,659,0,0,0,0,0,0,0,0,0,-1,1637,365,0,0
420,659,0,0,0,0,0,0,0,0,0,-1,1644,365,0,0
427,659,0,0,0,0,0,0,0,0,0,-1,1651,365,0,0
434,659,0,0,0,0,0,0,0,0,0,-1,1658,365,0,0
441,659,0,0,0,0,0,0,0,0,0,-1,1665,365,0,0
448,659,0,0,0,0,0,0,0,0,0,-1,1672,365,0,0
455,659,0,0,0,0,0,0,0,0,0,-1,1679,365,0,0
462,659,0,0,0,0,0,0,0,0,0,-1,1686,365,0,0
469,659,0,0,0,0,0,0,0,0,0,-1,1693,365,0,0
476,659,0,0,0,0,0,0,0,0,0,-1,1700,365,0,0
483,659,0,0,0,0,0,0,0,0,0,-1,1707,365,0,0
490,659,0,0,0,0,0,0,0,0,0,-1,1714,365,0,0
497,659,0,0,0,0,0,0,0,0,0,-1,1721,365,0,0
504,659,0,0,0,0,0,0,0,0,0,-1,1728,365,0,0
511,659,0,0,0,0,0,0,0,0,0,-1,1735,365,0,0
518,659,0,0,0,0,0,0,0,0,0,-1,1742,365,0,0
525,659,0,0,0,0,0,0,0,0,0,-1,1749,365,0,0
532,659,0,0,0,0,0,0,0,0,0,-1,1756,365,0,0
539,659,0,0,0,0,0,0,0,0,0,-1,1763,365,0,0
546,659,0,0,0,0,0,0,0,0,0,-1,1770,365,0,0
553,659,0,0,0,0,0,0,0,0,0,-1,1777,365,0,0
560,659,0,0,0,0,0,0,0,0,0,-1,1784,365,0,0
567,659,0,0,0,0,0,0,0,0,0,-1,1791,365,0,0
574,659,0,0,0,0,0,0,0,0,0,-1,1798,365,0,0
581,659,0,0,0,0,0,0,0,0,0,-1,1805,365,0,0
588,659,0,0,0,0,0,0,0,0,0,-1,1812,365,0,0
595,659,0,0,0,0,0,0,0,0,0,-1,1819,365,0,0
602,659,0,0,0,0,0,0,0,0,0,-1,1826,365,0,0
609,659,0,0,0,0,0,0,0,0,0,-1,1833,365,0,0
616,659,0,0,0,0,0,0,0,0,0,-1,1840,365,0,0
623,659,0,0,0,0,0,0,0,0,0,-1,1847,365,0,0
630,659,0,0,0,0,0,0,0,0,0,-1,1854,365,0,0
637,659,0,0,0,0,0,0,0,0,0,-1,1861,365,0,0
644,659,0,0,0,0,0,0,0,0,0,-1,1868,365,0,0
651,659,0,0,0,0,0,0,0,0,0,-1,1875,365,0,0
658,659,0,0,0,0,0,0,0,0,0,-1,1882,365,0,0
665,659,0,0,0,0,0,0,0,0,0,-1,1889,365,0,0
672,659,0,0,0,0,0,0,0,0,0,-1,1896,365,0,0
679,659,0,0,0,0,0,0,0,0,0,-1,1903,365,0,0
686,659,0,0,0,0,0,0,0,0,0,-1,1910,365,0,0
693,659,0,0,0,0,0,0,0,0,0,-1,1917,365,0,0
700,659,0,0,0,0,0,0,0,0,0,-1,1924,365,0,0
707,659,0,0,0,0,0,0,0,0,0,-1,1931,365,0,0
714,659,0,0,0,0,0,0,0,0,0,-1,1938,365,0,0
721,659,0,0,0,0,0,0,0,0,0,-1,1945,365,0,0
728,659,0,0,0,0,0,0,0,0,0,-1,1952,365,0,0
735,659,0,0,0,0,0,0,0,0,0,-1,1959,365,0,0
742,659,0,0,0,0,0,0,0,0,0,-1,1966,365,0,0
749,659,0,0,0,0,0,0,0,0,0,-1,1973,365,0,0
756,659,0,0,0,0,0,0,0,0,0,-1,1980,365,0,0
763,659,0,0,0,0,0,0,0,0,0,-1,1987,365,0,0
770,659,0,0,0,0,0,0,0,0,0,-1,1994,365,0,0
777,659,0,0,0,0,0,0,0,0,0,-1,2001,365,0,0
784,659,0,0,0,0,0,0,0,0,0,-1,2008,365,0,0
791,659,0,0,0,0,0,0,0,0,0,-1,2015,365,0,0
798,659,0,0,0,0,0,0,0,0,0,-1,2022,365,0,0
805,659,0,0,0,0,0,0,0,0,0,-1,2029,365,0,0
812,659,0,0,0,0,0,0,0,0,0,-1,2036,365,0,0
-700,652,0,0,0,0,0,0,0,0,0,-1,524,372,0,0
-693,652,0,0,0,0,0,0,0,0,0,-1,531,372,0,0
-686,652,0,0,0,0,0,0,0,0,0,-1,538,372,0,0
-679,652,0,0,0,0,0,0,0,0,0,-1,545,372,0,0
-672,652,0,0,0,0,0,0,0,0,0,-1,552,372,0,0
-665,652,0,0,0,0,0,0,0,0,0,-1,559,372,0,0
-658,652,0,0,0,0,0,0,0,0,0,-1,566,372,0,0
-651,652,0,0,0,0,0,0,0,0,0,-1,573,372,0,0
-644,652,0,0,0,0,0,0,0,0,0,-1,580,372,0,0
-637,652,0,0,0,0,0,0,0,0,0,-1,587,372,0,0
-630,652,0,0,0,0,0,0,0,0,0,-1,594,372,0,0
-623,652,0,0,0,0,0,0,0,0,0,-1,601,372,0,0
-616,652,0,0,0,0,0,0,0,0,0,-1,608,372,0,0
-609,652,0,0,0,0,0,0,0,0,0,-1,615,372,0,0
-602,652,0,0,0,0,0,0,0,0,0,-1,622,372,0,0
-595,652,0,0,0,0,0,0,0,0,0,-1,629,372,0,0
-588,652,0,0,0,0,0,0,0,0,0,-1,636,372,0,0
-581,652,0,0,0,0,0,0,0,0,0,-1,643,372,0,0
-574,652,0,0,0,0,0,0,0,0,0,-1,650,372,0,0
-567,652,0,0,0,0,0,0,0,0,0,-1,657,372,0,0
-560,652,0,0,0,0,0,0,0,0,0,-1,664,372,0,0
-553,652,0,0,0,0,0,0,0,0,0,-1,671,372,0,0
-546,652,0,0,0,0,0,0,0,0,0,-1,678,372,0,0
-539,652,0,0,0,0,0,0,0,0,0,-1,685,372,0,0
-532,652,0,0,0,0,0,0,0,0,0,-1,692,372,0,0
-525,652,0,0,0,0,0,0,0,0,0,-1,699,372,0,0
-518,652,0,0,0,0,0,0,0,0,0,-1,706,372,0,0
-511,652,0,0,0,0,0,0,0,0,0,-1,713,372,0,0
-504,652,0,0,0,0,0,0,0,0,0,-1,720,372,0,0
-497,652,0,0,0,0,0,0,0,0,0,-1,727,372,0,0
-490,652,0,0,0,0,0,0,0,0,0,-1,734,372,0,0
-483,652,0,0,0,0,0,0,0,0,0,-1,741,372,0,0
-476,652,0,0,0,0,0,0,0,0,0,-1,748,372,0,0
-469,652,0,0,0,0,0,0,0,0,0,-1,755,372,0,0
-462,652,0,0,0,0,0,0,0,0,0,-1,762,372,0,0
-455,652,0,0,0,0,0,0,0,0,0,-1,769,372,0,0
-448,652,0,0,0,0,0,0,0,0,0,-1,776,372,0,0
-441,652,0,0,0,0,0,0,0,0,0,-1,783,372,0,0
-434,652,0,0,0,0,0,0,0,0,0,-1,790,372,0,0
-427,652,0,0,0,0,0,0,0,0,0,-1,797,372,0,0
-420,652,0,0,0,0,0,0,0,0,0,-1,804,372,0,0
-413,652,0,0,0,0,0,0,0,0,0,-1,811,372,0,0
-406,652,0,0,0,0,0,0,0,0,0,-1,818,372,0,0
-399,652,0,0,0,0,0,0,0,0,0,-1,825,372,0,0
-392,652,0,0,0,0,0,0,0,0,0,-1,832,372,0,0
-385,652,0,0,0,0,0,0,0,0,0,-1,839,372,0,0
-378,652,0,0,0,0,0,0,0,0,0,-1,846,372,0,0
-371,652,0,0,0,0,0,0,0,0,0,-1,853,372,0,0
-364,652,0,0,0,0,0,0,0,0,0,-1,860,372,0,0
-357,652,0,0,0,0,0,0,0,0,0,-1,867,372,0,0
-350,652,0,0,0,0,0,0,0,0,0,-1,874,372,0,0
-343,652,0,0,0,0,0,0,0,0,0,-1,881,372,0,0
-336,652,0,0,0,0,0,0,0,0,0,-1,888,372,0,0
-329,652,0,0,0,0,0,0,0,0,0,-1,895,372,0,0
-322,652,0,0,0,0,0,0,0,0,0,-1,902,372,0,0
-315,652,0,0,0,0,0,0,0,0,0,-1,909,372,0,0
-308,652,0,0,0,0,0,0,0,0,0,-1,916,372,0,0
-301,652,0,0,0,0,0,0,0,0,0,-1,923,372,0,0
-294,652,0,0,0,0,0,0,0,0,0,-1,930,372,0,0
-287,652,0,0,0,0,0,0,0,0,0,-1,937,372,0,0
-280,652,0,0,0,0,0,0,0,0,0,-1,944,372,0,0
-273,652,0,0,0,0,0,0,0,0,0,-1,951,372,0,0
-266,652,0,0,0,0,0,0,0,0,0,-1,958,372,0,0
-259,652,0,0,0,0,0,0,0,0,0,-1,965,372,0,0
-252,652,0,0,0,0,0,0,0,0,0,-1,972,372,0,0
-245,652,0,0,0,0,0,0,0,0,0,-1,979,372,0,0
-238,652,0,0,0,0,0,0,0,0,0,-1,986,372,0,0
-231,652,8.79358,-27.1656,0,0,0,0,0,0,0,-1,993,372,8.79357,27.1656
-224,652,8.84552,-27.675,0,0,0,0,0,0,0,-1,1000,372,8.84555,27.675
-217,652,9.03113,-27.7474,0,0,0,0,0,0,0,-1,1007,372,9.0311,27.7474
-210,652,9.72803,-30.4624,0,0,0,0,0,0,0,-1,1014,372,9.72805,30.4624
-203,652,7.2677,-26.0732,0,0,0,0,0,0,0,-1,1021,372,7.26775,26.0732
-196,652,5.90686,-26.957,0,0,0,0,0,0,0,-1,1028,372,5.9068,26.957
-189,652,6.21326,-28.3035,0,0,0,0,0,0,0,-1,1035,372,6.21331,28.3035
-182,652,6.45068,-29.9377,0,0,0,0,0,0,0,-1,1042,372,6.45074,29.9377
-175,652,6.72559,-31.6948,0,0,0,0,0,0,0,-1,1049,372,6.72563,31.6948
-168,652,7.08533,-32.8669,0,0,0,0,0,0,0,-1,1056,372,7.08532,32.8669
-161,652,7.22534,-33.8635,0,0,0,0,0,0,0,-1,1063,372,7.22529,33.8635
-154,652,7.30481,-35.942,0,0,0,0,0,0,0,-1,1070,372,7.30481,35.9419
-147,652,6.9519,-35.8671,0,0,0,0,0,0,0,-1,1077,372,6.9519,35.8671
-140,652,5.6842,-33.9781,0,0,0,0,0,0,0,-1,1084,372,5.68421,33.9781
-133,652,6.3009,-35.2887,0,0,0,0,0,0,0,-1,1091,372,6.30093,35.2887
-126,652,6.1781,-36.6624,0,0,0,0,0,0,0,-1,1098,372,6.17811,36.6624
-119,652,6.29126,-37.131,0,0,0,0,0,0,0,-1,1105,372,6.29127,37.131
-112,652,6.18628,-37.6203,0,0,0,0,0,0,0,-1,1112,372,6.18623,37.6203
-105,652,6.16687,-37.849,0,0,0,0,0,0,0,-1,1119,372,6.16688,37.849
-98,652,5.84302,-35.2455,0,0,0,0,0,0,0,-1,1126,372,5.84307,35.2455
-91,652,5.66296,-32.9003,0,0,0,0,0,0,0,-1,1133,372,5.66297,32.9003
-84,652,5.46057,-34.9186,0,0,0,0,0,0,0,-1,1140,372,5.46057,34.9186
-77,652,5.97363,-39.4338,0,0,0,0,0,0,0,-1,1147,372,5.97363,39.4339
-70,652,5.94275,-39.8583,0,0,0,0,0,0,0,-1,1154,372,5.94277,39.8583
-63,652,5.93323,-40.0923,0,0,0,0,0,0,0,-1,1161,372,5.93327,40.0923
-56,652,5.84216,-40.3961,0,0,0,0,0,0,0,-1,1168,372,5.84216,40.3961
-49,652,5.81531,-40.6412,-0.00440744,0.00370678,-0.00265132,0.00449628,-0.00519694,-1.28138,0.00560126,0.038282,1175,372,5.81533,40.6412
-42,652,5.73511,-40.8063,-0.00424692,0.00456899,-0.00253457,0.00524573,-0.00492366,-1.30988,0.00587228,0.013211,1182,372,5.73506,40.8063
-35,652,5.71594,-41.021,-0.00436934,0.00532029,-0.00234231,0.00585679,-0.00490585,-1.34563,0.00622189,0.0107313,1189,372,5.71593,41.021
-28,652,5.67969,-41.2437,-0.00458422,0.00531633,-0.00257555,0.00594626,-0.00521415,-1.33092,0.00644808,0.00888677,1196,372,5.67964,41.2438
-21,652,5.62793,-41.4481,-0.0048246,0.00557598,-0.00283218,0.0062972,-0.00554582,-1.32145,0.00684216,0.00878077,1203,372,5.62794,41.4481
-14,652,5.60364,-41.619,-0.00510455,0.00593427,-0.00313575,0.00676283,-0.00593312,-1.31247,0.00733523,0.0102303,1210,372,5.60359,41.6191
-7,652,5.56018,-41.8019,-0.00520837,0.00629449,-0.00344934,0.00724954,-0.00616342,-1.30068,0.00775243,0.0126847,1217,372,5.56022,41.8019
0,652,5.51416,-41.9372,-0.00515185,0.00672665,-0.00372043,0.0077957,-0.0062209,-1.29099,0.0081095,0.0126685,1224,372,5.51419,41.9372
7,652,5.48889,-42.0105,-0.00498074,0.00737115,-0.00393773,0.00851968,-0.00612927,-1.287,0.00849503,0.0140292,1231,372,5.48885,42.0105
14,652,5.48132,-42.1093,-0.00469531,0.00806168,-0.00411488,0.0092738,-0.00590743,-1.28433,0.00883643,0.0119771,1238,372,5.48137,42.1093
21,652,5.42761,-42.2348,-0.00438041,0.00893192,-0.00428183,0.0101902,-0.0056387,-1.28498,0.00926391,0.0117407,1245,372,5.42763,42.2348
28,652,5.39404,-42.3211,-0.00363028,0.00999101,-0.0043805,0.0112781,-0.00491739,-1.28501,0.00958786,0.0109112,1252,372,5.39399,42.3211
35,652,5.37329,-42.3663,-0.002755,0.0122993,-0.00389609,0.0132479,-0.00370355,-1.33198,0.010291,0.0107233,1259,372,5.37331,42.3663
42,652,5.34802,-42.4235,-0.00228587,0.0141491,-0.00347489,0.0148537,-0.00299037,-1.37077,0.0110351,0.0120558,1266,372,5.34808,42.4235
49,652,5.32678,-42.4604,-0.00200958,0.0168169,-0.00304605,0.0172975,-0.00249015,-1.41432,0.012445,0.0144338,1273,372,5.32674,42.4604
56,652,5.27795,-42.4535,-0.00177187,0.018702,-0.00272304,0.019058,-0.00212785,-1.44081,0.0134707,0.0152976,1280,372,5.27793,42.4535
63,652,5.23535,-42.4662,-0.00161849,0.02064,-0.00229786,0.0208747,-0.00185324,-1.46899,0.0145736,0.0176414,1287,372,5.23529,42.4663
70,652,5.22205,-42.4635,-0.00170863,0.0224974,-0.00185699,0.022639,-0.00185026,-1.49467,0.0157457,0.0167021,1294,372,5.22203,42.4635
77,652,5.15479,-42.469,-0.00209813,0.0249656,-0.00135316,0.0250331,-0.00216562,-1.52096,0.0174554,0.0174885,1301,372,5.15481,42.469
84,652,5.17249,-42.4304,-0.00267831,0.0270774,-0.00112804,0.0271201,-0.00272101,-1.53296,0.019052,0.0147022,1308,372,5.17245,42.4304
91,652,5.12061,-42.3908,-0.00339441,0.0286351,-0.000950438,0.0286633,-0.00342259,-1.54116,0.0203459,0.016555,1315,372,5.12056,42.3908
98,652,5.09607,-42.2974,-0.00425838,0.029748,-0.000709988,0.0297628,-0.0042732,-1.54993,0.0214089,0.012618,1322,372,5.09602,42.2974
105,652,5.08423,-42.1783,-0.00500671,0.030742,-0.000470222,0.0307481,-0.00501289,-1.55765,0.0223578,0.0107659,1329,372,5.08422,42.1783
112,652,5.04346,-42.0694,-0.00553638,0.031457,-0.000350286,0.0314604,-0.0055397,-1.56133,0.0230432,0.0096011,1336,372,5.04346,42.0694
119,652,5.00159,-41.9379,-0.00583135,0.0318943,-0.000111466,0.0318946,-0.00583168,-1.56784,0.0234499,0.0107371,1343,372,5.00158,41.9379
126,652,4.94946,-41.774,-0.00577028,0.0319393,0.000300343,0.0319417,-0.00577268,1.56283,0.0234567,0.0128949,1350,372,4.94946,41.774
133,652,4.90955,-41.6103,-0.00596313,0.0317273,0.000839446,0.0317459,-0.00598181,1.54854,0.023414,0.0132725,1357,372,4.90956,41.6103
140,652,4.87451,-41.465,-0.00581844,0.0294978,0.000741945,0.0295134,-0.00583402,1.5498,0.021881,0.0103983,1364,372,4.87456,41.465
147,652,4.85474,-41.2825,-0.00493735,0.0289771,0.00157297,0.0290499,-0.00501015,1.52455,0.0212346,0.0104205,1371,372,4.85475,41.2825
154,652,4.82739,-41.0644,-0.00399345,0.0282179,0.00278094,0.0284563,-0.00423177,1.48531,0.0205273,0.0100999,1378,372,4.82744,41.0644
161,652,4.77844,-40.8271,-0.00350706,0.0275889,0.00386008,0.0280609,-0.00397906,1.44912,0.0201649,0.0106497,1385,372,4.77845,40.8271
168,652,4.74097,-40.5804,-0.00354576,0.0260355,0.00430884,0.0266503,-0.00416061,1.42906,0.0193038,0.0115329,1392,372,4.74099,40.5803
175,652,4.71179,-40.3259,-0.00367034,0.0243242,0.00470851,0.025095,-0.00444106,1.40855,0.01839,0.0124684,1399,372,4.71177,40.3259
182,652,4.67371,-40.0938,-0.00372291,0.0214755,0.00517503,0.0224969,-0.00474431,1.37593,0.0168041,0.0187747,1406,372,4.67373,40.0938
189,652,4.66968,-39.8126,-0.00375069,0.0184609,0.00571539,0.0198453,-0.00513507,1.33315,0.0152332,0.0311568,1413,372,4.66963,39.8126
196,652,4.64197,-39.5026,0,0,0,0,0,0,0,-1,1420,372,4.642,39.5026
203,652,4.54858,-39.1788,0,0,0,0,0,0,0,-1,1427,372,4.54852,39.1788
210,652,4.60339,-38.7646,0,0,0,0,0,0,0,-1,1434,372,4.60335,38.7646
217,652,4.51001,-38.5123,0,0,0,0,0,0,0,-1,1441,372,4.50996,38.5123
224,652,3.63794,-31.2791,0,0,0,0,0,0,0,-1,1448,372,3.63799,31.2791
231,652,3.83936,-30.4812,0,0,0,0,0,0,0,-1,1455,372,3.8393,30.4812
238,652,4.42358,-36.4103,0,0,0,0,0,0,0,-1,1462,372,4.4236,36.4103
245,652,4.18335,-37.0211,0,0,0,0,0,0,0,-1,1469,372,4.18336,37.0211
252,652,4.35913,-36.5045,0,0,0,0,0,0,0,-1,1476,372,4.35911,36.5045
259,652,3.44922,-31.2655,0,0,0,0,0,0,0,-1,1483,372,3.44921,31.2655
266,652,3.78015,-35.78,0,0,0,0,0,0,0,-1,1490,372,3.78012,35.78
273,652,4.00391,-35.2741,0,0,0,0,0,0,0,-1,1497,372,4.00386,35.2741
280,652,4.18481,-34.7651,0,0,0,0,0,0,0,-1,1504,372,4.18478,34.7651
287,652,3.64185,-35.5736,0,0,0,0,0,0,0,-1,1511,372,3.64186,35.5736
294,652,3.66516,-37.1052,0,0,0,0,0,0,0,-1,1518,372,3.66513,37.1052
301,652,3.79407,-38.8775,0,0,0,0,0,0,0,-1,1525,372,3.79405,38.8775
308,652,-3.18225,-22.5736,0,0,0,0,0,0,0,-1,1532,372,-3.1823,22.5736
315,652,-3.1134,-23.446,0,0,0,0,0,0,0,-1,1539,372,-3.11341,23.4459
322,652,-3.39624,-23.2068,0,0,0,0,0,0,0,-1,1546,372,-3.39618,23.2068
329,652,-3.54065,-22.8907,0,0,0,0,0,0,0,-1,1553,372,-3.54059,22.8907
336,652,-3.56519,-22.3688,0,0,0,0,0,0,0,-1,1560,372,-3.56517,22.3688
343,652,-3.58069,-21.9185,0,0,0,0,0,0,0,-1,1567,372,-3.58069,21.9185
350,652,5.28394,-25.6715,0,0,0,0,0,0,0,-1,1574,372,5.28393,25.6715
357,652,0,0,0,0,0,0,0,0,0,-1,1581,372,0,0
364,652,0,0,0,0,0,0,0,0,0,-1,1588,372,0,0
371,652,0,0,0,0,0,0,0,0,0,-1,1595,372,0,0
378,652,0,0,0,0,0,0,0,0,0,-1,1602,372,0,0
385,652,0,0,0,0,0,0,0,0,0,-1,1609,372,0,0
392,652,0,0,0,0,0,0,0,0,0,-1,1616,372,0,0
399,652,0,0,0,0,0,0,0,0,0,-1,1623,372,0,0
406,652,0,0,0,0,0,0,0,0,0,-1,1630,372,0,0
413,652,0,0,0,0,0,0,0,0,0,-1,1637,372,0,0
420,652,0,0,0,0,0,0,0,0,0,-1,1644,372,0,0
427,652,0,0,0,0,0,0,0,0,0,-1,1651,372,0,0
434,652,0,0,0,0,0,0,0,0,0,-1,1658,372,0,0
441,652,0,0,0,0,0,0,0,0,0,-1,1665,372,0,0
448,652,0,0,0,0,0,0,0,0,0,-1,1672,372,0,0
455,652,0,0,0,0,0,0,0,0,0,-1,1679,372,0,0
462,652,0,0,0,0,0,0,0,0,0,-1,1686,372,0,0
469,652,0,0,0,0,0,0,0,0,0,-1,1693,372,0,0
476,652,0,0,0,0,0,0,0,0,0,-1,1700,372,0,0
483,652,0,0,0,0,0,0,0,0,0,-1,1707,372,0,0
490,652,0,0,0,0,0,0,0,0,0,-1,1714,372,0,0
497,652,0,0,0,0,0,0,0,0,0,-1,1721,372,0,0
504,652,0,0,0,0,0,0,0,0,0,-1,1728,372,0,0
511,652,0,0,0,0,0,0,0,0,0,-1,1735,372,0,0
518,652,0,0,0,0,0,0,0,0,0,-1,1742,372,0,0
525,652,0,0,0,0,0,0,0,0,0,-1,1749,372,0,0
532,652,0,0,0,0,0,0,0,0,0,-1,1756,372,0,0
539,652,0,0,0,0,0,0,0,0,0,-1,1763,372,0,0
546,652,0,0,0,0,0,0,0,0,0,-1,1770,372,0,0
553,652,0,0,0,0,0,0,0,0,0,-1,1777,372,0,0
560,652,0,0,0,0,0,0,0,0,0,-1,1784,372,0,0
567,652,0,0,0,0,0,0,0,0,0,-1,1791,372,0,0
574,652,0,0,0,0,0,0,0,0,0,-1,1798,372,0,0
581,652,0,0,0,0,0,0,0,0,0,-1,1805,372,0,0
588,652,0,0,0,0,0,0,0,0,0,-1,1812,372,0,0
595,652,0,0,0,0,0,0,0,0,0,-1,1819,372,0,0
602,652,0,0,0,0,0,0,0,0,0,-1,1826,372,0,0
609,652,0,0,0,0,0,0,0,0,0,-1,1833,372,0,0
616,652,0,0,0,0,0,0,0,0,0,-1,1840,372,0,0
623,652,0,0,0,0,0,0,0,0,0,-1,1847,372,0,0
630,652,0,0,0,0,0,0,0,0,0,-1,1854,372,0,0
637,652,0,0,0,0,0,0,0,0,0,-1,1861,372,0,0
644,652,0,0,0,0,0,0,0,0,0,-1,1868,372,0,0
651,652,0,0,0,0,0,0,0,0,0,-1,1875,372,0,0
658,652,0,0,0,0,0,0,0,0,0,-1,1882,372,0,0
665,652,0,0,0,0,0,0,0,0,0,-1,1889,372,0,0
672,652,0,0,0,0,0,0,0,0,0,-1,1896,372,0,0
679,652,0,0,0,0,0,0,0,0,0,-1,1903,372,0,0
686,652,0,0,0,0,0,0,0,0,0,-1,1910,372,0,0
693,652,0,0,0,0,0,0,0,0,0,-1,1917,372,0,0
700,652,0,0,0,0,0,0,0,0,0,-1,1924,372,0,0
707,652,0,0,0,0,0,0,0,0,0,-1,1931,372,0,0
714,652,0,0,0,0,0,0,0,0,0,-1,1938,372,0,0
721,652,0,0,0,0,0,0,0,0,0,-1,1945,372,0,0
728,652,0,0,0,0,0,0,0,0,0,-1,1952,372,0,0
735,652,0,0,0,0,0,0,0,0,0,-1,1959,372,0,0
742,652,0,0,0,0,0,0,0,0,0,-1,1966,372,0,0
749,652,0,0,0,0,0,0,0,0,0,-1,1973,372,0,0
756,652,0,0,0,0,0,0,0,0,0,-1,1980,372,0,0
763,652,0,0,0,0,0,0,0,0,0,-1,1987,372,0,0
770,652,0,0,0,0,0,0,0,0,0,-1,1994,372,0,0
777,652,0,0,0,0,0,0,0,0,0,-1,2001,372,0,0
784,652,0,0,0,0,0,0,0,0,0,-1,2008,372,0,0
791,652,0,0,0,0,0,0,0,0,0,-1,2015,372,0,0
798,652,0,0,0,0,0,0,0,0,0,-1,2022,372,0,0
805,652,0,0,0,0,0,0,0,0,0,-1,2029,372,0,0
812,652,0,0,0,0,0,0,0,0,0,-1,2036,372,0,0
-700,645,0,0,0,0,0,0,0,0,0,-1,524,379,0,0
-693,645,0,0,0,0,0,0,0,0,0,-1,531,379,0,0
-686,645,0,0,0,0,0,0,0,0,0,-1,538,379,0,0
-679,645,0,0,0,0,0,0,0,0,0,-1,545,379,0,0
-672,645,0,0,0,0,0,0,0,0,0,-1,552,379,0,0
-665,645,0,0,0,0,0,0,0,0,0,-1,559,379,0,0
-658,645,0,0,0,0,0,0,0,0,0,-1,566,379,0,0
-651,645,0,0,0,0,0,0,0,0,0,-1,573,379,0,0
-644,645,0,0,0,0,0,0,0,0,0,-1,580,379,0,0
-637,645,0,0,0,0,0,0,0,0,0,-1,587,379,0,0
-630,645,0,0,0,0,0,0,0,0,0,-1,594,379,0,0
-623,645,0,0,0,0,0,0,0,0,0,-1,601,379,0,0
-616,645,0,0,0,0,0,0,0,0,0,-1,608,379,0,0
-609,645,0,0,0,0,0,0,0,0,0,-1,615,379,0,0
-602,645,0,0,0,0,0,0,0,0,0,-1,622,379,0,0
-595,645,0,0,0,0,0,0,0,0,0,-1,629,379,0,0
-588,645,0,0,0,0,0,0,0,0,0,-1,636,379,0,0
-581,645,0,0,0,0,0,0,0,0,0,-1,643,379,0,0
-574,645,0,0,0,0,0,0,0,0,0,-1,650,379,0,0
-567,645,0,0,0,0,0,0,0,0,0,-1,657,379,0,0
-560,645,0,0,0,0,0,0,0,0,0,-1,664,379,0,0
-553,645,0,0,0,0,0,0,0,0,0,-1,671,379,0,0
-546,645,0,0,0,0,0,0,0,0,0,-1,678,379,0,0
-539,645,0,0,0,0,0,0,0,0,0,-1,685,379,0,0
-532,645,0,0,0,0,0,0,0,0,0,-1,692,379,0,0
-525,645,0,0,0,0,0,0,0,0,0,-1,699,379,0,0
-518,645,0,0,0,0,0,0,0,0,0,-1,706,379,0,0
-511,645,0,0,0,0,0,0,0,0,0,-1,713,379,0,0
-504,645,0,0,0,0,0,0,0,0,0,-1,720,379,0,0
-497,645,0,0,0,0,0,0,0,0,0,-1,727,379,0,0
-490,645,0,0,0,0,0,0,0,0,0,-1,734,379,0,0
-483,645,0,0,0,0,0,0,0,0,0,-1,741,379,0,0
-476,645,0,0,0,0,0,0,0,0,0,-1,748,379,0,0
-469,645,0,0,0,0,0,0,0,0,0,-1,755,379,0,0
-462,645,0,0,0,0,0,0,0,0,0,-1,762,379,0,0
-455,645,0,0,0,0,0,0,0,0,0,-1,769,379,0,0
-448,645,0,0,0,0,0,0,0,0,0,-1,776,379,0,0
-441,645,0,0,0,0,0,0,0,0,0,-1,783,379,0,0
-434,645,0,0,0,0,0,0,0,0,0,-1,790,379,0,0
-427,645,0,0,0,0,0,0,0,0,0,-1,797,379,0,0
-420,645,0,0,0,0,0,0,0,0,0,-1,804,379,0,0
-413,645,0,0,0,0,0,0,0,0,0,-1,811,379,0,0
-406,645,0,0,0,0,0,0,0,0,0,-1,818,379,0,0
-399,645,0,0,0,0,0,0,0,0,0,-1,825,379,0,0
-392,645,0,0,0,0,0,0,0,0,0,-1,832,379,0,0
-385,645,0,0,0,0,0,0,0,0,0,-1,839,379,0,0
-378,645,0,0,0,0,0,0,0,0,0,-1,846,379,0,0
-371,645,0,0,0,0,0,0,0,0,0,-1,853,379,0,0
-364,645,0,0,0,0,0,0,0,0,0,-1,860,379,0,0
-357,645,0,0,0,0,0,0,0,0,0,-1,867,379,0,0
-350,645,0,0,0,0,0,0,0,0,0,-1,874,379,0,0
-343,645,0,0,0,0,0,0,0,0,0,-1,881,379,0,0
-336,645,0,0,0,0,0,0,0,0,0,-1,888,379,0,0
-329,645,0,0,0,0,0,0,0,0,0,-1,895,379,0,0
-322,645,0,0,0,0,0,0,0,0,0,-1,902,379,0,0
-315,645,0,0,0,0,0,0,0,0,0,-1,909,379,0,0
-308,645,0,0,0,0,0,0,0,0,0,-1,916,379,0,0
-301,645,0,0,0,0,0,0,0,0,0,-1,923,379,0,0
-294,645,0,0,0,0,0,0,0,0,0,-1,930,379,0,0
-287,645,0,0,0,0,0,0,0,0,0,-1,937,379,0,0
-280,645,0,0,0,0,0,0,0,0,0,-1,944,379,0,0
-273,645,0,0,0,0,0,0,0,0,0,-1,951,379,0,0
-266,645,0,0,0,0,0,0,0,0,0,-1,958,379,0,0
-259,645,0,0,0,0,0,0,0,0,0,-1,965,379,0,0
-252,645,2.95691,-26.9133,0,0,0,0,0,0,0,-1,972,379,2.9569,26.9133
-245,645,2.73169,-27.0215,0,0,0,0,0,0,0,-1,979,379,2.73172,27.0215
-238,645,2.6665,-26.9464,0,0,0,0,0,0,0,-1,986,379,2.66649,26.9464
-231,645,7.26807,-29.1054,0,0,0,0,0,0,0,-1,993,379,7.26806,29.1054
-224,645,7.69073,-29.5737,0,0,0,0,0,0,0,-1,1000,379,7.69071,29.5737
-217,645,8.65485,-33.4136,0,0,0,0,0,0,0,-1,1007,379,8.65487,33.4136
-210,645,9.21594,-32.5157,0,0,0,0,0,0,0,-1,1014,379,9.21591,32.5156
-203,645,9.77698,-31.6176,0,0,0,0,0,0,0,-1,1021,379,9.77696,31.6177
-196,645,10.2664,-29.7741,0,0,0,0,0,0,0,-1,1028,379,10.2664,29.7741
-189,645,5.88062,-28.2191,0,0,0,0,0,0,0,-1,1035,379,5.88062,28.2191
-182,645,6.34167,-29.2525,0,0,0,0,0,0,0,-1,1042,379,6.3417,29.2525
-175,645,6.1416,-34.1797,0,0,0,0,0,0,0,-1,1049,379,6.14161,34.1797
-168,645,6.5791,-35.0434,0,0,0,0,0,0,0,-1,1056,379,6.57911,35.0434
-161,645,6.55615,-35.5283,0,0,0,0,0,0,0,-1,1063,379,6.55616,35.5283
-154,645,6.62793,-35.6284,-0.00775277,0.0199585,0.0035335,0.0204019,-0.00819624,1.44595,0.017005,0.0484148,1070,379,6.62792,35.6284
-147,645,6.4303,-35.7205,-0.00793248,0.0196925,0.00317361,0.0200524,-0.00829238,1.45787,0.0168278,0.0459687,1077,379,6.43031,35.7205
-140,645,6.05164,-36.0764,0,0,0,0,0,0,0,-1,1084,379,6.05162,36.0763
-133,645,6.06152,-36.6981,0,0,0,0,0,0,0,-1,1091,379,6.0615,36.6981
-126,645,5.99377,-36.8886,-0.00730165,0.0185435,0.00032539,0.0185476,-0.00730575,1.55821,0.0153896,0.0469467,1098,379,5.9938,36.8886
-119,645,5.97278,-37.4014,-0.00684617,0.0175275,-0.00061704,0.0175431,-0.00686178,-1.5455,0.014533,0.0261265,1105,379,5.97279,37.4014
-112,645,5.89832,-37.8004,-0.00657449,0.016451,-0.00119739,0.0165131,-0.00663659,-1.51898,0.013765,0.017664,1112,379,5.89827,37.8004
-105,645,5.85632,-38.103,-0.00627369,0.0151052,-0.0017213,0.0152429,-0.00641139,-1.49097,0.0128441,0.0376538,1119,379,5.85628,38.103
-98,645,5.81177,-38.361,0,0,0,0,0,0,0,-1,1126,379,5.81179,38.361
-91,645,5.72864,-39.0023,0,0,0,0,0,0,0,-1,1133,379,5.72868,39.0023
-84,645,5.71338,-39.3249,0,0,0,0,0,0,0,-1,1140,379,5.71337,39.3249
-77,645,5.7699,-39.6192,-0.00512585,0.00699344,-0.0015992,0.00720091,-0.00533331,-1.44178,0.00726336,0.0380048,1147,379,5.76988,39.6192
-70,645,5.70532,-39.928,-0.00521873,0.00573811,-0.00114141,0.00585575,-0.00533638,-1.46809,0.0064641,0.0147677,1154,379,5.70538,39.928
-63,645,5.66113,-40.1137,-0.00442919,0.00660894,-0.00110611,0.00671869,-0.00453894,-1.4719,0.00654008,0.0122323,1161,379,5.66114,40.1137
-56,645,5.62891,-40.3441,-0.00373887,0.00423882,-0.00162118,0.00455568,-0.00405573,-1.37778,0.00497459,0.0144925,1168,379,5.62893,40.3441
-49,645,5.59351,-40.5919,-0.00337569,0.00389253,-0.00168853,0.00426565,-0.00374881,-1.35332,0.00463035,0.0129334,1175,379,5.59356,40.5919
-42,645,5.53247,-40.8095,-0.00306723,0.00472157,-0.00165359,0.0050581,-0.00340375,-1.37003,0.00491647,0.0119936,1182,379,5.53242,40.8095
-35,645,5.50867,-41.0572,-0.00293043,0.00545713,-0.00154522,0.00573275,-0.00320604,-1.39429,0.00522909,0.011189,1189,379,5.50872,41.0572
-28,645,5.474,-41.3046,-0.00286974,0.00562693,-0.00171888,0.00596149,-0.0032043,-1.37856,0.00537108,0.00918355,1196,379,5.47401,41.3046
-21,645,5.43677,-41.4747,-0.00286571,0.00588751,-0.00190801,0.00628533,-0.00326354,-1.36524,0.0056043,0.0108443,1203,379,5.4368,41.4747
-14,645,5.43408,-41.6479,-0.00292942,0.00610538,-0.00213195,0.00658319,-0.00340723,-1.35032,0.00586432,0.0105548,1210,379,5.4341,41.6479
-7,645,5.42224,-41.8368,-0.00286511,0.00620994,-0.00237943,0.00679597,-0.00345114,-1.32931,0.00602031,0.0139021,1217,379,5.4222,41.8368
0,645,5.36023,-41.9579,-0.0027192,0.00632978,-0.00258929,0.0070183,-0.00340772,-1.3109,0.0061386,0.0246349,1224,379,5.36021,41.9579
7,645,5.33826,-42.0522,-0.00253529,0.00657614,-0.00274866,0.00734111,-0.00330026,-1.29936,0.00628972,0.017231,1231,379,5.3382,42.0522
14,645,5.3551,-42.1217,-0.00231928,0.0067814,-0.00285537,0.00760309,-0.00314097,-1.2906,0.00637892,0.0170057,1238,379,5.35511,42.1217
21,645,5.33057,-42.2515,-0.00214271,0.00723724,-0.00290895,0.00806613,-0.0029716,-1.29321,0.00659502,0.0117457,1245,379,5.33053,42.2515
28,645,5.31787,-42.3588,-0.00189476,0.00747762,-0.0029697,0.00833936,-0.00275649,-1.28838,0.00667102,0.0100838,1252,379,5.31788,42.3588
35,645,5.3031,-42.415,-0.00161562,0.00838715,-0.00279376,0.00911454,-0.00234301,-1.31609,0.00698952,0.00916956,1259,379,5.30315,42.415
42,645,5.28638,-42.4656,-0.00149174,0.00914518,-0.00253774,0.0097196,-0.00206617,-1.34819,0.00726704,0.00954622,1266,379,5.28641,42.4656
49,645,5.30603,-42.5013,-0.00150185,0.0104196,-0.00228206,0.0108415,-0.00192376,-1.38798,0.00794694,0.0130278,1273,379,5.30597,42.5013
56,645,5.28809,-42.5066,-0.00156558,0.0111746,-0.00213319,0.0115223,-0.00191327,-1.40923,0.00839229,0.0124756,1280,379,5.28808,42.5066
63,645,5.26904,-42.5307,-0.00169104,0.0119192,-0.0019151,0.0121836,-0.00195537,-1.43363,0.00884651,0.0116112,1287,379,5.26903,42.5307
70,645,5.24377,-42.5241,-0.00192692,0.0126791,-0.00168752,0.0128716,-0.00211936,-1.45725,0.00936775,0.0162114,1294,379,5.24383,42.5241
77,645,5.22107,-42.4961,-0.00226187,0.0140644,-0.00138684,0.0141814,-0.00237884,-1.48665,0.0103388,0.0196152,1301,379,5.22103,42.4961
84,645,5.22766,-42.4476,-0.00261811,0.0153053,-0.00129194,0.015398,-0.00271076,-1.49921,0.011278,0.0142909,1308,379,5.2277,42.4476
91,645,5.18262,-42.4165,-0.00300856,0.0162848,-0.00122067,0.0163617,-0.00308548,-1.50786,0.0120685,0.0155179,1315,379,5.18259,42.4165
98,645,5.16431,-42.3241,-0.00345688,0.0171117,-0.00103541,0.0171636,-0.00350887,-1.52063,0.0127737,0.0132793,1322,379,5.16435,42.3241
105,645,5.16711,-42.2049,-0.00376077,0.0179586,-0.000824739,0.0179898,-0.00379204,-1.5329,0.0134368,0.0100994,1329,379,5.16714,42.2049
112,645,5.15222,-42.0946,-0.00389201,0.0186401,-0.000703478,0.0186621,-0.00391395,-1.53962,0.0139305,0.00898953,1336,379,5.15218,42.0946
119,645,5.13733,-41.9641,-0.00386903,0.0192105,-0.000497464,0.0192213,-0.00387975,-1.54926,0.0142841,0.00912819,1343,379,5.13738,41.9641
126,645,5.0896,-41.8002,-0.0036223,0.019498,-0.000193299,0.0194996,-0.00362391,-1.56244,0.0143609,0.012226,1350,379,5.08966,41.8002
133,645,5.07251,-41.6453,-0.00333543,0.0198089,0.000260758,0.0198118,-0.00333837,1.55953,0.0144498,0.0135618,1357,379,5.07245,41.6453
140,645,5.05725,-41.4933,-0.00299888,0.0192475,0.000603986,0.0192639,-0.00301526,1.54367,0.0139567,0.0128065,1364,379,5.05719,41.4933
147,645,5.04053,-41.3101,-0.00264721,0.01915,0.00113967,0.0192094,-0.00270663,1.5187,0.0137973,0.0139231,1371,379,5.04058,41.3101
154,645,5.04944,-41.1011,-0.00225352,0.0188758,0.00186558,0.0190393,-0.00241697,1.4834,0.0135704,0.0132858,1378,379,5.0494,41.1011
161,645,4.99817,-40.8692,-0.00203636,0.018652,0.00260285,0.0189744,-0.0023588,1.44754,0.0135047,0.0143718,1385,379,4.99821,40.8692
168,645,4.96216,-40.6377,-0.00215203,0.0178414,0.0029709,0.0182735,-0.00258415,1.42636,0.0131288,0.0163778,1392,379,4.96214,40.6377
175,645,4.97424,-40.4012,-0.0023351,0.0169168,0.00331255,0.0174709,-0.00288912,1.40508,0.0127201,0.0145997,1399,379,4.97423,40.4012
182,645,4.92896,-40.1378,-0.00248445,0.0151995,0.00370414,0.015944,-0.00322899,1.37244,0.0118532,0.0112986,1406,379,4.92893,40.1378
189,645,4.88672,-39.8313,-0.0026104,0.0133869,0.00413758,0.0143937,-0.00361719,1.33211,0.0110015,0.0121769,1413,379,4.88673,39.8313
196,645,4.83801,-39.5586,-0.0026622,0.0123108,0.00437161,0.0134937,-0.00384511,1.30654,0.0105145,0.0122283,1420,379,4.83803,39.5586
203,645,4.78406,-39.2386,-0.00266364,0.011763,0.00448405,0.0130431,-0.00394377,1.29271,0.0102657,0.012863,1427,379,4.78401,39.2386
210,645,4.81726,-38.8233,-0.00279365,0.0106578,0.00436599,0.0119506,-0.00408648,1.28291,0.00962293,0.0217471,1434,379,4.81725,38.8233
217,645,4.78821,-38.5801,-0.00233476,0.011206,0.00421847,0.0124127,-0.00354144,1.29219,0.00967416,0.0475436,1441,379,4.78817,38.5801
224,645,4.57629,-38.4674,0,0,0,0,0,0,0,-1,1448,379,4.57625,38.4674
231,645,4.62561,-37.853,0,0,0,0,0,0,0,-1,1455,379,4.62567,37.853
238,645,4.59021,-37.4846,0,0,0,0,0,0,0,-1,1462,379,4.59019,37.4846
245,645,4.55518,-37.0784,0.00207779,0.0180987,0.00675422,0.0205662,-0.000389681,1.22054,0.0138425,0.0278132,1469,379,4.55521,37.0784
252,645,4.59741,-36.527,0.00331395,0.0200972,0.00766381,0.0230701,0.000341014,1.20075,0.0152677,0.0359041,1476,379,4.59743,36.527
259,645,4.43896,-36.2538,0,0,0,0,0,0,0,-1,1483,379,4.439,36.2538
266,645,4.28979,-35.6614,0.00622553,0.0253297,0.0103858,0.0298881,0.00166709,1.1572,0.0193936,0.0395903,1490,379,4.28985,35.6614
273,645,4.42651,-35.3519,0.00763669,0.0284051,0.0120905,0.0339586,0.00208318,1.14021,0.0219776,0.0242087,1497,379,4.42651,35.3519
280,645,4.53564,-34.8813,0.0102879,0.0307702,0.0130051,0.0370824,0.00397566,1.11893,0.0235087,0.0433947,1504,379,4.53567,34.8813
287,645,4.65442,-34.3827,0,0,0,0,0,0,0,-1,1511,379,4.65445,34.3827
294,645,3.76245,-36.3448,0,0,0,0,0,0,0,-1,1518,379,3.76245,36.3448
301,645,-0.0267334,-21.0521,0,0,0,0,0,0,0,-1,1525,379,-0.0267066,21.0521
308,645,-0.351807,-21.8966,0,0,0,0,0,0,0,-1,1532,379,-0.351807,21.8966
315,645,-0.00427246,-22.7372,0,0,0,0,0,0,0,-1,1539,379,-0.00424457,22.7372
322,645,0.717163,-22.771,0,0,0,0,0,0,0,-1,1546,379,0.717186,22.771
329,645,3.06299,-31.5194,0,0,0,0,0,0,0,-1,1553,379,3.06296,31.5194
336,645,3.49231,-30.8971,0,0,0,0,0,0,0,-1,1560,379,3.49233,30.8971
343,645,4.77185,-23.7191,0,0,0,0,0,0,0,-1,1567,379,4.77184,23.7191
350,645,4.76404,-22.1987,0,0,0,0,0,0,0,-1,1574,379,4.76399,22.1987
357,645,4.61316,-21.967,0,0,0,0,0,0,0,-1,1581,379,4.61316,21.967
364,645,-0.0794678,-3.22021,0,0,0,0,0,0,0,-1,1588,379,-0.0794987,3.22021
371,645,0,0,0,0,0,0,0,0,0,-1,1595,379,0,0
378,645,0,0,0,0,0,0,0,0,0,-1,1602,379,0,0
385,645,0,0,0,0,0,0,0,0,0,-1,1609,379,0,0
392,645,0,0,0,0,0,0,0,0,0,-1,1616,379,0,0
399,645,0,0,0,0,0,0,0,0,0,-1,1623,379,0,0
406,645,0,0,0,0,0,0,0,0,0,-1,1630,379,0,0
413,645,0,0,0,0,0,0,0,0,0,-1,1637,379,0,0
420,645,0,0,0,0,0,0,0,0,0,-1,1644,379,0,0
427,645,0,0,0,0,0,0,0,0,0,-1,1651,379,0,0
434,645,0,0,0,0,0,0,0,0,0,-1,1658,379,0,0
441,645,0,0,0,0,0,0,0,0,0,-1,1665,379,0,0
448,645,0,0,0,0,0,0,0,0,0,-1,1672,379,0,0
455,645,0,0,0,0,0,0,0,0,0,-1,1679,379,0,0
462,645,0,0,0,0,0,0,0,0,0,-1,1686,379,0,0
469,645,0,0,0,0,0,0,0,0,0,-1,1693,379,0,0
476,645,0,0,0,0,0,0,0,0,0,-1,1700,379,0,0
483,645,0,0,0,0,0,0,0,0,0,-1,1707,379,0,0
490,645,0,0,0,0,0,0,0,0,0,-1,1714,379,0,0
497,645,0,0,0,0,0,0,0,0,0,-1,1721,379,0,0
504,645,0,0,0,0,0,0,0,0,0,-1,1728,379,0,0
511,645,0,0,0,0,0,0,0,0,0,-1,1735,379,0,0
518,645,0,0,0,0,0,0,0,0,0,-1,1742,379,0,0
525,645,0,0,0,0,0,0,0,0,0,-1,1749,379,0,0
532,645,0,0,0,0,0,0,0,0,0,-1,1756,379,0,0
539,645,0,0,0,0,0,0,0,0,0,-1,1763,379,0,0
546,645,0,0,0,0,0,0,0,0,0,-1,1770,379,0,0
553,645,0,0,0,0,0,0,0,0,0,-1,1777,379,0,0
560,645,0,0,0,0,0,0,0,0,0,-1,1784,379,0,0
567,645,0,0,0,0,0,0,0,0,0,-1,1791,379,0,0
574,645,0,0,0,0,0,0,0,0,0,-1,1798,379,0,0
581,645,0,0,0,0,0,0,0,0,0,-1,1805,379,0,0
588,645,0,0,0,0,0,0,0,0,0,-1,1812,379,0,0
595,645,0,0,0,0,0,0,0,0,0,-1,1819,379,0,0
602,645,0,0,0,0,0,0,0,0,0,-1,1826,379,0,0
609,645,0,0,0,0,0,0,0,0,0,-1,1833,379,0,0
616,645,0,0,0,0,0,0,0,0,0,-1,1840,379,0,0
623,645,0,0,0,0,0,0,0,0,0,-1,1847,379,0,0
630,645,0,0,0,0,0,0,0,0,0,-1,1854,379,0,0
637,645,0,0,0,0,0,0,0,0,0,-1,1861,379,0,0
644,645,0,0,0,0,0,0,0,0,0,-1,1868,379,0,0
651,645,0,0,0,0,0,0,0,0,0,-1,1875,379,0,0
658,645,0,0,0,0,0,0,0,0,0,-1,1882,379,0,0
665,645,0,0,0,0,0,0,0,0,0,-1,1889,379,0,0
672,645,0,0,0,0,0,0,0,0,0,-1,1896,379,0,0
679,645,0,0,0,0,0,0,0,0,0,-1,1903,379,0,0
686,645,0,0,0,0,0,0,0,0,0,-1,1910,379,0,0
693,645,0,0,0,0,0,0,0,0,0,-1,1917,379,0,0
700,645,0,0,0,0,0,0,0,0,0,-1,1924,379,0,0
707,645,0,0,0,0,0,0,0,0,0,-1,1931,379,0,0
714,645,0,0,0,0,0,0,0,0,0,-1,1938,379,0,0
721,645,0,0,0,0,0,0,0,0,0,-1,1945,379,0,0
728,645,0,0,0,0,0,0,0,0,0,-1,1952,379,0,0
735,645,0,0,0,0,0,0,0,0,0,-1,1959,379,0,0
742,645,0,0,0,0,0,0,0,0,0,-1,1966,379,0,0
749,645,0,0,0,0,0,0,0,0,0,-1,1973,379,0,0
756,645,0,0,0,0,0,0,0,0,0,-1,1980,379,0,0
763,645,0,0,0,0,0,0,0,0,0,-1,1987,379,0,0
770,645,0,0,0,0,0,0,0,0,0,-1,1994,379,0,0
777,645,0,0,0,0,0,0,0,0,0,-1,2001,379,0,0
784,645,0,0,0,0,0,0,0,0,0,-1,2008,379,0,0
791,645,0,0,0,0,0,0,0,0,0,-1,2015,379,0,0
798,645,0,0,0,0,0,0,0,0,0,-1,2022,379,0,0
805,645,0,0,0,0,0,0,0,0,0,-1,2029,379,0,0
812,645,0,0,0,0,0,0,0,0,0,-1,2036,379,0,0
-700,638,0,0,0,0,0,0,0,0,0,-1,524,386,0,0
-693,638,0,0,0,0,0,0,0,0,0,-1,531,386,0,0
-686,638,0,0,0,0,0,0,0,0,0,-1,538,386,0,0
-679,638,0,0,0,0,0,0,0,0,0,-1,545,386,0,0
-672,638,0,0,0,0,0,0,0,0,0,-1,552,386,0,0
-665,638,0,0,0,0,0,0,0,0,0,-1,559,386,0,0
-658,638,0,0,0,0,0,0,0,0,0,-1,566,386,0,0
-651,638,0,0,0,0,0,0,0,0,0,-1,573,386,0,0
-644,638,0,0,0,0,0,0,0,0,0,-1,580,386,0,0
-637,638,0,0,0,0,0,0,0,0,0,-1,587,386,0,0
-630,638,0,0,0,0,0,0,0,0,0,-1,594,386,0,0
-623,638,0,0,0,0,0,0,0,0,0,-1,601,386,0,0
-616,638,0,0,0,0,0,0,0,0,0,-1,608,386,0,0
-609,638,0,0,0,0,0,0,0,0,0,-1,615,386,0,0
-602,638,0,0,0,0,0,0,0,0,0,-1,622,386,0,0
-595,638,0,0,0,0,0,0,0,0,0,-1,629,386,0,0
-588,638,0,0,0,0,0,0,0,0,0,-1,636,386,0,0
-581,638,0,0,0,0,0,0,0,0,0,-1,643,386,0,0
-574,638,0,0,0,0,0,0,0,0,0,-1,650,386,0,0
-567,638,0,0,0,0,0,0,0,0,0,-1,657,386,0,0
-560,638,0,0,0,0,0,0,0,0,0,-1,664,386,0,0
-553,638,0,0,0,0,0,0,0,0,0,-1,671,386,0,0
-546,638,0,0,0,0,0,0,0,0,0,-1,678,386,0,0
-539,638,0,0,0,0,0,0,0,0,0,-1,685,386,0,0
-532,638,0,0,0,0,0,0,0,0,0,-1,692,386,0,0
-525,638,0,0,0,0,0,0,0,0,0,-1,699,386,0,0
-518,638,0,0,0,0,0,0,0,0,0,-1,706,386,0,0
-511,638,0,0,0,0,0,0,0,0,0,-1,713,386,0,0
-504,638,0,0,0,0,0,0,0,0,0,-1,720,386,0,0
-497,638,0,0,0,0,0,0,0,0,0,-1,727,386,0,0
-490,638,0,0,0,0,0,0,0,0,0,-1,734,386,0,0
-483,638,0,0,0,0,0,0,0,0,0,-1,741,386,0,0
-476,638,0,0,0,0,0,0,0,0,0,-1,748,386,0,0
-469,638,0,0,0,0,0,0,0,0,0,-1,755,386,0,0
-462,638,0,0,0,0,0,0,0,0,0,-1,762,386,0,0
-455,638,0,0,0,0,0,0,0,0,0,-1,769,386,0,0
-448,638,0,0,0,0,0,0,0,0,0,-1,776,386,0,0
-441,638,0,0,0,0,0,0,0,0,0,-1,783,386,0,0
-434,638,0,0,0,0,0,0,0,0,0,-1,790,386,0,0
-427,638,0,0,0,0,0,0,0,0,0,-1,797,386,0,0
-420,638,0,0,0,0,0,0,0,0,0,-1,804,386,0,0
-413,638,0,0,0,0,0,0,0,0,0,-1,811,386,0,0
-406,638,0,0,0,0,0,0,0,0,0,-1,818,386,0,0
-399,638,0,0,0,0,0,0,0,0,0,-1,825,386,0,0
-392,638,0,0,0,0,0,0,0,0,0,-1,832,386,0,0
-385,638,0,0,0,0,0,0,0,0,0,-1,839,386,0,0
-378,638,0,0,0,0,0,0,0,0,0,-1,846,386,0,0
-371,638,0,0,0,0,0,0,0,0,0,-1,853,386,0,0
-364,638,0,0,0,0,0,0,0,0,0,-1,860,386,0,0
-357,638,0,0,0,0,0,0,0,0,0,-1,867,386,0,0
-350,638,0,0,0,0,0,0,0,0,0,-1,874,386,0,0
-343,638,0,0,0,0,0,0,0,0,0,-1,881,386,0,0
-336,638,0,0,0,0,0,0,0,0,0,-1,888,386,0,0
-329,638,0,0,0,0,0,0,0,0,0,-1,895,386,0,0
-322,638,0,0,0,0,0,0,0,0,0,-1,902,386,0,0
-315,638,0,0,0,0,0,0,0,0,0,-1,909,386,0,0
-308,638,0,0,0,0,0,0,0,0,0,-1,916,386,0,0
-301,638,0,0,0,0,0,0,0,0,0,-1,923,386,0,0
-294,638,0,0,0,0,0,0,0,0,0,-1,930,386,0,0
-287,638,0,0,0,0,0,0,0,0,0,-1,937,386,0,0
-280,638,0,0,0,0,0,0,0,0,0,-1,944,386,0,0
-273,638,0,0,0,0,0,0,0,0,0,-1,951,386,0,0
-266,638,8.15143,-32.1175,0,0,0,0,0,0,0,-1,958,386,8.15144,32.1175
-259,638,8.31427,-32.4462,0,0,0,0,0,0,0,-1,965,386,8.31425,32.4462
-252,638,10.8915,-29.4076,0,0,0,0,0,0,0,-1,972,386,10.8916,29.4076
-245,638,3.35309,-26.4681,0,0,0,0,0,0,0,-1,979,386,3.35311,26.4681
-238,638,2.93518,-26.3649,0,0,0,0,0,0,0,-1,986,386,2.93516,26.3649
-231,638,2.36829,-26.0088,0,0,0,0,0,0,0,-1,993,386,2.3683,26.0088
-224,638,6.3465,-30.9124,0,0,0,0,0,0,0,-1,1000,386,6.34648,30.9124
-217,638,7.41205,-32.7263,0,0,0,0,0,0,0,-1,1007,386,7.41204,32.7262
-210,638,8.7038,-34.5688,0,0,0,0,0,0,0,-1,1014,386,8.70378,34.5689
-203,638,4.32593,-27.5803,0,0,0,0,0,0,0,-1,1021,386,4.32594,27.5803
-196,638,6.0614,-28.4651,0,0,0,0,0,0,0,-1,1028,386,6.06143,28.4651
-189,638,11.4561,-30.1556,0,0,0,0,0,0,0,-1,1035,386,11.456,30.1556
-182,638,5.49121,-32.6628,0,0,0,0,0,0,0,-1,1042,386,5.4912,32.6628
-175,638,5.80518,-34.1552,0,0,0,0,0,0,0,-1,1049,386,5.80513,34.1552
-168,638,5.94238,-34.8153,-0.00512499,0.0189276,-0.000494647,0.0189378,-0.00513516,-1.55024,0.0146402,0.0462563,1056,386,5.94233,34.8153
-161,638,5.99304,-35.3224,-0.00551176,0.017282,0.000590091,0.0172973,-0.00552703,1.54493,0.0137493,0.0488502,1063,386,5.99305,35.3224
-154,638,5.97766,-35.5767,-0.00575709,0.0164302,0.00113373,0.016488,-0.00581487,1.51987,0.013359,0.0435252,1070,386,5.97763,35.5767
-147,638,5.8573,-35.8129,-0.00587043,0.0158806,0.00118775,0.0159453,-0.0059351,1.51641,0.0130659,0.0349648,1077,386,5.85728,35.8129
-140,638,5.77783,-36.236,-0.00578253,0.0154884,0.000826218,0.0155205,-0.00581458,1.53203,0.0127356,0.0315602,1084,386,5.77785,36.236
-133,638,5.71167,-36.8371,-0.00562858,0.0147538,0.000385438,0.014761,-0.00563587,1.55189,0.0121627,0.0276368,1091,386,5.71169,36.8371
-126,638,5.69006,-37.2055,-0.00533642,0.0141344,-0.000202612,0.0141365,-0.00533853,-1.56039,0.0116201,0.0199788,1098,386,5.69005,37.2055
-119,638,5.6377,-37.5823,-0.00491418,0.0133178,-0.000795949,0.0133525,-0.00494887,-1.52725,0.0109313,0.0176141,1105,386,5.63765,37.5823
-112,638,5.60742,-37.9609,-0.00462813,0.0124736,-0.00115573,0.0125513,-0.00470588,-1.50362,0.0103009,0.0152734,1112,386,5.60739,37.9609
-105,638,5.57166,-38.3156,-0.00433666,0.0114331,-0.00151342,0.011577,-0.00448059,-1.47598,0.00956787,0.0156843,1119,386,5.57166,38.3157
-98,638,5.53479,-38.6519,-0.00395138,0.0100656,-0.00203111,0.010354,-0.00423976,-1.42976,0.00866872,0.0155428,1126,386,5.53479,38.6519
-91,638,5.47522,-38.976,-0.00361094,0.00832989,-0.00216575,0.00871057,-0.00399161,-1.3968,0.0075004,0.0133806,1133,386,5.47526,38.976
-84,638,5.44556,-39.3042,-0.00342686,0.0064802,-0.00171052,0.00676722,-0.00371388,-1.40455,0.00613626,0.0156075,1140,386,5.44556,39.3042
-77,638,5.41907,-39.619,-0.0032893,0.00537531,-0.00133195,0.00557543,-0.00348943,-1.42166,0.00527959,0.0121085,1147,386,5.41904,39.619
-70,638,5.4082,-39.9005,-0.00327238,0.00435597,-0.000968779,0.00447708,-0.00339349,-1.44643,0.00455841,0.010967,1154,386,5.40822,39.9005
-63,638,5.39185,-40.1468,-0.00277646,0.00458843,-0.000859887,0.0046875,-0.00287553,-1.4561,0.00440809,0.0114749,1161,386,5.3919,40.1468
-56,638,5.38538,-40.3901,-0.00229681,0.00424962,-0.000876732,0.004365,-0.00241219,-1.43994,0.00396659,0.015522,1168,386,5.38532,40.3901
-49,638,5.35437,-40.6293,-0.00199555,0.00401796,-0.000799256,0.00412238,-0.00209997,-1.44089,0.00365518,0.0142978,1175,386,5.35436,40.6293
-42,638,5.31323,-40.8458,-0.00164593,0.00439804,-0.000648802,0.0044669,-0.00171479,-1.46505,0.00368502,0.0133203,1182,386,5.31328,40.8458
-35,638,5.30542,-41.0889,-0.00141467,0.00465861,-0.000512222,0.00470151,-0.00145757,-1.48724,0.00371671,0.0115065,1189,386,5.3054,41.0889
-28,638,5.29822,-41.3258,-0.00127625,0.00460995,-0.000548723,0.00466067,-0.00132696,-1.47863,0.00363117,0.010656,1196,386,5.29819,41.3258
-21,638,5.27991,-41.4761,-0.00118914,0.00448431,-0.000602517,0.00454759,-0.00125242,-1.46615,0.00352418,0.0117965,1203,386,5.27985,41.4761
-14,638,5.27087,-41.6567,-0.00117272,0.00424403,-0.00071931,0.00433792,-0.00126662,-1.441,0.00339388,0.0124476,1210,386,5.27086,41.6567
-7,638,5.29871,-41.8827,-0.00103984,0.00384555,-0.000938276,0.00401955,-0.00121384,-1.38743,0.00316293,0.0189687,1217,386,5.29865,41.8827
0,638,5.25305,-41.9648,-0.000835041,0.00329379,-0.0010746,0.00355673,-0.00109798,-1.33083,0.00280959,0.0333603,1224,386,5.25309,41.9647
7,638,5.1897,-42.0644,-0.000680137,0.00298479,-0.00117801,0.00333077,-0.00102612,-1.28513,0.00263015,0.0247571,1231,386,5.18969,42.0644
14,638,5.21179,-42.1679,-0.000543918,0.0024178,-0.00127267,0.00288954,-0.00101566,-1.21583,0.00233959,0.0129864,1238,386,5.21177,42.1679
21,638,5.2489,-42.2789,-0.000144171,0.00216941,-0.00117046,0.00265826,-0.000633025,-1.17516,0.00201658,0.0113202,1245,386,5.24885,42.2789
28,638,5.24951,-42.3812,0.000467773,0.0012289,-0.00123254,0.00213829,-0.000441618,-0.935137,0.00159327,0.00951342,1252,386,5.2495,42.3812
35,638,5.24146,-42.4338,0.000905714,0.000961847,-0.00116311,0.00209723,-0.000229669,-0.797461,0.00148066,0.0111906,1259,386,5.24142,42.4338
42,638,5.26147,-42.4857,0.00126861,0.000736913,-0.00102494,0.00206162,-5.60969e-05,-0.658505,0.00139349,0.0103974,1266,386,5.26144,42.4857
49,638,5.29163,-42.5258,0.00157322,0.000770293,-0.000901245,0.00215837,0.000185138,-0.575865,0.00138134,0.00931612,1273,386,5.29162,42.5258
56,638,5.27454,-42.542,0.00180837,0.000735181,-0.000875313,0.00229847,0.00024508,-0.510425,0.00145751,0.012096,1280,386,5.27457,42.542
63,638,5.25061,-42.5321,0.00191812,0.000820507,-0.000828217,0.00236286,0.000375768,-0.492795,0.00146612,0.014137,1287,386,5.25065,42.5321
70,638,5.2428,-42.534,0.00182739,0.00111067,-0.000818067,0.00236214,0.000575914,-0.57896,0.00142221,0.0193169,1294,386,5.24279,42.534
77,638,5.25757,-42.5045,0.00157088,0.00204492,-0.000782193,0.00262521,0.000990581,-0.932511,0.0015308,0.0196043,1301,386,5.25762,42.5045
84,638,5.29492,-42.4553,0.00124377,0.00308033,-0.000933987,0.00347185,0.000852249,-1.17386,0.00208925,0.0140419,1308,386,5.2949,42.4553
91,638,5.28796,-42.3892,0.000804352,0.00409079,-0.0010437,0.00439423,0.000500912,-1.28786,0.00277761,0.014416,1315,386,5.28797,42.3892
98,638,5.25488,-42.3132,0.000229974,0.00510131,-0.000967016,0.00528625,4.5032e-05,-1.38183,0.00350925,0.0127984,1322,386,5.25484,42.3132
105,638,5.24963,-42.2242,-0.000199915,0.0063144,-0.000948812,0.00644978,-0.000335296,-1.42907,0.00441587,0.0102622,1329,386,5.24968,42.2242
112,638,5.26428,-42.1187,-0.000409283,0.00723455,-0.000933059,0.0073468,-0.00052153,-1.45107,0.00508064,0.0102176,1336,386,5.26434,42.1187
119,638,5.27612,-41.9833,-0.000534644,0.00835286,-0.00079531,0.00842347,-0.000605253,-1.48225,0.00582789,0.0121565,1343,386,5.27608,41.9833
126,638,5.25403,-41.8344,-0.000771009,0.00907976,-0.000727456,0.00913319,-0.000824439,-1.49748,0.00638139,0.0166131,1350,386,5.25406,41.8345
133,638,5.22583,-41.684,-0.000928489,0.0102864,-0.000338407,0.0102966,-0.000938691,-1.54066,0.00719771,0.0172046,1357,386,5.22583,41.684
140,638,5.20825,-41.5251,-0.000741009,0.0105066,4.44139e-05,0.0105068,-0.000741184,1.56685,0.00726418,0.0172307,1364,386,5.20821,41.5252
147,638,5.21521,-41.3411,-0.000610937,0.010717,0.000443201,0.0107343,-0.000628251,1.53175,0.00737457,0.0197092,1371,386,5.21517,41.3411
154,638,5.23901,-41.1499,-0.000519551,0.0108231,0.00086877,0.0108893,-0.000585707,1.49479,0.00746242,0.0188508,1378,386,5.23904,41.1499
161,638,5.20984,-40.9151,-0.000497462,0.0109756,0.00135818,0.0111341,-0.000656051,1.45456,0.00765083,0.0207082,1385,386,5.2098,40.9151
168,638,5.20679,-40.6522,-0.000676021,0.0108017,0.00166885,0.0110394,-0.000913746,1.4293,0.00768233,0.0243855,1392,386,5.20677,40.6522
175,638,5.23376,-40.4073,-0.000910767,0.0105507,0.00196968,0.0108798,-0.00123981,1.40527,0.00769979,0.0194006,1399,386,5.23376,40.4073
182,638,5.17578,-40.1592,-0.00114058,0.00979037,0.00230418,0.0102562,-0.00160644,1.37131,0.00743107,0.0137816,1406,386,5.17576,40.1592
189,638,5.13794,-39.87,-0.00135597,0.00899146,0.00267472,0.00964196,-0.00200647,1.33223,0.00719072,0.0122794,1413,386,5.13796,39.87
196,638,5.10779,-39.5821,-0.00146695,0.00859033,0.00294658,0.00939003,-0.00226666,1.30578,0.00713658,0.014638,1420,386,5.10775,39.5821
203,638,5.07874,-39.3026,-0.00154708,0.00853804,0.00315515,0.00944379,-0.00245283,1.29124,0.00725307,0.0215551,1427,386,5.07873,39.3026
210,638,5.07104,-38.9909,-0.00172673,0.00809094,0.00322152,0.00905363,-0.00268943,1.28041,0.007104,0.0173021,1434,386,5.07103,38.9909
217,638,5.0459,-38.6468,-0.00148218,0.00867147,0.00320507,0.00959853,-0.00240924,1.28923,0.00733519,0.0127629,1441,386,5.04591,38.6467
224,638,5.00171,-38.2737,-0.000992561,0.00970514,0.00339848,0.0106935,-0.00198089,1.28779,0.00787279,0.0119437,1448,386,5.00173,38.2737
231,638,4.94556,-37.8925,-0.000179279,0.0108175,0.00392311,0.0120736,-0.00143537,1.26093,0.00856772,0.012886,1455,386,4.94558,37.8926
238,638,4.92041,-37.5422,0.0007268,0.0123795,0.00482323,0.0141168,-0.00101058,1.22505,0.00976553,0.0130268,1462,386,4.92044,37.5422
245,638,4.89746,-37.1571,0.00141202,0.0138518,0.00544953,0.0159014,-0.000637576,1.21106,0.0108197,0.0145275,1469,386,4.89751,37.1571
252,638,4.90417,-36.7628,0.00222108,0.015437,0.00620794,0.0178956,-0.000237594,1.1937,0.0120104,0.0205417,1476,386,4.90423,36.7628
259,638,4.85083,-36.3931,0.00315307,0.0173443,0.00717869,0.0203423,0.000155053,1.17519,0.0135101,0.0221416,1483,386,4.85078,36.3931
266,638,4.74744,-35.9482,0.00416643,0.0197202,0.00845898,0.0234339,0.000452699,1.1571,0.0154739,0.0144981,1490,386,4.74741,35.9482
273,638,4.74536,-35.5526,0.00505229,0.0221461,0.0097962,0.0265998,0.000598617,1.1441,0.0175371,0.0122108,1497,386,4.74538,35.5526
280,638,4.81274,-35.0402,0.00692652,0.0240893,0.010558,0.0291135,0.00190236,1.12664,0.018807,0.0230643,1504,386,4.81276,35.0402
287,638,5.02002,-34.2897,0.00938302,0.0261022,0.0112832,0.0317852,0.00370003,1.10422,0.0200708,0.0416039,1511,386,5.02007,34.2897
294,638,5.09888,-33.6649,0,0,0,0,0,0,0,-1,1518,386,5.09886,33.6649
301,638,4.46057,-33.3353,0,0,0,0,0,0,0,-1,1525,386,4.46056,33.3353
308,638,4.69092,-32.5698,0,0,0,0,0,0,0,-1,1532,386,4.69086,32.5698
315,638,4.99341,-31.8123,0,0,0,0,0,0,0,-1,1539,386,4.99335,31.8124
322,638,3.42346,-32.1618,0,0,0,0,0,0,0,-1,1546,386,3.42342,32.1618
329,638,3.65637,-31.4338,0.0279749,0.0324769,0.0103656,0.0408331,0.0196187,0.892318,0.023581,0.0478968,1553,386,3.65638,31.4338
336,638,3.98547,-30.7367,0.0315073,0.0318145,0.00864815,0.0403104,0.0230114,0.794277,0.023351,0.0471703,1560,386,3.98553,30.7367
343,638,4.2196,-30.1093,0,0,0,0,0,0,0,-1,1567,386,4.2196,30.1093
350,638,5.91162,-19.0222,0,0,0,0,0,0,0,-1,1574,386,5.91165,19.0222
357,638,0.387329,-3.01077,0,0,0,0,0,0,0,-1,1581,386,0.387332,3.01077
364,638,3.78149,-6.45215,0,0,0,0,0,0,0,-1,1588,386,3.78155,6.45216
371,638,4.18604,-6.71164,0,0,0,0,0,0,0,-1,1595,386,4.18598,6.71164
378,638,4.59045,-6.97113,0,0,0,0,0,0,0,-1,1602,386,4.5904,6.97112
385,638,0,0,0,0,0,0,0,0,0,-1,1609,386,0,0
392,638,0,0,0,0,0,0,0,0,0,-1,1616,386,0,0
399,638,0,0,0,0,0,0,0,0,0,-1,1623,386,0,0
406,638,0,0,0,0,0,0,0,0,0,-1,1630,386,0,0
413,638,0,0,0,0,0,0,0,0,0,-1,1637,386,0,0
420,638,0,0,0,0,0,0,0,0,0,-1,1644,386,0,0
427,638,0,0,0,0,0,0,0,0,0,-1,1651,386,0,0
434,638,0,0,0,0,0,0,0,0,0,-1,1658,386,0,0
441,638,0,0,0,0,0,0,0,0,0,-1,1665,386,0,0
448,638,0,0,0,0,0,0,0,0,0,-1,1672,386,0,0
455,638,0,0,0,0,0,0,0,0,0,-1,1679,386,0,0
462,638,0,0,0,0,0,0,0,0,0,-1,1686,386,0,0
469,638,0,0,0,0,0,0,0,0,0,-1,1693,386,0,0
476,638,0,0,0,0,0,0,0,0,0,-1,1700,386,0,0
483,638,0,0,0,0,0,0,0,0,0,-1,1707,386,0,0
490,638,0,0,0,0,0,0,0,0,0,-1,1714,386,0,0
497,638,0,0,0,0,0,0,0,0,0,-1,1721,386,0,0
504,638,0,0,0,0,0,0,0,0,0,-1,1728,386,0,0
511,638,0,0,0,0,0,0,0,0,0,-1,1735,386,0,0
518,638,0,0,0,0,0,0,0,0,0,-1,1742,386,0,0
525,638,0,0,0,0,0,0,0,0,0,-1,1749,386,0,0
532,638,0,0,0,0,0,0,0,0,0,-1,1756,386,0,0
539,638,0,0,0,0,0,0,0,0,0,-1,1763,386,0,0
546,638,0,0,0,0,0,0,0,0,0,-1,1770,386,0,0
553,638,0,0,0,0,0,0,0,0,0,-1,1777,386,0,0
560,638,0,0,0,0,0,0,0,0,0,-1,1784,386,0,0
567,638,0,0,0,0,0,0,0,0,0,-1,1791,386,0,0
574,638,0,0,0,0,0,0,0,0,0,-1,1798,386,0,0
581,638,0,0,0,0,0,0,0,0,0,-1,1805,386,0,0
588,638,0,0,0,0,0,0,0,0,0,-1,1812,386,0,0
595,638,0,0,0,0,0,0,0,0,0,-1,1819,386,0,0
602,638,0,0,0,0,0,0,0,0,0,-1,1826,386,0,0
609,638,0,0,0,0,0,0,0,0,0,-1,1833,386,0,0
616,638,0,0,0,0,0,0,0,0,0,-1,1840,386,0,0
623,638,0,0,0,0,0,0,0,0,0,-1,1847,386,0,0
630,638,0,0,0,0,0,0,0,0,0,-1,1854,386,0,0
637,638,0,0,0,0,0,0,0,0,0,-1,1861,386,0,0
644,638,0,0,0,0,0,0,0,0,0,-1,1868,386,0,0
651,638,0,0,0,0,0,0,0,0,0,-1,1875,386,0,0
658,638,0,0,0,0,0,0,0,0,0,-1,1882,386,0,0
665,638,0,0,0,0,0,0,0,0,0,-1,1889,386,0,0
672,638,0,0,0,0,0,0,0,0,0,-1,1896,386,0,0
679,638,0,0,0,0,0,0,0,0,0,-1,1903,386,0,0
686,638,0,0,0,0,0,0,0,0,0,-1,1910,386,0,0
693,638,0,0,0,0,0,0,0,0,0,-1,1917,386,0,0
700,638,0,0,0,0,0,0,0,0,0,-1,1924,386,0,0
707,638,0,0,0,0,0,0,0,0,0,-1,1931,386,0,0
714,638,0,0,0,0,0,0,0,0,0,-1,1938,386,0,0
721,638,0,0,0,0,0,0,0,0,0,-1,1945,386,0,0
728,638,0,0,0,0,0,0,0,0,0,-1,1952,386,0,0
735,638,0,0,0,0,0,0,0,0,0,-1,1959,386,0,0
742,638,0,0,0,0,0,0,0,0,0,-1,1966,386,0,0
749,638,0,0,0,0,0,0,0,0,0,-1,1973,386,0,0
756,638,0,0,0,0,0,0,0,0,0,-1,1980,386,0,0
763,638,0,0,0,0,0,0,0,0,0,-1,1987,386,0,0
770,638,0,0,0,0,0,0,0,0,0,-1,1994,386,0,0
777,638,0,0,0,0,0,0,0,0,0,-1,2001,386,0,0
784,638,0,0,0,0,0,0,0,0,0,-1,2008,386,0,0
791,638,0,0,0,0,0,0,0,0,0,-1,2015,386,0,0
798,638,0,0,0,0,0,0,0,0,0,-1,2022,386,0,0
805,638,0,0,0,0,0,0,0,0,0,-1,2029,386,0,0
812,638,0,0,0,0,0,0,0,0,0,-1,2036,386,0,0
-700,631,0,0,0,0,0,0,0,0,0,-1,524,393,0,0
-693,631,0,0,0,0,0,0,0,0,0,-1,531,393,0,0
-686,631,0,0,0,0,0,0,0,0,0,-1,538,393,0,0
-679,631,0,0,0,0,0,0,0,0,0,-1,545,393,0,0
-672,631,0,0,0,0,0,0,0,0,0,-1,552,393,0,0
-665,631,0,0,0,0,0,0,0,0,0,-1,559,393,0,0
-658,631,0,0,0,0,0,0,0,0,0,-1,566,393,0,0
-651,631,0,0,0,0,0,0,0,0,0,-1,573,393,0,0
-644,631,0,0,0,0,0,0,0,0,0,-1,580,393,0,0
-637,631,0,0,0,0,0,0,0,0,0,-1,587,393,0,0
-630,631,0,0,0,0,0,0,0,0,0,-1,594,393,0,0
-623,631,0,0,0,0,0,0,0,0,0,-1,601,393,0,0
-616,631,0,0,0,0,0,0,0,0,0,-1,608,393,0,0
-609,631,0,0,0,0,0,0,0,0,0,-1,615,393,0,0
-602,631,0,0,0,0,0,0,0,0,0,-1,622,393,0,0
-595,631,0,0,0,0,0,0,0,0,0,-1,629,393,0,0
-588,631,0,0,0,0,0,0,0,0,0,-1,636,393,0,0
-581,631,0,0,0,0,0,0,0,0,0,-1,643,393,0,0
-574,631,0,0,0,0,0,0,0,0,0,-1,650,393,0,0
-567,631,0,0,0,0,0,0,0,0,0,-1,657,393,0,0
-560,631,0,0,0,0,0,0,0,0,0,-1,664,393,0,0
-553,631,0,0,0,0,0,0,0,0,0,-1,671,393,0,0
-546,631,0,0,0,0,0,0,0,0,0,-1,678,393,0,0
-539,631,0,0,0,0,0,0,0,0,0,-1,685,393,0,0
-532,631,0,0,0,0,0,0,0,0,0,-1,692,393,0,0
-525,631,0,0,0,0,0,0,0,0,0,-1,699,393,0,0
-518,631,0,0,0,0,0,0,0,0,0,-1,706,393,0,0
-511,631,0,0,0,0,0,0,0,0,0,-1,713,393,0,0
-504,631,0,0,0,0,0,0,0,0,0,-1,720,393,0,0
-497,631,0,0,0,0,0,0,0,0,0,-1,727,393,0,0
-490,631,0,0,0,0,0,0,0,0,0,-1,734,393,0,0
-483,631,0,0,0,0,0,0,0,0,0,-1,741,393,0,0
-476,631,0,0,0,0,0,0,0,0,0,-1,748,393,0,0
-469,631,0,0,0,0,0,0,0,0,0,-1,755,393,0,0
-462,631,0,0,0,0,0,0,0,0,0,-1,762,393,0,0
-455,631,0,0,0,0,0,0,0,0,0,-1,769,393,0,0
-448,631,0,0,0,0,0,0,0,0,0,-1,776,393,0,0
-441,631,0,0,0,0,0,0,0,0,0,-1,783,393,0,0
-434,631,0,0,0,0,0,0,0,0,0,-1,790,393,0,0
-427,631,0,0,0,0,0,0,0,0,0,-1,797,393,0,0
-420,631,0,0,0,0,0,0,0,0,0,-1,804,393,0,0
-413,631,0,0,0,0,0,0,0,0,0,-1,811,393,0,0
-406,631,0,0,0,0,0,0,0,0,0,-1,818,393,0,0
-399,631,0,0,0,0,0,0,0,0,0,-1,825,393,0,0
-392,631,0,0,0,0,0,0,0,0,0,-1,832,393,0,0
-385,631,0,0,0,0,0,0,0,0,0,-1,839,393,0,0
-378,631,0,0,0,0,0,0,0,0,0,-1,846,393,0,0
-371,631,0,0,0,0,0,0,0,0,0,-1,853,393,0,0
-364,631,0,0,0,0,0,0,0,0,0,-1,860,393,0,0
-357,631,0,0,0,0,0,0,0,0,0,-1,867,393,0,0
-350,631,0,0,0,0,0,0,0,0,0,-1,874,393,0,0
-343,631,0,0,0,0,0,0,0,0,0,-1,881,393,0,0
-336,631,0,0,0,0,0,0,0,0,0,-1,888,393,0,0
-329,631,0,0,0,0,0,0,0,0,0,-1,895,393,0,0
-322,631,0,0,0,0,0,0,0,0,0,-1,902,393,0,0
-315,631,0,0,0,0,0,0,0,0,0,-1,909,393,0,0
-308,631,0,0,0,0,0,0,0,0,0,-1,916,393,0,0
-301,631,0,0,0,0,0,0,0,0,0,-1,923,393,0,0
-294,631,0,0,0,0,0,0,0,0,0,-1,930,393,0,0
-287,631,0,0,0,0,0,0,0,0,0,-1,937,393,0,0
-280,631,6.36176,-30.1803,0,0,0,0,0,0,0,-1,944,393,6.36176,30.1803
-273,631,6.90314,-30.164,0,0,0,0,0,0,0,-1,951,393,6.90311,30.164
-266,631,7.0769,-30.7342,0,0,0,0,0,0,0,-1,958,393,7.07692,30.7342
-259,631,7.37976,-31.3754,0,0,0,0,0,0,0,-1,965,393,7.37977,31.3754
-252,631,10.028,-29.6031,0,0,0,0,0,0,0,-1,972,393,10.028,29.6031
-245,631,4.03546,-32.3832,0,0,0,0,0,0,0,-1,979,393,4.03548,32.3832
-238,631,3.82007,-31.4595,0,0,0,0,0,0,0,-1,986,393,3.82005,31.4595
-231,631,2.14966,-25.2306,0,0,0,0,0,0,0,-1,993,393,2.14968,25.2306
-224,631,6.83575,-19.7909,0,0,0,0,0,0,0,-1,1000,393,6.83575,19.7909
-217,631,5.05188,-18.3867,0,0,0,0,0,0,0,-1,1007,393,5.0519,18.3866
-210,631,3.37842,-26.3769,0,0,0,0,0,0,0,-1,1014,393,3.37839,26.3769
-203,631,5.05298,-26.4169,0,0,0,0,0,0,0,-1,1021,393,5.05302,26.4169
-196,631,5.42542,-31.5347,0,0,0,0,0,0,0,-1,1028,393,5.42537,31.5347
-189,631,5.36548,-32.2587,0,0,0,0,0,0,0,-1,1035,393,5.36554,32.2587
-182,631,5.44019,-33.3634,0,0,0,0,0,0,0,-1,1042,393,5.44018,33.3634
-175,631,5.57715,-34.2833,0,0,0,0,0,0,0,-1,1049,393,5.57713,34.2833
-168,631,5.53296,-34.7976,-0.00380462,0.0161106,-0.00193114,0.0162961,-0.00399015,-1.47502,0.0124098,0.0246713,1056,393,5.53294,34.7976
-161,631,5.49487,-35.2826,-0.00400374,0.0145326,-0.000917742,0.0145779,-0.00404907,-1.52145,0.0113125,0.013667,1063,393,5.49489,35.2826
-154,631,5.45557,-35.7164,-0.00411763,0.0135875,-0.000283361,0.013592,-0.00412217,-1.5548,0.0107034,0.0132825,1070,393,5.4556,35.7164
-147,631,5.42786,-36.1071,-0.0041513,0.0128721,-2.62231e-05,0.0128721,-0.00415134,-1.56926,0.0102494,0.0126476,1077,393,5.42791,36.1071
-140,631,5.39709,-36.5162,-0.00403319,0.0122895,-0.000111605,0.0122903,-0.00403396,-1.56396,0.00981842,0.0103835,1084,393,5.39715,36.5162
-133,631,5.33606,-36.9028,-0.00387409,0.0114104,-0.000255973,0.0114147,-0.00387837,-1.55406,0.00917988,0.00874165,1091,393,5.3361,36.9028
-126,631,5.31458,-37.2655,-0.00359456,0.0107748,-0.000563511,0.0107969,-0.00361662,-1.53166,0.00865898,0.0133452,1098,393,5.3146,37.2655
-119,631,5.28955,-37.6284,-0.00318057,0.0100801,-0.000921813,0.0101438,-0.00324434,-1.50172,0.00806455,0.0157513,1105,393,5.2895,37.6284
-112,631,5.26733,-37.9965,-0.00286001,0.00936879,-0.0011309,0.00947249,-0.00296372,-1.47935,0.00750068,0.0148084,1112,393,5.26738,37.9965
-105,631,5.30566,-38.339,-0.00255246,0.00851004,-0.00135851,0.00867443,-0.00271684,-1.45038,0.00687003,0.0192134,1119,393,5.30568,38.339
-98,631,5.26733,-38.6554,-0.00219661,0.00740125,-0.00168092,0.00768713,-0.00248248,-1.40234,0.00612237,0.016692,1126,393,5.26729,38.6554
-91,631,5.2124,-38.9818,-0.0018936,0.00607226,-0.00171486,0.00642575,-0.00224708,-1.36751,0.00519738,0.0187931,1133,393,5.21235,38.9817
-84,631,5.17578,-39.3248,-0.00168802,0.00470392,-0.00135307,0.00497854,-0.00196264,-1.37055,0.00413166,0.0182068,1140,393,5.17583,39.3248
-77,631,5.14954,-39.6361,-0.00149421,0.00382766,-0.0010427,0.00402466,-0.00169122,-1.38406,0.00339049,0.0119409,1147,393,5.14958,39.6362
-70,631,5.14209,-39.9019,-0.00136442,0.00299478,-0.00074349,0.0031181,-0.00148774,-1.40643,0.00271414,0.01202,1154,393,5.14203,39.9019
-63,631,5.14136,-40.174,-0.00105265,0.00277946,-0.000571663,0.00286292,-0.00113611,-1.42582,0.00237951,0.0124935,1161,393,5.14133,40.1741
-56,631,5.11633,-40.4599,-0.000739094,0.00257666,-0.000392379,0.00262246,-0.000784894,-1.4546,0.00206039,0.0137004,1168,393,5.11637,40.4599
-49,631,5.11462,-40.6695,-0.000481067,0.00213043,-0.000214394,0.00214791,-0.000498551,-1.48943,0.00162384,0.0111245,1175,393,5.11458,40.6695
-42,631,5.11621,-40.8777,-0.000244822,0.00189542,-7.29791e-05,0.00189791,-0.000247308,-1.53675,0.00135525,0.0095802,1182,393,5.11619,40.8777
-35,631,5.10266,-41.1008,-0.000113365,0.00157893,2.43478e-06,0.00157893,-0.000113369,1.56936,0.00109238,0.010564,1189,393,5.10267,41.1008
-28,631,5.11243,-41.3184,-3.69336e-05,0.00112033,2.46424e-05,0.00112086,-3.74581e-05,1.54952,0.000760032,0.0132659,1196,393,5.11248,41.3184
-21,631,5.11023,-41.5,0.000140137,0.000482821,0.000103644,0.00051173,0.000111229,1.29879,0.000310784,0.0117625,1203,393,5.11024,41.5
-14,631,5.11243,-41.6721,0.000307751,-0.000260544,6.71813e-05,0.000315585,-0.000268378,0.116084,0.000337518,0.014369,1210,393,5.11246,41.6721
-7,631,5.15601,-41.8638,0.000587635,-0.00112114,-0.000143298,0.000599569,-0.00113307,-0.0830868,0.00101602,0.0219725,1217,393,5.15596,41.8638
0,631,5.13013,-41.9893,0.00104027,-0.00230356,-0.000248729,0.00105867,-0.00232196,-0.0738427,0.00199672,0.0236476,1224,393,5.13012,41.9893
7,631,5.10376,-42.0891,0.00153409,-0.00311478,-0.000225593,0.00154501,-0.0031257,-0.048375,0.00274763,0.0188286,1231,393,5.10375,42.089
14,631,5.13562,-42.2178,0.00195332,-0.00441914,-0.000161353,0.0019574,-0.00442322,-0.0252987,0.00377444,0.0102046,1238,393,5.13561,42.2178
21,631,5.16345,-42.3057,0.00276568,-0.00541577,9.50617e-05,0.00276678,-0.00541687,0.0116171,0.0048067,0.0134436,1245,393,5.16351,42.3057
28,631,5.14526,-42.3655,0.00383816,-0.00736852,6.67911e-05,0.00383856,-0.00736891,0.00595966,0.00657678,0.0158819,1252,393,5.14521,42.3656
35,631,5.19751,-42.4259,0.00461627,-0.00837034,0.00023195,0.00462041,-0.00837448,0.0178531,0.00760624,0.0150807,1259,393,5.19756,42.4259
42,631,5.25488,-42.478,0.0053438,-0.00936268,0.000419857,0.00535577,-0.00937465,0.0285182,0.00860948,0.0128163,1266,393,5.25483,42.478
49,631,5.25671,-42.5367,0.00597711,-0.0101396,0.000546126,0.00599559,-0.0101581,0.033834,0.00942897,0.0114658,1273,393,5.25668,42.5367
56,631,5.25684,-42.5799,0.00648902,-0.0107377,0.000593526,0.00650945,-0.0107582,0.0343994,0.0100695,0.0133792,1280,393,5.25683,42.5799
63,631,5.25598,-42.5968,0.00685429,-0.0110276,0.000625242,0.00687612,-0.0110494,0.0349083,0.0104424,0.0166568,1287,393,5.256,42.5968
70,631,5.27039,-42.54,0.00691593,-0.0109062,0.000566016,0.00693388,-0.0109242,0.0317166,0.0103958,0.0171073,1294,393,5.27041,42.54
77,631,5.28528,-42.5035,0.00666854,-0.0100333,0.000433174,0.00667976,-0.0100445,0.0259125,0.00972068,0.0165658,1301,393,5.2853,42.5035
84,631,5.31567,-42.4689,0.00621536,-0.0088687,7.42122e-05,0.00621573,-0.00886907,0.00491975,0.008754,0.0137728,1308,393,5.31573,42.4689
91,631,5.33191,-42.4008,0.00560366,-0.0075122,-0.000196471,0.0056066,-0.00751514,-0.0149752,0.00760251,0.0157443,1315,393,5.3319,42.4008
98,631,5.33984,-42.3226,0.00482403,-0.0060302,-0.000256081,0.00483007,-0.00603624,-0.0235752,0.00628654,0.0131286,1322,393,5.33982,42.3226
105,631,5.3363,-42.2349,0.00403174,-0.00412818,-0.000439724,0.00405537,-0.00415181,-0.0536811,0.00473852,0.011323,1329,393,5.33626,42.2349
112,631,5.36255,-42.1354,0.00339493,-0.00274169,-0.000734965,0.00348173,-0.00282848,-0.117552,0.00364971,0.0119863,1336,393,5.3626,42.1354
119,631,5.38953,-42.018,0.00296421,-0.000829508,-0.000892938,0.00316388,-0.00102917,-0.219986,0.00252327,0.0124892,1343,393,5.38954,42.018
126,631,5.38501,-41.8651,0.00217087,0.000480105,-0.00112335,0.0027314,-8.04259e-05,-0.462832,0.00184832,0.0185623,1350,393,5.38501,41.8651
133,631,5.36475,-41.711,0.00145157,0.00265571,-0.0007884,0.00304564,0.00106164,-1.11149,0.00178508,0.0198861,1357,393,5.3647,41.711
140,631,5.37512,-41.5335,0.00142408,0.00292617,-0.000674887,0.00318485,0.0011654,-1.20478,0.00186068,0.0198242,1364,393,5.37511,41.5335
147,631,5.37549,-41.335,0.00134565,0.00336129,-0.000455017,0.00345925,0.00124769,-1.35875,0.00202288,0.0230618,1371,393,5.37553,41.335
154,631,5.39417,-41.1503,0.0012558,0.00377619,-0.000209912,0.00379355,0.00123843,-1.48827,0.00223375,0.0239959,1378,393,5.39416,41.1503
161,631,5.42468,-40.9222,0.0011116,0.0042971,8.48437e-05,0.00429935,0.00110934,1.54419,0.00257731,0.0268555,1385,393,5.42466,40.9223
168,631,5.43188,-40.6509,0.000879333,0.00467907,0.000356447,0.00471222,0.000846184,1.47807,0.00290085,0.029566,1392,393,5.43189,40.6509
175,631,5.43945,-40.4192,0.000595913,0.00501277,0.000631215,0.00510121,0.000507477,1.4316,0.0032449,0.0212808,1399,393,5.43943,40.4192
182,631,5.41638,-40.1761,0.000294106,0.00505054,0.000924969,0.00522408,0.000120561,1.38533,0.00344324,0.0118391,1406,393,5.4164,40.1761
189,631,5.40576,-39.8898,-1.06764e-05,0.00509665,0.00126465,0.00539264,-0.000306666,1.34088,0.00370155,0.0112226,1413,393,5.40581,39.8898
196,631,5.37878,-39.599,-0.000181709,0.00527486,0.00158831,0.00570351,-0.000610363,1.3072,0.00402127,0.0122324,1420,393,5.37879,39.599
203,631,5.36609,-39.3081,-0.000331506,0.00564615,0.00188064,0.0061886,-0.000873954,1.28998,0.00444578,0.0145689,1427,393,5.36615,39.3081
210,631,5.34607,-38.9983,-0.000573959,0.00569025,0.00208379,0.0063201,-0.0012038,1.27727,0.00466671,0.0164692,1434,393,5.34603,38.9983
217,631,5.349,-38.6913,-0.000529953,0.00628239,0.00219042,0.00692591,-0.00117347,1.28505,0.00505404,0.0172632,1441,393,5.34894,38.6913
224,631,5.33289,-38.3273,-0.000314651,0.00708206,0.00241716,0.00780191,-0.00103449,1.28135,0.00557817,0.0135898,1448,393,5.33284,38.3273
231,631,5.29431,-37.952,0.000145417,0.00792908,0.00288207,0.00888005,-0.000805545,1.25209,0.006206,0.0118324,1455,393,5.29432,37.952
238,631,5.26135,-37.5723,0.000715896,0.00911411,0.00361899,0.0104584,-0.000628425,1.21513,0.00719092,0.0166875,1462,393,5.26137,37.5723
245,631,5.24756,-37.2134,0.00113652,0.0102497,0.00414984,0.0118562,-0.000469978,1.20144,0.00806536,0.0175859,1469,393,5.24752,37.2134
252,631,5.24133,-36.854,0.00163992,0.0115259,0.00476856,0.0134511,-0.000285305,1.18708,0.00906399,0.0177509,1476,393,5.24128,36.854
259,631,5.18945,-36.4406,0.00222746,0.0130679,0.00555684,0.0154102,-0.000114871,1.17187,0.010312,0.0133789,1483,393,5.1895,36.4406
266,631,5.16064,-36.0266,0.00286962,0.0149877,0.00658624,0.017878,-2.06754e-05,1.15726,0.0119255,0.0119155,1490,393,5.16064,36.0266
273,631,5.15112,-35.601,0.00339704,0.0168934,0.0076263,0.0203285,-3.80222e-05,1.14759,0.013565,0.0141582,1497,393,5.15118,35.601
280,631,5.12781,-35.1256,0.0046826,0.0184951,0.00827077,0.0223639,0.000813779,1.13326,0.0146455,0.0137176,1504,393,5.12775,35.1256
287,631,5.10608,-34.6403,0.00639502,0.0202039,0.0089165,0.0245767,0.00202227,1.11485,0.0157537,0.0165482,1511,393,5.10605,34.6403
294,631,5.00745,-34.0917,0.00784957,0.0219564,0.00954018,0.0267675,0.00303851,1.10372,0.0169233,0.0205449,1518,393,5.00742,34.0917
301,631,4.92224,-33.5331,0.00951087,0.0234874,0.00989456,0.0286127,0.00438558,1.09286,0.0177943,0.0300982,1525,393,4.92224,33.5331
308,631,5.04407,-32.911,0.0116023,0.0247413,0.010011,0.0301459,0.00619771,1.07577,0.018383,0.039151,1532,393,5.04405,32.9111
315,631,5.20605,-32.2634,0.013987,0.0258491,0.00995641,0.0315072,0.00832891,1.05403,0.0188521,0.0482185,1539,393,5.20604,32.2634
322,631,5.17749,-31.8779,0,0,0,0,0,0,0,-1,1546,393,5.17751,31.8779
329,631,4.40881,-31.4717,0.0190237,0.026405,0.00918131,0.0326097,0.0128191,0.976501,0.0189701,0.0470489,1553,393,4.40879,31.4717
336,631,4.61829,-30.8391,0.0213551,0.0261701,0.00817545,0.0322851,0.01524,0.928591,0.0186495,0.0435449,1560,393,4.61828,30.8391
343,631,4.7522,-30.2213,0,0,0,0,0,0,0,-1,1567,393,4.75214,30.2213
350,631,2.1344,-9.23401,0,0,0,0,0,0,0,-1,1574,393,2.13439,9.23401
357,631,2.6449,-9.60303,0,0,0,0,0,0,0,-1,1581,393,2.64491,9.60304
364,631,3.39136,-5.7594,0,0,0,0,0,0,0,-1,1588,393,3.39137,5.75939
371,631,3.72839,-6.0574,0,0,0,0,0,0,0,-1,1595,393,3.72845,6.05742
378,631,4.06555,-6.35544,0,0,0,0,0,0,0,-1,1602,393,4.06553,6.35544
385,631,3.90442,-3.58298,0,0,0,0,0,0,0,-1,1609,393,3.90437,3.58299
392,631,0.352295,-2.21301,0,0,0,0,0,0,0,-1,1616,393,0.352345,2.213
399,631,0,0,0,0,0,0,0,0,0,-1,1623,393,0,0
406,631,0,0,0,0,0,0,0,0,0,-1,1630,393,0,0
413,631,0,0,0,0,0,0,0,0,0,-1,1637,393,0,0
420,631,0,0,0,0,0,0,0,0,0,-1,1644,393,0,0
427,631,0,0,0,0,0,0,0,0,0,-1,1651,393,0,0
434,631,0,0,0,0,0,0,0,0,0,-1,1658,393,0,0
441,631,0,0,0,0,0,0,0,0,0,-1,1665,393,0,0
448,631,0,0,0,0,0,0,0,0,0,-1,1672,393,0,0
455,631,0,0,0,0,0,0,0,0,0,-1,1679,393,0,0
462,631,0,0,0,0,0,0,0,0,0,-1,1686,393,0,0
469,631,0,0,0,0,0,0,0,0,0,-1,1693,393,0,0
476,631,0,0,0,0,0,0,0,0,0,-1,1700,393,0,0
483,631,0,0,0,0,0,0,0,0,0,-1,1707,393,0,0
490,631,0,0,0,0,0,0,0,0,0,-1,1714,393,0,0
497,631,0,0,0,0,0,0,0,0,0,-1,1721,393,0,0
504,631,0,0,0,0,0,0,0,0,0,-1,1728,393,0,0
511,631,0,0,0,0,0,0,0,0,0,-1,1735,393,0,0
518,631,0,0,0,0,0,0,0,0,0,-1,1742,393,0,0
525,631,0,0,0,0,0,0,0,0,0,-1,1749,393,0,0
532,631,0,0,0,0,0,0,0,0,0,-1,1756,393,0,0
539,631,0,0,0,0,0,0,0,0,0,-1,1763,393,0,0
546,631,0,0,0,0,0,0,0,0,0,-1,1770,393,0,0
553,631,0,0,0,0,0,0,0,0,0,-1,1777,393,0,0
560,631,0,0,0,0,0,0,0,0,0,-1,1784,393,0,0
567,631,0,0,0,0,0,0,0,0,0,-1,1791,393,0,0
574,631,0,0,0,0,0,0,0,0,0,-1,1798,393,0,0
581,631,0,0,0,0,0,0,0,0,0,-1,1805,393,0,0
588,631,0,0,0,0,0,0,0,0,0,-1,1812,393,0,0
595,631,0,0,0,0,0,0,0,0,0,-1,1819,393,0,0
602,631,0,0,0,0,0,0,0,0,0,-1,1826,393,0,0
609,631,0,0,0,0,0,0,0,0,0,-1,1833,393,0,0
616,631,0,0,0,0,0,0,0,0,0,-1,1840,393,0,0
623,631,0,0,0,0,0,0,0,0,0,-1,1847,393,0,0
630,631,0,0,0,0,0,0,0,0,0,-1,1854,393,0,0
637,631,0,0,0,0,0,0,0,0,0,-1,1861,393,0,0
644,631,0,0,0,0,0,0,0,0,0,-1,1868,393,0,0
651,631,0,0,0,0,0,0,0,0,0,-1,1875,393,0,0
658,631,0,0,0,0,0,0,0,0,0,-1,1882,393,0,0
665,631,0,0,0,0,0,0,0,0,0,-1,1889,393,0,0
672,631,0,0,0,0,0,0,0,0,0,-1,1896,393,0,0
679,631,0,0,0,0,0,0,0,0,0,-1,1903,393,0,0
686,631,0,0,0,0,0,0,0,0,0,-1,1910,393,0,0
693,631,0,0,0,0,0,0,0,0,0,-1,1917,393,0,0
700,631,0,0,0,0,0,0,0,0,0,-1,1924,393,0,0
707,631,0,0,0,0,0,0,0,0,0,-1,1931,393,0,0
714,631,0,0,0,0,0,0,0,0,0,-1,1938,393,0,0
721,631,0,0,0,0,0,0,0,0,0,-1,1945,393,0,0
728,631,0,0,0,0,0,0,0,0,0,-1,1952,393,0,0
735,631,0,0,0,0,0,0,0,0,0,-1,1959,393,0,0
742,631,0,0,0,0,0,0,0,0,0,-1,1966,393,0,0
749,631,0,0,0,0,0,0,0,0,0,-1,1973,393,0,0
756,631,0,0,0,0,0,0,0,0,0,-1,1980,393,0,0
763,631,0,0,0,0,0,0,0,0,0,-1,1987,393,0,0
770,631,0,0,0,0,0,0,0,0,0,-1,1994,393,0,0
777,631,0,0,0,0,0,0,0,0,0,-1,2001,393,0,0
784,631,0,0,0,0,0,0,0,0,0,-1,2008,393,0,0
791,631,0,0,0,0,0,0,0,0,0,-1,2015,393,0,0
798,631,0,0,0,0,0,0,0,0,0,-1,2022,393,0,0
805,631,0,0,0,0,0,0,0,0,0,-1,2029,393,0,0
812,631,0,0,0,0,0,0,0,0,0,-1,2036,393,0,0
-700,624,0,0,0,0,0,0,0,0,0,-1,524,400,0,0
-693,624,0,0,0,0,0,0,0,0,0,-1,531,400,0,0
-686,624,0,0,0,0,0,0,0,0,0,-1,538,400,0,0
-679,624,0,0,0,0,0,0,0,0,0,-1,545,400,0,0
-672,624,0,0,0,0,0,0,0,0,0,-1,552,400,0,0
-665,624,0,0,0,0,0,0,0,0,0,-1,559,400,0,0
-658,624,0,0,0,0,0,0,0,0,0,-1,566,400,0,0
-651,624,0,0,0,0,0,0,0,0,0,-1,573,400,0,0
-644,624,0,0,0,0,0,0,0,0,0,-1,580,400,0,0
-637,624,0,0,0,0,0,0,0,0,0,-1,587,400,0,0
-630,624,0,0,0,0,0,0,0,0,0,-1,594,400,0,0
-623,624,0,0,0,0,0,0,0,0,0,-1,601,400,0,0
-616,624,0,0,0,0,0,0,0,0,0,-1,608,400,0,0
-609,624,0,0,0,0,0,0,0,0,0,-1,615,400,0,0
-602,624,0,0,0,0,0,0,0,0,0,-1,622,400,0,0
-595,624,0,0,0,0,0,0,0,0,0,-1,629,400,0,0
-588,624,0,0,0,0,0,0,0,0,0,-1,636,400,0,0
-581,624,0,0,0,0,0,0,0,0,0,-1,643,400,0,0
-574,624,0,0,0,0,0,0,0,0,0,-1,650,400,0,0
-567,624,0,0,0,0,0,0,0,0,0,-1,657,400,0,0
-560,624,0,0,0,0,0,0,0,0,0,-1,664,400,0,0
-553,624,0,0,0,0,0,0,0,0,0,-1,671,400,0,0
-546,624,0,0,0,0,0,0,0,0,0,-1,678,400,0,0
-539,624,0,0,0,0,0,0,0,0,0,-1,685,400,0,0
-532,624,0,0,0,0,0,0,0,0,0,-1,692,400,0,0
-525,624,0,0,0,0,0,0,0,0,0,-1,699,400,0,0
-518,624,0,0,0,0,0,0,0,0,0,-1,706,400,0,0
-511,624,0,0,0,0,0,0,0,0,0,-1,713,400,0,0
-504,624,0,0,0,0,0,0,0,0,0,-1,720,400,0,0
-497,624,0,0,0,0,0,0,0,0,0,-1,727,400,0,0
-490,624,0,0,0,0,0,0,0,0,0,-1,734,400,0,0
-483,624,0,0,0,0,0,0,0,0,0,-1,741,400,0,0
-476,624,0,0,0,0,0,0,0,0,0,-1,748,400,0,0
-469,624,0,0,0,0,0,0,0,0,0,-1,755,400,0,0
-462,624,0,0,0,0,0,0,0,0,0,-1,762,400,0,0
-455,624,0,0,0,0,0,0,0,0,0,-1,769,400,0,0
-448,624,0,0,0,0,0,0,0,0,0,-1,776,400,0,0
-441,624,0,0,0,0,0,0,0,0,0,-1,783,400,0,0
-434,624,0,0,0,0,0,0,0,0,0,-1,790,400,0,0
-427,624,0,0,0,0,0,0,0,0,0,-1,797,400,0,0
-420,624,0,0,0,0,0,0,0,0,0,-1,804,400,0,0
-413,624,0,0,0,0,0,0,0,0,0,-1,811,400,0,0
-406,624,0,0,0,0,0,0,0,0,0,-1,818,400,0,0
-399,624,0,0,0,0,0,0,0,0,0,-1,825,400,0,0
-392,624,0,0,0,0,0,0,0,0,0,-1,832,400,0,0
-385,624,0,0,0,0,0,0,0,0,0,-1,839,400,0,0
-378,624,0,0,0,0,0,0,0,0,0,-1,846,400,0,0
-371,624,0,0,0,0,0,0,0,0,0,-1,853,400,0,0
-364,624,0,0,0,0,0,0,0,0,0,-1,860,400,0,0
-357,624,0,0,0,0,0,0,0,0,0,-1,867,400,0,0
-350,624,0,0,0,0,0,0,0,0,0,-1,874,400,0,0
-343,624,0,0,0,0,0,0,0,0,0,-1,881,400,0,0
-336,624,0,0,0,0,0,0,0,0,0,-1,888,400,0,0
-329,624,0,0,0,0,0,0,0,0,0,-1,895,400,0,0
-322,624,0,0,0,0,0,0,0,0,0,-1,902,400,0,0
-315,624,0,0,0,0,0,0,0,0,0,-1,909,400,0,0
-308,624,0,0,0,0,0,0,0,0,0,-1,916,400,0,0
-301,624,0,0,0,0,0,0,0,0,0,-1,923,400,0,0
-294,624,5.3858,-27.8827,0,0,0,0,0,0,0,-1,930,400,5.38582,27.8827
-287,624,5.18011,-28.3315,0,0,0,0,0,0,0,-1,937,400,5.18009,28.3315
-280,624,5.47681,-28.4916,0,0,0,0,0,0,0,-1,944,400,5.47681,28.4916
-273,624,5.85431,-28.7075,0,0,0,0,0,0,0,-1,951,400,5.8543,28.7075
-266,624,6.07153,-29.3421,0,0,0,0,0,0,0,-1,958,400,6.07155,29.3421
-259,624,6.3399,-29.9514,0,0,0,0,0,0,0,-1,965,400,6.33989,29.9514
-252,624,3.99158,-32.007,0,0,0,0,0,0,0,-1,972,400,3.99157,32.0071
-245,624,3.98663,-31.2989,0,0,0,0,0,0,0,-1,979,400,3.98662,31.2989
-238,624,3.95471,-30.4832,0,0,0,0,0,0,0,-1,986,400,3.95468,30.4832
-231,624,3.86121,-29.6032,0,0,0,0,0,0,0,-1,993,400,3.86122,29.6032
-224,624,4.59351,-27.4048,0,0,0,0,0,0,0,-1,1000,400,4.59353,27.4048
-217,624,5.68713,-31.1554,0,0,0,0,0,0,0,-1,1007,400,5.68716,31.1554
-210,624,5.46002,-31.8231,0,0,0,0,0,0,0,-1,1014,400,5.46002,31.8231
-203,624,5.26697,-32.3743,0,0,0,0,0,0,0,-1,1021,400,5.26695,32.3743
-196,624,5.03564,-32.535,0,0,0,0,0,0,0,-1,1028,400,5.0356,32.535
-189,624,5.06738,-32.9409,-0.00276518,0.0194695,-0.00600358,0.020987,-0.00428264,-1.32322,0.0156159,0.0449064,1035,400,5.06739,32.9409
-182,624,5.15515,-33.6888,-0.00243847,0.0173782,-0.00483453,0.0184947,-0.003555,-1.34383,0.0136698,0.036894,1042,400,5.1551,33.6888
-175,624,5.2218,-34.361,-0.00248399,0.0151521,-0.00361333,0.0158637,-0.00319558,-1.37635,0.0117863,0.0262746,1049,400,5.22185,34.361
-168,624,5.14709,-34.8505,-0.0026629,0.0134534,-0.00247847,0.0138259,-0.00303545,-1.4216,0.0103781,0.0143871,1056,400,5.14703,34.8505
-161,624,5.10413,-35.3068,-0.00274031,0.0118875,-0.00159032,0.0120584,-0.00291121,-1.46374,0.0091648,0.0109303,1063,400,5.10409,35.3068
-154,624,5.07507,-35.7158,-0.00275768,0.0108069,-0.000957346,0.0108741,-0.00282491,-1.50068,0.00835185,0.00992694,1070,400,5.07511,35.7158
-147,624,5.0575,-36.1238,-0.00272537,0.00988673,-0.000604918,0.00991567,-0.00275432,-1.52298,0.00769467,0.0108309,1077,400,5.05743,36.1238
-140,624,5.01978,-36.5338,-0.00257927,0.00907829,-0.000527015,0.00910206,-0.00260305,-1.52571,0.00709668,0.00937079,1084,400,5.01983,36.5338
-133,624,4.974,-36.9089,-0.00240724,0.00805535,-0.000502994,0.00807948,-0.00243137,-1.52287,0.00635378,0.0105927,1091,400,4.97403,36.9089
-126,624,4.94995,-37.2628,-0.00213033,0.00734637,-0.000640069,0.00738941,-0.00217337,-1.50366,0.00578837,0.013336,1098,400,4.94996,37.2628
-119,624,4.92419,-37.6369,-0.0017215,0.00667895,-0.000840167,0.00676216,-0.00180471,-1.47208,0.00521483,0.0148517,1105,400,4.92419,37.6369
-112,624,4.92273,-37.9939,-0.0013676,0.00603189,-0.000950461,0.00615202,-0.00148773,-1.44507,0.00467681,0.0172219,1112,400,4.92268,37.9939
-105,624,4.97083,-38.3523,-0.00103654,0.00529973,-0.00108388,0.00548001,-0.00121682,-1.40598,0.00411929,0.0133592,1119,400,4.97083,38.3523
-98,624,4.94629,-38.656,-0.000695865,0.00440536,-0.00124437,0.00469272,-0.000983224,-1.34385,0.00350253,0.0140725,1126,400,4.94625,38.656
-91,624,4.92615,-38.9847,-0.000400338,0.00345561,-0.00119961,0.00379835,-0.000743078,-1.2925,0.00281283,0.0214155,1133,400,4.9262,38.9847
-84,624,4.92505,-39.3444,-0.000132572,0.00254417,-0.000920971,0.00283043,-0.000418831,-1.26944,0.00204094,0.0200305,1140,400,4.9251,39.3444
-77,624,4.91248,-39.6472,0.000162775,0.00198105,-0.000660681,0.00219576,-5.19329e-05,-1.25658,0.00148146,0.0141788,1147,400,4.91246,39.6472
-70,624,4.91406,-39.8839,0.00045763,0.00148538,-0.000433692,0.00164393,0.000299079,-1.22031,0.00101111,0.0147222,1154,400,4.91403,39.8839
-63,624,4.92139,-40.1555,0.000822369,0.00114704,-0.000257265,0.00128891,0.000680504,-1.06685,0.000744539,0.0160104,1161,400,4.92144,40.1555
-56,624,4.89966,-40.4383,0.000967067,0.000574511,-9.98449e-05,0.000991003,0.000550576,-0.235288,0.000573333,0.0133497,1168,400,4.89972,40.4383
-49,624,4.90076,-40.7071,0.000994292,-0.000174069,2.22872e-05,0.000994717,-0.000174494,0.0190663,0.000728311,0.0107147,1175,400,4.90079,40.7071
-42,624,4.89819,-40.9209,0.000728782,-0.000962146,-0.000115194,0.000736593,-0.000969958,-0.0677076,0.000988344,0.00921566,1182,400,4.89819,40.9209
-35,624,4.88818,-41.1194,0.000301062,-0.00178824,-0.000345864,0.000356829,-0.00184401,-0.159861,0.00136393,0.0139446,1189,400,4.88818,41.1194
-28,624,4.89319,-41.3338,4.0164e-06,-0.00266848,-0.000514502,9.96451e-05,-0.00276411,-0.18377,0.00187684,0.0189287,1196,400,4.89315,41.3338
-21,624,4.92725,-41.5114,1.70612e-05,-0.00381149,-0.000476519,7.54794e-05,-0.00386991,-0.121985,0.00260547,0.0147165,1203,400,4.92729,41.5113
-14,624,4.94983,-41.6737,4.9744e-05,-0.00505108,-0.000631708,0.000126813,-0.00512815,-0.121401,0.00346181,0.0163721,1210,400,4.94987,41.6737
-7,624,4.97253,-41.8209,0.000409667,-0.00635968,-0.00101656,0.000559028,-0.00650904,-0.145885,0.0045372,0.0202442,1217,400,4.97251,41.8209
0,624,5.005,-41.9599,0.00112315,-0.00820098,-0.00119842,0.00127472,-0.00835255,-0.125806,0.00603829,0.0196478,1224,400,5.00503,41.9599
7,624,5.01074,-42.082,0.00194328,-0.00966326,-0.00105926,0.00203916,-0.00975914,-0.0902705,0.00728162,0.0143064,1231,400,5.01077,42.082
14,624,5.05078,-42.2323,0.00273213,-0.0117042,-0.000812535,0.00277772,-0.0117498,-0.0560482,0.00890468,0.0114759,1238,400,5.05084,42.2323
21,624,5.06702,-42.31,0.0041097,-0.0133913,-0.000279029,0.00411414,-0.0133957,-0.0159382,0.0105721,0.0134156,1245,400,5.06698,42.31
28,624,5.07251,-42.3793,0.0058258,-0.0163368,-8.58514e-05,0.00582613,-0.0163371,-0.00387363,0.013267,0.0129474,1252,400,5.07252,42.3793
35,624,5.08838,-42.4338,0.00713339,-0.0179785,0.00041544,0.00714026,-0.0179854,0.0165375,0.0149499,0.0164519,1259,400,5.08843,42.4338
42,624,5.15381,-42.4922,0.00836895,-0.0196087,0.000900292,0.00839789,-0.0196377,0.0321346,0.0166143,0.0185626,1266,400,5.15381,42.4922
49,624,5.19922,-42.5169,0.00954336,-0.021021,0.00134208,0.00960218,-0.0210799,0.0437976,0.0181227,0.0192937,1273,400,5.19924,42.5169
56,624,5.24268,-42.568,0.0103839,-0.0220131,0.00172898,0.0104759,-0.0221051,0.0531673,0.0192059,0.0195949,1280,400,5.24265,42.568
63,624,5.29419,-42.5764,0.0109562,-0.0224126,0.00201249,0.0110771,-0.0225335,0.0600208,0.0197773,0.0170311,1287,400,5.29414,42.5764
70,624,5.30713,-42.5613,0.011171,-0.0223009,0.00213651,0.0113068,-0.0224367,0.0634865,0.0198319,0.0152465,1294,400,5.30713,42.5613
77,624,5.3324,-42.5111,0.010833,-0.0212531,0.00205983,0.0109647,-0.0213848,0.0638476,0.0189972,0.0147326,1301,400,5.33235,42.5111
84,624,5.36255,-42.4778,0.0102069,-0.0198018,0.0016726,0.0102998,-0.0198948,0.0555079,0.0177238,0.0127232,1308,400,5.36259,42.4778
91,624,5.39136,-42.3997,0.00941368,-0.0180404,0.00133625,0.00947857,-0.0181053,0.0485193,0.0161831,0.0129545,1315,400,5.3914,42.3997
98,624,5.42871,-42.33,0.00828311,-0.0160527,0.00118621,0.00834079,-0.0161104,0.0485898,0.0143525,0.0134875,1322,400,5.42866,42.33
105,624,5.45227,-42.2707,0.00708737,-0.0133946,0.000782305,0.00711721,-0.0134244,0.0381209,0.0120446,0.0151033,1329,400,5.4523,42.2707
112,624,5.48328,-42.1686,0.00614103,-0.0113272,6.58536e-05,0.00614128,-0.0113274,0.00376984,0.0102326,0.014458,1336,400,5.48331,42.1686
119,624,5.51013,-42.0629,0.00547569,-0.00866709,-0.000552555,0.00549724,-0.00868865,-0.0389906,0.00825902,0.0142614,1343,400,5.51013,42.0629
126,624,5.55762,-41.8979,0.00418725,-0.00682821,-0.00132168,0.00434361,-0.00698457,-0.117758,0.00659931,0.0190264,1350,400,5.55767,41.8979
133,624,5.57532,-41.699,0.00299518,-0.00356335,-0.00120506,0.00320959,-0.00377776,-0.17608,0.00403859,0.0202224,1357,400,5.57532,41.699
140,624,5.5675,-41.5175,0.002972,-0.00344412,-0.00150095,0.00330576,-0.00377788,-0.218806,0.00409277,0.0187867,1364,400,5.5675,41.5175
147,624,5.55212,-41.3128,0.00292153,-0.0029595,-0.00147753,0.00327187,-0.00330984,-0.232812,0.00379997,0.0226659,1371,400,5.55207,41.3128
154,624,5.58447,-41.1303,0.00282903,-0.00236709,-0.00135833,0.00316269,-0.00270075,-0.24087,0.00338876,0.0271158,1378,400,5.58443,41.1303
161,624,5.64661,-40.9449,0.00272241,-0.00155449,-0.00124097,0.0030564,-0.00188848,-0.262909,0.00288135,0.0265527,1385,400,5.64659,40.9449
168,624,5.66016,-40.6965,0.00251491,-0.000772872,-0.00100467,0.00279761,-0.00105557,-0.274291,0.00229917,0.0256326,1392,400,5.66018,40.6965
175,624,5.68311,-40.4739,0.0021832,7.86965e-05,-0.000741779,0.00241837,-0.000156479,-0.307019,0.00166686,0.0186005,1399,400,5.68307,40.4739
182,624,5.68945,-40.2041,0.0018092,0.000788454,-0.000472103,0.00199407,0.000603585,-0.373232,0.00118078,0.0106875,1406,400,5.68944,40.2041
189,624,5.68018,-39.9129,0.00140312,0.00156633,-0.000138114,0.00164515,0.00132431,-1.05223,0.001007,0.0107044,1413,400,5.68013,39.9129
196,624,5.66357,-39.6151,0.00117079,0.0022485,0.000255605,0.00230605,0.00111324,1.34934,0.00133166,0.0120419,1420,400,5.66353,39.6151
203,624,5.67859,-39.3003,0.000950574,0.00300515,0.000633113,0.00318457,0.00077115,1.29464,0.00191838,0.0146811,1427,400,5.67862,39.3003
210,624,5.65454,-38.9932,0.000613412,0.00345663,0.000959766,0.00375028,0.000319759,1.27388,0.00240071,0.017972,1434,400,5.65455,38.9932
217,624,5.65222,-38.6557,0.000445746,0.00410987,0.00120669,0.00447156,8.40542e-05,1.27958,0.00295342,0.0205901,1441,400,5.65223,38.6557
224,624,5.6438,-38.3168,0.000409881,0.00484842,0.00150783,0.00531219,-5.38921e-05,1.2724,0.00355956,0.0165441,1448,400,5.6438,38.3168
231,624,5.64539,-37.9788,0.000554777,0.00558432,0.00195095,0.00625236,-0.000113265,1.24089,0.0042065,0.0123656,1455,400,5.64545,37.9788
238,624,5.63489,-37.6101,0.000848824,0.00654725,0.00256154,0.00752942,-0.000133349,1.20466,0.00506465,0.0171128,1462,400,5.63483,37.6101
245,624,5.61462,-37.2576,0.00108307,0.00749181,0.00302103,0.00869137,-0.000116488,1.19282,0.00583346,0.0182075,1469,400,5.6146,37.2576
252,624,5.60059,-36.8551,0.00137247,0.00856414,0.00353281,0.0100092,-7.26059e-05,1.18252,0.00669714,0.0138421,1476,400,5.60056,36.8551
259,624,5.57239,-36.4447,0.0017069,0.00982659,0.00417237,0.0115883,-5.48554e-05,1.17126,0.00774392,0.00931645,1483,400,5.57234,36.4447
266,624,5.56799,-36.0294,0.00208088,0.0113688,0.00499189,0.0135429,-9.31718e-05,1.16005,0.00905979,0.0125647,1490,400,5.56803,36.0294
273,624,5.54443,-35.6031,0.00236745,0.0128871,0.0058044,0.0154604,-0.000205779,1.15351,0.0103762,0.0159211,1497,400,5.54443,35.6031
280,624,5.49231,-35.179,0.00321804,0.0142149,0.00635374,0.017119,0.00031392,1.14208,0.0113095,0.0151185,1504,400,5.49236,35.179
287,624,5.45288,-34.7485,0.00438682,0.0156445,0.00691625,0.018933,0.00109836,1.12697,0.0122723,0.0117455,1511,400,5.45289,34.7485
294,624,5.42505,-34.2842,0.00533033,0.0170601,0.00744154,0.0206701,0.00172033,1.11913,0.0132439,0.0106163,1518,400,5.4251,34.2842
301,624,5.39148,-33.7775,0.00639505,0.0182814,0.00777295,0.0221229,0.00255354,1.11179,0.0139754,0.0124407,1525,400,5.39148,33.7775
308,624,5.37524,-33.2804,0.00774912,0.0193078,0.00795514,0.0233613,0.00369562,1.09954,0.0145002,0.0164452,1532,400,5.37528,33.2804
315,624,5.39819,-32.7642,0.00928626,0.02027,0.00804311,0.0245174,0.00503893,1.08494,0.014951,0.020576,1539,400,5.39824,32.7642
322,624,5.36316,-32.2779,0.0108655,0.0206976,0.00806485,0.0252266,0.0063365,1.05911,0.0151538,0.0369371,1546,400,5.36321,32.2779
329,624,5.30078,-31.8025,0,0,0,0,0,0,0,-1,1553,400,5.30076,31.8025
336,624,5.27527,-30.9963,0,0,0,0,0,0,0,-1,1560,400,5.27529,30.9963
343,624,5.43835,-30.5031,0,0,0,0,0,0,0,-1,1567,400,5.43838,30.5031
350,624,1.99194,-7.29742,0,0,0,0,0,0,0,-1,1574,400,1.99198,7.29741
357,624,2.64075,-3.13092,0,0,0,0,0,0,0,-1,1581,400,2.64076,3.13091
364,624,3.16565,-4.9458,0,0,0,0,0,0,0,-1,1588,400,3.16564,4.94579
371,624,3.37561,-5.23529,0,0,0,0,0,0,0,-1,1595,400,3.37563,5.23529
378,624,1.50439,-5.22165,0,0,0,0,0,0,0,-1,1602,400,1.50438,5.22164
385,624,1.2301,-10.5866,0,0,0,0,0,0,0,-1,1609,400,1.2301,10.5866
392,624,4.26819,-5.14236,0,0,0,0,0,0,0,-1,1616,400,4.26818,5.14236
399,624,2.22168,-9.19293,0,0,0,0,0,0,0,-1,1623,400,2.22173,9.19294
406,624,2.68213,-9.91171,0,0,0,0,0,0,0,-1,1630,400,2.68213,9.91171
413,624,0,0,0,0,0,0,0,0,0,-1,1637,400,0,0
420,624,0,0,0,0,0,0,0,0,0,-1,1644,400,0,0
427,624,0,0,0,0,0,0,0,0,0,-1,1651,400,0,0
434,624,0,0,0,0,0,0,0,0,0,-1,1658,400,0,0
441,624,0,0,0,0,0,0,0,0,0,-1,1665,400,0,0
448,624,0,0,0,0,0,0,0,0,0,-1,1672,400,0,0
455,624,0,0,0,0,0,0,0,0,0,-1,1679,400,0,0
462,624,0,0,0,0,0,0,0,0,0,-1,1686,400,0,0
469,624,0,0,0,0,0,0,0,0,0,-1,1693,400,0,0
476,624,0,0,0,0,0,0,0,0,0,-1,1700,400,0,0
483,624,0,0,0,0,0,0,0,0,0,-1,1707,400,0,0
490,624,0,0,0,0,0,0,0,0,0,-1,1714,400,0,0
497,624,0,0,0,0,0,0,0,0,0,-1,1721,400,0,0
504,624,0,0,0,0,0,0,0,0,0,-1,1728,400,0,0
511,624,0,0,0,0,0,0,0,0,0,-1,1735,400,0,0
518,624,0,0,0,0,0,0,0,0,0,-1,1742,400,0,0
525,624,0,0,0,0,0,0,0,0,0,-1,1749,400,0,0
532,624,0,0,0,0,0,0,0,0,0,-1,1756,400,0,0
539,624,0,0,0,0,0,0,0,0,0,-1,1763,400,0,0
546,624,0,0,0,0,0,0,0,0,0,-1,1770,400,0,0
553,624,0,0,0,0,0,0,0,0,0,-1,1777,400,0,0
560,624,0,0,0,0,0,0,0,0,0,-1,1784,400,0,0
567,624,0,0,0,0,0,0,0,0,0,-1,1791,400,0,0
574,624,0,0,0,0,0,0,0,0,0,-1,1798,400,0,0
581,624,0,0,0,0,0,0,0,0,0,-1,1805,400,0,0
588,624,0,0,0,0,0,0,0,0,0,-1,1812,400,0,0
595,624,0,0,0,0,0,0,0,0,0,-1,1819,400,0,0
602,624,0,0,0,0,0,0,0,0,0,-1,1826,400,0,0
609,624,0,0,0,0,0,0,0,0,0,-1,1833,400,0,0
616,624,0,0,0,0,0,0,0,0,0,-1,1840,400,0,0
623,624,0,0,0,0,0,0,0,0,0,-1,1847,400,0,0
630,624,0,0,0,0,0,0,0,0,0,-1,1854,400,0,0
637,624,0,0,0,0,0,0,0,0,0,-1,1861,400,0,0
644,624,0,0,0,0,0,0,0,0,0,-1,1868,400,0,0
651,624,0,0,0,0,0,0,0,0,0,-1,1875,400,0,0
658,624,0,0,0,0,0,0,0,0,0,-1,1882,400,0,0
665,624,0,0,0,0,0,0,0,0,0,-1,1889,400,0,0
672,624,0,0,0,0,0,0,0,0,0,-1,1896,400,0,0
679,624,0,0,0,0,0,0,0,0,0,-1,1903,400,0,0
686,624,0,0,0,0,0,0,0,0,0,-1,1910,400,0,0
693,624,0,0,0,0,0,0,0,0,0,-1,1917,400,0,0
700,624,0,0,0,0,0,0,0,0,0,-1,1924,400,0,0
707,624,0,0,0,0,0,0,0,0,0,-1,1931,400,0,0
714,624,0,0,0,0,0,0,0,0,0,-1,1938,400,0,0
721,624,0,0,0,0,0,0,0,0,0,-1,1945,400,0,0
728,624,0,0,0,0,0,0,0,0,0,-1,1952,400,0,0
735,624,0,0,0,0,0,0,0,0,0,-1,1959,400,0,0
742,624,0,0,0,0,0,0,0,0,0,-1,1966,400,0,0
749,624,0,0,0,0,0,0,0,0,0,-1,1973,400,0,0
756,624,0,0,0,0,0,0,0,0,0,-1,1980,400,0,0
763,624,0,0,0,0,0,0,0,0,0,-1,1987,400,0,0
770,624,0,0,0,0,0,0,0,0,0,-1,1994,400,0,0
777,624,0,0,0,0,0,0,0,0,0,-1,2001,400,0,0
784,624,0,0,0,0,0,0,0,0,0,-1,2008,400,0,0
791,624,0,0,0,0,0,0,0,0,0,-1,2015,400,0,0
798,624,0,0,0,0,0,0,0,0,0,-1,2022,400,0,0
805,624,0,0,0,0,0,0,0,0,0,-1,2029,400,0,0
812,624,0,0,0,0,0,0,0,0,0,-1,2036,400,0,0
-700,617,0,0,0,0,0,0,0,0,0,-1,524,407,0,0
-693,617,0,0,0,0,0,0,0,0,0,-1,531,407,0,0
-686,617,0,0,0,0,0,0,0,0,0,-1,538,407,0,0
-679,617,0,0,0,0,0,0,0,0,0,-1,545,407,0,0
-672,617,0,0,0,0,0,0,0,0,0,-1,552,407,0,0
-665,617,0,0,0,0,0,0,0,0,0,-1,559,407,0,0
-658,617,0,0,0,0,0,0,0,0,0,-1,566,407,0,0
-651,617,0,0,0,0,0,0,0,0,0,-1,573,407,0,0
-644,617,0,0,0,0,0,0,0,0,0,-1,580,407,0,0
-637,617,0,0,0,0,0,0,0,0,0,-1,587,407,0,0
-630,617,0,0,0,0,0,0,0,0,0,-1,594,407,0,0
-623,617,0,0,0,0,0,0,0,0,0,-1,601,407,0,0
-616,617,0,0,0,0,0,0,0,0,0,-1,608,407,0,0
-609,617,0,0,0,0,0,0,0,0,0,-1,615,407,0,0
-602,617,0,0,0,0,0,0,0,0,0,-1,622,407,0,0
-595,617,0,0,0,0,0,0,0,0,0,-1,629,407,0,0
-588,617,0,0,0,0,0,0,0,0,0,-1,636,407,0,0
-581,617,0,0,0,0,0,0,0,0,0,-1,643,407,0,0
-574,617,0,0,0,0,0,0,0,0,0,-1,650,407,0,0
-567,617,0,0,0,0,0,0,0,0,0,-1,657,407,0,0
-560,617,0,0,0,0,0,0,0,0,0,-1,664,407,0,0
-553,617,0,0,0,0,0,0,0,0,0,-1,671,407,0,0
-546,617,0,0,0,0,0,0,0,0,0,-1,678,407,0,0
-539,617,0,0,0,0,0,0,0,0,0,-1,685,407,0,0
-532,617,0,0,0,0,0,0,0,0,0,-1,692,407,0,0
-525,617,0,0,0,0,0,0,0,0,0,-1,699,407,0,0
-518,617,0,0,0,0,0,0,0,0,0,-1,706,407,0,0
-511,617,0,0,0,0,0,0,0,0,0,-1,713,407,0,0
-504,617,0,0,0,0,0,0,0,0,0,-1,720,407,0,0
-497,617,0,0,0,0,0,0,0,0,0,-1,727,407,0,0
-490,617,0,0,0,0,0,0,0,0,0,-1,734,407,0,0
-483,617,0,0,0,0,0,0,0,0,0,-1,741,407,0,0
-476,617,0,0,0,0,0,0,0,0,0,-1,748,407,0,0
-469,617,0,0,0,0,0,0,0,0,0,-1,755,407,0,0
-462,617,0,0,0,0,0,0,0,0,0,-1,762,407,0,0
-455,617,0,0,0,0,0,0,0,0,0,-1,769,407,0,0
-448,617,0,0,0,0,0,0,0,0,0,-1,776,407,0,0
-441,617,0,0,0,0,0,0,0,0,0,-1,783,407,0,0
-434,617,0,0,0,0,0,0,0,0,0,-1,790,407,0,0
-427,617,0,0,0,0,0,0,0,0,0,-1,797,407,0,0
-420,617,0,0,0,0,0,0,0,0,0,-1,804,407,0,0
-413,617,0,0,0,0,0,0,0,0,0,-1,811,407,0,0
-406,617,0,0,0,0,0,0,0,0,0,-1,818,407,0,0
-399,617,0,0,0,0,0,0,0,0,0,-1,825,407,0,0
-392,617,0,0,0,0,0,0,0,0,0,-1,832,407,0,0
-385,617,0,0,0,0,0,0,0,0,0,-1,839,407,0,0
-378,617,0,0,0,0,0,0,0,0,0,-1,846,407,0,0
-371,617,0,0,0,0,0,0,0,0,0,-1,853,407,0,0
-364,617,0,0,0,0,0,0,0,0,0,-1,860,407,0,0
-357,617,0,0,0,0,0,0,0,0,0,-1,867,407,0,0
-350,617,0,0,0,0,0,0,0,0,0,-1,874,407,0,0
-343,617,0,0,0,0,0,0,0,0,0,-1,881,407,0,0
-336,617,0,0,0,0,0,0,0,0,0,-1,888,407,0,0
-329,617,0,0,0,0,0,0,0,0,0,-1,895,407,0,0
-322,617,0,0,0,0,0,0,0,0,0,-1,902,407,0,0
-315,617,0,0,0,0,0,0,0,0,0,-1,909,407,0,0
-308,617,0,0,0,0,0,0,0,0,0,-1,916,407,0,0
-301,617,4.52472,-26.171,0,0,0,0,0,0,0,-1,923,407,4.52473,26.171
-294,617,4.45184,-26.2752,0,0,0,0,0,0,0,-1,930,407,4.45182,26.2752
-287,617,4.33594,-26.3119,0,0,0,0,0,0,0,-1,937,407,4.33592,26.3119
-280,617,4.48065,-26.4772,0,0,0,0,0,0,0,-1,944,407,4.48068,26.4772
-273,617,5.05353,-26.9861,0,0,0,0,0,0,0,-1,951,407,5.0535,26.986
-266,617,5.33197,-27.7284,0,0,0,0,0,0,0,-1,958,407,5.33198,27.7284
-259,617,6.36328,-28.8583,0,0,0,0,0,0,0,-1,965,407,6.36327,28.8583
-252,617,5.29279,-29.6213,0,0,0,0,0,0,0,-1,972,407,5.29278,29.6213
-245,617,5.69885,-29.7336,0,0,0,0,0,0,0,-1,979,407,5.69883,29.7336
-238,617,4.94617,-30.1696,0,0,0,0,0,0,0,-1,986,407,4.94617,30.1697
-231,617,5.01532,-29.7999,0,0,0,0,0,0,0,-1,993,407,5.01533,29.7999
-224,617,5.00317,-30.6873,0,0,0,0,0,0,0,-1,1000,407,5.00315,30.6873
-217,617,5.1073,-31.3082,-0.00538874,0.024205,-0.00801472,0.0262362,-0.00741991,-1.32259,0.0204185,0.0484035,1007,407,5.10731,31.3082
-210,617,4.99664,-32.0063,-0.00401409,0.0220384,-0.00797584,0.0242862,-0.00626191,-1.29609,0.0186322,0.031761,1014,407,4.99663,32.0063
-203,617,4.89465,-32.5787,-0.00331634,0.0192945,-0.00684603,0.0212057,-0.00522761,-1.29855,0.016164,0.0224121,1021,407,4.89463,32.5787
-196,617,4.84204,-33.0417,-0.00284788,0.0172321,-0.00572387,0.0187491,-0.00436488,-1.31172,0.0141801,0.0189639,1028,407,4.84204,33.0417
-189,617,4.78625,-33.4741,-0.00217344,0.0156358,-0.00530644,0.017097,-0.00363465,-1.30209,0.012783,0.017248,1035,407,4.78628,33.4741
-182,617,4.80652,-33.9555,-0.00180714,0.0139992,-0.0043864,0.0151348,-0.00294281,-1.31745,0.0112004,0.0192556,1042,407,4.80647,33.9555
-175,617,4.78772,-34.3968,-0.00162373,0.0120032,-0.00339556,0.0128025,-0.00242296,-1.33963,0.00944678,0.0174065,1049,407,4.78773,34.3968
-168,617,4.75903,-34.8767,-0.00167483,0.0102677,-0.00243646,0.0107457,-0.00215278,-1.37709,0.00797878,0.0117426,1056,407,4.75902,34.8767
-161,617,4.72083,-35.3304,-0.00166646,0.00861084,-0.00165526,0.00887086,-0.00192647,-1.41498,0.00664974,0.0111211,1063,407,4.72079,35.3304
-154,617,4.67578,-35.7364,-0.00162187,0.00731963,-0.00104839,0.00744091,-0.00174315,-1.45563,0.0056323,0.0118003,1070,407,4.67576,35.7364
-147,617,4.63916,-36.1251,-0.0015565,0.00612847,-0.00065097,0.00618322,-0.00161126,-1.48689,0.00475119,0.0158828,1077,407,4.6392,36.1251
-140,617,4.63464,-36.5593,-0.00141649,0.00503517,-0.000473686,0.00506976,-0.00145109,-1.4979,0.00395333,0.0120433,1084,407,4.6347,36.5593
-133,617,4.62231,-36.945,-0.00126077,0.00383932,-0.000358307,0.00386437,-0.00128582,-1.501,0.0030952,0.0138152,1091,407,4.62226,36.945
-126,617,4.60425,-37.2662,-0.00101311,0.00300818,-0.000396769,0.00304696,-0.00105188,-1.47338,0.00245813,0.0140171,1098,407,4.60419,37.2662
-119,617,4.58716,-37.6377,-0.000637311,0.00230748,-0.000497443,0.00238924,-0.000719071,-1.40789,0.00187895,0.0141287,1105,407,4.5872,37.6377
-112,617,4.58899,-37.9911,-0.000275406,0.0017029,-0.000553429,0.00184719,-0.000419702,-1.31574,0.00139261,0.0157505,1112,407,4.58904,37.9911
-105,617,4.57751,-38.3331,5.99881e-05,0.00110888,-0.000627757,0.00140244,-0.000233564,-1.13339,0.00102175,0.0163578,1119,407,4.57757,38.3331
-98,617,4.58899,-38.659,0.000381112,0.000470366,-0.000663735,0.00109097,-0.000239495,-0.818966,0.000818905,0.0131311,1126,407,4.58901,38.659
-91,617,4.60291,-38.9817,0.00069736,-3.97976e-05,-0.00057606,0.00101266,-0.000355102,-0.500803,0.000819535,0.0190829,1133,407,4.60286,38.9817
-84,617,4.62732,-39.3332,0.00102233,-0.000404883,-0.000421079,0.0011373,-0.000519855,-0.266543,0.000978647,0.0198214,1140,407,4.62735,39.3332
-77,617,4.62012,-39.6261,0.00149,-0.000308927,-0.000170224,0.00150597,-0.000324893,-0.0935193,0.00112798,0.0153171,1147,407,4.62011,39.6261
-70,617,4.65613,-39.9026,0.00221249,-0.000136988,-5.25488e-05,0.00221366,-0.000138163,-0.0223513,0.00152392,0.0159287,1154,407,4.65607,39.9026
-63,617,4.69824,-40.17,0.00274064,-0.000370207,0.000116625,0.00274501,-0.000374573,0.0374199,0.00196679,0.0182082,1161,407,4.69821,40.17
-56,617,4.6604,-40.4245,0.00232763,-0.00116806,1.36321e-05,0.00232768,-0.00116811,0.00389962,0.00205498,0.0141428,1168,407,4.66035,40.4245
-49,617,4.66089,-40.7081,0.00167374,-0.00214597,-0.000225215,0.00168697,-0.0021592,-0.0586903,0.00222616,0.0106646,1175,407,4.66084,40.7081
-42,617,4.67285,-40.9639,0.00038965,-0.00335514,-0.000945022,0.000614617,-0.00358011,-0.233705,0.00261579,0.0106345,1182,407,4.67281,40.9639
-35,617,4.70898,-41.1519,-0.000940297,-0.00449943,-0.00158171,-0.000338967,-0.00510076,-0.363301,0.00329334,0.0154783,1189,407,4.70898,41.1519
-28,617,4.70801,-41.3243,-0.00172256,-0.00590011,-0.00201296,-0.000910474,-0.0067122,-0.383458,0.0042043,0.0193696,1196,407,4.70802,41.3243
-21,617,4.77466,-41.4799,-0.00180135,-0.00758631,-0.00200035,-0.00117704,-0.00821062,-0.302523,0.00512664,0.0151208,1203,407,4.77468,41.4799
-14,617,4.80103,-41.6709,-0.00179738,-0.00933785,-0.00227543,-0.00116395,-0.00997127,-0.271503,0.0062955,0.0164908,1210,407,4.80104,41.6709
-7,617,4.77991,-41.8072,-0.0012479,-0.0111516,-0.00277882,-0.000521483,-0.011878,-0.255689,0.00775068,0.0187894,1217,407,4.77986,41.8072
0,617,4.84253,-41.924,-0.000151547,-0.0137588,-0.00290061,0.000440967,-0.0143513,-0.2015,0.00971785,0.0164446,1224,407,4.8425,41.924
7,617,4.91284,-42.0821,0.00113529,-0.0159074,-0.0025122,0.00149789,-0.01627,-0.143345,0.0113789,0.0113866,1231,407,4.91284,42.0821
14,617,4.94202,-42.2198,0.00247016,-0.0187453,-0.00199448,0.00265604,-0.0189312,-0.0929257,0.0135929,0.0130326,1238,407,4.94202,42.2198
21,617,4.99158,-42.3003,0.00454248,-0.0211894,-0.00106655,0.00458661,-0.0212335,-0.041354,0.0159065,0.0125245,1245,407,4.9916,42.3003
28,617,5.0437,-42.4073,0.0070382,-0.0250987,-0.000512451,0.00704637,-0.0251069,-0.0159405,0.0195155,0.0116881,1252,407,5.04373,42.4073
35,617,5.01147,-42.4879,0.00904356,-0.0274018,0.000461374,0.0090494,-0.0274077,0.0126566,0.02192,0.0145843,1259,407,5.01148,42.4879
42,617,5.0979,-42.473,0.0109656,-0.0296418,0.00141234,0.0110147,-0.0296909,0.0347244,0.0243119,0.0220617,1266,407,5.09785,42.473
49,617,5.16101,-42.4878,0.012844,-0.0317084,0.00234225,0.0129668,-0.0318312,0.0523803,0.0266176,0.0215506,1273,407,5.16104,42.4878
56,617,5.21204,-42.5277,0.0142133,-0.0331031,0.00320758,0.0144297,-0.0333195,0.0673793,0.028278,0.0161453,1280,407,5.21209,42.5277
63,617,5.28333,-42.5456,0.0152185,-0.0335152,0.0038988,0.0155284,-0.0338251,0.0793297,0.0291397,0.0125959,1287,407,5.28333,42.5456
70,617,5.30432,-42.5494,0.0157645,-0.0331124,0.00443876,0.0161643,-0.0335122,0.0898357,0.0292579,0.0170329,1294,407,5.30433,42.5494
77,617,5.37585,-42.5136,0.0154912,-0.0315469,0.00461892,0.0159404,-0.0319961,0.0969613,0.0281889,0.0137571,1301,407,5.37585,42.5136
84,617,5.45435,-42.4743,0.0148309,-0.0293338,0.00449487,0.0152838,-0.0297866,0.100404,0.0264666,0.0108658,1308,407,5.45441,42.4743
91,617,5.48083,-42.3975,0.0139932,-0.026795,0.00436161,0.0144544,-0.0272561,0.105346,0.0244568,0.0106536,1315,407,5.48078,42.3975
98,617,5.50513,-42.3277,0.0127111,-0.023943,0.00435576,0.0132216,-0.0244535,0.116669,0.0220716,0.0122202,1322,407,5.50514,42.3277
105,617,5.56055,-42.2573,0.0113201,-0.0202032,0.00392202,0.0118007,-0.0206839,0.12194,0.0189873,0.0145303,1329,407,5.5606,42.2573
112,617,5.61597,-42.1542,0.0102507,-0.0172507,0.00301662,0.0105777,-0.0175777,0.107979,0.0164222,0.0160777,1336,407,5.61602,42.1542
119,617,5.64575,-42.0213,0.0093917,-0.013659,0.00214321,0.00958928,-0.0138566,0.0919279,0.013611,0.0178683,1343,407,5.64575,42.0213
126,617,5.70215,-41.875,0.00767466,-0.011143,0.000893998,0.00771704,-0.0111854,0.0473663,0.0109744,0.0211596,1350,407,5.7021,41.875
133,617,5.73157,-41.6998,0.0059191,-0.00687036,0.000685678,0.00595576,-0.00690702,0.0534087,0.0074331,0.0194542,1357,407,5.73162,41.6998
140,617,5.77625,-41.5167,0.00570422,-0.0070394,-0.000236829,0.00570861,-0.0070438,-0.0185756,0.00737605,0.0167245,1364,407,5.77628,41.5167
147,617,5.76746,-41.301,0.0054044,-0.00674454,-0.000757078,0.0054514,-0.00679153,-0.0619967,0.00708256,0.0199868,1371,407,5.7674,41.301
154,617,5.78394,-41.1178,0.00514189,-0.00630102,-0.00106032,0.00523931,-0.00639844,-0.0916223,0.00673016,0.0237482,1378,407,5.78395,41.1178
161,617,5.83386,-40.9403,0.00488587,-0.00546848,-0.00145002,0.0050851,-0.0056677,-0.136541,0.00621117,0.0247614,1385,407,5.8339,40.9403
168,617,5.90479,-40.7691,0.00452946,-0.00473063,-0.00156887,0.00478804,-0.00498921,-0.163351,0.0056453,0.0234072,1392,407,5.90482,40.7691
175,617,5.92859,-40.5356,0.00399066,-0.00382313,-0.00177812,0.00437626,-0.00420873,-0.213554,0.00495686,0.019425,1399,407,5.92863,40.5356
182,617,5.95435,-40.225,0.00349741,-0.00277296,-0.0016356,0.0038984,-0.00317396,-0.240424,0.00409036,0.0125152,1406,407,5.95431,40.225
189,617,5.95276,-39.925,0.00287363,-0.00162187,-0.00154561,0.00335375,-0.00210199,-0.301185,0.00317739,0.0120068,1413,407,5.95279,39.9251
196,617,5.94348,-39.6324,0.00257291,-0.000538991,-0.00106768,0.002904,-0.00087008,-0.300699,0.002282,0.0163648,1420,407,5.94347,39.6324
203,617,5.95166,-39.3349,0.00227891,0.000555749,-0.000608083,0.00247188,0.000362775,-0.307296,0.00154129,0.0159986,1427,407,5.95163,39.3349
210,617,5.97888,-39.004,0.00182845,0.00134534,-0.00016498,0.00187941,0.00129438,-0.29961,0.00111054,0.0144501,1434,407,5.97892,39.004
217,617,5.97827,-38.6396,0.00145376,0.00209266,0.00023309,0.00216866,0.00137776,1.25562,0.00126727,0.0191476,1441,407,5.97833,38.6395
224,617,5.97656,-38.327,0.00120796,0.00288959,0.000648502,0.00311062,0.000986923,1.24231,0.00183546,0.0190928,1448,407,5.97651,38.327
231,617,5.99146,-38.0016,0.00108576,0.00359954,0.00110706,0.00401756,0.00066773,1.20975,0.00248587,0.0146529,1455,407,5.99141,38.0016
238,617,5.99316,-37.6405,0.00115781,0.00443335,0.00163032,0.00510648,0.000484686,1.17924,0.00325481,0.0157009,1462,407,5.99315,37.6405
245,617,6.00732,-37.2965,0.00126847,0.00524428,0.00204049,0.00610512,0.000407622,1.17157,0.00394124,0.0132532,1469,407,6.00732,37.2965
252,617,5.98315,-36.8743,0.00140847,0.00615729,0.00247485,0.00721256,0.000353199,1.16774,0.00469507,0.014175,1476,407,5.98314,36.8743
259,617,5.95032,-36.4445,0.00155254,0.00717515,0.00299696,0.00847301,0.000254681,1.16212,0.00556572,0.0117913,1483,407,5.95028,36.4445
266,617,5.94519,-36.0107,0.00172884,0.00837666,0.00364337,0.00998453,0.000120963,1.15519,0.0066164,0.0134152,1490,407,5.94513,36.0107
273,617,5.92554,-35.5933,0.00185931,0.00958984,0.00428817,0.0114977,-4.85205e-05,1.15219,0.00768134,0.0146929,1497,407,5.92554,35.5933
280,617,5.89209,-35.1885,0.00238339,0.0107012,0.00477601,0.0128753,0.000209304,1.14362,0.00851463,0.0138656,1504,407,5.89204,35.1885
287,617,5.8656,-34.7378,0.00315004,0.0118979,0.00527733,0.0143783,0.000669667,1.13143,0.00937028,0.0127807,1511,407,5.86555,34.7378
294,617,5.85522,-34.2862,0.00374648,0.0130586,0.005736,0.0157904,0.00101467,1.12632,0.0102055,0.010233,1518,407,5.85518,34.2862
301,617,5.83521,-33.8295,0.00440839,0.0140564,0.00605455,0.0169738,0.00149104,1.12178,0.010853,0.00835763,1525,407,5.83521,33.8295
308,617,5.80127,-33.3771,0.00526332,0.0149086,0.00628217,0.0180058,0.00216614,1.11276,0.0113509,0.00879017,1532,407,5.80132,33.3771
315,617,5.77515,-32.9227,0.00622095,0.0157491,0.00645468,0.0190074,0.00296259,1.10331,0.0118086,0.00972701,1539,407,5.77518,32.9227
322,617,5.7229,-32.4165,0.00716543,0.0161912,0.0065716,0.0196502,0.00370635,1.08628,0.0120561,0.0146959,1546,407,5.72292,32.4165
329,617,5.68286,-31.8955,0.00810055,0.016534,0.00652745,0.0200883,0.00454629,1.07218,0.0121634,0.0184113,1553,407,5.68284,31.8955
336,617,5.73608,-31.2584,0.00881541,0.0166156,0.00629718,0.0201226,0.0053084,1.06266,0.0120422,0.0314052,1560,407,5.73604,31.2584
343,617,5.60217,-30.8386,0,0,0,0,0,0,0,-1,1567,407,5.60214,30.8386
350,617,5.61206,-30.2926,0,0,0,0,0,0,0,-1,1574,407,5.61211,30.2926
357,617,2.1748,-7.16504,0,0,0,0,0,0,0,-1,1581,407,2.1748,7.16505
364,617,2.30127,-7.60257,0,0,0,0,0,0,0,-1,1588,407,2.30125,7.60258
371,617,2.60266,-6.20667,0,0,0,0,0,0,0,-1,1595,407,2.60261,6.20668
378,617,1.56921,-10.3601,0,0,0,0,0,0,0,-1,1602,407,1.56918,10.3601
385,617,1.74146,-10.3561,0,0,0,0,0,0,0,-1,1609,407,1.7414,10.3561
392,617,1.96936,-5.10449,0,0,0,0,0,0,0,-1,1616,407,1.96931,5.10451
399,617,2.48889,-5.81256,0,0,0,0,0,0,0,-1,1623,407,2.48888,5.81255
406,617,3.01465,-6.51642,0,0,0,0,0,0,0,-1,1630,407,3.01461,6.51643
413,617,3.6427,-7.2074,0,0,0,0,0,0,0,-1,1637,407,3.64274,7.20739
420,617,3.42737,-4.47391,0,0,0,0,0,0,0,-1,1644,407,3.42737,4.47391
427,617,0,0,0,0,0,0,0,0,0,-1,1651,407,0,0
434,617,0,0,0,0,0,0,0,0,0,-1,1658,407,0,0
441,617,0,0,0,0,0,0,0,0,0,-1,1665,407,0,0
448,617,0,0,0,0,0,0,0,0,0,-1,1672,407,0,0
455,617,0,0,0,0,0,0,0,0,0,-1,1679,407,0,0
462,617,0,0,0,0,0,0,0,0,0,-1,1686,407,0,0
469,617,0,0,0,0,0,0,0,0,0,-1,1693,407,0,0
476,617,0,0,0,0,0,0,0,0,0,-1,1700,407,0,0
483,617,0,0,0,0,0,0,0,0,0,-1,1707,407,0,0
490,617,0,0,0,0,0,0,0,0,0,-1,1714,407,0,0
497,617,0,0,0,0,0,0,0,0,0,-1,1721,407,0,0
504,617,0,0,0,0,0,0,0,0,0,-1,1728,407,0,0
511,617,0,0,0,0,0,0,0,0,0,-1,1735,407,0,0
518,617,0,0,0,0,0,0,0,0,0,-1,1742,407,0,0
525,617,0,0,0,0,0,0,0,0,0,-1,1749,407,0,0
532,617,0,0,0,0,0,0,0,0,0,-1,1756,407,0,0
539,617,0,0,0,0,0,0,0,0,0,-1,1763,407,0,0
546,617,0,0,0,0,0,0,0,0,0,-1,1770,407,0,0
553,617,0,0,0,0,0,0,0,0,0,-1,1777,407,0,0
560,617,0,0,0,0,0,0,0,0,0,-1,1784,407,0,0
567,617,0,0,0,0,0,0,0,0,0,-1,1791,407,0,0
574,617,0,0,0,0,0,0,0,0,0,-1,1798,407,0,0
581,617,0,0,0,0,0,0,0,0,0,-1,1805,407,0,0
588,617,0,0,0,0,0,0,0,0,0,-1,1812,407,0,0
595,617,0,0,0,0,0,0,0,0,0,-1,1819,407,0,0
602,617,0,0,0,0,0,0,0,0,0,-1,1826,407,0,0
609,617,0,0,0,0,0,0,0,0,0,-1,1833,407,0,0
616,617,0,0,0,0,0,0,0,0,0,-1,1840,407,0,0
623,617,0,0,0,0,0,0,0,0,0,-1,1847,407,0,0
630,617,0,0,0,0,0,0,0,0,0,-1,1854,407,0,0
637,617,0,0,0,0,0,0,0,0,0,-1,1861,407,0,0
644,617,0,0,0,0,0,0,0,0,0,-1,1868,407,0,0
651,617,0,0,0,0,0,0,0,0,0,-1,1875,407,0,0
658,617,0,0,0,0,0,0,0,0,0,-1,1882,407,0,0
665,617,0,0,0,0,0,0,0,0,0,-1,1889,407,0,0
672,617,0,0,0,0,0,0,0,0,0,-1,1896,407,0,0
679,617,0,0,0,0,0,0,0,0,0,-1,1903,407,0,0
686,617,0,0,0,0,0,0,0,0,0,-1,1910,407,0,0
693,617,0,0,0,0,0,0,0,0,0,-1,1917,407,0,0
700,617,0,0,0,0,0,0,0,0,0,-1,1924,407,0,0
707,617,0,0,0,0,0,0,0,0,0,-1,1931,407,0,0
714,617,0,0,0,0,0,0,0,0,0,-1,1938,407,0,0
721,617,0,0,0,0,0,0,0,0,0,-1,1945,407,0,0
728,617,0,0,0,0,0,0,0,0,0,-1,1952,407,0,0
735,617,0,0,0,0,0,0,0,0,0,-1,1959,407,0,0
742,617,0,0,0,0,0,0,0,0,0,-1,1966,407,0,0
749,617,0,0,0,0,0,0,0,0,0,-1,1973,407,0,0
756,617,0,0,0,0,0,0,0,0,0,-1,1980,407,0,0
763,617,0,0,0,0,0,0,0,0,0,-1,1987,407,0,0
770,617,0,0,0,0,0,0,0,0,0,-1,1994,407,0,0
777,617,0,0,0,0,0,0,0,0,0,-1,2001,407,0,0
784,617,0,0,0,0,0,0,0,0,0,-1,2008,407,0,0
791,617,0,0,0,0,0,0,0,0,0,-1,2015,407,0,0
798,617,0,0,0,0,0,0,0,0,0,-1,2022,407,0,0
805,617,0,0,0,0,0,0,0,0,0,-1,2029,407,0,0
812,617,0,0,0,0,0,0,0,0,0,-1,2036,407,0,0
-700,610,0,0,0,0,0,0,0,0,0,-1,524,414,0,0
-693,610,0,0,0,0,0,0,0,0,0,-1,531,414,0,0
-686,610,0,0,0,0,0,0,0,0,0,-1,538,414,0,0
-679,610,0,0,0,0,0,0,0,0,0,-1,545,414,0,0
-672,610,0,0,0,0,0,0,0,0,0,-1,552,414,0,0
-665,610,0,0,0,0,0,0,0,0,0,-1,559,414,0,0
-658,610,0,0,0,0,0,0,0,0,0,-1,566,414,0,0
-651,610,0,0,0,0,0,0,0,0,0,-1,573,414,0,0
-644,610,0,0,0,0,0,0,0,0,0,-1,580,414,0,0
-637,610,0,0,0,0,0,0,0,0,0,-1,587,414,0,0
-630,610,0,0,0,0,0,0,0,0,0,-1,594,414,0,0
-623,610,0,0,0,0,0,0,0,0,0,-1,601,414,0,0
-616,610,0,0,0,0,0,0,0,0,0,-1,608,414,0,0
-609,610,0,0,0,0,0,0,0,0,0,-1,615,414,0,0
-602,610,0,0,0,0,0,0,0,0,0,-1,622,414,0,0
-595,610,0,0,0,0,0,0,0,0,0,-1,629,414,0,0
-588,610,0,0,0,0,0,0,0,0,0,-1,636,414,0,0
-581,610,0,0,0,0,0,0,0,0,0,-1,643,414,0,0
-574,610,0,0,0,0,0,0,0,0,0,-1,650,414,0,0
-567,610,0,0,0,0,0,0,0,0,0,-1,657,414,0,0
-560,610,0,0,0,0,0,0,0,0,0,-1,664,414,0,0
-553,610,0,0,0,0,0,0,0,0,0,-1,671,414,0,0
-546,610,0,0,0,0,0,0,0,0,0,-1,678,414,0,0
-539,610,0,0,0,0,0,0,0,0,0,-1,685,414,0,0
-532,610,0,0,0,0,0,0,0,0,0,-1,692,414,0,0
-525,610,0,0,0,0,0,0,0,0,0,-1,699,414,0,0
-518,610,0,0,0,0,0,0,0,0,0,-1,706,414,0,0
-511,610,0,0,0,0,0,0,0,0,0,-1,713,414,0,0
-504,610,0,0,0,0,0,0,0,0,0,-1,720,414,0,0
-497,610,0,0,0,0,0,0,0,0,0,-1,727,414,0,0
-490,610,0,0,0,0,0,0,0,0,0,-1,734,414,0,0
-483,610,0,0,0,0,0,0,0,0,0,-1,741,414,0,0
-476,610,0,0,0,0,0,0,0,0,0,-1,748,414,0,0
-469,610,0,0,0,0,0,0,0,0,0,-1,755,414,0,0
-462,610,0,0,0,0,0,0,0,0,0,-1,762,414,0,0
-455,610,0,0,0,0,0,0,0,0,0,-1,769,414,0,0
-448,610,0,0,0,0,0,0,0,0,0,-1,776,414,0,0
-441,610,0,0,0,0,0,0,0,0,0,-1,783,414,0,0
-434,610,0,0,0,0,0,0,0,0,0,-1,790,414,0,0
-427,610,0,0,0,0,0,0,0,0,0,-1,797,414,0,0
-420,610,0,0,0,0,0,0,0,0,0,-1,804,414,0,0
-413,610,0,0,0,0,0,0,0,0,0,-1,811,414,0,0
-406,610,0,0,0,0,0,0,0,0,0,-1,818,414,0,0
-399,610,0,0,0,0,0,0,0,0,0,-1,825,414,0,0
-392,610,0,0,0,0,0,0,0,0,0,-1,832,414,0,0
-385,610,0,0,0,0,0,0,0,0,0,-1,839,414,0,0
-378,610,0,0,0,0,0,0,0,0,0,-1,846,414,0,0
-371,610,0,0,0,0,0,0,0,0,0,-1,853,414,0,0
-364,610,0,0,0,0,0,0,0,0,0,-1,860,414,0,0
-357,610,0,0,0,0,0,0,0,0,0,-1,867,414,0,0
-350,610,0,0,0,0,0,0,0,0,0,-1,874,414,0,0
-343,610,0,0,0,0,0,0,0,0,0,-1,881,414,0,0
-336,610,0,0,0,0,0,0,0,0,0,-1,888,414,0,0
-329,610,0,0,0,0,0,0,0,0,0,-1,895,414,0,0
-322,610,0,0,0,0,0,0,0,0,0,-1,902,414,0,0
-315,610,7.68475,-21.5402,0,0,0,0,0,0,0,-1,909,414,7.68475,21.5402
-308,610,3.97211,-23.4133,0,0,0,0,0,0,0,-1,916,414,3.9721,23.4133
-301,610,4.01996,-23.7828,0,0,0,0,0,0,0,-1,923,414,4.01993,23.7828
-294,610,3.85504,-23.923,0,0,0,0,0,0,0,-1,930,414,3.85503,23.923
-287,610,3.32306,-24.1302,0,0,0,0,0,0,0,-1,937,414,3.32303,24.1302
-280,610,3.29846,-24.3871,0,0,0,0,0,0,0,-1,944,414,3.29846,24.3871
-273,610,5.23193,-26.1248,0,0,0,0,0,0,0,-1,951,414,5.23192,26.1248
-266,610,5.42297,-27.9453,0,0,0,0,0,0,0,-1,958,414,5.42299,27.9454
-259,610,4.32483,-29.5739,0,0,0,0,0,0,0,-1,965,414,4.32482,29.574
-252,610,4.74365,-29.5241,0,0,0,0,0,0,0,-1,972,414,4.74363,29.5241
-245,610,5.05865,-29.6271,-0.00748762,0.0206268,-0.00521277,0.0215622,-0.00842301,-1.39324,0.0178574,0.0447304,979,414,5.05864,29.6271
-238,610,4.71289,-30.1085,-0.00708929,0.021198,-0.0053985,0.0221932,-0.00808456,-1.38848,0.0181024,0.0471671,986,414,4.71291,30.1085
-231,610,4.56329,-30.1938,-0.00636452,0.0210404,-0.00569995,0.0221786,-0.00750277,-1.37369,0.0178211,0.0422967,993,414,4.56328,30.1938
-224,610,4.55383,-30.9344,-0.00526973,0.0202834,-0.00599192,0.0216186,-0.006605,-1.35153,0.0170461,0.0298912,1000,414,4.55382,30.9344
-217,610,4.56207,-31.547,-0.00403377,0.0188181,-0.00619468,0.0203893,-0.00560499,-1.32239,0.0157962,0.0186004,1007,414,4.56206,31.547
-210,610,4.51855,-32.1426,-0.00307646,0.0171379,-0.00614339,0.0188585,-0.00479706,-1.29772,0.0144394,0.0129389,1014,414,4.51853,32.1427
-203,610,4.49304,-32.6519,-0.00253138,0.0149918,-0.00539544,0.0165198,-0.00405941,-1.29482,0.0125865,0.0149804,1021,414,4.49309,32.652
-196,610,4.46069,-33.1101,-0.0020922,0.0132585,-0.00460935,0.0145362,-0.0033699,-1.30039,0.0109877,0.0147044,1028,414,4.46074,33.1101
-189,610,4.43787,-33.5594,-0.00147072,0.011818,-0.00428627,0.0130806,-0.0027333,-1.28433,0.0097599,0.0115376,1035,414,4.43785,33.5594
-182,610,4.40771,-34.0089,-0.000936569,0.010288,-0.00353447,0.0113082,-0.0019568,-1.28978,0.0082686,0.0122205,1042,414,4.40768,34.0089
-175,610,4.39282,-34.4475,-0.000666986,0.00826555,-0.00270988,0.00902336,-0.0014248,-1.29811,0.00654243,0.0140136,1049,414,4.39277,34.4475
-168,610,4.35095,-34.8889,-0.000731395,0.00637812,-0.00192473,0.00686575,-0.00121902,-1.32267,0.00503296,0.0124772,1056,414,4.35099,34.8889
-161,610,4.32397,-35.3524,-0.000818916,0.00453647,-0.00128739,0.00482987,-0.00111232,-1.34672,0.00364767,0.0116814,1063,414,4.32392,35.3524
-154,610,4.30225,-35.7491,-0.000946681,0.00295738,-0.000787025,0.00311007,-0.00109937,-1.37917,0.00252104,0.0146313,1070,414,4.30219,35.7491
-147,610,4.2749,-36.1194,-0.0011179,0.00141376,-0.000451338,0.00149182,-0.00119596,-1.39955,0.00155492,0.0160044,1077,414,4.27485,36.1193
-140,610,4.27283,-36.5409,-0.00127365,-4.88945e-05,-0.000293533,1.78216e-05,-0.00134036,-1.34731,0.000899576,0.0127744,1084,414,4.27283,36.5409
-133,610,4.26013,-36.9137,-0.00140267,-0.00149197,-0.00019495,-0.00124733,-0.00164732,-0.672823,0.000992134,0.0142577,1091,414,4.26014,36.9137
-126,610,4.25488,-37.2596,-0.00141087,-0.00252418,-0.000227218,-0.00136628,-0.00256877,-0.19377,0.00148408,0.0122382,1098,414,4.25491,37.2595
-119,610,4.26233,-37.6305,-0.00125328,-0.00334353,-0.000315902,-0.00120658,-0.00339023,-0.146766,0.00198426,0.0104291,1105,414,4.26235,37.6305
-112,610,4.2406,-37.9776,-0.00102138,-0.00396421,-0.000379227,-0.000973296,-0.00401229,-0.12612,0.00241667,0.0183581,1112,414,4.2406,37.9776
-105,610,4.21265,-38.3213,-0.000775562,-0.0044469,-0.000438444,-0.000723928,-0.00449853,-0.117227,0.00278921,0.0187071,1119,414,4.21259,38.3213
-98,610,4.24548,-38.6614,-0.000522707,-0.00479316,-0.000387368,-0.000487854,-0.00482801,-0.0897331,0.00306901,0.0126883,1126,414,4.24554,38.6614
-91,610,4.26282,-38.9878,-0.000107732,-0.00483359,-0.000262645,-9.31798e-05,-0.00484814,-0.055349,0.00320149,0.013948,1133,414,4.26288,38.9878
-84,610,4.29016,-39.3074,0.000426868,-0.00459404,-0.000188395,0.000433927,-0.0046011,-0.0374518,0.0032218,0.0156133,1140,414,4.29019,39.3074
-77,610,4.30005,-39.6269,0.00180887,-0.00328404,0.000311781,0.00182788,-0.00330306,0.0609154,0.00300288,0.0125823,1147,414,4.30006,39.6269
-70,610,4.35754,-39.9298,0.00386565,-0.00191424,0.000399782,0.00389317,-0.00194176,0.0687314,0.00343103,0.0146653,1154,414,4.35749,39.9298
-63,610,4.38708,-40.1867,0.00462179,-0.0018176,0.000536267,0.00466614,-0.00186195,0.0825217,0.00388318,0.0146104,1161,414,4.38713,40.1867
-56,610,4.40259,-40.4174,0.00332172,-0.00273545,-2.27755e-06,0.00332173,-0.00273546,-0.000376009,0.00350257,0.013448,1168,414,4.40264,40.4174
-49,610,4.42004,-40.6649,0.00168776,-0.00390498,-0.000773264,0.00179271,-0.00400992,-0.134891,0.0034307,0.0126012,1175,414,4.42004,40.6649
-42,610,4.43677,-40.9182,-0.000927689,-0.0055605,-0.00225668,-1.01558e-05,-0.00647803,-0.38617,0.00431531,0.0143973,1182,414,4.43671,40.9182
-35,610,4.49268,-41.1225,-0.00332243,-0.00695916,-0.00336306,-0.00131763,-0.00896396,-0.537566,0.00558878,0.0157171,1189,414,4.49264,41.1225
-28,610,4.55591,-41.3054,-0.00436753,-0.00907111,-0.00408603,-0.00200482,-0.0114338,-0.524267,0.00704995,0.014362,1196,414,4.55593,41.3054
-21,610,4.61365,-41.4449,-0.00416809,-0.0113491,-0.00404365,-0.00235093,-0.0131662,-0.422343,0.00810827,0.0125595,1203,414,4.61368,41.4449
-14,610,4.64185,-41.628,-0.00388442,-0.0136855,-0.00439105,-0.00220494,-0.015365,-0.36531,0.00959317,0.0130997,1210,414,4.64187,41.6279
-7,610,4.67126,-41.779,-0.00294223,-0.0160894,-0.00493168,-0.00129793,-0.0177337,-0.321824,0.0114144,0.0150775,1217,414,4.67127,41.779
0,610,4.71497,-41.9054,-0.00135215,-0.0194876,-0.00494154,-9.30931e-05,-0.0207467,-0.249482,0.0138002,0.0122274,1224,414,4.71502,41.9054
7,610,4.78064,-42.0606,0.000414202,-0.0223581,-0.00421276,0.00116855,-0.0231124,-0.177186,0.0158122,0.0133166,1231,414,4.78062,42.0606
14,610,4.90308,-42.1466,0.0023094,-0.0260667,-0.00334833,0.00269914,-0.0264564,-0.115878,0.0186027,0.0172974,1238,414,4.90309,42.1466
21,610,4.96069,-42.2016,0.00504823,-0.0292344,-0.00196626,0.00516064,-0.0293468,-0.0571046,0.0214923,0.016437,1245,414,4.96072,42.2016
28,610,4.94531,-42.3138,0.00823934,-0.0339366,-0.000957554,0.00826107,-0.0339583,-0.0226882,0.0258366,0.0169163,1252,414,4.94536,42.3138
35,610,5.10437,-42.3551,0.0108846,-0.0368365,0.000565933,0.0108913,-0.0368432,0.011857,0.0288853,0.0195155,1259,414,5.10437,42.3551
42,610,5.12073,-42.3806,0.0134017,-0.039573,0.00209861,0.0134847,-0.039656,0.0395327,0.0318969,0.0178692,1266,414,5.12069,42.3806
49,610,5.14587,-42.4721,0.0158463,-0.0419892,0.00364823,0.0160755,-0.0422184,0.0627479,0.0347659,0.0172876,1273,414,5.14588,42.4721
56,610,5.23315,-42.4842,0.0175984,-0.0433778,0.00511626,0.0180247,-0.0438041,0.0831313,0.0367166,0.0176028,1280,414,5.2332,42.4842
63,610,5.23511,-42.4536,0.0188584,-0.0433481,0.00632741,0.0194955,-0.0439852,0.100347,0.0375487,0.0251644,1287,414,5.23511,42.4536
70,610,5.32349,-42.454,0.0195604,-0.0421539,0.00736961,0.0204283,-0.0430217,0.117219,0.037399,0.0326461,1294,414,5.32343,42.454
77,610,5.38501,-42.4316,0.0192797,-0.0396381,0.0079739,0.0203398,-0.0406982,0.132172,0.0358877,0.0362128,1301,414,5.38502,42.4316
84,610,5.52856,-42.3851,0.0185475,-0.036404,0.00820829,0.0197474,-0.0376039,0.145153,0.0336425,0.0348199,1308,414,5.52858,42.3851
91,610,5.65149,-42.3525,0.0176375,-0.0328025,0.00838308,0.0189942,-0.0341593,0.160454,0.0311017,0.028476,1315,414,5.65147,42.3525
98,610,5.7041,-42.3103,0.016257,-0.028909,0.00858699,0.0178344,-0.0304865,0.181679,0.0282151,0.025136,1322,414,5.70406,42.3103
105,610,5.71619,-42.2058,0.0147744,-0.0241659,0.00826048,0.0164542,-0.0258458,0.200624,0.0246217,0.0210932,1329,414,5.71614,42.2058
112,610,5.75195,-42.1026,0.0136768,-0.0203602,0.00727642,0.0151671,-0.0218505,0.202018,0.0214879,0.0134744,1336,414,5.75196,42.1026
119,610,5.77283,-41.988,0.0126721,-0.0159183,0.00625768,0.0139818,-0.017228,0.206309,0.0180514,0.0188152,1343,414,5.77284,41.988
126,610,5.82751,-41.8572,0.0106208,-0.0128791,0.00463118,0.0115005,-0.0137589,0.187724,0.0146029,0.0276543,1350,414,5.82755,41.8572
133,610,5.91138,-41.6901,0.00842725,-0.00797559,0.0040295,0.00936368,-0.00891201,0.228339,0.0105525,0.0218986,1357,414,5.91143,41.6901
140,610,6.00061,-41.5113,0.008015,-0.00840141,0.00241379,0.00836255,-0.00874896,0.143004,0.00988017,0.0180669,1364,414,6.00064,41.5113
147,610,5.96973,-41.2902,0.00761142,-0.00833854,0.00113402,0.00769164,-0.00841876,0.070625,0.0093045,0.0189061,1371,414,5.96977,41.2902
154,610,5.97424,-41.077,0.00734596,-0.00832904,0.000116225,0.00734683,-0.0083299,0.00741415,0.00905689,0.0229856,1378,414,5.97426,41.077
161,610,6.04834,-40.8912,0.00713619,-0.00771341,-0.00104585,0.00720949,-0.00778671,-0.0699694,0.0086602,0.0265064,1385,414,6.04835,40.8912
168,610,6.10352,-40.7029,0.00674581,-0.00742024,-0.00177658,0.00696521,-0.00763964,-0.122876,0.00843511,0.0265023,1392,414,6.10353,40.7029
175,610,6.16699,-40.479,0.00596752,-0.00685628,-0.00278089,0.0065446,-0.00743336,-0.204611,0.00807561,0.0235985,1399,414,6.16695,40.479
182,610,6.20667,-40.1994,0.00531868,-0.00563847,-0.0027512,0.00597068,-0.00629047,-0.232693,0.00707978,0.0173638,1406,414,6.2067,40.1994
189,610,6.23657,-39.9084,0.00441165,-0.00429881,-0.00295917,0.00532184,-0.00520901,-0.298401,0.00608011,0.0153183,1413,414,6.23657,39.9084
196,610,6.24609,-39.6318,0.00403359,-0.00296651,-0.00237262,0.00476198,-0.0036949,-0.297864,0.00489552,0.0154785,1420,414,6.24611,39.6318
203,610,6.25232,-39.3427,0.00364515,-0.00161865,-0.00183584,0.00422218,-0.00219567,-0.304535,0.00376642,0.0161914,1427,414,6.25238,39.3427
210,610,6.2843,-39.0379,0.00304968,-0.000608627,-0.00129239,0.00346018,-0.00101913,-0.307555,0.00271112,0.0114577,1434,414,6.28434,39.0379
217,610,6.32983,-38.6818,0.00246762,0.000252841,-0.000733791,0.00268867,3.17874e-05,-0.292602,0.00178195,0.0169,1441,414,6.3298,38.6818
224,610,6.34595,-38.3469,0.00204909,0.00122093,-0.000167624,0.00208173,0.00118829,-0.192324,0.0012059,0.0201854,1448,414,6.34597,38.3469
231,610,6.3429,-38.0106,0.0017003,0.00197212,0.000335522,0.00219822,0.00147421,0.977833,0.00129354,0.016285,1455,414,6.34293,38.0106
238,610,6.3501,-37.6357,0.00159761,0.00274625,0.000803522,0.0031596,0.00118426,1.09568,0.00184316,0.0119481,1462,414,6.35008,37.6357
245,610,6.37354,-37.2636,0.00162921,0.00345654,0.00117744,0.00403323,0.00105252,1.11536,0.00241566,0.0128634,1469,414,6.37354,37.2636
252,610,6.36572,-36.8773,0.00166092,0.00423009,0.00155129,0.00495962,0.000931389,1.13121,0.00304383,0.0147846,1476,414,6.36567,36.8773
259,610,6.34961,-36.4417,0.00165689,0.00499992,0.0019669,0.00590962,0.000747194,1.13759,0.00371581,0.0132649,1483,414,6.3496,36.4417
266,610,6.33472,-36.0107,0.0016764,0.00586208,0.00245092,0.00699213,0.00054635,1.13877,0.00449039,0.0124778,1490,414,6.33475,36.0107
273,610,6.32813,-35.6074,0.00169292,0.00679378,0.00295132,0.00814399,0.000342716,1.14173,0.00531877,0.0104796,1497,414,6.32812,35.6074
280,610,6.31628,-35.1764,0.00195552,0.00768311,0.00338103,0.00925019,0.000388436,1.13678,0.00604148,0.0101392,1504,414,6.31634,35.1764
287,610,6.28613,-34.7264,0.0024038,0.00863948,0.00381902,0.0104517,0.000591538,1.12773,0.00677925,0.0132203,1511,414,6.28615,34.7264
294,610,6.28418,-34.2845,0.00274472,0.00956716,0.00421848,0.0115811,0.000730808,1.12539,0.007489,0.011239,1518,414,6.2842,34.2845
301,610,6.2749,-33.8598,0.00311841,0.0103749,0.00452349,0.0125454,0.000947852,1.1234,0.00806626,0.0106309,1525,414,6.27488,33.8598
308,610,6.25769,-33.4172,0.00362466,0.0110721,0.00477941,0.0134071,0.00128959,1.11634,0.00854074,0.0124054,1532,414,6.25769,33.4172
315,610,6.21191,-32.9634,0.00418495,0.0118108,0.00500263,0.0142879,0.00170783,1.11102,0.00901012,0.0125219,1539,414,6.21195,32.9634
322,610,6.16284,-32.4488,0.0047023,0.0122622,0.00518121,0.0148958,0.00206876,1.10054,0.0093178,0.0128882,1546,414,6.16287,32.4488
329,610,6.12512,-31.9468,0.00516992,0.0126068,0.00525511,0.015326,0.00245074,1.0933,0.00950629,0.0121199,1553,414,6.12508,31.9468
336,610,6.1377,-31.4297,0.00546052,0.0127785,0.00521555,0.0154906,0.00274847,1.09128,0.00954373,0.0107425,1560,414,6.1377,31.4297
343,610,6.09363,-30.8978,0.00561094,0.0129666,0.00517509,0.0156376,0.0029399,1.09433,0.0095964,0.0174927,1567,414,6.09359,30.8978
350,610,6.01953,-30.4078,0.0057798,0.0136928,0.0055278,0.0165341,0.00293846,1.096,0.0101855,0.0400561,1574,414,6.0195,30.4078
357,610,6.08716,-29.6239,0,0,0,0,0,0,0,-1,1581,414,6.08716,29.6239
364,610,6.23926,-29.0674,0,0,0,0,0,0,0,-1,1588,414,6.23928,29.0673
371,610,3.54138,-13.3788,0,0,0,0,0,0,0,-1,1595,414,3.54137,13.3788
378,610,3.5752,-12.1958,0,0,0,0,0,0,0,-1,1602,414,3.57517,12.1958
385,610,2.57104,-10.3878,0,0,0,0,0,0,0,-1,1609,414,2.57109,10.3878
392,610,1.99744,-1.83582,0,0,0,0,0,0,0,-1,1616,414,1.99741,1.8358
399,610,2.77136,-2.60333,0,0,0,0,0,0,0,-1,1623,414,2.77133,2.60332
406,610,3.54529,-3.37085,0,0,0,0,0,0,0,-1,1630,414,3.54525,3.37084
413,610,3.01929,-3.20306,0,0,0,0,0,0,0,-1,1637,414,3.01929,3.20306
420,610,4.78149,-3.64041,0,0,0,0,0,0,0,-1,1644,414,4.78152,3.64042
427,610,8.85168,-23.3853,0,0,0,0,0,0,0,-1,1651,414,8.85174,23.3853
434,610,8.73706,-22.6227,0,0,0,0,0,0,0,-1,1658,414,8.73703,22.6227
441,610,0,0,0,0,0,0,0,0,0,-1,1665,414,0,0
448,610,0,0,0,0,0,0,0,0,0,-1,1672,414,0,0
455,610,0,0,0,0,0,0,0,0,0,-1,1679,414,0,0
462,610,0,0,0,0,0,0,0,0,0,-1,1686,414,0,0
469,610,0,0,0,0,0,0,0,0,0,-1,1693,414,0,0
476,610,0,0,0,0,0,0,0,0,0,-1,1700,414,0,0
483,610,0,0,0,0,0,0,0,0,0,-1,1707,414,0,0
490,610,0,0,0,0,0,0,0,0,0,-1,1714,414,0,0
497,610,0,0,0,0,0,0,0,0,0,-1,1721,414,0,0
504,610,0,0,0,0,0,0,0,0,0,-1,1728,414,0,0
511,610,0,0,0,0,0,0,0,0,0,-1,1735,414,0,0
518,610,0,0,0,0,0,0,0,0,0,-1,1742,414,0,0
525,610,0,0,0,0,0,0,0,0,0,-1,1749,414,0,0
532,610,0,0,0,0,0,0,0,0,0,-1,1756,414,0,0
539,610,0,0,0,0,0,0,0,0,0,-1,1763,414,0,0
546,610,0,0,0,0,0,0,0,0,0,-1,1770,414,0,0
553,610,0,0,0,0,0,0,0,0,0,-1,1777,414,0,0
560,610,0,0,0,0,0,0,0,0,0,-1,1784,414,0,0
567,610,0,0,0,0,0,0,0,0,0,-1,1791,414,0,0
574,610,0,0,0,0,0,0,0,0,0,-1,1798,414,0,0
581,610,0,0,0,0,0,0,0,0,0,-1,1805,414,0,0
588,610,0,0,0,0,0,0,0,0,0,-1,1812,414,0,0
595,610,0,0,0,0,0,0,0,0,0,-1,1819,414,0,0
602,610,0,0,0,0,0,0,0,0,0,-1,1826,414,0,0
609,610,0,0,0,0,0,0,0,0,0,-1,1833,414,0,0
616,610,0,0,0,0,0,0,0,0,0,-1,1840,414,0,0
623,610,0,0,0,0,0,0,0,0,0,-1,1847,414,0,0
630,610,0,0,0,0,0,0,0,0,0,-1,1854,414,0,0
637,610,0,0,0,0,0,0,0,0,0,-1,1861,414,0,0
644,610,0,0,0,0,0,0,0,0,0,-1,1868,414,0,0
651,610,0,0,0,0,0,0,0,0,0,-1,1875,414,0,0
658,610,0,0,0,0,0,0,0,0,0,-1,1882,414,0,0
665,610,0,0,0,0,0,0,0,0,0,-1,1889,414,0,0
672,610,0,0,0,0,0,0,0,0,0,-1,1896,414,0,0
679,610,0,0,0,0,0,0,0,0,0,-1,1903,414,0,0
686,610,0,0,0,0,0,0,0,0,0,-1,1910,414,0,0
693,610,0,0,0,0,0,0,0,0,0,-1,1917,414,0,0
700,610,0,0,0,0,0,0,0,0,0,-1,1924,414,0,0
707,610,0,0,0,0,0,0,0,0,0,-1,1931,414,0,0
714,610,0,0,0,0,0,0,0,0,0,-1,1938,414,0,0
721,610,0,0,0,0,0,0,0,0,0,-1,1945,414,0,0
728,610,0,0,0,0,0,0,0,0,0,-1,1952,414,0,0
735,610,0,0,0,0,0,0,0,0,0,-1,1959,414,0,0
742,610,0,0,0,0,0,0,0,0,0,-1,1966,414,0,0
749,610,0,0,0,0,0,0,0,0,0,-1,1973,414,0,0
756,610,0,0,0,0,0,0,0,0,0,-1,1980,414,0,0
763,610,0,0,0,0,0,0,0,0,0,-1,1987,414,0,0
770,610,0,0,0,0,0,0,0,0,0,-1,1994,414,0,0
777,610,0,0,0,0,0,0,0,0,0,-1,2001,414,0,0
784,610,0,0,0,0,0,0,0,0,0,-1,2008,414,0,0
791,610,0,0,0,0,0,0,0,0,0,-1,2015,414,0,0
798,610,0,0,0,0,0,0,0,0,0,-1,2022,414,0,0
805,610,0,0,0,0,0,0,0,0,0,-1,2029,414,0,0
812,610,0,0,0,0,0,0,0,0,0,-1,2036,414,0,0
-700,603,0,0,0,0,0,0,0,0,0,-1,524,421,0,0
-693,603,0,0,0,0,0,0,0,0,0,-1,531,421,0,0
-686,603,0,0,0,0,0,0,0,0,0,-1,538,421,0,0
-679,603,0,0,0,0,0,0,0,0,0,-1,545,421,0,0
-672,603,0,0,0,0,0,0,0,0,0,-1,552,421,0,0
-665,603,0,0,0,0,0,0,0,0,0,-1,559,421,0,0
-658,603,0,0,0,0,0,0,0,0,0,-1,566,421,0,0
-651,603,0,0,0,0,0,0,0,0,0,-1,573,421,0,0
-644,603,0,0,0,0,0,0,0,0,0,-1,580,421,0,0
-637,603,0,0,0,0,0,0,0,0,0,-1,587,421,0,0
-630,603,0,0,0,0,0,0,0,0,0,-1,594,421,0,0
-623,603,0,0,0,0,0,0,0,0,0,-1,601,421,0,0
-616,603,0,0,0,0,0,0,0,0,0,-1,608,421,0,0
-609,603,0,0,0,0,0,0,0,0,0,-1,615,421,0,0
-602,603,0,0,0,0,0,0,0,0,0,-1,622,421,0,0
-595,603,0,0,0,0,0,0,0,0,0,-1,629,421,0,0
-588,603,0,0,0,0,0,0,0,0,0,-1,636,421,0,0
-581,603,0,0,0,0,0,0,0,0,0,-1,643,421,0,0
-574,603,0,0,0,0,0,0,0,0,0,-1,650,421,0,0
-567,603,0,0,0,0,0,0,0,0,0,-1,657,421,0,0
-560,603,0,0,0,0,0,0,0,0,0,-1,664,421,0,0
-553,603,0,0,0,0,0,0,0,0,0,-1,671,421,0,0
-546,603,0,0,0,0,0,0,0,0,0,-1,678,421,0,0
-539,603,0,0,0,0,0,0,0,0,0,-1,685,421,0,0
-532,603,0,0,0,0,0,0,0,0,0,-1,692,421,0,0
-525,603,0,0,0,0,0,0,0,0,0,-1,699,421,0,0
-518,603,0,0,0,0,0,0,0,0,0,-1,706,421,0,0
-511,603,0,0,0,0,0,0,0,0,0,-1,713,421,0,0
-504,603,0,0,0,0,0,0,0,0,0,-1,720,421,0,0
-497,603,0,0,0,0,0,0,0,0,0,-1,727,421,0,0
-490,603,0,0,0,0,0,0,0,0,0,-1,734,421,0,0
-483,603,0,0,0,0,0,0,0,0,0,-1,741,421,0,0
-476,603,0,0,0,0,0,0,0,0,0,-1,748,421,0,0
-469,603,0,0,0,0,0,0,0,0,0,-1,755,421,0,0
-462,603,0,0,0,0,0,0,0,0,0,-1,762,421,0,0
-455,603,0,0,0,0,0,0,0,0,0,-1,769,421,0,0
-448,603,0,0,0,0,0,0,0,0,0,-1,776,421,0,0
-441,603,0,0,0,0,0,0,0,0,0,-1,783,421,0,0
-434,603,0,0,0,0,0,0,0,0,0,-1,790,421,0,0
-427,603,0,0,0,0,0,0,0,0,0,-1,797,421,0,0
-420,603,0,0,0,0,0,0,0,0,0,-1,804,421,0,0
-413,603,0,0,0,0,0,0,0,0,0,-1,811,421,0,0
-406,603,0,0,0,0,0,0,0,0,0,-1,818,421,0,0
-399,603,0,0,0,0,0,0,0,0,0,-1,825,421,0,0
-392,603,0,0,0,0,0,0,0,0,0,-1,832,421,0,0
-385,603,0,0,0,0,0,0,0,0,0,-1,839,421,0,0
-378,603,0,0,0,0,0,0,0,0,0,-1,846,421,0,0
-371,603,0,0,0,0,0,0,0,0,0,-1,853,421,0,0
-364,603,0,0,0,0,0,0,0,0,0,-1,860,421,0,0
-357,603,0,0,0,0,0,0,0,0,0,-1,867,421,0,0
-350,603,0,0,0,0,0,0,0,0,0,-1,874,421,0,0
-343,603,0,0,0,0,0,0,0,0,0,-1,881,421,0,0
-336,603,0,0,0,0,0,0,0,0,0,-1,888,421,0,0
-329,603,4.09686,-17.9702,0,0,0,0,0,0,0,-1,895,421,4.09687,17.9702
-322,603,5.98431,-20.9071,0,0,0,0,0,0,0,-1,902,421,5.98431,20.9071
-315,603,5.99744,-20.4501,0,0,0,0,0,0,0,-1,909,421,5.99745,20.4501
-308,603,5.92249,-20.778,0,0,0,0,0,0,0,-1,916,421,5.92248,20.778
-301,603,2.72424,-20.9059,0,0,0,0,0,0,0,-1,923,421,2.72424,20.9059
-294,603,2.41553,-20.6767,0,0,0,0,0,0,0,-1,930,421,2.41554,20.6767
-287,603,1.91766,-21.2242,0,0,0,0,0,0,0,-1,937,421,1.91767,21.2242
-280,603,2.1037,-22.259,0,0,0,0,0,0,0,-1,944,421,2.10372,22.259
-273,603,4.45172,-26.0901,0,0,0,0,0,0,0,-1,951,421,4.45169,26.0901
-266,603,3.96783,-28.0741,0,0,0,0,0,0,0,-1,958,421,3.96786,28.0741
-259,603,4.03479,-27.9001,0,0,0,0,0,0,0,-1,965,421,4.0348,27.9001
-252,603,4.297,-29.1757,0,0,0,0,0,0,0,-1,972,421,4.29701,29.1757
-245,603,4.3371,-29.5631,-0.00493968,0.0163478,-0.00496805,0.0174502,-0.00604203,-1.35245,0.0140862,0.0331661,979,421,4.33709,29.5631
-238,603,4.23108,-30.0308,-0.0049942,0.0165767,-0.00470787,0.0175594,-0.00597693,-1.36501,0.0141265,0.0228139,986,421,4.23106,30.0308
-231,603,4.15094,-30.6189,-0.00470996,0.0162942,-0.00461177,0.0172622,-0.00567793,-1.36391,0.0137959,0.0150533,993,421,4.15096,30.6189
-224,603,4.10449,-31.1666,-0.00398574,0.0155189,-0.00463691,0.0165651,-0.00503197,-1.34888,0.0130483,0.0146174,1000,421,4.10447,31.1666
-217,603,4.08038,-31.6541,-0.00309096,0.0142692,-0.00465803,0.01544,-0.00426182,-1.32453,0.0119696,0.013058,1007,421,4.0804,31.6541
-210,603,4.07373,-32.1565,-0.0023179,0.0128104,-0.0045511,0.014074,-0.00358148,-1.29997,0.0107767,0.0116475,1014,421,4.07372,32.1565
-203,603,4.07349,-32.6718,-0.00174834,0.0109016,-0.00401847,0.0120702,-0.00291692,-1.2878,0.00917498,0.0176512,1021,421,4.0735,32.6718
-196,603,4.09082,-33.1741,-0.00124867,0.00928845,-0.0034517,0.0103185,-0.00227868,-1.2808,0.007751,0.0189165,1028,421,4.0908,33.1741
-189,603,4.06262,-33.5778,-0.000578618,0.00786369,-0.00317749,0.00892596,-0.00164089,-1.24817,0.0065663,0.0158955,1035,421,4.06261,33.5778
-182,603,3.99683,-34.0129,-9.12508e-05,0.00612984,-0.00264782,0.0071042,-0.00106561,-1.21819,0.00512837,0.0113585,1042,421,3.99679,34.0129
-175,603,3.9762,-34.4624,3.36225e-05,0.00390978,-0.00199662,0.00475426,-0.000810859,-1.17066,0.0034715,0.0122731,1049,421,3.97615,34.4624
-168,603,3.93213,-34.8852,-8.02493e-05,0.00181557,-0.0013658,0.00253017,-0.000794852,-1.08875,0.00200496,0.0153434,1056,421,3.93216,34.8852
-161,603,3.90161,-35.3203,-0.000295052,-0.000237156,-0.000856237,0.000590622,-0.00112283,-0.802296,0.00100504,0.014714,1063,421,3.90165,35.3203
-154,603,3.90271,-35.7195,-0.00060842,-0.00210187,-0.000449275,-0.000483683,-0.00222661,-0.27082,0.00135232,0.0131147,1070,421,3.90266,35.7195
-147,603,3.89636,-36.1093,-0.00101929,-0.00398201,-0.000163106,-0.00101034,-0.00399096,-0.054832,0.00239595,0.0146007,1077,421,3.89637,36.1093
-140,603,3.92212,-36.5026,-0.00148837,-0.00580019,-1.42087e-05,-0.00148832,-0.00580024,-0.00329523,0.00347852,0.0129031,1084,421,3.92211,36.5026
-133,603,3.89258,-36.8704,-0.00194281,-0.00750382,8.57401e-05,-0.00194149,-0.00750515,0.0154132,0.00449817,0.0119613,1091,421,3.89258,36.8704
-126,603,3.89612,-37.2402,-0.00223792,-0.00876344,7.96386e-05,-0.00223695,-0.00876441,0.0122018,0.00525836,0.0103522,1098,421,3.89613,37.2402
-119,603,3.9397,-37.6231,-0.00229035,-0.00973273,-1.149e-05,-0.00229034,-0.00973274,-0.00154386,0.00587578,0.0107087,1105,421,3.93976,37.6231
-112,603,3.93188,-37.9958,-0.00220179,-0.0103894,-9.66403e-05,-0.00220065,-0.0103905,-0.0118011,0.00632244,0.0155264,1112,421,3.93192,37.9958
-105,603,3.93652,-38.3495,-0.00204996,-0.0107632,-0.000154514,-0.00204722,-0.010766,-0.0177258,0.00660159,0.0161685,1119,421,3.93654,38.3494
-98,603,3.94006,-38.6532,-0.00185493,-0.0108154,-3.81694e-05,-0.00185477,-0.0108156,-0.00425964,0.00667855,0.013378,1126,421,3.94004,38.6532
-91,603,3.9436,-38.9667,-0.00131131,-0.0103903,0.000106975,-0.00131005,-0.0103915,0.0117806,0.00653493,0.0103857,1133,421,3.94355,38.9667
-84,603,3.98059,-39.3004,-0.000581396,-0.00956598,9.06455e-05,-0.000580482,-0.00956689,0.0100876,0.00619351,0.011664,1140,421,3.98056,39.3005
-77,603,4.03662,-39.6445,0.00172867,-0.00687424,0.000901922,0.00182221,-0.00696778,0.103342,0.00535691,0.0180582,1147,421,4.03668,39.6445
-70,603,4.07104,-39.9785,0,0,0,0,0,0,0,-1,1154,421,4.07109,39.9786
-63,603,4.02393,-40.1464,0,0,0,0,0,0,0,-1,1161,421,4.02396,40.1464
-56,603,4.11475,-40.3958,0,0,0,0,0,0,0,-1,1168,421,4.11481,40.3958
-49,603,4.20105,-40.615,0,0,0,0,0,0,0,-1,1175,421,4.20111,40.615
-42,603,4.22534,-40.8348,0,0,0,0,0,0,0,-1,1182,421,4.2253,40.8348
-35,603,4.20557,-41.0114,-0.0079834,-0.00935486,-0.00633837,-0.00229377,-0.0150445,-0.731514,0.00935924,0.0424135,1189,421,4.20553,41.0114
-28,603,4.26343,-41.1477,-0.00872898,-0.0122487,-0.00741692,-0.00286601,-0.0181117,-0.668912,0.0112416,0.0286677,1196,421,4.26342,41.1477
-21,603,4.36194,-41.3239,-0.00766014,-0.0148459,-0.00742933,-0.00300054,-0.0195055,-0.560173,0.0121279,0.0248898,1203,421,4.36189,41.3239
-14,603,4.43506,-41.4965,-0.00687226,-0.0175139,-0.00777987,-0.00276771,-0.0216184,-0.485472,0.013584,0.0232265,1210,421,4.4351,41.4965
-7,603,4.46875,-41.64,-0.00528985,-0.0203403,-0.00820228,-0.00168375,-0.0239464,-0.414211,0.0154337,0.0260066,1217,421,4.4687,41.64
0,603,4.53979,-41.8152,-0.0029876,-0.0242854,-0.00803395,-0.000296954,-0.026976,-0.323168,0.0178859,0.032494,1224,421,4.53979,41.8152
7,603,4.62903,-41.782,-0.000487126,-0.0278525,-0.00696484,0.00118352,-0.0295232,-0.235421,0.0200882,0.0436638,1231,421,4.62903,41.782
14,603,4.86853,-41.6841,0.0021788,-0.0324046,-0.00575976,0.00311285,-0.0333386,-0.160768,0.0233327,0.0439236,1238,421,4.86855,41.684
21,603,4.86316,-41.7819,0.00568311,-0.0363184,-0.00389798,0.0060418,-0.0366771,-0.0917614,0.0266942,0.0347658,1245,421,4.86322,41.7819
28,603,4.92444,-41.7851,0.00967269,-0.0417406,-0.00232325,0.00977746,-0.0418453,-0.0450652,0.0316633,0.0388698,1252,421,4.9245,41.7851
35,603,4.95703,-41.7339,0.0130415,-0.0453903,-0.000190952,0.0130421,-0.0453909,-0.00326791,0.0354177,0.046454,1259,421,4.95704,41.7339
42,603,5.08459,-42.0572,0.0161851,-0.0486851,0.00201814,0.0162478,-0.0487478,0.0310704,0.0390577,0.0406572,1266,421,5.08457,42.0572
49,603,5.1842,-42.3246,0.0191903,-0.0514543,0.0042692,0.0194474,-0.0517114,0.0601403,0.0424679,0.0212221,1273,421,5.18426,42.3247
56,603,5.13367,-42.2411,0.021252,-0.0527353,0.00641266,0.0218037,-0.053287,0.0858196,0.0446057,0.045882,1280,421,5.13372,42.2411
63,603,5.13269,-42.302,0,0,0,0,0,0,0,-1,1287,421,5.13272,42.302
70,603,5.2926,-42.3286,0,0,0,0,0,0,0,-1,1294,421,5.29259,42.3286
77,603,5.38257,-42.3401,0,0,0,0,0,0,0,-1,1301,421,5.38263,42.3401
84,603,5.60535,-42.2896,0,0,0,0,0,0,0,-1,1308,421,5.60529,42.2896
91,603,5.81982,-42.2788,0,0,0,0,0,0,0,-1,1315,421,5.81978,42.2788
98,603,5.93945,-42.3059,0,0,0,0,0,0,0,-1,1322,421,5.93943,42.3059
105,603,5.89136,-42.1205,0,0,0,0,0,0,0,-1,1329,421,5.89135,42.1205
112,603,6.01355,-41.8467,0.0180808,-0.0189555,0.01158,0.0214034,-0.0222781,0.27942,0.0252212,0.0433808,1336,421,6.01355,41.8467
119,603,6.09534,-41.7158,0.0174641,-0.013337,0.0109842,0.0209799,-0.0168528,0.309776,0.021886,0.0440435,1343,421,6.09535,41.7158
126,603,5.97034,-41.7238,0,0,0,0,0,0,0,-1,1350,421,5.97038,41.7238
133,603,6.15247,-41.3339,0.014136,-0.0042675,0.00938412,0.0180771,-0.00820858,0.397605,0.0155285,0.047367,1357,421,6.15249,41.3339
140,603,6.36609,-41.1775,0.0139874,-0.00425252,0.00806333,0.0170408,-0.00730593,0.361992,0.0144263,0.0345469,1364,421,6.36613,41.1775
147,603,6.24182,-41.0557,0.0137092,-0.00397075,0.0068639,0.0160611,-0.00632266,0.330111,0.0133247,0.0273727,1371,421,6.24178,41.0557
154,603,6.18091,-40.9847,0.0133582,-0.00432423,0.00566485,0.0150174,-0.00598337,0.284916,0.0124931,0.0323393,1378,421,6.18089,40.9847
161,603,6.31274,-40.8128,0.0130552,-0.00415426,0.00416425,0.0140099,-0.00510894,0.225362,0.0114301,0.0306453,1385,421,6.31275,40.8128
168,603,6.38184,-40.6059,0.0123865,-0.00473641,0.00291046,0.0128677,-0.00521759,0.163847,0.0107484,0.0331685,1392,421,6.38181,40.6059
175,603,6.62683,-40.3763,0.0107817,-0.00552947,0.000694442,0.0108112,-0.00555898,0.0424723,0.0096121,0.0395345,1399,421,6.62678,40.3763
182,603,6.70471,-40.1419,0.00893797,-0.00558906,-0.00031902,0.00894498,-0.00559606,-0.0219463,0.00846917,0.0452616,1406,421,6.70475,40.1419
189,603,6.65271,-39.8367,0.00677818,-0.00519257,-0.00189913,0.00707225,-0.00548664,-0.153624,0.00727011,0.0383145,1413,421,6.65273,39.8367
196,603,6.57031,-39.5167,0.00554974,-0.00462023,-0.00228386,0.00603908,-0.00510957,-0.211069,0.00644413,0.0297174,1420,421,6.57029,39.5167
203,603,6.57031,-39.2813,0.00503843,-0.00317411,-0.00209935,0.00554396,-0.00367965,-0.236306,0.00536139,0.0185465,1427,421,6.57029,39.2813
210,603,6.60828,-39.0662,0.00424421,-0.00240603,-0.00241904,0.00503104,-0.00319287,-0.314474,0.00478745,0.0144721,1434,421,6.60824,39.0662
217,603,6.63464,-38.7017,0.00345826,-0.00138446,-0.00169162,0.00399064,-0.00191684,-0.304901,0.00348003,0.0141056,1441,421,6.63467,38.7016
224,603,6.68445,-38.3346,0.00291015,-0.000126798,-0.000935267,0.00317506,-0.000391716,-0.276024,0.00225863,0.0175161,1448,421,6.68443,38.3346
231,603,6.70007,-37.9854,0.00237499,0.000722223,-0.000359805,0.00244992,0.000647291,-0.205322,0.00146595,0.0155229,1455,421,6.70008,37.9854
238,603,6.70337,-37.6168,0.00214412,0.00150075,8.89701e-05,0.0021562,0.00148868,0.134915,0.00127462,0.0118033,1462,421,6.7034,37.6168
245,603,6.72449,-37.2398,0.00213706,0.0021291,0.00044046,0.00257356,0.0016926,0.780882,0.00151028,0.0124072,1469,421,6.72443,37.2398
252,603,6.74146,-36.848,0.0020961,0.00277559,0.000771034,0.00327841,0.00159328,0.992916,0.00189304,0.0111537,1476,421,6.7415,36.848
259,603,6.74609,-36.4523,0.00197799,0.00329748,0.00109572,0.00391675,0.00135873,1.05638,0.0022964,0.0109512,1483,421,6.74614,36.4523
266,603,6.7356,-36.0338,0.00187367,0.00382362,0.00143261,0.00458154,0.00111574,1.08418,0.00275871,0.0119968,1490,421,6.73564,36.0338
273,603,6.7478,-35.6157,0.00180467,0.00448462,0.00180634,0.00539374,0.000895553,1.10452,0.0033376,0.0108803,1497,421,6.74778,35.6157
280,603,6.74268,-35.1703,0.00185317,0.00511837,0.00216664,0.00619865,0.000772895,1.10827,0.00390041,0.0120126,1504,421,6.74265,35.1702
287,603,6.72668,-34.7169,0.00204257,0.00581436,0.00252739,0.00708192,0.000775012,1.10592,0.00448532,0.0118762,1511,421,6.72668,34.7169
294,603,6.70093,-34.2951,0.00219067,0.00652268,0.00286059,0.00794479,0.000768562,1.10944,0.00505983,0.0101752,1518,421,6.70092,34.2951
301,603,6.70093,-33.8535,0.00235647,0.00716135,0.00314183,0.00871401,0.000803813,1.11181,0.0055608,0.0122995,1525,421,6.70088,33.8536
308,603,6.69214,-33.3922,0.00262075,0.00771946,0.00340564,0.00942424,0.000915972,1.10669,0.00600085,0.0175875,1532,421,6.69213,33.3922
315,603,6.64856,-32.9406,0.00291445,0.00837824,0.00365164,0.0102068,0.00108589,1.10655,0.006473,0.0153953,1539,421,6.64852,32.9406
322,603,6.62061,-32.4448,0.00315916,0.00884952,0.00387144,0.0108088,0.00119985,1.10229,0.0068411,0.0147099,1546,421,6.62066,32.4448
329,603,6.59314,-31.9449,0.00334177,0.00921142,0.00402312,0.0112564,0.00129676,1.10052,0.00711155,0.0109332,1553,421,6.59313,31.9449
336,603,6.58923,-31.4552,0.00340546,0.0094787,0.00412338,0.011563,0.00132121,1.10278,0.00730815,0.0097258,1560,421,6.5892,31.4552
343,603,6.56238,-30.9376,0.00336014,0.0097921,0.00423316,0.0118923,0.00125991,1.11024,0.00754341,0.0118002,1567,421,6.56239,30.9376
350,603,6.52173,-30.4179,0.00330552,0.0105662,0.00464014,0.0128274,0.00104431,1.11735,0.00822562,0.0198002,1574,421,6.52174,30.4179
357,603,6.51929,-29.8088,0.00309658,0.0112261,0.00512974,0.0137063,0.000616379,1.12044,0.00893916,0.0269079,1581,421,6.51934,29.8088
364,603,6.50159,-29.1962,0.00266253,0.0118086,0.00554775,0.0144251,4.59761e-05,1.13009,0.00960147,0.0364106,1588,421,6.50153,29.1962
371,603,6.39148,-28.4529,0,0,0,0,0,0,0,-1,1595,421,6.39146,28.4529
378,603,6.34229,-28.3183,0,0,0,0,0,0,0,-1,1602,421,6.34234,28.3183
385,603,6.2301,-27.7014,0,0,0,0,0,0,0,-1,1609,421,6.23008,27.7013
392,603,4.90527,-19.605,0,0,0,0,0,0,0,-1,1616,421,4.90526,19.605
399,603,2.94299,0.638214,0,0,0,0,0,0,0,-1,1623,421,2.94293,-0.638215
406,603,3.01917,-2.37219,0,0,0,0,0,0,0,-1,1630,421,3.01915,2.37219
413,603,2.38928,-2.41275,0,0,0,0,0,0,0,-1,1637,421,2.38926,2.41274
420,603,8.22217,-23.7068,0,0,0,0,0,0,0,-1,1644,421,8.22215,23.7068
427,603,8.20386,-23.1278,0,0,0,0,0,0,0,-1,1651,421,8.2039,23.1278
434,603,8.01489,-22.5655,0,0,0,0,0,0,0,-1,1658,421,8.01493,22.5655
441,603,8.00122,-22.3072,0,0,0,0,0,0,0,-1,1665,421,8.00116,22.3071
448,603,1.14355,-4.59842,0,0,0,0,0,0,0,-1,1672,421,1.14355,4.59841
455,603,0,0,0,0,0,0,0,0,0,-1,1679,421,0,0
462,603,0,0,0,0,0,0,0,0,0,-1,1686,421,0,0
469,603,0,0,0,0,0,0,0,0,0,-1,1693,421,0,0
476,603,0,0,0,0,0,0,0,0,0,-1,1700,421,0,0
483,603,0,0,0,0,0,0,0,0,0,-1,1707,421,0,0
490,603,0,0,0,0,0,0,0,0,0,-1,1714,421,0,0
497,603,0,0,0,0,0,0,0,0,0,-1,1721,421,0,0
504,603,0,0,0,0,0,0,0,0,0,-1,1728,421,0,0
511,603,0,0,0,0,0,0,0,0,0,-1,1735,421,0,0
518,603,0,0,0,0,0,0,0,0,0,-1,1742,421,0,0
525,603,0,0,0,0,0,0,0,0,0,-1,1749,421,0,0
532,603,0,0,0,0,0,0,0,0,0,-1,1756,421,0,0
539,603,0,0,0,0,0,0,0,0,0,-1,1763,421,0,0
546,603,0,0,0,0,0,0,0,0,0,-1,1770,421,0,0
553,603,0,0,0,0,0,0,0,0,0,-1,1777,421,0,0
560,603,0,0,0,0,0,0,0,0,0,-1,1784,421,0,0
567,603,0,0,0,0,0,0,0,0,0,-1,1791,421,0,0
574,603,0,0,0,0,0,0,0,0,0,-1,1798,421,0,0
581,603,0,0,0,0,0,0,0,0,0,-1,1805,421,0,0
588,603,0,0,0,0,0,0,0,0,0,-1,1812,421,0,0
595,603,0,0,0,0,0,0,0,0,0,-1,1819,421,0,0
602,603,0,0,0,0,0,0,0,0,0,-1,1826,421,0,0
609,603,0,0,0,0,0,0,0,0,0,-1,1833,421,0,0
616,603,0,0,0,0,0,0,0,0,0,-1,1840,421,0,0
623,603,0,0,0,0,0,0,0,0,0,-1,1847,421,0,0
630,603,0,0,0,0,0,0,0,0,0,-1,1854,421,0,0
637,603,0,0,0,0,0,0,0,0,0,-1,1861,421,0,0
644,603,0,0,0,0,0,0,0,0,0,-1,1868,421,0,0
651,603,0,0,0,0,0,0,0,0,0,-1,1875,421,0,0
658,603,0,0,0,0,0,0,0,0,0,-1,1882,421,0,0
665,603,0,0,0,0,0,0,0,0,0,-1,1889,421,0,0
672,603,0,0,0,0,0,0,0,0,0,-1,1896,421,0,0
679,603,0,0,0,0,0,0,0,0,0,-1,1903,421,0,0
686,603,0,0,0,0,0,0,0,0,0,-1,1910,421,0,0
693,603,0,0,0,0,0,0,0,0,0,-1,1917,421,0,0
700,603,0,0,0,0,0,0,0,0,0,-1,1924,421,0,0
707,603,0,0,0,0,0,0,0,0,0,-1,1931,421,0,0
714,603,0,0,0,0,0,0,0,0,0,-1,1938,421,0,0
721,603,0,0,0,0,0,0,0,0,0,-1,1945,421,0,0
728,603,0,0,0,0,0,0,0,0,0,-1,1952,421,0,0
735,603,0,0,0,0,0,0,0,0,0,-1,1959,421,0,0
742,603,0,0,0,0,0,0,0,0,0,-1,1966,421,0,0
749,603,0,0,0,0,0,0,0,0,0,-1,1973,421,0,0
756,603,0,0,0,0,0,0,0,0,0,-1,1980,421,0,0
763,603,0,0,0,0,0,0,0,0,0,-1,1987,421,0,0
770,603,0,0,0,0,0,0,0,0,0,-1,1994,421,0,0
777,603,0,0,0,0,0,0,0,0,0,-1,2001,421,0,0
784,603,0,0,0,0,0,0,0,0,0,-1,2008,421,0,0
791,603,0,0,0,0,0,0,0,0,0,-1,2015,421,0,0
798,603,0,0,0,0,0,0,0,0,0,-1,2022,421,0,0
805,603,0,0,0,0,0,0,0,0,0,-1,2029,421,0,0
812,603,0,0,0,0,0,0,0,0,0,-1,2036,421,0,0
-700,596,0,0,0,0,0,0,0,0,0,-1,524,428,0,0
-693,596,0,0,0,0,0,0,0,0,0,-1,531,428,0,0
-686,596,0,0,0,0,0,0,0,0,0,-1,538,428,0,0
-679,596,0,0,0,0,0,0,0,0,0,-1,545,428,0,0
-672,596,0,0,0,0,0,0,0,0,0,-1,552,428,0,0
-665,596,0,0,0,0,0,0,0,0,0,-1,559,428,0,0
-658,596,0,0,0,0,0,0,0,0,0,-1,566,428,0,0
-651,596,0,0,0,0,0,0,0,0,0,-1,573,428,0,0
-644,596,0,0,0,0,0,0,0,0,0,-1,580,428,0,0
-637,596,0,0,0,0,0,0,0,0,0,-1,587,428,0,0
-630,596,0,0,0,0,0,0,0,0,0,-1,594,428,0,0
-623,596,0,0,0,0,0,0,0,0,0,-1,601,428,0,0
-616,596,0,0,0,0,0,0,0,0,0,-1,608,428,0,0
-609,596,0,0,0,0,0,0,0,0,0,-1,615,428,0,0
-602,596,0,0,0,0,0,0,0,0,0,-1,622,428,0,0
-595,596,0,0,0,0,0,0,0,0,0,-1,629,428,0,0
-588,596,0,0,0,0,0,0,0,0,0,-1,636,428,0,0
-581,596,0,0,0,0,0,0,0,0,0,-1,643,428,0,0
-574,596,0,0,0,0,0,0,0,0,0,-1,650,428,0,0
-567,596,0,0,0,0,0,0,0,0,0,-1,657,428,0,0
-560,596,0,0,0,0,0,0,0,0,0,-1,664,428,0,0
-553,596,0,0,0,0,0,0,0,0,0,-1,671,428,0,0
-546,596,0,0,0,0,0,0,0,0,0,-1,678,428,0,0
-539,596,0,0,0,0,0,0,0,0,0,-1,685,428,0,0
-532,596,0,0,0,0,0,0,0,0,0,-1,692,428,0,0
-525,596,0,0,0,0,0,0,0,0,0,-1,699,428,0,0
-518,596,0,0,0,0,0,0,0,0,0,-1,706,428,0,0
-511,596,0,0,0,0,0,0,0,0,0,-1,713,428,0,0
-504,596,0,0,0,0,0,0,0,0,0,-1,720,428,0,0
-497,596,0,0,0,0,0,0,0,0,0,-1,727,428,0,0
-490,596,0,0,0,0,0,0,0,0,0,-1,734,428,0,0
-483,596,0,0,0,0,0,0,0,0,0,-1,741,428,0,0
-476,596,0,0,0,0,0,0,0,0,0,-1,748,428,0,0
-469,596,0,0,0,0,0,0,0,0,0,-1,755,428,0,0
-462,596,0,0,0,0,0,0,0,0,0,-1,762,428,0,0
-455,596,0,0,0,0,0,0,0,0,0,-1,769,428,0,0
-448,596,0,0,0,0,0,0,0,0,0,-1,776,428,0,0
-441,596,0,0,0,0,0,0,0,0,0,-1,783,428,0,0
-434,596,0,0,0,0,0,0,0,0,0,-1,790,428,0,0
-427,596,0,0,0,0,0,0,0,0,0,-1,797,428,0,0
-420,596,0,0,0,0,0,0,0,0,0,-1,804,428,0,0
-413,596,0,0,0,0,0,0,0,0,0,-1,811,428,0,0
-406,596,0,0,0,0,0,0,0,0,0,-1,818,428,0,0
-399,596,0,0,0,0,0,0,0,0,0,-1,825,428,0,0
-392,596,0,0,0,0,0,0,0,0,0,-1,832,428,0,0
-385,596,0,0,0,0,0,0,0,0,0,-1,839,428,0,0
-378,596,0,0,0,0,0,0,0,0,0,-1,846,428,0,0
-371,596,0,0,0,0,0,0,0,0,0,-1,853,428,0,0
-364,596,0,0,0,0,0,0,0,0,0,-1,860,428,0,0
-357,596,0,0,0,0,0,0,0,0,0,-1,867,428,0,0
-350,596,0,0,0,0,0,0,0,0,0,-1,874,428,0,0
-343,596,0,0,0,0,0,0,0,0,0,-1,881,428,0,0
-336,596,-0.98291,-20.0836,0,0,0,0,0,0,0,-1,888,428,-0.982933,20.0836
-329,596,4.43048,-20.1666,0,0,0,0,0,0,0,-1,895,428,4.43045,20.1666
-322,596,4.29657,-19.996,0,0,0,0,0,0,0,-1,902,428,4.29655,19.996
-315,596,4.20044,-19.8317,0,0,0,0,0,0,0,-1,909,428,4.20045,19.8317
-308,596,0.254761,-20.841,0,0,0,0,0,0,0,-1,916,428,0.254731,20.841
-301,596,4.46637,-24.1416,0,0,0,0,0,0,0,-1,923,428,4.46636,24.1416
-294,596,3.50983,-25.2827,0,0,0,0,0,0,0,-1,930,428,3.50982,25.2827
-287,596,4.14709,-26.2843,0,0,0,0,0,0,0,-1,937,428,4.1471,26.2843
-280,596,3.90308,-27.0854,0,0,0,0,0,0,0,-1,944,428,3.9031,27.0854
-273,596,3.66339,-27.6213,0,0,0,0,0,0,0,-1,951,428,3.66337,27.6213
-266,596,3.61145,-28.0519,-0.000665324,0.012735,-0.00665798,0.0154805,-0.00341084,-1.17968,0.0116253,0.0455282,958,428,3.61146,28.0519
-259,596,3.61383,-28.2419,-0.0019407,0.012753,-0.00578942,0.01476,-0.00394764,-1.2371,0.0113863,0.0393483,965,428,3.61383,28.2419
-252,596,3.67188,-29.049,-0.00273988,0.0129943,-0.00503137,0.0144656,-0.00421119,-1.2863,0.0113119,0.0206297,972,428,3.6719,29.049
-245,596,3.71448,-29.6401,-0.00312253,0.0127218,-0.00451428,0.0139177,-0.00431844,-1.31183,0.0110041,0.0151107,979,428,3.71449,29.6401
-238,596,3.73199,-30.1678,-0.00323454,0.012575,-0.00405175,0.0135529,-0.00421245,-1.33397,0.010719,0.0127843,986,428,3.73202,30.1678
-231,596,3.66296,-30.7225,-0.00306648,0.0120482,-0.0037888,0.0129448,-0.00396304,-1.33844,0.0102105,0.0134888,993,428,3.66298,30.7225
-224,596,3.62488,-31.2242,-0.00253102,0.0111443,-0.00363057,0.0120484,-0.0034351,-1.32674,0.00938915,0.0138032,1000,428,3.62491,31.2242
-217,596,3.61603,-31.6992,-0.0018356,0.00989556,-0.00349165,0.0108562,-0.00279619,-1.30233,0.00832748,0.0143585,1007,428,3.61604,31.6992
-210,596,3.62848,-32.1852,-0.00117232,0.00846296,-0.0032928,0.00948075,-0.0021901,-1.27102,0.00716302,0.0133169,1014,428,3.6285,32.1852
-203,596,3.62146,-32.6403,-0.000599152,0.00662411,-0.00283856,0.0076061,-0.00158114,-1.23774,0.00567172,0.0172587,1021,428,3.62146,32.6403
-196,596,3.61743,-33.1206,-9.96519e-05,0.00503485,-0.00236351,0.00595715,-0.00102195,-1.19875,0.00435226,0.0172568,1028,428,3.61748,33.1206
-189,596,3.57227,-33.57,0.000571215,0.00357989,-0.00204988,0.00461819,-0.000467092,-1.10195,0.00324571,0.0137104,1035,428,3.57223,33.57
-182,596,3.54651,-33.9959,0.00089208,0.00155535,-0.00167839,0.00293456,-0.000487131,-0.882936,0.00213733,0.0126266,1042,428,3.54651,33.9959
-175,596,3.54395,-34.4403,0.000702276,-0.000929163,-0.00115021,0.00129666,-0.00152354,-0.476964,0.00163,0.0148281,1049,428,3.54399,34.4403
-168,596,3.53149,-34.9039,0.000415219,-0.00328603,-0.000643714,0.000523977,-0.00339479,-0.167373,0.00245655,0.0173433,1056,428,3.53153,34.9039
-161,596,3.52185,-35.3149,-4.84025e-05,-0.00561633,-0.000257422,-3.65267e-05,-0.00562821,-0.0461019,0.00374002,0.0159762,1063,428,3.52182,35.3149
-154,596,3.49353,-35.7033,-0.000680152,-0.00785343,3.53525e-05,-0.000679977,-0.0078536,0.0049282,0.00502444,0.0130884,1070,428,3.49354,35.7033
-147,596,3.51953,-36.0887,-0.0014757,-0.0101576,0.000237927,-0.00146919,-0.0101641,0.0273777,0.00634329,0.013893,1077,428,3.51954,36.0888
-140,596,3.53137,-36.4858,-0.00241189,-0.0124338,0.00033929,-0.00240042,-0.0124453,0.0338032,0.00762374,0.0148235,1084,428,3.53143,36.4858
-133,596,3.51221,-36.8833,-0.00335056,-0.014546,0.000410947,-0.0033355,-0.014561,0.036641,0.00880861,0.0130436,1091,428,3.51217,36.8833
-126,596,3.54248,-37.238,-0.00408245,-0.0161673,0.000397093,-0.00406942,-0.0161803,0.0328117,0.00971865,0.0110927,1098,428,3.54252,37.238
-119,596,3.5946,-37.6274,-0.00448181,-0.0173985,0.000266361,-0.00447632,-0.017404,0.0206097,0.0104357,0.0145084,1105,428,3.59464,37.6274
-112,596,3.57605,-37.989,-0.00466292,-0.0181733,0.000128021,-0.00466171,-0.0181745,0.00947457,0.0109,0.015322,1112,428,3.576,37.989
-105,596,3.58728,-38.3579,-0.00470165,-0.0184889,4.50434e-05,-0.0047015,-0.0184891,0.00326698,0.011096,0.0179304,1119,428,3.58729,38.3579
-98,596,3.64941,-38.6606,-0.00462444,-0.0182557,0.00019359,-0.00462169,-0.0182584,0.0141981,0.0109615,0.018871,1126,428,3.6494,38.6607
-91,596,3.5802,-39.0459,0,0,0,0,0,0,0,-1,1133,428,3.58019,39.0459
-84,596,3.67249,-39.2892,0,0,0,0,0,0,0,-1,1140,428,3.67245,39.2892
-77,596,3.79773,-39.7093,0,0,0,0,0,0,0,-1,1147,428,3.79772,39.7093
-70,596,3.50696,-32.137,0,0,0,0,0,0,0,-1,1154,428,3.50696,32.137
-63,596,1.95569,-12.2758,0,0,0,0,0,0,0,-1,1161,428,1.95563,12.2759
-56,596,1.60107,-10.5827,0,0,0,0,0,0,0,-1,1168,428,1.60108,10.5827
-49,596,1.59473,-10.0393,0,0,0,0,0,0,0,-1,1175,428,1.59472,10.0393
-42,596,1.99585,-6.6246,0,0,0,0,0,0,0,-1,1182,428,1.99586,6.62459
-35,596,3.76306,-40.7647,0,0,0,0,0,0,0,-1,1189,428,3.76307,40.7647
-28,596,3.96082,-40.9448,0,0,0,0,0,0,0,-1,1196,428,3.96082,40.9448
-21,596,4.06543,-41.1193,0,0,0,0,0,0,0,-1,1203,428,4.06538,41.1193
-14,596,4.19727,-41.2885,0,0,0,0,0,0,0,-1,1210,428,4.19723,41.2885
-7,596,4.22693,-41.395,0,0,0,0,0,0,0,-1,1217,428,4.22692,41.395
0,596,4.35083,-41.7045,0,0,0,0,0,0,0,-1,1224,428,4.35084,41.7045
7,596,4.47498,-41.4962,0,0,0,0,0,0,0,-1,1231,428,4.47503,41.4962
14,596,4.88867,-41.1052,0,0,0,0,0,0,0,-1,1238,428,4.88864,41.1052
21,596,4.8092,-41.1585,0,0,0,0,0,0,0,-1,1245,428,4.8092,41.1585
28,596,4.86218,-41.0851,0,0,0,0,0,0,0,-1,1252,428,4.86214,41.0851
35,596,4.55823,-40.9537,0,0,0,0,0,0,0,-1,1259,428,4.55821,40.9537
42,596,4.41187,-40.9828,0,0,0,0,0,0,0,-1,1266,428,4.41181,40.9828
49,596,5.39868,-42.4277,0,0,0,0,0,0,0,-1,1273,428,5.39872,42.4277
56,596,5.19214,-42.0869,0.0249164,-0.0629251,0.00840392,0.0257132,-0.0637219,0.0945289,0.053167,0.0418979,1280,428,5.19209,42.0869
63,596,5.05664,-42.0968,0.0265982,-0.0615878,0.0107529,0.0278904,-0.06288,0.1196,0.0536885,0.0461404,1287,428,5.05666,42.0968
70,596,4.74585,-42.1638,0.0274887,-0.0580864,0.0127555,0.0293495,-0.0599472,0.144862,0.0525546,0.0471642,1294,428,4.74587,42.1638
77,596,4.64038,-41.8808,0.0270939,-0.0523752,0.0140886,0.0295177,-0.0547989,0.170369,0.0494042,0.0460496,1301,428,4.6404,41.8808
84,596,5.43262,-33.5632,0,0,0,0,0,0,0,-1,1308,428,5.4326,33.5632
91,596,3.88489,-39.6,0,0,0,0,0,0,0,-1,1315,428,3.88494,39.6
98,596,4.73328,-44.0843,0,0,0,0,0,0,0,-1,1322,428,4.73322,44.0843
105,596,5.23059,-44.317,0,0,0,0,0,0,0,-1,1329,428,5.23063,44.317
112,596,6.27356,-41.5482,0,0,0,0,0,0,0,-1,1336,428,6.27357,41.5482
119,596,6.50134,-41.2285,0,0,0,0,0,0,0,-1,1343,428,6.50131,41.2285
126,596,6.45776,-44.6136,0,0,0,0,0,0,0,-1,1350,428,6.45776,44.6136
133,596,6.42859,-40.8577,0,0,0,0,0,0,0,-1,1357,428,6.42865,40.8577
140,596,6.78406,-40.5966,0,0,0,0,0,0,0,-1,1364,428,6.78407,40.5966
147,596,6.51782,-40.455,0,0,0,0,0,0,0,-1,1371,428,6.51777,40.455
154,596,6.27893,-40.6136,0,0,0,0,0,0,0,-1,1378,428,6.27897,40.6136
161,596,6.7229,-40.5126,0,0,0,0,0,0,0,-1,1385,428,6.7229,40.5126
168,596,6.8075,-40.1912,0,0,0,0,0,0,0,-1,1392,428,6.80751,40.1912
175,596,7.00061,-39.9944,0,0,0,0,0,0,0,-1,1399,428,7.00065,39.9944
182,596,7.15747,-40.0296,0,0,0,0,0,0,0,-1,1406,428,7.1575,40.0296
189,596,7.0437,-39.7642,0,0,0,0,0,0,0,-1,1413,428,7.04365,39.7642
196,596,6.94885,-39.2575,0,0,0,0,0,0,0,-1,1420,428,6.94887,39.2575
203,596,6.85999,-39.231,0,0,0,0,0,0,0,-1,1427,428,6.85994,39.231
210,596,6.90088,-39.0916,0,0,0,0,0,0,0,-1,1434,428,6.90091,39.0916
217,596,6.9447,-38.675,0,0,0,0,0,0,0,-1,1441,428,6.94466,38.675
224,596,6.99475,-38.3036,0,0,0,0,0,0,0,-1,1448,428,6.99474,38.3035
231,596,7.07458,-37.9857,0.00309019,-0.000127493,-0.00097038,0.00336018,-0.000397483,-0.271368,0.00238369,0.0236998,1455,428,7.07456,37.9857
238,596,7.07861,-37.5892,0.00277518,0.000713235,-0.000502015,0.00289091,0.000597507,-0.22657,0.0017622,0.0164878,1462,428,7.07859,37.5892
245,596,7.10291,-37.2151,0.00276497,0.0012619,-0.000160844,0.00278199,0.00124488,-0.10542,0.00160913,0.0129806,1469,428,7.10286,37.2151
252,596,7.12463,-36.8277,0.00268197,0.00178349,0.00014253,0.00270404,0.00176142,0.153612,0.00158486,0.00961754,1476,428,7.12463,36.8277
259,596,7.14612,-36.4403,0.00248333,0.00204353,0.000387191,0.00270871,0.00181816,0.527143,0.00159415,0.00878894,1483,428,7.14614,36.4403
266,596,7.14807,-36.0397,0.002286,0.00223073,0.000587282,0.0028463,0.00167044,0.761888,0.00165156,0.0106544,1490,428,7.14808,36.0397
273,596,7.16064,-35.6237,0.00215474,0.00262293,0.000846502,0.00326711,0.00151056,0.9203,0.00188805,0.0118502,1497,428,7.16058,35.6237
280,596,7.15991,-35.1937,0.00203123,0.00298204,0.00113114,0.00373361,0.00127965,0.984335,0.00219085,0.0123309,1504,428,7.15986,35.1937
287,596,7.15491,-34.7455,0.00201076,0.00339883,0.00140372,0.00427072,0.00113888,1.01499,0.00255363,0.0118198,1511,428,7.15487,34.7455
294,596,7.12366,-34.3037,0.00200125,0.0039144,0.00166922,0.0048817,0.00103394,1.04559,0.00297042,0.00909428,1518,428,7.12361,34.3037
301,596,7.13306,-33.8419,0.00200343,0.00440703,0.00192201,0.00547204,0.000938416,1.0648,0.00337894,0.0104052,1525,428,7.13305,33.8419
308,596,7.14294,-33.3754,0.00208824,0.00482738,0.00217576,0.00602873,0.000886883,1.0663,0.00375857,0.0164781,1532,428,7.14296,33.3754
315,596,7.09961,-32.9039,0.00219001,0.00541068,0.00242259,0.00670931,0.000891376,1.07872,0.00420734,0.01575,1539,428,7.09966,32.9039
322,596,7.09375,-32.4129,0.00224929,0.00589505,0.00266336,0.00729961,0.000844721,1.0855,0.0046107,0.0126316,1546,428,7.09381,32.4129
329,596,7.06128,-31.9354,0.00224827,0.00626892,0.00285317,0.00774886,0.00076832,1.0923,0.0049298,0.00961405,1553,428,7.06127,31.9354
336,596,7.02783,-31.4654,0.0021997,0.0066267,0.00304105,0.00817453,0.000651872,1.09999,0.00524591,0.00907936,1560,428,7.02785,31.4654
343,596,7.02881,-30.9569,0.00207664,0.00702516,0.00323183,0.00862112,0.000480689,1.1121,0.00559407,0.0118906,1567,428,7.0288,30.957
350,596,7.01978,-30.4127,0.00193229,0.00782522,0.00364209,0.00956346,0.000194045,1.1255,0.00631196,0.0124776,1574,428,7.01983,30.4127
357,596,6.99158,-29.8894,0.0016876,0.00851611,0.004112,0.0104465,-0.000242829,1.13188,0.0070467,0.00987153,1581,428,6.99162,29.8894
364,596,6.95337,-29.3347,0.00129993,0.00914758,0.00452356,0.011212,-0.000764482,1.14266,0.00774208,0.0127661,1588,428,6.95337,29.3347
371,596,6.9198,-28.8174,0.00085797,0.00985626,0.00491881,0.0120232,-0.00130899,1.15583,0.00848553,0.0170984,1595,428,6.91979,28.8174
378,596,6.85938,-28.3342,0.000445777,0.0111735,0.00564586,0.0135972,-0.00197797,1.16529,0.00979098,0.0238567,1602,428,6.85935,28.3342
385,596,6.80432,-27.7325,-0.000655387,0.0134576,0.00659159,0.0160574,-0.00325514,1.19512,0.0119388,0.0437208,1609,428,6.8043,27.7325
392,596,6.74255,-27.1981,0,0,0,0,0,0,0,-1,1616,428,6.74252,27.1981
399,596,6.70776,-25.8851,0,0,0,0,0,0,0,-1,1623,428,6.70775,25.8851
406,596,3.60034,-10.1525,0,0,0,0,0,0,0,-1,1630,428,3.60028,10.1525
413,596,3.39124,-2.63528,0,0,0,0,0,0,0,-1,1637,428,3.39122,2.6353
420,596,2.6344,-3.06308,0,0,0,0,0,0,0,-1,1644,428,2.63439,3.06308
427,596,7.61975,-22.7222,0,0,0,0,0,0,0,-1,1651,428,7.61974,22.7222
434,596,5.09753,-22.5213,0,0,0,0,0,0,0,-1,1658,428,5.09755,22.5213
441,596,7.19043,-22.087,0,0,0,0,0,0,0,-1,1665,428,7.19046,22.087
448,596,1.0769,0.0083313,0,0,0,0,0,0,0,-1,1672,428,1.07684,-0.00832231
455,596,2.00769,-1.43329,0,0,0,0,0,0,0,-1,1679,428,2.00765,1.4333
462,596,0,0,0,0,0,0,0,0,0,-1,1686,428,0,0
469,596,0,0,0,0,0,0,0,0,0,-1,1693,428,0,0
476,596,0,0,0,0,0,0,0,0,0,-1,1700,428,0,0
483,596,0,0,0,0,0,0,0,0,0,-1,1707,428,0,0
490,596,0,0,0,0,0,0,0,0,0,-1,1714,428,0,0
497,596,0,0,0,0,0,0,0,0,0,-1,1721,428,0,0
504,596,0,0,0,0,0,0,0,0,0,-1,1728,428,0,0
511,596,0,0,0,0,0,0,0,0,0,-1,1735,428,0,0
518,596,0,0,0,0,0,0,0,0,0,-1,1742,428,0,0
525,596,0,0,0,0,0,0,0,0,0,-1,1749,428,0,0
532,596,0,0,0,0,0,0,0,0,0,-1,1756,428,0,0
539,596,0,0,0,0,0,0,0,0,0,-1,1763,428,0,0
546,596,0,0,0,0,0,0,0,0,0,-1,1770,428,0,0
553,596,0,0,0,0,0,0,0,0,0,-1,1777,428,0,0
560,596,0,0,0,0,0,0,0,0,0,-1,1784,428,0,0
567,596,0,0,0,0,0,0,0,0,0,-1,1791,428,0,0
574,596,0,0,0,0,0,0,0,0,0,-1,1798,428,0,0
581,596,0,0,0,0,0,0,0,0,0,-1,1805,428,0,0
588,596,0,0,0,0,0,0,0,0,0,-1,1812,428,0,0
595,596,0,0,0,0,0,0,0,0,0,-1,1819,428,0,0
602,596,0,0,0,0,0,0,0,0,0,-1,1826,428,0,0
609,596,0,0,0,0,0,0,0,0,0,-1,1833,428,0,0
616,596,0,0,0,0,0,0,0,0,0,-1,1840,428,0,0
623,596,0,0,0,0,0,0,0,0,0,-1,1847,428,0,0
630,596,0,0,0,0,0,0,0,0,0,-1,1854,428,0,0
637,596,0,0,0,0,0,0,0,0,0,-1,1861,428,0,0
644,596,0,0,0,0,0,0,0,0,0,-1,1868,428,0,0
651,596,0,0,0,0,0,0,0,0,0,-1,1875,428,0,0
658,596,0,0,0,0,0,0,0,0,0,-1,1882,428,0,0
665,596,0,0,0,0,0,0,0,0,0,-1,1889,428,0,0
672,596,0,0,0,0,0,0,0,0,0,-1,1896,428,0,0
679,596,0,0,0,0,0,0,0,0,0,-1,1903,428,0,0
686,596,0,0,0,0,0,0,0,0,0,-1,1910,428,0,0
693,596,0,0,0,0,0,0,0,0,0,-1,1917,428,0,0
700,596,0,0,0,0,0,0,0,0,0,-1,1924,428,0,0
707,596,0,0,0,0,0,0,0,0,0,-1,1931,428,0,0
714,596,0,0,0,0,0,0,0,0,0,-1,1938,428,0,0
721,596,0,0,0,0,0,0,0,0,0,-1,1945,428,0,0
728,596,0,0,0,0,0,0,0,0,0,-1,1952,428,0,0
735,596,0,0,0,0,0,0,0,0,0,-1,1959,428,0,0
742,596,0,0,0,0,0,0,0,0,0,-1,1966,428,0,0
749,596,0,0,0,0,0,0,0,0,0,-1,1973,428,0,0
756,596,0,0,0,0,0,0,0,0,0,-1,1980,428,0,0
763,596,0,0,0,0,0,0,0,0,0,-1,1987,428,0,0
770,596,0,0,0,0,0,0,0,0,0,-1,1994,428,0,0
777,596,0,0,0,0,0,0,0,0,0,-1,2001,428,0,0
784,596,0,0,0,0,0,0,0,0,0,-1,2008,428,0,0
791,596,0,0,0,0,0,0,0,0,0,-1,2015,428,0,0
798,596,0,0,0,0,0,0,0,0,0,-1,2022,428,0,0
805,596,0,0,0,0,0,0,0,0,0,-1,2029,428,0,0
812,596,0,0,0,0,0,0,0,0,0,-1,2036,428,0,0
-700,589,0,0,0,0,0,0,0,0,0,-1,524,435,0,0
-693,589,0,0,0,0,0,0,0,0,0,-1,531,435,0,0
-686,589,0,0,0,0,0,0,0,0,0,-1,538,435,0,0
-679,589,0,0,0,0,0,0,0,0,0,-1,545,435,0,0
-672,589,0,0,0,0,0,0,0,0,0,-1,552,435,0,0
-665,589,0,0,0,0,0,0,0,0,0,-1,559,435,0,0
-658,589,0,0,0,0,0,0,0,0,0,-1,566,435,0,0
-651,589,0,0,0,0,0,0,0,0,0,-1,573,435,0,0
-644,589,0,0,0,0,0,0,0,0,0,-1,580,435,0,0
-637,589,0,0,0,0,0,0,0,0,0,-1,587,435,0,0
-630,589,0,0,0,0,0,0,0,0,0,-1,594,435,0,0
-623,589,0,0,0,0,0,0,0,0,0,-1,601,435,0,0
-616,589,0,0,0,0,0,0,0,0,0,-1,608,435,0,0
-609,589,0,0,0,0,0,0,0,0,0,-1,615,435,0,0
-602,589,0,0,0,0,0,0,0,0,0,-1,622,435,0,0
-595,589,0,0,0,0,0,0,0,0,0,-1,629,435,0,0
-588,589,0,0,0,0,0,0,0,0,0,-1,636,435,0,0
-581,589,0,0,0,0,0,0,0,0,0,-1,643,435,0,0
-574,589,0,0,0,0,0,0,0,0,0,-1,650,435,0,0
-567,589,0,0,0,0,0,0,0,0,0,-1,657,435,0,0
-560,589,0,0,0,0,0,0,0,0,0,-1,664,435,0,0
-553,589,0,0,0,0,0,0,0,0,0,-1,671,435,0,0
-546,589,0,0,0,0,0,0,0,0,0,-1,678,435,0,0
-539,589,0,0,0,0,0,0,0,0,0,-1,685,435,0,0
-532,589,0,0,0,0,0,0,0,0,0,-1,692,435,0,0
-525,589,0,0,0,0,0,0,0,0,0,-1,699,435,0,0
-518,589,0,0,0,0,0,0,0,0,0,-1,706,435,0,0
-511,589,0,0,0,0,0,0,0,0,0,-1,713,435,0,0
-504,589,0,0,0,0,0,0,0,0,0,-1,720,435,0,0
-497,589,0,0,0,0,0,0,0,0,0,-1,727,435,0,0
-490,589,0,0,0,0,0,0,0,0,0,-1,734,435,0,0
-483,589,0,0,0,0,0,0,0,0,0,-1,741,435,0,0
-476,589,0,0,0,0,0,0,0,0,0,-1,748,435,0,0
-469,589,0,0,0,0,0,0,0,0,0,-1,755,435,0,0
-462,589,0,0,0,0,0,0,0,0,0,-1,762,435,0,0
-455,589,0,0,0,0,0,0,0,0,0,-1,769,435,0,0
-448,589,0,0,0,0,0,0,0,0,0,-1,776,435,0,0
-441,589,0,0,0,0,0,0,0,0,0,-1,783,435,0,0
-434,589,0,0,0,0,0,0,0,0,0,-1,790,435,0,0
-427,589,0,0,0,0,0,0,0,0,0,-1,797,435,0,0
-420,589,0,0,0,0,0,0,0,0,0,-1,804,435,0,0
-413,589,0,0,0,0,0,0,0,0,0,-1,811,435,0,0
-406,589,0,0,0,0,0,0,0,0,0,-1,818,435,0,0
-399,589,0,0,0,0,0,0,0,0,0,-1,825,435,0,0
-392,589,0,0,0,0,0,0,0,0,0,-1,832,435,0,0
-385,589,0,0,0,0,0,0,0,0,0,-1,839,435,0,0
-378,589,0,0,0,0,0,0,0,0,0,-1,846,435,0,0
-371,589,0,0,0,0,0,0,0,0,0,-1,853,435,0,0
-364,589,0,0,0,0,0,0,0,0,0,-1,860,435,0,0
-357,589,0,0,0,0,0,0,0,0,0,-1,867,435,0,0
-350,589,-0.799927,-20.664,0,0,0,0,0,0,0,-1,874,435,-0.799952,20.664
-343,589,-0.370911,-19.1543,0,0,0,0,0,0,0,-1,881,435,-0.370922,19.1543
-336,589,-0.836914,-18.9103,0,0,0,0,0,0,0,-1,888,435,-0.836925,18.9103
-329,589,2.58252,-16.902,0,0,0,0,0,0,0,-1,895,435,2.58251,16.902
-322,589,5.25903,-22.0762,0,0,0,0,0,0,0,-1,902,435,5.25906,22.0762
-315,589,4.62878,-22.8981,0,0,0,0,0,0,0,-1,909,435,4.62879,22.8981
-308,589,3.34778,-25.1579,0,0,0,0,0,0,0,-1,916,435,3.34775,25.1579
-301,589,3.52655,-25.1714,0,0,0,0,0,0,0,-1,923,435,3.52654,25.1715
-294,589,2.8078,-25.6402,0,0,0,0,0,0,0,-1,930,435,2.80781,25.6402
-287,589,3.34058,-26.3012,0.00433333,0.00846968,-0.0088616,0.0155013,-0.00269824,-0.900039,0.0113411,0.0458611,937,435,3.34055,26.3012
-280,589,3.41766,-26.9451,0.00265335,0.00932525,-0.00777776,0.0144523,-0.00247369,-0.987987,0.0105565,0.0348529,944,435,3.41769,26.9451
-273,589,3.36072,-27.5409,0.00134296,0.00975237,-0.0068633,0.0135965,-0.00250121,-1.06023,0.0100029,0.0217881,951,435,3.36074,27.5409
-266,589,3.29816,-28.0712,5.86671e-05,0.00989736,-0.00593711,0.0126883,-0.00273232,-1.13136,0.00950154,0.0212793,958,435,3.29817,28.0712
-259,589,3.25714,-28.597,-0.000907505,0.00970453,-0.00512675,0.0117767,-0.00297966,-1.18669,0.0090101,0.0181896,965,435,3.25712,28.597
-252,589,3.27484,-29.1903,-0.00151664,0.00973412,-0.00434868,0.011219,-0.00300152,-1.24175,0.0086551,0.0109303,972,435,3.27483,29.1903
-245,589,3.28278,-29.705,-0.00178838,0.00925583,-0.00376495,0.0104172,-0.00294972,-1.27159,0.00810887,0.010459,979,435,3.2828,29.7051
-238,589,3.2525,-30.2027,-0.0018491,0.00878449,-0.00320047,0.00967344,-0.00273805,-1.29987,0.00752946,0.0135841,986,435,3.25251,30.2027
-231,589,3.20221,-30.7117,-0.00168086,0.00801281,-0.00285179,0.00878955,-0.00245759,-1.30488,0.00682795,0.0142744,993,435,3.20219,30.7117
-224,589,3.16553,-31.2125,-0.00122425,0.00695232,-0.00257578,0.00769609,-0.00196801,-1.28969,0.00589723,0.0146624,1000,435,3.1655,31.2125
-217,589,3.15759,-31.7031,-0.000622765,0.00563064,-0.00232886,0.00640264,-0.00139476,-1.2507,0.00480136,0.015796,1007,435,3.15761,31.7031
-210,589,3.14368,-32.1878,1.33772e-05,0.00415308,-0.00206429,0.00500652,-0.000840054,-1.17877,0.00365006,0.0153121,1014,435,3.14367,32.1878
-203,589,3.13489,-32.6389,0.000655414,0.00234131,-0.00169954,0.00339546,-0.000398742,-1.01561,0.00240759,0.0120846,1021,435,3.13485,32.6389
-196,589,3.10681,-33.0972,0.00120483,0.000747427,-0.00133012,0.00232576,-0.00037351,-0.700261,0.00168884,0.0148479,1028,435,3.10679,33.0972
-189,589,3.07642,-33.573,0.0019233,-0.000757848,-0.00098336,0.00224529,-0.00107984,-0.316441,0.00195868,0.0179518,1035,435,3.07645,33.573
-182,589,3.10217,-33.9706,0.00203431,-0.00316985,-0.000787322,0.00215081,-0.00328635,-0.146908,0.00316189,0.0131215,1042,435,3.10223,33.9707
-175,589,3.11926,-34.4037,0.00140888,-0.00604048,-0.000378133,0.00142803,-0.00605963,-0.0505871,0.00459041,0.016228,1049,435,3.11926,34.4037
-168,589,3.11926,-34.8952,0.000855208,-0.00877605,1.39514e-05,0.000855227,-0.00877607,0.00144855,0.00615562,0.0137641,1056,435,3.1193,34.8952
-161,589,3.1217,-35.3046,9.02296e-06,-0.0115308,0.000285539,1.60839e-05,-0.0115378,0.0247237,0.00769726,0.0127194,1063,435,3.12168,35.3046
-154,589,3.11011,-35.6919,-0.00112377,-0.0143078,0.000485041,-0.00110595,-0.0143256,0.0367239,0.00920393,0.0125181,1070,435,3.11009,35.6919
-147,589,3.12793,-36.0846,-0.00251136,-0.0172227,0.000622975,-0.00248502,-0.0172491,0.0422456,0.0107671,0.0128941,1077,435,3.12791,36.0846
-140,589,3.146,-36.4752,-0.00416994,-0.0201646,0.000688782,-0.00414034,-0.0201942,0.0429574,0.0123169,0.0139472,1084,435,3.14604,36.4752
-133,589,3.13721,-36.8581,-0.00589248,-0.0229161,0.000748188,-0.00585966,-0.0229489,0.0438374,0.0137681,0.0127115,1091,435,3.13719,36.8581
-126,589,3.16748,-37.2365,-0.00737332,-0.0251225,0.000733873,-0.00734303,-0.0251528,0.041253,0.0149352,0.0115582,1098,435,3.16752,37.2365
-119,589,3.17322,-37.5854,-0.00841967,-0.0268094,0.000536322,-0.00840405,-0.026825,0.0291313,0.0158432,0.0185237,1105,435,3.17327,37.5854
-112,589,3.17065,-37.9456,-0.00919044,-0.0278605,0.00030194,-0.00918556,-0.0278654,0.0161668,0.0163964,0.0192879,1112,435,3.1707,37.9457
-105,589,3.20117,-38.4489,-0.00971883,-0.0282238,0.000141816,-0.00971774,-0.0282249,0.00766306,0.0165569,0.0360714,1119,435,3.20111,38.4489
-98,589,3.18555,-38.9847,0,0,0,0,0,0,0,-1,1126,435,3.18555,38.9847
-91,589,3.39563,-37.8231,0,0,0,0,0,0,0,-1,1133,435,3.39565,37.8231
-84,589,2.76538,-22.6013,0,0,0,0,0,0,0,-1,1140,435,2.76539,22.6014
-77,589,2.18152,-14.8023,0,0,0,0,0,0,0,-1,1147,435,2.18155,14.8023
-70,589,1.48267,-9.90961,0,0,0,0,0,0,0,-1,1154,435,1.48264,9.9096
-63,589,0.880127,-5.50586,0,0,0,0,0,0,0,-1,1161,435,0.880186,5.50587
-56,589,-2.78052,-7.28082,0,0,0,0,0,0,0,-1,1168,435,-2.78053,7.28082
-49,589,-0.525757,-2.76703,0,0,0,0,0,0,0,-1,1175,435,-0.525771,2.76702
-42,589,-2.7738,-2.87921,0,0,0,0,0,0,0,-1,1182,435,-2.77383,2.87922
-35,589,-2.55225,-3.27551,0,0,0,0,0,0,0,-1,1189,435,-2.55223,3.27552
-28,589,-0.0632324,-3.42938,0,0,0,0,0,0,0,-1,1196,435,-0.063241,3.42938
-21,589,3.5896,-40.8929,0,0,0,0,0,0,0,-1,1203,435,3.58964,40.8929
-14,589,7.03931,-37.3877,0,0,0,0,0,0,0,-1,1210,435,7.03927,37.3877
-7,589,4.66479,-40.6126,0,0,0,0,0,0,0,-1,1217,435,4.66477,40.6126
0,589,5.62732,-39.9399,0,0,0,0,0,0,0,-1,1224,435,5.62735,39.9399
7,589,5.26404,-40.0638,-0.00692942,-0.0374905,-0.0146043,-0.0010728,-0.0433472,-0.381386,0.0285472,0.0493619,1231,435,5.26407,40.0638
14,589,4.88647,-40.3731,-0.00183995,-0.0439465,-0.0122924,0.00148594,-0.0472724,-0.264238,0.0320217,0.0448335,1238,435,4.88652,40.3731
21,589,4.42944,-40.5551,0,0,0,0,0,0,0,-1,1245,435,4.42942,40.5551
28,589,4.0636,-40.5917,0.00988562,-0.0568773,-0.00580145,0.010386,-0.0573777,-0.0860369,0.0421426,0.0441274,1252,435,4.06364,40.5917
35,589,4.18066,-40.472,0.015348,-0.0624555,-0.00187887,0.0153934,-0.0625008,-0.0241302,0.0476348,0.0455282,1259,435,4.18066,40.472
42,589,4.27393,-40.3245,0.020274,-0.0671865,0.00226274,0.0203325,-0.067245,0.0258485,0.0529258,0.047992,1266,435,4.27389,40.3245
49,589,5.44128,-42.8422,0.024898,-0.0709294,0.0065022,0.0253372,-0.0713686,0.0674413,0.0579031,0.0467822,1273,435,5.4413,42.8422
56,589,5.44507,-42.1861,0.0279643,-0.0721369,0.0104834,0.0290504,-0.0732231,0.103235,0.0608557,0.0425169,1280,435,5.44507,42.1861
63,589,5.42822,-41.2581,0.0299632,-0.0700622,0.0135653,0.0317702,-0.0718693,0.132433,0.061311,0.0444298,1287,435,5.42825,41.2582
70,589,4.51074,-42.707,0.0310675,-0.0653406,0.0161856,0.0337123,-0.0679854,0.161972,0.0598163,0.0437408,1294,435,4.51071,42.707
77,589,5.51221,-34.4437,0.0307254,-0.0580009,0.0179593,0.0342227,-0.0614982,0.192329,0.0560074,0.0458826,1301,435,5.51223,34.4437
84,589,5.37415,-33.7884,0.0300436,-0.049857,0.0190362,0.0343472,-0.0541605,0.222334,0.051525,0.046906,1308,435,5.37412,33.7884
91,589,5.24988,-33.1824,0,0,0,0,0,0,0,-1,1315,435,5.24985,33.1824
98,589,5.11987,-43.6627,0,0,0,0,0,0,0,-1,1322,435,5.11985,43.6627
105,589,4.1012,-30.6413,0,0,0,0,0,0,0,-1,1329,435,4.10122,30.6413
112,589,6.4552,-43.2406,0,0,0,0,0,0,0,-1,1336,435,6.45524,43.2406
119,589,6.47864,-44.341,0,0,0,0,0,0,0,-1,1343,435,6.47866,44.341
126,589,6.66638,-44.4674,0,0,0,0,0,0,0,-1,1350,435,6.66639,44.4674
133,589,6.63062,-44.3181,0,0,0,0,0,0,0,-1,1357,435,6.63059,44.3181
140,589,6.72949,-44.3099,0,0,0,0,0,0,0,-1,1364,435,6.72947,44.3099
147,589,6.73218,-44.2856,0,0,0,0,0,0,0,-1,1371,435,6.73217,44.2856
154,589,5.00635,-48.3267,0,0,0,0,0,0,0,-1,1378,435,5.00633,48.3267
161,589,-7.01355,-34.818,0,0,0,0,0,0,0,-1,1385,435,-7.01359,34.818
168,589,10.0815,-34.5519,0,0,0,0,0,0,0,-1,1392,435,10.0815,34.5519
175,589,8.66992,-7.65527,0,0,0,0,0,0,0,-1,1399,435,8.66994,7.65528
182,589,3.8136,-2.45389,0,0,0,0,0,0,0,-1,1406,435,3.81363,2.4539
189,589,3.69983,-3.68149,0,0,0,0,0,0,0,-1,1413,435,3.69987,3.68147
196,589,3.31055,-5.31677,0,0,0,0,0,0,0,-1,1420,435,3.31059,5.31678
203,589,2.72559,-8.84338,0,0,0,0,0,0,0,-1,1427,435,2.72558,8.84338
210,589,3.62378,-14.4032,0,0,0,0,0,0,0,-1,1434,435,3.62378,14.4032
217,589,4.65601,-22.3745,0,0,0,0,0,0,0,-1,1441,435,4.65607,22.3745
224,589,6.79028,-33.9412,0,0,0,0,0,0,0,-1,1448,435,6.79028,33.9412
231,589,7.47876,-38.0276,0,0,0,0,0,0,0,-1,1455,435,7.47878,38.0276
238,589,7.46313,-37.5729,0,0,0,0,0,0,0,-1,1462,435,7.46309,37.5729
245,589,7.55969,-37.1551,0,0,0,0,0,0,0,-1,1469,435,7.55964,37.1551
252,589,7.53357,-36.7926,0.00381064,0.00175141,-0.000261747,0.00384339,0.00171866,-0.124472,0.00222311,0.0156667,1476,435,7.53355,36.7926
259,589,7.55151,-36.4289,0.00345601,0.00155637,-0.000124928,0.00346419,0.00154819,-0.0653884,0.00200381,0.0095917,1483,435,7.55146,36.4289
266,589,7.57385,-36.0198,0.00309266,0.00125609,-8.03974e-05,0.00309617,0.00125257,-0.0436644,0.0017984,0.00969334,1490,435,7.57386,36.0198
273,589,7.5918,-35.6334,0.00283559,0.00127688,6.07512e-05,0.00283795,0.00127451,0.0388965,0.00164132,0.0112786,1497,435,7.59181,35.6334
280,589,7.59851,-35.2155,0.00250699,0.00125651,0.000255283,0.0025571,0.00120641,0.193819,0.00147712,0.0127597,1504,435,7.59851,35.2155
287,589,7.59155,-34.7682,0.00227194,0.00133462,0.000428171,0.00243808,0.00116848,0.370142,0.00140803,0.0117372,1511,435,7.59153,34.7682
294,589,7.58276,-34.2966,0.00211058,0.00163564,0.000618849,0.00253595,0.00121026,0.602197,0.00146464,0.00954905,1518,435,7.58272,34.2966
301,589,7.59656,-33.8276,0.00197343,0.00197312,0.000832377,0.00280565,0.00114089,0.785305,0.00162923,0.00992744,1525,435,7.59661,33.8276
308,589,7.5979,-33.3736,0.00189838,0.00223291,0.00104438,0.00312334,0.00100796,0.864803,0.00184066,0.0101109,1532,435,7.59789,33.3736
315,589,7.57507,-32.9038,0.00184291,0.00273577,0.00126404,0.0036299,0.000948783,0.95515,0.00217382,0.0104178,1539,435,7.57507,32.9038
322,589,7.57068,-32.4217,0.00177158,0.0032411,0.00150267,0.00417903,0.000833655,1.01279,0.0025539,0.0110609,1546,435,7.57067,32.4217
329,589,7.55237,-31.9449,0.00164596,0.00364039,0.00171018,0.00462287,0.000663491,1.04935,0.00288628,0.0100231,1553,435,7.55233,31.9449
336,589,7.53467,-31.4703,0.00154499,0.00411662,0.00197204,0.005185,0.000476607,1.0743,0.00330926,0.00988405,1560,435,7.53464,31.4703
343,589,7.52332,-30.969,0.00139615,0.00461545,0.00222835,0.00575471,0.000256892,1.09818,0.00375377,0.0113251,1567,435,7.5233,30.969
350,589,7.49512,-30.4171,0.00122463,0.00547482,0.00265354,0.00674933,-4.98781e-05,1.12303,0.00451627,0.0167327,1574,435,7.49507,30.417
357,589,7.47412,-29.8878,0.00100359,0.00624521,0.00312919,0.00770612,-0.000457319,1.134,0.00529644,0.0127685,1581,435,7.47412,29.8877
364,589,7.45422,-29.3684,0.000704697,0.00697528,0.00356671,0.00858883,-0.000908849,1.14596,0.00605163,0.0108035,1588,435,7.45421,29.3684
371,589,7.42944,-28.8311,0.000390149,0.00776965,0.00399965,0.00952154,-0.00136174,1.15796,0.00684689,0.0107563,1595,435,7.42944,28.8311
378,589,7.40686,-28.2908,7.37377e-05,0.00892285,0.00463415,0.0109055,-0.00190889,1.16653,0.00798306,0.0112489,1602,435,7.40681,28.2908
385,589,7.38708,-27.717,-0.000611493,0.0107899,0.00534447,0.0129034,-0.00272497,1.19422,0.00963985,0.0172256,1609,435,7.3871,27.717
392,589,7.34802,-27.0223,-0.000911462,0.0122839,0.00602125,0.0146184,-0.00324602,1.20092,0.0109886,0.0242837,1616,435,7.34797,27.0223
399,589,7.33447,-26.2832,0.000194444,0.0142723,0.00742808,0.0174668,-0.00300005,1.16465,0.0127626,0.0379814,1623,435,7.3345,26.2832
406,589,7.31677,-25.7686,0,0,0,0,0,0,0,-1,1630,435,7.31671,25.7686
413,589,5.61377,-19.0606,0,0,0,0,0,0,0,-1,1637,435,5.61372,19.0606
420,589,2.79724,-5.79956,0,0,0,0,0,0,0,-1,1644,435,2.7973,5.79955
427,589,6.83569,-24.2813,0,0,0,0,0,0,0,-1,1651,435,6.83575,24.2813
434,589,6.75146,-23.0161,0,0,0,0,0,0,0,-1,1658,435,6.75153,23.0161
441,589,5.7854,-22.2304,0,0,0,0,0,0,0,-1,1665,435,5.78543,22.2304
448,589,0.453735,-3.2868,0,0,0,0,0,0,0,-1,1672,435,0.453701,3.28681
455,589,0.664307,-3.46848,0,0,0,0,0,0,0,-1,1679,435,0.66425,3.46846
462,589,3.46716,-4.41891,0,0,0,0,0,0,0,-1,1686,435,3.4672,4.41891
469,589,0.0238037,-3.81497,0,0,0,0,0,0,0,-1,1693,435,0.0237965,3.81498
476,589,0,0,0,0,0,0,0,0,0,-1,1700,435,0,0
483,589,0,0,0,0,0,0,0,0,0,-1,1707,435,0,0
490,589,0,0,0,0,0,0,0,0,0,-1,1714,435,0,0
497,589,0,0,0,0,0,0,0,0,0,-1,1721,435,0,0
504,589,0,0,0,0,0,0,0,0,0,-1,1728,435,0,0
511,589,0,0,0,0,0,0,0,0,0,-1,1735,435,0,0
518,589,0,0,0,0,0,0,0,0,0,-1,1742,435,0,0
525,589,0,0,0,0,0,0,0,0,0,-1,1749,435,0,0
532,589,0,0,0,0,0,0,0,0,0,-1,1756,435,0,0
539,589,0,0,0,0,0,0,0,0,0,-1,1763,435,0,0
546,589,0,0,0,0,0,0,0,0,0,-1,1770,435,0,0
553,589,0,0,0,0,0,0,0,0,0,-1,1777,435,0,0
560,589,0,0,0,0,0,0,0,0,0,-1,1784,435,0,0
567,589,0,0,0,0,0,0,0,0,0,-1,1791,435,0,0
574,589,0,0,0,0,0,0,0,0,0,-1,1798,435,0,0
581,589,0,0,0,0,0,0,0,0,0,-1,1805,435,0,0
588,589,0,0,0,0,0,0,0,0,0,-1,1812,435,0,0
595,589,0,0,0,0,0,0,0,0,0,-1,1819,435,0,0
602,589,0,0,0,0,0,0,0,0,0,-1,1826,435,0,0
609,589,0,0,0,0,0,0,0,0,0,-1,1833,435,0,0
616,589,0,0,0,0,0,0,0,0,0,-1,1840,435,0,0
623,589,0,0,0,0,0,0,0,0,0,-1,1847,435,0,0
630,589,0,0,0,0,0,0,0,0,0,-1,1854,435,0,0
637,589,0,0,0,0,0,0,0,0,0,-1,1861,435,0,0
644,589,0,0,0,0,0,0,0,0,0,-1,1868,435,0,0
651,589,0,0,0,0,0,0,0,0,0,-1,1875,435,0,0
658,589,0,0,0,0,0,0,0,0,0,-1,1882,435,0,0
665,589,0,0,0,0,0,0,0,0,0,-1,1889,435,0,0
672,589,0,0,0,0,0,0,0,0,0,-1,1896,435,0,0
679,589,0,0,0,0,0,0,0,0,0,-1,1903,435,0,0
686,589,0,0,0,0,0,0,0,0,0,-1,1910,435,0,0
693,589,0,0,0,0,0,0,0,0,0,-1,1917,435,0,0
700,589,0,0,0,0,0,0,0,0,0,-1,1924,435,0,0
707,589,0,0,0,0,0,0,0,0,0,-1,1931,435,0,0
714,589,0,0,0,0,0,0,0,0,0,-1,1938,435,0,0
721,589,0,0,0,0,0,0,0,0,0,-1,1945,435,0,0
728,589,0,0,0,0,0,0,0,0,0,-1,1952,435,0,0
735,589,0,0,0,0,0,0,0,0,0,-1,1959,435,0,0
742,589,0,0,0,0,0,0,0,0,0,-1,1966,435,0,0
749,589,0,0,0,0,0,0,0,0,0,-1,1973,435,0,0
756,589,0,0,0,0,0,0,0,0,0,-1,1980,435,0,0
763,589,0,0,0,0,0,0,0,0,0,-1,1987,435,0,0
770,589,0,0,0,0,0,0,0,0,0,-1,1994,435,0,0
777,589,0,0,0,0,0,0,0,0,0,-1,2001,435,0,0
784,589,0,0,0,0,0,0,0,0,0,-1,2008,435,0,0
791,589,0,0,0,0,0,0,0,0,0,-1,2015,435,0,0
798,589,0,0,0,0,0,0,0,0,0,-1,2022,435,0,0
805,589,0,0,0,0,0,0,0,0,0,-1,2029,435,0,0
812,589,0,0,0,0,0,0,0,0,0,-1,2036,435,0,0
-700,582,0,0,0,0,0,0,0,0,0,-1,524,442,0,0
-693,582,0,0,0,0,0,0,0,0,0,-1,531,442,0,0
-686,582,0,0,0,0,0,0,0,0,0,-1,538,442,0,0
-679,582,0,0,0,0,0,0,0,0,0,-1,545,442,0,0
-672,582,0,0,0,0,0,0,0,0,0,-1,552,442,0,0
-665,582,0,0,0,0,0,0,0,0,0,-1,559,442,0,0
-658,582,0,0,0,0,0,0,0,0,0,-1,566,442,0,0
-651,582,0,0,0,0,0,0,0,0,0,-1,573,442,0,0
-644,582,0,0,0,0,0,0,0,0,0,-1,580,442,0,0
-637,582,0,0,0,0,0,0,0,0,0,-1,587,442,0,0
-630,582,0,0,0,0,0,0,0,0,0,-1,594,442,0,0
-623,582,0,0,0,0,0,0,0,0,0,-1,601,442,0,0
-616,582,0,0,0,0,0,0,0,0,0,-1,608,442,0,0
-609,582,0,0,0,0,0,0,0,0,0,-1,615,442,0,0
-602,582,0,0,0,0,0,0,0,0,0,-1,622,442,0,0
-595,582,0,0,0,0,0,0,0,0,0,-1,629,442,0,0
-588,582,0,0,0,0,0,0,0,0,0,-1,636,442,0,0
-581,582,0,0,0,0,0,0,0,0,0,-1,643,442,0,0
-574,582,0,0,0,0,0,0,0,0,0,-1,650,442,0,0
-567,582,0,0,0,0,0,0,0,0,0,-1,657,442,0,0
-560,582,0,0,0,0,0,0,0,0,0,-1,664,442,0,0
-553,582,0,0,0,0,0,0,0,0,0,-1,671,442,0,0
-546,582,0,0,0,0,0,0,0,0,0,-1,678,442,0,0
-539,582,0,0,0,0,0,0,0,0,0,-1,685,442,0,0
-532,582,0,0,0,0,0,0,0,0,0,-1,692,442,0,0
-525,582,0,0,0,0,0,0,0,0,0,-1,699,442,0,0
-518,582,0,0,0,0,0,0,0,0,0,-1,706,442,0,0
-511,582,0,0,0,0,0,0,0,0,0,-1,713,442,0,0
-504,582,0,0,0,0,0,0,0,0,0,-1,720,442,0,0
-497,582,0,0,0,0,0,0,0,0,0,-1,727,442,0,0
-490,582,0,0,0,0,0,0,0,0,0,-1,734,442,0,0
-483,582,0,0,0,0,0,0,0,0,0,-1,741,442,0,0
-476,582,0,0,0,0,0,0,0,0,0,-1,748,442,0,0
-469,582,0,0,0,0,0,0,0,0,0,-1,755,442,0,0
-462,582,0,0,0,0,0,0,0,0,0,-1,762,442,0,0
-455,582,0,0,0,0,0,0,0,0,0,-1,769,442,0,0
-448,582,0,0,0,0,0,0,0,0,0,-1,776,442,0,0
-441,582,0,0,0,0,0,0,0,0,0,-1,783,442,0,0
-434,582,0,0,0,0,0,0,0,0,0,-1,790,442,0,0
-427,582,0,0,0,0,0,0,0,0,0,-1,797,442,0,0
-420,582,0,0,0,0,0,0,0,0,0,-1,804,442,0,0
-413,582,0,0,0,0,0,0,0,0,0,-1,811,442,0,0
-406,582,0,0,0,0,0,0,0,0,0,-1,818,442,0,0
-399,582,0,0,0,0,0,0,0,0,0,-1,825,442,0,0
-392,582,0,0,0,0,0,0,0,0,0,-1,832,442,0,0
-385,582,0,0,0,0,0,0,0,0,0,-1,839,442,0,0
-378,582,0,0,0,0,0,0,0,0,0,-1,846,442,0,0
-371,582,0,0,0,0,0,0,0,0,0,-1,853,442,0,0
-364,582,0,0,0,0,0,0,0,0,0,-1,860,442,0,0
-357,582,-1.4903,-21.5295,0,0,0,0,0,0,0,-1,867,442,-1.49031,21.5295
-350,582,-0.880859,-19.7966,0,0,0,0,0,0,0,-1,874,442,-0.880885,19.7966
-343,582,-0.208557,-18.0078,0,0,0,0,0,0,0,-1,881,442,-0.208576,18.0078
-336,582,-0.167114,-18.7637,0,0,0,0,0,0,0,-1,888,442,-0.167108,18.7637
-329,582,4.35913,-21.6647,0,0,0,0,0,0,0,-1,895,442,4.35915,21.6647
-322,582,2.38861,-24.3075,0,0,0,0,0,0,0,-1,902,442,2.38862,24.3075
-315,582,2.59174,-24.5234,0,0,0,0,0,0,0,-1,909,442,2.59172,24.5234
-308,582,2.82764,-24.9915,0,0,0,0,0,0,0,-1,916,442,2.82762,24.9915
-301,582,2.57556,-25.1097,0,0,0,0,0,0,0,-1,923,442,2.57556,25.1098
-294,582,2.61542,-25.7465,0.00445871,0.00722052,-0.00836208,0.0143149,-0.00263572,-0.867229,0.0105324,0.0448655,930,442,2.61542,25.7465
-287,582,2.81201,-26.3203,0.00307777,0.00711241,-0.00733075,0.0126983,-0.00250816,-0.919668,0.00941366,0.0382319,937,442,2.81201,26.3203
-280,582,2.94177,-26.9233,0.00207526,0.00748097,-0.00652978,0.0118452,-0.00228895,-0.981626,0.00876003,0.0191274,944,442,2.94177,26.9233
-273,582,2.90869,-27.5248,0.0012768,0.00761829,-0.00580196,0.0110594,-0.00216428,-1.03547,0.00819023,0.0115457,951,442,2.90872,27.5248
-266,582,2.8692,-28.0923,0.000419218,0.00748924,-0.00499948,0.0100772,-0.00216877,-1.09313,0.00754569,0.0111179,958,442,2.86917,28.0922
-259,582,2.83417,-28.6367,-0.000232841,0.00709325,-0.00425384,0.00904385,-0.00218344,-1.14085,0.00687363,0.0093286,965,442,2.83415,28.6367
-252,582,2.81604,-29.1811,-0.000639915,0.00691315,-0.0034825,0.00827374,-0.0020005,-1.19834,0.00628962,0.00845968,972,442,2.81602,29.1811
-245,582,2.81256,-29.6853,-0.000759624,0.00621712,-0.00286477,0.00724269,-0.00178519,-1.22702,0.00552059,0.0115558,979,442,2.81256,29.6853
-238,582,2.77051,-30.1737,-0.00069306,0.00544439,-0.00226324,0.00618871,-0.00143738,-1.25306,0.00467912,0.0151885,986,442,2.7705,30.1737
-231,582,2.74097,-30.6809,-0.000435218,0.00439274,-0.0018863,0.00504232,-0.0010848,-1.23915,0.00377546,0.0118541,993,442,2.74097,30.6809
-224,582,2.73279,-31.1953,2.52558e-05,0.00310226,-0.00153887,0.00373979,-0.000612273,-1.17804,0.00272035,0.0108728,1000,442,2.73279,31.1953
-217,582,2.69757,-31.6929,0.000597681,0.00160731,-0.00122062,0.00242339,-0.000218394,-0.981474,0.00169309,0.0134417,1007,442,2.6976,31.6929
-210,582,2.6795,-32.1541,0.00125828,-1.68945e-05,-0.000917909,0.00173831,-0.000496927,-0.481849,0.00135523,0.0134182,1014,442,2.67948,32.1541
-203,582,2.69,-32.6212,0.00198538,-0.00194057,-0.000594526,0.00207344,-0.00202863,-0.147044,0.00236838,0.0106785,1021,442,2.69002,32.6212
-196,582,2.64185,-33.0877,0.00259131,-0.00366045,-0.000271497,0.00260308,-0.00367222,-0.0433186,0.00364053,0.0159858,1028,442,2.64186,33.0877
-189,582,2.61902,-33.5465,0.00338379,-0.0053192,0.000139437,0.00338602,-0.00532143,0.0160163,0.00506848,0.0223649,1035,442,2.61901,33.5465
-182,582,2.67212,-33.9872,0.00320365,-0.00827555,0.000176019,0.00320635,-0.00827825,0.0153289,0.00684278,0.0160313,1042,442,2.67218,33.9872
-175,582,2.67346,-34.3957,0.00199928,-0.0116633,0.000481462,0.00201623,-0.0116803,0.0351812,0.00853864,0.0134797,1049,442,2.67349,34.3957
-168,582,2.6814,-34.8625,0.00106548,-0.0149033,0.000772865,0.0011028,-0.0149406,0.0482483,0.0103476,0.011623,1056,442,2.68139,34.8625
-161,582,2.68201,-35.2715,-0.000320788,-0.0182426,0.000929987,-0.000272659,-0.0182907,0.0517063,0.0121039,0.0130804,1063,442,2.68207,35.2715
-154,582,2.70068,-35.6719,-0.00217254,-0.0217632,0.00101228,-0.00212038,-0.0218154,0.0514889,0.0138908,0.0122574,1070,442,2.70064,35.6719
-147,582,2.72375,-36.0782,-0.004444,-0.0255244,0.00103673,-0.00439313,-0.0255753,0.049022,0.0157909,0.0121702,1077,442,2.72381,36.0781
-140,582,2.71509,-36.4481,-0.00719792,-0.0294127,0.00100111,-0.0071529,-0.0294578,0.0449436,0.0177415,0.0133793,1084,442,2.71508,36.4481
-133,582,2.75842,-36.8164,-0.0101504,-0.0331646,0.000989263,-0.010108,-0.033207,0.0428795,0.0196551,0.0160622,1091,442,2.75848,36.8164
-126,582,2.79126,-37.1173,-0.0128692,-0.0363591,0.000909666,-0.012834,-0.0363943,0.0386487,0.0213143,0.0150654,1098,442,2.79128,37.1173
-119,582,2.75061,-37.3571,-0.0150563,-0.0389105,0.000545408,-0.0150439,-0.0389229,0.0228484,0.0226643,0.0196418,1105,442,2.75059,37.3571
-112,582,2.72192,-37.8263,-0.0169466,-0.0405745,0.000129146,-0.0169459,-0.0405752,0.00546561,0.0235318,0.0315104,1112,442,2.72193,37.8263
-105,582,2.75537,-38.3437,0,0,0,0,0,0,0,-1,1119,442,2.75534,38.3437
-98,582,2.61938,-32.8673,0,0,0,0,0,0,0,-1,1126,442,2.61944,32.8673
-91,582,2.16492,-24.1119,0,0,0,0,0,0,0,-1,1133,442,2.16496,24.1119
-84,582,2.10278,-16.7533,0,0,0,0,0,0,0,-1,1140,442,2.10279,16.7533
-77,582,2.30212,-11.4907,0,0,0,0,0,0,0,-1,1147,442,2.30207,11.4907
-70,582,1.49255,-6.36548,0,0,0,0,0,0,0,-1,1154,442,1.49251,6.36549
-63,582,-4.62915,-4.0347,0,0,0,0,0,0,0,-1,1161,442,-4.6292,4.03471
-56,582,-5.81714,-5.24149,0,0,0,0,0,0,0,-1,1168,442,-5.81718,5.24149
-49,582,-3.88672,-10.1064,0,0,0,0,0,0,0,-1,1175,442,-3.88678,10.1064
-42,582,-0.948975,1.13968,0,0,0,0,0,0,0,-1,1182,442,-0.949003,-1.13969
-35,582,-2.58435,-3.86911,0,0,0,0,0,0,0,-1,1189,442,-2.58437,3.86912
-28,582,-0.825317,-3.45941,0,0,0,0,0,0,0,-1,1196,442,-0.825377,3.45942
-21,582,7.93494,-36.4524,0,0,0,0,0,0,0,-1,1203,442,7.93489,36.4524
-14,582,7.27881,-37.4456,0,0,0,0,0,0,0,-1,1210,442,7.2788,37.4456
-7,582,6.89587,-38.1289,0,0,0,0,0,0,0,-1,1217,442,6.89582,38.1289
0,582,6.07031,-38.8245,0,0,0,0,0,0,0,-1,1224,442,6.07035,38.8245
7,582,5.63159,-39.9111,-0.0118207,-0.0407154,-0.0199382,-0.00164576,-0.0508903,-0.471873,0.0333918,0.0461435,1231,442,5.63161,39.9111
14,582,5.08167,-40.2261,-0.00509939,-0.0481667,-0.0169315,0.000759885,-0.054026,-0.333159,0.0362733,0.044919,1238,442,5.0817,40.2261
21,582,4.13721,-40.2067,0,0,0,0,0,0,0,-1,1245,442,4.13721,40.2067
28,582,3.24463,-39.9969,0.00886746,-0.0628382,-0.00847877,0.00985639,-0.0638272,-0.116111,0.0461888,0.0444441,1252,442,3.24467,39.9969
35,582,4.32324,-39.9743,0.0154097,-0.0694091,-0.00344121,0.0155491,-0.0695485,-0.0404826,0.0523245,0.0475716,1259,442,4.32328,39.9743
42,582,4.41357,-39.6315,0.0211615,-0.0747124,0.00189897,0.0211991,-0.07475,0.0197966,0.0582012,0.0452976,1266,442,4.41356,39.6315
49,582,3.81775,-40.0356,0.0265139,-0.0787008,0.00735271,0.0270252,-0.0792121,0.0694331,0.0637553,0.0443356,1273,442,3.81773,40.0356
56,582,5.00012,-42.6357,0.0300456,-0.0796418,0.0124524,0.0314415,-0.0810377,0.111634,0.0670112,0.0419163,1280,442,5.0001,42.6357
63,582,5.05273,-37.8902,0.0324003,-0.0767553,0.0163657,0.0348012,-0.0791562,0.145664,0.0674341,0.0425986,1287,442,5.05278,37.8902
70,582,5.08252,-36.8443,0.0338329,-0.0708079,0.0196877,0.0374145,-0.0743895,0.179951,0.0657162,0.0449345,1294,442,5.08254,36.8443
77,582,5.4967,-35.908,0,0,0,0,0,0,0,-1,1301,442,5.49669,35.908
84,582,5.31079,-34.0152,0,0,0,0,0,0,0,-1,1308,442,5.3108,34.0152
91,582,5.2417,-33.3496,0,0,0,0,0,0,0,-1,1315,442,5.24167,33.3496
98,582,4.67737,-32.2559,0,0,0,0,0,0,0,-1,1322,442,4.67734,32.2559
105,582,4.47925,-30.8752,0,0,0,0,0,0,0,-1,1329,442,4.47926,30.8752
112,582,4.15088,-30.0136,0,0,0,0,0,0,0,-1,1336,442,4.15086,30.0136
119,582,6.62817,-43.769,0,0,0,0,0,0,0,-1,1343,442,6.62818,43.769
126,582,6.51819,-44.1521,0,0,0,0,0,0,0,-1,1350,442,6.51823,44.1521
133,582,5.76111,-25.8056,0,0,0,0,0,0,0,-1,1357,442,5.76114,25.8056
140,582,6.79517,-44.3818,0,0,0,0,0,0,0,-1,1364,442,6.79517,44.3818
147,582,5.45959,-47.5991,0,0,0,0,0,0,0,-1,1371,442,5.45964,47.5991
154,582,5.00073,-47.348,0,0,0,0,0,0,0,-1,1378,442,5.00069,47.3479
161,582,4.53625,-47.0807,0,0,0,0,0,0,0,-1,1385,442,4.53631,47.0807
168,582,-6.51233,-33.5053,0,0,0,0,0,0,0,-1,1392,442,-6.51232,33.5053
175,582,6.50549,-2.00424,0,0,0,0,0,0,0,-1,1399,442,6.50546,2.00425
182,582,5.18958,-2.18652,0,0,0,0,0,0,0,-1,1406,442,5.1896,2.18652
189,582,6.19751,-0.880951,0,0,0,0,0,0,0,-1,1413,442,6.19754,0.88096
196,582,4.87354,-2.22327,0,0,0,0,0,0,0,-1,1420,442,4.87348,2.22325
203,582,3.11401,-4.48257,0,0,0,0,0,0,0,-1,1427,442,3.11404,4.48259
210,582,2.93115,-11.0731,0,0,0,0,0,0,0,-1,1434,442,2.93113,11.0731
217,582,4.94092,-16.5476,0,0,0,0,0,0,0,-1,1441,442,4.94087,16.5476
224,582,5.21008,-20.9908,0,0,0,0,0,0,0,-1,1448,442,5.21006,20.9908
231,582,5.70032,-25.622,0,0,0,0,0,0,0,-1,1455,442,5.70026,25.6221
238,582,6.44189,-30.7028,0,0,0,0,0,0,0,-1,1462,442,6.44195,30.7028
245,582,8.14331,-37.4431,0,0,0,0,0,0,0,-1,1469,442,8.14333,37.4431
252,582,8.02258,-36.936,0.0051505,0.00282134,-1.92784e-05,0.00515066,0.00282118,-0.00827621,0.00297825,0.0392964,1476,442,8.02262,36.936
259,582,7.95471,-36.4634,0.00474686,0.00196251,-4.24782e-05,0.00474751,0.00196186,-0.0152513,0.0027547,0.023132,1483,442,7.95473,36.4634
266,582,7.96802,-36.0471,0.00427862,0.00101956,-0.000234461,0.00429541,0.00100278,-0.071451,0.00259476,0.0150074,1490,442,7.96807,36.0471
273,582,8.02698,-35.6365,0.00391939,0.000564234,-0.000286893,0.00394374,0.000539879,-0.0846889,0.00246896,0.0123028,1497,442,8.02697,35.6365
280,582,8.04712,-35.2239,0.00347276,3.02252e-05,-0.000300746,0.00349883,4.14893e-06,-0.0864889,0.00233117,0.0118441,1504,442,8.04709,35.2239
287,582,8.05017,-34.7652,0.00307781,-0.000315788,-0.000321981,0.00310809,-0.000346067,-0.0937639,0.00219652,0.0113001,1511,442,8.0502,34.7652
294,582,8.05164,-34.2941,0.00273655,-0.000261989,-0.000273071,0.00276121,-0.000286654,-0.0900806,0.00194342,0.00907174,1518,442,8.05168,34.2941
301,582,8.0658,-33.8195,0.00241955,-0.000102114,-0.000148659,0.00242828,-0.000110848,-0.0586818,0.00165704,0.00957187,1525,442,8.06578,33.8195
308,582,8.0658,-33.3557,0.00214604,-3.06941e-05,-1.84591e-05,0.00214619,-3.08505e-05,-0.00847937,0.00144119,0.0120726,1532,442,8.06577,33.3557
315,582,8.04639,-32.8939,0.00188442,0.000381037,0.000157023,0.00190064,0.000364812,0.102966,0.00116469,0.0135562,1539,442,8.04638,32.8939
322,582,8.04004,-32.4022,0.00161921,0.000891533,0.000401562,0.00179725,0.000713495,0.417321,0.00104496,0.010741,1546,442,8.04005,32.4022
329,582,8.03113,-31.9318,0.00132996,0.00131418,0.000631595,0.00195371,0.000690425,0.779156,0.00114403,0.0103276,1553,442,8.03108,31.9317
336,582,8.02209,-31.4502,0.00113971,0.00190695,0.000963988,0.00256085,0.000485819,0.974767,0.00157054,0.0109856,1560,442,8.02213,31.4502
343,582,8.01636,-30.9395,0.00093869,0.00249803,0.00128604,0.00322228,0.000214439,1.0579,0.0020804,0.0133878,1567,442,8.01641,30.9395
350,582,8.00305,-30.4189,0.000712119,0.00338201,0.00171438,0.0042199,-0.000125767,1.1162,0.00285611,0.0168223,1574,442,8.00299,30.419
357,582,7.98389,-29.8744,0.000484212,0.00418355,0.00217793,0.00519127,-0.000523507,1.13744,0.00364789,0.0136847,1581,442,7.98394,29.8744
364,582,7.96521,-29.3494,0.000230368,0.00495257,0.00261672,0.00611595,-0.000933017,1.15244,0.00442125,0.0104531,1588,442,7.96526,29.3494
371,582,7.9425,-28.8285,-8.38219e-06,0.00575161,0.00305325,0.00706884,-0.00132561,1.1635,0.00521094,0.0138156,1595,442,7.94247,28.8285
378,582,7.90552,-28.3065,-0.000254531,0.00675528,0.00360756,0.00828017,-0.00177942,1.17088,0.00619898,0.0142855,1602,442,7.90553,28.3065
385,582,7.88245,-27.7631,-0.000628883,0.00829551,0.00415649,0.00993148,-0.00226485,1.19582,0.00749095,0.0110431,1609,442,7.8825,27.7631
392,582,7.84302,-27.2059,-0.000604446,0.00950482,0.00470056,0.0113527,-0.00245231,1.19624,0.00850458,0.0101639,1616,442,7.84299,27.2059
399,582,7.81067,-26.6737,0.00035391,0.0109669,0.00589791,0.0135942,-0.00227334,1.15173,0.00990787,0.020265,1623,442,7.81071,26.6737
406,582,7.8136,-25.9511,0.000942884,0.0126708,0.00703174,0.0159628,-0.00234911,1.13294,0.0115051,0.0366834,1630,442,7.81364,25.9511
413,582,7.70471,-25.5175,0,0,0,0,0,0,0,-1,1637,442,7.70473,25.5175
420,582,7.66199,-24.8979,0,0,0,0,0,0,0,-1,1644,442,7.66205,24.8979
427,582,7.53821,-24.242,0.00245818,0.0126464,0.00963803,0.0184537,-0.00334915,1.02851,0.0135575,0.0462278,1651,442,7.53826,24.242
434,582,7.4292,-23.3914,0.00254,0.0110205,0.0118608,0.0193762,-0.00581574,0.957068,0.0152308,0.047839,1658,442,7.42923,23.3914
441,582,7.37964,-22.7918,0,0,0,0,0,0,0,-1,1665,442,7.37962,22.7918
448,582,9.68323,-22.4557,0,0,0,0,0,0,0,-1,1672,442,9.68319,22.4557
455,582,6.4585,-19.4734,0,0,0,0,0,0,0,-1,1679,442,6.45854,19.4734
462,582,5.35022,-19.2616,0,0,0,0,0,0,0,-1,1686,442,5.35025,19.2616
469,582,6.20471,-20.7091,0,0,0,0,0,0,0,-1,1693,442,6.20476,20.7091
476,582,1.93579,-8.53891,0,0,0,0,0,0,0,-1,1700,442,1.93579,8.53892
483,582,0,0,0,0,0,0,0,0,0,-1,1707,442,0,0
490,582,0,0,0,0,0,0,0,0,0,-1,1714,442,0,0
497,582,0,0,0,0,0,0,0,0,0,-1,1721,442,0,0
504,582,0,0,0,0,0,0,0,0,0,-1,1728,442,0,0
511,582,0,0,0,0,0,0,0,0,0,-1,1735,442,0,0
518,582,0,0,0,0,0,0,0,0,0,-1,1742,442,0,0
525,582,0,0,0,0,0,0,0,0,0,-1,1749,442,0,0
532,582,0,0,0,0,0,0,0,0,0,-1,1756,442,0,0
539,582,0,0,0,0,0,0,0,0,0,-1,1763,442,0,0
546,582,0,0,0,0,0,0,0,0,0,-1,1770,442,0,0
553,582,0,0,0,0,0,0,0,0,0,-1,1777,442,0,0
560,582,0,0,0,0,0,0,0,0,0,-1,1784,442,0,0
567,582,0,0,0,0,0,0,0,0,0,-1,1791,442,0,0
574,582,0,0,0,0,0,0,0,0,0,-1,1798,442,0,0
581,582,0,0,0,0,0,0,0,0,0,-1,1805,442,0,0
588,582,0,0,0,0,0,0,0,0,0,-1,1812,442,0,0
595,582,0,0,0,0,0,0,0,0,0,-1,1819,442,0,0
602,582,0,0,0,0,0,0,0,0,0,-1,1826,442,0,0
609,582,0,0,0,0,0,0,0,0,0,-1,1833,442,0,0
616,582,0,0,0,0,0,0,0,0,0,-1,1840,442,0,0
623,582,0,0,0,0,0,0,0,0,0,-1,1847,442,0,0
630,582,0,0,0,0,0,0,0,0,0,-1,1854,442,0,0
637,582,0,0,0,0,0,0,0,0,0,-1,1861,442,0,0
644,582,0,0,0,0,0,0,0,0,0,-1,1868,442,0,0
651,582,0,0,0,0,0,0,0,0,0,-1,1875,442,0,0
658,582,0,0,0,0,0,0,0,0,0,-1,1882,442,0,0
665,582,0,0,0,0,0,0,0,0,0,-1,1889,442,0,0
672,582,0,0,0,0,0,0,0,0,0,-1,1896,442,0,0
679,582,0,0,0,0,0,0,0,0,0,-1,1903,442,0,0
686,582,0,0,0,0,0,0,0,0,0,-1,1910,442,0,0
693,582,0,0,0,0,0,0,0,0,0,-1,1917,442,0,0
700,582,0,0,0,0,0,0,0,0,0,-1,1924,442,0,0
707,582,0,0,0,0,0,0,0,0,0,-1,1931,442,0,0
714,582,0,0,0,0,0,0,0,0,0,-1,1938,442,0,0
721,582,0,0,0,0,0,0,0,0,0,-1,1945,442,0,0
728,582,0,0,0,0,0,0,0,0,0,-1,1952,442,0,0
735,582,0,0,0,0,0,0,0,0,0,-1,1959,442,0,0
742,582,0,0,0,0,0,0,0,0,0,-1,1966,442,0,0
749,582,0,0,0,0,0,0,0,0,0,-1,1973,442,0,0
756,582,0,0,0,0,0,0,0,0,0,-1,1980,442,0,0
763,582,0,0,0,0,0,0,0,0,0,-1,1987,442,0,0
770,582,0,0,0,0,0,0,0,0,0,-1,1994,442,0,0
777,582,0,0,0,0,0,0,0,0,0,-1,2001,442,0,0
784,582,0,0,0,0,0,0,0,0,0,-1,2008,442,0,0
791,582,0,0,0,0,0,0,0,0,0,-1,2015,442,0,0
798,582,0,0,0,0,0,0,0,0,0,-1,2022,442,0,0
805,582,0,0,0,0,0,0,0,0,0,-1,2029,442,0,0
812,582,0,0,0,0,0,0,0,0,0,-1,2036,442,0,0
-700,575,0,0,0,0,0,0,0,0,0,-1,524,449,0,0
-693,575,0,0,0,0,0,0,0,0,0,-1,531,449,0,0
-686,575,0,0,0,0,0,0,0,0,0,-1,538,449,0,0
-679,575,0,0,0,0,0,0,0,0,0,-1,545,449,0,0
-672,575,0,0,0,0,0,0,0,0,0,-1,552,449,0,0
-665,575,0,0,0,0,0,0,0,0,0,-1,559,449,0,0
-658,575,0,0,0,0,0,0,0,0,0,-1,566,449,0,0
-651,575,0,0,0,0,0,0,0,0,0,-1,573,449,0,0
-644,575,0,0,0,0,0,0,0,0,0,-1,580,449,0,0
-637,575,0,0,0,0,0,0,0,0,0,-1,587,449,0,0
-630,575,0,0,0,0,0,0,0,0,0,-1,594,449,0,0
-623,575,0,0,0,0,0,0,0,0,0,-1,601,449,0,0
-616,575,0,0,0,0,0,0,0,0,0,-1,608,449,0,0
-609,575,0,0,0,0,0,0,0,0,0,-1,615,449,0,0
-602,575,0,0,0,0,0,0,0,0,0,-1,622,449,0,0
-595,575,0,0,0,0,0,0,0,0,0,-1,629,449,0,0
-588,575,0,0,0,0,0,0,0,0,0,-1,636,449,0,0
-581,575,0,0,0,0,0,0,0,0,0,-1,643,449,0,0
-574,575,0,0,0,0,0,0,0,0,0,-1,650,449,0,0
-567,575,0,0,0,0,0,0,0,0,0,-1,657,449,0,0
-560,575,0,0,0,0,0,0,0,0,0,-1,664,449,0,0
-553,575,0,0,0,0,0,0,0,0,0,-1,671,449,0,0
-546,575,0,0,0,0,0,0,0,0,0,-1,678,449,0,0
-539,575,0,0,0,0,0,0,0,0,0,-1,685,449,0,0
-532,575,0,0,0,0,0,0,0,0,0,-1,692,449,0,0
-525,575,0,0,0,0,0,0,0,0,0,-1,699,449,0,0
-518,575,0,0,0,0,0,0,0,0,0,-1,706,449,0,0
-511,575,0,0,0,0,0,0,0,0,0,-1,713,449,0,0
-504,575,0,0,0,0,0,0,0,0,0,-1,720,449,0,0
-497,575,0,0,0,0,0,0,0,0,0,-1,727,449,0,0
-490,575,0,0,0,0,0,0,0,0,0,-1,734,449,0,0
-483,575,0,0,0,0,0,0,0,0,0,-1,741,449,0,0
-476,575,0,0,0,0,0,0,0,0,0,-1,748,449,0,0
-469,575,0,0,0,0,0,0,0,0,0,-1,755,449,0,0
-462,575,0,0,0,0,0,0,0,0,0,-1,762,449,0,0
-455,575,0,0,0,0,0,0,0,0,0,-1,769,449,0,0
-448,575,0,0,0,0,0,0,0,0,0,-1,776,449,0,0
-441,575,0,0,0,0,0,0,0,0,0,-1,783,449,0,0
-434,575,0,0,0,0,0,0,0,0,0,-1,790,449,0,0
-427,575,0,0,0,0,0,0,0,0,0,-1,797,449,0,0
-420,575,0,0,0,0,0,0,0,0,0,-1,804,449,0,0
-413,575,0,0,0,0,0,0,0,0,0,-1,811,449,0,0
-406,575,0,0,0,0,0,0,0,0,0,-1,818,449,0,0
-399,575,0,0,0,0,0,0,0,0,0,-1,825,449,0,0
-392,575,0,0,0,0,0,0,0,0,0,-1,832,449,0,0
-385,575,0,0,0,0,0,0,0,0,0,-1,839,449,0,0
-378,575,0,0,0,0,0,0,0,0,0,-1,846,449,0,0
-371,575,0.56897,-3.52304,0,0,0,0,0,0,0,-1,853,449,0.568955,3.52306
-364,575,1.49805,-4.67191,0,0,0,0,0,0,0,-1,860,449,1.49803,4.6719
-357,575,3.15521,-8.29892,0,0,0,0,0,0,0,-1,867,449,3.15521,8.29891
-350,575,-0.825928,-18.5347,0,0,0,0,0,0,0,-1,874,449,-0.825948,18.5347
-343,575,0.465393,-16.3569,0,0,0,0,0,0,0,-1,881,449,0.465397,16.3569
-336,575,3.1994,-17.5725,0,0,0,0,0,0,0,-1,888,449,3.19941,17.5725
-329,575,2.74884,-23.0785,0,0,0,0,0,0,0,-1,895,449,2.74886,23.0785
-322,575,2.70215,-23.6711,0,0,0,0,0,0,0,-1,902,449,2.70212,23.6711
-315,575,2.48584,-24.2215,0,0,0,0,0,0,0,-1,909,449,2.48586,24.2215
-308,575,2.35748,-24.8682,0.00359276,0.00692674,-0.00751638,0.0129588,-0.00243927,-0.894522,0.0095566,0.0456374,916,449,2.35747,24.8682
-301,575,2.5238,-25.2863,0.00354263,0.00655836,-0.007365,0.0125683,-0.00246728,-0.88637,0.00931088,0.0318172,923,449,2.52381,25.2864
-294,575,2.44122,-25.8089,0.00290148,0.00609555,-0.00665815,0.0113455,-0.00234849,-0.903105,0.00845593,0.0239337,930,449,2.44121,25.8089
-287,575,2.42883,-26.4237,0.00215331,0.00583657,-0.00589219,0.0101682,-0.00217835,-0.936865,0.00760959,0.0191558,937,449,2.42885,26.4237
-280,575,2.43494,-26.9856,0.00161957,0.00589003,-0.00528672,0.00945644,-0.00194683,-0.977324,0.0070435,0.0150519,944,449,2.43492,26.9856
-273,575,2.41876,-27.5482,0.0011941,0.00581564,-0.00469449,0.00873726,-0.00172752,-1.0141,0.00647793,0.0111419,951,449,2.41877,27.5482
-266,575,2.39679,-28.0968,0.000674159,0.00547699,-0.00399007,0.00773256,-0.00158141,-1.05629,0.00575506,0.012386,958,449,2.3968,28.0968
-259,575,2.33362,-28.6405,0.000291982,0.00489749,-0.00330084,0.00661944,-0.00142996,-1.08996,0.00495882,0.0124851,965,449,2.33362,28.6405
-252,575,2.29333,-29.1691,7.74007e-05,0.00447401,-0.00254427,0.00563812,-0.00108671,-1.14169,0.00416847,0.0112957,972,449,2.29331,29.1691
-245,575,2.28845,-29.6718,0.000117818,0.00351362,-0.00189882,0.00436295,-0.000731513,-1.1502,0.00318064,0.0142782,979,449,2.28845,29.6719
-238,575,2.26453,-30.1735,0.000345477,0.0024222,-0.0012892,0.0030392,-0.000271525,-1.12442,0.00212244,0.0140615,986,449,2.26454,30.1735
-231,575,2.26239,-30.6675,0.000739879,0.00103758,-0.000909954,0.00181078,-3.33205e-05,-0.866469,0.00121844,0.0120969,993,449,2.2624,30.6676
-224,575,2.24072,-31.1668,0.00124924,-0.000557134,-0.00050802,0.00138232,-0.000690205,-0.256185,0.00121861,0.0128843,1000,449,2.24074,31.1668
-217,575,2.2254,-31.657,0.00185333,-0.00233812,-0.000130459,0.00185738,-0.00234218,-0.031085,0.00243,0.0114329,1007,449,2.22542,31.6571
-210,575,2.23822,-32.1418,0.00259512,-0.00423123,0.000214792,0.00260187,-0.00423798,0.0314237,0.00398647,0.00963125,1014,449,2.23823,32.1418
-203,575,2.24084,-32.6106,0.00345393,-0.00638924,0.000524651,0.00348182,-0.00641712,0.0531005,0.0057983,0.0125406,1021,449,2.24086,32.6106
-196,575,2.20886,-33.0618,0.00415995,-0.00832849,0.000820184,0.00421358,-0.00838212,0.0653016,0.00740369,0.016254,1028,449,2.20892,33.0618
-189,575,2.19897,-33.5239,0.0050806,-0.0102146,0.00130192,0.00519063,-0.0103246,0.0843115,0.00911971,0.0173491,1035,449,2.19894,33.5239
-182,575,2.21973,-33.9654,0.00455606,-0.0138664,0.00115774,0.00462853,-0.0139389,0.0625158,0.0111601,0.0157558,1042,449,2.21971,33.9654
-175,575,2.24585,-34.3826,0.00261384,-0.0179275,0.00134546,0.0027016,-0.0180153,0.0651293,0.0130046,0.0123424,1049,449,2.24582,34.3826
-168,575,2.2262,-34.8174,0.00115507,-0.0218327,0.00151114,0.00125398,-0.0219316,0.0653621,0.0150565,0.0113706,1056,449,2.22622,34.8175
-161,575,2.22351,-35.2247,-0.00100004,-0.0259762,0.00151037,-0.000909042,-0.0260672,0.0601801,0.0170832,0.0160796,1063,449,2.22352,35.2247
-154,575,2.27539,-35.6212,-0.0039103,-0.0305281,0.00141826,-0.00383495,-0.0306035,0.0530822,0.0192517,0.017137,1070,449,2.27541,35.6212
-147,575,2.32556,-35.9875,-0.00751125,-0.035462,0.00125608,-0.00745491,-0.0355184,0.0448187,0.0216266,0.0154809,1077,449,2.32552,35.9876
-140,575,2.30676,-36.31,-0.011932,-0.0407006,0.00103452,-0.0118948,-0.0407378,0.0358981,0.0241889,0.0217731,1084,449,2.30672,36.31
-133,575,2.41431,-36.41,-0.0167981,-0.0460073,0.00089042,-0.016771,-0.0460344,0.0304465,0.0269022,0.0312083,1091,449,2.41435,36.41
-126,575,2.38953,-36.534,-0.0215015,-0.0508366,0.00068747,-0.0214854,-0.0508527,0.0234179,0.0294771,0.0353951,1098,449,2.38952,36.534
-119,575,2.27185,-36.8635,-0.0255817,-0.0549371,5.38541e-05,-0.0255816,-0.0549372,0.00183455,0.0317429,0.0390911,1105,449,2.2718,36.8635
-112,575,2.36975,-37.6779,0,0,0,0,0,0,0,-1,1112,449,2.36978,37.678
-105,575,2.18347,-36.5414,0,0,0,0,0,0,0,-1,1119,449,2.18351,36.5414
-98,575,1.521,-25.6961,0,0,0,0,0,0,0,-1,1126,449,1.52105,25.6961
-91,575,1.60803,-16.4247,0,0,0,0,0,0,0,-1,1133,449,1.60802,16.4247
-84,575,1.16553,-11.9056,0,0,0,0,0,0,0,-1,1140,449,1.16558,11.9056
-77,575,0.205078,-11.2584,0,0,0,0,0,0,0,-1,1147,449,0.205117,11.2584
-70,575,-4.2467,-1.78738,0,0,0,0,0,0,0,-1,1154,449,-4.24674,1.78739
-63,575,-4.52209,-3.48798,0,0,0,0,0,0,0,-1,1161,449,-4.5221,3.48796
-56,575,-5.5968,-5.4928,0,0,0,0,0,0,0,-1,1168,449,-5.59683,5.49281
-49,575,-5.96863,-7.17612,0,0,0,0,0,0,0,-1,1175,449,-5.96868,7.1761
-42,575,-0.830322,0.773499,0,0,0,0,0,0,0,-1,1182,449,-0.83038,-0.77351
-35,575,-0.62085,0.205139,0,0,0,0,0,0,0,-1,1189,449,-0.620855,-0.205126
-28,575,0.49292,-3.87988,0,0,0,0,0,0,0,-1,1196,449,0.492941,3.87989
-21,575,8.25354,-36.6893,0,0,0,0,0,0,0,-1,1203,449,8.2535,36.6893
-14,575,7.60925,-37.5654,0,0,0,0,0,0,0,-1,1210,449,7.60927,37.5654
-7,575,6.91785,-38.1107,-0.0326062,-0.029603,-0.031956,0.00088666,-0.0630959,-0.808876,0.0423625,0.0439828,1217,449,6.9179,38.1108
0,575,6.20398,-38.7532,-0.0258407,-0.0344548,-0.0295527,-0.000282794,-0.0600127,-0.713037,0.0399145,0.0458205,1224,449,6.20401,38.7532
7,575,5.72583,-39.3742,-0.0175926,-0.0423474,-0.026422,-0.000792591,-0.0591474,-0.566352,0.0391701,0.0462699,1231,449,5.72581,39.3742
14,575,5.20215,-39.9971,-0.0089329,-0.0508107,-0.0226254,0.00095588,-0.0606994,-0.412046,0.0407886,0.0472862,1238,449,5.20213,39.9971
21,575,4.66333,-40.6258,0,0,0,0,0,0,0,-1,1245,449,4.66328,40.6258
28,575,2.46399,-39.4464,0,0,0,0,0,0,0,-1,1252,449,2.46393,39.4464
35,575,4.91943,-39.5708,0.0146088,-0.074432,-0.00566309,0.0149676,-0.0747907,-0.0632614,0.0555262,0.0449019,1259,449,4.91947,39.5708
42,575,4.73438,-38.9643,0.020959,-0.0800266,0.000980993,0.0209685,-0.0800362,0.00971297,0.0615493,0.0440139,1266,449,4.73437,38.9643
49,575,5.65515,-39.1076,0.0268171,-0.083943,0.0077257,0.0273534,-0.0844793,0.0693044,0.067316,0.0416217,1273,449,5.65514,39.1076
56,575,5.24634,-38.193,0.0306977,-0.0843999,0.0140254,0.0323821,-0.0860843,0.119526,0.0707003,0.0414232,1280,449,5.24628,38.193
63,575,5.25537,-37.3788,0.0334392,-0.0806823,0.0188593,0.0364751,-0.0837181,0.159605,0.071158,0.0410148,1287,449,5.25538,37.3788
70,575,5.42773,-36.3815,0.035354,-0.0736433,0.0229682,0.0399962,-0.0782855,0.199428,0.0694724,0.0411577,1294,449,5.4277,36.3815
77,575,5.4342,-35.4322,0.0357011,-0.0634789,0.025916,0.0420647,-0.0698425,0.240784,0.0652698,0.0431933,1301,449,5.43421,35.4322
84,575,5.44153,-34.3127,0.0358689,-0.0528143,0.0278321,0.04388,-0.0608254,0.28026,0.060715,0.04476,1308,449,5.44153,34.3126
91,575,5.5293,-33.3375,0.0362818,-0.0409175,0.0290447,0.0459887,-0.0506244,0.322537,0.055801,0.0471412,1315,449,5.52931,33.3375
98,575,5.17493,-32.3377,0,0,0,0,0,0,0,-1,1322,449,5.17496,32.3377
105,575,4.85083,-31.1259,0.0356646,-0.0167899,0.0300662,0.0493353,-0.0304606,0.426744,0.0464978,0.0412878,1329,449,4.85084,31.1259
112,575,4.44177,-29.4171,0.0356614,-0.00583794,0.0292297,0.0507575,-0.0209341,0.476734,0.0425682,0.0412347,1336,449,4.44175,29.417
119,575,6.83081,-27.479,0,0,0,0,0,0,0,-1,1343,449,6.83083,27.479
126,575,7.03528,-26.1871,0,0,0,0,0,0,0,-1,1350,449,7.03526,26.1871
133,575,6.39673,-25.344,0,0,0,0,0,0,0,-1,1357,449,6.39677,25.344
140,575,6.82849,-23.5717,0,0,0,0,0,0,0,-1,1364,449,6.82843,23.5717
147,575,5.3894,-45.7567,0,0,0,0,0,0,0,-1,1371,449,5.3894,45.7567
154,575,9.77673,-22.6533,0,0,0,0,0,0,0,-1,1378,449,9.77675,22.6533
161,575,4.50134,-46.0834,0,0,0,0,0,0,0,-1,1385,449,4.50137,46.0834
168,575,7.5509,-35.3165,0,0,0,0,0,0,0,-1,1392,449,7.5509,35.3165
175,575,4.32617,1.93634,0,0,0,0,0,0,0,-1,1399,449,4.32612,-1.93634
182,575,6.3147,-2.88345,0,0,0,0,0,0,0,-1,1406,449,6.31466,2.88346
189,575,6.10449,-1.30817,0,0,0,0,0,0,0,-1,1413,449,6.10455,1.30817
196,575,5.79895,0.818359,0,0,0,0,0,0,0,-1,1420,449,5.79895,-0.81837
203,575,3.29724,-1.46378,0,0,0,0,0,0,0,-1,1427,449,3.29722,1.46377
210,575,2.32739,-7.74503,0,0,0,0,0,0,0,-1,1434,449,2.32741,7.74502
217,575,3.33618,-11.5521,0,0,0,0,0,0,0,-1,1441,449,3.3362,11.5521
224,575,5.51709,-16.3903,0,0,0,0,0,0,0,-1,1448,449,5.51713,16.3903
231,575,5.48572,-20.4595,0,0,0,0,0,0,0,-1,1455,449,5.48571,20.4595
238,575,5.33484,-22.3575,0,0,0,0,0,0,0,-1,1462,449,5.33478,22.3575
245,575,5.59741,-23.513,0,0,0,0,0,0,0,-1,1469,449,5.5974,23.513
252,575,8.50317,-37.2621,0,0,0,0,0,0,0,-1,1476,449,8.50312,37.2621
259,575,8.39343,-36.5963,0,0,0,0,0,0,0,-1,1483,449,8.39348,36.5962
266,575,8.13672,-36.2693,0,0,0,0,0,0,0,-1,1490,449,8.13674,36.2693
273,575,8.39441,-35.793,0.00519051,0.00101349,-0.000154282,0.0051962,0.0010078,-0.0368689,0.00318185,0.0482306,1497,449,8.39447,35.793
280,575,8.52893,-35.1542,0.00475269,-0.000182398,-0.000435702,0.00479086,-0.000220569,-0.0873858,0.00326991,0.042349,1504,449,8.52895,35.1542
287,575,8.41382,-34.8444,0.00430504,-0.00106587,-0.000710642,0.00439747,-0.00115831,-0.129348,0.00338448,0.0286479,1511,449,8.41387,34.8444
294,575,8.48816,-34.3216,0.00383306,-0.00134586,-0.000853952,0.00397023,-0.00148303,-0.159275,0.00325577,0.0133748,1518,449,8.4882,34.3216
301,575,8.52771,-33.8248,0.00337449,-0.00147931,-0.00087279,0.00352666,-0.00163148,-0.172615,0.00304432,0.0102357,1525,449,8.52767,33.8248
308,575,8.54407,-33.3572,0.00291889,-0.00174755,-0.000901319,0.00308693,-0.00191559,-0.18432,0.00291447,0.0108652,1532,449,8.54406,33.3572
315,575,8.53088,-32.8907,0.00246454,-0.00155508,-0.000835044,0.00263111,-0.00172166,-0.196891,0.00253129,0.0113058,1539,449,8.53085,32.8907
322,575,8.5332,-32.3943,0.00202515,-0.00115422,-0.0006353,0.0021474,-0.00127647,-0.190097,0.00199797,0.0104262,1546,449,8.53326,32.3943
329,575,8.52307,-31.9291,0.00157947,-0.000799974,-0.000431389,0.00165526,-0.00087577,-0.173926,0.00148421,0.0104812,1553,449,8.52304,31.9291
336,575,8.51697,-31.4505,0.0012949,-0.000156027,-7.15154e-05,0.00129842,-0.000159544,-0.0491307,0.000923398,0.0124003,1560,449,8.51699,31.4505
343,575,8.53955,-30.9247,0.00101241,0.000473685,0.000270704,0.00112493,0.000361161,0.393942,0.000663201,0.0129307,1567,449,8.5396,30.9246
350,575,8.52258,-30.4153,0.000729444,0.00136169,0.000703202,0.00181655,0.000274575,0.996636,0.00113068,0.0124076,1574,449,8.52263,30.4153
357,575,8.49316,-29.8766,0.000495657,0.00220309,0.00116469,0.00279344,-9.46968e-05,1.10166,0.00189465,0.0121677,1581,449,8.49312,29.8766
364,575,8.47119,-29.3387,0.000281708,0.0030385,0.00162504,0.003791,-0.000470795,1.13713,0.00269799,0.0112654,1588,449,8.4712,29.3387
371,575,8.46521,-28.8287,0.000111756,0.00387614,0.00209066,0.00480705,-0.000819145,1.15189,0.00350976,0.0184649,1595,449,8.46523,28.8287
378,575,8.43945,-28.2861,-8.19967e-05,0.00477317,0.0025916,0.00589658,-0.00120541,1.16176,0.00438839,0.0171146,1602,449,8.43944,28.2861
385,575,8.39697,-27.7452,-0.000311399,0.00608331,0.00305846,0.00731058,-0.00153867,1.1892,0.00545937,0.0106842,1609,449,8.39699,27.7452
392,575,8.37317,-27.2235,-0.000182722,0.00710595,0.00353222,0.00853683,-0.0016136,1.18591,0.00629837,0.00940907,1616,449,8.37321,27.2235
399,575,8.34875,-26.7011,0.00064915,0.00822163,0.00456802,0.0103686,-0.00149777,1.13144,0.00746191,0.0103996,1623,449,8.34871,26.7011
406,575,8.31677,-26.0985,0.00115276,0.00953467,0.00553598,0.0122871,-0.00159971,1.10939,0.00877342,0.0117519,1630,449,8.31672,26.0985
413,575,8.28455,-25.5049,0.00154278,0.010684,0.00635389,0.0139405,-0.00171363,1.09719,0.00991433,0.0149429,1637,449,8.28459,25.5049
420,575,8.23816,-24.9152,0.00205707,0.0102318,0.00696663,0.0142216,-0.00193273,1.05069,0.0101866,0.0149938,1644,449,8.23822,24.9152
427,575,8.18274,-24.2741,0.002319,0.00932159,0.00778032,0.0143521,-0.00271155,0.996833,0.0105883,0.0174128,1651,449,8.18272,24.2741
434,575,8.10925,-23.7309,0.00231744,0.00795736,0.00957979,0.0151236,-0.00484882,0.928538,0.012029,0.0275623,1658,449,8.10924,23.7309
441,575,8.19666,-23.2111,0,0,0,0,0,0,0,-1,1665,449,8.19664,23.2111
448,575,9.61438,-22.3804,0,0,0,0,0,0,0,-1,1672,449,9.61436,22.3804
455,575,10.1959,-21.5318,0,0,0,0,0,0,0,-1,1679,449,10.1959,21.5318
462,575,6.42517,-19.7967,0,0,0,0,0,0,0,-1,1686,449,6.42519,19.7967
469,575,7.38806,-21.9415,0,0,0,0,0,0,0,-1,1693,449,7.38809,21.9415
476,575,7.43335,-21.024,0,0,0,0,0,0,0,-1,1700,449,7.4334,21.024
483,575,7.60107,-20.0409,0,0,0,0,0,0,0,-1,1707,449,7.60106,20.0409
490,575,6.78235,-18.917,0,0,0,0,0,0,0,-1,1714,449,6.7824,18.917
497,575,0,0,0,0,0,0,0,0,0,-1,1721,449,0,0
504,575,0,0,0,0,0,0,0,0,0,-1,1728,449,0,0
511,575,0,0,0,0,0,0,0,0,0,-1,1735,449,0,0
518,575,0,0,0,0,0,0,0,0,0,-1,1742,449,0,0
525,575,0,0,0,0,0,0,0,0,0,-1,1749,449,0,0
532,575,0,0,0,0,0,0,0,0,0,-1,1756,449,0,0
539,575,0,0,0,0,0,0,0,0,0,-1,1763,449,0,0
546,575,0,0,0,0,0,0,0,0,0,-1,1770,449,0,0
553,575,0,0,0,0,0,0,0,0,0,-1,1777,449,0,0
560,575,0,0,0,0,0,0,0,0,0,-1,1784,449,0,0
567,575,0,0,0,0,0,0,0,0,0,-1,1791,449,0,0
574,575,0,0,0,0,0,0,0,0,0,-1,1798,449,0,0
581,575,0,0,0,0,0,0,0,0,0,-1,1805,449,0,0
588,575,0,0,0,0,0,0,0,0,0,-1,1812,449,0,0
595,575,0,0,0,0,0,0,0,0,0,-1,1819,449,0,0
602,575,0,0,0,0,0,0,0,0,0,-1,1826,449,0,0
609,575,0,0,0,0,0,0,0,0,0,-1,1833,449,0,0
616,575,0,0,0,0,0,0,0,0,0,-1,1840,449,0,0
623,575,0,0,0,0,0,0,0,0,0,-1,1847,449,0,0
630,575,0,0,0,0,0,0,0,0,0,-1,1854,449,0,0
637,575,0,0,0,0,0,0,0,0,0,-1,1861,449,0,0
644,575,0,0,0,0,0,0,0,0,0,-1,1868,449,0,0
651,575,0,0,0,0,0,0,0,0,0,-1,1875,449,0,0
658,575,0,0,0,0,0,0,0,0,0,-1,1882,449,0,0
665,575,0,0,0,0,0,0,0,0,0,-1,1889,449,0,0
672,575,0,0,0,0,0,0,0,0,0,-1,1896,449,0,0
679,575,0,0,0,0,0,0,0,0,0,-1,1903,449,0,0
686,575,0,0,0,0,0,0,0,0,0,-1,1910,449,0,0
693,575,0,0,0,0,0,0,0,0,0,-1,1917,449,0,0
700,575,0,0,0,0,0,0,0,0,0,-1,1924,449,0,0
707,575,0,0,0,0,0,0,0,0,0,-1,1931,449,0,0
714,575,0,0,0,0,0,0,0,0,0,-1,1938,449,0,0
721,575,0,0,0,0,0,0,0,0,0,-1,1945,449,0,0
728,575,0,0,0,0,0,0,0,0,0,-1,1952,449,0,0
735,575,0,0,0,0,0,0,0,0,0,-1,1959,449,0,0
742,575,0,0,0,0,0,0,0,0,0,-1,1966,449,0,0
749,575,0,0,0,0,0,0,0,0,0,-1,1973,449,0,0
756,575,0,0,0,0,0,0,0,0,0,-1,1980,449,0,0
763,575,0,0,0,0,0,0,0,0,0,-1,1987,449,0,0
770,575,0,0,0,0,0,0,0,0,0,-1,1994,449,0,0
777,575,0,0,0,0,0,0,0,0,0,-1,2001,449,0,0
784,575,0,0,0,0,0,0,0,0,0,-1,2008,449,0,0
791,575,0,0,0,0,0,0,0,0,0,-1,2015,449,0,0
798,575,0,0,0,0,0,0,0,0,0,-1,2022,449,0,0
805,575,0,0,0,0,0,0,0,0,0,-1,2029,449,0,0
812,575,0,0,0,0,0,0,0,0,0,-1,2036,449,0,0
-700,568,0,0,0,0,0,0,0,0,0,-1,524,456,0,0
-693,568,0,0,0,0,0,0,0,0,0,-1,531,456,0,0
-686,568,0,0,0,0,0,0,0,0,0,-1,538,456,0,0
-679,568,0,0,0,0,0,0,0,0,0,-1,545,456,0,0
-672,568,0,0,0,0,0,0,0,0,0,-1,552,456,0,0
-665,568,0,0,0,0,0,0,0,0,0,-1,559,456,0,0
-658,568,0,0,0,0,0,0,0,0,0,-1,566,456,0,0
-651,568,0,0,0,0,0,0,0,0,0,-1,573,456,0,0
-644,568,0,0,0,0,0,0,0,0,0,-1,580,456,0,0
-637,568,0,0,0,0,0,0,0,0,0,-1,587,456,0,0
-630,568,0,0,0,0,0,0,0,0,0,-1,594,456,0,0
-623,568,0,0,0,0,0,0,0,0,0,-1,601,456,0,0
-616,568,0,0,0,0,0,0,0,0,0,-1,608,456,0,0
-609,568,0,0,0,0,0,0,0,0,0,-1,615,456,0,0
-602,568,0,0,0,0,0,0,0,0,0,-1,622,456,0,0
-595,568,0,0,0,0,0,0,0,0,0,-1,629,456,0,0
-588,568,0,0,0,0,0,0,0,0,0,-1,636,456,0,0
-581,568,0,0,0,0,0,0,0,0,0,-1,643,456,0,0
-574,568,0,0,0,0,0,0,0,0,0,-1,650,456,0,0
-567,568,0,0,0,0,0,0,0,0,0,-1,657,456,0,0
-560,568,0,0,0,0,0,0,0,0,0,-1,664,456,0,0
-553,568,0,0,0,0,0,0,0,0,0,-1,671,456,0,0
-546,568,0,0,0,0,0,0,0,0,0,-1,678,456,0,0
-539,568,0,0,0,0,0,0,0,0,0,-1,685,456,0,0
-532,568,0,0,0,0,0,0,0,0,0,-1,692,456,0,0
-525,568,0,0,0,0,0,0,0,0,0,-1,699,456,0,0
-518,568,0,0,0,0,0,0,0,0,0,-1,706,456,0,0
-511,568,0,0,0,0,0,0,0,0,0,-1,713,456,0,0
-504,568,0,0,0,0,0,0,0,0,0,-1,720,456,0,0
-497,568,0,0,0,0,0,0,0,0,0,-1,727,456,0,0
-490,568,0,0,0,0,0,0,0,0,0,-1,734,456,0,0
-483,568,0,0,0,0,0,0,0,0,0,-1,741,456,0,0
-476,568,0,0,0,0,0,0,0,0,0,-1,748,456,0,0
-469,568,0,0,0,0,0,0,0,0,0,-1,755,456,0,0
-462,568,0,0,0,0,0,0,0,0,0,-1,762,456,0,0
-455,568,0,0,0,0,0,0,0,0,0,-1,769,456,0,0
-448,568,0,0,0,0,0,0,0,0,0,-1,776,456,0,0
-441,568,0,0,0,0,0,0,0,0,0,-1,783,456,0,0
-434,568,0,0,0,0,0,0,0,0,0,-1,790,456,0,0
-427,568,0,0,0,0,0,0,0,0,0,-1,797,456,0,0
-420,568,0,0,0,0,0,0,0,0,0,-1,804,456,0,0
-413,568,0,0,0,0,0,0,0,0,0,-1,811,456,0,0
-406,568,0,0,0,0,0,0,0,0,0,-1,818,456,0,0
-399,568,0,0,0,0,0,0,0,0,0,-1,825,456,0,0
-392,568,0,0,0,0,0,0,0,0,0,-1,832,456,0,0
-385,568,0,0,0,0,0,0,0,0,0,-1,839,456,0,0
-378,568,0.321777,-7.29929,0,0,0,0,0,0,0,-1,846,456,0.321806,7.29927
-371,568,1.09595,-7.46707,0,0,0,0,0,0,0,-1,853,456,1.09597,7.46707
-364,568,1.87787,-7.61115,0,0,0,0,0,0,0,-1,860,456,1.87784,7.61116
-357,568,2.14166,-7.67645,0,0,0,0,0,0,0,-1,867,456,2.14167,7.67646
-350,568,2.7467,-11.2507,0,0,0,0,0,0,0,-1,874,456,2.7467,11.2507
-343,568,2.16516,-11.3762,0,0,0,0,0,0,0,-1,881,456,2.16514,11.3762
-336,568,2.29675,-22.8745,0,0,0,0,0,0,0,-1,888,456,2.29673,22.8744
-329,568,2.49188,-23.266,0,0,0,0,0,0,0,-1,895,456,2.49188,23.266
-322,568,3.01563,-23.0347,0,0,0,0,0,0,0,-1,902,456,3.01563,23.0347
-315,568,2.1767,-23.784,0,0,0,0,0,0,0,-1,909,456,2.17668,23.784
-308,568,2.1084,-24.6713,0.0019732,0.00631616,-0.00585226,0.0103868,-0.00209746,-0.96305,0.00771928,0.0326515,916,456,2.10838,24.6713
-301,568,2.03479,-25.3166,0.0020928,0.00567306,-0.00567924,0.00983762,-0.00207176,-0.938072,0.00734702,0.0186602,923,456,2.03477,25.3166
-294,568,1.98218,-25.8635,0.00187107,0.00503787,-0.00515092,0.00884327,-0.00193432,-0.934515,0.00663495,0.0123827,930,456,1.98216,25.8635
-287,568,1.94281,-26.4552,0.00153333,0.00466693,-0.00455832,0.00792021,-0.00171995,-0.950934,0.00593709,0.0106042,937,456,1.9428,26.4552
-280,568,1.92126,-27.0205,0.00131306,0.00450372,-0.00408734,0.00729603,-0.00147925,-0.97146,0.00542476,0.0104531,944,456,1.92129,27.0205
-273,568,1.90771,-27.5665,0.00114752,0.00426175,-0.00359137,0.00661904,-0.00120977,-0.989952,0.00486634,0.0115317,951,456,1.90769,27.5665
-266,568,1.87115,-28.0934,0.000890049,0.00375769,-0.00296107,0.00561382,-0.000966078,-1.01087,0.00410266,0.0112207,958,456,1.87117,28.0935
-259,568,1.81238,-28.63,0.000737045,0.00301343,-0.00231518,0.00445507,-0.0007046,-1.01386,0.00323063,0.0118352,965,456,1.81236,28.63
-252,568,1.78076,-29.1485,0.0006982,0.00232214,-0.00157291,0.00328029,-0.000259951,-1.02367,0.00227846,0.01196,972,456,1.78078,29.1485
-245,568,1.77649,-29.6311,0.000896307,0.00106432,-0.000896266,0.00188051,8.01198e-05,-0.832127,0.00122784,0.0142854,979,456,1.77647,29.6311
-238,568,1.77295,-30.1435,0.00129347,-0.000389082,-0.000273056,0.00133667,-0.000432286,-0.156923,0.00106487,0.0132029,986,456,1.77292,30.1435
-231,568,1.76178,-30.641,0.00184804,-0.00216346,0.00011088,0.0018511,-0.00216652,0.0276124,0.00232196,0.0117176,993,456,1.76179,30.641
-224,568,1.74042,-31.1357,0.00243767,-0.00413302,0.000571784,0.00248706,-0.0041824,0.0861575,0.00389186,0.0137625,1000,456,1.74044,31.1357
-217,568,1.75446,-31.6276,0.00311062,-0.00629088,0.00100442,0.00321673,-0.00639699,0.105254,0.00565081,0.0118365,1007,456,1.75445,31.6276
-210,568,1.76581,-32.1081,0.00397839,-0.00853101,0.00137794,0.00412838,-0.008681,0.10842,0.00754959,0.0114813,1014,456,1.76583,32.1081
-203,568,1.75641,-32.5802,0.00502577,-0.0109987,0.00165759,0.00519543,-0.0111684,0.102002,0.00965517,0.0106135,1021,456,1.75642,32.5802
-196,568,1.77832,-33.0085,0.00590338,-0.0132315,0.00190006,0.00609022,-0.0134183,0.098023,0.0115251,0.0146368,1028,456,1.77827,33.0084
-189,568,1.76709,-33.4513,0.00704111,-0.0154133,0.00241085,0.00729703,-0.0156692,0.10576,0.0135501,0.0150777,1035,456,1.76706,33.4513
-182,568,1.80078,-33.9402,0.00613955,-0.0199109,0.00201409,0.00629435,-0.0200657,0.0767074,0.0158962,0.015451,1042,456,1.80079,33.9402
-175,568,1.82666,-34.3433,0.00330073,-0.0248417,0.00201579,0.00344438,-0.0249853,0.0711441,0.0179157,0.0154066,1049,456,1.82665,34.3433
-168,568,1.79517,-34.6535,0.00115063,-0.0296545,0.00197458,0.00127668,-0.0297806,0.0637513,0.0202927,0.0222062,1056,456,1.79511,34.6535
-161,568,1.76733,-35.005,-0.00208228,-0.0349609,0.00171712,-0.00199285,-0.0350503,0.0520373,0.0227317,0.032974,1063,456,1.76737,35.005
-154,568,1.95496,-35.5141,-0.0065521,-0.0410275,0.00134839,-0.00649944,-0.0410802,0.0390322,0.025498,0.036816,1070,456,1.955,35.5141
-147,568,1.95972,-35.7963,-0.0121686,-0.0476642,0.000892656,-0.0121462,-0.0476866,0.0251272,0.0286149,0.0383534,1077,456,1.95977,35.7963
-140,568,1.93213,-36.0667,-0.0191516,-0.0548912,0.00036976,-0.0191478,-0.054895,0.0103445,0.032173,0.0397327,1084,456,1.93213,36.0666
-133,568,2.60181,-35.3839,-0.0269358,-0.062595,9.46442e-05,-0.0269356,-0.0625953,0.00265411,0.0362562,0.039563,1091,456,2.60184,35.3839
-126,568,1.88501,-35.557,-0.0346929,-0.0698976,-0.000238504,-0.0346913,-0.0698992,-0.00677436,0.0403567,0.042852,1098,456,1.88499,35.557
-119,568,1.73865,-36.2761,0,0,0,0,0,0,0,-1,1105,456,1.73868,36.2761
-112,568,1.98242,-35.0942,0,0,0,0,0,0,0,-1,1112,456,1.98247,35.0942
-105,568,2.02454,-25.038,0,0,0,0,0,0,0,-1,1119,456,2.02459,25.038
-98,568,1.58618,-14.7874,0,0,0,0,0,0,0,-1,1126,456,1.58617,14.7874
-91,568,1.11621,-11.1853,0,0,0,0,0,0,0,-1,1133,456,1.11626,11.1853
-84,568,0.461792,-9.7959,0,0,0,0,0,0,0,-1,1140,456,0.461793,9.7959
-77,568,-1.13806,-8.57822,0,0,0,0,0,0,0,-1,1147,456,-1.13807,8.57821
-70,568,-4.09766,-1.42911,0,0,0,0,0,0,0,-1,1154,456,-4.09767,1.4291
-63,568,-5.92273,-3.70752,0,0,0,0,0,0,0,-1,1161,456,-5.92272,3.70751
-56,568,-5.24158,-6.01385,0,0,0,0,0,0,0,-1,1168,456,-5.24161,6.01386
-49,568,-5.24365,-8.33557,0,0,0,0,0,0,0,-1,1175,456,-5.24371,8.33557
-42,568,-0.664795,0.521973,0,0,0,0,0,0,0,-1,1182,456,-0.664829,-0.521984
-35,568,-0.153076,-1.67731,0,0,0,0,0,0,0,-1,1189,456,-0.153068,1.67731
-28,568,1.25439,-4.48798,0,0,0,0,0,0,0,-1,1196,456,1.2544,4.48797
-21,568,3.93823,-37.9426,0,0,0,0,0,0,0,-1,1203,456,3.93824,37.9426
-14,568,7.92566,-37.672,0,0,0,0,0,0,0,-1,1210,456,7.92566,37.672
-7,568,6.92297,-38.0078,-0.0437404,-0.027522,-0.0413995,0.00655511,-0.0778174,-0.882112,0.0541956,0.0447994,1217,456,6.92297,38.0079
0,568,6.3429,-38.6917,-0.0347507,-0.032284,-0.037928,0.00443073,-0.0714654,-0.801651,0.0491871,0.0488621,1224,456,6.34289,38.6916
7,568,5.84619,-39.2357,-0.0237324,-0.0417988,-0.0341453,0.00255434,-0.0680856,-0.656085,0.0462653,0.0470671,1231,456,5.84616,39.2357
14,568,5.10828,-39.9067,-0.0128572,-0.0512646,-0.029465,0.00310967,-0.0672315,-0.496597,0.0458927,0.045124,1238,456,5.1083,39.9067
21,568,4.99048,-39.6968,-0.00379806,-0.0607432,-0.0236297,0.00473002,-0.0692713,-0.346357,0.0478355,0.0411599,1245,456,4.99045,39.6968
28,568,5.42456,-39.293,0.0047943,-0.0684337,-0.0162768,0.00824921,-0.0718886,-0.209156,0.0508988,0.0428305,1252,456,5.42452,39.293
35,568,5.55029,-39.1945,0.012832,-0.0763983,-0.00873678,0.0136794,-0.0772457,-0.0966892,0.0566105,0.0432395,1259,456,5.55031,39.1945
42,568,5.672,-38.8214,0.0193327,-0.0817837,-0.000767627,0.0193385,-0.0817896,-0.00759093,0.0619864,0.0408905,1266,456,5.67194,38.8214
49,568,5.84033,-38.1535,0.0252718,-0.085117,0.00724053,0.0257447,-0.0855899,0.0652188,0.0673033,0.0420108,1273,456,5.84038,38.1535
56,568,5.50488,-37.398,0.0292451,-0.0847429,0.0147384,0.0311199,-0.0866177,0.126526,0.0704481,0.0425385,1280,456,5.50482,37.3981
63,568,5.33313,-36.5269,0,0,0,0,0,0,0,-1,1287,456,5.33313,36.5269
70,568,5.36719,-35.8639,0.0348858,-0.0722567,0.0254962,0.0406436,-0.0780144,0.222104,0.0696306,0.0442806,1294,456,5.36722,35.8639
77,568,5.39185,-35.1277,0.0359585,-0.0613133,0.0292642,0.0440838,-0.0694387,0.270834,0.0660849,0.0421294,1301,456,5.39187,35.1276
84,568,5.64063,-34.2039,0.0370681,-0.0502287,0.0319131,0.0474903,-0.0606509,0.315661,0.0625893,0.0450708,1308,456,5.64063,34.2039
91,568,6.03345,-33.0075,0.0386658,-0.0375982,0.0335878,0.051349,-0.0502814,0.361061,0.0586775,0.0439793,1315,456,6.03341,33.0075
98,568,6.15015,-31.8943,0,0,0,0,0,0,0,-1,1322,456,6.15016,31.8943
105,568,6.09155,-30.4933,0.0399449,-0.0115044,0.0349897,0.0576488,-0.0292082,0.468416,0.0510352,0.0454026,1329,456,6.09154,30.4933
112,568,6.29504,-29.2577,0.0405369,0.000751378,0.0341238,0.060143,-0.0188547,0.521501,0.0476406,0.0462366,1336,456,6.29501,29.2577
119,568,6.6217,-28.0031,0.0411484,0.0116014,0.0340287,0.0634722,-0.0107224,0.580601,0.0463046,0.0451804,1343,456,6.62176,28.0031
126,568,6.81213,-26.7261,0,0,0,0,0,0,0,-1,1350,456,6.8121,26.7261
133,568,6.96179,-25.0988,0.0449664,0.022859,0.0346131,0.0702479,-0.00242252,0.630841,0.04766,0.047021,1357,456,6.96174,25.0988
140,568,7.19519,-23.5674,0,0,0,0,0,0,0,-1,1364,456,7.19517,23.5675
147,568,7.52649,-22.0617,0,0,0,0,0,0,0,-1,1371,456,7.52653,22.0617
154,568,9.5824,-22.6641,0,0,0,0,0,0,0,-1,1378,456,9.58244,22.6641
161,568,9.36975,-21.1521,0,0,0,0,0,0,0,-1,1385,456,9.36979,21.1521
168,568,11.2393,-28.6589,0,0,0,0,0,0,0,-1,1392,456,11.2393,28.6589
175,568,10.5151,0.747498,0,0,0,0,0,0,0,-1,1399,456,10.5152,-0.747501
182,568,6.35095,-3.63361,0,0,0,0,0,0,0,-1,1406,456,6.35093,3.63359
189,568,6.17493,-1.70911,0,0,0,0,0,0,0,-1,1413,456,6.17497,1.70911
196,568,6.04724,0.200836,0,0,0,0,0,0,0,-1,1420,456,6.04724,-0.200835
203,568,5.9281,2.08649,0,0,0,0,0,0,0,-1,1427,456,5.92812,-2.08648
210,568,1.46216,-2.50446,0,0,0,0,0,0,0,-1,1434,456,1.46219,2.50446
217,568,2.62366,-7.86703,0,0,0,0,0,0,0,-1,1441,456,2.62365,7.86704
224,568,3.43494,-12.1555,0,0,0,0,0,0,0,-1,1448,456,3.43492,12.1555
231,568,4.38245,-9.3205,0,0,0,0,0,0,0,-1,1455,456,4.38244,9.32048
238,568,5.88879,-20.7448,0,0,0,0,0,0,0,-1,1462,456,5.88876,20.7449
245,568,3.34387,-10.6774,0,0,0,0,0,0,0,-1,1469,456,3.34389,10.6774
252,568,3.56946,-9.28928,0,0,0,0,0,0,0,-1,1476,456,3.56948,9.28928
259,568,3.38843,-8.73068,0,0,0,0,0,0,0,-1,1483,456,3.38842,8.73068
266,568,3.104,-9.16876,0,0,0,0,0,0,0,-1,1490,456,3.10397,9.16876
273,568,8.56812,-36.1305,0,0,0,0,0,0,0,-1,1497,456,8.56807,36.1305
280,568,8.67639,-35.7156,0,0,0,0,0,0,0,-1,1504,456,8.67637,35.7156
287,568,8.79944,-35.0741,0,0,0,0,0,0,0,-1,1511,456,8.79939,35.0741
294,568,8.9989,-34.1575,0.00474702,-0.00216004,-0.00137555,0.00501088,-0.0024239,-0.189521,0.00437823,0.0447497,1518,456,8.99886,34.1575
301,568,8.97583,-33.7397,0.00420818,-0.0025023,-0.00150173,0.00452892,-0.00282304,-0.210418,0.00428258,0.0213783,1525,456,8.97577,33.7397
308,568,9.00903,-33.3086,0.00361879,-0.00308673,-0.00168966,0.00402048,-0.00348843,-0.233406,0.0043389,0.0137109,1532,456,9.00904,33.3086
315,568,9.01172,-32.8755,0.00304877,-0.00308539,-0.00172398,0.00350008,-0.00353671,-0.256039,0.00406271,0.00878888,1539,456,9.01175,32.8756
322,568,9.01855,-32.3987,0.00252922,-0.00277559,-0.00156634,0.00295718,-0.00320356,-0.266716,0.00355785,0.0105195,1546,456,9.01854,32.3987
329,568,9.02502,-31.9085,0.00202578,-0.00249012,-0.00139459,0.00242174,-0.00288608,-0.276644,0.00306838,0.0111391,1553,456,9.02498,31.9085
336,568,9.03259,-31.4016,0.00172308,-0.00181606,-0.00103011,0.00200107,-0.00209405,-0.263586,0.00236452,0.0120275,1560,456,9.03265,31.4016
343,568,9.0625,-30.8962,0.00141127,-0.00119228,-0.000697544,0.00158638,-0.00136739,-0.245954,0.00170692,0.0120315,1567,456,9.06244,30.8962
350,568,9.0448,-30.3997,0.00107244,-0.000377589,-0.000312208,0.0011368,-0.000441954,-0.203312,0.000940463,0.010463,1574,456,9.04476,30.3997
357,568,9.01489,-29.865,0.00080649,0.000455766,0.000118701,0.000842887,0.00041937,0.297524,0.000486643,0.0101156,1581,456,9.01489,29.865
364,568,9.00586,-29.3399,0.000575046,0.00130469,0.000575471,0.00162123,0.000258499,1.0679,0.00100579,0.0124971,1588,456,9.00591,29.3399
371,568,9.00781,-28.8002,0.000398711,0.00212783,0.00104238,0.00261753,-9.09863e-05,1.13161,0.00177613,0.0210191,1595,456,9.00776,28.8002
378,568,8.9834,-28.2538,0.000215008,0.00296409,0.00151581,0.00363578,-0.000456677,1.15368,0.00258953,0.0190238,1602,456,8.98344,28.2538
385,568,8.93689,-27.7227,1.6856e-05,0.0041143,0.00196925,0.00490727,-0.000776116,1.18799,0.00355855,0.00938988,1609,456,8.93689,27.7228
392,568,8.89575,-27.2014,0.000121024,0.00501101,0.00242945,0.00601278,-0.00088075,1.17969,0.00433205,0.0105159,1616,456,8.89573,27.2014
399,568,8.85669,-26.6904,0.000800194,0.00590964,0.00333912,0.00755924,-0.00084941,1.11194,0.00534518,0.0177679,1623,456,8.85663,26.6904
406,568,8.85327,-26.1168,0.00121535,0.00698533,0.00420143,0.00919692,-0.000996245,1.08626,0.0064889,0.0156591,1630,456,8.85331,26.1168
413,568,8.82031,-25.5073,0.00153617,0.0079588,0.00496275,0.0106586,-0.00116365,1.07256,0.00752368,0.0123387,1637,456,8.82037,25.5073
420,568,8.79358,-24.9317,0.00193523,0.00762332,0.00554185,0.0110083,-0.00144974,1.02247,0.00786676,0.0111886,1644,456,8.79352,24.9317
427,568,8.76343,-24.3157,0.0021037,0.00692649,0.0062606,0.011224,-0.00219385,0.969226,0.00831106,0.0135621,1651,456,8.76343,24.3157
434,568,8.76208,-23.6883,0.00206159,0.00587808,0.00773968,0.0119413,-0.00400162,0.906264,0.00957756,0.01944,1658,456,8.76212,23.6883
441,568,8.7666,-23.1483,0.00203076,0.00432725,0.00884686,0.0121001,-0.00574206,0.849933,0.0105169,0.0288009,1665,456,8.76662,23.1483
448,568,9.40576,-22.469,0.00145146,0.00173836,0.00996815,0.0115641,-0.00837427,0.792593,0.0115604,0.0428483,1672,456,9.40577,22.469
455,568,9.24146,-21.4855,0,0,0,0,0,0,0,-1,1679,456,9.2414,21.4855
462,568,8.63599,-20.9674,0,0,0,0,0,0,0,-1,1686,456,8.63598,20.9674
469,568,8.17041,-21.3614,-0.00339896,-0.0110874,0.0141669,0.007436,-0.0219224,0.652912,0.0176245,0.0473262,1693,456,8.17045,21.3613
476,568,8.16785,-20.5159,-0.0057437,-0.0168398,0.0161403,0.00577545,-0.028359,0.619855,0.0210963,0.045319,1700,456,8.16781,20.5159
483,568,8.07617,-19.6314,-0.00814606,-0.0233988,0.0184784,0.00421789,-0.0357627,0.589687,0.025365,0.048337,1707,456,8.07616,19.6314
490,568,7.97534,-18.7272,0,0,0,0,0,0,0,-1,1714,456,7.97538,18.7272
497,568,7.45508,-18.4313,0,0,0,0,0,0,0,-1,1721,456,7.45512,18.4313
504,568,0,0,0,0,0,0,0,0,0,-1,1728,456,0,0
511,568,0,0,0,0,0,0,0,0,0,-1,1735,456,0,0
518,568,0,0,0,0,0,0,0,0,0,-1,1742,456,0,0
525,568,0,0,0,0,0,0,0,0,0,-1,1749,456,0,0
532,568,0,0,0,0,0,0,0,0,0,-1,1756,456,0,0
539,568,0,0,0,0,0,0,0,0,0,-1,1763,456,0,0
546,568,0,0,0,0,0,0,0,0,0,-1,1770,456,0,0
553,568,0,0,0,0,0,0,0,0,0,-1,1777,456,0,0
560,568,0,0,0,0,0,0,0,0,0,-1,1784,456,0,0
567,568,0,0,0,0,0,0,0,0,0,-1,1791,456,0,0
574,568,0,0,0,0,0,0,0,0,0,-1,1798,456,0,0
581,568,0,0,0,0,0,0,0,0,0,-1,1805,456,0,0
588,568,0,0,0,0,0,0,0,0,0,-1,1812,456,0,0
595,568,0,0,0,0,0,0,0,0,0,-1,1819,456,0,0
602,568,0,0,0,0,0,0,0,0,0,-1,1826,456,0,0
609,568,0,0,0,0,0,0,0,0,0,-1,1833,456,0,0
616,568,0,0,0,0,0,0,0,0,0,-1,1840,456,0,0
623,568,0,0,0,0,0,0,0,0,0,-1,1847,456,0,0
630,568,0,0,0,0,0,0,0,0,0,-1,1854,456,0,0
637,568,0,0,0,0,0,0,0,0,0,-1,1861,456,0,0
644,568,0,0,0,0,0,0,0,0,0,-1,1868,456,0,0
651,568,0,0,0,0,0,0,0,0,0,-1,1875,456,0,0
658,568,0,0,0,0,0,0,0,0,0,-1,1882,456,0,0
665,568,0,0,0,0,0,0,0,0,0,-1,1889,456,0,0
672,568,0,0,0,0,0,0,0,0,0,-1,1896,456,0,0
679,568,0,0,0,0,0,0,0,0,0,-1,1903,456,0,0
686,568,0,0,0,0,0,0,0,0,0,-1,1910,456,0,0
693,568,0,0,0,0,0,0,0,0,0,-1,1917,456,0,0
700,568,0,0,0,0,0,0,0,0,0,-1,1924,456,0,0
707,568,0,0,0,0,0,0,0,0,0,-1,1931,456,0,0
714,568,0,0,0,0,0,0,0,0,0,-1,1938,456,0,0
721,568,0,0,0,0,0,0,0,0,0,-1,1945,456,0,0
728,568,0,0,0,0,0,0,0,0,0,-1,1952,456,0,0
735,568,0,0,0,0,0,0,0,0,0,-1,1959,456,0,0
742,568,0,0,0,0,0,0,0,0,0,-1,1966,456,0,0
749,568,0,0,0,0,0,0,0,0,0,-1,1973,456,0,0
756,568,0,0,0,0,0,0,0,0,0,-1,1980,456,0,0
763,568,0,0,0,0,0,0,0,0,0,-1,1987,456,0,0
770,568,0,0,0,0,0,0,0,0,0,-1,1994,456,0,0
777,568,0,0,0,0,0,0,0,0,0,-1,2001,456,0,0
784,568,0,0,0,0,0,0,0,0,0,-1,2008,456,0,0
791,568,0,0,0,0,0,0,0,0,0,-1,2015,456,0,0
798,568,0,0,0,0,0,0,0,0,0,-1,2022,456,0,0
805,568,0,0,0,0,0,0,0,0,0,-1,2029,456,0,0
812,568,0,0,0,0,0,0,0,0,0,-1,2036,456,0,0
-700,561,0,0,0,0,0,0,0,0,0,-1,524,463,0,0
-693,561,0,0,0,0,0,0,0,0,0,-1,531,463,0,0
-686,561,0,0,0,0,0,0,0,0,0,-1,538,463,0,0
-679,561,0,0,0,0,0,0,0,0,0,-1,545,463,0,0
-672,561,0,0,0,0,0,0,0,0,0,-1,552,463,0,0
-665,561,0,0,0,0,0,0,0,0,0,-1,559,463,0,0
-658,561,0,0,0,0,0,0,0,0,0,-1,566,463,0,0
-651,561,0,0,0,0,0,0,0,0,0,-1,573,463,0,0
-644,561,0,0,0,0,0,0,0,0,0,-1,580,463,0,0
-637,561,0,0,0,0,0,0,0,0,0,-1,587,463,0,0
-630,561,0,0,0,0,0,0,0,0,0,-1,594,463,0,0
-623,561,0,0,0,0,0,0,0,0,0,-1,601,463,0,0
-616,561,0,0,0,0,0,0,0,0,0,-1,608,463,0,0
-609,561,0,0,0,0,0,0,0,0,0,-1,615,463,0,0
-602,561,0,0,0,0,0,0,0,0,0,-1,622,463,0,0
-595,561,0,0,0,0,0,0,0,0,0,-1,629,463,0,0
-588,561,0,0,0,0,0,0,0,0,0,-1,636,463,0,0
-581,561,0,0,0,0,0,0,0,0,0,-1,643,463,0,0
-574,561,0,0,0,0,0,0,0,0,0,-1,650,463,0,0
-567,561,0,0,0,0,0,0,0,0,0,-1,657,463,0,0
-560,561,0,0,0,0,0,0,0,0,0,-1,664,463,0,0
-553,561,0,0,0,0,0,0,0,0,0,-1,671,463,0,0
-546,561,0,0,0,0,0,0,0,0,0,-1,678,463,0,0
-539,561,0,0,0,0,0,0,0,0,0,-1,685,463,0,0
-532,561,0,0,0,0,0,0,0,0,0,-1,692,463,0,0
-525,561,0,0,0,0,0,0,0,0,0,-1,699,463,0,0
-518,561,0,0,0,0,0,0,0,0,0,-1,706,463,0,0
-511,561,0,0,0,0,0,0,0,0,0,-1,713,463,0,0
-504,561,0,0,0,0,0,0,0,0,0,-1,720,463,0,0
-497,561,0,0,0,0,0,0,0,0,0,-1,727,463,0,0
-490,561,0,0,0,0,0,0,0,0,0,-1,734,463,0,0
-483,561,0,0,0,0,0,0,0,0,0,-1,741,463,0,0
-476,561,0,0,0,0,0,0,0,0,0,-1,748,463,0,0
-469,561,0,0,0,0,0,0,0,0,0,-1,755,463,0,0
-462,561,0,0,0,0,0,0,0,0,0,-1,762,463,0,0
-455,561,0,0,0,0,0,0,0,0,0,-1,769,463,0,0
-448,561,0,0,0,0,0,0,0,0,0,-1,776,463,0,0
-441,561,0,0,0,0,0,0,0,0,0,-1,783,463,0,0
-434,561,0,0,0,0,0,0,0,0,0,-1,790,463,0,0
-427,561,0,0,0,0,0,0,0,0,0,-1,797,463,0,0
-420,561,0,0,0,0,0,0,0,0,0,-1,804,463,0,0
-413,561,0,0,0,0,0,0,0,0,0,-1,811,463,0,0
-406,561,0,0,0,0,0,0,0,0,0,-1,818,463,0,0
-399,561,0,0,0,0,0,0,0,0,0,-1,825,463,0,0
-392,561,4.92407,-2.54578,0,0,0,0,0,0,0,-1,832,463,4.92408,2.54576
-385,561,5.55634,-1.02338,0,0,0,0,0,0,0,-1,839,463,5.55634,1.02338
-378,561,0.160522,-4.51785,0,0,0,0,0,0,0,-1,846,463,0.160542,4.51785
-371,561,1.06299,-7.56818,0,0,0,0,0,0,0,-1,853,463,1.06297,7.56817
-364,561,1.45264,-7.57684,0,0,0,0,0,0,0,-1,860,463,1.45264,7.57684
-357,561,0.948242,-12.2803,0,0,0,0,0,0,0,-1,867,463,0.948262,12.2803
-350,561,1.33124,-11.9406,0,0,0,0,0,0,0,-1,874,463,1.33127,11.9406
-343,561,1.13214,-14.1837,0,0,0,0,0,0,0,-1,881,463,1.13217,14.1837
-336,561,1.69397,-22.5676,0,0,0,0,0,0,0,-1,888,463,1.69398,22.5676
-329,561,1.57697,-23.1572,-0.000554123,0.00966061,-0.00545545,0.0120263,-0.00291985,-1.16163,0.00914752,0.0424408,895,463,1.57694,23.1572
-322,561,1.43433,-23.4825,0.000270042,0.00744377,-0.00510631,0.0100971,-0.00238329,-1.09158,0.00765059,0.0358835,902,463,1.4343,23.4825
-315,561,1.61853,-23.8562,0.000707409,0.00624972,-0.00472136,0.0089531,-0.00199597,-1.05078,0.0067334,0.0241354,909,463,1.61855,23.8562
-308,561,1.5921,-24.5806,0.000946323,0.00558007,-0.0044907,0.00831634,-0.00178995,-1.02355,0.00622722,0.0207052,916,463,1.59208,24.5806
-301,561,1.51202,-25.3241,0.00116288,0.00477909,-0.00428156,0.00761868,-0.0016767,-0.985189,0.00572052,0.0147182,923,463,1.51201,25.3241
-294,561,1.45062,-25.8989,0.00120705,0.00403516,-0.00384755,0.00672028,-0.00147807,-0.961497,0.00504556,0.0117652,930,463,1.45062,25.8989
-287,561,1.41498,-26.4519,0.00116255,0.0035749,-0.00336472,0.00594311,-0.00120565,-0.957502,0.00441912,0.00951567,937,463,1.41495,26.4519
-280,561,1.37939,-26.9969,0.00116789,0.00325727,-0.00297969,0.0053701,-0.000944941,-0.954005,0.00393307,0.0113137,944,463,1.37937,26.9969
-273,561,1.34662,-27.5396,0.00119405,0.00287977,-0.00254436,0.00471723,-0.000643422,-0.945343,0.00337977,0.0141947,951,463,1.34662,27.5396
-266,561,1.34003,-28.066,0.00115717,0.00223395,-0.00195713,0.00372539,-0.000334269,-0.919623,0.00260219,0.00961138,958,463,1.34004,28.066
-259,561,1.30835,-28.5947,0.00121024,0.00134254,-0.0013305,0.00260853,-5.5752e-05,-0.810236,0.0017579,0.0100023,965,463,1.30837,28.5947
-252,561,1.28455,-29.1026,0.00133272,0.000369872,-0.000591211,0.00161373,8.88666e-05,-0.443697,0.00104745,0.014615,972,463,1.28452,29.1026
-245,561,1.26898,-29.6089,0.00167702,-0.00121024,0.000129319,0.0016828,-0.00121602,0.0446701,0.00168085,0.0169292,979,463,1.26898,29.6089
-238,561,1.2688,-30.1306,0.00226371,-0.00299384,0.000746986,0.00236778,-0.00309791,0.13843,0.00316499,0.0131295,986,463,1.26883,30.1307
-231,561,1.25842,-30.63,0.00300241,-0.00514927,0.00111366,0.00315182,-0.00529868,0.133362,0.0049311,0.0112636,993,463,1.25842,30.63
-224,561,1.24994,-31.1275,0.00368588,-0.00752855,0.0016337,0.00391902,-0.0077617,0.141754,0.00686443,0.0113436,1000,463,1.24991,31.1275
-217,561,1.27612,-31.6086,0.00446364,-0.0101118,0.00210305,0.00476101,-0.0104092,0.140471,0.00895859,0.0113162,1007,463,1.27612,31.6086
-210,561,1.28668,-32.0782,0.00549317,-0.0127835,0.00248855,0.00582595,-0.0131162,0.132937,0.011203,0.0123564,1014,463,1.28667,32.0782
-203,561,1.27234,-32.538,0.00677084,-0.0156841,0.00273088,0.00709818,-0.0160114,0.119299,0.0136691,0.014099,1021,463,1.27235,32.538
-196,561,1.22339,-32.9388,0.00787984,-0.0183693,0.00291226,0.00819906,-0.0186885,0.109178,0.0159124,0.015944,1028,463,1.22344,32.9389
-189,561,1.28479,-33.3421,0.00930483,-0.0210329,0.0034471,0.00969157,-0.0214197,0.111727,0.0183826,0.0196414,1035,463,1.28478,33.3421
-182,561,1.3905,-33.7573,0.00790288,-0.0266927,0.00274863,0.0081199,-0.0269097,0.0787916,0.021172,0.0221205,1042,463,1.39049,33.7572
-175,561,1.31226,-34.1502,0.00383501,-0.0328581,0.00251035,0.00400596,-0.033029,0.0679926,0.0234689,0.036104,1049,463,1.31228,34.1503
-168,561,1.25574,-34.5532,0.000666669,-0.038997,0.00218377,0.000786539,-0.0391169,0.0548362,0.026344,0.0498174,1056,463,1.25572,34.5532
-161,561,1.31885,-34.8703,-0.00411002,-0.0459661,0.00156873,-0.00405131,-0.0460248,0.0374092,0.0294259,0.0476764,1063,463,1.31889,34.8703
-154,561,1.61584,-35.1158,-0.0108211,-0.0541117,0.000804944,-0.0108061,-0.0541266,0.0185854,0.0330761,0.0450818,1070,463,1.61585,35.1157
-147,561,1.8634,-35.5053,0,0,0,0,0,0,0,-1,1077,463,1.86344,35.5053
-140,561,5.06482,-33.2139,0,0,0,0,0,0,0,-1,1084,463,5.06477,33.2139
-133,561,3.25586,-33.948,-0.0419832,-0.0836619,-0.00160019,-0.0419219,-0.0837233,-0.0383182,0.0483377,0.0435524,1091,463,3.25582,33.948
-126,561,1.44836,-34.6751,-0.0542544,-0.0943874,-0.00220632,-0.0541334,-0.0945083,-0.0547553,0.0547568,0.0441539,1098,463,1.44842,34.6752
-119,561,-0.336304,-35.422,0,0,0,0,0,0,0,-1,1105,463,-0.336245,35.422
-112,561,1.24365,-29.1982,0,0,0,0,0,0,0,-1,1112,463,1.2437,29.1981
-105,561,0.530518,-13.5379,0,0,0,0,0,0,0,-1,1119,463,0.530477,13.5379
-98,561,1.5387,-7.54352,0,0,0,0,0,0,0,-1,1126,463,1.53871,7.54351
-91,561,1.29553,-6.57968,0,0,0,0,0,0,0,-1,1133,463,1.29549,6.5797
-84,561,1.23364,-5.84555,0,0,0,0,0,0,0,-1,1140,463,1.23363,5.84556
-77,561,-2.36023,1.00204,0,0,0,0,0,0,0,-1,1147,463,-2.3602,-1.00205
-70,561,-3.90015,-1.41541,0,0,0,0,0,0,0,-1,1154,463,-3.90009,1.4154
-63,561,-6.95691,-4.02756,0,0,0,0,0,0,0,-1,1161,463,-6.95696,4.02756
-56,561,-5.37988,-6.66855,0,0,0,0,0,0,0,-1,1168,463,-5.37988,6.66854
-49,561,-5.7439,-9.11029,0,0,0,0,0,0,0,-1,1175,463,-5.74387,9.1103
-42,561,-1.72644,-5.63065,0,0,0,0,0,0,0,-1,1182,463,-1.72648,5.63064
-35,561,-1.65674,-4.87994,0,0,0,0,0,0,0,-1,1189,463,-1.6567,4.87993
-28,561,-1.91418,-3.86896,0,0,0,0,0,0,0,-1,1196,463,-1.91414,3.86895
-21,561,3.67346,-37.3797,0,0,0,0,0,0,0,-1,1203,463,3.67344,37.3797
-14,561,3.53503,-37.63,0,0,0,0,0,0,0,-1,1210,463,3.53499,37.63
-7,561,7.03809,-37.9661,0,0,0,0,0,0,0,-1,1217,463,7.03812,37.9661
0,561,6.47827,-38.6332,0,0,0,0,0,0,0,-1,1224,463,6.47828,38.6333
7,561,6.06787,-39.16,0,0,0,0,0,0,0,-1,1231,463,6.0679,39.16
14,561,4.96436,-39.6578,0,0,0,0,0,0,0,-1,1238,463,4.96436,39.6578
21,561,5.3717,-38.4958,-0.00627952,-0.058901,-0.0308388,0.00794724,-0.0731277,-0.432233,0.0516053,0.0426766,1245,463,5.37172,38.4958
28,561,5.74597,-38.6249,0.00202483,-0.0654381,-0.0218194,0.0084667,-0.07188,-0.287081,0.0509772,0.0433614,1252,463,5.74595,38.6249
35,561,6.11304,-38.5161,0.00990965,-0.0733492,-0.0130752,0.0119147,-0.0753543,-0.152164,0.0546425,0.0411915,1259,463,6.11298,38.5161
42,561,6.13306,-38.0211,0.0157763,-0.0777131,-0.00390907,0.0159395,-0.0778763,-0.0417159,0.0579659,0.0423295,1266,463,6.13305,38.021
49,561,5.84937,-37.434,0.02105,-0.0796538,0.00515338,0.021313,-0.0799168,0.050996,0.0616233,0.041877,1273,463,5.84935,37.434
56,561,5.24695,-36.8435,0.0246063,-0.0778401,0.0136892,0.026404,-0.0796378,0.130572,0.0637429,0.0404779,1280,463,5.24696,36.8435
63,561,4.37024,-36.1119,0.0278475,-0.0722664,0.0203956,0.0318431,-0.076262,0.193455,0.0641467,0.0430594,1287,463,4.37023,36.1119
70,561,5.10498,-35.4148,0.0310671,-0.063651,0.0261482,0.0378062,-0.0703901,0.252238,0.0634044,0.0446697,1294,463,5.10502,35.4148
77,561,5.2616,-35.0136,0.0330323,-0.0525144,0.030902,0.0430273,-0.0625093,0.31282,0.0612767,0.0434878,1301,463,5.26154,35.0136
84,561,5.99084,-34.0745,0.0355271,-0.0419707,0.0346992,0.0487928,-0.0552364,0.365159,0.0600997,0.0441382,1308,463,5.99089,34.0745
91,561,6.37329,-32.7569,0.0390875,-0.0295656,0.0371837,0.0553666,-0.0458448,0.412665,0.0585206,0.0426467,1315,463,6.37331,32.7569
98,561,6.40808,-31.5592,0.0418878,-0.0163828,0.0385869,0.0611035,-0.0355984,0.462033,0.0564745,0.0455784,1322,463,6.40812,31.5592
105,561,6.39148,-30.3951,0.0438878,-0.00328863,0.0395573,0.0663559,-0.0257568,0.516549,0.0548761,0.0493393,1329,463,6.39146,30.3951
112,561,6.33167,-29.3199,0.0455811,0.00975266,0.038796,0.0703991,-0.0150654,0.569106,0.0526776,0.0470787,1336,463,6.33164,29.3199
119,561,6.4364,-28.3505,0.0469166,0.0211194,0.0389362,0.075035,-0.00699909,0.62545,0.0525121,0.0443676,1343,463,6.43643,28.3505
126,561,6.72668,-27.2786,0,0,0,0,0,0,0,-1,1350,463,6.7267,27.2786
133,561,7.28821,-25.1331,0,0,0,0,0,0,0,-1,1357,463,7.28818,25.1331
140,561,7.56189,-23.5632,0,0,0,0,0,0,0,-1,1364,463,7.56192,23.5632
147,561,9.73596,-24.2186,0,0,0,0,0,0,0,-1,1371,463,9.73599,24.2186
154,561,9.36084,-22.6169,0,0,0,0,0,0,0,-1,1378,463,9.36086,22.6169
161,561,9.10205,-21.1306,0,0,0,0,0,0,0,-1,1385,463,9.10199,21.1307
168,561,6.89502,-32.5841,0,0,0,0,0,0,0,-1,1392,463,6.89503,32.5841
175,561,10.4185,0.276398,0,0,0,0,0,0,0,-1,1399,463,10.4185,-0.276394
182,561,6.45703,-4.02127,0,0,0,0,0,0,0,-1,1406,463,6.45704,4.02127
189,561,6.50854,-2.08685,0,0,0,0,0,0,0,-1,1413,463,6.50851,2.08686
196,561,6.44775,-0.27182,0,0,0,0,0,0,0,-1,1420,463,6.44773,0.271814
203,561,6.18591,1.1301,0,0,0,0,0,0,0,-1,1427,463,6.18592,-1.13009
210,561,5.68713,2.68427,0,0,0,0,0,0,0,-1,1434,463,5.6871,-2.68425
217,561,3.61743,-7.33582,0,0,0,0,0,0,0,-1,1441,463,3.61738,7.33581
224,561,4.27466,-8.59171,0,0,0,0,0,0,0,-1,1448,463,4.27466,8.59171
231,561,4.93188,-9.8476,0,0,0,0,0,0,0,-1,1455,463,4.93193,9.84761
238,561,2.18018,-5.18359,0,0,0,0,0,0,0,-1,1462,463,2.18023,5.18359
245,561,3.07568,-3.50238,0,0,0,0,0,0,0,-1,1469,463,3.0757,3.50238
252,561,3.47412,-3.71109,0,0,0,0,0,0,0,-1,1476,463,3.47413,3.71109
259,561,3.42212,-3.2334,0,0,0,0,0,0,0,-1,1483,463,3.42214,3.2334
266,561,4.44373,-5.90027,0,0,0,0,0,0,0,-1,1490,463,4.44372,5.90026
273,561,2.59485,-3.65268,0,0,0,0,0,0,0,-1,1497,463,2.5948,3.65268
280,561,3.10767,-6.38235,0,0,0,0,0,0,0,-1,1504,463,3.10766,6.38235
287,561,4.91809,-14.429,0,0,0,0,0,0,0,-1,1511,463,4.9181,14.429
294,561,9.42944,-33.8826,0,0,0,0,0,0,0,-1,1518,463,9.4295,33.8826
301,561,9.41968,-33.5403,0,0,0,0,0,0,0,-1,1525,463,9.41967,33.5403
308,561,9.47546,-33.1848,0.0043247,-0.00455849,-0.00247576,0.00496809,-0.00520189,-0.254254,0.00587216,0.0306444,1532,463,9.47549,33.1847
315,561,9.52258,-32.8161,0.0036084,-0.00463243,-0.00258924,0.0043544,-0.00537843,-0.280518,0.00562961,0.0180667,1539,463,9.52256,32.8161
322,561,9.50354,-32.3853,0.0029973,-0.00431508,-0.00245011,0.00374233,-0.00506011,-0.295197,0.00510104,0.0162781,1546,463,9.50356,32.3853
329,561,9.52429,-31.8889,0.00244898,-0.00403402,-0.00228957,0.00317604,-0.00476108,-0.307481,0.00461285,0.0129626,1553,463,9.52427,31.8888
336,561,9.54712,-31.361,0.00213056,-0.0033071,-0.00192043,0.00274041,-0.00391695,-0.307486,0.00386358,0.0114994,1560,463,9.54717,31.361
343,561,9.54932,-30.8782,0.00177578,-0.00268,-0.00160252,0.00229226,-0.00319648,-0.311781,0.00318323,0.0104319,1567,463,9.54935,30.8782
350,561,9.53845,-30.3743,0.00137834,-0.0019617,-0.00127226,0.00180775,-0.00239112,-0.325513,0.002432,0.00968933,1574,463,9.53848,30.3743
357,561,9.53198,-29.8419,0.0010813,-0.00116125,-0.000880081,0.00138544,-0.00146539,-0.332731,0.00164614,0.00985387,1581,463,9.53192,29.8419
364,561,9.52356,-29.3356,0.000830091,-0.000321232,-0.000436454,0.000976841,-0.000467982,-0.324357,0.000851239,0.00987096,1588,463,9.52361,29.3356
371,561,9.50122,-28.8037,0.000643032,0.000484857,2.32608e-05,0.000646382,0.000481507,0.143025,0.000387827,0.0168427,1595,463,9.50118,28.8037
378,561,9.47852,-28.2727,0.000463328,0.00129977,0.000472619,0.00151264,0.000250456,1.1476,0.000936176,0.0123838,1602,463,9.47849,28.2727
385,561,9.4613,-27.7225,0.000279627,0.00235223,0.000922071,0.00270306,-7.12026e-05,1.20723,0.00182624,0.0109724,1609,463,9.46132,27.7225
392,561,9.43872,-27.1553,0.000328709,0.00319063,0.00137293,0.00374274,-0.000223404,1.18844,0.00257286,0.0139398,1616,463,9.43874,27.1553
399,561,9.41895,-26.6321,0.000815777,0.00395507,0.00214662,0.0050447,-0.000273857,1.10108,0.00345804,0.0198534,1623,463,9.41898,26.6321
406,561,9.42542,-26.0804,0.00112162,0.00488395,0.00290426,0.00646306,-0.000457492,1.07279,0.00446902,0.0195669,1630,463,9.42536,26.0804
413,561,9.38562,-25.502,0.00136773,0.00576477,0.00361291,0.0077955,-0.000663,1.05873,0.00543151,0.0169479,1637,463,9.38568,25.502
420,561,9.33984,-24.9266,0.00166376,0.00559817,0.00416557,0.00823768,-0.000975755,1.006,0.00584425,0.0138019,1644,463,9.33983,24.9266
427,561,9.33704,-24.3111,0.00177198,0.00513145,0.00481724,0.0085534,-0.00164998,0.953153,0.00632442,0.0112922,1651,463,9.3371,24.3111
434,561,9.32056,-23.6949,0.00172157,0.00438198,0.00604752,0.00924386,-0.00314031,0.893654,0.00743383,0.0130072,1658,463,9.32054,23.6949
441,561,9.30322,-23.1116,0.00167626,0.00323195,0.00700272,0.00949989,-0.00459168,0.84071,0.00829865,0.0164309,1665,463,9.30317,23.1116
448,561,9.3136,-22.496,0.0012122,0.00136877,0.0079709,0.00926177,-0.0066808,0.790309,0.00924456,0.0235378,1672,463,9.31357,22.496
455,561,9.48157,-21.7466,0.000365776,-0.00131571,0.00893997,0.00850445,-0.00945438,0.738515,0.0103734,0.0418516,1679,463,9.48151,21.7466
462,561,9.17932,-21.2128,-0.00072904,-0.00431123,0.0100949,0.00773246,-0.0127727,0.697599,0.0119573,0.041406,1686,463,9.17928,21.2128
469,561,8.96558,-20.7654,-0.00202472,-0.00801111,0.0114739,0.00683994,-0.0168758,0.657806,0.014095,0.0256993,1693,463,8.96561,20.7654
476,561,8.80078,-20.1734,-0.00343223,-0.0125139,0.0130744,0.00586742,-0.0218136,0.618261,0.0168424,0.0415709,1700,463,8.80077,20.1734
483,561,8.27039,-19.5117,-0.00479223,-0.0176755,0.0149666,0.00506007,-0.0275278,0.582179,0.0202504,0.0480754,1707,463,8.27032,19.5117
490,561,8.08118,-18.5471,0,0,0,0,0,0,0,-1,1714,463,8.08123,18.5471
497,561,8.24731,-17.6062,0,0,0,0,0,0,0,-1,1721,463,8.24728,17.6062
504,561,10.0769,-0.811401,0,0,0,0,0,0,0,-1,1728,463,10.0769,0.8114
511,561,0,0,0,0,0,0,0,0,0,-1,1735,463,0,0
518,561,0,0,0,0,0,0,0,0,0,-1,1742,463,0,0
525,561,0,0,0,0,0,0,0,0,0,-1,1749,463,0,0
532,561,0,0,0,0,0,0,0,0,0,-1,1756,463,0,0
539,561,0,0,0,0,0,0,0,0,0,-1,1763,463,0,0
546,561,0,0,0,0,0,0,0,0,0,-1,1770,463,0,0
553,561,0,0,0,0,0,0,0,0,0,-1,1777,463,0,0
560,561,0,0,0,0,0,0,0,0,0,-1,1784,463,0,0
567,561,0,0,0,0,0,0,0,0,0,-1,1791,463,0,0
574,561,0,0,0,0,0,0,0,0,0,-1,1798,463,0,0
581,561,0,0,0,0,0,0,0,0,0,-1,1805,463,0,0
588,561,0,0,0,0,0,0,0,0,0,-1,1812,463,0,0
595,561,0,0,0,0,0,0,0,0,0,-1,1819,463,0,0
602,561,0,0,0,0,0,0,0,0,0,-1,1826,463,0,0
609,561,0,0,0,0,0,0,0,0,0,-1,1833,463,0,0
616,561,0,0,0,0,0,0,0,0,0,-1,1840,463,0,0
623,561,0,0,0,0,0,0,0,0,0,-1,1847,463,0,0
630,561,0,0,0,0,0,0,0,0,0,-1,1854,463,0,0
637,561,0,0,0,0,0,0,0,0,0,-1,1861,463,0,0
644,561,0,0,0,0,0,0,0,0,0,-1,1868,463,0,0
651,561,0,0,0,0,0,0,0,0,0,-1,1875,463,0,0
658,561,0,0,0,0,0,0,0,0,0,-1,1882,463,0,0
665,561,0,0,0,0,0,0,0,0,0,-1,1889,463,0,0
672,561,0,0,0,0,0,0,0,0,0,-1,1896,463,0,0
679,561,0,0,0,0,0,0,0,0,0,-1,1903,463,0,0
686,561,0,0,0,0,0,0,0,0,0,-1,1910,463,0,0
693,561,0,0,0,0,0,0,0,0,0,-1,1917,463,0,0
700,561,0,0,0,0,0,0,0,0,0,-1,1924,463,0,0
707,561,0,0,0,0,0,0,0,0,0,-1,1931,463,0,0
714,561,0,0,0,0,0,0,0,0,0,-1,1938,463,0,0
721,561,0,0,0,0,0,0,0,0,0,-1,1945,463,0,0
728,561,0,0,0,0,0,0,0,0,0,-1,1952,463,0,0
735,561,0,0,0,0,0,0,0,0,0,-1,1959,463,0,0
742,561,0,0,0,0,0,0,0,0,0,-1,1966,463,0,0
749,561,0,0,0,0,0,0,0,0,0,-1,1973,463,0,0
756,561,0,0,0,0,0,0,0,0,0,-1,1980,463,0,0
763,561,0,0,0,0,0,0,0,0,0,-1,1987,463,0,0
770,561,0,0,0,0,0,0,0,0,0,-1,1994,463,0,0
777,561,0,0,0,0,0,0,0,0,0,-1,2001,463,0,0
784,561,0,0,0,0,0,0,0,0,0,-1,2008,463,0,0
791,561,0,0,0,0,0,0,0,0,0,-1,2015,463,0,0
798,561,0,0,0,0,0,0,0,0,0,-1,2022,463,0,0
805,561,0,0,0,0,0,0,0,0,0,-1,2029,463,0,0
812,561,0,0,0,0,0,0,0,0,0,-1,2036,463,0,0
-700,554,0,0,0,0,0,0,0,0,0,-1,524,470,0,0
-693,554,0,0,0,0,0,0,0,0,0,-1,531,470,0,0
-686,554,0,0,0,0,0,0,0,0,0,-1,538,470,0,0
-679,554,0,0,0,0,0,0,0,0,0,-1,545,470,0,0
-672,554,0,0,0,0,0,0,0,0,0,-1,552,470,0,0
-665,554,0,0,0,0,0,0,0,0,0,-1,559,470,0,0
-658,554,0,0,0,0,0,0,0,0,0,-1,566,470,0,0
-651,554,0,0,0,0,0,0,0,0,0,-1,573,470,0,0
-644,554,0,0,0,0,0,0,0,0,0,-1,580,470,0,0
-637,554,0,0,0,0,0,0,0,0,0,-1,587,470,0,0
-630,554,0,0,0,0,0,0,0,0,0,-1,594,470,0,0
-623,554,0,0,0,0,0,0,0,0,0,-1,601,470,0,0
-616,554,0,0,0,0,0,0,0,0,0,-1,608,470,0,0
-609,554,0,0,0,0,0,0,0,0,0,-1,615,470,0,0
-602,554,0,0,0,0,0,0,0,0,0,-1,622,470,0,0
-595,554,0,0,0,0,0,0,0,0,0,-1,629,470,0,0
-588,554,0,0,0,0,0,0,0,0,0,-1,636,470,0,0
-581,554,0,0,0,0,0,0,0,0,0,-1,643,470,0,0
-574,554,0,0,0,0,0,0,0,0,0,-1,650,470,0,0
-567,554,0,0,0,0,0,0,0,0,0,-1,657,470,0,0
-560,554,0,0,0,0,0,0,0,0,0,-1,664,470,0,0
-553,554,0,0,0,0,0,0,0,0,0,-1,671,470,0,0
-546,554,0,0,0,0,0,0,0,0,0,-1,678,470,0,0
-539,554,0,0,0,0,0,0,0,0,0,-1,685,470,0,0
-532,554,0,0,0,0,0,0,0,0,0,-1,692,470,0,0
-525,554,0,0,0,0,0,0,0,0,0,-1,699,470,0,0
-518,554,0,0,0,0,0,0,0,0,0,-1,706,470,0,0
-511,554,0,0,0,0,0,0,0,0,0,-1,713,470,0,0
-504,554,0,0,0,0,0,0,0,0,0,-1,720,470,0,0
-497,554,0,0,0,0,0,0,0,0,0,-1,727,470,0,0
-490,554,0,0,0,0,0,0,0,0,0,-1,734,470,0,0
-483,554,0,0,0,0,0,0,0,0,0,-1,741,470,0,0
-476,554,0,0,0,0,0,0,0,0,0,-1,748,470,0,0
-469,554,0,0,0,0,0,0,0,0,0,-1,755,470,0,0
-462,554,0,0,0,0,0,0,0,0,0,-1,762,470,0,0
-455,554,0,0,0,0,0,0,0,0,0,-1,769,470,0,0
-448,554,0,0,0,0,0,0,0,0,0,-1,776,470,0,0
-441,554,0,0,0,0,0,0,0,0,0,-1,783,470,0,0
-434,554,0,0,0,0,0,0,0,0,0,-1,790,470,0,0
-427,554,0,0,0,0,0,0,0,0,0,-1,797,470,0,0
-420,554,0,0,0,0,0,0,0,0,0,-1,804,470,0,0
-413,554,0,0,0,0,0,0,0,0,0,-1,811,470,0,0
-406,554,0,0,0,0,0,0,0,0,0,-1,818,470,0,0
-399,554,-1.32275,-3.95142,0,0,0,0,0,0,0,-1,825,470,-1.32275,3.95141
-392,554,-1.35632,-3.7406,0,0,0,0,0,0,0,-1,832,470,-1.35632,3.7406
-385,554,-0.849243,-4.14447,0,0,0,0,0,0,0,-1,839,470,-0.849262,4.14446
-378,554,-0.982666,-4.55084,0,0,0,0,0,0,0,-1,846,470,-0.982671,4.55084
-371,554,-1.74542,-4.63467,0,0,0,0,0,0,0,-1,853,470,-1.74541,4.63468
-364,554,1.04883,-7.68756,0,0,0,0,0,0,0,-1,860,470,1.0488,7.68757
-357,554,1.62164,-19.1316,0,0,0,0,0,0,0,-1,867,470,1.62162,19.1316
-350,554,1.17157,-18.1341,0,0,0,0,0,0,0,-1,874,470,1.17156,18.1341
-343,554,1.38141,-22.1049,0,0,0,0,0,0,0,-1,881,470,1.3814,22.1049
-336,554,1.22778,-22.4908,-0.00171701,0.0113518,-0.00531342,0.0132394,-0.00360466,-1.22944,0.0102415,0.0426625,888,470,1.22776,22.4908
-329,554,1.05768,-23.0336,-0.00095892,0.00899576,-0.00464822,0.0108287,-0.00279186,-1.19519,0.00830762,0.022263,895,470,1.05769,23.0336
-322,554,0.997559,-23.5939,-0.00022243,0.00673532,-0.00416172,0.0086807,-0.0021678,-1.13353,0.00662896,0.0145163,902,470,0.997576,23.5939
-315,554,1.01105,-24.1535,0.000195057,0.00549709,-0.00368173,0.00738292,-0.00169078,-1.09742,0.00557172,0.0133918,909,470,1.01105,24.1535
-308,554,0.975281,-24.7365,0.0004532,0.00468936,-0.00338252,0.00656223,-0.00141967,-1.06512,0.00491684,0.0140071,916,470,0.975283,24.7365
-301,554,0.957764,-25.3295,0.000704733,0.00382855,-0.00313723,0.00577118,-0.00123789,-1.01637,0.00431962,0.0145848,923,470,0.957787,25.3295
-294,554,0.906982,-25.8817,0.000932752,0.00305635,-0.00276466,0.0049561,-0.000966998,-0.968744,0.00366912,0.013069,930,470,0.906954,25.8817
-287,554,0.871216,-26.4374,0.00110983,0.00255793,-0.00236333,0.00430564,-0.00063788,-0.934043,0.00310497,0.0123563,937,470,0.871193,26.4374
-280,554,0.844543,-26.9878,0.00127413,0.00211491,-0.00203028,0.00376786,-0.000378822,-0.887486,0.00264723,0.0113986,944,470,0.844541,26.9878
-273,554,0.807312,-27.532,0.00142996,0.0016171,-0.00161759,0.00314382,-9.67657e-05,-0.814289,0.00212887,0.0148104,951,470,0.807313,27.5321
-266,554,0.799133,-28.0736,0.00155643,0.000877301,-0.001047,0.00231756,0.000116175,-0.628589,0.00150781,0.012247,958,470,0.799155,28.0736
-259,554,0.783936,-28.5491,0.00176796,-0.000124498,-0.000417036,0.00185579,-0.000212323,-0.207561,0.0013137,0.0122719,965,470,0.783957,28.5491
-252,554,0.765686,-29.0565,0.00200454,-0.00136848,0.000337525,0.00203798,-0.00140192,0.0987614,0.00199731,0.0155066,972,470,0.765699,29.0565
-245,554,0.769897,-29.5728,0.00244681,-0.00327269,0.00113075,0.00266224,-0.00348813,0.188269,0.00356157,0.0166381,979,470,0.769912,29.5728
-238,554,0.768127,-30.1054,0.0031787,-0.00535715,0.00177021,0.00353126,-0.00570971,0.196587,0.00538446,0.0116799,986,470,0.768146,30.1054
-231,554,0.759827,-30.6236,0.00408245,-0.00789691,0.00215048,0.0044568,-0.00827125,0.172349,0.00745773,0.0102714,993,470,0.759848,30.6236
-224,554,0.766907,-31.1025,0.00486807,-0.0107416,0.00276264,0.00534258,-0.0112161,0.170102,0.00975857,0.010034,1000,470,0.766887,31.1025
-217,554,0.777466,-31.5742,0.00578224,-0.0138672,0.00329881,0.00632127,-0.0144062,0.161969,0.0122667,0.0102032,1007,470,0.777439,31.5742
-210,554,0.790588,-32.0294,0.00702812,-0.0171324,0.0037152,0.00758651,-0.0176907,0.149181,0.0149774,0.0142699,1014,470,0.790598,32.0294
-203,554,0.739258,-32.4405,0.00862361,-0.0206752,0.0039324,0.00914222,-0.0211938,0.131126,0.0179693,0.0231047,1021,470,0.739251,32.4405
-196,554,0.73584,-32.6834,0.0100946,-0.0240677,0.00404413,0.0105668,-0.0245399,0.11624,0.0207972,0.0292785,1028,470,0.735861,32.6834
-189,554,1.16553,-33.0089,0.0120096,-0.0274477,0.00455785,0.0125292,-0.0279673,0.113522,0.0239403,0.0364203,1035,470,1.16553,33.0089
-182,554,1.49512,-33.4137,0.00998826,-0.034681,0.00342489,0.0102493,-0.0349421,0.0760796,0.0273588,0.0480255,1042,470,1.49506,33.4137
-175,554,0.790649,-33.9255,0,0,0,0,0,0,0,-1,1049,470,0.79071,33.9255
-168,554,0.704834,-34.3747,0,0,0,0,0,0,0,-1,1056,470,0.704856,34.3747
-161,554,0.836304,-34.8374,0,0,0,0,0,0,0,-1,1063,470,0.836257,34.8374
-154,554,1.36902,-35.0451,0,0,0,0,0,0,0,-1,1070,470,1.369,35.0451
-147,554,1.34558,-35.0622,0,0,0,0,0,0,0,-1,1077,470,1.3456,35.0622
-140,554,1.27649,-34.7928,0,0,0,0,0,0,0,-1,1084,470,1.27647,34.7928
-133,554,2.67163,-32.8187,0,0,0,0,0,0,0,-1,1091,470,2.67161,32.8187
-126,554,0.851929,-33.5393,0,0,0,0,0,0,0,-1,1098,470,0.851942,33.5393
-119,554,-1.03479,-32.1628,0,0,0,0,0,0,0,-1,1105,470,-1.03476,32.1628
-112,554,1.03162,-24.5784,0,0,0,0,0,0,0,-1,1112,470,1.03156,24.5784
-105,554,0.608765,-21.0475,0,0,0,0,0,0,0,-1,1119,470,0.608728,21.0475
-98,554,1.51929,-7.3624,0,0,0,0,0,0,0,-1,1126,470,1.51928,7.36241
-91,554,1.41089,-6.5864,0,0,0,0,0,0,0,-1,1133,470,1.41093,6.58638
-84,554,1.62305,-5.87186,0,0,0,0,0,0,0,-1,1140,470,1.62299,5.87186
-77,554,-2.56958,1.33258,0,0,0,0,0,0,0,-1,1147,470,-2.56959,-1.33257
-70,554,-3.68164,-1.18332,0,0,0,0,0,0,0,-1,1154,470,-3.68158,1.18331
-63,554,-4.86853,-3.88708,0,0,0,0,0,0,0,-1,1161,470,-4.86853,3.88708
-56,554,-5.69958,-6.45422,0,0,0,0,0,0,0,-1,1168,470,-5.69955,6.45422
-49,554,-6.23645,-8.8569,0,0,0,0,0,0,0,-1,1175,470,-6.23643,8.85689
-42,554,-6.62524,-11.5382,0,0,0,0,0,0,0,-1,1182,470,-6.62522,11.5382
-35,554,-2.40173,-4.59482,0,0,0,0,0,0,0,-1,1189,470,-2.40169,4.59481
-28,554,-0.760132,-1.65555,0,0,0,0,0,0,0,-1,1196,470,-0.760095,1.65556
-21,554,-6.11462,-31.9121,0,0,0,0,0,0,0,-1,1203,470,-6.11458,31.9122
-14,554,3.23853,-37.0345,0,0,0,0,0,0,0,-1,1210,470,3.23855,37.0345
-7,554,2.87219,-37.3734,0,0,0,0,0,0,0,-1,1217,470,2.87223,37.3734
0,554,7.03198,-37.9126,0,0,0,0,0,0,0,-1,1224,470,7.03199,37.9126
7,554,6.15674,-38.7596,0,0,0,0,0,0,0,-1,1231,470,6.15672,38.7596
14,554,5.6521,-38.3118,0,0,0,0,0,0,0,-1,1238,470,5.65207,38.3118
21,554,5.48035,-37.9799,-0.00708993,-0.0528222,-0.0396432,0.015809,-0.0757212,-0.523806,0.0564927,0.0425513,1245,470,5.48037,37.9799
28,554,6.13489,-38.4969,-0.000856241,-0.0561928,-0.0289776,0.0115409,-0.0685899,-0.404254,0.0500193,0.0447403,1252,470,6.13485,38.4969
35,554,6.67102,-37.8598,0,0,0,0,0,0,0,-1,1259,470,6.67106,37.8598
42,554,6.65833,-37.4211,0.00933809,-0.0647375,-0.00951543,0.0105409,-0.0659403,-0.125736,0.0478623,0.0437303,1266,470,6.65835,37.4211
49,554,6.69067,-37.0146,0.0125541,-0.0636475,-2.5012e-05,0.0125541,-0.0636476,-0.000328235,0.0471765,0.046452,1273,470,6.69063,37.0147
56,554,6.48059,-36.4859,0,0,0,0,0,0,0,-1,1280,470,6.48057,36.4859
63,554,4.76648,-34.6672,0.0173183,-0.0514706,0.0161295,0.0209125,-0.0550648,0.219253,0.0453187,0.0410445,1287,470,4.76649,34.6672
70,554,4.65918,-35.1822,0.0208122,-0.0416207,0.0221501,0.0278723,-0.0486808,0.308558,0.0447389,0.0453456,1294,470,4.65913,35.1822
77,554,5.13672,-34.6927,0.0232459,-0.030213,0.0276466,0.0349716,-0.0419388,0.401132,0.0444649,0.0442149,1301,470,5.13677,34.6927
84,554,5.97412,-33.9252,0,0,0,0,0,0,0,-1,1308,470,5.97416,33.9252
91,554,6.70654,-32.6112,0.0339959,-0.0102718,0.0367505,0.0547632,-0.0310391,0.514354,0.0501652,0.0422752,1315,470,6.70653,32.6112
98,554,6.85571,-31.6217,0.0404352,0.00126433,0.0392998,0.0647595,-0.02306,0.554231,0.0525734,0.0439017,1322,470,6.85568,31.6217
105,554,6.92322,-30.6737,0.0458961,0.0123797,0.0414535,0.0738507,-0.0155749,0.59331,0.0551632,0.0459061,1329,470,6.92327,30.6737
112,554,7.00586,-29.5698,0.0500844,0.0247942,0.0413613,0.0806904,-0.00581176,0.637049,0.0558318,0.0431348,1336,470,7.00582,29.5698
119,554,7.09485,-28.4001,0.0529012,0.0353484,0.0424887,0.0875105,0.000739105,0.683551,0.0580955,0.0419733,1343,470,7.09482,28.4001
126,554,7.57751,-27.1743,0.0567623,0.0429785,0.0440555,0.0944618,0.00527906,0.707809,0.0612906,0.0431514,1350,470,7.57747,27.1743
133,554,8.26685,-25.9059,0.0628336,0.0447006,0.0458378,0.100493,0.00704123,0.687761,0.0647759,0.0424073,1357,470,8.26688,25.9059
140,554,8.94446,-24.7668,0.0669762,0.0508018,0.0505849,0.110116,0.00766169,0.706132,0.0709949,0.0468965,1364,470,8.94446,24.7669
147,554,9.69653,-23.6268,0,0,0,0,0,0,0,-1,1371,470,9.69656,23.6268
154,554,9.09937,-22.6243,0.0674918,0.0553423,0.0607494,0.122469,0.000364672,0.735565,0.081525,0.0469048,1378,470,9.09942,22.6243
161,554,9.08704,-21.0995,0,0,0,0,0,0,0,-1,1385,470,9.08699,21.0995
168,554,9.35071,-19.7403,0,0,0,0,0,0,0,-1,1392,470,9.35075,19.7403
175,554,10.663,0.286957,0,0,0,0,0,0,0,-1,1399,470,10.663,-0.286966
182,554,6.71106,-4.50217,0,0,0,0,0,0,0,-1,1406,470,6.71107,4.50215
189,554,6.90479,-2.50348,0,0,0,0,0,0,0,-1,1413,470,6.90477,2.50348
196,554,6.96216,-0.740906,0,0,0,0,0,0,0,-1,1420,470,6.96214,0.740912
203,554,6.43518,0.414154,0,0,0,0,0,0,0,-1,1427,470,6.43523,-0.414141
210,554,6.21167,1.96707,0,0,0,0,0,0,0,-1,1434,470,6.21165,-1.96706
217,554,5.64551,3.4989,0,0,0,0,0,0,0,-1,1441,470,5.64555,-3.49891
224,554,4.85144,-8.85172,0,0,0,0,0,0,0,-1,1448,470,4.85146,8.85173
231,554,3.25073,-5.29642,0,0,0,0,0,0,0,-1,1455,470,3.25078,5.29642
238,554,4.28625,-3.25253,0,0,0,0,0,0,0,-1,1462,470,4.28622,3.25252
245,554,4.0752,-2.90033,0,0,0,0,0,0,0,-1,1469,470,4.07515,2.90032
252,554,3.52112,-0.934998,0,0,0,0,0,0,0,-1,1476,470,3.52113,0.934996
259,554,3.96448,-2.16425,0,0,0,0,0,0,0,-1,1483,470,3.96446,2.16424
266,554,3.0592,-2.71716,0,0,0,0,0,0,0,-1,1490,470,3.05923,2.71718
273,554,2.58521,-3.06876,0,0,0,0,0,0,0,-1,1497,470,2.58524,3.06874
280,554,2.83301,-0.991699,0,0,0,0,0,0,0,-1,1504,470,2.83303,0.991704
287,554,3.54126,-4.12277,0,0,0,0,0,0,0,-1,1511,470,3.54123,4.12277
294,554,3.62036,-8.50146,0,0,0,0,0,0,0,-1,1518,470,3.62031,8.50145
301,554,9.31323,-32.2134,0,0,0,0,0,0,0,-1,1525,470,9.31327,32.2134
308,554,9.95691,-33.0738,0,0,0,0,0,0,0,-1,1532,470,9.95696,33.0738
315,554,10.0608,-32.7589,0,0,0,0,0,0,0,-1,1539,470,10.0608,32.759
322,554,9.99731,-32.3462,0,0,0,0,0,0,0,-1,1546,470,9.99737,32.3462
329,554,10.0199,-31.6725,0.00260865,-0.00575864,-0.00331983,0.00376581,-0.0069158,-0.33539,0.00625578,0.0345907,1553,470,10.0199,31.6726
336,554,10.0236,-31.3078,0.002344,-0.00489745,-0.00289559,0.00335944,-0.0059129,-0.337287,0.00542063,0.0223941,1560,470,10.0235,31.3078
343,554,10.0206,-30.873,0.00198741,-0.00419092,-0.00254964,0.00290369,-0.0051072,-0.345004,0.00468305,0.0136342,1567,470,10.0206,30.873
350,554,10.0509,-30.3461,0.00156116,-0.00355267,-0.00226445,0.00241973,-0.00441124,-0.362406,0.00399934,0.010039,1574,470,10.0509,30.3461
357,554,10.0643,-29.825,0.00126659,-0.0027476,-0.00189291,0.00201839,-0.00349941,-0.378065,0.00322373,0.0111714,1581,470,10.0644,29.8249
364,554,10.0549,-29.3402,0.00102154,-0.00188548,-0.00144633,0.00161853,-0.00248247,-0.39146,0.00238516,0.00954898,1588,470,10.055,29.3403
371,554,10.0374,-28.8118,0.000840234,-0.00106621,-0.000985075,0.00125778,-0.00148376,-0.400915,0.00158462,0.00916271,1595,470,10.0374,28.8118
378,554,10.0226,-28.2563,0.000672649,-0.000200747,-0.000530718,0.000923241,-0.000451338,-0.44114,0.000809052,0.0101122,1602,470,10.0225,28.2563
385,554,10.0117,-27.7008,0.000500207,0.000821137,-5.36282e-05,0.000829861,0.000491483,-1.40953,0.000481831,0.00950153,1609,470,10.0117,27.7008
392,554,10.0121,-27.1317,0.000475181,0.0016556,0.00040426,0.00178077,0.000350007,1.27052,0.00108942,0.0123468,1616,470,10.0121,27.1317
399,554,9.99243,-26.5686,0.000759981,0.00236119,0.00105884,0.00288802,0.000233144,1.1091,0.00185253,0.0175569,1623,470,9.99238,26.5686
406,554,9.9657,-26.0168,0.000959451,0.00321304,0.00173238,0.00415283,1.96521e-05,1.07374,0.00276203,0.0178423,1630,470,9.96571,26.0168
413,554,9.95471,-25.4753,0.00114782,0.0040648,0.00241199,0.00542498,-0.000212358,1.05733,0.00368948,0.0155821,1637,470,9.95468,25.4753
420,554,9.91199,-24.906,0.00136238,0.0041006,0.00295492,0.00598818,-0.000525202,1.00234,0.00417821,0.0161963,1644,470,9.912,24.906
427,554,9.90308,-24.3174,0.00143856,0.00386934,0.00355931,0.00641505,-0.00110715,0.949925,0.00468952,0.0119234,1651,470,9.90313,24.3175
434,554,9.87341,-23.7312,0.00140426,0.00339677,0.00458025,0.00708786,-0.00228683,0.892486,0.00564412,0.0102429,1658,470,9.87337,23.7312
441,554,9.86438,-23.1296,0.00137825,0.0025809,0.00541184,0.00742472,-0.00346556,0.840727,0.00642451,0.0118608,1665,470,9.86441,23.1296
448,554,9.83801,-22.4876,0.00104541,0.00125689,0.00624664,0.00739869,-0.00509638,0.793861,0.00725474,0.0179205,1672,470,9.83803,22.4876
455,554,9.78882,-21.8966,0.000485778,-0.000611029,0.00708453,0.0070431,-0.00716835,0.746771,0.00820509,0.0190992,1679,470,9.78878,21.8966
462,554,9.71448,-21.3279,-0.00015836,-0.00279268,0.00805637,0.00668781,-0.00963885,0.704368,0.00947739,0.0205354,1686,470,9.71444,21.3279
469,554,9.64673,-20.7518,-0.00087369,-0.00560973,0.00918693,0.00624551,-0.0127289,0.659264,0.011166,0.0244869,1693,470,9.64679,20.7518
476,554,9.54102,-20.0888,-0.00161132,-0.00911526,0.0104767,0.00576498,-0.0164916,0.613451,0.013338,0.0480975,1700,470,9.54108,20.0888
483,554,9.44824,-19.4492,0,0,0,0,0,0,0,-1,1707,470,9.44827,19.4492
490,554,8.59937,-18.6279,0,0,0,0,0,0,0,-1,1714,470,8.59933,18.6279
497,554,10.9613,1.60983,0,0,0,0,0,0,0,-1,1721,470,10.9613,-1.60982
504,554,2.13257,-3.81628,0,0,0,0,0,0,0,-1,1728,470,2.1326,3.8163
511,554,1.31396,-4.02713,0,0,0,0,0,0,0,-1,1735,470,1.31398,4.02712
518,554,5.04236,-5.9472,0,0,0,0,0,0,0,-1,1742,470,5.04231,5.94721
525,554,0,0,0,0,0,0,0,0,0,-1,1749,470,0,0
532,554,0,0,0,0,0,0,0,0,0,-1,1756,470,0,0
539,554,0,0,0,0,0,0,0,0,0,-1,1763,470,0,0
546,554,0,0,0,0,0,0,0,0,0,-1,1770,470,0,0
553,554,0,0,0,0,0,0,0,0,0,-1,1777,470,0,0
560,554,0,0,0,0,0,0,0,0,0,-1,1784,470,0,0
567,554,0,0,0,0,0,0,0,0,0,-1,1791,470,0,0
574,554,0,0,0,0,0,0,0,0,0,-1,1798,470,0,0
581,554,0,0,0,0,0,0,0,0,0,-1,1805,470,0,0
588,554,0,0,0,0,0,0,0,0,0,-1,1812,470,0,0
595,554,0,0,0,0,0,0,0,0,0,-1,1819,470,0,0
602,554,0,0,0,0,0,0,0,0,0,-1,1826,470,0,0
609,554,0,0,0,0,0,0,0,0,0,-1,1833,470,0,0
616,554,0,0,0,0,0,0,0,0,0,-1,1840,470,0,0
623,554,0,0,0,0,0,0,0,0,0,-1,1847,470,0,0
630,554,0,0,0,0,0,0,0,0,0,-1,1854,470,0,0
637,554,0,0,0,0,0,0,0,0,0,-1,1861,470,0,0
644,554,0,0,0,0,0,0,0,0,0,-1,1868,470,0,0
651,554,0,0,0,0,0,0,0,0,0,-1,1875,470,0,0
658,554,0,0,0,0,0,0,0,0,0,-1,1882,470,0,0
665,554,0,0,0,0,0,0,0,0,0,-1,1889,470,0,0
672,554,0,0,0,0,0,0,0,0,0,-1,1896,470,0,0
679,554,0,0,0,0,0,0,0,0,0,-1,1903,470,0,0
686,554,0,0,0,0,0,0,0,0,0,-1,1910,470,0,0
693,554,0,0,0,0,0,0,0,0,0,-1,1917,470,0,0
700,554,0,0,0,0,0,0,0,0,0,-1,1924,470,0,0
707,554,0,0,0,0,0,0,0,0,0,-1,1931,470,0,0
714,554,0,0,0,0,0,0,0,0,0,-1,1938,470,0,0
721,554,0,0,0,0,0,0,0,0,0,-1,1945,470,0,0
728,554,0,0,0,0,0,0,0,0,0,-1,1952,470,0,0
735,554,0,0,0,0,0,0,0,0,0,-1,1959,470,0,0
742,554,0,0,0,0,0,0,0,0,0,-1,1966,470,0,0
749,554,0,0,0,0,0,0,0,0,0,-1,1973,470,0,0
756,554,0,0,0,0,0,0,0,0,0,-1,1980,470,0,0
763,554,0,0,0,0,0,0,0,0,0,-1,1987,470,0,0
770,554,0,0,0,0,0,0,0,0,0,-1,1994,470,0,0
777,554,0,0,0,0,0,0,0,0,0,-1,2001,470,0,0
784,554,0,0,0,0,0,0,0,0,0,-1,2008,470,0,0
791,554,0,0,0,0,0,0,0,0,0,-1,2015,470,0,0
798,554,0,0,0,0,0,0,0,0,0,-1,2022,470,0,0
805,554,0,0,0,0,0,0,0,0,0,-1,2029,470,0,0
812,554,0,0,0,0,0,0,0,0,0,-1,2036,470,0,0
-700,547,0,0,0,0,0,0,0,0,0,-1,524,477,0,0
-693,547,0,0,0,0,0,0,0,0,0,-1,531,477,0,0
-686,547,0,0,0,0,0,0,0,0,0,-1,538,477,0,0
-679,547,0,0,0,0,0,0,0,0,0,-1,545,477,0,0
-672,547,0,0,0,0,0,0,0,0,0,-1,552,477,0,0
-665,547,0,0,0,0,0,0,0,0,0,-1,559,477,0,0
-658,547,0,0,0,0,0,0,0,0,0,-1,566,477,0,0
-651,547,0,0,0,0,0,0,0,0,0,-1,573,477,0,0
-644,547,0,0,0,0,0,0,0,0,0,-1,580,477,0,0
-637,547,0,0,0,0,0,0,0,0,0,-1,587,477,0,0
-630,547,0,0,0,0,0,0,0,0,0,-1,594,477,0,0
-623,547,0,0,0,0,0,0,0,0,0,-1,601,477,0,0
-616,547,0,0,0,0,0,0,0,0,0,-1,608,477,0,0
-609,547,0,0,0,0,0,0,0,0,0,-1,615,477,0,0
-602,547,0,0,0,0,0,0,0,0,0,-1,622,477,0,0
-595,547,0,0,0,0,0,0,0,0,0,-1,629,477,0,0
-588,547,0,0,0,0,0,0,0,0,0,-1,636,477,0,0
-581,547,0,0,0,0,0,0,0,0,0,-1,643,477,0,0
-574,547,0,0,0,0,0,0,0,0,0,-1,650,477,0,0
-567,547,0,0,0,0,0,0,0,0,0,-1,657,477,0,0
-560,547,0,0,0,0,0,0,0,0,0,-1,664,477,0,0
-553,547,0,0,0,0,0,0,0,0,0,-1,671,477,0,0
-546,547,0,0,0,0,0,0,0,0,0,-1,678,477,0,0
-539,547,0,0,0,0,0,0,0,0,0,-1,685,477,0,0
-532,547,0,0,0,0,0,0,0,0,0,-1,692,477,0,0
-525,547,0,0,0,0,0,0,0,0,0,-1,699,477,0,0
-518,547,0,0,0,0,0,0,0,0,0,-1,706,477,0,0
-511,547,0,0,0,0,0,0,0,0,0,-1,713,477,0,0
-504,547,0,0,0,0,0,0,0,0,0,-1,720,477,0,0
-497,547,0,0,0,0,0,0,0,0,0,-1,727,477,0,0
-490,547,0,0,0,0,0,0,0,0,0,-1,734,477,0,0
-483,547,0,0,0,0,0,0,0,0,0,-1,741,477,0,0
-476,547,0,0,0,0,0,0,0,0,0,-1,748,477,0,0
-469,547,0,0,0,0,0,0,0,0,0,-1,755,477,0,0
-462,547,0,0,0,0,0,0,0,0,0,-1,762,477,0,0
-455,547,0,0,0,0,0,0,0,0,0,-1,769,477,0,0
-448,547,0,0,0,0,0,0,0,0,0,-1,776,477,0,0
-441,547,0,0,0,0,0,0,0,0,0,-1,783,477,0,0
-434,547,0,0,0,0,0,0,0,0,0,-1,790,477,0,0
-427,547,0,0,0,0,0,0,0,0,0,-1,797,477,0,0
-420,547,0,0,0,0,0,0,0,0,0,-1,804,477,0,0
-413,547,0,0,0,0,0,0,0,0,0,-1,811,477,0,0
-406,547,0.144592,-11.0292,0,0,0,0,0,0,0,-1,818,477,0.144583,11.0292
-399,547,0.775513,-10.0294,0,0,0,0,0,0,0,-1,825,477,0.775482,10.0295
-392,547,-1.52271,-4.41675,0,0,0,0,0,0,0,-1,832,477,-1.52273,4.41674
-385,547,-1.73743,-4.6431,0,0,0,0,0,0,0,-1,839,477,-1.73743,4.64308
-378,547,-2.41339,-4.60071,0,0,0,0,0,0,0,-1,846,477,-2.41337,4.60071
-371,547,1.64569,-11.1445,0,0,0,0,0,0,0,-1,853,477,1.64569,11.1445
-364,547,0.998169,-19.0624,0,0,0,0,0,0,0,-1,860,477,0.998159,19.0624
-357,547,0.619873,-20.22,0,0,0,0,0,0,0,-1,867,477,0.619848,20.22
-350,547,0.673584,-20.5031,0,0,0,0,0,0,0,-1,874,477,0.673558,20.5031
-343,547,0.552917,-21.7351,-0.00257565,0.0130295,-0.00552192,0.0147858,-0.00433193,-1.26286,0.0115746,0.0479731,881,477,0.552945,21.7351
-336,547,0.571899,-22.4218,-0.00171269,0.0102553,-0.00464593,0.0118471,-0.00330451,-1.24071,0.00919955,0.0194779,888,477,0.57188,22.4219
-329,547,0.503723,-23.0089,-0.00108074,0.00799997,-0.00391034,0.00945174,-0.00253251,-1.2153,0.0072934,0.0118504,895,477,0.503706,23.0089
-322,547,0.469788,-23.5983,-0.000410009,0.0057942,-0.0033536,0.00726044,-0.00187624,-1.15863,0.00557201,0.0118582,902,477,0.469771,23.5983
-315,547,0.434814,-24.2007,3.37279e-06,0.00457332,-0.00281814,0.00591643,-0.00133974,-1.12605,0.00445848,0.0103686,909,477,0.434836,24.2007
-308,547,0.420532,-24.7668,0.000296907,0.0037136,-0.00247893,0.00501582,-0.00100532,-1.0871,0.00372449,0.011827,916,477,0.42051,24.7668
-301,547,0.409729,-25.3307,0.000591198,0.00285695,-0.00221379,0.00421089,-0.000762745,-1.02189,0.00309302,0.0115491,923,477,0.409725,25.3307
-294,547,0.355957,-25.8691,0.000916255,0.00209568,-0.00186903,0.00346582,-0.000453892,-0.938213,0.00247575,0.0104024,930,477,0.355965,25.8691
-287,547,0.320862,-26.4105,0.00123169,0.00156486,-0.001505,0.00291247,-0.000115915,-0.840518,0.00198142,0.0125193,937,477,0.320857,26.4105
-280,547,0.312378,-26.9715,0.00148961,0.00106087,-0.00118181,0.00247634,7.41521e-05,-0.695678,0.00162674,0.0139484,944,477,0.312368,26.9715
-273,547,0.296143,-27.5204,0.00172076,0.000487018,-0.000764557,0.00208627,0.000121505,-0.445951,0.00135217,0.0127077,951,477,0.296156,27.5205
-266,547,0.263428,-28.0419,0.00196865,-0.00029208,-0.000181308,0.0019831,-0.000306528,-0.0795215,0.0014352,0.012,958,477,0.263454,28.0419
-259,547,0.23877,-28.5319,0.00231404,-0.00134754,0.000478347,0.00237549,-0.001409,0.127783,0.0022086,0.0113655,965,477,0.238747,28.5319
-252,547,0.250244,-29.0516,0.00264711,-0.00283723,0.00126644,0.00292543,-0.00311555,0.216328,0.00348834,0.0115642,972,477,0.25027,29.0516
-245,547,0.258545,-29.5782,0.0031732,-0.00506157,0.00215962,0.00370521,-0.00559357,0.241533,0.00540543,0.0123537,979,477,0.258555,29.5782
-238,547,0.269226,-30.0927,0.00407223,-0.0074478,0.00283677,0.00473289,-0.00810846,0.228812,0.00749885,0.00850741,986,477,0.269228,30.0927
-231,547,0.260071,-30.5984,0.00517974,-0.0104036,0.00325406,0.00583194,-0.0110558,0.197807,0.00990439,0.00804635,993,477,0.260079,30.5985
-224,547,0.26416,-31.0546,0.00611495,-0.0138153,0.00400227,0.00688863,-0.014589,0.190954,0.012663,0.0109104,1000,477,0.264165,31.0546
-217,547,0.285645,-31.5074,0.00723813,-0.0176632,0.00464212,0.00807537,-0.0185004,0.178438,0.0157321,0.0181517,1007,477,0.285638,31.5074
-210,547,0.283997,-31.8626,0.00877802,-0.0217655,0.0051241,0.00961474,-0.0226022,0.161862,0.0190976,0.0307934,1014,477,0.284016,31.8626
-203,547,0.375427,-31.932,0.0107826,-0.0262615,0.00535992,0.0115425,-0.0270215,0.140843,0.022855,0.042598,1021,477,0.375413,31.932
-196,547,0.413086,-32.064,0.0127582,-0.0307305,0.00542177,0.013424,-0.0313963,0.122179,0.0265614,0.0491058,1028,477,0.413083,32.064
-189,547,0.474365,-32.1513,0,0,0,0,0,0,0,-1,1035,477,0.474313,32.1513
-182,547,1.67871,-33.0365,0,0,0,0,0,0,0,-1,1042,477,1.6787,33.0365
-175,547,-0.350098,-12.3584,0,0,0,0,0,0,0,-1,1049,477,-0.350098,12.3584
-168,547,0.761719,-32.9387,0,0,0,0,0,0,0,-1,1056,477,0.761738,32.9387
-161,547,0.0430908,-34.6016,0,0,0,0,0,0,0,-1,1063,477,0.0431231,34.6016
-154,547,-0.284424,-31.1176,0,0,0,0,0,0,0,-1,1070,477,-0.284395,31.1176
-147,547,3.69434,-26.413,0,0,0,0,0,0,0,-1,1077,477,3.69437,26.413
-140,547,1.55676,-22.5229,0,0,0,0,0,0,0,-1,1084,477,1.5568,22.5229
-133,547,2.31665,-17.9421,0,0,0,0,0,0,0,-1,1091,477,2.31667,17.9421
-126,547,-1.15271,-30.6984,0,0,0,0,0,0,0,-1,1098,477,-1.15267,30.6984
-119,547,0.967651,-24.9351,0,0,0,0,0,0,0,-1,1105,477,0.967657,24.9351
-112,547,1.15674,-22.2276,0,0,0,0,0,0,0,-1,1112,477,1.15677,22.2276
-105,547,0.966797,-20.5777,0,0,0,0,0,0,0,-1,1119,477,0.966804,20.5777
-98,547,0.70166,-18.9755,0,0,0,0,0,0,0,-1,1126,477,0.701713,18.9755
-91,547,1.37805,-7.12024,0,0,0,0,0,0,0,-1,1133,477,1.37804,7.12025
-84,547,1.94202,-6.66241,0,0,0,0,0,0,0,-1,1140,477,1.94201,6.66241
-77,547,-2.28357,1.8588,0,0,0,0,0,0,0,-1,1147,477,-2.28356,-1.85879
-70,547,-3.70178,-0.874908,0,0,0,0,0,0,0,-1,1154,477,-3.70182,0.874918
-63,547,-5.12012,-3.60861,0,0,0,0,0,0,0,-1,1161,477,-5.12009,3.60862
-56,547,-6.01917,-6.2399,0,0,0,0,0,0,0,-1,1168,477,-6.01921,6.23991
-49,547,-6.729,-8.60349,0,0,0,0,0,0,0,-1,1175,477,-6.72899,8.60348
-42,547,-2.41736,-5.53012,0,0,0,0,0,0,0,-1,1182,477,-2.41734,5.53011
-35,547,-2.96838,-4.45734,0,0,0,0,0,0,0,-1,1189,477,-2.96839,4.45734
-28,547,-0.869141,-1.29901,0,0,0,0,0,0,0,-1,1196,477,-0.869135,1.29901
-21,547,-7.68262,-30.8089,0,0,0,0,0,0,0,-1,1203,477,-7.68256,30.8089
-14,547,12.0903,-44.6413,0,0,0,0,0,0,0,-1,1210,477,12.0903,44.6413
-7,547,2.38904,-36.8795,0,0,0,0,0,0,0,-1,1217,477,2.38902,36.8795
0,547,9.93286,-44.7479,0,0,0,0,0,0,0,-1,1224,477,9.9329,44.7479
7,547,6.18005,-38.201,0,0,0,0,0,0,0,-1,1231,477,6.18001,38.201
14,547,0,0,0,0,0,0,0,0,0,-1,1238,477,0,0
21,547,0,0,0,0,0,0,0,0,0,-1,1245,477,0,0
28,547,0,0,0,0,0,0,0,0,0,-1,1252,477,0,0
35,547,0,0,0,0,0,0,0,0,0,-1,1259,477,0,0
42,547,0,0,0,0,0,0,0,0,0,-1,1266,477,0,0
49,547,0,0,0,0,0,0,0,0,0,-1,1273,477,0,0
56,547,0,0,0,0,0,0,0,0,0,-1,1280,477,0,0
63,547,0,0,0,0,0,0,0,0,0,-1,1287,477,0,0
70,547,0,0,0,0,0,0,0,0,0,-1,1294,477,0,0
77,547,0,0,0,0,0,0,0,0,0,-1,1301,477,0,0
84,547,0,0,0,0,0,0,0,0,0,-1,1308,477,0,0
91,547,0,0,0,0,0,0,0,0,0,-1,1315,477,0,0
98,547,0,0,0,0,0,0,0,0,0,-1,1322,477,0,0
105,547,7.41064,-30.5782,0,0,0,0,0,0,0,-1,1329,477,7.41068,30.5782
112,547,7.74426,-29.475,0.0519033,0.0420804,0.0340653,0.0814094,0.0125743,0.713802,0.0506049,0.0448417,1336,477,7.74432,29.475
119,547,8.13123,-28.7777,0.0574946,0.053222,0.0361397,0.0915611,0.0191555,0.755876,0.0557632,0.0399863,1343,477,8.1312,28.7777
126,547,8.48413,-27.5669,0.0643003,0.058807,0.0381594,0.0998117,0.0232956,0.749471,0.0602952,0.0442115,1350,477,8.48419,27.5669
133,547,8.90308,-26.1648,0.0728846,0.0560867,0.0410785,0.106414,0.0225573,0.684558,0.0647468,0.0472705,1357,477,8.90302,26.1648
140,547,9.1853,-25.1858,0.0779789,0.0635444,0.0512385,0.122506,0.0190174,0.715431,0.0761274,0.0427235,1364,477,9.1853,25.1858
147,547,9.31567,-24.1259,0,0,0,0,0,0,0,-1,1371,477,9.31572,24.1259
154,547,9.17798,-22.8742,0,0,0,0,0,0,0,-1,1378,477,9.17793,22.8742
161,547,9.10242,-21.6484,0,0,0,0,0,0,0,-1,1385,477,9.10238,21.6484
168,547,13.4181,-26.3557,0,0,0,0,0,0,0,-1,1392,477,13.4181,26.3557
175,547,3.35034,-0.26532,0,0,0,0,0,0,0,-1,1399,477,3.3503,0.265306
182,547,4.26038,3.72672,0,0,0,0,0,0,0,-1,1406,477,4.26039,-3.7267
189,547,3.40454,1.28671,0,0,0,0,0,0,0,-1,1413,477,3.40457,-1.28673
196,547,3.53931,1.87793,0,0,0,0,0,0,0,-1,1420,477,3.53928,-1.87794
203,547,6.49414,-0.425842,0,0,0,0,0,0,0,-1,1427,477,6.4941,0.425844
210,547,4.82092,0.53595,0,0,0,0,0,0,0,-1,1434,477,4.82096,-0.535942
217,547,4.68579,0.480072,0,0,0,0,0,0,0,-1,1441,477,4.68577,-0.480069
224,547,4.55615,0.739807,0,0,0,0,0,0,0,-1,1448,477,4.55613,-0.73981
231,547,5.90869,-3.57721,0,0,0,0,0,0,0,-1,1455,477,5.90871,3.57722
238,547,5.50049,-3.15356,0,0,0,0,0,0,0,-1,1462,477,5.50045,3.15356
245,547,5.13708,-2.65213,0,0,0,0,0,0,0,-1,1469,477,5.13708,2.65212
252,547,3.73511,-0.645233,0,0,0,0,0,0,0,-1,1476,477,3.73515,0.645237
259,547,5.86816,-3.20816,0,0,0,0,0,0,0,-1,1483,477,5.86815,3.20816
266,547,5.40222,-2.45731,0,0,0,0,0,0,0,-1,1490,477,5.40221,2.45732
273,547,3.05737,0.495789,0,0,0,0,0,0,0,-1,1497,477,3.05742,-0.49578
280,547,2.0885,1.47797,0,0,0,0,0,0,0,-1,1504,477,2.08848,-1.47795
287,547,2.31177,-2.21716,0,0,0,0,0,0,0,-1,1511,477,2.31174,2.21717
294,547,2.4823,-3.03659,0,0,0,0,0,0,0,-1,1518,477,2.48229,3.0366
301,547,4.72119,-3.93454,0,0,0,0,0,0,0,-1,1525,477,4.72119,3.93453
308,547,4.07471,-5.42175,0,0,0,0,0,0,0,-1,1532,477,4.07468,5.42174
315,547,3.58496,-6.62112,0,0,0,0,0,0,0,-1,1539,477,3.58497,6.62113
322,547,5.73926,-14.1878,0,0,0,0,0,0,0,-1,1546,477,5.73926,14.1878
329,547,10.3906,-31.6039,0,0,0,0,0,0,0,-1,1553,477,10.3906,31.6039
336,547,10.5828,-31.5133,0,0,0,0,0,0,0,-1,1560,477,10.5827,31.5133
343,547,10.6368,-30.9578,0.00212204,-0.00572897,-0.00343842,0.00341499,-0.00702193,-0.359675,0.00614453,0.0475012,1567,477,10.6369,30.9578
350,547,10.5823,-30.3507,0.00164387,-0.00517127,-0.00324682,0.00294304,-0.00647043,-0.380623,0.0055606,0.0291667,1574,477,10.5823,30.3507
357,547,10.5844,-29.8243,0.00134816,-0.00432155,-0.00291595,0.00258014,-0.00555353,-0.399749,0.00479943,0.0157328,1581,477,10.5843,29.8243
364,547,10.5719,-29.3131,0.00111117,-0.00340876,-0.00247744,0.00220459,-0.00450217,-0.415636,0.00394716,0.0106268,1588,477,10.5719,29.3131
371,547,10.5803,-28.7797,0.000936112,-0.00253742,-0.00202185,0.00186472,-0.00346603,-0.430551,0.00312365,0.00905922,1595,477,10.5803,28.7797
378,547,10.5692,-28.245,0.000782675,-0.00158824,-0.00156191,0.00155805,-0.00236361,-0.460787,0.00228004,0.00952942,1602,477,10.5692,28.245
385,547,10.5516,-27.6876,0.000654615,-0.000543369,-0.00101999,0.00123849,-0.00112725,-0.519902,0.00136636,0.00968998,1609,477,10.5517,27.6876
392,547,10.5629,-27.1237,0.000580367,0.000336967,-0.000526419,0.00099897,-8.16367e-05,-0.671802,0.000694793,0.0108371,1616,477,10.5629,27.1238
399,547,10.5366,-26.5674,0.000686437,0.00104917,3.75402e-05,0.00105302,0.000682593,1.46874,0.0006168,0.0128359,1623,477,10.5367,26.5674
406,547,10.5106,-26.0201,0.000813332,0.00188414,0.000663282,0.00220114,0.000496327,1.12496,0.00133315,0.0131373,1630,477,10.5106,26.0201
413,547,10.514,-25.4884,0.000977685,0.00276098,0.00135002,0.00348723,0.000251435,1.07725,0.0022457,0.0130628,1637,477,10.5141,25.4884
420,547,10.4966,-24.9262,0.00114056,0.00302387,0.00191528,0.00421646,-5.20328e-05,1.01387,0.00282848,0.0150901,1644,477,10.4966,24.9262
427,547,10.489,-24.3084,0.00120735,0.00301947,0.00249975,0.0047723,-0.000545477,0.959263,0.00337807,0.0143973,1651,477,10.489,24.3084
434,547,10.437,-23.7226,0.00119683,0.00279323,0.00335564,0.0054443,-0.00145424,0.902162,0.00419908,0.00966645,1658,477,10.437,23.7226
441,547,10.4148,-23.1735,0.00119476,0.00225254,0.00409618,0.00585383,-0.00240653,0.849602,0.00490561,0.0101861,1665,477,10.4148,23.1735
448,547,10.3861,-22.5485,0.000975735,0.00132851,0.00482488,0.00598022,-0.00367598,0.803669,0.00562767,0.011798,1672,477,10.3861,22.5485
455,547,10.3606,-21.9482,0.00063899,5.14853e-05,0.00555764,0.00591064,-0.00522016,0.758995,0.00643049,0.0114301,1679,477,10.3606,21.9482
462,547,10.3094,-21.3599,0.00031968,-0.00154255,0.00638137,0.0058375,-0.00706038,0.712954,0.00745774,0.0110806,1686,477,10.3095,21.3599
469,547,10.2672,-20.7391,-2.06025e-06,-0.00371177,0.0073159,0.00569046,-0.00940429,0.661245,0.00880244,0.0206501,1693,477,10.2672,20.7391
476,547,10.2715,-19.8548,-0.000314109,-0.00647801,0.00835503,0.00550928,-0.0123014,0.608704,0.0105293,0.0391805,1700,477,10.2715,19.8548
483,547,10.3151,-19.4608,0,0,0,0,0,0,0,-1,1707,477,10.3151,19.4609
490,547,3.65271,-3.71707,0,0,0,0,0,0,0,-1,1714,477,3.65277,3.71708
497,547,2.55481,-3.81421,0,0,0,0,0,0,0,-1,1721,477,2.55476,3.8142
504,547,4.01953,-2.22714,0,0,0,0,0,0,0,-1,1728,477,4.0195,2.22713
511,547,5.2146,-6.9552,0,0,0,0,0,0,0,-1,1735,477,5.21464,6.95521
518,547,5.24243,-6.56122,0,0,0,0,0,0,0,-1,1742,477,5.24241,6.56121
525,547,5.89368,-5.49866,0,0,0,0,0,0,0,-1,1749,477,5.89372,5.49866
532,547,0,0,0,0,0,0,0,0,0,-1,1756,477,0,0
539,547,0,0,0,0,0,0,0,0,0,-1,1763,477,0,0
546,547,0,0,0,0,0,0,0,0,0,-1,1770,477,0,0
553,547,0,0,0,0,0,0,0,0,0,-1,1777,477,0,0
560,547,0,0,0,0,0,0,0,0,0,-1,1784,477,0,0
567,547,0,0,0,0,0,0,0,0,0,-1,1791,477,0,0
574,547,0,0,0,0,0,0,0,0,0,-1,1798,477,0,0
581,547,0,0,0,0,0,0,0,0,0,-1,1805,477,0,0
588,547,0,0,0,0,0,0,0,0,0,-1,1812,477,0,0
595,547,0,0,0,0,0,0,0,0,0,-1,1819,477,0,0
602,547,0,0,0,0,0,0,0,0,0,-1,1826,477,0,0
609,547,0,0,0,0,0,0,0,0,0,-1,1833,477,0,0
616,547,0,0,0,0,0,0,0,0,0,-1,1840,477,0,0
623,547,0,0,0,0,0,0,0,0,0,-1,1847,477,0,0
630,547,0,0,0,0,0,0,0,0,0,-1,1854,477,0,0
637,547,0,0,0,0,0,0,0,0,0,-1,1861,477,0,0
644,547,0,0,0,0,0,0,0,0,0,-1,1868,477,0,0
651,547,0,0,0,0,0,0,0,0,0,-1,1875,477,0,0
658,547,0,0,0,0,0,0,0,0,0,-1,1882,477,0,0
665,547,0,0,0,0,0,0,0,0,0,-1,1889,477,0,0
672,547,0,0,0,0,0,0,0,0,0,-1,1896,477,0,0
679,547,0,0,0,0,0,0,0,0,0,-1,1903,477,0,0
686,547,0,0,0,0,0,0,0,0,0,-1,1910,477,0,0
693,547,0,0,0,0,0,0,0,0,0,-1,1917,477,0,0
700,547,0,0,0,0,0,0,0,0,0,-1,1924,477,0,0
707,547,0,0,0,0,0,0,0,0,0,-1,1931,477,0,0
714,547,0,0,0,0,0,0,0,0,0,-1,1938,477,0,0
721,547,0,0,0,0,0,0,0,0,0,-1,1945,477,0,0
728,547,0,0,0,0,0,0,0,0,0,-1,1952,477,0,0
735,547,0,0,0,0,0,0,0,0,0,-1,1959,477,0,0
742,547,0,0,0,0,0,0,0,0,0,-1,1966,477,0,0
749,547,0,0,0,0,0,0,0,0,0,-1,1973,477,0,0
756,547,0,0,0,0,0,0,0,0,0,-1,1980,477,0,0
763,547,0,0,0,0,0,0,0,0,0,-1,1987,477,0,0
770,547,0,0,0,0,0,0,0,0,0,-1,1994,477,0,0
777,547,0,0,0,0,0,0,0,0,0,-1,2001,477,0,0
784,547,0,0,0,0,0,0,0,0,0,-1,2008,477,0,0
791,547,0,0,0,0,0,0,0,0,0,-1,2015,477,0,0
798,547,0,0,0,0,0,0,0,0,0,-1,2022,477,0,0
805,547,0,0,0,0,0,0,0,0,0,-1,2029,477,0,0
812,547,0,0,0,0,0,0,0,0,0,-1,2036,477,0,0
-700,540,0,0,0,0,0,0,0,0,0,-1,524,484,0,0
-693,540,0,0,0,0,0,0,0,0,0,-1,531,484,0,0
-686,540,0,0,0,0,0,0,0,0,0,-1,538,484,0,0
-679,540,0,0,0,0,0,0,0,0,0,-1,545,484,0,0
-672,540,0,0,0,0,0,0,0,0,0,-1,552,484,0,0
-665,540,0,0,0,0,0,0,0,0,0,-1,559,484,0,0
-658,540,0,0,0,0,0,0,0,0,0,-1,566,484,0,0
-651,540,0,0,0,0,0,0,0,0,0,-1,573,484,0,0
-644,540,0,0,0,0,0,0,0,0,0,-1,580,484,0,0
-637,540,0,0,0,0,0,0,0,0,0,-1,587,484,0,0
-630,540,0,0,0,0,0,0,0,0,0,-1,594,484,0,0
-623,540,0,0,0,0,0,0,0,0,0,-1,601,484,0,0
-616,540,0,0,0,0,0,0,0,0,0,-1,608,484,0,0
-609,540,0,0,0,0,0,0,0,0,0,-1,615,484,0,0
-602,540,0,0,0,0,0,0,0,0,0,-1,622,484,0,0
-595,540,0,0,0,0,0,0,0,0,0,-1,629,484,0,0
-588,540,0,0,0,0,0,0,0,0,0,-1,636,484,0,0
-581,540,0,0,0,0,0,0,0,0,0,-1,643,484,0,0
-574,540,0,0,0,0,0,0,0,0,0,-1,650,484,0,0
-567,540,0,0,0,0,0,0,0,0,0,-1,657,484,0,0
-560,540,0,0,0,0,0,0,0,0,0,-1,664,484,0,0
-553,540,0,0,0,0,0,0,0,0,0,-1,671,484,0,0
-546,540,0,0,0,0,0,0,0,0,0,-1,678,484,0,0
-539,540,0,0,0,0,0,0,0,0,0,-1,685,484,0,0
-532,540,0,0,0,0,0,0,0,0,0,-1,692,484,0,0
-525,540,0,0,0,0,0,0,0,0,0,-1,699,484,0,0
-518,540,0,0,0,0,0,0,0,0,0,-1,706,484,0,0
-511,540,0,0,0,0,0,0,0,0,0,-1,713,484,0,0
-504,540,0,0,0,0,0,0,0,0,0,-1,720,484,0,0
-497,540,0,0,0,0,0,0,0,0,0,-1,727,484,0,0
-490,540,0,0,0,0,0,0,0,0,0,-1,734,484,0,0
-483,540,0,0,0,0,0,0,0,0,0,-1,741,484,0,0
-476,540,0,0,0,0,0,0,0,0,0,-1,748,484,0,0
-469,540,0,0,0,0,0,0,0,0,0,-1,755,484,0,0
-462,540,0,0,0,0,0,0,0,0,0,-1,762,484,0,0
-455,540,0,0,0,0,0,0,0,0,0,-1,769,484,0,0
-448,540,0,0,0,0,0,0,0,0,0,-1,776,484,0,0
-441,540,0,0,0,0,0,0,0,0,0,-1,783,484,0,0
-434,540,0,0,0,0,0,0,0,0,0,-1,790,484,0,0
-427,540,0,0,0,0,0,0,0,0,0,-1,797,484,0,0
-420,540,0.227051,-10.0402,0,0,0,0,0,0,0,-1,804,484,0.227063,10.0402
-413,540,-0.0393677,-10.3862,0,0,0,0,0,0,0,-1,811,484,-0.0393683,10.3862
-406,540,-0.518372,-11.5288,0,0,0,0,0,0,0,-1,818,484,-0.518402,11.5288
-399,540,0.0863037,-11.3801,0,0,0,0,0,0,0,-1,825,484,0.0863201,11.3801
-392,540,-0.517395,-10.6735,0,0,0,0,0,0,0,-1,832,484,-0.517377,10.6735
-385,540,-2.29407,-5.03418,0,0,0,0,0,0,0,-1,839,484,-2.29408,5.03418
-378,540,1.06445,-10.5824,0,0,0,0,0,0,0,-1,846,484,1.06446,10.5824
-371,540,1.14825,-10.7452,0,0,0,0,0,0,0,-1,853,484,1.14827,10.7452
-364,540,0.19519,-19.7573,0,0,0,0,0,0,0,-1,860,484,0.195212,19.7573
-357,540,0.0725708,-20.3184,-0.0034008,0.0194655,-0.00786244,0.021908,-0.00584335,-1.26959,0.0168934,0.0468507,867,484,0.0725706,20.3184
-350,540,0.0723877,-20.8593,-0.00273694,0.0148283,-0.00612666,0.0167541,-0.00466275,-1.26624,0.0130053,0.0368051,874,484,0.0723796,20.8592
-343,540,-0.00219727,-21.7455,-0.00203811,0.0114763,-0.00499367,0.0131212,-0.00368308,-1.25258,0.0101993,0.0190438,881,484,-0.00222347,21.7455
-336,540,-0.0614624,-22.4757,-0.00138601,0.0089032,-0.00405468,0.010309,-0.00279178,-1.23706,0.00796797,0.012916,888,484,-0.0614332,22.4757
-329,540,-0.0775146,-23.0402,-0.000871081,0.00680234,-0.00328606,0.00801722,-0.00208596,-1.21667,0.00615903,0.0102399,895,484,-0.0774844,23.0402
-322,540,-0.118774,-23.6027,-0.000291068,0.00471197,-0.00268231,0.0058782,-0.0014573,-1.16067,0.0044842,0.0146745,902,484,-0.118774,23.6027
-315,540,-0.139954,-24.1884,8.78229e-05,0.00353825,-0.00211462,0.00454214,-0.000916059,-1.12756,0.00337514,0.0135053,909,484,-0.139953,24.1884
-308,540,-0.142151,-24.7528,0.000388436,0.00264286,-0.00173934,0.0035883,-0.000557009,-1.07291,0.00259785,0.0125106,916,484,-0.142149,24.7528
-301,540,-0.17981,-25.2843,0.000697515,0.00180751,-0.00144518,0.0028006,-0.00029557,-0.968732,0.00197298,0.0117798,923,484,-0.179792,25.2843
-294,540,-0.208069,-25.8262,0.0010702,0.00107938,-0.0010968,0.0021716,-2.20223e-05,-0.787492,0.00145513,0.0108205,930,484,-0.208088,25.8262
-287,540,-0.196228,-26.3912,0.00148605,0.000525635,-0.000751052,0.00189729,0.000114395,-0.500962,0.0012285,0.00904381,937,484,-0.196256,26.3912
-280,540,-0.200623,-26.9427,0.00181574,7.20747e-06,-0.00041928,0.00190822,-8.52671e-05,-0.217081,0.0013015,0.0104642,944,484,-0.200597,26.9427
-273,540,-0.220642,-27.492,0.00211415,-0.000583889,1.84025e-05,0.00211428,-0.000584015,0.00682028,0.00163924,0.0122887,951,484,-0.22064,27.492
-266,540,-0.241943,-28.0199,0.00249553,-0.00132285,0.000620755,0.00259392,-0.00142123,0.15718,0.00235087,0.0135227,958,484,-0.241918,28.0199
-259,540,-0.267761,-28.5325,0.00301352,-0.0023305,0.00130816,0.00331656,-0.00263353,0.227638,0.00344283,0.0130828,965,484,-0.267788,28.5325
-252,540,-0.265076,-29.0291,0.00349249,-0.00399155,0.00212023,0.00405141,-0.00455047,0.257749,0.00496908,0.0119903,972,484,-0.265051,29.0291
-245,540,-0.260498,-29.5488,0.00415247,-0.00649899,0.00311431,0.00499621,-0.00734272,0.264571,0.0071667,0.0116836,979,484,-0.26048,29.5488
-238,540,-0.266785,-30.0466,0.00527184,-0.00919451,0.00384961,0.00623247,-0.0101551,0.244544,0.00955131,0.00955066,986,484,-0.266789,30.0466
-231,540,-0.242371,-30.522,0.00665129,-0.0126287,0.0043397,0.00758308,-0.0135605,0.2115,0.0123688,0.0149918,993,484,-0.24235,30.522
-224,540,-0.267578,-30.9533,0.00779206,-0.0167801,0.00531114,0.0088909,-0.017879,0.204014,0.0157433,0.0275608,1000,484,-0.26756,30.9533
-217,540,-0.298645,-31.2646,0.0092046,-0.0216371,0.00614119,0.0103825,-0.022815,0.189494,0.0196094,0.039905,1007,484,-0.29866,31.2646
-210,540,-0.172058,-31.6468,0.0110859,-0.02686,0.00673808,0.0122469,-0.0280209,0.170624,0.0238358,0.0460128,1014,484,-0.172072,31.6468
-203,540,-0.263977,-32.0176,0,0,0,0,0,0,0,-1,1021,484,-0.264005,32.0176
-196,540,-0.0180664,-31.6161,0,0,0,0,0,0,0,-1,1028,484,-0.0180467,31.6162
-189,540,-0.726807,-22.826,0,0,0,0,0,0,0,-1,1035,484,-0.72684,22.8259
-182,540,0.109375,-15.2948,0,0,0,0,0,0,0,-1,1042,484,0.109331,15.2948
-175,540,1.73413,-10.728,0,0,0,0,0,0,0,-1,1049,484,1.73414,10.728
-168,540,1.18164,-7.65347,0,0,0,0,0,0,0,-1,1056,484,1.18163,7.65347
-161,540,-0.405884,-9.86481,0,0,0,0,0,0,0,-1,1063,484,-0.405886,9.8648
-154,540,1.96863,-22.0727,0,0,0,0,0,0,0,-1,1070,484,1.96859,22.0727
-147,540,1.32764,-21.9952,0,0,0,0,0,0,0,-1,1077,484,1.32762,21.9952
-140,540,1.40735,-15.6289,0,0,0,0,0,0,0,-1,1084,484,1.4073,15.6289
-133,540,2.28345,-17.6413,0,0,0,0,0,0,0,-1,1091,484,2.2835,17.6413
-126,540,1.25293,-23.9108,0,0,0,0,0,0,0,-1,1098,484,1.25288,23.9108
-119,540,1.55969,-23.0125,0,0,0,0,0,0,0,-1,1105,484,1.55968,23.0125
-112,540,1.4801,-21.6515,0,0,0,0,0,0,0,-1,1112,484,1.4801,21.6515
-105,540,1.30078,-19.8938,0,0,0,0,0,0,0,-1,1119,484,1.30077,19.8938
-98,540,1.08105,-18.1304,0,0,0,0,0,0,0,-1,1126,484,1.08101,18.1304
-91,540,1.56519,-7.48666,0,0,0,0,0,0,0,-1,1133,484,1.56514,7.48667
-84,540,-0.945923,4.43073,0,0,0,0,0,0,0,-1,1140,484,-0.945891,-4.43074
-77,540,-2.28894,2.14368,0,0,0,0,0,0,0,-1,1147,484,-2.28894,-2.14368
-70,540,-3.75244,-0.452576,0,0,0,0,0,0,0,-1,1154,484,-3.75244,0.452576
-63,540,-5.26257,-3.04767,0,0,0,0,0,0,0,-1,1161,484,-5.26262,3.04766
-56,540,-5.19055,-6.12595,0,0,0,0,0,0,0,-1,1168,484,-5.19057,6.12595
-49,540,-5.63867,-8.52298,0,0,0,0,0,0,0,-1,1175,484,-5.63871,8.52298
-42,540,0,0,0,0,0,0,0,0,0,-1,1182,484,0,0
-35,540,0,0,0,0,0,0,0,0,0,-1,1189,484,0,0
-28,540,0,0,0,0,0,0,0,0,0,-1,1196,484,0,0
-21,540,0,0,0,0,0,0,0,0,0,-1,1203,484,0,0
-14,540,0,0,0,0,0,0,0,0,0,-1,1210,484,0,0
-7,540,0,0,0,0,0,0,0,0,0,-1,1217,484,0,0
0,540,0,0,0,0,0,0,0,0,0,-1,1224,484,0,0
7,540,0,0,0,0,0,0,0,0,0,-1,1231,484,0,0
14,540,0,0,0,0,0,0,0,0,0,-1,1238,484,0,0
21,540,0,0,0,0,0,0,0,0,0,-1,1245,484,0,0
28,540,0,0,0,0,0,0,0,0,0,-1,1252,484,0,0
35,540,0,0,0,0,0,0,0,0,0,-1,1259,484,0,0
42,540,0,0,0,0,0,0,0,0,0,-1,1266,484,0,0
49,540,0,0,0,0,0,0,0,0,0,-1,1273,484,0,0
56,540,0,0,0,0,0,0,0,0,0,-1,1280,484,0,0
63,540,0,0,0,0,0,0,0,0,0,-1,1287,484,0,0
70,540,0,0,0,0,0,0,0,0,0,-1,1294,484,0,0
77,540,0,0,0,0,0,0,0,0,0,-1,1301,484,0,0
84,540,0,0,0,0,0,0,0,0,0,-1,1308,484,0,0
91,540,0,0,0,0,0,0,0,0,0,-1,1315,484,0,0
98,540,0,0,0,0,0,0,0,0,0,-1,1322,484,0,0
105,540,0,0,0,0,0,0,0,0,0,-1,1329,484,0,0
112,540,0,0,0,0,0,0,0,0,0,-1,1336,484,0,0
119,540,0,0,0,0,0,0,0,0,0,-1,1343,484,0,0
126,540,0,0,0,0,0,0,0,0,0,-1,1350,484,0,0
133,540,0,0,0,0,0,0,0,0,0,-1,1357,484,0,0
140,540,0,0,0,0,0,0,0,0,0,-1,1364,484,0,0
147,540,0,0,0,0,0,0,0,0,0,-1,1371,484,0,0
154,540,0,0,0,0,0,0,0,0,0,-1,1378,484,0,0
161,540,0,0,0,0,0,0,0,0,0,-1,1385,484,0,0
168,540,3.05078,-0.0010376,0,0,0,0,0,0,0,-1,1392,484,3.05084,0.00102554
175,540,3.37708,0.617035,0,0,0,0,0,0,0,-1,1399,484,3.37707,-0.617046
182,540,3.32678,1.23267,0,0,0,0,0,0,0,-1,1406,484,3.32678,-1.23266
189,540,3.5813,2.15619,0,0,0,0,0,0,0,-1,1413,484,3.58129,-2.1562
196,540,1.84448,-0.801483,0,0,0,0,0,0,0,-1,1420,484,1.84446,0.80148
203,540,4.14648,0.702087,0,0,0,0,0,0,0,-1,1427,484,4.14645,-0.702089
210,540,4.50671,-0.56076,0,0,0,0,0,0,0,-1,1434,484,4.50667,0.560771
217,540,5.00452,-0.278717,0,0,0,0,0,0,0,-1,1441,484,5.00452,0.278709
224,540,6.44458,-2.83527,0,0,0,0,0,0,0,-1,1448,484,6.44457,2.83525
231,540,6.9231,-3.10504,0,0,0,0,0,0,0,-1,1455,484,6.92307,3.10505
238,540,6.4823,-2.58365,0,0,0,0,0,0,0,-1,1462,484,6.48225,2.58363
245,540,6.02087,-1.97916,0,0,0,0,0,0,0,-1,1469,484,6.02088,1.97915
252,540,6.50647,-3.56006,0,0,0,0,0,0,0,-1,1476,484,6.50649,3.56006
259,540,6.01941,-2.798,0,0,0,0,0,0,0,-1,1483,484,6.01941,2.79801
266,540,5.5332,-2.02853,0,0,0,0,0,0,0,-1,1490,484,5.53323,2.02855
273,540,5.06787,-1.28137,0,0,0,0,0,0,0,-1,1497,484,5.06786,1.28136
280,540,1.62903,-2.14609,0,0,0,0,0,0,0,-1,1504,484,1.62906,2.1461
287,540,1.97156,-2.45053,0,0,0,0,0,0,0,-1,1511,484,1.97159,2.45053
294,540,2.44165,-2.6185,0,0,0,0,0,0,0,-1,1518,484,2.44167,2.6185
301,540,4.36169,-2.54272,0,0,0,0,0,0,0,-1,1525,484,4.36165,2.54272
308,540,4.2019,-4.30469,0,0,0,0,0,0,0,-1,1532,484,4.20193,4.3047
315,540,4.45923,-5.32101,0,0,0,0,0,0,0,-1,1539,484,4.45923,5.32103
322,540,4.71655,-6.33737,0,0,0,0,0,0,0,-1,1546,484,4.71653,6.33736
329,540,5.8949,-12.9383,0,0,0,0,0,0,0,-1,1553,484,5.89492,12.9383
336,540,7.16467,-17.7826,0,0,0,0,0,0,0,-1,1560,484,7.16469,17.7826
343,540,11.2808,-31.1645,0,0,0,0,0,0,0,-1,1567,484,11.2808,31.1645
350,540,11.0514,-30.416,0,0,0,0,0,0,0,-1,1574,484,11.0514,30.416
357,540,11.2037,-29.5779,0.0011277,-0.00618265,-0.00421853,0.00305431,-0.00810926,-0.428413,0.0066619,0.0429876,1581,484,11.2038,29.5779
364,540,11.0746,-29.2148,0.000949974,-0.00512218,-0.00373074,0.0027239,-0.00689611,-0.443848,0.00572559,0.0245839,1588,484,11.0746,29.2148
371,540,11.083,-28.733,0.00082727,-0.00407893,-0.00322196,0.0024237,-0.00567537,-0.460029,0.00479998,0.0151608,1595,484,11.083,28.733
378,540,11.1003,-28.2139,0.000730727,-0.00291202,-0.00268207,0.00215141,-0.0043327,-0.487121,0.00381356,0.0116059,1602,484,11.1004,28.2138
385,540,11.1068,-27.6786,0.000678611,-0.00175539,-0.00201317,0.00181404,-0.00289082,-0.51353,0.00273996,0.0127688,1609,484,11.1068,27.6785
392,540,11.105,-27.1156,0.000576007,-0.000761064,-0.00144509,0.00149971,-0.00168477,-0.568747,0.00183959,0.0122572,1616,484,11.105,27.1156
399,540,11.0763,-26.5704,0.000534799,3.15479e-05,-0.000927103,0.00124382,-0.00067747,-0.652885,0.0011252,0.016452,1623,484,11.0763,26.5704
406,540,11.0537,-26.0224,0.000626251,0.000892784,-0.000314415,0.00110101,0.000418026,-0.985849,0.000641774,0.0175126,1630,484,11.0537,26.0224
413,540,11.0607,-25.4485,0.000804231,0.00181861,0.000405738,0.00196093,0.00066191,1.23343,0.00115189,0.0138329,1637,484,11.0606,25.4485
420,540,11.0605,-24.8668,0.000952701,0.00229135,0.00100988,0.00283358,0.000410473,1.07805,0.00176818,0.0126631,1644,484,11.0606,24.8668
427,540,11.0343,-24.2749,0.00104157,0.00248114,0.00159447,0.00351077,1.1943e-05,0.997418,0.00233654,0.0129855,1651,484,11.0343,24.2749
434,540,10.9937,-23.6995,0.00107191,0.00245052,0.00232024,0.00418168,-0.000659248,0.929787,0.00303152,0.0152041,1658,484,10.9937,23.6995
441,540,10.9973,-23.125,0.00111233,0.00211997,0.00299454,0.00465278,-0.00142048,0.868741,0.0036682,0.0187975,1665,484,10.9973,23.125
448,540,10.9753,-22.5525,0.00101198,0.00148121,0.00364446,0.0048986,-0.00240541,0.817542,0.00429808,0.012122,1672,484,10.9753,22.5525
455,540,10.9364,-21.9522,0.000861735,0.000622987,0.00430015,0.00504416,-0.00355944,0.771522,0.00499189,0.0105128,1679,484,10.9364,21.9522
462,540,10.873,-21.3333,0.000774856,-0.000556084,0.00500577,0.0051592,-0.00494043,0.719315,0.00583148,0.0100858,1686,484,10.873,21.3333
469,540,10.8315,-20.7169,0.000714945,-0.00224933,0.00578575,0.00520538,-0.00673977,0.660009,0.00691547,0.0153128,1693,484,10.8315,20.7169
476,540,10.8247,-20.0964,0.000675039,-0.00447029,0.00663384,0.0052176,-0.00901285,0.600421,0.00831278,0.0210712,1700,484,10.8247,20.0964
483,540,10.9133,-19.4476,0.000755693,-0.00686475,0.00757351,0.00542343,-0.0115325,0.552336,0.00999906,0.0329054,1707,484,10.9133,19.4476
490,540,11.1642,-18.9778,0,0,0,0,0,0,0,-1,1714,484,11.1642,18.9778
497,540,10.3452,-16.9359,0,0,0,0,0,0,0,-1,1721,484,10.3453,16.9359
504,540,5.96704,-6.98599,0,0,0,0,0,0,0,-1,1728,484,5.96708,6.98598
511,540,5.82471,-6.83521,0,0,0,0,0,0,0,-1,1735,484,5.82465,6.83522
518,540,9.98181,-12.4608,0,0,0,0,0,0,0,-1,1742,484,9.98187,12.4608
525,540,11.6792,-17.253,0,0,0,0,0,0,0,-1,1749,484,11.6792,17.253
532,540,2.84265,-1.07925,0,0,0,0,0,0,0,-1,1756,484,2.84269,1.07927
539,540,0,0,0,0,0,0,0,0,0,-1,1763,484,0,0
546,540,0,0,0,0,0,0,0,0,0,-1,1770,484,0,0
553,540,0,0,0,0,0,0,0,0,0,-1,1777,484,0,0
560,540,0,0,0,0,0,0,0,0,0,-1,1784,484,0,0
567,540,0,0,0,0,0,0,0,0,0,-1,1791,484,0,0
574,540,0,0,0,0,0,0,0,0,0,-1,1798,484,0,0
581,540,0,0,0,0,0,0,0,0,0,-1,1805,484,0,0
588,540,0,0,0,0,0,0,0,0,0,-1,1812,484,0,0
595,540,0,0,0,0,0,0,0,0,0,-1,1819,484,0,0
602,540,0,0,0,0,0,0,0,0,0,-1,1826,484,0,0
609,540,0,0,0,0,0,0,0,0,0,-1,1833,484,0,0
616,540,0,0,0,0,0,0,0,0,0,-1,1840,484,0,0
623,540,0,0,0,0,0,0,0,0,0,-1,1847,484,0,0
630,540,0,0,0,0,0,0,0,0,0,-1,1854,484,0,0
637,540,0,0,0,0,0,0,0,0,0,-1,1861,484,0,0
644,540,0,0,0,0,0,0,0,0,0,-1,1868,484,0,0
651,540,0,0,0,0,0,0,0,0,0,-1,1875,484,0,0
658,540,0,0,0,0,0,0,0,0,0,-1,1882,484,0,0
665,540,0,0,0,0,0,0,0,0,0,-1,1889,484,0,0
672,540,0,0,0,0,0,0,0,0,0,-1,1896,484,0,0
679,540,0,0,0,0,0,0,0,0,0,-1,1903,484,0,0
686,540,0,0,0,0,0,0,0,0,0,-1,1910,484,0,0
693,540,0,0,0,0,0,0,0,0,0,-1,1917,484,0,0
700,540,0,0,0,0,0,0,0,0,0,-1,1924,484,0,0
707,540,0,0,0,0,0,0,0,0,0,-1,1931,484,0,0
714,540,0,0,0,0,0,0,0,0,0,-1,1938,484,0,0
721,540,0,0,0,0,0,0,0,0,0,-1,1945,484,0,0
728,540,0,0,0,0,0,0,0,0,0,-1,1952,484,0,0
735,540,0,0,0,0,0,0,0,0,0,-1,1959,484,0,0
742,540,0,0,0,0,0,0,0,0,0,-1,1966,484,0,0
749,540,0,0,0,0,0,0,0,0,0,-1,1973,484,0,0
756,540,0,0,0,0,0,0,0,0,0,-1,1980,484,0,0
763,540,0,0,0,0,0,0,0,0,0,-1,1987,484,0,0
770,540,0,0,0,0,0,0,0,0,0,-1,1994,484,0,0
777,540,0,0,0,0,0,0,0,0,0,-1,2001,484,0,0
784,540,0,0,0,0,0,0,0,0,0,-1,2008,484,0,0
791,540,0,0,0,0,0,0,0,0,0,-1,2015,484,0,0
798,540,0,0,0,0,0,0,0,0,0,-1,2022,484,0,0
805,540,0,0,0,0,0,0,0,0,0,-1,2029,484,0,0
812,540,0,0,0,0,0,0,0,0,0,-1,2036,484,0,0
-700,533,0,0,0,0,0,0,0,0,0,-1,524,491,0,0
-693,533,0,0,0,0,0,0,0,0,0,-1,531,491,0,0
-686,533,0,0,0,0,0,0,0,0,0,-1,538,491,0,0
-679,533,0,0,0,0,0,0,0,0,0,-1,545,491,0,0
-672,533,0,0,0,0,0,0,0,0,0,-1,552,491,0,0
-665,533,0,0,0,0,0,0,0,0,0,-1,559,491,0,0
-658,533,0,0,0,0,0,0,0,0,0,-1,566,491,0,0
-651,533,0,0,0,0,0,0,0,0,0,-1,573,491,0,0
-644,533,0,0,0,0,0,0,0,0,0,-1,580,491,0,0
-637,533,0,0,0,0,0,0,0,0,0,-1,587,491,0,0
-630,533,0,0,0,0,0,0,0,0,0,-1,594,491,0,0
-623,533,0,0,0,0,0,0,0,0,0,-1,601,491,0,0
-616,533,0,0,0,0,0,0,0,0,0,-1,608,491,0,0
-609,533,0,0,0,0,0,0,0,0,0,-1,615,491,0,0
-602,533,0,0,0,0,0,0,0,0,0,-1,622,491,0,0
-595,533,0,0,0,0,0,0,0,0,0,-1,629,491,0,0
-588,533,0,0,0,0,0,0,0,0,0,-1,636,491,0,0
-581,533,0,0,0,0,0,0,0,0,0,-1,643,491,0,0
-574,533,0,0,0,0,0,0,0,0,0,-1,650,491,0,0
-567,533,0,0,0,0,0,0,0,0,0,-1,657,491,0,0
-560,533,0,0,0,0,0,0,0,0,0,-1,664,491,0,0
-553,533,0,0,0,0,0,0,0,0,0,-1,671,491,0,0
-546,533,0,0,0,0,0,0,0,0,0,-1,678,491,0,0
-539,533,0,0,0,0,0,0,0,0,0,-1,685,491,0,0
-532,533,0,0,0,0,0,0,0,0,0,-1,692,491,0,0
-525,533,0,0,0,0,0,0,0,0,0,-1,699,491,0,0
-518,533,0,0,0,0,0,0,0,0,0,-1,706,491,0,0
-511,533,0,0,0,0,0,0,0,0,0,-1,713,491,0,0
-504,533,0,0,0,0,0,0,0,0,0,-1,720,491,0,0
-497,533,0,0,0,0,0,0,0,0,0,-1,727,491,0,0
-490,533,0,0,0,0,0,0,0,0,0,-1,734,491,0,0
-483,533,0,0,0,0,0,0,0,0,0,-1,741,491,0,0
-476,533,0,0,0,0,0,0,0,0,0,-1,748,491,0,0
-469,533,0,0,0,0,0,0,0,0,0,-1,755,491,0,0
-462,533,0,0,0,0,0,0,0,0,0,-1,762,491,0,0
-455,533,0,0,0,0,0,0,0,0,0,-1,769,491,0,0
-448,533,0,0,0,0,0,0,0,0,0,-1,776,491,0,0
-441,533,0,0,0,0,0,0,0,0,0,-1,783,491,0,0
-434,533,0,0,0,0,0,0,0,0,0,-1,790,491,0,0
-427,533,0.559814,-4.40222,0,0,0,0,0,0,0,-1,797,491,0.559816,4.40222
-420,533,-1.11127,-10.9054,0,0,0,0,0,0,0,-1,804,491,-1.11124,10.9054
-413,533,-0.704773,-11.0942,0,0,0,0,0,0,0,-1,811,491,-0.704742,11.0942
-406,533,-0.670898,-12.0899,0,0,0,0,0,0,0,-1,818,491,-0.670908,12.0899
-399,533,-0.455017,-12.4423,0,0,0,0,0,0,0,-1,825,491,-0.455032,12.4423
-392,533,-1.89661,-10.3905,0,0,0,0,0,0,0,-1,832,491,-1.89661,10.3905
-385,533,0.797729,-17.0485,0,0,0,0,0,0,0,-1,839,491,0.797746,17.0485
-378,533,0.132935,-18.1107,0,0,0,0,0,0,0,-1,846,491,0.132915,18.1107
-371,533,-0.445251,-19.1312,0,0,0,0,0,0,0,-1,853,491,-0.445239,19.1312
-364,533,-0.476868,-19.8176,-0.00342985,0.0213771,-0.0087354,0.0241444,-0.00619719,-1.264,0.0185111,0.0408112,860,491,-0.47688,19.8176
-357,533,-0.494873,-20.5071,-0.0025842,0.0166364,-0.007062,0.0189521,-0.00489991,-1.25393,0.0145458,0.0253976,867,491,-0.4949,20.5071
-350,533,-0.492493,-21.1931,-0.0020858,0.012604,-0.00544882,0.0144044,-0.00388624,-1.25166,0.0111269,0.0149243,874,491,-0.492512,21.1931
-343,533,-0.559814,-21.8385,-0.00153214,0.00964079,-0.00433249,0.0111239,-0.00301526,-1.24097,0.00859909,0.0125759,881,491,-0.559804,21.8385
-336,533,-0.616028,-22.465,-0.00101512,0.00732571,-0.00340659,0.0085402,-0.00222961,-1.22833,0.00656413,0.0156999,888,491,-0.61605,22.465
-329,533,-0.628113,-23.0291,-0.000563824,0.00543576,-0.00266142,0.00644619,-0.00157426,-1.20795,0.00490712,0.0138312,895,491,-0.628135,23.0291
-322,533,-0.668457,-23.5895,-4.19806e-05,0.00354096,-0.00205765,0.00447773,-0.00097875,-1.14358,0.00335927,0.0119954,902,491,-0.668432,23.5895
-315,533,-0.6922,-24.1744,0.000330724,0.00245548,-0.00148179,0.00321638,-0.000430177,-1.09641,0.00230109,0.013669,909,491,-0.692187,24.1745
-308,533,-0.703308,-24.735,0.000670198,0.00160394,-0.00109633,0.00232867,-5.45329e-05,-0.986692,0.00157094,0.0126993,916,491,-0.703316,24.735
-301,533,-0.755432,-25.2535,0.00102461,0.000842222,-0.000799298,0.0017379,0.000128932,-0.728597,0.0011181,0.0129748,923,491,-0.755434,25.2535
-294,533,-0.758789,-25.7994,0.00146272,0.000190537,-0.000460742,0.00161206,4.12012e-05,-0.313435,0.00106124,0.0119525,930,491,-0.75878,25.7994
-287,533,-0.733032,-26.3719,0.00199009,-0.000362821,-0.000147749,0.00199933,-0.000372062,-0.0624669,0.00147266,0.00973953,937,491,-0.733058,26.3719
-280,533,-0.733887,-26.9247,0.00240433,-0.000888003,0.000182759,0.00241444,-0.000898117,0.0552841,0.00197817,0.00932321,944,491,-0.733881,26.9248
-273,533,-0.759766,-27.4597,0.00277942,-0.00149612,0.000621519,0.00286794,-0.00158464,0.141466,0.00260604,0.0126543,951,491,-0.759792,27.4597
-266,533,-0.765381,-27.9829,0.00330515,-0.00219713,0.00122161,0.00356418,-0.00245616,0.208942,0.00349541,0.0131065,958,491,-0.765401,27.9829
-259,533,-0.752319,-28.5066,0.00401551,-0.00315464,0.00192067,0.00449758,-0.00363672,0.245915,0.0047051,0.013978,965,491,-0.752344,28.5066
-252,533,-0.758057,-29.028,0.00464848,-0.00503451,0.00274256,0.00537131,-0.00575734,0.2577,0.00642642,0.0185782,972,491,-0.758043,29.0279
-245,533,-0.847534,-29.5173,0.00542171,-0.00793282,0.00386197,0.00645811,-0.00896922,0.262184,0.00894622,0.0326846,979,491,-0.847544,29.5173
-238,533,-0.704163,-29.9534,0.00676599,-0.011059,0.00468603,0.00792283,-0.0122159,0.242029,0.0117148,0.0384294,986,491,-0.70416,29.9534
-231,533,-0.720154,-30.4445,0,0,0,0,0,0,0,-1,993,491,-0.720132,30.4445
-224,533,-0.770508,-30.9297,0,0,0,0,0,0,0,-1,1000,491,-0.770477,30.9297
-217,533,-0.925537,-31.2762,0,0,0,0,0,0,0,-1,1007,491,-0.92554,31.2762
-210,533,-0.50116,-31.619,0,0,0,0,0,0,0,-1,1014,491,-0.501169,31.619
-203,533,-0.292786,-31.1553,0,0,0,0,0,0,0,-1,1021,491,-0.29279,31.1553
-196,533,0.688354,-19.5743,0,0,0,0,0,0,0,-1,1028,491,0.688406,19.5743
-189,533,-0.169189,-15.0303,0,0,0,0,0,0,0,-1,1035,491,-0.169241,15.0303
-182,533,1.26123,-11.4969,0,0,0,0,0,0,0,-1,1042,491,1.26128,11.4969
-175,533,0.937744,-7.36966,0,0,0,0,0,0,0,-1,1049,491,0.937769,7.36965
-168,533,2.64807,-2.7543,0,0,0,0,0,0,0,-1,1056,491,2.64812,2.7543
-161,533,1.91833,-1.76553,0,0,0,0,0,0,0,-1,1063,491,1.91836,1.76554
-154,533,0.376709,-11.0633,0,0,0,0,0,0,0,-1,1070,491,0.376715,11.0632
-147,533,0.383789,-12.1586,0,0,0,0,0,0,0,-1,1077,491,0.383829,12.1586
-140,533,1.14001,-15.4608,0,0,0,0,0,0,0,-1,1084,491,1.14005,15.4608
-133,533,0.189941,-16.0795,0,0,0,0,0,0,0,-1,1091,491,0.18994,16.0795
-126,533,2.89612,-2.59003,0,0,0,0,0,0,0,-1,1098,491,2.89608,2.59003
-119,533,1.78284,-22.5394,0,0,0,0,0,0,0,-1,1105,491,1.78279,22.5394
-112,533,1.83862,-21.2401,0,0,0,0,0,0,0,-1,1112,491,1.83859,21.24
-105,533,1.67554,-19.4018,0,0,0,0,0,0,0,-1,1119,491,1.6755,19.4018
-98,533,-1.39392,-5.16367,0,0,0,0,0,0,0,-1,1126,491,-1.39394,5.16367
-91,533,0.367432,4.49753,0,0,0,0,0,0,0,-1,1133,491,0.367468,-4.49754
-84,533,-0.88623,3.03604,0,0,0,0,0,0,0,-1,1140,491,-0.886288,-3.03605
-77,533,0,0,0,0,0,0,0,0,0,-1,1147,491,0,0
-70,533,0,0,0,0,0,0,0,0,0,-1,1154,491,0,0
-63,533,0,0,0,0,0,0,0,0,0,-1,1161,491,0,0
-56,533,0,0,0,0,0,0,0,0,0,-1,1168,491,0,0
-49,533,0,0,0,0,0,0,0,0,0,-1,1175,491,0,0
-42,533,0,0,0,0,0,0,0,0,0,-1,1182,491,0,0
-35,533,0,0,0,0,0,0,0,0,0,-1,1189,491,0,0
-28,533,0,0,0,0,0,0,0,0,0,-1,1196,491,0,0
-21,533,0,0,0,0,0,0,0,0,0,-1,1203,491,0,0
-14,533,0,0,0,0,0,0,0,0,0,-1,1210,491,0,0
-7,533,0,0,0,0,0,0,0,0,0,-1,1217,491,0,0
0,533,0,0,0,0,0,0,0,0,0,-1,1224,491,0,0
7,533,0,0,0,0,0,0,0,0,0,-1,1231,491,0,0
14,533,0,0,0,0,0,0,0,0,0,-1,1238,491,0,0
21,533,0,0,0,0,0,0,0,0,0,-1,1245,491,0,0
28,533,0,0,0,0,0,0,0,0,0,-1,1252,491,0,0
35,533,0,0,0,0,0,0,0,0,0,-1,1259,491,0,0
42,533,0,0,0,0,0,0,0,0,0,-1,1266,491,0,0
49,533,0,0,0,0,0,0,0,0,0,-1,1273,491,0,0
56,533,0,0,0,0,0,0,0,0,0,-1,1280,491,0,0
63,533,0,0,0,0,0,0,0,0,0,-1,1287,491,0,0
70,533,0,0,0,0,0,0,0,0,0,-1,1294,491,0,0
77,533,0,0,0,0,0,0,0,0,0,-1,1301,491,0,0
84,533,0,0,0,0,0,0,0,0,0,-1,1308,491,0,0
91,533,0,0,0,0,0,0,0,0,0,-1,1315,491,0,0
98,533,0,0,0,0,0,0,0,0,0,-1,1322,491,0,0
105,533,0,0,0,0,0,0,0,0,0,-1,1329,491,0,0
112,533,0,0,0,0,0,0,0,0,0,-1,1336,491,0,0
119,533,0,0,0,0,0,0,0,0,0,-1,1343,491,0,0
126,533,0,0,0,0,0,0,0,0,0,-1,1350,491,0,0
133,533,0,0,0,0,0,0,0,0,0,-1,1357,491,0,0
140,533,0,0,0,0,0,0,0,0,0,-1,1364,491,0,0
147,533,0,0,0,0,0,0,0,0,0,-1,1371,491,0,0
154,533,0,0,0,0,0,0,0,0,0,-1,1378,491,0,0
161,533,0,0,0,0,0,0,0,0,0,-1,1385,491,0,0
168,533,0,0,0,0,0,0,0,0,0,-1,1392,491,0,0
175,533,0,0,0,0,0,0,0,0,0,-1,1399,491,0,0
182,533,0,0,0,0,0,0,0,0,0,-1,1406,491,0,0
189,533,0,0,0,0,0,0,0,0,0,-1,1413,491,0,0
196,533,0,0,0,0,0,0,0,0,0,-1,1420,491,0,0
203,533,3.7887,1.16193,0,0,0,0,0,0,0,-1,1427,491,3.78872,-1.16193
210,533,5.09558,-0.216034,0,0,0,0,0,0,0,-1,1434,491,5.09559,0.216028
217,533,6.91614,-2.46814,0,0,0,0,0,0,0,-1,1441,491,6.91618,2.46814
224,533,7.23621,-2.1857,0,0,0,0,0,0,0,-1,1448,491,7.23621,2.1857
231,533,7.23474,-1.92282,0,0,0,0,0,0,0,-1,1455,491,7.2347,1.92282
238,533,7.23535,-1.67258,0,0,0,0,0,0,0,-1,1462,491,7.23539,1.67258
245,533,6.86682,-1.2301,0,0,0,0,0,0,0,-1,1469,491,6.86686,1.23011
252,533,6.63354,-3.07825,0,0,0,0,0,0,0,-1,1476,491,6.6335,3.07824
259,533,6.16431,-2.35037,0,0,0,0,0,0,0,-1,1483,491,6.1643,2.35037
266,533,5.68884,-1.6214,0,0,0,0,0,0,0,-1,1490,491,5.68885,1.6214
273,533,5.21399,-0.864227,0,0,0,0,0,0,0,-1,1497,491,5.21403,0.864227
280,533,1.41089,-1.97946,0,0,0,0,0,0,0,-1,1504,491,1.41087,1.97946
287,533,1.6814,-2.44443,0,0,0,0,0,0,0,-1,1511,491,1.6814,2.44444
294,533,2.2384,-2.57626,0,0,0,0,0,0,0,-1,1518,491,2.23839,2.57625
301,533,3.39941,-4.0817,0,0,0,0,0,0,0,-1,1525,491,3.3994,4.08171
308,533,4.13733,-4.14752,0,0,0,0,0,0,0,-1,1532,491,4.13727,4.14752
315,533,4.80762,-5.29349,0,0,0,0,0,0,0,-1,1539,491,4.80762,5.29347
322,533,5.47803,-6.43942,0,0,0,0,0,0,0,-1,1546,491,5.47798,6.43943
329,533,3.88477,-3.86301,0,0,0,0,0,0,0,-1,1553,491,3.88475,3.86299
336,533,6.70923,-13.2003,0,0,0,0,0,0,0,-1,1560,491,6.70926,13.2004
343,533,7.06677,-17.1133,0,0,0,0,0,0,0,-1,1567,491,7.06673,17.1133
350,533,10.0876,-23.7254,0,0,0,0,0,0,0,-1,1574,491,10.0877,23.7254
357,533,11.7637,-29.3701,0,0,0,0,0,0,0,-1,1581,491,11.7637,29.3701
364,533,11.5374,-29.2191,0,0,0,0,0,0,0,-1,1588,491,11.5374,29.2191
371,533,11.5817,-28.7041,0,0,0,0,0,0,0,-1,1595,491,11.5816,28.7041
378,533,11.5726,-28.1416,0.000559036,-0.00370213,-0.0037064,0.00270359,-0.00584669,-0.524542,0.00504646,0.0312628,1602,491,11.5727,28.1416
385,533,11.6743,-27.6329,0.000612568,-0.00246403,-0.00288732,0.00234581,-0.00419727,-0.540636,0.00382773,0.0226736,1609,491,11.6743,27.6329
392,533,11.6636,-27.121,0.000492949,-0.00140726,-0.00225667,0.00199137,-0.00290568,-0.58615,0.00284369,0.0134985,1616,491,11.6636,27.121
399,533,11.6477,-26.5773,0.000324005,-0.000604628,-0.00180597,0.00172439,-0.00200501,-0.659573,0.0021552,0.0127755,1623,491,11.6477,26.5773
406,533,11.6355,-26.0209,0.000413559,0.000215285,-0.00121502,0.00153348,-0.000904639,-0.744692,0.00142317,0.0158061,1630,491,11.6356,26.0209
413,533,11.6385,-25.4277,0.000644477,0.00113588,-0.00045968,0.00141141,0.000368955,-1.03083,0.000845235,0.0139115,1637,491,11.6385,25.4277
420,533,11.6096,-24.8519,0.000810869,0.00175229,0.000184614,0.00178719,0.000775961,1.38391,0.00103481,0.0128898,1644,491,11.6096,24.8519
427,533,11.5841,-24.2477,0.000941909,0.00208537,0.000780356,0.00248102,0.000546255,1.10155,0.00150534,0.0127556,1651,491,11.5841,24.2477
434,533,11.5549,-23.6855,0.00101743,0.00221042,0.0014066,0.00314177,8.60733e-05,0.98594,0.00206642,0.0123,1658,491,11.5549,23.6855
441,533,11.5498,-23.1022,0.00109926,0.00205001,0.00203755,0.0036669,-0.00051763,0.900003,0.00263415,0.0156365,1665,491,11.5498,23.1022
448,533,11.55,-22.5368,0.00109828,0.00163186,0.00263509,0.00401364,-0.00128349,0.835849,0.00319083,0.0167738,1672,491,11.5501,22.5368
455,533,11.517,-21.9352,0.00108205,0.00110407,0.00324209,0.00433517,-0.00214905,0.787097,0.00381392,0.0159838,1679,491,11.517,21.9352
462,533,11.4591,-21.3024,0.00113336,0.000224787,0.00385065,0.00455643,-0.00319828,0.726681,0.00450001,0.0140098,1686,491,11.4591,21.3024
469,533,11.4449,-20.7106,0.00121755,-0.00110361,0.00450872,0.00471266,-0.00459873,0.659429,0.00537607,0.0100685,1693,491,11.4449,20.7106
476,533,11.4446,-20.0789,0.00131654,-0.00290898,0.00521661,0.004832,-0.00642444,0.592991,0.00652055,0.0120565,1700,491,11.4446,20.0789
483,533,11.4772,-19.4056,0.00152198,-0.00480419,0.00596808,0.00511338,-0.00839559,0.541719,0.00787577,0.018787,1707,491,11.4772,19.4056
490,533,11.6079,-18.8667,0.00194419,-0.00733274,0.00687937,0.00560278,-0.0109913,0.488779,0.00974754,0.0468366,1714,491,11.6079,18.8667
497,533,11.8071,-18.2843,0,0,0,0,0,0,0,-1,1721,491,11.8071,18.2843
504,533,11.6106,-17.3034,0,0,0,0,0,0,0,-1,1728,491,11.6106,17.3034
511,533,12.0623,-16.9182,0,0,0,0,0,0,0,-1,1735,491,12.0622,16.9182
518,533,12.3378,-16.9853,0,0,0,0,0,0,0,-1,1742,491,12.3378,16.9853
525,533,11.9587,-16.7913,0,0,0,0,0,0,0,-1,1749,491,11.9588,16.7913
532,533,11.285,-15.4504,0,0,0,0,0,0,0,-1,1756,491,11.285,15.4504
539,533,3.61609,1.62427,0,0,0,0,0,0,0,-1,1763,491,3.61606,-1.62426
546,533,3.59607,1.65799,0,0,0,0,0,0,0,-1,1770,491,3.59605,-1.658
553,533,0,0,0,0,0,0,0,0,0,-1,1777,491,0,0
560,533,0,0,0,0,0,0,0,0,0,-1,1784,491,0,0
567,533,0,0,0,0,0,0,0,0,0,-1,1791,491,0,0
574,533,0,0,0,0,0,0,0,0,0,-1,1798,491,0,0
581,533,0,0,0,0,0,0,0,0,0,-1,1805,491,0,0
588,533,0,0,0,0,0,0,0,0,0,-1,1812,491,0,0
595,533,0,0,0,0,0,0,0,0,0,-1,1819,491,0,0
602,533,0,0,0,0,0,0,0,0,0,-1,1826,491,0,0
609,533,0,0,0,0,0,0,0,0,0,-1,1833,491,0,0
616,533,0,0,0,0,0,0,0,0,0,-1,1840,491,0,0
623,533,0,0,0,0,0,0,0,0,0,-1,1847,491,0,0
630,533,0,0,0,0,0,0,0,0,0,-1,1854,491,0,0
637,533,0,0,0,0,0,0,0,0,0,-1,1861,491,0,0
644,533,0,0,0,0,0,0,0,0,0,-1,1868,491,0,0
651,533,0,0,0,0,0,0,0,0,0,-1,1875,491,0,0
658,533,0,0,0,0,0,0,0,0,0,-1,1882,491,0,0
665,533,0,0,0,0,0,0,0,0,0,-1,1889,491,0,0
672,533,0,0,0,0,0,0,0,0,0,-1,1896,491,0,0
679,533,0,0,0,0,0,0,0,0,0,-1,1903,491,0,0
686,533,0,0,0,0,0,0,0,0,0,-1,1910,491,0,0
693,533,0,0,0,0,0,0,0,0,0,-1,1917,491,0,0
700,533,0,0,0,0,0,0,0,0,0,-1,1924,491,0,0
707,533,0,0,0,0,0,0,0,0,0,-1,1931,491,0,0
714,533,0,0,0,0,0,0,0,0,0,-1,1938,491,0,0
721,533,0,0,0,0,0,0,0,0,0,-1,1945,491,0,0
728,533,0,0,0,0,0,0,0,0,0,-1,1952,491,0,0
735,533,0,0,0,0,0,0,0,0,0,-1,1959,491,0,0
742,533,0,0,0,0,0,0,0,0,0,-1,1966,491,0,0
749,533,0,0,0,0,0,0,0,0,0,-1,1973,491,0,0
756,533,0,0,0,0,0,0,0,0,0,-1,1980,491,0,0
763,533,0,0,0,0,0,0,0,0,0,-1,1987,491,0,0
770,533,0,0,0,0,0,0,0,0,0,-1,1994,491,0,0
777,533,0,0,0,0,0,0,0,0,0,-1,2001,491,0,0
784,533,0,0,0,0,0,0,0,0,0,-1,2008,491,0,0
791,533,0,0,0,0,0,0,0,0,0,-1,2015,491,0,0
798,533,0,0,0,0,0,0,0,0,0,-1,2022,491,0,0
805,533,0,0,0,0,0,0,0,0,0,-1,2029,491,0,0
812,533,0,0,0,0,0,0,0,0,0,-1,2036,491,0,0
-700,526,0,0,0,0,0,0,0,0,0,-1,524,498,0,0
-693,526,0,0,0,0,0,0,0,0,0,-1,531,498,0,0
-686,526,0,0,0,0,0,0,0,0,0,-1,538,498,0,0
-679,526,0,0,0,0,0,0,0,0,0,-1,545,498,0,0
-672,526,0,0,0,0,0,0,0,0,0,-1,552,498,0,0
-665,526,0,0,0,0,0,0,0,0,0,-1,559,498,0,0
-658,526,0,0,0,0,0,0,0,0,0,-1,566,498,0,0
-651,526,0,0,0,0,0,0,0,0,0,-1,573,498,0,0
-644,526,0,0,0,0,0,0,0,0,0,-1,580,498,0,0
-637,526,0,0,0,0,0,0,0,0,0,-1,587,498,0,0
-630,526,0,0,0,0,0,0,0,0,0,-1,594,498,0,0
-623,526,0,0,0,0,0,0,0,0,0,-1,601,498,0,0
-616,526,0,0,0,0,0,0,0,0,0,-1,608,498,0,0
-609,526,0,0,0,0,0,0,0,0,0,-1,615,498,0,0
-602,526,0,0,0,0,0,0,0,0,0,-1,622,498,0,0
-595,526,0,0,0,0,0,0,0,0,0,-1,629,498,0,0
-588,526,0,0,0,0,0,0,0,0,0,-1,636,498,0,0
-581,526,0,0,0,0,0,0,0,0,0,-1,643,498,0,0
-574,526,0,0,0,0,0,0,0,0,0,-1,650,498,0,0
-567,526,0,0,0,0,0,0,0,0,0,-1,657,498,0,0
-560,526,0,0,0,0,0,0,0,0,0,-1,664,498,0,0
-553,526,0,0,0,0,0,0,0,0,0,-1,671,498,0,0
-546,526,0,0,0,0,0,0,0,0,0,-1,678,498,0,0
-539,526,0,0,0,0,0,0,0,0,0,-1,685,498,0,0
-532,526,0,0,0,0,0,0,0,0,0,-1,692,498,0,0
-525,526,0,0,0,0,0,0,0,0,0,-1,699,498,0,0
-518,526,0,0,0,0,0,0,0,0,0,-1,706,498,0,0
-511,526,0,0,0,0,0,0,0,0,0,-1,713,498,0,0
-504,526,0,0,0,0,0,0,0,0,0,-1,720,498,0,0
-497,526,0,0,0,0,0,0,0,0,0,-1,727,498,0,0
-490,526,0,0,0,0,0,0,0,0,0,-1,734,498,0,0
-483,526,0,0,0,0,0,0,0,0,0,-1,741,498,0,0
-476,526,0,0,0,0,0,0,0,0,0,-1,748,498,0,0
-469,526,0,0,0,0,0,0,0,0,0,-1,755,498,0,0
-462,526,0,0,0,0,0,0,0,0,0,-1,762,498,0,0
-455,526,0,0,0,0,0,0,0,0,0,-1,769,498,0,0
-448,526,0,0,0,0,0,0,0,0,0,-1,776,498,0,0
-441,526,0,0,0,0,0,0,0,0,0,-1,783,498,0,0
-434,526,-0.153564,-5.96649,0,0,0,0,0,0,0,-1,790,498,-0.153589,5.9665
-427,526,1.23206,-4.59808,0,0,0,0,0,0,0,-1,797,498,1.23208,4.59809
-420,526,-1.76373,-11.6241,0,0,0,0,0,0,0,-1,804,498,-1.76373,11.6241
-413,526,-1.38965,-11.7916,0,0,0,0,0,0,0,-1,811,498,-1.38963,11.7916
-406,526,-1.35187,-12.5182,0,0,0,0,0,0,0,-1,818,498,-1.35185,12.5181
-399,526,-1.32715,-13.2116,0,0,0,0,0,0,0,-1,825,498,-1.32713,13.2116
-392,526,0.197571,-15.303,0,0,0,0,0,0,0,-1,832,498,0.197598,15.303
-385,526,-0.0447388,-16.5931,0,0,0,0,0,0,0,-1,839,498,-0.0447527,16.5932
-378,526,-0.525574,-17.8944,-0.00431826,0.0273998,-0.0115695,0.0311714,-0.00808986,-1.25566,0.0239376,0.0460466,846,498,-0.525565,17.8944
-371,526,-1.02948,-19.0643,-0.00341748,0.0220832,-0.00944849,0.0252025,-0.00653677,-1.25193,0.0193522,0.0379857,853,498,-1.02947,19.0643
-364,526,-1.07666,-19.8541,-0.00258037,0.0177,-0.00757715,0.0202183,-0.00509865,-1.24993,0.0154612,0.0204228,860,498,-1.07663,19.8541
-357,526,-1.06226,-20.5734,-0.00191236,0.0137701,-0.00608227,0.0158525,-0.00399478,-1.24093,0.0121214,0.0128534,867,498,-1.06223,20.5734
-350,526,-1.07507,-21.1877,-0.001472,0.0102866,-0.00464941,0.0119028,-0.00308825,-1.23624,0.00914024,0.0115246,874,498,-1.07505,21.1877
-343,526,-1.13879,-21.798,-0.0010073,0.00769804,-0.00360074,0.00899436,-0.00230362,-1.22523,0.00689363,0.016584,881,498,-1.13882,21.798
-336,526,-1.17328,-22.3989,-0.000552358,0.00563818,-0.00273925,0.00667621,-0.00159039,-1.20857,0.00506486,0.0167665,888,498,-1.1733,22.3989
-329,526,-1.17645,-22.9946,-0.000120655,0.00395758,-0.0020615,0.00481808,-0.000981152,-1.17537,0.00358415,0.0155964,895,498,-1.17643,22.9945
-322,526,-1.20508,-23.5492,0.000361316,0.0022909,-0.00149432,0.00310481,-0.0004526,-1.07205,0.00223606,0.010434,902,498,-1.20511,23.5492
-315,526,-1.23364,-24.1315,0.000745627,0.00130421,-0.0009564,0.00202127,2.85739e-05,-0.927461,0.00133809,0.00967433,909,498,-1.23364,24.1315
-308,526,-1.25848,-24.7186,0.00115132,0.000528049,-0.000599435,0.00151529,0.000164082,-0.545684,0.000960183,0.00912008,916,498,-1.25847,24.7186
-301,526,-1.30762,-25.2498,0.00159099,-0.000130497,-0.000333728,0.00165342,-0.00019293,-0.184938,0.0011719,0.0102645,923,498,-1.30759,25.2497
-294,526,-1.30975,-25.7826,0.00212955,-0.00067032,-4.10997e-05,0.00213016,-0.000670923,-0.0146749,0.00168877,0.0101716,930,498,-1.30975,25.7826
-287,526,-1.29053,-26.3438,0.00280006,-0.00120275,0.000206399,0.00281068,-0.00121337,0.0513819,0.00238352,0.010548,937,498,-1.29051,26.3438
-280,526,-1.31049,-26.8877,0.00334476,-0.00172959,0.000523436,0.00339819,-0.00178302,0.101726,0.00303944,0.0136222,944,498,-1.3105,26.8877
-273,526,-1.30988,-27.4276,0.00388042,-0.00235695,0.00093289,0.00401696,-0.00249348,0.145329,0.00379296,0.0115977,951,498,-1.30987,27.4276
-266,526,-1.31543,-27.9495,0.00463079,-0.00302391,0.00151312,0.00491904,-0.00331216,0.188243,0.00478238,0.0135916,958,498,-1.31541,27.9495
-259,526,-1.24933,-28.4606,0.00561533,-0.00392709,0.00222572,0.00610894,-0.0044207,0.218241,0.00610528,0.0329385,965,498,-1.24935,28.4606
-252,526,-1.23761,-29.0449,0,0,0,0,0,0,0,-1,972,498,-1.2376,29.0449
-245,526,-1.32495,-29.582,0,0,0,0,0,0,0,-1,979,498,-1.32492,29.582
-238,526,-1.17535,-30.0019,0,0,0,0,0,0,0,-1,986,498,-1.17536,30.0019
-231,526,-0.640015,-29.5688,0,0,0,0,0,0,0,-1,993,498,-0.639988,29.5689
-224,526,-1.4339,-31.2747,0,0,0,0,0,0,0,-1,1000,498,-1.43393,31.2747
-217,526,-1.41388,-31.5277,0,0,0,0,0,0,0,-1,1007,498,-1.4139,31.5277
-210,526,-1.39386,-31.7806,0,0,0,0,0,0,0,-1,1014,498,-1.39387,31.7806
-203,526,-0.659302,-18.8818,0,0,0,0,0,0,0,-1,1021,498,-0.659273,18.8818
-196,526,-0.328247,-12.179,0,0,0,0,0,0,0,-1,1028,498,-0.328238,12.179
-189,526,0.401245,-5.96826,0,0,0,0,0,0,0,-1,1035,498,0.401197,5.96826
-182,526,1.7323,-2.99405,0,0,0,0,0,0,0,-1,1042,498,1.73226,2.99404
-175,526,2.27637,-2.07983,0,0,0,0,0,0,0,-1,1049,498,2.27639,2.07984
-168,526,2.12036,-1.66049,0,0,0,0,0,0,0,-1,1056,498,2.12035,1.66048
-161,526,2.09082,-1.20572,0,0,0,0,0,0,0,-1,1063,498,2.09086,1.2057
-154,526,-1.3446,-5.37799,0,0,0,0,0,0,0,-1,1070,498,-1.34457,5.37799
-147,526,-0.472656,-6.64996,0,0,0,0,0,0,0,-1,1077,498,-0.472659,6.64997
-140,526,0.422852,-8.03339,0,0,0,0,0,0,0,-1,1084,498,0.422844,8.0334
-133,526,1.09583,-9.2215,0,0,0,0,0,0,0,-1,1091,498,1.09581,9.2215
-126,526,3.42529,-2.36053,0,0,0,0,0,0,0,-1,1098,498,3.42523,2.36052
-119,526,2.7771,-0.764099,0,0,0,0,0,0,0,-1,1105,498,2.7771,0.764107
-112,526,2.57715,-1.1893,0,0,0,0,0,0,0,-1,1112,498,2.57718,1.1893
-105,526,0,0,0,0,0,0,0,0,0,-1,1119,498,0,0
-98,526,0,0,0,0,0,0,0,0,0,-1,1126,498,0,0
-91,526,0,0,0,0,0,0,0,0,0,-1,1133,498,0,0
-84,526,0,0,0,0,0,0,0,0,0,-1,1140,498,0,0
-77,526,0,0,0,0,0,0,0,0,0,-1,1147,498,0,0
-70,526,0,0,0,0,0,0,0,0,0,-1,1154,498,0,0
-63,526,0,0,0,0,0,0,0,0,0,-1,1161,498,0,0
-56,526,0,0,0,0,0,0,0,0,0,-1,1168,498,0,0
-49,526,0,0,0,0,0,0,0,0,0,-1,1175,498,0,0
-42,526,0,0,0,0,0,0,0,0,0,-1,1182,498,0,0
-35,526,0,0,0,0,0,0,0,0,0,-1,1189,498,0,0
-28,526,0,0,0,0,0,0,0,0,0,-1,1196,498,0,0
-21,526,0,0,0,0,0,0,0,0,0,-1,1203,498,0,0
-14,526,0,0,0,0,0,0,0,0,0,-1,1210,498,0,0
-7,526,0,0,0,0,0,0,0,0,0,-1,1217,498,0,0
0,526,0,0,0,0,0,0,0,0,0,-1,1224,498,0,0
7,526,0,0,0,0,0,0,0,0,0,-1,1231,498,0,0
14,526,0,0,0,0,0,0,0,0,0,-1,1238,498,0,0
21,526,0,0,0,0,0,0,0,0,0,-1,1245,498,0,0
28,526,0,0,0,0,0,0,0,0,0,-1,1252,498,0,0
35,526,0,0,0,0,0,0,0,0,0,-1,1259,498,0,0
42,526,0,0,0,0,0,0,0,0,0,-1,1266,498,0,0
49,526,0,0,0,0,0,0,0,0,0,-1,1273,498,0,0
56,526,0,0,0,0,0,0,0,0,0,-1,1280,498,0,0
63,526,0,0,0,0,0,0,0,0,0,-1,1287,498,0,0
70,526,0,0,0,0,0,0,0,0,0,-1,1294,498,0,0
77,526,0,0,0,0,0,0,0,0,0,-1,1301,498,0,0
84,526,0,0,0,0,0,0,0,0,0,-1,1308,498,0,0
91,526,0,0,0,0,0,0,0,0,0,-1,1315,498,0,0
98,526,0,0,0,0,0,0,0,0,0,-1,1322,498,0,0
105,526,0,0,0,0,0,0,0,0,0,-1,1329,498,0,0
112,526,0,0,0,0,0,0,0,0,0,-1,1336,498,0,0
119,526,0,0,0,0,0,0,0,0,0,-1,1343,498,0,0
126,526,0,0,0,0,0,0,0,0,0,-1,1350,498,0,0
133,526,0,0,0,0,0,0,0,0,0,-1,1357,498,0,0
140,526,0,0,0,0,0,0,0,0,0,-1,1364,498,0,0
147,526,0,0,0,0,0,0,0,0,0,-1,1371,498,0,0
154,526,0,0,0,0,0,0,0,0,0,-1,1378,498,0,0
161,526,0,0,0,0,0,0,0,0,0,-1,1385,498,0,0
168,526,0,0,0,0,0,0,0,0,0,-1,1392,498,0,0
175,526,0,0,0,0,0,0,0,0,0,-1,1399,498,0,0
182,526,0,0,0,0,0,0,0,0,0,-1,1406,498,0,0
189,526,0,0,0,0,0,0,0,0,0,-1,1413,498,0,0
196,526,0,0,0,0,0,0,0,0,0,-1,1420,498,0,0
203,526,0,0,0,0,0,0,0,0,0,-1,1427,498,0,0
210,526,0,0,0,0,0,0,0,0,0,-1,1434,498,0,0
217,526,0,0,0,0,0,0,0,0,0,-1,1441,498,0,0
224,526,0,0,0,0,0,0,0,0,0,-1,1448,498,0,0
231,526,7.93237,-1.30618,0,0,0,0,0,0,0,-1,1455,498,7.93238,1.30618
238,526,7.97717,-1.08197,0,0,0,0,0,0,0,-1,1462,498,7.97723,1.08196
245,526,7.2793,-0.792938,0,0,0,0,0,0,0,-1,1469,498,7.27931,0.792926
252,526,6.73523,-2.23608,0,0,0,0,0,0,0,-1,1476,498,6.73525,2.23608
259,526,6.22949,-1.84967,0,0,0,0,0,0,0,-1,1483,498,6.22953,1.84968
266,526,5.72375,-1.46329,0,0,0,0,0,0,0,-1,1490,498,5.72381,1.46328
273,526,4.33984,0.49173,0,0,0,0,0,0,0,-1,1497,498,4.33979,-0.491727
280,526,1.4585,-1.59897,0,0,0,0,0,0,0,-1,1504,498,1.45846,1.59895
287,526,1.46411,-2.40134,0,0,0,0,0,0,0,-1,1511,498,1.46406,2.40133
294,526,5.57471,-4.59085,0,0,0,0,0,0,0,-1,1518,498,5.57466,4.59084
301,526,4.42786,-3.99677,0,0,0,0,0,0,0,-1,1525,498,4.42788,3.99676
308,526,5.79529,-4.19366,0,0,0,0,0,0,0,-1,1532,498,5.79528,4.19368
315,526,5.09851,-5.20068,0,0,0,0,0,0,0,-1,1539,498,5.09851,5.20068
322,526,5.50708,-4.72348,0,0,0,0,0,0,0,-1,1546,498,5.50713,4.72347
329,526,3.88672,-4.345,0,0,0,0,0,0,0,-1,1553,498,3.88674,4.34501
336,526,4.97876,-2.23828,0,0,0,0,0,0,0,-1,1560,498,4.97877,2.23828
343,526,3.31665,-2.69696,0,0,0,0,0,0,0,-1,1567,498,3.31667,2.69696
350,526,6.06287,-6.12015,0,0,0,0,0,0,0,-1,1574,498,6.06286,6.12014
357,526,12.9944,-29.1665,0,0,0,0,0,0,0,-1,1581,498,12.9943,29.1665
364,526,12.6671,-28.4702,0,0,0,0,0,0,0,-1,1588,498,12.6671,28.4702
371,526,12.201,-28.4785,0,0,0,0,0,0,0,-1,1595,498,12.201,28.4785
378,526,11.9819,-28.3802,0,0,0,0,0,0,0,-1,1602,498,11.9819,28.3802
385,526,12.1881,-27.6935,0,0,0,0,0,0,0,-1,1609,498,12.1881,27.6935
392,526,12.3066,-27.1195,0.000249739,-0.00144751,-0.00292615,0.00244783,-0.00364561,-0.644263,0.00354063,0.0369846,1616,498,12.3067,27.1195
399,526,12.2057,-26.565,4.24226e-06,-0.000620625,-0.00250074,0.00221199,-0.00282837,-0.723252,0.0029173,0.0210712,1623,498,12.2057,26.565
406,526,12.2303,-25.9826,0.000161483,0.000127342,-0.00190581,0.0020503,-0.00176148,-0.78092,0.00220283,0.012973,1630,498,12.2304,25.9826
413,526,12.2006,-25.4323,0.000505298,0.000984449,-0.00110686,0.00187737,-0.000387619,-0.891977,0.0013988,0.0124484,1637,498,12.2006,25.4323
420,526,12.1633,-24.8465,0.000734242,0.00164304,-0.000434283,0.00181719,0.000560087,-1.18941,0.00107458,0.0128768,1644,498,12.1634,24.8465
427,526,12.1619,-24.2502,0.000937393,0.00200424,0.000151886,0.00202545,0.00091619,1.4321,0.00117116,0.0124898,1651,498,12.1618,24.2502
434,526,12.1398,-23.6692,0.00106008,0.00216868,0.00067419,0.00248718,0.000741582,1.12945,0.00147446,0.0111826,1658,498,12.1398,23.6692
441,526,12.1147,-23.0765,0.00117614,0.00207455,0.00124989,0.0029535,0.000297186,0.957909,0.0018778,0.0113584,1665,498,12.1147,23.0765
448,526,12.1091,-22.4949,0.00125294,0.00176301,0.0017868,0.00331289,-0.000296933,0.856286,0.00231393,0.0109924,1672,498,12.1092,22.495
455,526,12.0812,-21.9248,0.00132153,0.00143552,0.00234154,0.00372076,-0.000963707,0.797566,0.00285645,0.0136608,1679,498,12.0812,21.9248
462,526,12.0596,-21.3084,0.00143198,0.000777512,0.00286309,0.00398648,-0.00177698,0.728498,0.00340807,0.00999211,1686,498,12.0596,21.3084
469,526,12.0524,-20.7099,0.00156412,-0.000256283,0.00341541,0.00418853,-0.0028807,0.655176,0.00410464,0.00774961,1693,498,12.0524,20.7099
476,526,12.0322,-20.0952,0.00169781,-0.0017201,0.00400887,0.00434678,-0.00436908,0.583915,0.00503211,0.00966981,1700,498,12.0322,20.0952
483,526,12.0277,-19.4121,0.00191069,-0.00322833,0.00461449,0.00462284,-0.00594048,0.53136,0.00611453,0.0120955,1707,498,12.0278,19.4121
490,526,12.074,-18.6921,0.00227552,-0.00520459,0.00533233,0.00504866,-0.00797773,0.479568,0.0075839,0.0273945,1714,498,12.074,18.6921
497,526,11.9952,-18.2643,0.00274008,-0.00758301,0.0060604,0.00553906,-0.010382,0.432663,0.0093327,0.0350835,1721,498,11.9953,18.2643
504,526,11.9752,-17.5619,0.00324155,-0.0105666,0.00665786,0.00592879,-0.0132538,0.383623,0.011341,0.0358531,1728,498,11.9753,17.5619
511,526,12.2875,-16.9958,0.00411462,-0.0142928,0.00734902,0.0066887,-0.0168669,0.336908,0.0140166,0.047067,1735,498,12.2874,16.9959
518,526,12.4966,-16.6696,0.00508443,-0.0188192,0.00809453,0.00756755,-0.0213023,0.297652,0.0172853,0.0472103,1742,498,12.4966,16.6696
525,526,12.4858,-16.2892,0.00589885,-0.0236287,0.00881065,0.008328,-0.0260579,0.269022,0.0207137,0.0478302,1749,498,12.4858,16.2892
532,526,12.3767,-15.7078,0,0,0,0,0,0,0,-1,1756,498,12.3768,15.7077
539,526,10.9778,-15.113,0,0,0,0,0,0,0,-1,1763,498,10.9778,15.1131
546,526,3.36731,1.07721,0,0,0,0,0,0,0,-1,1770,498,3.36735,-1.07719
553,526,3.40796,1.37137,0,0,0,0,0,0,0,-1,1777,498,3.40792,-1.37138
560,526,0,0,0,0,0,0,0,0,0,-1,1784,498,0,0
567,526,0,0,0,0,0,0,0,0,0,-1,1791,498,0,0
574,526,0,0,0,0,0,0,0,0,0,-1,1798,498,0,0
581,526,0,0,0,0,0,0,0,0,0,-1,1805,498,0,0
588,526,0,0,0,0,0,0,0,0,0,-1,1812,498,0,0
595,526,0,0,0,0,0,0,0,0,0,-1,1819,498,0,0
602,526,0,0,0,0,0,0,0,0,0,-1,1826,498,0,0
609,526,0,0,0,0,0,0,0,0,0,-1,1833,498,0,0
616,526,0,0,0,0,0,0,0,0,0,-1,1840,498,0,0
623,526,0,0,0,0,0,0,0,0,0,-1,1847,498,0,0
630,526,0,0,0,0,0,0,0,0,0,-1,1854,498,0,0
637,526,0,0,0,0,0,0,0,0,0,-1,1861,498,0,0
644,526,0,0,0,0,0,0,0,0,0,-1,1868,498,0,0
651,526,0,0,0,0,0,0,0,0,0,-1,1875,498,0,0
658,526,0,0,0,0,0,0,0,0,0,-1,1882,498,0,0
665,526,0,0,0,0,0,0,0,0,0,-1,1889,498,0,0
672,526,0,0,0,0,0,0,0,0,0,-1,1896,498,0,0
679,526,0,0,0,0,0,0,0,0,0,-1,1903,498,0,0
686,526,0,0,0,0,0,0,0,0,0,-1,1910,498,0,0
693,526,0,0,0,0,0,0,0,0,0,-1,1917,498,0,0
700,526,0,0,0,0,0,0,0,0,0,-1,1924,498,0,0
707,526,0,0,0,0,0,0,0,0,0,-1,1931,498,0,0
714,526,0,0,0,0,0,0,0,0,0,-1,1938,498,0,0
721,526,0,0,0,0,0,0,0,0,0,-1,1945,498,0,0
728,526,0,0,0,0,0,0,0,0,0,-1,1952,498,0,0
735,526,0,0,0,0,0,0,0,0,0,-1,1959,498,0,0
742,526,0,0,0,0,0,0,0,0,0,-1,1966,498,0,0
749,526,0,0,0,0,0,0,0,0,0,-1,1973,498,0,0
756,526,0,0,0,0,0,0,0,0,0,-1,1980,498,0,0
763,526,0,0,0,0,0,0,0,0,0,-1,1987,498,0,0
770,526,0,0,0,0,0,0,0,0,0,-1,1994,498,0,0
777,526,0,0,0,0,0,0,0,0,0,-1,2001,498,0,0
784,526,0,0,0,0,0,0,0,0,0,-1,2008,498,0,0
791,526,0,0,0,0,0,0,0,0,0,-1,2015,498,0,0
798,526,0,0,0,0,0,0,0,0,0,-1,2022,498,0,0
805,526,0,0,0,0,0,0,0,0,0,-1,2029,498,0,0
812,526,0,0,0,0,0,0,0,0,0,-1,2036,498,0,0
-700,519,0,0,0,0,0,0,0,0,0,-1,524,505,0,0
-693,519,0,0,0,0,0,0,0,0,0,-1,531,505,0,0
-686,519,0,0,0,0,0,0,0,0,0,-1,538,505,0,0
-679,519,0,0,0,0,0,0,0,0,0,-1,545,505,0,0
-672,519,0,0,0,0,0,0,0,0,0,-1,552,505,0,0
-665,519,0,0,0,0,0,0,0,0,0,-1,559,505,0,0
-658,519,0,0,0,0,0,0,0,0,0,-1,566,505,0,0
-651,519,0,0,0,0,0,0,0,0,0,-1,573,505,0,0
-644,519,0,0,0,0,0,0,0,0,0,-1,580,505,0,0
-637,519,0,0,0,0,0,0,0,0,0,-1,587,505,0,0
-630,519,0,0,0,0,0,0,0,0,0,-1,594,505,0,0
-623,519,0,0,0,0,0,0,0,0,0,-1,601,505,0,0
-616,519,0,0,0,0,0,0,0,0,0,-1,608,505,0,0
-609,519,0,0,0,0,0,0,0,0,0,-1,615,505,0,0
-602,519,0,0,0,0,0,0,0,0,0,-1,622,505,0,0
-595,519,0,0,0,0,0,0,0,0,0,-1,629,505,0,0
-588,519,0,0,0,0,0,0,0,0,0,-1,636,505,0,0
-581,519,0,0,0,0,0,0,0,0,0,-1,643,505,0,0
-574,519,0,0,0,0,0,0,0,0,0,-1,650,505,0,0
-567,519,0,0,0,0,0,0,0,0,0,-1,657,505,0,0
-560,519,0,0,0,0,0,0,0,0,0,-1,664,505,0,0
-553,519,0,0,0,0,0,0,0,0,0,-1,671,505,0,0
-546,519,0,0,0,0,0,0,0,0,0,-1,678,505,0,0
-539,519,0,0,0,0,0,0,0,0,0,-1,685,505,0,0
-532,519,0,0,0,0,0,0,0,0,0,-1,692,505,0,0
-525,519,0,0,0,0,0,0,0,0,0,-1,699,505,0,0
-518,519,0,0,0,0,0,0,0,0,0,-1,706,505,0,0
-511,519,0,0,0,0,0,0,0,0,0,-1,713,505,0,0
-504,519,0,0,0,0,0,0,0,0,0,-1,720,505,0,0
-497,519,0,0,0,0,0,0,0,0,0,-1,727,505,0,0
-490,519,0,0,0,0,0,0,0,0,0,-1,734,505,0,0
-483,519,0,0,0,0,0,0,0,0,0,-1,741,505,0,0
-476,519,0,0,0,0,0,0,0,0,0,-1,748,505,0,0
-469,519,0,0,0,0,0,0,0,0,0,-1,755,505,0,0
-462,519,0,0,0,0,0,0,0,0,0,-1,762,505,0,0
-455,519,0,0,0,0,0,0,0,0,0,-1,769,505,0,0
-448,519,0,0,0,0,0,0,0,0,0,-1,776,505,0,0
-441,519,1.34839,-5.29346,0,0,0,0,0,0,0,-1,783,505,1.3484,5.29347
-434,519,0.949585,-5.77313,0,0,0,0,0,0,0,-1,790,505,0.949598,5.77315
-427,519,-0.0523682,-9.31567,0,0,0,0,0,0,0,-1,797,505,-0.0523854,9.31568
-420,519,-2.38867,-12.1938,0,0,0,0,0,0,0,-1,804,505,-2.38867,12.1938
-413,519,-2.2298,-12.4998,0,0,0,0,0,0,0,-1,811,505,-2.22979,12.4998
-406,519,-1.44373,-12.3475,0,0,0,0,0,0,0,-1,818,505,-1.44376,12.3475
-399,519,-1.60516,-15.0849,0,0,0,0,0,0,0,-1,825,505,-1.60518,15.0849
-392,519,-1.23792,-17.2573,0,0,0,0,0,0,0,-1,832,505,-1.23792,17.2573
-385,519,-1.72858,-17.6202,0,0,0,0,0,0,0,-1,839,505,-1.7286,17.6202
-378,519,-1.66315,-18.3646,-0.00301037,0.022271,-0.00978394,0.0256151,-0.00635444,-1.24145,0.0195423,0.0333652,846,505,-1.66317,18.3646
-371,519,-1.61206,-19.1642,-0.00236208,0.0179191,-0.00801916,0.0207067,-0.0051497,-1.23624,0.0158032,0.0190619,853,505,-1.61208,19.1643
-364,519,-1.62543,-19.923,-0.00171613,0.0142087,-0.00642276,0.0164762,-0.00398367,-1.23141,0.012525,0.0113838,860,505,-1.62545,19.923
-357,519,-1.63416,-20.5909,-0.00119453,0.010997,-0.00509735,0.0128474,-0.00304492,-1.22258,0.00973988,0.0100947,867,505,-1.63418,20.5909
-350,519,-1.64105,-21.1988,-0.000804561,0.00803255,-0.00383977,0.00946784,-0.00223985,-1.21308,0.00717599,0.0121547,874,505,-1.64103,21.1988
-343,519,-1.70697,-21.7615,-0.000367791,0.00580546,-0.00289585,0.00695123,-0.00151357,-1.19404,0.00521245,0.0170802,881,505,-1.707,21.7615
-336,519,-1.75977,-22.3503,7.24892e-05,0.00399699,-0.0021132,0.00491849,-0.000849012,-1.15959,0.00359557,0.0166516,888,505,-1.75974,22.3503
-329,519,-1.76312,-22.9452,0.000519822,0.00251601,-0.00152049,0.00333673,-0.000300894,-1.07584,0.00233127,0.0138743,895,505,-1.76313,22.9452
-322,519,-1.76965,-23.5328,0.000986932,0.00109427,-0.00101411,0.00205614,2.50682e-05,-0.811835,0.00136248,0.0117156,902,505,-1.76967,23.5328
-315,519,-1.78607,-24.1215,0.00141488,0.000192925,-0.000551143,0.00162673,-1.8929e-05,-0.366978,0.00109085,0.00975826,909,505,-1.78608,24.1214
-308,519,-1.81989,-24.7133,0.00192346,-0.000530068,-0.00025411,0.0019495,-0.000556109,-0.102125,0.00151935,0.00822802,916,505,-1.81991,24.7133
-301,519,-1.8551,-25.2372,0.00248061,-0.00110765,-4.50867e-05,0.00248118,-0.00110822,-0.0125624,0.00212227,0.0120824,923,505,-1.85512,25.2372
-294,519,-1.85791,-25.7325,0.00311738,-0.00155214,0.000183195,0.00312456,-0.00155932,0.0391518,0.00275411,0.0149843,930,505,-1.85794,25.7325
-287,519,-1.86786,-26.3019,0.00389847,-0.00208117,0.000347014,0.00391854,-0.00210124,0.0577741,0.00352792,0.0116532,937,505,-1.86786,26.3019
-280,519,-1.88489,-26.8733,0.00458192,-0.00263142,0.000638586,0.00463802,-0.00268752,0.0876204,0.00427908,0.0188836,944,505,-1.88488,26.8733
-273,519,-1.84869,-27.4232,0.00527962,-0.00328825,0.00101522,0.00539827,-0.00340691,0.116345,0.00512682,0.0358254,951,505,-1.84867,27.4231
-266,519,-1.8692,-27.9869,0,0,0,0,0,0,0,-1,958,505,-1.86923,27.9869
-259,519,-1.71021,-28.5783,0,0,0,0,0,0,0,-1,965,505,-1.71019,28.5783
-252,519,-1.84009,-26.8372,0,0,0,0,0,0,0,-1,972,505,-1.8401,26.8372
-245,519,-1.23254,-23.2696,0,0,0,0,0,0,0,-1,979,505,-1.23256,23.2696
-238,519,-1.06903,-23.1753,0,0,0,0,0,0,0,-1,986,505,-1.06904,23.1753
-231,519,0.337585,-11.2798,0,0,0,0,0,0,0,-1,993,505,0.337568,11.2798
-224,519,-0.0494995,-7.97394,0,0,0,0,0,0,0,-1,1000,505,-0.0495123,7.97392
-217,519,-1.80774,-31.742,0,0,0,0,0,0,0,-1,1007,505,-1.80775,31.742
-210,519,-2.14398,-4.74774,0,0,0,0,0,0,0,-1,1014,505,-2.14397,4.74775
-203,519,-0.513611,-5.39017,0,0,0,0,0,0,0,-1,1021,505,-0.513585,5.39017
-196,519,-0.374023,-5.41635,0,0,0,0,0,0,0,-1,1028,505,-0.374047,5.41635
-189,519,-0.234497,-5.44254,0,0,0,0,0,0,0,-1,1035,505,-0.234508,5.44253
-182,519,2.76697,-1.19659,0,0,0,0,0,0,0,-1,1042,505,2.76696,1.19661
-175,519,2.31323,-0.960938,0,0,0,0,0,0,0,-1,1049,505,2.31319,0.960941
-168,519,2.01074,-0.721405,0,0,0,0,0,0,0,-1,1056,505,2.01072,0.721407
-161,519,2.32056,-0.522339,0,0,0,0,0,0,0,-1,1063,505,2.32057,0.522328
-154,519,2.55566,0.116669,0,0,0,0,0,0,0,-1,1070,505,2.55563,-0.116661
-147,519,-0.55127,-6.14001,0,0,0,0,0,0,0,-1,1077,505,-0.551252,6.14001
-140,519,0.240601,-7.53503,0,0,0,0,0,0,0,-1,1084,505,0.240653,7.53501
-133,519,2.70911,-4.4516,0,0,0,0,0,0,0,-1,1091,505,2.70915,4.45161
-126,519,0,0,0,0,0,0,0,0,0,-1,1098,505,0,0
-119,519,0,0,0,0,0,0,0,0,0,-1,1105,505,0,0
-112,519,0,0,0,0,0,0,0,0,0,-1,1112,505,0,0
-105,519,0,0,0,0,0,0,0,0,0,-1,1119,505,0,0
-98,519,0,0,0,0,0,0,0,0,0,-1,1126,505,0,0
-91,519,0,0,0,0,0,0,0,0,0,-1,1133,505,0,0
-84,519,0,0,0,0,0,0,0,0,0,-1,1140,505,0,0
-77,519,0,0,0,0,0,0,0,0,0,-1,1147,505,0,0
-70,519,0,0,0,0,0,0,0,0,0,-1,1154,505,0,0
-63,519,0,0,0,0,0,0,0,0,0,-1,1161,505,0,0
-56,519,0,0,0,0,0,0,0,0,0,-1,1168,505,0,0
-49,519,0,0,0,0,0,0,0,0,0,-1,1175,505,0,0
-42,519,0,0,0,0,0,0,0,0,0,-1,1182,505,0,0
-35,519,0,0,0,0,0,0,0,0,0,-1,1189,505,0,0
-28,519,0,0,0,0,0,0,0,0,0,-1,1196,505,0,0
-21,519,0,0,0,0,0,0,0,0,0,-1,1203,505,0,0
-14,519,0,0,0,0,0,0,0,0,0,-1,1210,505,0,0
-7,519,0,0,0,0,0,0,0,0,0,-1,1217,505,0,0
0,519,0,0,0,0,0,0,0,0,0,-1,1224,505,0,0
7,519,0,0,0,0,0,0,0,0,0,-1,1231,505,0,0
14,519,0,0,0,0,0,0,0,0,0,-1,1238,505,0,0
21,519,0,0,0,0,0,0,0,0,0,-1,1245,505,0,0
28,519,0,0,0,0,0,0,0,0,0,-1,1252,505,0,0
35,519,0,0,0,0,0,0,0,0,0,-1,1259,505,0,0
42,519,0,0,0,0,0,0,0,0,0,-1,1266,505,0,0
49,519,0,0,0,0,0,0,0,0,0,-1,1273,505,0,0
56,519,0,0,0,0,0,0,0,0,0,-1,1280,505,0,0
63,519,0,0,0,0,0,0,0,0,0,-1,1287,505,0,0
70,519,0,0,0,0,0,0,0,0,0,-1,1294,505,0,0
77,519,0,0,0,0,0,0,0,0,0,-1,1301,505,0,0
84,519,0,0,0,0,0,0,0,0,0,-1,1308,505,0,0
91,519,0,0,0,0,0,0,0,0,0,-1,1315,505,0,0
98,519,0,0,0,0,0,0,0,0,0,-1,1322,505,0,0
105,519,0,0,0,0,0,0,0,0,0,-1,1329,505,0,0
112,519,0,0,0,0,0,0,0,0,0,-1,1336,505,0,0
119,519,0,0,0,0,0,0,0,0,0,-1,1343,505,0,0
126,519,0,0,0,0,0,0,0,0,0,-1,1350,505,0,0
133,519,0,0,0,0,0,0,0,0,0,-1,1357,505,0,0
140,519,0,0,0,0,0,0,0,0,0,-1,1364,505,0,0
147,519,0,0,0,0,0,0,0,0,0,-1,1371,505,0,0
154,519,0,0,0,0,0,0,0,0,0,-1,1378,505,0,0
161,519,0,0,0,0,0,0,0,0,0,-1,1385,505,0,0
168,519,0,0,0,0,0,0,0,0,0,-1,1392,505,0,0
175,519,0,0,0,0,0,0,0,0,0,-1,1399,505,0,0
182,519,0,0,0,0,0,0,0,0,0,-1,1406,505,0,0
189,519,0,0,0,0,0,0,0,0,0,-1,1413,505,0,0
196,519,0,0,0,0,0,0,0,0,0,-1,1420,505,0,0
203,519,0,0,0,0,0,0,0,0,0,-1,1427,505,0,0
210,519,0,0,0,0,0,0,0,0,0,-1,1434,505,0,0
217,519,0,0,0,0,0,0,0,0,0,-1,1441,505,0,0
224,519,0,0,0,0,0,0,0,0,0,-1,1448,505,0,0
231,519,0,0,0,0,0,0,0,0,0,-1,1455,505,0,0
238,519,0,0,0,0,0,0,0,0,0,-1,1462,505,0,0
245,519,0,0,0,0,0,0,0,0,0,-1,1469,505,0,0
252,519,5.26208,0.0938416,0,0,0,0,0,0,0,-1,1476,505,5.26207,-0.0938493
259,519,6.14246,-1.36441,0,0,0,0,0,0,0,-1,1483,505,6.14241,1.36441
266,519,5.31909,-0.400787,0,0,0,0,0,0,0,-1,1490,505,5.31912,0.400773
273,519,4.02393,0.325531,0,0,0,0,0,0,0,-1,1497,505,4.0239,-0.325522
280,519,4.68848,0.53006,0,0,0,0,0,0,0,-1,1504,505,4.68842,-0.530073
287,519,7.9519,-3.80801,0,0,0,0,0,0,0,-1,1511,505,7.95193,3.808
294,519,6.92273,-3.38889,0,0,0,0,0,0,0,-1,1518,505,6.92268,3.38888
301,519,5.35669,-2.92661,0,0,0,0,0,0,0,-1,1525,505,5.35675,2.9266
308,519,7.37549,-5.64529,0,0,0,0,0,0,0,-1,1532,505,7.3755,5.64529
315,519,6.30029,-4.53754,0,0,0,0,0,0,0,-1,1539,505,6.30024,4.53753
322,519,5.84302,-5.45117,0,0,0,0,0,0,0,-1,1546,505,5.84303,5.45116
329,519,4.92407,0.62384,0,0,0,0,0,0,0,-1,1553,505,4.92403,-0.623832
336,519,3.10095,-0.329285,0,0,0,0,0,0,0,-1,1560,505,3.1009,0.329283
343,519,2.49146,-2.31119,0,0,0,0,0,0,0,-1,1567,505,2.49145,2.31119
350,519,3.47729,-2.22516,0,0,0,0,0,0,0,-1,1574,505,3.47726,2.22515
357,519,13.271,-29.6344,0,0,0,0,0,0,0,-1,1581,505,13.271,29.6344
364,519,12.8292,-28.3627,0,0,0,0,0,0,0,-1,1588,505,12.8292,28.3627
371,519,12.3875,-27.0911,0,0,0,0,0,0,0,-1,1595,505,12.3874,27.091
378,519,6.36597,-10.0967,0,0,0,0,0,0,0,-1,1602,505,6.36597,10.0967
385,519,6.24756,-9.72186,0,0,0,0,0,0,0,-1,1609,505,6.24752,9.72183
392,519,13.0638,-26.6708,0,0,0,0,0,0,0,-1,1616,505,13.0639,26.6708
399,519,12.9324,-26.3518,-0.00051135,-0.000424708,-0.00335268,0.00288493,-0.00382098,-0.791858,0.00388421,0.049549,1623,505,12.9324,26.3518
406,519,12.8077,-25.9952,-0.000173857,0.000343076,-0.00264235,0.00273957,-0.00257035,-0.834152,0.0030662,0.0337972,1630,505,12.8078,25.9952
413,519,12.8142,-25.4143,0.000367,0.00118897,-0.00170571,0.0025325,-0.000976537,-0.903618,0.00209128,0.0149339,1637,505,12.8142,25.4143
420,519,12.7675,-24.8224,0.000708371,0.00189796,-0.00093541,0.00241167,0.000194666,-1.06859,0.00154698,0.01453,1644,505,12.7675,24.8224
427,519,12.7639,-24.262,0.00100075,0.00225294,-0.000315666,0.00232802,0.000925672,-1.3373,0.00135344,0.0130281,1651,505,12.7639,24.262
434,519,12.7423,-23.6623,0.00115432,0.002404,0.000141075,0.00241973,0.00113859,1.45977,0.00139784,0.0114055,1658,505,12.7423,23.6623
441,519,12.7067,-23.048,0.00128283,0.00232894,0.000677269,0.00266162,0.000950149,1.11421,0.0015575,0.011721,1665,505,12.7067,23.048
448,519,12.699,-22.4765,0.00141178,0.00205549,0.00116359,0.00294091,0.000526355,0.920327,0.00181084,0.00994845,1672,505,12.6989,22.4765
455,519,12.6737,-21.9088,0.00151966,0.0018318,0.00166284,0.00334588,5.58444e-06,0.832189,0.00222873,0.0112797,1679,505,12.6737,21.9088
462,519,12.6589,-21.2968,0.00162418,0.00130368,0.00208397,0.00355405,-0.000626195,0.747026,0.00260333,0.0101423,1686,505,12.6589,21.2968
469,519,12.6617,-20.6879,0.00174424,0.000496712,0.00252966,0.00372591,-0.00148495,0.664519,0.00309984,0.00990377,1693,505,12.6617,20.6879
476,519,12.6487,-20.0607,0.00185726,-0.000682596,0.00301897,0.00386253,-0.00268786,0.586308,0.00380209,0.0123029,1700,505,12.6487,20.0607
483,519,12.6143,-19.4228,0.00202401,-0.00189562,0.00348951,0.00406639,-0.00393799,0.529533,0.00462153,0.0126458,1707,505,12.6142,19.4228
490,519,12.5708,-18.7689,0.00227836,-0.00346226,0.0040346,0.00435948,-0.00554338,0.476222,0.00573102,0.0114679,1714,505,12.5708,18.7689
497,519,12.5645,-18.1974,0.00260957,-0.00536595,0.00461779,0.00472314,-0.00747952,0.42924,0.00710487,0.0188708,1721,505,12.5645,18.1974
504,519,12.5067,-17.548,0.0029572,-0.00773021,0.00512004,0.00501417,-0.00978717,0.382013,0.0086924,0.0190691,1728,505,12.5067,17.548
511,519,12.5336,-16.8723,0.00347902,-0.0106467,0.00564883,0.00546012,-0.0126278,0.337307,0.0107129,0.0254825,1735,505,12.5335,16.8723
518,519,12.5745,-16.3199,0.00396117,-0.0141389,0.00616519,0.0058616,-0.0160393,0.29901,0.0130917,0.0419934,1742,505,12.5745,16.32
525,519,12.6407,-16.0837,0.00422408,-0.017884,0.00658744,0.00603807,-0.019698,0.268711,0.0155407,0.0441096,1749,505,12.6407,16.0837
532,519,12.801,-15.536,0,0,0,0,0,0,0,-1,1756,505,12.801,15.536
539,519,13.1334,-14.7551,0,0,0,0,0,0,0,-1,1763,505,13.1334,14.7551
546,519,4.62024,-2.89774,0,0,0,0,0,0,0,-1,1770,505,4.62023,2.89775
553,519,4.14136,0.0667419,0,0,0,0,0,0,0,-1,1777,505,4.14141,-0.0667503
560,519,3.77856,0.279724,0,0,0,0,0,0,0,-1,1784,505,3.77861,-0.279731
567,519,0,0,0,0,0,0,0,0,0,-1,1791,505,0,0
574,519,0,0,0,0,0,0,0,0,0,-1,1798,505,0,0
581,519,0,0,0,0,0,0,0,0,0,-1,1805,505,0,0
588,519,0,0,0,0,0,0,0,0,0,-1,1812,505,0,0
595,519,0,0,0,0,0,0,0,0,0,-1,1819,505,0,0
602,519,0,0,0,0,0,0,0,0,0,-1,1826,505,0,0
609,519,0,0,0,0,0,0,0,0,0,-1,1833,505,0,0
616,519,0,0,0,0,0,0,0,0,0,-1,1840,505,0,0
623,519,0,0,0,0,0,0,0,0,0,-1,1847,505,0,0
630,519,0,0,0,0,0,0,0,0,0,-1,1854,505,0,0
637,519,0,0,0,0,0,0,0,0,0,-1,1861,505,0,0
644,519,0,0,0,0,0,0,0,0,0,-1,1868,505,0,0
651,519,0,0,0,0,0,0,0,0,0,-1,1875,505,0,0
658,519,0,0,0,0,0,0,0,0,0,-1,1882,505,0,0
665,519,0,0,0,0,0,0,0,0,0,-1,1889,505,0,0
672,519,0,0,0,0,0,0,0,0,0,-1,1896,505,0,0
679,519,0,0,0,0,0,0,0,0,0,-1,1903,505,0,0
686,519,0,0,0,0,0,0,0,0,0,-1,1910,505,0,0
693,519,0,0,0,0,0,0,0,0,0,-1,1917,505,0,0
700,519,0,0,0,0,0,0,0,0,0,-1,1924,505,0,0
707,519,0,0,0,0,0,0,0,0,0,-1,1931,505,0,0
714,519,0,0,0,0,0,0,0,0,0,-1,1938,505,0,0
721,519,0,0,0,0,0,0,0,0,0,-1,1945,505,0,0
728,519,0,0,0,0,0,0,0,0,0,-1,1952,505,0,0
735,519,0,0,0,0,0,0,0,0,0,-1,1959,505,0,0
742,519,0,0,0,0,0,0,0,0,0,-1,1966,505,0,0
749,519,0,0,0,0,0,0,0,0,0,-1,1973,505,0,0
756,519,0,0,0,0,0,0,0,0,0,-1,1980,505,0,0
763,519,0,0,0,0,0,0,0,0,0,-1,1987,505,0,0
770,519,0,0,0,0,0,0,0,0,0,-1,1994,505,0,0
777,519,0,0,0,0,0,0,0,0,0,-1,2001,505,0,0
784,519,0,0,0,0,0,0,0,0,0,-1,2008,505,0,0
791,519,0,0,0,0,0,0,0,0,0,-1,2015,505,0,0
798,519,0,0,0,0,0,0,0,0,0,-1,2022,505,0,0
805,519,0,0,0,0,0,0,0,0,0,-1,2029,505,0,0
812,519,0,0,0,0,0,0,0,0,0,-1,2036,505,0,0
-700,512,0,0,0,0,0,0,0,0,0,-1,524,512,0,0
-693,512,0,0,0,0,0,0,0,0,0,-1,531,512,0,0
-686,512,0,0,0,0,0,0,0,0,0,-1,538,512,0,0
-679,512,0,0,0,0,0,0,0,0,0,-1,545,512,0,0
-672,512,0,0,0,0,0,0,0,0,0,-1,552,512,0,0
-665,512,0,0,0,0,0,0,0,0,0,-1,559,512,0,0
-658,512,0,0,0,0,0,0,0,0,0,-1,566,512,0,0
-651,512,0,0,0,0,0,0,0,0,0,-1,573,512,0,0
-644,512,0,0,0,0,0,0,0,0,0,-1,580,512,0,0
-637,512,0,0,0,0,0,0,0,0,0,-1,587,512,0,0
-630,512,0,0,0,0,0,0,0,0,0,-1,594,512,0,0
-623,512,0,0,0,0,0,0,0,0,0,-1,601,512,0,0
-616,512,0,0,0,0,0,0,0,0,0,-1,608,512,0,0
-609,512,0,0,0,0,0,0,0,0,0,-1,615,512,0,0
-602,512,0,0,0,0,0,0,0,0,0,-1,622,512,0,0
-595,512,0,0,0,0,0,0,0,0,0,-1,629,512,0,0
-588,512,0,0,0,0,0,0,0,0,0,-1,636,512,0,0
-581,512,0,0,0,0,0,0,0,0,0,-1,643,512,0,0
-574,512,0,0,0,0,0,0,0,0,0,-1,650,512,0,0
-567,512,0,0,0,0,0,0,0,0,0,-1,657,512,0,0
-560,512,0,0,0,0,0,0,0,0,0,-1,664,512,0,0
-553,512,0,0,0,0,0,0,0,0,0,-1,671,512,0,0
-546,512,0,0,0,0,0,0,0,0,0,-1,678,512,0,0
-539,512,0,0,0,0,0,0,0,0,0,-1,685,512,0,0
-532,512,0,0,0,0,0,0,0,0,0,-1,692,512,0,0
-525,512,0,0,0,0,0,0,0,0,0,-1,699,512,0,0
-518,512,0,0,0,0,0,0,0,0,0,-1,706,512,0,0
-511,512,0,0,0,0,0,0,0,0,0,-1,713,512,0,0
-504,512,0,0,0,0,0,0,0,0,0,-1,720,512,0,0
-497,512,0,0,0,0,0,0,0,0,0,-1,727,512,0,0
-490,512,0,0,0,0,0,0,0,0,0,-1,734,512,0,0
-483,512,0,0,0,0,0,0,0,0,0,-1,741,512,0,0
-476,512,0,0,0,0,0,0,0,0,0,-1,748,512,0,0
-469,512,0,0,0,0,0,0,0,0,0,-1,755,512,0,0
-462,512,0,0,0,0,0,0,0,0,0,-1,762,512,0,0
-455,512,0,0,0,0,0,0,0,0,0,-1,769,512,0,0
-448,512,1.96283,-4.15674,0,0,0,0,0,0,0,-1,776,512,1.96285,4.15677
-441,512,1.78198,-4.88824,0,0,0,0,0,0,0,-1,783,512,1.78201,4.88826
-434,512,0.0726929,-9.85822,0,0,0,0,0,0,0,-1,790,512,0.0727008,9.85819
-427,512,-0.384583,-9.94824,0,0,0,0,0,0,0,-1,797,512,-0.384552,9.94823
-420,512,-2.93219,-12.4855,0,0,0,0,0,0,0,-1,804,512,-2.93219,12.4855
-413,512,-2.22711,-11.4485,0,0,0,0,0,0,0,-1,811,512,-2.22712,11.4485
-406,512,-2.38037,-13.5743,0,0,0,0,0,0,0,-1,818,512,-2.38034,13.5743
-399,512,-2.19733,-16.5073,0,0,0,0,0,0,0,-1,825,512,-2.19734,16.5073
-392,512,-2.08075,-17.3078,-0.00247953,0.0267545,-0.0120796,0.0310999,-0.00682497,-1.22548,0.0233432,0.041604,832,512,-2.08074,17.3078
-385,512,-2.14972,-18.0434,-0.00230296,0.0219125,-0.00987858,0.0254312,-0.0058216,-1.22862,0.0191913,0.0199299,839,512,-2.14974,18.0434
-378,512,-2.20715,-18.6595,-0.00192049,0.0177144,-0.00807494,0.0206086,-0.00481473,-1.22664,0.0155938,0.0150727,846,512,-2.20718,18.6595
-371,512,-2.18976,-19.3245,-0.00140498,0.0141357,-0.00661689,0.0165713,-0.00384059,-1.2181,0.0125256,0.0125516,853,512,-2.18978,19.3245
-364,512,-2.19849,-20.0112,-0.000867918,0.0109978,-0.00526915,0.0129999,-0.00286996,-1.20769,0.00976485,0.0100631,860,512,-2.1985,20.0112
-357,512,-2.21008,-20.6089,-0.000381489,0.00833834,-0.00411665,0.00997473,-0.00201788,-1.19244,0.00741455,0.0111063,867,512,-2.21009,20.609
-350,512,-2.22064,-21.1922,2.13382e-05,0.00582982,-0.00303584,0.00712688,-0.00127573,-1.16702,0.00522863,0.0119774,874,512,-2.22065,21.1922
-343,512,-2.29218,-21.7678,0.000460597,0.00392553,-0.00222205,0.00501067,-0.000624547,-1.11651,0.0035669,0.0134931,881,512,-2.2922,21.7677
-336,512,-2.34381,-22.3535,0.000907203,0.0023474,-0.0015393,0.00332671,-7.21022e-05,-1.00418,0.00224223,0.0140863,888,512,-2.34381,22.3535
-329,512,-2.32867,-22.9352,0.0013808,0.00105314,-0.00104716,0.00227687,0.000157074,-0.707802,0.00146836,0.0155492,895,512,-2.32866,22.9352
-322,512,-2.33752,-23.5234,0.00183237,-0.000100019,-0.000624698,0.00201673,-0.000284381,-0.286975,0.00144861,0.0132437,902,512,-2.33754,23.5234
-315,512,-2.3573,-24.1119,0.00229199,-0.00091041,-0.000273706,0.00231521,-0.000933635,-0.0846508,0.00193143,0.0122149,909,512,-2.35733,24.112
-308,512,-2.396,-24.6804,0.00288312,-0.00158152,-6.86078e-05,0.00288417,-0.00158257,-0.0153621,0.00261512,0.0123043,916,512,-2.39597,24.6804
-301,512,-2.40686,-25.2003,0.00351616,-0.0020794,5.90544e-05,0.00351678,-0.00208002,0.0105522,0.00326661,0.0159902,923,512,-2.40688,25.2003
-294,512,-2.40118,-25.7079,0.00416725,-0.00244457,0.000219778,0.00417455,-0.00245187,0.0331914,0.00386862,0.0147926,930,512,-2.40118,25.708
-287,512,-2.49438,-26.1956,0.00499711,-0.00298756,0.000274787,0.00500656,-0.002997,0.0343601,0.00466916,0.0261365,937,512,-2.49441,26.1956
-280,512,-2.36316,-26.8232,0.00577716,-0.0036074,0.000541827,0.00580833,-0.00363858,0.0574815,0.00550192,0.047908,944,512,-2.36315,26.8233
-273,512,-2.2309,-27.4561,0,0,0,0,0,0,0,-1,951,512,-2.23088,27.4561
-266,512,-2.33594,-25.9839,0,0,0,0,0,0,0,-1,958,512,-2.33592,25.9839
-259,512,-0.525452,-14.0815,0,0,0,0,0,0,0,-1,965,512,-0.525475,14.0815
-252,512,1.45941,-3.43475,0,0,0,0,0,0,0,-1,972,512,1.45938,3.43475
-245,512,-1.6731,-22.8959,0,0,0,0,0,0,0,-1,979,512,-1.67312,22.8959
-238,512,0.227051,-8.92969,0,0,0,0,0,0,0,-1,986,512,0.227073,8.92968
-231,512,-2.54437,-10.169,0,0,0,0,0,0,0,-1,993,512,-2.54439,10.169
-224,512,-4.84601,-7.52783,0,0,0,0,0,0,0,-1,1000,512,-4.84602,7.52786
-217,512,-7.37274,-3.89563,0,0,0,0,0,0,0,-1,1007,512,-7.37274,3.89561
-210,512,-3.76642,-1.94702,0,0,0,0,0,0,0,-1,1014,512,-3.76641,1.94702
-203,512,-2.48328,-5.19061,0,0,0,0,0,0,0,-1,1021,512,-2.48328,5.19059
-196,512,-1.14929,-4.63202,0,0,0,0,0,0,0,-1,1028,512,-1.14934,4.632
-189,512,0.197998,4.55505,0,0,0,0,0,0,0,-1,1035,512,0.197996,-4.55506
-182,512,2.73938,0.0778503,0,0,0,0,0,0,0,-1,1042,512,2.73944,-0.077852
-175,512,2.29565,0.209808,0,0,0,0,0,0,0,-1,1049,512,2.29565,-0.209813
-168,512,2.09399,-0.302856,0,0,0,0,0,0,0,-1,1056,512,2.09403,0.302826
-161,512,2.76636,0.0921021,0,0,0,0,0,0,0,-1,1063,512,2.76633,-0.0921104
-154,512,3.41382,0.466187,0,0,0,0,0,0,0,-1,1070,512,3.41382,-0.466178
-147,512,0,0,0,0,0,0,0,0,0,-1,1077,512,0,0
-140,512,0,0,0,0,0,0,0,0,0,-1,1084,512,0,0
-133,512,0,0,0,0,0,0,0,0,0,-1,1091,512,0,0
-126,512,0,0,0,0,0,0,0,0,0,-1,1098,512,0,0
-119,512,0,0,0,0,0,0,0,0,0,-1,1105,512,0,0
-112,512,0,0,0,0,0,0,0,0,0,-1,1112,512,0,0
-105,512,0,0,0,0,0,0,0,0,0,-1,1119,512,0,0
-98,512,0,0,0,0,0,0,0,0,0,-1,1126,512,0,0
-91,512,0,0,0,0,0,0,0,0,0,-1,1133,512,0,0
-84,512,0,0,0,0,0,0,0,0,0,-1,1140,512,0,0
-77,512,0,0,0,0,0,0,0,0,0,-1,1147,512,0,0
-70,512,0,0,0,0,0,0,0,0,0,-1,1154,512,0,0
-63,512,0,0,0,0,0,0,0,0,0,-1,1161,512,0,0
-56,512,0,0,0,0,0,0,0,0,0,-1,1168,512,0,0
-49,512,0,0,0,0,0,0,0,0,0,-1,1175,512,0,0
-42,512,0,0,0,0,0,0,0,0,0,-1,1182,512,0,0
-35,512,0,0,0,0,0,0,0,0,0,-1,1189,512,0,0
-28,512,0,0,0,0,0,0,0,0,0,-1,1196,512,0,0
-21,512,0,0,0,0,0,0,0,0,0,-1,1203,512,0,0
-14,512,0,0,0,0,0,0,0,0,0,-1,1210,512,0,0
-7,512,0,0,0,0,0,0,0,0,0,-1,1217,512,0,0
0,512,0,0,0,0,0,0,0,0,0,-1,1224,512,0,0
7,512,0,0,0,0,0,0,0,0,0,-1,1231,512,0,0
14,512,0,0,0,0,0,0,0,0,0,-1,1238,512,0,0
21,512,0,0,0,0,0,0,0,0,0,-1,1245,512,0,0
28,512,0,0,0,0,0,0,0,0,0,-1,1252,512,0,0
35,512,0,0,0,0,0,0,0,0,0,-1,1259,512,0,0
42,512,0,0,0,0,0,0,0,0,0,-1,1266,512,0,0
49,512,0,0,0,0,0,0,0,0,0,-1,1273,512,0,0
56,512,0,0,0,0,0,0,0,0,0,-1,1280,512,0,0
63,512,0,0,0,0,0,0,0,0,0,-1,1287,512,0,0
70,512,0,0,0,0,0,0,0,0,0,-1,1294,512,0,0
77,512,0,0,0,0,0,0,0,0,0,-1,1301,512,0,0
84,512,0,0,0,0,0,0,0,0,0,-1,1308,512,0,0
91,512,0,0,0,0,0,0,0,0,0,-1,1315,512,0,0
98,512,0,0,0,0,0,0,0,0,0,-1,1322,512,0,0
105,512,0,0,0,0,0,0,0,0,0,-1,1329,512,0,0
112,512,0,0,0,0,0,0,0,0,0,-1,1336,512,0,0
119,512,0,0,0,0,0,0,0,0,0,-1,1343,512,0,0
126,512,0,0,0,0,0,0,0,0,0,-1,1350,512,0,0
133,512,0,0,0,0,0,0,0,0,0,-1,1357,512,0,0
140,512,0,0,0,0,0,0,0,0,0,-1,1364,512,0,0
147,512,0,0,0,0,0,0,0,0,0,-1,1371,512,0,0
154,512,0,0,0,0,0,0,0,0,0,-1,1378,512,0,0
161,512,0,0,0,0,0,0,0,0,0,-1,1385,512,0,0
168,512,0,0,0,0,0,0,0,0,0,-1,1392,512,0,0
175,512,0,0,0,0,0,0,0,0,0,-1,1399,512,0,0
182,512,0,0,0,0,0,0,0,0,0,-1,1406,512,0,0
189,512,0,0,0,0,0,0,0,0,0,-1,1413,512,0,0
196,512,0,0,0,0,0,0,0,0,0,-1,1420,512,0,0
203,512,0,0,0,0,0,0,0,0,0,-1,1427,512,0,0
210,512,0,0,0,0,0,0,0,0,0,-1,1434,512,0,0
217,512,0,0,0,0,0,0,0,0,0,-1,1441,512,0,0
224,512,0,0,0,0,0,0,0,0,0,-1,1448,512,0,0
231,512,0,0,0,0,0,0,0,0,0,-1,1455,512,0,0
238,512,0,0,0,0,0,0,0,0,0,-1,1462,512,0,0
245,512,0,0,0,0,0,0,0,0,0,-1,1469,512,0,0
252,512,0,0,0,0,0,0,0,0,0,-1,1476,512,0,0
259,512,0,0,0,0,0,0,0,0,0,-1,1483,512,0,0
266,512,0,0,0,0,0,0,0,0,0,-1,1490,512,0,0
273,512,4.00745,0.618622,0,0,0,0,0,0,0,-1,1497,512,4.00747,-0.618611
280,512,4.49609,0.649841,0,0,0,0,0,0,0,-1,1504,512,4.49612,-0.649834
287,512,4.77234,0.458069,0,0,0,0,0,0,0,-1,1511,512,4.77233,-0.458083
294,512,8.54956,-2.36273,0,0,0,0,0,0,0,-1,1518,512,8.54952,2.36274
301,512,6.302,-1.69092,0,0,0,0,0,0,0,-1,1525,512,6.30196,1.69093
308,512,8.2439,-6.22754,0,0,0,0,0,0,0,-1,1532,512,8.24394,6.22757
315,512,7.53687,-6.04211,0,0,0,0,0,0,0,-1,1539,512,7.53691,6.04211
322,512,6.82983,-5.85663,0,0,0,0,0,0,0,-1,1546,512,6.82988,5.85666
329,512,4.38147,-0.329651,0,0,0,0,0,0,0,-1,1553,512,4.38144,0.329662
336,512,4.41467,-0.741455,0,0,0,0,0,0,0,-1,1560,512,4.41467,0.741442
343,512,4.44727,-1.21667,0,0,0,0,0,0,0,-1,1567,512,4.44732,1.21666
350,512,4.55469,-1.65082,0,0,0,0,0,0,0,-1,1574,512,4.5547,1.65083
357,512,5.79993,-2.67456,0,0,0,0,0,0,0,-1,1581,512,5.79991,2.67454
364,512,13.118,-28.5485,0,0,0,0,0,0,0,-1,1588,512,13.1181,28.5485
371,512,5.28467,-7.69269,0,0,0,0,0,0,0,-1,1595,512,5.28464,7.69269
378,512,6.29407,-9.88055,0,0,0,0,0,0,0,-1,1602,512,6.29412,9.88057
385,512,6.45569,-9.32233,0,0,0,0,0,0,0,-1,1609,512,6.45565,9.3223
392,512,6.35522,-8.98425,0,0,0,0,0,0,0,-1,1616,512,6.35526,8.98422
399,512,13.645,-25.9511,0,0,0,0,0,0,0,-1,1623,512,13.645,25.9511
406,512,13.4519,-26.0888,0,0,0,0,0,0,0,-1,1630,512,13.4519,26.0888
413,512,13.4739,-25.4404,0,0,0,0,0,0,0,-1,1637,512,13.4738,25.4404
420,512,13.4003,-24.8604,0.00159484,0.00210715,-0.00105823,0.00293979,0.000762204,-0.904145,0.00176164,0.0259062,1644,512,13.4003,24.8603
427,512,13.3702,-24.2369,0.00175168,0.00240342,-0.00046017,0.00264141,0.00151368,-1.09349,0.00153044,0.0146081,1651,512,13.3703,24.2369
434,512,13.3335,-23.6552,0.00169429,0.00254102,-8.75498e-05,0.00254998,0.00168533,-1.46884,0.00149743,0.0107525,1658,512,13.3335,23.6552
441,512,13.2822,-23.0473,0.00161155,0.00253103,0.000344089,0.00264553,0.00149704,1.24954,0.00153181,0.0121423,1665,512,13.2823,23.0473
448,512,13.2837,-22.4703,0.00160799,0.0023349,0.000723729,0.00278131,0.00116157,1.0181,0.00161304,0.00977856,1672,512,13.2837,22.4704
455,512,13.2762,-21.8689,0.00160162,0.00224672,0.00111138,0.00308141,0.00076693,0.926632,0.00185233,0.00972622,1679,512,13.2762,21.8689
462,512,13.2687,-21.2537,0.0015824,0.00188027,0.0013812,0.00312054,0.000342126,0.839104,0.00197622,0.00940831,1686,512,13.2686,21.2537
469,512,13.2401,-20.6499,0.00161822,0.00133456,0.00168949,0.00317182,-0.000219046,0.743522,0.00219122,0.0104658,1693,512,13.2401,20.6499
476,512,13.2206,-20.0391,0.00168096,0.00045749,0.00205907,0.00321724,-0.00107879,0.641004,0.00258071,0.0138196,1700,512,13.2206,20.0391
483,512,13.21,-19.407,0.00180318,-0.000484137,0.00239975,0.00331786,-0.00199882,0.563032,0.00310092,0.0129567,1707,512,13.2099,19.407
490,512,13.1887,-18.7701,0.00197149,-0.0017179,0.00279118,0.00347248,-0.00321889,0.493398,0.00386419,0.0106778,1714,512,13.1887,18.7701
497,512,13.1637,-18.134,0.00222276,-0.00323239,0.00324212,0.00373205,-0.00474168,0.435689,0.00490387,0.0121804,1721,512,13.1637,18.134
504,512,13.1139,-17.4916,0.00250052,-0.00511502,0.00368619,0.00399248,-0.00660698,0.384588,0.00618134,0.0141504,1728,512,13.1139,17.4916
511,512,13.0748,-16.8273,0.00273857,-0.00740984,0.00408818,0.00418056,-0.00885183,0.339097,0.00768368,0.016492,1735,512,13.0749,16.8272
518,512,13.1257,-16.1702,0.00282416,-0.0100714,0.00443375,0.00420146,-0.0114487,0.30119,0.00935301,0.019872,1742,512,13.1258,16.1702
525,512,13.1196,-15.6843,0.00267711,-0.0129937,0.00466876,0.00396261,-0.0142792,0.268683,0.0110791,0.0420315,1749,512,13.1196,15.6842
532,512,13.3037,-14.9877,0,0,0,0,0,0,0,-1,1756,512,13.3037,14.9877
539,512,7.05908,-7.00647,0,0,0,0,0,0,0,-1,1763,512,7.05909,7.00647
546,512,2.77551,-0.66449,0,0,0,0,0,0,0,-1,1770,512,2.77548,0.664503
553,512,3.927,-0.448853,0,0,0,0,0,0,0,-1,1777,512,3.92704,0.448843
560,512,3.55762,-0.201233,0,0,0,0,0,0,0,-1,1784,512,3.55768,0.201259
567,512,3.09045,0.191193,0,0,0,0,0,0,0,-1,1791,512,3.09045,-0.191203
574,512,0,0,0,0,0,0,0,0,0,-1,1798,512,0,0
581,512,0,0,0,0,0,0,0,0,0,-1,1805,512,0,0
588,512,0,0,0,0,0,0,0,0,0,-1,1812,512,0,0
595,512,0,0,0,0,0,0,0,0,0,-1,1819,512,0,0
602,512,0,0,0,0,0,0,0,0,0,-1,1826,512,0,0
609,512,0,0,0,0,0,0,0,0,0,-1,1833,512,0,0
616,512,0,0,0,0,0,0,0,0,0,-1,1840,512,0,0
623,512,0,0,0,0,0,0,0,0,0,-1,1847,512,0,0
630,512,0,0,0,0,0,0,0,0,0,-1,1854,512,0,0
637,512,0,0,0,0,0,0,0,0,0,-1,1861,512,0,0
644,512,0,0,0,0,0,0,0,0,0,-1,1868,512,0,0
651,512,0,0,0,0,0,0,0,0,0,-1,1875,512,0,0
658,512,0,0,0,0,0,0,0,0,0,-1,1882,512,0,0
665,512,0,0,0,0,0,0,0,0,0,-1,1889,512,0,0
672,512,0,0,0,0,0,0,0,0,0,-1,1896,512,0,0
679,512,0,0,0,0,0,0,0,0,0,-1,1903,512,0,0
686,512,0,0,0,0,0,0,0,0,0,-1,1910,512,0,0
693,512,0,0,0,0,0,0,0,0,0,-1,1917,512,0,0
700,512,0,0,0,0,0,0,0,0,0,-1,1924,512,0,0
707,512,0,0,0,0,0,0,0,0,0,-1,1931,512,0,0
714,512,0,0,0,0,0,0,0,0,0,-1,1938,512,0,0
721,512,0,0,0,0,0,0,0,0,0,-1,1945,512,0,0
728,512,0,0,0,0,0,0,0,0,0,-1,1952,512,0,0
735,512,0,0,0,0,0,0,0,0,0,-1,1959,512,0,0
742,512,0,0,0,0,0,0,0,0,0,-1,1966,512,0,0
749,512,0,0,0,0,0,0,0,0,0,-1,1973,512,0,0
756,512,0,0,0,0,0,0,0,0,0,-1,1980,512,0,0
763,512,0,0,0,0,0,0,0,0,0,-1,1987,512,0,0
770,512,0,0,0,0,0,0,0,0,0,-1,1994,512,0,0
777,512,0,0,0,0,0,0,0,0,0,-1,2001,512,0,0
784,512,0,0,0,0,0,0,0,0,0,-1,2008,512,0,0
791,512,0,0,0,0,0,0,0,0,0,-1,2015,512,0,0
798,512,0,0,0,0,0,0,0,0,0,-1,2022,512,0,0
805,512,0,0,0,0,0,0,0,0,0,-1,2029,512,0,0
812,512,0,0,0,0,0,0,0,0,0,-1,2036,512,0,0
-700,505,0,0,0,0,0,0,0,0,0,-1,524,519,0,0
-693,505,0,0,0,0,0,0,0,0,0,-1,531,519,0,0
-686,505,0,0,0,0,0,0,0,0,0,-1,538,519,0,0
-679,505,0,0,0,0,0,0,0,0,0,-1,545,519,0,0
-672,505,0,0,0,0,0,0,0,0,0,-1,552,519,0,0
-665,505,0,0,0,0,0,0,0,0,0,-1,559,519,0,0
-658,505,0,0,0,0,0,0,0,0,0,-1,566,519,0,0
-651,505,0,0,0,0,0,0,0,0,0,-1,573,519,0,0
-644,505,0,0,0,0,0,0,0,0,0,-1,580,519,0,0
-637,505,0,0,0,0,0,0,0,0,0,-1,587,519,0,0
-630,505,0,0,0,0,0,0,0,0,0,-1,594,519,0,0
-623,505,0,0,0,0,0,0,0,0,0,-1,601,519,0,0
-616,505,0,0,0,0,0,0,0,0,0,-1,608,519,0,0
-609,505,0,0,0,0,0,0,0,0,0,-1,615,519,0,0
-602,505,0,0,0,0,0,0,0,0,0,-1,622,519,0,0
-595,505,0,0,0,0,0,0,0,0,0,-1,629,519,0,0
-588,505,0,0,0,0,0,0,0,0,0,-1,636,519,0,0
-581,505,0,0,0,0,0,0,0,0,0,-1,643,519,0,0
-574,505,0,0,0,0,0,0,0,0,0,-1,650,519,0,0
-567,505,0,0,0,0,0,0,0,0,0,-1,657,519,0,0
-560,505,0,0,0,0,0,0,0,0,0,-1,664,519,0,0
-553,505,0,0,0,0,0,0,0,0,0,-1,671,519,0,0
-546,505,0,0,0,0,0,0,0,0,0,-1,678,519,0,0
-539,505,0,0,0,0,0,0,0,0,0,-1,685,519,0,0
-532,505,0,0,0,0,0,0,0,0,0,-1,692,519,0,0
-525,505,0,0,0,0,0,0,0,0,0,-1,699,519,0,0
-518,505,0,0,0,0,0,0,0,0,0,-1,706,519,0,0
-511,505,0,0,0,0,0,0,0,0,0,-1,713,519,0,0
-504,505,0,0,0,0,0,0,0,0,0,-1,720,519,0,0
-497,505,0,0,0,0,0,0,0,0,0,-1,727,519,0,0
-490,505,0,0,0,0,0,0,0,0,0,-1,734,519,0,0
-483,505,0,0,0,0,0,0,0,0,0,-1,741,519,0,0
-476,505,0,0,0,0,0,0,0,0,0,-1,748,519,0,0
-469,505,0,0,0,0,0,0,0,0,0,-1,755,519,0,0
-462,505,0,0,0,0,0,0,0,0,0,-1,762,519,0,0
-455,505,2.72137,-3.26379,0,0,0,0,0,0,0,-1,769,519,2.72135,3.26377
-448,505,2.51111,-3.94989,0,0,0,0,0,0,0,-1,776,519,2.51112,3.94986
-441,505,2.80212,-6.8902,0,0,0,0,0,0,0,-1,783,519,2.80209,6.89019
-434,505,-0.155212,-10.6374,0,0,0,0,0,0,0,-1,790,519,-0.155194,10.6374
-427,505,-0.474426,-10.4702,0,0,0,0,0,0,0,-1,797,519,-0.474433,10.4702
-420,505,-0.922546,-10.1928,0,0,0,0,0,0,0,-1,804,519,-0.92257,10.1928
-413,505,-3.33948,-13.6183,0,0,0,0,0,0,0,-1,811,519,-3.33949,13.6184
-406,505,-2.73663,-15.1412,0,0,0,0,0,0,0,-1,818,519,-2.73661,15.1412
-399,505,-2.66034,-16.3631,0,0,0,0,0,0,0,-1,825,519,-2.66037,16.3631
-392,505,-2.68896,-17.3357,-0.00148669,0.0211978,-0.00980859,0.0248508,-0.00513961,-1.21429,0.0185196,0.0249083,832,519,-2.68896,17.3357
-385,505,-2.74066,-18.0912,-0.00130723,0.0172439,-0.00802987,0.0202368,-0.00430011,-1.21403,0.0151297,0.0105245,839,519,-2.74065,18.0912
-378,505,-2.78461,-18.728,-0.000939694,0.0138493,-0.00656876,0.0163455,-0.00343596,-1.20763,0.0122047,0.0114937,846,519,-2.78463,18.728
-371,505,-2.77167,-19.381,-0.000502976,0.010847,-0.00536799,0.0129836,-0.00263957,-1.19199,0.0096566,0.0137278,853,519,-2.77166,19.381
-364,505,-2.77576,-20.002,-4.22253e-05,0.00812752,-0.00423215,0.00992459,-0.0018393,-1.16924,0.00730707,0.0144875,860,519,-2.77573,20.002
-357,505,-2.78986,-20.5953,0.000426094,0.00586154,-0.00324379,0.00737563,-0.00108799,-1.13409,0.00531699,0.0126307,867,519,-2.78985,20.5953
-350,505,-2.83392,-21.1796,0.000855556,0.00373062,-0.00233477,0.00503492,-0.000448741,-1.06134,0.00351575,0.0126583,874,519,-2.8339,21.1797
-343,505,-2.88776,-21.7593,0.00130372,0.00208929,-0.00164368,0.00338647,6.5444e-06,-0.902681,0.00225547,0.0103962,881,519,-2.88773,21.7593
-336,505,-2.92316,-22.3333,0.00176428,0.000700941,-0.00105222,0.00241153,5.36928e-05,-0.551466,0.00159009,0.0124004,888,519,-2.92314,22.3333
-329,505,-2.91089,-22.8994,0.00228107,-0.00042529,-0.000642008,0.00242565,-0.000569865,-0.221497,0.00183676,0.0174556,895,519,-2.91088,22.8994
-322,505,-2.90997,-23.5042,0.00274276,-0.00127386,-0.000285471,0.00276294,-0.00129404,-0.0705995,0.00239293,0.0202205,902,519,-2.90995,23.5042
-315,505,-2.94061,-24.0879,0.00326625,-0.00194667,-3.70587e-05,0.00326652,-0.00194693,-0.00710854,0.00304195,0.0161991,909,519,-2.94061,24.0879
-308,505,-2.97314,-24.6285,0.00398881,-0.00250168,8.79978e-05,0.00399,-0.00250287,0.0135546,0.0037813,0.0136527,916,519,-2.97314,24.6285
-301,505,-2.9671,-25.1835,0.0047604,-0.00282168,0.000151432,0.00476342,-0.0028247,0.0199618,0.00442841,0.018976,923,519,-2.96711,25.1835
-294,505,-2.94678,-25.6837,0,0,0,0,0,0,0,-1,930,519,-2.9468,25.6837
-287,505,-3.02917,-26.2933,0,0,0,0,0,0,0,-1,937,519,-3.02919,26.2933
-280,505,-2.83374,-27.0566,0,0,0,0,0,0,0,-1,944,519,-2.83373,27.0566
-273,505,-0.0680542,-9.44867,0,0,0,0,0,0,0,-1,951,519,-0.0680462,9.44866
-266,505,-0.036377,-9.07922,0,0,0,0,0,0,0,-1,958,519,-0.0364055,9.0792
-259,505,0.10321,-6.69824,0,0,0,0,0,0,0,-1,965,519,0.103235,6.69826
-252,505,6.82312,-15.6972,0,0,0,0,0,0,0,-1,972,519,6.82314,15.6972
-245,505,4.26727,-12.9861,0,0,0,0,0,0,0,-1,979,519,4.2673,12.9861
-238,505,1.67432,-11.2307,0,0,0,0,0,0,0,-1,986,519,1.67429,11.2307
-231,505,-0.958435,-8.3075,0,0,0,0,0,0,0,-1,993,519,-0.958421,8.30751
-224,505,-3.69653,-5.12732,0,0,0,0,0,0,0,-1,1000,519,-3.69653,5.12733
-217,505,-6.34302,-1.65533,0,0,0,0,0,0,0,-1,1007,519,-6.34299,1.65535
-210,505,-3.06128,-0.396301,0,0,0,0,0,0,0,-1,1014,519,-3.06129,0.396294
-203,505,-4.26465,2.03607,0,0,0,0,0,0,0,-1,1021,519,-4.26462,-2.03606
-196,505,-5.47595,4.27295,0,0,0,0,0,0,0,-1,1028,519,-5.47597,-4.27292
-189,505,1.51526,5.56207,0,0,0,0,0,0,0,-1,1035,519,1.51523,-5.56209
-182,505,2.97815,7.5097,0,0,0,0,0,0,0,-1,1042,519,2.97812,-7.5097
-175,505,-2.38416,-2.17548,0,0,0,0,0,0,0,-1,1049,519,-2.38411,2.1755
-168,505,0,0,0,0,0,0,0,0,0,-1,1056,519,0,0
-161,505,0,0,0,0,0,0,0,0,0,-1,1063,519,0,0
-154,505,0,0,0,0,0,0,0,0,0,-1,1070,519,0,0
-147,505,0,0,0,0,0,0,0,0,0,-1,1077,519,0,0
-140,505,0,0,0,0,0,0,0,0,0,-1,1084,519,0,0
-133,505,0,0,0,0,0,0,0,0,0,-1,1091,519,0,0
-126,505,0,0,0,0,0,0,0,0,0,-1,1098,519,0,0
-119,505,0,0,0,0,0,0,0,0,0,-1,1105,519,0,0
-112,505,0,0,0,0,0,0,0,0,0,-1,1112,519,0,0
-105,505,0,0,0,0,0,0,0,0,0,-1,1119,519,0,0
-98,505,0,0,0,0,0,0,0,0,0,-1,1126,519,0,0
-91,505,0,0,0,0,0,0,0,0,0,-1,1133,519,0,0
-84,505,0,0,0,0,0,0,0,0,0,-1,1140,519,0,0
-77,505,0,0,0,0,0,0,0,0,0,-1,1147,519,0,0
-70,505,0,0,0,0,0,0,0,0,0,-1,1154,519,0,0
-63,505,0,0,0,0,0,0,0,0,0,-1,1161,519,0,0
-56,505,0,0,0,0,0,0,0,0,0,-1,1168,519,0,0
-49,505,0,0,0,0,0,0,0,0,0,-1,1175,519,0,0
-42,505,0,0,0,0,0,0,0,0,0,-1,1182,519,0,0
-35,505,0,0,0,0,0,0,0,0,0,-1,1189,519,0,0
-28,505,0,0,0,0,0,0,0,0,0,-1,1196,519,0,0
-21,505,0,0,0,0,0,0,0,0,0,-1,1203,519,0,0
-14,505,0,0,0,0,0,0,0,0,0,-1,1210,519,0,0
-7,505,0,0,0,0,0,0,0,0,0,-1,1217,519,0,0
0,505,0,0,0,0,0,0,0,0,0,-1,1224,519,0,0
7,505,0,0,0,0,0,0,0,0,0,-1,1231,519,0,0
14,505,0,0,0,0,0,0,0,0,0,-1,1238,519,0,0
21,505,0,0,0,0,0,0,0,0,0,-1,1245,519,0,0
28,505,0,0,0,0,0,0,0,0,0,-1,1252,519,0,0
35,505,0,0,0,0,0,0,0,0,0,-1,1259,519,0,0
42,505,0,0,0,0,0,0,0,0,0,-1,1266,519,0,0
49,505,0,0,0,0,0,0,0,0,0,-1,1273,519,0,0
56,505,0,0,0,0,0,0,0,0,0,-1,1280,519,0,0
63,505,0,0,0,0,0,0,0,0,0,-1,1287,519,0,0
70,505,0,0,0,0,0,0,0,0,0,-1,1294,519,0,0
77,505,0,0,0,0,0,0,0,0,0,-1,1301,519,0,0
84,505,0,0,0,0,0,0,0,0,0,-1,1308,519,0,0
91,505,0,0,0,0,0,0,0,0,0,-1,1315,519,0,0
98,505,0,0,0,0,0,0,0,0,0,-1,1322,519,0,0
105,505,0,0,0,0,0,0,0,0,0,-1,1329,519,0,0
112,505,0,0,0,0,0,0,0,0,0,-1,1336,519,0,0
119,505,0,0,0,0,0,0,0,0,0,-1,1343,519,0,0
126,505,0,0,0,0,0,0,0,0,0,-1,1350,519,0,0
133,505,0,0,0,0,0,0,0,0,0,-1,1357,519,0,0
140,505,0,0,0,0,0,0,0,0,0,-1,1364,519,0,0
147,505,0,0,0,0,0,0,0,0,0,-1,1371,519,0,0
154,505,0,0,0,0,0,0,0,0,0,-1,1378,519,0,0
161,505,0,0,0,0,0,0,0,0,0,-1,1385,519,0,0
168,505,0,0,0,0,0,0,0,0,0,-1,1392,519,0,0
175,505,0,0,0,0,0,0,0,0,0,-1,1399,519,0,0
182,505,0,0,0,0,0,0,0,0,0,-1,1406,519,0,0
189,505,0,0,0,0,0,0,0,0,0,-1,1413,519,0,0
196,505,0,0,0,0,0,0,0,0,0,-1,1420,519,0,0
203,505,0,0,0,0,0,0,0,0,0,-1,1427,519,0,0
210,505,0,0,0,0,0,0,0,0,0,-1,1434,519,0,0
217,505,0,0,0,0,0,0,0,0,0,-1,1441,519,0,0
224,505,0,0,0,0,0,0,0,0,0,-1,1448,519,0,0
231,505,0,0,0,0,0,0,0,0,0,-1,1455,519,0,0
238,505,0,0,0,0,0,0,0,0,0,-1,1462,519,0,0
245,505,0,0,0,0,0,0,0,0,0,-1,1469,519,0,0
252,505,0,0,0,0,0,0,0,0,0,-1,1476,519,0,0
259,505,0,0,0,0,0,0,0,0,0,-1,1483,519,0,0
266,505,0,0,0,0,0,0,0,0,0,-1,1490,519,0,0
273,505,0,0,0,0,0,0,0,0,0,-1,1497,519,0,0
280,505,0,0,0,0,0,0,0,0,0,-1,1504,519,0,0
287,505,4.39478,0.499512,0,0,0,0,0,0,0,-1,1511,519,4.39476,-0.499506
294,505,4.88867,0.0822754,0,0,0,0,0,0,0,-1,1518,519,4.88871,-0.0822748
301,505,4.82153,-0.0704346,0,0,0,0,0,0,0,-1,1525,519,4.82156,0.0704312
308,505,4.67761,-0.29187,0,0,0,0,0,0,0,-1,1532,519,4.67762,0.291845
315,505,8.44055,-6.54352,0,0,0,0,0,0,0,-1,1539,519,8.44059,6.54349
322,505,4.78955,-0.594116,0,0,0,0,0,0,0,-1,1546,519,4.78957,0.594096
329,505,5.16321,0.434631,0,0,0,0,0,0,0,-1,1553,519,5.16316,-0.434614
336,505,4.94495,-0.920471,0,0,0,0,0,0,0,-1,1560,519,4.945,0.920495
343,505,5.01855,-1.4823,0,0,0,0,0,0,0,-1,1567,519,5.01851,1.48227
350,505,5.33154,-1.77838,0,0,0,0,0,0,0,-1,1574,519,5.33152,1.77838
357,505,5.56567,-1.9425,0,0,0,0,0,0,0,-1,1581,519,5.56562,1.94248
364,505,5.85205,-2.6579,0,0,0,0,0,0,0,-1,1588,519,5.85211,2.65788
371,505,5.88477,-7.00922,0,0,0,0,0,0,0,-1,1595,519,5.88473,7.00924
378,505,5.44104,-7.10162,0,0,0,0,0,0,0,-1,1602,519,5.44099,7.10162
385,505,6.64661,-8.65015,0,0,0,0,0,0,0,-1,1609,519,6.64662,8.65014
392,505,6.34558,-8.3429,0,0,0,0,0,0,0,-1,1616,519,6.34554,8.34288
399,505,7.45898,-9.70386,0,0,0,0,0,0,0,-1,1623,519,7.45899,9.70388
406,505,7.08679,-9.4928,0,0,0,0,0,0,0,-1,1630,519,7.08678,9.49278
413,505,8.4032,-14.0308,0,0,0,0,0,0,0,-1,1637,519,8.4032,14.0308
420,505,13.9507,-25.0193,0,0,0,0,0,0,0,-1,1644,519,13.9507,25.0194
427,505,13.9463,-24.366,0.00201863,0.00292638,-0.000322267,0.00302916,0.00191586,-1.26208,0.00176923,0.0320264,1651,519,13.9463,24.3659
434,505,13.9172,-23.6642,0.00180278,0.00291187,-2.25207e-05,0.00291233,0.00180233,-1.5505,0.0016972,0.0121979,1658,519,13.9173,23.6642
441,505,13.9209,-23.0195,0.00167255,0.00284171,0.00027611,0.00290364,0.00161062,1.35017,0.00167976,0.00966077,1665,519,13.921,23.0195
448,505,13.9098,-22.4206,0.00171357,0.00259021,0.000537461,0.00284543,0.00145836,1.12747,0.00164298,0.0102014,1672,519,13.9097,22.4206
455,505,13.8901,-21.8242,0.00175732,0.00249052,0.000808506,0.00301166,0.00123619,0.998249,0.00174805,0.0113261,1679,519,13.8901,21.8242
462,505,13.8561,-21.2259,0.00174813,0.00214802,0.000931889,0.00290117,0.00099498,0.891075,0.00170231,0.0107586,1686,519,13.8561,21.2259
469,505,13.8253,-20.6151,0.001806,0.00175654,0.00112493,0.00290647,0.000656069,0.774409,0.0017602,0.0107153,1693,519,13.8254,20.615
476,505,13.814,-20.0131,0.00189373,0.00110901,0.00140465,0.00295979,4.29526e-05,0.649204,0.00195903,0.0113549,1700,519,13.8139,20.0131
483,505,13.8088,-19.3902,0.00201599,0.000352893,0.00166412,0.00304475,-0.000675868,0.553697,0.00228863,0.0124603,1707,519,13.8088,19.3902
490,505,13.7917,-18.7511,0.00210482,-0.000606206,0.00195554,0.00312871,-0.0016301,0.482336,0.00279254,0.0120077,1714,519,13.7918,18.7511
497,505,13.7722,-18.1146,0.00221719,-0.00178528,0.00232174,0.00328115,-0.00284924,0.429701,0.00354231,0.0122545,1721,519,13.7723,18.1146
504,505,13.7279,-17.4786,0.00231529,-0.00325003,0.00270583,0.00341396,-0.0043487,0.385701,0.00449259,0.0133123,1728,519,13.7279,17.4787
511,505,13.6832,-16.8483,0.00230098,-0.00498255,0.00303734,0.00340136,-0.00608292,0.347575,0.00554823,0.0151137,1735,519,13.6832,16.8484
518,505,13.7247,-16.1809,0.00206824,-0.00694477,0.00326142,0.0031246,-0.00800113,0.313233,0.00662593,0.0224349,1742,519,13.7247,16.1809
525,505,13.5674,-15.5092,0.00163689,-0.00914141,0.0033741,0.002606,-0.0101105,0.279692,0.00775635,0.0344216,1749,519,13.5673,15.5092
532,505,13.3153,-14.9311,0,0,0,0,0,0,0,-1,1756,519,13.3154,14.9311
539,505,7.90369,-7.11932,0,0,0,0,0,0,0,-1,1763,519,7.90373,7.11932
546,505,7.94946,-6.64539,0,0,0,0,0,0,0,-1,1770,519,7.94947,6.64539
553,505,2.82837,0.162659,0,0,0,0,0,0,0,-1,1777,519,2.82841,-0.162672
560,505,3.66223,-0.479797,0,0,0,0,0,0,0,-1,1784,519,3.66219,0.47982
567,505,4.65271,-0.950256,0,0,0,0,0,0,0,-1,1791,519,4.65274,0.95028
574,505,5.54443,-1.19977,0,0,0,0,0,0,0,-1,1798,519,5.54443,1.19974
581,505,0,0,0,0,0,0,0,0,0,-1,1805,519,0,0
588,505,0,0,0,0,0,0,0,0,0,-1,1812,519,0,0
595,505,0,0,0,0,0,0,0,0,0,-1,1819,519,0,0
602,505,0,0,0,0,0,0,0,0,0,-1,1826,519,0,0
609,505,0,0,0,0,0,0,0,0,0,-1,1833,519,0,0
616,505,0,0,0,0,0,0,0,0,0,-1,1840,519,0,0
623,505,0,0,0,0,0,0,0,0,0,-1,1847,519,0,0
630,505,0,0,0,0,0,0,0,0,0,-1,1854,519,0,0
637,505,0,0,0,0,0,0,0,0,0,-1,1861,519,0,0
644,505,0,0,0,0,0,0,0,0,0,-1,1868,519,0,0
651,505,0,0,0,0,0,0,0,0,0,-1,1875,519,0,0
658,505,0,0,0,0,0,0,0,0,0,-1,1882,519,0,0
665,505,0,0,0,0,0,0,0,0,0,-1,1889,519,0,0
672,505,0,0,0,0,0,0,0,0,0,-1,1896,519,0,0
679,505,0,0,0,0,0,0,0,0,0,-1,1903,519,0,0
686,505,0,0,0,0,0,0,0,0,0,-1,1910,519,0,0
693,505,0,0,0,0,0,0,0,0,0,-1,1917,519,0,0
700,505,0,0,0,0,0,0,0,0,0,-1,1924,519,0,0
707,505,0,0,0,0,0,0,0,0,0,-1,1931,519,0,0
714,505,0,0,0,0,0,0,0,0,0,-1,1938,519,0,0
721,505,0,0,0,0,0,0,0,0,0,-1,1945,519,0,0
728,505,0,0,0,0,0,0,0,0,0,-1,1952,519,0,0
735,505,0,0,0,0,0,0,0,0,0,-1,1959,519,0,0
742,505,0,0,0,0,0,0,0,0,0,-1,1966,519,0,0
749,505,0,0,0,0,0,0,0,0,0,-1,1973,519,0,0
756,505,0,0,0,0,0,0,0,0,0,-1,1980,519,0,0
763,505,0,0,0,0,0,0,0,0,0,-1,1987,519,0,0
770,505,0,0,0,0,0,0,0,0,0,-1,1994,519,0,0
777,505,0,0,0,0,0,0,0,0,0,-1,2001,519,0,0
784,505,0,0,0,0,0,0,0,0,0,-1,2008,519,0,0
791,505,0,0,0,0,0,0,0,0,0,-1,2015,519,0,0
798,505,0,0,0,0,0,0,0,0,0,-1,2022,519,0,0
805,505,0,0,0,0,0,0,0,0,0,-1,2029,519,0,0
812,505,0,0,0,0,0,0,0,0,0,-1,2036,519,0,0
-700,498,0,0,0,0,0,0,0,0,0,-1,524,526,0,0
-693,498,0,0,0,0,0,0,0,0,0,-1,531,526,0,0
-686,498,0,0,0,0,0,0,0,0,0,-1,538,526,0,0
-679,498,0,0,0,0,0,0,0,0,0,-1,545,526,0,0
-672,498,0,0,0,0,0,0,0,0,0,-1,552,526,0,0
-665,498,0,0,0,0,0,0,0,0,0,-1,559,526,0,0
-658,498,0,0,0,0,0,0,0,0,0,-1,566,526,0,0
-651,498,0,0,0,0,0,0,0,0,0,-1,573,526,0,0
-644,498,0,0,0,0,0,0,0,0,0,-1,580,526,0,0
-637,498,0,0,0,0,0,0,0,0,0,-1,587,526,0,0
-630,498,0,0,0,0,0,0,0,0,0,-1,594,526,0,0
-623,498,0,0,0,0,0,0,0,0,0,-1,601,526,0,0
-616,498,0,0,0,0,0,0,0,0,0,-1,608,526,0,0
-609,498,0,0,0,0,0,0,0,0,0,-1,615,526,0,0
-602,498,0,0,0,0,0,0,0,0,0,-1,622,526,0,0
-595,498,0,0,0,0,0,0,0,0,0,-1,629,526,0,0
-588,498,0,0,0,0,0,0,0,0,0,-1,636,526,0,0
-581,498,0,0,0,0,0,0,0,0,0,-1,643,526,0,0
-574,498,0,0,0,0,0,0,0,0,0,-1,650,526,0,0
-567,498,0,0,0,0,0,0,0,0,0,-1,657,526,0,0
-560,498,0,0,0,0,0,0,0,0,0,-1,664,526,0,0
-553,498,0,0,0,0,0,0,0,0,0,-1,671,526,0,0
-546,498,0,0,0,0,0,0,0,0,0,-1,678,526,0,0
-539,498,0,0,0,0,0,0,0,0,0,-1,685,526,0,0
-532,498,0,0,0,0,0,0,0,0,0,-1,692,526,0,0
-525,498,0,0,0,0,0,0,0,0,0,-1,699,526,0,0
-518,498,0,0,0,0,0,0,0,0,0,-1,706,526,0,0
-511,498,0,0,0,0,0,0,0,0,0,-1,713,526,0,0
-504,498,0,0,0,0,0,0,0,0,0,-1,720,526,0,0
-497,498,0,0,0,0,0,0,0,0,0,-1,727,526,0,0
-490,498,0,0,0,0,0,0,0,0,0,-1,734,526,0,0
-483,498,0,0,0,0,0,0,0,0,0,-1,741,526,0,0
-476,498,0,0,0,0,0,0,0,0,0,-1,748,526,0,0
-469,498,0,0,0,0,0,0,0,0,0,-1,755,526,0,0
-462,498,6.81024,1.15515,0,0,0,0,0,0,0,-1,762,526,6.81026,-1.15514
-455,498,3.25757,-3.0592,0,0,0,0,0,0,0,-1,769,526,3.25754,3.05921
-448,498,3.05939,-3.74298,0,0,0,0,0,0,0,-1,776,526,3.05939,3.74296
-441,498,2.77191,-6.08209,0,0,0,0,0,0,0,-1,783,526,2.77189,6.08207
-434,498,2.10681,-6.95929,0,0,0,0,0,0,0,-1,790,526,2.10682,6.9593
-427,498,-0.368042,-10.7726,0,0,0,0,0,0,0,-1,797,526,-0.36807,10.7726
-420,498,-1.05035,-10.5142,0,0,0,0,0,0,0,-1,804,526,-1.05034,10.5142
-413,498,-3.40436,-14.6376,0,0,0,0,0,0,0,-1,811,526,-3.40439,14.6376
-406,498,-3.30457,-15.603,-0.000474563,0.0241196,-0.0110193,0.0283344,-0.00468938,-1.20547,0.0206311,0.0496439,818,526,-3.30454,15.603
-399,498,-3.23157,-16.6366,-0.000706594,0.0200939,-0.00932372,0.0236614,-0.00427406,-1.20536,0.0173751,0.0286743,825,526,-3.23155,16.6366
-392,498,-3.29938,-17.4321,-0.000752852,0.0164737,-0.00778205,0.0194686,-0.00374771,-1.20343,0.0143919,0.0151047,832,526,-3.29937,17.4321
-385,498,-3.32343,-18.0893,-0.000502232,0.0132555,-0.00637389,0.0157546,-0.00300128,-1.19714,0.0116332,0.0100702,839,526,-3.32344,18.0893
-378,498,-3.34595,-18.7163,-0.000107979,0.0104631,-0.00517984,0.0125781,-0.00222295,-1.18315,0.00921618,0.0108043,846,526,-3.34597,18.7163
-371,498,-3.36493,-19.3381,0.000322946,0.00793126,-0.00418343,0.00978154,-0.00152734,-1.15437,0.00708523,0.0156117,853,526,-3.36493,19.3381
-364,498,-3.36249,-19.9561,0.000782828,0.00558471,-0.00322568,0.0072049,-0.000837362,-1.10533,0.00510533,0.0153002,860,526,-3.36251,19.9561
-357,498,-3.38184,-20.5413,0.00128125,0.00364443,-0.00239406,0.00513262,-0.000206934,-1.01464,0.00349277,0.0111656,867,526,-3.38181,20.5413
-350,498,-3.42206,-21.1286,0.00177637,0.00185798,-0.00166239,0.00348007,0.000154283,-0.797669,0.00227037,0.0120388,874,526,-3.42206,21.1286
-343,498,-3.44885,-21.7131,0.00226019,0.000445487,-0.0010972,0.00277661,-7.09363e-05,-0.439913,0.00187517,0.0125172,881,526,-3.44884,21.7132
-336,498,-3.47858,-22.3016,0.002747,-0.00078559,-0.000606688,0.00284829,-0.000886878,-0.165427,0.00225343,0.0150606,888,526,-3.47856,22.3017
-329,498,-3.47516,-22.8787,0.0033123,-0.0017794,-0.000286115,0.00332833,-0.00179542,-0.0559576,0.003002,0.0225976,895,526,-3.47516,22.8787
-322,498,-3.49945,-23.4628,0.00378532,-0.00232366,-6.8426e-06,0.00378533,-0.00232366,-0.00112009,0.00356052,0.0249247,902,526,-3.49946,23.4628
-315,498,-3.53009,-24.0422,0.00436595,-0.00287227,0.000115801,0.0043678,-0.00287412,0.0159931,0.00421066,0.0183465,909,526,-3.5301,24.0422
-308,498,-3.53351,-24.6029,0.00522312,-0.00331876,0.000132318,0.00522517,-0.00332081,0.0154856,0.00497469,0.0207883,916,526,-3.53353,24.6029
-301,498,-3.43701,-25.2008,0.00613835,-0.00345497,0.000112748,0.00613968,-0.00345629,0.0117506,0.00561198,0.0414607,923,526,-3.43699,25.2008
-294,498,-3.37195,-25.8024,0,0,0,0,0,0,0,-1,930,526,-3.37193,25.8024
-287,498,-0.91394,-13.4327,0,0,0,0,0,0,0,-1,937,526,-0.913935,13.4327
-280,498,-0.341614,-8.66608,0,0,0,0,0,0,0,-1,944,526,-0.341589,8.66606
-273,498,-0.988892,-8.62921,0,0,0,0,0,0,0,-1,951,526,-0.988906,8.62922
-266,498,0.362488,-6.33545,0,0,0,0,0,0,0,-1,958,526,0.362478,6.33547
-259,498,10.9454,-17.3615,0,0,0,0,0,0,0,-1,965,526,10.9454,17.3614
-252,498,8.56586,-14.6886,0,0,0,0,0,0,0,-1,972,526,8.56584,14.6886
-245,498,5.97382,-11.928,0,0,0,0,0,0,0,-1,979,526,5.97381,11.928
-238,498,2.24841,-13.8145,0,0,0,0,0,0,0,-1,986,526,2.24838,13.8145
-231,498,0.665894,-10.4898,0,0,0,0,0,0,0,-1,993,526,0.665863,10.4898
-224,498,-2.11243,-4.76312,0,0,0,0,0,0,0,-1,1000,526,-2.11245,4.76314
-217,498,-3.82239,-1.42841,0,0,0,0,0,0,0,-1,1007,526,-3.82241,1.42843
-210,498,-1.80591,-0.358215,0,0,0,0,0,0,0,-1,1014,526,-1.8059,0.3582
-203,498,-3.17316,1.06641,0,0,0,0,0,0,0,-1,1021,526,-3.17313,-1.0664
-196,498,-0.103271,5.40527,0,0,0,0,0,0,0,-1,1028,526,-0.103285,-5.40528
-189,498,3.00256,6.47137,0,0,0,0,0,0,0,-1,1035,526,3.00256,-6.47139
-182,498,0,0,0,0,0,0,0,0,0,-1,1042,526,0,0
-175,498,0,0,0,0,0,0,0,0,0,-1,1049,526,0,0
-168,498,0,0,0,0,0,0,0,0,0,-1,1056,526,0,0
-161,498,0,0,0,0,0,0,0,0,0,-1,1063,526,0,0
-154,498,0,0,0,0,0,0,0,0,0,-1,1070,526,0,0
-147,498,0,0,0,0,0,0,0,0,0,-1,1077,526,0,0
-140,498,0,0,0,0,0,0,0,0,0,-1,1084,526,0,0
-133,498,0,0,0,0,0,0,0,0,0,-1,1091,526,0,0
-126,498,0,0,0,0,0,0,0,0,0,-1,1098,526,0,0
-119,498,0,0,0,0,0,0,0,0,0,-1,1105,526,0,0
-112,498,0,0,0,0,0,0,0,0,0,-1,1112,526,0,0
-105,498,0,0,0,0,0,0,0,0,0,-1,1119,526,0,0
-98,498,0,0,0,0,0,0,0,0,0,-1,1126,526,0,0
-91,498,0,0,0,0,0,0,0,0,0,-1,1133,526,0,0
-84,498,0,0,0,0,0,0,0,0,0,-1,1140,526,0,0
-77,498,0,0,0,0,0,0,0,0,0,-1,1147,526,0,0
-70,498,0,0,0,0,0,0,0,0,0,-1,1154,526,0,0
-63,498,0,0,0,0,0,0,0,0,0,-1,1161,526,0,0
-56,498,0,0,0,0,0,0,0,0,0,-1,1168,526,0,0
-49,498,0,0,0,0,0,0,0,0,0,-1,1175,526,0,0
-42,498,0,0,0,0,0,0,0,0,0,-1,1182,526,0,0
-35,498,0,0,0,0,0,0,0,0,0,-1,1189,526,0,0
-28,498,0,0,0,0,0,0,0,0,0,-1,1196,526,0,0
-21,498,0,0,0,0,0,0,0,0,0,-1,1203,526,0,0
-14,498,0,0,0,0,0,0,0,0,0,-1,1210,526,0,0
-7,498,0,0,0,0,0,0,0,0,0,-1,1217,526,0,0
0,498,0,0,0,0,0,0,0,0,0,-1,1224,526,0,0
7,498,0,0,0,0,0,0,0,0,0,-1,1231,526,0,0
14,498,0,0,0,0,0,0,0,0,0,-1,1238,526,0,0
21,498,0,0,0,0,0,0,0,0,0,-1,1245,526,0,0
28,498,0,0,0,0,0,0,0,0,0,-1,1252,526,0,0
35,498,0,0,0,0,0,0,0,0,0,-1,1259,526,0,0
42,498,0,0,0,0,0,0,0,0,0,-1,1266,526,0,0
49,498,0,0,0,0,0,0,0,0,0,-1,1273,526,0,0
56,498,0,0,0,0,0,0,0,0,0,-1,1280,526,0,0
63,498,0,0,0,0,0,0,0,0,0,-1,1287,526,0,0
70,498,0,0,0,0,0,0,0,0,0,-1,1294,526,0,0
77,498,0,0,0,0,0,0,0,0,0,-1,1301,526,0,0
84,498,0,0,0,0,0,0,0,0,0,-1,1308,526,0,0
91,498,0,0,0,0,0,0,0,0,0,-1,1315,526,0,0
98,498,0,0,0,0,0,0,0,0,0,-1,1322,526,0,0
105,498,0,0,0,0,0,0,0,0,0,-1,1329,526,0,0
112,498,0,0,0,0,0,0,0,0,0,-1,1336,526,0,0
119,498,0,0,0,0,0,0,0,0,0,-1,1343,526,0,0
126,498,0,0,0,0,0,0,0,0,0,-1,1350,526,0,0
133,498,0,0,0,0,0,0,0,0,0,-1,1357,526,0,0
140,498,0,0,0,0,0,0,0,0,0,-1,1364,526,0,0
147,498,0,0,0,0,0,0,0,0,0,-1,1371,526,0,0
154,498,0,0,0,0,0,0,0,0,0,-1,1378,526,0,0
161,498,0,0,0,0,0,0,0,0,0,-1,1385,526,0,0
168,498,0,0,0,0,0,0,0,0,0,-1,1392,526,0,0
175,498,0,0,0,0,0,0,0,0,0,-1,1399,526,0,0
182,498,0,0,0,0,0,0,0,0,0,-1,1406,526,0,0
189,498,0,0,0,0,0,0,0,0,0,-1,1413,526,0,0
196,498,0,0,0,0,0,0,0,0,0,-1,1420,526,0,0
203,498,0,0,0,0,0,0,0,0,0,-1,1427,526,0,0
210,498,0,0,0,0,0,0,0,0,0,-1,1434,526,0,0
217,498,0,0,0,0,0,0,0,0,0,-1,1441,526,0,0
224,498,0,0,0,0,0,0,0,0,0,-1,1448,526,0,0
231,498,0,0,0,0,0,0,0,0,0,-1,1455,526,0,0
238,498,0,0,0,0,0,0,0,0,0,-1,1462,526,0,0
245,498,0,0,0,0,0,0,0,0,0,-1,1469,526,0,0
252,498,0,0,0,0,0,0,0,0,0,-1,1476,526,0,0
259,498,0,0,0,0,0,0,0,0,0,-1,1483,526,0,0
266,498,0,0,0,0,0,0,0,0,0,-1,1490,526,0,0
273,498,0,0,0,0,0,0,0,0,0,-1,1497,526,0,0
280,498,0,0,0,0,0,0,0,0,0,-1,1504,526,0,0
287,498,0,0,0,0,0,0,0,0,0,-1,1511,526,0,0
294,498,0,0,0,0,0,0,0,0,0,-1,1518,526,0,0
301,498,0,0,0,0,0,0,0,0,0,-1,1525,526,0,0
308,498,4.77942,-0.293884,0,0,0,0,0,0,0,-1,1532,526,4.77939,0.293899
315,498,4.56091,-0.564148,0,0,0,0,0,0,0,-1,1539,526,4.56097,0.564142
322,498,4.52344,-0.447266,0,0,0,0,0,0,0,-1,1546,526,4.52341,0.447295
329,498,4.63232,-0.156982,0,0,0,0,0,0,0,-1,1553,526,4.63238,0.156991
336,498,5.22644,0.0925903,0,0,0,0,0,0,0,-1,1560,526,5.22648,-0.0926188
343,498,6.22607,-1.67615,0,0,0,0,0,0,0,-1,1567,526,6.22605,1.67617
350,498,6.19373,-1.59906,0,0,0,0,0,0,0,-1,1574,526,6.19367,1.59906
357,498,6.21472,-1.58929,0,0,0,0,0,0,0,-1,1581,526,6.21476,1.58927
364,498,5.73547,-1.2019,0,0,0,0,0,0,0,-1,1588,526,5.73547,1.20192
371,498,3.27087,-4.55334,0,0,0,0,0,0,0,-1,1595,526,3.27089,4.55332
378,498,8.42944,-4.70624,0,0,0,0,0,0,0,-1,1602,526,8.42942,4.70624
385,498,4.7793,-5.15314,0,0,0,0,0,0,0,-1,1609,526,4.77935,5.15311
392,498,9.12439,-8.57953,0,0,0,0,0,0,0,-1,1616,526,9.12443,8.57955
399,498,7.98938,-9.46021,0,0,0,0,0,0,0,-1,1623,526,7.98936,9.4602
406,498,7.58081,-9.26819,0,0,0,0,0,0,0,-1,1630,526,7.58085,9.26817
413,498,7.17236,-9.07611,0,0,0,0,0,0,0,-1,1637,526,7.17234,9.07614
420,498,11.4314,-16.1147,0,0,0,0,0,0,0,-1,1644,526,11.4313,16.1147
427,498,14.3909,-24.4684,0,0,0,0,0,0,0,-1,1651,526,14.3909,24.4684
434,498,14.4064,-23.6827,0.00207717,0.00378349,9.91607e-05,0.00378923,0.00207142,1.51294,0.00219089,0.040454,1658,526,14.4064,23.6827
441,498,14.5146,-23.0248,0.00182153,0.00354004,0.000261927,0.00357908,0.00178249,1.42286,0.00206639,0.0137094,1665,526,14.5146,23.0248
448,498,14.5387,-22.394,0.00182893,0.00313189,0.000418961,0.00325498,0.00170585,1.28504,0.00187999,0.00983999,1672,526,14.5387,22.394
455,498,14.5011,-21.7997,0.00182457,0.002906,0.000584996,0.0031619,0.00156867,1.15844,0.00182554,0.0139866,1679,526,14.5011,21.7997
462,498,14.4744,-21.217,0.00171382,0.00249262,0.000588676,0.00280903,0.0013974,1.0776,0.0016218,0.0160418,1686,526,14.4744,21.217
469,498,14.4409,-20.6055,0.00168585,0.00216252,0.000696824,0.00266064,0.00118773,0.950175,0.00153906,0.0132254,1693,526,14.4409,20.6055
476,498,14.4364,-19.9987,0.00171266,0.00167807,0.000918777,0.00261431,0.000776429,0.775987,0.00155029,0.0102237,1700,526,14.4363,19.9987
483,498,14.417,-19.4028,0.00176235,0.0010303,0.00113983,0.00259348,0.000199173,0.630038,0.00166657,0.00892291,1707,526,14.417,19.4028
490,498,14.3888,-18.7692,0.00173571,0.000278252,0.00137195,0.00256046,-0.000546495,0.541265,0.0019153,0.0106048,1714,526,14.3887,18.7692
497,498,14.3761,-18.1069,0.00171863,-0.000633324,0.00168614,0.00259837,-0.00151307,0.480897,0.00240115,0.0116316,1721,526,14.3761,18.1069
504,498,14.3672,-17.459,0.00168976,-0.00175737,0.00201458,0.00261746,-0.00268507,0.431545,0.0030615,0.0139313,1728,526,14.3672,17.459
511,498,14.3206,-16.8194,0.00154952,-0.00304836,0.00229456,0.00249868,-0.00399751,0.392222,0.00378371,0.0153628,1735,526,14.3205,16.8194
518,498,14.3296,-16.1718,0.0012074,-0.00447457,0.00245427,0.0021207,-0.00538787,0.356249,0.00446978,0.0165567,1742,526,14.3296,16.1718
525,498,14.2261,-15.5422,0.000730524,-0.00605697,0.00252713,0.00156807,-0.00689452,0.320031,0.00519848,0.0263334,1749,526,14.226,15.5422
532,498,14.0792,-14.9313,0.000147463,-0.00766946,0.00249866,0.000877901,-0.00839989,0.284407,0.00591432,0.0434661,1756,526,14.0792,14.9314
539,498,14.1239,-14.309,0,0,0,0,0,0,0,-1,1763,526,14.1239,14.309
546,498,10.2014,-8.47589,0,0,0,0,0,0,0,-1,1770,526,10.2014,8.47589
553,498,5.93958,-1.71448,0,0,0,0,0,0,0,-1,1777,526,5.93956,1.71447
560,498,3.69385,-0.615112,0,0,0,0,0,0,0,-1,1784,526,3.69381,0.615118
567,498,5.12695,-0.581604,0,0,0,0,0,0,0,-1,1791,526,5.12699,0.58159
574,498,3.88,0.0286255,0,0,0,0,0,0,0,-1,1798,526,3.87999,-0.0286535
581,498,10.8722,2.58551,0,0,0,0,0,0,0,-1,1805,526,10.8723,-2.58551
588,498,0,0,0,0,0,0,0,0,0,-1,1812,526,0,0
595,498,0,0,0,0,0,0,0,0,0,-1,1819,526,0,0
602,498,0,0,0,0,0,0,0,0,0,-1,1826,526,0,0
609,498,0,0,0,0,0,0,0,0,0,-1,1833,526,0,0
616,498,0,0,0,0,0,0,0,0,0,-1,1840,526,0,0
623,498,0,0,0,0,0,0,0,0,0,-1,1847,526,0,0
630,498,0,0,0,0,0,0,0,0,0,-1,1854,526,0,0
637,498,0,0,0,0,0,0,0,0,0,-1,1861,526,0,0
644,498,0,0,0,0,0,0,0,0,0,-1,1868,526,0,0
651,498,0,0,0,0,0,0,0,0,0,-1,1875,526,0,0
658,498,0,0,0,0,0,0,0,0,0,-1,1882,526,0,0
665,498,0,0,0,0,0,0,0,0,0,-1,1889,526,0,0
672,498,0,0,0,0,0,0,0,0,0,-1,1896,526,0,0
679,498,0,0,0,0,0,0,0,0,0,-1,1903,526,0,0
686,498,0,0,0,0,0,0,0,0,0,-1,1910,526,0,0
693,498,0,0,0,0,0,0,0,0,0,-1,1917,526,0,0
700,498,0,0,0,0,0,0,0,0,0,-1,1924,526,0,0
707,498,0,0,0,0,0,0,0,0,0,-1,1931,526,0,0
714,498,0,0,0,0,0,0,0,0,0,-1,1938,526,0,0
721,498,0,0,0,0,0,0,0,0,0,-1,1945,526,0,0
728,498,0,0,0,0,0,0,0,0,0,-1,1952,526,0,0
735,498,0,0,0,0,0,0,0,0,0,-1,1959,526,0,0
742,498,0,0,0,0,0,0,0,0,0,-1,1966,526,0,0
749,498,0,0,0,0,0,0,0,0,0,-1,1973,526,0,0
756,498,0,0,0,0,0,0,0,0,0,-1,1980,526,0,0
763,498,0,0,0,0,0,0,0,0,0,-1,1987,526,0,0
770,498,0,0,0,0,0,0,0,0,0,-1,1994,526,0,0
777,498,0,0,0,0,0,0,0,0,0,-1,2001,526,0,0
784,498,0,0,0,0,0,0,0,0,0,-1,2008,526,0,0
791,498,0,0,0,0,0,0,0,0,0,-1,2015,526,0,0
798,498,0,0,0,0,0,0,0,0,0,-1,2022,526,0,0
805,498,0,0,0,0,0,0,0,0,0,-1,2029,526,0,0
812,498,0,0,0,0,0,0,0,0,0,-1,2036,526,0,0
-700,491,0,0,0,0,0,0,0,0,0,-1,524,533,0,0
-693,491,0,0,0,0,0,0,0,0,0,-1,531,533,0,0
-686,491,0,0,0,0,0,0,0,0,0,-1,538,533,0,0
-679,491,0,0,0,0,0,0,0,0,0,-1,545,533,0,0
-672,491,0,0,0,0,0,0,0,0,0,-1,552,533,0,0
-665,491,0,0,0,0,0,0,0,0,0,-1,559,533,0,0
-658,491,0,0,0,0,0,0,0,0,0,-1,566,533,0,0
-651,491,0,0,0,0,0,0,0,0,0,-1,573,533,0,0
-644,491,0,0,0,0,0,0,0,0,0,-1,580,533,0,0
-637,491,0,0,0,0,0,0,0,0,0,-1,587,533,0,0
-630,491,0,0,0,0,0,0,0,0,0,-1,594,533,0,0
-623,491,0,0,0,0,0,0,0,0,0,-1,601,533,0,0
-616,491,0,0,0,0,0,0,0,0,0,-1,608,533,0,0
-609,491,0,0,0,0,0,0,0,0,0,-1,615,533,0,0
-602,491,0,0,0,0,0,0,0,0,0,-1,622,533,0,0
-595,491,0,0,0,0,0,0,0,0,0,-1,629,533,0,0
-588,491,0,0,0,0,0,0,0,0,0,-1,636,533,0,0
-581,491,0,0,0,0,0,0,0,0,0,-1,643,533,0,0
-574,491,0,0,0,0,0,0,0,0,0,-1,650,533,0,0
-567,491,0,0,0,0,0,0,0,0,0,-1,657,533,0,0
-560,491,0,0,0,0,0,0,0,0,0,-1,664,533,0,0
-553,491,0,0,0,0,0,0,0,0,0,-1,671,533,0,0
-546,491,0,0,0,0,0,0,0,0,0,-1,678,533,0,0
-539,491,0,0,0,0,0,0,0,0,0,-1,685,533,0,0
-532,491,0,0,0,0,0,0,0,0,0,-1,692,533,0,0
-525,491,0,0,0,0,0,0,0,0,0,-1,699,533,0,0
-518,491,0,0,0,0,0,0,0,0,0,-1,706,533,0,0
-511,491,0,0,0,0,0,0,0,0,0,-1,713,533,0,0
-504,491,0,0,0,0,0,0,0,0,0,-1,720,533,0,0
-497,491,0,0,0,0,0,0,0,0,0,-1,727,533,0,0
-490,491,0,0,0,0,0,0,0,0,0,-1,734,533,0,0
-483,491,0,0,0,0,0,0,0,0,0,-1,741,533,0,0
-476,491,0,0,0,0,0,0,0,0,0,-1,748,533,0,0
-469,491,-5.85913,4.55011,0,0,0,0,0,0,0,-1,755,533,-5.8591,-4.55009
-462,491,-9.93713,4.90381,0,0,0,0,0,0,0,-1,762,533,-9.93716,-4.9038
-455,491,1.9494,-0.27887,0,0,0,0,0,0,0,-1,769,533,1.94941,0.27885
-448,491,2.68909,-1.8999,0,0,0,0,0,0,0,-1,776,533,2.6891,1.89988
-441,491,3.46069,-3.51855,0,0,0,0,0,0,0,-1,783,533,3.46071,3.51854
-434,491,2.67145,-7.44061,0,0,0,0,0,0,0,-1,790,533,2.67146,7.44061
-427,491,2.27136,-8.34546,0,0,0,0,0,0,0,-1,797,533,2.27136,8.34546
-420,491,-3.50403,-13.9624,0,0,0,0,0,0,0,-1,804,533,-3.50403,13.9624
-413,491,-3.84839,-15.5164,0,0,0,0,0,0,0,-1,811,533,-3.84837,15.5163
-406,491,-3.79883,-16.1281,9.98988e-06,0.0186705,-0.00863067,0.0220502,-0.00336967,-1.19756,0.0159425,0.0254597,818,533,-3.7988,16.1281
-399,491,-3.83173,-16.8502,-0.000197281,0.0154492,-0.00727307,0.0183078,-0.00305582,-1.19631,0.013341,0.0130854,825,533,-3.8317,16.8502
-392,491,-3.9054,-17.4861,-0.000187964,0.0124931,-0.00602067,0.0148962,-0.00259105,-1.19103,0.0108976,0.0115665,832,533,-3.90538,17.4861
-385,491,-3.92645,-18.0915,0.00011973,0.00983831,-0.0048904,0.0118731,-0.00191509,-1.1765,0.00862495,0.00986239,839,533,-3.92646,18.0915
-378,491,-3.94263,-18.6913,0.000545193,0.00750576,-0.0039061,0.0092571,-0.00120615,-1.1493,0.00661024,0.0138304,846,533,-3.94265,18.6913
-371,491,-3.96332,-19.2974,0.00100104,0.00535236,-0.00307734,0.00694546,-0.000592058,-1.0931,0.00483974,0.0142354,853,533,-3.9633,19.2974
-364,491,-3.96777,-19.903,0.00149801,0.00333066,-0.00227546,0.00486736,-3.8699e-05,-0.976814,0.00325789,0.0132023,860,533,-3.96779,19.903
-357,491,-3.9906,-20.4976,0.00206691,0.00166698,-0.00159309,0.00347253,0.000261351,-0.722964,0.00223301,0.011963,867,533,-3.99063,20.4975
-350,491,-4.01019,-21.0728,0.00268161,0.000204537,-0.00105045,0.00306708,-0.000180939,-0.351706,0.00210763,0.0151505,874,533,-4.01017,21.0727
-343,491,-4.01941,-21.6633,0.00326793,-0.00100178,-0.000626246,0.00335789,-0.00109174,-0.142669,0.00267775,0.0228031,881,533,-4.01942,21.6633
-336,491,-4.04138,-22.2477,0.00385929,-0.00209922,-0.000259747,0.00387059,-0.00211053,-0.0434826,0.00350268,0.0224515,888,533,-4.0414,22.2478
-329,491,-4.05701,-22.8299,0.00456211,-0.002995,-4.69495e-05,0.00456241,-0.00299529,-0.0062123,0.00439459,0.0252778,895,533,-4.05702,22.8299
-322,491,-4.10352,-23.3958,0.00516205,-0.00324002,0.000126623,0.00516396,-0.00324193,0.0150658,0.00489525,0.0237456,902,533,-4.10354,23.3958
-315,491,-4.13062,-23.9297,0.00591583,-0.00369504,8.49381e-05,0.00591658,-0.00369579,0.00883679,0.00559886,0.0203049,909,533,-4.1306,23.9297
-308,491,-4.07977,-24.6931,0,0,0,0,0,0,0,-1,916,533,-4.07979,24.6931
-301,491,-4.00989,-25.6141,0,0,0,0,0,0,0,-1,923,533,-4.00987,25.6141
-294,491,-0.777283,-8.60913,0,0,0,0,0,0,0,-1,930,533,-0.777288,8.6091
-287,491,-0.26123,-8.69055,0,0,0,0,0,0,0,-1,937,533,-0.261204,8.69053
-280,491,0.2948,-5.99219,0,0,0,0,0,0,0,-1,944,533,0.294811,5.99221
-273,491,0.369995,-5.33691,0,0,0,0,0,0,0,-1,951,533,0.369985,5.33693
-266,491,1.1167,-5.0321,0,0,0,0,0,0,0,-1,958,533,1.11668,5.0321
-259,491,12.0862,-16.9615,0,0,0,0,0,0,0,-1,965,533,12.0862,16.9615
-252,491,9.72443,-13.8417,0,0,0,0,0,0,0,-1,972,533,9.72444,13.8418
-245,491,5.27258,-14.3619,0,0,0,0,0,0,0,-1,979,533,5.27255,14.3619
-238,491,3.65381,-11.1472,0,0,0,0,0,0,0,-1,986,533,3.6538,11.1472
-231,491,2.17719,-7.86835,0,0,0,0,0,0,0,-1,993,533,2.17719,7.86832
-224,491,0.554626,-4.61725,0,0,0,0,0,0,0,-1,1000,533,0.554608,4.61727
-217,491,-2.92743,-1.0766,0,0,0,0,0,0,0,-1,1007,533,-2.92743,1.07659
-210,491,-0.92395,0.374512,0,0,0,0,0,0,0,-1,1014,533,-0.923959,-0.374531
-203,491,0.417419,4.77161,0,0,0,0,0,0,0,-1,1021,533,0.417446,-4.77162
-196,491,0,0,0,0,0,0,0,0,0,-1,1028,533,0,0
-189,491,0,0,0,0,0,0,0,0,0,-1,1035,533,0,0
-182,491,0,0,0,0,0,0,0,0,0,-1,1042,533,0,0
-175,491,0,0,0,0,0,0,0,0,0,-1,1049,533,0,0
-168,491,0,0,0,0,0,0,0,0,0,-1,1056,533,0,0
-161,491,0,0,0,0,0,0,0,0,0,-1,1063,533,0,0
-154,491,0,0,0,0,0,0,0,0,0,-1,1070,533,0,0
-147,491,0,0,0,0,0,0,0,0,0,-1,1077,533,0,0
-140,491,0,0,0,0,0,0,0,0,0,-1,1084,533,0,0
-133,491,0,0,0,0,0,0,0,0,0,-1,1091,533,0,0
-126,491,0,0,0,0,0,0,0,0,0,-1,1098,533,0,0
-119,491,0,0,0,0,0,0,0,0,0,-1,1105,533,0,0
-112,491,0,0,0,0,0,0,0,0,0,-1,1112,533,0,0
-105,491,0,0,0,0,0,0,0,0,0,-1,1119,533,0,0
-98,491,0,0,0,0,0,0,0,0,0,-1,1126,533,0,0
-91,491,0,0,0,0,0,0,0,0,0,-1,1133,533,0,0
-84,491,0,0,0,0,0,0,0,0,0,-1,1140,533,0,0
-77,491,0,0,0,0,0,0,0,0,0,-1,1147,533,0,0
-70,491,0,0,0,0,0,0,0,0,0,-1,1154,533,0,0
-63,491,0,0,0,0,0,0,0,0,0,-1,1161,533,0,0
-56,491,0,0,0,0,0,0,0,0,0,-1,1168,533,0,0
-49,491,0,0,0,0,0,0,0,0,0,-1,1175,533,0,0
-42,491,0,0,0,0,0,0,0,0,0,-1,1182,533,0,0
-35,491,0,0,0,0,0,0,0,0,0,-1,1189,533,0,0
-28,491,0,0,0,0,0,0,0,0,0,-1,1196,533,0,0
-21,491,0,0,0,0,0,0,0,0,0,-1,1203,533,0,0
-14,491,0,0,0,0,0,0,0,0,0,-1,1210,533,0,0
-7,491,0,0,0,0,0,0,0,0,0,-1,1217,533,0,0
0,491,0,0,0,0,0,0,0,0,0,-1,1224,533,0,0
7,491,0,0,0,0,0,0,0,0,0,-1,1231,533,0,0
14,491,0,0,0,0,0,0,0,0,0,-1,1238,533,0,0
21,491,0,0,0,0,0,0,0,0,0,-1,1245,533,0,0
28,491,0,0,0,0,0,0,0,0,0,-1,1252,533,0,0
35,491,0,0,0,0,0,0,0,0,0,-1,1259,533,0,0
42,491,0,0,0,0,0,0,0,0,0,-1,1266,533,0,0
49,491,0,0,0,0,0,0,0,0,0,-1,1273,533,0,0
56,491,0,0,0,0,0,0,0,0,0,-1,1280,533,0,0
63,491,0,0,0,0,0,0,0,0,0,-1,1287,533,0,0
70,491,0,0,0,0,0,0,0,0,0,-1,1294,533,0,0
77,491,0,0,0,0,0,0,0,0,0,-1,1301,533,0,0
84,491,0,0,0,0,0,0,0,0,0,-1,1308,533,0,0
91,491,0,0,0,0,0,0,0,0,0,-1,1315,533,0,0
98,491,0,0,0,0,0,0,0,0,0,-1,1322,533,0,0
105,491,0,0,0,0,0,0,0,0,0,-1,1329,533,0,0
112,491,0,0,0,0,0,0,0,0,0,-1,1336,533,0,0
119,491,0,0,0,0,0,0,0,0,0,-1,1343,533,0,0
126,491,0,0,0,0,0,0,0,0,0,-1,1350,533,0,0
133,491,0,0,0,0,0,0,0,0,0,-1,1357,533,0,0
140,491,0,0,0,0,0,0,0,0,0,-1,1364,533,0,0
147,491,0,0,0,0,0,0,0,0,0,-1,1371,533,0,0
154,491,0,0,0,0,0,0,0,0,0,-1,1378,533,0,0
161,491,0,0,0,0,0,0,0,0,0,-1,1385,533,0,0
168,491,0,0,0,0,0,0,0,0,0,-1,1392,533,0,0
175,491,0,0,0,0,0,0,0,0,0,-1,1399,533,0,0
182,491,0,0,0,0,0,0,0,0,0,-1,1406,533,0,0
189,491,0,0,0,0,0,0,0,0,0,-1,1413,533,0,0
196,491,0,0,0,0,0,0,0,0,0,-1,1420,533,0,0
203,491,0,0,0,0,0,0,0,0,0,-1,1427,533,0,0
210,491,0,0,0,0,0,0,0,0,0,-1,1434,533,0,0
217,491,0,0,0,0,0,0,0,0,0,-1,1441,533,0,0
224,491,0,0,0,0,0,0,0,0,0,-1,1448,533,0,0
231,491,0,0,0,0,0,0,0,0,0,-1,1455,533,0,0
238,491,0,0,0,0,0,0,0,0,0,-1,1462,533,0,0
245,491,0,0,0,0,0,0,0,0,0,-1,1469,533,0,0
252,491,0,0,0,0,0,0,0,0,0,-1,1476,533,0,0
259,491,0,0,0,0,0,0,0,0,0,-1,1483,533,0,0
266,491,0,0,0,0,0,0,0,0,0,-1,1490,533,0,0
273,491,0,0,0,0,0,0,0,0,0,-1,1497,533,0,0
280,491,0,0,0,0,0,0,0,0,0,-1,1504,533,0,0
287,491,0,0,0,0,0,0,0,0,0,-1,1511,533,0,0
294,491,0,0,0,0,0,0,0,0,0,-1,1518,533,0,0
301,491,0,0,0,0,0,0,0,0,0,-1,1525,533,0,0
308,491,0,0,0,0,0,0,0,0,0,-1,1532,533,0,0
315,491,0,0,0,0,0,0,0,0,0,-1,1539,533,0,0
322,491,4.26331,-0.734314,0,0,0,0,0,0,0,-1,1546,533,4.26326,0.734324
329,491,4.25354,-0.783752,0,0,0,0,0,0,0,-1,1553,533,4.25359,0.783734
336,491,4.81604,-0.722107,0,0,0,0,0,0,0,-1,1560,533,4.81605,0.722115
343,491,6.14478,-1.44281,0,0,0,0,0,0,0,-1,1567,533,6.14474,1.44281
350,491,6.36353,-1.30792,0,0,0,0,0,0,0,-1,1574,533,6.36352,1.3079
357,491,6.69482,-1.06018,0,0,0,0,0,0,0,-1,1581,533,6.69489,1.06018
364,491,8.01086,-1.69604,0,0,0,0,0,0,0,-1,1588,533,8.01087,1.69607
371,491,8.2135,-0.539307,0,0,0,0,0,0,0,-1,1595,533,8.21348,0.53929
378,491,13.3589,2.17267,0,0,0,0,0,0,0,-1,1602,533,13.3589,-2.17264
385,491,8.08228,-4.95471,0,0,0,0,0,0,0,-1,1609,533,8.08227,4.95474
392,491,2.88721,-4.30988,0,0,0,0,0,0,0,-1,1616,533,2.88716,4.30986
399,491,8.95862,-8.55518,0,0,0,0,0,0,0,-1,1623,533,8.95864,8.55516
406,491,8.16541,-9.00806,0,0,0,0,0,0,0,-1,1630,533,8.16535,9.00807
413,491,5.31848,-3.7124,0,0,0,0,0,0,0,-1,1637,533,5.31849,3.7124
420,491,4.86389,-3.95892,0,0,0,0,0,0,0,-1,1644,533,4.86387,3.95893
427,491,11.5096,-15.2742,0,0,0,0,0,0,0,-1,1651,533,11.5096,15.2742
434,491,14.9598,-23.699,0,0,0,0,0,0,0,-1,1658,533,14.9599,23.699
441,491,15.1722,-23.1357,0,0,0,0,0,0,0,-1,1665,533,15.1722,23.1358
448,491,15.1261,-22.4531,0.00209166,0.00391225,0.000581475,0.00408212,0.0019218,1.28657,0.00235815,0.0344417,1672,533,15.1261,22.4531
455,491,15.106,-21.7953,0.00199617,0.00351806,0.000571707,0.0037089,0.00180533,1.24863,0.00214158,0.0189912,1679,533,15.106,21.7954
462,491,15.1072,-21.1884,0.00179445,0.00301966,0.000441975,0.00316245,0.00165165,1.2583,0.00182645,0.0154902,1686,533,15.1072,21.1883
469,491,15.0637,-20.5839,0.00168114,0.00269612,0.000435304,0.00285724,0.00152003,1.2163,0.00165075,0.0147486,1693,533,15.0637,20.5839
476,491,15.0612,-19.9692,0.00165276,0.00232121,0.000570761,0.0026484,0.00132557,1.05027,0.00152906,0.0106971,1700,533,15.0612,19.9692
483,491,15.0458,-19.3603,0.00165077,0.00171554,0.000745711,0.00242957,0.000936739,0.807098,0.00141491,0.0125939,1707,533,15.0458,19.3603
490,491,15.0164,-18.7606,0.00154437,0.00110092,0.000917019,0.00226609,0.0003792,0.666779,0.00140153,0.0107205,1714,533,15.0164,18.7606
497,491,14.9937,-18.1035,0.00143838,0.000366454,0.00118008,0.00219851,-0.000393672,0.572238,0.00161299,0.0107792,1721,533,14.9936,18.1035
504,491,14.9908,-17.4428,0.00132718,-0.000522282,0.00145813,0.00212908,-0.00132419,0.502808,0.00201172,0.0129542,1728,533,14.9908,17.4428
511,491,14.9479,-16.8076,0.0011046,-0.0015016,0.00169447,0.00193909,-0.00233609,0.457612,0.00247182,0.0129122,1735,533,14.9478,16.8076
518,491,14.8993,-16.2049,0.000690117,-0.00254453,0.00181012,0.00150019,-0.00335461,0.420794,0.00287027,0.0102614,1742,533,14.8993,16.2049
525,491,14.8923,-15.5621,0.000187718,-0.00367779,0.00186536,0.00094106,-0.00443114,0.383828,0.00331264,0.0103631,1749,533,14.8923,15.5621
532,491,14.8865,-14.9207,-0.000364596,-0.00473602,0.00186116,0.000320453,-0.00542107,0.352686,0.00372546,0.0219168,1756,533,14.8865,14.9207
539,491,14.7583,-14.3618,-0.00100242,-0.00568893,0.00175617,-0.000417374,-0.00627398,0.321577,0.00405071,0.0408836,1763,533,14.7583,14.3617
546,491,14.5153,-13.5746,0,0,0,0,0,0,0,-1,1770,533,14.5152,13.5746
553,491,10.5021,-7.77869,0,0,0,0,0,0,0,-1,1777,533,10.502,7.77871
560,491,6.28455,-1.43585,0,0,0,0,0,0,0,-1,1784,533,6.28458,1.43586
567,491,5.67651,-1.3562,0,0,0,0,0,0,0,-1,1791,533,5.67649,1.3562
574,491,8.0719,1.58325,0,0,0,0,0,0,0,-1,1798,533,8.07195,-1.58326
581,491,9.44812,1.60931,0,0,0,0,0,0,0,-1,1805,533,9.44808,-1.60933
588,491,11.0497,1.54962,0,0,0,0,0,0,0,-1,1812,533,11.0496,-1.54963
595,491,0,0,0,0,0,0,0,0,0,-1,1819,533,0,0
602,491,0,0,0,0,0,0,0,0,0,-1,1826,533,0,0
609,491,0,0,0,0,0,0,0,0,0,-1,1833,533,0,0
616,491,0,0,0,0,0,0,0,0,0,-1,1840,533,0,0
623,491,0,0,0,0,0,0,0,0,0,-1,1847,533,0,0
630,491,0,0,0,0,0,0,0,0,0,-1,1854,533,0,0
637,491,0,0,0,0,0,0,0,0,0,-1,1861,533,0,0
644,491,0,0,0,0,0,0,0,0,0,-1,1868,533,0,0
651,491,0,0,0,0,0,0,0,0,0,-1,1875,533,0,0
658,491,0,0,0,0,0,0,0,0,0,-1,1882,533,0,0
665,491,0,0,0,0,0,0,0,0,0,-1,1889,533,0,0
672,491,0,0,0,0,0,0,0,0,0,-1,1896,533,0,0
679,491,0,0,0,0,0,0,0,0,0,-1,1903,533,0,0
686,491,0,0,0,0,0,0,0,0,0,-1,1910,533,0,0
693,491,0,0,0,0,0,0,0,0,0,-1,1917,533,0,0
700,491,0,0,0,0,0,0,0,0,0,-1,1924,533,0,0
707,491,0,0,0,0,0,0,0,0,0,-1,1931,533,0,0
714,491,0,0,0,0,0,0,0,0,0,-1,1938,533,0,0
721,491,0,0,0,0,0,0,0,0,0,-1,1945,533,0,0
728,491,0,0,0,0,0,0,0,0,0,-1,1952,533,0,0
735,491,0,0,0,0,0,0,0,0,0,-1,1959,533,0,0
742,491,0,0,0,0,0,0,0,0,0,-1,1966,533,0,0
749,491,0,0,0,0,0,0,0,0,0,-1,1973,533,0,0
756,491,0,0,0,0,0,0,0,0,0,-1,1980,533,0,0
763,491,0,0,0,0,0,0,0,0,0,-1,1987,533,0,0
770,491,0,0,0,0,0,0,0,0,0,-1,1994,533,0,0
777,491,0,0,0,0,0,0,0,0,0,-1,2001,533,0,0
784,491,0,0,0,0,0,0,0,0,0,-1,2008,533,0,0
791,491,0,0,0,0,0,0,0,0,0,-1,2015,533,0,0
798,491,0,0,0,0,0,0,0,0,0,-1,2022,533,0,0
805,491,0,0,0,0,0,0,0,0,0,-1,2029,533,0,0
812,491,0,0,0,0,0,0,0,0,0,-1,2036,533,0,0
-700,484,0,0,0,0,0,0,0,0,0,-1,524,540,0,0
-693,484,0,0,0,0,0,0,0,0,0,-1,531,540,0,0
-686,484,0,0,0,0,0,0,0,0,0,-1,538,540,0,0
-679,484,0,0,0,0,0,0,0,0,0,-1,545,540,0,0
-672,484,0,0,0,0,0,0,0,0,0,-1,552,540,0,0
-665,484,0,0,0,0,0,0,0,0,0,-1,559,540,0,0
-658,484,0,0,0,0,0,0,0,0,0,-1,566,540,0,0
-651,484,0,0,0,0,0,0,0,0,0,-1,573,540,0,0
-644,484,0,0,0,0,0,0,0,0,0,-1,580,540,0,0
-637,484,0,0,0,0,0,0,0,0,0,-1,587,540,0,0
-630,484,0,0,0,0,0,0,0,0,0,-1,594,540,0,0
-623,484,0,0,0,0,0,0,0,0,0,-1,601,540,0,0
-616,484,0,0,0,0,0,0,0,0,0,-1,608,540,0,0
-609,484,0,0,0,0,0,0,0,0,0,-1,615,540,0,0
-602,484,0,0,0,0,0,0,0,0,0,-1,622,540,0,0
-595,484,0,0,0,0,0,0,0,0,0,-1,629,540,0,0
-588,484,0,0,0,0,0,0,0,0,0,-1,636,540,0,0
-581,484,0,0,0,0,0,0,0,0,0,-1,643,540,0,0
-574,484,0,0,0,0,0,0,0,0,0,-1,650,540,0,0
-567,484,0,0,0,0,0,0,0,0,0,-1,657,540,0,0
-560,484,0,0,0,0,0,0,0,0,0,-1,664,540,0,0
-553,484,0,0,0,0,0,0,0,0,0,-1,671,540,0,0
-546,484,0,0,0,0,0,0,0,0,0,-1,678,540,0,0
-539,484,0,0,0,0,0,0,0,0,0,-1,685,540,0,0
-532,484,0,0,0,0,0,0,0,0,0,-1,692,540,0,0
-525,484,0,0,0,0,0,0,0,0,0,-1,699,540,0,0
-518,484,0,0,0,0,0,0,0,0,0,-1,706,540,0,0
-511,484,0,0,0,0,0,0,0,0,0,-1,713,540,0,0
-504,484,0,0,0,0,0,0,0,0,0,-1,720,540,0,0
-497,484,0,0,0,0,0,0,0,0,0,-1,727,540,0,0
-490,484,0,0,0,0,0,0,0,0,0,-1,734,540,0,0
-483,484,0,0,0,0,0,0,0,0,0,-1,741,540,0,0
-476,484,-8.46552,1.44702,0,0,0,0,0,0,0,-1,748,540,-8.46554,-1.44702
-469,484,-7.82343,1.70355,0,0,0,0,0,0,0,-1,755,540,-7.82345,-1.70355
-462,484,-8.36987,3.08612,0,0,0,0,0,0,0,-1,762,540,-8.36988,-3.0861
-455,484,-6.77197,2.07092,0,0,0,0,0,0,0,-1,769,540,-6.77197,-2.07094
-448,484,3.54895,-1.40106,0,0,0,0,0,0,0,-1,776,540,3.54897,1.40106
-441,484,4.28906,-3.05884,0,0,0,0,0,0,0,-1,783,540,4.28905,3.05883
-434,484,-2.17548,-5.07245,0,0,0,0,0,0,0,-1,790,540,-2.17546,5.07243
-427,484,-4.3587,-13.7151,0,0,0,0,0,0,0,-1,797,540,-4.35869,13.7151
-420,484,-4.33246,-14.6561,0,0,0,0,0,0,0,-1,804,540,-4.33245,14.6561
-413,484,-4.32465,-15.4244,0.000405929,0.0168711,-0.00763061,0.0198635,-0.00258654,-1.19706,0.0141834,0.0310229,811,540,-4.32462,15.4244
-406,484,-4.37885,-16.1585,0.000304325,0.0141082,-0.00662975,0.0167765,-0.00236402,-1.18815,0.0120499,0.0161246,818,540,-4.37886,16.1585
-399,484,-4.47766,-16.8275,0.000163405,0.011502,-0.00552815,0.0137511,-0.00208572,-1.1844,0.00993587,0.0167148,825,540,-4.47768,16.8275
-392,484,-4.52185,-17.4498,0.000256246,0.00906367,-0.00449479,0.0109525,-0.00163256,-1.17298,0.00790226,0.0188314,832,540,-4.52182,17.4498
-385,484,-4.54651,-18.0706,0.000627568,0.00685156,-0.00358018,0.00848321,-0.00100408,-1.14317,0.00601816,0.0134813,839,540,-4.54649,18.0706
-378,484,-4.54504,-18.6822,0.00109534,0.00488762,-0.00276246,0.00634209,-0.000359121,-1.08617,0.00435271,0.0148529,846,540,-4.54504,18.6822
-371,484,-4.56659,-19.2674,0.00160229,0.00305369,-0.00206646,0.00451818,0.000137805,-0.954261,0.00296725,0.0158719,853,540,-4.56656,19.2674
-364,484,-4.59387,-19.8566,0.0021701,0.00133668,-0.0014022,0.0032162,0.000290579,-0.640964,0.00205414,0.0114903,860,540,-4.59389,19.8565
-357,484,-4.62103,-20.4703,0.00284594,-5.89262e-05,-0.000864881,0.00308394,-0.000296931,-0.268541,0.00216175,0.0129453,867,540,-4.62102,20.4703
-350,484,-4.64093,-21.0576,0.00362522,-0.00115535,-0.000530363,0.00368335,-0.00121348,-0.109173,0.00294462,0.0151298,874,540,-4.64091,21.0575
-343,484,-4.62878,-21.6606,0.00436635,-0.00209802,-0.000275684,0.00437808,-0.00210976,-0.0425437,0.00382131,0.0222729,881,540,-4.62877,21.6606
-336,484,-4.61707,-22.2531,0.00512198,-0.00298686,-7.41394e-05,0.00512266,-0.00298754,-0.00914202,0.0047362,0.0250636,888,540,-4.61707,22.253
-329,484,-4.60754,-22.7888,0.00604898,-0.00370753,-2.5911e-05,0.00604904,-0.0037076,-0.00265575,0.00568681,0.0374971,895,540,-4.60754,22.7888
-322,484,-4.59613,-23.4337,0,0,0,0,0,0,0,-1,902,540,-4.59612,23.4337
-315,484,-4.52094,-23.9454,0,0,0,0,0,0,0,-1,909,540,-4.52092,23.9454
-308,484,-1.32623,-8.9317,0,0,0,0,0,0,0,-1,916,540,-1.32626,8.93173
-301,484,-1.33453,-6.52667,0,0,0,0,0,0,0,-1,923,540,-1.33454,6.5267
-294,484,-1.61224,-8.17059,0,0,0,0,0,0,0,-1,930,540,-1.61227,8.17058
-287,484,-0.715759,-5.62103,0,0,0,0,0,0,0,-1,937,540,-0.715772,5.62105
-280,484,2.66742,-1.6795,0,0,0,0,0,0,0,-1,944,540,2.6674,1.67949
-273,484,2.53125,-2.22296,0,0,0,0,0,0,0,-1,951,540,2.53128,2.22295
-266,484,2.6778,-2.72058,0,0,0,0,0,0,0,-1,958,540,2.6778,2.72061
-259,484,2.41718,-2.59894,0,0,0,0,0,0,0,-1,965,540,2.41717,2.59892
-252,484,10.6069,-11.696,0,0,0,0,0,0,0,-1,972,540,10.6069,11.696
-245,484,6.34106,-11.6107,0,0,0,0,0,0,0,-1,979,540,6.34104,11.6107
-238,484,4.89319,-8.54059,0,0,0,0,0,0,0,-1,986,540,4.89321,8.5406
-231,484,3.47675,-5.22064,0,0,0,0,0,0,0,-1,993,540,3.47676,5.22067
-224,484,1.71344,-2.03473,0,0,0,0,0,0,0,-1,1000,540,1.71342,2.03472
-217,484,-0.745056,1.17358,0,0,0,0,0,0,0,-1,1007,540,-0.745043,-1.17359
-210,484,0,0,0,0,0,0,0,0,0,-1,1014,540,0,0
-203,484,0,0,0,0,0,0,0,0,0,-1,1021,540,0,0
-196,484,0,0,0,0,0,0,0,0,0,-1,1028,540,0,0
-189,484,0,0,0,0,0,0,0,0,0,-1,1035,540,0,0
-182,484,0,0,0,0,0,0,0,0,0,-1,1042,540,0,0
-175,484,0,0,0,0,0,0,0,0,0,-1,1049,540,0,0
-168,484,0,0,0,0,0,0,0,0,0,-1,1056,540,0,0
-161,484,0,0,0,0,0,0,0,0,0,-1,1063,540,0,0
-154,484,0,0,0,0,0,0,0,0,0,-1,1070,540,0,0
-147,484,0,0,0,0,0,0,0,0,0,-1,1077,540,0,0
-140,484,0,0,0,0,0,0,0,0,0,-1,1084,540,0,0
-133,484,0,0,0,0,0,0,0,0,0,-1,1091,540,0,0
-126,484,0,0,0,0,0,0,0,0,0,-1,1098,540,0,0
-119,484,0,0,0,0,0,0,0,0,0,-1,1105,540,0,0
-112,484,0,0,0,0,0,0,0,0,0,-1,1112,540,0,0
-105,484,0,0,0,0,0,0,0,0,0,-1,1119,540,0,0
-98,484,0,0,0,0,0,0,0,0,0,-1,1126,540,0,0
-91,484,0,0,0,0,0,0,0,0,0,-1,1133,540,0,0
-84,484,0,0,0,0,0,0,0,0,0,-1,1140,540,0,0
-77,484,0,0,0,0,0,0,0,0,0,-1,1147,540,0,0
-70,484,0,0,0,0,0,0,0,0,0,-1,1154,540,0,0
-63,484,0,0,0,0,0,0,0,0,0,-1,1161,540,0,0
-56,484,0,0,0,0,0,0,0,0,0,-1,1168,540,0,0
-49,484,0,0,0,0,0,0,0,0,0,-1,1175,540,0,0
-42,484,0,0,0,0,0,0,0,0,0,-1,1182,540,0,0
-35,484,0,0,0,0,0,0,0,0,0,-1,1189,540,0,0
-28,484,0,0,0,0,0,0,0,0,0,-1,1196,540,0,0
-21,484,0,0,0,0,0,0,0,0,0,-1,1203,540,0,0
-14,484,0,0,0,0,0,0,0,0,0,-1,1210,540,0,0
-7,484,0,0,0,0,0,0,0,0,0,-1,1217,540,0,0
0,484,0,0,0,0,0,0,0,0,0,-1,1224,540,0,0
7,484,0,0,0,0,0,0,0,0,0,-1,1231,540,0,0
14,484,0,0,0,0,0,0,0,0,0,-1,1238,540,0,0
21,484,0,0,0,0,0,0,0,0,0,-1,1245,540,0,0
28,484,0,0,0,0,0,0,0,0,0,-1,1252,540,0,0
35,484,0,0,0,0,0,0,0,0,0,-1,1259,540,0,0
42,484,0,0,0,0,0,0,0,0,0,-1,1266,540,0,0
49,484,0,0,0,0,0,0,0,0,0,-1,1273,540,0,0
56,484,0,0,0,0,0,0,0,0,0,-1,1280,540,0,0
63,484,0,0,0,0,0,0,0,0,0,-1,1287,540,0,0
70,484,0,0,0,0,0,0,0,0,0,-1,1294,540,0,0
77,484,0,0,0,0,0,0,0,0,0,-1,1301,540,0,0
84,484,0,0,0,0,0,0,0,0,0,-1,1308,540,0,0
91,484,0,0,0,0,0,0,0,0,0,-1,1315,540,0,0
98,484,0,0,0,0,0,0,0,0,0,-1,1322,540,0,0
105,484,0,0,0,0,0,0,0,0,0,-1,1329,540,0,0
112,484,0,0,0,0,0,0,0,0,0,-1,1336,540,0,0
119,484,0,0,0,0,0,0,0,0,0,-1,1343,540,0,0
126,484,0,0,0,0,0,0,0,0,0,-1,1350,540,0,0
133,484,0,0,0,0,0,0,0,0,0,-1,1357,540,0,0
140,484,0,0,0,0,0,0,0,0,0,-1,1364,540,0,0
147,484,0,0,0,0,0,0,0,0,0,-1,1371,540,0,0
154,484,0,0,0,0,0,0,0,0,0,-1,1378,540,0,0
161,484,0,0,0,0,0,0,0,0,0,-1,1385,540,0,0
168,484,0,0,0,0,0,0,0,0,0,-1,1392,540,0,0
175,484,0,0,0,0,0,0,0,0,0,-1,1399,540,0,0
182,484,0,0,0,0,0,0,0,0,0,-1,1406,540,0,0
189,484,0,0,0,0,0,0,0,0,0,-1,1413,540,0,0
196,484,0,0,0,0,0,0,0,0,0,-1,1420,540,0,0
203,484,0,0,0,0,0,0,0,0,0,-1,1427,540,0,0
210,484,0,0,0,0,0,0,0,0,0,-1,1434,540,0,0
217,484,0,0,0,0,0,0,0,0,0,-1,1441,540,0,0
224,484,0,0,0,0,0,0,0,0,0,-1,1448,540,0,0
231,484,0,0,0,0,0,0,0,0,0,-1,1455,540,0,0
238,484,0,0,0,0,0,0,0,0,0,-1,1462,540,0,0
245,484,0,0,0,0,0,0,0,0,0,-1,1469,540,0,0
252,484,0,0,0,0,0,0,0,0,0,-1,1476,540,0,0
259,484,0,0,0,0,0,0,0,0,0,-1,1483,540,0,0
266,484,0,0,0,0,0,0,0,0,0,-1,1490,540,0,0
273,484,0,0,0,0,0,0,0,0,0,-1,1497,540,0,0
280,484,0,0,0,0,0,0,0,0,0,-1,1504,540,0,0
287,484,0,0,0,0,0,0,0,0,0,-1,1511,540,0,0
294,484,0,0,0,0,0,0,0,0,0,-1,1518,540,0,0
301,484,0,0,0,0,0,0,0,0,0,-1,1525,540,0,0
308,484,0,0,0,0,0,0,0,0,0,-1,1532,540,0,0
315,484,0,0,0,0,0,0,0,0,0,-1,1539,540,0,0
322,484,0,0,0,0,0,0,0,0,0,-1,1546,540,0,0
329,484,0,0,0,0,0,0,0,0,0,-1,1553,540,0,0
336,484,4.38708,-1.64136,0,0,0,0,0,0,0,-1,1560,540,4.38704,1.64138
343,484,7.57996,-1.05457,0,0,0,0,0,0,0,-1,1567,540,7.57995,1.05454
350,484,8.10425,-1.18878,0,0,0,0,0,0,0,-1,1574,540,8.1043,1.18877
357,484,7.74902,-3.80286,0,0,0,0,0,0,0,-1,1581,540,7.74901,3.80287
364,484,6.31262,-3.87213,0,0,0,0,0,0,0,-1,1588,540,6.31263,3.87215
371,484,7.21008,0.973511,0,0,0,0,0,0,0,-1,1595,540,7.21014,-0.973541
378,484,11.0563,1.5014,0,0,0,0,0,0,0,-1,1602,540,11.0563,-1.5014
385,484,14.3469,2.5545,0,0,0,0,0,0,0,-1,1609,540,14.3469,-2.55453
392,484,7.39453,-4.95026,0,0,0,0,0,0,0,-1,1616,540,7.39448,4.95023
399,484,7.14417,-2.5639,0,0,0,0,0,0,0,-1,1623,540,7.14417,2.56391
406,484,7.88953,-2.47321,0,0,0,0,0,0,0,-1,1630,540,7.88954,2.47323
413,484,4.4895,-1.08673,0,0,0,0,0,0,0,-1,1637,540,4.48952,1.08674
420,484,4.50012,-2.11255,0,0,0,0,0,0,0,-1,1644,540,4.50012,2.11256
427,484,5.28601,-3.54053,0,0,0,0,0,0,0,-1,1651,540,5.28599,3.54051
434,484,11.1488,-13.5359,0,0,0,0,0,0,0,-1,1658,540,11.1489,13.5359
441,484,13.205,-18.1697,0,0,0,0,0,0,0,-1,1665,540,13.205,18.1697
448,484,15.6803,-22.5834,0,0,0,0,0,0,0,-1,1672,540,15.6803,22.5834
455,484,15.7081,-21.8483,0,0,0,0,0,0,0,-1,1679,540,15.7082,21.8482
462,484,15.7206,-21.164,0.00204027,0.0036795,0.000339182,0.00374691,0.00197286,1.37461,0.0021643,0.0276512,1686,540,15.7206,21.164
469,484,15.7151,-20.5547,0.00183048,0.00330154,0.000252351,0.00334362,0.00178839,1.40554,0.001932,0.0180242,1693,540,15.7151,20.5547
476,484,15.6769,-19.9272,0.00175055,0.00297017,0.000330562,0.003054,0.00166672,1.32243,0.00176569,0.0150852,1700,540,15.6769,19.9273
483,484,15.6747,-19.3259,0.00171213,0.00233846,0.000495936,0.00261183,0.00143876,1.06702,0.00151054,0.0124358,1707,540,15.6747,19.3259
490,484,15.6481,-18.7221,0.00155007,0.00180599,0.000636773,0.00232753,0.00102852,0.884552,0.00134682,0.012674,1714,540,15.648,18.7221
497,484,15.6232,-18.0707,0.00138163,0.00117523,0.000870381,0.00215491,0.000401953,0.72639,0.00132313,0.0134159,1721,540,15.6232,18.0707
504,484,15.6082,-17.4387,0.0012158,0.000436965,0.00111004,0.00200274,-0.00034998,0.616698,0.00146582,0.0165098,1728,540,15.6082,17.4387
511,484,15.5861,-16.8141,0.000948381,-0.00032625,0.00131797,0.00177504,-0.00115291,0.560194,0.00170312,0.0195073,1735,540,15.5861,16.8142
518,484,15.5405,-16.1971,0.000512526,-0.00109701,0.00141215,0.00133313,-0.00191762,0.526406,0.0018869,0.0161369,1742,540,15.5406,16.1971
525,484,15.5105,-15.5491,2.14218e-05,-0.00190381,0.00145813,0.000806025,-0.00268842,0.493652,0.00211284,0.013127,1749,540,15.5105,15.5491
532,484,15.505,-14.8679,-0.000486151,-0.00256995,0.00146597,0.000270456,-0.00332655,0.476455,0.00231313,0.015529,1756,540,15.5049,14.8679
539,484,15.4507,-14.1749,-0.00102254,-0.0031307,0.00139283,-0.000329896,-0.00382335,0.461482,0.00244636,0.0379079,1763,540,15.4506,14.175
546,484,15.4618,-13.4664,0,0,0,0,0,0,0,-1,1770,540,15.4617,13.4664
553,484,12.4246,-8.96423,0,0,0,0,0,0,0,-1,1777,540,12.4246,8.96422
560,484,10.0549,-5.47931,0,0,0,0,0,0,0,-1,1784,540,10.055,5.47928
567,484,7.78223,-1.38312,0,0,0,0,0,0,0,-1,1791,540,7.78224,1.38311
574,484,5.74463,1.50922,0,0,0,0,0,0,0,-1,1798,540,5.74463,-1.50924
581,484,10.34,2.9491,0,0,0,0,0,0,0,-1,1805,540,10.34,-2.94912
588,484,10.6669,2.88568,0,0,0,0,0,0,0,-1,1812,540,10.6669,-2.88567
595,484,10.7233,1.04767,0,0,0,0,0,0,0,-1,1819,540,10.7233,-1.04766
602,484,0,0,0,0,0,0,0,0,0,-1,1826,540,0,0
609,484,0,0,0,0,0,0,0,0,0,-1,1833,540,0,0
616,484,0,0,0,0,0,0,0,0,0,-1,1840,540,0,0
623,484,0,0,0,0,0,0,0,0,0,-1,1847,540,0,0
630,484,0,0,0,0,0,0,0,0,0,-1,1854,540,0,0
637,484,0,0,0,0,0,0,0,0,0,-1,1861,540,0,0
644,484,0,0,0,0,0,0,0,0,0,-1,1868,540,0,0
651,484,0,0,0,0,0,0,0,0,0,-1,1875,540,0,0
658,484,0,0,0,0,0,0,0,0,0,-1,1882,540,0,0
665,484,0,0,0,0,0,0,0,0,0,-1,1889,540,0,0
672,484,0,0,0,0,0,0,0,0,0,-1,1896,540,0,0
679,484,0,0,0,0,0,0,0,0,0,-1,1903,540,0,0
686,484,0,0,0,0,0,0,0,0,0,-1,1910,540,0,0
693,484,0,0,0,0,0,0,0,0,0,-1,1917,540,0,0
700,484,0,0,0,0,0,0,0,0,0,-1,1924,540,0,0
707,484,0,0,0,0,0,0,0,0,0,-1,1931,540,0,0
714,484,0,0,0,0,0,0,0,0,0,-1,1938,540,0,0
721,484,0,0,0,0,0,0,0,0,0,-1,1945,540,0,0
728,484,0,0,0,0,0,0,0,0,0,-1,1952,540,0,0
735,484,0,0,0,0,0,0,0,0,0,-1,1959,540,0,0
742,484,0,0,0,0,0,0,0,0,0,-1,1966,540,0,0
749,484,0,0,0,0,0,0,0,0,0,-1,1973,540,0,0
756,484,0,0,0,0,0,0,0,0,0,-1,1980,540,0,0
763,484,0,0,0,0,0,0,0,0,0,-1,1987,540,0,0
770,484,0,0,0,0,0,0,0,0,0,-1,1994,540,0,0
777,484,0,0,0,0,0,0,0,0,0,-1,2001,540,0,0
784,484,0,0,0,0,0,0,0,0,0,-1,2008,540,0,0
791,484,0,0,0,0,0,0,0,0,0,-1,2015,540,0,0
798,484,0,0,0,0,0,0,0,0,0,-1,2022,540,0,0
805,484,0,0,0,0,0,0,0,0,0,-1,2029,540,0,0
812,484,0,0,0,0,0,0,0,0,0,-1,2036,540,0,0
-700,477,0,0,0,0,0,0,0,0,0,-1,524,547,0,0
-693,477,0,0,0,0,0,0,0,0,0,-1,531,547,0,0
-686,477,0,0,0,0,0,0,0,0,0,-1,538,547,0,0
-679,477,0,0,0,0,0,0,0,0,0,-1,545,547,0,0
-672,477,0,0,0,0,0,0,0,0,0,-1,552,547,0,0
-665,477,0,0,0,0,0,0,0,0,0,-1,559,547,0,0
-658,477,0,0,0,0,0,0,0,0,0,-1,566,547,0,0
-651,477,0,0,0,0,0,0,0,0,0,-1,573,547,0,0
-644,477,0,0,0,0,0,0,0,0,0,-1,580,547,0,0
-637,477,0,0,0,0,0,0,0,0,0,-1,587,547,0,0
-630,477,0,0,0,0,0,0,0,0,0,-1,594,547,0,0
-623,477,0,0,0,0,0,0,0,0,0,-1,601,547,0,0
-616,477,0,0,0,0,0,0,0,0,0,-1,608,547,0,0
-609,477,0,0,0,0,0,0,0,0,0,-1,615,547,0,0
-602,477,0,0,0,0,0,0,0,0,0,-1,622,547,0,0
-595,477,0,0,0,0,0,0,0,0,0,-1,629,547,0,0
-588,477,0,0,0,0,0,0,0,0,0,-1,636,547,0,0
-581,477,0,0,0,0,0,0,0,0,0,-1,643,547,0,0
-574,477,0,0,0,0,0,0,0,0,0,-1,650,547,0,0
-567,477,0,0,0,0,0,0,0,0,0,-1,657,547,0,0
-560,477,0,0,0,0,0,0,0,0,0,-1,664,547,0,0
-553,477,0,0,0,0,0,0,0,0,0,-1,671,547,0,0
-546,477,0,0,0,0,0,0,0,0,0,-1,678,547,0,0
-539,477,0,0,0,0,0,0,0,0,0,-1,685,547,0,0
-532,477,0,0,0,0,0,0,0,0,0,-1,692,547,0,0
-525,477,0,0,0,0,0,0,0,0,0,-1,699,547,0,0
-518,477,0,0,0,0,0,0,0,0,0,-1,706,547,0,0
-511,477,0,0,0,0,0,0,0,0,0,-1,713,547,0,0
-504,477,0,0,0,0,0,0,0,0,0,-1,720,547,0,0
-497,477,0,0,0,0,0,0,0,0,0,-1,727,547,0,0
-490,477,0,0,0,0,0,0,0,0,0,-1,734,547,0,0
-483,477,-7.73151,-0.224182,0,0,0,0,0,0,0,-1,741,547,-7.73152,0.224176
-476,477,-6.25806,-0.310547,0,0,0,0,0,0,0,-1,748,547,-6.25804,0.310549
-469,477,-7.26617,0.525085,0,0,0,0,0,0,0,-1,755,547,-7.2662,-0.525111
-462,477,-6.65143,1.06042,0,0,0,0,0,0,0,-1,762,547,-6.65143,-1.06043
-455,477,-5.31757,0.429016,0,0,0,0,0,0,0,-1,769,547,-5.31756,-0.42902
-448,477,-4.0697,0.273376,0,0,0,0,0,0,0,-1,776,547,-4.06971,-0.273363
-441,477,-2.47504,-4.76971,0,0,0,0,0,0,0,-1,783,547,-2.47505,4.76973
-434,477,-4.7215,-13.7855,0,0,0,0,0,0,0,-1,790,547,-4.72149,13.7855
-427,477,-4.93738,-14.0361,0.000707747,0.0174017,-0.00707588,0.0199973,-0.00188785,-1.21921,0.0140033,0.0443917,797,547,-4.93739,14.0361
-420,477,-4.98712,-14.5515,0.000482395,0.0149992,-0.00644236,0.0174459,-0.00196427,-1.20784,0.0123376,0.0361367,804,547,-4.98714,14.5515
-413,477,-4.97406,-15.4418,0.000461789,0.0126818,-0.00574528,0.0149587,-0.00181512,-1.19348,0.0106293,0.0207179,811,547,-4.97407,15.4419
-406,477,-5.04498,-16.161,0.000441674,0.0104386,-0.00492587,0.0124579,-0.00157761,-1.18176,0.008878,0.0116887,818,547,-5.04501,16.161
-399,477,-5.0658,-16.7924,0.000410952,0.00834122,-0.00403377,0.0100324,-0.0012802,-1.17381,0.00715327,0.0198445,825,547,-5.06582,16.7924
-392,477,-5.11981,-17.4243,0.000617116,0.00632321,-0.00319725,0.00775529,-0.000814958,-1.14968,0.00546215,0.0183517,832,547,-5.11981,17.4243
-385,477,-5.13733,-18.0355,0.00107766,0.00448223,-0.00247225,0.00578158,-0.000221691,-1.0869,0.00393037,0.015887,839,547,-5.13733,18.0355
-378,477,-5.14478,-18.6526,0.00161722,0.00282701,-0.001808,0.00412862,0.000315611,-0.946828,0.00265347,0.0137851,846,547,-5.14476,18.6526
-371,477,-5.1698,-19.2264,0.00221354,0.00126872,-0.00123686,0.00306514,0.000417124,-0.602976,0.00191955,0.0133504,853,547,-5.16978,19.2264
-364,477,-5.18591,-19.8043,0.00289468,-0.000175125,-0.000713188,0.00305228,-0.000332725,-0.217483,0.00215435,0.0138083,860,547,-5.18593,19.8043
-357,477,-5.2121,-20.4211,0.003719,-0.00135519,-0.00032678,0.00373996,-0.00137615,-0.0640476,0.00305708,0.011426,867,547,-5.21213,20.4212
-350,477,-5.25018,-21.0222,0.00471102,-0.00212655,-0.000217454,0.00471793,-0.00213345,-0.0317601,0.00404837,0.0102762,874,547,-5.25018,21.0222
-343,477,-5.15723,-21.6287,0.00565986,-0.0028829,-0.000144812,0.00566232,-0.00288536,-0.0169449,0.00502106,0.0194227,881,547,-5.15723,21.6286
-336,477,-5.02844,-22.2301,0.0066454,-0.00364395,-0.000122006,0.00664685,-0.0036454,-0.0118553,0.00602587,0.0445898,888,547,-5.02844,22.2301
-329,477,-5.08197,-22.8721,0,0,0,0,0,0,0,-1,895,547,-5.08194,22.8721
-322,477,-2.04822,-12.0026,0,0,0,0,0,0,0,-1,902,547,-2.04819,12.0026
-315,477,-1.67358,-9.15253,0,0,0,0,0,0,0,-1,909,547,-1.67356,9.15253
-308,477,-1.30127,-6.55188,0,0,0,0,0,0,0,-1,916,547,-1.30128,6.55185
-301,477,-1.21185,-6.28351,0,0,0,0,0,0,0,-1,923,547,-1.21184,6.28352
-294,477,-0.352905,3.27142,0,0,0,0,0,0,0,-1,930,547,-0.35292,-3.27144
-287,477,3.54364,2.15399,0,0,0,0,0,0,0,-1,937,547,3.54362,-2.15396
-280,477,1.97308,-0.954163,0,0,0,0,0,0,0,-1,944,547,1.9731,0.954178
-273,477,2.11621,-3.76709,0,0,0,0,0,0,0,-1,951,547,2.11619,3.76706
-266,477,2.04669,-3.42389,0,0,0,0,0,0,0,-1,958,547,2.04671,3.42391
-259,477,-1.33478,-3.41205,0,0,0,0,0,0,0,-1,965,547,-1.3348,3.41206
-252,477,0.597168,-5.32922,0,0,0,0,0,0,0,-1,972,547,0.597144,5.32924
-245,477,8.2309,-8.48492,0,0,0,0,0,0,0,-1,979,547,8.23091,8.48494
-238,477,6.60938,-5.64063,0,0,0,0,0,0,0,-1,986,547,6.60938,5.64063
-231,477,4.71716,-2.52484,0,0,0,0,0,0,0,-1,993,547,4.71716,2.52483
-224,477,0,0,0,0,0,0,0,0,0,-1,1000,547,0,0
-217,477,0,0,0,0,0,0,0,0,0,-1,1007,547,0,0
-210,477,0,0,0,0,0,0,0,0,0,-1,1014,547,0,0
-203,477,0,0,0,0,0,0,0,0,0,-1,1021,547,0,0
-196,477,0,0,0,0,0,0,0,0,0,-1,1028,547,0,0
-189,477,0,0,0,0,0,0,0,0,0,-1,1035,547,0,0
-182,477,0,0,0,0,0,0,0,0,0,-1,1042,547,0,0
-175,477,0,0,0,0,0,0,0,0,0,-1,1049,547,0,0
-168,477,0,0,0,0,0,0,0,0,0,-1,1056,547,0,0
-161,477,0,0,0,0,0,0,0,0,0,-1,1063,547,0,0
-154,477,0,0,0,0,0,0,0,0,0,-1,1070,547,0,0
-147,477,0,0,0,0,0,0,0,0,0,-1,1077,547,0,0
-140,477,0,0,0,0,0,0,0,0,0,-1,1084,547,0,0
-133,477,0,0,0,0,0,0,0,0,0,-1,1091,547,0,0
-126,477,0,0,0,0,0,0,0,0,0,-1,1098,547,0,0
-119,477,0,0,0,0,0,0,0,0,0,-1,1105,547,0,0
-112,477,0,0,0,0,0,0,0,0,0,-1,1112,547,0,0
-105,477,0,0,0,0,0,0,0,0,0,-1,1119,547,0,0
-98,477,0,0,0,0,0,0,0,0,0,-1,1126,547,0,0
-91,477,0,0,0,0,0,0,0,0,0,-1,1133,547,0,0
-84,477,0,0,0,0,0,0,0,0,0,-1,1140,547,0,0
-77,477,0,0,0,0,0,0,0,0,0,-1,1147,547,0,0
-70,477,0,0,0,0,0,0,0,0,0,-1,1154,547,0,0
-63,477,0,0,0,0,0,0,0,0,0,-1,1161,547,0,0
-56,477,0,0,0,0,0,0,0,0,0,-1,1168,547,0,0
-49,477,0,0,0,0,0,0,0,0,0,-1,1175,547,0,0
-42,477,0,0,0,0,0,0,0,0,0,-1,1182,547,0,0
-35,477,0,0,0,0,0,0,0,0,0,-1,1189,547,0,0
-28,477,0,0,0,0,0,0,0,0,0,-1,1196,547,0,0
-21,477,0,0,0,0,0,0,0,0,0,-1,1203,547,0,0
-14,477,0,0,0,0,0,0,0,0,0,-1,1210,547,0,0
-7,477,0,0,0,0,0,0,0,0,0,-1,1217,547,0,0
0,477,0,0,0,0,0,0,0,0,0,-1,1224,547,0,0
7,477,0,0,0,0,0,0,0,0,0,-1,1231,547,0,0
14,477,0,0,0,0,0,0,0,0,0,-1,1238,547,0,0
21,477,0,0,0,0,0,0,0,0,0,-1,1245,547,0,0
28,477,0,0,0,0,0,0,0,0,0,-1,1252,547,0,0
35,477,0,0,0,0,0,0,0,0,0,-1,1259,547,0,0
42,477,0,0,0,0,0,0,0,0,0,-1,1266,547,0,0
49,477,0,0,0,0,0,0,0,0,0,-1,1273,547,0,0
56,477,0,0,0,0,0,0,0,0,0,-1,1280,547,0,0
63,477,0,0,0,0,0,0,0,0,0,-1,1287,547,0,0
70,477,0,0,0,0,0,0,0,0,0,-1,1294,547,0,0
77,477,0,0,0,0,0,0,0,0,0,-1,1301,547,0,0
84,477,0,0,0,0,0,0,0,0,0,-1,1308,547,0,0
91,477,0,0,0,0,0,0,0,0,0,-1,1315,547,0,0
98,477,0,0,0,0,0,0,0,0,0,-1,1322,547,0,0
105,477,0,0,0,0,0,0,0,0,0,-1,1329,547,0,0
112,477,0,0,0,0,0,0,0,0,0,-1,1336,547,0,0
119,477,0,0,0,0,0,0,0,0,0,-1,1343,547,0,0
126,477,0,0,0,0,0,0,0,0,0,-1,1350,547,0,0
133,477,0,0,0,0,0,0,0,0,0,-1,1357,547,0,0
140,477,0,0,0,0,0,0,0,0,0,-1,1364,547,0,0
147,477,0,0,0,0,0,0,0,0,0,-1,1371,547,0,0
154,477,0,0,0,0,0,0,0,0,0,-1,1378,547,0,0
161,477,0,0,0,0,0,0,0,0,0,-1,1385,547,0,0
168,477,0,0,0,0,0,0,0,0,0,-1,1392,547,0,0
175,477,0,0,0,0,0,0,0,0,0,-1,1399,547,0,0
182,477,0,0,0,0,0,0,0,0,0,-1,1406,547,0,0
189,477,0,0,0,0,0,0,0,0,0,-1,1413,547,0,0
196,477,0,0,0,0,0,0,0,0,0,-1,1420,547,0,0
203,477,0,0,0,0,0,0,0,0,0,-1,1427,547,0,0
210,477,0,0,0,0,0,0,0,0,0,-1,1434,547,0,0
217,477,0,0,0,0,0,0,0,0,0,-1,1441,547,0,0
224,477,0,0,0,0,0,0,0,0,0,-1,1448,547,0,0
231,477,0,0,0,0,0,0,0,0,0,-1,1455,547,0,0
238,477,0,0,0,0,0,0,0,0,0,-1,1462,547,0,0
245,477,0,0,0,0,0,0,0,0,0,-1,1469,547,0,0
252,477,0,0,0,0,0,0,0,0,0,-1,1476,547,0,0
259,477,0,0,0,0,0,0,0,0,0,-1,1483,547,0,0
266,477,0,0,0,0,0,0,0,0,0,-1,1490,547,0,0
273,477,0,0,0,0,0,0,0,0,0,-1,1497,547,0,0
280,477,0,0,0,0,0,0,0,0,0,-1,1504,547,0,0
287,477,0,0,0,0,0,0,0,0,0,-1,1511,547,0,0
294,477,0,0,0,0,0,0,0,0,0,-1,1518,547,0,0
301,477,0,0,0,0,0,0,0,0,0,-1,1525,547,0,0
308,477,0,0,0,0,0,0,0,0,0,-1,1532,547,0,0
315,477,0,0,0,0,0,0,0,0,0,-1,1539,547,0,0
322,477,0,0,0,0,0,0,0,0,0,-1,1546,547,0,0
329,477,0,0,0,0,0,0,0,0,0,-1,1553,547,0,0
336,477,0,0,0,0,0,0,0,0,0,-1,1560,547,0,0
343,477,0,0,0,0,0,0,0,0,0,-1,1567,547,0,0
350,477,1.7699,-3.32275,0,0,0,0,0,0,0,-1,1574,547,1.7699,3.32272
357,477,3.073,-4.83313,0,0,0,0,0,0,0,-1,1581,547,3.07303,4.83316
364,477,4.30127,-4.22864,0,0,0,0,0,0,0,-1,1588,547,4.30125,4.22865
371,477,4.57703,0.283264,0,0,0,0,0,0,0,-1,1595,547,4.57706,-0.283262
378,477,8.57947,1.05969,0,0,0,0,0,0,0,-1,1602,547,8.5795,-1.05972
385,477,12.3726,2.02356,0,0,0,0,0,0,0,-1,1609,547,12.3725,-2.02355
392,477,16.4678,2.76843,0,0,0,0,0,0,0,-1,1616,547,16.4678,-2.76845
399,477,8.00037,-2.29523,0,0,0,0,0,0,0,-1,1623,547,8.00031,2.2952
406,477,4.82495,2.7475,0,0,0,0,0,0,0,-1,1630,547,4.825,-2.74752
413,477,4.88171,-0.336426,0,0,0,0,0,0,0,-1,1637,547,4.88169,0.336398
420,477,3.34875,0.102722,0,0,0,0,0,0,0,-1,1644,547,3.34871,-0.1027
427,477,1.66772,-0.373108,0,0,0,0,0,0,0,-1,1651,547,1.66768,0.373104
434,477,3.76978,-2.30798,0,0,0,0,0,0,0,-1,1658,547,3.76974,2.30801
441,477,4.05444,-2.80402,0,0,0,0,0,0,0,-1,1665,547,4.05444,2.804
448,477,10.4247,-11.7421,0,0,0,0,0,0,0,-1,1672,547,10.4247,11.7421
455,477,13.3054,-16.8109,0,0,0,0,0,0,0,-1,1679,547,13.3054,16.8109
462,477,16.2941,-21.2695,0,0,0,0,0,0,0,-1,1686,547,16.2941,21.2695
469,477,16.2578,-20.6835,0,0,0,0,0,0,0,-1,1693,547,16.2578,20.6835
476,477,16.2936,-19.9634,0.00217134,0.00347104,0.000226697,0.00350945,0.00213293,1.40297,0.00204181,0.022052,1700,547,16.2936,19.9634
483,477,16.3055,-19.3201,0.00208825,0.00283459,0.000397163,0.0030064,0.00191645,1.16253,0.00175747,0.011698,1707,547,16.3055,19.3201
490,477,16.2783,-18.6912,0.00186457,0.00240009,0.00051652,0.00271413,0.00155053,1.02452,0.0015723,0.0116964,1714,547,16.2783,18.6912
497,477,16.2491,-18.0294,0.00162493,0.00186046,0.000727592,0.00247975,0.00100563,0.865629,0.00144018,0.0131217,1721,547,16.2492,18.0294
504,477,16.2343,-17.425,0.00139609,0.0012288,0.000927587,0.0022438,0.000381096,0.740434,0.0013864,0.0186413,1728,547,16.2342,17.425
511,477,16.2511,-16.8538,0.00108111,0.000610576,0.00110637,0.00197695,-0.000285263,0.680635,0.00142262,0.0235889,1735,547,16.2511,16.8538
518,477,16.1952,-16.2111,0.000626954,1.36936e-05,0.0011851,0.00154445,-0.0009038,0.658805,0.00142954,0.0212084,1742,547,16.1952,16.2111
525,477,16.1399,-15.511,0.000136663,-0.000587963,0.00122402,0.00105087,-0.00150217,0.641505,0.00148165,0.0174011,1749,547,16.1399,15.511
532,477,16.0781,-14.8464,-0.000350012,-0.00104134,0.00124449,0.000595933,-0.00198728,0.649936,0.00156187,0.017924,1756,547,16.0781,14.8464
539,477,16.0933,-14.1294,-0.000829829,-0.00137993,0.00121455,0.000140428,-0.00235018,0.674046,0.00161563,0.0173244,1763,547,16.0933,14.1294
546,477,16.0121,-13.5461,-0.00128178,-0.00139381,0.00122148,-0.000115034,-0.00256056,0.762486,0.00167001,0.0418573,1770,547,16.0121,13.5462
553,477,16.0504,-12.7639,0,0,0,0,0,0,0,-1,1777,547,16.0504,12.7639
560,477,15.9912,-11.5029,0,0,0,0,0,0,0,-1,1784,547,15.9913,11.5029
567,477,13.9529,-8.70972,0,0,0,0,0,0,0,-1,1791,547,13.9529,8.7097
574,477,6.82593,-0.916992,0,0,0,0,0,0,0,-1,1798,547,6.82598,0.916977
581,477,9.29321,-0.557007,0,0,0,0,0,0,0,-1,1805,547,9.29324,0.55703
588,477,9.75195,0.422729,0,0,0,0,0,0,0,-1,1812,547,9.75198,-0.42273
595,477,9.89172,1.21326,0,0,0,0,0,0,0,-1,1819,547,9.89174,-1.21328
602,477,6.5271,-0.964417,0,0,0,0,0,0,0,-1,1826,547,6.52706,0.964427
609,477,0,0,0,0,0,0,0,0,0,-1,1833,547,0,0
616,477,0,0,0,0,0,0,0,0,0,-1,1840,547,0,0
623,477,0,0,0,0,0,0,0,0,0,-1,1847,547,0,0
630,477,0,0,0,0,0,0,0,0,0,-1,1854,547,0,0
637,477,0,0,0,0,0,0,0,0,0,-1,1861,547,0,0
644,477,0,0,0,0,0,0,0,0,0,-1,1868,547,0,0
651,477,0,0,0,0,0,0,0,0,0,-1,1875,547,0,0
658,477,0,0,0,0,0,0,0,0,0,-1,1882,547,0,0
665,477,0,0,0,0,0,0,0,0,0,-1,1889,547,0,0
672,477,0,0,0,0,0,0,0,0,0,-1,1896,547,0,0
679,477,0,0,0,0,0,0,0,0,0,-1,1903,547,0,0
686,477,0,0,0,0,0,0,0,0,0,-1,1910,547,0,0
693,477,0,0,0,0,0,0,0,0,0,-1,1917,547,0,0
700,477,0,0,0,0,0,0,0,0,0,-1,1924,547,0,0
707,477,0,0,0,0,0,0,0,0,0,-1,1931,547,0,0
714,477,0,0,0,0,0,0,0,0,0,-1,1938,547,0,0
721,477,0,0,0,0,0,0,0,0,0,-1,1945,547,0,0
728,477,0,0,0,0,0,0,0,0,0,-1,1952,547,0,0
735,477,0,0,0,0,0,0,0,0,0,-1,1959,547,0,0
742,477,0,0,0,0,0,0,0,0,0,-1,1966,547,0,0
749,477,0,0,0,0,0,0,0,0,0,-1,1973,547,0,0
756,477,0,0,0,0,0,0,0,0,0,-1,1980,547,0,0
763,477,0,0,0,0,0,0,0,0,0,-1,1987,547,0,0
770,477,0,0,0,0,0,0,0,0,0,-1,1994,547,0,0
777,477,0,0,0,0,0,0,0,0,0,-1,2001,547,0,0
784,477,0,0,0,0,0,0,0,0,0,-1,2008,547,0,0
791,477,0,0,0,0,0,0,0,0,0,-1,2015,547,0,0
798,477,0,0,0,0,0,0,0,0,0,-1,2022,547,0,0
805,477,0,0,0,0,0,0,0,0,0,-1,2029,547,0,0
812,477,0,0,0,0,0,0,0,0,0,-1,2036,547,0,0
-700,470,0,0,0,0,0,0,0,0,0,-1,524,554,0,0
-693,470,0,0,0,0,0,0,0,0,0,-1,531,554,0,0
-686,470,0,0,0,0,0,0,0,0,0,-1,538,554,0,0
-679,470,0,0,0,0,0,0,0,0,0,-1,545,554,0,0
-672,470,0,0,0,0,0,0,0,0,0,-1,552,554,0,0
-665,470,0,0,0,0,0,0,0,0,0,-1,559,554,0,0
-658,470,0,0,0,0,0,0,0,0,0,-1,566,554,0,0
-651,470,0,0,0,0,0,0,0,0,0,-1,573,554,0,0
-644,470,0,0,0,0,0,0,0,0,0,-1,580,554,0,0
-637,470,0,0,0,0,0,0,0,0,0,-1,587,554,0,0
-630,470,0,0,0,0,0,0,0,0,0,-1,594,554,0,0
-623,470,0,0,0,0,0,0,0,0,0,-1,601,554,0,0
-616,470,0,0,0,0,0,0,0,0,0,-1,608,554,0,0
-609,470,0,0,0,0,0,0,0,0,0,-1,615,554,0,0
-602,470,0,0,0,0,0,0,0,0,0,-1,622,554,0,0
-595,470,0,0,0,0,0,0,0,0,0,-1,629,554,0,0
-588,470,0,0,0,0,0,0,0,0,0,-1,636,554,0,0
-581,470,0,0,0,0,0,0,0,0,0,-1,643,554,0,0
-574,470,0,0,0,0,0,0,0,0,0,-1,650,554,0,0
-567,470,0,0,0,0,0,0,0,0,0,-1,657,554,0,0
-560,470,0,0,0,0,0,0,0,0,0,-1,664,554,0,0
-553,470,0,0,0,0,0,0,0,0,0,-1,671,554,0,0
-546,470,0,0,0,0,0,0,0,0,0,-1,678,554,0,0
-539,470,0,0,0,0,0,0,0,0,0,-1,685,554,0,0
-532,470,0,0,0,0,0,0,0,0,0,-1,692,554,0,0
-525,470,0,0,0,0,0,0,0,0,0,-1,699,554,0,0
-518,470,0,0,0,0,0,0,0,0,0,-1,706,554,0,0
-511,470,0,0,0,0,0,0,0,0,0,-1,713,554,0,0
-504,470,0,0,0,0,0,0,0,0,0,-1,720,554,0,0
-497,470,0,0,0,0,0,0,0,0,0,-1,727,554,0,0
-490,470,-9.13263,-1.03125,0,0,0,0,0,0,0,-1,734,554,-9.1326,1.03127
-483,470,-7.68677,-1.03955,0,0,0,0,0,0,0,-1,741,554,-7.68678,1.03958
-476,470,-6.17969,-1.03394,0,0,0,0,0,0,0,-1,748,554,-6.17971,1.03395
-469,470,-6.23016,-0.651855,0,0,0,0,0,0,0,-1,755,554,-6.23014,0.651829
-462,470,-4.87915,-1.03705,0,0,0,0,0,0,0,-1,762,554,-4.87914,1.03702
-455,470,-4.14777,-1.37079,0,0,0,0,0,0,0,-1,769,554,-4.14779,1.37078
-448,470,-2.9314,-5.74518,0,0,0,0,0,0,0,-1,776,554,-2.93137,5.74518
-441,470,-4.83759,-12.0768,0,0,0,0,0,0,0,-1,783,554,-4.83758,12.0768
-434,470,-5.60431,-13.5024,0,0,0,0,0,0,0,-1,790,554,-5.60432,13.5025
-427,470,-5.61407,-14.1378,0.000605885,0.012789,-0.00523728,0.0147308,-0.001336,-1.21573,0.0102948,0.0232176,797,554,-5.61408,14.1378
-420,470,-5.58392,-14.8069,0.000641638,0.0109607,-0.00474437,0.0128104,-0.0012081,-1.19904,0.00897013,0.015859,804,554,-5.58391,14.8069
-413,470,-5.6228,-15.4903,0.000720763,0.00913334,-0.004177,0.010855,-0.00100086,-1.17984,0.00759229,0.0133133,811,554,-5.62278,15.4903
-406,470,-5.65704,-16.1333,0.000773694,0.00731767,-0.00348695,0.00882739,-0.000736029,-1.1622,0.00614498,0.0113044,818,554,-5.65701,16.1333
-399,470,-5.67163,-16.7756,0.000847697,0.00565579,-0.0027634,0.0069145,-0.000411019,-1.14338,0.0047526,0.014684,825,554,-5.67166,16.7757
-392,470,-5.70374,-17.389,0.00114059,0.00401368,-0.00208764,0.00511128,4.29845e-05,-1.08675,0.00339328,0.0154286,832,554,-5.70373,17.3891
-385,470,-5.73303,-17.9966,0.00164272,0.00252507,-0.00152525,0.00367166,0.000496127,-0.92618,0.0023003,0.0120741,839,554,-5.73301,17.9967
-378,470,-5.7439,-18.6091,0.00219605,0.00118578,-0.00100876,0.00281908,0.000562746,-0.553274,0.00172272,0.0158641,846,554,-5.74392,18.6091
-371,470,-5.76318,-19.2029,0.00281731,-6.13954e-05,-0.000573946,0.00292752,-0.000171607,-0.189715,0.00201133,0.0139212,853,554,-5.76316,19.2029
-364,470,-5.79401,-19.7901,0.00354263,-0.00117299,-0.000226914,0.00355353,-0.00118388,-0.047972,0.00284692,0.0152263,860,554,-5.79402,19.7901
-357,470,-5.83179,-20.3914,0.00444589,-0.00210073,-4.21057e-05,0.00444617,-0.002101,-0.00643132,0.00385999,0.0144222,867,554,-5.83179,20.3914
-350,470,-5.8244,-21.0003,0.00559053,-0.00250442,-0.00022828,0.00559696,-0.00251085,-0.0281704,0.00479275,0.0116566,874,554,-5.82438,21.0003
-343,470,-5.6842,-21.5811,0.00670626,-0.00309604,-0.000406228,0.00672306,-0.00311284,-0.0413477,0.00580487,0.0476628,881,554,-5.68418,21.5811
-336,470,-5.59534,-22.2437,0,0,0,0,0,0,0,-1,888,554,-5.59536,22.2436
-329,470,-2.78516,-12.3594,0,0,0,0,0,0,0,-1,895,554,-2.78517,12.3594
-322,470,-2.30829,-11.4527,0,0,0,0,0,0,0,-1,902,554,-2.30827,11.4527
-315,470,-1.04797,-8.29529,0,0,0,0,0,0,0,-1,909,554,-1.04797,8.29526
-308,470,-1.39368,-6.68152,0,0,0,0,0,0,0,-1,916,554,-1.39369,6.68149
-301,470,-0.0340576,3.34888,0,0,0,0,0,0,0,-1,923,554,-0.0340496,-3.3489
-294,470,-1.18378,3.22266,0,0,0,0,0,0,0,-1,930,554,-1.18376,-3.22268
-287,470,-2.15454,3.2204,0,0,0,0,0,0,0,-1,937,554,-2.15452,-3.22037
-280,470,-3.00537,3.099,0,0,0,0,0,0,0,-1,944,554,-3.00536,-3.09898
-273,470,-12.3932,3.65009,0,0,0,0,0,0,0,-1,951,554,-12.3932,-3.65011
-266,470,-11.5706,1.16028,0,0,0,0,0,0,0,-1,958,554,-11.5706,-1.16031
-259,470,-7.50415,-2.77167,0,0,0,0,0,0,0,-1,965,554,-7.50413,2.7717
-252,470,-0.371155,-5.87823,0,0,0,0,0,0,0,-1,972,554,-0.37114,5.87821
-245,470,1.33221,-6.81122,0,0,0,0,0,0,0,-1,979,554,1.33223,6.8112
-238,470,0,0,0,0,0,0,0,0,0,-1,986,554,0,0
-231,470,0,0,0,0,0,0,0,0,0,-1,993,554,0,0
-224,470,0,0,0,0,0,0,0,0,0,-1,1000,554,0,0
-217,470,0,0,0,0,0,0,0,0,0,-1,1007,554,0,0
-210,470,0,0,0,0,0,0,0,0,0,-1,1014,554,0,0
-203,470,0,0,0,0,0,0,0,0,0,-1,1021,554,0,0
-196,470,0,0,0,0,0,0,0,0,0,-1,1028,554,0,0
-189,470,0,0,0,0,0,0,0,0,0,-1,1035,554,0,0
-182,470,0,0,0,0,0,0,0,0,0,-1,1042,554,0,0
-175,470,0,0,0,0,0,0,0,0,0,-1,1049,554,0,0
-168,470,0,0,0,0,0,0,0,0,0,-1,1056,554,0,0
-161,470,0,0,0,0,0,0,0,0,0,-1,1063,554,0,0
-154,470,0,0,0,0,0,0,0,0,0,-1,1070,554,0,0
-147,470,0,0,0,0,0,0,0,0,0,-1,1077,554,0,0
-140,470,0,0,0,0,0,0,0,0,0,-1,1084,554,0,0
-133,470,0,0,0,0,0,0,0,0,0,-1,1091,554,0,0
-126,470,0,0,0,0,0,0,0,0,0,-1,1098,554,0,0
-119,470,0,0,0,0,0,0,0,0,0,-1,1105,554,0,0
-112,470,0,0,0,0,0,0,0,0,0,-1,1112,554,0,0
-105,470,0,0,0,0,0,0,0,0,0,-1,1119,554,0,0
-98,470,0,0,0,0,0,0,0,0,0,-1,1126,554,0,0
-91,470,0,0,0,0,0,0,0,0,0,-1,1133,554,0,0
-84,470,0,0,0,0,0,0,0,0,0,-1,1140,554,0,0
-77,470,0,0,0,0,0,0,0,0,0,-1,1147,554,0,0
-70,470,0,0,0,0,0,0,0,0,0,-1,1154,554,0,0
-63,470,0,0,0,0,0,0,0,0,0,-1,1161,554,0,0
-56,470,0,0,0,0,0,0,0,0,0,-1,1168,554,0,0
-49,470,0,0,0,0,0,0,0,0,0,-1,1175,554,0,0
-42,470,0,0,0,0,0,0,0,0,0,-1,1182,554,0,0
-35,470,0,0,0,0,0,0,0,0,0,-1,1189,554,0,0
-28,470,0,0,0,0,0,0,0,0,0,-1,1196,554,0,0
-21,470,0,0,0,0,0,0,0,0,0,-1,1203,554,0,0
-14,470,0,0,0,0,0,0,0,0,0,-1,1210,554,0,0
-7,470,0,0,0,0,0,0,0,0,0,-1,1217,554,0,0
0,470,0,0,0,0,0,0,0,0,0,-1,1224,554,0,0
7,470,0,0,0,0,0,0,0,0,0,-1,1231,554,0,0
14,470,0,0,0,0,0,0,0,0,0,-1,1238,554,0,0
21,470,0,0,0,0,0,0,0,0,0,-1,1245,554,0,0
28,470,0,0,0,0,0,0,0,0,0,-1,1252,554,0,0
35,470,0,0,0,0,0,0,0,0,0,-1,1259,554,0,0
42,470,0,0,0,0,0,0,0,0,0,-1,1266,554,0,0
49,470,0,0,0,0,0,0,0,0,0,-1,1273,554,0,0
56,470,0,0,0,0,0,0,0,0,0,-1,1280,554,0,0
63,470,0,0,0,0,0,0,0,0,0,-1,1287,554,0,0
70,470,0,0,0,0,0,0,0,0,0,-1,1294,554,0,0
77,470,0,0,0,0,0,0,0,0,0,-1,1301,554,0,0
84,470,0,0,0,0,0,0,0,0,0,-1,1308,554,0,0
91,470,0,0,0,0,0,0,0,0,0,-1,1315,554,0,0
98,470,0,0,0,0,0,0,0,0,0,-1,1322,554,0,0
105,470,0,0,0,0,0,0,0,0,0,-1,1329,554,0,0
112,470,0,0,0,0,0,0,0,0,0,-1,1336,554,0,0
119,470,0,0,0,0,0,0,0,0,0,-1,1343,554,0,0
126,470,0,0,0,0,0,0,0,0,0,-1,1350,554,0,0
133,470,0,0,0,0,0,0,0,0,0,-1,1357,554,0,0
140,470,0,0,0,0,0,0,0,0,0,-1,1364,554,0,0
147,470,0,0,0,0,0,0,0,0,0,-1,1371,554,0,0
154,470,0,0,0,0,0,0,0,0,0,-1,1378,554,0,0
161,470,0,0,0,0,0,0,0,0,0,-1,1385,554,0,0
168,470,0,0,0,0,0,0,0,0,0,-1,1392,554,0,0
175,470,0,0,0,0,0,0,0,0,0,-1,1399,554,0,0
182,470,0,0,0,0,0,0,0,0,0,-1,1406,554,0,0
189,470,0,0,0,0,0,0,0,0,0,-1,1413,554,0,0
196,470,0,0,0,0,0,0,0,0,0,-1,1420,554,0,0
203,470,0,0,0,0,0,0,0,0,0,-1,1427,554,0,0
210,470,0,0,0,0,0,0,0,0,0,-1,1434,554,0,0
217,470,0,0,0,0,0,0,0,0,0,-1,1441,554,0,0
224,470,0,0,0,0,0,0,0,0,0,-1,1448,554,0,0
231,470,0,0,0,0,0,0,0,0,0,-1,1455,554,0,0
238,470,0,0,0,0,0,0,0,0,0,-1,1462,554,0,0
245,470,0,0,0,0,0,0,0,0,0,-1,1469,554,0,0
252,470,0,0,0,0,0,0,0,0,0,-1,1476,554,0,0
259,470,0,0,0,0,0,0,0,0,0,-1,1483,554,0,0
266,470,0,0,0,0,0,0,0,0,0,-1,1490,554,0,0
273,470,0,0,0,0,0,0,0,0,0,-1,1497,554,0,0
280,470,0,0,0,0,0,0,0,0,0,-1,1504,554,0,0
287,470,0,0,0,0,0,0,0,0,0,-1,1511,554,0,0
294,470,0,0,0,0,0,0,0,0,0,-1,1518,554,0,0
301,470,0,0,0,0,0,0,0,0,0,-1,1525,554,0,0
308,470,0,0,0,0,0,0,0,0,0,-1,1532,554,0,0
315,470,0,0,0,0,0,0,0,0,0,-1,1539,554,0,0
322,470,0,0,0,0,0,0,0,0,0,-1,1546,554,0,0
329,470,0,0,0,0,0,0,0,0,0,-1,1553,554,0,0
336,470,0,0,0,0,0,0,0,0,0,-1,1560,554,0,0
343,470,0,0,0,0,0,0,0,0,0,-1,1567,554,0,0
350,470,0,0,0,0,0,0,0,0,0,-1,1574,554,0,0
357,470,0,0,0,0,0,0,0,0,0,-1,1581,554,0,0
364,470,1.33423,0.293335,0,0,0,0,0,0,0,-1,1588,554,1.33422,-0.293348
371,470,2.22498,-0.0305176,0,0,0,0,0,0,0,-1,1595,554,2.22494,0.0305046
378,470,6.27051,0.710083,0,0,0,0,0,0,0,-1,1602,554,6.27054,-0.710093
385,470,10.3657,1.47296,0,0,0,0,0,0,0,-1,1609,554,10.3657,-1.47299
392,470,15.3881,3.01935,0,0,0,0,0,0,0,-1,1616,554,15.388,-3.01937
399,470,18.4479,2.93793,0,0,0,0,0,0,0,-1,1623,554,18.4479,-2.93792
406,470,15.1896,1.36676,0,0,0,0,0,0,0,-1,1630,554,15.1896,-1.36679
413,470,6.55383,1.99207,0,0,0,0,0,0,0,-1,1637,554,6.5538,-1.99208
420,470,4.47095,0.845703,0,0,0,0,0,0,0,-1,1644,554,4.47098,-0.845718
427,470,3.51038,1.19684,0,0,0,0,0,0,0,-1,1651,554,3.51039,-1.19684
434,470,3.31775,-1.37427,0,0,0,0,0,0,0,-1,1658,554,3.31781,1.37426
441,470,2.55457,-2.05902,0,0,0,0,0,0,0,-1,1665,554,2.55461,2.05904
448,470,3.27258,-2.64032,0,0,0,0,0,0,0,-1,1672,554,3.27257,2.64029
455,470,10.3658,-9.82233,0,0,0,0,0,0,0,-1,1679,554,10.3659,9.82233
462,470,11.0651,-11.9958,0,0,0,0,0,0,0,-1,1686,554,11.0651,11.9958
469,470,15.4242,-19.0521,0,0,0,0,0,0,0,-1,1693,554,15.4242,19.0521
476,470,16.9325,-20.009,0,0,0,0,0,0,0,-1,1700,554,16.9325,20.009
483,470,16.9396,-19.2927,0.00313289,0.00292366,0.000749054,0.0037846,0.00227195,0.716017,0.00219965,0.0174546,1707,554,16.9395,19.2927
490,470,16.9008,-18.6647,0.00281823,0.00262498,0.000788411,0.00351591,0.00192729,0.724423,0.00203305,0.0120296,1714,554,16.9008,18.6647
497,470,16.8828,-18.0266,0.00243012,0.0022075,0.000915537,0.00324109,0.00139653,0.724905,0.00187719,0.012734,1721,554,16.8828,18.0265
504,470,16.8887,-17.4372,0.00203013,0.00171796,0.000996552,0.00288275,0.000865345,0.707718,0.00170808,0.0196305,1728,554,16.8887,17.4372
511,470,16.9149,-16.8548,0.00155535,0.00127809,0.00106684,0.00249253,0.000340907,0.720787,0.00156051,0.0268797,1735,554,16.9149,16.8548
518,470,16.8961,-16.2214,0.000979875,0.000874195,0.00106378,0.00199213,-0.00013806,0.760583,0.00137642,0.0273011,1742,554,16.8961,16.2214
525,470,16.8254,-15.4886,0.000382548,0.000490817,0.00102961,0.00146772,-0.000594354,0.811663,0.00122562,0.0165509,1749,554,16.8255,15.4886
532,470,16.7572,-14.7712,-0.000185328,0.000240338,0.0009958,0.0010458,-0.000990785,0.890679,0.00117596,0.0132286,1756,554,16.7572,14.7713
539,470,16.726,-14.119,-0.000700111,9.83445e-05,0.000945046,0.000725029,-0.00132679,0.985249,0.00120148,0.0157795,1763,554,16.726,14.119
546,470,16.7015,-13.4944,-0.00114405,0.000210678,0.000934869,0.000687784,-0.00162116,1.09891,0.00136889,0.0148694,1770,554,16.7015,13.4944
553,470,16.7064,-12.801,-0.00143967,0.00055037,0.00101251,0.000974942,-0.00186424,1.17374,0.00166579,0.0254605,1777,554,16.7065,12.801
560,470,16.7,-12.0644,-0.00147707,0.00114054,0.0011406,0.0015678,-0.00190434,1.21238,0.00200778,0.0456477,1784,554,16.6999,12.0644
567,470,16.5547,-11.1394,0,0,0,0,0,0,0,-1,1791,554,16.5547,11.1394
574,470,14.2793,-8.07147,0,0,0,0,0,0,0,-1,1798,554,14.2793,8.07147
581,470,8.24646,-4.06317,0,0,0,0,0,0,0,-1,1805,554,8.24648,4.06318
588,470,11.1803,1.74927,0,0,0,0,0,0,0,-1,1812,554,11.1803,-1.74926
595,470,4.72192,3.44116,0,0,0,0,0,0,0,-1,1819,554,4.72191,-3.44116
602,470,14.4307,2.76141,0,0,0,0,0,0,0,-1,1826,554,14.4306,-2.76139
609,470,20.9181,4.41058,0,0,0,0,0,0,0,-1,1833,554,20.9181,-4.4106
616,470,0,0,0,0,0,0,0,0,0,-1,1840,554,0,0
623,470,0,0,0,0,0,0,0,0,0,-1,1847,554,0,0
630,470,0,0,0,0,0,0,0,0,0,-1,1854,554,0,0
637,470,0,0,0,0,0,0,0,0,0,-1,1861,554,0,0
644,470,0,0,0,0,0,0,0,0,0,-1,1868,554,0,0
651,470,0,0,0,0,0,0,0,0,0,-1,1875,554,0,0
658,470,0,0,0,0,0,0,0,0,0,-1,1882,554,0,0
665,470,0,0,0,0,0,0,0,0,0,-1,1889,554,0,0
672,470,0,0,0,0,0,0,0,0,0,-1,1896,554,0,0
679,470,0,0,0,0,0,0,0,0,0,-1,1903,554,0,0
686,470,0,0,0,0,0,0,0,0,0,-1,1910,554,0,0
693,470,0,0,0,0,0,0,0,0,0,-1,1917,554,0,0
700,470,0,0,0,0,0,0,0,0,0,-1,1924,554,0,0
707,470,0,0,0,0,0,0,0,0,0,-1,1931,554,0,0
714,470,0,0,0,0,0,0,0,0,0,-1,1938,554,0,0
721,470,0,0,0,0,0,0,0,0,0,-1,1945,554,0,0
728,470,0,0,0,0,0,0,0,0,0,-1,1952,554,0,0
735,470,0,0,0,0,0,0,0,0,0,-1,1959,554,0,0
742,470,0,0,0,0,0,0,0,0,0,-1,1966,554,0,0
749,470,0,0,0,0,0,0,0,0,0,-1,1973,554,0,0
756,470,0,0,0,0,0,0,0,0,0,-1,1980,554,0,0
763,470,0,0,0,0,0,0,0,0,0,-1,1987,554,0,0
770,470,0,0,0,0,0,0,0,0,0,-1,1994,554,0,0
777,470,0,0,0,0,0,0,0,0,0,-1,2001,554,0,0
784,470,0,0,0,0,0,0,0,0,0,-1,2008,554,0,0
791,470,0,0,0,0,0,0,0,0,0,-1,2015,554,0,0
798,470,0,0,0,0,0,0,0,0,0,-1,2022,554,0,0
805,470,0,0,0,0,0,0,0,0,0,-1,2029,554,0,0
812,470,0,0,0,0,0,0,0,0,0,-1,2036,554,0,0
-700,463,0,0,0,0,0,0,0,0,0,-1,524,561,0,0
-693,463,0,0,0,0,0,0,0,0,0,-1,531,561,0,0
-686,463,0,0,0,0,0,0,0,0,0,-1,538,561,0,0
-679,463,0,0,0,0,0,0,0,0,0,-1,545,561,0,0
-672,463,0,0,0,0,0,0,0,0,0,-1,552,561,0,0
-665,463,0,0,0,0,0,0,0,0,0,-1,559,561,0,0
-658,463,0,0,0,0,0,0,0,0,0,-1,566,561,0,0
-651,463,0,0,0,0,0,0,0,0,0,-1,573,561,0,0
-644,463,0,0,0,0,0,0,0,0,0,-1,580,561,0,0
-637,463,0,0,0,0,0,0,0,0,0,-1,587,561,0,0
-630,463,0,0,0,0,0,0,0,0,0,-1,594,561,0,0
-623,463,0,0,0,0,0,0,0,0,0,-1,601,561,0,0
-616,463,0,0,0,0,0,0,0,0,0,-1,608,561,0,0
-609,463,0,0,0,0,0,0,0,0,0,-1,615,561,0,0
-602,463,0,0,0,0,0,0,0,0,0,-1,622,561,0,0
-595,463,0,0,0,0,0,0,0,0,0,-1,629,561,0,0
-588,463,0,0,0,0,0,0,0,0,0,-1,636,561,0,0
-581,463,0,0,0,0,0,0,0,0,0,-1,643,561,0,0
-574,463,0,0,0,0,0,0,0,0,0,-1,650,561,0,0
-567,463,0,0,0,0,0,0,0,0,0,-1,657,561,0,0
-560,463,0,0,0,0,0,0,0,0,0,-1,664,561,0,0
-553,463,0,0,0,0,0,0,0,0,0,-1,671,561,0,0
-546,463,0,0,0,0,0,0,0,0,0,-1,678,561,0,0
-539,463,0,0,0,0,0,0,0,0,0,-1,685,561,0,0
-532,463,0,0,0,0,0,0,0,0,0,-1,692,561,0,0
-525,463,0,0,0,0,0,0,0,0,0,-1,699,561,0,0
-518,463,0,0,0,0,0,0,0,0,0,-1,706,561,0,0
-511,463,0,0,0,0,0,0,0,0,0,-1,713,561,0,0
-504,463,0,0,0,0,0,0,0,0,0,-1,720,561,0,0
-497,463,-9.81451,-1.67126,0,0,0,0,0,0,0,-1,727,561,-9.81452,1.67127
-490,463,-8.57043,-1.58942,0,0,0,0,0,0,0,-1,734,561,-8.57045,1.58944
-483,463,-7.29224,-1.7226,0,0,0,0,0,0,0,-1,741,561,-7.29226,1.72261
-476,463,-5.77704,-1.7312,0,0,0,0,0,0,0,-1,748,561,-5.77703,1.73121
-469,463,-5.14545,-2.138,0,0,0,0,0,0,0,-1,755,561,-5.14546,2.13799
-462,463,-3.13672,-3.07977,0,0,0,0,0,0,0,-1,762,561,-3.13672,3.07974
-455,463,-2.91406,-5.61798,0,0,0,0,0,0,0,-1,769,561,-2.91406,5.61801
-448,463,-4.00177,-8.54681,0,0,0,0,0,0,0,-1,776,561,-4.00175,8.54683
-441,463,-6.27563,-12.7243,0,0,0,0,0,0,0,-1,783,561,-6.27562,12.7243
-434,463,-6.17584,-13.5433,0.000474403,0.0109139,-0.00425687,0.0124296,-0.00104133,-1.22873,0.00865443,0.0292136,790,561,-6.17581,13.5433
-427,463,-6.19812,-14.1926,0.000524378,0.00944268,-0.00390654,0.0109119,-0.000944803,-1.21108,0.00760909,0.0118209,797,561,-6.19809,14.1926
-420,463,-6.19769,-14.816,0.00060675,0.0079609,-0.00351232,0.00936883,-0.000801182,-1.18955,0.00652935,0.0102665,804,561,-6.19768,14.816
-413,463,-6.2417,-15.4468,0.000702378,0.00644464,-0.00303711,0.00775292,-0.000605899,-1.16405,0.00538196,0.00987665,811,561,-6.24173,15.4468
-406,463,-6.28149,-16.0857,0.000784144,0.00492383,-0.00244738,0.00605928,-0.000351304,-1.13641,0.00416157,0.00996583,818,561,-6.28152,16.0857
-399,463,-6.29486,-16.727,0.000940651,0.00356608,-0.00185284,0.0045241,-1.73708e-05,-1.0936,0.00302187,0.0111595,825,561,-6.29487,16.727
-392,463,-6.32574,-17.351,0.00132635,0.00220194,-0.00129683,0.00313288,0.000395407,-0.948185,0.00197005,0.0114917,832,561,-6.32575,17.351
-385,463,-6.34711,-17.9799,0.00191069,0.000989376,-0.000851223,0.00241791,0.000482156,-0.537379,0.00147768,0.0118125,839,561,-6.34708,17.9799
-378,463,-6.36829,-18.5919,0.00256249,-9.30317e-05,-0.000437112,0.00263259,-0.000163132,-0.159017,0.00181189,0.0123801,846,561,-6.36827,18.5918
-371,463,-6.3847,-19.2113,0.0033368,-0.00105405,-8.93903e-05,0.00333862,-0.00105587,-0.0203471,0.00264881,0.0121005,853,561,-6.38473,19.2113
-364,463,-6.40747,-19.7767,0.00427048,-0.00182147,0.000124679,0.00427303,-0.00182402,0.0204547,0.00361355,0.0144319,860,561,-6.40744,19.7766
-357,463,-6.44867,-20.3508,0.00543346,-0.00247844,0.000151959,0.00543638,-0.00248136,0.019197,0.00467622,0.0208477,867,561,-6.44868,20.3508
-350,463,-6.32788,-21.0164,0.00693435,-0.00240434,-0.000300295,0.006944,-0.00241398,-0.0321118,0.00560988,0.0430541,874,561,-6.32789,21.0164
-343,463,-6.07031,-21.4791,0,0,0,0,0,0,0,-1,881,561,-6.07033,21.4791
-336,463,-2.94928,-12.2127,0,0,0,0,0,0,0,-1,888,561,-2.94925,12.2127
-329,463,-2.64307,-12.7037,0,0,0,0,0,0,0,-1,895,561,-2.64307,12.7038
-322,463,-1.82898,-9.11957,0,0,0,0,0,0,0,-1,902,561,-1.829,9.11957
-315,463,-0.944763,-5.96234,0,0,0,0,0,0,0,-1,909,561,-0.94479,5.96237
-308,463,-1.1535,-3.17889,0,0,0,0,0,0,0,-1,916,561,-1.15352,3.17889
-301,463,-1.50366,-3.15338,0,0,0,0,0,0,0,-1,923,561,-1.50364,3.15341
-294,463,-2.35889,-3.93463,0,0,0,0,0,0,0,-1,930,561,-2.35886,3.93465
-287,463,-2.80322,2.73999,0,0,0,0,0,0,0,-1,937,561,-2.80322,-2.74
-280,463,-12.864,5.25146,0,0,0,0,0,0,0,-1,944,561,-12.864,-5.25149
-273,463,-12.4598,3.39178,0,0,0,0,0,0,0,-1,951,561,-12.4598,-3.3918
-266,463,-8.78101,-3.7356,0,0,0,0,0,0,0,-1,958,561,-8.78098,3.73562
-259,463,-6.23285,-5.68842,0,0,0,0,0,0,0,-1,965,561,-6.23288,5.68843
-252,463,0,0,0,0,0,0,0,0,0,-1,972,561,0,0
-245,463,0,0,0,0,0,0,0,0,0,-1,979,561,0,0
-238,463,0,0,0,0,0,0,0,0,0,-1,986,561,0,0
-231,463,0,0,0,0,0,0,0,0,0,-1,993,561,0,0
-224,463,0,0,0,0,0,0,0,0,0,-1,1000,561,0,0
-217,463,0,0,0,0,0,0,0,0,0,-1,1007,561,0,0
-210,463,0,0,0,0,0,0,0,0,0,-1,1014,561,0,0
-203,463,0,0,0,0,0,0,0,0,0,-1,1021,561,0,0
-196,463,0,0,0,0,0,0,0,0,0,-1,1028,561,0,0
-189,463,0,0,0,0,0,0,0,0,0,-1,1035,561,0,0
-182,463,0,0,0,0,0,0,0,0,0,-1,1042,561,0,0
-175,463,0,0,0,0,0,0,0,0,0,-1,1049,561,0,0
-168,463,0,0,0,0,0,0,0,0,0,-1,1056,561,0,0
-161,463,0,0,0,0,0,0,0,0,0,-1,1063,561,0,0
-154,463,0,0,0,0,0,0,0,0,0,-1,1070,561,0,0
-147,463,0,0,0,0,0,0,0,0,0,-1,1077,561,0,0
-140,463,0,0,0,0,0,0,0,0,0,-1,1084,561,0,0
-133,463,0,0,0,0,0,0,0,0,0,-1,1091,561,0,0
-126,463,0,0,0,0,0,0,0,0,0,-1,1098,561,0,0
-119,463,0,0,0,0,0,0,0,0,0,-1,1105,561,0,0
-112,463,0,0,0,0,0,0,0,0,0,-1,1112,561,0,0
-105,463,0,0,0,0,0,0,0,0,0,-1,1119,561,0,0
-98,463,0,0,0,0,0,0,0,0,0,-1,1126,561,0,0
-91,463,0,0,0,0,0,0,0,0,0,-1,1133,561,0,0
-84,463,0,0,0,0,0,0,0,0,0,-1,1140,561,0,0
-77,463,0,0,0,0,0,0,0,0,0,-1,1147,561,0,0
-70,463,0,0,0,0,0,0,0,0,0,-1,1154,561,0,0
-63,463,0,0,0,0,0,0,0,0,0,-1,1161,561,0,0
-56,463,0,0,0,0,0,0,0,0,0,-1,1168,561,0,0
-49,463,0,0,0,0,0,0,0,0,0,-1,1175,561,0,0
-42,463,0,0,0,0,0,0,0,0,0,-1,1182,561,0,0
-35,463,0,0,0,0,0,0,0,0,0,-1,1189,561,0,0
-28,463,0,0,0,0,0,0,0,0,0,-1,1196,561,0,0
-21,463,0,0,0,0,0,0,0,0,0,-1,1203,561,0,0
-14,463,0,0,0,0,0,0,0,0,0,-1,1210,561,0,0
-7,463,0,0,0,0,0,0,0,0,0,-1,1217,561,0,0
0,463,0,0,0,0,0,0,0,0,0,-1,1224,561,0,0
7,463,0,0,0,0,0,0,0,0,0,-1,1231,561,0,0
14,463,0,0,0,0,0,0,0,0,0,-1,1238,561,0,0
21,463,0,0,0,0,0,0,0,0,0,-1,1245,561,0,0
28,463,0,0,0,0,0,0,0,0,0,-1,1252,561,0,0
35,463,0,0,0,0,0,0,0,0,0,-1,1259,561,0,0
42,463,0,0,0,0,0,0,0,0,0,-1,1266,561,0,0
49,463,0,0,0,0,0,0,0,0,0,-1,1273,561,0,0
56,463,0,0,0,0,0,0,0,0,0,-1,1280,561,0,0
63,463,0,0,0,0,0,0,0,0,0,-1,1287,561,0,0
70,463,0,0,0,0,0,0,0,0,0,-1,1294,561,0,0
77,463,0,0,0,0,0,0,0,0,0,-1,1301,561,0,0
84,463,0,0,0,0,0,0,0,0,0,-1,1308,561,0,0
91,463,0,0,0,0,0,0,0,0,0,-1,1315,561,0,0
98,463,0,0,0,0,0,0,0,0,0,-1,1322,561,0,0
105,463,0,0,0,0,0,0,0,0,0,-1,1329,561,0,0
112,463,0,0,0,0,0,0,0,0,0,-1,1336,561,0,0
119,463,0,0,0,0,0,0,0,0,0,-1,1343,561,0,0
126,463,0,0,0,0,0,0,0,0,0,-1,1350,561,0,0
133,463,0,0,0,0,0,0,0,0,0,-1,1357,561,0,0
140,463,0,0,0,0,0,0,0,0,0,-1,1364,561,0,0
147,463,0,0,0,0,0,0,0,0,0,-1,1371,561,0,0
154,463,0,0,0,0,0,0,0,0,0,-1,1378,561,0,0
161,463,0,0,0,0,0,0,0,0,0,-1,1385,561,0,0
168,463,0,0,0,0,0,0,0,0,0,-1,1392,561,0,0
175,463,0,0,0,0,0,0,0,0,0,-1,1399,561,0,0
182,463,0,0,0,0,0,0,0,0,0,-1,1406,561,0,0
189,463,0,0,0,0,0,0,0,0,0,-1,1413,561,0,0
196,463,0,0,0,0,0,0,0,0,0,-1,1420,561,0,0
203,463,0,0,0,0,0,0,0,0,0,-1,1427,561,0,0
210,463,0,0,0,0,0,0,0,0,0,-1,1434,561,0,0
217,463,0,0,0,0,0,0,0,0,0,-1,1441,561,0,0
224,463,0,0,0,0,0,0,0,0,0,-1,1448,561,0,0
231,463,0,0,0,0,0,0,0,0,0,-1,1455,561,0,0
238,463,0,0,0,0,0,0,0,0,0,-1,1462,561,0,0
245,463,0,0,0,0,0,0,0,0,0,-1,1469,561,0,0
252,463,0,0,0,0,0,0,0,0,0,-1,1476,561,0,0
259,463,0,0,0,0,0,0,0,0,0,-1,1483,561,0,0
266,463,0,0,0,0,0,0,0,0,0,-1,1490,561,0,0
273,463,0,0,0,0,0,0,0,0,0,-1,1497,561,0,0
280,463,0,0,0,0,0,0,0,0,0,-1,1504,561,0,0
287,463,0,0,0,0,0,0,0,0,0,-1,1511,561,0,0
294,463,0,0,0,0,0,0,0,0,0,-1,1518,561,0,0
301,463,0,0,0,0,0,0,0,0,0,-1,1525,561,0,0
308,463,0,0,0,0,0,0,0,0,0,-1,1532,561,0,0
315,463,0,0,0,0,0,0,0,0,0,-1,1539,561,0,0
322,463,0,0,0,0,0,0,0,0,0,-1,1546,561,0,0
329,463,0,0,0,0,0,0,0,0,0,-1,1553,561,0,0
336,463,0,0,0,0,0,0,0,0,0,-1,1560,561,0,0
343,463,0,0,0,0,0,0,0,0,0,-1,1567,561,0,0
350,463,0,0,0,0,0,0,0,0,0,-1,1574,561,0,0
357,463,0,0,0,0,0,0,0,0,0,-1,1581,561,0,0
364,463,0,0,0,0,0,0,0,0,0,-1,1588,561,0,0
371,463,1.75842,0.152588,0,0,0,0,0,0,0,-1,1595,561,1.75844,-0.152558
378,463,4.58813,-0.0444336,0,0,0,0,0,0,0,-1,1602,561,4.58809,0.0444505
385,463,8.88574,1.65057,0,0,0,0,0,0,0,-1,1609,561,8.88575,-1.65055
392,463,14.0912,2.50513,0,0,0,0,0,0,0,-1,1616,561,14.0912,-2.5051
399,463,21.4769,2.7002,0,0,0,0,0,0,0,-1,1623,561,21.477,-2.70017
406,463,26.2987,4.32318,0,0,0,0,0,0,0,-1,1630,561,26.2987,-4.3232
413,463,26.5011,2.65222,0,0,0,0,0,0,0,-1,1637,561,26.5011,-2.65224
420,463,8.849,2.26611,0,0,0,0,0,0,0,-1,1644,561,8.84899,-2.26613
427,463,5.12207,1.69183,0,0,0,0,0,0,0,-1,1651,561,5.12206,-1.69184
434,463,4.59814,1.81995,0,0,0,0,0,0,0,-1,1658,561,4.59812,-1.81994
441,463,1.76392,-5.99225,0,0,0,0,0,0,0,-1,1665,561,1.7639,5.99225
448,463,2.49939,-4.30536,0,0,0,0,0,0,0,-1,1672,561,2.49941,4.30536
455,463,4.40295,-3.02557,0,0,0,0,0,0,0,-1,1679,561,4.40299,3.02558
462,463,5.38293,-4.06445,0,0,0,0,0,0,0,-1,1686,561,5.38289,4.06444
469,463,5.94373,-4.50647,0,0,0,0,0,0,0,-1,1693,561,5.94368,4.50646
476,463,15.2559,-17.3189,0,0,0,0,0,0,0,-1,1700,561,15.2558,17.3189
483,463,17.5544,-19.354,0,0,0,0,0,0,0,-1,1707,561,17.5545,19.354
490,463,17.5497,-18.706,0.0040133,0.00257922,0.00130532,0.00478556,0.00180696,0.534237,0.00279041,0.0270423,1714,561,17.5497,18.706
497,463,17.4949,-18.0051,0.00353337,0.00225684,0.00133349,0.00437348,0.00141673,0.56219,0.00257668,0.0141789,1721,561,17.4948,18.0051
504,463,17.5129,-17.3752,0.00299387,0.00187166,0.00127864,0.0038291,0.00103642,0.578636,0.00228693,0.0163683,1728,561,17.5129,17.3752
511,463,17.5371,-16.7706,0.0023852,0.00155569,0.0012387,0.00327674,0.000664154,0.62385,0.00200021,0.0230679,1735,561,17.5371,16.7706
518,463,17.5736,-16.1389,0.00171631,0.00128037,0.0011746,0.00269299,0.000303693,0.693658,0.00170314,0.025001,1742,561,17.5736,16.1389
525,463,17.478,-15.4551,0.00102718,0.00105684,0.0010888,0.00213091,-4.68908e-05,0.792208,0.00143649,0.0197073,1749,561,17.4781,15.4551
532,463,17.4548,-14.7805,0.000390085,0.000945739,0.00102252,0.0017275,-0.000391682,0.91805,0.00130202,0.0166688,1756,561,17.4548,14.7805
539,463,17.3953,-14.1043,-0.000158842,0.000930547,0.000970091,0.0014984,-0.000726697,1.04121,0.00131016,0.0163029,1763,561,17.3953,14.1043
546,463,17.3409,-13.5037,-0.000602273,0.00111245,0.000965826,0.00154656,-0.00103638,1.14839,0.00150092,0.0130855,1770,561,17.341,13.5036
553,463,17.3346,-12.807,-0.000907398,0.00145952,0.00104739,0.00185644,-0.00130432,1.20856,0.00183412,0.0106958,1777,561,17.3346,12.807
560,463,17.3617,-12.0136,-0.000985465,0.0019913,0.00122108,0.0024281,-0.00142227,1.22727,0.00224815,0.0217092,1784,561,17.3617,12.0136
567,463,17.2108,-11.3929,-0.000716919,0.00282628,0.00164213,0.00347029,-0.00136092,1.19705,0.00287656,0.0310843,1791,561,17.2108,11.3929
574,463,17.2668,-10.7706,0,0,0,0,0,0,0,-1,1798,561,17.2668,10.7707
581,463,9.4939,-3.88245,0,0,0,0,0,0,0,-1,1805,561,9.49392,3.88245
588,463,1.97424,2.16016,0,0,0,0,0,0,0,-1,1812,561,1.97422,-2.16013
595,463,9.98657,2.99854,0,0,0,0,0,0,0,-1,1819,561,9.98662,-2.99856
602,463,17.2202,4.91302,0,0,0,0,0,0,0,-1,1826,561,17.2202,-4.91305
609,463,17.96,4.03131,0,0,0,0,0,0,0,-1,1833,561,17.96,-4.03132
616,463,20.8352,3.15131,0,0,0,0,0,0,0,-1,1840,561,20.8352,-3.1513
623,463,0,0,0,0,0,0,0,0,0,-1,1847,561,0,0
630,463,0,0,0,0,0,0,0,0,0,-1,1854,561,0,0
637,463,0,0,0,0,0,0,0,0,0,-1,1861,561,0,0
644,463,0,0,0,0,0,0,0,0,0,-1,1868,561,0,0
651,463,0,0,0,0,0,0,0,0,0,-1,1875,561,0,0
658,463,0,0,0,0,0,0,0,0,0,-1,1882,561,0,0
665,463,0,0,0,0,0,0,0,0,0,-1,1889,561,0,0
672,463,0,0,0,0,0,0,0,0,0,-1,1896,561,0,0
679,463,0,0,0,0,0,0,0,0,0,-1,1903,561,0,0
686,463,0,0,0,0,0,0,0,0,0,-1,1910,561,0,0
693,463,0,0,0,0,0,0,0,0,0,-1,1917,561,0,0
700,463,0,0,0,0,0,0,0,0,0,-1,1924,561,0,0
707,463,0,0,0,0,0,0,0,0,0,-1,1931,561,0,0
714,463,0,0,0,0,0,0,0,0,0,-1,1938,561,0,0
721,463,0,0,0,0,0,0,0,0,0,-1,1945,561,0,0
728,463,0,0,0,0,0,0,0,0,0,-1,1952,561,0,0
735,463,0,0,0,0,0,0,0,0,0,-1,1959,561,0,0
742,463,0,0,0,0,0,0,0,0,0,-1,1966,561,0,0
749,463,0,0,0,0,0,0,0,0,0,-1,1973,561,0,0
756,463,0,0,0,0,0,0,0,0,0,-1,1980,561,0,0
763,463,0,0,0,0,0,0,0,0,0,-1,1987,561,0,0
770,463,0,0,0,0,0,0,0,0,0,-1,1994,561,0,0
777,463,0,0,0,0,0,0,0,0,0,-1,2001,561,0,0
784,463,0,0,0,0,0,0,0,0,0,-1,2008,561,0,0
791,463,0,0,0,0,0,0,0,0,0,-1,2015,561,0,0
798,463,0,0,0,0,0,0,0,0,0,-1,2022,561,0,0
805,463,0,0,0,0,0,0,0,0,0,-1,2029,561,0,0
812,463,0,0,0,0,0,0,0,0,0,-1,2036,561,0,0
-700,456,0,0,0,0,0,0,0,0,0,-1,524,568,0,0
-693,456,0,0,0,0,0,0,0,0,0,-1,531,568,0,0
-686,456,0,0,0,0,0,0,0,0,0,-1,538,568,0,0
-679,456,0,0,0,0,0,0,0,0,0,-1,545,568,0,0
-672,456,0,0,0,0,0,0,0,0,0,-1,552,568,0,0
-665,456,0,0,0,0,0,0,0,0,0,-1,559,568,0,0
-658,456,0,0,0,0,0,0,0,0,0,-1,566,568,0,0
-651,456,0,0,0,0,0,0,0,0,0,-1,573,568,0,0
-644,456,0,0,0,0,0,0,0,0,0,-1,580,568,0,0
-637,456,0,0,0,0,0,0,0,0,0,-1,587,568,0,0
-630,456,0,0,0,0,0,0,0,0,0,-1,594,568,0,0
-623,456,0,0,0,0,0,0,0,0,0,-1,601,568,0,0
-616,456,0,0,0,0,0,0,0,0,0,-1,608,568,0,0
-609,456,0,0,0,0,0,0,0,0,0,-1,615,568,0,0
-602,456,0,0,0,0,0,0,0,0,0,-1,622,568,0,0
-595,456,0,0,0,0,0,0,0,0,0,-1,629,568,0,0
-588,456,0,0,0,0,0,0,0,0,0,-1,636,568,0,0
-581,456,0,0,0,0,0,0,0,0,0,-1,643,568,0,0
-574,456,0,0,0,0,0,0,0,0,0,-1,650,568,0,0
-567,456,0,0,0,0,0,0,0,0,0,-1,657,568,0,0
-560,456,0,0,0,0,0,0,0,0,0,-1,664,568,0,0
-553,456,0,0,0,0,0,0,0,0,0,-1,671,568,0,0
-546,456,0,0,0,0,0,0,0,0,0,-1,678,568,0,0
-539,456,0,0,0,0,0,0,0,0,0,-1,685,568,0,0
-532,456,0,0,0,0,0,0,0,0,0,-1,692,568,0,0
-525,456,0,0,0,0,0,0,0,0,0,-1,699,568,0,0
-518,456,0,0,0,0,0,0,0,0,0,-1,706,568,0,0
-511,456,0,0,0,0,0,0,0,0,0,-1,713,568,0,0
-504,456,-10.3994,-2.34839,0,0,0,0,0,0,0,-1,720,568,-10.3994,2.3484
-497,456,-9.21375,-2.38068,0,0,0,0,0,0,0,-1,727,568,-9.21372,2.38069
-490,456,-8.09058,-2.31824,0,0,0,0,0,0,0,-1,734,568,-8.09057,2.31821
-483,456,-6.66119,-2.24329,0,0,0,0,0,0,0,-1,741,568,-6.66121,2.24331
-476,456,-5.1499,-2.21185,0,0,0,0,0,0,0,-1,748,568,-5.14992,2.21184
-469,456,-2.81238,-3.51501,0,0,0,0,0,0,0,-1,755,568,-2.81237,3.51501
-462,456,-4.2431,-5.27478,0,0,0,0,0,0,0,-1,762,568,-4.24312,5.27476
-455,456,-5.98364,-8.72119,0,0,0,0,0,0,0,-1,769,568,-5.98364,8.72122
-448,456,-6.46747,-11.7814,0,0,0,0,0,0,0,-1,776,568,-6.46748,11.7813
-441,456,-6.68152,-12.8165,0.000466383,0.0095557,-0.00358497,0.0107995,-0.00077739,-1.23685,0.00747227,0.0345947,783,568,-6.68155,12.8166
-434,456,-6.80353,-13.5323,0.000545093,0.00821137,-0.00328938,0.00942927,-0.000672804,-1.2162,0.00652202,0.0173453,790,568,-6.80353,13.5324
-427,456,-6.82196,-14.1779,0.000620081,0.00692886,-0.00293832,0.00808537,-0.000536435,-1.19582,0.00557767,0.00948485,797,568,-6.82197,14.1778
-420,456,-6.84863,-14.8079,0.000716838,0.00566431,-0.00256589,0.00675472,-0.000373572,-1.16896,0.00463269,0.00946025,804,568,-6.84861,14.8079
-413,456,-6.88068,-15.4308,0.00079962,0.00435305,-0.00211501,0.00533857,-0.000185906,-1.13474,0.00362261,0.00914958,811,568,-6.88068,15.4309
-406,456,-6.92767,-16.0535,0.000878343,0.00303041,-0.00156886,0.00385679,5.19623e-05,-1.08599,0.00255405,0.00975529,818,568,-6.92768,16.0535
-399,456,-6.93665,-16.6854,0.00107696,0.00187775,-0.0010544,0.00260522,0.000349491,-0.966858,0.00163283,0.0118325,825,568,-6.93662,16.6854
-392,456,-6.93079,-17.3101,0.00151278,0.000714006,-0.00058492,0.00182166,0.000405126,-0.485852,0.00110445,0.011487,832,568,-6.9308,17.3101
-385,456,-6.95349,-17.9286,0.00213374,-0.000294513,-0.000230622,0.00215545,-0.000316222,-0.0938563,0.00155314,0.0107048,839,568,-6.95351,17.9286
-378,456,-6.98901,-18.5607,0.00284373,-0.00119119,9.38247e-05,0.00284591,-0.00119337,0.0232364,0.00239626,0.0112601,846,568,-6.98901,18.5607
-371,456,-6.99597,-19.1689,0.00374384,-0.00191204,0.000358557,0.00376648,-0.00193468,0.063059,0.00334772,0.01188,853,568,-6.99598,19.1689
-364,456,-7.00128,-19.7509,0.00487439,-0.002349,0.000432275,0.00490017,-0.00237478,0.0595604,0.00428372,0.0258483,860,568,-7.00126,19.7508
-357,456,-6.96313,-20.3916,0,0,0,0,0,0,0,-1,867,568,-6.96312,20.3916
-350,456,-6.72406,-21.2636,0,0,0,0,0,0,0,-1,874,568,-6.72405,21.2636
-343,456,-3.39081,-12.0217,0,0,0,0,0,0,0,-1,881,568,-3.39078,12.0217
-336,456,-3.04517,-12.4623,0,0,0,0,0,0,0,-1,888,568,-3.04519,12.4624
-329,456,-1.06183,-10.7184,0,0,0,0,0,0,0,-1,895,568,-1.06184,10.7184
-322,456,-0.662537,-7.66632,0,0,0,0,0,0,0,-1,902,568,-0.662564,7.66633
-315,456,-0.675476,-3.38397,0,0,0,0,0,0,0,-1,909,568,-0.675473,3.38399
-308,456,-1.1618,-3.15314,0,0,0,0,0,0,0,-1,916,568,-1.16178,3.15314
-301,456,-1.83551,-3.26447,0,0,0,0,0,0,0,-1,923,568,-1.8355,3.26449
-294,456,-2.93414,-3.35449,0,0,0,0,0,0,0,-1,930,568,-2.93413,3.35451
-287,456,-3.7569,-3.53101,0,0,0,0,0,0,0,-1,937,568,-3.75692,3.53101
-280,456,-13.072,4.52856,0,0,0,0,0,0,0,-1,944,568,-13.072,-4.52855
-273,456,-8.26538,-6.66748,0,0,0,0,0,0,0,-1,951,568,-8.26536,6.66745
-266,456,-5.71527,-9.36884,0,0,0,0,0,0,0,-1,958,568,-5.71529,9.36885
-259,456,0,0,0,0,0,0,0,0,0,-1,965,568,0,0
-252,456,0,0,0,0,0,0,0,0,0,-1,972,568,0,0
-245,456,0,0,0,0,0,0,0,0,0,-1,979,568,0,0
-238,456,0,0,0,0,0,0,0,0,0,-1,986,568,0,0
-231,456,0,0,0,0,0,0,0,0,0,-1,993,568,0,0
-224,456,0,0,0,0,0,0,0,0,0,-1,1000,568,0,0
-217,456,0,0,0,0,0,0,0,0,0,-1,1007,568,0,0
-210,456,0,0,0,0,0,0,0,0,0,-1,1014,568,0,0
-203,456,0,0,0,0,0,0,0,0,0,-1,1021,568,0,0
-196,456,0,0,0,0,0,0,0,0,0,-1,1028,568,0,0
-189,456,0,0,0,0,0,0,0,0,0,-1,1035,568,0,0
-182,456,0,0,0,0,0,0,0,0,0,-1,1042,568,0,0
-175,456,0,0,0,0,0,0,0,0,0,-1,1049,568,0,0
-168,456,0,0,0,0,0,0,0,0,0,-1,1056,568,0,0
-161,456,0,0,0,0,0,0,0,0,0,-1,1063,568,0,0
-154,456,0,0,0,0,0,0,0,0,0,-1,1070,568,0,0
-147,456,0,0,0,0,0,0,0,0,0,-1,1077,568,0,0
-140,456,0,0,0,0,0,0,0,0,0,-1,1084,568,0,0
-133,456,0,0,0,0,0,0,0,0,0,-1,1091,568,0,0
-126,456,0,0,0,0,0,0,0,0,0,-1,1098,568,0,0
-119,456,0,0,0,0,0,0,0,0,0,-1,1105,568,0,0
-112,456,0,0,0,0,0,0,0,0,0,-1,1112,568,0,0
-105,456,0,0,0,0,0,0,0,0,0,-1,1119,568,0,0
-98,456,0,0,0,0,0,0,0,0,0,-1,1126,568,0,0
-91,456,0,0,0,0,0,0,0,0,0,-1,1133,568,0,0
-84,456,0,0,0,0,0,0,0,0,0,-1,1140,568,0,0
-77,456,0,0,0,0,0,0,0,0,0,-1,1147,568,0,0
-70,456,0,0,0,0,0,0,0,0,0,-1,1154,568,0,0
-63,456,0,0,0,0,0,0,0,0,0,-1,1161,568,0,0
-56,456,0,0,0,0,0,0,0,0,0,-1,1168,568,0,0
-49,456,0,0,0,0,0,0,0,0,0,-1,1175,568,0,0
-42,456,0,0,0,0,0,0,0,0,0,-1,1182,568,0,0
-35,456,0,0,0,0,0,0,0,0,0,-1,1189,568,0,0
-28,456,0,0,0,0,0,0,0,0,0,-1,1196,568,0,0
-21,456,0,0,0,0,0,0,0,0,0,-1,1203,568,0,0
-14,456,0,0,0,0,0,0,0,0,0,-1,1210,568,0,0
-7,456,0,0,0,0,0,0,0,0,0,-1,1217,568,0,0
0,456,0,0,0,0,0,0,0,0,0,-1,1224,568,0,0
7,456,0,0,0,0,0,0,0,0,0,-1,1231,568,0,0
14,456,0,0,0,0,0,0,0,0,0,-1,1238,568,0,0
21,456,0,0,0,0,0,0,0,0,0,-1,1245,568,0,0
28,456,0,0,0,0,0,0,0,0,0,-1,1252,568,0,0
35,456,0,0,0,0,0,0,0,0,0,-1,1259,568,0,0
42,456,0,0,0,0,0,0,0,0,0,-1,1266,568,0,0
49,456,0,0,0,0,0,0,0,0,0,-1,1273,568,0,0
56,456,0,0,0,0,0,0,0,0,0,-1,1280,568,0,0
63,456,0,0,0,0,0,0,0,0,0,-1,1287,568,0,0
70,456,0,0,0,0,0,0,0,0,0,-1,1294,568,0,0
77,456,0,0,0,0,0,0,0,0,0,-1,1301,568,0,0
84,456,0,0,0,0,0,0,0,0,0,-1,1308,568,0,0
91,456,0,0,0,0,0,0,0,0,0,-1,1315,568,0,0
98,456,0,0,0,0,0,0,0,0,0,-1,1322,568,0,0
105,456,0,0,0,0,0,0,0,0,0,-1,1329,568,0,0
112,456,0,0,0,0,0,0,0,0,0,-1,1336,568,0,0
119,456,0,0,0,0,0,0,0,0,0,-1,1343,568,0,0
126,456,0,0,0,0,0,0,0,0,0,-1,1350,568,0,0
133,456,0,0,0,0,0,0,0,0,0,-1,1357,568,0,0
140,456,0,0,0,0,0,0,0,0,0,-1,1364,568,0,0
147,456,0,0,0,0,0,0,0,0,0,-1,1371,568,0,0
154,456,0,0,0,0,0,0,0,0,0,-1,1378,568,0,0
161,456,0,0,0,0,0,0,0,0,0,-1,1385,568,0,0
168,456,0,0,0,0,0,0,0,0,0,-1,1392,568,0,0
175,456,0,0,0,0,0,0,0,0,0,-1,1399,568,0,0
182,456,0,0,0,0,0,0,0,0,0,-1,1406,568,0,0
189,456,0,0,0,0,0,0,0,0,0,-1,1413,568,0,0
196,456,0,0,0,0,0,0,0,0,0,-1,1420,568,0,0
203,456,0,0,0,0,0,0,0,0,0,-1,1427,568,0,0
210,456,0,0,0,0,0,0,0,0,0,-1,1434,568,0,0
217,456,0,0,0,0,0,0,0,0,0,-1,1441,568,0,0
224,456,0,0,0,0,0,0,0,0,0,-1,1448,568,0,0
231,456,0,0,0,0,0,0,0,0,0,-1,1455,568,0,0
238,456,0,0,0,0,0,0,0,0,0,-1,1462,568,0,0
245,456,0,0,0,0,0,0,0,0,0,-1,1469,568,0,0
252,456,0,0,0,0,0,0,0,0,0,-1,1476,568,0,0
259,456,0,0,0,0,0,0,0,0,0,-1,1483,568,0,0
266,456,0,0,0,0,0,0,0,0,0,-1,1490,568,0,0
273,456,0,0,0,0,0,0,0,0,0,-1,1497,568,0,0
280,456,0,0,0,0,0,0,0,0,0,-1,1504,568,0,0
287,456,0,0,0,0,0,0,0,0,0,-1,1511,568,0,0
294,456,0,0,0,0,0,0,0,0,0,-1,1518,568,0,0
301,456,0,0,0,0,0,0,0,0,0,-1,1525,568,0,0
308,456,0,0,0,0,0,0,0,0,0,-1,1532,568,0,0
315,456,0,0,0,0,0,0,0,0,0,-1,1539,568,0,0
322,456,0,0,0,0,0,0,0,0,0,-1,1546,568,0,0
329,456,0,0,0,0,0,0,0,0,0,-1,1553,568,0,0
336,456,0,0,0,0,0,0,0,0,0,-1,1560,568,0,0
343,456,0,0,0,0,0,0,0,0,0,-1,1567,568,0,0
350,456,0,0,0,0,0,0,0,0,0,-1,1574,568,0,0
357,456,0,0,0,0,0,0,0,0,0,-1,1581,568,0,0
364,456,0,0,0,0,0,0,0,0,0,-1,1588,568,0,0
371,456,0,0,0,0,0,0,0,0,0,-1,1595,568,0,0
378,456,0,0,0,0,0,0,0,0,0,-1,1602,568,0,0
385,456,5.66284,0.660645,0,0,0,0,0,0,0,-1,1609,568,5.66285,-0.660615
392,456,17.5027,4.32971,0,0,0,0,0,0,0,-1,1616,568,17.5026,-4.32971
399,456,24.1917,5.99652,0,0,0,0,0,0,0,-1,1623,568,24.1916,-5.99651
406,456,24.446,4.53003,0,0,0,0,0,0,0,-1,1630,568,24.446,-4.53005
413,456,24.9418,2.90521,0,0,0,0,0,0,0,-1,1637,568,24.9418,-2.90524
420,456,25.3048,1.04712,0,0,0,0,0,0,0,-1,1644,568,25.3048,-1.04713
427,456,6.21375,2.02905,0,0,0,0,0,0,0,-1,1651,568,6.21372,-2.02904
434,456,3.0719,-4.86285,0,0,0,0,0,0,0,-1,1658,568,3.07184,4.86287
441,456,2.90344,-4.70459,0,0,0,0,0,0,0,-1,1665,568,2.90346,4.7046
448,456,3.06995,-4.93689,0,0,0,0,0,0,0,-1,1672,568,3.06991,4.93687
455,456,3.46582,-3.43701,0,0,0,0,0,0,0,-1,1679,568,3.46585,3.43698
462,456,4.68445,-4.45831,0,0,0,0,0,0,0,-1,1686,568,4.68439,4.45833
469,456,4.93201,-2.289,0,0,0,0,0,0,0,-1,1693,568,4.93197,2.28903
476,456,4.8363,-2.79364,0,0,0,0,0,0,0,-1,1700,568,4.83636,2.79363
483,456,12.8522,-13.692,0,0,0,0,0,0,0,-1,1707,568,12.8522,13.6919
490,456,18.0745,-18.9366,0,0,0,0,0,0,0,-1,1714,568,18.0745,18.9366
497,456,18.0967,-17.9829,0,0,0,0,0,0,0,-1,1721,568,18.0967,17.9829
504,456,18.1145,-17.3662,0.00411367,0.00196892,0.00166893,0.00502506,0.00105753,0.499839,0.00305908,0.0136498,1728,568,18.1145,17.3662
511,456,18.1438,-16.7365,0.00336851,0.00166898,0.00151357,0.00425454,0.000782954,0.529609,0.00261475,0.0139517,1735,568,18.1438,16.7365
518,456,18.1512,-16.0898,0.00261797,0.00141706,0.00139377,0.00353513,0.000499899,0.582006,0.00220906,0.0174526,1742,568,18.1512,16.0899
525,456,18.1012,-15.4332,0.00184723,0.00125832,0.00125256,0.00283948,0.000266064,0.669953,0.00181083,0.0165379,1749,568,18.1012,15.4332
532,456,18.0754,-14.7527,0.00115463,0.00119514,0.00114487,0.00231993,2.98404e-05,0.794243,0.00153677,0.0160129,1756,568,18.0754,14.7528
539,456,18.0406,-14.0728,0.000584536,0.00122442,0.00107629,0.00202732,-0.000218361,0.929871,0.0014299,0.0200827,1763,568,18.0407,14.0728
546,456,17.9716,-13.4371,0.000144113,0.00140305,0.00105948,0.00200594,-0.000458786,1.05344,0.00151358,0.0223461,1770,568,17.9716,13.4371
553,456,17.9371,-12.7469,-0.000174596,0.00171381,0.00113218,0.00224384,-0.000704623,1.13295,0.00177794,0.0140758,1777,568,17.9372,12.747
560,456,17.9384,-12.1096,-0.000296901,0.00215557,0.00132073,0.00273155,-0.000872879,1.15956,0.00217129,0.0107954,1784,568,17.9383,12.1096
567,456,17.9331,-11.4566,-8.82338e-05,0.00284204,0.00175595,0.00366382,-0.000910013,1.13308,0.0027957,0.0183154,1791,568,17.9331,11.4566
574,456,17.9357,-10.8084,0,0,0,0,0,0,0,-1,1798,568,17.9357,10.8084
581,456,16.2228,-9.08563,0,0,0,0,0,0,0,-1,1805,568,16.2228,9.08562
588,456,5.23901,-0.0901489,0,0,0,0,0,0,0,-1,1812,568,5.23906,0.0901656
595,456,6.90063,3.14886,0,0,0,0,0,0,0,-1,1819,568,6.90066,-3.14887
602,456,16.894,4.10938,0,0,0,0,0,0,0,-1,1826,568,16.8941,-4.1094
609,456,14.9966,3.5708,0,0,0,0,0,0,0,-1,1833,568,14.9966,-3.57083
616,456,17.7407,2.6579,0,0,0,0,0,0,0,-1,1840,568,17.7408,-2.6579
623,456,20.6838,1.7121,0,0,0,0,0,0,0,-1,1847,568,20.6838,-1.71208
630,456,0,0,0,0,0,0,0,0,0,-1,1854,568,0,0
637,456,0,0,0,0,0,0,0,0,0,-1,1861,568,0,0
644,456,0,0,0,0,0,0,0,0,0,-1,1868,568,0,0
651,456,0,0,0,0,0,0,0,0,0,-1,1875,568,0,0
658,456,0,0,0,0,0,0,0,0,0,-1,1882,568,0,0
665,456,0,0,0,0,0,0,0,0,0,-1,1889,568,0,0
672,456,0,0,0,0,0,0,0,0,0,-1,1896,568,0,0
679,456,0,0,0,0,0,0,0,0,0,-1,1903,568,0,0
686,456,0,0,0,0,0,0,0,0,0,-1,1910,568,0,0
693,456,0,0,0,0,0,0,0,0,0,-1,1917,568,0,0
700,456,0,0,0,0,0,0,0,0,0,-1,1924,568,0,0
707,456,0,0,0,0,0,0,0,0,0,-1,1931,568,0,0
714,456,0,0,0,0,0,0,0,0,0,-1,1938,568,0,0
721,456,0,0,0,0,0,0,0,0,0,-1,1945,568,0,0
728,456,0,0,0,0,0,0,0,0,0,-1,1952,568,0,0
735,456,0,0,0,0,0,0,0,0,0,-1,1959,568,0,0
742,456,0,0,0,0,0,0,0,0,0,-1,1966,568,0,0
749,456,0,0,0,0,0,0,0,0,0,-1,1973,568,0,0
756,456,0,0,0,0,0,0,0,0,0,-1,1980,568,0,0
763,456,0,0,0,0,0,0,0,0,0,-1,1987,568,0,0
770,456,0,0,0,0,0,0,0,0,0,-1,1994,568,0,0
777,456,0,0,0,0,0,0,0,0,0,-1,2001,568,0,0
784,456,0,0,0,0,0,0,0,0,0,-1,2008,568,0,0
791,456,0,0,0,0,0,0,0,0,0,-1,2015,568,0,0
798,456,0,0,0,0,0,0,0,0,0,-1,2022,568,0,0
805,456,0,0,0,0,0,0,0,0,0,-1,2029,568,0,0
812,456,0,0,0,0,0,0,0,0,0,-1,2036,568,0,0
-700,449,0,0,0,0,0,0,0,0,0,-1,524,575,0,0
-693,449,0,0,0,0,0,0,0,0,0,-1,531,575,0,0
-686,449,0,0,0,0,0,0,0,0,0,-1,538,575,0,0
-679,449,0,0,0,0,0,0,0,0,0,-1,545,575,0,0
-672,449,0,0,0,0,0,0,0,0,0,-1,552,575,0,0
-665,449,0,0,0,0,0,0,0,0,0,-1,559,575,0,0
-658,449,0,0,0,0,0,0,0,0,0,-1,566,575,0,0
-651,449,0,0,0,0,0,0,0,0,0,-1,573,575,0,0
-644,449,0,0,0,0,0,0,0,0,0,-1,580,575,0,0
-637,449,0,0,0,0,0,0,0,0,0,-1,587,575,0,0
-630,449,0,0,0,0,0,0,0,0,0,-1,594,575,0,0
-623,449,0,0,0,0,0,0,0,0,0,-1,601,575,0,0
-616,449,0,0,0,0,0,0,0,0,0,-1,608,575,0,0
-609,449,0,0,0,0,0,0,0,0,0,-1,615,575,0,0
-602,449,0,0,0,0,0,0,0,0,0,-1,622,575,0,0
-595,449,0,0,0,0,0,0,0,0,0,-1,629,575,0,0
-588,449,0,0,0,0,0,0,0,0,0,-1,636,575,0,0
-581,449,0,0,0,0,0,0,0,0,0,-1,643,575,0,0
-574,449,0,0,0,0,0,0,0,0,0,-1,650,575,0,0
-567,449,0,0,0,0,0,0,0,0,0,-1,657,575,0,0
-560,449,0,0,0,0,0,0,0,0,0,-1,664,575,0,0
-553,449,0,0,0,0,0,0,0,0,0,-1,671,575,0,0
-546,449,0,0,0,0,0,0,0,0,0,-1,678,575,0,0
-539,449,0,0,0,0,0,0,0,0,0,-1,685,575,0,0
-532,449,0,0,0,0,0,0,0,0,0,-1,692,575,0,0
-525,449,0,0,0,0,0,0,0,0,0,-1,699,575,0,0
-518,449,0,0,0,0,0,0,0,0,0,-1,706,575,0,0
-511,449,-0.941345,-4.4519,0,0,0,0,0,0,0,-1,713,575,-0.941356,4.45191
-504,449,-14.1078,0.318237,0,0,0,0,0,0,0,-1,720,575,-14.1078,-0.318231
-497,449,-8.61292,-3.09009,0,0,0,0,0,0,0,-1,727,575,-8.61291,3.09011
-490,449,-7.50995,-2.96252,0,0,0,0,0,0,0,-1,734,575,-7.50995,2.96251
-483,449,-5.77789,-2.50061,0,0,0,0,0,0,0,-1,741,575,-5.77792,2.50059
-476,449,-4.1723,-2.07739,0,0,0,0,0,0,0,-1,748,575,-4.17228,2.0774
-469,449,-5.0976,-5.78448,0,0,0,0,0,0,0,-1,755,575,-5.09758,5.78451
-462,449,-6.54181,-9.54535,0,0,0,0,0,0,0,-1,762,575,-6.54178,9.54536
-455,449,-7.56665,-11.1964,0,0,0,0,0,0,0,-1,769,575,-7.56666,11.1964
-448,449,-7.32263,-12.0869,0.000406236,0.00822583,-0.0030561,0.00927852,-0.000646451,-1.23907,0.00641204,0.0437472,776,575,-7.3226,12.0869
-441,449,-7.3371,-12.9315,0.000498243,0.00704046,-0.0027803,0.0080624,-0.000523689,-1.21856,0.00555772,0.0201133,783,575,-7.3371,12.9315
-434,449,-7.42896,-13.5273,0.000588546,0.00591034,-0.00247449,0.0068831,-0.000384215,-1.19624,0.00472202,0.0137372,790,575,-7.42894,13.5273
-427,449,-7.4682,-14.1542,0.000667945,0.00482289,-0.00212532,0.00571744,-0.000226596,-1.17241,0.00388936,0.0134575,797,575,-7.46823,14.1542
-420,449,-7.49011,-14.7994,0.00077332,0.00376411,-0.00178177,0.00459485,-5.74214e-05,-1.13452,0.00308255,0.0128365,804,575,-7.49008,14.7994
-413,449,-7.49323,-15.4207,0.000844205,0.00265088,-0.00135763,0.00337824,0.000116843,-1.07895,0.00221424,0.0109274,811,575,-7.49323,15.4207
-406,449,-7.52972,-16.0378,0.000922712,0.00152397,-0.000854636,0.00212931,0.000317373,-0.954521,0.00132647,0.0105231,818,575,-7.52975,16.0378
-399,449,-7.55823,-16.6636,0.00116728,0.000555555,-0.000415046,0.00137699,0.000345845,-0.467855,0.000827172,0.00990043,825,575,-7.55825,16.6636
-392,449,-7.54889,-17.2847,0.00165173,-0.000420985,-2.77815e-05,0.00165211,-0.000421357,-0.0134002,0.00126546,0.0103497,832,575,-7.54889,17.2847
-385,449,-7.56769,-17.8892,0.00229962,-0.00125711,0.000245929,0.00231654,-0.00127403,0.0687089,0.00210194,0.0106927,839,575,-7.56767,17.8892
-378,449,-7.61151,-18.4969,0.00306333,-0.00202351,0.000492645,0.0031106,-0.00207078,0.0956624,0.00301149,0.00992034,846,575,-7.61149,18.4969
-371,449,-7.58942,-19.1424,0.00409004,-0.00257065,0.000689981,0.00416076,-0.00264137,0.102145,0.00395974,0.0180873,853,575,-7.58942,19.1424
-364,449,-7.48798,-19.8307,0,0,0,0,0,0,0,-1,860,575,-7.48795,19.8307
-357,449,-5.88049,-15.8704,0,0,0,0,0,0,0,-1,867,575,-5.88051,15.8704
-350,449,-2.8764,-9.90204,0,0,0,0,0,0,0,-1,874,575,-2.87638,9.90203
-343,449,-2.98492,-9.2254,0,0,0,0,0,0,0,-1,881,575,-2.98491,9.22541
-336,449,-1.29523,-9.54626,0,0,0,0,0,0,0,-1,888,575,-1.29525,9.54626
-329,449,-0.733398,-7.78937,0,0,0,0,0,0,0,-1,895,575,-0.733398,7.78937
-322,449,-0.628845,-3.16669,0,0,0,0,0,0,0,-1,902,575,-0.628861,3.16667
-315,449,-0.540344,-3.21918,0,0,0,0,0,0,0,-1,909,575,-0.540336,3.21917
-308,449,-1.04413,-2.99341,0,0,0,0,0,0,0,-1,916,575,-1.04415,2.99338
-301,449,-1.58691,-2.80725,0,0,0,0,0,0,0,-1,923,575,-1.58692,2.80728
-294,449,-3.71118,-2.76086,0,0,0,0,0,0,0,-1,930,575,-3.71119,2.76087
-287,449,-4.4082,-2.69525,0,0,0,0,0,0,0,-1,937,575,-4.40822,2.69526
-280,449,0.422119,-14.0788,0,0,0,0,0,0,0,-1,944,575,0.422122,14.0788
-273,449,0,0,0,0,0,0,0,0,0,-1,951,575,0,0
-266,449,0,0,0,0,0,0,0,0,0,-1,958,575,0,0
-259,449,0,0,0,0,0,0,0,0,0,-1,965,575,0,0
-252,449,0,0,0,0,0,0,0,0,0,-1,972,575,0,0
-245,449,0,0,0,0,0,0,0,0,0,-1,979,575,0,0
-238,449,0,0,0,0,0,0,0,0,0,-1,986,575,0,0
-231,449,0,0,0,0,0,0,0,0,0,-1,993,575,0,0
-224,449,0,0,0,0,0,0,0,0,0,-1,1000,575,0,0
-217,449,0,0,0,0,0,0,0,0,0,-1,1007,575,0,0
-210,449,0,0,0,0,0,0,0,0,0,-1,1014,575,0,0
-203,449,0,0,0,0,0,0,0,0,0,-1,1021,575,0,0
-196,449,0,0,0,0,0,0,0,0,0,-1,1028,575,0,0
-189,449,0,0,0,0,0,0,0,0,0,-1,1035,575,0,0
-182,449,0,0,0,0,0,0,0,0,0,-1,1042,575,0,0
-175,449,0,0,0,0,0,0,0,0,0,-1,1049,575,0,0
-168,449,0,0,0,0,0,0,0,0,0,-1,1056,575,0,0
-161,449,0,0,0,0,0,0,0,0,0,-1,1063,575,0,0
-154,449,0,0,0,0,0,0,0,0,0,-1,1070,575,0,0
-147,449,0,0,0,0,0,0,0,0,0,-1,1077,575,0,0
-140,449,0,0,0,0,0,0,0,0,0,-1,1084,575,0,0
-133,449,0,0,0,0,0,0,0,0,0,-1,1091,575,0,0
-126,449,0,0,0,0,0,0,0,0,0,-1,1098,575,0,0
-119,449,0,0,0,0,0,0,0,0,0,-1,1105,575,0,0
-112,449,0,0,0,0,0,0,0,0,0,-1,1112,575,0,0
-105,449,0,0,0,0,0,0,0,0,0,-1,1119,575,0,0
-98,449,0,0,0,0,0,0,0,0,0,-1,1126,575,0,0
-91,449,0,0,0,0,0,0,0,0,0,-1,1133,575,0,0
-84,449,0,0,0,0,0,0,0,0,0,-1,1140,575,0,0
-77,449,0,0,0,0,0,0,0,0,0,-1,1147,575,0,0
-70,449,0,0,0,0,0,0,0,0,0,-1,1154,575,0,0
-63,449,0,0,0,0,0,0,0,0,0,-1,1161,575,0,0
-56,449,0,0,0,0,0,0,0,0,0,-1,1168,575,0,0
-49,449,0,0,0,0,0,0,0,0,0,-1,1175,575,0,0
-42,449,0,0,0,0,0,0,0,0,0,-1,1182,575,0,0
-35,449,0,0,0,0,0,0,0,0,0,-1,1189,575,0,0
-28,449,0,0,0,0,0,0,0,0,0,-1,1196,575,0,0
-21,449,0,0,0,0,0,0,0,0,0,-1,1203,575,0,0
-14,449,0,0,0,0,0,0,0,0,0,-1,1210,575,0,0
-7,449,0,0,0,0,0,0,0,0,0,-1,1217,575,0,0
0,449,0,0,0,0,0,0,0,0,0,-1,1224,575,0,0
7,449,0,0,0,0,0,0,0,0,0,-1,1231,575,0,0
14,449,0,0,0,0,0,0,0,0,0,-1,1238,575,0,0
21,449,0,0,0,0,0,0,0,0,0,-1,1245,575,0,0
28,449,0,0,0,0,0,0,0,0,0,-1,1252,575,0,0
35,449,0,0,0,0,0,0,0,0,0,-1,1259,575,0,0
42,449,0,0,0,0,0,0,0,0,0,-1,1266,575,0,0
49,449,0,0,0,0,0,0,0,0,0,-1,1273,575,0,0
56,449,0,0,0,0,0,0,0,0,0,-1,1280,575,0,0
63,449,0,0,0,0,0,0,0,0,0,-1,1287,575,0,0
70,449,0,0,0,0,0,0,0,0,0,-1,1294,575,0,0
77,449,0,0,0,0,0,0,0,0,0,-1,1301,575,0,0
84,449,0,0,0,0,0,0,0,0,0,-1,1308,575,0,0
91,449,0,0,0,0,0,0,0,0,0,-1,1315,575,0,0
98,449,0,0,0,0,0,0,0,0,0,-1,1322,575,0,0
105,449,0,0,0,0,0,0,0,0,0,-1,1329,575,0,0
112,449,0,0,0,0,0,0,0,0,0,-1,1336,575,0,0
119,449,0,0,0,0,0,0,0,0,0,-1,1343,575,0,0
126,449,0,0,0,0,0,0,0,0,0,-1,1350,575,0,0
133,449,0,0,0,0,0,0,0,0,0,-1,1357,575,0,0
140,449,0,0,0,0,0,0,0,0,0,-1,1364,575,0,0
147,449,0,0,0,0,0,0,0,0,0,-1,1371,575,0,0
154,449,0,0,0,0,0,0,0,0,0,-1,1378,575,0,0
161,449,0,0,0,0,0,0,0,0,0,-1,1385,575,0,0
168,449,0,0,0,0,0,0,0,0,0,-1,1392,575,0,0
175,449,0,0,0,0,0,0,0,0,0,-1,1399,575,0,0
182,449,0,0,0,0,0,0,0,0,0,-1,1406,575,0,0
189,449,0,0,0,0,0,0,0,0,0,-1,1413,575,0,0
196,449,0,0,0,0,0,0,0,0,0,-1,1420,575,0,0
203,449,0,0,0,0,0,0,0,0,0,-1,1427,575,0,0
210,449,0,0,0,0,0,0,0,0,0,-1,1434,575,0,0
217,449,0,0,0,0,0,0,0,0,0,-1,1441,575,0,0
224,449,0,0,0,0,0,0,0,0,0,-1,1448,575,0,0
231,449,0,0,0,0,0,0,0,0,0,-1,1455,575,0,0
238,449,0,0,0,0,0,0,0,0,0,-1,1462,575,0,0
245,449,0,0,0,0,0,0,0,0,0,-1,1469,575,0,0
252,449,0,0,0,0,0,0,0,0,0,-1,1476,575,0,0
259,449,0,0,0,0,0,0,0,0,0,-1,1483,575,0,0
266,449,0,0,0,0,0,0,0,0,0,-1,1490,575,0,0
273,449,0,0,0,0,0,0,0,0,0,-1,1497,575,0,0
280,449,0,0,0,0,0,0,0,0,0,-1,1504,575,0,0
287,449,0,0,0,0,0,0,0,0,0,-1,1511,575,0,0
294,449,0,0,0,0,0,0,0,0,0,-1,1518,575,0,0
301,449,0,0,0,0,0,0,0,0,0,-1,1525,575,0,0
308,449,0,0,0,0,0,0,0,0,0,-1,1532,575,0,0
315,449,0,0,0,0,0,0,0,0,0,-1,1539,575,0,0
322,449,0,0,0,0,0,0,0,0,0,-1,1546,575,0,0
329,449,0,0,0,0,0,0,0,0,0,-1,1553,575,0,0
336,449,0,0,0,0,0,0,0,0,0,-1,1560,575,0,0
343,449,0,0,0,0,0,0,0,0,0,-1,1567,575,0,0
350,449,0,0,0,0,0,0,0,0,0,-1,1574,575,0,0
357,449,0,0,0,0,0,0,0,0,0,-1,1581,575,0,0
364,449,0,0,0,0,0,0,0,0,0,-1,1588,575,0,0
371,449,0,0,0,0,0,0,0,0,0,-1,1595,575,0,0
378,449,0,0,0,0,0,0,0,0,0,-1,1602,575,0,0
385,449,0,0,0,0,0,0,0,0,0,-1,1609,575,0,0
392,449,7.95471,3.66217,0,0,0,0,0,0,0,-1,1616,575,7.95471,-3.66218
399,449,19.9791,5.565,0,0,0,0,0,0,0,-1,1623,575,19.9791,-5.56499
406,449,24.9847,4.55969,0,0,0,0,0,0,0,-1,1630,575,24.9848,-4.55968
413,449,30.4159,3.15027,0,0,0,0,0,0,0,-1,1637,575,30.4159,-3.15028
420,449,23.9675,1.29718,0,0,0,0,0,0,0,-1,1644,575,23.9675,-1.29721
427,449,24.4276,-0.596558,0,0,0,0,0,0,0,-1,1651,575,24.4277,0.596569
434,449,25.61,-2.96594,0,0,0,0,0,0,0,-1,1658,575,25.61,2.96595
441,449,3.89856,-6.06458,0,0,0,0,0,0,0,-1,1665,575,3.89855,6.06459
448,449,4.03198,-5.18207,0,0,0,0,0,0,0,-1,1672,575,4.03197,5.18207
455,449,4.21948,-4.09467,0,0,0,0,0,0,0,-1,1679,575,4.21952,4.09465
462,449,4.23181,-2.96924,0,0,0,0,0,0,0,-1,1686,575,4.23185,2.96926
469,449,4.51672,-2.95135,0,0,0,0,0,0,0,-1,1693,575,4.51672,2.95135
476,449,4.71838,-1.86688,0,0,0,0,0,0,0,-1,1700,575,4.71842,1.86689
483,449,4.87878,-1.73126,0,0,0,0,0,0,0,-1,1707,575,4.87875,1.73128
490,449,5.73279,-2.74573,0,0,0,0,0,0,0,-1,1714,575,5.73282,2.74575
497,449,17.2095,-16.4381,0,0,0,0,0,0,0,-1,1721,575,17.2094,16.4381
504,449,18.7109,-17.3895,0,0,0,0,0,0,0,-1,1728,575,18.7109,17.3895
511,449,18.7429,-16.7031,0.00441003,0.00189852,0.00195447,0.0054774,0.000831155,0.499855,0.00340849,0.0126424,1735,575,18.7429,16.7031
518,449,18.7595,-16.0631,0.00360795,0.00154715,0.00173092,0.00459195,0.000563147,0.516924,0.00289192,0.0131673,1742,575,18.7595,16.0631
525,449,18.7257,-15.4052,0.00277036,0.00135077,0.00148589,0.00370728,0.000413842,0.562578,0.00234578,0.0128074,1749,575,18.7257,15.4052
532,449,18.6835,-14.7357,0.00202288,0.00124546,0.00129221,0.00298357,0.000284765,0.639299,0.00190125,0.0110027,1756,575,18.6835,14.7357
539,449,18.6331,-14.0667,0.00141735,0.0012533,0.00117085,0.00250905,0.000161603,0.750429,0.00162152,0.0149192,1763,575,18.633,14.0667
546,449,18.61,-13.4029,0.000944309,0.00137781,0.00110586,0.00228796,3.41587e-05,0.882172,0.00151405,0.0255953,1770,575,18.61,13.4029
553,449,18.5764,-12.7684,0.000563004,0.00162502,0.00113066,0.00234316,-0.000155133,1.00493,0.0016163,0.0176845,1777,575,18.5764,12.7683
560,449,18.5819,-12.1124,0.000329225,0.00197373,0.00127412,0.00266788,-0.000364928,1.07195,0.00191187,0.0143107,1784,575,18.5819,12.1124
567,449,18.5645,-11.4568,0.000359423,0.00252058,0.0016243,0.0033909,-0.000510899,1.07891,0.00244873,0.0100907,1791,575,18.5644,11.4569
574,449,18.5609,-10.7546,0.000476929,0.00308619,0.00204681,0.0042088,-0.000645683,1.06913,0.00304401,0.0241254,1798,575,18.5609,10.7546
581,449,18.575,-9.97498,0,0,0,0,0,0,0,-1,1805,575,18.5749,9.97497
588,449,12.3274,-4.5672,0,0,0,0,0,0,0,-1,1812,575,12.3274,4.5672
595,449,15.9352,-5.65479,0,0,0,0,0,0,0,-1,1819,575,15.9352,5.65478
602,449,9.46167,4.17444,0,0,0,0,0,0,0,-1,1826,575,9.46164,-4.17442
609,449,12.2028,3.18652,0,0,0,0,0,0,0,-1,1833,575,12.2027,-3.18655
616,449,14.9438,2.19867,0,0,0,0,0,0,0,-1,1840,575,14.9438,-2.19867
623,449,9.83789,-0.0820313,0,0,0,0,0,0,0,-1,1847,575,9.83794,0.0820443
630,449,8.90686,4.99329,0,0,0,0,0,0,0,-1,1854,575,8.90685,-4.99327
637,449,0,0,0,0,0,0,0,0,0,-1,1861,575,0,0
644,449,0,0,0,0,0,0,0,0,0,-1,1868,575,0,0
651,449,0,0,0,0,0,0,0,0,0,-1,1875,575,0,0
658,449,0,0,0,0,0,0,0,0,0,-1,1882,575,0,0
665,449,0,0,0,0,0,0,0,0,0,-1,1889,575,0,0
672,449,0,0,0,0,0,0,0,0,0,-1,1896,575,0,0
679,449,0,0,0,0,0,0,0,0,0,-1,1903,575,0,0
686,449,0,0,0,0,0,0,0,0,0,-1,1910,575,0,0
693,449,0,0,0,0,0,0,0,0,0,-1,1917,575,0,0
700,449,0,0,0,0,0,0,0,0,0,-1,1924,575,0,0
707,449,0,0,0,0,0,0,0,0,0,-1,1931,575,0,0
714,449,0,0,0,0,0,0,0,0,0,-1,1938,575,0,0
721,449,0,0,0,0,0,0,0,0,0,-1,1945,575,0,0
728,449,0,0,0,0,0,0,0,0,0,-1,1952,575,0,0
735,449,0,0,0,0,0,0,0,0,0,-1,1959,575,0,0
742,449,0,0,0,0,0,0,0,0,0,-1,1966,575,0,0
749,449,0,0,0,0,0,0,0,0,0,-1,1973,575,0,0
756,449,0,0,0,0,0,0,0,0,0,-1,1980,575,0,0
763,449,0,0,0,0,0,0,0,0,0,-1,1987,575,0,0
770,449,0,0,0,0,0,0,0,0,0,-1,1994,575,0,0
777,449,0,0,0,0,0,0,0,0,0,-1,2001,575,0,0
784,449,0,0,0,0,0,0,0,0,0,-1,2008,575,0,0
791,449,0,0,0,0,0,0,0,0,0,-1,2015,575,0,0
798,449,0,0,0,0,0,0,0,0,0,-1,2022,575,0,0
805,449,0,0,0,0,0,0,0,0,0,-1,2029,575,0,0
812,449,0,0,0,0,0,0,0,0,0,-1,2036,575,0,0
-700,442,0,0,0,0,0,0,0,0,0,-1,524,582,0,0
-693,442,0,0,0,0,0,0,0,0,0,-1,531,582,0,0
-686,442,0,0,0,0,0,0,0,0,0,-1,538,582,0,0
-679,442,0,0,0,0,0,0,0,0,0,-1,545,582,0,0
-672,442,0,0,0,0,0,0,0,0,0,-1,552,582,0,0
-665,442,0,0,0,0,0,0,0,0,0,-1,559,582,0,0
-658,442,0,0,0,0,0,0,0,0,0,-1,566,582,0,0
-651,442,0,0,0,0,0,0,0,0,0,-1,573,582,0,0
-644,442,0,0,0,0,0,0,0,0,0,-1,580,582,0,0
-637,442,0,0,0,0,0,0,0,0,0,-1,587,582,0,0
-630,442,0,0,0,0,0,0,0,0,0,-1,594,582,0,0
-623,442,0,0,0,0,0,0,0,0,0,-1,601,582,0,0
-616,442,0,0,0,0,0,0,0,0,0,-1,608,582,0,0
-609,442,0,0,0,0,0,0,0,0,0,-1,615,582,0,0
-602,442,0,0,0,0,0,0,0,0,0,-1,622,582,0,0
-595,442,0,0,0,0,0,0,0,0,0,-1,629,582,0,0
-588,442,0,0,0,0,0,0,0,0,0,-1,636,582,0,0
-581,442,0,0,0,0,0,0,0,0,0,-1,643,582,0,0
-574,442,0,0,0,0,0,0,0,0,0,-1,650,582,0,0
-567,442,0,0,0,0,0,0,0,0,0,-1,657,582,0,0
-560,442,0,0,0,0,0,0,0,0,0,-1,664,582,0,0
-553,442,0,0,0,0,0,0,0,0,0,-1,671,582,0,0
-546,442,0,0,0,0,0,0,0,0,0,-1,678,582,0,0
-539,442,0,0,0,0,0,0,0,0,0,-1,685,582,0,0
-532,442,0,0,0,0,0,0,0,0,0,-1,692,582,0,0
-525,442,0,0,0,0,0,0,0,0,0,-1,699,582,0,0
-518,442,-0.493774,-5.72943,0,0,0,0,0,0,0,-1,706,582,-0.493791,5.72946
-511,442,-1.33008,-6.18512,0,0,0,0,0,0,0,-1,713,582,-1.33006,6.18511
-504,442,-3.20807,-6.34082,0,0,0,0,0,0,0,-1,720,582,-3.2081,6.34083
-497,442,-13.6886,-0.250122,0,0,0,0,0,0,0,-1,727,582,-13.6886,0.250143
-490,442,-9.09039,-3.64862,0,0,0,0,0,0,0,-1,734,582,-9.09037,3.64861
-483,442,-7.36499,-1.01892,0,0,0,0,0,0,0,-1,741,582,-7.365,1.01895
-476,442,-4.84784,-4.44141,0,0,0,0,0,0,0,-1,748,582,-4.84787,4.44138
-469,442,-8.05206,-9.25629,0,0,0,0,0,0,0,-1,755,582,-8.05204,9.2563
-462,442,-8.23132,-10.6674,0,0,0,0,0,0,0,-1,762,582,-8.23132,10.6674
-455,442,-8.10199,-11.525,0.000154721,0.00720805,-0.00256764,0.00804374,-0.000680967,-1.25614,0.00560329,0.0498666,769,582,-8.10196,11.5251
-448,442,-7.96594,-12.1912,0.000310205,0.00595581,-0.00228429,0.00676428,-0.000498272,-1.23063,0.00468446,0.0186848,776,582,-7.96594,12.1912
-441,442,-7.99207,-12.869,0.000411311,0.00482021,-0.00194822,0.00555773,-0.000326205,-1.20891,0.00381853,0.0137514,783,582,-7.99204,12.869
-434,442,-8.03796,-13.5051,0.000510705,0.0038275,-0.00163917,0.00450087,-0.000162666,-1.18101,0.00305625,0.0139658,790,582,-8.03799,13.5051
-427,442,-8.08319,-14.1275,0.000613138,0.00287791,-0.00131554,0.00348131,9.74e-06,-1.14076,0.00231763,0.0136908,797,582,-8.08321,14.1275
-420,442,-8.10699,-14.7806,0.000748048,0.00199052,-0.00102359,0.00256664,0.000171924,-1.05814,0.00165676,0.0135688,804,582,-8.10701,14.7807
-413,442,-8.11243,-15.4064,0.000834336,0.00107382,-0.000660117,0.00162497,0.00028319,-0.875121,0.00100234,0.0115152,811,582,-8.1124,15.4064
-406,442,-8.13892,-16.0266,0.000942531,0.000180101,-0.000250059,0.00101723,0.000105406,-0.290274,0.000645889,0.0101109,818,582,-8.1389,16.0266
-399,442,-8.16766,-16.6449,0.00126676,-0.00054948,5.65898e-05,0.00126852,-0.000551241,0.0311175,0.0010775,0.00869155,825,582,-8.16764,16.6449
-392,442,-8.18988,-17.2529,0.00183525,-0.00123894,0.000292711,0.00186288,-0.00126656,0.094089,0.00181768,0.0105332,832,582,-8.1899,17.2528
-385,442,-8.21228,-17.8482,0.00253737,-0.00178476,0.000411366,0.00257617,-0.00182357,0.0940514,0.00255255,0.0125815,839,582,-8.21228,17.8482
-378,442,-8.22058,-18.4749,0.00338446,-0.00230362,0.000503375,0.00342866,-0.00234783,0.0875893,0.00335446,0.016442,846,582,-8.22059,18.4749
-371,442,-8.2406,-19.2094,0,0,0,0,0,0,0,-1,853,582,-8.24061,19.2093
-364,442,-6.89764,-17.5333,0,0,0,0,0,0,0,-1,860,582,-6.89765,17.5333
-357,442,-4.9115,-11.2649,0,0,0,0,0,0,0,-1,867,582,-4.91147,11.2649
-350,442,-1.75372,-6.27618,0,0,0,0,0,0,0,-1,874,582,-1.75371,6.27618
-343,442,-1.4599,-4.63605,0,0,0,0,0,0,0,-1,881,582,-1.4599,4.63607
-336,442,-1.4054,-2.64313,0,0,0,0,0,0,0,-1,888,582,-1.40539,2.64315
-329,442,-0.952576,-2.76923,0,0,0,0,0,0,0,-1,895,582,-0.952571,2.7692
-322,442,-0.972534,-2.63208,0,0,0,0,0,0,0,-1,902,582,-0.972512,2.6321
-315,442,-0.445557,-2.89764,0,0,0,0,0,0,0,-1,909,582,-0.445582,2.89765
-308,442,-0.654175,-3.07831,0,0,0,0,0,0,0,-1,916,582,-0.654145,3.07832
-301,442,-1.37427,-2.41455,0,0,0,0,0,0,0,-1,923,582,-1.37425,2.41453
-294,442,-2.99963,-2.07855,0,0,0,0,0,0,0,-1,930,582,-2.99964,2.07857
-287,442,3.54828,-9.00824,0,0,0,0,0,0,0,-1,937,582,3.54829,9.00823
-280,442,0,0,0,0,0,0,0,0,0,-1,944,582,0,0
-273,442,0,0,0,0,0,0,0,0,0,-1,951,582,0,0
-266,442,0,0,0,0,0,0,0,0,0,-1,958,582,0,0
-259,442,0,0,0,0,0,0,0,0,0,-1,965,582,0,0
-252,442,0,0,0,0,0,0,0,0,0,-1,972,582,0,0
-245,442,0,0,0,0,0,0,0,0,0,-1,979,582,0,0
-238,442,0,0,0,0,0,0,0,0,0,-1,986,582,0,0
-231,442,0,0,0,0,0,0,0,0,0,-1,993,582,0,0
-224,442,0,0,0,0,0,0,0,0,0,-1,1000,582,0,0
-217,442,0,0,0,0,0,0,0,0,0,-1,1007,582,0,0
-210,442,0,0,0,0,0,0,0,0,0,-1,1014,582,0,0
-203,442,0,0,0,0,0,0,0,0,0,-1,1021,582,0,0
-196,442,0,0,0,0,0,0,0,0,0,-1,1028,582,0,0
-189,442,0,0,0,0,0,0,0,0,0,-1,1035,582,0,0
-182,442,0,0,0,0,0,0,0,0,0,-1,1042,582,0,0
-175,442,0,0,0,0,0,0,0,0,0,-1,1049,582,0,0
-168,442,0,0,0,0,0,0,0,0,0,-1,1056,582,0,0
-161,442,0,0,0,0,0,0,0,0,0,-1,1063,582,0,0
-154,442,0,0,0,0,0,0,0,0,0,-1,1070,582,0,0
-147,442,0,0,0,0,0,0,0,0,0,-1,1077,582,0,0
-140,442,0,0,0,0,0,0,0,0,0,-1,1084,582,0,0
-133,442,0,0,0,0,0,0,0,0,0,-1,1091,582,0,0
-126,442,0,0,0,0,0,0,0,0,0,-1,1098,582,0,0
-119,442,0,0,0,0,0,0,0,0,0,-1,1105,582,0,0
-112,442,0,0,0,0,0,0,0,0,0,-1,1112,582,0,0
-105,442,0,0,0,0,0,0,0,0,0,-1,1119,582,0,0
-98,442,0,0,0,0,0,0,0,0,0,-1,1126,582,0,0
-91,442,0,0,0,0,0,0,0,0,0,-1,1133,582,0,0
-84,442,0,0,0,0,0,0,0,0,0,-1,1140,582,0,0
-77,442,0,0,0,0,0,0,0,0,0,-1,1147,582,0,0
-70,442,0,0,0,0,0,0,0,0,0,-1,1154,582,0,0
-63,442,0,0,0,0,0,0,0,0,0,-1,1161,582,0,0
-56,442,0,0,0,0,0,0,0,0,0,-1,1168,582,0,0
-49,442,0,0,0,0,0,0,0,0,0,-1,1175,582,0,0
-42,442,0,0,0,0,0,0,0,0,0,-1,1182,582,0,0
-35,442,0,0,0,0,0,0,0,0,0,-1,1189,582,0,0
-28,442,0,0,0,0,0,0,0,0,0,-1,1196,582,0,0
-21,442,0,0,0,0,0,0,0,0,0,-1,1203,582,0,0
-14,442,0,0,0,0,0,0,0,0,0,-1,1210,582,0,0
-7,442,0,0,0,0,0,0,0,0,0,-1,1217,582,0,0
0,442,0,0,0,0,0,0,0,0,0,-1,1224,582,0,0
7,442,0,0,0,0,0,0,0,0,0,-1,1231,582,0,0
14,442,0,0,0,0,0,0,0,0,0,-1,1238,582,0,0
21,442,0,0,0,0,0,0,0,0,0,-1,1245,582,0,0
28,442,0,0,0,0,0,0,0,0,0,-1,1252,582,0,0
35,442,0,0,0,0,0,0,0,0,0,-1,1259,582,0,0
42,442,0,0,0,0,0,0,0,0,0,-1,1266,582,0,0
49,442,0,0,0,0,0,0,0,0,0,-1,1273,582,0,0
56,442,0,0,0,0,0,0,0,0,0,-1,1280,582,0,0
63,442,0,0,0,0,0,0,0,0,0,-1,1287,582,0,0
70,442,0,0,0,0,0,0,0,0,0,-1,1294,582,0,0
77,442,0,0,0,0,0,0,0,0,0,-1,1301,582,0,0
84,442,0,0,0,0,0,0,0,0,0,-1,1308,582,0,0
91,442,0,0,0,0,0,0,0,0,0,-1,1315,582,0,0
98,442,0,0,0,0,0,0,0,0,0,-1,1322,582,0,0
105,442,0,0,0,0,0,0,0,0,0,-1,1329,582,0,0
112,442,0,0,0,0,0,0,0,0,0,-1,1336,582,0,0
119,442,0,0,0,0,0,0,0,0,0,-1,1343,582,0,0
126,442,0,0,0,0,0,0,0,0,0,-1,1350,582,0,0
133,442,0,0,0,0,0,0,0,0,0,-1,1357,582,0,0
140,442,0,0,0,0,0,0,0,0,0,-1,1364,582,0,0
147,442,0,0,0,0,0,0,0,0,0,-1,1371,582,0,0
154,442,0,0,0,0,0,0,0,0,0,-1,1378,582,0,0
161,442,0,0,0,0,0,0,0,0,0,-1,1385,582,0,0
168,442,0,0,0,0,0,0,0,0,0,-1,1392,582,0,0
175,442,0,0,0,0,0,0,0,0,0,-1,1399,582,0,0
182,442,0,0,0,0,0,0,0,0,0,-1,1406,582,0,0
189,442,0,0,0,0,0,0,0,0,0,-1,1413,582,0,0
196,442,0,0,0,0,0,0,0,0,0,-1,1420,582,0,0
203,442,0,0,0,0,0,0,0,0,0,-1,1427,582,0,0
210,442,0,0,0,0,0,0,0,0,0,-1,1434,582,0,0
217,442,0,0,0,0,0,0,0,0,0,-1,1441,582,0,0
224,442,0,0,0,0,0,0,0,0,0,-1,1448,582,0,0
231,442,0,0,0,0,0,0,0,0,0,-1,1455,582,0,0
238,442,0,0,0,0,0,0,0,0,0,-1,1462,582,0,0
245,442,0,0,0,0,0,0,0,0,0,-1,1469,582,0,0
252,442,0,0,0,0,0,0,0,0,0,-1,1476,582,0,0
259,442,0,0,0,0,0,0,0,0,0,-1,1483,582,0,0
266,442,0,0,0,0,0,0,0,0,0,-1,1490,582,0,0
273,442,0,0,0,0,0,0,0,0,0,-1,1497,582,0,0
280,442,0,0,0,0,0,0,0,0,0,-1,1504,582,0,0
287,442,0,0,0,0,0,0,0,0,0,-1,1511,582,0,0
294,442,0,0,0,0,0,0,0,0,0,-1,1518,582,0,0
301,442,0,0,0,0,0,0,0,0,0,-1,1525,582,0,0
308,442,0,0,0,0,0,0,0,0,0,-1,1532,582,0,0
315,442,0,0,0,0,0,0,0,0,0,-1,1539,582,0,0
322,442,0,0,0,0,0,0,0,0,0,-1,1546,582,0,0
329,442,0,0,0,0,0,0,0,0,0,-1,1553,582,0,0
336,442,0,0,0,0,0,0,0,0,0,-1,1560,582,0,0
343,442,0,0,0,0,0,0,0,0,0,-1,1567,582,0,0
350,442,0,0,0,0,0,0,0,0,0,-1,1574,582,0,0
357,442,0,0,0,0,0,0,0,0,0,-1,1581,582,0,0
364,442,0,0,0,0,0,0,0,0,0,-1,1588,582,0,0
371,442,0,0,0,0,0,0,0,0,0,-1,1595,582,0,0
378,442,0,0,0,0,0,0,0,0,0,-1,1602,582,0,0
385,442,0,0,0,0,0,0,0,0,0,-1,1609,582,0,0
392,442,0,0,0,0,0,0,0,0,0,-1,1616,582,0,0
399,442,0,0,0,0,0,0,0,0,0,-1,1623,582,0,0
406,442,17.6321,4.08295,0,0,0,0,0,0,0,-1,1630,582,17.6321,-4.08293
413,442,25.4768,2.74445,0,0,0,0,0,0,0,-1,1637,582,25.4768,-2.74444
420,442,22.7478,1.55011,0,0,0,0,0,0,0,-1,1644,582,22.7478,-1.55009
427,442,23.2969,-0.456787,0,0,0,0,0,0,0,-1,1651,582,23.2968,0.456769
434,442,23.9512,-2.49365,0,0,0,0,0,0,0,-1,1658,582,23.9512,2.49366
441,442,24.8251,-4.43958,0,0,0,0,0,0,0,-1,1665,582,24.8251,4.43956
448,442,4.7749,-5.88562,0,0,0,0,0,0,0,-1,1672,582,4.7749,5.8856
455,442,4.87024,-4.60687,0,0,0,0,0,0,0,-1,1679,582,4.87019,4.60686
462,442,5.02307,-3.72821,0,0,0,0,0,0,0,-1,1686,582,5.02311,3.7282
469,442,5.12976,-2.98834,0,0,0,0,0,0,0,-1,1693,582,5.12971,2.98834
476,442,5.4624,1.76947,0,0,0,0,0,0,0,-1,1700,582,5.46234,-1.76944
483,442,5.98486,1.87042,0,0,0,0,0,0,0,-1,1707,582,5.98492,-1.87045
490,442,5.04407,-2.35834,0,0,0,0,0,0,0,-1,1714,582,5.04411,2.35837
497,442,6.20984,-3.07831,0,0,0,0,0,0,0,-1,1721,582,6.2098,3.07833
504,442,19.1965,-17.6794,0,0,0,0,0,0,0,-1,1728,582,19.1965,17.6794
511,442,19.3079,-16.7683,0.00542128,0.0023849,0.00232454,0.00667949,0.00112669,0.496119,0.00412899,0.0430502,1735,582,19.3078,16.7683
518,442,19.395,-15.9986,0.0045514,0.00184559,0.00204339,0.00564917,0.000747825,0.492984,0.00354324,0.0120565,1742,582,19.3951,15.9986
525,442,19.3636,-15.3599,0.0036271,0.00154171,0.00172353,0.00459879,0.000570016,0.513364,0.00289463,0.010614,1749,582,19.3637,15.3599
532,442,19.3359,-14.7118,0.00280707,0.00133728,0.0014662,0.00371224,0.000432108,0.553084,0.00234411,0.0112248,1756,582,19.336,14.7118
539,442,19.3054,-14.0297,0.00215978,0.00129248,0.00131182,0.00310777,0.000344493,0.625766,0.0019671,0.0133471,1763,582,19.3055,14.0297
546,442,19.3053,-13.3953,0.00165098,0.0013409,0.00121286,0.00271868,0.000273209,0.721829,0.00172859,0.0172626,1770,582,19.3053,13.3953
553,442,19.2524,-12.7634,0.00121508,0.00151075,0.00119607,0.00256809,0.000157738,0.846885,0.00166198,0.0173179,1777,582,19.2524,12.7634
560,442,19.2411,-12.0994,0.00089358,0.00176597,0.0012858,0.00268755,-2.79966e-05,0.948927,0.0018011,0.0145627,1784,582,19.2411,12.0994
567,442,19.213,-11.4207,0.00079004,0.00217883,0.00154033,0.00317405,-0.000205186,0.997161,0.00218764,0.0102022,1791,582,19.213,11.4207
574,442,19.1931,-10.7604,0.000816209,0.00266837,0.00188538,0.00384283,-0.000358256,1.01369,0.00268927,0.0131506,1798,582,19.1931,10.7603
581,442,19.2408,-9.99042,0.000875023,0.00319781,0.0023086,0.0046207,-0.00054786,1.01845,0.00327838,0.0268293,1805,582,19.2409,9.99043
588,442,19.3441,-9.18335,0,0,0,0,0,0,0,-1,1812,582,19.3441,9.18337
595,442,16.27,-6.47083,0,0,0,0,0,0,0,-1,1819,582,16.27,6.47082
602,442,16.2213,-4.49225,0,0,0,0,0,0,0,-1,1826,582,16.2213,4.49223
609,442,12.761,2.97223,0,0,0,0,0,0,0,-1,1833,582,12.761,-2.97221
616,442,9.78345,-0.103394,0,0,0,0,0,0,0,-1,1840,582,9.78341,0.103424
623,442,9.23828,0.326721,0,0,0,0,0,0,0,-1,1847,582,9.23829,-0.326727
630,442,7.74304,2.3924,0,0,0,0,0,0,0,-1,1854,582,7.7431,-2.39238
637,442,5.87805,1.84027,0,0,0,0,0,0,0,-1,1861,582,5.87807,-1.84025
644,442,0,0,0,0,0,0,0,0,0,-1,1868,582,0,0
651,442,0,0,0,0,0,0,0,0,0,-1,1875,582,0,0
658,442,0,0,0,0,0,0,0,0,0,-1,1882,582,0,0
665,442,0,0,0,0,0,0,0,0,0,-1,1889,582,0,0
672,442,0,0,0,0,0,0,0,0,0,-1,1896,582,0,0
679,442,0,0,0,0,0,0,0,0,0,-1,1903,582,0,0
686,442,0,0,0,0,0,0,0,0,0,-1,1910,582,0,0
693,442,0,0,0,0,0,0,0,0,0,-1,1917,582,0,0
700,442,0,0,0,0,0,0,0,0,0,-1,1924,582,0,0
707,442,0,0,0,0,0,0,0,0,0,-1,1931,582,0,0
714,442,0,0,0,0,0,0,0,0,0,-1,1938,582,0,0
721,442,0,0,0,0,0,0,0,0,0,-1,1945,582,0,0
728,442,0,0,0,0,0,0,0,0,0,-1,1952,582,0,0
735,442,0,0,0,0,0,0,0,0,0,-1,1959,582,0,0
742,442,0,0,0,0,0,0,0,0,0,-1,1966,582,0,0
749,442,0,0,0,0,0,0,0,0,0,-1,1973,582,0,0
756,442,0,0,0,0,0,0,0,0,0,-1,1980,582,0,0
763,442,0,0,0,0,0,0,0,0,0,-1,1987,582,0,0
770,442,0,0,0,0,0,0,0,0,0,-1,1994,582,0,0
777,442,0,0,0,0,0,0,0,0,0,-1,2001,582,0,0
784,442,0,0,0,0,0,0,0,0,0,-1,2008,582,0,0
791,442,0,0,0,0,0,0,0,0,0,-1,2015,582,0,0
798,442,0,0,0,0,0,0,0,0,0,-1,2022,582,0,0
805,442,0,0,0,0,0,0,0,0,0,-1,2029,582,0,0
812,442,0,0,0,0,0,0,0,0,0,-1,2036,582,0,0
-700,435,0,0,0,0,0,0,0,0,0,-1,524,589,0,0
-693,435,0,0,0,0,0,0,0,0,0,-1,531,589,0,0
-686,435,0,0,0,0,0,0,0,0,0,-1,538,589,0,0
-679,435,0,0,0,0,0,0,0,0,0,-1,545,589,0,0
-672,435,0,0,0,0,0,0,0,0,0,-1,552,589,0,0
-665,435,0,0,0,0,0,0,0,0,0,-1,559,589,0,0
-658,435,0,0,0,0,0,0,0,0,0,-1,566,589,0,0
-651,435,0,0,0,0,0,0,0,0,0,-1,573,589,0,0
-644,435,0,0,0,0,0,0,0,0,0,-1,580,589,0,0
-637,435,0,0,0,0,0,0,0,0,0,-1,587,589,0,0
-630,435,0,0,0,0,0,0,0,0,0,-1,594,589,0,0
-623,435,0,0,0,0,0,0,0,0,0,-1,601,589,0,0
-616,435,0,0,0,0,0,0,0,0,0,-1,608,589,0,0
-609,435,0,0,0,0,0,0,0,0,0,-1,615,589,0,0
-602,435,0,0,0,0,0,0,0,0,0,-1,622,589,0,0
-595,435,0,0,0,0,0,0,0,0,0,-1,629,589,0,0
-588,435,0,0,0,0,0,0,0,0,0,-1,636,589,0,0
-581,435,0,0,0,0,0,0,0,0,0,-1,643,589,0,0
-574,435,0,0,0,0,0,0,0,0,0,-1,650,589,0,0
-567,435,0,0,0,0,0,0,0,0,0,-1,657,589,0,0
-560,435,0,0,0,0,0,0,0,0,0,-1,664,589,0,0
-553,435,0,0,0,0,0,0,0,0,0,-1,671,589,0,0
-546,435,0,0,0,0,0,0,0,0,0,-1,678,589,0,0
-539,435,0,0,0,0,0,0,0,0,0,-1,685,589,0,0
-532,435,0,0,0,0,0,0,0,0,0,-1,692,589,0,0
-525,435,-10.0776,10.0547,0,0,0,0,0,0,0,-1,699,589,-10.0776,-10.0547
-518,435,-1.83093,-5.82367,0,0,0,0,0,0,0,-1,706,589,-1.83093,5.8237
-511,435,-2.45154,-5.33118,0,0,0,0,0,0,0,-1,713,589,-2.45151,5.33115
-504,435,-3.07208,-4.83862,0,0,0,0,0,0,0,-1,720,589,-3.0721,4.8386
-497,435,-6.31012,-5.84698,0,0,0,0,0,0,0,-1,727,589,-6.31012,5.84697
-490,435,-5.81903,-0.458679,0,0,0,0,0,0,0,-1,734,589,-5.81902,0.458684
-483,435,-6.96503,-3.01624,0,0,0,0,0,0,0,-1,741,589,-6.96505,3.01623
-476,435,-8.82837,-8.78882,0,0,0,0,0,0,0,-1,748,589,-8.82834,8.78884
-469,435,-8.56366,-9.71716,0,0,0,0,0,0,0,-1,755,589,-8.56367,9.71716
-462,435,-8.60168,-10.6174,0,0,0,0,0,0,0,-1,762,589,-8.60166,10.6174
-455,435,-8.65149,-11.4962,0.000110659,0.0054645,-0.00200702,0.00613332,-0.000558168,-1.24913,0.00428707,0.0240443,769,589,-8.65151,11.4962
-448,435,-8.62714,-12.1915,0.000319691,0.00433693,-0.00174987,0.00499225,-0.000335633,-1.21247,0.0034455,0.0127389,776,589,-8.62715,12.1914
-441,435,-8.64368,-12.84,0.00045042,0.00326929,-0.00142841,0.00386655,-0.000146846,-1.17475,0.00262802,0.0108879,783,589,-8.64369,12.84
-434,435,-8.67371,-13.4574,0.000570835,0.00238453,-0.00114194,0.0029359,1.94613e-05,-1.12097,0.00195081,0.0130851,790,589,-8.6737,13.4574
-427,435,-8.70197,-14.1077,0.000692575,0.00152874,-0.000844119,0.00205264,0.000168677,-1.01533,0.00131581,0.0108688,797,589,-8.70194,14.1077
-420,435,-8.72479,-14.7419,0.000839136,0.000748539,-0.000580364,0.00137597,0.000211708,-0.746451,0.000855518,0.0108439,804,589,-8.72481,14.7419
-413,435,-8.74677,-15.3829,0.000915393,-4.7385e-05,-0.000237838,0.000970942,-0.000102934,-0.229445,0.000684192,0.0113092,811,589,-8.74677,15.3829
-406,435,-8.77539,-16.0126,0.00101207,-0.000795959,0.000134218,0.00102198,-0.000805868,0.0736957,0.00105777,0.011763,818,589,-8.77541,16.0126
-399,435,-8.80005,-16.608,0.00136158,-0.00140366,0.000381683,0.0014133,-0.00145538,0.134675,0.00165629,0.00999534,825,589,-8.80004,16.608
-392,435,-8.83777,-17.2337,0.00194469,-0.00192176,0.000559963,0.00202416,-0.00200123,0.140968,0.00232407,0.0108771,832,589,-8.83777,17.2337
-385,435,-8.83069,-17.8397,0.00260352,-0.00231049,0.00064082,0.00268571,-0.00239268,0.127565,0.00293364,0.0208334,839,589,-8.83066,17.8396
-378,435,-8.87982,-18.3738,0.00342431,-0.00272695,0.000718795,0.00350719,-0.00280983,0.114793,0.00365453,0.0460114,846,589,-8.8798,18.3738
-371,435,-9.18964,-19.0514,0,0,0,0,0,0,0,-1,853,589,-9.18966,19.0514
-364,435,-5.62848,-11.5937,0,0,0,0,0,0,0,-1,860,589,-5.62847,11.5937
-357,435,-5.57343,-10.9666,0,0,0,0,0,0,0,-1,867,589,-5.57342,10.9666
-350,435,-0.86676,-3.69836,0,0,0,0,0,0,0,-1,874,589,-0.866784,3.69834
-343,435,-1.60706,-2.36835,0,0,0,0,0,0,0,-1,881,589,-1.60706,2.36838
-336,435,-2.07263,-1.94012,0,0,0,0,0,0,0,-1,888,589,-2.07265,1.94014
-329,435,-2.55963,-1.5517,0,0,0,0,0,0,0,-1,895,589,-2.5596,1.55168
-322,435,-3.08545,-1.55255,0,0,0,0,0,0,0,-1,902,589,-3.08544,1.55254
-315,435,-0.404297,-2.63763,0,0,0,0,0,0,0,-1,909,589,-0.404276,2.63761
-308,435,-1.70056,-1.90369,0,0,0,0,0,0,0,-1,916,589,-1.70056,1.90367
-301,435,-1.25232,-2.05511,0,0,0,0,0,0,0,-1,923,589,-1.25234,2.05514
-294,435,0.75238,-5.02625,0,0,0,0,0,0,0,-1,930,589,0.752354,5.02627
-287,435,0,0,0,0,0,0,0,0,0,-1,937,589,0,0
-280,435,0,0,0,0,0,0,0,0,0,-1,944,589,0,0
-273,435,0,0,0,0,0,0,0,0,0,-1,951,589,0,0
-266,435,0,0,0,0,0,0,0,0,0,-1,958,589,0,0
-259,435,0,0,0,0,0,0,0,0,0,-1,965,589,0,0
-252,435,0,0,0,0,0,0,0,0,0,-1,972,589,0,0
-245,435,0,0,0,0,0,0,0,0,0,-1,979,589,0,0
-238,435,0,0,0,0,0,0,0,0,0,-1,986,589,0,0
-231,435,0,0,0,0,0,0,0,0,0,-1,993,589,0,0
-224,435,0,0,0,0,0,0,0,0,0,-1,1000,589,0,0
-217,435,0,0,0,0,0,0,0,0,0,-1,1007,589,0,0
-210,435,0,0,0,0,0,0,0,0,0,-1,1014,589,0,0
-203,435,0,0,0,0,0,0,0,0,0,-1,1021,589,0,0
-196,435,0,0,0,0,0,0,0,0,0,-1,1028,589,0,0
-189,435,0,0,0,0,0,0,0,0,0,-1,1035,589,0,0
-182,435,0,0,0,0,0,0,0,0,0,-1,1042,589,0,0
-175,435,0,0,0,0,0,0,0,0,0,-1,1049,589,0,0
-168,435,0,0,0,0,0,0,0,0,0,-1,1056,589,0,0
-161,435,0,0,0,0,0,0,0,0,0,-1,1063,589,0,0
-154,435,0,0,0,0,0,0,0,0,0,-1,1070,589,0,0
-147,435,0,0,0,0,0,0,0,0,0,-1,1077,589,0,0
-140,435,0,0,0,0,0,0,0,0,0,-1,1084,589,0,0
-133,435,0,0,0,0,0,0,0,0,0,-1,1091,589,0,0
-126,435,0,0,0,0,0,0,0,0,0,-1,1098,589,0,0
-119,435,0,0,0,0,0,0,0,0,0,-1,1105,589,0,0
-112,435,0,0,0,0,0,0,0,0,0,-1,1112,589,0,0
-105,435,0,0,0,0,0,0,0,0,0,-1,1119,589,0,0
-98,435,0,0,0,0,0,0,0,0,0,-1,1126,589,0,0
-91,435,0,0,0,0,0,0,0,0,0,-1,1133,589,0,0
-84,435,0,0,0,0,0,0,0,0,0,-1,1140,589,0,0
-77,435,0,0,0,0,0,0,0,0,0,-1,1147,589,0,0
-70,435,0,0,0,0,0,0,0,0,0,-1,1154,589,0,0
-63,435,0,0,0,0,0,0,0,0,0,-1,1161,589,0,0
-56,435,0,0,0,0,0,0,0,0,0,-1,1168,589,0,0
-49,435,0,0,0,0,0,0,0,0,0,-1,1175,589,0,0
-42,435,0,0,0,0,0,0,0,0,0,-1,1182,589,0,0
-35,435,0,0,0,0,0,0,0,0,0,-1,1189,589,0,0
-28,435,0,0,0,0,0,0,0,0,0,-1,1196,589,0,0
-21,435,0,0,0,0,0,0,0,0,0,-1,1203,589,0,0
-14,435,0,0,0,0,0,0,0,0,0,-1,1210,589,0,0
-7,435,0,0,0,0,0,0,0,0,0,-1,1217,589,0,0
0,435,0,0,0,0,0,0,0,0,0,-1,1224,589,0,0
7,435,0,0,0,0,0,0,0,0,0,-1,1231,589,0,0
14,435,0,0,0,0,0,0,0,0,0,-1,1238,589,0,0
21,435,0,0,0,0,0,0,0,0,0,-1,1245,589,0,0
28,435,0,0,0,0,0,0,0,0,0,-1,1252,589,0,0
35,435,0,0,0,0,0,0,0,0,0,-1,1259,589,0,0
42,435,0,0,0,0,0,0,0,0,0,-1,1266,589,0,0
49,435,0,0,0,0,0,0,0,0,0,-1,1273,589,0,0
56,435,0,0,0,0,0,0,0,0,0,-1,1280,589,0,0
63,435,0,0,0,0,0,0,0,0,0,-1,1287,589,0,0
70,435,0,0,0,0,0,0,0,0,0,-1,1294,589,0,0
77,435,0,0,0,0,0,0,0,0,0,-1,1301,589,0,0
84,435,0,0,0,0,0,0,0,0,0,-1,1308,589,0,0
91,435,0,0,0,0,0,0,0,0,0,-1,1315,589,0,0
98,435,0,0,0,0,0,0,0,0,0,-1,1322,589,0,0
105,435,0,0,0,0,0,0,0,0,0,-1,1329,589,0,0
112,435,0,0,0,0,0,0,0,0,0,-1,1336,589,0,0
119,435,0,0,0,0,0,0,0,0,0,-1,1343,589,0,0
126,435,0,0,0,0,0,0,0,0,0,-1,1350,589,0,0
133,435,0,0,0,0,0,0,0,0,0,-1,1357,589,0,0
140,435,0,0,0,0,0,0,0,0,0,-1,1364,589,0,0
147,435,0,0,0,0,0,0,0,0,0,-1,1371,589,0,0
154,435,0,0,0,0,0,0,0,0,0,-1,1378,589,0,0
161,435,0,0,0,0,0,0,0,0,0,-1,1385,589,0,0
168,435,0,0,0,0,0,0,0,0,0,-1,1392,589,0,0
175,435,0,0,0,0,0,0,0,0,0,-1,1399,589,0,0
182,435,0,0,0,0,0,0,0,0,0,-1,1406,589,0,0
189,435,0,0,0,0,0,0,0,0,0,-1,1413,589,0,0
196,435,0,0,0,0,0,0,0,0,0,-1,1420,589,0,0
203,435,0,0,0,0,0,0,0,0,0,-1,1427,589,0,0
210,435,0,0,0,0,0,0,0,0,0,-1,1434,589,0,0
217,435,0,0,0,0,0,0,0,0,0,-1,1441,589,0,0
224,435,0,0,0,0,0,0,0,0,0,-1,1448,589,0,0
231,435,0,0,0,0,0,0,0,0,0,-1,1455,589,0,0
238,435,0,0,0,0,0,0,0,0,0,-1,1462,589,0,0
245,435,0,0,0,0,0,0,0,0,0,-1,1469,589,0,0
252,435,0,0,0,0,0,0,0,0,0,-1,1476,589,0,0
259,435,0,0,0,0,0,0,0,0,0,-1,1483,589,0,0
266,435,0,0,0,0,0,0,0,0,0,-1,1490,589,0,0
273,435,0,0,0,0,0,0,0,0,0,-1,1497,589,0,0
280,435,0,0,0,0,0,0,0,0,0,-1,1504,589,0,0
287,435,0,0,0,0,0,0,0,0,0,-1,1511,589,0,0
294,435,0,0,0,0,0,0,0,0,0,-1,1518,589,0,0
301,435,0,0,0,0,0,0,0,0,0,-1,1525,589,0,0
308,435,0,0,0,0,0,0,0,0,0,-1,1532,589,0,0
315,435,0,0,0,0,0,0,0,0,0,-1,1539,589,0,0
322,435,0,0,0,0,0,0,0,0,0,-1,1546,589,0,0
329,435,0,0,0,0,0,0,0,0,0,-1,1553,589,0,0
336,435,0,0,0,0,0,0,0,0,0,-1,1560,589,0,0
343,435,0,0,0,0,0,0,0,0,0,-1,1567,589,0,0
350,435,0,0,0,0,0,0,0,0,0,-1,1574,589,0,0
357,435,0,0,0,0,0,0,0,0,0,-1,1581,589,0,0
364,435,0,0,0,0,0,0,0,0,0,-1,1588,589,0,0
371,435,0,0,0,0,0,0,0,0,0,-1,1595,589,0,0
378,435,0,0,0,0,0,0,0,0,0,-1,1602,589,0,0
385,435,0,0,0,0,0,0,0,0,0,-1,1609,589,0,0
392,435,0,0,0,0,0,0,0,0,0,-1,1616,589,0,0
399,435,0,0,0,0,0,0,0,0,0,-1,1623,589,0,0
406,435,0,0,0,0,0,0,0,0,0,-1,1630,589,0,0
413,435,20.4565,3.49835,0,0,0,0,0,0,0,-1,1637,589,20.4565,-3.49836
420,435,21.4015,1.49609,0,0,0,0,0,0,0,-1,1644,589,21.4015,-1.49609
427,435,22.0464,-0.373962,0,0,0,0,0,0,0,-1,1651,589,22.0464,0.373972
434,435,22.1863,-1.54407,0,0,0,0,0,0,0,-1,1658,589,22.1862,1.54405
441,435,22.3992,-2.38287,0,0,0,0,0,0,0,-1,1665,589,22.3992,2.38289
448,435,7.4585,-0.00292969,0,0,0,0,0,0,0,-1,1672,589,7.45848,0.00294131
455,435,5.49915,-5.047,0,0,0,0,0,0,0,-1,1679,589,5.49914,5.04703
462,435,5.60669,-4.71466,0,0,0,0,0,0,0,-1,1686,589,5.60675,4.71469
469,435,5.87708,1.22351,0,0,0,0,0,0,0,-1,1693,589,5.87703,-1.22351
476,435,6.14136,1.37714,0,0,0,0,0,0,0,-1,1700,589,6.14138,-1.37712
483,435,6.49243,1.36169,0,0,0,0,0,0,0,-1,1707,589,6.49242,-1.36171
490,435,4.38391,-1.36218,0,0,0,0,0,0,0,-1,1714,589,4.38389,1.3622
497,435,7.23499,-3.64551,0,0,0,0,0,0,0,-1,1721,589,7.23495,3.64551
504,435,7.31189,-3.75909,0,0,0,0,0,0,0,-1,1728,589,7.31184,3.75911
511,435,19.8729,-16.9229,0,0,0,0,0,0,0,-1,1735,589,19.8729,16.9229
518,435,20.042,-15.999,0.00565384,0.00209517,0.00236609,0.00683498,0.00091403,0.463003,0.0042846,0.0281253,1742,589,20.0421,15.9989
525,435,20.0142,-15.3191,0.00458007,0.00171094,0.00196155,0.00557566,0.000715356,0.469672,0.00350309,0.0126916,1749,589,20.0141,15.3191
532,435,20.0034,-14.6498,0.00363275,0.00143682,0.00162727,0.00449782,0.000571745,0.488616,0.0028273,0.0140218,1756,589,20.0034,14.6499
539,435,19.9819,-13.9858,0.00290738,0.00138062,0.00143657,0.0037708,0.000517191,0.541177,0.00236043,0.0155711,1763,589,19.9819,13.9859
546,435,19.9542,-13.3546,0.00232796,0.00138095,0.00130468,0.0032424,0.000466513,0.611326,0.0020241,0.015729,1770,589,19.9542,13.3546
553,435,19.9258,-12.7363,0.00181427,0.00149987,0.00124889,0.00291581,0.000398329,0.722792,0.00182564,0.0114148,1777,589,19.9257,12.7363
560,435,19.8972,-12.0792,0.00139196,0.00168839,0.00128689,0.00283557,0.000244778,0.842732,0.0018143,0.00911636,1784,589,19.8972,12.0792
567,435,19.8829,-11.3878,0.00113701,0.00200287,0.00145282,0.00308589,5.39813e-05,0.930205,0.00203951,0.00854651,1791,589,19.8829,11.3878
574,435,19.8433,-10.7364,0.00104779,0.00242661,0.00171594,0.00358645,-0.000112052,0.976412,0.00242918,0.0103495,1798,589,19.8433,10.7364
581,435,19.8232,-10.0612,0.00107077,0.0028933,0.00207589,0.00424913,-0.000285062,0.992222,0.00293239,0.0173461,1805,589,19.8233,10.0612
588,435,19.8011,-9.42371,0.00132263,0.0035679,0.00262474,0.00530001,-0.000409476,0.987481,0.00367744,0.0445052,1812,589,19.8012,9.42369
595,435,19.8408,-8.52521,0,0,0,0,0,0,0,-1,1819,589,19.8408,8.52521
602,435,16.8671,-6.39026,0,0,0,0,0,0,0,-1,1826,589,16.867,6.39024
609,435,15.2611,-3.42242,0,0,0,0,0,0,0,-1,1833,589,15.2611,3.42242
616,435,5.05151,-2.75269,0,0,0,0,0,0,0,-1,1840,589,5.05157,2.7527
623,435,11.7588,3.9704,0,0,0,0,0,0,0,-1,1847,589,11.7587,-3.97043
630,435,4.72742,-0.87561,0,0,0,0,0,0,0,-1,1854,589,4.7274,0.875636
637,435,5.05286,1.48792,0,0,0,0,0,0,0,-1,1861,589,5.05291,-1.48792
644,435,0,0,0,0,0,0,0,0,0,-1,1868,589,0,0
651,435,0,0,0,0,0,0,0,0,0,-1,1875,589,0,0
658,435,0,0,0,0,0,0,0,0,0,-1,1882,589,0,0
665,435,0,0,0,0,0,0,0,0,0,-1,1889,589,0,0
672,435,0,0,0,0,0,0,0,0,0,-1,1896,589,0,0
679,435,0,0,0,0,0,0,0,0,0,-1,1903,589,0,0
686,435,0,0,0,0,0,0,0,0,0,-1,1910,589,0,0
693,435,0,0,0,0,0,0,0,0,0,-1,1917,589,0,0
700,435,0,0,0,0,0,0,0,0,0,-1,1924,589,0,0
707,435,0,0,0,0,0,0,0,0,0,-1,1931,589,0,0
714,435,0,0,0,0,0,0,0,0,0,-1,1938,589,0,0
721,435,0,0,0,0,0,0,0,0,0,-1,1945,589,0,0
728,435,0,0,0,0,0,0,0,0,0,-1,1952,589,0,0
735,435,0,0,0,0,0,0,0,0,0,-1,1959,589,0,0
742,435,0,0,0,0,0,0,0,0,0,-1,1966,589,0,0
749,435,0,0,0,0,0,0,0,0,0,-1,1973,589,0,0
756,435,0,0,0,0,0,0,0,0,0,-1,1980,589,0,0
763,435,0,0,0,0,0,0,0,0,0,-1,1987,589,0,0
770,435,0,0,0,0,0,0,0,0,0,-1,1994,589,0,0
777,435,0,0,0,0,0,0,0,0,0,-1,2001,589,0,0
784,435,0,0,0,0,0,0,0,0,0,-1,2008,589,0,0
791,435,0,0,0,0,0,0,0,0,0,-1,2015,589,0,0
798,435,0,0,0,0,0,0,0,0,0,-1,2022,589,0,0
805,435,0,0,0,0,0,0,0,0,0,-1,2029,589,0,0
812,435,0,0,0,0,0,0,0,0,0,-1,2036,589,0,0
-700,428,0,0,0,0,0,0,0,0,0,-1,524,596,0,0
-693,428,0,0,0,0,0,0,0,0,0,-1,531,596,0,0
-686,428,0,0,0,0,0,0,0,0,0,-1,538,596,0,0
-679,428,0,0,0,0,0,0,0,0,0,-1,545,596,0,0
-672,428,0,0,0,0,0,0,0,0,0,-1,552,596,0,0
-665,428,0,0,0,0,0,0,0,0,0,-1,559,596,0,0
-658,428,0,0,0,0,0,0,0,0,0,-1,566,596,0,0
-651,428,0,0,0,0,0,0,0,0,0,-1,573,596,0,0
-644,428,0,0,0,0,0,0,0,0,0,-1,580,596,0,0
-637,428,0,0,0,0,0,0,0,0,0,-1,587,596,0,0
-630,428,0,0,0,0,0,0,0,0,0,-1,594,596,0,0
-623,428,0,0,0,0,0,0,0,0,0,-1,601,596,0,0
-616,428,0,0,0,0,0,0,0,0,0,-1,608,596,0,0
-609,428,0,0,0,0,0,0,0,0,0,-1,615,596,0,0
-602,428,0,0,0,0,0,0,0,0,0,-1,622,596,0,0
-595,428,0,0,0,0,0,0,0,0,0,-1,629,596,0,0
-588,428,0,0,0,0,0,0,0,0,0,-1,636,596,0,0
-581,428,0,0,0,0,0,0,0,0,0,-1,643,596,0,0
-574,428,0,0,0,0,0,0,0,0,0,-1,650,596,0,0
-567,428,0,0,0,0,0,0,0,0,0,-1,657,596,0,0
-560,428,0,0,0,0,0,0,0,0,0,-1,664,596,0,0
-553,428,0,0,0,0,0,0,0,0,0,-1,671,596,0,0
-546,428,0,0,0,0,0,0,0,0,0,-1,678,596,0,0
-539,428,0,0,0,0,0,0,0,0,0,-1,685,596,0,0
-532,428,0,0,0,0,0,0,0,0,0,-1,692,596,0,0
-525,428,-9.59918,7.58618,0,0,0,0,0,0,0,-1,699,596,-9.59918,-7.5862
-518,428,-2.92285,-4.81854,0,0,0,0,0,0,0,-1,706,596,-2.92285,4.81856
-511,428,-3.68811,-4.79474,0,0,0,0,0,0,0,-1,713,596,-3.68811,4.79474
-504,428,-4.45337,-4.77094,0,0,0,0,0,0,0,-1,720,596,-4.45337,4.77092
-497,428,-2.98108,-3.77502,0,0,0,0,0,0,0,-1,727,596,-2.98106,3.77505
-490,428,-6.39044,-2.80481,0,0,0,0,0,0,0,-1,734,596,-6.39047,2.80483
-483,428,-9.70264,-8.41449,0,0,0,0,0,0,0,-1,741,596,-9.70266,8.41448
-476,428,-9.12128,-9.34509,0,0,0,0,0,0,0,-1,748,596,-9.12125,9.34511
-469,428,-9.05487,-10.078,-0.000951633,0.00602269,-0.00165852,0.006397,-0.00132595,-1.34882,0.0047685,0.0287925,755,596,-9.05487,10.078
-462,428,-9.17712,-10.71,-0.000283977,0.00496168,-0.00165477,0.00544006,-0.000762356,-1.28938,0.00390571,0.0291808,762,596,-9.17711,10.71
-455,428,-9.25085,-11.4554,0.000120873,0.00408272,-0.00152687,0.00460287,-0.000399282,-1.24246,0.00320996,0.0154352,769,596,-9.25087,11.4555
-448,428,-9.2674,-12.1292,0.000373526,0.00308963,-0.00130862,0.00361752,-0.000154368,-1.18736,0.00246475,0.0107043,776,596,-9.26741,12.1292
-441,428,-9.29608,-12.7769,0.000522153,0.00208611,-0.00100567,0.00257805,3.02192e-05,-1.11586,0.00170871,0.0129787,783,596,-9.29609,12.7769
-434,428,-9.31689,-13.4485,0.000644001,0.00127933,-0.000736918,0.00176414,0.000159196,-0.9889,0.00112678,0.0104982,790,596,-9.31688,13.4485
-427,428,-9.31567,-14.0906,0.000759338,0.000481449,-0.000457491,0.00109852,0.000142268,-0.63797,0.00068983,0.0112883,797,596,-9.3157,14.0906
-420,428,-9.33301,-14.6865,0.000886034,-0.00025076,-0.0002023,0.000920962,-0.000285687,-0.170966,0.000728132,0.0119337,804,596,-9.33298,14.6865
-413,428,-9.37091,-15.3137,0.000924468,-0.000997124,0.000140842,0.000934736,-0.00100739,0.0727761,0.00112155,0.0142773,811,596,-9.37093,15.3137
-406,428,-9.40167,-15.9607,0.000980587,-0.00168436,0.000493173,0.00106893,-0.0017727,0.177242,0.0016573,0.0170346,818,596,-9.40167,15.9607
-399,428,-9.41681,-16.5827,0.00132022,-0.00229398,0.000700568,0.00145127,-0.00242503,0.184918,0.0022614,0.0163343,825,596,-9.41684,16.5827
-392,428,-9.39111,-17.2468,0.00187117,-0.00278326,0.00085116,0.00202194,-0.00293403,0.175315,0.00287743,0.0286873,832,596,-9.3911,17.2468
-385,428,-9.41943,-17.8719,0,0,0,0,0,0,0,-1,839,596,-9.41942,17.8719
-378,428,-9.63135,-18.3109,0,0,0,0,0,0,0,-1,846,596,-9.63134,18.3109
-371,428,-5.96155,-11.0703,0,0,0,0,0,0,0,-1,853,596,-5.96154,11.0702
-364,428,-6.33643,-10.7223,0,0,0,0,0,0,0,-1,860,596,-6.33645,10.7223
-357,428,-3.20996,-4.70966,0,0,0,0,0,0,0,-1,867,596,-3.20997,4.70965
-350,428,-1.62793,-3.94055,0,0,0,0,0,0,0,-1,874,596,-1.62794,3.94055
-343,428,-0.0567017,-4.80994,0,0,0,0,0,0,0,-1,881,596,-0.0567096,4.80996
-336,428,-3.29175,-1.39569,0,0,0,0,0,0,0,-1,888,596,-3.29172,1.39568
-329,428,-3.71564,-0.791321,0,0,0,0,0,0,0,-1,895,596,-3.71564,0.791299
-322,428,-5.52863,-3.59827,0,0,0,0,0,0,0,-1,902,596,-5.52865,3.59829
-315,428,-4.57172,-1.22052,0,0,0,0,0,0,0,-1,909,596,-4.57171,1.22052
-308,428,-5.94324,-0.810791,0,0,0,0,0,0,0,-1,916,596,-5.94321,0.810803
-301,428,0,0,0,0,0,0,0,0,0,-1,923,596,0,0
-294,428,0,0,0,0,0,0,0,0,0,-1,930,596,0,0
-287,428,0,0,0,0,0,0,0,0,0,-1,937,596,0,0
-280,428,0,0,0,0,0,0,0,0,0,-1,944,596,0,0
-273,428,0,0,0,0,0,0,0,0,0,-1,951,596,0,0
-266,428,0,0,0,0,0,0,0,0,0,-1,958,596,0,0
-259,428,0,0,0,0,0,0,0,0,0,-1,965,596,0,0
-252,428,0,0,0,0,0,0,0,0,0,-1,972,596,0,0
-245,428,0,0,0,0,0,0,0,0,0,-1,979,596,0,0
-238,428,0,0,0,0,0,0,0,0,0,-1,986,596,0,0
-231,428,0,0,0,0,0,0,0,0,0,-1,993,596,0,0
-224,428,0,0,0,0,0,0,0,0,0,-1,1000,596,0,0
-217,428,0,0,0,0,0,0,0,0,0,-1,1007,596,0,0
-210,428,0,0,0,0,0,0,0,0,0,-1,1014,596,0,0
-203,428,0,0,0,0,0,0,0,0,0,-1,1021,596,0,0
-196,428,0,0,0,0,0,0,0,0,0,-1,1028,596,0,0
-189,428,0,0,0,0,0,0,0,0,0,-1,1035,596,0,0
-182,428,0,0,0,0,0,0,0,0,0,-1,1042,596,0,0
-175,428,0,0,0,0,0,0,0,0,0,-1,1049,596,0,0
-168,428,0,0,0,0,0,0,0,0,0,-1,1056,596,0,0
-161,428,0,0,0,0,0,0,0,0,0,-1,1063,596,0,0
-154,428,0,0,0,0,0,0,0,0,0,-1,1070,596,0,0
-147,428,0,0,0,0,0,0,0,0,0,-1,1077,596,0,0
-140,428,0,0,0,0,0,0,0,0,0,-1,1084,596,0,0
-133,428,0,0,0,0,0,0,0,0,0,-1,1091,596,0,0
-126,428,0,0,0,0,0,0,0,0,0,-1,1098,596,0,0
-119,428,0,0,0,0,0,0,0,0,0,-1,1105,596,0,0
-112,428,0,0,0,0,0,0,0,0,0,-1,1112,596,0,0
-105,428,0,0,0,0,0,0,0,0,0,-1,1119,596,0,0
-98,428,0,0,0,0,0,0,0,0,0,-1,1126,596,0,0
-91,428,0,0,0,0,0,0,0,0,0,-1,1133,596,0,0
-84,428,0,0,0,0,0,0,0,0,0,-1,1140,596,0,0
-77,428,0,0,0,0,0,0,0,0,0,-1,1147,596,0,0
-70,428,0,0,0,0,0,0,0,0,0,-1,1154,596,0,0
-63,428,0,0,0,0,0,0,0,0,0,-1,1161,596,0,0
-56,428,0,0,0,0,0,0,0,0,0,-1,1168,596,0,0
-49,428,0,0,0,0,0,0,0,0,0,-1,1175,596,0,0
-42,428,0,0,0,0,0,0,0,0,0,-1,1182,596,0,0
-35,428,0,0,0,0,0,0,0,0,0,-1,1189,596,0,0
-28,428,0,0,0,0,0,0,0,0,0,-1,1196,596,0,0
-21,428,0,0,0,0,0,0,0,0,0,-1,1203,596,0,0
-14,428,0,0,0,0,0,0,0,0,0,-1,1210,596,0,0
-7,428,0,0,0,0,0,0,0,0,0,-1,1217,596,0,0
0,428,0,0,0,0,0,0,0,0,0,-1,1224,596,0,0
7,428,0,0,0,0,0,0,0,0,0,-1,1231,596,0,0
14,428,0,0,0,0,0,0,0,0,0,-1,1238,596,0,0
21,428,0,0,0,0,0,0,0,0,0,-1,1245,596,0,0
28,428,0,0,0,0,0,0,0,0,0,-1,1252,596,0,0
35,428,0,0,0,0,0,0,0,0,0,-1,1259,596,0,0
42,428,0,0,0,0,0,0,0,0,0,-1,1266,596,0,0
49,428,0,0,0,0,0,0,0,0,0,-1,1273,596,0,0
56,428,0,0,0,0,0,0,0,0,0,-1,1280,596,0,0
63,428,0,0,0,0,0,0,0,0,0,-1,1287,596,0,0
70,428,0,0,0,0,0,0,0,0,0,-1,1294,596,0,0
77,428,0,0,0,0,0,0,0,0,0,-1,1301,596,0,0
84,428,0,0,0,0,0,0,0,0,0,-1,1308,596,0,0
91,428,0,0,0,0,0,0,0,0,0,-1,1315,596,0,0
98,428,0,0,0,0,0,0,0,0,0,-1,1322,596,0,0
105,428,0,0,0,0,0,0,0,0,0,-1,1329,596,0,0
112,428,0,0,0,0,0,0,0,0,0,-1,1336,596,0,0
119,428,0,0,0,0,0,0,0,0,0,-1,1343,596,0,0
126,428,0,0,0,0,0,0,0,0,0,-1,1350,596,0,0
133,428,0,0,0,0,0,0,0,0,0,-1,1357,596,0,0
140,428,0,0,0,0,0,0,0,0,0,-1,1364,596,0,0
147,428,0,0,0,0,0,0,0,0,0,-1,1371,596,0,0
154,428,0,0,0,0,0,0,0,0,0,-1,1378,596,0,0
161,428,0,0,0,0,0,0,0,0,0,-1,1385,596,0,0
168,428,0,0,0,0,0,0,0,0,0,-1,1392,596,0,0
175,428,0,0,0,0,0,0,0,0,0,-1,1399,596,0,0
182,428,0,0,0,0,0,0,0,0,0,-1,1406,596,0,0
189,428,0,0,0,0,0,0,0,0,0,-1,1413,596,0,0
196,428,0,0,0,0,0,0,0,0,0,-1,1420,596,0,0
203,428,0,0,0,0,0,0,0,0,0,-1,1427,596,0,0
210,428,0,0,0,0,0,0,0,0,0,-1,1434,596,0,0
217,428,0,0,0,0,0,0,0,0,0,-1,1441,596,0,0
224,428,0,0,0,0,0,0,0,0,0,-1,1448,596,0,0
231,428,0,0,0,0,0,0,0,0,0,-1,1455,596,0,0
238,428,0,0,0,0,0,0,0,0,0,-1,1462,596,0,0
245,428,0,0,0,0,0,0,0,0,0,-1,1469,596,0,0
252,428,0,0,0,0,0,0,0,0,0,-1,1476,596,0,0
259,428,0,0,0,0,0,0,0,0,0,-1,1483,596,0,0
266,428,0,0,0,0,0,0,0,0,0,-1,1490,596,0,0
273,428,0,0,0,0,0,0,0,0,0,-1,1497,596,0,0
280,428,0,0,0,0,0,0,0,0,0,-1,1504,596,0,0
287,428,0,0,0,0,0,0,0,0,0,-1,1511,596,0,0
294,428,0,0,0,0,0,0,0,0,0,-1,1518,596,0,0
301,428,0,0,0,0,0,0,0,0,0,-1,1525,596,0,0
308,428,0,0,0,0,0,0,0,0,0,-1,1532,596,0,0
315,428,0,0,0,0,0,0,0,0,0,-1,1539,596,0,0
322,428,0,0,0,0,0,0,0,0,0,-1,1546,596,0,0
329,428,0,0,0,0,0,0,0,0,0,-1,1553,596,0,0
336,428,0,0,0,0,0,0,0,0,0,-1,1560,596,0,0
343,428,0,0,0,0,0,0,0,0,0,-1,1567,596,0,0
350,428,0,0,0,0,0,0,0,0,0,-1,1574,596,0,0
357,428,0,0,0,0,0,0,0,0,0,-1,1581,596,0,0
364,428,0,0,0,0,0,0,0,0,0,-1,1588,596,0,0
371,428,0,0,0,0,0,0,0,0,0,-1,1595,596,0,0
378,428,0,0,0,0,0,0,0,0,0,-1,1602,596,0,0
385,428,0,0,0,0,0,0,0,0,0,-1,1609,596,0,0
392,428,0,0,0,0,0,0,0,0,0,-1,1616,596,0,0
399,428,0,0,0,0,0,0,0,0,0,-1,1623,596,0,0
406,428,0,0,0,0,0,0,0,0,0,-1,1630,596,0,0
413,428,0,0,0,0,0,0,0,0,0,-1,1637,596,0,0
420,428,19.8469,1.3399,0,0,0,0,0,0,0,-1,1644,596,19.8469,-1.33992
427,428,20.7299,-0.225281,0,0,0,0,0,0,0,-1,1651,596,20.7299,0.225262
434,428,19.8915,-0.583069,0,0,0,0,0,0,0,-1,1658,596,19.8915,0.583075
441,428,8.17993,0.607483,0,0,0,0,0,0,0,-1,1665,596,8.17997,-0.607513
448,428,7.84338,-0.385986,0,0,0,0,0,0,0,-1,1672,596,7.84336,0.385978
455,428,6.64038,2.1123,0,0,0,0,0,0,0,-1,1679,596,6.64037,-2.11229
462,428,4.84106,4.12341,0,0,0,0,0,0,0,-1,1686,596,4.84107,-4.12339
469,428,7.83789,3.10083,0,0,0,0,0,0,0,-1,1693,596,7.83785,-3.10086
476,428,7.61255,1.73956,0,0,0,0,0,0,0,-1,1700,596,7.61252,-1.73958
483,428,7.22766,1.05121,0,0,0,0,0,0,0,-1,1707,596,7.2277,-1.05121
490,428,5.4071,-3.2793,0,0,0,0,0,0,0,-1,1714,596,5.40707,3.27929
497,428,7.84106,-3.65491,0,0,0,0,0,0,0,-1,1721,596,7.84107,3.65491
504,428,6.92139,-2.83356,0,0,0,0,0,0,0,-1,1728,596,6.92137,2.83353
511,428,7.88501,-3.78723,0,0,0,0,0,0,0,-1,1735,596,7.88502,3.78722
518,428,20.637,-16.0447,0,0,0,0,0,0,0,-1,1742,596,20.637,16.0448
525,428,20.6272,-15.2538,0,0,0,0,0,0,0,-1,1749,596,20.6272,15.2539
532,428,20.619,-14.5891,0.00449396,0.00157027,0.00183786,0.00538046,0.000683769,0.449431,0.00338217,0.0202983,1756,596,20.6191,14.5891
539,428,20.6508,-13.9662,0.0036281,0.00148352,0.0015486,0.00443942,0.000672206,0.482586,0.00276294,0.0199329,1763,596,20.6507,13.9662
546,428,20.6099,-13.3434,0.00292899,0.00140628,0.00134254,0.00371104,0.000624238,0.527461,0.00229443,0.0163174,1770,596,20.6099,13.3434
553,428,20.5713,-12.7084,0.00231445,0.00145703,0.0012235,0.00318218,0.000589302,0.616885,0.00195485,0.0115253,1777,596,20.5713,12.7084
560,428,20.5682,-12.0458,0.0017937,0.00157165,0.00120209,0.00288988,0.000475472,0.739347,0.00178928,0.0118671,1784,596,20.5682,12.0458
567,428,20.5507,-11.3654,0.00142149,0.0017959,0.00129729,0.00291943,0.000297965,0.857055,0.00185496,0.0109515,1791,596,20.5507,11.3654
574,428,20.5137,-10.7065,0.00124799,0.00215705,0.00151289,0.00328221,0.000122819,0.931327,0.00214837,0.0129906,1798,596,20.5137,10.7066
581,428,20.4634,-10.0395,0.00123598,0.00257722,0.00185717,0.00388114,-6.79446e-05,0.958663,0.00261037,0.011328,1805,596,20.4634,10.0395
588,428,20.4531,-9.33447,0.00142578,0.00322184,0.0023807,0.00486825,-0.000220636,0.965753,0.00332149,0.0171109,1812,596,20.4531,9.3345
595,428,20.3864,-8.64148,0.00176881,0.00403928,0.00302704,0.00613696,-0.000328862,0.964798,0.00420521,0.0289117,1819,596,20.3864,8.6415
602,428,20.5125,-7.87921,0,0,0,0,0,0,0,-1,1826,596,20.5124,7.87922
609,428,17.2073,-4.82446,0,0,0,0,0,0,0,-1,1833,596,17.2073,4.82447
616,428,15.7817,-3.09558,0,0,0,0,0,0,0,-1,1840,596,15.7817,3.09556
623,428,9.53577,1.12518,0,0,0,0,0,0,0,-1,1847,596,9.5358,-1.1252
630,428,7.07996,6.88562,0,0,0,0,0,0,0,-1,1854,596,7.0799,-6.88565
637,428,3.95435,1.90857,0,0,0,0,0,0,0,-1,1861,596,3.95439,-1.90858
644,428,5.75476,0.888977,0,0,0,0,0,0,0,-1,1868,596,5.75472,-0.888955
651,428,0,0,0,0,0,0,0,0,0,-1,1875,596,0,0
658,428,0,0,0,0,0,0,0,0,0,-1,1882,596,0,0
665,428,0,0,0,0,0,0,0,0,0,-1,1889,596,0,0
672,428,0,0,0,0,0,0,0,0,0,-1,1896,596,0,0
679,428,0,0,0,0,0,0,0,0,0,-1,1903,596,0,0
686,428,0,0,0,0,0,0,0,0,0,-1,1910,596,0,0
693,428,0,0,0,0,0,0,0,0,0,-1,1917,596,0,0
700,428,0,0,0,0,0,0,0,0,0,-1,1924,596,0,0
707,428,0,0,0,0,0,0,0,0,0,-1,1931,596,0,0
714,428,0,0,0,0,0,0,0,0,0,-1,1938,596,0,0
721,428,0,0,0,0,0,0,0,0,0,-1,1945,596,0,0
728,428,0,0,0,0,0,0,0,0,0,-1,1952,596,0,0
735,428,0,0,0,0,0,0,0,0,0,-1,1959,596,0,0
742,428,0,0,0,0,0,0,0,0,0,-1,1966,596,0,0
749,428,0,0,0,0,0,0,0,0,0,-1,1973,596,0,0
756,428,0,0,0,0,0,0,0,0,0,-1,1980,596,0,0
763,428,0,0,0,0,0,0,0,0,0,-1,1987,596,0,0
770,428,0,0,0,0,0,0,0,0,0,-1,1994,596,0,0
777,428,0,0,0,0,0,0,0,0,0,-1,2001,596,0,0
784,428,0,0,0,0,0,0,0,0,0,-1,2008,596,0,0
791,428,0,0,0,0,0,0,0,0,0,-1,2015,596,0,0
798,428,0,0,0,0,0,0,0,0,0,-1,2022,596,0,0
805,428,0,0,0,0,0,0,0,0,0,-1,2029,596,0,0
812,428,0,0,0,0,0,0,0,0,0,-1,2036,596,0,0
-700,421,0,0,0,0,0,0,0,0,0,-1,524,603,0,0
-693,421,0,0,0,0,0,0,0,0,0,-1,531,603,0,0
-686,421,0,0,0,0,0,0,0,0,0,-1,538,603,0,0
-679,421,0,0,0,0,0,0,0,0,0,-1,545,603,0,0
-672,421,0,0,0,0,0,0,0,0,0,-1,552,603,0,0
-665,421,0,0,0,0,0,0,0,0,0,-1,559,603,0,0
-658,421,0,0,0,0,0,0,0,0,0,-1,566,603,0,0
-651,421,0,0,0,0,0,0,0,0,0,-1,573,603,0,0
-644,421,0,0,0,0,0,0,0,0,0,-1,580,603,0,0
-637,421,0,0,0,0,0,0,0,0,0,-1,587,603,0,0
-630,421,0,0,0,0,0,0,0,0,0,-1,594,603,0,0
-623,421,0,0,0,0,0,0,0,0,0,-1,601,603,0,0
-616,421,0,0,0,0,0,0,0,0,0,-1,608,603,0,0
-609,421,0,0,0,0,0,0,0,0,0,-1,615,603,0,0
-602,421,0,0,0,0,0,0,0,0,0,-1,622,603,0,0
-595,421,0,0,0,0,0,0,0,0,0,-1,629,603,0,0
-588,421,0,0,0,0,0,0,0,0,0,-1,636,603,0,0
-581,421,0,0,0,0,0,0,0,0,0,-1,643,603,0,0
-574,421,0,0,0,0,0,0,0,0,0,-1,650,603,0,0
-567,421,0,0,0,0,0,0,0,0,0,-1,657,603,0,0
-560,421,0,0,0,0,0,0,0,0,0,-1,664,603,0,0
-553,421,0,0,0,0,0,0,0,0,0,-1,671,603,0,0
-546,421,0,0,0,0,0,0,0,0,0,-1,678,603,0,0
-539,421,0,0,0,0,0,0,0,0,0,-1,685,603,0,0
-532,421,-8.97382,6.95636,0,0,0,0,0,0,0,-1,692,603,-8.97384,-6.95634
-525,421,-2.11481,-8.04272,0,0,0,0,0,0,0,-1,699,603,-2.11483,8.0427
-518,421,-3.05908,-5.07233,0,0,0,0,0,0,0,-1,706,603,-3.0591,5.07235
-511,421,-4.63525,-4.08447,0,0,0,0,0,0,0,-1,713,603,-4.63524,4.08449
-504,421,-5.17029,-4.94458,0,0,0,0,0,0,0,-1,720,603,-5.17029,4.9446
-497,421,-6.63141,-2.32501,0,0,0,0,0,0,0,-1,727,603,-6.6314,2.32498
-490,421,-6.7616,-4.14783,0,0,0,0,0,0,0,-1,734,603,-6.76159,4.1478
-483,421,-9.70685,-8.57574,0,0,0,0,0,0,0,-1,741,603,-9.70687,8.57575
-476,421,-9.66791,-9.56403,-0.00109267,0.00592942,-0.00163179,0.00629009,-0.00145334,-1.35327,0.0047525,0.0359624,748,603,-9.66793,9.564
-469,421,-9.82397,-10.0752,-0.000619969,0.00471032,-0.00145614,0.00508217,-0.000991818,-1.32077,0.00376255,0.0282545,755,603,-9.82398,10.0752
-462,421,-9.83331,-10.8303,-0.000126599,0.00369156,-0.00135394,0.00412294,-0.000557973,-1.26236,0.00295224,0.0211035,762,603,-9.83333,10.8302
-455,421,-9.84991,-11.463,0.000199294,0.00282183,-0.00119244,0.00328294,-0.000261822,-1.20181,0.00228092,0.0191979,769,603,-9.84994,11.463
-448,421,-9.90936,-12.077,0.000444709,0.0019331,-0.000983222,0.00242202,-4.42018e-05,-1.10935,0.00162961,0.0189024,776,603,-9.90938,12.077
-441,421,-9.91937,-12.738,0.000584021,0.000988114,-0.000679048,0.00149454,7.75981e-05,-0.929999,0.000971526,0.0149663,783,603,-9.91938,12.738
-434,421,-9.96082,-13.4116,0.000693015,0.000249815,-0.000410151,0.000937602,5.22751e-06,-0.53772,0.000623333,0.0108338,790,603,-9.96082,13.4116
-427,421,-9.95929,-14.0608,0.000784455,-0.000488294,-0.000128872,0.000797373,-0.000501212,-0.099904,0.00075621,0.0102345,797,603,-9.95929,14.0608
-420,421,-9.97284,-14.6567,0.000863689,-0.00117645,0.000152065,0.000874961,-0.00118772,0.0739916,0.00119545,0.0116276,804,603,-9.97281,14.6567
-413,421,-10.0036,-15.2663,0.000841331,-0.00186065,0.000526483,0.000940292,-0.00195962,0.185798,0.00170839,0.0144762,811,603,-10.0036,15.2663
-406,421,-10.0623,-15.95,0.00084275,-0.00245201,0.000878453,0.00106233,-0.00267159,0.244944,0.00222151,0.0200599,818,603,-10.0623,15.9499
-399,421,-10.0057,-16.6786,0.00115639,-0.00303375,0.00106329,0.00141076,-0.00328812,0.234822,0.00278414,0.0329175,825,603,-10.0057,16.6786
-392,421,-9.96686,-17.4132,0,0,0,0,0,0,0,-1,832,603,-9.96685,17.4132
-385,421,-9.76154,-15.8135,0,0,0,0,0,0,0,-1,839,603,-9.76152,15.8135
-378,421,-4.94733,-8.87909,0,0,0,0,0,0,0,-1,846,603,-4.94731,8.87906
-371,421,-5.65082,-7.01849,0,0,0,0,0,0,0,-1,853,603,-5.65082,7.0185
-364,421,-5.94189,-7.09875,0,0,0,0,0,0,0,-1,860,603,-5.94192,7.09878
-357,421,-7.62531,-8.26337,0,0,0,0,0,0,0,-1,867,603,-7.62532,8.26337
-350,421,-5.38019,-3.75024,0,0,0,0,0,0,0,-1,874,603,-5.38017,3.75026
-343,421,-6.22797,-2.57123,0,0,0,0,0,0,0,-1,881,603,-6.22798,2.57121
-336,421,-6.22882,-2.59369,0,0,0,0,0,0,0,-1,888,603,-6.22883,2.5937
-329,421,-4.50134,-1.49469,0,0,0,0,0,0,0,-1,895,603,-4.50137,1.49468
-322,421,-7.55817,1.13263,0,0,0,0,0,0,0,-1,902,603,-7.55818,-1.13263
-315,421,-4.47821,-1.26733,0,0,0,0,0,0,0,-1,909,603,-4.47824,1.26732
-308,421,0,0,0,0,0,0,0,0,0,-1,916,603,0,0
-301,421,0,0,0,0,0,0,0,0,0,-1,923,603,0,0
-294,421,0,0,0,0,0,0,0,0,0,-1,930,603,0,0
-287,421,0,0,0,0,0,0,0,0,0,-1,937,603,0,0
-280,421,0,0,0,0,0,0,0,0,0,-1,944,603,0,0
-273,421,0,0,0,0,0,0,0,0,0,-1,951,603,0,0
-266,421,0,0,0,0,0,0,0,0,0,-1,958,603,0,0
-259,421,0,0,0,0,0,0,0,0,0,-1,965,603,0,0
-252,421,0,0,0,0,0,0,0,0,0,-1,972,603,0,0
-245,421,0,0,0,0,0,0,0,0,0,-1,979,603,0,0
-238,421,0,0,0,0,0,0,0,0,0,-1,986,603,0,0
-231,421,0,0,0,0,0,0,0,0,0,-1,993,603,0,0
-224,421,0,0,0,0,0,0,0,0,0,-1,1000,603,0,0
-217,421,0,0,0,0,0,0,0,0,0,-1,1007,603,0,0
-210,421,0,0,0,0,0,0,0,0,0,-1,1014,603,0,0
-203,421,0,0,0,0,0,0,0,0,0,-1,1021,603,0,0
-196,421,0,0,0,0,0,0,0,0,0,-1,1028,603,0,0
-189,421,0,0,0,0,0,0,0,0,0,-1,1035,603,0,0
-182,421,0,0,0,0,0,0,0,0,0,-1,1042,603,0,0
-175,421,0,0,0,0,0,0,0,0,0,-1,1049,603,0,0
-168,421,0,0,0,0,0,0,0,0,0,-1,1056,603,0,0
-161,421,0,0,0,0,0,0,0,0,0,-1,1063,603,0,0
-154,421,0,0,0,0,0,0,0,0,0,-1,1070,603,0,0
-147,421,0,0,0,0,0,0,0,0,0,-1,1077,603,0,0
-140,421,0,0,0,0,0,0,0,0,0,-1,1084,603,0,0
-133,421,0,0,0,0,0,0,0,0,0,-1,1091,603,0,0
-126,421,0,0,0,0,0,0,0,0,0,-1,1098,603,0,0
-119,421,0,0,0,0,0,0,0,0,0,-1,1105,603,0,0
-112,421,0,0,0,0,0,0,0,0,0,-1,1112,603,0,0
-105,421,0,0,0,0,0,0,0,0,0,-1,1119,603,0,0
-98,421,0,0,0,0,0,0,0,0,0,-1,1126,603,0,0
-91,421,0,0,0,0,0,0,0,0,0,-1,1133,603,0,0
-84,421,0,0,0,0,0,0,0,0,0,-1,1140,603,0,0
-77,421,0,0,0,0,0,0,0,0,0,-1,1147,603,0,0
-70,421,0,0,0,0,0,0,0,0,0,-1,1154,603,0,0
-63,421,0,0,0,0,0,0,0,0,0,-1,1161,603,0,0
-56,421,0,0,0,0,0,0,0,0,0,-1,1168,603,0,0
-49,421,0,0,0,0,0,0,0,0,0,-1,1175,603,0,0
-42,421,0,0,0,0,0,0,0,0,0,-1,1182,603,0,0
-35,421,0,0,0,0,0,0,0,0,0,-1,1189,603,0,0
-28,421,0,0,0,0,0,0,0,0,0,-1,1196,603,0,0
-21,421,0,0,0,0,0,0,0,0,0,-1,1203,603,0,0
-14,421,0,0,0,0,0,0,0,0,0,-1,1210,603,0,0
-7,421,0,0,0,0,0,0,0,0,0,-1,1217,603,0,0
0,421,0,0,0,0,0,0,0,0,0,-1,1224,603,0,0
7,421,0,0,0,0,0,0,0,0,0,-1,1231,603,0,0
14,421,0,0,0,0,0,0,0,0,0,-1,1238,603,0,0
21,421,0,0,0,0,0,0,0,0,0,-1,1245,603,0,0
28,421,0,0,0,0,0,0,0,0,0,-1,1252,603,0,0
35,421,0,0,0,0,0,0,0,0,0,-1,1259,603,0,0
42,421,0,0,0,0,0,0,0,0,0,-1,1266,603,0,0
49,421,0,0,0,0,0,0,0,0,0,-1,1273,603,0,0
56,421,0,0,0,0,0,0,0,0,0,-1,1280,603,0,0
63,421,0,0,0,0,0,0,0,0,0,-1,1287,603,0,0
70,421,0,0,0,0,0,0,0,0,0,-1,1294,603,0,0
77,421,0,0,0,0,0,0,0,0,0,-1,1301,603,0,0
84,421,0,0,0,0,0,0,0,0,0,-1,1308,603,0,0
91,421,0,0,0,0,0,0,0,0,0,-1,1315,603,0,0
98,421,0,0,0,0,0,0,0,0,0,-1,1322,603,0,0
105,421,0,0,0,0,0,0,0,0,0,-1,1329,603,0,0
112,421,0,0,0,0,0,0,0,0,0,-1,1336,603,0,0
119,421,0,0,0,0,0,0,0,0,0,-1,1343,603,0,0
126,421,0,0,0,0,0,0,0,0,0,-1,1350,603,0,0
133,421,0,0,0,0,0,0,0,0,0,-1,1357,603,0,0
140,421,0,0,0,0,0,0,0,0,0,-1,1364,603,0,0
147,421,0,0,0,0,0,0,0,0,0,-1,1371,603,0,0
154,421,0,0,0,0,0,0,0,0,0,-1,1378,603,0,0
161,421,0,0,0,0,0,0,0,0,0,-1,1385,603,0,0
168,421,0,0,0,0,0,0,0,0,0,-1,1392,603,0,0
175,421,0,0,0,0,0,0,0,0,0,-1,1399,603,0,0
182,421,0,0,0,0,0,0,0,0,0,-1,1406,603,0,0
189,421,0,0,0,0,0,0,0,0,0,-1,1413,603,0,0
196,421,0,0,0,0,0,0,0,0,0,-1,1420,603,0,0
203,421,0,0,0,0,0,0,0,0,0,-1,1427,603,0,0
210,421,0,0,0,0,0,0,0,0,0,-1,1434,603,0,0
217,421,0,0,0,0,0,0,0,0,0,-1,1441,603,0,0
224,421,0,0,0,0,0,0,0,0,0,-1,1448,603,0,0
231,421,0,0,0,0,0,0,0,0,0,-1,1455,603,0,0
238,421,0,0,0,0,0,0,0,0,0,-1,1462,603,0,0
245,421,0,0,0,0,0,0,0,0,0,-1,1469,603,0,0
252,421,0,0,0,0,0,0,0,0,0,-1,1476,603,0,0
259,421,0,0,0,0,0,0,0,0,0,-1,1483,603,0,0
266,421,0,0,0,0,0,0,0,0,0,-1,1490,603,0,0
273,421,0,0,0,0,0,0,0,0,0,-1,1497,603,0,0
280,421,0,0,0,0,0,0,0,0,0,-1,1504,603,0,0
287,421,0,0,0,0,0,0,0,0,0,-1,1511,603,0,0
294,421,0,0,0,0,0,0,0,0,0,-1,1518,603,0,0
301,421,0,0,0,0,0,0,0,0,0,-1,1525,603,0,0
308,421,0,0,0,0,0,0,0,0,0,-1,1532,603,0,0
315,421,0,0,0,0,0,0,0,0,0,-1,1539,603,0,0
322,421,0,0,0,0,0,0,0,0,0,-1,1546,603,0,0
329,421,0,0,0,0,0,0,0,0,0,-1,1553,603,0,0
336,421,0,0,0,0,0,0,0,0,0,-1,1560,603,0,0
343,421,0,0,0,0,0,0,0,0,0,-1,1567,603,0,0
350,421,0,0,0,0,0,0,0,0,0,-1,1574,603,0,0
357,421,0,0,0,0,0,0,0,0,0,-1,1581,603,0,0
364,421,0,0,0,0,0,0,0,0,0,-1,1588,603,0,0
371,421,0,0,0,0,0,0,0,0,0,-1,1595,603,0,0
378,421,0,0,0,0,0,0,0,0,0,-1,1602,603,0,0
385,421,0,0,0,0,0,0,0,0,0,-1,1609,603,0,0
392,421,0,0,0,0,0,0,0,0,0,-1,1616,603,0,0
399,421,0,0,0,0,0,0,0,0,0,-1,1623,603,0,0
406,421,0,0,0,0,0,0,0,0,0,-1,1630,603,0,0
413,421,0,0,0,0,0,0,0,0,0,-1,1637,603,0,0
420,421,0,0,0,0,0,0,0,0,0,-1,1644,603,0,0
427,421,0,0,0,0,0,0,0,0,0,-1,1651,603,0,0
434,421,3.68176,-0.0327759,0,0,0,0,0,0,0,-1,1658,603,3.6818,0.0328037
441,421,8.06689,0.527832,0,0,0,0,0,0,0,-1,1665,603,8.06693,-0.527851
448,421,6.93921,0.802246,0,0,0,0,0,0,0,-1,1672,603,6.93923,-0.802251
455,421,7.29456,2.14825,0,0,0,0,0,0,0,-1,1679,603,7.29461,-2.14827
462,421,7.86902,3.53174,0,0,0,0,0,0,0,-1,1686,603,7.869,-3.53173
469,421,8.06604,2.81213,0,0,0,0,0,0,0,-1,1693,603,8.06606,-2.81212
476,421,8.26306,2.09253,0,0,0,0,0,0,0,-1,1700,603,8.26312,-2.09251
483,421,8.05322,0.798096,0,0,0,0,0,0,0,-1,1707,603,8.05323,-0.7981
490,421,7.51233,0.213074,0,0,0,0,0,0,0,-1,1714,603,7.51235,-0.213043
497,421,7.49634,-2.86688,0,0,0,0,0,0,0,-1,1721,603,7.4963,2.86688
504,421,6.90491,-2.18671,0,0,0,0,0,0,0,-1,1728,603,6.90491,2.18669
511,421,6.31348,-1.50653,0,0,0,0,0,0,0,-1,1735,603,6.31353,1.5065
518,421,6.27588,-2.49878,0,0,0,0,0,0,0,-1,1742,603,6.2759,2.4988
525,421,21.1052,-15.5717,0,0,0,0,0,0,0,-1,1749,603,21.1052,15.5717
532,421,21.1924,-14.6396,0.00535883,0.00173358,0.00202207,0.00626178,0.000830627,0.419982,0.00392704,0.0457515,1756,603,21.1924,14.6396
539,421,21.2913,-13.9583,0.00433597,0.00160338,0.00165283,0.00511411,0.000825234,0.44001,0.00317034,0.0218768,1763,603,21.2913,13.9583
546,421,21.2656,-13.3285,0.00350564,0.00143175,0.00138388,0.00419797,0.000739423,0.463871,0.00258763,0.0129629,1770,603,21.2656,13.3285
553,421,21.2325,-12.6514,0.0027942,0.00141152,0.00120993,0.00349637,0.000709353,0.52584,0.00213413,0.0124064,1777,603,21.2325,12.6514
560,421,21.2122,-11.9793,0.00218377,0.00144989,0.00113399,0.00300871,0.000624949,0.628923,0.00183335,0.0146608,1784,603,21.2122,11.9793
567,421,21.205,-11.3243,0.00170886,0.00158355,0.00116642,0.00281431,0.000478099,0.758567,0.00173889,0.0165843,1791,603,21.205,11.3243
574,421,21.1694,-10.6514,0.00145809,0.00188759,0.00134553,0.0030354,0.000310279,0.864531,0.00192851,0.018209,1798,603,21.1694,10.6514
581,421,21.1272,-9.96979,0.00140431,0.00226856,0.00166868,0.00356015,0.000112712,0.912096,0.00233677,0.015565,1805,603,21.1273,9.9698
588,421,21.0829,-9.35413,0.00153569,0.00287227,0.00215089,0.0044563,-4.83345e-05,0.936023,0.00298711,0.0112591,1812,603,21.0829,9.35411
595,421,21.1053,-8.66016,0.00185341,0.00365923,0.00278808,0.00568696,-0.000174315,0.941993,0.00385073,0.0190167,1819,603,21.1054,8.66014
602,421,21.0667,-7.97644,0,0,0,0,0,0,0,-1,1826,603,21.0666,7.97645
609,421,19.7653,-6.67944,0,0,0,0,0,0,0,-1,1833,603,19.7652,6.67944
616,421,17.7633,-4.72491,0,0,0,0,0,0,0,-1,1840,603,17.7633,4.7249
623,421,6.19885,0.376648,0,0,0,0,0,0,0,-1,1847,603,6.19881,-0.376624
630,421,6.54993,0.778748,0,0,0,0,0,0,0,-1,1854,603,6.54991,-0.778744
637,421,3.74512,1.65405,0,0,0,0,0,0,0,-1,1861,603,3.74517,-1.65407
644,421,3.58081,0.354675,0,0,0,0,0,0,0,-1,1868,603,3.58082,-0.354704
651,421,3.28687,3.66351,0,0,0,0,0,0,0,-1,1875,603,3.28688,-3.66353
658,421,0,0,0,0,0,0,0,0,0,-1,1882,603,0,0
665,421,0,0,0,0,0,0,0,0,0,-1,1889,603,0,0
672,421,0,0,0,0,0,0,0,0,0,-1,1896,603,0,0
679,421,0,0,0,0,0,0,0,0,0,-1,1903,603,0,0
686,421,0,0,0,0,0,0,0,0,0,-1,1910,603,0,0
693,421,0,0,0,0,0,0,0,0,0,-1,1917,603,0,0
700,421,0,0,0,0,0,0,0,0,0,-1,1924,603,0,0
707,421,0,0,0,0,0,0,0,0,0,-1,1931,603,0,0
714,421,0,0,0,0,0,0,0,0,0,-1,1938,603,0,0
721,421,0,0,0,0,0,0,0,0,0,-1,1945,603,0,0
728,421,0,0,0,0,0,0,0,0,0,-1,1952,603,0,0
735,421,0,0,0,0,0,0,0,0,0,-1,1959,603,0,0
742,421,0,0,0,0,0,0,0,0,0,-1,1966,603,0,0
749,421,0,0,0,0,0,0,0,0,0,-1,1973,603,0,0
756,421,0,0,0,0,0,0,0,0,0,-1,1980,603,0,0
763,421,0,0,0,0,0,0,0,0,0,-1,1987,603,0,0
770,421,0,0,0,0,0,0,0,0,0,-1,1994,603,0,0
777,421,0,0,0,0,0,0,0,0,0,-1,2001,603,0,0
784,421,0,0,0,0,0,0,0,0,0,-1,2008,603,0,0
791,421,0,0,0,0,0,0,0,0,0,-1,2015,603,0,0
798,421,0,0,0,0,0,0,0,0,0,-1,2022,603,0,0
805,421,0,0,0,0,0,0,0,0,0,-1,2029,603,0,0
812,421,0,0,0,0,0,0,0,0,0,-1,2036,603,0,0
-700,414,0,0,0,0,0,0,0,0,0,-1,524,610,0,0
-693,414,0,0,0,0,0,0,0,0,0,-1,531,610,0,0
-686,414,0,0,0,0,0,0,0,0,0,-1,538,610,0,0
-679,414,0,0,0,0,0,0,0,0,0,-1,545,610,0,0
-672,414,0,0,0,0,0,0,0,0,0,-1,552,610,0,0
-665,414,0,0,0,0,0,0,0,0,0,-1,559,610,0,0
-658,414,0,0,0,0,0,0,0,0,0,-1,566,610,0,0
-651,414,0,0,0,0,0,0,0,0,0,-1,573,610,0,0
-644,414,0,0,0,0,0,0,0,0,0,-1,580,610,0,0
-637,414,0,0,0,0,0,0,0,0,0,-1,587,610,0,0
-630,414,0,0,0,0,0,0,0,0,0,-1,594,610,0,0
-623,414,0,0,0,0,0,0,0,0,0,-1,601,610,0,0
-616,414,0,0,0,0,0,0,0,0,0,-1,608,610,0,0
-609,414,0,0,0,0,0,0,0,0,0,-1,615,610,0,0
-602,414,0,0,0,0,0,0,0,0,0,-1,622,610,0,0
-595,414,0,0,0,0,0,0,0,0,0,-1,629,610,0,0
-588,414,0,0,0,0,0,0,0,0,0,-1,636,610,0,0
-581,414,0,0,0,0,0,0,0,0,0,-1,643,610,0,0
-574,414,0,0,0,0,0,0,0,0,0,-1,650,610,0,0
-567,414,0,0,0,0,0,0,0,0,0,-1,657,610,0,0
-560,414,0,0,0,0,0,0,0,0,0,-1,664,610,0,0
-553,414,0,0,0,0,0,0,0,0,0,-1,671,610,0,0
-546,414,0,0,0,0,0,0,0,0,0,-1,678,610,0,0
-539,414,-7.50146,5.65619,0,0,0,0,0,0,0,-1,685,610,-7.50149,-5.65617
-532,414,-8.15204,4.01605,0,0,0,0,0,0,0,-1,692,610,-8.15206,-4.01606
-525,414,-3.47137,-3.27924,0,0,0,0,0,0,0,-1,699,610,-3.47136,3.27922
-518,414,-4.12909,-4.36908,0,0,0,0,0,0,0,-1,706,610,-4.12909,4.36909
-511,414,-3.92542,-4.97021,0,0,0,0,0,0,0,-1,713,610,-3.92542,4.97023
-504,414,-9.35394,-5.49896,0,0,0,0,0,0,0,-1,720,610,-9.35394,5.49898
-497,414,-9.67627,-6.54761,0,0,0,0,0,0,0,-1,727,610,-9.6763,6.5476
-490,414,-10.5372,-7.67395,0,0,0,0,0,0,0,-1,734,610,-10.5372,7.67395
-483,414,-10.3652,-8.79987,-0.000689556,0.00613569,-0.00192339,0.0066404,-0.00119426,-1.31418,0.00487404,0.0464895,741,610,-10.3652,8.79988
-476,414,-10.4371,-9.50598,-0.000644548,0.00482136,-0.00148878,0.00520056,-0.00102375,-1.32139,0.00385389,0.0232834,748,610,-10.4371,9.50601
-469,414,-10.4834,-10.1139,-0.000316166,0.00369923,-0.00126068,0.00406222,-0.000679158,-1.29045,0.00296062,0.0148399,755,610,-10.4834,10.1139
-462,414,-10.4526,-10.7891,5.36524e-05,0.00276286,-0.00111567,0.00316315,-0.000346641,-1.22631,0.0022333,0.0233397,762,610,-10.4526,10.7891
-455,414,-10.4922,-11.427,0.000320786,0.00192313,-0.000946329,0.00236188,-0.000117967,-1.13666,0.00161535,0.024791,769,610,-10.4922,11.427
-448,414,-10.548,-12.0547,0.000570701,0.00113516,-0.000765374,0.00166868,3.71796e-05,-0.962038,0.00110027,0.0244497,776,610,-10.548,12.0548
-441,414,-10.5593,-12.721,0.000717956,0.000252497,-0.000484823,0.00102301,-5.25619e-05,-0.561626,0.000700188,0.0177501,783,610,-10.5593,12.721
-434,414,-10.6094,-13.3762,0.000829967,-0.000440947,-0.000233078,0.000871363,-0.000482344,-0.175776,0.000792248,0.0102877,790,610,-10.6094,13.3762
-427,414,-10.6146,-14.0193,0.000899285,-0.00116118,4.54381e-05,0.000900286,-0.00116219,0.022038,0.00119396,0.0112031,797,610,-10.6146,14.0194
-420,414,-10.6221,-14.6358,0.000915727,-0.00188149,0.000372561,0.000964498,-0.00193026,0.130167,0.00170201,0.0108622,804,610,-10.6221,14.6358
-413,414,-10.6572,-15.2551,0.000823296,-0.00259301,0.00080199,0.0010022,-0.00277191,0.219479,0.00225742,0.0114394,811,610,-10.6572,15.2551
-406,414,-10.6716,-15.9951,0.000755996,-0.00318981,0.0011752,0.00107949,-0.00351331,0.268614,0.00277298,0.0271064,818,610,-10.6716,15.9951
-399,414,-10.5898,-16.7078,0,0,0,0,0,0,0,-1,825,610,-10.5898,16.7078
-392,414,-9.43781,-14.5624,0,0,0,0,0,0,0,-1,832,610,-9.43779,14.5624
-385,414,-8.14691,-13.0653,0,0,0,0,0,0,0,-1,839,610,-8.14692,13.0653
-378,414,-8.04907,-11.3331,0,0,0,0,0,0,0,-1,846,610,-8.04905,11.3331
-371,414,-5.20886,-8.05151,0,0,0,0,0,0,0,-1,853,610,-5.20887,8.05153
-364,414,-6.76282,-6.58759,0,0,0,0,0,0,0,-1,860,610,-6.7628,6.58756
-357,414,-9.08685,-8.86188,0,0,0,0,0,0,0,-1,867,610,-9.08688,8.86187
-350,414,-6.4502,-2.41821,0,0,0,0,0,0,0,-1,874,610,-6.45021,2.41822
-343,414,-6.80249,-2.32117,0,0,0,0,0,0,0,-1,881,610,-6.80252,2.32116
-336,414,-7.11017,-2.52026,0,0,0,0,0,0,0,-1,888,610,-7.11016,2.52026
-329,414,-7.59747,-2.70313,0,0,0,0,0,0,0,-1,895,610,-7.59747,2.70315
-322,414,-4.42236,-1.29163,0,0,0,0,0,0,0,-1,902,610,-4.42238,1.2916
-315,414,0,0,0,0,0,0,0,0,0,-1,909,610,0,0
-308,414,0,0,0,0,0,0,0,0,0,-1,916,610,0,0
-301,414,0,0,0,0,0,0,0,0,0,-1,923,610,0,0
-294,414,0,0,0,0,0,0,0,0,0,-1,930,610,0,0
-287,414,0,0,0,0,0,0,0,0,0,-1,937,610,0,0
-280,414,0,0,0,0,0,0,0,0,0,-1,944,610,0,0
-273,414,0,0,0,0,0,0,0,0,0,-1,951,610,0,0
-266,414,0,0,0,0,0,0,0,0,0,-1,958,610,0,0
-259,414,0,0,0,0,0,0,0,0,0,-1,965,610,0,0
-252,414,0,0,0,0,0,0,0,0,0,-1,972,610,0,0
-245,414,0,0,0,0,0,0,0,0,0,-1,979,610,0,0
-238,414,0,0,0,0,0,0,0,0,0,-1,986,610,0,0
-231,414,0,0,0,0,0,0,0,0,0,-1,993,610,0,0
-224,414,0,0,0,0,0,0,0,0,0,-1,1000,610,0,0
-217,414,0,0,0,0,0,0,0,0,0,-1,1007,610,0,0
-210,414,0,0,0,0,0,0,0,0,0,-1,1014,610,0,0
-203,414,0,0,0,0,0,0,0,0,0,-1,1021,610,0,0
-196,414,0,0,0,0,0,0,0,0,0,-1,1028,610,0,0
-189,414,0,0,0,0,0,0,0,0,0,-1,1035,610,0,0
-182,414,0,0,0,0,0,0,0,0,0,-1,1042,610,0,0
-175,414,0,0,0,0,0,0,0,0,0,-1,1049,610,0,0
-168,414,0,0,0,0,0,0,0,0,0,-1,1056,610,0,0
-161,414,0,0,0,0,0,0,0,0,0,-1,1063,610,0,0
-154,414,0,0,0,0,0,0,0,0,0,-1,1070,610,0,0
-147,414,0,0,0,0,0,0,0,0,0,-1,1077,610,0,0
-140,414,0,0,0,0,0,0,0,0,0,-1,1084,610,0,0
-133,414,0,0,0,0,0,0,0,0,0,-1,1091,610,0,0
-126,414,0,0,0,0,0,0,0,0,0,-1,1098,610,0,0
-119,414,0,0,0,0,0,0,0,0,0,-1,1105,610,0,0
-112,414,0,0,0,0,0,0,0,0,0,-1,1112,610,0,0
-105,414,0,0,0,0,0,0,0,0,0,-1,1119,610,0,0
-98,414,0,0,0,0,0,0,0,0,0,-1,1126,610,0,0
-91,414,0,0,0,0,0,0,0,0,0,-1,1133,610,0,0
-84,414,0,0,0,0,0,0,0,0,0,-1,1140,610,0,0
-77,414,0,0,0,0,0,0,0,0,0,-1,1147,610,0,0
-70,414,0,0,0,0,0,0,0,0,0,-1,1154,610,0,0
-63,414,0,0,0,0,0,0,0,0,0,-1,1161,610,0,0
-56,414,0,0,0,0,0,0,0,0,0,-1,1168,610,0,0
-49,414,0,0,0,0,0,0,0,0,0,-1,1175,610,0,0
-42,414,0,0,0,0,0,0,0,0,0,-1,1182,610,0,0
-35,414,0,0,0,0,0,0,0,0,0,-1,1189,610,0,0
-28,414,0,0,0,0,0,0,0,0,0,-1,1196,610,0,0
-21,414,0,0,0,0,0,0,0,0,0,-1,1203,610,0,0
-14,414,0,0,0,0,0,0,0,0,0,-1,1210,610,0,0
-7,414,0,0,0,0,0,0,0,0,0,-1,1217,610,0,0
0,414,0,0,0,0,0,0,0,0,0,-1,1224,610,0,0
7,414,0,0,0,0,0,0,0,0,0,-1,1231,610,0,0
14,414,0,0,0,0,0,0,0,0,0,-1,1238,610,0,0
21,414,0,0,0,0,0,0,0,0,0,-1,1245,610,0,0
28,414,0,0,0,0,0,0,0,0,0,-1,1252,610,0,0
35,414,0,0,0,0,0,0,0,0,0,-1,1259,610,0,0
42,414,0,0,0,0,0,0,0,0,0,-1,1266,610,0,0
49,414,0,0,0,0,0,0,0,0,0,-1,1273,610,0,0
56,414,0,0,0,0,0,0,0,0,0,-1,1280,610,0,0
63,414,0,0,0,0,0,0,0,0,0,-1,1287,610,0,0
70,414,0,0,0,0,0,0,0,0,0,-1,1294,610,0,0
77,414,0,0,0,0,0,0,0,0,0,-1,1301,610,0,0
84,414,0,0,0,0,0,0,0,0,0,-1,1308,610,0,0
91,414,0,0,0,0,0,0,0,0,0,-1,1315,610,0,0
98,414,0,0,0,0,0,0,0,0,0,-1,1322,610,0,0
105,414,0,0,0,0,0,0,0,0,0,-1,1329,610,0,0
112,414,0,0,0,0,0,0,0,0,0,-1,1336,610,0,0
119,414,0,0,0,0,0,0,0,0,0,-1,1343,610,0,0
126,414,0,0,0,0,0,0,0,0,0,-1,1350,610,0,0
133,414,0,0,0,0,0,0,0,0,0,-1,1357,610,0,0
140,414,0,0,0,0,0,0,0,0,0,-1,1364,610,0,0
147,414,0,0,0,0,0,0,0,0,0,-1,1371,610,0,0
154,414,0,0,0,0,0,0,0,0,0,-1,1378,610,0,0
161,414,0,0,0,0,0,0,0,0,0,-1,1385,610,0,0
168,414,0,0,0,0,0,0,0,0,0,-1,1392,610,0,0
175,414,0,0,0,0,0,0,0,0,0,-1,1399,610,0,0
182,414,0,0,0,0,0,0,0,0,0,-1,1406,610,0,0
189,414,0,0,0,0,0,0,0,0,0,-1,1413,610,0,0
196,414,0,0,0,0,0,0,0,0,0,-1,1420,610,0,0
203,414,0,0,0,0,0,0,0,0,0,-1,1427,610,0,0
210,414,0,0,0,0,0,0,0,0,0,-1,1434,610,0,0
217,414,0,0,0,0,0,0,0,0,0,-1,1441,610,0,0
224,414,0,0,0,0,0,0,0,0,0,-1,1448,610,0,0
231,414,0,0,0,0,0,0,0,0,0,-1,1455,610,0,0
238,414,0,0,0,0,0,0,0,0,0,-1,1462,610,0,0
245,414,0,0,0,0,0,0,0,0,0,-1,1469,610,0,0
252,414,0,0,0,0,0,0,0,0,0,-1,1476,610,0,0
259,414,0,0,0,0,0,0,0,0,0,-1,1483,610,0,0
266,414,0,0,0,0,0,0,0,0,0,-1,1490,610,0,0
273,414,0,0,0,0,0,0,0,0,0,-1,1497,610,0,0
280,414,0,0,0,0,0,0,0,0,0,-1,1504,610,0,0
287,414,0,0,0,0,0,0,0,0,0,-1,1511,610,0,0
294,414,0,0,0,0,0,0,0,0,0,-1,1518,610,0,0
301,414,0,0,0,0,0,0,0,0,0,-1,1525,610,0,0
308,414,0,0,0,0,0,0,0,0,0,-1,1532,610,0,0
315,414,0,0,0,0,0,0,0,0,0,-1,1539,610,0,0
322,414,0,0,0,0,0,0,0,0,0,-1,1546,610,0,0
329,414,0,0,0,0,0,0,0,0,0,-1,1553,610,0,0
336,414,0,0,0,0,0,0,0,0,0,-1,1560,610,0,0
343,414,0,0,0,0,0,0,0,0,0,-1,1567,610,0,0
350,414,0,0,0,0,0,0,0,0,0,-1,1574,610,0,0
357,414,0,0,0,0,0,0,0,0,0,-1,1581,610,0,0
364,414,0,0,0,0,0,0,0,0,0,-1,1588,610,0,0
371,414,0,0,0,0,0,0,0,0,0,-1,1595,610,0,0
378,414,0,0,0,0,0,0,0,0,0,-1,1602,610,0,0
385,414,0,0,0,0,0,0,0,0,0,-1,1609,610,0,0
392,414,0,0,0,0,0,0,0,0,0,-1,1616,610,0,0
399,414,0,0,0,0,0,0,0,0,0,-1,1623,610,0,0
406,414,0,0,0,0,0,0,0,0,0,-1,1630,610,0,0
413,414,0,0,0,0,0,0,0,0,0,-1,1637,610,0,0
420,414,0,0,0,0,0,0,0,0,0,-1,1644,610,0,0
427,414,0,0,0,0,0,0,0,0,0,-1,1651,610,0,0
434,414,0,0,0,0,0,0,0,0,0,-1,1658,610,0,0
441,414,7.84375,0.584412,0,0,0,0,0,0,0,-1,1665,610,7.84379,-0.584394
448,414,7.40808,1.25446,0,0,0,0,0,0,0,-1,1672,610,7.40807,-1.25446
455,414,6.3512,1.73846,0,0,0,0,0,0,0,-1,1679,610,6.3512,-1.73847
462,414,8.18103,3.22113,0,0,0,0,0,0,0,-1,1686,610,8.18108,-3.22112
469,414,8.38513,2.49579,0,0,0,0,0,0,0,-1,1693,610,8.38516,-2.49576
476,414,8.64099,1.71161,0,0,0,0,0,0,0,-1,1700,610,8.64097,-1.71164
483,414,8.62744,0.687622,0,0,0,0,0,0,0,-1,1707,610,8.62749,-0.687615
490,414,8.38831,-0.0302734,0,0,0,0,0,0,0,-1,1714,610,8.38835,0.0302913
497,414,4.71094,-0.110046,0,0,0,0,0,0,0,-1,1721,610,4.71089,0.110024
504,414,7.19568,-1.43835,0,0,0,0,0,0,0,-1,1728,610,7.19563,1.43836
511,414,5.94153,-1.28772,0,0,0,0,0,0,0,-1,1735,610,5.94151,1.28769
518,414,4.53381,-0.0996704,0,0,0,0,0,0,0,-1,1742,610,4.53378,0.0996819
525,414,6.18811,-1.64056,0,0,0,0,0,0,0,-1,1749,610,6.18814,1.64055
532,414,21.8368,-14.9135,0,0,0,0,0,0,0,-1,1756,610,21.8368,14.9135
539,414,21.9276,-13.9732,0,0,0,0,0,0,0,-1,1763,610,21.9276,13.9732
546,414,21.9081,-13.292,0.00422041,0.00162187,0.00159224,0.00497622,0.000866061,0.443187,0.00306979,0.0149687,1770,610,21.9081,13.292
553,414,21.9064,-12.6298,0.00335651,0.00150055,0.00132738,0.00404813,0.000808931,0.480335,0.0024736,0.0127874,1777,610,21.9063,12.6298
560,414,21.8842,-11.9561,0.00261898,0.00143229,0.00116219,0.00333053,0.000720737,0.549377,0.00202336,0.0153098,1784,610,21.8841,11.956
567,414,21.8671,-11.271,0.00201492,0.0014457,0.00109644,0.00286309,0.000597535,0.658411,0.00174401,0.024682,1791,610,21.867,11.271
574,414,21.8092,-10.6252,0.00165815,0.00166601,0.00120222,0.00286431,0.000459853,0.787033,0.00177621,0.0208105,1798,610,21.8093,10.6252
581,414,21.79,-9.96484,0.00152091,0.00198886,0.00146406,0.00323752,0.000272249,0.864634,0.00207357,0.0160349,1805,610,21.79,9.96487
588,414,21.7571,-9.33929,0.00155611,0.00252397,0.00186768,0.0039694,0.000110685,0.912163,0.00261015,0.0160845,1812,610,21.7571,9.33928
595,414,21.7274,-8.62158,0.00181047,0.00326334,0.00244683,0.0050893,-1.54835e-05,0.929698,0.00339804,0.0213544,1819,610,21.7274,8.62158
602,414,21.7004,-7.95813,0.0022994,0.00428447,0.00320901,0.00665093,-6.70657e-05,0.93538,0.00445648,0.0249933,1826,610,21.7004,7.95814
609,414,21.6909,-7.26373,0,0,0,0,0,0,0,-1,1833,610,21.6909,7.26376
616,414,21.9475,-6.34692,0,0,0,0,0,0,0,-1,1840,610,21.9475,6.34694
623,414,9.6969,0.0378418,0,0,0,0,0,0,0,-1,1847,610,9.69685,-0.0378644
630,414,5.47144,0.499329,0,0,0,0,0,0,0,-1,1854,610,5.47142,-0.499303
637,414,8.36707,4.16278,0,0,0,0,0,0,0,-1,1861,610,8.36709,-4.16278
644,414,5.87073,1.51422,0,0,0,0,0,0,0,-1,1868,610,5.87076,-1.51424
651,414,3.6377,0.820557,0,0,0,0,0,0,0,-1,1875,610,3.6377,-0.820543
658,414,2.29761,3.87323,0,0,0,0,0,0,0,-1,1882,610,2.29758,-3.87325
665,414,0,0,0,0,0,0,0,0,0,-1,1889,610,0,0
672,414,0,0,0,0,0,0,0,0,0,-1,1896,610,0,0
679,414,0,0,0,0,0,0,0,0,0,-1,1903,610,0,0
686,414,0,0,0,0,0,0,0,0,0,-1,1910,610,0,0
693,414,0,0,0,0,0,0,0,0,0,-1,1917,610,0,0
700,414,0,0,0,0,0,0,0,0,0,-1,1924,610,0,0
707,414,0,0,0,0,0,0,0,0,0,-1,1931,610,0,0
714,414,0,0,0,0,0,0,0,0,0,-1,1938,610,0,0
721,414,0,0,0,0,0,0,0,0,0,-1,1945,610,0,0
728,414,0,0,0,0,0,0,0,0,0,-1,1952,610,0,0
735,414,0,0,0,0,0,0,0,0,0,-1,1959,610,0,0
742,414,0,0,0,0,0,0,0,0,0,-1,1966,610,0,0
749,414,0,0,0,0,0,0,0,0,0,-1,1973,610,0,0
756,414,0,0,0,0,0,0,0,0,0,-1,1980,610,0,0
763,414,0,0,0,0,0,0,0,0,0,-1,1987,610,0,0
770,414,0,0,0,0,0,0,0,0,0,-1,1994,610,0,0
777,414,0,0,0,0,0,0,0,0,0,-1,2001,610,0,0
784,414,0,0,0,0,0,0,0,0,0,-1,2008,610,0,0
791,414,0,0,0,0,0,0,0,0,0,-1,2015,610,0,0
798,414,0,0,0,0,0,0,0,0,0,-1,2022,610,0,0
805,414,0,0,0,0,0,0,0,0,0,-1,2029,610,0,0
812,414,0,0,0,0,0,0,0,0,0,-1,2036,610,0,0
-700,407,0,0,0,0,0,0,0,0,0,-1,524,617,0,0
-693,407,0,0,0,0,0,0,0,0,0,-1,531,617,0,0
-686,407,0,0,0,0,0,0,0,0,0,-1,538,617,0,0
-679,407,0,0,0,0,0,0,0,0,0,-1,545,617,0,0
-672,407,0,0,0,0,0,0,0,0,0,-1,552,617,0,0
-665,407,0,0,0,0,0,0,0,0,0,-1,559,617,0,0
-658,407,0,0,0,0,0,0,0,0,0,-1,566,617,0,0
-651,407,0,0,0,0,0,0,0,0,0,-1,573,617,0,0
-644,407,0,0,0,0,0,0,0,0,0,-1,580,617,0,0
-637,407,0,0,0,0,0,0,0,0,0,-1,587,617,0,0
-630,407,0,0,0,0,0,0,0,0,0,-1,594,617,0,0
-623,407,0,0,0,0,0,0,0,0,0,-1,601,617,0,0
-616,407,0,0,0,0,0,0,0,0,0,-1,608,617,0,0
-609,407,0,0,0,0,0,0,0,0,0,-1,615,617,0,0
-602,407,0,0,0,0,0,0,0,0,0,-1,622,617,0,0
-595,407,0,0,0,0,0,0,0,0,0,-1,629,617,0,0
-588,407,0,0,0,0,0,0,0,0,0,-1,636,617,0,0
-581,407,0,0,0,0,0,0,0,0,0,-1,643,617,0,0
-574,407,0,0,0,0,0,0,0,0,0,-1,650,617,0,0
-567,407,0,0,0,0,0,0,0,0,0,-1,657,617,0,0
-560,407,0,0,0,0,0,0,0,0,0,-1,664,617,0,0
-553,407,0,0,0,0,0,0,0,0,0,-1,671,617,0,0
-546,407,-8.54517,-0.658142,0,0,0,0,0,0,0,-1,678,617,-8.54515,0.658112
-539,407,-6.09442,-1.01154,0,0,0,0,0,0,0,-1,685,617,-6.09441,1.01155
-532,407,-7.75665,1.62152,0,0,0,0,0,0,0,-1,692,617,-7.75667,-1.62154
-525,407,-3.78247,-2.67639,0,0,0,0,0,0,0,-1,699,617,-3.78246,2.67638
-518,407,-5.013,-5.87323,0,0,0,0,0,0,0,-1,706,617,-5.013,5.87324
-511,407,-9.42743,-4.94189,0,0,0,0,0,0,0,-1,713,617,-9.42745,4.94191
-504,407,-9.80591,-7.48315,0,0,0,0,0,0,0,-1,720,617,-9.80588,7.48317
-497,407,-9.84467,-6.81641,0,0,0,0,0,0,0,-1,727,617,-9.84468,6.8164
-490,407,-11.1592,-7.87134,0,0,0,0,0,0,0,-1,734,617,-11.1592,7.87131
-483,407,-11.0164,-8.82166,-0.000161204,0.00518883,-0.00192193,0.00580768,-0.000780051,-1.25929,0.00415627,0.0339611,741,617,-11.0164,8.82167
-476,407,-11.0698,-9.43317,-0.000160963,0.00398403,-0.00146254,0.00444812,-0.00062505,-1.26353,0.00319422,0.0160281,748,617,-11.0698,9.43314
-469,407,-11.1198,-10.0612,8.69873e-05,0.00296026,-0.00119859,0.0033946,-0.000347351,-1.22314,0.00238729,0.0130752,755,617,-11.1198,10.0611
-462,407,-11.1484,-10.7298,0.000373016,0.00209097,-0.00101235,0.00255966,-9.5671e-05,-1.13721,0.00173921,0.0196923,762,617,-11.1484,10.7298
-455,407,-11.1796,-11.3981,0.00060209,0.00126705,-0.000829434,0.00182816,4.09811e-05,-0.976019,0.00120535,0.0221448,769,617,-11.1796,11.3982
-448,407,-11.1747,-12.0399,0.00085312,0.000548623,-0.00066365,0.00138176,1.99823e-05,-0.672644,0.000914586,0.0200267,776,617,-11.1747,12.0398
-441,407,-11.207,-12.6781,0.00100511,-0.000281579,-0.00040371,0.00112129,-0.000397757,-0.280204,0.000909577,0.0153057,783,617,-11.207,12.6781
-434,407,-11.2623,-13.3176,0.00111192,-0.000961579,-0.000162162,0.00112453,-0.000974184,-0.0775781,0.00121273,0.0113475,790,617,-11.2623,13.3176
-427,407,-11.2556,-13.96,0.00113354,-0.00171226,0.000131422,0.00113959,-0.00171832,0.0460504,0.00166126,0.011861,797,617,-11.2556,13.96
-420,407,-11.2393,-14.5898,0.00103511,-0.00254322,0.000540762,0.00111504,-0.00262315,0.146757,0.00221602,0.0114232,804,617,-11.2393,14.5898
-413,407,-11.2627,-15.2059,0.000815255,-0.00337689,0.00106874,0.00107199,-0.00363362,0.235759,0.00284782,0.0143537,811,617,-11.2627,15.2059
-406,407,-11.3826,-15.6711,0.000570914,-0.00410691,0.00151958,0.0010212,-0.0045572,0.28808,0.00342959,0.0428494,818,617,-11.3825,15.6711
-399,407,-11.233,-16.1498,0,0,0,0,0,0,0,-1,825,617,-11.2331,16.1498
-392,407,-8.33612,-12.195,0,0,0,0,0,0,0,-1,832,617,-8.33611,12.195
-385,407,-7.65765,-10.7744,0,0,0,0,0,0,0,-1,839,617,-7.65767,10.7744
-378,407,-6.08655,-7.42291,0,0,0,0,0,0,0,-1,846,617,-6.08652,7.42292
-371,407,-7.4007,-5.79449,0,0,0,0,0,0,0,-1,853,617,-7.40072,5.79447
-364,407,-10.0638,-6.6228,0,0,0,0,0,0,0,-1,860,617,-10.0639,6.62279
-357,407,-6.64447,-1.83337,0,0,0,0,0,0,0,-1,867,617,-6.64446,1.8334
-350,407,-7.03351,-1.77551,0,0,0,0,0,0,0,-1,874,617,-7.03349,1.77551
-343,407,-7.40967,-1.95026,0,0,0,0,0,0,0,-1,881,617,-7.40969,1.95026
-336,407,-8.10229,-2.40662,0,0,0,0,0,0,0,-1,888,617,-8.10229,2.40664
-329,407,-8.81232,-2.76331,0,0,0,0,0,0,0,-1,895,617,-8.81235,2.76331
-322,407,0,0,0,0,0,0,0,0,0,-1,902,617,0,0
-315,407,0,0,0,0,0,0,0,0,0,-1,909,617,0,0
-308,407,0,0,0,0,0,0,0,0,0,-1,916,617,0,0
-301,407,0,0,0,0,0,0,0,0,0,-1,923,617,0,0
-294,407,0,0,0,0,0,0,0,0,0,-1,930,617,0,0
-287,407,0,0,0,0,0,0,0,0,0,-1,937,617,0,0
-280,407,0,0,0,0,0,0,0,0,0,-1,944,617,0,0
-273,407,0,0,0,0,0,0,0,0,0,-1,951,617,0,0
-266,407,0,0,0,0,0,0,0,0,0,-1,958,617,0,0
-259,407,0,0,0,0,0,0,0,0,0,-1,965,617,0,0
-252,407,0,0,0,0,0,0,0,0,0,-1,972,617,0,0
-245,407,0,0,0,0,0,0,0,0,0,-1,979,617,0,0
-238,407,0,0,0,0,0,0,0,0,0,-1,986,617,0,0
-231,407,0,0,0,0,0,0,0,0,0,-1,993,617,0,0
-224,407,0,0,0,0,0,0,0,0,0,-1,1000,617,0,0
-217,407,0,0,0,0,0,0,0,0,0,-1,1007,617,0,0
-210,407,0,0,0,0,0,0,0,0,0,-1,1014,617,0,0
-203,407,0,0,0,0,0,0,0,0,0,-1,1021,617,0,0
-196,407,0,0,0,0,0,0,0,0,0,-1,1028,617,0,0
-189,407,0,0,0,0,0,0,0,0,0,-1,1035,617,0,0
-182,407,0,0,0,0,0,0,0,0,0,-1,1042,617,0,0
-175,407,0,0,0,0,0,0,0,0,0,-1,1049,617,0,0
-168,407,0,0,0,0,0,0,0,0,0,-1,1056,617,0,0
-161,407,0,0,0,0,0,0,0,0,0,-1,1063,617,0,0
-154,407,0,0,0,0,0,0,0,0,0,-1,1070,617,0,0
-147,407,0,0,0,0,0,0,0,0,0,-1,1077,617,0,0
-140,407,0,0,0,0,0,0,0,0,0,-1,1084,617,0,0
-133,407,0,0,0,0,0,0,0,0,0,-1,1091,617,0,0
-126,407,0,0,0,0,0,0,0,0,0,-1,1098,617,0,0
-119,407,0,0,0,0,0,0,0,0,0,-1,1105,617,0,0
-112,407,0,0,0,0,0,0,0,0,0,-1,1112,617,0,0
-105,407,0,0,0,0,0,0,0,0,0,-1,1119,617,0,0
-98,407,0,0,0,0,0,0,0,0,0,-1,1126,617,0,0
-91,407,0,0,0,0,0,0,0,0,0,-1,1133,617,0,0
-84,407,0,0,0,0,0,0,0,0,0,-1,1140,617,0,0
-77,407,0,0,0,0,0,0,0,0,0,-1,1147,617,0,0
-70,407,0,0,0,0,0,0,0,0,0,-1,1154,617,0,0
-63,407,0,0,0,0,0,0,0,0,0,-1,1161,617,0,0
-56,407,0,0,0,0,0,0,0,0,0,-1,1168,617,0,0
-49,407,0,0,0,0,0,0,0,0,0,-1,1175,617,0,0
-42,407,0,0,0,0,0,0,0,0,0,-1,1182,617,0,0
-35,407,0,0,0,0,0,0,0,0,0,-1,1189,617,0,0
-28,407,0,0,0,0,0,0,0,0,0,-1,1196,617,0,0
-21,407,0,0,0,0,0,0,0,0,0,-1,1203,617,0,0
-14,407,0,0,0,0,0,0,0,0,0,-1,1210,617,0,0
-7,407,0,0,0,0,0,0,0,0,0,-1,1217,617,0,0
0,407,0,0,0,0,0,0,0,0,0,-1,1224,617,0,0
7,407,0,0,0,0,0,0,0,0,0,-1,1231,617,0,0
14,407,0,0,0,0,0,0,0,0,0,-1,1238,617,0,0
21,407,0,0,0,0,0,0,0,0,0,-1,1245,617,0,0
28,407,0,0,0,0,0,0,0,0,0,-1,1252,617,0,0
35,407,0,0,0,0,0,0,0,0,0,-1,1259,617,0,0
42,407,0,0,0,0,0,0,0,0,0,-1,1266,617,0,0
49,407,0,0,0,0,0,0,0,0,0,-1,1273,617,0,0
56,407,0,0,0,0,0,0,0,0,0,-1,1280,617,0,0
63,407,0,0,0,0,0,0,0,0,0,-1,1287,617,0,0
70,407,0,0,0,0,0,0,0,0,0,-1,1294,617,0,0
77,407,0,0,0,0,0,0,0,0,0,-1,1301,617,0,0
84,407,0,0,0,0,0,0,0,0,0,-1,1308,617,0,0
91,407,0,0,0,0,0,0,0,0,0,-1,1315,617,0,0
98,407,0,0,0,0,0,0,0,0,0,-1,1322,617,0,0
105,407,0,0,0,0,0,0,0,0,0,-1,1329,617,0,0
112,407,0,0,0,0,0,0,0,0,0,-1,1336,617,0,0
119,407,0,0,0,0,0,0,0,0,0,-1,1343,617,0,0
126,407,0,0,0,0,0,0,0,0,0,-1,1350,617,0,0
133,407,0,0,0,0,0,0,0,0,0,-1,1357,617,0,0
140,407,0,0,0,0,0,0,0,0,0,-1,1364,617,0,0
147,407,0,0,0,0,0,0,0,0,0,-1,1371,617,0,0
154,407,0,0,0,0,0,0,0,0,0,-1,1378,617,0,0
161,407,0,0,0,0,0,0,0,0,0,-1,1385,617,0,0
168,407,0,0,0,0,0,0,0,0,0,-1,1392,617,0,0
175,407,0,0,0,0,0,0,0,0,0,-1,1399,617,0,0
182,407,0,0,0,0,0,0,0,0,0,-1,1406,617,0,0
189,407,0,0,0,0,0,0,0,0,0,-1,1413,617,0,0
196,407,0,0,0,0,0,0,0,0,0,-1,1420,617,0,0
203,407,0,0,0,0,0,0,0,0,0,-1,1427,617,0,0
210,407,0,0,0,0,0,0,0,0,0,-1,1434,617,0,0
217,407,0,0,0,0,0,0,0,0,0,-1,1441,617,0,0
224,407,0,0,0,0,0,0,0,0,0,-1,1448,617,0,0
231,407,0,0,0,0,0,0,0,0,0,-1,1455,617,0,0
238,407,0,0,0,0,0,0,0,0,0,-1,1462,617,0,0
245,407,0,0,0,0,0,0,0,0,0,-1,1469,617,0,0
252,407,0,0,0,0,0,0,0,0,0,-1,1476,617,0,0
259,407,0,0,0,0,0,0,0,0,0,-1,1483,617,0,0
266,407,0,0,0,0,0,0,0,0,0,-1,1490,617,0,0
273,407,0,0,0,0,0,0,0,0,0,-1,1497,617,0,0
280,407,0,0,0,0,0,0,0,0,0,-1,1504,617,0,0
287,407,0,0,0,0,0,0,0,0,0,-1,1511,617,0,0
294,407,0,0,0,0,0,0,0,0,0,-1,1518,617,0,0
301,407,0,0,0,0,0,0,0,0,0,-1,1525,617,0,0
308,407,0,0,0,0,0,0,0,0,0,-1,1532,617,0,0
315,407,0,0,0,0,0,0,0,0,0,-1,1539,617,0,0
322,407,0,0,0,0,0,0,0,0,0,-1,1546,617,0,0
329,407,0,0,0,0,0,0,0,0,0,-1,1553,617,0,0
336,407,0,0,0,0,0,0,0,0,0,-1,1560,617,0,0
343,407,0,0,0,0,0,0,0,0,0,-1,1567,617,0,0
350,407,0,0,0,0,0,0,0,0,0,-1,1574,617,0,0
357,407,0,0,0,0,0,0,0,0,0,-1,1581,617,0,0
364,407,0,0,0,0,0,0,0,0,0,-1,1588,617,0,0
371,407,0,0,0,0,0,0,0,0,0,-1,1595,617,0,0
378,407,0,0,0,0,0,0,0,0,0,-1,1602,617,0,0
385,407,0,0,0,0,0,0,0,0,0,-1,1609,617,0,0
392,407,0,0,0,0,0,0,0,0,0,-1,1616,617,0,0
399,407,0,0,0,0,0,0,0,0,0,-1,1623,617,0,0
406,407,0,0,0,0,0,0,0,0,0,-1,1630,617,0,0
413,407,0,0,0,0,0,0,0,0,0,-1,1637,617,0,0
420,407,0,0,0,0,0,0,0,0,0,-1,1644,617,0,0
427,407,0,0,0,0,0,0,0,0,0,-1,1651,617,0,0
434,407,0,0,0,0,0,0,0,0,0,-1,1658,617,0,0
441,407,0,0,0,0,0,0,0,0,0,-1,1665,617,0,0
448,407,7.02893,2.13843,0,0,0,0,0,0,0,-1,1672,617,7.02899,-2.13844
455,407,7.55237,2.29242,0,0,0,0,0,0,0,-1,1679,617,7.55236,-2.29244
462,407,8.2926,2.46173,0,0,0,0,0,0,0,-1,1686,617,8.29261,-2.46174
469,407,8.71509,2.22681,0,0,0,0,0,0,0,-1,1693,617,8.71511,-2.22681
476,407,8.89917,1.47766,0,0,0,0,0,0,0,-1,1700,617,8.89914,-1.47768
483,407,9.02612,0.682983,0,0,0,0,0,0,0,-1,1707,617,9.02608,-0.683004
490,407,9.12659,0.000671387,0,0,0,0,0,0,0,-1,1714,617,9.12653,-0.000675931
497,407,7.76819,0.855835,0,0,0,0,0,0,0,-1,1721,617,7.7682,-0.855865
504,407,4.69336,0.160706,0,0,0,0,0,0,0,-1,1728,617,4.69337,-0.1607
511,407,4.07104,-0.00140381,0,0,0,0,0,0,0,-1,1735,617,4.07109,0.00141425
518,407,6.09534,1.9411,0,0,0,0,0,0,0,-1,1742,617,6.09532,-1.94113
525,407,5.72534,-1.35986,0,0,0,0,0,0,0,-1,1749,617,5.72529,1.35988
532,407,18.5767,-10.6388,0,0,0,0,0,0,0,-1,1756,617,18.5766,10.6388
539,407,22.4794,-13.9732,0,0,0,0,0,0,0,-1,1763,617,22.4794,13.9732
546,407,22.5773,-13.2773,0.00481565,0.00205241,0.00184757,0.00574106,0.001127,0.464351,0.0035125,0.0229434,1770,617,22.5773,13.2774
553,407,22.5553,-12.6324,0.00383888,0.00177328,0.00148947,0.00461859,0.00099357,0.482255,0.00280711,0.01603,1777,617,22.5553,12.6324
560,407,22.5587,-11.9368,0.00302218,0.00155125,0.00122725,0.00371746,0.000855959,0.515454,0.00224798,0.0170725,1784,617,22.5587,11.9368
567,407,22.5325,-11.2761,0.00233225,0.00140425,0.0010564,0.00302206,0.000714439,0.578468,0.00182382,0.0309483,1791,617,22.5325,11.2762
574,407,22.4778,-10.642,0.00189872,0.00150753,0.00109076,0.00281128,0.000594968,0.69668,0.00171071,0.0261022,1798,617,22.4778,10.642
581,407,22.4458,-9.94952,0.00168952,0.0017533,0.0012914,0.00301321,0.000429609,0.797743,0.00188202,0.0182597,1805,617,22.4458,9.94953
588,407,22.4259,-9.31128,0.00165476,0.0022015,0.0016269,0.00357783,0.000278423,0.868636,0.00229804,0.0138059,1812,617,22.4259,9.31125
595,407,22.4191,-8.64886,0.00188931,0.00285215,0.00215394,0.00457781,0.000163644,0.895344,0.00299882,0.0259778,1819,617,22.4191,8.64884
602,407,22.3987,-7.91687,0.00243827,0.00374761,0.00288894,0.00605514,0.000130751,0.896822,0.00399389,0.0199154,1826,617,22.3987,7.91688
609,407,22.3242,-7.20215,0.00334967,0.00495595,0.0038973,0.00813201,0.000173618,0.887013,0.0053644,0.0172624,1833,617,22.3243,7.20218
616,407,22.3671,-6.41687,0.00472561,0.00658948,0.00521191,0.0109521,0.000362975,0.873867,0.00718348,0.0305615,1840,617,22.367,6.4169
623,407,22.6292,-5.51086,0,0,0,0,0,0,0,-1,1847,617,22.6292,5.51084
630,407,7.06177,0.814575,0,0,0,0,0,0,0,-1,1854,617,7.06178,-0.814579
637,407,9.76819,-0.110657,0,0,0,0,0,0,0,-1,1861,617,9.76814,0.11064
644,407,5.09766,2.27747,0,0,0,0,0,0,0,-1,1868,617,5.09764,-2.27746
651,407,7.37524,0.0513916,0,0,0,0,0,0,0,-1,1875,617,7.3752,-0.0513923
658,407,3.76685,0.594177,0,0,0,0,0,0,0,-1,1882,617,3.76683,-0.594184
665,407,5.76123,0.375061,0,0,0,0,0,0,0,-1,1889,617,5.76118,-0.37509
672,407,0,0,0,0,0,0,0,0,0,-1,1896,617,0,0
679,407,0,0,0,0,0,0,0,0,0,-1,1903,617,0,0
686,407,0,0,0,0,0,0,0,0,0,-1,1910,617,0,0
693,407,0,0,0,0,0,0,0,0,0,-1,1917,617,0,0
700,407,0,0,0,0,0,0,0,0,0,-1,1924,617,0,0
707,407,0,0,0,0,0,0,0,0,0,-1,1931,617,0,0
714,407,0,0,0,0,0,0,0,0,0,-1,1938,617,0,0
721,407,0,0,0,0,0,0,0,0,0,-1,1945,617,0,0
728,407,0,0,0,0,0,0,0,0,0,-1,1952,617,0,0
735,407,0,0,0,0,0,0,0,0,0,-1,1959,617,0,0
742,407,0,0,0,0,0,0,0,0,0,-1,1966,617,0,0
749,407,0,0,0,0,0,0,0,0,0,-1,1973,617,0,0
756,407,0,0,0,0,0,0,0,0,0,-1,1980,617,0,0
763,407,0,0,0,0,0,0,0,0,0,-1,1987,617,0,0
770,407,0,0,0,0,0,0,0,0,0,-1,1994,617,0,0
777,407,0,0,0,0,0,0,0,0,0,-1,2001,617,0,0
784,407,0,0,0,0,0,0,0,0,0,-1,2008,617,0,0
791,407,0,0,0,0,0,0,0,0,0,-1,2015,617,0,0
798,407,0,0,0,0,0,0,0,0,0,-1,2022,617,0,0
805,407,0,0,0,0,0,0,0,0,0,-1,2029,617,0,0
812,407,0,0,0,0,0,0,0,0,0,-1,2036,617,0,0
-700,400,0,0,0,0,0,0,0,0,0,-1,524,624,0,0
-693,400,0,0,0,0,0,0,0,0,0,-1,531,624,0,0
-686,400,0,0,0,0,0,0,0,0,0,-1,538,624,0,0
-679,400,0,0,0,0,0,0,0,0,0,-1,545,624,0,0
-672,400,0,0,0,0,0,0,0,0,0,-1,552,624,0,0
-665,400,0,0,0,0,0,0,0,0,0,-1,559,624,0,0
-658,400,0,0,0,0,0,0,0,0,0,-1,566,624,0,0
-651,400,0,0,0,0,0,0,0,0,0,-1,573,624,0,0
-644,400,0,0,0,0,0,0,0,0,0,-1,580,624,0,0
-637,400,0,0,0,0,0,0,0,0,0,-1,587,624,0,0
-630,400,0,0,0,0,0,0,0,0,0,-1,594,624,0,0
-623,400,0,0,0,0,0,0,0,0,0,-1,601,624,0,0
-616,400,0,0,0,0,0,0,0,0,0,-1,608,624,0,0
-609,400,0,0,0,0,0,0,0,0,0,-1,615,624,0,0
-602,400,0,0,0,0,0,0,0,0,0,-1,622,624,0,0
-595,400,0,0,0,0,0,0,0,0,0,-1,629,624,0,0
-588,400,0,0,0,0,0,0,0,0,0,-1,636,624,0,0
-581,400,0,0,0,0,0,0,0,0,0,-1,643,624,0,0
-574,400,0,0,0,0,0,0,0,0,0,-1,650,624,0,0
-567,400,0,0,0,0,0,0,0,0,0,-1,657,624,0,0
-560,400,0,0,0,0,0,0,0,0,0,-1,664,624,0,0
-553,400,0,0,0,0,0,0,0,0,0,-1,671,624,0,0
-546,400,-8.41174,-1.4599,0,0,0,0,0,0,0,-1,678,624,-8.41173,1.45989
-539,400,-5.69104,-1.7337,0,0,0,0,0,0,0,-1,685,624,-5.69103,1.7337
-532,400,-3.03632,-2.03912,0,0,0,0,0,0,0,-1,692,624,-3.03632,2.03909
-525,400,-6.20813,-7.04071,0,0,0,0,0,0,0,-1,699,624,-6.20814,7.04071
-518,400,-5.26544,-1.58661,0,0,0,0,0,0,0,-1,706,624,-5.26544,1.58658
-511,400,-10.6307,-6.7121,0,0,0,0,0,0,0,-1,713,624,-10.6307,6.71209
-504,400,-10.2663,-6.55109,0,0,0,0,0,0,0,-1,720,624,-10.2663,6.55106
-497,400,-11.853,-7.2439,0,0,0,0,0,0,0,-1,727,624,-11.853,7.24387
-490,400,-11.6636,-8.01404,0.000742392,0.00567669,-0.00252383,0.00673892,-0.000319841,-1.17242,0.00460293,0.0351953,734,624,-11.6636,8.01401
-483,400,-11.6823,-8.76599,0.000429155,0.00427916,-0.00187396,0.00504067,-0.000332354,-1.18482,0.00347653,0.0180657,741,624,-11.6823,8.76599
-476,400,-11.7177,-9.39288,0.000399484,0.00320797,-0.00143183,0.00380923,-0.000201774,-1.17323,0.00260935,0.0148028,748,624,-11.7176,9.39289
-469,400,-11.7661,-10.0334,0.000581572,0.00229468,-0.00116227,0.00288193,-5.67606e-06,-1.10295,0.00192318,0.0148696,755,624,-11.7661,10.0334
-462,400,-11.7808,-10.7175,0.000791372,0.00150195,-0.000958546,0.00216893,0.000124388,-0.962875,0.00140633,0.0188177,762,624,-11.7808,10.7175
-455,400,-11.8044,-11.374,0.00098211,0.000712727,-0.000776682,0.00163569,5.9144e-05,-0.699542,0.00107129,0.0204234,769,624,-11.8045,11.374
-448,400,-11.8158,-12.0137,0.0012185,6.27489e-05,-0.00063365,0.00149821,-0.000216962,-0.415702,0.00107842,0.0164526,776,624,-11.8158,12.0137
-441,400,-11.8423,-12.6343,0.00136581,-0.000678725,-0.000420029,0.00144874,-0.000761652,-0.194925,0.00129656,0.0161445,783,624,-11.8423,12.6343
-434,400,-11.8872,-13.2679,0.00145186,-0.00132617,-0.000208619,0.00146744,-0.00134174,-0.0745388,0.00162243,0.0129971,790,624,-11.8872,13.2679
-427,400,-11.9027,-13.8967,0.00139216,-0.00208967,9.32624e-05,0.00139466,-0.00209217,0.0267598,0.0020265,0.0112496,797,624,-11.9027,13.8967
-420,400,-11.8578,-14.5671,0.00110935,-0.00303154,0.000596383,0.00119353,-0.00311572,0.140227,0.00256913,0.0166881,804,624,-11.8578,14.5671
-413,400,-11.9814,-15.0964,0.000653738,-0.00399977,0.00124891,0.000967733,-0.00431376,0.246311,0.00324685,0.0391204,811,624,-11.9814,15.0964
-406,400,-12.1357,-15.5801,0,0,0,0,0,0,0,-1,818,624,-12.1357,15.5802
-399,400,-11.0176,-13.2944,0,0,0,0,0,0,0,-1,825,624,-11.0176,13.2944
-392,400,-4.92285,-6.63354,0,0,0,0,0,0,0,-1,832,624,-4.92285,6.63354
-385,400,-3.68738,-5.04205,0,0,0,0,0,0,0,-1,839,624,-3.68736,5.04207
-378,400,-6.84064,-1.28662,0,0,0,0,0,0,0,-1,846,624,-6.84062,1.28662
-371,400,-6.98865,-1.2572,0,0,0,0,0,0,0,-1,853,624,-6.98865,1.25721
-364,400,-6.97247,-1.24133,0,0,0,0,0,0,0,-1,860,624,-6.97249,1.24135
-357,400,-7.18329,-1.23218,0,0,0,0,0,0,0,-1,867,624,-7.18327,1.2322
-350,400,-7.40186,-1.19409,0,0,0,0,0,0,0,-1,874,624,-7.40187,1.19407
-343,400,-8.09357,-1.51147,0,0,0,0,0,0,0,-1,881,624,-8.09355,1.51148
-336,400,0,0,0,0,0,0,0,0,0,-1,888,624,0,0
-329,400,0,0,0,0,0,0,0,0,0,-1,895,624,0,0
-322,400,0,0,0,0,0,0,0,0,0,-1,902,624,0,0
-315,400,0,0,0,0,0,0,0,0,0,-1,909,624,0,0
-308,400,0,0,0,0,0,0,0,0,0,-1,916,624,0,0
-301,400,0,0,0,0,0,0,0,0,0,-1,923,624,0,0
-294,400,0,0,0,0,0,0,0,0,0,-1,930,624,0,0
-287,400,0,0,0,0,0,0,0,0,0,-1,937,624,0,0
-280,400,0,0,0,0,0,0,0,0,0,-1,944,624,0,0
-273,400,0,0,0,0,0,0,0,0,0,-1,951,624,0,0
-266,400,0,0,0,0,0,0,0,0,0,-1,958,624,0,0
-259,400,0,0,0,0,0,0,0,0,0,-1,965,624,0,0
-252,400,0,0,0,0,0,0,0,0,0,-1,972,624,0,0
-245,400,0,0,0,0,0,0,0,0,0,-1,979,624,0,0
-238,400,0,0,0,0,0,0,0,0,0,-1,986,624,0,0
-231,400,0,0,0,0,0,0,0,0,0,-1,993,624,0,0
-224,400,0,0,0,0,0,0,0,0,0,-1,1000,624,0,0
-217,400,0,0,0,0,0,0,0,0,0,-1,1007,624,0,0
-210,400,0,0,0,0,0,0,0,0,0,-1,1014,624,0,0
-203,400,0,0,0,0,0,0,0,0,0,-1,1021,624,0,0
-196,400,0,0,0,0,0,0,0,0,0,-1,1028,624,0,0
-189,400,0,0,0,0,0,0,0,0,0,-1,1035,624,0,0
-182,400,0,0,0,0,0,0,0,0,0,-1,1042,624,0,0
-175,400,0,0,0,0,0,0,0,0,0,-1,1049,624,0,0
-168,400,0,0,0,0,0,0,0,0,0,-1,1056,624,0,0
-161,400,0,0,0,0,0,0,0,0,0,-1,1063,624,0,0
-154,400,0,0,0,0,0,0,0,0,0,-1,1070,624,0,0
-147,400,0,0,0,0,0,0,0,0,0,-1,1077,624,0,0
-140,400,0,0,0,0,0,0,0,0,0,-1,1084,624,0,0
-133,400,0,0,0,0,0,0,0,0,0,-1,1091,624,0,0
-126,400,0,0,0,0,0,0,0,0,0,-1,1098,624,0,0
-119,400,0,0,0,0,0,0,0,0,0,-1,1105,624,0,0
-112,400,0,0,0,0,0,0,0,0,0,-1,1112,624,0,0
-105,400,0,0,0,0,0,0,0,0,0,-1,1119,624,0,0
-98,400,0,0,0,0,0,0,0,0,0,-1,1126,624,0,0
-91,400,0,0,0,0,0,0,0,0,0,-1,1133,624,0,0
-84,400,0,0,0,0,0,0,0,0,0,-1,1140,624,0,0
-77,400,0,0,0,0,0,0,0,0,0,-1,1147,624,0,0
-70,400,0,0,0,0,0,0,0,0,0,-1,1154,624,0,0
-63,400,0,0,0,0,0,0,0,0,0,-1,1161,624,0,0
-56,400,0,0,0,0,0,0,0,0,0,-1,1168,624,0,0
-49,400,0,0,0,0,0,0,0,0,0,-1,1175,624,0,0
-42,400,0,0,0,0,0,0,0,0,0,-1,1182,624,0,0
-35,400,0,0,0,0,0,0,0,0,0,-1,1189,624,0,0
-28,400,0,0,0,0,0,0,0,0,0,-1,1196,624,0,0
-21,400,0,0,0,0,0,0,0,0,0,-1,1203,624,0,0
-14,400,0,0,0,0,0,0,0,0,0,-1,1210,624,0,0
-7,400,0,0,0,0,0,0,0,0,0,-1,1217,624,0,0
0,400,0,0,0,0,0,0,0,0,0,-1,1224,624,0,0
7,400,0,0,0,0,0,0,0,0,0,-1,1231,624,0,0
14,400,0,0,0,0,0,0,0,0,0,-1,1238,624,0,0
21,400,0,0,0,0,0,0,0,0,0,-1,1245,624,0,0
28,400,0,0,0,0,0,0,0,0,0,-1,1252,624,0,0
35,400,0,0,0,0,0,0,0,0,0,-1,1259,624,0,0
42,400,0,0,0,0,0,0,0,0,0,-1,1266,624,0,0
49,400,0,0,0,0,0,0,0,0,0,-1,1273,624,0,0
56,400,0,0,0,0,0,0,0,0,0,-1,1280,624,0,0
63,400,0,0,0,0,0,0,0,0,0,-1,1287,624,0,0
70,400,0,0,0,0,0,0,0,0,0,-1,1294,624,0,0
77,400,0,0,0,0,0,0,0,0,0,-1,1301,624,0,0
84,400,0,0,0,0,0,0,0,0,0,-1,1308,624,0,0
91,400,0,0,0,0,0,0,0,0,0,-1,1315,624,0,0
98,400,0,0,0,0,0,0,0,0,0,-1,1322,624,0,0
105,400,0,0,0,0,0,0,0,0,0,-1,1329,624,0,0
112,400,0,0,0,0,0,0,0,0,0,-1,1336,624,0,0
119,400,0,0,0,0,0,0,0,0,0,-1,1343,624,0,0
126,400,0,0,0,0,0,0,0,0,0,-1,1350,624,0,0
133,400,0,0,0,0,0,0,0,0,0,-1,1357,624,0,0
140,400,0,0,0,0,0,0,0,0,0,-1,1364,624,0,0
147,400,0,0,0,0,0,0,0,0,0,-1,1371,624,0,0
154,400,0,0,0,0,0,0,0,0,0,-1,1378,624,0,0
161,400,0,0,0,0,0,0,0,0,0,-1,1385,624,0,0
168,400,0,0,0,0,0,0,0,0,0,-1,1392,624,0,0
175,400,0,0,0,0,0,0,0,0,0,-1,1399,624,0,0
182,400,0,0,0,0,0,0,0,0,0,-1,1406,624,0,0
189,400,0,0,0,0,0,0,0,0,0,-1,1413,624,0,0
196,400,0,0,0,0,0,0,0,0,0,-1,1420,624,0,0
203,400,0,0,0,0,0,0,0,0,0,-1,1427,624,0,0
210,400,0,0,0,0,0,0,0,0,0,-1,1434,624,0,0
217,400,0,0,0,0,0,0,0,0,0,-1,1441,624,0,0
224,400,0,0,0,0,0,0,0,0,0,-1,1448,624,0,0
231,400,0,0,0,0,0,0,0,0,0,-1,1455,624,0,0
238,400,0,0,0,0,0,0,0,0,0,-1,1462,624,0,0
245,400,0,0,0,0,0,0,0,0,0,-1,1469,624,0,0
252,400,0,0,0,0,0,0,0,0,0,-1,1476,624,0,0
259,400,0,0,0,0,0,0,0,0,0,-1,1483,624,0,0
266,400,0,0,0,0,0,0,0,0,0,-1,1490,624,0,0
273,400,0,0,0,0,0,0,0,0,0,-1,1497,624,0,0
280,400,0,0,0,0,0,0,0,0,0,-1,1504,624,0,0
287,400,0,0,0,0,0,0,0,0,0,-1,1511,624,0,0
294,400,0,0,0,0,0,0,0,0,0,-1,1518,624,0,0
301,400,0,0,0,0,0,0,0,0,0,-1,1525,624,0,0
308,400,0,0,0,0,0,0,0,0,0,-1,1532,624,0,0
315,400,0,0,0,0,0,0,0,0,0,-1,1539,624,0,0
322,400,0,0,0,0,0,0,0,0,0,-1,1546,624,0,0
329,400,0,0,0,0,0,0,0,0,0,-1,1553,624,0,0
336,400,0,0,0,0,0,0,0,0,0,-1,1560,624,0,0
343,400,0,0,0,0,0,0,0,0,0,-1,1567,624,0,0
350,400,0,0,0,0,0,0,0,0,0,-1,1574,624,0,0
357,400,0,0,0,0,0,0,0,0,0,-1,1581,624,0,0
364,400,0,0,0,0,0,0,0,0,0,-1,1588,624,0,0
371,400,0,0,0,0,0,0,0,0,0,-1,1595,624,0,0
378,400,0,0,0,0,0,0,0,0,0,-1,1602,624,0,0
385,400,0,0,0,0,0,0,0,0,0,-1,1609,624,0,0
392,400,0,0,0,0,0,0,0,0,0,-1,1616,624,0,0
399,400,0,0,0,0,0,0,0,0,0,-1,1623,624,0,0
406,400,0,0,0,0,0,0,0,0,0,-1,1630,624,0,0
413,400,0,0,0,0,0,0,0,0,0,-1,1637,624,0,0
420,400,0,0,0,0,0,0,0,0,0,-1,1644,624,0,0
427,400,0,0,0,0,0,0,0,0,0,-1,1651,624,0,0
434,400,0,0,0,0,0,0,0,0,0,-1,1658,624,0,0
441,400,0,0,0,0,0,0,0,0,0,-1,1665,624,0,0
448,400,0,0,0,0,0,0,0,0,0,-1,1672,624,0,0
455,400,8.91309,2.75885,0,0,0,0,0,0,0,-1,1679,624,8.91312,-2.75885
462,400,8.90356,2.37878,0,0,0,0,0,0,0,-1,1686,624,8.90353,-2.37878
469,400,9.14429,1.76849,0,0,0,0,0,0,0,-1,1693,624,9.14432,-1.76847
476,400,9.23254,1.25995,0,0,0,0,0,0,0,-1,1700,624,9.23252,-1.25994
483,400,9.59766,0.562439,0,0,0,0,0,0,0,-1,1707,624,9.59771,-0.56242
490,400,9.92578,-0.213745,0,0,0,0,0,0,0,-1,1714,624,9.92579,0.21376
497,400,9.19141,0.175232,0,0,0,0,0,0,0,-1,1721,624,9.19138,-0.175209
504,400,9.23438,0.00823975,0,0,0,0,0,0,0,-1,1728,624,9.23436,-0.00823766
511,400,6.16687,3.3501,0,0,0,0,0,0,0,-1,1735,624,6.16682,-3.35007
518,400,6.55237,1.74994,0,0,0,0,0,0,0,-1,1742,624,6.55236,-1.74993
525,400,6.99731,1.08783,0,0,0,0,0,0,0,-1,1749,624,6.99736,-1.08785
532,400,6.96582,-1.74982,0,0,0,0,0,0,0,-1,1756,624,6.96585,1.74983
539,400,21.2305,-10.5841,0,0,0,0,0,0,0,-1,1763,624,21.2304,10.5841
546,400,23.2695,-13.2792,0,0,0,0,0,0,0,-1,1770,624,23.2695,13.2792
553,400,23.1476,-12.64,0.00448067,0.0021854,0.00172222,0.0054026,0.00126347,0.4915,0.00326315,0.0398297,1777,624,23.1476,12.64
560,400,23.208,-11.9059,0.00352252,0.00181849,0.00136127,0.00427643,0.00106458,0.505776,0.00257066,0.0146714,1784,624,23.208,11.9059
567,400,23.2083,-11.2575,0.00268009,0.00151003,0.00107602,0.00331984,0.000870284,0.536402,0.00198769,0.0179614,1791,624,23.2082,11.2575
574,400,23.1545,-10.6307,0.00211107,0.00148834,0.00103061,0.00287633,0.000723086,0.638698,0.00172772,0.0202536,1798,624,23.1545,10.6307
581,400,23.0973,-9.93158,0.00177401,0.00164772,0.00115275,0.00286535,0.000556383,0.758038,0.00175443,0.0212583,1805,624,23.0973,9.9316
588,400,23.0657,-9.23621,0.00163415,0.00198783,0.00140556,0.00322763,0.00039435,0.847977,0.00203309,0.0179729,1812,624,23.0656,9.23619
595,400,23.0618,-8.57257,0.00179857,0.00251897,0.00184647,0.00404004,0.000277499,0.881727,0.00260579,0.0163246,1819,624,23.0618,8.57258
602,400,23.0626,-7.8941,0.00229077,0.00325446,0.0024951,0.00531382,0.000231413,0.880782,0.00346798,0.0145318,1826,624,23.0626,7.8941
609,400,22.9785,-7.20184,0.0029941,0.00421923,0.00330854,0.00697143,0.000241896,0.876935,0.00456913,0.0138595,1833,624,22.9786,7.20185
616,400,22.9288,-6.51282,0.00385214,0.00536269,0.00419917,0.00887397,0.000340863,0.874379,0.0058057,0.0182978,1840,624,22.9288,6.51279
623,400,22.9539,-5.80798,0,0,0,0,0,0,0,-1,1847,624,22.9539,5.80796
630,400,11.9432,0.09021,0,0,0,0,0,0,0,-1,1854,624,11.9432,-0.0902007
637,400,6.92896,1.01917,0,0,0,0,0,0,0,-1,1861,624,6.92899,-1.01918
644,400,8.65381,1.4599,0,0,0,0,0,0,0,-1,1868,624,8.65379,-1.45991
651,400,7.90601,0.424072,0,0,0,0,0,0,0,-1,1875,624,7.90598,-0.424097
658,400,8.69031,1.0484,0,0,0,0,0,0,0,-1,1882,624,8.6903,-1.0484
665,400,5.98438,0.522522,0,0,0,0,0,0,0,-1,1889,624,5.98442,-0.522552
672,400,0,0,0,0,0,0,0,0,0,-1,1896,624,0,0
679,400,0,0,0,0,0,0,0,0,0,-1,1903,624,0,0
686,400,0,0,0,0,0,0,0,0,0,-1,1910,624,0,0
693,400,0,0,0,0,0,0,0,0,0,-1,1917,624,0,0
700,400,0,0,0,0,0,0,0,0,0,-1,1924,624,0,0
707,400,0,0,0,0,0,0,0,0,0,-1,1931,624,0,0
714,400,0,0,0,0,0,0,0,0,0,-1,1938,624,0,0
721,400,0,0,0,0,0,0,0,0,0,-1,1945,624,0,0
728,400,0,0,0,0,0,0,0,0,0,-1,1952,624,0,0
735,400,0,0,0,0,0,0,0,0,0,-1,1959,624,0,0
742,400,0,0,0,0,0,0,0,0,0,-1,1966,624,0,0
749,400,0,0,0,0,0,0,0,0,0,-1,1973,624,0,0
756,400,0,0,0,0,0,0,0,0,0,-1,1980,624,0,0
763,400,0,0,0,0,0,0,0,0,0,-1,1987,624,0,0
770,400,0,0,0,0,0,0,0,0,0,-1,1994,624,0,0
777,400,0,0,0,0,0,0,0,0,0,-1,2001,624,0,0
784,400,0,0,0,0,0,0,0,0,0,-1,2008,624,0,0
791,400,0,0,0,0,0,0,0,0,0,-1,2015,624,0,0
798,400,0,0,0,0,0,0,0,0,0,-1,2022,624,0,0
805,400,0,0,0,0,0,0,0,0,0,-1,2029,624,0,0
812,400,0,0,0,0,0,0,0,0,0,-1,2036,624,0,0
-700,393,0,0,0,0,0,0,0,0,0,-1,524,631,0,0
-693,393,0,0,0,0,0,0,0,0,0,-1,531,631,0,0
-686,393,0,0,0,0,0,0,0,0,0,-1,538,631,0,0
-679,393,0,0,0,0,0,0,0,0,0,-1,545,631,0,0
-672,393,0,0,0,0,0,0,0,0,0,-1,552,631,0,0
-665,393,0,0,0,0,0,0,0,0,0,-1,559,631,0,0
-658,393,0,0,0,0,0,0,0,0,0,-1,566,631,0,0
-651,393,0,0,0,0,0,0,0,0,0,-1,573,631,0,0
-644,393,0,0,0,0,0,0,0,0,0,-1,580,631,0,0
-637,393,0,0,0,0,0,0,0,0,0,-1,587,631,0,0
-630,393,0,0,0,0,0,0,0,0,0,-1,594,631,0,0
-623,393,0,0,0,0,0,0,0,0,0,-1,601,631,0,0
-616,393,0,0,0,0,0,0,0,0,0,-1,608,631,0,0
-609,393,0,0,0,0,0,0,0,0,0,-1,615,631,0,0
-602,393,0,0,0,0,0,0,0,0,0,-1,622,631,0,0
-595,393,0,0,0,0,0,0,0,0,0,-1,629,631,0,0
-588,393,0,0,0,0,0,0,0,0,0,-1,636,631,0,0
-581,393,0,0,0,0,0,0,0,0,0,-1,643,631,0,0
-574,393,0,0,0,0,0,0,0,0,0,-1,650,631,0,0
-567,393,0,0,0,0,0,0,0,0,0,-1,657,631,0,0
-560,393,0,0,0,0,0,0,0,0,0,-1,664,631,0,0
-553,393,-2.35107,3.92633,0,0,0,0,0,0,0,-1,671,631,-2.35108,-3.92634
-546,393,-1.78778,2.4856,0,0,0,0,0,0,0,-1,678,631,-1.78778,-2.48557
-539,393,-5.2113,-2.20245,0,0,0,0,0,0,0,-1,685,631,-5.21128,2.20247
-532,393,-2.83643,-2.01624,0,0,0,0,0,0,0,-1,692,631,-2.83642,2.01626
-525,393,-5.9505,-0.952698,0,0,0,0,0,0,0,-1,699,631,-5.95053,0.95268
-518,393,-5.80219,-1.57739,0,0,0,0,0,0,0,-1,706,631,-5.80219,1.57738
-511,393,-6.15527,-2.09906,0,0,0,0,0,0,0,-1,713,631,-6.15526,2.09903
-504,393,-12.7614,-5.97021,0,0,0,0,0,0,0,-1,720,631,-12.7613,5.97019
-497,393,-12.3795,-7.03442,0.00115657,0.00585654,-0.00285937,0.00720769,-0.000194579,-1.12936,0.00487128,0.0454378,727,631,-12.3795,7.03442
-490,393,-12.3246,-8.04297,0.000909634,0.00454939,-0.00219281,0.00557914,-0.000120116,-1.13176,0.0037601,0.0209165,734,631,-12.3246,8.04299
-483,393,-12.314,-8.72186,0.000741825,0.00342847,-0.00167963,0.00423588,-6.55912e-05,-1.1227,0.00284604,0.020214,741,631,-12.314,8.72188
-476,393,-12.3421,-9.35809,0.000826892,0.00254077,-0.00134786,0.00328103,8.66269e-05,-1.06855,0.00215906,0.0168316,748,631,-12.3421,9.35808
-469,393,-12.3875,-10.0049,0.000994257,0.00175265,-0.00111241,0.00254872,0.000198186,-0.94966,0.00163709,0.0130109,755,631,-12.3875,10.0049
-462,393,-12.4124,-10.7039,0.00115819,0.00106475,-0.000930244,0.00204289,0.000180053,-0.760306,0.00130605,0.0154125,762,631,-12.4123,10.7038
-455,393,-12.4404,-11.3731,0.00134332,0.000339994,-0.000784467,0.00177281,-8.95016e-05,-0.500922,0.00121281,0.0144581,769,631,-12.4404,11.3731
-448,393,-12.475,-12.011,0.00159464,-0.000234677,-0.00069198,0.00182691,-0.000466942,-0.323838,0.00139979,0.0145598,776,631,-12.475,12.0111
-441,393,-12.5041,-12.6276,0.00178829,-0.000841593,-0.000578066,0.00190974,-0.000963047,-0.207092,0.00168836,0.0140348,783,631,-12.5041,12.6276
-434,393,-12.5156,-13.2187,0.00190866,-0.00144001,-0.000447451,0.00196742,-0.00149877,-0.130569,0.00200729,0.0132913,790,631,-12.5156,13.2187
-427,393,-12.4614,-13.8481,0.00180973,-0.0022109,-0.000173169,0.00181718,-0.00221834,-0.042964,0.00233374,0.0219722,797,631,-12.4614,13.8481
-420,393,-12.5126,-14.4926,0.00134809,-0.00328905,0.000419673,0.00138577,-0.00332673,0.089533,0.00279663,0.0476851,804,631,-12.5126,14.4926
-413,393,-12.7309,-15.1335,0,0,0,0,0,0,0,-1,811,631,-12.7309,15.1335
-406,393,-11.826,-12.7987,0,0,0,0,0,0,0,-1,818,631,-11.8261,12.7987
-399,393,-5.07343,-5.92365,0,0,0,0,0,0,0,-1,825,631,-5.07344,5.92364
-392,393,-2.08063,-3.02386,0,0,0,0,0,0,0,-1,832,631,-2.08063,3.02384
-385,393,-3.16931,-0.624756,0,0,0,0,0,0,0,-1,839,631,-3.16928,0.624764
-378,393,-7.33081,-0.872314,0,0,0,0,0,0,0,-1,846,631,-7.33081,0.872325
-371,393,-7.47858,-0.811096,0,0,0,0,0,0,0,-1,853,631,-7.47859,0.811075
-364,393,-7.64917,-0.662415,0,0,0,0,0,0,0,-1,860,631,-7.64917,0.662406
-357,393,-8.09686,-0.726013,0,0,0,0,0,0,0,-1,867,631,-8.09689,0.726029
-350,393,-8.38788,-0.511841,0,0,0,0,0,0,0,-1,874,631,-8.38785,0.511811
-343,393,0,0,0,0,0,0,0,0,0,-1,881,631,0,0
-336,393,0,0,0,0,0,0,0,0,0,-1,888,631,0,0
-329,393,0,0,0,0,0,0,0,0,0,-1,895,631,0,0
-322,393,0,0,0,0,0,0,0,0,0,-1,902,631,0,0
-315,393,0,0,0,0,0,0,0,0,0,-1,909,631,0,0
-308,393,0,0,0,0,0,0,0,0,0,-1,916,631,0,0
-301,393,0,0,0,0,0,0,0,0,0,-1,923,631,0,0
-294,393,0,0,0,0,0,0,0,0,0,-1,930,631,0,0
-287,393,0,0,0,0,0,0,0,0,0,-1,937,631,0,0
-280,393,0,0,0,0,0,0,0,0,0,-1,944,631,0,0
-273,393,0,0,0,0,0,0,0,0,0,-1,951,631,0,0
-266,393,0,0,0,0,0,0,0,0,0,-1,958,631,0,0
-259,393,0,0,0,0,0,0,0,0,0,-1,965,631,0,0
-252,393,0,0,0,0,0,0,0,0,0,-1,972,631,0,0
-245,393,0,0,0,0,0,0,0,0,0,-1,979,631,0,0
-238,393,0,0,0,0,0,0,0,0,0,-1,986,631,0,0
-231,393,0,0,0,0,0,0,0,0,0,-1,993,631,0,0
-224,393,0,0,0,0,0,0,0,0,0,-1,1000,631,0,0
-217,393,0,0,0,0,0,0,0,0,0,-1,1007,631,0,0
-210,393,0,0,0,0,0,0,0,0,0,-1,1014,631,0,0
-203,393,0,0,0,0,0,0,0,0,0,-1,1021,631,0,0
-196,393,0,0,0,0,0,0,0,0,0,-1,1028,631,0,0
-189,393,0,0,0,0,0,0,0,0,0,-1,1035,631,0,0
-182,393,0,0,0,0,0,0,0,0,0,-1,1042,631,0,0
-175,393,0,0,0,0,0,0,0,0,0,-1,1049,631,0,0
-168,393,0,0,0,0,0,0,0,0,0,-1,1056,631,0,0
-161,393,0,0,0,0,0,0,0,0,0,-1,1063,631,0,0
-154,393,0,0,0,0,0,0,0,0,0,-1,1070,631,0,0
-147,393,0,0,0,0,0,0,0,0,0,-1,1077,631,0,0
-140,393,0,0,0,0,0,0,0,0,0,-1,1084,631,0,0
-133,393,0,0,0,0,0,0,0,0,0,-1,1091,631,0,0
-126,393,0,0,0,0,0,0,0,0,0,-1,1098,631,0,0
-119,393,0,0,0,0,0,0,0,0,0,-1,1105,631,0,0
-112,393,0,0,0,0,0,0,0,0,0,-1,1112,631,0,0
-105,393,0,0,0,0,0,0,0,0,0,-1,1119,631,0,0
-98,393,0,0,0,0,0,0,0,0,0,-1,1126,631,0,0
-91,393,0,0,0,0,0,0,0,0,0,-1,1133,631,0,0
-84,393,0,0,0,0,0,0,0,0,0,-1,1140,631,0,0
-77,393,0,0,0,0,0,0,0,0,0,-1,1147,631,0,0
-70,393,0,0,0,0,0,0,0,0,0,-1,1154,631,0,0
-63,393,0,0,0,0,0,0,0,0,0,-1,1161,631,0,0
-56,393,0,0,0,0,0,0,0,0,0,-1,1168,631,0,0
-49,393,0,0,0,0,0,0,0,0,0,-1,1175,631,0,0
-42,393,0,0,0,0,0,0,0,0,0,-1,1182,631,0,0
-35,393,0,0,0,0,0,0,0,0,0,-1,1189,631,0,0
-28,393,0,0,0,0,0,0,0,0,0,-1,1196,631,0,0
-21,393,0,0,0,0,0,0,0,0,0,-1,1203,631,0,0
-14,393,0,0,0,0,0,0,0,0,0,-1,1210,631,0,0
-7,393,0,0,0,0,0,0,0,0,0,-1,1217,631,0,0
0,393,0,0,0,0,0,0,0,0,0,-1,1224,631,0,0
7,393,0,0,0,0,0,0,0,0,0,-1,1231,631,0,0
14,393,0,0,0,0,0,0,0,0,0,-1,1238,631,0,0
21,393,0,0,0,0,0,0,0,0,0,-1,1245,631,0,0
28,393,0,0,0,0,0,0,0,0,0,-1,1252,631,0,0
35,393,0,0,0,0,0,0,0,0,0,-1,1259,631,0,0
42,393,0,0,0,0,0,0,0,0,0,-1,1266,631,0,0
49,393,0,0,0,0,0,0,0,0,0,-1,1273,631,0,0
56,393,0,0,0,0,0,0,0,0,0,-1,1280,631,0,0
63,393,0,0,0,0,0,0,0,0,0,-1,1287,631,0,0
70,393,0,0,0,0,0,0,0,0,0,-1,1294,631,0,0
77,393,0,0,0,0,0,0,0,0,0,-1,1301,631,0,0
84,393,0,0,0,0,0,0,0,0,0,-1,1308,631,0,0
91,393,0,0,0,0,0,0,0,0,0,-1,1315,631,0,0
98,393,0,0,0,0,0,0,0,0,0,-1,1322,631,0,0
105,393,0,0,0,0,0,0,0,0,0,-1,1329,631,0,0
112,393,0,0,0,0,0,0,0,0,0,-1,1336,631,0,0
119,393,0,0,0,0,0,0,0,0,0,-1,1343,631,0,0
126,393,0,0,0,0,0,0,0,0,0,-1,1350,631,0,0
133,393,0,0,0,0,0,0,0,0,0,-1,1357,631,0,0
140,393,0,0,0,0,0,0,0,0,0,-1,1364,631,0,0
147,393,0,0,0,0,0,0,0,0,0,-1,1371,631,0,0
154,393,0,0,0,0,0,0,0,0,0,-1,1378,631,0,0
161,393,0,0,0,0,0,0,0,0,0,-1,1385,631,0,0
168,393,0,0,0,0,0,0,0,0,0,-1,1392,631,0,0
175,393,0,0,0,0,0,0,0,0,0,-1,1399,631,0,0
182,393,0,0,0,0,0,0,0,0,0,-1,1406,631,0,0
189,393,0,0,0,0,0,0,0,0,0,-1,1413,631,0,0
196,393,0,0,0,0,0,0,0,0,0,-1,1420,631,0,0
203,393,0,0,0,0,0,0,0,0,0,-1,1427,631,0,0
210,393,0,0,0,0,0,0,0,0,0,-1,1434,631,0,0
217,393,0,0,0,0,0,0,0,0,0,-1,1441,631,0,0
224,393,0,0,0,0,0,0,0,0,0,-1,1448,631,0,0
231,393,0,0,0,0,0,0,0,0,0,-1,1455,631,0,0
238,393,0,0,0,0,0,0,0,0,0,-1,1462,631,0,0
245,393,0,0,0,0,0,0,0,0,0,-1,1469,631,0,0
252,393,0,0,0,0,0,0,0,0,0,-1,1476,631,0,0
259,393,0,0,0,0,0,0,0,0,0,-1,1483,631,0,0
266,393,0,0,0,0,0,0,0,0,0,-1,1490,631,0,0
273,393,0,0,0,0,0,0,0,0,0,-1,1497,631,0,0
280,393,0,0,0,0,0,0,0,0,0,-1,1504,631,0,0
287,393,0,0,0,0,0,0,0,0,0,-1,1511,631,0,0
294,393,0,0,0,0,0,0,0,0,0,-1,1518,631,0,0
301,393,0,0,0,0,0,0,0,0,0,-1,1525,631,0,0
308,393,0,0,0,0,0,0,0,0,0,-1,1532,631,0,0
315,393,0,0,0,0,0,0,0,0,0,-1,1539,631,0,0
322,393,0,0,0,0,0,0,0,0,0,-1,1546,631,0,0
329,393,0,0,0,0,0,0,0,0,0,-1,1553,631,0,0
336,393,0,0,0,0,0,0,0,0,0,-1,1560,631,0,0
343,393,0,0,0,0,0,0,0,0,0,-1,1567,631,0,0
350,393,0,0,0,0,0,0,0,0,0,-1,1574,631,0,0
357,393,0,0,0,0,0,0,0,0,0,-1,1581,631,0,0
364,393,0,0,0,0,0,0,0,0,0,-1,1588,631,0,0
371,393,0,0,0,0,0,0,0,0,0,-1,1595,631,0,0
378,393,0,0,0,0,0,0,0,0,0,-1,1602,631,0,0
385,393,0,0,0,0,0,0,0,0,0,-1,1609,631,0,0
392,393,0,0,0,0,0,0,0,0,0,-1,1616,631,0,0
399,393,0,0,0,0,0,0,0,0,0,-1,1623,631,0,0
406,393,0,0,0,0,0,0,0,0,0,-1,1630,631,0,0
413,393,0,0,0,0,0,0,0,0,0,-1,1637,631,0,0
420,393,0,0,0,0,0,0,0,0,0,-1,1644,631,0,0
427,393,0,0,0,0,0,0,0,0,0,-1,1651,631,0,0
434,393,0,0,0,0,0,0,0,0,0,-1,1658,631,0,0
441,393,0,0,0,0,0,0,0,0,0,-1,1665,631,0,0
448,393,0,0,0,0,0,0,0,0,0,-1,1672,631,0,0
455,393,0,0,0,0,0,0,0,0,0,-1,1679,631,0,0
462,393,8.51099,1.89502,0,0,0,0,0,0,0,-1,1686,631,8.51103,-1.89504
469,393,9.39465,1.51703,0,0,0,0,0,0,0,-1,1693,631,9.39465,-1.51703
476,393,9.95569,1.185,0,0,0,0,0,0,0,-1,1700,631,9.95575,-1.18497
483,393,10.5267,0.887329,0,0,0,0,0,0,0,-1,1707,631,10.5267,-0.887321
490,393,10.9303,0.761414,0,0,0,0,0,0,0,-1,1714,631,10.9303,-0.761386
497,393,8.32153,1.88104,0,0,0,0,0,0,0,-1,1721,631,8.32148,-1.88103
504,393,9.46985,1.78711,0,0,0,0,0,0,0,-1,1728,631,9.46986,-1.78713
511,393,9.66565,-0.375977,0,0,0,0,0,0,0,-1,1735,631,9.66571,0.375949
518,393,7.01599,1.62482,0,0,0,0,0,0,0,-1,1742,631,7.01597,-1.62483
525,393,7.88245,-1.13422,0,0,0,0,0,0,0,-1,1749,631,7.88246,1.13423
532,393,7.06335,-1.18103,0,0,0,0,0,0,0,-1,1756,631,7.06332,1.18101
539,393,9.91626,-2.46301,0,0,0,0,0,0,0,-1,1763,631,9.91625,2.46302
546,393,16.4094,-8.04651,0,0,0,0,0,0,0,-1,1770,631,16.4094,8.04649
553,393,23.6772,-12.6805,0,0,0,0,0,0,0,-1,1777,631,23.6773,12.6806
560,393,23.8344,-11.9601,0.00396243,0.00199306,0.00148233,0.00475733,0.00119816,0.492224,0.00285717,0.0428054,1784,631,23.8343,11.9602
567,393,23.8389,-11.2459,0.00292059,0.00152501,0.001055,0.00348769,0.000957915,0.493221,0.00208067,0.0157162,1791,631,23.8389,11.2459
574,393,23.8265,-10.5806,0.00219045,0.00137823,0.0009133,0.00278386,0.000784817,0.576194,0.00165744,0.0147935,1798,631,23.8266,10.5805
581,393,23.7582,-9.89258,0.00171277,0.00146786,0.000949873,0.00254805,0.000632584,0.721294,0.00153201,0.0163519,1805,631,23.7582,9.8926
588,393,23.723,-9.19727,0.00148927,0.00172759,0.0011305,0.00274519,0.000471666,0.837907,0.00169493,0.018883,1812,631,23.723,9.1973
595,393,23.7385,-8.55066,0.00161815,0.00218462,0.00150277,0.00343061,0.000372156,0.878543,0.00217367,0.0156651,1819,631,23.7385,8.55065
602,393,23.7252,-7.87445,0.00209906,0.00282732,0.00208692,0.00458163,0.000344741,0.87177,0.00294624,0.0165446,1826,631,23.7252,7.87446
609,393,23.6646,-7.19153,0.00272665,0.00366499,0.00278209,0.00601719,0.000374445,0.868932,0.00389265,0.0154545,1833,631,23.6645,7.19151
616,393,23.6055,-6.50165,0.00339455,0.00455673,0.00344399,0.00746831,0.000482969,0.868974,0.00482595,0.0157838,1840,631,23.6054,6.50168
623,393,23.6174,-5.69653,0.00450693,0.00568655,0.00441709,0.00955303,0.00064045,0.85177,0.0061663,0.0338317,1847,631,23.6175,5.69652
630,393,23.6909,-4.80475,0,0,0,0,0,0,0,-1,1854,631,23.6909,4.80477
637,393,11.4626,0.608887,0,0,0,0,0,0,0,-1,1861,631,11.4627,-0.608904
644,393,8.97583,1.30585,0,0,0,0,0,0,0,-1,1868,631,8.97586,-1.30584
651,393,11.348,0.53302,0,0,0,0,0,0,0,-1,1875,631,11.348,-0.53305
658,393,9.21338,1.50836,0,0,0,0,0,0,0,-1,1882,631,9.21338,-1.50834
665,393,6.1001,2.32129,0,0,0,0,0,0,0,-1,1889,631,6.10012,-2.3213
672,393,7.14575,2.43225,0,0,0,0,0,0,0,-1,1896,631,7.14572,-2.43222
679,393,0,0,0,0,0,0,0,0,0,-1,1903,631,0,0
686,393,0,0,0,0,0,0,0,0,0,-1,1910,631,0,0
693,393,0,0,0,0,0,0,0,0,0,-1,1917,631,0,0
700,393,0,0,0,0,0,0,0,0,0,-1,1924,631,0,0
707,393,0,0,0,0,0,0,0,0,0,-1,1931,631,0,0
714,393,0,0,0,0,0,0,0,0,0,-1,1938,631,0,0
721,393,0,0,0,0,0,0,0,0,0,-1,1945,631,0,0
728,393,0,0,0,0,0,0,0,0,0,-1,1952,631,0,0
735,393,0,0,0,0,0,0,0,0,0,-1,1959,631,0,0
742,393,0,0,0,0,0,0,0,0,0,-1,1966,631,0,0
749,393,0,0,0,0,0,0,0,0,0,-1,1973,631,0,0
756,393,0,0,0,0,0,0,0,0,0,-1,1980,631,0,0
763,393,0,0,0,0,0,0,0,0,0,-1,1987,631,0,0
770,393,0,0,0,0,0,0,0,0,0,-1,1994,631,0,0
777,393,0,0,0,0,0,0,0,0,0,-1,2001,631,0,0
784,393,0,0,0,0,0,0,0,0,0,-1,2008,631,0,0
791,393,0,0,0,0,0,0,0,0,0,-1,2015,631,0,0
798,393,0,0,0,0,0,0,0,0,0,-1,2022,631,0,0
805,393,0,0,0,0,0,0,0,0,0,-1,2029,631,0,0
812,393,0,0,0,0,0,0,0,0,0,-1,2036,631,0,0
-700,386,0,0,0,0,0,0,0,0,0,-1,524,638,0,0
-693,386,0,0,0,0,0,0,0,0,0,-1,531,638,0,0
-686,386,0,0,0,0,0,0,0,0,0,-1,538,638,0,0
-679,386,0,0,0,0,0,0,0,0,0,-1,545,638,0,0
-672,386,0,0,0,0,0,0,0,0,0,-1,552,638,0,0
-665,386,0,0,0,0,0,0,0,0,0,-1,559,638,0,0
-658,386,0,0,0,0,0,0,0,0,0,-1,566,638,0,0
-651,386,0,0,0,0,0,0,0,0,0,-1,573,638,0,0
-644,386,0,0,0,0,0,0,0,0,0,-1,580,638,0,0
-637,386,0,0,0,0,0,0,0,0,0,-1,587,638,0,0
-630,386,0,0,0,0,0,0,0,0,0,-1,594,638,0,0
-623,386,0,0,0,0,0,0,0,0,0,-1,601,638,0,0
-616,386,0,0,0,0,0,0,0,0,0,-1,608,638,0,0
-609,386,0,0,0,0,0,0,0,0,0,-1,615,638,0,0
-602,386,0,0,0,0,0,0,0,0,0,-1,622,638,0,0
-595,386,0,0,0,0,0,0,0,0,0,-1,629,638,0,0
-588,386,0,0,0,0,0,0,0,0,0,-1,636,638,0,0
-581,386,0,0,0,0,0,0,0,0,0,-1,643,638,0,0
-574,386,0,0,0,0,0,0,0,0,0,-1,650,638,0,0
-567,386,0,0,0,0,0,0,0,0,0,-1,657,638,0,0
-560,386,-3.97229,-5.13898,0,0,0,0,0,0,0,-1,664,638,-3.97232,5.13897
-553,386,-4.94244,-5.54309,0,0,0,0,0,0,0,-1,671,638,-4.94242,5.5431
-546,386,-1.78668,1.72827,0,0,0,0,0,0,0,-1,678,638,-1.78668,-1.72829
-539,386,-0.879456,-2.90009,0,0,0,0,0,0,0,-1,685,638,-0.879442,2.90008
-532,386,-5.4884,1.73328,0,0,0,0,0,0,0,-1,692,638,-5.4884,-1.73325
-525,386,-6.64148,-1.50604,0,0,0,0,0,0,0,-1,699,638,-6.64149,1.50603
-518,386,-9.71906,-3.39722,0,0,0,0,0,0,0,-1,706,638,-9.71906,3.3972
-511,386,-12.2236,-4.81763,0,0,0,0,0,0,0,-1,713,638,-12.2236,4.81763
-504,386,-13.0752,-6.24585,0,0,0,0,0,0,0,-1,720,638,-13.0752,6.24583
-497,386,-13.0007,-7.32172,0.00111443,0.00457717,-0.00234825,0.00576333,-7.17179e-05,-1.10306,0.00386635,0.0215238,727,638,-13.0007,7.32175
-490,386,-12.9537,-8.086,0.00100375,0.00358835,-0.00186727,0.00456689,2.52042e-05,-1.08809,0.00303623,0.0130844,734,638,-12.9536,8.08601
-483,386,-12.9575,-8.75592,0.000943438,0.00272011,-0.00148963,0.00356617,9.73735e-05,-1.05426,0.00234566,0.01762,741,638,-12.9574,8.75591
-476,386,-12.9753,-9.39215,0.00111821,0.00201099,-0.00127395,0.00291449,0.000214707,-0.953914,0.00187553,0.0162257,748,638,-12.9754,9.39216
-469,386,-13.0325,-10.0002,0.0013143,0.00135494,-0.00110194,0.00243674,0.000232495,-0.794617,0.00155281,0.0119506,755,638,-13.0325,10.0002
-462,386,-13.061,-10.6766,0.00150185,0.000781017,-0.000973308,0.00217933,0.000103537,-0.608076,0.00141963,0.0115796,762,638,-13.061,10.6766
-455,386,-13.0906,-11.3373,0.0017523,0.000128463,-0.00088544,0.00214172,-0.000260958,-0.414343,0.00152227,0.0129485,769,638,-13.0906,11.3373
-448,386,-13.1226,-11.9686,0.0020916,-0.000384833,-0.000856618,0.00235903,-0.000652264,-0.302606,0.00182929,0.0130708,776,638,-13.1226,11.9686
-441,386,-13.1601,-12.5903,0.00243641,-0.00082796,-0.00088395,0.0026604,-0.00105195,-0.248176,0.00220937,0.013866,783,638,-13.1601,12.5902
-434,386,-13.1206,-13.262,0.00270516,-0.00138887,-0.000864579,0.00288026,-0.00156396,-0.199817,0.00260311,0.0346807,790,638,-13.1206,13.262
-427,386,-12.9783,-13.8298,0,0,0,0,0,0,0,-1,797,638,-12.9783,13.8298
-420,386,-13.1254,-14.4575,0,0,0,0,0,0,0,-1,804,638,-13.1254,14.4574
-413,386,-5.45691,-5.35785,0,0,0,0,0,0,0,-1,811,638,-5.45691,5.35783
-406,386,-4.51135,-4.10999,0,0,0,0,0,0,0,-1,818,638,-4.51135,4.10996
-399,386,-3.57117,-3.42126,0,0,0,0,0,0,0,-1,825,638,-3.57116,3.42129
-392,386,-4.00977,0.403625,0,0,0,0,0,0,0,-1,832,638,-4.0098,-0.403616
-385,386,-3.2406,-0.118469,0,0,0,0,0,0,0,-1,839,638,-3.24058,0.118485
-378,386,-2.55243,-1.22748,0,0,0,0,0,0,0,-1,846,638,-2.55243,1.22748
-371,386,-7.95807,-0.330261,0,0,0,0,0,0,0,-1,853,638,-7.95806,0.330284
-364,386,-8.90637,-0.665955,0,0,0,0,0,0,0,-1,860,638,-8.90635,0.665951
-357,386,-9.10364,-0.388733,0,0,0,0,0,0,0,-1,867,638,-9.10364,0.388744
-350,386,0,0,0,0,0,0,0,0,0,-1,874,638,0,0
-343,386,0,0,0,0,0,0,0,0,0,-1,881,638,0,0
-336,386,0,0,0,0,0,0,0,0,0,-1,888,638,0,0
-329,386,0,0,0,0,0,0,0,0,0,-1,895,638,0,0
-322,386,0,0,0,0,0,0,0,0,0,-1,902,638,0,0
-315,386,0,0,0,0,0,0,0,0,0,-1,909,638,0,0
-308,386,0,0,0,0,0,0,0,0,0,-1,916,638,0,0
-301,386,0,0,0,0,0,0,0,0,0,-1,923,638,0,0
-294,386,0,0,0,0,0,0,0,0,0,-1,930,638,0,0
-287,386,0,0,0,0,0,0,0,0,0,-1,937,638,0,0
-280,386,0,0,0,0,0,0,0,0,0,-1,944,638,0,0
-273,386,0,0,0,0,0,0,0,0,0,-1,951,638,0,0
-266,386,0,0,0,0,0,0,0,0,0,-1,958,638,0,0
-259,386,0,0,0,0,0,0,0,0,0,-1,965,638,0,0
-252,386,0,0,0,0,0,0,0,0,0,-1,972,638,0,0
-245,386,0,0,0,0,0,0,0,0,0,-1,979,638,0,0
-238,386,0,0,0,0,0,0,0,0,0,-1,986,638,0,0
-231,386,0,0,0,0,0,0,0,0,0,-1,993,638,0,0
-224,386,0,0,0,0,0,0,0,0,0,-1,1000,638,0,0
-217,386,0,0,0,0,0,0,0,0,0,-1,1007,638,0,0
-210,386,0,0,0,0,0,0,0,0,0,-1,1014,638,0,0
-203,386,0,0,0,0,0,0,0,0,0,-1,1021,638,0,0
-196,386,0,0,0,0,0,0,0,0,0,-1,1028,638,0,0
-189,386,0,0,0,0,0,0,0,0,0,-1,1035,638,0,0
-182,386,0,0,0,0,0,0,0,0,0,-1,1042,638,0,0
-175,386,0,0,0,0,0,0,0,0,0,-1,1049,638,0,0
-168,386,0,0,0,0,0,0,0,0,0,-1,1056,638,0,0
-161,386,0,0,0,0,0,0,0,0,0,-1,1063,638,0,0
-154,386,0,0,0,0,0,0,0,0,0,-1,1070,638,0,0
-147,386,0,0,0,0,0,0,0,0,0,-1,1077,638,0,0
-140,386,0,0,0,0,0,0,0,0,0,-1,1084,638,0,0
-133,386,0,0,0,0,0,0,0,0,0,-1,1091,638,0,0
-126,386,0,0,0,0,0,0,0,0,0,-1,1098,638,0,0
-119,386,0,0,0,0,0,0,0,0,0,-1,1105,638,0,0
-112,386,0,0,0,0,0,0,0,0,0,-1,1112,638,0,0
-105,386,0,0,0,0,0,0,0,0,0,-1,1119,638,0,0
-98,386,0,0,0,0,0,0,0,0,0,-1,1126,638,0,0
-91,386,0,0,0,0,0,0,0,0,0,-1,1133,638,0,0
-84,386,0,0,0,0,0,0,0,0,0,-1,1140,638,0,0
-77,386,0,0,0,0,0,0,0,0,0,-1,1147,638,0,0
-70,386,0,0,0,0,0,0,0,0,0,-1,1154,638,0,0
-63,386,0,0,0,0,0,0,0,0,0,-1,1161,638,0,0
-56,386,0,0,0,0,0,0,0,0,0,-1,1168,638,0,0
-49,386,0,0,0,0,0,0,0,0,0,-1,1175,638,0,0
-42,386,0,0,0,0,0,0,0,0,0,-1,1182,638,0,0
-35,386,0,0,0,0,0,0,0,0,0,-1,1189,638,0,0
-28,386,0,0,0,0,0,0,0,0,0,-1,1196,638,0,0
-21,386,0,0,0,0,0,0,0,0,0,-1,1203,638,0,0
-14,386,0,0,0,0,0,0,0,0,0,-1,1210,638,0,0
-7,386,0,0,0,0,0,0,0,0,0,-1,1217,638,0,0
0,386,0,0,0,0,0,0,0,0,0,-1,1224,638,0,0
7,386,0,0,0,0,0,0,0,0,0,-1,1231,638,0,0
14,386,0,0,0,0,0,0,0,0,0,-1,1238,638,0,0
21,386,0,0,0,0,0,0,0,0,0,-1,1245,638,0,0
28,386,0,0,0,0,0,0,0,0,0,-1,1252,638,0,0
35,386,0,0,0,0,0,0,0,0,0,-1,1259,638,0,0
42,386,0,0,0,0,0,0,0,0,0,-1,1266,638,0,0
49,386,0,0,0,0,0,0,0,0,0,-1,1273,638,0,0
56,386,0,0,0,0,0,0,0,0,0,-1,1280,638,0,0
63,386,0,0,0,0,0,0,0,0,0,-1,1287,638,0,0
70,386,0,0,0,0,0,0,0,0,0,-1,1294,638,0,0
77,386,0,0,0,0,0,0,0,0,0,-1,1301,638,0,0
84,386,0,0,0,0,0,0,0,0,0,-1,1308,638,0,0
91,386,0,0,0,0,0,0,0,0,0,-1,1315,638,0,0
98,386,0,0,0,0,0,0,0,0,0,-1,1322,638,0,0
105,386,0,0,0,0,0,0,0,0,0,-1,1329,638,0,0
112,386,0,0,0,0,0,0,0,0,0,-1,1336,638,0,0
119,386,0,0,0,0,0,0,0,0,0,-1,1343,638,0,0
126,386,0,0,0,0,0,0,0,0,0,-1,1350,638,0,0
133,386,0,0,0,0,0,0,0,0,0,-1,1357,638,0,0
140,386,0,0,0,0,0,0,0,0,0,-1,1364,638,0,0
147,386,0,0,0,0,0,0,0,0,0,-1,1371,638,0,0
154,386,0,0,0,0,0,0,0,0,0,-1,1378,638,0,0
161,386,0,0,0,0,0,0,0,0,0,-1,1385,638,0,0
168,386,0,0,0,0,0,0,0,0,0,-1,1392,638,0,0
175,386,0,0,0,0,0,0,0,0,0,-1,1399,638,0,0
182,386,0,0,0,0,0,0,0,0,0,-1,1406,638,0,0
189,386,0,0,0,0,0,0,0,0,0,-1,1413,638,0,0
196,386,0,0,0,0,0,0,0,0,0,-1,1420,638,0,0
203,386,0,0,0,0,0,0,0,0,0,-1,1427,638,0,0
210,386,0,0,0,0,0,0,0,0,0,-1,1434,638,0,0
217,386,0,0,0,0,0,0,0,0,0,-1,1441,638,0,0
224,386,0,0,0,0,0,0,0,0,0,-1,1448,638,0,0
231,386,0,0,0,0,0,0,0,0,0,-1,1455,638,0,0
238,386,0,0,0,0,0,0,0,0,0,-1,1462,638,0,0
245,386,0,0,0,0,0,0,0,0,0,-1,1469,638,0,0
252,386,0,0,0,0,0,0,0,0,0,-1,1476,638,0,0
259,386,0,0,0,0,0,0,0,0,0,-1,1483,638,0,0
266,386,0,0,0,0,0,0,0,0,0,-1,1490,638,0,0
273,386,0,0,0,0,0,0,0,0,0,-1,1497,638,0,0
280,386,0,0,0,0,0,0,0,0,0,-1,1504,638,0,0
287,386,0,0,0,0,0,0,0,0,0,-1,1511,638,0,0
294,386,0,0,0,0,0,0,0,0,0,-1,1518,638,0,0
301,386,0,0,0,0,0,0,0,0,0,-1,1525,638,0,0
308,386,0,0,0,0,0,0,0,0,0,-1,1532,638,0,0
315,386,0,0,0,0,0,0,0,0,0,-1,1539,638,0,0
322,386,0,0,0,0,0,0,0,0,0,-1,1546,638,0,0
329,386,0,0,0,0,0,0,0,0,0,-1,1553,638,0,0
336,386,0,0,0,0,0,0,0,0,0,-1,1560,638,0,0
343,386,0,0,0,0,0,0,0,0,0,-1,1567,638,0,0
350,386,0,0,0,0,0,0,0,0,0,-1,1574,638,0,0
357,386,0,0,0,0,0,0,0,0,0,-1,1581,638,0,0
364,386,0,0,0,0,0,0,0,0,0,-1,1588,638,0,0
371,386,0,0,0,0,0,0,0,0,0,-1,1595,638,0,0
378,386,0,0,0,0,0,0,0,0,0,-1,1602,638,0,0
385,386,0,0,0,0,0,0,0,0,0,-1,1609,638,0,0
392,386,0,0,0,0,0,0,0,0,0,-1,1616,638,0,0
399,386,0,0,0,0,0,0,0,0,0,-1,1623,638,0,0
406,386,0,0,0,0,0,0,0,0,0,-1,1630,638,0,0
413,386,0,0,0,0,0,0,0,0,0,-1,1637,638,0,0
420,386,0,0,0,0,0,0,0,0,0,-1,1644,638,0,0
427,386,0,0,0,0,0,0,0,0,0,-1,1651,638,0,0
434,386,0,0,0,0,0,0,0,0,0,-1,1658,638,0,0
441,386,0,0,0,0,0,0,0,0,0,-1,1665,638,0,0
448,386,0,0,0,0,0,0,0,0,0,-1,1672,638,0,0
455,386,0,0,0,0,0,0,0,0,0,-1,1679,638,0,0
462,386,0,0,0,0,0,0,0,0,0,-1,1686,638,0,0
469,386,9.84692,1.55804,0,0,0,0,0,0,0,-1,1693,638,9.84691,-1.55807
476,386,10.6145,0.986511,0,0,0,0,0,0,0,-1,1700,638,10.6145,-0.986529
483,386,11.4113,0.732971,0,0,0,0,0,0,0,-1,1707,638,11.4112,-0.732958
490,386,7.79785,1.79572,0,0,0,0,0,0,0,-1,1714,638,7.79788,-1.7957
497,386,8.96362,1.77081,0,0,0,0,0,0,0,-1,1721,638,8.96357,-1.77081
504,386,10.0555,1.69427,0,0,0,0,0,0,0,-1,1728,638,10.0555,-1.69426
511,386,11.2172,1.534,0,0,0,0,0,0,0,-1,1735,638,11.2172,-1.53398
518,386,7.41553,1.75238,0,0,0,0,0,0,0,-1,1742,638,7.41547,-1.75238
525,386,8.82422,-1.1449,0,0,0,0,0,0,0,-1,1749,638,8.82426,1.14492
532,386,10.6432,0.617371,0,0,0,0,0,0,0,-1,1756,638,10.6432,-0.617359
539,386,9.62061,-0.393616,0,0,0,0,0,0,0,-1,1763,638,9.62059,0.393634
546,386,10.7963,-2.854,0,0,0,0,0,0,0,-1,1770,638,10.7962,2.854
553,386,16.9939,-7.27942,0,0,0,0,0,0,0,-1,1777,638,16.9939,7.27944
560,386,24.4095,-12.1098,0,0,0,0,0,0,0,-1,1784,638,24.4096,12.1098
567,386,24.3904,-11.2527,0.00324071,0.00165747,0.00113546,0.00383326,0.00106491,0.480984,0.00228482,0.0429387,1791,638,24.3904,11.2527
574,386,24.4811,-10.5156,0.00231056,0.0013548,0.000864424,0.0028204,0.000844958,0.532893,0.00167139,0.014071,1798,638,24.481,10.5156
581,386,24.4274,-9.88019,0.00165083,0.00134977,0.000780535,0.00229522,0.000705381,0.690142,0.00135754,0.014299,1805,638,24.4274,9.88016
588,386,24.4264,-9.21478,0.00131669,0.00149645,0.000865025,0.00227625,0.000536889,0.837164,0.00137396,0.0129264,1812,638,24.4264,9.21478
595,386,24.4089,-8.54272,0.00137367,0.0018531,0.00114654,0.00278471,0.000442058,0.888454,0.00172807,0.0141558,1819,638,24.4089,8.54271
602,386,24.3661,-7.86548,0.00179216,0.00237931,0.00164121,0.00375299,0.000418476,0.873901,0.00237482,0.0156242,1826,638,24.3661,7.86547
609,386,24.3385,-7.19489,0.00232124,0.00307259,0.00221461,0.00494316,0.000450668,0.869415,0.00315596,0.0146859,1833,638,24.3385,7.19491
616,386,24.3011,-6.4964,0.0028263,0.00375274,0.00269338,0.00602244,0.000556596,0.870557,0.00384289,0.0123301,1840,638,24.3012,6.49643
623,386,24.2555,-5.80237,0.00369154,0.00459751,0.00340117,0.00757573,0.000713317,0.851601,0.0048303,0.0106453,1847,638,24.2555,5.80236
630,386,24.3894,-5.09924,0.00451877,0.00532315,0.00396461,0.00890591,0.000936003,0.835948,0.00565117,0.0382657,1854,638,24.3894,5.09926
637,386,24.6111,-4.37561,0,0,0,0,0,0,0,-1,1861,638,24.6111,4.37563
644,386,11.6521,0.723328,0,0,0,0,0,0,0,-1,1868,638,11.6521,-0.723355
651,386,9.3866,1.31097,0,0,0,0,0,0,0,-1,1875,638,9.3866,-1.31095
658,386,12.0731,-0.00415039,0,0,0,0,0,0,0,-1,1882,638,12.0731,0.00412803
665,386,6.33167,1.78601,0,0,0,0,0,0,0,-1,1889,638,6.33171,-1.78601
672,386,7.23352,2.14435,0,0,0,0,0,0,0,-1,1896,638,7.23353,-2.14433
679,386,8.07764,2.57104,0,0,0,0,0,0,0,-1,1903,638,8.07758,-2.57103
686,386,0,0,0,0,0,0,0,0,0,-1,1910,638,0,0
693,386,0,0,0,0,0,0,0,0,0,-1,1917,638,0,0
700,386,0,0,0,0,0,0,0,0,0,-1,1924,638,0,0
707,386,0,0,0,0,0,0,0,0,0,-1,1931,638,0,0
714,386,0,0,0,0,0,0,0,0,0,-1,1938,638,0,0
721,386,0,0,0,0,0,0,0,0,0,-1,1945,638,0,0
728,386,0,0,0,0,0,0,0,0,0,-1,1952,638,0,0
735,386,0,0,0,0,0,0,0,0,0,-1,1959,638,0,0
742,386,0,0,0,0,0,0,0,0,0,-1,1966,638,0,0
749,386,0,0,0,0,0,0,0,0,0,-1,1973,638,0,0
756,386,0,0,0,0,0,0,0,0,0,-1,1980,638,0,0
763,386,0,0,0,0,0,0,0,0,0,-1,1987,638,0,0
770,386,0,0,0,0,0,0,0,0,0,-1,1994,638,0,0
777,386,0,0,0,0,0,0,0,0,0,-1,2001,638,0,0
784,386,0,0,0,0,0,0,0,0,0,-1,2008,638,0,0
791,386,0,0,0,0,0,0,0,0,0,-1,2015,638,0,0
798,386,0,0,0,0,0,0,0,0,0,-1,2022,638,0,0
805,386,0,0,0,0,0,0,0,0,0,-1,2029,638,0,0
812,386,0,0,0,0,0,0,0,0,0,-1,2036,638,0,0
-700,379,0,0,0,0,0,0,0,0,0,-1,524,645,0,0
-693,379,0,0,0,0,0,0,0,0,0,-1,531,645,0,0
-686,379,0,0,0,0,0,0,0,0,0,-1,538,645,0,0
-679,379,0,0,0,0,0,0,0,0,0,-1,545,645,0,0
-672,379,0,0,0,0,0,0,0,0,0,-1,552,645,0,0
-665,379,0,0,0,0,0,0,0,0,0,-1,559,645,0,0
-658,379,0,0,0,0,0,0,0,0,0,-1,566,645,0,0
-651,379,0,0,0,0,0,0,0,0,0,-1,573,645,0,0
-644,379,0,0,0,0,0,0,0,0,0,-1,580,645,0,0
-637,379,0,0,0,0,0,0,0,0,0,-1,587,645,0,0
-630,379,0,0,0,0,0,0,0,0,0,-1,594,645,0,0
-623,379,0,0,0,0,0,0,0,0,0,-1,601,645,0,0
-616,379,0,0,0,0,0,0,0,0,0,-1,608,645,0,0
-609,379,0,0,0,0,0,0,0,0,0,-1,615,645,0,0
-602,379,0,0,0,0,0,0,0,0,0,-1,622,645,0,0
-595,379,0,0,0,0,0,0,0,0,0,-1,629,645,0,0
-588,379,0,0,0,0,0,0,0,0,0,-1,636,645,0,0
-581,379,0,0,0,0,0,0,0,0,0,-1,643,645,0,0
-574,379,0,0,0,0,0,0,0,0,0,-1,650,645,0,0
-567,379,-8.78058,0.59668,0,0,0,0,0,0,0,-1,657,645,-8.7806,-0.596692
-560,379,-9.53485,-0.211304,0,0,0,0,0,0,0,-1,664,645,-9.53487,0.211282
-553,379,-5.17108,-4.53119,0,0,0,0,0,0,0,-1,671,645,-5.17106,4.53117
-546,379,-6.23053,-4.92102,0,0,0,0,0,0,0,-1,678,645,-6.23054,4.92105
-539,379,-0.71698,-2.19427,0,0,0,0,0,0,0,-1,685,645,-0.716959,2.19427
-532,379,-7.69611,0.217224,0,0,0,0,0,0,0,-1,692,645,-7.69614,-0.217204
-525,379,-7.09833,-1.13043,0,0,0,0,0,0,0,-1,699,645,-7.0983,1.13041
-518,379,-10.5613,-3.82849,0,0,0,0,0,0,0,-1,706,645,-10.5613,3.82849
-511,379,-13.5601,-6.03668,0,0,0,0,0,0,0,-1,713,645,-13.5601,6.03668
-504,379,-13.5219,-6.77094,0.00122028,0.00444677,-0.00234688,0.0056814,-1.43514e-05,-1.08651,0.00379239,0.029488,720,645,-13.5219,6.77093
-497,379,-13.5974,-7.38757,0.00117615,0.0035122,-0.00186464,0.00454444,0.000143904,-1.0652,0.00298282,0.0132651,727,645,-13.5974,7.38756
-490,379,-13.6071,-8.07111,0.00117997,0.00274775,-0.00153145,0.00368427,0.000243443,-1.02194,0.00237919,0.0110486,734,645,-13.6071,8.0711
-483,379,-13.609,-8.73108,0.00122546,0.00207795,-0.00127699,0.00299795,0.000305454,-0.946478,0.001905,0.013814,741,645,-13.609,8.73108
-476,379,-13.6298,-9.33258,0.00147743,0.00151956,-0.00116959,0.00266828,0.000328715,-0.794401,0.00168003,0.014196,748,645,-13.6298,9.33259
-469,379,-13.6827,-9.95374,0.00172067,0.000994202,-0.00108232,0.00249909,0.000215787,-0.623501,0.00159899,0.0124002,755,645,-13.6827,9.95374
-462,379,-13.7184,-10.6213,0.00195974,0.000541173,-0.00103555,0.00250563,-4.71214e-06,-0.485127,0.00167199,0.00979402,762,645,-13.7184,10.6213
-455,379,-13.7396,-11.2681,0.00229061,-2.48837e-05,-0.00103138,0.00268339,-0.00041766,-0.363868,0.00194317,0.00963086,769,645,-13.7396,11.2681
-448,379,-13.7438,-11.9036,0.00271878,-0.00047242,-0.00109182,0.00305657,-0.000810212,-0.300045,0.00235471,0.0111062,776,645,-13.7438,11.9036
-441,379,-13.7572,-12.5893,0.00322925,-0.000699849,-0.00131494,0.00362871,-0.0010993,-0.294923,0.00285696,0.0225867,783,645,-13.7572,12.5893
-434,379,-13.6852,-13.444,0,0,0,0,0,0,0,-1,790,645,-13.6852,13.4439
-427,379,-4.16113,-4.13452,0,0,0,0,0,0,0,-1,797,645,-4.16116,4.1345
-420,379,-4.63953,-3.46869,0,0,0,0,0,0,0,-1,804,645,-4.63953,3.46872
-413,379,-4.62543,-3.7912,0,0,0,0,0,0,0,-1,811,645,-4.62541,3.79123
-406,379,-4.64063,-4.38489,0,0,0,0,0,0,0,-1,818,645,-4.64065,4.3849
-399,379,-2.93536,-1.40118,0,0,0,0,0,0,0,-1,825,645,-2.93534,1.40119
-392,379,-4.16711,-0.466003,0,0,0,0,0,0,0,-1,832,645,-4.16714,0.465992
-385,379,-3.51862,0.441101,0,0,0,0,0,0,0,-1,839,645,-3.51859,-0.441072
-378,379,-5.3504,0.212219,0,0,0,0,0,0,0,-1,846,645,-5.35038,-0.212241
-371,379,-4.32092,-0.186707,0,0,0,0,0,0,0,-1,853,645,-4.3209,0.186707
-364,379,-3.40887,-0.549805,0,0,0,0,0,0,0,-1,860,645,-3.4089,0.549802
-357,379,0,0,0,0,0,0,0,0,0,-1,867,645,0,0
-350,379,0,0,0,0,0,0,0,0,0,-1,874,645,0,0
-343,379,0,0,0,0,0,0,0,0,0,-1,881,645,0,0
-336,379,0,0,0,0,0,0,0,0,0,-1,888,645,0,0
-329,379,0,0,0,0,0,0,0,0,0,-1,895,645,0,0
-322,379,0,0,0,0,0,0,0,0,0,-1,902,645,0,0
-315,379,0,0,0,0,0,0,0,0,0,-1,909,645,0,0
-308,379,0,0,0,0,0,0,0,0,0,-1,916,645,0,0
-301,379,0,0,0,0,0,0,0,0,0,-1,923,645,0,0
-294,379,0,0,0,0,0,0,0,0,0,-1,930,645,0,0
-287,379,0,0,0,0,0,0,0,0,0,-1,937,645,0,0
-280,379,0,0,0,0,0,0,0,0,0,-1,944,645,0,0
-273,379,0,0,0,0,0,0,0,0,0,-1,951,645,0,0
-266,379,0,0,0,0,0,0,0,0,0,-1,958,645,0,0
-259,379,0,0,0,0,0,0,0,0,0,-1,965,645,0,0
-252,379,0,0,0,0,0,0,0,0,0,-1,972,645,0,0
-245,379,0,0,0,0,0,0,0,0,0,-1,979,645,0,0
-238,379,0,0,0,0,0,0,0,0,0,-1,986,645,0,0
-231,379,0,0,0,0,0,0,0,0,0,-1,993,645,0,0
-224,379,0,0,0,0,0,0,0,0,0,-1,1000,645,0,0
-217,379,0,0,0,0,0,0,0,0,0,-1,1007,645,0,0
-210,379,0,0,0,0,0,0,0,0,0,-1,1014,645,0,0
-203,379,0,0,0,0,0,0,0,0,0,-1,1021,645,0,0
-196,379,0,0,0,0,0,0,0,0,0,-1,1028,645,0,0
-189,379,0,0,0,0,0,0,0,0,0,-1,1035,645,0,0
-182,379,0,0,0,0,0,0,0,0,0,-1,1042,645,0,0
-175,379,0,0,0,0,0,0,0,0,0,-1,1049,645,0,0
-168,379,0,0,0,0,0,0,0,0,0,-1,1056,645,0,0
-161,379,0,0,0,0,0,0,0,0,0,-1,1063,645,0,0
-154,379,0,0,0,0,0,0,0,0,0,-1,1070,645,0,0
-147,379,0,0,0,0,0,0,0,0,0,-1,1077,645,0,0
-140,379,0,0,0,0,0,0,0,0,0,-1,1084,645,0,0
-133,379,0,0,0,0,0,0,0,0,0,-1,1091,645,0,0
-126,379,0,0,0,0,0,0,0,0,0,-1,1098,645,0,0
-119,379,0,0,0,0,0,0,0,0,0,-1,1105,645,0,0
-112,379,0,0,0,0,0,0,0,0,0,-1,1112,645,0,0
-105,379,0,0,0,0,0,0,0,0,0,-1,1119,645,0,0
-98,379,0,0,0,0,0,0,0,0,0,-1,1126,645,0,0
-91,379,0,0,0,0,0,0,0,0,0,-1,1133,645,0,0
-84,379,0,0,0,0,0,0,0,0,0,-1,1140,645,0,0
-77,379,0,0,0,0,0,0,0,0,0,-1,1147,645,0,0
-70,379,0,0,0,0,0,0,0,0,0,-1,1154,645,0,0
-63,379,0,0,0,0,0,0,0,0,0,-1,1161,645,0,0
-56,379,0,0,0,0,0,0,0,0,0,-1,1168,645,0,0
-49,379,0,0,0,0,0,0,0,0,0,-1,1175,645,0,0
-42,379,0,0,0,0,0,0,0,0,0,-1,1182,645,0,0
-35,379,0,0,0,0,0,0,0,0,0,-1,1189,645,0,0
-28,379,0,0,0,0,0,0,0,0,0,-1,1196,645,0,0
-21,379,0,0,0,0,0,0,0,0,0,-1,1203,645,0,0
-14,379,0,0,0,0,0,0,0,0,0,-1,1210,645,0,0
-7,379,0,0,0,0,0,0,0,0,0,-1,1217,645,0,0
0,379,0,0,0,0,0,0,0,0,0,-1,1224,645,0,0
7,379,0,0,0,0,0,0,0,0,0,-1,1231,645,0,0
14,379,0,0,0,0,0,0,0,0,0,-1,1238,645,0,0
21,379,0,0,0,0,0,0,0,0,0,-1,1245,645,0,0
28,379,0,0,0,0,0,0,0,0,0,-1,1252,645,0,0
35,379,0,0,0,0,0,0,0,0,0,-1,1259,645,0,0
42,379,0,0,0,0,0,0,0,0,0,-1,1266,645,0,0
49,379,0,0,0,0,0,0,0,0,0,-1,1273,645,0,0
56,379,0,0,0,0,0,0,0,0,0,-1,1280,645,0,0
63,379,0,0,0,0,0,0,0,0,0,-1,1287,645,0,0
70,379,0,0,0,0,0,0,0,0,0,-1,1294,645,0,0
77,379,0,0,0,0,0,0,0,0,0,-1,1301,645,0,0
84,379,0,0,0,0,0,0,0,0,0,-1,1308,645,0,0
91,379,0,0,0,0,0,0,0,0,0,-1,1315,645,0,0
98,379,0,0,0,0,0,0,0,0,0,-1,1322,645,0,0
105,379,0,0,0,0,0,0,0,0,0,-1,1329,645,0,0
112,379,0,0,0,0,0,0,0,0,0,-1,1336,645,0,0
119,379,0,0,0,0,0,0,0,0,0,-1,1343,645,0,0
126,379,0,0,0,0,0,0,0,0,0,-1,1350,645,0,0
133,379,0,0,0,0,0,0,0,0,0,-1,1357,645,0,0
140,379,0,0,0,0,0,0,0,0,0,-1,1364,645,0,0
147,379,0,0,0,0,0,0,0,0,0,-1,1371,645,0,0
154,379,0,0,0,0,0,0,0,0,0,-1,1378,645,0,0
161,379,0,0,0,0,0,0,0,0,0,-1,1385,645,0,0
168,379,0,0,0,0,0,0,0,0,0,-1,1392,645,0,0
175,379,0,0,0,0,0,0,0,0,0,-1,1399,645,0,0
182,379,0,0,0,0,0,0,0,0,0,-1,1406,645,0,0
189,379,0,0,0,0,0,0,0,0,0,-1,1413,645,0,0
196,379,0,0,0,0,0,0,0,0,0,-1,1420,645,0,0
203,379,0,0,0,0,0,0,0,0,0,-1,1427,645,0,0
210,379,0,0,0,0,0,0,0,0,0,-1,1434,645,0,0
217,379,0,0,0,0,0,0,0,0,0,-1,1441,645,0,0
224,379,0,0,0,0,0,0,0,0,0,-1,1448,645,0,0
231,379,0,0,0,0,0,0,0,0,0,-1,1455,645,0,0
238,379,0,0,0,0,0,0,0,0,0,-1,1462,645,0,0
245,379,0,0,0,0,0,0,0,0,0,-1,1469,645,0,0
252,379,0,0,0,0,0,0,0,0,0,-1,1476,645,0,0
259,379,0,0,0,0,0,0,0,0,0,-1,1483,645,0,0
266,379,0,0,0,0,0,0,0,0,0,-1,1490,645,0,0
273,379,0,0,0,0,0,0,0,0,0,-1,1497,645,0,0
280,379,0,0,0,0,0,0,0,0,0,-1,1504,645,0,0
287,379,0,0,0,0,0,0,0,0,0,-1,1511,645,0,0
294,379,0,0,0,0,0,0,0,0,0,-1,1518,645,0,0
301,379,0,0,0,0,0,0,0,0,0,-1,1525,645,0,0
308,379,0,0,0,0,0,0,0,0,0,-1,1532,645,0,0
315,379,0,0,0,0,0,0,0,0,0,-1,1539,645,0,0
322,379,0,0,0,0,0,0,0,0,0,-1,1546,645,0,0
329,379,0,0,0,0,0,0,0,0,0,-1,1553,645,0,0
336,379,0,0,0,0,0,0,0,0,0,-1,1560,645,0,0
343,379,0,0,0,0,0,0,0,0,0,-1,1567,645,0,0
350,379,0,0,0,0,0,0,0,0,0,-1,1574,645,0,0
357,379,0,0,0,0,0,0,0,0,0,-1,1581,645,0,0
364,379,0,0,0,0,0,0,0,0,0,-1,1588,645,0,0
371,379,0,0,0,0,0,0,0,0,0,-1,1595,645,0,0
378,379,0,0,0,0,0,0,0,0,0,-1,1602,645,0,0
385,379,0,0,0,0,0,0,0,0,0,-1,1609,645,0,0
392,379,0,0,0,0,0,0,0,0,0,-1,1616,645,0,0
399,379,0,0,0,0,0,0,0,0,0,-1,1623,645,0,0
406,379,0,0,0,0,0,0,0,0,0,-1,1630,645,0,0
413,379,0,0,0,0,0,0,0,0,0,-1,1637,645,0,0
420,379,0,0,0,0,0,0,0,0,0,-1,1644,645,0,0
427,379,0,0,0,0,0,0,0,0,0,-1,1651,645,0,0
434,379,0,0,0,0,0,0,0,0,0,-1,1658,645,0,0
441,379,0,0,0,0,0,0,0,0,0,-1,1665,645,0,0
448,379,0,0,0,0,0,0,0,0,0,-1,1672,645,0,0
455,379,0,0,0,0,0,0,0,0,0,-1,1679,645,0,0
462,379,0,0,0,0,0,0,0,0,0,-1,1686,645,0,0
469,379,0,0,0,0,0,0,0,0,0,-1,1693,645,0,0
476,379,11.1787,0.830383,0,0,0,0,0,0,0,-1,1700,645,11.1787,-0.830365
483,379,7.4231,1.54321,0,0,0,0,0,0,0,-1,1707,645,7.42314,-1.54324
490,379,8.52881,1.56677,0,0,0,0,0,0,0,-1,1714,645,8.52878,-1.56677
497,379,9.63599,1.49573,0,0,0,0,0,0,0,-1,1721,645,9.63604,-1.4957
504,379,10.0833,1.35229,0,0,0,0,0,0,0,-1,1728,645,10.0832,-1.35227
511,379,8.14343,1.59912,0,0,0,0,0,0,0,-1,1735,645,8.14347,-1.59912
518,379,12.7955,-0.324097,0,0,0,0,0,0,0,-1,1742,645,12.7955,0.324101
525,379,6.03711,1.10352,0,0,0,0,0,0,0,-1,1749,645,6.03711,-1.10351
532,379,8.70947,0.887817,0,0,0,0,0,0,0,-1,1756,645,8.70953,-0.887808
539,379,9.87097,0.111389,0,0,0,0,0,0,0,-1,1763,645,9.87095,-0.111395
546,379,8.42383,-0.730652,0,0,0,0,0,0,0,-1,1770,645,8.42378,0.730638
553,379,19.2905,-7.67834,0,0,0,0,0,0,0,-1,1777,645,19.2905,7.67837
560,379,22.5734,-10.4749,0,0,0,0,0,0,0,-1,1784,645,22.5734,10.4749
567,379,24.9475,-11.3651,0,0,0,0,0,0,0,-1,1791,645,24.9475,11.3651
574,379,25.1636,-10.4906,0.0024305,0.00126942,0.000798202,0.00283696,0.000862969,0.470987,0.00167926,0.0157237,1798,645,25.1636,10.4906
581,379,25.1453,-9.8465,0.00162511,0.00120886,0.000641225,0.00209114,0.00074283,0.628475,0.00122407,0.0156191,1805,645,25.1452,9.84649
588,379,25.1169,-9.16534,0.00120704,0.00126549,0.000664964,0.00190187,0.000570659,0.807359,0.00112693,0.0175529,1812,645,25.117,9.16532
595,379,25.0703,-8.48663,0.00119301,0.00155191,0.000873669,0.00226437,0.000480549,0.886688,0.00137762,0.014813,1819,645,25.0703,8.48663
602,379,25.0233,-7.83643,0.00152835,0.00198629,0.00127851,0.00305617,0.000458468,0.874003,0.00190312,0.0154982,1826,645,25.0233,7.83645
609,379,24.9911,-7.19513,0.00194727,0.00255416,0.00174114,0.0040181,0.000483335,0.871672,0.00253304,0.0159308,1833,645,24.9911,7.19515
616,379,24.962,-6.50562,0.00228624,0.00305668,0.00207096,0.00477795,0.000564974,0.877352,0.00301467,0.0128051,1840,645,24.962,6.50561
623,379,24.9406,-5.78314,0.00283968,0.00366639,0.00256538,0.00585151,0.000654563,0.865275,0.00370216,0.0114693,1847,645,24.9406,5.78316
630,379,24.9266,-5.11719,0.00314234,0.00419085,0.00290782,0.00662129,0.000711896,0.874586,0.00419707,0.0133018,1854,645,24.9266,5.1172
637,379,24.9679,-4.34546,0.00313655,0.00466595,0.00307189,0.00706689,0.000735613,0.907386,0.0044862,0.0465589,1861,645,24.9679,4.34547
644,379,25.2916,-3.42053,0,0,0,0,0,0,0,-1,1868,645,25.2917,3.42053
651,379,12.9515,0.220825,0,0,0,0,0,0,0,-1,1875,645,12.9515,-0.220814
658,379,13.7498,0.37439,0,0,0,0,0,0,0,-1,1882,645,13.7498,-0.374371
665,379,11.9719,0.353333,0,0,0,0,0,0,0,-1,1889,645,11.9719,-0.353321
672,379,7.57605,2.15326,0,0,0,0,0,0,0,-1,1896,645,7.57599,-2.15326
679,379,8.55078,2.50409,0,0,0,0,0,0,0,-1,1903,645,8.55073,-2.50406
686,379,0,0,0,0,0,0,0,0,0,-1,1910,645,0,0
693,379,0,0,0,0,0,0,0,0,0,-1,1917,645,0,0
700,379,0,0,0,0,0,0,0,0,0,-1,1924,645,0,0
707,379,0,0,0,0,0,0,0,0,0,-1,1931,645,0,0
714,379,0,0,0,0,0,0,0,0,0,-1,1938,645,0,0
721,379,0,0,0,0,0,0,0,0,0,-1,1945,645,0,0
728,379,0,0,0,0,0,0,0,0,0,-1,1952,645,0,0
735,379,0,0,0,0,0,0,0,0,0,-1,1959,645,0,0
742,379,0,0,0,0,0,0,0,0,0,-1,1966,645,0,0
749,379,0,0,0,0,0,0,0,0,0,-1,1973,645,0,0
756,379,0,0,0,0,0,0,0,0,0,-1,1980,645,0,0
763,379,0,0,0,0,0,0,0,0,0,-1,1987,645,0,0
770,379,0,0,0,0,0,0,0,0,0,-1,1994,645,0,0
777,379,0,0,0,0,0,0,0,0,0,-1,2001,645,0,0
784,379,0,0,0,0,0,0,0,0,0,-1,2008,645,0,0
791,379,0,0,0,0,0,0,0,0,0,-1,2015,645,0,0
798,379,0,0,0,0,0,0,0,0,0,-1,2022,645,0,0
805,379,0,0,0,0,0,0,0,0,0,-1,2029,645,0,0
812,379,0,0,0,0,0,0,0,0,0,-1,2036,645,0,0
-700,372,0,0,0,0,0,0,0,0,0,-1,524,652,0,0
-693,372,0,0,0,0,0,0,0,0,0,-1,531,652,0,0
-686,372,0,0,0,0,0,0,0,0,0,-1,538,652,0,0
-679,372,0,0,0,0,0,0,0,0,0,-1,545,652,0,0
-672,372,0,0,0,0,0,0,0,0,0,-1,552,652,0,0
-665,372,0,0,0,0,0,0,0,0,0,-1,559,652,0,0
-658,372,0,0,0,0,0,0,0,0,0,-1,566,652,0,0
-651,372,0,0,0,0,0,0,0,0,0,-1,573,652,0,0
-644,372,0,0,0,0,0,0,0,0,0,-1,580,652,0,0
-637,372,0,0,0,0,0,0,0,0,0,-1,587,652,0,0
-630,372,0,0,0,0,0,0,0,0,0,-1,594,652,0,0
-623,372,0,0,0,0,0,0,0,0,0,-1,601,652,0,0
-616,372,0,0,0,0,0,0,0,0,0,-1,608,652,0,0
-609,372,0,0,0,0,0,0,0,0,0,-1,615,652,0,0
-602,372,0,0,0,0,0,0,0,0,0,-1,622,652,0,0
-595,372,0,0,0,0,0,0,0,0,0,-1,629,652,0,0
-588,372,0,0,0,0,0,0,0,0,0,-1,636,652,0,0
-581,372,0,0,0,0,0,0,0,0,0,-1,643,652,0,0
-574,372,0,0,0,0,0,0,0,0,0,-1,650,652,0,0
-567,372,-7.93744,0.73407,0,0,0,0,0,0,0,-1,657,652,-7.93741,-0.734076
-560,372,-8.78552,-0.158203,0,0,0,0,0,0,0,-1,664,652,-8.78552,0.158216
-553,372,-7.95551,1.61694,0,0,0,0,0,0,0,-1,671,652,-7.95552,-1.61697
-546,372,-4.2403,-3.75372,0,0,0,0,0,0,0,-1,678,652,-4.24028,3.75369
-539,372,-7.92285,-0.0650024,0,0,0,0,0,0,0,-1,685,652,-7.92287,0.0649772
-532,372,-8.59589,-0.419556,0,0,0,0,0,0,0,-1,692,652,-8.59591,0.419539
-525,372,-8.03674,-1.36804,0,0,0,0,0,0,0,-1,699,652,-8.03676,1.36806
-518,372,-14.2363,-5.31439,0,0,0,0,0,0,0,-1,706,652,-14.2363,5.31437
-511,372,-14.1869,-6.0816,0.00091279,0.00391049,-0.0019579,0.00487739,-5.41119e-05,-1.11208,0.00326978,0.0358787,713,652,-14.1869,6.08158
-504,372,-14.2122,-6.69061,0.00109626,0.00325326,-0.0016978,0.00418615,0.000163371,-1.06836,0.00273793,0.0161303,720,652,-14.2122,6.69059
-497,372,-14.21,-7.39862,0.00123372,0.00254598,-0.00142055,0.00345461,0.000325091,-1.00174,0.00220272,0.0113611,727,652,-14.21,7.39863
-490,372,-14.2407,-8.04095,0.00135664,0.00197185,-0.00123731,0.00293922,0.000389266,-0.907231,0.00184348,0.0124558,734,652,-14.2407,8.04098
-483,372,-14.2668,-8.66083,0.00151189,0.00145691,-0.00108552,0.00257026,0.000398535,-0.772737,0.00159732,0.0131019,741,652,-14.2668,8.6608
-476,372,-14.2889,-9.27142,0.0018327,0.00103967,-0.00106383,0.0025715,0.000300863,-0.607012,0.00162337,0.0143819,748,652,-14.289,9.27144
-469,372,-14.3356,-9.90588,0.00211554,0.000660846,-0.00105967,0.00267347,0.000102913,-0.484633,0.00174902,0.0114215,755,652,-14.3356,9.90585
-462,372,-14.3542,-10.5705,0.00240294,0.000360642,-0.00110322,0.00288507,-0.000121485,-0.412006,0.00196513,0.0101223,762,652,-14.3542,10.5705
-455,372,-14.3843,-11.2077,0.00280643,-7.15666e-05,-0.00119517,0.00323804,-0.000503172,-0.34655,0.00234448,0.0101962,769,652,-14.3843,11.2077
-448,372,-14.3906,-11.86,0.00329679,-0.000413164,-0.00136071,0.00374235,-0.000858727,-0.316444,0.00282499,0.0126498,776,652,-14.3906,11.86
-441,372,-14.2099,-12.7023,0,0,0,0,0,0,0,-1,783,652,-14.2099,12.7023
-434,372,-9.86865,-9.68494,0,0,0,0,0,0,0,-1,790,652,-9.86863,9.68492
-427,372,-4.54248,-3.56268,0,0,0,0,0,0,0,-1,797,652,-4.54247,3.56266
-420,372,-4.66168,-2.93597,0,0,0,0,0,0,0,-1,804,652,-4.66166,2.93599
-413,372,-4.74762,-3.29541,0,0,0,0,0,0,0,-1,811,652,-4.74763,3.29542
-406,372,-0.885437,-0.583923,0,0,0,0,0,0,0,-1,818,652,-0.885437,0.5839
-399,372,-3.97357,-0.825012,0,0,0,0,0,0,0,-1,825,652,-3.97359,0.825037
-392,372,-7.64337,0.173035,0,0,0,0,0,0,0,-1,832,652,-7.64337,-0.173019
-385,372,-6.48871,-0.0271606,0,0,0,0,0,0,0,-1,839,652,-6.48874,0.0271353
-378,372,-5.33044,-0.242432,0,0,0,0,0,0,0,-1,846,652,-5.33042,0.242457
-371,372,-4.40802,-0.495667,0,0,0,0,0,0,0,-1,853,652,-4.40802,0.495661
-364,372,0,0,0,0,0,0,0,0,0,-1,860,652,0,0
-357,372,0,0,0,0,0,0,0,0,0,-1,867,652,0,0
-350,372,0,0,0,0,0,0,0,0,0,-1,874,652,0,0
-343,372,0,0,0,0,0,0,0,0,0,-1,881,652,0,0
-336,372,0,0,0,0,0,0,0,0,0,-1,888,652,0,0
-329,372,0,0,0,0,0,0,0,0,0,-1,895,652,0,0
-322,372,0,0,0,0,0,0,0,0,0,-1,902,652,0,0
-315,372,0,0,0,0,0,0,0,0,0,-1,909,652,0,0
-308,372,0,0,0,0,0,0,0,0,0,-1,916,652,0,0
-301,372,0,0,0,0,0,0,0,0,0,-1,923,652,0,0
-294,372,0,0,0,0,0,0,0,0,0,-1,930,652,0,0
-287,372,0,0,0,0,0,0,0,0,0,-1,937,652,0,0
-280,372,0,0,0,0,0,0,0,0,0,-1,944,652,0,0
-273,372,0,0,0,0,0,0,0,0,0,-1,951,652,0,0
-266,372,0,0,0,0,0,0,0,0,0,-1,958,652,0,0
-259,372,0,0,0,0,0,0,0,0,0,-1,965,652,0,0
-252,372,0,0,0,0,0,0,0,0,0,-1,972,652,0,0
-245,372,0,0,0,0,0,0,0,0,0,-1,979,652,0,0
-238,372,0,0,0,0,0,0,0,0,0,-1,986,652,0,0
-231,372,0,0,0,0,0,0,0,0,0,-1,993,652,0,0
-224,372,0,0,0,0,0,0,0,0,0,-1,1000,652,0,0
-217,372,0,0,0,0,0,0,0,0,0,-1,1007,652,0,0
-210,372,0,0,0,0,0,0,0,0,0,-1,1014,652,0,0
-203,372,0,0,0,0,0,0,0,0,0,-1,1021,652,0,0
-196,372,0,0,0,0,0,0,0,0,0,-1,1028,652,0,0
-189,372,0,0,0,0,0,0,0,0,0,-1,1035,652,0,0
-182,372,0,0,0,0,0,0,0,0,0,-1,1042,652,0,0
-175,372,0,0,0,0,0,0,0,0,0,-1,1049,652,0,0
-168,372,0,0,0,0,0,0,0,0,0,-1,1056,652,0,0
-161,372,0,0,0,0,0,0,0,0,0,-1,1063,652,0,0
-154,372,0,0,0,0,0,0,0,0,0,-1,1070,652,0,0
-147,372,0,0,0,0,0,0,0,0,0,-1,1077,652,0,0
-140,372,0,0,0,0,0,0,0,0,0,-1,1084,652,0,0
-133,372,0,0,0,0,0,0,0,0,0,-1,1091,652,0,0
-126,372,0,0,0,0,0,0,0,0,0,-1,1098,652,0,0
-119,372,0,0,0,0,0,0,0,0,0,-1,1105,652,0,0
-112,372,0,0,0,0,0,0,0,0,0,-1,1112,652,0,0
-105,372,0,0,0,0,0,0,0,0,0,-1,1119,652,0,0
-98,372,0,0,0,0,0,0,0,0,0,-1,1126,652,0,0
-91,372,0,0,0,0,0,0,0,0,0,-1,1133,652,0,0
-84,372,0,0,0,0,0,0,0,0,0,-1,1140,652,0,0
-77,372,0,0,0,0,0,0,0,0,0,-1,1147,652,0,0
-70,372,0,0,0,0,0,0,0,0,0,-1,1154,652,0,0
-63,372,0,0,0,0,0,0,0,0,0,-1,1161,652,0,0
-56,372,0,0,0,0,0,0,0,0,0,-1,1168,652,0,0
-49,372,0,0,0,0,0,0,0,0,0,-1,1175,652,0,0
-42,372,0,0,0,0,0,0,0,0,0,-1,1182,652,0,0
-35,372,0,0,0,0,0,0,0,0,0,-1,1189,652,0,0
-28,372,0,0,0,0,0,0,0,0,0,-1,1196,652,0,0
-21,372,0,0,0,0,0,0,0,0,0,-1,1203,652,0,0
-14,372,0,0,0,0,0,0,0,0,0,-1,1210,652,0,0
-7,372,0,0,0,0,0,0,0,0,0,-1,1217,652,0,0
0,372,0,0,0,0,0,0,0,0,0,-1,1224,652,0,0
7,372,0,0,0,0,0,0,0,0,0,-1,1231,652,0,0
14,372,0,0,0,0,0,0,0,0,0,-1,1238,652,0,0
21,372,0,0,0,0,0,0,0,0,0,-1,1245,652,0,0
28,372,0,0,0,0,0,0,0,0,0,-1,1252,652,0,0
35,372,0,0,0,0,0,0,0,0,0,-1,1259,652,0,0
42,372,0,0,0,0,0,0,0,0,0,-1,1266,652,0,0
49,372,0,0,0,0,0,0,0,0,0,-1,1273,652,0,0
56,372,0,0,0,0,0,0,0,0,0,-1,1280,652,0,0
63,372,0,0,0,0,0,0,0,0,0,-1,1287,652,0,0
70,372,0,0,0,0,0,0,0,0,0,-1,1294,652,0,0
77,372,0,0,0,0,0,0,0,0,0,-1,1301,652,0,0
84,372,0,0,0,0,0,0,0,0,0,-1,1308,652,0,0
91,372,0,0,0,0,0,0,0,0,0,-1,1315,652,0,0
98,372,0,0,0,0,0,0,0,0,0,-1,1322,652,0,0
105,372,0,0,0,0,0,0,0,0,0,-1,1329,652,0,0
112,372,0,0,0,0,0,0,0,0,0,-1,1336,652,0,0
119,372,0,0,0,0,0,0,0,0,0,-1,1343,652,0,0
126,372,0,0,0,0,0,0,0,0,0,-1,1350,652,0,0
133,372,0,0,0,0,0,0,0,0,0,-1,1357,652,0,0
140,372,0,0,0,0,0,0,0,0,0,-1,1364,652,0,0
147,372,0,0,0,0,0,0,0,0,0,-1,1371,652,0,0
154,372,0,0,0,0,0,0,0,0,0,-1,1378,652,0,0
161,372,0,0,0,0,0,0,0,0,0,-1,1385,652,0,0
168,372,0,0,0,0,0,0,0,0,0,-1,1392,652,0,0
175,372,0,0,0,0,0,0,0,0,0,-1,1399,652,0,0
182,372,0,0,0,0,0,0,0,0,0,-1,1406,652,0,0
189,372,0,0,0,0,0,0,0,0,0,-1,1413,652,0,0
196,372,0,0,0,0,0,0,0,0,0,-1,1420,652,0,0
203,372,0,0,0,0,0,0,0,0,0,-1,1427,652,0,0
210,372,0,0,0,0,0,0,0,0,0,-1,1434,652,0,0
217,372,0,0,0,0,0,0,0,0,0,-1,1441,652,0,0
224,372,0,0,0,0,0,0,0,0,0,-1,1448,652,0,0
231,372,0,0,0,0,0,0,0,0,0,-1,1455,652,0,0
238,372,0,0,0,0,0,0,0,0,0,-1,1462,652,0,0
245,372,0,0,0,0,0,0,0,0,0,-1,1469,652,0,0
252,372,0,0,0,0,0,0,0,0,0,-1,1476,652,0,0
259,372,0,0,0,0,0,0,0,0,0,-1,1483,652,0,0
266,372,0,0,0,0,0,0,0,0,0,-1,1490,652,0,0
273,372,0,0,0,0,0,0,0,0,0,-1,1497,652,0,0
280,372,0,0,0,0,0,0,0,0,0,-1,1504,652,0,0
287,372,0,0,0,0,0,0,0,0,0,-1,1511,652,0,0
294,372,0,0,0,0,0,0,0,0,0,-1,1518,652,0,0
301,372,0,0,0,0,0,0,0,0,0,-1,1525,652,0,0
308,372,0,0,0,0,0,0,0,0,0,-1,1532,652,0,0
315,372,0,0,0,0,0,0,0,0,0,-1,1539,652,0,0
322,372,0,0,0,0,0,0,0,0,0,-1,1546,652,0,0
329,372,0,0,0,0,0,0,0,0,0,-1,1553,652,0,0
336,372,0,0,0,0,0,0,0,0,0,-1,1560,652,0,0
343,372,0,0,0,0,0,0,0,0,0,-1,1567,652,0,0
350,372,0,0,0,0,0,0,0,0,0,-1,1574,652,0,0
357,372,0,0,0,0,0,0,0,0,0,-1,1581,652,0,0
364,372,0,0,0,0,0,0,0,0,0,-1,1588,652,0,0
371,372,0,0,0,0,0,0,0,0,0,-1,1595,652,0,0
378,372,0,0,0,0,0,0,0,0,0,-1,1602,652,0,0
385,372,0,0,0,0,0,0,0,0,0,-1,1609,652,0,0
392,372,0,0,0,0,0,0,0,0,0,-1,1616,652,0,0
399,372,0,0,0,0,0,0,0,0,0,-1,1623,652,0,0
406,372,0,0,0,0,0,0,0,0,0,-1,1630,652,0,0
413,372,0,0,0,0,0,0,0,0,0,-1,1637,652,0,0
420,372,0,0,0,0,0,0,0,0,0,-1,1644,652,0,0
427,372,0,0,0,0,0,0,0,0,0,-1,1651,652,0,0
434,372,0,0,0,0,0,0,0,0,0,-1,1658,652,0,0
441,372,0,0,0,0,0,0,0,0,0,-1,1665,652,0,0
448,372,0,0,0,0,0,0,0,0,0,-1,1672,652,0,0
455,372,0,0,0,0,0,0,0,0,0,-1,1679,652,0,0
462,372,0,0,0,0,0,0,0,0,0,-1,1686,652,0,0
469,372,0,0,0,0,0,0,0,0,0,-1,1693,652,0,0
476,372,0,0,0,0,0,0,0,0,0,-1,1700,652,0,0
483,372,8.74182,1.53125,0,0,0,0,0,0,0,-1,1707,652,8.74186,-1.53126
490,372,9.78455,1.67096,0,0,0,0,0,0,0,-1,1714,652,9.7846,-1.67093
497,372,9.97644,1.46069,0,0,0,0,0,0,0,-1,1721,652,9.97647,-1.46071
504,372,10.1216,1.28375,0,0,0,0,0,0,0,-1,1728,652,10.1216,-1.28376
511,372,11.7367,-0.0272217,0,0,0,0,0,0,0,-1,1735,652,11.7367,0.0272326
518,372,12.0657,-0.0995483,0,0,0,0,0,0,0,-1,1742,652,12.0657,0.0995285
525,372,12.3947,-0.171814,0,0,0,0,0,0,0,-1,1749,652,12.3946,0.171824
532,372,9.36597,1.72034,0,0,0,0,0,0,0,-1,1756,652,9.36597,-1.72036
539,372,7.82886,-0.0865479,0,0,0,0,0,0,0,-1,1763,652,7.82882,0.0865771
546,372,10.953,-0.187195,0,0,0,0,0,0,0,-1,1770,652,10.953,0.187181
553,372,14.1201,-4.83234,0,0,0,0,0,0,0,-1,1777,652,14.1201,4.83235
560,372,20.1057,-8.06934,0,0,0,0,0,0,0,-1,1784,652,20.1058,8.06936
567,372,25.8893,-11.2379,0,0,0,0,0,0,0,-1,1791,652,25.8893,11.2379
574,372,25.863,-10.3773,0.00258484,0.00107609,0.000731844,0.0028815,0.000779426,0.385119,0.00172106,0.0408077,1798,652,25.863,10.3773
581,372,25.8306,-9.80548,0.00167651,0.000982034,0.000498614,0.00193689,0.000721662,0.481241,0.0011303,0.0207134,1805,652,25.8305,9.80549
588,372,25.7941,-9.1463,0.00120352,0.000955951,0.000461224,0.00155728,0.000602188,0.654298,0.000906758,0.0166387,1812,652,25.7941,9.1463
595,372,25.7334,-8.44354,0.00111641,0.00117829,0.000595582,0.00174373,0.000550964,0.811348,0.00102922,0.0144138,1819,652,25.7334,8.44355
602,372,25.7296,-7.80267,0.0013461,0.00153089,0.000906018,0.00234922,0.000527781,0.836212,0.00142322,0.0150824,1826,652,25.7297,7.80265
609,372,25.6686,-7.15826,0.00166094,0.00199325,0.00128401,0.00312181,0.000532376,0.849742,0.0019284,0.0157928,1833,652,25.6686,7.15828
616,372,25.6444,-6.46167,0.00185237,0.00237052,0.00151916,0.00365254,0.000570355,0.869853,0.00226893,0.0152019,1840,652,25.6444,6.46166
623,372,25.6267,-5.75665,0.00213115,0.00281286,0.00186086,0.00436383,0.000580181,0.875979,0.0027364,0.0123155,1847,652,25.6267,5.75665
630,372,25.6014,-5.0929,0.00206948,0.00320109,0.0020531,0.00476493,0.000505644,0.919854,0.0030222,0.0167783,1854,652,25.6014,5.09292
637,372,25.6324,-4.43933,0.00171423,0.00348247,0.00207322,0.00485221,0.000344486,0.986945,0.00312631,0.0287667,1861,652,25.6324,4.4393
644,372,25.7887,-3.74927,0,0,0,0,0,0,0,-1,1868,652,25.7887,3.74926
651,372,21.3998,-0.888,0,0,0,0,0,0,0,-1,1875,652,21.3998,0.887992
658,372,14.157,0.280273,0,0,0,0,0,0,0,-1,1882,652,14.157,-0.280264
665,372,15.2286,0.463867,0,0,0,0,0,0,0,-1,1889,652,15.2287,-0.463854
672,372,9.34106,1.48444,0,0,0,0,0,0,0,-1,1896,652,9.34109,-1.48444
679,372,10.7308,2.32391,0,0,0,0,0,0,0,-1,1903,652,10.7309,-2.3239
686,372,11.6295,2.52997,0,0,0,0,0,0,0,-1,1910,652,11.6296,-2.52996
693,372,0,0,0,0,0,0,0,0,0,-1,1917,652,0,0
700,372,0,0,0,0,0,0,0,0,0,-1,1924,652,0,0
707,372,0,0,0,0,0,0,0,0,0,-1,1931,652,0,0
714,372,0,0,0,0,0,0,0,0,0,-1,1938,652,0,0
721,372,0,0,0,0,0,0,0,0,0,-1,1945,652,0,0
728,372,0,0,0,0,0,0,0,0,0,-1,1952,652,0,0
735,372,0,0,0,0,0,0,0,0,0,-1,1959,652,0,0
742,372,0,0,0,0,0,0,0,0,0,-1,1966,652,0,0
749,372,0,0,0,0,0,0,0,0,0,-1,1973,652,0,0
756,372,0,0,0,0,0,0,0,0,0,-1,1980,652,0,0
763,372,0,0,0,0,0,0,0,0,0,-1,1987,652,0,0
770,372,0,0,0,0,0,0,0,0,0,-1,1994,652,0,0
777,372,0,0,0,0,0,0,0,0,0,-1,2001,652,0,0
784,372,0,0,0,0,0,0,0,0,0,-1,2008,652,0,0
791,372,0,0,0,0,0,0,0,0,0,-1,2015,652,0,0
798,372,0,0,0,0,0,0,0,0,0,-1,2022,652,0,0
805,372,0,0,0,0,0,0,0,0,0,-1,2029,652,0,0
812,372,0,0,0,0,0,0,0,0,0,-1,2036,652,0,0
-700,365,0,0,0,0,0,0,0,0,0,-1,524,659,0,0
-693,365,0,0,0,0,0,0,0,0,0,-1,531,659,0,0
-686,365,0,0,0,0,0,0,0,0,0,-1,538,659,0,0
-679,365,0,0,0,0,0,0,0,0,0,-1,545,659,0,0
-672,365,0,0,0,0,0,0,0,0,0,-1,552,659,0,0
-665,365,0,0,0,0,0,0,0,0,0,-1,559,659,0,0
-658,365,0,0,0,0,0,0,0,0,0,-1,566,659,0,0
-651,365,0,0,0,0,0,0,0,0,0,-1,573,659,0,0
-644,365,0,0,0,0,0,0,0,0,0,-1,580,659,0,0
-637,365,0,0,0,0,0,0,0,0,0,-1,587,659,0,0
-630,365,0,0,0,0,0,0,0,0,0,-1,594,659,0,0
-623,365,0,0,0,0,0,0,0,0,0,-1,601,659,0,0
-616,365,0,0,0,0,0,0,0,0,0,-1,608,659,0,0
-609,365,0,0,0,0,0,0,0,0,0,-1,615,659,0,0
-602,365,0,0,0,0,0,0,0,0,0,-1,622,659,0,0
-595,365,0,0,0,0,0,0,0,0,0,-1,629,659,0,0
-588,365,0,0,0,0,0,0,0,0,0,-1,636,659,0,0
-581,365,0,0,0,0,0,0,0,0,0,-1,643,659,0,0
-574,365,-7.69281,1.59015,0,0,0,0,0,0,0,-1,650,659,-7.69282,-1.59018
-567,365,-8.2583,1.72638,0,0,0,0,0,0,0,-1,657,659,-8.25827,-1.72637
-560,365,-7.17767,0.275757,0,0,0,0,0,0,0,-1,664,659,-7.17768,-0.27577
-553,365,-10.0349,-0.169617,0,0,0,0,0,0,0,-1,671,659,-10.0349,0.169593
-546,365,-10.6303,-1.51642,0,0,0,0,0,0,0,-1,678,659,-10.6303,1.5164
-539,365,-8.38599,1.52936,0,0,0,0,0,0,0,-1,685,659,-8.38598,-1.52935
-532,365,-8.52863,0.166504,0,0,0,0,0,0,0,-1,692,659,-8.52863,-0.166501
-525,365,-9.28229,-2.62726,0,0,0,0,0,0,0,-1,699,659,-9.28227,2.62724
-518,365,-14.8746,-5.24927,0,0,0,0,0,0,0,-1,706,659,-14.8746,5.24927
-511,365,-14.8488,-6.00281,0.000858799,0.00286526,-0.00134804,0.00354241,0.000181646,-1.10529,0.00230345,0.0343507,713,659,-14.8487,6.00282
-504,365,-14.8306,-6.66223,0.00112095,0.00234261,-0.00124644,0.00311985,0.000343709,-1.01323,0.00197532,0.0123612,720,659,-14.8306,6.66225
-497,365,-14.8506,-7.34711,0.00134025,0.00180684,-0.00111177,0.00270952,0.000437564,-0.888818,0.0016796,0.012846,727,659,-14.8506,7.34711
-490,365,-14.8906,-7.99976,0.00150728,0.00137448,-0.00102345,0.00246648,0.000415278,-0.753004,0.00152486,0.0139818,734,659,-14.8906,7.99978
-483,365,-14.923,-8.62769,0.00173271,0.000990565,-0.000947882,0.00237956,0.00034371,-0.598831,0.00148512,0.0139861,741,659,-14.9229,8.62771
-476,365,-14.9035,-9.26886,0.00209188,0.000696171,-0.000986172,0.00260214,0.000185913,-0.477481,0.00167623,0.0173608,748,659,-14.9035,9.26886
-469,365,-14.9474,-9.92017,0.00241111,0.000453108,-0.00104897,0.00286695,-2.73227e-06,-0.409942,0.00191221,0.0167073,755,659,-14.9474,9.92019
-462,365,-14.9927,-10.5524,0.00277234,0.000295488,-0.0011691,0.003237,-0.000169171,-0.378306,0.00221654,0.0147996,762,659,-14.9927,10.5524
-455,365,-15.0086,-11.1811,0.00327883,-1.65996e-05,-0.00133287,0.00375043,-0.000488205,-0.340079,0.0026779,0.0173424,769,659,-15.0086,11.1811
-448,365,-14.9321,-11.9341,0.00384671,-0.000286457,-0.00156751,0.00437394,-0.000813682,-0.32446,0.00322162,0.0421408,776,659,-14.9321,11.9342
-441,365,-14.697,-12.809,0,0,0,0,0,0,0,-1,783,659,-14.697,12.8089
-434,365,-5.45056,-3.98041,0,0,0,0,0,0,0,-1,790,659,-5.45055,3.98042
-427,365,-5.05377,-4.74689,0,0,0,0,0,0,0,-1,797,659,-5.05376,4.7469
-420,365,-4.58813,-3.16376,0,0,0,0,0,0,0,-1,804,659,-4.58816,3.16374
-413,365,0.141357,0.672729,0,0,0,0,0,0,0,-1,811,659,0.141365,-0.672714
-406,365,-1.75067,-0.934448,0,0,0,0,0,0,0,-1,818,659,-1.7507,0.934424
-399,365,-4.10242,-1.25439,0,0,0,0,0,0,0,-1,825,659,-4.10244,1.25438
-392,365,-7.46545,-0.779724,0,0,0,0,0,0,0,-1,832,659,-7.46543,0.779744
-385,365,-6.27875,-0.887573,0,0,0,0,0,0,0,-1,839,659,-6.27874,0.887545
-378,365,-5.34503,-0.263306,0,0,0,0,0,0,0,-1,846,659,-5.34504,0.263275
-371,365,0,0,0,0,0,0,0,0,0,-1,853,659,0,0
-364,365,0,0,0,0,0,0,0,0,0,-1,860,659,0,0
-357,365,0,0,0,0,0,0,0,0,0,-1,867,659,0,0
-350,365,0,0,0,0,0,0,0,0,0,-1,874,659,0,0
-343,365,0,0,0,0,0,0,0,0,0,-1,881,659,0,0
-336,365,0,0,0,0,0,0,0,0,0,-1,888,659,0,0
-329,365,0,0,0,0,0,0,0,0,0,-1,895,659,0,0
-322,365,0,0,0,0,0,0,0,0,0,-1,902,659,0,0
-315,365,0,0,0,0,0,0,0,0,0,-1,909,659,0,0
-308,365,0,0,0,0,0,0,0,0,0,-1,916,659,0,0
-301,365,0,0,0,0,0,0,0,0,0,-1,923,659,0,0
-294,365,0,0,0,0,0,0,0,0,0,-1,930,659,0,0
-287,365,0,0,0,0,0,0,0,0,0,-1,937,659,0,0
-280,365,0,0,0,0,0,0,0,0,0,-1,944,659,0,0
-273,365,0,0,0,0,0,0,0,0,0,-1,951,659,0,0
-266,365,0,0,0,0,0,0,0,0,0,-1,958,659,0,0
-259,365,0,0,0,0,0,0,0,0,0,-1,965,659,0,0
-252,365,0,0,0,0,0,0,0,0,0,-1,972,659,0,0
-245,365,0,0,0,0,0,0,0,0,0,-1,979,659,0,0
-238,365,0,0,0,0,0,0,0,0,0,-1,986,659,0,0
-231,365,0,0,0,0,0,0,0,0,0,-1,993,659,0,0
-224,365,0,0,0,0,0,0,0,0,0,-1,1000,659,0,0
-217,365,0,0,0,0,0,0,0,0,0,-1,1007,659,0,0
-210,365,0,0,0,0,0,0,0,0,0,-1,1014,659,0,0
-203,365,0,0,0,0,0,0,0,0,0,-1,1021,659,0,0
-196,365,0,0,0,0,0,0,0,0,0,-1,1028,659,0,0
-189,365,0,0,0,0,0,0,0,0,0,-1,1035,659,0,0
-182,365,0,0,0,0,0,0,0,0,0,-1,1042,659,0,0
-175,365,0,0,0,0,0,0,0,0,0,-1,1049,659,0,0
-168,365,0,0,0,0,0,0,0,0,0,-1,1056,659,0,0
-161,365,0,0,0,0,0,0,0,0,0,-1,1063,659,0,0
-154,365,0,0,0,0,0,0,0,0,0,-1,1070,659,0,0
-147,365,0,0,0,0,0,0,0,0,0,-1,1077,659,0,0
-140,365,0,0,0,0,0,0,0,0,0,-1,1084,659,0,0
-133,365,0,0,0,0,0,0,0,0,0,-1,1091,659,0,0
-126,365,0,0,0,0,0,0,0,0,0,-1,1098,659,0,0
-119,365,0,0,0,0,0,0,0,0,0,-1,1105,659,0,0
-112,365,0,0,0,0,0,0,0,0,0,-1,1112,659,0,0
-105,365,0,0,0,0,0,0,0,0,0,-1,1119,659,0,0
-98,365,0,0,0,0,0,0,0,0,0,-1,1126,659,0,0
-91,365,0,0,0,0,0,0,0,0,0,-1,1133,659,0,0
-84,365,0,0,0,0,0,0,0,0,0,-1,1140,659,0,0
-77,365,0,0,0,0,0,0,0,0,0,-1,1147,659,0,0
-70,365,0,0,0,0,0,0,0,0,0,-1,1154,659,0,0
-63,365,0,0,0,0,0,0,0,0,0,-1,1161,659,0,0
-56,365,0,0,0,0,0,0,0,0,0,-1,1168,659,0,0
-49,365,0,0,0,0,0,0,0,0,0,-1,1175,659,0,0
-42,365,0,0,0,0,0,0,0,0,0,-1,1182,659,0,0
-35,365,0,0,0,0,0,0,0,0,0,-1,1189,659,0,0
-28,365,0,0,0,0,0,0,0,0,0,-1,1196,659,0,0
-21,365,0,0,0,0,0,0,0,0,0,-1,1203,659,0,0
-14,365,0,0,0,0,0,0,0,0,0,-1,1210,659,0,0
-7,365,0,0,0,0,0,0,0,0,0,-1,1217,659,0,0
0,365,0,0,0,0,0,0,0,0,0,-1,1224,659,0,0
7,365,0,0,0,0,0,0,0,0,0,-1,1231,659,0,0
14,365,0,0,0,0,0,0,0,0,0,-1,1238,659,0,0
21,365,0,0,0,0,0,0,0,0,0,-1,1245,659,0,0
28,365,0,0,0,0,0,0,0,0,0,-1,1252,659,0,0
35,365,0,0,0,0,0,0,0,0,0,-1,1259,659,0,0
42,365,0,0,0,0,0,0,0,0,0,-1,1266,659,0,0
49,365,0,0,0,0,0,0,0,0,0,-1,1273,659,0,0
56,365,0,0,0,0,0,0,0,0,0,-1,1280,659,0,0
63,365,0,0,0,0,0,0,0,0,0,-1,1287,659,0,0
70,365,0,0,0,0,0,0,0,0,0,-1,1294,659,0,0
77,365,0,0,0,0,0,0,0,0,0,-1,1301,659,0,0
84,365,0,0,0,0,0,0,0,0,0,-1,1308,659,0,0
91,365,0,0,0,0,0,0,0,0,0,-1,1315,659,0,0
98,365,0,0,0,0,0,0,0,0,0,-1,1322,659,0,0
105,365,0,0,0,0,0,0,0,0,0,-1,1329,659,0,0
112,365,0,0,0,0,0,0,0,0,0,-1,1336,659,0,0
119,365,0,0,0,0,0,0,0,0,0,-1,1343,659,0,0
126,365,0,0,0,0,0,0,0,0,0,-1,1350,659,0,0
133,365,0,0,0,0,0,0,0,0,0,-1,1357,659,0,0
140,365,0,0,0,0,0,0,0,0,0,-1,1364,659,0,0
147,365,0,0,0,0,0,0,0,0,0,-1,1371,659,0,0
154,365,0,0,0,0,0,0,0,0,0,-1,1378,659,0,0
161,365,0,0,0,0,0,0,0,0,0,-1,1385,659,0,0
168,365,0,0,0,0,0,0,0,0,0,-1,1392,659,0,0
175,365,0,0,0,0,0,0,0,0,0,-1,1399,659,0,0
182,365,0,0,0,0,0,0,0,0,0,-1,1406,659,0,0
189,365,0,0,0,0,0,0,0,0,0,-1,1413,659,0,0
196,365,0,0,0,0,0,0,0,0,0,-1,1420,659,0,0
203,365,0,0,0,0,0,0,0,0,0,-1,1427,659,0,0
210,365,0,0,0,0,0,0,0,0,0,-1,1434,659,0,0
217,365,0,0,0,0,0,0,0,0,0,-1,1441,659,0,0
224,365,0,0,0,0,0,0,0,0,0,-1,1448,659,0,0
231,365,0,0,0,0,0,0,0,0,0,-1,1455,659,0,0
238,365,0,0,0,0,0,0,0,0,0,-1,1462,659,0,0
245,365,0,0,0,0,0,0,0,0,0,-1,1469,659,0,0
252,365,0,0,0,0,0,0,0,0,0,-1,1476,659,0,0
259,365,0,0,0,0,0,0,0,0,0,-1,1483,659,0,0
266,365,0,0,0,0,0,0,0,0,0,-1,1490,659,0,0
273,365,0,0,0,0,0,0,0,0,0,-1,1497,659,0,0
280,365,0,0,0,0,0,0,0,0,0,-1,1504,659,0,0
287,365,0,0,0,0,0,0,0,0,0,-1,1511,659,0,0
294,365,0,0,0,0,0,0,0,0,0,-1,1518,659,0,0
301,365,0,0,0,0,0,0,0,0,0,-1,1525,659,0,0
308,365,0,0,0,0,0,0,0,0,0,-1,1532,659,0,0
315,365,0,0,0,0,0,0,0,0,0,-1,1539,659,0,0
322,365,0,0,0,0,0,0,0,0,0,-1,1546,659,0,0
329,365,0,0,0,0,0,0,0,0,0,-1,1553,659,0,0
336,365,0,0,0,0,0,0,0,0,0,-1,1560,659,0,0
343,365,0,0,0,0,0,0,0,0,0,-1,1567,659,0,0
350,365,0,0,0,0,0,0,0,0,0,-1,1574,659,0,0
357,365,0,0,0,0,0,0,0,0,0,-1,1581,659,0,0
364,365,0,0,0,0,0,0,0,0,0,-1,1588,659,0,0
371,365,0,0,0,0,0,0,0,0,0,-1,1595,659,0,0
378,365,0,0,0,0,0,0,0,0,0,-1,1602,659,0,0
385,365,0,0,0,0,0,0,0,0,0,-1,1609,659,0,0
392,365,0,0,0,0,0,0,0,0,0,-1,1616,659,0,0
399,365,0,0,0,0,0,0,0,0,0,-1,1623,659,0,0
406,365,0,0,0,0,0,0,0,0,0,-1,1630,659,0,0
413,365,0,0,0,0,0,0,0,0,0,-1,1637,659,0,0
420,365,0,0,0,0,0,0,0,0,0,-1,1644,659,0,0
427,365,0,0,0,0,0,0,0,0,0,-1,1651,659,0,0
434,365,0,0,0,0,0,0,0,0,0,-1,1658,659,0,0
441,365,0,0,0,0,0,0,0,0,0,-1,1665,659,0,0
448,365,0,0,0,0,0,0,0,0,0,-1,1672,659,0,0
455,365,0,0,0,0,0,0,0,0,0,-1,1679,659,0,0
462,365,0,0,0,0,0,0,0,0,0,-1,1686,659,0,0
469,365,0,0,0,0,0,0,0,0,0,-1,1693,659,0,0
476,365,0,0,0,0,0,0,0,0,0,-1,1700,659,0,0
483,365,0,0,0,0,0,0,0,0,0,-1,1707,659,0,0
490,365,8.39551,0.471252,0,0,0,0,0,0,0,-1,1714,659,8.39551,-0.471241
497,365,9.89233,1.35394,0,0,0,0,0,0,0,-1,1721,659,9.89237,-1.35396
504,365,10.1414,1.18005,0,0,0,0,0,0,0,-1,1728,659,10.1413,-1.18004
511,365,10.5151,0.993896,0,0,0,0,0,0,0,-1,1735,659,10.5152,-0.993894
518,365,11.2029,0.398132,0,0,0,0,0,0,0,-1,1742,659,11.2029,-0.398136
525,365,15.5748,3.85303,0,0,0,0,0,0,0,-1,1749,659,15.5748,-3.85303
532,365,11.2446,1.00629,0,0,0,0,0,0,0,-1,1756,659,11.2446,-1.00631
539,365,12.6301,1.03204,0,0,0,0,0,0,0,-1,1763,659,12.6302,-1.03204
546,365,11.647,0.84198,0,0,0,0,0,0,0,-1,1770,659,11.6469,-0.841955
553,365,12.028,-0.558899,0,0,0,0,0,0,0,-1,1777,659,12.028,0.558873
560,365,14.5372,-4.55548,0,0,0,0,0,0,0,-1,1784,659,14.5373,4.55547
567,365,20.5676,-7.53888,0,0,0,0,0,0,0,-1,1791,659,20.5676,7.53887
574,365,26.7439,-10.2909,0,0,0,0,0,0,0,-1,1798,659,26.7439,10.2909
581,365,26.3755,-9.90448,0,0,0,0,0,0,0,-1,1805,659,26.3755,9.90448
588,365,26.4197,-9.15985,0.00115398,0.00073949,0.000294795,0.00130709,0.000586383,0.479023,0.000755976,0.0244316,1812,659,26.4197,9.15986
595,365,26.4218,-8.43689,0.000979239,0.000886462,0.000364981,0.00130077,0.000564933,0.722188,0.000753156,0.0129904,1819,659,26.4218,8.43687
602,365,26.387,-7.75311,0.00108968,0.00114076,0.000573038,0.00168883,0.000541613,0.807666,0.000995721,0.0146036,1826,659,26.387,7.75314
609,365,26.3116,-7.07587,0.00134819,0.00148995,0.000885472,0.00230737,0.000530765,0.825335,0.00139539,0.0165214,1833,659,26.3116,7.07589
616,365,26.3198,-6.37537,0.00147837,0.00176482,0.00107061,0.00270174,0.000541446,0.851893,0.00165055,0.0181996,1840,659,26.3199,6.37534
623,365,26.332,-5.71918,0.00159035,0.00205775,0.00129549,0.00314045,0.000507649,0.874637,0.00194661,0.0114957,1847,659,26.332,5.71919
630,365,26.2848,-5.06677,0.00134824,0.00232261,0.00138941,0.00330778,0.000363077,0.954021,0.00209468,0.0158544,1854,659,26.2848,5.06679
637,365,26.2556,-4.41223,0.000824961,0.00244612,0.001308,0.00317434,9.67431e-05,1.06279,0.00208473,0.0213652,1861,659,26.2557,4.41225
644,365,26.2529,-3.73083,-0.000244112,0.0024443,0.000996931,0.00277364,-0.000573454,1.25173,0.00206694,0.0253758,1868,659,26.2529,3.73086
651,365,26.3042,-3.00781,0,0,0,0,0,0,0,-1,1875,659,26.3042,3.00781
658,365,24.745,-2.13275,0,0,0,0,0,0,0,-1,1882,659,24.745,2.13277
665,365,14.0961,0.769043,0,0,0,0,0,0,0,-1,1889,659,14.0961,-0.769063
672,365,10.0579,2.15088,0,0,0,0,0,0,0,-1,1896,659,10.0579,-2.15088
679,365,10.9718,2.19208,0,0,0,0,0,0,0,-1,1903,659,10.9718,-2.19211
686,365,12.2134,2.17108,0,0,0,0,0,0,0,-1,1910,659,12.2134,-2.17109
693,365,13.7141,1.98279,0,0,0,0,0,0,0,-1,1917,659,13.7141,-1.98278
700,365,0,0,0,0,0,0,0,0,0,-1,1924,659,0,0
707,365,0,0,0,0,0,0,0,0,0,-1,1931,659,0,0
714,365,0,0,0,0,0,0,0,0,0,-1,1938,659,0,0
721,365,0,0,0,0,0,0,0,0,0,-1,1945,659,0,0
728,365,0,0,0,0,0,0,0,0,0,-1,1952,659,0,0
735,365,0,0,0,0,0,0,0,0,0,-1,1959,659,0,0
742,365,0,0,0,0,0,0,0,0,0,-1,1966,659,0,0
749,365,0,0,0,0,0,0,0,0,0,-1,1973,659,0,0
756,365,0,0,0,0,0,0,0,0,0,-1,1980,659,0,0
763,365,0,0,0,0,0,0,0,0,0,-1,1987,659,0,0
770,365,0,0,0,0,0,0,0,0,0,-1,1994,659,0,0
777,365,0,0,0,0,0,0,0,0,0,-1,2001,659,0,0
784,365,0,0,0,0,0,0,0,0,0,-1,2008,659,0,0
791,365,0,0,0,0,0,0,0,0,0,-1,2015,659,0,0
798,365,0,0,0,0,0,0,0,0,0,-1,2022,659,0,0
805,365,0,0,0,0,0,0,0,0,0,-1,2029,659,0,0
812,365,0,0,0,0,0,0,0,0,0,-1,2036,659,0,0
-700,358,0,0,0,0,0,0,0,0,0,-1,524,666,0,0
-693,358,0,0,0,0,0,0,0,0,0,-1,531,666,0,0
-686,358,0,0,0,0,0,0,0,0,0,-1,538,666,0,0
-679,358,0,0,0,0,0,0,0,0,0,-1,545,666,0,0
-672,358,0,0,0,0,0,0,0,0,0,-1,552,666,0,0
-665,358,0,0,0,0,0,0,0,0,0,-1,559,666,0,0
-658,358,0,0,0,0,0,0,0,0,0,-1,566,666,0,0
-651,358,0,0,0,0,0,0,0,0,0,-1,573,666,0,0
-644,358,0,0,0,0,0,0,0,0,0,-1,580,666,0,0
-637,358,0,0,0,0,0,0,0,0,0,-1,587,666,0,0
-630,358,0,0,0,0,0,0,0,0,0,-1,594,666,0,0
-623,358,0,0,0,0,0,0,0,0,0,-1,601,666,0,0
-616,358,0,0,0,0,0,0,0,0,0,-1,608,666,0,0
-609,358,0,0,0,0,0,0,0,0,0,-1,615,666,0,0
-602,358,0,0,0,0,0,0,0,0,0,-1,622,666,0,0
-595,358,0,0,0,0,0,0,0,0,0,-1,629,666,0,0
-588,358,0,0,0,0,0,0,0,0,0,-1,636,666,0,0
-581,358,-8.31616,1.61993,0,0,0,0,0,0,0,-1,643,666,-8.31614,-1.61993
-574,358,-8.22406,1.75385,0,0,0,0,0,0,0,-1,650,666,-8.22408,-1.75383
-567,358,-8.14215,1.91577,0,0,0,0,0,0,0,-1,657,666,-8.14214,-1.91579
-560,358,-10.6086,2.18872,0,0,0,0,0,0,0,-1,664,666,-10.6086,-2.18873
-553,358,-13.4767,1.09552,0,0,0,0,0,0,0,-1,671,666,-13.4767,-1.09551
-546,358,-13.3743,-0.185059,0,0,0,0,0,0,0,-1,678,666,-13.3743,0.185037
-539,358,-9.43884,-2.04785,0,0,0,0,0,0,0,-1,685,666,-9.43884,2.04785
-532,358,-12.4141,-2.36572,0,0,0,0,0,0,0,-1,692,666,-12.4141,2.3657
-525,358,-12.731,-3.88031,0,0,0,0,0,0,0,-1,699,666,-12.731,3.88029
-518,358,-15.4724,-5.34491,0,0,0,0,0,0,0,-1,706,666,-15.4724,5.34488
-511,358,-15.4792,-5.98029,0.000792397,0.00208707,-0.000810106,0.00247671,0.00040276,-1.12249,0.00153461,0.0164146,713,666,-15.4792,5.98031
-504,358,-15.49,-6.61932,0.00109495,0.0016515,-0.000801607,0.00222176,0.000524689,-0.952463,0.00134094,0.0122263,720,666,-15.49,6.61931
-497,358,-15.4996,-7.30426,0.00136667,0.00123814,-0.000765575,0.00207067,0.000534133,-0.743524,0.00124132,0.011669,727,666,-15.4996,7.30426
-490,358,-15.5232,-7.95581,0.00157104,0.000906974,-0.000750645,0.00205981,0.000418206,-0.577169,0.00125721,0.0113696,734,666,-15.5232,7.9558
-483,358,-15.5576,-8.58569,0.00186642,0.000633493,-0.000754879,0.00222457,0.000275345,-0.442995,0.00140032,0.0111963,741,666,-15.5576,8.58567
-476,358,-15.5319,-9.21582,0.00226234,0.000444145,-0.000859863,0.00260457,0.000101915,-0.378786,0.00170343,0.014188,748,666,-15.5319,9.21581
-469,358,-15.5854,-9.86884,0.00265261,0.000331472,-0.00102375,0.00303961,-5.55315e-05,-0.361422,0.00204517,0.0172029,755,666,-15.5854,9.86881
-462,358,-15.6482,-10.5146,0.00315433,0.000311294,-0.00126494,0.00363565,-0.000170024,-0.36359,0.00248238,0.0189702,762,666,-15.6482,10.5146
-455,358,-15.5429,-11.1917,0.00385511,0.000160916,-0.00155605,0.00442318,-0.00040716,-0.350041,0.00309345,0.0471101,769,666,-15.5429,11.1917
-448,358,-15.3451,-12.0422,0,0,0,0,0,0,0,-1,776,666,-15.3451,12.0422
-441,358,-5.56293,-3.98041,0,0,0,0,0,0,0,-1,783,666,-5.56291,3.98043
-434,358,-5.21558,-4.43127,0,0,0,0,0,0,0,-1,790,666,-5.21559,4.43125
-427,358,-3.56189,-3.15729,0,0,0,0,0,0,0,-1,797,666,-3.56192,3.15729
-420,358,0.200195,1.08234,0,0,0,0,0,0,0,-1,804,666,0.200174,-1.08231
-413,358,0.0325317,0.161072,0,0,0,0,0,0,0,-1,811,666,0.0325501,-0.161098
-406,358,-3.85846,0.753113,0,0,0,0,0,0,0,-1,818,666,-3.85846,-0.753129
-399,358,-1.31213,0.190735,0,0,0,0,0,0,0,-1,825,666,-1.31215,-0.190763
-392,358,-3.73914,-0.832214,0,0,0,0,0,0,0,-1,832,666,-3.73915,0.832202
-385,358,-5.95178,-1.69141,0,0,0,0,0,0,0,-1,839,666,-5.9518,1.69143
-378,358,0,0,0,0,0,0,0,0,0,-1,846,666,0,0
-371,358,0,0,0,0,0,0,0,0,0,-1,853,666,0,0
-364,358,0,0,0,0,0,0,0,0,0,-1,860,666,0,0
-357,358,0,0,0,0,0,0,0,0,0,-1,867,666,0,0
-350,358,0,0,0,0,0,0,0,0,0,-1,874,666,0,0
-343,358,0,0,0,0,0,0,0,0,0,-1,881,666,0,0
-336,358,0,0,0,0,0,0,0,0,0,-1,888,666,0,0
-329,358,0,0,0,0,0,0,0,0,0,-1,895,666,0,0
-322,358,0,0,0,0,0,0,0,0,0,-1,902,666,0,0
-315,358,0,0,0,0,0,0,0,0,0,-1,909,666,0,0
-308,358,0,0,0,0,0,0,0,0,0,-1,916,666,0,0
-301,358,0,0,0,0,0,0,0,0,0,-1,923,666,0,0
-294,358,0,0,0,0,0,0,0,0,0,-1,930,666,0,0
-287,358,0,0,0,0,0,0,0,0,0,-1,937,666,0,0
-280,358,0,0,0,0,0,0,0,0,0,-1,944,666,0,0
-273,358,0,0,0,0,0,0,0,0,0,-1,951,666,0,0
-266,358,0,0,0,0,0,0,0,0,0,-1,958,666,0,0
-259,358,0,0,0,0,0,0,0,0,0,-1,965,666,0,0
-252,358,0,0,0,0,0,0,0,0,0,-1,972,666,0,0
-245,358,0,0,0,0,0,0,0,0,0,-1,979,666,0,0
-238,358,0,0,0,0,0,0,0,0,0,-1,986,666,0,0
-231,358,0,0,0,0,0,0,0,0,0,-1,993,666,0,0
-224,358,0,0,0,0,0,0,0,0,0,-1,1000,666,0,0
-217,358,0,0,0,0,0,0,0,0,0,-1,1007,666,0,0
-210,358,0,0,0,0,0,0,0,0,0,-1,1014,666,0,0
-203,358,0,0,0,0,0,0,0,0,0,-1,1021,666,0,0
-196,358,0,0,0,0,0,0,0,0,0,-1,1028,666,0,0
-189,358,0,0,0,0,0,0,0,0,0,-1,1035,666,0,0
-182,358,0,0,0,0,0,0,0,0,0,-1,1042,666,0,0
-175,358,0,0,0,0,0,0,0,0,0,-1,1049,666,0,0
-168,358,0,0,0,0,0,0,0,0,0,-1,1056,666,0,0
-161,358,0,0,0,0,0,0,0,0,0,-1,1063,666,0,0
-154,358,0,0,0,0,0,0,0,0,0,-1,1070,666,0,0
-147,358,0,0,0,0,0,0,0,0,0,-1,1077,666,0,0
-140,358,0,0,0,0,0,0,0,0,0,-1,1084,666,0,0
-133,358,0,0,0,0,0,0,0,0,0,-1,1091,666,0,0
-126,358,0,0,0,0,0,0,0,0,0,-1,1098,666,0,0
-119,358,0,0,0,0,0,0,0,0,0,-1,1105,666,0,0
-112,358,0,0,0,0,0,0,0,0,0,-1,1112,666,0,0
-105,358,0,0,0,0,0,0,0,0,0,-1,1119,666,0,0
-98,358,0,0,0,0,0,0,0,0,0,-1,1126,666,0,0
-91,358,0,0,0,0,0,0,0,0,0,-1,1133,666,0,0
-84,358,0,0,0,0,0,0,0,0,0,-1,1140,666,0,0
-77,358,0,0,0,0,0,0,0,0,0,-1,1147,666,0,0
-70,358,0,0,0,0,0,0,0,0,0,-1,1154,666,0,0
-63,358,0,0,0,0,0,0,0,0,0,-1,1161,666,0,0
-56,358,0,0,0,0,0,0,0,0,0,-1,1168,666,0,0
-49,358,0,0,0,0,0,0,0,0,0,-1,1175,666,0,0
-42,358,0,0,0,0,0,0,0,0,0,-1,1182,666,0,0
-35,358,0,0,0,0,0,0,0,0,0,-1,1189,666,0,0
-28,358,0,0,0,0,0,0,0,0,0,-1,1196,666,0,0
-21,358,0,0,0,0,0,0,0,0,0,-1,1203,666,0,0
-14,358,0,0,0,0,0,0,0,0,0,-1,1210,666,0,0
-7,358,0,0,0,0,0,0,0,0,0,-1,1217,666,0,0
0,358,0,0,0,0,0,0,0,0,0,-1,1224,666,0,0
7,358,0,0,0,0,0,0,0,0,0,-1,1231,666,0,0
14,358,0,0,0,0,0,0,0,0,0,-1,1238,666,0,0
21,358,0,0,0,0,0,0,0,0,0,-1,1245,666,0,0
28,358,0,0,0,0,0,0,0,0,0,-1,1252,666,0,0
35,358,0,0,0,0,0,0,0,0,0,-1,1259,666,0,0
42,358,0,0,0,0,0,0,0,0,0,-1,1266,666,0,0
49,358,0,0,0,0,0,0,0,0,0,-1,1273,666,0,0
56,358,0,0,0,0,0,0,0,0,0,-1,1280,666,0,0
63,358,0,0,0,0,0,0,0,0,0,-1,1287,666,0,0
70,358,0,0,0,0,0,0,0,0,0,-1,1294,666,0,0
77,358,0,0,0,0,0,0,0,0,0,-1,1301,666,0,0
84,358,0,0,0,0,0,0,0,0,0,-1,1308,666,0,0
91,358,0,0,0,0,0,0,0,0,0,-1,1315,666,0,0
98,358,0,0,0,0,0,0,0,0,0,-1,1322,666,0,0
105,358,0,0,0,0,0,0,0,0,0,-1,1329,666,0,0
112,358,0,0,0,0,0,0,0,0,0,-1,1336,666,0,0
119,358,0,0,0,0,0,0,0,0,0,-1,1343,666,0,0
126,358,0,0,0,0,0,0,0,0,0,-1,1350,666,0,0
133,358,0,0,0,0,0,0,0,0,0,-1,1357,666,0,0
140,358,0,0,0,0,0,0,0,0,0,-1,1364,666,0,0
147,358,0,0,0,0,0,0,0,0,0,-1,1371,666,0,0
154,358,0,0,0,0,0,0,0,0,0,-1,1378,666,0,0
161,358,0,0,0,0,0,0,0,0,0,-1,1385,666,0,0
168,358,0,0,0,0,0,0,0,0,0,-1,1392,666,0,0
175,358,0,0,0,0,0,0,0,0,0,-1,1399,666,0,0
182,358,0,0,0,0,0,0,0,0,0,-1,1406,666,0,0
189,358,0,0,0,0,0,0,0,0,0,-1,1413,666,0,0
196,358,0,0,0,0,0,0,0,0,0,-1,1420,666,0,0
203,358,0,0,0,0,0,0,0,0,0,-1,1427,666,0,0
210,358,0,0,0,0,0,0,0,0,0,-1,1434,666,0,0
217,358,0,0,0,0,0,0,0,0,0,-1,1441,666,0,0
224,358,0,0,0,0,0,0,0,0,0,-1,1448,666,0,0
231,358,0,0,0,0,0,0,0,0,0,-1,1455,666,0,0
238,358,0,0,0,0,0,0,0,0,0,-1,1462,666,0,0
245,358,0,0,0,0,0,0,0,0,0,-1,1469,666,0,0
252,358,0,0,0,0,0,0,0,0,0,-1,1476,666,0,0
259,358,0,0,0,0,0,0,0,0,0,-1,1483,666,0,0
266,358,0,0,0,0,0,0,0,0,0,-1,1490,666,0,0
273,358,0,0,0,0,0,0,0,0,0,-1,1497,666,0,0
280,358,0,0,0,0,0,0,0,0,0,-1,1504,666,0,0
287,358,0,0,0,0,0,0,0,0,0,-1,1511,666,0,0
294,358,0,0,0,0,0,0,0,0,0,-1,1518,666,0,0
301,358,0,0,0,0,0,0,0,0,0,-1,1525,666,0,0
308,358,0,0,0,0,0,0,0,0,0,-1,1532,666,0,0
315,358,0,0,0,0,0,0,0,0,0,-1,1539,666,0,0
322,358,0,0,0,0,0,0,0,0,0,-1,1546,666,0,0
329,358,0,0,0,0,0,0,0,0,0,-1,1553,666,0,0
336,358,0,0,0,0,0,0,0,0,0,-1,1560,666,0,0
343,358,0,0,0,0,0,0,0,0,0,-1,1567,666,0,0
350,358,0,0,0,0,0,0,0,0,0,-1,1574,666,0,0
357,358,0,0,0,0,0,0,0,0,0,-1,1581,666,0,0
364,358,0,0,0,0,0,0,0,0,0,-1,1588,666,0,0
371,358,0,0,0,0,0,0,0,0,0,-1,1595,666,0,0
378,358,0,0,0,0,0,0,0,0,0,-1,1602,666,0,0
385,358,0,0,0,0,0,0,0,0,0,-1,1609,666,0,0
392,358,0,0,0,0,0,0,0,0,0,-1,1616,666,0,0
399,358,0,0,0,0,0,0,0,0,0,-1,1623,666,0,0
406,358,0,0,0,0,0,0,0,0,0,-1,1630,666,0,0
413,358,0,0,0,0,0,0,0,0,0,-1,1637,666,0,0
420,358,0,0,0,0,0,0,0,0,0,-1,1644,666,0,0
427,358,0,0,0,0,0,0,0,0,0,-1,1651,666,0,0
434,358,0,0,0,0,0,0,0,0,0,-1,1658,666,0,0
441,358,0,0,0,0,0,0,0,0,0,-1,1665,666,0,0
448,358,0,0,0,0,0,0,0,0,0,-1,1672,666,0,0
455,358,0,0,0,0,0,0,0,0,0,-1,1679,666,0,0
462,358,0,0,0,0,0,0,0,0,0,-1,1686,666,0,0
469,358,0,0,0,0,0,0,0,0,0,-1,1693,666,0,0
476,358,0,0,0,0,0,0,0,0,0,-1,1700,666,0,0
483,358,0,0,0,0,0,0,0,0,0,-1,1707,666,0,0
490,358,0,0,0,0,0,0,0,0,0,-1,1714,666,0,0
497,358,8.57239,1.1322,0,0,0,0,0,0,0,-1,1721,666,8.57234,-1.13219
504,358,10.5972,0.832947,0,0,0,0,0,0,0,-1,1728,666,10.5972,-0.832968
511,358,10.6873,0.868469,0,0,0,0,0,0,0,-1,1735,666,10.6872,-0.868484
518,358,16.5884,2.34894,0,0,0,0,0,0,0,-1,1742,666,16.5884,-2.34894
525,358,15.7626,3.65344,0,0,0,0,0,0,0,-1,1749,666,15.7626,-3.65342
532,358,14.9368,4.95789,0,0,0,0,0,0,0,-1,1756,666,14.9367,-4.9579
539,358,15.1597,3.42694,0,0,0,0,0,0,0,-1,1763,666,15.1597,-3.42692
546,358,12.3792,1.53558,0,0,0,0,0,0,0,-1,1770,666,12.3792,-1.5356
553,358,11.6584,1.26172,0,0,0,0,0,0,0,-1,1777,666,11.6585,-1.26175
560,358,10.8234,1.43042,0,0,0,0,0,0,0,-1,1784,666,10.8233,-1.43041
567,358,10.1333,-0.955139,0,0,0,0,0,0,0,-1,1791,666,10.1333,0.955132
574,358,14.7886,-2.69293,0,0,0,0,0,0,0,-1,1798,666,14.7885,2.6929
581,358,20.1738,-6.76135,0,0,0,0,0,0,0,-1,1805,666,20.1738,6.76137
588,358,27.0935,-9.15161,0,0,0,0,0,0,0,-1,1812,666,27.0935,9.15158
595,358,27.0956,-8.4325,0.000892082,0.000607138,0.000233236,0.00102292,0.000476303,0.511219,0.000591047,0.016702,1819,666,27.0956,8.43247
602,358,27.0321,-7.70801,0.000896436,0.000782922,0.000329129,0.00117367,0.000505692,0.700015,0.000679772,0.0128873,1826,666,27.0321,7.70799
609,358,26.9664,-7.0517,0.00115239,0.00104636,0.000591745,0.00169349,0.000505262,0.740719,0.00100389,0.0179696,1833,666,26.9664,7.0517
616,358,26.9551,-6.3623,0.00128111,0.00127189,0.000769109,0.00204562,0.000507376,0.782401,0.00123001,0.0167438,1840,666,26.9551,6.36231
623,358,27.0016,-5.70325,0.00127151,0.00146272,0.000903837,0.00227599,0.000458234,0.838092,0.00138999,0.0143984,1847,666,27.0016,5.70323
630,358,26.9268,-5.07465,0.000893305,0.00164908,0.00093237,0.00227723,0.000265153,0.97793,0.00143794,0.0189873,1854,666,26.9268,5.07464
637,358,26.8334,-4.43866,0.00021309,0.001724,0.000787198,0.00205959,-0.000122507,1.16781,0.00141567,0.0251535,1861,666,26.8334,4.43867
644,358,26.8486,-3.78613,-0.000960796,0.00165909,0.000413185,0.00172271,-0.00102441,1.41802,0.00160304,0.0195839,1868,666,26.8487,3.78611
651,358,27.0378,-2.96552,-0.00280459,0.00156805,-0.000209811,0.00157809,-0.00281464,-1.52296,0.00256942,0.0427503,1875,666,27.0378,2.96551
658,358,26.804,-2.09961,0,0,0,0,0,0,0,-1,1882,666,26.8039,2.09958
665,358,25.9476,-1.54382,0,0,0,0,0,0,0,-1,1889,666,25.9476,1.54382
672,358,12.4299,1.47272,0,0,0,0,0,0,0,-1,1896,666,12.4299,-1.4727
679,358,12.1294,2.19702,0,0,0,0,0,0,0,-1,1903,666,12.1294,-2.19703
686,358,11.9557,2.2002,0,0,0,0,0,0,0,-1,1910,666,11.9557,-2.20021
693,358,13.188,2.52203,0,0,0,0,0,0,0,-1,1917,666,13.188,-2.52202
700,358,0,0,0,0,0,0,0,0,0,-1,1924,666,0,0
707,358,0,0,0,0,0,0,0,0,0,-1,1931,666,0,0
714,358,0,0,0,0,0,0,0,0,0,-1,1938,666,0,0
721,358,0,0,0,0,0,0,0,0,0,-1,1945,666,0,0
728,358,0,0,0,0,0,0,0,0,0,-1,1952,666,0,0
735,358,0,0,0,0,0,0,0,0,0,-1,1959,666,0,0
742,358,0,0,0,0,0,0,0,0,0,-1,1966,666,0,0
749,358,0,0,0,0,0,0,0,0,0,-1,1973,666,0,0
756,358,0,0,0,0,0,0,0,0,0,-1,1980,666,0,0
763,358,0,0,0,0,0,0,0,0,0,-1,1987,666,0,0
770,358,0,0,0,0,0,0,0,0,0,-1,1994,666,0,0
777,358,0,0,0,0,0,0,0,0,0,-1,2001,666,0,0
784,358,0,0,0,0,0,0,0,0,0,-1,2008,666,0,0
791,358,0,0,0,0,0,0,0,0,0,-1,2015,666,0,0
798,358,0,0,0,0,0,0,0,0,0,-1,2022,666,0,0
805,358,0,0,0,0,0,0,0,0,0,-1,2029,666,0,0
812,358,0,0,0,0,0,0,0,0,0,-1,2036,666,0,0
-700,351,0,0,0,0,0,0,0,0,0,-1,524,673,0,0
-693,351,0,0,0,0,0,0,0,0,0,-1,531,673,0,0
-686,351,0,0,0,0,0,0,0,0,0,-1,538,673,0,0
-679,351,0,0,0,0,0,0,0,0,0,-1,545,673,0,0
-672,351,0,0,0,0,0,0,0,0,0,-1,552,673,0,0
-665,351,0,0,0,0,0,0,0,0,0,-1,559,673,0,0
-658,351,0,0,0,0,0,0,0,0,0,-1,566,673,0,0
-651,351,0,0,0,0,0,0,0,0,0,-1,573,673,0,0
-644,351,0,0,0,0,0,0,0,0,0,-1,580,673,0,0
-637,351,0,0,0,0,0,0,0,0,0,-1,587,673,0,0
-630,351,0,0,0,0,0,0,0,0,0,-1,594,673,0,0
-623,351,0,0,0,0,0,0,0,0,0,-1,601,673,0,0
-616,351,0,0,0,0,0,0,0,0,0,-1,608,673,0,0
-609,351,0,0,0,0,0,0,0,0,0,-1,615,673,0,0
-602,351,0,0,0,0,0,0,0,0,0,-1,622,673,0,0
-595,351,0,0,0,0,0,0,0,0,0,-1,629,673,0,0
-588,351,0,0,0,0,0,0,0,0,0,-1,636,673,0,0
-581,351,-9.0647,1.71906,0,0,0,0,0,0,0,-1,643,673,-9.06472,-1.71908
-574,351,-8.23584,2.64764,0,0,0,0,0,0,0,-1,650,673,-8.23584,-2.64764
-567,351,-10.8027,4.56836,0,0,0,0,0,0,0,-1,657,673,-10.8027,-4.56839
-560,351,-14.2001,2.17084,0,0,0,0,0,0,0,-1,664,673,-14.2002,-2.17086
-553,351,-13.4979,0.779541,0,0,0,0,0,0,0,-1,671,673,-13.4978,-0.779519
-546,351,-14.0065,0.73645,0,0,0,0,0,0,0,-1,678,673,-14.0065,-0.736473
-539,351,-12.8123,-1.46393,0,0,0,0,0,0,0,-1,685,673,-12.8123,1.46395
-532,351,-16.0273,-3.98181,0,0,0,0,0,0,0,-1,692,673,-16.0273,3.98182
-525,351,-16.1841,-4.65613,0,0,0,0,0,0,0,-1,699,673,-16.1842,4.65615
-518,351,-16.1165,-5.26575,0.000418959,0.00195087,-0.000342726,0.00202406,0.000345779,-1.36043,0.00125015,0.020844,706,673,-16.1165,5.26575
-511,351,-16.1045,-5.9386,0.000819861,0.00154075,-0.000472538,0.00177463,0.000585989,-1.11122,0.00104409,0.011781,713,673,-16.1045,5.93858
-504,351,-16.1282,-6.59778,0.00111334,0.00113084,-0.000495777,0.00161795,0.000626238,-0.794222,0.000942032,0.0117359,720,673,-16.1282,6.59778
-497,351,-16.1508,-7.25421,0.00139094,0.000773391,-0.00050023,0.00167002,0.000494311,-0.50889,0.000990577,0.0118963,727,673,-16.1508,7.25424
-490,351,-16.1852,-7.90399,0.00161998,0.000501124,-0.000526167,0.00182855,0.000292561,-0.377384,0.00113416,0.0115338,734,673,-16.1853,7.90396
-483,351,-16.2075,-8.54492,0.00196433,0.000306158,-0.0005831,0.00214885,0.000121643,-0.30647,0.00139379,0.0131205,741,673,-16.2075,8.54495
-476,351,-16.2529,-9.17987,0.0023498,0.000195542,-0.000718883,0.00256766,-2.23197e-05,-0.294257,0.00171926,0.0115767,748,673,-16.2529,9.17987
-469,351,-16.2724,-9.80176,0.00278988,0.000213494,-0.000974321,0.00311685,-0.000113473,-0.323775,0.00211674,0.0139715,755,673,-16.2724,9.80178
-462,351,-16.2654,-10.4965,0.00347058,0.000346647,-0.00136686,0.0039842,-0.00016697,-0.35944,0.0027135,0.0331235,762,673,-16.2654,10.4964
-455,351,-15.9714,-11.3177,0,0,0,0,0,0,0,-1,769,673,-15.9714,11.3177
-448,351,-6.61456,-4.38654,0,0,0,0,0,0,0,-1,776,673,-6.61456,4.38654
-441,351,-4.31567,-2.3009,0,0,0,0,0,0,0,-1,783,673,-4.31565,2.30089
-434,351,-3.81708,-2.28003,0,0,0,0,0,0,0,-1,790,673,-3.81706,2.28006
-427,351,-2.05157,-2.7785,0,0,0,0,0,0,0,-1,797,673,-2.05157,2.77848
-420,351,-1.06989,-2.43665,0,0,0,0,0,0,0,-1,804,673,-1.06991,2.43663
-413,351,-0.392334,-2.06671,0,0,0,0,0,0,0,-1,811,673,-0.392363,2.06672
-406,351,-1.86316,-2.58105,0,0,0,0,0,0,0,-1,818,673,-1.86313,2.58106
-399,351,1.00952,-1.53455,0,0,0,0,0,0,0,-1,825,673,1.00954,1.53457
-392,351,-1.02197,0.877136,0,0,0,0,0,0,0,-1,832,673,-1.02195,-0.877143
-385,351,-1.47205,1.04437,0,0,0,0,0,0,0,-1,839,673,-1.47207,-1.04435
-378,351,0,0,0,0,0,0,0,0,0,-1,846,673,0,0
-371,351,0,0,0,0,0,0,0,0,0,-1,853,673,0,0
-364,351,0,0,0,0,0,0,0,0,0,-1,860,673,0,0
-357,351,0,0,0,0,0,0,0,0,0,-1,867,673,0,0
-350,351,0,0,0,0,0,0,0,0,0,-1,874,673,0,0
-343,351,0,0,0,0,0,0,0,0,0,-1,881,673,0,0
-336,351,0,0,0,0,0,0,0,0,0,-1,888,673,0,0
-329,351,0,0,0,0,0,0,0,0,0,-1,895,673,0,0
-322,351,0,0,0,0,0,0,0,0,0,-1,902,673,0,0
-315,351,0,0,0,0,0,0,0,0,0,-1,909,673,0,0
-308,351,0,0,0,0,0,0,0,0,0,-1,916,673,0,0
-301,351,0,0,0,0,0,0,0,0,0,-1,923,673,0,0
-294,351,0,0,0,0,0,0,0,0,0,-1,930,673,0,0
-287,351,0,0,0,0,0,0,0,0,0,-1,937,673,0,0
-280,351,0,0,0,0,0,0,0,0,0,-1,944,673,0,0
-273,351,0,0,0,0,0,0,0,0,0,-1,951,673,0,0
-266,351,0,0,0,0,0,0,0,0,0,-1,958,673,0,0
-259,351,0,0,0,0,0,0,0,0,0,-1,965,673,0,0
-252,351,0,0,0,0,0,0,0,0,0,-1,972,673,0,0
-245,351,0,0,0,0,0,0,0,0,0,-1,979,673,0,0
-238,351,0,0,0,0,0,0,0,0,0,-1,986,673,0,0
-231,351,0,0,0,0,0,0,0,0,0,-1,993,673,0,0
-224,351,0,0,0,0,0,0,0,0,0,-1,1000,673,0,0
-217,351,0,0,0,0,0,0,0,0,0,-1,1007,673,0,0
-210,351,0,0,0,0,0,0,0,0,0,-1,1014,673,0,0
-203,351,0,0,0,0,0,0,0,0,0,-1,1021,673,0,0
-196,351,0,0,0,0,0,0,0,0,0,-1,1028,673,0,0
-189,351,0,0,0,0,0,0,0,0,0,-1,1035,673,0,0
-182,351,0,0,0,0,0,0,0,0,0,-1,1042,673,0,0
-175,351,0,0,0,0,0,0,0,0,0,-1,1049,673,0,0
-168,351,0,0,0,0,0,0,0,0,0,-1,1056,673,0,0
-161,351,0,0,0,0,0,0,0,0,0,-1,1063,673,0,0
-154,351,0,0,0,0,0,0,0,0,0,-1,1070,673,0,0
-147,351,0,0,0,0,0,0,0,0,0,-1,1077,673,0,0
-140,351,0,0,0,0,0,0,0,0,0,-1,1084,673,0,0
-133,351,0,0,0,0,0,0,0,0,0,-1,1091,673,0,0
-126,351,0,0,0,0,0,0,0,0,0,-1,1098,673,0,0
-119,351,0,0,0,0,0,0,0,0,0,-1,1105,673,0,0
-112,351,0,0,0,0,0,0,0,0,0,-1,1112,673,0,0
-105,351,0,0,0,0,0,0,0,0,0,-1,1119,673,0,0
-98,351,0,0,0,0,0,0,0,0,0,-1,1126,673,0,0
-91,351,0,0,0,0,0,0,0,0,0,-1,1133,673,0,0
-84,351,0,0,0,0,0,0,0,0,0,-1,1140,673,0,0
-77,351,0,0,0,0,0,0,0,0,0,-1,1147,673,0,0
-70,351,0,0,0,0,0,0,0,0,0,-1,1154,673,0,0
-63,351,0,0,0,0,0,0,0,0,0,-1,1161,673,0,0
-56,351,0,0,0,0,0,0,0,0,0,-1,1168,673,0,0
-49,351,0,0,0,0,0,0,0,0,0,-1,1175,673,0,0
-42,351,0,0,0,0,0,0,0,0,0,-1,1182,673,0,0
-35,351,0,0,0,0,0,0,0,0,0,-1,1189,673,0,0
-28,351,0,0,0,0,0,0,0,0,0,-1,1196,673,0,0
-21,351,0,0,0,0,0,0,0,0,0,-1,1203,673,0,0
-14,351,0,0,0,0,0,0,0,0,0,-1,1210,673,0,0
-7,351,0,0,0,0,0,0,0,0,0,-1,1217,673,0,0
0,351,0,0,0,0,0,0,0,0,0,-1,1224,673,0,0
7,351,0,0,0,0,0,0,0,0,0,-1,1231,673,0,0
14,351,0,0,0,0,0,0,0,0,0,-1,1238,673,0,0
21,351,0,0,0,0,0,0,0,0,0,-1,1245,673,0,0
28,351,0,0,0,0,0,0,0,0,0,-1,1252,673,0,0
35,351,0,0,0,0,0,0,0,0,0,-1,1259,673,0,0
42,351,0,0,0,0,0,0,0,0,0,-1,1266,673,0,0
49,351,0,0,0,0,0,0,0,0,0,-1,1273,673,0,0
56,351,0,0,0,0,0,0,0,0,0,-1,1280,673,0,0
63,351,0,0,0,0,0,0,0,0,0,-1,1287,673,0,0
70,351,0,0,0,0,0,0,0,0,0,-1,1294,673,0,0
77,351,0,0,0,0,0,0,0,0,0,-1,1301,673,0,0
84,351,0,0,0,0,0,0,0,0,0,-1,1308,673,0,0
91,351,0,0,0,0,0,0,0,0,0,-1,1315,673,0,0
98,351,0,0,0,0,0,0,0,0,0,-1,1322,673,0,0
105,351,0,0,0,0,0,0,0,0,0,-1,1329,673,0,0
112,351,0,0,0,0,0,0,0,0,0,-1,1336,673,0,0
119,351,0,0,0,0,0,0,0,0,0,-1,1343,673,0,0
126,351,0,0,0,0,0,0,0,0,0,-1,1350,673,0,0
133,351,0,0,0,0,0,0,0,0,0,-1,1357,673,0,0
140,351,0,0,0,0,0,0,0,0,0,-1,1364,673,0,0
147,351,0,0,0,0,0,0,0,0,0,-1,1371,673,0,0
154,351,0,0,0,0,0,0,0,0,0,-1,1378,673,0,0
161,351,0,0,0,0,0,0,0,0,0,-1,1385,673,0,0
168,351,0,0,0,0,0,0,0,0,0,-1,1392,673,0,0
175,351,0,0,0,0,0,0,0,0,0,-1,1399,673,0,0
182,351,0,0,0,0,0,0,0,0,0,-1,1406,673,0,0
189,351,0,0,0,0,0,0,0,0,0,-1,1413,673,0,0
196,351,0,0,0,0,0,0,0,0,0,-1,1420,673,0,0
203,351,0,0,0,0,0,0,0,0,0,-1,1427,673,0,0
210,351,0,0,0,0,0,0,0,0,0,-1,1434,673,0,0
217,351,0,0,0,0,0,0,0,0,0,-1,1441,673,0,0
224,351,0,0,0,0,0,0,0,0,0,-1,1448,673,0,0
231,351,0,0,0,0,0,0,0,0,0,-1,1455,673,0,0
238,351,0,0,0,0,0,0,0,0,0,-1,1462,673,0,0
245,351,0,0,0,0,0,0,0,0,0,-1,1469,673,0,0
252,351,0,0,0,0,0,0,0,0,0,-1,1476,673,0,0
259,351,0,0,0,0,0,0,0,0,0,-1,1483,673,0,0
266,351,0,0,0,0,0,0,0,0,0,-1,1490,673,0,0
273,351,0,0,0,0,0,0,0,0,0,-1,1497,673,0,0
280,351,0,0,0,0,0,0,0,0,0,-1,1504,673,0,0
287,351,0,0,0,0,0,0,0,0,0,-1,1511,673,0,0
294,351,0,0,0,0,0,0,0,0,0,-1,1518,673,0,0
301,351,0,0,0,0,0,0,0,0,0,-1,1525,673,0,0
308,351,0,0,0,0,0,0,0,0,0,-1,1532,673,0,0
315,351,0,0,0,0,0,0,0,0,0,-1,1539,673,0,0
322,351,0,0,0,0,0,0,0,0,0,-1,1546,673,0,0
329,351,0,0,0,0,0,0,0,0,0,-1,1553,673,0,0
336,351,0,0,0,0,0,0,0,0,0,-1,1560,673,0,0
343,351,0,0,0,0,0,0,0,0,0,-1,1567,673,0,0
350,351,0,0,0,0,0,0,0,0,0,-1,1574,673,0,0
357,351,0,0,0,0,0,0,0,0,0,-1,1581,673,0,0
364,351,0,0,0,0,0,0,0,0,0,-1,1588,673,0,0
371,351,0,0,0,0,0,0,0,0,0,-1,1595,673,0,0
378,351,0,0,0,0,0,0,0,0,0,-1,1602,673,0,0
385,351,0,0,0,0,0,0,0,0,0,-1,1609,673,0,0
392,351,0,0,0,0,0,0,0,0,0,-1,1616,673,0,0
399,351,0,0,0,0,0,0,0,0,0,-1,1623,673,0,0
406,351,0,0,0,0,0,0,0,0,0,-1,1630,673,0,0
413,351,0,0,0,0,0,0,0,0,0,-1,1637,673,0,0
420,351,0,0,0,0,0,0,0,0,0,-1,1644,673,0,0
427,351,0,0,0,0,0,0,0,0,0,-1,1651,673,0,0
434,351,0,0,0,0,0,0,0,0,0,-1,1658,673,0,0
441,351,0,0,0,0,0,0,0,0,0,-1,1665,673,0,0
448,351,0,0,0,0,0,0,0,0,0,-1,1672,673,0,0
455,351,0,0,0,0,0,0,0,0,0,-1,1679,673,0,0
462,351,0,0,0,0,0,0,0,0,0,-1,1686,673,0,0
469,351,0,0,0,0,0,0,0,0,0,-1,1693,673,0,0
476,351,0,0,0,0,0,0,0,0,0,-1,1700,673,0,0
483,351,0,0,0,0,0,0,0,0,0,-1,1707,673,0,0
490,351,0,0,0,0,0,0,0,0,0,-1,1714,673,0,0
497,351,0,0,0,0,0,0,0,0,0,-1,1721,673,0,0
504,351,10.8842,1.61615,0,0,0,0,0,0,0,-1,1728,673,10.8842,-1.61618
511,351,15.4548,0.0236816,0,0,0,0,0,0,0,-1,1735,673,15.4549,-0.0236664
518,351,16.7448,2.49268,0,0,0,0,0,0,0,-1,1742,673,16.7448,-2.49269
525,351,16.0701,3.43225,0,0,0,0,0,0,0,-1,1749,673,16.07,-3.43227
532,351,32.3822,3.03021,0,0,0,0,0,0,0,-1,1756,673,32.3822,-3.03019
539,351,15.3387,3.54486,0,0,0,0,0,0,0,-1,1763,673,15.3387,-3.54485
546,351,13.9387,4.59357,0,0,0,0,0,0,0,-1,1770,673,13.9388,-4.59359
553,351,12.0682,2.02832,0,0,0,0,0,0,0,-1,1777,673,12.0683,-2.02831
560,351,12.0173,0.55304,0,0,0,0,0,0,0,-1,1784,673,12.0174,-0.553028
567,351,10.7827,0.130188,0,0,0,0,0,0,0,-1,1791,673,10.7827,-0.130183
574,351,13.405,-1.09204,0,0,0,0,0,0,0,-1,1798,673,13.405,1.09207
581,351,15.2351,-3.06049,0,0,0,0,0,0,0,-1,1805,673,15.2351,3.06046
588,351,27.46,-9.27582,0,0,0,0,0,0,0,-1,1812,673,27.46,9.27583
595,351,27.7458,-8.56226,0.000926995,0.000419856,0.000287027,0.00105642,0.000290434,0.423605,0.000630185,0.048536,1819,673,27.7459,8.56225
602,351,27.7394,-7.74292,0.000778995,0.000498504,0.000179494,0.000866537,0.000410963,0.45377,0.000500516,0.0193558,1826,673,27.7393,7.74289
609,351,27.7069,-7.06934,0.00104919,0.000661225,0.000360065,0.0012642,0.000446214,0.538317,0.000740334,0.0180249,1833,673,27.7069,7.06933
616,351,27.6608,-6.37268,0.00120053,0.000850439,0.000536301,0.00158963,0.000461339,0.627652,0.000944316,0.0132326,1840,673,27.6607,6.37266
623,351,27.6692,-5.70123,0.00109587,0.000962191,0.000586603,0.00161943,0.000438631,0.728671,0.000967153,0.0149645,1847,673,27.6692,5.70126
630,351,27.6053,-5.07837,0.000646082,0.00108658,0.000563482,0.00147133,0.000261335,0.971705,0.000906422,0.0266964,1854,673,27.6054,5.07839
637,351,27.5155,-4.39551,-9.41751e-05,0.00113868,0.000383099,0.00124803,-0.000203521,1.29276,0.000907499,0.0301792,1861,673,27.5155,4.39552
644,351,27.4998,-3.71014,-0.00127361,0.00105795,-2.59849e-06,0.00105796,-0.00127362,-1.56968,0.00134805,0.0206096,1868,673,27.4998,3.71017
651,351,27.545,-2.99994,-0.00301337,0.00094273,-0.000600021,0.00103173,-0.00310237,-1.42354,0.00248462,0.0168392,1875,673,27.545,2.99995
658,351,27.468,-2.22375,-0.00555108,0.000601877,-0.00160074,0.00099341,-0.00594261,-1.33091,0.00433102,0.0373335,1882,673,27.468,2.22378
665,351,26.9966,-1.83398,-0.00893466,-0.000102156,-0.00301842,0.00083081,-0.00986763,-1.27102,0.00687212,0.048273,1889,673,26.9965,1.834
672,351,26.6923,-1.20514,0,0,0,0,0,0,0,-1,1896,673,26.6923,1.20516
679,351,14.1252,1.85681,0,0,0,0,0,0,0,-1,1903,673,14.1253,-1.85682
686,351,13.0294,2.1189,0,0,0,0,0,0,0,-1,1910,673,13.0294,-2.11892
693,351,13.5187,2.34595,0,0,0,0,0,0,0,-1,1917,673,13.5187,-2.34596
700,351,14.5629,-2.40173,0,0,0,0,0,0,0,-1,1924,673,14.5629,2.40172
707,351,0,0,0,0,0,0,0,0,0,-1,1931,673,0,0
714,351,0,0,0,0,0,0,0,0,0,-1,1938,673,0,0
721,351,0,0,0,0,0,0,0,0,0,-1,1945,673,0,0
728,351,0,0,0,0,0,0,0,0,0,-1,1952,673,0,0
735,351,0,0,0,0,0,0,0,0,0,-1,1959,673,0,0
742,351,0,0,0,0,0,0,0,0,0,-1,1966,673,0,0
749,351,0,0,0,0,0,0,0,0,0,-1,1973,673,0,0
756,351,0,0,0,0,0,0,0,0,0,-1,1980,673,0,0
763,351,0,0,0,0,0,0,0,0,0,-1,1987,673,0,0
770,351,0,0,0,0,0,0,0,0,0,-1,1994,673,0,0
777,351,0,0,0,0,0,0,0,0,0,-1,2001,673,0,0
784,351,0,0,0,0,0,0,0,0,0,-1,2008,673,0,0
791,351,0,0,0,0,0,0,0,0,0,-1,2015,673,0,0
798,351,0,0,0,0,0,0,0,0,0,-1,2022,673,0,0
805,351,0,0,0,0,0,0,0,0,0,-1,2029,673,0,0
812,351,0,0,0,0,0,0,0,0,0,-1,2036,673,0,0
-700,344,0,0,0,0,0,0,0,0,0,-1,524,680,0,0
-693,344,0,0,0,0,0,0,0,0,0,-1,531,680,0,0
-686,344,0,0,0,0,0,0,0,0,0,-1,538,680,0,0
-679,344,0,0,0,0,0,0,0,0,0,-1,545,680,0,0
-672,344,0,0,0,0,0,0,0,0,0,-1,552,680,0,0
-665,344,0,0,0,0,0,0,0,0,0,-1,559,680,0,0
-658,344,0,0,0,0,0,0,0,0,0,-1,566,680,0,0
-651,344,0,0,0,0,0,0,0,0,0,-1,573,680,0,0
-644,344,0,0,0,0,0,0,0,0,0,-1,580,680,0,0
-637,344,0,0,0,0,0,0,0,0,0,-1,587,680,0,0
-630,344,0,0,0,0,0,0,0,0,0,-1,594,680,0,0
-623,344,0,0,0,0,0,0,0,0,0,-1,601,680,0,0
-616,344,0,0,0,0,0,0,0,0,0,-1,608,680,0,0
-609,344,0,0,0,0,0,0,0,0,0,-1,615,680,0,0
-602,344,0,0,0,0,0,0,0,0,0,-1,622,680,0,0
-595,344,0,0,0,0,0,0,0,0,0,-1,629,680,0,0
-588,344,-9.27826,1.47302,0,0,0,0,0,0,0,-1,636,680,-9.27829,-1.473
-581,344,-10.0098,1.71753,0,0,0,0,0,0,0,-1,643,680,-10.0098,-1.7175
-574,344,-10.2208,3.04871,0,0,0,0,0,0,0,-1,650,680,-10.2208,-3.04869
-567,344,-14.3779,2.29016,0,0,0,0,0,0,0,-1,657,680,-14.3779,-2.29014
-560,344,-14.1238,1.8374,0,0,0,0,0,0,0,-1,664,680,-14.1238,-1.83743
-553,344,-14.7884,2.00116,0,0,0,0,0,0,0,-1,671,680,-14.7884,-2.00115
-546,344,-17.4192,0.157654,0,0,0,0,0,0,0,-1,678,680,-17.4192,-0.157635
-539,344,-16.7731,-3.05188,0,0,0,0,0,0,0,-1,685,680,-16.7731,3.05185
-532,344,-16.5008,-4.02344,-0.000315979,0.00275191,0.000458203,0.00281888,-0.000382951,1.42566,0.00201905,0.0483514,692,680,-16.5008,4.02346
-525,344,-16.8138,-4.53772,0.000183407,0.00213474,9.47106e-05,0.00213932,0.000178821,1.52241,0.0013705,0.0451022,699,680,-16.8138,4.53771
-518,344,-16.7617,-5.27496,0.000579767,0.00159072,-0.000108774,0.0016023,0.000568196,-1.46482,0.000938031,0.0208231,706,680,-16.7617,5.27497
-511,344,-16.7537,-5.91968,0.000854744,0.00110664,-0.000186693,0.0012059,0.000755488,-1.08215,0.000703614,0.017876,713,680,-16.7537,5.91965
-504,344,-16.7754,-6.58911,0.00110573,0.000650354,-0.000208984,0.0011871,0.000568985,-0.371296,0.000685567,0.0187676,720,680,-16.7754,6.5891
-497,344,-16.8033,-7.24603,0.00136406,0.000295943,-0.000230146,0.00141154,0.000248464,-0.203445,0.000870111,0.0172227,727,680,-16.8034,7.24602
-490,344,-16.8418,-7.89124,0.00160338,3.26423e-05,-0.000282275,0.00165256,-1.65447e-05,-0.17252,0.00110727,0.0157718,734,680,-16.8418,7.89121
-483,344,-16.8522,-8.51526,0.00198122,-0.000117732,-0.000389653,0.00205122,-0.000187733,-0.177754,0.00143416,0.0148576,741,680,-16.8522,8.51525
-476,344,-16.8905,-9.15027,0.00232412,-0.000174491,-0.000549886,0.00243978,-0.000290154,-0.207318,0.00173136,0.0138931,748,680,-16.8905,9.15024
-469,344,-16.9222,-9.8219,0.00282946,2.20974e-06,-0.000940015,0.00311347,-0.0002818,-0.293413,0.00217567,0.0194975,755,680,-16.9222,9.82188
-462,344,-16.8868,-10.497,0,0,0,0,0,0,0,-1,762,680,-16.8868,10.497
-455,344,-12.1653,-7.99176,0,0,0,0,0,0,0,-1,769,680,-12.1653,7.99174
-448,344,-5.67657,-2.72864,0,0,0,0,0,0,0,-1,776,680,-5.6766,2.72863
-441,344,-5.09229,-2.34167,0,0,0,0,0,0,0,-1,783,680,-5.09229,2.34168
-434,344,-4.28778,-2.08807,0,0,0,0,0,0,0,-1,790,680,-4.28778,2.08809
-427,344,-3.06506,-1.45404,0,0,0,0,0,0,0,-1,797,680,-3.06505,1.45402
-420,344,-1.96582,-1.57574,0,0,0,0,0,0,0,-1,804,680,-1.96579,1.57574
-413,344,-0.817993,-1.4751,0,0,0,0,0,0,0,-1,811,680,-0.818017,1.47511
-406,344,-0.00714111,-1.25189,0,0,0,0,0,0,0,-1,818,680,-0.00714956,1.25191
-399,344,0.240051,-1.75769,0,0,0,0,0,0,0,-1,825,680,0.240079,1.75767
-392,344,1.11353,-2.05615,0,0,0,0,0,0,0,-1,832,680,1.11351,2.05616
-385,344,0,0,0,0,0,0,0,0,0,-1,839,680,0,0
-378,344,0,0,0,0,0,0,0,0,0,-1,846,680,0,0
-371,344,0,0,0,0,0,0,0,0,0,-1,853,680,0,0
-364,344,0,0,0,0,0,0,0,0,0,-1,860,680,0,0
-357,344,0,0,0,0,0,0,0,0,0,-1,867,680,0,0
-350,344,0,0,0,0,0,0,0,0,0,-1,874,680,0,0
-343,344,0,0,0,0,0,0,0,0,0,-1,881,680,0,0
-336,344,0,0,0,0,0,0,0,0,0,-1,888,680,0,0
-329,344,0,0,0,0,0,0,0,0,0,-1,895,680,0,0
-322,344,0,0,0,0,0,0,0,0,0,-1,902,680,0,0
-315,344,0,0,0,0,0,0,0,0,0,-1,909,680,0,0
-308,344,0,0,0,0,0,0,0,0,0,-1,916,680,0,0
-301,344,0,0,0,0,0,0,0,0,0,-1,923,680,0,0
-294,344,0,0,0,0,0,0,0,0,0,-1,930,680,0,0
-287,344,0,0,0,0,0,0,0,0,0,-1,937,680,0,0
-280,344,0,0,0,0,0,0,0,0,0,-1,944,680,0,0
-273,344,0,0,0,0,0,0,0,0,0,-1,951,680,0,0
-266,344,0,0,0,0,0,0,0,0,0,-1,958,680,0,0
-259,344,0,0,0,0,0,0,0,0,0,-1,965,680,0,0
-252,344,0,0,0,0,0,0,0,0,0,-1,972,680,0,0
-245,344,0,0,0,0,0,0,0,0,0,-1,979,680,0,0
-238,344,0,0,0,0,0,0,0,0,0,-1,986,680,0,0
-231,344,0,0,0,0,0,0,0,0,0,-1,993,680,0,0
-224,344,0,0,0,0,0,0,0,0,0,-1,1000,680,0,0
-217,344,0,0,0,0,0,0,0,0,0,-1,1007,680,0,0
-210,344,0,0,0,0,0,0,0,0,0,-1,1014,680,0,0
-203,344,0,0,0,0,0,0,0,0,0,-1,1021,680,0,0
-196,344,0,0,0,0,0,0,0,0,0,-1,1028,680,0,0
-189,344,0,0,0,0,0,0,0,0,0,-1,1035,680,0,0
-182,344,0,0,0,0,0,0,0,0,0,-1,1042,680,0,0
-175,344,0,0,0,0,0,0,0,0,0,-1,1049,680,0,0
-168,344,0,0,0,0,0,0,0,0,0,-1,1056,680,0,0
-161,344,0,0,0,0,0,0,0,0,0,-1,1063,680,0,0
-154,344,0,0,0,0,0,0,0,0,0,-1,1070,680,0,0
-147,344,0,0,0,0,0,0,0,0,0,-1,1077,680,0,0
-140,344,0,0,0,0,0,0,0,0,0,-1,1084,680,0,0
-133,344,0,0,0,0,0,0,0,0,0,-1,1091,680,0,0
-126,344,0,0,0,0,0,0,0,0,0,-1,1098,680,0,0
-119,344,0,0,0,0,0,0,0,0,0,-1,1105,680,0,0
-112,344,0,0,0,0,0,0,0,0,0,-1,1112,680,0,0
-105,344,0,0,0,0,0,0,0,0,0,-1,1119,680,0,0
-98,344,0,0,0,0,0,0,0,0,0,-1,1126,680,0,0
-91,344,0,0,0,0,0,0,0,0,0,-1,1133,680,0,0
-84,344,0,0,0,0,0,0,0,0,0,-1,1140,680,0,0
-77,344,0,0,0,0,0,0,0,0,0,-1,1147,680,0,0
-70,344,0,0,0,0,0,0,0,0,0,-1,1154,680,0,0
-63,344,0,0,0,0,0,0,0,0,0,-1,1161,680,0,0
-56,344,0,0,0,0,0,0,0,0,0,-1,1168,680,0,0
-49,344,0,0,0,0,0,0,0,0,0,-1,1175,680,0,0
-42,344,0,0,0,0,0,0,0,0,0,-1,1182,680,0,0
-35,344,0,0,0,0,0,0,0,0,0,-1,1189,680,0,0
-28,344,0,0,0,0,0,0,0,0,0,-1,1196,680,0,0
-21,344,0,0,0,0,0,0,0,0,0,-1,1203,680,0,0
-14,344,0,0,0,0,0,0,0,0,0,-1,1210,680,0,0
-7,344,0,0,0,0,0,0,0,0,0,-1,1217,680,0,0
0,344,0,0,0,0,0,0,0,0,0,-1,1224,680,0,0
7,344,0,0,0,0,0,0,0,0,0,-1,1231,680,0,0
14,344,0,0,0,0,0,0,0,0,0,-1,1238,680,0,0
21,344,0,0,0,0,0,0,0,0,0,-1,1245,680,0,0
28,344,0,0,0,0,0,0,0,0,0,-1,1252,680,0,0
35,344,0,0,0,0,0,0,0,0,0,-1,1259,680,0,0
42,344,0,0,0,0,0,0,0,0,0,-1,1266,680,0,0
49,344,0,0,0,0,0,0,0,0,0,-1,1273,680,0,0
56,344,0,0,0,0,0,0,0,0,0,-1,1280,680,0,0
63,344,0,0,0,0,0,0,0,0,0,-1,1287,680,0,0
70,344,0,0,0,0,0,0,0,0,0,-1,1294,680,0,0
77,344,0,0,0,0,0,0,0,0,0,-1,1301,680,0,0
84,344,0,0,0,0,0,0,0,0,0,-1,1308,680,0,0
91,344,0,0,0,0,0,0,0,0,0,-1,1315,680,0,0
98,344,0,0,0,0,0,0,0,0,0,-1,1322,680,0,0
105,344,0,0,0,0,0,0,0,0,0,-1,1329,680,0,0
112,344,0,0,0,0,0,0,0,0,0,-1,1336,680,0,0
119,344,0,0,0,0,0,0,0,0,0,-1,1343,680,0,0
126,344,0,0,0,0,0,0,0,0,0,-1,1350,680,0,0
133,344,0,0,0,0,0,0,0,0,0,-1,1357,680,0,0
140,344,0,0,0,0,0,0,0,0,0,-1,1364,680,0,0
147,344,0,0,0,0,0,0,0,0,0,-1,1371,680,0,0
154,344,0,0,0,0,0,0,0,0,0,-1,1378,680,0,0
161,344,0,0,0,0,0,0,0,0,0,-1,1385,680,0,0
168,344,0,0,0,0,0,0,0,0,0,-1,1392,680,0,0
175,344,0,0,0,0,0,0,0,0,0,-1,1399,680,0,0
182,344,0,0,0,0,0,0,0,0,0,-1,1406,680,0,0
189,344,0,0,0,0,0,0,0,0,0,-1,1413,680,0,0
196,344,0,0,0,0,0,0,0,0,0,-1,1420,680,0,0
203,344,0,0,0,0,0,0,0,0,0,-1,1427,680,0,0
210,344,0,0,0,0,0,0,0,0,0,-1,1434,680,0,0
217,344,0,0,0,0,0,0,0,0,0,-1,1441,680,0,0
224,344,0,0,0,0,0,0,0,0,0,-1,1448,680,0,0
231,344,0,0,0,0,0,0,0,0,0,-1,1455,680,0,0
238,344,0,0,0,0,0,0,0,0,0,-1,1462,680,0,0
245,344,0,0,0,0,0,0,0,0,0,-1,1469,680,0,0
252,344,0,0,0,0,0,0,0,0,0,-1,1476,680,0,0
259,344,0,0,0,0,0,0,0,0,0,-1,1483,680,0,0
266,344,0,0,0,0,0,0,0,0,0,-1,1490,680,0,0
273,344,0,0,0,0,0,0,0,0,0,-1,1497,680,0,0
280,344,0,0,0,0,0,0,0,0,0,-1,1504,680,0,0
287,344,0,0,0,0,0,0,0,0,0,-1,1511,680,0,0
294,344,0,0,0,0,0,0,0,0,0,-1,1518,680,0,0
301,344,0,0,0,0,0,0,0,0,0,-1,1525,680,0,0
308,344,0,0,0,0,0,0,0,0,0,-1,1532,680,0,0
315,344,0,0,0,0,0,0,0,0,0,-1,1539,680,0,0
322,344,0,0,0,0,0,0,0,0,0,-1,1546,680,0,0
329,344,0,0,0,0,0,0,0,0,0,-1,1553,680,0,0
336,344,0,0,0,0,0,0,0,0,0,-1,1560,680,0,0
343,344,0,0,0,0,0,0,0,0,0,-1,1567,680,0,0
350,344,0,0,0,0,0,0,0,0,0,-1,1574,680,0,0
357,344,0,0,0,0,0,0,0,0,0,-1,1581,680,0,0
364,344,0,0,0,0,0,0,0,0,0,-1,1588,680,0,0
371,344,0,0,0,0,0,0,0,0,0,-1,1595,680,0,0
378,344,0,0,0,0,0,0,0,0,0,-1,1602,680,0,0
385,344,0,0,0,0,0,0,0,0,0,-1,1609,680,0,0
392,344,0,0,0,0,0,0,0,0,0,-1,1616,680,0,0
399,344,0,0,0,0,0,0,0,0,0,-1,1623,680,0,0
406,344,0,0,0,0,0,0,0,0,0,-1,1630,680,0,0
413,344,0,0,0,0,0,0,0,0,0,-1,1637,680,0,0
420,344,0,0,0,0,0,0,0,0,0,-1,1644,680,0,0
427,344,0,0,0,0,0,0,0,0,0,-1,1651,680,0,0
434,344,0,0,0,0,0,0,0,0,0,-1,1658,680,0,0
441,344,0,0,0,0,0,0,0,0,0,-1,1665,680,0,0
448,344,0,0,0,0,0,0,0,0,0,-1,1672,680,0,0
455,344,0,0,0,0,0,0,0,0,0,-1,1679,680,0,0
462,344,0,0,0,0,0,0,0,0,0,-1,1686,680,0,0
469,344,0,0,0,0,0,0,0,0,0,-1,1693,680,0,0
476,344,0,0,0,0,0,0,0,0,0,-1,1700,680,0,0
483,344,0,0,0,0,0,0,0,0,0,-1,1707,680,0,0
490,344,0,0,0,0,0,0,0,0,0,-1,1714,680,0,0
497,344,0,0,0,0,0,0,0,0,0,-1,1721,680,0,0
504,344,0,0,0,0,0,0,0,0,0,-1,1728,680,0,0
511,344,15.4819,0.452637,0,0,0,0,0,0,0,-1,1735,680,15.4819,-0.452656
518,344,17.1357,2.31207,0,0,0,0,0,0,0,-1,1742,680,17.1358,-2.31207
525,344,31.5201,2.6217,0,0,0,0,0,0,0,-1,1749,680,31.5201,-2.62168
532,344,31.9766,2.61047,0,0,0,0,0,0,0,-1,1756,680,31.9765,-2.6105
539,344,32.4379,2.65314,0,0,0,0,0,0,0,-1,1763,680,32.4378,-2.65316
546,344,14.6722,4.30243,0,0,0,0,0,0,0,-1,1770,680,14.6722,-4.30241
553,344,14.8136,4.35681,0,0,0,0,0,0,0,-1,1777,680,14.8136,-4.35679
560,344,11.9363,2.14185,0,0,0,0,0,0,0,-1,1784,680,11.9362,-2.14182
567,344,11.397,0.925842,0,0,0,0,0,0,0,-1,1791,680,11.397,-0.92583
574,344,10.0004,0.504639,0,0,0,0,0,0,0,-1,1798,680,10.0004,-0.504645
581,344,13.6709,-0.969604,0,0,0,0,0,0,0,-1,1805,680,13.6709,0.969629
588,344,16.1447,-3.15948,0,0,0,0,0,0,0,-1,1812,680,16.1447,3.15946
595,344,28.3115,-8.6369,0,0,0,0,0,0,0,-1,1819,680,28.3116,8.63692
602,344,28.5198,-7.66583,0.0007462,0.000327824,6.30519e-05,0.000755496,0.000318529,0.146376,0.000437969,0.0424267,1826,680,28.5198,7.66584
609,344,28.3783,-7.00903,0.00112248,0.000396649,0.000223749,0.00118591,0.000333219,0.276243,0.000706244,0.0156693,1833,680,28.3782,7.00902
616,344,28.3221,-6.3299,0.00133724,0.000573578,0.000452063,0.00154715,0.000363668,0.434712,0.000934112,0.0203191,1840,680,28.3221,6.32989
623,344,28.343,-5.65558,0.00116693,0.000627585,0.000451742,0.00142337,0.000371146,0.516305,0.000852567,0.0199763,1847,680,28.3431,5.65558
630,344,28.2981,-5.03619,0.000684552,0.000696598,0.0004032,0.00109382,0.00028733,0.792866,0.000654799,0.0267933,1854,680,28.2981,5.03621
637,344,28.2494,-4.34875,-8.72908e-05,0.000736512,0.000215585,0.000789519,-0.000140298,1.3297,0.000578808,0.0244206,1861,680,28.2494,4.34874
644,344,28.2346,-3.64996,-0.00124123,0.00066787,-0.00014884,0.000679404,-0.00125276,-1.49346,0.00113179,0.0166906,1868,680,28.2347,3.64997
651,344,28.218,-2.96478,-0.00285191,0.000570766,-0.000688142,0.000703938,-0.00298508,-1.37964,0.00226152,0.0118822,1875,680,28.2181,2.96477
658,344,28.1913,-2.18365,-0.00507926,0.00038974,-0.00149829,0.00077331,-0.00546283,-1.32017,0.00392513,0.024451,1882,680,28.1913,2.18367
665,344,28.0272,-1.53644,-0.00796725,2.10927e-06,-0.00261254,0.000782199,-0.00874734,-1.28063,0.00610901,0.0393402,1889,680,28.0272,1.53643
672,344,28.0631,-0.94635,0,0,0,0,0,0,0,-1,1896,680,28.0631,0.946374
679,344,28.2183,-0.882141,0,0,0,0,0,0,0,-1,1903,680,28.2183,0.88215
686,344,15.024,1.82709,0,0,0,0,0,0,0,-1,1910,680,15.024,-1.82706
693,344,12.4362,-1.42346,0,0,0,0,0,0,0,-1,1917,680,12.4361,1.42348
700,344,17.5396,2.61206,0,0,0,0,0,0,0,-1,1924,680,17.5396,-2.61204
707,344,18.5829,3.29352,0,0,0,0,0,0,0,-1,1931,680,18.5828,-3.2935
714,344,0,0,0,0,0,0,0,0,0,-1,1938,680,0,0
721,344,0,0,0,0,0,0,0,0,0,-1,1945,680,0,0
728,344,0,0,0,0,0,0,0,0,0,-1,1952,680,0,0
735,344,0,0,0,0,0,0,0,0,0,-1,1959,680,0,0
742,344,0,0,0,0,0,0,0,0,0,-1,1966,680,0,0
749,344,0,0,0,0,0,0,0,0,0,-1,1973,680,0,0
756,344,0,0,0,0,0,0,0,0,0,-1,1980,680,0,0
763,344,0,0,0,0,0,0,0,0,0,-1,1987,680,0,0
770,344,0,0,0,0,0,0,0,0,0,-1,1994,680,0,0
777,344,0,0,0,0,0,0,0,0,0,-1,2001,680,0,0
784,344,0,0,0,0,0,0,0,0,0,-1,2008,680,0,0
791,344,0,0,0,0,0,0,0,0,0,-1,2015,680,0,0
798,344,0,0,0,0,0,0,0,0,0,-1,2022,680,0,0
805,344,0,0,0,0,0,0,0,0,0,-1,2029,680,0,0
812,344,0,0,0,0,0,0,0,0,0,-1,2036,680,0,0
-700,337,0,0,0,0,0,0,0,0,0,-1,524,687,0,0
-693,337,0,0,0,0,0,0,0,0,0,-1,531,687,0,0
-686,337,0,0,0,0,0,0,0,0,0,-1,538,687,0,0
-679,337,0,0,0,0,0,0,0,0,0,-1,545,687,0,0
-672,337,0,0,0,0,0,0,0,0,0,-1,552,687,0,0
-665,337,0,0,0,0,0,0,0,0,0,-1,559,687,0,0
-658,337,0,0,0,0,0,0,0,0,0,-1,566,687,0,0
-651,337,0,0,0,0,0,0,0,0,0,-1,573,687,0,0
-644,337,0,0,0,0,0,0,0,0,0,-1,580,687,0,0
-637,337,0,0,0,0,0,0,0,0,0,-1,587,687,0,0
-630,337,0,0,0,0,0,0,0,0,0,-1,594,687,0,0
-623,337,0,0,0,0,0,0,0,0,0,-1,601,687,0,0
-616,337,0,0,0,0,0,0,0,0,0,-1,608,687,0,0
-609,337,0,0,0,0,0,0,0,0,0,-1,615,687,0,0
-602,337,0,0,0,0,0,0,0,0,0,-1,622,687,0,0
-595,337,0,0,0,0,0,0,0,0,0,-1,629,687,0,0
-588,337,-10.8413,1.27863,0,0,0,0,0,0,0,-1,636,687,-10.8413,-1.27861
-581,337,-11.2157,1.31567,0,0,0,0,0,0,0,-1,643,687,-11.2157,-1.3157
-574,337,-6.03339,2.0321,0,0,0,0,0,0,0,-1,650,687,-6.03337,-2.03213
-567,337,-13.8102,1.56787,0,0,0,0,0,0,0,-1,657,687,-13.8102,-1.56789
-560,337,-15.5435,2.34247,0,0,0,0,0,0,0,-1,664,687,-15.5435,-2.34247
-553,337,-18.0128,1.12927,0,0,0,0,0,0,0,-1,671,687,-18.0128,-1.12926
-546,337,-17.4557,-2.07825,0,0,0,0,0,0,0,-1,678,687,-17.4557,2.07824
-539,337,-17.2577,-3.06653,0,0,0,0,0,0,0,-1,685,687,-17.2577,3.06652
-532,337,-17.3048,-3.92914,-9.37224e-05,0.00209271,0.000458679,0.00218504,-0.000186048,1.37217,0.0015225,0.0358648,692,687,-17.3048,3.92911
-525,337,-17.413,-4.59625,0.000265053,0.00147589,0.000271544,0.001534,0.000206945,1.35998,0.00096114,0.0178488,699,687,-17.4131,4.59627
-518,337,-17.3992,-5.24554,0.00054144,0.000952482,0.000183972,0.0010228,0.000471127,1.20573,0.000591121,0.0245864,706,687,-17.3993,5.24556
-511,337,-17.4135,-5.88245,0.000796365,0.000499337,0.000159376,0.000865698,0.000430004,0.410332,0.000499814,0.0252493,713,687,-17.4135,5.88243
-504,337,-17.4567,-6.57434,0.00103258,0.000110834,0.000156967,0.00105858,8.48364e-05,0.164132,0.000679208,0.0247967,720,687,-17.4567,6.57433
-497,337,-17.4719,-7.23047,0.00129299,-0.000138703,0.000122073,0.00130333,-0.000149037,0.0844525,0.000922585,0.0174176,727,687,-17.4719,7.23049
-490,337,-17.5007,-7.87769,0.00159519,-0.000285115,3.37268e-05,0.00159579,-0.000285719,0.0179292,0.00117078,0.0147197,734,687,-17.5006,7.87769
-483,337,-17.5015,-8.5069,0.00204962,-0.000276368,-0.000157389,0.00206022,-0.00028697,-0.0672571,0.00147845,0.0146459,741,687,-17.5015,8.50691
-476,337,-17.5236,-9.16772,0.00238764,-0.000152998,-0.000390903,0.00244642,-0.000211783,-0.149262,0.00170593,0.0161916,748,687,-17.5236,9.16772
-469,337,-17.5517,-9.84558,0,0,0,0,0,0,0,-1,755,687,-17.5517,9.84561
-462,337,-14.186,-8.89264,0,0,0,0,0,0,0,-1,762,687,-14.186,8.89266
-455,337,-6.00574,-3.12933,0,0,0,0,0,0,0,-1,769,687,-6.00576,3.12934
-448,337,-5.30627,-2.07202,0,0,0,0,0,0,0,-1,776,687,-5.30628,2.07205
-441,337,-4.24762,-1.49597,0,0,0,0,0,0,0,-1,783,687,-4.24762,1.49598
-434,337,-6.86908,1.37531,0,0,0,0,0,0,0,-1,790,687,-6.86908,-1.3753
-427,337,-9.92004,2.487,0,0,0,0,0,0,0,-1,797,687,-9.92002,-2.48701
-420,337,-2.95996,-1.76697,0,0,0,0,0,0,0,-1,804,687,-2.95998,1.76696
-413,337,-1.29169,-1.99487,0,0,0,0,0,0,0,-1,811,687,-1.29171,1.9949
-406,337,-1.02356,-1.89563,0,0,0,0,0,0,0,-1,818,687,-1.02357,1.89564
-399,337,-0.472839,-2.21338,0,0,0,0,0,0,0,-1,825,687,-0.472837,2.2134
-392,337,0,0,0,0,0,0,0,0,0,-1,832,687,0,0
-385,337,0,0,0,0,0,0,0,0,0,-1,839,687,0,0
-378,337,0,0,0,0,0,0,0,0,0,-1,846,687,0,0
-371,337,0,0,0,0,0,0,0,0,0,-1,853,687,0,0
-364,337,0,0,0,0,0,0,0,0,0,-1,860,687,0,0
-357,337,0,0,0,0,0,0,0,0,0,-1,867,687,0,0
-350,337,0,0,0,0,0,0,0,0,0,-1,874,687,0,0
-343,337,0,0,0,0,0,0,0,0,0,-1,881,687,0,0
-336,337,0,0,0,0,0,0,0,0,0,-1,888,687,0,0
-329,337,0,0,0,0,0,0,0,0,0,-1,895,687,0,0
-322,337,0,0,0,0,0,0,0,0,0,-1,902,687,0,0
-315,337,0,0,0,0,0,0,0,0,0,-1,909,687,0,0
-308,337,0,0,0,0,0,0,0,0,0,-1,916,687,0,0
-301,337,0,0,0,0,0,0,0,0,0,-1,923,687,0,0
-294,337,0,0,0,0,0,0,0,0,0,-1,930,687,0,0
-287,337,0,0,0,0,0,0,0,0,0,-1,937,687,0,0
-280,337,0,0,0,0,0,0,0,0,0,-1,944,687,0,0
-273,337,0,0,0,0,0,0,0,0,0,-1,951,687,0,0
-266,337,0,0,0,0,0,0,0,0,0,-1,958,687,0,0
-259,337,0,0,0,0,0,0,0,0,0,-1,965,687,0,0
-252,337,0,0,0,0,0,0,0,0,0,-1,972,687,0,0
-245,337,0,0,0,0,0,0,0,0,0,-1,979,687,0,0
-238,337,0,0,0,0,0,0,0,0,0,-1,986,687,0,0
-231,337,0,0,0,0,0,0,0,0,0,-1,993,687,0,0
-224,337,0,0,0,0,0,0,0,0,0,-1,1000,687,0,0
-217,337,0,0,0,0,0,0,0,0,0,-1,1007,687,0,0
-210,337,0,0,0,0,0,0,0,0,0,-1,1014,687,0,0
-203,337,0,0,0,0,0,0,0,0,0,-1,1021,687,0,0
-196,337,0,0,0,0,0,0,0,0,0,-1,1028,687,0,0
-189,337,0,0,0,0,0,0,0,0,0,-1,1035,687,0,0
-182,337,0,0,0,0,0,0,0,0,0,-1,1042,687,0,0
-175,337,0,0,0,0,0,0,0,0,0,-1,1049,687,0,0
-168,337,0,0,0,0,0,0,0,0,0,-1,1056,687,0,0
-161,337,0,0,0,0,0,0,0,0,0,-1,1063,687,0,0
-154,337,0,0,0,0,0,0,0,0,0,-1,1070,687,0,0
-147,337,0,0,0,0,0,0,0,0,0,-1,1077,687,0,0
-140,337,0,0,0,0,0,0,0,0,0,-1,1084,687,0,0
-133,337,0,0,0,0,0,0,0,0,0,-1,1091,687,0,0
-126,337,0,0,0,0,0,0,0,0,0,-1,1098,687,0,0
-119,337,0,0,0,0,0,0,0,0,0,-1,1105,687,0,0
-112,337,0,0,0,0,0,0,0,0,0,-1,1112,687,0,0
-105,337,0,0,0,0,0,0,0,0,0,-1,1119,687,0,0
-98,337,0,0,0,0,0,0,0,0,0,-1,1126,687,0,0
-91,337,0,0,0,0,0,0,0,0,0,-1,1133,687,0,0
-84,337,0,0,0,0,0,0,0,0,0,-1,1140,687,0,0
-77,337,0,0,0,0,0,0,0,0,0,-1,1147,687,0,0
-70,337,0,0,0,0,0,0,0,0,0,-1,1154,687,0,0
-63,337,0,0,0,0,0,0,0,0,0,-1,1161,687,0,0
-56,337,0,0,0,0,0,0,0,0,0,-1,1168,687,0,0
-49,337,0,0,0,0,0,0,0,0,0,-1,1175,687,0,0
-42,337,0,0,0,0,0,0,0,0,0,-1,1182,687,0,0
-35,337,0,0,0,0,0,0,0,0,0,-1,1189,687,0,0
-28,337,0,0,0,0,0,0,0,0,0,-1,1196,687,0,0
-21,337,0,0,0,0,0,0,0,0,0,-1,1203,687,0,0
-14,337,0,0,0,0,0,0,0,0,0,-1,1210,687,0,0
-7,337,0,0,0,0,0,0,0,0,0,-1,1217,687,0,0
0,337,0,0,0,0,0,0,0,0,0,-1,1224,687,0,0
7,337,0,0,0,0,0,0,0,0,0,-1,1231,687,0,0
14,337,0,0,0,0,0,0,0,0,0,-1,1238,687,0,0
21,337,0,0,0,0,0,0,0,0,0,-1,1245,687,0,0
28,337,0,0,0,0,0,0,0,0,0,-1,1252,687,0,0
35,337,0,0,0,0,0,0,0,0,0,-1,1259,687,0,0
42,337,0,0,0,0,0,0,0,0,0,-1,1266,687,0,0
49,337,0,0,0,0,0,0,0,0,0,-1,1273,687,0,0
56,337,0,0,0,0,0,0,0,0,0,-1,1280,687,0,0
63,337,0,0,0,0,0,0,0,0,0,-1,1287,687,0,0
70,337,0,0,0,0,0,0,0,0,0,-1,1294,687,0,0
77,337,0,0,0,0,0,0,0,0,0,-1,1301,687,0,0
84,337,0,0,0,0,0,0,0,0,0,-1,1308,687,0,0
91,337,0,0,0,0,0,0,0,0,0,-1,1315,687,0,0
98,337,0,0,0,0,0,0,0,0,0,-1,1322,687,0,0
105,337,0,0,0,0,0,0,0,0,0,-1,1329,687,0,0
112,337,0,0,0,0,0,0,0,0,0,-1,1336,687,0,0
119,337,0,0,0,0,0,0,0,0,0,-1,1343,687,0,0
126,337,0,0,0,0,0,0,0,0,0,-1,1350,687,0,0
133,337,0,0,0,0,0,0,0,0,0,-1,1357,687,0,0
140,337,0,0,0,0,0,0,0,0,0,-1,1364,687,0,0
147,337,0,0,0,0,0,0,0,0,0,-1,1371,687,0,0
154,337,0,0,0,0,0,0,0,0,0,-1,1378,687,0,0
161,337,0,0,0,0,0,0,0,0,0,-1,1385,687,0,0
168,337,0,0,0,0,0,0,0,0,0,-1,1392,687,0,0
175,337,0,0,0,0,0,0,0,0,0,-1,1399,687,0,0
182,337,0,0,0,0,0,0,0,0,0,-1,1406,687,0,0
189,337,0,0,0,0,0,0,0,0,0,-1,1413,687,0,0
196,337,0,0,0,0,0,0,0,0,0,-1,1420,687,0,0
203,337,0,0,0,0,0,0,0,0,0,-1,1427,687,0,0
210,337,0,0,0,0,0,0,0,0,0,-1,1434,687,0,0
217,337,0,0,0,0,0,0,0,0,0,-1,1441,687,0,0
224,337,0,0,0,0,0,0,0,0,0,-1,1448,687,0,0
231,337,0,0,0,0,0,0,0,0,0,-1,1455,687,0,0
238,337,0,0,0,0,0,0,0,0,0,-1,1462,687,0,0
245,337,0,0,0,0,0,0,0,0,0,-1,1469,687,0,0
252,337,0,0,0,0,0,0,0,0,0,-1,1476,687,0,0
259,337,0,0,0,0,0,0,0,0,0,-1,1483,687,0,0
266,337,0,0,0,0,0,0,0,0,0,-1,1490,687,0,0
273,337,0,0,0,0,0,0,0,0,0,-1,1497,687,0,0
280,337,0,0,0,0,0,0,0,0,0,-1,1504,687,0,0
287,337,0,0,0,0,0,0,0,0,0,-1,1511,687,0,0
294,337,0,0,0,0,0,0,0,0,0,-1,1518,687,0,0
301,337,0,0,0,0,0,0,0,0,0,-1,1525,687,0,0
308,337,0,0,0,0,0,0,0,0,0,-1,1532,687,0,0
315,337,0,0,0,0,0,0,0,0,0,-1,1539,687,0,0
322,337,0,0,0,0,0,0,0,0,0,-1,1546,687,0,0
329,337,0,0,0,0,0,0,0,0,0,-1,1553,687,0,0
336,337,0,0,0,0,0,0,0,0,0,-1,1560,687,0,0
343,337,0,0,0,0,0,0,0,0,0,-1,1567,687,0,0
350,337,0,0,0,0,0,0,0,0,0,-1,1574,687,0,0
357,337,0,0,0,0,0,0,0,0,0,-1,1581,687,0,0
364,337,0,0,0,0,0,0,0,0,0,-1,1588,687,0,0
371,337,0,0,0,0,0,0,0,0,0,-1,1595,687,0,0
378,337,0,0,0,0,0,0,0,0,0,-1,1602,687,0,0
385,337,0,0,0,0,0,0,0,0,0,-1,1609,687,0,0
392,337,0,0,0,0,0,0,0,0,0,-1,1616,687,0,0
399,337,0,0,0,0,0,0,0,0,0,-1,1623,687,0,0
406,337,0,0,0,0,0,0,0,0,0,-1,1630,687,0,0
413,337,0,0,0,0,0,0,0,0,0,-1,1637,687,0,0
420,337,0,0,0,0,0,0,0,0,0,-1,1644,687,0,0
427,337,0,0,0,0,0,0,0,0,0,-1,1651,687,0,0
434,337,0,0,0,0,0,0,0,0,0,-1,1658,687,0,0
441,337,0,0,0,0,0,0,0,0,0,-1,1665,687,0,0
448,337,0,0,0,0,0,0,0,0,0,-1,1672,687,0,0
455,337,0,0,0,0,0,0,0,0,0,-1,1679,687,0,0
462,337,0,0,0,0,0,0,0,0,0,-1,1686,687,0,0
469,337,0,0,0,0,0,0,0,0,0,-1,1693,687,0,0
476,337,0,0,0,0,0,0,0,0,0,-1,1700,687,0,0
483,337,0,0,0,0,0,0,0,0,0,-1,1707,687,0,0
490,337,0,0,0,0,0,0,0,0,0,-1,1714,687,0,0
497,337,0,0,0,0,0,0,0,0,0,-1,1721,687,0,0
504,337,0,0,0,0,0,0,0,0,0,-1,1728,687,0,0
511,337,0,0,0,0,0,0,0,0,0,-1,1735,687,0,0
518,337,18.0369,1.64581,0,0,0,0,0,0,0,-1,1742,687,18.0368,-1.64581
525,337,31.0717,2.13745,0,0,0,0,0,0,0,-1,1749,687,31.0717,-2.13747
532,337,31.5126,2.13904,0,0,0,0,0,0,0,-1,1756,687,31.5125,-2.13905
539,337,31.9684,2.15594,0,0,0,0,0,0,0,-1,1763,687,31.9684,-2.15596
546,337,32.3584,1.43719,0,0,0,0,0,0,0,-1,1770,687,32.3585,-1.43722
553,337,32.1809,1.36395,0,0,0,0,0,0,0,-1,1777,687,32.181,-1.36396
560,337,18.4053,3.62793,0,0,0,0,0,0,0,-1,1784,687,18.4052,-3.6279
567,337,11.9288,1.38776,0,0,0,0,0,0,0,-1,1791,687,11.9288,-1.38777
574,337,10.704,1.19476,0,0,0,0,0,0,0,-1,1798,687,10.704,-1.19478
581,337,8.50427,0.561768,0,0,0,0,0,0,0,-1,1805,687,8.5043,-0.561754
588,337,8.5885,-0.0536499,0,0,0,0,0,0,0,-1,1812,687,8.58844,0.0536788
595,337,13.8816,-1.70703,0,0,0,0,0,0,0,-1,1819,687,13.8816,1.70702
602,337,29.0454,-7.68689,0,0,0,0,0,0,0,-1,1826,687,29.0454,7.68689
609,337,29.042,-6.92822,0.00140016,0.000171607,0.000152179,0.00141873,0.000153038,0.121424,0.000899162,0.0257481,1833,687,29.042,6.92821
616,337,28.9962,-6.27924,0.00163257,0.000349833,0.00044612,0.00177247,0.000209936,0.303875,0.00111825,0.0187404,1840,687,28.9962,6.27922
623,337,29.0043,-5.63593,0.00138425,0.000366185,0.000402872,0.00152439,0.000226049,0.334751,0.000949918,0.0169676,1847,687,29.0042,5.63592
630,337,28.9692,-4.96289,0.000876914,0.000395919,0.000333475,0.00104757,0.000225267,0.472996,0.000636713,0.0204788,1854,687,28.9692,4.96287
637,337,28.9523,-4.2868,7.76788e-05,0.000445471,0.000146367,0.000496609,2.65408e-05,1.23467,0.00032259,0.0170466,1861,687,28.9523,4.28679
644,337,28.9183,-3.58612,-0.00102568,0.000440302,-0.000171402,0.000460075,-0.00104545,-1.45594,0.000890847,0.0114911,1868,687,28.9183,3.58612
651,337,28.8795,-2.91418,-0.0024939,0.000415556,-0.000627474,0.000545112,-0.00262346,-1.36718,0.00195616,0.0100983,1875,687,28.8795,2.91418
658,337,28.8643,-2.23236,-0.00441864,0.000408886,-0.00124672,0.000711844,-0.0047216,-1.33241,0.00340987,0.0117672,1882,687,28.8642,2.23234
665,337,28.8549,-1.56824,-0.00683322,0.000320624,-0.00207041,0.000876613,-0.00738921,-1.30844,0.00524283,0.0159011,1889,687,28.8549,1.56824
672,337,28.8402,-0.952515,-0.00992854,0.000297706,-0.0032572,0.00124704,-0.0108779,-1.2872,0.00770132,0.0362561,1896,687,28.8403,0.952486
679,337,29.1974,-0.365845,0,0,0,0,0,0,0,-1,1903,687,29.1973,0.365831
686,337,18.5614,1.68597,0,0,0,0,0,0,0,-1,1910,687,18.5614,-1.68598
693,337,16.5415,2.21411,0,0,0,0,0,0,0,-1,1917,687,16.5415,-2.2141
700,337,17.2661,2.44379,0,0,0,0,0,0,0,-1,1924,687,17.2661,-2.44378
707,337,17.3544,5.61853,0,0,0,0,0,0,0,-1,1931,687,17.3543,-5.61851
714,337,0,0,0,0,0,0,0,0,0,-1,1938,687,0,0
721,337,0,0,0,0,0,0,0,0,0,-1,1945,687,0,0
728,337,0,0,0,0,0,0,0,0,0,-1,1952,687,0,0
735,337,0,0,0,0,0,0,0,0,0,-1,1959,687,0,0
742,337,0,0,0,0,0,0,0,0,0,-1,1966,687,0,0
749,337,0,0,0,0,0,0,0,0,0,-1,1973,687,0,0
756,337,0,0,0,0,0,0,0,0,0,-1,1980,687,0,0
763,337,0,0,0,0,0,0,0,0,0,-1,1987,687,0,0
770,337,0,0,0,0,0,0,0,0,0,-1,1994,687,0,0
777,337,0,0,0,0,0,0,0,0,0,-1,2001,687,0,0
784,337,0,0,0,0,0,0,0,0,0,-1,2008,687,0,0
791,337,0,0,0,0,0,0,0,0,0,-1,2015,687,0,0
798,337,0,0,0,0,0,0,0,0,0,-1,2022,687,0,0
805,337,0,0,0,0,0,0,0,0,0,-1,2029,687,0,0
812,337,0,0,0,0,0,0,0,0,0,-1,2036,687,0,0
-700,330,0,0,0,0,0,0,0,0,0,-1,524,694,0,0
-693,330,0,0,0,0,0,0,0,0,0,-1,531,694,0,0
-686,330,0,0,0,0,0,0,0,0,0,-1,538,694,0,0
-679,330,0,0,0,0,0,0,0,0,0,-1,545,694,0,0
-672,330,0,0,0,0,0,0,0,0,0,-1,552,694,0,0
-665,330,0,0,0,0,0,0,0,0,0,-1,559,694,0,0
-658,330,0,0,0,0,0,0,0,0,0,-1,566,694,0,0
-651,330,0,0,0,0,0,0,0,0,0,-1,573,694,0,0
-644,330,0,0,0,0,0,0,0,0,0,-1,580,694,0,0
-637,330,0,0,0,0,0,0,0,0,0,-1,587,694,0,0
-630,330,0,0,0,0,0,0,0,0,0,-1,594,694,0,0
-623,330,0,0,0,0,0,0,0,0,0,-1,601,694,0,0
-616,330,0,0,0,0,0,0,0,0,0,-1,608,694,0,0
-609,330,0,0,0,0,0,0,0,0,0,-1,615,694,0,0
-602,330,0,0,0,0,0,0,0,0,0,-1,622,694,0,0
-595,330,-4.67883,1.65515,0,0,0,0,0,0,0,-1,629,694,-4.67881,-1.65515
-588,330,-8.5047,2.67346,0,0,0,0,0,0,0,-1,636,694,-8.50469,-2.67348
-581,330,-12.4227,0.947083,0,0,0,0,0,0,0,-1,643,694,-12.4227,-0.947109
-574,330,-9.02118,1.87952,0,0,0,0,0,0,0,-1,650,694,-9.02115,-1.87953
-567,330,-8.35577,0.909973,0,0,0,0,0,0,0,-1,657,694,-8.35575,-0.909945
-560,330,-13.1036,-0.584656,0,0,0,0,0,0,0,-1,664,694,-13.1035,0.584658
-553,330,-17.5484,-1.21545,0,0,0,0,0,0,0,-1,671,694,-17.5484,1.21547
-546,330,-17.8391,-2.41101,0,0,0,0,0,0,0,-1,678,694,-17.839,2.41103
-539,330,-18.1149,-3.12195,0,0,0,0,0,0,0,-1,685,694,-18.1149,3.12192
-532,330,-18.0764,-3.88861,0.000112169,0.00152689,0.000443062,0.00165419,-1.51339e-05,1.29101,0.00110788,0.0177842,692,694,-18.0763,3.88859
-525,330,-18.0389,-4.61011,0.000395911,0.000997585,0.000332321,0.00114501,0.000248484,1.15326,0.00069547,0.010953,699,694,-18.0389,4.61008
-518,330,-18.0259,-5.20892,0.000637016,0.000568099,0.000292079,0.000896662,0.000308453,0.726681,0.00052602,0.0151098,706,694,-18.0259,5.20893
-511,330,-18.0834,-5.84778,0.000878019,0.000207424,0.00029101,0.000986694,9.87493e-05,0.357401,0.000627475,0.0204043,713,694,-18.0835,5.84779
-504,330,-18.1196,-6.53937,0.000987716,-0.000133896,0.000167126,0.00101209,-0.000158269,0.144815,0.000733199,0.018769,720,694,-18.1196,6.53936
-497,330,-18.1553,-7.17426,0.00105198,-0.000378353,-0.000108467,0.00106016,-0.000386532,-0.0752597,0.000864904,0.0135048,727,694,-18.1553,7.17428
-490,330,-18.1447,-7.82813,0.00104828,-0.000623443,-0.000622612,0.00125468,-0.000829844,-0.320106,0.0012118,0.0135114,734,694,-18.1447,7.82813
-483,330,-18.1315,-8.48578,0.000922877,-0.000850622,-0.00153574,0.00180949,-0.00173723,-0.523576,0.00204784,0.0138765,741,694,-18.1315,8.48576
-476,330,-18.149,-9.18451,0,0,0,0,0,0,0,-1,748,694,-18.149,9.1845
-469,330,-16.1478,-9.23303,0,0,0,0,0,0,0,-1,755,694,-16.1478,9.23301
-462,330,-7.26733,-3.84833,0,0,0,0,0,0,0,-1,762,694,-7.26731,3.84832
-455,330,-5.04254,-1.79303,0,0,0,0,0,0,0,-1,769,694,-5.04252,1.79305
-448,330,-4.89886,-1.66156,0,0,0,0,0,0,0,-1,776,694,-4.89886,1.66157
-441,330,-5.30676,-2.34045,0,0,0,0,0,0,0,-1,783,694,-5.30679,2.34048
-434,330,-7.20428,1.00024,0,0,0,0,0,0,0,-1,790,694,-7.20431,-1.00027
-427,330,-16.0428,2.89258,0,0,0,0,0,0,0,-1,797,694,-16.0428,-2.89259
-420,330,-29.0331,0.271606,0,0,0,0,0,0,0,-1,804,694,-29.0331,-0.27158
-413,330,-29.0896,0.56366,0,0,0,0,0,0,0,-1,811,694,-29.0896,-0.563671
-406,330,-1.65375,-1.74371,0,0,0,0,0,0,0,-1,818,694,-1.65375,1.74371
-399,330,0,0,0,0,0,0,0,0,0,-1,825,694,0,0
-392,330,0,0,0,0,0,0,0,0,0,-1,832,694,0,0
-385,330,0,0,0,0,0,0,0,0,0,-1,839,694,0,0
-378,330,0,0,0,0,0,0,0,0,0,-1,846,694,0,0
-371,330,0,0,0,0,0,0,0,0,0,-1,853,694,0,0
-364,330,0,0,0,0,0,0,0,0,0,-1,860,694,0,0
-357,330,0,0,0,0,0,0,0,0,0,-1,867,694,0,0
-350,330,0,0,0,0,0,0,0,0,0,-1,874,694,0,0
-343,330,0,0,0,0,0,0,0,0,0,-1,881,694,0,0
-336,330,0,0,0,0,0,0,0,0,0,-1,888,694,0,0
-329,330,0,0,0,0,0,0,0,0,0,-1,895,694,0,0
-322,330,0,0,0,0,0,0,0,0,0,-1,902,694,0,0
-315,330,0,0,0,0,0,0,0,0,0,-1,909,694,0,0
-308,330,0,0,0,0,0,0,0,0,0,-1,916,694,0,0
-301,330,0,0,0,0,0,0,0,0,0,-1,923,694,0,0
-294,330,0,0,0,0,0,0,0,0,0,-1,930,694,0,0
-287,330,0,0,0,0,0,0,0,0,0,-1,937,694,0,0
-280,330,0,0,0,0,0,0,0,0,0,-1,944,694,0,0
-273,330,0,0,0,0,0,0,0,0,0,-1,951,694,0,0
-266,330,0,0,0,0,0,0,0,0,0,-1,958,694,0,0
-259,330,0,0,0,0,0,0,0,0,0,-1,965,694,0,0
-252,330,0,0,0,0,0,0,0,0,0,-1,972,694,0,0
-245,330,0,0,0,0,0,0,0,0,0,-1,979,694,0,0
-238,330,0,0,0,0,0,0,0,0,0,-1,986,694,0,0
-231,330,0,0,0,0,0,0,0,0,0,-1,993,694,0,0
-224,330,0,0,0,0,0,0,0,0,0,-1,1000,694,0,0
-217,330,0,0,0,0,0,0,0,0,0,-1,1007,694,0,0
-210,330,0,0,0,0,0,0,0,0,0,-1,1014,694,0,0
-203,330,0,0,0,0,0,0,0,0,0,-1,1021,694,0,0
-196,330,0,0,0,0,0,0,0,0,0,-1,1028,694,0,0
-189,330,0,0,0,0,0,0,0,0,0,-1,1035,694,0,0
-182,330,0,0,0,0,0,0,0,0,0,-1,1042,694,0,0
-175,330,0,0,0,0,0,0,0,0,0,-1,1049,694,0,0
-168,330,0,0,0,0,0,0,0,0,0,-1,1056,694,0,0
-161,330,0,0,0,0,0,0,0,0,0,-1,1063,694,0,0
-154,330,0,0,0,0,0,0,0,0,0,-1,1070,694,0,0
-147,330,0,0,0,0,0,0,0,0,0,-1,1077,694,0,0
-140,330,0,0,0,0,0,0,0,0,0,-1,1084,694,0,0
-133,330,0,0,0,0,0,0,0,0,0,-1,1091,694,0,0
-126,330,0,0,0,0,0,0,0,0,0,-1,1098,694,0,0
-119,330,0,0,0,0,0,0,0,0,0,-1,1105,694,0,0
-112,330,0,0,0,0,0,0,0,0,0,-1,1112,694,0,0
-105,330,0,0,0,0,0,0,0,0,0,-1,1119,694,0,0
-98,330,0,0,0,0,0,0,0,0,0,-1,1126,694,0,0
-91,330,0,0,0,0,0,0,0,0,0,-1,1133,694,0,0
-84,330,0,0,0,0,0,0,0,0,0,-1,1140,694,0,0
-77,330,0,0,0,0,0,0,0,0,0,-1,1147,694,0,0
-70,330,0,0,0,0,0,0,0,0,0,-1,1154,694,0,0
-63,330,0,0,0,0,0,0,0,0,0,-1,1161,694,0,0
-56,330,0,0,0,0,0,0,0,0,0,-1,1168,694,0,0
-49,330,0,0,0,0,0,0,0,0,0,-1,1175,694,0,0
-42,330,0,0,0,0,0,0,0,0,0,-1,1182,694,0,0
-35,330,0,0,0,0,0,0,0,0,0,-1,1189,694,0,0
-28,330,0,0,0,0,0,0,0,0,0,-1,1196,694,0,0
-21,330,0,0,0,0,0,0,0,0,0,-1,1203,694,0,0
-14,330,0,0,0,0,0,0,0,0,0,-1,1210,694,0,0
-7,330,0,0,0,0,0,0,0,0,0,-1,1217,694,0,0
0,330,0,0,0,0,0,0,0,0,0,-1,1224,694,0,0
7,330,0,0,0,0,0,0,0,0,0,-1,1231,694,0,0
14,330,0,0,0,0,0,0,0,0,0,-1,1238,694,0,0
21,330,0,0,0,0,0,0,0,0,0,-1,1245,694,0,0
28,330,0,0,0,0,0,0,0,0,0,-1,1252,694,0,0
35,330,0,0,0,0,0,0,0,0,0,-1,1259,694,0,0
42,330,0,0,0,0,0,0,0,0,0,-1,1266,694,0,0
49,330,0,0,0,0,0,0,0,0,0,-1,1273,694,0,0
56,330,0,0,0,0,0,0,0,0,0,-1,1280,694,0,0
63,330,0,0,0,0,0,0,0,0,0,-1,1287,694,0,0
70,330,0,0,0,0,0,0,0,0,0,-1,1294,694,0,0
77,330,0,0,0,0,0,0,0,0,0,-1,1301,694,0,0
84,330,0,0,0,0,0,0,0,0,0,-1,1308,694,0,0
91,330,0,0,0,0,0,0,0,0,0,-1,1315,694,0,0
98,330,0,0,0,0,0,0,0,0,0,-1,1322,694,0,0
105,330,0,0,0,0,0,0,0,0,0,-1,1329,694,0,0
112,330,0,0,0,0,0,0,0,0,0,-1,1336,694,0,0
119,330,0,0,0,0,0,0,0,0,0,-1,1343,694,0,0
126,330,0,0,0,0,0,0,0,0,0,-1,1350,694,0,0
133,330,0,0,0,0,0,0,0,0,0,-1,1357,694,0,0
140,330,0,0,0,0,0,0,0,0,0,-1,1364,694,0,0
147,330,0,0,0,0,0,0,0,0,0,-1,1371,694,0,0
154,330,0,0,0,0,0,0,0,0,0,-1,1378,694,0,0
161,330,0,0,0,0,0,0,0,0,0,-1,1385,694,0,0
168,330,0,0,0,0,0,0,0,0,0,-1,1392,694,0,0
175,330,0,0,0,0,0,0,0,0,0,-1,1399,694,0,0
182,330,0,0,0,0,0,0,0,0,0,-1,1406,694,0,0
189,330,0,0,0,0,0,0,0,0,0,-1,1413,694,0,0
196,330,0,0,0,0,0,0,0,0,0,-1,1420,694,0,0
203,330,0,0,0,0,0,0,0,0,0,-1,1427,694,0,0
210,330,0,0,0,0,0,0,0,0,0,-1,1434,694,0,0
217,330,0,0,0,0,0,0,0,0,0,-1,1441,694,0,0
224,330,0,0,0,0,0,0,0,0,0,-1,1448,694,0,0
231,330,0,0,0,0,0,0,0,0,0,-1,1455,694,0,0
238,330,0,0,0,0,0,0,0,0,0,-1,1462,694,0,0
245,330,0,0,0,0,0,0,0,0,0,-1,1469,694,0,0
252,330,0,0,0,0,0,0,0,0,0,-1,1476,694,0,0
259,330,0,0,0,0,0,0,0,0,0,-1,1483,694,0,0
266,330,0,0,0,0,0,0,0,0,0,-1,1490,694,0,0
273,330,0,0,0,0,0,0,0,0,0,-1,1497,694,0,0
280,330,0,0,0,0,0,0,0,0,0,-1,1504,694,0,0
287,330,0,0,0,0,0,0,0,0,0,-1,1511,694,0,0
294,330,0,0,0,0,0,0,0,0,0,-1,1518,694,0,0
301,330,0,0,0,0,0,0,0,0,0,-1,1525,694,0,0
308,330,0,0,0,0,0,0,0,0,0,-1,1532,694,0,0
315,330,0,0,0,0,0,0,0,0,0,-1,1539,694,0,0
322,330,0,0,0,0,0,0,0,0,0,-1,1546,694,0,0
329,330,0,0,0,0,0,0,0,0,0,-1,1553,694,0,0
336,330,0,0,0,0,0,0,0,0,0,-1,1560,694,0,0
343,330,0,0,0,0,0,0,0,0,0,-1,1567,694,0,0
350,330,0,0,0,0,0,0,0,0,0,-1,1574,694,0,0
357,330,0,0,0,0,0,0,0,0,0,-1,1581,694,0,0
364,330,0,0,0,0,0,0,0,0,0,-1,1588,694,0,0
371,330,0,0,0,0,0,0,0,0,0,-1,1595,694,0,0
378,330,0,0,0,0,0,0,0,0,0,-1,1602,694,0,0
385,330,0,0,0,0,0,0,0,0,0,-1,1609,694,0,0
392,330,0,0,0,0,0,0,0,0,0,-1,1616,694,0,0
399,330,0,0,0,0,0,0,0,0,0,-1,1623,694,0,0
406,330,0,0,0,0,0,0,0,0,0,-1,1630,694,0,0
413,330,0,0,0,0,0,0,0,0,0,-1,1637,694,0,0
420,330,0,0,0,0,0,0,0,0,0,-1,1644,694,0,0
427,330,0,0,0,0,0,0,0,0,0,-1,1651,694,0,0
434,330,0,0,0,0,0,0,0,0,0,-1,1658,694,0,0
441,330,0,0,0,0,0,0,0,0,0,-1,1665,694,0,0
448,330,0,0,0,0,0,0,0,0,0,-1,1672,694,0,0
455,330,0,0,0,0,0,0,0,0,0,-1,1679,694,0,0
462,330,0,0,0,0,0,0,0,0,0,-1,1686,694,0,0
469,330,0,0,0,0,0,0,0,0,0,-1,1693,694,0,0
476,330,0,0,0,0,0,0,0,0,0,-1,1700,694,0,0
483,330,0,0,0,0,0,0,0,0,0,-1,1707,694,0,0
490,330,0,0,0,0,0,0,0,0,0,-1,1714,694,0,0
497,330,0,0,0,0,0,0,0,0,0,-1,1721,694,0,0
504,330,0,0,0,0,0,0,0,0,0,-1,1728,694,0,0
511,330,0,0,0,0,0,0,0,0,0,-1,1735,694,0,0
518,330,0,0,0,0,0,0,0,0,0,-1,1742,694,0,0
525,330,30.6694,0.69519,0,0,0,0,0,0,0,-1,1749,694,30.6694,-0.695206
532,330,30.9469,1.32501,0,0,0,0,0,0,0,-1,1756,694,30.9469,-1.32501
539,330,31.5155,1.62506,0,0,0,0,0,0,0,-1,1763,694,31.5155,-1.62507
546,330,31.4187,1.85651,0,0,0,0,0,0,0,-1,1770,694,31.4187,-1.85651
553,330,31.8452,1.81476,0,0,0,0,0,0,0,-1,1777,694,31.8452,-1.81475
560,330,32.2401,2.43225,0,0,0,0,0,0,0,-1,1784,694,32.2401,-2.43227
567,330,18.0321,3.98578,0,0,0,0,0,0,0,-1,1791,694,18.0321,-3.98576
574,330,12.0454,2.1662,0,0,0,0,0,0,0,-1,1798,694,12.0455,-2.16618
581,330,11.4215,4.50836,0,0,0,0,0,0,0,-1,1805,694,11.4215,-4.50837
588,330,6.45667,-0.0630493,0,0,0,0,0,0,0,-1,1812,694,6.45661,0.0630695
595,330,8.23193,-0.258484,0,0,0,0,0,0,0,-1,1819,694,8.23188,0.258459
602,330,29.4761,-7.78802,0,0,0,0,0,0,0,-1,1826,694,29.476,7.788
609,330,29.6299,-6.9621,0.00182473,2.26108e-05,0.000164154,0.00183956,7.78021e-06,0.0901012,0.00122379,0.0356545,1833,694,29.6299,6.9621
616,330,29.689,-6.26581,0.00202728,0.000199017,0.000519023,0.00216435,6.19488e-05,0.258194,0.0014227,0.0121928,1840,694,29.689,6.26582
623,330,29.6652,-5.59802,0.00170434,0.000211057,0.00044811,0.00182849,8.69075e-05,0.270272,0.00119108,0.0139829,1847,694,29.6651,5.59804
630,330,29.6383,-4.91815,0.00117865,0.000225466,0.000367166,0.00130368,0.000100434,0.328215,0.000837651,0.013315,1854,694,29.6383,4.91813
637,330,29.6296,-4.23889,0.000354516,0.00029603,0.000182976,0.000510571,0.000139975,0.70616,0.000304637,0.0117506,1861,694,29.6297,4.23892
644,330,29.5673,-3.56714,-0.000699454,0.000361447,-8.84122e-05,0.000368765,-0.000706771,-1.48822,0.0006311,0.00796853,1868,694,29.5672,3.56717
651,330,29.55,-2.8858,-0.00202572,0.00041974,-0.000460326,0.00050352,-0.0021095,-1.39076,0.00160079,0.0110731,1875,694,29.5501,2.8858
658,330,29.5146,-2.21057,-0.00367538,0.000559978,-0.000923348,0.000752523,-0.00386792,-1.36521,0.00286262,0.0122314,1882,694,29.5146,2.21055
665,330,29.4818,-1.5401,-0.00567333,0.00069979,-0.00151902,0.00104333,-0.00601687,-1.34838,0.00440044,0.0115503,1889,694,29.4818,1.54012
672,330,29.5365,-0.84906,-0.00812567,0.00095638,-0.0023277,0.00151821,-0.00868749,-1.33396,0.00635844,0.0291138,1896,694,29.5365,0.849051
679,330,29.1085,-0.178101,-0.0113855,0.00136011,-0.00335687,0.00219016,-0.0122156,-1.32839,0.00896341,0.0477073,1903,694,29.1085,0.178081
686,330,28.7889,0.748474,0,0,0,0,0,0,0,-1,1910,694,28.7889,-0.748465
693,330,17.3999,2.5976,0,0,0,0,0,0,0,-1,1917,694,17.4,-2.59759
700,330,17.1072,4.13,0,0,0,0,0,0,0,-1,1924,694,17.1071,-4.13002
707,330,16.663,4.88672,0,0,0,0,0,0,0,-1,1931,694,16.6629,-4.88673
714,330,16.5454,5.80896,0,0,0,0,0,0,0,-1,1938,694,16.5454,-5.80899
721,330,0,0,0,0,0,0,0,0,0,-1,1945,694,0,0
728,330,0,0,0,0,0,0,0,0,0,-1,1952,694,0,0
735,330,0,0,0,0,0,0,0,0,0,-1,1959,694,0,0
742,330,0,0,0,0,0,0,0,0,0,-1,1966,694,0,0
749,330,0,0,0,0,0,0,0,0,0,-1,1973,694,0,0
756,330,0,0,0,0,0,0,0,0,0,-1,1980,694,0,0
763,330,0,0,0,0,0,0,0,0,0,-1,1987,694,0,0
770,330,0,0,0,0,0,0,0,0,0,-1,1994,694,0,0
777,330,0,0,0,0,0,0,0,0,0,-1,2001,694,0,0
784,330,0,0,0,0,0,0,0,0,0,-1,2008,694,0,0
791,330,0,0,0,0,0,0,0,0,0,-1,2015,694,0,0
798,330,0,0,0,0,0,0,0,0,0,-1,2022,694,0,0
805,330,0,0,0,0,0,0,0,0,0,-1,2029,694,0,0
812,330,0,0,0,0,0,0,0,0,0,-1,2036,694,0,0
-700,323,0,0,0,0,0,0,0,0,0,-1,524,701,0,0
-693,323,0,0,0,0,0,0,0,0,0,-1,531,701,0,0
-686,323,0,0,0,0,0,0,0,0,0,-1,538,701,0,0
-679,323,0,0,0,0,0,0,0,0,0,-1,545,701,0,0
-672,323,0,0,0,0,0,0,0,0,0,-1,552,701,0,0
-665,323,0,0,0,0,0,0,0,0,0,-1,559,701,0,0
-658,323,0,0,0,0,0,0,0,0,0,-1,566,701,0,0
-651,323,0,0,0,0,0,0,0,0,0,-1,573,701,0,0
-644,323,0,0,0,0,0,0,0,0,0,-1,580,701,0,0
-637,323,0,0,0,0,0,0,0,0,0,-1,587,701,0,0
-630,323,0,0,0,0,0,0,0,0,0,-1,594,701,0,0
-623,323,0,0,0,0,0,0,0,0,0,-1,601,701,0,0
-616,323,0,0,0,0,0,0,0,0,0,-1,608,701,0,0
-609,323,0,0,0,0,0,0,0,0,0,-1,615,701,0,0
-602,323,-4.15833,2.12256,0,0,0,0,0,0,0,-1,622,701,-4.1583,-2.12257
-595,323,-4.052,1.79156,0,0,0,0,0,0,0,-1,629,701,-4.05198,-1.79158
-588,323,-4.07019,1.94543,0,0,0,0,0,0,0,-1,636,701,-4.07019,-1.94542
-581,323,-6.63727,0.562805,0,0,0,0,0,0,0,-1,643,701,-6.63728,-0.56279
-574,323,-6.15887,0.426697,0,0,0,0,0,0,0,-1,650,701,-6.15887,-0.426727
-567,323,-10.0015,0.0371094,0,0,0,0,0,0,0,-1,657,701,-10.0015,-0.037126
-560,323,-16.3503,-1.16956,0,0,0,0,0,0,0,-1,664,701,-16.3503,1.16957
-553,323,-18.534,-2.46478,0,0,0,0,0,0,0,-1,671,701,-18.534,2.46481
-546,323,-18.6069,-2.61383,4.07744e-05,0.00242592,0.000518411,0.00253372,-6.70295e-05,1.36577,0.00171193,0.0276619,678,701,-18.6069,2.61385
-539,323,-18.5994,-3.18896,0.000337381,0.00188862,0.000376833,0.00197531,0.000250684,1.34466,0.00124178,0.0222012,685,701,-18.5994,3.18895
-532,323,-18.6616,-3.89453,0.000531392,0.00135422,0.000289765,0.00144602,0.000439591,1.26399,0.000855974,0.0108976,692,701,-18.6615,3.89455
-525,323,-18.6914,-4.57202,0.000660264,0.000861895,0.000296997,0.00107472,0.000447439,0.949021,0.000623379,0.00746626,699,701,-18.6914,4.57205
-518,323,-18.6937,-5.18585,0.000800737,0.000420075,0.000316667,0.00097987,0.000240942,0.514805,0.000589579,0.0104381,706,701,-18.6937,5.18587
-511,323,-18.7452,-5.82367,0.00094174,2.6956e-05,0.000337,0.00105248,-8.3786e-05,0.317495,0.000731185,0.0139718,713,701,-18.7452,5.82369
-504,323,-18.7858,-6.487,0.000765024,-0.000523709,-9.47696e-05,0.000771956,-0.000530641,-0.0730136,0.000756344,0.014178,720,701,-18.7858,6.48703
-497,323,-18.7875,-7.10785,0.000541046,-0.0010107,-0.000748441,0.000843201,-0.00131285,-0.383703,0.0012546,0.0123922,727,701,-18.7875,7.10784
-490,323,-18.8117,-7.75897,0.000163073,-0.00167468,-0.00191256,0.00136604,-0.00287765,-0.561458,0.00250137,0.0138088,734,701,-18.8117,7.75899
-483,323,-18.8087,-8.41852,-0.000528436,-0.00250414,-0.00385593,0.00246417,-0.00549675,-0.66,0.00470608,0.0302506,741,701,-18.8087,8.41851
-476,323,-18.7873,-9.08673,0,0,0,0,0,0,0,-1,748,701,-18.7873,9.08671
-469,323,-8.33301,-3.64001,0,0,0,0,0,0,0,-1,755,701,-8.33298,3.64
-462,323,-5.29431,-1.45697,0,0,0,0,0,0,0,-1,762,701,-5.29431,1.45699
-455,323,-5.0658,-1.36639,0,0,0,0,0,0,0,-1,769,701,-5.06578,1.3664
-448,323,-4.91608,-1.59601,0,0,0,0,0,0,0,-1,776,701,-4.91606,1.59604
-441,323,-14.4006,0.535217,0,0,0,0,0,0,0,-1,783,701,-14.4006,-0.535203
-434,323,-15.3158,2.479,0,0,0,0,0,0,0,-1,790,701,-15.3158,-2.47898
-427,323,-28.3923,1.16797,0,0,0,0,0,0,0,-1,797,701,-28.3923,-1.16796
-420,323,-28.7292,1.09302,0,0,0,0,0,0,0,-1,804,701,-28.7292,-1.09304
-413,323,-28.7955,1.22418,0,0,0,0,0,0,0,-1,811,701,-28.7956,-1.22419
-406,323,0,0,0,0,0,0,0,0,0,-1,818,701,0,0
-399,323,0,0,0,0,0,0,0,0,0,-1,825,701,0,0
-392,323,0,0,0,0,0,0,0,0,0,-1,832,701,0,0
-385,323,0,0,0,0,0,0,0,0,0,-1,839,701,0,0
-378,323,0,0,0,0,0,0,0,0,0,-1,846,701,0,0
-371,323,0,0,0,0,0,0,0,0,0,-1,853,701,0,0
-364,323,0,0,0,0,0,0,0,0,0,-1,860,701,0,0
-357,323,0,0,0,0,0,0,0,0,0,-1,867,701,0,0
-350,323,0,0,0,0,0,0,0,0,0,-1,874,701,0,0
-343,323,0,0,0,0,0,0,0,0,0,-1,881,701,0,0
-336,323,0,0,0,0,0,0,0,0,0,-1,888,701,0,0
-329,323,0,0,0,0,0,0,0,0,0,-1,895,701,0,0
-322,323,0,0,0,0,0,0,0,0,0,-1,902,701,0,0
-315,323,0,0,0,0,0,0,0,0,0,-1,909,701,0,0
-308,323,0,0,0,0,0,0,0,0,0,-1,916,701,0,0
-301,323,0,0,0,0,0,0,0,0,0,-1,923,701,0,0
-294,323,0,0,0,0,0,0,0,0,0,-1,930,701,0,0
-287,323,0,0,0,0,0,0,0,0,0,-1,937,701,0,0
-280,323,0,0,0,0,0,0,0,0,0,-1,944,701,0,0
-273,323,0,0,0,0,0,0,0,0,0,-1,951,701,0,0
-266,323,0,0,0,0,0,0,0,0,0,-1,958,701,0,0
-259,323,0,0,0,0,0,0,0,0,0,-1,965,701,0,0
-252,323,0,0,0,0,0,0,0,0,0,-1,972,701,0,0
-245,323,0,0,0,0,0,0,0,0,0,-1,979,701,0,0
-238,323,0,0,0,0,0,0,0,0,0,-1,986,701,0,0
-231,323,0,0,0,0,0,0,0,0,0,-1,993,701,0,0
-224,323,0,0,0,0,0,0,0,0,0,-1,1000,701,0,0
-217,323,0,0,0,0,0,0,0,0,0,-1,1007,701,0,0
-210,323,0,0,0,0,0,0,0,0,0,-1,1014,701,0,0
-203,323,0,0,0,0,0,0,0,0,0,-1,1021,701,0,0
-196,323,0,0,0,0,0,0,0,0,0,-1,1028,701,0,0
-189,323,0,0,0,0,0,0,0,0,0,-1,1035,701,0,0
-182,323,0,0,0,0,0,0,0,0,0,-1,1042,701,0,0
-175,323,0,0,0,0,0,0,0,0,0,-1,1049,701,0,0
-168,323,0,0,0,0,0,0,0,0,0,-1,1056,701,0,0
-161,323,0,0,0,0,0,0,0,0,0,-1,1063,701,0,0
-154,323,0,0,0,0,0,0,0,0,0,-1,1070,701,0,0
-147,323,0,0,0,0,0,0,0,0,0,-1,1077,701,0,0
-140,323,0,0,0,0,0,0,0,0,0,-1,1084,701,0,0
-133,323,0,0,0,0,0,0,0,0,0,-1,1091,701,0,0
-126,323,0,0,0,0,0,0,0,0,0,-1,1098,701,0,0
-119,323,0,0,0,0,0,0,0,0,0,-1,1105,701,0,0
-112,323,0,0,0,0,0,0,0,0,0,-1,1112,701,0,0
-105,323,0,0,0,0,0,0,0,0,0,-1,1119,701,0,0
-98,323,0,0,0,0,0,0,0,0,0,-1,1126,701,0,0
-91,323,0,0,0,0,0,0,0,0,0,-1,1133,701,0,0
-84,323,0,0,0,0,0,0,0,0,0,-1,1140,701,0,0
-77,323,0,0,0,0,0,0,0,0,0,-1,1147,701,0,0
-70,323,0,0,0,0,0,0,0,0,0,-1,1154,701,0,0
-63,323,0,0,0,0,0,0,0,0,0,-1,1161,701,0,0
-56,323,0,0,0,0,0,0,0,0,0,-1,1168,701,0,0
-49,323,0,0,0,0,0,0,0,0,0,-1,1175,701,0,0
-42,323,0,0,0,0,0,0,0,0,0,-1,1182,701,0,0
-35,323,0,0,0,0,0,0,0,0,0,-1,1189,701,0,0
-28,323,0,0,0,0,0,0,0,0,0,-1,1196,701,0,0
-21,323,0,0,0,0,0,0,0,0,0,-1,1203,701,0,0
-14,323,0,0,0,0,0,0,0,0,0,-1,1210,701,0,0
-7,323,0,0,0,0,0,0,0,0,0,-1,1217,701,0,0
0,323,0,0,0,0,0,0,0,0,0,-1,1224,701,0,0
7,323,0,0,0,0,0,0,0,0,0,-1,1231,701,0,0
14,323,0,0,0,0,0,0,0,0,0,-1,1238,701,0,0
21,323,0,0,0,0,0,0,0,0,0,-1,1245,701,0,0
28,323,0,0,0,0,0,0,0,0,0,-1,1252,701,0,0
35,323,0,0,0,0,0,0,0,0,0,-1,1259,701,0,0
42,323,0,0,0,0,0,0,0,0,0,-1,1266,701,0,0
49,323,0,0,0,0,0,0,0,0,0,-1,1273,701,0,0
56,323,0,0,0,0,0,0,0,0,0,-1,1280,701,0,0
63,323,0,0,0,0,0,0,0,0,0,-1,1287,701,0,0
70,323,0,0,0,0,0,0,0,0,0,-1,1294,701,0,0
77,323,0,0,0,0,0,0,0,0,0,-1,1301,701,0,0
84,323,0,0,0,0,0,0,0,0,0,-1,1308,701,0,0
91,323,0,0,0,0,0,0,0,0,0,-1,1315,701,0,0
98,323,0,0,0,0,0,0,0,0,0,-1,1322,701,0,0
105,323,0,0,0,0,0,0,0,0,0,-1,1329,701,0,0
112,323,0,0,0,0,0,0,0,0,0,-1,1336,701,0,0
119,323,0,0,0,0,0,0,0,0,0,-1,1343,701,0,0
126,323,0,0,0,0,0,0,0,0,0,-1,1350,701,0,0
133,323,0,0,0,0,0,0,0,0,0,-1,1357,701,0,0
140,323,0,0,0,0,0,0,0,0,0,-1,1364,701,0,0
147,323,0,0,0,0,0,0,0,0,0,-1,1371,701,0,0
154,323,0,0,0,0,0,0,0,0,0,-1,1378,701,0,0
161,323,0,0,0,0,0,0,0,0,0,-1,1385,701,0,0
168,323,0,0,0,0,0,0,0,0,0,-1,1392,701,0,0
175,323,0,0,0,0,0,0,0,0,0,-1,1399,701,0,0
182,323,0,0,0,0,0,0,0,0,0,-1,1406,701,0,0
189,323,0,0,0,0,0,0,0,0,0,-1,1413,701,0,0
196,323,0,0,0,0,0,0,0,0,0,-1,1420,701,0,0
203,323,0,0,0,0,0,0,0,0,0,-1,1427,701,0,0
210,323,0,0,0,0,0,0,0,0,0,-1,1434,701,0,0
217,323,0,0,0,0,0,0,0,0,0,-1,1441,701,0,0
224,323,0,0,0,0,0,0,0,0,0,-1,1448,701,0,0
231,323,0,0,0,0,0,0,0,0,0,-1,1455,701,0,0
238,323,0,0,0,0,0,0,0,0,0,-1,1462,701,0,0
245,323,0,0,0,0,0,0,0,0,0,-1,1469,701,0,0
252,323,0,0,0,0,0,0,0,0,0,-1,1476,701,0,0
259,323,0,0,0,0,0,0,0,0,0,-1,1483,701,0,0
266,323,0,0,0,0,0,0,0,0,0,-1,1490,701,0,0
273,323,0,0,0,0,0,0,0,0,0,-1,1497,701,0,0
280,323,0,0,0,0,0,0,0,0,0,-1,1504,701,0,0
287,323,0,0,0,0,0,0,0,0,0,-1,1511,701,0,0
294,323,0,0,0,0,0,0,0,0,0,-1,1518,701,0,0
301,323,0,0,0,0,0,0,0,0,0,-1,1525,701,0,0
308,323,0,0,0,0,0,0,0,0,0,-1,1532,701,0,0
315,323,0,0,0,0,0,0,0,0,0,-1,1539,701,0,0
322,323,0,0,0,0,0,0,0,0,0,-1,1546,701,0,0
329,323,0,0,0,0,0,0,0,0,0,-1,1553,701,0,0
336,323,0,0,0,0,0,0,0,0,0,-1,1560,701,0,0
343,323,0,0,0,0,0,0,0,0,0,-1,1567,701,0,0
350,323,0,0,0,0,0,0,0,0,0,-1,1574,701,0,0
357,323,0,0,0,0,0,0,0,0,0,-1,1581,701,0,0
364,323,0,0,0,0,0,0,0,0,0,-1,1588,701,0,0
371,323,0,0,0,0,0,0,0,0,0,-1,1595,701,0,0
378,323,0,0,0,0,0,0,0,0,0,-1,1602,701,0,0
385,323,0,0,0,0,0,0,0,0,0,-1,1609,701,0,0
392,323,0,0,0,0,0,0,0,0,0,-1,1616,701,0,0
399,323,0,0,0,0,0,0,0,0,0,-1,1623,701,0,0
406,323,0,0,0,0,0,0,0,0,0,-1,1630,701,0,0
413,323,0,0,0,0,0,0,0,0,0,-1,1637,701,0,0
420,323,0,0,0,0,0,0,0,0,0,-1,1644,701,0,0
427,323,0,0,0,0,0,0,0,0,0,-1,1651,701,0,0
434,323,0,0,0,0,0,0,0,0,0,-1,1658,701,0,0
441,323,0,0,0,0,0,0,0,0,0,-1,1665,701,0,0
448,323,0,0,0,0,0,0,0,0,0,-1,1672,701,0,0
455,323,0,0,0,0,0,0,0,0,0,-1,1679,701,0,0
462,323,0,0,0,0,0,0,0,0,0,-1,1686,701,0,0
469,323,0,0,0,0,0,0,0,0,0,-1,1693,701,0,0
476,323,0,0,0,0,0,0,0,0,0,-1,1700,701,0,0
483,323,0,0,0,0,0,0,0,0,0,-1,1707,701,0,0
490,323,0,0,0,0,0,0,0,0,0,-1,1714,701,0,0
497,323,0,0,0,0,0,0,0,0,0,-1,1721,701,0,0
504,323,0,0,0,0,0,0,0,0,0,-1,1728,701,0,0
511,323,0,0,0,0,0,0,0,0,0,-1,1735,701,0,0
518,323,0,0,0,0,0,0,0,0,0,-1,1742,701,0,0
525,323,0,0,0,0,0,0,0,0,0,-1,1749,701,0,0
532,323,33.6193,1.69446,0,0,0,0,0,0,0,-1,1756,701,33.6193,-1.69444
539,323,32.2698,2.44037,0,0,0,0,0,0,0,-1,1763,701,32.2697,-2.44036
546,323,31.1644,3.9444,0,0,0,0,0,0,0,-1,1770,701,31.1644,-3.94438
553,323,30.2488,5.8775,0,0,0,0,0,0,0,-1,1777,701,30.2487,-5.87752
560,323,40.6711,1.25153,0,0,0,0,0,0,0,-1,1784,701,40.6711,-1.25154
567,323,42.1637,2.01208,0,0,0,0,0,0,0,-1,1791,701,42.1637,-2.01207
574,323,12.514,5.89685,0,0,0,0,0,0,0,-1,1798,701,12.5141,-5.89683
581,323,11.821,5.3476,0,0,0,0,0,0,0,-1,1805,701,11.821,-5.34762
588,323,11.7933,7.00818,0,0,0,0,0,0,0,-1,1812,701,11.7933,-7.00819
595,323,6.67847,0.06604,0,0,0,0,0,0,0,-1,1819,701,6.67841,-0.0660418
602,323,29.9622,-7.5318,0,0,0,0,0,0,0,-1,1826,701,29.9622,7.5318
609,323,30.2451,-6.85706,0.00250209,-1.91774e-05,0.000339344,0.00254697,-6.40518e-05,0.131476,0.00171973,0.0497302,1833,701,30.2452,6.85705
616,323,30.3577,-6.2088,0.00259548,0.000116123,0.000698778,0.00277886,-6.72565e-05,0.256641,0.0018754,0.0127755,1840,701,30.3577,6.20878
623,323,30.3411,-5.54413,0.00216695,0.000110437,0.000565839,0.00231236,-3.49695e-05,0.251533,0.00155336,0.0130296,1847,701,30.3411,5.5441
630,323,30.3096,-4.87024,0.00163871,0.000102917,0.000469993,0.00177112,-2.94967e-05,0.274618,0.0011907,0.0137224,1854,701,30.3096,4.87026
637,323,30.2961,-4.20062,0.00081069,0.000182336,0.000290318,0.000924288,6.8738e-05,0.372974,0.000594605,0.010333,1861,701,30.2961,4.2006
644,323,30.2576,-3.54578,-0.000186762,0.000313304,6.1395e-05,0.000320732,-0.000194189,1.4504,0.000300267,0.00805906,1868,701,30.2575,3.54581
651,323,30.2468,-2.85706,-0.00138032,0.000460304,-0.000235914,0.00049006,-0.00141007,-1.44533,0.0011391,0.0108684,1875,701,30.2468,2.85707
658,323,30.1736,-2.15906,-0.00279204,0.000746982,-0.000573504,0.000837598,-0.00288266,-1.41409,0.00225347,0.016431,1882,701,30.1736,2.15906
665,323,30.1124,-1.50391,-0.00444938,0.0010879,-0.000992252,0.00126033,-0.00462182,-1.39873,0.00357613,0.0140063,1889,701,30.1125,1.50392
672,323,30.1421,-0.800964,-0.00639097,0.00158219,-0.00151858,0.00186163,-0.00667041,-1.38882,0.00518021,0.0164013,1896,701,30.1421,0.80094
679,323,29.9785,-0.13739,-0.00884824,0.0022923,-0.0021471,0.00269178,-0.00924772,-1.38684,0.00723138,0.0477758,1903,701,29.9786,0.137382
686,323,29.8318,0.334839,0,0,0,0,0,0,0,-1,1910,701,29.8318,-0.334846
693,323,23.8806,1.08844,0,0,0,0,0,0,0,-1,1917,701,23.8806,-1.08845
700,323,10.7705,0.828613,0,0,0,0,0,0,0,-1,1924,701,10.7705,-0.828591
707,323,16.9005,4.79193,0,0,0,0,0,0,0,-1,1931,701,16.9005,-4.7919
714,323,16.2346,6.25958,0,0,0,0,0,0,0,-1,1938,701,16.2346,-6.25956
721,323,0,0,0,0,0,0,0,0,0,-1,1945,701,0,0
728,323,0,0,0,0,0,0,0,0,0,-1,1952,701,0,0
735,323,0,0,0,0,0,0,0,0,0,-1,1959,701,0,0
742,323,0,0,0,0,0,0,0,0,0,-1,1966,701,0,0
749,323,0,0,0,0,0,0,0,0,0,-1,1973,701,0,0
756,323,0,0,0,0,0,0,0,0,0,-1,1980,701,0,0
763,323,0,0,0,0,0,0,0,0,0,-1,1987,701,0,0
770,323,0,0,0,0,0,0,0,0,0,-1,1994,701,0,0
777,323,0,0,0,0,0,0,0,0,0,-1,2001,701,0,0
784,323,0,0,0,0,0,0,0,0,0,-1,2008,701,0,0
791,323,0,0,0,0,0,0,0,0,0,-1,2015,701,0,0
798,323,0,0,0,0,0,0,0,0,0,-1,2022,701,0,0
805,323,0,0,0,0,0,0,0,0,0,-1,2029,701,0,0
812,323,0,0,0,0,0,0,0,0,0,-1,2036,701,0,0
-700,316,0,0,0,0,0,0,0,0,0,-1,524,708,0,0
-693,316,0,0,0,0,0,0,0,0,0,-1,531,708,0,0
-686,316,0,0,0,0,0,0,0,0,0,-1,538,708,0,0
-679,316,0,0,0,0,0,0,0,0,0,-1,545,708,0,0
-672,316,0,0,0,0,0,0,0,0,0,-1,552,708,0,0
-665,316,0,0,0,0,0,0,0,0,0,-1,559,708,0,0
-658,316,0,0,0,0,0,0,0,0,0,-1,566,708,0,0
-651,316,0,0,0,0,0,0,0,0,0,-1,573,708,0,0
-644,316,0,0,0,0,0,0,0,0,0,-1,580,708,0,0
-637,316,0,0,0,0,0,0,0,0,0,-1,587,708,0,0
-630,316,0,0,0,0,0,0,0,0,0,-1,594,708,0,0
-623,316,0,0,0,0,0,0,0,0,0,-1,601,708,0,0
-616,316,0,0,0,0,0,0,0,0,0,-1,608,708,0,0
-609,316,0,0,0,0,0,0,0,0,0,-1,615,708,0,0
-602,316,-0.451782,-0.0494995,0,0,0,0,0,0,0,-1,622,708,-0.451768,0.0495022
-595,316,-3.3761,2.17188,0,0,0,0,0,0,0,-1,629,708,-3.37609,-2.17189
-588,316,-5.00177,2.60675,0,0,0,0,0,0,0,-1,636,708,-5.00175,-2.60676
-581,316,-3.94653,0.393433,0,0,0,0,0,0,0,-1,643,708,-3.94655,-0.39342
-574,316,-9.67395,1.06067,0,0,0,0,0,0,0,-1,650,708,-9.67396,-1.06065
-567,316,-10.1962,0.448425,0,0,0,0,0,0,0,-1,657,708,-10.1962,-0.448411
-560,316,-18.9941,-1.75067,0,0,0,0,0,0,0,-1,664,708,-18.9941,1.75068
-553,316,-19.1183,-2.13147,0,0,0,0,0,0,0,-1,671,708,-19.1183,2.13149
-546,316,-19.3491,-2.51532,0.000312782,0.00286989,-7.33186e-06,0.00286991,0.000312761,-1.56793,0.00181801,0.0317113,678,708,-19.3491,2.51532
-539,316,-19.26,-3.22247,0.000553333,0.00205537,5.50586e-05,0.00205739,0.000551317,1.53421,0.00122973,0.0137308,685,708,-19.26,3.2225
-532,316,-19.3015,-3.88354,0.000679114,0.00122803,0.000154967,0.00126876,0.000638387,1.3138,0.000732525,0.0103253,692,708,-19.3015,3.88356
-525,316,-19.3107,-4.50464,0.000720818,0.00065945,0.000303944,0.000995623,0.000384645,0.735092,0.000579753,0.00855845,699,708,-19.3107,4.50463
-518,316,-19.3201,-5.14917,0.000749087,0.000133786,0.00044069,0.00097889,-9.60172e-05,0.48067,0.00068684,0.0102349,706,708,-19.3201,5.14914
-511,316,-19.3734,-5.79688,0.000517716,-0.000361377,0.000554311,0.000785603,-0.000629264,0.450181,0.000818535,0.0115454,713,708,-19.3734,5.79686
-504,316,-19.4091,-6.47803,-0.000337139,-0.00118056,-6.82142e-05,-0.000331658,-0.00118604,-0.0801837,0.000706581,0.0139242,720,708,-19.409,6.47804
-497,316,-19.4146,-7.07837,-0.00144112,-0.00193019,-0.00085433,-0.000797016,-0.00257429,-0.646011,0.00152176,0.0130501,727,708,-19.4146,7.07838
-490,316,-19.429,-7.72296,-0.00306115,-0.00294115,-0.00228977,-0.0007106,-0.0052917,-0.798497,0.00331641,0.0179867,734,708,-19.429,7.72294
-483,316,-19.4286,-8.45422,0,0,0,0,0,0,0,-1,741,708,-19.4286,8.45423
-476,316,-8.90894,-3.31207,0,0,0,0,0,0,0,-1,748,708,-8.90896,3.31206
-469,316,-6.24194,-1.42725,0,0,0,0,0,0,0,-1,755,708,-6.24192,1.42725
-462,316,-5.74237,-1.40039,0,0,0,0,0,0,0,-1,762,708,-5.74238,1.40039
-455,316,-5.44745,-1.21899,0,0,0,0,0,0,0,-1,769,708,-5.44746,1.21898
-448,316,-14.8945,0.655396,0,0,0,0,0,0,0,-1,776,708,-14.8946,-0.655396
-441,316,-14.9626,0.576111,0,0,0,0,0,0,0,-1,783,708,-14.9626,-0.576115
-434,316,-27.7723,1.15576,0,0,0,0,0,0,0,-1,790,708,-27.7723,-1.15579
-427,316,-28.0504,1.31427,0,0,0,0,0,0,0,-1,797,708,-28.0504,-1.31427
-420,316,-28.198,1.62891,0,0,0,0,0,0,0,-1,804,708,-28.198,-1.62889
-413,316,0,0,0,0,0,0,0,0,0,-1,811,708,0,0
-406,316,0,0,0,0,0,0,0,0,0,-1,818,708,0,0
-399,316,0,0,0,0,0,0,0,0,0,-1,825,708,0,0
-392,316,0,0,0,0,0,0,0,0,0,-1,832,708,0,0
-385,316,0,0,0,0,0,0,0,0,0,-1,839,708,0,0
-378,316,0,0,0,0,0,0,0,0,0,-1,846,708,0,0
-371,316,0,0,0,0,0,0,0,0,0,-1,853,708,0,0
-364,316,0,0,0,0,0,0,0,0,0,-1,860,708,0,0
-357,316,0,0,0,0,0,0,0,0,0,-1,867,708,0,0
-350,316,0,0,0,0,0,0,0,0,0,-1,874,708,0,0
-343,316,0,0,0,0,0,0,0,0,0,-1,881,708,0,0
-336,316,0,0,0,0,0,0,0,0,0,-1,888,708,0,0
-329,316,0,0,0,0,0,0,0,0,0,-1,895,708,0,0
-322,316,0,0,0,0,0,0,0,0,0,-1,902,708,0,0
-315,316,0,0,0,0,0,0,0,0,0,-1,909,708,0,0
-308,316,0,0,0,0,0,0,0,0,0,-1,916,708,0,0
-301,316,0,0,0,0,0,0,0,0,0,-1,923,708,0,0
-294,316,0,0,0,0,0,0,0,0,0,-1,930,708,0,0
-287,316,0,0,0,0,0,0,0,0,0,-1,937,708,0,0
-280,316,0,0,0,0,0,0,0,0,0,-1,944,708,0,0
-273,316,0,0,0,0,0,0,0,0,0,-1,951,708,0,0
-266,316,0,0,0,0,0,0,0,0,0,-1,958,708,0,0
-259,316,0,0,0,0,0,0,0,0,0,-1,965,708,0,0
-252,316,0,0,0,0,0,0,0,0,0,-1,972,708,0,0
-245,316,0,0,0,0,0,0,0,0,0,-1,979,708,0,0
-238,316,0,0,0,0,0,0,0,0,0,-1,986,708,0,0
-231,316,0,0,0,0,0,0,0,0,0,-1,993,708,0,0
-224,316,0,0,0,0,0,0,0,0,0,-1,1000,708,0,0
-217,316,0,0,0,0,0,0,0,0,0,-1,1007,708,0,0
-210,316,0,0,0,0,0,0,0,0,0,-1,1014,708,0,0
-203,316,0,0,0,0,0,0,0,0,0,-1,1021,708,0,0
-196,316,0,0,0,0,0,0,0,0,0,-1,1028,708,0,0
-189,316,0,0,0,0,0,0,0,0,0,-1,1035,708,0,0
-182,316,0,0,0,0,0,0,0,0,0,-1,1042,708,0,0
-175,316,0,0,0,0,0,0,0,0,0,-1,1049,708,0,0
-168,316,0,0,0,0,0,0,0,0,0,-1,1056,708,0,0
-161,316,0,0,0,0,0,0,0,0,0,-1,1063,708,0,0
-154,316,0,0,0,0,0,0,0,0,0,-1,1070,708,0,0
-147,316,0,0,0,0,0,0,0,0,0,-1,1077,708,0,0
-140,316,0,0,0,0,0,0,0,0,0,-1,1084,708,0,0
-133,316,0,0,0,0,0,0,0,0,0,-1,1091,708,0,0
-126,316,0,0,0,0,0,0,0,0,0,-1,1098,708,0,0
-119,316,0,0,0,0,0,0,0,0,0,-1,1105,708,0,0
-112,316,0,0,0,0,0,0,0,0,0,-1,1112,708,0,0
-105,316,0,0,0,0,0,0,0,0,0,-1,1119,708,0,0
-98,316,0,0,0,0,0,0,0,0,0,-1,1126,708,0,0
-91,316,0,0,0,0,0,0,0,0,0,-1,1133,708,0,0
-84,316,0,0,0,0,0,0,0,0,0,-1,1140,708,0,0
-77,316,0,0,0,0,0,0,0,0,0,-1,1147,708,0,0
-70,316,0,0,0,0,0,0,0,0,0,-1,1154,708,0,0
-63,316,0,0,0,0,0,0,0,0,0,-1,1161,708,0,0
-56,316,0,0,0,0,0,0,0,0,0,-1,1168,708,0,0
-49,316,0,0,0,0,0,0,0,0,0,-1,1175,708,0,0
-42,316,0,0,0,0,0,0,0,0,0,-1,1182,708,0,0
-35,316,0,0,0,0,0,0,0,0,0,-1,1189,708,0,0
-28,316,0,0,0,0,0,0,0,0,0,-1,1196,708,0,0
-21,316,0,0,0,0,0,0,0,0,0,-1,1203,708,0,0
-14,316,0,0,0,0,0,0,0,0,0,-1,1210,708,0,0
-7,316,0,0,0,0,0,0,0,0,0,-1,1217,708,0,0
0,316,0,0,0,0,0,0,0,0,0,-1,1224,708,0,0
7,316,0,0,0,0,0,0,0,0,0,-1,1231,708,0,0
14,316,0,0,0,0,0,0,0,0,0,-1,1238,708,0,0
21,316,0,0,0,0,0,0,0,0,0,-1,1245,708,0,0
28,316,0,0,0,0,0,0,0,0,0,-1,1252,708,0,0
35,316,0,0,0,0,0,0,0,0,0,-1,1259,708,0,0
42,316,0,0,0,0,0,0,0,0,0,-1,1266,708,0,0
49,316,0,0,0,0,0,0,0,0,0,-1,1273,708,0,0
56,316,0,0,0,0,0,0,0,0,0,-1,1280,708,0,0
63,316,0,0,0,0,0,0,0,0,0,-1,1287,708,0,0
70,316,0,0,0,0,0,0,0,0,0,-1,1294,708,0,0
77,316,0,0,0,0,0,0,0,0,0,-1,1301,708,0,0
84,316,0,0,0,0,0,0,0,0,0,-1,1308,708,0,0
91,316,0,0,0,0,0,0,0,0,0,-1,1315,708,0,0
98,316,0,0,0,0,0,0,0,0,0,-1,1322,708,0,0
105,316,0,0,0,0,0,0,0,0,0,-1,1329,708,0,0
112,316,0,0,0,0,0,0,0,0,0,-1,1336,708,0,0
119,316,0,0,0,0,0,0,0,0,0,-1,1343,708,0,0
126,316,0,0,0,0,0,0,0,0,0,-1,1350,708,0,0
133,316,0,0,0,0,0,0,0,0,0,-1,1357,708,0,0
140,316,0,0,0,0,0,0,0,0,0,-1,1364,708,0,0
147,316,0,0,0,0,0,0,0,0,0,-1,1371,708,0,0
154,316,0,0,0,0,0,0,0,0,0,-1,1378,708,0,0
161,316,0,0,0,0,0,0,0,0,0,-1,1385,708,0,0
168,316,0,0,0,0,0,0,0,0,0,-1,1392,708,0,0
175,316,0,0,0,0,0,0,0,0,0,-1,1399,708,0,0
182,316,0,0,0,0,0,0,0,0,0,-1,1406,708,0,0
189,316,0,0,0,0,0,0,0,0,0,-1,1413,708,0,0
196,316,0,0,0,0,0,0,0,0,0,-1,1420,708,0,0
203,316,0,0,0,0,0,0,0,0,0,-1,1427,708,0,0
210,316,0,0,0,0,0,0,0,0,0,-1,1434,708,0,0
217,316,0,0,0,0,0,0,0,0,0,-1,1441,708,0,0
224,316,0,0,0,0,0,0,0,0,0,-1,1448,708,0,0
231,316,0,0,0,0,0,0,0,0,0,-1,1455,708,0,0
238,316,0,0,0,0,0,0,0,0,0,-1,1462,708,0,0
245,316,0,0,0,0,0,0,0,0,0,-1,1469,708,0,0
252,316,0,0,0,0,0,0,0,0,0,-1,1476,708,0,0
259,316,0,0,0,0,0,0,0,0,0,-1,1483,708,0,0
266,316,0,0,0,0,0,0,0,0,0,-1,1490,708,0,0
273,316,0,0,0,0,0,0,0,0,0,-1,1497,708,0,0
280,316,0,0,0,0,0,0,0,0,0,-1,1504,708,0,0
287,316,0,0,0,0,0,0,0,0,0,-1,1511,708,0,0
294,316,0,0,0,0,0,0,0,0,0,-1,1518,708,0,0
301,316,0,0,0,0,0,0,0,0,0,-1,1525,708,0,0
308,316,0,0,0,0,0,0,0,0,0,-1,1532,708,0,0
315,316,0,0,0,0,0,0,0,0,0,-1,1539,708,0,0
322,316,0,0,0,0,0,0,0,0,0,-1,1546,708,0,0
329,316,0,0,0,0,0,0,0,0,0,-1,1553,708,0,0
336,316,0,0,0,0,0,0,0,0,0,-1,1560,708,0,0
343,316,0,0,0,0,0,0,0,0,0,-1,1567,708,0,0
350,316,0,0,0,0,0,0,0,0,0,-1,1574,708,0,0
357,316,0,0,0,0,0,0,0,0,0,-1,1581,708,0,0
364,316,0,0,0,0,0,0,0,0,0,-1,1588,708,0,0
371,316,0,0,0,0,0,0,0,0,0,-1,1595,708,0,0
378,316,0,0,0,0,0,0,0,0,0,-1,1602,708,0,0
385,316,0,0,0,0,0,0,0,0,0,-1,1609,708,0,0
392,316,0,0,0,0,0,0,0,0,0,-1,1616,708,0,0
399,316,0,0,0,0,0,0,0,0,0,-1,1623,708,0,0
406,316,0,0,0,0,0,0,0,0,0,-1,1630,708,0,0
413,316,0,0,0,0,0,0,0,0,0,-1,1637,708,0,0
420,316,0,0,0,0,0,0,0,0,0,-1,1644,708,0,0
427,316,0,0,0,0,0,0,0,0,0,-1,1651,708,0,0
434,316,0,0,0,0,0,0,0,0,0,-1,1658,708,0,0
441,316,0,0,0,0,0,0,0,0,0,-1,1665,708,0,0
448,316,0,0,0,0,0,0,0,0,0,-1,1672,708,0,0
455,316,0,0,0,0,0,0,0,0,0,-1,1679,708,0,0
462,316,0,0,0,0,0,0,0,0,0,-1,1686,708,0,0
469,316,0,0,0,0,0,0,0,0,0,-1,1693,708,0,0
476,316,0,0,0,0,0,0,0,0,0,-1,1700,708,0,0
483,316,0,0,0,0,0,0,0,0,0,-1,1707,708,0,0
490,316,0,0,0,0,0,0,0,0,0,-1,1714,708,0,0
497,316,0,0,0,0,0,0,0,0,0,-1,1721,708,0,0
504,316,0,0,0,0,0,0,0,0,0,-1,1728,708,0,0
511,316,0,0,0,0,0,0,0,0,0,-1,1735,708,0,0
518,316,0,0,0,0,0,0,0,0,0,-1,1742,708,0,0
525,316,0,0,0,0,0,0,0,0,0,-1,1749,708,0,0
532,316,33.8604,0.531128,0,0,0,0,0,0,0,-1,1756,708,33.8604,-0.531151
539,316,44.4543,2.73468,0,0,0,0,0,0,0,-1,1763,708,44.4543,-2.7347
546,316,44.713,3.35498,0,0,0,0,0,0,0,-1,1770,708,44.7131,-3.35501
553,316,39.9031,6.57275,0,0,0,0,0,0,0,-1,1777,708,39.9031,-6.57274
560,316,39.1196,1.10046,0,0,0,0,0,0,0,-1,1784,708,39.1197,-1.10048
567,316,47.3683,6.04919,0,0,0,0,0,0,0,-1,1791,708,47.3683,-6.04918
574,316,45.9872,6.7655,0,0,0,0,0,0,0,-1,1798,708,45.9871,-6.76552
581,316,24.6815,7.77496,0,0,0,0,0,0,0,-1,1805,708,24.6815,-7.77499
588,316,19.7659,2.90198,0,0,0,0,0,0,0,-1,1812,708,19.7659,-2.902
595,316,12.5363,1.50702,0,0,0,0,0,0,0,-1,1819,708,12.5363,-1.50701
602,316,7.79919,0.0422363,0,0,0,0,0,0,0,-1,1826,708,7.79923,-0.0422066
609,316,30.8641,-6.74097,0,0,0,0,0,0,0,-1,1833,708,30.8641,6.74098
616,316,31.0262,-6.17151,0.0035353,0.00101302,0.00268386,0.00523956,-0.000691243,0.565759,0.00374478,0.0141749,1840,708,31.0263,6.17151
623,316,31.014,-5.51086,0.0027834,0.00056612,0.00171929,0.0037205,-0.000370976,0.499034,0.00261278,0.010899,1847,708,31.014,5.51088
630,316,30.978,-4.8645,0.0021273,0.000291852,0.0011264,0.0026625,-0.000243351,0.443566,0.00186143,0.0126875,1854,708,30.978,4.86452
637,316,30.9703,-4.17108,0.00126558,0.000237689,0.000680134,0.00160411,-0.000100846,0.461844,0.00110456,0.0119779,1861,708,30.9703,4.17106
644,316,30.9636,-3.49994,0.000327392,0.000357359,0.000340119,0.000682824,1.92676e-06,0.807411,0.000454575,0.012306,1868,708,30.9636,3.49994
651,316,30.9303,-2.8194,-0.000717109,0.000544969,2.77102e-05,0.000545577,-0.000717717,1.54885,0.000731617,0.0147334,1875,708,30.9303,2.81939
658,316,30.8445,-2.12238,-0.00185625,0.000956623,-0.000204908,0.000971471,-0.0018711,-1.49846,0.00166833,0.0269056,1882,708,30.8445,2.1224
665,316,30.77,-1.44714,-0.00309612,0.00147193,-0.000423151,0.0015108,-0.00313498,-1.4792,0.00273634,0.0199026,1889,708,30.77,1.44714
672,316,30.7894,-0.782532,-0.00448404,0.0021465,-0.000682736,0.00221607,-0.00455361,-1.46925,0.00398539,0.0133247,1896,708,30.7894,0.782531
679,316,30.818,-0.0482788,-0.0060929,0.00306492,-0.000948189,0.00316206,-0.00619004,-1.4687,0.00549297,0.0411533,1903,708,30.818,0.0482586
686,316,30.8845,0.667114,0,0,0,0,0,0,0,-1,1910,708,30.8846,-0.667138
693,316,26.4315,1.80652,0,0,0,0,0,0,0,-1,1917,708,26.4315,-1.80651
700,316,12.8749,2.89136,0,0,0,0,0,0,0,-1,1924,708,12.8748,-2.89137
707,316,15.7089,5.41486,0,0,0,0,0,0,0,-1,1931,708,15.7088,-5.41487
714,316,16.1727,5.52045,0,0,0,0,0,0,0,-1,1938,708,16.1728,-5.52042
721,316,16.7094,6.53351,0,0,0,0,0,0,0,-1,1945,708,16.7094,-6.5335
728,316,0,0,0,0,0,0,0,0,0,-1,1952,708,0,0
735,316,0,0,0,0,0,0,0,0,0,-1,1959,708,0,0
742,316,0,0,0,0,0,0,0,0,0,-1,1966,708,0,0
749,316,0,0,0,0,0,0,0,0,0,-1,1973,708,0,0
756,316,0,0,0,0,0,0,0,0,0,-1,1980,708,0,0
763,316,0,0,0,0,0,0,0,0,0,-1,1987,708,0,0
770,316,0,0,0,0,0,0,0,0,0,-1,1994,708,0,0
777,316,0,0,0,0,0,0,0,0,0,-1,2001,708,0,0
784,316,0,0,0,0,0,0,0,0,0,-1,2008,708,0,0
791,316,0,0,0,0,0,0,0,0,0,-1,2015,708,0,0
798,316,0,0,0,0,0,0,0,0,0,-1,2022,708,0,0
805,316,0,0,0,0,0,0,0,0,0,-1,2029,708,0,0
812,316,0,0,0,0,0,0,0,0,0,-1,2036,708,0,0
-700,309,0,0,0,0,0,0,0,0,0,-1,524,715,0,0
-693,309,0,0,0,0,0,0,0,0,0,-1,531,715,0,0
-686,309,0,0,0,0,0,0,0,0,0,-1,538,715,0,0
-679,309,0,0,0,0,0,0,0,0,0,-1,545,715,0,0
-672,309,0,0,0,0,0,0,0,0,0,-1,552,715,0,0
-665,309,0,0,0,0,0,0,0,0,0,-1,559,715,0,0
-658,309,0,0,0,0,0,0,0,0,0,-1,566,715,0,0
-651,309,0,0,0,0,0,0,0,0,0,-1,573,715,0,0
-644,309,0,0,0,0,0,0,0,0,0,-1,580,715,0,0
-637,309,0,0,0,0,0,0,0,0,0,-1,587,715,0,0
-630,309,0,0,0,0,0,0,0,0,0,-1,594,715,0,0
-623,309,0,0,0,0,0,0,0,0,0,-1,601,715,0,0
-616,309,0,0,0,0,0,0,0,0,0,-1,608,715,0,0
-609,309,-5.95392,-3.93689,0,0,0,0,0,0,0,-1,615,715,-5.95392,3.93686
-602,309,-4.99786,-3.31287,0,0,0,0,0,0,0,-1,622,715,-4.99786,3.31284
-595,309,-6.80847,2.4046,0,0,0,0,0,0,0,-1,629,715,-6.80845,-2.40458
-588,309,-6.08795,2.19324,0,0,0,0,0,0,0,-1,636,715,-6.08793,-2.19325
-581,309,-5.97552,1.3277,0,0,0,0,0,0,0,-1,643,715,-5.97552,-1.32769
-574,309,-8.73602,0.208435,0,0,0,0,0,0,0,-1,650,715,-8.73604,-0.208437
-567,309,-10.3909,0.85968,0,0,0,0,0,0,0,-1,657,715,-10.3909,-0.859696
-560,309,-18.6088,-1.73389,0,0,0,0,0,0,0,-1,664,715,-18.6088,1.73389
-553,309,-20.0049,-1.8429,0,0,0,0,0,0,0,-1,671,715,-20.005,1.84291
-546,309,-19.9767,-2.53094,0.000323427,0.00280645,-3.20161e-05,0.00280687,0.000323014,-1.55791,0.0017734,0.0250529,678,715,-19.9768,2.53094
-539,309,-19.9113,-3.20502,0.000548908,0.0018823,7.91044e-05,0.00188697,0.000544232,1.51175,0.00112149,0.014452,685,715,-19.9113,3.20504
-532,309,-19.9355,-3.85406,0.000647563,0.000933664,0.000234507,0.00106531,0.000515919,1.05927,0.000615157,0.0116499,692,715,-19.9355,3.85406
-525,309,-19.9478,-4.49634,0.0006306,0.000333233,0.000451679,0.000957438,6.39533e-06,0.626394,0.000636171,0.0146908,699,715,-19.9478,4.49633
-518,309,-19.9663,-5.13489,0.000474832,-0.000242083,0.000688716,0.00089279,-0.000660041,0.545453,0.000899878,0.0162496,706,715,-19.9663,5.13487
-511,309,-20.0067,-5.74615,-0.000138624,-0.00082728,0.000828143,0.000413922,-0.00137983,0.588379,0.00108452,0.0121861,713,715,-20.0067,5.74614
-504,309,-20.0342,-6.427,-0.00158174,-0.0020539,-0.000138123,-0.0015443,-0.00209134,-0.264682,0.00125236,0.00973769,720,715,-20.0342,6.42701
-497,309,-20.0547,-7.04034,-0.0033697,-0.00323842,-0.00114395,-0.00215823,-0.00444989,-0.814058,0.00256953,0.0145583,727,715,-20.0547,7.04037
-490,309,-20.0912,-7.66687,0,0,0,0,0,0,0,-1,734,715,-20.0912,7.66689
-483,309,-17.7261,-7.75836,0,0,0,0,0,0,0,-1,741,715,-17.7261,7.75839
-476,309,-5.29486,-1.2262,0,0,0,0,0,0,0,-1,748,715,-5.29484,1.22622
-469,309,-4.22717,-0.592896,0,0,0,0,0,0,0,-1,755,715,-4.2272,0.592905
-462,309,-10.428,2.46948,0,0,0,0,0,0,0,-1,762,715,-10.428,-2.46947
-455,309,-15.8216,0.00915527,0,0,0,0,0,0,0,-1,769,715,-15.8216,-0.00913359
-448,309,-37.3543,-1.02441,0,0,0,0,0,0,0,-1,776,715,-37.3543,1.02444
-441,309,-19.8181,1.4425,0,0,0,0,0,0,0,-1,783,715,-19.8181,-1.44249
-434,309,-28.3196,0.95105,0,0,0,0,0,0,0,-1,790,715,-28.3196,-0.951068
-427,309,-27.8553,1.40332,0,0,0,0,0,0,0,-1,797,715,-27.8553,-1.40334
-420,309,-27.3148,1.90747,0,0,0,0,0,0,0,-1,804,715,-27.3148,-1.90745
-413,309,0,0,0,0,0,0,0,0,0,-1,811,715,0,0
-406,309,0,0,0,0,0,0,0,0,0,-1,818,715,0,0
-399,309,0,0,0,0,0,0,0,0,0,-1,825,715,0,0
-392,309,0,0,0,0,0,0,0,0,0,-1,832,715,0,0
-385,309,0,0,0,0,0,0,0,0,0,-1,839,715,0,0
-378,309,0,0,0,0,0,0,0,0,0,-1,846,715,0,0
-371,309,0,0,0,0,0,0,0,0,0,-1,853,715,0,0
-364,309,0,0,0,0,0,0,0,0,0,-1,860,715,0,0
-357,309,0,0,0,0,0,0,0,0,0,-1,867,715,0,0
-350,309,0,0,0,0,0,0,0,0,0,-1,874,715,0,0
-343,309,0,0,0,0,0,0,0,0,0,-1,881,715,0,0
-336,309,0,0,0,0,0,0,0,0,0,-1,888,715,0,0
-329,309,0,0,0,0,0,0,0,0,0,-1,895,715,0,0
-322,309,0,0,0,0,0,0,0,0,0,-1,902,715,0,0
-315,309,0,0,0,0,0,0,0,0,0,-1,909,715,0,0
-308,309,0,0,0,0,0,0,0,0,0,-1,916,715,0,0
-301,309,0,0,0,0,0,0,0,0,0,-1,923,715,0,0
-294,309,0,0,0,0,0,0,0,0,0,-1,930,715,0,0
-287,309,0,0,0,0,0,0,0,0,0,-1,937,715,0,0
-280,309,0,0,0,0,0,0,0,0,0,-1,944,715,0,0
-273,309,0,0,0,0,0,0,0,0,0,-1,951,715,0,0
-266,309,0,0,0,0,0,0,0,0,0,-1,958,715,0,0
-259,309,0,0,0,0,0,0,0,0,0,-1,965,715,0,0
-252,309,0,0,0,0,0,0,0,0,0,-1,972,715,0,0
-245,309,0,0,0,0,0,0,0,0,0,-1,979,715,0,0
-238,309,0,0,0,0,0,0,0,0,0,-1,986,715,0,0
-231,309,0,0,0,0,0,0,0,0,0,-1,993,715,0,0
-224,309,0,0,0,0,0,0,0,0,0,-1,1000,715,0,0
-217,309,0,0,0,0,0,0,0,0,0,-1,1007,715,0,0
-210,309,0,0,0,0,0,0,0,0,0,-1,1014,715,0,0
-203,309,0,0,0,0,0,0,0,0,0,-1,1021,715,0,0
-196,309,0,0,0,0,0,0,0,0,0,-1,1028,715,0,0
-189,309,0,0,0,0,0,0,0,0,0,-1,1035,715,0,0
-182,309,0,0,0,0,0,0,0,0,0,-1,1042,715,0,0
-175,309,0,0,0,0,0,0,0,0,0,-1,1049,715,0,0
-168,309,0,0,0,0,0,0,0,0,0,-1,1056,715,0,0
-161,309,0,0,0,0,0,0,0,0,0,-1,1063,715,0,0
-154,309,0,0,0,0,0,0,0,0,0,-1,1070,715,0,0
-147,309,0,0,0,0,0,0,0,0,0,-1,1077,715,0,0
-140,309,0,0,0,0,0,0,0,0,0,-1,1084,715,0,0
-133,309,0,0,0,0,0,0,0,0,0,-1,1091,715,0,0
-126,309,0,0,0,0,0,0,0,0,0,-1,1098,715,0,0
-119,309,0,0,0,0,0,0,0,0,0,-1,1105,715,0,0
-112,309,0,0,0,0,0,0,0,0,0,-1,1112,715,0,0
-105,309,0,0,0,0,0,0,0,0,0,-1,1119,715,0,0
-98,309,0,0,0,0,0,0,0,0,0,-1,1126,715,0,0
-91,309,0,0,0,0,0,0,0,0,0,-1,1133,715,0,0
-84,309,0,0,0,0,0,0,0,0,0,-1,1140,715,0,0
-77,309,0,0,0,0,0,0,0,0,0,-1,1147,715,0,0
-70,309,0,0,0,0,0,0,0,0,0,-1,1154,715,0,0
-63,309,0,0,0,0,0,0,0,0,0,-1,1161,715,0,0
-56,309,0,0,0,0,0,0,0,0,0,-1,1168,715,0,0
-49,309,0,0,0,0,0,0,0,0,0,-1,1175,715,0,0
-42,309,0,0,0,0,0,0,0,0,0,-1,1182,715,0,0
-35,309,0,0,0,0,0,0,0,0,0,-1,1189,715,0,0
-28,309,0,0,0,0,0,0,0,0,0,-1,1196,715,0,0
-21,309,0,0,0,0,0,0,0,0,0,-1,1203,715,0,0
-14,309,0,0,0,0,0,0,0,0,0,-1,1210,715,0,0
-7,309,0,0,0,0,0,0,0,0,0,-1,1217,715,0,0
0,309,0,0,0,0,0,0,0,0,0,-1,1224,715,0,0
7,309,0,0,0,0,0,0,0,0,0,-1,1231,715,0,0
14,309,0,0,0,0,0,0,0,0,0,-1,1238,715,0,0
21,309,0,0,0,0,0,0,0,0,0,-1,1245,715,0,0
28,309,0,0,0,0,0,0,0,0,0,-1,1252,715,0,0
35,309,0,0,0,0,0,0,0,0,0,-1,1259,715,0,0
42,309,0,0,0,0,0,0,0,0,0,-1,1266,715,0,0
49,309,0,0,0,0,0,0,0,0,0,-1,1273,715,0,0
56,309,0,0,0,0,0,0,0,0,0,-1,1280,715,0,0
63,309,0,0,0,0,0,0,0,0,0,-1,1287,715,0,0
70,309,0,0,0,0,0,0,0,0,0,-1,1294,715,0,0
77,309,0,0,0,0,0,0,0,0,0,-1,1301,715,0,0
84,309,0,0,0,0,0,0,0,0,0,-1,1308,715,0,0
91,309,0,0,0,0,0,0,0,0,0,-1,1315,715,0,0
98,309,0,0,0,0,0,0,0,0,0,-1,1322,715,0,0
105,309,0,0,0,0,0,0,0,0,0,-1,1329,715,0,0
112,309,0,0,0,0,0,0,0,0,0,-1,1336,715,0,0
119,309,0,0,0,0,0,0,0,0,0,-1,1343,715,0,0
126,309,0,0,0,0,0,0,0,0,0,-1,1350,715,0,0
133,309,0,0,0,0,0,0,0,0,0,-1,1357,715,0,0
140,309,0,0,0,0,0,0,0,0,0,-1,1364,715,0,0
147,309,0,0,0,0,0,0,0,0,0,-1,1371,715,0,0
154,309,0,0,0,0,0,0,0,0,0,-1,1378,715,0,0
161,309,0,0,0,0,0,0,0,0,0,-1,1385,715,0,0
168,309,0,0,0,0,0,0,0,0,0,-1,1392,715,0,0
175,309,0,0,0,0,0,0,0,0,0,-1,1399,715,0,0
182,309,0,0,0,0,0,0,0,0,0,-1,1406,715,0,0
189,309,0,0,0,0,0,0,0,0,0,-1,1413,715,0,0
196,309,0,0,0,0,0,0,0,0,0,-1,1420,715,0,0
203,309,0,0,0,0,0,0,0,0,0,-1,1427,715,0,0
210,309,0,0,0,0,0,0,0,0,0,-1,1434,715,0,0
217,309,0,0,0,0,0,0,0,0,0,-1,1441,715,0,0
224,309,0,0,0,0,0,0,0,0,0,-1,1448,715,0,0
231,309,0,0,0,0,0,0,0,0,0,-1,1455,715,0,0
238,309,0,0,0,0,0,0,0,0,0,-1,1462,715,0,0
245,309,0,0,0,0,0,0,0,0,0,-1,1469,715,0,0
252,309,0,0,0,0,0,0,0,0,0,-1,1476,715,0,0
259,309,0,0,0,0,0,0,0,0,0,-1,1483,715,0,0
266,309,0,0,0,0,0,0,0,0,0,-1,1490,715,0,0
273,309,0,0,0,0,0,0,0,0,0,-1,1497,715,0,0
280,309,0,0,0,0,0,0,0,0,0,-1,1504,715,0,0
287,309,0,0,0,0,0,0,0,0,0,-1,1511,715,0,0
294,309,0,0,0,0,0,0,0,0,0,-1,1518,715,0,0
301,309,0,0,0,0,0,0,0,0,0,-1,1525,715,0,0
308,309,0,0,0,0,0,0,0,0,0,-1,1532,715,0,0
315,309,0,0,0,0,0,0,0,0,0,-1,1539,715,0,0
322,309,0,0,0,0,0,0,0,0,0,-1,1546,715,0,0
329,309,0,0,0,0,0,0,0,0,0,-1,1553,715,0,0
336,309,0,0,0,0,0,0,0,0,0,-1,1560,715,0,0
343,309,0,0,0,0,0,0,0,0,0,-1,1567,715,0,0
350,309,0,0,0,0,0,0,0,0,0,-1,1574,715,0,0
357,309,0,0,0,0,0,0,0,0,0,-1,1581,715,0,0
364,309,0,0,0,0,0,0,0,0,0,-1,1588,715,0,0
371,309,0,0,0,0,0,0,0,0,0,-1,1595,715,0,0
378,309,0,0,0,0,0,0,0,0,0,-1,1602,715,0,0
385,309,0,0,0,0,0,0,0,0,0,-1,1609,715,0,0
392,309,0,0,0,0,0,0,0,0,0,-1,1616,715,0,0
399,309,0,0,0,0,0,0,0,0,0,-1,1623,715,0,0
406,309,0,0,0,0,0,0,0,0,0,-1,1630,715,0,0
413,309,0,0,0,0,0,0,0,0,0,-1,1637,715,0,0
420,309,0,0,0,0,0,0,0,0,0,-1,1644,715,0,0
427,309,0,0,0,0,0,0,0,0,0,-1,1651,715,0,0
434,309,0,0,0,0,0,0,0,0,0,-1,1658,715,0,0
441,309,0,0,0,0,0,0,0,0,0,-1,1665,715,0,0
448,309,0,0,0,0,0,0,0,0,0,-1,1672,715,0,0
455,309,0,0,0,0,0,0,0,0,0,-1,1679,715,0,0
462,309,0,0,0,0,0,0,0,0,0,-1,1686,715,0,0
469,309,0,0,0,0,0,0,0,0,0,-1,1693,715,0,0
476,309,0,0,0,0,0,0,0,0,0,-1,1700,715,0,0
483,309,0,0,0,0,0,0,0,0,0,-1,1707,715,0,0
490,309,0,0,0,0,0,0,0,0,0,-1,1714,715,0,0
497,309,0,0,0,0,0,0,0,0,0,-1,1721,715,0,0
504,309,0,0,0,0,0,0,0,0,0,-1,1728,715,0,0
511,309,0,0,0,0,0,0,0,0,0,-1,1735,715,0,0
518,309,0,0,0,0,0,0,0,0,0,-1,1742,715,0,0
525,309,0,0,0,0,0,0,0,0,0,-1,1749,715,0,0
532,309,0,0,0,0,0,0,0,0,0,-1,1756,715,0,0
539,309,44.2073,2.66235,0,0,0,0,0,0,0,-1,1763,715,44.2073,-2.66238
546,309,44.4976,3.25531,0,0,0,0,0,0,0,-1,1770,715,44.4976,-3.25533
553,309,47.9611,4.06433,0,0,0,0,0,0,0,-1,1777,715,47.9611,-4.06434
560,309,47.9784,4.64801,0,0,0,0,0,0,0,-1,1784,715,47.9784,-4.64799
567,309,47.0073,5.43121,0,0,0,0,0,0,0,-1,1791,715,47.0073,-5.43121
574,309,45.8746,6.53271,0,0,0,0,0,0,0,-1,1798,715,45.8747,-6.53269
581,309,45.0629,7.73468,0,0,0,0,0,0,0,-1,1805,715,45.0629,-7.73471
588,309,26.2064,7.76422,0,0,0,0,0,0,0,-1,1812,715,26.2064,-7.7642
595,309,19.585,3.71558,0,0,0,0,0,0,0,-1,1819,715,19.5849,-3.71555
602,309,11.0811,3.47772,0,0,0,0,0,0,0,-1,1826,715,11.0811,-3.47772
609,309,31.7003,-6.85016,0,0,0,0,0,0,0,-1,1833,715,31.7003,6.85013
616,309,31.709,-6.15417,0.00223257,0.00244493,0.00550503,0.00784481,-0.00316731,0.795041,0.00654624,0.0238436,1840,715,31.709,6.15417
623,309,31.6888,-5.47534,0.00203163,0.00141976,0.0034824,0.0052215,-0.00177011,0.741585,0.00419736,0.0112008,1847,715,31.6888,5.47537
630,309,31.6384,-4.82666,0.00179184,0.000761576,0.00218774,0.00352427,-0.000970857,0.669772,0.00273127,0.0108556,1854,715,31.6385,4.82668
637,309,31.5979,-4.15527,0.00124031,0.00045067,0.00131401,0.00221753,-0.000526555,0.639455,0.00168158,0.0133731,1861,715,31.5979,4.15529
644,309,31.5558,-3.4729,0.000564597,0.000453755,0.000737882,0.00124914,-0.000230784,0.747915,0.000919392,0.0143733,1868,715,31.5558,3.4729
651,309,31.5518,-2.79205,-0.000203543,0.000577577,0.000288362,0.000672497,-0.000298462,1.2528,0.00057428,0.0143061,1875,715,31.5518,2.79204
658,309,31.5128,-2.1026,-0.00107431,0.00101457,5.70066e-05,0.00101613,-0.00107587,1.54353,0.00120798,0.0196588,1882,715,31.5129,2.10259
665,309,31.5197,-1.43976,-0.00198894,0.00162666,-2.2539e-05,0.0016268,-0.00198908,-1.56456,0.00209112,0.0173797,1889,715,31.5196,1.43973
672,309,31.476,-0.766541,-0.00296279,0.00238505,-0.000107419,0.0023872,-0.00296495,-1.55072,0.00309606,0.0156659,1896,715,31.4759,0.766521
679,309,31.4636,-0.0447388,-0.00398589,0.00337967,-0.000153458,0.00338287,-0.00398908,-1.54997,0.00426099,0.0226331,1903,715,31.4636,0.0447577
686,309,31.2186,0.785522,-0.00497272,0.00463978,-0.000112688,0.0046411,-0.00497404,-1.55908,0.00555241,0.0433361,1910,715,31.2186,-0.785507
693,309,30.6113,1.521,0,0,0,0,0,0,0,-1,1917,715,30.6114,-1.52103
700,309,23.0179,3.08337,0,0,0,0,0,0,0,-1,1924,715,23.018,-3.08336
707,309,15.6318,4.58655,0,0,0,0,0,0,0,-1,1931,715,15.6318,-4.58657
714,309,16.7573,6.68286,0,0,0,0,0,0,0,-1,1938,715,16.7574,-6.68284
721,309,16.8337,5.4458,0,0,0,0,0,0,0,-1,1945,715,16.8338,-5.44582
728,309,0,0,0,0,0,0,0,0,0,-1,1952,715,0,0
735,309,0,0,0,0,0,0,0,0,0,-1,1959,715,0,0
742,309,0,0,0,0,0,0,0,0,0,-1,1966,715,0,0
749,309,0,0,0,0,0,0,0,0,0,-1,1973,715,0,0
756,309,0,0,0,0,0,0,0,0,0,-1,1980,715,0,0
763,309,0,0,0,0,0,0,0,0,0,-1,1987,715,0,0
770,309,0,0,0,0,0,0,0,0,0,-1,1994,715,0,0
777,309,0,0,0,0,0,0,0,0,0,-1,2001,715,0,0
784,309,0,0,0,0,0,0,0,0,0,-1,2008,715,0,0
791,309,0,0,0,0,0,0,0,0,0,-1,2015,715,0,0
798,309,0,0,0,0,0,0,0,0,0,-1,2022,715,0,0
805,309,0,0,0,0,0,0,0,0,0,-1,2029,715,0,0
812,309,0,0,0,0,0,0,0,0,0,-1,2036,715,0,0
-700,302,0,0,0,0,0,0,0,0,0,-1,524,722,0,0
-693,302,0,0,0,0,0,0,0,0,0,-1,531,722,0,0
-686,302,0,0,0,0,0,0,0,0,0,-1,538,722,0,0
-679,302,0,0,0,0,0,0,0,0,0,-1,545,722,0,0
-672,302,0,0,0,0,0,0,0,0,0,-1,552,722,0,0
-665,302,0,0,0,0,0,0,0,0,0,-1,559,722,0,0
-658,302,0,0,0,0,0,0,0,0,0,-1,566,722,0,0
-651,302,0,0,0,0,0,0,0,0,0,-1,573,722,0,0
-644,302,0,0,0,0,0,0,0,0,0,-1,580,722,0,0
-637,302,0,0,0,0,0,0,0,0,0,-1,587,722,0,0
-630,302,0,0,0,0,0,0,0,0,0,-1,594,722,0,0
-623,302,0,0,0,0,0,0,0,0,0,-1,601,722,0,0
-616,302,0,0,0,0,0,0,0,0,0,-1,608,722,0,0
-609,302,-7.79266,-3.71649,0,0,0,0,0,0,0,-1,615,722,-7.79267,3.7165
-602,302,0.92865,-1.99158,0,0,0,0,0,0,0,-1,622,722,0.928637,1.99157
-595,302,-7.89941,2.13641,0,0,0,0,0,0,0,-1,629,722,-7.89939,-2.13639
-588,302,-7.10895,1.79163,0,0,0,0,0,0,0,-1,636,722,-7.10896,-1.79163
-581,302,-9.17566,1.09448,0,0,0,0,0,0,0,-1,643,722,-9.17569,-1.09445
-574,302,-11.5183,-0.344543,0,0,0,0,0,0,0,-1,650,722,-11.5183,0.344557
-567,302,-12.1534,-0.672241,0,0,0,0,0,0,0,-1,657,722,-12.1535,0.672246
-560,302,-20.6575,-1.19043,0,0,0,0,0,0,0,-1,664,722,-20.6575,1.19042
-553,302,-20.5622,-1.84003,-0.000116912,0.00402811,-0.000709477,0.00414618,-0.000234985,-1.40588,0.00284569,0.0276256,671,722,-20.5622,1.84002
-546,302,-20.5444,-2.53339,0.000240736,0.00261553,-0.000332857,0.0026613,0.000194965,-1.43414,0.00171291,0.0156298,678,722,-20.5444,2.53338
-539,302,-20.5604,-3.15253,0.000440275,0.0015252,9.03448e-05,0.00153267,0.000432803,1.48828,0.000912395,0.0139793,685,722,-20.5604,3.1525
-532,302,-20.5888,-3.79712,0.000507302,0.00056199,0.000370994,0.000906646,0.000162646,0.822184,0.000558171,0.0138821,692,722,-20.5888,3.79709
-525,302,-20.5746,-4.49878,0.000444711,-5.8337e-05,0.000643879,0.000884451,-0.000498076,0.599193,0.000808526,0.0183416,699,722,-20.5746,4.49877
-518,302,-20.5955,-5.11914,5.57628e-05,-0.000777212,0.000964454,0.000689815,-0.00141126,0.581574,0.00123667,0.0200063,706,722,-20.5954,5.11914
-511,302,-20.6588,-5.71649,-0.000984126,-0.00153391,0.00105874,-0.000165174,-0.00235286,0.658382,0.00151652,0.0102903,713,722,-20.6588,5.71652
-504,302,-20.6619,-6.38458,-0.00299936,-0.00330035,-0.00033739,-0.00278042,-0.00351929,-0.575615,0.0021428,0.00944954,720,722,-20.6619,6.3846
-497,302,-20.7253,-6.98901,-0.00532531,-0.00497832,-0.00161974,-0.00352281,-0.00678082,-0.838751,0.0039159,0.0155642,727,722,-20.7254,6.98902
-490,302,-20.802,-7.58868,0,0,0,0,0,0,0,-1,734,722,-20.802,7.5887
-483,302,-9.53412,-3.1673,0,0,0,0,0,0,0,-1,741,722,-9.53411,3.1673
-476,302,-4.29749,-0.203491,0,0,0,0,0,0,0,-1,748,722,-4.29751,0.203464
-469,302,-12.369,1.42859,0,0,0,0,0,0,0,-1,755,722,-12.3689,-1.42857
-462,302,-17.4766,0.310791,0,0,0,0,0,0,0,-1,762,722,-17.4766,-0.310788
-455,302,-36.7368,-2.97418,0,0,0,0,0,0,0,-1,769,722,-36.7368,2.97416
-448,302,-39.9575,-0.624146,0,0,0,0,0,0,0,-1,776,722,-39.9575,0.624164
-441,302,-39.4683,-0.341492,0,0,0,0,0,0,0,-1,783,722,-39.4683,0.341475
-434,302,-39.4329,-0.154724,0,0,0,0,0,0,0,-1,790,722,-39.4329,0.154743
-427,302,-27.1735,1.81506,0,0,0,0,0,0,0,-1,797,722,-27.1735,-1.81504
-420,302,0,0,0,0,0,0,0,0,0,-1,804,722,0,0
-413,302,0,0,0,0,0,0,0,0,0,-1,811,722,0,0
-406,302,0,0,0,0,0,0,0,0,0,-1,818,722,0,0
-399,302,0,0,0,0,0,0,0,0,0,-1,825,722,0,0
-392,302,0,0,0,0,0,0,0,0,0,-1,832,722,0,0
-385,302,0,0,0,0,0,0,0,0,0,-1,839,722,0,0
-378,302,0,0,0,0,0,0,0,0,0,-1,846,722,0,0
-371,302,0,0,0,0,0,0,0,0,0,-1,853,722,0,0
-364,302,0,0,0,0,0,0,0,0,0,-1,860,722,0,0
-357,302,0,0,0,0,0,0,0,0,0,-1,867,722,0,0
-350,302,0,0,0,0,0,0,0,0,0,-1,874,722,0,0
-343,302,0,0,0,0,0,0,0,0,0,-1,881,722,0,0
-336,302,0,0,0,0,0,0,0,0,0,-1,888,722,0,0
-329,302,0,0,0,0,0,0,0,0,0,-1,895,722,0,0
-322,302,0,0,0,0,0,0,0,0,0,-1,902,722,0,0
-315,302,0,0,0,0,0,0,0,0,0,-1,909,722,0,0
-308,302,0,0,0,0,0,0,0,0,0,-1,916,722,0,0
-301,302,0,0,0,0,0,0,0,0,0,-1,923,722,0,0
-294,302,0,0,0,0,0,0,0,0,0,-1,930,722,0,0
-287,302,0,0,0,0,0,0,0,0,0,-1,937,722,0,0
-280,302,0,0,0,0,0,0,0,0,0,-1,944,722,0,0
-273,302,0,0,0,0,0,0,0,0,0,-1,951,722,0,0
-266,302,0,0,0,0,0,0,0,0,0,-1,958,722,0,0
-259,302,0,0,0,0,0,0,0,0,0,-1,965,722,0,0
-252,302,0,0,0,0,0,0,0,0,0,-1,972,722,0,0
-245,302,0,0,0,0,0,0,0,0,0,-1,979,722,0,0
-238,302,0,0,0,0,0,0,0,0,0,-1,986,722,0,0
-231,302,0,0,0,0,0,0,0,0,0,-1,993,722,0,0
-224,302,0,0,0,0,0,0,0,0,0,-1,1000,722,0,0
-217,302,0,0,0,0,0,0,0,0,0,-1,1007,722,0,0
-210,302,0,0,0,0,0,0,0,0,0,-1,1014,722,0,0
-203,302,0,0,0,0,0,0,0,0,0,-1,1021,722,0,0
-196,302,0,0,0,0,0,0,0,0,0,-1,1028,722,0,0
-189,302,0,0,0,0,0,0,0,0,0,-1,1035,722,0,0
-182,302,0,0,0,0,0,0,0,0,0,-1,1042,722,0,0
-175,302,0,0,0,0,0,0,0,0,0,-1,1049,722,0,0
-168,302,0,0,0,0,0,0,0,0,0,-1,1056,722,0,0
-161,302,0,0,0,0,0,0,0,0,0,-1,1063,722,0,0
-154,302,0,0,0,0,0,0,0,0,0,-1,1070,722,0,0
-147,302,0,0,0,0,0,0,0,0,0,-1,1077,722,0,0
-140,302,0,0,0,0,0,0,0,0,0,-1,1084,722,0,0
-133,302,0,0,0,0,0,0,0,0,0,-1,1091,722,0,0
-126,302,0,0,0,0,0,0,0,0,0,-1,1098,722,0,0
-119,302,0,0,0,0,0,0,0,0,0,-1,1105,722,0,0
-112,302,0,0,0,0,0,0,0,0,0,-1,1112,722,0,0
-105,302,0,0,0,0,0,0,0,0,0,-1,1119,722,0,0
-98,302,0,0,0,0,0,0,0,0,0,-1,1126,722,0,0
-91,302,0,0,0,0,0,0,0,0,0,-1,1133,722,0,0
-84,302,0,0,0,0,0,0,0,0,0,-1,1140,722,0,0
-77,302,0,0,0,0,0,0,0,0,0,-1,1147,722,0,0
-70,302,0,0,0,0,0,0,0,0,0,-1,1154,722,0,0
-63,302,0,0,0,0,0,0,0,0,0,-1,1161,722,0,0
-56,302,0,0,0,0,0,0,0,0,0,-1,1168,722,0,0
-49,302,0,0,0,0,0,0,0,0,0,-1,1175,722,0,0
-42,302,0,0,0,0,0,0,0,0,0,-1,1182,722,0,0
-35,302,0,0,0,0,0,0,0,0,0,-1,1189,722,0,0
-28,302,0,0,0,0,0,0,0,0,0,-1,1196,722,0,0
-21,302,0,0,0,0,0,0,0,0,0,-1,1203,722,0,0
-14,302,0,0,0,0,0,0,0,0,0,-1,1210,722,0,0
-7,302,0,0,0,0,0,0,0,0,0,-1,1217,722,0,0
0,302,0,0,0,0,0,0,0,0,0,-1,1224,722,0,0
7,302,0,0,0,0,0,0,0,0,0,-1,1231,722,0,0
14,302,0,0,0,0,0,0,0,0,0,-1,1238,722,0,0
21,302,0,0,0,0,0,0,0,0,0,-1,1245,722,0,0
28,302,0,0,0,0,0,0,0,0,0,-1,1252,722,0,0
35,302,0,0,0,0,0,0,0,0,0,-1,1259,722,0,0
42,302,0,0,0,0,0,0,0,0,0,-1,1266,722,0,0
49,302,0,0,0,0,0,0,0,0,0,-1,1273,722,0,0
56,302,0,0,0,0,0,0,0,0,0,-1,1280,722,0,0
63,302,0,0,0,0,0,0,0,0,0,-1,1287,722,0,0
70,302,0,0,0,0,0,0,0,0,0,-1,1294,722,0,0
77,302,0,0,0,0,0,0,0,0,0,-1,1301,722,0,0
84,302,0,0,0,0,0,0,0,0,0,-1,1308,722,0,0
91,302,0,0,0,0,0,0,0,0,0,-1,1315,722,0,0
98,302,0,0,0,0,0,0,0,0,0,-1,1322,722,0,0
105,302,0,0,0,0,0,0,0,0,0,-1,1329,722,0,0
112,302,0,0,0,0,0,0,0,0,0,-1,1336,722,0,0
119,302,0,0,0,0,0,0,0,0,0,-1,1343,722,0,0
126,302,0,0,0,0,0,0,0,0,0,-1,1350,722,0,0
133,302,0,0,0,0,0,0,0,0,0,-1,1357,722,0,0
140,302,0,0,0,0,0,0,0,0,0,-1,1364,722,0,0
147,302,0,0,0,0,0,0,0,0,0,-1,1371,722,0,0
154,302,0,0,0,0,0,0,0,0,0,-1,1378,722,0,0
161,302,0,0,0,0,0,0,0,0,0,-1,1385,722,0,0
168,302,0,0,0,0,0,0,0,0,0,-1,1392,722,0,0
175,302,0,0,0,0,0,0,0,0,0,-1,1399,722,0,0
182,302,0,0,0,0,0,0,0,0,0,-1,1406,722,0,0
189,302,0,0,0,0,0,0,0,0,0,-1,1413,722,0,0
196,302,0,0,0,0,0,0,0,0,0,-1,1420,722,0,0
203,302,0,0,0,0,0,0,0,0,0,-1,1427,722,0,0
210,302,0,0,0,0,0,0,0,0,0,-1,1434,722,0,0
217,302,0,0,0,0,0,0,0,0,0,-1,1441,722,0,0
224,302,0,0,0,0,0,0,0,0,0,-1,1448,722,0,0
231,302,0,0,0,0,0,0,0,0,0,-1,1455,722,0,0
238,302,0,0,0,0,0,0,0,0,0,-1,1462,722,0,0
245,302,0,0,0,0,0,0,0,0,0,-1,1469,722,0,0
252,302,0,0,0,0,0,0,0,0,0,-1,1476,722,0,0
259,302,0,0,0,0,0,0,0,0,0,-1,1483,722,0,0
266,302,0,0,0,0,0,0,0,0,0,-1,1490,722,0,0
273,302,0,0,0,0,0,0,0,0,0,-1,1497,722,0,0
280,302,0,0,0,0,0,0,0,0,0,-1,1504,722,0,0
287,302,0,0,0,0,0,0,0,0,0,-1,1511,722,0,0
294,302,0,0,0,0,0,0,0,0,0,-1,1518,722,0,0
301,302,0,0,0,0,0,0,0,0,0,-1,1525,722,0,0
308,302,0,0,0,0,0,0,0,0,0,-1,1532,722,0,0
315,302,0,0,0,0,0,0,0,0,0,-1,1539,722,0,0
322,302,0,0,0,0,0,0,0,0,0,-1,1546,722,0,0
329,302,0,0,0,0,0,0,0,0,0,-1,1553,722,0,0
336,302,0,0,0,0,0,0,0,0,0,-1,1560,722,0,0
343,302,0,0,0,0,0,0,0,0,0,-1,1567,722,0,0
350,302,0,0,0,0,0,0,0,0,0,-1,1574,722,0,0
357,302,0,0,0,0,0,0,0,0,0,-1,1581,722,0,0
364,302,0,0,0,0,0,0,0,0,0,-1,1588,722,0,0
371,302,0,0,0,0,0,0,0,0,0,-1,1595,722,0,0
378,302,0,0,0,0,0,0,0,0,0,-1,1602,722,0,0
385,302,0,0,0,0,0,0,0,0,0,-1,1609,722,0,0
392,302,0,0,0,0,0,0,0,0,0,-1,1616,722,0,0
399,302,0,0,0,0,0,0,0,0,0,-1,1623,722,0,0
406,302,0,0,0,0,0,0,0,0,0,-1,1630,722,0,0
413,302,0,0,0,0,0,0,0,0,0,-1,1637,722,0,0
420,302,0,0,0,0,0,0,0,0,0,-1,1644,722,0,0
427,302,0,0,0,0,0,0,0,0,0,-1,1651,722,0,0
434,302,0,0,0,0,0,0,0,0,0,-1,1658,722,0,0
441,302,0,0,0,0,0,0,0,0,0,-1,1665,722,0,0
448,302,0,0,0,0,0,0,0,0,0,-1,1672,722,0,0
455,302,0,0,0,0,0,0,0,0,0,-1,1679,722,0,0
462,302,0,0,0,0,0,0,0,0,0,-1,1686,722,0,0
469,302,0,0,0,0,0,0,0,0,0,-1,1693,722,0,0
476,302,0,0,0,0,0,0,0,0,0,-1,1700,722,0,0
483,302,0,0,0,0,0,0,0,0,0,-1,1707,722,0,0
490,302,0,0,0,0,0,0,0,0,0,-1,1714,722,0,0
497,302,0,0,0,0,0,0,0,0,0,-1,1721,722,0,0
504,302,0,0,0,0,0,0,0,0,0,-1,1728,722,0,0
511,302,0,0,0,0,0,0,0,0,0,-1,1735,722,0,0
518,302,0,0,0,0,0,0,0,0,0,-1,1742,722,0,0
525,302,0,0,0,0,0,0,0,0,0,-1,1749,722,0,0
532,302,0,0,0,0,0,0,0,0,0,-1,1756,722,0,0
539,302,0,0,0,0,0,0,0,0,0,-1,1763,722,0,0
546,302,48.9873,1.50562,0,0,0,0,0,0,0,-1,1770,722,48.9873,-1.50562
553,302,48.5511,2.79346,0,0,0,0,0,0,0,-1,1777,722,48.5512,-2.79343
560,302,47.9004,3.90967,0,0,0,0,0,0,0,-1,1784,722,47.9004,-3.90967
567,302,46.8901,4.84912,0,0,0,0,0,0,0,-1,1791,722,46.8901,-4.84912
574,302,45.9537,6.00867,0,0,0,0,0,0,0,-1,1798,722,45.9537,-6.00864
581,302,45.137,7.38043,0,0,0,0,0,0,0,-1,1805,722,45.1369,-7.38044
588,302,26.9731,7.19983,0,0,0,0,0,0,0,-1,1812,722,26.9732,-7.19981
595,302,27.3826,8.13104,0,0,0,0,0,0,0,-1,1819,722,27.3825,-8.13102
602,302,14.7349,5.21246,0,0,0,0,0,0,0,-1,1826,722,14.7349,-5.21247
609,302,31.1039,-6.34253,0,0,0,0,0,0,0,-1,1833,722,31.1039,6.34254
616,302,32.3923,-6.09967,0,0,0,0,0,0,0,-1,1840,722,32.3923,6.09966
623,302,32.3386,-5.43909,0.00166861,0.00222984,0.00497573,0.00693286,-0.00303441,0.813567,0.0058995,0.0136485,1847,722,32.3386,5.43909
630,302,32.282,-4.78662,0.00153654,0.00125694,0.00319994,0.00459973,-0.00180625,0.763568,0.00381391,0.0109388,1854,722,32.282,4.78662
637,302,32.2264,-4.11816,0.00114403,0.000690997,0.00196431,0.00289484,-0.00105982,0.727994,0.00236374,0.0143317,1861,722,32.2265,4.11815
644,302,32.2059,-3.44757,0.000597814,0.000532823,0.00115154,0.00171731,-0.000586676,0.771292,0.00138257,0.0151176,1868,722,32.2059,3.44755
651,302,32.2008,-2.7627,6.71536e-05,0.000552295,0.000518163,0.000881855,-0.000262406,1.00431,0.000692156,0.0148044,1875,722,32.2008,2.76272
658,302,32.2306,-2.1156,-0.000547063,0.00094506,0.000190359,0.000968962,-0.000570966,1.44589,0.000898921,0.0147875,1882,722,32.2306,2.1156
665,302,32.1995,-1.44824,-0.00120562,0.0016178,0.00019573,0.0016313,-0.00121912,1.50191,0.00165142,0.0147474,1889,722,32.1994,1.44825
672,302,32.1466,-0.7677,-0.00182589,0.00243435,0.000249224,0.00244888,-0.00184042,1.51256,0.00248472,0.011597,1896,722,32.1466,0.767673
679,302,32.114,-0.0813599,-0.00238618,0.00345367,0.000358692,0.00347562,-0.00240812,1.50968,0.00341557,0.0091968,1903,722,32.114,0.0813728
686,302,32.1016,0.653992,-0.00278867,0.00471321,0.000594756,0.00476007,-0.00283553,1.49217,0.004432,0.0212311,1910,722,32.1016,-0.653977
693,302,32.0414,1.38989,0,0,0,0,0,0,0,-1,1917,722,32.0414,-1.3899
700,302,25.4069,1.97308,0,0,0,0,0,0,0,-1,1924,722,25.4068,-1.97311
707,302,16.7321,4.76685,0,0,0,0,0,0,0,-1,1931,722,16.7321,-4.76687
714,302,17.2,5.77594,0,0,0,0,0,0,0,-1,1938,722,17.2,-5.77595
721,302,17.7914,6.60394,0,0,0,0,0,0,0,-1,1945,722,17.7914,-6.60395
728,302,17.2798,4.81702,0,0,0,0,0,0,0,-1,1952,722,17.2798,-4.81703
735,302,0,0,0,0,0,0,0,0,0,-1,1959,722,0,0
742,302,0,0,0,0,0,0,0,0,0,-1,1966,722,0,0
749,302,0,0,0,0,0,0,0,0,0,-1,1973,722,0,0
756,302,0,0,0,0,0,0,0,0,0,-1,1980,722,0,0
763,302,0,0,0,0,0,0,0,0,0,-1,1987,722,0,0
770,302,0,0,0,0,0,0,0,0,0,-1,1994,722,0,0
777,302,0,0,0,0,0,0,0,0,0,-1,2001,722,0,0
784,302,0,0,0,0,0,0,0,0,0,-1,2008,722,0,0
791,302,0,0,0,0,0,0,0,0,0,-1,2015,722,0,0
798,302,0,0,0,0,0,0,0,0,0,-1,2022,722,0,0
805,302,0,0,0,0,0,0,0,0,0,-1,2029,722,0,0
812,302,0,0,0,0,0,0,0,0,0,-1,2036,722,0,0
-700,295,0,0,0,0,0,0,0,0,0,-1,524,729,0,0
-693,295,0,0,0,0,0,0,0,0,0,-1,531,729,0,0
-686,295,0,0,0,0,0,0,0,0,0,-1,538,729,0,0
-679,295,0,0,0,0,0,0,0,0,0,-1,545,729,0,0
-672,295,0,0,0,0,0,0,0,0,0,-1,552,729,0,0
-665,295,0,0,0,0,0,0,0,0,0,-1,559,729,0,0
-658,295,0,0,0,0,0,0,0,0,0,-1,566,729,0,0
-651,295,0,0,0,0,0,0,0,0,0,-1,573,729,0,0
-644,295,0,0,0,0,0,0,0,0,0,-1,580,729,0,0
-637,295,0,0,0,0,0,0,0,0,0,-1,587,729,0,0
-630,295,0,0,0,0,0,0,0,0,0,-1,594,729,0,0
-623,295,0,0,0,0,0,0,0,0,0,-1,601,729,0,0
-616,295,-13.4911,1.31738,0,0,0,0,0,0,0,-1,608,729,-13.4911,-1.3174
-609,295,-10.2864,0.832031,0,0,0,0,0,0,0,-1,615,729,-10.2863,-0.832034
-602,295,-8.19006,3.01587,0,0,0,0,0,0,0,-1,622,729,-8.19005,-3.01588
-595,295,-0.615479,-1.95447,0,0,0,0,0,0,0,-1,629,729,-0.615481,1.95445
-588,295,-7.98999,1.56903,0,0,0,0,0,0,0,-1,636,729,-7.98997,-1.56905
-581,295,-12.0404,0.150574,0,0,0,0,0,0,0,-1,643,729,-12.0404,-0.150604
-574,295,-12.1605,-0.0739746,0,0,0,0,0,0,0,-1,650,729,-12.1605,0.0739856
-567,295,-20.8647,-0.474731,0,0,0,0,0,0,0,-1,657,729,-20.8647,0.474708
-560,295,-21.0978,-1.2193,-0.000801868,0.00541414,-0.00185455,0.0059254,-0.00131312,-1.3018,0.00445298,0.0356886,664,729,-21.0978,1.21928
-553,295,-21.1333,-1.88666,-0.000203467,0.00380309,-0.00108986,0.00408037,-0.000480741,-1.32167,0.00289383,0.0189414,671,729,-21.1333,1.88665
-546,295,-21.1884,-2.54993,7.61195e-05,0.0023296,-0.000458472,0.0024193,-1.35859e-05,-1.37758,0.00161742,0.0195322,678,729,-21.1884,2.5499
-539,295,-21.2082,-3.13623,0.000206365,0.00108421,0.000201987,0.00112846,0.00016212,1.35515,0.000704511,0.0176583,685,729,-21.2082,3.13621
-532,295,-21.2491,-3.75092,0.000193095,4.68007e-05,0.00063355,0.000757707,-0.000517811,0.727925,0.000740749,0.0162664,692,729,-21.2491,3.75095
-525,295,-21.2511,-4.43097,3.33984e-05,-0.00065624,0.0010128,0.000758473,-0.00138131,0.621323,0.00125273,0.0147745,699,729,-21.2511,4.43099
-518,295,-21.2513,-5.07025,-0.000683246,-0.00157181,0.00146251,0.000400977,-0.00265604,0.637937,0.00191837,0.0109203,706,729,-21.2514,5.07024
-511,295,-21.2845,-5.69135,-0.00220504,-0.00246556,0.00152124,-0.000808497,-0.00386211,0.742689,0.00235202,0.00942495,713,729,-21.2846,5.69136
-504,295,-21.3056,-6.32111,-0.00471213,-0.00465243,-0.000357924,-0.00432311,-0.00504145,-0.826995,0.00314895,0.0108243,720,729,-21.3056,6.32111
-497,295,-21.3976,-6.87238,-0.00752235,-0.00664217,-0.00194942,-0.00508379,-0.00908074,-0.896415,0.00525527,0.0221707,727,729,-21.3976,6.87239
-490,295,-21.5019,-7.3974,0,0,0,0,0,0,0,-1,734,729,-21.5019,7.39741
-483,295,-6.84503,-0.454651,0,0,0,0,0,0,0,-1,741,729,-6.84505,0.454639
-476,295,-13.1738,-0.836243,0,0,0,0,0,0,0,-1,748,729,-13.1738,0.836223
-469,295,-26.5608,-0.466187,0,0,0,0,0,0,0,-1,755,729,-26.5608,0.466162
-462,295,-29.7701,-0.792664,0,0,0,0,0,0,0,-1,762,729,-29.7701,0.792642
-455,295,-39.7284,-1.35437,0,0,0,0,0,0,0,-1,769,729,-39.7284,1.35437
-448,295,-40.9255,-1.80212,0,0,0,0,0,0,0,-1,776,729,-40.9255,1.80211
-441,295,-39.6894,-0.329468,0,0,0,0,0,0,0,-1,783,729,-39.6894,0.329463
-434,295,-39.6559,-0.0856934,0,0,0,0,0,0,0,-1,790,729,-39.6559,0.0856846
-427,295,0,0,0,0,0,0,0,0,0,-1,797,729,0,0
-420,295,0,0,0,0,0,0,0,0,0,-1,804,729,0,0
-413,295,0,0,0,0,0,0,0,0,0,-1,811,729,0,0
-406,295,0,0,0,0,0,0,0,0,0,-1,818,729,0,0
-399,295,0,0,0,0,0,0,0,0,0,-1,825,729,0,0
-392,295,0,0,0,0,0,0,0,0,0,-1,832,729,0,0
-385,295,0,0,0,0,0,0,0,0,0,-1,839,729,0,0
-378,295,0,0,0,0,0,0,0,0,0,-1,846,729,0,0
-371,295,0,0,0,0,0,0,0,0,0,-1,853,729,0,0
-364,295,0,0,0,0,0,0,0,0,0,-1,860,729,0,0
-357,295,0,0,0,0,0,0,0,0,0,-1,867,729,0,0
-350,295,0,0,0,0,0,0,0,0,0,-1,874,729,0,0
-343,295,0,0,0,0,0,0,0,0,0,-1,881,729,0,0
-336,295,0,0,0,0,0,0,0,0,0,-1,888,729,0,0
-329,295,0,0,0,0,0,0,0,0,0,-1,895,729,0,0
-322,295,0,0,0,0,0,0,0,0,0,-1,902,729,0,0
-315,295,0,0,0,0,0,0,0,0,0,-1,909,729,0,0
-308,295,0,0,0,0,0,0,0,0,0,-1,916,729,0,0
-301,295,0,0,0,0,0,0,0,0,0,-1,923,729,0,0
-294,295,0,0,0,0,0,0,0,0,0,-1,930,729,0,0
-287,295,0,0,0,0,0,0,0,0,0,-1,937,729,0,0
-280,295,0,0,0,0,0,0,0,0,0,-1,944,729,0,0
-273,295,0,0,0,0,0,0,0,0,0,-1,951,729,0,0
-266,295,0,0,0,0,0,0,0,0,0,-1,958,729,0,0
-259,295,0,0,0,0,0,0,0,0,0,-1,965,729,0,0
-252,295,0,0,0,0,0,0,0,0,0,-1,972,729,0,0
-245,295,0,0,0,0,0,0,0,0,0,-1,979,729,0,0
-238,295,0,0,0,0,0,0,0,0,0,-1,986,729,0,0
-231,295,0,0,0,0,0,0,0,0,0,-1,993,729,0,0
-224,295,0,0,0,0,0,0,0,0,0,-1,1000,729,0,0
-217,295,0,0,0,0,0,0,0,0,0,-1,1007,729,0,0
-210,295,0,0,0,0,0,0,0,0,0,-1,1014,729,0,0
-203,295,0,0,0,0,0,0,0,0,0,-1,1021,729,0,0
-196,295,0,0,0,0,0,0,0,0,0,-1,1028,729,0,0
-189,295,0,0,0,0,0,0,0,0,0,-1,1035,729,0,0
-182,295,0,0,0,0,0,0,0,0,0,-1,1042,729,0,0
-175,295,0,0,0,0,0,0,0,0,0,-1,1049,729,0,0
-168,295,0,0,0,0,0,0,0,0,0,-1,1056,729,0,0
-161,295,0,0,0,0,0,0,0,0,0,-1,1063,729,0,0
-154,295,0,0,0,0,0,0,0,0,0,-1,1070,729,0,0
-147,295,0,0,0,0,0,0,0,0,0,-1,1077,729,0,0
-140,295,0,0,0,0,0,0,0,0,0,-1,1084,729,0,0
-133,295,0,0,0,0,0,0,0,0,0,-1,1091,729,0,0
-126,295,0,0,0,0,0,0,0,0,0,-1,1098,729,0,0
-119,295,0,0,0,0,0,0,0,0,0,-1,1105,729,0,0
-112,295,0,0,0,0,0,0,0,0,0,-1,1112,729,0,0
-105,295,0,0,0,0,0,0,0,0,0,-1,1119,729,0,0
-98,295,0,0,0,0,0,0,0,0,0,-1,1126,729,0,0
-91,295,0,0,0,0,0,0,0,0,0,-1,1133,729,0,0
-84,295,0,0,0,0,0,0,0,0,0,-1,1140,729,0,0
-77,295,0,0,0,0,0,0,0,0,0,-1,1147,729,0,0
-70,295,0,0,0,0,0,0,0,0,0,-1,1154,729,0,0
-63,295,0,0,0,0,0,0,0,0,0,-1,1161,729,0,0
-56,295,0,0,0,0,0,0,0,0,0,-1,1168,729,0,0
-49,295,0,0,0,0,0,0,0,0,0,-1,1175,729,0,0
-42,295,0,0,0,0,0,0,0,0,0,-1,1182,729,0,0
-35,295,0,0,0,0,0,0,0,0,0,-1,1189,729,0,0
-28,295,0,0,0,0,0,0,0,0,0,-1,1196,729,0,0
-21,295,0,0,0,0,0,0,0,0,0,-1,1203,729,0,0
-14,295,0,0,0,0,0,0,0,0,0,-1,1210,729,0,0
-7,295,0,0,0,0,0,0,0,0,0,-1,1217,729,0,0
0,295,0,0,0,0,0,0,0,0,0,-1,1224,729,0,0
7,295,0,0,0,0,0,0,0,0,0,-1,1231,729,0,0
14,295,0,0,0,0,0,0,0,0,0,-1,1238,729,0,0
21,295,0,0,0,0,0,0,0,0,0,-1,1245,729,0,0
28,295,0,0,0,0,0,0,0,0,0,-1,1252,729,0,0
35,295,0,0,0,0,0,0,0,0,0,-1,1259,729,0,0
42,295,0,0,0,0,0,0,0,0,0,-1,1266,729,0,0
49,295,0,0,0,0,0,0,0,0,0,-1,1273,729,0,0
56,295,0,0,0,0,0,0,0,0,0,-1,1280,729,0,0
63,295,0,0,0,0,0,0,0,0,0,-1,1287,729,0,0
70,295,0,0,0,0,0,0,0,0,0,-1,1294,729,0,0
77,295,0,0,0,0,0,0,0,0,0,-1,1301,729,0,0
84,295,0,0,0,0,0,0,0,0,0,-1,1308,729,0,0
91,295,0,0,0,0,0,0,0,0,0,-1,1315,729,0,0
98,295,0,0,0,0,0,0,0,0,0,-1,1322,729,0,0
105,295,0,0,0,0,0,0,0,0,0,-1,1329,729,0,0
112,295,0,0,0,0,0,0,0,0,0,-1,1336,729,0,0
119,295,0,0,0,0,0,0,0,0,0,-1,1343,729,0,0
126,295,0,0,0,0,0,0,0,0,0,-1,1350,729,0,0
133,295,0,0,0,0,0,0,0,0,0,-1,1357,729,0,0
140,295,0,0,0,0,0,0,0,0,0,-1,1364,729,0,0
147,295,0,0,0,0,0,0,0,0,0,-1,1371,729,0,0
154,295,0,0,0,0,0,0,0,0,0,-1,1378,729,0,0
161,295,0,0,0,0,0,0,0,0,0,-1,1385,729,0,0
168,295,0,0,0,0,0,0,0,0,0,-1,1392,729,0,0
175,295,0,0,0,0,0,0,0,0,0,-1,1399,729,0,0
182,295,0,0,0,0,0,0,0,0,0,-1,1406,729,0,0
189,295,0,0,0,0,0,0,0,0,0,-1,1413,729,0,0
196,295,0,0,0,0,0,0,0,0,0,-1,1420,729,0,0
203,295,0,0,0,0,0,0,0,0,0,-1,1427,729,0,0
210,295,0,0,0,0,0,0,0,0,0,-1,1434,729,0,0
217,295,0,0,0,0,0,0,0,0,0,-1,1441,729,0,0
224,295,0,0,0,0,0,0,0,0,0,-1,1448,729,0,0
231,295,0,0,0,0,0,0,0,0,0,-1,1455,729,0,0
238,295,0,0,0,0,0,0,0,0,0,-1,1462,729,0,0
245,295,0,0,0,0,0,0,0,0,0,-1,1469,729,0,0
252,295,0,0,0,0,0,0,0,0,0,-1,1476,729,0,0
259,295,0,0,0,0,0,0,0,0,0,-1,1483,729,0,0
266,295,0,0,0,0,0,0,0,0,0,-1,1490,729,0,0
273,295,0,0,0,0,0,0,0,0,0,-1,1497,729,0,0
280,295,0,0,0,0,0,0,0,0,0,-1,1504,729,0,0
287,295,0,0,0,0,0,0,0,0,0,-1,1511,729,0,0
294,295,0,0,0,0,0,0,0,0,0,-1,1518,729,0,0
301,295,0,0,0,0,0,0,0,0,0,-1,1525,729,0,0
308,295,0,0,0,0,0,0,0,0,0,-1,1532,729,0,0
315,295,0,0,0,0,0,0,0,0,0,-1,1539,729,0,0
322,295,0,0,0,0,0,0,0,0,0,-1,1546,729,0,0
329,295,0,0,0,0,0,0,0,0,0,-1,1553,729,0,0
336,295,0,0,0,0,0,0,0,0,0,-1,1560,729,0,0
343,295,0,0,0,0,0,0,0,0,0,-1,1567,729,0,0
350,295,0,0,0,0,0,0,0,0,0,-1,1574,729,0,0
357,295,0,0,0,0,0,0,0,0,0,-1,1581,729,0,0
364,295,0,0,0,0,0,0,0,0,0,-1,1588,729,0,0
371,295,0,0,0,0,0,0,0,0,0,-1,1595,729,0,0
378,295,0,0,0,0,0,0,0,0,0,-1,1602,729,0,0
385,295,0,0,0,0,0,0,0,0,0,-1,1609,729,0,0
392,295,0,0,0,0,0,0,0,0,0,-1,1616,729,0,0
399,295,0,0,0,0,0,0,0,0,0,-1,1623,729,0,0
406,295,0,0,0,0,0,0,0,0,0,-1,1630,729,0,0
413,295,0,0,0,0,0,0,0,0,0,-1,1637,729,0,0
420,295,0,0,0,0,0,0,0,0,0,-1,1644,729,0,0
427,295,0,0,0,0,0,0,0,0,0,-1,1651,729,0,0
434,295,0,0,0,0,0,0,0,0,0,-1,1658,729,0,0
441,295,0,0,0,0,0,0,0,0,0,-1,1665,729,0,0
448,295,0,0,0,0,0,0,0,0,0,-1,1672,729,0,0
455,295,0,0,0,0,0,0,0,0,0,-1,1679,729,0,0
462,295,0,0,0,0,0,0,0,0,0,-1,1686,729,0,0
469,295,0,0,0,0,0,0,0,0,0,-1,1693,729,0,0
476,295,0,0,0,0,0,0,0,0,0,-1,1700,729,0,0
483,295,0,0,0,0,0,0,0,0,0,-1,1707,729,0,0
490,295,0,0,0,0,0,0,0,0,0,-1,1714,729,0,0
497,295,0,0,0,0,0,0,0,0,0,-1,1721,729,0,0
504,295,0,0,0,0,0,0,0,0,0,-1,1728,729,0,0
511,295,0,0,0,0,0,0,0,0,0,-1,1735,729,0,0
518,295,0,0,0,0,0,0,0,0,0,-1,1742,729,0,0
525,295,0,0,0,0,0,0,0,0,0,-1,1749,729,0,0
532,295,0,0,0,0,0,0,0,0,0,-1,1756,729,0,0
539,295,0,0,0,0,0,0,0,0,0,-1,1763,729,0,0
546,295,48.8486,1.93115,0,0,0,0,0,0,0,-1,1770,729,48.8486,-1.93117
553,295,48.7095,2.24249,0,0,0,0,0,0,0,-1,1777,729,48.7095,-2.24251
560,295,47.8405,3.19769,0,0,0,0,0,0,0,-1,1784,729,47.8405,-3.19772
567,295,50.6709,1.9353,0,0,0,0,0,0,0,-1,1791,729,50.6709,-1.9353
574,295,45.8945,5.06598,0,0,0,0,0,0,0,-1,1798,729,45.8945,-5.06597
581,295,37.8191,2.19592,0,0,0,0,0,0,0,-1,1805,729,37.8191,-2.19594
588,295,39.0542,2.45679,0,0,0,0,0,0,0,-1,1812,729,39.0542,-2.45676
595,295,27.2102,6.99121,0,0,0,0,0,0,0,-1,1819,729,27.2103,-6.99121
602,295,26.9065,7.82141,0,0,0,0,0,0,0,-1,1826,729,26.9064,-7.8214
609,295,11.7737,2.19989,0,0,0,0,0,0,0,-1,1833,729,11.7736,-2.19988
616,295,33.0084,-6.07458,0,0,0,0,0,0,0,-1,1840,729,33.0085,6.07458
623,295,32.9692,-5.42517,0.00127917,0.00304945,0.00661721,0.00884045,-0.00451184,0.851885,0.00784281,0.0295919,1847,729,32.9693,5.42517
630,295,32.9412,-4.75696,0.00126089,0.00188497,0.00446396,0.00604778,-0.00290191,0.820292,0.00527244,0.0118448,1854,729,32.9411,4.75699
637,295,32.9218,-4.07672,0.00109984,0.00109345,0.00287423,0.00397088,-0.00177759,0.784843,0.00339845,0.0131392,1861,729,32.9217,4.07673
644,295,32.9139,-3.40302,0.000709571,0.000763699,0.00181424,0.00255108,-0.00107781,0.792856,0.00215193,0.0126578,1868,729,32.914,3.40304
651,295,32.8936,-2.72815,0.00052386,0.000614026,0.000931223,0.00150126,-0.000363371,0.809586,0.00114141,0.0134852,1875,729,32.8935,2.72814
658,295,32.871,-2.06824,0.000278293,0.000890196,0.000443777,0.00112327,4.52229e-05,1.08719,0.000734234,0.0128889,1882,729,32.8709,2.06825
665,295,32.8353,-1.41986,-0.000129564,0.00161822,0.000543804,0.00177361,-0.000284949,1.29248,0.00128794,0.0121602,1889,729,32.8353,1.41986
672,295,32.7924,-0.757629,-0.000467551,0.0024749,0.000713382,0.00263873,-0.000631385,1.34505,0.00200307,0.0130646,1896,729,32.7923,0.757644
679,295,32.7703,-0.0724487,-0.000727615,0.00349468,0.000927861,0.00368958,-0.000922518,1.36375,0.00281802,0.00973767,1903,729,32.7703,0.0724436
686,295,32.7889,0.605408,-0.000816766,0.00472147,0.00127153,0.00499945,-0.00109475,1.35556,0.00375151,0.0114192,1910,729,32.789,-0.605384
693,295,32.8143,1.27972,0,0,0,0,0,0,0,-1,1917,729,32.8144,-1.27973
700,295,31.3757,2.06982,0,0,0,0,0,0,0,-1,1924,729,31.3758,-2.0698
707,295,22.2661,3.05206,0,0,0,0,0,0,0,-1,1931,729,22.2662,-3.05207
714,295,17.4906,4.63068,0,0,0,0,0,0,0,-1,1938,729,17.4906,-4.63066
721,295,18.3792,5.32281,0,0,0,0,0,0,0,-1,1945,729,18.3791,-5.32283
728,295,17.379,3.74866,0,0,0,0,0,0,0,-1,1952,729,17.379,-3.74863
735,295,0,0,0,0,0,0,0,0,0,-1,1959,729,0,0
742,295,0,0,0,0,0,0,0,0,0,-1,1966,729,0,0
749,295,0,0,0,0,0,0,0,0,0,-1,1973,729,0,0
756,295,0,0,0,0,0,0,0,0,0,-1,1980,729,0,0
763,295,0,0,0,0,0,0,0,0,0,-1,1987,729,0,0
770,295,0,0,0,0,0,0,0,0,0,-1,1994,729,0,0
777,295,0,0,0,0,0,0,0,0,0,-1,2001,729,0,0
784,295,0,0,0,0,0,0,0,0,0,-1,2008,729,0,0
791,295,0,0,0,0,0,0,0,0,0,-1,2015,729,0,0
798,295,0,0,0,0,0,0,0,0,0,-1,2022,729,0,0
805,295,0,0,0,0,0,0,0,0,0,-1,2029,729,0,0
812,295,0,0,0,0,0,0,0,0,0,-1,2036,729,0,0
-700,288,0,0,0,0,0,0,0,0,0,-1,524,736,0,0
-693,288,0,0,0,0,0,0,0,0,0,-1,531,736,0,0
-686,288,0,0,0,0,0,0,0,0,0,-1,538,736,0,0
-679,288,0,0,0,0,0,0,0,0,0,-1,545,736,0,0
-672,288,0,0,0,0,0,0,0,0,0,-1,552,736,0,0
-665,288,0,0,0,0,0,0,0,0,0,-1,559,736,0,0
-658,288,0,0,0,0,0,0,0,0,0,-1,566,736,0,0
-651,288,0,0,0,0,0,0,0,0,0,-1,573,736,0,0
-644,288,0,0,0,0,0,0,0,0,0,-1,580,736,0,0
-637,288,0,0,0,0,0,0,0,0,0,-1,587,736,0,0
-630,288,0,0,0,0,0,0,0,0,0,-1,594,736,0,0
-623,288,0,0,0,0,0,0,0,0,0,-1,601,736,0,0
-616,288,-11.7584,2.4425,0,0,0,0,0,0,0,-1,608,736,-11.7584,-2.44251
-609,288,-10.3007,2.32178,0,0,0,0,0,0,0,-1,615,736,-10.3007,-2.32178
-602,288,-10.1458,-1.85559,0,0,0,0,0,0,0,-1,622,736,-10.1458,1.85556
-595,288,-7.63208,1.81769,0,0,0,0,0,0,0,-1,629,736,-7.63205,-1.81766
-588,288,-8.19269,1.50598,0,0,0,0,0,0,0,-1,636,736,-8.19268,-1.50601
-581,288,-13.1915,0.659241,0,0,0,0,0,0,0,-1,643,736,-13.1915,-0.659228
-574,288,-21.332,0.0968628,0,0,0,0,0,0,0,-1,650,736,-21.332,-0.096844
-567,288,-21.5169,-0.580383,-0.00159179,0.00751289,-0.00392201,0.00896938,-0.00304828,-1.21522,0.00721365,0.0391515,657,736,-21.5169,0.580393
-560,288,-21.7919,-1.27399,-0.000791472,0.00513987,-0.00243046,0.00600856,-0.00166016,-1.22753,0.00465876,0.0175979,664,736,-21.7919,1.27397
-553,288,-21.7596,-1.8645,-0.000271594,0.00341196,-0.00136123,0.0038604,-0.000720036,-1.25256,0.00284416,0.0186231,671,736,-21.7596,1.86448
-546,288,-21.8038,-2.52441,-3.2788e-05,0.00189673,-0.000495055,0.00201634,-0.00015239,-1.33375,0.00139779,0.0201406,678,736,-21.8038,2.5244
-539,288,-21.847,-3.11951,5.37289e-05,0.000527502,0.000406316,0.000760943,-0.000179712,1.04932,0.000576611,0.0176623,685,736,-21.847,3.11949
-532,288,-21.8427,-3.74042,-9.1987e-05,-0.000618768,0.000985868,0.000665069,-0.00137582,0.654864,0.00120189,0.0151147,692,736,-21.8427,3.74042
-525,288,-21.8668,-4.39557,-0.000453311,-0.00142429,0.00148182,0.000620518,-0.00249812,0.627093,0.00190622,0.0137077,699,736,-21.8668,4.39558
-518,288,-21.9214,-5.03625,-0.0016386,-0.00246873,0.0020566,4.43996e-05,-0.00415173,0.685825,0.00278273,0.0120186,706,736,-21.9215,5.03623
-511,288,-21.9493,-5.64862,-0.00366777,-0.00340738,0.00206029,-0.00147317,-0.00560198,0.816952,0.00335325,0.00911309,713,736,-21.9493,5.64861
-504,288,-21.9686,-6.26642,-0.00651549,-0.00575848,-7.16387e-05,-0.00575176,-0.00652221,-1.47727,0.00411543,0.0106143,720,736,-21.9686,6.2664
-497,288,-21.9885,-6.69366,-0.00961821,-0.00775015,-0.00171637,-0.00673012,-0.0106382,-1.03458,0.0062136,0.0327362,727,736,-21.9885,6.69366
-490,288,-21.8755,-7.05481,0,0,0,0,0,0,0,-1,734,736,-21.8755,7.05483
-483,288,-17.3287,0.564758,0,0,0,0,0,0,0,-1,741,736,-17.3287,-0.56477
-476,288,-26.136,0.452148,0,0,0,0,0,0,0,-1,748,736,-26.136,-0.452177
-469,288,-27.7904,0.649841,0,0,0,0,0,0,0,-1,755,736,-27.7904,-0.649854
-462,288,-38.9562,0.158569,0,0,0,0,0,0,0,-1,762,736,-38.9562,-0.158541
-455,288,-43.7539,-0.235657,0,0,0,0,0,0,0,-1,769,736,-43.7539,0.23565
-448,288,-44.3273,-0.595276,0,0,0,0,0,0,0,-1,776,736,-44.3273,0.595262
-441,288,-41.1157,-2.28247,0,0,0,0,0,0,0,-1,783,736,-41.1157,2.28244
-434,288,-39.9307,-0.149353,0,0,0,0,0,0,0,-1,790,736,-39.9307,0.149359
-427,288,0,0,0,0,0,0,0,0,0,-1,797,736,0,0
-420,288,0,0,0,0,0,0,0,0,0,-1,804,736,0,0
-413,288,0,0,0,0,0,0,0,0,0,-1,811,736,0,0
-406,288,0,0,0,0,0,0,0,0,0,-1,818,736,0,0
-399,288,0,0,0,0,0,0,0,0,0,-1,825,736,0,0
-392,288,0,0,0,0,0,0,0,0,0,-1,832,736,0,0
-385,288,0,0,0,0,0,0,0,0,0,-1,839,736,0,0
-378,288,0,0,0,0,0,0,0,0,0,-1,846,736,0,0
-371,288,0,0,0,0,0,0,0,0,0,-1,853,736,0,0
-364,288,0,0,0,0,0,0,0,0,0,-1,860,736,0,0
-357,288,0,0,0,0,0,0,0,0,0,-1,867,736,0,0
-350,288,0,0,0,0,0,0,0,0,0,-1,874,736,0,0
-343,288,0,0,0,0,0,0,0,0,0,-1,881,736,0,0
-336,288,0,0,0,0,0,0,0,0,0,-1,888,736,0,0
-329,288,0,0,0,0,0,0,0,0,0,-1,895,736,0,0
-322,288,0,0,0,0,0,0,0,0,0,-1,902,736,0,0
-315,288,0,0,0,0,0,0,0,0,0,-1,909,736,0,0
-308,288,0,0,0,0,0,0,0,0,0,-1,916,736,0,0
-301,288,0,0,0,0,0,0,0,0,0,-1,923,736,0,0
-294,288,0,0,0,0,0,0,0,0,0,-1,930,736,0,0
-287,288,0,0,0,0,0,0,0,0,0,-1,937,736,0,0
-280,288,0,0,0,0,0,0,0,0,0,-1,944,736,0,0
-273,288,0,0,0,0,0,0,0,0,0,-1,951,736,0,0
-266,288,0,0,0,0,0,0,0,0,0,-1,958,736,0,0
-259,288,0,0,0,0,0,0,0,0,0,-1,965,736,0,0
-252,288,0,0,0,0,0,0,0,0,0,-1,972,736,0,0
-245,288,0,0,0,0,0,0,0,0,0,-1,979,736,0,0
-238,288,0,0,0,0,0,0,0,0,0,-1,986,736,0,0
-231,288,0,0,0,0,0,0,0,0,0,-1,993,736,0,0
-224,288,0,0,0,0,0,0,0,0,0,-1,1000,736,0,0
-217,288,0,0,0,0,0,0,0,0,0,-1,1007,736,0,0
-210,288,0,0,0,0,0,0,0,0,0,-1,1014,736,0,0
-203,288,0,0,0,0,0,0,0,0,0,-1,1021,736,0,0
-196,288,0,0,0,0,0,0,0,0,0,-1,1028,736,0,0
-189,288,0,0,0,0,0,0,0,0,0,-1,1035,736,0,0
-182,288,0,0,0,0,0,0,0,0,0,-1,1042,736,0,0
-175,288,0,0,0,0,0,0,0,0,0,-1,1049,736,0,0
-168,288,0,0,0,0,0,0,0,0,0,-1,1056,736,0,0
-161,288,0,0,0,0,0,0,0,0,0,-1,1063,736,0,0
-154,288,0,0,0,0,0,0,0,0,0,-1,1070,736,0,0
-147,288,0,0,0,0,0,0,0,0,0,-1,1077,736,0,0
-140,288,0,0,0,0,0,0,0,0,0,-1,1084,736,0,0
-133,288,0,0,0,0,0,0,0,0,0,-1,1091,736,0,0
-126,288,0,0,0,0,0,0,0,0,0,-1,1098,736,0,0
-119,288,0,0,0,0,0,0,0,0,0,-1,1105,736,0,0
-112,288,0,0,0,0,0,0,0,0,0,-1,1112,736,0,0
-105,288,0,0,0,0,0,0,0,0,0,-1,1119,736,0,0
-98,288,0,0,0,0,0,0,0,0,0,-1,1126,736,0,0
-91,288,0,0,0,0,0,0,0,0,0,-1,1133,736,0,0
-84,288,0,0,0,0,0,0,0,0,0,-1,1140,736,0,0
-77,288,0,0,0,0,0,0,0,0,0,-1,1147,736,0,0
-70,288,0,0,0,0,0,0,0,0,0,-1,1154,736,0,0
-63,288,0,0,0,0,0,0,0,0,0,-1,1161,736,0,0
-56,288,0,0,0,0,0,0,0,0,0,-1,1168,736,0,0
-49,288,0,0,0,0,0,0,0,0,0,-1,1175,736,0,0
-42,288,0,0,0,0,0,0,0,0,0,-1,1182,736,0,0
-35,288,0,0,0,0,0,0,0,0,0,-1,1189,736,0,0
-28,288,0,0,0,0,0,0,0,0,0,-1,1196,736,0,0
-21,288,0,0,0,0,0,0,0,0,0,-1,1203,736,0,0
-14,288,0,0,0,0,0,0,0,0,0,-1,1210,736,0,0
-7,288,0,0,0,0,0,0,0,0,0,-1,1217,736,0,0
0,288,0,0,0,0,0,0,0,0,0,-1,1224,736,0,0
7,288,0,0,0,0,0,0,0,0,0,-1,1231,736,0,0
14,288,0,0,0,0,0,0,0,0,0,-1,1238,736,0,0
21,288,0,0,0,0,0,0,0,0,0,-1,1245,736,0,0
28,288,0,0,0,0,0,0,0,0,0,-1,1252,736,0,0
35,288,0,0,0,0,0,0,0,0,0,-1,1259,736,0,0
42,288,0,0,0,0,0,0,0,0,0,-1,1266,736,0,0
49,288,0,0,0,0,0,0,0,0,0,-1,1273,736,0,0
56,288,0,0,0,0,0,0,0,0,0,-1,1280,736,0,0
63,288,0,0,0,0,0,0,0,0,0,-1,1287,736,0,0
70,288,0,0,0,0,0,0,0,0,0,-1,1294,736,0,0
77,288,0,0,0,0,0,0,0,0,0,-1,1301,736,0,0
84,288,0,0,0,0,0,0,0,0,0,-1,1308,736,0,0
91,288,0,0,0,0,0,0,0,0,0,-1,1315,736,0,0
98,288,0,0,0,0,0,0,0,0,0,-1,1322,736,0,0
105,288,0,0,0,0,0,0,0,0,0,-1,1329,736,0,0
112,288,0,0,0,0,0,0,0,0,0,-1,1336,736,0,0
119,288,0,0,0,0,0,0,0,0,0,-1,1343,736,0,0
126,288,0,0,0,0,0,0,0,0,0,-1,1350,736,0,0
133,288,0,0,0,0,0,0,0,0,0,-1,1357,736,0,0
140,288,0,0,0,0,0,0,0,0,0,-1,1364,736,0,0
147,288,0,0,0,0,0,0,0,0,0,-1,1371,736,0,0
154,288,0,0,0,0,0,0,0,0,0,-1,1378,736,0,0
161,288,0,0,0,0,0,0,0,0,0,-1,1385,736,0,0
168,288,0,0,0,0,0,0,0,0,0,-1,1392,736,0,0
175,288,0,0,0,0,0,0,0,0,0,-1,1399,736,0,0
182,288,0,0,0,0,0,0,0,0,0,-1,1406,736,0,0
189,288,0,0,0,0,0,0,0,0,0,-1,1413,736,0,0
196,288,0,0,0,0,0,0,0,0,0,-1,1420,736,0,0
203,288,0,0,0,0,0,0,0,0,0,-1,1427,736,0,0
210,288,0,0,0,0,0,0,0,0,0,-1,1434,736,0,0
217,288,0,0,0,0,0,0,0,0,0,-1,1441,736,0,0
224,288,0,0,0,0,0,0,0,0,0,-1,1448,736,0,0
231,288,0,0,0,0,0,0,0,0,0,-1,1455,736,0,0
238,288,0,0,0,0,0,0,0,0,0,-1,1462,736,0,0
245,288,0,0,0,0,0,0,0,0,0,-1,1469,736,0,0
252,288,0,0,0,0,0,0,0,0,0,-1,1476,736,0,0
259,288,0,0,0,0,0,0,0,0,0,-1,1483,736,0,0
266,288,0,0,0,0,0,0,0,0,0,-1,1490,736,0,0
273,288,0,0,0,0,0,0,0,0,0,-1,1497,736,0,0
280,288,0,0,0,0,0,0,0,0,0,-1,1504,736,0,0
287,288,0,0,0,0,0,0,0,0,0,-1,1511,736,0,0
294,288,0,0,0,0,0,0,0,0,0,-1,1518,736,0,0
301,288,0,0,0,0,0,0,0,0,0,-1,1525,736,0,0
308,288,0,0,0,0,0,0,0,0,0,-1,1532,736,0,0
315,288,0,0,0,0,0,0,0,0,0,-1,1539,736,0,0
322,288,0,0,0,0,0,0,0,0,0,-1,1546,736,0,0
329,288,0,0,0,0,0,0,0,0,0,-1,1553,736,0,0
336,288,0,0,0,0,0,0,0,0,0,-1,1560,736,0,0
343,288,0,0,0,0,0,0,0,0,0,-1,1567,736,0,0
350,288,0,0,0,0,0,0,0,0,0,-1,1574,736,0,0
357,288,0,0,0,0,0,0,0,0,0,-1,1581,736,0,0
364,288,0,0,0,0,0,0,0,0,0,-1,1588,736,0,0
371,288,0,0,0,0,0,0,0,0,0,-1,1595,736,0,0
378,288,0,0,0,0,0,0,0,0,0,-1,1602,736,0,0
385,288,0,0,0,0,0,0,0,0,0,-1,1609,736,0,0
392,288,0,0,0,0,0,0,0,0,0,-1,1616,736,0,0
399,288,0,0,0,0,0,0,0,0,0,-1,1623,736,0,0
406,288,0,0,0,0,0,0,0,0,0,-1,1630,736,0,0
413,288,0,0,0,0,0,0,0,0,0,-1,1637,736,0,0
420,288,0,0,0,0,0,0,0,0,0,-1,1644,736,0,0
427,288,0,0,0,0,0,0,0,0,0,-1,1651,736,0,0
434,288,0,0,0,0,0,0,0,0,0,-1,1658,736,0,0
441,288,0,0,0,0,0,0,0,0,0,-1,1665,736,0,0
448,288,0,0,0,0,0,0,0,0,0,-1,1672,736,0,0
455,288,0,0,0,0,0,0,0,0,0,-1,1679,736,0,0
462,288,0,0,0,0,0,0,0,0,0,-1,1686,736,0,0
469,288,0,0,0,0,0,0,0,0,0,-1,1693,736,0,0
476,288,0,0,0,0,0,0,0,0,0,-1,1700,736,0,0
483,288,0,0,0,0,0,0,0,0,0,-1,1707,736,0,0
490,288,0,0,0,0,0,0,0,0,0,-1,1714,736,0,0
497,288,0,0,0,0,0,0,0,0,0,-1,1721,736,0,0
504,288,0,0,0,0,0,0,0,0,0,-1,1728,736,0,0
511,288,0,0,0,0,0,0,0,0,0,-1,1735,736,0,0
518,288,0,0,0,0,0,0,0,0,0,-1,1742,736,0,0
525,288,0,0,0,0,0,0,0,0,0,-1,1749,736,0,0
532,288,0,0,0,0,0,0,0,0,0,-1,1756,736,0,0
539,288,0,0,0,0,0,0,0,0,0,-1,1763,736,0,0
546,288,0,0,0,0,0,0,0,0,0,-1,1770,736,0,0
553,288,48.1055,1.96002,0,0,0,0,0,0,0,-1,1777,736,48.1055,-1.96004
560,288,50.3898,2.00574,0,0,0,0,0,0,0,-1,1784,736,50.3898,-2.00572
567,288,53.0564,2.46729,0,0,0,0,0,0,0,-1,1791,736,53.0564,-2.46731
574,288,53.3617,3.01221,0,0,0,0,0,0,0,-1,1798,736,53.3617,-3.01222
581,288,53.8143,2.55176,0,0,0,0,0,0,0,-1,1805,736,53.8143,-2.55178
588,288,54.9313,3.29852,0,0,0,0,0,0,0,-1,1812,736,54.9313,-3.29849
595,288,47.035,3.35156,0,0,0,0,0,0,0,-1,1819,736,47.035,-3.35157
602,288,26.7634,7.61279,0,0,0,0,0,0,0,-1,1826,736,26.7635,-7.61279
609,288,17.5223,4.86414,0,0,0,0,0,0,0,-1,1833,736,17.5223,-4.86412
616,288,13.4886,0.801331,0,0,0,0,0,0,0,-1,1840,736,13.4886,-0.80132
623,288,33.6205,-5.43848,0,0,0,0,0,0,0,-1,1847,736,33.6205,5.43847
630,288,33.5839,-4.72607,0.00119796,0.00267019,0.00554768,0.00753038,-0.00366223,0.851357,0.00658944,0.0252248,1854,736,33.5838,4.72605
637,288,33.6028,-4.0528,0.00106081,0.0016376,0.00373029,0.00509062,-0.00239222,0.823978,0.00441286,0.0108306,1861,736,33.6028,4.05277
644,288,33.6005,-3.38745,0.000613131,0.00110461,0.00250117,0.00337209,-0.00165435,0.834366,0.00295796,0.00990313,1868,736,33.6005,3.38743
651,288,33.5691,-2.7196,0.000639297,0.00062681,0.00128323,0.0019163,-0.000650191,0.782965,0.00154069,0.0117401,1875,736,33.569,2.71958
658,288,33.55,-2.03424,0.000688484,0.000596562,0.000492194,0.00113686,0.000148188,0.738843,0.000713656,0.0173569,1882,736,33.5501,2.03426
665,288,33.512,-1.37036,0.000416995,0.00132581,0.000639663,0.00165604,8.67656e-05,1.09423,0.00107627,0.0175636,1889,736,33.512,1.37037
672,288,33.4695,-0.734741,0.000234028,0.0021782,0.000864329,0.00250689,-9.46601e-05,1.2074,0.00170369,0.0157897,1896,736,33.4695,0.734737
679,288,33.4437,-0.0460815,0.000143381,0.00316877,0.00112509,0.0035413,-0.00022915,1.25105,0.00244084,0.0130867,1903,736,33.4437,0.0460833
686,288,33.4153,0.603699,0.000219607,0.00434531,0.00150983,0.00483881,-0.000273893,1.25488,0.00332094,0.0105129,1910,736,33.4152,-0.603718
693,288,33.4249,1.34387,0.000560798,0.00571345,0.0020269,0.0064152,-0.000140951,1.23749,0.00432455,0.0237963,1917,736,33.4249,-1.34388
700,288,33.4231,2.14508,0,0,0,0,0,0,0,-1,1924,736,33.4231,-2.14507
707,288,30.9496,3.07977,0,0,0,0,0,0,0,-1,1931,736,30.9496,-3.07975
714,288,23.0149,3.82544,0,0,0,0,0,0,0,-1,1938,736,23.0149,-3.82541
721,288,18.0732,3.69385,0,0,0,0,0,0,0,-1,1945,736,18.0732,-3.69387
728,288,19.3208,3.91455,0,0,0,0,0,0,0,-1,1952,736,19.3209,-3.91455
735,288,18.7712,3.51312,0,0,0,0,0,0,0,-1,1959,736,18.7713,-3.51309
742,288,0,0,0,0,0,0,0,0,0,-1,1966,736,0,0
749,288,0,0,0,0,0,0,0,0,0,-1,1973,736,0,0
756,288,0,0,0,0,0,0,0,0,0,-1,1980,736,0,0
763,288,0,0,0,0,0,0,0,0,0,-1,1987,736,0,0
770,288,0,0,0,0,0,0,0,0,0,-1,1994,736,0,0
777,288,0,0,0,0,0,0,0,0,0,-1,2001,736,0,0
784,288,0,0,0,0,0,0,0,0,0,-1,2008,736,0,0
791,288,0,0,0,0,0,0,0,0,0,-1,2015,736,0,0
798,288,0,0,0,0,0,0,0,0,0,-1,2022,736,0,0
805,288,0,0,0,0,0,0,0,0,0,-1,2029,736,0,0
812,288,0,0,0,0,0,0,0,0,0,-1,2036,736,0,0
-700,281,0,0,0,0,0,0,0,0,0,-1,524,743,0,0
-693,281,0,0,0,0,0,0,0,0,0,-1,531,743,0,0
-686,281,0,0,0,0,0,0,0,0,0,-1,538,743,0,0
-679,281,0,0,0,0,0,0,0,0,0,-1,545,743,0,0
-672,281,0,0,0,0,0,0,0,0,0,-1,552,743,0,0
-665,281,0,0,0,0,0,0,0,0,0,-1,559,743,0,0
-658,281,0,0,0,0,0,0,0,0,0,-1,566,743,0,0
-651,281,0,0,0,0,0,0,0,0,0,-1,573,743,0,0
-644,281,0,0,0,0,0,0,0,0,0,-1,580,743,0,0
-637,281,0,0,0,0,0,0,0,0,0,-1,587,743,0,0
-630,281,0,0,0,0,0,0,0,0,0,-1,594,743,0,0
-623,281,-19.1697,5.67017,0,0,0,0,0,0,0,-1,601,743,-19.1697,-5.67019
-616,281,-11.5906,2.6853,0,0,0,0,0,0,0,-1,608,743,-11.5906,-2.68529
-609,281,-16.1972,4.14838,0,0,0,0,0,0,0,-1,615,743,-16.1972,-4.14837
-602,281,-12.7697,3.94086,0,0,0,0,0,0,0,-1,622,743,-12.7697,-3.94086
-595,281,-10.4797,-1.07404,0,0,0,0,0,0,0,-1,629,743,-10.4798,1.07402
-588,281,-13.277,1.49817,0,0,0,0,0,0,0,-1,636,743,-13.2771,-1.49817
-581,281,-22.5017,0.878479,0,0,0,0,0,0,0,-1,643,743,-22.5017,-0.878497
-574,281,-22.2114,0.0144043,-0.00271717,0.0102818,-0.0066631,0.0130904,-0.00552576,-1.17188,0.0110399,0.0443666,650,743,-22.2114,-0.0144343
-567,281,-22.3721,-0.571411,-0.00159528,0.00716611,-0.00432967,0.00894468,-0.00337385,-1.18103,0.00735053,0.021021,657,743,-22.3721,0.571413
-560,281,-22.4436,-1.21509,-0.000977909,0.00477227,-0.00261847,0.00578595,-0.00199159,-1.20144,0.00466509,0.00903889,664,743,-22.4436,1.21512
-553,281,-22.4176,-1.83521,-0.000602949,0.00292942,-0.00133942,0.00337986,-0.00105339,-1.24638,0.00267444,0.0149612,671,743,-22.4176,1.83519
-546,281,-22.4296,-2.43652,-0.00045695,0.00137751,-0.000314531,0.00142994,-0.00050938,-1.40562,0.00116095,0.016865,678,743,-22.4296,2.4365
-539,281,-22.476,-3.07654,-0.000501244,-0.000109143,0.000749901,0.000469911,-0.0010803,0.913254,0.000917849,0.0145024,685,743,-22.476,3.07653
-532,281,-22.4944,-3.69543,-0.000849657,-0.0013061,0.00142331,0.000363611,-0.00251937,0.705902,0.00181298,0.0139474,692,743,-22.4944,3.69545
-525,281,-22.535,-4.34723,-0.00146778,-0.00209974,0.00197142,0.000212829,-0.00378034,0.705934,0.00259408,0.0162332,699,743,-22.535,4.34722
-518,281,-22.5664,-5.01306,-0.00311586,-0.0031137,0.00258425,-0.000530536,-0.00569903,0.785607,0.00363543,0.0130208,706,743,-22.5664,5.01303
-511,281,-22.5928,-5.64819,-0.00553324,-0.00396864,0.00248181,-0.00214876,-0.00735312,0.938076,0.0043658,0.0116299,713,743,-22.5928,5.64817
-504,281,-22.6469,-6.27075,-0.0085222,-0.00630918,0.00021724,-0.00628805,-0.00854332,1.47386,0.00511239,0.0150741,720,743,-22.6468,6.27076
-497,281,-22.5334,-6.90424,-0.0117213,-0.00815065,-0.00141636,-0.00765706,-0.0122149,-1.23547,0.00712755,0.0480334,727,743,-22.5334,6.90424
-490,281,-22.3454,-7.44818,0,0,0,0,0,0,0,-1,734,743,-22.3454,7.44816
-483,281,-22.1078,-2.34973,0,0,0,0,0,0,0,-1,741,743,-22.1078,2.3497
-476,281,-28.0016,2.17786,0,0,0,0,0,0,0,-1,748,743,-28.0016,-2.17786
-469,281,-34.6448,0.171692,0,0,0,0,0,0,0,-1,755,743,-34.6448,-0.171685
-462,281,-42.2286,0.491882,0,0,0,0,0,0,0,-1,762,743,-42.2286,-0.491907
-455,281,-42.8792,0.221863,-0.0421674,-0.0367231,-0.042705,0.00334644,-0.082237,-0.817226,0.0559735,0.0428366,769,743,-42.8792,-0.221842
-448,281,-43.549,-0.256531,0,0,0,0,0,0,0,-1,776,743,-43.5489,0.256546
-441,281,-44.1879,-0.576233,0,0,0,0,0,0,0,-1,783,743,-44.1879,0.576237
-434,281,0,0,0,0,0,0,0,0,0,-1,790,743,0,0
-427,281,0,0,0,0,0,0,0,0,0,-1,797,743,0,0
-420,281,0,0,0,0,0,0,0,0,0,-1,804,743,0,0
-413,281,0,0,0,0,0,0,0,0,0,-1,811,743,0,0
-406,281,0,0,0,0,0,0,0,0,0,-1,818,743,0,0
-399,281,0,0,0,0,0,0,0,0,0,-1,825,743,0,0
-392,281,0,0,0,0,0,0,0,0,0,-1,832,743,0,0
-385,281,0,0,0,0,0,0,0,0,0,-1,839,743,0,0
-378,281,0,0,0,0,0,0,0,0,0,-1,846,743,0,0
-371,281,0,0,0,0,0,0,0,0,0,-1,853,743,0,0
-364,281,0,0,0,0,0,0,0,0,0,-1,860,743,0,0
-357,281,0,0,0,0,0,0,0,0,0,-1,867,743,0,0
-350,281,0,0,0,0,0,0,0,0,0,-1,874,743,0,0
-343,281,0,0,0,0,0,0,0,0,0,-1,881,743,0,0
-336,281,0,0,0,0,0,0,0,0,0,-1,888,743,0,0
-329,281,0,0,0,0,0,0,0,0,0,-1,895,743,0,0
-322,281,0,0,0,0,0,0,0,0,0,-1,902,743,0,0
-315,281,0,0,0,0,0,0,0,0,0,-1,909,743,0,0
-308,281,0,0,0,0,0,0,0,0,0,-1,916,743,0,0
-301,281,0,0,0,0,0,0,0,0,0,-1,923,743,0,0
-294,281,0,0,0,0,0,0,0,0,0,-1,930,743,0,0
-287,281,0,0,0,0,0,0,0,0,0,-1,937,743,0,0
-280,281,0,0,0,0,0,0,0,0,0,-1,944,743,0,0
-273,281,0,0,0,0,0,0,0,0,0,-1,951,743,0,0
-266,281,0,0,0,0,0,0,0,0,0,-1,958,743,0,0
-259,281,0,0,0,0,0,0,0,0,0,-1,965,743,0,0
-252,281,0,0,0,0,0,0,0,0,0,-1,972,743,0,0
-245,281,0,0,0,0,0,0,0,0,0,-1,979,743,0,0
-238,281,0,0,0,0,0,0,0,0,0,-1,986,743,0,0
-231,281,0,0,0,0,0,0,0,0,0,-1,993,743,0,0
-224,281,0,0,0,0,0,0,0,0,0,-1,1000,743,0,0
-217,281,0,0,0,0,0,0,0,0,0,-1,1007,743,0,0
-210,281,0,0,0,0,0,0,0,0,0,-1,1014,743,0,0
-203,281,0,0,0,0,0,0,0,0,0,-1,1021,743,0,0
-196,281,0,0,0,0,0,0,0,0,0,-1,1028,743,0,0
-189,281,0,0,0,0,0,0,0,0,0,-1,1035,743,0,0
-182,281,0,0,0,0,0,0,0,0,0,-1,1042,743,0,0
-175,281,0,0,0,0,0,0,0,0,0,-1,1049,743,0,0
-168,281,0,0,0,0,0,0,0,0,0,-1,1056,743,0,0
-161,281,0,0,0,0,0,0,0,0,0,-1,1063,743,0,0
-154,281,0,0,0,0,0,0,0,0,0,-1,1070,743,0,0
-147,281,0,0,0,0,0,0,0,0,0,-1,1077,743,0,0
-140,281,0,0,0,0,0,0,0,0,0,-1,1084,743,0,0
-133,281,0,0,0,0,0,0,0,0,0,-1,1091,743,0,0
-126,281,0,0,0,0,0,0,0,0,0,-1,1098,743,0,0
-119,281,0,0,0,0,0,0,0,0,0,-1,1105,743,0,0
-112,281,0,0,0,0,0,0,0,0,0,-1,1112,743,0,0
-105,281,0,0,0,0,0,0,0,0,0,-1,1119,743,0,0
-98,281,0,0,0,0,0,0,0,0,0,-1,1126,743,0,0
-91,281,0,0,0,0,0,0,0,0,0,-1,1133,743,0,0
-84,281,0,0,0,0,0,0,0,0,0,-1,1140,743,0,0
-77,281,0,0,0,0,0,0,0,0,0,-1,1147,743,0,0
-70,281,0,0,0,0,0,0,0,0,0,-1,1154,743,0,0
-63,281,0,0,0,0,0,0,0,0,0,-1,1161,743,0,0
-56,281,0,0,0,0,0,0,0,0,0,-1,1168,743,0,0
-49,281,0,0,0,0,0,0,0,0,0,-1,1175,743,0,0
-42,281,0,0,0,0,0,0,0,0,0,-1,1182,743,0,0
-35,281,0,0,0,0,0,0,0,0,0,-1,1189,743,0,0
-28,281,0,0,0,0,0,0,0,0,0,-1,1196,743,0,0
-21,281,0,0,0,0,0,0,0,0,0,-1,1203,743,0,0
-14,281,0,0,0,0,0,0,0,0,0,-1,1210,743,0,0
-7,281,0,0,0,0,0,0,0,0,0,-1,1217,743,0,0
0,281,0,0,0,0,0,0,0,0,0,-1,1224,743,0,0
7,281,0,0,0,0,0,0,0,0,0,-1,1231,743,0,0
14,281,0,0,0,0,0,0,0,0,0,-1,1238,743,0,0
21,281,0,0,0,0,0,0,0,0,0,-1,1245,743,0,0
28,281,0,0,0,0,0,0,0,0,0,-1,1252,743,0,0
35,281,0,0,0,0,0,0,0,0,0,-1,1259,743,0,0
42,281,0,0,0,0,0,0,0,0,0,-1,1266,743,0,0
49,281,0,0,0,0,0,0,0,0,0,-1,1273,743,0,0
56,281,0,0,0,0,0,0,0,0,0,-1,1280,743,0,0
63,281,0,0,0,0,0,0,0,0,0,-1,1287,743,0,0
70,281,0,0,0,0,0,0,0,0,0,-1,1294,743,0,0
77,281,0,0,0,0,0,0,0,0,0,-1,1301,743,0,0
84,281,0,0,0,0,0,0,0,0,0,-1,1308,743,0,0
91,281,0,0,0,0,0,0,0,0,0,-1,1315,743,0,0
98,281,0,0,0,0,0,0,0,0,0,-1,1322,743,0,0
105,281,0,0,0,0,0,0,0,0,0,-1,1329,743,0,0
112,281,0,0,0,0,0,0,0,0,0,-1,1336,743,0,0
119,281,0,0,0,0,0,0,0,0,0,-1,1343,743,0,0
126,281,0,0,0,0,0,0,0,0,0,-1,1350,743,0,0
133,281,0,0,0,0,0,0,0,0,0,-1,1357,743,0,0
140,281,0,0,0,0,0,0,0,0,0,-1,1364,743,0,0
147,281,0,0,0,0,0,0,0,0,0,-1,1371,743,0,0
154,281,0,0,0,0,0,0,0,0,0,-1,1378,743,0,0
161,281,0,0,0,0,0,0,0,0,0,-1,1385,743,0,0
168,281,0,0,0,0,0,0,0,0,0,-1,1392,743,0,0
175,281,0,0,0,0,0,0,0,0,0,-1,1399,743,0,0
182,281,0,0,0,0,0,0,0,0,0,-1,1406,743,0,0
189,281,0,0,0,0,0,0,0,0,0,-1,1413,743,0,0
196,281,0,0,0,0,0,0,0,0,0,-1,1420,743,0,0
203,281,0,0,0,0,0,0,0,0,0,-1,1427,743,0,0
210,281,0,0,0,0,0,0,0,0,0,-1,1434,743,0,0
217,281,0,0,0,0,0,0,0,0,0,-1,1441,743,0,0
224,281,0,0,0,0,0,0,0,0,0,-1,1448,743,0,0
231,281,0,0,0,0,0,0,0,0,0,-1,1455,743,0,0
238,281,0,0,0,0,0,0,0,0,0,-1,1462,743,0,0
245,281,0,0,0,0,0,0,0,0,0,-1,1469,743,0,0
252,281,0,0,0,0,0,0,0,0,0,-1,1476,743,0,0
259,281,0,0,0,0,0,0,0,0,0,-1,1483,743,0,0
266,281,0,0,0,0,0,0,0,0,0,-1,1490,743,0,0
273,281,0,0,0,0,0,0,0,0,0,-1,1497,743,0,0
280,281,0,0,0,0,0,0,0,0,0,-1,1504,743,0,0
287,281,0,0,0,0,0,0,0,0,0,-1,1511,743,0,0
294,281,0,0,0,0,0,0,0,0,0,-1,1518,743,0,0
301,281,0,0,0,0,0,0,0,0,0,-1,1525,743,0,0
308,281,0,0,0,0,0,0,0,0,0,-1,1532,743,0,0
315,281,0,0,0,0,0,0,0,0,0,-1,1539,743,0,0
322,281,0,0,0,0,0,0,0,0,0,-1,1546,743,0,0
329,281,0,0,0,0,0,0,0,0,0,-1,1553,743,0,0
336,281,0,0,0,0,0,0,0,0,0,-1,1560,743,0,0
343,281,0,0,0,0,0,0,0,0,0,-1,1567,743,0,0
350,281,0,0,0,0,0,0,0,0,0,-1,1574,743,0,0
357,281,0,0,0,0,0,0,0,0,0,-1,1581,743,0,0
364,281,0,0,0,0,0,0,0,0,0,-1,1588,743,0,0
371,281,0,0,0,0,0,0,0,0,0,-1,1595,743,0,0
378,281,0,0,0,0,0,0,0,0,0,-1,1602,743,0,0
385,281,0,0,0,0,0,0,0,0,0,-1,1609,743,0,0
392,281,0,0,0,0,0,0,0,0,0,-1,1616,743,0,0
399,281,0,0,0,0,0,0,0,0,0,-1,1623,743,0,0
406,281,0,0,0,0,0,0,0,0,0,-1,1630,743,0,0
413,281,0,0,0,0,0,0,0,0,0,-1,1637,743,0,0
420,281,0,0,0,0,0,0,0,0,0,-1,1644,743,0,0
427,281,0,0,0,0,0,0,0,0,0,-1,1651,743,0,0
434,281,0,0,0,0,0,0,0,0,0,-1,1658,743,0,0
441,281,0,0,0,0,0,0,0,0,0,-1,1665,743,0,0
448,281,0,0,0,0,0,0,0,0,0,-1,1672,743,0,0
455,281,0,0,0,0,0,0,0,0,0,-1,1679,743,0,0
462,281,0,0,0,0,0,0,0,0,0,-1,1686,743,0,0
469,281,0,0,0,0,0,0,0,0,0,-1,1693,743,0,0
476,281,0,0,0,0,0,0,0,0,0,-1,1700,743,0,0
483,281,0,0,0,0,0,0,0,0,0,-1,1707,743,0,0
490,281,0,0,0,0,0,0,0,0,0,-1,1714,743,0,0
497,281,0,0,0,0,0,0,0,0,0,-1,1721,743,0,0
504,281,0,0,0,0,0,0,0,0,0,-1,1728,743,0,0
511,281,0,0,0,0,0,0,0,0,0,-1,1735,743,0,0
518,281,0,0,0,0,0,0,0,0,0,-1,1742,743,0,0
525,281,0,0,0,0,0,0,0,0,0,-1,1749,743,0,0
532,281,0,0,0,0,0,0,0,0,0,-1,1756,743,0,0
539,281,0,0,0,0,0,0,0,0,0,-1,1763,743,0,0
546,281,0,0,0,0,0,0,0,0,0,-1,1770,743,0,0
553,281,0,0,0,0,0,0,0,0,0,-1,1777,743,0,0
560,281,53.1833,2.68683,0,0,0,0,0,0,0,-1,1784,743,53.1833,-2.68685
567,281,53.3784,2.7608,0,0,0,0,0,0,0,-1,1791,743,53.3784,-2.76078
574,281,53.4863,3.00604,0,0,0,0,0,0,0,-1,1798,743,53.4863,-3.00606
581,281,54.8129,3.36597,0,0,0,0,0,0,0,-1,1805,743,54.8129,-3.36597
588,281,54.6653,3.14581,0,0,0,0,0,0,0,-1,1812,743,54.6653,-3.14579
595,281,54.8569,3.32269,0,0,0,0,0,0,0,-1,1819,743,54.857,-3.32269
602,281,45.9985,3.98254,0,0,0,0,0,0,0,-1,1826,743,45.9985,-3.98254
609,281,32.7925,1.28723,0,0,0,0,0,0,0,-1,1833,743,32.7925,-1.28722
616,281,21.3191,-0.253906,0,0,0,0,0,0,0,-1,1840,743,21.3191,0.253931
623,281,31.8741,-4.74182,0,0,0,0,0,0,0,-1,1847,743,31.8741,4.74184
630,281,34.2,-4.66199,0,0,0,0,0,0,0,-1,1854,743,34.1999,4.66199
637,281,34.2236,-4.02075,0.000895813,0.001953,0.0041502,0.00560813,-0.00275932,0.84874,0.0049234,0.0170019,1861,743,34.2237,4.02073
644,281,34.2432,-3.3631,0.000292817,0.00129171,0.00300994,0.00384336,-0.00225883,0.867615,0.00356248,0.0104951,1868,743,34.2431,3.36312
651,281,34.2389,-2.70807,0.000453152,0.000510225,0.00155471,0.00203666,-0.00107329,0.794575,0.00182402,0.0111134,1875,743,34.2389,2.70809
658,281,34.224,-2.03918,0.000819942,8.22408e-05,0.000412129,0.00100417,-0.000101991,0.420378,0.000705907,0.0200944,1882,743,34.224,2.0392
665,281,34.1785,-1.36591,0.00066826,0.000810647,0.000587489,0.00133124,0.000147667,0.845695,0.000842596,0.0209971,1889,743,34.1784,1.36591
672,281,34.1425,-0.694641,0.000610375,0.00168217,0.00085088,0.00215185,0.000140696,1.06642,0.00139004,0.0130387,1896,743,34.1424,0.69466
679,281,34.106,-0.0465698,0.000657005,0.00267396,0.00114822,0.00319369,0.000137271,1.14575,0.00208488,0.020304,1903,743,34.1059,0.0465681
686,281,34.0381,0.615051,0.000868774,0.00383446,0.00156257,0.00450579,0.000197448,1.16501,0.00294025,0.0160126,1910,743,34.0381,-0.615061
693,281,34.0348,1.27429,0.00133831,0.00516754,0.00211267,0.00610409,0.000401763,1.15353,0.0039423,0.0117304,1917,743,34.0348,-1.27428
700,281,34.0001,1.97961,0.00214676,0.00686006,0.00290551,0.00824451,0.000762319,1.12613,0.00526068,0.0350086,1924,743,34.0001,-1.97959
707,281,34.0568,2.67664,0,0,0,0,0,0,0,-1,1931,743,34.0568,-2.67665
714,281,25.0125,2.5105,0,0,0,0,0,0,0,-1,1938,743,25.0124,-2.51053
721,281,16.9656,3.22174,0,0,0,0,0,0,0,-1,1945,743,16.9656,-3.22172
728,281,19.0251,3.63934,0,0,0,0,0,0,0,-1,1952,743,19.0252,-3.63932
735,281,19.0869,2.50311,0,0,0,0,0,0,0,-1,1959,743,19.0869,-2.5031
742,281,0,0,0,0,0,0,0,0,0,-1,1966,743,0,0
749,281,0,0,0,0,0,0,0,0,0,-1,1973,743,0,0
756,281,0,0,0,0,0,0,0,0,0,-1,1980,743,0,0
763,281,0,0,0,0,0,0,0,0,0,-1,1987,743,0,0
770,281,0,0,0,0,0,0,0,0,0,-1,1994,743,0,0
777,281,0,0,0,0,0,0,0,0,0,-1,2001,743,0,0
784,281,0,0,0,0,0,0,0,0,0,-1,2008,743,0,0
791,281,0,0,0,0,0,0,0,0,0,-1,2015,743,0,0
798,281,0,0,0,0,0,0,0,0,0,-1,2022,743,0,0
805,281,0,0,0,0,0,0,0,0,0,-1,2029,743,0,0
812,281,0,0,0,0,0,0,0,0,0,-1,2036,743,0,0
-700,274,0,0,0,0,0,0,0,0,0,-1,524,750,0,0
-693,274,0,0,0,0,0,0,0,0,0,-1,531,750,0,0
-686,274,0,0,0,0,0,0,0,0,0,-1,538,750,0,0
-679,274,0,0,0,0,0,0,0,0,0,-1,545,750,0,0
-672,274,0,0,0,0,0,0,0,0,0,-1,552,750,0,0
-665,274,0,0,0,0,0,0,0,0,0,-1,559,750,0,0
-658,274,0,0,0,0,0,0,0,0,0,-1,566,750,0,0
-651,274,0,0,0,0,0,0,0,0,0,-1,573,750,0,0
-644,274,0,0,0,0,0,0,0,0,0,-1,580,750,0,0
-637,274,0,0,0,0,0,0,0,0,0,-1,587,750,0,0
-630,274,0,0,0,0,0,0,0,0,0,-1,594,750,0,0
-623,274,-19.6909,5.12701,0,0,0,0,0,0,0,-1,601,750,-19.6908,-5.12703
-616,274,-17.9133,3.9024,0,0,0,0,0,0,0,-1,608,750,-17.9133,-3.90239
-609,274,-22.8754,6.07513,0,0,0,0,0,0,0,-1,615,750,-22.8754,-6.07514
-602,274,-22.5925,4.8269,0,0,0,0,0,0,0,-1,622,750,-22.5925,-4.82689
-595,274,-22.2496,3.62689,0,0,0,0,0,0,0,-1,629,750,-22.2497,-3.62688
-588,274,-22.975,1.62793,0,0,0,0,0,0,0,-1,636,750,-22.975,-1.6279
-581,274,-22.9451,0.851013,-0.00349513,0.0136454,-0.0104144,0.0185625,-0.0084122,-1.12968,0.0159371,0.0494524,643,750,-22.9451,-0.85103
-574,274,-22.8714,0.0438843,-0.00244947,0.00966694,-0.00691124,0.0127993,-0.00558187,-1.14526,0.0108817,0.0269014,650,750,-22.8714,-0.043891
-567,274,-23.0303,-0.580383,-0.00161857,0.00666576,-0.00442219,0.00858275,-0.00353556,-1.16175,0.00719594,0.0256463,657,750,-23.0303,0.580369
-560,274,-23.0687,-1.16412,-0.00120472,0.00431591,-0.00256199,0.00532164,-0.00221045,-1.19672,0.00447061,0.0146528,664,750,-23.0686,1.16414
-553,274,-23.0538,-1.80243,-0.0010057,0.00242174,-0.00113293,0.00276237,-0.00134633,-1.27873,0.00241867,0.00988747,671,750,-23.0538,1.8024
-546,274,-23.097,-2.43872,-0.000991446,0.0008593,1.26324e-05,0.000859386,-0.000991533,1.56397,0.00106954,0.011533,678,750,-23.097,2.43871
-539,274,-23.1329,-3.07446,-0.00125126,-0.00070049,0.00119408,0.000249551,-0.0022013,0.89873,0.0015574,0.0115626,685,750,-23.1329,3.07448
-532,274,-23.1483,-3.67181,-0.0018382,-0.00191001,0.00193883,6.50529e-05,-0.00381326,0.77614,0.00256413,0.012181,692,750,-23.1482,3.67183
-525,274,-23.1719,-4.29211,-0.00268635,-0.00266458,0.00252024,-0.000155202,-0.00519573,0.787557,0.00341326,0.0131276,699,750,-23.1718,4.29209
-518,274,-23.1996,-4.96808,-0.00461448,-0.00360832,0.00312604,-0.000945139,-0.00727766,0.86518,0.00456943,0.0132383,706,750,-23.1996,4.96806
-511,274,-23.2303,-5.62421,-0.0071638,-0.00438169,0.00294416,-0.0025165,-0.00902899,1.00609,0.00538037,0.0143612,713,750,-23.2303,5.62422
-504,274,-23.3156,-6.28448,-0.0100659,-0.00660531,0.000736713,-0.006455,-0.0102163,1.36954,0.00596631,0.0275976,720,750,-23.3156,6.28448
-497,274,-23.4324,-6.95856,0,0,0,0,0,0,0,-1,727,750,-23.4324,6.95858
-490,274,-13.6545,-3.58826,0,0,0,0,0,0,0,-1,734,750,-13.6546,3.58825
-483,274,-27.8608,1.30981,0,0,0,0,0,0,0,-1,741,750,-27.8608,-1.30979
-476,274,-33.7561,-0.508606,0,0,0,0,0,0,0,-1,748,750,-33.7561,0.508636
-469,274,-41.4576,0.762878,0,0,0,0,0,0,0,-1,755,750,-41.4576,-0.762868
-462,274,-41.7419,0.765564,-0.0363714,-0.0280304,-0.0263386,-0.00553413,-0.0588676,-0.863917,0.0375366,0.0430614,762,750,-41.7419,-0.765556
-455,274,-41.8411,0.710632,-0.0426015,-0.036048,-0.0373727,-0.00180864,-0.0768409,-0.829125,0.0506351,0.0410752,769,750,-41.8411,-0.71066
-448,274,-42.0142,0.518311,0,0,0,0,0,0,0,-1,776,750,-42.0142,-0.518291
-441,274,0,0,0,0,0,0,0,0,0,-1,783,750,0,0
-434,274,0,0,0,0,0,0,0,0,0,-1,790,750,0,0
-427,274,0,0,0,0,0,0,0,0,0,-1,797,750,0,0
-420,274,0,0,0,0,0,0,0,0,0,-1,804,750,0,0
-413,274,0,0,0,0,0,0,0,0,0,-1,811,750,0,0
-406,274,0,0,0,0,0,0,0,0,0,-1,818,750,0,0
-399,274,0,0,0,0,0,0,0,0,0,-1,825,750,0,0
-392,274,0,0,0,0,0,0,0,0,0,-1,832,750,0,0
-385,274,0,0,0,0,0,0,0,0,0,-1,839,750,0,0
-378,274,0,0,0,0,0,0,0,0,0,-1,846,750,0,0
-371,274,0,0,0,0,0,0,0,0,0,-1,853,750,0,0
-364,274,0,0,0,0,0,0,0,0,0,-1,860,750,0,0
-357,274,0,0,0,0,0,0,0,0,0,-1,867,750,0,0
-350,274,0,0,0,0,0,0,0,0,0,-1,874,750,0,0
-343,274,0,0,0,0,0,0,0,0,0,-1,881,750,0,0
-336,274,0,0,0,0,0,0,0,0,0,-1,888,750,0,0
-329,274,0,0,0,0,0,0,0,0,0,-1,895,750,0,0
-322,274,0,0,0,0,0,0,0,0,0,-1,902,750,0,0
-315,274,0,0,0,0,0,0,0,0,0,-1,909,750,0,0
-308,274,0,0,0,0,0,0,0,0,0,-1,916,750,0,0
-301,274,0,0,0,0,0,0,0,0,0,-1,923,750,0,0
-294,274,0,0,0,0,0,0,0,0,0,-1,930,750,0,0
-287,274,0,0,0,0,0,0,0,0,0,-1,937,750,0,0
-280,274,0,0,0,0,0,0,0,0,0,-1,944,750,0,0
-273,274,0,0,0,0,0,0,0,0,0,-1,951,750,0,0
-266,274,0,0,0,0,0,0,0,0,0,-1,958,750,0,0
-259,274,0,0,0,0,0,0,0,0,0,-1,965,750,0,0
-252,274,0,0,0,0,0,0,0,0,0,-1,972,750,0,0
-245,274,0,0,0,0,0,0,0,0,0,-1,979,750,0,0
-238,274,0,0,0,0,0,0,0,0,0,-1,986,750,0,0
-231,274,0,0,0,0,0,0,0,0,0,-1,993,750,0,0
-224,274,0,0,0,0,0,0,0,0,0,-1,1000,750,0,0
-217,274,0,0,0,0,0,0,0,0,0,-1,1007,750,0,0
-210,274,0,0,0,0,0,0,0,0,0,-1,1014,750,0,0
-203,274,0,0,0,0,0,0,0,0,0,-1,1021,750,0,0
-196,274,0,0,0,0,0,0,0,0,0,-1,1028,750,0,0
-189,274,0,0,0,0,0,0,0,0,0,-1,1035,750,0,0
-182,274,0,0,0,0,0,0,0,0,0,-1,1042,750,0,0
-175,274,0,0,0,0,0,0,0,0,0,-1,1049,750,0,0
-168,274,0,0,0,0,0,0,0,0,0,-1,1056,750,0,0
-161,274,0,0,0,0,0,0,0,0,0,-1,1063,750,0,0
-154,274,0,0,0,0,0,0,0,0,0,-1,1070,750,0,0
-147,274,0,0,0,0,0,0,0,0,0,-1,1077,750,0,0
-140,274,0,0,0,0,0,0,0,0,0,-1,1084,750,0,0
-133,274,0,0,0,0,0,0,0,0,0,-1,1091,750,0,0
-126,274,0,0,0,0,0,0,0,0,0,-1,1098,750,0,0
-119,274,0,0,0,0,0,0,0,0,0,-1,1105,750,0,0
-112,274,0,0,0,0,0,0,0,0,0,-1,1112,750,0,0
-105,274,0,0,0,0,0,0,0,0,0,-1,1119,750,0,0
-98,274,0,0,0,0,0,0,0,0,0,-1,1126,750,0,0
-91,274,0,0,0,0,0,0,0,0,0,-1,1133,750,0,0
-84,274,0,0,0,0,0,0,0,0,0,-1,1140,750,0,0
-77,274,0,0,0,0,0,0,0,0,0,-1,1147,750,0,0
-70,274,0,0,0,0,0,0,0,0,0,-1,1154,750,0,0
-63,274,0,0,0,0,0,0,0,0,0,-1,1161,750,0,0
-56,274,0,0,0,0,0,0,0,0,0,-1,1168,750,0,0
-49,274,0,0,0,0,0,0,0,0,0,-1,1175,750,0,0
-42,274,0,0,0,0,0,0,0,0,0,-1,1182,750,0,0
-35,274,0,0,0,0,0,0,0,0,0,-1,1189,750,0,0
-28,274,0,0,0,0,0,0,0,0,0,-1,1196,750,0,0
-21,274,0,0,0,0,0,0,0,0,0,-1,1203,750,0,0
-14,274,0,0,0,0,0,0,0,0,0,-1,1210,750,0,0
-7,274,0,0,0,0,0,0,0,0,0,-1,1217,750,0,0
0,274,0,0,0,0,0,0,0,0,0,-1,1224,750,0,0
7,274,0,0,0,0,0,0,0,0,0,-1,1231,750,0,0
14,274,0,0,0,0,0,0,0,0,0,-1,1238,750,0,0
21,274,0,0,0,0,0,0,0,0,0,-1,1245,750,0,0
28,274,0,0,0,0,0,0,0,0,0,-1,1252,750,0,0
35,274,0,0,0,0,0,0,0,0,0,-1,1259,750,0,0
42,274,0,0,0,0,0,0,0,0,0,-1,1266,750,0,0
49,274,0,0,0,0,0,0,0,0,0,-1,1273,750,0,0
56,274,0,0,0,0,0,0,0,0,0,-1,1280,750,0,0
63,274,0,0,0,0,0,0,0,0,0,-1,1287,750,0,0
70,274,0,0,0,0,0,0,0,0,0,-1,1294,750,0,0
77,274,0,0,0,0,0,0,0,0,0,-1,1301,750,0,0
84,274,0,0,0,0,0,0,0,0,0,-1,1308,750,0,0
91,274,0,0,0,0,0,0,0,0,0,-1,1315,750,0,0
98,274,0,0,0,0,0,0,0,0,0,-1,1322,750,0,0
105,274,0,0,0,0,0,0,0,0,0,-1,1329,750,0,0
112,274,0,0,0,0,0,0,0,0,0,-1,1336,750,0,0
119,274,0,0,0,0,0,0,0,0,0,-1,1343,750,0,0
126,274,0,0,0,0,0,0,0,0,0,-1,1350,750,0,0
133,274,0,0,0,0,0,0,0,0,0,-1,1357,750,0,0
140,274,0,0,0,0,0,0,0,0,0,-1,1364,750,0,0
147,274,0,0,0,0,0,0,0,0,0,-1,1371,750,0,0
154,274,0,0,0,0,0,0,0,0,0,-1,1378,750,0,0
161,274,0,0,0,0,0,0,0,0,0,-1,1385,750,0,0
168,274,0,0,0,0,0,0,0,0,0,-1,1392,750,0,0
175,274,0,0,0,0,0,0,0,0,0,-1,1399,750,0,0
182,274,0,0,0,0,0,0,0,0,0,-1,1406,750,0,0
189,274,0,0,0,0,0,0,0,0,0,-1,1413,750,0,0
196,274,0,0,0,0,0,0,0,0,0,-1,1420,750,0,0
203,274,0,0,0,0,0,0,0,0,0,-1,1427,750,0,0
210,274,0,0,0,0,0,0,0,0,0,-1,1434,750,0,0
217,274,0,0,0,0,0,0,0,0,0,-1,1441,750,0,0
224,274,0,0,0,0,0,0,0,0,0,-1,1448,750,0,0
231,274,0,0,0,0,0,0,0,0,0,-1,1455,750,0,0
238,274,0,0,0,0,0,0,0,0,0,-1,1462,750,0,0
245,274,0,0,0,0,0,0,0,0,0,-1,1469,750,0,0
252,274,0,0,0,0,0,0,0,0,0,-1,1476,750,0,0
259,274,0,0,0,0,0,0,0,0,0,-1,1483,750,0,0
266,274,0,0,0,0,0,0,0,0,0,-1,1490,750,0,0
273,274,0,0,0,0,0,0,0,0,0,-1,1497,750,0,0
280,274,0,0,0,0,0,0,0,0,0,-1,1504,750,0,0
287,274,0,0,0,0,0,0,0,0,0,-1,1511,750,0,0
294,274,0,0,0,0,0,0,0,0,0,-1,1518,750,0,0
301,274,0,0,0,0,0,0,0,0,0,-1,1525,750,0,0
308,274,0,0,0,0,0,0,0,0,0,-1,1532,750,0,0
315,274,0,0,0,0,0,0,0,0,0,-1,1539,750,0,0
322,274,0,0,0,0,0,0,0,0,0,-1,1546,750,0,0
329,274,0,0,0,0,0,0,0,0,0,-1,1553,750,0,0
336,274,0,0,0,0,0,0,0,0,0,-1,1560,750,0,0
343,274,0,0,0,0,0,0,0,0,0,-1,1567,750,0,0
350,274,0,0,0,0,0,0,0,0,0,-1,1574,750,0,0
357,274,0,0,0,0,0,0,0,0,0,-1,1581,750,0,0
364,274,0,0,0,0,0,0,0,0,0,-1,1588,750,0,0
371,274,0,0,0,0,0,0,0,0,0,-1,1595,750,0,0
378,274,0,0,0,0,0,0,0,0,0,-1,1602,750,0,0
385,274,0,0,0,0,0,0,0,0,0,-1,1609,750,0,0
392,274,0,0,0,0,0,0,0,0,0,-1,1616,750,0,0
399,274,0,0,0,0,0,0,0,0,0,-1,1623,750,0,0
406,274,0,0,0,0,0,0,0,0,0,-1,1630,750,0,0
413,274,0,0,0,0,0,0,0,0,0,-1,1637,750,0,0
420,274,0,0,0,0,0,0,0,0,0,-1,1644,750,0,0
427,274,0,0,0,0,0,0,0,0,0,-1,1651,750,0,0
434,274,0,0,0,0,0,0,0,0,0,-1,1658,750,0,0
441,274,0,0,0,0,0,0,0,0,0,-1,1665,750,0,0
448,274,0,0,0,0,0,0,0,0,0,-1,1672,750,0,0
455,274,0,0,0,0,0,0,0,0,0,-1,1679,750,0,0
462,274,0,0,0,0,0,0,0,0,0,-1,1686,750,0,0
469,274,0,0,0,0,0,0,0,0,0,-1,1693,750,0,0
476,274,0,0,0,0,0,0,0,0,0,-1,1700,750,0,0
483,274,0,0,0,0,0,0,0,0,0,-1,1707,750,0,0
490,274,0,0,0,0,0,0,0,0,0,-1,1714,750,0,0
497,274,0,0,0,0,0,0,0,0,0,-1,1721,750,0,0
504,274,0,0,0,0,0,0,0,0,0,-1,1728,750,0,0
511,274,0,0,0,0,0,0,0,0,0,-1,1735,750,0,0
518,274,0,0,0,0,0,0,0,0,0,-1,1742,750,0,0
525,274,0,0,0,0,0,0,0,0,0,-1,1749,750,0,0
532,274,0,0,0,0,0,0,0,0,0,-1,1756,750,0,0
539,274,0,0,0,0,0,0,0,0,0,-1,1763,750,0,0
546,274,0,0,0,0,0,0,0,0,0,-1,1770,750,0,0
553,274,0,0,0,0,0,0,0,0,0,-1,1777,750,0,0
560,274,53.8148,2.82648,0,0,0,0,0,0,0,-1,1784,750,53.8148,-2.82646
567,274,53.5079,3.00684,0,0,0,0,0,0,0,-1,1791,750,53.5079,-3.00685
574,274,54.4718,3.29578,0,0,0,0,0,0,0,-1,1798,750,54.4718,-3.29576
581,274,54.5679,3.2691,0,0,0,0,0,0,0,-1,1805,750,54.5678,-3.26908
588,274,54.5679,3.17505,0,0,0,0,0,0,0,-1,1812,750,54.5679,-3.17507
595,274,54.1619,3.29663,0,0,0,0,0,0,0,-1,1819,750,54.1618,-3.29663
602,274,54.4495,4.05518,0,0,0,0,0,0,0,-1,1826,750,54.4495,-4.05516
609,274,44.6676,3.10461,0,0,0,0,0,0,0,-1,1833,750,44.6676,-3.1046
616,274,32.7869,1.78436,0,0,0,0,0,0,0,-1,1840,750,32.7868,-1.78437
623,274,24.8231,-1.80353,0,0,0,0,0,0,0,-1,1847,750,24.8232,1.80351
630,274,34.9509,-4.70532,0,0,0,0,0,0,0,-1,1854,750,34.951,4.70531
637,274,34.8619,-4.03705,0.000929717,0.00222557,0.00405349,0.0056826,-0.00252731,0.86465,0.00485528,0.021063,1861,750,34.8619,4.03708
644,274,34.8696,-3.33679,6.98736e-05,0.00147772,0.00309706,0.00394984,-0.00240225,0.897143,0.00370349,0.0125541,1868,750,34.8696,3.33677
651,274,34.8682,-2.66541,0.000157221,0.000496072,0.00154406,0.00187997,-0.00122668,0.840043,0.0018068,0.0133603,1875,750,34.8682,2.66538
658,274,34.8501,-2.00543,0.000716402,-0.000363244,8.11122e-05,0.000722462,-0.000369303,0.0745706,0.00064123,0.0166247,1882,750,34.8501,2.00543
665,274,34.829,-1.33502,0.000721094,0.000243429,0.00026048,0.000835661,0.000128862,0.414363,0.000519508,0.016804,1889,750,34.829,1.33505
672,274,34.8101,-0.667297,0.000872867,0.00107129,0.000571839,0.00155246,0.000391696,0.87129,0.000932253,0.013631,1896,750,34.8101,0.667326
679,274,34.7689,-0.0055542,0.00114926,0.00204355,0.000950981,0.00264727,0.000545548,1.00516,0.00161403,0.0151233,1903,750,34.7689,0.00557899
686,274,34.723,0.659302,0.00163427,0.00321506,0.00145633,0.00408166,0.000767676,1.03402,0.00250474,0.0164939,1910,750,34.7231,-0.659311
693,274,34.6888,1.32733,0.00235521,0.00453031,0.00210855,0.00581526,0.00107026,1.02349,0.00357391,0.0121823,1917,750,34.6888,-1.32731
700,274,34.6718,2.00403,0.00338082,0.00611718,0.00298674,0.0080342,0.0014638,1.00018,0.00494101,0.0170901,1924,750,34.6717,-2.004
707,274,34.5988,2.71112,0.00479528,0.00784952,0.00423515,0.0108245,0.00182033,0.958434,0.00669257,0.0325565,1931,750,34.5987,-2.71114
714,274,34.512,3.46747,0,0,0,0,0,0,0,-1,1938,750,34.5119,-3.4675
721,274,25.6215,3.91144,0,0,0,0,0,0,0,-1,1945,750,25.6214,-3.91141
728,274,19.2209,3.95154,0,0,0,0,0,0,0,-1,1952,750,19.221,-3.95151
735,274,20.6608,4.10931,0,0,0,0,0,0,0,-1,1959,750,20.6607,-4.10932
742,274,11.7815,-0.740234,0,0,0,0,0,0,0,-1,1966,750,11.7815,0.740253
749,274,0,0,0,0,0,0,0,0,0,-1,1973,750,0,0
756,274,0,0,0,0,0,0,0,0,0,-1,1980,750,0,0
763,274,0,0,0,0,0,0,0,0,0,-1,1987,750,0,0
770,274,0,0,0,0,0,0,0,0,0,-1,1994,750,0,0
777,274,0,0,0,0,0,0,0,0,0,-1,2001,750,0,0
784,274,0,0,0,0,0,0,0,0,0,-1,2008,750,0,0
791,274,0,0,0,0,0,0,0,0,0,-1,2015,750,0,0
798,274,0,0,0,0,0,0,0,0,0,-1,2022,750,0,0
805,274,0,0,0,0,0,0,0,0,0,-1,2029,750,0,0
812,274,0,0,0,0,0,0,0,0,0,-1,2036,750,0,0
-700,267,0,0,0,0,0,0,0,0,0,-1,524,757,0,0
-693,267,0,0,0,0,0,0,0,0,0,-1,531,757,0,0
-686,267,0,0,0,0,0,0,0,0,0,-1,538,757,0,0
-679,267,0,0,0,0,0,0,0,0,0,-1,545,757,0,0
-672,267,0,0,0,0,0,0,0,0,0,-1,552,757,0,0
-665,267,0,0,0,0,0,0,0,0,0,-1,559,757,0,0
-658,267,0,0,0,0,0,0,0,0,0,-1,566,757,0,0
-651,267,0,0,0,0,0,0,0,0,0,-1,573,757,0,0
-644,267,0,0,0,0,0,0,0,0,0,-1,580,757,0,0
-637,267,0,0,0,0,0,0,0,0,0,-1,587,757,0,0
-630,267,-21.3979,5.17529,0,0,0,0,0,0,0,-1,594,757,-21.3979,-5.17529
-623,267,-20.043,4.43115,0,0,0,0,0,0,0,-1,601,757,-20.043,-4.43116
-616,267,-23.9603,6.67145,0,0,0,0,0,0,0,-1,608,757,-23.9603,-6.67147
-609,267,-23.6296,5.39941,0,0,0,0,0,0,0,-1,615,757,-23.6297,-5.39942
-602,267,-23.3533,4.11847,0,0,0,0,0,0,0,-1,622,757,-23.3533,-4.11848
-595,267,-23.4548,2.52203,0,0,0,0,0,0,0,-1,629,757,-23.4548,-2.52201
-588,267,-23.488,1.76239,-0.00415391,0.0179602,-0.0153004,0.0257807,-0.0119744,-1.09829,0.0222784,0.0491769,636,757,-23.488,-1.76242
-581,267,-23.496,0.939697,-0.00313941,0.0127324,-0.0104599,0.0179261,-0.00833316,-1.10992,0.0154944,0.0378162,643,757,-23.4961,-0.939726
-574,267,-23.5441,0.132019,-0.00228827,0.00901583,-0.00698432,0.0123486,-0.005621,-1.12558,0.0106143,0.0222286,650,757,-23.5441,-0.131991
-567,267,-23.6446,-0.504761,-0.0016681,0.00613242,-0.00443068,0.00813495,-0.00367063,-1.14631,0.00697651,0.0271142,657,757,-23.6446,0.504737
-560,267,-23.6858,-1.09949,-0.00140345,0.00382815,-0.0024754,0.00481373,-0.00238904,-1.19188,0.00423634,0.0222309,664,757,-23.6858,1.09951
-553,267,-23.7253,-1.72614,-0.00134835,0.00188918,-0.000928479,0.00213656,-0.00159572,-1.31042,0.00216236,0.0181705,671,757,-23.7253,1.72616
-546,267,-23.7396,-2.41199,-0.00147648,0.000267329,0.000323062,0.000325256,-0.00153441,1.39338,0.00114684,0.0117836,678,757,-23.7396,2.41196
-539,267,-23.7448,-3.06879,-0.00200271,-0.00134813,0.00156847,-7.316e-05,-0.00327767,0.888257,0.00216114,0.0107855,685,757,-23.7448,3.06878
-532,267,-23.747,-3.67737,-0.00288515,-0.00260317,0.00232227,-0.000417609,-0.00507071,0.815718,0.00325023,0.0119233,692,757,-23.747,3.67737
-525,267,-23.8011,-4.26886,-0.00399102,-0.00337081,0.00285703,-0.000807106,-0.00655473,0.839457,0.00412717,0.0118868,699,757,-23.8011,4.26889
-518,267,-23.8451,-4.90082,-0.00613695,-0.0042933,0.00340711,-0.00168551,-0.00874474,0.917514,0.00535711,0.0126859,706,757,-23.8451,4.90083
-511,267,-23.8628,-5.52441,-0.00874163,-0.00504652,0.00314843,-0.00324358,-0.0105446,1.05073,0.00623633,0.0204399,713,757,-23.8628,5.52439
-504,267,-23.956,-5.94873,-0.0115143,-0.0071397,0.00110186,-0.00687785,-0.0117762,1.33747,0.00683092,0.0351218,720,757,-23.956,5.94873
-497,267,-24.0823,-6.33533,0,0,0,0,0,0,0,-1,727,757,-24.0823,6.33533
-490,267,-23.4949,-0.494995,0,0,0,0,0,0,0,-1,734,757,-23.4949,0.494981
-483,267,-33.2785,-0.448425,0,0,0,0,0,0,0,-1,741,757,-33.2785,0.448407
-476,267,-40.2954,0.52002,0,0,0,0,0,0,0,-1,748,757,-40.2954,-0.520037
-469,267,-40.7729,0.572815,-0.0307259,-0.0207714,-0.0152803,-0.00967816,-0.0418192,-0.942844,0.0252787,0.0462117,755,757,-40.7729,-0.572812
-462,267,-41.4485,0.800842,-0.036284,-0.0265978,-0.0223965,-0.00852669,-0.0543551,-0.891881,0.0337554,0.0436538,762,757,-41.4485,-0.800855
-455,267,-41.9086,0.827698,0,0,0,0,0,0,0,-1,769,757,-41.9085,-0.827684
-448,267,-40.0117,0.37915,0,0,0,0,0,0,0,-1,776,757,-40.0117,-0.379158
-441,267,0,0,0,0,0,0,0,0,0,-1,783,757,0,0
-434,267,0,0,0,0,0,0,0,0,0,-1,790,757,0,0
-427,267,0,0,0,0,0,0,0,0,0,-1,797,757,0,0
-420,267,0,0,0,0,0,0,0,0,0,-1,804,757,0,0
-413,267,0,0,0,0,0,0,0,0,0,-1,811,757,0,0
-406,267,0,0,0,0,0,0,0,0,0,-1,818,757,0,0
-399,267,0,0,0,0,0,0,0,0,0,-1,825,757,0,0
-392,267,0,0,0,0,0,0,0,0,0,-1,832,757,0,0
-385,267,0,0,0,0,0,0,0,0,0,-1,839,757,0,0
-378,267,0,0,0,0,0,0,0,0,0,-1,846,757,0,0
-371,267,0,0,0,0,0,0,0,0,0,-1,853,757,0,0
-364,267,0,0,0,0,0,0,0,0,0,-1,860,757,0,0
-357,267,0,0,0,0,0,0,0,0,0,-1,867,757,0,0
-350,267,0,0,0,0,0,0,0,0,0,-1,874,757,0,0
-343,267,0,0,0,0,0,0,0,0,0,-1,881,757,0,0
-336,267,0,0,0,0,0,0,0,0,0,-1,888,757,0,0
-329,267,0,0,0,0,0,0,0,0,0,-1,895,757,0,0
-322,267,0,0,0,0,0,0,0,0,0,-1,902,757,0,0
-315,267,0,0,0,0,0,0,0,0,0,-1,909,757,0,0
-308,267,0,0,0,0,0,0,0,0,0,-1,916,757,0,0
-301,267,0,0,0,0,0,0,0,0,0,-1,923,757,0,0
-294,267,0,0,0,0,0,0,0,0,0,-1,930,757,0,0
-287,267,0,0,0,0,0,0,0,0,0,-1,937,757,0,0
-280,267,0,0,0,0,0,0,0,0,0,-1,944,757,0,0
-273,267,0,0,0,0,0,0,0,0,0,-1,951,757,0,0
-266,267,0,0,0,0,0,0,0,0,0,-1,958,757,0,0
-259,267,0,0,0,0,0,0,0,0,0,-1,965,757,0,0
-252,267,0,0,0,0,0,0,0,0,0,-1,972,757,0,0
-245,267,0,0,0,0,0,0,0,0,0,-1,979,757,0,0
-238,267,0,0,0,0,0,0,0,0,0,-1,986,757,0,0
-231,267,0,0,0,0,0,0,0,0,0,-1,993,757,0,0
-224,267,0,0,0,0,0,0,0,0,0,-1,1000,757,0,0
-217,267,0,0,0,0,0,0,0,0,0,-1,1007,757,0,0
-210,267,0,0,0,0,0,0,0,0,0,-1,1014,757,0,0
-203,267,0,0,0,0,0,0,0,0,0,-1,1021,757,0,0
-196,267,0,0,0,0,0,0,0,0,0,-1,1028,757,0,0
-189,267,0,0,0,0,0,0,0,0,0,-1,1035,757,0,0
-182,267,0,0,0,0,0,0,0,0,0,-1,1042,757,0,0
-175,267,0,0,0,0,0,0,0,0,0,-1,1049,757,0,0
-168,267,0,0,0,0,0,0,0,0,0,-1,1056,757,0,0
-161,267,0,0,0,0,0,0,0,0,0,-1,1063,757,0,0
-154,267,0,0,0,0,0,0,0,0,0,-1,1070,757,0,0
-147,267,0,0,0,0,0,0,0,0,0,-1,1077,757,0,0
-140,267,0,0,0,0,0,0,0,0,0,-1,1084,757,0,0
-133,267,0,0,0,0,0,0,0,0,0,-1,1091,757,0,0
-126,267,0,0,0,0,0,0,0,0,0,-1,1098,757,0,0
-119,267,0,0,0,0,0,0,0,0,0,-1,1105,757,0,0
-112,267,0,0,0,0,0,0,0,0,0,-1,1112,757,0,0
-105,267,0,0,0,0,0,0,0,0,0,-1,1119,757,0,0
-98,267,0,0,0,0,0,0,0,0,0,-1,1126,757,0,0
-91,267,0,0,0,0,0,0,0,0,0,-1,1133,757,0,0
-84,267,0,0,0,0,0,0,0,0,0,-1,1140,757,0,0
-77,267,0,0,0,0,0,0,0,0,0,-1,1147,757,0,0
-70,267,0,0,0,0,0,0,0,0,0,-1,1154,757,0,0
-63,267,0,0,0,0,0,0,0,0,0,-1,1161,757,0,0
-56,267,0,0,0,0,0,0,0,0,0,-1,1168,757,0,0
-49,267,0,0,0,0,0,0,0,0,0,-1,1175,757,0,0
-42,267,0,0,0,0,0,0,0,0,0,-1,1182,757,0,0
-35,267,0,0,0,0,0,0,0,0,0,-1,1189,757,0,0
-28,267,0,0,0,0,0,0,0,0,0,-1,1196,757,0,0
-21,267,0,0,0,0,0,0,0,0,0,-1,1203,757,0,0
-14,267,0,0,0,0,0,0,0,0,0,-1,1210,757,0,0
-7,267,0,0,0,0,0,0,0,0,0,-1,1217,757,0,0
0,267,0,0,0,0,0,0,0,0,0,-1,1224,757,0,0
7,267,0,0,0,0,0,0,0,0,0,-1,1231,757,0,0
14,267,0,0,0,0,0,0,0,0,0,-1,1238,757,0,0
21,267,0,0,0,0,0,0,0,0,0,-1,1245,757,0,0
28,267,0,0,0,0,0,0,0,0,0,-1,1252,757,0,0
35,267,0,0,0,0,0,0,0,0,0,-1,1259,757,0,0
42,267,0,0,0,0,0,0,0,0,0,-1,1266,757,0,0
49,267,0,0,0,0,0,0,0,0,0,-1,1273,757,0,0
56,267,0,0,0,0,0,0,0,0,0,-1,1280,757,0,0
63,267,0,0,0,0,0,0,0,0,0,-1,1287,757,0,0
70,267,0,0,0,0,0,0,0,0,0,-1,1294,757,0,0
77,267,0,0,0,0,0,0,0,0,0,-1,1301,757,0,0
84,267,0,0,0,0,0,0,0,0,0,-1,1308,757,0,0
91,267,0,0,0,0,0,0,0,0,0,-1,1315,757,0,0
98,267,0,0,0,0,0,0,0,0,0,-1,1322,757,0,0
105,267,0,0,0,0,0,0,0,0,0,-1,1329,757,0,0
112,267,0,0,0,0,0,0,0,0,0,-1,1336,757,0,0
119,267,0,0,0,0,0,0,0,0,0,-1,1343,757,0,0
126,267,0,0,0,0,0,0,0,0,0,-1,1350,757,0,0
133,267,0,0,0,0,0,0,0,0,0,-1,1357,757,0,0
140,267,0,0,0,0,0,0,0,0,0,-1,1364,757,0,0
147,267,0,0,0,0,0,0,0,0,0,-1,1371,757,0,0
154,267,0,0,0,0,0,0,0,0,0,-1,1378,757,0,0
161,267,0,0,0,0,0,0,0,0,0,-1,1385,757,0,0
168,267,0,0,0,0,0,0,0,0,0,-1,1392,757,0,0
175,267,0,0,0,0,0,0,0,0,0,-1,1399,757,0,0
182,267,0,0,0,0,0,0,0,0,0,-1,1406,757,0,0
189,267,0,0,0,0,0,0,0,0,0,-1,1413,757,0,0
196,267,0,0,0,0,0,0,0,0,0,-1,1420,757,0,0
203,267,0,0,0,0,0,0,0,0,0,-1,1427,757,0,0
210,267,0,0,0,0,0,0,0,0,0,-1,1434,757,0,0
217,267,0,0,0,0,0,0,0,0,0,-1,1441,757,0,0
224,267,0,0,0,0,0,0,0,0,0,-1,1448,757,0,0
231,267,0,0,0,0,0,0,0,0,0,-1,1455,757,0,0
238,267,0,0,0,0,0,0,0,0,0,-1,1462,757,0,0
245,267,0,0,0,0,0,0,0,0,0,-1,1469,757,0,0
252,267,0,0,0,0,0,0,0,0,0,-1,1476,757,0,0
259,267,0,0,0,0,0,0,0,0,0,-1,1483,757,0,0
266,267,0,0,0,0,0,0,0,0,0,-1,1490,757,0,0
273,267,0,0,0,0,0,0,0,0,0,-1,1497,757,0,0
280,267,0,0,0,0,0,0,0,0,0,-1,1504,757,0,0
287,267,0,0,0,0,0,0,0,0,0,-1,1511,757,0,0
294,267,0,0,0,0,0,0,0,0,0,-1,1518,757,0,0
301,267,0,0,0,0,0,0,0,0,0,-1,1525,757,0,0
308,267,0,0,0,0,0,0,0,0,0,-1,1532,757,0,0
315,267,0,0,0,0,0,0,0,0,0,-1,1539,757,0,0
322,267,0,0,0,0,0,0,0,0,0,-1,1546,757,0,0
329,267,0,0,0,0,0,0,0,0,0,-1,1553,757,0,0
336,267,0,0,0,0,0,0,0,0,0,-1,1560,757,0,0
343,267,0,0,0,0,0,0,0,0,0,-1,1567,757,0,0
350,267,0,0,0,0,0,0,0,0,0,-1,1574,757,0,0
357,267,0,0,0,0,0,0,0,0,0,-1,1581,757,0,0
364,267,0,0,0,0,0,0,0,0,0,-1,1588,757,0,0
371,267,0,0,0,0,0,0,0,0,0,-1,1595,757,0,0
378,267,0,0,0,0,0,0,0,0,0,-1,1602,757,0,0
385,267,0,0,0,0,0,0,0,0,0,-1,1609,757,0,0
392,267,0,0,0,0,0,0,0,0,0,-1,1616,757,0,0
399,267,0,0,0,0,0,0,0,0,0,-1,1623,757,0,0
406,267,0,0,0,0,0,0,0,0,0,-1,1630,757,0,0
413,267,0,0,0,0,0,0,0,0,0,-1,1637,757,0,0
420,267,0,0,0,0,0,0,0,0,0,-1,1644,757,0,0
427,267,0,0,0,0,0,0,0,0,0,-1,1651,757,0,0
434,267,0,0,0,0,0,0,0,0,0,-1,1658,757,0,0
441,267,0,0,0,0,0,0,0,0,0,-1,1665,757,0,0
448,267,0,0,0,0,0,0,0,0,0,-1,1672,757,0,0
455,267,0,0,0,0,0,0,0,0,0,-1,1679,757,0,0
462,267,0,0,0,0,0,0,0,0,0,-1,1686,757,0,0
469,267,0,0,0,0,0,0,0,0,0,-1,1693,757,0,0
476,267,0,0,0,0,0,0,0,0,0,-1,1700,757,0,0
483,267,0,0,0,0,0,0,0,0,0,-1,1707,757,0,0
490,267,0,0,0,0,0,0,0,0,0,-1,1714,757,0,0
497,267,0,0,0,0,0,0,0,0,0,-1,1721,757,0,0
504,267,0,0,0,0,0,0,0,0,0,-1,1728,757,0,0
511,267,0,0,0,0,0,0,0,0,0,-1,1735,757,0,0
518,267,0,0,0,0,0,0,0,0,0,-1,1742,757,0,0
525,267,0,0,0,0,0,0,0,0,0,-1,1749,757,0,0
532,267,0,0,0,0,0,0,0,0,0,-1,1756,757,0,0
539,267,0,0,0,0,0,0,0,0,0,-1,1763,757,0,0
546,267,0,0,0,0,0,0,0,0,0,-1,1770,757,0,0
553,267,0,0,0,0,0,0,0,0,0,-1,1777,757,0,0
560,267,0,0,0,0,0,0,0,0,0,-1,1784,757,0,0
567,267,53.6261,3.07043,0,0,0,0,0,0,0,-1,1791,757,53.6261,-3.07042
574,267,53.6608,3.11139,0,0,0,0,0,0,0,-1,1798,757,53.6608,-3.11138
581,267,54.4174,3.67548,0,0,0,0,0,0,0,-1,1805,757,54.4174,-3.67546
588,267,54.2849,3.25952,0,0,0,0,0,0,0,-1,1812,757,54.2849,-3.25955
595,267,54.213,3.03967,0.0063067,0.0115431,0.0201089,0.0292035,-0.0113537,0.850135,0.0241598,0.0469765,1819,757,54.213,-3.03969
602,267,54.3331,3.67133,0.00418295,0.00959026,0.0158666,0.0229819,-0.00920866,0.869787,0.0191439,0.0472032,1826,757,54.3331,-3.67135
609,267,54.9808,4.07751,0,0,0,0,0,0,0,-1,1833,757,54.9808,-4.07749
616,267,44.2543,3.28918,0,0,0,0,0,0,0,-1,1840,757,44.2542,-3.28918
623,267,24.1475,-1.1391,0,0,0,0,0,0,0,-1,1847,757,24.1475,1.13913
630,267,35.918,-4.41058,0,0,0,0,0,0,0,-1,1854,757,35.918,4.41057
637,267,35.6251,-3.8877,0.00100538,0.00228953,0.00379646,0.00549783,-0.00220292,0.869168,0.00457968,0.0432136,1861,757,35.6251,3.88773
644,267,35.5144,-3.30664,-2.02173e-05,0.00158907,0.00296913,0.00386066,-0.0022918,0.917721,0.00359041,0.0148361,1868,757,35.5144,3.30666
651,267,35.4938,-2.61621,-5.84977e-05,0.000553367,0.00143681,0.00171646,-0.00122159,0.890294,0.00170428,0.0152936,1875,757,35.4938,2.61624
658,267,35.4849,-1.96301,0.000553292,-0.000645804,-0.000296503,0.000622603,-0.000715114,-0.229637,0.000772947,0.0153615,1882,757,35.4849,1.96302
665,267,35.472,-1.2984,0.000541562,-0.000223442,-0.000184421,0.0005837,-0.00026558,-0.224631,0.000501667,0.0157943,1889,757,35.4721,1.2984
672,267,35.4552,-0.637695,0.000733291,0.000481573,0.000132631,0.000790275,0.00042459,0.405795,0.000456688,0.0138961,1896,757,35.4552,0.637722
679,267,35.4337,0.0125732,0.00106495,0.00135625,0.00056809,0.00179707,0.000624138,0.910888,0.00105354,0.0132205,1903,757,35.4337,-0.0125579
686,267,35.4005,0.684692,0.00164704,0.00247052,0.00114659,0.00327706,0.000840496,0.957776,0.00196539,0.0145993,1910,757,35.4005,-0.684712
693,267,35.3467,1.31165,0.00247784,0.00372725,0.00187888,0.00508256,0.00112253,0.945893,0.00308308,0.0138171,1917,757,35.3467,-1.31164
700,267,35.3254,1.97803,0.00357533,0.00517813,0.00280803,0.00729688,0.00145658,0.924401,0.00445907,0.0145937,1924,757,35.3254,-1.97804
707,267,35.3071,2.64484,0.00499413,0.00675377,0.00404915,0.0100176,0.00173031,0.892378,0.00618286,0.0162601,1931,757,35.3072,-2.64485
714,267,35.4934,3.37982,0.00701168,0.00876026,0.00588562,0.0138362,0.00193576,0.859132,0.00865135,0.0394178,1938,757,35.4934,-3.37981
721,267,35.7799,4.13867,0,0,0,0,0,0,0,-1,1945,757,35.7799,-4.13868
728,267,26.7886,3.90027,0,0,0,0,0,0,0,-1,1952,757,26.7886,-3.90028
735,267,24.6713,2.82483,0,0,0,0,0,0,0,-1,1959,757,24.6713,-2.82483
742,267,18.1177,3.56561,0,0,0,0,0,0,0,-1,1966,757,18.1176,-3.56564
749,267,0,0,0,0,0,0,0,0,0,-1,1973,757,0,0
756,267,0,0,0,0,0,0,0,0,0,-1,1980,757,0,0
763,267,0,0,0,0,0,0,0,0,0,-1,1987,757,0,0
770,267,0,0,0,0,0,0,0,0,0,-1,1994,757,0,0
777,267,0,0,0,0,0,0,0,0,0,-1,2001,757,0,0
784,267,0,0,0,0,0,0,0,0,0,-1,2008,757,0,0
791,267,0,0,0,0,0,0,0,0,0,-1,2015,757,0,0
798,267,0,0,0,0,0,0,0,0,0,-1,2022,757,0,0
805,267,0,0,0,0,0,0,0,0,0,-1,2029,757,0,0
812,267,0,0,0,0,0,0,0,0,0,-1,2036,757,0,0
-700,260,0,0,0,0,0,0,0,0,0,-1,524,764,0,0
-693,260,0,0,0,0,0,0,0,0,0,-1,531,764,0,0
-686,260,0,0,0,0,0,0,0,0,0,-1,538,764,0,0
-679,260,0,0,0,0,0,0,0,0,0,-1,545,764,0,0
-672,260,0,0,0,0,0,0,0,0,0,-1,552,764,0,0
-665,260,0,0,0,0,0,0,0,0,0,-1,559,764,0,0
-658,260,0,0,0,0,0,0,0,0,0,-1,566,764,0,0
-651,260,0,0,0,0,0,0,0,0,0,-1,573,764,0,0
-644,260,0,0,0,0,0,0,0,0,0,-1,580,764,0,0
-637,260,0,0,0,0,0,0,0,0,0,-1,587,764,0,0
-630,260,-21.8905,4.49341,0,0,0,0,0,0,0,-1,594,764,-21.8905,-4.49342
-623,260,-20.3127,3.53546,0,0,0,0,0,0,0,-1,601,764,-20.3127,-3.53544
-616,260,-23.4346,3.65009,0,0,0,0,0,0,0,-1,608,764,-23.4345,-3.65008
-609,260,-24.3839,4.72369,0,0,0,0,0,0,0,-1,615,764,-24.3839,-4.7237
-602,260,-24.7581,4.57861,0,0,0,0,0,0,0,-1,622,764,-24.758,-4.5786
-595,260,-24.109,1.82172,0,0,0,0,0,0,0,-1,629,764,-24.109,-1.82171
-588,260,-24.1873,1.25739,-0.00394676,0.0164671,-0.0143927,0.0239047,-0.0113844,-1.09383,0.0207972,0.0463806,636,764,-24.1873,-1.25737
-581,260,-24.2493,0.735413,-0.00297147,0.0117898,-0.00999094,0.0168306,-0.00801229,-1.10352,0.0146412,0.0280844,643,764,-24.2493,-0.735436
-574,260,-24.2715,0.140686,-0.0022628,0.00830881,-0.00670746,0.0115629,-0.00551689,-1.1191,0.0100649,0.0182678,650,764,-24.2716,-0.140682
-567,260,-24.2985,-0.448059,-0.00182228,0.00550511,-0.0041921,0.00740885,-0.00372602,-1.14452,0.00654488,0.0178985,657,764,-24.2985,0.448086
-560,260,-24.3141,-1.0697,-0.00169267,0.00320223,-0.00220718,0.00405048,-0.00254092,-1.20388,0.00383867,0.0199159,664,764,-24.3141,1.0697
-553,260,-24.3583,-1.71375,-0.00177006,0.00118885,-0.000599975,0.00130588,-0.00188709,-1.37816,0.00185361,0.0178427,671,764,-24.3583,1.71373
-546,260,-24.3677,-2.36383,-0.00205082,-0.000563576,0.000720888,-0.000271508,-0.00234289,1.18586,0.00147975,0.0118337,678,764,-24.3677,2.36382
-539,260,-24.3594,-2.99835,-0.00285768,-0.00218083,0.001973,-0.000517439,-0.00452107,0.870334,0.00285723,0.012351,685,764,-24.3594,2.99835
-532,260,-24.3531,-3.58984,-0.0039968,-0.00339058,0.00270255,-0.000974189,-0.00641319,0.841244,0.00399056,0.0171116,692,764,-24.3532,3.58986
-525,260,-24.4082,-4.25525,-0.00523902,-0.00405431,0.00317383,-0.00141803,-0.00787529,0.877656,0.00484716,0.0152764,699,764,-24.4082,4.25523
-518,260,-24.5022,-4.85095,-0.00743868,-0.00481335,0.00366856,-0.00222968,-0.0100223,0.957208,0.00607626,0.0198716,706,764,-24.5022,4.85095
-511,260,-24.564,-5.41589,-0.00994916,-0.00545209,0.00338536,-0.00363657,-0.0117647,1.07854,0.00695539,0.0372171,713,764,-24.564,5.41591
-504,260,-24.5636,-5.66266,0,0,0,0,0,0,0,-1,720,764,-24.5636,5.66265
-497,260,-16.6542,-3.67334,0,0,0,0,0,0,0,-1,727,764,-16.6542,3.67331
-490,260,-29.4557,0.921387,0,0,0,0,0,0,0,-1,734,764,-29.4557,-0.921369
-483,260,-40.8972,1.04193,0,0,0,0,0,0,0,-1,741,764,-40.8972,-1.04193
-476,260,-40.962,0.756592,0,0,0,0,0,0,0,-1,748,764,-40.962,-0.756576
-469,260,-40.8427,0.631775,-0.0303176,-0.0193234,-0.0123644,-0.0112892,-0.0383518,-0.99457,0.0227581,0.0455593,755,764,-40.8427,-0.631799
-462,260,-41.157,0.859558,-0.0351369,-0.0243869,-0.0183187,-0.0106709,-0.0488529,-0.928101,0.0296585,0.0431962,762,764,-41.157,-0.859578
-455,260,-41.2249,0.723022,-0.0389214,-0.0301164,-0.0256173,-0.00852608,-0.0605117,-0.870495,0.0378208,0.0465467,769,764,-41.2249,-0.723013
-448,260,0,0,0,0,0,0,0,0,0,-1,776,764,0,0
-441,260,0,0,0,0,0,0,0,0,0,-1,783,764,0,0
-434,260,0,0,0,0,0,0,0,0,0,-1,790,764,0,0
-427,260,0,0,0,0,0,0,0,0,0,-1,797,764,0,0
-420,260,0,0,0,0,0,0,0,0,0,-1,804,764,0,0
-413,260,0,0,0,0,0,0,0,0,0,-1,811,764,0,0
-406,260,0,0,0,0,0,0,0,0,0,-1,818,764,0,0
-399,260,0,0,0,0,0,0,0,0,0,-1,825,764,0,0
-392,260,0,0,0,0,0,0,0,0,0,-1,832,764,0,0
-385,260,0,0,0,0,0,0,0,0,0,-1,839,764,0,0
-378,260,0,0,0,0,0,0,0,0,0,-1,846,764,0,0
-371,260,0,0,0,0,0,0,0,0,0,-1,853,764,0,0
-364,260,0,0,0,0,0,0,0,0,0,-1,860,764,0,0
-357,260,0,0,0,0,0,0,0,0,0,-1,867,764,0,0
-350,260,0,0,0,0,0,0,0,0,0,-1,874,764,0,0
-343,260,0,0,0,0,0,0,0,0,0,-1,881,764,0,0
-336,260,0,0,0,0,0,0,0,0,0,-1,888,764,0,0
-329,260,0,0,0,0,0,0,0,0,0,-1,895,764,0,0
-322,260,0,0,0,0,0,0,0,0,0,-1,902,764,0,0
-315,260,0,0,0,0,0,0,0,0,0,-1,909,764,0,0
-308,260,0,0,0,0,0,0,0,0,0,-1,916,764,0,0
-301,260,0,0,0,0,0,0,0,0,0,-1,923,764,0,0
-294,260,0,0,0,0,0,0,0,0,0,-1,930,764,0,0
-287,260,0,0,0,0,0,0,0,0,0,-1,937,764,0,0
-280,260,0,0,0,0,0,0,0,0,0,-1,944,764,0,0
-273,260,0,0,0,0,0,0,0,0,0,-1,951,764,0,0
-266,260,0,0,0,0,0,0,0,0,0,-1,958,764,0,0
-259,260,0,0,0,0,0,0,0,0,0,-1,965,764,0,0
-252,260,0,0,0,0,0,0,0,0,0,-1,972,764,0,0
-245,260,0,0,0,0,0,0,0,0,0,-1,979,764,0,0
-238,260,0,0,0,0,0,0,0,0,0,-1,986,764,0,0
-231,260,0,0,0,0,0,0,0,0,0,-1,993,764,0,0
-224,260,0,0,0,0,0,0,0,0,0,-1,1000,764,0,0
-217,260,0,0,0,0,0,0,0,0,0,-1,1007,764,0,0
-210,260,0,0,0,0,0,0,0,0,0,-1,1014,764,0,0
-203,260,0,0,0,0,0,0,0,0,0,-1,1021,764,0,0
-196,260,0,0,0,0,0,0,0,0,0,-1,1028,764,0,0
-189,260,0,0,0,0,0,0,0,0,0,-1,1035,764,0,0
-182,260,0,0,0,0,0,0,0,0,0,-1,1042,764,0,0
-175,260,0,0,0,0,0,0,0,0,0,-1,1049,764,0,0
-168,260,0,0,0,0,0,0,0,0,0,-1,1056,764,0,0
-161,260,0,0,0,0,0,0,0,0,0,-1,1063,764,0,0
-154,260,0,0,0,0,0,0,0,0,0,-1,1070,764,0,0
-147,260,0,0,0,0,0,0,0,0,0,-1,1077,764,0,0
-140,260,0,0,0,0,0,0,0,0,0,-1,1084,764,0,0
-133,260,0,0,0,0,0,0,0,0,0,-1,1091,764,0,0
-126,260,0,0,0,0,0,0,0,0,0,-1,1098,764,0,0
-119,260,0,0,0,0,0,0,0,0,0,-1,1105,764,0,0
-112,260,0,0,0,0,0,0,0,0,0,-1,1112,764,0,0
-105,260,0,0,0,0,0,0,0,0,0,-1,1119,764,0,0
-98,260,0,0,0,0,0,0,0,0,0,-1,1126,764,0,0
-91,260,0,0,0,0,0,0,0,0,0,-1,1133,764,0,0
-84,260,0,0,0,0,0,0,0,0,0,-1,1140,764,0,0
-77,260,0,0,0,0,0,0,0,0,0,-1,1147,764,0,0
-70,260,0,0,0,0,0,0,0,0,0,-1,1154,764,0,0
-63,260,0,0,0,0,0,0,0,0,0,-1,1161,764,0,0
-56,260,0,0,0,0,0,0,0,0,0,-1,1168,764,0,0
-49,260,0,0,0,0,0,0,0,0,0,-1,1175,764,0,0
-42,260,0,0,0,0,0,0,0,0,0,-1,1182,764,0,0
-35,260,0,0,0,0,0,0,0,0,0,-1,1189,764,0,0
-28,260,0,0,0,0,0,0,0,0,0,-1,1196,764,0,0
-21,260,0,0,0,0,0,0,0,0,0,-1,1203,764,0,0
-14,260,0,0,0,0,0,0,0,0,0,-1,1210,764,0,0
-7,260,0,0,0,0,0,0,0,0,0,-1,1217,764,0,0
0,260,0,0,0,0,0,0,0,0,0,-1,1224,764,0,0
7,260,0,0,0,0,0,0,0,0,0,-1,1231,764,0,0
14,260,0,0,0,0,0,0,0,0,0,-1,1238,764,0,0
21,260,0,0,0,0,0,0,0,0,0,-1,1245,764,0,0
28,260,0,0,0,0,0,0,0,0,0,-1,1252,764,0,0
35,260,0,0,0,0,0,0,0,0,0,-1,1259,764,0,0
42,260,0,0,0,0,0,0,0,0,0,-1,1266,764,0,0
49,260,0,0,0,0,0,0,0,0,0,-1,1273,764,0,0
56,260,0,0,0,0,0,0,0,0,0,-1,1280,764,0,0
63,260,0,0,0,0,0,0,0,0,0,-1,1287,764,0,0
70,260,0,0,0,0,0,0,0,0,0,-1,1294,764,0,0
77,260,0,0,0,0,0,0,0,0,0,-1,1301,764,0,0
84,260,0,0,0,0,0,0,0,0,0,-1,1308,764,0,0
91,260,0,0,0,0,0,0,0,0,0,-1,1315,764,0,0
98,260,0,0,0,0,0,0,0,0,0,-1,1322,764,0,0
105,260,0,0,0,0,0,0,0,0,0,-1,1329,764,0,0
112,260,0,0,0,0,0,0,0,0,0,-1,1336,764,0,0
119,260,0,0,0,0,0,0,0,0,0,-1,1343,764,0,0
126,260,0,0,0,0,0,0,0,0,0,-1,1350,764,0,0
133,260,0,0,0,0,0,0,0,0,0,-1,1357,764,0,0
140,260,0,0,0,0,0,0,0,0,0,-1,1364,764,0,0
147,260,0,0,0,0,0,0,0,0,0,-1,1371,764,0,0
154,260,0,0,0,0,0,0,0,0,0,-1,1378,764,0,0
161,260,0,0,0,0,0,0,0,0,0,-1,1385,764,0,0
168,260,0,0,0,0,0,0,0,0,0,-1,1392,764,0,0
175,260,0,0,0,0,0,0,0,0,0,-1,1399,764,0,0
182,260,0,0,0,0,0,0,0,0,0,-1,1406,764,0,0
189,260,0,0,0,0,0,0,0,0,0,-1,1413,764,0,0
196,260,0,0,0,0,0,0,0,0,0,-1,1420,764,0,0
203,260,0,0,0,0,0,0,0,0,0,-1,1427,764,0,0
210,260,0,0,0,0,0,0,0,0,0,-1,1434,764,0,0
217,260,0,0,0,0,0,0,0,0,0,-1,1441,764,0,0
224,260,0,0,0,0,0,0,0,0,0,-1,1448,764,0,0
231,260,0,0,0,0,0,0,0,0,0,-1,1455,764,0,0
238,260,0,0,0,0,0,0,0,0,0,-1,1462,764,0,0
245,260,0,0,0,0,0,0,0,0,0,-1,1469,764,0,0
252,260,0,0,0,0,0,0,0,0,0,-1,1476,764,0,0
259,260,0,0,0,0,0,0,0,0,0,-1,1483,764,0,0
266,260,0,0,0,0,0,0,0,0,0,-1,1490,764,0,0
273,260,0,0,0,0,0,0,0,0,0,-1,1497,764,0,0
280,260,0,0,0,0,0,0,0,0,0,-1,1504,764,0,0
287,260,0,0,0,0,0,0,0,0,0,-1,1511,764,0,0
294,260,0,0,0,0,0,0,0,0,0,-1,1518,764,0,0
301,260,0,0,0,0,0,0,0,0,0,-1,1525,764,0,0
308,260,0,0,0,0,0,0,0,0,0,-1,1532,764,0,0
315,260,0,0,0,0,0,0,0,0,0,-1,1539,764,0,0
322,260,0,0,0,0,0,0,0,0,0,-1,1546,764,0,0
329,260,0,0,0,0,0,0,0,0,0,-1,1553,764,0,0
336,260,0,0,0,0,0,0,0,0,0,-1,1560,764,0,0
343,260,0,0,0,0,0,0,0,0,0,-1,1567,764,0,0
350,260,0,0,0,0,0,0,0,0,0,-1,1574,764,0,0
357,260,0,0,0,0,0,0,0,0,0,-1,1581,764,0,0
364,260,0,0,0,0,0,0,0,0,0,-1,1588,764,0,0
371,260,0,0,0,0,0,0,0,0,0,-1,1595,764,0,0
378,260,0,0,0,0,0,0,0,0,0,-1,1602,764,0,0
385,260,0,0,0,0,0,0,0,0,0,-1,1609,764,0,0
392,260,0,0,0,0,0,0,0,0,0,-1,1616,764,0,0
399,260,0,0,0,0,0,0,0,0,0,-1,1623,764,0,0
406,260,0,0,0,0,0,0,0,0,0,-1,1630,764,0,0
413,260,0,0,0,0,0,0,0,0,0,-1,1637,764,0,0
420,260,0,0,0,0,0,0,0,0,0,-1,1644,764,0,0
427,260,0,0,0,0,0,0,0,0,0,-1,1651,764,0,0
434,260,0,0,0,0,0,0,0,0,0,-1,1658,764,0,0
441,260,0,0,0,0,0,0,0,0,0,-1,1665,764,0,0
448,260,0,0,0,0,0,0,0,0,0,-1,1672,764,0,0
455,260,0,0,0,0,0,0,0,0,0,-1,1679,764,0,0
462,260,0,0,0,0,0,0,0,0,0,-1,1686,764,0,0
469,260,0,0,0,0,0,0,0,0,0,-1,1693,764,0,0
476,260,0,0,0,0,0,0,0,0,0,-1,1700,764,0,0
483,260,0,0,0,0,0,0,0,0,0,-1,1707,764,0,0
490,260,0,0,0,0,0,0,0,0,0,-1,1714,764,0,0
497,260,0,0,0,0,0,0,0,0,0,-1,1721,764,0,0
504,260,0,0,0,0,0,0,0,0,0,-1,1728,764,0,0
511,260,0,0,0,0,0,0,0,0,0,-1,1735,764,0,0
518,260,0,0,0,0,0,0,0,0,0,-1,1742,764,0,0
525,260,0,0,0,0,0,0,0,0,0,-1,1749,764,0,0
532,260,0,0,0,0,0,0,0,0,0,-1,1756,764,0,0
539,260,0,0,0,0,0,0,0,0,0,-1,1763,764,0,0
546,260,0,0,0,0,0,0,0,0,0,-1,1770,764,0,0
553,260,0,0,0,0,0,0,0,0,0,-1,1777,764,0,0
560,260,0,0,0,0,0,0,0,0,0,-1,1784,764,0,0
567,260,0,0,0,0,0,0,0,0,0,-1,1791,764,0,0
574,260,53.8113,2.81989,0,0,0,0,0,0,0,-1,1798,764,53.8113,-2.81987
581,260,53.6373,3.2326,0,0,0,0,0,0,0,-1,1805,764,53.6374,-3.23258
588,260,54.5856,2.8656,0,0,0,0,0,0,0,-1,1812,764,54.5856,-2.86561
595,260,54.3372,2.79712,0.00607483,0.0106729,0.0176556,0.0261785,-0.00943079,0.850141,0.0213035,0.0472961,1819,764,54.3371,-2.7971
602,260,54.0347,3.53992,0.004022,0.00906329,0.0144454,0.0212063,-0.00812101,0.871776,0.0174849,0.0439331,1826,764,54.0347,-3.53991
609,260,54.6263,3.86218,0,0,0,0,0,0,0,-1,1833,764,54.6263,-3.86216
616,260,46.0709,2.74542,0,0,0,0,0,0,0,-1,1840,764,46.0709,-2.74545
623,260,32.2268,3.25836,0,0,0,0,0,0,0,-1,1847,764,32.2268,-3.25833
630,260,24.3739,-0.536316,0,0,0,0,0,0,0,-1,1854,764,24.3739,0.536343
637,260,36.3645,-3.93964,0,0,0,0,0,0,0,-1,1861,764,36.3646,3.93963
644,260,36.3059,-3.2793,-0.000138629,0.0015426,0.00255513,0.00339184,-0.00198787,0.944317,0.00314104,0.0394957,1868,764,36.3059,3.2793
651,260,36.199,-2.5697,-0.000296357,0.00055314,0.00114084,0.00134574,-0.00108896,0.963604,0.00140827,0.0176108,1875,764,36.199,2.56967
658,260,36.1376,-1.91125,0.000220262,-0.000779382,-0.000714004,0.000592003,-0.00115112,-0.480026,0.00102351,0.015496,1882,764,36.1376,1.91125
665,260,36.0953,-1.26019,2.47652e-05,-0.000539568,-0.000718852,0.000514847,-0.00102965,-0.598376,0.000908076,0.0156125,1889,764,36.0953,1.26017
672,260,36.094,-0.604126,0.000148439,-1.54433e-05,-0.000450886,0.00052477,-0.000391774,-0.695512,0.00053102,0.01393,1896,764,36.094,0.604141
679,260,36.0787,0.0478516,0.000482647,0.000698328,-8.0249e-08,0.000698328,0.000482647,-1.57042,0.000412884,0.0125208,1903,764,36.0787,-0.0478332
686,260,36.0247,0.708923,0.0011482,0.00170724,0.000634896,0.00212142,0.000734016,0.992762,0.00124402,0.017074,1910,764,36.0247,-0.70893
693,260,35.9756,1.3103,0.00216395,0.00289136,0.00144286,0.00401565,0.00103966,0.908863,0.0024066,0.0168639,1917,764,35.9756,-1.31028
700,260,35.9519,1.96729,0.00343673,0.00420888,0.00242126,0.00627465,0.00137096,0.86446,0.00380925,0.0145046,1924,764,35.9519,-1.96726
707,260,35.9569,2.63275,0.00499998,0.00564256,0.00366264,0.00899797,0.00164457,0.829146,0.00553254,0.0147691,1931,764,35.9569,-2.63273
714,260,35.9905,3.31879,0.00707842,0.00741304,0.00539929,0.0126476,0.00184385,0.800887,0.00788928,0.0291131,1938,764,35.9904,-3.31876
721,260,36.0327,4.02423,0,0,0,0,0,0,0,-1,1945,764,36.0327,-4.02425
728,260,33.4344,5.75409,0,0,0,0,0,0,0,-1,1952,764,33.4345,-5.75408
735,260,26.9788,4.85681,0,0,0,0,0,0,0,-1,1959,764,26.9787,-4.85678
742,260,32.1443,1.73688,0,0,0,0,0,0,0,-1,1966,764,32.1442,-1.73688
749,260,33.6013,2.94733,0,0,0,0,0,0,0,-1,1973,764,33.6013,-2.9473
756,260,0,0,0,0,0,0,0,0,0,-1,1980,764,0,0
763,260,0,0,0,0,0,0,0,0,0,-1,1987,764,0,0
770,260,0,0,0,0,0,0,0,0,0,-1,1994,764,0,0
777,260,0,0,0,0,0,0,0,0,0,-1,2001,764,0,0
784,260,0,0,0,0,0,0,0,0,0,-1,2008,764,0,0
791,260,0,0,0,0,0,0,0,0,0,-1,2015,764,0,0
798,260,0,0,0,0,0,0,0,0,0,-1,2022,764,0,0
805,260,0,0,0,0,0,0,0,0,0,-1,2029,764,0,0
812,260,0,0,0,0,0,0,0,0,0,-1,2036,764,0,0
-700,253,0,0,0,0,0,0,0,0,0,-1,524,771,0,0
-693,253,0,0,0,0,0,0,0,0,0,-1,531,771,0,0
-686,253,0,0,0,0,0,0,0,0,0,-1,538,771,0,0
-679,253,0,0,0,0,0,0,0,0,0,-1,545,771,0,0
-672,253,0,0,0,0,0,0,0,0,0,-1,552,771,0,0
-665,253,0,0,0,0,0,0,0,0,0,-1,559,771,0,0
-658,253,0,0,0,0,0,0,0,0,0,-1,566,771,0,0
-651,253,0,0,0,0,0,0,0,0,0,-1,573,771,0,0
-644,253,0,0,0,0,0,0,0,0,0,-1,580,771,0,0
-637,253,-24.7979,-0.491394,0,0,0,0,0,0,0,-1,587,771,-24.7978,0.491371
-630,253,-25.156,0.540405,0,0,0,0,0,0,0,-1,594,771,-25.156,-0.540421
-623,253,-20.808,2.84314,0,0,0,0,0,0,0,-1,601,771,-20.8081,-2.84312
-616,253,-25.0877,2.96875,0,0,0,0,0,0,0,-1,608,771,-25.0877,-2.96876
-609,253,-24.28,2.08228,0,0,0,0,0,0,0,-1,615,771,-24.2801,-2.08227
-602,253,-24.562,3.6402,0,0,0,0,0,0,0,-1,622,771,-24.562,-3.64022
-595,253,-24.5981,3.15326,-0.00534943,0.0205507,-0.0184076,0.0301071,-0.0149059,-1.09194,0.0264776,0.0469741,629,771,-24.5982,-3.15326
-588,253,-24.8146,1.38611,-0.00401682,0.01489,-0.0130429,0.0215451,-0.0106719,-1.09898,0.0189504,0.042329,636,771,-24.8147,-1.38611
-581,253,-24.8615,0.733154,-0.00294813,0.0107128,-0.00919386,0.0153358,-0.00757115,-1.10488,0.0134762,0.0258438,643,771,-24.8615,-0.733182
-574,253,-24.938,0.14447,-0.00224662,0.00746063,-0.00620416,0.0104841,-0.00527013,-1.11733,0.00926029,0.0200976,650,771,-24.938,-0.144447
-567,253,-24.9575,-0.476746,-0.00186686,0.00474642,-0.00381823,0.00649079,-0.00361124,-1.14226,0.00591086,0.0181056,657,771,-24.9574,0.476724
-560,253,-24.9377,-1.05597,-0.00177841,0.00245397,-0.00187734,0.00316668,-0.00249112,-1.20797,0.00327428,0.0142223,664,771,-24.9377,1.05598
-553,253,-24.9679,-1.69342,-0.0018856,0.000356169,-0.000281059,0.000390869,-0.0019203,-1.44796,0.00142843,0.0124922,671,771,-24.9679,1.69342
-546,253,-24.986,-2.31,-0.00221999,-0.0015811,0.00103767,-0.000814817,-0.00298627,0.93472,0.00178244,0.0110202,678,771,-24.986,2.31001
-539,253,-25.0295,-2.96356,-0.00319685,-0.00315383,0.00222074,-0.000954496,-0.00539619,0.790241,0.00332527,0.0125678,685,771,-25.0295,2.96353
-532,253,-25.0085,-3.59961,-0.00444433,-0.00428436,0.00288115,-0.00148209,-0.0072466,0.799275,0.00442064,0.017833,692,771,-25.0086,3.59963
-525,253,-25.0142,-4.23059,-0.00572906,-0.00485928,0.00329906,-0.00196657,-0.00862178,0.850932,0.00521737,0.0174115,699,771,-25.0142,4.23057
-518,253,-25.1521,-4.86633,-0.00786969,-0.00543948,0.00374839,-0.00271417,-0.010595,0.942137,0.00635485,0.0306966,706,771,-25.1521,4.86635
-511,253,-25.4066,-5.39832,0,0,0,0,0,0,0,-1,713,771,-25.4065,5.39831
-504,253,-19.317,-4.1723,0,0,0,0,0,0,0,-1,720,771,-19.317,4.1723
-497,253,-21.7737,-1.76837,0,0,0,0,0,0,0,-1,727,771,-21.7738,1.7684
-490,253,-29.7674,0.438354,0,0,0,0,0,0,0,-1,734,771,-29.7674,-0.438339
-483,253,-40.694,0.77533,0,0,0,0,0,0,0,-1,741,771,-40.694,-0.77532
-476,253,-40.1095,1.30292,0,0,0,0,0,0,0,-1,748,771,-40.1095,-1.30291
-469,253,-40.8504,1.12671,-0.0292146,-0.0169341,-0.00958979,-0.0116872,-0.0344615,-1.07016,0.0202367,0.0450947,755,771,-40.8504,-1.12668
-462,253,-40.9288,1.04718,-0.0332531,-0.0210017,-0.0146634,-0.011236,-0.0430188,-0.983257,0.025764,0.0451792,762,771,-40.9288,-1.04715
-455,253,-41.0982,1.03021,-0.0354689,-0.0253901,-0.0209186,-0.00891245,-0.0519465,-0.903599,0.0320756,0.0336814,769,771,-41.0982,-1.03021
-448,253,0,0,0,0,0,0,0,0,0,-1,776,771,0,0
-441,253,0,0,0,0,0,0,0,0,0,-1,783,771,0,0
-434,253,0,0,0,0,0,0,0,0,0,-1,790,771,0,0
-427,253,0,0,0,0,0,0,0,0,0,-1,797,771,0,0
-420,253,0,0,0,0,0,0,0,0,0,-1,804,771,0,0
-413,253,0,0,0,0,0,0,0,0,0,-1,811,771,0,0
-406,253,0,0,0,0,0,0,0,0,0,-1,818,771,0,0
-399,253,0,0,0,0,0,0,0,0,0,-1,825,771,0,0
-392,253,0,0,0,0,0,0,0,0,0,-1,832,771,0,0
-385,253,0,0,0,0,0,0,0,0,0,-1,839,771,0,0
-378,253,0,0,0,0,0,0,0,0,0,-1,846,771,0,0
-371,253,0,0,0,0,0,0,0,0,0,-1,853,771,0,0
-364,253,0,0,0,0,0,0,0,0,0,-1,860,771,0,0
-357,253,0,0,0,0,0,0,0,0,0,-1,867,771,0,0
-350,253,0,0,0,0,0,0,0,0,0,-1,874,771,0,0
-343,253,0,0,0,0,0,0,0,0,0,-1,881,771,0,0
-336,253,0,0,0,0,0,0,0,0,0,-1,888,771,0,0
-329,253,0,0,0,0,0,0,0,0,0,-1,895,771,0,0
-322,253,0,0,0,0,0,0,0,0,0,-1,902,771,0,0
-315,253,0,0,0,0,0,0,0,0,0,-1,909,771,0,0
-308,253,0,0,0,0,0,0,0,0,0,-1,916,771,0,0
-301,253,0,0,0,0,0,0,0,0,0,-1,923,771,0,0
-294,253,0,0,0,0,0,0,0,0,0,-1,930,771,0,0
-287,253,0,0,0,0,0,0,0,0,0,-1,937,771,0,0
-280,253,0,0,0,0,0,0,0,0,0,-1,944,771,0,0
-273,253,0,0,0,0,0,0,0,0,0,-1,951,771,0,0
-266,253,0,0,0,0,0,0,0,0,0,-1,958,771,0,0
-259,253,0,0,0,0,0,0,0,0,0,-1,965,771,0,0
-252,253,0,0,0,0,0,0,0,0,0,-1,972,771,0,0
-245,253,0,0,0,0,0,0,0,0,0,-1,979,771,0,0
-238,253,0,0,0,0,0,0,0,0,0,-1,986,771,0,0
-231,253,0,0,0,0,0,0,0,0,0,-1,993,771,0,0
-224,253,0,0,0,0,0,0,0,0,0,-1,1000,771,0,0
-217,253,0,0,0,0,0,0,0,0,0,-1,1007,771,0,0
-210,253,0,0,0,0,0,0,0,0,0,-1,1014,771,0,0
-203,253,0,0,0,0,0,0,0,0,0,-1,1021,771,0,0
-196,253,0,0,0,0,0,0,0,0,0,-1,1028,771,0,0
-189,253,0,0,0,0,0,0,0,0,0,-1,1035,771,0,0
-182,253,0,0,0,0,0,0,0,0,0,-1,1042,771,0,0
-175,253,0,0,0,0,0,0,0,0,0,-1,1049,771,0,0
-168,253,0,0,0,0,0,0,0,0,0,-1,1056,771,0,0
-161,253,0,0,0,0,0,0,0,0,0,-1,1063,771,0,0
-154,253,0,0,0,0,0,0,0,0,0,-1,1070,771,0,0
-147,253,0,0,0,0,0,0,0,0,0,-1,1077,771,0,0
-140,253,0,0,0,0,0,0,0,0,0,-1,1084,771,0,0
-133,253,0,0,0,0,0,0,0,0,0,-1,1091,771,0,0
-126,253,0,0,0,0,0,0,0,0,0,-1,1098,771,0,0
-119,253,0,0,0,0,0,0,0,0,0,-1,1105,771,0,0
-112,253,0,0,0,0,0,0,0,0,0,-1,1112,771,0,0
-105,253,0,0,0,0,0,0,0,0,0,-1,1119,771,0,0
-98,253,0,0,0,0,0,0,0,0,0,-1,1126,771,0,0
-91,253,0,0,0,0,0,0,0,0,0,-1,1133,771,0,0
-84,253,0,0,0,0,0,0,0,0,0,-1,1140,771,0,0
-77,253,0,0,0,0,0,0,0,0,0,-1,1147,771,0,0
-70,253,0,0,0,0,0,0,0,0,0,-1,1154,771,0,0
-63,253,0,0,0,0,0,0,0,0,0,-1,1161,771,0,0
-56,253,0,0,0,0,0,0,0,0,0,-1,1168,771,0,0
-49,253,0,0,0,0,0,0,0,0,0,-1,1175,771,0,0
-42,253,0,0,0,0,0,0,0,0,0,-1,1182,771,0,0
-35,253,0,0,0,0,0,0,0,0,0,-1,1189,771,0,0
-28,253,0,0,0,0,0,0,0,0,0,-1,1196,771,0,0
-21,253,0,0,0,0,0,0,0,0,0,-1,1203,771,0,0
-14,253,0,0,0,0,0,0,0,0,0,-1,1210,771,0,0
-7,253,0,0,0,0,0,0,0,0,0,-1,1217,771,0,0
0,253,0,0,0,0,0,0,0,0,0,-1,1224,771,0,0
7,253,0,0,0,0,0,0,0,0,0,-1,1231,771,0,0
14,253,0,0,0,0,0,0,0,0,0,-1,1238,771,0,0
21,253,0,0,0,0,0,0,0,0,0,-1,1245,771,0,0
28,253,0,0,0,0,0,0,0,0,0,-1,1252,771,0,0
35,253,0,0,0,0,0,0,0,0,0,-1,1259,771,0,0
42,253,0,0,0,0,0,0,0,0,0,-1,1266,771,0,0
49,253,0,0,0,0,0,0,0,0,0,-1,1273,771,0,0
56,253,0,0,0,0,0,0,0,0,0,-1,1280,771,0,0
63,253,0,0,0,0,0,0,0,0,0,-1,1287,771,0,0
70,253,0,0,0,0,0,0,0,0,0,-1,1294,771,0,0
77,253,0,0,0,0,0,0,0,0,0,-1,1301,771,0,0
84,253,0,0,0,0,0,0,0,0,0,-1,1308,771,0,0
91,253,0,0,0,0,0,0,0,0,0,-1,1315,771,0,0
98,253,0,0,0,0,0,0,0,0,0,-1,1322,771,0,0
105,253,0,0,0,0,0,0,0,0,0,-1,1329,771,0,0
112,253,0,0,0,0,0,0,0,0,0,-1,1336,771,0,0
119,253,0,0,0,0,0,0,0,0,0,-1,1343,771,0,0
126,253,0,0,0,0,0,0,0,0,0,-1,1350,771,0,0
133,253,0,0,0,0,0,0,0,0,0,-1,1357,771,0,0
140,253,0,0,0,0,0,0,0,0,0,-1,1364,771,0,0
147,253,0,0,0,0,0,0,0,0,0,-1,1371,771,0,0
154,253,0,0,0,0,0,0,0,0,0,-1,1378,771,0,0
161,253,0,0,0,0,0,0,0,0,0,-1,1385,771,0,0
168,253,0,0,0,0,0,0,0,0,0,-1,1392,771,0,0
175,253,0,0,0,0,0,0,0,0,0,-1,1399,771,0,0
182,253,0,0,0,0,0,0,0,0,0,-1,1406,771,0,0
189,253,0,0,0,0,0,0,0,0,0,-1,1413,771,0,0
196,253,0,0,0,0,0,0,0,0,0,-1,1420,771,0,0
203,253,0,0,0,0,0,0,0,0,0,-1,1427,771,0,0
210,253,0,0,0,0,0,0,0,0,0,-1,1434,771,0,0
217,253,0,0,0,0,0,0,0,0,0,-1,1441,771,0,0
224,253,0,0,0,0,0,0,0,0,0,-1,1448,771,0,0
231,253,0,0,0,0,0,0,0,0,0,-1,1455,771,0,0
238,253,0,0,0,0,0,0,0,0,0,-1,1462,771,0,0
245,253,0,0,0,0,0,0,0,0,0,-1,1469,771,0,0
252,253,0,0,0,0,0,0,0,0,0,-1,1476,771,0,0
259,253,0,0,0,0,0,0,0,0,0,-1,1483,771,0,0
266,253,0,0,0,0,0,0,0,0,0,-1,1490,771,0,0
273,253,0,0,0,0,0,0,0,0,0,-1,1497,771,0,0
280,253,0,0,0,0,0,0,0,0,0,-1,1504,771,0,0
287,253,0,0,0,0,0,0,0,0,0,-1,1511,771,0,0
294,253,0,0,0,0,0,0,0,0,0,-1,1518,771,0,0
301,253,0,0,0,0,0,0,0,0,0,-1,1525,771,0,0
308,253,0,0,0,0,0,0,0,0,0,-1,1532,771,0,0
315,253,0,0,0,0,0,0,0,0,0,-1,1539,771,0,0
322,253,0,0,0,0,0,0,0,0,0,-1,1546,771,0,0
329,253,0,0,0,0,0,0,0,0,0,-1,1553,771,0,0
336,253,0,0,0,0,0,0,0,0,0,-1,1560,771,0,0
343,253,0,0,0,0,0,0,0,0,0,-1,1567,771,0,0
350,253,0,0,0,0,0,0,0,0,0,-1,1574,771,0,0
357,253,0,0,0,0,0,0,0,0,0,-1,1581,771,0,0
364,253,0,0,0,0,0,0,0,0,0,-1,1588,771,0,0
371,253,0,0,0,0,0,0,0,0,0,-1,1595,771,0,0
378,253,0,0,0,0,0,0,0,0,0,-1,1602,771,0,0
385,253,0,0,0,0,0,0,0,0,0,-1,1609,771,0,0
392,253,0,0,0,0,0,0,0,0,0,-1,1616,771,0,0
399,253,0,0,0,0,0,0,0,0,0,-1,1623,771,0,0
406,253,0,0,0,0,0,0,0,0,0,-1,1630,771,0,0
413,253,0,0,0,0,0,0,0,0,0,-1,1637,771,0,0
420,253,0,0,0,0,0,0,0,0,0,-1,1644,771,0,0
427,253,0,0,0,0,0,0,0,0,0,-1,1651,771,0,0
434,253,0,0,0,0,0,0,0,0,0,-1,1658,771,0,0
441,253,0,0,0,0,0,0,0,0,0,-1,1665,771,0,0
448,253,0,0,0,0,0,0,0,0,0,-1,1672,771,0,0
455,253,0,0,0,0,0,0,0,0,0,-1,1679,771,0,0
462,253,0,0,0,0,0,0,0,0,0,-1,1686,771,0,0
469,253,0,0,0,0,0,0,0,0,0,-1,1693,771,0,0
476,253,0,0,0,0,0,0,0,0,0,-1,1700,771,0,0
483,253,0,0,0,0,0,0,0,0,0,-1,1707,771,0,0
490,253,0,0,0,0,0,0,0,0,0,-1,1714,771,0,0
497,253,0,0,0,0,0,0,0,0,0,-1,1721,771,0,0
504,253,0,0,0,0,0,0,0,0,0,-1,1728,771,0,0
511,253,0,0,0,0,0,0,0,0,0,-1,1735,771,0,0
518,253,0,0,0,0,0,0,0,0,0,-1,1742,771,0,0
525,253,0,0,0,0,0,0,0,0,0,-1,1749,771,0,0
532,253,0,0,0,0,0,0,0,0,0,-1,1756,771,0,0
539,253,0,0,0,0,0,0,0,0,0,-1,1763,771,0,0
546,253,0,0,0,0,0,0,0,0,0,-1,1770,771,0,0
553,253,0,0,0,0,0,0,0,0,0,-1,1777,771,0,0
560,253,0,0,0,0,0,0,0,0,0,-1,1784,771,0,0
567,253,0,0,0,0,0,0,0,0,0,-1,1791,771,0,0
574,253,53.9088,2.43701,0,0,0,0,0,0,0,-1,1798,771,53.9088,-2.43702
581,253,53.8303,3.10034,0,0,0,0,0,0,0,-1,1805,771,53.8303,-3.10037
588,253,54.2762,2.94073,0.00987131,0.00939954,0.0145332,0.0241705,-0.00489966,0.777283,0.0179709,0.046543,1812,771,54.2763,-2.94071
595,253,54.5397,2.78674,0.00620904,0.00919121,0.0143281,0.0221056,-0.00670537,0.837245,0.0174081,0.0483087,1819,771,54.5396,-2.78677
602,253,54.2788,3.20477,0.00418015,0.00809558,0.0122753,0.0185683,-0.00629253,0.864474,0.0149253,0.049331,1826,771,54.2788,-3.20476
609,253,54.0123,3.60675,0,0,0,0,0,0,0,-1,1833,771,54.0123,-3.60676
616,253,53.9309,3.58942,0,0,0,0,0,0,0,-1,1840,771,53.9309,-3.58941
623,253,48.8328,3.01001,0,0,0,0,0,0,0,-1,1847,771,48.8328,-3.01002
630,253,33.561,2.96838,0,0,0,0,0,0,0,-1,1854,771,33.561,-2.96836
637,253,22.3192,-0.604004,0,0,0,0,0,0,0,-1,1861,771,22.3192,0.603986
644,253,37.1278,-3.23645,0,0,0,0,0,0,0,-1,1868,771,37.1278,3.23646
651,253,36.8392,-2.47955,-0.000327315,0.000591822,0.000828424,0.00107961,-0.000815106,1.03864,0.00109746,0.0334741,1875,771,36.8393,2.47955
658,253,36.7404,-1.87811,6.17115e-05,-0.000720618,-0.000989261,0.000734336,-0.00139324,-0.597126,0.00124784,0.0192221,1882,771,36.7403,1.87809
665,253,36.6688,-1.25531,-0.00031957,-0.000690714,-0.00111787,0.000628025,-0.00163831,-0.703146,0.00135111,0.0211056,1889,771,36.6688,1.2553
672,253,36.712,-0.572205,-0.000315967,-0.000413317,-0.000952341,0.000588942,-0.00131823,-0.759865,0.00112762,0.0168921,1896,771,36.712,0.572197
679,253,36.7385,0.098877,-5.86871e-05,6.55028e-05,-0.00055088,0.000557776,-0.000550961,-0.841521,0.000640134,0.0132799,1903,771,36.7386,-0.09887
686,253,36.6729,0.746094,0.000587786,0.000922337,7.11593e-05,0.000936843,0.000573279,1.36969,0.000545385,0.0204491,1910,771,36.6728,-0.746085
693,253,36.5992,1.38409,0.00170317,0.00200993,0.000888423,0.00275812,0.000954985,0.870876,0.0016173,0.0202843,1917,771,36.5992,-1.38406
700,253,36.6066,1.9928,0.00298878,0.00325531,0.00183812,0.00496499,0.0012791,0.821585,0.00297669,0.0166489,1924,771,36.6065,-1.99277
707,253,36.6139,2.65436,0.00447071,0.00461006,0.00298516,0.00752636,0.0015544,0.797066,0.00458806,0.0152474,1931,771,36.6139,-2.65435
714,253,36.5997,3.30054,0.00623542,0.00625324,0.00448696,0.0107313,0.00175736,0.786391,0.00664632,0.0211504,1938,771,36.5997,-3.30054
721,253,36.6766,4.09033,0.00810673,0.00780523,0.0060735,0.0140313,0.00188061,0.77299,0.00879464,0.0396547,1945,771,36.6766,-4.09036
728,253,36.7883,4.88782,0,0,0,0,0,0,0,-1,1952,771,36.7883,-4.88784
735,253,34.5735,6.15118,0,0,0,0,0,0,0,-1,1959,771,34.5734,-6.1512
742,253,31.0571,5.7337,0,0,0,0,0,0,0,-1,1966,771,31.0571,-5.73373
749,253,33.7754,3.21533,0,0,0,0,0,0,0,-1,1973,771,33.7754,-3.21533
756,253,0,0,0,0,0,0,0,0,0,-1,1980,771,0,0
763,253,0,0,0,0,0,0,0,0,0,-1,1987,771,0,0
770,253,0,0,0,0,0,0,0,0,0,-1,1994,771,0,0
777,253,0,0,0,0,0,0,0,0,0,-1,2001,771,0,0
784,253,0,0,0,0,0,0,0,0,0,-1,2008,771,0,0
791,253,0,0,0,0,0,0,0,0,0,-1,2015,771,0,0
798,253,0,0,0,0,0,0,0,0,0,-1,2022,771,0,0
805,253,0,0,0,0,0,0,0,0,0,-1,2029,771,0,0
812,253,0,0,0,0,0,0,0,0,0,-1,2036,771,0,0
-700,246,0,0,0,0,0,0,0,0,0,-1,524,778,0,0
-693,246,0,0,0,0,0,0,0,0,0,-1,531,778,0,0
-686,246,0,0,0,0,0,0,0,0,0,-1,538,778,0,0
-679,246,0,0,0,0,0,0,0,0,0,-1,545,778,0,0
-672,246,0,0,0,0,0,0,0,0,0,-1,552,778,0,0
-665,246,0,0,0,0,0,0,0,0,0,-1,559,778,0,0
-658,246,0,0,0,0,0,0,0,0,0,-1,566,778,0,0
-651,246,0,0,0,0,0,0,0,0,0,-1,573,778,0,0
-644,246,0,0,0,0,0,0,0,0,0,-1,580,778,0,0
-637,246,-24.1234,0.130432,0,0,0,0,0,0,0,-1,587,778,-24.1234,-0.130438
-630,246,-24.0781,1.38916,0,0,0,0,0,0,0,-1,594,778,-24.0781,-1.38913
-623,246,-23.9183,2.49573,0,0,0,0,0,0,0,-1,601,778,-23.9183,-2.49575
-616,246,-26.8182,2.0705,0,0,0,0,0,0,0,-1,608,778,-26.8182,-2.07052
-609,246,-26.0615,1.16388,0,0,0,0,0,0,0,-1,615,778,-26.0615,-1.16388
-602,246,-25.0712,3.49005,0,0,0,0,0,0,0,-1,622,778,-25.0711,-3.49008
-595,246,-25.2233,2.6665,-0.00533164,0.0179499,-0.0157942,0.0259297,-0.0133114,-1.10297,0.0230429,0.0487168,629,778,-25.2233,-2.6665
-588,246,-25.3657,1.58661,-0.00385302,0.0131368,-0.0114006,0.0188594,-0.00957558,-1.10559,0.0167061,0.0331343,636,778,-25.3657,-1.58663
-581,246,-25.5347,0.81665,-0.00273917,0.00945756,-0.00814004,0.0135302,-0.00681186,-1.10689,0.0119561,0.0187538,643,778,-25.5347,-0.816622
-574,246,-25.5249,0.129211,-0.00206386,0.00646528,-0.00549593,0.00915712,-0.00475571,-1.11535,0.00816547,0.0193233,650,778,-25.5249,-0.129235
-567,246,-25.5543,-0.456177,-0.00176012,0.00388259,-0.00329586,0.00539975,-0.00327728,-1.13939,0.0050594,0.0237052,657,778,-25.5543,0.456195
-560,246,-25.5827,-1.05951,-0.00175037,0.00164524,-0.00145938,0.00218625,-0.00229139,-1.21579,0.0025854,0.0184001,664,778,-25.5827,1.05951
-553,246,-25.5949,-1.65948,-0.00194053,-0.000517211,3.75125e-05,-0.000516223,-0.00194152,1.54447,0.00116117,0.0131407,671,778,-25.5949,1.6595
-546,246,-25.6193,-2.26581,-0.00241331,-0.00263383,0.00124861,-0.0012701,-0.00377704,0.741358,0.00221931,0.0108253,678,778,-25.6193,2.26584
-539,246,-25.6516,-2.92035,-0.00360997,-0.00412227,0.00223888,-0.00161264,-0.00611961,0.728441,0.00366251,0.0112073,685,778,-25.6515,2.92038
-532,246,-25.6221,-3.57098,-0.00494129,-0.00515009,0.00274365,-0.00230005,-0.00779133,0.766381,0.00462239,0.016323,692,778,-25.6221,3.57101
-525,246,-25.684,-4.17755,-0.00624115,-0.00567909,0.0030521,-0.00289511,-0.00902513,0.831308,0.00532107,0.0312668,699,778,-25.684,4.17755
-518,246,-25.9672,-4.59381,-0.0082422,-0.00612997,0.00341789,-0.00360874,-0.0107634,0.935243,0.00632568,0.0446197,706,778,-25.9673,4.59383
-511,246,-26.4081,-4.85748,0,0,0,0,0,0,0,-1,713,778,-26.4081,4.8575
-504,246,-20.0047,-2.88214,0,0,0,0,0,0,0,-1,720,778,-20.0047,2.88216
-497,246,-29.4669,1.82684,0,0,0,0,0,0,0,-1,727,778,-29.4669,-1.82687
-490,246,-40.4299,1.04309,0,0,0,0,0,0,0,-1,734,778,-40.4299,-1.04308
-483,246,-40.8819,0.638184,0,0,0,0,0,0,0,-1,741,778,-40.8819,-0.638187
-476,246,-40.5217,1.15118,0,0,0,0,0,0,0,-1,748,778,-40.5217,-1.15121
-469,246,-40.1616,1.66425,0,0,0,0,0,0,0,-1,755,778,-40.1616,-1.66422
-462,246,-41.0129,1.12958,0,0,0,0,0,0,0,-1,762,778,-41.0129,-1.12959
-455,246,0,0,0,0,0,0,0,0,0,-1,769,778,0,0
-448,246,0,0,0,0,0,0,0,0,0,-1,776,778,0,0
-441,246,0,0,0,0,0,0,0,0,0,-1,783,778,0,0
-434,246,0,0,0,0,0,0,0,0,0,-1,790,778,0,0
-427,246,0,0,0,0,0,0,0,0,0,-1,797,778,0,0
-420,246,0,0,0,0,0,0,0,0,0,-1,804,778,0,0
-413,246,0,0,0,0,0,0,0,0,0,-1,811,778,0,0
-406,246,0,0,0,0,0,0,0,0,0,-1,818,778,0,0
-399,246,0,0,0,0,0,0,0,0,0,-1,825,778,0,0
-392,246,0,0,0,0,0,0,0,0,0,-1,832,778,0,0
-385,246,0,0,0,0,0,0,0,0,0,-1,839,778,0,0
-378,246,0,0,0,0,0,0,0,0,0,-1,846,778,0,0
-371,246,0,0,0,0,0,0,0,0,0,-1,853,778,0,0
-364,246,0,0,0,0,0,0,0,0,0,-1,860,778,0,0
-357,246,0,0,0,0,0,0,0,0,0,-1,867,778,0,0
-350,246,0,0,0,0,0,0,0,0,0,-1,874,778,0,0
-343,246,0,0,0,0,0,0,0,0,0,-1,881,778,0,0
-336,246,0,0,0,0,0,0,0,0,0,-1,888,778,0,0
-329,246,0,0,0,0,0,0,0,0,0,-1,895,778,0,0
-322,246,0,0,0,0,0,0,0,0,0,-1,902,778,0,0
-315,246,0,0,0,0,0,0,0,0,0,-1,909,778,0,0
-308,246,0,0,0,0,0,0,0,0,0,-1,916,778,0,0
-301,246,0,0,0,0,0,0,0,0,0,-1,923,778,0,0
-294,246,0,0,0,0,0,0,0,0,0,-1,930,778,0,0
-287,246,0,0,0,0,0,0,0,0,0,-1,937,778,0,0
-280,246,0,0,0,0,0,0,0,0,0,-1,944,778,0,0
-273,246,0,0,0,0,0,0,0,0,0,-1,951,778,0,0
-266,246,0,0,0,0,0,0,0,0,0,-1,958,778,0,0
-259,246,0,0,0,0,0,0,0,0,0,-1,965,778,0,0
-252,246,0,0,0,0,0,0,0,0,0,-1,972,778,0,0
-245,246,0,0,0,0,0,0,0,0,0,-1,979,778,0,0
-238,246,0,0,0,0,0,0,0,0,0,-1,986,778,0,0
-231,246,0,0,0,0,0,0,0,0,0,-1,993,778,0,0
-224,246,0,0,0,0,0,0,0,0,0,-1,1000,778,0,0
-217,246,0,0,0,0,0,0,0,0,0,-1,1007,778,0,0
-210,246,0,0,0,0,0,0,0,0,0,-1,1014,778,0,0
-203,246,0,0,0,0,0,0,0,0,0,-1,1021,778,0,0
-196,246,0,0,0,0,0,0,0,0,0,-1,1028,778,0,0
-189,246,0,0,0,0,0,0,0,0,0,-1,1035,778,0,0
-182,246,0,0,0,0,0,0,0,0,0,-1,1042,778,0,0
-175,246,0,0,0,0,0,0,0,0,0,-1,1049,778,0,0
-168,246,0,0,0,0,0,0,0,0,0,-1,1056,778,0,0
-161,246,0,0,0,0,0,0,0,0,0,-1,1063,778,0,0
-154,246,0,0,0,0,0,0,0,0,0,-1,1070,778,0,0
-147,246,0,0,0,0,0,0,0,0,0,-1,1077,778,0,0
-140,246,0,0,0,0,0,0,0,0,0,-1,1084,778,0,0
-133,246,0,0,0,0,0,0,0,0,0,-1,1091,778,0,0
-126,246,0,0,0,0,0,0,0,0,0,-1,1098,778,0,0
-119,246,0,0,0,0,0,0,0,0,0,-1,1105,778,0,0
-112,246,0,0,0,0,0,0,0,0,0,-1,1112,778,0,0
-105,246,0,0,0,0,0,0,0,0,0,-1,1119,778,0,0
-98,246,0,0,0,0,0,0,0,0,0,-1,1126,778,0,0
-91,246,0,0,0,0,0,0,0,0,0,-1,1133,778,0,0
-84,246,0,0,0,0,0,0,0,0,0,-1,1140,778,0,0
-77,246,0,0,0,0,0,0,0,0,0,-1,1147,778,0,0
-70,246,0,0,0,0,0,0,0,0,0,-1,1154,778,0,0
-63,246,0,0,0,0,0,0,0,0,0,-1,1161,778,0,0
-56,246,0,0,0,0,0,0,0,0,0,-1,1168,778,0,0
-49,246,0,0,0,0,0,0,0,0,0,-1,1175,778,0,0
-42,246,0,0,0,0,0,0,0,0,0,-1,1182,778,0,0
-35,246,0,0,0,0,0,0,0,0,0,-1,1189,778,0,0
-28,246,0,0,0,0,0,0,0,0,0,-1,1196,778,0,0
-21,246,0,0,0,0,0,0,0,0,0,-1,1203,778,0,0
-14,246,0,0,0,0,0,0,0,0,0,-1,1210,778,0,0
-7,246,0,0,0,0,0,0,0,0,0,-1,1217,778,0,0
0,246,0,0,0,0,0,0,0,0,0,-1,1224,778,0,0
7,246,0,0,0,0,0,0,0,0,0,-1,1231,778,0,0
14,246,0,0,0,0,0,0,0,0,0,-1,1238,778,0,0
21,246,0,0,0,0,0,0,0,0,0,-1,1245,778,0,0
28,246,0,0,0,0,0,0,0,0,0,-1,1252,778,0,0
35,246,0,0,0,0,0,0,0,0,0,-1,1259,778,0,0
42,246,0,0,0,0,0,0,0,0,0,-1,1266,778,0,0
49,246,0,0,0,0,0,0,0,0,0,-1,1273,778,0,0
56,246,0,0,0,0,0,0,0,0,0,-1,1280,778,0,0
63,246,0,0,0,0,0,0,0,0,0,-1,1287,778,0,0
70,246,0,0,0,0,0,0,0,0,0,-1,1294,778,0,0
77,246,0,0,0,0,0,0,0,0,0,-1,1301,778,0,0
84,246,0,0,0,0,0,0,0,0,0,-1,1308,778,0,0
91,246,0,0,0,0,0,0,0,0,0,-1,1315,778,0,0
98,246,0,0,0,0,0,0,0,0,0,-1,1322,778,0,0
105,246,0,0,0,0,0,0,0,0,0,-1,1329,778,0,0
112,246,0,0,0,0,0,0,0,0,0,-1,1336,778,0,0
119,246,0,0,0,0,0,0,0,0,0,-1,1343,778,0,0
126,246,0,0,0,0,0,0,0,0,0,-1,1350,778,0,0
133,246,0,0,0,0,0,0,0,0,0,-1,1357,778,0,0
140,246,0,0,0,0,0,0,0,0,0,-1,1364,778,0,0
147,246,0,0,0,0,0,0,0,0,0,-1,1371,778,0,0
154,246,0,0,0,0,0,0,0,0,0,-1,1378,778,0,0
161,246,0,0,0,0,0,0,0,0,0,-1,1385,778,0,0
168,246,0,0,0,0,0,0,0,0,0,-1,1392,778,0,0
175,246,0,0,0,0,0,0,0,0,0,-1,1399,778,0,0
182,246,0,0,0,0,0,0,0,0,0,-1,1406,778,0,0
189,246,0,0,0,0,0,0,0,0,0,-1,1413,778,0,0
196,246,0,0,0,0,0,0,0,0,0,-1,1420,778,0,0
203,246,0,0,0,0,0,0,0,0,0,-1,1427,778,0,0
210,246,0,0,0,0,0,0,0,0,0,-1,1434,778,0,0
217,246,0,0,0,0,0,0,0,0,0,-1,1441,778,0,0
224,246,0,0,0,0,0,0,0,0,0,-1,1448,778,0,0
231,246,0,0,0,0,0,0,0,0,0,-1,1455,778,0,0
238,246,0,0,0,0,0,0,0,0,0,-1,1462,778,0,0
245,246,0,0,0,0,0,0,0,0,0,-1,1469,778,0,0
252,246,0,0,0,0,0,0,0,0,0,-1,1476,778,0,0
259,246,0,0,0,0,0,0,0,0,0,-1,1483,778,0,0
266,246,0,0,0,0,0,0,0,0,0,-1,1490,778,0,0
273,246,0,0,0,0,0,0,0,0,0,-1,1497,778,0,0
280,246,0,0,0,0,0,0,0,0,0,-1,1504,778,0,0
287,246,0,0,0,0,0,0,0,0,0,-1,1511,778,0,0
294,246,0,0,0,0,0,0,0,0,0,-1,1518,778,0,0
301,246,0,0,0,0,0,0,0,0,0,-1,1525,778,0,0
308,246,0,0,0,0,0,0,0,0,0,-1,1532,778,0,0
315,246,0,0,0,0,0,0,0,0,0,-1,1539,778,0,0
322,246,0,0,0,0,0,0,0,0,0,-1,1546,778,0,0
329,246,0,0,0,0,0,0,0,0,0,-1,1553,778,0,0
336,246,0,0,0,0,0,0,0,0,0,-1,1560,778,0,0
343,246,0,0,0,0,0,0,0,0,0,-1,1567,778,0,0
350,246,0,0,0,0,0,0,0,0,0,-1,1574,778,0,0
357,246,0,0,0,0,0,0,0,0,0,-1,1581,778,0,0
364,246,0,0,0,0,0,0,0,0,0,-1,1588,778,0,0
371,246,0,0,0,0,0,0,0,0,0,-1,1595,778,0,0
378,246,0,0,0,0,0,0,0,0,0,-1,1602,778,0,0
385,246,0,0,0,0,0,0,0,0,0,-1,1609,778,0,0
392,246,0,0,0,0,0,0,0,0,0,-1,1616,778,0,0
399,246,0,0,0,0,0,0,0,0,0,-1,1623,778,0,0
406,246,0,0,0,0,0,0,0,0,0,-1,1630,778,0,0
413,246,0,0,0,0,0,0,0,0,0,-1,1637,778,0,0
420,246,0,0,0,0,0,0,0,0,0,-1,1644,778,0,0
427,246,0,0,0,0,0,0,0,0,0,-1,1651,778,0,0
434,246,0,0,0,0,0,0,0,0,0,-1,1658,778,0,0
441,246,0,0,0,0,0,0,0,0,0,-1,1665,778,0,0
448,246,0,0,0,0,0,0,0,0,0,-1,1672,778,0,0
455,246,0,0,0,0,0,0,0,0,0,-1,1679,778,0,0
462,246,0,0,0,0,0,0,0,0,0,-1,1686,778,0,0
469,246,0,0,0,0,0,0,0,0,0,-1,1693,778,0,0
476,246,0,0,0,0,0,0,0,0,0,-1,1700,778,0,0
483,246,0,0,0,0,0,0,0,0,0,-1,1707,778,0,0
490,246,0,0,0,0,0,0,0,0,0,-1,1714,778,0,0
497,246,0,0,0,0,0,0,0,0,0,-1,1721,778,0,0
504,246,0,0,0,0,0,0,0,0,0,-1,1728,778,0,0
511,246,0,0,0,0,0,0,0,0,0,-1,1735,778,0,0
518,246,0,0,0,0,0,0,0,0,0,-1,1742,778,0,0
525,246,0,0,0,0,0,0,0,0,0,-1,1749,778,0,0
532,246,0,0,0,0,0,0,0,0,0,-1,1756,778,0,0
539,246,0,0,0,0,0,0,0,0,0,-1,1763,778,0,0
546,246,0,0,0,0,0,0,0,0,0,-1,1770,778,0,0
553,246,0,0,0,0,0,0,0,0,0,-1,1777,778,0,0
560,246,0,0,0,0,0,0,0,0,0,-1,1784,778,0,0
567,246,0,0,0,0,0,0,0,0,0,-1,1791,778,0,0
574,246,0,0,0,0,0,0,0,0,0,-1,1798,778,0,0
581,246,54.0276,2.96356,0,0,0,0,0,0,0,-1,1805,778,54.0276,-2.96357
588,246,54.0951,2.90863,0.0102943,0.00680109,0.008424,0.0171509,-5.54519e-05,0.683177,0.0114524,0.0461894,1812,778,54.0951,-2.90861
595,246,54.4316,2.79053,0.00655018,0.00757724,0.0102076,0.0172843,-0.00315684,0.810531,0.0127065,0.0455416,1819,778,54.4317,-2.79053
602,246,54.2328,3.12958,0.00449086,0.0070529,0.00945569,0.015314,-0.00377019,0.852726,0.0116708,0.047384,1826,778,54.2328,-3.12956
609,246,53.9493,3.45886,0,0,0,0,0,0,0,-1,1833,778,53.9493,-3.45883
616,246,53.6284,3.61475,0,0,0,0,0,0,0,-1,1840,778,53.6284,-3.61473
623,246,53.0813,3.59247,0,0,0,0,0,0,0,-1,1847,778,53.0813,-3.59244
630,246,49.5938,1.99902,0,0,0,0,0,0,0,-1,1854,778,49.5937,-1.999
637,246,29.5785,0.837585,0,0,0,0,0,0,0,-1,1861,778,29.5785,-0.837606
644,246,28.1232,-1.43188,0,0,0,0,0,0,0,-1,1868,778,28.1232,1.43188
651,246,37.4601,-2.39252,0,0,0,0,0,0,0,-1,1875,778,37.4601,2.39253
658,246,37.2793,-1.9184,-9.88774e-05,-0.000814352,-0.00118965,0.00078566,-0.00169889,-0.639345,0.0014664,0.0398745,1882,778,37.2793,1.9184
665,246,37.3502,-1.19995,-0.000691115,-0.000915818,-0.00142422,0.000625179,-0.00223211,-0.746036,0.00173444,0.0244581,1889,778,37.3503,1.19996
672,246,37.3701,-0.50885,-0.000890877,-0.000807167,-0.00140366,0.000555259,-0.0022533,-0.800303,0.00171747,0.0213392,1896,778,37.3702,0.508871
679,246,37.3905,0.119873,-0.000826854,-0.000498743,-0.00110663,0.000455923,-0.00178152,-0.858986,0.00136527,0.0216741,1903,778,37.3904,-0.119844
686,246,37.3665,0.748291,-0.000337533,0.000242231,-0.000538857,0.00056423,-0.000659532,-1.03217,0.000707253,0.0226084,1910,778,37.3665,-0.748307
693,246,37.3257,1.39923,0.000794199,0.00127589,0.000263966,0.00139237,0.000677713,1.15521,0.00080398,0.017996,1917,778,37.3257,-1.39925
700,246,37.311,2.02673,0.00206739,0.00241713,0.00115966,0.00341503,0.00106949,0.860231,0.00201703,0.0149906,1924,778,37.311,-2.02675
707,246,37.2671,2.69946,0.00346621,0.00366435,0.00219302,0.00576053,0.00137002,0.807971,0.0034749,0.0135383,1931,778,37.2671,-2.69945
714,246,37.2349,3.35449,0.00495532,0.0050836,0.00341992,0.00843998,0.00159894,0.794775,0.00517665,0.0133881,1938,778,37.2349,-3.35451
721,246,37.1974,3.98376,0.00628944,0.00633275,0.0045643,0.0108754,0.00174675,0.78777,0.00674387,0.0197883,1945,778,37.1974,-3.98374
728,246,37.3636,4.84961,0,0,0,0,0,0,0,-1,1952,778,37.3637,-4.84958
735,246,37.7559,5.81824,0,0,0,0,0,0,0,-1,1959,778,37.7559,-5.81824
742,246,31.7356,6.70013,0,0,0,0,0,0,0,-1,1966,778,31.7356,-6.70011
749,246,32.3883,7.69324,0,0,0,0,0,0,0,-1,1973,778,32.3883,-7.69322
756,246,33.6919,3.45264,0,0,0,0,0,0,0,-1,1980,778,33.6919,-3.45262
763,246,0,0,0,0,0,0,0,0,0,-1,1987,778,0,0
770,246,0,0,0,0,0,0,0,0,0,-1,1994,778,0,0
777,246,0,0,0,0,0,0,0,0,0,-1,2001,778,0,0
784,246,0,0,0,0,0,0,0,0,0,-1,2008,778,0,0
791,246,0,0,0,0,0,0,0,0,0,-1,2015,778,0,0
798,246,0,0,0,0,0,0,0,0,0,-1,2022,778,0,0
805,246,0,0,0,0,0,0,0,0,0,-1,2029,778,0,0
812,246,0,0,0,0,0,0,0,0,0,-1,2036,778,0,0
-700,239,0,0,0,0,0,0,0,0,0,-1,524,785,0,0
-693,239,0,0,0,0,0,0,0,0,0,-1,531,785,0,0
-686,239,0,0,0,0,0,0,0,0,0,-1,538,785,0,0
-679,239,0,0,0,0,0,0,0,0,0,-1,545,785,0,0
-672,239,0,0,0,0,0,0,0,0,0,-1,552,785,0,0
-665,239,0,0,0,0,0,0,0,0,0,-1,559,785,0,0
-658,239,0,0,0,0,0,0,0,0,0,-1,566,785,0,0
-651,239,0,0,0,0,0,0,0,0,0,-1,573,785,0,0
-644,239,0,0,0,0,0,0,0,0,0,-1,580,785,0,0
-637,239,-23.2709,0.465088,0,0,0,0,0,0,0,-1,587,785,-23.271,-0.465116
-630,239,-23.4006,0.956299,0,0,0,0,0,0,0,-1,594,785,-23.4005,-0.956285
-623,239,-30.6328,2.52185,0,0,0,0,0,0,0,-1,601,785,-30.6328,-2.52183
-616,239,-29.1425,1.42139,0,0,0,0,0,0,0,-1,608,785,-29.1425,-1.42139
-609,239,-27.8569,0.322937,0,0,0,0,0,0,0,-1,615,785,-27.857,-0.322963
-602,239,-25.5596,3.78906,0,0,0,0,0,0,0,-1,622,785,-25.5596,-3.78906
-595,239,-25.7988,2.66608,-0.00491972,0.0147663,-0.0131321,0.0213347,-0.0114882,-1.107,0.0192325,0.0421346,629,785,-25.7988,-2.66606
-588,239,-26.0418,1.57941,-0.00342957,0.011005,-0.00965251,0.0158401,-0.00826467,-1.10642,0.0141442,0.0205337,636,785,-26.0418,-1.57943
-581,239,-26.149,0.839783,-0.00233288,0.00795004,-0.00697703,0.0114754,-0.00585823,-1.10293,0.0101812,0.0118195,643,785,-26.1491,-0.839752
-574,239,-26.1458,0.176514,-0.00169552,0.00530904,-0.00470854,0.007675,-0.00406148,-1.10516,0.00688229,0.0130665,650,785,-26.1458,-0.17649
-567,239,-26.1791,-0.446411,-0.00146122,0.00292426,-0.00274028,0.00424111,-0.00277807,-1.12283,0.00408177,0.0181029,657,785,-26.1791,0.446389
-560,239,-26.2147,-1.02679,-0.00153611,0.000815268,-0.00105797,0.00122121,-0.00194205,-1.20442,0.00184204,0.0180405,664,785,-26.2147,1.02682
-553,239,-26.2264,-1.64154,-0.0017942,-0.00139853,0.000304454,-0.00123328,-0.00195945,1.07352,0.00114385,0.0141677,671,785,-26.2264,1.64153
-546,239,-26.2794,-2.25317,-0.00240118,-0.00369585,0.00138766,-0.00151729,-0.00457974,0.567155,0.00269381,0.015066,678,785,-26.2794,2.25317
-539,239,-26.3691,-2.87317,-0.0038265,-0.00501723,0.00218334,-0.00215881,-0.00668492,0.652292,0.00393939,0.0169222,685,785,-26.3691,2.87318
-532,239,-26.3761,-3.48572,-0.00525865,-0.00588725,0.00256592,-0.00298785,-0.00815805,0.724457,0.0047659,0.021515,692,785,-26.3761,3.4857
-525,239,-26.4047,-3.90057,-0.0065867,-0.00634653,0.00280104,-0.003663,-0.00927023,0.806821,0.00539126,0.0343208,699,785,-26.4047,3.9006
-518,239,-26.8372,-4.18567,0,0,0,0,0,0,0,-1,706,785,-26.8371,4.18569
-511,239,-20.9849,-2.09235,0,0,0,0,0,0,0,-1,713,785,-20.9848,2.09234
-504,239,-25.5015,2.00421,0,0,0,0,0,0,0,-1,720,785,-25.5015,-2.00422
-497,239,-40.2453,1.4447,0,0,0,0,0,0,0,-1,727,785,-40.2453,-1.4447
-490,239,-40.5136,1.12915,-0.0169327,-0.00870845,0.000825715,-0.00862637,-0.0170148,1.47171,0.00982383,0.0481061,734,785,-40.5136,-1.12916
-483,239,-40.8705,0.911682,-0.0196216,-0.00926453,-0.000631205,-0.00922621,-0.0196599,-1.51015,0.0113578,0.0458512,741,785,-40.8705,-0.911689
-476,239,-40.9444,1.12195,-0.0224108,-0.0100415,-0.00285842,-0.00941294,-0.0230394,-1.35433,0.0133758,0.044323,748,785,-40.9444,-1.12197
-469,239,-40.9955,1.1524,-0.0249241,-0.011171,-0.00587737,-0.00900154,-0.0270936,-1.21719,0.0159333,0.0469466,755,785,-40.9956,-1.15239
-462,239,-41.2054,1.00677,0,0,0,0,0,0,0,-1,762,785,-41.2054,-1.0068
-455,239,0,0,0,0,0,0,0,0,0,-1,769,785,0,0
-448,239,0,0,0,0,0,0,0,0,0,-1,776,785,0,0
-441,239,0,0,0,0,0,0,0,0,0,-1,783,785,0,0
-434,239,0,0,0,0,0,0,0,0,0,-1,790,785,0,0
-427,239,0,0,0,0,0,0,0,0,0,-1,797,785,0,0
-420,239,0,0,0,0,0,0,0,0,0,-1,804,785,0,0
-413,239,0,0,0,0,0,0,0,0,0,-1,811,785,0,0
-406,239,0,0,0,0,0,0,0,0,0,-1,818,785,0,0
-399,239,0,0,0,0,0,0,0,0,0,-1,825,785,0,0
-392,239,0,0,0,0,0,0,0,0,0,-1,832,785,0,0
-385,239,0,0,0,0,0,0,0,0,0,-1,839,785,0,0
-378,239,0,0,0,0,0,0,0,0,0,-1,846,785,0,0
-371,239,0,0,0,0,0,0,0,0,0,-1,853,785,0,0
-364,239,0,0,0,0,0,0,0,0,0,-1,860,785,0,0
-357,239,0,0,0,0,0,0,0,0,0,-1,867,785,0,0
-350,239,0,0,0,0,0,0,0,0,0,-1,874,785,0,0
-343,239,0,0,0,0,0,0,0,0,0,-1,881,785,0,0
-336,239,0,0,0,0,0,0,0,0,0,-1,888,785,0,0
-329,239,0,0,0,0,0,0,0,0,0,-1,895,785,0,0
-322,239,0,0,0,0,0,0,0,0,0,-1,902,785,0,0
-315,239,0,0,0,0,0,0,0,0,0,-1,909,785,0,0
-308,239,0,0,0,0,0,0,0,0,0,-1,916,785,0,0
-301,239,0,0,0,0,0,0,0,0,0,-1,923,785,0,0
-294,239,0,0,0,0,0,0,0,0,0,-1,930,785,0,0
-287,239,0,0,0,0,0,0,0,0,0,-1,937,785,0,0
-280,239,0,0,0,0,0,0,0,0,0,-1,944,785,0,0
-273,239,0,0,0,0,0,0,0,0,0,-1,951,785,0,0
-266,239,0,0,0,0,0,0,0,0,0,-1,958,785,0,0
-259,239,0,0,0,0,0,0,0,0,0,-1,965,785,0,0
-252,239,0,0,0,0,0,0,0,0,0,-1,972,785,0,0
-245,239,0,0,0,0,0,0,0,0,0,-1,979,785,0,0
-238,239,0,0,0,0,0,0,0,0,0,-1,986,785,0,0
-231,239,0,0,0,0,0,0,0,0,0,-1,993,785,0,0
-224,239,0,0,0,0,0,0,0,0,0,-1,1000,785,0,0
-217,239,0,0,0,0,0,0,0,0,0,-1,1007,785,0,0
-210,239,0,0,0,0,0,0,0,0,0,-1,1014,785,0,0
-203,239,0,0,0,0,0,0,0,0,0,-1,1021,785,0,0
-196,239,0,0,0,0,0,0,0,0,0,-1,1028,785,0,0
-189,239,0,0,0,0,0,0,0,0,0,-1,1035,785,0,0
-182,239,0,0,0,0,0,0,0,0,0,-1,1042,785,0,0
-175,239,0,0,0,0,0,0,0,0,0,-1,1049,785,0,0
-168,239,0,0,0,0,0,0,0,0,0,-1,1056,785,0,0
-161,239,0,0,0,0,0,0,0,0,0,-1,1063,785,0,0
-154,239,0,0,0,0,0,0,0,0,0,-1,1070,785,0,0
-147,239,0,0,0,0,0,0,0,0,0,-1,1077,785,0,0
-140,239,0,0,0,0,0,0,0,0,0,-1,1084,785,0,0
-133,239,0,0,0,0,0,0,0,0,0,-1,1091,785,0,0
-126,239,0,0,0,0,0,0,0,0,0,-1,1098,785,0,0
-119,239,0,0,0,0,0,0,0,0,0,-1,1105,785,0,0
-112,239,0,0,0,0,0,0,0,0,0,-1,1112,785,0,0
-105,239,0,0,0,0,0,0,0,0,0,-1,1119,785,0,0
-98,239,0,0,0,0,0,0,0,0,0,-1,1126,785,0,0
-91,239,0,0,0,0,0,0,0,0,0,-1,1133,785,0,0
-84,239,0,0,0,0,0,0,0,0,0,-1,1140,785,0,0
-77,239,0,0,0,0,0,0,0,0,0,-1,1147,785,0,0
-70,239,0,0,0,0,0,0,0,0,0,-1,1154,785,0,0
-63,239,0,0,0,0,0,0,0,0,0,-1,1161,785,0,0
-56,239,0,0,0,0,0,0,0,0,0,-1,1168,785,0,0
-49,239,0,0,0,0,0,0,0,0,0,-1,1175,785,0,0
-42,239,0,0,0,0,0,0,0,0,0,-1,1182,785,0,0
-35,239,0,0,0,0,0,0,0,0,0,-1,1189,785,0,0
-28,239,0,0,0,0,0,0,0,0,0,-1,1196,785,0,0
-21,239,0,0,0,0,0,0,0,0,0,-1,1203,785,0,0
-14,239,0,0,0,0,0,0,0,0,0,-1,1210,785,0,0
-7,239,0,0,0,0,0,0,0,0,0,-1,1217,785,0,0
0,239,0,0,0,0,0,0,0,0,0,-1,1224,785,0,0
7,239,0,0,0,0,0,0,0,0,0,-1,1231,785,0,0
14,239,0,0,0,0,0,0,0,0,0,-1,1238,785,0,0
21,239,0,0,0,0,0,0,0,0,0,-1,1245,785,0,0
28,239,0,0,0,0,0,0,0,0,0,-1,1252,785,0,0
35,239,0,0,0,0,0,0,0,0,0,-1,1259,785,0,0
42,239,0,0,0,0,0,0,0,0,0,-1,1266,785,0,0
49,239,0,0,0,0,0,0,0,0,0,-1,1273,785,0,0
56,239,0,0,0,0,0,0,0,0,0,-1,1280,785,0,0
63,239,0,0,0,0,0,0,0,0,0,-1,1287,785,0,0
70,239,0,0,0,0,0,0,0,0,0,-1,1294,785,0,0
77,239,0,0,0,0,0,0,0,0,0,-1,1301,785,0,0
84,239,0,0,0,0,0,0,0,0,0,-1,1308,785,0,0
91,239,0,0,0,0,0,0,0,0,0,-1,1315,785,0,0
98,239,0,0,0,0,0,0,0,0,0,-1,1322,785,0,0
105,239,0,0,0,0,0,0,0,0,0,-1,1329,785,0,0
112,239,0,0,0,0,0,0,0,0,0,-1,1336,785,0,0
119,239,0,0,0,0,0,0,0,0,0,-1,1343,785,0,0
126,239,0,0,0,0,0,0,0,0,0,-1,1350,785,0,0
133,239,0,0,0,0,0,0,0,0,0,-1,1357,785,0,0
140,239,0,0,0,0,0,0,0,0,0,-1,1364,785,0,0
147,239,0,0,0,0,0,0,0,0,0,-1,1371,785,0,0
154,239,0,0,0,0,0,0,0,0,0,-1,1378,785,0,0
161,239,0,0,0,0,0,0,0,0,0,-1,1385,785,0,0
168,239,0,0,0,0,0,0,0,0,0,-1,1392,785,0,0
175,239,0,0,0,0,0,0,0,0,0,-1,1399,785,0,0
182,239,0,0,0,0,0,0,0,0,0,-1,1406,785,0,0
189,239,0,0,0,0,0,0,0,0,0,-1,1413,785,0,0
196,239,0,0,0,0,0,0,0,0,0,-1,1420,785,0,0
203,239,0,0,0,0,0,0,0,0,0,-1,1427,785,0,0
210,239,0,0,0,0,0,0,0,0,0,-1,1434,785,0,0
217,239,0,0,0,0,0,0,0,0,0,-1,1441,785,0,0
224,239,0,0,0,0,0,0,0,0,0,-1,1448,785,0,0
231,239,0,0,0,0,0,0,0,0,0,-1,1455,785,0,0
238,239,0,0,0,0,0,0,0,0,0,-1,1462,785,0,0
245,239,0,0,0,0,0,0,0,0,0,-1,1469,785,0,0
252,239,0,0,0,0,0,0,0,0,0,-1,1476,785,0,0
259,239,0,0,0,0,0,0,0,0,0,-1,1483,785,0,0
266,239,0,0,0,0,0,0,0,0,0,-1,1490,785,0,0
273,239,0,0,0,0,0,0,0,0,0,-1,1497,785,0,0
280,239,0,0,0,0,0,0,0,0,0,-1,1504,785,0,0
287,239,0,0,0,0,0,0,0,0,0,-1,1511,785,0,0
294,239,0,0,0,0,0,0,0,0,0,-1,1518,785,0,0
301,239,0,0,0,0,0,0,0,0,0,-1,1525,785,0,0
308,239,0,0,0,0,0,0,0,0,0,-1,1532,785,0,0
315,239,0,0,0,0,0,0,0,0,0,-1,1539,785,0,0
322,239,0,0,0,0,0,0,0,0,0,-1,1546,785,0,0
329,239,0,0,0,0,0,0,0,0,0,-1,1553,785,0,0
336,239,0,0,0,0,0,0,0,0,0,-1,1560,785,0,0
343,239,0,0,0,0,0,0,0,0,0,-1,1567,785,0,0
350,239,0,0,0,0,0,0,0,0,0,-1,1574,785,0,0
357,239,0,0,0,0,0,0,0,0,0,-1,1581,785,0,0
364,239,0,0,0,0,0,0,0,0,0,-1,1588,785,0,0
371,239,0,0,0,0,0,0,0,0,0,-1,1595,785,0,0
378,239,0,0,0,0,0,0,0,0,0,-1,1602,785,0,0
385,239,0,0,0,0,0,0,0,0,0,-1,1609,785,0,0
392,239,0,0,0,0,0,0,0,0,0,-1,1616,785,0,0
399,239,0,0,0,0,0,0,0,0,0,-1,1623,785,0,0
406,239,0,0,0,0,0,0,0,0,0,-1,1630,785,0,0
413,239,0,0,0,0,0,0,0,0,0,-1,1637,785,0,0
420,239,0,0,0,0,0,0,0,0,0,-1,1644,785,0,0
427,239,0,0,0,0,0,0,0,0,0,-1,1651,785,0,0
434,239,0,0,0,0,0,0,0,0,0,-1,1658,785,0,0
441,239,0,0,0,0,0,0,0,0,0,-1,1665,785,0,0
448,239,0,0,0,0,0,0,0,0,0,-1,1672,785,0,0
455,239,0,0,0,0,0,0,0,0,0,-1,1679,785,0,0
462,239,0,0,0,0,0,0,0,0,0,-1,1686,785,0,0
469,239,0,0,0,0,0,0,0,0,0,-1,1693,785,0,0
476,239,0,0,0,0,0,0,0,0,0,-1,1700,785,0,0
483,239,0,0,0,0,0,0,0,0,0,-1,1707,785,0,0
490,239,0,0,0,0,0,0,0,0,0,-1,1714,785,0,0
497,239,0,0,0,0,0,0,0,0,0,-1,1721,785,0,0
504,239,0,0,0,0,0,0,0,0,0,-1,1728,785,0,0
511,239,0,0,0,0,0,0,0,0,0,-1,1735,785,0,0
518,239,0,0,0,0,0,0,0,0,0,-1,1742,785,0,0
525,239,0,0,0,0,0,0,0,0,0,-1,1749,785,0,0
532,239,0,0,0,0,0,0,0,0,0,-1,1756,785,0,0
539,239,0,0,0,0,0,0,0,0,0,-1,1763,785,0,0
546,239,0,0,0,0,0,0,0,0,0,-1,1770,785,0,0
553,239,0,0,0,0,0,0,0,0,0,-1,1777,785,0,0
560,239,0,0,0,0,0,0,0,0,0,-1,1784,785,0,0
567,239,0,0,0,0,0,0,0,0,0,-1,1791,785,0,0
574,239,0,0,0,0,0,0,0,0,0,-1,1798,785,0,0
581,239,54.1693,3.03662,0,0,0,0,0,0,0,-1,1805,785,54.1693,-3.03662
588,239,54.0393,3.02136,0.0108682,0.00497808,0.00230728,0.0116644,0.0041819,0.332279,0.00682373,0.0412266,1812,785,54.0393,-3.02137
595,239,54.2775,2.73096,0.00697661,0.00628197,0.00610518,0.0127443,0.000514235,0.756984,0.00833011,0.0365511,1819,785,54.2774,-2.73096
602,239,54.2112,2.89923,0.00481651,0.0061724,0.0067431,0.0122716,-0.00128264,0.835499,0.00864037,0.0396404,1826,785,54.2112,-2.89924
609,239,54.1639,2.90979,0,0,0,0,0,0,0,-1,1833,785,54.164,-2.90978
616,239,53.4398,3.3974,0,0,0,0,0,0,0,-1,1840,785,53.4398,-3.39739
623,239,53.4548,3.46344,0,0,0,0,0,0,0,-1,1847,785,53.4548,-3.46344
630,239,53.4697,3.52948,0,0,0,0,0,0,0,-1,1854,785,53.4698,-3.52949
637,239,39.5542,2.54114,0,0,0,0,0,0,0,-1,1861,785,39.5543,-2.54114
644,239,18.3466,0.735413,0,0,0,0,0,0,0,-1,1868,785,18.3465,-0.735414
651,239,34.2471,-2.15778,0,0,0,0,0,0,0,-1,1875,785,34.2471,2.1578
658,239,37.7711,-2.04297,0,0,0,0,0,0,0,-1,1882,785,37.7711,2.04299
665,239,38.0099,-1.14374,-0.00106861,-0.000890554,-0.00158422,0.000607134,-0.0025663,-0.813467,0.00194509,0.0231459,1889,785,38.0099,1.14372
672,239,38.0466,-0.478943,-0.00142877,-0.000890385,-0.00173442,0.00059561,-0.00291476,-0.862386,0.00216914,0.0200242,1896,785,38.0467,0.478958
679,239,38.0265,0.168213,-0.0015806,-0.000745427,-0.00159387,0.000484647,-0.00281067,-0.913516,0.00205447,0.0231877,1903,785,38.0265,-0.168208
686,239,38.0057,0.842163,-0.00131924,-0.000168307,-0.00113305,0.00052704,-0.00201459,-1.02037,0.00154892,0.0228521,1910,785,38.0057,-0.842184
693,239,37.9904,1.42212,-0.00022047,0.000754912,-0.000373784,0.000881678,-0.000347236,-1.24383,0.000731537,0.0149725,1917,785,37.9903,-1.42213
700,239,37.9635,2.06134,0.00103951,0.00175025,0.000511784,0.00201795,0.000771813,1.08887,0.00117574,0.0116095,1924,785,37.9635,-2.06131
707,239,37.9127,2.71771,0.00229298,0.0028996,0.00147934,0.00410641,0.00108617,0.886512,0.00245692,0.0112928,1931,785,37.9127,-2.71773
714,239,37.8779,3.34131,0.00348217,0.00410766,0.00255303,0.00636703,0.0012228,0.846344,0.0039015,0.0107701,1938,785,37.8779,-3.34133
721,239,37.8176,4.00244,0.00427391,0.00511824,0.00347716,0.00819877,0.00119339,0.845808,0.00511467,0.0242903,1945,785,37.8176,-4.00244
728,239,37.7166,4.67358,0,0,0,0,0,0,0,-1,1952,785,37.7166,-4.67358
735,239,37.2275,6.09485,0,0,0,0,0,0,0,-1,1959,785,37.2276,-6.09486
742,239,32.4141,7.6665,0,0,0,0,0,0,0,-1,1966,785,32.4141,-7.6665
749,239,32.1489,3.4411,0,0,0,0,0,0,0,-1,1973,785,32.149,-3.44109
756,239,32.9064,3.6687,0,0,0,0,0,0,0,-1,1980,785,32.9063,-3.66873
763,239,0,0,0,0,0,0,0,0,0,-1,1987,785,0,0
770,239,0,0,0,0,0,0,0,0,0,-1,1994,785,0,0
777,239,0,0,0,0,0,0,0,0,0,-1,2001,785,0,0
784,239,0,0,0,0,0,0,0,0,0,-1,2008,785,0,0
791,239,0,0,0,0,0,0,0,0,0,-1,2015,785,0,0
798,239,0,0,0,0,0,0,0,0,0,-1,2022,785,0,0
805,239,0,0,0,0,0,0,0,0,0,-1,2029,785,0,0
812,239,0,0,0,0,0,0,0,0,0,-1,2036,785,0,0
-700,232,0,0,0,0,0,0,0,0,0,-1,524,792,0,0
-693,232,0,0,0,0,0,0,0,0,0,-1,531,792,0,0
-686,232,0,0,0,0,0,0,0,0,0,-1,538,792,0,0
-679,232,0,0,0,0,0,0,0,0,0,-1,545,792,0,0
-672,232,0,0,0,0,0,0,0,0,0,-1,552,792,0,0
-665,232,0,0,0,0,0,0,0,0,0,-1,559,792,0,0
-658,232,0,0,0,0,0,0,0,0,0,-1,566,792,0,0
-651,232,0,0,0,0,0,0,0,0,0,-1,573,792,0,0
-644,232,-31.7343,6.23914,0,0,0,0,0,0,0,-1,580,792,-31.7343,-6.23911
-637,232,-30.1556,5.06824,0,0,0,0,0,0,0,-1,587,792,-30.1556,-5.06823
-630,232,-32.2345,1.80212,0,0,0,0,0,0,0,-1,594,792,-32.2345,-1.80211
-623,232,-31.5665,1.05115,0,0,0,0,0,0,0,-1,601,792,-31.5664,-1.05112
-616,232,-30.6812,0.432861,0,0,0,0,0,0,0,-1,608,792,-30.6812,-0.432881
-609,232,-29.7142,-0.478943,0,0,0,0,0,0,0,-1,615,792,-29.7142,0.478965
-602,232,-26.3542,3.77081,0,0,0,0,0,0,0,-1,622,792,-26.3542,-3.77082
-595,232,-26.5208,2.65704,-0.00422017,0.013126,-0.0114,0.0187772,-0.00987131,-1.11059,0.0168045,0.0377518,629,792,-26.5208,-2.65701
-588,232,-26.7188,1.54456,-0.00285852,0.00983268,-0.00818852,0.0138465,-0.00687238,-1.11503,0.0121859,0.0140239,636,792,-26.7188,-1.54453
-581,232,-26.743,0.849487,-0.00179162,0.00692696,-0.0059089,0.00991059,-0.00477525,-1.10321,0.00864994,0.00848894,643,792,-26.743,-0.849511
-574,232,-26.7579,0.231689,-0.00118586,0.00437489,-0.00392745,0.00640652,-0.00321749,-1.09341,0.00565719,0.00863361,650,792,-26.7579,-0.231717
-567,232,-26.8021,-0.384094,-0.00100149,0.00193789,-0.00215929,0.0030802,-0.00214379,-1.0842,0.00303218,0.0115096,657,792,-26.802,0.384125
-560,232,-26.835,-0.983215,-0.00113897,-0.000113756,-0.000642756,0.000195769,-0.0014485,-1.12201,0.0010371,0.0149694,664,792,-26.835,0.983226
-553,232,-26.8791,-1.59943,-0.00144836,-0.0023435,0.000556582,-0.00118171,-0.00261015,0.446767,0.00150921,0.0139003,671,792,-26.8791,1.59941
-546,232,-26.919,-2.22949,-0.00212265,-0.00467479,0.0014451,-0.00147085,-0.00532659,0.423717,0.0031764,0.0217433,678,792,-26.919,2.22951
-539,232,-27.0508,-2.77631,-0.00351843,-0.0056777,0.00204938,-0.0022817,-0.00691443,0.542965,0.00406824,0.0338779,685,792,-27.0508,2.7763
-532,232,-27.2166,-3.35126,-0.00485112,-0.00632783,0.002355,-0.00312144,-0.00805751,0.633489,0.00469117,0.0362933,692,792,-27.2165,3.35125
-525,232,-27.2551,-3.9812,0,0,0,0,0,0,0,-1,699,792,-27.255,3.98121
-518,232,-20.8098,-3.08154,0,0,0,0,0,0,0,-1,706,792,-20.8098,3.08155
-511,232,-21.6708,-0.962708,0,0,0,0,0,0,0,-1,713,792,-21.6708,0.962731
-504,232,-34.2155,0.346985,0,0,0,0,0,0,0,-1,720,792,-34.2155,-0.346955
-497,232,-40.3454,1.54547,0,0,0,0,0,0,0,-1,727,792,-40.3454,-1.54548
-490,232,-40.6143,1.22583,-0.0154899,-0.00792445,0.00111297,-0.00776411,-0.0156502,1.42772,0.00903573,0.0450497,734,792,-40.6143,-1.22585
-483,232,-40.9427,1.16699,-0.017826,-0.00785311,-0.000170868,-0.00785019,-0.0178289,-1.55367,0.0103179,0.0431511,741,792,-40.9428,-1.16698
-476,232,-41.1204,1.01465,-0.0199842,-0.00761164,-0.00219718,-0.00723304,-0.0203628,-1.40016,0.0119197,0.037671,748,792,-41.1204,-1.01467
-469,232,-41.2755,0.926025,-0.0213144,-0.00722094,-0.00493598,-0.00566417,-0.0228712,-1.26528,0.0137538,0.0376491,755,792,-41.2755,-0.926027
-462,232,0,0,0,0,0,0,0,0,0,-1,762,792,0,0
-455,232,0,0,0,0,0,0,0,0,0,-1,769,792,0,0
-448,232,0,0,0,0,0,0,0,0,0,-1,776,792,0,0
-441,232,0,0,0,0,0,0,0,0,0,-1,783,792,0,0
-434,232,0,0,0,0,0,0,0,0,0,-1,790,792,0,0
-427,232,0,0,0,0,0,0,0,0,0,-1,797,792,0,0
-420,232,0,0,0,0,0,0,0,0,0,-1,804,792,0,0
-413,232,0,0,0,0,0,0,0,0,0,-1,811,792,0,0
-406,232,0,0,0,0,0,0,0,0,0,-1,818,792,0,0
-399,232,0,0,0,0,0,0,0,0,0,-1,825,792,0,0
-392,232,0,0,0,0,0,0,0,0,0,-1,832,792,0,0
-385,232,0,0,0,0,0,0,0,0,0,-1,839,792,0,0
-378,232,0,0,0,0,0,0,0,0,0,-1,846,792,0,0
-371,232,0,0,0,0,0,0,0,0,0,-1,853,792,0,0
-364,232,0,0,0,0,0,0,0,0,0,-1,860,792,0,0
-357,232,0,0,0,0,0,0,0,0,0,-1,867,792,0,0
-350,232,0,0,0,0,0,0,0,0,0,-1,874,792,0,0
-343,232,0,0,0,0,0,0,0,0,0,-1,881,792,0,0
-336,232,0,0,0,0,0,0,0,0,0,-1,888,792,0,0
-329,232,0,0,0,0,0,0,0,0,0,-1,895,792,0,0
-322,232,0,0,0,0,0,0,0,0,0,-1,902,792,0,0
-315,232,0,0,0,0,0,0,0,0,0,-1,909,792,0,0
-308,232,0,0,0,0,0,0,0,0,0,-1,916,792,0,0
-301,232,0,0,0,0,0,0,0,0,0,-1,923,792,0,0
-294,232,0,0,0,0,0,0,0,0,0,-1,930,792,0,0
-287,232,0,0,0,0,0,0,0,0,0,-1,937,792,0,0
-280,232,0,0,0,0,0,0,0,0,0,-1,944,792,0,0
-273,232,0,0,0,0,0,0,0,0,0,-1,951,792,0,0
-266,232,0,0,0,0,0,0,0,0,0,-1,958,792,0,0
-259,232,0,0,0,0,0,0,0,0,0,-1,965,792,0,0
-252,232,0,0,0,0,0,0,0,0,0,-1,972,792,0,0
-245,232,0,0,0,0,0,0,0,0,0,-1,979,792,0,0
-238,232,0,0,0,0,0,0,0,0,0,-1,986,792,0,0
-231,232,0,0,0,0,0,0,0,0,0,-1,993,792,0,0
-224,232,0,0,0,0,0,0,0,0,0,-1,1000,792,0,0
-217,232,0,0,0,0,0,0,0,0,0,-1,1007,792,0,0
-210,232,0,0,0,0,0,0,0,0,0,-1,1014,792,0,0
-203,232,0,0,0,0,0,0,0,0,0,-1,1021,792,0,0
-196,232,0,0,0,0,0,0,0,0,0,-1,1028,792,0,0
-189,232,0,0,0,0,0,0,0,0,0,-1,1035,792,0,0
-182,232,0,0,0,0,0,0,0,0,0,-1,1042,792,0,0
-175,232,0,0,0,0,0,0,0,0,0,-1,1049,792,0,0
-168,232,0,0,0,0,0,0,0,0,0,-1,1056,792,0,0
-161,232,0,0,0,0,0,0,0,0,0,-1,1063,792,0,0
-154,232,0,0,0,0,0,0,0,0,0,-1,1070,792,0,0
-147,232,0,0,0,0,0,0,0,0,0,-1,1077,792,0,0
-140,232,0,0,0,0,0,0,0,0,0,-1,1084,792,0,0
-133,232,0,0,0,0,0,0,0,0,0,-1,1091,792,0,0
-126,232,0,0,0,0,0,0,0,0,0,-1,1098,792,0,0
-119,232,0,0,0,0,0,0,0,0,0,-1,1105,792,0,0
-112,232,0,0,0,0,0,0,0,0,0,-1,1112,792,0,0
-105,232,0,0,0,0,0,0,0,0,0,-1,1119,792,0,0
-98,232,0,0,0,0,0,0,0,0,0,-1,1126,792,0,0
-91,232,0,0,0,0,0,0,0,0,0,-1,1133,792,0,0
-84,232,0,0,0,0,0,0,0,0,0,-1,1140,792,0,0
-77,232,0,0,0,0,0,0,0,0,0,-1,1147,792,0,0
-70,232,0,0,0,0,0,0,0,0,0,-1,1154,792,0,0
-63,232,0,0,0,0,0,0,0,0,0,-1,1161,792,0,0
-56,232,0,0,0,0,0,0,0,0,0,-1,1168,792,0,0
-49,232,0,0,0,0,0,0,0,0,0,-1,1175,792,0,0
-42,232,0,0,0,0,0,0,0,0,0,-1,1182,792,0,0
-35,232,0,0,0,0,0,0,0,0,0,-1,1189,792,0,0
-28,232,0,0,0,0,0,0,0,0,0,-1,1196,792,0,0
-21,232,0,0,0,0,0,0,0,0,0,-1,1203,792,0,0
-14,232,0,0,0,0,0,0,0,0,0,-1,1210,792,0,0
-7,232,0,0,0,0,0,0,0,0,0,-1,1217,792,0,0
0,232,0,0,0,0,0,0,0,0,0,-1,1224,792,0,0
7,232,0,0,0,0,0,0,0,0,0,-1,1231,792,0,0
14,232,0,0,0,0,0,0,0,0,0,-1,1238,792,0,0
21,232,0,0,0,0,0,0,0,0,0,-1,1245,792,0,0
28,232,0,0,0,0,0,0,0,0,0,-1,1252,792,0,0
35,232,0,0,0,0,0,0,0,0,0,-1,1259,792,0,0
42,232,0,0,0,0,0,0,0,0,0,-1,1266,792,0,0
49,232,0,0,0,0,0,0,0,0,0,-1,1273,792,0,0
56,232,0,0,0,0,0,0,0,0,0,-1,1280,792,0,0
63,232,0,0,0,0,0,0,0,0,0,-1,1287,792,0,0
70,232,0,0,0,0,0,0,0,0,0,-1,1294,792,0,0
77,232,0,0,0,0,0,0,0,0,0,-1,1301,792,0,0
84,232,0,0,0,0,0,0,0,0,0,-1,1308,792,0,0
91,232,0,0,0,0,0,0,0,0,0,-1,1315,792,0,0
98,232,0,0,0,0,0,0,0,0,0,-1,1322,792,0,0
105,232,0,0,0,0,0,0,0,0,0,-1,1329,792,0,0
112,232,0,0,0,0,0,0,0,0,0,-1,1336,792,0,0
119,232,0,0,0,0,0,0,0,0,0,-1,1343,792,0,0
126,232,0,0,0,0,0,0,0,0,0,-1,1350,792,0,0
133,232,0,0,0,0,0,0,0,0,0,-1,1357,792,0,0
140,232,0,0,0,0,0,0,0,0,0,-1,1364,792,0,0
147,232,0,0,0,0,0,0,0,0,0,-1,1371,792,0,0
154,232,0,0,0,0,0,0,0,0,0,-1,1378,792,0,0
161,232,0,0,0,0,0,0,0,0,0,-1,1385,792,0,0
168,232,0,0,0,0,0,0,0,0,0,-1,1392,792,0,0
175,232,0,0,0,0,0,0,0,0,0,-1,1399,792,0,0
182,232,0,0,0,0,0,0,0,0,0,-1,1406,792,0,0
189,232,0,0,0,0,0,0,0,0,0,-1,1413,792,0,0
196,232,0,0,0,0,0,0,0,0,0,-1,1420,792,0,0
203,232,0,0,0,0,0,0,0,0,0,-1,1427,792,0,0
210,232,0,0,0,0,0,0,0,0,0,-1,1434,792,0,0
217,232,0,0,0,0,0,0,0,0,0,-1,1441,792,0,0
224,232,0,0,0,0,0,0,0,0,0,-1,1448,792,0,0
231,232,0,0,0,0,0,0,0,0,0,-1,1455,792,0,0
238,232,0,0,0,0,0,0,0,0,0,-1,1462,792,0,0
245,232,0,0,0,0,0,0,0,0,0,-1,1469,792,0,0
252,232,0,0,0,0,0,0,0,0,0,-1,1476,792,0,0
259,232,0,0,0,0,0,0,0,0,0,-1,1483,792,0,0
266,232,0,0,0,0,0,0,0,0,0,-1,1490,792,0,0
273,232,0,0,0,0,0,0,0,0,0,-1,1497,792,0,0
280,232,0,0,0,0,0,0,0,0,0,-1,1504,792,0,0
287,232,0,0,0,0,0,0,0,0,0,-1,1511,792,0,0
294,232,0,0,0,0,0,0,0,0,0,-1,1518,792,0,0
301,232,0,0,0,0,0,0,0,0,0,-1,1525,792,0,0
308,232,0,0,0,0,0,0,0,0,0,-1,1532,792,0,0
315,232,0,0,0,0,0,0,0,0,0,-1,1539,792,0,0
322,232,0,0,0,0,0,0,0,0,0,-1,1546,792,0,0
329,232,0,0,0,0,0,0,0,0,0,-1,1553,792,0,0
336,232,0,0,0,0,0,0,0,0,0,-1,1560,792,0,0
343,232,0,0,0,0,0,0,0,0,0,-1,1567,792,0,0
350,232,0,0,0,0,0,0,0,0,0,-1,1574,792,0,0
357,232,0,0,0,0,0,0,0,0,0,-1,1581,792,0,0
364,232,0,0,0,0,0,0,0,0,0,-1,1588,792,0,0
371,232,0,0,0,0,0,0,0,0,0,-1,1595,792,0,0
378,232,0,0,0,0,0,0,0,0,0,-1,1602,792,0,0
385,232,0,0,0,0,0,0,0,0,0,-1,1609,792,0,0
392,232,0,0,0,0,0,0,0,0,0,-1,1616,792,0,0
399,232,0,0,0,0,0,0,0,0,0,-1,1623,792,0,0
406,232,0,0,0,0,0,0,0,0,0,-1,1630,792,0,0
413,232,0,0,0,0,0,0,0,0,0,-1,1637,792,0,0
420,232,0,0,0,0,0,0,0,0,0,-1,1644,792,0,0
427,232,0,0,0,0,0,0,0,0,0,-1,1651,792,0,0
434,232,0,0,0,0,0,0,0,0,0,-1,1658,792,0,0
441,232,0,0,0,0,0,0,0,0,0,-1,1665,792,0,0
448,232,0,0,0,0,0,0,0,0,0,-1,1672,792,0,0
455,232,0,0,0,0,0,0,0,0,0,-1,1679,792,0,0
462,232,0,0,0,0,0,0,0,0,0,-1,1686,792,0,0
469,232,0,0,0,0,0,0,0,0,0,-1,1693,792,0,0
476,232,0,0,0,0,0,0,0,0,0,-1,1700,792,0,0
483,232,0,0,0,0,0,0,0,0,0,-1,1707,792,0,0
490,232,0,0,0,0,0,0,0,0,0,-1,1714,792,0,0
497,232,0,0,0,0,0,0,0,0,0,-1,1721,792,0,0
504,232,0,0,0,0,0,0,0,0,0,-1,1728,792,0,0
511,232,0,0,0,0,0,0,0,0,0,-1,1735,792,0,0
518,232,0,0,0,0,0,0,0,0,0,-1,1742,792,0,0
525,232,0,0,0,0,0,0,0,0,0,-1,1749,792,0,0
532,232,0,0,0,0,0,0,0,0,0,-1,1756,792,0,0
539,232,0,0,0,0,0,0,0,0,0,-1,1763,792,0,0
546,232,0,0,0,0,0,0,0,0,0,-1,1770,792,0,0
553,232,0,0,0,0,0,0,0,0,0,-1,1777,792,0,0
560,232,0,0,0,0,0,0,0,0,0,-1,1784,792,0,0
567,232,0,0,0,0,0,0,0,0,0,-1,1791,792,0,0
574,232,0,0,0,0,0,0,0,0,0,-1,1798,792,0,0
581,232,0,0,0,0,0,0,0,0,0,-1,1805,792,0,0
588,232,54.002,3.25842,0.0111785,0.00345807,-0.00295773,0.0121814,0.00245522,-0.326896,0.00743883,0.0379273,1812,792,54.0019,-3.25841
595,232,54.1613,2.8233,0.00736263,0.00499207,0.00209393,0.00858347,0.00377122,0.527856,0.0049678,0.0357206,1819,792,54.1612,-2.82332
602,232,54.2106,2.72607,0.00511849,0.00527558,0.00401879,0.00921659,0.00117748,0.795169,0.00579194,0.03444,1826,792,54.2106,-2.72608
609,232,54.1875,2.8075,0.00388804,0.0049297,0.00426159,0.00870216,0.000115575,0.846204,0.0057633,0.0443122,1833,792,54.1875,-2.80749
616,232,54.2375,2.78027,0,0,0,0,0,0,0,-1,1840,792,54.2376,-2.78028
623,232,53.8872,3.32758,0,0,0,0,0,0,0,-1,1847,792,53.8872,-3.32755
630,232,54.3037,3.08704,0,0,0,0,0,0,0,-1,1854,792,54.3037,-3.08705
637,232,47.0471,4.04309,0,0,0,0,0,0,0,-1,1861,792,47.0471,-4.04309
644,232,30.7756,4.24139,0,0,0,0,0,0,0,-1,1868,792,30.7757,-4.24141
651,232,31.6797,-0.564087,0,0,0,0,0,0,0,-1,1875,792,31.6797,0.564059
658,232,38.8883,-1.71503,0,0,0,0,0,0,0,-1,1882,792,38.8883,1.71501
665,232,38.7341,-1.10504,-0.00141461,-0.000631219,-0.00184419,0.000862418,-0.00290825,-0.89004,0.00228131,0.0298874,1889,792,38.7341,1.10505
672,232,38.6189,-0.438049,-0.00188789,-0.000734825,-0.00208892,0.000855666,-0.00347838,-0.920043,0.00265058,0.0332254,1896,792,38.6189,0.438071
679,232,38.642,0.227722,-0.00223643,-0.000874443,-0.0020635,0.00061753,-0.0037284,-0.94478,0.00271496,0.021038,1903,792,38.642,-0.227719
686,232,38.6466,0.906006,-0.00223847,-0.000516243,-0.00170254,0.000530566,-0.00328528,-1.01953,0.00238678,0.0195735,1910,792,38.6466,-0.906007
693,232,38.6183,1.47314,-0.00123048,0.000263089,-0.00101287,0.000774712,-0.0017421,-1.10306,0.00148843,0.0113911,1917,792,38.6183,-1.47312
700,232,38.593,2.0835,5.13871e-05,0.00117344,-0.000153433,0.00119404,3.07845e-05,-1.43732,0.000785968,0.0133606,1924,792,38.593,-2.08347
707,232,38.5634,2.73315,0.00133103,0.00228291,0.000752567,0.00269741,0.000916533,1.06736,0.00158377,0.0128891,1931,792,38.5634,-2.73317
714,232,38.5344,3.35919,0.0024667,0.00343032,0.00170991,0.004725,0.00117201,0.922725,0.00284109,0.0135589,1938,792,38.5345,-3.35917
721,232,38.4939,3.98901,0.00316521,0.00445753,0.00248258,0.00637667,0.00124607,0.912713,0.00390264,0.0229624,1945,792,38.4939,-3.98899
728,232,38.3978,4.67047,0,0,0,0,0,0,0,-1,1952,792,38.3978,-4.67048
735,232,37.4669,5.34619,0,0,0,0,0,0,0,-1,1959,792,37.4669,-5.3462
742,232,25.6461,6.00684,0,0,0,0,0,0,0,-1,1966,792,25.6461,-6.00684
749,232,31.2874,3.74713,0,0,0,0,0,0,0,-1,1973,792,31.2874,-3.74713
756,232,32.1207,3.896,0,0,0,0,0,0,0,-1,1980,792,32.1207,-3.89597
763,232,32.7255,4.05878,0,0,0,0,0,0,0,-1,1987,792,32.7255,-4.05881
770,232,0,0,0,0,0,0,0,0,0,-1,1994,792,0,0
777,232,0,0,0,0,0,0,0,0,0,-1,2001,792,0,0
784,232,0,0,0,0,0,0,0,0,0,-1,2008,792,0,0
791,232,0,0,0,0,0,0,0,0,0,-1,2015,792,0,0
798,232,0,0,0,0,0,0,0,0,0,-1,2022,792,0,0
805,232,0,0,0,0,0,0,0,0,0,-1,2029,792,0,0
812,232,0,0,0,0,0,0,0,0,0,-1,2036,792,0,0
-700,225,0,0,0,0,0,0,0,0,0,-1,524,799,0,0
-693,225,0,0,0,0,0,0,0,0,0,-1,531,799,0,0
-686,225,0,0,0,0,0,0,0,0,0,-1,538,799,0,0
-679,225,0,0,0,0,0,0,0,0,0,-1,545,799,0,0
-672,225,0,0,0,0,0,0,0,0,0,-1,552,799,0,0
-665,225,0,0,0,0,0,0,0,0,0,-1,559,799,0,0
-658,225,0,0,0,0,0,0,0,0,0,-1,566,799,0,0
-651,225,0,0,0,0,0,0,0,0,0,-1,573,799,0,0
-644,225,-31.6232,6.26855,0,0,0,0,0,0,0,-1,580,799,-31.6231,-6.26854
-637,225,-31.4901,6.06842,0,0,0,0,0,0,0,-1,587,799,-31.4901,-6.06839
-630,225,-29.8912,5.02606,0,0,0,0,0,0,0,-1,594,799,-29.8912,-5.02606
-623,225,-32.8276,-0.00836182,0,0,0,0,0,0,0,-1,601,799,-32.8276,0.00837668
-616,225,-32.0569,-0.549255,0,0,0,0,0,0,0,-1,608,799,-32.0569,0.549265
-609,225,-26.2969,3.82703,0,0,0,0,0,0,0,-1,615,799,-26.2969,-3.827
-602,225,-27.4563,2.91553,0,0,0,0,0,0,0,-1,622,799,-27.4563,-2.9155
-595,225,-27.4041,2.18622,-0.00363236,0.0117838,-0.00913425,0.0160277,-0.00787623,-1.13586,0.0140659,0.0320221,629,799,-27.4041,-2.18623
-588,225,-27.355,1.47626,-0.00235446,0.00872543,-0.00648346,0.0117135,-0.00534249,-1.13894,0.0100736,0.0132292,636,799,-27.355,-1.47624
-581,225,-27.3661,0.864014,-0.00132931,0.00592782,-0.00464277,0.00819177,-0.00359326,-1.11709,0.00697461,0.0106269,643,799,-27.3661,-0.864038
-574,225,-27.3921,0.246521,-0.000732293,0.00343096,-0.00298567,0.00498903,-0.00229036,-1.08982,0.00429795,0.00880666,650,799,-27.3921,-0.246544
-567,225,-27.4104,-0.382507,-0.000583167,0.000938896,-0.00150964,0.00186848,-0.00151275,-1.01886,0.00195575,0.0123174,657,799,-27.4104,0.382509
-560,225,-27.4571,-0.971863,-0.000804082,-0.00106649,-0.000262582,-0.000641749,-0.00122882,-0.553707,0.000709696,0.0131415,664,799,-27.4571,0.971841
-553,225,-27.4888,-1.58136,-0.00117494,-0.00325142,0.000660961,-0.000982406,-0.00344396,0.283455,0.00204859,0.0116953,671,799,-27.4888,1.58135
-546,225,-27.5204,-2.19159,-0.00190565,-0.00549048,0.0012548,-0.00151008,-0.00588605,0.305384,0.00353003,0.0212505,678,799,-27.5204,2.19162
-539,225,-27.5751,-2.75592,-0.00319955,-0.00613192,0.00164141,-0.00246484,-0.00686663,0.420862,0.00401668,0.0473633,685,799,-27.5751,2.75592
-532,225,-27.7717,-3.25012,-0.0043934,-0.00658975,0.00186525,-0.00332706,-0.00765609,0.519342,0.00443285,0.04925,692,799,-27.7717,3.25013
-525,225,-28.1173,-3.57904,0,0,0,0,0,0,0,-1,699,799,-28.1173,3.57906
-518,225,-21.963,0.171326,0,0,0,0,0,0,0,-1,706,799,-21.9629,-0.171319
-511,225,-33.0002,0.660217,0,0,0,0,0,0,0,-1,713,799,-33.0002,-0.660239
-504,225,-40.6904,0.617126,0,0,0,0,0,0,0,-1,720,799,-40.6905,-0.617111
-497,225,-40.8214,0.691406,-0.0120016,-0.00752095,0.00194878,-0.00679196,-0.0127306,1.21284,0.00735551,0.0482047,727,799,-40.8214,-0.691392
-490,225,-40.9242,1.04065,-0.0137741,-0.00703832,0.00133425,-0.00678366,-0.0140288,1.3822,0.00810099,0.0396287,734,799,-40.9242,-1.04064
-483,225,-41.0464,1.00262,-0.0154741,-0.00610933,0.000283897,-0.00610073,-0.0154827,1.54052,0.0090056,0.0338144,741,799,-41.0464,-1.00261
-476,225,-41.1949,0.918884,-0.0164507,-0.00431501,-0.00147822,-0.00413755,-0.0166281,-1.45132,0.00999587,0.0317585,748,799,-41.1949,-0.91888
-469,225,-41.2973,0.849548,-0.0156545,-0.00151584,-0.00397213,-0.000476339,-0.016694,-1.31484,0.010974,0.036511,755,799,-41.2973,-0.849571
-462,225,0,0,0,0,0,0,0,0,0,-1,762,799,0,0
-455,225,0,0,0,0,0,0,0,0,0,-1,769,799,0,0
-448,225,0,0,0,0,0,0,0,0,0,-1,776,799,0,0
-441,225,0,0,0,0,0,0,0,0,0,-1,783,799,0,0
-434,225,0,0,0,0,0,0,0,0,0,-1,790,799,0,0
-427,225,0,0,0,0,0,0,0,0,0,-1,797,799,0,0
-420,225,0,0,0,0,0,0,0,0,0,-1,804,799,0,0
-413,225,0,0,0,0,0,0,0,0,0,-1,811,799,0,0
-406,225,0,0,0,0,0,0,0,0,0,-1,818,799,0,0
-399,225,0,0,0,0,0,0,0,0,0,-1,825,799,0,0
-392,225,0,0,0,0,0,0,0,0,0,-1,832,799,0,0
-385,225,0,0,0,0,0,0,0,0,0,-1,839,799,0,0
-378,225,0,0,0,0,0,0,0,0,0,-1,846,799,0,0
-371,225,0,0,0,0,0,0,0,0,0,-1,853,799,0,0
-364,225,0,0,0,0,0,0,0,0,0,-1,860,799,0,0
-357,225,0,0,0,0,0,0,0,0,0,-1,867,799,0,0
-350,225,0,0,0,0,0,0,0,0,0,-1,874,799,0,0
-343,225,0,0,0,0,0,0,0,0,0,-1,881,799,0,0
-336,225,0,0,0,0,0,0,0,0,0,-1,888,799,0,0
-329,225,0,0,0,0,0,0,0,0,0,-1,895,799,0,0
-322,225,0,0,0,0,0,0,0,0,0,-1,902,799,0,0
-315,225,0,0,0,0,0,0,0,0,0,-1,909,799,0,0
-308,225,0,0,0,0,0,0,0,0,0,-1,916,799,0,0
-301,225,0,0,0,0,0,0,0,0,0,-1,923,799,0,0
-294,225,0,0,0,0,0,0,0,0,0,-1,930,799,0,0
-287,225,0,0,0,0,0,0,0,0,0,-1,937,799,0,0
-280,225,0,0,0,0,0,0,0,0,0,-1,944,799,0,0
-273,225,0,0,0,0,0,0,0,0,0,-1,951,799,0,0
-266,225,0,0,0,0,0,0,0,0,0,-1,958,799,0,0
-259,225,0,0,0,0,0,0,0,0,0,-1,965,799,0,0
-252,225,0,0,0,0,0,0,0,0,0,-1,972,799,0,0
-245,225,0,0,0,0,0,0,0,0,0,-1,979,799,0,0
-238,225,0,0,0,0,0,0,0,0,0,-1,986,799,0,0
-231,225,0,0,0,0,0,0,0,0,0,-1,993,799,0,0
-224,225,0,0,0,0,0,0,0,0,0,-1,1000,799,0,0
-217,225,0,0,0,0,0,0,0,0,0,-1,1007,799,0,0
-210,225,0,0,0,0,0,0,0,0,0,-1,1014,799,0,0
-203,225,0,0,0,0,0,0,0,0,0,-1,1021,799,0,0
-196,225,0,0,0,0,0,0,0,0,0,-1,1028,799,0,0
-189,225,0,0,0,0,0,0,0,0,0,-1,1035,799,0,0
-182,225,0,0,0,0,0,0,0,0,0,-1,1042,799,0,0
-175,225,0,0,0,0,0,0,0,0,0,-1,1049,799,0,0
-168,225,0,0,0,0,0,0,0,0,0,-1,1056,799,0,0
-161,225,0,0,0,0,0,0,0,0,0,-1,1063,799,0,0
-154,225,0,0,0,0,0,0,0,0,0,-1,1070,799,0,0
-147,225,0,0,0,0,0,0,0,0,0,-1,1077,799,0,0
-140,225,0,0,0,0,0,0,0,0,0,-1,1084,799,0,0
-133,225,0,0,0,0,0,0,0,0,0,-1,1091,799,0,0
-126,225,0,0,0,0,0,0,0,0,0,-1,1098,799,0,0
-119,225,0,0,0,0,0,0,0,0,0,-1,1105,799,0,0
-112,225,0,0,0,0,0,0,0,0,0,-1,1112,799,0,0
-105,225,0,0,0,0,0,0,0,0,0,-1,1119,799,0,0
-98,225,0,0,0,0,0,0,0,0,0,-1,1126,799,0,0
-91,225,0,0,0,0,0,0,0,0,0,-1,1133,799,0,0
-84,225,0,0,0,0,0,0,0,0,0,-1,1140,799,0,0
-77,225,0,0,0,0,0,0,0,0,0,-1,1147,799,0,0
-70,225,0,0,0,0,0,0,0,0,0,-1,1154,799,0,0
-63,225,0,0,0,0,0,0,0,0,0,-1,1161,799,0,0
-56,225,0,0,0,0,0,0,0,0,0,-1,1168,799,0,0
-49,225,0,0,0,0,0,0,0,0,0,-1,1175,799,0,0
-42,225,0,0,0,0,0,0,0,0,0,-1,1182,799,0,0
-35,225,0,0,0,0,0,0,0,0,0,-1,1189,799,0,0
-28,225,0,0,0,0,0,0,0,0,0,-1,1196,799,0,0
-21,225,0,0,0,0,0,0,0,0,0,-1,1203,799,0,0
-14,225,0,0,0,0,0,0,0,0,0,-1,1210,799,0,0
-7,225,0,0,0,0,0,0,0,0,0,-1,1217,799,0,0
0,225,0,0,0,0,0,0,0,0,0,-1,1224,799,0,0
7,225,0,0,0,0,0,0,0,0,0,-1,1231,799,0,0
14,225,0,0,0,0,0,0,0,0,0,-1,1238,799,0,0
21,225,0,0,0,0,0,0,0,0,0,-1,1245,799,0,0
28,225,0,0,0,0,0,0,0,0,0,-1,1252,799,0,0
35,225,0,0,0,0,0,0,0,0,0,-1,1259,799,0,0
42,225,0,0,0,0,0,0,0,0,0,-1,1266,799,0,0
49,225,0,0,0,0,0,0,0,0,0,-1,1273,799,0,0
56,225,0,0,0,0,0,0,0,0,0,-1,1280,799,0,0
63,225,0,0,0,0,0,0,0,0,0,-1,1287,799,0,0
70,225,0,0,0,0,0,0,0,0,0,-1,1294,799,0,0
77,225,0,0,0,0,0,0,0,0,0,-1,1301,799,0,0
84,225,0,0,0,0,0,0,0,0,0,-1,1308,799,0,0
91,225,0,0,0,0,0,0,0,0,0,-1,1315,799,0,0
98,225,0,0,0,0,0,0,0,0,0,-1,1322,799,0,0
105,225,0,0,0,0,0,0,0,0,0,-1,1329,799,0,0
112,225,0,0,0,0,0,0,0,0,0,-1,1336,799,0,0
119,225,0,0,0,0,0,0,0,0,0,-1,1343,799,0,0
126,225,0,0,0,0,0,0,0,0,0,-1,1350,799,0,0
133,225,0,0,0,0,0,0,0,0,0,-1,1357,799,0,0
140,225,0,0,0,0,0,0,0,0,0,-1,1364,799,0,0
147,225,0,0,0,0,0,0,0,0,0,-1,1371,799,0,0
154,225,0,0,0,0,0,0,0,0,0,-1,1378,799,0,0
161,225,0,0,0,0,0,0,0,0,0,-1,1385,799,0,0
168,225,0,0,0,0,0,0,0,0,0,-1,1392,799,0,0
175,225,0,0,0,0,0,0,0,0,0,-1,1399,799,0,0
182,225,0,0,0,0,0,0,0,0,0,-1,1406,799,0,0
189,225,0,0,0,0,0,0,0,0,0,-1,1413,799,0,0
196,225,0,0,0,0,0,0,0,0,0,-1,1420,799,0,0
203,225,0,0,0,0,0,0,0,0,0,-1,1427,799,0,0
210,225,0,0,0,0,0,0,0,0,0,-1,1434,799,0,0
217,225,0,0,0,0,0,0,0,0,0,-1,1441,799,0,0
224,225,0,0,0,0,0,0,0,0,0,-1,1448,799,0,0
231,225,0,0,0,0,0,0,0,0,0,-1,1455,799,0,0
238,225,0,0,0,0,0,0,0,0,0,-1,1462,799,0,0
245,225,0,0,0,0,0,0,0,0,0,-1,1469,799,0,0
252,225,0,0,0,0,0,0,0,0,0,-1,1476,799,0,0
259,225,0,0,0,0,0,0,0,0,0,-1,1483,799,0,0
266,225,0,0,0,0,0,0,0,0,0,-1,1490,799,0,0
273,225,0,0,0,0,0,0,0,0,0,-1,1497,799,0,0
280,225,0,0,0,0,0,0,0,0,0,-1,1504,799,0,0
287,225,0,0,0,0,0,0,0,0,0,-1,1511,799,0,0
294,225,0,0,0,0,0,0,0,0,0,-1,1518,799,0,0
301,225,0,0,0,0,0,0,0,0,0,-1,1525,799,0,0
308,225,0,0,0,0,0,0,0,0,0,-1,1532,799,0,0
315,225,0,0,0,0,0,0,0,0,0,-1,1539,799,0,0
322,225,0,0,0,0,0,0,0,0,0,-1,1546,799,0,0
329,225,0,0,0,0,0,0,0,0,0,-1,1553,799,0,0
336,225,0,0,0,0,0,0,0,0,0,-1,1560,799,0,0
343,225,0,0,0,0,0,0,0,0,0,-1,1567,799,0,0
350,225,0,0,0,0,0,0,0,0,0,-1,1574,799,0,0
357,225,0,0,0,0,0,0,0,0,0,-1,1581,799,0,0
364,225,0,0,0,0,0,0,0,0,0,-1,1588,799,0,0
371,225,0,0,0,0,0,0,0,0,0,-1,1595,799,0,0
378,225,0,0,0,0,0,0,0,0,0,-1,1602,799,0,0
385,225,0,0,0,0,0,0,0,0,0,-1,1609,799,0,0
392,225,0,0,0,0,0,0,0,0,0,-1,1616,799,0,0
399,225,0,0,0,0,0,0,0,0,0,-1,1623,799,0,0
406,225,0,0,0,0,0,0,0,0,0,-1,1630,799,0,0
413,225,0,0,0,0,0,0,0,0,0,-1,1637,799,0,0
420,225,0,0,0,0,0,0,0,0,0,-1,1644,799,0,0
427,225,0,0,0,0,0,0,0,0,0,-1,1651,799,0,0
434,225,0,0,0,0,0,0,0,0,0,-1,1658,799,0,0
441,225,0,0,0,0,0,0,0,0,0,-1,1665,799,0,0
448,225,0,0,0,0,0,0,0,0,0,-1,1672,799,0,0
455,225,0,0,0,0,0,0,0,0,0,-1,1679,799,0,0
462,225,0,0,0,0,0,0,0,0,0,-1,1686,799,0,0
469,225,0,0,0,0,0,0,0,0,0,-1,1693,799,0,0
476,225,0,0,0,0,0,0,0,0,0,-1,1700,799,0,0
483,225,0,0,0,0,0,0,0,0,0,-1,1707,799,0,0
490,225,0,0,0,0,0,0,0,0,0,-1,1714,799,0,0
497,225,0,0,0,0,0,0,0,0,0,-1,1721,799,0,0
504,225,0,0,0,0,0,0,0,0,0,-1,1728,799,0,0
511,225,0,0,0,0,0,0,0,0,0,-1,1735,799,0,0
518,225,0,0,0,0,0,0,0,0,0,-1,1742,799,0,0
525,225,0,0,0,0,0,0,0,0,0,-1,1749,799,0,0
532,225,0,0,0,0,0,0,0,0,0,-1,1756,799,0,0
539,225,0,0,0,0,0,0,0,0,0,-1,1763,799,0,0
546,225,0,0,0,0,0,0,0,0,0,-1,1770,799,0,0
553,225,0,0,0,0,0,0,0,0,0,-1,1777,799,0,0
560,225,0,0,0,0,0,0,0,0,0,-1,1784,799,0,0
567,225,0,0,0,0,0,0,0,0,0,-1,1791,799,0,0
574,225,0,0,0,0,0,0,0,0,0,-1,1798,799,0,0
581,225,0,0,0,0,0,0,0,0,0,-1,1805,799,0,0
588,225,54.0221,3.12781,0.0108433,0.00353261,-0.00678206,0.0148923,-0.000516459,-0.538231,0.0101048,0.0385524,1812,799,54.0221,-3.1278
595,225,54.1322,2.83771,0.00747908,0.00469601,-0.00141036,0.00806883,0.00410626,-0.396059,0.00465879,0.0352127,1819,799,54.1322,-2.83769
602,225,54.2181,2.72717,0.00533443,0.0049822,0.00145471,0.00662364,0.00369298,0.725158,0.0038326,0.0326603,1826,799,54.2181,-2.72718
609,225,54.234,2.81128,0.00409506,0.00475675,0.0025399,0.00698726,0.00186454,0.850163,0.00417774,0.0327822,1833,799,54.234,-2.81125
616,225,54.1952,2.82434,0.00323875,0.00396876,0.00235312,0.00598501,0.0012225,0.862343,0.00365137,0.0404472,1840,799,54.1951,-2.82431
623,225,54.1079,3.01489,0.0023663,0.00309989,0.00151061,0.00428759,0.00117859,0.9045,0.00255771,0.0420333,1847,799,54.108,-3.0149
630,225,54.3737,2.91144,0.00155439,0.00241893,0.000751742,0.00285382,0.00111949,1.04633,0.00166035,0.0446006,1854,799,54.3737,-2.91142
637,225,54.7838,2.68109,0,0,0,0,0,0,0,-1,1861,799,54.7838,-2.68109
644,225,42.0298,2.46411,0,0,0,0,0,0,0,-1,1868,799,42.0298,-2.4641
651,225,27.9657,0.579529,0,0,0,0,0,0,0,-1,1875,799,27.9657,-0.579541
658,225,40.2822,-1.10138,0,0,0,0,0,0,0,-1,1882,799,40.2823,1.10137
665,225,39.6676,-0.810181,-0.00175833,-0.000402799,-0.00200127,0.00103236,-0.00319349,-0.94867,0.00254393,0.0347956,1889,799,39.6675,0.810157
672,225,39.3229,-0.284729,-0.00226831,-0.000608828,-0.00230083,0.0010073,-0.00388444,-0.958454,0.00298264,0.0352078,1896,799,39.3229,0.284741
679,225,39.2988,0.295532,-0.00276457,-0.0010725,-0.00241954,0.000644657,-0.00448173,-0.953588,0.00322426,0.0234394,1903,799,39.2989,-0.295507
686,225,39.2942,0.893311,-0.00302313,-0.000885043,-0.00218638,0.000479657,-0.00438783,-1.01278,0.00309751,0.0116649,1910,799,39.2942,-0.893313
693,225,39.2513,1.49292,-0.00215815,-0.000207349,-0.00159211,0.000684392,-0.00304989,-1.06023,0.00229565,0.0110965,1917,799,39.2513,-1.4929
700,225,39.2222,2.11017,-0.000855044,0.000653903,-0.000772972,0.000979576,-0.00118072,-1.17204,0.00124905,0.0124987,1924,799,39.2221,-2.11017
707,225,39.1873,2.75647,0.000473093,0.00172873,0.000106878,0.00173776,0.000464061,1.48649,0.00103896,0.0120267,1931,799,39.1873,-2.75648
714,225,39.1727,3.39606,0.00168876,0.00284716,0.00101772,0.00343896,0.00109696,1.0441,0.00202839,0.0126439,1938,799,39.1728,-3.39603
721,225,39.1772,4.0155,0.00246628,0.00391336,0.00174711,0.00508083,0.00129881,0.981713,0.00304796,0.0169435,1945,799,39.1772,-4.0155
728,225,39.1542,4.66071,0,0,0,0,0,0,0,-1,1952,799,39.1542,-4.66072
735,225,38.8888,5.14502,0,0,0,0,0,0,0,-1,1959,799,38.8888,-5.14502
742,225,29.0922,3.2132,0,0,0,0,0,0,0,-1,1966,799,29.0921,-3.21322
749,225,29.9529,4.45538,0,0,0,0,0,0,0,-1,1973,799,29.9529,-4.45537
756,225,31.8855,3.83466,0,0,0,0,0,0,0,-1,1980,799,31.8855,-3.83463
763,225,29.4901,5.14417,0,0,0,0,0,0,0,-1,1987,799,29.4902,-5.14415
770,225,0,0,0,0,0,0,0,0,0,-1,1994,799,0,0
777,225,0,0,0,0,0,0,0,0,0,-1,2001,799,0,0
784,225,0,0,0,0,0,0,0,0,0,-1,2008,799,0,0
791,225,0,0,0,0,0,0,0,0,0,-1,2015,799,0,0
798,225,0,0,0,0,0,0,0,0,0,-1,2022,799,0,0
805,225,0,0,0,0,0,0,0,0,0,-1,2029,799,0,0
812,225,0,0,0,0,0,0,0,0,0,-1,2036,799,0,0
-700,218,0,0,0,0,0,0,0,0,0,-1,524,806,0,0
-693,218,0,0,0,0,0,0,0,0,0,-1,531,806,0,0
-686,218,0,0,0,0,0,0,0,0,0,-1,538,806,0,0
-679,218,0,0,0,0,0,0,0,0,0,-1,545,806,0,0
-672,218,0,0,0,0,0,0,0,0,0,-1,552,806,0,0
-665,218,0,0,0,0,0,0,0,0,0,-1,559,806,0,0
-658,218,0,0,0,0,0,0,0,0,0,-1,566,806,0,0
-651,218,-31.2516,6.36798,0,0,0,0,0,0,0,-1,573,806,-31.2517,-6.36799
-644,218,-31.3896,6.17743,0,0,0,0,0,0,0,-1,580,806,-31.3897,-6.17743
-637,218,-31.3395,5.94513,0,0,0,0,0,0,0,-1,587,806,-31.3395,-5.94511
-630,218,-29.7347,3.06238,0,0,0,0,0,0,0,-1,594,806,-29.7347,-3.06238
-623,218,-29.4469,4.34161,0,0,0,0,0,0,0,-1,601,806,-29.4469,-4.34164
-616,218,-20.0258,1.87585,0,0,0,0,0,0,0,-1,608,806,-20.0258,-1.87585
-609,218,-27.7432,3.14087,0,0,0,0,0,0,0,-1,615,806,-27.7432,-3.14086
-602,218,-27.9678,2.70319,-0.00385753,0.0124522,-0.00956263,0.016865,-0.0082703,-1.13845,0.014792,0.0418068,622,806,-27.9677,-2.70317
-595,218,-28.0141,2.06976,-0.00271518,0.00972829,-0.0070207,0.0128874,-0.00587429,-1.14797,0.0110814,0.0185734,629,806,-28.0141,-2.06978
-588,218,-27.9809,1.4726,-0.0018269,0.00740976,-0.00474331,0.00941171,-0.00382884,-1.17142,0.00786769,0.0114451,636,806,-27.9809,-1.4726
-581,218,-28.0026,0.880859,-0.000910585,0.00502288,-0.00318798,0.006411,-0.0022987,-1.16013,0.00521203,0.0106101,643,806,-28.0026,-0.880849
-574,218,-28.0341,0.270813,-0.000240463,0.00278607,-0.00174657,0.00358375,-0.00103815,-1.14237,0.00280012,0.010474,650,806,-28.0341,-0.270838
-567,218,-27.9952,-0.369751,-5.46926e-05,0.000510542,-0.000500501,0.000802707,-0.000346857,-1.04242,0.000680873,0.0186078,657,806,-27.9952,0.369781
-560,218,-28.0463,-0.942322,-0.000303423,-0.0012312,0.00049698,-8.74717e-05,-0.00144715,0.409913,0.000936971,0.0185319,664,806,-28.0463,0.94232
-553,218,-28.012,-1.64856,-0.000684745,-0.00318388,0.00113607,-0.000245507,-0.00362312,0.368929,0.00233788,0.0180422,671,806,-28.0119,1.64857
-546,218,-28.1584,-2.36987,-0.00137695,-0.00517474,0.00140645,-0.000912821,-0.00563887,0.318751,0.00349494,0.0231369,678,806,-28.1584,2.3699
-539,218,-28.2098,-2.95007,-0.00251732,-0.00566485,0.00160355,-0.00184428,-0.00633788,0.397386,0.00376424,0.0353243,685,806,-28.2099,2.95008
-532,218,-28.1498,-3.32117,0,0,0,0,0,0,0,-1,692,806,-28.1498,3.32118
-525,218,-28.4424,-3.40784,0,0,0,0,0,0,0,-1,699,806,-28.4425,3.40786
-518,218,-23.61,2.54181,0,0,0,0,0,0,0,-1,706,806,-23.61,-2.54183
-511,218,-40.1439,1.16718,0,0,0,0,0,0,0,-1,713,806,-40.1439,-1.16715
-504,218,-41.4207,0.214844,0,0,0,0,0,0,0,-1,720,806,-41.4206,-0.214853
-497,218,-40.7017,0.994507,-0.010414,-0.00684499,0.00176426,-0.0061201,-0.0111389,1.18095,0.00644152,0.0481684,727,806,-40.7017,-0.994536
-490,218,-40.9126,0.970825,-0.0118418,-0.00586539,0.00121955,-0.00562611,-0.0120811,1.37705,0.0069805,0.0369419,734,806,-40.9126,-0.970814
-483,218,-41.0182,1.00848,-0.0129154,-0.00401062,0.00020046,-0.00400611,-0.0129199,1.5483,0.0076366,0.0319842,741,806,-41.0182,-1.00848
-476,218,-41.1024,1.02875,-0.0127724,-0.000580451,-0.00155066,-0.000386318,-0.0129666,-1.44625,0.00851853,0.0344836,748,806,-41.1024,-1.02877
-469,218,0,0,0,0,0,0,0,0,0,-1,755,806,0,0
-462,218,0,0,0,0,0,0,0,0,0,-1,762,806,0,0
-455,218,0,0,0,0,0,0,0,0,0,-1,769,806,0,0
-448,218,0,0,0,0,0,0,0,0,0,-1,776,806,0,0
-441,218,0,0,0,0,0,0,0,0,0,-1,783,806,0,0
-434,218,0,0,0,0,0,0,0,0,0,-1,790,806,0,0
-427,218,0,0,0,0,0,0,0,0,0,-1,797,806,0,0
-420,218,0,0,0,0,0,0,0,0,0,-1,804,806,0,0
-413,218,0,0,0,0,0,0,0,0,0,-1,811,806,0,0
-406,218,0,0,0,0,0,0,0,0,0,-1,818,806,0,0
-399,218,0,0,0,0,0,0,0,0,0,-1,825,806,0,0
-392,218,0,0,0,0,0,0,0,0,0,-1,832,806,0,0
-385,218,0,0,0,0,0,0,0,0,0,-1,839,806,0,0
-378,218,0,0,0,0,0,0,0,0,0,-1,846,806,0,0
-371,218,0,0,0,0,0,0,0,0,0,-1,853,806,0,0
-364,218,0,0,0,0,0,0,0,0,0,-1,860,806,0,0
-357,218,0,0,0,0,0,0,0,0,0,-1,867,806,0,0
-350,218,0,0,0,0,0,0,0,0,0,-1,874,806,0,0
-343,218,0,0,0,0,0,0,0,0,0,-1,881,806,0,0
-336,218,0,0,0,0,0,0,0,0,0,-1,888,806,0,0
-329,218,0,0,0,0,0,0,0,0,0,-1,895,806,0,0
-322,218,0,0,0,0,0,0,0,0,0,-1,902,806,0,0
-315,218,0,0,0,0,0,0,0,0,0,-1,909,806,0,0
-308,218,0,0,0,0,0,0,0,0,0,-1,916,806,0,0
-301,218,0,0,0,0,0,0,0,0,0,-1,923,806,0,0
-294,218,0,0,0,0,0,0,0,0,0,-1,930,806,0,0
-287,218,0,0,0,0,0,0,0,0,0,-1,937,806,0,0
-280,218,0,0,0,0,0,0,0,0,0,-1,944,806,0,0
-273,218,0,0,0,0,0,0,0,0,0,-1,951,806,0,0
-266,218,0,0,0,0,0,0,0,0,0,-1,958,806,0,0
-259,218,0,0,0,0,0,0,0,0,0,-1,965,806,0,0
-252,218,0,0,0,0,0,0,0,0,0,-1,972,806,0,0
-245,218,0,0,0,0,0,0,0,0,0,-1,979,806,0,0
-238,218,0,0,0,0,0,0,0,0,0,-1,986,806,0,0
-231,218,0,0,0,0,0,0,0,0,0,-1,993,806,0,0
-224,218,0,0,0,0,0,0,0,0,0,-1,1000,806,0,0
-217,218,0,0,0,0,0,0,0,0,0,-1,1007,806,0,0
-210,218,0,0,0,0,0,0,0,0,0,-1,1014,806,0,0
-203,218,0,0,0,0,0,0,0,0,0,-1,1021,806,0,0
-196,218,0,0,0,0,0,0,0,0,0,-1,1028,806,0,0
-189,218,0,0,0,0,0,0,0,0,0,-1,1035,806,0,0
-182,218,0,0,0,0,0,0,0,0,0,-1,1042,806,0,0
-175,218,0,0,0,0,0,0,0,0,0,-1,1049,806,0,0
-168,218,0,0,0,0,0,0,0,0,0,-1,1056,806,0,0
-161,218,0,0,0,0,0,0,0,0,0,-1,1063,806,0,0
-154,218,0,0,0,0,0,0,0,0,0,-1,1070,806,0,0
-147,218,0,0,0,0,0,0,0,0,0,-1,1077,806,0,0
-140,218,0,0,0,0,0,0,0,0,0,-1,1084,806,0,0
-133,218,0,0,0,0,0,0,0,0,0,-1,1091,806,0,0
-126,218,0,0,0,0,0,0,0,0,0,-1,1098,806,0,0
-119,218,0,0,0,0,0,0,0,0,0,-1,1105,806,0,0
-112,218,0,0,0,0,0,0,0,0,0,-1,1112,806,0,0
-105,218,0,0,0,0,0,0,0,0,0,-1,1119,806,0,0
-98,218,0,0,0,0,0,0,0,0,0,-1,1126,806,0,0
-91,218,0,0,0,0,0,0,0,0,0,-1,1133,806,0,0
-84,218,0,0,0,0,0,0,0,0,0,-1,1140,806,0,0
-77,218,0,0,0,0,0,0,0,0,0,-1,1147,806,0,0
-70,218,0,0,0,0,0,0,0,0,0,-1,1154,806,0,0
-63,218,0,0,0,0,0,0,0,0,0,-1,1161,806,0,0
-56,218,0,0,0,0,0,0,0,0,0,-1,1168,806,0,0
-49,218,0,0,0,0,0,0,0,0,0,-1,1175,806,0,0
-42,218,0,0,0,0,0,0,0,0,0,-1,1182,806,0,0
-35,218,0,0,0,0,0,0,0,0,0,-1,1189,806,0,0
-28,218,0,0,0,0,0,0,0,0,0,-1,1196,806,0,0
-21,218,0,0,0,0,0,0,0,0,0,-1,1203,806,0,0
-14,218,0,0,0,0,0,0,0,0,0,-1,1210,806,0,0
-7,218,0,0,0,0,0,0,0,0,0,-1,1217,806,0,0
0,218,0,0,0,0,0,0,0,0,0,-1,1224,806,0,0
7,218,0,0,0,0,0,0,0,0,0,-1,1231,806,0,0
14,218,0,0,0,0,0,0,0,0,0,-1,1238,806,0,0
21,218,0,0,0,0,0,0,0,0,0,-1,1245,806,0,0
28,218,0,0,0,0,0,0,0,0,0,-1,1252,806,0,0
35,218,0,0,0,0,0,0,0,0,0,-1,1259,806,0,0
42,218,0,0,0,0,0,0,0,0,0,-1,1266,806,0,0
49,218,0,0,0,0,0,0,0,0,0,-1,1273,806,0,0
56,218,0,0,0,0,0,0,0,0,0,-1,1280,806,0,0
63,218,0,0,0,0,0,0,0,0,0,-1,1287,806,0,0
70,218,0,0,0,0,0,0,0,0,0,-1,1294,806,0,0
77,218,0,0,0,0,0,0,0,0,0,-1,1301,806,0,0
84,218,0,0,0,0,0,0,0,0,0,-1,1308,806,0,0
91,218,0,0,0,0,0,0,0,0,0,-1,1315,806,0,0
98,218,0,0,0,0,0,0,0,0,0,-1,1322,806,0,0
105,218,0,0,0,0,0,0,0,0,0,-1,1329,806,0,0
112,218,0,0,0,0,0,0,0,0,0,-1,1336,806,0,0
119,218,0,0,0,0,0,0,0,0,0,-1,1343,806,0,0
126,218,0,0,0,0,0,0,0,0,0,-1,1350,806,0,0
133,218,0,0,0,0,0,0,0,0,0,-1,1357,806,0,0
140,218,0,0,0,0,0,0,0,0,0,-1,1364,806,0,0
147,218,0,0,0,0,0,0,0,0,0,-1,1371,806,0,0
154,218,0,0,0,0,0,0,0,0,0,-1,1378,806,0,0
161,218,0,0,0,0,0,0,0,0,0,-1,1385,806,0,0
168,218,0,0,0,0,0,0,0,0,0,-1,1392,806,0,0
175,218,0,0,0,0,0,0,0,0,0,-1,1399,806,0,0
182,218,0,0,0,0,0,0,0,0,0,-1,1406,806,0,0
189,218,0,0,0,0,0,0,0,0,0,-1,1413,806,0,0
196,218,0,0,0,0,0,0,0,0,0,-1,1420,806,0,0
203,218,0,0,0,0,0,0,0,0,0,-1,1427,806,0,0
210,218,0,0,0,0,0,0,0,0,0,-1,1434,806,0,0
217,218,0,0,0,0,0,0,0,0,0,-1,1441,806,0,0
224,218,0,0,0,0,0,0,0,0,0,-1,1448,806,0,0
231,218,0,0,0,0,0,0,0,0,0,-1,1455,806,0,0
238,218,0,0,0,0,0,0,0,0,0,-1,1462,806,0,0
245,218,0,0,0,0,0,0,0,0,0,-1,1469,806,0,0
252,218,0,0,0,0,0,0,0,0,0,-1,1476,806,0,0
259,218,0,0,0,0,0,0,0,0,0,-1,1483,806,0,0
266,218,0,0,0,0,0,0,0,0,0,-1,1490,806,0,0
273,218,0,0,0,0,0,0,0,0,0,-1,1497,806,0,0
280,218,0,0,0,0,0,0,0,0,0,-1,1504,806,0,0
287,218,0,0,0,0,0,0,0,0,0,-1,1511,806,0,0
294,218,0,0,0,0,0,0,0,0,0,-1,1518,806,0,0
301,218,0,0,0,0,0,0,0,0,0,-1,1525,806,0,0
308,218,0,0,0,0,0,0,0,0,0,-1,1532,806,0,0
315,218,0,0,0,0,0,0,0,0,0,-1,1539,806,0,0
322,218,0,0,0,0,0,0,0,0,0,-1,1546,806,0,0
329,218,0,0,0,0,0,0,0,0,0,-1,1553,806,0,0
336,218,0,0,0,0,0,0,0,0,0,-1,1560,806,0,0
343,218,0,0,0,0,0,0,0,0,0,-1,1567,806,0,0
350,218,0,0,0,0,0,0,0,0,0,-1,1574,806,0,0
357,218,0,0,0,0,0,0,0,0,0,-1,1581,806,0,0
364,218,0,0,0,0,0,0,0,0,0,-1,1588,806,0,0
371,218,0,0,0,0,0,0,0,0,0,-1,1595,806,0,0
378,218,0,0,0,0,0,0,0,0,0,-1,1602,806,0,0
385,218,0,0,0,0,0,0,0,0,0,-1,1609,806,0,0
392,218,0,0,0,0,0,0,0,0,0,-1,1616,806,0,0
399,218,0,0,0,0,0,0,0,0,0,-1,1623,806,0,0
406,218,0,0,0,0,0,0,0,0,0,-1,1630,806,0,0
413,218,0,0,0,0,0,0,0,0,0,-1,1637,806,0,0
420,218,0,0,0,0,0,0,0,0,0,-1,1644,806,0,0
427,218,0,0,0,0,0,0,0,0,0,-1,1651,806,0,0
434,218,0,0,0,0,0,0,0,0,0,-1,1658,806,0,0
441,218,0,0,0,0,0,0,0,0,0,-1,1665,806,0,0
448,218,0,0,0,0,0,0,0,0,0,-1,1672,806,0,0
455,218,0,0,0,0,0,0,0,0,0,-1,1679,806,0,0
462,218,0,0,0,0,0,0,0,0,0,-1,1686,806,0,0
469,218,0,0,0,0,0,0,0,0,0,-1,1693,806,0,0
476,218,0,0,0,0,0,0,0,0,0,-1,1700,806,0,0
483,218,0,0,0,0,0,0,0,0,0,-1,1707,806,0,0
490,218,0,0,0,0,0,0,0,0,0,-1,1714,806,0,0
497,218,0,0,0,0,0,0,0,0,0,-1,1721,806,0,0
504,218,0,0,0,0,0,0,0,0,0,-1,1728,806,0,0
511,218,0,0,0,0,0,0,0,0,0,-1,1735,806,0,0
518,218,0,0,0,0,0,0,0,0,0,-1,1742,806,0,0
525,218,0,0,0,0,0,0,0,0,0,-1,1749,806,0,0
532,218,0,0,0,0,0,0,0,0,0,-1,1756,806,0,0
539,218,0,0,0,0,0,0,0,0,0,-1,1763,806,0,0
546,218,0,0,0,0,0,0,0,0,0,-1,1770,806,0,0
553,218,0,0,0,0,0,0,0,0,0,-1,1777,806,0,0
560,218,0,0,0,0,0,0,0,0,0,-1,1784,806,0,0
567,218,0,0,0,0,0,0,0,0,0,-1,1791,806,0,0
574,218,0,0,0,0,0,0,0,0,0,-1,1798,806,0,0
581,218,0,0,0,0,0,0,0,0,0,-1,1805,806,0,0
588,218,0,0,0,0,0,0,0,0,0,-1,1812,806,0,0
595,218,54.1393,2.95099,0.00711151,0.00535613,-0.00401903,0.0103476,0.00212007,-0.677894,0.00631152,0.0381698,1819,806,54.1393,-2.95098
602,218,54.1763,2.82831,0.00523761,0.00523272,-0.000672373,0.00590754,0.00456279,-0.783583,0.00357542,0.0336118,1826,806,54.1762,-2.82833
609,218,54.2051,2.85187,0.00408821,0.00482289,0.00104567,0.00556386,0.00334724,0.954313,0.00323433,0.0304188,1833,806,54.2051,-2.85189
616,218,54.1609,2.86365,0.00326701,0.00402482,0.00142979,0.00512506,0.00216676,0.914925,0.00297069,0.033435,1840,806,54.1608,-2.86366
623,218,54.1216,2.84033,0.00228819,0.00313092,0.000845287,0.00365405,0.00176507,1.01662,0.00211007,0.0395848,1847,806,54.1216,-2.84031
630,218,54.2997,2.80676,0.00132832,0.00247101,0.000241024,0.00251977,0.00127956,1.3712,0.00145485,0.0405031,1854,806,54.2997,-2.80677
637,218,54.5416,2.67438,0,0,0,0,0,0,0,-1,1861,806,54.5416,-2.6744
644,218,52.4042,2.47949,0,0,0,0,0,0,0,-1,1868,806,52.4041,-2.47949
651,218,41.7338,1.99164,0,0,0,0,0,0,0,-1,1875,806,41.7338,-1.99162
658,218,28.41,0.514954,0,0,0,0,0,0,0,-1,1882,806,28.41,-0.514983
665,218,40.4709,-0.865601,0,0,0,0,0,0,0,-1,1889,806,40.4709,0.865592
672,218,40.228,-0.178894,-0.00268058,-0.000535409,-0.00239159,0.0010131,-0.00422909,-0.996194,0.00321082,0.0271382,1896,806,40.228,0.178869
679,218,40.0485,0.333069,-0.00321436,-0.00113657,-0.00259214,0.000617114,-0.00496804,-0.975989,0.00353573,0.0246184,1903,806,40.0485,-0.33306
686,218,39.9495,0.8927,-0.00364479,-0.00106108,-0.00251384,0.000473421,-0.00517929,-1.02275,0.003621,0.0125783,1910,806,39.9495,-0.892712
693,218,39.9108,1.51233,-0.00296714,-0.000539759,-0.00206155,0.000638837,-0.00414573,-1.05144,0.00299953,0.012146,1917,806,39.9108,-1.51233
700,218,39.8638,2.13684,-0.00172926,0.000197569,-0.00131978,0.000868168,-0.00239986,-1.10068,0.00195465,0.0102756,1924,806,39.8638,-2.13684
707,218,39.8221,2.78186,-0.000427597,0.00116738,-0.000483245,0.00130237,-0.000562586,-1.2984,0.00110461,0.00814351,1931,806,39.8221,-2.78187
714,218,39.8035,3.414,0.000799407,0.0022326,0.000390577,0.00233212,0.000699878,1.32128,0.00138186,0.0102137,1938,806,39.8035,-3.41401
721,218,39.8066,4.03094,0.00160534,0.00329049,0.00109367,0.00382851,0.00106731,1.11362,0.00228137,0.0140386,1945,806,39.8066,-4.03097
728,218,39.7887,4.74316,0.0016835,0.00438052,0.00138398,0.00496434,0.00109968,1.17161,0.0030107,0.0294078,1952,806,39.7887,-4.74318
735,218,39.9264,5.58276,0,0,0,0,0,0,0,-1,1959,806,39.9264,-5.58278
742,218,39.7672,6.19397,0,0,0,0,0,0,0,-1,1966,806,39.7673,-6.19397
749,218,39.993,6.6604,0,0,0,0,0,0,0,-1,1973,806,39.9931,-6.66043
756,218,37.9641,5.3277,0,0,0,0,0,0,0,-1,1980,806,37.9641,-5.32767
763,218,39.5968,4.98688,0,0,0,0,0,0,0,-1,1987,806,39.5968,-4.98688
770,218,0,0,0,0,0,0,0,0,0,-1,1994,806,0,0
777,218,0,0,0,0,0,0,0,0,0,-1,2001,806,0,0
784,218,0,0,0,0,0,0,0,0,0,-1,2008,806,0,0
791,218,0,0,0,0,0,0,0,0,0,-1,2015,806,0,0
798,218,0,0,0,0,0,0,0,0,0,-1,2022,806,0,0
805,218,0,0,0,0,0,0,0,0,0,-1,2029,806,0,0
812,218,0,0,0,0,0,0,0,0,0,-1,2036,806,0,0
-700,211,0,0,0,0,0,0,0,0,0,-1,524,813,0,0
-693,211,0,0,0,0,0,0,0,0,0,-1,531,813,0,0
-686,211,0,0,0,0,0,0,0,0,0,-1,538,813,0,0
-679,211,0,0,0,0,0,0,0,0,0,-1,545,813,0,0
-672,211,0,0,0,0,0,0,0,0,0,-1,552,813,0,0
-665,211,0,0,0,0,0,0,0,0,0,-1,559,813,0,0
-658,211,0,0,0,0,0,0,0,0,0,-1,566,813,0,0
-651,211,-32.4163,6.39746,0,0,0,0,0,0,0,-1,573,813,-32.4163,-6.39747
-644,211,-31.1364,6.37982,0,0,0,0,0,0,0,-1,580,813,-31.1364,-6.37985
-637,211,-31.2496,6.42194,0,0,0,0,0,0,0,-1,587,813,-31.2496,-6.42195
-630,211,-26.2802,6.70776,0,0,0,0,0,0,0,-1,594,813,-26.2802,-6.70775
-623,211,-26.2827,6.96381,0,0,0,0,0,0,0,-1,601,813,-26.2827,-6.96378
-616,211,-28.2708,3.79095,0,0,0,0,0,0,0,-1,608,813,-28.2708,-3.79098
-609,211,-28.369,3.23151,-0.000528674,0.00645159,-0.00882292,0.0124496,-0.00652669,-0.973741,0.0111324,0.0420492,615,813,-28.369,-3.23153
-602,211,-28.4839,2.69092,-0.00187096,0.00950779,-0.00724256,0.0130284,-0.00539156,-1.11833,0.0109352,0.0218003,622,813,-28.4839,-2.69094
-595,211,-28.5845,2.10107,-0.00172088,0.00743294,-0.00512225,0.0097252,-0.00401314,-1.15001,0.00815716,0.01128,629,813,-28.5845,-2.10109
-588,211,-28.6003,1.48798,-0.0012347,0.00576502,-0.00318292,0.00699591,-0.00246559,-1.20179,0.00566749,0.0109393,636,813,-28.6003,-1.48799
-581,211,-28.6193,0.894958,-0.000421292,0.00383435,-0.00190453,0.0045622,-0.00114914,-1.20576,0.00348819,0.0113017,643,813,-28.6193,-0.894939
-574,211,-28.6448,0.288086,0.000321123,0.00198105,-0.000719125,0.00224926,5.29144e-05,-1.21381,0.00148218,0.0129854,650,813,-28.6448,-0.288082
-567,211,-28.6354,-0.338257,0.000528847,9.34467e-05,0.000234754,0.000631308,-9.01366e-06,0.411536,0.000423908,0.020156,657,813,-28.6355,0.338227
-560,211,-28.6609,-0.925293,0.000243677,-0.00125621,0.000943014,0.000698594,-0.00171113,0.449475,0.00143161,0.026786,664,813,-28.6609,0.925298
-553,211,-28.4516,-1.60437,-0.00014513,-0.00284641,0.00132405,0.000395617,-0.00338716,0.387729,0.00240087,0.0432421,671,813,-28.4516,1.60439
-546,211,-28.8892,-2.11322,-0.000765386,-0.00456072,0.00138589,-0.000313198,-0.00501291,0.31539,0.00324259,0.0477584,678,813,-28.8892,2.11325
-539,211,-28.8685,-2.73267,-0.00173024,-0.00498395,0.00151255,-0.00113573,-0.00557845,0.374502,0.00340414,0.0294342,685,813,-28.8685,2.73265
-532,211,-28.8004,-3.43042,0,0,0,0,0,0,0,-1,692,813,-28.8004,3.43045
-525,211,-14.3009,2.3233,0,0,0,0,0,0,0,-1,699,813,-14.3009,-2.3233
-518,211,-34.952,1.93011,0,0,0,0,0,0,0,-1,706,813,-34.952,-1.9301
-511,211,-41.4063,0.0727539,0,0,0,0,0,0,0,-1,713,813,-41.4063,-0.0727274
-504,211,-41.355,0.404175,0,0,0,0,0,0,0,-1,720,813,-41.355,-0.404183
-497,211,-41.3038,0.735657,0,0,0,0,0,0,0,-1,727,813,-41.3038,-0.735639
-490,211,-40.903,1.10876,-0.00899946,-0.00461247,0.000551776,-0.00454413,-0.00906779,1.44758,0.0052353,0.0364184,734,813,-40.903,-1.10874
-483,211,-40.9678,1.03766,-0.00882002,-0.0018475,-0.000761212,-0.00176536,-0.00890215,-1.46331,0.0054426,0.0316576,741,813,-40.9678,-1.03767
-476,211,-40.9481,1.1217,-0.0068622,0.0032234,-0.00280291,0.00395001,-0.00758881,-1.31714,0.00677146,0.0336533,748,813,-40.9481,-1.12173
-469,211,0,0,0,0,0,0,0,0,0,-1,755,813,0,0
-462,211,0,0,0,0,0,0,0,0,0,-1,762,813,0,0
-455,211,0,0,0,0,0,0,0,0,0,-1,769,813,0,0
-448,211,0,0,0,0,0,0,0,0,0,-1,776,813,0,0
-441,211,0,0,0,0,0,0,0,0,0,-1,783,813,0,0
-434,211,0,0,0,0,0,0,0,0,0,-1,790,813,0,0
-427,211,0,0,0,0,0,0,0,0,0,-1,797,813,0,0
-420,211,0,0,0,0,0,0,0,0,0,-1,804,813,0,0
-413,211,0,0,0,0,0,0,0,0,0,-1,811,813,0,0
-406,211,0,0,0,0,0,0,0,0,0,-1,818,813,0,0
-399,211,0,0,0,0,0,0,0,0,0,-1,825,813,0,0
-392,211,0,0,0,0,0,0,0,0,0,-1,832,813,0,0
-385,211,0,0,0,0,0,0,0,0,0,-1,839,813,0,0
-378,211,0,0,0,0,0,0,0,0,0,-1,846,813,0,0
-371,211,0,0,0,0,0,0,0,0,0,-1,853,813,0,0
-364,211,0,0,0,0,0,0,0,0,0,-1,860,813,0,0
-357,211,0,0,0,0,0,0,0,0,0,-1,867,813,0,0
-350,211,0,0,0,0,0,0,0,0,0,-1,874,813,0,0
-343,211,0,0,0,0,0,0,0,0,0,-1,881,813,0,0
-336,211,0,0,0,0,0,0,0,0,0,-1,888,813,0,0
-329,211,0,0,0,0,0,0,0,0,0,-1,895,813,0,0
-322,211,0,0,0,0,0,0,0,0,0,-1,902,813,0,0
-315,211,0,0,0,0,0,0,0,0,0,-1,909,813,0,0
-308,211,0,0,0,0,0,0,0,0,0,-1,916,813,0,0
-301,211,0,0,0,0,0,0,0,0,0,-1,923,813,0,0
-294,211,0,0,0,0,0,0,0,0,0,-1,930,813,0,0
-287,211,0,0,0,0,0,0,0,0,0,-1,937,813,0,0
-280,211,0,0,0,0,0,0,0,0,0,-1,944,813,0,0
-273,211,0,0,0,0,0,0,0,0,0,-1,951,813,0,0
-266,211,0,0,0,0,0,0,0,0,0,-1,958,813,0,0
-259,211,0,0,0,0,0,0,0,0,0,-1,965,813,0,0
-252,211,0,0,0,0,0,0,0,0,0,-1,972,813,0,0
-245,211,0,0,0,0,0,0,0,0,0,-1,979,813,0,0
-238,211,0,0,0,0,0,0,0,0,0,-1,986,813,0,0
-231,211,0,0,0,0,0,0,0,0,0,-1,993,813,0,0
-224,211,0,0,0,0,0,0,0,0,0,-1,1000,813,0,0
-217,211,0,0,0,0,0,0,0,0,0,-1,1007,813,0,0
-210,211,0,0,0,0,0,0,0,0,0,-1,1014,813,0,0
-203,211,0,0,0,0,0,0,0,0,0,-1,1021,813,0,0
-196,211,0,0,0,0,0,0,0,0,0,-1,1028,813,0,0
-189,211,0,0,0,0,0,0,0,0,0,-1,1035,813,0,0
-182,211,0,0,0,0,0,0,0,0,0,-1,1042,813,0,0
-175,211,0,0,0,0,0,0,0,0,0,-1,1049,813,0,0
-168,211,0,0,0,0,0,0,0,0,0,-1,1056,813,0,0
-161,211,0,0,0,0,0,0,0,0,0,-1,1063,813,0,0
-154,211,0,0,0,0,0,0,0,0,0,-1,1070,813,0,0
-147,211,0,0,0,0,0,0,0,0,0,-1,1077,813,0,0
-140,211,0,0,0,0,0,0,0,0,0,-1,1084,813,0,0
-133,211,0,0,0,0,0,0,0,0,0,-1,1091,813,0,0
-126,211,0,0,0,0,0,0,0,0,0,-1,1098,813,0,0
-119,211,0,0,0,0,0,0,0,0,0,-1,1105,813,0,0
-112,211,0,0,0,0,0,0,0,0,0,-1,1112,813,0,0
-105,211,0,0,0,0,0,0,0,0,0,-1,1119,813,0,0
-98,211,0,0,0,0,0,0,0,0,0,-1,1126,813,0,0
-91,211,0,0,0,0,0,0,0,0,0,-1,1133,813,0,0
-84,211,0,0,0,0,0,0,0,0,0,-1,1140,813,0,0
-77,211,0,0,0,0,0,0,0,0,0,-1,1147,813,0,0
-70,211,0,0,0,0,0,0,0,0,0,-1,1154,813,0,0
-63,211,0,0,0,0,0,0,0,0,0,-1,1161,813,0,0
-56,211,0,0,0,0,0,0,0,0,0,-1,1168,813,0,0
-49,211,0,0,0,0,0,0,0,0,0,-1,1175,813,0,0
-42,211,0,0,0,0,0,0,0,0,0,-1,1182,813,0,0
-35,211,0,0,0,0,0,0,0,0,0,-1,1189,813,0,0
-28,211,0,0,0,0,0,0,0,0,0,-1,1196,813,0,0
-21,211,0,0,0,0,0,0,0,0,0,-1,1203,813,0,0
-14,211,0,0,0,0,0,0,0,0,0,-1,1210,813,0,0
-7,211,0,0,0,0,0,0,0,0,0,-1,1217,813,0,0
0,211,0,0,0,0,0,0,0,0,0,-1,1224,813,0,0
7,211,0,0,0,0,0,0,0,0,0,-1,1231,813,0,0
14,211,0,0,0,0,0,0,0,0,0,-1,1238,813,0,0
21,211,0,0,0,0,0,0,0,0,0,-1,1245,813,0,0
28,211,0,0,0,0,0,0,0,0,0,-1,1252,813,0,0
35,211,0,0,0,0,0,0,0,0,0,-1,1259,813,0,0
42,211,0,0,0,0,0,0,0,0,0,-1,1266,813,0,0
49,211,0,0,0,0,0,0,0,0,0,-1,1273,813,0,0
56,211,0,0,0,0,0,0,0,0,0,-1,1280,813,0,0
63,211,0,0,0,0,0,0,0,0,0,-1,1287,813,0,0
70,211,0,0,0,0,0,0,0,0,0,-1,1294,813,0,0
77,211,0,0,0,0,0,0,0,0,0,-1,1301,813,0,0
84,211,0,0,0,0,0,0,0,0,0,-1,1308,813,0,0
91,211,0,0,0,0,0,0,0,0,0,-1,1315,813,0,0
98,211,0,0,0,0,0,0,0,0,0,-1,1322,813,0,0
105,211,0,0,0,0,0,0,0,0,0,-1,1329,813,0,0
112,211,0,0,0,0,0,0,0,0,0,-1,1336,813,0,0
119,211,0,0,0,0,0,0,0,0,0,-1,1343,813,0,0
126,211,0,0,0,0,0,0,0,0,0,-1,1350,813,0,0
133,211,0,0,0,0,0,0,0,0,0,-1,1357,813,0,0
140,211,0,0,0,0,0,0,0,0,0,-1,1364,813,0,0
147,211,0,0,0,0,0,0,0,0,0,-1,1371,813,0,0
154,211,0,0,0,0,0,0,0,0,0,-1,1378,813,0,0
161,211,0,0,0,0,0,0,0,0,0,-1,1385,813,0,0
168,211,0,0,0,0,0,0,0,0,0,-1,1392,813,0,0
175,211,0,0,0,0,0,0,0,0,0,-1,1399,813,0,0
182,211,0,0,0,0,0,0,0,0,0,-1,1406,813,0,0
189,211,0,0,0,0,0,0,0,0,0,-1,1413,813,0,0
196,211,0,0,0,0,0,0,0,0,0,-1,1420,813,0,0
203,211,0,0,0,0,0,0,0,0,0,-1,1427,813,0,0
210,211,0,0,0,0,0,0,0,0,0,-1,1434,813,0,0
217,211,0,0,0,0,0,0,0,0,0,-1,1441,813,0,0
224,211,0,0,0,0,0,0,0,0,0,-1,1448,813,0,0
231,211,0,0,0,0,0,0,0,0,0,-1,1455,813,0,0
238,211,0,0,0,0,0,0,0,0,0,-1,1462,813,0,0
245,211,0,0,0,0,0,0,0,0,0,-1,1469,813,0,0
252,211,0,0,0,0,0,0,0,0,0,-1,1476,813,0,0
259,211,0,0,0,0,0,0,0,0,0,-1,1483,813,0,0
266,211,0,0,0,0,0,0,0,0,0,-1,1490,813,0,0
273,211,0,0,0,0,0,0,0,0,0,-1,1497,813,0,0
280,211,0,0,0,0,0,0,0,0,0,-1,1504,813,0,0
287,211,0,0,0,0,0,0,0,0,0,-1,1511,813,0,0
294,211,0,0,0,0,0,0,0,0,0,-1,1518,813,0,0
301,211,0,0,0,0,0,0,0,0,0,-1,1525,813,0,0
308,211,0,0,0,0,0,0,0,0,0,-1,1532,813,0,0
315,211,0,0,0,0,0,0,0,0,0,-1,1539,813,0,0
322,211,0,0,0,0,0,0,0,0,0,-1,1546,813,0,0
329,211,0,0,0,0,0,0,0,0,0,-1,1553,813,0,0
336,211,0,0,0,0,0,0,0,0,0,-1,1560,813,0,0
343,211,0,0,0,0,0,0,0,0,0,-1,1567,813,0,0
350,211,0,0,0,0,0,0,0,0,0,-1,1574,813,0,0
357,211,0,0,0,0,0,0,0,0,0,-1,1581,813,0,0
364,211,0,0,0,0,0,0,0,0,0,-1,1588,813,0,0
371,211,0,0,0,0,0,0,0,0,0,-1,1595,813,0,0
378,211,0,0,0,0,0,0,0,0,0,-1,1602,813,0,0
385,211,0,0,0,0,0,0,0,0,0,-1,1609,813,0,0
392,211,0,0,0,0,0,0,0,0,0,-1,1616,813,0,0
399,211,0,0,0,0,0,0,0,0,0,-1,1623,813,0,0
406,211,0,0,0,0,0,0,0,0,0,-1,1630,813,0,0
413,211,0,0,0,0,0,0,0,0,0,-1,1637,813,0,0
420,211,0,0,0,0,0,0,0,0,0,-1,1644,813,0,0
427,211,0,0,0,0,0,0,0,0,0,-1,1651,813,0,0
434,211,0,0,0,0,0,0,0,0,0,-1,1658,813,0,0
441,211,0,0,0,0,0,0,0,0,0,-1,1665,813,0,0
448,211,0,0,0,0,0,0,0,0,0,-1,1672,813,0,0
455,211,0,0,0,0,0,0,0,0,0,-1,1679,813,0,0
462,211,0,0,0,0,0,0,0,0,0,-1,1686,813,0,0
469,211,0,0,0,0,0,0,0,0,0,-1,1693,813,0,0
476,211,0,0,0,0,0,0,0,0,0,-1,1700,813,0,0
483,211,0,0,0,0,0,0,0,0,0,-1,1707,813,0,0
490,211,0,0,0,0,0,0,0,0,0,-1,1714,813,0,0
497,211,0,0,0,0,0,0,0,0,0,-1,1721,813,0,0
504,211,0,0,0,0,0,0,0,0,0,-1,1728,813,0,0
511,211,0,0,0,0,0,0,0,0,0,-1,1735,813,0,0
518,211,0,0,0,0,0,0,0,0,0,-1,1742,813,0,0
525,211,0,0,0,0,0,0,0,0,0,-1,1749,813,0,0
532,211,0,0,0,0,0,0,0,0,0,-1,1756,813,0,0
539,211,0,0,0,0,0,0,0,0,0,-1,1763,813,0,0
546,211,0,0,0,0,0,0,0,0,0,-1,1770,813,0,0
553,211,0,0,0,0,0,0,0,0,0,-1,1777,813,0,0
560,211,0,0,0,0,0,0,0,0,0,-1,1784,813,0,0
567,211,0,0,0,0,0,0,0,0,0,-1,1791,813,0,0
574,211,0,0,0,0,0,0,0,0,0,-1,1798,813,0,0
581,211,0,0,0,0,0,0,0,0,0,-1,1805,813,0,0
588,211,0,0,0,0,0,0,0,0,0,-1,1812,813,0,0
595,211,54.2749,2.81738,0.00565833,0.00695757,-0.00531275,0.0116603,0.000955634,-0.846234,0.00747536,0.0393438,1819,813,54.2748,-2.81738
602,211,54.114,2.84863,0.00423831,0.00601192,-0.0023082,0.00759781,0.00265242,-0.968803,0.00445268,0.0371089,1826,813,54.114,-2.84864
609,211,54.1818,2.94934,0.00345271,0.00513948,-0.000476898,0.00526498,0.00332721,-1.31348,0.00307482,0.036981,1833,813,54.1818,-2.94934
616,211,54.2008,2.91339,0.00297761,0.00422286,0.000375448,0.0043273,0.00287317,1.29948,0.00254275,0.0321269,1840,813,54.2008,-2.91336
623,211,54.1621,2.87762,0.00210572,0.00328541,0.000127053,0.00329894,0.00209219,1.46472,0.00192737,0.0331517,1847,813,54.1622,-2.8776
630,211,54.1816,2.80847,0.0010928,0.00265288,-0.000279135,0.00270132,0.00104436,-1.39897,0.00157292,0.0373956,1854,813,54.1817,-2.80844
637,211,54.3077,2.76666,9.09954e-05,0.00200344,-0.000755794,0.00226607,-0.000171628,-1.23637,0.00157105,0.0444615,1861,813,54.3078,-2.76665
644,211,54.38,2.74091,0,0,0,0,0,0,0,-1,1868,813,54.38,-2.74089
651,211,48.5043,2.95557,0,0,0,0,0,0,0,-1,1875,813,48.5043,-2.95558
658,211,27.7909,1.52234,0,0,0,0,0,0,0,-1,1882,813,27.7909,-1.52234
665,211,41.356,-0.600891,0,0,0,0,0,0,0,-1,1889,813,41.356,0.600863
672,211,41.1514,-0.140076,-0.00299729,-0.000301769,-0.00246489,0.00115976,-0.00445882,-1.03558,0.00342522,0.0473825,1896,813,41.1513,0.14006
679,211,40.8531,0.363403,-0.00350896,-0.00103347,-0.00271716,0.000714574,-0.005257,-0.999119,0.00376553,0.0299873,1903,813,40.8532,-0.363384
686,211,40.5815,0.91864,-0.00406491,-0.0010456,-0.00273761,0.000571012,-0.00568153,-1.03738,0.00399166,0.0135416,1910,813,40.5815,-0.918644
693,211,40.5215,1.53333,-0.00366248,-0.00074145,-0.00244067,0.000642328,-0.00504625,-1.05502,0.00359744,0.0121041,1917,813,40.5214,-1.53333
700,211,40.425,2.15472,-0.00260919,-0.000207392,-0.00184601,0.00079396,-0.00361054,-1.07377,0.00271072,0.0139506,1924,813,40.425,-2.1547
707,211,40.4442,2.81641,-0.00143525,0.000559396,-0.0011128,0.00105639,-0.00193225,-1.15076,0.00175001,0.021023,1931,813,40.4442,-2.8164
714,211,40.4734,3.46039,-0.000264103,0.00154908,-0.000308126,0.00160001,-0.000315034,-1.40698,0.00118572,0.0220072,1938,813,40.4733,-3.46039
721,211,40.4465,4.04358,0.000567072,0.00258719,0.000358321,0.00264887,0.000505398,1.40035,0.00162388,0.0167733,1945,813,40.4465,-4.04361
728,211,40.468,4.67621,0.000752801,0.00361228,0.000651559,0.00375374,0.000611336,1.357,0.00232566,0.0182275,1952,813,40.468,-4.67621
735,211,40.5645,5.40002,0.000205737,0.00480765,0.000702187,0.00491241,0.000100978,1.4227,0.0032418,0.0327962,1959,813,40.5644,-5.40001
742,211,40.5747,5.85034,0,0,0,0,0,0,0,-1,1966,813,40.5748,-5.85033
749,211,40.2061,6.51953,0,0,0,0,0,0,0,-1,1973,813,40.206,-6.51953
756,211,40.2,6.73651,0,0,0,0,0,0,0,-1,1980,813,40.2,-6.73651
763,211,39.4379,6.60083,0,0,0,0,0,0,0,-1,1987,813,39.4378,-6.60085
770,211,39.2373,7.45868,0,0,0,0,0,0,0,-1,1994,813,39.2373,-7.45868
777,211,0,0,0,0,0,0,0,0,0,-1,2001,813,0,0
784,211,0,0,0,0,0,0,0,0,0,-1,2008,813,0,0
791,211,0,0,0,0,0,0,0,0,0,-1,2015,813,0,0
798,211,0,0,0,0,0,0,0,0,0,-1,2022,813,0,0
805,211,0,0,0,0,0,0,0,0,0,-1,2029,813,0,0
812,211,0,0,0,0,0,0,0,0,0,-1,2036,813,0,0
-700,204,0,0,0,0,0,0,0,0,0,-1,524,820,0,0
-693,204,0,0,0,0,0,0,0,0,0,-1,531,820,0,0
-686,204,0,0,0,0,0,0,0,0,0,-1,538,820,0,0
-679,204,0,0,0,0,0,0,0,0,0,-1,545,820,0,0
-672,204,0,0,0,0,0,0,0,0,0,-1,552,820,0,0
-665,204,0,0,0,0,0,0,0,0,0,-1,559,820,0,0
-658,204,0,0,0,0,0,0,0,0,0,-1,566,820,0,0
-651,204,-30.8603,6.04706,0,0,0,0,0,0,0,-1,573,820,-30.8603,-6.04704
-644,204,-30.553,6.28735,0,0,0,0,0,0,0,-1,580,820,-30.5531,-6.28735
-637,204,-30.6819,7.18677,0,0,0,0,0,0,0,-1,587,820,-30.6819,-7.18676
-630,204,-26.3576,4.56836,0,0,0,0,0,0,0,-1,594,820,-26.3576,-4.56833
-623,204,-27.8553,4.75055,0,0,0,0,0,0,0,-1,601,820,-27.8554,-4.75058
-616,204,-28.923,3.77795,0,0,0,0,0,0,0,-1,608,820,-28.923,-3.77793
-609,204,-29.0065,3.25104,0.00190928,0.00513485,-0.00712032,0.0108227,-0.00377862,-0.896771,0.008751,0.0385891,615,820,-29.0065,-3.25102
-602,204,-29.1381,2.71204,-0.000409698,0.0079399,-0.00562043,0.0107664,-0.0032362,-1.10483,0.00846511,0.0175288,622,820,-29.1381,-2.71204
-595,204,-29.2001,2.09778,-0.000960974,0.00602574,-0.0037211,0.00763632,-0.00257155,-1.16232,0.00613056,0.0158057,629,820,-29.2001,-2.09776
-588,204,-29.2178,1.51135,-0.000680642,0.00460996,-0.00207193,0.00532479,-0.00139548,-1.23857,0.00409506,0.013477,636,820,-29.2178,-1.51133
-581,204,-29.2383,0.916077,7.35666e-05,0.00290135,-0.00104137,0.00324346,-0.000268544,-1.25338,0.00225715,0.0129428,643,820,-29.2383,-0.916082
-574,204,-29.2404,0.329773,0.00085134,0.00130334,-9.90273e-05,0.00132408,0.000830596,-1.36431,0.000772673,0.0144027,650,820,-29.2404,-0.329752
-567,204,-29.2121,-0.270569,0.00104706,-0.000299181,0.000570108,0.00125604,-0.000508169,0.351365,0.00104863,0.0150712,657,820,-29.2121,0.270593
-560,204,-29.1847,-0.925781,0.000705752,-0.00140908,0.00102732,0.00112262,-0.00182595,0.385481,0.00171842,0.021746,664,820,-29.1847,0.92577
-553,204,-29.3031,-1.51965,0,0,0,0,0,0,0,-1,671,820,-29.3031,1.51964
-546,204,-29.5154,-1.90735,-0.000267022,-0.00428338,0.00120894,6.87945e-05,-0.0046192,0.270947,0.00310265,0.0257867,678,820,-29.5154,1.90736
-539,204,-29.3652,-2.55829,-0.001067,-0.00468245,0.00131386,-0.000639978,-0.00510947,0.314244,0.0032143,0.047091,685,820,-29.3652,2.55829
-532,204,-29.2662,-3.49133,0,0,0,0,0,0,0,-1,692,820,-29.2662,3.4913
-525,204,-25.7137,1.52496,0,0,0,0,0,0,0,-1,699,820,-25.7137,-1.52496
-518,204,-39.7603,0.925903,0,0,0,0,0,0,0,-1,706,820,-39.7603,-0.92588
-511,204,-41.0855,0.718811,0,0,0,0,0,0,0,-1,713,820,-41.0855,-0.718835
-504,204,-41.2606,0.668213,-0.00601052,-0.00612348,0.00112426,-0.00494132,-0.00719268,0.760301,0.0042484,0.0470934,720,820,-41.2606,-0.66822
-497,204,-41.1359,0.884827,-0.0065736,-0.0051106,0.000803705,-0.00475535,-0.00692885,1.1546,0.0040919,0.0407165,727,820,-41.1358,-0.884831
-490,204,-41.0637,0.911194,-0.00667115,-0.00293375,-2.91707e-05,-0.00293353,-0.00667137,-1.56299,0.00386104,0.0343729,734,820,-41.0638,-0.911186
-483,204,-41.044,0.851379,-0.00521024,0.0014494,-0.00166938,0.00184443,-0.00560528,-1.33844,0.00448006,0.0375038,741,820,-41.044,-0.851351
-476,204,0,0,0,0,0,0,0,0,0,-1,748,820,0,0
-469,204,0,0,0,0,0,0,0,0,0,-1,755,820,0,0
-462,204,0,0,0,0,0,0,0,0,0,-1,762,820,0,0
-455,204,0,0,0,0,0,0,0,0,0,-1,769,820,0,0
-448,204,0,0,0,0,0,0,0,0,0,-1,776,820,0,0
-441,204,0,0,0,0,0,0,0,0,0,-1,783,820,0,0
-434,204,0,0,0,0,0,0,0,0,0,-1,790,820,0,0
-427,204,0,0,0,0,0,0,0,0,0,-1,797,820,0,0
-420,204,0,0,0,0,0,0,0,0,0,-1,804,820,0,0
-413,204,0,0,0,0,0,0,0,0,0,-1,811,820,0,0
-406,204,0,0,0,0,0,0,0,0,0,-1,818,820,0,0
-399,204,0,0,0,0,0,0,0,0,0,-1,825,820,0,0
-392,204,0,0,0,0,0,0,0,0,0,-1,832,820,0,0
-385,204,0,0,0,0,0,0,0,0,0,-1,839,820,0,0
-378,204,0,0,0,0,0,0,0,0,0,-1,846,820,0,0
-371,204,0,0,0,0,0,0,0,0,0,-1,853,820,0,0
-364,204,0,0,0,0,0,0,0,0,0,-1,860,820,0,0
-357,204,0,0,0,0,0,0,0,0,0,-1,867,820,0,0
-350,204,0,0,0,0,0,0,0,0,0,-1,874,820,0,0
-343,204,0,0,0,0,0,0,0,0,0,-1,881,820,0,0
-336,204,0,0,0,0,0,0,0,0,0,-1,888,820,0,0
-329,204,0,0,0,0,0,0,0,0,0,-1,895,820,0,0
-322,204,0,0,0,0,0,0,0,0,0,-1,902,820,0,0
-315,204,0,0,0,0,0,0,0,0,0,-1,909,820,0,0
-308,204,0,0,0,0,0,0,0,0,0,-1,916,820,0,0
-301,204,0,0,0,0,0,0,0,0,0,-1,923,820,0,0
-294,204,0,0,0,0,0,0,0,0,0,-1,930,820,0,0
-287,204,0,0,0,0,0,0,0,0,0,-1,937,820,0,0
-280,204,0,0,0,0,0,0,0,0,0,-1,944,820,0,0
-273,204,0,0,0,0,0,0,0,0,0,-1,951,820,0,0
-266,204,0,0,0,0,0,0,0,0,0,-1,958,820,0,0
-259,204,0,0,0,0,0,0,0,0,0,-1,965,820,0,0
-252,204,0,0,0,0,0,0,0,0,0,-1,972,820,0,0
-245,204,0,0,0,0,0,0,0,0,0,-1,979,820,0,0
-238,204,0,0,0,0,0,0,0,0,0,-1,986,820,0,0
-231,204,0,0,0,0,0,0,0,0,0,-1,993,820,0,0
-224,204,0,0,0,0,0,0,0,0,0,-1,1000,820,0,0
-217,204,0,0,0,0,0,0,0,0,0,-1,1007,820,0,0
-210,204,0,0,0,0,0,0,0,0,0,-1,1014,820,0,0
-203,204,0,0,0,0,0,0,0,0,0,-1,1021,820,0,0
-196,204,0,0,0,0,0,0,0,0,0,-1,1028,820,0,0
-189,204,0,0,0,0,0,0,0,0,0,-1,1035,820,0,0
-182,204,0,0,0,0,0,0,0,0,0,-1,1042,820,0,0
-175,204,0,0,0,0,0,0,0,0,0,-1,1049,820,0,0
-168,204,0,0,0,0,0,0,0,0,0,-1,1056,820,0,0
-161,204,0,0,0,0,0,0,0,0,0,-1,1063,820,0,0
-154,204,0,0,0,0,0,0,0,0,0,-1,1070,820,0,0
-147,204,0,0,0,0,0,0,0,0,0,-1,1077,820,0,0
-140,204,0,0,0,0,0,0,0,0,0,-1,1084,820,0,0
-133,204,0,0,0,0,0,0,0,0,0,-1,1091,820,0,0
-126,204,0,0,0,0,0,0,0,0,0,-1,1098,820,0,0
-119,204,0,0,0,0,0,0,0,0,0,-1,1105,820,0,0
-112,204,0,0,0,0,0,0,0,0,0,-1,1112,820,0,0
-105,204,0,0,0,0,0,0,0,0,0,-1,1119,820,0,0
-98,204,0,0,0,0,0,0,0,0,0,-1,1126,820,0,0
-91,204,0,0,0,0,0,0,0,0,0,-1,1133,820,0,0
-84,204,0,0,0,0,0,0,0,0,0,-1,1140,820,0,0
-77,204,0,0,0,0,0,0,0,0,0,-1,1147,820,0,0
-70,204,0,0,0,0,0,0,0,0,0,-1,1154,820,0,0
-63,204,0,0,0,0,0,0,0,0,0,-1,1161,820,0,0
-56,204,0,0,0,0,0,0,0,0,0,-1,1168,820,0,0
-49,204,0,0,0,0,0,0,0,0,0,-1,1175,820,0,0
-42,204,0,0,0,0,0,0,0,0,0,-1,1182,820,0,0
-35,204,0,0,0,0,0,0,0,0,0,-1,1189,820,0,0
-28,204,0,0,0,0,0,0,0,0,0,-1,1196,820,0,0
-21,204,0,0,0,0,0,0,0,0,0,-1,1203,820,0,0
-14,204,0,0,0,0,0,0,0,0,0,-1,1210,820,0,0
-7,204,0,0,0,0,0,0,0,0,0,-1,1217,820,0,0
0,204,0,0,0,0,0,0,0,0,0,-1,1224,820,0,0
7,204,0,0,0,0,0,0,0,0,0,-1,1231,820,0,0
14,204,0,0,0,0,0,0,0,0,0,-1,1238,820,0,0
21,204,0,0,0,0,0,0,0,0,0,-1,1245,820,0,0
28,204,0,0,0,0,0,0,0,0,0,-1,1252,820,0,0
35,204,0,0,0,0,0,0,0,0,0,-1,1259,820,0,0
42,204,0,0,0,0,0,0,0,0,0,-1,1266,820,0,0
49,204,0,0,0,0,0,0,0,0,0,-1,1273,820,0,0
56,204,0,0,0,0,0,0,0,0,0,-1,1280,820,0,0
63,204,0,0,0,0,0,0,0,0,0,-1,1287,820,0,0
70,204,0,0,0,0,0,0,0,0,0,-1,1294,820,0,0
77,204,0,0,0,0,0,0,0,0,0,-1,1301,820,0,0
84,204,0,0,0,0,0,0,0,0,0,-1,1308,820,0,0
91,204,0,0,0,0,0,0,0,0,0,-1,1315,820,0,0
98,204,0,0,0,0,0,0,0,0,0,-1,1322,820,0,0
105,204,0,0,0,0,0,0,0,0,0,-1,1329,820,0,0
112,204,0,0,0,0,0,0,0,0,0,-1,1336,820,0,0
119,204,0,0,0,0,0,0,0,0,0,-1,1343,820,0,0
126,204,0,0,0,0,0,0,0,0,0,-1,1350,820,0,0
133,204,0,0,0,0,0,0,0,0,0,-1,1357,820,0,0
140,204,0,0,0,0,0,0,0,0,0,-1,1364,820,0,0
147,204,0,0,0,0,0,0,0,0,0,-1,1371,820,0,0
154,204,0,0,0,0,0,0,0,0,0,-1,1378,820,0,0
161,204,0,0,0,0,0,0,0,0,0,-1,1385,820,0,0
168,204,0,0,0,0,0,0,0,0,0,-1,1392,820,0,0
175,204,0,0,0,0,0,0,0,0,0,-1,1399,820,0,0
182,204,0,0,0,0,0,0,0,0,0,-1,1406,820,0,0
189,204,0,0,0,0,0,0,0,0,0,-1,1413,820,0,0
196,204,0,0,0,0,0,0,0,0,0,-1,1420,820,0,0
203,204,0,0,0,0,0,0,0,0,0,-1,1427,820,0,0
210,204,0,0,0,0,0,0,0,0,0,-1,1434,820,0,0
217,204,0,0,0,0,0,0,0,0,0,-1,1441,820,0,0
224,204,0,0,0,0,0,0,0,0,0,-1,1448,820,0,0
231,204,0,0,0,0,0,0,0,0,0,-1,1455,820,0,0
238,204,0,0,0,0,0,0,0,0,0,-1,1462,820,0,0
245,204,0,0,0,0,0,0,0,0,0,-1,1469,820,0,0
252,204,0,0,0,0,0,0,0,0,0,-1,1476,820,0,0
259,204,0,0,0,0,0,0,0,0,0,-1,1483,820,0,0
266,204,0,0,0,0,0,0,0,0,0,-1,1490,820,0,0
273,204,0,0,0,0,0,0,0,0,0,-1,1497,820,0,0
280,204,0,0,0,0,0,0,0,0,0,-1,1504,820,0,0
287,204,0,0,0,0,0,0,0,0,0,-1,1511,820,0,0
294,204,0,0,0,0,0,0,0,0,0,-1,1518,820,0,0
301,204,0,0,0,0,0,0,0,0,0,-1,1525,820,0,0
308,204,0,0,0,0,0,0,0,0,0,-1,1532,820,0,0
315,204,0,0,0,0,0,0,0,0,0,-1,1539,820,0,0
322,204,0,0,0,0,0,0,0,0,0,-1,1546,820,0,0
329,204,0,0,0,0,0,0,0,0,0,-1,1553,820,0,0
336,204,0,0,0,0,0,0,0,0,0,-1,1560,820,0,0
343,204,0,0,0,0,0,0,0,0,0,-1,1567,820,0,0
350,204,0,0,0,0,0,0,0,0,0,-1,1574,820,0,0
357,204,0,0,0,0,0,0,0,0,0,-1,1581,820,0,0
364,204,0,0,0,0,0,0,0,0,0,-1,1588,820,0,0
371,204,0,0,0,0,0,0,0,0,0,-1,1595,820,0,0
378,204,0,0,0,0,0,0,0,0,0,-1,1602,820,0,0
385,204,0,0,0,0,0,0,0,0,0,-1,1609,820,0,0
392,204,0,0,0,0,0,0,0,0,0,-1,1616,820,0,0
399,204,0,0,0,0,0,0,0,0,0,-1,1623,820,0,0
406,204,0,0,0,0,0,0,0,0,0,-1,1630,820,0,0
413,204,0,0,0,0,0,0,0,0,0,-1,1637,820,0,0
420,204,0,0,0,0,0,0,0,0,0,-1,1644,820,0,0
427,204,0,0,0,0,0,0,0,0,0,-1,1651,820,0,0
434,204,0,0,0,0,0,0,0,0,0,-1,1658,820,0,0
441,204,0,0,0,0,0,0,0,0,0,-1,1665,820,0,0
448,204,0,0,0,0,0,0,0,0,0,-1,1672,820,0,0
455,204,0,0,0,0,0,0,0,0,0,-1,1679,820,0,0
462,204,0,0,0,0,0,0,0,0,0,-1,1686,820,0,0
469,204,0,0,0,0,0,0,0,0,0,-1,1693,820,0,0
476,204,0,0,0,0,0,0,0,0,0,-1,1700,820,0,0
483,204,0,0,0,0,0,0,0,0,0,-1,1707,820,0,0
490,204,0,0,0,0,0,0,0,0,0,-1,1714,820,0,0
497,204,0,0,0,0,0,0,0,0,0,-1,1721,820,0,0
504,204,0,0,0,0,0,0,0,0,0,-1,1728,820,0,0
511,204,0,0,0,0,0,0,0,0,0,-1,1735,820,0,0
518,204,0,0,0,0,0,0,0,0,0,-1,1742,820,0,0
525,204,0,0,0,0,0,0,0,0,0,-1,1749,820,0,0
532,204,0,0,0,0,0,0,0,0,0,-1,1756,820,0,0
539,204,0,0,0,0,0,0,0,0,0,-1,1763,820,0,0
546,204,0,0,0,0,0,0,0,0,0,-1,1770,820,0,0
553,204,0,0,0,0,0,0,0,0,0,-1,1777,820,0,0
560,204,0,0,0,0,0,0,0,0,0,-1,1784,820,0,0
567,204,0,0,0,0,0,0,0,0,0,-1,1791,820,0,0
574,204,0,0,0,0,0,0,0,0,0,-1,1798,820,0,0
581,204,0,0,0,0,0,0,0,0,0,-1,1805,820,0,0
588,204,0,0,0,0,0,0,0,0,0,-1,1812,820,0,0
595,204,0,0,0,0,0,0,0,0,0,-1,1819,820,0,0
602,204,54.1847,2.92432,0.0025935,0.00762651,-0.00279039,0.00886753,0.00135247,-1.15232,0.00551641,0.0409364,1826,820,54.1848,-2.92433
609,204,54.2375,2.92023,0.00243963,0.00615112,-0.00127197,0.0065452,0.00204555,-1.27036,0.0038664,0.0417749,1833,820,54.2376,-2.92025
616,204,54.2382,2.81433,0.00261301,0.00485486,-0.000285373,0.00489062,0.00257725,-1.44615,0.00282497,0.0378924,1840,820,54.2382,-2.81432
623,204,54.1473,2.84894,0.00205004,0.00367118,-0.000299541,0.00372475,0.00199646,-1.39381,0.00215234,0.0288219,1847,820,54.1473,-2.84893
630,204,54.1437,2.84619,0.00102332,0.00292996,-0.000593921,0.00309983,0.000853445,-1.29222,0.00184894,0.0290287,1854,820,54.1437,-2.84622
637,204,54.2388,2.77063,-8.16672e-05,0.00224206,-0.0010142,0.00262244,-0.000462053,-1.21197,0.00192093,0.0363814,1861,820,54.2387,-2.77065
644,204,54.3486,2.70013,0,0,0,0,0,0,0,-1,1868,820,54.3486,-2.70016
651,204,53.7611,2.32251,0,0,0,0,0,0,0,-1,1875,820,53.7611,-2.32249
658,204,34.9631,1.64844,0,0,0,0,0,0,0,-1,1882,820,34.9631,-1.64842
665,204,21.8292,1.51099,0,0,0,0,0,0,0,-1,1889,820,21.8292,-1.51099
672,204,41.989,-0.206238,0,0,0,0,0,0,0,-1,1896,820,41.989,0.206256
679,204,41.3416,0.264526,-0.00370423,-0.000986588,-0.00281294,0.000778538,-0.00546935,-1.0104,0.00393153,0.0392177,1903,820,41.3416,-0.264528
686,204,41.226,0.920593,-0.00429046,-0.00107074,-0.00290371,0.000639518,-0.00600071,-1.03851,0.00422979,0.0193506,1910,820,41.226,-0.920565
693,204,41.1097,1.53656,-0.00410878,-0.000926822,-0.00274574,0.000655571,-0.00569117,-1.04798,0.00403045,0.0173707,1917,820,41.1097,-1.53655
700,204,41.1135,2.16589,-0.00325928,-0.000584511,-0.00231654,0.000752975,-0.00459677,-1.04719,0.00334389,0.017939,1924,820,41.1135,-2.16588
707,204,41.0695,2.83282,-0.00221507,-2.05985e-05,-0.00168361,0.000891761,-0.00312743,-1.07419,0.00243721,0.0169108,1931,820,41.0694,-2.83282
714,204,41.0865,3.4903,-0.00106013,0.000943704,-0.000898103,0.00128731,-0.00140373,-1.20539,0.00155416,0.0253972,1938,820,41.0865,-3.49032
721,204,41.0432,4.07764,-0.000137012,0.00199825,-0.00019309,0.00201557,-0.000154332,-1.48133,0.001398,0.0211396,1945,820,41.0432,-4.07766
728,204,41.0388,4.68121,0.000248668,0.00302716,0.000217692,0.00304412,0.000231716,1.49308,0.00195675,0.0139141,1952,820,41.0388,-4.68123
735,204,41.0157,5.33221,-4.60707e-08,0.00415552,0.000370904,0.00418837,-3.28915e-05,1.48247,0.00280327,0.0162458,1959,820,41.0158,-5.33223
742,204,41.0615,5.9212,-0.00106819,0.00524025,8.84628e-05,0.00524149,-0.00106943,1.55678,0.00389999,0.0302785,1966,820,41.0615,-5.92122
749,204,40.8342,6.38287,-0.00328378,0.00621153,-0.000774551,0.0062743,-0.00334655,-1.48994,0.00563968,0.0470173,1973,820,40.8342,-6.38285
756,204,40.6648,6.79272,0,0,0,0,0,0,0,-1,1980,820,40.6648,-6.79274
763,204,39.8257,7.0863,0,0,0,0,0,0,0,-1,1987,820,39.8256,-7.0863
770,204,39.7449,7.36835,0,0,0,0,0,0,0,-1,1994,820,39.7449,-7.36834
777,204,0,0,0,0,0,0,0,0,0,-1,2001,820,0,0
784,204,0,0,0,0,0,0,0,0,0,-1,2008,820,0,0
791,204,0,0,0,0,0,0,0,0,0,-1,2015,820,0,0
798,204,0,0,0,0,0,0,0,0,0,-1,2022,820,0,0
805,204,0,0,0,0,0,0,0,0,0,-1,2029,820,0,0
812,204,0,0,0,0,0,0,0,0,0,-1,2036,820,0,0
-700,197,0,0,0,0,0,0,0,0,0,-1,524,827,0,0
-693,197,0,0,0,0,0,0,0,0,0,-1,531,827,0,0
-686,197,0,0,0,0,0,0,0,0,0,-1,538,827,0,0
-679,197,0,0,0,0,0,0,0,0,0,-1,545,827,0,0
-672,197,0,0,0,0,0,0,0,0,0,-1,552,827,0,0
-665,197,0,0,0,0,0,0,0,0,0,-1,559,827,0,0
-658,197,-34.5739,5.17334,0,0,0,0,0,0,0,-1,566,827,-34.5738,-5.17337
-651,197,-34.4095,4.15332,0,0,0,0,0,0,0,-1,573,827,-34.4096,-4.15333
-644,197,-35.0823,3.64722,0,0,0,0,0,0,0,-1,580,827,-35.0823,-3.6472
-637,197,-27.6712,4.42389,0,0,0,0,0,0,0,-1,587,827,-27.6712,-4.42386
-630,197,-27.0933,4.53906,0,0,0,0,0,0,0,-1,594,827,-27.0933,-4.53909
-623,197,-29.6912,4.92993,0,0,0,0,0,0,0,-1,601,827,-29.6912,-4.9299
-616,197,-29.6414,3.51666,0,0,0,0,0,0,0,-1,608,827,-29.6414,-3.51666
-609,197,-29.6614,3.15991,0.00340504,0.00398848,-0.00497175,0.00867706,-0.00128354,-0.814703,0.00625659,0.034728,615,827,-29.6615,-3.15991
-602,197,-29.7367,2.71252,0.000441675,0.00660292,-0.00352833,0.00820624,-0.00116165,-1.14428,0.00589631,0.0197884,622,827,-29.7367,-2.71254
-595,197,-29.7979,2.1344,-0.000370363,0.00492079,-0.0019517,0.0055628,-0.00101237,-1.253,0.00408799,0.0198519,629,827,-29.7978,-2.13438
-588,197,-29.8054,1.54254,-0.000122958,0.00375264,-0.000656232,0.00386074,-0.000231059,-1.40753,0.0026542,0.0216688,636,827,-29.8054,-1.54251
-581,197,-29.8321,0.938721,0.000683772,0.00232623,3.87845e-05,0.00232714,0.000682857,1.5472,0.00138127,0.0124107,643,827,-29.8321,-0.938749
-574,197,-29.8381,0.341797,0.00153443,0.00105357,0.000666456,0.0020025,0.0005855,0.612285,0.0011889,0.0133787,650,827,-29.8381,-0.341818
-567,197,-29.7819,-0.22522,0.00170425,-0.000248336,0.00104013,0.0021545,-0.000698583,0.408523,0.00171723,0.0166126,657,827,-29.7819,0.225222
-560,197,-29.7289,-0.826416,0.00127587,-0.00121117,0.00131228,0.00184023,-0.00177553,0.406148,0.00208767,0.0296207,664,827,-29.7289,0.826446
-553,197,-30.2744,-1.32544,0,0,0,0,0,0,0,-1,671,827,-30.2744,1.32547
-546,197,-30.112,-1.79535,0,0,0,0,0,0,0,-1,678,827,-30.112,1.79536
-539,197,-29.7778,-2.28528,0,0,0,0,0,0,0,-1,685,827,-29.7778,2.28527
-532,197,-16.0519,0.0410156,0,0,0,0,0,0,0,-1,692,827,-16.0519,-0.0410415
-525,197,-35.3785,2.11829,0,0,0,0,0,0,0,-1,699,827,-35.3785,-2.11826
-518,197,-40.9048,0.937256,0,0,0,0,0,0,0,-1,706,827,-40.9048,-0.937283
-511,197,-40.971,0.987244,-0.00386221,-0.00578225,0.00123449,-0.00325839,-0.00638608,0.454911,0.00368726,0.0413376,713,827,-40.971,-0.987227
-504,197,-41.0687,1.0282,-0.00478503,-0.00552617,0.00102462,-0.00406603,-0.00624517,0.611881,0.0036601,0.03678,720,827,-41.0687,-1.02822
-497,197,-41.087,1.0567,-0.0048894,-0.0039887,0.000542858,-0.00373371,-0.0051444,1.13166,0.0030694,0.0393996,727,827,-41.087,-1.05669
-490,197,-41.134,0.918091,-0.00429049,-0.000910773,-0.000467296,-0.000847353,-0.00435391,-1.4359,0.00266544,0.0373332,734,827,-41.134,-0.918096
-483,197,-41.0825,0.813293,-0.00137295,0.00523851,-0.00251461,0.00608623,-0.00222066,-1.24564,0.00496606,0.0398846,741,827,-41.0824,-0.813318
-476,197,0,0,0,0,0,0,0,0,0,-1,748,827,0,0
-469,197,0,0,0,0,0,0,0,0,0,-1,755,827,0,0
-462,197,0,0,0,0,0,0,0,0,0,-1,762,827,0,0
-455,197,0,0,0,0,0,0,0,0,0,-1,769,827,0,0
-448,197,0,0,0,0,0,0,0,0,0,-1,776,827,0,0
-441,197,0,0,0,0,0,0,0,0,0,-1,783,827,0,0
-434,197,0,0,0,0,0,0,0,0,0,-1,790,827,0,0
-427,197,0,0,0,0,0,0,0,0,0,-1,797,827,0,0
-420,197,0,0,0,0,0,0,0,0,0,-1,804,827,0,0
-413,197,0,0,0,0,0,0,0,0,0,-1,811,827,0,0
-406,197,0,0,0,0,0,0,0,0,0,-1,818,827,0,0
-399,197,0,0,0,0,0,0,0,0,0,-1,825,827,0,0
-392,197,0,0,0,0,0,0,0,0,0,-1,832,827,0,0
-385,197,0,0,0,0,0,0,0,0,0,-1,839,827,0,0
-378,197,0,0,0,0,0,0,0,0,0,-1,846,827,0,0
-371,197,0,0,0,0,0,0,0,0,0,-1,853,827,0,0
-364,197,0,0,0,0,0,0,0,0,0,-1,860,827,0,0
-357,197,0,0,0,0,0,0,0,0,0,-1,867,827,0,0
-350,197,0,0,0,0,0,0,0,0,0,-1,874,827,0,0
-343,197,0,0,0,0,0,0,0,0,0,-1,881,827,0,0
-336,197,0,0,0,0,0,0,0,0,0,-1,888,827,0,0
-329,197,0,0,0,0,0,0,0,0,0,-1,895,827,0,0
-322,197,0,0,0,0,0,0,0,0,0,-1,902,827,0,0
-315,197,0,0,0,0,0,0,0,0,0,-1,909,827,0,0
-308,197,0,0,0,0,0,0,0,0,0,-1,916,827,0,0
-301,197,0,0,0,0,0,0,0,0,0,-1,923,827,0,0
-294,197,0,0,0,0,0,0,0,0,0,-1,930,827,0,0
-287,197,0,0,0,0,0,0,0,0,0,-1,937,827,0,0
-280,197,0,0,0,0,0,0,0,0,0,-1,944,827,0,0
-273,197,0,0,0,0,0,0,0,0,0,-1,951,827,0,0
-266,197,0,0,0,0,0,0,0,0,0,-1,958,827,0,0
-259,197,0,0,0,0,0,0,0,0,0,-1,965,827,0,0
-252,197,0,0,0,0,0,0,0,0,0,-1,972,827,0,0
-245,197,0,0,0,0,0,0,0,0,0,-1,979,827,0,0
-238,197,0,0,0,0,0,0,0,0,0,-1,986,827,0,0
-231,197,0,0,0,0,0,0,0,0,0,-1,993,827,0,0
-224,197,0,0,0,0,0,0,0,0,0,-1,1000,827,0,0
-217,197,0,0,0,0,0,0,0,0,0,-1,1007,827,0,0
-210,197,0,0,0,0,0,0,0,0,0,-1,1014,827,0,0
-203,197,0,0,0,0,0,0,0,0,0,-1,1021,827,0,0
-196,197,0,0,0,0,0,0,0,0,0,-1,1028,827,0,0
-189,197,0,0,0,0,0,0,0,0,0,-1,1035,827,0,0
-182,197,0,0,0,0,0,0,0,0,0,-1,1042,827,0,0
-175,197,0,0,0,0,0,0,0,0,0,-1,1049,827,0,0
-168,197,0,0,0,0,0,0,0,0,0,-1,1056,827,0,0
-161,197,0,0,0,0,0,0,0,0,0,-1,1063,827,0,0
-154,197,0,0,0,0,0,0,0,0,0,-1,1070,827,0,0
-147,197,0,0,0,0,0,0,0,0,0,-1,1077,827,0,0
-140,197,0,0,0,0,0,0,0,0,0,-1,1084,827,0,0
-133,197,0,0,0,0,0,0,0,0,0,-1,1091,827,0,0
-126,197,0,0,0,0,0,0,0,0,0,-1,1098,827,0,0
-119,197,0,0,0,0,0,0,0,0,0,-1,1105,827,0,0
-112,197,0,0,0,0,0,0,0,0,0,-1,1112,827,0,0
-105,197,0,0,0,0,0,0,0,0,0,-1,1119,827,0,0
-98,197,0,0,0,0,0,0,0,0,0,-1,1126,827,0,0
-91,197,0,0,0,0,0,0,0,0,0,-1,1133,827,0,0
-84,197,0,0,0,0,0,0,0,0,0,-1,1140,827,0,0
-77,197,0,0,0,0,0,0,0,0,0,-1,1147,827,0,0
-70,197,0,0,0,0,0,0,0,0,0,-1,1154,827,0,0
-63,197,0,0,0,0,0,0,0,0,0,-1,1161,827,0,0
-56,197,0,0,0,0,0,0,0,0,0,-1,1168,827,0,0
-49,197,0,0,0,0,0,0,0,0,0,-1,1175,827,0,0
-42,197,0,0,0,0,0,0,0,0,0,-1,1182,827,0,0
-35,197,0,0,0,0,0,0,0,0,0,-1,1189,827,0,0
-28,197,0,0,0,0,0,0,0,0,0,-1,1196,827,0,0
-21,197,0,0,0,0,0,0,0,0,0,-1,1203,827,0,0
-14,197,0,0,0,0,0,0,0,0,0,-1,1210,827,0,0
-7,197,0,0,0,0,0,0,0,0,0,-1,1217,827,0,0
0,197,0,0,0,0,0,0,0,0,0,-1,1224,827,0,0
7,197,0,0,0,0,0,0,0,0,0,-1,1231,827,0,0
14,197,0,0,0,0,0,0,0,0,0,-1,1238,827,0,0
21,197,0,0,0,0,0,0,0,0,0,-1,1245,827,0,0
28,197,0,0,0,0,0,0,0,0,0,-1,1252,827,0,0
35,197,0,0,0,0,0,0,0,0,0,-1,1259,827,0,0
42,197,0,0,0,0,0,0,0,0,0,-1,1266,827,0,0
49,197,0,0,0,0,0,0,0,0,0,-1,1273,827,0,0
56,197,0,0,0,0,0,0,0,0,0,-1,1280,827,0,0
63,197,0,0,0,0,0,0,0,0,0,-1,1287,827,0,0
70,197,0,0,0,0,0,0,0,0,0,-1,1294,827,0,0
77,197,0,0,0,0,0,0,0,0,0,-1,1301,827,0,0
84,197,0,0,0,0,0,0,0,0,0,-1,1308,827,0,0
91,197,0,0,0,0,0,0,0,0,0,-1,1315,827,0,0
98,197,0,0,0,0,0,0,0,0,0,-1,1322,827,0,0
105,197,0,0,0,0,0,0,0,0,0,-1,1329,827,0,0
112,197,0,0,0,0,0,0,0,0,0,-1,1336,827,0,0
119,197,0,0,0,0,0,0,0,0,0,-1,1343,827,0,0
126,197,0,0,0,0,0,0,0,0,0,-1,1350,827,0,0
133,197,0,0,0,0,0,0,0,0,0,-1,1357,827,0,0
140,197,0,0,0,0,0,0,0,0,0,-1,1364,827,0,0
147,197,0,0,0,0,0,0,0,0,0,-1,1371,827,0,0
154,197,0,0,0,0,0,0,0,0,0,-1,1378,827,0,0
161,197,0,0,0,0,0,0,0,0,0,-1,1385,827,0,0
168,197,0,0,0,0,0,0,0,0,0,-1,1392,827,0,0
175,197,0,0,0,0,0,0,0,0,0,-1,1399,827,0,0
182,197,0,0,0,0,0,0,0,0,0,-1,1406,827,0,0
189,197,0,0,0,0,0,0,0,0,0,-1,1413,827,0,0
196,197,0,0,0,0,0,0,0,0,0,-1,1420,827,0,0
203,197,0,0,0,0,0,0,0,0,0,-1,1427,827,0,0
210,197,0,0,0,0,0,0,0,0,0,-1,1434,827,0,0
217,197,0,0,0,0,0,0,0,0,0,-1,1441,827,0,0
224,197,0,0,0,0,0,0,0,0,0,-1,1448,827,0,0
231,197,0,0,0,0,0,0,0,0,0,-1,1455,827,0,0
238,197,0,0,0,0,0,0,0,0,0,-1,1462,827,0,0
245,197,0,0,0,0,0,0,0,0,0,-1,1469,827,0,0
252,197,0,0,0,0,0,0,0,0,0,-1,1476,827,0,0
259,197,0,0,0,0,0,0,0,0,0,-1,1483,827,0,0
266,197,0,0,0,0,0,0,0,0,0,-1,1490,827,0,0
273,197,0,0,0,0,0,0,0,0,0,-1,1497,827,0,0
280,197,0,0,0,0,0,0,0,0,0,-1,1504,827,0,0
287,197,0,0,0,0,0,0,0,0,0,-1,1511,827,0,0
294,197,0,0,0,0,0,0,0,0,0,-1,1518,827,0,0
301,197,0,0,0,0,0,0,0,0,0,-1,1525,827,0,0
308,197,0,0,0,0,0,0,0,0,0,-1,1532,827,0,0
315,197,0,0,0,0,0,0,0,0,0,-1,1539,827,0,0
322,197,0,0,0,0,0,0,0,0,0,-1,1546,827,0,0
329,197,0,0,0,0,0,0,0,0,0,-1,1553,827,0,0
336,197,0,0,0,0,0,0,0,0,0,-1,1560,827,0,0
343,197,0,0,0,0,0,0,0,0,0,-1,1567,827,0,0
350,197,0,0,0,0,0,0,0,0,0,-1,1574,827,0,0
357,197,0,0,0,0,0,0,0,0,0,-1,1581,827,0,0
364,197,0,0,0,0,0,0,0,0,0,-1,1588,827,0,0
371,197,0,0,0,0,0,0,0,0,0,-1,1595,827,0,0
378,197,0,0,0,0,0,0,0,0,0,-1,1602,827,0,0
385,197,0,0,0,0,0,0,0,0,0,-1,1609,827,0,0
392,197,0,0,0,0,0,0,0,0,0,-1,1616,827,0,0
399,197,0,0,0,0,0,0,0,0,0,-1,1623,827,0,0
406,197,0,0,0,0,0,0,0,0,0,-1,1630,827,0,0
413,197,0,0,0,0,0,0,0,0,0,-1,1637,827,0,0
420,197,0,0,0,0,0,0,0,0,0,-1,1644,827,0,0
427,197,0,0,0,0,0,0,0,0,0,-1,1651,827,0,0
434,197,0,0,0,0,0,0,0,0,0,-1,1658,827,0,0
441,197,0,0,0,0,0,0,0,0,0,-1,1665,827,0,0
448,197,0,0,0,0,0,0,0,0,0,-1,1672,827,0,0
455,197,0,0,0,0,0,0,0,0,0,-1,1679,827,0,0
462,197,0,0,0,0,0,0,0,0,0,-1,1686,827,0,0
469,197,0,0,0,0,0,0,0,0,0,-1,1693,827,0,0
476,197,0,0,0,0,0,0,0,0,0,-1,1700,827,0,0
483,197,0,0,0,0,0,0,0,0,0,-1,1707,827,0,0
490,197,0,0,0,0,0,0,0,0,0,-1,1714,827,0,0
497,197,0,0,0,0,0,0,0,0,0,-1,1721,827,0,0
504,197,0,0,0,0,0,0,0,0,0,-1,1728,827,0,0
511,197,0,0,0,0,0,0,0,0,0,-1,1735,827,0,0
518,197,0,0,0,0,0,0,0,0,0,-1,1742,827,0,0
525,197,0,0,0,0,0,0,0,0,0,-1,1749,827,0,0
532,197,0,0,0,0,0,0,0,0,0,-1,1756,827,0,0
539,197,0,0,0,0,0,0,0,0,0,-1,1763,827,0,0
546,197,0,0,0,0,0,0,0,0,0,-1,1770,827,0,0
553,197,0,0,0,0,0,0,0,0,0,-1,1777,827,0,0
560,197,0,0,0,0,0,0,0,0,0,-1,1784,827,0,0
567,197,0,0,0,0,0,0,0,0,0,-1,1791,827,0,0
574,197,0,0,0,0,0,0,0,0,0,-1,1798,827,0,0
581,197,0,0,0,0,0,0,0,0,0,-1,1805,827,0,0
588,197,0,0,0,0,0,0,0,0,0,-1,1812,827,0,0
595,197,0,0,0,0,0,0,0,0,0,-1,1819,827,0,0
602,197,54.0457,3.04327,0.00059826,0.00932747,-0.00232268,0.00990701,1.87173e-05,-1.32627,0.00659845,0.0427541,1826,827,54.0456,-3.04328
609,197,54.0815,2.86481,0.000741341,0.00750636,-0.00109712,0.00767984,0.000567862,-1.41397,0.00494149,0.0421763,1833,827,54.0815,-2.86483
616,197,54.2181,2.74506,0.00148961,0.00584505,-0.00019176,0.00585348,0.00148118,-1.52688,0.00351423,0.0401991,1840,827,54.2181,-2.74506
623,197,54.1284,2.78308,0.00148872,0.0043044,-0.000102055,0.0043081,0.00148502,-1.53461,0.00252695,0.0364836,1847,827,54.1284,-2.78308
630,197,54.1754,2.80341,0.00071008,0.00328419,-0.000411676,0.00334843,0.000645844,-1.41601,0.00205118,0.0322393,1854,827,54.1754,-2.80338
637,197,54.2188,2.7771,-0.000343884,0.00245429,-0.000864578,0.00269987,-0.000589468,-1.29404,0.0020252,0.0279862,1861,827,54.2188,-2.77711
644,197,54.1901,2.81287,-0.00143005,0.00176129,-0.00118468,0.00215299,-0.00182175,-1.25147,0.00229747,0.0318476,1868,827,54.19,-2.8129
651,197,54.0967,2.93854,0,0,0,0,0,0,0,-1,1875,827,54.0967,-2.93852
658,197,40.4694,3.05927,0,0,0,0,0,0,0,-1,1882,827,40.4694,-3.05926
665,197,14.0618,1.80304,0,0,0,0,0,0,0,-1,1889,827,14.0617,-1.80303
672,197,40.0977,-0.62207,0,0,0,0,0,0,0,-1,1896,827,40.0977,0.6221
679,197,41.8069,0.111755,0,0,0,0,0,0,0,-1,1903,827,41.8069,-0.111774
686,197,41.8571,0.992004,-0.00430781,-0.00118332,-0.00290558,0.000553368,-0.0060445,-1.03206,0.00422622,0.0318043,1910,827,41.857,-0.992029
693,197,41.7537,1.66394,-0.00429763,-0.00112593,-0.00286083,0.000559194,-0.00598276,-1.03848,0.00418737,0.0212287,1917,827,41.7537,-1.66392
700,197,41.7391,2.23077,-0.00368852,-0.000929581,-0.00260745,0.000640824,-0.00525892,-1.02871,0.00373791,0.0234157,1924,827,41.7392,-2.23077
707,197,41.7258,2.86517,-0.00284368,-0.000551703,-0.0021331,0.000723755,-0.00411914,-1.0319,0.00301643,0.010578,1931,827,41.7258,-2.86518
714,197,41.6711,3.46478,-0.00178754,0.000378415,-0.00142384,0.00108433,-0.00249346,-1.11053,0.00211837,0.0133163,1938,827,41.6712,-3.4648
721,197,41.6633,4.0766,-0.000839977,0.00141108,-0.000725341,0.00162456,-0.00105345,-1.28457,0.00155783,0.0126958,1945,827,41.6634,-4.07663
728,197,41.6475,4.70819,-0.000343256,0.00243521,-0.000237011,0.00245528,-0.000363329,-1.48631,0.00177043,0.0109895,1952,827,41.6475,-4.7082
735,197,41.6146,5.33771,-0.000431187,0.0035103,-1.59901e-05,0.00351037,-0.000431252,-1.56674,0.00249644,0.0113314,1959,827,41.6147,-5.3377
742,197,41.6021,5.95282,-0.0012329,0.00456373,-0.000154551,0.00456785,-0.00123702,-1.54416,0.00353056,0.0209934,1966,827,41.602,-5.95283
749,197,41.3778,6.18488,-0.0029955,0.0055076,-0.000755861,0.00557427,-0.00306217,-1.48282,0.00505607,0.0450217,1973,827,41.3778,-6.1849
756,197,40.4994,7.86407,0,0,0,0,0,0,0,-1,1980,827,40.4994,-7.86409
763,197,40.1951,7.57208,0,0,0,0,0,0,0,-1,1987,827,40.1951,-7.57207
770,197,40.1252,8.19623,0,0,0,0,0,0,0,-1,1994,827,40.1252,-8.1962
777,197,0,0,0,0,0,0,0,0,0,-1,2001,827,0,0
784,197,0,0,0,0,0,0,0,0,0,-1,2008,827,0,0
791,197,0,0,0,0,0,0,0,0,0,-1,2015,827,0,0
798,197,0,0,0,0,0,0,0,0,0,-1,2022,827,0,0
805,197,0,0,0,0,0,0,0,0,0,-1,2029,827,0,0
812,197,0,0,0,0,0,0,0,0,0,-1,2036,827,0,0
-700,190,0,0,0,0,0,0,0,0,0,-1,524,834,0,0
-693,190,0,0,0,0,0,0,0,0,0,-1,531,834,0,0
-686,190,0,0,0,0,0,0,0,0,0,-1,538,834,0,0
-679,190,0,0,0,0,0,0,0,0,0,-1,545,834,0,0
-672,190,0,0,0,0,0,0,0,0,0,-1,552,834,0,0
-665,190,0,0,0,0,0,0,0,0,0,-1,559,834,0,0
-658,190,-34.7194,5.09772,0.0441858,-0.0576097,-0.0103208,0.0452217,-0.0586455,-0.100032,0.0601345,0.0492228,566,834,-34.7194,-5.09772
-651,190,-34.6227,4.48425,0,0,0,0,0,0,0,-1,573,834,-34.6227,-4.48426
-644,190,-34.7157,3.98596,0,0,0,0,0,0,0,-1,580,834,-34.7157,-3.98595
-637,190,-34.7321,3.4776,0,0,0,0,0,0,0,-1,587,834,-34.732,-3.47759
-630,190,-30.2958,6.46924,0,0,0,0,0,0,0,-1,594,834,-30.2958,-6.46924
-623,190,-30.1864,5.3974,0,0,0,0,0,0,0,-1,601,834,-30.1864,-5.3974
-616,190,-30.314,4.01373,0.00967385,0.00323217,-0.00609646,0.013348,-0.000441961,-0.542378,0.00904957,0.0433922,608,834,-30.314,-4.01375
-609,190,-30.2518,3.26685,0.00452657,0.00359278,-0.00391041,0.00799786,0.000121486,-0.725981,0.00529188,0.0253318,615,834,-30.2517,-3.26682
-602,190,-30.344,2.73987,0.00115093,0.00577391,-0.00240552,0.00679851,0.000126322,-1.16813,0.00449083,0.0171665,622,834,-30.344,-2.73985
-595,190,-30.3959,2.14819,7.97429e-05,0.00420613,-0.000900291,0.004394,-0.000108128,-1.36507,0.00296603,0.0191784,629,834,-30.3958,-2.1482
-588,190,-30.4174,1.56433,0.00027457,0.00316865,0.000260405,0.0031919,0.000251326,1.48177,0.0020493,0.0196311,636,834,-30.4173,-1.56434
-581,190,-30.4255,0.962891,0.00108154,0.00196148,0.000849266,0.00247797,0.000565042,1.02439,0.00149955,0.0137949,643,834,-30.4255,-0.962894
-574,190,-30.4178,0.353149,0.00193585,0.00099529,0.00135718,0.00290191,2.92234e-05,0.618616,0.00192494,0.0123864,650,834,-30.4179,-0.353174
-567,190,-30.3312,-0.304077,0.00206876,-2.97585e-06,0.00156306,0.00290804,-0.000842257,0.492766,0.00227209,0.0252057,657,834,-30.3311,0.304107
-560,190,-30.1906,-0.99231,0,0,0,0,0,0,0,-1,664,834,-30.1905,0.992324
-553,190,-30.1121,-1.29016,0,0,0,0,0,0,0,-1,671,834,-30.112,1.29018
-546,190,-30.7092,-1.80127,0,0,0,0,0,0,0,-1,678,834,-30.7092,1.8013
-539,190,-16.4624,-0.542542,0,0,0,0,0,0,0,-1,685,834,-16.4624,0.542527
-532,190,-21.6292,2.06122,0,0,0,0,0,0,0,-1,692,834,-21.6292,-2.06123
-525,190,-38.9377,1.03369,0,0,0,0,0,0,0,-1,699,834,-38.9377,-1.0337
-518,190,-41.0057,0.75647,0,0,0,0,0,0,0,-1,706,834,-41.0057,-0.75648
-511,190,-40.8555,1.0614,0,0,0,0,0,0,0,-1,713,834,-40.8555,-1.06142
-504,190,-40.8021,1.48541,0,0,0,0,0,0,0,-1,720,834,-40.8021,-1.48544
-497,190,-40.9778,1.36267,0,0,0,0,0,0,0,-1,727,834,-40.9778,-1.36269
-490,190,-40.9583,1.08917,0,0,0,0,0,0,0,-1,734,834,-40.9583,-1.08919
-483,190,0,0,0,0,0,0,0,0,0,-1,741,834,0,0
-476,190,0,0,0,0,0,0,0,0,0,-1,748,834,0,0
-469,190,0,0,0,0,0,0,0,0,0,-1,755,834,0,0
-462,190,0,0,0,0,0,0,0,0,0,-1,762,834,0,0
-455,190,0,0,0,0,0,0,0,0,0,-1,769,834,0,0
-448,190,0,0,0,0,0,0,0,0,0,-1,776,834,0,0
-441,190,0,0,0,0,0,0,0,0,0,-1,783,834,0,0
-434,190,0,0,0,0,0,0,0,0,0,-1,790,834,0,0
-427,190,0,0,0,0,0,0,0,0,0,-1,797,834,0,0
-420,190,0,0,0,0,0,0,0,0,0,-1,804,834,0,0
-413,190,0,0,0,0,0,0,0,0,0,-1,811,834,0,0
-406,190,0,0,0,0,0,0,0,0,0,-1,818,834,0,0
-399,190,0,0,0,0,0,0,0,0,0,-1,825,834,0,0
-392,190,0,0,0,0,0,0,0,0,0,-1,832,834,0,0
-385,190,0,0,0,0,0,0,0,0,0,-1,839,834,0,0
-378,190,0,0,0,0,0,0,0,0,0,-1,846,834,0,0
-371,190,0,0,0,0,0,0,0,0,0,-1,853,834,0,0
-364,190,0,0,0,0,0,0,0,0,0,-1,860,834,0,0
-357,190,0,0,0,0,0,0,0,0,0,-1,867,834,0,0
-350,190,0,0,0,0,0,0,0,0,0,-1,874,834,0,0
-343,190,0,0,0,0,0,0,0,0,0,-1,881,834,0,0
-336,190,0,0,0,0,0,0,0,0,0,-1,888,834,0,0
-329,190,0,0,0,0,0,0,0,0,0,-1,895,834,0,0
-322,190,0,0,0,0,0,0,0,0,0,-1,902,834,0,0
-315,190,0,0,0,0,0,0,0,0,0,-1,909,834,0,0
-308,190,0,0,0,0,0,0,0,0,0,-1,916,834,0,0
-301,190,0,0,0,0,0,0,0,0,0,-1,923,834,0,0
-294,190,0,0,0,0,0,0,0,0,0,-1,930,834,0,0
-287,190,0,0,0,0,0,0,0,0,0,-1,937,834,0,0
-280,190,0,0,0,0,0,0,0,0,0,-1,944,834,0,0
-273,190,0,0,0,0,0,0,0,0,0,-1,951,834,0,0
-266,190,0,0,0,0,0,0,0,0,0,-1,958,834,0,0
-259,190,0,0,0,0,0,0,0,0,0,-1,965,834,0,0
-252,190,0,0,0,0,0,0,0,0,0,-1,972,834,0,0
-245,190,0,0,0,0,0,0,0,0,0,-1,979,834,0,0
-238,190,0,0,0,0,0,0,0,0,0,-1,986,834,0,0
-231,190,0,0,0,0,0,0,0,0,0,-1,993,834,0,0
-224,190,0,0,0,0,0,0,0,0,0,-1,1000,834,0,0
-217,190,0,0,0,0,0,0,0,0,0,-1,1007,834,0,0
-210,190,0,0,0,0,0,0,0,0,0,-1,1014,834,0,0
-203,190,0,0,0,0,0,0,0,0,0,-1,1021,834,0,0
-196,190,0,0,0,0,0,0,0,0,0,-1,1028,834,0,0
-189,190,0,0,0,0,0,0,0,0,0,-1,1035,834,0,0
-182,190,0,0,0,0,0,0,0,0,0,-1,1042,834,0,0
-175,190,0,0,0,0,0,0,0,0,0,-1,1049,834,0,0
-168,190,0,0,0,0,0,0,0,0,0,-1,1056,834,0,0
-161,190,0,0,0,0,0,0,0,0,0,-1,1063,834,0,0
-154,190,0,0,0,0,0,0,0,0,0,-1,1070,834,0,0
-147,190,0,0,0,0,0,0,0,0,0,-1,1077,834,0,0
-140,190,0,0,0,0,0,0,0,0,0,-1,1084,834,0,0
-133,190,0,0,0,0,0,0,0,0,0,-1,1091,834,0,0
-126,190,0,0,0,0,0,0,0,0,0,-1,1098,834,0,0
-119,190,0,0,0,0,0,0,0,0,0,-1,1105,834,0,0
-112,190,0,0,0,0,0,0,0,0,0,-1,1112,834,0,0
-105,190,0,0,0,0,0,0,0,0,0,-1,1119,834,0,0
-98,190,0,0,0,0,0,0,0,0,0,-1,1126,834,0,0
-91,190,0,0,0,0,0,0,0,0,0,-1,1133,834,0,0
-84,190,0,0,0,0,0,0,0,0,0,-1,1140,834,0,0
-77,190,0,0,0,0,0,0,0,0,0,-1,1147,834,0,0
-70,190,0,0,0,0,0,0,0,0,0,-1,1154,834,0,0
-63,190,0,0,0,0,0,0,0,0,0,-1,1161,834,0,0
-56,190,0,0,0,0,0,0,0,0,0,-1,1168,834,0,0
-49,190,0,0,0,0,0,0,0,0,0,-1,1175,834,0,0
-42,190,0,0,0,0,0,0,0,0,0,-1,1182,834,0,0
-35,190,0,0,0,0,0,0,0,0,0,-1,1189,834,0,0
-28,190,0,0,0,0,0,0,0,0,0,-1,1196,834,0,0
-21,190,0,0,0,0,0,0,0,0,0,-1,1203,834,0,0
-14,190,0,0,0,0,0,0,0,0,0,-1,1210,834,0,0
-7,190,0,0,0,0,0,0,0,0,0,-1,1217,834,0,0
0,190,0,0,0,0,0,0,0,0,0,-1,1224,834,0,0
7,190,0,0,0,0,0,0,0,0,0,-1,1231,834,0,0
14,190,0,0,0,0,0,0,0,0,0,-1,1238,834,0,0
21,190,0,0,0,0,0,0,0,0,0,-1,1245,834,0,0
28,190,0,0,0,0,0,0,0,0,0,-1,1252,834,0,0
35,190,0,0,0,0,0,0,0,0,0,-1,1259,834,0,0
42,190,0,0,0,0,0,0,0,0,0,-1,1266,834,0,0
49,190,0,0,0,0,0,0,0,0,0,-1,1273,834,0,0
56,190,0,0,0,0,0,0,0,0,0,-1,1280,834,0,0
63,190,0,0,0,0,0,0,0,0,0,-1,1287,834,0,0
70,190,0,0,0,0,0,0,0,0,0,-1,1294,834,0,0
77,190,0,0,0,0,0,0,0,0,0,-1,1301,834,0,0
84,190,0,0,0,0,0,0,0,0,0,-1,1308,834,0,0
91,190,0,0,0,0,0,0,0,0,0,-1,1315,834,0,0
98,190,0,0,0,0,0,0,0,0,0,-1,1322,834,0,0
105,190,0,0,0,0,0,0,0,0,0,-1,1329,834,0,0
112,190,0,0,0,0,0,0,0,0,0,-1,1336,834,0,0
119,190,0,0,0,0,0,0,0,0,0,-1,1343,834,0,0
126,190,0,0,0,0,0,0,0,0,0,-1,1350,834,0,0
133,190,0,0,0,0,0,0,0,0,0,-1,1357,834,0,0
140,190,0,0,0,0,0,0,0,0,0,-1,1364,834,0,0
147,190,0,0,0,0,0,0,0,0,0,-1,1371,834,0,0
154,190,0,0,0,0,0,0,0,0,0,-1,1378,834,0,0
161,190,0,0,0,0,0,0,0,0,0,-1,1385,834,0,0
168,190,0,0,0,0,0,0,0,0,0,-1,1392,834,0,0
175,190,0,0,0,0,0,0,0,0,0,-1,1399,834,0,0
182,190,0,0,0,0,0,0,0,0,0,-1,1406,834,0,0
189,190,0,0,0,0,0,0,0,0,0,-1,1413,834,0,0
196,190,0,0,0,0,0,0,0,0,0,-1,1420,834,0,0
203,190,0,0,0,0,0,0,0,0,0,-1,1427,834,0,0
210,190,0,0,0,0,0,0,0,0,0,-1,1434,834,0,0
217,190,0,0,0,0,0,0,0,0,0,-1,1441,834,0,0
224,190,0,0,0,0,0,0,0,0,0,-1,1448,834,0,0
231,190,0,0,0,0,0,0,0,0,0,-1,1455,834,0,0
238,190,0,0,0,0,0,0,0,0,0,-1,1462,834,0,0
245,190,0,0,0,0,0,0,0,0,0,-1,1469,834,0,0
252,190,0,0,0,0,0,0,0,0,0,-1,1476,834,0,0
259,190,0,0,0,0,0,0,0,0,0,-1,1483,834,0,0
266,190,0,0,0,0,0,0,0,0,0,-1,1490,834,0,0
273,190,0,0,0,0,0,0,0,0,0,-1,1497,834,0,0
280,190,0,0,0,0,0,0,0,0,0,-1,1504,834,0,0
287,190,0,0,0,0,0,0,0,0,0,-1,1511,834,0,0
294,190,0,0,0,0,0,0,0,0,0,-1,1518,834,0,0
301,190,0,0,0,0,0,0,0,0,0,-1,1525,834,0,0
308,190,0,0,0,0,0,0,0,0,0,-1,1532,834,0,0
315,190,0,0,0,0,0,0,0,0,0,-1,1539,834,0,0
322,190,0,0,0,0,0,0,0,0,0,-1,1546,834,0,0
329,190,0,0,0,0,0,0,0,0,0,-1,1553,834,0,0
336,190,0,0,0,0,0,0,0,0,0,-1,1560,834,0,0
343,190,0,0,0,0,0,0,0,0,0,-1,1567,834,0,0
350,190,0,0,0,0,0,0,0,0,0,-1,1574,834,0,0
357,190,0,0,0,0,0,0,0,0,0,-1,1581,834,0,0
364,190,0,0,0,0,0,0,0,0,0,-1,1588,834,0,0
371,190,0,0,0,0,0,0,0,0,0,-1,1595,834,0,0
378,190,0,0,0,0,0,0,0,0,0,-1,1602,834,0,0
385,190,0,0,0,0,0,0,0,0,0,-1,1609,834,0,0
392,190,0,0,0,0,0,0,0,0,0,-1,1616,834,0,0
399,190,0,0,0,0,0,0,0,0,0,-1,1623,834,0,0
406,190,0,0,0,0,0,0,0,0,0,-1,1630,834,0,0
413,190,0,0,0,0,0,0,0,0,0,-1,1637,834,0,0
420,190,0,0,0,0,0,0,0,0,0,-1,1644,834,0,0
427,190,0,0,0,0,0,0,0,0,0,-1,1651,834,0,0
434,190,0,0,0,0,0,0,0,0,0,-1,1658,834,0,0
441,190,0,0,0,0,0,0,0,0,0,-1,1665,834,0,0
448,190,0,0,0,0,0,0,0,0,0,-1,1672,834,0,0
455,190,0,0,0,0,0,0,0,0,0,-1,1679,834,0,0
462,190,0,0,0,0,0,0,0,0,0,-1,1686,834,0,0
469,190,0,0,0,0,0,0,0,0,0,-1,1693,834,0,0
476,190,0,0,0,0,0,0,0,0,0,-1,1700,834,0,0
483,190,0,0,0,0,0,0,0,0,0,-1,1707,834,0,0
490,190,0,0,0,0,0,0,0,0,0,-1,1714,834,0,0
497,190,0,0,0,0,0,0,0,0,0,-1,1721,834,0,0
504,190,0,0,0,0,0,0,0,0,0,-1,1728,834,0,0
511,190,0,0,0,0,0,0,0,0,0,-1,1735,834,0,0
518,190,0,0,0,0,0,0,0,0,0,-1,1742,834,0,0
525,190,0,0,0,0,0,0,0,0,0,-1,1749,834,0,0
532,190,0,0,0,0,0,0,0,0,0,-1,1756,834,0,0
539,190,0,0,0,0,0,0,0,0,0,-1,1763,834,0,0
546,190,0,0,0,0,0,0,0,0,0,-1,1770,834,0,0
553,190,0,0,0,0,0,0,0,0,0,-1,1777,834,0,0
560,190,0,0,0,0,0,0,0,0,0,-1,1784,834,0,0
567,190,0,0,0,0,0,0,0,0,0,-1,1791,834,0,0
574,190,0,0,0,0,0,0,0,0,0,-1,1798,834,0,0
581,190,0,0,0,0,0,0,0,0,0,-1,1805,834,0,0
588,190,0,0,0,0,0,0,0,0,0,-1,1812,834,0,0
595,190,0,0,0,0,0,0,0,0,0,-1,1819,834,0,0
602,190,54.0994,2.56482,-0.00152158,0.0107905,-0.00200422,0.0111085,-0.00183962,-1.41342,0.00808893,0.0434532,1826,834,54.0994,-2.56483
609,190,54.1785,2.6933,-0.00106111,0.00882171,-0.000912455,0.00890525,-0.00114465,-1.4795,0.00635285,0.0435136,1833,834,54.1785,-2.6933
616,190,54.1632,2.69531,5.54674e-05,0.00687868,-0.000118136,0.00688072,5.34225e-05,-1.55349,0.00456944,0.0412239,1840,834,54.1632,-2.69529
623,190,54.1143,2.9978,0.000576715,0.00502331,7.20207e-05,0.00502448,0.000575549,1.55461,0.00317524,0.03819,1847,834,54.1143,-2.99781
630,190,54.1759,2.97162,0.000155538,0.00367769,-0.000239631,0.00369392,0.00013931,-1.50318,0.00241752,0.0409819,1854,834,54.1759,-2.97163
637,190,54.1951,2.79181,-0.000763807,0.00266803,-0.000717204,0.00281189,-0.000907662,-1.37285,0.00223933,0.0324246,1861,834,54.1951,-2.79182
644,190,54.1575,2.87421,-0.00177251,0.00183983,-0.00109695,0.00214685,-0.00207952,-1.2979,0.0024402,0.026472,1868,834,54.1575,-2.8742
651,190,54.1124,3.0025,-0.00251454,0.00114815,-0.00143011,0.00164039,-0.00300678,-1.2393,0.00272143,0.0495672,1875,834,54.1125,-3.0025
658,190,54.0599,3.0943,0,0,0,0,0,0,0,-1,1882,834,54.0599,-3.09428
665,190,25.9916,3.05157,0,0,0,0,0,0,0,-1,1889,834,25.9916,-3.05156
672,190,27.2662,1.70862,0,0,0,0,0,0,0,-1,1896,834,27.2662,-1.70861
679,190,42.5598,0.549561,0,0,0,0,0,0,0,-1,1903,834,42.5598,-0.549563
686,190,42.4847,1.11395,-0.00439727,-0.000960195,-0.00278447,0.000593364,-0.00595083,-1.06188,0.00417907,0.0273753,1910,834,42.4848,-1.11397
693,190,42.4752,1.70276,-0.00449669,-0.000879086,-0.00277933,0.000628202,-0.00600398,-1.07387,0.00422764,0.0227349,1917,834,42.4752,-1.70276
700,190,42.3021,2.26892,-0.00411093,-0.000714333,-0.00265162,0.000736225,-0.00556149,-1.07022,0.00397585,0.0144959,1924,834,42.3021,-2.26895
707,190,42.3241,2.88544,-0.00342944,-0.000485565,-0.0023391,0.000806191,-0.0047212,-1.06623,0.00344776,0.0137986,1931,834,42.3242,-2.88545
714,190,42.3236,3.48206,-0.0023903,0.000282346,-0.00175163,0.0011492,-0.00325716,-1.11125,0.00263926,0.0123735,1938,834,42.3236,-3.48208
721,190,42.3081,4.08704,-0.00133927,0.00109109,-0.00112809,0.00153399,-0.00178218,-1.19667,0.00191638,0.0114871,1945,834,42.3081,-4.08701
728,190,42.2876,4.69977,-0.000646121,0.00192881,-0.000628679,0.00207411,-0.000791416,-1.34367,0.00170877,0.0134801,1952,834,42.2877,-4.69974
735,190,42.2654,5.30426,-0.00046007,0.00281136,-0.000371154,0.00285294,-0.00050165,-1.45923,0.00208935,0.0123002,1959,834,42.2654,-5.30429
742,190,42.2129,5.97028,-0.000862199,0.0036507,-0.000404329,0.00368664,-0.000898137,-1.48214,0.00280548,0.0170817,1966,834,42.2129,-5.97025
749,190,42.0782,6.96216,-0.00202193,0.00434327,-0.000798251,0.00444185,-0.00212051,-1.44792,0.00386699,0.0415612,1973,834,42.0782,-6.96215
756,190,41.7145,7.82104,-0.00411219,0.00488358,-0.00180244,0.00523129,-0.0044599,-1.38023,0.00560111,0.0490001,1980,834,41.7144,-7.82106
763,190,41.8417,8.34167,0,0,0,0,0,0,0,-1,1987,834,41.8417,-8.34168
770,190,39.8972,7.38257,0,0,0,0,0,0,0,-1,1994,834,39.8972,-7.38259
777,190,40.5735,6.99371,0,0,0,0,0,0,0,-1,2001,834,40.5735,-6.99373
784,190,0,0,0,0,0,0,0,0,0,-1,2008,834,0,0
791,190,0,0,0,0,0,0,0,0,0,-1,2015,834,0,0
798,190,0,0,0,0,0,0,0,0,0,-1,2022,834,0,0
805,190,0,0,0,0,0,0,0,0,0,-1,2029,834,0,0
812,190,0,0,0,0,0,0,0,0,0,-1,2036,834,0,0
-700,183,0,0,0,0,0,0,0,0,0,-1,524,841,0,0
-693,183,0,0,0,0,0,0,0,0,0,-1,531,841,0,0
-686,183,0,0,0,0,0,0,0,0,0,-1,538,841,0,0
-679,183,0,0,0,0,0,0,0,0,0,-1,545,841,0,0
-672,183,0,0,0,0,0,0,0,0,0,-1,552,841,0,0
-665,183,0,0,0,0,0,0,0,0,0,-1,559,841,0,0
-658,183,-35.7355,6.94122,0,0,0,0,0,0,0,-1,566,841,-35.7355,-6.94119
-651,183,-34.304,4.98224,0,0,0,0,0,0,0,-1,573,841,-34.304,-4.98221
-644,183,-34.085,4.43054,0.0433299,-0.0108013,-0.0166285,0.0480299,-0.0155013,-0.275462,0.0382488,0.0468313,580,841,-34.085,-4.43055
-637,183,-34.0091,3.82465,0,0,0,0,0,0,0,-1,587,841,-34.0091,-3.82463
-630,183,-30.713,6.23895,0,0,0,0,0,0,0,-1,594,841,-30.7129,-6.23893
-623,183,-30.7779,5.29181,0.0178171,0.0028743,-0.0088269,0.0219101,-0.00121873,-0.434188,0.0150295,0.048221,601,841,-30.7779,-5.29182
-616,183,-30.8541,4.28424,0.0103665,0.0037697,-0.00572055,0.0136714,0.00046475,-0.523886,0.00896339,0.0398599,608,841,-30.8541,-4.28424
-609,183,-30.9371,3.3208,0.00495618,0.00353968,-0.00323471,0.00755927,0.000936587,-0.677623,0.00475814,0.0186704,615,841,-30.9371,-3.32083
-602,183,-30.9641,2.73108,0.00143983,0.00517652,-0.0015628,0.00574396,0.000872388,-1.2225,0.00357418,0.0116407,622,841,-30.964,-2.73109
-595,183,-30.9935,2.14313,0.000405898,0.00365126,-2.11575e-05,0.00365139,0.00040576,-1.56428,0.00231091,0.0112684,629,841,-30.9936,-2.14313
-588,183,-31.0053,1.56128,0.000661607,0.00269225,0.000998057,0.00310065,0.000253202,1.18238,0.00198808,0.0137335,636,841,-31.0053,-1.56129
-581,183,-31.0408,0.982178,0.00150483,0.00169472,0.00147775,0.00308057,0.00011897,0.817479,0.00201523,0.0144109,643,841,-31.0408,-0.982172
-574,183,-31.0161,0.404419,0.00231272,0.00104767,0.00186507,0.0036496,-0.000289217,0.621913,0.00253498,0.0157126,650,841,-31.0161,-0.40444
-567,183,-30.9426,-0.171448,0,0,0,0,0,0,0,-1,657,841,-30.9426,0.171435
-560,183,-30.6185,-0.892395,0,0,0,0,0,0,0,-1,664,841,-30.6185,0.892377
-553,183,-30.6578,-1.50983,0,0,0,0,0,0,0,-1,671,841,-30.6578,1.50983
-546,183,-27.8053,-1.91199,0,0,0,0,0,0,0,-1,678,841,-27.8053,1.91201
-539,183,-16.8032,-0.417297,0,0,0,0,0,0,0,-1,685,841,-16.8032,0.41732
-532,183,-29.9686,0.953613,0,0,0,0,0,0,0,-1,692,841,-29.9686,-0.953627
-525,183,-40.8589,0.961914,0,0,0,0,0,0,0,-1,699,841,-40.859,-0.961926
-518,183,-40.9711,0.959351,-0.000908646,-0.00363741,0.00140525,-0.000314391,-0.00423166,0.400076,0.00272237,0.0483002,706,841,-40.9711,-0.959341
-511,183,-40.9056,1.00751,-0.00186532,-0.00397663,0.00112652,-0.00137713,-0.00446482,0.40893,0.00264007,0.0411749,713,841,-40.9056,-1.0075
-504,183,-40.9266,1.23676,-0.00211727,-0.00344884,0.000738642,-0.00178864,-0.00377747,0.418614,0.00218195,0.041669,720,841,-40.9267,-1.23675
-497,183,-41.0255,1.24902,-0.00121371,-0.00135202,-8.65907e-06,-0.00121317,-0.00135256,-0.0622839,0.00085902,0.0458563,727,841,-41.0255,-1.24904
-490,183,-40.8705,1.07153,0.000781052,0.00236027,-0.00118347,0.00299336,0.000147961,-1.07958,0.00194813,0.0451903,734,841,-40.8705,-1.07154
-483,183,0,0,0,0,0,0,0,0,0,-1,741,841,0,0
-476,183,0,0,0,0,0,0,0,0,0,-1,748,841,0,0
-469,183,0,0,0,0,0,0,0,0,0,-1,755,841,0,0
-462,183,0,0,0,0,0,0,0,0,0,-1,762,841,0,0
-455,183,0,0,0,0,0,0,0,0,0,-1,769,841,0,0
-448,183,0,0,0,0,0,0,0,0,0,-1,776,841,0,0
-441,183,0,0,0,0,0,0,0,0,0,-1,783,841,0,0
-434,183,0,0,0,0,0,0,0,0,0,-1,790,841,0,0
-427,183,0,0,0,0,0,0,0,0,0,-1,797,841,0,0
-420,183,0,0,0,0,0,0,0,0,0,-1,804,841,0,0
-413,183,0,0,0,0,0,0,0,0,0,-1,811,841,0,0
-406,183,0,0,0,0,0,0,0,0,0,-1,818,841,0,0
-399,183,0,0,0,0,0,0,0,0,0,-1,825,841,0,0
-392,183,0,0,0,0,0,0,0,0,0,-1,832,841,0,0
-385,183,0,0,0,0,0,0,0,0,0,-1,839,841,0,0
-378,183,0,0,0,0,0,0,0,0,0,-1,846,841,0,0
-371,183,0,0,0,0,0,0,0,0,0,-1,853,841,0,0
-364,183,0,0,0,0,0,0,0,0,0,-1,860,841,0,0
-357,183,0,0,0,0,0,0,0,0,0,-1,867,841,0,0
-350,183,0,0,0,0,0,0,0,0,0,-1,874,841,0,0
-343,183,0,0,0,0,0,0,0,0,0,-1,881,841,0,0
-336,183,0,0,0,0,0,0,0,0,0,-1,888,841,0,0
-329,183,0,0,0,0,0,0,0,0,0,-1,895,841,0,0
-322,183,0,0,0,0,0,0,0,0,0,-1,902,841,0,0
-315,183,0,0,0,0,0,0,0,0,0,-1,909,841,0,0
-308,183,0,0,0,0,0,0,0,0,0,-1,916,841,0,0
-301,183,0,0,0,0,0,0,0,0,0,-1,923,841,0,0
-294,183,0,0,0,0,0,0,0,0,0,-1,930,841,0,0
-287,183,0,0,0,0,0,0,0,0,0,-1,937,841,0,0
-280,183,0,0,0,0,0,0,0,0,0,-1,944,841,0,0
-273,183,0,0,0,0,0,0,0,0,0,-1,951,841,0,0
-266,183,0,0,0,0,0,0,0,0,0,-1,958,841,0,0
-259,183,0,0,0,0,0,0,0,0,0,-1,965,841,0,0
-252,183,0,0,0,0,0,0,0,0,0,-1,972,841,0,0
-245,183,0,0,0,0,0,0,0,0,0,-1,979,841,0,0
-238,183,0,0,0,0,0,0,0,0,0,-1,986,841,0,0
-231,183,0,0,0,0,0,0,0,0,0,-1,993,841,0,0
-224,183,0,0,0,0,0,0,0,0,0,-1,1000,841,0,0
-217,183,0,0,0,0,0,0,0,0,0,-1,1007,841,0,0
-210,183,0,0,0,0,0,0,0,0,0,-1,1014,841,0,0
-203,183,0,0,0,0,0,0,0,0,0,-1,1021,841,0,0
-196,183,0,0,0,0,0,0,0,0,0,-1,1028,841,0,0
-189,183,0,0,0,0,0,0,0,0,0,-1,1035,841,0,0
-182,183,0,0,0,0,0,0,0,0,0,-1,1042,841,0,0
-175,183,0,0,0,0,0,0,0,0,0,-1,1049,841,0,0
-168,183,0,0,0,0,0,0,0,0,0,-1,1056,841,0,0
-161,183,0,0,0,0,0,0,0,0,0,-1,1063,841,0,0
-154,183,0,0,0,0,0,0,0,0,0,-1,1070,841,0,0
-147,183,0,0,0,0,0,0,0,0,0,-1,1077,841,0,0
-140,183,0,0,0,0,0,0,0,0,0,-1,1084,841,0,0
-133,183,0,0,0,0,0,0,0,0,0,-1,1091,841,0,0
-126,183,0,0,0,0,0,0,0,0,0,-1,1098,841,0,0
-119,183,0,0,0,0,0,0,0,0,0,-1,1105,841,0,0
-112,183,0,0,0,0,0,0,0,0,0,-1,1112,841,0,0
-105,183,0,0,0,0,0,0,0,0,0,-1,1119,841,0,0
-98,183,0,0,0,0,0,0,0,0,0,-1,1126,841,0,0
-91,183,0,0,0,0,0,0,0,0,0,-1,1133,841,0,0
-84,183,0,0,0,0,0,0,0,0,0,-1,1140,841,0,0
-77,183,0,0,0,0,0,0,0,0,0,-1,1147,841,0,0
-70,183,0,0,0,0,0,0,0,0,0,-1,1154,841,0,0
-63,183,0,0,0,0,0,0,0,0,0,-1,1161,841,0,0
-56,183,0,0,0,0,0,0,0,0,0,-1,1168,841,0,0
-49,183,0,0,0,0,0,0,0,0,0,-1,1175,841,0,0
-42,183,0,0,0,0,0,0,0,0,0,-1,1182,841,0,0
-35,183,0,0,0,0,0,0,0,0,0,-1,1189,841,0,0
-28,183,0,0,0,0,0,0,0,0,0,-1,1196,841,0,0
-21,183,0,0,0,0,0,0,0,0,0,-1,1203,841,0,0
-14,183,0,0,0,0,0,0,0,0,0,-1,1210,841,0,0
-7,183,0,0,0,0,0,0,0,0,0,-1,1217,841,0,0
0,183,0,0,0,0,0,0,0,0,0,-1,1224,841,0,0
7,183,0,0,0,0,0,0,0,0,0,-1,1231,841,0,0
14,183,0,0,0,0,0,0,0,0,0,-1,1238,841,0,0
21,183,0,0,0,0,0,0,0,0,0,-1,1245,841,0,0
28,183,0,0,0,0,0,0,0,0,0,-1,1252,841,0,0
35,183,0,0,0,0,0,0,0,0,0,-1,1259,841,0,0
42,183,0,0,0,0,0,0,0,0,0,-1,1266,841,0,0
49,183,0,0,0,0,0,0,0,0,0,-1,1273,841,0,0
56,183,0,0,0,0,0,0,0,0,0,-1,1280,841,0,0
63,183,0,0,0,0,0,0,0,0,0,-1,1287,841,0,0
70,183,0,0,0,0,0,0,0,0,0,-1,1294,841,0,0
77,183,0,0,0,0,0,0,0,0,0,-1,1301,841,0,0
84,183,0,0,0,0,0,0,0,0,0,-1,1308,841,0,0
91,183,0,0,0,0,0,0,0,0,0,-1,1315,841,0,0
98,183,0,0,0,0,0,0,0,0,0,-1,1322,841,0,0
105,183,0,0,0,0,0,0,0,0,0,-1,1329,841,0,0
112,183,0,0,0,0,0,0,0,0,0,-1,1336,841,0,0
119,183,0,0,0,0,0,0,0,0,0,-1,1343,841,0,0
126,183,0,0,0,0,0,0,0,0,0,-1,1350,841,0,0
133,183,0,0,0,0,0,0,0,0,0,-1,1357,841,0,0
140,183,0,0,0,0,0,0,0,0,0,-1,1364,841,0,0
147,183,0,0,0,0,0,0,0,0,0,-1,1371,841,0,0
154,183,0,0,0,0,0,0,0,0,0,-1,1378,841,0,0
161,183,0,0,0,0,0,0,0,0,0,-1,1385,841,0,0
168,183,0,0,0,0,0,0,0,0,0,-1,1392,841,0,0
175,183,0,0,0,0,0,0,0,0,0,-1,1399,841,0,0
182,183,0,0,0,0,0,0,0,0,0,-1,1406,841,0,0
189,183,0,0,0,0,0,0,0,0,0,-1,1413,841,0,0
196,183,0,0,0,0,0,0,0,0,0,-1,1420,841,0,0
203,183,0,0,0,0,0,0,0,0,0,-1,1427,841,0,0
210,183,0,0,0,0,0,0,0,0,0,-1,1434,841,0,0
217,183,0,0,0,0,0,0,0,0,0,-1,1441,841,0,0
224,183,0,0,0,0,0,0,0,0,0,-1,1448,841,0,0
231,183,0,0,0,0,0,0,0,0,0,-1,1455,841,0,0
238,183,0,0,0,0,0,0,0,0,0,-1,1462,841,0,0
245,183,0,0,0,0,0,0,0,0,0,-1,1469,841,0,0
252,183,0,0,0,0,0,0,0,0,0,-1,1476,841,0,0
259,183,0,0,0,0,0,0,0,0,0,-1,1483,841,0,0
266,183,0,0,0,0,0,0,0,0,0,-1,1490,841,0,0
273,183,0,0,0,0,0,0,0,0,0,-1,1497,841,0,0
280,183,0,0,0,0,0,0,0,0,0,-1,1504,841,0,0
287,183,0,0,0,0,0,0,0,0,0,-1,1511,841,0,0
294,183,0,0,0,0,0,0,0,0,0,-1,1518,841,0,0
301,183,0,0,0,0,0,0,0,0,0,-1,1525,841,0,0
308,183,0,0,0,0,0,0,0,0,0,-1,1532,841,0,0
315,183,0,0,0,0,0,0,0,0,0,-1,1539,841,0,0
322,183,0,0,0,0,0,0,0,0,0,-1,1546,841,0,0
329,183,0,0,0,0,0,0,0,0,0,-1,1553,841,0,0
336,183,0,0,0,0,0,0,0,0,0,-1,1560,841,0,0
343,183,0,0,0,0,0,0,0,0,0,-1,1567,841,0,0
350,183,0,0,0,0,0,0,0,0,0,-1,1574,841,0,0
357,183,0,0,0,0,0,0,0,0,0,-1,1581,841,0,0
364,183,0,0,0,0,0,0,0,0,0,-1,1588,841,0,0
371,183,0,0,0,0,0,0,0,0,0,-1,1595,841,0,0
378,183,0,0,0,0,0,0,0,0,0,-1,1602,841,0,0
385,183,0,0,0,0,0,0,0,0,0,-1,1609,841,0,0
392,183,0,0,0,0,0,0,0,0,0,-1,1616,841,0,0
399,183,0,0,0,0,0,0,0,0,0,-1,1623,841,0,0
406,183,0,0,0,0,0,0,0,0,0,-1,1630,841,0,0
413,183,0,0,0,0,0,0,0,0,0,-1,1637,841,0,0
420,183,0,0,0,0,0,0,0,0,0,-1,1644,841,0,0
427,183,0,0,0,0,0,0,0,0,0,-1,1651,841,0,0
434,183,0,0,0,0,0,0,0,0,0,-1,1658,841,0,0
441,183,0,0,0,0,0,0,0,0,0,-1,1665,841,0,0
448,183,0,0,0,0,0,0,0,0,0,-1,1672,841,0,0
455,183,0,0,0,0,0,0,0,0,0,-1,1679,841,0,0
462,183,0,0,0,0,0,0,0,0,0,-1,1686,841,0,0
469,183,0,0,0,0,0,0,0,0,0,-1,1693,841,0,0
476,183,0,0,0,0,0,0,0,0,0,-1,1700,841,0,0
483,183,0,0,0,0,0,0,0,0,0,-1,1707,841,0,0
490,183,0,0,0,0,0,0,0,0,0,-1,1714,841,0,0
497,183,0,0,0,0,0,0,0,0,0,-1,1721,841,0,0
504,183,0,0,0,0,0,0,0,0,0,-1,1728,841,0,0
511,183,0,0,0,0,0,0,0,0,0,-1,1735,841,0,0
518,183,0,0,0,0,0,0,0,0,0,-1,1742,841,0,0
525,183,0,0,0,0,0,0,0,0,0,-1,1749,841,0,0
532,183,0,0,0,0,0,0,0,0,0,-1,1756,841,0,0
539,183,0,0,0,0,0,0,0,0,0,-1,1763,841,0,0
546,183,0,0,0,0,0,0,0,0,0,-1,1770,841,0,0
553,183,0,0,0,0,0,0,0,0,0,-1,1777,841,0,0
560,183,0,0,0,0,0,0,0,0,0,-1,1784,841,0,0
567,183,0,0,0,0,0,0,0,0,0,-1,1791,841,0,0
574,183,0,0,0,0,0,0,0,0,0,-1,1798,841,0,0
581,183,0,0,0,0,0,0,0,0,0,-1,1805,841,0,0
588,183,0,0,0,0,0,0,0,0,0,-1,1812,841,0,0
595,183,0,0,0,0,0,0,0,0,0,-1,1819,841,0,0
602,183,0,0,0,0,0,0,0,0,0,-1,1826,841,0,0
609,183,54.1853,2.74908,-0.00294507,0.010075,-0.000904879,0.0101376,-0.00300765,-1.50174,0.00795282,0.0418433,1833,841,54.1853,-2.74908
616,183,54.1976,2.80585,-0.00154044,0.00789249,-0.000162703,0.0078953,-0.00154325,-1.55355,0.00584624,0.0401633,1840,841,54.1976,-2.80583
623,183,54.2168,2.95874,-0.000539234,0.0058455,0.000176503,0.00585038,-0.000544109,1.54318,0.00409369,0.0421198,1847,841,54.2168,-2.95872
630,183,54.1671,2.86096,-0.000457969,0.00423694,-5.32691e-05,0.00423755,-0.000458573,-1.55945,0.00298964,0.0412035,1854,841,54.1671,-2.86096
637,183,54.1559,2.73608,-0.00107695,0.00306671,-0.000507946,0.00312807,-0.00113831,-1.45058,0.00255093,0.0345093,1861,841,54.1559,-2.73608
644,183,54.0789,2.85004,-0.00193915,0.0021139,-0.000940146,0.00232136,-0.00214661,-1.35361,0.00258024,0.0280379,1868,841,54.0789,-2.85004
651,183,54.1599,2.87451,-0.00264474,0.00134763,-0.00133313,0.00175186,-0.00304897,-1.27639,0.00280528,0.0264878,1875,841,54.16,-2.87454
658,183,54.2782,2.74634,0,0,0,0,0,0,0,-1,1882,841,54.2782,-2.74634
665,183,38.4337,2.66992,0,0,0,0,0,0,0,-1,1889,841,38.4337,-2.6699
672,183,29.168,1.54572,0,0,0,0,0,0,0,-1,1896,841,29.168,-1.54574
679,183,43.2147,0.622009,0,0,0,0,0,0,0,-1,1903,841,43.2147,-0.621984
686,183,43.1801,1.16168,-0.00410691,-0.000577939,-0.0025975,0.000797705,-0.00548255,-1.08375,0.00394789,0.0321492,1910,841,43.18,-1.16169
693,183,43.1392,1.71149,-0.00423457,-0.00048322,-0.00260079,0.000847701,-0.00556549,-1.0978,0.00402278,0.0282644,1917,841,43.1392,-1.71151
700,183,43.004,2.31683,-0.00401732,-0.000348353,-0.00255122,0.000959468,-0.00532514,-1.0971,0.00390936,0.0272636,1924,841,43.004,-2.31682
707,183,42.9321,2.90338,-0.00350711,-0.000248566,-0.0023682,0.000996691,-0.00475237,-1.0867,0.00354746,0.0125609,1931,841,42.9321,-2.90337
714,183,42.9607,3.49042,-0.00259584,0.000371384,-0.00190357,0.00130121,-0.00352566,-1.11642,0.00288375,0.0159173,1938,841,42.9607,-3.49043
721,183,42.936,4.08984,-0.00157703,0.000987563,-0.00136665,0.0015793,-0.00216877,-1.16218,0.00217285,0.0149579,1945,841,42.936,-4.08982
728,183,42.9077,4.70361,-0.000857334,0.00169589,-0.000880706,0.00197021,-0.00113165,-1.26885,0.00181254,0.0134515,1952,841,42.9077,-4.70364
735,183,42.885,5.31818,-0.000581668,0.00246062,-0.000593974,0.00257248,-0.000693523,-1.38466,0.00198692,0.0124658,1959,841,42.885,-5.31817
742,183,42.8669,5.96002,-0.000829634,0.00321684,-0.000530119,0.00328514,-0.000897931,-1.44267,0.00254281,0.0135735,1966,841,42.867,-5.96003
749,183,42.9485,6.87537,-0.00174129,0.0038463,-0.000741492,0.00394303,-0.00183802,-1.44108,0.00341065,0.0368569,1973,841,42.9485,-6.87537
756,183,42.9868,7.81567,-0.00346463,0.00434839,-0.0014077,0.00459429,-0.00371052,-1.39786,0.00480383,0.0471896,1980,841,42.9868,-7.81566
763,183,43.1047,8.38831,0,0,0,0,0,0,0,-1,1987,841,43.1048,-8.38831
770,183,41.0603,7.72028,0,0,0,0,0,0,0,-1,1994,841,41.0603,-7.72026
777,183,42.1948,7.22906,0,0,0,0,0,0,0,-1,2001,841,42.1948,-7.22905
784,183,0,0,0,0,0,0,0,0,0,-1,2008,841,0,0
791,183,0,0,0,0,0,0,0,0,0,-1,2015,841,0,0
798,183,0,0,0,0,0,0,0,0,0,-1,2022,841,0,0
805,183,0,0,0,0,0,0,0,0,0,-1,2029,841,0,0
812,183,0,0,0,0,0,0,0,0,0,-1,2036,841,0,0
-700,176,0,0,0,0,0,0,0,0,0,-1,524,848,0,0
-693,176,0,0,0,0,0,0,0,0,0,-1,531,848,0,0
-686,176,0,0,0,0,0,0,0,0,0,-1,538,848,0,0
-679,176,0,0,0,0,0,0,0,0,0,-1,545,848,0,0
-672,176,0,0,0,0,0,0,0,0,0,-1,552,848,0,0
-665,176,-35.85,6.68445,0.075817,-0.0278887,-0.0230224,0.0806982,-0.0327699,-0.208925,0.0674307,0.045056,559,848,-35.8501,-6.68442
-658,176,-35.6655,6.72937,0,0,0,0,0,0,0,-1,566,848,-35.6655,-6.72935
-651,176,-33.9758,5.14032,0,0,0,0,0,0,0,-1,573,848,-33.9757,-5.14032
-644,176,-33.5986,4.65649,0,0,0,0,0,0,0,-1,580,848,-33.5986,-4.65646
-637,176,-31.3876,5.30994,0,0,0,0,0,0,0,-1,587,848,-31.3876,-5.30994
-630,176,-31.4185,4.82648,0,0,0,0,0,0,0,-1,594,848,-31.4185,-4.82649
-623,176,-31.439,4.38458,0.0184261,0.00433731,-0.00918203,0.0229547,-0.000191251,-0.458191,0.0153672,0.0402676,601,848,-31.439,-4.3846
-616,176,-31.4871,3.93262,0.0106066,0.00412362,-0.00547408,0.0137269,0.00100328,-0.518084,0.00883587,0.0293184,608,848,-31.4871,-3.93261
-609,176,-31.5248,3.34003,0.00503701,0.0032921,-0.00262117,0.00692711,0.001402,-0.624741,0.00422893,0.0129687,615,848,-31.5248,-3.34005
-602,176,-31.5494,2.73328,0.00143206,0.00443861,-0.000822651,0.00464899,0.00122168,-1.32044,0.00278296,0.0130752,622,848,-31.5493,-2.73328
-595,176,-31.5953,2.14398,0.000462788,0.00302303,0.000662691,0.00318439,0.000301427,1.33195,0.00202992,0.0124237,629,848,-31.5953,-2.14398
-588,176,-31.5913,1.57928,0.000859771,0.00217506,0.00152607,0.00317916,-0.000144324,0.988844,0.00216915,0.0139372,636,848,-31.5913,-1.57931
-581,176,-31.6342,1.03394,0.00177208,0.00142604,0.00191167,0.00351854,-0.00032042,0.740269,0.00245947,0.0125892,643,848,-31.6342,-1.03393
-574,176,-31.6768,0.459412,0.00250815,0.00104257,0.00224247,0.00413452,-0.000583802,0.627478,0.00297014,0.0235599,650,848,-31.6768,-0.459411
-567,176,-31.6624,-0.208984,0,0,0,0,0,0,0,-1,657,848,-31.6624,0.208959
-560,176,-31.4471,-0.234253,0,0,0,0,0,0,0,-1,664,848,-31.4472,0.234278
-553,176,-29.4605,-1.50214,0,0,0,0,0,0,0,-1,671,848,-29.4605,1.50211
-546,176,-16.657,-0.403198,0,0,0,0,0,0,0,-1,678,848,-16.657,0.403182
-539,176,-22.7061,1.48657,0,0,0,0,0,0,0,-1,685,848,-22.7061,-1.48657
-532,176,-38.8326,1.29749,0,0,0,0,0,0,0,-1,692,848,-38.8326,-1.29747
-525,176,-40.7943,1.19751,0,0,0,0,0,0,0,-1,699,848,-40.7943,-1.19751
-518,176,-40.9104,1.23157,-6.10625e-06,-0.00284578,0.00171914,0.000803718,-0.00365561,0.440231,0.00274449,0.0405732,706,848,-40.9104,-1.23159
-511,176,-41.0821,1.13202,-0.000808325,-0.00312061,0.00137807,-0.000165649,-0.00376329,0.436374,0.00245551,0.0379003,713,848,-41.0821,-1.13201
-504,176,-41.1014,1.06757,-0.000556253,-0.00229625,0.000910379,-0.000167011,-0.00268549,0.404037,0.00173734,0.038978,720,848,-41.1014,-1.06759
-497,176,-41.0451,1.10229,0.000843223,7.78379e-05,4.93407e-05,0.000846391,7.46702e-05,0.0641116,0.000541091,0.0406522,727,848,-41.0451,-1.1023
-490,176,-40.9894,0.94574,0.00339292,0.00386283,-0.00115101,0.00480262,0.00245313,-0.886079,0.00277301,0.0414688,734,848,-40.9895,-0.945753
-483,176,0,0,0,0,0,0,0,0,0,-1,741,848,0,0
-476,176,0,0,0,0,0,0,0,0,0,-1,748,848,0,0
-469,176,0,0,0,0,0,0,0,0,0,-1,755,848,0,0
-462,176,0,0,0,0,0,0,0,0,0,-1,762,848,0,0
-455,176,0,0,0,0,0,0,0,0,0,-1,769,848,0,0
-448,176,0,0,0,0,0,0,0,0,0,-1,776,848,0,0
-441,176,0,0,0,0,0,0,0,0,0,-1,783,848,0,0
-434,176,0,0,0,0,0,0,0,0,0,-1,790,848,0,0
-427,176,0,0,0,0,0,0,0,0,0,-1,797,848,0,0
-420,176,0,0,0,0,0,0,0,0,0,-1,804,848,0,0
-413,176,0,0,0,0,0,0,0,0,0,-1,811,848,0,0
-406,176,0,0,0,0,0,0,0,0,0,-1,818,848,0,0
-399,176,0,0,0,0,0,0,0,0,0,-1,825,848,0,0
-392,176,0,0,0,0,0,0,0,0,0,-1,832,848,0,0
-385,176,0,0,0,0,0,0,0,0,0,-1,839,848,0,0
-378,176,0,0,0,0,0,0,0,0,0,-1,846,848,0,0
-371,176,0,0,0,0,0,0,0,0,0,-1,853,848,0,0
-364,176,0,0,0,0,0,0,0,0,0,-1,860,848,0,0
-357,176,0,0,0,0,0,0,0,0,0,-1,867,848,0,0
-350,176,0,0,0,0,0,0,0,0,0,-1,874,848,0,0
-343,176,0,0,0,0,0,0,0,0,0,-1,881,848,0,0
-336,176,0,0,0,0,0,0,0,0,0,-1,888,848,0,0
-329,176,0,0,0,0,0,0,0,0,0,-1,895,848,0,0
-322,176,0,0,0,0,0,0,0,0,0,-1,902,848,0,0
-315,176,0,0,0,0,0,0,0,0,0,-1,909,848,0,0
-308,176,0,0,0,0,0,0,0,0,0,-1,916,848,0,0
-301,176,0,0,0,0,0,0,0,0,0,-1,923,848,0,0
-294,176,0,0,0,0,0,0,0,0,0,-1,930,848,0,0
-287,176,0,0,0,0,0,0,0,0,0,-1,937,848,0,0
-280,176,0,0,0,0,0,0,0,0,0,-1,944,848,0,0
-273,176,0,0,0,0,0,0,0,0,0,-1,951,848,0,0
-266,176,0,0,0,0,0,0,0,0,0,-1,958,848,0,0
-259,176,0,0,0,0,0,0,0,0,0,-1,965,848,0,0
-252,176,0,0,0,0,0,0,0,0,0,-1,972,848,0,0
-245,176,0,0,0,0,0,0,0,0,0,-1,979,848,0,0
-238,176,0,0,0,0,0,0,0,0,0,-1,986,848,0,0
-231,176,0,0,0,0,0,0,0,0,0,-1,993,848,0,0
-224,176,0,0,0,0,0,0,0,0,0,-1,1000,848,0,0
-217,176,0,0,0,0,0,0,0,0,0,-1,1007,848,0,0
-210,176,0,0,0,0,0,0,0,0,0,-1,1014,848,0,0
-203,176,0,0,0,0,0,0,0,0,0,-1,1021,848,0,0
-196,176,0,0,0,0,0,0,0,0,0,-1,1028,848,0,0
-189,176,0,0,0,0,0,0,0,0,0,-1,1035,848,0,0
-182,176,0,0,0,0,0,0,0,0,0,-1,1042,848,0,0
-175,176,0,0,0,0,0,0,0,0,0,-1,1049,848,0,0
-168,176,0,0,0,0,0,0,0,0,0,-1,1056,848,0,0
-161,176,0,0,0,0,0,0,0,0,0,-1,1063,848,0,0
-154,176,0,0,0,0,0,0,0,0,0,-1,1070,848,0,0
-147,176,0,0,0,0,0,0,0,0,0,-1,1077,848,0,0
-140,176,0,0,0,0,0,0,0,0,0,-1,1084,848,0,0
-133,176,0,0,0,0,0,0,0,0,0,-1,1091,848,0,0
-126,176,0,0,0,0,0,0,0,0,0,-1,1098,848,0,0
-119,176,0,0,0,0,0,0,0,0,0,-1,1105,848,0,0
-112,176,0,0,0,0,0,0,0,0,0,-1,1112,848,0,0
-105,176,0,0,0,0,0,0,0,0,0,-1,1119,848,0,0
-98,176,0,0,0,0,0,0,0,0,0,-1,1126,848,0,0
-91,176,0,0,0,0,0,0,0,0,0,-1,1133,848,0,0
-84,176,0,0,0,0,0,0,0,0,0,-1,1140,848,0,0
-77,176,0,0,0,0,0,0,0,0,0,-1,1147,848,0,0
-70,176,0,0,0,0,0,0,0,0,0,-1,1154,848,0,0
-63,176,0,0,0,0,0,0,0,0,0,-1,1161,848,0,0
-56,176,0,0,0,0,0,0,0,0,0,-1,1168,848,0,0
-49,176,0,0,0,0,0,0,0,0,0,-1,1175,848,0,0
-42,176,0,0,0,0,0,0,0,0,0,-1,1182,848,0,0
-35,176,0,0,0,0,0,0,0,0,0,-1,1189,848,0,0
-28,176,0,0,0,0,0,0,0,0,0,-1,1196,848,0,0
-21,176,0,0,0,0,0,0,0,0,0,-1,1203,848,0,0
-14,176,0,0,0,0,0,0,0,0,0,-1,1210,848,0,0
-7,176,0,0,0,0,0,0,0,0,0,-1,1217,848,0,0
0,176,0,0,0,0,0,0,0,0,0,-1,1224,848,0,0
7,176,0,0,0,0,0,0,0,0,0,-1,1231,848,0,0
14,176,0,0,0,0,0,0,0,0,0,-1,1238,848,0,0
21,176,0,0,0,0,0,0,0,0,0,-1,1245,848,0,0
28,176,0,0,0,0,0,0,0,0,0,-1,1252,848,0,0
35,176,0,0,0,0,0,0,0,0,0,-1,1259,848,0,0
42,176,0,0,0,0,0,0,0,0,0,-1,1266,848,0,0
49,176,0,0,0,0,0,0,0,0,0,-1,1273,848,0,0
56,176,0,0,0,0,0,0,0,0,0,-1,1280,848,0,0
63,176,0,0,0,0,0,0,0,0,0,-1,1287,848,0,0
70,176,0,0,0,0,0,0,0,0,0,-1,1294,848,0,0
77,176,0,0,0,0,0,0,0,0,0,-1,1301,848,0,0
84,176,0,0,0,0,0,0,0,0,0,-1,1308,848,0,0
91,176,0,0,0,0,0,0,0,0,0,-1,1315,848,0,0
98,176,0,0,0,0,0,0,0,0,0,-1,1322,848,0,0
105,176,0,0,0,0,0,0,0,0,0,-1,1329,848,0,0
112,176,0,0,0,0,0,0,0,0,0,-1,1336,848,0,0
119,176,0,0,0,0,0,0,0,0,0,-1,1343,848,0,0
126,176,0,0,0,0,0,0,0,0,0,-1,1350,848,0,0
133,176,0,0,0,0,0,0,0,0,0,-1,1357,848,0,0
140,176,0,0,0,0,0,0,0,0,0,-1,1364,848,0,0
147,176,0,0,0,0,0,0,0,0,0,-1,1371,848,0,0
154,176,0,0,0,0,0,0,0,0,0,-1,1378,848,0,0
161,176,0,0,0,0,0,0,0,0,0,-1,1385,848,0,0
168,176,0,0,0,0,0,0,0,0,0,-1,1392,848,0,0
175,176,0,0,0,0,0,0,0,0,0,-1,1399,848,0,0
182,176,0,0,0,0,0,0,0,0,0,-1,1406,848,0,0
189,176,0,0,0,0,0,0,0,0,0,-1,1413,848,0,0
196,176,0,0,0,0,0,0,0,0,0,-1,1420,848,0,0
203,176,0,0,0,0,0,0,0,0,0,-1,1427,848,0,0
210,176,0,0,0,0,0,0,0,0,0,-1,1434,848,0,0
217,176,0,0,0,0,0,0,0,0,0,-1,1441,848,0,0
224,176,0,0,0,0,0,0,0,0,0,-1,1448,848,0,0
231,176,0,0,0,0,0,0,0,0,0,-1,1455,848,0,0
238,176,0,0,0,0,0,0,0,0,0,-1,1462,848,0,0
245,176,0,0,0,0,0,0,0,0,0,-1,1469,848,0,0
252,176,0,0,0,0,0,0,0,0,0,-1,1476,848,0,0
259,176,0,0,0,0,0,0,0,0,0,-1,1483,848,0,0
266,176,0,0,0,0,0,0,0,0,0,-1,1490,848,0,0
273,176,0,0,0,0,0,0,0,0,0,-1,1497,848,0,0
280,176,0,0,0,0,0,0,0,0,0,-1,1504,848,0,0
287,176,0,0,0,0,0,0,0,0,0,-1,1511,848,0,0
294,176,0,0,0,0,0,0,0,0,0,-1,1518,848,0,0
301,176,0,0,0,0,0,0,0,0,0,-1,1525,848,0,0
308,176,0,0,0,0,0,0,0,0,0,-1,1532,848,0,0
315,176,0,0,0,0,0,0,0,0,0,-1,1539,848,0,0
322,176,0,0,0,0,0,0,0,0,0,-1,1546,848,0,0
329,176,0,0,0,0,0,0,0,0,0,-1,1553,848,0,0
336,176,0,0,0,0,0,0,0,0,0,-1,1560,848,0,0
343,176,0,0,0,0,0,0,0,0,0,-1,1567,848,0,0
350,176,0,0,0,0,0,0,0,0,0,-1,1574,848,0,0
357,176,0,0,0,0,0,0,0,0,0,-1,1581,848,0,0
364,176,0,0,0,0,0,0,0,0,0,-1,1588,848,0,0
371,176,0,0,0,0,0,0,0,0,0,-1,1595,848,0,0
378,176,0,0,0,0,0,0,0,0,0,-1,1602,848,0,0
385,176,0,0,0,0,0,0,0,0,0,-1,1609,848,0,0
392,176,0,0,0,0,0,0,0,0,0,-1,1616,848,0,0
399,176,0,0,0,0,0,0,0,0,0,-1,1623,848,0,0
406,176,0,0,0,0,0,0,0,0,0,-1,1630,848,0,0
413,176,0,0,0,0,0,0,0,0,0,-1,1637,848,0,0
420,176,0,0,0,0,0,0,0,0,0,-1,1644,848,0,0
427,176,0,0,0,0,0,0,0,0,0,-1,1651,848,0,0
434,176,0,0,0,0,0,0,0,0,0,-1,1658,848,0,0
441,176,0,0,0,0,0,0,0,0,0,-1,1665,848,0,0
448,176,0,0,0,0,0,0,0,0,0,-1,1672,848,0,0
455,176,0,0,0,0,0,0,0,0,0,-1,1679,848,0,0
462,176,0,0,0,0,0,0,0,0,0,-1,1686,848,0,0
469,176,0,0,0,0,0,0,0,0,0,-1,1693,848,0,0
476,176,0,0,0,0,0,0,0,0,0,-1,1700,848,0,0
483,176,0,0,0,0,0,0,0,0,0,-1,1707,848,0,0
490,176,0,0,0,0,0,0,0,0,0,-1,1714,848,0,0
497,176,0,0,0,0,0,0,0,0,0,-1,1721,848,0,0
504,176,0,0,0,0,0,0,0,0,0,-1,1728,848,0,0
511,176,0,0,0,0,0,0,0,0,0,-1,1735,848,0,0
518,176,0,0,0,0,0,0,0,0,0,-1,1742,848,0,0
525,176,0,0,0,0,0,0,0,0,0,-1,1749,848,0,0
532,176,0,0,0,0,0,0,0,0,0,-1,1756,848,0,0
539,176,0,0,0,0,0,0,0,0,0,-1,1763,848,0,0
546,176,0,0,0,0,0,0,0,0,0,-1,1770,848,0,0
553,176,0,0,0,0,0,0,0,0,0,-1,1777,848,0,0
560,176,0,0,0,0,0,0,0,0,0,-1,1784,848,0,0
567,176,0,0,0,0,0,0,0,0,0,-1,1791,848,0,0
574,176,0,0,0,0,0,0,0,0,0,-1,1798,848,0,0
581,176,0,0,0,0,0,0,0,0,0,-1,1805,848,0,0
588,176,0,0,0,0,0,0,0,0,0,-1,1812,848,0,0
595,176,0,0,0,0,0,0,0,0,0,-1,1819,848,0,0
602,176,0,0,0,0,0,0,0,0,0,-1,1826,848,0,0
609,176,54.1853,2.8208,0,0,0,0,0,0,0,-1,1833,848,54.1853,-2.82083
616,176,54.2653,1.96808,0,0,0,0,0,0,0,-1,1840,848,54.2652,-1.96805
623,176,54.3313,2.32007,-0.00186446,0.00622368,0.000508992,0.00625558,-0.00189637,1.50819,0.00492573,0.0426283,1847,848,54.3313,-2.3201
630,176,54.3311,2.69983,-0.00120752,0.0045321,0.000277332,0.00454547,-0.00122088,1.52263,0.00350881,0.0411212,1854,848,54.3311,-2.6998
637,176,54.2124,2.77649,-0.00137082,0.0033023,-0.000159954,0.00330777,-0.00137629,-1.53662,0.00277993,0.03321,1861,848,54.2123,-2.77651
644,176,54.1154,2.82977,-0.00198993,0.00228791,-0.000635442,0.00238031,-0.00208232,-1.42641,0.00257841,0.0326974,1868,848,54.1154,-2.8298
651,176,54.1863,2.83826,-0.0026111,0.00146381,-0.00108542,0.00173489,-0.00288219,-1.32605,0.00269297,0.0343356,1875,848,54.1862,-2.83823
658,176,54.2983,2.66852,-0.00313591,0.000891402,-0.0014553,0.00136224,-0.00360675,-1.25789,0.0029648,0.0498125,1882,848,54.2984,-2.66851
665,176,54.3333,2.34277,0,0,0,0,0,0,0,-1,1889,848,54.3333,-2.34279
672,176,16.9304,2.80719,0,0,0,0,0,0,0,-1,1896,848,16.9305,-2.80719
679,176,44.0094,0.512695,0,0,0,0,0,0,0,-1,1903,848,44.0094,-0.512687
686,176,43.9318,1.23785,-0.00362141,-0.00035756,-0.0023478,0.000869767,-0.00484874,-1.08911,0.00355803,0.0454215,1910,848,43.9318,-1.23783
693,176,43.7727,1.86188,-0.00371622,-0.000272559,-0.00235272,0.000921086,-0.00490987,-1.10129,0.00361955,0.0251416,1917,848,43.7728,-1.86187
700,176,43.611,2.47961,-0.00358968,-0.000178549,-0.00235146,0.00102077,-0.004789,-1.09916,0.00358174,0.0289325,1924,848,43.611,-2.47959
707,176,43.6085,2.99524,-0.00321251,-0.000165615,-0.00228539,0.00105755,-0.00443568,-1.07938,0.00336549,0.0177578,1931,848,43.6086,-2.99521
714,176,43.5692,3.52826,-0.00245709,0.000361855,-0.00194999,0.00135843,-0.00345366,-1.09833,0.00286471,0.0123787,1938,848,43.5693,-3.52828
721,176,43.5485,4.10504,-0.00157206,0.000857602,-0.00152666,0.00159379,-0.00230825,-1.12147,0.0022654,0.0124614,1945,848,43.5485,-4.10506
728,176,43.4934,4.73297,-0.000947085,0.00150498,-0.00108166,0.00191393,-0.00135603,-1.20934,0.00189705,0.0155275,1952,848,43.4935,-4.73294
735,176,43.457,5.35614,-0.000693421,0.00222619,-0.000771991,0.00241775,-0.000884979,-1.32757,0.0019741,0.0147585,1959,848,43.457,-5.35614
742,176,43.4559,5.97168,-0.00090178,0.00298824,-0.000616913,0.00308373,-0.000997271,-1.41723,0.00245667,0.0247465,1966,848,43.4559,-5.97165
749,176,43.7926,6.70013,-0.0016896,0.00365545,-0.000665993,0.00373718,-0.00177134,-1.44868,0.00324715,0.0380724,1973,848,43.7926,-6.70015
756,176,44.234,7.47662,0,0,0,0,0,0,0,-1,1980,848,44.2341,-7.47663
763,176,44.4343,7.70581,0,0,0,0,0,0,0,-1,1987,848,44.4343,-7.70578
770,176,36.4186,4.25641,0,0,0,0,0,0,0,-1,1994,848,36.4186,-4.25639
777,176,43.8328,7.50177,0,0,0,0,0,0,0,-1,2001,848,43.8328,-7.50178
784,176,0,0,0,0,0,0,0,0,0,-1,2008,848,0,0
791,176,0,0,0,0,0,0,0,0,0,-1,2015,848,0,0
798,176,0,0,0,0,0,0,0,0,0,-1,2022,848,0,0
805,176,0,0,0,0,0,0,0,0,0,-1,2029,848,0,0
812,176,0,0,0,0,0,0,0,0,0,-1,2036,848,0,0
-700,169,0,0,0,0,0,0,0,0,0,-1,524,855,0,0
-693,169,0,0,0,0,0,0,0,0,0,-1,531,855,0,0
-686,169,0,0,0,0,0,0,0,0,0,-1,538,855,0,0
-679,169,0,0,0,0,0,0,0,0,0,-1,545,855,0,0
-672,169,0,0,0,0,0,0,0,0,0,-1,552,855,0,0
-665,169,-35.6535,6.30945,0,0,0,0,0,0,0,-1,559,855,-35.6535,-6.30943
-658,169,-34.7747,6.01379,0,0,0,0,0,0,0,-1,566,855,-34.7746,-6.01382
-651,169,-34.0216,5.13062,0,0,0,0,0,0,0,-1,573,855,-34.0216,-5.13061
-644,169,-33.6207,4.80139,0.046893,0.00534977,-0.0235129,0.0574952,-0.00525242,-0.42361,0.0401955,0.0437358,580,855,-33.6207,-4.80137
-637,169,-33.2363,4.55347,0.036334,0.00614379,-0.0189554,0.0454704,-0.00299266,-0.449143,0.0313588,0.0452325,587,855,-33.2363,-4.55345
-630,169,-32.0786,4.72253,0,0,0,0,0,0,0,-1,594,855,-32.0786,-4.72252
-623,169,-32.0974,4.26801,0.0180142,0.00590813,-0.0100123,0.0236609,0.000261365,-0.513516,0.0156876,0.0376143,601,855,-32.0974,-4.26802
-616,169,-32.0925,3.86023,0.0101588,0.00458212,-0.00550795,0.013544,0.00119696,-0.551083,0.00865798,0.0230996,608,855,-32.0925,-3.86023
-609,169,-32.1127,3.35248,0.00460737,0.00307288,-0.00220367,0.00617354,0.00150671,-0.617877,0.00371669,0.0144872,615,855,-32.1127,-3.3525
-602,169,-32.1414,2.76184,0.0011196,0.00373623,-0.000303272,0.00377092,0.00108491,-1.45691,0.0022416,0.0139031,622,855,-32.1414,-2.76185
-595,169,-32.1763,2.15808,0.000396748,0.00241064,0.0011209,0.00291046,-0.000103077,1.15135,0.00197556,0.0129847,629,855,-32.1763,-2.15811
-588,169,-32.1611,1.60516,0.00102005,0.00163203,0.00185017,0.00320134,-0.00054926,0.867349,0.00233891,0.0111693,636,855,-32.1611,-1.60519
-581,169,-32.2119,1.06354,0.00196995,0.00108356,0.00218933,0.0037605,-0.000706985,0.685531,0.00277287,0.0175211,643,855,-32.2118,-1.06351
-574,169,-32.4689,0.476196,0.00254694,0.000894403,0.00249219,0.00434626,-0.000904917,0.625329,0.00324153,0.0333087,650,855,-32.4689,-0.47618
-567,169,-32.2684,-0.000549316,0.00250984,0.000476202,0.00259733,0.00428229,-0.00129625,0.598826,0.00337107,0.0399219,657,855,-32.2684,0.000541242
-560,169,-32.1767,-0.406006,0.00223447,0.000165504,0.00273432,0.00412346,-0.00172348,0.604553,0.00346923,0.0495611,664,855,-32.1767,0.406019
-553,169,-31.9517,-0.886536,0,0,0,0,0,0,0,-1,671,855,-31.9517,0.886509
-546,169,-19.0852,-1.05609,0,0,0,0,0,0,0,-1,678,855,-19.0852,1.05612
-539,169,-33.2307,1.10706,0,0,0,0,0,0,0,-1,685,855,-33.2307,-1.10708
-532,169,-40.8474,0.965088,0,0,0,0,0,0,0,-1,692,855,-40.8474,-0.965116
-525,169,-40.876,1.09747,0.00120367,-0.00191101,0.00209892,0.0022599,-0.00296724,0.466226,0.00302709,0.0444396,699,855,-40.876,-1.09748
-518,169,-40.9252,1.20135,0.000399324,-0.00212594,0.00196624,0.00147343,-0.00320004,0.499977,0.00275893,0.039218,706,855,-40.9252,-1.20137
-511,169,-41.0181,1.21063,-0.000309931,-0.00220843,0.00154583,0.000554839,-0.0030732,0.510047,0.0022566,0.0378357,713,855,-41.0181,-1.21063
-504,169,-41.0406,1.13452,0.000461445,-0.000928952,0.00102071,0.00100122,-0.00146872,0.486437,0.00143451,0.0381427,720,855,-41.0406,-1.13451
-497,169,-40.9858,1.07904,0.00222788,0.00154127,0.000150771,0.00225953,0.00150962,0.206907,0.00132889,0.0387647,727,855,-40.9858,-1.07904
-490,169,0,0,0,0,0,0,0,0,0,-1,734,855,0,0
-483,169,0,0,0,0,0,0,0,0,0,-1,741,855,0,0
-476,169,0,0,0,0,0,0,0,0,0,-1,748,855,0,0
-469,169,0,0,0,0,0,0,0,0,0,-1,755,855,0,0
-462,169,0,0,0,0,0,0,0,0,0,-1,762,855,0,0
-455,169,0,0,0,0,0,0,0,0,0,-1,769,855,0,0
-448,169,0,0,0,0,0,0,0,0,0,-1,776,855,0,0
-441,169,0,0,0,0,0,0,0,0,0,-1,783,855,0,0
-434,169,0,0,0,0,0,0,0,0,0,-1,790,855,0,0
-427,169,0,0,0,0,0,0,0,0,0,-1,797,855,0,0
-420,169,0,0,0,0,0,0,0,0,0,-1,804,855,0,0
-413,169,0,0,0,0,0,0,0,0,0,-1,811,855,0,0
-406,169,0,0,0,0,0,0,0,0,0,-1,818,855,0,0
-399,169,0,0,0,0,0,0,0,0,0,-1,825,855,0,0
-392,169,0,0,0,0,0,0,0,0,0,-1,832,855,0,0
-385,169,0,0,0,0,0,0,0,0,0,-1,839,855,0,0
-378,169,0,0,0,0,0,0,0,0,0,-1,846,855,0,0
-371,169,0,0,0,0,0,0,0,0,0,-1,853,855,0,0
-364,169,0,0,0,0,0,0,0,0,0,-1,860,855,0,0
-357,169,0,0,0,0,0,0,0,0,0,-1,867,855,0,0
-350,169,0,0,0,0,0,0,0,0,0,-1,874,855,0,0
-343,169,0,0,0,0,0,0,0,0,0,-1,881,855,0,0
-336,169,0,0,0,0,0,0,0,0,0,-1,888,855,0,0
-329,169,0,0,0,0,0,0,0,0,0,-1,895,855,0,0
-322,169,0,0,0,0,0,0,0,0,0,-1,902,855,0,0
-315,169,0,0,0,0,0,0,0,0,0,-1,909,855,0,0
-308,169,0,0,0,0,0,0,0,0,0,-1,916,855,0,0
-301,169,0,0,0,0,0,0,0,0,0,-1,923,855,0,0
-294,169,0,0,0,0,0,0,0,0,0,-1,930,855,0,0
-287,169,0,0,0,0,0,0,0,0,0,-1,937,855,0,0
-280,169,0,0,0,0,0,0,0,0,0,-1,944,855,0,0
-273,169,0,0,0,0,0,0,0,0,0,-1,951,855,0,0
-266,169,0,0,0,0,0,0,0,0,0,-1,958,855,0,0
-259,169,0,0,0,0,0,0,0,0,0,-1,965,855,0,0
-252,169,0,0,0,0,0,0,0,0,0,-1,972,855,0,0
-245,169,0,0,0,0,0,0,0,0,0,-1,979,855,0,0
-238,169,0,0,0,0,0,0,0,0,0,-1,986,855,0,0
-231,169,0,0,0,0,0,0,0,0,0,-1,993,855,0,0
-224,169,0,0,0,0,0,0,0,0,0,-1,1000,855,0,0
-217,169,0,0,0,0,0,0,0,0,0,-1,1007,855,0,0
-210,169,0,0,0,0,0,0,0,0,0,-1,1014,855,0,0
-203,169,0,0,0,0,0,0,0,0,0,-1,1021,855,0,0
-196,169,0,0,0,0,0,0,0,0,0,-1,1028,855,0,0
-189,169,0,0,0,0,0,0,0,0,0,-1,1035,855,0,0
-182,169,0,0,0,0,0,0,0,0,0,-1,1042,855,0,0
-175,169,0,0,0,0,0,0,0,0,0,-1,1049,855,0,0
-168,169,0,0,0,0,0,0,0,0,0,-1,1056,855,0,0
-161,169,0,0,0,0,0,0,0,0,0,-1,1063,855,0,0
-154,169,0,0,0,0,0,0,0,0,0,-1,1070,855,0,0
-147,169,0,0,0,0,0,0,0,0,0,-1,1077,855,0,0
-140,169,0,0,0,0,0,0,0,0,0,-1,1084,855,0,0
-133,169,0,0,0,0,0,0,0,0,0,-1,1091,855,0,0
-126,169,0,0,0,0,0,0,0,0,0,-1,1098,855,0,0
-119,169,0,0,0,0,0,0,0,0,0,-1,1105,855,0,0
-112,169,0,0,0,0,0,0,0,0,0,-1,1112,855,0,0
-105,169,0,0,0,0,0,0,0,0,0,-1,1119,855,0,0
-98,169,0,0,0,0,0,0,0,0,0,-1,1126,855,0,0
-91,169,0,0,0,0,0,0,0,0,0,-1,1133,855,0,0
-84,169,0,0,0,0,0,0,0,0,0,-1,1140,855,0,0
-77,169,0,0,0,0,0,0,0,0,0,-1,1147,855,0,0
-70,169,0,0,0,0,0,0,0,0,0,-1,1154,855,0,0
-63,169,0,0,0,0,0,0,0,0,0,-1,1161,855,0,0
-56,169,0,0,0,0,0,0,0,0,0,-1,1168,855,0,0
-49,169,0,0,0,0,0,0,0,0,0,-1,1175,855,0,0
-42,169,0,0,0,0,0,0,0,0,0,-1,1182,855,0,0
-35,169,0,0,0,0,0,0,0,0,0,-1,1189,855,0,0
-28,169,0,0,0,0,0,0,0,0,0,-1,1196,855,0,0
-21,169,0,0,0,0,0,0,0,0,0,-1,1203,855,0,0
-14,169,0,0,0,0,0,0,0,0,0,-1,1210,855,0,0
-7,169,0,0,0,0,0,0,0,0,0,-1,1217,855,0,0
0,169,0,0,0,0,0,0,0,0,0,-1,1224,855,0,0
7,169,0,0,0,0,0,0,0,0,0,-1,1231,855,0,0
14,169,0,0,0,0,0,0,0,0,0,-1,1238,855,0,0
21,169,0,0,0,0,0,0,0,0,0,-1,1245,855,0,0
28,169,0,0,0,0,0,0,0,0,0,-1,1252,855,0,0
35,169,0,0,0,0,0,0,0,0,0,-1,1259,855,0,0
42,169,0,0,0,0,0,0,0,0,0,-1,1266,855,0,0
49,169,0,0,0,0,0,0,0,0,0,-1,1273,855,0,0
56,169,0,0,0,0,0,0,0,0,0,-1,1280,855,0,0
63,169,0,0,0,0,0,0,0,0,0,-1,1287,855,0,0
70,169,0,0,0,0,0,0,0,0,0,-1,1294,855,0,0
77,169,0,0,0,0,0,0,0,0,0,-1,1301,855,0,0
84,169,0,0,0,0,0,0,0,0,0,-1,1308,855,0,0
91,169,0,0,0,0,0,0,0,0,0,-1,1315,855,0,0
98,169,0,0,0,0,0,0,0,0,0,-1,1322,855,0,0
105,169,0,0,0,0,0,0,0,0,0,-1,1329,855,0,0
112,169,0,0,0,0,0,0,0,0,0,-1,1336,855,0,0
119,169,0,0,0,0,0,0,0,0,0,-1,1343,855,0,0
126,169,0,0,0,0,0,0,0,0,0,-1,1350,855,0,0
133,169,0,0,0,0,0,0,0,0,0,-1,1357,855,0,0
140,169,0,0,0,0,0,0,0,0,0,-1,1364,855,0,0
147,169,0,0,0,0,0,0,0,0,0,-1,1371,855,0,0
154,169,0,0,0,0,0,0,0,0,0,-1,1378,855,0,0
161,169,0,0,0,0,0,0,0,0,0,-1,1385,855,0,0
168,169,0,0,0,0,0,0,0,0,0,-1,1392,855,0,0
175,169,0,0,0,0,0,0,0,0,0,-1,1399,855,0,0
182,169,0,0,0,0,0,0,0,0,0,-1,1406,855,0,0
189,169,0,0,0,0,0,0,0,0,0,-1,1413,855,0,0
196,169,0,0,0,0,0,0,0,0,0,-1,1420,855,0,0
203,169,0,0,0,0,0,0,0,0,0,-1,1427,855,0,0
210,169,0,0,0,0,0,0,0,0,0,-1,1434,855,0,0
217,169,0,0,0,0,0,0,0,0,0,-1,1441,855,0,0
224,169,0,0,0,0,0,0,0,0,0,-1,1448,855,0,0
231,169,0,0,0,0,0,0,0,0,0,-1,1455,855,0,0
238,169,0,0,0,0,0,0,0,0,0,-1,1462,855,0,0
245,169,0,0,0,0,0,0,0,0,0,-1,1469,855,0,0
252,169,0,0,0,0,0,0,0,0,0,-1,1476,855,0,0
259,169,0,0,0,0,0,0,0,0,0,-1,1483,855,0,0
266,169,0,0,0,0,0,0,0,0,0,-1,1490,855,0,0
273,169,0,0,0,0,0,0,0,0,0,-1,1497,855,0,0
280,169,0,0,0,0,0,0,0,0,0,-1,1504,855,0,0
287,169,0,0,0,0,0,0,0,0,0,-1,1511,855,0,0
294,169,0,0,0,0,0,0,0,0,0,-1,1518,855,0,0
301,169,0,0,0,0,0,0,0,0,0,-1,1525,855,0,0
308,169,0,0,0,0,0,0,0,0,0,-1,1532,855,0,0
315,169,0,0,0,0,0,0,0,0,0,-1,1539,855,0,0
322,169,0,0,0,0,0,0,0,0,0,-1,1546,855,0,0
329,169,0,0,0,0,0,0,0,0,0,-1,1553,855,0,0
336,169,0,0,0,0,0,0,0,0,0,-1,1560,855,0,0
343,169,0,0,0,0,0,0,0,0,0,-1,1567,855,0,0
350,169,0,0,0,0,0,0,0,0,0,-1,1574,855,0,0
357,169,0,0,0,0,0,0,0,0,0,-1,1581,855,0,0
364,169,0,0,0,0,0,0,0,0,0,-1,1588,855,0,0
371,169,0,0,0,0,0,0,0,0,0,-1,1595,855,0,0
378,169,0,0,0,0,0,0,0,0,0,-1,1602,855,0,0
385,169,0,0,0,0,0,0,0,0,0,-1,1609,855,0,0
392,169,0,0,0,0,0,0,0,0,0,-1,1616,855,0,0
399,169,0,0,0,0,0,0,0,0,0,-1,1623,855,0,0
406,169,0,0,0,0,0,0,0,0,0,-1,1630,855,0,0
413,169,0,0,0,0,0,0,0,0,0,-1,1637,855,0,0
420,169,0,0,0,0,0,0,0,0,0,-1,1644,855,0,0
427,169,0,0,0,0,0,0,0,0,0,-1,1651,855,0,0
434,169,0,0,0,0,0,0,0,0,0,-1,1658,855,0,0
441,169,0,0,0,0,0,0,0,0,0,-1,1665,855,0,0
448,169,0,0,0,0,0,0,0,0,0,-1,1672,855,0,0
455,169,0,0,0,0,0,0,0,0,0,-1,1679,855,0,0
462,169,0,0,0,0,0,0,0,0,0,-1,1686,855,0,0
469,169,0,0,0,0,0,0,0,0,0,-1,1693,855,0,0
476,169,0,0,0,0,0,0,0,0,0,-1,1700,855,0,0
483,169,0,0,0,0,0,0,0,0,0,-1,1707,855,0,0
490,169,0,0,0,0,0,0,0,0,0,-1,1714,855,0,0
497,169,0,0,0,0,0,0,0,0,0,-1,1721,855,0,0
504,169,0,0,0,0,0,0,0,0,0,-1,1728,855,0,0
511,169,0,0,0,0,0,0,0,0,0,-1,1735,855,0,0
518,169,0,0,0,0,0,0,0,0,0,-1,1742,855,0,0
525,169,0,0,0,0,0,0,0,0,0,-1,1749,855,0,0
532,169,0,0,0,0,0,0,0,0,0,-1,1756,855,0,0
539,169,0,0,0,0,0,0,0,0,0,-1,1763,855,0,0
546,169,0,0,0,0,0,0,0,0,0,-1,1770,855,0,0
553,169,0,0,0,0,0,0,0,0,0,-1,1777,855,0,0
560,169,0,0,0,0,0,0,0,0,0,-1,1784,855,0,0
567,169,0,0,0,0,0,0,0,0,0,-1,1791,855,0,0
574,169,0,0,0,0,0,0,0,0,0,-1,1798,855,0,0
581,169,0,0,0,0,0,0,0,0,0,-1,1805,855,0,0
588,169,0,0,0,0,0,0,0,0,0,-1,1812,855,0,0
595,169,0,0,0,0,0,0,0,0,0,-1,1819,855,0,0
602,169,0,0,0,0,0,0,0,0,0,-1,1826,855,0,0
609,169,0,0,0,0,0,0,0,0,0,-1,1833,855,0,0
616,169,54.1127,3.13013,0,0,0,0,0,0,0,-1,1840,855,54.1127,-3.13013
623,169,54.554,2.27032,0,0,0,0,0,0,0,-1,1847,855,54.5539,-2.27032
630,169,54.3333,2.63269,-0.00198772,0.00441404,0.000144991,0.00441732,-0.001991,1.54816,0.00378721,0.0410027,1854,855,54.3332,-2.63268
637,169,54.2556,2.86951,-0.00165083,0.00320367,-7.2269e-05,0.00320475,-0.00165191,-1.55591,0.00285137,0.0374418,1861,855,54.2556,-2.8695
644,169,54.251,2.84869,-0.00192276,0.00219134,-0.000430451,0.00223589,-0.00196731,-1.46766,0.00242837,0.0391404,1868,855,54.251,-2.84871
651,169,54.1896,2.88116,-0.0023739,0.00133658,-0.00083615,0.0015163,-0.00255362,-1.35908,0.00237507,0.0406024,1875,855,54.1896,-2.88116
658,169,54.1931,2.82233,-0.0028283,0.000818691,-0.00116462,0.00115887,-0.00316847,-1.28661,0.00258664,0.0365108,1882,855,54.1931,-2.8223
665,169,54.2362,2.72742,0,0,0,0,0,0,0,-1,1889,855,54.2362,-2.72743
672,169,31.2465,2.96387,0,0,0,0,0,0,0,-1,1896,855,31.2464,-2.9639
679,169,38.4297,1.08197,0,0,0,0,0,0,0,-1,1903,855,38.4296,-1.08194
686,169,44.4144,1.26392,0,0,0,0,0,0,0,-1,1910,855,44.4145,-1.26392
693,169,44.4211,1.90021,-0.00319858,-0.000171917,-0.00198217,0.000808578,-0.00417907,-1.11143,0.00309103,0.0265084,1917,855,44.4211,-1.90018
700,169,44.4072,2.5387,-0.00317918,-6.15073e-05,-0.00201846,0.000929981,-0.00417067,-1.11421,0.00313673,0.0241137,1924,855,44.4072,-2.53869
707,169,44.3094,3.07556,-0.00295567,-6.40919e-05,-0.00206451,0.00101053,-0.0040303,-1.09086,0.00307948,0.0236744,1931,855,44.3095,-3.07554
714,169,44.1484,3.54926,-0.00238369,0.000424498,-0.00186215,0.00135259,-0.00331179,-1.10843,0.00277103,0.0153407,1938,855,44.1485,-3.54928
721,169,44.1368,4.16724,-0.00166266,0.000835844,-0.00157641,0.00159798,-0.00242479,-1.12046,0.00233885,0.0159164,1945,855,44.1368,-4.16723
728,169,44.1,4.76953,-0.00114766,0.0014046,-0.00120975,0.00188688,-0.00162994,-1.19145,0.00203224,0.0134807,1952,855,44.0999,-4.76951
735,169,44.0704,5.3786,-0.000926433,0.00203098,-0.000901293,0.00228401,-0.00117946,-1.2971,0.00203325,0.0194487,1959,855,44.0704,-5.37858
742,169,44.0826,5.98468,-0.00111797,0.00274124,-0.000670453,0.0028544,-0.00123113,-1.40359,0.00242005,0.0192565,1966,855,44.0826,-5.9847
749,169,44.1001,6.51465,-0.00183272,0.00336927,-0.000575851,0.00343226,-0.0018957,-1.46186,0.00311845,0.0298748,1973,855,44.1001,-6.51466
756,169,44.3463,6.99445,0,0,0,0,0,0,0,-1,1980,855,44.3463,-6.99445
763,169,45.1978,7.5675,0,0,0,0,0,0,0,-1,1987,855,45.1977,-7.56751
770,169,37.2059,3.97021,0,0,0,0,0,0,0,-1,1994,855,37.2059,-3.97022
777,169,41.7505,8.7085,0,0,0,0,0,0,0,-1,2001,855,41.7505,-8.70852
784,169,39.0697,9.4693,0,0,0,0,0,0,0,-1,2008,855,39.0697,-9.46928
791,169,0,0,0,0,0,0,0,0,0,-1,2015,855,0,0
798,169,0,0,0,0,0,0,0,0,0,-1,2022,855,0,0
805,169,0,0,0,0,0,0,0,0,0,-1,2029,855,0,0
812,169,0,0,0,0,0,0,0,0,0,-1,2036,855,0,0
-700,162,0,0,0,0,0,0,0,0,0,-1,524,862,0,0
-693,162,0,0,0,0,0,0,0,0,0,-1,531,862,0,0
-686,162,0,0,0,0,0,0,0,0,0,-1,538,862,0,0
-679,162,0,0,0,0,0,0,0,0,0,-1,545,862,0,0
-672,162,0,0,0,0,0,0,0,0,0,-1,552,862,0,0
-665,162,-35.5759,6.16321,0,0,0,0,0,0,0,-1,559,862,-35.5759,-6.16319
-658,162,-34.894,5.74805,0.0720097,0.0133645,-0.0384993,0.0910814,-0.00570729,-0.459944,0.06271,0.0476923,566,862,-34.894,-5.74806
-651,162,-34.2977,5.20648,0.0587916,0.0124758,-0.0325672,0.0755951,-0.00432765,-0.476336,0.0518994,0.0487423,573,862,-34.2977,-5.20646
-644,162,-33.7637,4.99115,0.0467258,0.0112714,-0.0265607,0.0609317,-0.0029345,-0.491135,0.0416338,0.0451018,580,862,-33.7637,-4.99115
-637,162,-33.4074,4.75854,0.0357825,0.00982865,-0.0207264,0.0472593,-0.00164813,-0.505701,0.0320697,0.0479316,587,862,-33.4074,-4.75852
-630,162,-33.0671,4.52002,0,0,0,0,0,0,0,-1,594,862,-33.0671,-4.52004
-623,162,-32.6538,4.31299,0.0172958,0.00691477,-0.0103394,0.0236744,0.000536164,-0.55277,0.0156073,0.0343299,601,862,-32.6538,-4.31297
-616,162,-32.6624,3.90515,0.00942572,0.0048094,-0.00529448,0.0128933,0.00134182,-0.579841,0.008185,0.0204235,608,862,-32.6624,-3.90517
-609,162,-32.7128,3.34473,0.00397594,0.00288464,-0.00168591,0.0052023,0.00165828,-0.62889,0.00306862,0.0140336,615,862,-32.7128,-3.34476
-602,162,-32.754,2.77545,0.000740211,0.00321165,0.000268003,0.00324038,0.000711483,1.46401,0.00196648,0.0115766,622,862,-32.754,-2.77546
-595,162,-32.7522,2.2157,0.000281634,0.00205881,0.0016009,0.0030012,-0.000660751,1.03876,0.00225357,0.0117156,629,862,-32.7522,-2.21569
-588,162,-32.7291,1.6579,0.00102185,0.00140748,0.0022125,0.00343555,-0.00100622,0.828861,0.00268928,0.0129681,636,862,-32.7291,-1.65787
-581,162,-32.9321,1.0965,0.00184327,0.00103168,0.00251854,0.0039885,-0.00111354,0.705523,0.00309763,0.0291243,643,862,-32.9321,-1.0965
-574,162,-33.2372,0.497498,0.00222003,0.00095372,0.00278917,0.00444701,-0.00127326,0.673787,0.0034679,0.0419714,650,862,-33.2372,-0.497472
-567,162,-33.2207,-0.0876465,0.00214128,0.00059431,0.00290722,0.00437616,-0.00164056,0.655381,0.00359144,0.0465463,657,862,-33.2207,0.0876494
-560,162,-32.9406,-0.728027,0.00195446,0.000360887,0.00308555,0.00434444,-0.00202909,0.659043,0.00375982,0.0437693,664,862,-32.9406,0.728041
-553,162,-32.5043,-1.46588,0,0,0,0,0,0,0,-1,671,862,-32.5043,1.46585
-546,162,-22.8181,-1.51154,0,0,0,0,0,0,0,-1,678,862,-22.8181,1.51155
-539,162,-40.8754,0.97644,0,0,0,0,0,0,0,-1,685,862,-40.8754,-0.976443
-532,162,-40.8965,1.01404,0.00142262,-0.000807347,0.00283838,0.00335716,-0.00274188,0.598245,0.00352725,0.0413942,692,862,-40.8965,-1.01403
-525,162,-40.9372,1.03729,0.00115095,-0.0010969,0.00260385,0.00286308,-0.00280904,0.581658,0.00327485,0.0413046,699,862,-40.9372,-1.03727
-518,162,-41.0004,1.07367,0.00031995,-0.00115599,0.00247613,0.00216574,-0.00300178,0.640572,0.00299646,0.0411096,706,862,-41.0004,-1.07368
-511,162,-41.035,1.12354,-0.000229123,-0.00103379,0.00199399,0.00140272,-0.00266563,0.685848,0.00238629,0.0417541,713,862,-41.035,-1.12355
-504,162,-41.0397,1.16309,0.00108906,0.000532229,0.00139073,0.00222896,-0.000607677,0.686608,0.0017246,0.0423775,720,862,-41.0396,-1.1631
-497,162,-40.9626,1.2301,0.00297781,0.00260073,0.000509735,0.00333276,0.00224578,0.608259,0.00196256,0.0434796,727,862,-40.9626,-1.2301
-490,162,0,0,0,0,0,0,0,0,0,-1,734,862,0,0
-483,162,0,0,0,0,0,0,0,0,0,-1,741,862,0,0
-476,162,0,0,0,0,0,0,0,0,0,-1,748,862,0,0
-469,162,0,0,0,0,0,0,0,0,0,-1,755,862,0,0
-462,162,0,0,0,0,0,0,0,0,0,-1,762,862,0,0
-455,162,0,0,0,0,0,0,0,0,0,-1,769,862,0,0
-448,162,0,0,0,0,0,0,0,0,0,-1,776,862,0,0
-441,162,0,0,0,0,0,0,0,0,0,-1,783,862,0,0
-434,162,0,0,0,0,0,0,0,0,0,-1,790,862,0,0
-427,162,0,0,0,0,0,0,0,0,0,-1,797,862,0,0
-420,162,0,0,0,0,0,0,0,0,0,-1,804,862,0,0
-413,162,0,0,0,0,0,0,0,0,0,-1,811,862,0,0
-406,162,0,0,0,0,0,0,0,0,0,-1,818,862,0,0
-399,162,0,0,0,0,0,0,0,0,0,-1,825,862,0,0
-392,162,0,0,0,0,0,0,0,0,0,-1,832,862,0,0
-385,162,0,0,0,0,0,0,0,0,0,-1,839,862,0,0
-378,162,0,0,0,0,0,0,0,0,0,-1,846,862,0,0
-371,162,0,0,0,0,0,0,0,0,0,-1,853,862,0,0
-364,162,0,0,0,0,0,0,0,0,0,-1,860,862,0,0
-357,162,0,0,0,0,0,0,0,0,0,-1,867,862,0,0
-350,162,0,0,0,0,0,0,0,0,0,-1,874,862,0,0
-343,162,0,0,0,0,0,0,0,0,0,-1,881,862,0,0
-336,162,0,0,0,0,0,0,0,0,0,-1,888,862,0,0
-329,162,0,0,0,0,0,0,0,0,0,-1,895,862,0,0
-322,162,0,0,0,0,0,0,0,0,0,-1,902,862,0,0
-315,162,0,0,0,0,0,0,0,0,0,-1,909,862,0,0
-308,162,0,0,0,0,0,0,0,0,0,-1,916,862,0,0
-301,162,0,0,0,0,0,0,0,0,0,-1,923,862,0,0
-294,162,0,0,0,0,0,0,0,0,0,-1,930,862,0,0
-287,162,0,0,0,0,0,0,0,0,0,-1,937,862,0,0
-280,162,0,0,0,0,0,0,0,0,0,-1,944,862,0,0
-273,162,0,0,0,0,0,0,0,0,0,-1,951,862,0,0
-266,162,0,0,0,0,0,0,0,0,0,-1,958,862,0,0
-259,162,0,0,0,0,0,0,0,0,0,-1,965,862,0,0
-252,162,0,0,0,0,0,0,0,0,0,-1,972,862,0,0
-245,162,0,0,0,0,0,0,0,0,0,-1,979,862,0,0
-238,162,0,0,0,0,0,0,0,0,0,-1,986,862,0,0
-231,162,0,0,0,0,0,0,0,0,0,-1,993,862,0,0
-224,162,0,0,0,0,0,0,0,0,0,-1,1000,862,0,0
-217,162,0,0,0,0,0,0,0,0,0,-1,1007,862,0,0
-210,162,0,0,0,0,0,0,0,0,0,-1,1014,862,0,0
-203,162,0,0,0,0,0,0,0,0,0,-1,1021,862,0,0
-196,162,0,0,0,0,0,0,0,0,0,-1,1028,862,0,0
-189,162,0,0,0,0,0,0,0,0,0,-1,1035,862,0,0
-182,162,0,0,0,0,0,0,0,0,0,-1,1042,862,0,0
-175,162,0,0,0,0,0,0,0,0,0,-1,1049,862,0,0
-168,162,0,0,0,0,0,0,0,0,0,-1,1056,862,0,0
-161,162,0,0,0,0,0,0,0,0,0,-1,1063,862,0,0
-154,162,0,0,0,0,0,0,0,0,0,-1,1070,862,0,0
-147,162,0,0,0,0,0,0,0,0,0,-1,1077,862,0,0
-140,162,0,0,0,0,0,0,0,0,0,-1,1084,862,0,0
-133,162,0,0,0,0,0,0,0,0,0,-1,1091,862,0,0
-126,162,0,0,0,0,0,0,0,0,0,-1,1098,862,0,0
-119,162,0,0,0,0,0,0,0,0,0,-1,1105,862,0,0
-112,162,0,0,0,0,0,0,0,0,0,-1,1112,862,0,0
-105,162,0,0,0,0,0,0,0,0,0,-1,1119,862,0,0
-98,162,0,0,0,0,0,0,0,0,0,-1,1126,862,0,0
-91,162,0,0,0,0,0,0,0,0,0,-1,1133,862,0,0
-84,162,0,0,0,0,0,0,0,0,0,-1,1140,862,0,0
-77,162,0,0,0,0,0,0,0,0,0,-1,1147,862,0,0
-70,162,0,0,0,0,0,0,0,0,0,-1,1154,862,0,0
-63,162,0,0,0,0,0,0,0,0,0,-1,1161,862,0,0
-56,162,0,0,0,0,0,0,0,0,0,-1,1168,862,0,0
-49,162,0,0,0,0,0,0,0,0,0,-1,1175,862,0,0
-42,162,0,0,0,0,0,0,0,0,0,-1,1182,862,0,0
-35,162,0,0,0,0,0,0,0,0,0,-1,1189,862,0,0
-28,162,0,0,0,0,0,0,0,0,0,-1,1196,862,0,0
-21,162,0,0,0,0,0,0,0,0,0,-1,1203,862,0,0
-14,162,0,0,0,0,0,0,0,0,0,-1,1210,862,0,0
-7,162,0,0,0,0,0,0,0,0,0,-1,1217,862,0,0
0,162,0,0,0,0,0,0,0,0,0,-1,1224,862,0,0
7,162,0,0,0,0,0,0,0,0,0,-1,1231,862,0,0
14,162,0,0,0,0,0,0,0,0,0,-1,1238,862,0,0
21,162,0,0,0,0,0,0,0,0,0,-1,1245,862,0,0
28,162,0,0,0,0,0,0,0,0,0,-1,1252,862,0,0
35,162,0,0,0,0,0,0,0,0,0,-1,1259,862,0,0
42,162,0,0,0,0,0,0,0,0,0,-1,1266,862,0,0
49,162,0,0,0,0,0,0,0,0,0,-1,1273,862,0,0
56,162,0,0,0,0,0,0,0,0,0,-1,1280,862,0,0
63,162,0,0,0,0,0,0,0,0,0,-1,1287,862,0,0
70,162,0,0,0,0,0,0,0,0,0,-1,1294,862,0,0
77,162,0,0,0,0,0,0,0,0,0,-1,1301,862,0,0
84,162,0,0,0,0,0,0,0,0,0,-1,1308,862,0,0
91,162,0,0,0,0,0,0,0,0,0,-1,1315,862,0,0
98,162,0,0,0,0,0,0,0,0,0,-1,1322,862,0,0
105,162,0,0,0,0,0,0,0,0,0,-1,1329,862,0,0
112,162,0,0,0,0,0,0,0,0,0,-1,1336,862,0,0
119,162,0,0,0,0,0,0,0,0,0,-1,1343,862,0,0
126,162,0,0,0,0,0,0,0,0,0,-1,1350,862,0,0
133,162,0,0,0,0,0,0,0,0,0,-1,1357,862,0,0
140,162,0,0,0,0,0,0,0,0,0,-1,1364,862,0,0
147,162,0,0,0,0,0,0,0,0,0,-1,1371,862,0,0
154,162,0,0,0,0,0,0,0,0,0,-1,1378,862,0,0
161,162,0,0,0,0,0,0,0,0,0,-1,1385,862,0,0
168,162,0,0,0,0,0,0,0,0,0,-1,1392,862,0,0
175,162,0,0,0,0,0,0,0,0,0,-1,1399,862,0,0
182,162,0,0,0,0,0,0,0,0,0,-1,1406,862,0,0
189,162,0,0,0,0,0,0,0,0,0,-1,1413,862,0,0
196,162,0,0,0,0,0,0,0,0,0,-1,1420,862,0,0
203,162,0,0,0,0,0,0,0,0,0,-1,1427,862,0,0
210,162,0,0,0,0,0,0,0,0,0,-1,1434,862,0,0
217,162,0,0,0,0,0,0,0,0,0,-1,1441,862,0,0
224,162,0,0,0,0,0,0,0,0,0,-1,1448,862,0,0
231,162,0,0,0,0,0,0,0,0,0,-1,1455,862,0,0
238,162,0,0,0,0,0,0,0,0,0,-1,1462,862,0,0
245,162,0,0,0,0,0,0,0,0,0,-1,1469,862,0,0
252,162,0,0,0,0,0,0,0,0,0,-1,1476,862,0,0
259,162,0,0,0,0,0,0,0,0,0,-1,1483,862,0,0
266,162,0,0,0,0,0,0,0,0,0,-1,1490,862,0,0
273,162,0,0,0,0,0,0,0,0,0,-1,1497,862,0,0
280,162,0,0,0,0,0,0,0,0,0,-1,1504,862,0,0
287,162,0,0,0,0,0,0,0,0,0,-1,1511,862,0,0
294,162,0,0,0,0,0,0,0,0,0,-1,1518,862,0,0
301,162,0,0,0,0,0,0,0,0,0,-1,1525,862,0,0
308,162,0,0,0,0,0,0,0,0,0,-1,1532,862,0,0
315,162,0,0,0,0,0,0,0,0,0,-1,1539,862,0,0
322,162,0,0,0,0,0,0,0,0,0,-1,1546,862,0,0
329,162,0,0,0,0,0,0,0,0,0,-1,1553,862,0,0
336,162,0,0,0,0,0,0,0,0,0,-1,1560,862,0,0
343,162,0,0,0,0,0,0,0,0,0,-1,1567,862,0,0
350,162,0,0,0,0,0,0,0,0,0,-1,1574,862,0,0
357,162,0,0,0,0,0,0,0,0,0,-1,1581,862,0,0
364,162,0,0,0,0,0,0,0,0,0,-1,1588,862,0,0
371,162,0,0,0,0,0,0,0,0,0,-1,1595,862,0,0
378,162,0,0,0,0,0,0,0,0,0,-1,1602,862,0,0
385,162,0,0,0,0,0,0,0,0,0,-1,1609,862,0,0
392,162,0,0,0,0,0,0,0,0,0,-1,1616,862,0,0
399,162,0,0,0,0,0,0,0,0,0,-1,1623,862,0,0
406,162,0,0,0,0,0,0,0,0,0,-1,1630,862,0,0
413,162,0,0,0,0,0,0,0,0,0,-1,1637,862,0,0
420,162,0,0,0,0,0,0,0,0,0,-1,1644,862,0,0
427,162,0,0,0,0,0,0,0,0,0,-1,1651,862,0,0
434,162,0,0,0,0,0,0,0,0,0,-1,1658,862,0,0
441,162,0,0,0,0,0,0,0,0,0,-1,1665,862,0,0
448,162,0,0,0,0,0,0,0,0,0,-1,1672,862,0,0
455,162,0,0,0,0,0,0,0,0,0,-1,1679,862,0,0
462,162,0,0,0,0,0,0,0,0,0,-1,1686,862,0,0
469,162,0,0,0,0,0,0,0,0,0,-1,1693,862,0,0
476,162,0,0,0,0,0,0,0,0,0,-1,1700,862,0,0
483,162,0,0,0,0,0,0,0,0,0,-1,1707,862,0,0
490,162,0,0,0,0,0,0,0,0,0,-1,1714,862,0,0
497,162,0,0,0,0,0,0,0,0,0,-1,1721,862,0,0
504,162,0,0,0,0,0,0,0,0,0,-1,1728,862,0,0
511,162,0,0,0,0,0,0,0,0,0,-1,1735,862,0,0
518,162,0,0,0,0,0,0,0,0,0,-1,1742,862,0,0
525,162,0,0,0,0,0,0,0,0,0,-1,1749,862,0,0
532,162,0,0,0,0,0,0,0,0,0,-1,1756,862,0,0
539,162,0,0,0,0,0,0,0,0,0,-1,1763,862,0,0
546,162,0,0,0,0,0,0,0,0,0,-1,1770,862,0,0
553,162,0,0,0,0,0,0,0,0,0,-1,1777,862,0,0
560,162,0,0,0,0,0,0,0,0,0,-1,1784,862,0,0
567,162,0,0,0,0,0,0,0,0,0,-1,1791,862,0,0
574,162,0,0,0,0,0,0,0,0,0,-1,1798,862,0,0
581,162,0,0,0,0,0,0,0,0,0,-1,1805,862,0,0
588,162,0,0,0,0,0,0,0,0,0,-1,1812,862,0,0
595,162,0,0,0,0,0,0,0,0,0,-1,1819,862,0,0
602,162,0,0,0,0,0,0,0,0,0,-1,1826,862,0,0
609,162,0,0,0,0,0,0,0,0,0,-1,1833,862,0,0
616,162,54.3801,3.04828,-0.00576449,0.00827919,-0.000594291,0.00830429,-0.0057896,-1.52858,0.00818017,0.0461311,1840,862,54.3802,-3.04829
623,162,54.2401,3.08093,-0.00401689,0.00617452,-0.000339189,0.0061858,-0.00402817,-1.53756,0.00594073,0.047185,1847,862,54.2401,-3.08091
630,162,54.1154,3.00537,-0.00269924,0.00433824,-0.000251744,0.00434724,-0.00270823,-1.53509,0.00410995,0.0437944,1854,862,54.1154,-3.00539
637,162,54.2467,2.85498,-0.00198992,0.00306238,-0.000221255,0.00307205,-0.00199959,-1.52711,0.00294985,0.0423014,1861,862,54.2467,-2.85496
644,162,54.3303,2.72675,-0.00193542,0.00198642,-0.000392057,0.00202523,-0.00197423,-1.47213,0.00230915,0.0420318,1868,862,54.3303,-2.72674
651,162,54.2496,2.8075,-0.00219083,0.00106861,-0.000707885,0.00121571,-0.00233793,-1.36591,0.00208552,0.0381833,1875,862,54.2496,-2.80748
658,162,54.1923,2.82922,-0.00254399,0.000596382,-0.000958829,0.000865988,-0.0028136,-1.29669,0.00222139,0.0363521,1882,862,54.1922,-2.82925
665,162,54.182,2.82141,-0.00286561,0.000293727,-0.00128805,0.0007523,-0.00332419,-1.22877,0.00250484,0.0493693,1889,862,54.182,-2.82142
672,162,54.1703,2.83856,0,0,0,0,0,0,0,-1,1896,862,54.1703,-2.83859
679,162,26.5077,2.54785,0,0,0,0,0,0,0,-1,1903,862,26.5077,-2.54787
686,162,44.6991,1.16345,0,0,0,0,0,0,0,-1,1910,862,44.6991,-1.16348
693,162,45.0436,1.99628,-0.00262295,-0.000156018,-0.00166265,0.000680747,-0.00345971,-1.10454,0.00256369,0.0314379,1917,862,45.0436,-1.99625
700,162,45.0208,2.50195,-0.00263548,1.82355e-05,-0.00170102,0.000848695,-0.00346594,-1.11662,0.00263941,0.0298775,1924,862,45.0208,-2.50197
707,162,44.924,3.0495,-0.002496,5.53747e-05,-0.00181458,0.000997815,-0.00343844,-1.09177,0.00268737,0.0208962,1931,862,44.924,-3.04949
714,162,44.7664,3.57715,-0.00207255,0.000543882,-0.00171989,0.00139655,-0.00292522,-1.11054,0.00254668,0.0226408,1938,862,44.7663,-3.57713
721,162,44.6443,4.27002,-0.00152356,0.000939718,-0.00154287,0.00168226,-0.0022661,-1.12224,0.00228788,0.0273439,1945,862,44.6443,-4.27001
728,162,44.6493,4.84076,-0.00122747,0.00145178,-0.00126435,0.00195421,-0.0017299,-1.19255,0.00212834,0.022608,1952,862,44.6493,-4.84073
735,162,44.6798,5.40015,-0.00118211,0.00196118,-0.000986716,0.00224525,-0.00146618,-1.29048,0.00215848,0.0111419,1959,862,44.6798,-5.40016
742,162,44.6584,5.95856,-0.00150428,0.00258487,-0.000718463,0.00270743,-0.00162684,-1.40184,0.00252818,0.0127402,1966,862,44.6585,-5.95858
749,162,44.598,6.51617,-0.00232221,0.00315546,-0.000518292,0.00320407,-0.00237082,-1.47728,0.00323063,0.0199961,1973,862,44.598,-6.5162
756,162,44.5886,6.87366,-0.00374181,0.0036751,-0.000431298,0.0037001,-0.00376681,-1.51291,0.00431108,0.0470016,1980,862,44.5886,-6.87367
763,162,44.8502,7.75061,0,0,0,0,0,0,0,-1,1987,862,44.8502,-7.75059
770,162,43.2596,8.44946,0,0,0,0,0,0,0,-1,1994,862,43.2597,-8.44947
777,162,43.4399,9.09882,0,0,0,0,0,0,0,-1,2001,862,43.44,-9.09883
784,162,43.3364,10.054,0,0,0,0,0,0,0,-1,2008,862,43.3365,-10.054
791,162,0,0,0,0,0,0,0,0,0,-1,2015,862,0,0
798,162,0,0,0,0,0,0,0,0,0,-1,2022,862,0,0
805,162,0,0,0,0,0,0,0,0,0,-1,2029,862,0,0
812,162,0,0,0,0,0,0,0,0,0,-1,2036,862,0,0
-700,155,0,0,0,0,0,0,0,0,0,-1,524,869,0,0
-693,155,0,0,0,0,0,0,0,0,0,-1,531,869,0,0
-686,155,0,0,0,0,0,0,0,0,0,-1,538,869,0,0
-679,155,0,0,0,0,0,0,0,0,0,-1,545,869,0,0
-672,155,0,0,0,0,0,0,0,0,0,-1,552,869,0,0
-665,155,-35.6971,6.00806,0,0,0,0,0,0,0,-1,559,869,-35.6971,-6.00807
-658,155,-35.1172,5.68665,0.0707547,0.0234114,-0.044768,0.0977241,-0.00355801,-0.542202,0.0663672,0.0460016,566,869,-35.1172,-5.68666
-651,155,-34.5151,4.90802,0.0572748,0.019398,-0.03671,0.0796436,-0.00297078,-0.547258,0.0541132,0.0454086,573,869,-34.5151,-4.908
-644,155,-34.0806,5.021,0,0,0,0,0,0,0,-1,580,869,-34.0806,-5.02099
-637,155,-33.7435,4.74908,0,0,0,0,0,0,0,-1,587,869,-33.7435,-4.74911
-630,155,-33.1089,5.16565,0,0,0,0,0,0,0,-1,594,869,-33.1089,-5.16564
-623,155,-33.1536,4.54938,0.015928,0.00783205,-0.0106465,0.0232701,0.000489972,-0.603729,0.0153527,0.0271219,601,869,-33.1535,-4.54941
-616,155,-33.2261,3.93219,0.0082385,0.00509432,-0.00514051,0.0120419,0.00129089,-0.637002,0.00763413,0.0149649,608,869,-33.2261,-3.9322
-609,155,-33.3002,3.33459,0.00309588,0.00280801,-0.00128387,0.00424386,0.00166003,-0.729578,0.00246947,0.0144205,615,869,-33.3002,-3.33462
-602,155,-33.3456,2.77313,0.000347595,0.00283117,0.000663967,0.00299753,0.000181232,1.32529,0.00194077,0.0126865,622,869,-33.3456,-2.77315
-595,155,-33.3608,2.21631,0.000271915,0.00180715,0.00187046,0.00306138,-0.000982314,0.980113,0.00243531,0.0127081,629,869,-33.3609,-2.21631
-588,155,-33.3232,1.70703,0.0011129,0.00124129,0.00238867,0.00356662,-0.00121243,0.798832,0.00286861,0.0185284,636,869,-33.3232,-1.70704
-581,155,-33.5856,1.29749,0.00178488,0.000980775,0.00265993,0.00407297,-0.00130732,0.710391,0.00324023,0.0349815,643,869,-33.5856,-1.29751
-574,155,-33.705,0.782166,0.00199472,0.000971127,0.00289711,0.0044249,-0.00145905,0.697972,0.00353803,0.0387299,650,869,-33.705,-0.782188
-567,155,-33.6978,0.0321655,0.00193252,0.000662286,0.00301876,0.00438224,-0.00178744,0.681716,0.00366558,0.0483876,657,869,-33.6978,-0.0321633
-560,155,-33.5411,-0.601563,0.00184976,0.000530488,0.00323367,0.00449038,-0.00211014,0.684784,0.00389253,0.0385021,664,869,-33.5411,0.601546
-553,155,-33.2371,-1.52203,0,0,0,0,0,0,0,-1,671,869,-33.2371,1.52206
-546,155,-22.7988,0.873657,0,0,0,0,0,0,0,-1,678,869,-22.7988,-0.873645
-539,155,-40.9734,0.848633,0,0,0,0,0,0,0,-1,685,869,-40.9735,-0.848603
-532,155,-40.9354,0.974854,0.00127273,-0.000190366,0.00312353,0.00374924,-0.00266688,0.670369,0.00372187,0.0356299,692,869,-40.9354,-0.974882
-525,155,-40.9386,1.03827,0.00087068,-0.000401593,0.0029097,0.00321297,-0.00274388,0.677778,0.00344274,0.0385106,699,869,-40.9386,-1.03829
-518,155,-40.9683,1.06378,-6.02945e-05,-0.000462041,0.00275834,0.00250448,-0.00302681,0.74905,0.00319823,0.0438675,706,869,-40.9683,-1.06378
-511,155,-40.9897,1.03601,-0.000409989,-0.000419119,0.00220402,0.00178947,-0.00261858,0.784363,0.00255995,0.0452175,713,869,-40.9897,-1.03602
-504,155,-41.0433,1.11914,0.00148668,0.000991995,0.00153898,0.00279806,-0.000319391,0.705721,0.00198044,0.0440457,720,869,-41.0433,-1.11917
-497,155,0,0,0,0,0,0,0,0,0,-1,727,869,0,0
-490,155,0,0,0,0,0,0,0,0,0,-1,734,869,0,0
-483,155,0,0,0,0,0,0,0,0,0,-1,741,869,0,0
-476,155,0,0,0,0,0,0,0,0,0,-1,748,869,0,0
-469,155,0,0,0,0,0,0,0,0,0,-1,755,869,0,0
-462,155,0,0,0,0,0,0,0,0,0,-1,762,869,0,0
-455,155,0,0,0,0,0,0,0,0,0,-1,769,869,0,0
-448,155,0,0,0,0,0,0,0,0,0,-1,776,869,0,0
-441,155,0,0,0,0,0,0,0,0,0,-1,783,869,0,0
-434,155,0,0,0,0,0,0,0,0,0,-1,790,869,0,0
-427,155,0,0,0,0,0,0,0,0,0,-1,797,869,0,0
-420,155,0,0,0,0,0,0,0,0,0,-1,804,869,0,0
-413,155,0,0,0,0,0,0,0,0,0,-1,811,869,0,0
-406,155,0,0,0,0,0,0,0,0,0,-1,818,869,0,0
-399,155,0,0,0,0,0,0,0,0,0,-1,825,869,0,0
-392,155,0,0,0,0,0,0,0,0,0,-1,832,869,0,0
-385,155,0,0,0,0,0,0,0,0,0,-1,839,869,0,0
-378,155,0,0,0,0,0,0,0,0,0,-1,846,869,0,0
-371,155,0,0,0,0,0,0,0,0,0,-1,853,869,0,0
-364,155,0,0,0,0,0,0,0,0,0,-1,860,869,0,0
-357,155,0,0,0,0,0,0,0,0,0,-1,867,869,0,0
-350,155,0,0,0,0,0,0,0,0,0,-1,874,869,0,0
-343,155,0,0,0,0,0,0,0,0,0,-1,881,869,0,0
-336,155,0,0,0,0,0,0,0,0,0,-1,888,869,0,0
-329,155,0,0,0,0,0,0,0,0,0,-1,895,869,0,0
-322,155,0,0,0,0,0,0,0,0,0,-1,902,869,0,0
-315,155,0,0,0,0,0,0,0,0,0,-1,909,869,0,0
-308,155,0,0,0,0,0,0,0,0,0,-1,916,869,0,0
-301,155,0,0,0,0,0,0,0,0,0,-1,923,869,0,0
-294,155,0,0,0,0,0,0,0,0,0,-1,930,869,0,0
-287,155,0,0,0,0,0,0,0,0,0,-1,937,869,0,0
-280,155,0,0,0,0,0,0,0,0,0,-1,944,869,0,0
-273,155,0,0,0,0,0,0,0,0,0,-1,951,869,0,0
-266,155,0,0,0,0,0,0,0,0,0,-1,958,869,0,0
-259,155,0,0,0,0,0,0,0,0,0,-1,965,869,0,0
-252,155,0,0,0,0,0,0,0,0,0,-1,972,869,0,0
-245,155,0,0,0,0,0,0,0,0,0,-1,979,869,0,0
-238,155,0,0,0,0,0,0,0,0,0,-1,986,869,0,0
-231,155,0,0,0,0,0,0,0,0,0,-1,993,869,0,0
-224,155,0,0,0,0,0,0,0,0,0,-1,1000,869,0,0
-217,155,0,0,0,0,0,0,0,0,0,-1,1007,869,0,0
-210,155,0,0,0,0,0,0,0,0,0,-1,1014,869,0,0
-203,155,0,0,0,0,0,0,0,0,0,-1,1021,869,0,0
-196,155,0,0,0,0,0,0,0,0,0,-1,1028,869,0,0
-189,155,0,0,0,0,0,0,0,0,0,-1,1035,869,0,0
-182,155,0,0,0,0,0,0,0,0,0,-1,1042,869,0,0
-175,155,0,0,0,0,0,0,0,0,0,-1,1049,869,0,0
-168,155,0,0,0,0,0,0,0,0,0,-1,1056,869,0,0
-161,155,0,0,0,0,0,0,0,0,0,-1,1063,869,0,0
-154,155,0,0,0,0,0,0,0,0,0,-1,1070,869,0,0
-147,155,0,0,0,0,0,0,0,0,0,-1,1077,869,0,0
-140,155,0,0,0,0,0,0,0,0,0,-1,1084,869,0,0
-133,155,0,0,0,0,0,0,0,0,0,-1,1091,869,0,0
-126,155,0,0,0,0,0,0,0,0,0,-1,1098,869,0,0
-119,155,0,0,0,0,0,0,0,0,0,-1,1105,869,0,0
-112,155,0,0,0,0,0,0,0,0,0,-1,1112,869,0,0
-105,155,0,0,0,0,0,0,0,0,0,-1,1119,869,0,0
-98,155,0,0,0,0,0,0,0,0,0,-1,1126,869,0,0
-91,155,0,0,0,0,0,0,0,0,0,-1,1133,869,0,0
-84,155,0,0,0,0,0,0,0,0,0,-1,1140,869,0,0
-77,155,0,0,0,0,0,0,0,0,0,-1,1147,869,0,0
-70,155,0,0,0,0,0,0,0,0,0,-1,1154,869,0,0
-63,155,0,0,0,0,0,0,0,0,0,-1,1161,869,0,0
-56,155,0,0,0,0,0,0,0,0,0,-1,1168,869,0,0
-49,155,0,0,0,0,0,0,0,0,0,-1,1175,869,0,0
-42,155,0,0,0,0,0,0,0,0,0,-1,1182,869,0,0
-35,155,0,0,0,0,0,0,0,0,0,-1,1189,869,0,0
-28,155,0,0,0,0,0,0,0,0,0,-1,1196,869,0,0
-21,155,0,0,0,0,0,0,0,0,0,-1,1203,869,0,0
-14,155,0,0,0,0,0,0,0,0,0,-1,1210,869,0,0
-7,155,0,0,0,0,0,0,0,0,0,-1,1217,869,0,0
0,155,0,0,0,0,0,0,0,0,0,-1,1224,869,0,0
7,155,0,0,0,0,0,0,0,0,0,-1,1231,869,0,0
14,155,0,0,0,0,0,0,0,0,0,-1,1238,869,0,0
21,155,0,0,0,0,0,0,0,0,0,-1,1245,869,0,0
28,155,0,0,0,0,0,0,0,0,0,-1,1252,869,0,0
35,155,0,0,0,0,0,0,0,0,0,-1,1259,869,0,0
42,155,0,0,0,0,0,0,0,0,0,-1,1266,869,0,0
49,155,0,0,0,0,0,0,0,0,0,-1,1273,869,0,0
56,155,0,0,0,0,0,0,0,0,0,-1,1280,869,0,0
63,155,0,0,0,0,0,0,0,0,0,-1,1287,869,0,0
70,155,0,0,0,0,0,0,0,0,0,-1,1294,869,0,0
77,155,0,0,0,0,0,0,0,0,0,-1,1301,869,0,0
84,155,0,0,0,0,0,0,0,0,0,-1,1308,869,0,0
91,155,0,0,0,0,0,0,0,0,0,-1,1315,869,0,0
98,155,0,0,0,0,0,0,0,0,0,-1,1322,869,0,0
105,155,0,0,0,0,0,0,0,0,0,-1,1329,869,0,0
112,155,0,0,0,0,0,0,0,0,0,-1,1336,869,0,0
119,155,0,0,0,0,0,0,0,0,0,-1,1343,869,0,0
126,155,0,0,0,0,0,0,0,0,0,-1,1350,869,0,0
133,155,0,0,0,0,0,0,0,0,0,-1,1357,869,0,0
140,155,0,0,0,0,0,0,0,0,0,-1,1364,869,0,0
147,155,0,0,0,0,0,0,0,0,0,-1,1371,869,0,0
154,155,0,0,0,0,0,0,0,0,0,-1,1378,869,0,0
161,155,0,0,0,0,0,0,0,0,0,-1,1385,869,0,0
168,155,0,0,0,0,0,0,0,0,0,-1,1392,869,0,0
175,155,0,0,0,0,0,0,0,0,0,-1,1399,869,0,0
182,155,0,0,0,0,0,0,0,0,0,-1,1406,869,0,0
189,155,0,0,0,0,0,0,0,0,0,-1,1413,869,0,0
196,155,0,0,0,0,0,0,0,0,0,-1,1420,869,0,0
203,155,0,0,0,0,0,0,0,0,0,-1,1427,869,0,0
210,155,0,0,0,0,0,0,0,0,0,-1,1434,869,0,0
217,155,0,0,0,0,0,0,0,0,0,-1,1441,869,0,0
224,155,0,0,0,0,0,0,0,0,0,-1,1448,869,0,0
231,155,0,0,0,0,0,0,0,0,0,-1,1455,869,0,0
238,155,0,0,0,0,0,0,0,0,0,-1,1462,869,0,0
245,155,0,0,0,0,0,0,0,0,0,-1,1469,869,0,0
252,155,0,0,0,0,0,0,0,0,0,-1,1476,869,0,0
259,155,0,0,0,0,0,0,0,0,0,-1,1483,869,0,0
266,155,0,0,0,0,0,0,0,0,0,-1,1490,869,0,0
273,155,0,0,0,0,0,0,0,0,0,-1,1497,869,0,0
280,155,0,0,0,0,0,0,0,0,0,-1,1504,869,0,0
287,155,0,0,0,0,0,0,0,0,0,-1,1511,869,0,0
294,155,0,0,0,0,0,0,0,0,0,-1,1518,869,0,0
301,155,0,0,0,0,0,0,0,0,0,-1,1525,869,0,0
308,155,0,0,0,0,0,0,0,0,0,-1,1532,869,0,0
315,155,0,0,0,0,0,0,0,0,0,-1,1539,869,0,0
322,155,0,0,0,0,0,0,0,0,0,-1,1546,869,0,0
329,155,0,0,0,0,0,0,0,0,0,-1,1553,869,0,0
336,155,0,0,0,0,0,0,0,0,0,-1,1560,869,0,0
343,155,0,0,0,0,0,0,0,0,0,-1,1567,869,0,0
350,155,0,0,0,0,0,0,0,0,0,-1,1574,869,0,0
357,155,0,0,0,0,0,0,0,0,0,-1,1581,869,0,0
364,155,0,0,0,0,0,0,0,0,0,-1,1588,869,0,0
371,155,0,0,0,0,0,0,0,0,0,-1,1595,869,0,0
378,155,0,0,0,0,0,0,0,0,0,-1,1602,869,0,0
385,155,0,0,0,0,0,0,0,0,0,-1,1609,869,0,0
392,155,0,0,0,0,0,0,0,0,0,-1,1616,869,0,0
399,155,0,0,0,0,0,0,0,0,0,-1,1623,869,0,0
406,155,0,0,0,0,0,0,0,0,0,-1,1630,869,0,0
413,155,0,0,0,0,0,0,0,0,0,-1,1637,869,0,0
420,155,0,0,0,0,0,0,0,0,0,-1,1644,869,0,0
427,155,0,0,0,0,0,0,0,0,0,-1,1651,869,0,0
434,155,0,0,0,0,0,0,0,0,0,-1,1658,869,0,0
441,155,0,0,0,0,0,0,0,0,0,-1,1665,869,0,0
448,155,0,0,0,0,0,0,0,0,0,-1,1672,869,0,0
455,155,0,0,0,0,0,0,0,0,0,-1,1679,869,0,0
462,155,0,0,0,0,0,0,0,0,0,-1,1686,869,0,0
469,155,0,0,0,0,0,0,0,0,0,-1,1693,869,0,0
476,155,0,0,0,0,0,0,0,0,0,-1,1700,869,0,0
483,155,0,0,0,0,0,0,0,0,0,-1,1707,869,0,0
490,155,0,0,0,0,0,0,0,0,0,-1,1714,869,0,0
497,155,0,0,0,0,0,0,0,0,0,-1,1721,869,0,0
504,155,0,0,0,0,0,0,0,0,0,-1,1728,869,0,0
511,155,0,0,0,0,0,0,0,0,0,-1,1735,869,0,0
518,155,0,0,0,0,0,0,0,0,0,-1,1742,869,0,0
525,155,0,0,0,0,0,0,0,0,0,-1,1749,869,0,0
532,155,0,0,0,0,0,0,0,0,0,-1,1756,869,0,0
539,155,0,0,0,0,0,0,0,0,0,-1,1763,869,0,0
546,155,0,0,0,0,0,0,0,0,0,-1,1770,869,0,0
553,155,0,0,0,0,0,0,0,0,0,-1,1777,869,0,0
560,155,0,0,0,0,0,0,0,0,0,-1,1784,869,0,0
567,155,0,0,0,0,0,0,0,0,0,-1,1791,869,0,0
574,155,0,0,0,0,0,0,0,0,0,-1,1798,869,0,0
581,155,0,0,0,0,0,0,0,0,0,-1,1805,869,0,0
588,155,0,0,0,0,0,0,0,0,0,-1,1812,869,0,0
595,155,0,0,0,0,0,0,0,0,0,-1,1819,869,0,0
602,155,0,0,0,0,0,0,0,0,0,-1,1826,869,0,0
609,155,0,0,0,0,0,0,0,0,0,-1,1833,869,0,0
616,155,54.4323,3.02588,-0.00674035,0.00815252,-0.001254,0.00825737,-0.0068452,-1.48738,0.00873217,0.0468829,1840,869,54.4322,-3.0259
623,155,54.2261,3.00775,-0.00495994,0.00606054,-0.00096781,0.00614489,-0.00504429,-1.48386,0.00647048,0.0445779,1847,869,54.2261,-3.00773
630,155,54.2222,3.0332,-0.00348586,0.00416279,-0.000715444,0.00422913,-0.0035522,-1.47833,0.00449822,0.0440656,1854,869,54.2222,-3.03319
637,155,54.2592,2.87311,-0.00243153,0.00286076,-0.000466281,0.00290152,-0.0024723,-1.48359,0.00310588,0.0421043,1861,869,54.2591,-2.87311
644,155,54.304,2.72339,-0.00200766,0.00176312,-0.000431377,0.00181184,-0.00205638,-1.45833,0.00223481,0.0394603,1868,869,54.3039,-2.7234
651,155,54.3215,2.68262,-0.00200799,0.00081381,-0.000611586,0.00094066,-0.00213484,-1.36628,0.00181971,0.0344167,1875,869,54.3216,-2.68259
658,155,54.2499,2.72711,-0.00221086,0.00038596,-0.0007578,0.000590924,-0.00241582,-1.30665,0.00183944,0.0291286,1882,869,54.2499,-2.72712
665,155,54.1691,2.72675,-0.0024276,0.000139136,-0.00104203,0.000508904,-0.00279737,-1.2298,0.00205565,0.0341901,1889,869,54.169,-2.72675
672,155,54.1711,2.62164,0,0,0,0,0,0,0,-1,1896,869,54.1712,-2.62164
679,155,35.1565,2.78528,0,0,0,0,0,0,0,-1,1903,869,35.1565,-2.7853
686,155,43.6101,1.63361,0,0,0,0,0,0,0,-1,1910,869,43.6101,-1.63362
693,155,45.5282,2.1142,0,0,0,0,0,0,0,-1,1917,869,45.5282,-2.1142
700,155,45.6324,2.6123,-0.00209492,0.000140125,-0.00139858,0.000812823,-0.00276762,-1.12248,0.00216744,0.0380875,1924,869,45.6325,-2.61231
707,155,45.6322,3.20752,-0.00201786,0.000254978,-0.00156295,0.00105099,-0.00281387,-1.09974,0.00230745,0.0259062,1931,869,45.6322,-3.20753
714,155,45.5875,3.73633,-0.0017331,0.000774584,-0.00156457,0.00152574,-0.00248425,-1.12319,0.00233711,0.0485843,1938,869,45.5875,-3.73634
721,155,45.2878,4.2807,-0.00139396,0.00117087,-0.0015112,0.00187045,-0.00209354,-1.13724,0.00228982,0.0318131,1945,869,45.2878,-4.28068
728,155,45.2531,4.85406,-0.00137882,0.00166208,-0.00135812,0.00218032,-0.00189706,-1.20626,0.00235597,0.01962,1952,869,45.2531,-4.85404
735,155,45.2784,5.40216,-0.00160122,0.00208931,-0.00118925,0.00243934,-0.00195124,-1.28455,0.00254012,0.0159493,1959,869,45.2784,-5.40216
742,155,45.2643,5.97546,-0.00216755,0.0026426,-0.00100677,0.00284481,-0.00236976,-1.37258,0.0030148,0.0171854,1966,869,45.2643,-5.97548
749,155,45.1826,6.52356,-0.00322971,0.00318528,-0.000856689,0.00329771,-0.00334215,-1.4403,0.00383356,0.0170039,1973,869,45.1826,-6.52354
756,155,45.1332,7.10651,-0.0048601,0.00372241,-0.000783031,0.00379326,-0.00493096,-1.48055,0.00505119,0.0302454,1980,869,45.1332,-7.1065
763,155,45.1407,7.72028,-0.00729286,0.00517957,-0.000375575,0.00519087,-0.00730416,-1.54072,0.00724832,0.0481195,1987,869,45.1407,-7.72027
770,155,45.095,8.33063,0,0,0,0,0,0,0,-1,1994,869,45.095,-8.3306
777,155,43.5001,9.6864,0,0,0,0,0,0,0,-1,2001,869,43.5001,-9.68637
784,155,43.5391,10.9663,0,0,0,0,0,0,0,-1,2008,869,43.5391,-10.9663
791,155,0,0,0,0,0,0,0,0,0,-1,2015,869,0,0
798,155,0,0,0,0,0,0,0,0,0,-1,2022,869,0,0
805,155,0,0,0,0,0,0,0,0,0,-1,2029,869,0,0
812,155,0,0,0,0,0,0,0,0,0,-1,2036,869,0,0
-700,148,0,0,0,0,0,0,0,0,0,-1,524,876,0,0
-693,148,0,0,0,0,0,0,0,0,0,-1,531,876,0,0
-686,148,0,0,0,0,0,0,0,0,0,-1,538,876,0,0
-679,148,0,0,0,0,0,0,0,0,0,-1,545,876,0,0
-672,148,-36.6312,7.91376,0.0983367,0.0491286,-0.0741055,0.151816,-0.00435047,-0.625117,0.102691,0.0474703,552,876,-36.6312,-7.91378
-665,148,-35.9308,6.84241,0.0819138,0.0386513,-0.0609515,0.124959,-0.00439355,-0.614884,0.0848082,0.0457387,559,876,-35.9308,-6.84243
-658,148,-35.2736,5.81018,0.0670951,0.0310246,-0.0497947,0.10202,-0.00390033,-0.611651,0.06935,0.0491737,566,876,-35.2736,-5.8102
-651,148,-34.8042,4.8103,0,0,0,0,0,0,0,-1,573,876,-34.8042,-4.81031
-644,148,-36.0641,1.69067,0,0,0,0,0,0,0,-1,580,876,-36.0641,-1.6907
-637,148,-34.0625,1.75256,0,0,0,0,0,0,0,-1,587,876,-34.0625,-1.75256
-630,148,-33.4838,5.31409,0,0,0,0,0,0,0,-1,594,876,-33.4839,-5.31407
-623,148,-33.6404,4.60516,0.0138137,0.00867741,-0.0106186,0.0221702,0.00032084,-0.66675,0.0146744,0.0263972,601,876,-33.6404,-4.60515
-616,148,-33.7769,3.93451,0.00651165,0.00540104,-0.00476516,0.0107538,0.00115894,-0.727392,0.00681578,0.0136265,608,876,-33.7769,-3.93449
-609,148,-33.8693,3.3371,0.00189421,0.0027916,-0.000787222,0.00324902,0.00143679,-1.04442,0.00187999,0.0129868,615,876,-33.8694,-3.33712
-602,148,-33.929,2.78253,-0.000187826,0.00252002,0.00102862,0.00286644,-0.000534245,1.24595,0.00211169,0.0141664,622,876,-33.929,-2.78252
-595,148,-33.9427,2.23041,6.98486e-05,0.00156205,0.00204382,0.00299169,-0.00135979,0.960409,0.00257054,0.0128537,629,876,-33.9428,-2.23038
-588,148,-33.9374,1.63055,0.000886869,0.00106642,0.00246526,0.00344354,-0.00149025,0.803599,0.00292199,0.0263019,636,876,-33.9374,-1.63054
-581,148,-34.108,1.24066,0.00135071,0.00087742,0.00268547,0.00380994,-0.00158181,0.741452,0.00320031,0.0423455,643,876,-34.108,-1.24065
-574,148,-33.8229,0.829956,0.00141106,0.00088567,0.00287894,0.00403926,-0.00174254,0.739901,0.00342479,0.0465562,650,876,-33.8229,-0.829945
-567,148,-33.396,0.489624,0,0,0,0,0,0,0,-1,657,876,-33.396,-0.489641
-560,148,-34.1621,-0.414063,0,0,0,0,0,0,0,-1,664,876,-34.1621,0.414033
-553,148,-18.3896,-0.00280762,0,0,0,0,0,0,0,-1,671,876,-18.3897,0.00278524
-546,148,-40.9586,0.808655,0,0,0,0,0,0,0,-1,678,876,-40.9586,-0.808675
-539,148,-40.9439,0.81897,0.000874696,0.000399232,0.0034131,0.00405833,-0.0027844,0.750628,0.00397341,0.0404344,685,876,-40.9439,-0.818958
-532,148,-40.9372,0.887573,0.000605548,0.000360736,0.00327701,0.00376244,-0.00279615,0.76673,0.00380028,0.0348072,692,876,-40.9372,-0.887549
-525,148,-40.8858,1.05695,0.000111297,0.000248367,0.00306488,0.00324548,-0.00288582,0.796577,0.00354194,0.0368004,699,876,-40.8858,-1.05697
-518,148,-40.8861,1.16693,-0.000662807,0.000148207,0.00283449,0.00260605,-0.00312065,0.856447,0.00331075,0.0434152,706,876,-40.8861,-1.16691
-511,148,-40.9294,1.24084,-0.000372087,1.04615e-05,0.00221307,0.00204051,-0.00240214,0.828506,0.00256779,0.0433818,713,876,-40.9295,-1.24085
-504,148,-40.963,1.33752,0.00240474,0.000955964,0.00156252,0.00340262,-4.19186e-05,0.568345,0.00228252,0.0454148,720,876,-40.963,-1.33755
-497,148,0,0,0,0,0,0,0,0,0,-1,727,876,0,0
-490,148,0,0,0,0,0,0,0,0,0,-1,734,876,0,0
-483,148,0,0,0,0,0,0,0,0,0,-1,741,876,0,0
-476,148,0,0,0,0,0,0,0,0,0,-1,748,876,0,0
-469,148,0,0,0,0,0,0,0,0,0,-1,755,876,0,0
-462,148,0,0,0,0,0,0,0,0,0,-1,762,876,0,0
-455,148,0,0,0,0,0,0,0,0,0,-1,769,876,0,0
-448,148,0,0,0,0,0,0,0,0,0,-1,776,876,0,0
-441,148,0,0,0,0,0,0,0,0,0,-1,783,876,0,0
-434,148,0,0,0,0,0,0,0,0,0,-1,790,876,0,0
-427,148,0,0,0,0,0,0,0,0,0,-1,797,876,0,0
-420,148,0,0,0,0,0,0,0,0,0,-1,804,876,0,0
-413,148,0,0,0,0,0,0,0,0,0,-1,811,876,0,0
-406,148,0,0,0,0,0,0,0,0,0,-1,818,876,0,0
-399,148,0,0,0,0,0,0,0,0,0,-1,825,876,0,0
-392,148,0,0,0,0,0,0,0,0,0,-1,832,876,0,0
-385,148,0,0,0,0,0,0,0,0,0,-1,839,876,0,0
-378,148,0,0,0,0,0,0,0,0,0,-1,846,876,0,0
-371,148,0,0,0,0,0,0,0,0,0,-1,853,876,0,0
-364,148,0,0,0,0,0,0,0,0,0,-1,860,876,0,0
-357,148,0,0,0,0,0,0,0,0,0,-1,867,876,0,0
-350,148,0,0,0,0,0,0,0,0,0,-1,874,876,0,0
-343,148,0,0,0,0,0,0,0,0,0,-1,881,876,0,0
-336,148,0,0,0,0,0,0,0,0,0,-1,888,876,0,0
-329,148,0,0,0,0,0,0,0,0,0,-1,895,876,0,0
-322,148,0,0,0,0,0,0,0,0,0,-1,902,876,0,0
-315,148,0,0,0,0,0,0,0,0,0,-1,909,876,0,0
-308,148,0,0,0,0,0,0,0,0,0,-1,916,876,0,0
-301,148,0,0,0,0,0,0,0,0,0,-1,923,876,0,0
-294,148,0,0,0,0,0,0,0,0,0,-1,930,876,0,0
-287,148,0,0,0,0,0,0,0,0,0,-1,937,876,0,0
-280,148,0,0,0,0,0,0,0,0,0,-1,944,876,0,0
-273,148,0,0,0,0,0,0,0,0,0,-1,951,876,0,0
-266,148,0,0,0,0,0,0,0,0,0,-1,958,876,0,0
-259,148,0,0,0,0,0,0,0,0,0,-1,965,876,0,0
-252,148,0,0,0,0,0,0,0,0,0,-1,972,876,0,0
-245,148,0,0,0,0,0,0,0,0,0,-1,979,876,0,0
-238,148,0,0,0,0,0,0,0,0,0,-1,986,876,0,0
-231,148,0,0,0,0,0,0,0,0,0,-1,993,876,0,0
-224,148,0,0,0,0,0,0,0,0,0,-1,1000,876,0,0
-217,148,0,0,0,0,0,0,0,0,0,-1,1007,876,0,0
-210,148,0,0,0,0,0,0,0,0,0,-1,1014,876,0,0
-203,148,0,0,0,0,0,0,0,0,0,-1,1021,876,0,0
-196,148,0,0,0,0,0,0,0,0,0,-1,1028,876,0,0
-189,148,0,0,0,0,0,0,0,0,0,-1,1035,876,0,0
-182,148,0,0,0,0,0,0,0,0,0,-1,1042,876,0,0
-175,148,0,0,0,0,0,0,0,0,0,-1,1049,876,0,0
-168,148,0,0,0,0,0,0,0,0,0,-1,1056,876,0,0
-161,148,0,0,0,0,0,0,0,0,0,-1,1063,876,0,0
-154,148,0,0,0,0,0,0,0,0,0,-1,1070,876,0,0
-147,148,0,0,0,0,0,0,0,0,0,-1,1077,876,0,0
-140,148,0,0,0,0,0,0,0,0,0,-1,1084,876,0,0
-133,148,0,0,0,0,0,0,0,0,0,-1,1091,876,0,0
-126,148,0,0,0,0,0,0,0,0,0,-1,1098,876,0,0
-119,148,0,0,0,0,0,0,0,0,0,-1,1105,876,0,0
-112,148,0,0,0,0,0,0,0,0,0,-1,1112,876,0,0
-105,148,0,0,0,0,0,0,0,0,0,-1,1119,876,0,0
-98,148,0,0,0,0,0,0,0,0,0,-1,1126,876,0,0
-91,148,0,0,0,0,0,0,0,0,0,-1,1133,876,0,0
-84,148,0,0,0,0,0,0,0,0,0,-1,1140,876,0,0
-77,148,0,0,0,0,0,0,0,0,0,-1,1147,876,0,0
-70,148,0,0,0,0,0,0,0,0,0,-1,1154,876,0,0
-63,148,0,0,0,0,0,0,0,0,0,-1,1161,876,0,0
-56,148,0,0,0,0,0,0,0,0,0,-1,1168,876,0,0
-49,148,0,0,0,0,0,0,0,0,0,-1,1175,876,0,0
-42,148,0,0,0,0,0,0,0,0,0,-1,1182,876,0,0
-35,148,0,0,0,0,0,0,0,0,0,-1,1189,876,0,0
-28,148,0,0,0,0,0,0,0,0,0,-1,1196,876,0,0
-21,148,0,0,0,0,0,0,0,0,0,-1,1203,876,0,0
-14,148,0,0,0,0,0,0,0,0,0,-1,1210,876,0,0
-7,148,0,0,0,0,0,0,0,0,0,-1,1217,876,0,0
0,148,0,0,0,0,0,0,0,0,0,-1,1224,876,0,0
7,148,0,0,0,0,0,0,0,0,0,-1,1231,876,0,0
14,148,0,0,0,0,0,0,0,0,0,-1,1238,876,0,0
21,148,0,0,0,0,0,0,0,0,0,-1,1245,876,0,0
28,148,0,0,0,0,0,0,0,0,0,-1,1252,876,0,0
35,148,0,0,0,0,0,0,0,0,0,-1,1259,876,0,0
42,148,0,0,0,0,0,0,0,0,0,-1,1266,876,0,0
49,148,0,0,0,0,0,0,0,0,0,-1,1273,876,0,0
56,148,0,0,0,0,0,0,0,0,0,-1,1280,876,0,0
63,148,0,0,0,0,0,0,0,0,0,-1,1287,876,0,0
70,148,0,0,0,0,0,0,0,0,0,-1,1294,876,0,0
77,148,0,0,0,0,0,0,0,0,0,-1,1301,876,0,0
84,148,0,0,0,0,0,0,0,0,0,-1,1308,876,0,0
91,148,0,0,0,0,0,0,0,0,0,-1,1315,876,0,0
98,148,0,0,0,0,0,0,0,0,0,-1,1322,876,0,0
105,148,0,0,0,0,0,0,0,0,0,-1,1329,876,0,0
112,148,0,0,0,0,0,0,0,0,0,-1,1336,876,0,0
119,148,0,0,0,0,0,0,0,0,0,-1,1343,876,0,0
126,148,0,0,0,0,0,0,0,0,0,-1,1350,876,0,0
133,148,0,0,0,0,0,0,0,0,0,-1,1357,876,0,0
140,148,0,0,0,0,0,0,0,0,0,-1,1364,876,0,0
147,148,0,0,0,0,0,0,0,0,0,-1,1371,876,0,0
154,148,0,0,0,0,0,0,0,0,0,-1,1378,876,0,0
161,148,0,0,0,0,0,0,0,0,0,-1,1385,876,0,0
168,148,0,0,0,0,0,0,0,0,0,-1,1392,876,0,0
175,148,0,0,0,0,0,0,0,0,0,-1,1399,876,0,0
182,148,0,0,0,0,0,0,0,0,0,-1,1406,876,0,0
189,148,0,0,0,0,0,0,0,0,0,-1,1413,876,0,0
196,148,0,0,0,0,0,0,0,0,0,-1,1420,876,0,0
203,148,0,0,0,0,0,0,0,0,0,-1,1427,876,0,0
210,148,0,0,0,0,0,0,0,0,0,-1,1434,876,0,0
217,148,0,0,0,0,0,0,0,0,0,-1,1441,876,0,0
224,148,0,0,0,0,0,0,0,0,0,-1,1448,876,0,0
231,148,0,0,0,0,0,0,0,0,0,-1,1455,876,0,0
238,148,0,0,0,0,0,0,0,0,0,-1,1462,876,0,0
245,148,0,0,0,0,0,0,0,0,0,-1,1469,876,0,0
252,148,0,0,0,0,0,0,0,0,0,-1,1476,876,0,0
259,148,0,0,0,0,0,0,0,0,0,-1,1483,876,0,0
266,148,0,0,0,0,0,0,0,0,0,-1,1490,876,0,0
273,148,0,0,0,0,0,0,0,0,0,-1,1497,876,0,0
280,148,0,0,0,0,0,0,0,0,0,-1,1504,876,0,0
287,148,0,0,0,0,0,0,0,0,0,-1,1511,876,0,0
294,148,0,0,0,0,0,0,0,0,0,-1,1518,876,0,0
301,148,0,0,0,0,0,0,0,0,0,-1,1525,876,0,0
308,148,0,0,0,0,0,0,0,0,0,-1,1532,876,0,0
315,148,0,0,0,0,0,0,0,0,0,-1,1539,876,0,0
322,148,0,0,0,0,0,0,0,0,0,-1,1546,876,0,0
329,148,0,0,0,0,0,0,0,0,0,-1,1553,876,0,0
336,148,0,0,0,0,0,0,0,0,0,-1,1560,876,0,0
343,148,0,0,0,0,0,0,0,0,0,-1,1567,876,0,0
350,148,0,0,0,0,0,0,0,0,0,-1,1574,876,0,0
357,148,0,0,0,0,0,0,0,0,0,-1,1581,876,0,0
364,148,0,0,0,0,0,0,0,0,0,-1,1588,876,0,0
371,148,0,0,0,0,0,0,0,0,0,-1,1595,876,0,0
378,148,0,0,0,0,0,0,0,0,0,-1,1602,876,0,0
385,148,0,0,0,0,0,0,0,0,0,-1,1609,876,0,0
392,148,0,0,0,0,0,0,0,0,0,-1,1616,876,0,0
399,148,0,0,0,0,0,0,0,0,0,-1,1623,876,0,0
406,148,0,0,0,0,0,0,0,0,0,-1,1630,876,0,0
413,148,0,0,0,0,0,0,0,0,0,-1,1637,876,0,0
420,148,0,0,0,0,0,0,0,0,0,-1,1644,876,0,0
427,148,0,0,0,0,0,0,0,0,0,-1,1651,876,0,0
434,148,0,0,0,0,0,0,0,0,0,-1,1658,876,0,0
441,148,0,0,0,0,0,0,0,0,0,-1,1665,876,0,0
448,148,0,0,0,0,0,0,0,0,0,-1,1672,876,0,0
455,148,0,0,0,0,0,0,0,0,0,-1,1679,876,0,0
462,148,0,0,0,0,0,0,0,0,0,-1,1686,876,0,0
469,148,0,0,0,0,0,0,0,0,0,-1,1693,876,0,0
476,148,0,0,0,0,0,0,0,0,0,-1,1700,876,0,0
483,148,0,0,0,0,0,0,0,0,0,-1,1707,876,0,0
490,148,0,0,0,0,0,0,0,0,0,-1,1714,876,0,0
497,148,0,0,0,0,0,0,0,0,0,-1,1721,876,0,0
504,148,0,0,0,0,0,0,0,0,0,-1,1728,876,0,0
511,148,0,0,0,0,0,0,0,0,0,-1,1735,876,0,0
518,148,0,0,0,0,0,0,0,0,0,-1,1742,876,0,0
525,148,0,0,0,0,0,0,0,0,0,-1,1749,876,0,0
532,148,0,0,0,0,0,0,0,0,0,-1,1756,876,0,0
539,148,0,0,0,0,0,0,0,0,0,-1,1763,876,0,0
546,148,0,0,0,0,0,0,0,0,0,-1,1770,876,0,0
553,148,0,0,0,0,0,0,0,0,0,-1,1777,876,0,0
560,148,0,0,0,0,0,0,0,0,0,-1,1784,876,0,0
567,148,0,0,0,0,0,0,0,0,0,-1,1791,876,0,0
574,148,0,0,0,0,0,0,0,0,0,-1,1798,876,0,0
581,148,0,0,0,0,0,0,0,0,0,-1,1805,876,0,0
588,148,0,0,0,0,0,0,0,0,0,-1,1812,876,0,0
595,148,0,0,0,0,0,0,0,0,0,-1,1819,876,0,0
602,148,0,0,0,0,0,0,0,0,0,-1,1826,876,0,0
609,148,0,0,0,0,0,0,0,0,0,-1,1833,876,0,0
616,148,0,0,0,0,0,0,0,0,0,-1,1840,876,0,0
623,148,54.1666,2.89526,-0.00624344,0.00585462,-0.00155207,0.00605056,-0.00643938,-1.44521,0.00721224,0.0421282,1847,876,54.1666,-2.89527
630,148,54.0614,3.01294,-0.00447989,0.0038793,-0.00110057,0.00402178,-0.00462237,-1.44206,0.00499471,0.0436349,1854,876,54.0615,-3.01295
637,148,54.1223,2.95905,-0.00311791,0.00255983,-0.000719107,0.00264949,-0.00320757,-1.44675,0.00338669,0.0372536,1861,876,54.1223,-2.95902
644,148,54.2064,2.70471,-0.00236043,0.00149591,-0.000543126,0.00157095,-0.00243547,-1.43351,0.00233099,0.0358852,1868,876,54.2064,-2.70469
651,148,54.3018,2.59198,-0.0020945,0.000585948,-0.000604346,0.000715906,-0.00222445,-1.35898,0.00177053,0.0371202,1875,876,54.3018,-2.59196
658,148,54.278,2.75635,-0.00211091,0.0002418,-0.000652113,0.000410459,-0.00227957,-1.31771,0.0016734,0.0344251,1882,876,54.2779,-2.75636
665,148,54.1345,2.81427,-0.00219346,8.76673e-05,-0.000884627,0.00039052,-0.00249631,-1.24095,0.00180849,0.0258307,1889,876,54.1345,-2.81426
672,148,54.1222,2.73895,-0.00201787,1.36714e-06,-0.0010038,0.000415456,-0.00243196,-1.17954,0.00177606,0.0305015,1896,876,54.1222,-2.73892
679,148,53.8469,3.09143,0,0,0,0,0,0,0,-1,1903,876,53.8469,-3.09141
686,148,21.6195,2.40845,0,0,0,0,0,0,0,-1,1910,876,21.6196,-2.40846
693,148,45.6682,1.9483,0,0,0,0,0,0,0,-1,1917,876,45.6682,-1.94831
700,148,46.2281,2.69507,0,0,0,0,0,0,0,-1,1924,876,46.2281,-2.69505
707,148,46.4407,3.47656,0,0,0,0,0,0,0,-1,1931,876,46.4407,-3.47654
714,148,46.3021,3.84381,0,0,0,0,0,0,0,-1,1938,876,46.3022,-3.84379
721,148,45.8733,4.30603,-0.00107447,0.0014461,-0.00141581,0.00208129,-0.00170966,-1.14907,0.00219221,0.0242225,1945,876,45.8733,-4.30602
728,148,45.8774,4.84003,-0.00125726,0.00188115,-0.00133321,0.00237104,-0.00174715,-1.21866,0.00238672,0.0204155,1952,876,45.8774,-4.84006
735,148,45.9017,5.42371,-0.0017039,0.00225444,-0.0012235,0.00260208,-0.00205155,-1.29395,0.00269303,0.0193262,1959,876,45.9018,-5.42371
742,148,45.8405,6.00165,-0.00248358,0.00277419,-0.00109559,0.00299335,-0.00270274,-1.37336,0.00329007,0.0211019,1966,876,45.8405,-6.00163
749,148,45.7466,6.53088,-0.00370339,0.00335882,-0.000925813,0.00347817,-0.00382274,-1.44259,0.00421675,0.0202464,1973,876,45.7466,-6.53089
756,148,45.6809,7.12799,-0.00539029,0.00403443,-0.000741965,0.00409248,-0.00544834,-1.49271,0.00552691,0.0242913,1980,876,45.6809,-7.12798
763,148,45.4641,7.67316,-0.00765373,0.0056781,-8.81728e-05,0.00567868,-0.00765432,-1.56418,0.00772593,0.0432624,1987,876,45.4641,-7.67313
770,148,45.2196,8.22491,0,0,0,0,0,0,0,-1,1994,876,45.2196,-8.22494
777,148,44.2043,9.88892,0,0,0,0,0,0,0,-1,2001,876,44.2043,-9.88889
784,148,43.7417,11.8786,0,0,0,0,0,0,0,-1,2008,876,43.7417,-11.8786
791,148,42.936,11.5876,0,0,0,0,0,0,0,-1,2015,876,42.936,-11.5876
798,148,0,0,0,0,0,0,0,0,0,-1,2022,876,0,0
805,148,0,0,0,0,0,0,0,0,0,-1,2029,876,0,0
812,148,0,0,0,0,0,0,0,0,0,-1,2036,876,0,0
-700,141,0,0,0,0,0,0,0,0,0,-1,524,883,0,0
-693,141,0,0,0,0,0,0,0,0,0,-1,531,883,0,0
-686,141,0,0,0,0,0,0,0,0,0,-1,538,883,0,0
-679,141,0,0,0,0,0,0,0,0,0,-1,545,883,0,0
-672,141,-36.9324,7.59656,0.0918982,0.0594975,-0.0826611,0.159932,-0.00853582,-0.688632,0.109577,0.04764,552,883,-36.9324,-7.59659
-665,141,-36.3577,6.56287,0.0759846,0.0465248,-0.0664969,0.129364,-0.00685409,-0.676402,0.0886154,0.0442666,559,883,-36.3577,-6.56289
-658,141,-35.4344,5.92352,0,0,0,0,0,0,0,-1,566,883,-35.4344,-5.92349
-651,141,-36.1428,3.05023,0,0,0,0,0,0,0,-1,573,883,-36.1428,-3.0502
-644,141,-36.9785,1.43658,0,0,0,0,0,0,0,-1,580,883,-36.9785,-1.43657
-637,141,-34.7994,6.01227,0,0,0,0,0,0,0,-1,587,883,-34.7994,-6.01228
-630,141,-34.5483,5.41327,0,0,0,0,0,0,0,-1,594,883,-34.5483,-5.41326
-623,141,-34.1435,4.53564,0.0112743,0.00945054,-0.0102165,0.0206196,0.000105292,-0.740888,0.0137114,0.0300156,601,883,-34.1435,-4.53566
-616,141,-34.3465,3.88873,0.0045253,0.0057478,-0.00417719,0.00935823,0.000914872,-0.858048,0.00595732,0.0135564,608,883,-34.3465,-3.88875
-609,141,-34.4216,3.33496,0.000548923,0.00288286,-0.000232237,0.00290574,0.000526038,-1.47258,0.0017878,0.014289,615,883,-34.4216,-3.33496
-602,141,-34.4644,2.80267,-0.000878074,0.0023445,0.00135463,0.00283827,-0.00137184,1.22126,0.00247937,0.0146436,622,883,-34.4643,-2.80269
-595,141,-34.4594,2.23212,-0.000410412,0.00144715,0.00213287,0.00284469,-0.00180795,0.990747,0.00270834,0.0144957,629,883,-34.4594,-2.23213
-588,141,-34.7843,1.69214,0.000339131,0.00100047,0.00243808,0.0031302,-0.0017906,0.852801,0.0028759,0.0298364,636,883,-34.7843,-1.69211
-581,141,-34.722,1.21844,0.000679845,0.000842745,0.00261618,0.00337874,-0.00185615,0.80096,0.00306468,0.0414008,643,883,-34.722,-1.21846
-574,141,-34.3911,0.794067,0,0,0,0,0,0,0,-1,650,883,-34.391,-0.794049
-567,141,-30.5335,0.480103,0,0,0,0,0,0,0,-1,657,883,-30.5335,-0.480081
-560,141,-30.5542,0.23175,0,0,0,0,0,0,0,-1,664,883,-30.5542,-0.231742
-553,141,-32.0876,1.39459,0,0,0,0,0,0,0,-1,671,883,-32.0876,-1.3946
-546,141,-40.9369,0.831421,0,0,0,0,0,0,0,-1,678,883,-40.9369,-0.831429
-539,141,-40.8957,0.82019,0.000477747,0.000690944,0.00338809,0.00397411,-0.00280542,0.801124,0.0039335,0.0321671,685,883,-40.8957,-0.820162
-532,141,-40.9461,0.871399,0.000254459,0.000791509,0.00332148,0.0038553,-0.00280933,0.825733,0.00386359,0.0306312,692,883,-40.9461,-0.871395
-525,141,-40.9239,1.04614,-0.000199081,0.000822693,0.00319107,0.00354351,-0.0029199,0.864774,0.00373743,0.0385842,699,883,-40.9239,-1.04611
-518,141,-40.9181,1.23486,-0.000746722,0.00079429,0.00299989,0.00312104,-0.00307347,0.911103,0.00357644,0.042374,706,883,-40.9181,-1.23489
-511,141,-40.968,1.34802,-0.000115909,0.000729573,0.00254796,0.00288962,-0.00227595,0.867606,0.00298935,0.0385059,713,883,-40.968,-1.348
-504,141,-40.9515,1.32324,0.00261061,0.00155553,0.00217089,0.00431714,-0.000151003,0.666206,0.00292972,0.042148,720,883,-40.9515,-1.32326
-497,141,0,0,0,0,0,0,0,0,0,-1,727,883,0,0
-490,141,0,0,0,0,0,0,0,0,0,-1,734,883,0,0
-483,141,0,0,0,0,0,0,0,0,0,-1,741,883,0,0
-476,141,0,0,0,0,0,0,0,0,0,-1,748,883,0,0
-469,141,0,0,0,0,0,0,0,0,0,-1,755,883,0,0
-462,141,0,0,0,0,0,0,0,0,0,-1,762,883,0,0
-455,141,0,0,0,0,0,0,0,0,0,-1,769,883,0,0
-448,141,0,0,0,0,0,0,0,0,0,-1,776,883,0,0
-441,141,0,0,0,0,0,0,0,0,0,-1,783,883,0,0
-434,141,0,0,0,0,0,0,0,0,0,-1,790,883,0,0
-427,141,0,0,0,0,0,0,0,0,0,-1,797,883,0,0
-420,141,0,0,0,0,0,0,0,0,0,-1,804,883,0,0
-413,141,0,0,0,0,0,0,0,0,0,-1,811,883,0,0
-406,141,0,0,0,0,0,0,0,0,0,-1,818,883,0,0
-399,141,0,0,0,0,0,0,0,0,0,-1,825,883,0,0
-392,141,0,0,0,0,0,0,0,0,0,-1,832,883,0,0
-385,141,0,0,0,0,0,0,0,0,0,-1,839,883,0,0
-378,141,0,0,0,0,0,0,0,0,0,-1,846,883,0,0
-371,141,0,0,0,0,0,0,0,0,0,-1,853,883,0,0
-364,141,0,0,0,0,0,0,0,0,0,-1,860,883,0,0
-357,141,0,0,0,0,0,0,0,0,0,-1,867,883,0,0
-350,141,0,0,0,0,0,0,0,0,0,-1,874,883,0,0
-343,141,0,0,0,0,0,0,0,0,0,-1,881,883,0,0
-336,141,0,0,0,0,0,0,0,0,0,-1,888,883,0,0
-329,141,0,0,0,0,0,0,0,0,0,-1,895,883,0,0
-322,141,0,0,0,0,0,0,0,0,0,-1,902,883,0,0
-315,141,0,0,0,0,0,0,0,0,0,-1,909,883,0,0
-308,141,0,0,0,0,0,0,0,0,0,-1,916,883,0,0
-301,141,0,0,0,0,0,0,0,0,0,-1,923,883,0,0
-294,141,0,0,0,0,0,0,0,0,0,-1,930,883,0,0
-287,141,0,0,0,0,0,0,0,0,0,-1,937,883,0,0
-280,141,0,0,0,0,0,0,0,0,0,-1,944,883,0,0
-273,141,0,0,0,0,0,0,0,0,0,-1,951,883,0,0
-266,141,0,0,0,0,0,0,0,0,0,-1,958,883,0,0
-259,141,0,0,0,0,0,0,0,0,0,-1,965,883,0,0
-252,141,0,0,0,0,0,0,0,0,0,-1,972,883,0,0
-245,141,0,0,0,0,0,0,0,0,0,-1,979,883,0,0
-238,141,0,0,0,0,0,0,0,0,0,-1,986,883,0,0
-231,141,0,0,0,0,0,0,0,0,0,-1,993,883,0,0
-224,141,0,0,0,0,0,0,0,0,0,-1,1000,883,0,0
-217,141,0,0,0,0,0,0,0,0,0,-1,1007,883,0,0
-210,141,0,0,0,0,0,0,0,0,0,-1,1014,883,0,0
-203,141,0,0,0,0,0,0,0,0,0,-1,1021,883,0,0
-196,141,0,0,0,0,0,0,0,0,0,-1,1028,883,0,0
-189,141,0,0,0,0,0,0,0,0,0,-1,1035,883,0,0
-182,141,0,0,0,0,0,0,0,0,0,-1,1042,883,0,0
-175,141,0,0,0,0,0,0,0,0,0,-1,1049,883,0,0
-168,141,0,0,0,0,0,0,0,0,0,-1,1056,883,0,0
-161,141,0,0,0,0,0,0,0,0,0,-1,1063,883,0,0
-154,141,0,0,0,0,0,0,0,0,0,-1,1070,883,0,0
-147,141,0,0,0,0,0,0,0,0,0,-1,1077,883,0,0
-140,141,0,0,0,0,0,0,0,0,0,-1,1084,883,0,0
-133,141,0,0,0,0,0,0,0,0,0,-1,1091,883,0,0
-126,141,0,0,0,0,0,0,0,0,0,-1,1098,883,0,0
-119,141,0,0,0,0,0,0,0,0,0,-1,1105,883,0,0
-112,141,0,0,0,0,0,0,0,0,0,-1,1112,883,0,0
-105,141,0,0,0,0,0,0,0,0,0,-1,1119,883,0,0
-98,141,0,0,0,0,0,0,0,0,0,-1,1126,883,0,0
-91,141,0,0,0,0,0,0,0,0,0,-1,1133,883,0,0
-84,141,0,0,0,0,0,0,0,0,0,-1,1140,883,0,0
-77,141,0,0,0,0,0,0,0,0,0,-1,1147,883,0,0
-70,141,0,0,0,0,0,0,0,0,0,-1,1154,883,0,0
-63,141,0,0,0,0,0,0,0,0,0,-1,1161,883,0,0
-56,141,0,0,0,0,0,0,0,0,0,-1,1168,883,0,0
-49,141,0,0,0,0,0,0,0,0,0,-1,1175,883,0,0
-42,141,0,0,0,0,0,0,0,0,0,-1,1182,883,0,0
-35,141,0,0,0,0,0,0,0,0,0,-1,1189,883,0,0
-28,141,0,0,0,0,0,0,0,0,0,-1,1196,883,0,0
-21,141,0,0,0,0,0,0,0,0,0,-1,1203,883,0,0
-14,141,0,0,0,0,0,0,0,0,0,-1,1210,883,0,0
-7,141,0,0,0,0,0,0,0,0,0,-1,1217,883,0,0
0,141,0,0,0,0,0,0,0,0,0,-1,1224,883,0,0
7,141,0,0,0,0,0,0,0,0,0,-1,1231,883,0,0
14,141,0,0,0,0,0,0,0,0,0,-1,1238,883,0,0
21,141,0,0,0,0,0,0,0,0,0,-1,1245,883,0,0
28,141,0,0,0,0,0,0,0,0,0,-1,1252,883,0,0
35,141,0,0,0,0,0,0,0,0,0,-1,1259,883,0,0
42,141,0,0,0,0,0,0,0,0,0,-1,1266,883,0,0
49,141,0,0,0,0,0,0,0,0,0,-1,1273,883,0,0
56,141,0,0,0,0,0,0,0,0,0,-1,1280,883,0,0
63,141,0,0,0,0,0,0,0,0,0,-1,1287,883,0,0
70,141,0,0,0,0,0,0,0,0,0,-1,1294,883,0,0
77,141,0,0,0,0,0,0,0,0,0,-1,1301,883,0,0
84,141,0,0,0,0,0,0,0,0,0,-1,1308,883,0,0
91,141,0,0,0,0,0,0,0,0,0,-1,1315,883,0,0
98,141,0,0,0,0,0,0,0,0,0,-1,1322,883,0,0
105,141,0,0,0,0,0,0,0,0,0,-1,1329,883,0,0
112,141,0,0,0,0,0,0,0,0,0,-1,1336,883,0,0
119,141,0,0,0,0,0,0,0,0,0,-1,1343,883,0,0
126,141,0,0,0,0,0,0,0,0,0,-1,1350,883,0,0
133,141,0,0,0,0,0,0,0,0,0,-1,1357,883,0,0
140,141,0,0,0,0,0,0,0,0,0,-1,1364,883,0,0
147,141,0,0,0,0,0,0,0,0,0,-1,1371,883,0,0
154,141,0,0,0,0,0,0,0,0,0,-1,1378,883,0,0
161,141,0,0,0,0,0,0,0,0,0,-1,1385,883,0,0
168,141,0,0,0,0,0,0,0,0,0,-1,1392,883,0,0
175,141,0,0,0,0,0,0,0,0,0,-1,1399,883,0,0
182,141,0,0,0,0,0,0,0,0,0,-1,1406,883,0,0
189,141,0,0,0,0,0,0,0,0,0,-1,1413,883,0,0
196,141,0,0,0,0,0,0,0,0,0,-1,1420,883,0,0
203,141,0,0,0,0,0,0,0,0,0,-1,1427,883,0,0
210,141,0,0,0,0,0,0,0,0,0,-1,1434,883,0,0
217,141,0,0,0,0,0,0,0,0,0,-1,1441,883,0,0
224,141,0,0,0,0,0,0,0,0,0,-1,1448,883,0,0
231,141,0,0,0,0,0,0,0,0,0,-1,1455,883,0,0
238,141,0,0,0,0,0,0,0,0,0,-1,1462,883,0,0
245,141,0,0,0,0,0,0,0,0,0,-1,1469,883,0,0
252,141,0,0,0,0,0,0,0,0,0,-1,1476,883,0,0
259,141,0,0,0,0,0,0,0,0,0,-1,1483,883,0,0
266,141,0,0,0,0,0,0,0,0,0,-1,1490,883,0,0
273,141,0,0,0,0,0,0,0,0,0,-1,1497,883,0,0
280,141,0,0,0,0,0,0,0,0,0,-1,1504,883,0,0
287,141,0,0,0,0,0,0,0,0,0,-1,1511,883,0,0
294,141,0,0,0,0,0,0,0,0,0,-1,1518,883,0,0
301,141,0,0,0,0,0,0,0,0,0,-1,1525,883,0,0
308,141,0,0,0,0,0,0,0,0,0,-1,1532,883,0,0
315,141,0,0,0,0,0,0,0,0,0,-1,1539,883,0,0
322,141,0,0,0,0,0,0,0,0,0,-1,1546,883,0,0
329,141,0,0,0,0,0,0,0,0,0,-1,1553,883,0,0
336,141,0,0,0,0,0,0,0,0,0,-1,1560,883,0,0
343,141,0,0,0,0,0,0,0,0,0,-1,1567,883,0,0
350,141,0,0,0,0,0,0,0,0,0,-1,1574,883,0,0
357,141,0,0,0,0,0,0,0,0,0,-1,1581,883,0,0
364,141,0,0,0,0,0,0,0,0,0,-1,1588,883,0,0
371,141,0,0,0,0,0,0,0,0,0,-1,1595,883,0,0
378,141,0,0,0,0,0,0,0,0,0,-1,1602,883,0,0
385,141,0,0,0,0,0,0,0,0,0,-1,1609,883,0,0
392,141,0,0,0,0,0,0,0,0,0,-1,1616,883,0,0
399,141,0,0,0,0,0,0,0,0,0,-1,1623,883,0,0
406,141,0,0,0,0,0,0,0,0,0,-1,1630,883,0,0
413,141,0,0,0,0,0,0,0,0,0,-1,1637,883,0,0
420,141,0,0,0,0,0,0,0,0,0,-1,1644,883,0,0
427,141,0,0,0,0,0,0,0,0,0,-1,1651,883,0,0
434,141,0,0,0,0,0,0,0,0,0,-1,1658,883,0,0
441,141,0,0,0,0,0,0,0,0,0,-1,1665,883,0,0
448,141,0,0,0,0,0,0,0,0,0,-1,1672,883,0,0
455,141,0,0,0,0,0,0,0,0,0,-1,1679,883,0,0
462,141,0,0,0,0,0,0,0,0,0,-1,1686,883,0,0
469,141,0,0,0,0,0,0,0,0,0,-1,1693,883,0,0
476,141,0,0,0,0,0,0,0,0,0,-1,1700,883,0,0
483,141,0,0,0,0,0,0,0,0,0,-1,1707,883,0,0
490,141,0,0,0,0,0,0,0,0,0,-1,1714,883,0,0
497,141,0,0,0,0,0,0,0,0,0,-1,1721,883,0,0
504,141,0,0,0,0,0,0,0,0,0,-1,1728,883,0,0
511,141,0,0,0,0,0,0,0,0,0,-1,1735,883,0,0
518,141,0,0,0,0,0,0,0,0,0,-1,1742,883,0,0
525,141,0,0,0,0,0,0,0,0,0,-1,1749,883,0,0
532,141,0,0,0,0,0,0,0,0,0,-1,1756,883,0,0
539,141,0,0,0,0,0,0,0,0,0,-1,1763,883,0,0
546,141,0,0,0,0,0,0,0,0,0,-1,1770,883,0,0
553,141,0,0,0,0,0,0,0,0,0,-1,1777,883,0,0
560,141,0,0,0,0,0,0,0,0,0,-1,1784,883,0,0
567,141,0,0,0,0,0,0,0,0,0,-1,1791,883,0,0
574,141,0,0,0,0,0,0,0,0,0,-1,1798,883,0,0
581,141,0,0,0,0,0,0,0,0,0,-1,1805,883,0,0
588,141,0,0,0,0,0,0,0,0,0,-1,1812,883,0,0
595,141,0,0,0,0,0,0,0,0,0,-1,1819,883,0,0
602,141,0,0,0,0,0,0,0,0,0,-1,1826,883,0,0
609,141,0,0,0,0,0,0,0,0,0,-1,1833,883,0,0
616,141,0,0,0,0,0,0,0,0,0,-1,1840,883,0,0
623,141,54.1484,3.00336,-0.00790863,0.00532142,-0.00160211,0.00551266,-0.00809987,-1.45199,0.00790637,0.043722,1847,883,54.1484,-3.00335
630,141,54.0262,2.95483,-0.00571454,0.00345447,-0.00109052,0.00358239,-0.00584246,-1.45403,0.00549334,0.0478604,1854,883,54.0262,-2.95484
637,141,53.9512,2.90393,-0.00400369,0.0022843,-0.000716986,0.00236502,-0.00408441,-1.45869,0.00376743,0.0449359,1861,883,53.9512,-2.90394
644,141,54.1,2.74408,-0.00287475,0.0013814,-0.000507582,0.00144109,-0.00293444,-1.45373,0.00257479,0.0400553,1868,883,54.1,-2.74409
651,141,54.2944,2.82928,-0.00226962,0.000616205,-0.000498859,0.000700007,-0.00235342,-1.40436,0.00184704,0.0383071,1875,883,54.2944,-2.82927
658,141,54.2673,2.83722,-0.00201758,0.000402569,-0.000469834,0.000490579,-0.00210559,-1.38562,0.00159264,0.0383557,1882,883,54.2673,-2.83724
665,141,54.1359,2.78082,-0.00189768,0.000354759,-0.000636415,0.000522137,-0.00206505,-1.31362,0.00157978,0.0285455,1889,883,54.1359,-2.78082
672,141,54.0923,2.80621,-0.00163165,0.000328263,-0.000723287,0.00056628,-0.00186966,-1.25288,0.00147197,0.0190229,1896,883,54.0923,-2.80619
679,141,54.0313,2.89764,-0.00130472,0.000174628,-0.000813975,0.000534806,-0.0016649,-1.1542,0.00132469,0.0392479,1903,883,54.0312,-2.89762
686,141,53.9623,2.90979,0,0,0,0,0,0,0,-1,1910,883,53.9623,-2.9098
693,141,46.1672,1.86664,0,0,0,0,0,0,0,-1,1917,883,46.1673,-1.86661
700,141,46.7062,2.6759,0,0,0,0,0,0,0,-1,1924,883,46.7062,-2.67591
707,141,46.6831,3.38629,-0.000941659,0.00101491,-0.00109212,0.00150284,-0.00142958,-1.15063,0.00169321,0.0323401,1931,883,46.6831,-3.3863
714,141,46.4381,3.79596,-0.000866408,0.00147547,-0.00115913,0.00195216,-0.0013431,-1.18063,0.00191332,0.0303466,1938,883,46.4382,-3.79598
721,141,46.4164,4.30542,-0.00081422,0.00177884,-0.00121443,0.00225877,-0.00129416,-1.19444,0.00207633,0.0178321,1945,883,46.4164,-4.30544
728,141,46.4989,4.8244,-0.00119423,0.00215102,-0.00117032,0.0025198,-0.00156301,-1.26554,0.00237869,0.0162303,1952,883,46.4989,-4.82441
735,141,46.4813,5.45911,-0.00183708,0.00253473,-0.00109377,0.0027931,-0.00209545,-1.33882,0.00283197,0.0170016,1959,883,46.4814,-5.45913
742,141,46.4133,6.0293,-0.00281257,0.00315648,-0.00098761,0.00331564,-0.00297174,-1.41101,0.00363183,0.0178371,1966,883,46.4133,-6.02932
749,141,46.392,6.52911,-0.00416365,0.00393331,-0.000757717,0.00400361,-0.00423395,-1.47829,0.00475657,0.0153747,1973,883,46.392,-6.5291
756,141,46.3734,7.10925,0,0,0,0,0,0,0,-1,1980,883,46.3735,-7.10925
763,141,45.8949,7.55731,0,0,0,0,0,0,0,-1,1987,883,45.8949,-7.55734
770,141,45.4164,8.00543,0,0,0,0,0,0,0,-1,1994,883,45.4164,-8.00542
777,141,42.8359,8.39563,0,0,0,0,0,0,0,-1,2001,883,42.836,-8.39564
784,141,43.439,10.2161,0,0,0,0,0,0,0,-1,2008,883,43.4389,-10.2161
791,141,42.5815,7.74707,0,0,0,0,0,0,0,-1,2015,883,42.5815,-7.74706
798,141,0,0,0,0,0,0,0,0,0,-1,2022,883,0,0
805,141,0,0,0,0,0,0,0,0,0,-1,2029,883,0,0
812,141,0,0,0,0,0,0,0,0,0,-1,2036,883,0,0
-700,134,0,0,0,0,0,0,0,0,0,-1,524,890,0,0
-693,134,0,0,0,0,0,0,0,0,0,-1,531,890,0,0
-686,134,0,0,0,0,0,0,0,0,0,-1,538,890,0,0
-679,134,0,0,0,0,0,0,0,0,0,-1,545,890,0,0
-672,134,-37.1349,7.24268,0.0836689,0.0676655,-0.0884188,0.164447,-0.0131129,-0.740272,0.114254,0.0476892,552,890,-37.135,-7.24265
-665,134,-36.5696,6.05627,0.0688552,0.053341,-0.0701839,0.131709,-0.00951318,-0.730359,0.0911429,0.0449041,559,890,-36.5696,-6.0563
-658,134,-36.7392,4.95111,0,0,0,0,0,0,0,-1,566,890,-36.7392,-4.95109
-651,134,-37.1125,2.70453,0.0431723,0.0336964,-0.0431687,0.0818622,-0.00499354,-0.730739,0.0563132,0.040798,573,890,-37.1125,-2.70451
-644,134,-37.8325,1.0694,0,0,0,0,0,0,0,-1,580,890,-37.8325,-1.06941
-637,134,-38.2886,-0.658752,0,0,0,0,0,0,0,-1,587,890,-38.2886,0.658751
-630,134,-34.8976,4.76068,0,0,0,0,0,0,0,-1,594,890,-34.8976,-4.7607
-623,134,-34.7098,4.40466,0.00839815,0.0106147,-0.0095783,0.0191486,-0.000135769,-0.842996,0.0128113,0.027567,601,890,-34.7098,-4.40467
-616,134,-34.9191,3.87177,0.00233391,0.00643361,-0.00349057,0.00843172,0.000335801,-1.05089,0.00551262,0.0129474,608,890,-34.9191,-3.87175
-609,134,-35.0115,3.33905,-0.000948625,0.00319602,0.00029016,0.00321624,-0.00096884,1.50124,0.00252972,0.0122256,615,890,-35.0115,-3.33904
-602,134,-35.0054,2.79767,-0.0018627,0.00215885,0.00158393,0.00270777,-0.00241162,1.23719,0.00295733,0.0131339,622,890,-35.0054,-2.79768
-595,134,-34.9376,2.30945,-0.00137624,0.0012202,0.00210051,0.00239129,-0.00254733,1.06219,0.00285179,0.0221115,629,890,-34.9376,-2.30944
-588,134,-34.929,1.82031,0,0,0,0,0,0,0,-1,636,890,-34.929,-1.82031
-581,134,-35.542,1.37335,0,0,0,0,0,0,0,-1,643,890,-35.542,-1.37338
-574,134,-31.1517,0.757751,0,0,0,0,0,0,0,-1,650,890,-31.1517,-0.757758
-567,134,-30.9003,0.296326,0,0,0,0,0,0,0,-1,657,890,-30.9002,-0.296302
-560,134,-22.9123,0.106567,0,0,0,0,0,0,0,-1,664,890,-22.9123,-0.106594
-553,134,-40.8998,0.840393,0,0,0,0,0,0,0,-1,671,890,-40.8998,-0.840384
-546,134,-40.9222,0.862183,-8.92579e-05,0.000270248,0.00295521,0.00305117,-0.00287018,0.815774,0.00341922,0.035151,678,890,-40.9222,-0.862207
-539,134,-40.9197,0.874146,-0.000311867,0.000513185,0.00303459,0.00316316,-0.00296185,0.852955,0.00353691,0.0204647,685,890,-40.9197,-0.874175
-532,134,-40.92,0.936279,-0.000404247,0.000731556,0.003,0.00321694,-0.00288963,0.878941,0.00352732,0.0244473,692,890,-40.92,-0.936303
-525,134,-40.9647,0.984192,-0.000655118,0.000899433,0.0029309,0.00315437,-0.00291006,0.915015,0.00350225,0.0358175,699,890,-40.9647,-0.984194
-518,134,-40.949,1.05115,-0.000881106,0.000977286,0.00274704,0.00294802,-0.00285185,0.948484,0.00334871,0.0431594,706,890,-40.949,-1.05112
-511,134,-40.8648,1.18085,-6.58904e-05,0.00106136,0.00244855,0.00301032,-0.00201485,0.898521,0.00292019,0.0439196,713,890,-40.8648,-1.18084
-504,134,0,0,0,0,0,0,0,0,0,-1,720,890,0,0
-497,134,0,0,0,0,0,0,0,0,0,-1,727,890,0,0
-490,134,0,0,0,0,0,0,0,0,0,-1,734,890,0,0
-483,134,0,0,0,0,0,0,0,0,0,-1,741,890,0,0
-476,134,0,0,0,0,0,0,0,0,0,-1,748,890,0,0
-469,134,0,0,0,0,0,0,0,0,0,-1,755,890,0,0
-462,134,0,0,0,0,0,0,0,0,0,-1,762,890,0,0
-455,134,0,0,0,0,0,0,0,0,0,-1,769,890,0,0
-448,134,0,0,0,0,0,0,0,0,0,-1,776,890,0,0
-441,134,0,0,0,0,0,0,0,0,0,-1,783,890,0,0
-434,134,0,0,0,0,0,0,0,0,0,-1,790,890,0,0
-427,134,0,0,0,0,0,0,0,0,0,-1,797,890,0,0
-420,134,0,0,0,0,0,0,0,0,0,-1,804,890,0,0
-413,134,0,0,0,0,0,0,0,0,0,-1,811,890,0,0
-406,134,0,0,0,0,0,0,0,0,0,-1,818,890,0,0
-399,134,0,0,0,0,0,0,0,0,0,-1,825,890,0,0
-392,134,0,0,0,0,0,0,0,0,0,-1,832,890,0,0
-385,134,0,0,0,0,0,0,0,0,0,-1,839,890,0,0
-378,134,0,0,0,0,0,0,0,0,0,-1,846,890,0,0
-371,134,0,0,0,0,0,0,0,0,0,-1,853,890,0,0
-364,134,0,0,0,0,0,0,0,0,0,-1,860,890,0,0
-357,134,0,0,0,0,0,0,0,0,0,-1,867,890,0,0
-350,134,0,0,0,0,0,0,0,0,0,-1,874,890,0,0
-343,134,0,0,0,0,0,0,0,0,0,-1,881,890,0,0
-336,134,0,0,0,0,0,0,0,0,0,-1,888,890,0,0
-329,134,0,0,0,0,0,0,0,0,0,-1,895,890,0,0
-322,134,0,0,0,0,0,0,0,0,0,-1,902,890,0,0
-315,134,0,0,0,0,0,0,0,0,0,-1,909,890,0,0
-308,134,0,0,0,0,0,0,0,0,0,-1,916,890,0,0
-301,134,0,0,0,0,0,0,0,0,0,-1,923,890,0,0
-294,134,0,0,0,0,0,0,0,0,0,-1,930,890,0,0
-287,134,0,0,0,0,0,0,0,0,0,-1,937,890,0,0
-280,134,0,0,0,0,0,0,0,0,0,-1,944,890,0,0
-273,134,0,0,0,0,0,0,0,0,0,-1,951,890,0,0
-266,134,0,0,0,0,0,0,0,0,0,-1,958,890,0,0
-259,134,0,0,0,0,0,0,0,0,0,-1,965,890,0,0
-252,134,0,0,0,0,0,0,0,0,0,-1,972,890,0,0
-245,134,0,0,0,0,0,0,0,0,0,-1,979,890,0,0
-238,134,0,0,0,0,0,0,0,0,0,-1,986,890,0,0
-231,134,0,0,0,0,0,0,0,0,0,-1,993,890,0,0
-224,134,0,0,0,0,0,0,0,0,0,-1,1000,890,0,0
-217,134,0,0,0,0,0,0,0,0,0,-1,1007,890,0,0
-210,134,0,0,0,0,0,0,0,0,0,-1,1014,890,0,0
-203,134,0,0,0,0,0,0,0,0,0,-1,1021,890,0,0
-196,134,0,0,0,0,0,0,0,0,0,-1,1028,890,0,0
-189,134,0,0,0,0,0,0,0,0,0,-1,1035,890,0,0
-182,134,0,0,0,0,0,0,0,0,0,-1,1042,890,0,0
-175,134,0,0,0,0,0,0,0,0,0,-1,1049,890,0,0
-168,134,0,0,0,0,0,0,0,0,0,-1,1056,890,0,0
-161,134,0,0,0,0,0,0,0,0,0,-1,1063,890,0,0
-154,134,0,0,0,0,0,0,0,0,0,-1,1070,890,0,0
-147,134,0,0,0,0,0,0,0,0,0,-1,1077,890,0,0
-140,134,0,0,0,0,0,0,0,0,0,-1,1084,890,0,0
-133,134,0,0,0,0,0,0,0,0,0,-1,1091,890,0,0
-126,134,0,0,0,0,0,0,0,0,0,-1,1098,890,0,0
-119,134,0,0,0,0,0,0,0,0,0,-1,1105,890,0,0
-112,134,0,0,0,0,0,0,0,0,0,-1,1112,890,0,0
-105,134,0,0,0,0,0,0,0,0,0,-1,1119,890,0,0
-98,134,0,0,0,0,0,0,0,0,0,-1,1126,890,0,0
-91,134,0,0,0,0,0,0,0,0,0,-1,1133,890,0,0
-84,134,0,0,0,0,0,0,0,0,0,-1,1140,890,0,0
-77,134,0,0,0,0,0,0,0,0,0,-1,1147,890,0,0
-70,134,0,0,0,0,0,0,0,0,0,-1,1154,890,0,0
-63,134,0,0,0,0,0,0,0,0,0,-1,1161,890,0,0
-56,134,0,0,0,0,0,0,0,0,0,-1,1168,890,0,0
-49,134,0,0,0,0,0,0,0,0,0,-1,1175,890,0,0
-42,134,0,0,0,0,0,0,0,0,0,-1,1182,890,0,0
-35,134,0,0,0,0,0,0,0,0,0,-1,1189,890,0,0
-28,134,0,0,0,0,0,0,0,0,0,-1,1196,890,0,0
-21,134,0,0,0,0,0,0,0,0,0,-1,1203,890,0,0
-14,134,0,0,0,0,0,0,0,0,0,-1,1210,890,0,0
-7,134,0,0,0,0,0,0,0,0,0,-1,1217,890,0,0
0,134,0,0,0,0,0,0,0,0,0,-1,1224,890,0,0
7,134,0,0,0,0,0,0,0,0,0,-1,1231,890,0,0
14,134,0,0,0,0,0,0,0,0,0,-1,1238,890,0,0
21,134,0,0,0,0,0,0,0,0,0,-1,1245,890,0,0
28,134,0,0,0,0,0,0,0,0,0,-1,1252,890,0,0
35,134,0,0,0,0,0,0,0,0,0,-1,1259,890,0,0
42,134,0,0,0,0,0,0,0,0,0,-1,1266,890,0,0
49,134,0,0,0,0,0,0,0,0,0,-1,1273,890,0,0
56,134,0,0,0,0,0,0,0,0,0,-1,1280,890,0,0
63,134,0,0,0,0,0,0,0,0,0,-1,1287,890,0,0
70,134,0,0,0,0,0,0,0,0,0,-1,1294,890,0,0
77,134,0,0,0,0,0,0,0,0,0,-1,1301,890,0,0
84,134,0,0,0,0,0,0,0,0,0,-1,1308,890,0,0
91,134,0,0,0,0,0,0,0,0,0,-1,1315,890,0,0
98,134,0,0,0,0,0,0,0,0,0,-1,1322,890,0,0
105,134,0,0,0,0,0,0,0,0,0,-1,1329,890,0,0
112,134,0,0,0,0,0,0,0,0,0,-1,1336,890,0,0
119,134,0,0,0,0,0,0,0,0,0,-1,1343,890,0,0
126,134,0,0,0,0,0,0,0,0,0,-1,1350,890,0,0
133,134,0,0,0,0,0,0,0,0,0,-1,1357,890,0,0
140,134,0,0,0,0,0,0,0,0,0,-1,1364,890,0,0
147,134,0,0,0,0,0,0,0,0,0,-1,1371,890,0,0
154,134,0,0,0,0,0,0,0,0,0,-1,1378,890,0,0
161,134,0,0,0,0,0,0,0,0,0,-1,1385,890,0,0
168,134,0,0,0,0,0,0,0,0,0,-1,1392,890,0,0
175,134,0,0,0,0,0,0,0,0,0,-1,1399,890,0,0
182,134,0,0,0,0,0,0,0,0,0,-1,1406,890,0,0
189,134,0,0,0,0,0,0,0,0,0,-1,1413,890,0,0
196,134,0,0,0,0,0,0,0,0,0,-1,1420,890,0,0
203,134,0,0,0,0,0,0,0,0,0,-1,1427,890,0,0
210,134,0,0,0,0,0,0,0,0,0,-1,1434,890,0,0
217,134,0,0,0,0,0,0,0,0,0,-1,1441,890,0,0
224,134,0,0,0,0,0,0,0,0,0,-1,1448,890,0,0
231,134,0,0,0,0,0,0,0,0,0,-1,1455,890,0,0
238,134,0,0,0,0,0,0,0,0,0,-1,1462,890,0,0
245,134,0,0,0,0,0,0,0,0,0,-1,1469,890,0,0
252,134,0,0,0,0,0,0,0,0,0,-1,1476,890,0,0
259,134,0,0,0,0,0,0,0,0,0,-1,1483,890,0,0
266,134,0,0,0,0,0,0,0,0,0,-1,1490,890,0,0
273,134,0,0,0,0,0,0,0,0,0,-1,1497,890,0,0
280,134,0,0,0,0,0,0,0,0,0,-1,1504,890,0,0
287,134,0,0,0,0,0,0,0,0,0,-1,1511,890,0,0
294,134,0,0,0,0,0,0,0,0,0,-1,1518,890,0,0
301,134,0,0,0,0,0,0,0,0,0,-1,1525,890,0,0
308,134,0,0,0,0,0,0,0,0,0,-1,1532,890,0,0
315,134,0,0,0,0,0,0,0,0,0,-1,1539,890,0,0
322,134,0,0,0,0,0,0,0,0,0,-1,1546,890,0,0
329,134,0,0,0,0,0,0,0,0,0,-1,1553,890,0,0
336,134,0,0,0,0,0,0,0,0,0,-1,1560,890,0,0
343,134,0,0,0,0,0,0,0,0,0,-1,1567,890,0,0
350,134,0,0,0,0,0,0,0,0,0,-1,1574,890,0,0
357,134,0,0,0,0,0,0,0,0,0,-1,1581,890,0,0
364,134,0,0,0,0,0,0,0,0,0,-1,1588,890,0,0
371,134,0,0,0,0,0,0,0,0,0,-1,1595,890,0,0
378,134,0,0,0,0,0,0,0,0,0,-1,1602,890,0,0
385,134,0,0,0,0,0,0,0,0,0,-1,1609,890,0,0
392,134,0,0,0,0,0,0,0,0,0,-1,1616,890,0,0
399,134,0,0,0,0,0,0,0,0,0,-1,1623,890,0,0
406,134,0,0,0,0,0,0,0,0,0,-1,1630,890,0,0
413,134,0,0,0,0,0,0,0,0,0,-1,1637,890,0,0
420,134,0,0,0,0,0,0,0,0,0,-1,1644,890,0,0
427,134,0,0,0,0,0,0,0,0,0,-1,1651,890,0,0
434,134,0,0,0,0,0,0,0,0,0,-1,1658,890,0,0
441,134,0,0,0,0,0,0,0,0,0,-1,1665,890,0,0
448,134,0,0,0,0,0,0,0,0,0,-1,1672,890,0,0
455,134,0,0,0,0,0,0,0,0,0,-1,1679,890,0,0
462,134,0,0,0,0,0,0,0,0,0,-1,1686,890,0,0
469,134,0,0,0,0,0,0,0,0,0,-1,1693,890,0,0
476,134,0,0,0,0,0,0,0,0,0,-1,1700,890,0,0
483,134,0,0,0,0,0,0,0,0,0,-1,1707,890,0,0
490,134,0,0,0,0,0,0,0,0,0,-1,1714,890,0,0
497,134,0,0,0,0,0,0,0,0,0,-1,1721,890,0,0
504,134,0,0,0,0,0,0,0,0,0,-1,1728,890,0,0
511,134,0,0,0,0,0,0,0,0,0,-1,1735,890,0,0
518,134,0,0,0,0,0,0,0,0,0,-1,1742,890,0,0
525,134,0,0,0,0,0,0,0,0,0,-1,1749,890,0,0
532,134,0,0,0,0,0,0,0,0,0,-1,1756,890,0,0
539,134,0,0,0,0,0,0,0,0,0,-1,1763,890,0,0
546,134,0,0,0,0,0,0,0,0,0,-1,1770,890,0,0
553,134,0,0,0,0,0,0,0,0,0,-1,1777,890,0,0
560,134,0,0,0,0,0,0,0,0,0,-1,1784,890,0,0
567,134,0,0,0,0,0,0,0,0,0,-1,1791,890,0,0
574,134,0,0,0,0,0,0,0,0,0,-1,1798,890,0,0
581,134,0,0,0,0,0,0,0,0,0,-1,1805,890,0,0
588,134,0,0,0,0,0,0,0,0,0,-1,1812,890,0,0
595,134,0,0,0,0,0,0,0,0,0,-1,1819,890,0,0
602,134,0,0,0,0,0,0,0,0,0,-1,1826,890,0,0
609,134,0,0,0,0,0,0,0,0,0,-1,1833,890,0,0
616,134,0,0,0,0,0,0,0,0,0,-1,1840,890,0,0
623,134,54.2389,2.95654,-0.00947054,0.00468951,-0.00197718,0.00496041,-0.00974144,-1.43463,0.00863643,0.0462039,1847,890,54.2389,-2.95656
630,134,54.1238,2.78235,-0.00684614,0.00308802,-0.00127679,0.0032495,-0.00700761,-1.44499,0.00605299,0.0457547,1854,890,54.1238,-2.78237
637,134,54.0079,2.78412,-0.00480854,0.00212438,-0.00086848,0.00223152,-0.00491568,-1.44805,0.00422232,0.0441003,1861,890,54.008,-2.7841
644,134,54.1539,2.89337,-0.00337055,0.00138425,-0.000605716,0.0014602,-0.0034465,-1.44606,0.00290923,0.0399576,1868,890,54.1539,-2.8934
651,134,54.2482,2.9621,-0.00244023,0.000773044,-0.000502048,0.000849658,-0.00251684,-1.41936,0.00202154,0.0421456,1875,890,54.2482,-2.96207
658,134,54.2413,2.87219,-0.00190004,0.000686555,-0.000372108,0.000739022,-0.0019525,-1.43072,0.00160574,0.0418765,1882,890,54.2414,-2.87218
665,134,54.1842,2.70483,-0.00156645,0.000731475,-0.000433731,0.000810616,-0.00164559,-1.39032,0.00144515,0.0338534,1889,890,54.1842,-2.70481
672,134,54.1487,2.74384,-0.00122581,0.000747209,-0.000444257,0.000842626,-0.00132123,-1.35923,0.00125945,0.0212679,1896,890,54.1487,-2.74382
679,134,54.1306,2.76849,-0.000885412,0.000649286,-0.000480072,0.000787085,-0.00102321,-1.29127,0.00104813,0.019932,1903,890,54.1306,-2.76849
686,134,54.0939,2.80304,0,0,0,0,0,0,0,-1,1910,890,54.0939,-2.80305
693,134,34.5778,2.48096,0,0,0,0,0,0,0,-1,1917,890,34.5777,-2.48099
700,134,46.9315,2.45331,0,0,0,0,0,0,0,-1,1924,890,46.9315,-2.45331
707,134,46.8339,2.93402,-0.000514668,0.0014521,-0.000798105,0.00173521,-0.000797782,-1.22991,0.00149544,0.0255907,1931,890,46.8338,-2.93403
714,134,46.8784,3.58881,-0.000559091,0.00184775,-0.000878075,0.00213404,-0.00084538,-1.25562,0.00177299,0.025555,1938,890,46.8784,-3.58879
721,134,47.0388,4.23914,-0.00066061,0.00208979,-0.000967199,0.00239585,-0.000966674,-1.26432,0.00199895,0.0220464,1945,890,47.0388,-4.23914
728,134,47.1008,4.81226,-0.00119962,0.00239716,-0.000986929,0.00265016,-0.00145263,-1.31984,0.00240215,0.0190672,1952,890,47.1008,-4.81224
735,134,47.075,5.46899,-0.00194872,0.00280081,-0.00103513,0.00301661,-0.00216452,-1.36527,0.00300478,0.023923,1959,890,47.075,-5.46902
742,134,47.0105,6.03687,-0.00302067,0.00353577,-0.00106958,0.00370584,-0.00319074,-1.41311,0.00398545,0.0167486,1966,890,47.0105,-6.03687
749,134,47.0059,6.54175,-0.0043997,0.00453257,-0.000917243,0.00462579,-0.00449292,-1.46952,0.00526487,0.0133792,1973,890,47.0058,-6.54172
756,134,46.9935,7.05408,-0.00598551,0.00576728,-0.000595692,0.00579739,-0.00601562,-1.52028,0.00682064,0.0171755,1980,890,46.9935,-7.05407
763,134,46.7979,7.63129,-0.00770079,0.00780069,0.000214485,0.00780366,-0.00770376,1.55696,0.00895327,0.0375422,1987,890,46.7978,-7.63129
770,134,46.6007,8.2005,0,0,0,0,0,0,0,-1,1994,890,46.6007,-8.20051
777,134,43.6969,5.94574,0,0,0,0,0,0,0,-1,2001,890,43.697,-5.94577
784,134,42.3352,7.4964,0,0,0,0,0,0,0,-1,2008,890,42.3352,-7.49641
791,134,42.2061,9.63593,0,0,0,0,0,0,0,-1,2015,890,42.2061,-9.63591
798,134,0,0,0,0,0,0,0,0,0,-1,2022,890,0,0
805,134,0,0,0,0,0,0,0,0,0,-1,2029,890,0,0
812,134,0,0,0,0,0,0,0,0,0,-1,2036,890,0,0
-700,127,0,0,0,0,0,0,0,0,0,-1,524,897,0,0
-693,127,0,0,0,0,0,0,0,0,0,-1,531,897,0,0
-686,127,0,0,0,0,0,0,0,0,0,-1,538,897,0,0
-679,127,-36.8239,8.63116,0,0,0,0,0,0,0,-1,545,897,-36.8239,-8.63116
-672,127,-37.3853,6.80005,0.0729536,0.0716321,-0.0912318,0.163527,-0.0189413,-0.781777,0.115849,0.0469716,552,897,-37.3853,-6.80007
-665,127,-36.693,5.54901,0.0596981,0.0559297,-0.0710049,0.128844,-0.013216,-0.772133,0.090623,0.0492103,559,897,-36.693,-5.54899
-658,127,-37.2131,3.97449,0,0,0,0,0,0,0,-1,566,897,-37.2131,-3.97446
-651,127,-37.9974,2.57092,0,0,0,0,0,0,0,-1,573,897,-37.9974,-2.57093
-644,127,-38.7797,1.09039,0,0,0,0,0,0,0,-1,580,897,-38.7797,-1.09042
-637,127,-34.9905,3.62244,0,0,0,0,0,0,0,-1,587,897,-34.9905,-3.62242
-630,127,-35.3899,4.7077,0,0,0,0,0,0,0,-1,594,897,-35.3899,-4.70769
-623,127,-35.429,4.29626,0.00543782,0.010223,-0.00812733,0.0163026,-0.000641765,-0.928549,0.0110885,0.0174121,601,897,-35.429,-4.29628
-616,127,-35.4951,3.8515,0.000216853,0.00595561,-0.00232203,0.00677746,-0.000604992,-1.23062,0.00473288,0.0108075,608,897,-35.4951,-3.85152
-609,127,-35.5567,3.33313,-0.00237616,0.00273118,0.00101525,0.00292559,-0.00257057,1.38159,0.00317542,0.0144324,615,897,-35.5567,-3.33311
-602,127,-35.5658,2.83289,-0.00298001,0.00165309,0.00182548,0.00228591,-0.00361284,1.2371,0.00343424,0.0163869,622,897,-35.5658,-2.83286
-595,127,-35.5032,2.36603,-0.00261122,0.000775577,0.00205002,0.00174116,-0.0035768,1.13061,0.0031307,0.028288,629,897,-35.5032,-2.36602
-588,127,-35.5648,1.7829,-0.00211136,0.000300621,0.00212155,0.001535,-0.00334574,1.04385,0.00288181,0.0362877,636,897,-35.5648,-1.78287
-581,127,-35.257,1.25146,0,0,0,0,0,0,0,-1,643,897,-35.257,-1.25143
-574,127,-25.2603,0.511169,0,0,0,0,0,0,0,-1,650,897,-25.2603,-0.51117
-567,127,-24.5417,-0.0447388,0,0,0,0,0,0,0,-1,657,897,-24.5417,0.0447226
-560,127,-18.9678,1.21667,0,0,0,0,0,0,0,-1,664,897,-18.9677,-1.2167
-553,127,-40.9092,0.880249,0,0,0,0,0,0,0,-1,671,897,-40.9093,-0.880241
-546,127,-40.9226,0.902039,-0.00123414,7.78177e-05,0.00238236,0.00189286,-0.00304919,0.919743,0.00287921,0.0238547,678,897,-40.9226,-0.902032
-539,127,-40.9035,0.925171,-0.00134859,0.000368553,0.00244651,0.00210277,-0.00308281,0.954153,0.00301167,0.0204617,685,897,-40.9035,-0.925147
-532,127,-40.8586,0.92804,-0.00123138,0.000674998,0.00243701,0.0023386,-0.00289498,0.971816,0.0030273,0.0172789,692,897,-40.8586,-0.928048
-525,127,-41.0334,0.876404,-0.00116101,0.000913011,0.0024242,0.00251269,-0.00276068,0.987507,0.0030457,0.0329579,699,897,-41.0334,-0.876389
-518,127,-41.0735,0.880859,-0.00115181,0.000966299,0.00221309,0.00236069,-0.00254619,1.00856,0.00283366,0.041561,706,897,-41.0735,-0.880878
-511,127,-40.9109,0.961609,-0.000424236,0.00100613,0.00192086,0.00234062,-0.00175873,0.96361,0.0023747,0.0441135,713,897,-40.911,-0.961633
-504,127,0,0,0,0,0,0,0,0,0,-1,720,897,0,0
-497,127,0,0,0,0,0,0,0,0,0,-1,727,897,0,0
-490,127,0,0,0,0,0,0,0,0,0,-1,734,897,0,0
-483,127,0,0,0,0,0,0,0,0,0,-1,741,897,0,0
-476,127,0,0,0,0,0,0,0,0,0,-1,748,897,0,0
-469,127,0,0,0,0,0,0,0,0,0,-1,755,897,0,0
-462,127,0,0,0,0,0,0,0,0,0,-1,762,897,0,0
-455,127,0,0,0,0,0,0,0,0,0,-1,769,897,0,0
-448,127,0,0,0,0,0,0,0,0,0,-1,776,897,0,0
-441,127,0,0,0,0,0,0,0,0,0,-1,783,897,0,0
-434,127,0,0,0,0,0,0,0,0,0,-1,790,897,0,0
-427,127,0,0,0,0,0,0,0,0,0,-1,797,897,0,0
-420,127,0,0,0,0,0,0,0,0,0,-1,804,897,0,0
-413,127,0,0,0,0,0,0,0,0,0,-1,811,897,0,0
-406,127,0,0,0,0,0,0,0,0,0,-1,818,897,0,0
-399,127,0,0,0,0,0,0,0,0,0,-1,825,897,0,0
-392,127,0,0,0,0,0,0,0,0,0,-1,832,897,0,0
-385,127,0,0,0,0,0,0,0,0,0,-1,839,897,0,0
-378,127,0,0,0,0,0,0,0,0,0,-1,846,897,0,0
-371,127,0,0,0,0,0,0,0,0,0,-1,853,897,0,0
-364,127,0,0,0,0,0,0,0,0,0,-1,860,897,0,0
-357,127,0,0,0,0,0,0,0,0,0,-1,867,897,0,0
-350,127,0,0,0,0,0,0,0,0,0,-1,874,897,0,0
-343,127,0,0,0,0,0,0,0,0,0,-1,881,897,0,0
-336,127,0,0,0,0,0,0,0,0,0,-1,888,897,0,0
-329,127,0,0,0,0,0,0,0,0,0,-1,895,897,0,0
-322,127,0,0,0,0,0,0,0,0,0,-1,902,897,0,0
-315,127,0,0,0,0,0,0,0,0,0,-1,909,897,0,0
-308,127,0,0,0,0,0,0,0,0,0,-1,916,897,0,0
-301,127,0,0,0,0,0,0,0,0,0,-1,923,897,0,0
-294,127,0,0,0,0,0,0,0,0,0,-1,930,897,0,0
-287,127,0,0,0,0,0,0,0,0,0,-1,937,897,0,0
-280,127,0,0,0,0,0,0,0,0,0,-1,944,897,0,0
-273,127,0,0,0,0,0,0,0,0,0,-1,951,897,0,0
-266,127,0,0,0,0,0,0,0,0,0,-1,958,897,0,0
-259,127,0,0,0,0,0,0,0,0,0,-1,965,897,0,0
-252,127,0,0,0,0,0,0,0,0,0,-1,972,897,0,0
-245,127,0,0,0,0,0,0,0,0,0,-1,979,897,0,0
-238,127,0,0,0,0,0,0,0,0,0,-1,986,897,0,0
-231,127,0,0,0,0,0,0,0,0,0,-1,993,897,0,0
-224,127,0,0,0,0,0,0,0,0,0,-1,1000,897,0,0
-217,127,0,0,0,0,0,0,0,0,0,-1,1007,897,0,0
-210,127,0,0,0,0,0,0,0,0,0,-1,1014,897,0,0
-203,127,0,0,0,0,0,0,0,0,0,-1,1021,897,0,0
-196,127,0,0,0,0,0,0,0,0,0,-1,1028,897,0,0
-189,127,0,0,0,0,0,0,0,0,0,-1,1035,897,0,0
-182,127,0,0,0,0,0,0,0,0,0,-1,1042,897,0,0
-175,127,0,0,0,0,0,0,0,0,0,-1,1049,897,0,0
-168,127,0,0,0,0,0,0,0,0,0,-1,1056,897,0,0
-161,127,0,0,0,0,0,0,0,0,0,-1,1063,897,0,0
-154,127,0,0,0,0,0,0,0,0,0,-1,1070,897,0,0
-147,127,0,0,0,0,0,0,0,0,0,-1,1077,897,0,0
-140,127,0,0,0,0,0,0,0,0,0,-1,1084,897,0,0
-133,127,0,0,0,0,0,0,0,0,0,-1,1091,897,0,0
-126,127,0,0,0,0,0,0,0,0,0,-1,1098,897,0,0
-119,127,0,0,0,0,0,0,0,0,0,-1,1105,897,0,0
-112,127,0,0,0,0,0,0,0,0,0,-1,1112,897,0,0
-105,127,0,0,0,0,0,0,0,0,0,-1,1119,897,0,0
-98,127,0,0,0,0,0,0,0,0,0,-1,1126,897,0,0
-91,127,0,0,0,0,0,0,0,0,0,-1,1133,897,0,0
-84,127,0,0,0,0,0,0,0,0,0,-1,1140,897,0,0
-77,127,0,0,0,0,0,0,0,0,0,-1,1147,897,0,0
-70,127,0,0,0,0,0,0,0,0,0,-1,1154,897,0,0
-63,127,0,0,0,0,0,0,0,0,0,-1,1161,897,0,0
-56,127,0,0,0,0,0,0,0,0,0,-1,1168,897,0,0
-49,127,0,0,0,0,0,0,0,0,0,-1,1175,897,0,0
-42,127,0,0,0,0,0,0,0,0,0,-1,1182,897,0,0
-35,127,0,0,0,0,0,0,0,0,0,-1,1189,897,0,0
-28,127,0,0,0,0,0,0,0,0,0,-1,1196,897,0,0
-21,127,0,0,0,0,0,0,0,0,0,-1,1203,897,0,0
-14,127,0,0,0,0,0,0,0,0,0,-1,1210,897,0,0
-7,127,0,0,0,0,0,0,0,0,0,-1,1217,897,0,0
0,127,0,0,0,0,0,0,0,0,0,-1,1224,897,0,0
7,127,0,0,0,0,0,0,0,0,0,-1,1231,897,0,0
14,127,0,0,0,0,0,0,0,0,0,-1,1238,897,0,0
21,127,0,0,0,0,0,0,0,0,0,-1,1245,897,0,0
28,127,0,0,0,0,0,0,0,0,0,-1,1252,897,0,0
35,127,0,0,0,0,0,0,0,0,0,-1,1259,897,0,0
42,127,0,0,0,0,0,0,0,0,0,-1,1266,897,0,0
49,127,0,0,0,0,0,0,0,0,0,-1,1273,897,0,0
56,127,0,0,0,0,0,0,0,0,0,-1,1280,897,0,0
63,127,0,0,0,0,0,0,0,0,0,-1,1287,897,0,0
70,127,0,0,0,0,0,0,0,0,0,-1,1294,897,0,0
77,127,0,0,0,0,0,0,0,0,0,-1,1301,897,0,0
84,127,0,0,0,0,0,0,0,0,0,-1,1308,897,0,0
91,127,0,0,0,0,0,0,0,0,0,-1,1315,897,0,0
98,127,0,0,0,0,0,0,0,0,0,-1,1322,897,0,0
105,127,0,0,0,0,0,0,0,0,0,-1,1329,897,0,0
112,127,0,0,0,0,0,0,0,0,0,-1,1336,897,0,0
119,127,0,0,0,0,0,0,0,0,0,-1,1343,897,0,0
126,127,0,0,0,0,0,0,0,0,0,-1,1350,897,0,0
133,127,0,0,0,0,0,0,0,0,0,-1,1357,897,0,0
140,127,0,0,0,0,0,0,0,0,0,-1,1364,897,0,0
147,127,0,0,0,0,0,0,0,0,0,-1,1371,897,0,0
154,127,0,0,0,0,0,0,0,0,0,-1,1378,897,0,0
161,127,0,0,0,0,0,0,0,0,0,-1,1385,897,0,0
168,127,0,0,0,0,0,0,0,0,0,-1,1392,897,0,0
175,127,0,0,0,0,0,0,0,0,0,-1,1399,897,0,0
182,127,0,0,0,0,0,0,0,0,0,-1,1406,897,0,0
189,127,0,0,0,0,0,0,0,0,0,-1,1413,897,0,0
196,127,0,0,0,0,0,0,0,0,0,-1,1420,897,0,0
203,127,0,0,0,0,0,0,0,0,0,-1,1427,897,0,0
210,127,0,0,0,0,0,0,0,0,0,-1,1434,897,0,0
217,127,0,0,0,0,0,0,0,0,0,-1,1441,897,0,0
224,127,0,0,0,0,0,0,0,0,0,-1,1448,897,0,0
231,127,0,0,0,0,0,0,0,0,0,-1,1455,897,0,0
238,127,0,0,0,0,0,0,0,0,0,-1,1462,897,0,0
245,127,0,0,0,0,0,0,0,0,0,-1,1469,897,0,0
252,127,0,0,0,0,0,0,0,0,0,-1,1476,897,0,0
259,127,0,0,0,0,0,0,0,0,0,-1,1483,897,0,0
266,127,0,0,0,0,0,0,0,0,0,-1,1490,897,0,0
273,127,0,0,0,0,0,0,0,0,0,-1,1497,897,0,0
280,127,0,0,0,0,0,0,0,0,0,-1,1504,897,0,0
287,127,0,0,0,0,0,0,0,0,0,-1,1511,897,0,0
294,127,0,0,0,0,0,0,0,0,0,-1,1518,897,0,0
301,127,0,0,0,0,0,0,0,0,0,-1,1525,897,0,0
308,127,0,0,0,0,0,0,0,0,0,-1,1532,897,0,0
315,127,0,0,0,0,0,0,0,0,0,-1,1539,897,0,0
322,127,0,0,0,0,0,0,0,0,0,-1,1546,897,0,0
329,127,0,0,0,0,0,0,0,0,0,-1,1553,897,0,0
336,127,0,0,0,0,0,0,0,0,0,-1,1560,897,0,0
343,127,0,0,0,0,0,0,0,0,0,-1,1567,897,0,0
350,127,0,0,0,0,0,0,0,0,0,-1,1574,897,0,0
357,127,0,0,0,0,0,0,0,0,0,-1,1581,897,0,0
364,127,0,0,0,0,0,0,0,0,0,-1,1588,897,0,0
371,127,0,0,0,0,0,0,0,0,0,-1,1595,897,0,0
378,127,0,0,0,0,0,0,0,0,0,-1,1602,897,0,0
385,127,0,0,0,0,0,0,0,0,0,-1,1609,897,0,0
392,127,0,0,0,0,0,0,0,0,0,-1,1616,897,0,0
399,127,0,0,0,0,0,0,0,0,0,-1,1623,897,0,0
406,127,0,0,0,0,0,0,0,0,0,-1,1630,897,0,0
413,127,0,0,0,0,0,0,0,0,0,-1,1637,897,0,0
420,127,0,0,0,0,0,0,0,0,0,-1,1644,897,0,0
427,127,0,0,0,0,0,0,0,0,0,-1,1651,897,0,0
434,127,0,0,0,0,0,0,0,0,0,-1,1658,897,0,0
441,127,0,0,0,0,0,0,0,0,0,-1,1665,897,0,0
448,127,0,0,0,0,0,0,0,0,0,-1,1672,897,0,0
455,127,0,0,0,0,0,0,0,0,0,-1,1679,897,0,0
462,127,0,0,0,0,0,0,0,0,0,-1,1686,897,0,0
469,127,0,0,0,0,0,0,0,0,0,-1,1693,897,0,0
476,127,0,0,0,0,0,0,0,0,0,-1,1700,897,0,0
483,127,0,0,0,0,0,0,0,0,0,-1,1707,897,0,0
490,127,0,0,0,0,0,0,0,0,0,-1,1714,897,0,0
497,127,0,0,0,0,0,0,0,0,0,-1,1721,897,0,0
504,127,0,0,0,0,0,0,0,0,0,-1,1728,897,0,0
511,127,0,0,0,0,0,0,0,0,0,-1,1735,897,0,0
518,127,0,0,0,0,0,0,0,0,0,-1,1742,897,0,0
525,127,0,0,0,0,0,0,0,0,0,-1,1749,897,0,0
532,127,0,0,0,0,0,0,0,0,0,-1,1756,897,0,0
539,127,0,0,0,0,0,0,0,0,0,-1,1763,897,0,0
546,127,0,0,0,0,0,0,0,0,0,-1,1770,897,0,0
553,127,0,0,0,0,0,0,0,0,0,-1,1777,897,0,0
560,127,0,0,0,0,0,0,0,0,0,-1,1784,897,0,0
567,127,0,0,0,0,0,0,0,0,0,-1,1791,897,0,0
574,127,0,0,0,0,0,0,0,0,0,-1,1798,897,0,0
581,127,0,0,0,0,0,0,0,0,0,-1,1805,897,0,0
588,127,0,0,0,0,0,0,0,0,0,-1,1812,897,0,0
595,127,0,0,0,0,0,0,0,0,0,-1,1819,897,0,0
602,127,0,0,0,0,0,0,0,0,0,-1,1826,897,0,0
609,127,0,0,0,0,0,0,0,0,0,-1,1833,897,0,0
616,127,0,0,0,0,0,0,0,0,0,-1,1840,897,0,0
623,127,0,0,0,0,0,0,0,0,0,-1,1847,897,0,0
630,127,54.2328,2.6795,-0.00784264,0.00301234,-0.00157378,0.00323591,-0.00806621,-1.42968,0.00672099,0.0410914,1854,897,54.2328,-2.67951
637,127,54.1117,2.82416,-0.00561762,0.00209563,-0.00110938,0.00225202,-0.00577401,-1.43075,0.00478023,0.0386174,1861,897,54.1117,-2.82413
644,127,54.155,2.81982,-0.00397228,0.00142869,-0.000759725,0.00153352,-0.00407712,-1.43368,0.00334843,0.038381,1868,897,54.155,-2.81985
651,127,54.1255,2.84436,-0.00277083,0.000943342,-0.000535081,0.00101889,-0.00284638,-1.43053,0.00231326,0.0440858,1875,897,54.1255,-2.84434
658,127,54.161,2.68335,-0.00193733,0.000939167,-0.000294823,0.000969074,-0.00196724,-1.4697,0.00172762,0.0445857,1882,897,54.161,-2.68336
665,127,54.1455,2.64355,-0.00135338,0.00109812,-0.000231443,0.00111977,-0.00137504,-1.47749,0.00144289,0.0399371,1889,897,54.1455,-2.64358
672,127,54.1207,2.6933,-0.000905929,0.00116133,-0.000162258,0.00117399,-0.000918587,-1.49294,0.00121115,0.0330951,1896,897,54.1207,-2.69332
679,127,54.1738,2.72485,-0.000533955,0.00113757,-0.000145641,0.00115016,-0.00054655,-1.48453,0.00100005,0.0234927,1903,897,54.1739,-2.72485
686,127,54.1254,2.74249,-0.000336721,0.00122898,-0.000147992,0.00124285,-0.000350586,-1.47738,0.000966851,0.0478178,1910,897,54.1254,-2.74247
693,127,54.0216,2.63666,0,0,0,0,0,0,0,-1,1917,897,54.0216,-2.63664
700,127,47.4637,2.414,0,0,0,0,0,0,0,-1,1924,897,47.4637,-2.41402
707,127,47.3439,2.96997,-0.000232912,0.00180872,-0.000509205,0.00192867,-0.000352865,-1.33944,0.00141811,0.0296821,1931,897,47.3439,-2.96997
714,127,47.6017,3.61975,-0.00040774,0.00212965,-0.000611688,0.00226941,-0.000547501,-1.34617,0.00172465,0.0237414,1938,897,47.6017,-3.61974
721,127,47.7522,4.36499,-0.000673295,0.00231047,-0.000729443,0.00247925,-0.000842075,-1.34342,0.00199371,0.0209088,1945,897,47.7522,-4.365
728,127,47.6775,4.87537,-0.00139664,0.00255378,-0.000786621,0.00270465,-0.00154751,-1.3813,0.0024851,0.0188453,1952,897,47.6775,-4.87538
735,127,47.6482,5.48022,-0.00232988,0.00294505,-0.000913718,0.00309884,-0.00248367,-1.40405,0.00322958,0.0208995,1959,897,47.6482,-5.48025
742,127,47.6064,6.03162,-0.00364742,0.00373908,-0.0010381,0.00388221,-0.00379054,-1.43379,0.00442997,0.0194132,1966,897,47.6065,-6.03159
749,127,47.559,6.52625,-0.00530809,0.00490595,-0.000902444,0.00498507,-0.00538721,-1.48335,0.00598994,0.0136262,1973,897,47.559,-6.52625
756,127,47.5149,7.0188,-0.00711382,0.00640475,-0.000500901,0.00642328,-0.00713236,-1.53381,0.00782992,0.0153935,1980,897,47.5149,-7.01877
763,127,47.4717,7.50165,-0.00894091,0.0085698,0.000366443,0.00857747,-0.00894857,1.54988,0.0101194,0.0252072,1987,897,47.4717,-7.50163
770,127,47.4652,7.98572,0,0,0,0,0,0,0,-1,1994,897,47.4652,-7.98573
777,127,42.703,5.33789,0,0,0,0,0,0,0,-1,2001,897,42.7031,-5.33791
784,127,42.6145,8.47131,0,0,0,0,0,0,0,-1,2008,897,42.6146,-8.47131
791,127,42.5813,5.51636,0,0,0,0,0,0,0,-1,2015,897,42.5813,-5.51633
798,127,0,0,0,0,0,0,0,0,0,-1,2022,897,0,0
805,127,0,0,0,0,0,0,0,0,0,-1,2029,897,0,0
812,127,0,0,0,0,0,0,0,0,0,-1,2036,897,0,0
-700,120,0,0,0,0,0,0,0,0,0,-1,524,904,0,0
-693,120,0,0,0,0,0,0,0,0,0,-1,531,904,0,0
-686,120,0,0,0,0,0,0,0,0,0,-1,538,904,0,0
-679,120,-36.5525,7.67188,0,0,0,0,0,0,0,-1,545,904,-36.5525,-7.67189
-672,120,-36.6606,6.23993,0.0633367,0.0740882,-0.0909177,0.159789,-0.022364,-0.814928,0.11471,0.043631,552,904,-36.6606,-6.23994
-665,120,-36.7357,4.7077,0.0510415,0.0575882,-0.0700495,0.124441,-0.0158111,-0.808746,0.0887018,0.0497827,559,904,-36.7356,-4.70773
-658,120,-36.8363,3.36487,0,0,0,0,0,0,0,-1,566,904,-36.8363,-3.36485
-651,120,-38.6806,2.67523,0,0,0,0,0,0,0,-1,573,904,-38.6806,-2.67521
-644,120,-39.3876,1.10193,0,0,0,0,0,0,0,-1,580,904,-39.3876,-1.10194
-637,120,-36.0095,5.12921,0,0,0,0,0,0,0,-1,587,904,-36.0095,-5.12922
-630,120,-35.9604,4.75195,0.00690077,0.0144508,-0.0126523,0.0238792,-0.00252763,-0.930377,0.0168254,0.0290579,594,904,-35.9604,-4.75194
-623,120,-36.0143,4.29736,0.00251603,0.0098868,-0.00695863,0.0140757,-0.00167288,-1.02893,0.00998825,0.0114251,601,904,-36.0143,-4.29735
-616,120,-36.0395,3.82056,-0.00167833,0.00563043,-0.00159568,0.00596362,-0.00201152,-1.36495,0.0047892,0.0106138,608,904,-36.0395,-3.82053
-609,120,-36.0859,3.33423,-0.00348779,0.00249234,0.00127764,0.00275386,-0.00374932,1.36889,0.00376925,0.0141056,615,904,-36.0859,-3.33424
-602,120,-36.1085,2.85657,-0.00379685,0.00131313,0.00178316,0.00187385,-0.00435757,1.26613,0.00369174,0.0165255,622,904,-36.1085,-2.85659
-595,120,-36.0133,2.40698,-0.0034885,0.000485749,0.00187455,0.0012304,-0.00423315,1.19267,0.00330938,0.0304346,629,904,-36.0133,-2.40698
-588,120,-35.9492,1.78162,-0.00304671,1.24734e-05,0.00192662,0.000942867,-0.0039771,1.12091,0.00301524,0.0409243,636,904,-35.9492,-1.78164
-581,120,-35.657,1.02448,0,0,0,0,0,0,0,-1,643,904,-35.657,-1.02449
-574,120,-27.5438,0.505066,0,0,0,0,0,0,0,-1,650,904,-27.5438,-0.505085
-567,120,-25.2822,-0.410645,0,0,0,0,0,0,0,-1,657,904,-25.2821,0.410629
-560,120,-27.3358,1.10327,0,0,0,0,0,0,0,-1,664,904,-27.3358,-1.10324
-553,120,-40.8533,0.864014,0,0,0,0,0,0,0,-1,671,904,-40.8533,-0.863996
-546,120,-40.9125,0.883728,-0.0020308,-0.000110318,0.0020703,0.00121159,-0.0033527,1.00254,0.00273013,0.0319132,678,904,-40.9125,-0.883738
-539,120,-40.8489,0.92804,-0.00196157,0.000208608,0.00215553,0.00153675,-0.00328972,1.01858,0.00284717,0.0254158,685,904,-40.8489,-0.928014
-532,120,-40.7772,0.946838,-0.00155708,0.000557666,0.00221916,0.00195849,-0.0029579,1.00772,0.00285796,0.0277171,692,904,-40.7772,-0.946843
-525,120,-41.0068,0.948425,-0.00110201,0.000804092,0.00231074,0.00235061,-0.00264853,0.980992,0.00288796,0.0363078,699,904,-41.0068,-0.948423
-518,120,-41.1831,0.82843,-0.000925117,0.000836023,0.0021344,0.00226437,-0.00235346,0.981042,0.00266627,0.0417343,706,904,-41.1831,-0.82842
-511,120,-41.1206,0.865112,-0.000337088,0.000867299,0.00188481,0.00224378,-0.00171356,0.940022,0.0022916,0.0421561,713,904,-41.1206,-0.865131
-504,120,0,0,0,0,0,0,0,0,0,-1,720,904,0,0
-497,120,0,0,0,0,0,0,0,0,0,-1,727,904,0,0
-490,120,0,0,0,0,0,0,0,0,0,-1,734,904,0,0
-483,120,0,0,0,0,0,0,0,0,0,-1,741,904,0,0
-476,120,0,0,0,0,0,0,0,0,0,-1,748,904,0,0
-469,120,0,0,0,0,0,0,0,0,0,-1,755,904,0,0
-462,120,0,0,0,0,0,0,0,0,0,-1,762,904,0,0
-455,120,0,0,0,0,0,0,0,0,0,-1,769,904,0,0
-448,120,0,0,0,0,0,0,0,0,0,-1,776,904,0,0
-441,120,0,0,0,0,0,0,0,0,0,-1,783,904,0,0
-434,120,0,0,0,0,0,0,0,0,0,-1,790,904,0,0
-427,120,0,0,0,0,0,0,0,0,0,-1,797,904,0,0
-420,120,0,0,0,0,0,0,0,0,0,-1,804,904,0,0
-413,120,0,0,0,0,0,0,0,0,0,-1,811,904,0,0
-406,120,0,0,0,0,0,0,0,0,0,-1,818,904,0,0
-399,120,0,0,0,0,0,0,0,0,0,-1,825,904,0,0
-392,120,0,0,0,0,0,0,0,0,0,-1,832,904,0,0
-385,120,0,0,0,0,0,0,0,0,0,-1,839,904,0,0
-378,120,0,0,0,0,0,0,0,0,0,-1,846,904,0,0
-371,120,0,0,0,0,0,0,0,0,0,-1,853,904,0,0
-364,120,0,0,0,0,0,0,0,0,0,-1,860,904,0,0
-357,120,0,0,0,0,0,0,0,0,0,-1,867,904,0,0
-350,120,0,0,0,0,0,0,0,0,0,-1,874,904,0,0
-343,120,0,0,0,0,0,0,0,0,0,-1,881,904,0,0
-336,120,0,0,0,0,0,0,0,0,0,-1,888,904,0,0
-329,120,0,0,0,0,0,0,0,0,0,-1,895,904,0,0
-322,120,0,0,0,0,0,0,0,0,0,-1,902,904,0,0
-315,120,0,0,0,0,0,0,0,0,0,-1,909,904,0,0
-308,120,0,0,0,0,0,0,0,0,0,-1,916,904,0,0
-301,120,0,0,0,0,0,0,0,0,0,-1,923,904,0,0
-294,120,0,0,0,0,0,0,0,0,0,-1,930,904,0,0
-287,120,0,0,0,0,0,0,0,0,0,-1,937,904,0,0
-280,120,0,0,0,0,0,0,0,0,0,-1,944,904,0,0
-273,120,0,0,0,0,0,0,0,0,0,-1,951,904,0,0
-266,120,0,0,0,0,0,0,0,0,0,-1,958,904,0,0
-259,120,0,0,0,0,0,0,0,0,0,-1,965,904,0,0
-252,120,0,0,0,0,0,0,0,0,0,-1,972,904,0,0
-245,120,0,0,0,0,0,0,0,0,0,-1,979,904,0,0
-238,120,0,0,0,0,0,0,0,0,0,-1,986,904,0,0
-231,120,0,0,0,0,0,0,0,0,0,-1,993,904,0,0
-224,120,0,0,0,0,0,0,0,0,0,-1,1000,904,0,0
-217,120,0,0,0,0,0,0,0,0,0,-1,1007,904,0,0
-210,120,0,0,0,0,0,0,0,0,0,-1,1014,904,0,0
-203,120,0,0,0,0,0,0,0,0,0,-1,1021,904,0,0
-196,120,0,0,0,0,0,0,0,0,0,-1,1028,904,0,0
-189,120,0,0,0,0,0,0,0,0,0,-1,1035,904,0,0
-182,120,0,0,0,0,0,0,0,0,0,-1,1042,904,0,0
-175,120,0,0,0,0,0,0,0,0,0,-1,1049,904,0,0
-168,120,0,0,0,0,0,0,0,0,0,-1,1056,904,0,0
-161,120,0,0,0,0,0,0,0,0,0,-1,1063,904,0,0
-154,120,0,0,0,0,0,0,0,0,0,-1,1070,904,0,0
-147,120,0,0,0,0,0,0,0,0,0,-1,1077,904,0,0
-140,120,0,0,0,0,0,0,0,0,0,-1,1084,904,0,0
-133,120,0,0,0,0,0,0,0,0,0,-1,1091,904,0,0
-126,120,0,0,0,0,0,0,0,0,0,-1,1098,904,0,0
-119,120,0,0,0,0,0,0,0,0,0,-1,1105,904,0,0
-112,120,0,0,0,0,0,0,0,0,0,-1,1112,904,0,0
-105,120,0,0,0,0,0,0,0,0,0,-1,1119,904,0,0
-98,120,0,0,0,0,0,0,0,0,0,-1,1126,904,0,0
-91,120,0,0,0,0,0,0,0,0,0,-1,1133,904,0,0
-84,120,0,0,0,0,0,0,0,0,0,-1,1140,904,0,0
-77,120,0,0,0,0,0,0,0,0,0,-1,1147,904,0,0
-70,120,0,0,0,0,0,0,0,0,0,-1,1154,904,0,0
-63,120,0,0,0,0,0,0,0,0,0,-1,1161,904,0,0
-56,120,0,0,0,0,0,0,0,0,0,-1,1168,904,0,0
-49,120,0,0,0,0,0,0,0,0,0,-1,1175,904,0,0
-42,120,0,0,0,0,0,0,0,0,0,-1,1182,904,0,0
-35,120,0,0,0,0,0,0,0,0,0,-1,1189,904,0,0
-28,120,0,0,0,0,0,0,0,0,0,-1,1196,904,0,0
-21,120,0,0,0,0,0,0,0,0,0,-1,1203,904,0,0
-14,120,0,0,0,0,0,0,0,0,0,-1,1210,904,0,0
-7,120,0,0,0,0,0,0,0,0,0,-1,1217,904,0,0
0,120,0,0,0,0,0,0,0,0,0,-1,1224,904,0,0
7,120,0,0,0,0,0,0,0,0,0,-1,1231,904,0,0
14,120,0,0,0,0,0,0,0,0,0,-1,1238,904,0,0
21,120,0,0,0,0,0,0,0,0,0,-1,1245,904,0,0
28,120,0,0,0,0,0,0,0,0,0,-1,1252,904,0,0
35,120,0,0,0,0,0,0,0,0,0,-1,1259,904,0,0
42,120,0,0,0,0,0,0,0,0,0,-1,1266,904,0,0
49,120,0,0,0,0,0,0,0,0,0,-1,1273,904,0,0
56,120,0,0,0,0,0,0,0,0,0,-1,1280,904,0,0
63,120,0,0,0,0,0,0,0,0,0,-1,1287,904,0,0
70,120,0,0,0,0,0,0,0,0,0,-1,1294,904,0,0
77,120,0,0,0,0,0,0,0,0,0,-1,1301,904,0,0
84,120,0,0,0,0,0,0,0,0,0,-1,1308,904,0,0
91,120,0,0,0,0,0,0,0,0,0,-1,1315,904,0,0
98,120,0,0,0,0,0,0,0,0,0,-1,1322,904,0,0
105,120,0,0,0,0,0,0,0,0,0,-1,1329,904,0,0
112,120,0,0,0,0,0,0,0,0,0,-1,1336,904,0,0
119,120,0,0,0,0,0,0,0,0,0,-1,1343,904,0,0
126,120,0,0,0,0,0,0,0,0,0,-1,1350,904,0,0
133,120,0,0,0,0,0,0,0,0,0,-1,1357,904,0,0
140,120,0,0,0,0,0,0,0,0,0,-1,1364,904,0,0
147,120,0,0,0,0,0,0,0,0,0,-1,1371,904,0,0
154,120,0,0,0,0,0,0,0,0,0,-1,1378,904,0,0
161,120,0,0,0,0,0,0,0,0,0,-1,1385,904,0,0
168,120,0,0,0,0,0,0,0,0,0,-1,1392,904,0,0
175,120,0,0,0,0,0,0,0,0,0,-1,1399,904,0,0
182,120,0,0,0,0,0,0,0,0,0,-1,1406,904,0,0
189,120,0,0,0,0,0,0,0,0,0,-1,1413,904,0,0
196,120,0,0,0,0,0,0,0,0,0,-1,1420,904,0,0
203,120,0,0,0,0,0,0,0,0,0,-1,1427,904,0,0
210,120,0,0,0,0,0,0,0,0,0,-1,1434,904,0,0
217,120,0,0,0,0,0,0,0,0,0,-1,1441,904,0,0
224,120,0,0,0,0,0,0,0,0,0,-1,1448,904,0,0
231,120,0,0,0,0,0,0,0,0,0,-1,1455,904,0,0
238,120,0,0,0,0,0,0,0,0,0,-1,1462,904,0,0
245,120,0,0,0,0,0,0,0,0,0,-1,1469,904,0,0
252,120,0,0,0,0,0,0,0,0,0,-1,1476,904,0,0
259,120,0,0,0,0,0,0,0,0,0,-1,1483,904,0,0
266,120,0,0,0,0,0,0,0,0,0,-1,1490,904,0,0
273,120,0,0,0,0,0,0,0,0,0,-1,1497,904,0,0
280,120,0,0,0,0,0,0,0,0,0,-1,1504,904,0,0
287,120,0,0,0,0,0,0,0,0,0,-1,1511,904,0,0
294,120,0,0,0,0,0,0,0,0,0,-1,1518,904,0,0
301,120,0,0,0,0,0,0,0,0,0,-1,1525,904,0,0
308,120,0,0,0,0,0,0,0,0,0,-1,1532,904,0,0
315,120,0,0,0,0,0,0,0,0,0,-1,1539,904,0,0
322,120,0,0,0,0,0,0,0,0,0,-1,1546,904,0,0
329,120,0,0,0,0,0,0,0,0,0,-1,1553,904,0,0
336,120,0,0,0,0,0,0,0,0,0,-1,1560,904,0,0
343,120,0,0,0,0,0,0,0,0,0,-1,1567,904,0,0
350,120,0,0,0,0,0,0,0,0,0,-1,1574,904,0,0
357,120,0,0,0,0,0,0,0,0,0,-1,1581,904,0,0
364,120,0,0,0,0,0,0,0,0,0,-1,1588,904,0,0
371,120,0,0,0,0,0,0,0,0,0,-1,1595,904,0,0
378,120,0,0,0,0,0,0,0,0,0,-1,1602,904,0,0
385,120,0,0,0,0,0,0,0,0,0,-1,1609,904,0,0
392,120,0,0,0,0,0,0,0,0,0,-1,1616,904,0,0
399,120,0,0,0,0,0,0,0,0,0,-1,1623,904,0,0
406,120,0,0,0,0,0,0,0,0,0,-1,1630,904,0,0
413,120,0,0,0,0,0,0,0,0,0,-1,1637,904,0,0
420,120,0,0,0,0,0,0,0,0,0,-1,1644,904,0,0
427,120,0,0,0,0,0,0,0,0,0,-1,1651,904,0,0
434,120,0,0,0,0,0,0,0,0,0,-1,1658,904,0,0
441,120,0,0,0,0,0,0,0,0,0,-1,1665,904,0,0
448,120,0,0,0,0,0,0,0,0,0,-1,1672,904,0,0
455,120,0,0,0,0,0,0,0,0,0,-1,1679,904,0,0
462,120,0,0,0,0,0,0,0,0,0,-1,1686,904,0,0
469,120,0,0,0,0,0,0,0,0,0,-1,1693,904,0,0
476,120,0,0,0,0,0,0,0,0,0,-1,1700,904,0,0
483,120,0,0,0,0,0,0,0,0,0,-1,1707,904,0,0
490,120,0,0,0,0,0,0,0,0,0,-1,1714,904,0,0
497,120,0,0,0,0,0,0,0,0,0,-1,1721,904,0,0
504,120,0,0,0,0,0,0,0,0,0,-1,1728,904,0,0
511,120,0,0,0,0,0,0,0,0,0,-1,1735,904,0,0
518,120,0,0,0,0,0,0,0,0,0,-1,1742,904,0,0
525,120,0,0,0,0,0,0,0,0,0,-1,1749,904,0,0
532,120,0,0,0,0,0,0,0,0,0,-1,1756,904,0,0
539,120,0,0,0,0,0,0,0,0,0,-1,1763,904,0,0
546,120,0,0,0,0,0,0,0,0,0,-1,1770,904,0,0
553,120,0,0,0,0,0,0,0,0,0,-1,1777,904,0,0
560,120,0,0,0,0,0,0,0,0,0,-1,1784,904,0,0
567,120,0,0,0,0,0,0,0,0,0,-1,1791,904,0,0
574,120,0,0,0,0,0,0,0,0,0,-1,1798,904,0,0
581,120,0,0,0,0,0,0,0,0,0,-1,1805,904,0,0
588,120,0,0,0,0,0,0,0,0,0,-1,1812,904,0,0
595,120,0,0,0,0,0,0,0,0,0,-1,1819,904,0,0
602,120,0,0,0,0,0,0,0,0,0,-1,1826,904,0,0
609,120,0,0,0,0,0,0,0,0,0,-1,1833,904,0,0
616,120,0,0,0,0,0,0,0,0,0,-1,1840,904,0,0
623,120,0,0,0,0,0,0,0,0,0,-1,1847,904,0,0
630,120,54.0513,3.13171,-0.00880462,0.00236177,-0.00177604,0.00263745,-0.00908029,-1.41681,0.00709794,0.0399077,1854,904,54.0513,-3.1317
637,120,54.124,2.81396,-0.00648893,0.0017117,-0.00127946,0.00190669,-0.00668391,-1.41956,0.00520915,0.0412659,1861,904,54.124,-2.81396
644,120,54.1603,2.7608,-0.00468908,0.00127446,-0.000889442,0.00140429,-0.00481891,-1.42585,0.00376894,0.0405388,1868,904,54.1603,-2.76081
651,120,54.0288,2.79877,-0.00324232,0.00101911,-0.000595148,0.00110067,-0.00332387,-1.43461,0.00265983,0.0424317,1875,904,54.0288,-2.79874
658,120,54.1086,2.85663,-0.00210589,0.00115562,-0.000279935,0.00117947,-0.00212974,-1.48579,0.00193665,0.0419997,1882,904,54.1087,-2.85662
665,120,54.1213,2.85602,-0.00123881,0.00145265,-0.000107167,0.00145691,-0.00124307,-1.53106,0.00156046,0.038634,1889,904,54.1213,-2.856
672,120,54.1338,2.76215,-0.000684959,0.00156499,3.36896e-05,0.00156549,-0.000685464,1.55583,0.00133228,0.0358471,1896,904,54.1338,-2.76214
679,120,54.1763,2.66724,-0.000279722,0.00159199,0.000119711,0.00159962,-0.000287348,1.50718,0.00117398,0.028916,1903,904,54.1763,-2.66721
686,120,54.145,2.76093,-6.75327e-05,0.0016356,0.000142787,0.00164749,-7.94208e-05,1.48773,0.00112573,0.0265565,1910,904,54.145,-2.76095
693,120,54.0355,2.82019,0,0,0,0,0,0,0,-1,1917,904,54.0355,-2.82017
700,120,42.2007,3.00946,0,0,0,0,0,0,0,-1,1924,904,42.2007,-3.00944
707,120,47.9985,3.138,0,0,0,0,0,0,0,-1,1931,904,47.9985,-3.13798
714,120,48.3333,3.91547,-0.000408194,0.00232914,-0.000434306,0.0023964,-0.000475449,-1.41716,0.00177741,0.0235581,1938,904,48.3332,-3.91545
721,120,48.3082,4.46063,-0.000848041,0.00247854,-0.000568034,0.00257286,-0.000942362,-1.40625,0.00210103,0.0196231,1945,904,48.3083,-4.46066
728,120,48.2448,4.99854,-0.00170643,0.00268108,-0.000639627,0.00277242,-0.00179777,-1.42895,0.00265853,0.0139585,1952,904,48.2447,-4.99856
735,120,48.1898,5.46167,-0.00270147,0.00311873,-0.000798888,0.0032264,-0.00280913,-1.43684,0.00348739,0.0137272,1959,904,48.1898,-5.4617
742,120,48.1368,6.01489,-0.00409029,0.00405538,-0.000991245,0.00417427,-0.00420918,-1.45143,0.0048402,0.0145122,1966,904,48.1369,-6.01489
749,120,48.1238,6.51044,-0.00578957,0.00551908,-0.000878081,0.00558685,-0.00585735,-1.49376,0.00660793,0.0114232,1973,904,48.1237,-6.51043
756,120,48.067,7.02502,-0.00755206,0.00744835,-0.000413694,0.00745975,-0.00756346,-1.54325,0.00867373,0.014482,1980,904,48.0671,-7.02502
763,120,47.953,7.5437,-0.00918706,0.00995325,0.000498847,0.00996624,-0.00920005,1.54476,0.0110686,0.0303087,1987,904,47.953,-7.54371
770,120,47.8772,8.07861,0,0,0,0,0,0,0,-1,1994,904,47.8772,-8.0786
777,120,41.3512,6.78638,0,0,0,0,0,0,0,-1,2001,904,41.3512,-6.78635
784,120,43.5239,5.77271,0,0,0,0,0,0,0,-1,2008,904,43.524,-5.77269
791,120,41.957,6.00659,0,0,0,0,0,0,0,-1,2015,904,41.957,-6.00662
798,120,42.4553,5.6944,0,0,0,0,0,0,0,-1,2022,904,42.4552,-5.69439
805,120,0,0,0,0,0,0,0,0,0,-1,2029,904,0,0
812,120,0,0,0,0,0,0,0,0,0,-1,2036,904,0,0
-700,113,0,0,0,0,0,0,0,0,0,-1,524,911,0,0
-693,113,0,0,0,0,0,0,0,0,0,-1,531,911,0,0
-686,113,0,0,0,0,0,0,0,0,0,-1,538,911,0,0
-679,113,-36.2811,6.71265,0,0,0,0,0,0,0,-1,545,911,-36.2811,-6.71263
-672,113,-36.4607,5.34326,0,0,0,0,0,0,0,-1,552,911,-36.4607,-5.34329
-665,113,-36.6906,3.93085,0,0,0,0,0,0,0,-1,559,911,-36.6906,-3.93087
-658,113,-37.1281,2.40698,0,0,0,0,0,0,0,-1,566,911,-37.1281,-2.40697
-651,113,-39.4437,2.88983,0,0,0,0,0,0,0,-1,573,911,-39.4437,-2.88981
-644,113,-36.4383,5.48407,0,0,0,0,0,0,0,-1,580,911,-36.4383,-5.4841
-637,113,-36.5102,5.06537,0.00746658,0.0209661,-0.0175256,0.0329968,-0.00456411,-0.969212,0.0236664,0.044098,587,911,-36.5102,-5.06534
-630,113,-36.4777,4.75275,0.00285797,0.0152115,-0.0106512,0.0213473,-0.00327784,-1.04816,0.0154406,0.019836,594,911,-36.4777,-4.75273
-623,113,-36.5604,4.28601,-0.000345538,0.0104538,-0.00551302,0.0127709,-0.00266273,-1.1729,0.0095264,0.0119001,601,911,-36.5603,-4.286
-616,113,-36.577,3.8139,-0.00348597,0.00608171,-0.000810552,0.0061499,-0.00355415,-1.48688,0.00566905,0.0110899,608,911,-36.577,-3.81393
-609,113,-36.5963,3.36707,-0.00459986,0.00275221,0.00146807,0.00303452,-0.00488216,1.38082,0.00461201,0.0117283,615,911,-36.5963,-3.36708
-602,113,-36.6177,2.86804,-0.00467967,0.00121078,0.00159835,0.00161654,-0.00508542,1.32219,0.00403846,0.0187747,622,911,-36.6176,-2.86807
-595,113,-36.6194,2.49548,-0.00442733,0.000243219,0.00150393,0.00068559,-0.0048697,1.28472,0.00349747,0.0253374,629,911,-36.6194,-2.49549
-588,113,-36.5726,1.97205,-0.00401894,-0.000387792,0.00150386,0.000154156,-0.00456089,1.22491,0.00309326,0.0305732,636,911,-36.5726,-1.97207
-581,113,-36.5953,1.47882,-0.00372524,-0.000665622,0.00151536,-4.21454e-05,-0.00434872,1.18047,0.0028852,0.0315956,643,911,-36.5953,-1.47881
-574,113,-36.5757,0.793152,0,0,0,0,0,0,0,-1,650,911,-36.5758,-0.793158
-567,113,-21.8396,0.437378,0,0,0,0,0,0,0,-1,657,911,-21.8396,-0.437351
-560,113,-40.7798,0.910706,0,0,0,0,0,0,0,-1,664,911,-40.7798,-0.910731
-553,113,-40.8319,0.806152,-0.00292886,-0.000903265,0.00142547,-0.000167431,-0.00366469,1.09427,0.00238927,0.0428816,671,911,-40.8319,-0.806134
-546,113,-40.9268,0.766357,-0.00284135,-0.000668351,0.00148406,8.44222e-05,-0.00359412,1.10137,0.00242471,0.0381669,678,911,-40.9268,-0.766362
-539,113,-40.8945,0.907288,-0.00252508,-0.000260004,0.00162641,0.000589336,-0.00337442,1.08953,0.00246961,0.0378852,685,911,-40.8945,-0.907314
-532,113,-40.8478,1.00201,-0.00171383,0.00025971,0.00183014,0.00135215,-0.00280627,1.03265,0.00244931,0.0385961,692,911,-40.8478,-1.00202
-525,113,-40.9107,0.895813,-0.000737074,0.000766993,0.00211645,0.00226105,-0.00223113,0.956105,0.00259358,0.0391991,699,911,-40.9107,-0.895829
-518,113,-41.058,0.834412,-0.000399975,0.00118857,0.00204316,0.00258641,-0.00179781,0.970782,0.00254484,0.0424297,706,911,-41.0581,-0.834406
-511,113,-41.1552,0.91864,3.17954e-05,0.00162165,0.00175375,0.00275223,-0.00109878,0.998184,0.00229067,0.0421658,713,911,-41.1552,-0.91867
-504,113,0,0,0,0,0,0,0,0,0,-1,720,911,0,0
-497,113,0,0,0,0,0,0,0,0,0,-1,727,911,0,0
-490,113,0,0,0,0,0,0,0,0,0,-1,734,911,0,0
-483,113,0,0,0,0,0,0,0,0,0,-1,741,911,0,0
-476,113,0,0,0,0,0,0,0,0,0,-1,748,911,0,0
-469,113,0,0,0,0,0,0,0,0,0,-1,755,911,0,0
-462,113,0,0,0,0,0,0,0,0,0,-1,762,911,0,0
-455,113,0,0,0,0,0,0,0,0,0,-1,769,911,0,0
-448,113,0,0,0,0,0,0,0,0,0,-1,776,911,0,0
-441,113,0,0,0,0,0,0,0,0,0,-1,783,911,0,0
-434,113,0,0,0,0,0,0,0,0,0,-1,790,911,0,0
-427,113,0,0,0,0,0,0,0,0,0,-1,797,911,0,0
-420,113,0,0,0,0,0,0,0,0,0,-1,804,911,0,0
-413,113,0,0,0,0,0,0,0,0,0,-1,811,911,0,0
-406,113,0,0,0,0,0,0,0,0,0,-1,818,911,0,0
-399,113,0,0,0,0,0,0,0,0,0,-1,825,911,0,0
-392,113,0,0,0,0,0,0,0,0,0,-1,832,911,0,0
-385,113,0,0,0,0,0,0,0,0,0,-1,839,911,0,0
-378,113,0,0,0,0,0,0,0,0,0,-1,846,911,0,0
-371,113,0,0,0,0,0,0,0,0,0,-1,853,911,0,0
-364,113,0,0,0,0,0,0,0,0,0,-1,860,911,0,0
-357,113,0,0,0,0,0,0,0,0,0,-1,867,911,0,0
-350,113,0,0,0,0,0,0,0,0,0,-1,874,911,0,0
-343,113,0,0,0,0,0,0,0,0,0,-1,881,911,0,0
-336,113,0,0,0,0,0,0,0,0,0,-1,888,911,0,0
-329,113,0,0,0,0,0,0,0,0,0,-1,895,911,0,0
-322,113,0,0,0,0,0,0,0,0,0,-1,902,911,0,0
-315,113,0,0,0,0,0,0,0,0,0,-1,909,911,0,0
-308,113,0,0,0,0,0,0,0,0,0,-1,916,911,0,0
-301,113,0,0,0,0,0,0,0,0,0,-1,923,911,0,0
-294,113,0,0,0,0,0,0,0,0,0,-1,930,911,0,0
-287,113,0,0,0,0,0,0,0,0,0,-1,937,911,0,0
-280,113,0,0,0,0,0,0,0,0,0,-1,944,911,0,0
-273,113,0,0,0,0,0,0,0,0,0,-1,951,911,0,0
-266,113,0,0,0,0,0,0,0,0,0,-1,958,911,0,0
-259,113,0,0,0,0,0,0,0,0,0,-1,965,911,0,0
-252,113,0,0,0,0,0,0,0,0,0,-1,972,911,0,0
-245,113,0,0,0,0,0,0,0,0,0,-1,979,911,0,0
-238,113,0,0,0,0,0,0,0,0,0,-1,986,911,0,0
-231,113,0,0,0,0,0,0,0,0,0,-1,993,911,0,0
-224,113,0,0,0,0,0,0,0,0,0,-1,1000,911,0,0
-217,113,0,0,0,0,0,0,0,0,0,-1,1007,911,0,0
-210,113,0,0,0,0,0,0,0,0,0,-1,1014,911,0,0
-203,113,0,0,0,0,0,0,0,0,0,-1,1021,911,0,0
-196,113,0,0,0,0,0,0,0,0,0,-1,1028,911,0,0
-189,113,0,0,0,0,0,0,0,0,0,-1,1035,911,0,0
-182,113,0,0,0,0,0,0,0,0,0,-1,1042,911,0,0
-175,113,0,0,0,0,0,0,0,0,0,-1,1049,911,0,0
-168,113,0,0,0,0,0,0,0,0,0,-1,1056,911,0,0
-161,113,0,0,0,0,0,0,0,0,0,-1,1063,911,0,0
-154,113,0,0,0,0,0,0,0,0,0,-1,1070,911,0,0
-147,113,0,0,0,0,0,0,0,0,0,-1,1077,911,0,0
-140,113,0,0,0,0,0,0,0,0,0,-1,1084,911,0,0
-133,113,0,0,0,0,0,0,0,0,0,-1,1091,911,0,0
-126,113,0,0,0,0,0,0,0,0,0,-1,1098,911,0,0
-119,113,0,0,0,0,0,0,0,0,0,-1,1105,911,0,0
-112,113,0,0,0,0,0,0,0,0,0,-1,1112,911,0,0
-105,113,0,0,0,0,0,0,0,0,0,-1,1119,911,0,0
-98,113,0,0,0,0,0,0,0,0,0,-1,1126,911,0,0
-91,113,0,0,0,0,0,0,0,0,0,-1,1133,911,0,0
-84,113,0,0,0,0,0,0,0,0,0,-1,1140,911,0,0
-77,113,0,0,0,0,0,0,0,0,0,-1,1147,911,0,0
-70,113,0,0,0,0,0,0,0,0,0,-1,1154,911,0,0
-63,113,0,0,0,0,0,0,0,0,0,-1,1161,911,0,0
-56,113,0,0,0,0,0,0,0,0,0,-1,1168,911,0,0
-49,113,0,0,0,0,0,0,0,0,0,-1,1175,911,0,0
-42,113,0,0,0,0,0,0,0,0,0,-1,1182,911,0,0
-35,113,0,0,0,0,0,0,0,0,0,-1,1189,911,0,0
-28,113,0,0,0,0,0,0,0,0,0,-1,1196,911,0,0
-21,113,0,0,0,0,0,0,0,0,0,-1,1203,911,0,0
-14,113,0,0,0,0,0,0,0,0,0,-1,1210,911,0,0
-7,113,0,0,0,0,0,0,0,0,0,-1,1217,911,0,0
0,113,0,0,0,0,0,0,0,0,0,-1,1224,911,0,0
7,113,0,0,0,0,0,0,0,0,0,-1,1231,911,0,0
14,113,0,0,0,0,0,0,0,0,0,-1,1238,911,0,0
21,113,0,0,0,0,0,0,0,0,0,-1,1245,911,0,0
28,113,0,0,0,0,0,0,0,0,0,-1,1252,911,0,0
35,113,0,0,0,0,0,0,0,0,0,-1,1259,911,0,0
42,113,0,0,0,0,0,0,0,0,0,-1,1266,911,0,0
49,113,0,0,0,0,0,0,0,0,0,-1,1273,911,0,0
56,113,0,0,0,0,0,0,0,0,0,-1,1280,911,0,0
63,113,0,0,0,0,0,0,0,0,0,-1,1287,911,0,0
70,113,0,0,0,0,0,0,0,0,0,-1,1294,911,0,0
77,113,0,0,0,0,0,0,0,0,0,-1,1301,911,0,0
84,113,0,0,0,0,0,0,0,0,0,-1,1308,911,0,0
91,113,0,0,0,0,0,0,0,0,0,-1,1315,911,0,0
98,113,0,0,0,0,0,0,0,0,0,-1,1322,911,0,0
105,113,0,0,0,0,0,0,0,0,0,-1,1329,911,0,0
112,113,0,0,0,0,0,0,0,0,0,-1,1336,911,0,0
119,113,0,0,0,0,0,0,0,0,0,-1,1343,911,0,0
126,113,0,0,0,0,0,0,0,0,0,-1,1350,911,0,0
133,113,0,0,0,0,0,0,0,0,0,-1,1357,911,0,0
140,113,0,0,0,0,0,0,0,0,0,-1,1364,911,0,0
147,113,0,0,0,0,0,0,0,0,0,-1,1371,911,0,0
154,113,0,0,0,0,0,0,0,0,0,-1,1378,911,0,0
161,113,0,0,0,0,0,0,0,0,0,-1,1385,911,0,0
168,113,0,0,0,0,0,0,0,0,0,-1,1392,911,0,0
175,113,0,0,0,0,0,0,0,0,0,-1,1399,911,0,0
182,113,0,0,0,0,0,0,0,0,0,-1,1406,911,0,0
189,113,0,0,0,0,0,0,0,0,0,-1,1413,911,0,0
196,113,0,0,0,0,0,0,0,0,0,-1,1420,911,0,0
203,113,0,0,0,0,0,0,0,0,0,-1,1427,911,0,0
210,113,0,0,0,0,0,0,0,0,0,-1,1434,911,0,0
217,113,0,0,0,0,0,0,0,0,0,-1,1441,911,0,0
224,113,0,0,0,0,0,0,0,0,0,-1,1448,911,0,0
231,113,0,0,0,0,0,0,0,0,0,-1,1455,911,0,0
238,113,0,0,0,0,0,0,0,0,0,-1,1462,911,0,0
245,113,0,0,0,0,0,0,0,0,0,-1,1469,911,0,0
252,113,0,0,0,0,0,0,0,0,0,-1,1476,911,0,0
259,113,0,0,0,0,0,0,0,0,0,-1,1483,911,0,0
266,113,0,0,0,0,0,0,0,0,0,-1,1490,911,0,0
273,113,0,0,0,0,0,0,0,0,0,-1,1497,911,0,0
280,113,0,0,0,0,0,0,0,0,0,-1,1504,911,0,0
287,113,0,0,0,0,0,0,0,0,0,-1,1511,911,0,0
294,113,0,0,0,0,0,0,0,0,0,-1,1518,911,0,0
301,113,0,0,0,0,0,0,0,0,0,-1,1525,911,0,0
308,113,0,0,0,0,0,0,0,0,0,-1,1532,911,0,0
315,113,0,0,0,0,0,0,0,0,0,-1,1539,911,0,0
322,113,0,0,0,0,0,0,0,0,0,-1,1546,911,0,0
329,113,0,0,0,0,0,0,0,0,0,-1,1553,911,0,0
336,113,0,0,0,0,0,0,0,0,0,-1,1560,911,0,0
343,113,0,0,0,0,0,0,0,0,0,-1,1567,911,0,0
350,113,0,0,0,0,0,0,0,0,0,-1,1574,911,0,0
357,113,0,0,0,0,0,0,0,0,0,-1,1581,911,0,0
364,113,0,0,0,0,0,0,0,0,0,-1,1588,911,0,0
371,113,0,0,0,0,0,0,0,0,0,-1,1595,911,0,0
378,113,0,0,0,0,0,0,0,0,0,-1,1602,911,0,0
385,113,0,0,0,0,0,0,0,0,0,-1,1609,911,0,0
392,113,0,0,0,0,0,0,0,0,0,-1,1616,911,0,0
399,113,0,0,0,0,0,0,0,0,0,-1,1623,911,0,0
406,113,0,0,0,0,0,0,0,0,0,-1,1630,911,0,0
413,113,0,0,0,0,0,0,0,0,0,-1,1637,911,0,0
420,113,0,0,0,0,0,0,0,0,0,-1,1644,911,0,0
427,113,0,0,0,0,0,0,0,0,0,-1,1651,911,0,0
434,113,0,0,0,0,0,0,0,0,0,-1,1658,911,0,0
441,113,0,0,0,0,0,0,0,0,0,-1,1665,911,0,0
448,113,0,0,0,0,0,0,0,0,0,-1,1672,911,0,0
455,113,0,0,0,0,0,0,0,0,0,-1,1679,911,0,0
462,113,0,0,0,0,0,0,0,0,0,-1,1686,911,0,0
469,113,0,0,0,0,0,0,0,0,0,-1,1693,911,0,0
476,113,0,0,0,0,0,0,0,0,0,-1,1700,911,0,0
483,113,0,0,0,0,0,0,0,0,0,-1,1707,911,0,0
490,113,0,0,0,0,0,0,0,0,0,-1,1714,911,0,0
497,113,0,0,0,0,0,0,0,0,0,-1,1721,911,0,0
504,113,0,0,0,0,0,0,0,0,0,-1,1728,911,0,0
511,113,0,0,0,0,0,0,0,0,0,-1,1735,911,0,0
518,113,0,0,0,0,0,0,0,0,0,-1,1742,911,0,0
525,113,0,0,0,0,0,0,0,0,0,-1,1749,911,0,0
532,113,0,0,0,0,0,0,0,0,0,-1,1756,911,0,0
539,113,0,0,0,0,0,0,0,0,0,-1,1763,911,0,0
546,113,0,0,0,0,0,0,0,0,0,-1,1770,911,0,0
553,113,0,0,0,0,0,0,0,0,0,-1,1777,911,0,0
560,113,0,0,0,0,0,0,0,0,0,-1,1784,911,0,0
567,113,0,0,0,0,0,0,0,0,0,-1,1791,911,0,0
574,113,0,0,0,0,0,0,0,0,0,-1,1798,911,0,0
581,113,0,0,0,0,0,0,0,0,0,-1,1805,911,0,0
588,113,0,0,0,0,0,0,0,0,0,-1,1812,911,0,0
595,113,0,0,0,0,0,0,0,0,0,-1,1819,911,0,0
602,113,0,0,0,0,0,0,0,0,0,-1,1826,911,0,0
609,113,0,0,0,0,0,0,0,0,0,-1,1833,911,0,0
616,113,0,0,0,0,0,0,0,0,0,-1,1840,911,0,0
623,113,0,0,0,0,0,0,0,0,0,-1,1847,911,0,0
630,113,54.1403,2.94159,-0.0100164,0.00267865,-0.00143454,0.00283873,-0.0101765,-1.45966,0.00790238,0.0399886,1854,911,54.1403,-2.9416
637,113,54.1758,2.88965,-0.0074411,0.00200811,-0.00108984,0.00213218,-0.00756517,-1.45744,0.00588438,0.0393666,1861,911,54.1758,-2.88962
644,113,54.2002,2.76532,-0.00543323,0.00158484,-0.000820013,0.00167938,-0.00552777,-1.45601,0.00435429,0.0388788,1868,911,54.2001,-2.76533
651,113,54.1123,2.71606,-0.00376032,0.00137583,-0.000590276,0.00144279,-0.00382729,-1.45783,0.00314478,0.0407546,1875,911,54.1123,-2.71607
658,113,54.1207,2.86725,-0.00237236,0.00148526,-0.000292704,0.00150734,-0.00239445,-1.49549,0.00227202,0.0424878,1882,911,54.1207,-2.86725
665,113,54.0657,3.09784,-0.00126205,0.00179154,-5.09367e-05,0.00179239,-0.0012629,-1.55412,0.00177278,0.0382974,1889,911,54.0657,-3.09782
672,113,54.0562,2.94287,-0.000614942,0.00189665,0.000164548,0.00190738,-0.000625676,1.50565,0.00152359,0.0351174,1896,911,54.0562,-2.94285
679,113,54.1276,2.69171,-0.000195133,0.00187358,0.000329818,0.00192489,-0.000246444,1.41646,0.0013728,0.0308592,1903,911,54.1275,-2.69172
686,113,54.1792,2.72931,3.32611e-05,0.00182913,0.000400877,0.00191455,-5.21599e-05,1.36085,0.00129411,0.0267066,1910,911,54.1792,-2.72933
693,113,54.0258,2.86456,0,0,0,0,0,0,0,-1,1917,911,54.0257,-2.86456
700,113,43.897,2.79669,0,0,0,0,0,0,0,-1,1924,911,43.897,-2.79671
707,113,48.6898,3.38489,0,0,0,0,0,0,0,-1,1931,911,48.6898,-3.3849
714,113,48.7434,3.8786,-0.000464619,0.00235579,-0.000217204,0.00237242,-0.000481248,-1.49439,0.00176405,0.0244616,1938,911,48.7434,-3.87859
721,113,48.7518,4.40845,-0.0010293,0.00250012,-0.000337162,0.00253204,-0.00106122,-1.4764,0.00213172,0.0240386,1945,911,48.7519,-4.40844
728,113,48.8268,5.01196,-0.001947,0.00270941,-0.000400423,0.00274359,-0.00198119,-1.48564,0.00273966,0.0249764,1952,911,48.8268,-5.01197
735,113,48.7183,5.51416,-0.00290753,0.00322481,-0.000608991,0.0032847,-0.00296743,-1.47276,0.00361121,0.0207074,1959,911,48.7182,-5.51415
742,113,48.6506,5.99121,-0.00424201,0.00430824,-0.000899215,0.00440179,-0.00433556,-1.46714,0.00504455,0.0125527,1966,911,48.6507,-5.99124
749,113,48.6838,6.50037,-0.00590839,0.00605228,-0.000867782,0.00611491,-0.00597102,-1.49875,0.00697798,0.00960421,1973,911,48.6838,-6.50036
756,113,48.6213,7.04498,-0.0076398,0.00837752,-0.000410687,0.00838804,-0.00765032,-1.54518,0.00926302,0.0141515,1980,911,48.6214,-7.04501
763,113,48.4437,7.65698,-0.00923733,0.0111999,0.000513678,0.0112128,-0.00925023,1.54568,0.0118324,0.0318706,1987,911,48.4437,-7.657
770,113,48.2753,8.26282,0,0,0,0,0,0,0,-1,1994,911,48.2752,-8.26283
777,113,50.1116,7.86353,0,0,0,0,0,0,0,-1,2001,911,50.1115,-7.86351
784,113,42.8354,6.22766,0,0,0,0,0,0,0,-1,2008,911,42.8355,-6.22766
791,113,41.7288,7.26263,0,0,0,0,0,0,0,-1,2015,911,41.7287,-7.26261
798,113,46.2527,8.20587,0,0,0,0,0,0,0,-1,2022,911,46.2528,-8.20587
805,113,0,0,0,0,0,0,0,0,0,-1,2029,911,0,0
812,113,0,0,0,0,0,0,0,0,0,-1,2036,911,0,0
-700,106,0,0,0,0,0,0,0,0,0,-1,524,918,0,0
-693,106,0,0,0,0,0,0,0,0,0,-1,531,918,0,0
-686,106,0,0,0,0,0,0,0,0,0,-1,538,918,0,0
-679,106,-37.4927,6.24719,0,0,0,0,0,0,0,-1,545,918,-37.4927,-6.24719
-672,106,-37.5139,5.78711,0,0,0,0,0,0,0,-1,552,918,-37.5139,-5.78713
-665,106,-36.685,3.31519,0,0,0,0,0,0,0,-1,559,918,-36.685,-3.31518
-658,106,-37.1077,3.81079,0,0,0,0,0,0,0,-1,566,918,-37.1077,-3.81079
-651,106,-36.5986,6.38763,0,0,0,0,0,0,0,-1,573,918,-36.5986,-6.38761
-644,106,-36.6605,5.8349,0.00709564,0.0286705,-0.0229619,0.0432528,-0.00748658,-1.005,0.0316275,0.048311,580,918,-36.6605,-5.8349
-637,106,-36.6641,5.33002,0.00198659,0.0216477,-0.0146851,0.0294889,-0.00585463,-1.08035,0.0218736,0.0342366,587,918,-36.6641,-5.33
-630,106,-36.9518,4.82263,-0.00121458,0.0157914,-0.00838525,0.0192305,-0.00465367,-1.18158,0.0146205,0.0158096,594,918,-36.9518,-4.82266
-623,106,-37.1012,4.25305,-0.00312862,0.0109365,-0.00391043,0.0119506,-0.00414269,-1.31706,0.00964908,0.0157471,601,918,-37.1012,-4.25304
-616,106,-37.1365,3.7749,-0.00519386,0.00657444,-3.43301e-06,0.00657444,-0.00519386,-1.5705,0.00681,0.0158053,608,918,-37.1365,-3.77491
-609,106,-37.115,3.34485,-0.00573238,0.0032381,0.00164271,0.00352946,-0.00602374,1.39526,0.00557785,0.0124535,615,918,-37.115,-3.34486
-602,106,-37.1163,2.8703,-0.0056342,0.00152709,0.00142116,0.00179881,-0.00590592,1.38188,0.00465423,0.019291,622,918,-37.1164,-2.8703
-595,106,-37.2482,2.42468,-0.00539761,0.000502048,0.00115351,0.000719565,-0.00561513,1.38442,0.00400488,0.0235865,629,918,-37.2482,-2.42468
-588,106,-37.2523,1.92029,-0.00501187,-0.000253453,0.00110173,-1.07447e-05,-0.00525458,1.35396,0.00349948,0.028997,636,918,-37.2523,-1.92031
-581,106,-37.0748,1.39136,-0.00466268,-0.000603679,0.0010588,-0.000344092,-0.00492227,1.33037,0.00317304,0.0178658,643,918,-37.0747,-1.39136
-574,106,-37.0789,0.903931,0,0,0,0,0,0,0,-1,650,918,-37.0788,-0.903936
-567,106,-36.2079,0.840881,0,0,0,0,0,0,0,-1,657,918,-36.208,-0.840858
-560,106,-40.8268,0.880127,0,0,0,0,0,0,0,-1,664,918,-40.8268,-0.880137
-553,106,-40.9007,0.842163,-0.00378627,-0.000961662,0.000772909,-0.000764,-0.00398393,1.32042,0.00244147,0.0370204,671,918,-40.9007,-0.842172
-546,106,-40.9722,0.741577,-0.00347681,-0.000684647,0.000808395,-0.000467488,-0.00369397,1.30836,0.00232255,0.0414312,678,918,-40.9722,-0.741587
-539,106,-40.9654,0.870361,-0.00276237,-0.000232548,0.000928066,7.13965e-05,-0.00306631,1.2543,0.00206842,0.0425767,685,918,-40.9654,-0.870375
-532,106,-40.9874,1.06982,-0.00136969,0.000373037,0.00112707,0.000926301,-0.00192296,1.11447,0.00167823,0.0413193,692,918,-40.9874,-1.06983
-525,106,-40.9807,0.999023,0.000197834,0.00109169,0.00134134,0.0020586,-0.000769079,0.94621,0.0016882,0.0385908,699,918,-40.9807,-0.999008
-518,106,-40.9131,0.94873,0.000529554,0.00200051,0.00108254,0.00257377,-4.37134e-05,1.08378,0.0017306,0.0395882,706,918,-40.9132,-0.948746
-511,106,0,0,0,0,0,0,0,0,0,-1,713,918,0,0
-504,106,0,0,0,0,0,0,0,0,0,-1,720,918,0,0
-497,106,0,0,0,0,0,0,0,0,0,-1,727,918,0,0
-490,106,0,0,0,0,0,0,0,0,0,-1,734,918,0,0
-483,106,0,0,0,0,0,0,0,0,0,-1,741,918,0,0
-476,106,0,0,0,0,0,0,0,0,0,-1,748,918,0,0
-469,106,0,0,0,0,0,0,0,0,0,-1,755,918,0,0
-462,106,0,0,0,0,0,0,0,0,0,-1,762,918,0,0
-455,106,0,0,0,0,0,0,0,0,0,-1,769,918,0,0
-448,106,0,0,0,0,0,0,0,0,0,-1,776,918,0,0
-441,106,0,0,0,0,0,0,0,0,0,-1,783,918,0,0
-434,106,0,0,0,0,0,0,0,0,0,-1,790,918,0,0
-427,106,0,0,0,0,0,0,0,0,0,-1,797,918,0,0
-420,106,0,0,0,0,0,0,0,0,0,-1,804,918,0,0
-413,106,0,0,0,0,0,0,0,0,0,-1,811,918,0,0
-406,106,0,0,0,0,0,0,0,0,0,-1,818,918,0,0
-399,106,0,0,0,0,0,0,0,0,0,-1,825,918,0,0
-392,106,0,0,0,0,0,0,0,0,0,-1,832,918,0,0
-385,106,0,0,0,0,0,0,0,0,0,-1,839,918,0,0
-378,106,0,0,0,0,0,0,0,0,0,-1,846,918,0,0
-371,106,0,0,0,0,0,0,0,0,0,-1,853,918,0,0
-364,106,0,0,0,0,0,0,0,0,0,-1,860,918,0,0
-357,106,0,0,0,0,0,0,0,0,0,-1,867,918,0,0
-350,106,0,0,0,0,0,0,0,0,0,-1,874,918,0,0
-343,106,0,0,0,0,0,0,0,0,0,-1,881,918,0,0
-336,106,0,0,0,0,0,0,0,0,0,-1,888,918,0,0
-329,106,0,0,0,0,0,0,0,0,0,-1,895,918,0,0
-322,106,0,0,0,0,0,0,0,0,0,-1,902,918,0,0
-315,106,0,0,0,0,0,0,0,0,0,-1,909,918,0,0
-308,106,0,0,0,0,0,0,0,0,0,-1,916,918,0,0
-301,106,0,0,0,0,0,0,0,0,0,-1,923,918,0,0
-294,106,0,0,0,0,0,0,0,0,0,-1,930,918,0,0
-287,106,0,0,0,0,0,0,0,0,0,-1,937,918,0,0
-280,106,0,0,0,0,0,0,0,0,0,-1,944,918,0,0
-273,106,0,0,0,0,0,0,0,0,0,-1,951,918,0,0
-266,106,0,0,0,0,0,0,0,0,0,-1,958,918,0,0
-259,106,0,0,0,0,0,0,0,0,0,-1,965,918,0,0
-252,106,0,0,0,0,0,0,0,0,0,-1,972,918,0,0
-245,106,0,0,0,0,0,0,0,0,0,-1,979,918,0,0
-238,106,0,0,0,0,0,0,0,0,0,-1,986,918,0,0
-231,106,0,0,0,0,0,0,0,0,0,-1,993,918,0,0
-224,106,0,0,0,0,0,0,0,0,0,-1,1000,918,0,0
-217,106,0,0,0,0,0,0,0,0,0,-1,1007,918,0,0
-210,106,0,0,0,0,0,0,0,0,0,-1,1014,918,0,0
-203,106,0,0,0,0,0,0,0,0,0,-1,1021,918,0,0
-196,106,0,0,0,0,0,0,0,0,0,-1,1028,918,0,0
-189,106,0,0,0,0,0,0,0,0,0,-1,1035,918,0,0
-182,106,0,0,0,0,0,0,0,0,0,-1,1042,918,0,0
-175,106,0,0,0,0,0,0,0,0,0,-1,1049,918,0,0
-168,106,0,0,0,0,0,0,0,0,0,-1,1056,918,0,0
-161,106,0,0,0,0,0,0,0,0,0,-1,1063,918,0,0
-154,106,0,0,0,0,0,0,0,0,0,-1,1070,918,0,0
-147,106,0,0,0,0,0,0,0,0,0,-1,1077,918,0,0
-140,106,0,0,0,0,0,0,0,0,0,-1,1084,918,0,0
-133,106,0,0,0,0,0,0,0,0,0,-1,1091,918,0,0
-126,106,0,0,0,0,0,0,0,0,0,-1,1098,918,0,0
-119,106,0,0,0,0,0,0,0,0,0,-1,1105,918,0,0
-112,106,0,0,0,0,0,0,0,0,0,-1,1112,918,0,0
-105,106,0,0,0,0,0,0,0,0,0,-1,1119,918,0,0
-98,106,0,0,0,0,0,0,0,0,0,-1,1126,918,0,0
-91,106,0,0,0,0,0,0,0,0,0,-1,1133,918,0,0
-84,106,0,0,0,0,0,0,0,0,0,-1,1140,918,0,0
-77,106,0,0,0,0,0,0,0,0,0,-1,1147,918,0,0
-70,106,0,0,0,0,0,0,0,0,0,-1,1154,918,0,0
-63,106,0,0,0,0,0,0,0,0,0,-1,1161,918,0,0
-56,106,0,0,0,0,0,0,0,0,0,-1,1168,918,0,0
-49,106,0,0,0,0,0,0,0,0,0,-1,1175,918,0,0
-42,106,0,0,0,0,0,0,0,0,0,-1,1182,918,0,0
-35,106,0,0,0,0,0,0,0,0,0,-1,1189,918,0,0
-28,106,0,0,0,0,0,0,0,0,0,-1,1196,918,0,0
-21,106,0,0,0,0,0,0,0,0,0,-1,1203,918,0,0
-14,106,0,0,0,0,0,0,0,0,0,-1,1210,918,0,0
-7,106,0,0,0,0,0,0,0,0,0,-1,1217,918,0,0
0,106,0,0,0,0,0,0,0,0,0,-1,1224,918,0,0
7,106,0,0,0,0,0,0,0,0,0,-1,1231,918,0,0
14,106,0,0,0,0,0,0,0,0,0,-1,1238,918,0,0
21,106,0,0,0,0,0,0,0,0,0,-1,1245,918,0,0
28,106,0,0,0,0,0,0,0,0,0,-1,1252,918,0,0
35,106,0,0,0,0,0,0,0,0,0,-1,1259,918,0,0
42,106,0,0,0,0,0,0,0,0,0,-1,1266,918,0,0
49,106,0,0,0,0,0,0,0,0,0,-1,1273,918,0,0
56,106,0,0,0,0,0,0,0,0,0,-1,1280,918,0,0
63,106,0,0,0,0,0,0,0,0,0,-1,1287,918,0,0
70,106,0,0,0,0,0,0,0,0,0,-1,1294,918,0,0
77,106,0,0,0,0,0,0,0,0,0,-1,1301,918,0,0
84,106,0,0,0,0,0,0,0,0,0,-1,1308,918,0,0
91,106,0,0,0,0,0,0,0,0,0,-1,1315,918,0,0
98,106,0,0,0,0,0,0,0,0,0,-1,1322,918,0,0
105,106,0,0,0,0,0,0,0,0,0,-1,1329,918,0,0
112,106,0,0,0,0,0,0,0,0,0,-1,1336,918,0,0
119,106,0,0,0,0,0,0,0,0,0,-1,1343,918,0,0
126,106,0,0,0,0,0,0,0,0,0,-1,1350,918,0,0
133,106,0,0,0,0,0,0,0,0,0,-1,1357,918,0,0
140,106,0,0,0,0,0,0,0,0,0,-1,1364,918,0,0
147,106,0,0,0,0,0,0,0,0,0,-1,1371,918,0,0
154,106,0,0,0,0,0,0,0,0,0,-1,1378,918,0,0
161,106,0,0,0,0,0,0,0,0,0,-1,1385,918,0,0
168,106,0,0,0,0,0,0,0,0,0,-1,1392,918,0,0
175,106,0,0,0,0,0,0,0,0,0,-1,1399,918,0,0
182,106,0,0,0,0,0,0,0,0,0,-1,1406,918,0,0
189,106,0,0,0,0,0,0,0,0,0,-1,1413,918,0,0
196,106,0,0,0,0,0,0,0,0,0,-1,1420,918,0,0
203,106,0,0,0,0,0,0,0,0,0,-1,1427,918,0,0
210,106,0,0,0,0,0,0,0,0,0,-1,1434,918,0,0
217,106,0,0,0,0,0,0,0,0,0,-1,1441,918,0,0
224,106,0,0,0,0,0,0,0,0,0,-1,1448,918,0,0
231,106,0,0,0,0,0,0,0,0,0,-1,1455,918,0,0
238,106,0,0,0,0,0,0,0,0,0,-1,1462,918,0,0
245,106,0,0,0,0,0,0,0,0,0,-1,1469,918,0,0
252,106,0,0,0,0,0,0,0,0,0,-1,1476,918,0,0
259,106,0,0,0,0,0,0,0,0,0,-1,1483,918,0,0
266,106,0,0,0,0,0,0,0,0,0,-1,1490,918,0,0
273,106,0,0,0,0,0,0,0,0,0,-1,1497,918,0,0
280,106,0,0,0,0,0,0,0,0,0,-1,1504,918,0,0
287,106,0,0,0,0,0,0,0,0,0,-1,1511,918,0,0
294,106,0,0,0,0,0,0,0,0,0,-1,1518,918,0,0
301,106,0,0,0,0,0,0,0,0,0,-1,1525,918,0,0
308,106,0,0,0,0,0,0,0,0,0,-1,1532,918,0,0
315,106,0,0,0,0,0,0,0,0,0,-1,1539,918,0,0
322,106,0,0,0,0,0,0,0,0,0,-1,1546,918,0,0
329,106,0,0,0,0,0,0,0,0,0,-1,1553,918,0,0
336,106,0,0,0,0,0,0,0,0,0,-1,1560,918,0,0
343,106,0,0,0,0,0,0,0,0,0,-1,1567,918,0,0
350,106,0,0,0,0,0,0,0,0,0,-1,1574,918,0,0
357,106,0,0,0,0,0,0,0,0,0,-1,1581,918,0,0
364,106,0,0,0,0,0,0,0,0,0,-1,1588,918,0,0
371,106,0,0,0,0,0,0,0,0,0,-1,1595,918,0,0
378,106,0,0,0,0,0,0,0,0,0,-1,1602,918,0,0
385,106,0,0,0,0,0,0,0,0,0,-1,1609,918,0,0
392,106,0,0,0,0,0,0,0,0,0,-1,1616,918,0,0
399,106,0,0,0,0,0,0,0,0,0,-1,1623,918,0,0
406,106,0,0,0,0,0,0,0,0,0,-1,1630,918,0,0
413,106,0,0,0,0,0,0,0,0,0,-1,1637,918,0,0
420,106,0,0,0,0,0,0,0,0,0,-1,1644,918,0,0
427,106,0,0,0,0,0,0,0,0,0,-1,1651,918,0,0
434,106,0,0,0,0,0,0,0,0,0,-1,1658,918,0,0
441,106,0,0,0,0,0,0,0,0,0,-1,1665,918,0,0
448,106,0,0,0,0,0,0,0,0,0,-1,1672,918,0,0
455,106,0,0,0,0,0,0,0,0,0,-1,1679,918,0,0
462,106,0,0,0,0,0,0,0,0,0,-1,1686,918,0,0
469,106,0,0,0,0,0,0,0,0,0,-1,1693,918,0,0
476,106,0,0,0,0,0,0,0,0,0,-1,1700,918,0,0
483,106,0,0,0,0,0,0,0,0,0,-1,1707,918,0,0
490,106,0,0,0,0,0,0,0,0,0,-1,1714,918,0,0
497,106,0,0,0,0,0,0,0,0,0,-1,1721,918,0,0
504,106,0,0,0,0,0,0,0,0,0,-1,1728,918,0,0
511,106,0,0,0,0,0,0,0,0,0,-1,1735,918,0,0
518,106,0,0,0,0,0,0,0,0,0,-1,1742,918,0,0
525,106,0,0,0,0,0,0,0,0,0,-1,1749,918,0,0
532,106,0,0,0,0,0,0,0,0,0,-1,1756,918,0,0
539,106,0,0,0,0,0,0,0,0,0,-1,1763,918,0,0
546,106,0,0,0,0,0,0,0,0,0,-1,1770,918,0,0
553,106,0,0,0,0,0,0,0,0,0,-1,1777,918,0,0
560,106,0,0,0,0,0,0,0,0,0,-1,1784,918,0,0
567,106,0,0,0,0,0,0,0,0,0,-1,1791,918,0,0
574,106,0,0,0,0,0,0,0,0,0,-1,1798,918,0,0
581,106,0,0,0,0,0,0,0,0,0,-1,1805,918,0,0
588,106,0,0,0,0,0,0,0,0,0,-1,1812,918,0,0
595,106,0,0,0,0,0,0,0,0,0,-1,1819,918,0,0
602,106,0,0,0,0,0,0,0,0,0,-1,1826,918,0,0
609,106,0,0,0,0,0,0,0,0,0,-1,1833,918,0,0
616,106,0,0,0,0,0,0,0,0,0,-1,1840,918,0,0
623,106,0,0,0,0,0,0,0,0,0,-1,1847,918,0,0
630,106,54.3379,2.81592,-0.0110239,0.00313017,-0.000655679,0.00316048,-0.0110542,-1.5246,0.00861835,0.0418679,1854,918,54.3379,-2.81593
637,106,54.2404,3.02197,-0.00820886,0.00244951,-0.000609336,0.00248423,-0.00824359,-1.51387,0.00648441,0.0394498,1861,918,54.2404,-3.02199
644,106,54.2551,2.80939,-0.00604866,0.00202137,-0.000568877,0.00206127,-0.00608856,-1.50077,0.00489306,0.0365597,1868,918,54.2551,-2.80938
651,106,54.1241,2.68774,-0.00422163,0.00182352,-0.000476148,0.00186079,-0.0042589,-1.49267,0.00362251,0.0387731,1875,918,54.1241,-2.68777
658,106,54.0511,2.8443,-0.00266179,0.00188753,-0.000247209,0.00190092,-0.00267518,-1.51667,0.00265459,0.043005,1882,918,54.0512,-2.84431
665,106,53.9967,3.04858,-0.00136237,0.00218048,3.37458e-05,0.0021808,-0.00136269,1.56127,0.00206393,0.0419145,1889,918,53.9967,-3.04861
672,106,54.0671,3.05609,-0.000641474,0.00226465,0.00032199,0.0022999,-0.000676722,1.46176,0.00180171,0.0392,1896,918,54.0671,-3.0561
679,106,54.1035,2.90076,-0.000217023,0.00218136,0.000573028,0.00231123,-0.000346899,1.34791,0.00166852,0.0348925,1903,918,54.1035,-2.90077
686,106,54.1812,2.78906,3.95553e-05,0.00204655,0.000679528,0.00225498,-0.000168874,1.27318,0.00156266,0.0296867,1910,918,54.1812,-2.78907
693,106,54.0723,2.85394,0.000230915,0.00202379,0.000573559,0.00219158,6.31298e-05,1.2862,0.00144047,0.0340509,1917,918,54.0722,-2.85395
700,106,54.0375,2.95557,0,0,0,0,0,0,0,-1,1924,918,54.0375,-2.95559
707,106,49.2242,3.26709,0,0,0,0,0,0,0,-1,1931,918,49.2243,-3.26708
714,106,49.3644,3.83191,-0.000603551,0.00241772,5.75597e-05,0.00241881,-0.000604647,1.55175,0.00184737,0.0392629,1938,918,49.3644,-3.83191
721,106,49.3535,4.46234,-0.00126997,0.00256463,-3.74631e-05,0.002565,-0.00127033,-1.56103,0.00225599,0.0298075,1945,918,49.3536,-4.46231
728,106,49.3916,5.0481,-0.0022031,0.0028077,-8.88687e-05,0.00280927,-0.00220468,-1.55307,0.00290181,0.0291265,1952,918,49.3916,-5.04809
735,106,49.3022,5.53339,-0.00308296,0.0034402,-0.00033408,0.00345727,-0.00310003,-1.51976,0.00378773,0.0253399,1959,918,49.3022,-5.53338
742,106,49.2252,5.98785,-0.00430673,0.00466396,-0.000689533,0.00471665,-0.00435942,-1.49453,0.00524143,0.0125748,1966,918,49.2252,-5.98788
749,106,49.2223,6.48553,-0.00586084,0.00666952,-0.000699664,0.00670846,-0.00589979,-1.51519,0.00728437,0.00998626,1973,918,49.2223,-6.48551
756,106,49.1697,6.97546,-0.00746984,0.00939596,-0.00019765,0.00939827,-0.00747216,-1.55908,0.00976129,0.013268,1980,918,49.1697,-6.97549
763,106,49.0471,7.58588,-0.00894343,0.0126093,0.000816513,0.0126402,-0.00897432,1.53298,0.0125388,0.0272436,1987,918,49.0472,-7.58587
770,106,48.8389,7.93585,-0.010049,0.0163328,0.0022171,0.0165178,-0.010234,1.48754,0.0155866,0.0498498,1994,918,48.8388,-7.93586
777,106,48.7217,8.2168,0,0,0,0,0,0,0,-1,2001,918,48.7216,-8.21677
784,106,48.8225,9.39197,0,0,0,0,0,0,0,-1,2008,918,48.8225,-9.39194
791,106,46.7073,9.83844,0,0,0,0,0,0,0,-1,2015,918,46.7073,-9.83841
798,106,47.1345,8.55341,0,0,0,0,0,0,0,-1,2022,918,47.1345,-8.55342
805,106,0,0,0,0,0,0,0,0,0,-1,2029,918,0,0
812,106,0,0,0,0,0,0,0,0,0,-1,2036,918,0,0
-700,99,0,0,0,0,0,0,0,0,0,-1,524,925,0,0
-693,99,0,0,0,0,0,0,0,0,0,-1,531,925,0,0
-686,99,0,0,0,0,0,0,0,0,0,-1,538,925,0,0
-679,99,-37.1939,6.85681,0,0,0,0,0,0,0,-1,545,925,-37.1939,-6.85679
-672,99,-36.9243,6.0589,0,0,0,0,0,0,0,-1,552,925,-36.9243,-6.05893
-665,99,-36.7789,5.33221,0,0,0,0,0,0,0,-1,559,925,-36.7789,-5.33223
-658,99,-36.8165,4.83752,0,0,0,0,0,0,0,-1,566,925,-36.8164,-4.83751
-651,99,-36.6788,6.02429,0,0,0,0,0,0,0,-1,573,925,-36.6788,-6.02431
-644,99,-36.948,5.65997,-0.000153402,0.0291129,-0.0165012,0.0365347,-0.00757515,-1.14813,0.027235,0.0457773,580,925,-36.948,-5.65996
-637,99,-37.2383,5.2179,-0.00295626,0.0216159,-0.0101285,0.0252526,-0.00659296,-1.22608,0.0194096,0.030628,587,925,-37.2383,-5.21787
-630,99,-37.4538,4.75824,-0.0043341,0.0155673,-0.00525866,0.0168713,-0.00563818,-1.32771,0.0135245,0.0167803,594,925,-37.4538,-4.75827
-623,99,-37.6284,4.25031,-0.00508639,0.010856,-0.00186512,0.0110713,-0.00530169,-1.45587,0.00964658,0.0114286,601,925,-37.6284,-4.25033
-616,99,-37.6454,3.78802,-0.00623416,0.00671513,0.000919285,0.00678006,-0.0062991,1.50028,0.00755296,0.0132048,608,925,-37.6454,-3.78805
-609,99,-37.6302,3.35956,-0.00643975,0.0035723,0.0018341,0.00389771,-0.00676516,1.3952,0.00622997,0.0117943,615,925,-37.6302,-3.35953
-602,99,-37.612,2.94446,-0.00633718,0.0018094,0.00129353,0.00200986,-0.00653764,1.41705,0.00516053,0.0158564,622,925,-37.612,-2.94449
-595,99,-37.7191,2.50629,-0.00617374,0.000779234,0.000891346,0.000891683,-0.00628619,1.4453,0.00451745,0.0213113,629,925,-37.7191,-2.50629
-588,99,-37.7211,2.01959,-0.00586598,-1.63339e-05,0.0008132,9.46103e-05,-0.00597693,1.4352,0.00401653,0.02373,636,925,-37.7211,-2.01961
-581,99,-37.6788,1.45459,-0.00553857,-0.000346838,0.00073622,-0.000244456,-0.00564095,1.43262,0.00368186,0.019174,643,925,-37.6788,-1.45456
-574,99,-37.7655,0.915527,0,0,0,0,0,0,0,-1,650,925,-37.7655,-0.915521
-567,99,-40.8078,0.810974,0,0,0,0,0,0,0,-1,657,925,-40.8078,-0.811003
-560,99,-40.7994,0.812439,-0.00482578,-0.00071283,0.000330577,-0.000686429,-0.00485218,1.4911,0.00303199,0.0468446,664,925,-40.7994,-0.812426
-553,99,-40.8662,0.975403,-0.00453992,-0.000553909,0.000272558,-0.000535358,-0.00455847,1.50284,0.00287718,0.0369644,671,925,-40.8662,-0.975398
-546,99,-40.8968,0.961487,-0.003935,-0.000165129,0.000285883,-0.000143573,-0.00395655,1.49554,0.00259117,0.043079,678,925,-40.8968,-0.961461
-539,99,-40.9523,0.978149,-0.00276855,0.000441858,0.000370315,0.000484019,-0.00281071,1.45743,0.00205424,0.0431918,685,925,-40.9524,-0.978156
-532,99,-40.9298,1.06805,-0.000808683,0.00125296,0.00050052,0.00136805,-0.000923773,1.34478,0.00133145,0.0432651,692,925,-40.9298,-1.06803
-525,99,-40.939,0.997375,0.0011727,0.0023231,0.000476726,0.00249498,0.00100082,1.22477,0.00144983,0.0414947,699,925,-40.939,-0.997392
-518,99,-40.7664,1.10828,0.00124918,0.00381588,-6.10483e-05,0.00381733,0.00124773,-1.54703,0.00224755,0.0406106,706,925,-40.7664,-1.1083
-511,99,0,0,0,0,0,0,0,0,0,-1,713,925,0,0
-504,99,0,0,0,0,0,0,0,0,0,-1,720,925,0,0
-497,99,0,0,0,0,0,0,0,0,0,-1,727,925,0,0
-490,99,0,0,0,0,0,0,0,0,0,-1,734,925,0,0
-483,99,0,0,0,0,0,0,0,0,0,-1,741,925,0,0
-476,99,0,0,0,0,0,0,0,0,0,-1,748,925,0,0
-469,99,0,0,0,0,0,0,0,0,0,-1,755,925,0,0
-462,99,0,0,0,0,0,0,0,0,0,-1,762,925,0,0
-455,99,0,0,0,0,0,0,0,0,0,-1,769,925,0,0
-448,99,0,0,0,0,0,0,0,0,0,-1,776,925,0,0
-441,99,0,0,0,0,0,0,0,0,0,-1,783,925,0,0
-434,99,0,0,0,0,0,0,0,0,0,-1,790,925,0,0
-427,99,0,0,0,0,0,0,0,0,0,-1,797,925,0,0
-420,99,0,0,0,0,0,0,0,0,0,-1,804,925,0,0
-413,99,0,0,0,0,0,0,0,0,0,-1,811,925,0,0
-406,99,0,0,0,0,0,0,0,0,0,-1,818,925,0,0
-399,99,0,0,0,0,0,0,0,0,0,-1,825,925,0,0
-392,99,0,0,0,0,0,0,0,0,0,-1,832,925,0,0
-385,99,0,0,0,0,0,0,0,0,0,-1,839,925,0,0
-378,99,0,0,0,0,0,0,0,0,0,-1,846,925,0,0
-371,99,0,0,0,0,0,0,0,0,0,-1,853,925,0,0
-364,99,0,0,0,0,0,0,0,0,0,-1,860,925,0,0
-357,99,0,0,0,0,0,0,0,0,0,-1,867,925,0,0
-350,99,0,0,0,0,0,0,0,0,0,-1,874,925,0,0
-343,99,0,0,0,0,0,0,0,0,0,-1,881,925,0,0
-336,99,0,0,0,0,0,0,0,0,0,-1,888,925,0,0
-329,99,0,0,0,0,0,0,0,0,0,-1,895,925,0,0
-322,99,0,0,0,0,0,0,0,0,0,-1,902,925,0,0
-315,99,0,0,0,0,0,0,0,0,0,-1,909,925,0,0
-308,99,0,0,0,0,0,0,0,0,0,-1,916,925,0,0
-301,99,0,0,0,0,0,0,0,0,0,-1,923,925,0,0
-294,99,0,0,0,0,0,0,0,0,0,-1,930,925,0,0
-287,99,0,0,0,0,0,0,0,0,0,-1,937,925,0,0
-280,99,0,0,0,0,0,0,0,0,0,-1,944,925,0,0
-273,99,0,0,0,0,0,0,0,0,0,-1,951,925,0,0
-266,99,0,0,0,0,0,0,0,0,0,-1,958,925,0,0
-259,99,0,0,0,0,0,0,0,0,0,-1,965,925,0,0
-252,99,0,0,0,0,0,0,0,0,0,-1,972,925,0,0
-245,99,0,0,0,0,0,0,0,0,0,-1,979,925,0,0
-238,99,0,0,0,0,0,0,0,0,0,-1,986,925,0,0
-231,99,0,0,0,0,0,0,0,0,0,-1,993,925,0,0
-224,99,0,0,0,0,0,0,0,0,0,-1,1000,925,0,0
-217,99,0,0,0,0,0,0,0,0,0,-1,1007,925,0,0
-210,99,0,0,0,0,0,0,0,0,0,-1,1014,925,0,0
-203,99,0,0,0,0,0,0,0,0,0,-1,1021,925,0,0
-196,99,0,0,0,0,0,0,0,0,0,-1,1028,925,0,0
-189,99,0,0,0,0,0,0,0,0,0,-1,1035,925,0,0
-182,99,0,0,0,0,0,0,0,0,0,-1,1042,925,0,0
-175,99,0,0,0,0,0,0,0,0,0,-1,1049,925,0,0
-168,99,0,0,0,0,0,0,0,0,0,-1,1056,925,0,0
-161,99,0,0,0,0,0,0,0,0,0,-1,1063,925,0,0
-154,99,0,0,0,0,0,0,0,0,0,-1,1070,925,0,0
-147,99,0,0,0,0,0,0,0,0,0,-1,1077,925,0,0
-140,99,0,0,0,0,0,0,0,0,0,-1,1084,925,0,0
-133,99,0,0,0,0,0,0,0,0,0,-1,1091,925,0,0
-126,99,0,0,0,0,0,0,0,0,0,-1,1098,925,0,0
-119,99,0,0,0,0,0,0,0,0,0,-1,1105,925,0,0
-112,99,0,0,0,0,0,0,0,0,0,-1,1112,925,0,0
-105,99,0,0,0,0,0,0,0,0,0,-1,1119,925,0,0
-98,99,0,0,0,0,0,0,0,0,0,-1,1126,925,0,0
-91,99,0,0,0,0,0,0,0,0,0,-1,1133,925,0,0
-84,99,0,0,0,0,0,0,0,0,0,-1,1140,925,0,0
-77,99,0,0,0,0,0,0,0,0,0,-1,1147,925,0,0
-70,99,0,0,0,0,0,0,0,0,0,-1,1154,925,0,0
-63,99,0,0,0,0,0,0,0,0,0,-1,1161,925,0,0
-56,99,0,0,0,0,0,0,0,0,0,-1,1168,925,0,0
-49,99,0,0,0,0,0,0,0,0,0,-1,1175,925,0,0
-42,99,0,0,0,0,0,0,0,0,0,-1,1182,925,0,0
-35,99,0,0,0,0,0,0,0,0,0,-1,1189,925,0,0
-28,99,0,0,0,0,0,0,0,0,0,-1,1196,925,0,0
-21,99,0,0,0,0,0,0,0,0,0,-1,1203,925,0,0
-14,99,0,0,0,0,0,0,0,0,0,-1,1210,925,0,0
-7,99,0,0,0,0,0,0,0,0,0,-1,1217,925,0,0
0,99,0,0,0,0,0,0,0,0,0,-1,1224,925,0,0
7,99,0,0,0,0,0,0,0,0,0,-1,1231,925,0,0
14,99,0,0,0,0,0,0,0,0,0,-1,1238,925,0,0
21,99,0,0,0,0,0,0,0,0,0,-1,1245,925,0,0
28,99,0,0,0,0,0,0,0,0,0,-1,1252,925,0,0
35,99,0,0,0,0,0,0,0,0,0,-1,1259,925,0,0
42,99,0,0,0,0,0,0,0,0,0,-1,1266,925,0,0
49,99,0,0,0,0,0,0,0,0,0,-1,1273,925,0,0
56,99,0,0,0,0,0,0,0,0,0,-1,1280,925,0,0
63,99,0,0,0,0,0,0,0,0,0,-1,1287,925,0,0
70,99,0,0,0,0,0,0,0,0,0,-1,1294,925,0,0
77,99,0,0,0,0,0,0,0,0,0,-1,1301,925,0,0
84,99,0,0,0,0,0,0,0,0,0,-1,1308,925,0,0
91,99,0,0,0,0,0,0,0,0,0,-1,1315,925,0,0
98,99,0,0,0,0,0,0,0,0,0,-1,1322,925,0,0
105,99,0,0,0,0,0,0,0,0,0,-1,1329,925,0,0
112,99,0,0,0,0,0,0,0,0,0,-1,1336,925,0,0
119,99,0,0,0,0,0,0,0,0,0,-1,1343,925,0,0
126,99,0,0,0,0,0,0,0,0,0,-1,1350,925,0,0
133,99,0,0,0,0,0,0,0,0,0,-1,1357,925,0,0
140,99,0,0,0,0,0,0,0,0,0,-1,1364,925,0,0
147,99,0,0,0,0,0,0,0,0,0,-1,1371,925,0,0
154,99,0,0,0,0,0,0,0,0,0,-1,1378,925,0,0
161,99,0,0,0,0,0,0,0,0,0,-1,1385,925,0,0
168,99,0,0,0,0,0,0,0,0,0,-1,1392,925,0,0
175,99,0,0,0,0,0,0,0,0,0,-1,1399,925,0,0
182,99,0,0,0,0,0,0,0,0,0,-1,1406,925,0,0
189,99,0,0,0,0,0,0,0,0,0,-1,1413,925,0,0
196,99,0,0,0,0,0,0,0,0,0,-1,1420,925,0,0
203,99,0,0,0,0,0,0,0,0,0,-1,1427,925,0,0
210,99,0,0,0,0,0,0,0,0,0,-1,1434,925,0,0
217,99,0,0,0,0,0,0,0,0,0,-1,1441,925,0,0
224,99,0,0,0,0,0,0,0,0,0,-1,1448,925,0,0
231,99,0,0,0,0,0,0,0,0,0,-1,1455,925,0,0
238,99,0,0,0,0,0,0,0,0,0,-1,1462,925,0,0
245,99,0,0,0,0,0,0,0,0,0,-1,1469,925,0,0
252,99,0,0,0,0,0,0,0,0,0,-1,1476,925,0,0
259,99,0,0,0,0,0,0,0,0,0,-1,1483,925,0,0
266,99,0,0,0,0,0,0,0,0,0,-1,1490,925,0,0
273,99,0,0,0,0,0,0,0,0,0,-1,1497,925,0,0
280,99,0,0,0,0,0,0,0,0,0,-1,1504,925,0,0
287,99,0,0,0,0,0,0,0,0,0,-1,1511,925,0,0
294,99,0,0,0,0,0,0,0,0,0,-1,1518,925,0,0
301,99,0,0,0,0,0,0,0,0,0,-1,1525,925,0,0
308,99,0,0,0,0,0,0,0,0,0,-1,1532,925,0,0
315,99,0,0,0,0,0,0,0,0,0,-1,1539,925,0,0
322,99,0,0,0,0,0,0,0,0,0,-1,1546,925,0,0
329,99,0,0,0,0,0,0,0,0,0,-1,1553,925,0,0
336,99,0,0,0,0,0,0,0,0,0,-1,1560,925,0,0
343,99,0,0,0,0,0,0,0,0,0,-1,1567,925,0,0
350,99,0,0,0,0,0,0,0,0,0,-1,1574,925,0,0
357,99,0,0,0,0,0,0,0,0,0,-1,1581,925,0,0
364,99,0,0,0,0,0,0,0,0,0,-1,1588,925,0,0
371,99,0,0,0,0,0,0,0,0,0,-1,1595,925,0,0
378,99,0,0,0,0,0,0,0,0,0,-1,1602,925,0,0
385,99,0,0,0,0,0,0,0,0,0,-1,1609,925,0,0
392,99,0,0,0,0,0,0,0,0,0,-1,1616,925,0,0
399,99,0,0,0,0,0,0,0,0,0,-1,1623,925,0,0
406,99,0,0,0,0,0,0,0,0,0,-1,1630,925,0,0
413,99,0,0,0,0,0,0,0,0,0,-1,1637,925,0,0
420,99,0,0,0,0,0,0,0,0,0,-1,1644,925,0,0
427,99,0,0,0,0,0,0,0,0,0,-1,1651,925,0,0
434,99,0,0,0,0,0,0,0,0,0,-1,1658,925,0,0
441,99,0,0,0,0,0,0,0,0,0,-1,1665,925,0,0
448,99,0,0,0,0,0,0,0,0,0,-1,1672,925,0,0
455,99,0,0,0,0,0,0,0,0,0,-1,1679,925,0,0
462,99,0,0,0,0,0,0,0,0,0,-1,1686,925,0,0
469,99,0,0,0,0,0,0,0,0,0,-1,1693,925,0,0
476,99,0,0,0,0,0,0,0,0,0,-1,1700,925,0,0
483,99,0,0,0,0,0,0,0,0,0,-1,1707,925,0,0
490,99,0,0,0,0,0,0,0,0,0,-1,1714,925,0,0
497,99,0,0,0,0,0,0,0,0,0,-1,1721,925,0,0
504,99,0,0,0,0,0,0,0,0,0,-1,1728,925,0,0
511,99,0,0,0,0,0,0,0,0,0,-1,1735,925,0,0
518,99,0,0,0,0,0,0,0,0,0,-1,1742,925,0,0
525,99,0,0,0,0,0,0,0,0,0,-1,1749,925,0,0
532,99,0,0,0,0,0,0,0,0,0,-1,1756,925,0,0
539,99,0,0,0,0,0,0,0,0,0,-1,1763,925,0,0
546,99,0,0,0,0,0,0,0,0,0,-1,1770,925,0,0
553,99,0,0,0,0,0,0,0,0,0,-1,1777,925,0,0
560,99,0,0,0,0,0,0,0,0,0,-1,1784,925,0,0
567,99,0,0,0,0,0,0,0,0,0,-1,1791,925,0,0
574,99,0,0,0,0,0,0,0,0,0,-1,1798,925,0,0
581,99,0,0,0,0,0,0,0,0,0,-1,1805,925,0,0
588,99,0,0,0,0,0,0,0,0,0,-1,1812,925,0,0
595,99,0,0,0,0,0,0,0,0,0,-1,1819,925,0,0
602,99,0,0,0,0,0,0,0,0,0,-1,1826,925,0,0
609,99,0,0,0,0,0,0,0,0,0,-1,1833,925,0,0
616,99,0,0,0,0,0,0,0,0,0,-1,1840,925,0,0
623,99,0,0,0,0,0,0,0,0,0,-1,1847,925,0,0
630,99,0,0,0,0,0,0,0,0,0,-1,1854,925,0,0
637,99,54.3943,2.76147,-0.00888299,0.00274954,-0.000234286,0.00275425,-0.0088877,-1.55067,0.00702555,0.0407999,1861,925,54.3943,-2.7615
644,99,54.1741,2.83429,-0.00657051,0.00245669,-0.00044012,0.00247809,-0.00659192,-1.5222,0.00541314,0.0380106,1868,925,54.1741,-2.83426
651,99,53.9747,2.91351,-0.004631,0.00234624,-0.000489598,0.00238043,-0.00466519,-1.50108,0.00413847,0.0406712,1875,925,53.9747,-2.91352
658,99,53.9799,3.00348,-0.00297676,0.00243389,-0.000326432,0.00245351,-0.00299638,-1.51076,0.00315169,0.0438268,1882,925,53.9799,-3.00347
665,99,54.0228,2.95593,-0.00157122,0.00273805,-2.2761e-06,0.00273805,-0.00157122,-1.57027,0.00251818,0.0427207,1889,925,54.0228,-2.95594
672,99,54.0775,2.9964,-0.000803417,0.0028071,0.000377715,0.00284619,-0.000842508,1.46767,0.00223195,0.0404679,1896,925,54.0776,-2.99639
679,99,54.1135,2.93726,-0.000377092,0.00265261,0.000731738,0.00282008,-0.000544565,1.3458,0.00208541,0.0386168,1903,925,54.1135,-2.93727
686,99,54.0715,2.73273,-8.92752e-05,0.00242449,0.000895279,0.00271075,-0.000375532,1.26133,0.00194447,0.0319772,1910,925,54.0715,-2.73276
693,99,54.1346,2.85297,0.000135406,0.00230816,0.000804849,0.00257382,-0.000130251,1.25199,0.0017609,0.0311385,1917,925,54.1347,-2.853
700,99,54.0735,2.96802,0,0,0,0,0,0,0,-1,1924,925,54.0734,-2.96804
707,99,47.9915,3.27429,0,0,0,0,0,0,0,-1,1931,925,47.9914,-3.27427
714,99,50.0061,3.83282,0,0,0,0,0,0,0,-1,1938,925,50.0061,-3.83281
721,99,49.8577,4.41211,-0.00159087,0.00266311,0.000188048,0.00267141,-0.00159916,1.52671,0.00249139,0.0331654,1945,925,49.8577,-4.41211
728,99,49.8867,4.96338,-0.00250036,0.00293659,0.000128395,0.00293962,-0.00250339,1.5472,0.00314588,0.0264935,1952,925,49.8868,-4.96341
735,99,49.8605,5.50653,-0.00326943,0.00366385,-0.000184631,0.00366876,-0.00327435,-1.54419,0.00401076,0.0220605,1959,925,49.8605,-5.50651
742,99,49.7968,6.00861,-0.00437574,0.00496834,-0.000642797,0.00501235,-0.00441975,-1.50243,0.00544921,0.01412,1966,925,49.7967,-6.00862
749,99,49.7485,6.48474,-0.0057841,0.00721603,-0.000783625,0.0072631,-0.00583117,-1.51081,0.00757503,0.0127693,1973,925,49.7486,-6.48472
756,99,49.7032,6.9176,-0.00720922,0.0103324,-0.000422864,0.0103426,-0.00721941,-1.54671,0.0101927,0.0137658,1980,925,49.7033,-6.91761
763,99,49.6362,7.38373,-0.00850056,0.0140472,0.000466813,0.0140569,-0.00851022,1.5501,0.0131596,0.0171213,1987,925,49.6362,-7.38373
770,99,49.547,7.96344,-0.00938804,0.0182995,0.00168123,0.0184012,-0.00948975,1.51037,0.0163746,0.0314688,1994,925,49.547,-7.96347
777,99,49.4355,8.58093,-0.0101533,0.0230981,0.00348903,0.0234603,-0.0105155,1.46737,0.0200849,0.045142,2001,925,49.4356,-8.58094
784,99,49.3647,9.17511,-0.00984981,0.0284251,0.00602011,0.0293496,-0.0107744,1.41841,0.0239788,0.0483813,2008,925,49.3647,-9.17512
791,99,49.3125,9.73199,0,0,0,0,0,0,0,-1,2015,925,49.3124,-9.73197
798,99,48.709,9.64752,0,0,0,0,0,0,0,-1,2022,925,48.709,-9.6475
805,99,0,0,0,0,0,0,0,0,0,-1,2029,925,0,0
812,99,0,0,0,0,0,0,0,0,0,-1,2036,925,0,0
-700,92,0,0,0,0,0,0,0,0,0,-1,524,932,0,0
-693,92,0,0,0,0,0,0,0,0,0,-1,531,932,0,0
-686,92,-34.5612,6.47443,0,0,0,0,0,0,0,-1,538,932,-34.5612,-6.47445
-679,92,-34.8826,5.99414,0,0,0,0,0,0,0,-1,545,932,-34.8826,-5.99411
-672,92,-35.9822,6.14148,0,0,0,0,0,0,0,-1,552,932,-35.9823,-6.14149
-665,92,-36.5334,5.59131,0,0,0,0,0,0,0,-1,559,932,-36.5334,-5.59134
-658,92,-36.5793,5.17944,0,0,0,0,0,0,0,-1,566,932,-36.5793,-5.17946
-651,92,-37.2581,5.59613,0,0,0,0,0,0,0,-1,573,932,-37.2581,-5.5961
-644,92,-37.5768,5.40295,-0.0079316,0.0299054,-0.00920879,0.0320277,-0.0100538,-1.3443,0.0253758,0.0435247,580,932,-37.5768,-5.40294
-637,92,-37.9176,5.11395,-0.00772653,0.0216869,-0.00523719,0.0225916,-0.00863121,-1.39974,0.0186175,0.0272911,587,932,-37.9176,-5.11398
-630,92,-37.9837,4.64563,-0.00700028,0.0153357,-0.00213443,0.0155378,-0.00720242,-1.47637,0.0134199,0.0138846,594,932,-37.9837,-4.64561
-623,92,-38.0861,4.22614,-0.0066384,0.010776,1.03787e-05,0.010776,-0.0066384,1.5702,0.0101484,0.00961089,601,932,-38.0862,-4.22616
-616,92,-38.1112,3.80157,-0.00694111,0.00686067,0.00155696,0.00703413,-0.00711457,1.45985,0.0081688,0.00923243,608,932,-38.1112,-3.80155
-609,92,-38.1331,3.37988,-0.00690671,0.0038872,0.00174711,0.00416294,-0.00718245,1.41426,0.00662714,0.00960727,615,932,-38.133,-3.37989
-602,92,-38.0981,2.93585,-0.00687665,0.00202408,0.000910075,0.00211618,-0.00696875,1.46994,0.00548893,0.0112133,622,932,-38.0981,-2.93584
-595,92,-38.0092,2.42535,-0.00685436,0.000924508,0.000361975,0.000941315,-0.00687116,1.5244,0.00492463,0.0222413,629,932,-38.0092,-2.42533
-588,92,-38.0479,2.034,-0.0066638,3.11783e-05,0.000177113,3.58606e-05,-0.00666848,1.54437,0.00445765,0.0269513,636,932,-38.0479,-2.03402
-581,92,-38.4438,1.56506,-0.00639051,-0.000347306,2.02161e-05,-0.000347239,-0.00639058,1.56745,0.00414948,0.0308517,643,932,-38.4438,-1.56509
-574,92,-38.8405,1.00031,0,0,0,0,0,0,0,-1,650,932,-38.8405,-1.0003
-567,92,-40.8124,0.771729,0,0,0,0,0,0,0,-1,657,932,-40.8124,-0.771726
-560,92,-40.7725,0.746033,-0.00558249,-0.000609954,-0.000542302,-0.000551498,-0.00564095,-1.46342,0.00359094,0.0396343,664,932,-40.7725,-0.746008
-553,92,-40.8552,0.957397,-0.00502444,-0.000327612,-0.00059443,-0.000253549,-0.0050985,-1.44684,0.00331771,0.039177,671,932,-40.8552,-0.957423
-546,92,-40.8099,0.953003,-0.00400218,0.000195316,-0.000543044,0.000264434,-0.0040713,-1.4442,0.0028065,0.0435824,678,932,-40.8099,-0.952975
-539,92,-40.8883,0.701233,-0.00230954,0.000956098,-0.000388212,0.00100161,-0.00235506,-1.45409,0.00198979,0.0421646,685,932,-40.8883,-0.701216
-532,92,-40.8297,1.02075,0.000202346,0.00191929,-0.000170939,0.00193614,0.000185492,-1.47252,0.00123359,0.0436048,692,932,-40.8297,-1.02076
-525,92,-40.8083,1.06354,0.00245613,0.00321745,-0.000243878,0.00328887,0.00238471,-1.2859,0.00196192,0.0419816,699,932,-40.8083,-1.06357
-518,92,-40.8232,1.12091,0.00215902,0.00510409,-0.000841269,0.00532746,0.00193565,-1.31127,0.00311388,0.041883,706,932,-40.8232,-1.12093
-511,92,0,0,0,0,0,0,0,0,0,-1,713,932,0,0
-504,92,0,0,0,0,0,0,0,0,0,-1,720,932,0,0
-497,92,0,0,0,0,0,0,0,0,0,-1,727,932,0,0
-490,92,0,0,0,0,0,0,0,0,0,-1,734,932,0,0
-483,92,0,0,0,0,0,0,0,0,0,-1,741,932,0,0
-476,92,0,0,0,0,0,0,0,0,0,-1,748,932,0,0
-469,92,0,0,0,0,0,0,0,0,0,-1,755,932,0,0
-462,92,0,0,0,0,0,0,0,0,0,-1,762,932,0,0
-455,92,0,0,0,0,0,0,0,0,0,-1,769,932,0,0
-448,92,0,0,0,0,0,0,0,0,0,-1,776,932,0,0
-441,92,0,0,0,0,0,0,0,0,0,-1,783,932,0,0
-434,92,0,0,0,0,0,0,0,0,0,-1,790,932,0,0
-427,92,0,0,0,0,0,0,0,0,0,-1,797,932,0,0
-420,92,0,0,0,0,0,0,0,0,0,-1,804,932,0,0
-413,92,0,0,0,0,0,0,0,0,0,-1,811,932,0,0
-406,92,0,0,0,0,0,0,0,0,0,-1,818,932,0,0
-399,92,0,0,0,0,0,0,0,0,0,-1,825,932,0,0
-392,92,0,0,0,0,0,0,0,0,0,-1,832,932,0,0
-385,92,0,0,0,0,0,0,0,0,0,-1,839,932,0,0
-378,92,0,0,0,0,0,0,0,0,0,-1,846,932,0,0
-371,92,0,0,0,0,0,0,0,0,0,-1,853,932,0,0
-364,92,0,0,0,0,0,0,0,0,0,-1,860,932,0,0
-357,92,0,0,0,0,0,0,0,0,0,-1,867,932,0,0
-350,92,0,0,0,0,0,0,0,0,0,-1,874,932,0,0
-343,92,0,0,0,0,0,0,0,0,0,-1,881,932,0,0
-336,92,0,0,0,0,0,0,0,0,0,-1,888,932,0,0
-329,92,0,0,0,0,0,0,0,0,0,-1,895,932,0,0
-322,92,0,0,0,0,0,0,0,0,0,-1,902,932,0,0
-315,92,0,0,0,0,0,0,0,0,0,-1,909,932,0,0
-308,92,0,0,0,0,0,0,0,0,0,-1,916,932,0,0
-301,92,0,0,0,0,0,0,0,0,0,-1,923,932,0,0
-294,92,0,0,0,0,0,0,0,0,0,-1,930,932,0,0
-287,92,0,0,0,0,0,0,0,0,0,-1,937,932,0,0
-280,92,0,0,0,0,0,0,0,0,0,-1,944,932,0,0
-273,92,0,0,0,0,0,0,0,0,0,-1,951,932,0,0
-266,92,0,0,0,0,0,0,0,0,0,-1,958,932,0,0
-259,92,0,0,0,0,0,0,0,0,0,-1,965,932,0,0
-252,92,0,0,0,0,0,0,0,0,0,-1,972,932,0,0
-245,92,0,0,0,0,0,0,0,0,0,-1,979,932,0,0
-238,92,0,0,0,0,0,0,0,0,0,-1,986,932,0,0
-231,92,0,0,0,0,0,0,0,0,0,-1,993,932,0,0
-224,92,0,0,0,0,0,0,0,0,0,-1,1000,932,0,0
-217,92,0,0,0,0,0,0,0,0,0,-1,1007,932,0,0
-210,92,0,0,0,0,0,0,0,0,0,-1,1014,932,0,0
-203,92,0,0,0,0,0,0,0,0,0,-1,1021,932,0,0
-196,92,0,0,0,0,0,0,0,0,0,-1,1028,932,0,0
-189,92,0,0,0,0,0,0,0,0,0,-1,1035,932,0,0
-182,92,0,0,0,0,0,0,0,0,0,-1,1042,932,0,0
-175,92,0,0,0,0,0,0,0,0,0,-1,1049,932,0,0
-168,92,0,0,0,0,0,0,0,0,0,-1,1056,932,0,0
-161,92,0,0,0,0,0,0,0,0,0,-1,1063,932,0,0
-154,92,0,0,0,0,0,0,0,0,0,-1,1070,932,0,0
-147,92,0,0,0,0,0,0,0,0,0,-1,1077,932,0,0
-140,92,0,0,0,0,0,0,0,0,0,-1,1084,932,0,0
-133,92,0,0,0,0,0,0,0,0,0,-1,1091,932,0,0
-126,92,0,0,0,0,0,0,0,0,0,-1,1098,932,0,0
-119,92,0,0,0,0,0,0,0,0,0,-1,1105,932,0,0
-112,92,0,0,0,0,0,0,0,0,0,-1,1112,932,0,0
-105,92,0,0,0,0,0,0,0,0,0,-1,1119,932,0,0
-98,92,0,0,0,0,0,0,0,0,0,-1,1126,932,0,0
-91,92,0,0,0,0,0,0,0,0,0,-1,1133,932,0,0
-84,92,0,0,0,0,0,0,0,0,0,-1,1140,932,0,0
-77,92,0,0,0,0,0,0,0,0,0,-1,1147,932,0,0
-70,92,0,0,0,0,0,0,0,0,0,-1,1154,932,0,0
-63,92,0,0,0,0,0,0,0,0,0,-1,1161,932,0,0
-56,92,0,0,0,0,0,0,0,0,0,-1,1168,932,0,0
-49,92,0,0,0,0,0,0,0,0,0,-1,1175,932,0,0
-42,92,0,0,0,0,0,0,0,0,0,-1,1182,932,0,0
-35,92,0,0,0,0,0,0,0,0,0,-1,1189,932,0,0
-28,92,0,0,0,0,0,0,0,0,0,-1,1196,932,0,0
-21,92,0,0,0,0,0,0,0,0,0,-1,1203,932,0,0
-14,92,0,0,0,0,0,0,0,0,0,-1,1210,932,0,0
-7,92,0,0,0,0,0,0,0,0,0,-1,1217,932,0,0
0,92,0,0,0,0,0,0,0,0,0,-1,1224,932,0,0
7,92,0,0,0,0,0,0,0,0,0,-1,1231,932,0,0
14,92,0,0,0,0,0,0,0,0,0,-1,1238,932,0,0
21,92,0,0,0,0,0,0,0,0,0,-1,1245,932,0,0
28,92,0,0,0,0,0,0,0,0,0,-1,1252,932,0,0
35,92,0,0,0,0,0,0,0,0,0,-1,1259,932,0,0
42,92,0,0,0,0,0,0,0,0,0,-1,1266,932,0,0
49,92,0,0,0,0,0,0,0,0,0,-1,1273,932,0,0
56,92,0,0,0,0,0,0,0,0,0,-1,1280,932,0,0
63,92,0,0,0,0,0,0,0,0,0,-1,1287,932,0,0
70,92,0,0,0,0,0,0,0,0,0,-1,1294,932,0,0
77,92,0,0,0,0,0,0,0,0,0,-1,1301,932,0,0
84,92,0,0,0,0,0,0,0,0,0,-1,1308,932,0,0
91,92,0,0,0,0,0,0,0,0,0,-1,1315,932,0,0
98,92,0,0,0,0,0,0,0,0,0,-1,1322,932,0,0
105,92,0,0,0,0,0,0,0,0,0,-1,1329,932,0,0
112,92,0,0,0,0,0,0,0,0,0,-1,1336,932,0,0
119,92,0,0,0,0,0,0,0,0,0,-1,1343,932,0,0
126,92,0,0,0,0,0,0,0,0,0,-1,1350,932,0,0
133,92,0,0,0,0,0,0,0,0,0,-1,1357,932,0,0
140,92,0,0,0,0,0,0,0,0,0,-1,1364,932,0,0
147,92,0,0,0,0,0,0,0,0,0,-1,1371,932,0,0
154,92,0,0,0,0,0,0,0,0,0,-1,1378,932,0,0
161,92,0,0,0,0,0,0,0,0,0,-1,1385,932,0,0
168,92,0,0,0,0,0,0,0,0,0,-1,1392,932,0,0
175,92,0,0,0,0,0,0,0,0,0,-1,1399,932,0,0
182,92,0,0,0,0,0,0,0,0,0,-1,1406,932,0,0
189,92,0,0,0,0,0,0,0,0,0,-1,1413,932,0,0
196,92,0,0,0,0,0,0,0,0,0,-1,1420,932,0,0
203,92,0,0,0,0,0,0,0,0,0,-1,1427,932,0,0
210,92,0,0,0,0,0,0,0,0,0,-1,1434,932,0,0
217,92,0,0,0,0,0,0,0,0,0,-1,1441,932,0,0
224,92,0,0,0,0,0,0,0,0,0,-1,1448,932,0,0
231,92,0,0,0,0,0,0,0,0,0,-1,1455,932,0,0
238,92,0,0,0,0,0,0,0,0,0,-1,1462,932,0,0
245,92,0,0,0,0,0,0,0,0,0,-1,1469,932,0,0
252,92,0,0,0,0,0,0,0,0,0,-1,1476,932,0,0
259,92,0,0,0,0,0,0,0,0,0,-1,1483,932,0,0
266,92,0,0,0,0,0,0,0,0,0,-1,1490,932,0,0
273,92,0,0,0,0,0,0,0,0,0,-1,1497,932,0,0
280,92,0,0,0,0,0,0,0,0,0,-1,1504,932,0,0
287,92,0,0,0,0,0,0,0,0,0,-1,1511,932,0,0
294,92,0,0,0,0,0,0,0,0,0,-1,1518,932,0,0
301,92,0,0,0,0,0,0,0,0,0,-1,1525,932,0,0
308,92,0,0,0,0,0,0,0,0,0,-1,1532,932,0,0
315,92,0,0,0,0,0,0,0,0,0,-1,1539,932,0,0
322,92,0,0,0,0,0,0,0,0,0,-1,1546,932,0,0
329,92,0,0,0,0,0,0,0,0,0,-1,1553,932,0,0
336,92,0,0,0,0,0,0,0,0,0,-1,1560,932,0,0
343,92,0,0,0,0,0,0,0,0,0,-1,1567,932,0,0
350,92,0,0,0,0,0,0,0,0,0,-1,1574,932,0,0
357,92,0,0,0,0,0,0,0,0,0,-1,1581,932,0,0
364,92,0,0,0,0,0,0,0,0,0,-1,1588,932,0,0
371,92,0,0,0,0,0,0,0,0,0,-1,1595,932,0,0
378,92,0,0,0,0,0,0,0,0,0,-1,1602,932,0,0
385,92,0,0,0,0,0,0,0,0,0,-1,1609,932,0,0
392,92,0,0,0,0,0,0,0,0,0,-1,1616,932,0,0
399,92,0,0,0,0,0,0,0,0,0,-1,1623,932,0,0
406,92,0,0,0,0,0,0,0,0,0,-1,1630,932,0,0
413,92,0,0,0,0,0,0,0,0,0,-1,1637,932,0,0
420,92,0,0,0,0,0,0,0,0,0,-1,1644,932,0,0
427,92,0,0,0,0,0,0,0,0,0,-1,1651,932,0,0
434,92,0,0,0,0,0,0,0,0,0,-1,1658,932,0,0
441,92,0,0,0,0,0,0,0,0,0,-1,1665,932,0,0
448,92,0,0,0,0,0,0,0,0,0,-1,1672,932,0,0
455,92,0,0,0,0,0,0,0,0,0,-1,1679,932,0,0
462,92,0,0,0,0,0,0,0,0,0,-1,1686,932,0,0
469,92,0,0,0,0,0,0,0,0,0,-1,1693,932,0,0
476,92,0,0,0,0,0,0,0,0,0,-1,1700,932,0,0
483,92,0,0,0,0,0,0,0,0,0,-1,1707,932,0,0
490,92,0,0,0,0,0,0,0,0,0,-1,1714,932,0,0
497,92,0,0,0,0,0,0,0,0,0,-1,1721,932,0,0
504,92,0,0,0,0,0,0,0,0,0,-1,1728,932,0,0
511,92,0,0,0,0,0,0,0,0,0,-1,1735,932,0,0
518,92,0,0,0,0,0,0,0,0,0,-1,1742,932,0,0
525,92,0,0,0,0,0,0,0,0,0,-1,1749,932,0,0
532,92,0,0,0,0,0,0,0,0,0,-1,1756,932,0,0
539,92,0,0,0,0,0,0,0,0,0,-1,1763,932,0,0
546,92,0,0,0,0,0,0,0,0,0,-1,1770,932,0,0
553,92,0,0,0,0,0,0,0,0,0,-1,1777,932,0,0
560,92,0,0,0,0,0,0,0,0,0,-1,1784,932,0,0
567,92,0,0,0,0,0,0,0,0,0,-1,1791,932,0,0
574,92,0,0,0,0,0,0,0,0,0,-1,1798,932,0,0
581,92,0,0,0,0,0,0,0,0,0,-1,1805,932,0,0
588,92,0,0,0,0,0,0,0,0,0,-1,1812,932,0,0
595,92,0,0,0,0,0,0,0,0,0,-1,1819,932,0,0
602,92,0,0,0,0,0,0,0,0,0,-1,1826,932,0,0
609,92,0,0,0,0,0,0,0,0,0,-1,1833,932,0,0
616,92,0,0,0,0,0,0,0,0,0,-1,1840,932,0,0
623,92,0,0,0,0,0,0,0,0,0,-1,1847,932,0,0
630,92,0,0,0,0,0,0,0,0,0,-1,1854,932,0,0
637,92,54.3541,2.57306,-0.00933186,0.00241588,-8.7047e-05,0.00241653,-0.00933251,-1.56339,0.00716434,0.0421828,1861,932,54.3542,-2.57309
644,92,54.063,2.91626,-0.0068995,0.002332,-0.000507059,0.00235977,-0.00692727,-1.51609,0.00557384,0.0395607,1868,932,54.063,-2.91629
651,92,53.9248,3.09808,-0.00490551,0.00238477,-0.000669825,0.0024458,-0.00496655,-1.47993,0.00436123,0.0416816,1875,932,53.9248,-3.09808
658,92,54.0023,2.93634,-0.003243,0.00258678,-0.000545194,0.00263732,-0.00329355,-1.47835,0.00343117,0.0431199,1882,932,54.0023,-2.93632
665,92,53.9722,2.88135,-0.00184067,0.0029408,-0.000192917,0.00294857,-0.00184844,-1.53054,0.00279373,0.0415522,1889,932,53.9722,-2.88136
672,92,54.0358,2.84869,-0.00108786,0.00302641,0.00026255,0.0030431,-0.00110455,1.50733,0.0024803,0.0406571,1896,932,54.0357,-2.84872
679,92,54.1001,2.79266,-0.000698085,0.00282081,0.000709122,0.00295834,-0.000835611,1.37924,0.00230189,0.0414917,1903,932,54.1001,-2.79266
686,92,54.0718,2.73053,-0.000403904,0.00251133,0.000934155,0.00278498,-0.000677557,1.28583,0.00211893,0.0335755,1910,932,54.0718,-2.73056
693,92,54.1675,2.8136,-0.000161858,0.00230501,0.000873546,0.00258302,-0.000439861,1.26268,0.00188581,0.0262545,1917,932,54.1674,-2.81361
700,92,54.1498,2.8457,0,0,0,0,0,0,0,-1,1924,932,54.1497,-2.84569
707,92,32.9893,3.26874,0,0,0,0,0,0,0,-1,1931,932,32.9893,-3.26874
714,92,50.6816,3.9397,0,0,0,0,0,0,0,-1,1938,932,50.6816,-3.93968
721,92,50.5164,4.55029,-0.00200047,0.00252234,0.000286579,0.00254042,-0.00201856,1.50777,0.00263787,0.0337691,1945,932,50.5164,-4.55026
728,92,50.3341,5.06268,-0.00284786,0.00287204,0.000227195,0.00288105,-0.00285687,1.53116,0.0033128,0.0261914,1952,932,50.3341,-5.0627
735,92,50.3232,5.55084,-0.0034666,0.00371721,-0.000117329,0.00371912,-0.00346851,-1.55447,0.00415062,0.020035,1959,932,50.3232,-5.55082
742,92,50.3676,5.99829,-0.0044158,0.00509465,-0.000612973,0.00513399,-0.00445515,-1.5067,0.00554091,0.0196149,1966,932,50.3676,-5.99832
749,92,50.3041,6.46204,-0.0055967,0.00752894,-0.000764956,0.00757337,-0.00564113,-1.51278,0.00765653,0.0182111,1973,932,50.3041,-6.46201
756,92,50.1958,6.89813,-0.00663759,0.0113153,-0.000705963,0.011343,-0.00666531,-1.53155,0.0105134,0.0157205,1980,932,50.1958,-6.89815
763,92,50.1694,7.34631,-0.00722305,0.0155602,-0.000787498,0.0155874,-0.00725024,-1.53629,0.013475,0.016928,1987,932,50.1694,-7.34633
770,92,50.0846,7.92023,-0.00734947,0.020597,-0.000698094,0.0206144,-0.00736689,-1.54584,0.0167477,0.0260473,1994,932,50.0846,-7.92023
777,92,49.9719,8.53113,-0.00685653,0.0264747,-0.00106649,0.0265088,-0.00689062,-1.53884,0.0203618,0.0444572,2001,932,49.972,-8.53112
784,92,49.7822,8.97626,-0.00458973,0.0333183,-0.00254811,0.0334888,-0.00476024,-1.50398,0.02407,0.046771,2008,932,49.7821,-8.97626
791,92,49.8779,9.66895,0,0,0,0,0,0,0,-1,2015,932,49.878,-9.66895
798,92,49.969,10.3243,0,0,0,0,0,0,0,-1,2022,932,49.969,-10.3243
805,92,0,0,0,0,0,0,0,0,0,-1,2029,932,0,0
812,92,0,0,0,0,0,0,0,0,0,-1,2036,932,0,0
-700,85,0,0,0,0,0,0,0,0,0,-1,524,939,0,0
-693,85,0,0,0,0,0,0,0,0,0,-1,531,939,0,0
-686,85,-35.0615,6.30707,0,0,0,0,0,0,0,-1,538,939,-35.0615,-6.30708
-679,85,-35.4295,6.15869,0,0,0,0,0,0,0,-1,545,939,-35.4295,-6.15867
-672,85,-35.7865,5.87689,0,0,0,0,0,0,0,-1,552,939,-35.7865,-5.87687
-665,85,-37.1459,5.79443,0,0,0,0,0,0,0,-1,559,939,-37.1459,-5.79444
-658,85,-37.6207,5.96082,0,0,0,0,0,0,0,-1,566,939,-37.6207,-5.96081
-651,85,-37.9147,5.54407,-0.0157352,0.0413798,-0.00412153,0.0416757,-0.0160311,-1.49913,0.0343962,0.0443308,573,939,-37.9147,-5.54406
-644,85,-38.2126,5.23193,-0.0135559,0.0306559,-0.00195503,0.0307422,-0.0136422,-1.52669,0.0262516,0.0343708,580,939,-38.2126,-5.23195
-637,85,-38.376,4.98242,-0.0106273,0.0217298,-0.000799534,0.0217496,-0.0106471,-1.54611,0.0190668,0.0200039,587,939,-38.376,-4.9824
-630,85,-38.4835,4.55658,-0.0082235,0.0150528,0.000382948,0.0150591,-0.0082298,1.55435,0.0136372,0.0127001,594,939,-38.4835,-4.55655
-623,85,-38.5605,4.14862,-0.00720304,0.0107103,0.00131554,0.0108064,-0.00729913,1.49788,0.0105184,0.0100233,601,939,-38.5606,-4.14861
-616,85,-38.5608,3.75464,-0.00700246,0.00703086,0.00174269,0.00724403,-0.00721563,1.44908,0.00834829,0.0103009,608,939,-38.5608,-3.75466
-609,85,-38.5846,3.35449,-0.00683944,0.00423328,0.00131732,0.00438784,-0.006994,1.454,0.00662848,0.0137814,615,939,-38.5846,-3.35452
-602,85,-38.5889,2.92896,-0.00686875,0.00230654,0.000259506,0.00231387,-0.00687609,1.54254,0.00551946,0.0170851,622,939,-38.5889,-2.92895
-595,85,-38.4927,2.4978,-0.00689712,0.00111078,-0.000452023,0.00113622,-0.00692256,-1.51459,0.00503668,0.0198806,629,939,-38.4927,-2.4978
-588,85,-38.4894,2.09814,-0.00678124,0.000107215,-0.000748023,0.000187508,-0.00686153,-1.46387,0.00463812,0.0211661,636,939,-38.4894,-2.09815
-581,85,-38.8256,1.72632,-0.00655184,-0.000356364,-0.000990029,-0.000202004,-0.0067062,-1.41613,0.00440501,0.031249,643,939,-38.8255,-1.72634
-574,85,-39.5504,1.27002,-0.0063119,-0.000649398,-0.00132768,-0.000353554,-0.00660775,-1.35155,0.00429217,0.048138,650,939,-39.5504,-1.27002
-567,85,-40.4935,0.81543,0,0,0,0,0,0,0,-1,657,939,-40.4935,-0.815447
-560,85,-40.8025,0.808472,-0.00563877,-0.000615322,-0.00162122,-0.000137543,-0.00611655,-1.28421,0.00403263,0.0366185,664,939,-40.8025,-0.808456
-553,85,-40.7544,0.715088,-0.00483441,-0.000316864,-0.00158524,0.000183897,-0.00533517,-1.26483,0.00361963,0.0406182,671,939,-40.7544,-0.715106
-546,85,-40.8282,0.644287,-0.00348314,0.000186189,-0.00140861,0.000664572,-0.00396152,-1.24341,0.00288814,0.0420261,678,939,-40.8282,-0.644309
-539,85,-40.8144,0.774963,-0.00146525,0.000856564,-0.00109342,0.00129042,-0.00189911,-1.19306,0.00185262,0.0384895,685,939,-40.8144,-0.774965
-532,85,-40.7709,1.02771,0.00128991,0.00163157,-0.000759898,0.0022396,0.000681879,-0.895963,0.00132559,0.0405446,692,939,-40.7709,-1.02768
-525,85,-40.8555,0.953796,0.00346327,0.00271956,-0.000943667,0.0041057,0.00207712,-0.597714,0.00237048,0.0394672,699,939,-40.8554,-0.953813
-518,85,-40.9018,0.948425,0.0027585,0.00458178,-0.00179861,0.00568659,0.00165369,-1.01996,0.00337758,0.0386308,706,939,-40.9018,-0.948396
-511,85,0,0,0,0,0,0,0,0,0,-1,713,939,0,0
-504,85,0,0,0,0,0,0,0,0,0,-1,720,939,0,0
-497,85,0,0,0,0,0,0,0,0,0,-1,727,939,0,0
-490,85,0,0,0,0,0,0,0,0,0,-1,734,939,0,0
-483,85,0,0,0,0,0,0,0,0,0,-1,741,939,0,0
-476,85,0,0,0,0,0,0,0,0,0,-1,748,939,0,0
-469,85,0,0,0,0,0,0,0,0,0,-1,755,939,0,0
-462,85,0,0,0,0,0,0,0,0,0,-1,762,939,0,0
-455,85,0,0,0,0,0,0,0,0,0,-1,769,939,0,0
-448,85,0,0,0,0,0,0,0,0,0,-1,776,939,0,0
-441,85,0,0,0,0,0,0,0,0,0,-1,783,939,0,0
-434,85,0,0,0,0,0,0,0,0,0,-1,790,939,0,0
-427,85,0,0,0,0,0,0,0,0,0,-1,797,939,0,0
-420,85,0,0,0,0,0,0,0,0,0,-1,804,939,0,0
-413,85,0,0,0,0,0,0,0,0,0,-1,811,939,0,0
-406,85,0,0,0,0,0,0,0,0,0,-1,818,939,0,0
-399,85,0,0,0,0,0,0,0,0,0,-1,825,939,0,0
-392,85,0,0,0,0,0,0,0,0,0,-1,832,939,0,0
-385,85,0,0,0,0,0,0,0,0,0,-1,839,939,0,0
-378,85,0,0,0,0,0,0,0,0,0,-1,846,939,0,0
-371,85,0,0,0,0,0,0,0,0,0,-1,853,939,0,0
-364,85,0,0,0,0,0,0,0,0,0,-1,860,939,0,0
-357,85,0,0,0,0,0,0,0,0,0,-1,867,939,0,0
-350,85,0,0,0,0,0,0,0,0,0,-1,874,939,0,0
-343,85,0,0,0,0,0,0,0,0,0,-1,881,939,0,0
-336,85,0,0,0,0,0,0,0,0,0,-1,888,939,0,0
-329,85,0,0,0,0,0,0,0,0,0,-1,895,939,0,0
-322,85,0,0,0,0,0,0,0,0,0,-1,902,939,0,0
-315,85,0,0,0,0,0,0,0,0,0,-1,909,939,0,0
-308,85,0,0,0,0,0,0,0,0,0,-1,916,939,0,0
-301,85,0,0,0,0,0,0,0,0,0,-1,923,939,0,0
-294,85,0,0,0,0,0,0,0,0,0,-1,930,939,0,0
-287,85,0,0,0,0,0,0,0,0,0,-1,937,939,0,0
-280,85,0,0,0,0,0,0,0,0,0,-1,944,939,0,0
-273,85,0,0,0,0,0,0,0,0,0,-1,951,939,0,0
-266,85,0,0,0,0,0,0,0,0,0,-1,958,939,0,0
-259,85,0,0,0,0,0,0,0,0,0,-1,965,939,0,0
-252,85,0,0,0,0,0,0,0,0,0,-1,972,939,0,0
-245,85,0,0,0,0,0,0,0,0,0,-1,979,939,0,0
-238,85,0,0,0,0,0,0,0,0,0,-1,986,939,0,0
-231,85,0,0,0,0,0,0,0,0,0,-1,993,939,0,0
-224,85,0,0,0,0,0,0,0,0,0,-1,1000,939,0,0
-217,85,0,0,0,0,0,0,0,0,0,-1,1007,939,0,0
-210,85,0,0,0,0,0,0,0,0,0,-1,1014,939,0,0
-203,85,0,0,0,0,0,0,0,0,0,-1,1021,939,0,0
-196,85,0,0,0,0,0,0,0,0,0,-1,1028,939,0,0
-189,85,0,0,0,0,0,0,0,0,0,-1,1035,939,0,0
-182,85,0,0,0,0,0,0,0,0,0,-1,1042,939,0,0
-175,85,0,0,0,0,0,0,0,0,0,-1,1049,939,0,0
-168,85,0,0,0,0,0,0,0,0,0,-1,1056,939,0,0
-161,85,0,0,0,0,0,0,0,0,0,-1,1063,939,0,0
-154,85,0,0,0,0,0,0,0,0,0,-1,1070,939,0,0
-147,85,0,0,0,0,0,0,0,0,0,-1,1077,939,0,0
-140,85,0,0,0,0,0,0,0,0,0,-1,1084,939,0,0
-133,85,0,0,0,0,0,0,0,0,0,-1,1091,939,0,0
-126,85,0,0,0,0,0,0,0,0,0,-1,1098,939,0,0
-119,85,0,0,0,0,0,0,0,0,0,-1,1105,939,0,0
-112,85,0,0,0,0,0,0,0,0,0,-1,1112,939,0,0
-105,85,0,0,0,0,0,0,0,0,0,-1,1119,939,0,0
-98,85,0,0,0,0,0,0,0,0,0,-1,1126,939,0,0
-91,85,0,0,0,0,0,0,0,0,0,-1,1133,939,0,0
-84,85,0,0,0,0,0,0,0,0,0,-1,1140,939,0,0
-77,85,0,0,0,0,0,0,0,0,0,-1,1147,939,0,0
-70,85,0,0,0,0,0,0,0,0,0,-1,1154,939,0,0
-63,85,0,0,0,0,0,0,0,0,0,-1,1161,939,0,0
-56,85,0,0,0,0,0,0,0,0,0,-1,1168,939,0,0
-49,85,0,0,0,0,0,0,0,0,0,-1,1175,939,0,0
-42,85,0,0,0,0,0,0,0,0,0,-1,1182,939,0,0
-35,85,0,0,0,0,0,0,0,0,0,-1,1189,939,0,0
-28,85,0,0,0,0,0,0,0,0,0,-1,1196,939,0,0
-21,85,0,0,0,0,0,0,0,0,0,-1,1203,939,0,0
-14,85,0,0,0,0,0,0,0,0,0,-1,1210,939,0,0
-7,85,0,0,0,0,0,0,0,0,0,-1,1217,939,0,0
0,85,0,0,0,0,0,0,0,0,0,-1,1224,939,0,0
7,85,0,0,0,0,0,0,0,0,0,-1,1231,939,0,0
14,85,0,0,0,0,0,0,0,0,0,-1,1238,939,0,0
21,85,0,0,0,0,0,0,0,0,0,-1,1245,939,0,0
28,85,0,0,0,0,0,0,0,0,0,-1,1252,939,0,0
35,85,0,0,0,0,0,0,0,0,0,-1,1259,939,0,0
42,85,0,0,0,0,0,0,0,0,0,-1,1266,939,0,0
49,85,0,0,0,0,0,0,0,0,0,-1,1273,939,0,0
56,85,0,0,0,0,0,0,0,0,0,-1,1280,939,0,0
63,85,0,0,0,0,0,0,0,0,0,-1,1287,939,0,0
70,85,0,0,0,0,0,0,0,0,0,-1,1294,939,0,0
77,85,0,0,0,0,0,0,0,0,0,-1,1301,939,0,0
84,85,0,0,0,0,0,0,0,0,0,-1,1308,939,0,0
91,85,0,0,0,0,0,0,0,0,0,-1,1315,939,0,0
98,85,0,0,0,0,0,0,0,0,0,-1,1322,939,0,0
105,85,0,0,0,0,0,0,0,0,0,-1,1329,939,0,0
112,85,0,0,0,0,0,0,0,0,0,-1,1336,939,0,0
119,85,0,0,0,0,0,0,0,0,0,-1,1343,939,0,0
126,85,0,0,0,0,0,0,0,0,0,-1,1350,939,0,0
133,85,0,0,0,0,0,0,0,0,0,-1,1357,939,0,0
140,85,0,0,0,0,0,0,0,0,0,-1,1364,939,0,0
147,85,0,0,0,0,0,0,0,0,0,-1,1371,939,0,0
154,85,0,0,0,0,0,0,0,0,0,-1,1378,939,0,0
161,85,0,0,0,0,0,0,0,0,0,-1,1385,939,0,0
168,85,0,0,0,0,0,0,0,0,0,-1,1392,939,0,0
175,85,0,0,0,0,0,0,0,0,0,-1,1399,939,0,0
182,85,0,0,0,0,0,0,0,0,0,-1,1406,939,0,0
189,85,0,0,0,0,0,0,0,0,0,-1,1413,939,0,0
196,85,0,0,0,0,0,0,0,0,0,-1,1420,939,0,0
203,85,0,0,0,0,0,0,0,0,0,-1,1427,939,0,0
210,85,0,0,0,0,0,0,0,0,0,-1,1434,939,0,0
217,85,0,0,0,0,0,0,0,0,0,-1,1441,939,0,0
224,85,0,0,0,0,0,0,0,0,0,-1,1448,939,0,0
231,85,0,0,0,0,0,0,0,0,0,-1,1455,939,0,0
238,85,0,0,0,0,0,0,0,0,0,-1,1462,939,0,0
245,85,0,0,0,0,0,0,0,0,0,-1,1469,939,0,0
252,85,0,0,0,0,0,0,0,0,0,-1,1476,939,0,0
259,85,0,0,0,0,0,0,0,0,0,-1,1483,939,0,0
266,85,0,0,0,0,0,0,0,0,0,-1,1490,939,0,0
273,85,0,0,0,0,0,0,0,0,0,-1,1497,939,0,0
280,85,0,0,0,0,0,0,0,0,0,-1,1504,939,0,0
287,85,0,0,0,0,0,0,0,0,0,-1,1511,939,0,0
294,85,0,0,0,0,0,0,0,0,0,-1,1518,939,0,0
301,85,0,0,0,0,0,0,0,0,0,-1,1525,939,0,0
308,85,0,0,0,0,0,0,0,0,0,-1,1532,939,0,0
315,85,0,0,0,0,0,0,0,0,0,-1,1539,939,0,0
322,85,0,0,0,0,0,0,0,0,0,-1,1546,939,0,0
329,85,0,0,0,0,0,0,0,0,0,-1,1553,939,0,0
336,85,0,0,0,0,0,0,0,0,0,-1,1560,939,0,0
343,85,0,0,0,0,0,0,0,0,0,-1,1567,939,0,0
350,85,0,0,0,0,0,0,0,0,0,-1,1574,939,0,0
357,85,0,0,0,0,0,0,0,0,0,-1,1581,939,0,0
364,85,0,0,0,0,0,0,0,0,0,-1,1588,939,0,0
371,85,0,0,0,0,0,0,0,0,0,-1,1595,939,0,0
378,85,0,0,0,0,0,0,0,0,0,-1,1602,939,0,0
385,85,0,0,0,0,0,0,0,0,0,-1,1609,939,0,0
392,85,0,0,0,0,0,0,0,0,0,-1,1616,939,0,0
399,85,0,0,0,0,0,0,0,0,0,-1,1623,939,0,0
406,85,0,0,0,0,0,0,0,0,0,-1,1630,939,0,0
413,85,0,0,0,0,0,0,0,0,0,-1,1637,939,0,0
420,85,0,0,0,0,0,0,0,0,0,-1,1644,939,0,0
427,85,0,0,0,0,0,0,0,0,0,-1,1651,939,0,0
434,85,0,0,0,0,0,0,0,0,0,-1,1658,939,0,0
441,85,0,0,0,0,0,0,0,0,0,-1,1665,939,0,0
448,85,0,0,0,0,0,0,0,0,0,-1,1672,939,0,0
455,85,0,0,0,0,0,0,0,0,0,-1,1679,939,0,0
462,85,0,0,0,0,0,0,0,0,0,-1,1686,939,0,0
469,85,0,0,0,0,0,0,0,0,0,-1,1693,939,0,0
476,85,0,0,0,0,0,0,0,0,0,-1,1700,939,0,0
483,85,0,0,0,0,0,0,0,0,0,-1,1707,939,0,0
490,85,0,0,0,0,0,0,0,0,0,-1,1714,939,0,0
497,85,0,0,0,0,0,0,0,0,0,-1,1721,939,0,0
504,85,0,0,0,0,0,0,0,0,0,-1,1728,939,0,0
511,85,0,0,0,0,0,0,0,0,0,-1,1735,939,0,0
518,85,0,0,0,0,0,0,0,0,0,-1,1742,939,0,0
525,85,0,0,0,0,0,0,0,0,0,-1,1749,939,0,0
532,85,0,0,0,0,0,0,0,0,0,-1,1756,939,0,0
539,85,0,0,0,0,0,0,0,0,0,-1,1763,939,0,0
546,85,0,0,0,0,0,0,0,0,0,-1,1770,939,0,0
553,85,0,0,0,0,0,0,0,0,0,-1,1777,939,0,0
560,85,0,0,0,0,0,0,0,0,0,-1,1784,939,0,0
567,85,0,0,0,0,0,0,0,0,0,-1,1791,939,0,0
574,85,0,0,0,0,0,0,0,0,0,-1,1798,939,0,0
581,85,0,0,0,0,0,0,0,0,0,-1,1805,939,0,0
588,85,0,0,0,0,0,0,0,0,0,-1,1812,939,0,0
595,85,0,0,0,0,0,0,0,0,0,-1,1819,939,0,0
602,85,0,0,0,0,0,0,0,0,0,-1,1826,939,0,0
609,85,0,0,0,0,0,0,0,0,0,-1,1833,939,0,0
616,85,0,0,0,0,0,0,0,0,0,-1,1840,939,0,0
623,85,0,0,0,0,0,0,0,0,0,-1,1847,939,0,0
630,85,0,0,0,0,0,0,0,0,0,-1,1854,939,0,0
637,85,54.1526,2.62384,-0.00926451,0.00188561,0.000610877,0.00191898,-0.00929788,1.51623,0.00692742,0.0489094,1861,939,54.1525,-2.62383
644,85,53.986,2.8775,-0.00680086,0.00193694,-0.000181637,0.00194072,-0.00680463,-1.55002,0.00530305,0.0437629,1868,939,53.986,-2.8775
651,85,54.0076,3.00635,-0.0048383,0.00206819,-0.000568318,0.00211464,-0.00488475,-1.48924,0.00414525,0.0441058,1875,939,54.0076,-3.00636
658,85,53.9863,2.93921,-0.0032619,0.00232239,-0.000554336,0.00237688,-0.00331639,-1.4728,0.0033019,0.0429663,1882,939,53.9863,-2.93922
665,85,54.0297,2.72003,-0.0019393,0.00262434,-0.00021677,0.00263461,-0.00194958,-1.52344,0.00265651,0.0392483,1889,939,54.0297,-2.72005
672,85,54.0975,2.60284,-0.00123581,0.00265028,0.000288999,0.00267166,-0.00125718,1.49697,0.0023168,0.0400592,1896,939,54.0976,-2.60285
679,85,54.2144,2.55768,-0.000898657,0.00235569,0.000808268,0.00254538,-0.00108835,1.34028,0.00215342,0.0416149,1903,939,54.2143,-2.55768
686,85,54.1445,2.69324,-0.000611801,0.00196279,0.00108675,0.00236017,-0.00100919,1.22023,0.00199675,0.0369539,1910,939,54.1445,-2.69324
693,85,54.1097,2.78973,-0.0003717,0.00168559,0.00106206,0.00213548,-0.000821592,1.17011,0.00176255,0.0290715,1917,939,54.1097,-2.78976
700,85,54.1395,2.84912,-0.000465845,0.00153797,0.000923301,0.00189852,-0.000826401,1.1985,0.00161331,0.0430068,1924,939,54.1395,-2.84914
707,85,54.2257,2.89087,0,0,0,0,0,0,0,-1,1931,939,54.2257,-2.89087
714,85,51.1864,4.06293,0,0,0,0,0,0,0,-1,1938,939,51.1864,-4.06293
721,85,50.9968,4.62463,-0.00234246,0.00193738,0.000536888,0.00200371,-0.00240878,1.44789,0.00255113,0.0310604,1945,939,50.9969,-4.62465
728,85,50.7836,5.20428,-0.00313269,0.00243586,0.000488738,0.00247843,-0.00317526,1.48391,0.00327242,0.0292717,1952,939,50.7836,-5.20429
735,85,50.8022,5.59308,-0.00364969,0.00347117,0.000118813,0.00347315,-0.00365168,1.55412,0.00411395,0.027924,1959,939,50.8022,-5.5931
742,85,50.9016,6.01044,-0.0044883,0.00498434,-0.000415684,0.00500255,-0.0045065,-1.52703,0.00549254,0.019587,1966,939,50.9016,-6.01044
749,85,50.8228,6.44897,-0.00536053,0.00765337,-0.000749511,0.00769639,-0.00540355,-1.51346,0.00760177,0.0144432,1973,939,50.8228,-6.44896
756,85,50.681,6.85406,-0.00589952,0.0121436,-0.00119956,0.012223,-0.00597892,-1.5047,0.010713,0.0134848,1980,939,50.681,-6.85409
763,85,50.6455,7.27405,-0.0057612,0.0169516,-0.0021581,0.0171549,-0.00596443,-1.4769,0.0138593,0.0133397,1987,939,50.6455,-7.27406
770,85,50.5564,7.78516,-0.00501847,0.0227866,-0.00313165,0.023135,-0.00536682,-1.46002,0.0174889,0.0200338,1994,939,50.5564,-7.78513
777,85,50.1748,8.67224,-0.00323084,0.0295944,-0.00525247,0.0304144,-0.00405083,-1.41593,0.0217526,0.0418335,2001,939,50.1748,-8.67223
784,85,50.3164,8.815,0.000705799,0.0375575,-0.00940686,0.0398198,-0.00155654,-1.33478,0.0270803,0.0490579,2008,939,50.3163,-8.81503
791,85,50.4338,9.38904,0,0,0,0,0,0,0,-1,2015,939,50.4338,-9.38902
798,85,50.0857,8.06873,0,0,0,0,0,0,0,-1,2022,939,50.0858,-8.06875
805,85,49.3545,7.11475,0,0,0,0,0,0,0,-1,2029,939,49.3545,-7.11474
812,85,0,0,0,0,0,0,0,0,0,-1,2036,939,0,0
-700,78,0,0,0,0,0,0,0,0,0,-1,524,946,0,0
-693,78,0,0,0,0,0,0,0,0,0,-1,531,946,0,0
-686,78,-42.2404,2.9939,0,0,0,0,0,0,0,-1,538,946,-42.2404,-2.99392
-679,78,-35.9764,6.32324,0,0,0,0,0,0,0,-1,545,946,-35.9764,-6.32322
-672,78,-36.6844,6.61475,0,0,0,0,0,0,0,-1,552,946,-36.6844,-6.61474
-665,78,-37.3186,6.33783,0,0,0,0,0,0,0,-1,559,946,-37.3186,-6.33781
-658,78,-37.8143,5.73322,0,0,0,0,0,0,0,-1,566,946,-37.8144,-5.73324
-651,78,-38.2997,5.57672,-0.0224002,0.0437481,0.00652958,0.0443865,-0.0230385,1.47334,0.0395729,0.0442022,573,946,-38.2997,-5.57674
-644,78,-38.5453,5.18817,-0.0172976,0.0321705,0.00517204,0.0327055,-0.0178326,1.46773,0.0295963,0.0287251,580,946,-38.5453,-5.18815
-637,78,-38.7951,4.84235,-0.0122783,0.0223421,0.00345563,0.0226837,-0.0126198,1.47228,0.0206567,0.0174192,587,946,-38.7951,-4.84234
-630,78,-38.9557,4.45685,-0.00862867,0.0150436,0.00266762,0.0153405,-0.00892556,1.45996,0.0141722,0.0164858,594,946,-38.9558,-4.45687
-623,78,-38.9924,4.08368,-0.00722824,0.0108306,0.00240597,0.0111457,-0.00754329,1.44059,0.0108567,0.0138915,601,946,-38.9924,-4.08368
-616,78,-38.9924,3.70355,-0.00672823,0.00730581,0.00179706,0.00753227,-0.00695469,1.44544,0.00836627,0.0125306,608,946,-38.9924,-3.70355
-609,78,-38.9803,3.35614,-0.00649092,0.00462446,0.00077667,0.00467847,-0.00654493,1.50137,0.00650963,0.0134489,615,946,-38.9804,-3.35613
-602,78,-39.0033,2.96332,-0.00653295,0.00263578,-0.000521703,0.00266537,-0.00656254,-1.51414,0.00548382,0.016728,622,946,-39.0033,-2.96333
-595,78,-38.9426,2.53485,-0.00660351,0.0013209,-0.00143756,0.00157362,-0.00685624,-1.39677,0.00517573,0.0158323,629,946,-38.9426,-2.53486
-588,78,-38.9102,2.20746,-0.0065452,0.000213855,-0.00185887,0.000691349,-0.00702269,-1.31936,0.00492844,0.013835,636,946,-38.9102,-2.20743
-581,78,-39.0762,1.88293,-0.00634744,-0.00028918,-0.00216986,0.0004078,-0.00704442,-1.26,0.00483795,0.0330571,643,946,-39.0762,-1.88295
-574,78,-39.8603,1.41431,-0.00608582,-0.000595586,-0.00250785,0.000377491,-0.0070589,-1.20067,0.00483667,0.0412439,650,946,-39.8603,-1.41433
-567,78,-40.7806,0.855103,-0.00581522,-0.000645687,-0.00269836,0.000506141,-0.00696705,-1.16735,0.00482227,0.0328494,657,946,-40.7807,-0.855101
-560,78,-40.811,0.875305,-0.00527351,-0.000530549,-0.00266801,0.000667592,-0.00647165,-1.14871,0.00455331,0.0322808,664,946,-40.811,-0.875287
-553,78,-40.6888,0.773621,-0.00425881,-0.000220942,-0.00247155,0.000951467,-0.00543122,-1.12787,0.0039761,0.0406952,671,946,-40.6889,-0.773613
-546,78,-40.795,0.775208,-0.00266782,0.000256957,-0.00209279,0.00134768,-0.00375854,-1.09035,0.00305564,0.0412641,678,946,-40.795,-0.775191
-539,78,-40.7682,0.878479,-0.00045533,0.000840986,-0.00155773,0.00188002,-0.00149437,-0.982549,0.00195244,0.0366975,685,946,-40.7682,-0.87848
-532,78,-40.6513,1.02228,0.00242682,0.00146384,-0.00109243,0.00313916,0.000751501,-0.57783,0.00189268,0.0388247,692,946,-40.6513,-1.02229
-525,78,-40.7241,1.03064,0.00459677,0.0023935,-0.00142396,0.00529549,0.00169478,-0.456169,0.00312266,0.0391717,699,946,-40.7241,-1.03065
-518,78,-40.8704,0.827087,0.00369962,0.00420526,-0.00263057,0.00659513,0.00130975,-0.833305,0.00403172,0.0412404,706,946,-40.8704,-0.827112
-511,78,0,0,0,0,0,0,0,0,0,-1,713,946,0,0
-504,78,0,0,0,0,0,0,0,0,0,-1,720,946,0,0
-497,78,0,0,0,0,0,0,0,0,0,-1,727,946,0,0
-490,78,0,0,0,0,0,0,0,0,0,-1,734,946,0,0
-483,78,0,0,0,0,0,0,0,0,0,-1,741,946,0,0
-476,78,0,0,0,0,0,0,0,0,0,-1,748,946,0,0
-469,78,0,0,0,0,0,0,0,0,0,-1,755,946,0,0
-462,78,0,0,0,0,0,0,0,0,0,-1,762,946,0,0
-455,78,0,0,0,0,0,0,0,0,0,-1,769,946,0,0
-448,78,0,0,0,0,0,0,0,0,0,-1,776,946,0,0
-441,78,0,0,0,0,0,0,0,0,0,-1,783,946,0,0
-434,78,0,0,0,0,0,0,0,0,0,-1,790,946,0,0
-427,78,0,0,0,0,0,0,0,0,0,-1,797,946,0,0
-420,78,0,0,0,0,0,0,0,0,0,-1,804,946,0,0
-413,78,0,0,0,0,0,0,0,0,0,-1,811,946,0,0
-406,78,0,0,0,0,0,0,0,0,0,-1,818,946,0,0
-399,78,0,0,0,0,0,0,0,0,0,-1,825,946,0,0
-392,78,0,0,0,0,0,0,0,0,0,-1,832,946,0,0
-385,78,0,0,0,0,0,0,0,0,0,-1,839,946,0,0
-378,78,0,0,0,0,0,0,0,0,0,-1,846,946,0,0
-371,78,0,0,0,0,0,0,0,0,0,-1,853,946,0,0
-364,78,0,0,0,0,0,0,0,0,0,-1,860,946,0,0
-357,78,0,0,0,0,0,0,0,0,0,-1,867,946,0,0
-350,78,0,0,0,0,0,0,0,0,0,-1,874,946,0,0
-343,78,0,0,0,0,0,0,0,0,0,-1,881,946,0,0
-336,78,0,0,0,0,0,0,0,0,0,-1,888,946,0,0
-329,78,0,0,0,0,0,0,0,0,0,-1,895,946,0,0
-322,78,0,0,0,0,0,0,0,0,0,-1,902,946,0,0
-315,78,0,0,0,0,0,0,0,0,0,-1,909,946,0,0
-308,78,0,0,0,0,0,0,0,0,0,-1,916,946,0,0
-301,78,0,0,0,0,0,0,0,0,0,-1,923,946,0,0
-294,78,0,0,0,0,0,0,0,0,0,-1,930,946,0,0
-287,78,0,0,0,0,0,0,0,0,0,-1,937,946,0,0
-280,78,0,0,0,0,0,0,0,0,0,-1,944,946,0,0
-273,78,0,0,0,0,0,0,0,0,0,-1,951,946,0,0
-266,78,0,0,0,0,0,0,0,0,0,-1,958,946,0,0
-259,78,0,0,0,0,0,0,0,0,0,-1,965,946,0,0
-252,78,0,0,0,0,0,0,0,0,0,-1,972,946,0,0
-245,78,0,0,0,0,0,0,0,0,0,-1,979,946,0,0
-238,78,0,0,0,0,0,0,0,0,0,-1,986,946,0,0
-231,78,0,0,0,0,0,0,0,0,0,-1,993,946,0,0
-224,78,0,0,0,0,0,0,0,0,0,-1,1000,946,0,0
-217,78,0,0,0,0,0,0,0,0,0,-1,1007,946,0,0
-210,78,0,0,0,0,0,0,0,0,0,-1,1014,946,0,0
-203,78,0,0,0,0,0,0,0,0,0,-1,1021,946,0,0
-196,78,0,0,0,0,0,0,0,0,0,-1,1028,946,0,0
-189,78,0,0,0,0,0,0,0,0,0,-1,1035,946,0,0
-182,78,0,0,0,0,0,0,0,0,0,-1,1042,946,0,0
-175,78,0,0,0,0,0,0,0,0,0,-1,1049,946,0,0
-168,78,0,0,0,0,0,0,0,0,0,-1,1056,946,0,0
-161,78,0,0,0,0,0,0,0,0,0,-1,1063,946,0,0
-154,78,0,0,0,0,0,0,0,0,0,-1,1070,946,0,0
-147,78,0,0,0,0,0,0,0,0,0,-1,1077,946,0,0
-140,78,0,0,0,0,0,0,0,0,0,-1,1084,946,0,0
-133,78,0,0,0,0,0,0,0,0,0,-1,1091,946,0,0
-126,78,0,0,0,0,0,0,0,0,0,-1,1098,946,0,0
-119,78,0,0,0,0,0,0,0,0,0,-1,1105,946,0,0
-112,78,0,0,0,0,0,0,0,0,0,-1,1112,946,0,0
-105,78,0,0,0,0,0,0,0,0,0,-1,1119,946,0,0
-98,78,0,0,0,0,0,0,0,0,0,-1,1126,946,0,0
-91,78,0,0,0,0,0,0,0,0,0,-1,1133,946,0,0
-84,78,0,0,0,0,0,0,0,0,0,-1,1140,946,0,0
-77,78,0,0,0,0,0,0,0,0,0,-1,1147,946,0,0
-70,78,0,0,0,0,0,0,0,0,0,-1,1154,946,0,0
-63,78,0,0,0,0,0,0,0,0,0,-1,1161,946,0,0
-56,78,0,0,0,0,0,0,0,0,0,-1,1168,946,0,0
-49,78,0,0,0,0,0,0,0,0,0,-1,1175,946,0,0
-42,78,0,0,0,0,0,0,0,0,0,-1,1182,946,0,0
-35,78,0,0,0,0,0,0,0,0,0,-1,1189,946,0,0
-28,78,0,0,0,0,0,0,0,0,0,-1,1196,946,0,0
-21,78,0,0,0,0,0,0,0,0,0,-1,1203,946,0,0
-14,78,0,0,0,0,0,0,0,0,0,-1,1210,946,0,0
-7,78,0,0,0,0,0,0,0,0,0,-1,1217,946,0,0
0,78,0,0,0,0,0,0,0,0,0,-1,1224,946,0,0
7,78,0,0,0,0,0,0,0,0,0,-1,1231,946,0,0
14,78,0,0,0,0,0,0,0,0,0,-1,1238,946,0,0
21,78,0,0,0,0,0,0,0,0,0,-1,1245,946,0,0
28,78,0,0,0,0,0,0,0,0,0,-1,1252,946,0,0
35,78,0,0,0,0,0,0,0,0,0,-1,1259,946,0,0
42,78,0,0,0,0,0,0,0,0,0,-1,1266,946,0,0
49,78,0,0,0,0,0,0,0,0,0,-1,1273,946,0,0
56,78,0,0,0,0,0,0,0,0,0,-1,1280,946,0,0
63,78,0,0,0,0,0,0,0,0,0,-1,1287,946,0,0
70,78,0,0,0,0,0,0,0,0,0,-1,1294,946,0,0
77,78,0,0,0,0,0,0,0,0,0,-1,1301,946,0,0
84,78,0,0,0,0,0,0,0,0,0,-1,1308,946,0,0
91,78,0,0,0,0,0,0,0,0,0,-1,1315,946,0,0
98,78,0,0,0,0,0,0,0,0,0,-1,1322,946,0,0
105,78,0,0,0,0,0,0,0,0,0,-1,1329,946,0,0
112,78,0,0,0,0,0,0,0,0,0,-1,1336,946,0,0
119,78,0,0,0,0,0,0,0,0,0,-1,1343,946,0,0
126,78,0,0,0,0,0,0,0,0,0,-1,1350,946,0,0
133,78,0,0,0,0,0,0,0,0,0,-1,1357,946,0,0
140,78,0,0,0,0,0,0,0,0,0,-1,1364,946,0,0
147,78,0,0,0,0,0,0,0,0,0,-1,1371,946,0,0
154,78,0,0,0,0,0,0,0,0,0,-1,1378,946,0,0
161,78,0,0,0,0,0,0,0,0,0,-1,1385,946,0,0
168,78,0,0,0,0,0,0,0,0,0,-1,1392,946,0,0
175,78,0,0,0,0,0,0,0,0,0,-1,1399,946,0,0
182,78,0,0,0,0,0,0,0,0,0,-1,1406,946,0,0
189,78,0,0,0,0,0,0,0,0,0,-1,1413,946,0,0
196,78,0,0,0,0,0,0,0,0,0,-1,1420,946,0,0
203,78,0,0,0,0,0,0,0,0,0,-1,1427,946,0,0
210,78,0,0,0,0,0,0,0,0,0,-1,1434,946,0,0
217,78,0,0,0,0,0,0,0,0,0,-1,1441,946,0,0
224,78,0,0,0,0,0,0,0,0,0,-1,1448,946,0,0
231,78,0,0,0,0,0,0,0,0,0,-1,1455,946,0,0
238,78,0,0,0,0,0,0,0,0,0,-1,1462,946,0,0
245,78,0,0,0,0,0,0,0,0,0,-1,1469,946,0,0
252,78,0,0,0,0,0,0,0,0,0,-1,1476,946,0,0
259,78,0,0,0,0,0,0,0,0,0,-1,1483,946,0,0
266,78,0,0,0,0,0,0,0,0,0,-1,1490,946,0,0
273,78,0,0,0,0,0,0,0,0,0,-1,1497,946,0,0
280,78,0,0,0,0,0,0,0,0,0,-1,1504,946,0,0
287,78,0,0,0,0,0,0,0,0,0,-1,1511,946,0,0
294,78,0,0,0,0,0,0,0,0,0,-1,1518,946,0,0
301,78,0,0,0,0,0,0,0,0,0,-1,1525,946,0,0
308,78,0,0,0,0,0,0,0,0,0,-1,1532,946,0,0
315,78,0,0,0,0,0,0,0,0,0,-1,1539,946,0,0
322,78,0,0,0,0,0,0,0,0,0,-1,1546,946,0,0
329,78,0,0,0,0,0,0,0,0,0,-1,1553,946,0,0
336,78,0,0,0,0,0,0,0,0,0,-1,1560,946,0,0
343,78,0,0,0,0,0,0,0,0,0,-1,1567,946,0,0
350,78,0,0,0,0,0,0,0,0,0,-1,1574,946,0,0
357,78,0,0,0,0,0,0,0,0,0,-1,1581,946,0,0
364,78,0,0,0,0,0,0,0,0,0,-1,1588,946,0,0
371,78,0,0,0,0,0,0,0,0,0,-1,1595,946,0,0
378,78,0,0,0,0,0,0,0,0,0,-1,1602,946,0,0
385,78,0,0,0,0,0,0,0,0,0,-1,1609,946,0,0
392,78,0,0,0,0,0,0,0,0,0,-1,1616,946,0,0
399,78,0,0,0,0,0,0,0,0,0,-1,1623,946,0,0
406,78,0,0,0,0,0,0,0,0,0,-1,1630,946,0,0
413,78,0,0,0,0,0,0,0,0,0,-1,1637,946,0,0
420,78,0,0,0,0,0,0,0,0,0,-1,1644,946,0,0
427,78,0,0,0,0,0,0,0,0,0,-1,1651,946,0,0
434,78,0,0,0,0,0,0,0,0,0,-1,1658,946,0,0
441,78,0,0,0,0,0,0,0,0,0,-1,1665,946,0,0
448,78,0,0,0,0,0,0,0,0,0,-1,1672,946,0,0
455,78,0,0,0,0,0,0,0,0,0,-1,1679,946,0,0
462,78,0,0,0,0,0,0,0,0,0,-1,1686,946,0,0
469,78,0,0,0,0,0,0,0,0,0,-1,1693,946,0,0
476,78,0,0,0,0,0,0,0,0,0,-1,1700,946,0,0
483,78,0,0,0,0,0,0,0,0,0,-1,1707,946,0,0
490,78,0,0,0,0,0,0,0,0,0,-1,1714,946,0,0
497,78,0,0,0,0,0,0,0,0,0,-1,1721,946,0,0
504,78,0,0,0,0,0,0,0,0,0,-1,1728,946,0,0
511,78,0,0,0,0,0,0,0,0,0,-1,1735,946,0,0
518,78,0,0,0,0,0,0,0,0,0,-1,1742,946,0,0
525,78,0,0,0,0,0,0,0,0,0,-1,1749,946,0,0
532,78,0,0,0,0,0,0,0,0,0,-1,1756,946,0,0
539,78,0,0,0,0,0,0,0,0,0,-1,1763,946,0,0
546,78,0,0,0,0,0,0,0,0,0,-1,1770,946,0,0
553,78,0,0,0,0,0,0,0,0,0,-1,1777,946,0,0
560,78,0,0,0,0,0,0,0,0,0,-1,1784,946,0,0
567,78,0,0,0,0,0,0,0,0,0,-1,1791,946,0,0
574,78,0,0,0,0,0,0,0,0,0,-1,1798,946,0,0
581,78,0,0,0,0,0,0,0,0,0,-1,1805,946,0,0
588,78,0,0,0,0,0,0,0,0,0,-1,1812,946,0,0
595,78,0,0,0,0,0,0,0,0,0,-1,1819,946,0,0
602,78,0,0,0,0,0,0,0,0,0,-1,1826,946,0,0
609,78,0,0,0,0,0,0,0,0,0,-1,1833,946,0,0
616,78,0,0,0,0,0,0,0,0,0,-1,1840,946,0,0
623,78,0,0,0,0,0,0,0,0,0,-1,1847,946,0,0
630,78,0,0,0,0,0,0,0,0,0,-1,1854,946,0,0
637,78,54.2468,2.80157,-0.00856999,0.00177338,0.00144145,0.0019705,-0.00876711,1.43489,0.00660036,0.0461345,1861,946,54.2468,-2.8016
644,78,54.1376,2.74133,-0.00623859,0.00186278,0.00026962,0.00187174,-0.00624756,1.53756,0.00490936,0.0445305,1868,946,54.1375,-2.7413
651,78,54.1841,2.65387,-0.00443347,0.00195719,-0.000347362,0.00197602,-0.00445229,-1.51665,0.00380207,0.0446262,1875,946,54.1841,-2.6539
658,78,54.1785,2.68781,-0.0030533,0.00215023,-0.000444572,0.00218794,-0.00309101,-1.48618,0.00306263,0.0395016,1882,946,54.1784,-2.68781
665,78,54.1431,2.58081,-0.00197,0.00237719,-0.000120895,0.00238055,-0.00197336,-1.54302,0.00251739,0.0380189,1889,946,54.143,-2.58084
672,78,54.147,2.46777,-0.00144308,0.00236729,0.000433837,0.00241606,-0.00149185,1.45885,0.00227717,0.0398608,1896,946,54.1469,-2.46777
679,78,54.2073,2.51904,-0.00123916,0.0020586,0.00101764,0.00234735,-0.00152791,1.29432,0.00225399,0.0409064,1903,946,54.2073,-2.51904
686,78,54.1125,2.66125,-0.00102337,0.00163991,0.00135243,0.00220626,-0.00158971,1.17422,0.00220122,0.0385847,1910,946,54.1125,-2.66128
693,78,54.0597,2.65027,-0.000828627,0.00133522,0.00137088,0.00199969,-0.00149309,1.11946,0.00202361,0.0303006,1917,946,54.0596,-2.65025
700,78,54.0809,2.74939,-0.000961434,0.00116567,0.00125691,0.00174862,-0.00154438,1.13653,0.00190243,0.0256167,1924,946,54.0809,-2.74939
707,78,54.1541,2.85992,0,0,0,0,0,0,0,-1,1931,946,54.154,-2.85994
714,78,51.4468,4.32098,0,0,0,0,0,0,0,-1,1938,946,51.4468,-4.321
721,78,51.3545,4.72559,-0.00283403,0.00166927,0.000843399,0.00182204,-0.0029868,1.3916,0.0028034,0.0304719,1945,946,51.3545,-4.7256
728,78,51.2563,5.23615,-0.0035385,0.00231327,0.000781492,0.00241584,-0.00364107,1.44029,0.00352073,0.0359474,1952,946,51.2564,-5.23612
735,78,51.3478,5.64355,-0.00393171,0.00350965,0.000381541,0.00352916,-0.00395122,1.5197,0.00432109,0.0258898,1959,946,51.3478,-5.64356
742,78,51.3938,6.01581,-0.00464698,0.00511139,-0.000191713,0.00511516,-0.00465074,-1.55116,0.00564047,0.0201878,1966,946,51.3937,-6.01581
749,78,51.2731,6.42639,-0.00529702,0.00789787,-0.000625946,0.0079275,-0.00532665,-1.5235,0.00770124,0.0159295,1973,946,51.2731,-6.4264
756,78,51.1919,6.79181,-0.00550091,0.0126541,-0.00147755,0.0127735,-0.00562037,-1.49012,0.0108841,0.015646,1980,946,51.1919,-6.79184
763,78,51.1013,7.15125,-0.00488457,0.0175724,-0.00317941,0.0180138,-0.00532603,-1.43283,0.0141234,0.0154262,1987,946,51.1013,-7.15125
770,78,51.016,7.53351,-0.00365584,0.0236823,-0.00495596,0.024553,-0.00452654,-1.39688,0.0180675,0.0213761,1994,946,51.0159,-7.53353
777,78,50.7952,8.41888,-0.00127525,0.030558,-0.00824522,0.0325668,-0.0032841,-1.33181,0.0228846,0.0414526,2001,946,50.7951,-8.41886
784,78,50.8992,8.6817,0,0,0,0,0,0,0,-1,2008,946,50.8992,-8.68169
791,78,51.7224,8.85223,0,0,0,0,0,0,0,-1,2015,946,51.7225,-8.85222
798,78,51.2927,7.8479,0,0,0,0,0,0,0,-1,2022,946,51.2928,-7.84791
805,78,50.8481,6.75513,0,0,0,0,0,0,0,-1,2029,946,50.848,-6.75512
812,78,0,0,0,0,0,0,0,0,0,-1,2036,946,0,0
-700,71,0,0,0,0,0,0,0,0,0,-1,524,953,0,0
-693,71,0,0,0,0,0,0,0,0,0,-1,531,953,0,0
-686,71,-41.6073,2.99139,0,0,0,0,0,0,0,-1,538,953,-41.6073,-2.9914
-679,71,-41.03,3.47382,0,0,0,0,0,0,0,-1,545,953,-41.03,-3.47382
-672,71,-40.4277,3.93317,0,0,0,0,0,0,0,-1,552,953,-40.4277,-3.93316
-665,71,-37.4913,6.88116,0,0,0,0,0,0,0,-1,559,953,-37.4913,-6.88118
-658,71,-38.8268,6.11566,0,0,0,0,0,0,0,-1,566,953,-38.8268,-6.11566
-651,71,-38.9203,5.64386,-0.0271146,0.0452676,0.0151862,0.0483247,-0.0301716,1.37215,0.0457221,0.0444026,573,953,-38.9203,-5.64388
-644,71,-38.996,5.1662,-0.0198971,0.0333034,0.0106957,0.0353732,-0.0219669,1.37964,0.0334056,0.0332293,580,953,-38.996,-5.16623
-637,71,-39.2305,4.78162,-0.013438,0.0229005,0.00660693,0.0240644,-0.0146019,1.39641,0.0225458,0.0170761,587,953,-39.2305,-4.78161
-630,71,-39.3576,4.4024,-0.00891589,0.0151425,0.00420873,0.0158575,-0.0096309,1.40251,0.0148614,0.0165976,594,953,-39.3576,-4.40242
-623,71,-39.3981,4.04388,-0.00727312,0.0110391,0.00302429,0.0115256,-0.00775967,1.41129,0.0112049,0.0152488,601,953,-39.3981,-4.04391
-616,71,-39.41,3.64502,-0.0065371,0.007647,0.0016395,0.00783403,-0.00672414,1.4572,0.0084133,0.0149876,608,953,-39.41,-3.64503
-609,71,-39.3759,3.33868,-0.00622974,0.0050511,0.000196211,0.00505451,-0.00623315,1.55341,0.00652877,0.0158632,615,953,-39.3759,-3.33871
-602,71,-39.3655,3.01221,-0.00619965,0.00299681,-0.0012597,0.00316623,-0.00636908,-1.4371,0.00560778,0.0167852,622,953,-39.3655,-3.01222
-595,71,-39.3823,2.65033,-0.0061999,0.00155511,-0.00228951,0.00218059,-0.00682539,-1.30411,0.00542522,0.0183791,629,953,-39.3823,-2.6503
-588,71,-39.3364,2.33026,-0.00613024,0.00034873,-0.00284354,0.0014197,-0.00720121,-1.2106,0.00533735,0.022378,636,953,-39.3364,-2.33026
-581,71,-39.1516,1.96576,0,0,0,0,0,0,0,-1,643,953,-39.1515,-1.96579
-574,71,-40.4373,1.18176,-0.00562221,-0.000515905,-0.00358329,0.00133078,-0.00746889,-1.09494,0.00547701,0.0433744,650,953,-40.4373,-1.18177
-567,71,-40.7722,0.842346,-0.00531324,-0.0005535,-0.0037176,0.00148073,-0.00734748,-1.07011,0.00545925,0.0195469,657,953,-40.7721,-0.84236
-560,71,-40.7989,0.846375,-0.00468418,-0.000428688,-0.00358185,0.00160973,-0.0067226,-1.05341,0.00510364,0.0282071,664,953,-40.7989,-0.846362
-553,71,-40.7869,0.21936,0,0,0,0,0,0,0,-1,671,953,-40.7869,-0.219377
-546,71,-40.8187,0.732483,-0.00180204,0.000373754,-0.00265624,0.00215625,-0.00358453,-0.979759,0.00334846,0.0424706,678,953,-40.8187,-0.732477
-539,71,-40.7697,0.975647,0.000506903,0.000929726,-0.00193822,0.00266803,-0.0012314,-0.839721,0.00230171,0.0394741,685,953,-40.7697,-0.975646
-532,71,-40.6131,1.11011,0.00342192,0.00152285,-0.00140619,0.00416914,0.000775628,-0.488435,0.00256035,0.0428624,692,953,-40.6131,-1.11011
-525,71,-40.6601,1.07141,0.00550416,0.00251803,-0.0019606,0.00647549,0.00154671,-0.459977,0.0039049,0.0446487,699,953,-40.6601,-1.07143
-518,71,0,0,0,0,0,0,0,0,0,-1,706,953,0,0
-511,71,0,0,0,0,0,0,0,0,0,-1,713,953,0,0
-504,71,0,0,0,0,0,0,0,0,0,-1,720,953,0,0
-497,71,0,0,0,0,0,0,0,0,0,-1,727,953,0,0
-490,71,0,0,0,0,0,0,0,0,0,-1,734,953,0,0
-483,71,0,0,0,0,0,0,0,0,0,-1,741,953,0,0
-476,71,0,0,0,0,0,0,0,0,0,-1,748,953,0,0
-469,71,0,0,0,0,0,0,0,0,0,-1,755,953,0,0
-462,71,0,0,0,0,0,0,0,0,0,-1,762,953,0,0
-455,71,0,0,0,0,0,0,0,0,0,-1,769,953,0,0
-448,71,0,0,0,0,0,0,0,0,0,-1,776,953,0,0
-441,71,0,0,0,0,0,0,0,0,0,-1,783,953,0,0
-434,71,0,0,0,0,0,0,0,0,0,-1,790,953,0,0
-427,71,0,0,0,0,0,0,0,0,0,-1,797,953,0,0
-420,71,0,0,0,0,0,0,0,0,0,-1,804,953,0,0
-413,71,0,0,0,0,0,0,0,0,0,-1,811,953,0,0
-406,71,0,0,0,0,0,0,0,0,0,-1,818,953,0,0
-399,71,0,0,0,0,0,0,0,0,0,-1,825,953,0,0
-392,71,0,0,0,0,0,0,0,0,0,-1,832,953,0,0
-385,71,0,0,0,0,0,0,0,0,0,-1,839,953,0,0
-378,71,0,0,0,0,0,0,0,0,0,-1,846,953,0,0
-371,71,0,0,0,0,0,0,0,0,0,-1,853,953,0,0
-364,71,0,0,0,0,0,0,0,0,0,-1,860,953,0,0
-357,71,0,0,0,0,0,0,0,0,0,-1,867,953,0,0
-350,71,0,0,0,0,0,0,0,0,0,-1,874,953,0,0
-343,71,0,0,0,0,0,0,0,0,0,-1,881,953,0,0
-336,71,0,0,0,0,0,0,0,0,0,-1,888,953,0,0
-329,71,0,0,0,0,0,0,0,0,0,-1,895,953,0,0
-322,71,0,0,0,0,0,0,0,0,0,-1,902,953,0,0
-315,71,0,0,0,0,0,0,0,0,0,-1,909,953,0,0
-308,71,0,0,0,0,0,0,0,0,0,-1,916,953,0,0
-301,71,0,0,0,0,0,0,0,0,0,-1,923,953,0,0
-294,71,0,0,0,0,0,0,0,0,0,-1,930,953,0,0
-287,71,0,0,0,0,0,0,0,0,0,-1,937,953,0,0
-280,71,0,0,0,0,0,0,0,0,0,-1,944,953,0,0
-273,71,0,0,0,0,0,0,0,0,0,-1,951,953,0,0
-266,71,0,0,0,0,0,0,0,0,0,-1,958,953,0,0
-259,71,0,0,0,0,0,0,0,0,0,-1,965,953,0,0
-252,71,0,0,0,0,0,0,0,0,0,-1,972,953,0,0
-245,71,0,0,0,0,0,0,0,0,0,-1,979,953,0,0
-238,71,0,0,0,0,0,0,0,0,0,-1,986,953,0,0
-231,71,0,0,0,0,0,0,0,0,0,-1,993,953,0,0
-224,71,0,0,0,0,0,0,0,0,0,-1,1000,953,0,0
-217,71,0,0,0,0,0,0,0,0,0,-1,1007,953,0,0
-210,71,0,0,0,0,0,0,0,0,0,-1,1014,953,0,0
-203,71,0,0,0,0,0,0,0,0,0,-1,1021,953,0,0
-196,71,0,0,0,0,0,0,0,0,0,-1,1028,953,0,0
-189,71,0,0,0,0,0,0,0,0,0,-1,1035,953,0,0
-182,71,0,0,0,0,0,0,0,0,0,-1,1042,953,0,0
-175,71,0,0,0,0,0,0,0,0,0,-1,1049,953,0,0
-168,71,0,0,0,0,0,0,0,0,0,-1,1056,953,0,0
-161,71,0,0,0,0,0,0,0,0,0,-1,1063,953,0,0
-154,71,0,0,0,0,0,0,0,0,0,-1,1070,953,0,0
-147,71,0,0,0,0,0,0,0,0,0,-1,1077,953,0,0
-140,71,0,0,0,0,0,0,0,0,0,-1,1084,953,0,0
-133,71,0,0,0,0,0,0,0,0,0,-1,1091,953,0,0
-126,71,0,0,0,0,0,0,0,0,0,-1,1098,953,0,0
-119,71,0,0,0,0,0,0,0,0,0,-1,1105,953,0,0
-112,71,0,0,0,0,0,0,0,0,0,-1,1112,953,0,0
-105,71,0,0,0,0,0,0,0,0,0,-1,1119,953,0,0
-98,71,0,0,0,0,0,0,0,0,0,-1,1126,953,0,0
-91,71,0,0,0,0,0,0,0,0,0,-1,1133,953,0,0
-84,71,0,0,0,0,0,0,0,0,0,-1,1140,953,0,0
-77,71,0,0,0,0,0,0,0,0,0,-1,1147,953,0,0
-70,71,0,0,0,0,0,0,0,0,0,-1,1154,953,0,0
-63,71,0,0,0,0,0,0,0,0,0,-1,1161,953,0,0
-56,71,0,0,0,0,0,0,0,0,0,-1,1168,953,0,0
-49,71,0,0,0,0,0,0,0,0,0,-1,1175,953,0,0
-42,71,0,0,0,0,0,0,0,0,0,-1,1182,953,0,0
-35,71,0,0,0,0,0,0,0,0,0,-1,1189,953,0,0
-28,71,0,0,0,0,0,0,0,0,0,-1,1196,953,0,0
-21,71,0,0,0,0,0,0,0,0,0,-1,1203,953,0,0
-14,71,0,0,0,0,0,0,0,0,0,-1,1210,953,0,0
-7,71,0,0,0,0,0,0,0,0,0,-1,1217,953,0,0
0,71,0,0,0,0,0,0,0,0,0,-1,1224,953,0,0
7,71,0,0,0,0,0,0,0,0,0,-1,1231,953,0,0
14,71,0,0,0,0,0,0,0,0,0,-1,1238,953,0,0
21,71,0,0,0,0,0,0,0,0,0,-1,1245,953,0,0
28,71,0,0,0,0,0,0,0,0,0,-1,1252,953,0,0
35,71,0,0,0,0,0,0,0,0,0,-1,1259,953,0,0
42,71,0,0,0,0,0,0,0,0,0,-1,1266,953,0,0
49,71,0,0,0,0,0,0,0,0,0,-1,1273,953,0,0
56,71,0,0,0,0,0,0,0,0,0,-1,1280,953,0,0
63,71,0,0,0,0,0,0,0,0,0,-1,1287,953,0,0
70,71,0,0,0,0,0,0,0,0,0,-1,1294,953,0,0
77,71,0,0,0,0,0,0,0,0,0,-1,1301,953,0,0
84,71,0,0,0,0,0,0,0,0,0,-1,1308,953,0,0
91,71,0,0,0,0,0,0,0,0,0,-1,1315,953,0,0
98,71,0,0,0,0,0,0,0,0,0,-1,1322,953,0,0
105,71,0,0,0,0,0,0,0,0,0,-1,1329,953,0,0
112,71,0,0,0,0,0,0,0,0,0,-1,1336,953,0,0
119,71,0,0,0,0,0,0,0,0,0,-1,1343,953,0,0
126,71,0,0,0,0,0,0,0,0,0,-1,1350,953,0,0
133,71,0,0,0,0,0,0,0,0,0,-1,1357,953,0,0
140,71,0,0,0,0,0,0,0,0,0,-1,1364,953,0,0
147,71,0,0,0,0,0,0,0,0,0,-1,1371,953,0,0
154,71,0,0,0,0,0,0,0,0,0,-1,1378,953,0,0
161,71,0,0,0,0,0,0,0,0,0,-1,1385,953,0,0
168,71,0,0,0,0,0,0,0,0,0,-1,1392,953,0,0
175,71,0,0,0,0,0,0,0,0,0,-1,1399,953,0,0
182,71,0,0,0,0,0,0,0,0,0,-1,1406,953,0,0
189,71,0,0,0,0,0,0,0,0,0,-1,1413,953,0,0
196,71,0,0,0,0,0,0,0,0,0,-1,1420,953,0,0
203,71,0,0,0,0,0,0,0,0,0,-1,1427,953,0,0
210,71,0,0,0,0,0,0,0,0,0,-1,1434,953,0,0
217,71,0,0,0,0,0,0,0,0,0,-1,1441,953,0,0
224,71,0,0,0,0,0,0,0,0,0,-1,1448,953,0,0
231,71,0,0,0,0,0,0,0,0,0,-1,1455,953,0,0
238,71,0,0,0,0,0,0,0,0,0,-1,1462,953,0,0
245,71,0,0,0,0,0,0,0,0,0,-1,1469,953,0,0
252,71,0,0,0,0,0,0,0,0,0,-1,1476,953,0,0
259,71,0,0,0,0,0,0,0,0,0,-1,1483,953,0,0
266,71,0,0,0,0,0,0,0,0,0,-1,1490,953,0,0
273,71,0,0,0,0,0,0,0,0,0,-1,1497,953,0,0
280,71,0,0,0,0,0,0,0,0,0,-1,1504,953,0,0
287,71,0,0,0,0,0,0,0,0,0,-1,1511,953,0,0
294,71,0,0,0,0,0,0,0,0,0,-1,1518,953,0,0
301,71,0,0,0,0,0,0,0,0,0,-1,1525,953,0,0
308,71,0,0,0,0,0,0,0,0,0,-1,1532,953,0,0
315,71,0,0,0,0,0,0,0,0,0,-1,1539,953,0,0
322,71,0,0,0,0,0,0,0,0,0,-1,1546,953,0,0
329,71,0,0,0,0,0,0,0,0,0,-1,1553,953,0,0
336,71,0,0,0,0,0,0,0,0,0,-1,1560,953,0,0
343,71,0,0,0,0,0,0,0,0,0,-1,1567,953,0,0
350,71,0,0,0,0,0,0,0,0,0,-1,1574,953,0,0
357,71,0,0,0,0,0,0,0,0,0,-1,1581,953,0,0
364,71,0,0,0,0,0,0,0,0,0,-1,1588,953,0,0
371,71,0,0,0,0,0,0,0,0,0,-1,1595,953,0,0
378,71,0,0,0,0,0,0,0,0,0,-1,1602,953,0,0
385,71,0,0,0,0,0,0,0,0,0,-1,1609,953,0,0
392,71,0,0,0,0,0,0,0,0,0,-1,1616,953,0,0
399,71,0,0,0,0,0,0,0,0,0,-1,1623,953,0,0
406,71,0,0,0,0,0,0,0,0,0,-1,1630,953,0,0
413,71,0,0,0,0,0,0,0,0,0,-1,1637,953,0,0
420,71,0,0,0,0,0,0,0,0,0,-1,1644,953,0,0
427,71,0,0,0,0,0,0,0,0,0,-1,1651,953,0,0
434,71,0,0,0,0,0,0,0,0,0,-1,1658,953,0,0
441,71,0,0,0,0,0,0,0,0,0,-1,1665,953,0,0
448,71,0,0,0,0,0,0,0,0,0,-1,1672,953,0,0
455,71,0,0,0,0,0,0,0,0,0,-1,1679,953,0,0
462,71,0,0,0,0,0,0,0,0,0,-1,1686,953,0,0
469,71,0,0,0,0,0,0,0,0,0,-1,1693,953,0,0
476,71,0,0,0,0,0,0,0,0,0,-1,1700,953,0,0
483,71,0,0,0,0,0,0,0,0,0,-1,1707,953,0,0
490,71,0,0,0,0,0,0,0,0,0,-1,1714,953,0,0
497,71,0,0,0,0,0,0,0,0,0,-1,1721,953,0,0
504,71,0,0,0,0,0,0,0,0,0,-1,1728,953,0,0
511,71,0,0,0,0,0,0,0,0,0,-1,1735,953,0,0
518,71,0,0,0,0,0,0,0,0,0,-1,1742,953,0,0
525,71,0,0,0,0,0,0,0,0,0,-1,1749,953,0,0
532,71,0,0,0,0,0,0,0,0,0,-1,1756,953,0,0
539,71,0,0,0,0,0,0,0,0,0,-1,1763,953,0,0
546,71,0,0,0,0,0,0,0,0,0,-1,1770,953,0,0
553,71,0,0,0,0,0,0,0,0,0,-1,1777,953,0,0
560,71,0,0,0,0,0,0,0,0,0,-1,1784,953,0,0
567,71,0,0,0,0,0,0,0,0,0,-1,1791,953,0,0
574,71,0,0,0,0,0,0,0,0,0,-1,1798,953,0,0
581,71,0,0,0,0,0,0,0,0,0,-1,1805,953,0,0
588,71,0,0,0,0,0,0,0,0,0,-1,1812,953,0,0
595,71,0,0,0,0,0,0,0,0,0,-1,1819,953,0,0
602,71,0,0,0,0,0,0,0,0,0,-1,1826,953,0,0
609,71,0,0,0,0,0,0,0,0,0,-1,1833,953,0,0
616,71,0,0,0,0,0,0,0,0,0,-1,1840,953,0,0
623,71,0,0,0,0,0,0,0,0,0,-1,1847,953,0,0
630,71,0,0,0,0,0,0,0,0,0,-1,1854,953,0,0
637,71,54.3365,2.78308,-0.00732807,0.00240352,0.00163825,0.00267191,-0.00759645,1.40841,0.0061515,0.0394478,1861,953,54.3365,-2.78308
644,71,54.2737,2.83484,-0.00523884,0.00233588,0.000325862,0.00234987,-0.00525283,1.52788,0.00449482,0.0418262,1868,953,54.2737,-2.83483
651,71,54.2302,2.67828,-0.00368146,0.002259,-0.000372942,0.00228232,-0.00370478,-1.50834,0.00348902,0.0398742,1875,953,54.2302,-2.67829
658,71,54.2067,2.65515,-0.00255657,0.00228184,-0.000495486,0.00233206,-0.00260679,-1.46979,0.00285292,0.0366378,1882,953,54.2067,-2.65514
665,71,54.166,2.64099,-0.00178819,0.00240166,-0.000135504,0.00240603,-0.00179257,-1.5385,0.00243268,0.0372428,1889,953,54.166,-2.64101
672,71,54.1567,2.47449,-0.00150402,0.00236577,0.000496863,0.00242854,-0.00156679,1.44512,0.00232453,0.038774,1896,953,54.1567,-2.47448
679,71,54.0964,2.55267,-0.00145146,0.0021044,0.00119472,0.00246853,-0.00181559,1.27496,0.00248299,0.0417278,1903,953,54.0964,-2.55267
686,71,54.0441,2.59485,-0.00132955,0.00169271,0.00163682,0.00240928,-0.00204613,1.15814,0.00257518,0.0396415,1910,953,54.044,-2.59484
693,71,54.1096,2.54504,-0.00119764,0.00139372,0.00173067,0.00225998,-0.00206391,1.10672,0.00249725,0.0328892,1917,953,54.1096,-2.54504
700,71,54.1006,2.64697,-0.00136125,0.00122459,0.00166172,0.00203712,-0.00217379,1.11601,0.0024316,0.0288097,1924,953,54.1006,-2.64698
707,71,54.1003,2.86279,0,0,0,0,0,0,0,-1,1931,953,54.1004,-2.86281
714,71,52.1854,4.46198,0,0,0,0,0,0,0,-1,1938,953,52.1854,-4.46195
721,71,51.8994,4.81091,-0.00320116,0.00182819,0.00127304,0.00213206,-0.00350504,1.33648,0.0032866,0.0406341,1945,953,51.8995,-4.8109
728,71,51.6903,5.27844,-0.00383531,0.00258532,0.00119049,0.00279895,-0.00404894,1.39324,0.00397552,0.0295356,1952,953,51.6903,-5.27842
735,71,51.7347,5.71985,-0.00414107,0.00387708,0.000757733,0.00394806,-0.00421205,1.4774,0.00471206,0.0220979,1959,953,51.7347,-5.71983
742,71,51.7919,6.06201,-0.00478716,0.0055075,0.000143922,0.00550951,-0.00478917,1.55682,0.00595079,0.0221944,1966,953,51.7919,-6.062
749,71,51.7504,6.43018,-0.00527422,0.00833703,-0.000420895,0.00835004,-0.00528722,-1.53991,0.00793939,0.0202961,1973,953,51.7504,-6.43015
756,71,51.6809,6.74738,-0.00524262,0.0133134,-0.00168285,0.0134648,-0.00539401,-1.48108,0.0112156,0.0188757,1980,953,51.6809,-6.74739
763,71,51.6017,7.11438,-0.00423805,0.0183426,-0.00413299,0.0190753,-0.00497075,-1.39534,0.0146575,0.0201094,1987,953,51.6017,-7.1144
770,71,51.401,7.39697,-0.00254846,0.0248653,-0.00675614,0.0264399,-0.00412307,-1.34182,0.0191495,0.0240227,1994,953,51.4011,-7.39698
777,71,51.2295,8.0675,0.000424264,0.032132,-0.0111212,0.0356437,-0.00308746,-1.26494,0.0248556,0.0442527,2001,953,51.2295,-8.06753
784,71,51.478,8.68921,0.00562221,0.0403932,-0.0182531,0.0482155,-0.00220008,-1.16593,0.0329015,0.0466384,2008,953,51.4779,-8.68918
791,71,51.5452,9.15985,0,0,0,0,0,0,0,-1,2015,953,51.5451,-9.15982
798,71,51.4243,7.35956,0,0,0,0,0,0,0,-1,2022,953,51.4244,-7.35954
805,71,45.0161,6.63287,0,0,0,0,0,0,0,-1,2029,953,45.0161,-6.63289
812,71,0,0,0,0,0,0,0,0,0,-1,2036,953,0,0
-700,64,0,0,0,0,0,0,0,0,0,-1,524,960,0,0
-693,64,0,0,0,0,0,0,0,0,0,-1,531,960,0,0
-686,64,-40.6627,11.1517,0,0,0,0,0,0,0,-1,538,960,-40.6627,-11.1517
-679,64,-40.778,3.41083,0,0,0,0,0,0,0,-1,545,960,-40.778,-3.41085
-672,64,-40.3928,3.72095,0,0,0,0,0,0,0,-1,552,960,-40.3928,-3.72093
-665,64,-39.8782,5.70416,0,0,0,0,0,0,0,-1,559,960,-39.8782,-5.70414
-658,64,-39.8714,5.47986,0,0,0,0,0,0,0,-1,566,960,-39.8714,-5.47984
-651,64,-39.7658,5.25024,-0.0298041,0.0473242,0.0212973,0.0528142,-0.0352941,1.31851,0.0512035,0.0429871,573,960,-39.7658,-5.25027
-644,64,-39.7172,4.87885,-0.0214847,0.0350177,0.0146709,0.0385999,-0.0250669,1.33131,0.0370338,0.0320101,580,960,-39.7172,-4.87886
-637,64,-39.6801,4.59796,-0.0141633,0.0239909,0.00888369,0.0259579,-0.0161303,1.35289,0.0245195,0.0173053,587,960,-39.68,-4.59797
-630,64,-39.7399,4.29358,-0.00899818,0.0155826,0.00520821,0.0166406,-0.0100562,1.37038,0.0155688,0.0142408,594,960,-39.7398,-4.29359
-623,64,-39.759,4.00043,-0.00706237,0.011355,0.00329684,0.0119274,-0.00763474,1.3989,0.0113845,0.0148714,601,960,-39.7591,-4.00043
-616,64,-39.7732,3.66919,-0.0061511,0.00796183,0.00130693,0.00808184,-0.0062711,1.47923,0.00830863,0.0184769,608,960,-39.7732,-3.66917
-609,64,-39.7507,3.38715,-0.00577829,0.00540274,-0.000458098,0.00542148,-0.00579703,-1.52992,0.00647822,0.0172169,615,960,-39.7507,-3.38715
-602,64,-39.7372,3.07568,-0.00564383,0.00326811,-0.00204568,0.00371525,-0.00609097,-1.3556,0.00571674,0.0173715,622,960,-39.7373,-3.07569
-595,64,-39.7636,2.77197,-0.00554601,0.00167765,-0.00317625,0.00287558,-0.00674395,-1.21014,0.00570156,0.0208822,629,960,-39.7636,-2.77199
-588,64,-39.696,2.50342,-0.00544553,0.000360386,-0.00385933,0.00228667,-0.00737182,-1.10785,0.00582827,0.0326947,636,960,-39.6961,-2.5034
-581,64,-39.5554,2.21747,0,0,0,0,0,0,0,-1,643,960,-39.5554,-2.21749
-574,64,-40.6279,1.11224,-0.0048742,-0.00063563,-0.0047055,0.00240581,-0.00791564,-0.996985,0.0062357,0.0459749,650,960,-40.628,-1.11223
-567,64,-40.7508,0.881836,-0.00452458,-0.000714233,-0.00477171,0.00251858,-0.00775739,-0.975334,0.00618449,0.0254256,657,960,-40.7508,-0.881842
-560,64,-40.8423,0.891235,-0.00383879,-0.000616612,-0.00451833,0.00256926,-0.00702467,-0.956655,0.0057347,0.0343235,664,960,-40.8423,-0.891215
-553,64,-40.7137,0.445313,-0.00262332,-0.000325228,-0.00399808,0.00268565,-0.0056342,-0.925326,0.00490299,0.0405198,671,960,-40.7137,-0.445342
-546,64,-40.6777,0.549988,-0.000851582,0.000111294,-0.00325029,0.00291561,-0.0036559,-0.858924,0.00380208,0.0407197,678,960,-40.6777,-0.549979
-539,64,-40.8565,1.15411,0.00145837,0.000613762,-0.00237426,0.00344759,-0.00137546,-0.697385,0.00286898,0.0396243,685,960,-40.8565,-1.15411
-532,64,-40.8911,1.30542,0.00433994,0.00120961,-0.00184751,0.00519615,0.000353401,-0.433972,0.00335251,0.0419109,692,960,-40.8911,-1.30539
-525,64,-40.7563,1.07874,0.00638448,0.0023403,-0.00268844,0.0077264,0.000998387,-0.462962,0.00485249,0.0420059,699,960,-40.7563,-1.07876
-518,64,0,0,0,0,0,0,0,0,0,-1,706,960,0,0
-511,64,0,0,0,0,0,0,0,0,0,-1,713,960,0,0
-504,64,0,0,0,0,0,0,0,0,0,-1,720,960,0,0
-497,64,0,0,0,0,0,0,0,0,0,-1,727,960,0,0
-490,64,0,0,0,0,0,0,0,0,0,-1,734,960,0,0
-483,64,0,0,0,0,0,0,0,0,0,-1,741,960,0,0
-476,64,0,0,0,0,0,0,0,0,0,-1,748,960,0,0
-469,64,0,0,0,0,0,0,0,0,0,-1,755,960,0,0
-462,64,0,0,0,0,0,0,0,0,0,-1,762,960,0,0
-455,64,0,0,0,0,0,0,0,0,0,-1,769,960,0,0
-448,64,0,0,0,0,0,0,0,0,0,-1,776,960,0,0
-441,64,0,0,0,0,0,0,0,0,0,-1,783,960,0,0
-434,64,0,0,0,0,0,0,0,0,0,-1,790,960,0,0
-427,64,0,0,0,0,0,0,0,0,0,-1,797,960,0,0
-420,64,0,0,0,0,0,0,0,0,0,-1,804,960,0,0
-413,64,0,0,0,0,0,0,0,0,0,-1,811,960,0,0
-406,64,0,0,0,0,0,0,0,0,0,-1,818,960,0,0
-399,64,0,0,0,0,0,0,0,0,0,-1,825,960,0,0
-392,64,0,0,0,0,0,0,0,0,0,-1,832,960,0,0
-385,64,0,0,0,0,0,0,0,0,0,-1,839,960,0,0
-378,64,0,0,0,0,0,0,0,0,0,-1,846,960,0,0
-371,64,0,0,0,0,0,0,0,0,0,-1,853,960,0,0
-364,64,0,0,0,0,0,0,0,0,0,-1,860,960,0,0
-357,64,0,0,0,0,0,0,0,0,0,-1,867,960,0,0
-350,64,0,0,0,0,0,0,0,0,0,-1,874,960,0,0
-343,64,0,0,0,0,0,0,0,0,0,-1,881,960,0,0
-336,64,0,0,0,0,0,0,0,0,0,-1,888,960,0,0
-329,64,0,0,0,0,0,0,0,0,0,-1,895,960,0,0
-322,64,0,0,0,0,0,0,0,0,0,-1,902,960,0,0
-315,64,0,0,0,0,0,0,0,0,0,-1,909,960,0,0
-308,64,0,0,0,0,0,0,0,0,0,-1,916,960,0,0
-301,64,0,0,0,0,0,0,0,0,0,-1,923,960,0,0
-294,64,0,0,0,0,0,0,0,0,0,-1,930,960,0,0
-287,64,0,0,0,0,0,0,0,0,0,-1,937,960,0,0
-280,64,0,0,0,0,0,0,0,0,0,-1,944,960,0,0
-273,64,0,0,0,0,0,0,0,0,0,-1,951,960,0,0
-266,64,0,0,0,0,0,0,0,0,0,-1,958,960,0,0
-259,64,0,0,0,0,0,0,0,0,0,-1,965,960,0,0
-252,64,0,0,0,0,0,0,0,0,0,-1,972,960,0,0
-245,64,0,0,0,0,0,0,0,0,0,-1,979,960,0,0
-238,64,0,0,0,0,0,0,0,0,0,-1,986,960,0,0
-231,64,0,0,0,0,0,0,0,0,0,-1,993,960,0,0
-224,64,0,0,0,0,0,0,0,0,0,-1,1000,960,0,0
-217,64,0,0,0,0,0,0,0,0,0,-1,1007,960,0,0
-210,64,0,0,0,0,0,0,0,0,0,-1,1014,960,0,0
-203,64,0,0,0,0,0,0,0,0,0,-1,1021,960,0,0
-196,64,0,0,0,0,0,0,0,0,0,-1,1028,960,0,0
-189,64,0,0,0,0,0,0,0,0,0,-1,1035,960,0,0
-182,64,0,0,0,0,0,0,0,0,0,-1,1042,960,0,0
-175,64,0,0,0,0,0,0,0,0,0,-1,1049,960,0,0
-168,64,0,0,0,0,0,0,0,0,0,-1,1056,960,0,0
-161,64,0,0,0,0,0,0,0,0,0,-1,1063,960,0,0
-154,64,0,0,0,0,0,0,0,0,0,-1,1070,960,0,0
-147,64,0,0,0,0,0,0,0,0,0,-1,1077,960,0,0
-140,64,0,0,0,0,0,0,0,0,0,-1,1084,960,0,0
-133,64,0,0,0,0,0,0,0,0,0,-1,1091,960,0,0
-126,64,0,0,0,0,0,0,0,0,0,-1,1098,960,0,0
-119,64,0,0,0,0,0,0,0,0,0,-1,1105,960,0,0
-112,64,0,0,0,0,0,0,0,0,0,-1,1112,960,0,0
-105,64,0,0,0,0,0,0,0,0,0,-1,1119,960,0,0
-98,64,0,0,0,0,0,0,0,0,0,-1,1126,960,0,0
-91,64,0,0,0,0,0,0,0,0,0,-1,1133,960,0,0
-84,64,0,0,0,0,0,0,0,0,0,-1,1140,960,0,0
-77,64,0,0,0,0,0,0,0,0,0,-1,1147,960,0,0
-70,64,0,0,0,0,0,0,0,0,0,-1,1154,960,0,0
-63,64,0,0,0,0,0,0,0,0,0,-1,1161,960,0,0
-56,64,0,0,0,0,0,0,0,0,0,-1,1168,960,0,0
-49,64,0,0,0,0,0,0,0,0,0,-1,1175,960,0,0
-42,64,0,0,0,0,0,0,0,0,0,-1,1182,960,0,0
-35,64,0,0,0,0,0,0,0,0,0,-1,1189,960,0,0
-28,64,0,0,0,0,0,0,0,0,0,-1,1196,960,0,0
-21,64,0,0,0,0,0,0,0,0,0,-1,1203,960,0,0
-14,64,0,0,0,0,0,0,0,0,0,-1,1210,960,0,0
-7,64,0,0,0,0,0,0,0,0,0,-1,1217,960,0,0
0,64,0,0,0,0,0,0,0,0,0,-1,1224,960,0,0
7,64,0,0,0,0,0,0,0,0,0,-1,1231,960,0,0
14,64,0,0,0,0,0,0,0,0,0,-1,1238,960,0,0
21,64,0,0,0,0,0,0,0,0,0,-1,1245,960,0,0
28,64,0,0,0,0,0,0,0,0,0,-1,1252,960,0,0
35,64,0,0,0,0,0,0,0,0,0,-1,1259,960,0,0
42,64,0,0,0,0,0,0,0,0,0,-1,1266,960,0,0
49,64,0,0,0,0,0,0,0,0,0,-1,1273,960,0,0
56,64,0,0,0,0,0,0,0,0,0,-1,1280,960,0,0
63,64,0,0,0,0,0,0,0,0,0,-1,1287,960,0,0
70,64,0,0,0,0,0,0,0,0,0,-1,1294,960,0,0
77,64,0,0,0,0,0,0,0,0,0,-1,1301,960,0,0
84,64,0,0,0,0,0,0,0,0,0,-1,1308,960,0,0
91,64,0,0,0,0,0,0,0,0,0,-1,1315,960,0,0
98,64,0,0,0,0,0,0,0,0,0,-1,1322,960,0,0
105,64,0,0,0,0,0,0,0,0,0,-1,1329,960,0,0
112,64,0,0,0,0,0,0,0,0,0,-1,1336,960,0,0
119,64,0,0,0,0,0,0,0,0,0,-1,1343,960,0,0
126,64,0,0,0,0,0,0,0,0,0,-1,1350,960,0,0
133,64,0,0,0,0,0,0,0,0,0,-1,1357,960,0,0
140,64,0,0,0,0,0,0,0,0,0,-1,1364,960,0,0
147,64,0,0,0,0,0,0,0,0,0,-1,1371,960,0,0
154,64,0,0,0,0,0,0,0,0,0,-1,1378,960,0,0
161,64,0,0,0,0,0,0,0,0,0,-1,1385,960,0,0
168,64,0,0,0,0,0,0,0,0,0,-1,1392,960,0,0
175,64,0,0,0,0,0,0,0,0,0,-1,1399,960,0,0
182,64,0,0,0,0,0,0,0,0,0,-1,1406,960,0,0
189,64,0,0,0,0,0,0,0,0,0,-1,1413,960,0,0
196,64,0,0,0,0,0,0,0,0,0,-1,1420,960,0,0
203,64,0,0,0,0,0,0,0,0,0,-1,1427,960,0,0
210,64,0,0,0,0,0,0,0,0,0,-1,1434,960,0,0
217,64,0,0,0,0,0,0,0,0,0,-1,1441,960,0,0
224,64,0,0,0,0,0,0,0,0,0,-1,1448,960,0,0
231,64,0,0,0,0,0,0,0,0,0,-1,1455,960,0,0
238,64,0,0,0,0,0,0,0,0,0,-1,1462,960,0,0
245,64,0,0,0,0,0,0,0,0,0,-1,1469,960,0,0
252,64,0,0,0,0,0,0,0,0,0,-1,1476,960,0,0
259,64,0,0,0,0,0,0,0,0,0,-1,1483,960,0,0
266,64,0,0,0,0,0,0,0,0,0,-1,1490,960,0,0
273,64,0,0,0,0,0,0,0,0,0,-1,1497,960,0,0
280,64,0,0,0,0,0,0,0,0,0,-1,1504,960,0,0
287,64,0,0,0,0,0,0,0,0,0,-1,1511,960,0,0
294,64,0,0,0,0,0,0,0,0,0,-1,1518,960,0,0
301,64,0,0,0,0,0,0,0,0,0,-1,1525,960,0,0
308,64,0,0,0,0,0,0,0,0,0,-1,1532,960,0,0
315,64,0,0,0,0,0,0,0,0,0,-1,1539,960,0,0
322,64,0,0,0,0,0,0,0,0,0,-1,1546,960,0,0
329,64,0,0,0,0,0,0,0,0,0,-1,1553,960,0,0
336,64,0,0,0,0,0,0,0,0,0,-1,1560,960,0,0
343,64,0,0,0,0,0,0,0,0,0,-1,1567,960,0,0
350,64,0,0,0,0,0,0,0,0,0,-1,1574,960,0,0
357,64,0,0,0,0,0,0,0,0,0,-1,1581,960,0,0
364,64,0,0,0,0,0,0,0,0,0,-1,1588,960,0,0
371,64,0,0,0,0,0,0,0,0,0,-1,1595,960,0,0
378,64,0,0,0,0,0,0,0,0,0,-1,1602,960,0,0
385,64,0,0,0,0,0,0,0,0,0,-1,1609,960,0,0
392,64,0,0,0,0,0,0,0,0,0,-1,1616,960,0,0
399,64,0,0,0,0,0,0,0,0,0,-1,1623,960,0,0
406,64,0,0,0,0,0,0,0,0,0,-1,1630,960,0,0
413,64,0,0,0,0,0,0,0,0,0,-1,1637,960,0,0
420,64,0,0,0,0,0,0,0,0,0,-1,1644,960,0,0
427,64,0,0,0,0,0,0,0,0,0,-1,1651,960,0,0
434,64,0,0,0,0,0,0,0,0,0,-1,1658,960,0,0
441,64,0,0,0,0,0,0,0,0,0,-1,1665,960,0,0
448,64,0,0,0,0,0,0,0,0,0,-1,1672,960,0,0
455,64,0,0,0,0,0,0,0,0,0,-1,1679,960,0,0
462,64,0,0,0,0,0,0,0,0,0,-1,1686,960,0,0
469,64,0,0,0,0,0,0,0,0,0,-1,1693,960,0,0
476,64,0,0,0,0,0,0,0,0,0,-1,1700,960,0,0
483,64,0,0,0,0,0,0,0,0,0,-1,1707,960,0,0
490,64,0,0,0,0,0,0,0,0,0,-1,1714,960,0,0
497,64,0,0,0,0,0,0,0,0,0,-1,1721,960,0,0
504,64,0,0,0,0,0,0,0,0,0,-1,1728,960,0,0
511,64,0,0,0,0,0,0,0,0,0,-1,1735,960,0,0
518,64,0,0,0,0,0,0,0,0,0,-1,1742,960,0,0
525,64,0,0,0,0,0,0,0,0,0,-1,1749,960,0,0
532,64,0,0,0,0,0,0,0,0,0,-1,1756,960,0,0
539,64,0,0,0,0,0,0,0,0,0,-1,1763,960,0,0
546,64,0,0,0,0,0,0,0,0,0,-1,1770,960,0,0
553,64,0,0,0,0,0,0,0,0,0,-1,1777,960,0,0
560,64,0,0,0,0,0,0,0,0,0,-1,1784,960,0,0
567,64,0,0,0,0,0,0,0,0,0,-1,1791,960,0,0
574,64,0,0,0,0,0,0,0,0,0,-1,1798,960,0,0
581,64,0,0,0,0,0,0,0,0,0,-1,1805,960,0,0
588,64,0,0,0,0,0,0,0,0,0,-1,1812,960,0,0
595,64,0,0,0,0,0,0,0,0,0,-1,1819,960,0,0
602,64,0,0,0,0,0,0,0,0,0,-1,1826,960,0,0
609,64,0,0,0,0,0,0,0,0,0,-1,1833,960,0,0
616,64,0,0,0,0,0,0,0,0,0,-1,1840,960,0,0
623,64,0,0,0,0,0,0,0,0,0,-1,1847,960,0,0
630,64,0,0,0,0,0,0,0,0,0,-1,1854,960,0,0
637,64,0,0,0,0,0,0,0,0,0,-1,1861,960,0,0
644,64,54.2362,2.74188,-0.00407931,0.00298524,0.000666486,0.00304757,-0.00414164,1.47755,0.00416668,0.0410351,1868,960,54.2362,-2.74189
651,64,54.1722,2.74194,-0.00280473,0.00269928,-0.000184385,0.00270545,-0.0028109,-1.53735,0.00318506,0.0395686,1875,960,54.1723,-2.74195
658,64,54.104,2.88794,-0.00195804,0.00250952,-0.000394498,0.00254409,-0.00199261,-1.48339,0.00262571,0.0363611,1882,960,54.104,-2.88793
665,64,54.0859,2.88934,-0.00147221,0.00246743,-5.58408e-05,0.00246822,-0.001473,-1.55663,0.00229952,0.0385575,1889,960,54.0859,-2.88937
672,64,54.2074,2.49908,-0.00137954,0.0023448,0.000599584,0.00243894,-0.00147369,1.41505,0.00228176,0.0414668,1896,960,54.2074,-2.49909
679,64,54.2231,2.31091,-0.00143374,0.00206831,0.00136105,0.00253507,-0.0019005,1.24043,0.0025696,0.0422737,1903,960,54.2231,-2.31089
686,64,54.1188,2.53363,-0.0013693,0.00164005,0.00187748,0.0025414,-0.00227065,1.12321,0.0027797,0.0376548,1910,960,54.1188,-2.53361
693,64,54.1154,2.5788,-0.00128024,0.00131781,0.00204401,0.00244065,-0.00240308,1.06847,0.00279656,0.0322425,1917,960,54.1154,-2.57881
700,64,54.1328,2.65607,-0.00145495,0.00112651,0.0020129,0.00222696,-0.0025554,1.07049,0.00276326,0.0295608,1924,960,54.1328,-2.65607
707,64,54.0188,3.03082,-0.00188381,0.00114218,0.00186952,0.00203423,-0.00277586,1.12559,0.00278809,0.0439873,1931,960,54.0188,-3.03085
714,64,53.8318,3.69879,0,0,0,0,0,0,0,-1,1938,960,53.8318,-3.69882
721,64,52.234,4.84381,0,0,0,0,0,0,0,-1,1945,960,52.234,-4.84383
728,64,52.0845,5.32861,-0.00382062,0.0027365,0.0014679,0.00305011,-0.00413424,1.36031,0.0041636,0.0220126,1952,960,52.0844,-5.32859
735,64,52.0565,5.78296,-0.00410117,0.00413383,0.00100455,0.0042546,-0.00422194,1.45115,0.00489395,0.0307843,1959,960,52.0565,-5.78294
742,64,52.1851,6.07037,-0.0046857,0.00576432,0.000338507,0.00577527,-0.00469666,1.53845,0.00605665,0.0269419,1966,960,52.185,-6.07039
749,64,52.1687,6.38928,-0.00499398,0.00860729,-0.000385844,0.00861823,-0.00500492,-1.54246,0.00795701,0.0164425,1973,960,52.1687,-6.38931
756,64,52.0892,6.71826,-0.00471455,0.0135982,-0.00213002,0.0138427,-0.00495903,-1.45652,0.0112519,0.0160249,1980,960,52.0892,-6.71827
763,64,52.0587,7.07593,-0.00332029,0.0182106,-0.0054015,0.0194897,-0.00459939,-1.33828,0.014767,0.017658,1987,960,52.0587,-7.07591
770,64,51.8656,7.3407,-0.00111341,0.0245239,-0.00896771,0.0273493,-0.00393885,-1.26557,0.0196777,0.0181624,1994,960,51.8657,-7.34068
777,64,51.6497,7.70282,0.00244407,0.0313439,-0.0143931,0.0372891,-0.00350116,-1.17908,0.0261048,0.0342956,2001,960,51.6497,-7.7028
784,64,51.5503,8.23218,0.00812184,0.038813,-0.0226875,0.0508573,-0.00392251,-1.08275,0.0352851,0.0418386,2008,960,51.5504,-8.2322
791,64,51.4939,8.87811,0,0,0,0,0,0,0,-1,2015,960,51.494,-8.87813
798,64,52.1885,7.42731,0,0,0,0,0,0,0,-1,2022,960,52.1884,-7.42733
805,64,54.3772,7.26849,0,0,0,0,0,0,0,-1,2029,960,54.3773,-7.26848
812,64,0,0,0,0,0,0,0,0,0,-1,2036,960,0,0
-700,57,0,0,0,0,0,0,0,0,0,-1,524,967,0,0
-693,57,0,0,0,0,0,0,0,0,0,-1,531,967,0,0
-686,57,-40.6205,9.87982,0,0,0,0,0,0,0,-1,538,967,-40.6205,-9.87981
-679,57,-41.5753,11.3688,0,0,0,0,0,0,0,-1,545,967,-41.5753,-11.3688
-672,57,-40.2824,3.52045,0,0,0,0,0,0,0,-1,552,967,-40.2824,-3.52046
-665,57,-39.9131,3.89313,0,0,0,0,0,0,0,-1,559,967,-39.9131,-3.89315
-658,57,-40.2743,4.85413,0,0,0,0,0,0,0,-1,566,967,-40.2743,-4.85414
-651,57,-40.2485,4.79169,-0.03123,0.0504598,0.021961,0.0559893,-0.0367596,1.32413,0.0539309,0.0457652,573,967,-40.2485,-4.79169
-644,57,-40.0709,4.64923,-0.0226313,0.0375956,0.015358,0.0412858,-0.0263215,1.33499,0.0393506,0.0332055,580,967,-40.0709,-4.64924
-637,57,-40.0444,4.42432,-0.0149117,0.0258442,0.00924308,0.0278425,-0.0169099,1.35788,0.0260936,0.0197318,587,967,-40.0445,-4.42433
-630,57,-40.1075,4.17334,-0.00926328,0.0165646,0.00515985,0.0175573,-0.010256,1.38073,0.0162414,0.0142428,594,967,-40.1075,-4.17332
-623,57,-40.124,3.94885,-0.00692639,0.0118781,0.00302801,0.0123536,-0.00740195,1.41501,0.0115247,0.0132393,601,967,-40.1239,-3.94887
-616,57,-40.1161,3.69104,-0.00573656,0.00824193,0.0008563,0.00829419,-0.00578882,1.50984,0.00817361,0.0154897,608,967,-40.1161,-3.69102
-609,57,-40.1174,3.3999,-0.00523744,0.00559683,-0.00107566,0.00570259,-0.0053432,-1.47279,0.00637842,0.0154325,615,967,-40.1174,-3.39992
-602,57,-40.1127,3.09613,-0.00493729,0.00338715,-0.00277756,0.00422883,-0.00577896,-1.27657,0.00580106,0.0117449,622,967,-40.1128,-3.09612
-595,57,-40.1015,2.82312,-0.00469077,0.00167708,-0.00398065,0.0035905,-0.00660419,-1.12272,0.00597102,0.0149669,629,967,-40.1015,-2.82313
-588,57,-40.038,2.6297,-0.00450545,0.000283176,-0.00476761,0.00322392,-0.00744619,-1.0181,0.00631912,0.0245251,636,967,-40.0379,-2.6297
-581,57,-40.2984,1.73059,-0.00423371,-0.000420521,-0.0053565,0.00335859,-0.00801282,-0.956377,0.0067461,0.0382982,643,967,-40.2984,-1.73058
-574,57,-40.7444,0.865051,-0.00383885,-0.000834974,-0.00570149,0.00355909,-0.00823291,-0.914187,0.0069841,0.0330629,650,967,-40.7444,-0.865056
-567,57,-40.7661,0.855042,-0.00347331,-0.000933154,-0.00568535,0.00362226,-0.00802872,-0.895291,0.00688519,0.0324323,657,967,-40.7661,-0.855013
-560,57,-40.8073,0.925659,-0.0027723,-0.00083529,-0.00530744,0.00359129,-0.00719887,-0.875645,0.0063447,0.0398425,664,967,-40.8073,-0.925639
-553,57,-40.6484,0.792786,-0.00157433,-0.000546932,-0.00463009,0.00359787,-0.00571914,-0.840646,0.00542545,0.0389556,671,967,-40.6485,-0.792796
-546,57,-40.4867,0.476501,0.000146944,-0.000119786,-0.00371244,0.00372842,-0.00370126,-0.767444,0.00428954,0.0411231,678,967,-40.4867,-0.476522
-539,57,-40.394,0.247681,0,0,0,0,0,0,0,-1,685,967,-40.3941,-0.247695
-532,57,-40.8574,1.10443,0.0052343,0.00097319,-0.00223808,0.00619377,1.37175e-05,-0.405003,0.00412461,0.040526,692,967,-40.8574,-1.10446
-525,57,-40.7356,0.874939,0.00730191,0.00221759,-0.00338964,0.00899675,0.00052274,-0.463654,0.0058314,0.0376424,699,967,-40.7356,-0.87492
-518,57,0,0,0,0,0,0,0,0,0,-1,706,967,0,0
-511,57,0,0,0,0,0,0,0,0,0,-1,713,967,0,0
-504,57,0,0,0,0,0,0,0,0,0,-1,720,967,0,0
-497,57,0,0,0,0,0,0,0,0,0,-1,727,967,0,0
-490,57,0,0,0,0,0,0,0,0,0,-1,734,967,0,0
-483,57,0,0,0,0,0,0,0,0,0,-1,741,967,0,0
-476,57,0,0,0,0,0,0,0,0,0,-1,748,967,0,0
-469,57,0,0,0,0,0,0,0,0,0,-1,755,967,0,0
-462,57,0,0,0,0,0,0,0,0,0,-1,762,967,0,0
-455,57,0,0,0,0,0,0,0,0,0,-1,769,967,0,0
-448,57,0,0,0,0,0,0,0,0,0,-1,776,967,0,0
-441,57,0,0,0,0,0,0,0,0,0,-1,783,967,0,0
-434,57,0,0,0,0,0,0,0,0,0,-1,790,967,0,0
-427,57,0,0,0,0,0,0,0,0,0,-1,797,967,0,0
-420,57,0,0,0,0,0,0,0,0,0,-1,804,967,0,0
-413,57,0,0,0,0,0,0,0,0,0,-1,811,967,0,0
-406,57,0,0,0,0,0,0,0,0,0,-1,818,967,0,0
-399,57,0,0,0,0,0,0,0,0,0,-1,825,967,0,0
-392,57,0,0,0,0,0,0,0,0,0,-1,832,967,0,0
-385,57,0,0,0,0,0,0,0,0,0,-1,839,967,0,0
-378,57,0,0,0,0,0,0,0,0,0,-1,846,967,0,0
-371,57,0,0,0,0,0,0,0,0,0,-1,853,967,0,0
-364,57,0,0,0,0,0,0,0,0,0,-1,860,967,0,0
-357,57,0,0,0,0,0,0,0,0,0,-1,867,967,0,0
-350,57,0,0,0,0,0,0,0,0,0,-1,874,967,0,0
-343,57,0,0,0,0,0,0,0,0,0,-1,881,967,0,0
-336,57,0,0,0,0,0,0,0,0,0,-1,888,967,0,0
-329,57,0,0,0,0,0,0,0,0,0,-1,895,967,0,0
-322,57,0,0,0,0,0,0,0,0,0,-1,902,967,0,0
-315,57,0,0,0,0,0,0,0,0,0,-1,909,967,0,0
-308,57,0,0,0,0,0,0,0,0,0,-1,916,967,0,0
-301,57,0,0,0,0,0,0,0,0,0,-1,923,967,0,0
-294,57,0,0,0,0,0,0,0,0,0,-1,930,967,0,0
-287,57,0,0,0,0,0,0,0,0,0,-1,937,967,0,0
-280,57,0,0,0,0,0,0,0,0,0,-1,944,967,0,0
-273,57,0,0,0,0,0,0,0,0,0,-1,951,967,0,0
-266,57,0,0,0,0,0,0,0,0,0,-1,958,967,0,0
-259,57,0,0,0,0,0,0,0,0,0,-1,965,967,0,0
-252,57,0,0,0,0,0,0,0,0,0,-1,972,967,0,0
-245,57,0,0,0,0,0,0,0,0,0,-1,979,967,0,0
-238,57,0,0,0,0,0,0,0,0,0,-1,986,967,0,0
-231,57,0,0,0,0,0,0,0,0,0,-1,993,967,0,0
-224,57,0,0,0,0,0,0,0,0,0,-1,1000,967,0,0
-217,57,0,0,0,0,0,0,0,0,0,-1,1007,967,0,0
-210,57,0,0,0,0,0,0,0,0,0,-1,1014,967,0,0
-203,57,0,0,0,0,0,0,0,0,0,-1,1021,967,0,0
-196,57,0,0,0,0,0,0,0,0,0,-1,1028,967,0,0
-189,57,0,0,0,0,0,0,0,0,0,-1,1035,967,0,0
-182,57,0,0,0,0,0,0,0,0,0,-1,1042,967,0,0
-175,57,0,0,0,0,0,0,0,0,0,-1,1049,967,0,0
-168,57,0,0,0,0,0,0,0,0,0,-1,1056,967,0,0
-161,57,0,0,0,0,0,0,0,0,0,-1,1063,967,0,0
-154,57,0,0,0,0,0,0,0,0,0,-1,1070,967,0,0
-147,57,0,0,0,0,0,0,0,0,0,-1,1077,967,0,0
-140,57,0,0,0,0,0,0,0,0,0,-1,1084,967,0,0
-133,57,0,0,0,0,0,0,0,0,0,-1,1091,967,0,0
-126,57,0,0,0,0,0,0,0,0,0,-1,1098,967,0,0
-119,57,0,0,0,0,0,0,0,0,0,-1,1105,967,0,0
-112,57,0,0,0,0,0,0,0,0,0,-1,1112,967,0,0
-105,57,0,0,0,0,0,0,0,0,0,-1,1119,967,0,0
-98,57,0,0,0,0,0,0,0,0,0,-1,1126,967,0,0
-91,57,0,0,0,0,0,0,0,0,0,-1,1133,967,0,0
-84,57,0,0,0,0,0,0,0,0,0,-1,1140,967,0,0
-77,57,0,0,0,0,0,0,0,0,0,-1,1147,967,0,0
-70,57,0,0,0,0,0,0,0,0,0,-1,1154,967,0,0
-63,57,0,0,0,0,0,0,0,0,0,-1,1161,967,0,0
-56,57,0,0,0,0,0,0,0,0,0,-1,1168,967,0,0
-49,57,0,0,0,0,0,0,0,0,0,-1,1175,967,0,0
-42,57,0,0,0,0,0,0,0,0,0,-1,1182,967,0,0
-35,57,0,0,0,0,0,0,0,0,0,-1,1189,967,0,0
-28,57,0,0,0,0,0,0,0,0,0,-1,1196,967,0,0
-21,57,0,0,0,0,0,0,0,0,0,-1,1203,967,0,0
-14,57,0,0,0,0,0,0,0,0,0,-1,1210,967,0,0
-7,57,0,0,0,0,0,0,0,0,0,-1,1217,967,0,0
0,57,0,0,0,0,0,0,0,0,0,-1,1224,967,0,0
7,57,0,0,0,0,0,0,0,0,0,-1,1231,967,0,0
14,57,0,0,0,0,0,0,0,0,0,-1,1238,967,0,0
21,57,0,0,0,0,0,0,0,0,0,-1,1245,967,0,0
28,57,0,0,0,0,0,0,0,0,0,-1,1252,967,0,0
35,57,0,0,0,0,0,0,0,0,0,-1,1259,967,0,0
42,57,0,0,0,0,0,0,0,0,0,-1,1266,967,0,0
49,57,0,0,0,0,0,0,0,0,0,-1,1273,967,0,0
56,57,0,0,0,0,0,0,0,0,0,-1,1280,967,0,0
63,57,0,0,0,0,0,0,0,0,0,-1,1287,967,0,0
70,57,0,0,0,0,0,0,0,0,0,-1,1294,967,0,0
77,57,0,0,0,0,0,0,0,0,0,-1,1301,967,0,0
84,57,0,0,0,0,0,0,0,0,0,-1,1308,967,0,0
91,57,0,0,0,0,0,0,0,0,0,-1,1315,967,0,0
98,57,0,0,0,0,0,0,0,0,0,-1,1322,967,0,0
105,57,0,0,0,0,0,0,0,0,0,-1,1329,967,0,0
112,57,0,0,0,0,0,0,0,0,0,-1,1336,967,0,0
119,57,0,0,0,0,0,0,0,0,0,-1,1343,967,0,0
126,57,0,0,0,0,0,0,0,0,0,-1,1350,967,0,0
133,57,0,0,0,0,0,0,0,0,0,-1,1357,967,0,0
140,57,0,0,0,0,0,0,0,0,0,-1,1364,967,0,0
147,57,0,0,0,0,0,0,0,0,0,-1,1371,967,0,0
154,57,0,0,0,0,0,0,0,0,0,-1,1378,967,0,0
161,57,0,0,0,0,0,0,0,0,0,-1,1385,967,0,0
168,57,0,0,0,0,0,0,0,0,0,-1,1392,967,0,0
175,57,0,0,0,0,0,0,0,0,0,-1,1399,967,0,0
182,57,0,0,0,0,0,0,0,0,0,-1,1406,967,0,0
189,57,0,0,0,0,0,0,0,0,0,-1,1413,967,0,0
196,57,0,0,0,0,0,0,0,0,0,-1,1420,967,0,0
203,57,0,0,0,0,0,0,0,0,0,-1,1427,967,0,0
210,57,0,0,0,0,0,0,0,0,0,-1,1434,967,0,0
217,57,0,0,0,0,0,0,0,0,0,-1,1441,967,0,0
224,57,0,0,0,0,0,0,0,0,0,-1,1448,967,0,0
231,57,0,0,0,0,0,0,0,0,0,-1,1455,967,0,0
238,57,0,0,0,0,0,0,0,0,0,-1,1462,967,0,0
245,57,0,0,0,0,0,0,0,0,0,-1,1469,967,0,0
252,57,0,0,0,0,0,0,0,0,0,-1,1476,967,0,0
259,57,0,0,0,0,0,0,0,0,0,-1,1483,967,0,0
266,57,0,0,0,0,0,0,0,0,0,-1,1490,967,0,0
273,57,0,0,0,0,0,0,0,0,0,-1,1497,967,0,0
280,57,0,0,0,0,0,0,0,0,0,-1,1504,967,0,0
287,57,0,0,0,0,0,0,0,0,0,-1,1511,967,0,0
294,57,0,0,0,0,0,0,0,0,0,-1,1518,967,0,0
301,57,0,0,0,0,0,0,0,0,0,-1,1525,967,0,0
308,57,0,0,0,0,0,0,0,0,0,-1,1532,967,0,0
315,57,0,0,0,0,0,0,0,0,0,-1,1539,967,0,0
322,57,0,0,0,0,0,0,0,0,0,-1,1546,967,0,0
329,57,0,0,0,0,0,0,0,0,0,-1,1553,967,0,0
336,57,0,0,0,0,0,0,0,0,0,-1,1560,967,0,0
343,57,0,0,0,0,0,0,0,0,0,-1,1567,967,0,0
350,57,0,0,0,0,0,0,0,0,0,-1,1574,967,0,0
357,57,0,0,0,0,0,0,0,0,0,-1,1581,967,0,0
364,57,0,0,0,0,0,0,0,0,0,-1,1588,967,0,0
371,57,0,0,0,0,0,0,0,0,0,-1,1595,967,0,0
378,57,0,0,0,0,0,0,0,0,0,-1,1602,967,0,0
385,57,0,0,0,0,0,0,0,0,0,-1,1609,967,0,0
392,57,0,0,0,0,0,0,0,0,0,-1,1616,967,0,0
399,57,0,0,0,0,0,0,0,0,0,-1,1623,967,0,0
406,57,0,0,0,0,0,0,0,0,0,-1,1630,967,0,0
413,57,0,0,0,0,0,0,0,0,0,-1,1637,967,0,0
420,57,0,0,0,0,0,0,0,0,0,-1,1644,967,0,0
427,57,0,0,0,0,0,0,0,0,0,-1,1651,967,0,0
434,57,0,0,0,0,0,0,0,0,0,-1,1658,967,0,0
441,57,0,0,0,0,0,0,0,0,0,-1,1665,967,0,0
448,57,0,0,0,0,0,0,0,0,0,-1,1672,967,0,0
455,57,0,0,0,0,0,0,0,0,0,-1,1679,967,0,0
462,57,0,0,0,0,0,0,0,0,0,-1,1686,967,0,0
469,57,0,0,0,0,0,0,0,0,0,-1,1693,967,0,0
476,57,0,0,0,0,0,0,0,0,0,-1,1700,967,0,0
483,57,0,0,0,0,0,0,0,0,0,-1,1707,967,0,0
490,57,0,0,0,0,0,0,0,0,0,-1,1714,967,0,0
497,57,0,0,0,0,0,0,0,0,0,-1,1721,967,0,0
504,57,0,0,0,0,0,0,0,0,0,-1,1728,967,0,0
511,57,0,0,0,0,0,0,0,0,0,-1,1735,967,0,0
518,57,0,0,0,0,0,0,0,0,0,-1,1742,967,0,0
525,57,0,0,0,0,0,0,0,0,0,-1,1749,967,0,0
532,57,0,0,0,0,0,0,0,0,0,-1,1756,967,0,0
539,57,0,0,0,0,0,0,0,0,0,-1,1763,967,0,0
546,57,0,0,0,0,0,0,0,0,0,-1,1770,967,0,0
553,57,0,0,0,0,0,0,0,0,0,-1,1777,967,0,0
560,57,0,0,0,0,0,0,0,0,0,-1,1784,967,0,0
567,57,0,0,0,0,0,0,0,0,0,-1,1791,967,0,0
574,57,0,0,0,0,0,0,0,0,0,-1,1798,967,0,0
581,57,0,0,0,0,0,0,0,0,0,-1,1805,967,0,0
588,57,0,0,0,0,0,0,0,0,0,-1,1812,967,0,0
595,57,0,0,0,0,0,0,0,0,0,-1,1819,967,0,0
602,57,0,0,0,0,0,0,0,0,0,-1,1826,967,0,0
609,57,0,0,0,0,0,0,0,0,0,-1,1833,967,0,0
616,57,0,0,0,0,0,0,0,0,0,-1,1840,967,0,0
623,57,0,0,0,0,0,0,0,0,0,-1,1847,967,0,0
630,57,0,0,0,0,0,0,0,0,0,-1,1854,967,0,0
637,57,0,0,0,0,0,0,0,0,0,-1,1861,967,0,0
644,57,54.0681,2.7392,-0.00233973,0.00336344,0.000997781,0.00353296,-0.00250925,1.4025,0.00350513,0.0418111,1868,967,54.0681,-2.73921
651,57,54.0652,2.81165,-0.00151789,0.00291806,5.46772e-05,0.00291873,-0.00151856,1.55847,0.00260404,0.0358155,1875,967,54.0652,-2.81164
658,57,54.1899,2.92316,-0.00106157,0.00254972,-0.000229782,0.00256428,-0.00107613,-1.50751,0.00215954,0.0343401,1882,967,54.1899,-2.92315
665,57,54.212,2.78925,-0.000932036,0.00236735,7.26224e-05,0.00236895,-0.000933634,1.5488,0.00196586,0.0408835,1889,967,54.2121,-2.78926
672,57,54.2058,2.53979,-0.00111367,0.00216589,0.000720698,0.00231728,-0.00126506,1.36375,0.00209779,0.04529,1896,967,54.2058,-2.53978
679,57,54.1641,2.45679,-0.00133944,0.00188068,0.00151268,0.00247981,-0.00193857,1.19368,0.00255732,0.0425717,1903,967,54.1641,-2.45678
686,57,54.1233,2.52881,-0.00138578,0.00146471,0.00209123,0.00257019,-0.00249126,1.08451,0.00292235,0.0375414,1910,967,54.1233,-2.5288
693,57,54.0692,2.61548,-0.00138129,0.00112939,0.00233531,0.00252538,-0.00277728,1.03201,0.00306264,0.0321697,1917,967,54.0692,-2.61551
700,57,54.0963,2.69763,-0.00158892,0.000925481,0.00234415,0.00232828,-0.00299171,1.03154,0.00307945,0.0258508,1924,967,54.0963,-2.69761
707,57,54.0461,3.00665,-0.00202064,0.000978717,0.00221137,0.00215097,-0.00319289,1.08336,0.00310477,0.0466733,1931,967,54.0462,-3.00666
714,57,53.9481,3.43042,0,0,0,0,0,0,0,-1,1938,967,53.9481,-3.43045
721,57,52.6724,5.03619,0,0,0,0,0,0,0,-1,1945,967,52.6724,-5.03621
728,57,52.4789,5.45398,-0.00389315,0.0028752,0.00171328,0.00328418,-0.00430212,1.33647,0.00439308,0.0232313,1952,967,52.4789,-5.45397
735,57,52.4957,5.84229,-0.00417176,0.00436877,0.00123149,0.0045428,-0.00434579,1.43041,0.00513225,0.0294129,1959,967,52.4957,-5.84229
742,57,52.5575,6.04724,-0.00471401,0.00596319,0.000495667,0.00598615,-0.00473697,1.52451,0.00620498,0.0215313,1966,967,52.5575,-6.04726
749,57,52.5281,6.37122,-0.00486622,0.00877328,-0.000411631,0.00878569,-0.00487863,-1.54065,0.00799588,0.0154076,1973,967,52.528,-6.37122
756,57,52.4553,6.6756,-0.0044148,0.013641,-0.0026089,0.0140104,-0.00478421,-1.43014,0.0112785,0.0120811,1980,967,52.4553,-6.6756
763,57,52.3856,6.96777,-0.00279882,0.0176022,-0.00654565,0.0195218,-0.00471837,-1.28554,0.0148395,0.0118648,1987,967,52.3856,-6.96778
770,57,52.2981,7.23169,-0.000248813,0.0234501,-0.0109114,0.0277086,-0.00450738,-1.19869,0.0201437,0.0114665,1994,967,52.2981,-7.23169
777,57,52.1824,7.50726,0.00368799,0.0296484,-0.0171484,0.0381753,-0.00483883,-1.10936,0.0272069,0.0268942,2001,967,52.1823,-7.50728
784,57,52.2273,8.19879,0.00960886,0.0361864,-0.0261794,0.0522567,-0.00646142,-1.02025,0.0371792,0.0424747,2008,967,52.2272,-8.19879
791,57,52.7822,8.38031,0,0,0,0,0,0,0,-1,2015,967,52.7823,-8.38032
798,57,53.6355,7.92041,0,0,0,0,0,0,0,-1,2022,967,53.6354,-7.92043
805,57,53.7283,6.82739,0,0,0,0,0,0,0,-1,2029,967,53.7283,-6.82739
812,57,0,0,0,0,0,0,0,0,0,-1,2036,967,0,0
-700,50,0,0,0,0,0,0,0,0,0,-1,524,974,0,0
-693,50,-39.6324,7.15906,-0.103932,0.160303,0.10219,0.195212,-0.13884,1.24162,0.193778,0.0494477,531,974,-39.6324,-7.15904
-686,50,-40.5934,8.60535,-0.0902435,0.139637,0.0816369,0.165679,-0.116285,1.26201,0.163622,0.0478283,538,974,-40.5934,-8.60534
-679,50,-41.542,10.0562,0,0,0,0,0,0,0,-1,545,974,-41.542,-10.0562
-672,50,-40.2297,3.341,0,0,0,0,0,0,0,-1,552,974,-40.2297,-3.34103
-665,50,-39.9329,3.82526,0,0,0,0,0,0,0,-1,559,974,-39.9329,-3.82525
-658,50,-40.209,4.435,0,0,0,0,0,0,0,-1,566,974,-40.2091,-4.43497
-651,50,-40.27,4.44342,-0.0319519,0.0525459,0.0222605,0.0580516,-0.0374575,1.32833,0.0555679,0.0432658,573,974,-40.27,-4.44341
-644,50,-40.2484,4.44849,-0.0233585,0.0395069,0.0158654,0.0432839,-0.0271356,1.33708,0.0410115,0.0311775,580,974,-40.2484,-4.44851
-637,50,-40.3396,4.29254,-0.0154683,0.0274305,0.00959313,0.029478,-0.0175158,1.36052,0.0274233,0.0187433,587,974,-40.3396,-4.29253
-630,50,-40.4058,4.10559,-0.00942055,0.0173077,0.00520888,0.0182869,-0.0103998,1.38497,0.0167696,0.0120487,594,974,-40.4058,-4.10557
-623,50,-40.4382,3.91974,-0.00666746,0.0121401,0.00287324,0.0125692,-0.00709661,1.42253,0.0114997,0.0123507,601,974,-40.4382,-3.91976
-616,50,-40.4443,3.68097,-0.00516689,0.00826132,0.000545284,0.00828343,-0.00518899,1.53028,0.0078464,0.0126128,608,974,-40.4443,-3.68098
-609,50,-40.4411,3.3808,-0.00454575,0.00559355,-0.00151797,0.00581593,-0.00476813,-1.42533,0.00612068,0.0117043,615,974,-40.4411,-3.38083
-602,50,-40.4628,3.11713,-0.00410809,0.00341084,-0.00328745,0.00464546,-0.00534271,-1.21154,0.00577136,0.0120196,622,974,-40.4628,-3.1171
-595,50,-40.4507,2.87787,-0.00374966,0.00167844,-0.00453535,0.00424979,-0.00632101,-1.05503,0.00614198,0.0134362,629,974,-40.4507,-2.87788
-588,50,-40.4377,2.46667,-0.00346696,0.000320601,-0.0054012,0.00415039,-0.00729676,-0.954013,0.00669172,0.0208837,636,974,-40.4378,-2.46666
-581,50,-40.6346,1.45056,-0.00314924,-0.000371988,-0.00604735,0.00444412,-0.00796535,-0.898254,0.00726012,0.0275971,643,974,-40.6346,-1.45054
-574,50,-40.7452,0.823547,-0.00275686,-0.000787125,-0.00638469,0.00468821,-0.00823219,-0.861922,0.00755256,0.0276698,650,974,-40.7453,-0.823568
-567,50,-40.7643,0.814392,-0.00243216,-0.000852419,-0.00629084,0.00469794,-0.00798252,-0.847851,0.00740248,0.0361657,657,974,-40.7643,-0.814414
-560,50,-40.7604,0.842773,-0.00179145,-0.000712344,-0.00580376,0.00457689,-0.00708068,-0.831748,0.00678205,0.0411615,664,974,-40.7604,-0.842759
-553,50,-40.7505,0.918457,-0.000713062,-0.000388369,-0.00499629,0.00444821,-0.00554965,-0.801639,0.00578393,0.0405451,671,974,-40.7506,-0.918468
-546,50,-40.688,0.996399,0.000837176,3.74301e-05,-0.00394372,0.00440125,-0.00352664,-0.734873,0.00458644,0.0411405,678,974,-40.6881,-0.996423
-539,50,-40.5657,1.06323,0.00288444,0.000448365,-0.00283705,0.00475387,-0.00142107,-0.582631,0.00373419,0.0436484,685,974,-40.5658,-1.06322
-532,50,-40.7332,0.838379,0.00554199,0.000994218,-0.00248042,0.00663308,-9.68727e-05,-0.414407,0.00445469,0.0420127,692,974,-40.7332,-0.83837
-525,50,-40.7255,0.544434,0.00748052,0.00216296,-0.00390527,0.00954617,9.73162e-05,-0.48653,0.00633193,0.040633,699,974,-40.7254,-0.544442
-518,50,0,0,0,0,0,0,0,0,0,-1,706,974,0,0
-511,50,0,0,0,0,0,0,0,0,0,-1,713,974,0,0
-504,50,0,0,0,0,0,0,0,0,0,-1,720,974,0,0
-497,50,0,0,0,0,0,0,0,0,0,-1,727,974,0,0
-490,50,0,0,0,0,0,0,0,0,0,-1,734,974,0,0
-483,50,0,0,0,0,0,0,0,0,0,-1,741,974,0,0
-476,50,0,0,0,0,0,0,0,0,0,-1,748,974,0,0
-469,50,0,0,0,0,0,0,0,0,0,-1,755,974,0,0
-462,50,0,0,0,0,0,0,0,0,0,-1,762,974,0,0
-455,50,0,0,0,0,0,0,0,0,0,-1,769,974,0,0
-448,50,0,0,0,0,0,0,0,0,0,-1,776,974,0,0
-441,50,0,0,0,0,0,0,0,0,0,-1,783,974,0,0
-434,50,0,0,0,0,0,0,0,0,0,-1,790,974,0,0
-427,50,0,0,0,0,0,0,0,0,0,-1,797,974,0,0
-420,50,0,0,0,0,0,0,0,0,0,-1,804,974,0,0
-413,50,0,0,0,0,0,0,0,0,0,-1,811,974,0,0
-406,50,0,0,0,0,0,0,0,0,0,-1,818,974,0,0
-399,50,0,0,0,0,0,0,0,0,0,-1,825,974,0,0
-392,50,0,0,0,0,0,0,0,0,0,-1,832,974,0,0
-385,50,0,0,0,0,0,0,0,0,0,-1,839,974,0,0
-378,50,0,0,0,0,0,0,0,0,0,-1,846,974,0,0
-371,50,0,0,0,0,0,0,0,0,0,-1,853,974,0,0
-364,50,0,0,0,0,0,0,0,0,0,-1,860,974,0,0
-357,50,0,0,0,0,0,0,0,0,0,-1,867,974,0,0
-350,50,0,0,0,0,0,0,0,0,0,-1,874,974,0,0
-343,50,0,0,0,0,0,0,0,0,0,-1,881,974,0,0
-336,50,0,0,0,0,0,0,0,0,0,-1,888,974,0,0
-329,50,0,0,0,0,0,0,0,0,0,-1,895,974,0,0
-322,50,0,0,0,0,0,0,0,0,0,-1,902,974,0,0
-315,50,0,0,0,0,0,0,0,0,0,-1,909,974,0,0
-308,50,0,0,0,0,0,0,0,0,0,-1,916,974,0,0
-301,50,0,0,0,0,0,0,0,0,0,-1,923,974,0,0
-294,50,0,0,0,0,0,0,0,0,0,-1,930,974,0,0
-287,50,0,0,0,0,0,0,0,0,0,-1,937,974,0,0
-280,50,0,0,0,0,0,0,0,0,0,-1,944,974,0,0
-273,50,0,0,0,0,0,0,0,0,0,-1,951,974,0,0
-266,50,0,0,0,0,0,0,0,0,0,-1,958,974,0,0
-259,50,0,0,0,0,0,0,0,0,0,-1,965,974,0,0
-252,50,0,0,0,0,0,0,0,0,0,-1,972,974,0,0
-245,50,0,0,0,0,0,0,0,0,0,-1,979,974,0,0
-238,50,0,0,0,0,0,0,0,0,0,-1,986,974,0,0
-231,50,0,0,0,0,0,0,0,0,0,-1,993,974,0,0
-224,50,0,0,0,0,0,0,0,0,0,-1,1000,974,0,0
-217,50,0,0,0,0,0,0,0,0,0,-1,1007,974,0,0
-210,50,0,0,0,0,0,0,0,0,0,-1,1014,974,0,0
-203,50,0,0,0,0,0,0,0,0,0,-1,1021,974,0,0
-196,50,0,0,0,0,0,0,0,0,0,-1,1028,974,0,0
-189,50,0,0,0,0,0,0,0,0,0,-1,1035,974,0,0
-182,50,0,0,0,0,0,0,0,0,0,-1,1042,974,0,0
-175,50,0,0,0,0,0,0,0,0,0,-1,1049,974,0,0
-168,50,0,0,0,0,0,0,0,0,0,-1,1056,974,0,0
-161,50,0,0,0,0,0,0,0,0,0,-1,1063,974,0,0
-154,50,0,0,0,0,0,0,0,0,0,-1,1070,974,0,0
-147,50,0,0,0,0,0,0,0,0,0,-1,1077,974,0,0
-140,50,0,0,0,0,0,0,0,0,0,-1,1084,974,0,0
-133,50,0,0,0,0,0,0,0,0,0,-1,1091,974,0,0
-126,50,0,0,0,0,0,0,0,0,0,-1,1098,974,0,0
-119,50,0,0,0,0,0,0,0,0,0,-1,1105,974,0,0
-112,50,0,0,0,0,0,0,0,0,0,-1,1112,974,0,0
-105,50,0,0,0,0,0,0,0,0,0,-1,1119,974,0,0
-98,50,0,0,0,0,0,0,0,0,0,-1,1126,974,0,0
-91,50,0,0,0,0,0,0,0,0,0,-1,1133,974,0,0
-84,50,0,0,0,0,0,0,0,0,0,-1,1140,974,0,0
-77,50,0,0,0,0,0,0,0,0,0,-1,1147,974,0,0
-70,50,0,0,0,0,0,0,0,0,0,-1,1154,974,0,0
-63,50,0,0,0,0,0,0,0,0,0,-1,1161,974,0,0
-56,50,0,0,0,0,0,0,0,0,0,-1,1168,974,0,0
-49,50,0,0,0,0,0,0,0,0,0,-1,1175,974,0,0
-42,50,0,0,0,0,0,0,0,0,0,-1,1182,974,0,0
-35,50,0,0,0,0,0,0,0,0,0,-1,1189,974,0,0
-28,50,0,0,0,0,0,0,0,0,0,-1,1196,974,0,0
-21,50,0,0,0,0,0,0,0,0,0,-1,1203,974,0,0
-14,50,0,0,0,0,0,0,0,0,0,-1,1210,974,0,0
-7,50,0,0,0,0,0,0,0,0,0,-1,1217,974,0,0
0,50,0,0,0,0,0,0,0,0,0,-1,1224,974,0,0
7,50,0,0,0,0,0,0,0,0,0,-1,1231,974,0,0
14,50,0,0,0,0,0,0,0,0,0,-1,1238,974,0,0
21,50,0,0,0,0,0,0,0,0,0,-1,1245,974,0,0
28,50,0,0,0,0,0,0,0,0,0,-1,1252,974,0,0
35,50,0,0,0,0,0,0,0,0,0,-1,1259,974,0,0
42,50,0,0,0,0,0,0,0,0,0,-1,1266,974,0,0
49,50,0,0,0,0,0,0,0,0,0,-1,1273,974,0,0
56,50,0,0,0,0,0,0,0,0,0,-1,1280,974,0,0
63,50,0,0,0,0,0,0,0,0,0,-1,1287,974,0,0
70,50,0,0,0,0,0,0,0,0,0,-1,1294,974,0,0
77,50,0,0,0,0,0,0,0,0,0,-1,1301,974,0,0
84,50,0,0,0,0,0,0,0,0,0,-1,1308,974,0,0
91,50,0,0,0,0,0,0,0,0,0,-1,1315,974,0,0
98,50,0,0,0,0,0,0,0,0,0,-1,1322,974,0,0
105,50,0,0,0,0,0,0,0,0,0,-1,1329,974,0,0
112,50,0,0,0,0,0,0,0,0,0,-1,1336,974,0,0
119,50,0,0,0,0,0,0,0,0,0,-1,1343,974,0,0
126,50,0,0,0,0,0,0,0,0,0,-1,1350,974,0,0
133,50,0,0,0,0,0,0,0,0,0,-1,1357,974,0,0
140,50,0,0,0,0,0,0,0,0,0,-1,1364,974,0,0
147,50,0,0,0,0,0,0,0,0,0,-1,1371,974,0,0
154,50,0,0,0,0,0,0,0,0,0,-1,1378,974,0,0
161,50,0,0,0,0,0,0,0,0,0,-1,1385,974,0,0
168,50,0,0,0,0,0,0,0,0,0,-1,1392,974,0,0
175,50,0,0,0,0,0,0,0,0,0,-1,1399,974,0,0
182,50,0,0,0,0,0,0,0,0,0,-1,1406,974,0,0
189,50,0,0,0,0,0,0,0,0,0,-1,1413,974,0,0
196,50,0,0,0,0,0,0,0,0,0,-1,1420,974,0,0
203,50,0,0,0,0,0,0,0,0,0,-1,1427,974,0,0
210,50,0,0,0,0,0,0,0,0,0,-1,1434,974,0,0
217,50,0,0,0,0,0,0,0,0,0,-1,1441,974,0,0
224,50,0,0,0,0,0,0,0,0,0,-1,1448,974,0,0
231,50,0,0,0,0,0,0,0,0,0,-1,1455,974,0,0
238,50,0,0,0,0,0,0,0,0,0,-1,1462,974,0,0
245,50,0,0,0,0,0,0,0,0,0,-1,1469,974,0,0
252,50,0,0,0,0,0,0,0,0,0,-1,1476,974,0,0
259,50,0,0,0,0,0,0,0,0,0,-1,1483,974,0,0
266,50,0,0,0,0,0,0,0,0,0,-1,1490,974,0,0
273,50,0,0,0,0,0,0,0,0,0,-1,1497,974,0,0
280,50,0,0,0,0,0,0,0,0,0,-1,1504,974,0,0
287,50,0,0,0,0,0,0,0,0,0,-1,1511,974,0,0
294,50,0,0,0,0,0,0,0,0,0,-1,1518,974,0,0
301,50,0,0,0,0,0,0,0,0,0,-1,1525,974,0,0
308,50,0,0,0,0,0,0,0,0,0,-1,1532,974,0,0
315,50,0,0,0,0,0,0,0,0,0,-1,1539,974,0,0
322,50,0,0,0,0,0,0,0,0,0,-1,1546,974,0,0
329,50,0,0,0,0,0,0,0,0,0,-1,1553,974,0,0
336,50,0,0,0,0,0,0,0,0,0,-1,1560,974,0,0
343,50,0,0,0,0,0,0,0,0,0,-1,1567,974,0,0
350,50,0,0,0,0,0,0,0,0,0,-1,1574,974,0,0
357,50,0,0,0,0,0,0,0,0,0,-1,1581,974,0,0
364,50,0,0,0,0,0,0,0,0,0,-1,1588,974,0,0
371,50,0,0,0,0,0,0,0,0,0,-1,1595,974,0,0
378,50,0,0,0,0,0,0,0,0,0,-1,1602,974,0,0
385,50,0,0,0,0,0,0,0,0,0,-1,1609,974,0,0
392,50,0,0,0,0,0,0,0,0,0,-1,1616,974,0,0
399,50,0,0,0,0,0,0,0,0,0,-1,1623,974,0,0
406,50,0,0,0,0,0,0,0,0,0,-1,1630,974,0,0
413,50,0,0,0,0,0,0,0,0,0,-1,1637,974,0,0
420,50,0,0,0,0,0,0,0,0,0,-1,1644,974,0,0
427,50,0,0,0,0,0,0,0,0,0,-1,1651,974,0,0
434,50,0,0,0,0,0,0,0,0,0,-1,1658,974,0,0
441,50,0,0,0,0,0,0,0,0,0,-1,1665,974,0,0
448,50,0,0,0,0,0,0,0,0,0,-1,1672,974,0,0
455,50,0,0,0,0,0,0,0,0,0,-1,1679,974,0,0
462,50,0,0,0,0,0,0,0,0,0,-1,1686,974,0,0
469,50,0,0,0,0,0,0,0,0,0,-1,1693,974,0,0
476,50,0,0,0,0,0,0,0,0,0,-1,1700,974,0,0
483,50,0,0,0,0,0,0,0,0,0,-1,1707,974,0,0
490,50,0,0,0,0,0,0,0,0,0,-1,1714,974,0,0
497,50,0,0,0,0,0,0,0,0,0,-1,1721,974,0,0
504,50,0,0,0,0,0,0,0,0,0,-1,1728,974,0,0
511,50,0,0,0,0,0,0,0,0,0,-1,1735,974,0,0
518,50,0,0,0,0,0,0,0,0,0,-1,1742,974,0,0
525,50,0,0,0,0,0,0,0,0,0,-1,1749,974,0,0
532,50,0,0,0,0,0,0,0,0,0,-1,1756,974,0,0
539,50,0,0,0,0,0,0,0,0,0,-1,1763,974,0,0
546,50,0,0,0,0,0,0,0,0,0,-1,1770,974,0,0
553,50,0,0,0,0,0,0,0,0,0,-1,1777,974,0,0
560,50,0,0,0,0,0,0,0,0,0,-1,1784,974,0,0
567,50,0,0,0,0,0,0,0,0,0,-1,1791,974,0,0
574,50,0,0,0,0,0,0,0,0,0,-1,1798,974,0,0
581,50,0,0,0,0,0,0,0,0,0,-1,1805,974,0,0
588,50,0,0,0,0,0,0,0,0,0,-1,1812,974,0,0
595,50,0,0,0,0,0,0,0,0,0,-1,1819,974,0,0
602,50,0,0,0,0,0,0,0,0,0,-1,1826,974,0,0
609,50,0,0,0,0,0,0,0,0,0,-1,1833,974,0,0
616,50,0,0,0,0,0,0,0,0,0,-1,1840,974,0,0
623,50,0,0,0,0,0,0,0,0,0,-1,1847,974,0,0
630,50,0,0,0,0,0,0,0,0,0,-1,1854,974,0,0
637,50,0,0,0,0,0,0,0,0,0,-1,1861,974,0,0
644,50,54.1113,2.64471,-0.000263883,0.00323411,0.00099827,0.00349895,-0.000528722,1.31147,0.00252738,0.0389673,1868,974,54.1113,-2.64472
651,50,54.0413,2.6665,-2.55591e-05,0.00268493,8.24722e-05,0.00268744,-2.80662e-05,1.54041,0.00180106,0.0329058,1875,974,54.0413,-2.66652
658,50,54.1976,2.62384,-2.22873e-05,0.0022074,-0.000205037,0.0022261,-4.09852e-05,-1.47985,0.00149791,0.036807,1882,974,54.1976,-2.62383
665,50,54.282,2.58197,-0.000259014,0.00196112,0.000104884,0.00196606,-0.000263958,1.52369,0.00140697,0.0414283,1889,974,54.2819,-2.58197
672,50,54.244,2.49237,-0.000722335,0.00175346,0.000770373,0.0019736,-0.000942472,1.29246,0.00171832,0.0425222,1896,974,54.244,-2.49236
679,50,54.0841,2.53162,-0.00112682,0.00152003,0.00160266,0.00227506,-0.00188185,1.13053,0.00240357,0.0426071,1903,974,54.0841,-2.53163
686,50,54.0354,2.5813,-0.00130276,0.00115996,0.0022551,0.00249799,-0.00264078,1.03529,0.00296725,0.0441629,1910,974,54.0355,-2.58132
693,50,54.0208,2.66669,-0.00138854,0.000858936,0.00258513,0.002554,-0.00308361,0.990425,0.00325966,0.0427658,1917,974,54.0208,-2.6667
700,50,54.0297,2.73615,-0.00162206,0.000670476,0.00264444,0.00240639,-0.00335797,0.989907,0.00334314,0.0221642,1924,974,54.0297,-2.73617
707,50,54.0602,2.88281,-0.00206984,0.000785066,0.00253042,0.00226289,-0.00354767,1.04221,0.00338195,0.0319638,1931,974,54.0602,-2.88283
714,50,53.9929,3.06702,0,0,0,0,0,0,0,-1,1938,974,53.9929,-3.06702
721,50,52.8862,5.07642,0,0,0,0,0,0,0,-1,1945,974,52.8863,-5.07644
728,50,52.8624,5.45514,-0.00395066,0.00301211,0.00197712,0.00353435,-0.0044729,1.31255,0.00463357,0.0217631,1952,974,52.8624,-5.45516
735,50,52.8911,5.76691,-0.00427566,0.00456006,0.00146271,0.00479591,-0.00451151,1.41093,0.00537448,0.0204471,1959,974,52.8911,-5.7669
742,50,52.9111,6.05371,-0.00480088,0.00602658,0.000629962,0.00606311,-0.00483741,1.51287,0.00630667,0.0163545,1966,974,52.9111,-6.05374
749,50,52.8551,6.31097,-0.00485864,0.00871126,-0.000496272,0.00872938,-0.00487677,-1.53429,0.00795979,0.0179724,1973,974,52.8551,-6.31097
756,50,52.7976,6.59485,-0.00435415,0.0132958,-0.00308884,0.0138208,-0.0048791,-1.40245,0.0112002,0.0147967,1980,974,52.7976,-6.59483
763,50,52.7235,6.87885,-0.00269405,0.0166364,-0.00749931,0.0192046,-0.00526222,-1.24086,0.0148708,0.0136795,1987,974,52.7235,-6.87882
770,50,52.6492,7.12671,1.03925e-05,0.0219445,-0.0125176,0.0276197,-0.00566485,-1.14513,0.0205632,0.0126345,1994,974,52.6492,-7.12673
777,50,52.5984,7.37439,0.00416102,0.0275909,-0.0194168,0.038553,-0.00680113,-1.05683,0.0282434,0.0243989,2001,974,52.5983,-7.37441
784,50,52.5762,7.63806,0.0101641,0.0333809,-0.0289836,0.0529943,-0.00944937,-0.975874,0.0388642,0.0412615,2008,974,52.5762,-7.63805
791,50,52.761,7.57281,0,0,0,0,0,0,0,-1,2015,974,52.761,-7.5728
798,50,53.1228,7.15936,0.0291808,0.0440422,-0.0597503,0.0968221,-0.0235991,-0.847262,0.073685,0.045848,2022,974,53.1229,-7.15935
805,50,53.1201,6.52881,0.042076,0.048244,-0.082482,0.1277,-0.0373796,-0.804085,0.0999507,0.0429591,2029,974,53.1201,-6.52879
812,50,0,0,0,0,0,0,0,0,0,-1,2036,974,0,0
-700,43,0,0,0,0,0,0,0,0,0,-1,524,981,0,0
-693,43,-39.4735,6.22992,-0.102616,0.15859,0.095016,0.189496,-0.133522,1.25632,0.187426,0.0486204,531,981,-39.4735,-6.22993
-686,43,-40.3433,7.56995,-0.088864,0.138568,0.0764651,0.161886,-0.112182,1.27481,0.159098,0.0497497,538,981,-40.3433,-7.56992
-679,43,-41.2702,8.87335,0,0,0,0,0,0,0,-1,545,981,-41.2702,-8.87337
-672,43,-40.6117,2.08154,0,0,0,0,0,0,0,-1,552,981,-40.6117,-2.08156
-665,43,-39.3478,4.51526,0,0,0,0,0,0,0,-1,559,981,-39.3478,-4.51526
-658,43,-40.1517,4.33942,0,0,0,0,0,0,0,-1,566,981,-40.1517,-4.33941
-651,43,-40.3239,4.33441,-0.0326934,0.0540727,0.0216516,0.0591755,-0.0377962,1.33934,0.0564384,0.0410528,573,981,-40.3239,-4.33444
-644,43,-40.527,4.3631,-0.0242261,0.0410429,0.0156135,0.0445856,-0.0277689,1.34767,0.0421483,0.0266708,580,981,-40.527,-4.36313
-637,43,-40.6321,4.18274,-0.0163232,0.0288986,0.00944141,0.0307907,-0.0182152,1.37302,0.0286024,0.0200892,587,981,-40.6321,-4.18274
-630,43,-40.6707,4.00403,-0.00991443,0.018091,0.00492471,0.0189317,-0.0107552,1.4017,0.0173551,0.0158451,594,981,-40.6707,-4.00405
-623,43,-40.6638,3.84003,-0.0066036,0.0123256,0.00247249,0.0126432,-0.00692123,1.44303,0.0114554,0.0130223,601,981,-40.6638,-3.84005
-616,43,-40.6635,3.60699,-0.00468717,0.00813047,0.000122246,0.00813164,-0.00468833,1.56126,0.00749008,0.0120327,608,981,-40.6634,-3.60701
-609,43,-40.6924,3.35986,-0.00386403,0.00539765,-0.001975,0.00580122,-0.0042676,-1.36923,0.00583567,0.0140621,615,981,-40.6924,-3.35983
-602,43,-40.7139,3.1449,-0.0032889,0.00330976,-0.00371054,0.00497568,-0.00495482,-1.1488,0.00573339,0.0168415,622,981,-40.7139,-3.14488
-595,43,-40.7777,2.94086,-0.00281743,0.00163874,-0.00492138,0.00481291,-0.0059916,-0.997961,0.00625035,0.0174688,629,981,-40.7777,-2.94083
-588,43,-40.7479,2.3244,-0.00245126,0.0003454,-0.0057772,0.00489109,-0.00699695,-0.904136,0.00689937,0.0279922,636,981,-40.7479,-2.32438
-581,43,-40.7222,1.26447,-0.00209863,-0.000329432,-0.00639566,0.00524251,-0.00767058,-0.854118,0.00749918,0.033962,643,981,-40.7222,-1.26445
-574,43,-40.7294,0.891235,-0.00172643,-0.000745462,-0.00668664,0.00546866,-0.00794056,-0.822009,0.00778554,0.0279891,650,981,-40.7294,-0.891262
-567,43,-40.7214,0.870667,-0.00148111,-0.000796865,-0.00652106,0.00539104,-0.00766902,-0.811606,0.00757836,0.0368921,657,981,-40.7214,-0.870648
-560,43,-40.7108,0.863831,-0.000967585,-0.00063669,-0.00593618,0.00513635,-0.00674063,-0.79933,0.006878,0.040147,664,981,-40.7108,-0.863861
-553,43,-40.6722,0.863708,-9.96831e-05,-0.000314529,-0.00501296,0.004807,-0.00522121,-0.774685,0.00579144,0.0398083,671,981,-40.6723,-0.863696
-546,43,-40.6102,0.885132,0.00116982,5.40067e-05,-0.00383743,0.00448968,-0.00326586,-0.713211,0.00449621,0.043053,678,981,-40.6102,-0.885157
-539,43,-40.5889,0.779236,0.00289124,0.000330234,-0.00264571,0.00455003,-0.00132856,-0.560019,0.00355983,0.0442697,685,981,-40.5889,-0.779253
-532,43,-41.0059,0.00482178,0.00523635,0.000720689,-0.00237765,0.00625739,-0.000300353,-0.40562,0.00427523,0.0472359,692,981,-41.0059,-0.00484801
-525,43,-40.7278,0.470642,0.00700456,0.00170008,-0.00403355,0.00917973,-0.000475093,-0.494568,0.00628417,0.044468,699,981,-40.7278,-0.470652
-518,43,0,0,0,0,0,0,0,0,0,-1,706,981,0,0
-511,43,0,0,0,0,0,0,0,0,0,-1,713,981,0,0
-504,43,0,0,0,0,0,0,0,0,0,-1,720,981,0,0
-497,43,0,0,0,0,0,0,0,0,0,-1,727,981,0,0
-490,43,0,0,0,0,0,0,0,0,0,-1,734,981,0,0
-483,43,0,0,0,0,0,0,0,0,0,-1,741,981,0,0
-476,43,0,0,0,0,0,0,0,0,0,-1,748,981,0,0
-469,43,0,0,0,0,0,0,0,0,0,-1,755,981,0,0
-462,43,0,0,0,0,0,0,0,0,0,-1,762,981,0,0
-455,43,0,0,0,0,0,0,0,0,0,-1,769,981,0,0
-448,43,0,0,0,0,0,0,0,0,0,-1,776,981,0,0
-441,43,0,0,0,0,0,0,0,0,0,-1,783,981,0,0
-434,43,0,0,0,0,0,0,0,0,0,-1,790,981,0,0
-427,43,0,0,0,0,0,0,0,0,0,-1,797,981,0,0
-420,43,0,0,0,0,0,0,0,0,0,-1,804,981,0,0
-413,43,0,0,0,0,0,0,0,0,0,-1,811,981,0,0
-406,43,0,0,0,0,0,0,0,0,0,-1,818,981,0,0
-399,43,0,0,0,0,0,0,0,0,0,-1,825,981,0,0
-392,43,0,0,0,0,0,0,0,0,0,-1,832,981,0,0
-385,43,0,0,0,0,0,0,0,0,0,-1,839,981,0,0
-378,43,0,0,0,0,0,0,0,0,0,-1,846,981,0,0
-371,43,0,0,0,0,0,0,0,0,0,-1,853,981,0,0
-364,43,0,0,0,0,0,0,0,0,0,-1,860,981,0,0
-357,43,0,0,0,0,0,0,0,0,0,-1,867,981,0,0
-350,43,0,0,0,0,0,0,0,0,0,-1,874,981,0,0
-343,43,0,0,0,0,0,0,0,0,0,-1,881,981,0,0
-336,43,0,0,0,0,0,0,0,0,0,-1,888,981,0,0
-329,43,0,0,0,0,0,0,0,0,0,-1,895,981,0,0
-322,43,0,0,0,0,0,0,0,0,0,-1,902,981,0,0
-315,43,0,0,0,0,0,0,0,0,0,-1,909,981,0,0
-308,43,0,0,0,0,0,0,0,0,0,-1,916,981,0,0
-301,43,0,0,0,0,0,0,0,0,0,-1,923,981,0,0
-294,43,0,0,0,0,0,0,0,0,0,-1,930,981,0,0
-287,43,0,0,0,0,0,0,0,0,0,-1,937,981,0,0
-280,43,0,0,0,0,0,0,0,0,0,-1,944,981,0,0
-273,43,0,0,0,0,0,0,0,0,0,-1,951,981,0,0
-266,43,0,0,0,0,0,0,0,0,0,-1,958,981,0,0
-259,43,0,0,0,0,0,0,0,0,0,-1,965,981,0,0
-252,43,0,0,0,0,0,0,0,0,0,-1,972,981,0,0
-245,43,0,0,0,0,0,0,0,0,0,-1,979,981,0,0
-238,43,0,0,0,0,0,0,0,0,0,-1,986,981,0,0
-231,43,0,0,0,0,0,0,0,0,0,-1,993,981,0,0
-224,43,0,0,0,0,0,0,0,0,0,-1,1000,981,0,0
-217,43,0,0,0,0,0,0,0,0,0,-1,1007,981,0,0
-210,43,0,0,0,0,0,0,0,0,0,-1,1014,981,0,0
-203,43,0,0,0,0,0,0,0,0,0,-1,1021,981,0,0
-196,43,0,0,0,0,0,0,0,0,0,-1,1028,981,0,0
-189,43,0,0,0,0,0,0,0,0,0,-1,1035,981,0,0
-182,43,0,0,0,0,0,0,0,0,0,-1,1042,981,0,0
-175,43,0,0,0,0,0,0,0,0,0,-1,1049,981,0,0
-168,43,0,0,0,0,0,0,0,0,0,-1,1056,981,0,0
-161,43,0,0,0,0,0,0,0,0,0,-1,1063,981,0,0
-154,43,0,0,0,0,0,0,0,0,0,-1,1070,981,0,0
-147,43,0,0,0,0,0,0,0,0,0,-1,1077,981,0,0
-140,43,0,0,0,0,0,0,0,0,0,-1,1084,981,0,0
-133,43,0,0,0,0,0,0,0,0,0,-1,1091,981,0,0
-126,43,0,0,0,0,0,0,0,0,0,-1,1098,981,0,0
-119,43,0,0,0,0,0,0,0,0,0,-1,1105,981,0,0
-112,43,0,0,0,0,0,0,0,0,0,-1,1112,981,0,0
-105,43,0,0,0,0,0,0,0,0,0,-1,1119,981,0,0
-98,43,0,0,0,0,0,0,0,0,0,-1,1126,981,0,0
-91,43,0,0,0,0,0,0,0,0,0,-1,1133,981,0,0
-84,43,0,0,0,0,0,0,0,0,0,-1,1140,981,0,0
-77,43,0,0,0,0,0,0,0,0,0,-1,1147,981,0,0
-70,43,0,0,0,0,0,0,0,0,0,-1,1154,981,0,0
-63,43,0,0,0,0,0,0,0,0,0,-1,1161,981,0,0
-56,43,0,0,0,0,0,0,0,0,0,-1,1168,981,0,0
-49,43,0,0,0,0,0,0,0,0,0,-1,1175,981,0,0
-42,43,0,0,0,0,0,0,0,0,0,-1,1182,981,0,0
-35,43,0,0,0,0,0,0,0,0,0,-1,1189,981,0,0
-28,43,0,0,0,0,0,0,0,0,0,-1,1196,981,0,0
-21,43,0,0,0,0,0,0,0,0,0,-1,1203,981,0,0
-14,43,0,0,0,0,0,0,0,0,0,-1,1210,981,0,0
-7,43,0,0,0,0,0,0,0,0,0,-1,1217,981,0,0
0,43,0,0,0,0,0,0,0,0,0,-1,1224,981,0,0
7,43,0,0,0,0,0,0,0,0,0,-1,1231,981,0,0
14,43,0,0,0,0,0,0,0,0,0,-1,1238,981,0,0
21,43,0,0,0,0,0,0,0,0,0,-1,1245,981,0,0
28,43,0,0,0,0,0,0,0,0,0,-1,1252,981,0,0
35,43,0,0,0,0,0,0,0,0,0,-1,1259,981,0,0
42,43,0,0,0,0,0,0,0,0,0,-1,1266,981,0,0
49,43,0,0,0,0,0,0,0,0,0,-1,1273,981,0,0
56,43,0,0,0,0,0,0,0,0,0,-1,1280,981,0,0
63,43,0,0,0,0,0,0,0,0,0,-1,1287,981,0,0
70,43,0,0,0,0,0,0,0,0,0,-1,1294,981,0,0
77,43,0,0,0,0,0,0,0,0,0,-1,1301,981,0,0
84,43,0,0,0,0,0,0,0,0,0,-1,1308,981,0,0
91,43,0,0,0,0,0,0,0,0,0,-1,1315,981,0,0
98,43,0,0,0,0,0,0,0,0,0,-1,1322,981,0,0
105,43,0,0,0,0,0,0,0,0,0,-1,1329,981,0,0
112,43,0,0,0,0,0,0,0,0,0,-1,1336,981,0,0
119,43,0,0,0,0,0,0,0,0,0,-1,1343,981,0,0
126,43,0,0,0,0,0,0,0,0,0,-1,1350,981,0,0
133,43,0,0,0,0,0,0,0,0,0,-1,1357,981,0,0
140,43,0,0,0,0,0,0,0,0,0,-1,1364,981,0,0
147,43,0,0,0,0,0,0,0,0,0,-1,1371,981,0,0
154,43,0,0,0,0,0,0,0,0,0,-1,1378,981,0,0
161,43,0,0,0,0,0,0,0,0,0,-1,1385,981,0,0
168,43,0,0,0,0,0,0,0,0,0,-1,1392,981,0,0
175,43,0,0,0,0,0,0,0,0,0,-1,1399,981,0,0
182,43,0,0,0,0,0,0,0,0,0,-1,1406,981,0,0
189,43,0,0,0,0,0,0,0,0,0,-1,1413,981,0,0
196,43,0,0,0,0,0,0,0,0,0,-1,1420,981,0,0
203,43,0,0,0,0,0,0,0,0,0,-1,1427,981,0,0
210,43,0,0,0,0,0,0,0,0,0,-1,1434,981,0,0
217,43,0,0,0,0,0,0,0,0,0,-1,1441,981,0,0
224,43,0,0,0,0,0,0,0,0,0,-1,1448,981,0,0
231,43,0,0,0,0,0,0,0,0,0,-1,1455,981,0,0
238,43,0,0,0,0,0,0,0,0,0,-1,1462,981,0,0
245,43,0,0,0,0,0,0,0,0,0,-1,1469,981,0,0
252,43,0,0,0,0,0,0,0,0,0,-1,1476,981,0,0
259,43,0,0,0,0,0,0,0,0,0,-1,1483,981,0,0
266,43,0,0,0,0,0,0,0,0,0,-1,1490,981,0,0
273,43,0,0,0,0,0,0,0,0,0,-1,1497,981,0,0
280,43,0,0,0,0,0,0,0,0,0,-1,1504,981,0,0
287,43,0,0,0,0,0,0,0,0,0,-1,1511,981,0,0
294,43,0,0,0,0,0,0,0,0,0,-1,1518,981,0,0
301,43,0,0,0,0,0,0,0,0,0,-1,1525,981,0,0
308,43,0,0,0,0,0,0,0,0,0,-1,1532,981,0,0
315,43,0,0,0,0,0,0,0,0,0,-1,1539,981,0,0
322,43,0,0,0,0,0,0,0,0,0,-1,1546,981,0,0
329,43,0,0,0,0,0,0,0,0,0,-1,1553,981,0,0
336,43,0,0,0,0,0,0,0,0,0,-1,1560,981,0,0
343,43,0,0,0,0,0,0,0,0,0,-1,1567,981,0,0
350,43,0,0,0,0,0,0,0,0,0,-1,1574,981,0,0
357,43,0,0,0,0,0,0,0,0,0,-1,1581,981,0,0
364,43,0,0,0,0,0,0,0,0,0,-1,1588,981,0,0
371,43,0,0,0,0,0,0,0,0,0,-1,1595,981,0,0
378,43,0,0,0,0,0,0,0,0,0,-1,1602,981,0,0
385,43,0,0,0,0,0,0,0,0,0,-1,1609,981,0,0
392,43,0,0,0,0,0,0,0,0,0,-1,1616,981,0,0
399,43,0,0,0,0,0,0,0,0,0,-1,1623,981,0,0
406,43,0,0,0,0,0,0,0,0,0,-1,1630,981,0,0
413,43,0,0,0,0,0,0,0,0,0,-1,1637,981,0,0
420,43,0,0,0,0,0,0,0,0,0,-1,1644,981,0,0
427,43,0,0,0,0,0,0,0,0,0,-1,1651,981,0,0
434,43,0,0,0,0,0,0,0,0,0,-1,1658,981,0,0
441,43,0,0,0,0,0,0,0,0,0,-1,1665,981,0,0
448,43,0,0,0,0,0,0,0,0,0,-1,1672,981,0,0
455,43,0,0,0,0,0,0,0,0,0,-1,1679,981,0,0
462,43,0,0,0,0,0,0,0,0,0,-1,1686,981,0,0
469,43,0,0,0,0,0,0,0,0,0,-1,1693,981,0,0
476,43,0,0,0,0,0,0,0,0,0,-1,1700,981,0,0
483,43,0,0,0,0,0,0,0,0,0,-1,1707,981,0,0
490,43,0,0,0,0,0,0,0,0,0,-1,1714,981,0,0
497,43,0,0,0,0,0,0,0,0,0,-1,1721,981,0,0
504,43,0,0,0,0,0,0,0,0,0,-1,1728,981,0,0
511,43,0,0,0,0,0,0,0,0,0,-1,1735,981,0,0
518,43,0,0,0,0,0,0,0,0,0,-1,1742,981,0,0
525,43,0,0,0,0,0,0,0,0,0,-1,1749,981,0,0
532,43,0,0,0,0,0,0,0,0,0,-1,1756,981,0,0
539,43,0,0,0,0,0,0,0,0,0,-1,1763,981,0,0
546,43,0,0,0,0,0,0,0,0,0,-1,1770,981,0,0
553,43,0,0,0,0,0,0,0,0,0,-1,1777,981,0,0
560,43,0,0,0,0,0,0,0,0,0,-1,1784,981,0,0
567,43,0,0,0,0,0,0,0,0,0,-1,1791,981,0,0
574,43,0,0,0,0,0,0,0,0,0,-1,1798,981,0,0
581,43,0,0,0,0,0,0,0,0,0,-1,1805,981,0,0
588,43,0,0,0,0,0,0,0,0,0,-1,1812,981,0,0
595,43,0,0,0,0,0,0,0,0,0,-1,1819,981,0,0
602,43,0,0,0,0,0,0,0,0,0,-1,1826,981,0,0
609,43,0,0,0,0,0,0,0,0,0,-1,1833,981,0,0
616,43,0,0,0,0,0,0,0,0,0,-1,1840,981,0,0
623,43,0,0,0,0,0,0,0,0,0,-1,1847,981,0,0
630,43,0,0,0,0,0,0,0,0,0,-1,1854,981,0,0
637,43,0,0,0,0,0,0,0,0,0,-1,1861,981,0,0
644,43,54.1334,2.71832,0.00237067,0.00339678,0.000711473,0.00376089,0.00200656,1.09778,0.00217298,0.0392008,1868,981,54.1334,-2.71834
651,43,54.1492,2.66376,0.00179105,0.00257599,-4.25403e-05,0.00257829,0.00178875,-1.51681,0.00152538,0.0382937,1875,981,54.1492,-2.66376
658,43,54.313,2.57281,0.00120269,0.00188956,-0.000259975,0.00197686,0.00111539,-1.24682,0.00114448,0.0393228,1882,981,54.313,-2.57284
665,43,54.3314,2.49426,0.000523747,0.00150658,8.43506e-05,0.00151377,0.000516561,1.4858,0.000888538,0.0376005,1889,981,54.3314,-2.49425
672,43,54.2805,2.4353,-0.00027217,0.00124048,0.000767848,0.00156194,-0.000593629,1.17432,0.00128569,0.0387172,1896,981,54.2805,-2.43531
679,43,54.0896,2.45526,-0.000895457,0.00104275,0.00162572,0.0019663,-0.001819,1.05417,0.002186,0.0422914,1903,981,54.0896,-2.45525
686,43,54.0284,2.66193,-0.00122774,0.000747134,0.00233116,0.00229136,-0.00277197,0.985733,0.0029277,0.0447179,1910,981,54.0284,-2.66192
693,43,54.077,2.73639,-0.00142474,0.000510298,0.00274216,0.00245062,-0.00336506,0.954996,0.00337149,0.0429616,1917,981,54.077,-2.7364
700,43,54.0411,2.65558,-0.00168455,0.000358555,0.00286202,0.00237587,-0.00370187,0.956817,0.00353671,0.0338075,1924,981,54.0411,-2.65557
707,43,54.1162,2.69568,-0.00215315,0.000559752,0.00277238,0.00228973,-0.00388313,1.01291,0.00360326,0.0273584,1931,981,54.1163,-2.69568
714,43,54.0522,2.81763,0,0,0,0,0,0,0,-1,1938,981,54.0523,-2.8176
721,43,53.2361,5.12842,0,0,0,0,0,0,0,-1,1945,981,53.2361,-5.12842
728,43,53.2462,5.47791,-0.00412745,0.00320415,0.00213102,0.00377855,-0.00470186,1.30751,0.00490583,0.0203811,1952,981,53.2463,-5.47793
735,43,53.2428,5.7887,-0.00453884,0.00479943,0.00158889,0.00506238,-0.00480179,1.40679,0.00569574,0.0152633,1959,981,53.2428,-5.78871
742,43,53.2108,6.04102,-0.00506228,0.00610084,0.000678623,0.00614194,-0.00510338,1.5103,0.00650171,0.0167427,1966,981,53.2108,-6.04104
749,43,53.1642,6.27313,-0.00508149,0.00863067,-0.00061254,0.00865798,-0.0051088,-1.52624,0.00803582,0.0191993,1973,981,53.1642,-6.27312
756,43,53.1561,6.51318,-0.00463831,0.012856,-0.00349097,0.0135269,-0.0053092,-1.38093,0.0112147,0.02145,1980,981,53.1561,-6.51319
763,43,53.1002,6.75842,-0.00310681,0.0153592,-0.00821359,0.0184838,-0.00623146,-1.20728,0.0148423,0.024691,1987,981,53.1002,-6.75844
770,43,52.9973,7.05072,-0.000441347,0.0198826,-0.0137229,0.0267964,-0.00735516,-1.1041,0.0207551,0.0198649,1994,981,52.9973,-7.05071
777,43,53.0061,7.31122,0.00375532,0.0247042,-0.0212004,0.0378765,-0.00941701,-1.01484,0.0289059,0.0246561,2001,981,53.006,-7.31122
784,43,52.9392,7.49396,0.00962644,0.0293955,-0.0311774,0.0522178,-0.0131958,-0.938907,0.0399438,0.0439026,2008,981,52.9392,-7.49398
791,43,52.8894,7.67212,0,0,0,0,0,0,0,-1,2015,981,52.8893,-7.67213
798,43,52.6001,6.42297,0.0277036,0.0370345,-0.0618281,0.0943729,-0.0296348,-0.823056,0.0747773,0.0439627,2022,981,52.6002,-6.42298
805,43,52.7461,6.24872,0.0397309,0.0392158,-0.0836072,0.123081,-0.0441343,-0.783858,0.100064,0.0431232,2029,981,52.7462,-6.24873
812,43,51.9709,1.47284,0.0542763,0.0400981,-0.11176,0.159172,-0.0647973,-0.753725,0.13308,0.046595,2036,981,51.9708,-1.47286
-700,36,0,0,0,0,0,0,0,0,0,-1,524,988,0,0
-693,36,-39.2732,5.27832,-0.100584,0.155562,0.0863618,0.181959,-0.126981,1.27416,0.179306,0.0464885,531,988,-39.2732,-5.27832
-686,36,-40.1536,6.59338,-0.087689,0.13684,0.0701789,0.15697,-0.107819,1.29145,0.153752,0.0491325,538,988,-40.1536,-6.59337
-679,36,-41.2759,7.77808,0,0,0,0,0,0,0,-1,545,988,-41.2759,-7.77808
-672,36,-42.2677,9.15039,0,0,0,0,0,0,0,-1,552,988,-42.2677,-9.15038
-665,36,-40.0114,4.30194,0,0,0,0,0,0,0,-1,559,988,-40.0114,-4.30193
-658,36,-40.258,4.26038,0,0,0,0,0,0,0,-1,566,988,-40.258,-4.26037
-651,36,-40.4819,4.18579,-0.0335528,0.0552095,0.021032,0.0599408,-0.0382841,1.34952,0.0571678,0.0421201,573,988,-40.4819,-4.18578
-644,36,-40.7487,4.138,-0.0251329,0.0421776,0.0153043,0.0454939,-0.0284492,1.3574,0.0430675,0.0280799,580,988,-40.7486,-4.13801
-637,36,-40.9003,3.97632,-0.0172619,0.0300985,0.00933682,0.0318728,-0.0190362,1.38301,0.0297021,0.0230056,587,988,-40.9003,-3.97633
-630,36,-40.8978,3.90094,-0.0105549,0.0187094,0.00467798,0.019439,-0.0112844,1.41608,0.0179453,0.0175381,594,988,-40.8978,-3.90097
-623,36,-40.9016,3.77478,-0.00664587,0.0123585,0.0021525,0.0125993,-0.00688661,1.45941,0.0114102,0.0138989,601,988,-40.9015,-3.77478
-616,36,-40.8885,3.59662,-0.00436891,0.00791232,-0.000148042,0.00791411,-0.0043707,-1.55874,0.00719031,0.0117048,608,988,-40.8885,-3.5966
-609,36,-40.877,3.4317,-0.00334839,0.00513219,-0.00221212,0.00567453,-0.00389073,-1.33037,0.00555442,0.0161029,615,988,-40.877,-3.43167
-602,36,-40.9182,3.21259,-0.0026255,0.00308034,-0.00386524,0.0050315,-0.00457667,-1.10332,0.00554935,0.0200796,622,988,-40.9181,-3.21257
-595,36,-41.0555,3.01508,-0.00203847,0.00143418,-0.00500407,0.0049946,-0.00559889,-0.95239,0.00611947,0.0247417,629,988,-41.0555,-3.01506
-588,36,-40.9518,2.15533,-0.00156483,0.000169116,-0.00580232,0.00516888,-0.00656459,-0.859559,0.00679028,0.0375099,636,988,-40.9518,-2.15534
-581,36,-40.7086,1.13464,-0.00115615,-0.000517607,-0.00637541,0.00554652,-0.00722028,-0.810417,0.007392,0.0359513,643,988,-40.7086,-1.13464
-574,36,-40.6799,0.887512,-0.000796719,-0.000954353,-0.00661563,0.00574056,-0.00749164,-0.779442,0.00766188,0.0286687,650,988,-40.6799,-0.887484
-567,36,-40.7234,0.803894,-0.000616881,-0.00101647,-0.00640664,0.00559308,-0.00722643,-0.769811,0.00742135,0.0360597,657,988,-40.7234,-0.803901
-560,36,-40.7197,0.820129,-0.000242275,-0.000850461,-0.00577506,0.00523669,-0.00632943,-0.759094,0.00668763,0.0408082,664,988,-40.7197,-0.820112
-553,36,-40.6619,0.912415,0.000403235,-0.000536927,-0.00480315,0.00475925,-0.00489295,-0.736619,0.00557288,0.0429361,671,988,-40.6619,-0.912436
-546,36,-40.585,0.738403,0.0013865,-0.000219814,-0.00357923,0.00425158,-0.00308489,-0.67503,0.00425353,0.0438675,678,988,-40.585,-0.738375
-539,36,-40.6857,0.741089,0.00278295,-4.17255e-05,-0.00238643,0.00414365,-0.00140243,-0.518207,0.00332985,0.0445955,685,988,-40.6857,-0.741108
-532,36,-40.6739,0.971008,0.00487776,0.000265956,-0.00226499,0.00580409,-0.000660379,-0.388224,0.00410726,0.0450679,692,988,-40.6739,-0.971011
-525,36,-40.6315,0.82074,0.00670682,0.00113305,-0.00410327,0.00888013,-0.00104026,-0.487088,0.00629555,0.0452536,699,988,-40.6315,-0.820758
-518,36,0,0,0,0,0,0,0,0,0,-1,706,988,0,0
-511,36,0,0,0,0,0,0,0,0,0,-1,713,988,0,0
-504,36,0,0,0,0,0,0,0,0,0,-1,720,988,0,0
-497,36,0,0,0,0,0,0,0,0,0,-1,727,988,0,0
-490,36,0,0,0,0,0,0,0,0,0,-1,734,988,0,0
-483,36,0,0,0,0,0,0,0,0,0,-1,741,988,0,0
-476,36,0,0,0,0,0,0,0,0,0,-1,748,988,0,0
-469,36,0,0,0,0,0,0,0,0,0,-1,755,988,0,0
-462,36,0,0,0,0,0,0,0,0,0,-1,762,988,0,0
-455,36,0,0,0,0,0,0,0,0,0,-1,769,988,0,0
-448,36,0,0,0,0,0,0,0,0,0,-1,776,988,0,0
-441,36,0,0,0,0,0,0,0,0,0,-1,783,988,0,0
-434,36,0,0,0,0,0,0,0,0,0,-1,790,988,0,0
-427,36,0,0,0,0,0,0,0,0,0,-1,797,988,0,0
-420,36,0,0,0,0,0,0,0,0,0,-1,804,988,0,0
-413,36,0,0,0,0,0,0,0,0,0,-1,811,988,0,0
-406,36,0,0,0,0,0,0,0,0,0,-1,818,988,0,0
-399,36,0,0,0,0,0,0,0,0,0,-1,825,988,0,0
-392,36,0,0,0,0,0,0,0,0,0,-1,832,988,0,0
-385,36,0,0,0,0,0,0,0,0,0,-1,839,988,0,0
-378,36,0,0,0,0,0,0,0,0,0,-1,846,988,0,0
-371,36,0,0,0,0,0,0,0,0,0,-1,853,988,0,0
-364,36,0,0,0,0,0,0,0,0,0,-1,860,988,0,0
-357,36,0,0,0,0,0,0,0,0,0,-1,867,988,0,0
-350,36,0,0,0,0,0,0,0,0,0,-1,874,988,0,0
-343,36,0,0,0,0,0,0,0,0,0,-1,881,988,0,0
-336,36,0,0,0,0,0,0,0,0,0,-1,888,988,0,0
-329,36,0,0,0,0,0,0,0,0,0,-1,895,988,0,0
-322,36,0,0,0,0,0,0,0,0,0,-1,902,988,0,0
-315,36,0,0,0,0,0,0,0,0,0,-1,909,988,0,0
-308,36,0,0,0,0,0,0,0,0,0,-1,916,988,0,0
-301,36,0,0,0,0,0,0,0,0,0,-1,923,988,0,0
-294,36,0,0,0,0,0,0,0,0,0,-1,930,988,0,0
-287,36,0,0,0,0,0,0,0,0,0,-1,937,988,0,0
-280,36,0,0,0,0,0,0,0,0,0,-1,944,988,0,0
-273,36,0,0,0,0,0,0,0,0,0,-1,951,988,0,0
-266,36,0,0,0,0,0,0,0,0,0,-1,958,988,0,0
-259,36,0,0,0,0,0,0,0,0,0,-1,965,988,0,0
-252,36,0,0,0,0,0,0,0,0,0,-1,972,988,0,0
-245,36,0,0,0,0,0,0,0,0,0,-1,979,988,0,0
-238,36,0,0,0,0,0,0,0,0,0,-1,986,988,0,0
-231,36,0,0,0,0,0,0,0,0,0,-1,993,988,0,0
-224,36,0,0,0,0,0,0,0,0,0,-1,1000,988,0,0
-217,36,0,0,0,0,0,0,0,0,0,-1,1007,988,0,0
-210,36,0,0,0,0,0,0,0,0,0,-1,1014,988,0,0
-203,36,0,0,0,0,0,0,0,0,0,-1,1021,988,0,0
-196,36,0,0,0,0,0,0,0,0,0,-1,1028,988,0,0
-189,36,0,0,0,0,0,0,0,0,0,-1,1035,988,0,0
-182,36,0,0,0,0,0,0,0,0,0,-1,1042,988,0,0
-175,36,0,0,0,0,0,0,0,0,0,-1,1049,988,0,0
-168,36,0,0,0,0,0,0,0,0,0,-1,1056,988,0,0
-161,36,0,0,0,0,0,0,0,0,0,-1,1063,988,0,0
-154,36,0,0,0,0,0,0,0,0,0,-1,1070,988,0,0
-147,36,0,0,0,0,0,0,0,0,0,-1,1077,988,0,0
-140,36,0,0,0,0,0,0,0,0,0,-1,1084,988,0,0
-133,36,0,0,0,0,0,0,0,0,0,-1,1091,988,0,0
-126,36,0,0,0,0,0,0,0,0,0,-1,1098,988,0,0
-119,36,0,0,0,0,0,0,0,0,0,-1,1105,988,0,0
-112,36,0,0,0,0,0,0,0,0,0,-1,1112,988,0,0
-105,36,0,0,0,0,0,0,0,0,0,-1,1119,988,0,0
-98,36,0,0,0,0,0,0,0,0,0,-1,1126,988,0,0
-91,36,0,0,0,0,0,0,0,0,0,-1,1133,988,0,0
-84,36,0,0,0,0,0,0,0,0,0,-1,1140,988,0,0
-77,36,0,0,0,0,0,0,0,0,0,-1,1147,988,0,0
-70,36,0,0,0,0,0,0,0,0,0,-1,1154,988,0,0
-63,36,0,0,0,0,0,0,0,0,0,-1,1161,988,0,0
-56,36,0,0,0,0,0,0,0,0,0,-1,1168,988,0,0
-49,36,0,0,0,0,0,0,0,0,0,-1,1175,988,0,0
-42,36,0,0,0,0,0,0,0,0,0,-1,1182,988,0,0
-35,36,0,0,0,0,0,0,0,0,0,-1,1189,988,0,0
-28,36,0,0,0,0,0,0,0,0,0,-1,1196,988,0,0
-21,36,0,0,0,0,0,0,0,0,0,-1,1203,988,0,0
-14,36,0,0,0,0,0,0,0,0,0,-1,1210,988,0,0
-7,36,0,0,0,0,0,0,0,0,0,-1,1217,988,0,0
0,36,0,0,0,0,0,0,0,0,0,-1,1224,988,0,0
7,36,0,0,0,0,0,0,0,0,0,-1,1231,988,0,0
14,36,0,0,0,0,0,0,0,0,0,-1,1238,988,0,0
21,36,0,0,0,0,0,0,0,0,0,-1,1245,988,0,0
28,36,0,0,0,0,0,0,0,0,0,-1,1252,988,0,0
35,36,0,0,0,0,0,0,0,0,0,-1,1259,988,0,0
42,36,0,0,0,0,0,0,0,0,0,-1,1266,988,0,0
49,36,0,0,0,0,0,0,0,0,0,-1,1273,988,0,0
56,36,0,0,0,0,0,0,0,0,0,-1,1280,988,0,0
63,36,0,0,0,0,0,0,0,0,0,-1,1287,988,0,0
70,36,0,0,0,0,0,0,0,0,0,-1,1294,988,0,0
77,36,0,0,0,0,0,0,0,0,0,-1,1301,988,0,0
84,36,0,0,0,0,0,0,0,0,0,-1,1308,988,0,0
91,36,0,0,0,0,0,0,0,0,0,-1,1315,988,0,0
98,36,0,0,0,0,0,0,0,0,0,-1,1322,988,0,0
105,36,0,0,0,0,0,0,0,0,0,-1,1329,988,0,0
112,36,0,0,0,0,0,0,0,0,0,-1,1336,988,0,0
119,36,0,0,0,0,0,0,0,0,0,-1,1343,988,0,0
126,36,0,0,0,0,0,0,0,0,0,-1,1350,988,0,0
133,36,0,0,0,0,0,0,0,0,0,-1,1357,988,0,0
140,36,0,0,0,0,0,0,0,0,0,-1,1364,988,0,0
147,36,0,0,0,0,0,0,0,0,0,-1,1371,988,0,0
154,36,0,0,0,0,0,0,0,0,0,-1,1378,988,0,0
161,36,0,0,0,0,0,0,0,0,0,-1,1385,988,0,0
168,36,0,0,0,0,0,0,0,0,0,-1,1392,988,0,0
175,36,0,0,0,0,0,0,0,0,0,-1,1399,988,0,0
182,36,0,0,0,0,0,0,0,0,0,-1,1406,988,0,0
189,36,0,0,0,0,0,0,0,0,0,-1,1413,988,0,0
196,36,0,0,0,0,0,0,0,0,0,-1,1420,988,0,0
203,36,0,0,0,0,0,0,0,0,0,-1,1427,988,0,0
210,36,0,0,0,0,0,0,0,0,0,-1,1434,988,0,0
217,36,0,0,0,0,0,0,0,0,0,-1,1441,988,0,0
224,36,0,0,0,0,0,0,0,0,0,-1,1448,988,0,0
231,36,0,0,0,0,0,0,0,0,0,-1,1455,988,0,0
238,36,0,0,0,0,0,0,0,0,0,-1,1462,988,0,0
245,36,0,0,0,0,0,0,0,0,0,-1,1469,988,0,0
252,36,0,0,0,0,0,0,0,0,0,-1,1476,988,0,0
259,36,0,0,0,0,0,0,0,0,0,-1,1483,988,0,0
266,36,0,0,0,0,0,0,0,0,0,-1,1490,988,0,0
273,36,0,0,0,0,0,0,0,0,0,-1,1497,988,0,0
280,36,0,0,0,0,0,0,0,0,0,-1,1504,988,0,0
287,36,0,0,0,0,0,0,0,0,0,-1,1511,988,0,0
294,36,0,0,0,0,0,0,0,0,0,-1,1518,988,0,0
301,36,0,0,0,0,0,0,0,0,0,-1,1525,988,0,0
308,36,0,0,0,0,0,0,0,0,0,-1,1532,988,0,0
315,36,0,0,0,0,0,0,0,0,0,-1,1539,988,0,0
322,36,0,0,0,0,0,0,0,0,0,-1,1546,988,0,0
329,36,0,0,0,0,0,0,0,0,0,-1,1553,988,0,0
336,36,0,0,0,0,0,0,0,0,0,-1,1560,988,0,0
343,36,0,0,0,0,0,0,0,0,0,-1,1567,988,0,0
350,36,0,0,0,0,0,0,0,0,0,-1,1574,988,0,0
357,36,0,0,0,0,0,0,0,0,0,-1,1581,988,0,0
364,36,0,0,0,0,0,0,0,0,0,-1,1588,988,0,0
371,36,0,0,0,0,0,0,0,0,0,-1,1595,988,0,0
378,36,0,0,0,0,0,0,0,0,0,-1,1602,988,0,0
385,36,0,0,0,0,0,0,0,0,0,-1,1609,988,0,0
392,36,0,0,0,0,0,0,0,0,0,-1,1616,988,0,0
399,36,0,0,0,0,0,0,0,0,0,-1,1623,988,0,0
406,36,0,0,0,0,0,0,0,0,0,-1,1630,988,0,0
413,36,0,0,0,0,0,0,0,0,0,-1,1637,988,0,0
420,36,0,0,0,0,0,0,0,0,0,-1,1644,988,0,0
427,36,0,0,0,0,0,0,0,0,0,-1,1651,988,0,0
434,36,0,0,0,0,0,0,0,0,0,-1,1658,988,0,0
441,36,0,0,0,0,0,0,0,0,0,-1,1665,988,0,0
448,36,0,0,0,0,0,0,0,0,0,-1,1672,988,0,0
455,36,0,0,0,0,0,0,0,0,0,-1,1679,988,0,0
462,36,0,0,0,0,0,0,0,0,0,-1,1686,988,0,0
469,36,0,0,0,0,0,0,0,0,0,-1,1693,988,0,0
476,36,0,0,0,0,0,0,0,0,0,-1,1700,988,0,0
483,36,0,0,0,0,0,0,0,0,0,-1,1707,988,0,0
490,36,0,0,0,0,0,0,0,0,0,-1,1714,988,0,0
497,36,0,0,0,0,0,0,0,0,0,-1,1721,988,0,0
504,36,0,0,0,0,0,0,0,0,0,-1,1728,988,0,0
511,36,0,0,0,0,0,0,0,0,0,-1,1735,988,0,0
518,36,0,0,0,0,0,0,0,0,0,-1,1742,988,0,0
525,36,0,0,0,0,0,0,0,0,0,-1,1749,988,0,0
532,36,0,0,0,0,0,0,0,0,0,-1,1756,988,0,0
539,36,0,0,0,0,0,0,0,0,0,-1,1763,988,0,0
546,36,0,0,0,0,0,0,0,0,0,-1,1770,988,0,0
553,36,0,0,0,0,0,0,0,0,0,-1,1777,988,0,0
560,36,0,0,0,0,0,0,0,0,0,-1,1784,988,0,0
567,36,0,0,0,0,0,0,0,0,0,-1,1791,988,0,0
574,36,0,0,0,0,0,0,0,0,0,-1,1798,988,0,0
581,36,0,0,0,0,0,0,0,0,0,-1,1805,988,0,0
588,36,0,0,0,0,0,0,0,0,0,-1,1812,988,0,0
595,36,0,0,0,0,0,0,0,0,0,-1,1819,988,0,0
602,36,0,0,0,0,0,0,0,0,0,-1,1826,988,0,0
609,36,0,0,0,0,0,0,0,0,0,-1,1833,988,0,0
616,36,0,0,0,0,0,0,0,0,0,-1,1840,988,0,0
623,36,0,0,0,0,0,0,0,0,0,-1,1847,988,0,0
630,36,0,0,0,0,0,0,0,0,0,-1,1854,988,0,0
637,36,0,0,0,0,0,0,0,0,0,-1,1861,988,0,0
644,36,54.0474,2.79938,0.00478145,0.00409881,0.000527823,0.00506869,0.00381156,0.498389,0.00304777,0.0420806,1868,988,54.0474,-2.79937
651,36,54.0286,2.91718,0.00340165,0.00288116,-4.9321e-07,0.00340165,0.00288116,-0.000947591,0.00211572,0.0423694,1875,988,54.0285,-2.91719
658,36,54.2372,2.85516,0.00226169,0.00192861,-0.000157311,0.00232424,0.00186606,-0.37846,0.00142159,0.0394757,1882,988,54.2372,-2.85515
665,36,54.3236,2.77844,0.00120039,0.00136817,0.00017991,0.00148279,0.00108577,1.00356,0.000886338,0.0365387,1889,988,54.3236,-2.77845
672,36,54.2213,2.67682,0.000137589,0.00100806,0.000825123,0.0015057,-0.000360053,1.02809,0.00114288,0.0378281,1896,988,54.2213,-2.67681
679,36,54.1146,2.59192,-0.000654808,0.000826311,0.00165327,0.0018973,-0.0017258,0.995967,0.00209258,0.0402926,1903,988,54.1146,-2.59192
686,36,54.1425,2.63104,-0.00111201,0.000588236,0.00235404,0.00224095,-0.00276473,0.958678,0.0028953,0.0391362,1910,988,54.1425,-2.63106
693,36,54.1577,2.74652,-0.00138973,0.000416707,0.00281434,0.00246921,-0.00344224,0.940674,0.00342835,0.0409726,1917,988,54.1577,-2.74651
700,36,54.0963,2.70154,-0.00164264,0.000316109,0.00297335,0.00246723,-0.00379376,0.944494,0.00364172,0.0377752,1924,988,54.0964,-2.70155
707,36,54.1383,2.69257,-0.00210333,0.000588464,0.0028913,0.00243178,-0.00394665,1.00323,0.00371705,0.0274619,1931,988,54.1383,-2.69257
714,36,54.0171,3.06305,-0.00273744,0.0011772,0.00268617,0.00254352,-0.00410376,1.10025,0.00387289,0.0365109,1938,988,54.0171,-3.06306
721,36,53.5239,5.20599,0,0,0,0,0,0,0,-1,1945,988,53.5239,-5.20599
728,36,53.4906,5.54028,-0.00417777,0.00348322,0.00218377,0.00406199,-0.00475653,1.31172,0.00509663,0.0214586,1952,988,53.4906,-5.54031
735,36,53.4855,5.85242,-0.00467423,0.00505949,0.00164024,0.00532846,-0.0049432,1.40826,0.00593173,0.0196986,1959,988,53.4855,-5.85241
742,36,53.4265,6.03143,-0.0051856,0.00618726,0.000679547,0.00622772,-0.00522606,1.51133,0.00662126,0.016341,1966,988,53.4265,-6.03145
749,36,53.415,6.26654,-0.00517935,0.00857287,-0.0007848,0.00861751,-0.00522399,-1.51398,0.00807106,0.017824,1973,988,53.415,-6.26654
756,36,53.3865,6.48596,-0.00478637,0.012323,-0.00382036,0.0131373,-0.00560067,-1.36079,0.0111062,0.0174836,1980,988,53.3865,-6.48595
763,36,53.2712,6.6781,-0.00338939,0.014116,-0.00858579,0.0176241,-0.00689741,-1.18291,0.014602,0.0202987,1987,988,53.2713,-6.6781
770,36,53.213,6.90924,-0.000810253,0.0178131,-0.0143455,0.0256041,-0.00860123,-1.07327,0.0205457,0.0162903,1994,988,53.213,-6.90924
777,36,53.2473,7.17084,0.00338124,0.0217006,-0.0221409,0.0365017,-0.0114198,-0.981529,0.0289031,0.0241778,2001,988,53.2474,-7.17086
784,36,53.2498,7.36444,0.00905743,0.0251774,-0.0321459,0.0502584,-0.0160235,-0.908232,0.0399331,0.0464174,2008,988,53.2499,-7.36444
791,36,53.2126,7.56445,0,0,0,0,0,0,0,-1,2015,988,53.2127,-7.56446
798,36,51.5757,6.00073,0.0260908,0.0294166,-0.0616434,0.0894195,-0.0339121,-0.798883,0.0735702,0.0427953,2022,988,51.5756,-6.00076
805,36,52.0393,2.95361,0.0372059,0.0292102,-0.0819366,0.115242,-0.048826,-0.761022,0.0972775,0.0478253,2029,988,52.0392,-2.95359
812,36,52.1794,2.04254,0.0504206,0.0268112,-0.107733,0.146994,-0.0697617,-0.730829,0.127764,0.046128,2036,988,52.1795,-2.04251
-700,29,0,0,0,0,0,0,0,0,0,-1,524,995,0,0
-693,29,-39.0795,4.25049,-0.0959669,0.153424,0.0787846,0.176227,-0.11877,1.28905,0.17139,0.044665,531,995,-39.0795,-4.25051
-686,29,-39.7268,5.33319,-0.0832684,0.135687,0.0655118,0.153791,-0.101373,1.30117,0.148352,0.0459007,538,995,-39.7268,-5.33316
-679,29,-41.2578,5.22321,0,0,0,0,0,0,0,-1,545,995,-41.2578,-5.2232
-672,29,-40.1519,4.1972,0,0,0,0,0,0,0,-1,552,995,-40.1519,-4.19719
-665,29,-41.9082,6.55365,0,0,0,0,0,0,0,-1,559,995,-41.9082,-6.55367
-658,29,-40.1111,3.922,0,0,0,0,0,0,0,-1,566,995,-40.1111,-3.92203
-651,29,-40.6655,3.8996,0,0,0,0,0,0,0,-1,573,995,-40.6655,-3.89957
-644,29,-40.8672,3.67749,-0.0238929,0.0425778,0.0158709,0.0461728,-0.0274879,1.34804,0.0429817,0.0434759,580,995,-40.8673,-3.67751
-637,29,-41.0941,3.82068,-0.0165863,0.0306672,0.00997175,0.0326853,-0.0186044,1.37111,0.0299818,0.025813,587,995,-41.094,-3.82067
-630,29,-41.0724,3.80798,-0.010546,0.0190242,0.00493576,0.0198263,-0.0113481,1.4097,0.0182191,0.0146803,594,995,-41.0724,-3.80796
-623,29,-41.0626,3.7417,-0.00666697,0.012187,0.00215095,0.0124292,-0.00690925,1.45863,0.0113157,0.0131688,601,995,-41.0626,-3.7417
-616,29,-41.0978,3.60358,-0.00411842,0.00758155,-0.000151902,0.00758352,-0.00412039,-1.55782,0.00685515,0.0145292,608,995,-41.0978,-3.60356
-609,29,-41.0948,3.48901,-0.00291693,0.00483382,-0.0022276,0.00542843,-0.00351154,-1.30995,0.00520089,0.0207693,615,995,-41.0948,-3.489
-602,29,-41.1549,3.32867,-0.00207893,0.0028026,-0.00378715,0.00486737,-0.0041437,-1.07164,0.00520813,0.0225809,622,995,-41.1549,-3.3287
-595,29,-41.2567,3.10834,-0.00142768,0.00123198,-0.00483978,0.0049213,-0.005117,-0.919475,0.00579598,0.0254773,629,995,-41.2566,-3.10833
-588,29,-40.9407,2.32941,-0.00085526,4.59291e-05,-0.00557304,0.00518656,-0.0059959,-0.825737,0.00646183,0.044067,636,995,-40.9407,-2.3294
-581,29,-40.6277,1.39703,-0.000376054,-0.000611555,-0.00609177,0.0055991,-0.00658671,-0.775735,0.00704318,0.0493528,643,995,-40.6277,-1.39701
-574,29,-40.6418,0.863037,-2.95122e-05,-0.00102518,-0.00629561,0.00578792,-0.00684261,-0.745942,0.00730071,0.0336155,650,995,-40.6418,-0.863017
-567,29,-40.682,0.719421,9.53943e-05,-0.00104565,-0.00607982,0.0056314,-0.00658166,-0.738616,0.00705833,0.0340723,657,995,-40.682,-0.719394
-560,29,-40.808,0.714111,0.000332806,-0.000817519,-0.00546225,0.0052501,-0.00573481,-0.732943,0.0063442,0.0380303,664,995,-40.808,-0.714104
-553,29,-40.8394,0.89032,0.000742349,-0.000452384,-0.00452087,0.00470515,-0.00441518,-0.719711,0.00526651,0.0419383,671,995,-40.8394,-0.890349
-546,29,-40.7373,0.91803,0.00141302,-0.000129267,-0.00333533,0.0040652,-0.00278144,-0.671792,0.003976,0.0428806,678,995,-40.7373,-0.918021
-539,29,-40.8112,0.938965,0.00244129,1.27556e-05,-0.00223301,0.00376883,-0.00131479,-0.536371,0.00304689,0.0414597,685,995,-40.8112,-0.938958
-532,29,-40.7246,1.09283,0.00421,0.000285072,-0.00230093,0.0052717,-0.000776622,-0.43231,0.00379988,0.0463122,692,995,-40.7246,-1.09282
-525,29,-40.5948,0.95752,0.00600644,0.00101574,-0.0041958,0.00839284,-0.00137067,-0.517132,0.00610363,0.0460381,699,995,-40.5948,-0.95751
-518,29,0,0,0,0,0,0,0,0,0,-1,706,995,0,0
-511,29,0,0,0,0,0,0,0,0,0,-1,713,995,0,0
-504,29,0,0,0,0,0,0,0,0,0,-1,720,995,0,0
-497,29,0,0,0,0,0,0,0,0,0,-1,727,995,0,0
-490,29,0,0,0,0,0,0,0,0,0,-1,734,995,0,0
-483,29,0,0,0,0,0,0,0,0,0,-1,741,995,0,0
-476,29,0,0,0,0,0,0,0,0,0,-1,748,995,0,0
-469,29,0,0,0,0,0,0,0,0,0,-1,755,995,0,0
-462,29,0,0,0,0,0,0,0,0,0,-1,762,995,0,0
-455,29,0,0,0,0,0,0,0,0,0,-1,769,995,0,0
-448,29,0,0,0,0,0,0,0,0,0,-1,776,995,0,0
-441,29,0,0,0,0,0,0,0,0,0,-1,783,995,0,0
-434,29,0,0,0,0,0,0,0,0,0,-1,790,995,0,0
-427,29,0,0,0,0,0,0,0,0,0,-1,797,995,0,0
-420,29,0,0,0,0,0,0,0,0,0,-1,804,995,0,0
-413,29,0,0,0,0,0,0,0,0,0,-1,811,995,0,0
-406,29,0,0,0,0,0,0,0,0,0,-1,818,995,0,0
-399,29,0,0,0,0,0,0,0,0,0,-1,825,995,0,0
-392,29,0,0,0,0,0,0,0,0,0,-1,832,995,0,0
-385,29,0,0,0,0,0,0,0,0,0,-1,839,995,0,0
-378,29,0,0,0,0,0,0,0,0,0,-1,846,995,0,0
-371,29,0,0,0,0,0,0,0,0,0,-1,853,995,0,0
-364,29,0,0,0,0,0,0,0,0,0,-1,860,995,0,0
-357,29,0,0,0,0,0,0,0,0,0,-1,867,995,0,0
-350,29,0,0,0,0,0,0,0,0,0,-1,874,995,0,0
-343,29,0,0,0,0,0,0,0,0,0,-1,881,995,0,0
-336,29,0,0,0,0,0,0,0,0,0,-1,888,995,0,0
-329,29,0,0,0,0,0,0,0,0,0,-1,895,995,0,0
-322,29,0,0,0,0,0,0,0,0,0,-1,902,995,0,0
-315,29,0,0,0,0,0,0,0,0,0,-1,909,995,0,0
-308,29,0,0,0,0,0,0,0,0,0,-1,916,995,0,0
-301,29,0,0,0,0,0,0,0,0,0,-1,923,995,0,0
-294,29,0,0,0,0,0,0,0,0,0,-1,930,995,0,0
-287,29,0,0,0,0,0,0,0,0,0,-1,937,995,0,0
-280,29,0,0,0,0,0,0,0,0,0,-1,944,995,0,0
-273,29,0,0,0,0,0,0,0,0,0,-1,951,995,0,0
-266,29,0,0,0,0,0,0,0,0,0,-1,958,995,0,0
-259,29,0,0,0,0,0,0,0,0,0,-1,965,995,0,0
-252,29,0,0,0,0,0,0,0,0,0,-1,972,995,0,0
-245,29,0,0,0,0,0,0,0,0,0,-1,979,995,0,0
-238,29,0,0,0,0,0,0,0,0,0,-1,986,995,0,0
-231,29,0,0,0,0,0,0,0,0,0,-1,993,995,0,0
-224,29,0,0,0,0,0,0,0,0,0,-1,1000,995,0,0
-217,29,0,0,0,0,0,0,0,0,0,-1,1007,995,0,0
-210,29,0,0,0,0,0,0,0,0,0,-1,1014,995,0,0
-203,29,0,0,0,0,0,0,0,0,0,-1,1021,995,0,0
-196,29,0,0,0,0,0,0,0,0,0,-1,1028,995,0,0
-189,29,0,0,0,0,0,0,0,0,0,-1,1035,995,0,0
-182,29,0,0,0,0,0,0,0,0,0,-1,1042,995,0,0
-175,29,0,0,0,0,0,0,0,0,0,-1,1049,995,0,0
-168,29,0,0,0,0,0,0,0,0,0,-1,1056,995,0,0
-161,29,0,0,0,0,0,0,0,0,0,-1,1063,995,0,0
-154,29,0,0,0,0,0,0,0,0,0,-1,1070,995,0,0
-147,29,0,0,0,0,0,0,0,0,0,-1,1077,995,0,0
-140,29,0,0,0,0,0,0,0,0,0,-1,1084,995,0,0
-133,29,0,0,0,0,0,0,0,0,0,-1,1091,995,0,0
-126,29,0,0,0,0,0,0,0,0,0,-1,1098,995,0,0
-119,29,0,0,0,0,0,0,0,0,0,-1,1105,995,0,0
-112,29,0,0,0,0,0,0,0,0,0,-1,1112,995,0,0
-105,29,0,0,0,0,0,0,0,0,0,-1,1119,995,0,0
-98,29,0,0,0,0,0,0,0,0,0,-1,1126,995,0,0
-91,29,0,0,0,0,0,0,0,0,0,-1,1133,995,0,0
-84,29,0,0,0,0,0,0,0,0,0,-1,1140,995,0,0
-77,29,0,0,0,0,0,0,0,0,0,-1,1147,995,0,0
-70,29,0,0,0,0,0,0,0,0,0,-1,1154,995,0,0
-63,29,0,0,0,0,0,0,0,0,0,-1,1161,995,0,0
-56,29,0,0,0,0,0,0,0,0,0,-1,1168,995,0,0
-49,29,0,0,0,0,0,0,0,0,0,-1,1175,995,0,0
-42,29,0,0,0,0,0,0,0,0,0,-1,1182,995,0,0
-35,29,0,0,0,0,0,0,0,0,0,-1,1189,995,0,0
-28,29,0,0,0,0,0,0,0,0,0,-1,1196,995,0,0
-21,29,0,0,0,0,0,0,0,0,0,-1,1203,995,0,0
-14,29,0,0,0,0,0,0,0,0,0,-1,1210,995,0,0
-7,29,0,0,0,0,0,0,0,0,0,-1,1217,995,0,0
0,29,0,0,0,0,0,0,0,0,0,-1,1224,995,0,0
7,29,0,0,0,0,0,0,0,0,0,-1,1231,995,0,0
14,29,0,0,0,0,0,0,0,0,0,-1,1238,995,0,0
21,29,0,0,0,0,0,0,0,0,0,-1,1245,995,0,0
28,29,0,0,0,0,0,0,0,0,0,-1,1252,995,0,0
35,29,0,0,0,0,0,0,0,0,0,-1,1259,995,0,0
42,29,0,0,0,0,0,0,0,0,0,-1,1266,995,0,0
49,29,0,0,0,0,0,0,0,0,0,-1,1273,995,0,0
56,29,0,0,0,0,0,0,0,0,0,-1,1280,995,0,0
63,29,0,0,0,0,0,0,0,0,0,-1,1287,995,0,0
70,29,0,0,0,0,0,0,0,0,0,-1,1294,995,0,0
77,29,0,0,0,0,0,0,0,0,0,-1,1301,995,0,0
84,29,0,0,0,0,0,0,0,0,0,-1,1308,995,0,0
91,29,0,0,0,0,0,0,0,0,0,-1,1315,995,0,0
98,29,0,0,0,0,0,0,0,0,0,-1,1322,995,0,0
105,29,0,0,0,0,0,0,0,0,0,-1,1329,995,0,0
112,29,0,0,0,0,0,0,0,0,0,-1,1336,995,0,0
119,29,0,0,0,0,0,0,0,0,0,-1,1343,995,0,0
126,29,0,0,0,0,0,0,0,0,0,-1,1350,995,0,0
133,29,0,0,0,0,0,0,0,0,0,-1,1357,995,0,0
140,29,0,0,0,0,0,0,0,0,0,-1,1364,995,0,0
147,29,0,0,0,0,0,0,0,0,0,-1,1371,995,0,0
154,29,0,0,0,0,0,0,0,0,0,-1,1378,995,0,0
161,29,0,0,0,0,0,0,0,0,0,-1,1385,995,0,0
168,29,0,0,0,0,0,0,0,0,0,-1,1392,995,0,0
175,29,0,0,0,0,0,0,0,0,0,-1,1399,995,0,0
182,29,0,0,0,0,0,0,0,0,0,-1,1406,995,0,0
189,29,0,0,0,0,0,0,0,0,0,-1,1413,995,0,0
196,29,0,0,0,0,0,0,0,0,0,-1,1420,995,0,0
203,29,0,0,0,0,0,0,0,0,0,-1,1427,995,0,0
210,29,0,0,0,0,0,0,0,0,0,-1,1434,995,0,0
217,29,0,0,0,0,0,0,0,0,0,-1,1441,995,0,0
224,29,0,0,0,0,0,0,0,0,0,-1,1448,995,0,0
231,29,0,0,0,0,0,0,0,0,0,-1,1455,995,0,0
238,29,0,0,0,0,0,0,0,0,0,-1,1462,995,0,0
245,29,0,0,0,0,0,0,0,0,0,-1,1469,995,0,0
252,29,0,0,0,0,0,0,0,0,0,-1,1476,995,0,0
259,29,0,0,0,0,0,0,0,0,0,-1,1483,995,0,0
266,29,0,0,0,0,0,0,0,0,0,-1,1490,995,0,0
273,29,0,0,0,0,0,0,0,0,0,-1,1497,995,0,0
280,29,0,0,0,0,0,0,0,0,0,-1,1504,995,0,0
287,29,0,0,0,0,0,0,0,0,0,-1,1511,995,0,0
294,29,0,0,0,0,0,0,0,0,0,-1,1518,995,0,0
301,29,0,0,0,0,0,0,0,0,0,-1,1525,995,0,0
308,29,0,0,0,0,0,0,0,0,0,-1,1532,995,0,0
315,29,0,0,0,0,0,0,0,0,0,-1,1539,995,0,0
322,29,0,0,0,0,0,0,0,0,0,-1,1546,995,0,0
329,29,0,0,0,0,0,0,0,0,0,-1,1553,995,0,0
336,29,0,0,0,0,0,0,0,0,0,-1,1560,995,0,0
343,29,0,0,0,0,0,0,0,0,0,-1,1567,995,0,0
350,29,0,0,0,0,0,0,0,0,0,-1,1574,995,0,0
357,29,0,0,0,0,0,0,0,0,0,-1,1581,995,0,0
364,29,0,0,0,0,0,0,0,0,0,-1,1588,995,0,0
371,29,0,0,0,0,0,0,0,0,0,-1,1595,995,0,0
378,29,0,0,0,0,0,0,0,0,0,-1,1602,995,0,0
385,29,0,0,0,0,0,0,0,0,0,-1,1609,995,0,0
392,29,0,0,0,0,0,0,0,0,0,-1,1616,995,0,0
399,29,0,0,0,0,0,0,0,0,0,-1,1623,995,0,0
406,29,0,0,0,0,0,0,0,0,0,-1,1630,995,0,0
413,29,0,0,0,0,0,0,0,0,0,-1,1637,995,0,0
420,29,0,0,0,0,0,0,0,0,0,-1,1644,995,0,0
427,29,0,0,0,0,0,0,0,0,0,-1,1651,995,0,0
434,29,0,0,0,0,0,0,0,0,0,-1,1658,995,0,0
441,29,0,0,0,0,0,0,0,0,0,-1,1665,995,0,0
448,29,0,0,0,0,0,0,0,0,0,-1,1672,995,0,0
455,29,0,0,0,0,0,0,0,0,0,-1,1679,995,0,0
462,29,0,0,0,0,0,0,0,0,0,-1,1686,995,0,0
469,29,0,0,0,0,0,0,0,0,0,-1,1693,995,0,0
476,29,0,0,0,0,0,0,0,0,0,-1,1700,995,0,0
483,29,0,0,0,0,0,0,0,0,0,-1,1707,995,0,0
490,29,0,0,0,0,0,0,0,0,0,-1,1714,995,0,0
497,29,0,0,0,0,0,0,0,0,0,-1,1721,995,0,0
504,29,0,0,0,0,0,0,0,0,0,-1,1728,995,0,0
511,29,0,0,0,0,0,0,0,0,0,-1,1735,995,0,0
518,29,0,0,0,0,0,0,0,0,0,-1,1742,995,0,0
525,29,0,0,0,0,0,0,0,0,0,-1,1749,995,0,0
532,29,0,0,0,0,0,0,0,0,0,-1,1756,995,0,0
539,29,0,0,0,0,0,0,0,0,0,-1,1763,995,0,0
546,29,0,0,0,0,0,0,0,0,0,-1,1770,995,0,0
553,29,0,0,0,0,0,0,0,0,0,-1,1777,995,0,0
560,29,0,0,0,0,0,0,0,0,0,-1,1784,995,0,0
567,29,0,0,0,0,0,0,0,0,0,-1,1791,995,0,0
574,29,0,0,0,0,0,0,0,0,0,-1,1798,995,0,0
581,29,0,0,0,0,0,0,0,0,0,-1,1805,995,0,0
588,29,0,0,0,0,0,0,0,0,0,-1,1812,995,0,0
595,29,0,0,0,0,0,0,0,0,0,-1,1819,995,0,0
602,29,0,0,0,0,0,0,0,0,0,-1,1826,995,0,0
609,29,0,0,0,0,0,0,0,0,0,-1,1833,995,0,0
616,29,0,0,0,0,0,0,0,0,0,-1,1840,995,0,0
623,29,0,0,0,0,0,0,0,0,0,-1,1847,995,0,0
630,29,0,0,0,0,0,0,0,0,0,-1,1854,995,0,0
637,29,0,0,0,0,0,0,0,0,0,-1,1861,995,0,0
644,29,54.0023,2.79443,0.00645541,0.00476324,0.000770772,0.00675385,0.00446479,0.369426,0.00396621,0.0414092,1868,995,54.0024,-2.79446
651,29,54.0459,2.84943,0.00454243,0.0032313,0.000363145,0.00463629,0.00313744,0.252933,0.00273192,0.042073,1875,995,54.0459,-2.84943
658,29,54.113,2.77747,0.00302224,0.00207459,0.000168923,0.00305145,0.00204538,0.171231,0.00179549,0.04429,1882,995,54.113,-2.77745
665,29,54.1405,2.75037,0.00171309,0.00139137,0.000420379,0.00200234,0.00110213,0.602665,0.00115801,0.0415837,1889,995,54.1405,-2.75038
672,29,54.0806,2.80463,0.000485418,0.000976554,0.000957777,0.00171974,-0.000257771,0.910892,0.00124137,0.0375885,1896,995,54.0806,-2.8046
679,29,54.0741,2.85083,-0.000423464,0.000819993,0.00169258,0.00200142,-0.00160489,0.961411,0.0020863,0.0389396,1903,995,54.0741,-2.8508
686,29,54.0272,2.85864,-0.00100738,0.00063274,0.00234039,0.00229259,-0.00266722,0.953911,0.00286627,0.038778,1910,995,54.0272,-2.85861
693,29,54.1216,2.78357,-0.00137827,0.000502801,0.00280479,0.00252055,-0.00339602,0.947173,0.00342837,0.0385617,1917,995,54.1216,-2.78359
700,29,54.0728,2.63403,-0.00164245,0.000437117,0.00298761,0.00256071,-0.00376604,0.952858,0.00367478,0.0349517,1924,995,54.0727,-2.63402
707,29,54.0885,2.70837,-0.00212475,0.000756135,0.00291887,0.00257064,-0.00393925,1.01461,0.00378607,0.0222337,1931,995,54.0885,-2.70839
714,29,53.9767,3.20984,-0.00278878,0.00137633,0.00272219,0.00272122,-0.00413367,1.11192,0.00398558,0.0394625,1938,995,53.9767,-3.20984
721,29,53.5603,5.35944,0,0,0,0,0,0,0,-1,1945,995,53.5602,-5.35944
728,29,53.6792,5.64789,-0.00438771,0.00371352,0.00218575,0.00426562,-0.00493981,1.32338,0.00531951,0.031104,1952,995,53.6792,-5.64791
735,29,53.6726,5.89612,-0.0049837,0.00520091,0.00167759,0.00547012,-0.00525291,1.41168,0.00619137,0.016061,1959,995,53.6726,-5.89612
742,29,53.6353,6.05444,-0.00545283,0.00611693,0.000698371,0.00615893,-0.00549483,1.51073,0.00673194,0.0142038,1966,995,53.6352,-6.05445
749,29,53.5989,6.2561,-0.00540716,0.00828499,-0.000865255,0.00833945,-0.00546162,-1.50794,0.00802559,0.0157363,1973,995,53.5989,-6.25609
756,29,53.5756,6.4624,-0.00505082,0.0114564,-0.00390757,0.0123347,-0.00592909,-1.34971,0.0107586,0.0154238,1980,995,53.5755,-6.4624
763,29,53.5131,6.59045,-0.0037919,0.0126251,-0.00853734,0.0162599,-0.00742678,-1.16828,0.0139889,0.0134743,1987,995,53.513,-6.59046
770,29,53.454,6.68451,-0.00135217,0.0154368,-0.0143049,0.0236284,-0.00954375,-1.05074,0.019719,0.0171231,1994,995,53.454,-6.68452
777,29,53.3555,6.88599,0.00275452,0.0182783,-0.0221885,0.0340234,-0.0129906,-0.953653,0.0280343,0.029162,2001,995,53.3556,-6.88599
784,29,53.2544,7.08136,0.00814809,0.0204835,-0.0319982,0.046903,-0.0182714,-0.880606,0.0388199,0.0469624,2008,995,53.2545,-7.08137
791,29,53.1772,7.2558,0,0,0,0,0,0,0,-1,2015,995,53.1773,-7.25581
798,29,53.083,7.43616,0,0,0,0,0,0,0,-1,2022,995,53.083,-7.43617
805,29,52.4414,3.14838,0.0340296,0.0188457,-0.0785858,0.105389,-0.052514,-0.737244,0.0928536,0.0482697,2029,995,52.4414,-3.14837
812,29,52.4426,2.32715,0.045833,0.0134377,-0.101904,0.132819,-0.0735484,-0.706583,0.120773,0.0473967,2036,995,52.4427,-2.32716
-700,22,0,0,0,0,0,0,0,0,0,-1,524,1002,0,0
-693,22,-38.8025,3.36725,0,0,0,0,0,0,0,-1,531,1002,-38.8025,-3.36725
-686,22,-40.0555,4.04962,0,0,0,0,0,0,0,-1,538,1002,-40.0555,-4.04965
-679,22,-40.8016,4.35248,0,0,0,0,0,0,0,-1,545,1002,-40.8016,-4.35248
-672,22,-41.5477,4.65533,0,0,0,0,0,0,0,-1,552,1002,-41.5477,-4.65531
-665,22,-41.77,5.39276,0,0,0,0,0,0,0,-1,559,1002,-41.77,-5.39279
-658,22,-42.4355,5.97858,0,0,0,0,0,0,0,-1,566,1002,-42.4355,-5.97859
-651,22,-40.3334,3.07678,0,0,0,0,0,0,0,-1,573,1002,-40.3334,-3.07676
-644,22,-40.872,3.4165,-0.023036,0.0417667,0.0162068,0.0455939,-0.0268632,1.3389,0.0422965,0.0403473,580,1002,-40.872,-3.41653
-637,22,-41.222,3.66248,-0.0160723,0.0301896,0.0104459,0.0324389,-0.0183216,1.35871,0.029682,0.0252393,587,1002,-41.222,-3.66246
-630,22,-41.1943,3.69818,-0.010389,0.0187212,0.00527101,0.0196462,-0.011314,1.39707,0.0180894,0.014462,594,1002,-41.1943,-3.6982
-623,22,-41.2202,3.64563,-0.00648058,0.0117045,0.00228348,0.0119868,-0.00676293,1.44777,0.0109643,0.0121642,601,1002,-41.2202,-3.64566
-616,22,-41.2338,3.534,-0.0037689,0.00705699,-0.000108836,0.00705808,-0.00377,-1.56074,0.00634695,0.0178767,608,1002,-41.2338,-3.534
-609,22,-41.2649,3.47034,-0.00247699,0.00441011,-0.00219004,0.00504752,-0.00311441,-1.28757,0.00475614,0.0276745,615,1002,-41.2649,-3.47036
-602,22,-41.3531,3.37921,-0.00161962,0.00248619,-0.00362237,0.00459694,-0.00373037,-1.0432,0.00481644,0.0279052,622,1002,-41.3531,-3.37921
-595,22,-41.4365,3.17651,-0.000941888,0.00105546,-0.00456627,0.00473098,-0.00461741,-0.893056,0.00539743,0.0309176,629,1002,-41.4365,-3.17653
-588,22,-41.3126,2.91138,0,0,0,0,0,0,0,-1,636,1002,-41.3126,-2.91139
-581,22,-40.5449,1.66608,0,0,0,0,0,0,0,-1,643,1002,-40.5449,-1.66607
-574,22,-40.651,0.813843,0.000616281,-0.000961691,-0.00581127,0.00569188,-0.00603729,-0.717927,0.00677281,0.0360869,650,1002,-40.651,-0.813823
-567,22,-40.6359,0.73291,0.000724148,-0.000883787,-0.00557516,0.00555301,-0.00571265,-0.713789,0.00650444,0.0326462,657,1002,-40.6359,-0.732929
-560,22,-40.6636,0.689819,0.000859919,-0.000527803,-0.00496841,0.00518269,-0.00485057,-0.71602,0.00579376,0.036909,664,1002,-40.6636,-0.689811
-553,22,-40.8903,0.680115,0.00105744,-3.91404e-05,-0.0040577,0.00460372,-0.00358542,-0.718243,0.00474017,0.0420455,671,1002,-40.8902,-0.680092
-546,22,-40.8653,0.863831,0.00141687,0.000357656,-0.00290581,0.00384094,-0.00206641,-0.695258,0.00346152,0.0414735,678,1002,-40.8653,-0.863816
-539,22,-40.8203,1.01031,0.00205042,0.000523784,-0.00186271,0.00330014,-0.000725936,-0.590939,0.00247778,0.0396674,685,1002,-40.8202,-1.01032
-532,22,-40.8154,0.890991,0.00341834,0.000791364,-0.00202177,0.00451583,-0.000306125,-0.497326,0.00311761,0.0440363,692,1002,-40.8154,-0.89101
-525,22,0,0,0,0,0,0,0,0,0,-1,699,1002,0,0
-518,22,0,0,0,0,0,0,0,0,0,-1,706,1002,0,0
-511,22,0,0,0,0,0,0,0,0,0,-1,713,1002,0,0
-504,22,0,0,0,0,0,0,0,0,0,-1,720,1002,0,0
-497,22,0,0,0,0,0,0,0,0,0,-1,727,1002,0,0
-490,22,0,0,0,0,0,0,0,0,0,-1,734,1002,0,0
-483,22,0,0,0,0,0,0,0,0,0,-1,741,1002,0,0
-476,22,0,0,0,0,0,0,0,0,0,-1,748,1002,0,0
-469,22,0,0,0,0,0,0,0,0,0,-1,755,1002,0,0
-462,22,0,0,0,0,0,0,0,0,0,-1,762,1002,0,0
-455,22,0,0,0,0,0,0,0,0,0,-1,769,1002,0,0
-448,22,0,0,0,0,0,0,0,0,0,-1,776,1002,0,0
-441,22,0,0,0,0,0,0,0,0,0,-1,783,1002,0,0
-434,22,0,0,0,0,0,0,0,0,0,-1,790,1002,0,0
-427,22,0,0,0,0,0,0,0,0,0,-1,797,1002,0,0
-420,22,0,0,0,0,0,0,0,0,0,-1,804,1002,0,0
-413,22,0,0,0,0,0,0,0,0,0,-1,811,1002,0,0
-406,22,0,0,0,0,0,0,0,0,0,-1,818,1002,0,0
-399,22,0,0,0,0,0,0,0,0,0,-1,825,1002,0,0
-392,22,0,0,0,0,0,0,0,0,0,-1,832,1002,0,0
-385,22,0,0,0,0,0,0,0,0,0,-1,839,1002,0,0
-378,22,0,0,0,0,0,0,0,0,0,-1,846,1002,0,0
-371,22,0,0,0,0,0,0,0,0,0,-1,853,1002,0,0
-364,22,0,0,0,0,0,0,0,0,0,-1,860,1002,0,0
-357,22,0,0,0,0,0,0,0,0,0,-1,867,1002,0,0
-350,22,0,0,0,0,0,0,0,0,0,-1,874,1002,0,0
-343,22,0,0,0,0,0,0,0,0,0,-1,881,1002,0,0
-336,22,0,0,0,0,0,0,0,0,0,-1,888,1002,0,0
-329,22,0,0,0,0,0,0,0,0,0,-1,895,1002,0,0
-322,22,0,0,0,0,0,0,0,0,0,-1,902,1002,0,0
-315,22,0,0,0,0,0,0,0,0,0,-1,909,1002,0,0
-308,22,0,0,0,0,0,0,0,0,0,-1,916,1002,0,0
-301,22,0,0,0,0,0,0,0,0,0,-1,923,1002,0,0
-294,22,0,0,0,0,0,0,0,0,0,-1,930,1002,0,0
-287,22,0,0,0,0,0,0,0,0,0,-1,937,1002,0,0
-280,22,0,0,0,0,0,0,0,0,0,-1,944,1002,0,0
-273,22,0,0,0,0,0,0,0,0,0,-1,951,1002,0,0
-266,22,0,0,0,0,0,0,0,0,0,-1,958,1002,0,0
-259,22,0,0,0,0,0,0,0,0,0,-1,965,1002,0,0
-252,22,0,0,0,0,0,0,0,0,0,-1,972,1002,0,0
-245,22,0,0,0,0,0,0,0,0,0,-1,979,1002,0,0
-238,22,0,0,0,0,0,0,0,0,0,-1,986,1002,0,0
-231,22,0,0,0,0,0,0,0,0,0,-1,993,1002,0,0
-224,22,0,0,0,0,0,0,0,0,0,-1,1000,1002,0,0
-217,22,0,0,0,0,0,0,0,0,0,-1,1007,1002,0,0
-210,22,0,0,0,0,0,0,0,0,0,-1,1014,1002,0,0
-203,22,0,0,0,0,0,0,0,0,0,-1,1021,1002,0,0
-196,22,0,0,0,0,0,0,0,0,0,-1,1028,1002,0,0
-189,22,0,0,0,0,0,0,0,0,0,-1,1035,1002,0,0
-182,22,0,0,0,0,0,0,0,0,0,-1,1042,1002,0,0
-175,22,0,0,0,0,0,0,0,0,0,-1,1049,1002,0,0
-168,22,0,0,0,0,0,0,0,0,0,-1,1056,1002,0,0
-161,22,0,0,0,0,0,0,0,0,0,-1,1063,1002,0,0
-154,22,0,0,0,0,0,0,0,0,0,-1,1070,1002,0,0
-147,22,0,0,0,0,0,0,0,0,0,-1,1077,1002,0,0
-140,22,0,0,0,0,0,0,0,0,0,-1,1084,1002,0,0
-133,22,0,0,0,0,0,0,0,0,0,-1,1091,1002,0,0
-126,22,0,0,0,0,0,0,0,0,0,-1,1098,1002,0,0
-119,22,0,0,0,0,0,0,0,0,0,-1,1105,1002,0,0
-112,22,0,0,0,0,0,0,0,0,0,-1,1112,1002,0,0
-105,22,0,0,0,0,0,0,0,0,0,-1,1119,1002,0,0
-98,22,0,0,0,0,0,0,0,0,0,-1,1126,1002,0,0
-91,22,0,0,0,0,0,0,0,0,0,-1,1133,1002,0,0
-84,22,0,0,0,0,0,0,0,0,0,-1,1140,1002,0,0
-77,22,0,0,0,0,0,0,0,0,0,-1,1147,1002,0,0
-70,22,0,0,0,0,0,0,0,0,0,-1,1154,1002,0,0
-63,22,0,0,0,0,0,0,0,0,0,-1,1161,1002,0,0
-56,22,0,0,0,0,0,0,0,0,0,-1,1168,1002,0,0
-49,22,0,0,0,0,0,0,0,0,0,-1,1175,1002,0,0
-42,22,0,0,0,0,0,0,0,0,0,-1,1182,1002,0,0
-35,22,0,0,0,0,0,0,0,0,0,-1,1189,1002,0,0
-28,22,0,0,0,0,0,0,0,0,0,-1,1196,1002,0,0
-21,22,0,0,0,0,0,0,0,0,0,-1,1203,1002,0,0
-14,22,0,0,0,0,0,0,0,0,0,-1,1210,1002,0,0
-7,22,0,0,0,0,0,0,0,0,0,-1,1217,1002,0,0
0,22,0,0,0,0,0,0,0,0,0,-1,1224,1002,0,0
7,22,0,0,0,0,0,0,0,0,0,-1,1231,1002,0,0
14,22,0,0,0,0,0,0,0,0,0,-1,1238,1002,0,0
21,22,0,0,0,0,0,0,0,0,0,-1,1245,1002,0,0
28,22,0,0,0,0,0,0,0,0,0,-1,1252,1002,0,0
35,22,0,0,0,0,0,0,0,0,0,-1,1259,1002,0,0
42,22,0,0,0,0,0,0,0,0,0,-1,1266,1002,0,0
49,22,0,0,0,0,0,0,0,0,0,-1,1273,1002,0,0
56,22,0,0,0,0,0,0,0,0,0,-1,1280,1002,0,0
63,22,0,0,0,0,0,0,0,0,0,-1,1287,1002,0,0
70,22,0,0,0,0,0,0,0,0,0,-1,1294,1002,0,0
77,22,0,0,0,0,0,0,0,0,0,-1,1301,1002,0,0
84,22,0,0,0,0,0,0,0,0,0,-1,1308,1002,0,0
91,22,0,0,0,0,0,0,0,0,0,-1,1315,1002,0,0
98,22,0,0,0,0,0,0,0,0,0,-1,1322,1002,0,0
105,22,0,0,0,0,0,0,0,0,0,-1,1329,1002,0,0
112,22,0,0,0,0,0,0,0,0,0,-1,1336,1002,0,0
119,22,0,0,0,0,0,0,0,0,0,-1,1343,1002,0,0
126,22,0,0,0,0,0,0,0,0,0,-1,1350,1002,0,0
133,22,0,0,0,0,0,0,0,0,0,-1,1357,1002,0,0
140,22,0,0,0,0,0,0,0,0,0,-1,1364,1002,0,0
147,22,0,0,0,0,0,0,0,0,0,-1,1371,1002,0,0
154,22,0,0,0,0,0,0,0,0,0,-1,1378,1002,0,0
161,22,0,0,0,0,0,0,0,0,0,-1,1385,1002,0,0
168,22,0,0,0,0,0,0,0,0,0,-1,1392,1002,0,0
175,22,0,0,0,0,0,0,0,0,0,-1,1399,1002,0,0
182,22,0,0,0,0,0,0,0,0,0,-1,1406,1002,0,0
189,22,0,0,0,0,0,0,0,0,0,-1,1413,1002,0,0
196,22,0,0,0,0,0,0,0,0,0,-1,1420,1002,0,0
203,22,0,0,0,0,0,0,0,0,0,-1,1427,1002,0,0
210,22,0,0,0,0,0,0,0,0,0,-1,1434,1002,0,0
217,22,0,0,0,0,0,0,0,0,0,-1,1441,1002,0,0
224,22,0,0,0,0,0,0,0,0,0,-1,1448,1002,0,0
231,22,0,0,0,0,0,0,0,0,0,-1,1455,1002,0,0
238,22,0,0,0,0,0,0,0,0,0,-1,1462,1002,0,0
245,22,0,0,0,0,0,0,0,0,0,-1,1469,1002,0,0
252,22,0,0,0,0,0,0,0,0,0,-1,1476,1002,0,0
259,22,0,0,0,0,0,0,0,0,0,-1,1483,1002,0,0
266,22,0,0,0,0,0,0,0,0,0,-1,1490,1002,0,0
273,22,0,0,0,0,0,0,0,0,0,-1,1497,1002,0,0
280,22,0,0,0,0,0,0,0,0,0,-1,1504,1002,0,0
287,22,0,0,0,0,0,0,0,0,0,-1,1511,1002,0,0
294,22,0,0,0,0,0,0,0,0,0,-1,1518,1002,0,0
301,22,0,0,0,0,0,0,0,0,0,-1,1525,1002,0,0
308,22,0,0,0,0,0,0,0,0,0,-1,1532,1002,0,0
315,22,0,0,0,0,0,0,0,0,0,-1,1539,1002,0,0
322,22,0,0,0,0,0,0,0,0,0,-1,1546,1002,0,0
329,22,0,0,0,0,0,0,0,0,0,-1,1553,1002,0,0
336,22,0,0,0,0,0,0,0,0,0,-1,1560,1002,0,0
343,22,0,0,0,0,0,0,0,0,0,-1,1567,1002,0,0
350,22,0,0,0,0,0,0,0,0,0,-1,1574,1002,0,0
357,22,0,0,0,0,0,0,0,0,0,-1,1581,1002,0,0
364,22,0,0,0,0,0,0,0,0,0,-1,1588,1002,0,0
371,22,0,0,0,0,0,0,0,0,0,-1,1595,1002,0,0
378,22,0,0,0,0,0,0,0,0,0,-1,1602,1002,0,0
385,22,0,0,0,0,0,0,0,0,0,-1,1609,1002,0,0
392,22,0,0,0,0,0,0,0,0,0,-1,1616,1002,0,0
399,22,0,0,0,0,0,0,0,0,0,-1,1623,1002,0,0
406,22,0,0,0,0,0,0,0,0,0,-1,1630,1002,0,0
413,22,0,0,0,0,0,0,0,0,0,-1,1637,1002,0,0
420,22,0,0,0,0,0,0,0,0,0,-1,1644,1002,0,0
427,22,0,0,0,0,0,0,0,0,0,-1,1651,1002,0,0
434,22,0,0,0,0,0,0,0,0,0,-1,1658,1002,0,0
441,22,0,0,0,0,0,0,0,0,0,-1,1665,1002,0,0
448,22,0,0,0,0,0,0,0,0,0,-1,1672,1002,0,0
455,22,0,0,0,0,0,0,0,0,0,-1,1679,1002,0,0
462,22,0,0,0,0,0,0,0,0,0,-1,1686,1002,0,0
469,22,0,0,0,0,0,0,0,0,0,-1,1693,1002,0,0
476,22,0,0,0,0,0,0,0,0,0,-1,1700,1002,0,0
483,22,0,0,0,0,0,0,0,0,0,-1,1707,1002,0,0
490,22,0,0,0,0,0,0,0,0,0,-1,1714,1002,0,0
497,22,0,0,0,0,0,0,0,0,0,-1,1721,1002,0,0
504,22,0,0,0,0,0,0,0,0,0,-1,1728,1002,0,0
511,22,0,0,0,0,0,0,0,0,0,-1,1735,1002,0,0
518,22,0,0,0,0,0,0,0,0,0,-1,1742,1002,0,0
525,22,0,0,0,0,0,0,0,0,0,-1,1749,1002,0,0
532,22,0,0,0,0,0,0,0,0,0,-1,1756,1002,0,0
539,22,0,0,0,0,0,0,0,0,0,-1,1763,1002,0,0
546,22,0,0,0,0,0,0,0,0,0,-1,1770,1002,0,0
553,22,0,0,0,0,0,0,0,0,0,-1,1777,1002,0,0
560,22,0,0,0,0,0,0,0,0,0,-1,1784,1002,0,0
567,22,0,0,0,0,0,0,0,0,0,-1,1791,1002,0,0
574,22,0,0,0,0,0,0,0,0,0,-1,1798,1002,0,0
581,22,0,0,0,0,0,0,0,0,0,-1,1805,1002,0,0
588,22,0,0,0,0,0,0,0,0,0,-1,1812,1002,0,0
595,22,0,0,0,0,0,0,0,0,0,-1,1819,1002,0,0
602,22,0,0,0,0,0,0,0,0,0,-1,1826,1002,0,0
609,22,0,0,0,0,0,0,0,0,0,-1,1833,1002,0,0
616,22,0,0,0,0,0,0,0,0,0,-1,1840,1002,0,0
623,22,0,0,0,0,0,0,0,0,0,-1,1847,1002,0,0
630,22,0,0,0,0,0,0,0,0,0,-1,1854,1002,0,0
637,22,0,0,0,0,0,0,0,0,0,-1,1861,1002,0,0
644,22,53.9567,2.6651,0.00740809,0.00511743,0.00129758,0.0079935,0.00453201,0.42382,0.00462883,0.0378611,1868,1002,53.9567,-2.66511
651,22,53.9803,2.65118,0.00517925,0.00343724,0.000873422,0.00554175,0.00307475,0.393392,0.00320594,0.0407337,1875,1002,53.9804,-2.65118
658,22,53.949,2.63342,0.00344713,0.0021819,0.00057152,0.00366706,0.00196197,0.367353,0.00211891,0.0458705,1882,1002,53.9489,-2.6334
665,22,53.9891,2.65717,0.00201919,0.00144119,0.000697113,0.00248483,0.000975547,0.588899,0.00144561,0.0434819,1889,1002,53.9892,-2.65714
672,22,54.0187,2.68353,0.000729767,0.0010142,0.00113168,0.00201256,-0.000268593,0.847905,0.00143961,0.0397122,1896,1002,54.0186,-2.68353
679,22,54.1255,2.81702,-0.000245907,0.00087564,0.00178803,0.00218877,-0.00155904,0.937353,0.00217396,0.0394387,1903,1002,54.1255,-2.81703
686,22,54.1819,2.92206,-0.000939472,0.000713449,0.00241445,0.00243897,-0.00266499,0.950296,0.00294774,0.0390111,1910,1002,54.1819,-2.92203
693,22,54.1243,2.74268,-0.0013995,0.000592189,0.00290776,0.00266991,-0.00347721,0.950377,0.00355923,0.037208,1917,1002,54.1243,-2.74265
700,22,54.0806,2.70496,-0.00169115,0.000519541,0.00315231,0.00275468,-0.00392628,0.954023,0.00387697,0.0348749,1924,1002,54.0806,-2.70497
707,22,54.0579,2.76398,-0.00220049,0.000847852,0.00313855,0.00281275,-0.00416539,1.01144,0.00405398,0.0276266,1931,1002,54.0579,-2.76395
714,22,54.0117,2.90863,-0.00289067,0.00147888,0.00297895,0.00298834,-0.00440014,1.1018,0.00429162,0.0362139,1938,1002,54.0117,-2.90862
721,22,53.733,4.59644,0,0,0,0,0,0,0,-1,1945,1002,53.733,-4.59641
728,22,53.7664,5.41248,-0.00464965,0.0037892,0.00243361,0.00444071,-0.00530116,1.30922,0.00563178,0.0477151,1952,1002,53.7664,-5.41248
735,22,53.8395,5.99316,-0.00531548,0.00517937,0.00195489,0.00553169,-0.0056678,1.39249,0.00646618,0.0162428,1959,1002,53.8395,-5.99317
742,22,53.8447,6.112,-0.00568948,0.00591397,0.000952694,0.00599167,-0.00576718,1.48942,0.00678939,0.0175848,1966,1002,53.8448,-6.112
749,22,53.7688,6.26666,-0.0055331,0.00788459,-0.000712894,0.00792236,-0.00557087,-1.51786,0.00782965,0.01401,1973,1002,53.7687,-6.26665
756,22,53.7601,6.38177,-0.0051526,0.0105235,-0.00371357,0.0113587,-0.00598782,-1.34957,0.0101738,0.0198691,1980,1002,53.7601,-6.38176
763,22,53.7056,6.53052,-0.00397732,0.0111708,-0.00811426,0.0146966,-0.00750315,-1.16089,0.0130394,0.0206221,1987,1002,53.7056,-6.53051
770,22,53.566,6.59686,-0.00163504,0.0131212,-0.0137452,0.0213433,-0.00985716,-1.03172,0.018416,0.0194055,1994,1002,53.5661,-6.59683
777,22,53.2866,6.61243,0.00241433,0.0148447,-0.0215424,0.0310506,-0.0137915,-0.925839,0.0265211,0.0396509,2001,1002,53.2867,-6.61241
784,22,53.021,6.66254,0,0,0,0,0,0,0,-1,2008,1002,53.021,-6.66256
791,22,53.0637,6.84979,0,0,0,0,0,0,0,-1,2015,1002,53.0637,-6.84979
798,22,52.8127,5.21808,0,0,0,0,0,0,0,-1,2022,1002,52.8129,-5.21806
805,22,52.9055,4.27399,0,0,0,0,0,0,0,-1,2029,1002,52.9054,-4.27399
812,22,52.6453,2.59845,0,0,0,0,0,0,0,-1,2036,1002,52.6452,-2.59844
-700,15,0,0,0,0,0,0,0,0,0,-1,524,1009,0,0
-693,15,-38.8389,2.63934,0,0,0,0,0,0,0,-1,531,1009,-38.8389,-2.63932
-686,15,-39.5679,3.1568,0,0,0,0,0,0,0,-1,538,1009,-39.5679,-3.15682
-679,15,-40.3019,3.45593,-0.06235,0.112735,0.0497088,0.125864,-0.0754785,1.31258,0.117452,0.0468387,545,1009,-40.3019,-3.45592
-672,15,-41.1246,3.83899,-0.0530453,0.0966125,0.0417093,0.107452,-0.0638845,1.31654,0.0999814,0.0461679,552,1009,-41.1246,-3.83899
-665,15,-41.8322,4.48401,0,0,0,0,0,0,0,-1,559,1009,-41.8322,-4.48404
-658,15,-42.5535,5.04181,0,0,0,0,0,0,0,-1,566,1009,-42.5535,-5.04181
-651,15,-39.9013,2.47266,0,0,0,0,0,0,0,-1,573,1009,-39.9013,-2.47268
-644,15,-41.2303,3.59656,0,0,0,0,0,0,0,-1,580,1009,-41.2303,-3.59657
-637,15,-41.1946,3.60931,-0.0153526,0.0295287,0.010498,0.0318628,-0.0176868,1.35201,0.0289951,0.0280541,587,1009,-41.1947,-3.60931
-630,15,-41.2242,3.60114,-0.0103257,0.018374,0.00528211,0.0193153,-0.011267,1.39444,0.0178593,0.0146143,594,1009,-41.2242,-3.60113
-623,15,-41.2887,3.57471,-0.00657063,0.0112781,0.00216469,0.0115368,-0.00682941,1.45181,0.0107192,0.00976801,601,1009,-41.2887,-3.57473
-616,15,-41.3192,3.53491,-0.00382352,0.0066182,-0.000195633,0.00662187,-0.00382718,-1.55207,0.00610426,0.0152207,608,1009,-41.3192,-3.53488
-609,15,-41.3147,3.49976,-0.0024816,0.00403924,-0.00214851,0.00468349,-0.00312585,-1.27947,0.00453852,0.023691,615,1009,-41.3147,-3.49974
-602,15,-41.3887,3.43073,-0.00164108,0.00212976,-0.00337931,0.00411404,-0.00362536,-1.03985,0.00447131,0.0238644,622,1009,-41.3888,-3.4307
-595,15,-41.5834,3.10193,0,0,0,0,0,0,0,-1,629,1009,-41.5834,-3.10191
-588,15,-40.5888,0.902954,0,0,0,0,0,0,0,-1,636,1009,-40.5888,-0.902928
-581,15,-40.6284,0.888794,0.000251299,-0.000860963,-0.00506825,0.00479383,-0.0054035,-0.730753,0.00589094,0.0407149,643,1009,-40.6284,-0.888811
-574,15,-40.6392,0.8703,0.000584913,-0.00119652,-0.00516949,0.00493986,-0.00555147,-0.700085,0.0060606,0.0337321,650,1009,-40.6392,-0.870322
-567,15,-40.6149,0.848999,0.000660296,-0.00109499,-0.00492672,0.00478693,-0.00522162,-0.697253,0.00578026,0.0337609,657,1009,-40.615,-0.849
-560,15,-40.6066,1.07123,0.000735865,-0.000683283,-0.00436151,0.00444514,-0.00439256,-0.70476,0.00510248,0.0384907,664,1009,-40.6066,-1.07123
-553,15,-40.7305,0.965271,0.00082028,-0.00012284,-0.00353429,0.00391433,-0.00321689,-0.719078,0.00412377,0.040532,671,1009,-40.7305,-0.965293
-546,15,-40.6695,0.897278,0.00102148,0.000328926,-0.00250133,0.00320039,-0.00184998,-0.716617,0.00295038,0.0404136,678,1009,-40.6695,-0.897277
-539,15,-40.662,1.0282,0.00144334,0.000539837,-0.00160372,0.00265772,-0.000674547,-0.648111,0.00203429,0.0407142,685,1009,-40.662,-1.0282
-532,15,-40.7525,0.805969,0.00255315,0.00082216,-0.00183054,0.00371249,-0.000337178,-0.564569,0.0025947,0.043055,692,1009,-40.7525,-0.805996
-525,15,0,0,0,0,0,0,0,0,0,-1,699,1009,0,0
-518,15,0,0,0,0,0,0,0,0,0,-1,706,1009,0,0
-511,15,0,0,0,0,0,0,0,0,0,-1,713,1009,0,0
-504,15,0,0,0,0,0,0,0,0,0,-1,720,1009,0,0
-497,15,0,0,0,0,0,0,0,0,0,-1,727,1009,0,0
-490,15,0,0,0,0,0,0,0,0,0,-1,734,1009,0,0
-483,15,0,0,0,0,0,0,0,0,0,-1,741,1009,0,0
-476,15,0,0,0,0,0,0,0,0,0,-1,748,1009,0,0
-469,15,0,0,0,0,0,0,0,0,0,-1,755,1009,0,0
-462,15,0,0,0,0,0,0,0,0,0,-1,762,1009,0,0
-455,15,0,0,0,0,0,0,0,0,0,-1,769,1009,0,0
-448,15,0,0,0,0,0,0,0,0,0,-1,776,1009,0,0
-441,15,0,0,0,0,0,0,0,0,0,-1,783,1009,0,0
-434,15,0,0,0,0,0,0,0,0,0,-1,790,1009,0,0
-427,15,0,0,0,0,0,0,0,0,0,-1,797,1009,0,0
-420,15,0,0,0,0,0,0,0,0,0,-1,804,1009,0,0
-413,15,0,0,0,0,0,0,0,0,0,-1,811,1009,0,0
-406,15,0,0,0,0,0,0,0,0,0,-1,818,1009,0,0
-399,15,0,0,0,0,0,0,0,0,0,-1,825,1009,0,0
-392,15,0,0,0,0,0,0,0,0,0,-1,832,1009,0,0
-385,15,0,0,0,0,0,0,0,0,0,-1,839,1009,0,0
-378,15,0,0,0,0,0,0,0,0,0,-1,846,1009,0,0
-371,15,0,0,0,0,0,0,0,0,0,-1,853,1009,0,0
-364,15,0,0,0,0,0,0,0,0,0,-1,860,1009,0,0
-357,15,0,0,0,0,0,0,0,0,0,-1,867,1009,0,0
-350,15,0,0,0,0,0,0,0,0,0,-1,874,1009,0,0
-343,15,0,0,0,0,0,0,0,0,0,-1,881,1009,0,0
-336,15,0,0,0,0,0,0,0,0,0,-1,888,1009,0,0
-329,15,0,0,0,0,0,0,0,0,0,-1,895,1009,0,0
-322,15,0,0,0,0,0,0,0,0,0,-1,902,1009,0,0
-315,15,0,0,0,0,0,0,0,0,0,-1,909,1009,0,0
-308,15,0,0,0,0,0,0,0,0,0,-1,916,1009,0,0
-301,15,0,0,0,0,0,0,0,0,0,-1,923,1009,0,0
-294,15,0,0,0,0,0,0,0,0,0,-1,930,1009,0,0
-287,15,0,0,0,0,0,0,0,0,0,-1,937,1009,0,0
-280,15,0,0,0,0,0,0,0,0,0,-1,944,1009,0,0
-273,15,0,0,0,0,0,0,0,0,0,-1,951,1009,0,0
-266,15,0,0,0,0,0,0,0,0,0,-1,958,1009,0,0
-259,15,0,0,0,0,0,0,0,0,0,-1,965,1009,0,0
-252,15,0,0,0,0,0,0,0,0,0,-1,972,1009,0,0
-245,15,0,0,0,0,0,0,0,0,0,-1,979,1009,0,0
-238,15,0,0,0,0,0,0,0,0,0,-1,986,1009,0,0
-231,15,0,0,0,0,0,0,0,0,0,-1,993,1009,0,0
-224,15,0,0,0,0,0,0,0,0,0,-1,1000,1009,0,0
-217,15,0,0,0,0,0,0,0,0,0,-1,1007,1009,0,0
-210,15,0,0,0,0,0,0,0,0,0,-1,1014,1009,0,0
-203,15,0,0,0,0,0,0,0,0,0,-1,1021,1009,0,0
-196,15,0,0,0,0,0,0,0,0,0,-1,1028,1009,0,0
-189,15,0,0,0,0,0,0,0,0,0,-1,1035,1009,0,0
-182,15,0,0,0,0,0,0,0,0,0,-1,1042,1009,0,0
-175,15,0,0,0,0,0,0,0,0,0,-1,1049,1009,0,0
-168,15,0,0,0,0,0,0,0,0,0,-1,1056,1009,0,0
-161,15,0,0,0,0,0,0,0,0,0,-1,1063,1009,0,0
-154,15,0,0,0,0,0,0,0,0,0,-1,1070,1009,0,0
-147,15,0,0,0,0,0,0,0,0,0,-1,1077,1009,0,0
-140,15,0,0,0,0,0,0,0,0,0,-1,1084,1009,0,0
-133,15,0,0,0,0,0,0,0,0,0,-1,1091,1009,0,0
-126,15,0,0,0,0,0,0,0,0,0,-1,1098,1009,0,0
-119,15,0,0,0,0,0,0,0,0,0,-1,1105,1009,0,0
-112,15,0,0,0,0,0,0,0,0,0,-1,1112,1009,0,0
-105,15,0,0,0,0,0,0,0,0,0,-1,1119,1009,0,0
-98,15,0,0,0,0,0,0,0,0,0,-1,1126,1009,0,0
-91,15,0,0,0,0,0,0,0,0,0,-1,1133,1009,0,0
-84,15,0,0,0,0,0,0,0,0,0,-1,1140,1009,0,0
-77,15,0,0,0,0,0,0,0,0,0,-1,1147,1009,0,0
-70,15,0,0,0,0,0,0,0,0,0,-1,1154,1009,0,0
-63,15,0,0,0,0,0,0,0,0,0,-1,1161,1009,0,0
-56,15,0,0,0,0,0,0,0,0,0,-1,1168,1009,0,0
-49,15,0,0,0,0,0,0,0,0,0,-1,1175,1009,0,0
-42,15,0,0,0,0,0,0,0,0,0,-1,1182,1009,0,0
-35,15,0,0,0,0,0,0,0,0,0,-1,1189,1009,0,0
-28,15,0,0,0,0,0,0,0,0,0,-1,1196,1009,0,0
-21,15,0,0,0,0,0,0,0,0,0,-1,1203,1009,0,0
-14,15,0,0,0,0,0,0,0,0,0,-1,1210,1009,0,0
-7,15,0,0,0,0,0,0,0,0,0,-1,1217,1009,0,0
0,15,0,0,0,0,0,0,0,0,0,-1,1224,1009,0,0
7,15,0,0,0,0,0,0,0,0,0,-1,1231,1009,0,0
14,15,0,0,0,0,0,0,0,0,0,-1,1238,1009,0,0
21,15,0,0,0,0,0,0,0,0,0,-1,1245,1009,0,0
28,15,0,0,0,0,0,0,0,0,0,-1,1252,1009,0,0
35,15,0,0,0,0,0,0,0,0,0,-1,1259,1009,0,0
42,15,0,0,0,0,0,0,0,0,0,-1,1266,1009,0,0
49,15,0,0,0,0,0,0,0,0,0,-1,1273,1009,0,0
56,15,0,0,0,0,0,0,0,0,0,-1,1280,1009,0,0
63,15,0,0,0,0,0,0,0,0,0,-1,1287,1009,0,0
70,15,0,0,0,0,0,0,0,0,0,-1,1294,1009,0,0
77,15,0,0,0,0,0,0,0,0,0,-1,1301,1009,0,0
84,15,0,0,0,0,0,0,0,0,0,-1,1308,1009,0,0
91,15,0,0,0,0,0,0,0,0,0,-1,1315,1009,0,0
98,15,0,0,0,0,0,0,0,0,0,-1,1322,1009,0,0
105,15,0,0,0,0,0,0,0,0,0,-1,1329,1009,0,0
112,15,0,0,0,0,0,0,0,0,0,-1,1336,1009,0,0
119,15,0,0,0,0,0,0,0,0,0,-1,1343,1009,0,0
126,15,0,0,0,0,0,0,0,0,0,-1,1350,1009,0,0
133,15,0,0,0,0,0,0,0,0,0,-1,1357,1009,0,0
140,15,0,0,0,0,0,0,0,0,0,-1,1364,1009,0,0
147,15,0,0,0,0,0,0,0,0,0,-1,1371,1009,0,0
154,15,0,0,0,0,0,0,0,0,0,-1,1378,1009,0,0
161,15,0,0,0,0,0,0,0,0,0,-1,1385,1009,0,0
168,15,0,0,0,0,0,0,0,0,0,-1,1392,1009,0,0
175,15,0,0,0,0,0,0,0,0,0,-1,1399,1009,0,0
182,15,0,0,0,0,0,0,0,0,0,-1,1406,1009,0,0
189,15,0,0,0,0,0,0,0,0,0,-1,1413,1009,0,0
196,15,0,0,0,0,0,0,0,0,0,-1,1420,1009,0,0
203,15,0,0,0,0,0,0,0,0,0,-1,1427,1009,0,0
210,15,0,0,0,0,0,0,0,0,0,-1,1434,1009,0,0
217,15,0,0,0,0,0,0,0,0,0,-1,1441,1009,0,0
224,15,0,0,0,0,0,0,0,0,0,-1,1448,1009,0,0
231,15,0,0,0,0,0,0,0,0,0,-1,1455,1009,0,0
238,15,0,0,0,0,0,0,0,0,0,-1,1462,1009,0,0
245,15,0,0,0,0,0,0,0,0,0,-1,1469,1009,0,0
252,15,0,0,0,0,0,0,0,0,0,-1,1476,1009,0,0
259,15,0,0,0,0,0,0,0,0,0,-1,1483,1009,0,0
266,15,0,0,0,0,0,0,0,0,0,-1,1490,1009,0,0
273,15,0,0,0,0,0,0,0,0,0,-1,1497,1009,0,0
280,15,0,0,0,0,0,0,0,0,0,-1,1504,1009,0,0
287,15,0,0,0,0,0,0,0,0,0,-1,1511,1009,0,0
294,15,0,0,0,0,0,0,0,0,0,-1,1518,1009,0,0
301,15,0,0,0,0,0,0,0,0,0,-1,1525,1009,0,0
308,15,0,0,0,0,0,0,0,0,0,-1,1532,1009,0,0
315,15,0,0,0,0,0,0,0,0,0,-1,1539,1009,0,0
322,15,0,0,0,0,0,0,0,0,0,-1,1546,1009,0,0
329,15,0,0,0,0,0,0,0,0,0,-1,1553,1009,0,0
336,15,0,0,0,0,0,0,0,0,0,-1,1560,1009,0,0
343,15,0,0,0,0,0,0,0,0,0,-1,1567,1009,0,0
350,15,0,0,0,0,0,0,0,0,0,-1,1574,1009,0,0
357,15,0,0,0,0,0,0,0,0,0,-1,1581,1009,0,0
364,15,0,0,0,0,0,0,0,0,0,-1,1588,1009,0,0
371,15,0,0,0,0,0,0,0,0,0,-1,1595,1009,0,0
378,15,0,0,0,0,0,0,0,0,0,-1,1602,1009,0,0
385,15,0,0,0,0,0,0,0,0,0,-1,1609,1009,0,0
392,15,0,0,0,0,0,0,0,0,0,-1,1616,1009,0,0
399,15,0,0,0,0,0,0,0,0,0,-1,1623,1009,0,0
406,15,0,0,0,0,0,0,0,0,0,-1,1630,1009,0,0
413,15,0,0,0,0,0,0,0,0,0,-1,1637,1009,0,0
420,15,0,0,0,0,0,0,0,0,0,-1,1644,1009,0,0
427,15,0,0,0,0,0,0,0,0,0,-1,1651,1009,0,0
434,15,0,0,0,0,0,0,0,0,0,-1,1658,1009,0,0
441,15,0,0,0,0,0,0,0,0,0,-1,1665,1009,0,0
448,15,0,0,0,0,0,0,0,0,0,-1,1672,1009,0,0
455,15,0,0,0,0,0,0,0,0,0,-1,1679,1009,0,0
462,15,0,0,0,0,0,0,0,0,0,-1,1686,1009,0,0
469,15,0,0,0,0,0,0,0,0,0,-1,1693,1009,0,0
476,15,0,0,0,0,0,0,0,0,0,-1,1700,1009,0,0
483,15,0,0,0,0,0,0,0,0,0,-1,1707,1009,0,0
490,15,0,0,0,0,0,0,0,0,0,-1,1714,1009,0,0
497,15,0,0,0,0,0,0,0,0,0,-1,1721,1009,0,0
504,15,0,0,0,0,0,0,0,0,0,-1,1728,1009,0,0
511,15,0,0,0,0,0,0,0,0,0,-1,1735,1009,0,0
518,15,0,0,0,0,0,0,0,0,0,-1,1742,1009,0,0
525,15,0,0,0,0,0,0,0,0,0,-1,1749,1009,0,0
532,15,0,0,0,0,0,0,0,0,0,-1,1756,1009,0,0
539,15,0,0,0,0,0,0,0,0,0,-1,1763,1009,0,0
546,15,0,0,0,0,0,0,0,0,0,-1,1770,1009,0,0
553,15,0,0,0,0,0,0,0,0,0,-1,1777,1009,0,0
560,15,0,0,0,0,0,0,0,0,0,-1,1784,1009,0,0
567,15,0,0,0,0,0,0,0,0,0,-1,1791,1009,0,0
574,15,0,0,0,0,0,0,0,0,0,-1,1798,1009,0,0
581,15,0,0,0,0,0,0,0,0,0,-1,1805,1009,0,0
588,15,0,0,0,0,0,0,0,0,0,-1,1812,1009,0,0
595,15,0,0,0,0,0,0,0,0,0,-1,1819,1009,0,0
602,15,0,0,0,0,0,0,0,0,0,-1,1826,1009,0,0
609,15,0,0,0,0,0,0,0,0,0,-1,1833,1009,0,0
616,15,0,0,0,0,0,0,0,0,0,-1,1840,1009,0,0
623,15,0,0,0,0,0,0,0,0,0,-1,1847,1009,0,0
630,15,0,0,0,0,0,0,0,0,0,-1,1854,1009,0,0
637,15,0,0,0,0,0,0,0,0,0,-1,1861,1009,0,0
644,15,53.9622,2.49066,0.00774711,0.00528135,0.00164007,0.00856601,0.00446245,0.463096,0.00494704,0.0387846,1868,1009,53.9622,-2.49069
651,15,53.976,2.4809,0.00537575,0.00358477,0.00122616,0.0059986,0.00296191,0.470006,0.00346338,0.0375754,1875,1009,53.976,-2.48092
658,15,54.1249,2.65222,0.00356092,0.00232614,0.000853608,0.00399701,0.00189006,0.472312,0.00230881,0.0403662,1882,1009,54.1249,-2.6522
665,15,54.1672,2.63025,0.00210176,0.00157627,0.000880739,0.00275811,0.000919918,0.640439,0.00162155,0.0419756,1889,1009,54.1672,-2.63028
672,15,53.9761,2.71625,0.000831811,0.00116442,0.00124451,0.00225369,-0.000257453,0.851821,0.00159522,0.0415066,1896,1009,53.9761,-2.71624
679,15,54.1107,2.71649,-0.000139451,0.00103807,0.00184806,0.00238889,-0.00149027,0.939607,0.00225958,0.0398945,1903,1009,54.1108,-2.7165
686,15,54.218,2.74316,-0.000879605,0.000888225,0.00246382,0.00262189,-0.00261327,0.957626,0.00302252,0.0434427,1910,1009,54.218,-2.74313
693,15,54.0417,2.70599,-0.00138116,0.000766609,0.00299743,0.00287672,-0.00349127,0.957409,0.00368227,0.0417738,1917,1009,54.0418,-2.706
700,15,54.0936,2.72821,-0.00167146,0.000672684,0.00331455,0.00301629,-0.00401506,0.955344,0.00407318,0.0335402,1924,1009,54.0937,-2.72821
707,15,54.0775,2.76831,-0.00218201,0.000983945,0.00335117,0.0031072,-0.00430527,1.00605,0.00429818,0.0264087,1931,1009,54.0776,-2.76828
714,15,54.0465,2.79681,-0.00287218,0.00160936,0.00323102,0.00330058,-0.0045634,1.08858,0.00455974,0.0245627,1938,1009,54.0465,-2.79679
721,15,53.9663,2.78723,0,0,0,0,0,0,0,-1,1945,1009,53.9663,-2.78723
728,15,54.014,5.92261,0,0,0,0,0,0,0,-1,1952,1009,54.0141,-5.92262
735,15,53.9274,6.06299,-0.00552113,0.00517217,0.00226754,0.00563314,-0.00598209,1.37024,0.00670706,0.0203001,1959,1009,53.9274,-6.06298
742,15,53.8984,6.22711,-0.00588014,0.00578196,0.00125256,0.00591497,-0.00601316,1.465,0.00688679,0.0367357,1966,1009,53.8985,-6.22713
749,15,53.9031,6.30347,-0.00573903,0.00759399,-0.000462949,0.00761005,-0.00575508,-1.53613,0.0077411,0.0228778,1973,1009,53.9031,-6.30349
756,15,53.9248,6.26611,-0.00544641,0.00980122,-0.00338415,0.0105186,-0.00616376,-1.36191,0.00974032,0.0176559,1980,1009,53.9248,-6.26611
763,15,53.842,6.37628,-0.00446788,0.0100536,-0.00756373,0.0132775,-0.00769182,-1.16788,0.012249,0.0147646,1987,1009,53.842,-6.37629
770,15,53.7056,6.41467,-0.00240113,0.0112844,-0.013015,0.0191458,-0.0102625,-1.02742,0.0172352,0.0196685,1994,1009,53.7055,-6.41465
777,15,53.3826,6.45868,0.00139394,0.0119378,-0.0206592,0.0279871,-0.0146554,-0.910324,0.0250175,0.0434929,2001,1009,53.3826,-6.4587
784,15,53.0933,6.52496,0,0,0,0,0,0,0,-1,2008,1009,53.0932,-6.52499
791,15,52.2471,4.599,0.0124293,0.0098725,-0.0407324,0.0519033,-0.0296016,-0.769711,0.0476405,0.0494003,2015,1009,52.247,-4.59901
798,15,52.7864,4.94916,0.0198754,0.00606096,-0.0538799,0.0672891,-0.0413527,-0.721647,0.0633173,0.0495341,2022,1009,52.7864,-4.94916
805,15,52.8821,4.04376,0.0284733,-0.000325823,-0.0691817,0.0847381,-0.0565906,-0.682792,0.0821339,0.0482183,2029,1009,52.8821,-4.04377
812,15,52.9155,2.91199,0.0381688,-0.0105501,-0.0875251,0.104661,-0.0770423,-0.649676,0.10531,0.0435335,2036,1009,52.9156,-2.91201
-700,8,0,0,0,0,0,0,0,0,0,-1,524,1016,0,0
-693,8,-38.8091,1.3822,0,0,0,0,0,0,0,-1,531,1016,-38.8091,-1.38221
-686,8,-39.3969,2.39905,0,0,0,0,0,0,0,-1,538,1016,-39.3969,-2.39905
-679,8,-39.9131,2.77289,-0.0549664,0.108774,0.0493033,0.122474,-0.0686657,1.29977,0.111802,0.0449955,545,1016,-39.9131,-2.77289
-672,8,-40.6437,3.21185,-0.0471421,0.0932232,0.0417444,0.1047,-0.0586184,1.3025,0.0955346,0.0423976,552,1016,-40.6437,-3.21188
-665,8,-41.6603,3.36157,0,0,0,0,0,0,0,-1,559,1016,-41.6603,-3.36158
-658,8,-41.2668,2.78864,0,0,0,0,0,0,0,-1,566,1016,-41.2668,-2.78861
-651,8,-40.7366,3.17615,0,0,0,0,0,0,0,-1,573,1016,-40.7366,-3.17615
-644,8,-41.0015,3.16052,0,0,0,0,0,0,0,-1,580,1016,-41.0015,-3.16053
-637,8,-41.0596,3.35736,-0.0139199,0.0285443,0.0110051,0.0312269,-0.0166025,1.3317,0.0280413,0.0405613,587,1016,-41.0597,-3.35736
-630,8,-41.2512,3.51459,-0.00968409,0.0178806,0.00563302,0.0189873,-0.0107908,1.3768,0.0174082,0.0233891,594,1016,-41.2512,-3.51458
-623,8,-41.2453,3.57172,-0.00633081,0.0108656,0.00224421,0.0111536,-0.00661887,1.44314,0.0103717,0.0153257,601,1016,-41.2453,-3.5717
-616,8,-41.2913,3.53815,-0.00376676,0.00626323,-0.000234264,0.0062687,-0.00377223,-1.54746,0.00585655,0.0163138,608,1016,-41.2912,-3.53815
-609,8,-41.3441,3.4718,-0.00251305,0.00374517,-0.00216885,0.00442332,-0.0031912,-1.26775,0.00441539,0.0199402,615,1016,-41.344,-3.47178
-602,8,-41.3059,3.49652,-0.00179539,0.00181136,-0.00329362,0.00376299,-0.00374702,-1.03587,0.00433591,0.0241815,622,1016,-41.3059,-3.49653
-595,8,-41.3717,3.42224,0,0,0,0,0,0,0,-1,629,1016,-41.3717,-3.42225
-588,8,-40.5507,0.742004,0,0,0,0,0,0,0,-1,636,1016,-40.5507,-0.742006
-581,8,-40.5928,0.8974,0.000134254,-0.00106185,-0.00459645,0.0041714,-0.00509899,-0.720706,0.00536119,0.0319517,643,1016,-40.5928,-0.897385
-574,8,-40.6304,0.974548,0.000465923,-0.00141026,-0.00460561,0.00422801,-0.00517235,-0.68493,0.00543642,0.0349583,650,1016,-40.6304,-0.974522
-567,8,-40.6756,1.01807,0.000560113,-0.00131498,-0.00431796,0.00404114,-0.00479601,-0.678494,0.00510833,0.0382971,657,1016,-40.6756,-1.01809
-560,8,-40.6486,1.10028,0.000657778,-0.000896987,-0.00375715,0.00371712,-0.00395633,-0.683384,0.00443099,0.0390743,664,1016,-40.6486,-1.10026
-553,8,-40.6341,1.15875,0.000751877,-0.000328544,-0.00298091,0.00324113,-0.0028178,-0.695759,0.00350097,0.0375606,671,1016,-40.6341,-1.15873
-546,8,-40.5731,1.11432,0.000952038,9.10121e-05,-0.00204665,0.00261296,-0.00156991,-0.681734,0.00243988,0.038465,678,1016,-40.5731,-1.11431
-539,8,-40.4908,1.15637,0.00131338,0.000222071,-0.00132717,0.00220269,-0.000667236,-0.590361,0.0017342,0.0400685,685,1016,-40.4908,-1.1564
-532,8,-40.5331,0.983459,0.00228905,0.00034377,-0.00158832,0.00317888,-0.000546055,-0.510665,0.00232276,0.042604,692,1016,-40.5331,-0.983452
-525,8,0,0,0,0,0,0,0,0,0,-1,699,1016,0,0
-518,8,0,0,0,0,0,0,0,0,0,-1,706,1016,0,0
-511,8,0,0,0,0,0,0,0,0,0,-1,713,1016,0,0
-504,8,0,0,0,0,0,0,0,0,0,-1,720,1016,0,0
-497,8,0,0,0,0,0,0,0,0,0,-1,727,1016,0,0
-490,8,0,0,0,0,0,0,0,0,0,-1,734,1016,0,0
-483,8,0,0,0,0,0,0,0,0,0,-1,741,1016,0,0
-476,8,0,0,0,0,0,0,0,0,0,-1,748,1016,0,0
-469,8,0,0,0,0,0,0,0,0,0,-1,755,1016,0,0
-462,8,0,0,0,0,0,0,0,0,0,-1,762,1016,0,0
-455,8,0,0,0,0,0,0,0,0,0,-1,769,1016,0,0
-448,8,0,0,0,0,0,0,0,0,0,-1,776,1016,0,0
-441,8,0,0,0,0,0,0,0,0,0,-1,783,1016,0,0
-434,8,0,0,0,0,0,0,0,0,0,-1,790,1016,0,0
-427,8,0,0,0,0,0,0,0,0,0,-1,797,1016,0,0
-420,8,0,0,0,0,0,0,0,0,0,-1,804,1016,0,0
-413,8,0,0,0,0,0,0,0,0,0,-1,811,1016,0,0
-406,8,0,0,0,0,0,0,0,0,0,-1,818,1016,0,0
-399,8,0,0,0,0,0,0,0,0,0,-1,825,1016,0,0
-392,8,0,0,0,0,0,0,0,0,0,-1,832,1016,0,0
-385,8,0,0,0,0,0,0,0,0,0,-1,839,1016,0,0
-378,8,0,0,0,0,0,0,0,0,0,-1,846,1016,0,0
-371,8,0,0,0,0,0,0,0,0,0,-1,853,1016,0,0
-364,8,0,0,0,0,0,0,0,0,0,-1,860,1016,0,0
-357,8,0,0,0,0,0,0,0,0,0,-1,867,1016,0,0
-350,8,0,0,0,0,0,0,0,0,0,-1,874,1016,0,0
-343,8,0,0,0,0,0,0,0,0,0,-1,881,1016,0,0
-336,8,0,0,0,0,0,0,0,0,0,-1,888,1016,0,0
-329,8,0,0,0,0,0,0,0,0,0,-1,895,1016,0,0
-322,8,0,0,0,0,0,0,0,0,0,-1,902,1016,0,0
-315,8,0,0,0,0,0,0,0,0,0,-1,909,1016,0,0
-308,8,0,0,0,0,0,0,0,0,0,-1,916,1016,0,0
-301,8,0,0,0,0,0,0,0,0,0,-1,923,1016,0,0
-294,8,0,0,0,0,0,0,0,0,0,-1,930,1016,0,0
-287,8,0,0,0,0,0,0,0,0,0,-1,937,1016,0,0
-280,8,0,0,0,0,0,0,0,0,0,-1,944,1016,0,0
-273,8,0,0,0,0,0,0,0,0,0,-1,951,1016,0,0
-266,8,0,0,0,0,0,0,0,0,0,-1,958,1016,0,0
-259,8,0,0,0,0,0,0,0,0,0,-1,965,1016,0,0
-252,8,0,0,0,0,0,0,0,0,0,-1,972,1016,0,0
-245,8,0,0,0,0,0,0,0,0,0,-1,979,1016,0,0
-238,8,0,0,0,0,0,0,0,0,0,-1,986,1016,0,0
-231,8,0,0,0,0,0,0,0,0,0,-1,993,1016,0,0
-224,8,0,0,0,0,0,0,0,0,0,-1,1000,1016,0,0
-217,8,0,0,0,0,0,0,0,0,0,-1,1007,1016,0,0
-210,8,0,0,0,0,0,0,0,0,0,-1,1014,1016,0,0
-203,8,0,0,0,0,0,0,0,0,0,-1,1021,1016,0,0
-196,8,0,0,0,0,0,0,0,0,0,-1,1028,1016,0,0
-189,8,0,0,0,0,0,0,0,0,0,-1,1035,1016,0,0
-182,8,0,0,0,0,0,0,0,0,0,-1,1042,1016,0,0
-175,8,0,0,0,0,0,0,0,0,0,-1,1049,1016,0,0
-168,8,0,0,0,0,0,0,0,0,0,-1,1056,1016,0,0
-161,8,0,0,0,0,0,0,0,0,0,-1,1063,1016,0,0
-154,8,0,0,0,0,0,0,0,0,0,-1,1070,1016,0,0
-147,8,0,0,0,0,0,0,0,0,0,-1,1077,1016,0,0
-140,8,0,0,0,0,0,0,0,0,0,-1,1084,1016,0,0
-133,8,0,0,0,0,0,0,0,0,0,-1,1091,1016,0,0
-126,8,0,0,0,0,0,0,0,0,0,-1,1098,1016,0,0
-119,8,0,0,0,0,0,0,0,0,0,-1,1105,1016,0,0
-112,8,0,0,0,0,0,0,0,0,0,-1,1112,1016,0,0
-105,8,0,0,0,0,0,0,0,0,0,-1,1119,1016,0,0
-98,8,0,0,0,0,0,0,0,0,0,-1,1126,1016,0,0
-91,8,0,0,0,0,0,0,0,0,0,-1,1133,1016,0,0
-84,8,0,0,0,0,0,0,0,0,0,-1,1140,1016,0,0
-77,8,0,0,0,0,0,0,0,0,0,-1,1147,1016,0,0
-70,8,0,0,0,0,0,0,0,0,0,-1,1154,1016,0,0
-63,8,0,0,0,0,0,0,0,0,0,-1,1161,1016,0,0
-56,8,0,0,0,0,0,0,0,0,0,-1,1168,1016,0,0
-49,8,0,0,0,0,0,0,0,0,0,-1,1175,1016,0,0
-42,8,0,0,0,0,0,0,0,0,0,-1,1182,1016,0,0
-35,8,0,0,0,0,0,0,0,0,0,-1,1189,1016,0,0
-28,8,0,0,0,0,0,0,0,0,0,-1,1196,1016,0,0
-21,8,0,0,0,0,0,0,0,0,0,-1,1203,1016,0,0
-14,8,0,0,0,0,0,0,0,0,0,-1,1210,1016,0,0
-7,8,0,0,0,0,0,0,0,0,0,-1,1217,1016,0,0
0,8,0,0,0,0,0,0,0,0,0,-1,1224,1016,0,0
7,8,0,0,0,0,0,0,0,0,0,-1,1231,1016,0,0
14,8,0,0,0,0,0,0,0,0,0,-1,1238,1016,0,0
21,8,0,0,0,0,0,0,0,0,0,-1,1245,1016,0,0
28,8,0,0,0,0,0,0,0,0,0,-1,1252,1016,0,0
35,8,0,0,0,0,0,0,0,0,0,-1,1259,1016,0,0
42,8,0,0,0,0,0,0,0,0,0,-1,1266,1016,0,0
49,8,0,0,0,0,0,0,0,0,0,-1,1273,1016,0,0
56,8,0,0,0,0,0,0,0,0,0,-1,1280,1016,0,0
63,8,0,0,0,0,0,0,0,0,0,-1,1287,1016,0,0
70,8,0,0,0,0,0,0,0,0,0,-1,1294,1016,0,0
77,8,0,0,0,0,0,0,0,0,0,-1,1301,1016,0,0
84,8,0,0,0,0,0,0,0,0,0,-1,1308,1016,0,0
91,8,0,0,0,0,0,0,0,0,0,-1,1315,1016,0,0
98,8,0,0,0,0,0,0,0,0,0,-1,1322,1016,0,0
105,8,0,0,0,0,0,0,0,0,0,-1,1329,1016,0,0
112,8,0,0,0,0,0,0,0,0,0,-1,1336,1016,0,0
119,8,0,0,0,0,0,0,0,0,0,-1,1343,1016,0,0
126,8,0,0,0,0,0,0,0,0,0,-1,1350,1016,0,0
133,8,0,0,0,0,0,0,0,0,0,-1,1357,1016,0,0
140,8,0,0,0,0,0,0,0,0,0,-1,1364,1016,0,0
147,8,0,0,0,0,0,0,0,0,0,-1,1371,1016,0,0
154,8,0,0,0,0,0,0,0,0,0,-1,1378,1016,0,0
161,8,0,0,0,0,0,0,0,0,0,-1,1385,1016,0,0
168,8,0,0,0,0,0,0,0,0,0,-1,1392,1016,0,0
175,8,0,0,0,0,0,0,0,0,0,-1,1399,1016,0,0
182,8,0,0,0,0,0,0,0,0,0,-1,1406,1016,0,0
189,8,0,0,0,0,0,0,0,0,0,-1,1413,1016,0,0
196,8,0,0,0,0,0,0,0,0,0,-1,1420,1016,0,0
203,8,0,0,0,0,0,0,0,0,0,-1,1427,1016,0,0
210,8,0,0,0,0,0,0,0,0,0,-1,1434,1016,0,0
217,8,0,0,0,0,0,0,0,0,0,-1,1441,1016,0,0
224,8,0,0,0,0,0,0,0,0,0,-1,1448,1016,0,0
231,8,0,0,0,0,0,0,0,0,0,-1,1455,1016,0,0
238,8,0,0,0,0,0,0,0,0,0,-1,1462,1016,0,0
245,8,0,0,0,0,0,0,0,0,0,-1,1469,1016,0,0
252,8,0,0,0,0,0,0,0,0,0,-1,1476,1016,0,0
259,8,0,0,0,0,0,0,0,0,0,-1,1483,1016,0,0
266,8,0,0,0,0,0,0,0,0,0,-1,1490,1016,0,0
273,8,0,0,0,0,0,0,0,0,0,-1,1497,1016,0,0
280,8,0,0,0,0,0,0,0,0,0,-1,1504,1016,0,0
287,8,0,0,0,0,0,0,0,0,0,-1,1511,1016,0,0
294,8,0,0,0,0,0,0,0,0,0,-1,1518,1016,0,0
301,8,0,0,0,0,0,0,0,0,0,-1,1525,1016,0,0
308,8,0,0,0,0,0,0,0,0,0,-1,1532,1016,0,0
315,8,0,0,0,0,0,0,0,0,0,-1,1539,1016,0,0
322,8,0,0,0,0,0,0,0,0,0,-1,1546,1016,0,0
329,8,0,0,0,0,0,0,0,0,0,-1,1553,1016,0,0
336,8,0,0,0,0,0,0,0,0,0,-1,1560,1016,0,0
343,8,0,0,0,0,0,0,0,0,0,-1,1567,1016,0,0
350,8,0,0,0,0,0,0,0,0,0,-1,1574,1016,0,0
357,8,0,0,0,0,0,0,0,0,0,-1,1581,1016,0,0
364,8,0,0,0,0,0,0,0,0,0,-1,1588,1016,0,0
371,8,0,0,0,0,0,0,0,0,0,-1,1595,1016,0,0
378,8,0,0,0,0,0,0,0,0,0,-1,1602,1016,0,0
385,8,0,0,0,0,0,0,0,0,0,-1,1609,1016,0,0
392,8,0,0,0,0,0,0,0,0,0,-1,1616,1016,0,0
399,8,0,0,0,0,0,0,0,0,0,-1,1623,1016,0,0
406,8,0,0,0,0,0,0,0,0,0,-1,1630,1016,0,0
413,8,0,0,0,0,0,0,0,0,0,-1,1637,1016,0,0
420,8,0,0,0,0,0,0,0,0,0,-1,1644,1016,0,0
427,8,0,0,0,0,0,0,0,0,0,-1,1651,1016,0,0
434,8,0,0,0,0,0,0,0,0,0,-1,1658,1016,0,0
441,8,0,0,0,0,0,0,0,0,0,-1,1665,1016,0,0
448,8,0,0,0,0,0,0,0,0,0,-1,1672,1016,0,0
455,8,0,0,0,0,0,0,0,0,0,-1,1679,1016,0,0
462,8,0,0,0,0,0,0,0,0,0,-1,1686,1016,0,0
469,8,0,0,0,0,0,0,0,0,0,-1,1693,1016,0,0
476,8,0,0,0,0,0,0,0,0,0,-1,1700,1016,0,0
483,8,0,0,0,0,0,0,0,0,0,-1,1707,1016,0,0
490,8,0,0,0,0,0,0,0,0,0,-1,1714,1016,0,0
497,8,0,0,0,0,0,0,0,0,0,-1,1721,1016,0,0
504,8,0,0,0,0,0,0,0,0,0,-1,1728,1016,0,0
511,8,0,0,0,0,0,0,0,0,0,-1,1735,1016,0,0
518,8,0,0,0,0,0,0,0,0,0,-1,1742,1016,0,0
525,8,0,0,0,0,0,0,0,0,0,-1,1749,1016,0,0
532,8,0,0,0,0,0,0,0,0,0,-1,1756,1016,0,0
539,8,0,0,0,0,0,0,0,0,0,-1,1763,1016,0,0
546,8,0,0,0,0,0,0,0,0,0,-1,1770,1016,0,0
553,8,0,0,0,0,0,0,0,0,0,-1,1777,1016,0,0
560,8,0,0,0,0,0,0,0,0,0,-1,1784,1016,0,0
567,8,0,0,0,0,0,0,0,0,0,-1,1791,1016,0,0
574,8,0,0,0,0,0,0,0,0,0,-1,1798,1016,0,0
581,8,0,0,0,0,0,0,0,0,0,-1,1805,1016,0,0
588,8,0,0,0,0,0,0,0,0,0,-1,1812,1016,0,0
595,8,0,0,0,0,0,0,0,0,0,-1,1819,1016,0,0
602,8,0,0,0,0,0,0,0,0,0,-1,1826,1016,0,0
609,8,0,0,0,0,0,0,0,0,0,-1,1833,1016,0,0
616,8,0,0,0,0,0,0,0,0,0,-1,1840,1016,0,0
623,8,0,0,0,0,0,0,0,0,0,-1,1847,1016,0,0
630,8,0,0,0,0,0,0,0,0,0,-1,1854,1016,0,0
637,8,0,0,0,0,0,0,0,0,0,-1,1861,1016,0,0
644,8,53.9554,2.34235,0.0073229,0.00521655,0.00189616,0.00843873,0.00410072,0.531898,0.00487274,0.0427147,1868,1016,53.9554,-2.34232
651,8,54.0829,2.39209,0.00508105,0.00360336,0.00155231,0.00606138,0.00262303,0.56328,0.00351008,0.0376776,1875,1016,54.0829,-2.39207
658,8,54.1996,2.58398,0.00336258,0.00244762,0.00115242,0.00414501,0.00166519,0.596451,0.00240848,0.0383706,1882,1016,54.1995,-2.58399
665,8,54.116,2.60883,0.00199355,0.00175461,0.00107668,0.00295737,0.000790795,0.730143,0.00176795,0.0413873,1889,1016,54.116,-2.6088
672,8,54.0735,2.68298,0.000820102,0.0013974,0.00133916,0.00247867,-0.000261164,0.891547,0.00174602,0.0424623,1896,1016,54.0735,-2.68301
679,8,54.1711,2.61328,-9.89493e-05,0.0013066,0.00184085,0.00257427,-0.00136661,0.967743,0.00231061,0.0398443,1903,1016,54.1712,-2.61326
686,8,54.1926,2.73413,-0.00086801,0.00116988,0.00238941,0.00274854,-0.00244667,0.986944,0.00300114,0.0409647,1910,1016,54.1926,-2.73416
693,8,54.0765,2.82086,-0.00141464,0.00103408,0.0029129,0.00296947,-0.00335003,0.98435,0.00365077,0.0405905,1917,1016,54.0765,-2.82084
700,8,54.0863,2.72729,-0.00171833,0.00090793,0.0032677,0.00311647,-0.00392687,0.976449,0.00407544,0.0318051,1924,1016,54.0863,-2.72732
707,8,54.0851,2.69598,-0.00224124,0.00117253,0.00334155,0.0032179,-0.00428661,1.02153,0.00434735,0.0230143,1931,1016,54.0851,-2.69595
714,8,54.0632,2.66895,-0.00294836,0.00175474,0.003257,0.00342039,-0.00461401,1.09807,0.00465569,0.0216968,1938,1016,54.0633,-2.66897
721,8,54.0426,2.68396,0,0,0,0,0,0,0,-1,1945,1016,54.0426,-2.68395
728,8,52.1681,5.36774,0,0,0,0,0,0,0,-1,1952,1016,52.168,-5.36773
735,8,53.9724,6.15558,0,0,0,0,0,0,0,-1,1959,1016,53.9724,-6.15558
742,8,53.8962,6.35675,0,0,0,0,0,0,0,-1,1966,1016,53.8962,-6.35676
749,8,54.0647,6.33374,0,0,0,0,0,0,0,-1,1973,1016,54.0647,-6.33375
756,8,53.9971,6.16864,-0.00568075,0.0091821,-0.00294445,0.00974417,-0.00624281,-1.38218,0.00930358,0.0327608,1980,1016,53.997,-6.16863
763,8,53.9434,6.24548,-0.00482175,0.00921935,-0.00680295,0.0119747,-0.0075771,-1.18597,0.011383,0.0169044,1987,1016,53.9433,-6.24549
770,8,53.8345,6.20728,-0.00293397,0.00997794,-0.0119214,0.0170793,-0.0100353,-1.03356,0.0158297,0.0212573,1994,1016,53.8345,-6.20725
777,8,53.5017,6.20404,0.000702599,0.00984748,-0.0191905,0.0250028,-0.0144527,-0.90235,0.0230495,0.035286,2001,1016,53.5017,-6.20402
784,8,53.1472,6.20709,0,0,0,0,0,0,0,-1,2008,1016,53.1472,-6.20711
791,8,52.9048,5.05865,0.0111945,0.00568107,-0.0378819,0.0464199,-0.0295443,-0.749076,0.0442172,0.0442228,2015,1016,52.9048,-5.05865
798,8,53.0093,4.89709,0.0181899,0.000511739,-0.0498551,0.0599834,-0.0412818,-0.697662,0.0587969,0.0423233,2022,1016,53.0093,-4.89708
805,8,53.1655,4.22552,0.026278,-0.00742553,-0.0635784,0.0752,-0.0563476,-0.65585,0.0762086,0.0425494,2029,1016,53.1655,-4.22554
812,8,53.2068,3.84381,0.0353257,-0.0195488,-0.0797052,0.0921838,-0.076407,-0.619634,0.0974779,0.0418695,2036,1016,53.2067,-3.84382
-700,1,0,0,0,0,0,0,0,0,0,-1,524,1023,0,0
-693,1,-38.6445,0.625,-0.0523431,0.130511,0.0648836,0.151194,-0.0730266,1.2622,0.13205,0.0442161,531,1023,-38.6445,-0.62498
-686,1,-39.1368,1.63647,-0.0499428,0.117426,0.057507,0.13528,-0.0677972,1.26976,0.119385,0.0476645,538,1023,-39.1368,-1.6365
-679,1,-39.6339,2.06238,-0.0450761,0.102849,0.0498761,0.118094,-0.0603217,1.27415,0.104793,0.0471928,545,1023,-39.6339,-2.06236
-672,1,-40.1349,2.62439,-0.0391341,0.0883355,0.0425854,0.101253,-0.0520521,1.27628,0.0900176,0.0431665,552,1023,-40.1349,-2.6244
-665,1,-40.4928,2.65857,0,0,0,0,0,0,0,-1,559,1023,-40.4928,-2.65857
-658,1,-40.9886,2.9577,0,0,0,0,0,0,0,-1,566,1023,-40.9887,-2.95769
-651,1,-40.9835,3.19879,-0.0215611,0.0487663,0.0232223,0.0557423,-0.0285372,1.27897,0.0494966,0.0290968,573,1023,-40.9834,-3.19882
-644,1,-40.7467,3.42749,0,0,0,0,0,0,0,-1,580,1023,-40.7467,-3.42748
-637,1,-41.0641,3.32648,-0.011876,0.0271812,0.0117115,0.0304237,-0.0151186,1.30069,0.0267842,0.0376432,587,1023,-41.0641,-3.3265
-630,1,-41.3179,3.40143,-0.00851659,0.0170965,0.00622347,0.0185287,-0.0099487,1.34462,0.0166883,0.0324325,594,1023,-41.318,-3.4014
-623,1,-41.1966,3.53943,-0.00572105,0.0102591,0.00262004,0.0106777,-0.00613966,1.41236,0.00982661,0.0160772,601,1023,-41.1966,-3.53941
-616,1,-41.2958,3.4906,-0.00348288,0.00574829,2.65327e-05,0.00574837,-0.00348296,1.56792,0.00538294,0.0211531,608,1023,-41.2959,-3.49061
-609,1,-41.3026,3.55518,-0.00236383,0.00329507,-0.00189609,0.00387163,-0.00294039,-1.2756,0.00394516,0.0220386,615,1023,-41.3025,-3.55517
-602,1,-41.1576,3.63037,-0.00178289,0.00134511,-0.00294023,0.00311143,-0.00354921,-1.02983,0.00384829,0.0156909,622,1023,-41.1576,-3.63039
-595,1,-40.9868,3.65045,0,0,0,0,0,0,0,-1,629,1023,-40.9868,-3.65044
-588,1,-40.7374,3.69122,0,0,0,0,0,0,0,-1,636,1023,-40.7373,-3.6912
-581,1,-40.5828,0.896423,7.08366e-05,-0.00136768,-0.00388769,0.00330525,-0.00460209,-0.693928,0.00458572,0.0290844,643,1023,-40.5828,-0.896433
-574,1,-40.6288,1.00928,0.000391538,-0.00169384,-0.00381039,0.00329933,-0.00460163,-0.651846,0.00458223,0.0357211,650,1023,-40.6288,-1.00928
-567,1,-40.6455,0.978699,0.000485401,-0.00155651,-0.00348557,0.00309646,-0.00416757,-0.642929,0.00420906,0.0406504,657,1023,-40.6455,-0.9787
-560,1,-40.5647,1.02509,0.000571713,-0.00107391,-0.00293366,0.00279577,-0.00329796,-0.648675,0.0035222,0.0408933,664,1023,-40.5647,-1.02506
-553,1,-40.575,1.11426,0.000646026,-0.000423976,-0.00220096,0.00237607,-0.00215402,-0.666172,0.0026165,0.0394146,671,1023,-40.5749,-1.11426
-546,1,-40.6572,1.11511,0.000825009,5.58729e-05,-0.00133772,0.00183234,-0.000951463,-0.645433,0.00163383,0.0403569,678,1023,-40.6571,-1.11513
-539,1,-40.5442,0.982544,0.00111242,0.000200683,-0.000729322,0.00151662,-0.000203522,-0.506078,0.0010853,0.0413138,685,1023,-40.5442,-0.982524
-532,1,-40.535,0.832825,0.00199501,0.000238757,-0.000876771,0.00235778,-0.000124017,-0.392313,0.00161478,0.0435229,692,1023,-40.535,-0.832852
-525,1,0,0,0,0,0,0,0,0,0,-1,699,1023,0,0
-518,1,0,0,0,0,0,0,0,0,0,-1,706,1023,0,0
-511,1,0,0,0,0,0,0,0,0,0,-1,713,1023,0,0
-504,1,0,0,0,0,0,0,0,0,0,-1,720,1023,0,0
-497,1,0,0,0,0,0,0,0,0,0,-1,727,1023,0,0
-490,1,0,0,0,0,0,0,0,0,0,-1,734,1023,0,0
-483,1,0,0,0,0,0,0,0,0,0,-1,741,1023,0,0
-476,1,0,0,0,0,0,0,0,0,0,-1,748,1023,0,0
-469,1,0,0,0,0,0,0,0,0,0,-1,755,1023,0,0
-462,1,0,0,0,0,0,0,0,0,0,-1,762,1023,0,0
-455,1,0,0,0,0,0,0,0,0,0,-1,769,1023,0,0
-448,1,0,0,0,0,0,0,0,0,0,-1,776,1023,0,0
-441,1,0,0,0,0,0,0,0,0,0,-1,783,1023,0,0
-434,1,0,0,0,0,0,0,0,0,0,-1,790,1023,0,0
-427,1,0,0,0,0,0,0,0,0,0,-1,797,1023,0,0
-420,1,0,0,0,0,0,0,0,0,0,-1,804,1023,0,0
-413,1,0,0,0,0,0,0,0,0,0,-1,811,1023,0,0
-406,1,0,0,0,0,0,0,0,0,0,-1,818,1023,0,0
-399,1,0,0,0,0,0,0,0,0,0,-1,825,1023,0,0
-392,1,0,0,0,0,0,0,0,0,0,-1,832,1023,0,0
-385,1,0,0,0,0,0,0,0,0,0,-1,839,1023,0,0
-378,1,0,0,0,0,0,0,0,0,0,-1,846,1023,0,0
-371,1,0,0,0,0,0,0,0,0,0,-1,853,1023,0,0
-364,1,0,0,0,0,0,0,0,0,0,-1,860,1023,0,0
-357,1,0,0,0,0,0,0,0,0,0,-1,867,1023,0,0
-350,1,0,0,0,0,0,0,0,0,0,-1,874,1023,0,0
-343,1,0,0,0,0,0,0,0,0,0,-1,881,1023,0,0
-336,1,0,0,0,0,0,0,0,0,0,-1,888,1023,0,0
-329,1,0,0,0,0,0,0,0,0,0,-1,895,1023,0,0
-322,1,0,0,0,0,0,0,0,0,0,-1,902,1023,0,0
-315,1,0,0,0,0,0,0,0,0,0,-1,909,1023,0,0
-308,1,0,0,0,0,0,0,0,0,0,-1,916,1023,0,0
-301,1,0,0,0,0,0,0,0,0,0,-1,923,1023,0,0
-294,1,0,0,0,0,0,0,0,0,0,-1,930,1023,0,0
-287,1,0,0,0,0,0,0,0,0,0,-1,937,1023,0,0
-280,1,0,0,0,0,0,0,0,0,0,-1,944,1023,0,0
-273,1,0,0,0,0,0,0,0,0,0,-1,951,1023,0,0
-266,1,0,0,0,0,0,0,0,0,0,-1,958,1023,0,0
-259,1,0,0,0,0,0,0,0,0,0,-1,965,1023,0,0
-252,1,0,0,0,0,0,0,0,0,0,-1,972,1023,0,0
-245,1,0,0,0,0,0,0,0,0,0,-1,979,1023,0,0
-238,1,0,0,0,0,0,0,0,0,0,-1,986,1023,0,0
-231,1,0,0,0,0,0,0,0,0,0,-1,993,1023,0,0
-224,1,0,0,0,0,0,0,0,0,0,-1,1000,1023,0,0
-217,1,0,0,0,0,0,0,0,0,0,-1,1007,1023,0,0
-210,1,0,0,0,0,0,0,0,0,0,-1,1014,1023,0,0
-203,1,0,0,0,0,0,0,0,0,0,-1,1021,1023,0,0
-196,1,0,0,0,0,0,0,0,0,0,-1,1028,1023,0,0
-189,1,0,0,0,0,0,0,0,0,0,-1,1035,1023,0,0
-182,1,0,0,0,0,0,0,0,0,0,-1,1042,1023,0,0
-175,1,0,0,0,0,0,0,0,0,0,-1,1049,1023,0,0
-168,1,0,0,0,0,0,0,0,0,0,-1,1056,1023,0,0
-161,1,0,0,0,0,0,0,0,0,0,-1,1063,1023,0,0
-154,1,0,0,0,0,0,0,0,0,0,-1,1070,1023,0,0
-147,1,0,0,0,0,0,0,0,0,0,-1,1077,1023,0,0
-140,1,0,0,0,0,0,0,0,0,0,-1,1084,1023,0,0
-133,1,0,0,0,0,0,0,0,0,0,-1,1091,1023,0,0
-126,1,0,0,0,0,0,0,0,0,0,-1,1098,1023,0,0
-119,1,0,0,0,0,0,0,0,0,0,-1,1105,1023,0,0
-112,1,0,0,0,0,0,0,0,0,0,-1,1112,1023,0,0
-105,1,0,0,0,0,0,0,0,0,0,-1,1119,1023,0,0
-98,1,0,0,0,0,0,0,0,0,0,-1,1126,1023,0,0
-91,1,0,0,0,0,0,0,0,0,0,-1,1133,1023,0,0
-84,1,0,0,0,0,0,0,0,0,0,-1,1140,1023,0,0
-77,1,0,0,0,0,0,0,0,0,0,-1,1147,1023,0,0
-70,1,0,0,0,0,0,0,0,0,0,-1,1154,1023,0,0
-63,1,0,0,0,0,0,0,0,0,0,-1,1161,1023,0,0
-56,1,0,0,0,0,0,0,0,0,0,-1,1168,1023,0,0
-49,1,0,0,0,0,0,0,0,0,0,-1,1175,1023,0,0
-42,1,0,0,0,0,0,0,0,0,0,-1,1182,1023,0,0
-35,1,0,0,0,0,0,0,0,0,0,-1,1189,1023,0,0
-28,1,0,0,0,0,0,0,0,0,0,-1,1196,1023,0,0
-21,1,0,0,0,0,0,0,0,0,0,-1,1203,1023,0,0
-14,1,0,0,0,0,0,0,0,0,0,-1,1210,1023,0,0
-7,1,0,0,0,0,0,0,0,0,0,-1,1217,1023,0,0
0,1,0,0,0,0,0,0,0,0,0,-1,1224,1023,0,0
7,1,0,0,0,0,0,0,0,0,0,-1,1231,1023,0,0
14,1,0,0,0,0,0,0,0,0,0,-1,1238,1023,0,0
21,1,0,0,0,0,0,0,0,0,0,-1,1245,1023,0,0
28,1,0,0,0,0,0,0,0,0,0,-1,1252,1023,0,0
35,1,0,0,0,0,0,0,0,0,0,-1,1259,1023,0,0
42,1,0,0,0,0,0,0,0,0,0,-1,1266,1023,0,0
49,1,0,0,0,0,0,0,0,0,0,-1,1273,1023,0,0
56,1,0,0,0,0,0,0,0,0,0,-1,1280,1023,0,0
63,1,0,0,0,0,0,0,0,0,0,-1,1287,1023,0,0
70,1,0,0,0,0,0,0,0,0,0,-1,1294,1023,0,0
77,1,0,0,0,0,0,0,0,0,0,-1,1301,1023,0,0
84,1,0,0,0,0,0,0,0,0,0,-1,1308,1023,0,0
91,1,0,0,0,0,0,0,0,0,0,-1,1315,1023,0,0
98,1,0,0,0,0,0,0,0,0,0,-1,1322,1023,0,0
105,1,0,0,0,0,0,0,0,0,0,-1,1329,1023,0,0
112,1,0,0,0,0,0,0,0,0,0,-1,1336,1023,0,0
119,1,0,0,0,0,0,0,0,0,0,-1,1343,1023,0,0
126,1,0,0,0,0,0,0,0,0,0,-1,1350,1023,0,0
133,1,0,0,0,0,0,0,0,0,0,-1,1357,1023,0,0
140,1,0,0,0,0,0,0,0,0,0,-1,1364,1023,0,0
147,1,0,0,0,0,0,0,0,0,0,-1,1371,1023,0,0
154,1,0,0,0,0,0,0,0,0,0,-1,1378,1023,0,0
161,1,0,0,0,0,0,0,0,0,0,-1,1385,1023,0,0
168,1,0,0,0,0,0,0,0,0,0,-1,1392,1023,0,0
175,1,0,0,0,0,0,0,0,0,0,-1,1399,1023,0,0
182,1,0,0,0,0,0,0,0,0,0,-1,1406,1023,0,0
189,1,0,0,0,0,0,0,0,0,0,-1,1413,1023,0,0
196,1,0,0,0,0,0,0,0,0,0,-1,1420,1023,0,0
203,1,0,0,0,0,0,0,0,0,0,-1,1427,1023,0,0
210,1,0,0,0,0,0,0,0,0,0,-1,1434,1023,0,0
217,1,0,0,0,0,0,0,0,0,0,-1,1441,1023,0,0
224,1,0,0,0,0,0,0,0,0,0,-1,1448,1023,0,0
231,1,0,0,0,0,0,0,0,0,0,-1,1455,1023,0,0
238,1,0,0,0,0,0,0,0,0,0,-1,1462,1023,0,0
245,1,0,0,0,0,0,0,0,0,0,-1,1469,1023,0,0
252,1,0,0,0,0,0,0,0,0,0,-1,1476,1023,0,0
259,1,0,0,0,0,0,0,0,0,0,-1,1483,1023,0,0
266,1,0,0,0,0,0,0,0,0,0,-1,1490,1023,0,0
273,1,0,0,0,0,0,0,0,0,0,-1,1497,1023,0,0
280,1,0,0,0,0,0,0,0,0,0,-1,1504,1023,0,0
287,1,0,0,0,0,0,0,0,0,0,-1,1511,1023,0,0
294,1,0,0,0,0,0,0,0,0,0,-1,1518,1023,0,0
301,1,0,0,0,0,0,0,0,0,0,-1,1525,1023,0,0
308,1,0,0,0,0,0,0,0,0,0,-1,1532,1023,0,0
315,1,0,0,0,0,0,0,0,0,0,-1,1539,1023,0,0
322,1,0,0,0,0,0,0,0,0,0,-1,1546,1023,0,0
329,1,0,0,0,0,0,0,0,0,0,-1,1553,1023,0,0
336,1,0,0,0,0,0,0,0,0,0,-1,1560,1023,0,0
343,1,0,0,0,0,0,0,0,0,0,-1,1567,1023,0,0
350,1,0,0,0,0,0,0,0,0,0,-1,1574,1023,0,0
357,1,0,0,0,0,0,0,0,0,0,-1,1581,1023,0,0
364,1,0,0,0,0,0,0,0,0,0,-1,1588,1023,0,0
371,1,0,0,0,0,0,0,0,0,0,-1,1595,1023,0,0
378,1,0,0,0,0,0,0,0,0,0,-1,1602,1023,0,0
385,1,0,0,0,0,0,0,0,0,0,-1,1609,1023,0,0
392,1,0,0,0,0,0,0,0,0,0,-1,1616,1023,0,0
399,1,0,0,0,0,0,0,0,0,0,-1,1623,1023,0,0
406,1,0,0,0,0,0,0,0,0,0,-1,1630,1023,0,0
413,1,0,0,0,0,0,0,0,0,0,-1,1637,1023,0,0
420,1,0,0,0,0,0,0,0,0,0,-1,1644,1023,0,0
427,1,0,0,0,0,0,0,0,0,0,-1,1651,1023,0,0
434,1,0,0,0,0,0,0,0,0,0,-1,1658,1023,0,0
441,1,0,0,0,0,0,0,0,0,0,-1,1665,1023,0,0
448,1,0,0,0,0,0,0,0,0,0,-1,1672,1023,0,0
455,1,0,0,0,0,0,0,0,0,0,-1,1679,1023,0,0
462,1,0,0,0,0,0,0,0,0,0,-1,1686,1023,0,0
469,1,0,0,0,0,0,0,0,0,0,-1,1693,1023,0,0
476,1,0,0,0,0,0,0,0,0,0,-1,1700,1023,0,0
483,1,0,0,0,0,0,0,0,0,0,-1,1707,1023,0,0
490,1,0,0,0,0,0,0,0,0,0,-1,1714,1023,0,0
497,1,0,0,0,0,0,0,0,0,0,-1,1721,1023,0,0
504,1,0,0,0,0,0,0,0,0,0,-1,1728,1023,0,0
511,1,0,0,0,0,0,0,0,0,0,-1,1735,1023,0,0
518,1,0,0,0,0,0,0,0,0,0,-1,1742,1023,0,0
525,1,0,0,0,0,0,0,0,0,0,-1,1749,1023,0,0
532,1,0,0,0,0,0,0,0,0,0,-1,1756,1023,0,0
539,1,0,0,0,0,0,0,0,0,0,-1,1763,1023,0,0
546,1,0,0,0,0,0,0,0,0,0,-1,1770,1023,0,0
553,1,0,0,0,0,0,0,0,0,0,-1,1777,1023,0,0
560,1,0,0,0,0,0,0,0,0,0,-1,1784,1023,0,0
567,1,0,0,0,0,0,0,0,0,0,-1,1791,1023,0,0
574,1,0,0,0,0,0,0,0,0,0,-1,1798,1023,0,0
581,1,0,0,0,0,0,0,0,0,0,-1,1805,1023,0,0
588,1,0,0,0,0,0,0,0,0,0,-1,1812,1023,0,0
595,1,0,0,0,0,0,0,0,0,0,-1,1819,1023,0,0
602,1,0,0,0,0,0,0,0,0,0,-1,1826,1023,0,0
609,1,0,0,0,0,0,0,0,0,0,-1,1833,1023,0,0
616,1,0,0,0,0,0,0,0,0,0,-1,1840,1023,0,0
623,1,0,0,0,0,0,0,0,0,0,-1,1847,1023,0,0
630,1,0,0,0,0,0,0,0,0,0,-1,1854,1023,0,0
637,1,0,0,0,0,0,0,0,0,0,-1,1861,1023,0,0
644,1,0,0,0,0,0,0,0,0,0,-1,1868,1023,0,0
651,1,54.1327,2.67633,0.00423741,0.0031412,0.00188489,0.00565227,0.00172633,0.643905,0.00334469,0.0374294,1875,1023,54.1327,-2.67632
658,1,54.1886,2.67657,0.00280651,0.0021961,0.00142832,0.00396187,0.00104074,0.680141,0.00237171,0.0388438,1882,1023,54.1887,-2.6766
665,1,54.2001,2.58881,0.00165541,0.00165095,0.00124527,0.00289846,0.000407906,0.784503,0.00181171,0.0416345,1889,1023,54.2001,-2.58879
672,1,54.2736,2.50818,0.000669834,0.00141703,0.00141759,0.00250943,-0.000422565,0.91424,0.00183014,0.0416633,1896,1023,54.2736,-2.50821
679,1,54.3099,2.54767,-0.00012532,0.00141768,0.00183661,0.00263825,-0.00134589,0.984241,0.00234024,0.0385434,1903,1023,54.3099,-2.54769
686,1,54.1389,2.6369,-0.000881761,0.00132251,0.0023365,0.00280377,-0.00236302,1.00578,0.00298666,0.0378509,1910,1023,54.1389,-2.63693
693,1,53.9991,2.80762,-0.00145065,0.0011891,0.0028544,0.00301401,-0.00327555,1.00196,0.00363233,0.0364733,1917,1023,53.9991,-2.80762
700,1,54.0443,2.75647,-0.0017643,0.00103573,0.00324386,0.0031688,-0.00389737,0.989117,0.00408688,0.0315205,1924,1023,54.0443,-2.75646
707,1,54.0616,2.67242,-0.00229461,0.00124579,0.00336035,0.00327369,-0.00432251,1.02782,0.00439958,0.0244399,1931,1023,54.0617,-2.67242
714,1,54.0436,2.64874,-0.00300909,0.00177914,0.00331575,0.00347477,-0.00470472,1.09808,0.00474019,0.020897,1938,1023,54.0436,-2.64876
721,1,54.0507,2.65356,0,0,0,0,0,0,0,-1,1945,1023,54.0506,-2.65355
728,1,52.4639,5.59277,0,0,0,0,0,0,0,-1,1952,1023,52.4639,-5.59276
735,1,53.3617,6.10699,0,0,0,0,0,0,0,-1,1959,1023,53.3617,-6.10698
742,1,52.4393,5.81525,0,0,0,0,0,0,0,-1,1966,1023,52.4393,-5.81527
749,1,54.0492,6.10925,0,0,0,0,0,0,0,-1,1973,1023,54.0491,-6.10924
756,1,54.0183,6.21912,-0.00599002,0.00854701,-0.00244976,0.00894874,-0.00639175,-1.40826,0.00889775,0.033332,1980,1023,54.0183,-6.21915
763,1,53.9055,6.16138,-0.0052517,0.00850808,-0.00598856,0.0107494,-0.00749298,-1.21267,0.010588,0.0181504,1987,1023,53.9055,-6.16139
770,1,53.8597,6.12646,-0.0035639,0.00901115,-0.0107335,0.0151631,-0.00971588,-1.05035,0.0144782,0.018999,1994,1023,53.8597,-6.12649
777,1,53.5952,6.00848,-0.000127004,0.00841305,-0.0175101,0.0221662,-0.0138802,-0.904994,0.0209939,0.0257151,2001,1023,53.5952,-6.00851
784,1,53.4021,5.82648,0.00432986,0.0065446,-0.0254247,0.030886,-0.0200116,-0.807162,0.0296085,0.0446585,2008,1023,53.4021,-5.82646
791,1,53.3071,5.40125,0.00985689,0.00296234,-0.034639,0.0412197,-0.0284005,-0.735801,0.0404217,0.0404743,2015,1023,53.307,-5.40123
798,1,53.2661,4.83832,0.016512,-0.00303781,-0.0454272,0.0532041,-0.0397299,-0.679425,0.0538431,0.0427228,2022,1023,53.2661,-4.83831
805,1,53.1658,4.19226,0.024299,-0.0119216,-0.0576527,0.066619,-0.0542416,-0.633215,0.0699008,0.045396,2029,1023,53.1657,-4.19228
812,1,53.0276,3.65912,0,0,0,0,0,0,0,-1,2036,1023,53.0275,-3.6591
-700,-6,0,0,0,0,0,0,0,0,0,-1,524,1030,0,0
-693,-6,-38.3947,0.210938,-0.0387116,0.120628,0.0624339,0.142177,-0.0602608,1.23845,0.120025,0.0422526,531,1030,-38.3947,-0.210975
-686,-6,-38.7661,0.681641,-0.037837,0.109354,0.0566892,0.128657,-0.057139,1.24262,0.109886,0.0436208,538,1030,-38.7661,-0.681655
-679,-6,-39.4487,1.41199,-0.034755,0.0961196,0.049852,0.112946,-0.0515811,1.24528,0.0971669,0.0461099,545,1030,-39.4487,-1.41195
-672,-6,-39.8918,1.89221,-0.0305178,0.0826465,0.0429604,0.0971075,-0.0449788,1.2461,0.0838537,0.0470198,552,1030,-39.8918,-1.89225
-665,-6,-40.2705,2.19849,-0.0258952,0.0695435,0.0362784,0.081768,-0.0381196,1.24578,0.0707298,0.0441976,559,1030,-40.2705,-2.19852
-658,-6,-41.1349,2.48218,0,0,0,0,0,0,0,-1,566,1030,-41.1349,-2.48213
-651,-6,-40.9739,2.81873,0,0,0,0,0,0,0,-1,573,1030,-40.9739,-2.81869
-644,-6,-40.9256,3.78577,0,0,0,0,0,0,0,-1,580,1030,-40.9256,-3.78579
-637,-6,-41.0272,3.44238,-0.00964817,0.0253165,0.0122025,0.0291539,-0.0134856,1.26611,0.0251659,0.0423839,587,1030,-41.0271,-3.44236
-630,-6,-41.1639,3.34265,-0.00722019,0.0159485,0.00670991,0.0177515,-0.00902315,1.3083,0.0157297,0.0236994,594,1030,-41.1639,-3.3427
-623,-6,-41.1286,3.4436,-0.00500587,0.00941591,0.00297978,0.0100073,-0.00559729,1.37487,0.00912847,0.0173707,601,1030,-41.1286,-3.44366
-616,-6,-41.1732,3.4823,-0.0030857,0.00510597,0.000341905,0.00512022,-0.00309995,1.52915,0.00479345,0.0206907,608,1030,-41.1732,-3.48232
-609,-6,-41.1584,3.62048,-0.00209668,0.00282175,-0.00156291,0.00327637,-0.0025513,-1.28773,0.00337328,0.0207979,615,1030,-41.1584,-3.62052
-602,-6,-41.075,3.7168,-0.00166129,0.000918451,-0.0025678,0.00250214,-0.00324498,-1.01815,0.00332733,0.0145312,622,1030,-41.075,-3.71686
-595,-6,-41.0709,3.7926,0,0,0,0,0,0,0,-1,629,1030,-41.0709,-3.79256
-588,-6,-40.7501,2.14575,0,0,0,0,0,0,0,-1,636,1030,-40.7501,-2.14577
-581,-6,-40.6019,0.883301,3.83945e-05,-0.00152027,-0.00331941,0.00266874,-0.00415061,-0.670096,0.00396802,0.0228637,643,1030,-40.6018,-0.883331
-574,-6,-40.6102,0.897217,0.000354602,-0.00176841,-0.00320594,0.0026702,-0.004084,-0.625526,0.00392791,0.0310316,650,1030,-40.6102,-0.897208
-567,-6,-40.5981,0.879761,0.000463647,-0.00155514,-0.00289761,0.00252265,-0.00361414,-0.617794,0.00356171,0.0392849,657,1030,-40.5981,-0.879789
-560,-6,-40.5285,0.794067,0.000573263,-0.000997405,-0.00241055,0.00232318,-0.00274732,-0.627925,0.00293087,0.0402638,664,1030,-40.5285,-0.794007
-553,-6,-40.5338,0.73999,0.000701276,-0.000293505,-0.00177952,0.00205161,-0.00164384,-0.649122,0.0021379,0.0406162,671,1030,-40.5338,-0.739931
-546,-6,-40.6647,0.867676,0.000976528,0.000191341,-0.00104263,0.00169803,-0.000530157,-0.605337,0.00134405,0.041852,678,1030,-40.6647,-0.867734
-539,-6,-40.6169,0.84729,0.00133298,0.000268538,-0.00057502,0.00158428,1.72358e-05,-0.412017,0.00105049,0.0407919,685,1030,-40.6169,-0.847236
-532,-6,-40.6882,0.976074,0.00219925,0.000157751,-0.000551989,0.00233894,1.80602e-05,-0.247864,0.00155331,0.0419789,692,1030,-40.6883,-0.976054
-525,-6,0,0,0,0,0,0,0,0,0,-1,699,1030,0,0
-518,-6,0,0,0,0,0,0,0,0,0,-1,706,1030,0,0
-511,-6,0,0,0,0,0,0,0,0,0,-1,713,1030,0,0
-504,-6,0,0,0,0,0,0,0,0,0,-1,720,1030,0,0
-497,-6,0,0,0,0,0,0,0,0,0,-1,727,1030,0,0
-490,-6,0,0,0,0,0,0,0,0,0,-1,734,1030,0,0
-483,-6,0,0,0,0,0,0,0,0,0,-1,741,1030,0,0
-476,-6,0,0,0,0,0,0,0,0,0,-1,748,1030,0,0
-469,-6,0,0,0,0,0,0,0,0,0,-1,755,1030,0,0
-462,-6,0,0,0,0,0,0,0,0,0,-1,762,1030,0,0
-455,-6,0,0,0,0,0,0,0,0,0,-1,769,1030,0,0
-448,-6,0,0,0,0,0,0,0,0,0,-1,776,1030,0,0
-441,-6,0,0,0,0,0,0,0,0,0,-1,783,1030,0,0
-434,-6,0,0,0,0,0,0,0,0,0,-1,790,1030,0,0
-427,-6,0,0,0,0,0,0,0,0,0,-1,797,1030,0,0
-420,-6,0,0,0,0,0,0,0,0,0,-1,804,1030,0,0
-413,-6,0,0,0,0,0,0,0,0,0,-1,811,1030,0,0
-406,-6,0,0,0,0,0,0,0,0,0,-1,818,1030,0,0
-399,-6,0,0,0,0,0,0,0,0,0,-1,825,1030,0,0
-392,-6,0,0,0,0,0,0,0,0,0,-1,832,1030,0,0
-385,-6,0,0,0,0,0,0,0,0,0,-1,839,1030,0,0
-378,-6,0,0,0,0,0,0,0,0,0,-1,846,1030,0,0
-371,-6,0,0,0,0,0,0,0,0,0,-1,853,1030,0,0
-364,-6,0,0,0,0,0,0,0,0,0,-1,860,1030,0,0
-357,-6,0,0,0,0,0,0,0,0,0,-1,867,1030,0,0
-350,-6,0,0,0,0,0,0,0,0,0,-1,874,1030,0,0
-343,-6,0,0,0,0,0,0,0,0,0,-1,881,1030,0,0
-336,-6,0,0,0,0,0,0,0,0,0,-1,888,1030,0,0
-329,-6,0,0,0,0,0,0,0,0,0,-1,895,1030,0,0
-322,-6,0,0,0,0,0,0,0,0,0,-1,902,1030,0,0
-315,-6,0,0,0,0,0,0,0,0,0,-1,909,1030,0,0
-308,-6,0,0,0,0,0,0,0,0,0,-1,916,1030,0,0
-301,-6,0,0,0,0,0,0,0,0,0,-1,923,1030,0,0
-294,-6,0,0,0,0,0,0,0,0,0,-1,930,1030,0,0
-287,-6,0,0,0,0,0,0,0,0,0,-1,937,1030,0,0
-280,-6,0,0,0,0,0,0,0,0,0,-1,944,1030,0,0
-273,-6,0,0,0,0,0,0,0,0,0,-1,951,1030,0,0
-266,-6,0,0,0,0,0,0,0,0,0,-1,958,1030,0,0
-259,-6,0,0,0,0,0,0,0,0,0,-1,965,1030,0,0
-252,-6,0,0,0,0,0,0,0,0,0,-1,972,1030,0,0
-245,-6,0,0,0,0,0,0,0,0,0,-1,979,1030,0,0
-238,-6,0,0,0,0,0,0,0,0,0,-1,986,1030,0,0
-231,-6,0,0,0,0,0,0,0,0,0,-1,993,1030,0,0
-224,-6,0,0,0,0,0,0,0,0,0,-1,1000,1030,0,0
-217,-6,0,0,0,0,0,0,0,0,0,-1,1007,1030,0,0
-210,-6,0,0,0,0,0,0,0,0,0,-1,1014,1030,0,0
-203,-6,0,0,0,0,0,0,0,0,0,-1,1021,1030,0,0
-196,-6,0,0,0,0,0,0,0,0,0,-1,1028,1030,0,0
-189,-6,0,0,0,0,0,0,0,0,0,-1,1035,1030,0,0
-182,-6,0,0,0,0,0,0,0,0,0,-1,1042,1030,0,0
-175,-6,0,0,0,0,0,0,0,0,0,-1,1049,1030,0,0
-168,-6,0,0,0,0,0,0,0,0,0,-1,1056,1030,0,0
-161,-6,0,0,0,0,0,0,0,0,0,-1,1063,1030,0,0
-154,-6,0,0,0,0,0,0,0,0,0,-1,1070,1030,0,0
-147,-6,0,0,0,0,0,0,0,0,0,-1,1077,1030,0,0
-140,-6,0,0,0,0,0,0,0,0,0,-1,1084,1030,0,0
-133,-6,0,0,0,0,0,0,0,0,0,-1,1091,1030,0,0
-126,-6,0,0,0,0,0,0,0,0,0,-1,1098,1030,0,0
-119,-6,0,0,0,0,0,0,0,0,0,-1,1105,1030,0,0
-112,-6,0,0,0,0,0,0,0,0,0,-1,1112,1030,0,0
-105,-6,0,0,0,0,0,0,0,0,0,-1,1119,1030,0,0
-98,-6,0,0,0,0,0,0,0,0,0,-1,1126,1030,0,0
-91,-6,0,0,0,0,0,0,0,0,0,-1,1133,1030,0,0
-84,-6,0,0,0,0,0,0,0,0,0,-1,1140,1030,0,0
-77,-6,0,0,0,0,0,0,0,0,0,-1,1147,1030,0,0
-70,-6,0,0,0,0,0,0,0,0,0,-1,1154,1030,0,0
-63,-6,0,0,0,0,0,0,0,0,0,-1,1161,1030,0,0
-56,-6,0,0,0,0,0,0,0,0,0,-1,1168,1030,0,0
-49,-6,0,0,0,0,0,0,0,0,0,-1,1175,1030,0,0
-42,-6,0,0,0,0,0,0,0,0,0,-1,1182,1030,0,0
-35,-6,0,0,0,0,0,0,0,0,0,-1,1189,1030,0,0
-28,-6,0,0,0,0,0,0,0,0,0,-1,1196,1030,0,0
-21,-6,0,0,0,0,0,0,0,0,0,-1,1203,1030,0,0
-14,-6,0,0,0,0,0,0,0,0,0,-1,1210,1030,0,0
-7,-6,0,0,0,0,0,0,0,0,0,-1,1217,1030,0,0
0,-6,0,0,0,0,0,0,0,0,0,-1,1224,1030,0,0
7,-6,0,0,0,0,0,0,0,0,0,-1,1231,1030,0,0
14,-6,0,0,0,0,0,0,0,0,0,-1,1238,1030,0,0
21,-6,0,0,0,0,0,0,0,0,0,-1,1245,1030,0,0
28,-6,0,0,0,0,0,0,0,0,0,-1,1252,1030,0,0
35,-6,0,0,0,0,0,0,0,0,0,-1,1259,1030,0,0
42,-6,0,0,0,0,0,0,0,0,0,-1,1266,1030,0,0
49,-6,0,0,0,0,0,0,0,0,0,-1,1273,1030,0,0
56,-6,0,0,0,0,0,0,0,0,0,-1,1280,1030,0,0
63,-6,0,0,0,0,0,0,0,0,0,-1,1287,1030,0,0
70,-6,0,0,0,0,0,0,0,0,0,-1,1294,1030,0,0
77,-6,0,0,0,0,0,0,0,0,0,-1,1301,1030,0,0
84,-6,0,0,0,0,0,0,0,0,0,-1,1308,1030,0,0
91,-6,0,0,0,0,0,0,0,0,0,-1,1315,1030,0,0
98,-6,0,0,0,0,0,0,0,0,0,-1,1322,1030,0,0
105,-6,0,0,0,0,0,0,0,0,0,-1,1329,1030,0,0
112,-6,0,0,0,0,0,0,0,0,0,-1,1336,1030,0,0
119,-6,0,0,0,0,0,0,0,0,0,-1,1343,1030,0,0
126,-6,0,0,0,0,0,0,0,0,0,-1,1350,1030,0,0
133,-6,0,0,0,0,0,0,0,0,0,-1,1357,1030,0,0
140,-6,0,0,0,0,0,0,0,0,0,-1,1364,1030,0,0
147,-6,0,0,0,0,0,0,0,0,0,-1,1371,1030,0,0
154,-6,0,0,0,0,0,0,0,0,0,-1,1378,1030,0,0
161,-6,0,0,0,0,0,0,0,0,0,-1,1385,1030,0,0
168,-6,0,0,0,0,0,0,0,0,0,-1,1392,1030,0,0
175,-6,0,0,0,0,0,0,0,0,0,-1,1399,1030,0,0
182,-6,0,0,0,0,0,0,0,0,0,-1,1406,1030,0,0
189,-6,0,0,0,0,0,0,0,0,0,-1,1413,1030,0,0
196,-6,0,0,0,0,0,0,0,0,0,-1,1420,1030,0,0
203,-6,0,0,0,0,0,0,0,0,0,-1,1427,1030,0,0
210,-6,0,0,0,0,0,0,0,0,0,-1,1434,1030,0,0
217,-6,0,0,0,0,0,0,0,0,0,-1,1441,1030,0,0
224,-6,0,0,0,0,0,0,0,0,0,-1,1448,1030,0,0
231,-6,0,0,0,0,0,0,0,0,0,-1,1455,1030,0,0
238,-6,0,0,0,0,0,0,0,0,0,-1,1462,1030,0,0
245,-6,0,0,0,0,0,0,0,0,0,-1,1469,1030,0,0
252,-6,0,0,0,0,0,0,0,0,0,-1,1476,1030,0,0
259,-6,0,0,0,0,0,0,0,0,0,-1,1483,1030,0,0
266,-6,0,0,0,0,0,0,0,0,0,-1,1490,1030,0,0
273,-6,0,0,0,0,0,0,0,0,0,-1,1497,1030,0,0
280,-6,0,0,0,0,0,0,0,0,0,-1,1504,1030,0,0
287,-6,0,0,0,0,0,0,0,0,0,-1,1511,1030,0,0
294,-6,0,0,0,0,0,0,0,0,0,-1,1518,1030,0,0
301,-6,0,0,0,0,0,0,0,0,0,-1,1525,1030,0,0
308,-6,0,0,0,0,0,0,0,0,0,-1,1532,1030,0,0
315,-6,0,0,0,0,0,0,0,0,0,-1,1539,1030,0,0
322,-6,0,0,0,0,0,0,0,0,0,-1,1546,1030,0,0
329,-6,0,0,0,0,0,0,0,0,0,-1,1553,1030,0,0
336,-6,0,0,0,0,0,0,0,0,0,-1,1560,1030,0,0
343,-6,0,0,0,0,0,0,0,0,0,-1,1567,1030,0,0
350,-6,0,0,0,0,0,0,0,0,0,-1,1574,1030,0,0
357,-6,0,0,0,0,0,0,0,0,0,-1,1581,1030,0,0
364,-6,0,0,0,0,0,0,0,0,0,-1,1588,1030,0,0
371,-6,0,0,0,0,0,0,0,0,0,-1,1595,1030,0,0
378,-6,0,0,0,0,0,0,0,0,0,-1,1602,1030,0,0
385,-6,0,0,0,0,0,0,0,0,0,-1,1609,1030,0,0
392,-6,0,0,0,0,0,0,0,0,0,-1,1616,1030,0,0
399,-6,0,0,0,0,0,0,0,0,0,-1,1623,1030,0,0
406,-6,0,0,0,0,0,0,0,0,0,-1,1630,1030,0,0
413,-6,0,0,0,0,0,0,0,0,0,-1,1637,1030,0,0
420,-6,0,0,0,0,0,0,0,0,0,-1,1644,1030,0,0
427,-6,0,0,0,0,0,0,0,0,0,-1,1651,1030,0,0
434,-6,0,0,0,0,0,0,0,0,0,-1,1658,1030,0,0
441,-6,0,0,0,0,0,0,0,0,0,-1,1665,1030,0,0
448,-6,0,0,0,0,0,0,0,0,0,-1,1672,1030,0,0
455,-6,0,0,0,0,0,0,0,0,0,-1,1679,1030,0,0
462,-6,0,0,0,0,0,0,0,0,0,-1,1686,1030,0,0
469,-6,0,0,0,0,0,0,0,0,0,-1,1693,1030,0,0
476,-6,0,0,0,0,0,0,0,0,0,-1,1700,1030,0,0
483,-6,0,0,0,0,0,0,0,0,0,-1,1707,1030,0,0
490,-6,0,0,0,0,0,0,0,0,0,-1,1714,1030,0,0
497,-6,0,0,0,0,0,0,0,0,0,-1,1721,1030,0,0
504,-6,0,0,0,0,0,0,0,0,0,-1,1728,1030,0,0
511,-6,0,0,0,0,0,0,0,0,0,-1,1735,1030,0,0
518,-6,0,0,0,0,0,0,0,0,0,-1,1742,1030,0,0
525,-6,0,0,0,0,0,0,0,0,0,-1,1749,1030,0,0
532,-6,0,0,0,0,0,0,0,0,0,-1,1756,1030,0,0
539,-6,0,0,0,0,0,0,0,0,0,-1,1763,1030,0,0
546,-6,0,0,0,0,0,0,0,0,0,-1,1770,1030,0,0
553,-6,0,0,0,0,0,0,0,0,0,-1,1777,1030,0,0
560,-6,0,0,0,0,0,0,0,0,0,-1,1784,1030,0,0
567,-6,0,0,0,0,0,0,0,0,0,-1,1791,1030,0,0
574,-6,0,0,0,0,0,0,0,0,0,-1,1798,1030,0,0
581,-6,0,0,0,0,0,0,0,0,0,-1,1805,1030,0,0
588,-6,0,0,0,0,0,0,0,0,0,-1,1812,1030,0,0
595,-6,0,0,0,0,0,0,0,0,0,-1,1819,1030,0,0
602,-6,0,0,0,0,0,0,0,0,0,-1,1826,1030,0,0
609,-6,0,0,0,0,0,0,0,0,0,-1,1833,1030,0,0
616,-6,0,0,0,0,0,0,0,0,0,-1,1840,1030,0,0
623,-6,0,0,0,0,0,0,0,0,0,-1,1847,1030,0,0
630,-6,0,0,0,0,0,0,0,0,0,-1,1854,1030,0,0
637,-6,0,0,0,0,0,0,0,0,0,-1,1861,1030,0,0
644,-6,0,0,0,0,0,0,0,0,0,-1,1868,1030,0,0
651,-6,54.0546,2.9646,0.00327941,0.00272977,0.0025129,0.00553247,0.000476704,0.730934,0.00354013,0.0375508,1875,1030,54.0546,-2.96463
658,-6,54.2113,2.87219,0.00220038,0.00191998,0.00186637,0.00393182,0.000188551,0.747909,0.00256068,0.0398811,1882,1030,54.2113,-2.87217
665,-6,54.3423,2.75427,0.00129759,0.0014612,0.00151162,0.00289322,-0.000134434,0.812432,0.00197515,0.0438578,1889,1030,54.3423,-2.75432
672,-6,54.3823,2.60938,0.000514944,0.0012976,0.00156393,0.00251842,-0.000705869,0.907992,0.00195713,0.0425611,1896,1030,54.3824,-2.6094
679,-6,54.2847,2.55212,-0.00014188,0.00134626,0.00189594,0.00263891,-0.00143453,0.972391,0.00238582,0.0394251,1903,1030,54.2847,-2.55212
686,-6,53.9238,2.55969,-0.000864602,0.00127556,0.00234992,0.00278757,-0.00237661,0.999053,0.00298469,0.0378336,1910,1030,53.9239,-2.55966
693,-6,53.8212,2.73291,-0.00143895,0.00114742,0.00286133,0.00299422,-0.00328575,0.997636,0.00362704,0.0374668,1917,1030,53.8211,-2.73295
700,-6,54.0417,2.76453,-0.00176669,0.000983001,0.00328306,0.00316747,-0.00395116,0.983689,0.00411823,0.0317515,1924,1030,54.0418,-2.76447
707,-6,54.0228,2.67615,-0.00230594,0.00114786,0.00343843,0.00326869,-0.00442676,1.01811,0.00445971,0.0269135,1931,1030,54.0228,-2.67609
714,-6,54.0331,2.64514,-0.00301598,0.00163981,0.0034348,0.00346125,-0.00483742,1.08321,0.00481314,0.0286196,1938,1030,54.0331,-2.64513
721,-6,54.0513,2.59717,0,0,0,0,0,0,0,-1,1945,1030,54.0512,-2.59719
728,-6,53.1713,6.25494,0,0,0,0,0,0,0,-1,1952,1030,53.1713,-6.25495
735,-6,53.9209,6.27667,0,0,0,0,0,0,0,-1,1959,1030,53.9209,-6.27668
742,-6,53.9817,6.38971,0,0,0,0,0,0,0,-1,1966,1030,53.9816,-6.38971
749,-6,53.9364,6.05414,0,0,0,0,0,0,0,-1,1973,1030,53.9364,-6.05413
756,-6,53.9769,6.10712,-0.00617441,0.00793635,-0.00185039,0.00817496,-0.00641302,-1.44255,0.00844282,0.0264404,1980,1030,53.977,-6.1071
763,-6,53.8467,5.99963,-0.00551155,0.00788224,-0.00511382,0.00961147,-0.00724078,-1.24472,0.00976168,0.0199473,1987,1030,53.8467,-5.99959
770,-6,53.7671,5.95508,-0.00397646,0.00824928,-0.00951854,0.0134488,-0.00917596,-1.07084,0.0131398,0.0171531,1994,1030,53.767,-5.95502
777,-6,53.6606,5.92163,-0.000703337,0.00741796,-0.015815,0.0196853,-0.0129707,-0.911063,0.0189863,0.0196329,2001,1030,53.6607,-5.92158
784,-6,53.5234,5.82935,0.00360181,0.0052425,-0.0231361,0.0275728,-0.0187285,-0.803119,0.0268942,0.0441351,2008,1030,53.5234,-5.82934
791,-6,53.3447,5.88855,0.00892562,0.00133171,-0.0315893,0.0369453,-0.026688,-0.725586,0.0368975,0.0463626,2015,1030,53.3447,-5.88856
798,-6,53.1736,5.93164,0,0,0,0,0,0,0,-1,2022,1030,53.1735,-5.93164
805,-6,53.4292,4.00781,0.0230715,-0.0143264,-0.0525304,0.0601318,-0.0513868,-0.614409,0.0644512,0.0476147,2029,1030,53.4291,-4.00778
812,-6,53.1731,3.45325,0.0317993,-0.0280394,-0.0650812,0.0735091,-0.0697492,-0.569943,0.0827197,0.0431353,2036,1030,53.1731,-3.45321
-700,-13,0,0,0,0,0,0,0,0,0,-1,524,1037,0,0
-693,-13,-38.2625,-0.272705,-0.023783,0.111618,0.0630137,0.136405,-0.0485709,1.19602,0.110737,0.0482537,531,1037,-38.2625,0.272703
-686,-13,-38.6018,-0.0440674,-0.0243787,0.101133,0.058027,0.123849,-0.0470946,1.19766,0.101957,0.0448613,538,1037,-38.6018,0.0440317
-679,-13,-39.5049,0.450562,-0.0231962,0.0888529,0.051399,0.108859,-0.043202,1.19961,0.090479,0.0469721,545,1037,-39.505,-0.450524
-672,-13,-40.2451,0.859985,0,0,0,0,0,0,0,-1,552,1037,-40.2451,-0.859985
-665,-13,-40.3223,1.53589,0,0,0,0,0,0,0,-1,559,1037,-40.3223,-1.53593
-658,-13,-40.585,2.04114,0,0,0,0,0,0,0,-1,566,1037,-40.585,-2.04114
-651,-13,-40.6918,2.46899,-0.0120854,0.0416424,0.0246034,0.0512064,-0.0216494,1.20004,0.0432018,0.0407085,573,1037,-40.6918,-2.46897
-644,-13,-40.74,2.96375,-0.00966786,0.0319025,0.0184382,0.0389021,-0.0166674,1.20798,0.032928,0.0325701,580,1037,-40.74,-2.96374
-637,-13,-40.8223,3.20862,-0.00705486,0.0229955,0.0125583,0.0275526,-0.011612,1.22269,0.0232276,0.0264716,587,1037,-40.8222,-3.20863
-630,-13,-40.9655,3.22327,-0.00555816,0.0144117,0.00704968,0.0166496,-0.00779603,1.26341,0.0144189,0.0165386,594,1037,-40.9655,-3.22331
-623,-13,-41.0082,3.37146,-0.00401503,0.00838709,0.00326567,0.00919444,-0.00482238,1.32843,0.00822279,0.013895,601,1037,-41.0082,-3.37142
-616,-13,-41.0072,3.52637,-0.00254541,0.00447444,0.000601896,0.00452567,-0.00259664,1.48588,0.00416204,0.013337,608,1037,-41.0072,-3.52632
-609,-13,-40.981,3.66602,-0.0017531,0.00244953,-0.00128376,0.00281064,-0.00211421,-1.29659,0.00285283,0.0188894,615,1037,-40.981,-3.66606
-602,-13,-40.9505,3.77576,-0.00148298,0.000646404,-0.00224334,0.00206488,-0.00290145,-1.00696,0.00288084,0.0142879,622,1037,-40.9505,-3.77574
-595,-13,-40.976,3.87073,0,0,0,0,0,0,0,-1,629,1037,-40.976,-3.87067
-588,-13,-40.5591,1.78662,0,0,0,0,0,0,0,-1,636,1037,-40.5591,-1.78666
-581,-13,-40.605,0.794189,2.86581e-05,-0.00148973,-0.00276475,0.00213655,-0.00359763,-0.651402,0.00334626,0.0236284,643,1037,-40.605,-0.794164
-574,-13,-40.6379,0.83374,0.000326093,-0.00164059,-0.00261599,0.00213745,-0.00345195,-0.60562,0.00325665,0.0328881,650,1037,-40.6379,-0.833746
-567,-13,-40.7014,1.07227,0.000451263,-0.00135154,-0.00230056,0.00202071,-0.00292099,-0.598681,0.00286883,0.0380043,657,1037,-40.7014,-1.07225
-560,-13,-40.5956,0.860596,0.000586568,-0.000712513,-0.00184993,0.00189768,-0.00202362,-0.616564,0.00226436,0.0405185,664,1037,-40.5956,-0.860565
-553,-13,-40.5909,0.497192,0.000775081,8.0648e-05,-0.00129649,0.00177004,-0.000914314,-0.654562,0.00157584,0.0418635,671,1037,-40.5909,-0.497175
-546,-13,-40.7059,0.641113,0.00114716,0.000672931,-0.000685527,0.00163542,0.000184669,-0.618896,0.00103423,0.0388597,678,1037,-40.7059,-0.641083
-539,-13,-40.724,0.898193,0.00155169,0.000851611,-0.000393605,0.00172839,0.000674914,-0.421956,0.00100583,0.0396093,685,1037,-40.724,-0.898206
-532,-13,-40.7211,1.00647,0.0022883,0.000830398,-0.000265786,0.00233525,0.000783455,-0.174817,0.00137237,0.0409351,692,1037,-40.721,-1.00645
-525,-13,0,0,0,0,0,0,0,0,0,-1,699,1037,0,0
-518,-13,0,0,0,0,0,0,0,0,0,-1,706,1037,0,0
-511,-13,0,0,0,0,0,0,0,0,0,-1,713,1037,0,0
-504,-13,0,0,0,0,0,0,0,0,0,-1,720,1037,0,0
-497,-13,0,0,0,0,0,0,0,0,0,-1,727,1037,0,0
-490,-13,0,0,0,0,0,0,0,0,0,-1,734,1037,0,0
-483,-13,0,0,0,0,0,0,0,0,0,-1,741,1037,0,0
-476,-13,0,0,0,0,0,0,0,0,0,-1,748,1037,0,0
-469,-13,0,0,0,0,0,0,0,0,0,-1,755,1037,0,0
-462,-13,0,0,0,0,0,0,0,0,0,-1,762,1037,0,0
-455,-13,0,0,0,0,0,0,0,0,0,-1,769,1037,0,0
-448,-13,0,0,0,0,0,0,0,0,0,-1,776,1037,0,0
-441,-13,0,0,0,0,0,0,0,0,0,-1,783,1037,0,0
-434,-13,0,0,0,0,0,0,0,0,0,-1,790,1037,0,0
-427,-13,0,0,0,0,0,0,0,0,0,-1,797,1037,0,0
-420,-13,0,0,0,0,0,0,0,0,0,-1,804,1037,0,0
-413,-13,0,0,0,0,0,0,0,0,0,-1,811,1037,0,0
-406,-13,0,0,0,0,0,0,0,0,0,-1,818,1037,0,0
-399,-13,0,0,0,0,0,0,0,0,0,-1,825,1037,0,0
-392,-13,0,0,0,0,0,0,0,0,0,-1,832,1037,0,0
-385,-13,0,0,0,0,0,0,0,0,0,-1,839,1037,0,0
-378,-13,0,0,0,0,0,0,0,0,0,-1,846,1037,0,0
-371,-13,0,0,0,0,0,0,0,0,0,-1,853,1037,0,0
-364,-13,0,0,0,0,0,0,0,0,0,-1,860,1037,0,0
-357,-13,0,0,0,0,0,0,0,0,0,-1,867,1037,0,0
-350,-13,0,0,0,0,0,0,0,0,0,-1,874,1037,0,0
-343,-13,0,0,0,0,0,0,0,0,0,-1,881,1037,0,0
-336,-13,0,0,0,0,0,0,0,0,0,-1,888,1037,0,0
-329,-13,0,0,0,0,0,0,0,0,0,-1,895,1037,0,0
-322,-13,0,0,0,0,0,0,0,0,0,-1,902,1037,0,0
-315,-13,0,0,0,0,0,0,0,0,0,-1,909,1037,0,0
-308,-13,0,0,0,0,0,0,0,0,0,-1,916,1037,0,0
-301,-13,0,0,0,0,0,0,0,0,0,-1,923,1037,0,0
-294,-13,0,0,0,0,0,0,0,0,0,-1,930,1037,0,0
-287,-13,0,0,0,0,0,0,0,0,0,-1,937,1037,0,0
-280,-13,0,0,0,0,0,0,0,0,0,-1,944,1037,0,0
-273,-13,0,0,0,0,0,0,0,0,0,-1,951,1037,0,0
-266,-13,0,0,0,0,0,0,0,0,0,-1,958,1037,0,0
-259,-13,0,0,0,0,0,0,0,0,0,-1,965,1037,0,0
-252,-13,0,0,0,0,0,0,0,0,0,-1,972,1037,0,0
-245,-13,0,0,0,0,0,0,0,0,0,-1,979,1037,0,0
-238,-13,0,0,0,0,0,0,0,0,0,-1,986,1037,0,0
-231,-13,0,0,0,0,0,0,0,0,0,-1,993,1037,0,0
-224,-13,0,0,0,0,0,0,0,0,0,-1,1000,1037,0,0
-217,-13,0,0,0,0,0,0,0,0,0,-1,1007,1037,0,0
-210,-13,0,0,0,0,0,0,0,0,0,-1,1014,1037,0,0
-203,-13,0,0,0,0,0,0,0,0,0,-1,1021,1037,0,0
-196,-13,0,0,0,0,0,0,0,0,0,-1,1028,1037,0,0
-189,-13,0,0,0,0,0,0,0,0,0,-1,1035,1037,0,0
-182,-13,0,0,0,0,0,0,0,0,0,-1,1042,1037,0,0
-175,-13,0,0,0,0,0,0,0,0,0,-1,1049,1037,0,0
-168,-13,0,0,0,0,0,0,0,0,0,-1,1056,1037,0,0
-161,-13,0,0,0,0,0,0,0,0,0,-1,1063,1037,0,0
-154,-13,0,0,0,0,0,0,0,0,0,-1,1070,1037,0,0
-147,-13,0,0,0,0,0,0,0,0,0,-1,1077,1037,0,0
-140,-13,0,0,0,0,0,0,0,0,0,-1,1084,1037,0,0
-133,-13,0,0,0,0,0,0,0,0,0,-1,1091,1037,0,0
-126,-13,0,0,0,0,0,0,0,0,0,-1,1098,1037,0,0
-119,-13,0,0,0,0,0,0,0,0,0,-1,1105,1037,0,0
-112,-13,0,0,0,0,0,0,0,0,0,-1,1112,1037,0,0
-105,-13,0,0,0,0,0,0,0,0,0,-1,1119,1037,0,0
-98,-13,0,0,0,0,0,0,0,0,0,-1,1126,1037,0,0
-91,-13,0,0,0,0,0,0,0,0,0,-1,1133,1037,0,0
-84,-13,0,0,0,0,0,0,0,0,0,-1,1140,1037,0,0
-77,-13,0,0,0,0,0,0,0,0,0,-1,1147,1037,0,0
-70,-13,0,0,0,0,0,0,0,0,0,-1,1154,1037,0,0
-63,-13,0,0,0,0,0,0,0,0,0,-1,1161,1037,0,0
-56,-13,0,0,0,0,0,0,0,0,0,-1,1168,1037,0,0
-49,-13,0,0,0,0,0,0,0,0,0,-1,1175,1037,0,0
-42,-13,0,0,0,0,0,0,0,0,0,-1,1182,1037,0,0
-35,-13,0,0,0,0,0,0,0,0,0,-1,1189,1037,0,0
-28,-13,0,0,0,0,0,0,0,0,0,-1,1196,1037,0,0
-21,-13,0,0,0,0,0,0,0,0,0,-1,1203,1037,0,0
-14,-13,0,0,0,0,0,0,0,0,0,-1,1210,1037,0,0
-7,-13,0,0,0,0,0,0,0,0,0,-1,1217,1037,0,0
0,-13,0,0,0,0,0,0,0,0,0,-1,1224,1037,0,0
7,-13,0,0,0,0,0,0,0,0,0,-1,1231,1037,0,0
14,-13,0,0,0,0,0,0,0,0,0,-1,1238,1037,0,0
21,-13,0,0,0,0,0,0,0,0,0,-1,1245,1037,0,0
28,-13,0,0,0,0,0,0,0,0,0,-1,1252,1037,0,0
35,-13,0,0,0,0,0,0,0,0,0,-1,1259,1037,0,0
42,-13,0,0,0,0,0,0,0,0,0,-1,1266,1037,0,0
49,-13,0,0,0,0,0,0,0,0,0,-1,1273,1037,0,0
56,-13,0,0,0,0,0,0,0,0,0,-1,1280,1037,0,0
63,-13,0,0,0,0,0,0,0,0,0,-1,1287,1037,0,0
70,-13,0,0,0,0,0,0,0,0,0,-1,1294,1037,0,0
77,-13,0,0,0,0,0,0,0,0,0,-1,1301,1037,0,0
84,-13,0,0,0,0,0,0,0,0,0,-1,1308,1037,0,0
91,-13,0,0,0,0,0,0,0,0,0,-1,1315,1037,0,0
98,-13,0,0,0,0,0,0,0,0,0,-1,1322,1037,0,0
105,-13,0,0,0,0,0,0,0,0,0,-1,1329,1037,0,0
112,-13,0,0,0,0,0,0,0,0,0,-1,1336,1037,0,0
119,-13,0,0,0,0,0,0,0,0,0,-1,1343,1037,0,0
126,-13,0,0,0,0,0,0,0,0,0,-1,1350,1037,0,0
133,-13,0,0,0,0,0,0,0,0,0,-1,1357,1037,0,0
140,-13,0,0,0,0,0,0,0,0,0,-1,1364,1037,0,0
147,-13,0,0,0,0,0,0,0,0,0,-1,1371,1037,0,0
154,-13,0,0,0,0,0,0,0,0,0,-1,1378,1037,0,0
161,-13,0,0,0,0,0,0,0,0,0,-1,1385,1037,0,0
168,-13,0,0,0,0,0,0,0,0,0,-1,1392,1037,0,0
175,-13,0,0,0,0,0,0,0,0,0,-1,1399,1037,0,0
182,-13,0,0,0,0,0,0,0,0,0,-1,1406,1037,0,0
189,-13,0,0,0,0,0,0,0,0,0,-1,1413,1037,0,0
196,-13,0,0,0,0,0,0,0,0,0,-1,1420,1037,0,0
203,-13,0,0,0,0,0,0,0,0,0,-1,1427,1037,0,0
210,-13,0,0,0,0,0,0,0,0,0,-1,1434,1037,0,0
217,-13,0,0,0,0,0,0,0,0,0,-1,1441,1037,0,0
224,-13,0,0,0,0,0,0,0,0,0,-1,1448,1037,0,0
231,-13,0,0,0,0,0,0,0,0,0,-1,1455,1037,0,0
238,-13,0,0,0,0,0,0,0,0,0,-1,1462,1037,0,0
245,-13,0,0,0,0,0,0,0,0,0,-1,1469,1037,0,0
252,-13,0,0,0,0,0,0,0,0,0,-1,1476,1037,0,0
259,-13,0,0,0,0,0,0,0,0,0,-1,1483,1037,0,0
266,-13,0,0,0,0,0,0,0,0,0,-1,1490,1037,0,0
273,-13,0,0,0,0,0,0,0,0,0,-1,1497,1037,0,0
280,-13,0,0,0,0,0,0,0,0,0,-1,1504,1037,0,0
287,-13,0,0,0,0,0,0,0,0,0,-1,1511,1037,0,0
294,-13,0,0,0,0,0,0,0,0,0,-1,1518,1037,0,0
301,-13,0,0,0,0,0,0,0,0,0,-1,1525,1037,0,0
308,-13,0,0,0,0,0,0,0,0,0,-1,1532,1037,0,0
315,-13,0,0,0,0,0,0,0,0,0,-1,1539,1037,0,0
322,-13,0,0,0,0,0,0,0,0,0,-1,1546,1037,0,0
329,-13,0,0,0,0,0,0,0,0,0,-1,1553,1037,0,0
336,-13,0,0,0,0,0,0,0,0,0,-1,1560,1037,0,0
343,-13,0,0,0,0,0,0,0,0,0,-1,1567,1037,0,0
350,-13,0,0,0,0,0,0,0,0,0,-1,1574,1037,0,0
357,-13,0,0,0,0,0,0,0,0,0,-1,1581,1037,0,0
364,-13,0,0,0,0,0,0,0,0,0,-1,1588,1037,0,0
371,-13,0,0,0,0,0,0,0,0,0,-1,1595,1037,0,0
378,-13,0,0,0,0,0,0,0,0,0,-1,1602,1037,0,0
385,-13,0,0,0,0,0,0,0,0,0,-1,1609,1037,0,0
392,-13,0,0,0,0,0,0,0,0,0,-1,1616,1037,0,0
399,-13,0,0,0,0,0,0,0,0,0,-1,1623,1037,0,0
406,-13,0,0,0,0,0,0,0,0,0,-1,1630,1037,0,0
413,-13,0,0,0,0,0,0,0,0,0,-1,1637,1037,0,0
420,-13,0,0,0,0,0,0,0,0,0,-1,1644,1037,0,0
427,-13,0,0,0,0,0,0,0,0,0,-1,1651,1037,0,0
434,-13,0,0,0,0,0,0,0,0,0,-1,1658,1037,0,0
441,-13,0,0,0,0,0,0,0,0,0,-1,1665,1037,0,0
448,-13,0,0,0,0,0,0,0,0,0,-1,1672,1037,0,0
455,-13,0,0,0,0,0,0,0,0,0,-1,1679,1037,0,0
462,-13,0,0,0,0,0,0,0,0,0,-1,1686,1037,0,0
469,-13,0,0,0,0,0,0,0,0,0,-1,1693,1037,0,0
476,-13,0,0,0,0,0,0,0,0,0,-1,1700,1037,0,0
483,-13,0,0,0,0,0,0,0,0,0,-1,1707,1037,0,0
490,-13,0,0,0,0,0,0,0,0,0,-1,1714,1037,0,0
497,-13,0,0,0,0,0,0,0,0,0,-1,1721,1037,0,0
504,-13,0,0,0,0,0,0,0,0,0,-1,1728,1037,0,0
511,-13,0,0,0,0,0,0,0,0,0,-1,1735,1037,0,0
518,-13,0,0,0,0,0,0,0,0,0,-1,1742,1037,0,0
525,-13,0,0,0,0,0,0,0,0,0,-1,1749,1037,0,0
532,-13,0,0,0,0,0,0,0,0,0,-1,1756,1037,0,0
539,-13,0,0,0,0,0,0,0,0,0,-1,1763,1037,0,0
546,-13,0,0,0,0,0,0,0,0,0,-1,1770,1037,0,0
553,-13,0,0,0,0,0,0,0,0,0,-1,1777,1037,0,0
560,-13,0,0,0,0,0,0,0,0,0,-1,1784,1037,0,0
567,-13,0,0,0,0,0,0,0,0,0,-1,1791,1037,0,0
574,-13,0,0,0,0,0,0,0,0,0,-1,1798,1037,0,0
581,-13,0,0,0,0,0,0,0,0,0,-1,1805,1037,0,0
588,-13,0,0,0,0,0,0,0,0,0,-1,1812,1037,0,0
595,-13,0,0,0,0,0,0,0,0,0,-1,1819,1037,0,0
602,-13,0,0,0,0,0,0,0,0,0,-1,1826,1037,0,0
609,-13,0,0,0,0,0,0,0,0,0,-1,1833,1037,0,0
616,-13,0,0,0,0,0,0,0,0,0,-1,1840,1037,0,0
623,-13,0,0,0,0,0,0,0,0,0,-1,1847,1037,0,0
630,-13,0,0,0,0,0,0,0,0,0,-1,1854,1037,0,0
637,-13,0,0,0,0,0,0,0,0,0,-1,1861,1037,0,0
644,-13,0,0,0,0,0,0,0,0,0,-1,1868,1037,0,0
651,-13,54.1078,2.70337,0.00174305,0.00297513,0.00339912,0.00581358,-0.0010954,0.875042,0.00428775,0.0411876,1875,1037,54.1078,-2.7034
658,-13,54.1843,2.88281,0.001235,0.00220358,0.00248987,0.00425582,-0.000817238,0.881451,0.00314522,0.044751,1882,1037,54.1843,-2.88286
665,-13,54.2728,2.87451,0.00072139,0.00173456,0.00192834,0.00322175,-0.000765798,0.913848,0.00244343,0.0436383,1889,1037,54.2729,-2.87457
672,-13,54.2341,2.63855,0.000233528,0.00153682,0.00183924,0.00283645,-0.0010661,0.955649,0.00232913,0.0380781,1896,1037,54.2341,-2.6385
679,-13,54.1207,2.61487,-0.000213082,0.00153304,0.00207256,0.00290892,-0.00158896,0.984742,0.00263386,0.0389591,1903,1037,54.1207,-2.61485
686,-13,53.9409,2.57397,-0.000853064,0.00140781,0.00246978,0.00299357,-0.00243882,1.00002,0.00314184,0.0425152,1910,1037,53.9409,-2.57403
693,-13,53.9161,2.9021,-0.0014078,0.00122479,0.00296069,0.0031486,-0.00333162,0.994571,0.00374186,0.0423613,1917,1037,53.9161,-2.90214
700,-13,54.0049,2.72925,-0.00174562,0.00102174,0.0034072,0.0033155,-0.00403938,0.978277,0.00425319,0.0356124,1924,1037,54.0049,-2.72925
707,-13,54.0511,2.66223,-0.0022815,0.001122,0.00359137,0.00339441,-0.00455391,1.00665,0.00460521,0.0318026,1931,1037,54.0511,-2.66227
714,-13,54.0436,2.86475,-0.00298133,0.00153921,0.00361589,0.00354315,-0.00498527,1.06473,0.0049473,0.0309833,1938,1037,54.0436,-2.86469
721,-13,53.8958,3.09363,0,0,0,0,0,0,0,-1,1945,1037,53.8958,-3.09365
728,-13,53.9104,6.33813,0,0,0,0,0,0,0,-1,1952,1037,53.9104,-6.3381
735,-13,53.83,6.30261,-0.00606105,0.00432453,0.00325793,0.00526193,-0.00699844,1.29064,0.00710216,0.0319348,1959,1037,53.83,-6.30262
742,-13,53.8016,6.23816,-0.00640577,0.004814,0.00248579,0.00534008,-0.00693185,1.36224,0.00710504,0.0192855,1966,1037,53.8016,-6.23812
749,-13,53.8647,6.14941,-0.00635805,0.00620321,0.000921294,0.00627042,-0.00642526,1.49797,0.00733004,0.0253832,1973,1037,53.8648,-6.14941
756,-13,53.8568,6.0603,-0.00621768,0.00721411,-0.00119898,0.0073203,-0.00632387,-1.48246,0.00788446,0.0177339,1980,1037,53.8568,-6.06035
763,-13,53.8094,5.94385,-0.00565154,0.00704177,-0.00399529,0.00819461,-0.00680438,-1.28988,0.00867206,0.0251753,1987,1037,53.8094,-5.94386
770,-13,53.7163,5.87231,-0.00427759,0.0071427,-0.00785327,0.0111423,-0.00827722,-1.09974,0.0112525,0.0213525,1994,1037,53.7163,-5.8723
777,-13,53.573,5.75439,-0.00123881,0.0058746,-0.0132536,0.0160404,-0.0114046,-0.916488,0.0159206,0.0163074,2001,1037,53.573,-5.75436
784,-13,53.5435,5.68152,0.00278522,0.00312042,-0.0194184,0.0223719,-0.0164663,-0.789714,0.0225095,0.0358648,2008,1037,53.5435,-5.68155
791,-13,53.4937,5.63477,0.0077431,-0.00152167,-0.0264408,0.0299542,-0.0237328,-0.698679,0.0310655,0.0486791,2015,1037,53.4936,-5.63471
798,-13,53.4207,5.53699,0.0138168,-0.00885802,-0.0345333,0.0388261,-0.0338673,-0.626789,0.0420021,0.0479245,2022,1037,53.4207,-5.53695
805,-13,53.8247,3.80762,0.0211597,-0.0193453,-0.0434846,0.0488767,-0.0470624,-0.567465,0.0553938,0.0428176,2029,1037,53.8248,-3.80764
812,-13,53.9546,4.71997,0.0295619,-0.0345633,-0.0532861,0.0596879,-0.0646893,-0.514562,0.0718285,0.0456309,2036,1037,53.9545,-4.72001
-700,-20,-41.1972,-5.44434,0,0,0,0,0,0,0,-1,524,1044,-41.1972,5.44433
-693,-20,-38.0689,-0.89563,0,0,0,0,0,0,0,-1,531,1044,-38.0689,0.895651
-686,-20,-40.7078,-1.47485,-0.00991605,0.0911903,0.060294,0.11932,-0.0380457,1.13427,0.0948082,0.0469896,538,1044,-40.7078,1.4749
-679,-20,-39.7148,-0.509766,-0.010634,0.0800241,0.053584,0.10488,-0.0354902,1.13647,0.084279,0.0464098,545,1044,-39.7148,0.509748
-672,-20,-40.3354,0.333374,0,0,0,0,0,0,0,-1,552,1044,-40.3354,-0.333344
-665,-20,-40.406,0.992676,-0.00941032,0.0575134,0.0389956,0.075436,-0.0273328,1.13999,0.061462,0.0456708,559,1044,-40.406,-0.992687
-658,-20,-40.5878,1.77258,-0.00812573,0.0469889,0.0319339,0.0616119,-0.0227487,1.14138,0.0503989,0.0457772,566,1044,-40.5878,-1.77258
-651,-20,-40.5829,2.31567,-0.00674711,0.0372469,0.0252406,0.0487306,-0.0182308,1.14382,0.0399746,0.0410493,573,1044,-40.5829,-2.31567
-644,-20,-40.5827,2.72229,-0.00569475,0.0285628,0.0187778,0.0368506,-0.0139825,1.15515,0.0303223,0.0292063,580,1044,-40.5827,-2.72229
-637,-20,-40.6597,2.93909,-0.00434808,0.0205571,0.012703,0.0258931,-0.00968404,1.17312,0.0212392,0.0205489,587,1044,-40.6597,-2.93911
-630,-20,-40.7772,3.16785,-0.00381109,0.0128798,0.00715165,0.0155249,-0.00645622,1.21654,0.0130458,0.0169571,594,1044,-40.7772,-3.16782
-623,-20,-40.8096,3.35754,-0.00297518,0.00747535,0.00337014,0.00846791,-0.00396773,1.28438,0.00733475,0.015051,601,1044,-40.8096,-3.35753
-616,-20,-40.809,3.51099,-0.00199916,0.00400054,0.000726729,0.00408731,-0.00208593,1.45196,0.00362602,0.0151724,608,1044,-40.8089,-3.51098
-609,-20,-40.8222,3.65857,-0.00143617,0.00221771,-0.00111244,0.00252975,-0.00174821,-1.29732,0.00248358,0.0169831,615,1044,-40.8222,-3.65852
-602,-20,-40.7993,3.79797,-0.00133575,0.00050639,-0.00202751,0.00181224,-0.0026416,-0.998605,0.00258624,0.0146988,622,1044,-40.7992,-3.79795
-595,-20,-40.8327,3.98425,0,0,0,0,0,0,0,-1,629,1044,-40.8327,-3.98427
-588,-20,-40.5537,0.865234,0,0,0,0,0,0,0,-1,636,1044,-40.5537,-0.865189
-581,-20,-40.6073,0.819092,-1.35005e-05,-0.00132921,-0.00236434,0.0017828,-0.00312551,-0.64971,0.00286894,0.0318271,643,1044,-40.6073,-0.819114
-574,-20,-40.7335,0.961548,0.000287912,-0.00140208,-0.00216186,0.00176405,-0.00287822,-0.599095,0.00270583,0.0376309,650,1044,-40.7335,-0.96153
-567,-20,-40.7617,1.13293,0.000451809,-0.00105418,-0.00183237,0.00167987,-0.00228224,-0.590448,0.00229632,0.0398173,657,1044,-40.7617,-1.13288
-560,-20,-40.4794,0.811279,0.000650521,-0.000335047,-0.00139538,0.00163757,-0.0013221,-0.615657,0.001712,0.04333,664,1044,-40.4794,-0.811239
-553,-20,-40.4584,0.877808,0.000957615,0.000592483,-0.000872815,0.00166675,-0.000116655,-0.6823,0.00115202,0.0432794,671,1044,-40.4584,-0.877794
-546,-20,-40.6238,0.593018,0.00152004,0.0014218,-0.000295819,0.00177079,0.00117105,-0.703123,0.00103995,0.0407213,678,1044,-40.6239,-0.593018
-539,-20,-40.7668,0.716553,0.00212948,0.00194107,-3.79109e-05,0.00213683,0.00193373,-0.191299,0.00136191,0.0419375,685,1044,-40.7668,-0.716597
-532,-20,-40.734,0.801514,0.00289287,0.00235215,0.000380257,0.00308908,0.00215594,0.476366,0.00182947,0.0415449,692,1044,-40.734,-0.801571
-525,-20,0,0,0,0,0,0,0,0,0,-1,699,1044,0,0
-518,-20,0,0,0,0,0,0,0,0,0,-1,706,1044,0,0
-511,-20,0,0,0,0,0,0,0,0,0,-1,713,1044,0,0
-504,-20,0,0,0,0,0,0,0,0,0,-1,720,1044,0,0
-497,-20,0,0,0,0,0,0,0,0,0,-1,727,1044,0,0
-490,-20,0,0,0,0,0,0,0,0,0,-1,734,1044,0,0
-483,-20,0,0,0,0,0,0,0,0,0,-1,741,1044,0,0
-476,-20,0,0,0,0,0,0,0,0,0,-1,748,1044,0,0
-469,-20,0,0,0,0,0,0,0,0,0,-1,755,1044,0,0
-462,-20,0,0,0,0,0,0,0,0,0,-1,762,1044,0,0
-455,-20,0,0,0,0,0,0,0,0,0,-1,769,1044,0,0
-448,-20,0,0,0,0,0,0,0,0,0,-1,776,1044,0,0
-441,-20,0,0,0,0,0,0,0,0,0,-1,783,1044,0,0
-434,-20,0,0,0,0,0,0,0,0,0,-1,790,1044,0,0
-427,-20,0,0,0,0,0,0,0,0,0,-1,797,1044,0,0
-420,-20,0,0,0,0,0,0,0,0,0,-1,804,1044,0,0
-413,-20,0,0,0,0,0,0,0,0,0,-1,811,1044,0,0
-406,-20,0,0,0,0,0,0,0,0,0,-1,818,1044,0,0
-399,-20,0,0,0,0,0,0,0,0,0,-1,825,1044,0,0
-392,-20,0,0,0,0,0,0,0,0,0,-1,832,1044,0,0
-385,-20,0,0,0,0,0,0,0,0,0,-1,839,1044,0,0
-378,-20,0,0,0,0,0,0,0,0,0,-1,846,1044,0,0
-371,-20,0,0,0,0,0,0,0,0,0,-1,853,1044,0,0
-364,-20,0,0,0,0,0,0,0,0,0,-1,860,1044,0,0
-357,-20,0,0,0,0,0,0,0,0,0,-1,867,1044,0,0
-350,-20,0,0,0,0,0,0,0,0,0,-1,874,1044,0,0
-343,-20,0,0,0,0,0,0,0,0,0,-1,881,1044,0,0
-336,-20,0,0,0,0,0,0,0,0,0,-1,888,1044,0,0
-329,-20,0,0,0,0,0,0,0,0,0,-1,895,1044,0,0
-322,-20,0,0,0,0,0,0,0,0,0,-1,902,1044,0,0
-315,-20,0,0,0,0,0,0,0,0,0,-1,909,1044,0,0
-308,-20,0,0,0,0,0,0,0,0,0,-1,916,1044,0,0
-301,-20,0,0,0,0,0,0,0,0,0,-1,923,1044,0,0
-294,-20,0,0,0,0,0,0,0,0,0,-1,930,1044,0,0
-287,-20,0,0,0,0,0,0,0,0,0,-1,937,1044,0,0
-280,-20,0,0,0,0,0,0,0,0,0,-1,944,1044,0,0
-273,-20,0,0,0,0,0,0,0,0,0,-1,951,1044,0,0
-266,-20,0,0,0,0,0,0,0,0,0,-1,958,1044,0,0
-259,-20,0,0,0,0,0,0,0,0,0,-1,965,1044,0,0
-252,-20,0,0,0,0,0,0,0,0,0,-1,972,1044,0,0
-245,-20,0,0,0,0,0,0,0,0,0,-1,979,1044,0,0
-238,-20,0,0,0,0,0,0,0,0,0,-1,986,1044,0,0
-231,-20,0,0,0,0,0,0,0,0,0,-1,993,1044,0,0
-224,-20,0,0,0,0,0,0,0,0,0,-1,1000,1044,0,0
-217,-20,0,0,0,0,0,0,0,0,0,-1,1007,1044,0,0
-210,-20,0,0,0,0,0,0,0,0,0,-1,1014,1044,0,0
-203,-20,0,0,0,0,0,0,0,0,0,-1,1021,1044,0,0
-196,-20,0,0,0,0,0,0,0,0,0,-1,1028,1044,0,0
-189,-20,0,0,0,0,0,0,0,0,0,-1,1035,1044,0,0
-182,-20,0,0,0,0,0,0,0,0,0,-1,1042,1044,0,0
-175,-20,0,0,0,0,0,0,0,0,0,-1,1049,1044,0,0
-168,-20,0,0,0,0,0,0,0,0,0,-1,1056,1044,0,0
-161,-20,0,0,0,0,0,0,0,0,0,-1,1063,1044,0,0
-154,-20,0,0,0,0,0,0,0,0,0,-1,1070,1044,0,0
-147,-20,0,0,0,0,0,0,0,0,0,-1,1077,1044,0,0
-140,-20,0,0,0,0,0,0,0,0,0,-1,1084,1044,0,0
-133,-20,0,0,0,0,0,0,0,0,0,-1,1091,1044,0,0
-126,-20,0,0,0,0,0,0,0,0,0,-1,1098,1044,0,0
-119,-20,0,0,0,0,0,0,0,0,0,-1,1105,1044,0,0
-112,-20,0,0,0,0,0,0,0,0,0,-1,1112,1044,0,0
-105,-20,0,0,0,0,0,0,0,0,0,-1,1119,1044,0,0
-98,-20,0,0,0,0,0,0,0,0,0,-1,1126,1044,0,0
-91,-20,0,0,0,0,0,0,0,0,0,-1,1133,1044,0,0
-84,-20,0,0,0,0,0,0,0,0,0,-1,1140,1044,0,0
-77,-20,0,0,0,0,0,0,0,0,0,-1,1147,1044,0,0
-70,-20,0,0,0,0,0,0,0,0,0,-1,1154,1044,0,0
-63,-20,0,0,0,0,0,0,0,0,0,-1,1161,1044,0,0
-56,-20,0,0,0,0,0,0,0,0,0,-1,1168,1044,0,0
-49,-20,0,0,0,0,0,0,0,0,0,-1,1175,1044,0,0
-42,-20,0,0,0,0,0,0,0,0,0,-1,1182,1044,0,0
-35,-20,0,0,0,0,0,0,0,0,0,-1,1189,1044,0,0
-28,-20,0,0,0,0,0,0,0,0,0,-1,1196,1044,0,0
-21,-20,0,0,0,0,0,0,0,0,0,-1,1203,1044,0,0
-14,-20,0,0,0,0,0,0,0,0,0,-1,1210,1044,0,0
-7,-20,0,0,0,0,0,0,0,0,0,-1,1217,1044,0,0
0,-20,0,0,0,0,0,0,0,0,0,-1,1224,1044,0,0
7,-20,0,0,0,0,0,0,0,0,0,-1,1231,1044,0,0
14,-20,0,0,0,0,0,0,0,0,0,-1,1238,1044,0,0
21,-20,0,0,0,0,0,0,0,0,0,-1,1245,1044,0,0
28,-20,0,0,0,0,0,0,0,0,0,-1,1252,1044,0,0
35,-20,0,0,0,0,0,0,0,0,0,-1,1259,1044,0,0
42,-20,0,0,0,0,0,0,0,0,0,-1,1266,1044,0,0
49,-20,0,0,0,0,0,0,0,0,0,-1,1273,1044,0,0
56,-20,0,0,0,0,0,0,0,0,0,-1,1280,1044,0,0
63,-20,0,0,0,0,0,0,0,0,0,-1,1287,1044,0,0
70,-20,0,0,0,0,0,0,0,0,0,-1,1294,1044,0,0
77,-20,0,0,0,0,0,0,0,0,0,-1,1301,1044,0,0
84,-20,0,0,0,0,0,0,0,0,0,-1,1308,1044,0,0
91,-20,0,0,0,0,0,0,0,0,0,-1,1315,1044,0,0
98,-20,0,0,0,0,0,0,0,0,0,-1,1322,1044,0,0
105,-20,0,0,0,0,0,0,0,0,0,-1,1329,1044,0,0
112,-20,0,0,0,0,0,0,0,0,0,-1,1336,1044,0,0
119,-20,0,0,0,0,0,0,0,0,0,-1,1343,1044,0,0
126,-20,0,0,0,0,0,0,0,0,0,-1,1350,1044,0,0
133,-20,0,0,0,0,0,0,0,0,0,-1,1357,1044,0,0
140,-20,0,0,0,0,0,0,0,0,0,-1,1364,1044,0,0
147,-20,0,0,0,0,0,0,0,0,0,-1,1371,1044,0,0
154,-20,0,0,0,0,0,0,0,0,0,-1,1378,1044,0,0
161,-20,0,0,0,0,0,0,0,0,0,-1,1385,1044,0,0
168,-20,0,0,0,0,0,0,0,0,0,-1,1392,1044,0,0
175,-20,0,0,0,0,0,0,0,0,0,-1,1399,1044,0,0
182,-20,0,0,0,0,0,0,0,0,0,-1,1406,1044,0,0
189,-20,0,0,0,0,0,0,0,0,0,-1,1413,1044,0,0
196,-20,0,0,0,0,0,0,0,0,0,-1,1420,1044,0,0
203,-20,0,0,0,0,0,0,0,0,0,-1,1427,1044,0,0
210,-20,0,0,0,0,0,0,0,0,0,-1,1434,1044,0,0
217,-20,0,0,0,0,0,0,0,0,0,-1,1441,1044,0,0
224,-20,0,0,0,0,0,0,0,0,0,-1,1448,1044,0,0
231,-20,0,0,0,0,0,0,0,0,0,-1,1455,1044,0,0
238,-20,0,0,0,0,0,0,0,0,0,-1,1462,1044,0,0
245,-20,0,0,0,0,0,0,0,0,0,-1,1469,1044,0,0
252,-20,0,0,0,0,0,0,0,0,0,-1,1476,1044,0,0
259,-20,0,0,0,0,0,0,0,0,0,-1,1483,1044,0,0
266,-20,0,0,0,0,0,0,0,0,0,-1,1490,1044,0,0
273,-20,0,0,0,0,0,0,0,0,0,-1,1497,1044,0,0
280,-20,0,0,0,0,0,0,0,0,0,-1,1504,1044,0,0
287,-20,0,0,0,0,0,0,0,0,0,-1,1511,1044,0,0
294,-20,0,0,0,0,0,0,0,0,0,-1,1518,1044,0,0
301,-20,0,0,0,0,0,0,0,0,0,-1,1525,1044,0,0
308,-20,0,0,0,0,0,0,0,0,0,-1,1532,1044,0,0
315,-20,0,0,0,0,0,0,0,0,0,-1,1539,1044,0,0
322,-20,0,0,0,0,0,0,0,0,0,-1,1546,1044,0,0
329,-20,0,0,0,0,0,0,0,0,0,-1,1553,1044,0,0
336,-20,0,0,0,0,0,0,0,0,0,-1,1560,1044,0,0
343,-20,0,0,0,0,0,0,0,0,0,-1,1567,1044,0,0
350,-20,0,0,0,0,0,0,0,0,0,-1,1574,1044,0,0
357,-20,0,0,0,0,0,0,0,0,0,-1,1581,1044,0,0
364,-20,0,0,0,0,0,0,0,0,0,-1,1588,1044,0,0
371,-20,0,0,0,0,0,0,0,0,0,-1,1595,1044,0,0
378,-20,0,0,0,0,0,0,0,0,0,-1,1602,1044,0,0
385,-20,0,0,0,0,0,0,0,0,0,-1,1609,1044,0,0
392,-20,0,0,0,0,0,0,0,0,0,-1,1616,1044,0,0
399,-20,0,0,0,0,0,0,0,0,0,-1,1623,1044,0,0
406,-20,0,0,0,0,0,0,0,0,0,-1,1630,1044,0,0
413,-20,0,0,0,0,0,0,0,0,0,-1,1637,1044,0,0
420,-20,0,0,0,0,0,0,0,0,0,-1,1644,1044,0,0
427,-20,0,0,0,0,0,0,0,0,0,-1,1651,1044,0,0
434,-20,0,0,0,0,0,0,0,0,0,-1,1658,1044,0,0
441,-20,0,0,0,0,0,0,0,0,0,-1,1665,1044,0,0
448,-20,0,0,0,0,0,0,0,0,0,-1,1672,1044,0,0
455,-20,0,0,0,0,0,0,0,0,0,-1,1679,1044,0,0
462,-20,0,0,0,0,0,0,0,0,0,-1,1686,1044,0,0
469,-20,0,0,0,0,0,0,0,0,0,-1,1693,1044,0,0
476,-20,0,0,0,0,0,0,0,0,0,-1,1700,1044,0,0
483,-20,0,0,0,0,0,0,0,0,0,-1,1707,1044,0,0
490,-20,0,0,0,0,0,0,0,0,0,-1,1714,1044,0,0
497,-20,0,0,0,0,0,0,0,0,0,-1,1721,1044,0,0
504,-20,0,0,0,0,0,0,0,0,0,-1,1728,1044,0,0
511,-20,0,0,0,0,0,0,0,0,0,-1,1735,1044,0,0
518,-20,0,0,0,0,0,0,0,0,0,-1,1742,1044,0,0
525,-20,0,0,0,0,0,0,0,0,0,-1,1749,1044,0,0
532,-20,0,0,0,0,0,0,0,0,0,-1,1756,1044,0,0
539,-20,0,0,0,0,0,0,0,0,0,-1,1763,1044,0,0
546,-20,0,0,0,0,0,0,0,0,0,-1,1770,1044,0,0
553,-20,0,0,0,0,0,0,0,0,0,-1,1777,1044,0,0
560,-20,0,0,0,0,0,0,0,0,0,-1,1784,1044,0,0
567,-20,0,0,0,0,0,0,0,0,0,-1,1791,1044,0,0
574,-20,0,0,0,0,0,0,0,0,0,-1,1798,1044,0,0
581,-20,0,0,0,0,0,0,0,0,0,-1,1805,1044,0,0
588,-20,0,0,0,0,0,0,0,0,0,-1,1812,1044,0,0
595,-20,0,0,0,0,0,0,0,0,0,-1,1819,1044,0,0
602,-20,0,0,0,0,0,0,0,0,0,-1,1826,1044,0,0
609,-20,0,0,0,0,0,0,0,0,0,-1,1833,1044,0,0
616,-20,0,0,0,0,0,0,0,0,0,-1,1840,1044,0,0
623,-20,0,0,0,0,0,0,0,0,0,-1,1847,1044,0,0
630,-20,0,0,0,0,0,0,0,0,0,-1,1854,1044,0,0
637,-20,0,0,0,0,0,0,0,0,0,-1,1861,1044,0,0
644,-20,0,0,0,0,0,0,0,0,0,-1,1868,1044,0,0
651,-20,54.1019,2.58752,0.000157258,0.00324837,0.00391955,0.00591608,-0.00251045,0.973198,0.00499575,0.043953,1875,1044,54.1019,-2.58756
658,-20,54.1128,2.70142,0.000219271,0.00254901,0.00284115,0.00445482,-0.00168654,0.979946,0.00366382,0.045625,1882,1044,54.1128,-2.70141
665,-20,54.1096,2.69177,0.000115439,0.00208948,0.00214156,0.00346053,-0.00125561,1.00133,0.00282031,0.0393454,1889,1044,54.1097,-2.69178
672,-20,54.0825,2.66687,-5.02415e-05,0.00187219,0.00194081,0.00307677,-0.00125482,1.01532,0.00257353,0.025217,1896,1044,54.0826,-2.66693
679,-20,54.1039,2.62109,-0.000250088,0.00182772,0.00208766,0.00312069,-0.00154306,1.01628,0.00274349,0.029258,1903,1044,54.1038,-2.62105
686,-20,54.2205,2.54602,-0.000770623,0.00164326,0.00243754,0.0031563,-0.00228367,1.01528,0.00315421,0.039194,1910,1044,54.2205,-2.54606
693,-20,54.2241,2.51807,-0.00128869,0.00139803,0.00290185,0.00325238,-0.00314304,1.00218,0.00369258,0.0406286,1917,1044,54.2242,-2.51802
700,-20,54.0872,2.58801,-0.00162817,0.00115603,0.00336118,0.00340199,-0.00387413,0.981729,0.00420381,0.0367709,1924,1044,54.0871,-2.58801
707,-20,54.0702,2.63196,-0.00213634,0.00119301,0.00357188,0.00346908,-0.00441241,1.00346,0.00456123,0.0320771,1931,1044,54.0701,-2.63195
714,-20,54.0807,2.87354,-0.00281687,0.00152506,0.0036363,0.00358916,-0.00488096,1.05451,0.00490915,0.0284282,1938,1044,54.0807,-2.87349
721,-20,53.9127,2.94836,0,0,0,0,0,0,0,-1,1945,1044,53.9127,-2.94833
728,-20,54.1987,6.38879,0,0,0,0,0,0,0,-1,1952,1044,54.1988,-6.38876
735,-20,53.8867,6.32764,-0.00592676,0.0039822,0.00344307,0.00506109,-0.00700566,1.26714,0.00699683,0.031001,1959,1044,53.8867,-6.32765
742,-20,53.6487,6.1731,-0.00630565,0.00450026,0.0027688,0.0051684,-0.00697379,1.33401,0.00703607,0.0248332,1966,1044,53.6487,-6.17316
749,-20,53.7405,6.10437,-0.00639412,0.00578473,0.00141566,0.00594712,-0.00655651,1.45659,0.00722183,0.025733,1973,1044,53.7405,-6.10431
756,-20,53.7354,6.02173,-0.00634462,0.00647094,-0.000375786,0.00648195,-0.00635563,-1.54151,0.0074119,0.017557,1980,1044,53.7354,-6.0217
763,-20,53.6572,5.9187,-0.00588685,0.00618943,-0.00274845,0.00678553,-0.00648295,-1.35722,0.00766122,0.026153,1987,1044,53.6572,-5.91873
770,-20,53.5753,5.86133,-0.00472397,0.00604972,-0.00600567,0.00873047,-0.00740473,-1.15096,0.00932614,0.0226336,1994,1044,53.5753,-5.8613
777,-20,53.4387,5.64453,-0.00200355,0.00444952,-0.0104685,0.0121774,-0.00973144,-0.934886,0.0126753,0.0155986,2001,1044,53.4388,-5.6445
784,-20,53.4414,5.56824,0.00166425,0.0012544,-0.0154789,0.0169396,-0.0140209,-0.778779,0.0179015,0.0199751,2008,1044,53.4415,-5.56824
791,-20,53.5913,5.3468,0.0062248,-0.00398327,-0.0211603,0.0228879,-0.0206464,-0.667055,0.0251457,0.036452,2015,1044,53.5912,-5.34676
798,-20,53.8022,4.86047,0.0119427,-0.0121529,-0.0276923,0.0300945,-0.0303047,-0.580218,0.0348715,0.0435966,2022,1044,53.8023,-4.86051
805,-20,54.1235,4.76196,0.0190951,-0.0237674,-0.0348851,0.0386061,-0.0432784,-0.509951,0.0473017,0.043951,2029,1044,54.1237,-4.76192
812,-20,54.4102,4.7356,0.0275367,-0.0404389,-0.0425706,0.048023,-0.0609252,-0.44852,0.0630481,0.0472847,2036,1044,54.4102,-4.73556
-700,-27,-40.9657,-5.01904,0,0,0,0,0,0,0,-1,524,1051,-40.9657,5.01901
-693,-27,-41.3874,-2.63,0,0,0,0,0,0,0,-1,531,1051,-41.3874,2.63005
-686,-27,-40.7675,-1.953,0,0,0,0,0,0,0,-1,538,1051,-40.7675,1.95303
-679,-27,-40.1476,-1.276,0,0,0,0,0,0,0,-1,545,1051,-40.1475,1.27602
-672,-27,-40.2545,-0.364258,-0.000332261,0.0599934,0.0479126,0.086447,-0.0267858,1.06633,0.0683329,0.0447084,552,1051,-40.2545,0.364273
-665,-27,-40.8375,1.07727,-0.00126096,0.0502139,0.0400871,0.0721146,-0.0231616,1.07078,0.057377,0.0447278,559,1051,-40.8375,-1.07729
-658,-27,-40.5917,1.50928,-0.00168339,0.0409924,0.0325437,0.0585697,-0.0192607,1.07557,0.0468069,0.0431625,566,1051,-40.5917,-1.50929
-651,-27,-40.249,2.40491,-0.00179077,0.0324873,0.0254689,0.046047,-0.0153505,1.08156,0.0368951,0.0368189,573,1051,-40.249,-2.40495
-644,-27,-40.4011,2.62781,-0.00202672,0.0249963,0.0187761,0.0346171,-0.0116475,1.09728,0.0277865,0.018865,580,1051,-40.4011,-2.62784
-637,-27,-40.4767,2.78003,-0.0018912,0.0180125,0.01253,0.0240619,-0.00794062,1.12101,0.0192423,0.01605,587,1051,-40.4768,-2.78
-630,-27,-40.5793,3.13696,-0.0022081,0.0113193,0.00696769,0.0142662,-0.00515504,1.17067,0.0116169,0.0205734,594,1051,-40.5794,-3.13692
-623,-27,-40.5955,3.3606,-0.00203843,0.00659722,0.00328089,0.00770229,-0.00314351,1.24591,0.00644357,0.018003,601,1051,-40.5955,-3.3606
-616,-27,-40.5665,3.54309,-0.00154147,0.00356684,0.000732406,0.00366977,-0.0016444,1.43117,0.00314154,0.0148967,608,1051,-40.5665,-3.54314
-609,-27,-40.5717,3.71973,-0.00117794,0.00201689,-0.00101068,0.00230977,-0.00147082,-1.28874,0.00220057,0.0147476,615,1051,-40.5717,-3.71968
-602,-27,-40.5355,3.90869,-0.00119531,0.000401012,-0.00187478,0.00164047,-0.00243476,-0.986644,0.00236768,0.0136654,622,1051,-40.5355,-3.90868
-595,-27,-40.5759,4.08789,-0.00109595,-0.000322266,-0.00234329,0.0016659,-0.00308411,-0.867203,0.00278287,0.0172918,629,1051,-40.5759,-4.0879
-588,-27,-40.7893,4.18628,0,0,0,0,0,0,0,-1,636,1051,-40.7893,-4.18633
-581,-27,-40.549,0.877686,-2.96951e-05,-0.00128868,-0.00205527,0.00149033,-0.0028087,-0.636793,0.00252065,0.0261874,643,1051,-40.5489,-0.877746
-574,-27,-40.6712,1.00488,0.000269547,-0.00135438,-0.00182053,0.00145097,-0.00253581,-0.575635,0.00233,0.0366189,650,1051,-40.6712,-1.00486
-567,-27,-40.6201,0.934082,0.000466432,-0.00104539,-0.00150016,0.00139036,-0.00196932,-0.552021,0.00194929,0.0424615,657,1051,-40.6201,-0.934063
-560,-27,-40.3743,0.702393,0.000708288,-0.000392959,-0.00110795,0.0013949,-0.00107957,-0.554786,0.0014325,0.0470536,664,1051,-40.3742,-0.702334
-553,-27,-39.9816,0.209595,0,0,0,0,0,0,0,-1,671,1051,-39.9816,-0.209615
-546,-27,-40.4606,0.442139,0.00177307,0.00122508,-0.000199593,0.00183806,0.00116009,-0.314786,0.0010733,0.0443917,678,1051,-40.4606,-0.442192
-539,-27,-40.5177,0.644653,0.00249143,0.00171391,-0.00011041,0.00250681,0.00169853,-0.138359,0.00147742,0.042846,685,1051,-40.5177,-0.644701
-532,-27,-40.6281,0.975586,0,0,0,0,0,0,0,-1,692,1051,-40.6281,-0.975611
-525,-27,0,0,0,0,0,0,0,0,0,-1,699,1051,0,0
-518,-27,0,0,0,0,0,0,0,0,0,-1,706,1051,0,0
-511,-27,0,0,0,0,0,0,0,0,0,-1,713,1051,0,0
-504,-27,0,0,0,0,0,0,0,0,0,-1,720,1051,0,0
-497,-27,0,0,0,0,0,0,0,0,0,-1,727,1051,0,0
-490,-27,0,0,0,0,0,0,0,0,0,-1,734,1051,0,0
-483,-27,0,0,0,0,0,0,0,0,0,-1,741,1051,0,0
-476,-27,0,0,0,0,0,0,0,0,0,-1,748,1051,0,0
-469,-27,0,0,0,0,0,0,0,0,0,-1,755,1051,0,0
-462,-27,0,0,0,0,0,0,0,0,0,-1,762,1051,0,0
-455,-27,0,0,0,0,0,0,0,0,0,-1,769,1051,0,0
-448,-27,0,0,0,0,0,0,0,0,0,-1,776,1051,0,0
-441,-27,0,0,0,0,0,0,0,0,0,-1,783,1051,0,0
-434,-27,0,0,0,0,0,0,0,0,0,-1,790,1051,0,0
-427,-27,0,0,0,0,0,0,0,0,0,-1,797,1051,0,0
-420,-27,0,0,0,0,0,0,0,0,0,-1,804,1051,0,0
-413,-27,0,0,0,0,0,0,0,0,0,-1,811,1051,0,0
-406,-27,0,0,0,0,0,0,0,0,0,-1,818,1051,0,0
-399,-27,0,0,0,0,0,0,0,0,0,-1,825,1051,0,0
-392,-27,0,0,0,0,0,0,0,0,0,-1,832,1051,0,0
-385,-27,0,0,0,0,0,0,0,0,0,-1,839,1051,0,0
-378,-27,0,0,0,0,0,0,0,0,0,-1,846,1051,0,0
-371,-27,0,0,0,0,0,0,0,0,0,-1,853,1051,0,0
-364,-27,0,0,0,0,0,0,0,0,0,-1,860,1051,0,0
-357,-27,0,0,0,0,0,0,0,0,0,-1,867,1051,0,0
-350,-27,0,0,0,0,0,0,0,0,0,-1,874,1051,0,0
-343,-27,0,0,0,0,0,0,0,0,0,-1,881,1051,0,0
-336,-27,0,0,0,0,0,0,0,0,0,-1,888,1051,0,0
-329,-27,0,0,0,0,0,0,0,0,0,-1,895,1051,0,0
-322,-27,0,0,0,0,0,0,0,0,0,-1,902,1051,0,0
-315,-27,0,0,0,0,0,0,0,0,0,-1,909,1051,0,0
-308,-27,0,0,0,0,0,0,0,0,0,-1,916,1051,0,0
-301,-27,0,0,0,0,0,0,0,0,0,-1,923,1051,0,0
-294,-27,0,0,0,0,0,0,0,0,0,-1,930,1051,0,0
-287,-27,0,0,0,0,0,0,0,0,0,-1,937,1051,0,0
-280,-27,0,0,0,0,0,0,0,0,0,-1,944,1051,0,0
-273,-27,0,0,0,0,0,0,0,0,0,-1,951,1051,0,0
-266,-27,0,0,0,0,0,0,0,0,0,-1,958,1051,0,0
-259,-27,0,0,0,0,0,0,0,0,0,-1,965,1051,0,0
-252,-27,0,0,0,0,0,0,0,0,0,-1,972,1051,0,0
-245,-27,0,0,0,0,0,0,0,0,0,-1,979,1051,0,0
-238,-27,0,0,0,0,0,0,0,0,0,-1,986,1051,0,0
-231,-27,0,0,0,0,0,0,0,0,0,-1,993,1051,0,0
-224,-27,0,0,0,0,0,0,0,0,0,-1,1000,1051,0,0
-217,-27,0,0,0,0,0,0,0,0,0,-1,1007,1051,0,0
-210,-27,0,0,0,0,0,0,0,0,0,-1,1014,1051,0,0
-203,-27,0,0,0,0,0,0,0,0,0,-1,1021,1051,0,0
-196,-27,0,0,0,0,0,0,0,0,0,-1,1028,1051,0,0
-189,-27,0,0,0,0,0,0,0,0,0,-1,1035,1051,0,0
-182,-27,0,0,0,0,0,0,0,0,0,-1,1042,1051,0,0
-175,-27,0,0,0,0,0,0,0,0,0,-1,1049,1051,0,0
-168,-27,0,0,0,0,0,0,0,0,0,-1,1056,1051,0,0
-161,-27,0,0,0,0,0,0,0,0,0,-1,1063,1051,0,0
-154,-27,0,0,0,0,0,0,0,0,0,-1,1070,1051,0,0
-147,-27,0,0,0,0,0,0,0,0,0,-1,1077,1051,0,0
-140,-27,0,0,0,0,0,0,0,0,0,-1,1084,1051,0,0
-133,-27,0,0,0,0,0,0,0,0,0,-1,1091,1051,0,0
-126,-27,0,0,0,0,0,0,0,0,0,-1,1098,1051,0,0
-119,-27,0,0,0,0,0,0,0,0,0,-1,1105,1051,0,0
-112,-27,0,0,0,0,0,0,0,0,0,-1,1112,1051,0,0
-105,-27,0,0,0,0,0,0,0,0,0,-1,1119,1051,0,0
-98,-27,0,0,0,0,0,0,0,0,0,-1,1126,1051,0,0
-91,-27,0,0,0,0,0,0,0,0,0,-1,1133,1051,0,0
-84,-27,0,0,0,0,0,0,0,0,0,-1,1140,1051,0,0
-77,-27,0,0,0,0,0,0,0,0,0,-1,1147,1051,0,0
-70,-27,0,0,0,0,0,0,0,0,0,-1,1154,1051,0,0
-63,-27,0,0,0,0,0,0,0,0,0,-1,1161,1051,0,0
-56,-27,0,0,0,0,0,0,0,0,0,-1,1168,1051,0,0
-49,-27,0,0,0,0,0,0,0,0,0,-1,1175,1051,0,0
-42,-27,0,0,0,0,0,0,0,0,0,-1,1182,1051,0,0
-35,-27,0,0,0,0,0,0,0,0,0,-1,1189,1051,0,0
-28,-27,0,0,0,0,0,0,0,0,0,-1,1196,1051,0,0
-21,-27,0,0,0,0,0,0,0,0,0,-1,1203,1051,0,0
-14,-27,0,0,0,0,0,0,0,0,0,-1,1210,1051,0,0
-7,-27,0,0,0,0,0,0,0,0,0,-1,1217,1051,0,0
0,-27,0,0,0,0,0,0,0,0,0,-1,1224,1051,0,0
7,-27,0,0,0,0,0,0,0,0,0,-1,1231,1051,0,0
14,-27,0,0,0,0,0,0,0,0,0,-1,1238,1051,0,0
21,-27,0,0,0,0,0,0,0,0,0,-1,1245,1051,0,0
28,-27,0,0,0,0,0,0,0,0,0,-1,1252,1051,0,0
35,-27,0,0,0,0,0,0,0,0,0,-1,1259,1051,0,0
42,-27,0,0,0,0,0,0,0,0,0,-1,1266,1051,0,0
49,-27,0,0,0,0,0,0,0,0,0,-1,1273,1051,0,0
56,-27,0,0,0,0,0,0,0,0,0,-1,1280,1051,0,0
63,-27,0,0,0,0,0,0,0,0,0,-1,1287,1051,0,0
70,-27,0,0,0,0,0,0,0,0,0,-1,1294,1051,0,0
77,-27,0,0,0,0,0,0,0,0,0,-1,1301,1051,0,0
84,-27,0,0,0,0,0,0,0,0,0,-1,1308,1051,0,0
91,-27,0,0,0,0,0,0,0,0,0,-1,1315,1051,0,0
98,-27,0,0,0,0,0,0,0,0,0,-1,1322,1051,0,0
105,-27,0,0,0,0,0,0,0,0,0,-1,1329,1051,0,0
112,-27,0,0,0,0,0,0,0,0,0,-1,1336,1051,0,0
119,-27,0,0,0,0,0,0,0,0,0,-1,1343,1051,0,0
126,-27,0,0,0,0,0,0,0,0,0,-1,1350,1051,0,0
133,-27,0,0,0,0,0,0,0,0,0,-1,1357,1051,0,0
140,-27,0,0,0,0,0,0,0,0,0,-1,1364,1051,0,0
147,-27,0,0,0,0,0,0,0,0,0,-1,1371,1051,0,0
154,-27,0,0,0,0,0,0,0,0,0,-1,1378,1051,0,0
161,-27,0,0,0,0,0,0,0,0,0,-1,1385,1051,0,0
168,-27,0,0,0,0,0,0,0,0,0,-1,1392,1051,0,0
175,-27,0,0,0,0,0,0,0,0,0,-1,1399,1051,0,0
182,-27,0,0,0,0,0,0,0,0,0,-1,1406,1051,0,0
189,-27,0,0,0,0,0,0,0,0,0,-1,1413,1051,0,0
196,-27,0,0,0,0,0,0,0,0,0,-1,1420,1051,0,0
203,-27,0,0,0,0,0,0,0,0,0,-1,1427,1051,0,0
210,-27,0,0,0,0,0,0,0,0,0,-1,1434,1051,0,0
217,-27,0,0,0,0,0,0,0,0,0,-1,1441,1051,0,0
224,-27,0,0,0,0,0,0,0,0,0,-1,1448,1051,0,0
231,-27,0,0,0,0,0,0,0,0,0,-1,1455,1051,0,0
238,-27,0,0,0,0,0,0,0,0,0,-1,1462,1051,0,0
245,-27,0,0,0,0,0,0,0,0,0,-1,1469,1051,0,0
252,-27,0,0,0,0,0,0,0,0,0,-1,1476,1051,0,0
259,-27,0,0,0,0,0,0,0,0,0,-1,1483,1051,0,0
266,-27,0,0,0,0,0,0,0,0,0,-1,1490,1051,0,0
273,-27,0,0,0,0,0,0,0,0,0,-1,1497,1051,0,0
280,-27,0,0,0,0,0,0,0,0,0,-1,1504,1051,0,0
287,-27,0,0,0,0,0,0,0,0,0,-1,1511,1051,0,0
294,-27,0,0,0,0,0,0,0,0,0,-1,1518,1051,0,0
301,-27,0,0,0,0,0,0,0,0,0,-1,1525,1051,0,0
308,-27,0,0,0,0,0,0,0,0,0,-1,1532,1051,0,0
315,-27,0,0,0,0,0,0,0,0,0,-1,1539,1051,0,0
322,-27,0,0,0,0,0,0,0,0,0,-1,1546,1051,0,0
329,-27,0,0,0,0,0,0,0,0,0,-1,1553,1051,0,0
336,-27,0,0,0,0,0,0,0,0,0,-1,1560,1051,0,0
343,-27,0,0,0,0,0,0,0,0,0,-1,1567,1051,0,0
350,-27,0,0,0,0,0,0,0,0,0,-1,1574,1051,0,0
357,-27,0,0,0,0,0,0,0,0,0,-1,1581,1051,0,0
364,-27,0,0,0,0,0,0,0,0,0,-1,1588,1051,0,0
371,-27,0,0,0,0,0,0,0,0,0,-1,1595,1051,0,0
378,-27,0,0,0,0,0,0,0,0,0,-1,1602,1051,0,0
385,-27,0,0,0,0,0,0,0,0,0,-1,1609,1051,0,0
392,-27,0,0,0,0,0,0,0,0,0,-1,1616,1051,0,0
399,-27,0,0,0,0,0,0,0,0,0,-1,1623,1051,0,0
406,-27,0,0,0,0,0,0,0,0,0,-1,1630,1051,0,0
413,-27,0,0,0,0,0,0,0,0,0,-1,1637,1051,0,0
420,-27,0,0,0,0,0,0,0,0,0,-1,1644,1051,0,0
427,-27,0,0,0,0,0,0,0,0,0,-1,1651,1051,0,0
434,-27,0,0,0,0,0,0,0,0,0,-1,1658,1051,0,0
441,-27,0,0,0,0,0,0,0,0,0,-1,1665,1051,0,0
448,-27,0,0,0,0,0,0,0,0,0,-1,1672,1051,0,0
455,-27,0,0,0,0,0,0,0,0,0,-1,1679,1051,0,0
462,-27,0,0,0,0,0,0,0,0,0,-1,1686,1051,0,0
469,-27,0,0,0,0,0,0,0,0,0,-1,1693,1051,0,0
476,-27,0,0,0,0,0,0,0,0,0,-1,1700,1051,0,0
483,-27,0,0,0,0,0,0,0,0,0,-1,1707,1051,0,0
490,-27,0,0,0,0,0,0,0,0,0,-1,1714,1051,0,0
497,-27,0,0,0,0,0,0,0,0,0,-1,1721,1051,0,0
504,-27,0,0,0,0,0,0,0,0,0,-1,1728,1051,0,0
511,-27,0,0,0,0,0,0,0,0,0,-1,1735,1051,0,0
518,-27,0,0,0,0,0,0,0,0,0,-1,1742,1051,0,0
525,-27,0,0,0,0,0,0,0,0,0,-1,1749,1051,0,0
532,-27,0,0,0,0,0,0,0,0,0,-1,1756,1051,0,0
539,-27,0,0,0,0,0,0,0,0,0,-1,1763,1051,0,0
546,-27,0,0,0,0,0,0,0,0,0,-1,1770,1051,0,0
553,-27,0,0,0,0,0,0,0,0,0,-1,1777,1051,0,0
560,-27,0,0,0,0,0,0,0,0,0,-1,1784,1051,0,0
567,-27,0,0,0,0,0,0,0,0,0,-1,1791,1051,0,0
574,-27,0,0,0,0,0,0,0,0,0,-1,1798,1051,0,0
581,-27,0,0,0,0,0,0,0,0,0,-1,1805,1051,0,0
588,-27,0,0,0,0,0,0,0,0,0,-1,1812,1051,0,0
595,-27,0,0,0,0,0,0,0,0,0,-1,1819,1051,0,0
602,-27,0,0,0,0,0,0,0,0,0,-1,1826,1051,0,0
609,-27,0,0,0,0,0,0,0,0,0,-1,1833,1051,0,0
616,-27,0,0,0,0,0,0,0,0,0,-1,1840,1051,0,0
623,-27,0,0,0,0,0,0,0,0,0,-1,1847,1051,0,0
630,-27,0,0,0,0,0,0,0,0,0,-1,1854,1051,0,0
637,-27,0,0,0,0,0,0,0,0,0,-1,1861,1051,0,0
644,-27,0,0,0,0,0,0,0,0,0,-1,1868,1051,0,0
651,-27,54.2078,2.58691,-0.00130608,0.0029936,0.00440831,0.00574835,-0.00406083,1.01227,0.0056912,0.040523,1875,1051,54.2078,-2.58695
658,-27,54.0985,2.46021,-0.000680905,0.00238099,0.00316904,0.00436951,-0.00266942,1.01041,0.00410325,0.0427819,1882,1051,54.0985,-2.46015
665,-27,54.0107,2.55579,-0.000394538,0.00197091,0.00234298,0.00341276,-0.00183639,1.01914,0.00307581,0.0378446,1889,1051,54.0107,-2.55577
672,-27,53.9729,2.68774,-0.000274312,0.00176173,0.002035,0.00301914,-0.00153172,1.01732,0.00267381,0.0299803,1896,1051,53.9729,-2.68778
679,-27,54.0186,2.70691,-0.000264917,0.00169662,0.00209571,0.0030297,-0.001598,1.00425,0.00271409,0.0305322,1903,1051,54.0185,-2.70696
686,-27,54.1417,2.62427,-0.000655721,0.00147513,0.00240261,0.00303794,-0.00221854,0.994093,0.0030471,0.0387157,1910,1051,54.1417,-2.6243
693,-27,54.1563,2.53625,-0.00110843,0.00119345,0.00283852,0.00310549,-0.00302047,0.978006,0.00353694,0.0395923,1917,1051,54.1563,-2.53625
700,-27,54.0679,2.58887,-0.00142014,0.00093743,0.00329283,0.00325611,-0.00373882,0.957283,0.00404173,0.0372975,1924,1051,54.0678,-2.58887
707,-27,54.028,2.6322,-0.00186968,0.000935633,0.00352227,0.00332426,-0.00425831,0.974886,0.00438885,0.0250385,1931,1051,54.028,-2.63216
714,-27,54.0677,2.71375,-0.00251347,0.00121512,0.00363296,0.00343421,-0.00473256,1.02246,0.00473491,0.0224174,1938,1051,54.0678,-2.71371
721,-27,54.031,3.245,-0.00347631,0.00176858,0.00370497,0.0036853,-0.00539304,1.09337,0.0052722,0.0434669,1945,1051,54.031,-3.24505
728,-27,54.2135,6.479,0,0,0,0,0,0,0,-1,1952,1051,54.2135,-6.47895
735,-27,53.7283,6.42346,-0.00554952,0.00343033,0.00362258,0.00470951,-0.0068287,1.23135,0.00669893,0.0325384,1959,1051,53.7283,-6.42344
742,-27,53.5226,6.30957,-0.00595708,0.00400851,0.00305268,0.00486927,-0.00681784,1.29596,0.00677874,0.0190156,1966,1051,53.5226,-6.30951
749,-27,53.5792,6.14087,-0.00603975,0.00528016,0.00182563,0.0055673,-0.0063269,1.41479,0.00687179,0.0145249,1973,1051,53.5792,-6.14091
756,-27,53.5574,5.99231,-0.00597261,0.00597353,0.000264208,0.00597937,-0.00597845,1.54869,0.00690385,0.0145548,1980,1051,53.5574,-5.99236
763,-27,53.4917,5.81372,-0.00553068,0.00581413,-0.00179943,0.0060927,-0.00580925,-1.4172,0.00687225,0.0161872,1987,1051,53.4917,-5.81367
770,-27,53.4164,5.63171,-0.00442594,0.00579202,-0.0046679,0.00760337,-0.00623729,-1.20064,0.00800387,0.0171733,1994,1051,53.4164,-5.63177
777,-27,53.3125,5.56702,-0.00186629,0.00438534,-0.00849485,0.0103112,-0.00779217,-0.961693,0.0104857,0.0196935,2001,1051,53.3124,-5.56705
784,-27,53.2852,5.55981,0.00162548,0.00139137,-0.0126996,0.0142085,-0.0111917,-0.78079,0.0146992,0.0286989,2008,1051,53.2851,-5.55981
791,-27,53.355,5.45435,0.00601029,-0.00373337,-0.0174382,0.0192444,-0.0169675,-0.649182,0.0209207,0.0442427,2015,1051,53.3551,-5.45431
798,-27,54.1833,4.7832,0.0116383,-0.0119317,-0.0228359,0.0255508,-0.0258442,-0.547186,0.0296731,0.0475183,2022,1051,54.1834,-4.78326
805,-27,54.7522,4.77075,0.0188667,-0.0238423,-0.0287075,0.0332912,-0.0382668,-0.465616,0.0413473,0.0445929,2029,1051,54.7522,-4.77075
812,-27,55,4.90649,0.0275124,-0.0412285,-0.0347101,0.0419899,-0.055706,-0.395158,0.0565897,0.0466221,2036,1051,55.0001,-4.90645
-700,-34,-41.9511,-3.81104,0,0,0,0,0,0,0,-1,524,1058,-41.9511,3.81103
-693,-34,-41.3929,-2.96118,0,0,0,0,0,0,0,-1,531,1058,-41.3929,2.9612
-686,-34,-40.7073,-2.33105,0.0160338,0.0684402,0.064354,0.111721,-0.0272472,0.978735,0.085031,0.0489496,538,1058,-40.7073,2.33107
-679,-34,-40.3276,-1.71436,0.0121137,0.05994,0.0569973,0.0978373,-0.0257836,0.984021,0.0753054,0.0450491,545,1058,-40.3276,1.71435
-672,-34,-40.2325,-0.708496,0.0087288,0.0513963,0.0488547,0.0833721,-0.023247,0.991258,0.064737,0.0432926,552,1058,-40.2325,0.708542
-665,-34,-39.4484,1.86719,0,0,0,0,0,0,0,-1,559,1058,-39.4484,-1.86723
-658,-34,-39.6783,2.15955,0.00402814,0.0353362,0.0327777,0.0560061,-0.0166417,1.00817,0.0439478,0.0425584,566,1058,-39.6784,-2.15959
-651,-34,-39.9792,2.33691,0.00255695,0.0281156,0.0254646,0.0438276,-0.0131551,1.01796,0.0344511,0.030558,573,1058,-39.9792,-2.3369
-644,-34,-40.2316,2.49597,0.00125145,0.0217721,0.0186742,0.0328191,-0.00979548,1.0366,0.0257727,0.0157165,580,1058,-40.2317,-2.49597
-637,-34,-40.2916,2.69287,0.000435905,0.015708,0.0123048,0.0225536,-0.00640967,1.0631,0.0175665,0.0172182,587,1058,-40.2916,-2.69283
-630,-34,-40.3137,3.0321,-0.000521775,0.00980944,0.00667802,0.0130865,-0.00379888,1.11459,0.0102286,0.0181988,594,1058,-40.3137,-3.03205
-623,-34,-40.2916,3.27905,-0.000886205,0.0056908,0.00302305,0.00686919,-0.00206459,1.19911,0.00540084,0.0138137,601,1058,-40.2916,-3.27908
-616,-34,-40.2679,3.55994,-0.000800138,0.00303662,0.00050647,0.00310235,-0.000865868,1.44174,0.00240929,0.020721,608,1058,-40.2679,-3.55997
-609,-34,-40.2495,3.80396,-0.00061938,0.00168761,-0.00118142,0.00218526,-0.00111704,-1.17212,0.00193955,0.0210437,615,1058,-40.2494,-3.80399
-602,-34,-40.2651,3.9801,-0.000719111,0.000176486,-0.00202258,0.00180025,-0.00234287,-0.894341,0.00239886,0.0166457,622,1058,-40.2651,-3.98011
-595,-34,-40.3771,4.14636,-0.000687245,-0.00050711,-0.00248228,0.00188674,-0.00308109,-0.803532,0.00289567,0.0176993,629,1058,-40.3771,-4.14639
-588,-34,-40.6468,4.27209,0,0,0,0,0,0,0,-1,636,1058,-40.6468,-4.27214
-581,-34,-40.5264,0.907471,0.000264804,-0.00141241,-0.00212067,0.00170666,-0.00285427,-0.597112,0.00266089,0.0273683,643,1058,-40.5264,-0.907423
-574,-34,-40.5912,1.0033,0.000544019,-0.00146859,-0.00185872,0.00165135,-0.00257593,-0.53729,0.00246,0.0373415,650,1058,-40.5912,-1.00325
-567,-34,-40.5076,0.890869,0.000746547,-0.00119041,-0.00152369,0.0015835,-0.00202736,-0.502302,0.00208998,0.0416056,657,1058,-40.5076,-0.890853
-560,-34,-40.4607,0.711304,0.000999925,-0.000616188,-0.00113449,0.00158472,-0.00120098,-0.475943,0.0016134,0.0441184,664,1058,-40.4607,-0.711355
-553,-34,-40.5864,0.675049,0.0014441,0.000106459,-0.000709922,0.00175063,-0.000200071,-0.407599,0.00123918,0.0477844,671,1058,-40.5864,-0.67509
-546,-34,-40.3723,0.0241699,0,0,0,0,0,0,0,-1,678,1058,-40.3723,-0.0241433
-539,-34,-40.3769,0.690308,0.00327789,0.000941311,-0.000338796,0.00332602,0.000893178,-0.141126,0.00198768,0.0429468,685,1058,-40.3769,-0.690262
-532,-34,-40.301,0.754395,0.00420131,0.00119449,5.96968e-05,0.00420249,0.00119331,0.0198434,0.00250067,0.039499,692,1058,-40.301,-0.754437
-525,-34,0,0,0,0,0,0,0,0,0,-1,699,1058,0,0
-518,-34,0,0,0,0,0,0,0,0,0,-1,706,1058,0,0
-511,-34,0,0,0,0,0,0,0,0,0,-1,713,1058,0,0
-504,-34,0,0,0,0,0,0,0,0,0,-1,720,1058,0,0
-497,-34,0,0,0,0,0,0,0,0,0,-1,727,1058,0,0
-490,-34,0,0,0,0,0,0,0,0,0,-1,734,1058,0,0
-483,-34,0,0,0,0,0,0,0,0,0,-1,741,1058,0,0
-476,-34,0,0,0,0,0,0,0,0,0,-1,748,1058,0,0
-469,-34,0,0,0,0,0,0,0,0,0,-1,755,1058,0,0
-462,-34,0,0,0,0,0,0,0,0,0,-1,762,1058,0,0
-455,-34,0,0,0,0,0,0,0,0,0,-1,769,1058,0,0
-448,-34,0,0,0,0,0,0,0,0,0,-1,776,1058,0,0
-441,-34,0,0,0,0,0,0,0,0,0,-1,783,1058,0,0
-434,-34,0,0,0,0,0,0,0,0,0,-1,790,1058,0,0
-427,-34,0,0,0,0,0,0,0,0,0,-1,797,1058,0,0
-420,-34,0,0,0,0,0,0,0,0,0,-1,804,1058,0,0
-413,-34,0,0,0,0,0,0,0,0,0,-1,811,1058,0,0
-406,-34,0,0,0,0,0,0,0,0,0,-1,818,1058,0,0
-399,-34,0,0,0,0,0,0,0,0,0,-1,825,1058,0,0
-392,-34,0,0,0,0,0,0,0,0,0,-1,832,1058,0,0
-385,-34,0,0,0,0,0,0,0,0,0,-1,839,1058,0,0
-378,-34,0,0,0,0,0,0,0,0,0,-1,846,1058,0,0
-371,-34,0,0,0,0,0,0,0,0,0,-1,853,1058,0,0
-364,-34,0,0,0,0,0,0,0,0,0,-1,860,1058,0,0
-357,-34,0,0,0,0,0,0,0,0,0,-1,867,1058,0,0
-350,-34,0,0,0,0,0,0,0,0,0,-1,874,1058,0,0
-343,-34,0,0,0,0,0,0,0,0,0,-1,881,1058,0,0
-336,-34,0,0,0,0,0,0,0,0,0,-1,888,1058,0,0
-329,-34,0,0,0,0,0,0,0,0,0,-1,895,1058,0,0
-322,-34,0,0,0,0,0,0,0,0,0,-1,902,1058,0,0
-315,-34,0,0,0,0,0,0,0,0,0,-1,909,1058,0,0
-308,-34,0,0,0,0,0,0,0,0,0,-1,916,1058,0,0
-301,-34,0,0,0,0,0,0,0,0,0,-1,923,1058,0,0
-294,-34,0,0,0,0,0,0,0,0,0,-1,930,1058,0,0
-287,-34,0,0,0,0,0,0,0,0,0,-1,937,1058,0,0
-280,-34,0,0,0,0,0,0,0,0,0,-1,944,1058,0,0
-273,-34,0,0,0,0,0,0,0,0,0,-1,951,1058,0,0
-266,-34,0,0,0,0,0,0,0,0,0,-1,958,1058,0,0
-259,-34,0,0,0,0,0,0,0,0,0,-1,965,1058,0,0
-252,-34,0,0,0,0,0,0,0,0,0,-1,972,1058,0,0
-245,-34,0,0,0,0,0,0,0,0,0,-1,979,1058,0,0
-238,-34,0,0,0,0,0,0,0,0,0,-1,986,1058,0,0
-231,-34,0,0,0,0,0,0,0,0,0,-1,993,1058,0,0
-224,-34,0,0,0,0,0,0,0,0,0,-1,1000,1058,0,0
-217,-34,0,0,0,0,0,0,0,0,0,-1,1007,1058,0,0
-210,-34,0,0,0,0,0,0,0,0,0,-1,1014,1058,0,0
-203,-34,0,0,0,0,0,0,0,0,0,-1,1021,1058,0,0
-196,-34,0,0,0,0,0,0,0,0,0,-1,1028,1058,0,0
-189,-34,0,0,0,0,0,0,0,0,0,-1,1035,1058,0,0
-182,-34,0,0,0,0,0,0,0,0,0,-1,1042,1058,0,0
-175,-34,0,0,0,0,0,0,0,0,0,-1,1049,1058,0,0
-168,-34,0,0,0,0,0,0,0,0,0,-1,1056,1058,0,0
-161,-34,0,0,0,0,0,0,0,0,0,-1,1063,1058,0,0
-154,-34,0,0,0,0,0,0,0,0,0,-1,1070,1058,0,0
-147,-34,0,0,0,0,0,0,0,0,0,-1,1077,1058,0,0
-140,-34,0,0,0,0,0,0,0,0,0,-1,1084,1058,0,0
-133,-34,0,0,0,0,0,0,0,0,0,-1,1091,1058,0,0
-126,-34,0,0,0,0,0,0,0,0,0,-1,1098,1058,0,0
-119,-34,0,0,0,0,0,0,0,0,0,-1,1105,1058,0,0
-112,-34,0,0,0,0,0,0,0,0,0,-1,1112,1058,0,0
-105,-34,0,0,0,0,0,0,0,0,0,-1,1119,1058,0,0
-98,-34,0,0,0,0,0,0,0,0,0,-1,1126,1058,0,0
-91,-34,0,0,0,0,0,0,0,0,0,-1,1133,1058,0,0
-84,-34,0,0,0,0,0,0,0,0,0,-1,1140,1058,0,0
-77,-34,0,0,0,0,0,0,0,0,0,-1,1147,1058,0,0
-70,-34,0,0,0,0,0,0,0,0,0,-1,1154,1058,0,0
-63,-34,0,0,0,0,0,0,0,0,0,-1,1161,1058,0,0
-56,-34,0,0,0,0,0,0,0,0,0,-1,1168,1058,0,0
-49,-34,0,0,0,0,0,0,0,0,0,-1,1175,1058,0,0
-42,-34,0,0,0,0,0,0,0,0,0,-1,1182,1058,0,0
-35,-34,0,0,0,0,0,0,0,0,0,-1,1189,1058,0,0
-28,-34,0,0,0,0,0,0,0,0,0,-1,1196,1058,0,0
-21,-34,0,0,0,0,0,0,0,0,0,-1,1203,1058,0,0
-14,-34,0,0,0,0,0,0,0,0,0,-1,1210,1058,0,0
-7,-34,0,0,0,0,0,0,0,0,0,-1,1217,1058,0,0
0,-34,0,0,0,0,0,0,0,0,0,-1,1224,1058,0,0
7,-34,0,0,0,0,0,0,0,0,0,-1,1231,1058,0,0
14,-34,0,0,0,0,0,0,0,0,0,-1,1238,1058,0,0
21,-34,0,0,0,0,0,0,0,0,0,-1,1245,1058,0,0
28,-34,0,0,0,0,0,0,0,0,0,-1,1252,1058,0,0
35,-34,0,0,0,0,0,0,0,0,0,-1,1259,1058,0,0
42,-34,0,0,0,0,0,0,0,0,0,-1,1266,1058,0,0
49,-34,0,0,0,0,0,0,0,0,0,-1,1273,1058,0,0
56,-34,0,0,0,0,0,0,0,0,0,-1,1280,1058,0,0
63,-34,0,0,0,0,0,0,0,0,0,-1,1287,1058,0,0
70,-34,0,0,0,0,0,0,0,0,0,-1,1294,1058,0,0
77,-34,0,0,0,0,0,0,0,0,0,-1,1301,1058,0,0
84,-34,0,0,0,0,0,0,0,0,0,-1,1308,1058,0,0
91,-34,0,0,0,0,0,0,0,0,0,-1,1315,1058,0,0
98,-34,0,0,0,0,0,0,0,0,0,-1,1322,1058,0,0
105,-34,0,0,0,0,0,0,0,0,0,-1,1329,1058,0,0
112,-34,0,0,0,0,0,0,0,0,0,-1,1336,1058,0,0
119,-34,0,0,0,0,0,0,0,0,0,-1,1343,1058,0,0
126,-34,0,0,0,0,0,0,0,0,0,-1,1350,1058,0,0
133,-34,0,0,0,0,0,0,0,0,0,-1,1357,1058,0,0
140,-34,0,0,0,0,0,0,0,0,0,-1,1364,1058,0,0
147,-34,0,0,0,0,0,0,0,0,0,-1,1371,1058,0,0
154,-34,0,0,0,0,0,0,0,0,0,-1,1378,1058,0,0
161,-34,0,0,0,0,0,0,0,0,0,-1,1385,1058,0,0
168,-34,0,0,0,0,0,0,0,0,0,-1,1392,1058,0,0
175,-34,0,0,0,0,0,0,0,0,0,-1,1399,1058,0,0
182,-34,0,0,0,0,0,0,0,0,0,-1,1406,1058,0,0
189,-34,0,0,0,0,0,0,0,0,0,-1,1413,1058,0,0
196,-34,0,0,0,0,0,0,0,0,0,-1,1420,1058,0,0
203,-34,0,0,0,0,0,0,0,0,0,-1,1427,1058,0,0
210,-34,0,0,0,0,0,0,0,0,0,-1,1434,1058,0,0
217,-34,0,0,0,0,0,0,0,0,0,-1,1441,1058,0,0
224,-34,0,0,0,0,0,0,0,0,0,-1,1448,1058,0,0
231,-34,0,0,0,0,0,0,0,0,0,-1,1455,1058,0,0
238,-34,0,0,0,0,0,0,0,0,0,-1,1462,1058,0,0
245,-34,0,0,0,0,0,0,0,0,0,-1,1469,1058,0,0
252,-34,0,0,0,0,0,0,0,0,0,-1,1476,1058,0,0
259,-34,0,0,0,0,0,0,0,0,0,-1,1483,1058,0,0
266,-34,0,0,0,0,0,0,0,0,0,-1,1490,1058,0,0
273,-34,0,0,0,0,0,0,0,0,0,-1,1497,1058,0,0
280,-34,0,0,0,0,0,0,0,0,0,-1,1504,1058,0,0
287,-34,0,0,0,0,0,0,0,0,0,-1,1511,1058,0,0
294,-34,0,0,0,0,0,0,0,0,0,-1,1518,1058,0,0
301,-34,0,0,0,0,0,0,0,0,0,-1,1525,1058,0,0
308,-34,0,0,0,0,0,0,0,0,0,-1,1532,1058,0,0
315,-34,0,0,0,0,0,0,0,0,0,-1,1539,1058,0,0
322,-34,0,0,0,0,0,0,0,0,0,-1,1546,1058,0,0
329,-34,0,0,0,0,0,0,0,0,0,-1,1553,1058,0,0
336,-34,0,0,0,0,0,0,0,0,0,-1,1560,1058,0,0
343,-34,0,0,0,0,0,0,0,0,0,-1,1567,1058,0,0
350,-34,0,0,0,0,0,0,0,0,0,-1,1574,1058,0,0
357,-34,0,0,0,0,0,0,0,0,0,-1,1581,1058,0,0
364,-34,0,0,0,0,0,0,0,0,0,-1,1588,1058,0,0
371,-34,0,0,0,0,0,0,0,0,0,-1,1595,1058,0,0
378,-34,0,0,0,0,0,0,0,0,0,-1,1602,1058,0,0
385,-34,0,0,0,0,0,0,0,0,0,-1,1609,1058,0,0
392,-34,0,0,0,0,0,0,0,0,0,-1,1616,1058,0,0
399,-34,0,0,0,0,0,0,0,0,0,-1,1623,1058,0,0
406,-34,0,0,0,0,0,0,0,0,0,-1,1630,1058,0,0
413,-34,0,0,0,0,0,0,0,0,0,-1,1637,1058,0,0
420,-34,0,0,0,0,0,0,0,0,0,-1,1644,1058,0,0
427,-34,0,0,0,0,0,0,0,0,0,-1,1651,1058,0,0
434,-34,0,0,0,0,0,0,0,0,0,-1,1658,1058,0,0
441,-34,0,0,0,0,0,0,0,0,0,-1,1665,1058,0,0
448,-34,0,0,0,0,0,0,0,0,0,-1,1672,1058,0,0
455,-34,0,0,0,0,0,0,0,0,0,-1,1679,1058,0,0
462,-34,0,0,0,0,0,0,0,0,0,-1,1686,1058,0,0
469,-34,0,0,0,0,0,0,0,0,0,-1,1693,1058,0,0
476,-34,0,0,0,0,0,0,0,0,0,-1,1700,1058,0,0
483,-34,0,0,0,0,0,0,0,0,0,-1,1707,1058,0,0
490,-34,0,0,0,0,0,0,0,0,0,-1,1714,1058,0,0
497,-34,0,0,0,0,0,0,0,0,0,-1,1721,1058,0,0
504,-34,0,0,0,0,0,0,0,0,0,-1,1728,1058,0,0
511,-34,0,0,0,0,0,0,0,0,0,-1,1735,1058,0,0
518,-34,0,0,0,0,0,0,0,0,0,-1,1742,1058,0,0
525,-34,0,0,0,0,0,0,0,0,0,-1,1749,1058,0,0
532,-34,0,0,0,0,0,0,0,0,0,-1,1756,1058,0,0
539,-34,0,0,0,0,0,0,0,0,0,-1,1763,1058,0,0
546,-34,0,0,0,0,0,0,0,0,0,-1,1770,1058,0,0
553,-34,0,0,0,0,0,0,0,0,0,-1,1777,1058,0,0
560,-34,0,0,0,0,0,0,0,0,0,-1,1784,1058,0,0
567,-34,0,0,0,0,0,0,0,0,0,-1,1791,1058,0,0
574,-34,0,0,0,0,0,0,0,0,0,-1,1798,1058,0,0
581,-34,0,0,0,0,0,0,0,0,0,-1,1805,1058,0,0
588,-34,0,0,0,0,0,0,0,0,0,-1,1812,1058,0,0
595,-34,0,0,0,0,0,0,0,0,0,-1,1819,1058,0,0
602,-34,0,0,0,0,0,0,0,0,0,-1,1826,1058,0,0
609,-34,0,0,0,0,0,0,0,0,0,-1,1833,1058,0,0
616,-34,0,0,0,0,0,0,0,0,0,-1,1840,1058,0,0
623,-34,0,0,0,0,0,0,0,0,0,-1,1847,1058,0,0
630,-34,0,0,0,0,0,0,0,0,0,-1,1854,1058,0,0
637,-34,0,0,0,0,0,0,0,0,0,-1,1861,1058,0,0
644,-34,0,0,0,0,0,0,0,0,0,-1,1868,1058,0,0
651,-34,54.2386,2.65076,-0.00262316,0.00240812,0.00470242,0.00522551,-0.00544054,1.03101,0.00615846,0.0390034,1875,1058,54.2387,-2.65075
658,-34,54.0812,2.6095,-0.00149518,0.00187953,0.00342553,0.00401073,-0.00362639,1.01425,0.00441115,0.04335,1882,1058,54.0811,-2.6095
665,-34,53.9282,2.7688,-0.000851776,0.00152104,0.00255407,0.00315081,-0.00248155,1.00283,0.00325948,0.0407308,1889,1058,53.9282,-2.76882
672,-34,53.9407,2.70618,-0.000469165,0.00132651,0.0021922,0.00279761,-0.00194026,0.979759,0.0027503,0.0390208,1896,1058,53.9407,-2.70619
679,-34,53.9635,2.61926,-0.000270338,0.0012451,0.00218597,0.00280095,-0.00182618,0.952233,0.00269116,0.0402767,1903,1058,53.9635,-2.61925
686,-34,54.1219,2.62549,-0.000536263,0.0010005,0.00244641,0.00279636,-0.00233212,0.937563,0.00296497,0.0420783,1910,1058,54.1219,-2.62552
693,-34,54.1658,2.6311,-0.000911492,0.000710608,0.00284509,0.00285799,-0.00305887,0.92425,0.00341676,0.0407709,1917,1058,54.1657,-2.63114
700,-34,54.0554,2.63403,-0.00118377,0.000478457,0.00327429,0.00302547,-0.00373078,0.909688,0.0039078,0.0379629,1924,1058,54.0554,-2.63403
707,-34,53.9727,2.66541,-0.00156606,0.000466144,0.0034966,0.00309129,-0.0041912,0.926802,0.0042205,0.0248926,1931,1058,53.9726,-2.66546
714,-34,53.9949,2.74475,-0.00215701,0.000713111,0.00362151,0.00317353,-0.00461743,0.974037,0.00452379,0.0202264,1938,1058,53.9949,-2.74474
721,-34,54.0273,3.18701,-0.00307045,0.00121362,0.00373793,0.00337977,-0.0052366,1.04558,0.00501302,0.0459123,1945,1058,54.0274,-3.18704
728,-34,53.5792,6.61731,0,0,0,0,0,0,0,-1,1952,1058,53.5792,-6.61727
735,-34,53.3779,6.49988,-0.0050665,0.0028103,0.00377225,0.00432542,-0.00658162,1.18887,0.00634193,0.0211315,1959,1058,53.3779,-6.49988
742,-34,53.2809,6.32715,-0.00551536,0.00348836,0.00332611,0.0045838,-0.0066108,1.25264,0.00649843,0.0168686,1966,1058,53.2809,-6.3272
749,-34,53.335,6.14844,-0.00562316,0.00472803,0.00228341,0.00520935,-0.00610449,1.36305,0.00653886,0.0147291,1973,1058,53.335,-6.14845
756,-34,53.353,5.94604,-0.00557429,0.00539863,0.000974583,0.00548451,-0.00566017,1.4829,0.00643465,0.0122645,1980,1058,53.353,-5.94603
763,-34,53.2921,5.74255,-0.00520738,0.00531001,-0.000754831,0.00536391,-0.00526128,-1.49951,0.00613455,0.0134139,1987,1058,53.2921,-5.74259
770,-34,53.1815,5.55383,-0.0042704,0.00530084,-0.00317877,0.00626037,-0.00522993,-1.27764,0.00664281,0.0182347,1994,1058,53.1815,-5.55382
777,-34,53.0588,5.47461,-0.00206127,0.00388572,-0.00628839,0.0078682,-0.00604375,-1.00625,0.00805506,0.0213484,2001,1058,53.0589,-5.47461
784,-34,52.9846,5.34973,0.00101553,0.000841815,-0.00962233,0.0105514,-0.00869405,-0.780885,0.0111286,0.0410536,2008,1058,52.9847,-5.34974
791,-34,52.9529,5.20654,0,0,0,0,0,0,0,-1,2015,1058,52.9528,-5.20657
798,-34,54.3223,4.78357,0,0,0,0,0,0,0,-1,2022,1058,54.3223,-4.78359
805,-34,55.0552,4.86377,0,0,0,0,0,0,0,-1,2029,1058,55.0552,-4.86378
812,-34,55.1921,5.10303,0,0,0,0,0,0,0,-1,2036,1058,55.1921,-5.10297
-700,-41,-41.1563,-4.41406,0,0,0,0,0,0,0,-1,524,1065,-41.1563,4.41401
-693,-41,-40.9637,-3.88904,0,0,0,0,0,0,0,-1,531,1065,-40.9638,3.88909
-686,-41,-40.7175,-2.98743,0.0267854,0.0567601,0.0644988,0.10799,-0.0244445,0.899556,0.0813747,0.0460545,538,1065,-40.7175,2.98748
-679,-41,-40.5038,-2.07324,0.0216726,0.0497051,0.0571109,0.0944946,-0.0231169,0.90573,0.0719507,0.046938,545,1065,-40.5037,2.0733
-672,-41,-40.2947,-1.07935,0.0168258,0.0426713,0.0488675,0.0802959,-0.0207987,0.914661,0.0616444,0.0440302,552,1065,-40.2948,1.07933
-665,-41,-40.1624,0.0626221,0.0126265,0.0358971,0.0405279,0.0664268,-0.0179032,0.925186,0.0513043,0.0418287,559,1065,-40.1623,-0.0625762
-658,-41,-39.9239,1.08789,0.00917461,0.0295075,0.0325296,0.0534224,-0.0147402,0.936854,0.0414122,0.0386202,566,1065,-39.9239,-1.08787
-651,-41,-39.6573,2.06372,0.00644657,0.0235793,0.0251408,0.0415731,-0.0115473,0.949597,0.0322609,0.0311698,573,1065,-39.6573,-2.06374
-644,-41,-39.9582,2.41089,0.00420973,0.0183559,0.0184202,0.0310143,-0.00844864,0.968711,0.0239935,0.0169243,580,1065,-39.9582,-2.41086
-637,-41,-40.0384,2.65845,0.00251692,0.0132573,0.0120668,0.0210949,-0.00532071,0.994758,0.016132,0.0183908,587,1065,-40.0384,-2.6585
-630,-41,-40.0337,2.95764,0.000958828,0.00820557,0.00643205,0.0119646,-0.00280022,1.04191,0.00905531,0.015199,594,1065,-40.0337,-2.95762
-623,-41,-39.9984,3.22595,0.000110624,0.00472559,0.00285502,0.00608902,-0.00125281,1.12526,0.004535,0.0123644,601,1065,-39.9983,-3.22593
-616,-41,-39.9894,3.53699,-0.000183936,0.00248319,0.000413019,0.00254568,-0.00024643,1.42063,0.00178494,0.0165289,608,1065,-39.9894,-3.53701
-609,-41,-39.9476,3.80908,-0.000140224,0.00133711,-0.00121375,0.00201929,-0.000822406,-1.05875,0.00168847,0.0216393,615,1065,-39.9476,-3.80905
-602,-41,-39.9867,4.03076,-0.000270682,1.46437e-05,-0.00202102,0.00189803,-0.00215407,-0.820635,0.00234103,0.0142303,622,1065,-39.9867,-4.03082
-595,-41,-40.1395,4.17969,-0.000272958,-0.000545592,-0.00246531,0.0020598,-0.00287835,-0.757779,0.00286407,0.0235464,629,1065,-40.1395,-4.17974
-588,-41,-40.4292,2.43982,0,0,0,0,0,0,0,-1,636,1065,-40.4292,-2.43984
-581,-41,-40.6336,0.78186,0,0,0,0,0,0,0,-1,643,1065,-40.6336,-0.781918
-574,-41,-40.6434,0.914307,0.000871262,-0.00121515,-0.00180014,0.00190863,-0.00225252,-0.522789,0.00240517,0.0388363,650,1065,-40.6434,-0.914296
-567,-41,-40.7245,1.06006,0.00107507,-0.000857847,-0.00144892,0.00185028,-0.00163306,-0.491274,0.00201241,0.0410413,657,1065,-40.7245,-1.06002
-560,-41,-40.6953,0.870483,0.00133026,-0.000217993,-0.00104103,0.00185345,-0.00074118,-0.465698,0.00154321,0.0430572,664,1065,-40.6953,-0.870436
-553,-41,-40.7199,1.01331,0.00180986,0.000559282,-0.000587037,0.00204225,0.0003269,-0.376927,0.00126667,0.046318,671,1065,-40.7199,-1.01335
-546,-41,-40.7415,1.1001,0.00272014,0.00119971,-0.000125972,0.0027305,0.00118934,-0.0821068,0.00158081,0.0428886,678,1065,-40.7415,-1.10009
-539,-41,-40.4467,1.00183,0.00403578,0.00137395,-0.00011262,0.00404054,0.0013692,-0.0422087,0.00237284,0.04065,685,1065,-40.4467,-1.00178
-532,-41,-40.3501,0.96582,0.00521224,0.0015381,0.000340763,0.00524358,0.00150677,0.091704,0.00311731,0.0393727,692,1065,-40.3501,-0.965762
-525,-41,0,0,0,0,0,0,0,0,0,-1,699,1065,0,0
-518,-41,0,0,0,0,0,0,0,0,0,-1,706,1065,0,0
-511,-41,0,0,0,0,0,0,0,0,0,-1,713,1065,0,0
-504,-41,0,0,0,0,0,0,0,0,0,-1,720,1065,0,0
-497,-41,0,0,0,0,0,0,0,0,0,-1,727,1065,0,0
-490,-41,0,0,0,0,0,0,0,0,0,-1,734,1065,0,0
-483,-41,0,0,0,0,0,0,0,0,0,-1,741,1065,0,0
-476,-41,0,0,0,0,0,0,0,0,0,-1,748,1065,0,0
-469,-41,0,0,0,0,0,0,0,0,0,-1,755,1065,0,0
-462,-41,0,0,0,0,0,0,0,0,0,-1,762,1065,0,0
-455,-41,0,0,0,0,0,0,0,0,0,-1,769,1065,0,0
-448,-41,0,0,0,0,0,0,0,0,0,-1,776,1065,0,0
-441,-41,0,0,0,0,0,0,0,0,0,-1,783,1065,0,0
-434,-41,0,0,0,0,0,0,0,0,0,-1,790,1065,0,0
-427,-41,0,0,0,0,0,0,0,0,0,-1,797,1065,0,0
-420,-41,0,0,0,0,0,0,0,0,0,-1,804,1065,0,0
-413,-41,0,0,0,0,0,0,0,0,0,-1,811,1065,0,0
-406,-41,0,0,0,0,0,0,0,0,0,-1,818,1065,0,0
-399,-41,0,0,0,0,0,0,0,0,0,-1,825,1065,0,0
-392,-41,0,0,0,0,0,0,0,0,0,-1,832,1065,0,0
-385,-41,0,0,0,0,0,0,0,0,0,-1,839,1065,0,0
-378,-41,0,0,0,0,0,0,0,0,0,-1,846,1065,0,0
-371,-41,0,0,0,0,0,0,0,0,0,-1,853,1065,0,0
-364,-41,0,0,0,0,0,0,0,0,0,-1,860,1065,0,0
-357,-41,0,0,0,0,0,0,0,0,0,-1,867,1065,0,0
-350,-41,0,0,0,0,0,0,0,0,0,-1,874,1065,0,0
-343,-41,0,0,0,0,0,0,0,0,0,-1,881,1065,0,0
-336,-41,0,0,0,0,0,0,0,0,0,-1,888,1065,0,0
-329,-41,0,0,0,0,0,0,0,0,0,-1,895,1065,0,0
-322,-41,0,0,0,0,0,0,0,0,0,-1,902,1065,0,0
-315,-41,0,0,0,0,0,0,0,0,0,-1,909,1065,0,0
-308,-41,0,0,0,0,0,0,0,0,0,-1,916,1065,0,0
-301,-41,0,0,0,0,0,0,0,0,0,-1,923,1065,0,0
-294,-41,0,0,0,0,0,0,0,0,0,-1,930,1065,0,0
-287,-41,0,0,0,0,0,0,0,0,0,-1,937,1065,0,0
-280,-41,0,0,0,0,0,0,0,0,0,-1,944,1065,0,0
-273,-41,0,0,0,0,0,0,0,0,0,-1,951,1065,0,0
-266,-41,0,0,0,0,0,0,0,0,0,-1,958,1065,0,0
-259,-41,0,0,0,0,0,0,0,0,0,-1,965,1065,0,0
-252,-41,0,0,0,0,0,0,0,0,0,-1,972,1065,0,0
-245,-41,0,0,0,0,0,0,0,0,0,-1,979,1065,0,0
-238,-41,0,0,0,0,0,0,0,0,0,-1,986,1065,0,0
-231,-41,0,0,0,0,0,0,0,0,0,-1,993,1065,0,0
-224,-41,0,0,0,0,0,0,0,0,0,-1,1000,1065,0,0
-217,-41,0,0,0,0,0,0,0,0,0,-1,1007,1065,0,0
-210,-41,0,0,0,0,0,0,0,0,0,-1,1014,1065,0,0
-203,-41,0,0,0,0,0,0,0,0,0,-1,1021,1065,0,0
-196,-41,0,0,0,0,0,0,0,0,0,-1,1028,1065,0,0
-189,-41,0,0,0,0,0,0,0,0,0,-1,1035,1065,0,0
-182,-41,0,0,0,0,0,0,0,0,0,-1,1042,1065,0,0
-175,-41,0,0,0,0,0,0,0,0,0,-1,1049,1065,0,0
-168,-41,0,0,0,0,0,0,0,0,0,-1,1056,1065,0,0
-161,-41,0,0,0,0,0,0,0,0,0,-1,1063,1065,0,0
-154,-41,0,0,0,0,0,0,0,0,0,-1,1070,1065,0,0
-147,-41,0,0,0,0,0,0,0,0,0,-1,1077,1065,0,0
-140,-41,0,0,0,0,0,0,0,0,0,-1,1084,1065,0,0
-133,-41,0,0,0,0,0,0,0,0,0,-1,1091,1065,0,0
-126,-41,0,0,0,0,0,0,0,0,0,-1,1098,1065,0,0
-119,-41,0,0,0,0,0,0,0,0,0,-1,1105,1065,0,0
-112,-41,0,0,0,0,0,0,0,0,0,-1,1112,1065,0,0
-105,-41,0,0,0,0,0,0,0,0,0,-1,1119,1065,0,0
-98,-41,0,0,0,0,0,0,0,0,0,-1,1126,1065,0,0
-91,-41,0,0,0,0,0,0,0,0,0,-1,1133,1065,0,0
-84,-41,0,0,0,0,0,0,0,0,0,-1,1140,1065,0,0
-77,-41,0,0,0,0,0,0,0,0,0,-1,1147,1065,0,0
-70,-41,0,0,0,0,0,0,0,0,0,-1,1154,1065,0,0
-63,-41,0,0,0,0,0,0,0,0,0,-1,1161,1065,0,0
-56,-41,0,0,0,0,0,0,0,0,0,-1,1168,1065,0,0
-49,-41,0,0,0,0,0,0,0,0,0,-1,1175,1065,0,0
-42,-41,0,0,0,0,0,0,0,0,0,-1,1182,1065,0,0
-35,-41,0,0,0,0,0,0,0,0,0,-1,1189,1065,0,0
-28,-41,0,0,0,0,0,0,0,0,0,-1,1196,1065,0,0
-21,-41,0,0,0,0,0,0,0,0,0,-1,1203,1065,0,0
-14,-41,0,0,0,0,0,0,0,0,0,-1,1210,1065,0,0
-7,-41,0,0,0,0,0,0,0,0,0,-1,1217,1065,0,0
0,-41,0,0,0,0,0,0,0,0,0,-1,1224,1065,0,0
7,-41,0,0,0,0,0,0,0,0,0,-1,1231,1065,0,0
14,-41,0,0,0,0,0,0,0,0,0,-1,1238,1065,0,0
21,-41,0,0,0,0,0,0,0,0,0,-1,1245,1065,0,0
28,-41,0,0,0,0,0,0,0,0,0,-1,1252,1065,0,0
35,-41,0,0,0,0,0,0,0,0,0,-1,1259,1065,0,0
42,-41,0,0,0,0,0,0,0,0,0,-1,1266,1065,0,0
49,-41,0,0,0,0,0,0,0,0,0,-1,1273,1065,0,0
56,-41,0,0,0,0,0,0,0,0,0,-1,1280,1065,0,0
63,-41,0,0,0,0,0,0,0,0,0,-1,1287,1065,0,0
70,-41,0,0,0,0,0,0,0,0,0,-1,1294,1065,0,0
77,-41,0,0,0,0,0,0,0,0,0,-1,1301,1065,0,0
84,-41,0,0,0,0,0,0,0,0,0,-1,1308,1065,0,0
91,-41,0,0,0,0,0,0,0,0,0,-1,1315,1065,0,0
98,-41,0,0,0,0,0,0,0,0,0,-1,1322,1065,0,0
105,-41,0,0,0,0,0,0,0,0,0,-1,1329,1065,0,0
112,-41,0,0,0,0,0,0,0,0,0,-1,1336,1065,0,0
119,-41,0,0,0,0,0,0,0,0,0,-1,1343,1065,0,0
126,-41,0,0,0,0,0,0,0,0,0,-1,1350,1065,0,0
133,-41,0,0,0,0,0,0,0,0,0,-1,1357,1065,0,0
140,-41,0,0,0,0,0,0,0,0,0,-1,1364,1065,0,0
147,-41,0,0,0,0,0,0,0,0,0,-1,1371,1065,0,0
154,-41,0,0,0,0,0,0,0,0,0,-1,1378,1065,0,0
161,-41,0,0,0,0,0,0,0,0,0,-1,1385,1065,0,0
168,-41,0,0,0,0,0,0,0,0,0,-1,1392,1065,0,0
175,-41,0,0,0,0,0,0,0,0,0,-1,1399,1065,0,0
182,-41,0,0,0,0,0,0,0,0,0,-1,1406,1065,0,0
189,-41,0,0,0,0,0,0,0,0,0,-1,1413,1065,0,0
196,-41,0,0,0,0,0,0,0,0,0,-1,1420,1065,0,0
203,-41,0,0,0,0,0,0,0,0,0,-1,1427,1065,0,0
210,-41,0,0,0,0,0,0,0,0,0,-1,1434,1065,0,0
217,-41,0,0,0,0,0,0,0,0,0,-1,1441,1065,0,0
224,-41,0,0,0,0,0,0,0,0,0,-1,1448,1065,0,0
231,-41,0,0,0,0,0,0,0,0,0,-1,1455,1065,0,0
238,-41,0,0,0,0,0,0,0,0,0,-1,1462,1065,0,0
245,-41,0,0,0,0,0,0,0,0,0,-1,1469,1065,0,0
252,-41,0,0,0,0,0,0,0,0,0,-1,1476,1065,0,0
259,-41,0,0,0,0,0,0,0,0,0,-1,1483,1065,0,0
266,-41,0,0,0,0,0,0,0,0,0,-1,1490,1065,0,0
273,-41,0,0,0,0,0,0,0,0,0,-1,1497,1065,0,0
280,-41,0,0,0,0,0,0,0,0,0,-1,1504,1065,0,0
287,-41,0,0,0,0,0,0,0,0,0,-1,1511,1065,0,0
294,-41,0,0,0,0,0,0,0,0,0,-1,1518,1065,0,0
301,-41,0,0,0,0,0,0,0,0,0,-1,1525,1065,0,0
308,-41,0,0,0,0,0,0,0,0,0,-1,1532,1065,0,0
315,-41,0,0,0,0,0,0,0,0,0,-1,1539,1065,0,0
322,-41,0,0,0,0,0,0,0,0,0,-1,1546,1065,0,0
329,-41,0,0,0,0,0,0,0,0,0,-1,1553,1065,0,0
336,-41,0,0,0,0,0,0,0,0,0,-1,1560,1065,0,0
343,-41,0,0,0,0,0,0,0,0,0,-1,1567,1065,0,0
350,-41,0,0,0,0,0,0,0,0,0,-1,1574,1065,0,0
357,-41,0,0,0,0,0,0,0,0,0,-1,1581,1065,0,0
364,-41,0,0,0,0,0,0,0,0,0,-1,1588,1065,0,0
371,-41,0,0,0,0,0,0,0,0,0,-1,1595,1065,0,0
378,-41,0,0,0,0,0,0,0,0,0,-1,1602,1065,0,0
385,-41,0,0,0,0,0,0,0,0,0,-1,1609,1065,0,0
392,-41,0,0,0,0,0,0,0,0,0,-1,1616,1065,0,0
399,-41,0,0,0,0,0,0,0,0,0,-1,1623,1065,0,0
406,-41,0,0,0,0,0,0,0,0,0,-1,1630,1065,0,0
413,-41,0,0,0,0,0,0,0,0,0,-1,1637,1065,0,0
420,-41,0,0,0,0,0,0,0,0,0,-1,1644,1065,0,0
427,-41,0,0,0,0,0,0,0,0,0,-1,1651,1065,0,0
434,-41,0,0,0,0,0,0,0,0,0,-1,1658,1065,0,0
441,-41,0,0,0,0,0,0,0,0,0,-1,1665,1065,0,0
448,-41,0,0,0,0,0,0,0,0,0,-1,1672,1065,0,0
455,-41,0,0,0,0,0,0,0,0,0,-1,1679,1065,0,0
462,-41,0,0,0,0,0,0,0,0,0,-1,1686,1065,0,0
469,-41,0,0,0,0,0,0,0,0,0,-1,1693,1065,0,0
476,-41,0,0,0,0,0,0,0,0,0,-1,1700,1065,0,0
483,-41,0,0,0,0,0,0,0,0,0,-1,1707,1065,0,0
490,-41,0,0,0,0,0,0,0,0,0,-1,1714,1065,0,0
497,-41,0,0,0,0,0,0,0,0,0,-1,1721,1065,0,0
504,-41,0,0,0,0,0,0,0,0,0,-1,1728,1065,0,0
511,-41,0,0,0,0,0,0,0,0,0,-1,1735,1065,0,0
518,-41,0,0,0,0,0,0,0,0,0,-1,1742,1065,0,0
525,-41,0,0,0,0,0,0,0,0,0,-1,1749,1065,0,0
532,-41,0,0,0,0,0,0,0,0,0,-1,1756,1065,0,0
539,-41,0,0,0,0,0,0,0,0,0,-1,1763,1065,0,0
546,-41,0,0,0,0,0,0,0,0,0,-1,1770,1065,0,0
553,-41,0,0,0,0,0,0,0,0,0,-1,1777,1065,0,0
560,-41,0,0,0,0,0,0,0,0,0,-1,1784,1065,0,0
567,-41,0,0,0,0,0,0,0,0,0,-1,1791,1065,0,0
574,-41,0,0,0,0,0,0,0,0,0,-1,1798,1065,0,0
581,-41,0,0,0,0,0,0,0,0,0,-1,1805,1065,0,0
588,-41,0,0,0,0,0,0,0,0,0,-1,1812,1065,0,0
595,-41,0,0,0,0,0,0,0,0,0,-1,1819,1065,0,0
602,-41,0,0,0,0,0,0,0,0,0,-1,1826,1065,0,0
609,-41,0,0,0,0,0,0,0,0,0,-1,1833,1065,0,0
616,-41,0,0,0,0,0,0,0,0,0,-1,1840,1065,0,0
623,-41,0,0,0,0,0,0,0,0,0,-1,1847,1065,0,0
630,-41,0,0,0,0,0,0,0,0,0,-1,1854,1065,0,0
637,-41,0,0,0,0,0,0,0,0,0,-1,1861,1065,0,0
644,-41,0,0,0,0,0,0,0,0,0,-1,1868,1065,0,0
651,-41,54.0227,2.58655,-0.00389423,0.0018127,0.00502707,0.0047397,-0.00682123,1.04353,0.00671067,0.0358981,1875,1065,54.0226,-2.58653
658,-41,53.8053,2.6073,-0.00224796,0.00139126,0.00367024,0.00366819,-0.00452489,1.01553,0.00473889,0.040816,1882,1065,53.8053,-2.60733
665,-41,53.7671,2.86035,-0.00124554,0.00108107,0.00273684,0.00289158,-0.00305605,0.986357,0.0034343,0.0418663,1889,1065,53.767,-2.8603
672,-41,54.0447,2.77551,-0.000606646,0.000904725,0.00230138,0.00257132,-0.00227324,0.944033,0.00279877,0.0426171,1896,1065,54.0447,-2.77549
679,-41,54.0828,2.69934,-0.000245505,0.000827291,0.00221218,0.00256717,-0.00198539,0.90434,0.00263556,0.0431443,1903,1065,54.0828,-2.6994
686,-41,54.1332,2.65857,-0.000408854,0.000588992,0.00241741,0.00255843,-0.00237829,0.887163,0.00285085,0.0433417,1910,1065,54.1331,-2.65853
693,-41,54.1626,2.60278,-0.000699859,0.000329321,0.00276523,0.00262743,-0.00299797,0.877392,0.00325018,0.043216,1917,1065,54.1626,-2.60284
700,-41,54.074,2.63428,-0.00092362,0.000159592,0.00317133,0.00283523,-0.00359926,0.869973,0.00372368,0.0383842,1924,1065,54.074,-2.63427
707,-41,54.0021,2.64124,-0.00122719,0.000169191,0.0033943,0.00293637,-0.00399437,0.886831,0.00401697,0.0282042,1931,1065,54.0021,-2.64122
714,-41,54.0082,2.6864,-0.00175013,0.00039901,0.0035453,0.00302901,-0.00438013,0.932546,0.00430132,0.0236009,1938,1065,54.0082,-2.68645
721,-41,53.995,2.7345,0,0,0,0,0,0,0,-1,1945,1065,53.9949,-2.73455
728,-41,53.3385,6.63879,0,0,0,0,0,0,0,-1,1952,1065,53.3385,-6.63883
735,-41,53.1576,6.48059,-0.00452652,0.00236659,0.00387357,0.00410494,-0.00626487,1.14896,0.00603015,0.0211445,1959,1065,53.1576,-6.48065
742,-41,53.0449,6.31006,-0.00506988,0.00318615,0.00358077,0.00452279,-0.00640652,1.21353,0.0063412,0.0176915,1966,1065,53.0449,-6.3101
749,-41,53.0854,6.14001,-0.00529461,0.00444593,0.00274651,0.00516698,-0.00601566,1.31406,0.0064625,0.0160557,1973,1065,53.0855,-6.14006
756,-41,53.1348,5.92908,-0.00535994,0.00513751,0.00172238,0.00541289,-0.00563532,1.41226,0.00637912,0.0154506,1980,1065,53.1348,-5.92903
763,-41,53.0399,5.69397,-0.00517733,0.00519415,0.000360185,0.00520665,-0.00518983,1.53612,0.00600241,0.0127679,1987,1065,53.04,-5.69399
770,-41,52.9414,5.50305,-0.00455285,0.00530664,-0.00158535,0.00555529,-0.00480149,-1.41522,0.00598477,0.0129607,1994,1065,52.9414,-5.50307
777,-41,52.8284,5.29565,-0.00287857,0.00410258,-0.00394618,0.00588045,-0.00465643,-1.1475,0.00609714,0.0161334,2001,1065,52.8285,-5.29565
784,-41,52.7048,5.06311,-0.000404147,0.00128698,-0.00638938,0.00688651,-0.00600367,-0.851185,0.00744796,0.0289571,2008,1065,52.7049,-5.06307
791,-41,52.5989,4.86182,0.00294748,-0.00387946,-0.00908931,0.00924314,-0.0101751,-0.605773,0.0112154,0.045642,2015,1065,52.5989,-4.86184
798,-41,52.5938,4.7251,0,0,0,0,0,0,0,-1,2022,1065,52.5939,-4.72504
805,-41,51.6279,2.59119,0,0,0,0,0,0,0,-1,2029,1065,51.6279,-2.59115
812,-41,55.3696,5.27429,0,0,0,0,0,0,0,-1,2036,1065,55.3695,-5.27425
-700,-48,-41.442,-4.67505,0.0425027,0.0556813,0.0695245,0.118928,-0.020744,0.832645,0.087028,0.0474478,524,1072,-41.442,4.67508
-693,-48,-41.2712,-4.15503,0.0400083,0.0504289,0.0674896,0.112909,-0.0224718,0.823922,0.0837741,0.0446139,531,1072,-41.2712,4.15509
-686,-48,-40.8964,-3.39905,0.0348341,0.0451214,0.062567,0.102756,-0.0228003,0.826411,0.0772341,0.0477931,538,1072,-40.8964,3.39903
-679,-48,-40.7461,-2.47473,0.0288198,0.0396294,0.0553933,0.0898809,-0.0214317,0.834029,0.0681964,0.0479887,545,1072,-40.7461,2.4747
-672,-48,-40.3231,-1.50684,0.0228802,0.034164,0.0473093,0.0761666,-0.0191225,0.844746,0.0582085,0.0473785,552,1072,-40.3231,1.50678
-665,-48,-39.8173,-0.110718,0.0175288,0.0288976,0.0391038,0.062728,-0.0163016,0.857576,0.0481807,0.0453006,559,1072,-39.8173,0.110665
-658,-48,-39.705,0.739868,0.0129837,0.0239107,0.0312451,0.0501664,-0.013272,0.871952,0.0386357,0.0442559,566,1072,-39.705,-0.739868
-651,-48,-39.5035,1.64429,0.00931445,0.0192479,0.0240191,0.0388084,-0.010246,0.887353,0.029879,0.0366058,573,1072,-39.5035,-1.64434
-644,-48,-39.5703,2.43481,0,0,0,0,0,0,0,-1,580,1072,-39.5703,-2.43477
-637,-48,-39.6332,2.5813,0.00409759,0.0109114,0.0114202,0.019422,-0.00441305,0.930356,0.0146424,0.0212525,587,1072,-39.6332,-2.58132
-630,-48,-39.6349,2.8855,0.0021218,0.00670614,0.00594636,0.0107868,-0.00195888,0.969359,0.00792529,0.0230684,594,1072,-39.635,-2.88547
-623,-48,-39.7234,3.18396,0.000968049,0.00380916,0.00254148,0.00530015,-0.000522943,1.04024,0.00372002,0.0122048,601,1072,-39.7234,-3.18401
-616,-48,-39.7324,3.48218,0.000410183,0.00194591,0.000256793,0.00198771,0.000368382,1.40943,0.00122101,0.0111188,608,1072,-39.7324,-3.48219
-609,-48,-39.6727,3.82104,0.000342402,0.000978765,-0.00125773,0.00195794,-0.00063677,-0.909289,0.00156145,0.0120316,615,1072,-39.6727,-3.82107
-602,-48,-39.6804,4.07983,0.000199811,-0.000131575,-0.00201704,0.00205795,-0.00198971,-0.744417,0.00233703,0.0133762,622,1072,-39.6804,-4.07979
-595,-48,-39.7399,4.27759,0.00017459,-0.00054972,-0.00243871,0.00227789,-0.00265302,-0.711686,0.00284961,0.0311864,629,1072,-39.7399,-4.27762
-588,-48,-39.9511,4.42285,0,0,0,0,0,0,0,-1,636,1072,-39.9511,-4.42284
-581,-48,-40.5082,0.779785,0,0,0,0,0,0,0,-1,643,1072,-40.5083,-0.779816
-574,-48,-40.5906,0.794678,0.00115881,-0.000888081,-0.00179754,0.00220384,-0.00193311,-0.526606,0.00239017,0.0416301,650,1072,-40.5906,-0.79473
-567,-48,-40.665,1.11475,0.00132998,-0.000444259,-0.00146811,0.00215818,-0.00127246,-0.513625,0.00200257,0.0407958,657,1072,-40.665,-1.1148
-560,-48,-40.6215,1.17493,0.00152686,0.000283101,-0.00108151,0.00215254,-0.00034258,-0.524478,0.00156179,0.0405885,664,1072,-40.6215,-1.17492
-553,-48,-40.5739,1.06506,0.00194265,0.00114967,-0.000622429,0.00228415,0.000808176,-0.501807,0.00133741,0.0399838,671,1072,-40.5739,-1.06508
-546,-48,-40.6285,1.11084,0.00280152,0.00190295,-0.00011297,0.0028155,0.00188896,-0.123168,0.00165689,0.0385135,678,1072,-40.6285,-1.11081
-539,-48,-40.5199,1.15491,0.00425699,0.00211607,-8.80003e-06,0.00425703,0.00211604,-0.00411031,0.00245781,0.0407057,685,1072,-40.5199,-1.15488
-532,-48,-40.394,1.13013,0.00553508,0.00231423,0.000519386,0.00561676,0.00223255,0.155991,0.00326548,0.0404635,692,1072,-40.394,-1.13009
-525,-48,0,0,0,0,0,0,0,0,0,-1,699,1072,0,0
-518,-48,0,0,0,0,0,0,0,0,0,-1,706,1072,0,0
-511,-48,0,0,0,0,0,0,0,0,0,-1,713,1072,0,0
-504,-48,0,0,0,0,0,0,0,0,0,-1,720,1072,0,0
-497,-48,0,0,0,0,0,0,0,0,0,-1,727,1072,0,0
-490,-48,0,0,0,0,0,0,0,0,0,-1,734,1072,0,0
-483,-48,0,0,0,0,0,0,0,0,0,-1,741,1072,0,0
-476,-48,0,0,0,0,0,0,0,0,0,-1,748,1072,0,0
-469,-48,0,0,0,0,0,0,0,0,0,-1,755,1072,0,0
-462,-48,0,0,0,0,0,0,0,0,0,-1,762,1072,0,0
-455,-48,0,0,0,0,0,0,0,0,0,-1,769,1072,0,0
-448,-48,0,0,0,0,0,0,0,0,0,-1,776,1072,0,0
-441,-48,0,0,0,0,0,0,0,0,0,-1,783,1072,0,0
-434,-48,0,0,0,0,0,0,0,0,0,-1,790,1072,0,0
-427,-48,0,0,0,0,0,0,0,0,0,-1,797,1072,0,0
-420,-48,0,0,0,0,0,0,0,0,0,-1,804,1072,0,0
-413,-48,0,0,0,0,0,0,0,0,0,-1,811,1072,0,0
-406,-48,0,0,0,0,0,0,0,0,0,-1,818,1072,0,0
-399,-48,0,0,0,0,0,0,0,0,0,-1,825,1072,0,0
-392,-48,0,0,0,0,0,0,0,0,0,-1,832,1072,0,0
-385,-48,0,0,0,0,0,0,0,0,0,-1,839,1072,0,0
-378,-48,0,0,0,0,0,0,0,0,0,-1,846,1072,0,0
-371,-48,0,0,0,0,0,0,0,0,0,-1,853,1072,0,0
-364,-48,0,0,0,0,0,0,0,0,0,-1,860,1072,0,0
-357,-48,0,0,0,0,0,0,0,0,0,-1,867,1072,0,0
-350,-48,0,0,0,0,0,0,0,0,0,-1,874,1072,0,0
-343,-48,0,0,0,0,0,0,0,0,0,-1,881,1072,0,0
-336,-48,0,0,0,0,0,0,0,0,0,-1,888,1072,0,0
-329,-48,0,0,0,0,0,0,0,0,0,-1,895,1072,0,0
-322,-48,0,0,0,0,0,0,0,0,0,-1,902,1072,0,0
-315,-48,0,0,0,0,0,0,0,0,0,-1,909,1072,0,0
-308,-48,0,0,0,0,0,0,0,0,0,-1,916,1072,0,0
-301,-48,0,0,0,0,0,0,0,0,0,-1,923,1072,0,0
-294,-48,0,0,0,0,0,0,0,0,0,-1,930,1072,0,0
-287,-48,0,0,0,0,0,0,0,0,0,-1,937,1072,0,0
-280,-48,0,0,0,0,0,0,0,0,0,-1,944,1072,0,0
-273,-48,0,0,0,0,0,0,0,0,0,-1,951,1072,0,0
-266,-48,0,0,0,0,0,0,0,0,0,-1,958,1072,0,0
-259,-48,0,0,0,0,0,0,0,0,0,-1,965,1072,0,0
-252,-48,0,0,0,0,0,0,0,0,0,-1,972,1072,0,0
-245,-48,0,0,0,0,0,0,0,0,0,-1,979,1072,0,0
-238,-48,0,0,0,0,0,0,0,0,0,-1,986,1072,0,0
-231,-48,0,0,0,0,0,0,0,0,0,-1,993,1072,0,0
-224,-48,0,0,0,0,0,0,0,0,0,-1,1000,1072,0,0
-217,-48,0,0,0,0,0,0,0,0,0,-1,1007,1072,0,0
-210,-48,0,0,0,0,0,0,0,0,0,-1,1014,1072,0,0
-203,-48,0,0,0,0,0,0,0,0,0,-1,1021,1072,0,0
-196,-48,0,0,0,0,0,0,0,0,0,-1,1028,1072,0,0
-189,-48,0,0,0,0,0,0,0,0,0,-1,1035,1072,0,0
-182,-48,0,0,0,0,0,0,0,0,0,-1,1042,1072,0,0
-175,-48,0,0,0,0,0,0,0,0,0,-1,1049,1072,0,0
-168,-48,0,0,0,0,0,0,0,0,0,-1,1056,1072,0,0
-161,-48,0,0,0,0,0,0,0,0,0,-1,1063,1072,0,0
-154,-48,0,0,0,0,0,0,0,0,0,-1,1070,1072,0,0
-147,-48,0,0,0,0,0,0,0,0,0,-1,1077,1072,0,0
-140,-48,0,0,0,0,0,0,0,0,0,-1,1084,1072,0,0
-133,-48,0,0,0,0,0,0,0,0,0,-1,1091,1072,0,0
-126,-48,0,0,0,0,0,0,0,0,0,-1,1098,1072,0,0
-119,-48,0,0,0,0,0,0,0,0,0,-1,1105,1072,0,0
-112,-48,0,0,0,0,0,0,0,0,0,-1,1112,1072,0,0
-105,-48,0,0,0,0,0,0,0,0,0,-1,1119,1072,0,0
-98,-48,0,0,0,0,0,0,0,0,0,-1,1126,1072,0,0
-91,-48,0,0,0,0,0,0,0,0,0,-1,1133,1072,0,0
-84,-48,0,0,0,0,0,0,0,0,0,-1,1140,1072,0,0
-77,-48,0,0,0,0,0,0,0,0,0,-1,1147,1072,0,0
-70,-48,0,0,0,0,0,0,0,0,0,-1,1154,1072,0,0
-63,-48,0,0,0,0,0,0,0,0,0,-1,1161,1072,0,0
-56,-48,0,0,0,0,0,0,0,0,0,-1,1168,1072,0,0
-49,-48,0,0,0,0,0,0,0,0,0,-1,1175,1072,0,0
-42,-48,0,0,0,0,0,0,0,0,0,-1,1182,1072,0,0
-35,-48,0,0,0,0,0,0,0,0,0,-1,1189,1072,0,0
-28,-48,0,0,0,0,0,0,0,0,0,-1,1196,1072,0,0
-21,-48,0,0,0,0,0,0,0,0,0,-1,1203,1072,0,0
-14,-48,0,0,0,0,0,0,0,0,0,-1,1210,1072,0,0
-7,-48,0,0,0,0,0,0,0,0,0,-1,1217,1072,0,0
0,-48,0,0,0,0,0,0,0,0,0,-1,1224,1072,0,0
7,-48,0,0,0,0,0,0,0,0,0,-1,1231,1072,0,0
14,-48,0,0,0,0,0,0,0,0,0,-1,1238,1072,0,0
21,-48,0,0,0,0,0,0,0,0,0,-1,1245,1072,0,0
28,-48,0,0,0,0,0,0,0,0,0,-1,1252,1072,0,0
35,-48,0,0,0,0,0,0,0,0,0,-1,1259,1072,0,0
42,-48,0,0,0,0,0,0,0,0,0,-1,1266,1072,0,0
49,-48,0,0,0,0,0,0,0,0,0,-1,1273,1072,0,0
56,-48,0,0,0,0,0,0,0,0,0,-1,1280,1072,0,0
63,-48,0,0,0,0,0,0,0,0,0,-1,1287,1072,0,0
70,-48,0,0,0,0,0,0,0,0,0,-1,1294,1072,0,0
77,-48,0,0,0,0,0,0,0,0,0,-1,1301,1072,0,0
84,-48,0,0,0,0,0,0,0,0,0,-1,1308,1072,0,0
91,-48,0,0,0,0,0,0,0,0,0,-1,1315,1072,0,0
98,-48,0,0,0,0,0,0,0,0,0,-1,1322,1072,0,0
105,-48,0,0,0,0,0,0,0,0,0,-1,1329,1072,0,0
112,-48,0,0,0,0,0,0,0,0,0,-1,1336,1072,0,0
119,-48,0,0,0,0,0,0,0,0,0,-1,1343,1072,0,0
126,-48,0,0,0,0,0,0,0,0,0,-1,1350,1072,0,0
133,-48,0,0,0,0,0,0,0,0,0,-1,1357,1072,0,0
140,-48,0,0,0,0,0,0,0,0,0,-1,1364,1072,0,0
147,-48,0,0,0,0,0,0,0,0,0,-1,1371,1072,0,0
154,-48,0,0,0,0,0,0,0,0,0,-1,1378,1072,0,0
161,-48,0,0,0,0,0,0,0,0,0,-1,1385,1072,0,0
168,-48,0,0,0,0,0,0,0,0,0,-1,1392,1072,0,0
175,-48,0,0,0,0,0,0,0,0,0,-1,1399,1072,0,0
182,-48,0,0,0,0,0,0,0,0,0,-1,1406,1072,0,0
189,-48,0,0,0,0,0,0,0,0,0,-1,1413,1072,0,0
196,-48,0,0,0,0,0,0,0,0,0,-1,1420,1072,0,0
203,-48,0,0,0,0,0,0,0,0,0,-1,1427,1072,0,0
210,-48,0,0,0,0,0,0,0,0,0,-1,1434,1072,0,0
217,-48,0,0,0,0,0,0,0,0,0,-1,1441,1072,0,0
224,-48,0,0,0,0,0,0,0,0,0,-1,1448,1072,0,0
231,-48,0,0,0,0,0,0,0,0,0,-1,1455,1072,0,0
238,-48,0,0,0,0,0,0,0,0,0,-1,1462,1072,0,0
245,-48,0,0,0,0,0,0,0,0,0,-1,1469,1072,0,0
252,-48,0,0,0,0,0,0,0,0,0,-1,1476,1072,0,0
259,-48,0,0,0,0,0,0,0,0,0,-1,1483,1072,0,0
266,-48,0,0,0,0,0,0,0,0,0,-1,1490,1072,0,0
273,-48,0,0,0,0,0,0,0,0,0,-1,1497,1072,0,0
280,-48,0,0,0,0,0,0,0,0,0,-1,1504,1072,0,0
287,-48,0,0,0,0,0,0,0,0,0,-1,1511,1072,0,0
294,-48,0,0,0,0,0,0,0,0,0,-1,1518,1072,0,0
301,-48,0,0,0,0,0,0,0,0,0,-1,1525,1072,0,0
308,-48,0,0,0,0,0,0,0,0,0,-1,1532,1072,0,0
315,-48,0,0,0,0,0,0,0,0,0,-1,1539,1072,0,0
322,-48,0,0,0,0,0,0,0,0,0,-1,1546,1072,0,0
329,-48,0,0,0,0,0,0,0,0,0,-1,1553,1072,0,0
336,-48,0,0,0,0,0,0,0,0,0,-1,1560,1072,0,0
343,-48,0,0,0,0,0,0,0,0,0,-1,1567,1072,0,0
350,-48,0,0,0,0,0,0,0,0,0,-1,1574,1072,0,0
357,-48,0,0,0,0,0,0,0,0,0,-1,1581,1072,0,0
364,-48,0,0,0,0,0,0,0,0,0,-1,1588,1072,0,0
371,-48,0,0,0,0,0,0,0,0,0,-1,1595,1072,0,0
378,-48,0,0,0,0,0,0,0,0,0,-1,1602,1072,0,0
385,-48,0,0,0,0,0,0,0,0,0,-1,1609,1072,0,0
392,-48,0,0,0,0,0,0,0,0,0,-1,1616,1072,0,0
399,-48,0,0,0,0,0,0,0,0,0,-1,1623,1072,0,0
406,-48,0,0,0,0,0,0,0,0,0,-1,1630,1072,0,0
413,-48,0,0,0,0,0,0,0,0,0,-1,1637,1072,0,0
420,-48,0,0,0,0,0,0,0,0,0,-1,1644,1072,0,0
427,-48,0,0,0,0,0,0,0,0,0,-1,1651,1072,0,0
434,-48,0,0,0,0,0,0,0,0,0,-1,1658,1072,0,0
441,-48,0,0,0,0,0,0,0,0,0,-1,1665,1072,0,0
448,-48,0,0,0,0,0,0,0,0,0,-1,1672,1072,0,0
455,-48,0,0,0,0,0,0,0,0,0,-1,1679,1072,0,0
462,-48,0,0,0,0,0,0,0,0,0,-1,1686,1072,0,0
469,-48,0,0,0,0,0,0,0,0,0,-1,1693,1072,0,0
476,-48,0,0,0,0,0,0,0,0,0,-1,1700,1072,0,0
483,-48,0,0,0,0,0,0,0,0,0,-1,1707,1072,0,0
490,-48,0,0,0,0,0,0,0,0,0,-1,1714,1072,0,0
497,-48,0,0,0,0,0,0,0,0,0,-1,1721,1072,0,0
504,-48,0,0,0,0,0,0,0,0,0,-1,1728,1072,0,0
511,-48,0,0,0,0,0,0,0,0,0,-1,1735,1072,0,0
518,-48,0,0,0,0,0,0,0,0,0,-1,1742,1072,0,0
525,-48,0,0,0,0,0,0,0,0,0,-1,1749,1072,0,0
532,-48,0,0,0,0,0,0,0,0,0,-1,1756,1072,0,0
539,-48,0,0,0,0,0,0,0,0,0,-1,1763,1072,0,0
546,-48,0,0,0,0,0,0,0,0,0,-1,1770,1072,0,0
553,-48,0,0,0,0,0,0,0,0,0,-1,1777,1072,0,0
560,-48,0,0,0,0,0,0,0,0,0,-1,1784,1072,0,0
567,-48,0,0,0,0,0,0,0,0,0,-1,1791,1072,0,0
574,-48,0,0,0,0,0,0,0,0,0,-1,1798,1072,0,0
581,-48,0,0,0,0,0,0,0,0,0,-1,1805,1072,0,0
588,-48,0,0,0,0,0,0,0,0,0,-1,1812,1072,0,0
595,-48,0,0,0,0,0,0,0,0,0,-1,1819,1072,0,0
602,-48,0,0,0,0,0,0,0,0,0,-1,1826,1072,0,0
609,-48,0,0,0,0,0,0,0,0,0,-1,1833,1072,0,0
616,-48,0,0,0,0,0,0,0,0,0,-1,1840,1072,0,0
623,-48,0,0,0,0,0,0,0,0,0,-1,1847,1072,0,0
630,-48,0,0,0,0,0,0,0,0,0,-1,1854,1072,0,0
637,-48,0,0,0,0,0,0,0,0,0,-1,1861,1072,0,0
644,-48,0,0,0,0,0,0,0,0,0,-1,1868,1072,0,0
651,-48,53.9744,2.53198,-0.00473128,0.0015294,0.00503497,0.00432779,-0.00752968,1.06352,0.00692861,0.0334103,1875,1072,53.9744,-2.53198
658,-48,53.8569,2.68774,-0.00270094,0.00118617,0.00366314,0.00338942,-0.00490418,1.0293,0.00481486,0.0384074,1882,1072,53.857,-2.68778
665,-48,53.7802,2.77722,-0.00144707,0.000895806,0.00272904,0.00269421,-0.00324547,0.98813,0.0034342,0.0427918,1889,1072,53.7801,-2.77725
672,-48,53.902,2.7207,-0.000632079,0.000709521,0.00225566,0.00239201,-0.00231457,0.929926,0.00271747,0.041871,1896,1072,53.902,-2.72065
679,-48,54.0762,2.60376,-0.000168523,0.000611176,0.00209573,0.00235301,-0.00191035,0.877358,0.00246587,0.0412974,1903,1072,54.0761,-2.60381
686,-48,54.0836,2.53479,-0.00024895,0.000360403,0.00223602,0.00231241,-0.00220096,0.85311,0.00260606,0.0429655,1910,1072,54.0836,-2.53482
693,-48,54.0544,2.4906,-0.000460366,0.000103762,0.00251319,0.00235067,-0.00270727,0.841281,0.00292262,0.0421384,1917,1072,54.0545,-2.49059
700,-48,54.0569,2.60193,-0.000621193,-3.7203e-05,0.00286004,0.00254571,-0.00320411,0.836269,0.0033269,0.0344885,1924,1072,54.0569,-2.6019
707,-48,54.0503,2.6449,-0.000829492,-2.04861e-05,0.00305633,0.00265799,-0.00350797,0.851191,0.00357117,0.0267766,1931,1072,54.0503,-2.64488
714,-48,54.0349,2.69324,-0.00127839,0.000178422,0.00322853,0.0027597,-0.00385967,0.896348,0.00383924,0.0367105,1938,1072,54.0349,-2.69326
721,-48,54.0159,2.86426,0,0,0,0,0,0,0,-1,1945,1072,54.0159,-2.86428
728,-48,53.027,6.84192,0,0,0,0,0,0,0,-1,1952,1072,53.027,-6.84194
735,-48,52.92,6.61267,-0.00386191,0.0019518,0.00368307,0.00373694,-0.00564705,1.11947,0.00545513,0.0224463,1959,1072,52.9201,-6.61266
742,-48,52.7947,6.354,-0.00435337,0.00288482,0.00353701,0.00432619,-0.00579474,1.18383,0.00586379,0.0175139,1966,1072,52.7946,-6.35395
749,-48,52.814,6.11133,-0.00461622,0.00419217,0.00291235,0.00506801,-0.00549206,1.27867,0.00609849,0.0160068,1973,1072,52.814,-6.11137
756,-48,52.8204,5.88513,-0.00482632,0.00491959,0.00214498,0.00537079,-0.00527752,1.36347,0.00614788,0.0142967,1980,1072,52.8204,-5.88516
763,-48,52.7487,5.65942,-0.00478309,0.00513414,0.00108998,0.00525252,-0.00490148,1.46261,0.00586358,0.0132192,1987,1072,52.7487,-5.65939
770,-48,52.7257,5.4187,-0.00440628,0.0054318,-0.000473787,0.00545457,-0.00442905,-1.52279,0.00571653,0.0132373,1994,1072,52.7257,-5.41868
777,-48,52.5925,5.15723,-0.00319484,0.00457536,-0.00230716,0.00520877,-0.00382825,-1.30285,0.00523778,0.0125364,2001,1072,52.5925,-5.15718
784,-48,52.4519,4.90454,-0.00130175,0.0021938,-0.00417196,0.0049693,-0.00407724,-0.983759,0.00523148,0.0253588,2008,1072,52.4519,-4.9045
791,-48,52.3047,4.67163,0.0013912,-0.00252613,-0.00620946,0.00594358,-0.00707851,-0.632621,0.00752782,0.0420121,2015,1072,52.3046,-4.67169
798,-48,52.0947,4.38525,0.00538648,-0.0106999,-0.0083651,0.00894793,-0.0142614,-0.402506,0.0135165,0.045644,2022,1072,52.0947,-4.38525
805,-48,51.9272,3.90344,0,0,0,0,0,0,0,-1,2029,1072,51.9273,-3.90344
812,-48,53.5459,0.296509,0,0,0,0,0,0,0,-1,2036,1072,53.5459,-0.296486
-700,-55,-41.6098,-4.87964,0.0407982,0.0599492,0.0562024,0.107386,-0.00663856,0.869776,0.073903,0.0480634,524,1079,-41.6098,4.87967
-693,-55,-41.4461,-4.45044,0.0396458,0.0523228,0.0558479,0.102191,-0.0102221,0.841904,0.0717775,0.0485078,531,1079,-41.4461,4.45044
-686,-55,-41.0884,-3.41223,0.0356661,0.0446492,0.05295,0.0932978,-0.0129825,0.82771,0.066947,0.0470717,538,1079,-41.0884,3.41223
-679,-55,-41.0013,-2.70837,0.030445,0.0376638,0.0477263,0.081917,-0.0138082,0.82314,0.0597483,0.0491953,545,1079,-41.0013,2.70833
-672,-55,-40.3219,-1.86841,0,0,0,0,0,0,0,-1,552,1079,-40.3219,1.86844
-665,-55,-39.3493,0.0090332,0.0193864,0.0258322,0.0344759,0.0572355,-0.0120169,0.832004,0.0427296,0.0439565,559,1079,-39.3493,-0.00908409
-658,-55,-39.4732,0.609253,0.014562,0.0209574,0.0277174,0.045661,-0.0101416,0.842828,0.0343243,0.045746,566,1079,-39.4732,-0.609247
-651,-55,-39.3579,1.36816,0.0105643,0.0166594,0.021379,0.035207,-0.00798331,0.856195,0.0265358,0.0410678,573,1079,-39.3579,-1.36817
-644,-55,-39.2115,2.28418,0,0,0,0,0,0,0,-1,580,1079,-39.2115,-2.28414
-637,-55,-39.3094,2.51697,0.00481738,0.00927473,0.0101721,0.0174594,-0.00336732,0.893243,0.0129093,0.019398,587,1079,-39.3094,-2.51702
-630,-55,-39.3113,2.86426,0.00272724,0.00559308,0.00525343,0.00960551,-0.00128519,0.918539,0.00687224,0.020933,594,1079,-39.3113,-2.86431
-623,-55,-39.4521,3.22229,0.00151173,0.00303075,0.00221764,0.00461534,-7.28529e-05,0.95038,0.00310146,0.0173111,601,1079,-39.4521,-3.22226
-616,-55,-39.462,3.51038,0.000828134,0.00146604,0.000160942,0.00150435,0.000789829,1.33714,0.000868898,0.0168983,608,1079,-39.462,-3.51035
-609,-55,-39.4061,3.86548,0.000709889,0.000589862,-0.00121185,0.00186321,-0.000563459,-0.760657,0.0014665,0.0182286,615,1079,-39.4061,-3.86549
-602,-55,-39.3587,4.15906,0.000606611,-0.000333905,-0.00192159,0.00211464,-0.00184194,-0.665395,0.00228614,0.0161158,622,1079,-39.3587,-4.15906
-595,-55,-39.2278,4.47791,0.000599027,-0.000674489,-0.00231432,0.00236259,-0.00243805,-0.651151,0.00277176,0.0323954,629,1079,-39.2279,-4.47787
-588,-55,-39.2117,4.86316,0,0,0,0,0,0,0,-1,636,1079,-39.2117,-4.86313
-581,-55,-40.4863,0.62561,0,0,0,0,0,0,0,-1,643,1079,-40.4864,-0.625614
-574,-55,-40.4424,0.912109,0.00140804,-0.000906908,-0.00177986,0.00237369,-0.00187255,-0.497099,0.00245725,0.0390743,650,1079,-40.4424,-0.912063
-567,-55,-40.4642,1.0979,0.00153536,-0.000454381,-0.00151117,0.00234975,-0.00126876,-0.494288,0.00212,0.0402952,657,1079,-40.4642,-1.09786
-560,-55,-40.5472,1.1554,0.00164853,0.000276431,-0.00118739,0.00233381,-0.000408851,-0.523438,0.00170854,0.0405403,664,1079,-40.5472,-1.1554
-553,-55,-40.5231,0.925171,0.00193781,0.00115663,-0.000770739,0.00241128,0.00068316,-0.55087,0.00143507,0.0396291,671,1079,-40.5231,-0.925197
-546,-55,-40.5424,1.00122,0.00267334,0.00197643,-0.000254223,0.00275622,0.00189355,-0.315147,0.00162798,0.0371031,678,1079,-40.5424,-1.00121
-539,-55,-40.5023,0.986084,0.00421327,0.00224464,-5.0669e-05,0.00421458,0.00224334,-0.0257155,0.00243498,0.0391062,685,1079,-40.5023,-0.98603
-532,-55,-40.5087,0.848999,0.00552813,0.00249368,0.000546902,0.00562369,0.00239812,0.172982,0.00325853,0.0401232,692,1079,-40.5086,-0.848979
-525,-55,0,0,0,0,0,0,0,0,0,-1,699,1079,0,0
-518,-55,0,0,0,0,0,0,0,0,0,-1,706,1079,0,0
-511,-55,0,0,0,0,0,0,0,0,0,-1,713,1079,0,0
-504,-55,0,0,0,0,0,0,0,0,0,-1,720,1079,0,0
-497,-55,0,0,0,0,0,0,0,0,0,-1,727,1079,0,0
-490,-55,0,0,0,0,0,0,0,0,0,-1,734,1079,0,0
-483,-55,0,0,0,0,0,0,0,0,0,-1,741,1079,0,0
-476,-55,0,0,0,0,0,0,0,0,0,-1,748,1079,0,0
-469,-55,0,0,0,0,0,0,0,0,0,-1,755,1079,0,0
-462,-55,0,0,0,0,0,0,0,0,0,-1,762,1079,0,0
-455,-55,0,0,0,0,0,0,0,0,0,-1,769,1079,0,0
-448,-55,0,0,0,0,0,0,0,0,0,-1,776,1079,0,0
-441,-55,0,0,0,0,0,0,0,0,0,-1,783,1079,0,0
-434,-55,0,0,0,0,0,0,0,0,0,-1,790,1079,0,0
-427,-55,0,0,0,0,0,0,0,0,0,-1,797,1079,0,0
-420,-55,0,0,0,0,0,0,0,0,0,-1,804,1079,0,0
-413,-55,0,0,0,0,0,0,0,0,0,-1,811,1079,0,0
-406,-55,0,0,0,0,0,0,0,0,0,-1,818,1079,0,0
-399,-55,0,0,0,0,0,0,0,0,0,-1,825,1079,0,0
-392,-55,0,0,0,0,0,0,0,0,0,-1,832,1079,0,0
-385,-55,0,0,0,0,0,0,0,0,0,-1,839,1079,0,0
-378,-55,0,0,0,0,0,0,0,0,0,-1,846,1079,0,0
-371,-55,0,0,0,0,0,0,0,0,0,-1,853,1079,0,0
-364,-55,0,0,0,0,0,0,0,0,0,-1,860,1079,0,0
-357,-55,0,0,0,0,0,0,0,0,0,-1,867,1079,0,0
-350,-55,0,0,0,0,0,0,0,0,0,-1,874,1079,0,0
-343,-55,0,0,0,0,0,0,0,0,0,-1,881,1079,0,0
-336,-55,0,0,0,0,0,0,0,0,0,-1,888,1079,0,0
-329,-55,0,0,0,0,0,0,0,0,0,-1,895,1079,0,0
-322,-55,0,0,0,0,0,0,0,0,0,-1,902,1079,0,0
-315,-55,0,0,0,0,0,0,0,0,0,-1,909,1079,0,0
-308,-55,0,0,0,0,0,0,0,0,0,-1,916,1079,0,0
-301,-55,0,0,0,0,0,0,0,0,0,-1,923,1079,0,0
-294,-55,0,0,0,0,0,0,0,0,0,-1,930,1079,0,0
-287,-55,0,0,0,0,0,0,0,0,0,-1,937,1079,0,0
-280,-55,0,0,0,0,0,0,0,0,0,-1,944,1079,0,0
-273,-55,0,0,0,0,0,0,0,0,0,-1,951,1079,0,0
-266,-55,0,0,0,0,0,0,0,0,0,-1,958,1079,0,0
-259,-55,0,0,0,0,0,0,0,0,0,-1,965,1079,0,0
-252,-55,0,0,0,0,0,0,0,0,0,-1,972,1079,0,0
-245,-55,0,0,0,0,0,0,0,0,0,-1,979,1079,0,0
-238,-55,0,0,0,0,0,0,0,0,0,-1,986,1079,0,0
-231,-55,0,0,0,0,0,0,0,0,0,-1,993,1079,0,0
-224,-55,0,0,0,0,0,0,0,0,0,-1,1000,1079,0,0
-217,-55,0,0,0,0,0,0,0,0,0,-1,1007,1079,0,0
-210,-55,0,0,0,0,0,0,0,0,0,-1,1014,1079,0,0
-203,-55,0,0,0,0,0,0,0,0,0,-1,1021,1079,0,0
-196,-55,0,0,0,0,0,0,0,0,0,-1,1028,1079,0,0
-189,-55,0,0,0,0,0,0,0,0,0,-1,1035,1079,0,0
-182,-55,0,0,0,0,0,0,0,0,0,-1,1042,1079,0,0
-175,-55,0,0,0,0,0,0,0,0,0,-1,1049,1079,0,0
-168,-55,0,0,0,0,0,0,0,0,0,-1,1056,1079,0,0
-161,-55,0,0,0,0,0,0,0,0,0,-1,1063,1079,0,0
-154,-55,0,0,0,0,0,0,0,0,0,-1,1070,1079,0,0
-147,-55,0,0,0,0,0,0,0,0,0,-1,1077,1079,0,0
-140,-55,0,0,0,0,0,0,0,0,0,-1,1084,1079,0,0
-133,-55,0,0,0,0,0,0,0,0,0,-1,1091,1079,0,0
-126,-55,0,0,0,0,0,0,0,0,0,-1,1098,1079,0,0
-119,-55,0,0,0,0,0,0,0,0,0,-1,1105,1079,0,0
-112,-55,0,0,0,0,0,0,0,0,0,-1,1112,1079,0,0
-105,-55,0,0,0,0,0,0,0,0,0,-1,1119,1079,0,0
-98,-55,0,0,0,0,0,0,0,0,0,-1,1126,1079,0,0
-91,-55,0,0,0,0,0,0,0,0,0,-1,1133,1079,0,0
-84,-55,0,0,0,0,0,0,0,0,0,-1,1140,1079,0,0
-77,-55,0,0,0,0,0,0,0,0,0,-1,1147,1079,0,0
-70,-55,0,0,0,0,0,0,0,0,0,-1,1154,1079,0,0
-63,-55,0,0,0,0,0,0,0,0,0,-1,1161,1079,0,0
-56,-55,0,0,0,0,0,0,0,0,0,-1,1168,1079,0,0
-49,-55,0,0,0,0,0,0,0,0,0,-1,1175,1079,0,0
-42,-55,0,0,0,0,0,0,0,0,0,-1,1182,1079,0,0
-35,-55,0,0,0,0,0,0,0,0,0,-1,1189,1079,0,0
-28,-55,0,0,0,0,0,0,0,0,0,-1,1196,1079,0,0
-21,-55,0,0,0,0,0,0,0,0,0,-1,1203,1079,0,0
-14,-55,0,0,0,0,0,0,0,0,0,-1,1210,1079,0,0
-7,-55,0,0,0,0,0,0,0,0,0,-1,1217,1079,0,0
0,-55,0,0,0,0,0,0,0,0,0,-1,1224,1079,0,0
7,-55,0,0,0,0,0,0,0,0,0,-1,1231,1079,0,0
14,-55,0,0,0,0,0,0,0,0,0,-1,1238,1079,0,0
21,-55,0,0,0,0,0,0,0,0,0,-1,1245,1079,0,0
28,-55,0,0,0,0,0,0,0,0,0,-1,1252,1079,0,0
35,-55,0,0,0,0,0,0,0,0,0,-1,1259,1079,0,0
42,-55,0,0,0,0,0,0,0,0,0,-1,1266,1079,0,0
49,-55,0,0,0,0,0,0,0,0,0,-1,1273,1079,0,0
56,-55,0,0,0,0,0,0,0,0,0,-1,1280,1079,0,0
63,-55,0,0,0,0,0,0,0,0,0,-1,1287,1079,0,0
70,-55,0,0,0,0,0,0,0,0,0,-1,1294,1079,0,0
77,-55,0,0,0,0,0,0,0,0,0,-1,1301,1079,0,0
84,-55,0,0,0,0,0,0,0,0,0,-1,1308,1079,0,0
91,-55,0,0,0,0,0,0,0,0,0,-1,1315,1079,0,0
98,-55,0,0,0,0,0,0,0,0,0,-1,1322,1079,0,0
105,-55,0,0,0,0,0,0,0,0,0,-1,1329,1079,0,0
112,-55,0,0,0,0,0,0,0,0,0,-1,1336,1079,0,0
119,-55,0,0,0,0,0,0,0,0,0,-1,1343,1079,0,0
126,-55,0,0,0,0,0,0,0,0,0,-1,1350,1079,0,0
133,-55,0,0,0,0,0,0,0,0,0,-1,1357,1079,0,0
140,-55,0,0,0,0,0,0,0,0,0,-1,1364,1079,0,0
147,-55,0,0,0,0,0,0,0,0,0,-1,1371,1079,0,0
154,-55,0,0,0,0,0,0,0,0,0,-1,1378,1079,0,0
161,-55,0,0,0,0,0,0,0,0,0,-1,1385,1079,0,0
168,-55,0,0,0,0,0,0,0,0,0,-1,1392,1079,0,0
175,-55,0,0,0,0,0,0,0,0,0,-1,1399,1079,0,0
182,-55,0,0,0,0,0,0,0,0,0,-1,1406,1079,0,0
189,-55,0,0,0,0,0,0,0,0,0,-1,1413,1079,0,0
196,-55,0,0,0,0,0,0,0,0,0,-1,1420,1079,0,0
203,-55,0,0,0,0,0,0,0,0,0,-1,1427,1079,0,0
210,-55,0,0,0,0,0,0,0,0,0,-1,1434,1079,0,0
217,-55,0,0,0,0,0,0,0,0,0,-1,1441,1079,0,0
224,-55,0,0,0,0,0,0,0,0,0,-1,1448,1079,0,0
231,-55,0,0,0,0,0,0,0,0,0,-1,1455,1079,0,0
238,-55,0,0,0,0,0,0,0,0,0,-1,1462,1079,0,0
245,-55,0,0,0,0,0,0,0,0,0,-1,1469,1079,0,0
252,-55,0,0,0,0,0,0,0,0,0,-1,1476,1079,0,0
259,-55,0,0,0,0,0,0,0,0,0,-1,1483,1079,0,0
266,-55,0,0,0,0,0,0,0,0,0,-1,1490,1079,0,0
273,-55,0,0,0,0,0,0,0,0,0,-1,1497,1079,0,0
280,-55,0,0,0,0,0,0,0,0,0,-1,1504,1079,0,0
287,-55,0,0,0,0,0,0,0,0,0,-1,1511,1079,0,0
294,-55,0,0,0,0,0,0,0,0,0,-1,1518,1079,0,0
301,-55,0,0,0,0,0,0,0,0,0,-1,1525,1079,0,0
308,-55,0,0,0,0,0,0,0,0,0,-1,1532,1079,0,0
315,-55,0,0,0,0,0,0,0,0,0,-1,1539,1079,0,0
322,-55,0,0,0,0,0,0,0,0,0,-1,1546,1079,0,0
329,-55,0,0,0,0,0,0,0,0,0,-1,1553,1079,0,0
336,-55,0,0,0,0,0,0,0,0,0,-1,1560,1079,0,0
343,-55,0,0,0,0,0,0,0,0,0,-1,1567,1079,0,0
350,-55,0,0,0,0,0,0,0,0,0,-1,1574,1079,0,0
357,-55,0,0,0,0,0,0,0,0,0,-1,1581,1079,0,0
364,-55,0,0,0,0,0,0,0,0,0,-1,1588,1079,0,0
371,-55,0,0,0,0,0,0,0,0,0,-1,1595,1079,0,0
378,-55,0,0,0,0,0,0,0,0,0,-1,1602,1079,0,0
385,-55,0,0,0,0,0,0,0,0,0,-1,1609,1079,0,0
392,-55,0,0,0,0,0,0,0,0,0,-1,1616,1079,0,0
399,-55,0,0,0,0,0,0,0,0,0,-1,1623,1079,0,0
406,-55,0,0,0,0,0,0,0,0,0,-1,1630,1079,0,0
413,-55,0,0,0,0,0,0,0,0,0,-1,1637,1079,0,0
420,-55,0,0,0,0,0,0,0,0,0,-1,1644,1079,0,0
427,-55,0,0,0,0,0,0,0,0,0,-1,1651,1079,0,0
434,-55,0,0,0,0,0,0,0,0,0,-1,1658,1079,0,0
441,-55,0,0,0,0,0,0,0,0,0,-1,1665,1079,0,0
448,-55,0,0,0,0,0,0,0,0,0,-1,1672,1079,0,0
455,-55,0,0,0,0,0,0,0,0,0,-1,1679,1079,0,0
462,-55,0,0,0,0,0,0,0,0,0,-1,1686,1079,0,0
469,-55,0,0,0,0,0,0,0,0,0,-1,1693,1079,0,0
476,-55,0,0,0,0,0,0,0,0,0,-1,1700,1079,0,0
483,-55,0,0,0,0,0,0,0,0,0,-1,1707,1079,0,0
490,-55,0,0,0,0,0,0,0,0,0,-1,1714,1079,0,0
497,-55,0,0,0,0,0,0,0,0,0,-1,1721,1079,0,0
504,-55,0,0,0,0,0,0,0,0,0,-1,1728,1079,0,0
511,-55,0,0,0,0,0,0,0,0,0,-1,1735,1079,0,0
518,-55,0,0,0,0,0,0,0,0,0,-1,1742,1079,0,0
525,-55,0,0,0,0,0,0,0,0,0,-1,1749,1079,0,0
532,-55,0,0,0,0,0,0,0,0,0,-1,1756,1079,0,0
539,-55,0,0,0,0,0,0,0,0,0,-1,1763,1079,0,0
546,-55,0,0,0,0,0,0,0,0,0,-1,1770,1079,0,0
553,-55,0,0,0,0,0,0,0,0,0,-1,1777,1079,0,0
560,-55,0,0,0,0,0,0,0,0,0,-1,1784,1079,0,0
567,-55,0,0,0,0,0,0,0,0,0,-1,1791,1079,0,0
574,-55,0,0,0,0,0,0,0,0,0,-1,1798,1079,0,0
581,-55,0,0,0,0,0,0,0,0,0,-1,1805,1079,0,0
588,-55,0,0,0,0,0,0,0,0,0,-1,1812,1079,0,0
595,-55,0,0,0,0,0,0,0,0,0,-1,1819,1079,0,0
602,-55,0,0,0,0,0,0,0,0,0,-1,1826,1079,0,0
609,-55,0,0,0,0,0,0,0,0,0,-1,1833,1079,0,0
616,-55,0,0,0,0,0,0,0,0,0,-1,1840,1079,0,0
623,-55,0,0,0,0,0,0,0,0,0,-1,1847,1079,0,0
630,-55,0,0,0,0,0,0,0,0,0,-1,1854,1079,0,0
637,-55,0,0,0,0,0,0,0,0,0,-1,1861,1079,0,0
644,-55,0,0,0,0,0,0,0,0,0,-1,1868,1079,0,0
651,-55,53.983,2.49133,-0.00429139,0.00155003,0.00468651,0.00415145,-0.00689282,1.06406,0.00644155,0.0373313,1875,1079,53.983,-2.49128
658,-55,53.9933,2.78052,-0.00235582,0.00119248,0.00343387,0.00328344,-0.00444678,1.02384,0.00447986,0.0359758,1882,1079,53.9933,-2.78046
665,-55,53.9012,2.74072,-0.00115275,0.000874583,0.00258113,0.00263396,-0.00291212,0.972506,0.00320337,0.0381319,1889,1079,53.9012,-2.74066
672,-55,53.9073,2.724,-0.000364298,0.000643592,0.00211294,0.00231185,-0.00203256,0.902463,0.00250997,0.0376641,1896,1079,53.9073,-2.72397
679,-55,54.0239,2.67285,6.12471e-05,0.000502218,0.0019034,0.00219786,-0.00163439,0.84306,0.00222051,0.0371242,1903,1079,54.024,-2.67282
686,-55,54.0554,2.48096,-3.26456e-06,0.000223802,0.00199095,0.00210445,-0.00188392,0.81388,0.00230386,0.0403017,1910,1079,54.0554,-2.48092
693,-55,54.0969,2.47754,-0.00017714,-4.07466e-05,0.00220377,0.00209588,-0.00231376,0.800866,0.00254694,0.0393469,1917,1079,54.097,-2.47758
700,-55,54.0608,2.60095,-0.000310123,-0.000167145,0.00248812,0.00225051,-0.00272778,0.79976,0.00287862,0.0322134,1924,1079,54.0607,-2.60101
707,-55,54.0527,2.66321,-0.000448111,-0.000139961,0.00266498,0.0023754,-0.00296347,0.814273,0.00308862,0.0222639,1931,1079,54.0527,-2.66326
714,-55,54.0371,2.7085,-0.000834837,2.85911e-05,0.00286056,0.00248983,-0.00329608,0.860293,0.00335129,0.0440968,1938,1079,54.0371,-2.70846
721,-55,54.0614,2.80566,0,0,0,0,0,0,0,-1,1945,1079,54.0615,-2.8057
728,-55,52.6708,6.95007,0,0,0,0,0,0,0,-1,1952,1079,52.6708,-6.95009
735,-55,52.5908,6.65503,-0.00325289,0.00161588,0.00342548,0.00338389,-0.0050209,1.09432,0.00488309,0.0210034,1959,1079,52.5908,-6.65499
742,-55,52.5892,6.38623,-0.00372642,0.00259751,0.00341655,0.00409074,-0.00521965,1.15876,0.00538851,0.0206896,1966,1079,52.5892,-6.38627
749,-55,52.5801,6.12744,-0.00411403,0.0039064,0.00303504,0.00492543,-0.00513306,1.24687,0.00580768,0.0145995,1973,1079,52.58,-6.1275
756,-55,52.4994,5.87585,-0.00456687,0.00462708,0.00256233,0.00529297,-0.00523276,1.31654,0.00607707,0.0124593,1980,1079,52.4994,-5.87583
763,-55,52.4453,5.63318,-0.00484842,0.00492138,0.00184623,0.00525862,-0.00518567,1.39012,0.00603007,0.0146345,1987,1079,52.4453,-5.63312
770,-55,52.4185,5.3606,-0.00496906,0.00529454,0.000745579,0.00534842,-0.00502294,1.49866,0.00598889,0.0158452,1994,1079,52.4184,-5.36057
777,-55,52.3367,5.08411,-0.00456446,0.00464326,-0.000475315,0.00466773,-0.00458893,-1.51936,0.0053444,0.0137668,2001,1079,52.3366,-5.0841
784,-55,52.2026,4.8053,-0.00368576,0.0025802,-0.00165751,0.00299164,-0.0040972,-1.32749,0.0041093,0.0292721,2008,1079,52.2026,-4.80527
791,-55,52.0635,4.52844,-0.00222616,-0.00168943,-0.00288442,0.00093908,-0.00485467,-0.831785,0.00359064,0.0439735,2015,1079,52.0634,-4.5285
798,-55,51.8955,4.14026,0.000193817,-0.00924352,-0.00406407,0.00170271,-0.0107524,-0.355502,0.00779806,0.0492913,2022,1079,51.8956,-4.14024
805,-55,51.7493,3.68335,0,0,0,0,0,0,0,-1,2029,1079,51.7492,-3.68335
812,-55,52.8601,1.37842,0,0,0,0,0,0,0,-1,2036,1079,52.86,-1.37846
-700,-62,-41.4576,-5.03967,0,0,0,0,0,0,0,-1,524,1086,-41.4576,5.03972
-693,-62,-41.4656,-4.75171,0,0,0,0,0,0,0,-1,531,1086,-41.4656,4.75169
-686,-62,-41.1872,-3.31824,0,0,0,0,0,0,0,-1,538,1086,-41.1872,3.31823
-679,-62,-39.7426,-1.09241,0,0,0,0,0,0,0,-1,545,1086,-39.7425,1.09238
-672,-62,-39.4764,-0.37561,0.0240316,0.0330033,0.0324111,0.0612375,-0.00420253,0.854164,0.0422955,0.0465773,552,1086,-39.4765,0.375591
-665,-62,-39.2055,0.332886,0.0192157,0.0258812,0.0276703,0.0504187,-0.0053218,0.845332,0.0355196,0.0427506,559,1086,-39.2055,-0.332856
-658,-62,-39.106,0.837524,0.0146611,0.0201161,0.0226526,0.0402048,-0.00542766,0.845312,0.0287835,0.0424588,566,1086,-39.106,-0.837561
-651,-62,-39.0314,1.55078,0.0107535,0.0154416,0.0177144,0.0309663,-0.00477128,0.851178,0.0224046,0.0410371,573,1086,-39.0314,-1.55072
-644,-62,-38.9626,2.13843,0.00769811,0.0116489,0.0131333,0.0229546,-0.00360756,0.860045,0.0166365,0.0162645,580,1086,-38.9626,-2.13846
-637,-62,-39.002,2.5304,0.00501499,0.00817467,0.00852814,0.0152681,-0.0020784,0.876985,0.0109375,0.0140172,587,1086,-39.002,-2.53043
-630,-62,-39.0389,2.88342,0.00301078,0.00470868,0.00445326,0.00839319,-0.000673729,0.879586,0.00583302,0.0144305,594,1086,-39.0389,-2.88346
-623,-62,-39.1122,3.24902,0.00185468,0.0023326,0.0019032,0.00401179,0.000175498,0.84785,0.00261799,0.0164813,601,1086,-39.1122,-3.24908
-616,-62,-39.1082,3.60864,0.00114092,0.00104641,0.000121716,0.00122423,0.000963095,0.600233,0.000744533,0.0175812,608,1086,-39.1082,-3.60864
-609,-62,-39.0685,3.93018,0.00103942,0.00026987,-0.00110798,0.00182753,-0.000518244,-0.618276,0.00142292,0.0184457,615,1086,-39.0685,-3.9302
-602,-62,-38.981,4.22546,0.00104488,-0.000488253,-0.0017893,0.00222491,-0.00166828,-0.583018,0.00225538,0.0171108,622,1086,-38.981,-4.22552
-595,-62,-38.84,4.56702,0.00106392,-0.000809829,-0.00216201,0.00248331,-0.00222922,-0.580943,0.0027221,0.0378588,629,1086,-38.84,-4.56698
-588,-62,-38.7654,4.94604,0,0,0,0,0,0,0,-1,636,1086,-38.7654,-4.94598
-581,-62,-40.4786,0.831543,0,0,0,0,0,0,0,-1,643,1086,-40.4786,-0.831602
-574,-62,-40.5115,0.902466,0.00172387,-0.00100962,-0.0018154,0.0026295,-0.00191525,-0.462733,0.00263469,0.0359942,650,1086,-40.5115,-0.902522
-567,-62,-40.5114,0.992065,0.00179062,-0.000592623,-0.00163416,0.00262148,-0.00142348,-0.470372,0.00236926,0.0390589,657,1086,-40.5114,-0.992122
-560,-62,-40.6114,0.712524,0.00179807,8.64952e-05,-0.00140404,0.00258657,-0.000702011,-0.511704,0.00199989,0.0410485,664,1086,-40.6114,-0.712524
-553,-62,-40.4742,0.636719,0.00188614,0.000931397,-0.00107881,0.00258848,0.000229063,-0.577098,0.00165459,0.0377922,671,1086,-40.4742,-0.636747
-546,-62,-40.512,0.837646,0.0023822,0.00177382,-0.000616771,0.00276572,0.00139031,-0.556304,0.00159679,0.032328,678,1086,-40.5121,-0.837661
-539,-62,-40.5203,0.867065,0.00387083,0.00210874,-0.00034117,0.00393458,0.00204499,-0.184727,0.00227222,0.037872,685,1086,-40.5203,-0.867085
-532,-62,-40.5197,0.934814,0.0050797,0.00241374,0.000301604,0.0051134,0.00238004,0.111258,0.00295457,0.0427003,692,1086,-40.5196,-0.93479
-525,-62,0,0,0,0,0,0,0,0,0,-1,699,1086,0,0
-518,-62,0,0,0,0,0,0,0,0,0,-1,706,1086,0,0
-511,-62,0,0,0,0,0,0,0,0,0,-1,713,1086,0,0
-504,-62,0,0,0,0,0,0,0,0,0,-1,720,1086,0,0
-497,-62,0,0,0,0,0,0,0,0,0,-1,727,1086,0,0
-490,-62,0,0,0,0,0,0,0,0,0,-1,734,1086,0,0
-483,-62,0,0,0,0,0,0,0,0,0,-1,741,1086,0,0
-476,-62,0,0,0,0,0,0,0,0,0,-1,748,1086,0,0
-469,-62,0,0,0,0,0,0,0,0,0,-1,755,1086,0,0
-462,-62,0,0,0,0,0,0,0,0,0,-1,762,1086,0,0
-455,-62,0,0,0,0,0,0,0,0,0,-1,769,1086,0,0
-448,-62,0,0,0,0,0,0,0,0,0,-1,776,1086,0,0
-441,-62,0,0,0,0,0,0,0,0,0,-1,783,1086,0,0
-434,-62,0,0,0,0,0,0,0,0,0,-1,790,1086,0,0
-427,-62,0,0,0,0,0,0,0,0,0,-1,797,1086,0,0
-420,-62,0,0,0,0,0,0,0,0,0,-1,804,1086,0,0
-413,-62,0,0,0,0,0,0,0,0,0,-1,811,1086,0,0
-406,-62,0,0,0,0,0,0,0,0,0,-1,818,1086,0,0
-399,-62,0,0,0,0,0,0,0,0,0,-1,825,1086,0,0
-392,-62,0,0,0,0,0,0,0,0,0,-1,832,1086,0,0
-385,-62,0,0,0,0,0,0,0,0,0,-1,839,1086,0,0
-378,-62,0,0,0,0,0,0,0,0,0,-1,846,1086,0,0
-371,-62,0,0,0,0,0,0,0,0,0,-1,853,1086,0,0
-364,-62,0,0,0,0,0,0,0,0,0,-1,860,1086,0,0
-357,-62,0,0,0,0,0,0,0,0,0,-1,867,1086,0,0
-350,-62,0,0,0,0,0,0,0,0,0,-1,874,1086,0,0
-343,-62,0,0,0,0,0,0,0,0,0,-1,881,1086,0,0
-336,-62,0,0,0,0,0,0,0,0,0,-1,888,1086,0,0
-329,-62,0,0,0,0,0,0,0,0,0,-1,895,1086,0,0
-322,-62,0,0,0,0,0,0,0,0,0,-1,902,1086,0,0
-315,-62,0,0,0,0,0,0,0,0,0,-1,909,1086,0,0
-308,-62,0,0,0,0,0,0,0,0,0,-1,916,1086,0,0
-301,-62,0,0,0,0,0,0,0,0,0,-1,923,1086,0,0
-294,-62,0,0,0,0,0,0,0,0,0,-1,930,1086,0,0
-287,-62,0,0,0,0,0,0,0,0,0,-1,937,1086,0,0
-280,-62,0,0,0,0,0,0,0,0,0,-1,944,1086,0,0
-273,-62,0,0,0,0,0,0,0,0,0,-1,951,1086,0,0
-266,-62,0,0,0,0,0,0,0,0,0,-1,958,1086,0,0
-259,-62,0,0,0,0,0,0,0,0,0,-1,965,1086,0,0
-252,-62,0,0,0,0,0,0,0,0,0,-1,972,1086,0,0
-245,-62,0,0,0,0,0,0,0,0,0,-1,979,1086,0,0
-238,-62,0,0,0,0,0,0,0,0,0,-1,986,1086,0,0
-231,-62,0,0,0,0,0,0,0,0,0,-1,993,1086,0,0
-224,-62,0,0,0,0,0,0,0,0,0,-1,1000,1086,0,0
-217,-62,0,0,0,0,0,0,0,0,0,-1,1007,1086,0,0
-210,-62,0,0,0,0,0,0,0,0,0,-1,1014,1086,0,0
-203,-62,0,0,0,0,0,0,0,0,0,-1,1021,1086,0,0
-196,-62,0,0,0,0,0,0,0,0,0,-1,1028,1086,0,0
-189,-62,0,0,0,0,0,0,0,0,0,-1,1035,1086,0,0
-182,-62,0,0,0,0,0,0,0,0,0,-1,1042,1086,0,0
-175,-62,0,0,0,0,0,0,0,0,0,-1,1049,1086,0,0
-168,-62,0,0,0,0,0,0,0,0,0,-1,1056,1086,0,0
-161,-62,0,0,0,0,0,0,0,0,0,-1,1063,1086,0,0
-154,-62,0,0,0,0,0,0,0,0,0,-1,1070,1086,0,0
-147,-62,0,0,0,0,0,0,0,0,0,-1,1077,1086,0,0
-140,-62,0,0,0,0,0,0,0,0,0,-1,1084,1086,0,0
-133,-62,0,0,0,0,0,0,0,0,0,-1,1091,1086,0,0
-126,-62,0,0,0,0,0,0,0,0,0,-1,1098,1086,0,0
-119,-62,0,0,0,0,0,0,0,0,0,-1,1105,1086,0,0
-112,-62,0,0,0,0,0,0,0,0,0,-1,1112,1086,0,0
-105,-62,0,0,0,0,0,0,0,0,0,-1,1119,1086,0,0
-98,-62,0,0,0,0,0,0,0,0,0,-1,1126,1086,0,0
-91,-62,0,0,0,0,0,0,0,0,0,-1,1133,1086,0,0
-84,-62,0,0,0,0,0,0,0,0,0,-1,1140,1086,0,0
-77,-62,0,0,0,0,0,0,0,0,0,-1,1147,1086,0,0
-70,-62,0,0,0,0,0,0,0,0,0,-1,1154,1086,0,0
-63,-62,0,0,0,0,0,0,0,0,0,-1,1161,1086,0,0
-56,-62,0,0,0,0,0,0,0,0,0,-1,1168,1086,0,0
-49,-62,0,0,0,0,0,0,0,0,0,-1,1175,1086,0,0
-42,-62,0,0,0,0,0,0,0,0,0,-1,1182,1086,0,0
-35,-62,0,0,0,0,0,0,0,0,0,-1,1189,1086,0,0
-28,-62,0,0,0,0,0,0,0,0,0,-1,1196,1086,0,0
-21,-62,0,0,0,0,0,0,0,0,0,-1,1203,1086,0,0
-14,-62,0,0,0,0,0,0,0,0,0,-1,1210,1086,0,0
-7,-62,0,0,0,0,0,0,0,0,0,-1,1217,1086,0,0
0,-62,0,0,0,0,0,0,0,0,0,-1,1224,1086,0,0
7,-62,0,0,0,0,0,0,0,0,0,-1,1231,1086,0,0
14,-62,0,0,0,0,0,0,0,0,0,-1,1238,1086,0,0
21,-62,0,0,0,0,0,0,0,0,0,-1,1245,1086,0,0
28,-62,0,0,0,0,0,0,0,0,0,-1,1252,1086,0,0
35,-62,0,0,0,0,0,0,0,0,0,-1,1259,1086,0,0
42,-62,0,0,0,0,0,0,0,0,0,-1,1266,1086,0,0
49,-62,0,0,0,0,0,0,0,0,0,-1,1273,1086,0,0
56,-62,0,0,0,0,0,0,0,0,0,-1,1280,1086,0,0
63,-62,0,0,0,0,0,0,0,0,0,-1,1287,1086,0,0
70,-62,0,0,0,0,0,0,0,0,0,-1,1294,1086,0,0
77,-62,0,0,0,0,0,0,0,0,0,-1,1301,1086,0,0
84,-62,0,0,0,0,0,0,0,0,0,-1,1308,1086,0,0
91,-62,0,0,0,0,0,0,0,0,0,-1,1315,1086,0,0
98,-62,0,0,0,0,0,0,0,0,0,-1,1322,1086,0,0
105,-62,0,0,0,0,0,0,0,0,0,-1,1329,1086,0,0
112,-62,0,0,0,0,0,0,0,0,0,-1,1336,1086,0,0
119,-62,0,0,0,0,0,0,0,0,0,-1,1343,1086,0,0
126,-62,0,0,0,0,0,0,0,0,0,-1,1350,1086,0,0
133,-62,0,0,0,0,0,0,0,0,0,-1,1357,1086,0,0
140,-62,0,0,0,0,0,0,0,0,0,-1,1364,1086,0,0
147,-62,0,0,0,0,0,0,0,0,0,-1,1371,1086,0,0
154,-62,0,0,0,0,0,0,0,0,0,-1,1378,1086,0,0
161,-62,0,0,0,0,0,0,0,0,0,-1,1385,1086,0,0
168,-62,0,0,0,0,0,0,0,0,0,-1,1392,1086,0,0
175,-62,0,0,0,0,0,0,0,0,0,-1,1399,1086,0,0
182,-62,0,0,0,0,0,0,0,0,0,-1,1406,1086,0,0
189,-62,0,0,0,0,0,0,0,0,0,-1,1413,1086,0,0
196,-62,0,0,0,0,0,0,0,0,0,-1,1420,1086,0,0
203,-62,0,0,0,0,0,0,0,0,0,-1,1427,1086,0,0
210,-62,0,0,0,0,0,0,0,0,0,-1,1434,1086,0,0
217,-62,0,0,0,0,0,0,0,0,0,-1,1441,1086,0,0
224,-62,0,0,0,0,0,0,0,0,0,-1,1448,1086,0,0
231,-62,0,0,0,0,0,0,0,0,0,-1,1455,1086,0,0
238,-62,0,0,0,0,0,0,0,0,0,-1,1462,1086,0,0
245,-62,0,0,0,0,0,0,0,0,0,-1,1469,1086,0,0
252,-62,0,0,0,0,0,0,0,0,0,-1,1476,1086,0,0
259,-62,0,0,0,0,0,0,0,0,0,-1,1483,1086,0,0
266,-62,0,0,0,0,0,0,0,0,0,-1,1490,1086,0,0
273,-62,0,0,0,0,0,0,0,0,0,-1,1497,1086,0,0
280,-62,0,0,0,0,0,0,0,0,0,-1,1504,1086,0,0
287,-62,0,0,0,0,0,0,0,0,0,-1,1511,1086,0,0
294,-62,0,0,0,0,0,0,0,0,0,-1,1518,1086,0,0
301,-62,0,0,0,0,0,0,0,0,0,-1,1525,1086,0,0
308,-62,0,0,0,0,0,0,0,0,0,-1,1532,1086,0,0
315,-62,0,0,0,0,0,0,0,0,0,-1,1539,1086,0,0
322,-62,0,0,0,0,0,0,0,0,0,-1,1546,1086,0,0
329,-62,0,0,0,0,0,0,0,0,0,-1,1553,1086,0,0
336,-62,0,0,0,0,0,0,0,0,0,-1,1560,1086,0,0
343,-62,0,0,0,0,0,0,0,0,0,-1,1567,1086,0,0
350,-62,0,0,0,0,0,0,0,0,0,-1,1574,1086,0,0
357,-62,0,0,0,0,0,0,0,0,0,-1,1581,1086,0,0
364,-62,0,0,0,0,0,0,0,0,0,-1,1588,1086,0,0
371,-62,0,0,0,0,0,0,0,0,0,-1,1595,1086,0,0
378,-62,0,0,0,0,0,0,0,0,0,-1,1602,1086,0,0
385,-62,0,0,0,0,0,0,0,0,0,-1,1609,1086,0,0
392,-62,0,0,0,0,0,0,0,0,0,-1,1616,1086,0,0
399,-62,0,0,0,0,0,0,0,0,0,-1,1623,1086,0,0
406,-62,0,0,0,0,0,0,0,0,0,-1,1630,1086,0,0
413,-62,0,0,0,0,0,0,0,0,0,-1,1637,1086,0,0
420,-62,0,0,0,0,0,0,0,0,0,-1,1644,1086,0,0
427,-62,0,0,0,0,0,0,0,0,0,-1,1651,1086,0,0
434,-62,0,0,0,0,0,0,0,0,0,-1,1658,1086,0,0
441,-62,0,0,0,0,0,0,0,0,0,-1,1665,1086,0,0
448,-62,0,0,0,0,0,0,0,0,0,-1,1672,1086,0,0
455,-62,0,0,0,0,0,0,0,0,0,-1,1679,1086,0,0
462,-62,0,0,0,0,0,0,0,0,0,-1,1686,1086,0,0
469,-62,0,0,0,0,0,0,0,0,0,-1,1693,1086,0,0
476,-62,0,0,0,0,0,0,0,0,0,-1,1700,1086,0,0
483,-62,0,0,0,0,0,0,0,0,0,-1,1707,1086,0,0
490,-62,0,0,0,0,0,0,0,0,0,-1,1714,1086,0,0
497,-62,0,0,0,0,0,0,0,0,0,-1,1721,1086,0,0
504,-62,0,0,0,0,0,0,0,0,0,-1,1728,1086,0,0
511,-62,0,0,0,0,0,0,0,0,0,-1,1735,1086,0,0
518,-62,0,0,0,0,0,0,0,0,0,-1,1742,1086,0,0
525,-62,0,0,0,0,0,0,0,0,0,-1,1749,1086,0,0
532,-62,0,0,0,0,0,0,0,0,0,-1,1756,1086,0,0
539,-62,0,0,0,0,0,0,0,0,0,-1,1763,1086,0,0
546,-62,0,0,0,0,0,0,0,0,0,-1,1770,1086,0,0
553,-62,0,0,0,0,0,0,0,0,0,-1,1777,1086,0,0
560,-62,0,0,0,0,0,0,0,0,0,-1,1784,1086,0,0
567,-62,0,0,0,0,0,0,0,0,0,-1,1791,1086,0,0
574,-62,0,0,0,0,0,0,0,0,0,-1,1798,1086,0,0
581,-62,0,0,0,0,0,0,0,0,0,-1,1805,1086,0,0
588,-62,0,0,0,0,0,0,0,0,0,-1,1812,1086,0,0
595,-62,0,0,0,0,0,0,0,0,0,-1,1819,1086,0,0
602,-62,0,0,0,0,0,0,0,0,0,-1,1826,1086,0,0
609,-62,0,0,0,0,0,0,0,0,0,-1,1833,1086,0,0
616,-62,0,0,0,0,0,0,0,0,0,-1,1840,1086,0,0
623,-62,0,0,0,0,0,0,0,0,0,-1,1847,1086,0,0
630,-62,0,0,0,0,0,0,0,0,0,-1,1854,1086,0,0
637,-62,0,0,0,0,0,0,0,0,0,-1,1861,1086,0,0
644,-62,0,0,0,0,0,0,0,0,0,-1,1868,1086,0,0
651,-62,54.0331,2.39124,-0.00350302,0.000522242,0.00419157,0.00315933,-0.00614012,1.00922,0.0054602,0.0413869,1875,1086,54.0331,-2.39124
658,-62,53.8596,2.7467,-0.00183196,0.000385896,0.00309554,0.00256515,-0.00401121,0.957394,0.00382733,0.0389579,1882,1086,53.8596,-2.7467
665,-62,53.9266,2.69653,-0.000778329,0.000237816,0.00235255,0.00213654,-0.00267705,0.891748,0.00278496,0.0372256,1889,1086,53.9266,-2.69652
672,-62,53.9791,2.69592,-7.85912e-05,0.000128162,0.00191676,0.00194433,-0.00189476,0.812339,0.00221656,0.0379992,1896,1086,53.9791,-2.69588
679,-62,54.0277,2.6781,0.000268881,8.79603e-05,0.00168565,0.0018665,-0.00150966,0.758591,0.00195285,0.0376535,1903,1086,54.0277,-2.67805
686,-62,54.0785,2.56274,0.00021352,-0.000120644,0.00174394,0.00179836,-0.00170549,0.73764,0.00202318,0.0372282,1910,1086,54.0785,-2.56272
693,-62,54.0676,2.56433,8.53966e-05,-0.000331235,0.0019102,0.0017986,-0.00204444,0.731086,0.0022203,0.036241,1917,1086,54.0677,-2.56439
700,-62,54.0216,2.59583,-1.70233e-05,-0.00040918,0.00213554,0.00193142,-0.00235762,0.739618,0.00248035,0.0299963,1924,1086,54.0216,-2.59585
707,-62,54.0054,2.64819,-0.000105578,-0.000332326,0.00229645,0.00208029,-0.0025182,0.760733,0.00265895,0.0185343,1931,1086,54.0053,-2.64824
714,-62,54.0269,2.66101,-0.000427465,-0.000164638,0.00251852,0.0022259,-0.002818,0.811464,0.00291878,0.0373865,1938,1086,54.0269,-2.661
721,-62,54.0829,2.74634,0,0,0,0,0,0,0,-1,1945,1086,54.0829,-2.74637
728,-62,52.3325,7.06384,0,0,0,0,0,0,0,-1,1952,1086,52.3325,-7.06382
735,-62,52.3014,6.64771,-0.0026987,0.00127058,0.0030957,0.00296318,-0.00439131,1.07044,0.00427272,0.0260308,1959,1086,52.3014,-6.64776
742,-62,52.2535,6.40674,-0.00314133,0.00224421,0.00314771,0.00369379,-0.00459091,1.13923,0.00479251,0.0270397,1966,1086,52.2535,-6.40669
749,-62,52.2247,6.12732,-0.00368195,0.00351949,0.00291758,0.00455315,-0.00471561,1.23031,0.0053516,0.0203766,1973,1086,52.2247,-6.12727
756,-62,52.149,5.90454,-0.00445632,0.00424658,0.00262948,0.00497935,-0.00518908,1.29902,0.00587116,0.0145518,1980,1086,52.1491,-5.90453
763,-62,52.1256,5.60742,-0.00517262,0.00474528,0.00212968,0.00518325,-0.00561059,1.36797,0.00623345,0.0160839,1987,1086,52.1256,-5.60742
770,-62,52.1085,5.30713,-0.005923,0.00531083,0.00131992,0.00546383,-0.006076,1.45539,0.00666565,0.0137521,1994,1086,52.1085,-5.30716
777,-62,52.0022,4.97217,-0.00646902,0.00506571,0.000474945,0.00508524,-0.00648854,1.52971,0.00669848,0.0149936,2001,1086,52.0023,-4.97214
784,-62,51.9202,4.67029,-0.00676396,0.00361313,-0.000283583,0.00362088,-0.00677171,-1.5435,0.00609139,0.0270477,2008,1086,51.9201,-4.67023
791,-62,51.8757,4.18115,-0.0067264,0.000235025,-0.000979003,0.000370084,-0.00686146,-1.43371,0.00470253,0.043069,2015,1086,51.8757,-4.18118
798,-62,51.9832,3.52686,-0.00609076,-0.00603372,-0.00149191,-0.00457006,-0.00755442,-0.794955,0.00439346,0.0452752,2022,1086,51.9831,-3.52687
805,-62,52.0654,2.9187,-0.00451404,-0.0162013,-0.00155276,-0.00431126,-0.016404,-0.129859,0.00981966,0.0433045,2029,1086,52.0655,-2.91873
812,-62,52.1724,2.4834,-0.00221025,-0.0317228,-0.000666674,-0.0021952,-0.0317379,-0.0225741,0.0204661,0.0479434,2036,1086,52.1723,-2.48343
-700,-69,-41.4833,-5.19824,0,0,0,0,0,0,0,-1,524,1093,-41.4833,5.19822
-693,-69,-41.4855,-4.36279,0,0,0,0,0,0,0,-1,531,1093,-41.4855,4.36278
-686,-69,-37.4048,-1.24121,0,0,0,0,0,0,0,-1,538,1093,-37.4048,1.2412
-679,-69,-39.4111,-0.754395,0,0,0,0,0,0,0,-1,545,1093,-39.4111,0.75443
-672,-69,-39.2579,0.0394287,0.0203354,0.0397664,0.0188293,0.051239,0.00886284,1.02357,0.0316218,0.046634,552,1093,-39.2579,-0.0394288
-665,-69,-38.9921,0.816895,0.0166518,0.0298745,0.0173522,0.0418322,0.00469413,0.967413,0.0264626,0.0444866,559,1093,-38.9921,-0.816883
-658,-69,-38.6039,1.12878,0.01292,0.0220764,0.0151232,0.0332992,0.00169726,0.932376,0.0216559,0.0442051,566,1093,-38.6039,-1.12875
-651,-69,-38.5568,1.77441,0.00959733,0.0160676,0.0124281,0.0256747,-9.78354e-06,0.912726,0.0171197,0.033652,573,1093,-38.5568,-1.77437
-644,-69,-38.5606,2.11499,0.00693904,0.0115107,0.00949957,0.0189956,-0.000545841,0.903466,0.0128495,0.010566,580,1093,-38.5606,-2.11504
-637,-69,-38.5867,2.49963,0.00456134,0.00760693,0.00637177,0.0126353,-0.000467072,0.902693,0.00858349,0.0122191,587,1093,-38.5867,-2.49962
-630,-69,-38.6033,2.8396,0.00288349,0.00398451,0.00344789,0.00692556,-5.7563e-05,0.864563,0.00463635,0.0147823,594,1093,-38.6033,-2.83964
-623,-69,-38.6212,3.20959,0.00193396,0.00161394,0.00147618,0.00325877,0.000289127,0.731413,0.00208284,0.0170249,601,1093,-38.6212,-3.2096
-616,-69,-38.6485,3.54919,0.00131236,0.000576365,-1.07234e-05,0.00131252,0.000576208,-0.0145658,0.000759659,0.0200548,608,1093,-38.6485,-3.54914
-609,-69,-38.6463,3.88501,0.00130049,-5.27645e-05,-0.00108596,0.00190337,-0.000655645,-0.506795,0.00153487,0.0182183,615,1093,-38.6463,-3.88505
-602,-69,-38.6029,4.27295,0.00144602,-0.000586546,-0.00170263,0.00241261,-0.00155313,-0.516333,0.00230748,0.0199196,622,1093,-38.6029,-4.2729
-595,-69,-38.4881,4.55005,0.00149176,-0.000779264,-0.00202273,0.00267591,-0.00196341,-0.52963,0.00268902,0.0380218,629,1093,-38.4881,-4.55001
-588,-69,-38.4716,4.8645,0,0,0,0,0,0,0,-1,636,1093,-38.4716,-4.86445
-581,-69,-40.456,0.939209,0,0,0,0,0,0,0,-1,643,1093,-40.456,-0.939175
-574,-69,-40.531,0.901123,0.00196901,-0.000836224,-0.00177706,0.0028303,-0.00169752,-0.45131,0.00264127,0.0340174,650,1093,-40.531,-0.901085
-567,-69,-40.5654,0.997192,0.00196287,-0.000431946,-0.00165272,0.00280636,-0.00127544,-0.471905,0.00241124,0.0385754,657,1093,-40.5654,-0.997141
-560,-69,-40.6407,0.743042,0.00185557,0.000212711,-0.00147686,0.00272407,-0.000655784,-0.531602,0.00206957,0.0408143,664,1093,-40.6407,-0.743089
-553,-69,-40.497,0.597656,0.00169717,0.00101521,-0.00121065,0.00261394,9.84418e-05,-0.648129,0.00171076,0.0381376,671,1093,-40.497,-0.597707
-546,-69,-40.5161,0.703735,0.00187069,0.00183349,-0.000768994,0.00262131,0.00108287,-0.773306,0.00152101,0.0344462,678,1093,-40.5161,-0.703679
-539,-69,-40.541,0.881348,0.00311275,0.00215211,-0.000367383,0.00323714,0.00202772,-0.326476,0.00188876,0.0383537,685,1093,-40.541,-0.881311
-532,-69,-40.4991,0.998657,0.00406554,0.00243013,0.000343048,0.00413458,0.00236109,0.198613,0.00239512,0.0431138,692,1093,-40.4992,-0.998673
-525,-69,0,0,0,0,0,0,0,0,0,-1,699,1093,0,0
-518,-69,0,0,0,0,0,0,0,0,0,-1,706,1093,0,0
-511,-69,0,0,0,0,0,0,0,0,0,-1,713,1093,0,0
-504,-69,0,0,0,0,0,0,0,0,0,-1,720,1093,0,0
-497,-69,0,0,0,0,0,0,0,0,0,-1,727,1093,0,0
-490,-69,0,0,0,0,0,0,0,0,0,-1,734,1093,0,0
-483,-69,0,0,0,0,0,0,0,0,0,-1,741,1093,0,0
-476,-69,0,0,0,0,0,0,0,0,0,-1,748,1093,0,0
-469,-69,0,0,0,0,0,0,0,0,0,-1,755,1093,0,0
-462,-69,0,0,0,0,0,0,0,0,0,-1,762,1093,0,0
-455,-69,0,0,0,0,0,0,0,0,0,-1,769,1093,0,0
-448,-69,0,0,0,0,0,0,0,0,0,-1,776,1093,0,0
-441,-69,0,0,0,0,0,0,0,0,0,-1,783,1093,0,0
-434,-69,0,0,0,0,0,0,0,0,0,-1,790,1093,0,0
-427,-69,0,0,0,0,0,0,0,0,0,-1,797,1093,0,0
-420,-69,0,0,0,0,0,0,0,0,0,-1,804,1093,0,0
-413,-69,0,0,0,0,0,0,0,0,0,-1,811,1093,0,0
-406,-69,0,0,0,0,0,0,0,0,0,-1,818,1093,0,0
-399,-69,0,0,0,0,0,0,0,0,0,-1,825,1093,0,0
-392,-69,0,0,0,0,0,0,0,0,0,-1,832,1093,0,0
-385,-69,0,0,0,0,0,0,0,0,0,-1,839,1093,0,0
-378,-69,0,0,0,0,0,0,0,0,0,-1,846,1093,0,0
-371,-69,0,0,0,0,0,0,0,0,0,-1,853,1093,0,0
-364,-69,0,0,0,0,0,0,0,0,0,-1,860,1093,0,0
-357,-69,0,0,0,0,0,0,0,0,0,-1,867,1093,0,0
-350,-69,0,0,0,0,0,0,0,0,0,-1,874,1093,0,0
-343,-69,0,0,0,0,0,0,0,0,0,-1,881,1093,0,0
-336,-69,0,0,0,0,0,0,0,0,0,-1,888,1093,0,0
-329,-69,0,0,0,0,0,0,0,0,0,-1,895,1093,0,0
-322,-69,0,0,0,0,0,0,0,0,0,-1,902,1093,0,0
-315,-69,0,0,0,0,0,0,0,0,0,-1,909,1093,0,0
-308,-69,0,0,0,0,0,0,0,0,0,-1,916,1093,0,0
-301,-69,0,0,0,0,0,0,0,0,0,-1,923,1093,0,0
-294,-69,0,0,0,0,0,0,0,0,0,-1,930,1093,0,0
-287,-69,0,0,0,0,0,0,0,0,0,-1,937,1093,0,0
-280,-69,0,0,0,0,0,0,0,0,0,-1,944,1093,0,0
-273,-69,0,0,0,0,0,0,0,0,0,-1,951,1093,0,0
-266,-69,0,0,0,0,0,0,0,0,0,-1,958,1093,0,0
-259,-69,0,0,0,0,0,0,0,0,0,-1,965,1093,0,0
-252,-69,0,0,0,0,0,0,0,0,0,-1,972,1093,0,0
-245,-69,0,0,0,0,0,0,0,0,0,-1,979,1093,0,0
-238,-69,0,0,0,0,0,0,0,0,0,-1,986,1093,0,0
-231,-69,0,0,0,0,0,0,0,0,0,-1,993,1093,0,0
-224,-69,0,0,0,0,0,0,0,0,0,-1,1000,1093,0,0
-217,-69,0,0,0,0,0,0,0,0,0,-1,1007,1093,0,0
-210,-69,0,0,0,0,0,0,0,0,0,-1,1014,1093,0,0
-203,-69,0,0,0,0,0,0,0,0,0,-1,1021,1093,0,0
-196,-69,0,0,0,0,0,0,0,0,0,-1,1028,1093,0,0
-189,-69,0,0,0,0,0,0,0,0,0,-1,1035,1093,0,0
-182,-69,0,0,0,0,0,0,0,0,0,-1,1042,1093,0,0
-175,-69,0,0,0,0,0,0,0,0,0,-1,1049,1093,0,0
-168,-69,0,0,0,0,0,0,0,0,0,-1,1056,1093,0,0
-161,-69,0,0,0,0,0,0,0,0,0,-1,1063,1093,0,0
-154,-69,0,0,0,0,0,0,0,0,0,-1,1070,1093,0,0
-147,-69,0,0,0,0,0,0,0,0,0,-1,1077,1093,0,0
-140,-69,0,0,0,0,0,0,0,0,0,-1,1084,1093,0,0
-133,-69,0,0,0,0,0,0,0,0,0,-1,1091,1093,0,0
-126,-69,0,0,0,0,0,0,0,0,0,-1,1098,1093,0,0
-119,-69,0,0,0,0,0,0,0,0,0,-1,1105,1093,0,0
-112,-69,0,0,0,0,0,0,0,0,0,-1,1112,1093,0,0
-105,-69,0,0,0,0,0,0,0,0,0,-1,1119,1093,0,0
-98,-69,0,0,0,0,0,0,0,0,0,-1,1126,1093,0,0
-91,-69,0,0,0,0,0,0,0,0,0,-1,1133,1093,0,0
-84,-69,0,0,0,0,0,0,0,0,0,-1,1140,1093,0,0
-77,-69,0,0,0,0,0,0,0,0,0,-1,1147,1093,0,0
-70,-69,0,0,0,0,0,0,0,0,0,-1,1154,1093,0,0
-63,-69,0,0,0,0,0,0,0,0,0,-1,1161,1093,0,0
-56,-69,0,0,0,0,0,0,0,0,0,-1,1168,1093,0,0
-49,-69,0,0,0,0,0,0,0,0,0,-1,1175,1093,0,0
-42,-69,0,0,0,0,0,0,0,0,0,-1,1182,1093,0,0
-35,-69,0,0,0,0,0,0,0,0,0,-1,1189,1093,0,0
-28,-69,0,0,0,0,0,0,0,0,0,-1,1196,1093,0,0
-21,-69,0,0,0,0,0,0,0,0,0,-1,1203,1093,0,0
-14,-69,0,0,0,0,0,0,0,0,0,-1,1210,1093,0,0
-7,-69,0,0,0,0,0,0,0,0,0,-1,1217,1093,0,0
0,-69,0,0,0,0,0,0,0,0,0,-1,1224,1093,0,0
7,-69,0,0,0,0,0,0,0,0,0,-1,1231,1093,0,0
14,-69,0,0,0,0,0,0,0,0,0,-1,1238,1093,0,0
21,-69,0,0,0,0,0,0,0,0,0,-1,1245,1093,0,0
28,-69,0,0,0,0,0,0,0,0,0,-1,1252,1093,0,0
35,-69,0,0,0,0,0,0,0,0,0,-1,1259,1093,0,0
42,-69,0,0,0,0,0,0,0,0,0,-1,1266,1093,0,0
49,-69,0,0,0,0,0,0,0,0,0,-1,1273,1093,0,0
56,-69,0,0,0,0,0,0,0,0,0,-1,1280,1093,0,0
63,-69,0,0,0,0,0,0,0,0,0,-1,1287,1093,0,0
70,-69,0,0,0,0,0,0,0,0,0,-1,1294,1093,0,0
77,-69,0,0,0,0,0,0,0,0,0,-1,1301,1093,0,0
84,-69,0,0,0,0,0,0,0,0,0,-1,1308,1093,0,0
91,-69,0,0,0,0,0,0,0,0,0,-1,1315,1093,0,0
98,-69,0,0,0,0,0,0,0,0,0,-1,1322,1093,0,0
105,-69,0,0,0,0,0,0,0,0,0,-1,1329,1093,0,0
112,-69,0,0,0,0,0,0,0,0,0,-1,1336,1093,0,0
119,-69,0,0,0,0,0,0,0,0,0,-1,1343,1093,0,0
126,-69,0,0,0,0,0,0,0,0,0,-1,1350,1093,0,0
133,-69,0,0,0,0,0,0,0,0,0,-1,1357,1093,0,0
140,-69,0,0,0,0,0,0,0,0,0,-1,1364,1093,0,0
147,-69,0,0,0,0,0,0,0,0,0,-1,1371,1093,0,0
154,-69,0,0,0,0,0,0,0,0,0,-1,1378,1093,0,0
161,-69,0,0,0,0,0,0,0,0,0,-1,1385,1093,0,0
168,-69,0,0,0,0,0,0,0,0,0,-1,1392,1093,0,0
175,-69,0,0,0,0,0,0,0,0,0,-1,1399,1093,0,0
182,-69,0,0,0,0,0,0,0,0,0,-1,1406,1093,0,0
189,-69,0,0,0,0,0,0,0,0,0,-1,1413,1093,0,0
196,-69,0,0,0,0,0,0,0,0,0,-1,1420,1093,0,0
203,-69,0,0,0,0,0,0,0,0,0,-1,1427,1093,0,0
210,-69,0,0,0,0,0,0,0,0,0,-1,1434,1093,0,0
217,-69,0,0,0,0,0,0,0,0,0,-1,1441,1093,0,0
224,-69,0,0,0,0,0,0,0,0,0,-1,1448,1093,0,0
231,-69,0,0,0,0,0,0,0,0,0,-1,1455,1093,0,0
238,-69,0,0,0,0,0,0,0,0,0,-1,1462,1093,0,0
245,-69,0,0,0,0,0,0,0,0,0,-1,1469,1093,0,0
252,-69,0,0,0,0,0,0,0,0,0,-1,1476,1093,0,0
259,-69,0,0,0,0,0,0,0,0,0,-1,1483,1093,0,0
266,-69,0,0,0,0,0,0,0,0,0,-1,1490,1093,0,0
273,-69,0,0,0,0,0,0,0,0,0,-1,1497,1093,0,0
280,-69,0,0,0,0,0,0,0,0,0,-1,1504,1093,0,0
287,-69,0,0,0,0,0,0,0,0,0,-1,1511,1093,0,0
294,-69,0,0,0,0,0,0,0,0,0,-1,1518,1093,0,0
301,-69,0,0,0,0,0,0,0,0,0,-1,1525,1093,0,0
308,-69,0,0,0,0,0,0,0,0,0,-1,1532,1093,0,0
315,-69,0,0,0,0,0,0,0,0,0,-1,1539,1093,0,0
322,-69,0,0,0,0,0,0,0,0,0,-1,1546,1093,0,0
329,-69,0,0,0,0,0,0,0,0,0,-1,1553,1093,0,0
336,-69,0,0,0,0,0,0,0,0,0,-1,1560,1093,0,0
343,-69,0,0,0,0,0,0,0,0,0,-1,1567,1093,0,0
350,-69,0,0,0,0,0,0,0,0,0,-1,1574,1093,0,0
357,-69,0,0,0,0,0,0,0,0,0,-1,1581,1093,0,0
364,-69,0,0,0,0,0,0,0,0,0,-1,1588,1093,0,0
371,-69,0,0,0,0,0,0,0,0,0,-1,1595,1093,0,0
378,-69,0,0,0,0,0,0,0,0,0,-1,1602,1093,0,0
385,-69,0,0,0,0,0,0,0,0,0,-1,1609,1093,0,0
392,-69,0,0,0,0,0,0,0,0,0,-1,1616,1093,0,0
399,-69,0,0,0,0,0,0,0,0,0,-1,1623,1093,0,0
406,-69,0,0,0,0,0,0,0,0,0,-1,1630,1093,0,0
413,-69,0,0,0,0,0,0,0,0,0,-1,1637,1093,0,0
420,-69,0,0,0,0,0,0,0,0,0,-1,1644,1093,0,0
427,-69,0,0,0,0,0,0,0,0,0,-1,1651,1093,0,0
434,-69,0,0,0,0,0,0,0,0,0,-1,1658,1093,0,0
441,-69,0,0,0,0,0,0,0,0,0,-1,1665,1093,0,0
448,-69,0,0,0,0,0,0,0,0,0,-1,1672,1093,0,0
455,-69,0,0,0,0,0,0,0,0,0,-1,1679,1093,0,0
462,-69,0,0,0,0,0,0,0,0,0,-1,1686,1093,0,0
469,-69,0,0,0,0,0,0,0,0,0,-1,1693,1093,0,0
476,-69,0,0,0,0,0,0,0,0,0,-1,1700,1093,0,0
483,-69,0,0,0,0,0,0,0,0,0,-1,1707,1093,0,0
490,-69,0,0,0,0,0,0,0,0,0,-1,1714,1093,0,0
497,-69,0,0,0,0,0,0,0,0,0,-1,1721,1093,0,0
504,-69,0,0,0,0,0,0,0,0,0,-1,1728,1093,0,0
511,-69,0,0,0,0,0,0,0,0,0,-1,1735,1093,0,0
518,-69,0,0,0,0,0,0,0,0,0,-1,1742,1093,0,0
525,-69,0,0,0,0,0,0,0,0,0,-1,1749,1093,0,0
532,-69,0,0,0,0,0,0,0,0,0,-1,1756,1093,0,0
539,-69,0,0,0,0,0,0,0,0,0,-1,1763,1093,0,0
546,-69,0,0,0,0,0,0,0,0,0,-1,1770,1093,0,0
553,-69,0,0,0,0,0,0,0,0,0,-1,1777,1093,0,0
560,-69,0,0,0,0,0,0,0,0,0,-1,1784,1093,0,0
567,-69,0,0,0,0,0,0,0,0,0,-1,1791,1093,0,0
574,-69,0,0,0,0,0,0,0,0,0,-1,1798,1093,0,0
581,-69,0,0,0,0,0,0,0,0,0,-1,1805,1093,0,0
588,-69,0,0,0,0,0,0,0,0,0,-1,1812,1093,0,0
595,-69,0,0,0,0,0,0,0,0,0,-1,1819,1093,0,0
602,-69,0,0,0,0,0,0,0,0,0,-1,1826,1093,0,0
609,-69,0,0,0,0,0,0,0,0,0,-1,1833,1093,0,0
616,-69,0,0,0,0,0,0,0,0,0,-1,1840,1093,0,0
623,-69,0,0,0,0,0,0,0,0,0,-1,1847,1093,0,0
630,-69,0,0,0,0,0,0,0,0,0,-1,1854,1093,0,0
637,-69,0,0,0,0,0,0,0,0,0,-1,1861,1093,0,0
644,-69,0,0,0,0,0,0,0,0,0,-1,1868,1093,0,0
651,-69,53.9397,2.53406,-0.0025592,-0.000939232,0.00316429,0.0015171,-0.00501553,0.910696,0.00394778,0.0403403,1875,1093,53.9397,-2.53406
658,-69,53.8579,2.65222,-0.00121582,-0.00077883,0.00237542,0.00138812,-0.00338277,0.83126,0.00283359,0.0408853,1882,1093,53.858,-2.65222
665,-69,53.9495,2.54065,-0.000358086,-0.000698837,0.00184298,0.00132237,-0.0023793,0.739306,0.002166,0.0394043,1889,1093,53.9495,-2.54062
672,-69,53.9824,2.5592,0.000218015,-0.000628301,0.00152036,0.001373,-0.00178329,0.649669,0.00182741,0.0379325,1896,1093,53.9824,-2.55918
679,-69,54.0027,2.68079,0.000463415,-0.000517743,0.00133776,0.00139771,-0.00145204,0.609654,0.00164541,0.0379077,1903,1093,54.0026,-2.68073
686,-69,54.0459,2.77551,0.000413435,-0.000611908,0.00141009,0.00140116,-0.00159964,0.611041,0.00173377,0.0355572,1910,1093,54.0459,-2.77557
693,-69,53.9822,2.62927,0.000323374,-0.000737401,0.00155541,0.00143634,-0.00185036,0.621083,0.00190259,0.0329726,1917,1093,53.9821,-2.62923
700,-69,53.9591,2.46509,0.000245403,-0.000752252,0.00174643,0.00156285,-0.0020697,0.646289,0.00210405,0.0267422,1924,1093,53.9592,-2.46504
707,-69,53.9861,2.60205,0.000180804,-0.000606539,0.00190645,0.00173381,-0.00215954,0.683582,0.0022523,0.0200099,1931,1093,53.9861,-2.602
714,-69,54.028,2.62512,-0.000107843,-0.000410428,0.00215653,0.0019027,-0.00242097,0.750378,0.00250224,0.0293585,1938,1093,54.028,-2.62516
721,-69,54.0359,2.64136,0,0,0,0,0,0,0,-1,1945,1093,54.0359,-2.64134
728,-69,51.692,7.22339,0,0,0,0,0,0,0,-1,1952,1093,51.692,-7.2234
735,-69,51.9471,6.81494,-0.00226846,0.000973717,0.00271299,0.00251305,-0.00380779,1.0547,0.00367477,0.0362902,1959,1093,51.9472,-6.81496
742,-69,51.8746,6.53406,-0.0026709,0.00191129,0.0028047,0.00324172,-0.00400133,1.12787,0.00418944,0.028021,1966,1093,51.8746,-6.53407
749,-69,51.7234,6.17493,-0.00338411,0.00315267,0.00271601,0.00413388,-0.00436532,1.22412,0.00490762,0.0292732,1973,1093,51.7234,-6.17487
756,-69,51.7905,5.89136,-0.00454548,0.00393007,0.00254753,0.00463685,-0.00525226,1.30016,0.00571317,0.0163678,1980,1093,51.7906,-5.89135
763,-69,51.778,5.578,-0.00584986,0.00456143,0.00212067,0.00497681,-0.00626525,1.37737,0.0065048,0.0175395,1987,1093,51.778,-5.57803
770,-69,51.7251,5.2915,-0.00745843,0.00526581,0.00144424,0.00542767,-0.0076203,1.45918,0.00756862,0.0192394,1994,1093,51.7251,-5.29153
777,-69,51.6082,5.01221,-0.00925571,0.00532242,0.000699359,0.00535589,-0.00928918,1.52297,0.00855638,0.0248603,2001,1093,51.6081,-5.01225
784,-69,51.5693,4.67029,-0.0111286,0.00433209,-3.7334e-06,0.0043321,-0.0111286,-1.57055,0.00920922,0.0338309,2008,1093,51.5692,-4.67024
791,-69,51.5618,4.28345,-0.0130739,0.0016439,-0.000674514,0.00167475,-0.0131048,-1.52509,0.00934493,0.0427928,2015,1093,51.5618,-4.2834
798,-69,51.3855,3.95166,-0.0149715,-0.00361238,-0.0012398,-0.00347863,-0.0151053,-1.46334,0.00913417,0.0440137,2022,1093,51.3855,-3.95163
805,-69,51.1389,3.91772,-0.0165954,-0.0123775,-0.0015011,-0.0118978,-0.017075,-1.2615,0.0101096,0.0462481,2029,1093,51.1389,-3.91776
812,-69,51.3848,4.02417,-0.018128,-0.0259976,-0.00103308,-0.0179946,-0.0261309,-0.128378,0.0154404,0.0469403,2036,1093,51.3846,-4.02415
-700,-76,0,0,0,0,0,0,0,0,0,-1,524,1100,0,0
-693,-76,-37.6784,-1.51672,0,0,0,0,0,0,0,-1,531,1100,-37.6784,1.51667
-686,-76,-39.207,-1.28906,0,0,0,0,0,0,0,-1,538,1100,-39.207,1.289
-679,-76,-38.8294,-0.702881,0,0,0,0,0,0,0,-1,545,1100,-38.8294,0.70287
-672,-76,-38.4443,-0.141846,0.0110589,0.0503453,0.00362381,0.0506768,0.0107274,1.47958,0.0308371,0.0457805,552,1100,-38.4443,0.141866
-665,-76,-38.2053,0.739014,0.00939322,0.0375749,0.0051872,0.0384993,0.00846877,1.39443,0.0233607,0.04984,559,1100,-38.2052,-0.739062
-658,-76,-38.0905,1.35352,0.00743534,0.027274,0.0057833,0.0288368,0.00587253,1.30687,0.0175968,0.0494942,566,1100,-38.0905,-1.3535
-651,-76,-38.0179,1.74817,0.00559073,0.0192909,0.00555914,0.0212628,0.00361881,1.22993,0.0131361,0.0302668,573,1100,-38.0179,-1.74817
-644,-76,-38.0875,2.07813,0.00406084,0.013334,0.00458786,0.0152202,0.00217466,1.18074,0.00950518,0.0107064,580,1100,-38.0875,-2.07812
-637,-76,-38.1459,2.42834,0.00267423,0.00844948,0.00322738,0.00989249,0.00123123,1.15035,0.0062253,0.0138743,587,1100,-38.1458,-2.42834
-630,-76,-38.1868,2.79639,0.00190535,0.00417899,0.00180492,0.00517526,0.000909075,1.06644,0.00319061,0.0155862,594,1100,-38.1869,-2.79634
-623,-76,-38.2118,3.17505,0.00156659,0.00140898,0.000726119,0.00221817,0.000757401,0.731346,0.00130194,0.0182408,601,1100,-38.2118,-3.175
-616,-76,-38.2604,3.56836,0.00122679,0.000332747,-0.000284697,0.00130975,0.000249786,-0.283548,0.000802959,0.0181129,608,1100,-38.2604,-3.56836
-609,-76,-38.2623,3.94128,0.00141816,-0.000309946,-0.00109922,0.00195227,-0.000844058,-0.452306,0.00165618,0.0187813,615,1100,-38.2623,-3.94131
-602,-76,-38.1953,4.30933,0.00173653,-0.00064208,-0.00163189,0.00256651,-0.00147206,-0.470504,0.00236004,0.0202292,622,1100,-38.1952,-4.30929
-595,-76,-38.1523,4.61169,0.00183654,-0.000717478,-0.0018643,0.00281926,-0.0017002,-0.485111,0.00263584,0.0327231,629,1100,-38.1523,-4.61167
-588,-76,-38.166,4.94568,0,0,0,0,0,0,0,-1,636,1100,-38.166,-4.94569
-581,-76,-40.4275,0.783691,0,0,0,0,0,0,0,-1,643,1100,-40.4275,-0.783746
-574,-76,-40.5733,0.809204,0.00219839,-0.000690767,-0.00166018,0.0029545,-0.00144687,-0.427365,0.00259035,0.0384339,650,1100,-40.5733,-0.809248
-567,-76,-40.6222,0.934204,0.00214871,-0.000301559,-0.00157302,0.0029174,-0.00107025,-0.454544,0.00238318,0.0420404,657,1100,-40.6222,-0.934183
-560,-76,-40.7519,0.943604,0.00197291,0.000316089,-0.00142541,0.00279315,-0.000504151,-0.522167,0.00205091,0.0405164,664,1100,-40.7519,-0.943569
-553,-76,-40.5334,0.756714,0.00161928,0.00110222,-0.00118903,0.00257756,0.000143944,-0.67835,0.00167246,0.0420455,671,1100,-40.5334,-0.756662
-546,-76,-40.4744,0.657104,0.00152765,0.00194054,-0.000746332,0.00250845,0.000959735,-0.920333,0.0014615,0.0397465,678,1100,-40.4744,-0.657068
-539,-76,-40.5902,0.827881,0.00262646,0.00232447,-0.000200682,0.0027266,0.00222432,-0.462879,0.00167559,0.0406834,685,1100,-40.5902,-0.827878
-532,-76,-40.5862,0.776855,0.00351821,0.00264217,0.000550915,0.00378401,0.00237637,0.449533,0.00220843,0.0426186,692,1100,-40.5862,-0.776848
-525,-76,0,0,0,0,0,0,0,0,0,-1,699,1100,0,0
-518,-76,0,0,0,0,0,0,0,0,0,-1,706,1100,0,0
-511,-76,0,0,0,0,0,0,0,0,0,-1,713,1100,0,0
-504,-76,0,0,0,0,0,0,0,0,0,-1,720,1100,0,0
-497,-76,0,0,0,0,0,0,0,0,0,-1,727,1100,0,0
-490,-76,0,0,0,0,0,0,0,0,0,-1,734,1100,0,0
-483,-76,0,0,0,0,0,0,0,0,0,-1,741,1100,0,0
-476,-76,0,0,0,0,0,0,0,0,0,-1,748,1100,0,0
-469,-76,0,0,0,0,0,0,0,0,0,-1,755,1100,0,0
-462,-76,0,0,0,0,0,0,0,0,0,-1,762,1100,0,0
-455,-76,0,0,0,0,0,0,0,0,0,-1,769,1100,0,0
-448,-76,0,0,0,0,0,0,0,0,0,-1,776,1100,0,0
-441,-76,0,0,0,0,0,0,0,0,0,-1,783,1100,0,0
-434,-76,0,0,0,0,0,0,0,0,0,-1,790,1100,0,0
-427,-76,0,0,0,0,0,0,0,0,0,-1,797,1100,0,0
-420,-76,0,0,0,0,0,0,0,0,0,-1,804,1100,0,0
-413,-76,0,0,0,0,0,0,0,0,0,-1,811,1100,0,0
-406,-76,0,0,0,0,0,0,0,0,0,-1,818,1100,0,0
-399,-76,0,0,0,0,0,0,0,0,0,-1,825,1100,0,0
-392,-76,0,0,0,0,0,0,0,0,0,-1,832,1100,0,0
-385,-76,0,0,0,0,0,0,0,0,0,-1,839,1100,0,0
-378,-76,0,0,0,0,0,0,0,0,0,-1,846,1100,0,0
-371,-76,0,0,0,0,0,0,0,0,0,-1,853,1100,0,0
-364,-76,0,0,0,0,0,0,0,0,0,-1,860,1100,0,0
-357,-76,0,0,0,0,0,0,0,0,0,-1,867,1100,0,0
-350,-76,0,0,0,0,0,0,0,0,0,-1,874,1100,0,0
-343,-76,0,0,0,0,0,0,0,0,0,-1,881,1100,0,0
-336,-76,0,0,0,0,0,0,0,0,0,-1,888,1100,0,0
-329,-76,0,0,0,0,0,0,0,0,0,-1,895,1100,0,0
-322,-76,0,0,0,0,0,0,0,0,0,-1,902,1100,0,0
-315,-76,0,0,0,0,0,0,0,0,0,-1,909,1100,0,0
-308,-76,0,0,0,0,0,0,0,0,0,-1,916,1100,0,0
-301,-76,0,0,0,0,0,0,0,0,0,-1,923,1100,0,0
-294,-76,0,0,0,0,0,0,0,0,0,-1,930,1100,0,0
-287,-76,0,0,0,0,0,0,0,0,0,-1,937,1100,0,0
-280,-76,0,0,0,0,0,0,0,0,0,-1,944,1100,0,0
-273,-76,0,0,0,0,0,0,0,0,0,-1,951,1100,0,0
-266,-76,0,0,0,0,0,0,0,0,0,-1,958,1100,0,0
-259,-76,0,0,0,0,0,0,0,0,0,-1,965,1100,0,0
-252,-76,0,0,0,0,0,0,0,0,0,-1,972,1100,0,0
-245,-76,0,0,0,0,0,0,0,0,0,-1,979,1100,0,0
-238,-76,0,0,0,0,0,0,0,0,0,-1,986,1100,0,0
-231,-76,0,0,0,0,0,0,0,0,0,-1,993,1100,0,0
-224,-76,0,0,0,0,0,0,0,0,0,-1,1000,1100,0,0
-217,-76,0,0,0,0,0,0,0,0,0,-1,1007,1100,0,0
-210,-76,0,0,0,0,0,0,0,0,0,-1,1014,1100,0,0
-203,-76,0,0,0,0,0,0,0,0,0,-1,1021,1100,0,0
-196,-76,0,0,0,0,0,0,0,0,0,-1,1028,1100,0,0
-189,-76,0,0,0,0,0,0,0,0,0,-1,1035,1100,0,0
-182,-76,0,0,0,0,0,0,0,0,0,-1,1042,1100,0,0
-175,-76,0,0,0,0,0,0,0,0,0,-1,1049,1100,0,0
-168,-76,0,0,0,0,0,0,0,0,0,-1,1056,1100,0,0
-161,-76,0,0,0,0,0,0,0,0,0,-1,1063,1100,0,0
-154,-76,0,0,0,0,0,0,0,0,0,-1,1070,1100,0,0
-147,-76,0,0,0,0,0,0,0,0,0,-1,1077,1100,0,0
-140,-76,0,0,0,0,0,0,0,0,0,-1,1084,1100,0,0
-133,-76,0,0,0,0,0,0,0,0,0,-1,1091,1100,0,0
-126,-76,0,0,0,0,0,0,0,0,0,-1,1098,1100,0,0
-119,-76,0,0,0,0,0,0,0,0,0,-1,1105,1100,0,0
-112,-76,0,0,0,0,0,0,0,0,0,-1,1112,1100,0,0
-105,-76,0,0,0,0,0,0,0,0,0,-1,1119,1100,0,0
-98,-76,0,0,0,0,0,0,0,0,0,-1,1126,1100,0,0
-91,-76,0,0,0,0,0,0,0,0,0,-1,1133,1100,0,0
-84,-76,0,0,0,0,0,0,0,0,0,-1,1140,1100,0,0
-77,-76,0,0,0,0,0,0,0,0,0,-1,1147,1100,0,0
-70,-76,0,0,0,0,0,0,0,0,0,-1,1154,1100,0,0
-63,-76,0,0,0,0,0,0,0,0,0,-1,1161,1100,0,0
-56,-76,0,0,0,0,0,0,0,0,0,-1,1168,1100,0,0
-49,-76,0,0,0,0,0,0,0,0,0,-1,1175,1100,0,0
-42,-76,0,0,0,0,0,0,0,0,0,-1,1182,1100,0,0
-35,-76,0,0,0,0,0,0,0,0,0,-1,1189,1100,0,0
-28,-76,0,0,0,0,0,0,0,0,0,-1,1196,1100,0,0
-21,-76,0,0,0,0,0,0,0,0,0,-1,1203,1100,0,0
-14,-76,0,0,0,0,0,0,0,0,0,-1,1210,1100,0,0
-7,-76,0,0,0,0,0,0,0,0,0,-1,1217,1100,0,0
0,-76,0,0,0,0,0,0,0,0,0,-1,1224,1100,0,0
7,-76,0,0,0,0,0,0,0,0,0,-1,1231,1100,0,0
14,-76,0,0,0,0,0,0,0,0,0,-1,1238,1100,0,0
21,-76,0,0,0,0,0,0,0,0,0,-1,1245,1100,0,0
28,-76,0,0,0,0,0,0,0,0,0,-1,1252,1100,0,0
35,-76,0,0,0,0,0,0,0,0,0,-1,1259,1100,0,0
42,-76,0,0,0,0,0,0,0,0,0,-1,1266,1100,0,0
49,-76,0,0,0,0,0,0,0,0,0,-1,1273,1100,0,0
56,-76,0,0,0,0,0,0,0,0,0,-1,1280,1100,0,0
63,-76,0,0,0,0,0,0,0,0,0,-1,1287,1100,0,0
70,-76,0,0,0,0,0,0,0,0,0,-1,1294,1100,0,0
77,-76,0,0,0,0,0,0,0,0,0,-1,1301,1100,0,0
84,-76,0,0,0,0,0,0,0,0,0,-1,1308,1100,0,0
91,-76,0,0,0,0,0,0,0,0,0,-1,1315,1100,0,0
98,-76,0,0,0,0,0,0,0,0,0,-1,1322,1100,0,0
105,-76,0,0,0,0,0,0,0,0,0,-1,1329,1100,0,0
112,-76,0,0,0,0,0,0,0,0,0,-1,1336,1100,0,0
119,-76,0,0,0,0,0,0,0,0,0,-1,1343,1100,0,0
126,-76,0,0,0,0,0,0,0,0,0,-1,1350,1100,0,0
133,-76,0,0,0,0,0,0,0,0,0,-1,1357,1100,0,0
140,-76,0,0,0,0,0,0,0,0,0,-1,1364,1100,0,0
147,-76,0,0,0,0,0,0,0,0,0,-1,1371,1100,0,0
154,-76,0,0,0,0,0,0,0,0,0,-1,1378,1100,0,0
161,-76,0,0,0,0,0,0,0,0,0,-1,1385,1100,0,0
168,-76,0,0,0,0,0,0,0,0,0,-1,1392,1100,0,0
175,-76,0,0,0,0,0,0,0,0,0,-1,1399,1100,0,0
182,-76,0,0,0,0,0,0,0,0,0,-1,1406,1100,0,0
189,-76,0,0,0,0,0,0,0,0,0,-1,1413,1100,0,0
196,-76,0,0,0,0,0,0,0,0,0,-1,1420,1100,0,0
203,-76,0,0,0,0,0,0,0,0,0,-1,1427,1100,0,0
210,-76,0,0,0,0,0,0,0,0,0,-1,1434,1100,0,0
217,-76,0,0,0,0,0,0,0,0,0,-1,1441,1100,0,0
224,-76,0,0,0,0,0,0,0,0,0,-1,1448,1100,0,0
231,-76,0,0,0,0,0,0,0,0,0,-1,1455,1100,0,0
238,-76,0,0,0,0,0,0,0,0,0,-1,1462,1100,0,0
245,-76,0,0,0,0,0,0,0,0,0,-1,1469,1100,0,0
252,-76,0,0,0,0,0,0,0,0,0,-1,1476,1100,0,0
259,-76,0,0,0,0,0,0,0,0,0,-1,1483,1100,0,0
266,-76,0,0,0,0,0,0,0,0,0,-1,1490,1100,0,0
273,-76,0,0,0,0,0,0,0,0,0,-1,1497,1100,0,0
280,-76,0,0,0,0,0,0,0,0,0,-1,1504,1100,0,0
287,-76,0,0,0,0,0,0,0,0,0,-1,1511,1100,0,0
294,-76,0,0,0,0,0,0,0,0,0,-1,1518,1100,0,0
301,-76,0,0,0,0,0,0,0,0,0,-1,1525,1100,0,0
308,-76,0,0,0,0,0,0,0,0,0,-1,1532,1100,0,0
315,-76,0,0,0,0,0,0,0,0,0,-1,1539,1100,0,0
322,-76,0,0,0,0,0,0,0,0,0,-1,1546,1100,0,0
329,-76,0,0,0,0,0,0,0,0,0,-1,1553,1100,0,0
336,-76,0,0,0,0,0,0,0,0,0,-1,1560,1100,0,0
343,-76,0,0,0,0,0,0,0,0,0,-1,1567,1100,0,0
350,-76,0,0,0,0,0,0,0,0,0,-1,1574,1100,0,0
357,-76,0,0,0,0,0,0,0,0,0,-1,1581,1100,0,0
364,-76,0,0,0,0,0,0,0,0,0,-1,1588,1100,0,0
371,-76,0,0,0,0,0,0,0,0,0,-1,1595,1100,0,0
378,-76,0,0,0,0,0,0,0,0,0,-1,1602,1100,0,0
385,-76,0,0,0,0,0,0,0,0,0,-1,1609,1100,0,0
392,-76,0,0,0,0,0,0,0,0,0,-1,1616,1100,0,0
399,-76,0,0,0,0,0,0,0,0,0,-1,1623,1100,0,0
406,-76,0,0,0,0,0,0,0,0,0,-1,1630,1100,0,0
413,-76,0,0,0,0,0,0,0,0,0,-1,1637,1100,0,0
420,-76,0,0,0,0,0,0,0,0,0,-1,1644,1100,0,0
427,-76,0,0,0,0,0,0,0,0,0,-1,1651,1100,0,0
434,-76,0,0,0,0,0,0,0,0,0,-1,1658,1100,0,0
441,-76,0,0,0,0,0,0,0,0,0,-1,1665,1100,0,0
448,-76,0,0,0,0,0,0,0,0,0,-1,1672,1100,0,0
455,-76,0,0,0,0,0,0,0,0,0,-1,1679,1100,0,0
462,-76,0,0,0,0,0,0,0,0,0,-1,1686,1100,0,0
469,-76,0,0,0,0,0,0,0,0,0,-1,1693,1100,0,0
476,-76,0,0,0,0,0,0,0,0,0,-1,1700,1100,0,0
483,-76,0,0,0,0,0,0,0,0,0,-1,1707,1100,0,0
490,-76,0,0,0,0,0,0,0,0,0,-1,1714,1100,0,0
497,-76,0,0,0,0,0,0,0,0,0,-1,1721,1100,0,0
504,-76,0,0,0,0,0,0,0,0,0,-1,1728,1100,0,0
511,-76,0,0,0,0,0,0,0,0,0,-1,1735,1100,0,0
518,-76,0,0,0,0,0,0,0,0,0,-1,1742,1100,0,0
525,-76,0,0,0,0,0,0,0,0,0,-1,1749,1100,0,0
532,-76,0,0,0,0,0,0,0,0,0,-1,1756,1100,0,0
539,-76,0,0,0,0,0,0,0,0,0,-1,1763,1100,0,0
546,-76,0,0,0,0,0,0,0,0,0,-1,1770,1100,0,0
553,-76,0,0,0,0,0,0,0,0,0,-1,1777,1100,0,0
560,-76,0,0,0,0,0,0,0,0,0,-1,1784,1100,0,0
567,-76,0,0,0,0,0,0,0,0,0,-1,1791,1100,0,0
574,-76,0,0,0,0,0,0,0,0,0,-1,1798,1100,0,0
581,-76,0,0,0,0,0,0,0,0,0,-1,1805,1100,0,0
588,-76,0,0,0,0,0,0,0,0,0,-1,1812,1100,0,0
595,-76,0,0,0,0,0,0,0,0,0,-1,1819,1100,0,0
602,-76,0,0,0,0,0,0,0,0,0,-1,1826,1100,0,0
609,-76,0,0,0,0,0,0,0,0,0,-1,1833,1100,0,0
616,-76,0,0,0,0,0,0,0,0,0,-1,1840,1100,0,0
623,-76,0,0,0,0,0,0,0,0,0,-1,1847,1100,0,0
630,-76,0,0,0,0,0,0,0,0,0,-1,1854,1100,0,0
637,-76,0,0,0,0,0,0,0,0,0,-1,1861,1100,0,0
644,-76,0,0,0,0,0,0,0,0,0,-1,1868,1100,0,0
651,-76,53.9474,2.48108,-0.00163742,-0.00201219,0.00225242,0.000435398,-0.00408501,0.743898,0.00287947,0.0390218,1875,1100,53.9474,-2.48106
658,-76,53.9113,2.48279,-0.000656108,-0.00158523,0.00174354,0.000683698,-0.00292504,0.655199,0.00221341,0.041708,1882,1100,53.9112,-2.48285
665,-76,53.9872,2.42395,-7.15845e-06,-0.0013028,0.001392,0.000880384,-0.00219034,0.56761,0.00182586,0.0384973,1889,1100,53.9871,-2.42399
672,-76,54.0475,2.45605,0.000442585,-0.00108352,0.00116122,0.00106902,-0.00170996,0.494718,0.0016186,0.0353177,1896,1100,54.0474,-2.45611
679,-76,54.0703,2.59204,0.000600834,-0.000872446,0.00100428,0.00110967,-0.00138128,0.468968,0.001441,0.0357622,1903,1100,54.0703,-2.59199
686,-76,54.0823,2.79614,0.000591743,-0.000898523,0.00106478,0.00114621,-0.00145299,0.480102,0.00150413,0.0347117,1910,1100,54.0823,-2.79614
693,-76,54.0015,2.70679,0.000567986,-0.00096387,0.00117597,0.00120546,-0.00160135,0.496748,0.00162588,0.034781,1917,1100,54.0014,-2.70678
700,-76,53.9652,2.5293,0.000529762,-0.00093198,0.00132423,0.00131142,-0.00171364,0.533239,0.00175166,0.0296788,1924,1100,53.9653,-2.52931
707,-76,53.9871,2.62561,0.000499857,-0.000742289,0.00146984,0.00147446,-0.00171689,0.585504,0.0018443,0.0224382,1931,1100,53.987,-2.62563
714,-76,54.0533,2.61902,0,0,0,0,0,0,0,-1,1938,1100,54.0533,-2.61901
721,-76,45.1713,3.04919,0,0,0,0,0,0,0,-1,1945,1100,45.1713,-3.04915
728,-76,50.8252,7.22961,0,0,0,0,0,0,0,-1,1952,1100,50.8252,-7.22962
735,-76,51.2461,6.95093,-0.00175994,0.000774196,0.00224843,0.002088,-0.00307374,1.04199,0.00299819,0.0427613,1959,1100,51.2461,-6.95092
742,-76,51.4739,6.61243,-0.00212602,0.00168556,0.00237475,0.00282468,-0.00326514,1.12354,0.00351902,0.0285592,1966,1100,51.4739,-6.61242
749,-76,51.3766,6.19397,-0.00302635,0.00295565,0.00237591,0.00378447,-0.00385517,1.23515,0.00441081,0.0270262,1973,1100,51.3765,-6.19397
756,-76,51.4412,5.87915,-0.00457459,0.00381786,0.00227448,0.00439463,-0.00515137,1.32244,0.00551715,0.0168024,1980,1100,51.4412,-5.87912
763,-76,51.4075,5.55005,-0.00647437,0.00456267,0.00187312,0.0048719,-0.0067836,1.40719,0.00675941,0.0176953,1987,1100,51.4074,-5.55005
770,-76,51.3279,5.2583,-0.00895009,0.0054388,0.00122351,0.00554209,-0.00905338,1.48657,0.0085076,0.0190801,1994,1100,51.3279,-5.25832
777,-76,51.231,5.02869,-0.0119385,0.00577655,0.000447748,0.00578786,-0.0119498,1.54554,0.0104448,0.0227016,2001,1100,51.2311,-5.02872
784,-76,51.2419,4.64685,-0.0152936,0.00519026,-0.000335113,0.00519574,-0.0152991,-1.55444,0.0123026,0.0349968,2008,1100,51.242,-4.6469
791,-76,51.1333,4.05249,-0.0190881,0.00308322,-0.0011082,0.00313847,-0.0191433,-1.52098,0.0139268,0.0440791,2015,1100,51.1334,-4.05244
798,-76,50.9292,3.66235,0,0,0,0,0,0,0,-1,2022,1100,50.9291,-3.66234
805,-76,50.6714,3.71863,0,0,0,0,0,0,0,-1,2029,1100,50.6714,-3.71867
812,-76,51.1433,4.24011,0,0,0,0,0,0,0,-1,2036,1100,51.1433,-4.24017
-700,-83,0,0,0,0,0,0,0,0,0,-1,524,1107,0,0
-693,-83,-35.8562,0.25647,0,0,0,0,0,0,0,-1,531,1107,-35.8562,-0.256431
-686,-83,-36.2205,0.467041,0,0,0,0,0,0,0,-1,538,1107,-36.2205,-0.467017
-679,-83,-38.2477,-0.651367,0,0,0,0,0,0,0,-1,545,1107,-38.2477,0.651309
-672,-83,-37.6524,0.0688477,0,0,0,0,0,0,0,-1,552,1107,-37.6524,-0.0688599
-665,-83,-37.528,0.876587,0,0,0,0,0,0,0,-1,559,1107,-37.528,-0.876538
-658,-83,-37.5598,1.40369,0,0,0,0,0,0,0,-1,566,1107,-37.5597,-1.40367
-651,-83,-37.5901,1.5249,0.00149371,0.0240572,-0.00110295,0.024111,0.00143993,-1.52207,0.0156162,0.0336647,573,1107,-37.5901,-1.52488
-644,-83,-37.6567,1.97131,0.000997532,0.0164041,-0.000181743,0.0164062,0.000995388,-1.559,0.0106213,0.0165248,580,1107,-37.6567,-1.97128
-637,-83,-37.7252,2.40198,0.000538096,0.010219,0.00017713,0.0102223,0.000534857,1.55251,0.00664375,0.0125231,587,1107,-37.7252,-2.40195
-630,-83,-37.765,2.81714,0.000588841,0.00491499,0.000183891,0.00492279,0.000581039,1.52839,0.00310635,0.0173649,594,1107,-37.7649,-2.81717
-623,-83,-37.7959,3.1698,0.00083254,0.00155723,-1.2276e-05,0.00155743,0.000832332,-1.55386,0.000899896,0.0175386,601,1107,-37.7959,-3.1698
-616,-83,-37.8553,3.55811,0.000882928,0.000316578,-0.000495289,0.00117028,2.92276e-05,-0.525709,0.000770628,0.016334,608,1107,-37.8554,-3.55816
-609,-83,-37.8405,3.9386,0.00134065,-0.000437741,-0.00106482,0.00183872,-0.00093581,-0.437517,0.0016299,0.0198123,615,1107,-37.8405,-3.93855
-602,-83,-37.8315,4.3551,0.00181996,-0.000712465,-0.00156831,0.00256941,-0.00146192,-0.445788,0.00235658,0.0191299,622,1107,-37.8315,-4.35506
-595,-83,-37.7457,4.71008,0.00194732,-0.000784294,-0.00174878,0.00280044,-0.00163742,-0.453872,0.00259136,0.0234854,629,1107,-37.7457,-4.7101
-588,-83,-37.7508,4.98999,0,0,0,0,0,0,0,-1,636,1107,-37.7508,-4.98993
-581,-83,-40.408,0.642334,0,0,0,0,0,0,0,-1,643,1107,-40.408,-0.642326
-574,-83,-40.5269,0.74939,0.00222754,-0.00081269,-0.00163634,0.00294089,-0.00152604,-0.411101,0.00262175,0.0394072,650,1107,-40.5269,-0.749374
-567,-83,-40.6348,0.960938,0.00216018,-0.000486293,-0.00160717,0.00291875,-0.00124487,-0.440994,0.00246777,0.0426705,657,1107,-40.6348,-0.960958
-560,-83,-40.7162,1.01758,0.00195119,6.95776e-05,-0.00151333,0.00279232,-0.000771553,-0.507295,0.00216505,0.0396891,664,1107,-40.7162,-1.01757
-553,-83,-40.4742,0.842773,0,0,0,0,0,0,0,-1,671,1107,-40.4742,-0.842818
-546,-83,-40.4866,1.19055,0.0010466,0.00179288,-0.000965982,0.00245528,0.000384194,-0.969709,0.00152501,0.0398825,678,1107,-40.4866,-1.19056
-539,-83,-40.4554,1.03589,0.00189894,0.00249192,-0.000334912,0.00264273,0.00174814,-1.14771,0.00155208,0.0424616,685,1107,-40.4554,-1.03586
-532,-83,-40.3586,0.78772,0.00266605,0.00315719,0.00044065,0.00341608,0.00240716,1.03961,0.0020266,0.0447251,692,1107,-40.3586,-0.787756
-525,-83,0,0,0,0,0,0,0,0,0,-1,699,1107,0,0
-518,-83,0,0,0,0,0,0,0,0,0,-1,706,1107,0,0
-511,-83,0,0,0,0,0,0,0,0,0,-1,713,1107,0,0
-504,-83,0,0,0,0,0,0,0,0,0,-1,720,1107,0,0
-497,-83,0,0,0,0,0,0,0,0,0,-1,727,1107,0,0
-490,-83,0,0,0,0,0,0,0,0,0,-1,734,1107,0,0
-483,-83,0,0,0,0,0,0,0,0,0,-1,741,1107,0,0
-476,-83,0,0,0,0,0,0,0,0,0,-1,748,1107,0,0
-469,-83,0,0,0,0,0,0,0,0,0,-1,755,1107,0,0
-462,-83,0,0,0,0,0,0,0,0,0,-1,762,1107,0,0
-455,-83,0,0,0,0,0,0,0,0,0,-1,769,1107,0,0
-448,-83,0,0,0,0,0,0,0,0,0,-1,776,1107,0,0
-441,-83,0,0,0,0,0,0,0,0,0,-1,783,1107,0,0
-434,-83,0,0,0,0,0,0,0,0,0,-1,790,1107,0,0
-427,-83,0,0,0,0,0,0,0,0,0,-1,797,1107,0,0
-420,-83,0,0,0,0,0,0,0,0,0,-1,804,1107,0,0
-413,-83,0,0,0,0,0,0,0,0,0,-1,811,1107,0,0
-406,-83,0,0,0,0,0,0,0,0,0,-1,818,1107,0,0
-399,-83,0,0,0,0,0,0,0,0,0,-1,825,1107,0,0
-392,-83,0,0,0,0,0,0,0,0,0,-1,832,1107,0,0
-385,-83,0,0,0,0,0,0,0,0,0,-1,839,1107,0,0
-378,-83,0,0,0,0,0,0,0,0,0,-1,846,1107,0,0
-371,-83,0,0,0,0,0,0,0,0,0,-1,853,1107,0,0
-364,-83,0,0,0,0,0,0,0,0,0,-1,860,1107,0,0
-357,-83,0,0,0,0,0,0,0,0,0,-1,867,1107,0,0
-350,-83,0,0,0,0,0,0,0,0,0,-1,874,1107,0,0
-343,-83,0,0,0,0,0,0,0,0,0,-1,881,1107,0,0
-336,-83,0,0,0,0,0,0,0,0,0,-1,888,1107,0,0
-329,-83,0,0,0,0,0,0,0,0,0,-1,895,1107,0,0
-322,-83,0,0,0,0,0,0,0,0,0,-1,902,1107,0,0
-315,-83,0,0,0,0,0,0,0,0,0,-1,909,1107,0,0
-308,-83,0,0,0,0,0,0,0,0,0,-1,916,1107,0,0
-301,-83,0,0,0,0,0,0,0,0,0,-1,923,1107,0,0
-294,-83,0,0,0,0,0,0,0,0,0,-1,930,1107,0,0
-287,-83,0,0,0,0,0,0,0,0,0,-1,937,1107,0,0
-280,-83,0,0,0,0,0,0,0,0,0,-1,944,1107,0,0
-273,-83,0,0,0,0,0,0,0,0,0,-1,951,1107,0,0
-266,-83,0,0,0,0,0,0,0,0,0,-1,958,1107,0,0
-259,-83,0,0,0,0,0,0,0,0,0,-1,965,1107,0,0
-252,-83,0,0,0,0,0,0,0,0,0,-1,972,1107,0,0
-245,-83,0,0,0,0,0,0,0,0,0,-1,979,1107,0,0
-238,-83,0,0,0,0,0,0,0,0,0,-1,986,1107,0,0
-231,-83,0,0,0,0,0,0,0,0,0,-1,993,1107,0,0
-224,-83,0,0,0,0,0,0,0,0,0,-1,1000,1107,0,0
-217,-83,0,0,0,0,0,0,0,0,0,-1,1007,1107,0,0
-210,-83,0,0,0,0,0,0,0,0,0,-1,1014,1107,0,0
-203,-83,0,0,0,0,0,0,0,0,0,-1,1021,1107,0,0
-196,-83,0,0,0,0,0,0,0,0,0,-1,1028,1107,0,0
-189,-83,0,0,0,0,0,0,0,0,0,-1,1035,1107,0,0
-182,-83,0,0,0,0,0,0,0,0,0,-1,1042,1107,0,0
-175,-83,0,0,0,0,0,0,0,0,0,-1,1049,1107,0,0
-168,-83,0,0,0,0,0,0,0,0,0,-1,1056,1107,0,0
-161,-83,0,0,0,0,0,0,0,0,0,-1,1063,1107,0,0
-154,-83,0,0,0,0,0,0,0,0,0,-1,1070,1107,0,0
-147,-83,0,0,0,0,0,0,0,0,0,-1,1077,1107,0,0
-140,-83,0,0,0,0,0,0,0,0,0,-1,1084,1107,0,0
-133,-83,0,0,0,0,0,0,0,0,0,-1,1091,1107,0,0
-126,-83,0,0,0,0,0,0,0,0,0,-1,1098,1107,0,0
-119,-83,0,0,0,0,0,0,0,0,0,-1,1105,1107,0,0
-112,-83,0,0,0,0,0,0,0,0,0,-1,1112,1107,0,0
-105,-83,0,0,0,0,0,0,0,0,0,-1,1119,1107,0,0
-98,-83,0,0,0,0,0,0,0,0,0,-1,1126,1107,0,0
-91,-83,0,0,0,0,0,0,0,0,0,-1,1133,1107,0,0
-84,-83,0,0,0,0,0,0,0,0,0,-1,1140,1107,0,0
-77,-83,0,0,0,0,0,0,0,0,0,-1,1147,1107,0,0
-70,-83,0,0,0,0,0,0,0,0,0,-1,1154,1107,0,0
-63,-83,0,0,0,0,0,0,0,0,0,-1,1161,1107,0,0
-56,-83,0,0,0,0,0,0,0,0,0,-1,1168,1107,0,0
-49,-83,0,0,0,0,0,0,0,0,0,-1,1175,1107,0,0
-42,-83,0,0,0,0,0,0,0,0,0,-1,1182,1107,0,0
-35,-83,0,0,0,0,0,0,0,0,0,-1,1189,1107,0,0
-28,-83,0,0,0,0,0,0,0,0,0,-1,1196,1107,0,0
-21,-83,0,0,0,0,0,0,0,0,0,-1,1203,1107,0,0
-14,-83,0,0,0,0,0,0,0,0,0,-1,1210,1107,0,0
-7,-83,0,0,0,0,0,0,0,0,0,-1,1217,1107,0,0
0,-83,0,0,0,0,0,0,0,0,0,-1,1224,1107,0,0
7,-83,0,0,0,0,0,0,0,0,0,-1,1231,1107,0,0
14,-83,0,0,0,0,0,0,0,0,0,-1,1238,1107,0,0
21,-83,0,0,0,0,0,0,0,0,0,-1,1245,1107,0,0
28,-83,0,0,0,0,0,0,0,0,0,-1,1252,1107,0,0
35,-83,0,0,0,0,0,0,0,0,0,-1,1259,1107,0,0
42,-83,0,0,0,0,0,0,0,0,0,-1,1266,1107,0,0
49,-83,0,0,0,0,0,0,0,0,0,-1,1273,1107,0,0
56,-83,0,0,0,0,0,0,0,0,0,-1,1280,1107,0,0
63,-83,0,0,0,0,0,0,0,0,0,-1,1287,1107,0,0
70,-83,0,0,0,0,0,0,0,0,0,-1,1294,1107,0,0
77,-83,0,0,0,0,0,0,0,0,0,-1,1301,1107,0,0
84,-83,0,0,0,0,0,0,0,0,0,-1,1308,1107,0,0
91,-83,0,0,0,0,0,0,0,0,0,-1,1315,1107,0,0
98,-83,0,0,0,0,0,0,0,0,0,-1,1322,1107,0,0
105,-83,0,0,0,0,0,0,0,0,0,-1,1329,1107,0,0
112,-83,0,0,0,0,0,0,0,0,0,-1,1336,1107,0,0
119,-83,0,0,0,0,0,0,0,0,0,-1,1343,1107,0,0
126,-83,0,0,0,0,0,0,0,0,0,-1,1350,1107,0,0
133,-83,0,0,0,0,0,0,0,0,0,-1,1357,1107,0,0
140,-83,0,0,0,0,0,0,0,0,0,-1,1364,1107,0,0
147,-83,0,0,0,0,0,0,0,0,0,-1,1371,1107,0,0
154,-83,0,0,0,0,0,0,0,0,0,-1,1378,1107,0,0
161,-83,0,0,0,0,0,0,0,0,0,-1,1385,1107,0,0
168,-83,0,0,0,0,0,0,0,0,0,-1,1392,1107,0,0
175,-83,0,0,0,0,0,0,0,0,0,-1,1399,1107,0,0
182,-83,0,0,0,0,0,0,0,0,0,-1,1406,1107,0,0
189,-83,0,0,0,0,0,0,0,0,0,-1,1413,1107,0,0
196,-83,0,0,0,0,0,0,0,0,0,-1,1420,1107,0,0
203,-83,0,0,0,0,0,0,0,0,0,-1,1427,1107,0,0
210,-83,0,0,0,0,0,0,0,0,0,-1,1434,1107,0,0
217,-83,0,0,0,0,0,0,0,0,0,-1,1441,1107,0,0
224,-83,0,0,0,0,0,0,0,0,0,-1,1448,1107,0,0
231,-83,0,0,0,0,0,0,0,0,0,-1,1455,1107,0,0
238,-83,0,0,0,0,0,0,0,0,0,-1,1462,1107,0,0
245,-83,0,0,0,0,0,0,0,0,0,-1,1469,1107,0,0
252,-83,0,0,0,0,0,0,0,0,0,-1,1476,1107,0,0
259,-83,0,0,0,0,0,0,0,0,0,-1,1483,1107,0,0
266,-83,0,0,0,0,0,0,0,0,0,-1,1490,1107,0,0
273,-83,0,0,0,0,0,0,0,0,0,-1,1497,1107,0,0
280,-83,0,0,0,0,0,0,0,0,0,-1,1504,1107,0,0
287,-83,0,0,0,0,0,0,0,0,0,-1,1511,1107,0,0
294,-83,0,0,0,0,0,0,0,0,0,-1,1518,1107,0,0
301,-83,0,0,0,0,0,0,0,0,0,-1,1525,1107,0,0
308,-83,0,0,0,0,0,0,0,0,0,-1,1532,1107,0,0
315,-83,0,0,0,0,0,0,0,0,0,-1,1539,1107,0,0
322,-83,0,0,0,0,0,0,0,0,0,-1,1546,1107,0,0
329,-83,0,0,0,0,0,0,0,0,0,-1,1553,1107,0,0
336,-83,0,0,0,0,0,0,0,0,0,-1,1560,1107,0,0
343,-83,0,0,0,0,0,0,0,0,0,-1,1567,1107,0,0
350,-83,0,0,0,0,0,0,0,0,0,-1,1574,1107,0,0
357,-83,0,0,0,0,0,0,0,0,0,-1,1581,1107,0,0
364,-83,0,0,0,0,0,0,0,0,0,-1,1588,1107,0,0
371,-83,0,0,0,0,0,0,0,0,0,-1,1595,1107,0,0
378,-83,0,0,0,0,0,0,0,0,0,-1,1602,1107,0,0
385,-83,0,0,0,0,0,0,0,0,0,-1,1609,1107,0,0
392,-83,0,0,0,0,0,0,0,0,0,-1,1616,1107,0,0
399,-83,0,0,0,0,0,0,0,0,0,-1,1623,1107,0,0
406,-83,0,0,0,0,0,0,0,0,0,-1,1630,1107,0,0
413,-83,0,0,0,0,0,0,0,0,0,-1,1637,1107,0,0
420,-83,0,0,0,0,0,0,0,0,0,-1,1644,1107,0,0
427,-83,0,0,0,0,0,0,0,0,0,-1,1651,1107,0,0
434,-83,0,0,0,0,0,0,0,0,0,-1,1658,1107,0,0
441,-83,0,0,0,0,0,0,0,0,0,-1,1665,1107,0,0
448,-83,0,0,0,0,0,0,0,0,0,-1,1672,1107,0,0
455,-83,0,0,0,0,0,0,0,0,0,-1,1679,1107,0,0
462,-83,0,0,0,0,0,0,0,0,0,-1,1686,1107,0,0
469,-83,0,0,0,0,0,0,0,0,0,-1,1693,1107,0,0
476,-83,0,0,0,0,0,0,0,0,0,-1,1700,1107,0,0
483,-83,0,0,0,0,0,0,0,0,0,-1,1707,1107,0,0
490,-83,0,0,0,0,0,0,0,0,0,-1,1714,1107,0,0
497,-83,0,0,0,0,0,0,0,0,0,-1,1721,1107,0,0
504,-83,0,0,0,0,0,0,0,0,0,-1,1728,1107,0,0
511,-83,0,0,0,0,0,0,0,0,0,-1,1735,1107,0,0
518,-83,0,0,0,0,0,0,0,0,0,-1,1742,1107,0,0
525,-83,0,0,0,0,0,0,0,0,0,-1,1749,1107,0,0
532,-83,0,0,0,0,0,0,0,0,0,-1,1756,1107,0,0
539,-83,0,0,0,0,0,0,0,0,0,-1,1763,1107,0,0
546,-83,0,0,0,0,0,0,0,0,0,-1,1770,1107,0,0
553,-83,0,0,0,0,0,0,0,0,0,-1,1777,1107,0,0
560,-83,0,0,0,0,0,0,0,0,0,-1,1784,1107,0,0
567,-83,0,0,0,0,0,0,0,0,0,-1,1791,1107,0,0
574,-83,0,0,0,0,0,0,0,0,0,-1,1798,1107,0,0
581,-83,0,0,0,0,0,0,0,0,0,-1,1805,1107,0,0
588,-83,0,0,0,0,0,0,0,0,0,-1,1812,1107,0,0
595,-83,0,0,0,0,0,0,0,0,0,-1,1819,1107,0,0
602,-83,0,0,0,0,0,0,0,0,0,-1,1826,1107,0,0
609,-83,0,0,0,0,0,0,0,0,0,-1,1833,1107,0,0
616,-83,0,0,0,0,0,0,0,0,0,-1,1840,1107,0,0
623,-83,0,0,0,0,0,0,0,0,0,-1,1847,1107,0,0
630,-83,0,0,0,0,0,0,0,0,0,-1,1854,1107,0,0
637,-83,0,0,0,0,0,0,0,0,0,-1,1861,1107,0,0
644,-83,53.9978,2.57397,-0.00140658,-0.00380894,0.00140544,-0.000758948,-0.00445657,0.4318,0.00275316,0.0359671,1868,1107,53.9978,-2.57397
651,-83,53.9923,2.41223,-0.000642763,-0.00288582,0.00128233,-6.07092e-05,-0.00346788,0.426095,0.00229195,0.0408458,1875,1107,53.9923,-2.41223
658,-83,53.9305,2.50342,-3.02508e-05,-0.00227812,0.00101183,0.000358105,-0.00266647,0.366478,0.00190825,0.0448884,1882,1107,53.9306,-2.50339
665,-83,53.8893,2.5293,0.000388949,-0.00183556,0.00082415,0.000661012,-0.00210762,0.31885,0.00166962,0.0415427,1889,1107,53.8893,-2.52932
672,-83,53.9376,2.4845,0.000684173,-0.00148537,0.000676232,0.000877688,-0.00167889,0.278719,0.00150001,0.0373721,1896,1107,53.9376,-2.48444
679,-83,54.0319,2.59412,0.000727507,-0.00117797,0.00054724,0.000873487,-0.00132395,0.260687,0.00127754,0.0372527,1903,1107,54.0318,-2.59417
686,-83,54.067,2.79443,0.000715955,-0.00113584,0.000592396,0.000889248,-0.00130913,0.284588,0.00127693,0.0346279,1910,1107,54.0671,-2.79441
693,-83,54.0051,2.72327,0.000722099,-0.00113363,0.000677164,0.000942922,-0.00135445,0.315227,0.00133347,0.0347855,1917,1107,54.0051,-2.72324
700,-83,54.0128,2.6792,0.000701309,-0.0010535,0.000799749,0.0010111,-0.00136329,0.369565,0.00137588,0.0312471,1924,1107,54.0128,-2.67919
707,-83,54.0011,2.67822,0.000680065,-0.000821865,0.000943142,0.0011347,-0.0012765,0.449177,0.00139291,0.0241858,1931,1107,54.0011,-2.67821
714,-83,54.007,2.67249,0,0,0,0,0,0,0,-1,1938,1107,54.007,-2.67248
721,-83,49.1162,7.36719,0,0,0,0,0,0,0,-1,1945,1107,49.1162,-7.36721
728,-83,50.6169,7.21338,0,0,0,0,0,0,0,-1,1952,1107,50.617,-7.21341
735,-83,50.8329,6.90613,-0.00143224,0.000640809,0.00170916,0.00160319,-0.00239462,1.05797,0.00232316,0.0440332,1959,1107,50.8329,-6.90612
742,-83,51.0107,6.60144,-0.0018006,0.00151895,0.00188043,0.00236734,-0.00264899,1.14697,0.0028977,0.0265434,1966,1107,51.0107,-6.60139
749,-83,51.0919,6.24048,-0.00289786,0.00279525,0.00198492,0.00341896,-0.00352157,1.26634,0.00400727,0.0175602,1973,1107,51.0919,-6.24053
756,-83,51.1058,5.87512,-0.00483643,0.00371848,0.00196713,0.00414912,-0.00526708,1.35528,0.0054492,0.0170437,1980,1107,51.1058,-5.87512
763,-83,51.0565,5.53003,-0.00738825,0.00458108,0.00158713,0.00478796,-0.00759512,1.44118,0.00721035,0.013561,1987,1107,51.0565,-5.53003
770,-83,50.9839,5.22253,-0.0107977,0.00563748,0.000961589,0.00569355,-0.0108538,1.51255,0.00970724,0.0156342,1994,1107,50.9839,-5.22258
777,-83,50.8877,4.90601,-0.0150106,0.0062466,0.000166383,0.0062479,-0.0150119,1.56297,0.0126172,0.0176594,2001,1107,50.8878,-4.90596
784,-83,50.6917,4.63391,-0.0198817,0.00604611,-0.000688791,0.0060644,-0.0199,-1.54426,0.0156839,0.0281944,2008,1107,50.6917,-4.63393
791,-83,50.5457,4.19373,-0.0255894,0.00451023,-0.00156747,0.00459164,-0.0256708,-1.51891,0.0188319,0.0450772,2015,1107,50.5457,-4.19375
798,-83,50.3376,4.60791,-0.0322136,0.000895986,-0.00239163,0.00106785,-0.0323854,-1.49906,0.0219549,0.0478414,2022,1107,50.3377,-4.6079
805,-83,50.5364,4.51184,0,0,0,0,0,0,0,-1,2029,1107,50.5363,-4.51185
812,-83,50.8198,4.3916,0,0,0,0,0,0,0,-1,2036,1107,50.8198,-4.39159
-700,-90,0,0,0,0,0,0,0,0,0,-1,524,1114,0,0
-693,-90,-34.5695,-0.13916,0,0,0,0,0,0,0,-1,531,1114,-34.5695,0.139201
-686,-90,-34.9543,0.117554,0,0,0,0,0,0,0,-1,538,1114,-34.9543,-0.117561
-679,-90,-49.1021,7.49402,0,0,0,0,0,0,0,-1,545,1114,-49.1021,-7.49404
-672,-90,-35.5256,0.421509,0,0,0,0,0,0,0,-1,552,1114,-35.5256,-0.421494
-665,-90,-36.8593,0.95459,0,0,0,0,0,0,0,-1,559,1114,-36.8593,-0.954544
-658,-90,-37.2136,0.89856,0,0,0,0,0,0,0,-1,566,1114,-37.2136,-0.898538
-651,-90,-37.192,1.27087,-0.00215546,0.0289943,-0.00786339,0.0308668,-0.00402792,-1.33703,0.0220435,0.0329461,573,1114,-37.192,-1.27084
-644,-90,-37.2826,1.85693,-0.00169402,0.0196409,-0.00497695,0.0207448,-0.00279792,-1.35253,0.0148506,0.0153191,580,1114,-37.2826,-1.8569
-637,-90,-37.315,2.37695,-0.00129627,0.0121127,-0.00284459,0.0126912,-0.00187477,-1.37016,0.00914994,0.0131762,587,1114,-37.315,-2.37697
-630,-90,-37.3361,2.78931,-0.000497491,0.00573218,-0.00136435,0.00601788,-0.000783194,-1.36437,0.00429684,0.0128805,594,1114,-37.3361,-2.78931
-623,-90,-37.3571,3.18811,0.000245101,0.00170906,-0.00065036,0.00195624,-2.08372e-06,-1.20758,0.00130486,0.0112101,601,1114,-37.3571,-3.18811
-616,-90,-37.3877,3.62061,0.000603584,0.000251055,-0.000655299,0.00110591,-0.000251272,-0.654016,0.000833749,0.0137399,608,1114,-37.3877,-3.62062
-609,-90,-37.3755,3.9967,0.0012613,-0.000601626,-0.00102796,0.00171704,-0.00105736,-0.417303,0.00161683,0.0204242,615,1114,-37.3755,-3.99674
-602,-90,-37.4767,4.37048,0.00184456,-0.000793965,-0.00153217,0.00254717,-0.00149658,-0.429963,0.00236078,0.0214328,622,1114,-37.4767,-4.37051
-595,-90,-37.3214,4.85388,0.00194409,-0.000852807,-0.00167799,0.00272997,-0.00163869,-0.438007,0.00254834,0.0180334,629,1114,-37.3214,-4.8539
-588,-90,-37.2989,5.2113,0,0,0,0,0,0,0,-1,636,1114,-37.2989,-5.21135
-581,-90,-40.4446,0.793457,0,0,0,0,0,0,0,-1,643,1114,-40.4446,-0.793453
-574,-90,-40.4866,0.924927,0.00215951,-0.000921897,-0.00164125,0.00286991,-0.00163229,-0.408492,0.00263188,0.0375443,650,1114,-40.4866,-0.924957
-567,-90,-40.5255,1.06445,0.00210937,-0.000641656,-0.00166034,0.00288996,-0.00142225,-0.439473,0.00253727,0.0365962,657,1114,-40.5255,-1.06443
-560,-90,-40.481,0.966431,0.00190959,-0.000126628,-0.00161175,0.00279786,-0.0010149,-0.503704,0.00228012,0.0380546,664,1114,-40.4809,-0.966398
-553,-90,-40.3632,0.867798,0.00125986,0.000658359,-0.00152172,0.00251026,-0.000592043,-0.687836,0.00190182,0.0387355,671,1114,-40.3632,-0.867798
-546,-90,-40.352,1.01758,0.000592377,0.00171122,-0.00118972,0.00246648,-0.000162878,-1.00517,0.00170121,0.039475,678,1114,-40.352,-1.01754
-539,-90,-40.3814,1.07019,0.00103728,0.0026944,-0.000451668,0.00280951,0.000922167,-1.32125,0.00165367,0.0428404,685,1114,-40.3814,-1.07018
-532,-90,-40.3187,1.02234,0.00149184,0.00366882,0.000397976,0.00373929,0.00142137,1.39553,0.00217947,0.0448577,692,1114,-40.3187,-1.02233
-525,-90,0,0,0,0,0,0,0,0,0,-1,699,1114,0,0
-518,-90,0,0,0,0,0,0,0,0,0,-1,706,1114,0,0
-511,-90,0,0,0,0,0,0,0,0,0,-1,713,1114,0,0
-504,-90,0,0,0,0,0,0,0,0,0,-1,720,1114,0,0
-497,-90,0,0,0,0,0,0,0,0,0,-1,727,1114,0,0
-490,-90,0,0,0,0,0,0,0,0,0,-1,734,1114,0,0
-483,-90,0,0,0,0,0,0,0,0,0,-1,741,1114,0,0
-476,-90,0,0,0,0,0,0,0,0,0,-1,748,1114,0,0
-469,-90,0,0,0,0,0,0,0,0,0,-1,755,1114,0,0
-462,-90,0,0,0,0,0,0,0,0,0,-1,762,1114,0,0
-455,-90,0,0,0,0,0,0,0,0,0,-1,769,1114,0,0
-448,-90,0,0,0,0,0,0,0,0,0,-1,776,1114,0,0
-441,-90,0,0,0,0,0,0,0,0,0,-1,783,1114,0,0
-434,-90,0,0,0,0,0,0,0,0,0,-1,790,1114,0,0
-427,-90,0,0,0,0,0,0,0,0,0,-1,797,1114,0,0
-420,-90,0,0,0,0,0,0,0,0,0,-1,804,1114,0,0
-413,-90,0,0,0,0,0,0,0,0,0,-1,811,1114,0,0
-406,-90,0,0,0,0,0,0,0,0,0,-1,818,1114,0,0
-399,-90,0,0,0,0,0,0,0,0,0,-1,825,1114,0,0
-392,-90,0,0,0,0,0,0,0,0,0,-1,832,1114,0,0
-385,-90,0,0,0,0,0,0,0,0,0,-1,839,1114,0,0
-378,-90,0,0,0,0,0,0,0,0,0,-1,846,1114,0,0
-371,-90,0,0,0,0,0,0,0,0,0,-1,853,1114,0,0
-364,-90,0,0,0,0,0,0,0,0,0,-1,860,1114,0,0
-357,-90,0,0,0,0,0,0,0,0,0,-1,867,1114,0,0
-350,-90,0,0,0,0,0,0,0,0,0,-1,874,1114,0,0
-343,-90,0,0,0,0,0,0,0,0,0,-1,881,1114,0,0
-336,-90,0,0,0,0,0,0,0,0,0,-1,888,1114,0,0
-329,-90,0,0,0,0,0,0,0,0,0,-1,895,1114,0,0
-322,-90,0,0,0,0,0,0,0,0,0,-1,902,1114,0,0
-315,-90,0,0,0,0,0,0,0,0,0,-1,909,1114,0,0
-308,-90,0,0,0,0,0,0,0,0,0,-1,916,1114,0,0
-301,-90,0,0,0,0,0,0,0,0,0,-1,923,1114,0,0
-294,-90,0,0,0,0,0,0,0,0,0,-1,930,1114,0,0
-287,-90,0,0,0,0,0,0,0,0,0,-1,937,1114,0,0
-280,-90,0,0,0,0,0,0,0,0,0,-1,944,1114,0,0
-273,-90,0,0,0,0,0,0,0,0,0,-1,951,1114,0,0
-266,-90,0,0,0,0,0,0,0,0,0,-1,958,1114,0,0
-259,-90,0,0,0,0,0,0,0,0,0,-1,965,1114,0,0
-252,-90,0,0,0,0,0,0,0,0,0,-1,972,1114,0,0
-245,-90,0,0,0,0,0,0,0,0,0,-1,979,1114,0,0
-238,-90,0,0,0,0,0,0,0,0,0,-1,986,1114,0,0
-231,-90,0,0,0,0,0,0,0,0,0,-1,993,1114,0,0
-224,-90,0,0,0,0,0,0,0,0,0,-1,1000,1114,0,0
-217,-90,0,0,0,0,0,0,0,0,0,-1,1007,1114,0,0
-210,-90,0,0,0,0,0,0,0,0,0,-1,1014,1114,0,0
-203,-90,0,0,0,0,0,0,0,0,0,-1,1021,1114,0,0
-196,-90,0,0,0,0,0,0,0,0,0,-1,1028,1114,0,0
-189,-90,0,0,0,0,0,0,0,0,0,-1,1035,1114,0,0
-182,-90,0,0,0,0,0,0,0,0,0,-1,1042,1114,0,0
-175,-90,0,0,0,0,0,0,0,0,0,-1,1049,1114,0,0
-168,-90,0,0,0,0,0,0,0,0,0,-1,1056,1114,0,0
-161,-90,0,0,0,0,0,0,0,0,0,-1,1063,1114,0,0
-154,-90,0,0,0,0,0,0,0,0,0,-1,1070,1114,0,0
-147,-90,0,0,0,0,0,0,0,0,0,-1,1077,1114,0,0
-140,-90,0,0,0,0,0,0,0,0,0,-1,1084,1114,0,0
-133,-90,0,0,0,0,0,0,0,0,0,-1,1091,1114,0,0
-126,-90,0,0,0,0,0,0,0,0,0,-1,1098,1114,0,0
-119,-90,0,0,0,0,0,0,0,0,0,-1,1105,1114,0,0
-112,-90,0,0,0,0,0,0,0,0,0,-1,1112,1114,0,0
-105,-90,0,0,0,0,0,0,0,0,0,-1,1119,1114,0,0
-98,-90,0,0,0,0,0,0,0,0,0,-1,1126,1114,0,0
-91,-90,0,0,0,0,0,0,0,0,0,-1,1133,1114,0,0
-84,-90,0,0,0,0,0,0,0,0,0,-1,1140,1114,0,0
-77,-90,0,0,0,0,0,0,0,0,0,-1,1147,1114,0,0
-70,-90,0,0,0,0,0,0,0,0,0,-1,1154,1114,0,0
-63,-90,0,0,0,0,0,0,0,0,0,-1,1161,1114,0,0
-56,-90,0,0,0,0,0,0,0,0,0,-1,1168,1114,0,0
-49,-90,0,0,0,0,0,0,0,0,0,-1,1175,1114,0,0
-42,-90,0,0,0,0,0,0,0,0,0,-1,1182,1114,0,0
-35,-90,0,0,0,0,0,0,0,0,0,-1,1189,1114,0,0
-28,-90,0,0,0,0,0,0,0,0,0,-1,1196,1114,0,0
-21,-90,0,0,0,0,0,0,0,0,0,-1,1203,1114,0,0
-14,-90,0,0,0,0,0,0,0,0,0,-1,1210,1114,0,0
-7,-90,0,0,0,0,0,0,0,0,0,-1,1217,1114,0,0
0,-90,0,0,0,0,0,0,0,0,0,-1,1224,1114,0,0
7,-90,0,0,0,0,0,0,0,0,0,-1,1231,1114,0,0
14,-90,0,0,0,0,0,0,0,0,0,-1,1238,1114,0,0
21,-90,0,0,0,0,0,0,0,0,0,-1,1245,1114,0,0
28,-90,0,0,0,0,0,0,0,0,0,-1,1252,1114,0,0
35,-90,0,0,0,0,0,0,0,0,0,-1,1259,1114,0,0
42,-90,0,0,0,0,0,0,0,0,0,-1,1266,1114,0,0
49,-90,0,0,0,0,0,0,0,0,0,-1,1273,1114,0,0
56,-90,0,0,0,0,0,0,0,0,0,-1,1280,1114,0,0
63,-90,0,0,0,0,0,0,0,0,0,-1,1287,1114,0,0
70,-90,0,0,0,0,0,0,0,0,0,-1,1294,1114,0,0
77,-90,0,0,0,0,0,0,0,0,0,-1,1301,1114,0,0
84,-90,0,0,0,0,0,0,0,0,0,-1,1308,1114,0,0
91,-90,0,0,0,0,0,0,0,0,0,-1,1315,1114,0,0
98,-90,0,0,0,0,0,0,0,0,0,-1,1322,1114,0,0
105,-90,0,0,0,0,0,0,0,0,0,-1,1329,1114,0,0
112,-90,0,0,0,0,0,0,0,0,0,-1,1336,1114,0,0
119,-90,0,0,0,0,0,0,0,0,0,-1,1343,1114,0,0
126,-90,0,0,0,0,0,0,0,0,0,-1,1350,1114,0,0
133,-90,0,0,0,0,0,0,0,0,0,-1,1357,1114,0,0
140,-90,0,0,0,0,0,0,0,0,0,-1,1364,1114,0,0
147,-90,0,0,0,0,0,0,0,0,0,-1,1371,1114,0,0
154,-90,0,0,0,0,0,0,0,0,0,-1,1378,1114,0,0
161,-90,0,0,0,0,0,0,0,0,0,-1,1385,1114,0,0
168,-90,0,0,0,0,0,0,0,0,0,-1,1392,1114,0,0
175,-90,0,0,0,0,0,0,0,0,0,-1,1399,1114,0,0
182,-90,0,0,0,0,0,0,0,0,0,-1,1406,1114,0,0
189,-90,0,0,0,0,0,0,0,0,0,-1,1413,1114,0,0
196,-90,0,0,0,0,0,0,0,0,0,-1,1420,1114,0,0
203,-90,0,0,0,0,0,0,0,0,0,-1,1427,1114,0,0
210,-90,0,0,0,0,0,0,0,0,0,-1,1434,1114,0,0
217,-90,0,0,0,0,0,0,0,0,0,-1,1441,1114,0,0
224,-90,0,0,0,0,0,0,0,0,0,-1,1448,1114,0,0
231,-90,0,0,0,0,0,0,0,0,0,-1,1455,1114,0,0
238,-90,0,0,0,0,0,0,0,0,0,-1,1462,1114,0,0
245,-90,0,0,0,0,0,0,0,0,0,-1,1469,1114,0,0
252,-90,0,0,0,0,0,0,0,0,0,-1,1476,1114,0,0
259,-90,0,0,0,0,0,0,0,0,0,-1,1483,1114,0,0
266,-90,0,0,0,0,0,0,0,0,0,-1,1490,1114,0,0
273,-90,0,0,0,0,0,0,0,0,0,-1,1497,1114,0,0
280,-90,0,0,0,0,0,0,0,0,0,-1,1504,1114,0,0
287,-90,0,0,0,0,0,0,0,0,0,-1,1511,1114,0,0
294,-90,0,0,0,0,0,0,0,0,0,-1,1518,1114,0,0
301,-90,0,0,0,0,0,0,0,0,0,-1,1525,1114,0,0
308,-90,0,0,0,0,0,0,0,0,0,-1,1532,1114,0,0
315,-90,0,0,0,0,0,0,0,0,0,-1,1539,1114,0,0
322,-90,0,0,0,0,0,0,0,0,0,-1,1546,1114,0,0
329,-90,0,0,0,0,0,0,0,0,0,-1,1553,1114,0,0
336,-90,0,0,0,0,0,0,0,0,0,-1,1560,1114,0,0
343,-90,0,0,0,0,0,0,0,0,0,-1,1567,1114,0,0
350,-90,0,0,0,0,0,0,0,0,0,-1,1574,1114,0,0
357,-90,0,0,0,0,0,0,0,0,0,-1,1581,1114,0,0
364,-90,0,0,0,0,0,0,0,0,0,-1,1588,1114,0,0
371,-90,0,0,0,0,0,0,0,0,0,-1,1595,1114,0,0
378,-90,0,0,0,0,0,0,0,0,0,-1,1602,1114,0,0
385,-90,0,0,0,0,0,0,0,0,0,-1,1609,1114,0,0
392,-90,0,0,0,0,0,0,0,0,0,-1,1616,1114,0,0
399,-90,0,0,0,0,0,0,0,0,0,-1,1623,1114,0,0
406,-90,0,0,0,0,0,0,0,0,0,-1,1630,1114,0,0
413,-90,0,0,0,0,0,0,0,0,0,-1,1637,1114,0,0
420,-90,0,0,0,0,0,0,0,0,0,-1,1644,1114,0,0
427,-90,0,0,0,0,0,0,0,0,0,-1,1651,1114,0,0
434,-90,0,0,0,0,0,0,0,0,0,-1,1658,1114,0,0
441,-90,0,0,0,0,0,0,0,0,0,-1,1665,1114,0,0
448,-90,0,0,0,0,0,0,0,0,0,-1,1672,1114,0,0
455,-90,0,0,0,0,0,0,0,0,0,-1,1679,1114,0,0
462,-90,0,0,0,0,0,0,0,0,0,-1,1686,1114,0,0
469,-90,0,0,0,0,0,0,0,0,0,-1,1693,1114,0,0
476,-90,0,0,0,0,0,0,0,0,0,-1,1700,1114,0,0
483,-90,0,0,0,0,0,0,0,0,0,-1,1707,1114,0,0
490,-90,0,0,0,0,0,0,0,0,0,-1,1714,1114,0,0
497,-90,0,0,0,0,0,0,0,0,0,-1,1721,1114,0,0
504,-90,0,0,0,0,0,0,0,0,0,-1,1728,1114,0,0
511,-90,0,0,0,0,0,0,0,0,0,-1,1735,1114,0,0
518,-90,0,0,0,0,0,0,0,0,0,-1,1742,1114,0,0
525,-90,0,0,0,0,0,0,0,0,0,-1,1749,1114,0,0
532,-90,0,0,0,0,0,0,0,0,0,-1,1756,1114,0,0
539,-90,0,0,0,0,0,0,0,0,0,-1,1763,1114,0,0
546,-90,0,0,0,0,0,0,0,0,0,-1,1770,1114,0,0
553,-90,0,0,0,0,0,0,0,0,0,-1,1777,1114,0,0
560,-90,0,0,0,0,0,0,0,0,0,-1,1784,1114,0,0
567,-90,0,0,0,0,0,0,0,0,0,-1,1791,1114,0,0
574,-90,0,0,0,0,0,0,0,0,0,-1,1798,1114,0,0
581,-90,0,0,0,0,0,0,0,0,0,-1,1805,1114,0,0
588,-90,0,0,0,0,0,0,0,0,0,-1,1812,1114,0,0
595,-90,0,0,0,0,0,0,0,0,0,-1,1819,1114,0,0
602,-90,0,0,0,0,0,0,0,0,0,-1,1826,1114,0,0
609,-90,0,0,0,0,0,0,0,0,0,-1,1833,1114,0,0
616,-90,0,0,0,0,0,0,0,0,0,-1,1840,1114,0,0
623,-90,0,0,0,0,0,0,0,0,0,-1,1847,1114,0,0
630,-90,0,0,0,0,0,0,0,0,0,-1,1854,1114,0,0
637,-90,0,0,0,0,0,0,0,0,0,-1,1861,1114,0,0
644,-90,54.0477,2.55444,0.000169088,-0.00484894,0.000163546,0.000174413,-0.00485426,0.0325456,0.00329585,0.0360804,1868,1114,54.0477,-2.55446
651,-90,54.0225,2.56531,0.000264903,-0.00379084,0.000355129,0.000295764,-0.0038217,0.086683,0.00265189,0.0385447,1875,1114,54.0225,-2.56535
658,-90,53.8912,2.60645,0.000521005,-0.00303514,0.000306629,0.00054725,-0.00306139,0.0853854,0.00224568,0.0431214,1882,1114,53.8913,-2.60643
665,-90,53.8906,2.56714,0.000709633,-0.00244071,0.000278853,0.000734126,-0.0024652,0.0876075,0.00193516,0.0425412,1889,1114,53.8906,-2.56715
672,-90,53.9513,2.5603,0.000835106,-0.00193898,0.000232975,0.000854536,-0.00195841,0.0832058,0.00166522,0.0407671,1896,1114,53.9512,-2.56035
679,-90,53.9832,2.7915,0.000743813,-0.00151829,0.000177594,0.000757671,-0.00153215,0.0778727,0.001347,0.0380514,1903,1114,53.9831,-2.79152
686,-90,54.0441,2.88184,0.000690962,-0.00138528,0.000240908,0.000718549,-0.00141286,0.114013,0.00125215,0.0333521,1910,1114,54.0441,-2.88179
693,-90,53.9736,2.67798,0.000692371,-0.00131159,0.000322009,0.000742842,-0.00136206,0.155474,0.00123267,0.0337406,1917,1114,53.9736,-2.678
700,-90,54.0046,2.67822,0.000662802,-0.00119359,0.000437051,0.00076055,-0.00129134,0.220033,0.0011978,0.0315466,1924,1114,54.0046,-2.67828
707,-90,54.0048,2.6344,0.00062289,-0.000917587,0.000593197,0.000824839,-0.00111954,0.328135,0.00112688,0.0240938,1931,1114,54.0048,-2.63437
714,-90,54.0087,2.5708,0,0,0,0,0,0,0,-1,1938,1114,54.0086,-2.57082
721,-90,50.7078,7.72083,0,0,0,0,0,0,0,-1,1945,1114,50.7078,-7.72083
728,-90,50.694,7.41785,-0.000705364,-4.27626e-05,0.00137523,0.00104051,-0.00178863,0.903599,0.00165233,0.0350849,1952,1114,50.6939,-7.41786
735,-90,50.4242,7.00134,-0.00135562,0.000489776,0.00133382,0.00118895,-0.00205479,1.08799,0.00189488,0.0365536,1959,1114,50.4243,-7.00138
742,-90,50.5482,6.60071,-0.00171049,0.00127848,0.00152499,0.00191919,-0.00235121,1.17305,0.00246972,0.0316951,1966,1114,50.5482,-6.60068
749,-90,50.8319,6.12,-0.00291697,0.00251659,0.00167531,0.00299161,-0.00339198,1.29451,0.00368798,0.0197494,1973,1114,50.8318,-6.11996
756,-90,50.7979,5.80798,-0.00511637,0.00350159,0.00163743,0.00380222,-0.005417,1.38922,0.00534986,0.0171402,1980,1114,50.7978,-5.80802
763,-90,50.72,5.47913,-0.00812392,0.00450852,0.0011247,0.00460787,-0.00822328,1.48269,0.00750545,0.0129064,1987,1114,50.7199,-5.47907
770,-90,50.6453,5.12158,-0.0121614,0.00576249,0.000312707,0.00576794,-0.0121669,1.55336,0.0105721,0.0160838,1994,1114,50.6452,-5.12158
777,-90,50.5581,4.83264,-0.0171776,0.00670046,-0.000767709,0.00672511,-0.0172023,-1.53869,0.0142491,0.0167968,2001,1114,50.5582,-4.83269
784,-90,50.3977,4.61279,-0.0230788,0.00703197,-0.00203842,0.00716934,-0.0232162,-1.50351,0.0183404,0.0308196,2008,1114,50.3977,-4.61282
791,-90,50.4622,4.47217,-0.0301473,0.00636062,-0.00351921,0.00669676,-0.0304835,-1.47557,0.0228836,0.0431423,2015,1114,50.4621,-4.47219
798,-90,50.1816,4.90735,-0.0385225,0.00412038,-0.00520359,0.00474618,-0.0391483,-1.45111,0.0278162,0.0463215,2022,1114,50.1816,-4.90738
805,-90,51.3438,2.7522,0,0,0,0,0,0,0,-1,2029,1114,51.3438,-2.75223
812,-90,50.5134,4.54663,0,0,0,0,0,0,0,-1,2036,1114,50.5133,-4.54665
-700,-97,0,0,0,0,0,0,0,0,0,-1,524,1121,0,0
-693,-97,-46.3615,5.13159,0,0,0,0,0,0,0,-1,531,1121,-46.3615,-5.13165
-686,-97,-46.5966,5.78198,0,0,0,0,0,0,0,-1,538,1121,-46.5966,-5.78197
-679,-97,-46.8466,6.33105,0,0,0,0,0,0,0,-1,545,1121,-46.8467,-6.331
-672,-97,-47.2918,6.89795,0,0,0,0,0,0,0,-1,552,1121,-47.2918,-6.898
-665,-97,-35.5858,0.27478,0,0,0,0,0,0,0,-1,559,1121,-35.5858,-0.274789
-658,-97,-36.7245,1.16382,0,0,0,0,0,0,0,-1,566,1121,-36.7246,-1.1638
-651,-97,-36.7892,1.43518,-0.00589376,0.0344769,-0.0160604,0.0400866,-0.0115035,-1.23476,0.0312723,0.0320149,573,1121,-36.7892,-1.43515
-644,-97,-36.8527,1.88135,-0.00454076,0.0234188,-0.0109889,0.0272208,-0.00834272,-1.23771,0.0214752,0.0116412,580,1121,-36.8527,-1.88132
-637,-97,-36.8769,2.34912,-0.00329697,0.0144803,-0.0068131,0.0167911,-0.00560771,-1.24381,0.0134585,0.0123807,587,1121,-36.8769,-2.34909
-630,-97,-36.8951,2.76147,-0.00174332,0.00694715,-0.00356631,0.00822327,-0.00301944,-1.22717,0.00671876,0.0109039,594,1121,-36.8951,-2.76149
-623,-97,-36.9217,3.1687,-0.000401882,0.00216976,-0.00163367,0.00296293,-0.00119505,-1.1188,0.00247189,0.0125035,601,1121,-36.9217,-3.16875
-616,-97,-36.9691,3.61926,0.000356239,0.000368405,-0.000926088,0.00128843,-0.000563786,-0.788682,0.00109632,0.0201574,608,1121,-36.969,-3.61923
-609,-97,-37.0598,4.0675,0.00122835,-0.000587066,-0.000964522,0.00164512,-0.00100383,-0.407868,0.00154424,0.0279361,615,1121,-37.0598,-4.06756
-602,-97,-37.1116,4.4115,0.00189792,-0.000772716,-0.00135259,0.00246327,-0.00133808,-0.395912,0.00222653,0.0263348,622,1121,-37.1116,-4.41152
-595,-97,-36.9547,4.86108,0.00193957,-0.000774847,-0.00142211,0.00254818,-0.00138345,-0.404373,0.00230289,0.0202934,629,1121,-36.9546,-4.86114
-588,-97,-36.9772,5.29028,0,0,0,0,0,0,0,-1,636,1121,-36.9772,-5.29023
-581,-97,-39.2466,2.57678,0,0,0,0,0,0,0,-1,643,1121,-39.2466,-2.5768
-574,-97,-40.5173,1.03638,0,0,0,0,0,0,0,-1,650,1121,-40.5173,-1.03643
-567,-97,-40.4455,1.01331,0.00196325,-0.000767677,-0.00140502,0.00255701,-0.00136144,-0.399837,0.00229715,0.0364069,657,1121,-40.4455,-1.0133
-560,-97,-40.3419,0.85498,0.00175996,-0.000332124,-0.00137742,0.00244351,-0.00101567,-0.460646,0.00205309,0.0400048,664,1121,-40.3419,-0.854925
-553,-97,-40.369,0.715698,0.000973825,0.000399642,-0.00135578,0.00207258,-0.000699112,-0.681063,0.00166444,0.0429169,671,1121,-40.3689,-0.715652
-546,-97,-40.3926,0.635132,4.72643e-05,0.00144942,-0.00108975,0.00204413,-0.000547442,-1.07124,0.00157723,0.0407918,678,1121,-40.3926,-0.635114
-539,-97,-40.3558,0.7052,0.000149764,0.00252139,-0.000272668,0.00255234,0.000118819,-1.45779,0.00166337,0.0413573,685,1121,-40.3558,-0.705172
-532,-97,-40.4051,0.82312,0.000402872,0.00360077,0.000643379,0.00372535,0.000278285,1.37952,0.0023962,0.0407086,692,1121,-40.4051,-0.823152
-525,-97,0,0,0,0,0,0,0,0,0,-1,699,1121,0,0
-518,-97,0,0,0,0,0,0,0,0,0,-1,706,1121,0,0
-511,-97,0,0,0,0,0,0,0,0,0,-1,713,1121,0,0
-504,-97,0,0,0,0,0,0,0,0,0,-1,720,1121,0,0
-497,-97,0,0,0,0,0,0,0,0,0,-1,727,1121,0,0
-490,-97,0,0,0,0,0,0,0,0,0,-1,734,1121,0,0
-483,-97,0,0,0,0,0,0,0,0,0,-1,741,1121,0,0
-476,-97,0,0,0,0,0,0,0,0,0,-1,748,1121,0,0
-469,-97,0,0,0,0,0,0,0,0,0,-1,755,1121,0,0
-462,-97,0,0,0,0,0,0,0,0,0,-1,762,1121,0,0
-455,-97,0,0,0,0,0,0,0,0,0,-1,769,1121,0,0
-448,-97,0,0,0,0,0,0,0,0,0,-1,776,1121,0,0
-441,-97,0,0,0,0,0,0,0,0,0,-1,783,1121,0,0
-434,-97,0,0,0,0,0,0,0,0,0,-1,790,1121,0,0
-427,-97,0,0,0,0,0,0,0,0,0,-1,797,1121,0,0
-420,-97,0,0,0,0,0,0,0,0,0,-1,804,1121,0,0
-413,-97,0,0,0,0,0,0,0,0,0,-1,811,1121,0,0
-406,-97,0,0,0,0,0,0,0,0,0,-1,818,1121,0,0
-399,-97,0,0,0,0,0,0,0,0,0,-1,825,1121,0,0
-392,-97,0,0,0,0,0,0,0,0,0,-1,832,1121,0,0
-385,-97,0,0,0,0,0,0,0,0,0,-1,839,1121,0,0
-378,-97,0,0,0,0,0,0,0,0,0,-1,846,1121,0,0
-371,-97,0,0,0,0,0,0,0,0,0,-1,853,1121,0,0
-364,-97,0,0,0,0,0,0,0,0,0,-1,860,1121,0,0
-357,-97,0,0,0,0,0,0,0,0,0,-1,867,1121,0,0
-350,-97,0,0,0,0,0,0,0,0,0,-1,874,1121,0,0
-343,-97,0,0,0,0,0,0,0,0,0,-1,881,1121,0,0
-336,-97,0,0,0,0,0,0,0,0,0,-1,888,1121,0,0
-329,-97,0,0,0,0,0,0,0,0,0,-1,895,1121,0,0
-322,-97,0,0,0,0,0,0,0,0,0,-1,902,1121,0,0
-315,-97,0,0,0,0,0,0,0,0,0,-1,909,1121,0,0
-308,-97,0,0,0,0,0,0,0,0,0,-1,916,1121,0,0
-301,-97,0,0,0,0,0,0,0,0,0,-1,923,1121,0,0
-294,-97,0,0,0,0,0,0,0,0,0,-1,930,1121,0,0
-287,-97,0,0,0,0,0,0,0,0,0,-1,937,1121,0,0
-280,-97,0,0,0,0,0,0,0,0,0,-1,944,1121,0,0
-273,-97,0,0,0,0,0,0,0,0,0,-1,951,1121,0,0
-266,-97,0,0,0,0,0,0,0,0,0,-1,958,1121,0,0
-259,-97,0,0,0,0,0,0,0,0,0,-1,965,1121,0,0
-252,-97,0,0,0,0,0,0,0,0,0,-1,972,1121,0,0
-245,-97,0,0,0,0,0,0,0,0,0,-1,979,1121,0,0
-238,-97,0,0,0,0,0,0,0,0,0,-1,986,1121,0,0
-231,-97,0,0,0,0,0,0,0,0,0,-1,993,1121,0,0
-224,-97,0,0,0,0,0,0,0,0,0,-1,1000,1121,0,0
-217,-97,0,0,0,0,0,0,0,0,0,-1,1007,1121,0,0
-210,-97,0,0,0,0,0,0,0,0,0,-1,1014,1121,0,0
-203,-97,0,0,0,0,0,0,0,0,0,-1,1021,1121,0,0
-196,-97,0,0,0,0,0,0,0,0,0,-1,1028,1121,0,0
-189,-97,0,0,0,0,0,0,0,0,0,-1,1035,1121,0,0
-182,-97,0,0,0,0,0,0,0,0,0,-1,1042,1121,0,0
-175,-97,0,0,0,0,0,0,0,0,0,-1,1049,1121,0,0
-168,-97,0,0,0,0,0,0,0,0,0,-1,1056,1121,0,0
-161,-97,0,0,0,0,0,0,0,0,0,-1,1063,1121,0,0
-154,-97,0,0,0,0,0,0,0,0,0,-1,1070,1121,0,0
-147,-97,0,0,0,0,0,0,0,0,0,-1,1077,1121,0,0
-140,-97,0,0,0,0,0,0,0,0,0,-1,1084,1121,0,0
-133,-97,0,0,0,0,0,0,0,0,0,-1,1091,1121,0,0
-126,-97,0,0,0,0,0,0,0,0,0,-1,1098,1121,0,0
-119,-97,0,0,0,0,0,0,0,0,0,-1,1105,1121,0,0
-112,-97,0,0,0,0,0,0,0,0,0,-1,1112,1121,0,0
-105,-97,0,0,0,0,0,0,0,0,0,-1,1119,1121,0,0
-98,-97,0,0,0,0,0,0,0,0,0,-1,1126,1121,0,0
-91,-97,0,0,0,0,0,0,0,0,0,-1,1133,1121,0,0
-84,-97,0,0,0,0,0,0,0,0,0,-1,1140,1121,0,0
-77,-97,0,0,0,0,0,0,0,0,0,-1,1147,1121,0,0
-70,-97,0,0,0,0,0,0,0,0,0,-1,1154,1121,0,0
-63,-97,0,0,0,0,0,0,0,0,0,-1,1161,1121,0,0
-56,-97,0,0,0,0,0,0,0,0,0,-1,1168,1121,0,0
-49,-97,0,0,0,0,0,0,0,0,0,-1,1175,1121,0,0
-42,-97,0,0,0,0,0,0,0,0,0,-1,1182,1121,0,0
-35,-97,0,0,0,0,0,0,0,0,0,-1,1189,1121,0,0
-28,-97,0,0,0,0,0,0,0,0,0,-1,1196,1121,0,0
-21,-97,0,0,0,0,0,0,0,0,0,-1,1203,1121,0,0
-14,-97,0,0,0,0,0,0,0,0,0,-1,1210,1121,0,0
-7,-97,0,0,0,0,0,0,0,0,0,-1,1217,1121,0,0
0,-97,0,0,0,0,0,0,0,0,0,-1,1224,1121,0,0
7,-97,0,0,0,0,0,0,0,0,0,-1,1231,1121,0,0
14,-97,0,0,0,0,0,0,0,0,0,-1,1238,1121,0,0
21,-97,0,0,0,0,0,0,0,0,0,-1,1245,1121,0,0
28,-97,0,0,0,0,0,0,0,0,0,-1,1252,1121,0,0
35,-97,0,0,0,0,0,0,0,0,0,-1,1259,1121,0,0
42,-97,0,0,0,0,0,0,0,0,0,-1,1266,1121,0,0
49,-97,0,0,0,0,0,0,0,0,0,-1,1273,1121,0,0
56,-97,0,0,0,0,0,0,0,0,0,-1,1280,1121,0,0
63,-97,0,0,0,0,0,0,0,0,0,-1,1287,1121,0,0
70,-97,0,0,0,0,0,0,0,0,0,-1,1294,1121,0,0
77,-97,0,0,0,0,0,0,0,0,0,-1,1301,1121,0,0
84,-97,0,0,0,0,0,0,0,0,0,-1,1308,1121,0,0
91,-97,0,0,0,0,0,0,0,0,0,-1,1315,1121,0,0
98,-97,0,0,0,0,0,0,0,0,0,-1,1322,1121,0,0
105,-97,0,0,0,0,0,0,0,0,0,-1,1329,1121,0,0
112,-97,0,0,0,0,0,0,0,0,0,-1,1336,1121,0,0
119,-97,0,0,0,0,0,0,0,0,0,-1,1343,1121,0,0
126,-97,0,0,0,0,0,0,0,0,0,-1,1350,1121,0,0
133,-97,0,0,0,0,0,0,0,0,0,-1,1357,1121,0,0
140,-97,0,0,0,0,0,0,0,0,0,-1,1364,1121,0,0
147,-97,0,0,0,0,0,0,0,0,0,-1,1371,1121,0,0
154,-97,0,0,0,0,0,0,0,0,0,-1,1378,1121,0,0
161,-97,0,0,0,0,0,0,0,0,0,-1,1385,1121,0,0
168,-97,0,0,0,0,0,0,0,0,0,-1,1392,1121,0,0
175,-97,0,0,0,0,0,0,0,0,0,-1,1399,1121,0,0
182,-97,0,0,0,0,0,0,0,0,0,-1,1406,1121,0,0
189,-97,0,0,0,0,0,0,0,0,0,-1,1413,1121,0,0
196,-97,0,0,0,0,0,0,0,0,0,-1,1420,1121,0,0
203,-97,0,0,0,0,0,0,0,0,0,-1,1427,1121,0,0
210,-97,0,0,0,0,0,0,0,0,0,-1,1434,1121,0,0
217,-97,0,0,0,0,0,0,0,0,0,-1,1441,1121,0,0
224,-97,0,0,0,0,0,0,0,0,0,-1,1448,1121,0,0
231,-97,0,0,0,0,0,0,0,0,0,-1,1455,1121,0,0
238,-97,0,0,0,0,0,0,0,0,0,-1,1462,1121,0,0
245,-97,0,0,0,0,0,0,0,0,0,-1,1469,1121,0,0
252,-97,0,0,0,0,0,0,0,0,0,-1,1476,1121,0,0
259,-97,0,0,0,0,0,0,0,0,0,-1,1483,1121,0,0
266,-97,0,0,0,0,0,0,0,0,0,-1,1490,1121,0,0
273,-97,0,0,0,0,0,0,0,0,0,-1,1497,1121,0,0
280,-97,0,0,0,0,0,0,0,0,0,-1,1504,1121,0,0
287,-97,0,0,0,0,0,0,0,0,0,-1,1511,1121,0,0
294,-97,0,0,0,0,0,0,0,0,0,-1,1518,1121,0,0
301,-97,0,0,0,0,0,0,0,0,0,-1,1525,1121,0,0
308,-97,0,0,0,0,0,0,0,0,0,-1,1532,1121,0,0
315,-97,0,0,0,0,0,0,0,0,0,-1,1539,1121,0,0
322,-97,0,0,0,0,0,0,0,0,0,-1,1546,1121,0,0
329,-97,0,0,0,0,0,0,0,0,0,-1,1553,1121,0,0
336,-97,0,0,0,0,0,0,0,0,0,-1,1560,1121,0,0
343,-97,0,0,0,0,0,0,0,0,0,-1,1567,1121,0,0
350,-97,0,0,0,0,0,0,0,0,0,-1,1574,1121,0,0
357,-97,0,0,0,0,0,0,0,0,0,-1,1581,1121,0,0
364,-97,0,0,0,0,0,0,0,0,0,-1,1588,1121,0,0
371,-97,0,0,0,0,0,0,0,0,0,-1,1595,1121,0,0
378,-97,0,0,0,0,0,0,0,0,0,-1,1602,1121,0,0
385,-97,0,0,0,0,0,0,0,0,0,-1,1609,1121,0,0
392,-97,0,0,0,0,0,0,0,0,0,-1,1616,1121,0,0
399,-97,0,0,0,0,0,0,0,0,0,-1,1623,1121,0,0
406,-97,0,0,0,0,0,0,0,0,0,-1,1630,1121,0,0
413,-97,0,0,0,0,0,0,0,0,0,-1,1637,1121,0,0
420,-97,0,0,0,0,0,0,0,0,0,-1,1644,1121,0,0
427,-97,0,0,0,0,0,0,0,0,0,-1,1651,1121,0,0
434,-97,0,0,0,0,0,0,0,0,0,-1,1658,1121,0,0
441,-97,0,0,0,0,0,0,0,0,0,-1,1665,1121,0,0
448,-97,0,0,0,0,0,0,0,0,0,-1,1672,1121,0,0
455,-97,0,0,0,0,0,0,0,0,0,-1,1679,1121,0,0
462,-97,0,0,0,0,0,0,0,0,0,-1,1686,1121,0,0
469,-97,0,0,0,0,0,0,0,0,0,-1,1693,1121,0,0
476,-97,0,0,0,0,0,0,0,0,0,-1,1700,1121,0,0
483,-97,0,0,0,0,0,0,0,0,0,-1,1707,1121,0,0
490,-97,0,0,0,0,0,0,0,0,0,-1,1714,1121,0,0
497,-97,0,0,0,0,0,0,0,0,0,-1,1721,1121,0,0
504,-97,0,0,0,0,0,0,0,0,0,-1,1728,1121,0,0
511,-97,0,0,0,0,0,0,0,0,0,-1,1735,1121,0,0
518,-97,0,0,0,0,0,0,0,0,0,-1,1742,1121,0,0
525,-97,0,0,0,0,0,0,0,0,0,-1,1749,1121,0,0
532,-97,0,0,0,0,0,0,0,0,0,-1,1756,1121,0,0
539,-97,0,0,0,0,0,0,0,0,0,-1,1763,1121,0,0
546,-97,0,0,0,0,0,0,0,0,0,-1,1770,1121,0,0
553,-97,0,0,0,0,0,0,0,0,0,-1,1777,1121,0,0
560,-97,0,0,0,0,0,0,0,0,0,-1,1784,1121,0,0
567,-97,0,0,0,0,0,0,0,0,0,-1,1791,1121,0,0
574,-97,0,0,0,0,0,0,0,0,0,-1,1798,1121,0,0
581,-97,0,0,0,0,0,0,0,0,0,-1,1805,1121,0,0
588,-97,0,0,0,0,0,0,0,0,0,-1,1812,1121,0,0
595,-97,0,0,0,0,0,0,0,0,0,-1,1819,1121,0,0
602,-97,0,0,0,0,0,0,0,0,0,-1,1826,1121,0,0
609,-97,0,0,0,0,0,0,0,0,0,-1,1833,1121,0,0
616,-97,0,0,0,0,0,0,0,0,0,-1,1840,1121,0,0
623,-97,0,0,0,0,0,0,0,0,0,-1,1847,1121,0,0
630,-97,0,0,0,0,0,0,0,0,0,-1,1854,1121,0,0
637,-97,0,0,0,0,0,0,0,0,0,-1,1861,1121,0,0
644,-97,53.9965,2.64355,0.00124987,-0.00586071,-0.000307821,0.00126318,-0.00587401,-0.0431828,0.00439796,0.036316,1868,1121,53.9965,-2.64353
651,-97,54.0043,2.69019,0.00082447,-0.00461569,-5.2381e-05,0.000824974,-0.00461619,-0.00962739,0.00338612,0.0362526,1875,1121,54.0042,-2.69013
658,-97,53.9235,2.65283,0.000803286,-0.00368915,-4.85863e-05,0.000803811,-0.00368967,-0.0108134,0.00276692,0.0384238,1882,1121,53.9234,-2.65288
665,-97,54.0037,2.54297,0.000820784,-0.00290676,-2.99672e-05,0.000821025,-0.002907,-0.00803872,0.0022619,0.0420752,1889,1121,54.0036,-2.54301
672,-97,54.0842,2.5907,0.000840428,-0.00221765,-3.72631e-05,0.000840882,-0.0022181,-0.0121827,0.0018248,0.0419109,1896,1121,54.0842,-2.59065
679,-97,54.0782,2.8584,0.000693856,-0.00168683,-5.50114e-05,0.000695126,-0.0016881,-0.023091,0.0014152,0.0395512,1903,1121,54.0783,-2.85842
686,-97,54.0677,2.9176,0.000658462,-0.00145587,2.12392e-05,0.000658675,-0.00145608,0.010044,0.00124955,0.0361436,1910,1121,54.0678,-2.91757
693,-97,54.0024,2.79626,0.000684714,-0.00132402,0.000104266,0.000690111,-0.00132942,0.0517208,0.00118529,0.0331769,1917,1121,54.0024,-2.79623
700,-97,53.9956,2.64929,0.0006627,-0.00118687,0.000217057,0.000687832,-0.001212,0.115269,0.0011107,0.0267472,1924,1121,53.9956,-2.64925
707,-97,53.9927,2.61365,0.000610298,-0.000879151,0.000387145,0.000704916,-0.000973769,0.2397,0.000973323,0.0238273,1931,1121,53.9926,-2.61369
714,-97,53.9794,2.54932,0,0,0,0,0,0,0,-1,1938,1121,53.9794,-2.54937
721,-97,50.42,7.63757,0,0,0,0,0,0,0,-1,1945,1121,50.4201,-7.63757
728,-97,50.3499,7.37915,-0.000551587,-4.64528e-05,0.00119783,0.000925146,-0.00152319,0.889303,0.00142753,0.0278904,1952,1121,50.3498,-7.37916
735,-97,50.3042,6.92542,-0.00116673,0.0004205,0.00113361,0.00101068,-0.00175691,1.09079,0.00161712,0.0266016,1959,1121,50.3042,-6.92541
742,-97,50.299,6.55139,-0.00159759,0.00107566,0.00133175,0.00162586,-0.00214779,1.17901,0.00218566,0.0220136,1966,1121,50.2989,-6.55134
749,-97,50.3644,6.13855,-0.00300525,0.00223049,0.00144842,0.00260446,-0.00337922,1.31812,0.00346432,0.022711,1973,1121,50.3644,-6.13851
756,-97,50.3793,5.76843,-0.00554974,0.003252,0.00131492,0.00344424,-0.00574198,1.42563,0.00535869,0.0166875,1980,1121,50.3793,-5.76839
763,-97,50.306,5.44946,-0.00915829,0.00432722,0.000555432,0.00435006,-0.00918113,1.5297,0.00797649,0.0133964,1987,1121,50.306,-5.44948
770,-97,50.2579,5.12585,-0.0139642,0.00564745,-0.000586547,0.00566498,-0.0139817,-1.54092,0.0116769,0.0121395,1994,1121,50.2579,-5.12581
777,-97,50.2231,4.78308,-0.0198843,0.00672758,-0.00209285,0.00689116,-0.0200479,-1.49279,0.0161597,0.0172543,2001,1121,50.2232,-4.78311
784,-97,50.1643,4.41028,-0.0268996,0.00736947,-0.00391631,0.00781134,-0.0273415,-1.45845,0.021314,0.0379247,2008,1121,50.1643,-4.4103
791,-97,50.3872,3.91357,-0.0353643,0.0072779,-0.00613012,0.00814165,-0.036228,-1.43081,0.027274,0.042764,2015,1121,50.3871,-3.91358
798,-97,51.7234,3.54211,-0.0454385,0.00602603,-0.00877394,0.00748074,-0.0468932,-1.40649,0.0340309,0.0445328,2022,1121,51.7234,-3.54212
805,-97,50.4839,2.53333,-0.0572277,0.00304752,-0.0117857,0.00527003,-0.0594502,-1.38441,0.0415018,0.0451182,2029,1121,50.4838,-2.53336
812,-97,49.7932,1.70874,0,0,0,0,0,0,0,-1,2036,1121,49.7932,-1.70875
-700,-104,0,0,0,0,0,0,0,0,0,-1,524,1128,0,0
-693,-104,-44.1272,4.11584,0,0,0,0,0,0,0,-1,531,1128,-44.1272,-4.11579
-686,-104,-44.3307,4.79895,-0.0297156,0.156798,-0.0889507,0.192417,-0.0653349,-1.18991,0.154725,0.0487061,538,1128,-44.3307,-4.79895
-679,-104,-44.7436,5.39526,-0.0256886,0.127404,-0.0728345,0.156518,-0.0548031,-1.19052,0.12663,0.0484766,545,1128,-44.7436,-5.39526
-672,-104,-45.2442,5.80847,0,0,0,0,0,0,0,-1,552,1128,-45.2442,-5.80847
-665,-104,-36.3564,0.560669,0,0,0,0,0,0,0,-1,559,1128,-36.3564,-0.560686
-658,-104,-36.3284,1.00635,0,0,0,0,0,0,0,-1,566,1128,-36.3284,-1.00635
-651,-104,-36.3466,1.40857,-0.0111436,0.0408181,-0.0239159,0.0501498,-0.0204752,-1.19878,0.041958,0.0410752,573,1128,-36.3466,-1.40854
-644,-104,-36.3904,1.86182,-0.00848223,0.0278285,-0.0165314,0.0342272,-0.014881,-1.20149,0.0290768,0.0157953,580,1128,-36.3904,-1.86179
-637,-104,-36.4059,2.32886,-0.00606791,0.0173436,-0.0103944,0.0212925,-0.0100168,-1.20773,0.0184631,0.0113086,587,1128,-36.4059,-2.32884
-630,-104,-36.4265,2.70947,-0.00354728,0.00856203,-0.00561309,0.0107636,-0.00574887,-1.19701,0.00967893,0.015272,594,1128,-36.4264,-2.70952
-623,-104,-36.4634,3.16248,-0.0014308,0.00294512,-0.00261676,0.00416811,-0.0026538,-1.13359,0.00397085,0.0175337,601,1128,-36.4635,-3.16251
-616,-104,-36.7162,3.68372,-0.000168398,0.000680196,-0.00129884,0.00162228,-0.00111048,-0.943271,0.00158696,0.0250531,608,1128,-36.7162,-3.68372
-609,-104,-36.8698,3.99854,0.000932602,-0.000424038,-0.00109353,0.00154111,-0.00103255,-0.507791,0.00149554,0.0328778,615,1128,-36.8698,-3.99849
-602,-104,-36.6914,4.43665,0.00170963,-0.000736192,-0.00141057,0.00235359,-0.00138016,-0.428269,0.00217996,0.0280487,622,1128,-36.6914,-4.4366
-595,-104,-36.491,4.95959,0.00173301,-0.000726795,-0.00144648,0.00240178,-0.00139557,-0.433071,0.00221791,0.0188785,629,1128,-36.491,-4.95963
-588,-104,-36.4341,5.50281,0,0,0,0,0,0,0,-1,636,1128,-36.4342,-5.50286
-581,-104,-23.9373,2.85864,0,0,0,0,0,0,0,-1,643,1128,-23.9373,-2.85861
-574,-104,-40.4582,1.12756,0,0,0,0,0,0,0,-1,650,1128,-40.4582,-1.12753
-567,-104,-40.3742,1.00305,0.00188498,-0.00103366,-0.00134051,0.00240722,-0.0015559,-0.371495,0.00230564,0.0374353,657,1128,-40.3742,-1.00305
-560,-104,-40.3582,0.845825,0.00181281,-0.000748845,-0.0012791,0.00234212,-0.00127816,-0.392361,0.00212004,0.0447153,664,1128,-40.3582,-0.845774
-553,-104,-40.42,0.497192,0.00107406,-0.000166887,-0.00125709,0.00185547,-0.000948295,-0.556149,0.00164676,0.0470997,671,1128,-40.42,-0.497153
-546,-104,-40.4662,0.388306,0.00011209,0.000758245,-0.000966978,0.00145469,-0.000584355,-0.946623,0.00121246,0.0429274,678,1128,-40.4663,-0.388301
-539,-104,-40.4608,0.487061,0.000140151,0.00177784,-1.30399e-05,0.00177794,0.000140047,-1.56283,0.00114148,0.0395426,685,1128,-40.4608,-0.487059
-532,-104,-40.479,0.662964,0.000485448,0.00285211,0.00106538,0.00326104,7.65127e-05,1.2043,0.00214898,0.04021,692,1128,-40.479,-0.662957
-525,-104,-40.5864,0.89856,0,0,0,0,0,0,0,-1,699,1128,-40.5863,-0.898511
-518,-104,0,0,0,0,0,0,0,0,0,-1,706,1128,0,0
-511,-104,0,0,0,0,0,0,0,0,0,-1,713,1128,0,0
-504,-104,0,0,0,0,0,0,0,0,0,-1,720,1128,0,0
-497,-104,0,0,0,0,0,0,0,0,0,-1,727,1128,0,0
-490,-104,0,0,0,0,0,0,0,0,0,-1,734,1128,0,0
-483,-104,0,0,0,0,0,0,0,0,0,-1,741,1128,0,0
-476,-104,0,0,0,0,0,0,0,0,0,-1,748,1128,0,0
-469,-104,0,0,0,0,0,0,0,0,0,-1,755,1128,0,0
-462,-104,0,0,0,0,0,0,0,0,0,-1,762,1128,0,0
-455,-104,0,0,0,0,0,0,0,0,0,-1,769,1128,0,0
-448,-104,0,0,0,0,0,0,0,0,0,-1,776,1128,0,0
-441,-104,0,0,0,0,0,0,0,0,0,-1,783,1128,0,0
-434,-104,0,0,0,0,0,0,0,0,0,-1,790,1128,0,0
-427,-104,0,0,0,0,0,0,0,0,0,-1,797,1128,0,0
-420,-104,0,0,0,0,0,0,0,0,0,-1,804,1128,0,0
-413,-104,0,0,0,0,0,0,0,0,0,-1,811,1128,0,0
-406,-104,0,0,0,0,0,0,0,0,0,-1,818,1128,0,0
-399,-104,0,0,0,0,0,0,0,0,0,-1,825,1128,0,0
-392,-104,0,0,0,0,0,0,0,0,0,-1,832,1128,0,0
-385,-104,0,0,0,0,0,0,0,0,0,-1,839,1128,0,0
-378,-104,0,0,0,0,0,0,0,0,0,-1,846,1128,0,0
-371,-104,0,0,0,0,0,0,0,0,0,-1,853,1128,0,0
-364,-104,0,0,0,0,0,0,0,0,0,-1,860,1128,0,0
-357,-104,0,0,0,0,0,0,0,0,0,-1,867,1128,0,0
-350,-104,0,0,0,0,0,0,0,0,0,-1,874,1128,0,0
-343,-104,0,0,0,0,0,0,0,0,0,-1,881,1128,0,0
-336,-104,0,0,0,0,0,0,0,0,0,-1,888,1128,0,0
-329,-104,0,0,0,0,0,0,0,0,0,-1,895,1128,0,0
-322,-104,0,0,0,0,0,0,0,0,0,-1,902,1128,0,0
-315,-104,0,0,0,0,0,0,0,0,0,-1,909,1128,0,0
-308,-104,0,0,0,0,0,0,0,0,0,-1,916,1128,0,0
-301,-104,0,0,0,0,0,0,0,0,0,-1,923,1128,0,0
-294,-104,0,0,0,0,0,0,0,0,0,-1,930,1128,0,0
-287,-104,0,0,0,0,0,0,0,0,0,-1,937,1128,0,0
-280,-104,0,0,0,0,0,0,0,0,0,-1,944,1128,0,0
-273,-104,0,0,0,0,0,0,0,0,0,-1,951,1128,0,0
-266,-104,0,0,0,0,0,0,0,0,0,-1,958,1128,0,0
-259,-104,0,0,0,0,0,0,0,0,0,-1,965,1128,0,0
-252,-104,0,0,0,0,0,0,0,0,0,-1,972,1128,0,0
-245,-104,0,0,0,0,0,0,0,0,0,-1,979,1128,0,0
-238,-104,0,0,0,0,0,0,0,0,0,-1,986,1128,0,0
-231,-104,0,0,0,0,0,0,0,0,0,-1,993,1128,0,0
-224,-104,0,0,0,0,0,0,0,0,0,-1,1000,1128,0,0
-217,-104,0,0,0,0,0,0,0,0,0,-1,1007,1128,0,0
-210,-104,0,0,0,0,0,0,0,0,0,-1,1014,1128,0,0
-203,-104,0,0,0,0,0,0,0,0,0,-1,1021,1128,0,0
-196,-104,0,0,0,0,0,0,0,0,0,-1,1028,1128,0,0
-189,-104,0,0,0,0,0,0,0,0,0,-1,1035,1128,0,0
-182,-104,0,0,0,0,0,0,0,0,0,-1,1042,1128,0,0
-175,-104,0,0,0,0,0,0,0,0,0,-1,1049,1128,0,0
-168,-104,0,0,0,0,0,0,0,0,0,-1,1056,1128,0,0
-161,-104,0,0,0,0,0,0,0,0,0,-1,1063,1128,0,0
-154,-104,0,0,0,0,0,0,0,0,0,-1,1070,1128,0,0
-147,-104,0,0,0,0,0,0,0,0,0,-1,1077,1128,0,0
-140,-104,0,0,0,0,0,0,0,0,0,-1,1084,1128,0,0
-133,-104,0,0,0,0,0,0,0,0,0,-1,1091,1128,0,0
-126,-104,0,0,0,0,0,0,0,0,0,-1,1098,1128,0,0
-119,-104,0,0,0,0,0,0,0,0,0,-1,1105,1128,0,0
-112,-104,0,0,0,0,0,0,0,0,0,-1,1112,1128,0,0
-105,-104,0,0,0,0,0,0,0,0,0,-1,1119,1128,0,0
-98,-104,0,0,0,0,0,0,0,0,0,-1,1126,1128,0,0
-91,-104,0,0,0,0,0,0,0,0,0,-1,1133,1128,0,0
-84,-104,0,0,0,0,0,0,0,0,0,-1,1140,1128,0,0
-77,-104,0,0,0,0,0,0,0,0,0,-1,1147,1128,0,0
-70,-104,0,0,0,0,0,0,0,0,0,-1,1154,1128,0,0
-63,-104,0,0,0,0,0,0,0,0,0,-1,1161,1128,0,0
-56,-104,0,0,0,0,0,0,0,0,0,-1,1168,1128,0,0
-49,-104,0,0,0,0,0,0,0,0,0,-1,1175,1128,0,0
-42,-104,0,0,0,0,0,0,0,0,0,-1,1182,1128,0,0
-35,-104,0,0,0,0,0,0,0,0,0,-1,1189,1128,0,0
-28,-104,0,0,0,0,0,0,0,0,0,-1,1196,1128,0,0
-21,-104,0,0,0,0,0,0,0,0,0,-1,1203,1128,0,0
-14,-104,0,0,0,0,0,0,0,0,0,-1,1210,1128,0,0
-7,-104,0,0,0,0,0,0,0,0,0,-1,1217,1128,0,0
0,-104,0,0,0,0,0,0,0,0,0,-1,1224,1128,0,0
7,-104,0,0,0,0,0,0,0,0,0,-1,1231,1128,0,0
14,-104,0,0,0,0,0,0,0,0,0,-1,1238,1128,0,0
21,-104,0,0,0,0,0,0,0,0,0,-1,1245,1128,0,0
28,-104,0,0,0,0,0,0,0,0,0,-1,1252,1128,0,0
35,-104,0,0,0,0,0,0,0,0,0,-1,1259,1128,0,0
42,-104,0,0,0,0,0,0,0,0,0,-1,1266,1128,0,0
49,-104,0,0,0,0,0,0,0,0,0,-1,1273,1128,0,0
56,-104,0,0,0,0,0,0,0,0,0,-1,1280,1128,0,0
63,-104,0,0,0,0,0,0,0,0,0,-1,1287,1128,0,0
70,-104,0,0,0,0,0,0,0,0,0,-1,1294,1128,0,0
77,-104,0,0,0,0,0,0,0,0,0,-1,1301,1128,0,0
84,-104,0,0,0,0,0,0,0,0,0,-1,1308,1128,0,0
91,-104,0,0,0,0,0,0,0,0,0,-1,1315,1128,0,0
98,-104,0,0,0,0,0,0,0,0,0,-1,1322,1128,0,0
105,-104,0,0,0,0,0,0,0,0,0,-1,1329,1128,0,0
112,-104,0,0,0,0,0,0,0,0,0,-1,1336,1128,0,0
119,-104,0,0,0,0,0,0,0,0,0,-1,1343,1128,0,0
126,-104,0,0,0,0,0,0,0,0,0,-1,1350,1128,0,0
133,-104,0,0,0,0,0,0,0,0,0,-1,1357,1128,0,0
140,-104,0,0,0,0,0,0,0,0,0,-1,1364,1128,0,0
147,-104,0,0,0,0,0,0,0,0,0,-1,1371,1128,0,0
154,-104,0,0,0,0,0,0,0,0,0,-1,1378,1128,0,0
161,-104,0,0,0,0,0,0,0,0,0,-1,1385,1128,0,0
168,-104,0,0,0,0,0,0,0,0,0,-1,1392,1128,0,0
175,-104,0,0,0,0,0,0,0,0,0,-1,1399,1128,0,0
182,-104,0,0,0,0,0,0,0,0,0,-1,1406,1128,0,0
189,-104,0,0,0,0,0,0,0,0,0,-1,1413,1128,0,0
196,-104,0,0,0,0,0,0,0,0,0,-1,1420,1128,0,0
203,-104,0,0,0,0,0,0,0,0,0,-1,1427,1128,0,0
210,-104,0,0,0,0,0,0,0,0,0,-1,1434,1128,0,0
217,-104,0,0,0,0,0,0,0,0,0,-1,1441,1128,0,0
224,-104,0,0,0,0,0,0,0,0,0,-1,1448,1128,0,0
231,-104,0,0,0,0,0,0,0,0,0,-1,1455,1128,0,0
238,-104,0,0,0,0,0,0,0,0,0,-1,1462,1128,0,0
245,-104,0,0,0,0,0,0,0,0,0,-1,1469,1128,0,0
252,-104,0,0,0,0,0,0,0,0,0,-1,1476,1128,0,0
259,-104,0,0,0,0,0,0,0,0,0,-1,1483,1128,0,0
266,-104,0,0,0,0,0,0,0,0,0,-1,1490,1128,0,0
273,-104,0,0,0,0,0,0,0,0,0,-1,1497,1128,0,0
280,-104,0,0,0,0,0,0,0,0,0,-1,1504,1128,0,0
287,-104,0,0,0,0,0,0,0,0,0,-1,1511,1128,0,0
294,-104,0,0,0,0,0,0,0,0,0,-1,1518,1128,0,0
301,-104,0,0,0,0,0,0,0,0,0,-1,1525,1128,0,0
308,-104,0,0,0,0,0,0,0,0,0,-1,1532,1128,0,0
315,-104,0,0,0,0,0,0,0,0,0,-1,1539,1128,0,0
322,-104,0,0,0,0,0,0,0,0,0,-1,1546,1128,0,0
329,-104,0,0,0,0,0,0,0,0,0,-1,1553,1128,0,0
336,-104,0,0,0,0,0,0,0,0,0,-1,1560,1128,0,0
343,-104,0,0,0,0,0,0,0,0,0,-1,1567,1128,0,0
350,-104,0,0,0,0,0,0,0,0,0,-1,1574,1128,0,0
357,-104,0,0,0,0,0,0,0,0,0,-1,1581,1128,0,0
364,-104,0,0,0,0,0,0,0,0,0,-1,1588,1128,0,0
371,-104,0,0,0,0,0,0,0,0,0,-1,1595,1128,0,0
378,-104,0,0,0,0,0,0,0,0,0,-1,1602,1128,0,0
385,-104,0,0,0,0,0,0,0,0,0,-1,1609,1128,0,0
392,-104,0,0,0,0,0,0,0,0,0,-1,1616,1128,0,0
399,-104,0,0,0,0,0,0,0,0,0,-1,1623,1128,0,0
406,-104,0,0,0,0,0,0,0,0,0,-1,1630,1128,0,0
413,-104,0,0,0,0,0,0,0,0,0,-1,1637,1128,0,0
420,-104,0,0,0,0,0,0,0,0,0,-1,1644,1128,0,0
427,-104,0,0,0,0,0,0,0,0,0,-1,1651,1128,0,0
434,-104,0,0,0,0,0,0,0,0,0,-1,1658,1128,0,0
441,-104,0,0,0,0,0,0,0,0,0,-1,1665,1128,0,0
448,-104,0,0,0,0,0,0,0,0,0,-1,1672,1128,0,0
455,-104,0,0,0,0,0,0,0,0,0,-1,1679,1128,0,0
462,-104,0,0,0,0,0,0,0,0,0,-1,1686,1128,0,0
469,-104,0,0,0,0,0,0,0,0,0,-1,1693,1128,0,0
476,-104,0,0,0,0,0,0,0,0,0,-1,1700,1128,0,0
483,-104,0,0,0,0,0,0,0,0,0,-1,1707,1128,0,0
490,-104,0,0,0,0,0,0,0,0,0,-1,1714,1128,0,0
497,-104,0,0,0,0,0,0,0,0,0,-1,1721,1128,0,0
504,-104,0,0,0,0,0,0,0,0,0,-1,1728,1128,0,0
511,-104,0,0,0,0,0,0,0,0,0,-1,1735,1128,0,0
518,-104,0,0,0,0,0,0,0,0,0,-1,1742,1128,0,0
525,-104,0,0,0,0,0,0,0,0,0,-1,1749,1128,0,0
532,-104,0,0,0,0,0,0,0,0,0,-1,1756,1128,0,0
539,-104,0,0,0,0,0,0,0,0,0,-1,1763,1128,0,0
546,-104,0,0,0,0,0,0,0,0,0,-1,1770,1128,0,0
553,-104,0,0,0,0,0,0,0,0,0,-1,1777,1128,0,0
560,-104,0,0,0,0,0,0,0,0,0,-1,1784,1128,0,0
567,-104,0,0,0,0,0,0,0,0,0,-1,1791,1128,0,0
574,-104,0,0,0,0,0,0,0,0,0,-1,1798,1128,0,0
581,-104,0,0,0,0,0,0,0,0,0,-1,1805,1128,0,0
588,-104,0,0,0,0,0,0,0,0,0,-1,1812,1128,0,0
595,-104,0,0,0,0,0,0,0,0,0,-1,1819,1128,0,0
602,-104,0,0,0,0,0,0,0,0,0,-1,1826,1128,0,0
609,-104,0,0,0,0,0,0,0,0,0,-1,1833,1128,0,0
616,-104,0,0,0,0,0,0,0,0,0,-1,1840,1128,0,0
623,-104,0,0,0,0,0,0,0,0,0,-1,1847,1128,0,0
630,-104,0,0,0,0,0,0,0,0,0,-1,1854,1128,0,0
637,-104,0,0,0,0,0,0,0,0,0,-1,1861,1128,0,0
644,-104,53.8372,2.771,0.00190438,-0.00652023,-0.000207487,0.00190948,-0.00652534,-0.0246087,0.00510713,0.0379871,1868,1128,53.8372,-2.77103
651,-104,53.9698,2.7583,0.00115209,-0.00510278,-4.34375e-05,0.00115239,-0.00510308,-0.00694414,0.0038442,0.0395026,1875,1128,53.9699,-2.75833
658,-104,54.1205,2.58533,0.000948006,-0.00402962,-9.81454e-05,0.00094994,-0.00403156,-0.0197071,0.003054,0.0412053,1882,1128,54.1205,-2.58527
665,-104,54.1832,2.50732,0.000854591,-0.00308228,-0.000131781,0.000858998,-0.00308669,-0.0334237,0.00239601,0.0461158,1889,1128,54.1832,-2.50736
672,-104,54.0962,2.56982,0.0008072,-0.00223606,-0.000189061,0.0008189,-0.00224776,-0.0618077,0.00183348,0.0461783,1896,1128,54.0961,-2.56979
679,-104,54.0437,2.60706,0.000627042,-0.00164066,-0.000228059,0.00064975,-0.00166337,-0.0992441,0.00137756,0.0420147,1903,1128,54.0436,-2.60704
686,-104,54.0358,2.82251,0.000605828,-0.00136043,-0.000156666,0.000618233,-0.00137283,-0.0790128,0.00117674,0.0411796,1910,1128,54.0358,-2.82246
693,-104,54.0172,2.82678,0.000639749,-0.00119932,-6.56062e-05,0.000642086,-0.00120166,-0.0356132,0.00108071,0.0356847,1917,1128,54.0172,-2.8268
700,-104,54.0129,2.61438,0.000613123,-0.00106192,5.56954e-05,0.000614973,-0.00106377,0.0332013,0.000980699,0.0248655,1924,1128,54.0129,-2.61439
707,-104,53.9769,2.67297,0,0,0,0,0,0,0,-1,1931,1128,53.9769,-2.67299
714,-104,45.5221,2.32166,0,0,0,0,0,0,0,-1,1938,1128,45.5221,-2.3216
721,-104,49.9069,7.78857,0,0,0,0,0,0,0,-1,1945,1128,49.9068,-7.78852
728,-104,50.0601,7.23914,-0.000495017,-1.8747e-05,0.00110085,0.000869429,-0.00138319,0.891917,0.00131178,0.0270567,1952,1128,50.06,-7.23918
735,-104,50.1477,6.86719,-0.00108656,0.000403305,0.00104525,0.000941915,-0.00162517,1.09499,0.0014995,0.0298019,1959,1128,50.1477,-6.86717
742,-104,50.0023,6.51831,-0.00157622,0.000937328,0.00125801,0.00145877,-0.00209766,1.17785,0.00206432,0.0201133,1966,1128,50.0023,-6.51827
749,-104,49.906,6.15271,-0.00309053,0.00199166,0.0013516,0.00232876,-0.00342762,1.32638,0.00334357,0.0200759,1973,1128,49.906,-6.15276
756,-104,49.9237,5.78003,-0.0058609,0.00306406,0.0011167,0.00320166,-0.0059985,1.44819,0.00539291,0.0170176,1980,1128,49.9238,-5.78004
763,-104,49.8734,5.45142,-0.0099182,0.00419167,0.000105104,0.00419245,-0.00991898,1.56335,0.00836787,0.0170834,1987,1128,49.8734,-5.45144
770,-104,49.8346,5.11816,-0.0152187,0.00554748,-0.00134915,0.00563477,-0.015306,-1.50619,0.0125125,0.0151573,1994,1128,49.8346,-5.11812
777,-104,49.7593,4.7301,-0.0216899,0.00670405,-0.00323894,0.00706883,-0.0220546,-1.45864,0.0175408,0.0232565,2001,1128,49.7592,-4.73005
784,-104,49.6687,4.39233,-0.0294466,0.00752535,-0.00556381,0.00834448,-0.0302657,-1.42462,0.0234587,0.0401457,2008,1128,49.6686,-4.39228
791,-104,49.6353,4.07202,0,0,0,0,0,0,0,-1,2015,1128,49.6352,-4.07208
798,-104,50.6687,3.35742,-0.0502721,0.0071087,-0.0119674,0.00950461,-0.052668,-1.37321,0.0386715,0.0458472,2022,1128,50.6688,-3.35739
805,-104,49.6423,2.42737,-0.0637382,0.00509246,-0.0161304,0.00868507,-0.0673308,-1.35165,0.0480446,0.0440754,2029,1128,49.6424,-2.42734
812,-104,48.9373,1.57153,-0.0795606,0.0011145,-0.0207595,0.00614299,-0.0845891,-1.33315,0.0585479,0.047457,2036,1128,48.9373,-1.57155
-700,-111,0,0,0,0,0,0,0,0,0,-1,524,1135,0,0
-693,-111,-41.6668,3.13208,0,0,0,0,0,0,0,-1,531,1135,-41.6668,-3.13208
-686,-111,-42.0276,3.79517,-0.0407052,0.181529,-0.113941,0.229564,-0.0887407,-1.17182,0.189674,0.0491221,538,1135,-42.0276,-3.79517
-679,-111,-42.3332,4.40393,-0.0349842,0.147107,-0.0926935,0.18599,-0.073867,-1.17361,0.154614,0.0478178,545,1135,-42.3332,-4.40392
-672,-111,-42.7211,5.01367,0,0,0,0,0,0,0,-1,552,1135,-42.7211,-5.01372
-665,-111,-36.9409,0.0944824,0,0,0,0,0,0,0,-1,559,1135,-36.9409,-0.0944408
-658,-111,-35.9323,0.848877,0,0,0,0,0,0,0,-1,566,1135,-35.9323,-0.848901
-651,-111,-35.8279,1.22473,0,0,0,0,0,0,0,-1,573,1135,-35.8279,-1.22472
-644,-111,-35.8204,1.80347,-0.0110769,0.0325955,-0.0213807,0.04132,-0.0198014,-1.18337,0.03601,0.0285313,580,1135,-35.8204,-1.8035
-637,-111,-35.9455,2.31653,-0.0078356,0.0204702,-0.0135496,0.0259106,-0.013276,-1.18898,0.023013,0.011291,587,1135,-35.9455,-2.31651
-630,-111,-35.9855,2.70251,-0.00470696,0.0103905,-0.00747456,0.013465,-0.00778143,-1.18057,0.0124121,0.0213638,594,1135,-35.9855,-2.70247
-623,-111,-36.0025,3.16479,-0.00212882,0.00382203,-0.00353232,0.00546509,-0.00377188,-1.13541,0.00536275,0.0184946,601,1135,-36.0025,-3.16484
-616,-111,-36.2386,3.60657,-0.000575864,0.000979259,-0.00164977,0.00202552,-0.00162213,-1.00562,0.00211026,0.0211552,608,1135,-36.2386,-3.60652
-609,-111,-36.5126,3.97253,0.000620685,-0.00026913,-0.00124526,0.00149813,-0.00114657,-0.613825,0.00153141,0.0327024,615,1135,-36.5126,-3.97257
-602,-111,-36.3693,4.45374,0.00141143,-0.000788775,-0.00145784,0.00213767,-0.00151501,-0.462174,0.00211906,0.0375063,622,1135,-36.3693,-4.45373
-595,-111,-36.1095,4.98181,0.00133869,-0.000838154,-0.00146608,0.00207621,-0.00157567,-0.466087,0.002115,0.018651,629,1135,-36.1095,-4.9818
-588,-111,-35.8187,5.59705,0,0,0,0,0,0,0,-1,636,1135,-35.8187,-5.59709
-581,-111,-21.0555,3.14551,0,0,0,0,0,0,0,-1,643,1135,-21.0555,-3.14548
-574,-111,-40.4409,0.992676,0,0,0,0,0,0,0,-1,650,1135,-40.4409,-0.992648
-567,-111,-40.3798,1.16699,0.00160411,-0.00160638,-0.00136631,0.00210685,-0.00210912,-0.352581,0.00243409,0.0371228,657,1135,-40.3797,-1.16701
-560,-111,-40.4363,1.32324,0.00169422,-0.00153749,-0.00131612,0.00216239,-0.00200566,-0.34176,0.00240699,0.0403182,664,1135,-40.4363,-1.3233
-553,-111,-40.2496,0.130127,0.00109714,-0.00117628,-0.0013493,0.00172472,-0.00180386,-0.435352,0.00203739,0.0462516,671,1135,-40.2496,-0.130162
-546,-111,-40.3023,0.461792,0.00025464,-0.000453502,-0.00109903,0.00105523,-0.00125409,-0.629565,0.00133494,0.0403583,678,1135,-40.3023,-0.461754
-539,-111,-40.4337,0.623413,0.00037691,0.000477528,-0.000138612,0.000574678,0.00027976,-0.959479,0.000331829,0.0383569,685,1135,-40.4337,-0.623439
-532,-111,-40.6159,0.820923,0.000979592,0.0015779,0.000985669,0.00230881,0.000248679,0.932731,0.00146337,0.038954,692,1135,-40.6159,-0.820959
-525,-111,-40.8445,1.06775,0,0,0,0,0,0,0,-1,699,1135,-40.8445,-1.06776
-518,-111,0,0,0,0,0,0,0,0,0,-1,706,1135,0,0
-511,-111,0,0,0,0,0,0,0,0,0,-1,713,1135,0,0
-504,-111,0,0,0,0,0,0,0,0,0,-1,720,1135,0,0
-497,-111,0,0,0,0,0,0,0,0,0,-1,727,1135,0,0
-490,-111,0,0,0,0,0,0,0,0,0,-1,734,1135,0,0
-483,-111,0,0,0,0,0,0,0,0,0,-1,741,1135,0,0
-476,-111,0,0,0,0,0,0,0,0,0,-1,748,1135,0,0
-469,-111,0,0,0,0,0,0,0,0,0,-1,755,1135,0,0
-462,-111,0,0,0,0,0,0,0,0,0,-1,762,1135,0,0
-455,-111,0,0,0,0,0,0,0,0,0,-1,769,1135,0,0
-448,-111,0,0,0,0,0,0,0,0,0,-1,776,1135,0,0
-441,-111,0,0,0,0,0,0,0,0,0,-1,783,1135,0,0
-434,-111,0,0,0,0,0,0,0,0,0,-1,790,1135,0,0
-427,-111,0,0,0,0,0,0,0,0,0,-1,797,1135,0,0
-420,-111,0,0,0,0,0,0,0,0,0,-1,804,1135,0,0
-413,-111,0,0,0,0,0,0,0,0,0,-1,811,1135,0,0
-406,-111,0,0,0,0,0,0,0,0,0,-1,818,1135,0,0
-399,-111,0,0,0,0,0,0,0,0,0,-1,825,1135,0,0
-392,-111,0,0,0,0,0,0,0,0,0,-1,832,1135,0,0
-385,-111,0,0,0,0,0,0,0,0,0,-1,839,1135,0,0
-378,-111,0,0,0,0,0,0,0,0,0,-1,846,1135,0,0
-371,-111,0,0,0,0,0,0,0,0,0,-1,853,1135,0,0
-364,-111,0,0,0,0,0,0,0,0,0,-1,860,1135,0,0
-357,-111,0,0,0,0,0,0,0,0,0,-1,867,1135,0,0
-350,-111,0,0,0,0,0,0,0,0,0,-1,874,1135,0,0
-343,-111,0,0,0,0,0,0,0,0,0,-1,881,1135,0,0
-336,-111,0,0,0,0,0,0,0,0,0,-1,888,1135,0,0
-329,-111,0,0,0,0,0,0,0,0,0,-1,895,1135,0,0
-322,-111,0,0,0,0,0,0,0,0,0,-1,902,1135,0,0
-315,-111,0,0,0,0,0,0,0,0,0,-1,909,1135,0,0
-308,-111,0,0,0,0,0,0,0,0,0,-1,916,1135,0,0
-301,-111,0,0,0,0,0,0,0,0,0,-1,923,1135,0,0
-294,-111,0,0,0,0,0,0,0,0,0,-1,930,1135,0,0
-287,-111,0,0,0,0,0,0,0,0,0,-1,937,1135,0,0
-280,-111,0,0,0,0,0,0,0,0,0,-1,944,1135,0,0
-273,-111,0,0,0,0,0,0,0,0,0,-1,951,1135,0,0
-266,-111,0,0,0,0,0,0,0,0,0,-1,958,1135,0,0
-259,-111,0,0,0,0,0,0,0,0,0,-1,965,1135,0,0
-252,-111,0,0,0,0,0,0,0,0,0,-1,972,1135,0,0
-245,-111,0,0,0,0,0,0,0,0,0,-1,979,1135,0,0
-238,-111,0,0,0,0,0,0,0,0,0,-1,986,1135,0,0
-231,-111,0,0,0,0,0,0,0,0,0,-1,993,1135,0,0
-224,-111,0,0,0,0,0,0,0,0,0,-1,1000,1135,0,0
-217,-111,0,0,0,0,0,0,0,0,0,-1,1007,1135,0,0
-210,-111,0,0,0,0,0,0,0,0,0,-1,1014,1135,0,0
-203,-111,0,0,0,0,0,0,0,0,0,-1,1021,1135,0,0
-196,-111,0,0,0,0,0,0,0,0,0,-1,1028,1135,0,0
-189,-111,0,0,0,0,0,0,0,0,0,-1,1035,1135,0,0
-182,-111,0,0,0,0,0,0,0,0,0,-1,1042,1135,0,0
-175,-111,0,0,0,0,0,0,0,0,0,-1,1049,1135,0,0
-168,-111,0,0,0,0,0,0,0,0,0,-1,1056,1135,0,0
-161,-111,0,0,0,0,0,0,0,0,0,-1,1063,1135,0,0
-154,-111,0,0,0,0,0,0,0,0,0,-1,1070,1135,0,0
-147,-111,0,0,0,0,0,0,0,0,0,-1,1077,1135,0,0
-140,-111,0,0,0,0,0,0,0,0,0,-1,1084,1135,0,0
-133,-111,0,0,0,0,0,0,0,0,0,-1,1091,1135,0,0
-126,-111,0,0,0,0,0,0,0,0,0,-1,1098,1135,0,0
-119,-111,0,0,0,0,0,0,0,0,0,-1,1105,1135,0,0
-112,-111,0,0,0,0,0,0,0,0,0,-1,1112,1135,0,0
-105,-111,0,0,0,0,0,0,0,0,0,-1,1119,1135,0,0
-98,-111,0,0,0,0,0,0,0,0,0,-1,1126,1135,0,0
-91,-111,0,0,0,0,0,0,0,0,0,-1,1133,1135,0,0
-84,-111,0,0,0,0,0,0,0,0,0,-1,1140,1135,0,0
-77,-111,0,0,0,0,0,0,0,0,0,-1,1147,1135,0,0
-70,-111,0,0,0,0,0,0,0,0,0,-1,1154,1135,0,0
-63,-111,0,0,0,0,0,0,0,0,0,-1,1161,1135,0,0
-56,-111,0,0,0,0,0,0,0,0,0,-1,1168,1135,0,0
-49,-111,0,0,0,0,0,0,0,0,0,-1,1175,1135,0,0
-42,-111,0,0,0,0,0,0,0,0,0,-1,1182,1135,0,0
-35,-111,0,0,0,0,0,0,0,0,0,-1,1189,1135,0,0
-28,-111,0,0,0,0,0,0,0,0,0,-1,1196,1135,0,0
-21,-111,0,0,0,0,0,0,0,0,0,-1,1203,1135,0,0
-14,-111,0,0,0,0,0,0,0,0,0,-1,1210,1135,0,0
-7,-111,0,0,0,0,0,0,0,0,0,-1,1217,1135,0,0
0,-111,0,0,0,0,0,0,0,0,0,-1,1224,1135,0,0
7,-111,0,0,0,0,0,0,0,0,0,-1,1231,1135,0,0
14,-111,0,0,0,0,0,0,0,0,0,-1,1238,1135,0,0
21,-111,0,0,0,0,0,0,0,0,0,-1,1245,1135,0,0
28,-111,0,0,0,0,0,0,0,0,0,-1,1252,1135,0,0
35,-111,0,0,0,0,0,0,0,0,0,-1,1259,1135,0,0
42,-111,0,0,0,0,0,0,0,0,0,-1,1266,1135,0,0
49,-111,0,0,0,0,0,0,0,0,0,-1,1273,1135,0,0
56,-111,0,0,0,0,0,0,0,0,0,-1,1280,1135,0,0
63,-111,0,0,0,0,0,0,0,0,0,-1,1287,1135,0,0
70,-111,0,0,0,0,0,0,0,0,0,-1,1294,1135,0,0
77,-111,0,0,0,0,0,0,0,0,0,-1,1301,1135,0,0
84,-111,0,0,0,0,0,0,0,0,0,-1,1308,1135,0,0
91,-111,0,0,0,0,0,0,0,0,0,-1,1315,1135,0,0
98,-111,0,0,0,0,0,0,0,0,0,-1,1322,1135,0,0
105,-111,0,0,0,0,0,0,0,0,0,-1,1329,1135,0,0
112,-111,0,0,0,0,0,0,0,0,0,-1,1336,1135,0,0
119,-111,0,0,0,0,0,0,0,0,0,-1,1343,1135,0,0
126,-111,0,0,0,0,0,0,0,0,0,-1,1350,1135,0,0
133,-111,0,0,0,0,0,0,0,0,0,-1,1357,1135,0,0
140,-111,0,0,0,0,0,0,0,0,0,-1,1364,1135,0,0
147,-111,0,0,0,0,0,0,0,0,0,-1,1371,1135,0,0
154,-111,0,0,0,0,0,0,0,0,0,-1,1378,1135,0,0
161,-111,0,0,0,0,0,0,0,0,0,-1,1385,1135,0,0
168,-111,0,0,0,0,0,0,0,0,0,-1,1392,1135,0,0
175,-111,0,0,0,0,0,0,0,0,0,-1,1399,1135,0,0
182,-111,0,0,0,0,0,0,0,0,0,-1,1406,1135,0,0
189,-111,0,0,0,0,0,0,0,0,0,-1,1413,1135,0,0
196,-111,0,0,0,0,0,0,0,0,0,-1,1420,1135,0,0
203,-111,0,0,0,0,0,0,0,0,0,-1,1427,1135,0,0
210,-111,0,0,0,0,0,0,0,0,0,-1,1434,1135,0,0
217,-111,0,0,0,0,0,0,0,0,0,-1,1441,1135,0,0
224,-111,0,0,0,0,0,0,0,0,0,-1,1448,1135,0,0
231,-111,0,0,0,0,0,0,0,0,0,-1,1455,1135,0,0
238,-111,0,0,0,0,0,0,0,0,0,-1,1462,1135,0,0
245,-111,0,0,0,0,0,0,0,0,0,-1,1469,1135,0,0
252,-111,0,0,0,0,0,0,0,0,0,-1,1476,1135,0,0
259,-111,0,0,0,0,0,0,0,0,0,-1,1483,1135,0,0
266,-111,0,0,0,0,0,0,0,0,0,-1,1490,1135,0,0
273,-111,0,0,0,0,0,0,0,0,0,-1,1497,1135,0,0
280,-111,0,0,0,0,0,0,0,0,0,-1,1504,1135,0,0
287,-111,0,0,0,0,0,0,0,0,0,-1,1511,1135,0,0
294,-111,0,0,0,0,0,0,0,0,0,-1,1518,1135,0,0
301,-111,0,0,0,0,0,0,0,0,0,-1,1525,1135,0,0
308,-111,0,0,0,0,0,0,0,0,0,-1,1532,1135,0,0
315,-111,0,0,0,0,0,0,0,0,0,-1,1539,1135,0,0
322,-111,0,0,0,0,0,0,0,0,0,-1,1546,1135,0,0
329,-111,0,0,0,0,0,0,0,0,0,-1,1553,1135,0,0
336,-111,0,0,0,0,0,0,0,0,0,-1,1560,1135,0,0
343,-111,0,0,0,0,0,0,0,0,0,-1,1567,1135,0,0
350,-111,0,0,0,0,0,0,0,0,0,-1,1574,1135,0,0
357,-111,0,0,0,0,0,0,0,0,0,-1,1581,1135,0,0
364,-111,0,0,0,0,0,0,0,0,0,-1,1588,1135,0,0
371,-111,0,0,0,0,0,0,0,0,0,-1,1595,1135,0,0
378,-111,0,0,0,0,0,0,0,0,0,-1,1602,1135,0,0
385,-111,0,0,0,0,0,0,0,0,0,-1,1609,1135,0,0
392,-111,0,0,0,0,0,0,0,0,0,-1,1616,1135,0,0
399,-111,0,0,0,0,0,0,0,0,0,-1,1623,1135,0,0
406,-111,0,0,0,0,0,0,0,0,0,-1,1630,1135,0,0
413,-111,0,0,0,0,0,0,0,0,0,-1,1637,1135,0,0
420,-111,0,0,0,0,0,0,0,0,0,-1,1644,1135,0,0
427,-111,0,0,0,0,0,0,0,0,0,-1,1651,1135,0,0
434,-111,0,0,0,0,0,0,0,0,0,-1,1658,1135,0,0
441,-111,0,0,0,0,0,0,0,0,0,-1,1665,1135,0,0
448,-111,0,0,0,0,0,0,0,0,0,-1,1672,1135,0,0
455,-111,0,0,0,0,0,0,0,0,0,-1,1679,1135,0,0
462,-111,0,0,0,0,0,0,0,0,0,-1,1686,1135,0,0
469,-111,0,0,0,0,0,0,0,0,0,-1,1693,1135,0,0
476,-111,0,0,0,0,0,0,0,0,0,-1,1700,1135,0,0
483,-111,0,0,0,0,0,0,0,0,0,-1,1707,1135,0,0
490,-111,0,0,0,0,0,0,0,0,0,-1,1714,1135,0,0
497,-111,0,0,0,0,0,0,0,0,0,-1,1721,1135,0,0
504,-111,0,0,0,0,0,0,0,0,0,-1,1728,1135,0,0
511,-111,0,0,0,0,0,0,0,0,0,-1,1735,1135,0,0
518,-111,0,0,0,0,0,0,0,0,0,-1,1742,1135,0,0
525,-111,0,0,0,0,0,0,0,0,0,-1,1749,1135,0,0
532,-111,0,0,0,0,0,0,0,0,0,-1,1756,1135,0,0
539,-111,0,0,0,0,0,0,0,0,0,-1,1763,1135,0,0
546,-111,0,0,0,0,0,0,0,0,0,-1,1770,1135,0,0
553,-111,0,0,0,0,0,0,0,0,0,-1,1777,1135,0,0
560,-111,0,0,0,0,0,0,0,0,0,-1,1784,1135,0,0
567,-111,0,0,0,0,0,0,0,0,0,-1,1791,1135,0,0
574,-111,0,0,0,0,0,0,0,0,0,-1,1798,1135,0,0
581,-111,0,0,0,0,0,0,0,0,0,-1,1805,1135,0,0
588,-111,0,0,0,0,0,0,0,0,0,-1,1812,1135,0,0
595,-111,0,0,0,0,0,0,0,0,0,-1,1819,1135,0,0
602,-111,0,0,0,0,0,0,0,0,0,-1,1826,1135,0,0
609,-111,0,0,0,0,0,0,0,0,0,-1,1833,1135,0,0
616,-111,0,0,0,0,0,0,0,0,0,-1,1840,1135,0,0
623,-111,0,0,0,0,0,0,0,0,0,-1,1847,1135,0,0
630,-111,0,0,0,0,0,0,0,0,0,-1,1854,1135,0,0
637,-111,0,0,0,0,0,0,0,0,0,-1,1861,1135,0,0
644,-111,53.8812,2.72717,0.00236179,-0.00701502,-0.000105863,0.00236298,-0.00701621,-0.0112879,0.00563285,0.0410774,1868,1135,53.8813,-2.72714
651,-111,54.0367,2.97498,0.00137715,-0.00541223,-1.93728e-05,0.0013772,-0.00541229,-0.00285337,0.00414425,0.0436552,1875,1135,54.0368,-2.97499
658,-111,54.3906,2.73474,0.00103628,-0.00417509,-0.000115128,0.00103882,-0.00417763,-0.0220774,0.00318828,0.0469704,1882,1135,54.3906,-2.73479
665,-111,54.2025,2.82947,0.000864778,-0.00305897,-0.000195886,0.000874533,-0.00306872,-0.0497584,0.00239124,0.0467631,1889,1135,54.2025,-2.82943
672,-111,53.9503,2.51648,0.000765721,-0.00206706,-0.000301773,0.000797511,-0.00209885,-0.10496,0.00172756,0.045871,1896,1135,53.9504,-2.51652
679,-111,53.9581,2.47522,0.000555746,-0.00142914,-0.000353721,0.000616898,-0.00149029,-0.171189,0.00125094,0.042957,1903,1135,53.9581,-2.47527
686,-111,53.9308,2.82678,0.000506017,-0.00116189,-0.000282352,0.000552518,-0.00120839,-0.163228,0.0010399,0.0413788,1910,1135,53.9308,-2.82673
693,-111,53.8783,2.80066,0.000497261,-0.00100707,-0.000183255,0.000519263,-0.00102907,-0.11949,0.00090994,0.036011,1917,1135,53.8782,-2.80068
700,-111,54.0077,2.62415,0.000437105,-0.000900896,-5.1147e-05,0.000439057,-0.000902848,-0.0381522,0.000790023,0.0236959,1924,1135,54.0076,-2.62409
707,-111,54.0171,2.65479,0,0,0,0,0,0,0,-1,1931,1135,54.0171,-2.65478
714,-111,45.1654,7.39746,0,0,0,0,0,0,0,-1,1938,1135,45.1654,-7.39745
721,-111,49.502,7.88184,0,0,0,0,0,0,0,-1,1945,1135,49.5019,-7.88187
728,-111,49.5958,7.31995,-0.00063247,-5.48472e-05,0.0010443,0.00073984,-0.00142716,0.920306,0.00127192,0.0248106,1952,1135,49.5958,-7.31996
735,-111,49.6293,6.95032,-0.00118975,0.000303051,0.0010056,0.000808983,-0.00169568,1.10466,0.00147597,0.0252494,1959,1135,49.6293,-6.95037
742,-111,49.5498,6.61816,-0.0017287,0.000690499,0.00122287,0.00120094,-0.00223914,1.17537,0.00201606,0.0163215,1966,1135,49.5498,-6.61813
749,-111,49.5187,6.21167,-0.00327782,0.00163623,0.0012963,0.00195721,-0.00359881,1.32806,0.00325411,0.0173102,1973,1135,49.5186,-6.21171
756,-111,49.4941,5.81226,-0.00612825,0.00276791,0.000963272,0.00287102,-0.00623136,1.46416,0.00537331,0.0170678,1980,1135,49.4942,-5.81222
763,-111,49.4652,5.45227,-0.0104302,0.00392962,-0.000265922,0.00393454,-0.0104351,-1.55229,0.00857461,0.0153898,1987,1135,49.4652,-5.45223
770,-111,49.4419,5.07776,-0.0159146,0.00529747,-0.0019659,0.00547813,-0.0160953,-1.47916,0.0129484,0.0131058,1994,1135,49.4419,-5.07773
777,-111,49.2852,4.66272,-0.0225599,0.00648392,-0.00414398,0.00706361,-0.0231396,-1.43181,0.0182426,0.025975,2001,1135,49.2853,-4.66278
784,-111,49.094,4.24817,-0.0306106,0.00739556,-0.00684962,0.00859234,-0.0318073,-1.39782,0.0245749,0.0425587,2008,1135,49.094,-4.24812
791,-111,48.9551,3.88147,0,0,0,0,0,0,0,-1,2015,1135,48.9551,-3.88146
798,-111,49.575,3.47327,-0.0524663,0.00746092,-0.0144393,0.0107585,-0.055764,-1.34627,0.0412327,0.0470488,2022,1135,49.5748,-3.47321
805,-111,48.5635,2.40955,-0.0667545,0.00596613,-0.0195036,0.0108667,-0.0716551,-1.32463,0.0517738,0.0445582,2029,1135,48.5636,-2.40951
812,-111,47.5405,0.950806,-0.0837144,0.00280377,-0.0253678,0.00969322,-0.0906038,-1.30561,0.0638792,0.044896,2036,1135,47.5406,-0.950825
-700,-118,0,0,0,0,0,0,0,0,0,-1,524,1142,0,0
-693,-118,-39.7379,2.67725,-0.0526782,0.228157,-0.146179,0.290435,-0.114956,-1.16805,0.241251,0.0489342,531,1142,-39.7379,-2.67723
-686,-118,-39.8336,2.88867,-0.0470783,0.191518,-0.122819,0.243441,-0.099001,-1.17083,0.203487,0.0480667,538,1142,-39.8336,-2.88865
-679,-118,-40.1547,3.34961,-0.040837,0.157056,-0.101039,0.199528,-0.0833094,-1.17287,0.167829,0.0470082,545,1142,-40.1547,-3.34958
-672,-118,-40.8999,3.49731,0,0,0,0,0,0,0,-1,552,1142,-40.8999,-3.49729
-665,-118,-41.4756,3.6687,0,0,0,0,0,0,0,-1,559,1142,-41.4756,-3.66876
-658,-118,-35.5791,0.272949,0,0,0,0,0,0,0,-1,566,1142,-35.5791,-0.273007
-651,-118,-35.3648,1.00659,-0.0175167,0.053598,-0.0355097,0.0682927,-0.0322114,-1.17843,0.0592594,0.0476536,573,1142,-35.3648,-1.00664
-644,-118,-35.2886,1.85461,-0.0130418,0.0371433,-0.0249586,0.0474424,-0.0233409,-1.17944,0.0416489,0.0333868,580,1142,-35.2886,-1.85463
-637,-118,-35.4781,2.34729,-0.00914607,0.0236247,-0.0160479,0.0301743,-0.0156957,-1.1833,0.0269192,0.0176337,587,1142,-35.4782,-2.34732
-630,-118,-35.5151,2.74109,-0.00551278,0.0123513,-0.00902395,0.0161162,-0.00927771,-1.17554,0.0148374,0.0236003,594,1142,-35.5151,-2.74106
-623,-118,-35.5137,3.18896,-0.00251705,0.00470083,-0.00423237,0.00665403,-0.00447025,-1.13843,0.00646373,0.0195493,601,1142,-35.5137,-3.18899
-616,-118,-35.6201,3.61169,-0.000712554,0.0011849,-0.00182985,0.00229734,-0.001825,-1.02456,0.00238523,0.0248375,608,1142,-35.6201,-3.61174
-609,-118,-35.8762,3.86475,0.000463118,-6.62251e-05,-0.00134263,0.00156692,-0.00117002,-0.688081,0.0015857,0.0389545,615,1142,-35.8762,-3.86474
-602,-118,-35.7271,4.58801,0.00116488,-0.000686984,-0.00153522,0.00203178,-0.00155388,-0.51404,0.0020763,0.0378461,622,1142,-35.7271,-4.58806
-595,-118,-35.9114,5.3075,0,0,0,0,0,0,0,-1,629,1142,-35.9114,-5.30755
-588,-118,-34.6521,5.64136,0,0,0,0,0,0,0,-1,636,1142,-34.6521,-5.64138
-581,-118,-24.6116,3.89648,0,0,0,0,0,0,0,-1,643,1142,-24.6116,-3.89645
-574,-118,-40.3539,0.72644,0,0,0,0,0,0,0,-1,650,1142,-40.3539,-0.726478
-567,-118,-40.4054,1.04834,0.00130265,-0.00184814,-0.00143175,0.00185605,-0.00240154,-0.368833,0.00246484,0.042106,657,1142,-40.4054,-1.04837
-560,-118,-40.4861,1.20984,0.00153672,-0.00190552,-0.00140699,0.00203863,-0.00240743,-0.342656,0.00256987,0.0354043,664,1142,-40.4861,-1.20985
-553,-118,-40.2704,0.540527,0.00110975,-0.00169451,-0.00152391,0.00177844,-0.0023632,-0.413498,0.0023991,0.0400364,671,1142,-40.2704,-0.540469
-546,-118,-40.1611,0.743164,0.000467659,-0.00112504,-0.00136387,0.00125065,-0.00190803,-0.521154,0.00183678,0.0387716,678,1142,-40.1611,-0.743111
-539,-118,-40.4211,0.878418,0.00075628,-0.00021271,-0.000501509,0.000969099,-0.000425529,-0.401326,0.000825324,0.0394954,685,1142,-40.4211,-0.878428
-532,-118,-40.6331,0.966919,0.00165566,0.000984157,0.000572752,0.00198382,0.000656,0.520291,0.00116704,0.0410826,692,1142,-40.633,-0.966955
-525,-118,-40.6087,1.04102,0.00292163,0.00253192,0.00157484,0.00431363,0.00113992,0.723846,0.0025811,0.0434455,699,1142,-40.6087,-1.04103
-518,-118,0,0,0,0,0,0,0,0,0,-1,706,1142,0,0
-511,-118,0,0,0,0,0,0,0,0,0,-1,713,1142,0,0
-504,-118,0,0,0,0,0,0,0,0,0,-1,720,1142,0,0
-497,-118,0,0,0,0,0,0,0,0,0,-1,727,1142,0,0
-490,-118,0,0,0,0,0,0,0,0,0,-1,734,1142,0,0
-483,-118,0,0,0,0,0,0,0,0,0,-1,741,1142,0,0
-476,-118,0,0,0,0,0,0,0,0,0,-1,748,1142,0,0
-469,-118,0,0,0,0,0,0,0,0,0,-1,755,1142,0,0
-462,-118,0,0,0,0,0,0,0,0,0,-1,762,1142,0,0
-455,-118,0,0,0,0,0,0,0,0,0,-1,769,1142,0,0
-448,-118,0,0,0,0,0,0,0,0,0,-1,776,1142,0,0
-441,-118,0,0,0,0,0,0,0,0,0,-1,783,1142,0,0
-434,-118,0,0,0,0,0,0,0,0,0,-1,790,1142,0,0
-427,-118,0,0,0,0,0,0,0,0,0,-1,797,1142,0,0
-420,-118,0,0,0,0,0,0,0,0,0,-1,804,1142,0,0
-413,-118,0,0,0,0,0,0,0,0,0,-1,811,1142,0,0
-406,-118,0,0,0,0,0,0,0,0,0,-1,818,1142,0,0
-399,-118,0,0,0,0,0,0,0,0,0,-1,825,1142,0,0
-392,-118,0,0,0,0,0,0,0,0,0,-1,832,1142,0,0
-385,-118,0,0,0,0,0,0,0,0,0,-1,839,1142,0,0
-378,-118,0,0,0,0,0,0,0,0,0,-1,846,1142,0,0
-371,-118,0,0,0,0,0,0,0,0,0,-1,853,1142,0,0
-364,-118,0,0,0,0,0,0,0,0,0,-1,860,1142,0,0
-357,-118,0,0,0,0,0,0,0,0,0,-1,867,1142,0,0
-350,-118,0,0,0,0,0,0,0,0,0,-1,874,1142,0,0
-343,-118,0,0,0,0,0,0,0,0,0,-1,881,1142,0,0
-336,-118,0,0,0,0,0,0,0,0,0,-1,888,1142,0,0
-329,-118,0,0,0,0,0,0,0,0,0,-1,895,1142,0,0
-322,-118,0,0,0,0,0,0,0,0,0,-1,902,1142,0,0
-315,-118,0,0,0,0,0,0,0,0,0,-1,909,1142,0,0
-308,-118,0,0,0,0,0,0,0,0,0,-1,916,1142,0,0
-301,-118,0,0,0,0,0,0,0,0,0,-1,923,1142,0,0
-294,-118,0,0,0,0,0,0,0,0,0,-1,930,1142,0,0
-287,-118,0,0,0,0,0,0,0,0,0,-1,937,1142,0,0
-280,-118,0,0,0,0,0,0,0,0,0,-1,944,1142,0,0
-273,-118,0,0,0,0,0,0,0,0,0,-1,951,1142,0,0
-266,-118,0,0,0,0,0,0,0,0,0,-1,958,1142,0,0
-259,-118,0,0,0,0,0,0,0,0,0,-1,965,1142,0,0
-252,-118,0,0,0,0,0,0,0,0,0,-1,972,1142,0,0
-245,-118,0,0,0,0,0,0,0,0,0,-1,979,1142,0,0
-238,-118,0,0,0,0,0,0,0,0,0,-1,986,1142,0,0
-231,-118,0,0,0,0,0,0,0,0,0,-1,993,1142,0,0
-224,-118,0,0,0,0,0,0,0,0,0,-1,1000,1142,0,0
-217,-118,0,0,0,0,0,0,0,0,0,-1,1007,1142,0,0
-210,-118,0,0,0,0,0,0,0,0,0,-1,1014,1142,0,0
-203,-118,0,0,0,0,0,0,0,0,0,-1,1021,1142,0,0
-196,-118,0,0,0,0,0,0,0,0,0,-1,1028,1142,0,0
-189,-118,0,0,0,0,0,0,0,0,0,-1,1035,1142,0,0
-182,-118,0,0,0,0,0,0,0,0,0,-1,1042,1142,0,0
-175,-118,0,0,0,0,0,0,0,0,0,-1,1049,1142,0,0
-168,-118,0,0,0,0,0,0,0,0,0,-1,1056,1142,0,0
-161,-118,0,0,0,0,0,0,0,0,0,-1,1063,1142,0,0
-154,-118,0,0,0,0,0,0,0,0,0,-1,1070,1142,0,0
-147,-118,0,0,0,0,0,0,0,0,0,-1,1077,1142,0,0
-140,-118,0,0,0,0,0,0,0,0,0,-1,1084,1142,0,0
-133,-118,0,0,0,0,0,0,0,0,0,-1,1091,1142,0,0
-126,-118,0,0,0,0,0,0,0,0,0,-1,1098,1142,0,0
-119,-118,0,0,0,0,0,0,0,0,0,-1,1105,1142,0,0
-112,-118,0,0,0,0,0,0,0,0,0,-1,1112,1142,0,0
-105,-118,0,0,0,0,0,0,0,0,0,-1,1119,1142,0,0
-98,-118,0,0,0,0,0,0,0,0,0,-1,1126,1142,0,0
-91,-118,0,0,0,0,0,0,0,0,0,-1,1133,1142,0,0
-84,-118,0,0,0,0,0,0,0,0,0,-1,1140,1142,0,0
-77,-118,0,0,0,0,0,0,0,0,0,-1,1147,1142,0,0
-70,-118,0,0,0,0,0,0,0,0,0,-1,1154,1142,0,0
-63,-118,0,0,0,0,0,0,0,0,0,-1,1161,1142,0,0
-56,-118,0,0,0,0,0,0,0,0,0,-1,1168,1142,0,0
-49,-118,0,0,0,0,0,0,0,0,0,-1,1175,1142,0,0
-42,-118,0,0,0,0,0,0,0,0,0,-1,1182,1142,0,0
-35,-118,0,0,0,0,0,0,0,0,0,-1,1189,1142,0,0
-28,-118,0,0,0,0,0,0,0,0,0,-1,1196,1142,0,0
-21,-118,0,0,0,0,0,0,0,0,0,-1,1203,1142,0,0
-14,-118,0,0,0,0,0,0,0,0,0,-1,1210,1142,0,0
-7,-118,0,0,0,0,0,0,0,0,0,-1,1217,1142,0,0
0,-118,0,0,0,0,0,0,0,0,0,-1,1224,1142,0,0
7,-118,0,0,0,0,0,0,0,0,0,-1,1231,1142,0,0
14,-118,0,0,0,0,0,0,0,0,0,-1,1238,1142,0,0
21,-118,0,0,0,0,0,0,0,0,0,-1,1245,1142,0,0
28,-118,0,0,0,0,0,0,0,0,0,-1,1252,1142,0,0
35,-118,0,0,0,0,0,0,0,0,0,-1,1259,1142,0,0
42,-118,0,0,0,0,0,0,0,0,0,-1,1266,1142,0,0
49,-118,0,0,0,0,0,0,0,0,0,-1,1273,1142,0,0
56,-118,0,0,0,0,0,0,0,0,0,-1,1280,1142,0,0
63,-118,0,0,0,0,0,0,0,0,0,-1,1287,1142,0,0
70,-118,0,0,0,0,0,0,0,0,0,-1,1294,1142,0,0
77,-118,0,0,0,0,0,0,0,0,0,-1,1301,1142,0,0
84,-118,0,0,0,0,0,0,0,0,0,-1,1308,1142,0,0
91,-118,0,0,0,0,0,0,0,0,0,-1,1315,1142,0,0
98,-118,0,0,0,0,0,0,0,0,0,-1,1322,1142,0,0
105,-118,0,0,0,0,0,0,0,0,0,-1,1329,1142,0,0
112,-118,0,0,0,0,0,0,0,0,0,-1,1336,1142,0,0
119,-118,0,0,0,0,0,0,0,0,0,-1,1343,1142,0,0
126,-118,0,0,0,0,0,0,0,0,0,-1,1350,1142,0,0
133,-118,0,0,0,0,0,0,0,0,0,-1,1357,1142,0,0
140,-118,0,0,0,0,0,0,0,0,0,-1,1364,1142,0,0
147,-118,0,0,0,0,0,0,0,0,0,-1,1371,1142,0,0
154,-118,0,0,0,0,0,0,0,0,0,-1,1378,1142,0,0
161,-118,0,0,0,0,0,0,0,0,0,-1,1385,1142,0,0
168,-118,0,0,0,0,0,0,0,0,0,-1,1392,1142,0,0
175,-118,0,0,0,0,0,0,0,0,0,-1,1399,1142,0,0
182,-118,0,0,0,0,0,0,0,0,0,-1,1406,1142,0,0
189,-118,0,0,0,0,0,0,0,0,0,-1,1413,1142,0,0
196,-118,0,0,0,0,0,0,0,0,0,-1,1420,1142,0,0
203,-118,0,0,0,0,0,0,0,0,0,-1,1427,1142,0,0
210,-118,0,0,0,0,0,0,0,0,0,-1,1434,1142,0,0
217,-118,0,0,0,0,0,0,0,0,0,-1,1441,1142,0,0
224,-118,0,0,0,0,0,0,0,0,0,-1,1448,1142,0,0
231,-118,0,0,0,0,0,0,0,0,0,-1,1455,1142,0,0
238,-118,0,0,0,0,0,0,0,0,0,-1,1462,1142,0,0
245,-118,0,0,0,0,0,0,0,0,0,-1,1469,1142,0,0
252,-118,0,0,0,0,0,0,0,0,0,-1,1476,1142,0,0
259,-118,0,0,0,0,0,0,0,0,0,-1,1483,1142,0,0
266,-118,0,0,0,0,0,0,0,0,0,-1,1490,1142,0,0
273,-118,0,0,0,0,0,0,0,0,0,-1,1497,1142,0,0
280,-118,0,0,0,0,0,0,0,0,0,-1,1504,1142,0,0
287,-118,0,0,0,0,0,0,0,0,0,-1,1511,1142,0,0
294,-118,0,0,0,0,0,0,0,0,0,-1,1518,1142,0,0
301,-118,0,0,0,0,0,0,0,0,0,-1,1525,1142,0,0
308,-118,0,0,0,0,0,0,0,0,0,-1,1532,1142,0,0
315,-118,0,0,0,0,0,0,0,0,0,-1,1539,1142,0,0
322,-118,0,0,0,0,0,0,0,0,0,-1,1546,1142,0,0
329,-118,0,0,0,0,0,0,0,0,0,-1,1553,1142,0,0
336,-118,0,0,0,0,0,0,0,0,0,-1,1560,1142,0,0
343,-118,0,0,0,0,0,0,0,0,0,-1,1567,1142,0,0
350,-118,0,0,0,0,0,0,0,0,0,-1,1574,1142,0,0
357,-118,0,0,0,0,0,0,0,0,0,-1,1581,1142,0,0
364,-118,0,0,0,0,0,0,0,0,0,-1,1588,1142,0,0
371,-118,0,0,0,0,0,0,0,0,0,-1,1595,1142,0,0
378,-118,0,0,0,0,0,0,0,0,0,-1,1602,1142,0,0
385,-118,0,0,0,0,0,0,0,0,0,-1,1609,1142,0,0
392,-118,0,0,0,0,0,0,0,0,0,-1,1616,1142,0,0
399,-118,0,0,0,0,0,0,0,0,0,-1,1623,1142,0,0
406,-118,0,0,0,0,0,0,0,0,0,-1,1630,1142,0,0
413,-118,0,0,0,0,0,0,0,0,0,-1,1637,1142,0,0
420,-118,0,0,0,0,0,0,0,0,0,-1,1644,1142,0,0
427,-118,0,0,0,0,0,0,0,0,0,-1,1651,1142,0,0
434,-118,0,0,0,0,0,0,0,0,0,-1,1658,1142,0,0
441,-118,0,0,0,0,0,0,0,0,0,-1,1665,1142,0,0
448,-118,0,0,0,0,0,0,0,0,0,-1,1672,1142,0,0
455,-118,0,0,0,0,0,0,0,0,0,-1,1679,1142,0,0
462,-118,0,0,0,0,0,0,0,0,0,-1,1686,1142,0,0
469,-118,0,0,0,0,0,0,0,0,0,-1,1693,1142,0,0
476,-118,0,0,0,0,0,0,0,0,0,-1,1700,1142,0,0
483,-118,0,0,0,0,0,0,0,0,0,-1,1707,1142,0,0
490,-118,0,0,0,0,0,0,0,0,0,-1,1714,1142,0,0
497,-118,0,0,0,0,0,0,0,0,0,-1,1721,1142,0,0
504,-118,0,0,0,0,0,0,0,0,0,-1,1728,1142,0,0
511,-118,0,0,0,0,0,0,0,0,0,-1,1735,1142,0,0
518,-118,0,0,0,0,0,0,0,0,0,-1,1742,1142,0,0
525,-118,0,0,0,0,0,0,0,0,0,-1,1749,1142,0,0
532,-118,0,0,0,0,0,0,0,0,0,-1,1756,1142,0,0
539,-118,0,0,0,0,0,0,0,0,0,-1,1763,1142,0,0
546,-118,0,0,0,0,0,0,0,0,0,-1,1770,1142,0,0
553,-118,0,0,0,0,0,0,0,0,0,-1,1777,1142,0,0
560,-118,0,0,0,0,0,0,0,0,0,-1,1784,1142,0,0
567,-118,0,0,0,0,0,0,0,0,0,-1,1791,1142,0,0
574,-118,0,0,0,0,0,0,0,0,0,-1,1798,1142,0,0
581,-118,0,0,0,0,0,0,0,0,0,-1,1805,1142,0,0
588,-118,0,0,0,0,0,0,0,0,0,-1,1812,1142,0,0
595,-118,0,0,0,0,0,0,0,0,0,-1,1819,1142,0,0
602,-118,0,0,0,0,0,0,0,0,0,-1,1826,1142,0,0
609,-118,0,0,0,0,0,0,0,0,0,-1,1833,1142,0,0
616,-118,0,0,0,0,0,0,0,0,0,-1,1840,1142,0,0
623,-118,0,0,0,0,0,0,0,0,0,-1,1847,1142,0,0
630,-118,0,0,0,0,0,0,0,0,0,-1,1854,1142,0,0
637,-118,0,0,0,0,0,0,0,0,0,-1,1861,1142,0,0
644,-118,53.9783,2.9032,0,0,0,0,0,0,0,-1,1868,1142,53.9782,-2.90324
651,-118,54.1719,3.09485,0,0,0,0,0,0,0,-1,1875,1142,54.1719,-3.09482
658,-118,54.6476,2.84851,0,0,0,0,0,0,0,-1,1882,1142,54.6476,-2.84852
665,-118,53.9153,2.98291,0.000953796,-0.00297622,-0.000334967,0.000982141,-0.00300456,-0.0844216,0.00239842,0.0419215,1889,1142,53.9153,-2.98297
672,-118,53.8531,2.6637,0.000776939,-0.00181006,-0.000462016,0.000856975,-0.0018901,-0.17153,0.00162298,0.0436521,1896,1142,53.8531,-2.66367
679,-118,53.9181,2.66418,0.000511177,-0.00111587,-0.000500734,0.00065293,-0.00125763,-0.275874,0.00112133,0.0421652,1903,1142,53.9181,-2.66423
686,-118,53.8492,2.86621,0.000428192,-0.000856461,-0.000415181,0.000550691,-0.000978961,-0.286909,0.000894608,0.0375411,1910,1142,53.8492,-2.86625
693,-118,53.8298,2.69397,0.000376397,-0.000704463,-0.000300773,0.000454456,-0.000782522,-0.253927,0.000722494,0.0322073,1917,1142,53.8299,-2.69402
700,-118,53.9697,2.65063,0.000284136,-0.000631576,-0.000153231,0.000309097,-0.000656536,-0.161476,0.000569411,0.0175861,1924,1142,53.9698,-2.65062
707,-118,54.0687,2.77551,0,0,0,0,0,0,0,-1,1931,1142,54.0687,-2.77553
714,-118,49.0527,8.45215,0,0,0,0,0,0,0,-1,1938,1142,49.0528,-8.45221
721,-118,49.1676,7.91565,0,0,0,0,0,0,0,-1,1945,1142,49.1676,-7.91568
728,-118,49.1689,7.44849,-0.000737488,-1.83839e-05,0.00096322,0.000650203,-0.00140607,0.96403,0.00121363,0.0217263,1952,1142,49.1689,-7.44847
735,-118,49.1263,7.05933,-0.0012542,0.000255595,0.000962032,0.000723553,-0.00172216,1.11807,0.00145073,0.0208899,1959,1142,49.1263,-7.05927
742,-118,49.1007,6.70654,-0.00185876,0.000474841,0.00118687,0.000972397,-0.00235632,1.17383,0.00197642,0.0272916,1966,1142,49.1007,-6.70655
749,-118,49.052,6.28345,-0.00344264,0.00129861,0.00123572,0.00160135,-0.00374538,1.33054,0.00316858,0.0216817,1973,1142,49.052,-6.28339
756,-118,49.0679,5.86279,-0.00641918,0.00251804,0.000784246,0.00258634,-0.00648747,1.48393,0.00539775,0.018597,1980,1142,49.0679,-5.86279
763,-118,49.0819,5.42773,-0.0110569,0.00378117,-0.000681231,0.00381238,-0.0110881,-1.52501,0.00893809,0.0112944,1987,1142,49.0819,-5.42767
770,-118,49.0101,5.06458,-0.0168599,0.00522773,-0.00264308,0.00553961,-0.0171718,-1.45334,0.0136737,0.0141604,1994,1142,49.0102,-5.06459
777,-118,48.874,4.68787,-0.0238744,0.00653926,-0.00514538,0.00738617,-0.0247213,-1.40766,0.019417,0.0298663,2001,1142,48.874,-4.68784
784,-118,48.7651,4.17883,-0.0324608,0.00767,-0.0083006,0.00931912,-0.0341099,-1.37468,0.0264004,0.0468947,2008,1142,48.765,-4.17881
791,-118,48.698,3.71362,0,0,0,0,0,0,0,-1,2015,1142,48.6981,-3.71363
798,-118,48.5071,3.36792,-0.0558091,0.0085835,-0.0172982,0.0129362,-0.0601618,-1.32429,0.0450434,0.0478754,2022,1142,48.5072,-3.36797
805,-118,47.813,2.29956,-0.0710776,0.00785127,-0.0234124,0.0142734,-0.0774998,-1.30307,0.0570229,0.0482938,2029,1142,47.8131,-2.29958
812,-118,46.4104,0.599854,-0.089183,0.00578327,-0.0306323,0.0148066,-0.0982064,-1.28433,0.0709235,0.0483423,2036,1142,46.4104,-0.59983
-700,-125,0,0,0,0,0,0,0,0,0,-1,524,1149,0,0
-693,-125,-37.3927,2.1438,0,0,0,0,0,0,0,-1,531,1149,-37.3927,-2.14379
-686,-125,-37.8103,1.92932,0,0,0,0,0,0,0,-1,538,1149,-37.8103,-1.9293
-679,-125,-38.3563,2.32373,-0.0459084,0.164018,-0.1083,0.209873,-0.0917636,-1.17027,0.178545,0.0475374,545,1149,-38.3563,-2.32371
-672,-125,-38.9479,2.6405,-0.0386204,0.132381,-0.0875995,0.16929,-0.075529,-1.17204,0.14476,0.0488073,552,1149,-38.948,-2.64056
-665,-125,-39.5209,2.91394,-0.0315569,0.103908,-0.0689417,0.132822,-0.0604715,-1.17367,0.114174,0.0466141,559,1149,-39.5209,-2.91393
-658,-125,-34.7966,0.922119,0,0,0,0,0,0,0,-1,566,1149,-34.7966,-0.922128
-651,-125,-34.7648,1.43542,-0.0193543,0.0579235,-0.038781,0.0740288,-0.0354596,-1.17718,0.0645073,0.0461011,573,1149,-34.7649,-1.43544
-644,-125,-34.8788,1.88013,-0.0141652,0.040433,-0.0272606,0.0517134,-0.0254457,-1.17845,0.0454002,0.0315167,580,1149,-34.8788,-1.88018
-637,-125,-34.9978,2.33521,-0.00969469,0.0258954,-0.0174849,0.033048,-0.0168473,-1.18249,0.0293088,0.0151028,587,1149,-34.9978,-2.33517
-630,-125,-35.0023,2.77075,-0.0056671,0.0137567,-0.00974564,0.0178034,-0.00971378,-1.17723,0.0161143,0.0156779,594,1149,-35.0023,-2.7707
-623,-125,-35.0197,3.21997,-0.00236929,0.00522925,-0.00431238,0.00717725,-0.00431728,-1.14651,0.0067045,0.0139721,601,1149,-35.0197,-3.21996
-616,-125,-35.0543,3.64075,-0.000428522,0.00115397,-0.00155575,0.00210813,-0.00138268,-1.02065,0.00202987,0.0249344,608,1149,-35.0543,-3.64074
-609,-125,-35.2313,3.98511,0.000573946,0.000159767,-0.00117675,0.00156169,-0.000827972,-0.698298,0.00140118,0.0458264,615,1149,-35.2313,-3.98507
-602,-125,-35.191,4.61475,0.00104986,-0.000402805,-0.00143482,0.00193171,-0.00128466,-0.551093,0.00186945,0.0372935,622,1149,-35.191,-4.61472
-595,-125,-35.3671,5.20667,0,0,0,0,0,0,0,-1,629,1149,-35.367,-5.20666
-588,-125,-35.1398,5.60461,0,0,0,0,0,0,0,-1,636,1149,-35.1398,-5.60465
-581,-125,-26.4055,4.83203,0,0,0,0,0,0,0,-1,643,1149,-26.4055,-4.83204
-574,-125,-37.674,0.655151,0,0,0,0,0,0,0,-1,650,1149,-37.674,-0.655195
-567,-125,-40.39,0.872559,0,0,0,0,0,0,0,-1,657,1149,-40.39,-0.872598
-560,-125,-40.48,0.924805,0.00112731,-0.00176363,-0.00153237,0.00178838,-0.0024247,-0.407287,0.00244166,0.0371663,664,1149,-40.48,-0.924825
-553,-125,-40.4219,0.869019,0.000853028,-0.00163178,-0.00172384,0.00173552,-0.00251428,-0.47315,0.00246732,0.039204,671,1149,-40.4218,-0.869013
-546,-125,-40.3679,0.734619,0.000507982,-0.00124555,-0.0016554,0.00150446,-0.00224203,-0.541859,0.00217697,0.0386875,678,1149,-40.3679,-0.734598
-539,-125,-40.5873,0.994263,0.0011754,-0.000550552,-0.000940569,0.0015889,-0.000964054,-0.414197,0.00148859,0.0401946,685,1149,-40.5873,-0.994301
-532,-125,-40.7043,1.0376,0.00261945,0.000456116,3.3672e-05,0.00261997,0.000455592,0.0155599,0.00161633,0.0391692,692,1149,-40.7043,-1.03759
-525,-125,-40.4627,0.849121,0.00450818,0.00187463,0.00094257,0.00481077,0.00157204,0.310631,0.00283252,0.0419237,699,1149,-40.4627,-0.849139
-518,-125,0,0,0,0,0,0,0,0,0,-1,706,1149,0,0
-511,-125,0,0,0,0,0,0,0,0,0,-1,713,1149,0,0
-504,-125,0,0,0,0,0,0,0,0,0,-1,720,1149,0,0
-497,-125,0,0,0,0,0,0,0,0,0,-1,727,1149,0,0
-490,-125,0,0,0,0,0,0,0,0,0,-1,734,1149,0,0
-483,-125,0,0,0,0,0,0,0,0,0,-1,741,1149,0,0
-476,-125,0,0,0,0,0,0,0,0,0,-1,748,1149,0,0
-469,-125,0,0,0,0,0,0,0,0,0,-1,755,1149,0,0
-462,-125,0,0,0,0,0,0,0,0,0,-1,762,1149,0,0
-455,-125,0,0,0,0,0,0,0,0,0,-1,769,1149,0,0
-448,-125,0,0,0,0,0,0,0,0,0,-1,776,1149,0,0
-441,-125,0,0,0,0,0,0,0,0,0,-1,783,1149,0,0
-434,-125,0,0,0,0,0,0,0,0,0,-1,790,1149,0,0
-427,-125,0,0,0,0,0,0,0,0,0,-1,797,1149,0,0
-420,-125,0,0,0,0,0,0,0,0,0,-1,804,1149,0,0
-413,-125,0,0,0,0,0,0,0,0,0,-1,811,1149,0,0
-406,-125,0,0,0,0,0,0,0,0,0,-1,818,1149,0,0
-399,-125,0,0,0,0,0,0,0,0,0,-1,825,1149,0,0
-392,-125,0,0,0,0,0,0,0,0,0,-1,832,1149,0,0
-385,-125,0,0,0,0,0,0,0,0,0,-1,839,1149,0,0
-378,-125,0,0,0,0,0,0,0,0,0,-1,846,1149,0,0
-371,-125,0,0,0,0,0,0,0,0,0,-1,853,1149,0,0
-364,-125,0,0,0,0,0,0,0,0,0,-1,860,1149,0,0
-357,-125,0,0,0,0,0,0,0,0,0,-1,867,1149,0,0
-350,-125,0,0,0,0,0,0,0,0,0,-1,874,1149,0,0
-343,-125,0,0,0,0,0,0,0,0,0,-1,881,1149,0,0
-336,-125,0,0,0,0,0,0,0,0,0,-1,888,1149,0,0
-329,-125,0,0,0,0,0,0,0,0,0,-1,895,1149,0,0
-322,-125,0,0,0,0,0,0,0,0,0,-1,902,1149,0,0
-315,-125,0,0,0,0,0,0,0,0,0,-1,909,1149,0,0
-308,-125,0,0,0,0,0,0,0,0,0,-1,916,1149,0,0
-301,-125,0,0,0,0,0,0,0,0,0,-1,923,1149,0,0
-294,-125,0,0,0,0,0,0,0,0,0,-1,930,1149,0,0
-287,-125,0,0,0,0,0,0,0,0,0,-1,937,1149,0,0
-280,-125,0,0,0,0,0,0,0,0,0,-1,944,1149,0,0
-273,-125,0,0,0,0,0,0,0,0,0,-1,951,1149,0,0
-266,-125,0,0,0,0,0,0,0,0,0,-1,958,1149,0,0
-259,-125,0,0,0,0,0,0,0,0,0,-1,965,1149,0,0
-252,-125,0,0,0,0,0,0,0,0,0,-1,972,1149,0,0
-245,-125,0,0,0,0,0,0,0,0,0,-1,979,1149,0,0
-238,-125,0,0,0,0,0,0,0,0,0,-1,986,1149,0,0
-231,-125,0,0,0,0,0,0,0,0,0,-1,993,1149,0,0
-224,-125,0,0,0,0,0,0,0,0,0,-1,1000,1149,0,0
-217,-125,0,0,0,0,0,0,0,0,0,-1,1007,1149,0,0
-210,-125,0,0,0,0,0,0,0,0,0,-1,1014,1149,0,0
-203,-125,0,0,0,0,0,0,0,0,0,-1,1021,1149,0,0
-196,-125,0,0,0,0,0,0,0,0,0,-1,1028,1149,0,0
-189,-125,0,0,0,0,0,0,0,0,0,-1,1035,1149,0,0
-182,-125,0,0,0,0,0,0,0,0,0,-1,1042,1149,0,0
-175,-125,0,0,0,0,0,0,0,0,0,-1,1049,1149,0,0
-168,-125,0,0,0,0,0,0,0,0,0,-1,1056,1149,0,0
-161,-125,0,0,0,0,0,0,0,0,0,-1,1063,1149,0,0
-154,-125,0,0,0,0,0,0,0,0,0,-1,1070,1149,0,0
-147,-125,0,0,0,0,0,0,0,0,0,-1,1077,1149,0,0
-140,-125,0,0,0,0,0,0,0,0,0,-1,1084,1149,0,0
-133,-125,0,0,0,0,0,0,0,0,0,-1,1091,1149,0,0
-126,-125,0,0,0,0,0,0,0,0,0,-1,1098,1149,0,0
-119,-125,0,0,0,0,0,0,0,0,0,-1,1105,1149,0,0
-112,-125,0,0,0,0,0,0,0,0,0,-1,1112,1149,0,0
-105,-125,0,0,0,0,0,0,0,0,0,-1,1119,1149,0,0
-98,-125,0,0,0,0,0,0,0,0,0,-1,1126,1149,0,0
-91,-125,0,0,0,0,0,0,0,0,0,-1,1133,1149,0,0
-84,-125,0,0,0,0,0,0,0,0,0,-1,1140,1149,0,0
-77,-125,0,0,0,0,0,0,0,0,0,-1,1147,1149,0,0
-70,-125,0,0,0,0,0,0,0,0,0,-1,1154,1149,0,0
-63,-125,0,0,0,0,0,0,0,0,0,-1,1161,1149,0,0
-56,-125,0,0,0,0,0,0,0,0,0,-1,1168,1149,0,0
-49,-125,0,0,0,0,0,0,0,0,0,-1,1175,1149,0,0
-42,-125,0,0,0,0,0,0,0,0,0,-1,1182,1149,0,0
-35,-125,0,0,0,0,0,0,0,0,0,-1,1189,1149,0,0
-28,-125,0,0,0,0,0,0,0,0,0,-1,1196,1149,0,0
-21,-125,0,0,0,0,0,0,0,0,0,-1,1203,1149,0,0
-14,-125,0,0,0,0,0,0,0,0,0,-1,1210,1149,0,0
-7,-125,0,0,0,0,0,0,0,0,0,-1,1217,1149,0,0
0,-125,0,0,0,0,0,0,0,0,0,-1,1224,1149,0,0
7,-125,0,0,0,0,0,0,0,0,0,-1,1231,1149,0,0
14,-125,0,0,0,0,0,0,0,0,0,-1,1238,1149,0,0
21,-125,0,0,0,0,0,0,0,0,0,-1,1245,1149,0,0
28,-125,0,0,0,0,0,0,0,0,0,-1,1252,1149,0,0
35,-125,0,0,0,0,0,0,0,0,0,-1,1259,1149,0,0
42,-125,0,0,0,0,0,0,0,0,0,-1,1266,1149,0,0
49,-125,0,0,0,0,0,0,0,0,0,-1,1273,1149,0,0
56,-125,0,0,0,0,0,0,0,0,0,-1,1280,1149,0,0
63,-125,0,0,0,0,0,0,0,0,0,-1,1287,1149,0,0
70,-125,0,0,0,0,0,0,0,0,0,-1,1294,1149,0,0
77,-125,0,0,0,0,0,0,0,0,0,-1,1301,1149,0,0
84,-125,0,0,0,0,0,0,0,0,0,-1,1308,1149,0,0
91,-125,0,0,0,0,0,0,0,0,0,-1,1315,1149,0,0
98,-125,0,0,0,0,0,0,0,0,0,-1,1322,1149,0,0
105,-125,0,0,0,0,0,0,0,0,0,-1,1329,1149,0,0
112,-125,0,0,0,0,0,0,0,0,0,-1,1336,1149,0,0
119,-125,0,0,0,0,0,0,0,0,0,-1,1343,1149,0,0
126,-125,0,0,0,0,0,0,0,0,0,-1,1350,1149,0,0
133,-125,0,0,0,0,0,0,0,0,0,-1,1357,1149,0,0
140,-125,0,0,0,0,0,0,0,0,0,-1,1364,1149,0,0
147,-125,0,0,0,0,0,0,0,0,0,-1,1371,1149,0,0
154,-125,0,0,0,0,0,0,0,0,0,-1,1378,1149,0,0
161,-125,0,0,0,0,0,0,0,0,0,-1,1385,1149,0,0
168,-125,0,0,0,0,0,0,0,0,0,-1,1392,1149,0,0
175,-125,0,0,0,0,0,0,0,0,0,-1,1399,1149,0,0
182,-125,0,0,0,0,0,0,0,0,0,-1,1406,1149,0,0
189,-125,0,0,0,0,0,0,0,0,0,-1,1413,1149,0,0
196,-125,0,0,0,0,0,0,0,0,0,-1,1420,1149,0,0
203,-125,0,0,0,0,0,0,0,0,0,-1,1427,1149,0,0
210,-125,0,0,0,0,0,0,0,0,0,-1,1434,1149,0,0
217,-125,0,0,0,0,0,0,0,0,0,-1,1441,1149,0,0
224,-125,0,0,0,0,0,0,0,0,0,-1,1448,1149,0,0
231,-125,0,0,0,0,0,0,0,0,0,-1,1455,1149,0,0
238,-125,0,0,0,0,0,0,0,0,0,-1,1462,1149,0,0
245,-125,0,0,0,0,0,0,0,0,0,-1,1469,1149,0,0
252,-125,0,0,0,0,0,0,0,0,0,-1,1476,1149,0,0
259,-125,0,0,0,0,0,0,0,0,0,-1,1483,1149,0,0
266,-125,0,0,0,0,0,0,0,0,0,-1,1490,1149,0,0
273,-125,0,0,0,0,0,0,0,0,0,-1,1497,1149,0,0
280,-125,0,0,0,0,0,0,0,0,0,-1,1504,1149,0,0
287,-125,0,0,0,0,0,0,0,0,0,-1,1511,1149,0,0
294,-125,0,0,0,0,0,0,0,0,0,-1,1518,1149,0,0
301,-125,0,0,0,0,0,0,0,0,0,-1,1525,1149,0,0
308,-125,0,0,0,0,0,0,0,0,0,-1,1532,1149,0,0
315,-125,0,0,0,0,0,0,0,0,0,-1,1539,1149,0,0
322,-125,0,0,0,0,0,0,0,0,0,-1,1546,1149,0,0
329,-125,0,0,0,0,0,0,0,0,0,-1,1553,1149,0,0
336,-125,0,0,0,0,0,0,0,0,0,-1,1560,1149,0,0
343,-125,0,0,0,0,0,0,0,0,0,-1,1567,1149,0,0
350,-125,0,0,0,0,0,0,0,0,0,-1,1574,1149,0,0
357,-125,0,0,0,0,0,0,0,0,0,-1,1581,1149,0,0
364,-125,0,0,0,0,0,0,0,0,0,-1,1588,1149,0,0
371,-125,0,0,0,0,0,0,0,0,0,-1,1595,1149,0,0
378,-125,0,0,0,0,0,0,0,0,0,-1,1602,1149,0,0
385,-125,0,0,0,0,0,0,0,0,0,-1,1609,1149,0,0
392,-125,0,0,0,0,0,0,0,0,0,-1,1616,1149,0,0
399,-125,0,0,0,0,0,0,0,0,0,-1,1623,1149,0,0
406,-125,0,0,0,0,0,0,0,0,0,-1,1630,1149,0,0
413,-125,0,0,0,0,0,0,0,0,0,-1,1637,1149,0,0
420,-125,0,0,0,0,0,0,0,0,0,-1,1644,1149,0,0
427,-125,0,0,0,0,0,0,0,0,0,-1,1651,1149,0,0
434,-125,0,0,0,0,0,0,0,0,0,-1,1658,1149,0,0
441,-125,0,0,0,0,0,0,0,0,0,-1,1665,1149,0,0
448,-125,0,0,0,0,0,0,0,0,0,-1,1672,1149,0,0
455,-125,0,0,0,0,0,0,0,0,0,-1,1679,1149,0,0
462,-125,0,0,0,0,0,0,0,0,0,-1,1686,1149,0,0
469,-125,0,0,0,0,0,0,0,0,0,-1,1693,1149,0,0
476,-125,0,0,0,0,0,0,0,0,0,-1,1700,1149,0,0
483,-125,0,0,0,0,0,0,0,0,0,-1,1707,1149,0,0
490,-125,0,0,0,0,0,0,0,0,0,-1,1714,1149,0,0
497,-125,0,0,0,0,0,0,0,0,0,-1,1721,1149,0,0
504,-125,0,0,0,0,0,0,0,0,0,-1,1728,1149,0,0
511,-125,0,0,0,0,0,0,0,0,0,-1,1735,1149,0,0
518,-125,0,0,0,0,0,0,0,0,0,-1,1742,1149,0,0
525,-125,0,0,0,0,0,0,0,0,0,-1,1749,1149,0,0
532,-125,0,0,0,0,0,0,0,0,0,-1,1756,1149,0,0
539,-125,0,0,0,0,0,0,0,0,0,-1,1763,1149,0,0
546,-125,0,0,0,0,0,0,0,0,0,-1,1770,1149,0,0
553,-125,0,0,0,0,0,0,0,0,0,-1,1777,1149,0,0
560,-125,0,0,0,0,0,0,0,0,0,-1,1784,1149,0,0
567,-125,0,0,0,0,0,0,0,0,0,-1,1791,1149,0,0
574,-125,0,0,0,0,0,0,0,0,0,-1,1798,1149,0,0
581,-125,0,0,0,0,0,0,0,0,0,-1,1805,1149,0,0
588,-125,0,0,0,0,0,0,0,0,0,-1,1812,1149,0,0
595,-125,0,0,0,0,0,0,0,0,0,-1,1819,1149,0,0
602,-125,0,0,0,0,0,0,0,0,0,-1,1826,1149,0,0
609,-125,0,0,0,0,0,0,0,0,0,-1,1833,1149,0,0
616,-125,0,0,0,0,0,0,0,0,0,-1,1840,1149,0,0
623,-125,0,0,0,0,0,0,0,0,0,-1,1847,1149,0,0
630,-125,0,0,0,0,0,0,0,0,0,-1,1854,1149,0,0
637,-125,0,0,0,0,0,0,0,0,0,-1,1861,1149,0,0
644,-125,53.9683,2.52966,0.00325234,-0.00804661,-0.000516396,0.00327589,-0.00807016,-0.0455764,0.00674276,0.0418663,1868,1149,53.9682,-2.52964
651,-125,53.9297,2.46497,0.00197647,-0.00598828,-0.000383698,0.00199491,-0.00600672,-0.0480263,0.0048094,0.0389516,1875,1149,53.9297,-2.465
658,-125,53.7229,2.72693,0.00138688,-0.00431626,-0.000419205,0.00141753,-0.00434691,-0.0729815,0.00346839,0.0410898,1882,1149,53.7228,-2.72697
665,-125,53.7462,2.71033,0.00104075,-0.00277698,-0.000504292,0.00110624,-0.00284247,-0.129142,0.0023521,0.0434775,1889,1149,53.7462,-2.71035
672,-125,53.8612,2.69263,0.000777587,-0.0014379,-0.00063497,0.000946668,-0.00160699,-0.260244,0.00149069,0.0436903,1896,1149,53.8612,-2.69266
679,-125,53.8538,2.79309,0.000447715,-0.000681312,-0.000645937,0.000741054,-0.000974651,-0.426282,0.000993618,0.0374961,1903,1149,53.8538,-2.79312
686,-125,53.8622,2.7677,0.000335961,-0.000428305,-0.000541102,0.00061626,-0.000708605,-0.477957,0.00076553,0.0366126,1910,1149,53.8622,-2.76775
693,-125,53.8641,2.64954,0.000246592,-0.000294333,-0.000387548,0.000448721,-0.000496463,-0.480747,0.000545934,0.0305593,1917,1149,53.8642,-2.64957
700,-125,53.9633,2.69226,0.000112288,-0.000245778,-0.000200254,0.000201871,-0.000335361,-0.420645,0.000313347,0.0142036,1924,1149,53.9633,-2.69226
707,-125,54.1025,2.81763,0,0,0,0,0,0,0,-1,1931,1149,54.1025,-2.81758
714,-125,48.8099,8.42102,0,0,0,0,0,0,0,-1,1938,1149,48.8099,-8.42104
721,-125,48.7351,7.94214,-0.000450965,-7.19793e-06,0.000648579,0.000456402,-0.000914565,0.950211,0.000806127,0.0341158,1945,1149,48.7351,-7.9422
728,-125,48.693,7.51257,-0.000786107,0.000136374,0.000903389,0.000689458,-0.00133919,1.02143,0.0011911,0.0213146,1952,1149,48.6929,-7.51261
735,-125,48.6838,7.13489,-0.00123671,0.000331014,0.000959449,0.000786096,-0.0016918,1.12791,0.00146212,0.0216548,1959,1149,48.6838,-7.13484
742,-125,48.7037,6.70776,-0.00187401,0.000414811,0.00117815,0.000912875,-0.00237208,1.17083,0.00195795,0.0277164,1966,1149,48.7037,-6.70773
749,-125,48.6248,6.31787,-0.00341106,0.001124,0.00116812,0.00140719,-0.00369425,1.33295,0.00304238,0.0266766,1973,1149,48.6247,-6.31791
756,-125,48.6316,5.84827,-0.00640125,0.00240154,0.000543821,0.00243501,-0.00643472,1.50933,0.00529165,0.0232627,1980,1149,48.6316,-5.84826
763,-125,48.6448,5.42456,-0.0111882,0.00364177,-0.00119179,0.00373694,-0.0112834,-1.49111,0.00902945,0.0134061,1987,1149,48.6448,-5.4245
770,-125,48.5863,4.99756,-0.0170833,0.00503853,-0.00345899,0.00556677,-0.0176116,-1.41925,0.0139713,0.016473,1994,1149,48.5863,-4.99761
777,-125,48.4868,4.67041,-0.0242022,0.00628623,-0.00632948,0.00754802,-0.025464,-1.37402,0.0199732,0.0325622,2001,1149,48.4868,-4.67035
784,-125,48.4197,4.13525,-0.0329705,0.00733047,-0.00996895,0.00966158,-0.0353016,-1.34109,0.0273302,0.0492771,2008,1149,48.4198,-4.13529
791,-125,48.4399,3.60474,0,0,0,0,0,0,0,-1,2015,1149,48.4399,-3.6047
798,-125,47.8113,3.17041,-0.056622,0.00791541,-0.0203229,0.0137818,-0.0624884,-1.28977,0.0469323,0.0457037,2022,1149,47.8112,-3.17047
805,-125,47.2478,2.15259,-0.0720177,0.00690054,-0.0273499,0.0154522,-0.0805694,-1.26775,0.0595359,0.0467645,2029,1149,47.2478,-2.15255
812,-125,46.7026,1.11243,-0.0902238,0.00439342,-0.0356632,0.0163298,-0.10216,-1.24782,0.0741518,0.0490052,2036,1149,46.7025,-1.11247
-700,-132,0,0,0,0,0,0,0,0,0,-1,524,1156,0,0
-693,-132,-35.0555,1.46008,0,0,0,0,0,0,0,-1,531,1156,-35.0555,-1.46014
-686,-132,-28.1423,-4.74792,0,0,0,0,0,0,0,-1,538,1156,-28.1423,4.74799
-679,-132,-36.3766,1.44922,0,0,0,0,0,0,0,-1,545,1156,-36.3766,-1.44921
-672,-132,-36.7778,1.79126,-0.038497,0.135508,-0.0909015,0.174333,-0.0773218,-1.16714,0.148848,0.043104,552,1156,-36.7778,-1.79124
-665,-132,-37.5911,2.17004,-0.0310399,0.106931,-0.0715955,0.137368,-0.0614773,-1.16881,0.117558,0.0443564,559,1156,-37.591,-2.17001
-658,-132,-34.3895,1.02441,0,0,0,0,0,0,0,-1,566,1156,-34.3895,-1.02446
-651,-132,-34.3914,1.46826,-0.018212,0.0603409,-0.0402902,0.0773312,-0.0352023,-1.17173,0.0664715,0.0430002,573,1156,-34.3913,-1.46824
-644,-132,-34.4561,1.86621,-0.0128839,0.042342,-0.0282308,0.054219,-0.0247609,-1.17257,0.0466443,0.023208,580,1156,-34.4561,-1.86624
-637,-132,-34.5176,2.32532,-0.00840113,0.0272674,-0.0180262,0.0347907,-0.0159244,-1.17542,0.0299481,0.0123425,587,1156,-34.5176,-2.32536
-630,-132,-34.5208,2.771,-0.00452965,0.0147175,-0.00998007,0.0189581,-0.00877024,-1.16901,0.0163652,0.0106505,594,1156,-34.5207,-2.77101
-623,-132,-34.5435,3.25537,-0.00142298,0.00558439,-0.00420402,0.00755333,-0.00339192,-1.13279,0.0064697,0.01607,601,1156,-34.5435,-3.25539
-616,-132,-34.5579,3.6333,0.000370207,0.000984012,-0.0012422,0.00195666,-0.000602439,-0.906505,0.00154491,0.0323405,608,1156,-34.5579,-3.63332
-609,-132,-34.6196,4.2998,0,0,0,0,0,0,0,-1,615,1156,-34.6196,-4.29976
-602,-132,-34.5787,4.59644,0.00130044,-0.000202195,-0.00143043,0.00216486,-0.00106662,-0.543582,0.00190127,0.0323894,622,1156,-34.5787,-4.5964
-595,-132,-34.7108,5.07544,0.000767202,-0.000256972,-0.00144542,0.00178857,-0.00127834,-0.615156,0.00177883,0.0455669,629,1156,-34.7107,-5.07544
-588,-132,-34.7245,5.59949,0,0,0,0,0,0,0,-1,636,1156,-34.7245,-5.59955
-581,-132,-34.6228,6.14758,0,0,0,0,0,0,0,-1,643,1156,-34.6228,-6.14761
-574,-132,-33.2071,2.86963,0,0,0,0,0,0,0,-1,650,1156,-33.2071,-2.86963
-567,-132,-40.3694,0.842651,0,0,0,0,0,0,0,-1,657,1156,-40.3694,-0.842712
-560,-132,-40.4785,0.947632,0.000827498,-0.0015254,-0.00177158,0.00177768,-0.00247557,-0.492298,0.00246661,0.0357177,664,1156,-40.4785,-0.947637
-553,-132,-40.4594,0.956909,0.000603959,-0.0014249,-0.00200542,0.00183692,-0.00265786,-0.551242,0.00260945,0.0387409,671,1156,-40.4594,-0.956902
-546,-132,-40.4797,0.804688,0.000532185,-0.00116961,-0.00195581,0.00181418,-0.00245161,-0.580217,0.002472,0.0408944,678,1156,-40.4797,-0.80472
-539,-132,-40.5595,1.03247,0.00162801,-0.000697044,-0.00134692,0.00224471,-0.00131375,-0.429374,0.00207778,0.0424539,685,1156,-40.5595,-1.03247
-532,-132,-40.4644,0.93396,0.00379063,7.6129e-05,-0.000491853,0.00385466,1.21042e-05,-0.129443,0.00256575,0.0408024,692,1156,-40.4644,-0.93395
-525,-132,-40.4033,0.782104,0.00662373,0.00134711,0.000302341,0.006641,0.00132984,0.0570494,0.00405736,0.0406291,699,1156,-40.4033,-0.782164
-518,-132,0,0,0,0,0,0,0,0,0,-1,706,1156,0,0
-511,-132,0,0,0,0,0,0,0,0,0,-1,713,1156,0,0
-504,-132,0,0,0,0,0,0,0,0,0,-1,720,1156,0,0
-497,-132,0,0,0,0,0,0,0,0,0,-1,727,1156,0,0
-490,-132,0,0,0,0,0,0,0,0,0,-1,734,1156,0,0
-483,-132,0,0,0,0,0,0,0,0,0,-1,741,1156,0,0
-476,-132,0,0,0,0,0,0,0,0,0,-1,748,1156,0,0
-469,-132,0,0,0,0,0,0,0,0,0,-1,755,1156,0,0
-462,-132,0,0,0,0,0,0,0,0,0,-1,762,1156,0,0
-455,-132,0,0,0,0,0,0,0,0,0,-1,769,1156,0,0
-448,-132,0,0,0,0,0,0,0,0,0,-1,776,1156,0,0
-441,-132,0,0,0,0,0,0,0,0,0,-1,783,1156,0,0
-434,-132,0,0,0,0,0,0,0,0,0,-1,790,1156,0,0
-427,-132,0,0,0,0,0,0,0,0,0,-1,797,1156,0,0
-420,-132,0,0,0,0,0,0,0,0,0,-1,804,1156,0,0
-413,-132,0,0,0,0,0,0,0,0,0,-1,811,1156,0,0
-406,-132,0,0,0,0,0,0,0,0,0,-1,818,1156,0,0
-399,-132,0,0,0,0,0,0,0,0,0,-1,825,1156,0,0
-392,-132,0,0,0,0,0,0,0,0,0,-1,832,1156,0,0
-385,-132,0,0,0,0,0,0,0,0,0,-1,839,1156,0,0
-378,-132,0,0,0,0,0,0,0,0,0,-1,846,1156,0,0
-371,-132,0,0,0,0,0,0,0,0,0,-1,853,1156,0,0
-364,-132,0,0,0,0,0,0,0,0,0,-1,860,1156,0,0
-357,-132,0,0,0,0,0,0,0,0,0,-1,867,1156,0,0
-350,-132,0,0,0,0,0,0,0,0,0,-1,874,1156,0,0
-343,-132,0,0,0,0,0,0,0,0,0,-1,881,1156,0,0
-336,-132,0,0,0,0,0,0,0,0,0,-1,888,1156,0,0
-329,-132,0,0,0,0,0,0,0,0,0,-1,895,1156,0,0
-322,-132,0,0,0,0,0,0,0,0,0,-1,902,1156,0,0
-315,-132,0,0,0,0,0,0,0,0,0,-1,909,1156,0,0
-308,-132,0,0,0,0,0,0,0,0,0,-1,916,1156,0,0
-301,-132,0,0,0,0,0,0,0,0,0,-1,923,1156,0,0
-294,-132,0,0,0,0,0,0,0,0,0,-1,930,1156,0,0
-287,-132,0,0,0,0,0,0,0,0,0,-1,937,1156,0,0
-280,-132,0,0,0,0,0,0,0,0,0,-1,944,1156,0,0
-273,-132,0,0,0,0,0,0,0,0,0,-1,951,1156,0,0
-266,-132,0,0,0,0,0,0,0,0,0,-1,958,1156,0,0
-259,-132,0,0,0,0,0,0,0,0,0,-1,965,1156,0,0
-252,-132,0,0,0,0,0,0,0,0,0,-1,972,1156,0,0
-245,-132,0,0,0,0,0,0,0,0,0,-1,979,1156,0,0
-238,-132,0,0,0,0,0,0,0,0,0,-1,986,1156,0,0
-231,-132,0,0,0,0,0,0,0,0,0,-1,993,1156,0,0
-224,-132,0,0,0,0,0,0,0,0,0,-1,1000,1156,0,0
-217,-132,0,0,0,0,0,0,0,0,0,-1,1007,1156,0,0
-210,-132,0,0,0,0,0,0,0,0,0,-1,1014,1156,0,0
-203,-132,0,0,0,0,0,0,0,0,0,-1,1021,1156,0,0
-196,-132,0,0,0,0,0,0,0,0,0,-1,1028,1156,0,0
-189,-132,0,0,0,0,0,0,0,0,0,-1,1035,1156,0,0
-182,-132,0,0,0,0,0,0,0,0,0,-1,1042,1156,0,0
-175,-132,0,0,0,0,0,0,0,0,0,-1,1049,1156,0,0
-168,-132,0,0,0,0,0,0,0,0,0,-1,1056,1156,0,0
-161,-132,0,0,0,0,0,0,0,0,0,-1,1063,1156,0,0
-154,-132,0,0,0,0,0,0,0,0,0,-1,1070,1156,0,0
-147,-132,0,0,0,0,0,0,0,0,0,-1,1077,1156,0,0
-140,-132,0,0,0,0,0,0,0,0,0,-1,1084,1156,0,0
-133,-132,0,0,0,0,0,0,0,0,0,-1,1091,1156,0,0
-126,-132,0,0,0,0,0,0,0,0,0,-1,1098,1156,0,0
-119,-132,0,0,0,0,0,0,0,0,0,-1,1105,1156,0,0
-112,-132,0,0,0,0,0,0,0,0,0,-1,1112,1156,0,0
-105,-132,0,0,0,0,0,0,0,0,0,-1,1119,1156,0,0
-98,-132,0,0,0,0,0,0,0,0,0,-1,1126,1156,0,0
-91,-132,0,0,0,0,0,0,0,0,0,-1,1133,1156,0,0
-84,-132,0,0,0,0,0,0,0,0,0,-1,1140,1156,0,0
-77,-132,0,0,0,0,0,0,0,0,0,-1,1147,1156,0,0
-70,-132,0,0,0,0,0,0,0,0,0,-1,1154,1156,0,0
-63,-132,0,0,0,0,0,0,0,0,0,-1,1161,1156,0,0
-56,-132,0,0,0,0,0,0,0,0,0,-1,1168,1156,0,0
-49,-132,0,0,0,0,0,0,0,0,0,-1,1175,1156,0,0
-42,-132,0,0,0,0,0,0,0,0,0,-1,1182,1156,0,0
-35,-132,0,0,0,0,0,0,0,0,0,-1,1189,1156,0,0
-28,-132,0,0,0,0,0,0,0,0,0,-1,1196,1156,0,0
-21,-132,0,0,0,0,0,0,0,0,0,-1,1203,1156,0,0
-14,-132,0,0,0,0,0,0,0,0,0,-1,1210,1156,0,0
-7,-132,0,0,0,0,0,0,0,0,0,-1,1217,1156,0,0
0,-132,0,0,0,0,0,0,0,0,0,-1,1224,1156,0,0
7,-132,0,0,0,0,0,0,0,0,0,-1,1231,1156,0,0
14,-132,0,0,0,0,0,0,0,0,0,-1,1238,1156,0,0
21,-132,0,0,0,0,0,0,0,0,0,-1,1245,1156,0,0
28,-132,0,0,0,0,0,0,0,0,0,-1,1252,1156,0,0
35,-132,0,0,0,0,0,0,0,0,0,-1,1259,1156,0,0
42,-132,0,0,0,0,0,0,0,0,0,-1,1266,1156,0,0
49,-132,0,0,0,0,0,0,0,0,0,-1,1273,1156,0,0
56,-132,0,0,0,0,0,0,0,0,0,-1,1280,1156,0,0
63,-132,0,0,0,0,0,0,0,0,0,-1,1287,1156,0,0
70,-132,0,0,0,0,0,0,0,0,0,-1,1294,1156,0,0
77,-132,0,0,0,0,0,0,0,0,0,-1,1301,1156,0,0
84,-132,0,0,0,0,0,0,0,0,0,-1,1308,1156,0,0
91,-132,0,0,0,0,0,0,0,0,0,-1,1315,1156,0,0
98,-132,0,0,0,0,0,0,0,0,0,-1,1322,1156,0,0
105,-132,0,0,0,0,0,0,0,0,0,-1,1329,1156,0,0
112,-132,0,0,0,0,0,0,0,0,0,-1,1336,1156,0,0
119,-132,0,0,0,0,0,0,0,0,0,-1,1343,1156,0,0
126,-132,0,0,0,0,0,0,0,0,0,-1,1350,1156,0,0
133,-132,0,0,0,0,0,0,0,0,0,-1,1357,1156,0,0
140,-132,0,0,0,0,0,0,0,0,0,-1,1364,1156,0,0
147,-132,0,0,0,0,0,0,0,0,0,-1,1371,1156,0,0
154,-132,0,0,0,0,0,0,0,0,0,-1,1378,1156,0,0
161,-132,0,0,0,0,0,0,0,0,0,-1,1385,1156,0,0
168,-132,0,0,0,0,0,0,0,0,0,-1,1392,1156,0,0
175,-132,0,0,0,0,0,0,0,0,0,-1,1399,1156,0,0
182,-132,0,0,0,0,0,0,0,0,0,-1,1406,1156,0,0
189,-132,0,0,0,0,0,0,0,0,0,-1,1413,1156,0,0
196,-132,0,0,0,0,0,0,0,0,0,-1,1420,1156,0,0
203,-132,0,0,0,0,0,0,0,0,0,-1,1427,1156,0,0
210,-132,0,0,0,0,0,0,0,0,0,-1,1434,1156,0,0
217,-132,0,0,0,0,0,0,0,0,0,-1,1441,1156,0,0
224,-132,0,0,0,0,0,0,0,0,0,-1,1448,1156,0,0
231,-132,0,0,0,0,0,0,0,0,0,-1,1455,1156,0,0
238,-132,0,0,0,0,0,0,0,0,0,-1,1462,1156,0,0
245,-132,0,0,0,0,0,0,0,0,0,-1,1469,1156,0,0
252,-132,0,0,0,0,0,0,0,0,0,-1,1476,1156,0,0
259,-132,0,0,0,0,0,0,0,0,0,-1,1483,1156,0,0
266,-132,0,0,0,0,0,0,0,0,0,-1,1490,1156,0,0
273,-132,0,0,0,0,0,0,0,0,0,-1,1497,1156,0,0
280,-132,0,0,0,0,0,0,0,0,0,-1,1504,1156,0,0
287,-132,0,0,0,0,0,0,0,0,0,-1,1511,1156,0,0
294,-132,0,0,0,0,0,0,0,0,0,-1,1518,1156,0,0
301,-132,0,0,0,0,0,0,0,0,0,-1,1525,1156,0,0
308,-132,0,0,0,0,0,0,0,0,0,-1,1532,1156,0,0
315,-132,0,0,0,0,0,0,0,0,0,-1,1539,1156,0,0
322,-132,0,0,0,0,0,0,0,0,0,-1,1546,1156,0,0
329,-132,0,0,0,0,0,0,0,0,0,-1,1553,1156,0,0
336,-132,0,0,0,0,0,0,0,0,0,-1,1560,1156,0,0
343,-132,0,0,0,0,0,0,0,0,0,-1,1567,1156,0,0
350,-132,0,0,0,0,0,0,0,0,0,-1,1574,1156,0,0
357,-132,0,0,0,0,0,0,0,0,0,-1,1581,1156,0,0
364,-132,0,0,0,0,0,0,0,0,0,-1,1588,1156,0,0
371,-132,0,0,0,0,0,0,0,0,0,-1,1595,1156,0,0
378,-132,0,0,0,0,0,0,0,0,0,-1,1602,1156,0,0
385,-132,0,0,0,0,0,0,0,0,0,-1,1609,1156,0,0
392,-132,0,0,0,0,0,0,0,0,0,-1,1616,1156,0,0
399,-132,0,0,0,0,0,0,0,0,0,-1,1623,1156,0,0
406,-132,0,0,0,0,0,0,0,0,0,-1,1630,1156,0,0
413,-132,0,0,0,0,0,0,0,0,0,-1,1637,1156,0,0
420,-132,0,0,0,0,0,0,0,0,0,-1,1644,1156,0,0
427,-132,0,0,0,0,0,0,0,0,0,-1,1651,1156,0,0
434,-132,0,0,0,0,0,0,0,0,0,-1,1658,1156,0,0
441,-132,0,0,0,0,0,0,0,0,0,-1,1665,1156,0,0
448,-132,0,0,0,0,0,0,0,0,0,-1,1672,1156,0,0
455,-132,0,0,0,0,0,0,0,0,0,-1,1679,1156,0,0
462,-132,0,0,0,0,0,0,0,0,0,-1,1686,1156,0,0
469,-132,0,0,0,0,0,0,0,0,0,-1,1693,1156,0,0
476,-132,0,0,0,0,0,0,0,0,0,-1,1700,1156,0,0
483,-132,0,0,0,0,0,0,0,0,0,-1,1707,1156,0,0
490,-132,0,0,0,0,0,0,0,0,0,-1,1714,1156,0,0
497,-132,0,0,0,0,0,0,0,0,0,-1,1721,1156,0,0
504,-132,0,0,0,0,0,0,0,0,0,-1,1728,1156,0,0
511,-132,0,0,0,0,0,0,0,0,0,-1,1735,1156,0,0
518,-132,0,0,0,0,0,0,0,0,0,-1,1742,1156,0,0
525,-132,0,0,0,0,0,0,0,0,0,-1,1749,1156,0,0
532,-132,0,0,0,0,0,0,0,0,0,-1,1756,1156,0,0
539,-132,0,0,0,0,0,0,0,0,0,-1,1763,1156,0,0
546,-132,0,0,0,0,0,0,0,0,0,-1,1770,1156,0,0
553,-132,0,0,0,0,0,0,0,0,0,-1,1777,1156,0,0
560,-132,0,0,0,0,0,0,0,0,0,-1,1784,1156,0,0
567,-132,0,0,0,0,0,0,0,0,0,-1,1791,1156,0,0
574,-132,0,0,0,0,0,0,0,0,0,-1,1798,1156,0,0
581,-132,0,0,0,0,0,0,0,0,0,-1,1805,1156,0,0
588,-132,0,0,0,0,0,0,0,0,0,-1,1812,1156,0,0
595,-132,0,0,0,0,0,0,0,0,0,-1,1819,1156,0,0
602,-132,0,0,0,0,0,0,0,0,0,-1,1826,1156,0,0
609,-132,0,0,0,0,0,0,0,0,0,-1,1833,1156,0,0
616,-132,0,0,0,0,0,0,0,0,0,-1,1840,1156,0,0
623,-132,0,0,0,0,0,0,0,0,0,-1,1847,1156,0,0
630,-132,0,0,0,0,0,0,0,0,0,-1,1854,1156,0,0
637,-132,0,0,0,0,0,0,0,0,0,-1,1861,1156,0,0
644,-132,53.9952,2.58789,0.00320109,-0.00791362,-0.000298419,0.0032091,-0.00792163,-0.0268232,0.00661553,0.0422431,1868,1156,53.9952,-2.58785
651,-132,53.9352,2.47449,0.00196094,-0.00582149,-0.000291563,0.00197185,-0.0058324,-0.0373943,0.00468595,0.0388358,1875,1156,53.9352,-2.47447
658,-132,53.7705,2.46301,0.0013472,-0.00403879,-0.0003981,0.00137646,-0.00406805,-0.0733825,0.00326893,0.038006,1882,1156,53.7706,-2.46302
665,-132,53.7756,2.53516,0.000992462,-0.00236679,-0.000557728,0.00108264,-0.00245697,-0.1603,0.00209431,0.0411073,1889,1156,53.7757,-2.53513
672,-132,53.8927,2.63049,0.000703938,-0.000910094,-0.000742429,0.000993496,-0.00119965,-0.371869,0.00126808,0.0415526,1896,1156,53.8927,-2.63046
679,-132,53.8806,2.67749,0.000367142,-0.000147128,-0.000739476,0.000892914,-0.000672899,-0.618074,0.000906992,0.0381404,1903,1156,53.8806,-2.67748
686,-132,53.8956,2.72839,0.000220872,3.92282e-05,-0.000611727,0.000748482,-0.000488382,-0.711702,0.000719348,0.0361437,1910,1156,53.8956,-2.72836
693,-132,53.9158,2.7345,8.6265e-05,0.000100257,-0.00041523,0.00050855,-0.000322028,-0.793821,0.000483549,0.0291661,1917,1156,53.9158,-2.73454
700,-132,53.9698,2.69299,-8.22335e-05,0.000111931,-0.000182045,0.000221162,-0.000191465,-1.03036,0.000238436,0.0444062,1924,1156,53.9699,-2.69297
707,-132,54.0249,2.66003,0,0,0,0,0,0,0,-1,1931,1156,54.0249,-2.66009
714,-132,48.2792,8.41235,0,0,0,0,0,0,0,-1,1938,1156,48.2792,-8.41232
721,-132,48.3679,7.96777,-0.000531013,0.000217415,0.000585384,0.000537975,-0.000851573,1.06979,0.000809038,0.0376668,1945,1156,48.3679,-7.96776
728,-132,48.2596,7.55127,-0.000781544,0.000279251,0.000886055,0.000781527,-0.00128382,1.0551,0.00120413,0.0293624,1952,1156,48.2596,-7.55124
735,-132,48.1769,7.16968,-0.00116359,0.000383303,0.00101593,0.000886703,-0.00166699,1.11075,0.00149714,0.0294735,1959,1156,48.1768,-7.16968
742,-132,48.2308,6.68848,-0.00180708,0.000362633,0.00124708,0.000930693,-0.00237514,1.14337,0.00196842,0.0221075,1966,1156,48.2308,-6.6885
749,-132,48.2119,6.27576,-0.00326784,0.00094391,0.00119726,0.00126046,-0.00358439,1.31232,0.00290246,0.0255188,1973,1156,48.2119,-6.2757
756,-132,48.2048,5.83862,-0.00616232,0.00215296,0.000434559,0.00217561,-0.00618497,1.51873,0.00500858,0.02622,1980,1156,48.2048,-5.83862
763,-132,48.1858,5.43945,-0.0107907,0.00316103,-0.0014367,0.00330744,-0.0109371,-1.46924,0.00860833,0.0159125,1987,1156,48.1859,-5.43941
770,-132,48.1642,5.03418,-0.0164144,0.00425817,-0.00384191,0.00494908,-0.0171053,-1.39286,0.0133623,0.0151817,1994,1156,48.1641,-5.03419
777,-132,48.0869,4.61316,-0.0232086,0.00511822,-0.00688136,0.00670141,-0.0247918,-1.34466,0.0191565,0.0263603,2001,1156,48.0868,-4.61313
784,-132,47.844,4.03809,-0.0315687,0.00562801,-0.0107452,0.0085089,-0.0344496,-1.30885,0.0262662,0.04742,2008,1156,47.8441,-4.03808
791,-132,47.6133,3.43433,-0.0416709,0.00550558,-0.0156149,0.0102057,-0.0463709,-1.27842,0.034818,0.0480177,2015,1156,47.6132,-3.43428
798,-132,47.229,3.05334,-0.0537274,0.00451792,-0.0216919,0.0117087,-0.0609182,-1.2507,0.0450254,0.0475691,2022,1156,47.2291,-3.0534
805,-132,46.7703,2.52905,-0.0679018,0.0022046,-0.029086,0.0127005,-0.0783977,-1.22448,0.0569725,0.0460924,2029,1156,46.7703,-2.52907
812,-132,46.2278,2.08167,-0.0844274,-0.00206939,-0.0378272,0.0126677,-0.0991645,-1.1993,0.0707115,0.0477291,2036,1156,46.2279,-2.08169
-700,-139,0,0,0,0,0,0,0,0,0,-1,524,1163,0,0
-693,-139,-32.3987,-3.73547,0,0,0,0,0,0,0,-1,531,1163,-32.3987,3.73544
-686,-139,-32.4917,-2.6189,0,0,0,0,0,0,0,-1,538,1163,-32.4917,2.6189
-679,-139,-35.0686,1.00696,0,0,0,0,0,0,0,-1,545,1163,-35.0686,-1.00699
-672,-139,-35.3226,1.27368,-0.0316135,0.134441,-0.0865898,0.171377,-0.0685501,-1.1676,0.1427,0.0466583,552,1163,-35.3226,-1.27373
-665,-139,-35.5779,1.56897,-0.0250381,0.1065,-0.0684358,0.135646,-0.054185,-1.16816,0.112913,0.042216,559,1163,-35.5779,-1.56896
-658,-139,-34.2567,0.681763,0,0,0,0,0,0,0,-1,566,1163,-34.2567,-0.681714
-651,-139,-34.1119,1.26978,-0.0139171,0.0609063,-0.0387981,0.077392,-0.0304028,-1.169,0.0641761,0.0467619,573,1163,-34.1119,-1.26977
-644,-139,-33.9631,1.86902,-0.00943178,0.0430699,-0.0272371,0.0546472,-0.0210091,-1.16888,0.0450964,0.0241154,580,1163,-33.9632,-1.86906
-637,-139,-34.0101,2.30469,-0.00579193,0.0280125,-0.0174644,0.0354144,-0.0131938,-1.16992,0.029025,0.013569,587,1163,-34.0101,-2.30464
-630,-139,-34.0295,2.76135,-0.00281964,0.0154961,-0.00977967,0.0197363,-0.00705985,-1.16169,0.0160374,0.0109072,594,1163,-34.0296,-2.76141
-623,-139,-34.0331,3.24121,-0.000561199,0.00601873,-0.0041569,0.00803006,-0.00257253,-1.12015,0.006386,0.0176525,601,1163,-34.0331,-3.24124
-616,-139,-34.0375,3.67761,0.000654024,0.000908426,-0.00114457,0.00193284,-0.000370394,-0.840738,0.00142813,0.0195396,608,1163,-34.0375,-3.67759
-609,-139,-33.874,4.16138,0.00108188,0.000271055,-0.0010593,0.0018107,-0.000457764,-0.602639,0.00138517,0.0442594,615,1163,-33.874,-4.16136
-602,-139,-34.022,4.66223,0.00112175,-2.18676e-05,-0.00157445,0.00222501,-0.00112513,-0.611214,0.00196864,0.0364617,622,1163,-34.022,-4.66223
-595,-139,-34.228,5.15833,0.000509041,-7.34059e-05,-0.00158708,0.00183139,-0.00139576,-0.694659,0.00186885,0.0442555,629,1163,-34.228,-5.15833
-588,-139,-34.4915,5.55835,0,0,0,0,0,0,0,-1,636,1163,-34.4915,-5.5584
-581,-139,-32.2208,6.02368,0,0,0,0,0,0,0,-1,643,1163,-32.2208,-6.02369
-574,-139,-23.0725,2.4043,0,0,0,0,0,0,0,-1,650,1163,-23.0725,-2.40433
-567,-139,-40.2753,0.666626,0,0,0,0,0,0,0,-1,657,1163,-40.2753,-0.66665
-560,-139,-40.4006,0.939819,0.000356606,-0.00140969,-0.00213583,0.00178468,-0.00283776,-0.589357,0.00269175,0.0358898,664,1163,-40.4006,-0.939764
-553,-139,-40.4186,1.12976,0.000174211,-0.00135028,-0.00239945,0.00192958,-0.00310565,-0.631602,0.00293341,0.039823,671,1163,-40.4186,-1.1297
-546,-139,-40.4689,1.20508,0.00040732,-0.00122731,-0.00227279,0.00200529,-0.00282527,-0.612794,0.00280229,0.0412909,678,1163,-40.4689,-1.20503
-539,-139,-40.3929,1.04138,0.00188731,-0.000974446,-0.00156845,0.0025795,-0.00166664,-0.415616,0.00247032,0.0415079,685,1163,-40.393,-1.04133
-532,-139,-40.3422,0.746094,0.00450754,-0.000475336,-0.0005525,0.00456806,-0.000535862,-0.109114,0.00323881,0.0407817,692,1163,-40.3422,-0.746045
-525,-139,-40.4122,0.759033,0.00797539,0.000612602,0.000485227,0.00800723,0.000580762,0.0655249,0.00515548,0.0410039,699,1163,-40.4122,-0.759018
-518,-139,0,0,0,0,0,0,0,0,0,-1,706,1163,0,0
-511,-139,0,0,0,0,0,0,0,0,0,-1,713,1163,0,0
-504,-139,0,0,0,0,0,0,0,0,0,-1,720,1163,0,0
-497,-139,0,0,0,0,0,0,0,0,0,-1,727,1163,0,0
-490,-139,0,0,0,0,0,0,0,0,0,-1,734,1163,0,0
-483,-139,0,0,0,0,0,0,0,0,0,-1,741,1163,0,0
-476,-139,0,0,0,0,0,0,0,0,0,-1,748,1163,0,0
-469,-139,0,0,0,0,0,0,0,0,0,-1,755,1163,0,0
-462,-139,0,0,0,0,0,0,0,0,0,-1,762,1163,0,0
-455,-139,0,0,0,0,0,0,0,0,0,-1,769,1163,0,0
-448,-139,0,0,0,0,0,0,0,0,0,-1,776,1163,0,0
-441,-139,0,0,0,0,0,0,0,0,0,-1,783,1163,0,0
-434,-139,0,0,0,0,0,0,0,0,0,-1,790,1163,0,0
-427,-139,0,0,0,0,0,0,0,0,0,-1,797,1163,0,0
-420,-139,0,0,0,0,0,0,0,0,0,-1,804,1163,0,0
-413,-139,0,0,0,0,0,0,0,0,0,-1,811,1163,0,0
-406,-139,0,0,0,0,0,0,0,0,0,-1,818,1163,0,0
-399,-139,0,0,0,0,0,0,0,0,0,-1,825,1163,0,0
-392,-139,0,0,0,0,0,0,0,0,0,-1,832,1163,0,0
-385,-139,0,0,0,0,0,0,0,0,0,-1,839,1163,0,0
-378,-139,0,0,0,0,0,0,0,0,0,-1,846,1163,0,0
-371,-139,0,0,0,0,0,0,0,0,0,-1,853,1163,0,0
-364,-139,0,0,0,0,0,0,0,0,0,-1,860,1163,0,0
-357,-139,0,0,0,0,0,0,0,0,0,-1,867,1163,0,0
-350,-139,0,0,0,0,0,0,0,0,0,-1,874,1163,0,0
-343,-139,0,0,0,0,0,0,0,0,0,-1,881,1163,0,0
-336,-139,0,0,0,0,0,0,0,0,0,-1,888,1163,0,0
-329,-139,0,0,0,0,0,0,0,0,0,-1,895,1163,0,0
-322,-139,0,0,0,0,0,0,0,0,0,-1,902,1163,0,0
-315,-139,0,0,0,0,0,0,0,0,0,-1,909,1163,0,0
-308,-139,0,0,0,0,0,0,0,0,0,-1,916,1163,0,0
-301,-139,0,0,0,0,0,0,0,0,0,-1,923,1163,0,0
-294,-139,0,0,0,0,0,0,0,0,0,-1,930,1163,0,0
-287,-139,0,0,0,0,0,0,0,0,0,-1,937,1163,0,0
-280,-139,0,0,0,0,0,0,0,0,0,-1,944,1163,0,0
-273,-139,0,0,0,0,0,0,0,0,0,-1,951,1163,0,0
-266,-139,0,0,0,0,0,0,0,0,0,-1,958,1163,0,0
-259,-139,0,0,0,0,0,0,0,0,0,-1,965,1163,0,0
-252,-139,0,0,0,0,0,0,0,0,0,-1,972,1163,0,0
-245,-139,0,0,0,0,0,0,0,0,0,-1,979,1163,0,0
-238,-139,0,0,0,0,0,0,0,0,0,-1,986,1163,0,0
-231,-139,0,0,0,0,0,0,0,0,0,-1,993,1163,0,0
-224,-139,0,0,0,0,0,0,0,0,0,-1,1000,1163,0,0
-217,-139,0,0,0,0,0,0,0,0,0,-1,1007,1163,0,0
-210,-139,0,0,0,0,0,0,0,0,0,-1,1014,1163,0,0
-203,-139,0,0,0,0,0,0,0,0,0,-1,1021,1163,0,0
-196,-139,0,0,0,0,0,0,0,0,0,-1,1028,1163,0,0
-189,-139,0,0,0,0,0,0,0,0,0,-1,1035,1163,0,0
-182,-139,0,0,0,0,0,0,0,0,0,-1,1042,1163,0,0
-175,-139,0,0,0,0,0,0,0,0,0,-1,1049,1163,0,0
-168,-139,0,0,0,0,0,0,0,0,0,-1,1056,1163,0,0
-161,-139,0,0,0,0,0,0,0,0,0,-1,1063,1163,0,0
-154,-139,0,0,0,0,0,0,0,0,0,-1,1070,1163,0,0
-147,-139,0,0,0,0,0,0,0,0,0,-1,1077,1163,0,0
-140,-139,0,0,0,0,0,0,0,0,0,-1,1084,1163,0,0
-133,-139,0,0,0,0,0,0,0,0,0,-1,1091,1163,0,0
-126,-139,0,0,0,0,0,0,0,0,0,-1,1098,1163,0,0
-119,-139,0,0,0,0,0,0,0,0,0,-1,1105,1163,0,0
-112,-139,0,0,0,0,0,0,0,0,0,-1,1112,1163,0,0
-105,-139,0,0,0,0,0,0,0,0,0,-1,1119,1163,0,0
-98,-139,0,0,0,0,0,0,0,0,0,-1,1126,1163,0,0
-91,-139,0,0,0,0,0,0,0,0,0,-1,1133,1163,0,0
-84,-139,0,0,0,0,0,0,0,0,0,-1,1140,1163,0,0
-77,-139,0,0,0,0,0,0,0,0,0,-1,1147,1163,0,0
-70,-139,0,0,0,0,0,0,0,0,0,-1,1154,1163,0,0
-63,-139,0,0,0,0,0,0,0,0,0,-1,1161,1163,0,0
-56,-139,0,0,0,0,0,0,0,0,0,-1,1168,1163,0,0
-49,-139,0,0,0,0,0,0,0,0,0,-1,1175,1163,0,0
-42,-139,0,0,0,0,0,0,0,0,0,-1,1182,1163,0,0
-35,-139,0,0,0,0,0,0,0,0,0,-1,1189,1163,0,0
-28,-139,0,0,0,0,0,0,0,0,0,-1,1196,1163,0,0
-21,-139,0,0,0,0,0,0,0,0,0,-1,1203,1163,0,0
-14,-139,0,0,0,0,0,0,0,0,0,-1,1210,1163,0,0
-7,-139,0,0,0,0,0,0,0,0,0,-1,1217,1163,0,0
0,-139,0,0,0,0,0,0,0,0,0,-1,1224,1163,0,0
7,-139,0,0,0,0,0,0,0,0,0,-1,1231,1163,0,0
14,-139,0,0,0,0,0,0,0,0,0,-1,1238,1163,0,0
21,-139,0,0,0,0,0,0,0,0,0,-1,1245,1163,0,0
28,-139,0,0,0,0,0,0,0,0,0,-1,1252,1163,0,0
35,-139,0,0,0,0,0,0,0,0,0,-1,1259,1163,0,0
42,-139,0,0,0,0,0,0,0,0,0,-1,1266,1163,0,0
49,-139,0,0,0,0,0,0,0,0,0,-1,1273,1163,0,0
56,-139,0,0,0,0,0,0,0,0,0,-1,1280,1163,0,0
63,-139,0,0,0,0,0,0,0,0,0,-1,1287,1163,0,0
70,-139,0,0,0,0,0,0,0,0,0,-1,1294,1163,0,0
77,-139,0,0,0,0,0,0,0,0,0,-1,1301,1163,0,0
84,-139,0,0,0,0,0,0,0,0,0,-1,1308,1163,0,0
91,-139,0,0,0,0,0,0,0,0,0,-1,1315,1163,0,0
98,-139,0,0,0,0,0,0,0,0,0,-1,1322,1163,0,0
105,-139,0,0,0,0,0,0,0,0,0,-1,1329,1163,0,0
112,-139,0,0,0,0,0,0,0,0,0,-1,1336,1163,0,0
119,-139,0,0,0,0,0,0,0,0,0,-1,1343,1163,0,0
126,-139,0,0,0,0,0,0,0,0,0,-1,1350,1163,0,0
133,-139,0,0,0,0,0,0,0,0,0,-1,1357,1163,0,0
140,-139,0,0,0,0,0,0,0,0,0,-1,1364,1163,0,0
147,-139,0,0,0,0,0,0,0,0,0,-1,1371,1163,0,0
154,-139,0,0,0,0,0,0,0,0,0,-1,1378,1163,0,0
161,-139,0,0,0,0,0,0,0,0,0,-1,1385,1163,0,0
168,-139,0,0,0,0,0,0,0,0,0,-1,1392,1163,0,0
175,-139,0,0,0,0,0,0,0,0,0,-1,1399,1163,0,0
182,-139,0,0,0,0,0,0,0,0,0,-1,1406,1163,0,0
189,-139,0,0,0,0,0,0,0,0,0,-1,1413,1163,0,0
196,-139,0,0,0,0,0,0,0,0,0,-1,1420,1163,0,0
203,-139,0,0,0,0,0,0,0,0,0,-1,1427,1163,0,0
210,-139,0,0,0,0,0,0,0,0,0,-1,1434,1163,0,0
217,-139,0,0,0,0,0,0,0,0,0,-1,1441,1163,0,0
224,-139,0,0,0,0,0,0,0,0,0,-1,1448,1163,0,0
231,-139,0,0,0,0,0,0,0,0,0,-1,1455,1163,0,0
238,-139,0,0,0,0,0,0,0,0,0,-1,1462,1163,0,0
245,-139,0,0,0,0,0,0,0,0,0,-1,1469,1163,0,0
252,-139,0,0,0,0,0,0,0,0,0,-1,1476,1163,0,0
259,-139,0,0,0,0,0,0,0,0,0,-1,1483,1163,0,0
266,-139,0,0,0,0,0,0,0,0,0,-1,1490,1163,0,0
273,-139,0,0,0,0,0,0,0,0,0,-1,1497,1163,0,0
280,-139,0,0,0,0,0,0,0,0,0,-1,1504,1163,0,0
287,-139,0,0,0,0,0,0,0,0,0,-1,1511,1163,0,0
294,-139,0,0,0,0,0,0,0,0,0,-1,1518,1163,0,0
301,-139,0,0,0,0,0,0,0,0,0,-1,1525,1163,0,0
308,-139,0,0,0,0,0,0,0,0,0,-1,1532,1163,0,0
315,-139,0,0,0,0,0,0,0,0,0,-1,1539,1163,0,0
322,-139,0,0,0,0,0,0,0,0,0,-1,1546,1163,0,0
329,-139,0,0,0,0,0,0,0,0,0,-1,1553,1163,0,0
336,-139,0,0,0,0,0,0,0,0,0,-1,1560,1163,0,0
343,-139,0,0,0,0,0,0,0,0,0,-1,1567,1163,0,0
350,-139,0,0,0,0,0,0,0,0,0,-1,1574,1163,0,0
357,-139,0,0,0,0,0,0,0,0,0,-1,1581,1163,0,0
364,-139,0,0,0,0,0,0,0,0,0,-1,1588,1163,0,0
371,-139,0,0,0,0,0,0,0,0,0,-1,1595,1163,0,0
378,-139,0,0,0,0,0,0,0,0,0,-1,1602,1163,0,0
385,-139,0,0,0,0,0,0,0,0,0,-1,1609,1163,0,0
392,-139,0,0,0,0,0,0,0,0,0,-1,1616,1163,0,0
399,-139,0,0,0,0,0,0,0,0,0,-1,1623,1163,0,0
406,-139,0,0,0,0,0,0,0,0,0,-1,1630,1163,0,0
413,-139,0,0,0,0,0,0,0,0,0,-1,1637,1163,0,0
420,-139,0,0,0,0,0,0,0,0,0,-1,1644,1163,0,0
427,-139,0,0,0,0,0,0,0,0,0,-1,1651,1163,0,0
434,-139,0,0,0,0,0,0,0,0,0,-1,1658,1163,0,0
441,-139,0,0,0,0,0,0,0,0,0,-1,1665,1163,0,0
448,-139,0,0,0,0,0,0,0,0,0,-1,1672,1163,0,0
455,-139,0,0,0,0,0,0,0,0,0,-1,1679,1163,0,0
462,-139,0,0,0,0,0,0,0,0,0,-1,1686,1163,0,0
469,-139,0,0,0,0,0,0,0,0,0,-1,1693,1163,0,0
476,-139,0,0,0,0,0,0,0,0,0,-1,1700,1163,0,0
483,-139,0,0,0,0,0,0,0,0,0,-1,1707,1163,0,0
490,-139,0,0,0,0,0,0,0,0,0,-1,1714,1163,0,0
497,-139,0,0,0,0,0,0,0,0,0,-1,1721,1163,0,0
504,-139,0,0,0,0,0,0,0,0,0,-1,1728,1163,0,0
511,-139,0,0,0,0,0,0,0,0,0,-1,1735,1163,0,0
518,-139,0,0,0,0,0,0,0,0,0,-1,1742,1163,0,0
525,-139,0,0,0,0,0,0,0,0,0,-1,1749,1163,0,0
532,-139,0,0,0,0,0,0,0,0,0,-1,1756,1163,0,0
539,-139,0,0,0,0,0,0,0,0,0,-1,1763,1163,0,0
546,-139,0,0,0,0,0,0,0,0,0,-1,1770,1163,0,0
553,-139,0,0,0,0,0,0,0,0,0,-1,1777,1163,0,0
560,-139,0,0,0,0,0,0,0,0,0,-1,1784,1163,0,0
567,-139,0,0,0,0,0,0,0,0,0,-1,1791,1163,0,0
574,-139,0,0,0,0,0,0,0,0,0,-1,1798,1163,0,0
581,-139,0,0,0,0,0,0,0,0,0,-1,1805,1163,0,0
588,-139,0,0,0,0,0,0,0,0,0,-1,1812,1163,0,0
595,-139,0,0,0,0,0,0,0,0,0,-1,1819,1163,0,0
602,-139,0,0,0,0,0,0,0,0,0,-1,1826,1163,0,0
609,-139,0,0,0,0,0,0,0,0,0,-1,1833,1163,0,0
616,-139,0,0,0,0,0,0,0,0,0,-1,1840,1163,0,0
623,-139,0,0,0,0,0,0,0,0,0,-1,1847,1163,0,0
630,-139,0,0,0,0,0,0,0,0,0,-1,1854,1163,0,0
637,-139,0,0,0,0,0,0,0,0,0,-1,1861,1163,0,0
644,-139,54.0284,2.56128,0.00316158,-0.00710521,2.71561e-05,0.00316165,-0.00710528,0.00264502,0.00607163,0.0403328,1868,1163,54.0285,-2.56123
651,-139,53.9967,2.54321,0.00197552,-0.00506914,-0.000120036,0.00197757,-0.00507119,-0.0170327,0.00419822,0.0387783,1875,1163,53.9967,-2.54321
658,-139,54.0669,2.61707,0.00132072,-0.0032758,-0.000338126,0.00134546,-0.00330054,-0.0730373,0.0027604,0.0398725,1882,1163,54.0669,-2.61702
665,-139,54.0006,2.86182,0.000923071,-0.00158129,-0.000604533,0.00106136,-0.00171958,-0.22489,0.0016205,0.0384445,1889,1163,54.0006,-2.86182
672,-139,53.9192,2.89331,0.000538805,-0.000124375,-0.000850174,0.00111977,-0.000705335,-0.599459,0.00106274,0.0387739,1896,1163,53.9192,-2.89327
679,-139,53.9796,2.79895,0.000119167,0.000540558,-0.000840359,0.00119623,-0.000536507,-0.908227,0.00102428,0.0363101,1903,1163,53.9796,-2.79896
686,-139,53.9224,2.81714,-6.70866e-05,0.000595436,-0.000672917,0.00101421,-0.00048586,-1.01412,0.00088379,0.0340197,1910,1163,53.9223,-2.81714
693,-139,53.9424,2.76501,-0.000243311,0.000563903,-0.000443199,0.000759733,-0.00043914,-1.15474,0.00070037,0.022534,1917,1163,53.9424,-2.76505
700,-139,53.9806,2.5592,0,0,0,0,0,0,0,-1,1924,1163,53.9806,-2.55925
707,-139,32.116,6.54346,0,0,0,0,0,0,0,-1,1931,1163,32.116,-6.54343
714,-139,47.7596,8.54407,0,0,0,0,0,0,0,-1,1938,1163,47.7597,-8.54405
721,-139,47.9247,7.95068,-0.000784685,0.000543648,0.000491357,0.000705647,-0.000946684,1.25232,0.000957351,0.0351172,1945,1163,47.9246,-7.95064
728,-139,47.7386,7.67346,-0.000937044,0.000514974,0.000834232,0.000894873,-0.00131694,1.14347,0.00128472,0.0455598,1952,1163,47.7386,-7.67341
735,-139,47.6353,7.28821,-0.00121222,0.000500235,0.00104431,0.000994453,-0.00170644,1.12878,0.00157732,0.0335659,1959,1163,47.6353,-7.28821
742,-139,47.7295,6.68591,-0.00178432,0.000393827,0.00130886,0.00100746,-0.00239795,1.1324,0.00202001,0.0228252,1966,1163,47.7295,-6.68594
749,-139,47.7394,6.25391,-0.00310527,0.000880301,0.00123123,0.00122998,-0.00345494,1.29408,0.00280468,0.0203541,1973,1163,47.7394,-6.25386
756,-139,47.7334,5.84802,-0.00577856,0.00203178,0.000308248,0.00204392,-0.00579071,1.53141,0.00469258,0.0129283,1980,1163,47.7334,-5.84806
763,-139,47.6936,5.42334,-0.0100547,0.00286881,-0.00169751,0.00308806,-0.0102739,-1.44235,0.00807784,0.0127445,1987,1163,47.6936,-5.42337
770,-139,47.686,5.01648,-0.0152178,0.00375417,-0.00424642,0.00466126,-0.0161249,-1.36035,0.0125945,0.0136813,1994,1163,47.686,-5.01644
777,-139,47.6875,4.6438,-0.0214721,0.00433948,-0.00746784,0.00634435,-0.023477,-1.30851,0.0181398,0.0264515,2001,1163,47.6876,-4.6438
784,-139,47.175,4.0647,-0.0291588,0.00445464,-0.0115622,0.00804769,-0.0327518,-1.2695,0.0249535,0.0427938,2008,1163,47.1751,-4.06473
791,-139,46.7405,3.40137,-0.0383313,0.00379255,-0.0167077,0.00961467,-0.0441534,-1.23549,0.0331091,0.0461918,2015,1163,46.7405,-3.40131
798,-139,46.595,2.82715,0,0,0,0,0,0,0,-1,2022,1163,46.595,-2.82716
805,-139,45.7534,2.59839,0,0,0,0,0,0,0,-1,2029,1163,45.7535,-2.59837
812,-139,0,0,0,0,0,0,0,0,0,-1,2036,1163,0,0
-700,-146,0,0,0,0,0,0,0,0,0,-1,524,1170,0,0
-693,-146,-32.0816,-3.72876,0,0,0,0,0,0,0,-1,531,1170,-32.0816,3.72878
-686,-146,-32.261,-2.99121,0,0,0,0,0,0,0,-1,538,1170,-32.261,2.99116
-679,-146,-33.4982,0.640747,0,0,0,0,0,0,0,-1,545,1170,-33.4982,-0.640771
-672,-146,-33.4552,0.756226,-0.0245858,0.132086,-0.0785866,0.164711,-0.057211,-1.1773,0.133043,0.0446749,552,1170,-33.4552,-0.756191
-665,-146,-33.5479,0.952515,-0.0190525,0.10521,-0.0625703,0.131256,-0.0450992,-1.17634,0.105792,0.0410773,559,1170,-33.5479,-0.952479
-658,-146,-33.4495,0.883911,-0.0141855,0.0815464,-0.0483342,0.101705,-0.0343441,-1.17566,0.0816943,0.0457885,566,1170,-33.4495,-0.883934
-651,-146,-33.4122,1.20068,-0.00998444,0.0610708,-0.0359556,0.0760904,-0.025004,-1.1751,0.0608003,0.0426021,573,1170,-33.4122,-1.2007
-644,-146,-33.4224,1.78491,-0.00646538,0.0435379,-0.0253684,0.0541542,-0.0170817,-1.17446,0.0429444,0.0233127,580,1170,-33.4224,-1.78497
-637,-146,-33.4816,2.27917,-0.00372782,0.0286579,-0.0164273,0.0355316,-0.0106015,-1.1745,0.0279012,0.0118836,587,1170,-33.4816,-2.27924
-630,-146,-33.5093,2.75342,-0.00160541,0.0162619,-0.00937354,0.0202772,-0.00562063,-1.16609,0.01573,0.0108717,594,1170,-33.5094,-2.75346
-623,-146,-33.5358,3.21082,-0.000115672,0.00657362,-0.00413044,0.00854379,-0.00208584,-1.12573,0.0065036,0.0138502,601,1170,-33.5358,-3.21085
-616,-146,-33.5856,3.70581,0.000559186,0.000950732,-0.00110841,0.00188052,-0.000370606,-0.872809,0.00139374,0.020126,608,1170,-33.5857,-3.70586
-609,-146,-33.439,4.29456,0.000706316,0.000238633,-0.000993759,0.00149338,-0.000548427,-0.669845,0.00122019,0.0299416,615,1170,-33.4389,-4.29461
-602,-146,-33.5683,4.75586,0,0,0,0,0,0,0,-1,622,1170,-33.5683,-4.75591
-595,-146,-33.764,5.20874,0,0,0,0,0,0,0,-1,629,1170,-33.764,-5.2087
-588,-146,-33.9788,5.56836,0,0,0,0,0,0,0,-1,636,1170,-33.9787,-5.56838
-581,-146,-31.7815,6.30347,0,0,0,0,0,0,0,-1,643,1170,-31.7815,-6.3035
-574,-146,-17.9915,3.79114,0,0,0,0,0,0,0,-1,650,1170,-17.9915,-3.79118
-567,-146,-40.2374,0.56958,0,0,0,0,0,0,0,-1,657,1170,-40.2374,-0.569597
-560,-146,-40.3514,0.813232,-0.000166744,-0.00148341,-0.00248276,0.00174349,-0.00339364,-0.6558,0.00301649,0.045592,664,1170,-40.3514,-0.813285
-553,-146,-40.4157,1.05249,-0.000388055,-0.00151261,-0.00282597,0.00193103,-0.0038317,-0.687197,0.0033869,0.0397707,671,1170,-40.4157,-1.05247
-546,-146,-40.4728,1.21558,6.57196e-05,-0.00162531,-0.00275931,0.00210615,-0.00366575,-0.636729,0.00337271,0.041659,678,1170,-40.4729,-1.21554
-539,-146,-40.5262,1.2699,0.00196455,-0.00179383,-0.00216259,0.00295035,-0.00277962,-0.427701,0.00330869,0.0425825,685,1170,-40.5262,-1.26993
-532,-146,-40.5984,0.927368,0.0051938,-0.00185289,-0.00117434,0.00538435,-0.00204345,-0.160861,0.00443068,0.0404009,692,1170,-40.5984,-0.927358
-525,-146,-40.5035,1.0199,0.00951121,-0.0013181,-9.39586e-05,0.00951202,-0.00131891,-0.00867545,0.00682361,0.0424206,699,1170,-40.5036,-1.01987
-518,-146,0,0,0,0,0,0,0,0,0,-1,706,1170,0,0
-511,-146,0,0,0,0,0,0,0,0,0,-1,713,1170,0,0
-504,-146,0,0,0,0,0,0,0,0,0,-1,720,1170,0,0
-497,-146,0,0,0,0,0,0,0,0,0,-1,727,1170,0,0
-490,-146,0,0,0,0,0,0,0,0,0,-1,734,1170,0,0
-483,-146,0,0,0,0,0,0,0,0,0,-1,741,1170,0,0
-476,-146,0,0,0,0,0,0,0,0,0,-1,748,1170,0,0
-469,-146,0,0,0,0,0,0,0,0,0,-1,755,1170,0,0
-462,-146,0,0,0,0,0,0,0,0,0,-1,762,1170,0,0
-455,-146,0,0,0,0,0,0,0,0,0,-1,769,1170,0,0
-448,-146,0,0,0,0,0,0,0,0,0,-1,776,1170,0,0
-441,-146,0,0,0,0,0,0,0,0,0,-1,783,1170,0,0
-434,-146,0,0,0,0,0,0,0,0,0,-1,790,1170,0,0
-427,-146,0,0,0,0,0,0,0,0,0,-1,797,1170,0,0
-420,-146,0,0,0,0,0,0,0,0,0,-1,804,1170,0,0
-413,-146,0,0,0,0,0,0,0,0,0,-1,811,1170,0,0
-406,-146,0,0,0,0,0,0,0,0,0,-1,818,1170,0,0
-399,-146,0,0,0,0,0,0,0,0,0,-1,825,1170,0,0
-392,-146,0,0,0,0,0,0,0,0,0,-1,832,1170,0,0
-385,-146,0,0,0,0,0,0,0,0,0,-1,839,1170,0,0
-378,-146,0,0,0,0,0,0,0,0,0,-1,846,1170,0,0
-371,-146,0,0,0,0,0,0,0,0,0,-1,853,1170,0,0
-364,-146,0,0,0,0,0,0,0,0,0,-1,860,1170,0,0
-357,-146,0,0,0,0,0,0,0,0,0,-1,867,1170,0,0
-350,-146,0,0,0,0,0,0,0,0,0,-1,874,1170,0,0
-343,-146,0,0,0,0,0,0,0,0,0,-1,881,1170,0,0
-336,-146,0,0,0,0,0,0,0,0,0,-1,888,1170,0,0
-329,-146,0,0,0,0,0,0,0,0,0,-1,895,1170,0,0
-322,-146,0,0,0,0,0,0,0,0,0,-1,902,1170,0,0
-315,-146,0,0,0,0,0,0,0,0,0,-1,909,1170,0,0
-308,-146,0,0,0,0,0,0,0,0,0,-1,916,1170,0,0
-301,-146,0,0,0,0,0,0,0,0,0,-1,923,1170,0,0
-294,-146,0,0,0,0,0,0,0,0,0,-1,930,1170,0,0
-287,-146,0,0,0,0,0,0,0,0,0,-1,937,1170,0,0
-280,-146,0,0,0,0,0,0,0,0,0,-1,944,1170,0,0
-273,-146,0,0,0,0,0,0,0,0,0,-1,951,1170,0,0
-266,-146,0,0,0,0,0,0,0,0,0,-1,958,1170,0,0
-259,-146,0,0,0,0,0,0,0,0,0,-1,965,1170,0,0
-252,-146,0,0,0,0,0,0,0,0,0,-1,972,1170,0,0
-245,-146,0,0,0,0,0,0,0,0,0,-1,979,1170,0,0
-238,-146,0,0,0,0,0,0,0,0,0,-1,986,1170,0,0
-231,-146,0,0,0,0,0,0,0,0,0,-1,993,1170,0,0
-224,-146,0,0,0,0,0,0,0,0,0,-1,1000,1170,0,0
-217,-146,0,0,0,0,0,0,0,0,0,-1,1007,1170,0,0
-210,-146,0,0,0,0,0,0,0,0,0,-1,1014,1170,0,0
-203,-146,0,0,0,0,0,0,0,0,0,-1,1021,1170,0,0
-196,-146,0,0,0,0,0,0,0,0,0,-1,1028,1170,0,0
-189,-146,0,0,0,0,0,0,0,0,0,-1,1035,1170,0,0
-182,-146,0,0,0,0,0,0,0,0,0,-1,1042,1170,0,0
-175,-146,0,0,0,0,0,0,0,0,0,-1,1049,1170,0,0
-168,-146,0,0,0,0,0,0,0,0,0,-1,1056,1170,0,0
-161,-146,0,0,0,0,0,0,0,0,0,-1,1063,1170,0,0
-154,-146,0,0,0,0,0,0,0,0,0,-1,1070,1170,0,0
-147,-146,0,0,0,0,0,0,0,0,0,-1,1077,1170,0,0
-140,-146,0,0,0,0,0,0,0,0,0,-1,1084,1170,0,0
-133,-146,0,0,0,0,0,0,0,0,0,-1,1091,1170,0,0
-126,-146,0,0,0,0,0,0,0,0,0,-1,1098,1170,0,0
-119,-146,0,0,0,0,0,0,0,0,0,-1,1105,1170,0,0
-112,-146,0,0,0,0,0,0,0,0,0,-1,1112,1170,0,0
-105,-146,0,0,0,0,0,0,0,0,0,-1,1119,1170,0,0
-98,-146,0,0,0,0,0,0,0,0,0,-1,1126,1170,0,0
-91,-146,0,0,0,0,0,0,0,0,0,-1,1133,1170,0,0
-84,-146,0,0,0,0,0,0,0,0,0,-1,1140,1170,0,0
-77,-146,0,0,0,0,0,0,0,0,0,-1,1147,1170,0,0
-70,-146,0,0,0,0,0,0,0,0,0,-1,1154,1170,0,0
-63,-146,0,0,0,0,0,0,0,0,0,-1,1161,1170,0,0
-56,-146,0,0,0,0,0,0,0,0,0,-1,1168,1170,0,0
-49,-146,0,0,0,0,0,0,0,0,0,-1,1175,1170,0,0
-42,-146,0,0,0,0,0,0,0,0,0,-1,1182,1170,0,0
-35,-146,0,0,0,0,0,0,0,0,0,-1,1189,1170,0,0
-28,-146,0,0,0,0,0,0,0,0,0,-1,1196,1170,0,0
-21,-146,0,0,0,0,0,0,0,0,0,-1,1203,1170,0,0
-14,-146,0,0,0,0,0,0,0,0,0,-1,1210,1170,0,0
-7,-146,0,0,0,0,0,0,0,0,0,-1,1217,1170,0,0
0,-146,0,0,0,0,0,0,0,0,0,-1,1224,1170,0,0
7,-146,0,0,0,0,0,0,0,0,0,-1,1231,1170,0,0
14,-146,0,0,0,0,0,0,0,0,0,-1,1238,1170,0,0
21,-146,0,0,0,0,0,0,0,0,0,-1,1245,1170,0,0
28,-146,0,0,0,0,0,0,0,0,0,-1,1252,1170,0,0
35,-146,0,0,0,0,0,0,0,0,0,-1,1259,1170,0,0
42,-146,0,0,0,0,0,0,0,0,0,-1,1266,1170,0,0
49,-146,0,0,0,0,0,0,0,0,0,-1,1273,1170,0,0
56,-146,0,0,0,0,0,0,0,0,0,-1,1280,1170,0,0
63,-146,0,0,0,0,0,0,0,0,0,-1,1287,1170,0,0
70,-146,0,0,0,0,0,0,0,0,0,-1,1294,1170,0,0
77,-146,0,0,0,0,0,0,0,0,0,-1,1301,1170,0,0
84,-146,0,0,0,0,0,0,0,0,0,-1,1308,1170,0,0
91,-146,0,0,0,0,0,0,0,0,0,-1,1315,1170,0,0
98,-146,0,0,0,0,0,0,0,0,0,-1,1322,1170,0,0
105,-146,0,0,0,0,0,0,0,0,0,-1,1329,1170,0,0
112,-146,0,0,0,0,0,0,0,0,0,-1,1336,1170,0,0
119,-146,0,0,0,0,0,0,0,0,0,-1,1343,1170,0,0
126,-146,0,0,0,0,0,0,0,0,0,-1,1350,1170,0,0
133,-146,0,0,0,0,0,0,0,0,0,-1,1357,1170,0,0
140,-146,0,0,0,0,0,0,0,0,0,-1,1364,1170,0,0
147,-146,0,0,0,0,0,0,0,0,0,-1,1371,1170,0,0
154,-146,0,0,0,0,0,0,0,0,0,-1,1378,1170,0,0
161,-146,0,0,0,0,0,0,0,0,0,-1,1385,1170,0,0
168,-146,0,0,0,0,0,0,0,0,0,-1,1392,1170,0,0
175,-146,0,0,0,0,0,0,0,0,0,-1,1399,1170,0,0
182,-146,0,0,0,0,0,0,0,0,0,-1,1406,1170,0,0
189,-146,0,0,0,0,0,0,0,0,0,-1,1413,1170,0,0
196,-146,0,0,0,0,0,0,0,0,0,-1,1420,1170,0,0
203,-146,0,0,0,0,0,0,0,0,0,-1,1427,1170,0,0
210,-146,0,0,0,0,0,0,0,0,0,-1,1434,1170,0,0
217,-146,0,0,0,0,0,0,0,0,0,-1,1441,1170,0,0
224,-146,0,0,0,0,0,0,0,0,0,-1,1448,1170,0,0
231,-146,0,0,0,0,0,0,0,0,0,-1,1455,1170,0,0
238,-146,0,0,0,0,0,0,0,0,0,-1,1462,1170,0,0
245,-146,0,0,0,0,0,0,0,0,0,-1,1469,1170,0,0
252,-146,0,0,0,0,0,0,0,0,0,-1,1476,1170,0,0
259,-146,0,0,0,0,0,0,0,0,0,-1,1483,1170,0,0
266,-146,0,0,0,0,0,0,0,0,0,-1,1490,1170,0,0
273,-146,0,0,0,0,0,0,0,0,0,-1,1497,1170,0,0
280,-146,0,0,0,0,0,0,0,0,0,-1,1504,1170,0,0
287,-146,0,0,0,0,0,0,0,0,0,-1,1511,1170,0,0
294,-146,0,0,0,0,0,0,0,0,0,-1,1518,1170,0,0
301,-146,0,0,0,0,0,0,0,0,0,-1,1525,1170,0,0
308,-146,0,0,0,0,0,0,0,0,0,-1,1532,1170,0,0
315,-146,0,0,0,0,0,0,0,0,0,-1,1539,1170,0,0
322,-146,0,0,0,0,0,0,0,0,0,-1,1546,1170,0,0
329,-146,0,0,0,0,0,0,0,0,0,-1,1553,1170,0,0
336,-146,0,0,0,0,0,0,0,0,0,-1,1560,1170,0,0
343,-146,0,0,0,0,0,0,0,0,0,-1,1567,1170,0,0
350,-146,0,0,0,0,0,0,0,0,0,-1,1574,1170,0,0
357,-146,0,0,0,0,0,0,0,0,0,-1,1581,1170,0,0
364,-146,0,0,0,0,0,0,0,0,0,-1,1588,1170,0,0
371,-146,0,0,0,0,0,0,0,0,0,-1,1595,1170,0,0
378,-146,0,0,0,0,0,0,0,0,0,-1,1602,1170,0,0
385,-146,0,0,0,0,0,0,0,0,0,-1,1609,1170,0,0
392,-146,0,0,0,0,0,0,0,0,0,-1,1616,1170,0,0
399,-146,0,0,0,0,0,0,0,0,0,-1,1623,1170,0,0
406,-146,0,0,0,0,0,0,0,0,0,-1,1630,1170,0,0
413,-146,0,0,0,0,0,0,0,0,0,-1,1637,1170,0,0
420,-146,0,0,0,0,0,0,0,0,0,-1,1644,1170,0,0
427,-146,0,0,0,0,0,0,0,0,0,-1,1651,1170,0,0
434,-146,0,0,0,0,0,0,0,0,0,-1,1658,1170,0,0
441,-146,0,0,0,0,0,0,0,0,0,-1,1665,1170,0,0
448,-146,0,0,0,0,0,0,0,0,0,-1,1672,1170,0,0
455,-146,0,0,0,0,0,0,0,0,0,-1,1679,1170,0,0
462,-146,0,0,0,0,0,0,0,0,0,-1,1686,1170,0,0
469,-146,0,0,0,0,0,0,0,0,0,-1,1693,1170,0,0
476,-146,0,0,0,0,0,0,0,0,0,-1,1700,1170,0,0
483,-146,0,0,0,0,0,0,0,0,0,-1,1707,1170,0,0
490,-146,0,0,0,0,0,0,0,0,0,-1,1714,1170,0,0
497,-146,0,0,0,0,0,0,0,0,0,-1,1721,1170,0,0
504,-146,0,0,0,0,0,0,0,0,0,-1,1728,1170,0,0
511,-146,0,0,0,0,0,0,0,0,0,-1,1735,1170,0,0
518,-146,0,0,0,0,0,0,0,0,0,-1,1742,1170,0,0
525,-146,0,0,0,0,0,0,0,0,0,-1,1749,1170,0,0
532,-146,0,0,0,0,0,0,0,0,0,-1,1756,1170,0,0
539,-146,0,0,0,0,0,0,0,0,0,-1,1763,1170,0,0
546,-146,0,0,0,0,0,0,0,0,0,-1,1770,1170,0,0
553,-146,0,0,0,0,0,0,0,0,0,-1,1777,1170,0,0
560,-146,0,0,0,0,0,0,0,0,0,-1,1784,1170,0,0
567,-146,0,0,0,0,0,0,0,0,0,-1,1791,1170,0,0
574,-146,0,0,0,0,0,0,0,0,0,-1,1798,1170,0,0
581,-146,0,0,0,0,0,0,0,0,0,-1,1805,1170,0,0
588,-146,0,0,0,0,0,0,0,0,0,-1,1812,1170,0,0
595,-146,0,0,0,0,0,0,0,0,0,-1,1819,1170,0,0
602,-146,0,0,0,0,0,0,0,0,0,-1,1826,1170,0,0
609,-146,0,0,0,0,0,0,0,0,0,-1,1833,1170,0,0
616,-146,0,0,0,0,0,0,0,0,0,-1,1840,1170,0,0
623,-146,0,0,0,0,0,0,0,0,0,-1,1847,1170,0,0
630,-146,0,0,0,0,0,0,0,0,0,-1,1854,1170,0,0
637,-146,53.9933,2.43762,0.0052096,-0.00831165,-9.18586e-05,0.00521023,-0.00831227,-0.00679323,0.0078754,0.0425481,1861,1170,53.9932,-2.43767
644,-146,54.0151,2.46399,0.00344679,-0.00624768,-2.32616e-05,0.00344685,-0.00624773,-0.00239945,0.0056745,0.0389519,1868,1170,54.0151,-2.464
651,-146,53.9645,2.63208,0.00222898,-0.00423399,-0.000192284,0.00223469,-0.00423971,-0.0297165,0.00379727,0.0359199,1875,1170,53.9644,-2.63202
658,-146,54.0426,2.78418,0.00146715,-0.00243437,-0.000431987,0.0015144,-0.00248163,-0.108964,0.00232953,0.0406456,1882,1170,54.0426,-2.78414
665,-146,54.0686,2.97241,0.000959739,-0.000735623,-0.000732878,0.00123263,-0.00100851,-0.356445,0.00129608,0.0432265,1889,1170,54.0686,-2.97236
672,-146,54.0281,2.84253,0.000441564,0.000681505,-0.000976141,0.00154502,-0.000421951,-0.846543,0.00119574,0.0396019,1896,1170,54.028,-2.8425
679,-146,53.9923,2.71753,-6.7275e-06,0.00120171,-0.000931483,0.00170778,-0.000512797,-1.07312,0.00134251,0.0311855,1903,1170,53.9924,-2.71757
686,-146,53.9045,2.69775,-0.000148173,0.00109725,-0.000704853,0.00141507,-0.000465987,-1.1472,0.00113117,0.0230753,1910,1170,53.9046,-2.6978
693,-146,53.9425,2.62817,-0.000332176,0.000970072,-0.000430235,0.00109937,-0.000461478,-1.27885,0.000925904,0.0157734,1917,1170,53.9425,-2.62817
700,-146,53.9781,2.37573,0,0,0,0,0,0,0,-1,1924,1170,53.9782,-2.3757
707,-146,29.9441,6.94653,0,0,0,0,0,0,0,-1,1931,1170,29.9441,-6.94652
714,-146,31.325,6.13245,0,0,0,0,0,0,0,-1,1938,1170,31.325,-6.1325
721,-146,47.4274,7.81848,0,0,0,0,0,0,0,-1,1945,1170,47.4273,-7.81846
728,-146,47.3365,7.31165,0,0,0,0,0,0,0,-1,1952,1170,47.3365,-7.31167
735,-146,47.2677,7.14209,-0.00102375,0.000567226,0.00110889,0.00113645,-0.00159298,1.09654,0.00158317,0.0325192,1959,1170,47.2677,-7.14214
742,-146,47.3167,6.71228,-0.00150182,0.000401638,0.00141029,0.00115129,-0.00225148,1.08222,0.00199853,0.0180682,1966,1170,47.3166,-6.71229
749,-146,47.2891,6.30139,-0.00271514,0.000796058,0.0013053,0.00122814,-0.00314722,1.25113,0.00260585,0.0171622,1973,1170,47.2891,-6.30139
756,-146,47.2635,5.8479,-0.00514214,0.00183373,0.000231644,0.00184142,-0.00514983,1.53764,0.00418434,0.0138525,1980,1170,47.2635,-5.84786
763,-146,47.213,5.40259,-0.0089819,0.00246447,-0.00187015,0.00276227,-0.0092797,-1.41288,0.00728396,0.0124416,1987,1170,47.213,-5.40256
770,-146,47.2018,4.97681,-0.0135671,0.00310153,-0.00451729,0.00424702,-0.0147126,-1.32245,0.0114888,0.0127998,1994,1170,47.2018,-4.97685
777,-146,47.2151,4.65088,-0.0191083,0.00341227,-0.00787047,0.00589019,-0.0215863,-1.26578,0.0167041,0.0251545,2001,1170,47.2151,-4.65083
784,-146,46.657,4.12122,0,0,0,0,0,0,0,-1,2008,1170,46.6571,-4.1212
791,-146,46.2183,3.91541,-0.0336449,0.00217814,-0.0174677,0.00928546,-0.0407522,-1.18437,0.0307345,0.0432158,2015,1170,46.2183,-3.91543
798,-146,44.9575,3.54663,-0.0426723,1.33869e-05,-0.0241363,0.0108898,-0.0535486,-1.14742,0.0398284,0.0446436,2022,1170,44.9576,-3.54665
805,-146,44.6221,3.00439,0,0,0,0,0,0,0,-1,2029,1170,44.6221,-3.00444
812,-146,0,0,0,0,0,0,0,0,0,-1,2036,1170,0,0
-700,-153,0,0,0,0,0,0,0,0,0,-1,524,1177,0,0
-693,-153,0,0,0,0,0,0,0,0,0,-1,531,1177,0,0
-686,-153,-33.4215,-2.55127,0,0,0,0,0,0,0,-1,538,1177,-33.4215,2.55125
-679,-153,-31.3281,-0.566406,0,0,0,0,0,0,0,-1,545,1177,-31.3281,0.566417
-672,-153,-31.2171,-0.321777,-0.0184578,0.127666,-0.0643427,0.151959,-0.0427511,-1.20978,0.118163,0.045433,552,1177,-31.2171,0.321736
-665,-153,-31.4955,0.253784,-0.0136884,0.10237,-0.0516391,0.12202,-0.0333378,-1.2072,0.0944414,0.0441359,559,1177,-31.4955,-0.253757
-658,-153,-31.7731,0.523682,-0.00970959,0.0799589,-0.0401919,0.0953367,-0.0250874,-1.20537,0.0733643,0.0460171,566,1177,-31.7732,-0.523735
-651,-153,-32.9015,1.12549,-0.00644638,0.0604119,-0.0301456,0.0719969,-0.0180313,-1.2039,0.0550025,0.0470086,573,1177,-32.9015,-1.12551
-644,-153,-32.9257,1.74573,-0.00386614,0.0434686,-0.0214415,0.0517368,-0.0121344,-1.20275,0.0391676,0.0281062,580,1177,-32.9257,-1.74567
-637,-153,-32.9711,2.27612,-0.00199378,0.0290133,-0.0141136,0.0344753,-0.00745576,-1.20155,0.02583,0.0120601,587,1177,-32.9711,-2.27611
-630,-153,-33.0015,2.74487,-0.000644843,0.0169194,-0.0083209,0.0202353,-0.00396078,-1.19158,0.014986,0.0105072,594,1177,-33.0015,-2.74485
-623,-153,-33.0335,3.22314,0.000183636,0.00724435,-0.00401791,0.00906255,-0.00163456,-1.14585,0.00665381,0.0110996,601,1177,-33.0335,-3.2232
-616,-153,-33.0704,3.71997,0.000373606,0.00113061,-0.00127188,0.00207911,-0.000574898,-0.930021,0.00161224,0.0145154,608,1177,-33.0704,-3.71999
-609,-153,-33.0368,4.19348,0.000274009,7.25931e-05,-0.00105652,0.00123461,-0.000888005,-0.737881,0.00123092,0.0271774,615,1177,-33.0368,-4.19354
-602,-153,-32.991,4.62793,0,0,0,0,0,0,0,-1,622,1177,-32.991,-4.62798
-595,-153,-33.344,5.28784,0,0,0,0,0,0,0,-1,629,1177,-33.344,-5.28787
-588,-153,-32.348,5.51038,0,0,0,0,0,0,0,-1,636,1177,-32.348,-5.51034
-581,-153,-31.3984,6.18799,0,0,0,0,0,0,0,-1,643,1177,-31.3985,-6.18796
-574,-153,-25.4814,5.16956,0,0,0,0,0,0,0,-1,650,1177,-25.4814,-5.16961
-567,-153,-35.3121,1.09485,0,0,0,0,0,0,0,-1,657,1177,-35.3121,-1.09482
-560,-153,-40.301,0.842163,0,0,0,0,0,0,0,-1,664,1177,-40.301,-0.84216
-553,-153,-40.3827,0.970703,-0.00092705,-0.00162109,-0.0031417,0.00188674,-0.00443488,-0.730394,0.00374732,0.0381572,671,1177,-40.3827,-0.970665
-546,-153,-40.4232,0.780029,-0.000365136,-0.00182223,-0.00316947,0.00215844,-0.00434581,-0.672428,0.00382536,0.0416029,678,1177,-40.4232,-0.779975
-539,-153,-41.0717,0.515259,0,0,0,0,0,0,0,-1,685,1177,-41.0717,-0.515256
-532,-153,-40.7531,0.742065,0.00561098,-0.00265066,-0.00207866,0.00610449,-0.00314418,-0.233105,0.00543013,0.0444155,692,1177,-40.753,-0.742066
-525,-153,-40.4742,1.0929,0.0109565,-0.00256071,-0.00129496,0.0110794,-0.00268365,-0.0946536,0.00842453,0.041279,699,1177,-40.4742,-1.09286
-518,-153,0,0,0,0,0,0,0,0,0,-1,706,1177,0,0
-511,-153,0,0,0,0,0,0,0,0,0,-1,713,1177,0,0
-504,-153,0,0,0,0,0,0,0,0,0,-1,720,1177,0,0
-497,-153,0,0,0,0,0,0,0,0,0,-1,727,1177,0,0
-490,-153,0,0,0,0,0,0,0,0,0,-1,734,1177,0,0
-483,-153,0,0,0,0,0,0,0,0,0,-1,741,1177,0,0
-476,-153,0,0,0,0,0,0,0,0,0,-1,748,1177,0,0
-469,-153,0,0,0,0,0,0,0,0,0,-1,755,1177,0,0
-462,-153,0,0,0,0,0,0,0,0,0,-1,762,1177,0,0
-455,-153,0,0,0,0,0,0,0,0,0,-1,769,1177,0,0
-448,-153,0,0,0,0,0,0,0,0,0,-1,776,1177,0,0
-441,-153,0,0,0,0,0,0,0,0,0,-1,783,1177,0,0
-434,-153,0,0,0,0,0,0,0,0,0,-1,790,1177,0,0
-427,-153,0,0,0,0,0,0,0,0,0,-1,797,1177,0,0
-420,-153,0,0,0,0,0,0,0,0,0,-1,804,1177,0,0
-413,-153,0,0,0,0,0,0,0,0,0,-1,811,1177,0,0
-406,-153,0,0,0,0,0,0,0,0,0,-1,818,1177,0,0
-399,-153,0,0,0,0,0,0,0,0,0,-1,825,1177,0,0
-392,-153,0,0,0,0,0,0,0,0,0,-1,832,1177,0,0
-385,-153,0,0,0,0,0,0,0,0,0,-1,839,1177,0,0
-378,-153,0,0,0,0,0,0,0,0,0,-1,846,1177,0,0
-371,-153,0,0,0,0,0,0,0,0,0,-1,853,1177,0,0
-364,-153,0,0,0,0,0,0,0,0,0,-1,860,1177,0,0
-357,-153,0,0,0,0,0,0,0,0,0,-1,867,1177,0,0
-350,-153,0,0,0,0,0,0,0,0,0,-1,874,1177,0,0
-343,-153,0,0,0,0,0,0,0,0,0,-1,881,1177,0,0
-336,-153,0,0,0,0,0,0,0,0,0,-1,888,1177,0,0
-329,-153,0,0,0,0,0,0,0,0,0,-1,895,1177,0,0
-322,-153,0,0,0,0,0,0,0,0,0,-1,902,1177,0,0
-315,-153,0,0,0,0,0,0,0,0,0,-1,909,1177,0,0
-308,-153,0,0,0,0,0,0,0,0,0,-1,916,1177,0,0
-301,-153,0,0,0,0,0,0,0,0,0,-1,923,1177,0,0
-294,-153,0,0,0,0,0,0,0,0,0,-1,930,1177,0,0
-287,-153,0,0,0,0,0,0,0,0,0,-1,937,1177,0,0
-280,-153,0,0,0,0,0,0,0,0,0,-1,944,1177,0,0
-273,-153,0,0,0,0,0,0,0,0,0,-1,951,1177,0,0
-266,-153,0,0,0,0,0,0,0,0,0,-1,958,1177,0,0
-259,-153,0,0,0,0,0,0,0,0,0,-1,965,1177,0,0
-252,-153,0,0,0,0,0,0,0,0,0,-1,972,1177,0,0
-245,-153,0,0,0,0,0,0,0,0,0,-1,979,1177,0,0
-238,-153,0,0,0,0,0,0,0,0,0,-1,986,1177,0,0
-231,-153,0,0,0,0,0,0,0,0,0,-1,993,1177,0,0
-224,-153,0,0,0,0,0,0,0,0,0,-1,1000,1177,0,0
-217,-153,0,0,0,0,0,0,0,0,0,-1,1007,1177,0,0
-210,-153,0,0,0,0,0,0,0,0,0,-1,1014,1177,0,0
-203,-153,0,0,0,0,0,0,0,0,0,-1,1021,1177,0,0
-196,-153,0,0,0,0,0,0,0,0,0,-1,1028,1177,0,0
-189,-153,0,0,0,0,0,0,0,0,0,-1,1035,1177,0,0
-182,-153,0,0,0,0,0,0,0,0,0,-1,1042,1177,0,0
-175,-153,0,0,0,0,0,0,0,0,0,-1,1049,1177,0,0
-168,-153,0,0,0,0,0,0,0,0,0,-1,1056,1177,0,0
-161,-153,0,0,0,0,0,0,0,0,0,-1,1063,1177,0,0
-154,-153,0,0,0,0,0,0,0,0,0,-1,1070,1177,0,0
-147,-153,0,0,0,0,0,0,0,0,0,-1,1077,1177,0,0
-140,-153,0,0,0,0,0,0,0,0,0,-1,1084,1177,0,0
-133,-153,0,0,0,0,0,0,0,0,0,-1,1091,1177,0,0
-126,-153,0,0,0,0,0,0,0,0,0,-1,1098,1177,0,0
-119,-153,0,0,0,0,0,0,0,0,0,-1,1105,1177,0,0
-112,-153,0,0,0,0,0,0,0,0,0,-1,1112,1177,0,0
-105,-153,0,0,0,0,0,0,0,0,0,-1,1119,1177,0,0
-98,-153,0,0,0,0,0,0,0,0,0,-1,1126,1177,0,0
-91,-153,0,0,0,0,0,0,0,0,0,-1,1133,1177,0,0
-84,-153,0,0,0,0,0,0,0,0,0,-1,1140,1177,0,0
-77,-153,0,0,0,0,0,0,0,0,0,-1,1147,1177,0,0
-70,-153,0,0,0,0,0,0,0,0,0,-1,1154,1177,0,0
-63,-153,0,0,0,0,0,0,0,0,0,-1,1161,1177,0,0
-56,-153,0,0,0,0,0,0,0,0,0,-1,1168,1177,0,0
-49,-153,0,0,0,0,0,0,0,0,0,-1,1175,1177,0,0
-42,-153,0,0,0,0,0,0,0,0,0,-1,1182,1177,0,0
-35,-153,0,0,0,0,0,0,0,0,0,-1,1189,1177,0,0
-28,-153,0,0,0,0,0,0,0,0,0,-1,1196,1177,0,0
-21,-153,0,0,0,0,0,0,0,0,0,-1,1203,1177,0,0
-14,-153,0,0,0,0,0,0,0,0,0,-1,1210,1177,0,0
-7,-153,0,0,0,0,0,0,0,0,0,-1,1217,1177,0,0
0,-153,0,0,0,0,0,0,0,0,0,-1,1224,1177,0,0
7,-153,0,0,0,0,0,0,0,0,0,-1,1231,1177,0,0
14,-153,0,0,0,0,0,0,0,0,0,-1,1238,1177,0,0
21,-153,0,0,0,0,0,0,0,0,0,-1,1245,1177,0,0
28,-153,0,0,0,0,0,0,0,0,0,-1,1252,1177,0,0
35,-153,0,0,0,0,0,0,0,0,0,-1,1259,1177,0,0
42,-153,0,0,0,0,0,0,0,0,0,-1,1266,1177,0,0
49,-153,0,0,0,0,0,0,0,0,0,-1,1273,1177,0,0
56,-153,0,0,0,0,0,0,0,0,0,-1,1280,1177,0,0
63,-153,0,0,0,0,0,0,0,0,0,-1,1287,1177,0,0
70,-153,0,0,0,0,0,0,0,0,0,-1,1294,1177,0,0
77,-153,0,0,0,0,0,0,0,0,0,-1,1301,1177,0,0
84,-153,0,0,0,0,0,0,0,0,0,-1,1308,1177,0,0
91,-153,0,0,0,0,0,0,0,0,0,-1,1315,1177,0,0
98,-153,0,0,0,0,0,0,0,0,0,-1,1322,1177,0,0
105,-153,0,0,0,0,0,0,0,0,0,-1,1329,1177,0,0
112,-153,0,0,0,0,0,0,0,0,0,-1,1336,1177,0,0
119,-153,0,0,0,0,0,0,0,0,0,-1,1343,1177,0,0
126,-153,0,0,0,0,0,0,0,0,0,-1,1350,1177,0,0
133,-153,0,0,0,0,0,0,0,0,0,-1,1357,1177,0,0
140,-153,0,0,0,0,0,0,0,0,0,-1,1364,1177,0,0
147,-153,0,0,0,0,0,0,0,0,0,-1,1371,1177,0,0
154,-153,0,0,0,0,0,0,0,0,0,-1,1378,1177,0,0
161,-153,0,0,0,0,0,0,0,0,0,-1,1385,1177,0,0
168,-153,0,0,0,0,0,0,0,0,0,-1,1392,1177,0,0
175,-153,0,0,0,0,0,0,0,0,0,-1,1399,1177,0,0
182,-153,0,0,0,0,0,0,0,0,0,-1,1406,1177,0,0
189,-153,0,0,0,0,0,0,0,0,0,-1,1413,1177,0,0
196,-153,0,0,0,0,0,0,0,0,0,-1,1420,1177,0,0
203,-153,0,0,0,0,0,0,0,0,0,-1,1427,1177,0,0
210,-153,0,0,0,0,0,0,0,0,0,-1,1434,1177,0,0
217,-153,0,0,0,0,0,0,0,0,0,-1,1441,1177,0,0
224,-153,0,0,0,0,0,0,0,0,0,-1,1448,1177,0,0
231,-153,0,0,0,0,0,0,0,0,0,-1,1455,1177,0,0
238,-153,0,0,0,0,0,0,0,0,0,-1,1462,1177,0,0
245,-153,0,0,0,0,0,0,0,0,0,-1,1469,1177,0,0
252,-153,0,0,0,0,0,0,0,0,0,-1,1476,1177,0,0
259,-153,0,0,0,0,0,0,0,0,0,-1,1483,1177,0,0
266,-153,0,0,0,0,0,0,0,0,0,-1,1490,1177,0,0
273,-153,0,0,0,0,0,0,0,0,0,-1,1497,1177,0,0
280,-153,0,0,0,0,0,0,0,0,0,-1,1504,1177,0,0
287,-153,0,0,0,0,0,0,0,0,0,-1,1511,1177,0,0
294,-153,0,0,0,0,0,0,0,0,0,-1,1518,1177,0,0
301,-153,0,0,0,0,0,0,0,0,0,-1,1525,1177,0,0
308,-153,0,0,0,0,0,0,0,0,0,-1,1532,1177,0,0
315,-153,0,0,0,0,0,0,0,0,0,-1,1539,1177,0,0
322,-153,0,0,0,0,0,0,0,0,0,-1,1546,1177,0,0
329,-153,0,0,0,0,0,0,0,0,0,-1,1553,1177,0,0
336,-153,0,0,0,0,0,0,0,0,0,-1,1560,1177,0,0
343,-153,0,0,0,0,0,0,0,0,0,-1,1567,1177,0,0
350,-153,0,0,0,0,0,0,0,0,0,-1,1574,1177,0,0
357,-153,0,0,0,0,0,0,0,0,0,-1,1581,1177,0,0
364,-153,0,0,0,0,0,0,0,0,0,-1,1588,1177,0,0
371,-153,0,0,0,0,0,0,0,0,0,-1,1595,1177,0,0
378,-153,0,0,0,0,0,0,0,0,0,-1,1602,1177,0,0
385,-153,0,0,0,0,0,0,0,0,0,-1,1609,1177,0,0
392,-153,0,0,0,0,0,0,0,0,0,-1,1616,1177,0,0
399,-153,0,0,0,0,0,0,0,0,0,-1,1623,1177,0,0
406,-153,0,0,0,0,0,0,0,0,0,-1,1630,1177,0,0
413,-153,0,0,0,0,0,0,0,0,0,-1,1637,1177,0,0
420,-153,0,0,0,0,0,0,0,0,0,-1,1644,1177,0,0
427,-153,0,0,0,0,0,0,0,0,0,-1,1651,1177,0,0
434,-153,0,0,0,0,0,0,0,0,0,-1,1658,1177,0,0
441,-153,0,0,0,0,0,0,0,0,0,-1,1665,1177,0,0
448,-153,0,0,0,0,0,0,0,0,0,-1,1672,1177,0,0
455,-153,0,0,0,0,0,0,0,0,0,-1,1679,1177,0,0
462,-153,0,0,0,0,0,0,0,0,0,-1,1686,1177,0,0
469,-153,0,0,0,0,0,0,0,0,0,-1,1693,1177,0,0
476,-153,0,0,0,0,0,0,0,0,0,-1,1700,1177,0,0
483,-153,0,0,0,0,0,0,0,0,0,-1,1707,1177,0,0
490,-153,0,0,0,0,0,0,0,0,0,-1,1714,1177,0,0
497,-153,0,0,0,0,0,0,0,0,0,-1,1721,1177,0,0
504,-153,0,0,0,0,0,0,0,0,0,-1,1728,1177,0,0
511,-153,0,0,0,0,0,0,0,0,0,-1,1735,1177,0,0
518,-153,0,0,0,0,0,0,0,0,0,-1,1742,1177,0,0
525,-153,0,0,0,0,0,0,0,0,0,-1,1749,1177,0,0
532,-153,0,0,0,0,0,0,0,0,0,-1,1756,1177,0,0
539,-153,0,0,0,0,0,0,0,0,0,-1,1763,1177,0,0
546,-153,0,0,0,0,0,0,0,0,0,-1,1770,1177,0,0
553,-153,0,0,0,0,0,0,0,0,0,-1,1777,1177,0,0
560,-153,0,0,0,0,0,0,0,0,0,-1,1784,1177,0,0
567,-153,0,0,0,0,0,0,0,0,0,-1,1791,1177,0,0
574,-153,0,0,0,0,0,0,0,0,0,-1,1798,1177,0,0
581,-153,0,0,0,0,0,0,0,0,0,-1,1805,1177,0,0
588,-153,0,0,0,0,0,0,0,0,0,-1,1812,1177,0,0
595,-153,0,0,0,0,0,0,0,0,0,-1,1819,1177,0,0
602,-153,0,0,0,0,0,0,0,0,0,-1,1826,1177,0,0
609,-153,0,0,0,0,0,0,0,0,0,-1,1833,1177,0,0
616,-153,0,0,0,0,0,0,0,0,0,-1,1840,1177,0,0
623,-153,0,0,0,0,0,0,0,0,0,-1,1847,1177,0,0
630,-153,0,0,0,0,0,0,0,0,0,-1,1854,1177,0,0
637,-153,53.901,2.47986,0.00480027,-0.00719311,-0.000181658,0.00480302,-0.00719587,-0.0151419,0.00697332,0.040202,1861,1177,53.901,-2.47986
644,-153,53.9517,2.52808,0.00324941,-0.00534837,-0.000152743,0.00325212,-0.00535109,-0.0177579,0.0050161,0.037971,1868,1177,53.9517,-2.52809
651,-153,53.9668,2.75232,0.0021468,-0.00349227,-0.000324946,0.00216546,-0.00351093,-0.057371,0.00330781,0.0314287,1875,1177,53.9669,-2.75238
658,-153,53.9622,2.75171,0.00139936,-0.00178505,-0.000562359,0.00149575,-0.00188144,-0.169759,0.00195406,0.0361883,1882,1177,53.9622,-2.75168
665,-153,54.0349,2.76538,0.000894311,-0.000197814,-0.000847246,0.00135622,-0.000659725,-0.499144,0.00118684,0.0391934,1889,1177,54.0349,-2.7654
672,-153,53.989,2.76953,0.000347362,0.00106385,-0.00100947,0.00177676,-0.000365546,-0.955908,0.00132329,0.03799,1896,1177,53.989,-2.76958
679,-153,53.8837,2.6709,-8.71062e-05,0.00137267,-0.000877248,0.00178397,-0.000498402,-1.13238,0.00138565,0.0287195,1903,1177,53.8837,-2.67084
686,-153,53.9214,2.66919,-0.000173459,0.00112506,-0.000585965,0.00135039,-0.00039878,-1.2037,0.00105853,0.0175524,1910,1177,53.9214,-2.66921
693,-153,53.9514,2.55078,-0.000331214,0.000933927,-0.000280366,0.000993275,-0.000390562,-1.3622,0.000823831,0.0339105,1917,1177,53.9515,-2.55075
700,-153,53.9634,2.35278,0,0,0,0,0,0,0,-1,1924,1177,53.9634,-2.35278
707,-153,29.6483,6.6842,0,0,0,0,0,0,0,-1,1931,1177,29.6483,-6.68415
714,-153,36.0046,6.78418,0,0,0,0,0,0,0,-1,1938,1177,36.0046,-6.78418
721,-153,36.4866,6.47595,0,0,0,0,0,0,0,-1,1945,1177,36.4866,-6.47593
728,-153,46.8535,7.25073,0,0,0,0,0,0,0,-1,1952,1177,46.8535,-7.25069
735,-153,46.8322,7.03662,-0.000814768,0.000438037,0.00128465,0.00124087,-0.0016176,1.01224,0.00165511,0.0473878,1959,1177,46.8322,-7.0366
742,-153,46.8579,6.75073,-0.00120866,0.00030942,0.00158312,0.00130606,-0.0022053,1.00894,0.00204933,0.0160716,1966,1177,46.8579,-6.75077
749,-153,46.8395,6.33899,-0.00235767,0.000692961,0.00138318,0.00122672,-0.00289143,1.20251,0.00244151,0.0167297,1973,1177,46.8394,-6.33895
756,-153,46.8059,5.87415,-0.00448363,0.00164646,0.000187121,0.00165216,-0.00448933,1.54031,0.00366975,0.0117361,1980,1177,46.8059,-5.87414
763,-153,46.7693,5.41931,-0.00780114,0.00211717,-0.00193343,0.00248074,-0.00816471,-1.38492,0.00643156,0.0115206,1987,1177,46.7693,-5.41936
770,-153,46.7657,4.9762,-0.0116794,0.00258442,-0.00459339,0.00393563,-0.0130306,-1.2847,0.0102539,0.011691,1994,1177,46.7658,-4.97625
777,-153,46.7157,4.56604,-0.0163327,0.00272815,-0.00800466,0.00564376,-0.0192483,-1.22149,0.0150699,0.0251078,2001,1177,46.7157,-4.56604
784,-153,46.5737,4.39954,-0.0217398,0.00235474,-0.0123305,0.00754631,-0.0269314,-1.17229,0.0209282,0.0431078,2008,1177,46.5736,-4.39956
791,-153,46.4773,4.18103,-0.0277869,0.00129393,-0.0179005,0.0098154,-0.0363084,-1.12649,0.0280557,0.043086,2015,1177,46.4772,-4.181
798,-153,46.6345,3.96045,-0.0342497,-0.000769962,-0.0249341,0.0125224,-0.0475421,-1.08102,0.0365902,0.0478073,2022,1177,46.6345,-3.96046
805,-153,43.7275,3.38489,0,0,0,0,0,0,0,-1,2029,1177,43.7275,-3.38483
812,-153,0,0,0,0,0,0,0,0,0,-1,2036,1177,0,0
-700,-160,0,0,0,0,0,0,0,0,0,-1,524,1184,0,0
-693,-160,0,0,0,0,0,0,0,0,0,-1,531,1184,0,0
-686,-160,-32.3615,-3.11304,0,0,0,0,0,0,0,-1,538,1184,-32.3615,3.11305
-679,-160,-28.955,-1.26868,0,0,0,0,0,0,0,-1,545,1184,-28.955,1.26873
-672,-160,-29.1516,-0.795532,-0.0129267,0.123454,-0.0497473,0.139672,-0.0291444,-1.25566,0.104197,0.0466531,552,1184,-29.1515,0.795474
-665,-160,-29.3945,-0.324341,-0.00878008,0.0995422,-0.0397165,0.112544,-0.0217817,-1.25443,0.0832451,0.0458065,559,1184,-29.3945,0.324314
-658,-160,-29.7886,0.0667725,-0.00555066,0.0782854,-0.0308371,0.0884063,-0.0156715,-1.25367,0.0647962,0.0498086,566,1184,-29.7886,-0.0668079
-651,-160,-30.0753,0.09729,0,0,0,0,0,0,0,-1,573,1184,-30.0752,-0.0972636
-644,-160,-32.5071,1.97034,-0.00135753,0.0433789,-0.0165699,0.0488477,-0.00682633,-1.25201,0.0350628,0.0385777,580,1184,-32.5071,-1.9704
-637,-160,-32.4676,2.28564,-0.000254762,0.0294348,-0.0111194,0.0331374,-0.00395742,-1.24935,0.023522,0.0156012,587,1184,-32.4676,-2.28566
-630,-160,-32.5127,2.73364,0.000400525,0.0177353,-0.00685972,0.0201214,-0.00198557,-1.23605,0.0141227,0.00933502,594,1184,-32.5127,-2.73361
-623,-160,-32.5596,3.19995,0.000633165,0.00815114,-0.00374366,0.00969733,-0.000913032,-1.17912,0.00678973,0.0136089,601,1184,-32.5597,-3.19992
-616,-160,-32.5801,3.70422,0.000422371,0.00157363,-0.00153929,0.00264139,-0.000645396,-0.964327,0.00201089,0.0118832,608,1184,-32.5801,-3.70423
-609,-160,-32.5965,4.26404,2.66591e-05,5.87562e-05,-0.00126614,0.00130895,-0.00122354,-0.791735,0.00146241,0.0161969,615,1184,-32.5965,-4.26407
-602,-160,-32.6815,4.80432,0,0,0,0,0,0,0,-1,622,1184,-32.6814,-4.80432
-595,-160,-29.6506,5.44702,0,0,0,0,0,0,0,-1,629,1184,-29.6506,-5.44707
-588,-160,-32.1693,5.48523,0,0,0,0,0,0,0,-1,636,1184,-32.1692,-5.48526
-581,-160,-25.2925,4.6272,0,0,0,0,0,0,0,-1,643,1184,-25.2925,-4.62719
-574,-160,-28.1793,4.33484,0,0,0,0,0,0,0,-1,650,1184,-28.1792,-4.33488
-567,-160,-29.5828,0.643921,0,0,0,0,0,0,0,-1,657,1184,-29.5828,-0.643968
-560,-160,-40.3338,1.04736,0,0,0,0,0,0,0,-1,664,1184,-40.3338,-1.04734
-553,-160,-40.351,0.956299,-0.00120744,-0.00127649,-0.00341555,0.00217376,-0.00465769,-0.780344,0.00403011,0.0397924,671,1184,-40.351,-0.956278
-546,-160,-40.3789,0.81543,-0.000634359,-0.0014589,-0.00350532,0.00248285,-0.00457611,-0.72686,0.00413479,0.0393254,678,1184,-40.3789,-0.815483
-539,-160,-40.5223,0.64624,0.001495,-0.00189266,-0.00335483,0.00355936,-0.00395701,-0.551621,0.0043416,0.043849,685,1184,-40.5223,-0.646297
-532,-160,-40.5861,0.690674,0.00540656,-0.00248221,-0.0029073,0.00636223,-0.00343788,-0.317588,0.00574145,0.046183,692,1184,-40.5861,-0.69068
-525,-160,-40.3757,0.950195,0.0113696,-0.00265709,-0.00246532,0.0117903,-0.00307778,-0.169014,0.00906203,0.0425369,699,1184,-40.3757,-0.950165
-518,-160,-40.1907,0.650146,0,0,0,0,0,0,0,-1,706,1184,-40.1907,-0.650099
-511,-160,0,0,0,0,0,0,0,0,0,-1,713,1184,0,0
-504,-160,0,0,0,0,0,0,0,0,0,-1,720,1184,0,0
-497,-160,0,0,0,0,0,0,0,0,0,-1,727,1184,0,0
-490,-160,0,0,0,0,0,0,0,0,0,-1,734,1184,0,0
-483,-160,0,0,0,0,0,0,0,0,0,-1,741,1184,0,0
-476,-160,0,0,0,0,0,0,0,0,0,-1,748,1184,0,0
-469,-160,0,0,0,0,0,0,0,0,0,-1,755,1184,0,0
-462,-160,0,0,0,0,0,0,0,0,0,-1,762,1184,0,0
-455,-160,0,0,0,0,0,0,0,0,0,-1,769,1184,0,0
-448,-160,0,0,0,0,0,0,0,0,0,-1,776,1184,0,0
-441,-160,0,0,0,0,0,0,0,0,0,-1,783,1184,0,0
-434,-160,0,0,0,0,0,0,0,0,0,-1,790,1184,0,0
-427,-160,0,0,0,0,0,0,0,0,0,-1,797,1184,0,0
-420,-160,0,0,0,0,0,0,0,0,0,-1,804,1184,0,0
-413,-160,0,0,0,0,0,0,0,0,0,-1,811,1184,0,0
-406,-160,0,0,0,0,0,0,0,0,0,-1,818,1184,0,0
-399,-160,0,0,0,0,0,0,0,0,0,-1,825,1184,0,0
-392,-160,0,0,0,0,0,0,0,0,0,-1,832,1184,0,0
-385,-160,0,0,0,0,0,0,0,0,0,-1,839,1184,0,0
-378,-160,0,0,0,0,0,0,0,0,0,-1,846,1184,0,0
-371,-160,0,0,0,0,0,0,0,0,0,-1,853,1184,0,0
-364,-160,0,0,0,0,0,0,0,0,0,-1,860,1184,0,0
-357,-160,0,0,0,0,0,0,0,0,0,-1,867,1184,0,0
-350,-160,0,0,0,0,0,0,0,0,0,-1,874,1184,0,0
-343,-160,0,0,0,0,0,0,0,0,0,-1,881,1184,0,0
-336,-160,0,0,0,0,0,0,0,0,0,-1,888,1184,0,0
-329,-160,0,0,0,0,0,0,0,0,0,-1,895,1184,0,0
-322,-160,0,0,0,0,0,0,0,0,0,-1,902,1184,0,0
-315,-160,0,0,0,0,0,0,0,0,0,-1,909,1184,0,0
-308,-160,0,0,0,0,0,0,0,0,0,-1,916,1184,0,0
-301,-160,0,0,0,0,0,0,0,0,0,-1,923,1184,0,0
-294,-160,0,0,0,0,0,0,0,0,0,-1,930,1184,0,0
-287,-160,0,0,0,0,0,0,0,0,0,-1,937,1184,0,0
-280,-160,0,0,0,0,0,0,0,0,0,-1,944,1184,0,0
-273,-160,0,0,0,0,0,0,0,0,0,-1,951,1184,0,0
-266,-160,0,0,0,0,0,0,0,0,0,-1,958,1184,0,0
-259,-160,0,0,0,0,0,0,0,0,0,-1,965,1184,0,0
-252,-160,0,0,0,0,0,0,0,0,0,-1,972,1184,0,0
-245,-160,0,0,0,0,0,0,0,0,0,-1,979,1184,0,0
-238,-160,0,0,0,0,0,0,0,0,0,-1,986,1184,0,0
-231,-160,0,0,0,0,0,0,0,0,0,-1,993,1184,0,0
-224,-160,0,0,0,0,0,0,0,0,0,-1,1000,1184,0,0
-217,-160,0,0,0,0,0,0,0,0,0,-1,1007,1184,0,0
-210,-160,0,0,0,0,0,0,0,0,0,-1,1014,1184,0,0
-203,-160,0,0,0,0,0,0,0,0,0,-1,1021,1184,0,0
-196,-160,0,0,0,0,0,0,0,0,0,-1,1028,1184,0,0
-189,-160,0,0,0,0,0,0,0,0,0,-1,1035,1184,0,0
-182,-160,0,0,0,0,0,0,0,0,0,-1,1042,1184,0,0
-175,-160,0,0,0,0,0,0,0,0,0,-1,1049,1184,0,0
-168,-160,0,0,0,0,0,0,0,0,0,-1,1056,1184,0,0
-161,-160,0,0,0,0,0,0,0,0,0,-1,1063,1184,0,0
-154,-160,0,0,0,0,0,0,0,0,0,-1,1070,1184,0,0
-147,-160,0,0,0,0,0,0,0,0,0,-1,1077,1184,0,0
-140,-160,0,0,0,0,0,0,0,0,0,-1,1084,1184,0,0
-133,-160,0,0,0,0,0,0,0,0,0,-1,1091,1184,0,0
-126,-160,0,0,0,0,0,0,0,0,0,-1,1098,1184,0,0
-119,-160,0,0,0,0,0,0,0,0,0,-1,1105,1184,0,0
-112,-160,0,0,0,0,0,0,0,0,0,-1,1112,1184,0,0
-105,-160,0,0,0,0,0,0,0,0,0,-1,1119,1184,0,0
-98,-160,0,0,0,0,0,0,0,0,0,-1,1126,1184,0,0
-91,-160,0,0,0,0,0,0,0,0,0,-1,1133,1184,0,0
-84,-160,0,0,0,0,0,0,0,0,0,-1,1140,1184,0,0
-77,-160,0,0,0,0,0,0,0,0,0,-1,1147,1184,0,0
-70,-160,0,0,0,0,0,0,0,0,0,-1,1154,1184,0,0
-63,-160,0,0,0,0,0,0,0,0,0,-1,1161,1184,0,0
-56,-160,0,0,0,0,0,0,0,0,0,-1,1168,1184,0,0
-49,-160,0,0,0,0,0,0,0,0,0,-1,1175,1184,0,0
-42,-160,0,0,0,0,0,0,0,0,0,-1,1182,1184,0,0
-35,-160,0,0,0,0,0,0,0,0,0,-1,1189,1184,0,0
-28,-160,0,0,0,0,0,0,0,0,0,-1,1196,1184,0,0
-21,-160,0,0,0,0,0,0,0,0,0,-1,1203,1184,0,0
-14,-160,0,0,0,0,0,0,0,0,0,-1,1210,1184,0,0
-7,-160,0,0,0,0,0,0,0,0,0,-1,1217,1184,0,0
0,-160,0,0,0,0,0,0,0,0,0,-1,1224,1184,0,0
7,-160,0,0,0,0,0,0,0,0,0,-1,1231,1184,0,0
14,-160,0,0,0,0,0,0,0,0,0,-1,1238,1184,0,0
21,-160,0,0,0,0,0,0,0,0,0,-1,1245,1184,0,0
28,-160,0,0,0,0,0,0,0,0,0,-1,1252,1184,0,0
35,-160,0,0,0,0,0,0,0,0,0,-1,1259,1184,0,0
42,-160,0,0,0,0,0,0,0,0,0,-1,1266,1184,0,0
49,-160,0,0,0,0,0,0,0,0,0,-1,1273,1184,0,0
56,-160,0,0,0,0,0,0,0,0,0,-1,1280,1184,0,0
63,-160,0,0,0,0,0,0,0,0,0,-1,1287,1184,0,0
70,-160,0,0,0,0,0,0,0,0,0,-1,1294,1184,0,0
77,-160,0,0,0,0,0,0,0,0,0,-1,1301,1184,0,0
84,-160,0,0,0,0,0,0,0,0,0,-1,1308,1184,0,0
91,-160,0,0,0,0,0,0,0,0,0,-1,1315,1184,0,0
98,-160,0,0,0,0,0,0,0,0,0,-1,1322,1184,0,0
105,-160,0,0,0,0,0,0,0,0,0,-1,1329,1184,0,0
112,-160,0,0,0,0,0,0,0,0,0,-1,1336,1184,0,0
119,-160,0,0,0,0,0,0,0,0,0,-1,1343,1184,0,0
126,-160,0,0,0,0,0,0,0,0,0,-1,1350,1184,0,0
133,-160,0,0,0,0,0,0,0,0,0,-1,1357,1184,0,0
140,-160,0,0,0,0,0,0,0,0,0,-1,1364,1184,0,0
147,-160,0,0,0,0,0,0,0,0,0,-1,1371,1184,0,0
154,-160,0,0,0,0,0,0,0,0,0,-1,1378,1184,0,0
161,-160,0,0,0,0,0,0,0,0,0,-1,1385,1184,0,0
168,-160,0,0,0,0,0,0,0,0,0,-1,1392,1184,0,0
175,-160,0,0,0,0,0,0,0,0,0,-1,1399,1184,0,0
182,-160,0,0,0,0,0,0,0,0,0,-1,1406,1184,0,0
189,-160,0,0,0,0,0,0,0,0,0,-1,1413,1184,0,0
196,-160,0,0,0,0,0,0,0,0,0,-1,1420,1184,0,0
203,-160,0,0,0,0,0,0,0,0,0,-1,1427,1184,0,0
210,-160,0,0,0,0,0,0,0,0,0,-1,1434,1184,0,0
217,-160,0,0,0,0,0,0,0,0,0,-1,1441,1184,0,0
224,-160,0,0,0,0,0,0,0,0,0,-1,1448,1184,0,0
231,-160,0,0,0,0,0,0,0,0,0,-1,1455,1184,0,0
238,-160,0,0,0,0,0,0,0,0,0,-1,1462,1184,0,0
245,-160,0,0,0,0,0,0,0,0,0,-1,1469,1184,0,0
252,-160,0,0,0,0,0,0,0,0,0,-1,1476,1184,0,0
259,-160,0,0,0,0,0,0,0,0,0,-1,1483,1184,0,0
266,-160,0,0,0,0,0,0,0,0,0,-1,1490,1184,0,0
273,-160,0,0,0,0,0,0,0,0,0,-1,1497,1184,0,0
280,-160,0,0,0,0,0,0,0,0,0,-1,1504,1184,0,0
287,-160,0,0,0,0,0,0,0,0,0,-1,1511,1184,0,0
294,-160,0,0,0,0,0,0,0,0,0,-1,1518,1184,0,0
301,-160,0,0,0,0,0,0,0,0,0,-1,1525,1184,0,0
308,-160,0,0,0,0,0,0,0,0,0,-1,1532,1184,0,0
315,-160,0,0,0,0,0,0,0,0,0,-1,1539,1184,0,0
322,-160,0,0,0,0,0,0,0,0,0,-1,1546,1184,0,0
329,-160,0,0,0,0,0,0,0,0,0,-1,1553,1184,0,0
336,-160,0,0,0,0,0,0,0,0,0,-1,1560,1184,0,0
343,-160,0,0,0,0,0,0,0,0,0,-1,1567,1184,0,0
350,-160,0,0,0,0,0,0,0,0,0,-1,1574,1184,0,0
357,-160,0,0,0,0,0,0,0,0,0,-1,1581,1184,0,0
364,-160,0,0,0,0,0,0,0,0,0,-1,1588,1184,0,0
371,-160,0,0,0,0,0,0,0,0,0,-1,1595,1184,0,0
378,-160,0,0,0,0,0,0,0,0,0,-1,1602,1184,0,0
385,-160,0,0,0,0,0,0,0,0,0,-1,1609,1184,0,0
392,-160,0,0,0,0,0,0,0,0,0,-1,1616,1184,0,0
399,-160,0,0,0,0,0,0,0,0,0,-1,1623,1184,0,0
406,-160,0,0,0,0,0,0,0,0,0,-1,1630,1184,0,0
413,-160,0,0,0,0,0,0,0,0,0,-1,1637,1184,0,0
420,-160,0,0,0,0,0,0,0,0,0,-1,1644,1184,0,0
427,-160,0,0,0,0,0,0,0,0,0,-1,1651,1184,0,0
434,-160,0,0,0,0,0,0,0,0,0,-1,1658,1184,0,0
441,-160,0,0,0,0,0,0,0,0,0,-1,1665,1184,0,0
448,-160,0,0,0,0,0,0,0,0,0,-1,1672,1184,0,0
455,-160,0,0,0,0,0,0,0,0,0,-1,1679,1184,0,0
462,-160,0,0,0,0,0,0,0,0,0,-1,1686,1184,0,0
469,-160,0,0,0,0,0,0,0,0,0,-1,1693,1184,0,0
476,-160,0,0,0,0,0,0,0,0,0,-1,1700,1184,0,0
483,-160,0,0,0,0,0,0,0,0,0,-1,1707,1184,0,0
490,-160,0,0,0,0,0,0,0,0,0,-1,1714,1184,0,0
497,-160,0,0,0,0,0,0,0,0,0,-1,1721,1184,0,0
504,-160,0,0,0,0,0,0,0,0,0,-1,1728,1184,0,0
511,-160,0,0,0,0,0,0,0,0,0,-1,1735,1184,0,0
518,-160,0,0,0,0,0,0,0,0,0,-1,1742,1184,0,0
525,-160,0,0,0,0,0,0,0,0,0,-1,1749,1184,0,0
532,-160,0,0,0,0,0,0,0,0,0,-1,1756,1184,0,0
539,-160,0,0,0,0,0,0,0,0,0,-1,1763,1184,0,0
546,-160,0,0,0,0,0,0,0,0,0,-1,1770,1184,0,0
553,-160,0,0,0,0,0,0,0,0,0,-1,1777,1184,0,0
560,-160,0,0,0,0,0,0,0,0,0,-1,1784,1184,0,0
567,-160,0,0,0,0,0,0,0,0,0,-1,1791,1184,0,0
574,-160,0,0,0,0,0,0,0,0,0,-1,1798,1184,0,0
581,-160,0,0,0,0,0,0,0,0,0,-1,1805,1184,0,0
588,-160,0,0,0,0,0,0,0,0,0,-1,1812,1184,0,0
595,-160,0,0,0,0,0,0,0,0,0,-1,1819,1184,0,0
602,-160,0,0,0,0,0,0,0,0,0,-1,1826,1184,0,0
609,-160,0,0,0,0,0,0,0,0,0,-1,1833,1184,0,0
616,-160,0,0,0,0,0,0,0,0,0,-1,1840,1184,0,0
623,-160,0,0,0,0,0,0,0,0,0,-1,1847,1184,0,0
630,-160,0,0,0,0,0,0,0,0,0,-1,1854,1184,0,0
637,-160,53.8019,2.64478,0.00419222,-0.00576822,-0.000250443,0.00419852,-0.00577451,-0.0251226,0.00578184,0.0405597,1861,1184,53.8019,-2.64479
644,-160,53.9063,2.57898,0.00287963,-0.00426084,-0.000257022,0.00288887,-0.00427008,-0.0359331,0.00415878,0.0395137,1868,1184,53.9062,-2.57899
651,-160,54.0375,2.64001,0.00189833,-0.00269235,-0.000418903,0.00193624,-0.00273026,-0.0902575,0.00270717,0.0374601,1875,1184,54.0375,-2.63999
658,-160,53.9131,2.64343,0.00121327,-0.00123965,-0.000668088,0.00138343,-0.00140981,-0.249394,0.0016127,0.0381086,1882,1184,53.9131,-2.64349
665,-160,53.9845,2.66479,0.000776025,1.79653e-05,-0.000950576,0.00142035,-0.000626362,-0.59569,0.00121095,0.037606,1889,1184,53.9845,-2.66485
672,-160,53.9656,2.70776,0.00029528,0.000961187,-0.00106365,0.00174277,-0.000486306,-0.937082,0.00135339,0.0343517,1896,1184,53.9656,-2.7078
679,-160,53.9198,2.68652,-5.64385e-05,0.0010451,-0.000921252,0.00156767,-0.000579006,-1.05482,0.00128245,0.025699,1903,1184,53.9198,-2.68647
686,-160,53.9316,2.63037,-8.95865e-05,0.000783294,-0.000650452,0.00113016,-0.000436452,-1.08089,0.000933574,0.0155163,1910,1184,53.9317,-2.6304
693,-160,53.9558,2.49744,0,0,0,0,0,0,0,-1,1917,1184,53.9558,-2.49738
700,-160,42.8784,2.44617,0,0,0,0,0,0,0,-1,1924,1184,42.8785,-2.4462
707,-160,24.5115,6.27405,0,0,0,0,0,0,0,-1,1931,1184,24.5115,-6.27401
714,-160,35.6892,6.8905,0,0,0,0,0,0,0,-1,1938,1184,35.6892,-6.89048
721,-160,36.2388,6.37878,0,0,0,0,0,0,0,-1,1945,1184,36.2388,-6.37876
728,-160,46.355,7.67749,0,0,0,0,0,0,0,-1,1952,1184,46.355,-7.67746
735,-160,46.51,7.13379,-0.000596912,0.000332092,0.00118577,0.0011411,-0.00140592,0.972076,0.00147317,0.0377147,1959,1184,46.5101,-7.13373
742,-160,46.4003,6.72021,-0.000951902,0.000300277,0.00149893,0.00129862,-0.00195025,0.98323,0.00188827,0.0167217,1966,1184,46.4002,-6.72021
749,-160,46.3798,6.28125,-0.0019149,0.000774829,0.00118284,0.00122099,-0.00236106,1.2101,0.00210272,0.0172401,1973,1184,46.3798,-6.28128
756,-160,46.3589,5.8689,-0.00348502,0.00173075,-5.79175e-05,0.0017314,-0.00348567,-1.55969,0.00306831,0.0113239,1980,1184,46.3589,-5.86888
763,-160,46.308,5.46777,-0.00599522,0.00212191,-0.0021709,0.00266604,-0.00653934,-1.32521,0.0054693,0.0124565,1987,1184,46.308,-5.46777
770,-160,46.2388,5,-0.00890815,0.00254589,-0.00485621,0.00432764,-0.0106899,-1.21915,0.00892597,0.0248424,1994,1184,46.2388,-4.99997
777,-160,46.22,4.59106,-0.0124548,0.00265832,-0.00835915,0.00637016,-0.0161667,-1.15291,0.0134152,0.0352934,2001,1184,46.2199,-4.59103
784,-160,46.2656,4.19751,-0.0164834,0.00223908,-0.0127963,0.00873274,-0.0229771,-1.1012,0.0189134,0.0430363,2008,1184,46.2657,-4.19747
791,-160,46.4141,3.93457,-0.0207819,0.00120958,-0.0186544,0.0118678,-0.0314401,-1.05171,0.025841,0.0445156,2015,1184,46.4141,-3.93451
798,-160,46.6831,3.6709,-0.0248987,-0.000720495,-0.0260747,0.0159313,-0.0415505,-1.00246,0.0342682,0.047774,2022,1184,46.6831,-3.67092
805,-160,46.9097,3.3783,-0.0282908,-0.00393583,-0.0351295,0.0210669,-0.0532936,-0.95224,0.0442556,0.047333,2029,1184,46.9098,-3.37835
812,-160,0,0,0,0,0,0,0,0,0,-1,2036,1184,0,0
-700,-167,0,0,0,0,0,0,0,0,0,-1,524,1191,0,0
-693,-167,0,0,0,0,0,0,0,0,0,-1,531,1191,0,0
-686,-167,-26.7472,-2.47424,0,0,0,0,0,0,0,-1,538,1191,-26.7472,2.47421
-679,-167,-26.966,-1.94177,-0.0136895,0.143836,-0.0402998,0.153547,-0.0234008,-1.33433,0.11099,0.0482674,545,1191,-26.966,1.94182
-672,-167,-27.0842,-1.49072,-0.00896962,0.119348,-0.0320175,0.126893,-0.0165149,-1.33936,0.0906034,0.0497309,552,1191,-27.0842,1.49067
-665,-167,-27.519,-0.850464,-0.00556326,0.09683,-0.0249493,0.102586,-0.0113189,-1.34407,0.0724587,0.0484443,559,1191,-27.519,0.850455
-658,-167,-27.8784,-0.577271,0,0,0,0,0,0,0,-1,566,1191,-27.8783,0.577323
-651,-167,-32.6574,1.93909,0,0,0,0,0,0,0,-1,573,1191,-32.6574,-1.93908
-644,-167,-32.259,2.13403,1.17517e-05,0.0433821,-0.0100315,0.0455899,-0.00219614,-1.35416,0.0311512,0.0422497,580,1191,-32.259,-2.13401
-637,-167,-31.9435,2.30542,0.000691789,0.0299697,-0.00684075,0.0314892,-0.000827683,-1.35222,0.0212741,0.0193882,587,1191,-31.9435,-2.30542
-630,-167,-31.9959,2.74329,0.00101206,0.0187084,-0.00446902,0.0197729,-5.25052e-05,-1.33694,0.0131995,0.00943738,594,1191,-31.9959,-2.74327
-623,-167,-32.0227,3.21423,0.000987093,0.00928917,-0.00285757,0.0101777,9.8607e-05,-1.26935,0.00675247,0.0128371,601,1191,-32.0227,-3.21429
-616,-167,-32.063,3.72705,0.000711782,0.00232681,-0.00155089,0.00326782,-0.000229233,-1.02542,0.00225884,0.0165157,608,1191,-32.063,-3.72711
-609,-167,-32.073,4.26807,0.000113206,0.000145948,-0.00134601,0.00147569,-0.00121654,-0.791479,0.00155676,0.015238,615,1191,-32.073,-4.26804
-602,-167,-32.1033,4.76453,-0.000181743,0.000496627,-0.00184768,0.00203599,-0.00172111,-0.876174,0.0021717,0.0201866,622,1191,-32.1033,-4.76456
-595,-167,-31.983,5.20288,0,0,0,0,0,0,0,-1,629,1191,-31.983,-5.20288
-588,-167,-32.2451,5.71741,0,0,0,0,0,0,0,-1,636,1191,-32.2451,-5.71747
-581,-167,-29.8755,5.31482,0,0,0,0,0,0,0,-1,643,1191,-29.8756,-5.31482
-574,-167,-24.1547,5.43677,0,0,0,0,0,0,0,-1,650,1191,-24.1547,-5.43682
-567,-167,-27.3643,2.55859,0,0,0,0,0,0,0,-1,657,1191,-27.3643,-2.55864
-560,-167,-40.3273,1.12805,0,0,0,0,0,0,0,-1,664,1191,-40.3274,-1.12803
-553,-167,-40.3243,0.957764,-0.00133762,-0.000757107,-0.00357332,0.00253773,-0.00463246,-0.825924,0.00419818,0.040724,671,1191,-40.3243,-0.957794
-546,-167,-40.3136,0.852661,-0.000846257,-0.000971655,-0.00372001,0.00281159,-0.0046295,-0.776972,0.00433864,0.0340967,678,1191,-40.3136,-0.852686
-539,-167,-40.2997,0.900879,0.000964014,-0.00145796,-0.00371903,0.00366426,-0.0041582,-0.628003,0.0045193,0.0374773,685,1191,-40.2997,-0.900841
-532,-167,-40.316,0.777222,0.00449547,-0.00219065,-0.00340579,0.00592477,-0.00361996,-0.397346,0.00556395,0.0424258,692,1191,-40.316,-0.77724
-525,-167,-40.2323,0.760132,0.0108197,-0.00269455,-0.00295892,0.0114391,-0.00331401,-0.206372,0.00893797,0.0450802,699,1191,-40.2323,-0.760166
-518,-167,-40.0615,0.84082,0,0,0,0,0,0,0,-1,706,1191,-40.0614,-0.840859
-511,-167,0,0,0,0,0,0,0,0,0,-1,713,1191,0,0
-504,-167,0,0,0,0,0,0,0,0,0,-1,720,1191,0,0
-497,-167,0,0,0,0,0,0,0,0,0,-1,727,1191,0,0
-490,-167,0,0,0,0,0,0,0,0,0,-1,734,1191,0,0
-483,-167,0,0,0,0,0,0,0,0,0,-1,741,1191,0,0
-476,-167,0,0,0,0,0,0,0,0,0,-1,748,1191,0,0
-469,-167,0,0,0,0,0,0,0,0,0,-1,755,1191,0,0
-462,-167,0,0,0,0,0,0,0,0,0,-1,762,1191,0,0
-455,-167,0,0,0,0,0,0,0,0,0,-1,769,1191,0,0
-448,-167,0,0,0,0,0,0,0,0,0,-1,776,1191,0,0
-441,-167,0,0,0,0,0,0,0,0,0,-1,783,1191,0,0
-434,-167,0,0,0,0,0,0,0,0,0,-1,790,1191,0,0
-427,-167,0,0,0,0,0,0,0,0,0,-1,797,1191,0,0
-420,-167,0,0,0,0,0,0,0,0,0,-1,804,1191,0,0
-413,-167,0,0,0,0,0,0,0,0,0,-1,811,1191,0,0
-406,-167,0,0,0,0,0,0,0,0,0,-1,818,1191,0,0
-399,-167,0,0,0,0,0,0,0,0,0,-1,825,1191,0,0
-392,-167,0,0,0,0,0,0,0,0,0,-1,832,1191,0,0
-385,-167,0,0,0,0,0,0,0,0,0,-1,839,1191,0,0
-378,-167,0,0,0,0,0,0,0,0,0,-1,846,1191,0,0
-371,-167,0,0,0,0,0,0,0,0,0,-1,853,1191,0,0
-364,-167,0,0,0,0,0,0,0,0,0,-1,860,1191,0,0
-357,-167,0,0,0,0,0,0,0,0,0,-1,867,1191,0,0
-350,-167,0,0,0,0,0,0,0,0,0,-1,874,1191,0,0
-343,-167,0,0,0,0,0,0,0,0,0,-1,881,1191,0,0
-336,-167,0,0,0,0,0,0,0,0,0,-1,888,1191,0,0
-329,-167,0,0,0,0,0,0,0,0,0,-1,895,1191,0,0
-322,-167,0,0,0,0,0,0,0,0,0,-1,902,1191,0,0
-315,-167,0,0,0,0,0,0,0,0,0,-1,909,1191,0,0
-308,-167,0,0,0,0,0,0,0,0,0,-1,916,1191,0,0
-301,-167,0,0,0,0,0,0,0,0,0,-1,923,1191,0,0
-294,-167,0,0,0,0,0,0,0,0,0,-1,930,1191,0,0
-287,-167,0,0,0,0,0,0,0,0,0,-1,937,1191,0,0
-280,-167,0,0,0,0,0,0,0,0,0,-1,944,1191,0,0
-273,-167,0,0,0,0,0,0,0,0,0,-1,951,1191,0,0
-266,-167,0,0,0,0,0,0,0,0,0,-1,958,1191,0,0
-259,-167,0,0,0,0,0,0,0,0,0,-1,965,1191,0,0
-252,-167,0,0,0,0,0,0,0,0,0,-1,972,1191,0,0
-245,-167,0,0,0,0,0,0,0,0,0,-1,979,1191,0,0
-238,-167,0,0,0,0,0,0,0,0,0,-1,986,1191,0,0
-231,-167,0,0,0,0,0,0,0,0,0,-1,993,1191,0,0
-224,-167,0,0,0,0,0,0,0,0,0,-1,1000,1191,0,0
-217,-167,0,0,0,0,0,0,0,0,0,-1,1007,1191,0,0
-210,-167,0,0,0,0,0,0,0,0,0,-1,1014,1191,0,0
-203,-167,0,0,0,0,0,0,0,0,0,-1,1021,1191,0,0
-196,-167,0,0,0,0,0,0,0,0,0,-1,1028,1191,0,0
-189,-167,0,0,0,0,0,0,0,0,0,-1,1035,1191,0,0
-182,-167,0,0,0,0,0,0,0,0,0,-1,1042,1191,0,0
-175,-167,0,0,0,0,0,0,0,0,0,-1,1049,1191,0,0
-168,-167,0,0,0,0,0,0,0,0,0,-1,1056,1191,0,0
-161,-167,0,0,0,0,0,0,0,0,0,-1,1063,1191,0,0
-154,-167,0,0,0,0,0,0,0,0,0,-1,1070,1191,0,0
-147,-167,0,0,0,0,0,0,0,0,0,-1,1077,1191,0,0
-140,-167,0,0,0,0,0,0,0,0,0,-1,1084,1191,0,0
-133,-167,0,0,0,0,0,0,0,0,0,-1,1091,1191,0,0
-126,-167,0,0,0,0,0,0,0,0,0,-1,1098,1191,0,0
-119,-167,0,0,0,0,0,0,0,0,0,-1,1105,1191,0,0
-112,-167,0,0,0,0,0,0,0,0,0,-1,1112,1191,0,0
-105,-167,0,0,0,0,0,0,0,0,0,-1,1119,1191,0,0
-98,-167,0,0,0,0,0,0,0,0,0,-1,1126,1191,0,0
-91,-167,0,0,0,0,0,0,0,0,0,-1,1133,1191,0,0
-84,-167,0,0,0,0,0,0,0,0,0,-1,1140,1191,0,0
-77,-167,0,0,0,0,0,0,0,0,0,-1,1147,1191,0,0
-70,-167,0,0,0,0,0,0,0,0,0,-1,1154,1191,0,0
-63,-167,0,0,0,0,0,0,0,0,0,-1,1161,1191,0,0
-56,-167,0,0,0,0,0,0,0,0,0,-1,1168,1191,0,0
-49,-167,0,0,0,0,0,0,0,0,0,-1,1175,1191,0,0
-42,-167,0,0,0,0,0,0,0,0,0,-1,1182,1191,0,0
-35,-167,0,0,0,0,0,0,0,0,0,-1,1189,1191,0,0
-28,-167,0,0,0,0,0,0,0,0,0,-1,1196,1191,0,0
-21,-167,0,0,0,0,0,0,0,0,0,-1,1203,1191,0,0
-14,-167,0,0,0,0,0,0,0,0,0,-1,1210,1191,0,0
-7,-167,0,0,0,0,0,0,0,0,0,-1,1217,1191,0,0
0,-167,0,0,0,0,0,0,0,0,0,-1,1224,1191,0,0
7,-167,0,0,0,0,0,0,0,0,0,-1,1231,1191,0,0
14,-167,0,0,0,0,0,0,0,0,0,-1,1238,1191,0,0
21,-167,0,0,0,0,0,0,0,0,0,-1,1245,1191,0,0
28,-167,0,0,0,0,0,0,0,0,0,-1,1252,1191,0,0
35,-167,0,0,0,0,0,0,0,0,0,-1,1259,1191,0,0
42,-167,0,0,0,0,0,0,0,0,0,-1,1266,1191,0,0
49,-167,0,0,0,0,0,0,0,0,0,-1,1273,1191,0,0
56,-167,0,0,0,0,0,0,0,0,0,-1,1280,1191,0,0
63,-167,0,0,0,0,0,0,0,0,0,-1,1287,1191,0,0
70,-167,0,0,0,0,0,0,0,0,0,-1,1294,1191,0,0
77,-167,0,0,0,0,0,0,0,0,0,-1,1301,1191,0,0
84,-167,0,0,0,0,0,0,0,0,0,-1,1308,1191,0,0
91,-167,0,0,0,0,0,0,0,0,0,-1,1315,1191,0,0
98,-167,0,0,0,0,0,0,0,0,0,-1,1322,1191,0,0
105,-167,0,0,0,0,0,0,0,0,0,-1,1329,1191,0,0
112,-167,0,0,0,0,0,0,0,0,0,-1,1336,1191,0,0
119,-167,0,0,0,0,0,0,0,0,0,-1,1343,1191,0,0
126,-167,0,0,0,0,0,0,0,0,0,-1,1350,1191,0,0
133,-167,0,0,0,0,0,0,0,0,0,-1,1357,1191,0,0
140,-167,0,0,0,0,0,0,0,0,0,-1,1364,1191,0,0
147,-167,0,0,0,0,0,0,0,0,0,-1,1371,1191,0,0
154,-167,0,0,0,0,0,0,0,0,0,-1,1378,1191,0,0
161,-167,0,0,0,0,0,0,0,0,0,-1,1385,1191,0,0
168,-167,0,0,0,0,0,0,0,0,0,-1,1392,1191,0,0
175,-167,0,0,0,0,0,0,0,0,0,-1,1399,1191,0,0
182,-167,0,0,0,0,0,0,0,0,0,-1,1406,1191,0,0
189,-167,0,0,0,0,0,0,0,0,0,-1,1413,1191,0,0
196,-167,0,0,0,0,0,0,0,0,0,-1,1420,1191,0,0
203,-167,0,0,0,0,0,0,0,0,0,-1,1427,1191,0,0
210,-167,0,0,0,0,0,0,0,0,0,-1,1434,1191,0,0
217,-167,0,0,0,0,0,0,0,0,0,-1,1441,1191,0,0
224,-167,0,0,0,0,0,0,0,0,0,-1,1448,1191,0,0
231,-167,0,0,0,0,0,0,0,0,0,-1,1455,1191,0,0
238,-167,0,0,0,0,0,0,0,0,0,-1,1462,1191,0,0
245,-167,0,0,0,0,0,0,0,0,0,-1,1469,1191,0,0
252,-167,0,0,0,0,0,0,0,0,0,-1,1476,1191,0,0
259,-167,0,0,0,0,0,0,0,0,0,-1,1483,1191,0,0
266,-167,0,0,0,0,0,0,0,0,0,-1,1490,1191,0,0
273,-167,0,0,0,0,0,0,0,0,0,-1,1497,1191,0,0
280,-167,0,0,0,0,0,0,0,0,0,-1,1504,1191,0,0
287,-167,0,0,0,0,0,0,0,0,0,-1,1511,1191,0,0
294,-167,0,0,0,0,0,0,0,0,0,-1,1518,1191,0,0
301,-167,0,0,0,0,0,0,0,0,0,-1,1525,1191,0,0
308,-167,0,0,0,0,0,0,0,0,0,-1,1532,1191,0,0
315,-167,0,0,0,0,0,0,0,0,0,-1,1539,1191,0,0
322,-167,0,0,0,0,0,0,0,0,0,-1,1546,1191,0,0
329,-167,0,0,0,0,0,0,0,0,0,-1,1553,1191,0,0
336,-167,0,0,0,0,0,0,0,0,0,-1,1560,1191,0,0
343,-167,0,0,0,0,0,0,0,0,0,-1,1567,1191,0,0
350,-167,0,0,0,0,0,0,0,0,0,-1,1574,1191,0,0
357,-167,0,0,0,0,0,0,0,0,0,-1,1581,1191,0,0
364,-167,0,0,0,0,0,0,0,0,0,-1,1588,1191,0,0
371,-167,0,0,0,0,0,0,0,0,0,-1,1595,1191,0,0
378,-167,0,0,0,0,0,0,0,0,0,-1,1602,1191,0,0
385,-167,0,0,0,0,0,0,0,0,0,-1,1609,1191,0,0
392,-167,0,0,0,0,0,0,0,0,0,-1,1616,1191,0,0
399,-167,0,0,0,0,0,0,0,0,0,-1,1623,1191,0,0
406,-167,0,0,0,0,0,0,0,0,0,-1,1630,1191,0,0
413,-167,0,0,0,0,0,0,0,0,0,-1,1637,1191,0,0
420,-167,0,0,0,0,0,0,0,0,0,-1,1644,1191,0,0
427,-167,0,0,0,0,0,0,0,0,0,-1,1651,1191,0,0
434,-167,0,0,0,0,0,0,0,0,0,-1,1658,1191,0,0
441,-167,0,0,0,0,0,0,0,0,0,-1,1665,1191,0,0
448,-167,0,0,0,0,0,0,0,0,0,-1,1672,1191,0,0
455,-167,0,0,0,0,0,0,0,0,0,-1,1679,1191,0,0
462,-167,0,0,0,0,0,0,0,0,0,-1,1686,1191,0,0
469,-167,0,0,0,0,0,0,0,0,0,-1,1693,1191,0,0
476,-167,0,0,0,0,0,0,0,0,0,-1,1700,1191,0,0
483,-167,0,0,0,0,0,0,0,0,0,-1,1707,1191,0,0
490,-167,0,0,0,0,0,0,0,0,0,-1,1714,1191,0,0
497,-167,0,0,0,0,0,0,0,0,0,-1,1721,1191,0,0
504,-167,0,0,0,0,0,0,0,0,0,-1,1728,1191,0,0
511,-167,0,0,0,0,0,0,0,0,0,-1,1735,1191,0,0
518,-167,0,0,0,0,0,0,0,0,0,-1,1742,1191,0,0
525,-167,0,0,0,0,0,0,0,0,0,-1,1749,1191,0,0
532,-167,0,0,0,0,0,0,0,0,0,-1,1756,1191,0,0
539,-167,0,0,0,0,0,0,0,0,0,-1,1763,1191,0,0
546,-167,0,0,0,0,0,0,0,0,0,-1,1770,1191,0,0
553,-167,0,0,0,0,0,0,0,0,0,-1,1777,1191,0,0
560,-167,0,0,0,0,0,0,0,0,0,-1,1784,1191,0,0
567,-167,0,0,0,0,0,0,0,0,0,-1,1791,1191,0,0
574,-167,0,0,0,0,0,0,0,0,0,-1,1798,1191,0,0
581,-167,0,0,0,0,0,0,0,0,0,-1,1805,1191,0,0
588,-167,0,0,0,0,0,0,0,0,0,-1,1812,1191,0,0
595,-167,0,0,0,0,0,0,0,0,0,-1,1819,1191,0,0
602,-167,0,0,0,0,0,0,0,0,0,-1,1826,1191,0,0
609,-167,0,0,0,0,0,0,0,0,0,-1,1833,1191,0,0
616,-167,0,0,0,0,0,0,0,0,0,-1,1840,1191,0,0
623,-167,0,0,0,0,0,0,0,0,0,-1,1847,1191,0,0
630,-167,0,0,0,0,0,0,0,0,0,-1,1854,1191,0,0
637,-167,53.7107,2.86377,0.00367009,-0.00411264,-0.000577805,0.00371276,-0.0041553,-0.0737034,0.00454502,0.0406099,1861,1191,53.7107,-2.86379
644,-167,53.7692,2.60278,0.00264867,-0.00295648,-0.000562999,0.00270466,-0.00301247,-0.0991238,0.00330238,0.0415515,1868,1191,53.7692,-2.60273
651,-167,53.9115,2.28577,0,0,0,0,0,0,0,-1,1875,1191,53.9115,-2.28579
658,-167,53.8672,2.59705,0.00125972,-0.000618653,-0.000881547,0.00160863,-0.000967564,-0.376875,0.00150264,0.0433411,1882,1191,53.8671,-2.59701
665,-167,53.9657,2.74487,0.000881788,0.000261933,-0.00111968,0.00173364,-0.000589921,-0.650379,0.00139463,0.0391553,1889,1191,53.9657,-2.7449
672,-167,53.9396,2.76575,0.000428282,0.000910384,-0.0011604,0.00185451,-0.000515841,-0.887807,0.00143943,0.0287796,1896,1191,53.9396,-2.76579
679,-167,53.913,2.67358,0.000119017,0.000889468,-0.0010196,0.00159419,-0.000585708,-0.966018,0.00130269,0.0211639,1903,1191,53.913,-2.6736
686,-167,53.8944,2.59265,7.60319e-05,0.000682503,-0.000793615,0.00122884,-0.000470307,-0.967886,0.00101306,0.0272721,1910,1191,53.8944,-2.59263
693,-167,53.8516,2.56506,0,0,0,0,0,0,0,-1,1917,1191,53.8516,-2.56507
700,-167,28.0459,2.70508,0,0,0,0,0,0,0,-1,1924,1191,28.0459,-2.70513
707,-167,29.4708,7.10168,0,0,0,0,0,0,0,-1,1931,1191,29.4708,-7.10172
714,-167,35.9202,6.84668,0,0,0,0,0,0,0,-1,1938,1191,35.9202,-6.84664
721,-167,36.2072,6.38892,0,0,0,0,0,0,0,-1,1945,1191,36.2072,-6.38891
728,-167,45.8015,7.76477,0,0,0,0,0,0,0,-1,1952,1191,45.8015,-7.76481
735,-167,45.9596,7.3313,-0.000514498,0.000430749,0.00100635,0.00106993,-0.00115368,1.00493,0.00128411,0.0218933,1959,1191,45.9596,-7.33135
742,-167,45.9274,6.77271,-0.000779521,0.000472377,0.00134228,0.00132748,-0.00163463,1.00357,0.00171324,0.0158328,1966,1191,45.9273,-6.77266
749,-167,45.9058,6.29321,-0.00141594,0.00100666,0.000962661,0.00134261,-0.00175189,1.23504,0.00179181,0.0145068,1973,1191,45.9058,-6.29321
756,-167,45.9156,5.87878,-0.00232288,0.00190259,-0.000172306,0.0019096,-0.00232989,-1.53011,0.00245168,0.0111874,1980,1191,45.9156,-5.87875
763,-167,45.8409,5.44287,-0.00396021,0.00223187,-0.00209768,0.00287558,-0.00460392,-1.27305,0.00435655,0.0133635,1987,1191,45.841,-5.44284
770,-167,45.6724,5.14343,-0.00588248,0.00264276,-0.00463087,0.00467417,-0.0079139,-1.15741,0.00734752,0.0317607,1994,1191,45.6724,-5.14345
777,-167,45.8358,4.68103,-0.00832279,0.00280359,-0.00802863,0.0070081,-0.0125273,-1.08838,0.0114278,0.0480515,2001,1191,45.8358,-4.68108
784,-167,46.012,4.13647,0,0,0,0,0,0,0,-1,2008,1191,46.012,-4.13645
791,-167,46.3486,3.78784,0,0,0,0,0,0,0,-1,2015,1191,46.3485,-3.7878
798,-167,46.644,3.60571,0,0,0,0,0,0,0,-1,2022,1191,46.644,-3.60572
805,-167,46.793,3.21082,0,0,0,0,0,0,0,-1,2029,1191,46.793,-3.21086
812,-167,0,0,0,0,0,0,0,0,0,-1,2036,1191,0,0
-700,-174,0,0,0,0,0,0,0,0,0,-1,524,1198,0,0
-693,-174,0,0,0,0,0,0,0,0,0,-1,531,1198,0,0
-686,-174,-24.7008,-3.02014,0,0,0,0,0,0,0,-1,538,1198,-24.7008,3.02015
-679,-174,-25.3298,-2.23145,0,0,0,0,0,0,0,-1,545,1198,-25.3297,2.2314
-672,-174,-25.2717,-2.03088,0,0,0,0,0,0,0,-1,552,1198,-25.2717,2.03082
-665,-174,-34.5339,-1.72815,0,0,0,0,0,0,0,-1,559,1198,-34.534,1.72819
-658,-174,-33.612,-1.10364,0,0,0,0,0,0,0,-1,566,1198,-33.612,1.10362
-651,-174,-32.4818,-0.224365,0,0,0,0,0,0,0,-1,573,1198,-32.4817,0.224361
-644,-174,-31.922,0.953857,0.000143897,0.0438573,-0.00213087,0.0439609,4.02704e-05,-1.5222,0.0292939,0.0454727,580,1198,-31.922,-0.953827
-637,-174,-31.3588,2.25476,0.000718299,0.0309591,-0.00151766,0.0310351,0.000642324,-1.52078,0.0204793,0.0262798,587,1198,-31.3587,-2.25471
-630,-174,-31.4526,2.73425,0.00103919,0.0200759,-0.00126273,0.0201593,0.000955799,-1.50485,0.0131326,0.0130039,594,1198,-31.4527,-2.73424
-623,-174,-31.4867,3.23596,0.00107626,0.0108308,-0.00139393,0.0110261,0.00088097,-1.43161,0.00707536,0.0143072,601,1198,-31.4867,-3.23594
-616,-174,-31.5153,3.78674,0.0010969,0.00356875,-0.00124863,0.00408969,0.000575957,-1.17554,0.00255619,0.021243,608,1198,-31.5153,-3.7868
-609,-174,-31.5426,4.29846,0.000638929,0.000411305,-0.00137282,0.00190265,-0.000852416,-0.744041,0.00162871,0.0233784,615,1198,-31.5426,-4.29842
-602,-174,-31.5795,4.75879,0.000112985,0.000629924,-0.00186311,0.00225241,-0.0015095,-0.854323,0.00218601,0.0184769,622,1198,-31.5795,-4.75879
-595,-174,-31.3689,5.18408,0,0,0,0,0,0,0,-1,629,1198,-31.3689,-5.18408
-588,-174,-32.0157,5.68604,0,0,0,0,0,0,0,-1,636,1198,-32.0158,-5.68604
-581,-174,-32.1219,6.28088,0,0,0,0,0,0,0,-1,643,1198,-32.1219,-6.28093
-574,-174,-28.9177,6.23047,0,0,0,0,0,0,0,-1,650,1198,-28.9177,-6.23053
-567,-174,-26.6597,3.04041,0,0,0,0,0,0,0,-1,657,1198,-26.6597,-3.04039
-560,-174,-39.9704,0.897705,0,0,0,0,0,0,0,-1,664,1198,-39.9704,-0.897687
-553,-174,-40.1426,0.823242,-0.00107943,-0.000530688,-0.00376361,0.00296854,-0.00457866,-0.821784,0.0043903,0.045618,671,1198,-40.1426,-0.823287
-546,-174,-40.2517,0.838379,-0.000664091,-0.000785751,-0.00390355,0.0031791,-0.00462895,-0.777607,0.00453381,0.0297636,678,1198,-40.2517,-0.838397
-539,-174,-40.3716,0.911987,0.00061792,-0.00131643,-0.00398752,0.00375388,-0.00445239,-0.666421,0.00474361,0.0347453,685,1198,-40.3716,-0.912028
-532,-174,-40.4421,0.69751,0.00330047,-0.00217239,-0.00377564,0.00522704,-0.00409895,-0.471823,0.00539748,0.0419588,692,1198,-40.4422,-0.697564
-525,-174,-40.3474,0.466675,0.00915571,-0.00309768,-0.00337111,0.0100219,-0.0039639,-0.251511,0.00832339,0.0438597,699,1198,-40.3474,-0.466654
-518,-174,-40.2059,0.471313,0.0159469,-0.00367072,-0.00272627,0.0163187,-0.00404254,-0.135549,0.0124474,0.0444263,706,1198,-40.2058,-0.471258
-511,-174,0,0,0,0,0,0,0,0,0,-1,713,1198,0,0
-504,-174,0,0,0,0,0,0,0,0,0,-1,720,1198,0,0
-497,-174,0,0,0,0,0,0,0,0,0,-1,727,1198,0,0
-490,-174,0,0,0,0,0,0,0,0,0,-1,734,1198,0,0
-483,-174,0,0,0,0,0,0,0,0,0,-1,741,1198,0,0
-476,-174,0,0,0,0,0,0,0,0,0,-1,748,1198,0,0
-469,-174,0,0,0,0,0,0,0,0,0,-1,755,1198,0,0
-462,-174,0,0,0,0,0,0,0,0,0,-1,762,1198,0,0
-455,-174,0,0,0,0,0,0,0,0,0,-1,769,1198,0,0
-448,-174,0,0,0,0,0,0,0,0,0,-1,776,1198,0,0
-441,-174,0,0,0,0,0,0,0,0,0,-1,783,1198,0,0
-434,-174,0,0,0,0,0,0,0,0,0,-1,790,1198,0,0
-427,-174,0,0,0,0,0,0,0,0,0,-1,797,1198,0,0
-420,-174,0,0,0,0,0,0,0,0,0,-1,804,1198,0,0
-413,-174,0,0,0,0,0,0,0,0,0,-1,811,1198,0,0
-406,-174,0,0,0,0,0,0,0,0,0,-1,818,1198,0,0
-399,-174,0,0,0,0,0,0,0,0,0,-1,825,1198,0,0
-392,-174,0,0,0,0,0,0,0,0,0,-1,832,1198,0,0
-385,-174,0,0,0,0,0,0,0,0,0,-1,839,1198,0,0
-378,-174,0,0,0,0,0,0,0,0,0,-1,846,1198,0,0
-371,-174,0,0,0,0,0,0,0,0,0,-1,853,1198,0,0
-364,-174,0,0,0,0,0,0,0,0,0,-1,860,1198,0,0
-357,-174,0,0,0,0,0,0,0,0,0,-1,867,1198,0,0
-350,-174,0,0,0,0,0,0,0,0,0,-1,874,1198,0,0
-343,-174,0,0,0,0,0,0,0,0,0,-1,881,1198,0,0
-336,-174,0,0,0,0,0,0,0,0,0,-1,888,1198,0,0
-329,-174,0,0,0,0,0,0,0,0,0,-1,895,1198,0,0
-322,-174,0,0,0,0,0,0,0,0,0,-1,902,1198,0,0
-315,-174,0,0,0,0,0,0,0,0,0,-1,909,1198,0,0
-308,-174,0,0,0,0,0,0,0,0,0,-1,916,1198,0,0
-301,-174,0,0,0,0,0,0,0,0,0,-1,923,1198,0,0
-294,-174,0,0,0,0,0,0,0,0,0,-1,930,1198,0,0
-287,-174,0,0,0,0,0,0,0,0,0,-1,937,1198,0,0
-280,-174,0,0,0,0,0,0,0,0,0,-1,944,1198,0,0
-273,-174,0,0,0,0,0,0,0,0,0,-1,951,1198,0,0
-266,-174,0,0,0,0,0,0,0,0,0,-1,958,1198,0,0
-259,-174,0,0,0,0,0,0,0,0,0,-1,965,1198,0,0
-252,-174,0,0,0,0,0,0,0,0,0,-1,972,1198,0,0
-245,-174,0,0,0,0,0,0,0,0,0,-1,979,1198,0,0
-238,-174,0,0,0,0,0,0,0,0,0,-1,986,1198,0,0
-231,-174,0,0,0,0,0,0,0,0,0,-1,993,1198,0,0
-224,-174,0,0,0,0,0,0,0,0,0,-1,1000,1198,0,0
-217,-174,0,0,0,0,0,0,0,0,0,-1,1007,1198,0,0
-210,-174,0,0,0,0,0,0,0,0,0,-1,1014,1198,0,0
-203,-174,0,0,0,0,0,0,0,0,0,-1,1021,1198,0,0
-196,-174,0,0,0,0,0,0,0,0,0,-1,1028,1198,0,0
-189,-174,0,0,0,0,0,0,0,0,0,-1,1035,1198,0,0
-182,-174,0,0,0,0,0,0,0,0,0,-1,1042,1198,0,0
-175,-174,0,0,0,0,0,0,0,0,0,-1,1049,1198,0,0
-168,-174,0,0,0,0,0,0,0,0,0,-1,1056,1198,0,0
-161,-174,0,0,0,0,0,0,0,0,0,-1,1063,1198,0,0
-154,-174,0,0,0,0,0,0,0,0,0,-1,1070,1198,0,0
-147,-174,0,0,0,0,0,0,0,0,0,-1,1077,1198,0,0
-140,-174,0,0,0,0,0,0,0,0,0,-1,1084,1198,0,0
-133,-174,0,0,0,0,0,0,0,0,0,-1,1091,1198,0,0
-126,-174,0,0,0,0,0,0,0,0,0,-1,1098,1198,0,0
-119,-174,0,0,0,0,0,0,0,0,0,-1,1105,1198,0,0
-112,-174,0,0,0,0,0,0,0,0,0,-1,1112,1198,0,0
-105,-174,0,0,0,0,0,0,0,0,0,-1,1119,1198,0,0
-98,-174,0,0,0,0,0,0,0,0,0,-1,1126,1198,0,0
-91,-174,0,0,0,0,0,0,0,0,0,-1,1133,1198,0,0
-84,-174,0,0,0,0,0,0,0,0,0,-1,1140,1198,0,0
-77,-174,0,0,0,0,0,0,0,0,0,-1,1147,1198,0,0
-70,-174,0,0,0,0,0,0,0,0,0,-1,1154,1198,0,0
-63,-174,0,0,0,0,0,0,0,0,0,-1,1161,1198,0,0
-56,-174,0,0,0,0,0,0,0,0,0,-1,1168,1198,0,0
-49,-174,0,0,0,0,0,0,0,0,0,-1,1175,1198,0,0
-42,-174,0,0,0,0,0,0,0,0,0,-1,1182,1198,0,0
-35,-174,0,0,0,0,0,0,0,0,0,-1,1189,1198,0,0
-28,-174,0,0,0,0,0,0,0,0,0,-1,1196,1198,0,0
-21,-174,0,0,0,0,0,0,0,0,0,-1,1203,1198,0,0
-14,-174,0,0,0,0,0,0,0,0,0,-1,1210,1198,0,0
-7,-174,0,0,0,0,0,0,0,0,0,-1,1217,1198,0,0
0,-174,0,0,0,0,0,0,0,0,0,-1,1224,1198,0,0
7,-174,0,0,0,0,0,0,0,0,0,-1,1231,1198,0,0
14,-174,0,0,0,0,0,0,0,0,0,-1,1238,1198,0,0
21,-174,0,0,0,0,0,0,0,0,0,-1,1245,1198,0,0
28,-174,0,0,0,0,0,0,0,0,0,-1,1252,1198,0,0
35,-174,0,0,0,0,0,0,0,0,0,-1,1259,1198,0,0
42,-174,0,0,0,0,0,0,0,0,0,-1,1266,1198,0,0
49,-174,0,0,0,0,0,0,0,0,0,-1,1273,1198,0,0
56,-174,0,0,0,0,0,0,0,0,0,-1,1280,1198,0,0
63,-174,0,0,0,0,0,0,0,0,0,-1,1287,1198,0,0
70,-174,0,0,0,0,0,0,0,0,0,-1,1294,1198,0,0
77,-174,0,0,0,0,0,0,0,0,0,-1,1301,1198,0,0
84,-174,0,0,0,0,0,0,0,0,0,-1,1308,1198,0,0
91,-174,0,0,0,0,0,0,0,0,0,-1,1315,1198,0,0
98,-174,0,0,0,0,0,0,0,0,0,-1,1322,1198,0,0
105,-174,0,0,0,0,0,0,0,0,0,-1,1329,1198,0,0
112,-174,0,0,0,0,0,0,0,0,0,-1,1336,1198,0,0
119,-174,0,0,0,0,0,0,0,0,0,-1,1343,1198,0,0
126,-174,0,0,0,0,0,0,0,0,0,-1,1350,1198,0,0
133,-174,0,0,0,0,0,0,0,0,0,-1,1357,1198,0,0
140,-174,0,0,0,0,0,0,0,0,0,-1,1364,1198,0,0
147,-174,0,0,0,0,0,0,0,0,0,-1,1371,1198,0,0
154,-174,0,0,0,0,0,0,0,0,0,-1,1378,1198,0,0
161,-174,0,0,0,0,0,0,0,0,0,-1,1385,1198,0,0
168,-174,0,0,0,0,0,0,0,0,0,-1,1392,1198,0,0
175,-174,0,0,0,0,0,0,0,0,0,-1,1399,1198,0,0
182,-174,0,0,0,0,0,0,0,0,0,-1,1406,1198,0,0
189,-174,0,0,0,0,0,0,0,0,0,-1,1413,1198,0,0
196,-174,0,0,0,0,0,0,0,0,0,-1,1420,1198,0,0
203,-174,0,0,0,0,0,0,0,0,0,-1,1427,1198,0,0
210,-174,0,0,0,0,0,0,0,0,0,-1,1434,1198,0,0
217,-174,0,0,0,0,0,0,0,0,0,-1,1441,1198,0,0
224,-174,0,0,0,0,0,0,0,0,0,-1,1448,1198,0,0
231,-174,0,0,0,0,0,0,0,0,0,-1,1455,1198,0,0
238,-174,0,0,0,0,0,0,0,0,0,-1,1462,1198,0,0
245,-174,0,0,0,0,0,0,0,0,0,-1,1469,1198,0,0
252,-174,0,0,0,0,0,0,0,0,0,-1,1476,1198,0,0
259,-174,0,0,0,0,0,0,0,0,0,-1,1483,1198,0,0
266,-174,0,0,0,0,0,0,0,0,0,-1,1490,1198,0,0
273,-174,0,0,0,0,0,0,0,0,0,-1,1497,1198,0,0
280,-174,0,0,0,0,0,0,0,0,0,-1,1504,1198,0,0
287,-174,0,0,0,0,0,0,0,0,0,-1,1511,1198,0,0
294,-174,0,0,0,0,0,0,0,0,0,-1,1518,1198,0,0
301,-174,0,0,0,0,0,0,0,0,0,-1,1525,1198,0,0
308,-174,0,0,0,0,0,0,0,0,0,-1,1532,1198,0,0
315,-174,0,0,0,0,0,0,0,0,0,-1,1539,1198,0,0
322,-174,0,0,0,0,0,0,0,0,0,-1,1546,1198,0,0
329,-174,0,0,0,0,0,0,0,0,0,-1,1553,1198,0,0
336,-174,0,0,0,0,0,0,0,0,0,-1,1560,1198,0,0
343,-174,0,0,0,0,0,0,0,0,0,-1,1567,1198,0,0
350,-174,0,0,0,0,0,0,0,0,0,-1,1574,1198,0,0
357,-174,0,0,0,0,0,0,0,0,0,-1,1581,1198,0,0
364,-174,0,0,0,0,0,0,0,0,0,-1,1588,1198,0,0
371,-174,0,0,0,0,0,0,0,0,0,-1,1595,1198,0,0
378,-174,0,0,0,0,0,0,0,0,0,-1,1602,1198,0,0
385,-174,0,0,0,0,0,0,0,0,0,-1,1609,1198,0,0
392,-174,0,0,0,0,0,0,0,0,0,-1,1616,1198,0,0
399,-174,0,0,0,0,0,0,0,0,0,-1,1623,1198,0,0
406,-174,0,0,0,0,0,0,0,0,0,-1,1630,1198,0,0
413,-174,0,0,0,0,0,0,0,0,0,-1,1637,1198,0,0
420,-174,0,0,0,0,0,0,0,0,0,-1,1644,1198,0,0
427,-174,0,0,0,0,0,0,0,0,0,-1,1651,1198,0,0
434,-174,0,0,0,0,0,0,0,0,0,-1,1658,1198,0,0
441,-174,0,0,0,0,0,0,0,0,0,-1,1665,1198,0,0
448,-174,0,0,0,0,0,0,0,0,0,-1,1672,1198,0,0
455,-174,0,0,0,0,0,0,0,0,0,-1,1679,1198,0,0
462,-174,0,0,0,0,0,0,0,0,0,-1,1686,1198,0,0
469,-174,0,0,0,0,0,0,0,0,0,-1,1693,1198,0,0
476,-174,0,0,0,0,0,0,0,0,0,-1,1700,1198,0,0
483,-174,0,0,0,0,0,0,0,0,0,-1,1707,1198,0,0
490,-174,0,0,0,0,0,0,0,0,0,-1,1714,1198,0,0
497,-174,0,0,0,0,0,0,0,0,0,-1,1721,1198,0,0
504,-174,0,0,0,0,0,0,0,0,0,-1,1728,1198,0,0
511,-174,0,0,0,0,0,0,0,0,0,-1,1735,1198,0,0
518,-174,0,0,0,0,0,0,0,0,0,-1,1742,1198,0,0
525,-174,0,0,0,0,0,0,0,0,0,-1,1749,1198,0,0
532,-174,0,0,0,0,0,0,0,0,0,-1,1756,1198,0,0
539,-174,0,0,0,0,0,0,0,0,0,-1,1763,1198,0,0
546,-174,0,0,0,0,0,0,0,0,0,-1,1770,1198,0,0
553,-174,0,0,0,0,0,0,0,0,0,-1,1777,1198,0,0
560,-174,0,0,0,0,0,0,0,0,0,-1,1784,1198,0,0
567,-174,0,0,0,0,0,0,0,0,0,-1,1791,1198,0,0
574,-174,0,0,0,0,0,0,0,0,0,-1,1798,1198,0,0
581,-174,0,0,0,0,0,0,0,0,0,-1,1805,1198,0,0
588,-174,0,0,0,0,0,0,0,0,0,-1,1812,1198,0,0
595,-174,0,0,0,0,0,0,0,0,0,-1,1819,1198,0,0
602,-174,0,0,0,0,0,0,0,0,0,-1,1826,1198,0,0
609,-174,0,0,0,0,0,0,0,0,0,-1,1833,1198,0,0
616,-174,0,0,0,0,0,0,0,0,0,-1,1840,1198,0,0
623,-174,0,0,0,0,0,0,0,0,0,-1,1847,1198,0,0
630,-174,0,0,0,0,0,0,0,0,0,-1,1854,1198,0,0
637,-174,53.6926,3.06714,0.00375306,-0.00283138,-0.00107346,0.00392365,-0.00300196,-0.157595,0.00401029,0.0416161,1861,1198,53.6926,-3.06712
644,-174,53.8187,2.86316,0.00276835,-0.00204779,-0.00099226,0.00296477,-0.00224421,-0.195428,0.00301699,0.0405447,1868,1198,53.8187,-2.86313
651,-174,53.974,2.54456,0.00194789,-0.00117495,-0.00100009,0.00224071,-0.00146777,-0.284835,0.00215654,0.0420218,1875,1198,53.974,-2.5445
658,-174,53.9148,2.45483,0.00126528,-0.000358564,-0.00112992,0.00184474,-0.000938025,-0.47386,0.00163481,0.0429915,1882,1198,53.9148,-2.45481
665,-174,53.9318,2.67493,0.000810023,0.000182254,-0.00123901,0.00177429,-0.000782013,-0.661341,0.00151249,0.0362461,1889,1198,53.9318,-2.67494
672,-174,53.8741,2.65869,0.000319724,0.000632361,-0.00114824,0.00163488,-0.000682794,-0.853051,0.00137523,0.0257043,1896,1198,53.8741,-2.65867
679,-174,53.8964,2.59192,4.27852e-05,0.000591543,-0.000967955,0.00132326,-0.000688928,-0.923506,0.00118082,0.0211967,1903,1198,53.8964,-2.59196
686,-174,53.9281,2.52527,0,0,0,0,0,0,0,-1,1910,1198,53.9281,-2.52523
693,-174,51.1324,2.57349,0,0,0,0,0,0,0,-1,1917,1198,51.1325,-2.57343
700,-174,25.4004,6.11792,0,0,0,0,0,0,0,-1,1924,1198,25.4004,-6.11797
707,-174,34.7908,7.34473,0,0,0,0,0,0,0,-1,1931,1198,34.7908,-7.34475
714,-174,40.1135,7.79871,0,0,0,0,0,0,0,-1,1938,1198,40.1135,-7.79875
721,-174,40.8693,7.59863,0,0,0,0,0,0,0,-1,1945,1198,40.8693,-7.59859
728,-174,45.3857,7.69458,0,0,0,0,0,0,0,-1,1952,1198,45.3857,-7.69457
735,-174,45.4613,7.26062,-0.000505122,0.0004431,0.000981504,0.001059,-0.00112103,1.01039,0.00125881,0.0150615,1959,1198,45.4613,-7.26066
742,-174,45.4598,6.7644,-0.000614464,0.000577951,0.00128815,0.00140118,-0.00143769,1.00214,0.00163907,0.0208895,1966,1198,45.4599,-6.76435
749,-174,45.453,6.31433,-0.000838372,0.00117406,0.000854785,0.00148812,-0.00115243,1.21869,0.00152862,0.0186426,1973,1198,45.453,-6.31439
756,-174,45.4207,5.87134,-0.00106628,0.00203609,-0.000107403,0.0020398,-0.00106999,-1.53623,0.00182431,0.0115932,1980,1198,45.4207,-5.87129
763,-174,45.3903,5.42542,-0.00177282,0.00244677,-0.00171443,0.00305552,-0.00238158,-1.22961,0.00314714,0.0158006,1987,1198,45.3903,-5.42544
770,-174,45.4916,4.97473,-0.00266792,0.00294844,-0.00394896,0.00498589,-0.00470537,-1.09447,0.00559603,0.0363966,1994,1198,45.4916,-4.97475
777,-174,45.5763,4.63098,0,0,0,0,0,0,0,-1,2001,1198,45.5763,-4.631
784,-174,44.3901,3.03601,0,0,0,0,0,0,0,-1,2008,1198,44.3902,-3.03598
791,-174,46.2539,3.61731,0,0,0,0,0,0,0,-1,2015,1198,46.2539,-3.61731
798,-174,46.7686,3.53821,0,0,0,0,0,0,0,-1,2022,1198,46.7686,-3.53819
805,-174,46.7219,3.02344,0,0,0,0,0,0,0,-1,2029,1198,46.7218,-3.02347
812,-174,0,0,0,0,0,0,0,0,0,-1,2036,1198,0,0
-700,-181,0,0,0,0,0,0,0,0,0,-1,524,1205,0,0
-693,-181,0,0,0,0,0,0,0,0,0,-1,531,1205,0,0
-686,-181,-23.2447,-3.25073,0,0,0,0,0,0,0,-1,538,1205,-23.2447,3.25069
-679,-181,-34.8193,-3.37537,0,0,0,0,0,0,0,-1,545,1205,-34.8193,3.37533
-672,-181,-34.6909,-2.31091,0,0,0,0,0,0,0,-1,552,1205,-34.6909,2.31087
-665,-181,-34.063,-1.84277,-0.00203223,0.0917765,0.00976122,0.0927815,-0.00303717,1.46821,0.0628912,0.0484186,559,1205,-34.063,1.84281
-658,-181,-33.2084,-1.17615,-0.000999414,0.0738274,0.00959558,0.0750383,-0.00221033,1.44526,0.0507783,0.0470355,566,1205,-33.2084,1.17615
-651,-181,-32.1125,-0.0246582,0,0,0,0,0,0,0,-1,573,1205,-32.1125,0.0246381
-644,-181,-31.4631,1.04688,0.000435931,0.0436391,0.00731172,0.044843,-0.000767961,1.40761,0.0301546,0.0432122,580,1205,-31.4631,-1.04685
-637,-181,-30.8681,2.20386,0.000863493,0.0313348,0.0054896,0.0322936,-9.53246e-05,1.39788,0.0215609,0.0271432,587,1205,-30.8681,-2.2038
-630,-181,-30.9502,2.74829,0.0011613,0.0208991,0.00355197,0.0215188,0.000541555,1.39806,0.0141688,0.0135379,594,1205,-30.9502,-2.74826
-623,-181,-30.9893,3.24805,0.00121461,0.0119902,0.00143077,0.0121769,0.00102787,1.44101,0.00779795,0.0151066,601,1205,-30.9893,-3.24811
-616,-181,-30.9689,3.79492,0.00142768,0.00481561,-3.51843e-05,0.00481597,0.00142731,-1.56041,0.00285633,0.0159966,608,1205,-30.9689,-3.79498
-609,-181,-30.9697,4.34204,0.00116545,0.000980069,-0.00112901,0.00220557,-6.00535e-05,-0.744441,0.0014908,0.0156142,615,1205,-30.9697,-4.34202
-602,-181,-30.9989,4.8551,0.000589231,0.000733441,-0.00190958,0.00257227,-0.0012496,-0.804269,0.00225018,0.0158458,622,1205,-30.9989,-4.85511
-595,-181,-30.9283,5.33093,0,0,0,0,0,0,0,-1,629,1205,-30.9283,-5.33088
-588,-181,-31.5412,5.79932,-0.00160028,0.000338134,-0.00236125,0.00192135,-0.00318349,-0.980145,0.00297716,0.0354923,636,1205,-31.5412,-5.79928
-581,-181,-31.4437,6.37158,-0.00174246,0.000211767,-0.00278573,0.00218678,-0.00371747,-0.954073,0.00344679,0.0325105,643,1205,-31.4437,-6.37163
-574,-181,-30.8944,6.83435,0,0,0,0,0,0,0,-1,650,1205,-30.8944,-6.83439
-567,-181,-25.8839,3.34485,0,0,0,0,0,0,0,-1,657,1205,-25.8839,-3.3449
-560,-181,-31.7396,1.63306,0,0,0,0,0,0,0,-1,664,1205,-31.7396,-1.63303
-553,-181,-40.0351,0.519531,0,0,0,0,0,0,0,-1,671,1205,-40.0351,-0.519539
-546,-181,-40.1711,0.751831,-0.000528993,-0.000928368,-0.0039265,0.0032029,-0.00466026,-0.759992,0.00456571,0.0358153,678,1205,-40.1711,-0.751833
-539,-181,-40.3494,0.917969,0.000216099,-0.00145031,-0.00402575,0.00349397,-0.00472817,-0.683355,0.00476485,0.040277,685,1205,-40.3494,-0.918017
-532,-181,-40.5364,0.828857,0.00180952,-0.00226657,-0.00384639,0.00412444,-0.0045815,-0.541774,0.00502869,0.044721,692,1205,-40.5364,-0.828915
-525,-181,-40.4047,0.526978,0.0063172,-0.00342091,-0.00344561,0.00741303,-0.00451674,-0.307922,0.00695499,0.0430127,699,1205,-40.4046,-0.526963
-518,-181,-40.2001,0.438232,0.0127505,-0.0043421,-0.00271948,0.0131728,-0.00476435,-0.154037,0.0107286,0.0410741,706,1205,-40.2001,-0.438254
-511,-181,0,0,0,0,0,0,0,0,0,-1,713,1205,0,0
-504,-181,0,0,0,0,0,0,0,0,0,-1,720,1205,0,0
-497,-181,0,0,0,0,0,0,0,0,0,-1,727,1205,0,0
-490,-181,0,0,0,0,0,0,0,0,0,-1,734,1205,0,0
-483,-181,0,0,0,0,0,0,0,0,0,-1,741,1205,0,0
-476,-181,0,0,0,0,0,0,0,0,0,-1,748,1205,0,0
-469,-181,0,0,0,0,0,0,0,0,0,-1,755,1205,0,0
-462,-181,0,0,0,0,0,0,0,0,0,-1,762,1205,0,0
-455,-181,0,0,0,0,0,0,0,0,0,-1,769,1205,0,0
-448,-181,0,0,0,0,0,0,0,0,0,-1,776,1205,0,0
-441,-181,0,0,0,0,0,0,0,0,0,-1,783,1205,0,0
-434,-181,0,0,0,0,0,0,0,0,0,-1,790,1205,0,0
-427,-181,0,0,0,0,0,0,0,0,0,-1,797,1205,0,0
-420,-181,0,0,0,0,0,0,0,0,0,-1,804,1205,0,0
-413,-181,0,0,0,0,0,0,0,0,0,-1,811,1205,0,0
-406,-181,0,0,0,0,0,0,0,0,0,-1,818,1205,0,0
-399,-181,0,0,0,0,0,0,0,0,0,-1,825,1205,0,0
-392,-181,0,0,0,0,0,0,0,0,0,-1,832,1205,0,0
-385,-181,0,0,0,0,0,0,0,0,0,-1,839,1205,0,0
-378,-181,0,0,0,0,0,0,0,0,0,-1,846,1205,0,0
-371,-181,0,0,0,0,0,0,0,0,0,-1,853,1205,0,0
-364,-181,0,0,0,0,0,0,0,0,0,-1,860,1205,0,0
-357,-181,0,0,0,0,0,0,0,0,0,-1,867,1205,0,0
-350,-181,0,0,0,0,0,0,0,0,0,-1,874,1205,0,0
-343,-181,0,0,0,0,0,0,0,0,0,-1,881,1205,0,0
-336,-181,0,0,0,0,0,0,0,0,0,-1,888,1205,0,0
-329,-181,0,0,0,0,0,0,0,0,0,-1,895,1205,0,0
-322,-181,0,0,0,0,0,0,0,0,0,-1,902,1205,0,0
-315,-181,0,0,0,0,0,0,0,0,0,-1,909,1205,0,0
-308,-181,0,0,0,0,0,0,0,0,0,-1,916,1205,0,0
-301,-181,0,0,0,0,0,0,0,0,0,-1,923,1205,0,0
-294,-181,0,0,0,0,0,0,0,0,0,-1,930,1205,0,0
-287,-181,0,0,0,0,0,0,0,0,0,-1,937,1205,0,0
-280,-181,0,0,0,0,0,0,0,0,0,-1,944,1205,0,0
-273,-181,0,0,0,0,0,0,0,0,0,-1,951,1205,0,0
-266,-181,0,0,0,0,0,0,0,0,0,-1,958,1205,0,0
-259,-181,0,0,0,0,0,0,0,0,0,-1,965,1205,0,0
-252,-181,0,0,0,0,0,0,0,0,0,-1,972,1205,0,0
-245,-181,0,0,0,0,0,0,0,0,0,-1,979,1205,0,0
-238,-181,0,0,0,0,0,0,0,0,0,-1,986,1205,0,0
-231,-181,0,0,0,0,0,0,0,0,0,-1,993,1205,0,0
-224,-181,0,0,0,0,0,0,0,0,0,-1,1000,1205,0,0
-217,-181,0,0,0,0,0,0,0,0,0,-1,1007,1205,0,0
-210,-181,0,0,0,0,0,0,0,0,0,-1,1014,1205,0,0
-203,-181,0,0,0,0,0,0,0,0,0,-1,1021,1205,0,0
-196,-181,0,0,0,0,0,0,0,0,0,-1,1028,1205,0,0
-189,-181,0,0,0,0,0,0,0,0,0,-1,1035,1205,0,0
-182,-181,0,0,0,0,0,0,0,0,0,-1,1042,1205,0,0
-175,-181,0,0,0,0,0,0,0,0,0,-1,1049,1205,0,0
-168,-181,0,0,0,0,0,0,0,0,0,-1,1056,1205,0,0
-161,-181,0,0,0,0,0,0,0,0,0,-1,1063,1205,0,0
-154,-181,0,0,0,0,0,0,0,0,0,-1,1070,1205,0,0
-147,-181,0,0,0,0,0,0,0,0,0,-1,1077,1205,0,0
-140,-181,0,0,0,0,0,0,0,0,0,-1,1084,1205,0,0
-133,-181,0,0,0,0,0,0,0,0,0,-1,1091,1205,0,0
-126,-181,0,0,0,0,0,0,0,0,0,-1,1098,1205,0,0
-119,-181,0,0,0,0,0,0,0,0,0,-1,1105,1205,0,0
-112,-181,0,0,0,0,0,0,0,0,0,-1,1112,1205,0,0
-105,-181,0,0,0,0,0,0,0,0,0,-1,1119,1205,0,0
-98,-181,0,0,0,0,0,0,0,0,0,-1,1126,1205,0,0
-91,-181,0,0,0,0,0,0,0,0,0,-1,1133,1205,0,0
-84,-181,0,0,0,0,0,0,0,0,0,-1,1140,1205,0,0
-77,-181,0,0,0,0,0,0,0,0,0,-1,1147,1205,0,0
-70,-181,0,0,0,0,0,0,0,0,0,-1,1154,1205,0,0
-63,-181,0,0,0,0,0,0,0,0,0,-1,1161,1205,0,0
-56,-181,0,0,0,0,0,0,0,0,0,-1,1168,1205,0,0
-49,-181,0,0,0,0,0,0,0,0,0,-1,1175,1205,0,0
-42,-181,0,0,0,0,0,0,0,0,0,-1,1182,1205,0,0
-35,-181,0,0,0,0,0,0,0,0,0,-1,1189,1205,0,0
-28,-181,0,0,0,0,0,0,0,0,0,-1,1196,1205,0,0
-21,-181,0,0,0,0,0,0,0,0,0,-1,1203,1205,0,0
-14,-181,0,0,0,0,0,0,0,0,0,-1,1210,1205,0,0
-7,-181,0,0,0,0,0,0,0,0,0,-1,1217,1205,0,0
0,-181,0,0,0,0,0,0,0,0,0,-1,1224,1205,0,0
7,-181,0,0,0,0,0,0,0,0,0,-1,1231,1205,0,0
14,-181,0,0,0,0,0,0,0,0,0,-1,1238,1205,0,0
21,-181,0,0,0,0,0,0,0,0,0,-1,1245,1205,0,0
28,-181,0,0,0,0,0,0,0,0,0,-1,1252,1205,0,0
35,-181,0,0,0,0,0,0,0,0,0,-1,1259,1205,0,0
42,-181,0,0,0,0,0,0,0,0,0,-1,1266,1205,0,0
49,-181,0,0,0,0,0,0,0,0,0,-1,1273,1205,0,0
56,-181,0,0,0,0,0,0,0,0,0,-1,1280,1205,0,0
63,-181,0,0,0,0,0,0,0,0,0,-1,1287,1205,0,0
70,-181,0,0,0,0,0,0,0,0,0,-1,1294,1205,0,0
77,-181,0,0,0,0,0,0,0,0,0,-1,1301,1205,0,0
84,-181,0,0,0,0,0,0,0,0,0,-1,1308,1205,0,0
91,-181,0,0,0,0,0,0,0,0,0,-1,1315,1205,0,0
98,-181,0,0,0,0,0,0,0,0,0,-1,1322,1205,0,0
105,-181,0,0,0,0,0,0,0,0,0,-1,1329,1205,0,0
112,-181,0,0,0,0,0,0,0,0,0,-1,1336,1205,0,0
119,-181,0,0,0,0,0,0,0,0,0,-1,1343,1205,0,0
126,-181,0,0,0,0,0,0,0,0,0,-1,1350,1205,0,0
133,-181,0,0,0,0,0,0,0,0,0,-1,1357,1205,0,0
140,-181,0,0,0,0,0,0,0,0,0,-1,1364,1205,0,0
147,-181,0,0,0,0,0,0,0,0,0,-1,1371,1205,0,0
154,-181,0,0,0,0,0,0,0,0,0,-1,1378,1205,0,0
161,-181,0,0,0,0,0,0,0,0,0,-1,1385,1205,0,0
168,-181,0,0,0,0,0,0,0,0,0,-1,1392,1205,0,0
175,-181,0,0,0,0,0,0,0,0,0,-1,1399,1205,0,0
182,-181,0,0,0,0,0,0,0,0,0,-1,1406,1205,0,0
189,-181,0,0,0,0,0,0,0,0,0,-1,1413,1205,0,0
196,-181,0,0,0,0,0,0,0,0,0,-1,1420,1205,0,0
203,-181,0,0,0,0,0,0,0,0,0,-1,1427,1205,0,0
210,-181,0,0,0,0,0,0,0,0,0,-1,1434,1205,0,0
217,-181,0,0,0,0,0,0,0,0,0,-1,1441,1205,0,0
224,-181,0,0,0,0,0,0,0,0,0,-1,1448,1205,0,0
231,-181,0,0,0,0,0,0,0,0,0,-1,1455,1205,0,0
238,-181,0,0,0,0,0,0,0,0,0,-1,1462,1205,0,0
245,-181,0,0,0,0,0,0,0,0,0,-1,1469,1205,0,0
252,-181,0,0,0,0,0,0,0,0,0,-1,1476,1205,0,0
259,-181,0,0,0,0,0,0,0,0,0,-1,1483,1205,0,0
266,-181,0,0,0,0,0,0,0,0,0,-1,1490,1205,0,0
273,-181,0,0,0,0,0,0,0,0,0,-1,1497,1205,0,0
280,-181,0,0,0,0,0,0,0,0,0,-1,1504,1205,0,0
287,-181,0,0,0,0,0,0,0,0,0,-1,1511,1205,0,0
294,-181,0,0,0,0,0,0,0,0,0,-1,1518,1205,0,0
301,-181,0,0,0,0,0,0,0,0,0,-1,1525,1205,0,0
308,-181,0,0,0,0,0,0,0,0,0,-1,1532,1205,0,0
315,-181,0,0,0,0,0,0,0,0,0,-1,1539,1205,0,0
322,-181,0,0,0,0,0,0,0,0,0,-1,1546,1205,0,0
329,-181,0,0,0,0,0,0,0,0,0,-1,1553,1205,0,0
336,-181,0,0,0,0,0,0,0,0,0,-1,1560,1205,0,0
343,-181,0,0,0,0,0,0,0,0,0,-1,1567,1205,0,0
350,-181,0,0,0,0,0,0,0,0,0,-1,1574,1205,0,0
357,-181,0,0,0,0,0,0,0,0,0,-1,1581,1205,0,0
364,-181,0,0,0,0,0,0,0,0,0,-1,1588,1205,0,0
371,-181,0,0,0,0,0,0,0,0,0,-1,1595,1205,0,0
378,-181,0,0,0,0,0,0,0,0,0,-1,1602,1205,0,0
385,-181,0,0,0,0,0,0,0,0,0,-1,1609,1205,0,0
392,-181,0,0,0,0,0,0,0,0,0,-1,1616,1205,0,0
399,-181,0,0,0,0,0,0,0,0,0,-1,1623,1205,0,0
406,-181,0,0,0,0,0,0,0,0,0,-1,1630,1205,0,0
413,-181,0,0,0,0,0,0,0,0,0,-1,1637,1205,0,0
420,-181,0,0,0,0,0,0,0,0,0,-1,1644,1205,0,0
427,-181,0,0,0,0,0,0,0,0,0,-1,1651,1205,0,0
434,-181,0,0,0,0,0,0,0,0,0,-1,1658,1205,0,0
441,-181,0,0,0,0,0,0,0,0,0,-1,1665,1205,0,0
448,-181,0,0,0,0,0,0,0,0,0,-1,1672,1205,0,0
455,-181,0,0,0,0,0,0,0,0,0,-1,1679,1205,0,0
462,-181,0,0,0,0,0,0,0,0,0,-1,1686,1205,0,0
469,-181,0,0,0,0,0,0,0,0,0,-1,1693,1205,0,0
476,-181,0,0,0,0,0,0,0,0,0,-1,1700,1205,0,0
483,-181,0,0,0,0,0,0,0,0,0,-1,1707,1205,0,0
490,-181,0,0,0,0,0,0,0,0,0,-1,1714,1205,0,0
497,-181,0,0,0,0,0,0,0,0,0,-1,1721,1205,0,0
504,-181,0,0,0,0,0,0,0,0,0,-1,1728,1205,0,0
511,-181,0,0,0,0,0,0,0,0,0,-1,1735,1205,0,0
518,-181,0,0,0,0,0,0,0,0,0,-1,1742,1205,0,0
525,-181,0,0,0,0,0,0,0,0,0,-1,1749,1205,0,0
532,-181,0,0,0,0,0,0,0,0,0,-1,1756,1205,0,0
539,-181,0,0,0,0,0,0,0,0,0,-1,1763,1205,0,0
546,-181,0,0,0,0,0,0,0,0,0,-1,1770,1205,0,0
553,-181,0,0,0,0,0,0,0,0,0,-1,1777,1205,0,0
560,-181,0,0,0,0,0,0,0,0,0,-1,1784,1205,0,0
567,-181,0,0,0,0,0,0,0,0,0,-1,1791,1205,0,0
574,-181,0,0,0,0,0,0,0,0,0,-1,1798,1205,0,0
581,-181,0,0,0,0,0,0,0,0,0,-1,1805,1205,0,0
588,-181,0,0,0,0,0,0,0,0,0,-1,1812,1205,0,0
595,-181,0,0,0,0,0,0,0,0,0,-1,1819,1205,0,0
602,-181,0,0,0,0,0,0,0,0,0,-1,1826,1205,0,0
609,-181,0,0,0,0,0,0,0,0,0,-1,1833,1205,0,0
616,-181,0,0,0,0,0,0,0,0,0,-1,1840,1205,0,0
623,-181,0,0,0,0,0,0,0,0,0,-1,1847,1205,0,0
630,-181,54.0107,2.71313,0.0043768,-0.00152235,-0.00157847,0.00477261,-0.00191816,-0.245686,0.00397837,0.0387452,1854,1205,54.0107,-2.71313
637,-181,54.046,2.9209,0.00354277,-0.00148846,-0.00142691,0.00391928,-0.00186497,-0.257985,0.00340902,0.0385446,1861,1205,54.0461,-2.9209
644,-181,53.9875,2.96484,0.00270275,-0.00122934,-0.00129424,0.00309051,-0.0016171,-0.291092,0.00276196,0.0391697,1868,1205,53.9876,-2.96479
651,-181,54.0469,2.68567,0.00192938,-0.000816606,-0.00122341,0.00239537,-0.00128259,-0.363926,0.00215563,0.0399592,1875,1205,54.0468,-2.68569
658,-181,53.9692,2.48438,0.00123474,-0.000426673,-0.00127353,0.00192455,-0.00111648,-0.496408,0.00177628,0.0371615,1882,1205,53.9692,-2.48439
665,-181,53.863,2.63159,0.000776285,-0.000289703,-0.00126699,0.00161782,-0.00113124,-0.586296,0.00159544,0.0338062,1889,1205,53.863,-2.63164
672,-181,53.8621,2.63513,0.000306535,-2.7844e-05,-0.00107057,0.00122289,-0.0009442,-0.70794,0.00125461,0.0233902,1896,1205,53.862,-2.63508
679,-181,53.9238,2.60486,5.62636e-05,-6.57435e-05,-0.000868971,0.000866369,-0.000875849,-0.750355,0.00100588,0.0268132,1903,1205,53.9238,-2.60485
686,-181,53.9567,2.57605,0,0,0,0,0,0,0,-1,1910,1205,53.9567,-2.57608
693,-181,36.1301,2.91016,0,0,0,0,0,0,0,-1,1917,1205,36.1302,-2.9102
700,-181,29.5845,6.58398,0,0,0,0,0,0,0,-1,1924,1205,29.5844,-6.58395
707,-181,39.8232,8.03186,0,0,0,0,0,0,0,-1,1931,1205,39.8233,-8.0319
714,-181,40.174,7.73877,0,0,0,0,0,0,0,-1,1938,1205,40.174,-7.73878
721,-181,44.692,8.3335,0,0,0,0,0,0,0,-1,1945,1205,44.692,-8.33354
728,-181,44.9885,7.70251,-0.000458107,0.000391329,0.000574896,0.000681377,-0.000748156,1.10354,0.000825641,0.0377234,1952,1205,44.9886,-7.70257
735,-181,45.0245,7.27417,-0.000472488,0.000303149,0.00101495,0.00100185,-0.00117119,0.967891,0.00125588,0.0133983,1959,1205,45.0245,-7.27419
742,-181,44.9871,6.84851,-0.000393561,0.000544731,0.00127151,0.00143088,-0.00127971,0.962134,0.00156577,0.0179463,1966,1205,44.9871,-6.84847
749,-181,44.9534,6.33594,-0.000218748,0.00120451,0.000836548,0.00159117,-0.000605403,1.13784,0.00131007,0.0164859,1973,1205,44.9534,-6.33599
756,-181,44.9347,5.84534,0.000100381,0.00211478,5.81133e-05,0.00211645,9.87056e-05,1.54198,0.00137924,0.0124492,1980,1205,44.9347,-5.84537
763,-181,44.9457,5.38416,0.000111635,0.00282053,-0.00125336,0.00331146,-0.000379298,-1.19747,0.00234433,0.0153812,1987,1205,44.9457,-5.38413
770,-181,45.099,4.82471,3.74616e-05,0.00360033,-0.00318667,0.0054697,-0.00183191,-1.04027,0.00438652,0.041639,1994,1205,45.099,-4.82471
777,-181,45.3307,4.14502,0,0,0,0,0,0,0,-1,2001,1205,45.3307,-4.14498
784,-181,49.4673,-0.801392,0,0,0,0,0,0,0,-1,2008,1205,49.4674,0.801388
791,-181,46.3167,0.564819,0,0,0,0,0,0,0,-1,2015,1205,46.3166,-0.564849
798,-181,46.2261,3.02039,0,0,0,0,0,0,0,-1,2022,1205,46.226,-3.02034
805,-181,0,0,0,0,0,0,0,0,0,-1,2029,1205,0,0
812,-181,0,0,0,0,0,0,0,0,0,-1,2036,1205,0,0
-700,-188,0,0,0,0,0,0,0,0,0,-1,524,1212,0,0
-693,-188,0,0,0,0,0,0,0,0,0,-1,531,1212,0,0
-686,-188,0,0,0,0,0,0,0,0,0,-1,538,1212,0,0
-679,-188,-34.756,-4.07251,-0.00289674,0.128812,0.0291751,0.134985,-0.00907002,1.36228,0.0931609,0.0481218,545,1212,-34.756,4.07248
-672,-188,-34.4095,-3.12354,-0.00290494,0.108961,0.0288508,0.115964,-0.00990735,1.33269,0.0808143,0.0497148,552,1212,-34.4095,3.12353
-665,-188,-33.8927,-2.25085,-0.00260521,0.0901663,0.0268217,0.0973626,-0.00980155,1.30867,0.0684101,0.0486483,559,1212,-33.8927,2.25086
-658,-188,-32.8895,-1.87866,-0.00205093,0.0729619,0.0239544,0.0799587,-0.0090478,1.28661,0.0565635,0.0468305,566,1212,-32.8895,1.87863
-651,-188,-30.0472,0.152588,0,0,0,0,0,0,0,-1,573,1212,-30.0472,-0.152541
-644,-188,-30.6098,1.21411,-0.000820556,0.043846,0.0168541,0.0494919,-0.0064665,1.24756,0.0353478,0.0424754,580,1212,-30.6098,-1.2141
-637,-188,-30.4337,2.24915,-0.000216202,0.0319334,0.0128721,0.0364521,-0.00473486,1.23319,0.0260237,0.0242656,587,1212,-30.4337,-2.24916
-630,-188,-30.4425,2.78455,0.000353088,0.0217858,0.0089495,0.0250313,-0.00289243,1.2229,0.0177305,0.011514,594,1212,-30.4425,-2.78455
-623,-188,-30.4503,3.29468,0.000720267,0.0130414,0.00503062,0.0148344,-0.00107276,1.22841,0.0102659,0.0113006,601,1212,-30.4503,-3.29463
-616,-188,-30.4424,3.80774,0.00127656,0.0059259,0.00193221,0.00662407,0.00057839,1.22406,0.00423643,0.0115467,608,1212,-30.4424,-3.80778
-609,-188,-30.4415,4.36523,0.00144231,0.0016022,-0.000431388,0.00196099,0.00108352,-0.877017,0.00113426,0.0142433,615,1212,-30.4415,-4.36522
-602,-188,-30.4606,4.92517,0.00105468,0.000804117,-0.00179361,0.00272737,-0.000868579,-0.750531,0.00216661,0.0177191,622,1212,-30.4606,-4.9252
-595,-188,-30.5638,5.34802,0.000111172,0.000887634,-0.0019872,0.00252417,-0.00152536,-0.881866,0.00236159,0.0268478,629,1212,-30.5638,-5.34802
-588,-188,-30.7759,5.85925,-0.00117081,0.00057529,-0.00218988,0.00205974,-0.00265526,-0.97508,0.00272943,0.0264697,636,1212,-30.7759,-5.85921
-581,-188,-30.766,6.35767,-0.00145424,0.000395288,-0.00256751,0.0021995,-0.00325844,-0.958255,0.00317085,0.027224,643,1212,-30.766,-6.35763
-574,-188,-31.0757,6.77515,0,0,0,0,0,0,0,-1,650,1212,-31.0757,-6.77514
-567,-188,-19.5786,4.10388,0,0,0,0,0,0,0,-1,657,1212,-19.5785,-4.10383
-560,-188,-23.9507,0.416626,0,0,0,0,0,0,0,-1,664,1212,-23.9508,-0.416602
-553,-188,-40.228,0.888672,0,0,0,0,0,0,0,-1,671,1212,-40.228,-0.888651
-546,-188,-40.2198,0.914917,-0.000565842,-0.00111585,-0.00352867,0.00269852,-0.00438022,-0.746509,0.00412518,0.046695,678,1212,-40.2198,-0.914931
-539,-188,-40.2907,0.895508,-0.000313515,-0.00167886,-0.00361257,0.00268032,-0.0046727,-0.692014,0.0042969,0.0379982,685,1212,-40.2907,-0.895532
-532,-188,-40.3936,0.806274,0.000291743,-0.00244951,-0.00347095,0.00265289,-0.00481066,-0.597354,0.0043687,0.0402294,692,1212,-40.3936,-0.806332
-525,-188,-40.2523,0.592407,0.00315317,-0.00374826,-0.00314313,0.00437008,-0.00496517,-0.369393,0.00539336,0.0414475,699,1212,-40.2523,-0.592414
-518,-188,-40.0664,0.536865,0.00866869,-0.00506817,-0.00240485,0.00907752,-0.005477,-0.168396,0.00848833,0.0424,706,1212,-40.0664,-0.536888
-511,-188,-40.0928,0.759399,0.0168197,-0.00601801,-0.000983692,0.016862,-0.0060603,-0.042967,0.0137152,0.0406076,713,1212,-40.0927,-0.759456
-504,-188,0,0,0,0,0,0,0,0,0,-1,720,1212,0,0
-497,-188,0,0,0,0,0,0,0,0,0,-1,727,1212,0,0
-490,-188,0,0,0,0,0,0,0,0,0,-1,734,1212,0,0
-483,-188,0,0,0,0,0,0,0,0,0,-1,741,1212,0,0
-476,-188,0,0,0,0,0,0,0,0,0,-1,748,1212,0,0
-469,-188,0,0,0,0,0,0,0,0,0,-1,755,1212,0,0
-462,-188,0,0,0,0,0,0,0,0,0,-1,762,1212,0,0
-455,-188,0,0,0,0,0,0,0,0,0,-1,769,1212,0,0
-448,-188,0,0,0,0,0,0,0,0,0,-1,776,1212,0,0
-441,-188,0,0,0,0,0,0,0,0,0,-1,783,1212,0,0
-434,-188,0,0,0,0,0,0,0,0,0,-1,790,1212,0,0
-427,-188,0,0,0,0,0,0,0,0,0,-1,797,1212,0,0
-420,-188,0,0,0,0,0,0,0,0,0,-1,804,1212,0,0
-413,-188,0,0,0,0,0,0,0,0,0,-1,811,1212,0,0
-406,-188,0,0,0,0,0,0,0,0,0,-1,818,1212,0,0
-399,-188,0,0,0,0,0,0,0,0,0,-1,825,1212,0,0
-392,-188,0,0,0,0,0,0,0,0,0,-1,832,1212,0,0
-385,-188,0,0,0,0,0,0,0,0,0,-1,839,1212,0,0
-378,-188,0,0,0,0,0,0,0,0,0,-1,846,1212,0,0
-371,-188,0,0,0,0,0,0,0,0,0,-1,853,1212,0,0
-364,-188,0,0,0,0,0,0,0,0,0,-1,860,1212,0,0
-357,-188,0,0,0,0,0,0,0,0,0,-1,867,1212,0,0
-350,-188,0,0,0,0,0,0,0,0,0,-1,874,1212,0,0
-343,-188,0,0,0,0,0,0,0,0,0,-1,881,1212,0,0
-336,-188,0,0,0,0,0,0,0,0,0,-1,888,1212,0,0
-329,-188,0,0,0,0,0,0,0,0,0,-1,895,1212,0,0
-322,-188,0,0,0,0,0,0,0,0,0,-1,902,1212,0,0
-315,-188,0,0,0,0,0,0,0,0,0,-1,909,1212,0,0
-308,-188,0,0,0,0,0,0,0,0,0,-1,916,1212,0,0
-301,-188,0,0,0,0,0,0,0,0,0,-1,923,1212,0,0
-294,-188,0,0,0,0,0,0,0,0,0,-1,930,1212,0,0
-287,-188,0,0,0,0,0,0,0,0,0,-1,937,1212,0,0
-280,-188,0,0,0,0,0,0,0,0,0,-1,944,1212,0,0
-273,-188,0,0,0,0,0,0,0,0,0,-1,951,1212,0,0
-266,-188,0,0,0,0,0,0,0,0,0,-1,958,1212,0,0
-259,-188,0,0,0,0,0,0,0,0,0,-1,965,1212,0,0
-252,-188,0,0,0,0,0,0,0,0,0,-1,972,1212,0,0
-245,-188,0,0,0,0,0,0,0,0,0,-1,979,1212,0,0
-238,-188,0,0,0,0,0,0,0,0,0,-1,986,1212,0,0
-231,-188,0,0,0,0,0,0,0,0,0,-1,993,1212,0,0
-224,-188,0,0,0,0,0,0,0,0,0,-1,1000,1212,0,0
-217,-188,0,0,0,0,0,0,0,0,0,-1,1007,1212,0,0
-210,-188,0,0,0,0,0,0,0,0,0,-1,1014,1212,0,0
-203,-188,0,0,0,0,0,0,0,0,0,-1,1021,1212,0,0
-196,-188,0,0,0,0,0,0,0,0,0,-1,1028,1212,0,0
-189,-188,0,0,0,0,0,0,0,0,0,-1,1035,1212,0,0
-182,-188,0,0,0,0,0,0,0,0,0,-1,1042,1212,0,0
-175,-188,0,0,0,0,0,0,0,0,0,-1,1049,1212,0,0
-168,-188,0,0,0,0,0,0,0,0,0,-1,1056,1212,0,0
-161,-188,0,0,0,0,0,0,0,0,0,-1,1063,1212,0,0
-154,-188,0,0,0,0,0,0,0,0,0,-1,1070,1212,0,0
-147,-188,0,0,0,0,0,0,0,0,0,-1,1077,1212,0,0
-140,-188,0,0,0,0,0,0,0,0,0,-1,1084,1212,0,0
-133,-188,0,0,0,0,0,0,0,0,0,-1,1091,1212,0,0
-126,-188,0,0,0,0,0,0,0,0,0,-1,1098,1212,0,0
-119,-188,0,0,0,0,0,0,0,0,0,-1,1105,1212,0,0
-112,-188,0,0,0,0,0,0,0,0,0,-1,1112,1212,0,0
-105,-188,0,0,0,0,0,0,0,0,0,-1,1119,1212,0,0
-98,-188,0,0,0,0,0,0,0,0,0,-1,1126,1212,0,0
-91,-188,0,0,0,0,0,0,0,0,0,-1,1133,1212,0,0
-84,-188,0,0,0,0,0,0,0,0,0,-1,1140,1212,0,0
-77,-188,0,0,0,0,0,0,0,0,0,-1,1147,1212,0,0
-70,-188,0,0,0,0,0,0,0,0,0,-1,1154,1212,0,0
-63,-188,0,0,0,0,0,0,0,0,0,-1,1161,1212,0,0
-56,-188,0,0,0,0,0,0,0,0,0,-1,1168,1212,0,0
-49,-188,0,0,0,0,0,0,0,0,0,-1,1175,1212,0,0
-42,-188,0,0,0,0,0,0,0,0,0,-1,1182,1212,0,0
-35,-188,0,0,0,0,0,0,0,0,0,-1,1189,1212,0,0
-28,-188,0,0,0,0,0,0,0,0,0,-1,1196,1212,0,0
-21,-188,0,0,0,0,0,0,0,0,0,-1,1203,1212,0,0
-14,-188,0,0,0,0,0,0,0,0,0,-1,1210,1212,0,0
-7,-188,0,0,0,0,0,0,0,0,0,-1,1217,1212,0,0
0,-188,0,0,0,0,0,0,0,0,0,-1,1224,1212,0,0
7,-188,0,0,0,0,0,0,0,0,0,-1,1231,1212,0,0
14,-188,0,0,0,0,0,0,0,0,0,-1,1238,1212,0,0
21,-188,0,0,0,0,0,0,0,0,0,-1,1245,1212,0,0
28,-188,0,0,0,0,0,0,0,0,0,-1,1252,1212,0,0
35,-188,0,0,0,0,0,0,0,0,0,-1,1259,1212,0,0
42,-188,0,0,0,0,0,0,0,0,0,-1,1266,1212,0,0
49,-188,0,0,0,0,0,0,0,0,0,-1,1273,1212,0,0
56,-188,0,0,0,0,0,0,0,0,0,-1,1280,1212,0,0
63,-188,0,0,0,0,0,0,0,0,0,-1,1287,1212,0,0
70,-188,0,0,0,0,0,0,0,0,0,-1,1294,1212,0,0
77,-188,0,0,0,0,0,0,0,0,0,-1,1301,1212,0,0
84,-188,0,0,0,0,0,0,0,0,0,-1,1308,1212,0,0
91,-188,0,0,0,0,0,0,0,0,0,-1,1315,1212,0,0
98,-188,0,0,0,0,0,0,0,0,0,-1,1322,1212,0,0
105,-188,0,0,0,0,0,0,0,0,0,-1,1329,1212,0,0
112,-188,0,0,0,0,0,0,0,0,0,-1,1336,1212,0,0
119,-188,0,0,0,0,0,0,0,0,0,-1,1343,1212,0,0
126,-188,0,0,0,0,0,0,0,0,0,-1,1350,1212,0,0
133,-188,0,0,0,0,0,0,0,0,0,-1,1357,1212,0,0
140,-188,0,0,0,0,0,0,0,0,0,-1,1364,1212,0,0
147,-188,0,0,0,0,0,0,0,0,0,-1,1371,1212,0,0
154,-188,0,0,0,0,0,0,0,0,0,-1,1378,1212,0,0
161,-188,0,0,0,0,0,0,0,0,0,-1,1385,1212,0,0
168,-188,0,0,0,0,0,0,0,0,0,-1,1392,1212,0,0
175,-188,0,0,0,0,0,0,0,0,0,-1,1399,1212,0,0
182,-188,0,0,0,0,0,0,0,0,0,-1,1406,1212,0,0
189,-188,0,0,0,0,0,0,0,0,0,-1,1413,1212,0,0
196,-188,0,0,0,0,0,0,0,0,0,-1,1420,1212,0,0
203,-188,0,0,0,0,0,0,0,0,0,-1,1427,1212,0,0
210,-188,0,0,0,0,0,0,0,0,0,-1,1434,1212,0,0
217,-188,0,0,0,0,0,0,0,0,0,-1,1441,1212,0,0
224,-188,0,0,0,0,0,0,0,0,0,-1,1448,1212,0,0
231,-188,0,0,0,0,0,0,0,0,0,-1,1455,1212,0,0
238,-188,0,0,0,0,0,0,0,0,0,-1,1462,1212,0,0
245,-188,0,0,0,0,0,0,0,0,0,-1,1469,1212,0,0
252,-188,0,0,0,0,0,0,0,0,0,-1,1476,1212,0,0
259,-188,0,0,0,0,0,0,0,0,0,-1,1483,1212,0,0
266,-188,0,0,0,0,0,0,0,0,0,-1,1490,1212,0,0
273,-188,0,0,0,0,0,0,0,0,0,-1,1497,1212,0,0
280,-188,0,0,0,0,0,0,0,0,0,-1,1504,1212,0,0
287,-188,0,0,0,0,0,0,0,0,0,-1,1511,1212,0,0
294,-188,0,0,0,0,0,0,0,0,0,-1,1518,1212,0,0
301,-188,0,0,0,0,0,0,0,0,0,-1,1525,1212,0,0
308,-188,0,0,0,0,0,0,0,0,0,-1,1532,1212,0,0
315,-188,0,0,0,0,0,0,0,0,0,-1,1539,1212,0,0
322,-188,0,0,0,0,0,0,0,0,0,-1,1546,1212,0,0
329,-188,0,0,0,0,0,0,0,0,0,-1,1553,1212,0,0
336,-188,0,0,0,0,0,0,0,0,0,-1,1560,1212,0,0
343,-188,0,0,0,0,0,0,0,0,0,-1,1567,1212,0,0
350,-188,0,0,0,0,0,0,0,0,0,-1,1574,1212,0,0
357,-188,0,0,0,0,0,0,0,0,0,-1,1581,1212,0,0
364,-188,0,0,0,0,0,0,0,0,0,-1,1588,1212,0,0
371,-188,0,0,0,0,0,0,0,0,0,-1,1595,1212,0,0
378,-188,0,0,0,0,0,0,0,0,0,-1,1602,1212,0,0
385,-188,0,0,0,0,0,0,0,0,0,-1,1609,1212,0,0
392,-188,0,0,0,0,0,0,0,0,0,-1,1616,1212,0,0
399,-188,0,0,0,0,0,0,0,0,0,-1,1623,1212,0,0
406,-188,0,0,0,0,0,0,0,0,0,-1,1630,1212,0,0
413,-188,0,0,0,0,0,0,0,0,0,-1,1637,1212,0,0
420,-188,0,0,0,0,0,0,0,0,0,-1,1644,1212,0,0
427,-188,0,0,0,0,0,0,0,0,0,-1,1651,1212,0,0
434,-188,0,0,0,0,0,0,0,0,0,-1,1658,1212,0,0
441,-188,0,0,0,0,0,0,0,0,0,-1,1665,1212,0,0
448,-188,0,0,0,0,0,0,0,0,0,-1,1672,1212,0,0
455,-188,0,0,0,0,0,0,0,0,0,-1,1679,1212,0,0
462,-188,0,0,0,0,0,0,0,0,0,-1,1686,1212,0,0
469,-188,0,0,0,0,0,0,0,0,0,-1,1693,1212,0,0
476,-188,0,0,0,0,0,0,0,0,0,-1,1700,1212,0,0
483,-188,0,0,0,0,0,0,0,0,0,-1,1707,1212,0,0
490,-188,0,0,0,0,0,0,0,0,0,-1,1714,1212,0,0
497,-188,0,0,0,0,0,0,0,0,0,-1,1721,1212,0,0
504,-188,0,0,0,0,0,0,0,0,0,-1,1728,1212,0,0
511,-188,0,0,0,0,0,0,0,0,0,-1,1735,1212,0,0
518,-188,0,0,0,0,0,0,0,0,0,-1,1742,1212,0,0
525,-188,0,0,0,0,0,0,0,0,0,-1,1749,1212,0,0
532,-188,0,0,0,0,0,0,0,0,0,-1,1756,1212,0,0
539,-188,0,0,0,0,0,0,0,0,0,-1,1763,1212,0,0
546,-188,0,0,0,0,0,0,0,0,0,-1,1770,1212,0,0
553,-188,0,0,0,0,0,0,0,0,0,-1,1777,1212,0,0
560,-188,0,0,0,0,0,0,0,0,0,-1,1784,1212,0,0
567,-188,0,0,0,0,0,0,0,0,0,-1,1791,1212,0,0
574,-188,0,0,0,0,0,0,0,0,0,-1,1798,1212,0,0
581,-188,0,0,0,0,0,0,0,0,0,-1,1805,1212,0,0
588,-188,0,0,0,0,0,0,0,0,0,-1,1812,1212,0,0
595,-188,0,0,0,0,0,0,0,0,0,-1,1819,1212,0,0
602,-188,0,0,0,0,0,0,0,0,0,-1,1826,1212,0,0
609,-188,0,0,0,0,0,0,0,0,0,-1,1833,1212,0,0
616,-188,0,0,0,0,0,0,0,0,0,-1,1840,1212,0,0
623,-188,0,0,0,0,0,0,0,0,0,-1,1847,1212,0,0
630,-188,54.0135,2.7655,0.00375882,9.90291e-05,-0.00163369,0.00438198,-0.000524126,-0.364405,0.00311078,0.0413363,1854,1212,54.0136,-2.76553
637,-188,53.9906,2.79468,0.00326521,-0.000273434,-0.00142069,0.003765,-0.00077322,-0.33827,0.00280351,0.03981,1861,1212,53.9906,-2.79472
644,-188,53.9143,2.87866,0.00268866,-0.000430378,-0.00122676,0.00311334,-0.000855055,-0.333266,0.00241165,0.0348537,1868,1212,53.9144,-2.87872
651,-188,53.8904,2.77209,0.00208329,-0.000442578,-0.00110726,0.00249995,-0.000859237,-0.359907,0.00201507,0.0321293,1875,1212,53.8903,-2.77213
658,-188,53.9667,2.64978,0.00147129,-0.000439289,-0.00112373,0.00199091,-0.000958906,-0.43312,0.00173747,0.0325647,1882,1212,53.9667,-2.64977
665,-188,53.8566,2.67737,0.00104668,-0.000612713,-0.00107171,0.00157233,-0.00113836,-0.456,0.00157169,0.0307457,1889,1212,53.8566,-2.67734
672,-188,53.8706,2.64868,0.00059738,-0.000462083,-0.000859143,0.00107698,-0.000941679,-0.509137,0.00116634,0.0249651,1896,1212,53.8706,-2.64868
679,-188,53.8453,2.57385,0.00034805,-0.000447758,-0.000692752,0.000749041,-0.000848749,-0.524713,0.000923083,0.0439667,1903,1212,53.8454,-2.5739
686,-188,53.8191,2.51111,0,0,0,0,0,0,0,-1,1910,1212,53.8191,-2.51109
693,-188,35.9054,2.18042,0,0,0,0,0,0,0,-1,1917,1212,35.9054,-2.18038
700,-188,39.0826,8.68848,0,0,0,0,0,0,0,-1,1924,1212,39.0826,-8.68852
707,-188,44.3573,9.33679,0,0,0,0,0,0,0,-1,1931,1212,44.3573,-9.33677
714,-188,44.9259,8.95947,0,0,0,0,0,0,0,-1,1938,1212,44.9259,-8.95947
721,-188,44.6826,8.30701,-0.000442028,0.000227085,0.000249514,0.000309883,-0.000524827,1.25039,0.000487217,0.0491477,1945,1212,44.6826,-8.307
728,-188,44.4994,7.76428,-0.000315207,0.000227311,0.000587212,0.00060289,-0.000690786,1.00177,0.000747479,0.0181763,1952,1212,44.4994,-7.76426
735,-188,44.5165,7.28491,-0.000230492,0.000207147,0.000999626,0.00101162,-0.00103497,0.893149,0.00118163,0.0144638,1959,1212,44.5165,-7.28489
742,-188,44.4916,6.81763,4.70017e-05,0.000525803,0.00121034,0.00152019,-0.000947384,0.883036,0.00143739,0.0157944,1966,1212,44.4916,-6.8176
749,-188,44.484,6.33398,0.000564006,0.0012249,0.000772238,0.00173442,5.44843e-05,0.987564,0.00113855,0.0148981,1973,1212,44.484,-6.33394
756,-188,44.4509,5.83704,0.00135495,0.00218407,4.70163e-05,0.00218673,0.00135229,1.51433,0.00127425,0.0131931,1980,1212,44.4509,-5.83699
763,-188,44.4583,5.36084,0.00211958,0.00325373,-0.00125119,0.00406036,0.00131296,-0.998167,0.00239251,0.0171211,1987,1212,44.4582,-5.36088
770,-188,44.4691,4.81799,0.00297512,0.00439471,-0.00323776,0.00699957,0.000370265,-0.893303,0.00454798,0.0359141,1994,1212,44.4691,-4.81796
777,-188,44.5475,4.25049,0,0,0,0,0,0,0,-1,2001,1212,44.5475,-4.25051
784,-188,50.2876,-0.510742,0,0,0,0,0,0,0,-1,2008,1212,50.2875,0.510762
791,-188,49.8389,1.40027,0,0,0,0,0,0,0,-1,2015,1212,49.8389,-1.40024
798,-188,49.3804,3.30933,0,0,0,0,0,0,0,-1,2022,1212,49.3803,-3.30931
805,-188,0,0,0,0,0,0,0,0,0,-1,2029,1212,0,0
812,-188,0,0,0,0,0,0,0,0,0,-1,2036,1212,0,0
-700,-195,0,0,0,0,0,0,0,0,0,-1,524,1219,0,0
-693,-195,0,0,0,0,0,0,0,0,0,-1,531,1219,0,0
-686,-195,0,0,0,0,0,0,0,0,0,-1,538,1219,0,0
-679,-195,-34.5308,-5.06177,-0.00412159,0.126653,0.0502852,0.143752,-0.0212213,1.24301,0.103635,0.0487639,545,1219,-34.5308,5.06171
-672,-195,-34.4708,-3.87036,-0.00481291,0.107743,0.0473671,0.125023,-0.0220935,1.22098,0.0916058,0.0493987,552,1219,-34.4708,3.87042
-665,-195,-33.8426,-2.87427,0,0,0,0,0,0,0,-1,559,1219,-33.8426,2.87422
-658,-195,-28.8716,-0.673096,0,0,0,0,0,0,0,-1,566,1219,-28.8716,0.673119
-651,-195,-29.0864,0.143066,0,0,0,0,0,0,0,-1,573,1219,-29.0864,-0.143028
-644,-195,-29.3979,1.21277,-0.00251071,0.0443645,0.0261308,0.0560287,-0.0141749,1.15096,0.0428659,0.0410405,580,1219,-29.3979,-1.2128
-637,-195,-29.7701,2.27197,-0.00160229,0.0326961,0.0202289,0.0420668,-0.010973,1.13699,0.032329,0.0235577,587,1219,-29.7701,-2.27203
-630,-195,-29.8929,2.7821,-0.000704823,0.0227288,0.0145324,0.0296794,-0.00765546,1.12467,0.0227712,0.00908765,594,1219,-29.893,-2.78214
-623,-195,-29.9235,3.29736,-1.3557e-05,0.0140968,0.00901508,0.0184892,-0.00440596,1.11742,0.0140274,0.00886952,601,1219,-29.9234,-3.29735
-616,-195,-29.9243,3.82312,0.00083498,0.00703614,0.00439323,0.00931274,-0.00144162,1.09269,0.00674062,0.0110718,608,1219,-29.9243,-3.82312
-609,-195,-29.9229,4.37634,0.00146845,0.00230169,0.00067152,0.00267533,0.00109481,1.06305,0.00155306,0.0194156,615,1219,-29.9229,-4.37635
-602,-195,-29.9792,4.88855,0.00140513,0.000878198,-0.00155534,0.00271916,-0.000435837,-0.701498,0.00197416,0.0213564,622,1219,-29.9792,-4.88853
-595,-195,-30.0243,5.4137,0.000730115,0.000812252,-0.0020397,0.00281129,-0.00126893,-0.795464,0.00241117,0.0230894,629,1219,-30.0243,-5.41365
-588,-195,-30.045,6.02148,-0.000532196,0.000625619,-0.00208591,0.00221146,-0.00211804,-0.920758,0.00249983,0.0262839,636,1219,-30.0451,-6.02147
-581,-195,-29.8013,6.6261,0,0,0,0,0,0,0,-1,643,1219,-29.8012,-6.62614
-574,-195,-29.8815,6.30896,0,0,0,0,0,0,0,-1,650,1219,-29.8815,-6.30895
-567,-195,-20.6388,3.78369,0,0,0,0,0,0,0,-1,657,1219,-20.6388,-3.78369
-560,-195,-20.878,2.10388,0,0,0,0,0,0,0,-1,664,1219,-20.878,-2.10385
-553,-195,-39.6884,1.13794,0,0,0,0,0,0,0,-1,671,1219,-39.6884,-1.13798
-546,-195,-40.2742,1.04944,0,0,0,0,0,0,0,-1,678,1219,-40.2742,-1.04939
-539,-195,-40.2299,0.956177,-0.000442397,-0.00204497,-0.00321741,0.002072,-0.00455937,-0.663357,0.00391737,0.0415334,685,1219,-40.2299,-0.95621
-532,-195,-40.3232,0.822998,-0.000499733,-0.00272164,-0.00310052,0.00168286,-0.00490423,-0.613368,0.00395174,0.0333183,692,1219,-40.3232,-0.823038
-525,-195,-40.2842,0.895142,0.000778929,-0.00381748,-0.00286876,0.00215653,-0.00519508,-0.447689,0.00436363,0.0383708,699,1219,-40.2842,-0.895168
-518,-195,-40.2504,0.937988,0.0045715,-0.00497029,-0.00230034,0.00509711,-0.0054959,-0.224637,0.00611733,0.0415141,706,1219,-40.2505,-0.937996
-511,-195,-40.1018,0.75769,0.0122348,-0.00589191,-0.00109715,0.0123009,-0.00595808,-0.0602336,0.0107518,0.0433246,713,1219,-40.1018,-0.757653
-504,-195,0,0,0,0,0,0,0,0,0,-1,720,1219,0,0
-497,-195,0,0,0,0,0,0,0,0,0,-1,727,1219,0,0
-490,-195,0,0,0,0,0,0,0,0,0,-1,734,1219,0,0
-483,-195,0,0,0,0,0,0,0,0,0,-1,741,1219,0,0
-476,-195,0,0,0,0,0,0,0,0,0,-1,748,1219,0,0
-469,-195,0,0,0,0,0,0,0,0,0,-1,755,1219,0,0
-462,-195,0,0,0,0,0,0,0,0,0,-1,762,1219,0,0
-455,-195,0,0,0,0,0,0,0,0,0,-1,769,1219,0,0
-448,-195,0,0,0,0,0,0,0,0,0,-1,776,1219,0,0
-441,-195,0,0,0,0,0,0,0,0,0,-1,783,1219,0,0
-434,-195,0,0,0,0,0,0,0,0,0,-1,790,1219,0,0
-427,-195,0,0,0,0,0,0,0,0,0,-1,797,1219,0,0
-420,-195,0,0,0,0,0,0,0,0,0,-1,804,1219,0,0
-413,-195,0,0,0,0,0,0,0,0,0,-1,811,1219,0,0
-406,-195,0,0,0,0,0,0,0,0,0,-1,818,1219,0,0
-399,-195,0,0,0,0,0,0,0,0,0,-1,825,1219,0,0
-392,-195,0,0,0,0,0,0,0,0,0,-1,832,1219,0,0
-385,-195,0,0,0,0,0,0,0,0,0,-1,839,1219,0,0
-378,-195,0,0,0,0,0,0,0,0,0,-1,846,1219,0,0
-371,-195,0,0,0,0,0,0,0,0,0,-1,853,1219,0,0
-364,-195,0,0,0,0,0,0,0,0,0,-1,860,1219,0,0
-357,-195,0,0,0,0,0,0,0,0,0,-1,867,1219,0,0
-350,-195,0,0,0,0,0,0,0,0,0,-1,874,1219,0,0
-343,-195,0,0,0,0,0,0,0,0,0,-1,881,1219,0,0
-336,-195,0,0,0,0,0,0,0,0,0,-1,888,1219,0,0
-329,-195,0,0,0,0,0,0,0,0,0,-1,895,1219,0,0
-322,-195,0,0,0,0,0,0,0,0,0,-1,902,1219,0,0
-315,-195,0,0,0,0,0,0,0,0,0,-1,909,1219,0,0
-308,-195,0,0,0,0,0,0,0,0,0,-1,916,1219,0,0
-301,-195,0,0,0,0,0,0,0,0,0,-1,923,1219,0,0
-294,-195,0,0,0,0,0,0,0,0,0,-1,930,1219,0,0
-287,-195,0,0,0,0,0,0,0,0,0,-1,937,1219,0,0
-280,-195,0,0,0,0,0,0,0,0,0,-1,944,1219,0,0
-273,-195,0,0,0,0,0,0,0,0,0,-1,951,1219,0,0
-266,-195,0,0,0,0,0,0,0,0,0,-1,958,1219,0,0
-259,-195,0,0,0,0,0,0,0,0,0,-1,965,1219,0,0
-252,-195,0,0,0,0,0,0,0,0,0,-1,972,1219,0,0
-245,-195,0,0,0,0,0,0,0,0,0,-1,979,1219,0,0
-238,-195,0,0,0,0,0,0,0,0,0,-1,986,1219,0,0
-231,-195,0,0,0,0,0,0,0,0,0,-1,993,1219,0,0
-224,-195,0,0,0,0,0,0,0,0,0,-1,1000,1219,0,0
-217,-195,0,0,0,0,0,0,0,0,0,-1,1007,1219,0,0
-210,-195,0,0,0,0,0,0,0,0,0,-1,1014,1219,0,0
-203,-195,0,0,0,0,0,0,0,0,0,-1,1021,1219,0,0
-196,-195,0,0,0,0,0,0,0,0,0,-1,1028,1219,0,0
-189,-195,0,0,0,0,0,0,0,0,0,-1,1035,1219,0,0
-182,-195,0,0,0,0,0,0,0,0,0,-1,1042,1219,0,0
-175,-195,0,0,0,0,0,0,0,0,0,-1,1049,1219,0,0
-168,-195,0,0,0,0,0,0,0,0,0,-1,1056,1219,0,0
-161,-195,0,0,0,0,0,0,0,0,0,-1,1063,1219,0,0
-154,-195,0,0,0,0,0,0,0,0,0,-1,1070,1219,0,0
-147,-195,0,0,0,0,0,0,0,0,0,-1,1077,1219,0,0
-140,-195,0,0,0,0,0,0,0,0,0,-1,1084,1219,0,0
-133,-195,0,0,0,0,0,0,0,0,0,-1,1091,1219,0,0
-126,-195,0,0,0,0,0,0,0,0,0,-1,1098,1219,0,0
-119,-195,0,0,0,0,0,0,0,0,0,-1,1105,1219,0,0
-112,-195,0,0,0,0,0,0,0,0,0,-1,1112,1219,0,0
-105,-195,0,0,0,0,0,0,0,0,0,-1,1119,1219,0,0
-98,-195,0,0,0,0,0,0,0,0,0,-1,1126,1219,0,0
-91,-195,0,0,0,0,0,0,0,0,0,-1,1133,1219,0,0
-84,-195,0,0,0,0,0,0,0,0,0,-1,1140,1219,0,0
-77,-195,0,0,0,0,0,0,0,0,0,-1,1147,1219,0,0
-70,-195,0,0,0,0,0,0,0,0,0,-1,1154,1219,0,0
-63,-195,0,0,0,0,0,0,0,0,0,-1,1161,1219,0,0
-56,-195,0,0,0,0,0,0,0,0,0,-1,1168,1219,0,0
-49,-195,0,0,0,0,0,0,0,0,0,-1,1175,1219,0,0
-42,-195,0,0,0,0,0,0,0,0,0,-1,1182,1219,0,0
-35,-195,0,0,0,0,0,0,0,0,0,-1,1189,1219,0,0
-28,-195,0,0,0,0,0,0,0,0,0,-1,1196,1219,0,0
-21,-195,0,0,0,0,0,0,0,0,0,-1,1203,1219,0,0
-14,-195,0,0,0,0,0,0,0,0,0,-1,1210,1219,0,0
-7,-195,0,0,0,0,0,0,0,0,0,-1,1217,1219,0,0
0,-195,0,0,0,0,0,0,0,0,0,-1,1224,1219,0,0
7,-195,0,0,0,0,0,0,0,0,0,-1,1231,1219,0,0
14,-195,0,0,0,0,0,0,0,0,0,-1,1238,1219,0,0
21,-195,0,0,0,0,0,0,0,0,0,-1,1245,1219,0,0
28,-195,0,0,0,0,0,0,0,0,0,-1,1252,1219,0,0
35,-195,0,0,0,0,0,0,0,0,0,-1,1259,1219,0,0
42,-195,0,0,0,0,0,0,0,0,0,-1,1266,1219,0,0
49,-195,0,0,0,0,0,0,0,0,0,-1,1273,1219,0,0
56,-195,0,0,0,0,0,0,0,0,0,-1,1280,1219,0,0
63,-195,0,0,0,0,0,0,0,0,0,-1,1287,1219,0,0
70,-195,0,0,0,0,0,0,0,0,0,-1,1294,1219,0,0
77,-195,0,0,0,0,0,0,0,0,0,-1,1301,1219,0,0
84,-195,0,0,0,0,0,0,0,0,0,-1,1308,1219,0,0
91,-195,0,0,0,0,0,0,0,0,0,-1,1315,1219,0,0
98,-195,0,0,0,0,0,0,0,0,0,-1,1322,1219,0,0
105,-195,0,0,0,0,0,0,0,0,0,-1,1329,1219,0,0
112,-195,0,0,0,0,0,0,0,0,0,-1,1336,1219,0,0
119,-195,0,0,0,0,0,0,0,0,0,-1,1343,1219,0,0
126,-195,0,0,0,0,0,0,0,0,0,-1,1350,1219,0,0
133,-195,0,0,0,0,0,0,0,0,0,-1,1357,1219,0,0
140,-195,0,0,0,0,0,0,0,0,0,-1,1364,1219,0,0
147,-195,0,0,0,0,0,0,0,0,0,-1,1371,1219,0,0
154,-195,0,0,0,0,0,0,0,0,0,-1,1378,1219,0,0
161,-195,0,0,0,0,0,0,0,0,0,-1,1385,1219,0,0
168,-195,0,0,0,0,0,0,0,0,0,-1,1392,1219,0,0
175,-195,0,0,0,0,0,0,0,0,0,-1,1399,1219,0,0
182,-195,0,0,0,0,0,0,0,0,0,-1,1406,1219,0,0
189,-195,0,0,0,0,0,0,0,0,0,-1,1413,1219,0,0
196,-195,0,0,0,0,0,0,0,0,0,-1,1420,1219,0,0
203,-195,0,0,0,0,0,0,0,0,0,-1,1427,1219,0,0
210,-195,0,0,0,0,0,0,0,0,0,-1,1434,1219,0,0
217,-195,0,0,0,0,0,0,0,0,0,-1,1441,1219,0,0
224,-195,0,0,0,0,0,0,0,0,0,-1,1448,1219,0,0
231,-195,0,0,0,0,0,0,0,0,0,-1,1455,1219,0,0
238,-195,0,0,0,0,0,0,0,0,0,-1,1462,1219,0,0
245,-195,0,0,0,0,0,0,0,0,0,-1,1469,1219,0,0
252,-195,0,0,0,0,0,0,0,0,0,-1,1476,1219,0,0
259,-195,0,0,0,0,0,0,0,0,0,-1,1483,1219,0,0
266,-195,0,0,0,0,0,0,0,0,0,-1,1490,1219,0,0
273,-195,0,0,0,0,0,0,0,0,0,-1,1497,1219,0,0
280,-195,0,0,0,0,0,0,0,0,0,-1,1504,1219,0,0
287,-195,0,0,0,0,0,0,0,0,0,-1,1511,1219,0,0
294,-195,0,0,0,0,0,0,0,0,0,-1,1518,1219,0,0
301,-195,0,0,0,0,0,0,0,0,0,-1,1525,1219,0,0
308,-195,0,0,0,0,0,0,0,0,0,-1,1532,1219,0,0
315,-195,0,0,0,0,0,0,0,0,0,-1,1539,1219,0,0
322,-195,0,0,0,0,0,0,0,0,0,-1,1546,1219,0,0
329,-195,0,0,0,0,0,0,0,0,0,-1,1553,1219,0,0
336,-195,0,0,0,0,0,0,0,0,0,-1,1560,1219,0,0
343,-195,0,0,0,0,0,0,0,0,0,-1,1567,1219,0,0
350,-195,0,0,0,0,0,0,0,0,0,-1,1574,1219,0,0
357,-195,0,0,0,0,0,0,0,0,0,-1,1581,1219,0,0
364,-195,0,0,0,0,0,0,0,0,0,-1,1588,1219,0,0
371,-195,0,0,0,0,0,0,0,0,0,-1,1595,1219,0,0
378,-195,0,0,0,0,0,0,0,0,0,-1,1602,1219,0,0
385,-195,0,0,0,0,0,0,0,0,0,-1,1609,1219,0,0
392,-195,0,0,0,0,0,0,0,0,0,-1,1616,1219,0,0
399,-195,0,0,0,0,0,0,0,0,0,-1,1623,1219,0,0
406,-195,0,0,0,0,0,0,0,0,0,-1,1630,1219,0,0
413,-195,0,0,0,0,0,0,0,0,0,-1,1637,1219,0,0
420,-195,0,0,0,0,0,0,0,0,0,-1,1644,1219,0,0
427,-195,0,0,0,0,0,0,0,0,0,-1,1651,1219,0,0
434,-195,0,0,0,0,0,0,0,0,0,-1,1658,1219,0,0
441,-195,0,0,0,0,0,0,0,0,0,-1,1665,1219,0,0
448,-195,0,0,0,0,0,0,0,0,0,-1,1672,1219,0,0
455,-195,0,0,0,0,0,0,0,0,0,-1,1679,1219,0,0
462,-195,0,0,0,0,0,0,0,0,0,-1,1686,1219,0,0
469,-195,0,0,0,0,0,0,0,0,0,-1,1693,1219,0,0
476,-195,0,0,0,0,0,0,0,0,0,-1,1700,1219,0,0
483,-195,0,0,0,0,0,0,0,0,0,-1,1707,1219,0,0
490,-195,0,0,0,0,0,0,0,0,0,-1,1714,1219,0,0
497,-195,0,0,0,0,0,0,0,0,0,-1,1721,1219,0,0
504,-195,0,0,0,0,0,0,0,0,0,-1,1728,1219,0,0
511,-195,0,0,0,0,0,0,0,0,0,-1,1735,1219,0,0
518,-195,0,0,0,0,0,0,0,0,0,-1,1742,1219,0,0
525,-195,0,0,0,0,0,0,0,0,0,-1,1749,1219,0,0
532,-195,0,0,0,0,0,0,0,0,0,-1,1756,1219,0,0
539,-195,0,0,0,0,0,0,0,0,0,-1,1763,1219,0,0
546,-195,0,0,0,0,0,0,0,0,0,-1,1770,1219,0,0
553,-195,0,0,0,0,0,0,0,0,0,-1,1777,1219,0,0
560,-195,0,0,0,0,0,0,0,0,0,-1,1784,1219,0,0
567,-195,0,0,0,0,0,0,0,0,0,-1,1791,1219,0,0
574,-195,0,0,0,0,0,0,0,0,0,-1,1798,1219,0,0
581,-195,0,0,0,0,0,0,0,0,0,-1,1805,1219,0,0
588,-195,0,0,0,0,0,0,0,0,0,-1,1812,1219,0,0
595,-195,0,0,0,0,0,0,0,0,0,-1,1819,1219,0,0
602,-195,0,0,0,0,0,0,0,0,0,-1,1826,1219,0,0
609,-195,0,0,0,0,0,0,0,0,0,-1,1833,1219,0,0
616,-195,0,0,0,0,0,0,0,0,0,-1,1840,1219,0,0
623,-195,0,0,0,0,0,0,0,0,0,-1,1847,1219,0,0
630,-195,54.0359,2.60303,0,0,0,0,0,0,0,-1,1854,1219,54.0359,-2.60299
637,-195,53.8721,2.54541,0,0,0,0,0,0,0,-1,1861,1219,53.8721,-2.54543
644,-195,53.8459,2.68054,0.00242492,4.38558e-06,-0.00116338,0.0028934,-0.000464098,-0.382824,0.00210079,0.0326064,1868,1219,53.8459,-2.68056
651,-195,53.8956,2.69189,0.00199075,-0.000406692,-0.000984678,0.00234332,-0.000759269,-0.34384,0.00186748,0.0254745,1875,1219,53.8956,-2.69194
658,-195,53.9487,2.67761,0.00153093,-0.000683151,-0.000980582,0.00190277,-0.00105499,-0.362448,0.00173089,0.0245579,1882,1219,53.9487,-2.67756
665,-195,53.9318,2.65344,0.00123149,-0.00100047,-0.000922942,0.00156369,-0.00133267,-0.345502,0.00167399,0.023795,1889,1219,53.9318,-2.65349
672,-195,53.9076,2.58972,0.000894857,-0.00087681,-0.000756701,0.00117405,-0.00115601,-0.353471,0.00134528,0.0360701,1896,1219,53.9076,-2.58975
679,-195,53.9032,2.50281,0,0,0,0,0,0,0,-1,1903,1219,53.9032,-2.50276
686,-195,51.2117,1.94312,0,0,0,0,0,0,0,-1,1910,1219,51.2117,-1.9431
693,-195,24.4368,5.68298,0,0,0,0,0,0,0,-1,1917,1219,24.4368,-5.68293
700,-195,44.0712,9.87781,0,0,0,0,0,0,0,-1,1924,1219,44.0712,-9.87781
707,-195,43.7786,9.16577,0,0,0,0,0,0,0,-1,1931,1219,43.7785,-9.16577
714,-195,44.1599,8.75781,0,0,0,0,0,0,0,-1,1938,1219,44.1599,-8.75784
721,-195,44.0291,8.27258,-0.000171416,-0.000119555,0.000224993,8.0996e-05,-0.000371968,0.842771,0.000278925,0.0275123,1945,1219,44.029,-8.2726
728,-195,44.0171,7.80017,6.98746e-06,-5.36719e-05,0.000525122,0.000502655,-0.000549339,0.756552,0.000607568,0.0114817,1952,1219,44.0171,-7.80012
735,-195,44.0454,7.26172,0.000165627,2.62048e-05,0.000956588,0.00105504,-0.000863209,0.749025,0.00110935,0.0130935,1959,1219,44.0454,-7.26177
742,-195,44.0247,6.78918,0.000525314,0.000435496,0.00126664,0.00174784,-0.00078703,0.767678,0.00149814,0.015282,1966,1219,44.0246,-6.78915
749,-195,43.9912,6.31982,0.00116694,0.00114701,0.00104247,0.00219949,0.000114462,0.780618,0.0014297,0.0152364,1973,1219,43.9912,-6.31985
756,-195,43.9584,5.85925,0.002167,0.00209765,0.00057174,0.00270512,0.00155954,0.755112,0.00156788,0.0144897,1980,1219,43.9583,-5.85928
763,-195,43.9697,5.38794,0.00334319,0.00320056,-0.000447221,0.00372475,0.002819,-0.706331,0.00224306,0.0198343,1987,1219,43.9698,-5.3879
770,-195,43.8878,4.8905,0.00483469,0.00440205,-0.00213425,0.00676355,0.00247318,-0.734892,0.00395164,0.0405768,1994,1219,43.8878,-4.89054
777,-195,43.8173,4.42004,0,0,0,0,0,0,0,-1,2001,1219,43.8172,-4.42005
784,-195,51.2444,-0.069458,0,0,0,0,0,0,0,-1,2008,1219,51.2443,0.0694704
791,-195,50.6421,1.65222,0,0,0,0,0,0,0,-1,2015,1219,50.6422,-1.65218
798,-195,50.3787,3.47571,0,0,0,0,0,0,0,-1,2022,1219,50.3786,-3.47566
805,-195,0,0,0,0,0,0,0,0,0,-1,2029,1219,0,0
812,-195,0,0,0,0,0,0,0,0,0,-1,2036,1219,0,0
-700,-202,0,0,0,0,0,0,0,0,0,-1,524,1226,0,0
-693,-202,0,0,0,0,0,0,0,0,0,-1,531,1226,0,0
-686,-202,0,0,0,0,0,0,0,0,0,-1,538,1226,0,0
-679,-202,-34.4202,-5.5282,-0.00888375,0.123969,0.0714894,0.15513,-0.0400442,1.15975,0.119035,0.0460909,545,1226,-34.4202,5.5282
-672,-202,-34.746,-4.33032,-0.00943652,0.105964,0.0662529,0.13612,-0.0395927,1.14365,0.106428,0.0477831,552,1226,-34.746,4.33035
-665,-202,-35.0661,-3.25195,-0.0088365,0.0884406,0.0592634,0.116469,-0.0368651,1.12902,0.0924188,0.0493565,559,1226,-35.0661,3.252
-658,-202,-35.4236,-2.22852,0,0,0,0,0,0,0,-1,566,1226,-35.4236,2.22852
-651,-202,-27.8085,0.478271,0,0,0,0,0,0,0,-1,573,1226,-27.8084,-0.478296
-644,-202,-28.462,1.44214,-0.00487006,0.0445217,0.0358299,0.0633421,-0.0236905,1.08714,0.0519576,0.0450085,580,1226,-28.462,-1.4422
-637,-202,-29.1251,2.26709,-0.00345364,0.0331568,0.0280879,0.0483778,-0.0186747,1.07419,0.0399588,0.040118,587,1226,-29.1251,-2.26704
-630,-202,-29.3372,2.77979,-0.00211061,0.0234309,0.0207139,0.0349945,-0.0136742,1.06164,0.0289837,0.0174537,594,1226,-29.3372,-2.77976
-623,-202,-29.3639,3.28955,-0.00106215,0.0149832,0.0137314,0.0228638,-0.00894275,1.04978,0.0189408,0.00875365,601,1226,-29.3639,-3.28955
-616,-202,-29.3789,3.82532,4.29103e-05,0.0080639,0.00768137,0.0127187,-0.0046119,1.02599,0.0103643,0.00901086,608,1226,-29.3789,-3.82532
-609,-202,-29.3881,4.35803,0.00108666,0.00297797,0.00263681,0.00483357,-0.000768936,0.957572,0.0035069,0.022883,615,1226,-29.3881,-4.35797
-602,-202,-29.4478,4.87256,0.00134172,0.00091921,-0.000682671,0.00184508,0.000415855,-0.635345,0.00111753,0.0226669,622,1226,-29.4478,-4.8726
-595,-202,-29.4977,5.41516,0.00106408,0.000427238,-0.00184069,0.00261369,-0.00112237,-0.69975,0.00221355,0.0170915,629,1226,-29.4977,-5.41512
-588,-202,-29.4406,5.9718,6.59477e-05,0.000326773,-0.00188934,0.00209019,-0.00169747,-0.819856,0.00219073,0.0179227,636,1226,-29.4406,-5.97176
-581,-202,-29.2847,6.52478,0,0,0,0,0,0,0,-1,643,1226,-29.2846,-6.52474
-574,-202,-26.922,5.99512,0,0,0,0,0,0,0,-1,650,1226,-26.922,-5.99512
-567,-202,-22.1768,4.56995,0,0,0,0,0,0,0,-1,657,1226,-22.1768,-4.56991
-560,-202,-10.929,2.73096,0,0,0,0,0,0,0,-1,664,1226,-10.929,-2.73092
-553,-202,-30.2701,1.474,0,0,0,0,0,0,0,-1,671,1226,-30.2701,-1.47395
-546,-202,-40.0259,0.583374,0,0,0,0,0,0,0,-1,678,1226,-40.0259,-0.583336
-539,-202,-40.082,0.787964,-0.000522307,-0.00250738,-0.00260244,0.00127045,-0.00430013,-0.60322,0.003371,0.0447336,685,1226,-40.082,-0.787996
-532,-202,-40.2277,0.924805,-0.00107422,-0.00313584,-0.0024403,0.000544054,-0.00475411,-0.58556,0.00336545,0.027902,692,1226,-40.2277,-0.924838
-525,-202,-40.3453,1.11035,-0.00113607,-0.00409052,-0.0022071,4.25423e-05,-0.00526913,-0.490485,0.00352702,0.0335887,699,1226,-40.3454,-1.11029
-518,-202,-40.4407,1.25659,0.00047686,-0.00508863,-0.00176189,0.000987733,-0.00559951,-0.282218,0.00410208,0.0404337,706,1226,-40.4407,-1.25665
-511,-202,-40.1632,0.748413,0.00619386,-0.0059886,-0.000915156,0.00626223,-0.00605696,-0.0745631,0.00711282,0.041968,713,1226,-40.1632,-0.748401
-504,-202,0,0,0,0,0,0,0,0,0,-1,720,1226,0,0
-497,-202,0,0,0,0,0,0,0,0,0,-1,727,1226,0,0
-490,-202,0,0,0,0,0,0,0,0,0,-1,734,1226,0,0
-483,-202,0,0,0,0,0,0,0,0,0,-1,741,1226,0,0
-476,-202,0,0,0,0,0,0,0,0,0,-1,748,1226,0,0
-469,-202,0,0,0,0,0,0,0,0,0,-1,755,1226,0,0
-462,-202,0,0,0,0,0,0,0,0,0,-1,762,1226,0,0
-455,-202,0,0,0,0,0,0,0,0,0,-1,769,1226,0,0
-448,-202,0,0,0,0,0,0,0,0,0,-1,776,1226,0,0
-441,-202,0,0,0,0,0,0,0,0,0,-1,783,1226,0,0
-434,-202,0,0,0,0,0,0,0,0,0,-1,790,1226,0,0
-427,-202,0,0,0,0,0,0,0,0,0,-1,797,1226,0,0
-420,-202,0,0,0,0,0,0,0,0,0,-1,804,1226,0,0
-413,-202,0,0,0,0,0,0,0,0,0,-1,811,1226,0,0
-406,-202,0,0,0,0,0,0,0,0,0,-1,818,1226,0,0
-399,-202,0,0,0,0,0,0,0,0,0,-1,825,1226,0,0
-392,-202,0,0,0,0,0,0,0,0,0,-1,832,1226,0,0
-385,-202,0,0,0,0,0,0,0,0,0,-1,839,1226,0,0
-378,-202,0,0,0,0,0,0,0,0,0,-1,846,1226,0,0
-371,-202,0,0,0,0,0,0,0,0,0,-1,853,1226,0,0
-364,-202,0,0,0,0,0,0,0,0,0,-1,860,1226,0,0
-357,-202,0,0,0,0,0,0,0,0,0,-1,867,1226,0,0
-350,-202,0,0,0,0,0,0,0,0,0,-1,874,1226,0,0
-343,-202,0,0,0,0,0,0,0,0,0,-1,881,1226,0,0
-336,-202,0,0,0,0,0,0,0,0,0,-1,888,1226,0,0
-329,-202,0,0,0,0,0,0,0,0,0,-1,895,1226,0,0
-322,-202,0,0,0,0,0,0,0,0,0,-1,902,1226,0,0
-315,-202,0,0,0,0,0,0,0,0,0,-1,909,1226,0,0
-308,-202,0,0,0,0,0,0,0,0,0,-1,916,1226,0,0
-301,-202,0,0,0,0,0,0,0,0,0,-1,923,1226,0,0
-294,-202,0,0,0,0,0,0,0,0,0,-1,930,1226,0,0
-287,-202,0,0,0,0,0,0,0,0,0,-1,937,1226,0,0
-280,-202,0,0,0,0,0,0,0,0,0,-1,944,1226,0,0
-273,-202,0,0,0,0,0,0,0,0,0,-1,951,1226,0,0
-266,-202,0,0,0,0,0,0,0,0,0,-1,958,1226,0,0
-259,-202,0,0,0,0,0,0,0,0,0,-1,965,1226,0,0
-252,-202,0,0,0,0,0,0,0,0,0,-1,972,1226,0,0
-245,-202,0,0,0,0,0,0,0,0,0,-1,979,1226,0,0
-238,-202,0,0,0,0,0,0,0,0,0,-1,986,1226,0,0
-231,-202,0,0,0,0,0,0,0,0,0,-1,993,1226,0,0
-224,-202,0,0,0,0,0,0,0,0,0,-1,1000,1226,0,0
-217,-202,0,0,0,0,0,0,0,0,0,-1,1007,1226,0,0
-210,-202,0,0,0,0,0,0,0,0,0,-1,1014,1226,0,0
-203,-202,0,0,0,0,0,0,0,0,0,-1,1021,1226,0,0
-196,-202,0,0,0,0,0,0,0,0,0,-1,1028,1226,0,0
-189,-202,0,0,0,0,0,0,0,0,0,-1,1035,1226,0,0
-182,-202,0,0,0,0,0,0,0,0,0,-1,1042,1226,0,0
-175,-202,0,0,0,0,0,0,0,0,0,-1,1049,1226,0,0
-168,-202,0,0,0,0,0,0,0,0,0,-1,1056,1226,0,0
-161,-202,0,0,0,0,0,0,0,0,0,-1,1063,1226,0,0
-154,-202,0,0,0,0,0,0,0,0,0,-1,1070,1226,0,0
-147,-202,0,0,0,0,0,0,0,0,0,-1,1077,1226,0,0
-140,-202,0,0,0,0,0,0,0,0,0,-1,1084,1226,0,0
-133,-202,0,0,0,0,0,0,0,0,0,-1,1091,1226,0,0
-126,-202,0,0,0,0,0,0,0,0,0,-1,1098,1226,0,0
-119,-202,0,0,0,0,0,0,0,0,0,-1,1105,1226,0,0
-112,-202,0,0,0,0,0,0,0,0,0,-1,1112,1226,0,0
-105,-202,0,0,0,0,0,0,0,0,0,-1,1119,1226,0,0
-98,-202,0,0,0,0,0,0,0,0,0,-1,1126,1226,0,0
-91,-202,0,0,0,0,0,0,0,0,0,-1,1133,1226,0,0
-84,-202,0,0,0,0,0,0,0,0,0,-1,1140,1226,0,0
-77,-202,0,0,0,0,0,0,0,0,0,-1,1147,1226,0,0
-70,-202,0,0,0,0,0,0,0,0,0,-1,1154,1226,0,0
-63,-202,0,0,0,0,0,0,0,0,0,-1,1161,1226,0,0
-56,-202,0,0,0,0,0,0,0,0,0,-1,1168,1226,0,0
-49,-202,0,0,0,0,0,0,0,0,0,-1,1175,1226,0,0
-42,-202,0,0,0,0,0,0,0,0,0,-1,1182,1226,0,0
-35,-202,0,0,0,0,0,0,0,0,0,-1,1189,1226,0,0
-28,-202,0,0,0,0,0,0,0,0,0,-1,1196,1226,0,0
-21,-202,0,0,0,0,0,0,0,0,0,-1,1203,1226,0,0
-14,-202,0,0,0,0,0,0,0,0,0,-1,1210,1226,0,0
-7,-202,0,0,0,0,0,0,0,0,0,-1,1217,1226,0,0
0,-202,0,0,0,0,0,0,0,0,0,-1,1224,1226,0,0
7,-202,0,0,0,0,0,0,0,0,0,-1,1231,1226,0,0
14,-202,0,0,0,0,0,0,0,0,0,-1,1238,1226,0,0
21,-202,0,0,0,0,0,0,0,0,0,-1,1245,1226,0,0
28,-202,0,0,0,0,0,0,0,0,0,-1,1252,1226,0,0
35,-202,0,0,0,0,0,0,0,0,0,-1,1259,1226,0,0
42,-202,0,0,0,0,0,0,0,0,0,-1,1266,1226,0,0
49,-202,0,0,0,0,0,0,0,0,0,-1,1273,1226,0,0
56,-202,0,0,0,0,0,0,0,0,0,-1,1280,1226,0,0
63,-202,0,0,0,0,0,0,0,0,0,-1,1287,1226,0,0
70,-202,0,0,0,0,0,0,0,0,0,-1,1294,1226,0,0
77,-202,0,0,0,0,0,0,0,0,0,-1,1301,1226,0,0
84,-202,0,0,0,0,0,0,0,0,0,-1,1308,1226,0,0
91,-202,0,0,0,0,0,0,0,0,0,-1,1315,1226,0,0
98,-202,0,0,0,0,0,0,0,0,0,-1,1322,1226,0,0
105,-202,0,0,0,0,0,0,0,0,0,-1,1329,1226,0,0
112,-202,0,0,0,0,0,0,0,0,0,-1,1336,1226,0,0
119,-202,0,0,0,0,0,0,0,0,0,-1,1343,1226,0,0
126,-202,0,0,0,0,0,0,0,0,0,-1,1350,1226,0,0
133,-202,0,0,0,0,0,0,0,0,0,-1,1357,1226,0,0
140,-202,0,0,0,0,0,0,0,0,0,-1,1364,1226,0,0
147,-202,0,0,0,0,0,0,0,0,0,-1,1371,1226,0,0
154,-202,0,0,0,0,0,0,0,0,0,-1,1378,1226,0,0
161,-202,0,0,0,0,0,0,0,0,0,-1,1385,1226,0,0
168,-202,0,0,0,0,0,0,0,0,0,-1,1392,1226,0,0
175,-202,0,0,0,0,0,0,0,0,0,-1,1399,1226,0,0
182,-202,0,0,0,0,0,0,0,0,0,-1,1406,1226,0,0
189,-202,0,0,0,0,0,0,0,0,0,-1,1413,1226,0,0
196,-202,0,0,0,0,0,0,0,0,0,-1,1420,1226,0,0
203,-202,0,0,0,0,0,0,0,0,0,-1,1427,1226,0,0
210,-202,0,0,0,0,0,0,0,0,0,-1,1434,1226,0,0
217,-202,0,0,0,0,0,0,0,0,0,-1,1441,1226,0,0
224,-202,0,0,0,0,0,0,0,0,0,-1,1448,1226,0,0
231,-202,0,0,0,0,0,0,0,0,0,-1,1455,1226,0,0
238,-202,0,0,0,0,0,0,0,0,0,-1,1462,1226,0,0
245,-202,0,0,0,0,0,0,0,0,0,-1,1469,1226,0,0
252,-202,0,0,0,0,0,0,0,0,0,-1,1476,1226,0,0
259,-202,0,0,0,0,0,0,0,0,0,-1,1483,1226,0,0
266,-202,0,0,0,0,0,0,0,0,0,-1,1490,1226,0,0
273,-202,0,0,0,0,0,0,0,0,0,-1,1497,1226,0,0
280,-202,0,0,0,0,0,0,0,0,0,-1,1504,1226,0,0
287,-202,0,0,0,0,0,0,0,0,0,-1,1511,1226,0,0
294,-202,0,0,0,0,0,0,0,0,0,-1,1518,1226,0,0
301,-202,0,0,0,0,0,0,0,0,0,-1,1525,1226,0,0
308,-202,0,0,0,0,0,0,0,0,0,-1,1532,1226,0,0
315,-202,0,0,0,0,0,0,0,0,0,-1,1539,1226,0,0
322,-202,0,0,0,0,0,0,0,0,0,-1,1546,1226,0,0
329,-202,0,0,0,0,0,0,0,0,0,-1,1553,1226,0,0
336,-202,0,0,0,0,0,0,0,0,0,-1,1560,1226,0,0
343,-202,0,0,0,0,0,0,0,0,0,-1,1567,1226,0,0
350,-202,0,0,0,0,0,0,0,0,0,-1,1574,1226,0,0
357,-202,0,0,0,0,0,0,0,0,0,-1,1581,1226,0,0
364,-202,0,0,0,0,0,0,0,0,0,-1,1588,1226,0,0
371,-202,0,0,0,0,0,0,0,0,0,-1,1595,1226,0,0
378,-202,0,0,0,0,0,0,0,0,0,-1,1602,1226,0,0
385,-202,0,0,0,0,0,0,0,0,0,-1,1609,1226,0,0
392,-202,0,0,0,0,0,0,0,0,0,-1,1616,1226,0,0
399,-202,0,0,0,0,0,0,0,0,0,-1,1623,1226,0,0
406,-202,0,0,0,0,0,0,0,0,0,-1,1630,1226,0,0
413,-202,0,0,0,0,0,0,0,0,0,-1,1637,1226,0,0
420,-202,0,0,0,0,0,0,0,0,0,-1,1644,1226,0,0
427,-202,0,0,0,0,0,0,0,0,0,-1,1651,1226,0,0
434,-202,0,0,0,0,0,0,0,0,0,-1,1658,1226,0,0
441,-202,0,0,0,0,0,0,0,0,0,-1,1665,1226,0,0
448,-202,0,0,0,0,0,0,0,0,0,-1,1672,1226,0,0
455,-202,0,0,0,0,0,0,0,0,0,-1,1679,1226,0,0
462,-202,0,0,0,0,0,0,0,0,0,-1,1686,1226,0,0
469,-202,0,0,0,0,0,0,0,0,0,-1,1693,1226,0,0
476,-202,0,0,0,0,0,0,0,0,0,-1,1700,1226,0,0
483,-202,0,0,0,0,0,0,0,0,0,-1,1707,1226,0,0
490,-202,0,0,0,0,0,0,0,0,0,-1,1714,1226,0,0
497,-202,0,0,0,0,0,0,0,0,0,-1,1721,1226,0,0
504,-202,0,0,0,0,0,0,0,0,0,-1,1728,1226,0,0
511,-202,0,0,0,0,0,0,0,0,0,-1,1735,1226,0,0
518,-202,0,0,0,0,0,0,0,0,0,-1,1742,1226,0,0
525,-202,0,0,0,0,0,0,0,0,0,-1,1749,1226,0,0
532,-202,0,0,0,0,0,0,0,0,0,-1,1756,1226,0,0
539,-202,0,0,0,0,0,0,0,0,0,-1,1763,1226,0,0
546,-202,0,0,0,0,0,0,0,0,0,-1,1770,1226,0,0
553,-202,0,0,0,0,0,0,0,0,0,-1,1777,1226,0,0
560,-202,0,0,0,0,0,0,0,0,0,-1,1784,1226,0,0
567,-202,0,0,0,0,0,0,0,0,0,-1,1791,1226,0,0
574,-202,0,0,0,0,0,0,0,0,0,-1,1798,1226,0,0
581,-202,0,0,0,0,0,0,0,0,0,-1,1805,1226,0,0
588,-202,0,0,0,0,0,0,0,0,0,-1,1812,1226,0,0
595,-202,0,0,0,0,0,0,0,0,0,-1,1819,1226,0,0
602,-202,0,0,0,0,0,0,0,0,0,-1,1826,1226,0,0
609,-202,0,0,0,0,0,0,0,0,0,-1,1833,1226,0,0
616,-202,0,0,0,0,0,0,0,0,0,-1,1840,1226,0,0
623,-202,0,0,0,0,0,0,0,0,0,-1,1847,1226,0,0
630,-202,54.0327,2.72705,0.00258422,0.00224985,-0.0020384,0.00446228,0.000371784,-0.744481,0.00285899,0.0387102,1854,1226,54.0328,-2.72702
637,-202,53.9697,2.75073,0.0026217,0.000991277,-0.00159564,0.00359832,1.46611e-05,-0.549234,0.00239401,0.0383944,1861,1226,53.9697,-2.75075
644,-202,53.9199,2.66931,0.00255668,-0.000173478,-0.00110861,0.00295014,-0.000566937,-0.341044,0.00218045,0.033282,1868,1226,53.92,-2.66935
651,-202,53.9382,2.63611,0.00230677,-0.000936119,-0.000890039,0.00253499,-0.00116434,-0.251006,0.00218413,0.0246339,1875,1226,53.9382,-2.63613
658,-202,53.9471,2.65125,0.00192304,-0.00136833,-0.000889939,0.00214826,-0.00159355,-0.247865,0.00216823,0.0217815,1882,1226,53.9471,-2.65119
665,-202,53.9424,2.61023,0.00161791,-0.00170259,-0.000845047,0.00182059,-0.00190528,-0.235406,0.00215132,0.0217157,1889,1226,53.9424,-2.61027
672,-202,53.9781,2.61938,0.00124603,-0.00157258,-0.000708429,0.00141406,-0.00174062,-0.232895,0.00182461,0.0437677,1896,1226,53.9782,-2.61935
679,-202,54.0513,2.63696,0,0,0,0,0,0,0,-1,1903,1226,54.0513,-2.637
686,-202,49.1708,2.15198,0,0,0,0,0,0,0,-1,1910,1226,49.1708,-2.15195
693,-202,43.3295,10.5747,0,0,0,0,0,0,0,-1,1917,1226,43.3294,-10.5747
700,-202,43.474,9.83826,0,0,0,0,0,0,0,-1,1924,1226,43.474,-9.8382
707,-202,43.5469,9.00647,0,0,0,0,0,0,0,-1,1931,1226,43.5469,-9.00651
714,-202,43.5385,8.59985,-0.000210105,-0.000886853,0.000230817,-0.000138878,-0.000958081,0.299318,0.000597829,0.0298181,1938,1226,43.5384,-8.59984
721,-202,43.5779,8.28821,-0.000187177,-0.000675181,0.000351713,-3.11437e-06,-0.000859243,0.482138,0.000571793,0.0165459,1945,1226,43.5779,-8.28816
728,-202,43.5515,7.79504,-7.82213e-06,-0.000463499,0.000645739,0.000449095,-0.000920415,0.6158,0.000806144,0.0110114,1952,1226,43.5515,-7.79505
735,-202,43.5455,7.30347,0.000166143,-0.000227797,0.00111084,0.00109734,-0.001159,0.697652,0.00130286,0.0110214,1959,1226,43.5456,-7.30347
742,-202,43.5392,6.81079,0.000669482,0.00032611,0.00148572,0.0019934,-0.000997809,0.727874,0.00175857,0.0120304,1966,1226,43.5392,-6.81076
749,-202,43.486,6.3291,0.00156801,0.00113119,0.00157404,0.00293872,-0.000239522,0.716461,0.00204367,0.0126372,1973,1226,43.486,-6.32905
756,-202,43.4888,5.87573,0.00292679,0.00217985,0.001419,0.00402065,0.00108599,0.656721,0.00240172,0.0124736,1980,1226,43.4888,-5.87575
763,-202,43.5596,5.45154,0.00482274,0.00346598,0.000888117,0.00526192,0.00302679,0.459248,0.00304941,0.0222751,1987,1226,43.5595,-5.45153
770,-202,43.5099,5.06775,0,0,0,0,0,0,0,-1,1994,1226,43.5099,-5.06774
777,-202,53.3003,-4.00098,0,0,0,0,0,0,0,-1,2001,1226,53.3002,4.00099
784,-202,52.9231,-1.28162,0,0,0,0,0,0,0,-1,2008,1226,52.9232,1.28167
791,-202,52.2668,1.22656,0,0,0,0,0,0,0,-1,2015,1226,52.2668,-1.22651
798,-202,51.8999,3.58789,0,0,0,0,0,0,0,-1,2022,1226,51.9,-3.58791
805,-202,0,0,0,0,0,0,0,0,0,-1,2029,1226,0,0
812,-202,0,0,0,0,0,0,0,0,0,-1,2036,1226,0,0
-700,-209,0,0,0,0,0,0,0,0,0,-1,524,1233,0,0
-693,-209,0,0,0,0,0,0,0,0,0,-1,531,1233,0,0
-686,-209,0,0,0,0,0,0,0,0,0,-1,538,1233,0,0
-679,-209,-35.8372,-5.71228,0,0,0,0,0,0,0,-1,545,1233,-35.8373,5.7123
-672,-209,-35.1991,-4.97595,0,0,0,0,0,0,0,-1,552,1233,-35.1991,4.97591
-665,-209,-35.5546,-3.95667,-0.0129746,0.088077,0.0736017,0.126826,-0.051724,1.08619,0.106082,0.0483414,559,1233,-35.5546,3.95668
-658,-209,-36.4283,-3.29736,-0.0110957,0.0722667,0.0641268,0.107068,-0.045897,1.07358,0.0906377,0.0481609,566,1233,-36.4283,3.29739
-651,-209,-27.2171,0.730591,0,0,0,0,0,0,0,-1,573,1233,-27.2171,-0.730583
-644,-209,-27.9,1.6803,0,0,0,0,0,0,0,-1,580,1233,-27.9,-1.68026
-637,-209,-28.7107,2.27185,0,0,0,0,0,0,0,-1,587,1233,-28.7107,-2.27182
-630,-209,-28.7335,2.76672,-0.0033343,0.0244981,0.0266136,0.0406143,-0.0194505,1.0263,0.0353887,0.0286518,594,1233,-28.7334,-2.76668
-623,-209,-28.806,3.30603,-0.00192785,0.0161432,0.0183862,0.0275941,-0.0133787,1.01378,0.0241255,0.0131835,601,1233,-28.806,-3.30605
-616,-209,-28.8353,3.86938,-0.000586352,0.00923615,0.011136,0.0164958,-0.007846,0.993081,0.0143465,0.0121105,608,1233,-28.8353,-3.86936
-609,-209,-28.8528,4.40625,0.000839797,0.00379897,0.0050702,0.00760106,-0.00296229,0.927366,0.00629172,0.0149897,615,1233,-28.8528,-4.40626
-602,-209,-28.8909,4.92688,0.00135438,0.00123399,0.000877008,0.00217326,0.000415116,0.751133,0.0013322,0.017083,622,1233,-28.8909,-4.92682
-595,-209,-28.8914,5.43787,0.00139689,0.000327273,-0.00102795,0.00202084,-0.000296672,-0.545534,0.00145622,0.0125316,629,1233,-28.8914,-5.43788
-588,-209,-28.8868,6.03223,0.000683242,0.000150021,-0.0012112,0.00165683,-0.000823563,-0.677065,0.00145874,0.019983,636,1233,-28.8868,-6.03224
-581,-209,-28.4423,6.75366,0,0,0,0,0,0,0,-1,643,1233,-28.4423,-6.7537
-574,-209,-26.2147,6.6123,0,0,0,0,0,0,0,-1,650,1233,-26.2147,-6.61234
-567,-209,-26.2951,6.92981,0,0,0,0,0,0,0,-1,657,1233,-26.2951,-6.92986
-560,-209,-13.9294,4.16626,0,0,0,0,0,0,0,-1,664,1233,-13.9294,-4.16621
-553,-209,-22.7542,0.748779,0,0,0,0,0,0,0,-1,671,1233,-22.7541,-0.748796
-546,-209,-40.1693,0.552246,0,0,0,0,0,0,0,-1,678,1233,-40.1693,-0.55219
-539,-209,-40.1424,0.752075,-0.000994734,-0.00292941,-0.00164414,-5.44761e-05,-0.00386967,-0.519491,0.00256182,0.040655,685,1233,-40.1424,-0.752033
-532,-209,-40.1223,0.935669,-0.001874,-0.0035285,-0.00140405,-0.00107162,-0.00433088,-0.519182,0.0026046,0.0327028,692,1233,-40.1223,-0.935715
-525,-209,-40.2436,1.02295,-0.00280511,-0.00438714,-0.00107031,-0.00226523,-0.00492702,-0.467169,0.00284768,0.0334682,699,1233,-40.2436,-1.023
-518,-209,-40.2297,0.846802,-0.00305693,-0.00533748,-0.000590528,-0.00291309,-0.00548132,-0.238926,0.00316673,0.0429686,706,1233,-40.2297,-0.846858
-511,-209,-40.2095,0.639038,-0.000274974,-0.00648852,-3.68028e-05,-0.000274756,-0.00648874,-0.00592271,0.00423721,0.0433314,713,1233,-40.2095,-0.639
-504,-209,0,0,0,0,0,0,0,0,0,-1,720,1233,0,0
-497,-209,0,0,0,0,0,0,0,0,0,-1,727,1233,0,0
-490,-209,0,0,0,0,0,0,0,0,0,-1,734,1233,0,0
-483,-209,0,0,0,0,0,0,0,0,0,-1,741,1233,0,0
-476,-209,0,0,0,0,0,0,0,0,0,-1,748,1233,0,0
-469,-209,0,0,0,0,0,0,0,0,0,-1,755,1233,0,0
-462,-209,0,0,0,0,0,0,0,0,0,-1,762,1233,0,0
-455,-209,0,0,0,0,0,0,0,0,0,-1,769,1233,0,0
-448,-209,0,0,0,0,0,0,0,0,0,-1,776,1233,0,0
-441,-209,0,0,0,0,0,0,0,0,0,-1,783,1233,0,0
-434,-209,0,0,0,0,0,0,0,0,0,-1,790,1233,0,0
-427,-209,0,0,0,0,0,0,0,0,0,-1,797,1233,0,0
-420,-209,0,0,0,0,0,0,0,0,0,-1,804,1233,0,0
-413,-209,0,0,0,0,0,0,0,0,0,-1,811,1233,0,0
-406,-209,0,0,0,0,0,0,0,0,0,-1,818,1233,0,0
-399,-209,0,0,0,0,0,0,0,0,0,-1,825,1233,0,0
-392,-209,0,0,0,0,0,0,0,0,0,-1,832,1233,0,0
-385,-209,0,0,0,0,0,0,0,0,0,-1,839,1233,0,0
-378,-209,0,0,0,0,0,0,0,0,0,-1,846,1233,0,0
-371,-209,0,0,0,0,0,0,0,0,0,-1,853,1233,0,0
-364,-209,0,0,0,0,0,0,0,0,0,-1,860,1233,0,0
-357,-209,0,0,0,0,0,0,0,0,0,-1,867,1233,0,0
-350,-209,0,0,0,0,0,0,0,0,0,-1,874,1233,0,0
-343,-209,0,0,0,0,0,0,0,0,0,-1,881,1233,0,0
-336,-209,0,0,0,0,0,0,0,0,0,-1,888,1233,0,0
-329,-209,0,0,0,0,0,0,0,0,0,-1,895,1233,0,0
-322,-209,0,0,0,0,0,0,0,0,0,-1,902,1233,0,0
-315,-209,0,0,0,0,0,0,0,0,0,-1,909,1233,0,0
-308,-209,0,0,0,0,0,0,0,0,0,-1,916,1233,0,0
-301,-209,0,0,0,0,0,0,0,0,0,-1,923,1233,0,0
-294,-209,0,0,0,0,0,0,0,0,0,-1,930,1233,0,0
-287,-209,0,0,0,0,0,0,0,0,0,-1,937,1233,0,0
-280,-209,0,0,0,0,0,0,0,0,0,-1,944,1233,0,0
-273,-209,0,0,0,0,0,0,0,0,0,-1,951,1233,0,0
-266,-209,0,0,0,0,0,0,0,0,0,-1,958,1233,0,0
-259,-209,0,0,0,0,0,0,0,0,0,-1,965,1233,0,0
-252,-209,0,0,0,0,0,0,0,0,0,-1,972,1233,0,0
-245,-209,0,0,0,0,0,0,0,0,0,-1,979,1233,0,0
-238,-209,0,0,0,0,0,0,0,0,0,-1,986,1233,0,0
-231,-209,0,0,0,0,0,0,0,0,0,-1,993,1233,0,0
-224,-209,0,0,0,0,0,0,0,0,0,-1,1000,1233,0,0
-217,-209,0,0,0,0,0,0,0,0,0,-1,1007,1233,0,0
-210,-209,0,0,0,0,0,0,0,0,0,-1,1014,1233,0,0
-203,-209,0,0,0,0,0,0,0,0,0,-1,1021,1233,0,0
-196,-209,0,0,0,0,0,0,0,0,0,-1,1028,1233,0,0
-189,-209,0,0,0,0,0,0,0,0,0,-1,1035,1233,0,0
-182,-209,0,0,0,0,0,0,0,0,0,-1,1042,1233,0,0
-175,-209,0,0,0,0,0,0,0,0,0,-1,1049,1233,0,0
-168,-209,0,0,0,0,0,0,0,0,0,-1,1056,1233,0,0
-161,-209,0,0,0,0,0,0,0,0,0,-1,1063,1233,0,0
-154,-209,0,0,0,0,0,0,0,0,0,-1,1070,1233,0,0
-147,-209,0,0,0,0,0,0,0,0,0,-1,1077,1233,0,0
-140,-209,0,0,0,0,0,0,0,0,0,-1,1084,1233,0,0
-133,-209,0,0,0,0,0,0,0,0,0,-1,1091,1233,0,0
-126,-209,0,0,0,0,0,0,0,0,0,-1,1098,1233,0,0
-119,-209,0,0,0,0,0,0,0,0,0,-1,1105,1233,0,0
-112,-209,0,0,0,0,0,0,0,0,0,-1,1112,1233,0,0
-105,-209,0,0,0,0,0,0,0,0,0,-1,1119,1233,0,0
-98,-209,0,0,0,0,0,0,0,0,0,-1,1126,1233,0,0
-91,-209,0,0,0,0,0,0,0,0,0,-1,1133,1233,0,0
-84,-209,0,0,0,0,0,0,0,0,0,-1,1140,1233,0,0
-77,-209,0,0,0,0,0,0,0,0,0,-1,1147,1233,0,0
-70,-209,0,0,0,0,0,0,0,0,0,-1,1154,1233,0,0
-63,-209,0,0,0,0,0,0,0,0,0,-1,1161,1233,0,0
-56,-209,0,0,0,0,0,0,0,0,0,-1,1168,1233,0,0
-49,-209,0,0,0,0,0,0,0,0,0,-1,1175,1233,0,0
-42,-209,0,0,0,0,0,0,0,0,0,-1,1182,1233,0,0
-35,-209,0,0,0,0,0,0,0,0,0,-1,1189,1233,0,0
-28,-209,0,0,0,0,0,0,0,0,0,-1,1196,1233,0,0
-21,-209,0,0,0,0,0,0,0,0,0,-1,1203,1233,0,0
-14,-209,0,0,0,0,0,0,0,0,0,-1,1210,1233,0,0
-7,-209,0,0,0,0,0,0,0,0,0,-1,1217,1233,0,0
0,-209,0,0,0,0,0,0,0,0,0,-1,1224,1233,0,0
7,-209,0,0,0,0,0,0,0,0,0,-1,1231,1233,0,0
14,-209,0,0,0,0,0,0,0,0,0,-1,1238,1233,0,0
21,-209,0,0,0,0,0,0,0,0,0,-1,1245,1233,0,0
28,-209,0,0,0,0,0,0,0,0,0,-1,1252,1233,0,0
35,-209,0,0,0,0,0,0,0,0,0,-1,1259,1233,0,0
42,-209,0,0,0,0,0,0,0,0,0,-1,1266,1233,0,0
49,-209,0,0,0,0,0,0,0,0,0,-1,1273,1233,0,0
56,-209,0,0,0,0,0,0,0,0,0,-1,1280,1233,0,0
63,-209,0,0,0,0,0,0,0,0,0,-1,1287,1233,0,0
70,-209,0,0,0,0,0,0,0,0,0,-1,1294,1233,0,0
77,-209,0,0,0,0,0,0,0,0,0,-1,1301,1233,0,0
84,-209,0,0,0,0,0,0,0,0,0,-1,1308,1233,0,0
91,-209,0,0,0,0,0,0,0,0,0,-1,1315,1233,0,0
98,-209,0,0,0,0,0,0,0,0,0,-1,1322,1233,0,0
105,-209,0,0,0,0,0,0,0,0,0,-1,1329,1233,0,0
112,-209,0,0,0,0,0,0,0,0,0,-1,1336,1233,0,0
119,-209,0,0,0,0,0,0,0,0,0,-1,1343,1233,0,0
126,-209,0,0,0,0,0,0,0,0,0,-1,1350,1233,0,0
133,-209,0,0,0,0,0,0,0,0,0,-1,1357,1233,0,0
140,-209,0,0,0,0,0,0,0,0,0,-1,1364,1233,0,0
147,-209,0,0,0,0,0,0,0,0,0,-1,1371,1233,0,0
154,-209,0,0,0,0,0,0,0,0,0,-1,1378,1233,0,0
161,-209,0,0,0,0,0,0,0,0,0,-1,1385,1233,0,0
168,-209,0,0,0,0,0,0,0,0,0,-1,1392,1233,0,0
175,-209,0,0,0,0,0,0,0,0,0,-1,1399,1233,0,0
182,-209,0,0,0,0,0,0,0,0,0,-1,1406,1233,0,0
189,-209,0,0,0,0,0,0,0,0,0,-1,1413,1233,0,0
196,-209,0,0,0,0,0,0,0,0,0,-1,1420,1233,0,0
203,-209,0,0,0,0,0,0,0,0,0,-1,1427,1233,0,0
210,-209,0,0,0,0,0,0,0,0,0,-1,1434,1233,0,0
217,-209,0,0,0,0,0,0,0,0,0,-1,1441,1233,0,0
224,-209,0,0,0,0,0,0,0,0,0,-1,1448,1233,0,0
231,-209,0,0,0,0,0,0,0,0,0,-1,1455,1233,0,0
238,-209,0,0,0,0,0,0,0,0,0,-1,1462,1233,0,0
245,-209,0,0,0,0,0,0,0,0,0,-1,1469,1233,0,0
252,-209,0,0,0,0,0,0,0,0,0,-1,1476,1233,0,0
259,-209,0,0,0,0,0,0,0,0,0,-1,1483,1233,0,0
266,-209,0,0,0,0,0,0,0,0,0,-1,1490,1233,0,0
273,-209,0,0,0,0,0,0,0,0,0,-1,1497,1233,0,0
280,-209,0,0,0,0,0,0,0,0,0,-1,1504,1233,0,0
287,-209,0,0,0,0,0,0,0,0,0,-1,1511,1233,0,0
294,-209,0,0,0,0,0,0,0,0,0,-1,1518,1233,0,0
301,-209,0,0,0,0,0,0,0,0,0,-1,1525,1233,0,0
308,-209,0,0,0,0,0,0,0,0,0,-1,1532,1233,0,0
315,-209,0,0,0,0,0,0,0,0,0,-1,1539,1233,0,0
322,-209,0,0,0,0,0,0,0,0,0,-1,1546,1233,0,0
329,-209,0,0,0,0,0,0,0,0,0,-1,1553,1233,0,0
336,-209,0,0,0,0,0,0,0,0,0,-1,1560,1233,0,0
343,-209,0,0,0,0,0,0,0,0,0,-1,1567,1233,0,0
350,-209,0,0,0,0,0,0,0,0,0,-1,1574,1233,0,0
357,-209,0,0,0,0,0,0,0,0,0,-1,1581,1233,0,0
364,-209,0,0,0,0,0,0,0,0,0,-1,1588,1233,0,0
371,-209,0,0,0,0,0,0,0,0,0,-1,1595,1233,0,0
378,-209,0,0,0,0,0,0,0,0,0,-1,1602,1233,0,0
385,-209,0,0,0,0,0,0,0,0,0,-1,1609,1233,0,0
392,-209,0,0,0,0,0,0,0,0,0,-1,1616,1233,0,0
399,-209,0,0,0,0,0,0,0,0,0,-1,1623,1233,0,0
406,-209,0,0,0,0,0,0,0,0,0,-1,1630,1233,0,0
413,-209,0,0,0,0,0,0,0,0,0,-1,1637,1233,0,0
420,-209,0,0,0,0,0,0,0,0,0,-1,1644,1233,0,0
427,-209,0,0,0,0,0,0,0,0,0,-1,1651,1233,0,0
434,-209,0,0,0,0,0,0,0,0,0,-1,1658,1233,0,0
441,-209,0,0,0,0,0,0,0,0,0,-1,1665,1233,0,0
448,-209,0,0,0,0,0,0,0,0,0,-1,1672,1233,0,0
455,-209,0,0,0,0,0,0,0,0,0,-1,1679,1233,0,0
462,-209,0,0,0,0,0,0,0,0,0,-1,1686,1233,0,0
469,-209,0,0,0,0,0,0,0,0,0,-1,1693,1233,0,0
476,-209,0,0,0,0,0,0,0,0,0,-1,1700,1233,0,0
483,-209,0,0,0,0,0,0,0,0,0,-1,1707,1233,0,0
490,-209,0,0,0,0,0,0,0,0,0,-1,1714,1233,0,0
497,-209,0,0,0,0,0,0,0,0,0,-1,1721,1233,0,0
504,-209,0,0,0,0,0,0,0,0,0,-1,1728,1233,0,0
511,-209,0,0,0,0,0,0,0,0,0,-1,1735,1233,0,0
518,-209,0,0,0,0,0,0,0,0,0,-1,1742,1233,0,0
525,-209,0,0,0,0,0,0,0,0,0,-1,1749,1233,0,0
532,-209,0,0,0,0,0,0,0,0,0,-1,1756,1233,0,0
539,-209,0,0,0,0,0,0,0,0,0,-1,1763,1233,0,0
546,-209,0,0,0,0,0,0,0,0,0,-1,1770,1233,0,0
553,-209,0,0,0,0,0,0,0,0,0,-1,1777,1233,0,0
560,-209,0,0,0,0,0,0,0,0,0,-1,1784,1233,0,0
567,-209,0,0,0,0,0,0,0,0,0,-1,1791,1233,0,0
574,-209,0,0,0,0,0,0,0,0,0,-1,1798,1233,0,0
581,-209,0,0,0,0,0,0,0,0,0,-1,1805,1233,0,0
588,-209,0,0,0,0,0,0,0,0,0,-1,1812,1233,0,0
595,-209,0,0,0,0,0,0,0,0,0,-1,1819,1233,0,0
602,-209,0,0,0,0,0,0,0,0,0,-1,1826,1233,0,0
609,-209,0,0,0,0,0,0,0,0,0,-1,1833,1233,0,0
616,-209,0,0,0,0,0,0,0,0,0,-1,1840,1233,0,0
623,-209,53.9103,2.85535,0.00140152,0.00465141,-0.00265223,0.00613689,-8.39611e-05,-1.06024,0.00411953,0.033191,1847,1233,53.9103,-2.85529
630,-209,53.9495,2.73987,0.00207096,0.00287248,-0.00203366,0.00454449,0.000398946,-0.882684,0.00290582,0.0355444,1854,1233,53.9494,-2.73987
637,-209,53.9098,2.70984,0.00256268,0.00124104,-0.00136435,0.00341782,0.000385899,-0.559874,0.00216142,0.0360944,1861,1233,53.9098,-2.70978
644,-209,53.9431,2.64075,0.00289551,-0.000330723,-0.000690345,0.00303703,-0.000472235,-0.202186,0.00219906,0.0319479,1868,1233,53.9431,-2.6408
651,-209,53.96,2.6073,0.00275398,-0.00121824,-0.000512386,0.00281901,-0.00128327,-0.12624,0.00242314,0.0242958,1875,1233,53.9599,-2.60733
658,-209,53.9553,2.64661,0.0023701,-0.00169732,-0.000583994,0.00245228,-0.00177951,-0.139816,0.0024535,0.0210123,1882,1233,53.9553,-2.64665
665,-209,54.0043,2.66077,0.00201134,-0.00203426,-0.000605402,0.00209999,-0.00212291,-0.145402,0.00243811,0.0346332,1889,1233,54.0043,-2.66077
672,-209,53.9113,2.80225,0.00159407,-0.0019538,-0.000533376,0.00167252,-0.00203225,-0.146038,0.00214231,0.0471904,1896,1233,53.9113,-2.80228
679,-209,53.9889,3.08728,0,0,0,0,0,0,0,-1,1903,1233,53.9889,-3.08724
686,-209,33.3711,3.89856,0,0,0,0,0,0,0,-1,1910,1233,33.3711,-3.89855
693,-209,42.8794,10.5454,0,0,0,0,0,0,0,-1,1917,1233,42.8794,-10.5454
700,-209,42.9752,9.85303,0.00019234,-0.00173947,7.64409e-06,0.00019237,-0.0017395,0.00395687,0.00122882,0.0425837,1924,1233,42.9753,-9.85306
707,-209,43.0306,9.23108,-0.000199765,-0.00158829,0.000116533,-0.000190052,-0.001598,0.0831507,0.00100797,0.034126,1931,1233,43.0307,-9.2311
714,-209,43.0188,8.78894,-0.000242425,-0.00131244,0.000227396,-0.000196105,-0.00135876,0.20095,0.000848063,0.0207578,1938,1233,43.0188,-8.78898
721,-209,43.0638,8.2616,-0.000239993,-0.000954115,0.000430379,-3.78417e-05,-0.00115627,0.43912,0.000758545,0.0134533,1945,1233,43.0639,-8.26162
728,-209,43.0935,7.81042,-7.46851e-05,-0.000616746,0.000762918,0.000463915,-0.00115535,0.614724,0.000962872,0.0130757,1952,1233,43.0935,-7.8104
735,-209,43.0765,7.33398,9.75322e-05,-0.000296925,0.00126459,0.00118018,-0.00137957,0.70804,0.00147937,0.015326,1959,1233,43.0765,-7.33399
742,-209,43.0507,6.83521,0.000549879,0.000275809,0.00170256,0.00212091,-0.00129522,0.745241,0.00199141,0.0148146,1966,1233,43.0507,-6.83524
749,-209,42.9969,6.34277,0.00135449,0.00102488,0.00199389,0.00319038,-0.000811009,0.744163,0.00244256,0.0132523,1973,1233,42.9969,-6.34278
756,-209,42.9924,5.88757,0.00266337,0.00200784,0.00203043,0.00439232,0.000278886,0.705375,0.00283982,0.0124096,1980,1233,42.9924,-5.88763
763,-209,43.0052,5.51929,0.00462758,0.00320393,0.00180118,0.00585249,0.00197902,0.597217,0.00343744,0.0231671,1987,1233,43.0052,-5.51929
770,-209,43.1243,5.26062,0,0,0,0,0,0,0,-1,1994,1233,43.1243,-5.26061
777,-209,49.8105,-3.45435,0,0,0,0,0,0,0,-1,2001,1233,49.8106,3.45429
784,-209,53.6729,-0.603394,0,0,0,0,0,0,0,-1,2008,1233,53.6728,0.603386
791,-209,53.6887,1.53479,0,0,0,0,0,0,0,-1,2015,1233,53.6887,-1.53478
798,-209,53.6404,3.71179,0,0,0,0,0,0,0,-1,2022,1233,53.6404,-3.71185
805,-209,0,0,0,0,0,0,0,0,0,-1,2029,1233,0,0
812,-209,0,0,0,0,0,0,0,0,0,-1,2036,1233,0,0
-700,-216,0,0,0,0,0,0,0,0,0,-1,524,1240,0,0
-693,-216,0,0,0,0,0,0,0,0,0,-1,531,1240,0,0
-686,-216,0,0,0,0,0,0,0,0,0,-1,538,1240,0,0
-679,-216,-37.0311,-5.80054,0,0,0,0,0,0,0,-1,545,1240,-37.0311,5.80055
-672,-216,-35.5734,-5.69263,0,0,0,0,0,0,0,-1,552,1240,-35.5734,5.69266
-665,-216,-36.0257,-4.68896,-0.0179641,0.0874683,0.0852843,0.135014,-0.0655096,1.06222,0.118068,0.0485508,559,1240,-36.0257,4.68901
-658,-216,-36.8566,-3.87952,-0.0152156,0.0720072,0.0746141,0.11482,-0.0580289,1.04987,0.101574,0.0475914,566,1240,-36.8565,3.87955
-651,-216,-37.6235,-3.32495,-0.0123763,0.0580768,0.0635657,0.0955243,-0.0498237,1.03842,0.0852882,0.0449117,573,1240,-37.6235,3.3249
-644,-216,-27.3541,1.91699,0,0,0,0,0,0,0,-1,580,1240,-27.3541,-1.91702
-637,-216,-28.3495,1.92517,0,0,0,0,0,0,0,-1,587,1240,-28.3495,-1.92513
-630,-216,-28.2287,2.66321,-0.00481995,0.0254739,0.032131,0.0458492,-0.0251953,1.00566,0.0415913,0.0352681,594,1240,-28.2287,-2.66323
-623,-216,-28.2239,3.35925,-0.00300025,0.0172954,0.0229256,0.0322188,-0.0179236,0.993757,0.0293392,0.0155454,601,1240,-28.2239,-3.35929
-616,-216,-28.2879,3.90332,-0.0013719,0.0104154,0.0147063,0.0203651,-0.0113216,0.975977,0.018541,0.0143388,608,1240,-28.2879,-3.90338
-609,-216,-28.3121,4.42114,0.000467891,0.00467112,0.0077589,0.010608,-0.00546899,0.917657,0.0094388,0.0141146,615,1240,-28.3122,-4.42118
-602,-216,-28.3277,4.89502,0.00131834,0.00171705,0.00271596,0.00424096,-0.00120557,0.822033,0.00330333,0.0135924,622,1240,-28.3277,-4.89501
-595,-216,-28.3232,5.41296,0.00166863,0.000395271,-8.50166e-05,0.00167428,0.00038962,-0.0663729,0.00101164,0.0185525,629,1240,-28.3232,-5.41301
-588,-216,-28.3478,5.99658,0.00125881,0.000159524,-0.000565104,0.00149748,-7.91543e-05,-0.399634,0.00102573,0.0215087,636,1240,-28.3478,-5.99659
-581,-216,-28.3122,6.62695,0.000895049,-0.000142221,-0.0007668,0.00130214,-0.00054931,-0.488055,0.00109799,0.0390355,643,1240,-28.3122,-6.62698
-574,-216,-28.6205,7.22717,0,0,0,0,0,0,0,-1,650,1240,-28.6205,-7.22721
-567,-216,-28.812,8.15308,0,0,0,0,0,0,0,-1,657,1240,-28.8119,-8.15308
-560,-216,-16.5087,5.4574,0,0,0,0,0,0,0,-1,664,1240,-16.5087,-5.45746
-553,-216,-16.2355,1.22351,0,0,0,0,0,0,0,-1,671,1240,-16.2356,-1.22356
-546,-216,-37.1617,-0.25415,0,0,0,0,0,0,0,-1,678,1240,-37.1618,0.254161
-539,-216,-40.2199,0.814941,0,0,0,0,0,0,0,-1,685,1240,-40.2199,-0.814914
-532,-216,-39.9483,0.84729,0,0,0,0,0,0,0,-1,692,1240,-39.9483,-0.847241
-525,-216,-40.0665,0.926392,-0.00425248,-0.00465789,0.00032718,-0.0040703,-0.00484007,0.508063,0.00300319,0.0467333,699,1240,-40.0665,-0.926334
-518,-216,-40.1918,0.97229,-0.00578587,-0.00554368,0.00103575,-0.00462198,-0.00670758,0.843593,0.00396384,0.0460648,706,1240,-40.1917,-0.972263
-511,-216,-40.2042,0.665527,-0.0057291,-0.00673351,0.00177541,-0.00438622,-0.00807638,0.647566,0.00466867,0.0443967,713,1240,-40.2042,-0.665474
-504,-216,-40.2823,0.947388,0.000386403,-0.00930027,0.00288184,0.00117893,-0.0100928,0.268372,0.00715396,0.0418007,720,1240,-40.2824,-0.947408
-497,-216,0,0,0,0,0,0,0,0,0,-1,727,1240,0,0
-490,-216,0,0,0,0,0,0,0,0,0,-1,734,1240,0,0
-483,-216,0,0,0,0,0,0,0,0,0,-1,741,1240,0,0
-476,-216,0,0,0,0,0,0,0,0,0,-1,748,1240,0,0
-469,-216,0,0,0,0,0,0,0,0,0,-1,755,1240,0,0
-462,-216,0,0,0,0,0,0,0,0,0,-1,762,1240,0,0
-455,-216,0,0,0,0,0,0,0,0,0,-1,769,1240,0,0
-448,-216,0,0,0,0,0,0,0,0,0,-1,776,1240,0,0
-441,-216,0,0,0,0,0,0,0,0,0,-1,783,1240,0,0
-434,-216,0,0,0,0,0,0,0,0,0,-1,790,1240,0,0
-427,-216,0,0,0,0,0,0,0,0,0,-1,797,1240,0,0
-420,-216,0,0,0,0,0,0,0,0,0,-1,804,1240,0,0
-413,-216,0,0,0,0,0,0,0,0,0,-1,811,1240,0,0
-406,-216,0,0,0,0,0,0,0,0,0,-1,818,1240,0,0
-399,-216,0,0,0,0,0,0,0,0,0,-1,825,1240,0,0
-392,-216,0,0,0,0,0,0,0,0,0,-1,832,1240,0,0
-385,-216,0,0,0,0,0,0,0,0,0,-1,839,1240,0,0
-378,-216,0,0,0,0,0,0,0,0,0,-1,846,1240,0,0
-371,-216,0,0,0,0,0,0,0,0,0,-1,853,1240,0,0
-364,-216,0,0,0,0,0,0,0,0,0,-1,860,1240,0,0
-357,-216,0,0,0,0,0,0,0,0,0,-1,867,1240,0,0
-350,-216,0,0,0,0,0,0,0,0,0,-1,874,1240,0,0
-343,-216,0,0,0,0,0,0,0,0,0,-1,881,1240,0,0
-336,-216,0,0,0,0,0,0,0,0,0,-1,888,1240,0,0
-329,-216,0,0,0,0,0,0,0,0,0,-1,895,1240,0,0
-322,-216,0,0,0,0,0,0,0,0,0,-1,902,1240,0,0
-315,-216,0,0,0,0,0,0,0,0,0,-1,909,1240,0,0
-308,-216,0,0,0,0,0,0,0,0,0,-1,916,1240,0,0
-301,-216,0,0,0,0,0,0,0,0,0,-1,923,1240,0,0
-294,-216,0,0,0,0,0,0,0,0,0,-1,930,1240,0,0
-287,-216,0,0,0,0,0,0,0,0,0,-1,937,1240,0,0
-280,-216,0,0,0,0,0,0,0,0,0,-1,944,1240,0,0
-273,-216,0,0,0,0,0,0,0,0,0,-1,951,1240,0,0
-266,-216,0,0,0,0,0,0,0,0,0,-1,958,1240,0,0
-259,-216,0,0,0,0,0,0,0,0,0,-1,965,1240,0,0
-252,-216,0,0,0,0,0,0,0,0,0,-1,972,1240,0,0
-245,-216,0,0,0,0,0,0,0,0,0,-1,979,1240,0,0
-238,-216,0,0,0,0,0,0,0,0,0,-1,986,1240,0,0
-231,-216,0,0,0,0,0,0,0,0,0,-1,993,1240,0,0
-224,-216,0,0,0,0,0,0,0,0,0,-1,1000,1240,0,0
-217,-216,0,0,0,0,0,0,0,0,0,-1,1007,1240,0,0
-210,-216,0,0,0,0,0,0,0,0,0,-1,1014,1240,0,0
-203,-216,0,0,0,0,0,0,0,0,0,-1,1021,1240,0,0
-196,-216,0,0,0,0,0,0,0,0,0,-1,1028,1240,0,0
-189,-216,0,0,0,0,0,0,0,0,0,-1,1035,1240,0,0
-182,-216,0,0,0,0,0,0,0,0,0,-1,1042,1240,0,0
-175,-216,0,0,0,0,0,0,0,0,0,-1,1049,1240,0,0
-168,-216,0,0,0,0,0,0,0,0,0,-1,1056,1240,0,0
-161,-216,0,0,0,0,0,0,0,0,0,-1,1063,1240,0,0
-154,-216,0,0,0,0,0,0,0,0,0,-1,1070,1240,0,0
-147,-216,0,0,0,0,0,0,0,0,0,-1,1077,1240,0,0
-140,-216,0,0,0,0,0,0,0,0,0,-1,1084,1240,0,0
-133,-216,0,0,0,0,0,0,0,0,0,-1,1091,1240,0,0
-126,-216,0,0,0,0,0,0,0,0,0,-1,1098,1240,0,0
-119,-216,0,0,0,0,0,0,0,0,0,-1,1105,1240,0,0
-112,-216,0,0,0,0,0,0,0,0,0,-1,1112,1240,0,0
-105,-216,0,0,0,0,0,0,0,0,0,-1,1119,1240,0,0
-98,-216,0,0,0,0,0,0,0,0,0,-1,1126,1240,0,0
-91,-216,0,0,0,0,0,0,0,0,0,-1,1133,1240,0,0
-84,-216,0,0,0,0,0,0,0,0,0,-1,1140,1240,0,0
-77,-216,0,0,0,0,0,0,0,0,0,-1,1147,1240,0,0
-70,-216,0,0,0,0,0,0,0,0,0,-1,1154,1240,0,0
-63,-216,0,0,0,0,0,0,0,0,0,-1,1161,1240,0,0
-56,-216,0,0,0,0,0,0,0,0,0,-1,1168,1240,0,0
-49,-216,0,0,0,0,0,0,0,0,0,-1,1175,1240,0,0
-42,-216,0,0,0,0,0,0,0,0,0,-1,1182,1240,0,0
-35,-216,0,0,0,0,0,0,0,0,0,-1,1189,1240,0,0
-28,-216,0,0,0,0,0,0,0,0,0,-1,1196,1240,0,0
-21,-216,0,0,0,0,0,0,0,0,0,-1,1203,1240,0,0
-14,-216,0,0,0,0,0,0,0,0,0,-1,1210,1240,0,0
-7,-216,0,0,0,0,0,0,0,0,0,-1,1217,1240,0,0
0,-216,0,0,0,0,0,0,0,0,0,-1,1224,1240,0,0
7,-216,0,0,0,0,0,0,0,0,0,-1,1231,1240,0,0
14,-216,0,0,0,0,0,0,0,0,0,-1,1238,1240,0,0
21,-216,0,0,0,0,0,0,0,0,0,-1,1245,1240,0,0
28,-216,0,0,0,0,0,0,0,0,0,-1,1252,1240,0,0
35,-216,0,0,0,0,0,0,0,0,0,-1,1259,1240,0,0
42,-216,0,0,0,0,0,0,0,0,0,-1,1266,1240,0,0
49,-216,0,0,0,0,0,0,0,0,0,-1,1273,1240,0,0
56,-216,0,0,0,0,0,0,0,0,0,-1,1280,1240,0,0
63,-216,0,0,0,0,0,0,0,0,0,-1,1287,1240,0,0
70,-216,0,0,0,0,0,0,0,0,0,-1,1294,1240,0,0
77,-216,0,0,0,0,0,0,0,0,0,-1,1301,1240,0,0
84,-216,0,0,0,0,0,0,0,0,0,-1,1308,1240,0,0
91,-216,0,0,0,0,0,0,0,0,0,-1,1315,1240,0,0
98,-216,0,0,0,0,0,0,0,0,0,-1,1322,1240,0,0
105,-216,0,0,0,0,0,0,0,0,0,-1,1329,1240,0,0
112,-216,0,0,0,0,0,0,0,0,0,-1,1336,1240,0,0
119,-216,0,0,0,0,0,0,0,0,0,-1,1343,1240,0,0
126,-216,0,0,0,0,0,0,0,0,0,-1,1350,1240,0,0
133,-216,0,0,0,0,0,0,0,0,0,-1,1357,1240,0,0
140,-216,0,0,0,0,0,0,0,0,0,-1,1364,1240,0,0
147,-216,0,0,0,0,0,0,0,0,0,-1,1371,1240,0,0
154,-216,0,0,0,0,0,0,0,0,0,-1,1378,1240,0,0
161,-216,0,0,0,0,0,0,0,0,0,-1,1385,1240,0,0
168,-216,0,0,0,0,0,0,0,0,0,-1,1392,1240,0,0
175,-216,0,0,0,0,0,0,0,0,0,-1,1399,1240,0,0
182,-216,0,0,0,0,0,0,0,0,0,-1,1406,1240,0,0
189,-216,0,0,0,0,0,0,0,0,0,-1,1413,1240,0,0
196,-216,0,0,0,0,0,0,0,0,0,-1,1420,1240,0,0
203,-216,0,0,0,0,0,0,0,0,0,-1,1427,1240,0,0
210,-216,0,0,0,0,0,0,0,0,0,-1,1434,1240,0,0
217,-216,0,0,0,0,0,0,0,0,0,-1,1441,1240,0,0
224,-216,0,0,0,0,0,0,0,0,0,-1,1448,1240,0,0
231,-216,0,0,0,0,0,0,0,0,0,-1,1455,1240,0,0
238,-216,0,0,0,0,0,0,0,0,0,-1,1462,1240,0,0
245,-216,0,0,0,0,0,0,0,0,0,-1,1469,1240,0,0
252,-216,0,0,0,0,0,0,0,0,0,-1,1476,1240,0,0
259,-216,0,0,0,0,0,0,0,0,0,-1,1483,1240,0,0
266,-216,0,0,0,0,0,0,0,0,0,-1,1490,1240,0,0
273,-216,0,0,0,0,0,0,0,0,0,-1,1497,1240,0,0
280,-216,0,0,0,0,0,0,0,0,0,-1,1504,1240,0,0
287,-216,0,0,0,0,0,0,0,0,0,-1,1511,1240,0,0
294,-216,0,0,0,0,0,0,0,0,0,-1,1518,1240,0,0
301,-216,0,0,0,0,0,0,0,0,0,-1,1525,1240,0,0
308,-216,0,0,0,0,0,0,0,0,0,-1,1532,1240,0,0
315,-216,0,0,0,0,0,0,0,0,0,-1,1539,1240,0,0
322,-216,0,0,0,0,0,0,0,0,0,-1,1546,1240,0,0
329,-216,0,0,0,0,0,0,0,0,0,-1,1553,1240,0,0
336,-216,0,0,0,0,0,0,0,0,0,-1,1560,1240,0,0
343,-216,0,0,0,0,0,0,0,0,0,-1,1567,1240,0,0
350,-216,0,0,0,0,0,0,0,0,0,-1,1574,1240,0,0
357,-216,0,0,0,0,0,0,0,0,0,-1,1581,1240,0,0
364,-216,0,0,0,0,0,0,0,0,0,-1,1588,1240,0,0
371,-216,0,0,0,0,0,0,0,0,0,-1,1595,1240,0,0
378,-216,0,0,0,0,0,0,0,0,0,-1,1602,1240,0,0
385,-216,0,0,0,0,0,0,0,0,0,-1,1609,1240,0,0
392,-216,0,0,0,0,0,0,0,0,0,-1,1616,1240,0,0
399,-216,0,0,0,0,0,0,0,0,0,-1,1623,1240,0,0
406,-216,0,0,0,0,0,0,0,0,0,-1,1630,1240,0,0
413,-216,0,0,0,0,0,0,0,0,0,-1,1637,1240,0,0
420,-216,0,0,0,0,0,0,0,0,0,-1,1644,1240,0,0
427,-216,0,0,0,0,0,0,0,0,0,-1,1651,1240,0,0
434,-216,0,0,0,0,0,0,0,0,0,-1,1658,1240,0,0
441,-216,0,0,0,0,0,0,0,0,0,-1,1665,1240,0,0
448,-216,0,0,0,0,0,0,0,0,0,-1,1672,1240,0,0
455,-216,0,0,0,0,0,0,0,0,0,-1,1679,1240,0,0
462,-216,0,0,0,0,0,0,0,0,0,-1,1686,1240,0,0
469,-216,0,0,0,0,0,0,0,0,0,-1,1693,1240,0,0
476,-216,0,0,0,0,0,0,0,0,0,-1,1700,1240,0,0
483,-216,0,0,0,0,0,0,0,0,0,-1,1707,1240,0,0
490,-216,0,0,0,0,0,0,0,0,0,-1,1714,1240,0,0
497,-216,0,0,0,0,0,0,0,0,0,-1,1721,1240,0,0
504,-216,0,0,0,0,0,0,0,0,0,-1,1728,1240,0,0
511,-216,0,0,0,0,0,0,0,0,0,-1,1735,1240,0,0
518,-216,0,0,0,0,0,0,0,0,0,-1,1742,1240,0,0
525,-216,0,0,0,0,0,0,0,0,0,-1,1749,1240,0,0
532,-216,0,0,0,0,0,0,0,0,0,-1,1756,1240,0,0
539,-216,0,0,0,0,0,0,0,0,0,-1,1763,1240,0,0
546,-216,0,0,0,0,0,0,0,0,0,-1,1770,1240,0,0
553,-216,0,0,0,0,0,0,0,0,0,-1,1777,1240,0,0
560,-216,0,0,0,0,0,0,0,0,0,-1,1784,1240,0,0
567,-216,0,0,0,0,0,0,0,0,0,-1,1791,1240,0,0
574,-216,0,0,0,0,0,0,0,0,0,-1,1798,1240,0,0
581,-216,0,0,0,0,0,0,0,0,0,-1,1805,1240,0,0
588,-216,0,0,0,0,0,0,0,0,0,-1,1812,1240,0,0
595,-216,0,0,0,0,0,0,0,0,0,-1,1819,1240,0,0
602,-216,0,0,0,0,0,0,0,0,0,-1,1826,1240,0,0
609,-216,0,0,0,0,0,0,0,0,0,-1,1833,1240,0,0
616,-216,0,0,0,0,0,0,0,0,0,-1,1840,1240,0,0
623,-216,53.807,2.85181,0.000455462,0.00494429,-0.00251884,0.00607359,-0.000673841,-1.14932,0.00429134,0.0376162,1847,1240,53.807,-2.85185
630,-216,53.8684,2.73523,0.00175383,0.00328127,-0.00166255,0.00434712,0.000687976,-1.00071,0.00269815,0.035807,1854,1240,53.8685,-2.73522
637,-216,53.9155,2.677,0.00286836,0.00154021,-0.000747427,0.0032041,0.00120446,-0.422191,0.00186878,0.0309941,1861,1240,53.9156,-2.67703
644,-216,53.9156,2.65295,0.00361884,-0.000104649,-1.28067e-05,0.00361889,-0.000104693,-0.00343937,0.00244823,0.0256538,1868,1240,53.9156,-2.65299
651,-216,53.9054,2.63367,0.00345774,-0.00093745,1.6117e-05,0.0034578,-0.000937509,0.0036669,0.00267308,0.0227135,1875,1240,53.9054,-2.63368
658,-216,53.9723,2.72327,0.00299838,-0.00144459,-0.000160101,0.00300414,-0.00145035,-0.0359724,0.00262344,0.0334947,1882,1240,53.9723,-2.72323
665,-216,54.1331,2.84058,0.00253366,-0.00182013,-0.000265316,0.00254977,-0.00183623,-0.06064,0.0025434,0.0459264,1889,1240,54.133,-2.84058
672,-216,54.2484,2.80701,0,0,0,0,0,0,0,-1,1896,1240,54.2484,-2.80698
679,-216,47.3159,3.82703,0,0,0,0,0,0,0,-1,1903,1240,47.316,-3.82708
686,-216,21.5172,6.19458,0,0,0,0,0,0,0,-1,1910,1240,21.5172,-6.19453
693,-216,43.0002,10.1904,0,0,0,0,0,0,0,-1,1917,1240,43.0002,-10.1904
700,-216,42.618,9.84351,0.000345635,-0.00196259,5.82409e-05,0.000347103,-0.00196406,0.0252105,0.0014391,0.039603,1924,1240,42.618,-9.84351
707,-216,42.5485,9.31995,-0.000123975,-0.00176825,4.74353e-05,-0.000122608,-0.00176962,0.0288168,0.00114107,0.0350052,1931,1240,42.5484,-9.3199
714,-216,42.5631,8.7998,-0.0002182,-0.00141094,0.000220014,-0.000178911,-0.00145023,0.176715,0.000913047,0.0145955,1938,1240,42.5632,-8.79982
721,-216,42.5833,8.32483,-0.000244665,-0.000969543,0.000534113,3.83718e-05,-0.00125258,0.487295,0.000848133,0.0139605,1945,1240,42.5832,-8.32487
728,-216,42.6194,7.85034,-0.00013425,-0.000573781,0.000951573,0.000622605,-0.00133064,0.671913,0.00115214,0.0134765,1952,1240,42.6194,-7.85029
735,-216,42.6337,7.35193,-4.80857e-05,-0.000245888,0.00150653,0.00136279,-0.00165676,0.752621,0.00174609,0.0148938,1959,1240,42.6337,-7.35191
742,-216,42.5527,6.87939,0.000248684,0.00023959,0.00200326,0.0022474,-0.00175912,0.784263,0.00231889,0.016451,1966,1240,42.5527,-6.87939
749,-216,42.5176,6.3772,0.000852562,0.000814345,0.00238574,0.00321927,-0.00155236,0.781393,0.00281038,0.0127456,1973,1240,42.5175,-6.37718
756,-216,42.4874,5.89124,0.00190745,0.00157063,0.0025314,0.00427604,-0.000797959,0.752183,0.00315054,0.0112034,1980,1240,42.4875,-5.8912
763,-216,42.4768,5.47791,0.00365367,0.00243164,0.00244303,0.00556094,0.000524371,0.662859,0.00354545,0.0199745,1987,1240,42.4768,-5.47789
770,-216,42.5961,5.08508,0.006519,0.0032584,0.00219007,0.00761896,0.00215844,0.465442,0.00453443,0.0431103,1994,1240,42.5961,-5.08514
777,-216,42.7911,4.6554,0,0,0,0,0,0,0,-1,2001,1240,42.7911,-4.65534
784,-216,51.8208,-0.443726,0,0,0,0,0,0,0,-1,2008,1240,51.8208,0.443779
791,-216,55.1682,1.76636,0,0,0,0,0,0,0,-1,2015,1240,55.1682,-1.76635
798,-216,0,0,0,0,0,0,0,0,0,-1,2022,1240,0,0
805,-216,0,0,0,0,0,0,0,0,0,-1,2029,1240,0,0
812,-216,0,0,0,0,0,0,0,0,0,-1,2036,1240,0,0
-700,-223,0,0,0,0,0,0,0,0,0,-1,524,1247,0,0
-693,-223,0,0,0,0,0,0,0,0,0,-1,531,1247,0,0
-686,-223,0,0,0,0,0,0,0,0,0,-1,538,1247,0,0
-679,-223,0,0,0,0,0,0,0,0,0,-1,545,1247,0,0
-672,-223,-36.3121,-6.3241,-0.0250797,0.10506,0.105463,0.163912,-0.0839315,1.06181,0.145555,0.0439055,552,1247,-36.3121,6.32408
-665,-223,-36.6071,-5.38843,-0.0222348,0.0878755,0.0956871,0.143216,-0.0775748,1.04645,0.129338,0.0450737,559,1247,-36.6071,5.38841
-658,-223,-37.1027,-4.66931,-0.0186454,0.072366,0.0840803,0.122465,-0.0687444,1.03344,0.111838,0.0434067,566,1247,-37.1027,4.66927
-651,-223,-37.8372,-3.80518,-0.0150276,0.0585044,0.0718932,0.102487,-0.0590104,1.02176,0.0943602,0.046354,573,1247,-37.8371,3.80516
-644,-223,-38.563,-3.12415,0,0,0,0,0,0,0,-1,580,1247,-38.563,3.12416
-637,-223,-37.1149,-1.51843,0,0,0,0,0,0,0,-1,587,1247,-37.1149,1.51847
-630,-223,-27.7271,2.62793,0,0,0,0,0,0,0,-1,594,1247,-27.7271,-2.62796
-623,-223,-27.7693,3.35706,-0.00377228,0.018173,0.0269885,0.0363342,-0.0219335,0.978475,0.0339816,0.025281,601,1247,-27.7693,-3.35703
-616,-223,-27.7711,3.88025,-0.0019623,0.0112791,0.0179762,0.0238151,-0.0144982,0.961842,0.0223371,0.0164599,608,1247,-27.7711,-3.88024
-609,-223,-27.7629,4.40759,0.000170845,0.00527223,0.0103098,0.0133422,-0.00789915,0.906665,0.0123972,0.0125983,615,1247,-27.7629,-4.40761
-602,-223,-27.7795,4.92554,0.00129343,0.00209941,0.00462584,0.00633978,-0.00294694,0.828847,0.00547967,0.0154355,622,1247,-27.7795,-4.92549
-595,-223,-27.7789,5.47156,0.0018269,0.000476667,0.0009363,0.0023061,-2.53052e-06,0.473042,0.00153824,0.0211394,629,1247,-27.7789,-5.4715
-588,-223,-27.8236,6.03198,0.00168748,8.61918e-05,-2.51276e-05,0.00168787,8.57976e-05,-0.015687,0.00109777,0.0237237,636,1247,-27.8236,-6.03203
-581,-223,-27.8964,6.60278,0.0014678,-0.000283264,-0.00022872,0.00149718,-0.000312646,-0.127763,0.00111701,0.0230844,643,1247,-27.8964,-6.60282
-574,-223,-27.8916,7.11743,0.00123663,-0.000621414,-0.000327147,0.00129255,-0.000677332,-0.169291,0.00115565,0.0290442,650,1247,-27.8916,-7.11738
-567,-223,-27.8235,7.75281,0.0013521,-0.00123084,-0.00065034,0.00150661,-0.00138534,-0.233248,0.00167016,0.0438413,657,1247,-27.8235,-7.75282
-560,-223,-27.974,8.38428,0,0,0,0,0,0,0,-1,664,1247,-27.974,-8.38425
-553,-223,-11.4025,4.14722,0,0,0,0,0,0,0,-1,671,1247,-11.4025,-4.14719
-546,-223,-26.9034,-0.148682,0,0,0,0,0,0,0,-1,678,1247,-26.9034,0.14867
-539,-223,-36.7405,0.35376,0,0,0,0,0,0,0,-1,685,1247,-36.7405,-0.353807
-532,-223,-39.1525,0.761719,0,0,0,0,0,0,0,-1,692,1247,-39.1525,-0.761714
-525,-223,-39.9277,0.778076,0,0,0,0,0,0,0,-1,699,1247,-39.9277,-0.778072
-518,-223,-40.1148,0.881714,0,0,0,0,0,0,0,-1,706,1247,-40.1148,-0.88168
-511,-223,-40.254,0.918945,-0.00983666,-0.00687969,0.00372806,-0.00434765,-0.0123687,0.974177,0.00724529,0.0401597,713,1247,-40.2541,-0.918991
-504,-223,-40.3497,1.04321,-0.00779083,-0.00915696,0.00517544,-0.00325358,-0.0136942,0.719786,0.00826135,0.039113,720,1247,-40.3498,-1.04322
-497,-223,0,0,0,0,0,0,0,0,0,-1,727,1247,0,0
-490,-223,0,0,0,0,0,0,0,0,0,-1,734,1247,0,0
-483,-223,0,0,0,0,0,0,0,0,0,-1,741,1247,0,0
-476,-223,0,0,0,0,0,0,0,0,0,-1,748,1247,0,0
-469,-223,0,0,0,0,0,0,0,0,0,-1,755,1247,0,0
-462,-223,0,0,0,0,0,0,0,0,0,-1,762,1247,0,0
-455,-223,0,0,0,0,0,0,0,0,0,-1,769,1247,0,0
-448,-223,0,0,0,0,0,0,0,0,0,-1,776,1247,0,0
-441,-223,0,0,0,0,0,0,0,0,0,-1,783,1247,0,0
-434,-223,0,0,0,0,0,0,0,0,0,-1,790,1247,0,0
-427,-223,0,0,0,0,0,0,0,0,0,-1,797,1247,0,0
-420,-223,0,0,0,0,0,0,0,0,0,-1,804,1247,0,0
-413,-223,0,0,0,0,0,0,0,0,0,-1,811,1247,0,0
-406,-223,0,0,0,0,0,0,0,0,0,-1,818,1247,0,0
-399,-223,0,0,0,0,0,0,0,0,0,-1,825,1247,0,0
-392,-223,0,0,0,0,0,0,0,0,0,-1,832,1247,0,0
-385,-223,0,0,0,0,0,0,0,0,0,-1,839,1247,0,0
-378,-223,0,0,0,0,0,0,0,0,0,-1,846,1247,0,0
-371,-223,0,0,0,0,0,0,0,0,0,-1,853,1247,0,0
-364,-223,0,0,0,0,0,0,0,0,0,-1,860,1247,0,0
-357,-223,0,0,0,0,0,0,0,0,0,-1,867,1247,0,0
-350,-223,0,0,0,0,0,0,0,0,0,-1,874,1247,0,0
-343,-223,0,0,0,0,0,0,0,0,0,-1,881,1247,0,0
-336,-223,0,0,0,0,0,0,0,0,0,-1,888,1247,0,0
-329,-223,0,0,0,0,0,0,0,0,0,-1,895,1247,0,0
-322,-223,0,0,0,0,0,0,0,0,0,-1,902,1247,0,0
-315,-223,0,0,0,0,0,0,0,0,0,-1,909,1247,0,0
-308,-223,0,0,0,0,0,0,0,0,0,-1,916,1247,0,0
-301,-223,0,0,0,0,0,0,0,0,0,-1,923,1247,0,0
-294,-223,0,0,0,0,0,0,0,0,0,-1,930,1247,0,0
-287,-223,0,0,0,0,0,0,0,0,0,-1,937,1247,0,0
-280,-223,0,0,0,0,0,0,0,0,0,-1,944,1247,0,0
-273,-223,0,0,0,0,0,0,0,0,0,-1,951,1247,0,0
-266,-223,0,0,0,0,0,0,0,0,0,-1,958,1247,0,0
-259,-223,0,0,0,0,0,0,0,0,0,-1,965,1247,0,0
-252,-223,0,0,0,0,0,0,0,0,0,-1,972,1247,0,0
-245,-223,0,0,0,0,0,0,0,0,0,-1,979,1247,0,0
-238,-223,0,0,0,0,0,0,0,0,0,-1,986,1247,0,0
-231,-223,0,0,0,0,0,0,0,0,0,-1,993,1247,0,0
-224,-223,0,0,0,0,0,0,0,0,0,-1,1000,1247,0,0
-217,-223,0,0,0,0,0,0,0,0,0,-1,1007,1247,0,0
-210,-223,0,0,0,0,0,0,0,0,0,-1,1014,1247,0,0
-203,-223,0,0,0,0,0,0,0,0,0,-1,1021,1247,0,0
-196,-223,0,0,0,0,0,0,0,0,0,-1,1028,1247,0,0
-189,-223,0,0,0,0,0,0,0,0,0,-1,1035,1247,0,0
-182,-223,0,0,0,0,0,0,0,0,0,-1,1042,1247,0,0
-175,-223,0,0,0,0,0,0,0,0,0,-1,1049,1247,0,0
-168,-223,0,0,0,0,0,0,0,0,0,-1,1056,1247,0,0
-161,-223,0,0,0,0,0,0,0,0,0,-1,1063,1247,0,0
-154,-223,0,0,0,0,0,0,0,0,0,-1,1070,1247,0,0
-147,-223,0,0,0,0,0,0,0,0,0,-1,1077,1247,0,0
-140,-223,0,0,0,0,0,0,0,0,0,-1,1084,1247,0,0
-133,-223,0,0,0,0,0,0,0,0,0,-1,1091,1247,0,0
-126,-223,0,0,0,0,0,0,0,0,0,-1,1098,1247,0,0
-119,-223,0,0,0,0,0,0,0,0,0,-1,1105,1247,0,0
-112,-223,0,0,0,0,0,0,0,0,0,-1,1112,1247,0,0
-105,-223,0,0,0,0,0,0,0,0,0,-1,1119,1247,0,0
-98,-223,0,0,0,0,0,0,0,0,0,-1,1126,1247,0,0
-91,-223,0,0,0,0,0,0,0,0,0,-1,1133,1247,0,0
-84,-223,0,0,0,0,0,0,0,0,0,-1,1140,1247,0,0
-77,-223,0,0,0,0,0,0,0,0,0,-1,1147,1247,0,0
-70,-223,0,0,0,0,0,0,0,0,0,-1,1154,1247,0,0
-63,-223,0,0,0,0,0,0,0,0,0,-1,1161,1247,0,0
-56,-223,0,0,0,0,0,0,0,0,0,-1,1168,1247,0,0
-49,-223,0,0,0,0,0,0,0,0,0,-1,1175,1247,0,0
-42,-223,0,0,0,0,0,0,0,0,0,-1,1182,1247,0,0
-35,-223,0,0,0,0,0,0,0,0,0,-1,1189,1247,0,0
-28,-223,0,0,0,0,0,0,0,0,0,-1,1196,1247,0,0
-21,-223,0,0,0,0,0,0,0,0,0,-1,1203,1247,0,0
-14,-223,0,0,0,0,0,0,0,0,0,-1,1210,1247,0,0
-7,-223,0,0,0,0,0,0,0,0,0,-1,1217,1247,0,0
0,-223,0,0,0,0,0,0,0,0,0,-1,1224,1247,0,0
7,-223,0,0,0,0,0,0,0,0,0,-1,1231,1247,0,0
14,-223,0,0,0,0,0,0,0,0,0,-1,1238,1247,0,0
21,-223,0,0,0,0,0,0,0,0,0,-1,1245,1247,0,0
28,-223,0,0,0,0,0,0,0,0,0,-1,1252,1247,0,0
35,-223,0,0,0,0,0,0,0,0,0,-1,1259,1247,0,0
42,-223,0,0,0,0,0,0,0,0,0,-1,1266,1247,0,0
49,-223,0,0,0,0,0,0,0,0,0,-1,1273,1247,0,0
56,-223,0,0,0,0,0,0,0,0,0,-1,1280,1247,0,0
63,-223,0,0,0,0,0,0,0,0,0,-1,1287,1247,0,0
70,-223,0,0,0,0,0,0,0,0,0,-1,1294,1247,0,0
77,-223,0,0,0,0,0,0,0,0,0,-1,1301,1247,0,0
84,-223,0,0,0,0,0,0,0,0,0,-1,1308,1247,0,0
91,-223,0,0,0,0,0,0,0,0,0,-1,1315,1247,0,0
98,-223,0,0,0,0,0,0,0,0,0,-1,1322,1247,0,0
105,-223,0,0,0,0,0,0,0,0,0,-1,1329,1247,0,0
112,-223,0,0,0,0,0,0,0,0,0,-1,1336,1247,0,0
119,-223,0,0,0,0,0,0,0,0,0,-1,1343,1247,0,0
126,-223,0,0,0,0,0,0,0,0,0,-1,1350,1247,0,0
133,-223,0,0,0,0,0,0,0,0,0,-1,1357,1247,0,0
140,-223,0,0,0,0,0,0,0,0,0,-1,1364,1247,0,0
147,-223,0,0,0,0,0,0,0,0,0,-1,1371,1247,0,0
154,-223,0,0,0,0,0,0,0,0,0,-1,1378,1247,0,0
161,-223,0,0,0,0,0,0,0,0,0,-1,1385,1247,0,0
168,-223,0,0,0,0,0,0,0,0,0,-1,1392,1247,0,0
175,-223,0,0,0,0,0,0,0,0,0,-1,1399,1247,0,0
182,-223,0,0,0,0,0,0,0,0,0,-1,1406,1247,0,0
189,-223,0,0,0,0,0,0,0,0,0,-1,1413,1247,0,0
196,-223,0,0,0,0,0,0,0,0,0,-1,1420,1247,0,0
203,-223,0,0,0,0,0,0,0,0,0,-1,1427,1247,0,0
210,-223,0,0,0,0,0,0,0,0,0,-1,1434,1247,0,0
217,-223,0,0,0,0,0,0,0,0,0,-1,1441,1247,0,0
224,-223,0,0,0,0,0,0,0,0,0,-1,1448,1247,0,0
231,-223,0,0,0,0,0,0,0,0,0,-1,1455,1247,0,0
238,-223,0,0,0,0,0,0,0,0,0,-1,1462,1247,0,0
245,-223,0,0,0,0,0,0,0,0,0,-1,1469,1247,0,0
252,-223,0,0,0,0,0,0,0,0,0,-1,1476,1247,0,0
259,-223,0,0,0,0,0,0,0,0,0,-1,1483,1247,0,0
266,-223,0,0,0,0,0,0,0,0,0,-1,1490,1247,0,0
273,-223,0,0,0,0,0,0,0,0,0,-1,1497,1247,0,0
280,-223,0,0,0,0,0,0,0,0,0,-1,1504,1247,0,0
287,-223,0,0,0,0,0,0,0,0,0,-1,1511,1247,0,0
294,-223,0,0,0,0,0,0,0,0,0,-1,1518,1247,0,0
301,-223,0,0,0,0,0,0,0,0,0,-1,1525,1247,0,0
308,-223,0,0,0,0,0,0,0,0,0,-1,1532,1247,0,0
315,-223,0,0,0,0,0,0,0,0,0,-1,1539,1247,0,0
322,-223,0,0,0,0,0,0,0,0,0,-1,1546,1247,0,0
329,-223,0,0,0,0,0,0,0,0,0,-1,1553,1247,0,0
336,-223,0,0,0,0,0,0,0,0,0,-1,1560,1247,0,0
343,-223,0,0,0,0,0,0,0,0,0,-1,1567,1247,0,0
350,-223,0,0,0,0,0,0,0,0,0,-1,1574,1247,0,0
357,-223,0,0,0,0,0,0,0,0,0,-1,1581,1247,0,0
364,-223,0,0,0,0,0,0,0,0,0,-1,1588,1247,0,0
371,-223,0,0,0,0,0,0,0,0,0,-1,1595,1247,0,0
378,-223,0,0,0,0,0,0,0,0,0,-1,1602,1247,0,0
385,-223,0,0,0,0,0,0,0,0,0,-1,1609,1247,0,0
392,-223,0,0,0,0,0,0,0,0,0,-1,1616,1247,0,0
399,-223,0,0,0,0,0,0,0,0,0,-1,1623,1247,0,0
406,-223,0,0,0,0,0,0,0,0,0,-1,1630,1247,0,0
413,-223,0,0,0,0,0,0,0,0,0,-1,1637,1247,0,0
420,-223,0,0,0,0,0,0,0,0,0,-1,1644,1247,0,0
427,-223,0,0,0,0,0,0,0,0,0,-1,1651,1247,0,0
434,-223,0,0,0,0,0,0,0,0,0,-1,1658,1247,0,0
441,-223,0,0,0,0,0,0,0,0,0,-1,1665,1247,0,0
448,-223,0,0,0,0,0,0,0,0,0,-1,1672,1247,0,0
455,-223,0,0,0,0,0,0,0,0,0,-1,1679,1247,0,0
462,-223,0,0,0,0,0,0,0,0,0,-1,1686,1247,0,0
469,-223,0,0,0,0,0,0,0,0,0,-1,1693,1247,0,0
476,-223,0,0,0,0,0,0,0,0,0,-1,1700,1247,0,0
483,-223,0,0,0,0,0,0,0,0,0,-1,1707,1247,0,0
490,-223,0,0,0,0,0,0,0,0,0,-1,1714,1247,0,0
497,-223,0,0,0,0,0,0,0,0,0,-1,1721,1247,0,0
504,-223,0,0,0,0,0,0,0,0,0,-1,1728,1247,0,0
511,-223,0,0,0,0,0,0,0,0,0,-1,1735,1247,0,0
518,-223,0,0,0,0,0,0,0,0,0,-1,1742,1247,0,0
525,-223,0,0,0,0,0,0,0,0,0,-1,1749,1247,0,0
532,-223,0,0,0,0,0,0,0,0,0,-1,1756,1247,0,0
539,-223,0,0,0,0,0,0,0,0,0,-1,1763,1247,0,0
546,-223,0,0,0,0,0,0,0,0,0,-1,1770,1247,0,0
553,-223,0,0,0,0,0,0,0,0,0,-1,1777,1247,0,0
560,-223,0,0,0,0,0,0,0,0,0,-1,1784,1247,0,0
567,-223,0,0,0,0,0,0,0,0,0,-1,1791,1247,0,0
574,-223,0,0,0,0,0,0,0,0,0,-1,1798,1247,0,0
581,-223,0,0,0,0,0,0,0,0,0,-1,1805,1247,0,0
588,-223,0,0,0,0,0,0,0,0,0,-1,1812,1247,0,0
595,-223,0,0,0,0,0,0,0,0,0,-1,1819,1247,0,0
602,-223,0,0,0,0,0,0,0,0,0,-1,1826,1247,0,0
609,-223,0,0,0,0,0,0,0,0,0,-1,1833,1247,0,0
616,-223,0,0,0,0,0,0,0,0,0,-1,1840,1247,0,0
623,-223,53.764,2.85437,0.000170442,0.00518901,-0.00180499,0.00577076,-0.000411307,-1.25901,0.00399134,0.0403988,1847,1247,53.7641,-2.85439
630,-223,53.8231,2.72009,0.00201906,0.00349207,-0.000787407,0.00383374,0.0016774,-1.1614,0.00221916,0.038125,1854,1247,53.8231,-2.72012
637,-223,53.9358,2.62292,0.00365068,0.00155095,0.000242608,0.00367835,0.00152328,0.113549,0.00213411,0.0296658,1861,1247,53.9358,-2.62295
644,-223,53.9343,2.63721,0.00452054,-9.05633e-05,0.000786787,0.00465109,-0.000221116,0.164433,0.003177,0.0221538,1868,1247,53.9344,-2.63717
651,-223,53.8853,2.62976,0.0041482,-0.000792195,0.000581669,0.00421576,-0.000859756,0.115631,0.00313662,0.0292596,1875,1247,53.8853,-2.62972
658,-223,53.901,2.6499,0,0,0,0,0,0,0,-1,1882,1247,53.901,-2.64991
665,-223,54.2578,3.01563,0,0,0,0,0,0,0,-1,1889,1247,54.2578,-3.01567
672,-223,53.1495,3.479,0,0,0,0,0,0,0,-1,1896,1247,53.1495,-3.47897
679,-223,43.2783,2.46973,0,0,0,0,0,0,0,-1,1903,1247,43.2784,-2.46978
686,-223,40.7926,10.0316,0,0,0,0,0,0,0,-1,1910,1247,40.7926,-10.0316
693,-223,42.5983,10.0763,0,0,0,0,0,0,0,-1,1917,1247,42.5982,-10.0763
700,-223,42.2573,9.72913,0.000461575,-0.00210248,0.000111315,0.000466399,-0.0021073,0.0433051,0.0015834,0.0292554,1924,1247,42.2574,-9.72909
707,-223,42.1232,9.28442,-9.36692e-05,-0.0018959,-1.79616e-05,-9.34903e-05,-0.00189608,-0.00996499,0.00123407,0.024144,1931,1247,42.1231,-9.28438
714,-223,42.1029,8.8291,-0.000269684,-0.00147407,0.000257179,-0.000217066,-0.00152669,0.201811,0.000953709,0.0120212,1938,1247,42.1029,-8.82914
721,-223,42.0999,8.34656,-0.000393023,-0.00100104,0.00070378,6.96012e-05,-0.00146367,0.581519,0.000999787,0.0151632,1945,1247,42.0999,-8.34661
728,-223,42.0869,7.86121,-0.000417787,-0.000609573,0.00123164,0.00072169,-0.00174905,0.746548,0.00146701,0.0188815,1952,1247,42.0869,-7.86115
735,-223,42.0688,7.38794,-0.000453576,-0.000311279,0.001861,0.00147994,-0.00224479,0.804505,0.00216553,0.0183571,1959,1247,42.0689,-7.38798
742,-223,42.0052,6.93176,-0.000287945,8.9485e-05,0.00241907,0.00232719,-0.00252565,0.824325,0.00280257,0.0163115,1966,1247,42.0053,-6.93172
749,-223,42.0005,6.38831,0.000197702,0.00058814,0.00284592,0.00324553,-0.00245969,0.819642,0.00330431,0.0132029,1973,1247,42.0005,-6.3883
756,-223,41.96,5.88708,0.00114007,0.00129771,0.00300786,0.00422779,-0.00179001,0.798497,0.00356814,0.0148501,1980,1247,41.9599,-5.88706
763,-223,41.9579,5.48364,0.00283354,0.00215196,0.00289805,0.00541077,-0.00042527,0.72687,0.00375697,0.0215054,1987,1247,41.9579,-5.48364
770,-223,42.1571,5.02271,0.00574691,0.00307565,0.00253748,0.0072788,0.00154376,0.543142,0.00442857,0.0475738,1994,1247,42.1571,-5.02265
777,-223,42.3584,4.52283,0,0,0,0,0,0,0,-1,2001,1247,42.3583,-4.52281
784,-223,54.1208,-0.293457,0,0,0,0,0,0,0,-1,2008,1247,54.1208,0.293477
791,-223,34.7136,2.92554,0,0,0,0,0,0,0,-1,2015,1247,34.7137,-2.92555
798,-223,0,0,0,0,0,0,0,0,0,-1,2022,1247,0,0
805,-223,0,0,0,0,0,0,0,0,0,-1,2029,1247,0,0
812,-223,0,0,0,0,0,0,0,0,0,-1,2036,1247,0,0
-700,-230,0,0,0,0,0,0,0,0,0,-1,524,1254,0,0
-693,-230,0,0,0,0,0,0,0,0,0,-1,531,1254,0,0
-686,-230,0,0,0,0,0,0,0,0,0,-1,538,1254,0,0
-679,-230,0,0,0,0,0,0,0,0,0,-1,545,1254,0,0
-672,-230,-36.7396,-6.88159,-0.0279034,0.101943,0.107104,0.162265,-0.0882251,1.05787,0.146711,0.0447962,552,1254,-36.7396,6.88156
-665,-230,-36.98,-5.95239,-0.0243288,0.0842219,0.0980725,0.142036,-0.0821428,1.03813,0.13096,0.0454338,559,1254,-36.98,5.95234
-658,-230,-37.2108,-4.99768,0,0,0,0,0,0,0,-1,566,1254,-37.2108,4.99765
-651,-230,-38.0474,-4.27551,-0.0160562,0.0553014,0.0744934,0.102219,-0.0629742,1.00873,0.0962676,0.0437742,573,1254,-38.0474,4.27548
-644,-230,-38.1219,-3.04126,-0.0123572,0.0436212,0.0622979,0.0839286,-0.0526646,0.996526,0.0795477,0.0495004,580,1254,-38.1219,3.04128
-637,-230,-38.0911,-1.91528,-0.00909835,0.0335355,0.0505138,0.067046,-0.0426089,0.985063,0.0638312,0.048595,587,1254,-38.0911,1.91533
-630,-230,-27.2853,2.53967,0,0,0,0,0,0,0,-1,594,1254,-27.2853,-2.53972
-623,-230,-27.2675,3.26978,-0.00409174,0.0175448,0.0291941,0.0378606,-0.0244075,0.962836,0.0362291,0.0305159,601,1254,-27.2675,-3.26972
-616,-230,-27.2333,3.88416,-0.00224796,0.0110277,0.0200696,0.0255287,-0.0167489,0.945106,0.0245838,0.0166505,608,1254,-27.2333,-3.88413
-609,-230,-27.2058,4.43945,1.39169e-05,0.00521612,0.0122297,0.0151183,-0.00988826,0.89018,0.0145424,0.0127264,615,1254,-27.2058,-4.43946
-602,-230,-27.2114,4.96948,0.00130762,0.00233898,0.00629626,0.00814064,-0.00449404,0.826258,0.00739522,0.012891,622,1254,-27.2114,-4.96945
-595,-230,-27.2485,5.52576,0.00193673,0.000644915,0.00193753,0.00333318,-0.000751537,0.624509,0.00251041,0.0184463,629,1254,-27.2485,-5.5257
-588,-230,-27.2799,6.10803,0.00209014,7.17012e-05,0.000460919,0.00219041,-2.85705e-05,0.21421,0.00146989,0.0249955,636,1254,-27.2799,-6.10798
-581,-230,-27.3413,6.65833,0.00212192,-0.000464144,0.000188674,0.00213561,-0.000477837,0.0724465,0.00160688,0.0229384,643,1254,-27.3413,-6.65834
-574,-230,-27.2682,7.11658,0.00193966,-0.000860437,0.000119214,0.00194473,-0.000865503,0.0424726,0.00166189,0.0238993,650,1254,-27.2682,-7.11657
-567,-230,-27.195,7.63367,0.00196027,-0.00146322,-0.000203326,0.0019723,-0.00147525,-0.0591146,0.00199733,0.039098,657,1254,-27.195,-7.63365
-560,-230,-27.2132,8.11304,0,0,0,0,0,0,0,-1,664,1254,-27.2132,-8.11302
-553,-230,-13.1939,4.9718,0,0,0,0,0,0,0,-1,671,1254,-13.1939,-4.97175
-546,-230,-15.23,0.453979,0,0,0,0,0,0,0,-1,678,1254,-15.23,-0.453996
-539,-230,-25.8232,0.512817,0,0,0,0,0,0,0,-1,685,1254,-25.8232,-0.512878
-532,-230,-21.1644,1.52966,0,0,0,0,0,0,0,-1,692,1254,-21.1644,-1.52969
-525,-230,-29.4775,0.731445,0,0,0,0,0,0,0,-1,699,1254,-29.4775,-0.731432
-518,-230,-39.8776,0.649902,0,0,0,0,0,0,0,-1,706,1254,-39.8776,-0.649959
-511,-230,-40.1907,0.834351,-0.0126283,-0.00698071,0.00564955,-0.00348855,-0.0161204,1.01715,0.00979346,0.0407569,713,1254,-40.1906,-0.834398
-504,-230,-40.3173,0.993896,-0.0145561,-0.00874963,0.00767357,-0.00344843,-0.0198573,0.966246,0.0122515,0.0379851,720,1254,-40.3173,-0.993889
-497,-230,0,0,0,0,0,0,0,0,0,-1,727,1254,0,0
-490,-230,0,0,0,0,0,0,0,0,0,-1,734,1254,0,0
-483,-230,0,0,0,0,0,0,0,0,0,-1,741,1254,0,0
-476,-230,0,0,0,0,0,0,0,0,0,-1,748,1254,0,0
-469,-230,0,0,0,0,0,0,0,0,0,-1,755,1254,0,0
-462,-230,0,0,0,0,0,0,0,0,0,-1,762,1254,0,0
-455,-230,0,0,0,0,0,0,0,0,0,-1,769,1254,0,0
-448,-230,0,0,0,0,0,0,0,0,0,-1,776,1254,0,0
-441,-230,0,0,0,0,0,0,0,0,0,-1,783,1254,0,0
-434,-230,0,0,0,0,0,0,0,0,0,-1,790,1254,0,0
-427,-230,0,0,0,0,0,0,0,0,0,-1,797,1254,0,0
-420,-230,0,0,0,0,0,0,0,0,0,-1,804,1254,0,0
-413,-230,0,0,0,0,0,0,0,0,0,-1,811,1254,0,0
-406,-230,0,0,0,0,0,0,0,0,0,-1,818,1254,0,0
-399,-230,0,0,0,0,0,0,0,0,0,-1,825,1254,0,0
-392,-230,0,0,0,0,0,0,0,0,0,-1,832,1254,0,0
-385,-230,0,0,0,0,0,0,0,0,0,-1,839,1254,0,0
-378,-230,0,0,0,0,0,0,0,0,0,-1,846,1254,0,0
-371,-230,0,0,0,0,0,0,0,0,0,-1,853,1254,0,0
-364,-230,0,0,0,0,0,0,0,0,0,-1,860,1254,0,0
-357,-230,0,0,0,0,0,0,0,0,0,-1,867,1254,0,0
-350,-230,0,0,0,0,0,0,0,0,0,-1,874,1254,0,0
-343,-230,0,0,0,0,0,0,0,0,0,-1,881,1254,0,0
-336,-230,0,0,0,0,0,0,0,0,0,-1,888,1254,0,0
-329,-230,0,0,0,0,0,0,0,0,0,-1,895,1254,0,0
-322,-230,0,0,0,0,0,0,0,0,0,-1,902,1254,0,0
-315,-230,0,0,0,0,0,0,0,0,0,-1,909,1254,0,0
-308,-230,0,0,0,0,0,0,0,0,0,-1,916,1254,0,0
-301,-230,0,0,0,0,0,0,0,0,0,-1,923,1254,0,0
-294,-230,0,0,0,0,0,0,0,0,0,-1,930,1254,0,0
-287,-230,0,0,0,0,0,0,0,0,0,-1,937,1254,0,0
-280,-230,0,0,0,0,0,0,0,0,0,-1,944,1254,0,0
-273,-230,0,0,0,0,0,0,0,0,0,-1,951,1254,0,0
-266,-230,0,0,0,0,0,0,0,0,0,-1,958,1254,0,0
-259,-230,0,0,0,0,0,0,0,0,0,-1,965,1254,0,0
-252,-230,0,0,0,0,0,0,0,0,0,-1,972,1254,0,0
-245,-230,0,0,0,0,0,0,0,0,0,-1,979,1254,0,0
-238,-230,0,0,0,0,0,0,0,0,0,-1,986,1254,0,0
-231,-230,0,0,0,0,0,0,0,0,0,-1,993,1254,0,0
-224,-230,0,0,0,0,0,0,0,0,0,-1,1000,1254,0,0
-217,-230,0,0,0,0,0,0,0,0,0,-1,1007,1254,0,0
-210,-230,0,0,0,0,0,0,0,0,0,-1,1014,1254,0,0
-203,-230,0,0,0,0,0,0,0,0,0,-1,1021,1254,0,0
-196,-230,0,0,0,0,0,0,0,0,0,-1,1028,1254,0,0
-189,-230,0,0,0,0,0,0,0,0,0,-1,1035,1254,0,0
-182,-230,0,0,0,0,0,0,0,0,0,-1,1042,1254,0,0
-175,-230,0,0,0,0,0,0,0,0,0,-1,1049,1254,0,0
-168,-230,0,0,0,0,0,0,0,0,0,-1,1056,1254,0,0
-161,-230,0,0,0,0,0,0,0,0,0,-1,1063,1254,0,0
-154,-230,0,0,0,0,0,0,0,0,0,-1,1070,1254,0,0
-147,-230,0,0,0,0,0,0,0,0,0,-1,1077,1254,0,0
-140,-230,0,0,0,0,0,0,0,0,0,-1,1084,1254,0,0
-133,-230,0,0,0,0,0,0,0,0,0,-1,1091,1254,0,0
-126,-230,0,0,0,0,0,0,0,0,0,-1,1098,1254,0,0
-119,-230,0,0,0,0,0,0,0,0,0,-1,1105,1254,0,0
-112,-230,0,0,0,0,0,0,0,0,0,-1,1112,1254,0,0
-105,-230,0,0,0,0,0,0,0,0,0,-1,1119,1254,0,0
-98,-230,0,0,0,0,0,0,0,0,0,-1,1126,1254,0,0
-91,-230,0,0,0,0,0,0,0,0,0,-1,1133,1254,0,0
-84,-230,0,0,0,0,0,0,0,0,0,-1,1140,1254,0,0
-77,-230,0,0,0,0,0,0,0,0,0,-1,1147,1254,0,0
-70,-230,0,0,0,0,0,0,0,0,0,-1,1154,1254,0,0
-63,-230,0,0,0,0,0,0,0,0,0,-1,1161,1254,0,0
-56,-230,0,0,0,0,0,0,0,0,0,-1,1168,1254,0,0
-49,-230,0,0,0,0,0,0,0,0,0,-1,1175,1254,0,0
-42,-230,0,0,0,0,0,0,0,0,0,-1,1182,1254,0,0
-35,-230,0,0,0,0,0,0,0,0,0,-1,1189,1254,0,0
-28,-230,0,0,0,0,0,0,0,0,0,-1,1196,1254,0,0
-21,-230,0,0,0,0,0,0,0,0,0,-1,1203,1254,0,0
-14,-230,0,0,0,0,0,0,0,0,0,-1,1210,1254,0,0
-7,-230,0,0,0,0,0,0,0,0,0,-1,1217,1254,0,0
0,-230,0,0,0,0,0,0,0,0,0,-1,1224,1254,0,0
7,-230,0,0,0,0,0,0,0,0,0,-1,1231,1254,0,0
14,-230,0,0,0,0,0,0,0,0,0,-1,1238,1254,0,0
21,-230,0,0,0,0,0,0,0,0,0,-1,1245,1254,0,0
28,-230,0,0,0,0,0,0,0,0,0,-1,1252,1254,0,0
35,-230,0,0,0,0,0,0,0,0,0,-1,1259,1254,0,0
42,-230,0,0,0,0,0,0,0,0,0,-1,1266,1254,0,0
49,-230,0,0,0,0,0,0,0,0,0,-1,1273,1254,0,0
56,-230,0,0,0,0,0,0,0,0,0,-1,1280,1254,0,0
63,-230,0,0,0,0,0,0,0,0,0,-1,1287,1254,0,0
70,-230,0,0,0,0,0,0,0,0,0,-1,1294,1254,0,0
77,-230,0,0,0,0,0,0,0,0,0,-1,1301,1254,0,0
84,-230,0,0,0,0,0,0,0,0,0,-1,1308,1254,0,0
91,-230,0,0,0,0,0,0,0,0,0,-1,1315,1254,0,0
98,-230,0,0,0,0,0,0,0,0,0,-1,1322,1254,0,0
105,-230,0,0,0,0,0,0,0,0,0,-1,1329,1254,0,0
112,-230,0,0,0,0,0,0,0,0,0,-1,1336,1254,0,0
119,-230,0,0,0,0,0,0,0,0,0,-1,1343,1254,0,0
126,-230,0,0,0,0,0,0,0,0,0,-1,1350,1254,0,0
133,-230,0,0,0,0,0,0,0,0,0,-1,1357,1254,0,0
140,-230,0,0,0,0,0,0,0,0,0,-1,1364,1254,0,0
147,-230,0,0,0,0,0,0,0,0,0,-1,1371,1254,0,0
154,-230,0,0,0,0,0,0,0,0,0,-1,1378,1254,0,0
161,-230,0,0,0,0,0,0,0,0,0,-1,1385,1254,0,0
168,-230,0,0,0,0,0,0,0,0,0,-1,1392,1254,0,0
175,-230,0,0,0,0,0,0,0,0,0,-1,1399,1254,0,0
182,-230,0,0,0,0,0,0,0,0,0,-1,1406,1254,0,0
189,-230,0,0,0,0,0,0,0,0,0,-1,1413,1254,0,0
196,-230,0,0,0,0,0,0,0,0,0,-1,1420,1254,0,0
203,-230,0,0,0,0,0,0,0,0,0,-1,1427,1254,0,0
210,-230,0,0,0,0,0,0,0,0,0,-1,1434,1254,0,0
217,-230,0,0,0,0,0,0,0,0,0,-1,1441,1254,0,0
224,-230,0,0,0,0,0,0,0,0,0,-1,1448,1254,0,0
231,-230,0,0,0,0,0,0,0,0,0,-1,1455,1254,0,0
238,-230,0,0,0,0,0,0,0,0,0,-1,1462,1254,0,0
245,-230,0,0,0,0,0,0,0,0,0,-1,1469,1254,0,0
252,-230,0,0,0,0,0,0,0,0,0,-1,1476,1254,0,0
259,-230,0,0,0,0,0,0,0,0,0,-1,1483,1254,0,0
266,-230,0,0,0,0,0,0,0,0,0,-1,1490,1254,0,0
273,-230,0,0,0,0,0,0,0,0,0,-1,1497,1254,0,0
280,-230,0,0,0,0,0,0,0,0,0,-1,1504,1254,0,0
287,-230,0,0,0,0,0,0,0,0,0,-1,1511,1254,0,0
294,-230,0,0,0,0,0,0,0,0,0,-1,1518,1254,0,0
301,-230,0,0,0,0,0,0,0,0,0,-1,1525,1254,0,0
308,-230,0,0,0,0,0,0,0,0,0,-1,1532,1254,0,0
315,-230,0,0,0,0,0,0,0,0,0,-1,1539,1254,0,0
322,-230,0,0,0,0,0,0,0,0,0,-1,1546,1254,0,0
329,-230,0,0,0,0,0,0,0,0,0,-1,1553,1254,0,0
336,-230,0,0,0,0,0,0,0,0,0,-1,1560,1254,0,0
343,-230,0,0,0,0,0,0,0,0,0,-1,1567,1254,0,0
350,-230,0,0,0,0,0,0,0,0,0,-1,1574,1254,0,0
357,-230,0,0,0,0,0,0,0,0,0,-1,1581,1254,0,0
364,-230,0,0,0,0,0,0,0,0,0,-1,1588,1254,0,0
371,-230,0,0,0,0,0,0,0,0,0,-1,1595,1254,0,0
378,-230,0,0,0,0,0,0,0,0,0,-1,1602,1254,0,0
385,-230,0,0,0,0,0,0,0,0,0,-1,1609,1254,0,0
392,-230,0,0,0,0,0,0,0,0,0,-1,1616,1254,0,0
399,-230,0,0,0,0,0,0,0,0,0,-1,1623,1254,0,0
406,-230,0,0,0,0,0,0,0,0,0,-1,1630,1254,0,0
413,-230,0,0,0,0,0,0,0,0,0,-1,1637,1254,0,0
420,-230,0,0,0,0,0,0,0,0,0,-1,1644,1254,0,0
427,-230,0,0,0,0,0,0,0,0,0,-1,1651,1254,0,0
434,-230,0,0,0,0,0,0,0,0,0,-1,1658,1254,0,0
441,-230,0,0,0,0,0,0,0,0,0,-1,1665,1254,0,0
448,-230,0,0,0,0,0,0,0,0,0,-1,1672,1254,0,0
455,-230,0,0,0,0,0,0,0,0,0,-1,1679,1254,0,0
462,-230,0,0,0,0,0,0,0,0,0,-1,1686,1254,0,0
469,-230,0,0,0,0,0,0,0,0,0,-1,1693,1254,0,0
476,-230,0,0,0,0,0,0,0,0,0,-1,1700,1254,0,0
483,-230,0,0,0,0,0,0,0,0,0,-1,1707,1254,0,0
490,-230,0,0,0,0,0,0,0,0,0,-1,1714,1254,0,0
497,-230,0,0,0,0,0,0,0,0,0,-1,1721,1254,0,0
504,-230,0,0,0,0,0,0,0,0,0,-1,1728,1254,0,0
511,-230,0,0,0,0,0,0,0,0,0,-1,1735,1254,0,0
518,-230,0,0,0,0,0,0,0,0,0,-1,1742,1254,0,0
525,-230,0,0,0,0,0,0,0,0,0,-1,1749,1254,0,0
532,-230,0,0,0,0,0,0,0,0,0,-1,1756,1254,0,0
539,-230,0,0,0,0,0,0,0,0,0,-1,1763,1254,0,0
546,-230,0,0,0,0,0,0,0,0,0,-1,1770,1254,0,0
553,-230,0,0,0,0,0,0,0,0,0,-1,1777,1254,0,0
560,-230,0,0,0,0,0,0,0,0,0,-1,1784,1254,0,0
567,-230,0,0,0,0,0,0,0,0,0,-1,1791,1254,0,0
574,-230,0,0,0,0,0,0,0,0,0,-1,1798,1254,0,0
581,-230,0,0,0,0,0,0,0,0,0,-1,1805,1254,0,0
588,-230,0,0,0,0,0,0,0,0,0,-1,1812,1254,0,0
595,-230,0,0,0,0,0,0,0,0,0,-1,1819,1254,0,0
602,-230,0,0,0,0,0,0,0,0,0,-1,1826,1254,0,0
609,-230,0,0,0,0,0,0,0,0,0,-1,1833,1254,0,0
616,-230,53.9435,2.77405,-0.00300291,0.00613578,-0.00227349,0.00667013,-0.00353725,-1.33995,0.00598504,0.0393025,1840,1254,53.9435,-2.77407
623,-230,53.8829,2.70044,-4.34417e-05,0.00518342,-0.00106614,0.00539252,-0.000252541,-1.37713,0.00368208,0.0393701,1847,1254,53.8829,-2.70041
630,-230,53.8948,2.64795,0.00243346,0.00358555,0.000126534,0.00359929,0.00241973,1.46268,0.00211877,0.0336884,1854,1254,53.8948,-2.64795
637,-230,53.8926,2.66907,0.0045457,0.00166349,0.0011921,0.00497486,0.00123433,0.345557,0.00299126,0.0270407,1861,1254,53.8926,-2.66912
644,-230,53.8601,2.62219,0.00531107,0.000258666,0.00144444,0.00569487,-0.000125134,0.259707,0.00383897,0.0204785,1868,1254,53.8601,-2.62217
651,-230,53.9486,2.75842,0.00469907,-0.000316845,0.00107537,0.0049199,-0.000537673,0.202535,0.00347306,0.0442305,1875,1254,53.9487,-2.7584
658,-230,54.4078,3.08728,0,0,0,0,0,0,0,-1,1882,1254,54.4079,-3.08726
665,-230,52.8065,3.01257,0,0,0,0,0,0,0,-1,1889,1254,52.8065,-3.01262
672,-230,43.0962,2.78699,0,0,0,0,0,0,0,-1,1896,1254,43.0962,-2.78698
679,-230,27.9967,2.37708,0,0,0,0,0,0,0,-1,1903,1254,27.9967,-2.3771
686,-230,40.8854,10.1788,0,0,0,0,0,0,0,-1,1910,1254,40.8853,-10.1788
693,-230,41.8501,10.3674,0,0,0,0,0,0,0,-1,1917,1254,41.8502,-10.3674
700,-230,41.7069,9.85815,0.000608854,-0.00207516,0.000177805,0.000620581,-0.00208689,0.0658623,0.00163779,0.0279298,1924,1254,41.7069,-9.85811
707,-230,41.624,9.3606,-4.31471e-05,-0.0018725,-7.92684e-05,-3.97186e-05,-0.00187593,-0.0432233,0.00123759,0.013812,1931,1254,41.624,-9.36057
714,-230,41.5886,8.86523,-0.000390532,-0.00143473,0.000310935,-0.000304957,-0.00152031,0.268569,0.000928729,0.0133078,1938,1254,41.5887,-8.86521
721,-230,41.5802,8.36987,-0.000671001,-0.000983946,0.000888829,7.50233e-05,-0.00172997,0.698269,0.00117912,0.013347,1945,1254,41.5802,-8.36985
728,-230,41.5428,7.91028,-0.000875572,-0.000662369,0.00151858,0.000753345,-0.00229129,0.82044,0.00183105,0.0149574,1952,1254,41.5429,-7.91032
735,-230,41.5203,7.43677,-0.00107798,-0.000435897,0.00221057,0.00147682,-0.0029907,0.857509,0.00262823,0.0151518,1959,1254,41.5203,-7.43678
742,-230,41.5018,6.92139,-0.00109162,-0.000136283,0.00282175,0.00224794,-0.00347584,0.869244,0.00332988,0.0113779,1966,1254,41.5018,-6.92134
749,-230,41.506,6.38489,-0.000780366,0.000269958,0.00328881,0.00307527,-0.00358568,0.864571,0.00384946,0.0112566,1973,1254,41.506,-6.38484
756,-230,41.4801,5.89954,-1.92672e-05,0.000884305,0.00347475,0.00393652,-0.00307148,0.850045,0.00405633,0.0167338,1980,1254,41.4801,-5.89959
763,-230,41.5157,5.3822,0.0015497,0.00164029,0.00335518,0.00495048,-0.00176048,0.792148,0.00401784,0.0362911,1987,1254,41.5158,-5.38217
770,-230,41.7983,4.93823,0,0,0,0,0,0,0,-1,1994,1254,41.7984,-4.93826
777,-230,41.8693,3.74707,0,0,0,0,0,0,0,-1,2001,1254,41.8692,-3.74713
784,-230,35.8896,1.80334,0,0,0,0,0,0,0,-1,2008,1254,35.8897,-1.80338
791,-230,35.6028,2.20642,0,0,0,0,0,0,0,-1,2015,1254,35.6027,-2.2064
798,-230,0,0,0,0,0,0,0,0,0,-1,2022,1254,0,0
805,-230,0,0,0,0,0,0,0,0,0,-1,2029,1254,0,0
812,-230,0,0,0,0,0,0,0,0,0,-1,2036,1254,0,0
-700,-237,0,0,0,0,0,0,0,0,0,-1,524,1261,0,0
-693,-237,0,0,0,0,0,0,0,0,0,-1,531,1261,0,0
-686,-237,0,0,0,0,0,0,0,0,0,-1,538,1261,0,0
-679,-237,0,0,0,0,0,0,0,0,0,-1,545,1261,0,0
-672,-237,-37.1815,-7.53198,-0.0277225,0.0961777,0.106085,0.157077,-0.0886216,1.04967,0.143678,0.0467831,552,1261,-37.1815,7.532
-665,-237,-37.3025,-6.58105,-0.024244,0.0781274,0.0983488,0.137813,-0.0839297,1.02534,0.129277,0.0491235,559,1261,-37.3025,6.58104
-658,-237,-38.6523,-6.31287,0,0,0,0,0,0,0,-1,566,1261,-38.6523,6.31289
-651,-237,-38.6077,-4.49817,-0.0158356,0.0501772,0.0755867,0.0996497,-0.0653081,0.991255,0.0959239,0.0449845,573,1261,-38.6077,4.49816
-644,-237,-38.6448,-2.97876,-0.0121563,0.0393795,0.06352,0.0821592,-0.0549361,0.978089,0.0796705,0.0470344,580,1261,-38.6449,2.97871
-637,-237,-38.7684,-2.22546,-0.00894411,0.0302333,0.0518158,0.0660395,-0.0447503,0.966117,0.064357,0.0484778,587,1261,-38.7684,2.22548
-630,-237,-26.5568,2.45789,0,0,0,0,0,0,0,-1,594,1261,-26.5567,-2.45793
-623,-237,-26.6019,3.22766,-0.0040719,0.0160478,0.0306428,0.0382398,-0.0262639,0.944002,0.0374546,0.0301732,601,1261,-26.6019,-3.22772
-616,-237,-26.6168,3.91577,-0.00232063,0.0100952,0.0215278,0.0262923,-0.0185177,0.925774,0.0260006,0.0138442,608,1261,-26.6168,-3.91581
-609,-237,-26.6358,4.45166,-1.87272e-05,0.00473562,0.0136566,0.0162204,-0.0115035,0.871569,0.0160834,0.0170253,615,1261,-26.6358,-4.45171
-602,-237,-26.6717,4.98047,0.00133793,0.00242041,0.00766075,0.00955902,-0.00580068,0.820665,0.00895598,0.013072,622,1261,-26.6717,-4.98047
-595,-237,-26.7208,5.54761,0.00185958,0.000829569,0.00283997,0.00423086,-0.00154171,0.695702,0.00345123,0.0148824,629,1261,-26.7208,-5.54764
-588,-237,-26.715,6.15552,0.00214747,0.000175945,0.000880868,0.0024837,-0.000160282,0.364631,0.00171173,0.0253874,636,1261,-26.715,-6.15548
-581,-237,-26.7465,6.68774,0.00241863,-0.000465855,0.000513955,0.00250747,-0.000554695,0.171164,0.00188397,0.0239549,643,1261,-26.7465,-6.68768
-574,-237,-26.7388,7.18738,0.00239984,-0.000862428,0.000502581,0.00247551,-0.0009381,0.149443,0.00203639,0.017623,650,1261,-26.7388,-7.18735
-567,-237,-26.7239,7.79382,0.00244409,-0.00141362,0.000251148,0.00246037,-0.0014299,0.0647387,0.00227216,0.0301464,657,1261,-26.7239,-7.79384
-560,-237,-26.6331,8.20728,0,0,0,0,0,0,0,-1,664,1261,-26.6331,-8.20727
-553,-237,-20.6102,6.92139,0,0,0,0,0,0,0,-1,671,1261,-20.6102,-6.92138
-546,-237,-11.192,1.14014,0,0,0,0,0,0,0,-1,678,1261,-11.192,-1.14011
-539,-237,-16.512,1.53455,0,0,0,0,0,0,0,-1,685,1261,-16.512,-1.53457
-532,-237,-29.7025,1.23621,0,0,0,0,0,0,0,-1,692,1261,-29.7025,-1.23618
-525,-237,-37.9338,0.75708,0,0,0,0,0,0,0,-1,699,1261,-37.9339,-0.757056
-518,-237,-39.676,0.662231,0,0,0,0,0,0,0,-1,706,1261,-39.6759,-0.662179
-511,-237,-40.0278,0.877808,-0.014772,-0.00754992,0.00735172,-0.00297027,-0.0193517,1.01368,0.0120338,0.0494145,713,1261,-40.0278,-0.877781
-504,-237,-40.3336,1.07568,-0.0184393,-0.00942095,0.00990329,-0.0030486,-0.0248117,0.999034,0.0156244,0.0437107,720,1261,-40.3336,-1.07567
-497,-237,-40.428,1.22302,-0.0197576,-0.0123223,0.0131056,-0.0024173,-0.0296626,0.923601,0.0190206,0.0456108,727,1261,-40.4281,-1.22304
-490,-237,0,0,0,0,0,0,0,0,0,-1,734,1261,0,0
-483,-237,0,0,0,0,0,0,0,0,0,-1,741,1261,0,0
-476,-237,0,0,0,0,0,0,0,0,0,-1,748,1261,0,0
-469,-237,0,0,0,0,0,0,0,0,0,-1,755,1261,0,0
-462,-237,0,0,0,0,0,0,0,0,0,-1,762,1261,0,0
-455,-237,0,0,0,0,0,0,0,0,0,-1,769,1261,0,0
-448,-237,0,0,0,0,0,0,0,0,0,-1,776,1261,0,0
-441,-237,0,0,0,0,0,0,0,0,0,-1,783,1261,0,0
-434,-237,0,0,0,0,0,0,0,0,0,-1,790,1261,0,0
-427,-237,0,0,0,0,0,0,0,0,0,-1,797,1261,0,0
-420,-237,0,0,0,0,0,0,0,0,0,-1,804,1261,0,0
-413,-237,0,0,0,0,0,0,0,0,0,-1,811,1261,0,0
-406,-237,0,0,0,0,0,0,0,0,0,-1,818,1261,0,0
-399,-237,0,0,0,0,0,0,0,0,0,-1,825,1261,0,0
-392,-237,0,0,0,0,0,0,0,0,0,-1,832,1261,0,0
-385,-237,0,0,0,0,0,0,0,0,0,-1,839,1261,0,0
-378,-237,0,0,0,0,0,0,0,0,0,-1,846,1261,0,0
-371,-237,0,0,0,0,0,0,0,0,0,-1,853,1261,0,0
-364,-237,0,0,0,0,0,0,0,0,0,-1,860,1261,0,0
-357,-237,0,0,0,0,0,0,0,0,0,-1,867,1261,0,0
-350,-237,0,0,0,0,0,0,0,0,0,-1,874,1261,0,0
-343,-237,0,0,0,0,0,0,0,0,0,-1,881,1261,0,0
-336,-237,0,0,0,0,0,0,0,0,0,-1,888,1261,0,0
-329,-237,0,0,0,0,0,0,0,0,0,-1,895,1261,0,0
-322,-237,0,0,0,0,0,0,0,0,0,-1,902,1261,0,0
-315,-237,0,0,0,0,0,0,0,0,0,-1,909,1261,0,0
-308,-237,0,0,0,0,0,0,0,0,0,-1,916,1261,0,0
-301,-237,0,0,0,0,0,0,0,0,0,-1,923,1261,0,0
-294,-237,0,0,0,0,0,0,0,0,0,-1,930,1261,0,0
-287,-237,0,0,0,0,0,0,0,0,0,-1,937,1261,0,0
-280,-237,0,0,0,0,0,0,0,0,0,-1,944,1261,0,0
-273,-237,0,0,0,0,0,0,0,0,0,-1,951,1261,0,0
-266,-237,0,0,0,0,0,0,0,0,0,-1,958,1261,0,0
-259,-237,0,0,0,0,0,0,0,0,0,-1,965,1261,0,0
-252,-237,0,0,0,0,0,0,0,0,0,-1,972,1261,0,0
-245,-237,0,0,0,0,0,0,0,0,0,-1,979,1261,0,0
-238,-237,0,0,0,0,0,0,0,0,0,-1,986,1261,0,0
-231,-237,0,0,0,0,0,0,0,0,0,-1,993,1261,0,0
-224,-237,0,0,0,0,0,0,0,0,0,-1,1000,1261,0,0
-217,-237,0,0,0,0,0,0,0,0,0,-1,1007,1261,0,0
-210,-237,0,0,0,0,0,0,0,0,0,-1,1014,1261,0,0
-203,-237,0,0,0,0,0,0,0,0,0,-1,1021,1261,0,0
-196,-237,0,0,0,0,0,0,0,0,0,-1,1028,1261,0,0
-189,-237,0,0,0,0,0,0,0,0,0,-1,1035,1261,0,0
-182,-237,0,0,0,0,0,0,0,0,0,-1,1042,1261,0,0
-175,-237,0,0,0,0,0,0,0,0,0,-1,1049,1261,0,0
-168,-237,0,0,0,0,0,0,0,0,0,-1,1056,1261,0,0
-161,-237,0,0,0,0,0,0,0,0,0,-1,1063,1261,0,0
-154,-237,0,0,0,0,0,0,0,0,0,-1,1070,1261,0,0
-147,-237,0,0,0,0,0,0,0,0,0,-1,1077,1261,0,0
-140,-237,0,0,0,0,0,0,0,0,0,-1,1084,1261,0,0
-133,-237,0,0,0,0,0,0,0,0,0,-1,1091,1261,0,0
-126,-237,0,0,0,0,0,0,0,0,0,-1,1098,1261,0,0
-119,-237,0,0,0,0,0,0,0,0,0,-1,1105,1261,0,0
-112,-237,0,0,0,0,0,0,0,0,0,-1,1112,1261,0,0
-105,-237,0,0,0,0,0,0,0,0,0,-1,1119,1261,0,0
-98,-237,0,0,0,0,0,0,0,0,0,-1,1126,1261,0,0
-91,-237,0,0,0,0,0,0,0,0,0,-1,1133,1261,0,0
-84,-237,0,0,0,0,0,0,0,0,0,-1,1140,1261,0,0
-77,-237,0,0,0,0,0,0,0,0,0,-1,1147,1261,0,0
-70,-237,0,0,0,0,0,0,0,0,0,-1,1154,1261,0,0
-63,-237,0,0,0,0,0,0,0,0,0,-1,1161,1261,0,0
-56,-237,0,0,0,0,0,0,0,0,0,-1,1168,1261,0,0
-49,-237,0,0,0,0,0,0,0,0,0,-1,1175,1261,0,0
-42,-237,0,0,0,0,0,0,0,0,0,-1,1182,1261,0,0
-35,-237,0,0,0,0,0,0,0,0,0,-1,1189,1261,0,0
-28,-237,0,0,0,0,0,0,0,0,0,-1,1196,1261,0,0
-21,-237,0,0,0,0,0,0,0,0,0,-1,1203,1261,0,0
-14,-237,0,0,0,0,0,0,0,0,0,-1,1210,1261,0,0
-7,-237,0,0,0,0,0,0,0,0,0,-1,1217,1261,0,0
0,-237,0,0,0,0,0,0,0,0,0,-1,1224,1261,0,0
7,-237,0,0,0,0,0,0,0,0,0,-1,1231,1261,0,0
14,-237,0,0,0,0,0,0,0,0,0,-1,1238,1261,0,0
21,-237,0,0,0,0,0,0,0,0,0,-1,1245,1261,0,0
28,-237,0,0,0,0,0,0,0,0,0,-1,1252,1261,0,0
35,-237,0,0,0,0,0,0,0,0,0,-1,1259,1261,0,0
42,-237,0,0,0,0,0,0,0,0,0,-1,1266,1261,0,0
49,-237,0,0,0,0,0,0,0,0,0,-1,1273,1261,0,0
56,-237,0,0,0,0,0,0,0,0,0,-1,1280,1261,0,0
63,-237,0,0,0,0,0,0,0,0,0,-1,1287,1261,0,0
70,-237,0,0,0,0,0,0,0,0,0,-1,1294,1261,0,0
77,-237,0,0,0,0,0,0,0,0,0,-1,1301,1261,0,0
84,-237,0,0,0,0,0,0,0,0,0,-1,1308,1261,0,0
91,-237,0,0,0,0,0,0,0,0,0,-1,1315,1261,0,0
98,-237,0,0,0,0,0,0,0,0,0,-1,1322,1261,0,0
105,-237,0,0,0,0,0,0,0,0,0,-1,1329,1261,0,0
112,-237,0,0,0,0,0,0,0,0,0,-1,1336,1261,0,0
119,-237,0,0,0,0,0,0,0,0,0,-1,1343,1261,0,0
126,-237,0,0,0,0,0,0,0,0,0,-1,1350,1261,0,0
133,-237,0,0,0,0,0,0,0,0,0,-1,1357,1261,0,0
140,-237,0,0,0,0,0,0,0,0,0,-1,1364,1261,0,0
147,-237,0,0,0,0,0,0,0,0,0,-1,1371,1261,0,0
154,-237,0,0,0,0,0,0,0,0,0,-1,1378,1261,0,0
161,-237,0,0,0,0,0,0,0,0,0,-1,1385,1261,0,0
168,-237,0,0,0,0,0,0,0,0,0,-1,1392,1261,0,0
175,-237,0,0,0,0,0,0,0,0,0,-1,1399,1261,0,0
182,-237,0,0,0,0,0,0,0,0,0,-1,1406,1261,0,0
189,-237,0,0,0,0,0,0,0,0,0,-1,1413,1261,0,0
196,-237,0,0,0,0,0,0,0,0,0,-1,1420,1261,0,0
203,-237,0,0,0,0,0,0,0,0,0,-1,1427,1261,0,0
210,-237,0,0,0,0,0,0,0,0,0,-1,1434,1261,0,0
217,-237,0,0,0,0,0,0,0,0,0,-1,1441,1261,0,0
224,-237,0,0,0,0,0,0,0,0,0,-1,1448,1261,0,0
231,-237,0,0,0,0,0,0,0,0,0,-1,1455,1261,0,0
238,-237,0,0,0,0,0,0,0,0,0,-1,1462,1261,0,0
245,-237,0,0,0,0,0,0,0,0,0,-1,1469,1261,0,0
252,-237,0,0,0,0,0,0,0,0,0,-1,1476,1261,0,0
259,-237,0,0,0,0,0,0,0,0,0,-1,1483,1261,0,0
266,-237,0,0,0,0,0,0,0,0,0,-1,1490,1261,0,0
273,-237,0,0,0,0,0,0,0,0,0,-1,1497,1261,0,0
280,-237,0,0,0,0,0,0,0,0,0,-1,1504,1261,0,0
287,-237,0,0,0,0,0,0,0,0,0,-1,1511,1261,0,0
294,-237,0,0,0,0,0,0,0,0,0,-1,1518,1261,0,0
301,-237,0,0,0,0,0,0,0,0,0,-1,1525,1261,0,0
308,-237,0,0,0,0,0,0,0,0,0,-1,1532,1261,0,0
315,-237,0,0,0,0,0,0,0,0,0,-1,1539,1261,0,0
322,-237,0,0,0,0,0,0,0,0,0,-1,1546,1261,0,0
329,-237,0,0,0,0,0,0,0,0,0,-1,1553,1261,0,0
336,-237,0,0,0,0,0,0,0,0,0,-1,1560,1261,0,0
343,-237,0,0,0,0,0,0,0,0,0,-1,1567,1261,0,0
350,-237,0,0,0,0,0,0,0,0,0,-1,1574,1261,0,0
357,-237,0,0,0,0,0,0,0,0,0,-1,1581,1261,0,0
364,-237,0,0,0,0,0,0,0,0,0,-1,1588,1261,0,0
371,-237,0,0,0,0,0,0,0,0,0,-1,1595,1261,0,0
378,-237,0,0,0,0,0,0,0,0,0,-1,1602,1261,0,0
385,-237,0,0,0,0,0,0,0,0,0,-1,1609,1261,0,0
392,-237,0,0,0,0,0,0,0,0,0,-1,1616,1261,0,0
399,-237,0,0,0,0,0,0,0,0,0,-1,1623,1261,0,0
406,-237,0,0,0,0,0,0,0,0,0,-1,1630,1261,0,0
413,-237,0,0,0,0,0,0,0,0,0,-1,1637,1261,0,0
420,-237,0,0,0,0,0,0,0,0,0,-1,1644,1261,0,0
427,-237,0,0,0,0,0,0,0,0,0,-1,1651,1261,0,0
434,-237,0,0,0,0,0,0,0,0,0,-1,1658,1261,0,0
441,-237,0,0,0,0,0,0,0,0,0,-1,1665,1261,0,0
448,-237,0,0,0,0,0,0,0,0,0,-1,1672,1261,0,0
455,-237,0,0,0,0,0,0,0,0,0,-1,1679,1261,0,0
462,-237,0,0,0,0,0,0,0,0,0,-1,1686,1261,0,0
469,-237,0,0,0,0,0,0,0,0,0,-1,1693,1261,0,0
476,-237,0,0,0,0,0,0,0,0,0,-1,1700,1261,0,0
483,-237,0,0,0,0,0,0,0,0,0,-1,1707,1261,0,0
490,-237,0,0,0,0,0,0,0,0,0,-1,1714,1261,0,0
497,-237,0,0,0,0,0,0,0,0,0,-1,1721,1261,0,0
504,-237,0,0,0,0,0,0,0,0,0,-1,1728,1261,0,0
511,-237,0,0,0,0,0,0,0,0,0,-1,1735,1261,0,0
518,-237,0,0,0,0,0,0,0,0,0,-1,1742,1261,0,0
525,-237,0,0,0,0,0,0,0,0,0,-1,1749,1261,0,0
532,-237,0,0,0,0,0,0,0,0,0,-1,1756,1261,0,0
539,-237,0,0,0,0,0,0,0,0,0,-1,1763,1261,0,0
546,-237,0,0,0,0,0,0,0,0,0,-1,1770,1261,0,0
553,-237,0,0,0,0,0,0,0,0,0,-1,1777,1261,0,0
560,-237,0,0,0,0,0,0,0,0,0,-1,1784,1261,0,0
567,-237,0,0,0,0,0,0,0,0,0,-1,1791,1261,0,0
574,-237,0,0,0,0,0,0,0,0,0,-1,1798,1261,0,0
581,-237,0,0,0,0,0,0,0,0,0,-1,1805,1261,0,0
588,-237,0,0,0,0,0,0,0,0,0,-1,1812,1261,0,0
595,-237,0,0,0,0,0,0,0,0,0,-1,1819,1261,0,0
602,-237,0,0,0,0,0,0,0,0,0,-1,1826,1261,0,0
609,-237,0,0,0,0,0,0,0,0,0,-1,1833,1261,0,0
616,-237,53.8992,2.63379,-0.00269585,0.00561754,-0.00214042,0.00613626,-0.00321457,-1.33304,0.00548584,0.0392336,1840,1261,53.8991,-2.63376
623,-237,53.891,2.62769,0.000717383,0.00503767,-0.000579177,0.00511397,0.000641086,-1.43982,0.00321698,0.0353251,1847,1261,53.891,-2.62772
630,-237,53.8893,2.67529,0.00377346,0.00376395,0.00096567,0.00473439,0.00280302,0.782935,0.0027488,0.0268935,1854,1261,53.8893,-2.67533
637,-237,53.8354,2.63647,0.00597062,0.00212364,0.00207976,0.00688001,0.00121425,0.412207,0.00424028,0.0209265,1861,1261,53.8354,-2.63643
644,-237,53.8224,2.60657,0.006229,0.00103125,0.00199378,0.00690568,0.000354559,0.3272,0.00449027,0.0395298,1868,1261,53.8224,-2.60654
651,-237,54.1301,2.7749,0.00533805,0.0004866,0.00149065,0.00575946,6.51896e-05,0.275513,0.0038181,0.0486339,1875,1261,54.1301,-2.77494
658,-237,54.5292,2.97754,0,0,0,0,0,0,0,-1,1882,1261,54.5291,-2.97753
665,-237,54.8519,3.0769,0,0,0,0,0,0,0,-1,1889,1261,54.8519,-3.07696
672,-237,45.3922,1.95618,0,0,0,0,0,0,0,-1,1896,1261,45.3922,-1.95623
679,-237,23.1501,7.37488,0,0,0,0,0,0,0,-1,1903,1261,23.1502,-7.37493
686,-237,36.8348,9.99426,0,0,0,0,0,0,0,-1,1910,1261,36.8349,-9.99424
693,-237,40.9537,10.6085,0,0,0,0,0,0,0,-1,1917,1261,40.9538,-10.6086
700,-237,41.1129,9.91711,0.000774466,-0.00179149,0.000209381,0.000791439,-0.00180847,0.0808862,0.00153886,0.0158969,1924,1261,41.1129,-9.91707
707,-237,41.1035,9.41296,7.59207e-06,-0.00158983,-0.000126052,1.74776e-05,-0.00159972,-0.0782643,0.00107235,0.0115971,1931,1261,41.1035,-9.41292
714,-237,41.0791,8.89526,-0.000522126,-0.0012261,0.000380724,-0.00035561,-0.00139262,0.412299,0.000835493,0.015236,1938,1261,41.0791,-8.89523
721,-237,41.0232,8.41504,-0.000954797,-0.000857678,0.00105945,0.000154326,-0.0019668,0.808299,0.00136555,0.0174383,1945,1261,41.0232,-8.41505
728,-237,41.0381,7.90466,-0.00133008,-0.000640467,0.00177543,0.00082333,-0.00279388,0.881309,0.00218926,0.0154691,1952,1261,41.0381,-7.90467
735,-237,41.0222,7.40857,-0.00169851,-0.000498094,0.00252022,0.0014924,-0.003689,0.902299,0.00307979,0.0192924,1959,1261,41.0222,-7.40851
742,-237,41.0254,6.91162,-0.00190092,-0.000298897,0.00317804,0.00217752,-0.00437734,0.90885,0.00385483,0.0149406,1966,1261,41.0254,-6.91162
749,-237,40.9807,6.42859,-0.00179531,1.61404e-05,0.00367854,0.00289882,-0.00467798,0.906106,0.00441448,0.0105735,1973,1261,40.9807,-6.42859
756,-237,40.9386,5.9364,-0.00127976,0.000525067,0.0038882,0.0036142,-0.0043689,0.899424,0.00461591,0.0179482,1980,1261,40.9387,-5.93641
763,-237,40.7592,5.42578,7.57809e-05,0.00117468,0.00374743,0.00441273,-0.00316227,0.858189,0.00439324,0.0357673,1987,1261,40.7592,-5.42574
770,-237,40.8798,4.67517,0.00280537,0.001973,0.00315513,0.00557165,-0.000793279,0.719823,0.00400513,0.0445002,1994,1261,40.8798,-4.6752
777,-237,41.105,3.90674,0,0,0,0,0,0,0,-1,2001,1261,41.105,-3.90676
784,-237,36.3441,1.68591,0,0,0,0,0,0,0,-1,2008,1261,36.3441,-1.68592
791,-237,32.3025,6.03235,0,0,0,0,0,0,0,-1,2015,1261,32.3025,-6.03229
798,-237,0,0,0,0,0,0,0,0,0,-1,2022,1261,0,0
805,-237,0,0,0,0,0,0,0,0,0,-1,2029,1261,0,0
812,-237,0,0,0,0,0,0,0,0,0,-1,2036,1261,0,0
-700,-244,0,0,0,0,0,0,0,0,0,-1,524,1268,0,0
-693,-244,0,0,0,0,0,0,0,0,0,-1,531,1268,0,0
-686,-244,0,0,0,0,0,0,0,0,0,-1,538,1268,0,0
-679,-244,0,0,0,0,0,0,0,0,0,-1,545,1268,0,0
-672,-244,-37.6469,-8.20923,-0.02901,0.0853327,0.0993887,0.14282,-0.0864976,1.0464,0.133721,0.0463559,552,1268,-37.6469,8.20919
-665,-244,-37.5716,-7.67517,-0.0251974,0.0672312,0.0939026,0.125676,-0.0836419,1.01407,0.121659,0.0481806,559,1268,-37.5716,7.67521
-658,-244,-39.0322,-6.03125,0,0,0,0,0,0,0,-1,566,1268,-39.0322,6.0312
-651,-244,-39.0362,-4.66296,-0.0160464,0.0413355,0.0732325,0.0912967,-0.0660076,0.972098,0.0912101,0.0446194,573,1268,-39.0362,4.6629
-644,-244,-38.9246,-3.11975,-0.0122951,0.0321048,0.0619544,0.0757165,-0.0559068,0.957435,0.0762791,0.0455691,580,1268,-38.9246,3.11979
-637,-244,-26.1888,2.07605,0,0,0,0,0,0,0,-1,587,1268,-26.1888,-2.07609
-630,-244,-26.2286,2.72473,-0.00631712,0.0183534,0.0404955,0.0483506,-0.0363144,0.933238,0.0490457,0.0445475,594,1268,-26.2286,-2.72471
-623,-244,-26.1283,3.32117,-0.00411159,0.0132606,0.0308461,0.0366202,-0.0274712,0.922642,0.0371287,0.0322452,601,1268,-26.1283,-3.32122
-616,-244,-26.0943,3.95715,-0.00236618,0.00829563,0.0220951,0.0256938,-0.0197644,0.903771,0.0263196,0.0162128,608,1268,-26.0943,-3.95717
-609,-244,-26.0887,4.46509,-7.06752e-05,0.00373902,0.0144941,0.0164529,-0.0127846,0.850735,0.0169245,0.0150827,615,1268,-26.0887,-4.46506
-602,-244,-26.1601,4.99756,0.00138712,0.00220122,0.00864338,0.0104471,-0.00685879,0.808928,0.0100629,0.0154016,622,1268,-26.1601,-4.99758
-595,-244,-26.1866,5.57813,0.00188409,0.000922856,0.00362658,0.00506176,-0.00225482,0.719519,0.00432661,0.0159328,629,1268,-26.1866,-5.57817
-588,-244,-26.1563,6.15906,0.00226193,0.000304373,0.00129056,0.00290289,-0.00033659,0.460967,0.00205666,0.0199504,636,1268,-26.1563,-6.159
-581,-244,-26.1823,6.69678,0.00272217,-0.000368659,0.000848584,0.00293982,-0.00058631,0.251075,0.00218174,0.0171991,643,1268,-26.1823,-6.69673
-574,-244,-26.2219,7.24585,0.00290132,-0.000760207,0.000906967,0.00311366,-0.00097255,0.229982,0.00246477,0.0125208,650,1268,-26.2219,-7.2458
-567,-244,-26.2049,7.80322,0.003059,-0.00117179,0.000734193,0.00318278,-0.00129557,0.167032,0.00266101,0.018113,657,1268,-26.2049,-7.80323
-560,-244,-26.1146,8.31519,0.00198579,-0.0013799,0.000473009,0.002051,-0.00144511,0.137004,0.00202856,0.0405086,664,1268,-26.1146,-8.31512
-553,-244,-25.9777,8.81958,0,0,0,0,0,0,0,-1,671,1268,-25.9776,-8.81954
-546,-244,-11.2686,4.41772,0,0,0,0,0,0,0,-1,678,1268,-11.2686,-4.41767
-539,-244,-12.8706,0.3302,0,0,0,0,0,0,0,-1,685,1268,-12.8706,-0.330156
-532,-244,-18.1502,0.816528,0,0,0,0,0,0,0,-1,692,1268,-18.1502,-0.816514
-525,-244,-33.0835,0.693604,0,0,0,0,0,0,0,-1,699,1268,-33.0835,-0.69365
-518,-244,-38.1713,0.902832,0,0,0,0,0,0,0,-1,706,1268,-38.1713,-0.902888
-511,-244,-39.9412,0.963135,0,0,0,0,0,0,0,-1,713,1268,-39.9412,-0.963126
-504,-244,-40.2606,1.09473,0,0,0,0,0,0,0,-1,720,1268,-40.2606,-1.09475
-497,-244,-40.5762,1.43079,0,0,0,0,0,0,0,-1,727,1268,-40.5762,-1.4308
-490,-244,0,0,0,0,0,0,0,0,0,-1,734,1268,0,0
-483,-244,0,0,0,0,0,0,0,0,0,-1,741,1268,0,0
-476,-244,0,0,0,0,0,0,0,0,0,-1,748,1268,0,0
-469,-244,0,0,0,0,0,0,0,0,0,-1,755,1268,0,0
-462,-244,0,0,0,0,0,0,0,0,0,-1,762,1268,0,0
-455,-244,0,0,0,0,0,0,0,0,0,-1,769,1268,0,0
-448,-244,0,0,0,0,0,0,0,0,0,-1,776,1268,0,0
-441,-244,0,0,0,0,0,0,0,0,0,-1,783,1268,0,0
-434,-244,0,0,0,0,0,0,0,0,0,-1,790,1268,0,0
-427,-244,0,0,0,0,0,0,0,0,0,-1,797,1268,0,0
-420,-244,0,0,0,0,0,0,0,0,0,-1,804,1268,0,0
-413,-244,0,0,0,0,0,0,0,0,0,-1,811,1268,0,0
-406,-244,0,0,0,0,0,0,0,0,0,-1,818,1268,0,0
-399,-244,0,0,0,0,0,0,0,0,0,-1,825,1268,0,0
-392,-244,0,0,0,0,0,0,0,0,0,-1,832,1268,0,0
-385,-244,0,0,0,0,0,0,0,0,0,-1,839,1268,0,0
-378,-244,0,0,0,0,0,0,0,0,0,-1,846,1268,0,0
-371,-244,0,0,0,0,0,0,0,0,0,-1,853,1268,0,0
-364,-244,0,0,0,0,0,0,0,0,0,-1,860,1268,0,0
-357,-244,0,0,0,0,0,0,0,0,0,-1,867,1268,0,0
-350,-244,0,0,0,0,0,0,0,0,0,-1,874,1268,0,0
-343,-244,0,0,0,0,0,0,0,0,0,-1,881,1268,0,0
-336,-244,0,0,0,0,0,0,0,0,0,-1,888,1268,0,0
-329,-244,0,0,0,0,0,0,0,0,0,-1,895,1268,0,0
-322,-244,0,0,0,0,0,0,0,0,0,-1,902,1268,0,0
-315,-244,0,0,0,0,0,0,0,0,0,-1,909,1268,0,0
-308,-244,0,0,0,0,0,0,0,0,0,-1,916,1268,0,0
-301,-244,0,0,0,0,0,0,0,0,0,-1,923,1268,0,0
-294,-244,0,0,0,0,0,0,0,0,0,-1,930,1268,0,0
-287,-244,0,0,0,0,0,0,0,0,0,-1,937,1268,0,0
-280,-244,0,0,0,0,0,0,0,0,0,-1,944,1268,0,0
-273,-244,0,0,0,0,0,0,0,0,0,-1,951,1268,0,0
-266,-244,0,0,0,0,0,0,0,0,0,-1,958,1268,0,0
-259,-244,0,0,0,0,0,0,0,0,0,-1,965,1268,0,0
-252,-244,0,0,0,0,0,0,0,0,0,-1,972,1268,0,0
-245,-244,0,0,0,0,0,0,0,0,0,-1,979,1268,0,0
-238,-244,0,0,0,0,0,0,0,0,0,-1,986,1268,0,0
-231,-244,0,0,0,0,0,0,0,0,0,-1,993,1268,0,0
-224,-244,0,0,0,0,0,0,0,0,0,-1,1000,1268,0,0
-217,-244,0,0,0,0,0,0,0,0,0,-1,1007,1268,0,0
-210,-244,0,0,0,0,0,0,0,0,0,-1,1014,1268,0,0
-203,-244,0,0,0,0,0,0,0,0,0,-1,1021,1268,0,0
-196,-244,0,0,0,0,0,0,0,0,0,-1,1028,1268,0,0
-189,-244,0,0,0,0,0,0,0,0,0,-1,1035,1268,0,0
-182,-244,0,0,0,0,0,0,0,0,0,-1,1042,1268,0,0
-175,-244,0,0,0,0,0,0,0,0,0,-1,1049,1268,0,0
-168,-244,0,0,0,0,0,0,0,0,0,-1,1056,1268,0,0
-161,-244,0,0,0,0,0,0,0,0,0,-1,1063,1268,0,0
-154,-244,0,0,0,0,0,0,0,0,0,-1,1070,1268,0,0
-147,-244,0,0,0,0,0,0,0,0,0,-1,1077,1268,0,0
-140,-244,0,0,0,0,0,0,0,0,0,-1,1084,1268,0,0
-133,-244,0,0,0,0,0,0,0,0,0,-1,1091,1268,0,0
-126,-244,0,0,0,0,0,0,0,0,0,-1,1098,1268,0,0
-119,-244,0,0,0,0,0,0,0,0,0,-1,1105,1268,0,0
-112,-244,0,0,0,0,0,0,0,0,0,-1,1112,1268,0,0
-105,-244,0,0,0,0,0,0,0,0,0,-1,1119,1268,0,0
-98,-244,0,0,0,0,0,0,0,0,0,-1,1126,1268,0,0
-91,-244,0,0,0,0,0,0,0,0,0,-1,1133,1268,0,0
-84,-244,0,0,0,0,0,0,0,0,0,-1,1140,1268,0,0
-77,-244,0,0,0,0,0,0,0,0,0,-1,1147,1268,0,0
-70,-244,0,0,0,0,0,0,0,0,0,-1,1154,1268,0,0
-63,-244,0,0,0,0,0,0,0,0,0,-1,1161,1268,0,0
-56,-244,0,0,0,0,0,0,0,0,0,-1,1168,1268,0,0
-49,-244,0,0,0,0,0,0,0,0,0,-1,1175,1268,0,0
-42,-244,0,0,0,0,0,0,0,0,0,-1,1182,1268,0,0
-35,-244,0,0,0,0,0,0,0,0,0,-1,1189,1268,0,0
-28,-244,0,0,0,0,0,0,0,0,0,-1,1196,1268,0,0
-21,-244,0,0,0,0,0,0,0,0,0,-1,1203,1268,0,0
-14,-244,0,0,0,0,0,0,0,0,0,-1,1210,1268,0,0
-7,-244,0,0,0,0,0,0,0,0,0,-1,1217,1268,0,0
0,-244,0,0,0,0,0,0,0,0,0,-1,1224,1268,0,0
7,-244,0,0,0,0,0,0,0,0,0,-1,1231,1268,0,0
14,-244,0,0,0,0,0,0,0,0,0,-1,1238,1268,0,0
21,-244,0,0,0,0,0,0,0,0,0,-1,1245,1268,0,0
28,-244,0,0,0,0,0,0,0,0,0,-1,1252,1268,0,0
35,-244,0,0,0,0,0,0,0,0,0,-1,1259,1268,0,0
42,-244,0,0,0,0,0,0,0,0,0,-1,1266,1268,0,0
49,-244,0,0,0,0,0,0,0,0,0,-1,1273,1268,0,0
56,-244,0,0,0,0,0,0,0,0,0,-1,1280,1268,0,0
63,-244,0,0,0,0,0,0,0,0,0,-1,1287,1268,0,0
70,-244,0,0,0,0,0,0,0,0,0,-1,1294,1268,0,0
77,-244,0,0,0,0,0,0,0,0,0,-1,1301,1268,0,0
84,-244,0,0,0,0,0,0,0,0,0,-1,1308,1268,0,0
91,-244,0,0,0,0,0,0,0,0,0,-1,1315,1268,0,0
98,-244,0,0,0,0,0,0,0,0,0,-1,1322,1268,0,0
105,-244,0,0,0,0,0,0,0,0,0,-1,1329,1268,0,0
112,-244,0,0,0,0,0,0,0,0,0,-1,1336,1268,0,0
119,-244,0,0,0,0,0,0,0,0,0,-1,1343,1268,0,0
126,-244,0,0,0,0,0,0,0,0,0,-1,1350,1268,0,0
133,-244,0,0,0,0,0,0,0,0,0,-1,1357,1268,0,0
140,-244,0,0,0,0,0,0,0,0,0,-1,1364,1268,0,0
147,-244,0,0,0,0,0,0,0,0,0,-1,1371,1268,0,0
154,-244,0,0,0,0,0,0,0,0,0,-1,1378,1268,0,0
161,-244,0,0,0,0,0,0,0,0,0,-1,1385,1268,0,0
168,-244,0,0,0,0,0,0,0,0,0,-1,1392,1268,0,0
175,-244,0,0,0,0,0,0,0,0,0,-1,1399,1268,0,0
182,-244,0,0,0,0,0,0,0,0,0,-1,1406,1268,0,0
189,-244,0,0,0,0,0,0,0,0,0,-1,1413,1268,0,0
196,-244,0,0,0,0,0,0,0,0,0,-1,1420,1268,0,0
203,-244,0,0,0,0,0,0,0,0,0,-1,1427,1268,0,0
210,-244,0,0,0,0,0,0,0,0,0,-1,1434,1268,0,0
217,-244,0,0,0,0,0,0,0,0,0,-1,1441,1268,0,0
224,-244,0,0,0,0,0,0,0,0,0,-1,1448,1268,0,0
231,-244,0,0,0,0,0,0,0,0,0,-1,1455,1268,0,0
238,-244,0,0,0,0,0,0,0,0,0,-1,1462,1268,0,0
245,-244,0,0,0,0,0,0,0,0,0,-1,1469,1268,0,0
252,-244,0,0,0,0,0,0,0,0,0,-1,1476,1268,0,0
259,-244,0,0,0,0,0,0,0,0,0,-1,1483,1268,0,0
266,-244,0,0,0,0,0,0,0,0,0,-1,1490,1268,0,0
273,-244,0,0,0,0,0,0,0,0,0,-1,1497,1268,0,0
280,-244,0,0,0,0,0,0,0,0,0,-1,1504,1268,0,0
287,-244,0,0,0,0,0,0,0,0,0,-1,1511,1268,0,0
294,-244,0,0,0,0,0,0,0,0,0,-1,1518,1268,0,0
301,-244,0,0,0,0,0,0,0,0,0,-1,1525,1268,0,0
308,-244,0,0,0,0,0,0,0,0,0,-1,1532,1268,0,0
315,-244,0,0,0,0,0,0,0,0,0,-1,1539,1268,0,0
322,-244,0,0,0,0,0,0,0,0,0,-1,1546,1268,0,0
329,-244,0,0,0,0,0,0,0,0,0,-1,1553,1268,0,0
336,-244,0,0,0,0,0,0,0,0,0,-1,1560,1268,0,0
343,-244,0,0,0,0,0,0,0,0,0,-1,1567,1268,0,0
350,-244,0,0,0,0,0,0,0,0,0,-1,1574,1268,0,0
357,-244,0,0,0,0,0,0,0,0,0,-1,1581,1268,0,0
364,-244,0,0,0,0,0,0,0,0,0,-1,1588,1268,0,0
371,-244,0,0,0,0,0,0,0,0,0,-1,1595,1268,0,0
378,-244,0,0,0,0,0,0,0,0,0,-1,1602,1268,0,0
385,-244,0,0,0,0,0,0,0,0,0,-1,1609,1268,0,0
392,-244,0,0,0,0,0,0,0,0,0,-1,1616,1268,0,0
399,-244,0,0,0,0,0,0,0,0,0,-1,1623,1268,0,0
406,-244,0,0,0,0,0,0,0,0,0,-1,1630,1268,0,0
413,-244,0,0,0,0,0,0,0,0,0,-1,1637,1268,0,0
420,-244,0,0,0,0,0,0,0,0,0,-1,1644,1268,0,0
427,-244,0,0,0,0,0,0,0,0,0,-1,1651,1268,0,0
434,-244,0,0,0,0,0,0,0,0,0,-1,1658,1268,0,0
441,-244,0,0,0,0,0,0,0,0,0,-1,1665,1268,0,0
448,-244,0,0,0,0,0,0,0,0,0,-1,1672,1268,0,0
455,-244,0,0,0,0,0,0,0,0,0,-1,1679,1268,0,0
462,-244,0,0,0,0,0,0,0,0,0,-1,1686,1268,0,0
469,-244,0,0,0,0,0,0,0,0,0,-1,1693,1268,0,0
476,-244,0,0,0,0,0,0,0,0,0,-1,1700,1268,0,0
483,-244,0,0,0,0,0,0,0,0,0,-1,1707,1268,0,0
490,-244,0,0,0,0,0,0,0,0,0,-1,1714,1268,0,0
497,-244,0,0,0,0,0,0,0,0,0,-1,1721,1268,0,0
504,-244,0,0,0,0,0,0,0,0,0,-1,1728,1268,0,0
511,-244,0,0,0,0,0,0,0,0,0,-1,1735,1268,0,0
518,-244,0,0,0,0,0,0,0,0,0,-1,1742,1268,0,0
525,-244,0,0,0,0,0,0,0,0,0,-1,1749,1268,0,0
532,-244,0,0,0,0,0,0,0,0,0,-1,1756,1268,0,0
539,-244,0,0,0,0,0,0,0,0,0,-1,1763,1268,0,0
546,-244,0,0,0,0,0,0,0,0,0,-1,1770,1268,0,0
553,-244,0,0,0,0,0,0,0,0,0,-1,1777,1268,0,0
560,-244,0,0,0,0,0,0,0,0,0,-1,1784,1268,0,0
567,-244,0,0,0,0,0,0,0,0,0,-1,1791,1268,0,0
574,-244,0,0,0,0,0,0,0,0,0,-1,1798,1268,0,0
581,-244,0,0,0,0,0,0,0,0,0,-1,1805,1268,0,0
588,-244,0,0,0,0,0,0,0,0,0,-1,1812,1268,0,0
595,-244,0,0,0,0,0,0,0,0,0,-1,1819,1268,0,0
602,-244,0,0,0,0,0,0,0,0,0,-1,1826,1268,0,0
609,-244,0,0,0,0,0,0,0,0,0,-1,1833,1268,0,0
616,-244,53.8707,2.61499,-0.00216215,0.00575115,-0.00188807,0.00617855,-0.00258956,-1.34818,0.00520171,0.0365605,1840,1268,53.8707,-2.61493
623,-244,53.8867,2.70154,0.00171368,0.00563588,3.71267e-05,0.00563623,0.00171333,1.56133,0.00333639,0.0281214,1847,1268,53.8868,-2.70155
630,-244,53.8978,2.7533,0.00526599,0.00479541,0.00191704,0.00696213,0.00309927,0.724336,0.00402764,0.0243249,1854,1268,53.8978,-2.7533
637,-244,53.8896,2.71594,0.00699129,0.00332741,0.00276328,0.00847473,0.00184397,0.492683,0.00514648,0.0379255,1861,1268,53.8897,-2.716
644,-244,53.8446,2.72217,0.00668424,0.00222726,0.00231529,0.00766927,0.00124223,0.402249,0.00475319,0.0443128,1868,1268,53.8446,-2.72221
651,-244,53.777,2.75403,0.00567951,0.00150043,0.00175695,0.00632,0.000859943,0.349574,0.00395795,0.0474602,1875,1268,53.777,-2.75406
658,-244,53.7212,2.77539,0,0,0,0,0,0,0,-1,1882,1268,53.7212,-2.77544
665,-244,50.7988,1.09888,0,0,0,0,0,0,0,-1,1889,1268,50.7989,-1.09893
672,-244,32.224,3.6123,0,0,0,0,0,0,0,-1,1896,1268,32.224,-3.6123
679,-244,27.2593,7.90649,0,0,0,0,0,0,0,-1,1903,1268,27.2592,-7.9065
686,-244,40.5692,11.1125,0,0,0,0,0,0,0,-1,1910,1268,40.5692,-11.1126
693,-244,40.5377,10.5559,0.00170453,-0.0023914,0.000203958,0.00171466,-0.00240153,0.0496316,0.00238749,0.0283808,1917,1268,40.5377,-10.5559
700,-244,40.5637,9.97327,0.000998564,-0.00154998,0.000221103,0.0010176,-0.00156902,0.0859013,0.00150466,0.0107128,1924,1268,40.5637,-9.97327
707,-244,40.5879,9.44983,0.000169258,-0.00133244,-0.000109605,0.000177215,-0.0013404,-0.0724753,0.000958147,0.0111004,1931,1268,40.5879,-9.44984
714,-244,40.6265,8.91589,-0.000501796,-0.00105957,0.000501857,-0.000206541,-0.00135482,0.531792,0.000842845,0.0141846,1938,1268,40.6264,-8.91585
721,-244,40.5573,8.42175,-0.00108154,-0.000787707,0.00123419,0.000308274,-0.00217752,0.84464,0.0015646,0.019611,1945,1268,40.5573,-8.42174
728,-244,40.5272,7.89832,-0.00164853,-0.000669539,0.00201195,0.000911603,-0.00322968,0.904727,0.00251272,0.0250522,1952,1268,40.5272,-7.89837
735,-244,40.4924,7.35632,-0.00220689,-0.000604142,0.00279533,0.00150241,-0.00431344,0.924996,0.00348607,0.0265739,1959,1268,40.4924,-7.35632
742,-244,40.4507,6.94727,-0.00262016,-0.000492094,0.00349531,0.00209755,-0.0052098,0.93315,0.00434458,0.0173638,1966,1268,40.4507,-6.9473
749,-244,40.3114,6.54065,-0.00275433,-0.000248587,0.00402325,0.00271236,-0.00571527,0.936343,0.00496759,0.0248641,1973,1268,40.3114,-6.5407
756,-244,40.1288,6.14758,-0.00254209,0.000176684,0.0042543,0.00328351,-0.00564891,0.940037,0.00521706,0.034856,1980,1268,40.1288,-6.14759
763,-244,40.0927,5.59033,0,0,0,0,0,0,0,-1,1987,1268,40.0927,-5.59034
770,-244,40.6831,4.54504,0,0,0,0,0,0,0,-1,1994,1268,40.6831,-4.54506
777,-244,40.9116,3.7749,0,0,0,0,0,0,0,-1,2001,1268,40.9116,-3.77485
784,-244,31.7908,5.20081,0,0,0,0,0,0,0,-1,2008,1268,31.7907,-5.20083
791,-244,0,0,0,0,0,0,0,0,0,-1,2015,1268,0,0
798,-244,0,0,0,0,0,0,0,0,0,-1,2022,1268,0,0
805,-244,0,0,0,0,0,0,0,0,0,-1,2029,1268,0,0
812,-244,0,0,0,0,0,0,0,0,0,-1,2036,1268,0,0
-700,-251,0,0,0,0,0,0,0,0,0,-1,524,1275,0,0
-693,-251,0,0,0,0,0,0,0,0,0,-1,531,1275,0,0
-686,-251,0,0,0,0,0,0,0,0,0,-1,538,1275,0,0
-679,-251,0,0,0,0,0,0,0,0,0,-1,545,1275,0,0
-672,-251,0,0,0,0,0,0,0,0,0,-1,552,1275,0,0
-665,-251,-39.3416,-7.43286,0,0,0,0,0,0,0,-1,559,1275,-39.3415,7.43292
-658,-251,-39.3706,-6.07568,0,0,0,0,0,0,0,-1,566,1275,-39.3706,6.07565
-651,-251,-39.4322,-4.77429,-0.0137128,0.0305479,0.0684112,0.0803192,-0.0634841,0.941831,0.0832143,0.0475704,573,1275,-39.4322,4.77433
-644,-251,-39.4733,-3.44775,-0.0102399,0.0233238,0.0583218,0.0672301,-0.0541463,0.925487,0.0702123,0.045034,580,1275,-39.4733,3.44771
-637,-251,-25.7649,2.06409,0,0,0,0,0,0,0,-1,587,1275,-25.7649,-2.06411
-630,-251,-25.8242,2.72498,-0.00500843,0.0133233,0.0389194,0.0441415,-0.0358267,0.901045,0.0462528,0.0493925,594,1275,-25.8242,-2.72494
-623,-251,-25.7401,3.39819,-0.00311846,0.00979191,0.0300711,0.0340929,-0.0274194,0.891126,0.0355837,0.0401266,601,1275,-25.7401,-3.39825
-616,-251,-25.5104,3.95154,-0.00165664,0.00597635,0.021904,0.0243938,-0.0200741,0.871651,0.0257139,0.0209081,608,1275,-25.5104,-3.95155
-609,-251,-25.5243,4.4624,0.000289173,0.00235785,0.0147407,0.0161004,-0.0134534,0.820425,0.0170857,0.019414,615,1275,-25.5243,-4.46235
-602,-251,-25.5519,5.03845,0.00155507,0.00162709,0.00916355,0.0107547,-0.00757254,0.787363,0.0106343,0.013743,622,1275,-25.5519,-5.03844
-595,-251,-25.5951,5.59045,0.00187497,0.000740886,0.00408422,0.00543132,-0.00281547,0.716421,0.00484047,0.0128494,629,1275,-25.5951,-5.59045
-588,-251,-25.6093,6.12903,0.00215528,0.000275206,0.00146954,0.00295973,-0.00052924,0.500855,0.00217117,0.0147408,636,1275,-25.6093,-6.129
-581,-251,-25.6319,6.70532,0.0026533,-0.000302981,0.000948731,0.00293157,-0.000581254,0.285309,0.00217419,0.0135387,643,1275,-25.6319,-6.70528
-574,-251,-25.6516,7.2832,0.00306536,-0.000739009,0.00101134,0.00331749,-0.000991147,0.244331,0.00260566,0.0128731,650,1275,-25.6516,-7.28323
-567,-251,-25.6426,7.8584,0.00346844,-0.00103134,0.000949213,0.00366047,-0.00122338,0.199618,0.00293438,0.0155473,657,1275,-25.6426,-7.85838
-560,-251,-25.555,8.58276,0.00243409,-0.0011095,0.000829067,0.00261846,-0.00129388,0.21883,0.00230154,0.0384795,664,1275,-25.555,-8.58282
-553,-251,-25.3795,9.22083,0,0,0,0,0,0,0,-1,671,1275,-25.3795,-9.22087
-546,-251,-12.995,4.5675,0,0,0,0,0,0,0,-1,678,1275,-12.995,-4.56745
-539,-251,-10.7916,0.366333,0,0,0,0,0,0,0,-1,685,1275,-10.7916,-0.366282
-532,-251,-10.7391,-0.00769043,0,0,0,0,0,0,0,-1,692,1275,-10.7391,0.00773227
-525,-251,-29.4286,-0.250244,0,0,0,0,0,0,0,-1,699,1275,-29.4286,0.250266
-518,-251,-32.6981,0.678833,0,0,0,0,0,0,0,-1,706,1275,-32.6981,-0.678787
-511,-251,-29.4731,0.637085,0,0,0,0,0,0,0,-1,713,1275,-29.4731,-0.637025
-504,-251,-30.6428,0.792358,0,0,0,0,0,0,0,-1,720,1275,-30.6427,-0.792335
-497,-251,-40.731,1.61963,0,0,0,0,0,0,0,-1,727,1275,-40.731,-1.61959
-490,-251,0,0,0,0,0,0,0,0,0,-1,734,1275,0,0
-483,-251,0,0,0,0,0,0,0,0,0,-1,741,1275,0,0
-476,-251,0,0,0,0,0,0,0,0,0,-1,748,1275,0,0
-469,-251,0,0,0,0,0,0,0,0,0,-1,755,1275,0,0
-462,-251,0,0,0,0,0,0,0,0,0,-1,762,1275,0,0
-455,-251,0,0,0,0,0,0,0,0,0,-1,769,1275,0,0
-448,-251,0,0,0,0,0,0,0,0,0,-1,776,1275,0,0
-441,-251,0,0,0,0,0,0,0,0,0,-1,783,1275,0,0
-434,-251,0,0,0,0,0,0,0,0,0,-1,790,1275,0,0
-427,-251,0,0,0,0,0,0,0,0,0,-1,797,1275,0,0
-420,-251,0,0,0,0,0,0,0,0,0,-1,804,1275,0,0
-413,-251,0,0,0,0,0,0,0,0,0,-1,811,1275,0,0
-406,-251,0,0,0,0,0,0,0,0,0,-1,818,1275,0,0
-399,-251,0,0,0,0,0,0,0,0,0,-1,825,1275,0,0
-392,-251,0,0,0,0,0,0,0,0,0,-1,832,1275,0,0
-385,-251,0,0,0,0,0,0,0,0,0,-1,839,1275,0,0
-378,-251,0,0,0,0,0,0,0,0,0,-1,846,1275,0,0
-371,-251,0,0,0,0,0,0,0,0,0,-1,853,1275,0,0
-364,-251,0,0,0,0,0,0,0,0,0,-1,860,1275,0,0
-357,-251,0,0,0,0,0,0,0,0,0,-1,867,1275,0,0
-350,-251,0,0,0,0,0,0,0,0,0,-1,874,1275,0,0
-343,-251,0,0,0,0,0,0,0,0,0,-1,881,1275,0,0
-336,-251,0,0,0,0,0,0,0,0,0,-1,888,1275,0,0
-329,-251,0,0,0,0,0,0,0,0,0,-1,895,1275,0,0
-322,-251,0,0,0,0,0,0,0,0,0,-1,902,1275,0,0
-315,-251,0,0,0,0,0,0,0,0,0,-1,909,1275,0,0
-308,-251,0,0,0,0,0,0,0,0,0,-1,916,1275,0,0
-301,-251,0,0,0,0,0,0,0,0,0,-1,923,1275,0,0
-294,-251,0,0,0,0,0,0,0,0,0,-1,930,1275,0,0
-287,-251,0,0,0,0,0,0,0,0,0,-1,937,1275,0,0
-280,-251,0,0,0,0,0,0,0,0,0,-1,944,1275,0,0
-273,-251,0,0,0,0,0,0,0,0,0,-1,951,1275,0,0
-266,-251,0,0,0,0,0,0,0,0,0,-1,958,1275,0,0
-259,-251,0,0,0,0,0,0,0,0,0,-1,965,1275,0,0
-252,-251,0,0,0,0,0,0,0,0,0,-1,972,1275,0,0
-245,-251,0,0,0,0,0,0,0,0,0,-1,979,1275,0,0
-238,-251,0,0,0,0,0,0,0,0,0,-1,986,1275,0,0
-231,-251,0,0,0,0,0,0,0,0,0,-1,993,1275,0,0
-224,-251,0,0,0,0,0,0,0,0,0,-1,1000,1275,0,0
-217,-251,0,0,0,0,0,0,0,0,0,-1,1007,1275,0,0
-210,-251,0,0,0,0,0,0,0,0,0,-1,1014,1275,0,0
-203,-251,0,0,0,0,0,0,0,0,0,-1,1021,1275,0,0
-196,-251,0,0,0,0,0,0,0,0,0,-1,1028,1275,0,0
-189,-251,0,0,0,0,0,0,0,0,0,-1,1035,1275,0,0
-182,-251,0,0,0,0,0,0,0,0,0,-1,1042,1275,0,0
-175,-251,0,0,0,0,0,0,0,0,0,-1,1049,1275,0,0
-168,-251,0,0,0,0,0,0,0,0,0,-1,1056,1275,0,0
-161,-251,0,0,0,0,0,0,0,0,0,-1,1063,1275,0,0
-154,-251,0,0,0,0,0,0,0,0,0,-1,1070,1275,0,0
-147,-251,0,0,0,0,0,0,0,0,0,-1,1077,1275,0,0
-140,-251,0,0,0,0,0,0,0,0,0,-1,1084,1275,0,0
-133,-251,0,0,0,0,0,0,0,0,0,-1,1091,1275,0,0
-126,-251,0,0,0,0,0,0,0,0,0,-1,1098,1275,0,0
-119,-251,0,0,0,0,0,0,0,0,0,-1,1105,1275,0,0
-112,-251,0,0,0,0,0,0,0,0,0,-1,1112,1275,0,0
-105,-251,0,0,0,0,0,0,0,0,0,-1,1119,1275,0,0
-98,-251,0,0,0,0,0,0,0,0,0,-1,1126,1275,0,0
-91,-251,0,0,0,0,0,0,0,0,0,-1,1133,1275,0,0
-84,-251,0,0,0,0,0,0,0,0,0,-1,1140,1275,0,0
-77,-251,0,0,0,0,0,0,0,0,0,-1,1147,1275,0,0
-70,-251,0,0,0,0,0,0,0,0,0,-1,1154,1275,0,0
-63,-251,0,0,0,0,0,0,0,0,0,-1,1161,1275,0,0
-56,-251,0,0,0,0,0,0,0,0,0,-1,1168,1275,0,0
-49,-251,0,0,0,0,0,0,0,0,0,-1,1175,1275,0,0
-42,-251,0,0,0,0,0,0,0,0,0,-1,1182,1275,0,0
-35,-251,0,0,0,0,0,0,0,0,0,-1,1189,1275,0,0
-28,-251,0,0,0,0,0,0,0,0,0,-1,1196,1275,0,0
-21,-251,0,0,0,0,0,0,0,0,0,-1,1203,1275,0,0
-14,-251,0,0,0,0,0,0,0,0,0,-1,1210,1275,0,0
-7,-251,0,0,0,0,0,0,0,0,0,-1,1217,1275,0,0
0,-251,0,0,0,0,0,0,0,0,0,-1,1224,1275,0,0
7,-251,0,0,0,0,0,0,0,0,0,-1,1231,1275,0,0
14,-251,0,0,0,0,0,0,0,0,0,-1,1238,1275,0,0
21,-251,0,0,0,0,0,0,0,0,0,-1,1245,1275,0,0
28,-251,0,0,0,0,0,0,0,0,0,-1,1252,1275,0,0
35,-251,0,0,0,0,0,0,0,0,0,-1,1259,1275,0,0
42,-251,0,0,0,0,0,0,0,0,0,-1,1266,1275,0,0
49,-251,0,0,0,0,0,0,0,0,0,-1,1273,1275,0,0
56,-251,0,0,0,0,0,0,0,0,0,-1,1280,1275,0,0
63,-251,0,0,0,0,0,0,0,0,0,-1,1287,1275,0,0
70,-251,0,0,0,0,0,0,0,0,0,-1,1294,1275,0,0
77,-251,0,0,0,0,0,0,0,0,0,-1,1301,1275,0,0
84,-251,0,0,0,0,0,0,0,0,0,-1,1308,1275,0,0
91,-251,0,0,0,0,0,0,0,0,0,-1,1315,1275,0,0
98,-251,0,0,0,0,0,0,0,0,0,-1,1322,1275,0,0
105,-251,0,0,0,0,0,0,0,0,0,-1,1329,1275,0,0
112,-251,0,0,0,0,0,0,0,0,0,-1,1336,1275,0,0
119,-251,0,0,0,0,0,0,0,0,0,-1,1343,1275,0,0
126,-251,0,0,0,0,0,0,0,0,0,-1,1350,1275,0,0
133,-251,0,0,0,0,0,0,0,0,0,-1,1357,1275,0,0
140,-251,0,0,0,0,0,0,0,0,0,-1,1364,1275,0,0
147,-251,0,0,0,0,0,0,0,0,0,-1,1371,1275,0,0
154,-251,0,0,0,0,0,0,0,0,0,-1,1378,1275,0,0
161,-251,0,0,0,0,0,0,0,0,0,-1,1385,1275,0,0
168,-251,0,0,0,0,0,0,0,0,0,-1,1392,1275,0,0
175,-251,0,0,0,0,0,0,0,0,0,-1,1399,1275,0,0
182,-251,0,0,0,0,0,0,0,0,0,-1,1406,1275,0,0
189,-251,0,0,0,0,0,0,0,0,0,-1,1413,1275,0,0
196,-251,0,0,0,0,0,0,0,0,0,-1,1420,1275,0,0
203,-251,0,0,0,0,0,0,0,0,0,-1,1427,1275,0,0
210,-251,0,0,0,0,0,0,0,0,0,-1,1434,1275,0,0
217,-251,0,0,0,0,0,0,0,0,0,-1,1441,1275,0,0
224,-251,0,0,0,0,0,0,0,0,0,-1,1448,1275,0,0
231,-251,0,0,0,0,0,0,0,0,0,-1,1455,1275,0,0
238,-251,0,0,0,0,0,0,0,0,0,-1,1462,1275,0,0
245,-251,0,0,0,0,0,0,0,0,0,-1,1469,1275,0,0
252,-251,0,0,0,0,0,0,0,0,0,-1,1476,1275,0,0
259,-251,0,0,0,0,0,0,0,0,0,-1,1483,1275,0,0
266,-251,0,0,0,0,0,0,0,0,0,-1,1490,1275,0,0
273,-251,0,0,0,0,0,0,0,0,0,-1,1497,1275,0,0
280,-251,0,0,0,0,0,0,0,0,0,-1,1504,1275,0,0
287,-251,0,0,0,0,0,0,0,0,0,-1,1511,1275,0,0
294,-251,0,0,0,0,0,0,0,0,0,-1,1518,1275,0,0
301,-251,0,0,0,0,0,0,0,0,0,-1,1525,1275,0,0
308,-251,0,0,0,0,0,0,0,0,0,-1,1532,1275,0,0
315,-251,0,0,0,0,0,0,0,0,0,-1,1539,1275,0,0
322,-251,0,0,0,0,0,0,0,0,0,-1,1546,1275,0,0
329,-251,0,0,0,0,0,0,0,0,0,-1,1553,1275,0,0
336,-251,0,0,0,0,0,0,0,0,0,-1,1560,1275,0,0
343,-251,0,0,0,0,0,0,0,0,0,-1,1567,1275,0,0
350,-251,0,0,0,0,0,0,0,0,0,-1,1574,1275,0,0
357,-251,0,0,0,0,0,0,0,0,0,-1,1581,1275,0,0
364,-251,0,0,0,0,0,0,0,0,0,-1,1588,1275,0,0
371,-251,0,0,0,0,0,0,0,0,0,-1,1595,1275,0,0
378,-251,0,0,0,0,0,0,0,0,0,-1,1602,1275,0,0
385,-251,0,0,0,0,0,0,0,0,0,-1,1609,1275,0,0
392,-251,0,0,0,0,0,0,0,0,0,-1,1616,1275,0,0
399,-251,0,0,0,0,0,0,0,0,0,-1,1623,1275,0,0
406,-251,0,0,0,0,0,0,0,0,0,-1,1630,1275,0,0
413,-251,0,0,0,0,0,0,0,0,0,-1,1637,1275,0,0
420,-251,0,0,0,0,0,0,0,0,0,-1,1644,1275,0,0
427,-251,0,0,0,0,0,0,0,0,0,-1,1651,1275,0,0
434,-251,0,0,0,0,0,0,0,0,0,-1,1658,1275,0,0
441,-251,0,0,0,0,0,0,0,0,0,-1,1665,1275,0,0
448,-251,0,0,0,0,0,0,0,0,0,-1,1672,1275,0,0
455,-251,0,0,0,0,0,0,0,0,0,-1,1679,1275,0,0
462,-251,0,0,0,0,0,0,0,0,0,-1,1686,1275,0,0
469,-251,0,0,0,0,0,0,0,0,0,-1,1693,1275,0,0
476,-251,0,0,0,0,0,0,0,0,0,-1,1700,1275,0,0
483,-251,0,0,0,0,0,0,0,0,0,-1,1707,1275,0,0
490,-251,0,0,0,0,0,0,0,0,0,-1,1714,1275,0,0
497,-251,0,0,0,0,0,0,0,0,0,-1,1721,1275,0,0
504,-251,0,0,0,0,0,0,0,0,0,-1,1728,1275,0,0
511,-251,0,0,0,0,0,0,0,0,0,-1,1735,1275,0,0
518,-251,0,0,0,0,0,0,0,0,0,-1,1742,1275,0,0
525,-251,0,0,0,0,0,0,0,0,0,-1,1749,1275,0,0
532,-251,0,0,0,0,0,0,0,0,0,-1,1756,1275,0,0
539,-251,0,0,0,0,0,0,0,0,0,-1,1763,1275,0,0
546,-251,0,0,0,0,0,0,0,0,0,-1,1770,1275,0,0
553,-251,0,0,0,0,0,0,0,0,0,-1,1777,1275,0,0
560,-251,0,0,0,0,0,0,0,0,0,-1,1784,1275,0,0
567,-251,0,0,0,0,0,0,0,0,0,-1,1791,1275,0,0
574,-251,0,0,0,0,0,0,0,0,0,-1,1798,1275,0,0
581,-251,0,0,0,0,0,0,0,0,0,-1,1805,1275,0,0
588,-251,0,0,0,0,0,0,0,0,0,-1,1812,1275,0,0
595,-251,0,0,0,0,0,0,0,0,0,-1,1819,1275,0,0
602,-251,0,0,0,0,0,0,0,0,0,-1,1826,1275,0,0
609,-251,53.825,2.58423,-0.00581992,0.00604529,-0.00350618,0.00700391,-0.00677855,-1.30391,0.00795766,0.0334624,1833,1275,53.825,-2.58422
616,-251,53.8567,2.65735,-0.00143481,0.00717362,-0.0011722,0.00733039,-0.00159157,-1.43785,0.00549482,0.0292403,1840,1275,53.8567,-2.6574
623,-251,53.8821,2.71423,0.00292768,0.00746014,0.00102185,0.00767987,0.00270795,1.35899,0.00449774,0.0238977,1847,1275,53.8821,-2.71428
630,-251,53.8716,2.70032,0.00646926,0.00674073,0.00276853,0.00937685,0.00383314,0.809893,0.00544367,0.0334959,1854,1275,53.8716,-2.70037
637,-251,54.0591,2.84229,0.00733027,0.00503409,0.00303251,0.00942474,0.00293962,0.60444,0.00556824,0.040638,1861,1275,54.059,-2.84229
644,-251,54.2294,3.073,0.00667677,0.00370326,0.00238446,0.00800001,0.00238002,0.506632,0.00474339,0.045973,1868,1275,54.2293,-3.07297
651,-251,53.824,2.79102,0,0,0,0,0,0,0,-1,1875,1275,53.8239,-2.79105
658,-251,51.5793,1.25964,0,0,0,0,0,0,0,-1,1882,1275,51.5793,-1.2597
665,-251,32.9579,2.60229,0,0,0,0,0,0,0,-1,1889,1275,32.9579,-2.60231
672,-251,26.0721,4.53064,0,0,0,0,0,0,0,-1,1896,1275,26.0721,-4.53063
679,-251,29.1344,8.63782,0,0,0,0,0,0,0,-1,1903,1275,29.1344,-8.63778
686,-251,40.165,11.0045,0,0,0,0,0,0,0,-1,1910,1275,40.165,-11.0045
693,-251,40.104,10.5193,0.00181562,-0.00231383,0.000160075,0.00182181,-0.00232002,0.0386869,0.00239705,0.0159648,1917,1275,40.104,-10.5192
700,-251,40.0729,9.99756,0.00106267,-0.00128535,0.000191489,0.00107818,-0.00130086,0.0808416,0.00137554,0.00944176,1924,1275,40.0729,-9.9975
707,-251,40.0939,9.4585,0.00014739,-0.00106326,-3.40263e-05,0.000148346,-0.00106422,-0.0280762,0.000763745,0.0112461,1931,1275,40.0938,-9.4585
714,-251,40.1096,8.94531,-0.000670158,-0.000914321,0.000695929,-8.56838e-05,-0.0014988,0.698571,0.000971896,0.0140573,1938,1275,40.1096,-8.94535
721,-251,40.0249,8.45813,-0.00139612,-0.00079443,0.00148756,0.000422406,-0.00261296,0.885172,0.0018985,0.020934,1945,1275,40.0249,-8.45809
728,-251,39.9779,7.97803,-0.00215092,-0.000831544,0.0023462,0.000945946,-0.00392841,0.922446,0.00298465,0.0246258,1952,1275,39.9779,-7.97807
735,-251,39.9807,7.40747,-0.00288537,-0.00089292,0.003196,0.00145853,-0.00523681,0.93648,0.00406555,0.0204602,1959,1275,39.9807,-7.40741
742,-251,39.9116,7.01526,-0.00349282,-0.00091283,0.00397171,0.00197312,-0.00637877,0.942422,0.00504064,0.0181524,1966,1275,39.9117,-7.01532
749,-251,39.6641,6.69128,-0.00384794,-0.00078281,0.00455991,0.00249519,-0.00712594,0.947515,0.00576524,0.0366138,1973,1275,39.6641,-6.69131
756,-251,39.4301,6.27783,0,0,0,0,0,0,0,-1,1980,1275,39.4301,-6.27786
763,-251,39.6554,5.09192,0,0,0,0,0,0,0,-1,1987,1275,39.6554,-5.09186
770,-251,40.5034,4.45117,0,0,0,0,0,0,0,-1,1994,1275,40.5034,-4.45113
777,-251,31.5731,4.33252,0,0,0,0,0,0,0,-1,2001,1275,31.5731,-4.33251
784,-251,32.0776,5.78247,0,0,0,0,0,0,0,-1,2008,1275,32.0776,-5.78247
791,-251,0,0,0,0,0,0,0,0,0,-1,2015,1275,0,0
798,-251,0,0,0,0,0,0,0,0,0,-1,2022,1275,0,0
805,-251,0,0,0,0,0,0,0,0,0,-1,2029,1275,0,0
812,-251,0,0,0,0,0,0,0,0,0,-1,2036,1275,0,0
-700,-258,0,0,0,0,0,0,0,0,0,-1,524,1282,0,0
-693,-258,0,0,0,0,0,0,0,0,0,-1,531,1282,0,0
-686,-258,0,0,0,0,0,0,0,0,0,-1,538,1282,0,0
-679,-258,0,0,0,0,0,0,0,0,0,-1,545,1282,0,0
-672,-258,0,0,0,0,0,0,0,0,0,-1,552,1282,0,0
-665,-258,-35.0007,-0.969238,0,0,0,0,0,0,0,-1,559,1282,-35.0008,0.969225
-658,-258,-39.6628,-6.20264,0,0,0,0,0,0,0,-1,566,1282,-39.6628,6.20262
-651,-258,-39.7765,-4.8811,0,0,0,0,0,0,0,-1,573,1282,-39.7765,4.88109
-644,-258,-39.832,-3.56323,0,0,0,0,0,0,0,-1,580,1282,-39.832,3.56317
-637,-258,-36.0912,-1.18311,0,0,0,0,0,0,0,-1,587,1282,-36.0912,1.18306
-630,-258,-25.3735,2.58899,0,0,0,0,0,0,0,-1,594,1282,-25.3736,-2.58905
-623,-258,-25.264,3.35779,0,0,0,0,0,0,0,-1,601,1282,-25.264,-3.35779
-616,-258,-24.9457,3.88013,-0.00117961,0.00262866,0.0206257,0.0214379,-0.0199889,0.831427,0.0239227,0.0360293,608,1282,-24.9457,-3.88008
-609,-258,-24.9233,4.47644,0.000448167,0.000399722,0.0142193,0.0146433,-0.0137954,0.784546,0.0164215,0.0170846,615,1282,-24.9233,-4.47639
-602,-258,-24.9628,5.0498,0.00157327,0.000699261,0.00913486,0.0102816,-0.00800904,0.761497,0.0105872,0.0133095,622,1282,-24.9628,-5.04975
-595,-258,-24.9984,5.60229,0.00175398,0.000407844,0.0042448,0.00537875,-0.00321692,0.706771,0.00501476,0.0116106,629,1282,-24.9983,-5.60229
-588,-258,-25.0339,6.15625,0.00191589,0.000260754,0.00152549,0.00282383,-0.000647187,0.536868,0.00213129,0.0128575,636,1282,-25.0339,-6.15623
-581,-258,-25.0607,6.70935,0.00239268,-0.000106828,0.000942,0.00270793,-0.000422082,0.322948,0.00196118,0.0150298,643,1282,-25.0607,-6.70929
-574,-258,-25.0602,7.28442,0.0030422,-0.000703978,0.000928833,0.00325985,-0.000921629,0.230175,0.00253687,0.0157383,650,1282,-25.0603,-7.28446
-567,-258,-25.0992,7.85938,0.00377852,-0.00121399,0.00094038,0.00394977,-0.00138525,0.180137,0.0031966,0.0149588,657,1282,-25.0993,-7.8594
-560,-258,-25.0743,8.49487,0.00300029,-0.00139577,0.00102798,0.0032288,-0.00162428,0.218731,0.00285251,0.0410586,664,1282,-25.0743,-8.49485
-553,-258,-24.9335,9.15283,0,0,0,0,0,0,0,-1,671,1282,-24.9335,-9.15289
-546,-258,-14.2231,5.92029,0,0,0,0,0,0,0,-1,678,1282,-14.2231,-5.92028
-539,-258,-10.2228,4.05823,0,0,0,0,0,0,0,-1,685,1282,-10.2228,-4.05823
-532,-258,-10.2173,-0.353882,0,0,0,0,0,0,0,-1,692,1282,-10.2173,0.353836
-525,-258,-21.8661,-1.5929,0,0,0,0,0,0,0,-1,699,1282,-21.8661,1.59285
-518,-258,-29.2484,0.123169,0,0,0,0,0,0,0,-1,706,1282,-29.2484,-0.123186
-511,-258,-23.5061,1.16833,0,0,0,0,0,0,0,-1,713,1282,-23.5061,-1.16833
-504,-258,-22.9178,0.484131,0,0,0,0,0,0,0,-1,720,1282,-22.9178,-0.484106
-497,-258,-17.8047,0.730469,0,0,0,0,0,0,0,-1,727,1282,-17.8048,-0.730489
-490,-258,-15.4346,0.632935,0,0,0,0,0,0,0,-1,734,1282,-15.4346,-0.632917
-483,-258,0,0,0,0,0,0,0,0,0,-1,741,1282,0,0
-476,-258,0,0,0,0,0,0,0,0,0,-1,748,1282,0,0
-469,-258,0,0,0,0,0,0,0,0,0,-1,755,1282,0,0
-462,-258,0,0,0,0,0,0,0,0,0,-1,762,1282,0,0
-455,-258,0,0,0,0,0,0,0,0,0,-1,769,1282,0,0
-448,-258,0,0,0,0,0,0,0,0,0,-1,776,1282,0,0
-441,-258,0,0,0,0,0,0,0,0,0,-1,783,1282,0,0
-434,-258,0,0,0,0,0,0,0,0,0,-1,790,1282,0,0
-427,-258,0,0,0,0,0,0,0,0,0,-1,797,1282,0,0
-420,-258,0,0,0,0,0,0,0,0,0,-1,804,1282,0,0
-413,-258,0,0,0,0,0,0,0,0,0,-1,811,1282,0,0
-406,-258,0,0,0,0,0,0,0,0,0,-1,818,1282,0,0
-399,-258,0,0,0,0,0,0,0,0,0,-1,825,1282,0,0
-392,-258,0,0,0,0,0,0,0,0,0,-1,832,1282,0,0
-385,-258,0,0,0,0,0,0,0,0,0,-1,839,1282,0,0
-378,-258,0,0,0,0,0,0,0,0,0,-1,846,1282,0,0
-371,-258,0,0,0,0,0,0,0,0,0,-1,853,1282,0,0
-364,-258,0,0,0,0,0,0,0,0,0,-1,860,1282,0,0
-357,-258,0,0,0,0,0,0,0,0,0,-1,867,1282,0,0
-350,-258,0,0,0,0,0,0,0,0,0,-1,874,1282,0,0
-343,-258,0,0,0,0,0,0,0,0,0,-1,881,1282,0,0
-336,-258,0,0,0,0,0,0,0,0,0,-1,888,1282,0,0
-329,-258,0,0,0,0,0,0,0,0,0,-1,895,1282,0,0
-322,-258,0,0,0,0,0,0,0,0,0,-1,902,1282,0,0
-315,-258,0,0,0,0,0,0,0,0,0,-1,909,1282,0,0
-308,-258,0,0,0,0,0,0,0,0,0,-1,916,1282,0,0
-301,-258,0,0,0,0,0,0,0,0,0,-1,923,1282,0,0
-294,-258,0,0,0,0,0,0,0,0,0,-1,930,1282,0,0
-287,-258,0,0,0,0,0,0,0,0,0,-1,937,1282,0,0
-280,-258,0,0,0,0,0,0,0,0,0,-1,944,1282,0,0
-273,-258,0,0,0,0,0,0,0,0,0,-1,951,1282,0,0
-266,-258,0,0,0,0,0,0,0,0,0,-1,958,1282,0,0
-259,-258,0,0,0,0,0,0,0,0,0,-1,965,1282,0,0
-252,-258,0,0,0,0,0,0,0,0,0,-1,972,1282,0,0
-245,-258,0,0,0,0,0,0,0,0,0,-1,979,1282,0,0
-238,-258,0,0,0,0,0,0,0,0,0,-1,986,1282,0,0
-231,-258,0,0,0,0,0,0,0,0,0,-1,993,1282,0,0
-224,-258,0,0,0,0,0,0,0,0,0,-1,1000,1282,0,0
-217,-258,0,0,0,0,0,0,0,0,0,-1,1007,1282,0,0
-210,-258,0,0,0,0,0,0,0,0,0,-1,1014,1282,0,0
-203,-258,0,0,0,0,0,0,0,0,0,-1,1021,1282,0,0
-196,-258,0,0,0,0,0,0,0,0,0,-1,1028,1282,0,0
-189,-258,0,0,0,0,0,0,0,0,0,-1,1035,1282,0,0
-182,-258,0,0,0,0,0,0,0,0,0,-1,1042,1282,0,0
-175,-258,0,0,0,0,0,0,0,0,0,-1,1049,1282,0,0
-168,-258,0,0,0,0,0,0,0,0,0,-1,1056,1282,0,0
-161,-258,0,0,0,0,0,0,0,0,0,-1,1063,1282,0,0
-154,-258,0,0,0,0,0,0,0,0,0,-1,1070,1282,0,0
-147,-258,0,0,0,0,0,0,0,0,0,-1,1077,1282,0,0
-140,-258,0,0,0,0,0,0,0,0,0,-1,1084,1282,0,0
-133,-258,0,0,0,0,0,0,0,0,0,-1,1091,1282,0,0
-126,-258,0,0,0,0,0,0,0,0,0,-1,1098,1282,0,0
-119,-258,0,0,0,0,0,0,0,0,0,-1,1105,1282,0,0
-112,-258,0,0,0,0,0,0,0,0,0,-1,1112,1282,0,0
-105,-258,0,0,0,0,0,0,0,0,0,-1,1119,1282,0,0
-98,-258,0,0,0,0,0,0,0,0,0,-1,1126,1282,0,0
-91,-258,0,0,0,0,0,0,0,0,0,-1,1133,1282,0,0
-84,-258,0,0,0,0,0,0,0,0,0,-1,1140,1282,0,0
-77,-258,0,0,0,0,0,0,0,0,0,-1,1147,1282,0,0
-70,-258,0,0,0,0,0,0,0,0,0,-1,1154,1282,0,0
-63,-258,0,0,0,0,0,0,0,0,0,-1,1161,1282,0,0
-56,-258,0,0,0,0,0,0,0,0,0,-1,1168,1282,0,0
-49,-258,0,0,0,0,0,0,0,0,0,-1,1175,1282,0,0
-42,-258,0,0,0,0,0,0,0,0,0,-1,1182,1282,0,0
-35,-258,0,0,0,0,0,0,0,0,0,-1,1189,1282,0,0
-28,-258,0,0,0,0,0,0,0,0,0,-1,1196,1282,0,0
-21,-258,0,0,0,0,0,0,0,0,0,-1,1203,1282,0,0
-14,-258,0,0,0,0,0,0,0,0,0,-1,1210,1282,0,0
-7,-258,0,0,0,0,0,0,0,0,0,-1,1217,1282,0,0
0,-258,0,0,0,0,0,0,0,0,0,-1,1224,1282,0,0
7,-258,0,0,0,0,0,0,0,0,0,-1,1231,1282,0,0
14,-258,0,0,0,0,0,0,0,0,0,-1,1238,1282,0,0
21,-258,0,0,0,0,0,0,0,0,0,-1,1245,1282,0,0
28,-258,0,0,0,0,0,0,0,0,0,-1,1252,1282,0,0
35,-258,0,0,0,0,0,0,0,0,0,-1,1259,1282,0,0
42,-258,0,0,0,0,0,0,0,0,0,-1,1266,1282,0,0
49,-258,0,0,0,0,0,0,0,0,0,-1,1273,1282,0,0
56,-258,0,0,0,0,0,0,0,0,0,-1,1280,1282,0,0
63,-258,0,0,0,0,0,0,0,0,0,-1,1287,1282,0,0
70,-258,0,0,0,0,0,0,0,0,0,-1,1294,1282,0,0
77,-258,0,0,0,0,0,0,0,0,0,-1,1301,1282,0,0
84,-258,0,0,0,0,0,0,0,0,0,-1,1308,1282,0,0
91,-258,0,0,0,0,0,0,0,0,0,-1,1315,1282,0,0
98,-258,0,0,0,0,0,0,0,0,0,-1,1322,1282,0,0
105,-258,0,0,0,0,0,0,0,0,0,-1,1329,1282,0,0
112,-258,0,0,0,0,0,0,0,0,0,-1,1336,1282,0,0
119,-258,0,0,0,0,0,0,0,0,0,-1,1343,1282,0,0
126,-258,0,0,0,0,0,0,0,0,0,-1,1350,1282,0,0
133,-258,0,0,0,0,0,0,0,0,0,-1,1357,1282,0,0
140,-258,0,0,0,0,0,0,0,0,0,-1,1364,1282,0,0
147,-258,0,0,0,0,0,0,0,0,0,-1,1371,1282,0,0
154,-258,0,0,0,0,0,0,0,0,0,-1,1378,1282,0,0
161,-258,0,0,0,0,0,0,0,0,0,-1,1385,1282,0,0
168,-258,0,0,0,0,0,0,0,0,0,-1,1392,1282,0,0
175,-258,0,0,0,0,0,0,0,0,0,-1,1399,1282,0,0
182,-258,0,0,0,0,0,0,0,0,0,-1,1406,1282,0,0
189,-258,0,0,0,0,0,0,0,0,0,-1,1413,1282,0,0
196,-258,0,0,0,0,0,0,0,0,0,-1,1420,1282,0,0
203,-258,0,0,0,0,0,0,0,0,0,-1,1427,1282,0,0
210,-258,0,0,0,0,0,0,0,0,0,-1,1434,1282,0,0
217,-258,0,0,0,0,0,0,0,0,0,-1,1441,1282,0,0
224,-258,0,0,0,0,0,0,0,0,0,-1,1448,1282,0,0
231,-258,0,0,0,0,0,0,0,0,0,-1,1455,1282,0,0
238,-258,0,0,0,0,0,0,0,0,0,-1,1462,1282,0,0
245,-258,0,0,0,0,0,0,0,0,0,-1,1469,1282,0,0
252,-258,0,0,0,0,0,0,0,0,0,-1,1476,1282,0,0
259,-258,0,0,0,0,0,0,0,0,0,-1,1483,1282,0,0
266,-258,0,0,0,0,0,0,0,0,0,-1,1490,1282,0,0
273,-258,0,0,0,0,0,0,0,0,0,-1,1497,1282,0,0
280,-258,0,0,0,0,0,0,0,0,0,-1,1504,1282,0,0
287,-258,0,0,0,0,0,0,0,0,0,-1,1511,1282,0,0
294,-258,0,0,0,0,0,0,0,0,0,-1,1518,1282,0,0
301,-258,0,0,0,0,0,0,0,0,0,-1,1525,1282,0,0
308,-258,0,0,0,0,0,0,0,0,0,-1,1532,1282,0,0
315,-258,0,0,0,0,0,0,0,0,0,-1,1539,1282,0,0
322,-258,0,0,0,0,0,0,0,0,0,-1,1546,1282,0,0
329,-258,0,0,0,0,0,0,0,0,0,-1,1553,1282,0,0
336,-258,0,0,0,0,0,0,0,0,0,-1,1560,1282,0,0
343,-258,0,0,0,0,0,0,0,0,0,-1,1567,1282,0,0
350,-258,0,0,0,0,0,0,0,0,0,-1,1574,1282,0,0
357,-258,0,0,0,0,0,0,0,0,0,-1,1581,1282,0,0
364,-258,0,0,0,0,0,0,0,0,0,-1,1588,1282,0,0
371,-258,0,0,0,0,0,0,0,0,0,-1,1595,1282,0,0
378,-258,0,0,0,0,0,0,0,0,0,-1,1602,1282,0,0
385,-258,0,0,0,0,0,0,0,0,0,-1,1609,1282,0,0
392,-258,0,0,0,0,0,0,0,0,0,-1,1616,1282,0,0
399,-258,0,0,0,0,0,0,0,0,0,-1,1623,1282,0,0
406,-258,0,0,0,0,0,0,0,0,0,-1,1630,1282,0,0
413,-258,0,0,0,0,0,0,0,0,0,-1,1637,1282,0,0
420,-258,0,0,0,0,0,0,0,0,0,-1,1644,1282,0,0
427,-258,0,0,0,0,0,0,0,0,0,-1,1651,1282,0,0
434,-258,0,0,0,0,0,0,0,0,0,-1,1658,1282,0,0
441,-258,0,0,0,0,0,0,0,0,0,-1,1665,1282,0,0
448,-258,0,0,0,0,0,0,0,0,0,-1,1672,1282,0,0
455,-258,0,0,0,0,0,0,0,0,0,-1,1679,1282,0,0
462,-258,0,0,0,0,0,0,0,0,0,-1,1686,1282,0,0
469,-258,0,0,0,0,0,0,0,0,0,-1,1693,1282,0,0
476,-258,0,0,0,0,0,0,0,0,0,-1,1700,1282,0,0
483,-258,0,0,0,0,0,0,0,0,0,-1,1707,1282,0,0
490,-258,0,0,0,0,0,0,0,0,0,-1,1714,1282,0,0
497,-258,0,0,0,0,0,0,0,0,0,-1,1721,1282,0,0
504,-258,0,0,0,0,0,0,0,0,0,-1,1728,1282,0,0
511,-258,0,0,0,0,0,0,0,0,0,-1,1735,1282,0,0
518,-258,0,0,0,0,0,0,0,0,0,-1,1742,1282,0,0
525,-258,0,0,0,0,0,0,0,0,0,-1,1749,1282,0,0
532,-258,0,0,0,0,0,0,0,0,0,-1,1756,1282,0,0
539,-258,0,0,0,0,0,0,0,0,0,-1,1763,1282,0,0
546,-258,0,0,0,0,0,0,0,0,0,-1,1770,1282,0,0
553,-258,0,0,0,0,0,0,0,0,0,-1,1777,1282,0,0
560,-258,0,0,0,0,0,0,0,0,0,-1,1784,1282,0,0
567,-258,0,0,0,0,0,0,0,0,0,-1,1791,1282,0,0
574,-258,0,0,0,0,0,0,0,0,0,-1,1798,1282,0,0
581,-258,0,0,0,0,0,0,0,0,0,-1,1805,1282,0,0
588,-258,0,0,0,0,0,0,0,0,0,-1,1812,1282,0,0
595,-258,0,0,0,0,0,0,0,0,0,-1,1819,1282,0,0
602,-258,0,0,0,0,0,0,0,0,0,-1,1826,1282,0,0
609,-258,53.8812,2.70178,-0.00549531,0.00806112,-0.00320228,0.00877949,-0.00621368,-1.35012,0.00869846,0.0269243,1833,1282,53.8812,-2.7018
616,-258,53.8624,2.72095,-0.000612766,0.00976182,-0.000532901,0.00978912,-0.000640068,-1.51961,0.00674956,0.0247006,1840,1282,53.8624,-2.721
623,-258,53.8645,2.70325,0.00358431,0.0100653,0.00168869,0.0104789,0.0031707,1.3306,0.00620523,0.0336467,1847,1282,53.8645,-2.70319
630,-258,53.8231,2.604,0.00629829,0.00884171,0.00304257,0.0108677,0.00427235,0.98335,0.00632204,0.0427325,1854,1282,53.8231,-2.60401
637,-258,54.0801,2.84131,0.00654852,0.00666609,0.00295192,0.00955981,0.0036548,0.795354,0.00557009,0.0455852,1861,1282,54.08,-2.84131
644,-258,54.7424,3.53186,0,0,0,0,0,0,0,-1,1868,1282,54.7425,-3.53187
651,-258,51.5219,1.90454,0,0,0,0,0,0,0,-1,1875,1282,51.5218,-1.90452
658,-258,45.4424,3.1405,0,0,0,0,0,0,0,-1,1882,1282,45.4423,-3.14046
665,-258,35.4747,1.1864,0,0,0,0,0,0,0,-1,1889,1282,35.4747,-1.18637
672,-258,22.703,2.80957,0,0,0,0,0,0,0,-1,1896,1282,22.703,-2.80962
679,-258,26.8693,8.19543,0,0,0,0,0,0,0,-1,1903,1282,26.8692,-8.19548
686,-258,39.6747,11.0698,0,0,0,0,0,0,0,-1,1910,1282,39.6747,-11.0699
693,-258,39.6206,10.5314,0.00171614,-0.00202463,0.000103624,0.00171901,-0.0020275,0.027673,0.00216549,0.0151724,1917,1282,39.6206,-10.5314
700,-258,39.5771,9.99377,0.000925415,-0.0009083,0.000140684,0.000936145,-0.00091903,0.076127,0.0010711,0.00957193,1924,1282,39.5772,-9.99373
707,-258,39.5779,9.46729,-5.88329e-06,-0.000754358,7.23902e-05,1.05376e-06,-0.000761295,0.0955371,0.000507882,0.0109047,1931,1282,39.5779,-9.46725
714,-258,39.5795,8.97498,-0.000864178,-0.000779229,0.000902535,8.183e-05,-0.00172524,0.808912,0.00117838,0.0113113,1938,1282,39.5795,-8.97495
721,-258,39.5386,8.44495,-0.00165201,-0.000851112,0.00174488,0.000538683,-0.00304181,0.898195,0.00222923,0.0185518,1945,1282,39.5385,-8.44493
728,-258,39.467,7.96765,-0.00253864,-0.00107276,0.00268142,0.000974086,-0.00458549,0.91881,0.00342813,0.0184797,1952,1282,39.467,-7.96764
735,-258,39.4968,7.45422,-0.00343621,-0.00130096,0.00360176,0.00138808,-0.00612525,0.929482,0.00461629,0.0170793,1959,1282,39.4968,-7.45427
742,-258,39.4602,6.99939,-0.0042541,-0.00150771,0.00446386,0.00178939,-0.0075512,0.934617,0.00572459,0.0173676,1966,1282,39.4602,-6.99937
749,-258,39.2614,6.60815,-0.00488931,-0.00157028,0.00513172,0.00216358,-0.00862318,0.941783,0.00658946,0.038697,1973,1282,39.2613,-6.60817
756,-258,39.046,6.08118,0,0,0,0,0,0,0,-1,1980,1282,39.046,-6.08122
763,-258,39.3638,5.09753,0,0,0,0,0,0,0,-1,1987,1282,39.3638,-5.09751
770,-258,40.3713,4.08325,0,0,0,0,0,0,0,-1,1994,1282,40.3713,-4.08323
777,-258,31.912,4.83093,0,0,0,0,0,0,0,-1,2001,1282,31.912,-4.8309
784,-258,32.6525,6.43091,0,0,0,0,0,0,0,-1,2008,1282,32.6525,-6.43091
791,-258,0,0,0,0,0,0,0,0,0,-1,2015,1282,0,0
798,-258,0,0,0,0,0,0,0,0,0,-1,2022,1282,0,0
805,-258,0,0,0,0,0,0,0,0,0,-1,2029,1282,0,0
812,-258,0,0,0,0,0,0,0,0,0,-1,2036,1282,0,0
-700,-265,0,0,0,0,0,0,0,0,0,-1,524,1289,0,0
-693,-265,0,0,0,0,0,0,0,0,0,-1,531,1289,0,0
-686,-265,0,0,0,0,0,0,0,0,0,-1,538,1289,0,0
-679,-265,0,0,0,0,0,0,0,0,0,-1,545,1289,0,0
-672,-265,0,0,0,0,0,0,0,0,0,-1,552,1289,0,0
-665,-265,-35.2086,-0.556274,0,0,0,0,0,0,0,-1,559,1289,-35.2086,0.556237
-658,-265,-35.6984,-0.362793,-0.0157916,0.00515488,0.0567755,0.052415,-0.0630517,0.876607,0.066759,0.0447466,566,1289,-35.6984,0.362835
-651,-265,-36.0469,-0.512085,0,0,0,0,0,0,0,-1,573,1289,-36.0469,0.51209
-644,-265,-36.3206,-0.629395,-0.00806436,-0.00346585,0.0424253,0.0367225,-0.0482527,0.812469,0.0492107,0.0471834,580,1289,-36.3206,0.629443
-637,-265,-36.59,-0.684814,0,0,0,0,0,0,0,-1,587,1289,-36.59,0.68479
-630,-265,-36.6934,-0.568481,0,0,0,0,0,0,0,-1,594,1289,-36.6934,0.568483
-623,-265,-24.2349,2.87195,0,0,0,0,0,0,0,-1,601,1289,-24.235,-2.872
-616,-265,-24.291,3.63574,-0.00105167,-0.00172687,0.018382,0.0169958,-0.0197744,0.776216,0.0212495,0.0486491,608,1289,-24.291,-3.63576
-609,-265,-24.3875,4.47339,0.000277307,-0.00220403,0.0129439,0.0120399,-0.0139666,0.737619,0.0150286,0.0205448,615,1289,-24.3875,-4.47343
-602,-265,-24.4313,5.07654,0.0013115,-0.000624607,0.00857237,0.00897031,-0.00828341,0.729173,0.00996407,0.0151052,622,1289,-24.4314,-5.07649
-595,-265,-24.449,5.64307,0.00149563,-0.000117959,0.00412651,0.00489347,-0.0035158,0.688858,0.00487677,0.0123317,629,1289,-24.449,-5.64312
-588,-265,-24.476,6.19421,0.00165779,0.000259368,0.00150979,0.00262241,-0.000705259,0.568544,0.00202473,0.0108474,636,1289,-24.476,-6.19421
-581,-265,-24.4837,6.7467,0.00204568,0.000219888,0.000926142,0.00243322,-0.000167645,0.3963,0.00168082,0.0133573,643,1289,-24.4837,-6.74668
-574,-265,-24.5164,7.33643,0.00272726,-0.000550434,0.000852178,0.00293558,-0.000758755,0.239755,0.00225297,0.0147542,650,1289,-24.5163,-7.33641
-567,-265,-24.5869,7.927,0.00360571,-0.00133484,0.000920736,0.00377172,-0.00150085,0.178388,0.00313682,0.0203597,657,1289,-24.5869,-7.92704
-560,-265,-24.6136,8.5094,0.00330763,-0.00178644,0.00114411,0.00355279,-0.00203161,0.211091,0.00326378,0.0240434,664,1289,-24.6136,-8.50934
-553,-265,-24.6192,9.08301,0,0,0,0,0,0,0,-1,671,1289,-24.6192,-9.08302
-546,-265,-22.7913,9.38025,0,0,0,0,0,0,0,-1,678,1289,-22.7912,-9.38028
-539,-265,-13.7668,6.39917,0,0,0,0,0,0,0,-1,685,1289,-13.7668,-6.39915
-532,-265,-8.53998,3.41467,0,0,0,0,0,0,0,-1,692,1289,-8.53996,-3.41473
-525,-265,-12.1317,0.514648,0,0,0,0,0,0,0,-1,699,1289,-12.1317,-0.514634
-518,-265,-24.1604,0.712402,0,0,0,0,0,0,0,-1,706,1289,-24.1604,-0.712425
-511,-265,-23.233,0.791626,0,0,0,0,0,0,0,-1,713,1289,-23.233,-0.791617
-504,-265,-22.3056,0.87085,0,0,0,0,0,0,0,-1,720,1289,-22.3056,-0.87081
-497,-265,-18.689,-0.278442,0,0,0,0,0,0,0,-1,727,1289,-18.689,0.278423
-490,-265,-15.1696,0.492676,0,0,0,0,0,0,0,-1,734,1289,-15.1696,-0.492688
-483,-265,0,0,0,0,0,0,0,0,0,-1,741,1289,0,0
-476,-265,0,0,0,0,0,0,0,0,0,-1,748,1289,0,0
-469,-265,0,0,0,0,0,0,0,0,0,-1,755,1289,0,0
-462,-265,0,0,0,0,0,0,0,0,0,-1,762,1289,0,0
-455,-265,0,0,0,0,0,0,0,0,0,-1,769,1289,0,0
-448,-265,0,0,0,0,0,0,0,0,0,-1,776,1289,0,0
-441,-265,0,0,0,0,0,0,0,0,0,-1,783,1289,0,0
-434,-265,0,0,0,0,0,0,0,0,0,-1,790,1289,0,0
-427,-265,0,0,0,0,0,0,0,0,0,-1,797,1289,0,0
-420,-265,0,0,0,0,0,0,0,0,0,-1,804,1289,0,0
-413,-265,0,0,0,0,0,0,0,0,0,-1,811,1289,0,0
-406,-265,0,0,0,0,0,0,0,0,0,-1,818,1289,0,0
-399,-265,0,0,0,0,0,0,0,0,0,-1,825,1289,0,0
-392,-265,0,0,0,0,0,0,0,0,0,-1,832,1289,0,0
-385,-265,0,0,0,0,0,0,0,0,0,-1,839,1289,0,0
-378,-265,0,0,0,0,0,0,0,0,0,-1,846,1289,0,0
-371,-265,0,0,0,0,0,0,0,0,0,-1,853,1289,0,0
-364,-265,0,0,0,0,0,0,0,0,0,-1,860,1289,0,0
-357,-265,0,0,0,0,0,0,0,0,0,-1,867,1289,0,0
-350,-265,0,0,0,0,0,0,0,0,0,-1,874,1289,0,0
-343,-265,0,0,0,0,0,0,0,0,0,-1,881,1289,0,0
-336,-265,0,0,0,0,0,0,0,0,0,-1,888,1289,0,0
-329,-265,0,0,0,0,0,0,0,0,0,-1,895,1289,0,0
-322,-265,0,0,0,0,0,0,0,0,0,-1,902,1289,0,0
-315,-265,0,0,0,0,0,0,0,0,0,-1,909,1289,0,0
-308,-265,0,0,0,0,0,0,0,0,0,-1,916,1289,0,0
-301,-265,0,0,0,0,0,0,0,0,0,-1,923,1289,0,0
-294,-265,0,0,0,0,0,0,0,0,0,-1,930,1289,0,0
-287,-265,0,0,0,0,0,0,0,0,0,-1,937,1289,0,0
-280,-265,0,0,0,0,0,0,0,0,0,-1,944,1289,0,0
-273,-265,0,0,0,0,0,0,0,0,0,-1,951,1289,0,0
-266,-265,0,0,0,0,0,0,0,0,0,-1,958,1289,0,0
-259,-265,0,0,0,0,0,0,0,0,0,-1,965,1289,0,0
-252,-265,0,0,0,0,0,0,0,0,0,-1,972,1289,0,0
-245,-265,0,0,0,0,0,0,0,0,0,-1,979,1289,0,0
-238,-265,0,0,0,0,0,0,0,0,0,-1,986,1289,0,0
-231,-265,0,0,0,0,0,0,0,0,0,-1,993,1289,0,0
-224,-265,0,0,0,0,0,0,0,0,0,-1,1000,1289,0,0
-217,-265,0,0,0,0,0,0,0,0,0,-1,1007,1289,0,0
-210,-265,0,0,0,0,0,0,0,0,0,-1,1014,1289,0,0
-203,-265,0,0,0,0,0,0,0,0,0,-1,1021,1289,0,0
-196,-265,0,0,0,0,0,0,0,0,0,-1,1028,1289,0,0
-189,-265,0,0,0,0,0,0,0,0,0,-1,1035,1289,0,0
-182,-265,0,0,0,0,0,0,0,0,0,-1,1042,1289,0,0
-175,-265,0,0,0,0,0,0,0,0,0,-1,1049,1289,0,0
-168,-265,0,0,0,0,0,0,0,0,0,-1,1056,1289,0,0
-161,-265,0,0,0,0,0,0,0,0,0,-1,1063,1289,0,0
-154,-265,0,0,0,0,0,0,0,0,0,-1,1070,1289,0,0
-147,-265,0,0,0,0,0,0,0,0,0,-1,1077,1289,0,0
-140,-265,0,0,0,0,0,0,0,0,0,-1,1084,1289,0,0
-133,-265,0,0,0,0,0,0,0,0,0,-1,1091,1289,0,0
-126,-265,0,0,0,0,0,0,0,0,0,-1,1098,1289,0,0
-119,-265,0,0,0,0,0,0,0,0,0,-1,1105,1289,0,0
-112,-265,0,0,0,0,0,0,0,0,0,-1,1112,1289,0,0
-105,-265,0,0,0,0,0,0,0,0,0,-1,1119,1289,0,0
-98,-265,0,0,0,0,0,0,0,0,0,-1,1126,1289,0,0
-91,-265,0,0,0,0,0,0,0,0,0,-1,1133,1289,0,0
-84,-265,0,0,0,0,0,0,0,0,0,-1,1140,1289,0,0
-77,-265,0,0,0,0,0,0,0,0,0,-1,1147,1289,0,0
-70,-265,0,0,0,0,0,0,0,0,0,-1,1154,1289,0,0
-63,-265,0,0,0,0,0,0,0,0,0,-1,1161,1289,0,0
-56,-265,0,0,0,0,0,0,0,0,0,-1,1168,1289,0,0
-49,-265,0,0,0,0,0,0,0,0,0,-1,1175,1289,0,0
-42,-265,0,0,0,0,0,0,0,0,0,-1,1182,1289,0,0
-35,-265,0,0,0,0,0,0,0,0,0,-1,1189,1289,0,0
-28,-265,0,0,0,0,0,0,0,0,0,-1,1196,1289,0,0
-21,-265,0,0,0,0,0,0,0,0,0,-1,1203,1289,0,0
-14,-265,0,0,0,0,0,0,0,0,0,-1,1210,1289,0,0
-7,-265,0,0,0,0,0,0,0,0,0,-1,1217,1289,0,0
0,-265,0,0,0,0,0,0,0,0,0,-1,1224,1289,0,0
7,-265,0,0,0,0,0,0,0,0,0,-1,1231,1289,0,0
14,-265,0,0,0,0,0,0,0,0,0,-1,1238,1289,0,0
21,-265,0,0,0,0,0,0,0,0,0,-1,1245,1289,0,0
28,-265,0,0,0,0,0,0,0,0,0,-1,1252,1289,0,0
35,-265,0,0,0,0,0,0,0,0,0,-1,1259,1289,0,0
42,-265,0,0,0,0,0,0,0,0,0,-1,1266,1289,0,0
49,-265,0,0,0,0,0,0,0,0,0,-1,1273,1289,0,0
56,-265,0,0,0,0,0,0,0,0,0,-1,1280,1289,0,0
63,-265,0,0,0,0,0,0,0,0,0,-1,1287,1289,0,0
70,-265,0,0,0,0,0,0,0,0,0,-1,1294,1289,0,0
77,-265,0,0,0,0,0,0,0,0,0,-1,1301,1289,0,0
84,-265,0,0,0,0,0,0,0,0,0,-1,1308,1289,0,0
91,-265,0,0,0,0,0,0,0,0,0,-1,1315,1289,0,0
98,-265,0,0,0,0,0,0,0,0,0,-1,1322,1289,0,0
105,-265,0,0,0,0,0,0,0,0,0,-1,1329,1289,0,0
112,-265,0,0,0,0,0,0,0,0,0,-1,1336,1289,0,0
119,-265,0,0,0,0,0,0,0,0,0,-1,1343,1289,0,0
126,-265,0,0,0,0,0,0,0,0,0,-1,1350,1289,0,0
133,-265,0,0,0,0,0,0,0,0,0,-1,1357,1289,0,0
140,-265,0,0,0,0,0,0,0,0,0,-1,1364,1289,0,0
147,-265,0,0,0,0,0,0,0,0,0,-1,1371,1289,0,0
154,-265,0,0,0,0,0,0,0,0,0,-1,1378,1289,0,0
161,-265,0,0,0,0,0,0,0,0,0,-1,1385,1289,0,0
168,-265,0,0,0,0,0,0,0,0,0,-1,1392,1289,0,0
175,-265,0,0,0,0,0,0,0,0,0,-1,1399,1289,0,0
182,-265,0,0,0,0,0,0,0,0,0,-1,1406,1289,0,0
189,-265,0,0,0,0,0,0,0,0,0,-1,1413,1289,0,0
196,-265,0,0,0,0,0,0,0,0,0,-1,1420,1289,0,0
203,-265,0,0,0,0,0,0,0,0,0,-1,1427,1289,0,0
210,-265,0,0,0,0,0,0,0,0,0,-1,1434,1289,0,0
217,-265,0,0,0,0,0,0,0,0,0,-1,1441,1289,0,0
224,-265,0,0,0,0,0,0,0,0,0,-1,1448,1289,0,0
231,-265,0,0,0,0,0,0,0,0,0,-1,1455,1289,0,0
238,-265,0,0,0,0,0,0,0,0,0,-1,1462,1289,0,0
245,-265,0,0,0,0,0,0,0,0,0,-1,1469,1289,0,0
252,-265,0,0,0,0,0,0,0,0,0,-1,1476,1289,0,0
259,-265,0,0,0,0,0,0,0,0,0,-1,1483,1289,0,0
266,-265,0,0,0,0,0,0,0,0,0,-1,1490,1289,0,0
273,-265,0,0,0,0,0,0,0,0,0,-1,1497,1289,0,0
280,-265,0,0,0,0,0,0,0,0,0,-1,1504,1289,0,0
287,-265,0,0,0,0,0,0,0,0,0,-1,1511,1289,0,0
294,-265,0,0,0,0,0,0,0,0,0,-1,1518,1289,0,0
301,-265,0,0,0,0,0,0,0,0,0,-1,1525,1289,0,0
308,-265,0,0,0,0,0,0,0,0,0,-1,1532,1289,0,0
315,-265,0,0,0,0,0,0,0,0,0,-1,1539,1289,0,0
322,-265,0,0,0,0,0,0,0,0,0,-1,1546,1289,0,0
329,-265,0,0,0,0,0,0,0,0,0,-1,1553,1289,0,0
336,-265,0,0,0,0,0,0,0,0,0,-1,1560,1289,0,0
343,-265,0,0,0,0,0,0,0,0,0,-1,1567,1289,0,0
350,-265,0,0,0,0,0,0,0,0,0,-1,1574,1289,0,0
357,-265,0,0,0,0,0,0,0,0,0,-1,1581,1289,0,0
364,-265,0,0,0,0,0,0,0,0,0,-1,1588,1289,0,0
371,-265,0,0,0,0,0,0,0,0,0,-1,1595,1289,0,0
378,-265,0,0,0,0,0,0,0,0,0,-1,1602,1289,0,0
385,-265,0,0,0,0,0,0,0,0,0,-1,1609,1289,0,0
392,-265,0,0,0,0,0,0,0,0,0,-1,1616,1289,0,0
399,-265,0,0,0,0,0,0,0,0,0,-1,1623,1289,0,0
406,-265,0,0,0,0,0,0,0,0,0,-1,1630,1289,0,0
413,-265,0,0,0,0,0,0,0,0,0,-1,1637,1289,0,0
420,-265,0,0,0,0,0,0,0,0,0,-1,1644,1289,0,0
427,-265,0,0,0,0,0,0,0,0,0,-1,1651,1289,0,0
434,-265,0,0,0,0,0,0,0,0,0,-1,1658,1289,0,0
441,-265,0,0,0,0,0,0,0,0,0,-1,1665,1289,0,0
448,-265,0,0,0,0,0,0,0,0,0,-1,1672,1289,0,0
455,-265,0,0,0,0,0,0,0,0,0,-1,1679,1289,0,0
462,-265,0,0,0,0,0,0,0,0,0,-1,1686,1289,0,0
469,-265,0,0,0,0,0,0,0,0,0,-1,1693,1289,0,0
476,-265,0,0,0,0,0,0,0,0,0,-1,1700,1289,0,0
483,-265,0,0,0,0,0,0,0,0,0,-1,1707,1289,0,0
490,-265,0,0,0,0,0,0,0,0,0,-1,1714,1289,0,0
497,-265,0,0,0,0,0,0,0,0,0,-1,1721,1289,0,0
504,-265,0,0,0,0,0,0,0,0,0,-1,1728,1289,0,0
511,-265,0,0,0,0,0,0,0,0,0,-1,1735,1289,0,0
518,-265,0,0,0,0,0,0,0,0,0,-1,1742,1289,0,0
525,-265,0,0,0,0,0,0,0,0,0,-1,1749,1289,0,0
532,-265,0,0,0,0,0,0,0,0,0,-1,1756,1289,0,0
539,-265,0,0,0,0,0,0,0,0,0,-1,1763,1289,0,0
546,-265,0,0,0,0,0,0,0,0,0,-1,1770,1289,0,0
553,-265,0,0,0,0,0,0,0,0,0,-1,1777,1289,0,0
560,-265,0,0,0,0,0,0,0,0,0,-1,1784,1289,0,0
567,-265,0,0,0,0,0,0,0,0,0,-1,1791,1289,0,0
574,-265,0,0,0,0,0,0,0,0,0,-1,1798,1289,0,0
581,-265,0,0,0,0,0,0,0,0,0,-1,1805,1289,0,0
588,-265,0,0,0,0,0,0,0,0,0,-1,1812,1289,0,0
595,-265,0,0,0,0,0,0,0,0,0,-1,1819,1289,0,0
602,-265,53.8079,2.66797,-0.0105564,0.00845457,-0.00591425,0.0101443,-0.0122461,-1.29251,0.0129461,0.0257343,1826,1289,53.8079,-2.66801
609,-265,53.809,2.63525,-0.00551788,0.0113958,-0.00300712,0.0119145,-0.00603662,-1.39998,0.0105477,0.0262548,1833,1289,53.809,-2.6352
616,-265,53.8358,2.67578,-0.000468402,0.0132938,-0.000135072,0.0132951,-0.000469728,-1.56098,0.00902407,0.0327866,1840,1289,53.8358,-2.67576
623,-265,53.8879,2.69299,0.00316086,0.012855,0.00175707,0.0131636,0.00285222,1.39691,0.00799641,0.0448271,1847,1289,53.8879,-2.69294
630,-265,53.5896,2.09644,0.00517456,0.0107092,0.00266823,0.011786,0.00409773,1.18721,0.00690913,0.04492,1854,1289,53.5896,-2.09639
637,-265,53.9988,2.45984,0.00537041,0.00817985,0.00252919,0.00966823,0.00388202,1.03889,0.00561793,0.0446315,1861,1289,53.9988,-2.45982
644,-265,54.609,2.91431,0,0,0,0,0,0,0,-1,1868,1289,54.609,-2.91434
651,-265,45.0878,3.73743,0,0,0,0,0,0,0,-1,1875,1289,45.0877,-3.73741
658,-265,41.7163,3.71619,0,0,0,0,0,0,0,-1,1882,1289,41.7163,-3.71624
665,-265,34.7902,1.43164,0,0,0,0,0,0,0,-1,1889,1289,34.7901,-1.43162
672,-265,20.0045,6.62671,0,0,0,0,0,0,0,-1,1896,1289,20.0045,-6.62668
679,-265,39.1051,11.6292,0,0,0,0,0,0,0,-1,1903,1289,39.1051,-11.6292
686,-265,39.095,11.071,0.0034792,-0.00105084,0.000856228,0.00363564,-0.00120727,0.180709,0.00291087,0.0391097,1910,1289,39.095,-11.071
693,-265,39.0876,10.5292,0.00165127,-0.00151415,3.13723e-05,0.00165158,-0.00151446,0.00990965,0.00182849,0.0103373,1917,1289,39.0877,-10.5292
700,-265,39.0577,10.0072,0.000801843,-0.000468456,0.000177179,0.000826092,-0.000492705,0.13602,0.000769475,0.0107941,1924,1289,39.0578,-10.0072
707,-265,39.0509,9.49536,-0.000151596,-0.000480555,0.000326157,4.92087e-05,-0.000681359,0.551859,0.000471499,0.0107667,1931,1289,39.0509,-9.49537
714,-265,39.0344,8.97656,-0.00103193,-0.00069926,0.00121961,0.000365305,-0.0020965,0.853172,0.001534,0.0126105,1938,1289,39.0344,-8.97656
721,-265,38.973,8.43481,-0.00186649,-0.000950471,0.00207746,0.000718871,-0.00353583,0.893896,0.0026298,0.0140855,1945,1289,38.9731,-8.43478
728,-265,38.9325,7.96045,-0.00283703,-0.00132747,0.00303856,0.00104865,-0.00521315,0.907134,0.0038726,0.0150497,1952,1289,38.9325,-7.96044
735,-265,38.9835,7.47571,-0.00385142,-0.00172363,0.00398642,0.00133842,-0.00691347,0.915799,0.00511384,0.0166708,1959,1289,38.9836,-7.47567
742,-265,38.9708,6.99072,-0.00484588,-0.00214294,0.00489901,0.00158759,-0.00857642,0.919984,0.0063137,0.0193525,1966,1289,38.9708,-6.99073
749,-265,38.881,6.52942,-0.00574397,-0.00245894,0.00561369,0.00174759,-0.00995051,0.927721,0.0072864,0.0459616,1973,1289,38.881,-6.52944
756,-265,38.8784,6.07458,0,0,0,0,0,0,0,-1,1980,1289,38.8784,-6.0746
763,-265,39.1299,4.9679,0,0,0,0,0,0,0,-1,1987,1289,39.1299,-4.96791
770,-265,35.1674,5.07715,0,0,0,0,0,0,0,-1,1994,1289,35.1673,-5.07718
777,-265,32.1664,5.3457,0,0,0,0,0,0,0,-1,2001,1289,32.1664,-5.34568
784,-265,0,0,0,0,0,0,0,0,0,-1,2008,1289,0,0
791,-265,0,0,0,0,0,0,0,0,0,-1,2015,1289,0,0
798,-265,0,0,0,0,0,0,0,0,0,-1,2022,1289,0,0
805,-265,0,0,0,0,0,0,0,0,0,-1,2029,1289,0,0
812,-265,0,0,0,0,0,0,0,0,0,-1,2036,1289,0,0
-700,-272,0,0,0,0,0,0,0,0,0,-1,524,1296,0,0
-693,-272,0,0,0,0,0,0,0,0,0,-1,531,1296,0,0
-686,-272,0,0,0,0,0,0,0,0,0,-1,538,1296,0,0
-679,-272,0,0,0,0,0,0,0,0,0,-1,545,1296,0,0
-672,-272,0,0,0,0,0,0,0,0,0,-1,552,1296,0,0
-665,-272,0,0,0,0,0,0,0,0,0,-1,559,1296,0,0
-658,-272,-36.5144,0.088501,0,0,0,0,0,0,0,-1,566,1296,-36.5144,-0.0884768
-651,-272,-36.4545,-0.0233154,0,0,0,0,0,0,0,-1,573,1296,-36.4545,0.023367
-644,-272,-37.3553,-1.27917,0,0,0,0,0,0,0,-1,580,1296,-37.3553,1.27916
-637,-272,-37.7366,-2.38599,0,0,0,0,0,0,0,-1,587,1296,-37.7366,2.38599
-630,-272,-37.0609,-0.684937,0,0,0,0,0,0,0,-1,594,1296,-37.0609,0.684889
-623,-272,-37.1939,-0.816528,0,0,0,0,0,0,0,-1,601,1296,-37.1939,0.816479
-616,-272,-23.5749,3.67383,0,0,0,0,0,0,0,-1,608,1296,-23.5749,-3.67386
-609,-272,-23.7811,4.66968,-1.77958e-05,-0.00543412,0.011181,0.00877833,-0.0142302,0.666581,0.0134077,0.0290213,615,1296,-23.7811,-4.66962
-602,-272,-23.85,5.08899,0.000998804,-0.00245128,0.00759597,0.00706315,-0.00851563,0.673742,0.00900743,0.015816,622,1296,-23.85,-5.08894
-595,-272,-23.8884,5.66431,0.00115982,-0.000915049,0.00376538,0.00402806,-0.0037833,0.650974,0.00451063,0.0117199,629,1296,-23.8884,-5.66425
-588,-272,-23.924,6.22583,0.00136497,0.000145035,0.00140182,0.00228378,-0.000773775,0.580191,0.00183564,0.0102947,636,1296,-23.924,-6.22583
-581,-272,-23.9338,6.78101,0.001674,0.000557643,0.000901736,0.00217633,5.53062e-05,0.508261,0.00143281,0.00972721,643,1296,-23.9339,-6.78102
-574,-272,-23.9595,7.36316,0.00235446,-0.000286238,0.000781412,0.00256837,-0.00050014,0.267192,0.00190102,0.0147137,650,1296,-23.9595,-7.36318
-567,-272,-24.0054,7.94763,0.00329991,-0.00109169,0.000852976,0.00345976,-0.00125155,0.185259,0.00281791,0.0206812,657,1296,-24.0054,-7.9476
-560,-272,-24.0435,8.53101,0.00357201,-0.00160077,0.00111739,0.00380306,-0.00183183,0.203903,0.003319,0.0202056,664,1296,-24.0435,-8.53104
-553,-272,-23.9543,9.06958,0.00297274,-0.00222777,0.00162151,0.0034369,-0.00269193,0.278795,0.00354718,0.0253124,671,1296,-23.9543,-9.06954
-546,-272,-23.903,9.63745,0,0,0,0,0,0,0,-1,678,1296,-23.903,-9.63748
-539,-272,-22.7208,10.119,0,0,0,0,0,0,0,-1,685,1296,-22.7208,-10.119
-532,-272,-10.5572,4.53943,0,0,0,0,0,0,0,-1,692,1296,-10.5572,-4.53943
-525,-272,-11.9599,0.0393066,0,0,0,0,0,0,0,-1,699,1296,-11.9599,-0.0393577
-518,-272,-21.1357,-1.41382,0,0,0,0,0,0,0,-1,706,1296,-21.1357,1.41379
-511,-272,-23.2565,0.226318,0,0,0,0,0,0,0,-1,713,1296,-23.2565,-0.22626
-504,-272,-19.7397,0.114746,0,0,0,0,0,0,0,-1,720,1296,-19.7397,-0.114701
-497,-272,-19.2225,1.71301,0,0,0,0,0,0,0,-1,727,1296,-19.2225,-1.71302
-490,-272,-20.1948,2.4032,0,0,0,0,0,0,0,-1,734,1296,-20.1948,-2.40322
-483,-272,-15.3736,0.792603,0,0,0,0,0,0,0,-1,741,1296,-15.3736,-0.79263
-476,-272,0,0,0,0,0,0,0,0,0,-1,748,1296,0,0
-469,-272,0,0,0,0,0,0,0,0,0,-1,755,1296,0,0
-462,-272,0,0,0,0,0,0,0,0,0,-1,762,1296,0,0
-455,-272,0,0,0,0,0,0,0,0,0,-1,769,1296,0,0
-448,-272,0,0,0,0,0,0,0,0,0,-1,776,1296,0,0
-441,-272,0,0,0,0,0,0,0,0,0,-1,783,1296,0,0
-434,-272,0,0,0,0,0,0,0,0,0,-1,790,1296,0,0
-427,-272,0,0,0,0,0,0,0,0,0,-1,797,1296,0,0
-420,-272,0,0,0,0,0,0,0,0,0,-1,804,1296,0,0
-413,-272,0,0,0,0,0,0,0,0,0,-1,811,1296,0,0
-406,-272,0,0,0,0,0,0,0,0,0,-1,818,1296,0,0
-399,-272,0,0,0,0,0,0,0,0,0,-1,825,1296,0,0
-392,-272,0,0,0,0,0,0,0,0,0,-1,832,1296,0,0
-385,-272,0,0,0,0,0,0,0,0,0,-1,839,1296,0,0
-378,-272,0,0,0,0,0,0,0,0,0,-1,846,1296,0,0
-371,-272,0,0,0,0,0,0,0,0,0,-1,853,1296,0,0
-364,-272,0,0,0,0,0,0,0,0,0,-1,860,1296,0,0
-357,-272,0,0,0,0,0,0,0,0,0,-1,867,1296,0,0
-350,-272,0,0,0,0,0,0,0,0,0,-1,874,1296,0,0
-343,-272,0,0,0,0,0,0,0,0,0,-1,881,1296,0,0
-336,-272,0,0,0,0,0,0,0,0,0,-1,888,1296,0,0
-329,-272,0,0,0,0,0,0,0,0,0,-1,895,1296,0,0
-322,-272,0,0,0,0,0,0,0,0,0,-1,902,1296,0,0
-315,-272,0,0,0,0,0,0,0,0,0,-1,909,1296,0,0
-308,-272,0,0,0,0,0,0,0,0,0,-1,916,1296,0,0
-301,-272,0,0,0,0,0,0,0,0,0,-1,923,1296,0,0
-294,-272,0,0,0,0,0,0,0,0,0,-1,930,1296,0,0
-287,-272,0,0,0,0,0,0,0,0,0,-1,937,1296,0,0
-280,-272,0,0,0,0,0,0,0,0,0,-1,944,1296,0,0
-273,-272,0,0,0,0,0,0,0,0,0,-1,951,1296,0,0
-266,-272,0,0,0,0,0,0,0,0,0,-1,958,1296,0,0
-259,-272,0,0,0,0,0,0,0,0,0,-1,965,1296,0,0
-252,-272,0,0,0,0,0,0,0,0,0,-1,972,1296,0,0
-245,-272,0,0,0,0,0,0,0,0,0,-1,979,1296,0,0
-238,-272,0,0,0,0,0,0,0,0,0,-1,986,1296,0,0
-231,-272,0,0,0,0,0,0,0,0,0,-1,993,1296,0,0
-224,-272,0,0,0,0,0,0,0,0,0,-1,1000,1296,0,0
-217,-272,0,0,0,0,0,0,0,0,0,-1,1007,1296,0,0
-210,-272,0,0,0,0,0,0,0,0,0,-1,1014,1296,0,0
-203,-272,0,0,0,0,0,0,0,0,0,-1,1021,1296,0,0
-196,-272,0,0,0,0,0,0,0,0,0,-1,1028,1296,0,0
-189,-272,0,0,0,0,0,0,0,0,0,-1,1035,1296,0,0
-182,-272,0,0,0,0,0,0,0,0,0,-1,1042,1296,0,0
-175,-272,0,0,0,0,0,0,0,0,0,-1,1049,1296,0,0
-168,-272,0,0,0,0,0,0,0,0,0,-1,1056,1296,0,0
-161,-272,0,0,0,0,0,0,0,0,0,-1,1063,1296,0,0
-154,-272,0,0,0,0,0,0,0,0,0,-1,1070,1296,0,0
-147,-272,0,0,0,0,0,0,0,0,0,-1,1077,1296,0,0
-140,-272,0,0,0,0,0,0,0,0,0,-1,1084,1296,0,0
-133,-272,0,0,0,0,0,0,0,0,0,-1,1091,1296,0,0
-126,-272,0,0,0,0,0,0,0,0,0,-1,1098,1296,0,0
-119,-272,0,0,0,0,0,0,0,0,0,-1,1105,1296,0,0
-112,-272,0,0,0,0,0,0,0,0,0,-1,1112,1296,0,0
-105,-272,0,0,0,0,0,0,0,0,0,-1,1119,1296,0,0
-98,-272,0,0,0,0,0,0,0,0,0,-1,1126,1296,0,0
-91,-272,0,0,0,0,0,0,0,0,0,-1,1133,1296,0,0
-84,-272,0,0,0,0,0,0,0,0,0,-1,1140,1296,0,0
-77,-272,0,0,0,0,0,0,0,0,0,-1,1147,1296,0,0
-70,-272,0,0,0,0,0,0,0,0,0,-1,1154,1296,0,0
-63,-272,0,0,0,0,0,0,0,0,0,-1,1161,1296,0,0
-56,-272,0,0,0,0,0,0,0,0,0,-1,1168,1296,0,0
-49,-272,0,0,0,0,0,0,0,0,0,-1,1175,1296,0,0
-42,-272,0,0,0,0,0,0,0,0,0,-1,1182,1296,0,0
-35,-272,0,0,0,0,0,0,0,0,0,-1,1189,1296,0,0
-28,-272,0,0,0,0,0,0,0,0,0,-1,1196,1296,0,0
-21,-272,0,0,0,0,0,0,0,0,0,-1,1203,1296,0,0
-14,-272,0,0,0,0,0,0,0,0,0,-1,1210,1296,0,0
-7,-272,0,0,0,0,0,0,0,0,0,-1,1217,1296,0,0
0,-272,0,0,0,0,0,0,0,0,0,-1,1224,1296,0,0
7,-272,0,0,0,0,0,0,0,0,0,-1,1231,1296,0,0
14,-272,0,0,0,0,0,0,0,0,0,-1,1238,1296,0,0
21,-272,0,0,0,0,0,0,0,0,0,-1,1245,1296,0,0
28,-272,0,0,0,0,0,0,0,0,0,-1,1252,1296,0,0
35,-272,0,0,0,0,0,0,0,0,0,-1,1259,1296,0,0
42,-272,0,0,0,0,0,0,0,0,0,-1,1266,1296,0,0
49,-272,0,0,0,0,0,0,0,0,0,-1,1273,1296,0,0
56,-272,0,0,0,0,0,0,0,0,0,-1,1280,1296,0,0
63,-272,0,0,0,0,0,0,0,0,0,-1,1287,1296,0,0
70,-272,0,0,0,0,0,0,0,0,0,-1,1294,1296,0,0
77,-272,0,0,0,0,0,0,0,0,0,-1,1301,1296,0,0
84,-272,0,0,0,0,0,0,0,0,0,-1,1308,1296,0,0
91,-272,0,0,0,0,0,0,0,0,0,-1,1315,1296,0,0
98,-272,0,0,0,0,0,0,0,0,0,-1,1322,1296,0,0
105,-272,0,0,0,0,0,0,0,0,0,-1,1329,1296,0,0
112,-272,0,0,0,0,0,0,0,0,0,-1,1336,1296,0,0
119,-272,0,0,0,0,0,0,0,0,0,-1,1343,1296,0,0
126,-272,0,0,0,0,0,0,0,0,0,-1,1350,1296,0,0
133,-272,0,0,0,0,0,0,0,0,0,-1,1357,1296,0,0
140,-272,0,0,0,0,0,0,0,0,0,-1,1364,1296,0,0
147,-272,0,0,0,0,0,0,0,0,0,-1,1371,1296,0,0
154,-272,0,0,0,0,0,0,0,0,0,-1,1378,1296,0,0
161,-272,0,0,0,0,0,0,0,0,0,-1,1385,1296,0,0
168,-272,0,0,0,0,0,0,0,0,0,-1,1392,1296,0,0
175,-272,0,0,0,0,0,0,0,0,0,-1,1399,1296,0,0
182,-272,0,0,0,0,0,0,0,0,0,-1,1406,1296,0,0
189,-272,0,0,0,0,0,0,0,0,0,-1,1413,1296,0,0
196,-272,0,0,0,0,0,0,0,0,0,-1,1420,1296,0,0
203,-272,0,0,0,0,0,0,0,0,0,-1,1427,1296,0,0
210,-272,0,0,0,0,0,0,0,0,0,-1,1434,1296,0,0
217,-272,0,0,0,0,0,0,0,0,0,-1,1441,1296,0,0
224,-272,0,0,0,0,0,0,0,0,0,-1,1448,1296,0,0
231,-272,0,0,0,0,0,0,0,0,0,-1,1455,1296,0,0
238,-272,0,0,0,0,0,0,0,0,0,-1,1462,1296,0,0
245,-272,0,0,0,0,0,0,0,0,0,-1,1469,1296,0,0
252,-272,0,0,0,0,0,0,0,0,0,-1,1476,1296,0,0
259,-272,0,0,0,0,0,0,0,0,0,-1,1483,1296,0,0
266,-272,0,0,0,0,0,0,0,0,0,-1,1490,1296,0,0
273,-272,0,0,0,0,0,0,0,0,0,-1,1497,1296,0,0
280,-272,0,0,0,0,0,0,0,0,0,-1,1504,1296,0,0
287,-272,0,0,0,0,0,0,0,0,0,-1,1511,1296,0,0
294,-272,0,0,0,0,0,0,0,0,0,-1,1518,1296,0,0
301,-272,0,0,0,0,0,0,0,0,0,-1,1525,1296,0,0
308,-272,0,0,0,0,0,0,0,0,0,-1,1532,1296,0,0
315,-272,0,0,0,0,0,0,0,0,0,-1,1539,1296,0,0
322,-272,0,0,0,0,0,0,0,0,0,-1,1546,1296,0,0
329,-272,0,0,0,0,0,0,0,0,0,-1,1553,1296,0,0
336,-272,0,0,0,0,0,0,0,0,0,-1,1560,1296,0,0
343,-272,0,0,0,0,0,0,0,0,0,-1,1567,1296,0,0
350,-272,0,0,0,0,0,0,0,0,0,-1,1574,1296,0,0
357,-272,0,0,0,0,0,0,0,0,0,-1,1581,1296,0,0
364,-272,0,0,0,0,0,0,0,0,0,-1,1588,1296,0,0
371,-272,0,0,0,0,0,0,0,0,0,-1,1595,1296,0,0
378,-272,0,0,0,0,0,0,0,0,0,-1,1602,1296,0,0
385,-272,0,0,0,0,0,0,0,0,0,-1,1609,1296,0,0
392,-272,0,0,0,0,0,0,0,0,0,-1,1616,1296,0,0
399,-272,0,0,0,0,0,0,0,0,0,-1,1623,1296,0,0
406,-272,0,0,0,0,0,0,0,0,0,-1,1630,1296,0,0
413,-272,0,0,0,0,0,0,0,0,0,-1,1637,1296,0,0
420,-272,0,0,0,0,0,0,0,0,0,-1,1644,1296,0,0
427,-272,0,0,0,0,0,0,0,0,0,-1,1651,1296,0,0
434,-272,0,0,0,0,0,0,0,0,0,-1,1658,1296,0,0
441,-272,0,0,0,0,0,0,0,0,0,-1,1665,1296,0,0
448,-272,0,0,0,0,0,0,0,0,0,-1,1672,1296,0,0
455,-272,0,0,0,0,0,0,0,0,0,-1,1679,1296,0,0
462,-272,0,0,0,0,0,0,0,0,0,-1,1686,1296,0,0
469,-272,0,0,0,0,0,0,0,0,0,-1,1693,1296,0,0
476,-272,0,0,0,0,0,0,0,0,0,-1,1700,1296,0,0
483,-272,0,0,0,0,0,0,0,0,0,-1,1707,1296,0,0
490,-272,0,0,0,0,0,0,0,0,0,-1,1714,1296,0,0
497,-272,0,0,0,0,0,0,0,0,0,-1,1721,1296,0,0
504,-272,0,0,0,0,0,0,0,0,0,-1,1728,1296,0,0
511,-272,0,0,0,0,0,0,0,0,0,-1,1735,1296,0,0
518,-272,0,0,0,0,0,0,0,0,0,-1,1742,1296,0,0
525,-272,0,0,0,0,0,0,0,0,0,-1,1749,1296,0,0
532,-272,0,0,0,0,0,0,0,0,0,-1,1756,1296,0,0
539,-272,0,0,0,0,0,0,0,0,0,-1,1763,1296,0,0
546,-272,0,0,0,0,0,0,0,0,0,-1,1770,1296,0,0
553,-272,0,0,0,0,0,0,0,0,0,-1,1777,1296,0,0
560,-272,0,0,0,0,0,0,0,0,0,-1,1784,1296,0,0
567,-272,0,0,0,0,0,0,0,0,0,-1,1791,1296,0,0
574,-272,0,0,0,0,0,0,0,0,0,-1,1798,1296,0,0
581,-272,0,0,0,0,0,0,0,0,0,-1,1805,1296,0,0
588,-272,0,0,0,0,0,0,0,0,0,-1,1812,1296,0,0
595,-272,0,0,0,0,0,0,0,0,0,-1,1819,1296,0,0
602,-272,53.8342,2.65613,-0.0113409,0.0129769,-0.00640254,0.0145596,-0.0129236,-1.32846,0.0158768,0.0305127,1826,1296,53.8343,-2.65618
609,-272,53.7675,2.57385,-0.00578718,0.0165879,-0.00317462,0.0170296,-0.00622888,-1.43255,0.0139026,0.0352703,1833,1296,53.7674,-2.57383
616,-272,53.6943,2.45105,-0.00124338,0.0171841,-0.000468582,0.017196,-0.00125529,-1.54539,0.0119045,0.042202,1840,1296,53.6943,-2.45104
623,-272,53.8435,2.63696,0.00155557,0.0152135,0.000933173,0.015277,0.0014921,1.50289,0.00972553,0.0465818,1847,1296,53.8436,-2.63692
630,-272,53.8977,2.68811,0,0,0,0,0,0,0,-1,1854,1296,53.8977,-2.68813
637,-272,53.7084,1.76929,0,0,0,0,0,0,0,-1,1861,1296,53.7083,-1.76929
644,-272,48.4819,-0.241943,0,0,0,0,0,0,0,-1,1868,1296,48.4819,0.24191
651,-272,41.9225,4.27161,0,0,0,0,0,0,0,-1,1875,1296,41.9225,-4.27157
658,-272,35.1527,2.10571,0,0,0,0,0,0,0,-1,1882,1296,35.1527,-2.10573
665,-272,22.0238,4.14417,0,0,0,0,0,0,0,-1,1889,1296,22.0238,-4.14421
672,-272,22.661,7.21765,0,0,0,0,0,0,0,-1,1896,1296,22.661,-7.21761
679,-272,38.559,11.6578,0,0,0,0,0,0,0,-1,1903,1296,38.559,-11.6578
686,-272,38.5541,11.1123,0.00320552,-0.000636278,0.000773468,0.0033554,-0.000786153,0.191398,0.00253987,0.0252613,1910,1296,38.5541,-11.1123
693,-272,38.562,10.5667,0.00134911,-0.00112425,-3.03883e-05,0.00134949,-0.00112463,-0.0122837,0.00143039,0.0115929,1917,1296,38.562,-10.5666
700,-272,38.541,10.0265,0.000555901,-0.000292389,0.000250663,0.000624433,-0.000360921,0.266882,0.000575636,0.0124521,1924,1296,38.541,-10.0265
707,-272,38.5184,9.50037,-0.000300092,-0.000453732,0.000604323,0.000232274,-0.000986099,0.722178,0.00074696,0.0118468,1931,1296,38.5185,-9.50032
714,-272,38.4918,8.96777,-0.00114327,-0.000785528,0.00151339,0.000559522,-0.00248832,0.844222,0.00187345,0.0134359,1938,1296,38.4918,-8.96779
721,-272,38.4662,8.4751,-0.00203426,-0.00115073,0.002379,0.000827173,-0.00401216,0.877199,0.0029889,0.0171241,1945,1296,38.4662,-8.47516
728,-272,38.4561,7.9624,-0.00311526,-0.00164333,0.0033676,0.00106779,-0.00582638,0.892978,0.00428477,0.0183891,1952,1296,38.456,-7.96241
735,-272,38.4471,7.49731,-0.0042984,-0.00220578,0.00437216,0.00124352,-0.0077477,0.902845,0.00562564,0.0159352,1959,1296,38.4471,-7.49736
742,-272,38.384,7.04224,-0.00555436,-0.00286467,0.0053809,0.0013369,-0.00975593,0.907854,0.00699232,0.0251948,1966,1296,38.384,-7.04228
749,-272,38.3792,6.68884,-0.00685663,-0.00350662,0.00620893,0.00124928,-0.0116125,0.917149,0.00818993,0.0478533,1973,1296,38.3792,-6.68884
756,-272,38.5597,6.42175,0,0,0,0,0,0,0,-1,1980,1296,38.5597,-6.42171
763,-272,34.3995,5.88416,0,0,0,0,0,0,0,-1,1987,1296,34.3996,-5.88419
770,-272,25.9485,3.67749,0,0,0,0,0,0,0,-1,1994,1296,25.9485,-3.67744
777,-272,32.3619,6.13257,0,0,0,0,0,0,0,-1,2001,1296,32.362,-6.1326
784,-272,0,0,0,0,0,0,0,0,0,-1,2008,1296,0,0
791,-272,0,0,0,0,0,0,0,0,0,-1,2015,1296,0,0
798,-272,0,0,0,0,0,0,0,0,0,-1,2022,1296,0,0
805,-272,0,0,0,0,0,0,0,0,0,-1,2029,1296,0,0
812,-272,0,0,0,0,0,0,0,0,0,-1,2036,1296,0,0
-700,-279,0,0,0,0,0,0,0,0,0,-1,524,1303,0,0
-693,-279,0,0,0,0,0,0,0,0,0,-1,531,1303,0,0
-686,-279,0,0,0,0,0,0,0,0,0,-1,538,1303,0,0
-679,-279,0,0,0,0,0,0,0,0,0,-1,545,1303,0,0
-672,-279,0,0,0,0,0,0,0,0,0,-1,552,1303,0,0
-665,-279,0,0,0,0,0,0,0,0,0,-1,559,1303,0,0
-658,-279,-37.5104,0.649658,-0.0189858,-0.0381836,0.0284433,0.00143469,-0.058604,0.622662,0.0395563,0.0424036,566,1303,-37.5105,-0.649669
-651,-279,-37.7213,0.227173,0,0,0,0,0,0,0,-1,573,1303,-37.7213,-0.227215
-644,-279,-37.8957,-0.373413,-0.0106798,-0.0385986,0.0185512,-0.00142254,-0.0478558,0.462856,0.0314404,0.041555,580,1303,-37.8957,0.373419
-637,-279,-37.8995,-1.21082,-0.00754706,-0.0316147,0.0173218,0.00151077,-0.0406725,0.481811,0.0276324,0.0479619,587,1303,-37.8995,1.21076
-630,-279,-37.8927,-1.96741,0,0,0,0,0,0,0,-1,594,1303,-37.8927,1.96745
-623,-279,-22.2665,2.68457,0,0,0,0,0,0,0,-1,601,1303,-22.2665,-2.68451
-616,-279,-23.6301,3.47302,0,0,0,0,0,0,0,-1,608,1303,-23.6301,-3.47299
-609,-279,-23.4033,4.93909,0,0,0,0,0,0,0,-1,615,1303,-23.4033,-4.93912
-602,-279,-23.262,5.10193,0.000707311,-0.00448987,0.00642823,0.00504233,-0.00882488,0.593317,0.00810491,0.0156556,622,1303,-23.262,-5.10187
-595,-279,-23.3203,5.67126,0.000935295,-0.00178033,0.00335914,0.00320066,-0.0040457,0.593331,0.00419316,0.0101277,629,1303,-23.3203,-5.67122
-588,-279,-23.3509,6.23486,0.00119379,8.0792e-05,0.00137116,0.00211707,-0.000842497,0.592625,0.00176074,0.0106935,636,1303,-23.3509,-6.23492
-581,-279,-23.3833,6.79309,0.00140229,0.000951268,0.000986097,0.00218834,0.000165226,0.672985,0.00140705,0.0123323,643,1303,-23.3833,-6.79309
-574,-279,-23.4014,7.37793,0.00199202,5.81305e-05,0.000805137,0.00228333,-0.000233189,0.347171,0.00160561,0.0133158,650,1303,-23.4013,-7.37788
-567,-279,-23.4061,7.9425,0.00278294,-0.000763719,0.000802868,0.00295623,-0.000937,0.212567,0.00234637,0.01722,657,1303,-23.4061,-7.94248
-560,-279,-23.41,8.5354,0.00328367,-0.00136988,0.000965716,0.00347612,-0.00156233,0.196704,0.00297808,0.0161078,664,1303,-23.41,-8.53538
-553,-279,-23.4098,9.1095,0.00328081,-0.00201204,0.00132081,0.00359211,-0.00232333,0.231461,0.00344137,0.0136921,671,1303,-23.4098,-9.10947
-546,-279,-23.4166,9.70007,0.00260238,-0.002503,0.00203253,0.00331273,-0.00321335,0.336219,0.00376798,0.0292761,678,1303,-23.4166,-9.70005
-539,-279,-23.6901,10.3832,0,0,0,0,0,0,0,-1,685,1303,-23.6901,-10.3832
-532,-279,-14.9813,7.89917,0,0,0,0,0,0,0,-1,692,1303,-14.9813,-7.89918
-525,-279,-11.7063,-0.539185,0,0,0,0,0,0,0,-1,699,1303,-11.7063,0.539166
-518,-279,-16.8138,1.11963,0,0,0,0,0,0,0,-1,706,1303,-16.8138,-1.11968
-511,-279,-20.1063,-1.37915,0,0,0,0,0,0,0,-1,713,1303,-20.1062,1.37918
-504,-279,-18.3766,1.04578,0,0,0,0,0,0,0,-1,720,1303,-18.3767,-1.04577
-497,-279,-19.0046,2.08911,0,0,0,0,0,0,0,-1,727,1303,-19.0046,-2.08905
-490,-279,-20.0176,2.55188,0,0,0,0,0,0,0,-1,734,1303,-20.0176,-2.55183
-483,-279,-20.8064,2.99792,0,0,0,0,0,0,0,-1,741,1303,-20.8064,-2.99797
-476,-279,0,0,0,0,0,0,0,0,0,-1,748,1303,0,0
-469,-279,0,0,0,0,0,0,0,0,0,-1,755,1303,0,0
-462,-279,0,0,0,0,0,0,0,0,0,-1,762,1303,0,0
-455,-279,0,0,0,0,0,0,0,0,0,-1,769,1303,0,0
-448,-279,0,0,0,0,0,0,0,0,0,-1,776,1303,0,0
-441,-279,0,0,0,0,0,0,0,0,0,-1,783,1303,0,0
-434,-279,0,0,0,0,0,0,0,0,0,-1,790,1303,0,0
-427,-279,0,0,0,0,0,0,0,0,0,-1,797,1303,0,0
-420,-279,0,0,0,0,0,0,0,0,0,-1,804,1303,0,0
-413,-279,0,0,0,0,0,0,0,0,0,-1,811,1303,0,0
-406,-279,0,0,0,0,0,0,0,0,0,-1,818,1303,0,0
-399,-279,0,0,0,0,0,0,0,0,0,-1,825,1303,0,0
-392,-279,0,0,0,0,0,0,0,0,0,-1,832,1303,0,0
-385,-279,0,0,0,0,0,0,0,0,0,-1,839,1303,0,0
-378,-279,0,0,0,0,0,0,0,0,0,-1,846,1303,0,0
-371,-279,0,0,0,0,0,0,0,0,0,-1,853,1303,0,0
-364,-279,0,0,0,0,0,0,0,0,0,-1,860,1303,0,0
-357,-279,0,0,0,0,0,0,0,0,0,-1,867,1303,0,0
-350,-279,0,0,0,0,0,0,0,0,0,-1,874,1303,0,0
-343,-279,0,0,0,0,0,0,0,0,0,-1,881,1303,0,0
-336,-279,0,0,0,0,0,0,0,0,0,-1,888,1303,0,0
-329,-279,0,0,0,0,0,0,0,0,0,-1,895,1303,0,0
-322,-279,0,0,0,0,0,0,0,0,0,-1,902,1303,0,0
-315,-279,0,0,0,0,0,0,0,0,0,-1,909,1303,0,0
-308,-279,0,0,0,0,0,0,0,0,0,-1,916,1303,0,0
-301,-279,0,0,0,0,0,0,0,0,0,-1,923,1303,0,0
-294,-279,0,0,0,0,0,0,0,0,0,-1,930,1303,0,0
-287,-279,0,0,0,0,0,0,0,0,0,-1,937,1303,0,0
-280,-279,0,0,0,0,0,0,0,0,0,-1,944,1303,0,0
-273,-279,0,0,0,0,0,0,0,0,0,-1,951,1303,0,0
-266,-279,0,0,0,0,0,0,0,0,0,-1,958,1303,0,0
-259,-279,0,0,0,0,0,0,0,0,0,-1,965,1303,0,0
-252,-279,0,0,0,0,0,0,0,0,0,-1,972,1303,0,0
-245,-279,0,0,0,0,0,0,0,0,0,-1,979,1303,0,0
-238,-279,0,0,0,0,0,0,0,0,0,-1,986,1303,0,0
-231,-279,0,0,0,0,0,0,0,0,0,-1,993,1303,0,0
-224,-279,0,0,0,0,0,0,0,0,0,-1,1000,1303,0,0
-217,-279,0,0,0,0,0,0,0,0,0,-1,1007,1303,0,0
-210,-279,0,0,0,0,0,0,0,0,0,-1,1014,1303,0,0
-203,-279,0,0,0,0,0,0,0,0,0,-1,1021,1303,0,0
-196,-279,0,0,0,0,0,0,0,0,0,-1,1028,1303,0,0
-189,-279,0,0,0,0,0,0,0,0,0,-1,1035,1303,0,0
-182,-279,0,0,0,0,0,0,0,0,0,-1,1042,1303,0,0
-175,-279,0,0,0,0,0,0,0,0,0,-1,1049,1303,0,0
-168,-279,0,0,0,0,0,0,0,0,0,-1,1056,1303,0,0
-161,-279,0,0,0,0,0,0,0,0,0,-1,1063,1303,0,0
-154,-279,0,0,0,0,0,0,0,0,0,-1,1070,1303,0,0
-147,-279,0,0,0,0,0,0,0,0,0,-1,1077,1303,0,0
-140,-279,0,0,0,0,0,0,0,0,0,-1,1084,1303,0,0
-133,-279,0,0,0,0,0,0,0,0,0,-1,1091,1303,0,0
-126,-279,0,0,0,0,0,0,0,0,0,-1,1098,1303,0,0
-119,-279,0,0,0,0,0,0,0,0,0,-1,1105,1303,0,0
-112,-279,0,0,0,0,0,0,0,0,0,-1,1112,1303,0,0
-105,-279,0,0,0,0,0,0,0,0,0,-1,1119,1303,0,0
-98,-279,0,0,0,0,0,0,0,0,0,-1,1126,1303,0,0
-91,-279,0,0,0,0,0,0,0,0,0,-1,1133,1303,0,0
-84,-279,0,0,0,0,0,0,0,0,0,-1,1140,1303,0,0
-77,-279,0,0,0,0,0,0,0,0,0,-1,1147,1303,0,0
-70,-279,0,0,0,0,0,0,0,0,0,-1,1154,1303,0,0
-63,-279,0,0,0,0,0,0,0,0,0,-1,1161,1303,0,0
-56,-279,0,0,0,0,0,0,0,0,0,-1,1168,1303,0,0
-49,-279,0,0,0,0,0,0,0,0,0,-1,1175,1303,0,0
-42,-279,0,0,0,0,0,0,0,0,0,-1,1182,1303,0,0
-35,-279,0,0,0,0,0,0,0,0,0,-1,1189,1303,0,0
-28,-279,0,0,0,0,0,0,0,0,0,-1,1196,1303,0,0
-21,-279,0,0,0,0,0,0,0,0,0,-1,1203,1303,0,0
-14,-279,0,0,0,0,0,0,0,0,0,-1,1210,1303,0,0
-7,-279,0,0,0,0,0,0,0,0,0,-1,1217,1303,0,0
0,-279,0,0,0,0,0,0,0,0,0,-1,1224,1303,0,0
7,-279,0,0,0,0,0,0,0,0,0,-1,1231,1303,0,0
14,-279,0,0,0,0,0,0,0,0,0,-1,1238,1303,0,0
21,-279,0,0,0,0,0,0,0,0,0,-1,1245,1303,0,0
28,-279,0,0,0,0,0,0,0,0,0,-1,1252,1303,0,0
35,-279,0,0,0,0,0,0,0,0,0,-1,1259,1303,0,0
42,-279,0,0,0,0,0,0,0,0,0,-1,1266,1303,0,0
49,-279,0,0,0,0,0,0,0,0,0,-1,1273,1303,0,0
56,-279,0,0,0,0,0,0,0,0,0,-1,1280,1303,0,0
63,-279,0,0,0,0,0,0,0,0,0,-1,1287,1303,0,0
70,-279,0,0,0,0,0,0,0,0,0,-1,1294,1303,0,0
77,-279,0,0,0,0,0,0,0,0,0,-1,1301,1303,0,0
84,-279,0,0,0,0,0,0,0,0,0,-1,1308,1303,0,0
91,-279,0,0,0,0,0,0,0,0,0,-1,1315,1303,0,0
98,-279,0,0,0,0,0,0,0,0,0,-1,1322,1303,0,0
105,-279,0,0,0,0,0,0,0,0,0,-1,1329,1303,0,0
112,-279,0,0,0,0,0,0,0,0,0,-1,1336,1303,0,0
119,-279,0,0,0,0,0,0,0,0,0,-1,1343,1303,0,0
126,-279,0,0,0,0,0,0,0,0,0,-1,1350,1303,0,0
133,-279,0,0,0,0,0,0,0,0,0,-1,1357,1303,0,0
140,-279,0,0,0,0,0,0,0,0,0,-1,1364,1303,0,0
147,-279,0,0,0,0,0,0,0,0,0,-1,1371,1303,0,0
154,-279,0,0,0,0,0,0,0,0,0,-1,1378,1303,0,0
161,-279,0,0,0,0,0,0,0,0,0,-1,1385,1303,0,0
168,-279,0,0,0,0,0,0,0,0,0,-1,1392,1303,0,0
175,-279,0,0,0,0,0,0,0,0,0,-1,1399,1303,0,0
182,-279,0,0,0,0,0,0,0,0,0,-1,1406,1303,0,0
189,-279,0,0,0,0,0,0,0,0,0,-1,1413,1303,0,0
196,-279,0,0,0,0,0,0,0,0,0,-1,1420,1303,0,0
203,-279,0,0,0,0,0,0,0,0,0,-1,1427,1303,0,0
210,-279,0,0,0,0,0,0,0,0,0,-1,1434,1303,0,0
217,-279,0,0,0,0,0,0,0,0,0,-1,1441,1303,0,0
224,-279,0,0,0,0,0,0,0,0,0,-1,1448,1303,0,0
231,-279,0,0,0,0,0,0,0,0,0,-1,1455,1303,0,0
238,-279,0,0,0,0,0,0,0,0,0,-1,1462,1303,0,0
245,-279,0,0,0,0,0,0,0,0,0,-1,1469,1303,0,0
252,-279,0,0,0,0,0,0,0,0,0,-1,1476,1303,0,0
259,-279,0,0,0,0,0,0,0,0,0,-1,1483,1303,0,0
266,-279,0,0,0,0,0,0,0,0,0,-1,1490,1303,0,0
273,-279,0,0,0,0,0,0,0,0,0,-1,1497,1303,0,0
280,-279,0,0,0,0,0,0,0,0,0,-1,1504,1303,0,0
287,-279,0,0,0,0,0,0,0,0,0,-1,1511,1303,0,0
294,-279,0,0,0,0,0,0,0,0,0,-1,1518,1303,0,0
301,-279,0,0,0,0,0,0,0,0,0,-1,1525,1303,0,0
308,-279,0,0,0,0,0,0,0,0,0,-1,1532,1303,0,0
315,-279,0,0,0,0,0,0,0,0,0,-1,1539,1303,0,0
322,-279,0,0,0,0,0,0,0,0,0,-1,1546,1303,0,0
329,-279,0,0,0,0,0,0,0,0,0,-1,1553,1303,0,0
336,-279,0,0,0,0,0,0,0,0,0,-1,1560,1303,0,0
343,-279,0,0,0,0,0,0,0,0,0,-1,1567,1303,0,0
350,-279,0,0,0,0,0,0,0,0,0,-1,1574,1303,0,0
357,-279,0,0,0,0,0,0,0,0,0,-1,1581,1303,0,0
364,-279,0,0,0,0,0,0,0,0,0,-1,1588,1303,0,0
371,-279,0,0,0,0,0,0,0,0,0,-1,1595,1303,0,0
378,-279,0,0,0,0,0,0,0,0,0,-1,1602,1303,0,0
385,-279,0,0,0,0,0,0,0,0,0,-1,1609,1303,0,0
392,-279,0,0,0,0,0,0,0,0,0,-1,1616,1303,0,0
399,-279,0,0,0,0,0,0,0,0,0,-1,1623,1303,0,0
406,-279,0,0,0,0,0,0,0,0,0,-1,1630,1303,0,0
413,-279,0,0,0,0,0,0,0,0,0,-1,1637,1303,0,0
420,-279,0,0,0,0,0,0,0,0,0,-1,1644,1303,0,0
427,-279,0,0,0,0,0,0,0,0,0,-1,1651,1303,0,0
434,-279,0,0,0,0,0,0,0,0,0,-1,1658,1303,0,0
441,-279,0,0,0,0,0,0,0,0,0,-1,1665,1303,0,0
448,-279,0,0,0,0,0,0,0,0,0,-1,1672,1303,0,0
455,-279,0,0,0,0,0,0,0,0,0,-1,1679,1303,0,0
462,-279,0,0,0,0,0,0,0,0,0,-1,1686,1303,0,0
469,-279,0,0,0,0,0,0,0,0,0,-1,1693,1303,0,0
476,-279,0,0,0,0,0,0,0,0,0,-1,1700,1303,0,0
483,-279,0,0,0,0,0,0,0,0,0,-1,1707,1303,0,0
490,-279,0,0,0,0,0,0,0,0,0,-1,1714,1303,0,0
497,-279,0,0,0,0,0,0,0,0,0,-1,1721,1303,0,0
504,-279,0,0,0,0,0,0,0,0,0,-1,1728,1303,0,0
511,-279,0,0,0,0,0,0,0,0,0,-1,1735,1303,0,0
518,-279,0,0,0,0,0,0,0,0,0,-1,1742,1303,0,0
525,-279,0,0,0,0,0,0,0,0,0,-1,1749,1303,0,0
532,-279,0,0,0,0,0,0,0,0,0,-1,1756,1303,0,0
539,-279,0,0,0,0,0,0,0,0,0,-1,1763,1303,0,0
546,-279,0,0,0,0,0,0,0,0,0,-1,1770,1303,0,0
553,-279,0,0,0,0,0,0,0,0,0,-1,1777,1303,0,0
560,-279,0,0,0,0,0,0,0,0,0,-1,1784,1303,0,0
567,-279,0,0,0,0,0,0,0,0,0,-1,1791,1303,0,0
574,-279,0,0,0,0,0,0,0,0,0,-1,1798,1303,0,0
581,-279,0,0,0,0,0,0,0,0,0,-1,1805,1303,0,0
588,-279,0,0,0,0,0,0,0,0,0,-1,1812,1303,0,0
595,-279,0,0,0,0,0,0,0,0,0,-1,1819,1303,0,0
602,-279,53.8381,2.63281,-0.0127382,0.0195269,-0.00777565,0.021303,-0.0145143,-1.34623,0.0208026,0.0425227,1826,1303,53.8381,-2.63278
609,-279,53.7466,2.47607,-0.00699301,0.0225665,-0.00446813,0.0232271,-0.00765364,-1.42401,0.0185694,0.0482045,1833,1303,53.7466,-2.47611
616,-279,53.5575,2.2771,-0.00362103,0.0197395,-0.00212503,0.0199312,-0.00381277,-1.48081,0.0147239,0.044569,1840,1303,53.5575,-2.27708
623,-279,53.8773,2.65662,0,0,0,0,0,0,0,-1,1847,1303,53.8773,-2.65667
630,-279,53.5808,3.41333,0,0,0,0,0,0,0,-1,1854,1303,53.5808,-3.41333
637,-279,53.5648,3.08679,0,0,0,0,0,0,0,-1,1861,1303,53.5648,-3.08685
644,-279,33.5021,3.40234,0,0,0,0,0,0,0,-1,1868,1303,33.5021,-3.40237
651,-279,29.8456,2.3562,0,0,0,0,0,0,0,-1,1875,1303,29.8455,-2.35615
658,-279,21.5076,7.65649,0,0,0,0,0,0,0,-1,1882,1303,21.5076,-7.65648
665,-279,18.9794,6.09607,0,0,0,0,0,0,0,-1,1889,1303,18.9793,-6.09601
672,-279,23.5206,8.32507,0,0,0,0,0,0,0,-1,1896,1303,23.5206,-8.32512
679,-279,37.9966,11.6996,0,0,0,0,0,0,0,-1,1903,1303,37.9966,-11.6996
686,-279,38.0234,11.1626,0.00309675,-0.000417817,0.000588076,0.00319254,-0.000513606,0.161468,0.0023186,0.0270881,1910,1303,38.0235,-11.1626
693,-279,38.0204,10.6029,0.00134574,-0.000889064,-8.66182e-05,0.00134909,-0.000892416,-0.0386813,0.00130306,0.0165984,1917,1303,38.0204,-10.6029
700,-279,38.0144,10.0657,0.000557254,-0.000309099,0.000310207,0.000656873,-0.000408717,0.310732,0.000620755,0.0122793,1924,1303,38.0144,-10.0657
707,-279,37.9746,9.52588,-0.000277421,-0.00056322,0.00082454,0.000416511,-0.00125715,0.699596,0.0010061,0.00967837,1931,1303,37.9746,-9.52585
714,-279,37.9526,8.99426,-0.00115151,-0.00095741,0.00174352,0.00069176,-0.00280068,0.813201,0.00213539,0.0106737,1938,1303,37.9526,-8.99432
721,-279,37.9824,8.4834,-0.00214449,-0.0014349,0.00266749,0.000901279,-0.00448067,0.851514,0.00332847,0.014858,1945,1303,37.9825,-8.48343
728,-279,37.9755,7.99573,-0.00336303,-0.00207347,0.00373949,0.00107642,-0.00651293,0.870771,0.00474166,0.0164045,1952,1303,37.9755,-7.99574
735,-279,37.9208,7.52051,-0.00476905,-0.00284448,0.00487204,0.0011594,-0.00877293,0.882899,0.00627092,0.0153945,1959,1303,37.9208,-7.52049
742,-279,37.8256,7.09863,-0.00639791,-0.00381105,0.00607901,0.0011106,-0.0113196,0.89022,0.0079425,0.0300325,1966,1303,37.8256,-7.09861
749,-279,37.866,7.047,0,0,0,0,0,0,0,-1,1973,1303,37.8659,-7.04694
756,-279,23.2091,4.43433,0,0,0,0,0,0,0,-1,1980,1303,23.2092,-4.43432
763,-279,27.1613,3.46265,0,0,0,0,0,0,0,-1,1987,1303,27.1613,-3.4627
770,-279,21.5828,3.54199,0,0,0,0,0,0,0,-1,1994,1303,21.5827,-3.54198
777,-279,32.5369,6.99609,0,0,0,0,0,0,0,-1,2001,1303,32.5369,-6.99608
784,-279,0,0,0,0,0,0,0,0,0,-1,2008,1303,0,0
791,-279,0,0,0,0,0,0,0,0,0,-1,2015,1303,0,0
798,-279,0,0,0,0,0,0,0,0,0,-1,2022,1303,0,0
805,-279,0,0,0,0,0,0,0,0,0,-1,2029,1303,0,0
812,-279,0,0,0,0,0,0,0,0,0,-1,2036,1303,0,0
-700,-286,0,0,0,0,0,0,0,0,0,-1,524,1310,0,0
-693,-286,0,0,0,0,0,0,0,0,0,-1,531,1310,0,0
-686,-286,0,0,0,0,0,0,0,0,0,-1,538,1310,0,0
-679,-286,0,0,0,0,0,0,0,0,0,-1,545,1310,0,0
-672,-286,0,0,0,0,0,0,0,0,0,-1,552,1310,0,0
-665,-286,0,0,0,0,0,0,0,0,0,-1,559,1310,0,0
-658,-286,-38.3453,0.977295,0,0,0,0,0,0,0,-1,566,1310,-38.3453,-0.977338
-651,-286,-38.598,0.329712,0,0,0,0,0,0,0,-1,573,1310,-38.598,-0.329668
-644,-286,-38.4286,0.334717,-0.013606,-0.057888,0.0052586,-0.0129901,-0.0585039,0.116592,0.0354744,0.0447842,580,1310,-38.4286,-0.334716
-637,-286,-38.3278,-0.351196,-0.00987436,-0.0467456,0.0069508,-0.00860755,-0.0480124,0.180275,0.0295598,0.0487621,587,1310,-38.3278,0.351213
-630,-286,-38.5034,-1.13623,0,0,0,0,0,0,0,-1,594,1310,-38.5034,1.13617
-623,-286,-20.1415,-1.72998,0,0,0,0,0,0,0,-1,601,1310,-20.1415,1.72995
-616,-286,-22.0634,2.37744,0,0,0,0,0,0,0,-1,608,1310,-22.0633,-2.37746
-609,-286,-22.8154,4.29443,0,0,0,0,0,0,0,-1,615,1310,-22.8154,-4.29439
-602,-286,-22.7186,5.03699,0.000287123,-0.00685084,0.00463037,0.00256433,-0.00912805,0.457065,0.00709631,0.0210723,622,1310,-22.7186,-5.037
-595,-286,-22.7543,5.68396,0.000763147,-0.00285432,0.00250533,0.00204443,-0.0041356,0.472743,0.00363549,0.0112477,629,1310,-22.7543,-5.684
-588,-286,-22.7748,6.23364,0.00108365,-6.39353e-05,0.00114961,0.00179471,-0.000774996,0.553927,0.00152206,0.0124964,636,1310,-22.7748,-6.23359
-581,-286,-22.7791,6.79431,0.00119972,0.0013713,0.0010541,0.00234309,0.000227922,0.826003,0.0014919,0.0153996,643,1310,-22.7791,-6.79436
-574,-286,-22.798,7.38123,0.001704,0.000510486,0.00085114,0.00214674,6.77435e-05,0.479658,0.00140912,0.0156616,650,1310,-22.798,-7.38123
-567,-286,-22.8122,7.96069,0.00236437,-0.000253096,0.000814045,0.00259689,-0.000485613,0.278223,0.00191378,0.0147084,657,1310,-22.8122,-7.9607
-560,-286,-22.8165,8.55518,0.00297691,-0.000916554,0.000923994,0.00318506,-0.00112471,0.221577,0.00258129,0.0138696,664,1310,-22.8165,-8.5552
-553,-286,-22.8207,9.14124,0.00341974,-0.00156722,0.00117271,0.00368175,-0.00182922,0.219808,0.00324113,0.00974065,671,1310,-22.8207,-9.14127
-546,-286,-22.848,9.73706,0.00342614,-0.00205907,0.00174329,0.00393329,-0.00256623,0.283104,0.00378006,0.0212789,678,1310,-22.848,-9.73702
-539,-286,-22.9574,10.3899,0,0,0,0,0,0,0,-1,685,1310,-22.9574,-10.3898
-532,-286,-21.6771,10.4924,0,0,0,0,0,0,0,-1,692,1310,-21.6771,-10.4924
-525,-286,-11.4528,-1.11768,0,0,0,0,0,0,0,-1,699,1310,-11.4528,1.11769
-518,-286,-11.0701,1.37329,0,0,0,0,0,0,0,-1,706,1310,-11.0701,-1.37332
-511,-286,-17.7545,-0.0791016,0,0,0,0,0,0,0,-1,713,1310,-17.7544,0.0791606
-504,-286,-18.0455,1.29602,0,0,0,0,0,0,0,-1,720,1310,-18.0455,-1.29601
-497,-286,-18.3367,2.67114,0,0,0,0,0,0,0,-1,727,1310,-18.3366,-2.67118
-490,-286,-19.5795,2.47266,0,0,0,0,0,0,0,-1,734,1310,-19.5795,-2.4727
-483,-286,-19.7277,2.74744,0,0,0,0,0,0,0,-1,741,1310,-19.7277,-2.74747
-476,-286,-20.0391,3.06177,0,0,0,0,0,0,0,-1,748,1310,-20.0391,-3.06178
-469,-286,0,0,0,0,0,0,0,0,0,-1,755,1310,0,0
-462,-286,0,0,0,0,0,0,0,0,0,-1,762,1310,0,0
-455,-286,0,0,0,0,0,0,0,0,0,-1,769,1310,0,0
-448,-286,0,0,0,0,0,0,0,0,0,-1,776,1310,0,0
-441,-286,0,0,0,0,0,0,0,0,0,-1,783,1310,0,0
-434,-286,0,0,0,0,0,0,0,0,0,-1,790,1310,0,0
-427,-286,0,0,0,0,0,0,0,0,0,-1,797,1310,0,0
-420,-286,0,0,0,0,0,0,0,0,0,-1,804,1310,0,0
-413,-286,0,0,0,0,0,0,0,0,0,-1,811,1310,0,0
-406,-286,0,0,0,0,0,0,0,0,0,-1,818,1310,0,0
-399,-286,0,0,0,0,0,0,0,0,0,-1,825,1310,0,0
-392,-286,0,0,0,0,0,0,0,0,0,-1,832,1310,0,0
-385,-286,0,0,0,0,0,0,0,0,0,-1,839,1310,0,0
-378,-286,0,0,0,0,0,0,0,0,0,-1,846,1310,0,0
-371,-286,0,0,0,0,0,0,0,0,0,-1,853,1310,0,0
-364,-286,0,0,0,0,0,0,0,0,0,-1,860,1310,0,0
-357,-286,0,0,0,0,0,0,0,0,0,-1,867,1310,0,0
-350,-286,0,0,0,0,0,0,0,0,0,-1,874,1310,0,0
-343,-286,0,0,0,0,0,0,0,0,0,-1,881,1310,0,0
-336,-286,0,0,0,0,0,0,0,0,0,-1,888,1310,0,0
-329,-286,0,0,0,0,0,0,0,0,0,-1,895,1310,0,0
-322,-286,0,0,0,0,0,0,0,0,0,-1,902,1310,0,0
-315,-286,0,0,0,0,0,0,0,0,0,-1,909,1310,0,0
-308,-286,0,0,0,0,0,0,0,0,0,-1,916,1310,0,0
-301,-286,0,0,0,0,0,0,0,0,0,-1,923,1310,0,0
-294,-286,0,0,0,0,0,0,0,0,0,-1,930,1310,0,0
-287,-286,0,0,0,0,0,0,0,0,0,-1,937,1310,0,0
-280,-286,0,0,0,0,0,0,0,0,0,-1,944,1310,0,0
-273,-286,0,0,0,0,0,0,0,0,0,-1,951,1310,0,0
-266,-286,0,0,0,0,0,0,0,0,0,-1,958,1310,0,0
-259,-286,0,0,0,0,0,0,0,0,0,-1,965,1310,0,0
-252,-286,0,0,0,0,0,0,0,0,0,-1,972,1310,0,0
-245,-286,0,0,0,0,0,0,0,0,0,-1,979,1310,0,0
-238,-286,0,0,0,0,0,0,0,0,0,-1,986,1310,0,0
-231,-286,0,0,0,0,0,0,0,0,0,-1,993,1310,0,0
-224,-286,0,0,0,0,0,0,0,0,0,-1,1000,1310,0,0
-217,-286,0,0,0,0,0,0,0,0,0,-1,1007,1310,0,0
-210,-286,0,0,0,0,0,0,0,0,0,-1,1014,1310,0,0
-203,-286,0,0,0,0,0,0,0,0,0,-1,1021,1310,0,0
-196,-286,0,0,0,0,0,0,0,0,0,-1,1028,1310,0,0
-189,-286,0,0,0,0,0,0,0,0,0,-1,1035,1310,0,0
-182,-286,0,0,0,0,0,0,0,0,0,-1,1042,1310,0,0
-175,-286,0,0,0,0,0,0,0,0,0,-1,1049,1310,0,0
-168,-286,0,0,0,0,0,0,0,0,0,-1,1056,1310,0,0
-161,-286,0,0,0,0,0,0,0,0,0,-1,1063,1310,0,0
-154,-286,0,0,0,0,0,0,0,0,0,-1,1070,1310,0,0
-147,-286,0,0,0,0,0,0,0,0,0,-1,1077,1310,0,0
-140,-286,0,0,0,0,0,0,0,0,0,-1,1084,1310,0,0
-133,-286,0,0,0,0,0,0,0,0,0,-1,1091,1310,0,0
-126,-286,0,0,0,0,0,0,0,0,0,-1,1098,1310,0,0
-119,-286,0,0,0,0,0,0,0,0,0,-1,1105,1310,0,0
-112,-286,0,0,0,0,0,0,0,0,0,-1,1112,1310,0,0
-105,-286,0,0,0,0,0,0,0,0,0,-1,1119,1310,0,0
-98,-286,0,0,0,0,0,0,0,0,0,-1,1126,1310,0,0
-91,-286,0,0,0,0,0,0,0,0,0,-1,1133,1310,0,0
-84,-286,0,0,0,0,0,0,0,0,0,-1,1140,1310,0,0
-77,-286,0,0,0,0,0,0,0,0,0,-1,1147,1310,0,0
-70,-286,0,0,0,0,0,0,0,0,0,-1,1154,1310,0,0
-63,-286,0,0,0,0,0,0,0,0,0,-1,1161,1310,0,0
-56,-286,0,0,0,0,0,0,0,0,0,-1,1168,1310,0,0
-49,-286,0,0,0,0,0,0,0,0,0,-1,1175,1310,0,0
-42,-286,0,0,0,0,0,0,0,0,0,-1,1182,1310,0,0
-35,-286,0,0,0,0,0,0,0,0,0,-1,1189,1310,0,0
-28,-286,0,0,0,0,0,0,0,0,0,-1,1196,1310,0,0
-21,-286,0,0,0,0,0,0,0,0,0,-1,1203,1310,0,0
-14,-286,0,0,0,0,0,0,0,0,0,-1,1210,1310,0,0
-7,-286,0,0,0,0,0,0,0,0,0,-1,1217,1310,0,0
0,-286,0,0,0,0,0,0,0,0,0,-1,1224,1310,0,0
7,-286,0,0,0,0,0,0,0,0,0,-1,1231,1310,0,0
14,-286,0,0,0,0,0,0,0,0,0,-1,1238,1310,0,0
21,-286,0,0,0,0,0,0,0,0,0,-1,1245,1310,0,0
28,-286,0,0,0,0,0,0,0,0,0,-1,1252,1310,0,0
35,-286,0,0,0,0,0,0,0,0,0,-1,1259,1310,0,0
42,-286,0,0,0,0,0,0,0,0,0,-1,1266,1310,0,0
49,-286,0,0,0,0,0,0,0,0,0,-1,1273,1310,0,0
56,-286,0,0,0,0,0,0,0,0,0,-1,1280,1310,0,0
63,-286,0,0,0,0,0,0,0,0,0,-1,1287,1310,0,0
70,-286,0,0,0,0,0,0,0,0,0,-1,1294,1310,0,0
77,-286,0,0,0,0,0,0,0,0,0,-1,1301,1310,0,0
84,-286,0,0,0,0,0,0,0,0,0,-1,1308,1310,0,0
91,-286,0,0,0,0,0,0,0,0,0,-1,1315,1310,0,0
98,-286,0,0,0,0,0,0,0,0,0,-1,1322,1310,0,0
105,-286,0,0,0,0,0,0,0,0,0,-1,1329,1310,0,0
112,-286,0,0,0,0,0,0,0,0,0,-1,1336,1310,0,0
119,-286,0,0,0,0,0,0,0,0,0,-1,1343,1310,0,0
126,-286,0,0,0,0,0,0,0,0,0,-1,1350,1310,0,0
133,-286,0,0,0,0,0,0,0,0,0,-1,1357,1310,0,0
140,-286,0,0,0,0,0,0,0,0,0,-1,1364,1310,0,0
147,-286,0,0,0,0,0,0,0,0,0,-1,1371,1310,0,0
154,-286,0,0,0,0,0,0,0,0,0,-1,1378,1310,0,0
161,-286,0,0,0,0,0,0,0,0,0,-1,1385,1310,0,0
168,-286,0,0,0,0,0,0,0,0,0,-1,1392,1310,0,0
175,-286,0,0,0,0,0,0,0,0,0,-1,1399,1310,0,0
182,-286,0,0,0,0,0,0,0,0,0,-1,1406,1310,0,0
189,-286,0,0,0,0,0,0,0,0,0,-1,1413,1310,0,0
196,-286,0,0,0,0,0,0,0,0,0,-1,1420,1310,0,0
203,-286,0,0,0,0,0,0,0,0,0,-1,1427,1310,0,0
210,-286,0,0,0,0,0,0,0,0,0,-1,1434,1310,0,0
217,-286,0,0,0,0,0,0,0,0,0,-1,1441,1310,0,0
224,-286,0,0,0,0,0,0,0,0,0,-1,1448,1310,0,0
231,-286,0,0,0,0,0,0,0,0,0,-1,1455,1310,0,0
238,-286,0,0,0,0,0,0,0,0,0,-1,1462,1310,0,0
245,-286,0,0,0,0,0,0,0,0,0,-1,1469,1310,0,0
252,-286,0,0,0,0,0,0,0,0,0,-1,1476,1310,0,0
259,-286,0,0,0,0,0,0,0,0,0,-1,1483,1310,0,0
266,-286,0,0,0,0,0,0,0,0,0,-1,1490,1310,0,0
273,-286,0,0,0,0,0,0,0,0,0,-1,1497,1310,0,0
280,-286,0,0,0,0,0,0,0,0,0,-1,1504,1310,0,0
287,-286,0,0,0,0,0,0,0,0,0,-1,1511,1310,0,0
294,-286,0,0,0,0,0,0,0,0,0,-1,1518,1310,0,0
301,-286,0,0,0,0,0,0,0,0,0,-1,1525,1310,0,0
308,-286,0,0,0,0,0,0,0,0,0,-1,1532,1310,0,0
315,-286,0,0,0,0,0,0,0,0,0,-1,1539,1310,0,0
322,-286,0,0,0,0,0,0,0,0,0,-1,1546,1310,0,0
329,-286,0,0,0,0,0,0,0,0,0,-1,1553,1310,0,0
336,-286,0,0,0,0,0,0,0,0,0,-1,1560,1310,0,0
343,-286,0,0,0,0,0,0,0,0,0,-1,1567,1310,0,0
350,-286,0,0,0,0,0,0,0,0,0,-1,1574,1310,0,0
357,-286,0,0,0,0,0,0,0,0,0,-1,1581,1310,0,0
364,-286,0,0,0,0,0,0,0,0,0,-1,1588,1310,0,0
371,-286,0,0,0,0,0,0,0,0,0,-1,1595,1310,0,0
378,-286,0,0,0,0,0,0,0,0,0,-1,1602,1310,0,0
385,-286,0,0,0,0,0,0,0,0,0,-1,1609,1310,0,0
392,-286,0,0,0,0,0,0,0,0,0,-1,1616,1310,0,0
399,-286,0,0,0,0,0,0,0,0,0,-1,1623,1310,0,0
406,-286,0,0,0,0,0,0,0,0,0,-1,1630,1310,0,0
413,-286,0,0,0,0,0,0,0,0,0,-1,1637,1310,0,0
420,-286,0,0,0,0,0,0,0,0,0,-1,1644,1310,0,0
427,-286,0,0,0,0,0,0,0,0,0,-1,1651,1310,0,0
434,-286,0,0,0,0,0,0,0,0,0,-1,1658,1310,0,0
441,-286,0,0,0,0,0,0,0,0,0,-1,1665,1310,0,0
448,-286,0,0,0,0,0,0,0,0,0,-1,1672,1310,0,0
455,-286,0,0,0,0,0,0,0,0,0,-1,1679,1310,0,0
462,-286,0,0,0,0,0,0,0,0,0,-1,1686,1310,0,0
469,-286,0,0,0,0,0,0,0,0,0,-1,1693,1310,0,0
476,-286,0,0,0,0,0,0,0,0,0,-1,1700,1310,0,0
483,-286,0,0,0,0,0,0,0,0,0,-1,1707,1310,0,0
490,-286,0,0,0,0,0,0,0,0,0,-1,1714,1310,0,0
497,-286,0,0,0,0,0,0,0,0,0,-1,1721,1310,0,0
504,-286,0,0,0,0,0,0,0,0,0,-1,1728,1310,0,0
511,-286,0,0,0,0,0,0,0,0,0,-1,1735,1310,0,0
518,-286,0,0,0,0,0,0,0,0,0,-1,1742,1310,0,0
525,-286,0,0,0,0,0,0,0,0,0,-1,1749,1310,0,0
532,-286,0,0,0,0,0,0,0,0,0,-1,1756,1310,0,0
539,-286,0,0,0,0,0,0,0,0,0,-1,1763,1310,0,0
546,-286,0,0,0,0,0,0,0,0,0,-1,1770,1310,0,0
553,-286,0,0,0,0,0,0,0,0,0,-1,1777,1310,0,0
560,-286,0,0,0,0,0,0,0,0,0,-1,1784,1310,0,0
567,-286,0,0,0,0,0,0,0,0,0,-1,1791,1310,0,0
574,-286,0,0,0,0,0,0,0,0,0,-1,1798,1310,0,0
581,-286,0,0,0,0,0,0,0,0,0,-1,1805,1310,0,0
588,-286,0,0,0,0,0,0,0,0,0,-1,1812,1310,0,0
595,-286,53.8687,2.66125,0,0,0,0,0,0,0,-1,1819,1310,53.8687,-2.66126
602,-286,53.9293,2.31873,0,0,0,0,0,0,0,-1,1826,1310,53.9293,-2.31871
609,-286,53.9926,2.13013,0,0,0,0,0,0,0,-1,1833,1310,53.9926,-2.13015
616,-286,53.511,2.12769,0,0,0,0,0,0,0,-1,1840,1310,53.511,-2.12764
623,-286,53.0293,2.12512,0,0,0,0,0,0,0,-1,1847,1310,53.0293,-2.12513
630,-286,53.8647,3.51929,0,0,0,0,0,0,0,-1,1854,1310,53.8647,-3.51928
637,-286,47.8409,3.69824,0,0,0,0,0,0,0,-1,1861,1310,47.841,-3.69823
644,-286,25.6433,1.33862,0,0,0,0,0,0,0,-1,1868,1310,25.6433,-1.33858
651,-286,25.2507,1.88245,0,0,0,0,0,0,0,-1,1875,1310,25.2508,-1.88245
658,-286,25.9475,9.43689,0,0,0,0,0,0,0,-1,1882,1310,25.9475,-9.43693
665,-286,24.9838,8.03101,0,0,0,0,0,0,0,-1,1889,1310,24.9837,-8.03104
672,-286,37.5676,11.838,0,0,0,0,0,0,0,-1,1896,1310,37.5676,-11.838
679,-286,37.5085,11.6615,0,0,0,0,0,0,0,-1,1903,1310,37.5086,-11.6615
686,-286,37.493,11.1393,0.00273479,-0.000203396,0.000348903,0.00277566,-0.00024426,0.116588,0.001937,0.0220425,1910,1310,37.493,-11.1392
693,-286,37.4711,10.6189,0.00116521,-0.000647998,-0.000106938,0.0011715,-0.000654284,-0.0587059,0.00106812,0.0160797,1917,1310,37.471,-10.6189
700,-286,37.4617,10.0769,0.000457293,-0.000320498,0.000388103,0.000617818,-0.000481024,0.392189,0.000636053,0.0113961,1924,1310,37.4617,-10.077
707,-286,37.4396,9.57324,-0.000302284,-0.000643709,0.00101461,0.000555875,-0.00150187,0.702052,0.00122917,0.00879191,1931,1310,37.4396,-9.57321
714,-286,37.4154,9.0603,-0.00117337,-0.00110061,0.00193311,0.000796463,-0.00307044,0.794806,0.00235773,0.00931199,1938,1310,37.4154,-9.06031
721,-286,37.4321,8.53992,-0.00219151,-0.00167929,0.00290869,0.000984548,-0.00485535,0.829309,0.00361011,0.0122248,1945,1310,37.4321,-8.53988
728,-286,37.4175,8.02759,-0.00346693,-0.0024531,0.00405822,0.00112975,-0.00704977,0.847531,0.00511816,0.014879,1952,1310,37.4175,-8.02755
735,-286,37.4338,7.5155,-0.0049909,-0.00342955,0.00532075,0.0011675,-0.00958795,0.85824,0.00681455,0.0185923,1959,1310,37.4339,-7.51549
742,-286,37.4041,7.11267,-0.00685134,-0.00471326,0.00674277,0.00104468,-0.0126093,0.864017,0.00877517,0.0437008,1966,1310,37.404,-7.11268
749,-286,37.5195,6.68262,0,0,0,0,0,0,0,-1,1973,1310,37.5196,-6.68267
756,-286,24.8226,4.43481,0,0,0,0,0,0,0,-1,1980,1310,24.8227,-4.43479
763,-286,20.6671,3.99683,0,0,0,0,0,0,0,-1,1987,1310,20.6671,-3.99683
770,-286,23.9147,4.45679,0,0,0,0,0,0,0,-1,1994,1310,23.9146,-4.45675
777,-286,0,0,0,0,0,0,0,0,0,-1,2001,1310,0,0
784,-286,0,0,0,0,0,0,0,0,0,-1,2008,1310,0,0
791,-286,0,0,0,0,0,0,0,0,0,-1,2015,1310,0,0
798,-286,0,0,0,0,0,0,0,0,0,-1,2022,1310,0,0
805,-286,0,0,0,0,0,0,0,0,0,-1,2029,1310,0,0
812,-286,0,0,0,0,0,0,0,0,0,-1,2036,1310,0,0
-700,-293,0,0,0,0,0,0,0,0,0,-1,524,1317,0,0
-693,-293,0,0,0,0,0,0,0,0,0,-1,531,1317,0,0
-686,-293,0,0,0,0,0,0,0,0,0,-1,538,1317,0,0
-679,-293,0,0,0,0,0,0,0,0,0,-1,545,1317,0,0
-672,-293,0,0,0,0,0,0,0,0,0,-1,552,1317,0,0
-665,-293,0,0,0,0,0,0,0,0,0,-1,559,1317,0,0
-658,-293,0,0,0,0,0,0,0,0,0,-1,566,1317,0,0
-651,-293,-38.4809,1.63257,-0.0221205,-0.0889293,-0.00900533,-0.0209279,-0.0901219,-0.131662,0.0544625,0.0481546,573,1317,-38.4809,-1.63252
-644,-293,-38.8182,0.873047,-0.0178741,-0.0775458,-0.00769546,-0.0168976,-0.0785222,-0.126213,0.0477234,0.0478826,580,1317,-38.8183,-0.873024
-637,-293,-38.7209,0.0534668,0,0,0,0,0,0,0,-1,587,1317,-38.7209,-0.0534282
-630,-293,-24.5684,-3.7887,0,0,0,0,0,0,0,-1,594,1317,-24.5684,3.78869
-623,-293,-15.6058,0.229614,0,0,0,0,0,0,0,-1,601,1317,-15.6058,-0.229666
-616,-293,-15.5056,2.17737,0,0,0,0,0,0,0,-1,608,1317,-15.5055,-2.17742
-609,-293,-22.0906,4.01233,0,0,0,0,0,0,0,-1,615,1317,-22.0906,-4.01227
-602,-293,-22.0422,4.88269,0.000115346,-0.00927823,0.00288355,0.000929881,-0.0100928,0.275304,0.00705891,0.0490398,622,1317,-22.0422,-4.88273
-595,-293,-22.2004,5.68262,0.00088525,-0.00394415,0.00174542,0.00145003,-0.00450892,0.312943,0.00358832,0.0196542,629,1317,-22.2004,-5.68261
-588,-293,-22.188,6.25085,0.00124317,-0.000170384,0.00100234,0.00176286,-0.00069007,0.478317,0.00146065,0.0159795,636,1317,-22.1881,-6.25088
-581,-293,-22.1754,6.82544,0.00121506,0.00176149,0.00110742,0.0026289,0.000347654,0.90634,0.00164898,0.0185888,643,1317,-22.1753,-6.82549
-574,-293,-22.1939,7.43042,0.00162576,0.000923116,0.000856205,0.00219992,0.000348959,0.59071,0.00136524,0.0170916,650,1317,-22.1939,-7.4304
-567,-293,-22.2476,8.0188,0.00216949,0.000202592,0.000774586,0.00243791,-6.58195e-05,0.333573,0.00164765,0.0162289,657,1317,-22.2476,-8.01875
-560,-293,-22.2549,8.60425,0.0028382,-0.000448874,0.000828912,0.0030354,-0.000646073,0.233559,0.00226982,0.0161641,664,1317,-22.2549,-8.6042
-553,-293,-22.231,9.16541,0.0036176,-0.00100216,0.000994093,0.00382243,-0.00120699,0.203203,0.00303179,0.0108115,671,1317,-22.231,-9.16536
-546,-293,-22.2726,9.75061,0.00442874,-0.00128152,0.00134582,0.00473003,-0.00158281,0.220241,0.0037927,0.0131147,678,1317,-22.2726,-9.75062
-539,-293,-22.1885,10.2936,0.00557551,-0.00162702,0.00197848,0.0060832,-0.00213471,0.251185,0.00492378,0.0406885,685,1317,-22.1885,-10.2935
-532,-293,-22.0579,10.7903,0,0,0,0,0,0,0,-1,692,1317,-22.0579,-10.7903
-525,-293,-8.20642,3.62256,0,0,0,0,0,0,0,-1,699,1317,-8.20639,-3.6226
-518,-293,-10.1053,0.314209,0,0,0,0,0,0,0,-1,706,1317,-10.1053,-0.314234
-511,-293,-11.6276,0.235352,0,0,0,0,0,0,0,-1,713,1317,-11.6276,-0.235372
-504,-293,-17.9086,1.25427,0,0,0,0,0,0,0,-1,720,1317,-17.9086,-1.25423
-497,-293,-18.8006,1.62122,0,0,0,0,0,0,0,-1,727,1317,-18.8006,-1.62119
-490,-293,-18.8961,1.99255,0,0,0,0,0,0,0,-1,734,1317,-18.8961,-1.99251
-483,-293,-19.0831,2.35498,0,0,0,0,0,0,0,-1,741,1317,-19.0831,-2.35497
-476,-293,-19.5228,2.61243,0,0,0,0,0,0,0,-1,748,1317,-19.5228,-2.61237
-469,-293,0,0,0,0,0,0,0,0,0,-1,755,1317,0,0
-462,-293,0,0,0,0,0,0,0,0,0,-1,762,1317,0,0
-455,-293,0,0,0,0,0,0,0,0,0,-1,769,1317,0,0
-448,-293,0,0,0,0,0,0,0,0,0,-1,776,1317,0,0
-441,-293,0,0,0,0,0,0,0,0,0,-1,783,1317,0,0
-434,-293,0,0,0,0,0,0,0,0,0,-1,790,1317,0,0
-427,-293,0,0,0,0,0,0,0,0,0,-1,797,1317,0,0
-420,-293,0,0,0,0,0,0,0,0,0,-1,804,1317,0,0
-413,-293,0,0,0,0,0,0,0,0,0,-1,811,1317,0,0
-406,-293,0,0,0,0,0,0,0,0,0,-1,818,1317,0,0
-399,-293,0,0,0,0,0,0,0,0,0,-1,825,1317,0,0
-392,-293,0,0,0,0,0,0,0,0,0,-1,832,1317,0,0
-385,-293,0,0,0,0,0,0,0,0,0,-1,839,1317,0,0
-378,-293,0,0,0,0,0,0,0,0,0,-1,846,1317,0,0
-371,-293,0,0,0,0,0,0,0,0,0,-1,853,1317,0,0
-364,-293,0,0,0,0,0,0,0,0,0,-1,860,1317,0,0
-357,-293,0,0,0,0,0,0,0,0,0,-1,867,1317,0,0
-350,-293,0,0,0,0,0,0,0,0,0,-1,874,1317,0,0
-343,-293,0,0,0,0,0,0,0,0,0,-1,881,1317,0,0
-336,-293,0,0,0,0,0,0,0,0,0,-1,888,1317,0,0
-329,-293,0,0,0,0,0,0,0,0,0,-1,895,1317,0,0
-322,-293,0,0,0,0,0,0,0,0,0,-1,902,1317,0,0
-315,-293,0,0,0,0,0,0,0,0,0,-1,909,1317,0,0
-308,-293,0,0,0,0,0,0,0,0,0,-1,916,1317,0,0
-301,-293,0,0,0,0,0,0,0,0,0,-1,923,1317,0,0
-294,-293,0,0,0,0,0,0,0,0,0,-1,930,1317,0,0
-287,-293,0,0,0,0,0,0,0,0,0,-1,937,1317,0,0
-280,-293,0,0,0,0,0,0,0,0,0,-1,944,1317,0,0
-273,-293,0,0,0,0,0,0,0,0,0,-1,951,1317,0,0
-266,-293,0,0,0,0,0,0,0,0,0,-1,958,1317,0,0
-259,-293,0,0,0,0,0,0,0,0,0,-1,965,1317,0,0
-252,-293,0,0,0,0,0,0,0,0,0,-1,972,1317,0,0
-245,-293,0,0,0,0,0,0,0,0,0,-1,979,1317,0,0
-238,-293,0,0,0,0,0,0,0,0,0,-1,986,1317,0,0
-231,-293,0,0,0,0,0,0,0,0,0,-1,993,1317,0,0
-224,-293,0,0,0,0,0,0,0,0,0,-1,1000,1317,0,0
-217,-293,0,0,0,0,0,0,0,0,0,-1,1007,1317,0,0
-210,-293,0,0,0,0,0,0,0,0,0,-1,1014,1317,0,0
-203,-293,0,0,0,0,0,0,0,0,0,-1,1021,1317,0,0
-196,-293,0,0,0,0,0,0,0,0,0,-1,1028,1317,0,0
-189,-293,0,0,0,0,0,0,0,0,0,-1,1035,1317,0,0
-182,-293,0,0,0,0,0,0,0,0,0,-1,1042,1317,0,0
-175,-293,0,0,0,0,0,0,0,0,0,-1,1049,1317,0,0
-168,-293,0,0,0,0,0,0,0,0,0,-1,1056,1317,0,0
-161,-293,0,0,0,0,0,0,0,0,0,-1,1063,1317,0,0
-154,-293,0,0,0,0,0,0,0,0,0,-1,1070,1317,0,0
-147,-293,0,0,0,0,0,0,0,0,0,-1,1077,1317,0,0
-140,-293,0,0,0,0,0,0,0,0,0,-1,1084,1317,0,0
-133,-293,0,0,0,0,0,0,0,0,0,-1,1091,1317,0,0
-126,-293,0,0,0,0,0,0,0,0,0,-1,1098,1317,0,0
-119,-293,0,0,0,0,0,0,0,0,0,-1,1105,1317,0,0
-112,-293,0,0,0,0,0,0,0,0,0,-1,1112,1317,0,0
-105,-293,0,0,0,0,0,0,0,0,0,-1,1119,1317,0,0
-98,-293,0,0,0,0,0,0,0,0,0,-1,1126,1317,0,0
-91,-293,0,0,0,0,0,0,0,0,0,-1,1133,1317,0,0
-84,-293,0,0,0,0,0,0,0,0,0,-1,1140,1317,0,0
-77,-293,0,0,0,0,0,0,0,0,0,-1,1147,1317,0,0
-70,-293,0,0,0,0,0,0,0,0,0,-1,1154,1317,0,0
-63,-293,0,0,0,0,0,0,0,0,0,-1,1161,1317,0,0
-56,-293,0,0,0,0,0,0,0,0,0,-1,1168,1317,0,0
-49,-293,0,0,0,0,0,0,0,0,0,-1,1175,1317,0,0
-42,-293,0,0,0,0,0,0,0,0,0,-1,1182,1317,0,0
-35,-293,0,0,0,0,0,0,0,0,0,-1,1189,1317,0,0
-28,-293,0,0,0,0,0,0,0,0,0,-1,1196,1317,0,0
-21,-293,0,0,0,0,0,0,0,0,0,-1,1203,1317,0,0
-14,-293,0,0,0,0,0,0,0,0,0,-1,1210,1317,0,0
-7,-293,0,0,0,0,0,0,0,0,0,-1,1217,1317,0,0
0,-293,0,0,0,0,0,0,0,0,0,-1,1224,1317,0,0
7,-293,0,0,0,0,0,0,0,0,0,-1,1231,1317,0,0
14,-293,0,0,0,0,0,0,0,0,0,-1,1238,1317,0,0
21,-293,0,0,0,0,0,0,0,0,0,-1,1245,1317,0,0
28,-293,0,0,0,0,0,0,0,0,0,-1,1252,1317,0,0
35,-293,0,0,0,0,0,0,0,0,0,-1,1259,1317,0,0
42,-293,0,0,0,0,0,0,0,0,0,-1,1266,1317,0,0
49,-293,0,0,0,0,0,0,0,0,0,-1,1273,1317,0,0
56,-293,0,0,0,0,0,0,0,0,0,-1,1280,1317,0,0
63,-293,0,0,0,0,0,0,0,0,0,-1,1287,1317,0,0
70,-293,0,0,0,0,0,0,0,0,0,-1,1294,1317,0,0
77,-293,0,0,0,0,0,0,0,0,0,-1,1301,1317,0,0
84,-293,0,0,0,0,0,0,0,0,0,-1,1308,1317,0,0
91,-293,0,0,0,0,0,0,0,0,0,-1,1315,1317,0,0
98,-293,0,0,0,0,0,0,0,0,0,-1,1322,1317,0,0
105,-293,0,0,0,0,0,0,0,0,0,-1,1329,1317,0,0
112,-293,0,0,0,0,0,0,0,0,0,-1,1336,1317,0,0
119,-293,0,0,0,0,0,0,0,0,0,-1,1343,1317,0,0
126,-293,0,0,0,0,0,0,0,0,0,-1,1350,1317,0,0
133,-293,0,0,0,0,0,0,0,0,0,-1,1357,1317,0,0
140,-293,0,0,0,0,0,0,0,0,0,-1,1364,1317,0,0
147,-293,0,0,0,0,0,0,0,0,0,-1,1371,1317,0,0
154,-293,0,0,0,0,0,0,0,0,0,-1,1378,1317,0,0
161,-293,0,0,0,0,0,0,0,0,0,-1,1385,1317,0,0
168,-293,0,0,0,0,0,0,0,0,0,-1,1392,1317,0,0
175,-293,0,0,0,0,0,0,0,0,0,-1,1399,1317,0,0
182,-293,0,0,0,0,0,0,0,0,0,-1,1406,1317,0,0
189,-293,0,0,0,0,0,0,0,0,0,-1,1413,1317,0,0
196,-293,0,0,0,0,0,0,0,0,0,-1,1420,1317,0,0
203,-293,0,0,0,0,0,0,0,0,0,-1,1427,1317,0,0
210,-293,0,0,0,0,0,0,0,0,0,-1,1434,1317,0,0
217,-293,0,0,0,0,0,0,0,0,0,-1,1441,1317,0,0
224,-293,0,0,0,0,0,0,0,0,0,-1,1448,1317,0,0
231,-293,0,0,0,0,0,0,0,0,0,-1,1455,1317,0,0
238,-293,0,0,0,0,0,0,0,0,0,-1,1462,1317,0,0
245,-293,0,0,0,0,0,0,0,0,0,-1,1469,1317,0,0
252,-293,0,0,0,0,0,0,0,0,0,-1,1476,1317,0,0
259,-293,0,0,0,0,0,0,0,0,0,-1,1483,1317,0,0
266,-293,0,0,0,0,0,0,0,0,0,-1,1490,1317,0,0
273,-293,0,0,0,0,0,0,0,0,0,-1,1497,1317,0,0
280,-293,0,0,0,0,0,0,0,0,0,-1,1504,1317,0,0
287,-293,0,0,0,0,0,0,0,0,0,-1,1511,1317,0,0
294,-293,0,0,0,0,0,0,0,0,0,-1,1518,1317,0,0
301,-293,0,0,0,0,0,0,0,0,0,-1,1525,1317,0,0
308,-293,0,0,0,0,0,0,0,0,0,-1,1532,1317,0,0
315,-293,0,0,0,0,0,0,0,0,0,-1,1539,1317,0,0
322,-293,0,0,0,0,0,0,0,0,0,-1,1546,1317,0,0
329,-293,0,0,0,0,0,0,0,0,0,-1,1553,1317,0,0
336,-293,0,0,0,0,0,0,0,0,0,-1,1560,1317,0,0
343,-293,0,0,0,0,0,0,0,0,0,-1,1567,1317,0,0
350,-293,0,0,0,0,0,0,0,0,0,-1,1574,1317,0,0
357,-293,0,0,0,0,0,0,0,0,0,-1,1581,1317,0,0
364,-293,0,0,0,0,0,0,0,0,0,-1,1588,1317,0,0
371,-293,0,0,0,0,0,0,0,0,0,-1,1595,1317,0,0
378,-293,0,0,0,0,0,0,0,0,0,-1,1602,1317,0,0
385,-293,0,0,0,0,0,0,0,0,0,-1,1609,1317,0,0
392,-293,0,0,0,0,0,0,0,0,0,-1,1616,1317,0,0
399,-293,0,0,0,0,0,0,0,0,0,-1,1623,1317,0,0
406,-293,0,0,0,0,0,0,0,0,0,-1,1630,1317,0,0
413,-293,0,0,0,0,0,0,0,0,0,-1,1637,1317,0,0
420,-293,0,0,0,0,0,0,0,0,0,-1,1644,1317,0,0
427,-293,0,0,0,0,0,0,0,0,0,-1,1651,1317,0,0
434,-293,0,0,0,0,0,0,0,0,0,-1,1658,1317,0,0
441,-293,0,0,0,0,0,0,0,0,0,-1,1665,1317,0,0
448,-293,0,0,0,0,0,0,0,0,0,-1,1672,1317,0,0
455,-293,0,0,0,0,0,0,0,0,0,-1,1679,1317,0,0
462,-293,0,0,0,0,0,0,0,0,0,-1,1686,1317,0,0
469,-293,0,0,0,0,0,0,0,0,0,-1,1693,1317,0,0
476,-293,0,0,0,0,0,0,0,0,0,-1,1700,1317,0,0
483,-293,0,0,0,0,0,0,0,0,0,-1,1707,1317,0,0
490,-293,0,0,0,0,0,0,0,0,0,-1,1714,1317,0,0
497,-293,0,0,0,0,0,0,0,0,0,-1,1721,1317,0,0
504,-293,0,0,0,0,0,0,0,0,0,-1,1728,1317,0,0
511,-293,0,0,0,0,0,0,0,0,0,-1,1735,1317,0,0
518,-293,0,0,0,0,0,0,0,0,0,-1,1742,1317,0,0
525,-293,0,0,0,0,0,0,0,0,0,-1,1749,1317,0,0
532,-293,0,0,0,0,0,0,0,0,0,-1,1756,1317,0,0
539,-293,0,0,0,0,0,0,0,0,0,-1,1763,1317,0,0
546,-293,0,0,0,0,0,0,0,0,0,-1,1770,1317,0,0
553,-293,0,0,0,0,0,0,0,0,0,-1,1777,1317,0,0
560,-293,0,0,0,0,0,0,0,0,0,-1,1784,1317,0,0
567,-293,0,0,0,0,0,0,0,0,0,-1,1791,1317,0,0
574,-293,0,0,0,0,0,0,0,0,0,-1,1798,1317,0,0
581,-293,0,0,0,0,0,0,0,0,0,-1,1805,1317,0,0
588,-293,0,0,0,0,0,0,0,0,0,-1,1812,1317,0,0
595,-293,53.9764,2.49426,0,0,0,0,0,0,0,-1,1819,1317,53.9765,-2.49428
602,-293,54.1085,1.81165,-0.0202228,0.0408841,-0.0140713,0.0439687,-0.0233073,-1.355,0.0394477,0.0491772,1826,1317,54.1085,-1.81165
609,-293,53.9312,1.61853,0,0,0,0,0,0,0,-1,1833,1317,53.9312,-1.61856
616,-293,53.6671,1.71472,0,0,0,0,0,0,0,-1,1840,1317,53.6671,-1.71474
623,-293,52.3771,2.15942,0,0,0,0,0,0,0,-1,1847,1317,52.3771,-2.15941
630,-293,46.6716,3.21558,0,0,0,0,0,0,0,-1,1854,1317,46.6716,-3.2156
637,-293,42.7729,4.95544,0,0,0,0,0,0,0,-1,1861,1317,42.773,-4.95546
644,-293,24.4565,0.520752,0,0,0,0,0,0,0,-1,1868,1317,24.4566,-0.520709
651,-293,25.8926,9.51245,0,0,0,0,0,0,0,-1,1875,1317,25.8926,-9.51246
658,-293,25.4904,9.10205,0,0,0,0,0,0,0,-1,1882,1317,25.4904,-9.10209
665,-293,37.1918,12.2797,0,0,0,0,0,0,0,-1,1889,1317,37.1918,-12.2797
672,-293,37.0392,12.2296,0,0,0,0,0,0,0,-1,1896,1317,37.0392,-12.2297
679,-293,37.0096,11.6793,0.00304147,0.00126136,0.000733937,0.00330504,0.000997785,0.344781,0.00195745,0.0156399,1903,1317,37.0097,-11.6793
686,-293,36.9952,11.1613,0.00199411,-0.000113731,0.000121501,0.00200109,-0.000120712,0.0573888,0.00137606,0.0166044,1910,1317,36.9953,-11.1612
693,-293,36.9794,10.629,0.000778889,-0.000528295,-6.81534e-05,0.000782432,-0.000531839,-0.0519498,0.000763379,0.0124275,1917,1317,36.9794,-10.629
700,-293,36.9415,10.0856,0.000258319,-0.000416245,0.00050937,0.000531952,-0.000689878,0.492962,0.000707385,0.0105545,1924,1317,36.9416,-10.0856
707,-293,36.9071,9.59338,-0.000370503,-0.000754288,0.00121506,0.000667726,-0.00179252,0.707081,0.00146907,0.0112362,1931,1317,36.9071,-9.59341
714,-293,36.8881,9.09448,-0.00119439,-0.00124135,0.0021185,0.000900761,-0.0033365,0.779856,0.00257759,0.00802626,1938,1317,36.8881,-9.09443
721,-293,36.8965,8.56738,-0.00223743,-0.00192145,0.00319722,0.00112168,-0.00528056,0.810085,0.00394774,0.00985256,1945,1317,36.8964,-8.56743
728,-293,36.906,8.01624,-0.0035591,-0.00281753,0.00446141,0.00128848,-0.00766511,0.826857,0.00558929,0.0127039,1952,1317,36.906,-8.01618
735,-293,36.8761,7.49402,-0.00522248,-0.00401926,0.00594617,0.00135566,-0.0105974,0.835814,0.00755746,0.0249486,1959,1317,36.8761,-7.49397
742,-293,37.0424,7.0802,0,0,0,0,0,0,0,-1,1966,1317,37.0424,-7.08025
749,-293,29.439,5.35339,0,0,0,0,0,0,0,-1,1973,1317,29.4389,-5.35334
756,-293,24.978,3.9718,0,0,0,0,0,0,0,-1,1980,1317,24.978,-3.97186
763,-293,26.6713,4.74097,0,0,0,0,0,0,0,-1,1987,1317,26.6713,-4.74098
770,-293,24.1349,4.69153,0,0,0,0,0,0,0,-1,1994,1317,24.1348,-4.69159
777,-293,0,0,0,0,0,0,0,0,0,-1,2001,1317,0,0
784,-293,0,0,0,0,0,0,0,0,0,-1,2008,1317,0,0
791,-293,0,0,0,0,0,0,0,0,0,-1,2015,1317,0,0
798,-293,0,0,0,0,0,0,0,0,0,-1,2022,1317,0,0
805,-293,0,0,0,0,0,0,0,0,0,-1,2029,1317,0,0
812,-293,0,0,0,0,0,0,0,0,0,-1,2036,1317,0,0
-700,-300,0,0,0,0,0,0,0,0,0,-1,524,1324,0,0
-693,-300,0,0,0,0,0,0,0,0,0,-1,531,1324,0,0
-686,-300,0,0,0,0,0,0,0,0,0,-1,538,1324,0,0
-679,-300,0,0,0,0,0,0,0,0,0,-1,545,1324,0,0
-672,-300,0,0,0,0,0,0,0,0,0,-1,552,1324,0,0
-665,-300,0,0,0,0,0,0,0,0,0,-1,559,1324,0,0
-658,-300,0,0,0,0,0,0,0,0,0,-1,566,1324,0,0
-651,-300,-39.1017,2.25647,0,0,0,0,0,0,0,-1,573,1324,-39.1017,-2.25649
-644,-300,-39.5129,1.53003,0,0,0,0,0,0,0,-1,580,1324,-39.5129,-1.53009
-637,-300,-24.088,-5.12695,0,0,0,0,0,0,0,-1,587,1324,-24.088,5.12694
-630,-300,-21.1108,2.26306,0,0,0,0,0,0,0,-1,594,1324,-21.1109,-2.2631
-623,-300,-12.7067,1.48462,0,0,0,0,0,0,0,-1,601,1324,-12.7067,-1.48462
-616,-300,-14.9988,1.68628,0,0,0,0,0,0,0,-1,608,1324,-14.9988,-1.68627
-609,-300,-15.5027,3.29907,0,0,0,0,0,0,0,-1,615,1324,-15.5027,-3.29902
-602,-300,-21.656,4.91321,0,0,0,0,0,0,0,-1,622,1324,-21.656,-4.91319
-595,-300,-21.6637,5.67041,0.000839672,-0.00490105,0.00114296,0.00105886,-0.00512024,0.189474,0.00381574,0.0354519,629,1324,-21.6637,-5.67046
-588,-300,-21.6088,6.29346,0.00133223,-0.000150798,0.00105187,0.00187767,-0.000696246,0.478379,0.00153735,0.019678,636,1324,-21.6088,-6.29348
-581,-300,-21.6113,6.90771,0.00120241,0.00207927,0.00117093,0.00289116,0.000390519,0.964532,0.00181136,0.0195222,643,1324,-21.6113,-6.90773
-574,-300,-21.6221,7.48828,0.00154626,0.00126559,0.000913876,0.00233052,0.000481339,0.709213,0.00142068,0.0156824,650,1324,-21.622,-7.48833
-567,-300,-21.6672,8.04529,0.00198277,0.000595472,0.000819226,0.00236257,0.000215678,0.434107,0.0015083,0.0161927,657,1324,-21.6673,-8.04526
-560,-300,-21.6976,8.62061,0.00252582,-2.8922e-06,0.000851769,0.00278596,-0.000263038,0.29642,0.00195091,0.0146894,664,1324,-21.6976,-8.62064
-553,-300,-21.6636,9.17944,0.00319077,-0.000461052,0.00101849,0.00345562,-0.000725901,0.254406,0.00257998,0.010492,671,1324,-21.6636,-9.17941
-546,-300,-21.701,9.75391,0.00393386,-0.000746164,0.00136095,0.00430085,-0.00111315,0.263389,0.00330144,0.00971016,678,1324,-21.701,-9.75389
-539,-300,-21.6743,10.3489,0.00497513,-0.00104333,0.00196048,0.00555741,-0.00162561,0.28871,0.00434928,0.0226864,685,1324,-21.6743,-10.3488
-532,-300,-21.6093,10.918,0,0,0,0,0,0,0,-1,692,1324,-21.6093,-10.9179
-525,-300,-13.5115,6.27783,0,0,0,0,0,0,0,-1,699,1324,-13.5115,-6.2778
-518,-300,-9.8349,-0.537109,0,0,0,0,0,0,0,-1,706,1324,-9.83487,0.537068
-511,-300,-12.8644,0.081665,0,0,0,0,0,0,0,-1,713,1324,-12.8644,-0.0817016
-504,-300,-13.4829,-0.165527,0,0,0,0,0,0,0,-1,720,1324,-13.4829,0.165544
-497,-300,-18.1063,0.956543,0,0,0,0,0,0,0,-1,727,1324,-18.1063,-0.9565
-490,-300,-18.2293,1.53625,0,0,0,0,0,0,0,-1,734,1324,-18.2293,-1.53626
-483,-300,-18.3522,1.61084,0,0,0,0,0,0,0,-1,741,1324,-18.3522,-1.6108
-476,-300,-18.7489,1.96387,0,0,0,0,0,0,0,-1,748,1324,-18.7489,-1.96387
-469,-300,0,0,0,0,0,0,0,0,0,-1,755,1324,0,0
-462,-300,0,0,0,0,0,0,0,0,0,-1,762,1324,0,0
-455,-300,0,0,0,0,0,0,0,0,0,-1,769,1324,0,0
-448,-300,0,0,0,0,0,0,0,0,0,-1,776,1324,0,0
-441,-300,0,0,0,0,0,0,0,0,0,-1,783,1324,0,0
-434,-300,0,0,0,0,0,0,0,0,0,-1,790,1324,0,0
-427,-300,0,0,0,0,0,0,0,0,0,-1,797,1324,0,0
-420,-300,0,0,0,0,0,0,0,0,0,-1,804,1324,0,0
-413,-300,0,0,0,0,0,0,0,0,0,-1,811,1324,0,0
-406,-300,0,0,0,0,0,0,0,0,0,-1,818,1324,0,0
-399,-300,0,0,0,0,0,0,0,0,0,-1,825,1324,0,0
-392,-300,0,0,0,0,0,0,0,0,0,-1,832,1324,0,0
-385,-300,0,0,0,0,0,0,0,0,0,-1,839,1324,0,0
-378,-300,0,0,0,0,0,0,0,0,0,-1,846,1324,0,0
-371,-300,0,0,0,0,0,0,0,0,0,-1,853,1324,0,0
-364,-300,0,0,0,0,0,0,0,0,0,-1,860,1324,0,0
-357,-300,0,0,0,0,0,0,0,0,0,-1,867,1324,0,0
-350,-300,0,0,0,0,0,0,0,0,0,-1,874,1324,0,0
-343,-300,0,0,0,0,0,0,0,0,0,-1,881,1324,0,0
-336,-300,0,0,0,0,0,0,0,0,0,-1,888,1324,0,0
-329,-300,0,0,0,0,0,0,0,0,0,-1,895,1324,0,0
-322,-300,0,0,0,0,0,0,0,0,0,-1,902,1324,0,0
-315,-300,0,0,0,0,0,0,0,0,0,-1,909,1324,0,0
-308,-300,0,0,0,0,0,0,0,0,0,-1,916,1324,0,0
-301,-300,0,0,0,0,0,0,0,0,0,-1,923,1324,0,0
-294,-300,0,0,0,0,0,0,0,0,0,-1,930,1324,0,0
-287,-300,0,0,0,0,0,0,0,0,0,-1,937,1324,0,0
-280,-300,0,0,0,0,0,0,0,0,0,-1,944,1324,0,0
-273,-300,0,0,0,0,0,0,0,0,0,-1,951,1324,0,0
-266,-300,0,0,0,0,0,0,0,0,0,-1,958,1324,0,0
-259,-300,0,0,0,0,0,0,0,0,0,-1,965,1324,0,0
-252,-300,0,0,0,0,0,0,0,0,0,-1,972,1324,0,0
-245,-300,0,0,0,0,0,0,0,0,0,-1,979,1324,0,0
-238,-300,0,0,0,0,0,0,0,0,0,-1,986,1324,0,0
-231,-300,0,0,0,0,0,0,0,0,0,-1,993,1324,0,0
-224,-300,0,0,0,0,0,0,0,0,0,-1,1000,1324,0,0
-217,-300,0,0,0,0,0,0,0,0,0,-1,1007,1324,0,0
-210,-300,0,0,0,0,0,0,0,0,0,-1,1014,1324,0,0
-203,-300,0,0,0,0,0,0,0,0,0,-1,1021,1324,0,0
-196,-300,0,0,0,0,0,0,0,0,0,-1,1028,1324,0,0
-189,-300,0,0,0,0,0,0,0,0,0,-1,1035,1324,0,0
-182,-300,0,0,0,0,0,0,0,0,0,-1,1042,1324,0,0
-175,-300,0,0,0,0,0,0,0,0,0,-1,1049,1324,0,0
-168,-300,0,0,0,0,0,0,0,0,0,-1,1056,1324,0,0
-161,-300,0,0,0,0,0,0,0,0,0,-1,1063,1324,0,0
-154,-300,0,0,0,0,0,0,0,0,0,-1,1070,1324,0,0
-147,-300,0,0,0,0,0,0,0,0,0,-1,1077,1324,0,0
-140,-300,0,0,0,0,0,0,0,0,0,-1,1084,1324,0,0
-133,-300,0,0,0,0,0,0,0,0,0,-1,1091,1324,0,0
-126,-300,0,0,0,0,0,0,0,0,0,-1,1098,1324,0,0
-119,-300,0,0,0,0,0,0,0,0,0,-1,1105,1324,0,0
-112,-300,0,0,0,0,0,0,0,0,0,-1,1112,1324,0,0
-105,-300,0,0,0,0,0,0,0,0,0,-1,1119,1324,0,0
-98,-300,0,0,0,0,0,0,0,0,0,-1,1126,1324,0,0
-91,-300,0,0,0,0,0,0,0,0,0,-1,1133,1324,0,0
-84,-300,0,0,0,0,0,0,0,0,0,-1,1140,1324,0,0
-77,-300,0,0,0,0,0,0,0,0,0,-1,1147,1324,0,0
-70,-300,0,0,0,0,0,0,0,0,0,-1,1154,1324,0,0
-63,-300,0,0,0,0,0,0,0,0,0,-1,1161,1324,0,0
-56,-300,0,0,0,0,0,0,0,0,0,-1,1168,1324,0,0
-49,-300,0,0,0,0,0,0,0,0,0,-1,1175,1324,0,0
-42,-300,0,0,0,0,0,0,0,0,0,-1,1182,1324,0,0
-35,-300,0,0,0,0,0,0,0,0,0,-1,1189,1324,0,0
-28,-300,0,0,0,0,0,0,0,0,0,-1,1196,1324,0,0
-21,-300,0,0,0,0,0,0,0,0,0,-1,1203,1324,0,0
-14,-300,0,0,0,0,0,0,0,0,0,-1,1210,1324,0,0
-7,-300,0,0,0,0,0,0,0,0,0,-1,1217,1324,0,0
0,-300,0,0,0,0,0,0,0,0,0,-1,1224,1324,0,0
7,-300,0,0,0,0,0,0,0,0,0,-1,1231,1324,0,0
14,-300,0,0,0,0,0,0,0,0,0,-1,1238,1324,0,0
21,-300,0,0,0,0,0,0,0,0,0,-1,1245,1324,0,0
28,-300,0,0,0,0,0,0,0,0,0,-1,1252,1324,0,0
35,-300,0,0,0,0,0,0,0,0,0,-1,1259,1324,0,0
42,-300,0,0,0,0,0,0,0,0,0,-1,1266,1324,0,0
49,-300,0,0,0,0,0,0,0,0,0,-1,1273,1324,0,0
56,-300,0,0,0,0,0,0,0,0,0,-1,1280,1324,0,0
63,-300,0,0,0,0,0,0,0,0,0,-1,1287,1324,0,0
70,-300,0,0,0,0,0,0,0,0,0,-1,1294,1324,0,0
77,-300,0,0,0,0,0,0,0,0,0,-1,1301,1324,0,0
84,-300,0,0,0,0,0,0,0,0,0,-1,1308,1324,0,0
91,-300,0,0,0,0,0,0,0,0,0,-1,1315,1324,0,0
98,-300,0,0,0,0,0,0,0,0,0,-1,1322,1324,0,0
105,-300,0,0,0,0,0,0,0,0,0,-1,1329,1324,0,0
112,-300,0,0,0,0,0,0,0,0,0,-1,1336,1324,0,0
119,-300,0,0,0,0,0,0,0,0,0,-1,1343,1324,0,0
126,-300,0,0,0,0,0,0,0,0,0,-1,1350,1324,0,0
133,-300,0,0,0,0,0,0,0,0,0,-1,1357,1324,0,0
140,-300,0,0,0,0,0,0,0,0,0,-1,1364,1324,0,0
147,-300,0,0,0,0,0,0,0,0,0,-1,1371,1324,0,0
154,-300,0,0,0,0,0,0,0,0,0,-1,1378,1324,0,0
161,-300,0,0,0,0,0,0,0,0,0,-1,1385,1324,0,0
168,-300,0,0,0,0,0,0,0,0,0,-1,1392,1324,0,0
175,-300,0,0,0,0,0,0,0,0,0,-1,1399,1324,0,0
182,-300,0,0,0,0,0,0,0,0,0,-1,1406,1324,0,0
189,-300,0,0,0,0,0,0,0,0,0,-1,1413,1324,0,0
196,-300,0,0,0,0,0,0,0,0,0,-1,1420,1324,0,0
203,-300,0,0,0,0,0,0,0,0,0,-1,1427,1324,0,0
210,-300,0,0,0,0,0,0,0,0,0,-1,1434,1324,0,0
217,-300,0,0,0,0,0,0,0,0,0,-1,1441,1324,0,0
224,-300,0,0,0,0,0,0,0,0,0,-1,1448,1324,0,0
231,-300,0,0,0,0,0,0,0,0,0,-1,1455,1324,0,0
238,-300,0,0,0,0,0,0,0,0,0,-1,1462,1324,0,0
245,-300,0,0,0,0,0,0,0,0,0,-1,1469,1324,0,0
252,-300,0,0,0,0,0,0,0,0,0,-1,1476,1324,0,0
259,-300,0,0,0,0,0,0,0,0,0,-1,1483,1324,0,0
266,-300,0,0,0,0,0,0,0,0,0,-1,1490,1324,0,0
273,-300,0,0,0,0,0,0,0,0,0,-1,1497,1324,0,0
280,-300,0,0,0,0,0,0,0,0,0,-1,1504,1324,0,0
287,-300,0,0,0,0,0,0,0,0,0,-1,1511,1324,0,0
294,-300,0,0,0,0,0,0,0,0,0,-1,1518,1324,0,0
301,-300,0,0,0,0,0,0,0,0,0,-1,1525,1324,0,0
308,-300,0,0,0,0,0,0,0,0,0,-1,1532,1324,0,0
315,-300,0,0,0,0,0,0,0,0,0,-1,1539,1324,0,0
322,-300,0,0,0,0,0,0,0,0,0,-1,1546,1324,0,0
329,-300,0,0,0,0,0,0,0,0,0,-1,1553,1324,0,0
336,-300,0,0,0,0,0,0,0,0,0,-1,1560,1324,0,0
343,-300,0,0,0,0,0,0,0,0,0,-1,1567,1324,0,0
350,-300,0,0,0,0,0,0,0,0,0,-1,1574,1324,0,0
357,-300,0,0,0,0,0,0,0,0,0,-1,1581,1324,0,0
364,-300,0,0,0,0,0,0,0,0,0,-1,1588,1324,0,0
371,-300,0,0,0,0,0,0,0,0,0,-1,1595,1324,0,0
378,-300,0,0,0,0,0,0,0,0,0,-1,1602,1324,0,0
385,-300,0,0,0,0,0,0,0,0,0,-1,1609,1324,0,0
392,-300,0,0,0,0,0,0,0,0,0,-1,1616,1324,0,0
399,-300,0,0,0,0,0,0,0,0,0,-1,1623,1324,0,0
406,-300,0,0,0,0,0,0,0,0,0,-1,1630,1324,0,0
413,-300,0,0,0,0,0,0,0,0,0,-1,1637,1324,0,0
420,-300,0,0,0,0,0,0,0,0,0,-1,1644,1324,0,0
427,-300,0,0,0,0,0,0,0,0,0,-1,1651,1324,0,0
434,-300,0,0,0,0,0,0,0,0,0,-1,1658,1324,0,0
441,-300,0,0,0,0,0,0,0,0,0,-1,1665,1324,0,0
448,-300,0,0,0,0,0,0,0,0,0,-1,1672,1324,0,0
455,-300,0,0,0,0,0,0,0,0,0,-1,1679,1324,0,0
462,-300,0,0,0,0,0,0,0,0,0,-1,1686,1324,0,0
469,-300,0,0,0,0,0,0,0,0,0,-1,1693,1324,0,0
476,-300,0,0,0,0,0,0,0,0,0,-1,1700,1324,0,0
483,-300,0,0,0,0,0,0,0,0,0,-1,1707,1324,0,0
490,-300,0,0,0,0,0,0,0,0,0,-1,1714,1324,0,0
497,-300,0,0,0,0,0,0,0,0,0,-1,1721,1324,0,0
504,-300,0,0,0,0,0,0,0,0,0,-1,1728,1324,0,0
511,-300,0,0,0,0,0,0,0,0,0,-1,1735,1324,0,0
518,-300,0,0,0,0,0,0,0,0,0,-1,1742,1324,0,0
525,-300,0,0,0,0,0,0,0,0,0,-1,1749,1324,0,0
532,-300,0,0,0,0,0,0,0,0,0,-1,1756,1324,0,0
539,-300,0,0,0,0,0,0,0,0,0,-1,1763,1324,0,0
546,-300,0,0,0,0,0,0,0,0,0,-1,1770,1324,0,0
553,-300,0,0,0,0,0,0,0,0,0,-1,1777,1324,0,0
560,-300,0,0,0,0,0,0,0,0,0,-1,1784,1324,0,0
567,-300,0,0,0,0,0,0,0,0,0,-1,1791,1324,0,0
574,-300,0,0,0,0,0,0,0,0,0,-1,1798,1324,0,0
581,-300,0,0,0,0,0,0,0,0,0,-1,1805,1324,0,0
588,-300,54.0984,2.25806,0,0,0,0,0,0,0,-1,1812,1324,54.0984,-2.25804
595,-300,54.0885,1.7854,0,0,0,0,0,0,0,-1,1819,1324,54.0885,-1.78538
602,-300,54.2118,1.47949,0,0,0,0,0,0,0,-1,1826,1324,54.2117,-1.47949
609,-300,54.3003,1.17566,0,0,0,0,0,0,0,-1,1833,1324,54.3003,-1.1757
616,-300,52.51,3.68799,0,0,0,0,0,0,0,-1,1840,1324,52.51,-3.68802
623,-300,47.4474,2.43188,0,0,0,0,0,0,0,-1,1847,1324,47.4474,-2.43194
630,-300,42.4099,3.9165,0,0,0,0,0,0,0,-1,1854,1324,42.4099,-3.91649
637,-300,31.1719,4.6366,0,0,0,0,0,0,0,-1,1861,1324,31.1718,-4.63665
644,-300,22.9836,3.44934,0,0,0,0,0,0,0,-1,1868,1324,22.9836,-3.4493
651,-300,25.5004,9.11853,0,0,0,0,0,0,0,-1,1875,1324,25.5004,-9.11851
658,-300,25.4012,9.20032,0,0,0,0,0,0,0,-1,1882,1324,25.4012,-9.20036
665,-300,36.572,12.8291,0,0,0,0,0,0,0,-1,1889,1324,36.572,-12.829
672,-300,36.4565,12.3126,0.00352674,0.00211017,0.00108067,0.00411055,0.00152636,0.495313,0.00239928,0.0264212,1896,1324,36.4565,-12.3126
679,-300,36.4746,11.7173,0.00257063,0.00114059,0.000595087,0.00278587,0.000925351,0.347054,0.00163835,0.0132265,1903,1324,36.4746,-11.7173
686,-300,36.4623,11.1854,0.00160953,-7.35847e-05,0.000154638,0.00162362,-8.76742e-05,0.0908622,0.00111279,0.0137467,1910,1324,36.4623,-11.1854
693,-300,36.4347,10.6626,0.000637462,-0.00046921,0.000130088,0.000652548,-0.000484296,0.115452,0.000658749,0.0115966,1917,1324,36.4347,-10.6626
700,-300,36.4166,10.1178,0.000187962,-0.000500616,0.000665212,0.000592701,-0.000905354,0.546599,0.000871159,0.0128035,1924,1324,36.4166,-10.1179
707,-300,36.42,9.56848,-0.000327272,-0.000788271,0.00132664,0.000788741,-0.00190428,0.699383,0.00159867,0.00953537,1931,1324,36.4201,-9.56847
714,-300,36.4027,9.0769,-0.00102576,-0.00124538,0.0021524,0.00101962,-0.00329077,0.759912,0.00260121,0.0109651,1938,1324,36.4027,-9.07692
721,-300,36.3986,8.56604,-0.00196074,-0.00193079,0.00319003,0.0012443,-0.00513583,0.787745,0.0039053,0.0122773,1945,1324,36.3985,-8.56607
728,-300,36.4174,8.00598,-0.00318039,-0.00284667,0.00441027,0.0013999,-0.00742695,0.804307,0.00547789,0.0166416,1952,1324,36.4173,-8.00595
735,-300,36.1924,7.74341,-0.00476673,-0.00415005,0.00588608,0.00143576,-0.0103525,0.811566,0.00742668,0.0328944,1959,1324,36.1924,-7.74347
742,-300,36.095,7.32751,0,0,0,0,0,0,0,-1,1966,1324,36.095,-7.32751
749,-300,27.4065,5.9718,0,0,0,0,0,0,0,-1,1973,1324,27.4065,-5.97181
756,-300,22.1423,3.45642,0,0,0,0,0,0,0,-1,1980,1324,22.1423,-3.45638
763,-300,22.6136,5.1571,0,0,0,0,0,0,0,-1,1987,1324,22.6136,-5.15706
770,-300,24.859,4.77979,0,0,0,0,0,0,0,-1,1994,1324,24.859,-4.77972
777,-300,0,0,0,0,0,0,0,0,0,-1,2001,1324,0,0
784,-300,0,0,0,0,0,0,0,0,0,-1,2008,1324,0,0
791,-300,0,0,0,0,0,0,0,0,0,-1,2015,1324,0,0
798,-300,0,0,0,0,0,0,0,0,0,-1,2022,1324,0,0
805,-300,0,0,0,0,0,0,0,0,0,-1,2029,1324,0,0
812,-300,0,0,0,0,0,0,0,0,0,-1,2036,1324,0,0
-700,-307,0,0,0,0,0,0,0,0,0,-1,524,1331,0,0
-693,-307,0,0,0,0,0,0,0,0,0,-1,531,1331,0,0
-686,-307,0,0,0,0,0,0,0,0,0,-1,538,1331,0,0
-679,-307,0,0,0,0,0,0,0,0,0,-1,545,1331,0,0
-672,-307,0,0,0,0,0,0,0,0,0,-1,552,1331,0,0
-665,-307,0,0,0,0,0,0,0,0,0,-1,559,1331,0,0
-658,-307,0,0,0,0,0,0,0,0,0,-1,566,1331,0,0
-651,-307,-39.5316,2.82068,0,0,0,0,0,0,0,-1,573,1331,-39.5316,-2.82062
-644,-307,-39.322,2.05688,0,0,0,0,0,0,0,-1,580,1331,-39.3219,-2.05683
-637,-307,-21.0822,1.21277,0,0,0,0,0,0,0,-1,587,1331,-21.0821,-1.21273
-630,-307,-12.0005,0.767212,0,0,0,0,0,0,0,-1,594,1331,-12.0005,-0.767266
-623,-307,-12.2128,2.93811,0,0,0,0,0,0,0,-1,601,1331,-12.2128,-2.93813
-616,-307,-12.6612,2.08289,0,0,0,0,0,0,0,-1,608,1331,-12.6612,-2.08293
-609,-307,-12.2767,1.83228,0,0,0,0,0,0,0,-1,615,1331,-12.2768,-1.83224
-602,-307,-20.6389,4.89563,0,0,0,0,0,0,0,-1,622,1331,-20.6389,-4.89564
-595,-307,-21.1862,5.67847,0,0,0,0,0,0,0,-1,629,1331,-21.1862,-5.67845
-588,-307,-21.029,6.35022,0.00153612,-0.00010695,0.00124357,0.00220502,-0.00077585,0.493495,0.00178572,0.0210025,636,1331,-21.029,-6.35017
-581,-307,-21.0193,6.93665,0.00132143,0.00227065,0.0013068,0.00318635,0.000405718,0.959584,0.00200274,0.0159456,643,1331,-21.0193,-6.93664
-574,-307,-21.0439,7.49121,0.00159283,0.00144467,0.00100109,0.00252257,0.000514926,0.748467,0.00153906,0.0132556,650,1331,-21.044,-7.49116
-567,-307,-21.0738,8.06616,0.00192811,0.00078721,0.000843929,0.0023763,0.00033902,0.488198,0.00148416,0.0135115,657,1331,-21.0738,-8.06611
-560,-307,-21.0842,8.6416,0.00234414,0.000217003,0.000808529,0.00261657,-5.54288e-05,0.325,0.00176315,0.0139923,664,1331,-21.0841,-8.64163
-553,-307,-21.1098,9.20117,0.00288395,-0.000198349,0.000927627,0.00314159,-0.000455986,0.27091,0.00226176,0.0112529,671,1331,-21.1098,-9.20122
-546,-307,-21.1511,9.77002,0.00354476,-0.000506351,0.00121352,0.00388046,-0.000842049,0.269882,0.00290857,0.0109126,678,1331,-21.1511,-9.77007
-539,-307,-21.1521,10.3778,0.00447677,-0.000772221,0.00173527,0.00499857,-0.00129401,0.292098,0.00383715,0.016518,685,1331,-21.1521,-10.3778
-532,-307,-21.1298,10.9875,0,0,0,0,0,0,0,-1,692,1331,-21.1298,-10.9876
-525,-307,-13.2009,6.91309,0,0,0,0,0,0,0,-1,699,1331,-13.2009,-6.9131
-518,-307,-9.77777,-1.56653,0,0,0,0,0,0,0,-1,706,1331,-9.77777,1.56651
-511,-307,-12.5226,0.26709,0,0,0,0,0,0,0,-1,713,1331,-12.5226,-0.267038
-504,-307,-12.5913,-0.308105,0,0,0,0,0,0,0,-1,720,1331,-12.5913,0.308124
-497,-307,-13.8586,-0.115845,0,0,0,0,0,0,0,-1,727,1331,-13.8587,0.115861
-490,-307,-17.9429,0.982178,0,0,0,0,0,0,0,-1,734,1331,-17.9429,-0.982198
-483,-307,-18.1066,0.927612,0,0,0,0,0,0,0,-1,741,1331,-18.1066,-0.927609
-476,-307,-18.1288,1.1228,0,0,0,0,0,0,0,-1,748,1331,-18.1289,-1.12286
-469,-307,-18.2028,0.798584,0,0,0,0,0,0,0,-1,755,1331,-18.2027,-0.798546
-462,-307,0,0,0,0,0,0,0,0,0,-1,762,1331,0,0
-455,-307,0,0,0,0,0,0,0,0,0,-1,769,1331,0,0
-448,-307,0,0,0,0,0,0,0,0,0,-1,776,1331,0,0
-441,-307,0,0,0,0,0,0,0,0,0,-1,783,1331,0,0
-434,-307,0,0,0,0,0,0,0,0,0,-1,790,1331,0,0
-427,-307,0,0,0,0,0,0,0,0,0,-1,797,1331,0,0
-420,-307,0,0,0,0,0,0,0,0,0,-1,804,1331,0,0
-413,-307,0,0,0,0,0,0,0,0,0,-1,811,1331,0,0
-406,-307,0,0,0,0,0,0,0,0,0,-1,818,1331,0,0
-399,-307,0,0,0,0,0,0,0,0,0,-1,825,1331,0,0
-392,-307,0,0,0,0,0,0,0,0,0,-1,832,1331,0,0
-385,-307,0,0,0,0,0,0,0,0,0,-1,839,1331,0,0
-378,-307,0,0,0,0,0,0,0,0,0,-1,846,1331,0,0
-371,-307,0,0,0,0,0,0,0,0,0,-1,853,1331,0,0
-364,-307,0,0,0,0,0,0,0,0,0,-1,860,1331,0,0
-357,-307,0,0,0,0,0,0,0,0,0,-1,867,1331,0,0
-350,-307,0,0,0,0,0,0,0,0,0,-1,874,1331,0,0
-343,-307,0,0,0,0,0,0,0,0,0,-1,881,1331,0,0
-336,-307,0,0,0,0,0,0,0,0,0,-1,888,1331,0,0
-329,-307,0,0,0,0,0,0,0,0,0,-1,895,1331,0,0
-322,-307,0,0,0,0,0,0,0,0,0,-1,902,1331,0,0
-315,-307,0,0,0,0,0,0,0,0,0,-1,909,1331,0,0
-308,-307,0,0,0,0,0,0,0,0,0,-1,916,1331,0,0
-301,-307,0,0,0,0,0,0,0,0,0,-1,923,1331,0,0
-294,-307,0,0,0,0,0,0,0,0,0,-1,930,1331,0,0
-287,-307,0,0,0,0,0,0,0,0,0,-1,937,1331,0,0
-280,-307,0,0,0,0,0,0,0,0,0,-1,944,1331,0,0
-273,-307,0,0,0,0,0,0,0,0,0,-1,951,1331,0,0
-266,-307,0,0,0,0,0,0,0,0,0,-1,958,1331,0,0
-259,-307,0,0,0,0,0,0,0,0,0,-1,965,1331,0,0
-252,-307,0,0,0,0,0,0,0,0,0,-1,972,1331,0,0
-245,-307,0,0,0,0,0,0,0,0,0,-1,979,1331,0,0
-238,-307,0,0,0,0,0,0,0,0,0,-1,986,1331,0,0
-231,-307,0,0,0,0,0,0,0,0,0,-1,993,1331,0,0
-224,-307,0,0,0,0,0,0,0,0,0,-1,1000,1331,0,0
-217,-307,0,0,0,0,0,0,0,0,0,-1,1007,1331,0,0
-210,-307,0,0,0,0,0,0,0,0,0,-1,1014,1331,0,0
-203,-307,0,0,0,0,0,0,0,0,0,-1,1021,1331,0,0
-196,-307,0,0,0,0,0,0,0,0,0,-1,1028,1331,0,0
-189,-307,0,0,0,0,0,0,0,0,0,-1,1035,1331,0,0
-182,-307,0,0,0,0,0,0,0,0,0,-1,1042,1331,0,0
-175,-307,0,0,0,0,0,0,0,0,0,-1,1049,1331,0,0
-168,-307,0,0,0,0,0,0,0,0,0,-1,1056,1331,0,0
-161,-307,0,0,0,0,0,0,0,0,0,-1,1063,1331,0,0
-154,-307,0,0,0,0,0,0,0,0,0,-1,1070,1331,0,0
-147,-307,0,0,0,0,0,0,0,0,0,-1,1077,1331,0,0
-140,-307,0,0,0,0,0,0,0,0,0,-1,1084,1331,0,0
-133,-307,0,0,0,0,0,0,0,0,0,-1,1091,1331,0,0
-126,-307,0,0,0,0,0,0,0,0,0,-1,1098,1331,0,0
-119,-307,0,0,0,0,0,0,0,0,0,-1,1105,1331,0,0
-112,-307,0,0,0,0,0,0,0,0,0,-1,1112,1331,0,0
-105,-307,0,0,0,0,0,0,0,0,0,-1,1119,1331,0,0
-98,-307,0,0,0,0,0,0,0,0,0,-1,1126,1331,0,0
-91,-307,0,0,0,0,0,0,0,0,0,-1,1133,1331,0,0
-84,-307,0,0,0,0,0,0,0,0,0,-1,1140,1331,0,0
-77,-307,0,0,0,0,0,0,0,0,0,-1,1147,1331,0,0
-70,-307,0,0,0,0,0,0,0,0,0,-1,1154,1331,0,0
-63,-307,0,0,0,0,0,0,0,0,0,-1,1161,1331,0,0
-56,-307,0,0,0,0,0,0,0,0,0,-1,1168,1331,0,0
-49,-307,0,0,0,0,0,0,0,0,0,-1,1175,1331,0,0
-42,-307,0,0,0,0,0,0,0,0,0,-1,1182,1331,0,0
-35,-307,0,0,0,0,0,0,0,0,0,-1,1189,1331,0,0
-28,-307,0,0,0,0,0,0,0,0,0,-1,1196,1331,0,0
-21,-307,0,0,0,0,0,0,0,0,0,-1,1203,1331,0,0
-14,-307,0,0,0,0,0,0,0,0,0,-1,1210,1331,0,0
-7,-307,0,0,0,0,0,0,0,0,0,-1,1217,1331,0,0
0,-307,0,0,0,0,0,0,0,0,0,-1,1224,1331,0,0
7,-307,0,0,0,0,0,0,0,0,0,-1,1231,1331,0,0
14,-307,0,0,0,0,0,0,0,0,0,-1,1238,1331,0,0
21,-307,0,0,0,0,0,0,0,0,0,-1,1245,1331,0,0
28,-307,0,0,0,0,0,0,0,0,0,-1,1252,1331,0,0
35,-307,0,0,0,0,0,0,0,0,0,-1,1259,1331,0,0
42,-307,0,0,0,0,0,0,0,0,0,-1,1266,1331,0,0
49,-307,0,0,0,0,0,0,0,0,0,-1,1273,1331,0,0
56,-307,0,0,0,0,0,0,0,0,0,-1,1280,1331,0,0
63,-307,0,0,0,0,0,0,0,0,0,-1,1287,1331,0,0
70,-307,0,0,0,0,0,0,0,0,0,-1,1294,1331,0,0
77,-307,0,0,0,0,0,0,0,0,0,-1,1301,1331,0,0
84,-307,0,0,0,0,0,0,0,0,0,-1,1308,1331,0,0
91,-307,0,0,0,0,0,0,0,0,0,-1,1315,1331,0,0
98,-307,0,0,0,0,0,0,0,0,0,-1,1322,1331,0,0
105,-307,0,0,0,0,0,0,0,0,0,-1,1329,1331,0,0
112,-307,0,0,0,0,0,0,0,0,0,-1,1336,1331,0,0
119,-307,0,0,0,0,0,0,0,0,0,-1,1343,1331,0,0
126,-307,0,0,0,0,0,0,0,0,0,-1,1350,1331,0,0
133,-307,0,0,0,0,0,0,0,0,0,-1,1357,1331,0,0
140,-307,0,0,0,0,0,0,0,0,0,-1,1364,1331,0,0
147,-307,0,0,0,0,0,0,0,0,0,-1,1371,1331,0,0
154,-307,0,0,0,0,0,0,0,0,0,-1,1378,1331,0,0
161,-307,0,0,0,0,0,0,0,0,0,-1,1385,1331,0,0
168,-307,0,0,0,0,0,0,0,0,0,-1,1392,1331,0,0
175,-307,0,0,0,0,0,0,0,0,0,-1,1399,1331,0,0
182,-307,0,0,0,0,0,0,0,0,0,-1,1406,1331,0,0
189,-307,0,0,0,0,0,0,0,0,0,-1,1413,1331,0,0
196,-307,0,0,0,0,0,0,0,0,0,-1,1420,1331,0,0
203,-307,0,0,0,0,0,0,0,0,0,-1,1427,1331,0,0
210,-307,0,0,0,0,0,0,0,0,0,-1,1434,1331,0,0
217,-307,0,0,0,0,0,0,0,0,0,-1,1441,1331,0,0
224,-307,0,0,0,0,0,0,0,0,0,-1,1448,1331,0,0
231,-307,0,0,0,0,0,0,0,0,0,-1,1455,1331,0,0
238,-307,0,0,0,0,0,0,0,0,0,-1,1462,1331,0,0
245,-307,0,0,0,0,0,0,0,0,0,-1,1469,1331,0,0
252,-307,0,0,0,0,0,0,0,0,0,-1,1476,1331,0,0
259,-307,0,0,0,0,0,0,0,0,0,-1,1483,1331,0,0
266,-307,0,0,0,0,0,0,0,0,0,-1,1490,1331,0,0
273,-307,0,0,0,0,0,0,0,0,0,-1,1497,1331,0,0
280,-307,0,0,0,0,0,0,0,0,0,-1,1504,1331,0,0
287,-307,0,0,0,0,0,0,0,0,0,-1,1511,1331,0,0
294,-307,0,0,0,0,0,0,0,0,0,-1,1518,1331,0,0
301,-307,0,0,0,0,0,0,0,0,0,-1,1525,1331,0,0
308,-307,0,0,0,0,0,0,0,0,0,-1,1532,1331,0,0
315,-307,0,0,0,0,0,0,0,0,0,-1,1539,1331,0,0
322,-307,0,0,0,0,0,0,0,0,0,-1,1546,1331,0,0
329,-307,0,0,0,0,0,0,0,0,0,-1,1553,1331,0,0
336,-307,0,0,0,0,0,0,0,0,0,-1,1560,1331,0,0
343,-307,0,0,0,0,0,0,0,0,0,-1,1567,1331,0,0
350,-307,0,0,0,0,0,0,0,0,0,-1,1574,1331,0,0
357,-307,0,0,0,0,0,0,0,0,0,-1,1581,1331,0,0
364,-307,0,0,0,0,0,0,0,0,0,-1,1588,1331,0,0
371,-307,0,0,0,0,0,0,0,0,0,-1,1595,1331,0,0
378,-307,0,0,0,0,0,0,0,0,0,-1,1602,1331,0,0
385,-307,0,0,0,0,0,0,0,0,0,-1,1609,1331,0,0
392,-307,0,0,0,0,0,0,0,0,0,-1,1616,1331,0,0
399,-307,0,0,0,0,0,0,0,0,0,-1,1623,1331,0,0
406,-307,0,0,0,0,0,0,0,0,0,-1,1630,1331,0,0
413,-307,0,0,0,0,0,0,0,0,0,-1,1637,1331,0,0
420,-307,0,0,0,0,0,0,0,0,0,-1,1644,1331,0,0
427,-307,0,0,0,0,0,0,0,0,0,-1,1651,1331,0,0
434,-307,0,0,0,0,0,0,0,0,0,-1,1658,1331,0,0
441,-307,0,0,0,0,0,0,0,0,0,-1,1665,1331,0,0
448,-307,0,0,0,0,0,0,0,0,0,-1,1672,1331,0,0
455,-307,0,0,0,0,0,0,0,0,0,-1,1679,1331,0,0
462,-307,0,0,0,0,0,0,0,0,0,-1,1686,1331,0,0
469,-307,0,0,0,0,0,0,0,0,0,-1,1693,1331,0,0
476,-307,0,0,0,0,0,0,0,0,0,-1,1700,1331,0,0
483,-307,0,0,0,0,0,0,0,0,0,-1,1707,1331,0,0
490,-307,0,0,0,0,0,0,0,0,0,-1,1714,1331,0,0
497,-307,0,0,0,0,0,0,0,0,0,-1,1721,1331,0,0
504,-307,0,0,0,0,0,0,0,0,0,-1,1728,1331,0,0
511,-307,0,0,0,0,0,0,0,0,0,-1,1735,1331,0,0
518,-307,0,0,0,0,0,0,0,0,0,-1,1742,1331,0,0
525,-307,0,0,0,0,0,0,0,0,0,-1,1749,1331,0,0
532,-307,0,0,0,0,0,0,0,0,0,-1,1756,1331,0,0
539,-307,0,0,0,0,0,0,0,0,0,-1,1763,1331,0,0
546,-307,0,0,0,0,0,0,0,0,0,-1,1770,1331,0,0
553,-307,0,0,0,0,0,0,0,0,0,-1,1777,1331,0,0
560,-307,0,0,0,0,0,0,0,0,0,-1,1784,1331,0,0
567,-307,0,0,0,0,0,0,0,0,0,-1,1791,1331,0,0
574,-307,0,0,0,0,0,0,0,0,0,-1,1798,1331,0,0
581,-307,0,0,0,0,0,0,0,0,0,-1,1805,1331,0,0
588,-307,54.2791,1.93567,0,0,0,0,0,0,0,-1,1812,1331,54.279,-1.93565
595,-307,54.1335,1.44006,0,0,0,0,0,0,0,-1,1819,1331,54.1335,-1.44002
602,-307,54.3329,1.16211,0,0,0,0,0,0,0,-1,1826,1331,54.3329,-1.16205
609,-307,54.498,0.907837,0,0,0,0,0,0,0,-1,1833,1331,54.498,-0.907866
616,-307,48.0499,2.52173,0,0,0,0,0,0,0,-1,1840,1331,48.05,-2.52169
623,-307,44.3966,2.84888,0,0,0,0,0,0,0,-1,1847,1331,44.3966,-2.84884
630,-307,29.8116,1.51184,0,0,0,0,0,0,0,-1,1854,1331,29.8116,-1.51188
637,-307,24.6407,4.09106,0,0,0,0,0,0,0,-1,1861,1331,24.6407,-4.09103
644,-307,22.6885,5.80408,0,0,0,0,0,0,0,-1,1868,1331,22.6884,-5.80408
651,-307,17.5013,5.80078,0,0,0,0,0,0,0,-1,1875,1331,17.5014,-5.80072
658,-307,36.3441,13.434,0,0,0,0,0,0,0,-1,1882,1331,36.3441,-13.434
665,-307,36.0485,12.7872,0.00258744,0.00400406,0.00155871,0.00500785,0.00158366,0.998661,0.00295566,0.0490159,1889,1331,36.0484,-12.7872
672,-307,35.9641,12.2843,0.00234937,0.00186133,0.000978102,0.00311343,0.00109727,0.663152,0.00182345,0.0164622,1896,1331,35.9642,-12.2843
679,-307,35.9357,11.7422,0.00167422,0.00087324,0.000518525,0.00192891,0.000618551,0.456567,0.00113728,0.0109733,1903,1331,35.9356,-11.7422
686,-307,35.9209,11.2169,0.00111577,-8.43291e-05,0.000235122,0.00116019,-0.000128749,0.186724,0.000819756,0.0103022,1910,1331,35.9209,-11.2169
693,-307,35.9165,10.6909,0.000542903,-0.000426079,0.000305359,0.000631103,-0.000514279,0.281189,0.000662433,0.0121423,1917,1331,35.9165,-10.6909
700,-307,35.9086,10.1332,0.00022109,-0.000545265,0.000750851,0.000680885,-0.00100506,0.549461,0.00097936,0.0138728,1924,1331,35.9086,-10.1332
707,-307,35.8821,9.58728,-0.000216799,-0.000795574,0.00134845,0.00087297,-0.00188534,0.679698,0.00162787,0.0155433,1931,1331,35.8821,-9.58725
714,-307,35.8838,9.09021,-0.000836885,-0.0012235,0.00213018,0.00110873,-0.00316912,0.740148,0.00256353,0.0136435,1938,1331,35.8838,-9.09017
721,-307,35.9078,8.59485,-0.00171002,-0.00192768,0.00318367,0.00136668,-0.00500437,0.768313,0.00387304,0.0175489,1945,1331,35.9078,-8.59485
728,-307,35.8699,8.24634,-0.00288114,-0.00289155,0.00443743,0.00155109,-0.00732378,0.784812,0.00547331,0.0470606,1952,1331,35.8699,-8.24638
735,-307,35.9338,7.60034,0,0,0,0,0,0,0,-1,1959,1331,35.9338,-7.6003
742,-307,26.677,6.09192,0,0,0,0,0,0,0,-1,1966,1331,26.677,-6.0919
749,-307,26.7727,5.9032,0,0,0,0,0,0,0,-1,1973,1331,26.7727,-5.90323
756,-307,27.1556,5.74756,0,0,0,0,0,0,0,-1,1980,1331,27.1557,-5.7475
763,-307,18.7522,3.55298,0,0,0,0,0,0,0,-1,1987,1331,18.7522,-3.55301
770,-307,0,0,0,0,0,0,0,0,0,-1,1994,1331,0,0
777,-307,0,0,0,0,0,0,0,0,0,-1,2001,1331,0,0
784,-307,0,0,0,0,0,0,0,0,0,-1,2008,1331,0,0
791,-307,0,0,0,0,0,0,0,0,0,-1,2015,1331,0,0
798,-307,0,0,0,0,0,0,0,0,0,-1,2022,1331,0,0
805,-307,0,0,0,0,0,0,0,0,0,-1,2029,1331,0,0
812,-307,0,0,0,0,0,0,0,0,0,-1,2036,1331,0,0
-700,-314,0,0,0,0,0,0,0,0,0,-1,524,1338,0,0
-693,-314,0,0,0,0,0,0,0,0,0,-1,531,1338,0,0
-686,-314,0,0,0,0,0,0,0,0,0,-1,538,1338,0,0
-679,-314,0,0,0,0,0,0,0,0,0,-1,545,1338,0,0
-672,-314,0,0,0,0,0,0,0,0,0,-1,552,1338,0,0
-665,-314,0,0,0,0,0,0,0,0,0,-1,559,1338,0,0
-658,-314,0,0,0,0,0,0,0,0,0,-1,566,1338,0,0
-651,-314,0,0,0,0,0,0,0,0,0,-1,573,1338,0,0
-644,-314,-20.9896,-0.0299072,0,0,0,0,0,0,0,-1,580,1338,-20.9896,0.0299587
-637,-314,-18.8677,6.62646,0,0,0,0,0,0,0,-1,587,1338,-18.8677,-6.62651
-630,-314,-13.2771,2.98938,0,0,0,0,0,0,0,-1,594,1338,-13.2771,-2.98943
-623,-314,-13.3542,3.00903,0,0,0,0,0,0,0,-1,601,1338,-13.3542,-3.00907
-616,-314,-9.93311,1.15088,0,0,0,0,0,0,0,-1,608,1338,-9.93308,-1.15093
-609,-314,-9.4361,2.86292,0,0,0,0,0,0,0,-1,615,1338,-9.43612,-2.86286
-602,-314,-11.8027,2.42798,0,0,0,0,0,0,0,-1,622,1338,-11.8027,-2.42802
-595,-314,-20.6052,5.6366,0,0,0,0,0,0,0,-1,629,1338,-20.6052,-5.63665
-588,-314,-20.4974,6.29565,0.00202001,-0.000104762,0.00150648,0.00280103,-0.000885781,0.47829,0.00222226,0.0332411,636,1338,-20.4974,-6.29566
-581,-314,-20.4144,6.91602,0.00166158,0.00228656,0.00144299,0.00345051,0.000497635,0.89203,0.00215371,0.013259,643,1338,-20.4144,-6.91597
-574,-314,-20.4819,7.46436,0.0017843,0.00151028,0.00107078,0.00272679,0.00056778,0.721766,0.00166127,0.0130657,650,1338,-20.4819,-7.46431
-567,-314,-20.4915,8.07593,0.00200319,0.000905792,0.000869571,0.0024827,0.000426276,0.503948,0.00153293,0.0145371,657,1338,-20.4915,-8.07589
-560,-314,-20.4872,8.66711,0.00233057,0.000400444,0.000813644,0.00262779,0.000103222,0.350237,0.00171849,0.0155598,664,1338,-20.4872,-8.66717
-553,-314,-20.5403,9.24121,0.00279095,3.16821e-05,0.000921502,0.0030704,-0.000247766,0.294439,0.00213432,0.0171956,671,1338,-20.5403,-9.24118
-546,-314,-20.5932,9.82837,0.00341148,-0.000267339,0.00118928,0.00376247,-0.000618322,0.286975,0.00273779,0.0178209,678,1338,-20.5932,-9.82831
-539,-314,-20.5934,10.4083,0.004289,-0.000477391,0.00167652,0.00481962,-0.00100802,0.306528,0.00359649,0.017661,685,1338,-20.5934,-10.4084
-532,-314,-20.5414,10.9626,0,0,0,0,0,0,0,-1,692,1338,-20.5414,-10.9627
-525,-314,-13.3017,7.50671,0,0,0,0,0,0,0,-1,699,1338,-13.3017,-7.50669
-518,-314,-8.52753,4.70032,0,0,0,0,0,0,0,-1,706,1338,-8.52755,-4.70034
-511,-314,-11.8597,0.384888,0,0,0,0,0,0,0,-1,713,1338,-11.8597,-0.384927
-504,-314,-11.4322,-0.187378,0,0,0,0,0,0,0,-1,720,1338,-11.4322,0.187381
-497,-314,-11.0047,-0.759644,0,0,0,0,0,0,0,-1,727,1338,-11.0047,0.759689
-490,-314,-18.5143,0.471069,0,0,0,0,0,0,0,-1,734,1338,-18.5143,-0.47103
-483,-314,-17.8528,0.577271,0,0,0,0,0,0,0,-1,741,1338,-17.8528,-0.577327
-476,-314,-17.714,0.665405,0,0,0,0,0,0,0,-1,748,1338,-17.714,-0.665388
-469,-314,-17.7246,0.794678,0,0,0,0,0,0,0,-1,755,1338,-17.7246,-0.794645
-462,-314,0,0,0,0,0,0,0,0,0,-1,762,1338,0,0
-455,-314,0,0,0,0,0,0,0,0,0,-1,769,1338,0,0
-448,-314,0,0,0,0,0,0,0,0,0,-1,776,1338,0,0
-441,-314,0,0,0,0,0,0,0,0,0,-1,783,1338,0,0
-434,-314,0,0,0,0,0,0,0,0,0,-1,790,1338,0,0
-427,-314,0,0,0,0,0,0,0,0,0,-1,797,1338,0,0
-420,-314,0,0,0,0,0,0,0,0,0,-1,804,1338,0,0
-413,-314,0,0,0,0,0,0,0,0,0,-1,811,1338,0,0
-406,-314,0,0,0,0,0,0,0,0,0,-1,818,1338,0,0
-399,-314,0,0,0,0,0,0,0,0,0,-1,825,1338,0,0
-392,-314,0,0,0,0,0,0,0,0,0,-1,832,1338,0,0
-385,-314,0,0,0,0,0,0,0,0,0,-1,839,1338,0,0
-378,-314,0,0,0,0,0,0,0,0,0,-1,846,1338,0,0
-371,-314,0,0,0,0,0,0,0,0,0,-1,853,1338,0,0
-364,-314,0,0,0,0,0,0,0,0,0,-1,860,1338,0,0
-357,-314,0,0,0,0,0,0,0,0,0,-1,867,1338,0,0
-350,-314,0,0,0,0,0,0,0,0,0,-1,874,1338,0,0
-343,-314,0,0,0,0,0,0,0,0,0,-1,881,1338,0,0
-336,-314,0,0,0,0,0,0,0,0,0,-1,888,1338,0,0
-329,-314,0,0,0,0,0,0,0,0,0,-1,895,1338,0,0
-322,-314,0,0,0,0,0,0,0,0,0,-1,902,1338,0,0
-315,-314,0,0,0,0,0,0,0,0,0,-1,909,1338,0,0
-308,-314,0,0,0,0,0,0,0,0,0,-1,916,1338,0,0
-301,-314,0,0,0,0,0,0,0,0,0,-1,923,1338,0,0
-294,-314,0,0,0,0,0,0,0,0,0,-1,930,1338,0,0
-287,-314,0,0,0,0,0,0,0,0,0,-1,937,1338,0,0
-280,-314,0,0,0,0,0,0,0,0,0,-1,944,1338,0,0
-273,-314,0,0,0,0,0,0,0,0,0,-1,951,1338,0,0
-266,-314,0,0,0,0,0,0,0,0,0,-1,958,1338,0,0
-259,-314,0,0,0,0,0,0,0,0,0,-1,965,1338,0,0
-252,-314,0,0,0,0,0,0,0,0,0,-1,972,1338,0,0
-245,-314,0,0,0,0,0,0,0,0,0,-1,979,1338,0,0
-238,-314,0,0,0,0,0,0,0,0,0,-1,986,1338,0,0
-231,-314,0,0,0,0,0,0,0,0,0,-1,993,1338,0,0
-224,-314,0,0,0,0,0,0,0,0,0,-1,1000,1338,0,0
-217,-314,0,0,0,0,0,0,0,0,0,-1,1007,1338,0,0
-210,-314,0,0,0,0,0,0,0,0,0,-1,1014,1338,0,0
-203,-314,0,0,0,0,0,0,0,0,0,-1,1021,1338,0,0
-196,-314,0,0,0,0,0,0,0,0,0,-1,1028,1338,0,0
-189,-314,0,0,0,0,0,0,0,0,0,-1,1035,1338,0,0
-182,-314,0,0,0,0,0,0,0,0,0,-1,1042,1338,0,0
-175,-314,0,0,0,0,0,0,0,0,0,-1,1049,1338,0,0
-168,-314,0,0,0,0,0,0,0,0,0,-1,1056,1338,0,0
-161,-314,0,0,0,0,0,0,0,0,0,-1,1063,1338,0,0
-154,-314,0,0,0,0,0,0,0,0,0,-1,1070,1338,0,0
-147,-314,0,0,0,0,0,0,0,0,0,-1,1077,1338,0,0
-140,-314,0,0,0,0,0,0,0,0,0,-1,1084,1338,0,0
-133,-314,0,0,0,0,0,0,0,0,0,-1,1091,1338,0,0
-126,-314,0,0,0,0,0,0,0,0,0,-1,1098,1338,0,0
-119,-314,0,0,0,0,0,0,0,0,0,-1,1105,1338,0,0
-112,-314,0,0,0,0,0,0,0,0,0,-1,1112,1338,0,0
-105,-314,0,0,0,0,0,0,0,0,0,-1,1119,1338,0,0
-98,-314,0,0,0,0,0,0,0,0,0,-1,1126,1338,0,0
-91,-314,0,0,0,0,0,0,0,0,0,-1,1133,1338,0,0
-84,-314,0,0,0,0,0,0,0,0,0,-1,1140,1338,0,0
-77,-314,0,0,0,0,0,0,0,0,0,-1,1147,1338,0,0
-70,-314,0,0,0,0,0,0,0,0,0,-1,1154,1338,0,0
-63,-314,0,0,0,0,0,0,0,0,0,-1,1161,1338,0,0
-56,-314,0,0,0,0,0,0,0,0,0,-1,1168,1338,0,0
-49,-314,0,0,0,0,0,0,0,0,0,-1,1175,1338,0,0
-42,-314,0,0,0,0,0,0,0,0,0,-1,1182,1338,0,0
-35,-314,0,0,0,0,0,0,0,0,0,-1,1189,1338,0,0
-28,-314,0,0,0,0,0,0,0,0,0,-1,1196,1338,0,0
-21,-314,0,0,0,0,0,0,0,0,0,-1,1203,1338,0,0
-14,-314,0,0,0,0,0,0,0,0,0,-1,1210,1338,0,0
-7,-314,0,0,0,0,0,0,0,0,0,-1,1217,1338,0,0
0,-314,0,0,0,0,0,0,0,0,0,-1,1224,1338,0,0
7,-314,0,0,0,0,0,0,0,0,0,-1,1231,1338,0,0
14,-314,0,0,0,0,0,0,0,0,0,-1,1238,1338,0,0
21,-314,0,0,0,0,0,0,0,0,0,-1,1245,1338,0,0
28,-314,0,0,0,0,0,0,0,0,0,-1,1252,1338,0,0
35,-314,0,0,0,0,0,0,0,0,0,-1,1259,1338,0,0
42,-314,0,0,0,0,0,0,0,0,0,-1,1266,1338,0,0
49,-314,0,0,0,0,0,0,0,0,0,-1,1273,1338,0,0
56,-314,0,0,0,0,0,0,0,0,0,-1,1280,1338,0,0
63,-314,0,0,0,0,0,0,0,0,0,-1,1287,1338,0,0
70,-314,0,0,0,0,0,0,0,0,0,-1,1294,1338,0,0
77,-314,0,0,0,0,0,0,0,0,0,-1,1301,1338,0,0
84,-314,0,0,0,0,0,0,0,0,0,-1,1308,1338,0,0
91,-314,0,0,0,0,0,0,0,0,0,-1,1315,1338,0,0
98,-314,0,0,0,0,0,0,0,0,0,-1,1322,1338,0,0
105,-314,0,0,0,0,0,0,0,0,0,-1,1329,1338,0,0
112,-314,0,0,0,0,0,0,0,0,0,-1,1336,1338,0,0
119,-314,0,0,0,0,0,0,0,0,0,-1,1343,1338,0,0
126,-314,0,0,0,0,0,0,0,0,0,-1,1350,1338,0,0
133,-314,0,0,0,0,0,0,0,0,0,-1,1357,1338,0,0
140,-314,0,0,0,0,0,0,0,0,0,-1,1364,1338,0,0
147,-314,0,0,0,0,0,0,0,0,0,-1,1371,1338,0,0
154,-314,0,0,0,0,0,0,0,0,0,-1,1378,1338,0,0
161,-314,0,0,0,0,0,0,0,0,0,-1,1385,1338,0,0
168,-314,0,0,0,0,0,0,0,0,0,-1,1392,1338,0,0
175,-314,0,0,0,0,0,0,0,0,0,-1,1399,1338,0,0
182,-314,0,0,0,0,0,0,0,0,0,-1,1406,1338,0,0
189,-314,0,0,0,0,0,0,0,0,0,-1,1413,1338,0,0
196,-314,0,0,0,0,0,0,0,0,0,-1,1420,1338,0,0
203,-314,0,0,0,0,0,0,0,0,0,-1,1427,1338,0,0
210,-314,0,0,0,0,0,0,0,0,0,-1,1434,1338,0,0
217,-314,0,0,0,0,0,0,0,0,0,-1,1441,1338,0,0
224,-314,0,0,0,0,0,0,0,0,0,-1,1448,1338,0,0
231,-314,0,0,0,0,0,0,0,0,0,-1,1455,1338,0,0
238,-314,0,0,0,0,0,0,0,0,0,-1,1462,1338,0,0
245,-314,0,0,0,0,0,0,0,0,0,-1,1469,1338,0,0
252,-314,0,0,0,0,0,0,0,0,0,-1,1476,1338,0,0
259,-314,0,0,0,0,0,0,0,0,0,-1,1483,1338,0,0
266,-314,0,0,0,0,0,0,0,0,0,-1,1490,1338,0,0
273,-314,0,0,0,0,0,0,0,0,0,-1,1497,1338,0,0
280,-314,0,0,0,0,0,0,0,0,0,-1,1504,1338,0,0
287,-314,0,0,0,0,0,0,0,0,0,-1,1511,1338,0,0
294,-314,0,0,0,0,0,0,0,0,0,-1,1518,1338,0,0
301,-314,0,0,0,0,0,0,0,0,0,-1,1525,1338,0,0
308,-314,0,0,0,0,0,0,0,0,0,-1,1532,1338,0,0
315,-314,0,0,0,0,0,0,0,0,0,-1,1539,1338,0,0
322,-314,0,0,0,0,0,0,0,0,0,-1,1546,1338,0,0
329,-314,0,0,0,0,0,0,0,0,0,-1,1553,1338,0,0
336,-314,0,0,0,0,0,0,0,0,0,-1,1560,1338,0,0
343,-314,0,0,0,0,0,0,0,0,0,-1,1567,1338,0,0
350,-314,0,0,0,0,0,0,0,0,0,-1,1574,1338,0,0
357,-314,0,0,0,0,0,0,0,0,0,-1,1581,1338,0,0
364,-314,0,0,0,0,0,0,0,0,0,-1,1588,1338,0,0
371,-314,0,0,0,0,0,0,0,0,0,-1,1595,1338,0,0
378,-314,0,0,0,0,0,0,0,0,0,-1,1602,1338,0,0
385,-314,0,0,0,0,0,0,0,0,0,-1,1609,1338,0,0
392,-314,0,0,0,0,0,0,0,0,0,-1,1616,1338,0,0
399,-314,0,0,0,0,0,0,0,0,0,-1,1623,1338,0,0
406,-314,0,0,0,0,0,0,0,0,0,-1,1630,1338,0,0
413,-314,0,0,0,0,0,0,0,0,0,-1,1637,1338,0,0
420,-314,0,0,0,0,0,0,0,0,0,-1,1644,1338,0,0
427,-314,0,0,0,0,0,0,0,0,0,-1,1651,1338,0,0
434,-314,0,0,0,0,0,0,0,0,0,-1,1658,1338,0,0
441,-314,0,0,0,0,0,0,0,0,0,-1,1665,1338,0,0
448,-314,0,0,0,0,0,0,0,0,0,-1,1672,1338,0,0
455,-314,0,0,0,0,0,0,0,0,0,-1,1679,1338,0,0
462,-314,0,0,0,0,0,0,0,0,0,-1,1686,1338,0,0
469,-314,0,0,0,0,0,0,0,0,0,-1,1693,1338,0,0
476,-314,0,0,0,0,0,0,0,0,0,-1,1700,1338,0,0
483,-314,0,0,0,0,0,0,0,0,0,-1,1707,1338,0,0
490,-314,0,0,0,0,0,0,0,0,0,-1,1714,1338,0,0
497,-314,0,0,0,0,0,0,0,0,0,-1,1721,1338,0,0
504,-314,0,0,0,0,0,0,0,0,0,-1,1728,1338,0,0
511,-314,0,0,0,0,0,0,0,0,0,-1,1735,1338,0,0
518,-314,0,0,0,0,0,0,0,0,0,-1,1742,1338,0,0
525,-314,0,0,0,0,0,0,0,0,0,-1,1749,1338,0,0
532,-314,0,0,0,0,0,0,0,0,0,-1,1756,1338,0,0
539,-314,0,0,0,0,0,0,0,0,0,-1,1763,1338,0,0
546,-314,0,0,0,0,0,0,0,0,0,-1,1770,1338,0,0
553,-314,0,0,0,0,0,0,0,0,0,-1,1777,1338,0,0
560,-314,0,0,0,0,0,0,0,0,0,-1,1784,1338,0,0
567,-314,0,0,0,0,0,0,0,0,0,-1,1791,1338,0,0
574,-314,0,0,0,0,0,0,0,0,0,-1,1798,1338,0,0
581,-314,49.7633,3.98621,0,0,0,0,0,0,0,-1,1805,1338,49.7633,-3.9862
588,-314,49.3467,3.4939,0,0,0,0,0,0,0,-1,1812,1338,49.3467,-3.49392
595,-314,51.6008,1.35242,0,0,0,0,0,0,0,-1,1819,1338,51.6008,-1.35246
602,-314,54.6401,0.747314,0,0,0,0,0,0,0,-1,1826,1338,54.6401,-0.747355
609,-314,51.2183,0.76062,0,0,0,0,0,0,0,-1,1833,1338,51.2183,-0.760615
616,-314,48.1149,3.005,0,0,0,0,0,0,0,-1,1840,1338,48.1149,-3.00505
623,-314,38.7728,2.71741,0,0,0,0,0,0,0,-1,1847,1338,38.7728,-2.71737
630,-314,29.4308,6.23206,0,0,0,0,0,0,0,-1,1854,1338,29.4308,-6.23202
637,-314,22.1349,5.16418,0,0,0,0,0,0,0,-1,1861,1338,22.1349,-5.16414
644,-314,18.7517,6.2605,0,0,0,0,0,0,0,-1,1868,1338,18.7517,-6.26053
651,-314,23.1317,8.005,0,0,0,0,0,0,0,-1,1875,1338,23.1317,-8.00506
658,-314,35.4868,13.395,0,0,0,0,0,0,0,-1,1882,1338,35.4868,-13.395
665,-314,35.4238,12.8617,0.00151233,0.00227569,0.00099685,0.00296143,0.000826585,0.968232,0.00176452,0.0292424,1889,1338,35.4239,-12.8617
672,-314,35.4354,12.3511,0.00143063,0.000585439,0.000546105,0.00169855,0.000317514,0.456108,0.00104277,0.0138783,1896,1338,35.4355,-12.3511
679,-314,35.4083,11.7993,0.00111546,0.000102895,0.000253038,0.00117517,4.31826e-05,0.231743,0.000769455,0.0111534,1903,1338,35.4083,-11.7993
686,-314,35.3826,11.2493,0.000906196,-0.000282819,0.000183462,0.00093386,-0.000310483,0.149661,0.000747869,0.0127961,1910,1338,35.3825,-11.2493
693,-314,35.3668,10.6956,0.000645459,-0.00040293,0.000334185,0.000742923,-0.000500394,0.283776,0.000722367,0.0126609,1917,1338,35.3669,-10.6955
700,-314,35.3527,10.1478,0.000433148,-0.000495594,0.000716707,0.000822773,-0.000885219,0.497941,0.000986329,0.0144832,1924,1338,35.3526,-10.1479
707,-314,35.3489,9.61377,9.66289e-05,-0.000699474,0.00125035,0.00101076,-0.00161361,0.631295,0.00152845,0.0143416,1931,1338,35.3489,-9.61379
714,-314,35.328,9.11389,-0.000424496,-0.00108538,0.0019881,0.00126044,-0.00277031,0.703046,0.00238096,0.0122935,1938,1338,35.3279,-9.11393
721,-314,35.3059,8.63501,-0.00122573,-0.00180315,0.00307583,0.00157491,-0.00460379,0.738603,0.0037074,0.0264844,1945,1338,35.3059,-8.635
728,-314,35.5919,8.46814,0,0,0,0,0,0,0,-1,1952,1338,35.5919,-8.46816
735,-314,26.3665,6.21582,0,0,0,0,0,0,0,-1,1959,1338,26.3664,-6.21581
742,-314,26.2235,6.0166,0,0,0,0,0,0,0,-1,1966,1338,26.2235,-6.01662
749,-314,26.2223,5.47046,0,0,0,0,0,0,0,-1,1973,1338,26.2223,-5.47041
756,-314,24.2521,5.93408,0,0,0,0,0,0,0,-1,1980,1338,24.252,-5.93413
763,-314,19.2207,4.07239,0,0,0,0,0,0,0,-1,1987,1338,19.2206,-4.07239
770,-314,0,0,0,0,0,0,0,0,0,-1,1994,1338,0,0
777,-314,0,0,0,0,0,0,0,0,0,-1,2001,1338,0,0
784,-314,0,0,0,0,0,0,0,0,0,-1,2008,1338,0,0
791,-314,0,0,0,0,0,0,0,0,0,-1,2015,1338,0,0
798,-314,0,0,0,0,0,0,0,0,0,-1,2022,1338,0,0
805,-314,0,0,0,0,0,0,0,0,0,-1,2029,1338,0,0
812,-314,0,0,0,0,0,0,0,0,0,-1,2036,1338,0,0
-700,-321,0,0,0,0,0,0,0,0,0,-1,524,1345,0,0
-693,-321,0,0,0,0,0,0,0,0,0,-1,531,1345,0,0
-686,-321,0,0,0,0,0,0,0,0,0,-1,538,1345,0,0
-679,-321,0,0,0,0,0,0,0,0,0,-1,545,1345,0,0
-672,-321,0,0,0,0,0,0,0,0,0,-1,552,1345,0,0
-665,-321,0,0,0,0,0,0,0,0,0,-1,559,1345,0,0
-658,-321,0,0,0,0,0,0,0,0,0,-1,566,1345,0,0
-651,-321,0,0,0,0,0,0,0,0,0,-1,573,1345,0,0
-644,-321,-17.2769,5.65454,0,0,0,0,0,0,0,-1,580,1345,-17.2768,-5.65454
-637,-321,-13.3991,3.59241,0,0,0,0,0,0,0,-1,587,1345,-13.3991,-3.59236
-630,-321,-13.2958,3.65039,0,0,0,0,0,0,0,-1,594,1345,-13.2958,-3.65042
-623,-321,-13.2242,3.14148,0,0,0,0,0,0,0,-1,601,1345,-13.2243,-3.14146
-616,-321,-11.6754,3.13794,0,0,0,0,0,0,0,-1,608,1345,-11.6754,-3.13789
-609,-321,-7.95209,1.14758,0,0,0,0,0,0,0,-1,615,1345,-7.95208,-1.14757
-602,-321,-8.85791,2.50049,0,0,0,0,0,0,0,-1,622,1345,-8.85791,-2.50048
-595,-321,-19.8463,5.36584,0,0,0,0,0,0,0,-1,629,1345,-19.8462,-5.36589
-588,-321,-19.9842,6.26233,0,0,0,0,0,0,0,-1,636,1345,-19.9842,-6.26234
-581,-321,-19.8624,6.9364,0.00221459,0.00229748,0.00148231,0.00373892,0.00077315,0.799376,0.00227904,0.0143232,643,1345,-19.8624,-6.93646
-574,-321,-19.9119,7.50085,0.002147,0.0015985,0.00111026,0.00301638,0.000729122,0.664314,0.00181731,0.0161533,650,1345,-19.9119,-7.50091
-567,-321,-19.9327,8.08618,0.0022241,0.00106222,0.000904483,0.00271814,0.00056818,0.499929,0.00165553,0.0236998,657,1345,-19.9327,-8.08623
-560,-321,-19.9081,8.72852,0.00242852,0.000637603,0.000858295,0.00277343,0.000292691,0.382106,0.00175952,0.0273767,664,1345,-19.9081,-8.72853
-553,-321,-19.8815,9.32129,0.0027791,0.000300738,0.000956918,0.00310557,-2.57309e-05,0.328784,0.00207901,0.0280489,671,1345,-19.8816,-9.32124
-546,-321,-19.9247,9.87073,0.0033087,1.65568e-05,0.00119692,0.00369785,-0.000372601,0.314353,0.00259836,0.0276385,678,1345,-19.9248,-9.87067
-539,-321,-19.9801,10.4136,0.00406771,-0.000160343,0.00163377,0.00462544,-0.000718078,0.328974,0.00334875,0.0235838,685,1345,-19.9801,-10.4135
-532,-321,-19.8566,11.021,0.00525436,-0.000253052,0.00228923,0.00608164,-0.00108034,0.346777,0.00445839,0.0334455,692,1345,-19.8566,-11.021
-525,-321,-19.9553,11.7045,0,0,0,0,0,0,0,-1,699,1345,-19.9553,-11.7044
-518,-321,-10.3564,6.75696,0,0,0,0,0,0,0,-1,706,1345,-10.3564,-6.75694
-511,-321,-9.3302,5.29297,0,0,0,0,0,0,0,-1,713,1345,-9.33023,-5.29294
-504,-321,-10.4713,0.0145264,0,0,0,0,0,0,0,-1,720,1345,-10.4713,-0.0145296
-497,-321,-9.96771,0.313599,0,0,0,0,0,0,0,-1,727,1345,-9.96769,-0.313618
-490,-321,-10.7631,0.973511,0,0,0,0,0,0,0,-1,734,1345,-10.7631,-0.97353
-483,-321,-17.5908,0.2323,0,0,0,0,0,0,0,-1,741,1345,-17.5908,-0.232355
-476,-321,-17.2915,0.297363,0,0,0,0,0,0,0,-1,748,1345,-17.2915,-0.297342
-469,-321,-17.2441,0.478027,0,0,0,0,0,0,0,-1,755,1345,-17.2441,-0.477994
-462,-321,-17.1672,0.526489,0,0,0,0,0,0,0,-1,762,1345,-17.1672,-0.526533
-455,-321,0,0,0,0,0,0,0,0,0,-1,769,1345,0,0
-448,-321,0,0,0,0,0,0,0,0,0,-1,776,1345,0,0
-441,-321,0,0,0,0,0,0,0,0,0,-1,783,1345,0,0
-434,-321,0,0,0,0,0,0,0,0,0,-1,790,1345,0,0
-427,-321,0,0,0,0,0,0,0,0,0,-1,797,1345,0,0
-420,-321,0,0,0,0,0,0,0,0,0,-1,804,1345,0,0
-413,-321,0,0,0,0,0,0,0,0,0,-1,811,1345,0,0
-406,-321,0,0,0,0,0,0,0,0,0,-1,818,1345,0,0
-399,-321,0,0,0,0,0,0,0,0,0,-1,825,1345,0,0
-392,-321,0,0,0,0,0,0,0,0,0,-1,832,1345,0,0
-385,-321,0,0,0,0,0,0,0,0,0,-1,839,1345,0,0
-378,-321,0,0,0,0,0,0,0,0,0,-1,846,1345,0,0
-371,-321,0,0,0,0,0,0,0,0,0,-1,853,1345,0,0
-364,-321,0,0,0,0,0,0,0,0,0,-1,860,1345,0,0
-357,-321,0,0,0,0,0,0,0,0,0,-1,867,1345,0,0
-350,-321,0,0,0,0,0,0,0,0,0,-1,874,1345,0,0
-343,-321,0,0,0,0,0,0,0,0,0,-1,881,1345,0,0
-336,-321,0,0,0,0,0,0,0,0,0,-1,888,1345,0,0
-329,-321,0,0,0,0,0,0,0,0,0,-1,895,1345,0,0
-322,-321,0,0,0,0,0,0,0,0,0,-1,902,1345,0,0
-315,-321,0,0,0,0,0,0,0,0,0,-1,909,1345,0,0
-308,-321,0,0,0,0,0,0,0,0,0,-1,916,1345,0,0
-301,-321,0,0,0,0,0,0,0,0,0,-1,923,1345,0,0
-294,-321,0,0,0,0,0,0,0,0,0,-1,930,1345,0,0
-287,-321,0,0,0,0,0,0,0,0,0,-1,937,1345,0,0
-280,-321,0,0,0,0,0,0,0,0,0,-1,944,1345,0,0
-273,-321,0,0,0,0,0,0,0,0,0,-1,951,1345,0,0
-266,-321,0,0,0,0,0,0,0,0,0,-1,958,1345,0,0
-259,-321,0,0,0,0,0,0,0,0,0,-1,965,1345,0,0
-252,-321,0,0,0,0,0,0,0,0,0,-1,972,1345,0,0
-245,-321,0,0,0,0,0,0,0,0,0,-1,979,1345,0,0
-238,-321,0,0,0,0,0,0,0,0,0,-1,986,1345,0,0
-231,-321,0,0,0,0,0,0,0,0,0,-1,993,1345,0,0
-224,-321,0,0,0,0,0,0,0,0,0,-1,1000,1345,0,0
-217,-321,0,0,0,0,0,0,0,0,0,-1,1007,1345,0,0
-210,-321,0,0,0,0,0,0,0,0,0,-1,1014,1345,0,0
-203,-321,0,0,0,0,0,0,0,0,0,-1,1021,1345,0,0
-196,-321,0,0,0,0,0,0,0,0,0,-1,1028,1345,0,0
-189,-321,0,0,0,0,0,0,0,0,0,-1,1035,1345,0,0
-182,-321,0,0,0,0,0,0,0,0,0,-1,1042,1345,0,0
-175,-321,0,0,0,0,0,0,0,0,0,-1,1049,1345,0,0
-168,-321,0,0,0,0,0,0,0,0,0,-1,1056,1345,0,0
-161,-321,0,0,0,0,0,0,0,0,0,-1,1063,1345,0,0
-154,-321,0,0,0,0,0,0,0,0,0,-1,1070,1345,0,0
-147,-321,0,0,0,0,0,0,0,0,0,-1,1077,1345,0,0
-140,-321,0,0,0,0,0,0,0,0,0,-1,1084,1345,0,0
-133,-321,0,0,0,0,0,0,0,0,0,-1,1091,1345,0,0
-126,-321,0,0,0,0,0,0,0,0,0,-1,1098,1345,0,0
-119,-321,0,0,0,0,0,0,0,0,0,-1,1105,1345,0,0
-112,-321,0,0,0,0,0,0,0,0,0,-1,1112,1345,0,0
-105,-321,0,0,0,0,0,0,0,0,0,-1,1119,1345,0,0
-98,-321,0,0,0,0,0,0,0,0,0,-1,1126,1345,0,0
-91,-321,0,0,0,0,0,0,0,0,0,-1,1133,1345,0,0
-84,-321,0,0,0,0,0,0,0,0,0,-1,1140,1345,0,0
-77,-321,0,0,0,0,0,0,0,0,0,-1,1147,1345,0,0
-70,-321,0,0,0,0,0,0,0,0,0,-1,1154,1345,0,0
-63,-321,0,0,0,0,0,0,0,0,0,-1,1161,1345,0,0
-56,-321,0,0,0,0,0,0,0,0,0,-1,1168,1345,0,0
-49,-321,0,0,0,0,0,0,0,0,0,-1,1175,1345,0,0
-42,-321,0,0,0,0,0,0,0,0,0,-1,1182,1345,0,0
-35,-321,0,0,0,0,0,0,0,0,0,-1,1189,1345,0,0
-28,-321,0,0,0,0,0,0,0,0,0,-1,1196,1345,0,0
-21,-321,0,0,0,0,0,0,0,0,0,-1,1203,1345,0,0
-14,-321,0,0,0,0,0,0,0,0,0,-1,1210,1345,0,0
-7,-321,0,0,0,0,0,0,0,0,0,-1,1217,1345,0,0
0,-321,0,0,0,0,0,0,0,0,0,-1,1224,1345,0,0
7,-321,0,0,0,0,0,0,0,0,0,-1,1231,1345,0,0
14,-321,0,0,0,0,0,0,0,0,0,-1,1238,1345,0,0
21,-321,0,0,0,0,0,0,0,0,0,-1,1245,1345,0,0
28,-321,0,0,0,0,0,0,0,0,0,-1,1252,1345,0,0
35,-321,0,0,0,0,0,0,0,0,0,-1,1259,1345,0,0
42,-321,0,0,0,0,0,0,0,0,0,-1,1266,1345,0,0
49,-321,0,0,0,0,0,0,0,0,0,-1,1273,1345,0,0
56,-321,0,0,0,0,0,0,0,0,0,-1,1280,1345,0,0
63,-321,0,0,0,0,0,0,0,0,0,-1,1287,1345,0,0
70,-321,0,0,0,0,0,0,0,0,0,-1,1294,1345,0,0
77,-321,0,0,0,0,0,0,0,0,0,-1,1301,1345,0,0
84,-321,0,0,0,0,0,0,0,0,0,-1,1308,1345,0,0
91,-321,0,0,0,0,0,0,0,0,0,-1,1315,1345,0,0
98,-321,0,0,0,0,0,0,0,0,0,-1,1322,1345,0,0
105,-321,0,0,0,0,0,0,0,0,0,-1,1329,1345,0,0
112,-321,0,0,0,0,0,0,0,0,0,-1,1336,1345,0,0
119,-321,0,0,0,0,0,0,0,0,0,-1,1343,1345,0,0
126,-321,0,0,0,0,0,0,0,0,0,-1,1350,1345,0,0
133,-321,0,0,0,0,0,0,0,0,0,-1,1357,1345,0,0
140,-321,0,0,0,0,0,0,0,0,0,-1,1364,1345,0,0
147,-321,0,0,0,0,0,0,0,0,0,-1,1371,1345,0,0
154,-321,0,0,0,0,0,0,0,0,0,-1,1378,1345,0,0
161,-321,0,0,0,0,0,0,0,0,0,-1,1385,1345,0,0
168,-321,0,0,0,0,0,0,0,0,0,-1,1392,1345,0,0
175,-321,0,0,0,0,0,0,0,0,0,-1,1399,1345,0,0
182,-321,0,0,0,0,0,0,0,0,0,-1,1406,1345,0,0
189,-321,0,0,0,0,0,0,0,0,0,-1,1413,1345,0,0
196,-321,0,0,0,0,0,0,0,0,0,-1,1420,1345,0,0
203,-321,0,0,0,0,0,0,0,0,0,-1,1427,1345,0,0
210,-321,0,0,0,0,0,0,0,0,0,-1,1434,1345,0,0
217,-321,0,0,0,0,0,0,0,0,0,-1,1441,1345,0,0
224,-321,0,0,0,0,0,0,0,0,0,-1,1448,1345,0,0
231,-321,0,0,0,0,0,0,0,0,0,-1,1455,1345,0,0
238,-321,0,0,0,0,0,0,0,0,0,-1,1462,1345,0,0
245,-321,0,0,0,0,0,0,0,0,0,-1,1469,1345,0,0
252,-321,0,0,0,0,0,0,0,0,0,-1,1476,1345,0,0
259,-321,0,0,0,0,0,0,0,0,0,-1,1483,1345,0,0
266,-321,0,0,0,0,0,0,0,0,0,-1,1490,1345,0,0
273,-321,0,0,0,0,0,0,0,0,0,-1,1497,1345,0,0
280,-321,0,0,0,0,0,0,0,0,0,-1,1504,1345,0,0
287,-321,0,0,0,0,0,0,0,0,0,-1,1511,1345,0,0
294,-321,0,0,0,0,0,0,0,0,0,-1,1518,1345,0,0
301,-321,0,0,0,0,0,0,0,0,0,-1,1525,1345,0,0
308,-321,0,0,0,0,0,0,0,0,0,-1,1532,1345,0,0
315,-321,0,0,0,0,0,0,0,0,0,-1,1539,1345,0,0
322,-321,0,0,0,0,0,0,0,0,0,-1,1546,1345,0,0
329,-321,0,0,0,0,0,0,0,0,0,-1,1553,1345,0,0
336,-321,0,0,0,0,0,0,0,0,0,-1,1560,1345,0,0
343,-321,0,0,0,0,0,0,0,0,0,-1,1567,1345,0,0
350,-321,0,0,0,0,0,0,0,0,0,-1,1574,1345,0,0
357,-321,0,0,0,0,0,0,0,0,0,-1,1581,1345,0,0
364,-321,0,0,0,0,0,0,0,0,0,-1,1588,1345,0,0
371,-321,0,0,0,0,0,0,0,0,0,-1,1595,1345,0,0
378,-321,0,0,0,0,0,0,0,0,0,-1,1602,1345,0,0
385,-321,0,0,0,0,0,0,0,0,0,-1,1609,1345,0,0
392,-321,0,0,0,0,0,0,0,0,0,-1,1616,1345,0,0
399,-321,0,0,0,0,0,0,0,0,0,-1,1623,1345,0,0
406,-321,0,0,0,0,0,0,0,0,0,-1,1630,1345,0,0
413,-321,0,0,0,0,0,0,0,0,0,-1,1637,1345,0,0
420,-321,0,0,0,0,0,0,0,0,0,-1,1644,1345,0,0
427,-321,0,0,0,0,0,0,0,0,0,-1,1651,1345,0,0
434,-321,0,0,0,0,0,0,0,0,0,-1,1658,1345,0,0
441,-321,0,0,0,0,0,0,0,0,0,-1,1665,1345,0,0
448,-321,0,0,0,0,0,0,0,0,0,-1,1672,1345,0,0
455,-321,0,0,0,0,0,0,0,0,0,-1,1679,1345,0,0
462,-321,0,0,0,0,0,0,0,0,0,-1,1686,1345,0,0
469,-321,0,0,0,0,0,0,0,0,0,-1,1693,1345,0,0
476,-321,0,0,0,0,0,0,0,0,0,-1,1700,1345,0,0
483,-321,0,0,0,0,0,0,0,0,0,-1,1707,1345,0,0
490,-321,0,0,0,0,0,0,0,0,0,-1,1714,1345,0,0
497,-321,0,0,0,0,0,0,0,0,0,-1,1721,1345,0,0
504,-321,0,0,0,0,0,0,0,0,0,-1,1728,1345,0,0
511,-321,0,0,0,0,0,0,0,0,0,-1,1735,1345,0,0
518,-321,0,0,0,0,0,0,0,0,0,-1,1742,1345,0,0
525,-321,0,0,0,0,0,0,0,0,0,-1,1749,1345,0,0
532,-321,0,0,0,0,0,0,0,0,0,-1,1756,1345,0,0
539,-321,0,0,0,0,0,0,0,0,0,-1,1763,1345,0,0
546,-321,0,0,0,0,0,0,0,0,0,-1,1770,1345,0,0
553,-321,0,0,0,0,0,0,0,0,0,-1,1777,1345,0,0
560,-321,0,0,0,0,0,0,0,0,0,-1,1784,1345,0,0
567,-321,0,0,0,0,0,0,0,0,0,-1,1791,1345,0,0
574,-321,0,0,0,0,0,0,0,0,0,-1,1798,1345,0,0
581,-321,49.9773,4.13696,0,0,0,0,0,0,0,-1,1805,1345,49.9772,-4.13692
588,-321,49.5574,3.74097,0,0,0,0,0,0,0,-1,1812,1345,49.5574,-3.74092
595,-321,49.1759,3.42566,0,0,0,0,0,0,0,-1,1819,1345,49.1759,-3.42565
602,-321,51.0474,0.421875,0,0,0,0,0,0,0,-1,1826,1345,51.0473,-0.421858
609,-321,48.311,3.39575,0,0,0,0,0,0,0,-1,1833,1345,48.311,-3.39571
616,-321,37.8107,2.58704,0,0,0,0,0,0,0,-1,1840,1345,37.8106,-2.58705
623,-321,37.6854,3.68933,0,0,0,0,0,0,0,-1,1847,1345,37.6854,-3.68931
630,-321,23.6674,4.34106,0,0,0,0,0,0,0,-1,1854,1345,23.6674,-4.34112
637,-321,21.7925,6.79224,0,0,0,0,0,0,0,-1,1861,1345,21.7925,-6.7922
644,-321,16.8844,6.71973,0,0,0,0,0,0,0,-1,1868,1345,16.8844,-6.71971
651,-321,27.4924,10.0319,0,0,0,0,0,0,0,-1,1875,1345,27.4924,-10.0319
658,-321,34.8073,13.4175,0,0,0,0,0,0,0,-1,1882,1345,34.8073,-13.4175
665,-321,34.8722,12.9147,0.000211538,-1.23529e-05,0.000543138,0.000654147,-0.000454962,0.683767,0.000643778,0.0225972,1889,1345,34.8722,-12.9147
672,-321,34.9047,12.3613,0.000583746,-0.000584033,0.000273629,0.000644682,-0.000644969,0.21912,0.00074458,0.0134504,1896,1345,34.9046,-12.3614
679,-321,34.869,11.8285,0.00070705,-0.000428012,6.5143e-05,0.000710777,-0.000431739,0.0571414,0.000666157,0.0118331,1903,1345,34.869,-11.8285
686,-321,34.8275,11.2771,0.000856292,-0.000314932,9.48542e-05,0.000863925,-0.000322564,0.0802899,0.000708389,0.0127946,1910,1345,34.8275,-11.277
693,-321,34.8029,10.7317,0.00090019,-0.000249224,0.000249605,0.000952054,-0.000301087,0.204868,0.00075534,0.0125828,1917,1345,34.8028,-10.7316
700,-321,34.8127,10.1628,0.000850001,-0.000275606,0.000542556,0.00106894,-0.000494541,0.383541,0.000922756,0.013189,1924,1345,34.8128,-10.1628
707,-321,34.8226,9.63318,0.000657214,-0.000394628,0.000987767,0.00125035,-0.000987758,0.54077,0.00129513,0.0148204,1931,1345,34.8226,-9.63321
714,-321,34.7913,9.11279,0.000268351,-0.000684265,0.00165213,0.00151146,-0.00192737,0.645054,0.00199025,0.0139699,1938,1345,34.7912,-9.11284
721,-321,34.7334,8.57483,-0.000436326,-0.00134415,0.00274906,0.00189605,-0.00367652,0.703579,0.0032716,0.0416435,1945,1345,34.7335,-8.57477
728,-321,34.7362,8.09509,0,0,0,0,0,0,0,-1,1952,1345,34.7363,-8.09504
735,-321,22.0081,5.65479,0,0,0,0,0,0,0,-1,1959,1345,22.008,-5.65481
742,-321,24.5398,5.05725,0,0,0,0,0,0,0,-1,1966,1345,24.5398,-5.05729
749,-321,24.0675,5.4458,0,0,0,0,0,0,0,-1,1973,1345,24.0675,-5.44581
756,-321,19.6251,4.98315,0,0,0,0,0,0,0,-1,1980,1345,19.6251,-4.98311
763,-321,19.6747,4.61438,0,0,0,0,0,0,0,-1,1987,1345,19.6747,-4.61436
770,-321,0,0,0,0,0,0,0,0,0,-1,1994,1345,0,0
777,-321,0,0,0,0,0,0,0,0,0,-1,2001,1345,0,0
784,-321,0,0,0,0,0,0,0,0,0,-1,2008,1345,0,0
791,-321,0,0,0,0,0,0,0,0,0,-1,2015,1345,0,0
798,-321,0,0,0,0,0,0,0,0,0,-1,2022,1345,0,0
805,-321,0,0,0,0,0,0,0,0,0,-1,2029,1345,0,0
812,-321,0,0,0,0,0,0,0,0,0,-1,2036,1345,0,0
-700,-328,0,0,0,0,0,0,0,0,0,-1,524,1352,0,0
-693,-328,0,0,0,0,0,0,0,0,0,-1,531,1352,0,0
-686,-328,0,0,0,0,0,0,0,0,0,-1,538,1352,0,0
-679,-328,0,0,0,0,0,0,0,0,0,-1,545,1352,0,0
-672,-328,0,0,0,0,0,0,0,0,0,-1,552,1352,0,0
-665,-328,0,0,0,0,0,0,0,0,0,-1,559,1352,0,0
-658,-328,0,0,0,0,0,0,0,0,0,-1,566,1352,0,0
-651,-328,0,0,0,0,0,0,0,0,0,-1,573,1352,0,0
-644,-328,0,0,0,0,0,0,0,0,0,-1,580,1352,0,0
-637,-328,-12.0695,1.02014,0,0,0,0,0,0,0,-1,587,1352,-12.0694,-1.02017
-630,-328,-13.3971,4.54578,0,0,0,0,0,0,0,-1,594,1352,-13.3971,-4.54572
-623,-328,-10.7739,4.55042,0,0,0,0,0,0,0,-1,601,1352,-10.7739,-4.55041
-616,-328,-8.22198,-0.25708,0,0,0,0,0,0,0,-1,608,1352,-8.22201,0.257067
-609,-328,-7.87439,0.192871,0,0,0,0,0,0,0,-1,615,1352,-7.87441,-0.192822
-602,-328,-7.63062,1.31665,0,0,0,0,0,0,0,-1,622,1352,-7.63064,-1.3166
-595,-328,-9.42639,2.93494,0,0,0,0,0,0,0,-1,629,1352,-9.42638,-2.93499
-588,-328,-19.4554,6.1134,0,0,0,0,0,0,0,-1,636,1352,-19.4554,-6.11335
-581,-328,-19.3226,6.89941,0.00288869,0.00245758,0.00174243,0.00442884,0.000917426,0.723855,0.00269923,0.0266636,643,1352,-19.3225,-6.89944
-574,-328,-19.3306,7.54407,0.00254998,0.00171579,0.00129102,0.00348961,0.00077616,0.629152,0.00211569,0.0162732,650,1352,-19.3306,-7.54406
-567,-328,-19.3781,8.1377,0.00243564,0.00118179,0.00103481,0.00301862,0.000598813,0.513049,0.00184548,0.0221129,657,1352,-19.3781,-8.13771
-560,-328,-19.3175,8.78357,0.00248719,0.000778773,0.000963166,0.00292037,0.000345596,0.422639,0.00184255,0.0304852,664,1352,-19.3175,-8.78352
-553,-328,-19.2727,9.38293,0.00269542,0.000463408,0.00103558,0.00310187,5.69492e-05,0.374018,0.0020492,0.0321236,671,1352,-19.2727,-9.38298
-546,-328,-19.3201,9.91858,0.00310492,0.000206475,0.00124827,0.0035684,-0.000257005,0.35552,0.00246906,0.0294749,678,1352,-19.3201,-9.91862
-539,-328,-19.4144,10.4421,0.00372683,5.75125e-05,0.00163446,0.00434929,-0.000564949,0.363877,0.00310502,0.023115,685,1352,-19.4143,-10.4422
-532,-328,-19.4407,11.0293,0.00469727,-1.80472e-05,0.0022107,0.0055716,-0.00089238,0.376621,0.00404481,0.0176075,692,1352,-19.4407,-11.0293
-525,-328,-19.4109,11.6714,0.0060001,-0.000148285,0.00298381,0.00721004,-0.00135822,0.38524,0.00531757,0.0317751,699,1352,-19.411,-11.6714
-518,-328,-19.4562,12.3127,0,0,0,0,0,0,0,-1,706,1352,-19.4562,-12.3127
-511,-328,-9.39868,7.16113,0,0,0,0,0,0,0,-1,713,1352,-9.39869,-7.16113
-504,-328,-8.60626,-0.905762,0,0,0,0,0,0,0,-1,720,1352,-8.60623,0.905787
-497,-328,-9.29102,-0.0517578,0,0,0,0,0,0,0,-1,727,1352,-9.29104,0.0518175
-490,-328,-10.0663,0.882813,0,0,0,0,0,0,0,-1,734,1352,-10.0663,-0.882795
-483,-328,-10.8181,1.72375,0,0,0,0,0,0,0,-1,741,1352,-10.8181,-1.72374
-476,-328,-16.8951,-0.150757,0,0,0,0,0,0,0,-1,748,1352,-16.8951,0.150795
-469,-328,-16.8412,0.00158691,0,0,0,0,0,0,0,-1,755,1352,-16.8412,-0.00161515
-462,-328,-16.3546,-0.203491,0,0,0,0,0,0,0,-1,762,1352,-16.3545,0.203532
-455,-328,0,0,0,0,0,0,0,0,0,-1,769,1352,0,0
-448,-328,0,0,0,0,0,0,0,0,0,-1,776,1352,0,0
-441,-328,0,0,0,0,0,0,0,0,0,-1,783,1352,0,0
-434,-328,0,0,0,0,0,0,0,0,0,-1,790,1352,0,0
-427,-328,0,0,0,0,0,0,0,0,0,-1,797,1352,0,0
-420,-328,0,0,0,0,0,0,0,0,0,-1,804,1352,0,0
-413,-328,0,0,0,0,0,0,0,0,0,-1,811,1352,0,0
-406,-328,0,0,0,0,0,0,0,0,0,-1,818,1352,0,0
-399,-328,0,0,0,0,0,0,0,0,0,-1,825,1352,0,0
-392,-328,0,0,0,0,0,0,0,0,0,-1,832,1352,0,0
-385,-328,0,0,0,0,0,0,0,0,0,-1,839,1352,0,0
-378,-328,0,0,0,0,0,0,0,0,0,-1,846,1352,0,0
-371,-328,0,0,0,0,0,0,0,0,0,-1,853,1352,0,0
-364,-328,0,0,0,0,0,0,0,0,0,-1,860,1352,0,0
-357,-328,0,0,0,0,0,0,0,0,0,-1,867,1352,0,0
-350,-328,0,0,0,0,0,0,0,0,0,-1,874,1352,0,0
-343,-328,0,0,0,0,0,0,0,0,0,-1,881,1352,0,0
-336,-328,0,0,0,0,0,0,0,0,0,-1,888,1352,0,0
-329,-328,0,0,0,0,0,0,0,0,0,-1,895,1352,0,0
-322,-328,0,0,0,0,0,0,0,0,0,-1,902,1352,0,0
-315,-328,0,0,0,0,0,0,0,0,0,-1,909,1352,0,0
-308,-328,0,0,0,0,0,0,0,0,0,-1,916,1352,0,0
-301,-328,0,0,0,0,0,0,0,0,0,-1,923,1352,0,0
-294,-328,0,0,0,0,0,0,0,0,0,-1,930,1352,0,0
-287,-328,0,0,0,0,0,0,0,0,0,-1,937,1352,0,0
-280,-328,0,0,0,0,0,0,0,0,0,-1,944,1352,0,0
-273,-328,0,0,0,0,0,0,0,0,0,-1,951,1352,0,0
-266,-328,0,0,0,0,0,0,0,0,0,-1,958,1352,0,0
-259,-328,0,0,0,0,0,0,0,0,0,-1,965,1352,0,0
-252,-328,0,0,0,0,0,0,0,0,0,-1,972,1352,0,0
-245,-328,0,0,0,0,0,0,0,0,0,-1,979,1352,0,0
-238,-328,0,0,0,0,0,0,0,0,0,-1,986,1352,0,0
-231,-328,0,0,0,0,0,0,0,0,0,-1,993,1352,0,0
-224,-328,0,0,0,0,0,0,0,0,0,-1,1000,1352,0,0
-217,-328,0,0,0,0,0,0,0,0,0,-1,1007,1352,0,0
-210,-328,0,0,0,0,0,0,0,0,0,-1,1014,1352,0,0
-203,-328,0,0,0,0,0,0,0,0,0,-1,1021,1352,0,0
-196,-328,0,0,0,0,0,0,0,0,0,-1,1028,1352,0,0
-189,-328,0,0,0,0,0,0,0,0,0,-1,1035,1352,0,0
-182,-328,0,0,0,0,0,0,0,0,0,-1,1042,1352,0,0
-175,-328,0,0,0,0,0,0,0,0,0,-1,1049,1352,0,0
-168,-328,0,0,0,0,0,0,0,0,0,-1,1056,1352,0,0
-161,-328,0,0,0,0,0,0,0,0,0,-1,1063,1352,0,0
-154,-328,0,0,0,0,0,0,0,0,0,-1,1070,1352,0,0
-147,-328,0,0,0,0,0,0,0,0,0,-1,1077,1352,0,0
-140,-328,0,0,0,0,0,0,0,0,0,-1,1084,1352,0,0
-133,-328,0,0,0,0,0,0,0,0,0,-1,1091,1352,0,0
-126,-328,0,0,0,0,0,0,0,0,0,-1,1098,1352,0,0
-119,-328,0,0,0,0,0,0,0,0,0,-1,1105,1352,0,0
-112,-328,0,0,0,0,0,0,0,0,0,-1,1112,1352,0,0
-105,-328,0,0,0,0,0,0,0,0,0,-1,1119,1352,0,0
-98,-328,0,0,0,0,0,0,0,0,0,-1,1126,1352,0,0
-91,-328,0,0,0,0,0,0,0,0,0,-1,1133,1352,0,0
-84,-328,0,0,0,0,0,0,0,0,0,-1,1140,1352,0,0
-77,-328,0,0,0,0,0,0,0,0,0,-1,1147,1352,0,0
-70,-328,0,0,0,0,0,0,0,0,0,-1,1154,1352,0,0
-63,-328,0,0,0,0,0,0,0,0,0,-1,1161,1352,0,0
-56,-328,0,0,0,0,0,0,0,0,0,-1,1168,1352,0,0
-49,-328,0,0,0,0,0,0,0,0,0,-1,1175,1352,0,0
-42,-328,0,0,0,0,0,0,0,0,0,-1,1182,1352,0,0
-35,-328,0,0,0,0,0,0,0,0,0,-1,1189,1352,0,0
-28,-328,0,0,0,0,0,0,0,0,0,-1,1196,1352,0,0
-21,-328,0,0,0,0,0,0,0,0,0,-1,1203,1352,0,0
-14,-328,0,0,0,0,0,0,0,0,0,-1,1210,1352,0,0
-7,-328,0,0,0,0,0,0,0,0,0,-1,1217,1352,0,0
0,-328,0,0,0,0,0,0,0,0,0,-1,1224,1352,0,0
7,-328,0,0,0,0,0,0,0,0,0,-1,1231,1352,0,0
14,-328,0,0,0,0,0,0,0,0,0,-1,1238,1352,0,0
21,-328,0,0,0,0,0,0,0,0,0,-1,1245,1352,0,0
28,-328,0,0,0,0,0,0,0,0,0,-1,1252,1352,0,0
35,-328,0,0,0,0,0,0,0,0,0,-1,1259,1352,0,0
42,-328,0,0,0,0,0,0,0,0,0,-1,1266,1352,0,0
49,-328,0,0,0,0,0,0,0,0,0,-1,1273,1352,0,0
56,-328,0,0,0,0,0,0,0,0,0,-1,1280,1352,0,0
63,-328,0,0,0,0,0,0,0,0,0,-1,1287,1352,0,0
70,-328,0,0,0,0,0,0,0,0,0,-1,1294,1352,0,0
77,-328,0,0,0,0,0,0,0,0,0,-1,1301,1352,0,0
84,-328,0,0,0,0,0,0,0,0,0,-1,1308,1352,0,0
91,-328,0,0,0,0,0,0,0,0,0,-1,1315,1352,0,0
98,-328,0,0,0,0,0,0,0,0,0,-1,1322,1352,0,0
105,-328,0,0,0,0,0,0,0,0,0,-1,1329,1352,0,0
112,-328,0,0,0,0,0,0,0,0,0,-1,1336,1352,0,0
119,-328,0,0,0,0,0,0,0,0,0,-1,1343,1352,0,0
126,-328,0,0,0,0,0,0,0,0,0,-1,1350,1352,0,0
133,-328,0,0,0,0,0,0,0,0,0,-1,1357,1352,0,0
140,-328,0,0,0,0,0,0,0,0,0,-1,1364,1352,0,0
147,-328,0,0,0,0,0,0,0,0,0,-1,1371,1352,0,0
154,-328,0,0,0,0,0,0,0,0,0,-1,1378,1352,0,0
161,-328,0,0,0,0,0,0,0,0,0,-1,1385,1352,0,0
168,-328,0,0,0,0,0,0,0,0,0,-1,1392,1352,0,0
175,-328,0,0,0,0,0,0,0,0,0,-1,1399,1352,0,0
182,-328,0,0,0,0,0,0,0,0,0,-1,1406,1352,0,0
189,-328,0,0,0,0,0,0,0,0,0,-1,1413,1352,0,0
196,-328,0,0,0,0,0,0,0,0,0,-1,1420,1352,0,0
203,-328,0,0,0,0,0,0,0,0,0,-1,1427,1352,0,0
210,-328,0,0,0,0,0,0,0,0,0,-1,1434,1352,0,0
217,-328,0,0,0,0,0,0,0,0,0,-1,1441,1352,0,0
224,-328,0,0,0,0,0,0,0,0,0,-1,1448,1352,0,0
231,-328,0,0,0,0,0,0,0,0,0,-1,1455,1352,0,0
238,-328,0,0,0,0,0,0,0,0,0,-1,1462,1352,0,0
245,-328,0,0,0,0,0,0,0,0,0,-1,1469,1352,0,0
252,-328,0,0,0,0,0,0,0,0,0,-1,1476,1352,0,0
259,-328,0,0,0,0,0,0,0,0,0,-1,1483,1352,0,0
266,-328,0,0,0,0,0,0,0,0,0,-1,1490,1352,0,0
273,-328,0,0,0,0,0,0,0,0,0,-1,1497,1352,0,0
280,-328,0,0,0,0,0,0,0,0,0,-1,1504,1352,0,0
287,-328,0,0,0,0,0,0,0,0,0,-1,1511,1352,0,0
294,-328,0,0,0,0,0,0,0,0,0,-1,1518,1352,0,0
301,-328,0,0,0,0,0,0,0,0,0,-1,1525,1352,0,0
308,-328,0,0,0,0,0,0,0,0,0,-1,1532,1352,0,0
315,-328,0,0,0,0,0,0,0,0,0,-1,1539,1352,0,0
322,-328,0,0,0,0,0,0,0,0,0,-1,1546,1352,0,0
329,-328,0,0,0,0,0,0,0,0,0,-1,1553,1352,0,0
336,-328,0,0,0,0,0,0,0,0,0,-1,1560,1352,0,0
343,-328,0,0,0,0,0,0,0,0,0,-1,1567,1352,0,0
350,-328,0,0,0,0,0,0,0,0,0,-1,1574,1352,0,0
357,-328,0,0,0,0,0,0,0,0,0,-1,1581,1352,0,0
364,-328,0,0,0,0,0,0,0,0,0,-1,1588,1352,0,0
371,-328,0,0,0,0,0,0,0,0,0,-1,1595,1352,0,0
378,-328,0,0,0,0,0,0,0,0,0,-1,1602,1352,0,0
385,-328,0,0,0,0,0,0,0,0,0,-1,1609,1352,0,0
392,-328,0,0,0,0,0,0,0,0,0,-1,1616,1352,0,0
399,-328,0,0,0,0,0,0,0,0,0,-1,1623,1352,0,0
406,-328,0,0,0,0,0,0,0,0,0,-1,1630,1352,0,0
413,-328,0,0,0,0,0,0,0,0,0,-1,1637,1352,0,0
420,-328,0,0,0,0,0,0,0,0,0,-1,1644,1352,0,0
427,-328,0,0,0,0,0,0,0,0,0,-1,1651,1352,0,0
434,-328,0,0,0,0,0,0,0,0,0,-1,1658,1352,0,0
441,-328,0,0,0,0,0,0,0,0,0,-1,1665,1352,0,0
448,-328,0,0,0,0,0,0,0,0,0,-1,1672,1352,0,0
455,-328,0,0,0,0,0,0,0,0,0,-1,1679,1352,0,0
462,-328,0,0,0,0,0,0,0,0,0,-1,1686,1352,0,0
469,-328,0,0,0,0,0,0,0,0,0,-1,1693,1352,0,0
476,-328,0,0,0,0,0,0,0,0,0,-1,1700,1352,0,0
483,-328,0,0,0,0,0,0,0,0,0,-1,1707,1352,0,0
490,-328,0,0,0,0,0,0,0,0,0,-1,1714,1352,0,0
497,-328,0,0,0,0,0,0,0,0,0,-1,1721,1352,0,0
504,-328,0,0,0,0,0,0,0,0,0,-1,1728,1352,0,0
511,-328,0,0,0,0,0,0,0,0,0,-1,1735,1352,0,0
518,-328,0,0,0,0,0,0,0,0,0,-1,1742,1352,0,0
525,-328,0,0,0,0,0,0,0,0,0,-1,1749,1352,0,0
532,-328,0,0,0,0,0,0,0,0,0,-1,1756,1352,0,0
539,-328,0,0,0,0,0,0,0,0,0,-1,1763,1352,0,0
546,-328,0,0,0,0,0,0,0,0,0,-1,1770,1352,0,0
553,-328,0,0,0,0,0,0,0,0,0,-1,1777,1352,0,0
560,-328,0,0,0,0,0,0,0,0,0,-1,1784,1352,0,0
567,-328,0,0,0,0,0,0,0,0,0,-1,1791,1352,0,0
574,-328,44.8926,5.11475,0,0,0,0,0,0,0,-1,1798,1352,44.8926,-5.11469
581,-328,50.5533,4.3905,0,0,0,0,0,0,0,-1,1805,1352,50.5533,-4.39048
588,-328,50.1937,4.06274,0,0,0,0,0,0,0,-1,1812,1352,50.1937,-4.06278
595,-328,49.592,3.59802,0,0,0,0,0,0,0,-1,1819,1352,49.5921,-3.59798
602,-328,48.7734,3.66785,0,0,0,0,0,0,0,-1,1826,1352,48.7734,-3.66782
609,-328,37.0468,1.17407,0,0,0,0,0,0,0,-1,1833,1352,37.0468,-1.17407
616,-328,36.999,2.42859,0,0,0,0,0,0,0,-1,1840,1352,36.999,-2.42862
623,-328,34.345,5.14722,0,0,0,0,0,0,0,-1,1847,1352,34.3449,-5.14718
630,-328,22.0211,5.026,0,0,0,0,0,0,0,-1,1854,1352,22.0212,-5.02603
637,-328,21.15,5.53699,0,0,0,0,0,0,0,-1,1861,1352,21.15,-5.53704
644,-328,16.9579,6.3396,0,0,0,0,0,0,0,-1,1868,1352,16.9579,-6.33959
651,-328,34.5599,14.0046,0,0,0,0,0,0,0,-1,1875,1352,34.5599,-14.0047
658,-328,34.3606,13.4799,-0.000603209,0.000408583,4.79704e-05,0.000410852,-0.000605478,1.52353,0.000590354,0.0487981,1882,1352,34.3606,-13.4799
665,-328,34.3843,12.9076,4.50835e-05,-0.000208853,0.000216576,0.000169165,-0.000332934,0.520274,0.000294983,0.0151869,1889,1352,34.3843,-12.9077
672,-328,34.3397,12.3906,0.000535786,-0.000378299,0.000130286,0.000553993,-0.000396506,0.138849,0.000551276,0.0122,1896,1352,34.3397,-12.3906
679,-328,34.3278,11.8287,0.000843378,-0.000231718,2.29736e-05,0.000843869,-0.000232209,0.0213559,0.000653874,0.0143869,1903,1352,34.3277,-11.8287
686,-328,34.2983,11.2731,0.00107003,-0.000142655,2.57737e-05,0.00107058,-0.000143203,0.0212406,0.000765929,0.0146285,1910,1352,34.2984,-11.2731
693,-328,34.2786,10.7413,0.00123309,-5.42649e-05,0.000100682,0.00124092,-6.20915e-05,0.0775795,0.000848734,0.00999673,1917,1352,34.2785,-10.7413
700,-328,34.2813,10.1978,0.00132844,2.56453e-06,0.000270684,0.00138157,-5.05677e-05,0.193825,0.000938357,0.0139627,1924,1352,34.2813,-10.1977
707,-328,34.2792,9.65918,0.00127536,-1.30445e-05,0.000588039,0.00150339,-0.000241072,0.369925,0.00109153,0.0160003,1931,1352,34.2791,-9.65918
714,-328,34.2582,9.11206,0.00102732,-0.000158846,0.0011083,0.00169125,-0.00082277,0.53972,0.00148006,0.0166637,1938,1352,34.2582,-9.11211
721,-328,34.2327,8.47742,0,0,0,0,0,0,0,-1,1945,1352,34.2327,-8.4774
728,-328,29.2787,6.74695,0,0,0,0,0,0,0,-1,1952,1352,29.2787,-6.74693
735,-328,20.8927,5.23523,0,0,0,0,0,0,0,-1,1959,1352,20.8927,-5.23528
742,-328,20.3547,4.11316,0,0,0,0,0,0,0,-1,1966,1352,20.3547,-4.11321
749,-328,20.0669,5.66321,0,0,0,0,0,0,0,-1,1973,1352,20.0669,-5.66319
756,-328,19.9543,5.50464,0,0,0,0,0,0,0,-1,1980,1352,19.9543,-5.50463
763,-328,0,0,0,0,0,0,0,0,0,-1,1987,1352,0,0
770,-328,0,0,0,0,0,0,0,0,0,-1,1994,1352,0,0
777,-328,0,0,0,0,0,0,0,0,0,-1,2001,1352,0,0
784,-328,0,0,0,0,0,0,0,0,0,-1,2008,1352,0,0
791,-328,0,0,0,0,0,0,0,0,0,-1,2015,1352,0,0
798,-328,0,0,0,0,0,0,0,0,0,-1,2022,1352,0,0
805,-328,0,0,0,0,0,0,0,0,0,-1,2029,1352,0,0
812,-328,0,0,0,0,0,0,0,0,0,-1,2036,1352,0,0
-700,-335,0,0,0,0,0,0,0,0,0,-1,524,1359,0,0
-693,-335,0,0,0,0,0,0,0,0,0,-1,531,1359,0,0
-686,-335,0,0,0,0,0,0,0,0,0,-1,538,1359,0,0
-679,-335,0,0,0,0,0,0,0,0,0,-1,545,1359,0,0
-672,-335,0,0,0,0,0,0,0,0,0,-1,552,1359,0,0
-665,-335,0,0,0,0,0,0,0,0,0,-1,559,1359,0,0
-658,-335,0,0,0,0,0,0,0,0,0,-1,566,1359,0,0
-651,-335,0,0,0,0,0,0,0,0,0,-1,573,1359,0,0
-644,-335,0,0,0,0,0,0,0,0,0,-1,580,1359,0,0
-637,-335,-9.64746,3.53809,0,0,0,0,0,0,0,-1,587,1359,-9.64744,-3.53803
-630,-335,-6.07397,-2.99902,0,0,0,0,0,0,0,-1,594,1359,-6.07397,2.99902
-623,-335,-8.43304,1.09509,0,0,0,0,0,0,0,-1,601,1359,-8.43301,-1.09507
-616,-335,-7.80927,-0.485352,0,0,0,0,0,0,0,-1,608,1359,-7.80926,0.485291
-609,-335,-7.12256,-2.03601,0,0,0,0,0,0,0,-1,615,1359,-7.12253,2.03601
-602,-335,-9.39935,2.25146,0,0,0,0,0,0,0,-1,622,1359,-9.39935,-2.25145
-595,-335,-9.54767,3.01917,0,0,0,0,0,0,0,-1,629,1359,-9.54768,-3.01911
-588,-335,-18.9193,6.12451,0,0,0,0,0,0,0,-1,636,1359,-18.9193,-6.12456
-581,-335,-18.7417,6.99329,0.00358761,0.00226626,0.00186527,0.00490576,0.000948116,0.615193,0.00300475,0.0438438,643,1359,-18.7417,-6.99327
-574,-335,-18.7531,7.52588,0.00298766,0.00160115,0.00139663,0.00385363,0.000735186,0.555026,0.00236247,0.0145314,650,1359,-18.7531,-7.5259
-567,-335,-18.7527,8.14563,0.00270214,0.00113957,0.00111821,0.00328496,0.000556748,0.480474,0.00203,0.018343,657,1359,-18.7527,-8.14557
-560,-335,-18.7241,8.71155,0.00262409,0.000797858,0.00103224,0.00308913,0.000332822,0.423279,0.00195793,0.0268841,664,1359,-18.7241,-8.71158
-553,-335,-18.741,9.32324,0.00271981,0.000540159,0.00108676,0.00316906,9.09029e-05,0.391996,0.00208307,0.029478,671,1359,-18.7409,-9.3233
-546,-335,-18.7808,9.89783,0.00302425,0.000336924,0.00127125,0.00353032,-0.000169145,0.378857,0.0024119,0.0270674,678,1359,-18.7808,-9.89779
-539,-335,-18.8409,10.4673,0.00353022,0.000231589,0.00160744,0.00418397,-0.000422158,0.38627,0.00294015,0.0217527,685,1359,-18.841,-10.4673
-532,-335,-18.8858,11.0729,0.00432639,0.00019646,0.00211043,0.00521405,-0.000691201,0.398143,0.00372786,0.0159227,692,1359,-18.8858,-11.0729
-525,-335,-18.8146,11.6893,0.00541379,0.000154986,0.00278265,0.00661282,-0.00104405,0.406854,0.00479461,0.0127198,699,1359,-18.8146,-11.6894
-518,-335,-18.7259,12.2166,0,0,0,0,0,0,0,-1,706,1359,-18.7259,-12.2165
-511,-335,-17.3098,11.6718,0,0,0,0,0,0,0,-1,713,1359,-17.3097,-11.6717
-504,-335,-9.35767,5.99695,0,0,0,0,0,0,0,-1,720,1359,-9.35767,-5.99694
-497,-335,-8.75024,-0.650513,0,0,0,0,0,0,0,-1,727,1359,-8.75024,0.650521
-490,-335,-9.51971,0.417603,0,0,0,0,0,0,0,-1,734,1359,-9.51974,-0.41765
-483,-335,-10.2883,1.29224,0,0,0,0,0,0,0,-1,741,1359,-10.2883,-1.2922
-476,-335,-11.9938,-0.173462,0,0,0,0,0,0,0,-1,748,1359,-11.9938,0.173429
-469,-335,-12.8704,-0.204102,0,0,0,0,0,0,0,-1,755,1359,-12.8704,0.204117
-462,-335,-13.486,0.0218506,0,0,0,0,0,0,0,-1,762,1359,-13.4859,-0.0217908
-455,-335,-14.1504,0.549561,0,0,0,0,0,0,0,-1,769,1359,-14.1504,-0.549583
-448,-335,0,0,0,0,0,0,0,0,0,-1,776,1359,0,0
-441,-335,0,0,0,0,0,0,0,0,0,-1,783,1359,0,0
-434,-335,0,0,0,0,0,0,0,0,0,-1,790,1359,0,0
-427,-335,0,0,0,0,0,0,0,0,0,-1,797,1359,0,0
-420,-335,0,0,0,0,0,0,0,0,0,-1,804,1359,0,0
-413,-335,0,0,0,0,0,0,0,0,0,-1,811,1359,0,0
-406,-335,0,0,0,0,0,0,0,0,0,-1,818,1359,0,0
-399,-335,0,0,0,0,0,0,0,0,0,-1,825,1359,0,0
-392,-335,0,0,0,0,0,0,0,0,0,-1,832,1359,0,0
-385,-335,0,0,0,0,0,0,0,0,0,-1,839,1359,0,0
-378,-335,0,0,0,0,0,0,0,0,0,-1,846,1359,0,0
-371,-335,0,0,0,0,0,0,0,0,0,-1,853,1359,0,0
-364,-335,0,0,0,0,0,0,0,0,0,-1,860,1359,0,0
-357,-335,0,0,0,0,0,0,0,0,0,-1,867,1359,0,0
-350,-335,0,0,0,0,0,0,0,0,0,-1,874,1359,0,0
-343,-335,0,0,0,0,0,0,0,0,0,-1,881,1359,0,0
-336,-335,0,0,0,0,0,0,0,0,0,-1,888,1359,0,0
-329,-335,0,0,0,0,0,0,0,0,0,-1,895,1359,0,0
-322,-335,0,0,0,0,0,0,0,0,0,-1,902,1359,0,0
-315,-335,0,0,0,0,0,0,0,0,0,-1,909,1359,0,0
-308,-335,0,0,0,0,0,0,0,0,0,-1,916,1359,0,0
-301,-335,0,0,0,0,0,0,0,0,0,-1,923,1359,0,0
-294,-335,0,0,0,0,0,0,0,0,0,-1,930,1359,0,0
-287,-335,0,0,0,0,0,0,0,0,0,-1,937,1359,0,0
-280,-335,0,0,0,0,0,0,0,0,0,-1,944,1359,0,0
-273,-335,0,0,0,0,0,0,0,0,0,-1,951,1359,0,0
-266,-335,0,0,0,0,0,0,0,0,0,-1,958,1359,0,0
-259,-335,0,0,0,0,0,0,0,0,0,-1,965,1359,0,0
-252,-335,0,0,0,0,0,0,0,0,0,-1,972,1359,0,0
-245,-335,0,0,0,0,0,0,0,0,0,-1,979,1359,0,0
-238,-335,0,0,0,0,0,0,0,0,0,-1,986,1359,0,0
-231,-335,0,0,0,0,0,0,0,0,0,-1,993,1359,0,0
-224,-335,0,0,0,0,0,0,0,0,0,-1,1000,1359,0,0
-217,-335,0,0,0,0,0,0,0,0,0,-1,1007,1359,0,0
-210,-335,0,0,0,0,0,0,0,0,0,-1,1014,1359,0,0
-203,-335,0,0,0,0,0,0,0,0,0,-1,1021,1359,0,0
-196,-335,0,0,0,0,0,0,0,0,0,-1,1028,1359,0,0
-189,-335,0,0,0,0,0,0,0,0,0,-1,1035,1359,0,0
-182,-335,0,0,0,0,0,0,0,0,0,-1,1042,1359,0,0
-175,-335,0,0,0,0,0,0,0,0,0,-1,1049,1359,0,0
-168,-335,0,0,0,0,0,0,0,0,0,-1,1056,1359,0,0
-161,-335,0,0,0,0,0,0,0,0,0,-1,1063,1359,0,0
-154,-335,0,0,0,0,0,0,0,0,0,-1,1070,1359,0,0
-147,-335,0,0,0,0,0,0,0,0,0,-1,1077,1359,0,0
-140,-335,0,0,0,0,0,0,0,0,0,-1,1084,1359,0,0
-133,-335,0,0,0,0,0,0,0,0,0,-1,1091,1359,0,0
-126,-335,0,0,0,0,0,0,0,0,0,-1,1098,1359,0,0
-119,-335,0,0,0,0,0,0,0,0,0,-1,1105,1359,0,0
-112,-335,0,0,0,0,0,0,0,0,0,-1,1112,1359,0,0
-105,-335,0,0,0,0,0,0,0,0,0,-1,1119,1359,0,0
-98,-335,0,0,0,0,0,0,0,0,0,-1,1126,1359,0,0
-91,-335,0,0,0,0,0,0,0,0,0,-1,1133,1359,0,0
-84,-335,0,0,0,0,0,0,0,0,0,-1,1140,1359,0,0
-77,-335,0,0,0,0,0,0,0,0,0,-1,1147,1359,0,0
-70,-335,0,0,0,0,0,0,0,0,0,-1,1154,1359,0,0
-63,-335,0,0,0,0,0,0,0,0,0,-1,1161,1359,0,0
-56,-335,0,0,0,0,0,0,0,0,0,-1,1168,1359,0,0
-49,-335,0,0,0,0,0,0,0,0,0,-1,1175,1359,0,0
-42,-335,0,0,0,0,0,0,0,0,0,-1,1182,1359,0,0
-35,-335,0,0,0,0,0,0,0,0,0,-1,1189,1359,0,0
-28,-335,0,0,0,0,0,0,0,0,0,-1,1196,1359,0,0
-21,-335,0,0,0,0,0,0,0,0,0,-1,1203,1359,0,0
-14,-335,0,0,0,0,0,0,0,0,0,-1,1210,1359,0,0
-7,-335,0,0,0,0,0,0,0,0,0,-1,1217,1359,0,0
0,-335,0,0,0,0,0,0,0,0,0,-1,1224,1359,0,0
7,-335,0,0,0,0,0,0,0,0,0,-1,1231,1359,0,0
14,-335,0,0,0,0,0,0,0,0,0,-1,1238,1359,0,0
21,-335,0,0,0,0,0,0,0,0,0,-1,1245,1359,0,0
28,-335,0,0,0,0,0,0,0,0,0,-1,1252,1359,0,0
35,-335,0,0,0,0,0,0,0,0,0,-1,1259,1359,0,0
42,-335,0,0,0,0,0,0,0,0,0,-1,1266,1359,0,0
49,-335,0,0,0,0,0,0,0,0,0,-1,1273,1359,0,0
56,-335,0,0,0,0,0,0,0,0,0,-1,1280,1359,0,0
63,-335,0,0,0,0,0,0,0,0,0,-1,1287,1359,0,0
70,-335,0,0,0,0,0,0,0,0,0,-1,1294,1359,0,0
77,-335,0,0,0,0,0,0,0,0,0,-1,1301,1359,0,0
84,-335,0,0,0,0,0,0,0,0,0,-1,1308,1359,0,0
91,-335,0,0,0,0,0,0,0,0,0,-1,1315,1359,0,0
98,-335,0,0,0,0,0,0,0,0,0,-1,1322,1359,0,0
105,-335,0,0,0,0,0,0,0,0,0,-1,1329,1359,0,0
112,-335,0,0,0,0,0,0,0,0,0,-1,1336,1359,0,0
119,-335,0,0,0,0,0,0,0,0,0,-1,1343,1359,0,0
126,-335,0,0,0,0,0,0,0,0,0,-1,1350,1359,0,0
133,-335,0,0,0,0,0,0,0,0,0,-1,1357,1359,0,0
140,-335,0,0,0,0,0,0,0,0,0,-1,1364,1359,0,0
147,-335,0,0,0,0,0,0,0,0,0,-1,1371,1359,0,0
154,-335,0,0,0,0,0,0,0,0,0,-1,1378,1359,0,0
161,-335,0,0,0,0,0,0,0,0,0,-1,1385,1359,0,0
168,-335,0,0,0,0,0,0,0,0,0,-1,1392,1359,0,0
175,-335,0,0,0,0,0,0,0,0,0,-1,1399,1359,0,0
182,-335,0,0,0,0,0,0,0,0,0,-1,1406,1359,0,0
189,-335,0,0,0,0,0,0,0,0,0,-1,1413,1359,0,0
196,-335,0,0,0,0,0,0,0,0,0,-1,1420,1359,0,0
203,-335,0,0,0,0,0,0,0,0,0,-1,1427,1359,0,0
210,-335,0,0,0,0,0,0,0,0,0,-1,1434,1359,0,0
217,-335,0,0,0,0,0,0,0,0,0,-1,1441,1359,0,0
224,-335,0,0,0,0,0,0,0,0,0,-1,1448,1359,0,0
231,-335,0,0,0,0,0,0,0,0,0,-1,1455,1359,0,0
238,-335,0,0,0,0,0,0,0,0,0,-1,1462,1359,0,0
245,-335,0,0,0,0,0,0,0,0,0,-1,1469,1359,0,0
252,-335,0,0,0,0,0,0,0,0,0,-1,1476,1359,0,0
259,-335,0,0,0,0,0,0,0,0,0,-1,1483,1359,0,0
266,-335,0,0,0,0,0,0,0,0,0,-1,1490,1359,0,0
273,-335,0,0,0,0,0,0,0,0,0,-1,1497,1359,0,0
280,-335,0,0,0,0,0,0,0,0,0,-1,1504,1359,0,0
287,-335,0,0,0,0,0,0,0,0,0,-1,1511,1359,0,0
294,-335,0,0,0,0,0,0,0,0,0,-1,1518,1359,0,0
301,-335,0,0,0,0,0,0,0,0,0,-1,1525,1359,0,0
308,-335,0,0,0,0,0,0,0,0,0,-1,1532,1359,0,0
315,-335,0,0,0,0,0,0,0,0,0,-1,1539,1359,0,0
322,-335,0,0,0,0,0,0,0,0,0,-1,1546,1359,0,0
329,-335,0,0,0,0,0,0,0,0,0,-1,1553,1359,0,0
336,-335,0,0,0,0,0,0,0,0,0,-1,1560,1359,0,0
343,-335,0,0,0,0,0,0,0,0,0,-1,1567,1359,0,0
350,-335,0,0,0,0,0,0,0,0,0,-1,1574,1359,0,0
357,-335,0,0,0,0,0,0,0,0,0,-1,1581,1359,0,0
364,-335,0,0,0,0,0,0,0,0,0,-1,1588,1359,0,0
371,-335,0,0,0,0,0,0,0,0,0,-1,1595,1359,0,0
378,-335,0,0,0,0,0,0,0,0,0,-1,1602,1359,0,0
385,-335,0,0,0,0,0,0,0,0,0,-1,1609,1359,0,0
392,-335,0,0,0,0,0,0,0,0,0,-1,1616,1359,0,0
399,-335,0,0,0,0,0,0,0,0,0,-1,1623,1359,0,0
406,-335,0,0,0,0,0,0,0,0,0,-1,1630,1359,0,0
413,-335,0,0,0,0,0,0,0,0,0,-1,1637,1359,0,0
420,-335,0,0,0,0,0,0,0,0,0,-1,1644,1359,0,0
427,-335,0,0,0,0,0,0,0,0,0,-1,1651,1359,0,0
434,-335,0,0,0,0,0,0,0,0,0,-1,1658,1359,0,0
441,-335,0,0,0,0,0,0,0,0,0,-1,1665,1359,0,0
448,-335,0,0,0,0,0,0,0,0,0,-1,1672,1359,0,0
455,-335,0,0,0,0,0,0,0,0,0,-1,1679,1359,0,0
462,-335,0,0,0,0,0,0,0,0,0,-1,1686,1359,0,0
469,-335,0,0,0,0,0,0,0,0,0,-1,1693,1359,0,0
476,-335,0,0,0,0,0,0,0,0,0,-1,1700,1359,0,0
483,-335,0,0,0,0,0,0,0,0,0,-1,1707,1359,0,0
490,-335,0,0,0,0,0,0,0,0,0,-1,1714,1359,0,0
497,-335,0,0,0,0,0,0,0,0,0,-1,1721,1359,0,0
504,-335,0,0,0,0,0,0,0,0,0,-1,1728,1359,0,0
511,-335,0,0,0,0,0,0,0,0,0,-1,1735,1359,0,0
518,-335,0,0,0,0,0,0,0,0,0,-1,1742,1359,0,0
525,-335,0,0,0,0,0,0,0,0,0,-1,1749,1359,0,0
532,-335,0,0,0,0,0,0,0,0,0,-1,1756,1359,0,0
539,-335,0,0,0,0,0,0,0,0,0,-1,1763,1359,0,0
546,-335,0,0,0,0,0,0,0,0,0,-1,1770,1359,0,0
553,-335,0,0,0,0,0,0,0,0,0,-1,1777,1359,0,0
560,-335,0,0,0,0,0,0,0,0,0,-1,1784,1359,0,0
567,-335,0,0,0,0,0,0,0,0,0,-1,1791,1359,0,0
574,-335,44.5405,5.74219,0,0,0,0,0,0,0,-1,1798,1359,44.5406,-5.74224
581,-335,44.1571,6.41992,0,0,0,0,0,0,0,-1,1805,1359,44.1571,-6.41989
588,-335,50.7247,4.16223,0,0,0,0,0,0,0,-1,1812,1359,50.7247,-4.16227
595,-335,49.984,3.76465,0,0,0,0,0,0,0,-1,1819,1359,49.984,-3.76467
602,-335,36.5643,0.0861816,0,0,0,0,0,0,0,-1,1826,1359,36.5643,-0.0862283
609,-335,36.2933,0.993896,0,0,0,0,0,0,0,-1,1833,1359,36.2934,-0.993911
616,-335,34.6969,4.82666,0,0,0,0,0,0,0,-1,1840,1359,34.6969,-4.82667
623,-335,26.6051,6.54333,0,0,0,0,0,0,0,-1,1847,1359,26.6051,-6.54339
630,-335,19.1707,1.00952,0,0,0,0,0,0,0,-1,1854,1359,19.1707,-1.00953
637,-335,18.2009,6.65454,0,0,0,0,0,0,0,-1,1861,1359,18.2009,-6.6546
644,-335,28.1042,12.067,0,0,0,0,0,0,0,-1,1868,1359,28.1042,-12.067
651,-335,33.7556,14.0972,0,0,0,0,0,0,0,-1,1875,1359,33.7556,-14.0971
658,-335,33.795,13.5061,-0.000141446,0.000110382,0.000197022,0.000218288,-0.000249352,1.06973,0.00027019,0.0302306,1882,1359,33.7951,-13.506
665,-335,33.8152,12.9463,0.000219428,-0.000170533,0.000196326,0.000301145,-0.00025225,0.394419,0.000319918,0.0156174,1889,1359,33.8152,-12.9463
672,-335,33.8042,12.3995,0.000622795,-0.000188738,7.90753e-05,0.000630429,-0.000196372,0.0962331,0.000498799,0.0172915,1896,1359,33.8042,-12.3996
679,-335,33.7975,11.8662,0.00102594,-0.000107017,-2.60722e-05,0.00102654,-0.000107617,-0.0229964,0.000722906,0.0151954,1903,1359,33.7975,-11.8662
686,-335,33.7953,11.2996,0.0013789,-3.69504e-05,-6.35516e-05,0.00138175,-3.97972e-05,-0.0447657,0.000934715,0.0129572,1910,1359,33.7953,-11.2996
693,-335,33.7592,10.7637,0.00171564,7.15002e-05,-7.12706e-05,0.00171872,6.84165e-05,-0.0432403,0.0011237,0.0107857,1917,1359,33.7592,-10.7637
700,-335,33.7297,10.2637,0.00200594,0.000184108,-1.60499e-05,0.00200608,0.000183967,-0.00880883,0.00128048,0.0111597,1924,1359,33.7297,-10.2637
707,-335,33.7087,9.72034,0.00214908,0.000251644,0.000181577,0.0021663,0.000234424,0.0945528,0.00137274,0.0144425,1931,1359,33.7087,-9.7203
714,-335,33.7123,9.04041,0.00214151,0.000227125,0.000554944,0.00229074,7.78906e-05,0.262704,0.00150187,0.0363379,1938,1359,33.7123,-9.04036
721,-335,33.6331,8.27686,0,0,0,0,0,0,0,-1,1945,1359,33.633,-8.27686
728,-335,20.8126,5.21167,0,0,0,0,0,0,0,-1,1952,1359,20.8127,-5.21172
735,-335,20.2725,5.34729,0,0,0,0,0,0,0,-1,1959,1359,20.2724,-5.34734
742,-335,19.8624,4.72229,0,0,0,0,0,0,0,-1,1966,1359,19.8624,-4.72225
749,-335,20.5887,6.05322,0,0,0,0,0,0,0,-1,1973,1359,20.5887,-6.05322
756,-335,20.7832,6.00452,0,0,0,0,0,0,0,-1,1980,1359,20.7832,-6.00447
763,-335,0,0,0,0,0,0,0,0,0,-1,1987,1359,0,0
770,-335,0,0,0,0,0,0,0,0,0,-1,1994,1359,0,0
777,-335,0,0,0,0,0,0,0,0,0,-1,2001,1359,0,0
784,-335,0,0,0,0,0,0,0,0,0,-1,2008,1359,0,0
791,-335,0,0,0,0,0,0,0,0,0,-1,2015,1359,0,0
798,-335,0,0,0,0,0,0,0,0,0,-1,2022,1359,0,0
805,-335,0,0,0,0,0,0,0,0,0,-1,2029,1359,0,0
812,-335,0,0,0,0,0,0,0,0,0,-1,2036,1359,0,0
-700,-342,0,0,0,0,0,0,0,0,0,-1,524,1366,0,0
-693,-342,0,0,0,0,0,0,0,0,0,-1,531,1366,0,0
-686,-342,0,0,0,0,0,0,0,0,0,-1,538,1366,0,0
-679,-342,0,0,0,0,0,0,0,0,0,-1,545,1366,0,0
-672,-342,0,0,0,0,0,0,0,0,0,-1,552,1366,0,0
-665,-342,0,0,0,0,0,0,0,0,0,-1,559,1366,0,0
-658,-342,0,0,0,0,0,0,0,0,0,-1,566,1366,0,0
-651,-342,0,0,0,0,0,0,0,0,0,-1,573,1366,0,0
-644,-342,0,0,0,0,0,0,0,0,0,-1,580,1366,0,0
-637,-342,-8.67786,-4.58557,0,0,0,0,0,0,0,-1,587,1366,-8.67788,4.5856
-630,-342,-8.60132,2.71777,0,0,0,0,0,0,0,-1,594,1366,-8.60135,-2.71779
-623,-342,-8.41168,0.662476,0,0,0,0,0,0,0,-1,601,1366,-8.41168,-0.662442
-616,-342,-6.625,-1.28015,0,0,0,0,0,0,0,-1,608,1366,-6.62499,1.28011
-609,-342,-7.83154,0.674561,0,0,0,0,0,0,0,-1,615,1366,-7.83155,-0.674598
-602,-342,-9.65765,2.25195,0,0,0,0,0,0,0,-1,622,1366,-9.65767,-2.25192
-595,-342,-9.47687,3.00671,0,0,0,0,0,0,0,-1,629,1366,-9.47686,-3.00668
-588,-342,-9.78467,3.57727,0,0,0,0,0,0,0,-1,636,1366,-9.78468,-3.57723
-581,-342,-18.2576,6.84082,0,0,0,0,0,0,0,-1,643,1366,-18.2576,-6.8408
-574,-342,-18.2039,7.56042,0.00343276,0.0013805,0.0014656,0.00419575,0.000617513,0.479986,0.00261574,0.015988,650,1366,-18.2038,-7.56037
-567,-342,-18.138,8.17029,0.00298039,0.00102619,0.00115673,0.00351747,0.000489109,0.434692,0.00220014,0.0177144,657,1366,-18.138,-8.17023
-560,-342,-18.1561,8.74072,0.00277884,0.000758575,0.00104689,0.00322348,0.000313942,0.401632,0.00205236,0.0257155,664,1366,-18.1561,-8.74073
-553,-342,-18.1873,9.28064,0.0027669,0.000565879,0.00107829,0.00320711,0.000125663,0.3876,0.00209744,0.027849,671,1366,-18.1873,-9.28064
-546,-342,-18.2244,9.84546,0.00295713,0.000426759,0.00123027,0.00345667,-7.27795e-05,0.385703,0.00232908,0.0288468,678,1366,-18.2244,-9.84549
-539,-342,-18.2484,10.4812,0.00333812,0.000363181,0.00151655,0.00397492,-0.000273612,0.397539,0.0027457,0.0244461,685,1366,-18.2484,-10.4812
-532,-342,-18.2902,11.116,0.00396377,0.000369219,0.00194878,0.00481753,-0.000484535,0.41291,0.00338478,0.018296,692,1366,-18.2903,-11.116
-525,-342,-18.2504,11.7146,0.00484318,0.000408159,0.00252892,0.00598912,-0.000737778,0.425457,0.00426002,0.013469,699,1366,-18.2504,-11.7146
-518,-342,-18.1812,12.3262,0.006045,0.000671519,0.0032919,0.0076074,-0.000890879,0.443137,0.00539315,0.0341489,706,1366,-18.1812,-12.3261
-511,-342,-18.1846,12.9142,0,0,0,0,0,0,0,-1,713,1366,-18.1846,-12.9142
-504,-342,-8.95709,6.5719,0,0,0,0,0,0,0,-1,720,1366,-8.95707,-6.57192
-497,-342,-8.26587,-0.943604,0,0,0,0,0,0,0,-1,727,1366,-8.26586,0.943543
-490,-342,-9.07153,-0.0227051,0,0,0,0,0,0,0,-1,734,1366,-9.07155,0.0227087
-483,-342,-9.87726,0.898071,0,0,0,0,0,0,0,-1,741,1366,-9.87724,-0.898125
-476,-342,-11.6371,-0.736328,0,0,0,0,0,0,0,-1,748,1366,-11.6371,0.736281
-469,-342,-12.6245,-0.987549,0,0,0,0,0,0,0,-1,755,1366,-12.6245,0.987553
-462,-342,-13.0912,-0.533203,0,0,0,0,0,0,0,-1,762,1366,-13.0912,0.533224
-455,-342,-13.7612,0.122925,0,0,0,0,0,0,0,-1,769,1366,-13.7612,-0.122896
-448,-342,-14.5278,0.826904,0,0,0,0,0,0,0,-1,776,1366,-14.5277,-0.826861
-441,-342,0,0,0,0,0,0,0,0,0,-1,783,1366,0,0
-434,-342,0,0,0,0,0,0,0,0,0,-1,790,1366,0,0
-427,-342,0,0,0,0,0,0,0,0,0,-1,797,1366,0,0
-420,-342,0,0,0,0,0,0,0,0,0,-1,804,1366,0,0
-413,-342,0,0,0,0,0,0,0,0,0,-1,811,1366,0,0
-406,-342,0,0,0,0,0,0,0,0,0,-1,818,1366,0,0
-399,-342,0,0,0,0,0,0,0,0,0,-1,825,1366,0,0
-392,-342,0,0,0,0,0,0,0,0,0,-1,832,1366,0,0
-385,-342,0,0,0,0,0,0,0,0,0,-1,839,1366,0,0
-378,-342,0,0,0,0,0,0,0,0,0,-1,846,1366,0,0
-371,-342,0,0,0,0,0,0,0,0,0,-1,853,1366,0,0
-364,-342,0,0,0,0,0,0,0,0,0,-1,860,1366,0,0
-357,-342,0,0,0,0,0,0,0,0,0,-1,867,1366,0,0
-350,-342,0,0,0,0,0,0,0,0,0,-1,874,1366,0,0
-343,-342,0,0,0,0,0,0,0,0,0,-1,881,1366,0,0
-336,-342,0,0,0,0,0,0,0,0,0,-1,888,1366,0,0
-329,-342,0,0,0,0,0,0,0,0,0,-1,895,1366,0,0
-322,-342,0,0,0,0,0,0,0,0,0,-1,902,1366,0,0
-315,-342,0,0,0,0,0,0,0,0,0,-1,909,1366,0,0
-308,-342,0,0,0,0,0,0,0,0,0,-1,916,1366,0,0
-301,-342,0,0,0,0,0,0,0,0,0,-1,923,1366,0,0
-294,-342,0,0,0,0,0,0,0,0,0,-1,930,1366,0,0
-287,-342,0,0,0,0,0,0,0,0,0,-1,937,1366,0,0
-280,-342,0,0,0,0,0,0,0,0,0,-1,944,1366,0,0
-273,-342,0,0,0,0,0,0,0,0,0,-1,951,1366,0,0
-266,-342,0,0,0,0,0,0,0,0,0,-1,958,1366,0,0
-259,-342,0,0,0,0,0,0,0,0,0,-1,965,1366,0,0
-252,-342,0,0,0,0,0,0,0,0,0,-1,972,1366,0,0
-245,-342,0,0,0,0,0,0,0,0,0,-1,979,1366,0,0
-238,-342,0,0,0,0,0,0,0,0,0,-1,986,1366,0,0
-231,-342,0,0,0,0,0,0,0,0,0,-1,993,1366,0,0
-224,-342,0,0,0,0,0,0,0,0,0,-1,1000,1366,0,0
-217,-342,0,0,0,0,0,0,0,0,0,-1,1007,1366,0,0
-210,-342,0,0,0,0,0,0,0,0,0,-1,1014,1366,0,0
-203,-342,0,0,0,0,0,0,0,0,0,-1,1021,1366,0,0
-196,-342,0,0,0,0,0,0,0,0,0,-1,1028,1366,0,0
-189,-342,0,0,0,0,0,0,0,0,0,-1,1035,1366,0,0
-182,-342,0,0,0,0,0,0,0,0,0,-1,1042,1366,0,0
-175,-342,0,0,0,0,0,0,0,0,0,-1,1049,1366,0,0
-168,-342,0,0,0,0,0,0,0,0,0,-1,1056,1366,0,0
-161,-342,0,0,0,0,0,0,0,0,0,-1,1063,1366,0,0
-154,-342,0,0,0,0,0,0,0,0,0,-1,1070,1366,0,0
-147,-342,0,0,0,0,0,0,0,0,0,-1,1077,1366,0,0
-140,-342,0,0,0,0,0,0,0,0,0,-1,1084,1366,0,0
-133,-342,0,0,0,0,0,0,0,0,0,-1,1091,1366,0,0
-126,-342,0,0,0,0,0,0,0,0,0,-1,1098,1366,0,0
-119,-342,0,0,0,0,0,0,0,0,0,-1,1105,1366,0,0
-112,-342,0,0,0,0,0,0,0,0,0,-1,1112,1366,0,0
-105,-342,0,0,0,0,0,0,0,0,0,-1,1119,1366,0,0
-98,-342,0,0,0,0,0,0,0,0,0,-1,1126,1366,0,0
-91,-342,0,0,0,0,0,0,0,0,0,-1,1133,1366,0,0
-84,-342,0,0,0,0,0,0,0,0,0,-1,1140,1366,0,0
-77,-342,0,0,0,0,0,0,0,0,0,-1,1147,1366,0,0
-70,-342,0,0,0,0,0,0,0,0,0,-1,1154,1366,0,0
-63,-342,0,0,0,0,0,0,0,0,0,-1,1161,1366,0,0
-56,-342,0,0,0,0,0,0,0,0,0,-1,1168,1366,0,0
-49,-342,0,0,0,0,0,0,0,0,0,-1,1175,1366,0,0
-42,-342,0,0,0,0,0,0,0,0,0,-1,1182,1366,0,0
-35,-342,0,0,0,0,0,0,0,0,0,-1,1189,1366,0,0
-28,-342,0,0,0,0,0,0,0,0,0,-1,1196,1366,0,0
-21,-342,0,0,0,0,0,0,0,0,0,-1,1203,1366,0,0
-14,-342,0,0,0,0,0,0,0,0,0,-1,1210,1366,0,0
-7,-342,0,0,0,0,0,0,0,0,0,-1,1217,1366,0,0
0,-342,0,0,0,0,0,0,0,0,0,-1,1224,1366,0,0
7,-342,0,0,0,0,0,0,0,0,0,-1,1231,1366,0,0
14,-342,0,0,0,0,0,0,0,0,0,-1,1238,1366,0,0
21,-342,0,0,0,0,0,0,0,0,0,-1,1245,1366,0,0
28,-342,0,0,0,0,0,0,0,0,0,-1,1252,1366,0,0
35,-342,0,0,0,0,0,0,0,0,0,-1,1259,1366,0,0
42,-342,0,0,0,0,0,0,0,0,0,-1,1266,1366,0,0
49,-342,0,0,0,0,0,0,0,0,0,-1,1273,1366,0,0
56,-342,0,0,0,0,0,0,0,0,0,-1,1280,1366,0,0
63,-342,0,0,0,0,0,0,0,0,0,-1,1287,1366,0,0
70,-342,0,0,0,0,0,0,0,0,0,-1,1294,1366,0,0
77,-342,0,0,0,0,0,0,0,0,0,-1,1301,1366,0,0
84,-342,0,0,0,0,0,0,0,0,0,-1,1308,1366,0,0
91,-342,0,0,0,0,0,0,0,0,0,-1,1315,1366,0,0
98,-342,0,0,0,0,0,0,0,0,0,-1,1322,1366,0,0
105,-342,0,0,0,0,0,0,0,0,0,-1,1329,1366,0,0
112,-342,0,0,0,0,0,0,0,0,0,-1,1336,1366,0,0
119,-342,0,0,0,0,0,0,0,0,0,-1,1343,1366,0,0
126,-342,0,0,0,0,0,0,0,0,0,-1,1350,1366,0,0
133,-342,0,0,0,0,0,0,0,0,0,-1,1357,1366,0,0
140,-342,0,0,0,0,0,0,0,0,0,-1,1364,1366,0,0
147,-342,0,0,0,0,0,0,0,0,0,-1,1371,1366,0,0
154,-342,0,0,0,0,0,0,0,0,0,-1,1378,1366,0,0
161,-342,0,0,0,0,0,0,0,0,0,-1,1385,1366,0,0
168,-342,0,0,0,0,0,0,0,0,0,-1,1392,1366,0,0
175,-342,0,0,0,0,0,0,0,0,0,-1,1399,1366,0,0
182,-342,0,0,0,0,0,0,0,0,0,-1,1406,1366,0,0
189,-342,0,0,0,0,0,0,0,0,0,-1,1413,1366,0,0
196,-342,0,0,0,0,0,0,0,0,0,-1,1420,1366,0,0
203,-342,0,0,0,0,0,0,0,0,0,-1,1427,1366,0,0
210,-342,0,0,0,0,0,0,0,0,0,-1,1434,1366,0,0
217,-342,0,0,0,0,0,0,0,0,0,-1,1441,1366,0,0
224,-342,0,0,0,0,0,0,0,0,0,-1,1448,1366,0,0
231,-342,0,0,0,0,0,0,0,0,0,-1,1455,1366,0,0
238,-342,0,0,0,0,0,0,0,0,0,-1,1462,1366,0,0
245,-342,0,0,0,0,0,0,0,0,0,-1,1469,1366,0,0
252,-342,0,0,0,0,0,0,0,0,0,-1,1476,1366,0,0
259,-342,0,0,0,0,0,0,0,0,0,-1,1483,1366,0,0
266,-342,0,0,0,0,0,0,0,0,0,-1,1490,1366,0,0
273,-342,0,0,0,0,0,0,0,0,0,-1,1497,1366,0,0
280,-342,0,0,0,0,0,0,0,0,0,-1,1504,1366,0,0
287,-342,0,0,0,0,0,0,0,0,0,-1,1511,1366,0,0
294,-342,0,0,0,0,0,0,0,0,0,-1,1518,1366,0,0
301,-342,0,0,0,0,0,0,0,0,0,-1,1525,1366,0,0
308,-342,0,0,0,0,0,0,0,0,0,-1,1532,1366,0,0
315,-342,0,0,0,0,0,0,0,0,0,-1,1539,1366,0,0
322,-342,0,0,0,0,0,0,0,0,0,-1,1546,1366,0,0
329,-342,0,0,0,0,0,0,0,0,0,-1,1553,1366,0,0
336,-342,0,0,0,0,0,0,0,0,0,-1,1560,1366,0,0
343,-342,0,0,0,0,0,0,0,0,0,-1,1567,1366,0,0
350,-342,0,0,0,0,0,0,0,0,0,-1,1574,1366,0,0
357,-342,0,0,0,0,0,0,0,0,0,-1,1581,1366,0,0
364,-342,0,0,0,0,0,0,0,0,0,-1,1588,1366,0,0
371,-342,0,0,0,0,0,0,0,0,0,-1,1595,1366,0,0
378,-342,0,0,0,0,0,0,0,0,0,-1,1602,1366,0,0
385,-342,0,0,0,0,0,0,0,0,0,-1,1609,1366,0,0
392,-342,0,0,0,0,0,0,0,0,0,-1,1616,1366,0,0
399,-342,0,0,0,0,0,0,0,0,0,-1,1623,1366,0,0
406,-342,0,0,0,0,0,0,0,0,0,-1,1630,1366,0,0
413,-342,0,0,0,0,0,0,0,0,0,-1,1637,1366,0,0
420,-342,0,0,0,0,0,0,0,0,0,-1,1644,1366,0,0
427,-342,0,0,0,0,0,0,0,0,0,-1,1651,1366,0,0
434,-342,0,0,0,0,0,0,0,0,0,-1,1658,1366,0,0
441,-342,0,0,0,0,0,0,0,0,0,-1,1665,1366,0,0
448,-342,0,0,0,0,0,0,0,0,0,-1,1672,1366,0,0
455,-342,0,0,0,0,0,0,0,0,0,-1,1679,1366,0,0
462,-342,0,0,0,0,0,0,0,0,0,-1,1686,1366,0,0
469,-342,0,0,0,0,0,0,0,0,0,-1,1693,1366,0,0
476,-342,0,0,0,0,0,0,0,0,0,-1,1700,1366,0,0
483,-342,0,0,0,0,0,0,0,0,0,-1,1707,1366,0,0
490,-342,0,0,0,0,0,0,0,0,0,-1,1714,1366,0,0
497,-342,0,0,0,0,0,0,0,0,0,-1,1721,1366,0,0
504,-342,0,0,0,0,0,0,0,0,0,-1,1728,1366,0,0
511,-342,0,0,0,0,0,0,0,0,0,-1,1735,1366,0,0
518,-342,0,0,0,0,0,0,0,0,0,-1,1742,1366,0,0
525,-342,0,0,0,0,0,0,0,0,0,-1,1749,1366,0,0
532,-342,0,0,0,0,0,0,0,0,0,-1,1756,1366,0,0
539,-342,0,0,0,0,0,0,0,0,0,-1,1763,1366,0,0
546,-342,0,0,0,0,0,0,0,0,0,-1,1770,1366,0,0
553,-342,0,0,0,0,0,0,0,0,0,-1,1777,1366,0,0
560,-342,0,0,0,0,0,0,0,0,0,-1,1784,1366,0,0
567,-342,42.6652,5.53748,0,0,0,0,0,0,0,-1,1791,1366,42.6652,-5.53752
574,-342,43.0466,5.95728,0,0,0,0,0,0,0,-1,1798,1366,43.0466,-5.9573
581,-342,43.4904,6.59937,0,0,0,0,0,0,0,-1,1805,1366,43.4903,-6.59938
588,-342,43.9108,7.22559,0,0,0,0,0,0,0,-1,1812,1366,43.9107,-7.22554
595,-342,35.7993,0.709961,0,0,0,0,0,0,0,-1,1819,1366,35.7993,-0.709913
602,-342,36.3618,3.28723,0,0,0,0,0,0,0,-1,1826,1366,36.3619,-3.28719
609,-342,35.3777,4.14978,0,0,0,0,0,0,0,-1,1833,1366,35.3777,-4.14976
616,-342,34.199,5.8158,0,0,0,0,0,0,0,-1,1840,1366,34.199,-5.81579
623,-342,26.0299,6.86865,0,0,0,0,0,0,0,-1,1847,1366,26.0299,-6.86863
630,-342,17.3431,0.773071,0,0,0,0,0,0,0,-1,1854,1366,17.3432,-0.773095
637,-342,16.196,6.76172,0,0,0,0,0,0,0,-1,1861,1366,16.1961,-6.76174
644,-342,31.8916,14.0614,0,0,0,0,0,0,0,-1,1868,1366,31.8916,-14.0613
651,-342,33.3037,14.0433,0,0,0,0,0,0,0,-1,1875,1366,33.3037,-14.0434
658,-342,33.2848,13.4943,-0.000210872,0.000213207,0.000138156,0.000254245,-0.00025191,1.28206,0.000292229,0.0207207,1882,1366,33.2847,-13.4943
665,-342,33.2516,12.9362,0.000251812,-8.26196e-05,0.000150027,0.000309249,-0.000140057,0.365635,0.000265467,0.0171513,1889,1366,33.2515,-12.9362
672,-342,33.255,12.4185,0.000746873,-0.000164188,6.73791e-05,0.000751829,-0.000169144,0.0734244,0.000566087,0.0140586,1896,1366,33.255,-12.4185
679,-342,33.2468,11.8956,0.00125118,-0.000172224,-2.44773e-05,0.0012516,-0.000172644,-0.0171895,0.000897502,0.0136391,1903,1366,33.2468,-11.8956
686,-342,33.2648,11.3607,0.00173302,-0.000159639,-8.73307e-05,0.00173704,-0.00016366,-0.0460114,0.00121626,0.0121884,1910,1366,33.2647,-11.3607
693,-342,33.2129,10.8065,0.00221605,-8.73667e-05,-0.000141122,0.00222466,-9.59805e-05,-0.0609626,0.00151611,0.0123104,1917,1366,33.2129,-10.8066
700,-342,33.1642,10.2799,0.00267352,2.62351e-05,-0.000166872,0.002684,1.57579e-05,-0.0627043,0.0017841,0.0138532,1924,1366,33.1642,-10.2799
707,-342,33.1593,9.71594,0.00297349,0.000122623,-5.44554e-05,0.00297453,0.000121584,-0.0190921,0.00194376,0.0137547,1931,1366,33.1593,-9.7159
714,-342,33.2391,8.94775,0,0,0,0,0,0,0,-1,1938,1366,33.2391,-8.94774
721,-342,22.4666,6.08679,0,0,0,0,0,0,0,-1,1945,1366,22.4666,-6.08678
728,-342,19.8912,5.26636,0,0,0,0,0,0,0,-1,1952,1366,19.8913,-5.26636
735,-342,19.481,4.41968,0,0,0,0,0,0,0,-1,1959,1366,19.4809,-4.41962
742,-342,19.309,2.66943,0,0,0,0,0,0,0,-1,1966,1366,19.3089,-2.66948
749,-342,21.0934,6.47729,0,0,0,0,0,0,0,-1,1973,1366,21.0934,-6.4773
756,-342,0,0,0,0,0,0,0,0,0,-1,1980,1366,0,0
763,-342,0,0,0,0,0,0,0,0,0,-1,1987,1366,0,0
770,-342,0,0,0,0,0,0,0,0,0,-1,1994,1366,0,0
777,-342,0,0,0,0,0,0,0,0,0,-1,2001,1366,0,0
784,-342,0,0,0,0,0,0,0,0,0,-1,2008,1366,0,0
791,-342,0,0,0,0,0,0,0,0,0,-1,2015,1366,0,0
798,-342,0,0,0,0,0,0,0,0,0,-1,2022,1366,0,0
805,-342,0,0,0,0,0,0,0,0,0,-1,2029,1366,0,0
812,-342,0,0,0,0,0,0,0,0,0,-1,2036,1366,0,0
-700,-349,0,0,0,0,0,0,0,0,0,-1,524,1373,0,0
-693,-349,0,0,0,0,0,0,0,0,0,-1,531,1373,0,0
-686,-349,0,0,0,0,0,0,0,0,0,-1,538,1373,0,0
-679,-349,0,0,0,0,0,0,0,0,0,-1,545,1373,0,0
-672,-349,0,0,0,0,0,0,0,0,0,-1,552,1373,0,0
-665,-349,0,0,0,0,0,0,0,0,0,-1,559,1373,0,0
-658,-349,0,0,0,0,0,0,0,0,0,-1,566,1373,0,0
-651,-349,0,0,0,0,0,0,0,0,0,-1,573,1373,0,0
-644,-349,0,0,0,0,0,0,0,0,0,-1,580,1373,0,0
-637,-349,0,0,0,0,0,0,0,0,0,-1,587,1373,0,0
-630,-349,-7.64117,-5.06177,0,0,0,0,0,0,0,-1,594,1373,-7.64118,5.0618
-623,-349,-8.63507,0.51123,0,0,0,0,0,0,0,-1,601,1373,-8.63505,-0.511275
-616,-349,-5.2066,-0.188232,0,0,0,0,0,0,0,-1,608,1373,-5.20659,0.188211
-609,-349,-7.12073,1.37048,0,0,0,0,0,0,0,-1,615,1373,-7.12072,-1.37044
-602,-349,-9.00623,3.39587,0,0,0,0,0,0,0,-1,622,1373,-9.0062,-3.39591
-595,-349,-9.50568,2.96912,0,0,0,0,0,0,0,-1,629,1373,-9.50569,-2.96906
-588,-349,-8.60046,3.56042,0,0,0,0,0,0,0,-1,636,1373,-8.60046,-3.56047
-581,-349,-17.5095,6.99841,0,0,0,0,0,0,0,-1,643,1373,-17.5095,-6.99838
-574,-349,-17.5523,7.53796,0.00427751,0.00112213,0.00147567,0.00486008,0.000539568,0.375998,0.00307601,0.0355961,650,1373,-17.5523,-7.53793
-567,-349,-17.5974,8.18005,0.00352203,0.000900876,0.00116874,0.00396746,0.000455447,0.364125,0.00250698,0.0171565,657,1373,-17.5974,-8.18011
-560,-349,-17.5942,8.7738,0.00309974,0.000709215,0.00104625,0.00349296,0.000315989,0.359509,0.00223079,0.0209073,664,1373,-17.5942,-8.77375
-553,-349,-17.6223,9.30872,0.00290621,0.000580631,0.00106272,0.00331868,0.000168161,0.370231,0.00215858,0.0268083,671,1373,-17.6222,-9.30877
-546,-349,-17.6507,9.87598,0.00290742,0.000500353,0.00118557,0.00339329,1.44865e-05,0.38894,0.00225738,0.0293606,678,1373,-17.6507,-9.87602
-539,-349,-17.6796,10.4741,0.00310834,0.000459658,0.00141655,0.0037232,-0.000155198,0.409513,0.00253545,0.0240256,685,1373,-17.6795,-10.4742
-532,-349,-17.696,11.1118,0.00352728,0.000479665,0.00176761,0.00433723,-0.000330284,0.429667,0.00300763,0.0174941,692,1373,-17.6961,-11.1118
-525,-349,-17.67,11.7379,0.00417157,0.000547354,0.00224419,0.00524392,-0.000524997,0.445759,0.00368344,0.0132564,699,1373,-17.67,-11.7379
-518,-349,-17.6762,12.3702,0.00506856,0.000781567,0.00285803,0.00649759,-0.000647458,0.46365,0.00456288,0.0219767,706,1373,-17.6762,-12.3702
-511,-349,-17.6467,13.0233,0,0,0,0,0,0,0,-1,713,1373,-17.6466,-13.0233
-504,-349,-9.60516,7.88831,0,0,0,0,0,0,0,-1,720,1373,-9.60519,-7.88825
-497,-349,-7.9339,5.58789,0,0,0,0,0,0,0,-1,727,1373,-7.93388,-5.58785
-490,-349,-8.73969,-0.503784,0,0,0,0,0,0,0,-1,734,1373,-8.73966,0.503752
-483,-349,-5.66974,3.7395,0,0,0,0,0,0,0,-1,741,1373,-5.66975,-3.73949
-476,-349,-10.8496,1.15759,0,0,0,0,0,0,0,-1,748,1373,-10.8496,-1.15756
-469,-349,-12.3314,-1.74878,0,0,0,0,0,0,0,-1,755,1373,-12.3314,1.74882
-462,-349,-12.6559,-0.995361,0,0,0,0,0,0,0,-1,762,1373,-12.656,0.995351
-455,-349,-13.2897,-0.234253,0,0,0,0,0,0,0,-1,769,1373,-13.2897,0.234261
-448,-349,-14.045,0.712891,0,0,0,0,0,0,0,-1,776,1373,-14.045,-0.712838
-441,-349,0,0,0,0,0,0,0,0,0,-1,783,1373,0,0
-434,-349,0,0,0,0,0,0,0,0,0,-1,790,1373,0,0
-427,-349,0,0,0,0,0,0,0,0,0,-1,797,1373,0,0
-420,-349,0,0,0,0,0,0,0,0,0,-1,804,1373,0,0
-413,-349,0,0,0,0,0,0,0,0,0,-1,811,1373,0,0
-406,-349,0,0,0,0,0,0,0,0,0,-1,818,1373,0,0
-399,-349,0,0,0,0,0,0,0,0,0,-1,825,1373,0,0
-392,-349,0,0,0,0,0,0,0,0,0,-1,832,1373,0,0
-385,-349,0,0,0,0,0,0,0,0,0,-1,839,1373,0,0
-378,-349,0,0,0,0,0,0,0,0,0,-1,846,1373,0,0
-371,-349,0,0,0,0,0,0,0,0,0,-1,853,1373,0,0
-364,-349,0,0,0,0,0,0,0,0,0,-1,860,1373,0,0
-357,-349,0,0,0,0,0,0,0,0,0,-1,867,1373,0,0
-350,-349,0,0,0,0,0,0,0,0,0,-1,874,1373,0,0
-343,-349,0,0,0,0,0,0,0,0,0,-1,881,1373,0,0
-336,-349,0,0,0,0,0,0,0,0,0,-1,888,1373,0,0
-329,-349,0,0,0,0,0,0,0,0,0,-1,895,1373,0,0
-322,-349,0,0,0,0,0,0,0,0,0,-1,902,1373,0,0
-315,-349,0,0,0,0,0,0,0,0,0,-1,909,1373,0,0
-308,-349,0,0,0,0,0,0,0,0,0,-1,916,1373,0,0
-301,-349,0,0,0,0,0,0,0,0,0,-1,923,1373,0,0
-294,-349,0,0,0,0,0,0,0,0,0,-1,930,1373,0,0
-287,-349,0,0,0,0,0,0,0,0,0,-1,937,1373,0,0
-280,-349,0,0,0,0,0,0,0,0,0,-1,944,1373,0,0
-273,-349,0,0,0,0,0,0,0,0,0,-1,951,1373,0,0
-266,-349,0,0,0,0,0,0,0,0,0,-1,958,1373,0,0
-259,-349,0,0,0,0,0,0,0,0,0,-1,965,1373,0,0
-252,-349,0,0,0,0,0,0,0,0,0,-1,972,1373,0,0
-245,-349,0,0,0,0,0,0,0,0,0,-1,979,1373,0,0
-238,-349,0,0,0,0,0,0,0,0,0,-1,986,1373,0,0
-231,-349,0,0,0,0,0,0,0,0,0,-1,993,1373,0,0
-224,-349,0,0,0,0,0,0,0,0,0,-1,1000,1373,0,0
-217,-349,0,0,0,0,0,0,0,0,0,-1,1007,1373,0,0
-210,-349,0,0,0,0,0,0,0,0,0,-1,1014,1373,0,0
-203,-349,0,0,0,0,0,0,0,0,0,-1,1021,1373,0,0
-196,-349,0,0,0,0,0,0,0,0,0,-1,1028,1373,0,0
-189,-349,0,0,0,0,0,0,0,0,0,-1,1035,1373,0,0
-182,-349,0,0,0,0,0,0,0,0,0,-1,1042,1373,0,0
-175,-349,0,0,0,0,0,0,0,0,0,-1,1049,1373,0,0
-168,-349,0,0,0,0,0,0,0,0,0,-1,1056,1373,0,0
-161,-349,0,0,0,0,0,0,0,0,0,-1,1063,1373,0,0
-154,-349,0,0,0,0,0,0,0,0,0,-1,1070,1373,0,0
-147,-349,0,0,0,0,0,0,0,0,0,-1,1077,1373,0,0
-140,-349,0,0,0,0,0,0,0,0,0,-1,1084,1373,0,0
-133,-349,0,0,0,0,0,0,0,0,0,-1,1091,1373,0,0
-126,-349,0,0,0,0,0,0,0,0,0,-1,1098,1373,0,0
-119,-349,0,0,0,0,0,0,0,0,0,-1,1105,1373,0,0
-112,-349,0,0,0,0,0,0,0,0,0,-1,1112,1373,0,0
-105,-349,0,0,0,0,0,0,0,0,0,-1,1119,1373,0,0
-98,-349,0,0,0,0,0,0,0,0,0,-1,1126,1373,0,0
-91,-349,0,0,0,0,0,0,0,0,0,-1,1133,1373,0,0
-84,-349,0,0,0,0,0,0,0,0,0,-1,1140,1373,0,0
-77,-349,0,0,0,0,0,0,0,0,0,-1,1147,1373,0,0
-70,-349,0,0,0,0,0,0,0,0,0,-1,1154,1373,0,0
-63,-349,0,0,0,0,0,0,0,0,0,-1,1161,1373,0,0
-56,-349,0,0,0,0,0,0,0,0,0,-1,1168,1373,0,0
-49,-349,0,0,0,0,0,0,0,0,0,-1,1175,1373,0,0
-42,-349,0,0,0,0,0,0,0,0,0,-1,1182,1373,0,0
-35,-349,0,0,0,0,0,0,0,0,0,-1,1189,1373,0,0
-28,-349,0,0,0,0,0,0,0,0,0,-1,1196,1373,0,0
-21,-349,0,0,0,0,0,0,0,0,0,-1,1203,1373,0,0
-14,-349,0,0,0,0,0,0,0,0,0,-1,1210,1373,0,0
-7,-349,0,0,0,0,0,0,0,0,0,-1,1217,1373,0,0
0,-349,0,0,0,0,0,0,0,0,0,-1,1224,1373,0,0
7,-349,0,0,0,0,0,0,0,0,0,-1,1231,1373,0,0
14,-349,0,0,0,0,0,0,0,0,0,-1,1238,1373,0,0
21,-349,0,0,0,0,0,0,0,0,0,-1,1245,1373,0,0
28,-349,0,0,0,0,0,0,0,0,0,-1,1252,1373,0,0
35,-349,0,0,0,0,0,0,0,0,0,-1,1259,1373,0,0
42,-349,0,0,0,0,0,0,0,0,0,-1,1266,1373,0,0
49,-349,0,0,0,0,0,0,0,0,0,-1,1273,1373,0,0
56,-349,0,0,0,0,0,0,0,0,0,-1,1280,1373,0,0
63,-349,0,0,0,0,0,0,0,0,0,-1,1287,1373,0,0
70,-349,0,0,0,0,0,0,0,0,0,-1,1294,1373,0,0
77,-349,0,0,0,0,0,0,0,0,0,-1,1301,1373,0,0
84,-349,0,0,0,0,0,0,0,0,0,-1,1308,1373,0,0
91,-349,0,0,0,0,0,0,0,0,0,-1,1315,1373,0,0
98,-349,0,0,0,0,0,0,0,0,0,-1,1322,1373,0,0
105,-349,0,0,0,0,0,0,0,0,0,-1,1329,1373,0,0
112,-349,0,0,0,0,0,0,0,0,0,-1,1336,1373,0,0
119,-349,0,0,0,0,0,0,0,0,0,-1,1343,1373,0,0
126,-349,0,0,0,0,0,0,0,0,0,-1,1350,1373,0,0
133,-349,0,0,0,0,0,0,0,0,0,-1,1357,1373,0,0
140,-349,0,0,0,0,0,0,0,0,0,-1,1364,1373,0,0
147,-349,0,0,0,0,0,0,0,0,0,-1,1371,1373,0,0
154,-349,0,0,0,0,0,0,0,0,0,-1,1378,1373,0,0
161,-349,0,0,0,0,0,0,0,0,0,-1,1385,1373,0,0
168,-349,0,0,0,0,0,0,0,0,0,-1,1392,1373,0,0
175,-349,0,0,0,0,0,0,0,0,0,-1,1399,1373,0,0
182,-349,0,0,0,0,0,0,0,0,0,-1,1406,1373,0,0
189,-349,0,0,0,0,0,0,0,0,0,-1,1413,1373,0,0
196,-349,0,0,0,0,0,0,0,0,0,-1,1420,1373,0,0
203,-349,0,0,0,0,0,0,0,0,0,-1,1427,1373,0,0
210,-349,0,0,0,0,0,0,0,0,0,-1,1434,1373,0,0
217,-349,0,0,0,0,0,0,0,0,0,-1,1441,1373,0,0
224,-349,0,0,0,0,0,0,0,0,0,-1,1448,1373,0,0
231,-349,0,0,0,0,0,0,0,0,0,-1,1455,1373,0,0
238,-349,0,0,0,0,0,0,0,0,0,-1,1462,1373,0,0
245,-349,0,0,0,0,0,0,0,0,0,-1,1469,1373,0,0
252,-349,0,0,0,0,0,0,0,0,0,-1,1476,1373,0,0
259,-349,0,0,0,0,0,0,0,0,0,-1,1483,1373,0,0
266,-349,0,0,0,0,0,0,0,0,0,-1,1490,1373,0,0
273,-349,0,0,0,0,0,0,0,0,0,-1,1497,1373,0,0
280,-349,0,0,0,0,0,0,0,0,0,-1,1504,1373,0,0
287,-349,0,0,0,0,0,0,0,0,0,-1,1511,1373,0,0
294,-349,0,0,0,0,0,0,0,0,0,-1,1518,1373,0,0
301,-349,0,0,0,0,0,0,0,0,0,-1,1525,1373,0,0
308,-349,0,0,0,0,0,0,0,0,0,-1,1532,1373,0,0
315,-349,0,0,0,0,0,0,0,0,0,-1,1539,1373,0,0
322,-349,0,0,0,0,0,0,0,0,0,-1,1546,1373,0,0
329,-349,0,0,0,0,0,0,0,0,0,-1,1553,1373,0,0
336,-349,0,0,0,0,0,0,0,0,0,-1,1560,1373,0,0
343,-349,0,0,0,0,0,0,0,0,0,-1,1567,1373,0,0
350,-349,0,0,0,0,0,0,0,0,0,-1,1574,1373,0,0
357,-349,0,0,0,0,0,0,0,0,0,-1,1581,1373,0,0
364,-349,0,0,0,0,0,0,0,0,0,-1,1588,1373,0,0
371,-349,0,0,0,0,0,0,0,0,0,-1,1595,1373,0,0
378,-349,0,0,0,0,0,0,0,0,0,-1,1602,1373,0,0
385,-349,0,0,0,0,0,0,0,0,0,-1,1609,1373,0,0
392,-349,0,0,0,0,0,0,0,0,0,-1,1616,1373,0,0
399,-349,0,0,0,0,0,0,0,0,0,-1,1623,1373,0,0
406,-349,0,0,0,0,0,0,0,0,0,-1,1630,1373,0,0
413,-349,0,0,0,0,0,0,0,0,0,-1,1637,1373,0,0
420,-349,0,0,0,0,0,0,0,0,0,-1,1644,1373,0,0
427,-349,0,0,0,0,0,0,0,0,0,-1,1651,1373,0,0
434,-349,0,0,0,0,0,0,0,0,0,-1,1658,1373,0,0
441,-349,0,0,0,0,0,0,0,0,0,-1,1665,1373,0,0
448,-349,0,0,0,0,0,0,0,0,0,-1,1672,1373,0,0
455,-349,0,0,0,0,0,0,0,0,0,-1,1679,1373,0,0
462,-349,0,0,0,0,0,0,0,0,0,-1,1686,1373,0,0
469,-349,0,0,0,0,0,0,0,0,0,-1,1693,1373,0,0
476,-349,0,0,0,0,0,0,0,0,0,-1,1700,1373,0,0
483,-349,0,0,0,0,0,0,0,0,0,-1,1707,1373,0,0
490,-349,0,0,0,0,0,0,0,0,0,-1,1714,1373,0,0
497,-349,0,0,0,0,0,0,0,0,0,-1,1721,1373,0,0
504,-349,0,0,0,0,0,0,0,0,0,-1,1728,1373,0,0
511,-349,0,0,0,0,0,0,0,0,0,-1,1735,1373,0,0
518,-349,0,0,0,0,0,0,0,0,0,-1,1742,1373,0,0
525,-349,0,0,0,0,0,0,0,0,0,-1,1749,1373,0,0
532,-349,0,0,0,0,0,0,0,0,0,-1,1756,1373,0,0
539,-349,0,0,0,0,0,0,0,0,0,-1,1763,1373,0,0
546,-349,0,0,0,0,0,0,0,0,0,-1,1770,1373,0,0
553,-349,0,0,0,0,0,0,0,0,0,-1,1777,1373,0,0
560,-349,45.6893,3.53845,0,0,0,0,0,0,0,-1,1784,1373,45.6893,-3.5385
567,-349,41.9424,6.03833,0,0,0,0,0,0,0,-1,1791,1373,41.9423,-6.03834
574,-349,42.4165,6.17078,0,0,0,0,0,0,0,-1,1798,1373,42.4165,-6.17072
581,-349,42.8947,6.78381,0,0,0,0,0,0,0,-1,1805,1373,42.8946,-6.78376
588,-349,44.8121,5.06213,0,0,0,0,0,0,0,-1,1812,1373,44.8121,-5.06215
595,-349,44.4338,6.14099,0,0,0,0,0,0,0,-1,1819,1373,44.4338,-6.14095
602,-349,35.6641,3.26465,0,0,0,0,0,0,0,-1,1826,1373,35.6641,-3.26468
609,-349,34.7175,4.401,0,0,0,0,0,0,0,-1,1833,1373,34.7175,-4.40096
616,-349,27.1451,6.68274,0,0,0,0,0,0,0,-1,1840,1373,27.1451,-6.6828
623,-349,18.8478,2.75769,0,0,0,0,0,0,0,-1,1847,1373,18.8478,-2.75774
630,-349,15.4948,6.47644,0,0,0,0,0,0,0,-1,1854,1373,15.4947,-6.4765
637,-349,16.5161,6.92639,0,0,0,0,0,0,0,-1,1861,1373,16.5161,-6.92636
644,-349,32.8811,14.6106,0,0,0,0,0,0,0,-1,1868,1373,32.8811,-14.6107
651,-349,32.8864,14.0491,-0.000455325,0.000794348,-0.000180045,0.000819771,-0.000480748,-1.43052,0.000759311,0.0378342,1875,1373,32.8864,-14.0491
658,-349,32.7795,13.5112,-7.43401e-05,0.00032364,3.67082e-05,0.000326998,-7.76976e-05,1.47959,0.000247989,0.0262364,1882,1373,32.7796,-13.5113
665,-349,32.7168,12.9545,0.000415731,-4.77356e-05,0.000127777,0.000448624,-8.0629e-05,0.251957,0.000329266,0.0211518,1889,1373,32.7168,-12.9544
672,-349,32.6997,12.4174,0.000952114,-0.00026248,0.00014789,0.000969862,-0.000280227,0.119436,0.000757464,0.0161329,1896,1373,32.6997,-12.4173
679,-349,32.6917,11.8856,0.00152505,-0.000433138,0.000148934,0.00153631,-0.000444401,0.0754789,0.00120009,0.015862,1903,1373,32.6916,-11.8857
686,-349,32.7361,11.3822,0.002112,-0.000557882,0.00014922,0.00212031,-0.000566197,0.0556592,0.00163528,0.0159942,1910,1373,32.7361,-11.3822
693,-349,32.6633,10.8333,0.00273038,-0.000613726,0.000138339,0.00273609,-0.000619439,0.0412739,0.0020618,0.0179999,1917,1373,32.6634,-10.8332
700,-349,32.6143,10.2966,0.00336466,-0.000587296,0.000115389,0.00336803,-0.000590663,0.0291649,0.00246593,0.0173709,1924,1373,32.6143,-10.2966
707,-349,32.6699,9.71692,0.0038463,-0.000545106,0.000223438,0.00385764,-0.000556445,0.0507062,0.00277589,0.0341855,1931,1373,32.6699,-9.71688
714,-349,32.8093,9.05798,0,0,0,0,0,0,0,-1,1938,1373,32.8094,-9.05794
721,-349,19.6688,5.93604,0,0,0,0,0,0,0,-1,1945,1373,19.6688,-5.93606
728,-349,18.6333,3.73218,0,0,0,0,0,0,0,-1,1952,1373,18.6333,-3.73214
735,-349,18.1918,3.39954,0,0,0,0,0,0,0,-1,1959,1373,18.1918,-3.3995
742,-349,20.7345,2.07483,0,0,0,0,0,0,0,-1,1966,1373,20.7345,-2.07485
749,-349,21.9037,1.45789,0,0,0,0,0,0,0,-1,1973,1373,21.9037,-1.45788
756,-349,0,0,0,0,0,0,0,0,0,-1,1980,1373,0,0
763,-349,0,0,0,0,0,0,0,0,0,-1,1987,1373,0,0
770,-349,0,0,0,0,0,0,0,0,0,-1,1994,1373,0,0
777,-349,0,0,0,0,0,0,0,0,0,-1,2001,1373,0,0
784,-349,0,0,0,0,0,0,0,0,0,-1,2008,1373,0,0
791,-349,0,0,0,0,0,0,0,0,0,-1,2015,1373,0,0
798,-349,0,0,0,0,0,0,0,0,0,-1,2022,1373,0,0
805,-349,0,0,0,0,0,0,0,0,0,-1,2029,1373,0,0
812,-349,0,0,0,0,0,0,0,0,0,-1,2036,1373,0,0
-700,-356,0,0,0,0,0,0,0,0,0,-1,524,1380,0,0
-693,-356,0,0,0,0,0,0,0,0,0,-1,531,1380,0,0
-686,-356,0,0,0,0,0,0,0,0,0,-1,538,1380,0,0
-679,-356,0,0,0,0,0,0,0,0,0,-1,545,1380,0,0
-672,-356,0,0,0,0,0,0,0,0,0,-1,552,1380,0,0
-665,-356,0,0,0,0,0,0,0,0,0,-1,559,1380,0,0
-658,-356,0,0,0,0,0,0,0,0,0,-1,566,1380,0,0
-651,-356,0,0,0,0,0,0,0,0,0,-1,573,1380,0,0
-644,-356,0,0,0,0,0,0,0,0,0,-1,580,1380,0,0
-637,-356,0,0,0,0,0,0,0,0,0,-1,587,1380,0,0
-630,-356,-8.23126,-5.01917,0,0,0,0,0,0,0,-1,594,1380,-8.23124,5.0192
-623,-356,-0.263855,-0.675781,0,0,0,0,0,0,0,-1,601,1380,-0.263835,0.675841
-616,-356,-8.26532,-3.43945,0,0,0,0,0,0,0,-1,608,1380,-8.2653,3.43948
-609,-356,-4.88483,0.734497,0,0,0,0,0,0,0,-1,615,1380,-4.88485,-0.734532
-602,-356,-9.06635,2.4021,0,0,0,0,0,0,0,-1,622,1380,-9.06634,-2.40206
-595,-356,-8.45703,3.61853,0,0,0,0,0,0,0,-1,629,1380,-8.45706,-3.61848
-588,-356,-9.31738,4.14258,0,0,0,0,0,0,0,-1,636,1380,-9.31736,-4.14255
-581,-356,-16.5185,7.32312,0,0,0,0,0,0,0,-1,643,1380,-16.5185,-7.32306
-574,-356,-16.8818,7.71899,0,0,0,0,0,0,0,-1,650,1380,-16.8819,-7.71904
-567,-356,-17.0345,8.14746,0.00391851,0.00097556,0.0013234,0.00442608,0.000467989,0.366233,0.00280775,0.0198906,657,1380,-17.0345,-8.14747
-560,-356,-16.9963,8.79932,0.00336766,0.000767617,0.00112964,0.00378989,0.000345388,0.357694,0.0024197,0.0177955,664,1380,-16.9963,-8.79934
-553,-356,-17.0219,9.37561,0.00306616,0.00064089,0.00109334,0.00348628,0.000220773,0.366856,0.0022542,0.0208074,671,1380,-17.0219,-9.37564
-546,-356,-17.0688,9.93103,0.00293979,0.000551586,0.0011503,0.00340372,8.76545e-05,0.383359,0.0022405,0.0225244,678,1380,-17.0688,-9.93107
-539,-356,-17.0921,10.5389,0.00300423,0.000500833,0.00130951,0.00356404,-5.89801e-05,0.403984,0.00239593,0.016422,685,1380,-17.0921,-10.539
-532,-356,-17.1105,11.1669,0.00326989,0.000523697,0.00159124,0.00399857,-0.000204978,0.429428,0.0027366,0.015694,692,1380,-17.1105,-11.1669
-525,-356,-17.1102,11.772,0.00373831,0.00059958,0.0019837,0.00469836,-0.000360474,0.450743,0.00325905,0.0123894,699,1380,-17.1102,-11.772
-518,-356,-17.0967,12.3657,0.00442209,0.000804873,0.00250156,0.00570037,-0.000473408,0.472403,0.00396747,0.0130868,706,1380,-17.0967,-12.3658
-511,-356,-17.085,12.9716,0,0,0,0,0,0,0,-1,713,1380,-17.0851,-12.9715
-504,-356,-14.3925,12.3971,0,0,0,0,0,0,0,-1,720,1380,-14.3925,-12.3971
-497,-356,-5.68604,4.96387,0,0,0,0,0,0,0,-1,727,1380,-5.68605,-4.96385
-490,-356,-7.95288,5.5625,0,0,0,0,0,0,0,-1,734,1380,-7.95285,-5.56246
-483,-356,-7.2627,4.07446,0,0,0,0,0,0,0,-1,741,1380,-7.2627,-4.07441
-476,-356,-5.1936,4.16016,0,0,0,0,0,0,0,-1,748,1380,-5.1936,-4.16012
-469,-356,-10.0883,0.536011,0,0,0,0,0,0,0,-1,755,1380,-10.0883,-0.535989
-462,-356,-12.3481,-0.215698,0,0,0,0,0,0,0,-1,762,1380,-12.3481,0.215641
-455,-356,-13.1367,-0.264648,0,0,0,0,0,0,0,-1,769,1380,-13.1367,0.264647
-448,-356,-13.9116,-0.310181,0,0,0,0,0,0,0,-1,776,1380,-13.9115,0.310207
-441,-356,-13.1602,3.05603,0,0,0,0,0,0,0,-1,783,1380,-13.1602,-3.05609
-434,-356,0,0,0,0,0,0,0,0,0,-1,790,1380,0,0
-427,-356,0,0,0,0,0,0,0,0,0,-1,797,1380,0,0
-420,-356,0,0,0,0,0,0,0,0,0,-1,804,1380,0,0
-413,-356,0,0,0,0,0,0,0,0,0,-1,811,1380,0,0
-406,-356,0,0,0,0,0,0,0,0,0,-1,818,1380,0,0
-399,-356,0,0,0,0,0,0,0,0,0,-1,825,1380,0,0
-392,-356,0,0,0,0,0,0,0,0,0,-1,832,1380,0,0
-385,-356,0,0,0,0,0,0,0,0,0,-1,839,1380,0,0
-378,-356,0,0,0,0,0,0,0,0,0,-1,846,1380,0,0
-371,-356,0,0,0,0,0,0,0,0,0,-1,853,1380,0,0
-364,-356,0,0,0,0,0,0,0,0,0,-1,860,1380,0,0
-357,-356,0,0,0,0,0,0,0,0,0,-1,867,1380,0,0
-350,-356,0,0,0,0,0,0,0,0,0,-1,874,1380,0,0
-343,-356,0,0,0,0,0,0,0,0,0,-1,881,1380,0,0
-336,-356,0,0,0,0,0,0,0,0,0,-1,888,1380,0,0
-329,-356,0,0,0,0,0,0,0,0,0,-1,895,1380,0,0
-322,-356,0,0,0,0,0,0,0,0,0,-1,902,1380,0,0
-315,-356,0,0,0,0,0,0,0,0,0,-1,909,1380,0,0
-308,-356,0,0,0,0,0,0,0,0,0,-1,916,1380,0,0
-301,-356,0,0,0,0,0,0,0,0,0,-1,923,1380,0,0
-294,-356,0,0,0,0,0,0,0,0,0,-1,930,1380,0,0
-287,-356,0,0,0,0,0,0,0,0,0,-1,937,1380,0,0
-280,-356,0,0,0,0,0,0,0,0,0,-1,944,1380,0,0
-273,-356,0,0,0,0,0,0,0,0,0,-1,951,1380,0,0
-266,-356,0,0,0,0,0,0,0,0,0,-1,958,1380,0,0
-259,-356,0,0,0,0,0,0,0,0,0,-1,965,1380,0,0
-252,-356,0,0,0,0,0,0,0,0,0,-1,972,1380,0,0
-245,-356,0,0,0,0,0,0,0,0,0,-1,979,1380,0,0
-238,-356,0,0,0,0,0,0,0,0,0,-1,986,1380,0,0
-231,-356,0,0,0,0,0,0,0,0,0,-1,993,1380,0,0
-224,-356,0,0,0,0,0,0,0,0,0,-1,1000,1380,0,0
-217,-356,0,0,0,0,0,0,0,0,0,-1,1007,1380,0,0
-210,-356,0,0,0,0,0,0,0,0,0,-1,1014,1380,0,0
-203,-356,0,0,0,0,0,0,0,0,0,-1,1021,1380,0,0
-196,-356,0,0,0,0,0,0,0,0,0,-1,1028,1380,0,0
-189,-356,0,0,0,0,0,0,0,0,0,-1,1035,1380,0,0
-182,-356,0,0,0,0,0,0,0,0,0,-1,1042,1380,0,0
-175,-356,0,0,0,0,0,0,0,0,0,-1,1049,1380,0,0
-168,-356,0,0,0,0,0,0,0,0,0,-1,1056,1380,0,0
-161,-356,0,0,0,0,0,0,0,0,0,-1,1063,1380,0,0
-154,-356,0,0,0,0,0,0,0,0,0,-1,1070,1380,0,0
-147,-356,0,0,0,0,0,0,0,0,0,-1,1077,1380,0,0
-140,-356,0,0,0,0,0,0,0,0,0,-1,1084,1380,0,0
-133,-356,0,0,0,0,0,0,0,0,0,-1,1091,1380,0,0
-126,-356,0,0,0,0,0,0,0,0,0,-1,1098,1380,0,0
-119,-356,0,0,0,0,0,0,0,0,0,-1,1105,1380,0,0
-112,-356,0,0,0,0,0,0,0,0,0,-1,1112,1380,0,0
-105,-356,0,0,0,0,0,0,0,0,0,-1,1119,1380,0,0
-98,-356,0,0,0,0,0,0,0,0,0,-1,1126,1380,0,0
-91,-356,0,0,0,0,0,0,0,0,0,-1,1133,1380,0,0
-84,-356,0,0,0,0,0,0,0,0,0,-1,1140,1380,0,0
-77,-356,0,0,0,0,0,0,0,0,0,-1,1147,1380,0,0
-70,-356,0,0,0,0,0,0,0,0,0,-1,1154,1380,0,0
-63,-356,0,0,0,0,0,0,0,0,0,-1,1161,1380,0,0
-56,-356,0,0,0,0,0,0,0,0,0,-1,1168,1380,0,0
-49,-356,0,0,0,0,0,0,0,0,0,-1,1175,1380,0,0
-42,-356,0,0,0,0,0,0,0,0,0,-1,1182,1380,0,0
-35,-356,0,0,0,0,0,0,0,0,0,-1,1189,1380,0,0
-28,-356,0,0,0,0,0,0,0,0,0,-1,1196,1380,0,0
-21,-356,0,0,0,0,0,0,0,0,0,-1,1203,1380,0,0
-14,-356,0,0,0,0,0,0,0,0,0,-1,1210,1380,0,0
-7,-356,0,0,0,0,0,0,0,0,0,-1,1217,1380,0,0
0,-356,0,0,0,0,0,0,0,0,0,-1,1224,1380,0,0
7,-356,0,0,0,0,0,0,0,0,0,-1,1231,1380,0,0
14,-356,0,0,0,0,0,0,0,0,0,-1,1238,1380,0,0
21,-356,0,0,0,0,0,0,0,0,0,-1,1245,1380,0,0
28,-356,0,0,0,0,0,0,0,0,0,-1,1252,1380,0,0
35,-356,0,0,0,0,0,0,0,0,0,-1,1259,1380,0,0
42,-356,0,0,0,0,0,0,0,0,0,-1,1266,1380,0,0
49,-356,0,0,0,0,0,0,0,0,0,-1,1273,1380,0,0
56,-356,0,0,0,0,0,0,0,0,0,-1,1280,1380,0,0
63,-356,0,0,0,0,0,0,0,0,0,-1,1287,1380,0,0
70,-356,0,0,0,0,0,0,0,0,0,-1,1294,1380,0,0
77,-356,0,0,0,0,0,0,0,0,0,-1,1301,1380,0,0
84,-356,0,0,0,0,0,0,0,0,0,-1,1308,1380,0,0
91,-356,0,0,0,0,0,0,0,0,0,-1,1315,1380,0,0
98,-356,0,0,0,0,0,0,0,0,0,-1,1322,1380,0,0
105,-356,0,0,0,0,0,0,0,0,0,-1,1329,1380,0,0
112,-356,0,0,0,0,0,0,0,0,0,-1,1336,1380,0,0
119,-356,0,0,0,0,0,0,0,0,0,-1,1343,1380,0,0
126,-356,0,0,0,0,0,0,0,0,0,-1,1350,1380,0,0
133,-356,0,0,0,0,0,0,0,0,0,-1,1357,1380,0,0
140,-356,0,0,0,0,0,0,0,0,0,-1,1364,1380,0,0
147,-356,0,0,0,0,0,0,0,0,0,-1,1371,1380,0,0
154,-356,0,0,0,0,0,0,0,0,0,-1,1378,1380,0,0
161,-356,0,0,0,0,0,0,0,0,0,-1,1385,1380,0,0
168,-356,0,0,0,0,0,0,0,0,0,-1,1392,1380,0,0
175,-356,0,0,0,0,0,0,0,0,0,-1,1399,1380,0,0
182,-356,0,0,0,0,0,0,0,0,0,-1,1406,1380,0,0
189,-356,0,0,0,0,0,0,0,0,0,-1,1413,1380,0,0
196,-356,0,0,0,0,0,0,0,0,0,-1,1420,1380,0,0
203,-356,0,0,0,0,0,0,0,0,0,-1,1427,1380,0,0
210,-356,0,0,0,0,0,0,0,0,0,-1,1434,1380,0,0
217,-356,0,0,0,0,0,0,0,0,0,-1,1441,1380,0,0
224,-356,0,0,0,0,0,0,0,0,0,-1,1448,1380,0,0
231,-356,0,0,0,0,0,0,0,0,0,-1,1455,1380,0,0
238,-356,0,0,0,0,0,0,0,0,0,-1,1462,1380,0,0
245,-356,0,0,0,0,0,0,0,0,0,-1,1469,1380,0,0
252,-356,0,0,0,0,0,0,0,0,0,-1,1476,1380,0,0
259,-356,0,0,0,0,0,0,0,0,0,-1,1483,1380,0,0
266,-356,0,0,0,0,0,0,0,0,0,-1,1490,1380,0,0
273,-356,0,0,0,0,0,0,0,0,0,-1,1497,1380,0,0
280,-356,0,0,0,0,0,0,0,0,0,-1,1504,1380,0,0
287,-356,0,0,0,0,0,0,0,0,0,-1,1511,1380,0,0
294,-356,0,0,0,0,0,0,0,0,0,-1,1518,1380,0,0
301,-356,0,0,0,0,0,0,0,0,0,-1,1525,1380,0,0
308,-356,0,0,0,0,0,0,0,0,0,-1,1532,1380,0,0
315,-356,0,0,0,0,0,0,0,0,0,-1,1539,1380,0,0
322,-356,0,0,0,0,0,0,0,0,0,-1,1546,1380,0,0
329,-356,0,0,0,0,0,0,0,0,0,-1,1553,1380,0,0
336,-356,0,0,0,0,0,0,0,0,0,-1,1560,1380,0,0
343,-356,0,0,0,0,0,0,0,0,0,-1,1567,1380,0,0
350,-356,0,0,0,0,0,0,0,0,0,-1,1574,1380,0,0
357,-356,0,0,0,0,0,0,0,0,0,-1,1581,1380,0,0
364,-356,0,0,0,0,0,0,0,0,0,-1,1588,1380,0,0
371,-356,0,0,0,0,0,0,0,0,0,-1,1595,1380,0,0
378,-356,0,0,0,0,0,0,0,0,0,-1,1602,1380,0,0
385,-356,0,0,0,0,0,0,0,0,0,-1,1609,1380,0,0
392,-356,0,0,0,0,0,0,0,0,0,-1,1616,1380,0,0
399,-356,0,0,0,0,0,0,0,0,0,-1,1623,1380,0,0
406,-356,0,0,0,0,0,0,0,0,0,-1,1630,1380,0,0
413,-356,0,0,0,0,0,0,0,0,0,-1,1637,1380,0,0
420,-356,0,0,0,0,0,0,0,0,0,-1,1644,1380,0,0
427,-356,0,0,0,0,0,0,0,0,0,-1,1651,1380,0,0
434,-356,0,0,0,0,0,0,0,0,0,-1,1658,1380,0,0
441,-356,0,0,0,0,0,0,0,0,0,-1,1665,1380,0,0
448,-356,0,0,0,0,0,0,0,0,0,-1,1672,1380,0,0
455,-356,0,0,0,0,0,0,0,0,0,-1,1679,1380,0,0
462,-356,0,0,0,0,0,0,0,0,0,-1,1686,1380,0,0
469,-356,0,0,0,0,0,0,0,0,0,-1,1693,1380,0,0
476,-356,0,0,0,0,0,0,0,0,0,-1,1700,1380,0,0
483,-356,0,0,0,0,0,0,0,0,0,-1,1707,1380,0,0
490,-356,0,0,0,0,0,0,0,0,0,-1,1714,1380,0,0
497,-356,0,0,0,0,0,0,0,0,0,-1,1721,1380,0,0
504,-356,0,0,0,0,0,0,0,0,0,-1,1728,1380,0,0
511,-356,0,0,0,0,0,0,0,0,0,-1,1735,1380,0,0
518,-356,0,0,0,0,0,0,0,0,0,-1,1742,1380,0,0
525,-356,0,0,0,0,0,0,0,0,0,-1,1749,1380,0,0
532,-356,0,0,0,0,0,0,0,0,0,-1,1756,1380,0,0
539,-356,0,0,0,0,0,0,0,0,0,-1,1763,1380,0,0
546,-356,0,0,0,0,0,0,0,0,0,-1,1770,1380,0,0
553,-356,0,0,0,0,0,0,0,0,0,-1,1777,1380,0,0
560,-356,45.7938,3.65295,0,0,0,0,0,0,0,-1,1784,1380,45.7938,-3.65294
567,-356,45.6788,3.51428,0,0,0,0,0,0,0,-1,1791,1380,45.6788,-3.51422
574,-356,45.5742,3.39575,0,0,0,0,0,0,0,-1,1798,1380,45.5742,-3.39574
581,-356,45.6708,3.64172,0,0,0,0,0,0,0,-1,1805,1380,45.6707,-3.64175
588,-356,44.4739,4.87085,0,0,0,0,0,0,0,-1,1812,1380,44.4739,-4.87086
595,-356,32.0834,5.86084,0,0,0,0,0,0,0,-1,1819,1380,32.0834,-5.86079
602,-356,30.1604,6.07104,0,0,0,0,0,0,0,-1,1826,1380,30.1604,-6.07104
609,-356,28.3435,6.48901,0,0,0,0,0,0,0,-1,1833,1380,28.3435,-6.48899
616,-356,26.9358,6.80872,0,0,0,0,0,0,0,-1,1840,1380,26.9358,-6.80877
623,-356,16.1803,1.07532,0,0,0,0,0,0,0,-1,1847,1380,16.1803,-1.07529
630,-356,16.4138,6.91553,0,0,0,0,0,0,0,-1,1854,1380,16.4138,-6.9155
637,-356,24.8021,12.0151,0,0,0,0,0,0,0,-1,1861,1380,24.8022,-12.0151
644,-356,32.2979,14.6826,0,0,0,0,0,0,0,-1,1868,1380,32.2979,-14.6826
651,-356,32.2732,14.0778,-0.000172949,0.000938731,-0.000343483,0.0010363,-0.000270514,-1.29404,0.000796498,0.0182763,1875,1380,32.2732,-14.0777
658,-356,32.2257,13.5229,0.000157968,0.000388131,-1.92934e-05,0.000389737,0.000156362,-1.48774,0.000226475,0.0151347,1882,1380,32.2257,-13.523
665,-356,32.1964,13.011,0.000618497,-5.70051e-05,0.000167974,0.00065796,-9.6469e-05,0.230755,0.00047408,0.015277,1889,1380,32.1964,-13.011
672,-356,32.1575,12.4905,0.00114536,-0.000408225,0.000298515,0.00120075,-0.000463609,0.183445,0.000991833,0.0154828,1896,1380,32.1575,-12.4904
679,-356,32.1578,11.9338,0.0017794,-0.000690225,0.00035457,0.0018293,-0.000740124,0.139811,0.00152724,0.0176767,1903,1380,32.1579,-11.9339
686,-356,32.1421,11.3796,0.00251204,-0.000894054,0.000351157,0.00254787,-0.000929881,0.101672,0.00207905,0.0181413,1910,1380,32.1421,-11.3796
693,-356,32.1324,10.8624,0.00332736,-0.00101594,0.00030261,0.00334835,-0.00103692,0.069227,0.00264647,0.0157091,1917,1380,32.1325,-10.8625
700,-356,32.1178,10.3177,0.00426561,-0.000989104,0.00016857,0.00427101,-0.000994506,0.0320359,0.00323028,0.02143,1924,1380,32.1179,-10.3177
707,-356,32.1753,9.77515,0,0,0,0,0,0,0,-1,1931,1380,32.1753,-9.77515
714,-356,19.6907,5.82129,0,0,0,0,0,0,0,-1,1938,1380,19.6907,-5.82132
721,-356,17.2948,4.1958,0,0,0,0,0,0,0,-1,1945,1380,17.2948,-4.19584
728,-356,19.1846,2.31519,0,0,0,0,0,0,0,-1,1952,1380,19.1846,-2.31514
735,-356,20.0731,2.50842,0,0,0,0,0,0,0,-1,1959,1380,20.0731,-2.50844
742,-356,21.0111,2.43762,0,0,0,0,0,0,0,-1,1966,1380,21.0112,-2.43762
749,-356,22.1411,1.83276,0,0,0,0,0,0,0,-1,1973,1380,22.1411,-1.83275
756,-356,0,0,0,0,0,0,0,0,0,-1,1980,1380,0,0
763,-356,0,0,0,0,0,0,0,0,0,-1,1987,1380,0,0
770,-356,0,0,0,0,0,0,0,0,0,-1,1994,1380,0,0
777,-356,0,0,0,0,0,0,0,0,0,-1,2001,1380,0,0
784,-356,0,0,0,0,0,0,0,0,0,-1,2008,1380,0,0
791,-356,0,0,0,0,0,0,0,0,0,-1,2015,1380,0,0
798,-356,0,0,0,0,0,0,0,0,0,-1,2022,1380,0,0
805,-356,0,0,0,0,0,0,0,0,0,-1,2029,1380,0,0
812,-356,0,0,0,0,0,0,0,0,0,-1,2036,1380,0,0
-700,-363,0,0,0,0,0,0,0,0,0,-1,524,1387,0,0
-693,-363,0,0,0,0,0,0,0,0,0,-1,531,1387,0,0
-686,-363,0,0,0,0,0,0,0,0,0,-1,538,1387,0,0
-679,-363,0,0,0,0,0,0,0,0,0,-1,545,1387,0,0
-672,-363,0,0,0,0,0,0,0,0,0,-1,552,1387,0,0
-665,-363,0,0,0,0,0,0,0,0,0,-1,559,1387,0,0
-658,-363,0,0,0,0,0,0,0,0,0,-1,566,1387,0,0
-651,-363,0,0,0,0,0,0,0,0,0,-1,573,1387,0,0
-644,-363,0,0,0,0,0,0,0,0,0,-1,580,1387,0,0
-637,-363,0,0,0,0,0,0,0,0,0,-1,587,1387,0,0
-630,-363,0,0,0,0,0,0,0,0,0,-1,594,1387,0,0
-623,-363,-9.67566,-5.91846,0,0,0,0,0,0,0,-1,601,1387,-9.67563,5.91847
-616,-363,-9.02985,-2.98083,0,0,0,0,0,0,0,-1,608,1387,-9.02987,2.98079
-609,-363,-4.90265,0.195679,0,0,0,0,0,0,0,-1,615,1387,-4.90263,-0.195721
-602,-363,-9.65009,3.5321,0,0,0,0,0,0,0,-1,622,1387,-9.65007,-3.53211
-595,-363,-8.00256,3.48853,0,0,0,0,0,0,0,-1,629,1387,-8.00256,-3.48855
-588,-363,-10.8846,4.49768,0,0,0,0,0,0,0,-1,636,1387,-10.8846,-4.49773
-581,-363,-11.7469,5.15161,0,0,0,0,0,0,0,-1,643,1387,-11.747,-5.15167
-574,-363,-16.3892,7.49231,0,0,0,0,0,0,0,-1,650,1387,-16.3892,-7.49236
-567,-363,-16.4555,8.23206,0.00439822,0.000973145,0.00160313,0.00503149,0.000339878,0.376206,0.00324697,0.0461833,657,1387,-16.4555,-8.23201
-560,-363,-16.4382,8.79382,0.0036808,0.000762691,0.00129121,0.0041701,0.000273395,0.362223,0.00269356,0.0141113,664,1387,-16.4382,-8.79383
-553,-363,-16.4461,9.40637,0.00325928,0.000652788,0.00117504,0.00371079,0.000201278,0.366856,0.00240957,0.0141118,671,1387,-16.4461,-9.40637
-546,-363,-16.4727,9.99084,0.00300413,0.000561602,0.00114706,0.00345835,0.000107385,0.377038,0.00227062,0.0138357,678,1387,-16.4727,-9.9908
-539,-363,-16.4737,10.5935,0.00293335,0.000508471,0.0012163,0.00343829,3.53041e-06,0.393494,0.00229102,0.0154711,685,1387,-16.4737,-10.5936
-532,-363,-16.52,11.183,0.00307897,0.00053572,0.0014208,0.0037141,-9.94105e-05,0.420375,0.00250986,0.0135371,692,1387,-16.52,-11.183
-525,-363,-16.5409,11.7664,0.00349261,0.000688869,0.00179898,0.00437143,-0.000189953,0.454415,0.00297963,0.011665,699,1387,-16.5409,-11.7663
-518,-363,-16.5205,12.3672,0.00410767,0.000942424,0.00229924,0.00531632,-0.000266222,0.483974,0.0036362,0.010407,706,1387,-16.5205,-12.3671
-511,-363,-16.438,13.0088,0.00508679,0.00131472,0.00302833,0.00676837,-0.000366858,0.506891,0.00463937,0.0273937,713,1387,-16.438,-13.0088
-504,-363,-16.317,13.6892,0,0,0,0,0,0,0,-1,720,1387,-16.317,-13.6892
-497,-363,-7.18842,7.29944,0,0,0,0,0,0,0,-1,727,1387,-7.18839,-7.29945
-490,-363,-5.42413,4.6958,0,0,0,0,0,0,0,-1,734,1387,-5.42412,-4.69583
-483,-363,-6.28375,4.1394,0,0,0,0,0,0,0,-1,741,1387,-6.28374,-4.13944
-476,-363,-5.83807,4.31018,0,0,0,0,0,0,0,-1,748,1387,-5.8381,-4.31013
-469,-363,-10.7125,0.697754,0,0,0,0,0,0,0,-1,755,1387,-10.7125,-0.697811
-462,-363,-9.55951,-0.0830078,0,0,0,0,0,0,0,-1,762,1387,-9.55949,0.0830163
-455,-363,-13.1008,-0.290894,0,0,0,0,0,0,0,-1,769,1387,-13.1008,0.290921
-448,-363,-11.7324,2.46606,0,0,0,0,0,0,0,-1,776,1387,-11.7324,-2.46605
-441,-363,-12.4464,2.5354,0,0,0,0,0,0,0,-1,783,1387,-12.4463,-2.53537
-434,-363,-13.6918,2.14661,0,0,0,0,0,0,0,-1,790,1387,-13.6918,-2.14662
-427,-363,0,0,0,0,0,0,0,0,0,-1,797,1387,0,0
-420,-363,0,0,0,0,0,0,0,0,0,-1,804,1387,0,0
-413,-363,0,0,0,0,0,0,0,0,0,-1,811,1387,0,0
-406,-363,0,0,0,0,0,0,0,0,0,-1,818,1387,0,0
-399,-363,0,0,0,0,0,0,0,0,0,-1,825,1387,0,0
-392,-363,0,0,0,0,0,0,0,0,0,-1,832,1387,0,0
-385,-363,0,0,0,0,0,0,0,0,0,-1,839,1387,0,0
-378,-363,0,0,0,0,0,0,0,0,0,-1,846,1387,0,0
-371,-363,0,0,0,0,0,0,0,0,0,-1,853,1387,0,0
-364,-363,0,0,0,0,0,0,0,0,0,-1,860,1387,0,0
-357,-363,0,0,0,0,0,0,0,0,0,-1,867,1387,0,0
-350,-363,0,0,0,0,0,0,0,0,0,-1,874,1387,0,0
-343,-363,0,0,0,0,0,0,0,0,0,-1,881,1387,0,0
-336,-363,0,0,0,0,0,0,0,0,0,-1,888,1387,0,0
-329,-363,0,0,0,0,0,0,0,0,0,-1,895,1387,0,0
-322,-363,0,0,0,0,0,0,0,0,0,-1,902,1387,0,0
-315,-363,0,0,0,0,0,0,0,0,0,-1,909,1387,0,0
-308,-363,0,0,0,0,0,0,0,0,0,-1,916,1387,0,0
-301,-363,0,0,0,0,0,0,0,0,0,-1,923,1387,0,0
-294,-363,0,0,0,0,0,0,0,0,0,-1,930,1387,0,0
-287,-363,0,0,0,0,0,0,0,0,0,-1,937,1387,0,0
-280,-363,0,0,0,0,0,0,0,0,0,-1,944,1387,0,0
-273,-363,0,0,0,0,0,0,0,0,0,-1,951,1387,0,0
-266,-363,0,0,0,0,0,0,0,0,0,-1,958,1387,0,0
-259,-363,0,0,0,0,0,0,0,0,0,-1,965,1387,0,0
-252,-363,0,0,0,0,0,0,0,0,0,-1,972,1387,0,0
-245,-363,0,0,0,0,0,0,0,0,0,-1,979,1387,0,0
-238,-363,0,0,0,0,0,0,0,0,0,-1,986,1387,0,0
-231,-363,0,0,0,0,0,0,0,0,0,-1,993,1387,0,0
-224,-363,0,0,0,0,0,0,0,0,0,-1,1000,1387,0,0
-217,-363,0,0,0,0,0,0,0,0,0,-1,1007,1387,0,0
-210,-363,0,0,0,0,0,0,0,0,0,-1,1014,1387,0,0
-203,-363,0,0,0,0,0,0,0,0,0,-1,1021,1387,0,0
-196,-363,0,0,0,0,0,0,0,0,0,-1,1028,1387,0,0
-189,-363,0,0,0,0,0,0,0,0,0,-1,1035,1387,0,0
-182,-363,0,0,0,0,0,0,0,0,0,-1,1042,1387,0,0
-175,-363,0,0,0,0,0,0,0,0,0,-1,1049,1387,0,0
-168,-363,0,0,0,0,0,0,0,0,0,-1,1056,1387,0,0
-161,-363,0,0,0,0,0,0,0,0,0,-1,1063,1387,0,0
-154,-363,0,0,0,0,0,0,0,0,0,-1,1070,1387,0,0
-147,-363,0,0,0,0,0,0,0,0,0,-1,1077,1387,0,0
-140,-363,0,0,0,0,0,0,0,0,0,-1,1084,1387,0,0
-133,-363,0,0,0,0,0,0,0,0,0,-1,1091,1387,0,0
-126,-363,0,0,0,0,0,0,0,0,0,-1,1098,1387,0,0
-119,-363,0,0,0,0,0,0,0,0,0,-1,1105,1387,0,0
-112,-363,0,0,0,0,0,0,0,0,0,-1,1112,1387,0,0
-105,-363,0,0,0,0,0,0,0,0,0,-1,1119,1387,0,0
-98,-363,0,0,0,0,0,0,0,0,0,-1,1126,1387,0,0
-91,-363,0,0,0,0,0,0,0,0,0,-1,1133,1387,0,0
-84,-363,0,0,0,0,0,0,0,0,0,-1,1140,1387,0,0
-77,-363,0,0,0,0,0,0,0,0,0,-1,1147,1387,0,0
-70,-363,0,0,0,0,0,0,0,0,0,-1,1154,1387,0,0
-63,-363,0,0,0,0,0,0,0,0,0,-1,1161,1387,0,0
-56,-363,0,0,0,0,0,0,0,0,0,-1,1168,1387,0,0
-49,-363,0,0,0,0,0,0,0,0,0,-1,1175,1387,0,0
-42,-363,0,0,0,0,0,0,0,0,0,-1,1182,1387,0,0
-35,-363,0,0,0,0,0,0,0,0,0,-1,1189,1387,0,0
-28,-363,0,0,0,0,0,0,0,0,0,-1,1196,1387,0,0
-21,-363,0,0,0,0,0,0,0,0,0,-1,1203,1387,0,0
-14,-363,0,0,0,0,0,0,0,0,0,-1,1210,1387,0,0
-7,-363,0,0,0,0,0,0,0,0,0,-1,1217,1387,0,0
0,-363,0,0,0,0,0,0,0,0,0,-1,1224,1387,0,0
7,-363,0,0,0,0,0,0,0,0,0,-1,1231,1387,0,0
14,-363,0,0,0,0,0,0,0,0,0,-1,1238,1387,0,0
21,-363,0,0,0,0,0,0,0,0,0,-1,1245,1387,0,0
28,-363,0,0,0,0,0,0,0,0,0,-1,1252,1387,0,0
35,-363,0,0,0,0,0,0,0,0,0,-1,1259,1387,0,0
42,-363,0,0,0,0,0,0,0,0,0,-1,1266,1387,0,0
49,-363,0,0,0,0,0,0,0,0,0,-1,1273,1387,0,0
56,-363,0,0,0,0,0,0,0,0,0,-1,1280,1387,0,0
63,-363,0,0,0,0,0,0,0,0,0,-1,1287,1387,0,0
70,-363,0,0,0,0,0,0,0,0,0,-1,1294,1387,0,0
77,-363,0,0,0,0,0,0,0,0,0,-1,1301,1387,0,0
84,-363,0,0,0,0,0,0,0,0,0,-1,1308,1387,0,0
91,-363,0,0,0,0,0,0,0,0,0,-1,1315,1387,0,0
98,-363,0,0,0,0,0,0,0,0,0,-1,1322,1387,0,0
105,-363,0,0,0,0,0,0,0,0,0,-1,1329,1387,0,0
112,-363,0,0,0,0,0,0,0,0,0,-1,1336,1387,0,0
119,-363,0,0,0,0,0,0,0,0,0,-1,1343,1387,0,0
126,-363,0,0,0,0,0,0,0,0,0,-1,1350,1387,0,0
133,-363,0,0,0,0,0,0,0,0,0,-1,1357,1387,0,0
140,-363,0,0,0,0,0,0,0,0,0,-1,1364,1387,0,0
147,-363,0,0,0,0,0,0,0,0,0,-1,1371,1387,0,0
154,-363,0,0,0,0,0,0,0,0,0,-1,1378,1387,0,0
161,-363,0,0,0,0,0,0,0,0,0,-1,1385,1387,0,0
168,-363,0,0,0,0,0,0,0,0,0,-1,1392,1387,0,0
175,-363,0,0,0,0,0,0,0,0,0,-1,1399,1387,0,0
182,-363,0,0,0,0,0,0,0,0,0,-1,1406,1387,0,0
189,-363,0,0,0,0,0,0,0,0,0,-1,1413,1387,0,0
196,-363,0,0,0,0,0,0,0,0,0,-1,1420,1387,0,0
203,-363,0,0,0,0,0,0,0,0,0,-1,1427,1387,0,0
210,-363,0,0,0,0,0,0,0,0,0,-1,1434,1387,0,0
217,-363,0,0,0,0,0,0,0,0,0,-1,1441,1387,0,0
224,-363,0,0,0,0,0,0,0,0,0,-1,1448,1387,0,0
231,-363,0,0,0,0,0,0,0,0,0,-1,1455,1387,0,0
238,-363,0,0,0,0,0,0,0,0,0,-1,1462,1387,0,0
245,-363,0,0,0,0,0,0,0,0,0,-1,1469,1387,0,0
252,-363,0,0,0,0,0,0,0,0,0,-1,1476,1387,0,0
259,-363,0,0,0,0,0,0,0,0,0,-1,1483,1387,0,0
266,-363,0,0,0,0,0,0,0,0,0,-1,1490,1387,0,0
273,-363,0,0,0,0,0,0,0,0,0,-1,1497,1387,0,0
280,-363,0,0,0,0,0,0,0,0,0,-1,1504,1387,0,0
287,-363,0,0,0,0,0,0,0,0,0,-1,1511,1387,0,0
294,-363,0,0,0,0,0,0,0,0,0,-1,1518,1387,0,0
301,-363,0,0,0,0,0,0,0,0,0,-1,1525,1387,0,0
308,-363,0,0,0,0,0,0,0,0,0,-1,1532,1387,0,0
315,-363,0,0,0,0,0,0,0,0,0,-1,1539,1387,0,0
322,-363,0,0,0,0,0,0,0,0,0,-1,1546,1387,0,0
329,-363,0,0,0,0,0,0,0,0,0,-1,1553,1387,0,0
336,-363,0,0,0,0,0,0,0,0,0,-1,1560,1387,0,0
343,-363,0,0,0,0,0,0,0,0,0,-1,1567,1387,0,0
350,-363,0,0,0,0,0,0,0,0,0,-1,1574,1387,0,0
357,-363,0,0,0,0,0,0,0,0,0,-1,1581,1387,0,0
364,-363,0,0,0,0,0,0,0,0,0,-1,1588,1387,0,0
371,-363,0,0,0,0,0,0,0,0,0,-1,1595,1387,0,0
378,-363,0,0,0,0,0,0,0,0,0,-1,1602,1387,0,0
385,-363,0,0,0,0,0,0,0,0,0,-1,1609,1387,0,0
392,-363,0,0,0,0,0,0,0,0,0,-1,1616,1387,0,0
399,-363,0,0,0,0,0,0,0,0,0,-1,1623,1387,0,0
406,-363,0,0,0,0,0,0,0,0,0,-1,1630,1387,0,0
413,-363,0,0,0,0,0,0,0,0,0,-1,1637,1387,0,0
420,-363,0,0,0,0,0,0,0,0,0,-1,1644,1387,0,0
427,-363,0,0,0,0,0,0,0,0,0,-1,1651,1387,0,0
434,-363,0,0,0,0,0,0,0,0,0,-1,1658,1387,0,0
441,-363,0,0,0,0,0,0,0,0,0,-1,1665,1387,0,0
448,-363,0,0,0,0,0,0,0,0,0,-1,1672,1387,0,0
455,-363,0,0,0,0,0,0,0,0,0,-1,1679,1387,0,0
462,-363,0,0,0,0,0,0,0,0,0,-1,1686,1387,0,0
469,-363,0,0,0,0,0,0,0,0,0,-1,1693,1387,0,0
476,-363,0,0,0,0,0,0,0,0,0,-1,1700,1387,0,0
483,-363,0,0,0,0,0,0,0,0,0,-1,1707,1387,0,0
490,-363,0,0,0,0,0,0,0,0,0,-1,1714,1387,0,0
497,-363,0,0,0,0,0,0,0,0,0,-1,1721,1387,0,0
504,-363,0,0,0,0,0,0,0,0,0,-1,1728,1387,0,0
511,-363,0,0,0,0,0,0,0,0,0,-1,1735,1387,0,0
518,-363,0,0,0,0,0,0,0,0,0,-1,1742,1387,0,0
525,-363,0,0,0,0,0,0,0,0,0,-1,1749,1387,0,0
532,-363,0,0,0,0,0,0,0,0,0,-1,1756,1387,0,0
539,-363,0,0,0,0,0,0,0,0,0,-1,1763,1387,0,0
546,-363,0,0,0,0,0,0,0,0,0,-1,1770,1387,0,0
553,-363,45.9076,3.64331,0,0,0,0,0,0,0,-1,1777,1387,45.9076,-3.64336
560,-363,45.9459,3.6875,0,0,0,0,0,0,0,-1,1784,1387,45.9459,-3.68756
567,-363,45.9266,3.32825,0,0,0,0,0,0,0,-1,1791,1387,45.9266,-3.32824
574,-363,45.7261,2.8075,0,0,0,0,0,0,0,-1,1798,1387,45.7261,-2.80754
581,-363,39.2413,1.97632,0,0,0,0,0,0,0,-1,1805,1387,39.2413,-1.97636
588,-363,32.5608,6.72131,0,0,0,0,0,0,0,-1,1812,1387,32.5608,-6.72131
595,-363,31.4688,6.95435,0,0,0,0,0,0,0,-1,1819,1387,31.4688,-6.95431
602,-363,25.7437,5.33667,0,0,0,0,0,0,0,-1,1826,1387,25.7437,-5.33667
609,-363,27.7048,7.06885,0,0,0,0,0,0,0,-1,1833,1387,27.7048,-7.06882
616,-363,16.229,1.08704,0,0,0,0,0,0,0,-1,1840,1387,16.229,-1.08706
623,-363,15.7283,7.16663,0,0,0,0,0,0,0,-1,1847,1387,15.7282,-7.16665
630,-363,18.3192,9.27844,0,0,0,0,0,0,0,-1,1854,1387,18.3192,-9.27843
637,-363,31.6334,15.4055,0,0,0,0,0,0,0,-1,1861,1387,31.6334,-15.4055
644,-363,31.6775,14.7072,0.000234038,0.0017517,-0.00111125,0.00233849,-0.000352751,-1.08496,0.0016889,0.0167752,1868,1387,31.6775,-14.7071
651,-363,31.6879,14.0804,0.000141109,0.00096241,-0.000473943,0.00117886,-7.53414e-05,-1.14238,0.000812187,0.0109007,1875,1387,31.6878,-14.0804
658,-363,31.6724,13.5331,0.000484697,0.000378868,-9.36902e-05,0.000539382,0.000324182,-0.528337,0.000313524,0.0121169,1882,1387,31.6723,-13.533
665,-363,31.656,13.0481,0.00094397,-0.00013098,0.000181777,0.000973877,-0.000160887,0.163065,0.000708991,0.0126796,1889,1387,31.6561,-13.0481
672,-363,31.6366,12.5354,0.00151022,-0.000597866,0.000398385,0.00158299,-0.00067064,0.180681,0.0013362,0.0132782,1896,1387,31.6366,-12.5354
679,-363,31.6143,11.9869,0.00222013,-0.000982929,0.000516318,0.0023013,-0.0010641,0.155935,0.0019863,0.0147169,1903,1387,31.6142,-11.987
686,-363,31.5951,11.4354,0.00303935,-0.00132871,0.000580798,0.00311526,-0.00140462,0.129957,0.00267112,0.0151537,1910,1387,31.595,-11.4354
693,-363,31.5681,10.8733,0.00398562,-0.00158522,0.000560625,0.00404148,-0.00164107,0.099309,0.00337698,0.0139951,1917,1387,31.5681,-10.8733
700,-363,31.7097,10.3195,0.00512345,-0.00166477,0.000405503,0.00514758,-0.00168891,0.0594545,0.00411198,0.0265444,1924,1387,31.7097,-10.3195
707,-363,31.9852,9.79639,0,0,0,0,0,0,0,-1,1931,1387,31.9852,-9.79644
714,-363,16.5782,5.3147,0,0,0,0,0,0,0,-1,1938,1387,16.5783,-5.31472
721,-363,14.4045,4.51685,0,0,0,0,0,0,0,-1,1945,1387,14.4045,-4.51685
728,-363,19.9756,0.853027,0,0,0,0,0,0,0,-1,1952,1387,19.9756,-0.853059
735,-363,21.4297,1.2981,0,0,0,0,0,0,0,-1,1959,1387,21.4297,-1.29811
742,-363,21.3621,2.79663,0,0,0,0,0,0,0,-1,1966,1387,21.362,-2.7966
749,-363,0,0,0,0,0,0,0,0,0,-1,1973,1387,0,0
756,-363,0,0,0,0,0,0,0,0,0,-1,1980,1387,0,0
763,-363,0,0,0,0,0,0,0,0,0,-1,1987,1387,0,0
770,-363,0,0,0,0,0,0,0,0,0,-1,1994,1387,0,0
777,-363,0,0,0,0,0,0,0,0,0,-1,2001,1387,0,0
784,-363,0,0,0,0,0,0,0,0,0,-1,2008,1387,0,0
791,-363,0,0,0,0,0,0,0,0,0,-1,2015,1387,0,0
798,-363,0,0,0,0,0,0,0,0,0,-1,2022,1387,0,0
805,-363,0,0,0,0,0,0,0,0,0,-1,2029,1387,0,0
812,-363,0,0,0,0,0,0,0,0,0,-1,2036,1387,0,0
-700,-370,0,0,0,0,0,0,0,0,0,-1,524,1394,0,0
-693,-370,0,0,0,0,0,0,0,0,0,-1,531,1394,0,0
-686,-370,0,0,0,0,0,0,0,0,0,-1,538,1394,0,0
-679,-370,0,0,0,0,0,0,0,0,0,-1,545,1394,0,0
-672,-370,0,0,0,0,0,0,0,0,0,-1,552,1394,0,0
-665,-370,0,0,0,0,0,0,0,0,0,-1,559,1394,0,0
-658,-370,0,0,0,0,0,0,0,0,0,-1,566,1394,0,0
-651,-370,0,0,0,0,0,0,0,0,0,-1,573,1394,0,0
-644,-370,0,0,0,0,0,0,0,0,0,-1,580,1394,0,0
-637,-370,0,0,0,0,0,0,0,0,0,-1,587,1394,0,0
-630,-370,0,0,0,0,0,0,0,0,0,-1,594,1394,0,0
-623,-370,-10.1758,-7.10486,0,0,0,0,0,0,0,-1,601,1394,-10.1758,7.10483
-616,-370,-8.85925,-1.61475,0,0,0,0,0,0,0,-1,608,1394,-8.85925,1.61476
-609,-370,-5.39325,0.0421143,0,0,0,0,0,0,0,-1,615,1394,-5.39328,-0.0421372
-602,-370,-12.3151,3.44592,0,0,0,0,0,0,0,-1,622,1394,-12.3151,-3.44595
-595,-370,-7.53284,5.44214,0,0,0,0,0,0,0,-1,629,1394,-7.53284,-5.44216
-588,-370,-11.2422,4.50598,0,0,0,0,0,0,0,-1,636,1394,-11.2422,-4.50596
-581,-370,-13.1575,5.84888,0,0,0,0,0,0,0,-1,643,1394,-13.1575,-5.84887
-574,-370,-13.0107,6.69861,0,0,0,0,0,0,0,-1,650,1394,-13.0108,-6.69866
-567,-370,-15.8703,7.99719,0,0,0,0,0,0,0,-1,657,1394,-15.8703,-7.99724
-560,-370,-15.9219,8.78333,0.00403254,0.000800039,0.00143905,0.00458035,0.000252232,0.363733,0.00297306,0.0274969,664,1394,-15.922,-8.78333
-553,-370,-15.8528,9.4176,0.00350058,0.000717129,0.00126717,0.00399104,0.000226669,0.369294,0.00258845,0.0114797,671,1394,-15.8528,-9.41761
-546,-370,-15.8489,10.0179,0.0031147,0.000617469,0.00117254,0.00357894,0.000153225,0.376994,0.00233656,0.0148681,678,1394,-15.8489,-10.0179
-539,-370,-15.8412,10.6295,0.00290595,0.000552544,0.00116683,0.00338639,7.21023e-05,0.390593,0.00223395,0.0187982,685,1394,-15.8412,-10.6295
-532,-370,-15.9032,11.1859,0.00291373,0.000561032,0.00129251,0.00348506,-1.02953e-05,0.416206,0.00232681,0.020119,692,1394,-15.9032,-11.1859
-525,-370,-15.9367,11.7561,0.00321417,0.000734253,0.00162566,0.00401878,-7.03612e-05,0.459595,0.00270295,0.0184303,699,1394,-15.9367,-11.7561
-518,-370,-15.9469,12.3478,0.00376315,0.00109651,0.00215319,0.00496241,-0.000102759,0.508179,0.00334306,0.0134882,706,1394,-15.9469,-12.3478
-511,-370,-15.9321,12.9779,0.00463983,0.00161619,0.00289886,0.00639741,-0.000141394,0.545041,0.00431285,0.0158886,713,1394,-15.9322,-12.978
-504,-370,-15.9295,13.5894,0,0,0,0,0,0,0,-1,720,1394,-15.9295,-13.5894
-497,-370,-12.3546,11.7982,0,0,0,0,0,0,0,-1,727,1394,-12.3546,-11.7983
-490,-370,-5.30695,4.5271,0,0,0,0,0,0,0,-1,734,1394,-5.30698,-4.52704
-483,-370,-6.02997,4.59253,0,0,0,0,0,0,0,-1,741,1394,-6.02994,-4.5925
-476,-370,-6.75293,4.65796,0,0,0,0,0,0,0,-1,748,1394,-6.7529,-4.65795
-469,-370,-10.584,1.14294,0,0,0,0,0,0,0,-1,755,1394,-10.584,-1.14293
-462,-370,-9.54462,0.387207,0,0,0,0,0,0,0,-1,762,1394,-9.5446,-0.387176
-455,-370,-8.50525,-0.36853,0,0,0,0,0,0,0,-1,769,1394,-8.50523,0.368582
-448,-370,-10.9543,2.28833,0,0,0,0,0,0,0,-1,776,1394,-10.9543,-2.28835
-441,-370,-11.8699,1.8313,0,0,0,0,0,0,0,-1,783,1394,-11.8699,-1.83127
-434,-370,-12.7855,1.37415,0,0,0,0,0,0,0,-1,790,1394,-12.7855,-1.37419
-427,-370,0,0,0,0,0,0,0,0,0,-1,797,1394,0,0
-420,-370,0,0,0,0,0,0,0,0,0,-1,804,1394,0,0
-413,-370,0,0,0,0,0,0,0,0,0,-1,811,1394,0,0
-406,-370,0,0,0,0,0,0,0,0,0,-1,818,1394,0,0
-399,-370,0,0,0,0,0,0,0,0,0,-1,825,1394,0,0
-392,-370,0,0,0,0,0,0,0,0,0,-1,832,1394,0,0
-385,-370,0,0,0,0,0,0,0,0,0,-1,839,1394,0,0
-378,-370,0,0,0,0,0,0,0,0,0,-1,846,1394,0,0
-371,-370,0,0,0,0,0,0,0,0,0,-1,853,1394,0,0
-364,-370,0,0,0,0,0,0,0,0,0,-1,860,1394,0,0
-357,-370,0,0,0,0,0,0,0,0,0,-1,867,1394,0,0
-350,-370,0,0,0,0,0,0,0,0,0,-1,874,1394,0,0
-343,-370,0,0,0,0,0,0,0,0,0,-1,881,1394,0,0
-336,-370,0,0,0,0,0,0,0,0,0,-1,888,1394,0,0
-329,-370,0,0,0,0,0,0,0,0,0,-1,895,1394,0,0
-322,-370,0,0,0,0,0,0,0,0,0,-1,902,1394,0,0
-315,-370,0,0,0,0,0,0,0,0,0,-1,909,1394,0,0
-308,-370,0,0,0,0,0,0,0,0,0,-1,916,1394,0,0
-301,-370,0,0,0,0,0,0,0,0,0,-1,923,1394,0,0
-294,-370,0,0,0,0,0,0,0,0,0,-1,930,1394,0,0
-287,-370,0,0,0,0,0,0,0,0,0,-1,937,1394,0,0
-280,-370,0,0,0,0,0,0,0,0,0,-1,944,1394,0,0
-273,-370,0,0,0,0,0,0,0,0,0,-1,951,1394,0,0
-266,-370,0,0,0,0,0,0,0,0,0,-1,958,1394,0,0
-259,-370,0,0,0,0,0,0,0,0,0,-1,965,1394,0,0
-252,-370,0,0,0,0,0,0,0,0,0,-1,972,1394,0,0
-245,-370,0,0,0,0,0,0,0,0,0,-1,979,1394,0,0
-238,-370,0,0,0,0,0,0,0,0,0,-1,986,1394,0,0
-231,-370,0,0,0,0,0,0,0,0,0,-1,993,1394,0,0
-224,-370,0,0,0,0,0,0,0,0,0,-1,1000,1394,0,0
-217,-370,0,0,0,0,0,0,0,0,0,-1,1007,1394,0,0
-210,-370,0,0,0,0,0,0,0,0,0,-1,1014,1394,0,0
-203,-370,0,0,0,0,0,0,0,0,0,-1,1021,1394,0,0
-196,-370,0,0,0,0,0,0,0,0,0,-1,1028,1394,0,0
-189,-370,0,0,0,0,0,0,0,0,0,-1,1035,1394,0,0
-182,-370,0,0,0,0,0,0,0,0,0,-1,1042,1394,0,0
-175,-370,0,0,0,0,0,0,0,0,0,-1,1049,1394,0,0
-168,-370,0,0,0,0,0,0,0,0,0,-1,1056,1394,0,0
-161,-370,0,0,0,0,0,0,0,0,0,-1,1063,1394,0,0
-154,-370,0,0,0,0,0,0,0,0,0,-1,1070,1394,0,0
-147,-370,0,0,0,0,0,0,0,0,0,-1,1077,1394,0,0
-140,-370,0,0,0,0,0,0,0,0,0,-1,1084,1394,0,0
-133,-370,0,0,0,0,0,0,0,0,0,-1,1091,1394,0,0
-126,-370,0,0,0,0,0,0,0,0,0,-1,1098,1394,0,0
-119,-370,0,0,0,0,0,0,0,0,0,-1,1105,1394,0,0
-112,-370,0,0,0,0,0,0,0,0,0,-1,1112,1394,0,0
-105,-370,0,0,0,0,0,0,0,0,0,-1,1119,1394,0,0
-98,-370,0,0,0,0,0,0,0,0,0,-1,1126,1394,0,0
-91,-370,0,0,0,0,0,0,0,0,0,-1,1133,1394,0,0
-84,-370,0,0,0,0,0,0,0,0,0,-1,1140,1394,0,0
-77,-370,0,0,0,0,0,0,0,0,0,-1,1147,1394,0,0
-70,-370,0,0,0,0,0,0,0,0,0,-1,1154,1394,0,0
-63,-370,0,0,0,0,0,0,0,0,0,-1,1161,1394,0,0
-56,-370,0,0,0,0,0,0,0,0,0,-1,1168,1394,0,0
-49,-370,0,0,0,0,0,0,0,0,0,-1,1175,1394,0,0
-42,-370,0,0,0,0,0,0,0,0,0,-1,1182,1394,0,0
-35,-370,0,0,0,0,0,0,0,0,0,-1,1189,1394,0,0
-28,-370,0,0,0,0,0,0,0,0,0,-1,1196,1394,0,0
-21,-370,0,0,0,0,0,0,0,0,0,-1,1203,1394,0,0
-14,-370,0,0,0,0,0,0,0,0,0,-1,1210,1394,0,0
-7,-370,0,0,0,0,0,0,0,0,0,-1,1217,1394,0,0
0,-370,0,0,0,0,0,0,0,0,0,-1,1224,1394,0,0
7,-370,0,0,0,0,0,0,0,0,0,-1,1231,1394,0,0
14,-370,0,0,0,0,0,0,0,0,0,-1,1238,1394,0,0
21,-370,0,0,0,0,0,0,0,0,0,-1,1245,1394,0,0
28,-370,0,0,0,0,0,0,0,0,0,-1,1252,1394,0,0
35,-370,0,0,0,0,0,0,0,0,0,-1,1259,1394,0,0
42,-370,0,0,0,0,0,0,0,0,0,-1,1266,1394,0,0
49,-370,0,0,0,0,0,0,0,0,0,-1,1273,1394,0,0
56,-370,0,0,0,0,0,0,0,0,0,-1,1280,1394,0,0
63,-370,0,0,0,0,0,0,0,0,0,-1,1287,1394,0,0
70,-370,0,0,0,0,0,0,0,0,0,-1,1294,1394,0,0
77,-370,0,0,0,0,0,0,0,0,0,-1,1301,1394,0,0
84,-370,0,0,0,0,0,0,0,0,0,-1,1308,1394,0,0
91,-370,0,0,0,0,0,0,0,0,0,-1,1315,1394,0,0
98,-370,0,0,0,0,0,0,0,0,0,-1,1322,1394,0,0
105,-370,0,0,0,0,0,0,0,0,0,-1,1329,1394,0,0
112,-370,0,0,0,0,0,0,0,0,0,-1,1336,1394,0,0
119,-370,0,0,0,0,0,0,0,0,0,-1,1343,1394,0,0
126,-370,0,0,0,0,0,0,0,0,0,-1,1350,1394,0,0
133,-370,0,0,0,0,0,0,0,0,0,-1,1357,1394,0,0
140,-370,0,0,0,0,0,0,0,0,0,-1,1364,1394,0,0
147,-370,0,0,0,0,0,0,0,0,0,-1,1371,1394,0,0
154,-370,0,0,0,0,0,0,0,0,0,-1,1378,1394,0,0
161,-370,0,0,0,0,0,0,0,0,0,-1,1385,1394,0,0
168,-370,0,0,0,0,0,0,0,0,0,-1,1392,1394,0,0
175,-370,0,0,0,0,0,0,0,0,0,-1,1399,1394,0,0
182,-370,0,0,0,0,0,0,0,0,0,-1,1406,1394,0,0
189,-370,0,0,0,0,0,0,0,0,0,-1,1413,1394,0,0
196,-370,0,0,0,0,0,0,0,0,0,-1,1420,1394,0,0
203,-370,0,0,0,0,0,0,0,0,0,-1,1427,1394,0,0
210,-370,0,0,0,0,0,0,0,0,0,-1,1434,1394,0,0
217,-370,0,0,0,0,0,0,0,0,0,-1,1441,1394,0,0
224,-370,0,0,0,0,0,0,0,0,0,-1,1448,1394,0,0
231,-370,0,0,0,0,0,0,0,0,0,-1,1455,1394,0,0
238,-370,0,0,0,0,0,0,0,0,0,-1,1462,1394,0,0
245,-370,0,0,0,0,0,0,0,0,0,-1,1469,1394,0,0
252,-370,0,0,0,0,0,0,0,0,0,-1,1476,1394,0,0
259,-370,0,0,0,0,0,0,0,0,0,-1,1483,1394,0,0
266,-370,0,0,0,0,0,0,0,0,0,-1,1490,1394,0,0
273,-370,0,0,0,0,0,0,0,0,0,-1,1497,1394,0,0
280,-370,0,0,0,0,0,0,0,0,0,-1,1504,1394,0,0
287,-370,0,0,0,0,0,0,0,0,0,-1,1511,1394,0,0
294,-370,0,0,0,0,0,0,0,0,0,-1,1518,1394,0,0
301,-370,0,0,0,0,0,0,0,0,0,-1,1525,1394,0,0
308,-370,0,0,0,0,0,0,0,0,0,-1,1532,1394,0,0
315,-370,0,0,0,0,0,0,0,0,0,-1,1539,1394,0,0
322,-370,0,0,0,0,0,0,0,0,0,-1,1546,1394,0,0
329,-370,0,0,0,0,0,0,0,0,0,-1,1553,1394,0,0
336,-370,0,0,0,0,0,0,0,0,0,-1,1560,1394,0,0
343,-370,0,0,0,0,0,0,0,0,0,-1,1567,1394,0,0
350,-370,0,0,0,0,0,0,0,0,0,-1,1574,1394,0,0
357,-370,0,0,0,0,0,0,0,0,0,-1,1581,1394,0,0
364,-370,0,0,0,0,0,0,0,0,0,-1,1588,1394,0,0
371,-370,0,0,0,0,0,0,0,0,0,-1,1595,1394,0,0
378,-370,0,0,0,0,0,0,0,0,0,-1,1602,1394,0,0
385,-370,0,0,0,0,0,0,0,0,0,-1,1609,1394,0,0
392,-370,0,0,0,0,0,0,0,0,0,-1,1616,1394,0,0
399,-370,0,0,0,0,0,0,0,0,0,-1,1623,1394,0,0
406,-370,0,0,0,0,0,0,0,0,0,-1,1630,1394,0,0
413,-370,0,0,0,0,0,0,0,0,0,-1,1637,1394,0,0
420,-370,0,0,0,0,0,0,0,0,0,-1,1644,1394,0,0
427,-370,0,0,0,0,0,0,0,0,0,-1,1651,1394,0,0
434,-370,0,0,0,0,0,0,0,0,0,-1,1658,1394,0,0
441,-370,0,0,0,0,0,0,0,0,0,-1,1665,1394,0,0
448,-370,0,0,0,0,0,0,0,0,0,-1,1672,1394,0,0
455,-370,0,0,0,0,0,0,0,0,0,-1,1679,1394,0,0
462,-370,0,0,0,0,0,0,0,0,0,-1,1686,1394,0,0
469,-370,0,0,0,0,0,0,0,0,0,-1,1693,1394,0,0
476,-370,0,0,0,0,0,0,0,0,0,-1,1700,1394,0,0
483,-370,0,0,0,0,0,0,0,0,0,-1,1707,1394,0,0
490,-370,0,0,0,0,0,0,0,0,0,-1,1714,1394,0,0
497,-370,0,0,0,0,0,0,0,0,0,-1,1721,1394,0,0
504,-370,0,0,0,0,0,0,0,0,0,-1,1728,1394,0,0
511,-370,0,0,0,0,0,0,0,0,0,-1,1735,1394,0,0
518,-370,0,0,0,0,0,0,0,0,0,-1,1742,1394,0,0
525,-370,0,0,0,0,0,0,0,0,0,-1,1749,1394,0,0
532,-370,0,0,0,0,0,0,0,0,0,-1,1756,1394,0,0
539,-370,0,0,0,0,0,0,0,0,0,-1,1763,1394,0,0
546,-370,27.4949,2.81201,0,0,0,0,0,0,0,-1,1770,1394,27.4948,-2.81198
553,-370,26.5985,1.99329,0,0,0,0,0,0,0,-1,1777,1394,26.5985,-1.99327
560,-370,46.0132,3.65686,0,0,0,0,0,0,0,-1,1784,1394,46.0132,-3.65689
567,-370,46.1089,3.11719,0,0,0,0,0,0,0,-1,1791,1394,46.1089,-3.1172
574,-370,38.8953,1.49353,0,0,0,0,0,0,0,-1,1798,1394,38.8952,-1.49348
581,-370,39.178,2.86145,0,0,0,0,0,0,0,-1,1805,1394,39.1779,-2.86145
588,-370,39.2102,4.27661,0,0,0,0,0,0,0,-1,1812,1394,39.2102,-4.27657
595,-370,25.793,4.5271,0,0,0,0,0,0,0,-1,1819,1394,25.793,-4.52711
602,-370,25.1077,5.34937,0,0,0,0,0,0,0,-1,1826,1394,25.1077,-5.34932
609,-370,16.712,0.993286,0,0,0,0,0,0,0,-1,1833,1394,16.7121,-0.99323
616,-370,16.7764,7.23315,0,0,0,0,0,0,0,-1,1840,1394,16.7764,-7.23313
623,-370,17.6625,8.94263,0,0,0,0,0,0,0,-1,1847,1394,17.6624,-8.94258
630,-370,20.9681,11.1785,0,0,0,0,0,0,0,-1,1854,1394,20.9681,-11.1784
637,-370,31.1667,15.2386,0,0,0,0,0,0,0,-1,1861,1394,31.1667,-15.2387
644,-370,31.1555,14.6727,0.000242478,0.0015004,-0.000990559,0.00204481,-0.000301932,-1.06826,0.00147419,0.0142691,1868,1394,31.1555,-14.6727
651,-370,31.1316,14.1157,0.000302682,0.000786884,-0.000421317,0.00103071,5.88607e-05,-1.04618,0.000668381,0.0121448,1875,1394,31.1316,-14.1158
658,-370,31.1196,13.6008,0.000695917,0.000200694,-3.3385e-05,0.000698158,0.000198453,-0.06701,0.000415401,0.0118858,1882,1394,31.1197,-13.6008
665,-370,31.1033,13.0765,0.00119345,-0.000357868,0.000290522,0.00124607,-0.00041049,0.179188,0.000996147,0.0136919,1889,1394,31.1032,-13.0765
672,-370,31.0814,12.536,0.00181292,-0.000932986,0.000575049,0.00192848,-0.00104855,0.198321,0.00174364,0.0145659,1896,1394,31.0815,-12.536
679,-370,31.0859,11.9813,0.0025902,-0.00147449,0.000781626,0.00273533,-0.00161961,0.183577,0.00254168,0.0137594,1903,1394,31.086,-11.9813
686,-370,31.0653,11.4303,0.00348498,-0.00204722,0.000965104,0.00364851,-0.00221075,0.167849,0.00341663,0.0139278,1910,1394,31.0653,-11.4303
693,-370,31.024,10.8596,0.00455267,-0.00258158,0.00105189,0.00470453,-0.00273344,0.143379,0.00434429,0.0126661,1917,1394,31.024,-10.8597
700,-370,31.2197,10.2816,0.00588653,-0.00301636,0.00100654,0.0059989,-0.00312874,0.111188,0.00535599,0.038613,1924,1394,31.2197,-10.2816
707,-370,31.6127,9.63013,0,0,0,0,0,0,0,-1,1931,1394,31.6127,-9.63016
714,-370,16.9116,5.93018,0,0,0,0,0,0,0,-1,1938,1394,16.9116,-5.93014
721,-370,17.2007,4.69153,0,0,0,0,0,0,0,-1,1945,1394,17.2007,-4.69158
728,-370,20.5315,-0.313354,0,0,0,0,0,0,0,-1,1952,1394,20.5315,0.313332
735,-370,22.3652,0.233398,0,0,0,0,0,0,0,-1,1959,1394,22.3652,-0.233355
742,-370,24.1989,0.780029,0,0,0,0,0,0,0,-1,1966,1394,24.1989,-0.780041
749,-370,0,0,0,0,0,0,0,0,0,-1,1973,1394,0,0
756,-370,0,0,0,0,0,0,0,0,0,-1,1980,1394,0,0
763,-370,0,0,0,0,0,0,0,0,0,-1,1987,1394,0,0
770,-370,0,0,0,0,0,0,0,0,0,-1,1994,1394,0,0
777,-370,0,0,0,0,0,0,0,0,0,-1,2001,1394,0,0
784,-370,0,0,0,0,0,0,0,0,0,-1,2008,1394,0,0
791,-370,0,0,0,0,0,0,0,0,0,-1,2015,1394,0,0
798,-370,0,0,0,0,0,0,0,0,0,-1,2022,1394,0,0
805,-370,0,0,0,0,0,0,0,0,0,-1,2029,1394,0,0
812,-370,0,0,0,0,0,0,0,0,0,-1,2036,1394,0,0
-700,-377,0,0,0,0,0,0,0,0,0,-1,524,1401,0,0
-693,-377,0,0,0,0,0,0,0,0,0,-1,531,1401,0,0
-686,-377,0,0,0,0,0,0,0,0,0,-1,538,1401,0,0
-679,-377,0,0,0,0,0,0,0,0,0,-1,545,1401,0,0
-672,-377,0,0,0,0,0,0,0,0,0,-1,552,1401,0,0
-665,-377,0,0,0,0,0,0,0,0,0,-1,559,1401,0,0
-658,-377,0,0,0,0,0,0,0,0,0,-1,566,1401,0,0
-651,-377,0,0,0,0,0,0,0,0,0,-1,573,1401,0,0
-644,-377,0,0,0,0,0,0,0,0,0,-1,580,1401,0,0
-637,-377,0,0,0,0,0,0,0,0,0,-1,587,1401,0,0
-630,-377,0,0,0,0,0,0,0,0,0,-1,594,1401,0,0
-623,-377,0,0,0,0,0,0,0,0,0,-1,601,1401,0,0
-616,-377,-9.43915,-2.4906,0,0,0,0,0,0,0,-1,608,1401,-9.43915,2.49062
-609,-377,-7.2821,-1.35278,0,0,0,0,0,0,0,-1,615,1401,-7.28208,1.35279
-602,-377,-14.9736,3.98279,0,0,0,0,0,0,0,-1,622,1401,-14.9737,-3.98276
-595,-377,-6.9082,1.18201,0,0,0,0,0,0,0,-1,629,1401,-6.90822,-1.18204
-588,-377,-12.8003,3.44751,0,0,0,0,0,0,0,-1,636,1401,-12.8003,-3.44754
-581,-377,-11.8243,6.21521,0,0,0,0,0,0,0,-1,643,1401,-11.8244,-6.21519
-574,-377,-12.2761,6.60547,0,0,0,0,0,0,0,-1,650,1401,-12.2761,-6.60552
-567,-377,-13.4844,7.41931,0,0,0,0,0,0,0,-1,657,1401,-13.4845,-7.41926
-560,-377,-15.3262,8.72034,0,0,0,0,0,0,0,-1,664,1401,-15.3262,-8.72032
-553,-377,-15.2828,9.4165,0.00396811,0.000902279,0.00146159,0.00455323,0.000317158,0.380792,0.00293548,0.0150565,671,1401,-15.2828,-9.41648
-546,-377,-15.2823,10.0778,0.00334897,0.000747589,0.00126963,0.0038659,0.000230659,0.386656,0.00250393,0.0161266,678,1401,-15.2823,-10.0778
-539,-377,-15.2603,10.6351,0.00293568,0.000640583,0.00116722,0.00342497,0.000151285,0.396948,0.0022346,0.0224516,685,1401,-15.2603,-10.6352
-532,-377,-15.317,11.167,0.00275228,0.000596328,0.00118922,0.00327938,6.92285e-05,0.417212,0.00216355,0.0224353,692,1401,-15.317,-11.167
-525,-377,-15.2648,11.7976,0.00288945,0.000744189,0.00143592,0.00360914,2.4503e-05,0.464609,0.00239797,0.0239514,699,1401,-15.2648,-11.7977
-518,-377,-15.339,12.3768,0.00329579,0.0011317,0.00190197,0.00440196,2.55276e-05,0.526776,0.00292617,0.0157473,706,1401,-15.339,-12.3768
-511,-377,-15.361,12.983,0.00400704,0.00169238,0.00257017,0.00566843,3.09842e-05,0.573849,0.00376867,0.0129527,713,1401,-15.361,-12.9831
-504,-377,-15.3929,13.6001,0.00516348,0.00264258,0.003607,0.00772392,8.21417e-05,0.617308,0.00512212,0.0161394,720,1401,-15.3929,-13.6001
-497,-377,-15.2534,14.2662,0,0,0,0,0,0,0,-1,727,1401,-15.2534,-14.2663
-490,-377,-8.88409,10.1245,0,0,0,0,0,0,0,-1,734,1401,-8.8841,-10.1245
-483,-377,-5.6524,5.07324,0,0,0,0,0,0,0,-1,741,1401,-5.6524,-5.07325
-476,-377,-6.11682,5.10535,0,0,0,0,0,0,0,-1,748,1401,-6.11681,-5.10537
-469,-377,-10.3211,1.9281,0,0,0,0,0,0,0,-1,755,1401,-10.3211,-1.92808
-462,-377,-9.2204,1.0022,0,0,0,0,0,0,0,-1,762,1401,-9.22039,-1.00218
-455,-377,-8.11969,0.0762939,0,0,0,0,0,0,0,-1,769,1401,-8.11968,-0.0762759
-448,-377,-9.05334,0.877319,0,0,0,0,0,0,0,-1,776,1401,-9.05332,-0.877324
-441,-377,-11.212,0.763428,0,0,0,0,0,0,0,-1,783,1401,-11.212,-0.763415
-434,-377,-11.0984,0.996216,0,0,0,0,0,0,0,-1,790,1401,-11.0984,-0.996265
-427,-377,-11.1733,1.25732,0,0,0,0,0,0,0,-1,797,1401,-11.1733,-1.25732
-420,-377,0,0,0,0,0,0,0,0,0,-1,804,1401,0,0
-413,-377,0,0,0,0,0,0,0,0,0,-1,811,1401,0,0
-406,-377,0,0,0,0,0,0,0,0,0,-1,818,1401,0,0
-399,-377,0,0,0,0,0,0,0,0,0,-1,825,1401,0,0
-392,-377,0,0,0,0,0,0,0,0,0,-1,832,1401,0,0
-385,-377,0,0,0,0,0,0,0,0,0,-1,839,1401,0,0
-378,-377,0,0,0,0,0,0,0,0,0,-1,846,1401,0,0
-371,-377,0,0,0,0,0,0,0,0,0,-1,853,1401,0,0
-364,-377,0,0,0,0,0,0,0,0,0,-1,860,1401,0,0
-357,-377,0,0,0,0,0,0,0,0,0,-1,867,1401,0,0
-350,-377,0,0,0,0,0,0,0,0,0,-1,874,1401,0,0
-343,-377,0,0,0,0,0,0,0,0,0,-1,881,1401,0,0
-336,-377,0,0,0,0,0,0,0,0,0,-1,888,1401,0,0
-329,-377,0,0,0,0,0,0,0,0,0,-1,895,1401,0,0
-322,-377,0,0,0,0,0,0,0,0,0,-1,902,1401,0,0
-315,-377,0,0,0,0,0,0,0,0,0,-1,909,1401,0,0
-308,-377,0,0,0,0,0,0,0,0,0,-1,916,1401,0,0
-301,-377,0,0,0,0,0,0,0,0,0,-1,923,1401,0,0
-294,-377,0,0,0,0,0,0,0,0,0,-1,930,1401,0,0
-287,-377,0,0,0,0,0,0,0,0,0,-1,937,1401,0,0
-280,-377,0,0,0,0,0,0,0,0,0,-1,944,1401,0,0
-273,-377,0,0,0,0,0,0,0,0,0,-1,951,1401,0,0
-266,-377,0,0,0,0,0,0,0,0,0,-1,958,1401,0,0
-259,-377,0,0,0,0,0,0,0,0,0,-1,965,1401,0,0
-252,-377,0,0,0,0,0,0,0,0,0,-1,972,1401,0,0
-245,-377,0,0,0,0,0,0,0,0,0,-1,979,1401,0,0
-238,-377,0,0,0,0,0,0,0,0,0,-1,986,1401,0,0
-231,-377,0,0,0,0,0,0,0,0,0,-1,993,1401,0,0
-224,-377,0,0,0,0,0,0,0,0,0,-1,1000,1401,0,0
-217,-377,0,0,0,0,0,0,0,0,0,-1,1007,1401,0,0
-210,-377,0,0,0,0,0,0,0,0,0,-1,1014,1401,0,0
-203,-377,0,0,0,0,0,0,0,0,0,-1,1021,1401,0,0
-196,-377,0,0,0,0,0,0,0,0,0,-1,1028,1401,0,0
-189,-377,0,0,0,0,0,0,0,0,0,-1,1035,1401,0,0
-182,-377,0,0,0,0,0,0,0,0,0,-1,1042,1401,0,0
-175,-377,0,0,0,0,0,0,0,0,0,-1,1049,1401,0,0
-168,-377,0,0,0,0,0,0,0,0,0,-1,1056,1401,0,0
-161,-377,0,0,0,0,0,0,0,0,0,-1,1063,1401,0,0
-154,-377,0,0,0,0,0,0,0,0,0,-1,1070,1401,0,0
-147,-377,0,0,0,0,0,0,0,0,0,-1,1077,1401,0,0
-140,-377,0,0,0,0,0,0,0,0,0,-1,1084,1401,0,0
-133,-377,0,0,0,0,0,0,0,0,0,-1,1091,1401,0,0
-126,-377,0,0,0,0,0,0,0,0,0,-1,1098,1401,0,0
-119,-377,0,0,0,0,0,0,0,0,0,-1,1105,1401,0,0
-112,-377,0,0,0,0,0,0,0,0,0,-1,1112,1401,0,0
-105,-377,0,0,0,0,0,0,0,0,0,-1,1119,1401,0,0
-98,-377,0,0,0,0,0,0,0,0,0,-1,1126,1401,0,0
-91,-377,0,0,0,0,0,0,0,0,0,-1,1133,1401,0,0
-84,-377,0,0,0,0,0,0,0,0,0,-1,1140,1401,0,0
-77,-377,0,0,0,0,0,0,0,0,0,-1,1147,1401,0,0
-70,-377,0,0,0,0,0,0,0,0,0,-1,1154,1401,0,0
-63,-377,0,0,0,0,0,0,0,0,0,-1,1161,1401,0,0
-56,-377,0,0,0,0,0,0,0,0,0,-1,1168,1401,0,0
-49,-377,0,0,0,0,0,0,0,0,0,-1,1175,1401,0,0
-42,-377,0,0,0,0,0,0,0,0,0,-1,1182,1401,0,0
-35,-377,0,0,0,0,0,0,0,0,0,-1,1189,1401,0,0
-28,-377,0,0,0,0,0,0,0,0,0,-1,1196,1401,0,0
-21,-377,0,0,0,0,0,0,0,0,0,-1,1203,1401,0,0
-14,-377,0,0,0,0,0,0,0,0,0,-1,1210,1401,0,0
-7,-377,0,0,0,0,0,0,0,0,0,-1,1217,1401,0,0
0,-377,0,0,0,0,0,0,0,0,0,-1,1224,1401,0,0
7,-377,0,0,0,0,0,0,0,0,0,-1,1231,1401,0,0
14,-377,0,0,0,0,0,0,0,0,0,-1,1238,1401,0,0
21,-377,0,0,0,0,0,0,0,0,0,-1,1245,1401,0,0
28,-377,0,0,0,0,0,0,0,0,0,-1,1252,1401,0,0
35,-377,0,0,0,0,0,0,0,0,0,-1,1259,1401,0,0
42,-377,0,0,0,0,0,0,0,0,0,-1,1266,1401,0,0
49,-377,0,0,0,0,0,0,0,0,0,-1,1273,1401,0,0
56,-377,0,0,0,0,0,0,0,0,0,-1,1280,1401,0,0
63,-377,0,0,0,0,0,0,0,0,0,-1,1287,1401,0,0
70,-377,0,0,0,0,0,0,0,0,0,-1,1294,1401,0,0
77,-377,0,0,0,0,0,0,0,0,0,-1,1301,1401,0,0
84,-377,0,0,0,0,0,0,0,0,0,-1,1308,1401,0,0
91,-377,0,0,0,0,0,0,0,0,0,-1,1315,1401,0,0
98,-377,0,0,0,0,0,0,0,0,0,-1,1322,1401,0,0
105,-377,0,0,0,0,0,0,0,0,0,-1,1329,1401,0,0
112,-377,0,0,0,0,0,0,0,0,0,-1,1336,1401,0,0
119,-377,0,0,0,0,0,0,0,0,0,-1,1343,1401,0,0
126,-377,0,0,0,0,0,0,0,0,0,-1,1350,1401,0,0
133,-377,0,0,0,0,0,0,0,0,0,-1,1357,1401,0,0
140,-377,0,0,0,0,0,0,0,0,0,-1,1364,1401,0,0
147,-377,0,0,0,0,0,0,0,0,0,-1,1371,1401,0,0
154,-377,0,0,0,0,0,0,0,0,0,-1,1378,1401,0,0
161,-377,0,0,0,0,0,0,0,0,0,-1,1385,1401,0,0
168,-377,0,0,0,0,0,0,0,0,0,-1,1392,1401,0,0
175,-377,0,0,0,0,0,0,0,0,0,-1,1399,1401,0,0
182,-377,0,0,0,0,0,0,0,0,0,-1,1406,1401,0,0
189,-377,0,0,0,0,0,0,0,0,0,-1,1413,1401,0,0
196,-377,0,0,0,0,0,0,0,0,0,-1,1420,1401,0,0
203,-377,0,0,0,0,0,0,0,0,0,-1,1427,1401,0,0
210,-377,0,0,0,0,0,0,0,0,0,-1,1434,1401,0,0
217,-377,0,0,0,0,0,0,0,0,0,-1,1441,1401,0,0
224,-377,0,0,0,0,0,0,0,0,0,-1,1448,1401,0,0
231,-377,0,0,0,0,0,0,0,0,0,-1,1455,1401,0,0
238,-377,0,0,0,0,0,0,0,0,0,-1,1462,1401,0,0
245,-377,0,0,0,0,0,0,0,0,0,-1,1469,1401,0,0
252,-377,0,0,0,0,0,0,0,0,0,-1,1476,1401,0,0
259,-377,0,0,0,0,0,0,0,0,0,-1,1483,1401,0,0
266,-377,0,0,0,0,0,0,0,0,0,-1,1490,1401,0,0
273,-377,0,0,0,0,0,0,0,0,0,-1,1497,1401,0,0
280,-377,0,0,0,0,0,0,0,0,0,-1,1504,1401,0,0
287,-377,0,0,0,0,0,0,0,0,0,-1,1511,1401,0,0
294,-377,0,0,0,0,0,0,0,0,0,-1,1518,1401,0,0
301,-377,0,0,0,0,0,0,0,0,0,-1,1525,1401,0,0
308,-377,0,0,0,0,0,0,0,0,0,-1,1532,1401,0,0
315,-377,0,0,0,0,0,0,0,0,0,-1,1539,1401,0,0
322,-377,0,0,0,0,0,0,0,0,0,-1,1546,1401,0,0
329,-377,0,0,0,0,0,0,0,0,0,-1,1553,1401,0,0
336,-377,0,0,0,0,0,0,0,0,0,-1,1560,1401,0,0
343,-377,0,0,0,0,0,0,0,0,0,-1,1567,1401,0,0
350,-377,0,0,0,0,0,0,0,0,0,-1,1574,1401,0,0
357,-377,0,0,0,0,0,0,0,0,0,-1,1581,1401,0,0
364,-377,0,0,0,0,0,0,0,0,0,-1,1588,1401,0,0
371,-377,0,0,0,0,0,0,0,0,0,-1,1595,1401,0,0
378,-377,0,0,0,0,0,0,0,0,0,-1,1602,1401,0,0
385,-377,0,0,0,0,0,0,0,0,0,-1,1609,1401,0,0
392,-377,0,0,0,0,0,0,0,0,0,-1,1616,1401,0,0
399,-377,0,0,0,0,0,0,0,0,0,-1,1623,1401,0,0
406,-377,0,0,0,0,0,0,0,0,0,-1,1630,1401,0,0
413,-377,0,0,0,0,0,0,0,0,0,-1,1637,1401,0,0
420,-377,0,0,0,0,0,0,0,0,0,-1,1644,1401,0,0
427,-377,0,0,0,0,0,0,0,0,0,-1,1651,1401,0,0
434,-377,0,0,0,0,0,0,0,0,0,-1,1658,1401,0,0
441,-377,0,0,0,0,0,0,0,0,0,-1,1665,1401,0,0
448,-377,0,0,0,0,0,0,0,0,0,-1,1672,1401,0,0
455,-377,0,0,0,0,0,0,0,0,0,-1,1679,1401,0,0
462,-377,0,0,0,0,0,0,0,0,0,-1,1686,1401,0,0
469,-377,0,0,0,0,0,0,0,0,0,-1,1693,1401,0,0
476,-377,0,0,0,0,0,0,0,0,0,-1,1700,1401,0,0
483,-377,0,0,0,0,0,0,0,0,0,-1,1707,1401,0,0
490,-377,0,0,0,0,0,0,0,0,0,-1,1714,1401,0,0
497,-377,0,0,0,0,0,0,0,0,0,-1,1721,1401,0,0
504,-377,0,0,0,0,0,0,0,0,0,-1,1728,1401,0,0
511,-377,0,0,0,0,0,0,0,0,0,-1,1735,1401,0,0
518,-377,0,0,0,0,0,0,0,0,0,-1,1742,1401,0,0
525,-377,0,0,0,0,0,0,0,0,0,-1,1749,1401,0,0
532,-377,0,0,0,0,0,0,0,0,0,-1,1756,1401,0,0
539,-377,0,0,0,0,0,0,0,0,0,-1,1763,1401,0,0
546,-377,27.8485,2.34094,0,0,0,0,0,0,0,-1,1770,1401,27.8486,-2.34091
553,-377,27.2189,2.42493,0,0,0,0,0,0,0,-1,1777,1401,27.2188,-2.42498
560,-377,38.3577,-2.15015,0,0,0,0,0,0,0,-1,1784,1401,38.3576,2.1501
567,-377,38.4889,-0.285645,0,0,0,0,0,0,0,-1,1791,1401,38.4889,0.2857
574,-377,38.6221,1.61694,0,0,0,0,0,0,0,-1,1798,1401,38.6221,-1.61689
581,-377,39.1818,3.76367,0,0,0,0,0,0,0,-1,1805,1401,39.1818,-3.76366
588,-377,25.882,4.35217,0,0,0,0,0,0,0,-1,1812,1401,25.8819,-4.3522
595,-377,25.5392,5.11804,0,0,0,0,0,0,0,-1,1819,1401,25.5392,-5.11808
602,-377,24.816,5.79126,0,0,0,0,0,0,0,-1,1826,1401,24.816,-5.79124
609,-377,15.0223,4.76135,0,0,0,0,0,0,0,-1,1833,1401,15.0224,-4.76129
616,-377,14.1842,5.78992,0,0,0,0,0,0,0,-1,1840,1401,14.1842,-5.78987
623,-377,15.8248,8.76721,0,0,0,0,0,0,0,-1,1847,1401,15.8248,-8.76725
630,-377,30.1902,16.1423,0,0,0,0,0,0,0,-1,1854,1401,30.1902,-16.1424
637,-377,30.5216,15.3043,0.000552179,0.00124867,-0.00116731,0.00211857,-0.000317723,-0.930361,0.00152933,0.0367248,1861,1401,30.5217,-15.3044
644,-377,30.6129,14.696,0.000449247,0.00111769,-0.000807262,0.00165718,-9.02448e-05,-0.981665,0.00113607,0.0132025,1868,1401,30.613,-14.696
651,-377,30.5767,14.1306,0.000576861,0.000501776,-0.000302153,0.000843795,0.000234842,-0.723589,0.000502873,0.0126679,1875,1401,30.5767,-14.1306
658,-377,30.5704,13.6201,0.000953465,-6.23539e-05,9.51055e-05,0.000962292,-7.11813e-05,0.0925527,0.000666524,0.0137901,1882,1401,30.5704,-13.6201
665,-377,30.5759,13.0516,0.001469,-0.000653947,0.000460212,0.00156447,-0.000749418,0.204549,0.00136327,0.0180354,1889,1401,30.576,-13.0517
672,-377,30.5615,12.5067,0.00213442,-0.00133065,0.000818757,0.00231814,-0.00151437,0.220735,0.00222887,0.017738,1896,1401,30.5616,-12.5068
679,-377,30.5071,11.9978,0.00296136,-0.00203989,0.00113751,0.00320792,-0.00228645,0.213457,0.00318701,0.0176597,1903,1401,30.5071,-11.9978
686,-377,30.4906,11.4695,0.00390524,-0.0028805,0.0014938,0.00421952,-0.00319479,0.207369,0.00429426,0.015556,1910,1401,30.4906,-11.4695
693,-377,30.5369,10.8876,0.00506892,-0.00376985,0.00176777,0.00540937,-0.0041103,0.190255,0.00551321,0.0166055,1917,1401,30.5368,-10.8876
700,-377,30.8959,10.3892,0,0,0,0,0,0,0,-1,1924,1401,30.8959,-10.3892
707,-377,28.6234,9.18152,0,0,0,0,0,0,0,-1,1931,1401,28.6234,-9.18151
714,-377,16.5369,5.45959,0,0,0,0,0,0,0,-1,1938,1401,16.5369,-5.4596
721,-377,17.0913,5.42529,0,0,0,0,0,0,0,-1,1945,1401,17.0914,-5.42529
728,-377,14.5396,2.79724,0,0,0,0,0,0,0,-1,1952,1401,14.5396,-2.7972
735,-377,23.2977,-0.991089,0,0,0,0,0,0,0,-1,1959,1401,23.2978,0.991076
742,-377,0,0,0,0,0,0,0,0,0,-1,1966,1401,0,0
749,-377,0,0,0,0,0,0,0,0,0,-1,1973,1401,0,0
756,-377,0,0,0,0,0,0,0,0,0,-1,1980,1401,0,0
763,-377,0,0,0,0,0,0,0,0,0,-1,1987,1401,0,0
770,-377,0,0,0,0,0,0,0,0,0,-1,1994,1401,0,0
777,-377,0,0,0,0,0,0,0,0,0,-1,2001,1401,0,0
784,-377,0,0,0,0,0,0,0,0,0,-1,2008,1401,0,0
791,-377,0,0,0,0,0,0,0,0,0,-1,2015,1401,0,0
798,-377,0,0,0,0,0,0,0,0,0,-1,2022,1401,0,0
805,-377,0,0,0,0,0,0,0,0,0,-1,2029,1401,0,0
812,-377,0,0,0,0,0,0,0,0,0,-1,2036,1401,0,0
-700,-384,0,0,0,0,0,0,0,0,0,-1,524,1408,0,0
-693,-384,0,0,0,0,0,0,0,0,0,-1,531,1408,0,0
-686,-384,0,0,0,0,0,0,0,0,0,-1,538,1408,0,0
-679,-384,0,0,0,0,0,0,0,0,0,-1,545,1408,0,0
-672,-384,0,0,0,0,0,0,0,0,0,-1,552,1408,0,0
-665,-384,0,0,0,0,0,0,0,0,0,-1,559,1408,0,0
-658,-384,0,0,0,0,0,0,0,0,0,-1,566,1408,0,0
-651,-384,0,0,0,0,0,0,0,0,0,-1,573,1408,0,0
-644,-384,0,0,0,0,0,0,0,0,0,-1,580,1408,0,0
-637,-384,0,0,0,0,0,0,0,0,0,-1,587,1408,0,0
-630,-384,0,0,0,0,0,0,0,0,0,-1,594,1408,0,0
-623,-384,0,0,0,0,0,0,0,0,0,-1,601,1408,0,0
-616,-384,-10.019,-3.36646,0,0,0,0,0,0,0,-1,608,1408,-10.019,3.36648
-609,-384,-7.72357,-2.3418,0,0,0,0,0,0,0,-1,615,1408,-7.72358,2.34182
-602,-384,-11.7632,-2.85156,0,0,0,0,0,0,0,-1,622,1408,-11.7632,2.85157
-595,-384,-10.2217,2.8855,0,0,0,0,0,0,0,-1,629,1408,-10.2218,-2.88548
-588,-384,-12.1653,2.29041,0,0,0,0,0,0,0,-1,636,1408,-12.1654,-2.29038
-581,-384,-11.9297,3.60376,0,0,0,0,0,0,0,-1,643,1408,-11.9298,-3.6038
-574,-384,-11.8677,6.02722,0,0,0,0,0,0,0,-1,650,1408,-11.8677,-6.02722
-567,-384,-12.0743,7.04639,0,0,0,0,0,0,0,-1,657,1408,-12.0743,-7.04641
-560,-384,-14.8782,8.77515,0,0,0,0,0,0,0,-1,664,1408,-14.8782,-8.77509
-553,-384,-14.7354,9.45032,0.00429117,0.00113953,0.00167885,0.0050179,0.0004128,0.408522,0.00321651,0.0385584,671,1408,-14.7354,-9.45031
-546,-384,-14.705,10.1008,0.00350572,0.000888121,0.00138602,0.00410323,0.000290617,0.407022,0.00264394,0.0148889,678,1408,-14.7049,-10.1008
-539,-384,-14.7371,10.6571,0.00295928,0.000725154,0.00119094,0.00347506,0.000209379,0.408697,0.00225016,0.0182286,685,1408,-14.737,-10.6571
-532,-384,-14.7208,11.1743,0.00264802,0.000617241,0.00111119,0.00313788,0.000127385,0.415208,0.00205078,0.0254254,692,1408,-14.7208,-11.1743
-525,-384,-14.706,11.8407,0.00268318,0.000724764,0.00127466,0.00331133,9.66145e-05,0.45787,0.00217606,0.0246454,699,1408,-14.706,-11.8407
-518,-384,-14.7697,12.4329,0.003011,0.0011077,0.00168194,0.00399185,0.000126847,0.527949,0.00261997,0.0138407,706,1408,-14.7697,-12.4328
-511,-384,-14.7934,13.0258,0.00361597,0.001684,0.00228089,0.00512699,0.000172976,0.585094,0.00336182,0.0104908,713,1408,-14.7934,-13.0258
-504,-384,-14.8009,13.637,0.00463053,0.00261412,0.00321839,0.00699493,0.000249714,0.633607,0.00458232,0.0122504,720,1408,-14.8009,-13.637
-497,-384,-14.7745,14.2518,0.00614512,0.00400527,0.00462853,0.00982577,0.000324615,0.671814,0.00644503,0.0402406,727,1408,-14.7745,-14.2518
-490,-384,-14.6195,14.9689,0,0,0,0,0,0,0,-1,734,1408,-14.6195,-14.9689
-483,-384,-6.26471,7.61194,0,0,0,0,0,0,0,-1,741,1408,-6.26469,-7.61191
-476,-384,-6.02734,5.67761,0,0,0,0,0,0,0,-1,748,1408,-6.02736,-5.6776
-469,-384,-10.206,2.63721,0,0,0,0,0,0,0,-1,755,1408,-10.206,-2.6372
-462,-384,-9.04291,1.43542,0,0,0,0,0,0,0,-1,762,1408,-9.04293,-1.43545
-455,-384,-7.87988,0.233765,0,0,0,0,0,0,0,-1,769,1408,-7.87986,-0.233709
-448,-384,-9.35529,7.19226,0,0,0,0,0,0,0,-1,776,1408,-9.35531,-7.19226
-441,-384,-10.4697,1.79004,0,0,0,0,0,0,0,-1,783,1408,-10.4697,-1.79003
-434,-384,-10.6449,0.552246,0,0,0,0,0,0,0,-1,790,1408,-10.6449,-0.552216
-427,-384,-10.968,1.10583,0,0,0,0,0,0,0,-1,797,1408,-10.968,-1.10588
-420,-384,-12.5607,4.54858,0,0,0,0,0,0,0,-1,804,1408,-12.5607,-4.54859
-413,-384,0,0,0,0,0,0,0,0,0,-1,811,1408,0,0
-406,-384,0,0,0,0,0,0,0,0,0,-1,818,1408,0,0
-399,-384,0,0,0,0,0,0,0,0,0,-1,825,1408,0,0
-392,-384,0,0,0,0,0,0,0,0,0,-1,832,1408,0,0
-385,-384,0,0,0,0,0,0,0,0,0,-1,839,1408,0,0
-378,-384,0,0,0,0,0,0,0,0,0,-1,846,1408,0,0
-371,-384,0,0,0,0,0,0,0,0,0,-1,853,1408,0,0
-364,-384,0,0,0,0,0,0,0,0,0,-1,860,1408,0,0
-357,-384,0,0,0,0,0,0,0,0,0,-1,867,1408,0,0
-350,-384,0,0,0,0,0,0,0,0,0,-1,874,1408,0,0
-343,-384,0,0,0,0,0,0,0,0,0,-1,881,1408,0,0
-336,-384,0,0,0,0,0,0,0,0,0,-1,888,1408,0,0
-329,-384,0,0,0,0,0,0,0,0,0,-1,895,1408,0,0
-322,-384,0,0,0,0,0,0,0,0,0,-1,902,1408,0,0
-315,-384,0,0,0,0,0,0,0,0,0,-1,909,1408,0,0
-308,-384,0,0,0,0,0,0,0,0,0,-1,916,1408,0,0
-301,-384,0,0,0,0,0,0,0,0,0,-1,923,1408,0,0
-294,-384,0,0,0,0,0,0,0,0,0,-1,930,1408,0,0
-287,-384,0,0,0,0,0,0,0,0,0,-1,937,1408,0,0
-280,-384,0,0,0,0,0,0,0,0,0,-1,944,1408,0,0
-273,-384,0,0,0,0,0,0,0,0,0,-1,951,1408,0,0
-266,-384,0,0,0,0,0,0,0,0,0,-1,958,1408,0,0
-259,-384,0,0,0,0,0,0,0,0,0,-1,965,1408,0,0
-252,-384,0,0,0,0,0,0,0,0,0,-1,972,1408,0,0
-245,-384,0,0,0,0,0,0,0,0,0,-1,979,1408,0,0
-238,-384,0,0,0,0,0,0,0,0,0,-1,986,1408,0,0
-231,-384,0,0,0,0,0,0,0,0,0,-1,993,1408,0,0
-224,-384,0,0,0,0,0,0,0,0,0,-1,1000,1408,0,0
-217,-384,0,0,0,0,0,0,0,0,0,-1,1007,1408,0,0
-210,-384,0,0,0,0,0,0,0,0,0,-1,1014,1408,0,0
-203,-384,0,0,0,0,0,0,0,0,0,-1,1021,1408,0,0
-196,-384,0,0,0,0,0,0,0,0,0,-1,1028,1408,0,0
-189,-384,0,0,0,0,0,0,0,0,0,-1,1035,1408,0,0
-182,-384,0,0,0,0,0,0,0,0,0,-1,1042,1408,0,0
-175,-384,0,0,0,0,0,0,0,0,0,-1,1049,1408,0,0
-168,-384,0,0,0,0,0,0,0,0,0,-1,1056,1408,0,0
-161,-384,0,0,0,0,0,0,0,0,0,-1,1063,1408,0,0
-154,-384,0,0,0,0,0,0,0,0,0,-1,1070,1408,0,0
-147,-384,0,0,0,0,0,0,0,0,0,-1,1077,1408,0,0
-140,-384,0,0,0,0,0,0,0,0,0,-1,1084,1408,0,0
-133,-384,0,0,0,0,0,0,0,0,0,-1,1091,1408,0,0
-126,-384,0,0,0,0,0,0,0,0,0,-1,1098,1408,0,0
-119,-384,0,0,0,0,0,0,0,0,0,-1,1105,1408,0,0
-112,-384,0,0,0,0,0,0,0,0,0,-1,1112,1408,0,0
-105,-384,0,0,0,0,0,0,0,0,0,-1,1119,1408,0,0
-98,-384,0,0,0,0,0,0,0,0,0,-1,1126,1408,0,0
-91,-384,0,0,0,0,0,0,0,0,0,-1,1133,1408,0,0
-84,-384,0,0,0,0,0,0,0,0,0,-1,1140,1408,0,0
-77,-384,0,0,0,0,0,0,0,0,0,-1,1147,1408,0,0
-70,-384,0,0,0,0,0,0,0,0,0,-1,1154,1408,0,0
-63,-384,0,0,0,0,0,0,0,0,0,-1,1161,1408,0,0
-56,-384,0,0,0,0,0,0,0,0,0,-1,1168,1408,0,0
-49,-384,0,0,0,0,0,0,0,0,0,-1,1175,1408,0,0
-42,-384,0,0,0,0,0,0,0,0,0,-1,1182,1408,0,0
-35,-384,0,0,0,0,0,0,0,0,0,-1,1189,1408,0,0
-28,-384,0,0,0,0,0,0,0,0,0,-1,1196,1408,0,0
-21,-384,0,0,0,0,0,0,0,0,0,-1,1203,1408,0,0
-14,-384,0,0,0,0,0,0,0,0,0,-1,1210,1408,0,0
-7,-384,0,0,0,0,0,0,0,0,0,-1,1217,1408,0,0
0,-384,0,0,0,0,0,0,0,0,0,-1,1224,1408,0,0
7,-384,0,0,0,0,0,0,0,0,0,-1,1231,1408,0,0
14,-384,0,0,0,0,0,0,0,0,0,-1,1238,1408,0,0
21,-384,0,0,0,0,0,0,0,0,0,-1,1245,1408,0,0
28,-384,0,0,0,0,0,0,0,0,0,-1,1252,1408,0,0
35,-384,0,0,0,0,0,0,0,0,0,-1,1259,1408,0,0
42,-384,0,0,0,0,0,0,0,0,0,-1,1266,1408,0,0
49,-384,0,0,0,0,0,0,0,0,0,-1,1273,1408,0,0
56,-384,0,0,0,0,0,0,0,0,0,-1,1280,1408,0,0
63,-384,0,0,0,0,0,0,0,0,0,-1,1287,1408,0,0
70,-384,0,0,0,0,0,0,0,0,0,-1,1294,1408,0,0
77,-384,0,0,0,0,0,0,0,0,0,-1,1301,1408,0,0
84,-384,0,0,0,0,0,0,0,0,0,-1,1308,1408,0,0
91,-384,0,0,0,0,0,0,0,0,0,-1,1315,1408,0,0
98,-384,0,0,0,0,0,0,0,0,0,-1,1322,1408,0,0
105,-384,0,0,0,0,0,0,0,0,0,-1,1329,1408,0,0
112,-384,0,0,0,0,0,0,0,0,0,-1,1336,1408,0,0
119,-384,0,0,0,0,0,0,0,0,0,-1,1343,1408,0,0
126,-384,0,0,0,0,0,0,0,0,0,-1,1350,1408,0,0
133,-384,0,0,0,0,0,0,0,0,0,-1,1357,1408,0,0
140,-384,0,0,0,0,0,0,0,0,0,-1,1364,1408,0,0
147,-384,0,0,0,0,0,0,0,0,0,-1,1371,1408,0,0
154,-384,0,0,0,0,0,0,0,0,0,-1,1378,1408,0,0
161,-384,0,0,0,0,0,0,0,0,0,-1,1385,1408,0,0
168,-384,0,0,0,0,0,0,0,0,0,-1,1392,1408,0,0
175,-384,0,0,0,0,0,0,0,0,0,-1,1399,1408,0,0
182,-384,0,0,0,0,0,0,0,0,0,-1,1406,1408,0,0
189,-384,0,0,0,0,0,0,0,0,0,-1,1413,1408,0,0
196,-384,0,0,0,0,0,0,0,0,0,-1,1420,1408,0,0
203,-384,0,0,0,0,0,0,0,0,0,-1,1427,1408,0,0
210,-384,0,0,0,0,0,0,0,0,0,-1,1434,1408,0,0
217,-384,0,0,0,0,0,0,0,0,0,-1,1441,1408,0,0
224,-384,0,0,0,0,0,0,0,0,0,-1,1448,1408,0,0
231,-384,0,0,0,0,0,0,0,0,0,-1,1455,1408,0,0
238,-384,0,0,0,0,0,0,0,0,0,-1,1462,1408,0,0
245,-384,0,0,0,0,0,0,0,0,0,-1,1469,1408,0,0
252,-384,0,0,0,0,0,0,0,0,0,-1,1476,1408,0,0
259,-384,0,0,0,0,0,0,0,0,0,-1,1483,1408,0,0
266,-384,0,0,0,0,0,0,0,0,0,-1,1490,1408,0,0
273,-384,0,0,0,0,0,0,0,0,0,-1,1497,1408,0,0
280,-384,0,0,0,0,0,0,0,0,0,-1,1504,1408,0,0
287,-384,0,0,0,0,0,0,0,0,0,-1,1511,1408,0,0
294,-384,0,0,0,0,0,0,0,0,0,-1,1518,1408,0,0
301,-384,0,0,0,0,0,0,0,0,0,-1,1525,1408,0,0
308,-384,0,0,0,0,0,0,0,0,0,-1,1532,1408,0,0
315,-384,0,0,0,0,0,0,0,0,0,-1,1539,1408,0,0
322,-384,0,0,0,0,0,0,0,0,0,-1,1546,1408,0,0
329,-384,0,0,0,0,0,0,0,0,0,-1,1553,1408,0,0
336,-384,0,0,0,0,0,0,0,0,0,-1,1560,1408,0,0
343,-384,0,0,0,0,0,0,0,0,0,-1,1567,1408,0,0
350,-384,0,0,0,0,0,0,0,0,0,-1,1574,1408,0,0
357,-384,0,0,0,0,0,0,0,0,0,-1,1581,1408,0,0
364,-384,0,0,0,0,0,0,0,0,0,-1,1588,1408,0,0
371,-384,0,0,0,0,0,0,0,0,0,-1,1595,1408,0,0
378,-384,0,0,0,0,0,0,0,0,0,-1,1602,1408,0,0
385,-384,0,0,0,0,0,0,0,0,0,-1,1609,1408,0,0
392,-384,0,0,0,0,0,0,0,0,0,-1,1616,1408,0,0
399,-384,0,0,0,0,0,0,0,0,0,-1,1623,1408,0,0
406,-384,0,0,0,0,0,0,0,0,0,-1,1630,1408,0,0
413,-384,0,0,0,0,0,0,0,0,0,-1,1637,1408,0,0
420,-384,0,0,0,0,0,0,0,0,0,-1,1644,1408,0,0
427,-384,0,0,0,0,0,0,0,0,0,-1,1651,1408,0,0
434,-384,0,0,0,0,0,0,0,0,0,-1,1658,1408,0,0
441,-384,0,0,0,0,0,0,0,0,0,-1,1665,1408,0,0
448,-384,0,0,0,0,0,0,0,0,0,-1,1672,1408,0,0
455,-384,0,0,0,0,0,0,0,0,0,-1,1679,1408,0,0
462,-384,0,0,0,0,0,0,0,0,0,-1,1686,1408,0,0
469,-384,0,0,0,0,0,0,0,0,0,-1,1693,1408,0,0
476,-384,0,0,0,0,0,0,0,0,0,-1,1700,1408,0,0
483,-384,0,0,0,0,0,0,0,0,0,-1,1707,1408,0,0
490,-384,0,0,0,0,0,0,0,0,0,-1,1714,1408,0,0
497,-384,0,0,0,0,0,0,0,0,0,-1,1721,1408,0,0
504,-384,0,0,0,0,0,0,0,0,0,-1,1728,1408,0,0
511,-384,0,0,0,0,0,0,0,0,0,-1,1735,1408,0,0
518,-384,0,0,0,0,0,0,0,0,0,-1,1742,1408,0,0
525,-384,0,0,0,0,0,0,0,0,0,-1,1749,1408,0,0
532,-384,0,0,0,0,0,0,0,0,0,-1,1756,1408,0,0
539,-384,27.6886,2.85803,0,0,0,0,0,0,0,-1,1763,1408,27.6886,-2.85807
546,-384,27.5044,2.9425,0,0,0,0,0,0,0,-1,1770,1408,27.5044,-2.94255
553,-384,27.3052,2.78394,0,0,0,0,0,0,0,-1,1777,1408,27.3051,-2.78394
560,-384,26.833,3.19812,0,0,0,0,0,0,0,-1,1784,1408,26.833,-3.19816
567,-384,38.2566,0.109985,0,0,0,0,0,0,0,-1,1791,1408,38.2566,-0.110044
574,-384,38.4003,2.05945,0,0,0,0,0,0,0,-1,1798,1408,38.4003,-2.05949
581,-384,25.819,3.91846,0,0,0,0,0,0,0,-1,1805,1408,25.8189,-3.91848
588,-384,23.3721,4.25439,0,0,0,0,0,0,0,-1,1812,1408,23.3721,-4.25442
595,-384,24.981,5.59595,0,0,0,0,0,0,0,-1,1819,1408,24.981,-5.59598
602,-384,20.6605,4.17261,0,0,0,0,0,0,0,-1,1826,1408,20.6606,-4.17265
609,-384,14.158,5.49475,0,0,0,0,0,0,0,-1,1833,1408,14.158,-5.49474
616,-384,14.7997,7.6908,0,0,0,0,0,0,0,-1,1840,1408,14.7996,-7.69079
623,-384,16.4293,9.58899,0,0,0,0,0,0,0,-1,1847,1408,16.4294,-9.58901
630,-384,30.0313,15.8947,0,0,0,0,0,0,0,-1,1854,1408,30.0312,-15.8946
637,-384,30.0933,15.2615,0.000762564,0.00104104,-0.000997846,0.00190931,-0.000105713,-0.854719,0.00130954,0.0219622,1861,1408,30.0933,-15.2615
644,-384,30.0426,14.7289,0.000663669,0.000822094,-0.000634613,0.00138242,0.000103344,-0.847487,0.000889169,0.0161571,1868,1408,30.0426,-14.7289
651,-384,30.031,14.1487,0.000824541,0.000250244,-0.000175959,0.000874165,0.000200619,-0.274882,0.000528746,0.0143332,1875,1408,30.031,-14.1487
658,-384,30.0189,13.6144,0.0011791,-0.000318079,0.000240888,0.00121691,-0.000355882,0.155662,0.000952327,0.0153409,1882,1408,30.0189,-13.6144
665,-384,30.0278,13.0874,0.00169123,-0.000965026,0.00065524,0.00184407,-0.00111787,0.229159,0.00172712,0.0177036,1889,1408,30.0279,-13.0874
672,-384,30.0153,12.538,0.0023718,-0.00174353,0.00109806,0.00264646,-0.00201819,0.245099,0.00270126,0.0151396,1896,1408,30.0153,-12.538
679,-384,29.9683,11.9995,0.00321148,-0.00263835,0.00155569,0.00359947,-0.00302634,0.24441,0.00383018,0.015826,1903,1408,29.9683,-11.9995
686,-384,29.9468,11.4847,0.00414679,-0.00378376,0.00213942,0.00468712,-0.00432409,0.247388,0.00520404,0.0133969,1910,1408,29.9467,-11.4848
693,-384,29.9871,10.946,0.00532229,-0.00508648,0.00268838,0.00597563,-0.00573983,0.238404,0.00676438,0.0248414,1917,1408,29.9871,-10.9461
700,-384,30.0497,10.4274,0,0,0,0,0,0,0,-1,1924,1408,30.0497,-10.4274
707,-384,17.0566,6.62842,0,0,0,0,0,0,0,-1,1931,1408,17.0567,-6.62848
714,-384,16.038,5.0282,0,0,0,0,0,0,0,-1,1938,1408,16.038,-5.02819
721,-384,13.8843,2.8717,0,0,0,0,0,0,0,-1,1945,1408,13.8843,-2.87171
728,-384,15.4409,6.25745,0,0,0,0,0,0,0,-1,1952,1408,15.4409,-6.2574
735,-384,16.7598,6.71289,0,0,0,0,0,0,0,-1,1959,1408,16.7598,-6.71287
742,-384,0,0,0,0,0,0,0,0,0,-1,1966,1408,0,0
749,-384,0,0,0,0,0,0,0,0,0,-1,1973,1408,0,0
756,-384,0,0,0,0,0,0,0,0,0,-1,1980,1408,0,0
763,-384,0,0,0,0,0,0,0,0,0,-1,1987,1408,0,0
770,-384,0,0,0,0,0,0,0,0,0,-1,1994,1408,0,0
777,-384,0,0,0,0,0,0,0,0,0,-1,2001,1408,0,0
784,-384,0,0,0,0,0,0,0,0,0,-1,2008,1408,0,0
791,-384,0,0,0,0,0,0,0,0,0,-1,2015,1408,0,0
798,-384,0,0,0,0,0,0,0,0,0,-1,2022,1408,0,0
805,-384,0,0,0,0,0,0,0,0,0,-1,2029,1408,0,0
812,-384,0,0,0,0,0,0,0,0,0,-1,2036,1408,0,0
-700,-391,0,0,0,0,0,0,0,0,0,-1,524,1415,0,0
-693,-391,0,0,0,0,0,0,0,0,0,-1,531,1415,0,0
-686,-391,0,0,0,0,0,0,0,0,0,-1,538,1415,0,0
-679,-391,0,0,0,0,0,0,0,0,0,-1,545,1415,0,0
-672,-391,0,0,0,0,0,0,0,0,0,-1,552,1415,0,0
-665,-391,0,0,0,0,0,0,0,0,0,-1,559,1415,0,0
-658,-391,0,0,0,0,0,0,0,0,0,-1,566,1415,0,0
-651,-391,0,0,0,0,0,0,0,0,0,-1,573,1415,0,0
-644,-391,0,0,0,0,0,0,0,0,0,-1,580,1415,0,0
-637,-391,0,0,0,0,0,0,0,0,0,-1,587,1415,0,0
-630,-391,0,0,0,0,0,0,0,0,0,-1,594,1415,0,0
-623,-391,0,0,0,0,0,0,0,0,0,-1,601,1415,0,0
-616,-391,0,0,0,0,0,0,0,0,0,-1,608,1415,0,0
-609,-391,-7.71753,-3.69763,0,0,0,0,0,0,0,-1,615,1415,-7.71751,3.69759
-602,-391,-13.9493,-4.12805,0,0,0,0,0,0,0,-1,622,1415,-13.9493,4.12803
-595,-391,-10.8315,1.76172,0,0,0,0,0,0,0,-1,629,1415,-10.8315,-1.76171
-588,-391,-10.265,2.16431,0,0,0,0,0,0,0,-1,636,1415,-10.265,-2.16431
-581,-391,-11.3325,2.44836,0,0,0,0,0,0,0,-1,643,1415,-11.3325,-2.44842
-574,-391,-11.1471,6.19983,0,0,0,0,0,0,0,-1,650,1415,-11.1471,-6.19981
-567,-391,-11.5172,6.82458,0,0,0,0,0,0,0,-1,657,1415,-11.5171,-6.82454
-560,-391,-11.2459,7.37195,0,0,0,0,0,0,0,-1,664,1415,-11.2459,-7.37191
-553,-391,-14.2123,9.35657,0,0,0,0,0,0,0,-1,671,1415,-14.2123,-9.35662
-546,-391,-14.1241,10.0911,0.00376834,0.00115717,0.00160776,0.00453385,0.000391654,0.444375,0.00290084,0.0161999,678,1415,-14.1241,-10.0911
-539,-391,-14.0997,10.6741,0.00306501,0.000902759,0.00129837,0.00367344,0.000294331,0.438222,0.00235698,0.0157781,685,1415,-14.0997,-10.674
-532,-391,-14.0941,11.2557,0.00259413,0.000697837,0.00109939,0.00309775,0.000194211,0.429566,0.00200357,0.0264647,692,1415,-14.0941,-11.2558
-525,-391,-14.1268,11.9023,0.00249032,0.000723726,0.00115721,0.00306282,0.000151226,0.459419,0.00199338,0.0244207,699,1415,-14.1267,-11.9024
-518,-391,-14.2059,12.4762,0.0027177,0.00107775,0.00149973,0.00360698,0.000188467,0.535227,0.00234436,0.0143994,706,1415,-14.2059,-12.4762
-511,-391,-14.2038,13.0485,0.00320623,0.00164577,0.0020304,0.00460115,0.000250845,0.60196,0.00298733,0.0129627,713,1415,-14.2038,-13.0485
-504,-391,-14.2101,13.6488,0.0040705,0.00254614,0.00287798,0.00628552,0.000331123,0.655953,0.00408445,0.0119337,720,1415,-14.2101,-13.6488
-497,-391,-14.2225,14.2247,0.00536792,0.00388182,0.0041372,0.00882826,0.000421479,0.696545,0.00575017,0.0134438,727,1415,-14.2225,-14.2248
-490,-391,-14.1725,14.8257,0,0,0,0,0,0,0,-1,734,1415,-14.1725,-14.8257
-483,-391,-11.1018,12.9382,0,0,0,0,0,0,0,-1,741,1415,-11.1018,-12.9382
-476,-391,-6.05731,6.85303,0,0,0,0,0,0,0,-1,748,1415,-6.05728,-6.85304
-469,-391,-3.88953,5.0979,0,0,0,0,0,0,0,-1,755,1415,-3.88955,-5.09794
-462,-391,-8.67688,2.03125,0,0,0,0,0,0,0,-1,762,1415,-8.67685,-2.03121
-455,-391,-8.65576,6.46997,0,0,0,0,0,0,0,-1,769,1415,-8.65579,-6.46999
-448,-391,-8.39618,4.38403,0,0,0,0,0,0,0,-1,776,1415,-8.39617,-4.38405
-441,-391,-9.77704,2.5946,0,0,0,0,0,0,0,-1,783,1415,-9.77702,-2.5946
-434,-391,-11.5403,2.12878,0,0,0,0,0,0,0,-1,790,1415,-11.5403,-2.12881
-427,-391,-10.5311,2.50403,0,0,0,0,0,0,0,-1,797,1415,-10.5311,-2.504
-420,-391,-14.7087,1.24365,0,0,0,0,0,0,0,-1,804,1415,-14.7088,-1.24365
-413,-391,0,0,0,0,0,0,0,0,0,-1,811,1415,0,0
-406,-391,0,0,0,0,0,0,0,0,0,-1,818,1415,0,0
-399,-391,0,0,0,0,0,0,0,0,0,-1,825,1415,0,0
-392,-391,0,0,0,0,0,0,0,0,0,-1,832,1415,0,0
-385,-391,0,0,0,0,0,0,0,0,0,-1,839,1415,0,0
-378,-391,0,0,0,0,0,0,0,0,0,-1,846,1415,0,0
-371,-391,0,0,0,0,0,0,0,0,0,-1,853,1415,0,0
-364,-391,0,0,0,0,0,0,0,0,0,-1,860,1415,0,0
-357,-391,0,0,0,0,0,0,0,0,0,-1,867,1415,0,0
-350,-391,0,0,0,0,0,0,0,0,0,-1,874,1415,0,0
-343,-391,0,0,0,0,0,0,0,0,0,-1,881,1415,0,0
-336,-391,0,0,0,0,0,0,0,0,0,-1,888,1415,0,0
-329,-391,0,0,0,0,0,0,0,0,0,-1,895,1415,0,0
-322,-391,0,0,0,0,0,0,0,0,0,-1,902,1415,0,0
-315,-391,0,0,0,0,0,0,0,0,0,-1,909,1415,0,0
-308,-391,0,0,0,0,0,0,0,0,0,-1,916,1415,0,0
-301,-391,0,0,0,0,0,0,0,0,0,-1,923,1415,0,0
-294,-391,0,0,0,0,0,0,0,0,0,-1,930,1415,0,0
-287,-391,0,0,0,0,0,0,0,0,0,-1,937,1415,0,0
-280,-391,0,0,0,0,0,0,0,0,0,-1,944,1415,0,0
-273,-391,0,0,0,0,0,0,0,0,0,-1,951,1415,0,0
-266,-391,0,0,0,0,0,0,0,0,0,-1,958,1415,0,0
-259,-391,0,0,0,0,0,0,0,0,0,-1,965,1415,0,0
-252,-391,0,0,0,0,0,0,0,0,0,-1,972,1415,0,0
-245,-391,0,0,0,0,0,0,0,0,0,-1,979,1415,0,0
-238,-391,0,0,0,0,0,0,0,0,0,-1,986,1415,0,0
-231,-391,0,0,0,0,0,0,0,0,0,-1,993,1415,0,0
-224,-391,0,0,0,0,0,0,0,0,0,-1,1000,1415,0,0
-217,-391,0,0,0,0,0,0,0,0,0,-1,1007,1415,0,0
-210,-391,0,0,0,0,0,0,0,0,0,-1,1014,1415,0,0
-203,-391,0,0,0,0,0,0,0,0,0,-1,1021,1415,0,0
-196,-391,0,0,0,0,0,0,0,0,0,-1,1028,1415,0,0
-189,-391,0,0,0,0,0,0,0,0,0,-1,1035,1415,0,0
-182,-391,0,0,0,0,0,0,0,0,0,-1,1042,1415,0,0
-175,-391,0,0,0,0,0,0,0,0,0,-1,1049,1415,0,0
-168,-391,0,0,0,0,0,0,0,0,0,-1,1056,1415,0,0
-161,-391,0,0,0,0,0,0,0,0,0,-1,1063,1415,0,0
-154,-391,0,0,0,0,0,0,0,0,0,-1,1070,1415,0,0
-147,-391,0,0,0,0,0,0,0,0,0,-1,1077,1415,0,0
-140,-391,0,0,0,0,0,0,0,0,0,-1,1084,1415,0,0
-133,-391,0,0,0,0,0,0,0,0,0,-1,1091,1415,0,0
-126,-391,0,0,0,0,0,0,0,0,0,-1,1098,1415,0,0
-119,-391,0,0,0,0,0,0,0,0,0,-1,1105,1415,0,0
-112,-391,0,0,0,0,0,0,0,0,0,-1,1112,1415,0,0
-105,-391,0,0,0,0,0,0,0,0,0,-1,1119,1415,0,0
-98,-391,0,0,0,0,0,0,0,0,0,-1,1126,1415,0,0
-91,-391,0,0,0,0,0,0,0,0,0,-1,1133,1415,0,0
-84,-391,0,0,0,0,0,0,0,0,0,-1,1140,1415,0,0
-77,-391,0,0,0,0,0,0,0,0,0,-1,1147,1415,0,0
-70,-391,0,0,0,0,0,0,0,0,0,-1,1154,1415,0,0
-63,-391,0,0,0,0,0,0,0,0,0,-1,1161,1415,0,0
-56,-391,0,0,0,0,0,0,0,0,0,-1,1168,1415,0,0
-49,-391,0,0,0,0,0,0,0,0,0,-1,1175,1415,0,0
-42,-391,0,0,0,0,0,0,0,0,0,-1,1182,1415,0,0
-35,-391,0,0,0,0,0,0,0,0,0,-1,1189,1415,0,0
-28,-391,0,0,0,0,0,0,0,0,0,-1,1196,1415,0,0
-21,-391,0,0,0,0,0,0,0,0,0,-1,1203,1415,0,0
-14,-391,0,0,0,0,0,0,0,0,0,-1,1210,1415,0,0
-7,-391,0,0,0,0,0,0,0,0,0,-1,1217,1415,0,0
0,-391,0,0,0,0,0,0,0,0,0,-1,1224,1415,0,0
7,-391,0,0,0,0,0,0,0,0,0,-1,1231,1415,0,0
14,-391,0,0,0,0,0,0,0,0,0,-1,1238,1415,0,0
21,-391,0,0,0,0,0,0,0,0,0,-1,1245,1415,0,0
28,-391,0,0,0,0,0,0,0,0,0,-1,1252,1415,0,0
35,-391,0,0,0,0,0,0,0,0,0,-1,1259,1415,0,0
42,-391,0,0,0,0,0,0,0,0,0,-1,1266,1415,0,0
49,-391,0,0,0,0,0,0,0,0,0,-1,1273,1415,0,0
56,-391,0,0,0,0,0,0,0,0,0,-1,1280,1415,0,0
63,-391,0,0,0,0,0,0,0,0,0,-1,1287,1415,0,0
70,-391,0,0,0,0,0,0,0,0,0,-1,1294,1415,0,0
77,-391,0,0,0,0,0,0,0,0,0,-1,1301,1415,0,0
84,-391,0,0,0,0,0,0,0,0,0,-1,1308,1415,0,0
91,-391,0,0,0,0,0,0,0,0,0,-1,1315,1415,0,0
98,-391,0,0,0,0,0,0,0,0,0,-1,1322,1415,0,0
105,-391,0,0,0,0,0,0,0,0,0,-1,1329,1415,0,0
112,-391,0,0,0,0,0,0,0,0,0,-1,1336,1415,0,0
119,-391,0,0,0,0,0,0,0,0,0,-1,1343,1415,0,0
126,-391,0,0,0,0,0,0,0,0,0,-1,1350,1415,0,0
133,-391,0,0,0,0,0,0,0,0,0,-1,1357,1415,0,0
140,-391,0,0,0,0,0,0,0,0,0,-1,1364,1415,0,0
147,-391,0,0,0,0,0,0,0,0,0,-1,1371,1415,0,0
154,-391,0,0,0,0,0,0,0,0,0,-1,1378,1415,0,0
161,-391,0,0,0,0,0,0,0,0,0,-1,1385,1415,0,0
168,-391,0,0,0,0,0,0,0,0,0,-1,1392,1415,0,0
175,-391,0,0,0,0,0,0,0,0,0,-1,1399,1415,0,0
182,-391,0,0,0,0,0,0,0,0,0,-1,1406,1415,0,0
189,-391,0,0,0,0,0,0,0,0,0,-1,1413,1415,0,0
196,-391,0,0,0,0,0,0,0,0,0,-1,1420,1415,0,0
203,-391,0,0,0,0,0,0,0,0,0,-1,1427,1415,0,0
210,-391,0,0,0,0,0,0,0,0,0,-1,1434,1415,0,0
217,-391,0,0,0,0,0,0,0,0,0,-1,1441,1415,0,0
224,-391,0,0,0,0,0,0,0,0,0,-1,1448,1415,0,0
231,-391,0,0,0,0,0,0,0,0,0,-1,1455,1415,0,0
238,-391,0,0,0,0,0,0,0,0,0,-1,1462,1415,0,0
245,-391,0,0,0,0,0,0,0,0,0,-1,1469,1415,0,0
252,-391,0,0,0,0,0,0,0,0,0,-1,1476,1415,0,0
259,-391,0,0,0,0,0,0,0,0,0,-1,1483,1415,0,0
266,-391,0,0,0,0,0,0,0,0,0,-1,1490,1415,0,0
273,-391,0,0,0,0,0,0,0,0,0,-1,1497,1415,0,0
280,-391,0,0,0,0,0,0,0,0,0,-1,1504,1415,0,0
287,-391,0,0,0,0,0,0,0,0,0,-1,1511,1415,0,0
294,-391,0,0,0,0,0,0,0,0,0,-1,1518,1415,0,0
301,-391,0,0,0,0,0,0,0,0,0,-1,1525,1415,0,0
308,-391,0,0,0,0,0,0,0,0,0,-1,1532,1415,0,0
315,-391,0,0,0,0,0,0,0,0,0,-1,1539,1415,0,0
322,-391,0,0,0,0,0,0,0,0,0,-1,1546,1415,0,0
329,-391,0,0,0,0,0,0,0,0,0,-1,1553,1415,0,0
336,-391,0,0,0,0,0,0,0,0,0,-1,1560,1415,0,0
343,-391,0,0,0,0,0,0,0,0,0,-1,1567,1415,0,0
350,-391,0,0,0,0,0,0,0,0,0,-1,1574,1415,0,0
357,-391,0,0,0,0,0,0,0,0,0,-1,1581,1415,0,0
364,-391,0,0,0,0,0,0,0,0,0,-1,1588,1415,0,0
371,-391,0,0,0,0,0,0,0,0,0,-1,1595,1415,0,0
378,-391,0,0,0,0,0,0,0,0,0,-1,1602,1415,0,0
385,-391,0,0,0,0,0,0,0,0,0,-1,1609,1415,0,0
392,-391,0,0,0,0,0,0,0,0,0,-1,1616,1415,0,0
399,-391,0,0,0,0,0,0,0,0,0,-1,1623,1415,0,0
406,-391,0,0,0,0,0,0,0,0,0,-1,1630,1415,0,0
413,-391,0,0,0,0,0,0,0,0,0,-1,1637,1415,0,0
420,-391,0,0,0,0,0,0,0,0,0,-1,1644,1415,0,0
427,-391,0,0,0,0,0,0,0,0,0,-1,1651,1415,0,0
434,-391,0,0,0,0,0,0,0,0,0,-1,1658,1415,0,0
441,-391,0,0,0,0,0,0,0,0,0,-1,1665,1415,0,0
448,-391,0,0,0,0,0,0,0,0,0,-1,1672,1415,0,0
455,-391,0,0,0,0,0,0,0,0,0,-1,1679,1415,0,0
462,-391,0,0,0,0,0,0,0,0,0,-1,1686,1415,0,0
469,-391,0,0,0,0,0,0,0,0,0,-1,1693,1415,0,0
476,-391,0,0,0,0,0,0,0,0,0,-1,1700,1415,0,0
483,-391,0,0,0,0,0,0,0,0,0,-1,1707,1415,0,0
490,-391,0,0,0,0,0,0,0,0,0,-1,1714,1415,0,0
497,-391,0,0,0,0,0,0,0,0,0,-1,1721,1415,0,0
504,-391,0,0,0,0,0,0,0,0,0,-1,1728,1415,0,0
511,-391,0,0,0,0,0,0,0,0,0,-1,1735,1415,0,0
518,-391,0,0,0,0,0,0,0,0,0,-1,1742,1415,0,0
525,-391,0,0,0,0,0,0,0,0,0,-1,1749,1415,0,0
532,-391,28.5959,3.02356,0,0,0,0,0,0,0,-1,1756,1415,28.596,-3.02358
539,-391,27.5881,3.25012,0,0,0,0,0,0,0,-1,1763,1415,27.5882,-3.25016
546,-391,27.2837,3.28064,0,0,0,0,0,0,0,-1,1770,1415,27.2837,-3.28064
553,-391,32.5952,5.04553,0,0,0,0,0,0,0,-1,1777,1415,32.5952,-5.04551
560,-391,31.2947,5.67017,0,0,0,0,0,0,0,-1,1784,1415,31.2947,-5.67011
567,-391,30.1473,6.17603,0,0,0,0,0,0,0,-1,1791,1415,30.1473,-6.17602
574,-391,27.5656,5.6842,0,0,0,0,0,0,0,-1,1798,1415,27.5655,-5.68422
581,-391,25.8883,5.76123,0,0,0,0,0,0,0,-1,1805,1415,25.8883,-5.76124
588,-391,24.2717,5.47986,0,0,0,0,0,0,0,-1,1812,1415,24.2717,-5.47982
595,-391,22.8827,6.1991,0,0,0,0,0,0,0,-1,1819,1415,22.8827,-6.19909
602,-391,15.1635,5.69849,0,0,0,0,0,0,0,-1,1826,1415,15.1635,-5.69847
609,-391,14.8285,7.50476,0,0,0,0,0,0,0,-1,1833,1415,14.8285,-7.50479
616,-391,20.7952,12.0503,0,0,0,0,0,0,0,-1,1840,1415,20.7952,-12.0503
623,-391,29.5259,16.3198,0,0,0,0,0,0,0,-1,1847,1415,29.5259,-16.3199
630,-391,29.6528,15.7563,0.0012822,0.00135544,-0.00126492,0.00258427,5.33739e-05,-0.799869,0.00170534,0.0434457,1854,1415,29.6529,-15.7563
637,-391,29.5265,15.2941,0.000990878,0.000898025,-0.000859062,0.00180477,8.41361e-05,-0.758403,0.00117614,0.0185795,1861,1415,29.5265,-15.294
644,-391,29.4915,14.7375,0.000905087,0.000581249,-0.000489348,0.00125861,0.000227728,-0.625624,0.000774406,0.0178891,1868,1415,29.4915,-14.7375
651,-391,29.4907,14.2009,0.00108359,4.52565e-05,-7.30451e-05,0.0010887,4.0143e-05,-0.06989,0.000712795,0.0169343,1875,1415,29.4907,-14.2009
658,-391,29.4805,13.6598,0.00143249,-0.000523043,0.000347311,0.00149234,-0.000582895,0.170654,0.0012359,0.0186867,1882,1415,29.4805,-13.6597
665,-391,29.4587,13.132,0.00195618,-0.00122174,0.000804546,0.00214826,-0.00141381,0.234352,0.00207108,0.0151278,1889,1415,29.4588,-13.132
672,-391,29.4459,12.5852,0.00265472,-0.00209438,0.00133068,0.00300216,-0.00244181,0.255393,0.00314862,0.0122348,1896,1415,29.4459,-12.5852
679,-391,29.4286,12.0176,0.00349305,-0.00318894,0.00195086,0.00402092,-0.00371681,0.264254,0.00446853,0.0118848,1903,1415,29.4286,-12.0175
686,-391,29.4152,11.4939,0.00438261,-0.00469392,0.0028262,0.00519068,-0.00550198,0.278489,0.00617428,0.0131403,1910,1415,29.4152,-11.4939
693,-391,29.3921,11.1426,0.00550306,-0.00652126,0.00376676,0.00658558,-0.00760378,0.279847,0.00819926,0.034185,1917,1415,29.3921,-11.1426
700,-391,29.4594,10.7458,0,0,0,0,0,0,0,-1,1924,1415,29.4593,-10.7459
707,-391,12.9524,5.96851,0,0,0,0,0,0,0,-1,1931,1415,12.9524,-5.96849
714,-391,15.6875,7.67896,0,0,0,0,0,0,0,-1,1938,1415,15.6875,-7.67893
721,-391,14.1808,8.08435,0,0,0,0,0,0,0,-1,1945,1415,14.1808,-8.08439
728,-391,13.8102,7.28174,0,0,0,0,0,0,0,-1,1952,1415,13.8102,-7.28174
735,-391,0,0,0,0,0,0,0,0,0,-1,1959,1415,0,0
742,-391,0,0,0,0,0,0,0,0,0,-1,1966,1415,0,0
749,-391,0,0,0,0,0,0,0,0,0,-1,1973,1415,0,0
756,-391,0,0,0,0,0,0,0,0,0,-1,1980,1415,0,0
763,-391,0,0,0,0,0,0,0,0,0,-1,1987,1415,0,0
770,-391,0,0,0,0,0,0,0,0,0,-1,1994,1415,0,0
777,-391,0,0,0,0,0,0,0,0,0,-1,2001,1415,0,0
784,-391,0,0,0,0,0,0,0,0,0,-1,2008,1415,0,0
791,-391,0,0,0,0,0,0,0,0,0,-1,2015,1415,0,0
798,-391,0,0,0,0,0,0,0,0,0,-1,2022,1415,0,0
805,-391,0,0,0,0,0,0,0,0,0,-1,2029,1415,0,0
812,-391,0,0,0,0,0,0,0,0,0,-1,2036,1415,0,0
-700,-398,0,0,0,0,0,0,0,0,0,-1,524,1422,0,0
-693,-398,0,0,0,0,0,0,0,0,0,-1,531,1422,0,0
-686,-398,0,0,0,0,0,0,0,0,0,-1,538,1422,0,0
-679,-398,0,0,0,0,0,0,0,0,0,-1,545,1422,0,0
-672,-398,0,0,0,0,0,0,0,0,0,-1,552,1422,0,0
-665,-398,0,0,0,0,0,0,0,0,0,-1,559,1422,0,0
-658,-398,0,0,0,0,0,0,0,0,0,-1,566,1422,0,0
-651,-398,0,0,0,0,0,0,0,0,0,-1,573,1422,0,0
-644,-398,0,0,0,0,0,0,0,0,0,-1,580,1422,0,0
-637,-398,0,0,0,0,0,0,0,0,0,-1,587,1422,0,0
-630,-398,0,0,0,0,0,0,0,0,0,-1,594,1422,0,0
-623,-398,0,0,0,0,0,0,0,0,0,-1,601,1422,0,0
-616,-398,0,0,0,0,0,0,0,0,0,-1,608,1422,0,0
-609,-398,-7.47125,-4.05322,0,0,0,0,0,0,0,-1,615,1422,-7.47128,4.05317
-602,-398,-4.58868,-2.77026,0,0,0,0,0,0,0,-1,622,1422,-4.58869,2.77023
-595,-398,-12.2224,-1.82007,0,0,0,0,0,0,0,-1,629,1422,-12.2224,1.82006
-588,-398,-10.6939,1.32336,0,0,0,0,0,0,0,-1,636,1422,-10.6939,-1.32337
-581,-398,-10.433,3.1123,0,0,0,0,0,0,0,-1,643,1422,-10.433,-3.11233
-574,-398,-10.4475,5.89807,0,0,0,0,0,0,0,-1,650,1422,-10.4475,-5.89802
-567,-398,-10.4904,6.80115,0,0,0,0,0,0,0,-1,657,1422,-10.4904,-6.80115
-560,-398,-10.5333,7.70435,0,0,0,0,0,0,0,-1,664,1422,-10.5333,-7.70429
-553,-398,-13.5459,9.40759,0,0,0,0,0,0,0,-1,671,1422,-13.5459,-9.40753
-546,-398,-13.5479,10.103,0.0040643,0.00156095,0.00196617,0.0051434,0.000481853,0.501948,0.00328013,0.0273087,678,1422,-13.5478,-10.103
-539,-398,-13.4874,10.7301,0.00320732,0.00121371,0.00153475,0.00404056,0.000380467,0.49739,0.00257627,0.0135388,685,1422,-13.4874,-10.7301
-532,-398,-13.5182,11.3145,0.00256374,0.000888489,0.00119271,0.00318357,0.000268657,0.479269,0.00203874,0.0210144,692,1422,-13.5182,-11.3145
-525,-398,-13.5475,11.9354,0.00230314,0.000799189,0.0011104,0.00289223,0.000210101,0.487764,0.00186208,0.0196183,699,1422,-13.5475,-11.9354
-518,-398,-13.5867,12.5054,0.00242924,0.00108152,0.00135268,0.00326662,0.000244143,0.554307,0.0021011,0.017596,706,1422,-13.5867,-12.5053
-511,-398,-13.5981,13.052,0.0028104,0.00160692,0.00179606,0.00410284,0.000314476,0.623757,0.00263666,0.0138738,713,1422,-13.5981,-13.0519
-504,-398,-13.6216,13.6638,0.00352753,0.00244254,0.00253092,0.00557344,0.000396627,0.679822,0.00359073,0.0137642,720,1422,-13.6216,-13.6638
-497,-398,-13.6432,14.2408,0.00463154,0.00369098,0.00362808,0.00781969,0.000502822,0.720947,0.00505387,0.0103367,727,1422,-13.6432,-14.2409
-490,-398,-13.643,14.8372,0.00627828,0.0055532,0.00519383,0.0111222,0.000709269,0.750554,0.00719006,0.0190745,734,1422,-13.643,-14.8371
-483,-398,-13.6306,15.4774,0,0,0,0,0,0,0,-1,741,1422,-13.6306,-15.4774
-476,-398,-8.64392,11.9448,0,0,0,0,0,0,0,-1,748,1422,-8.6439,-11.9448
-469,-398,-8.91699,10.6276,0,0,0,0,0,0,0,-1,755,1422,-8.91697,-10.6275
-462,-398,-9.59753,9.32532,0,0,0,0,0,0,0,-1,762,1422,-9.59753,-9.32531
-455,-398,-8.08331,6.75024,0,0,0,0,0,0,0,-1,769,1422,-8.08333,-6.75022
-448,-398,-7.4505,5.25293,0,0,0,0,0,0,0,-1,776,1422,-7.4505,-5.25291
-441,-398,-7.61639,3.32141,0,0,0,0,0,0,0,-1,783,1422,-7.61637,-3.32145
-434,-398,-10.7618,3.297,0,0,0,0,0,0,0,-1,790,1422,-10.7618,-3.29704
-427,-398,-11.9061,2.24939,0,0,0,0,0,0,0,-1,797,1422,-11.9061,-2.24941
-420,-398,-13.467,2.32788,0,0,0,0,0,0,0,-1,804,1422,-13.467,-2.32787
-413,-398,-14.7983,2.15515,0,0,0,0,0,0,0,-1,811,1422,-14.7983,-2.15516
-406,-398,0,0,0,0,0,0,0,0,0,-1,818,1422,0,0
-399,-398,0,0,0,0,0,0,0,0,0,-1,825,1422,0,0
-392,-398,0,0,0,0,0,0,0,0,0,-1,832,1422,0,0
-385,-398,0,0,0,0,0,0,0,0,0,-1,839,1422,0,0
-378,-398,0,0,0,0,0,0,0,0,0,-1,846,1422,0,0
-371,-398,0,0,0,0,0,0,0,0,0,-1,853,1422,0,0
-364,-398,0,0,0,0,0,0,0,0,0,-1,860,1422,0,0
-357,-398,0,0,0,0,0,0,0,0,0,-1,867,1422,0,0
-350,-398,0,0,0,0,0,0,0,0,0,-1,874,1422,0,0
-343,-398,0,0,0,0,0,0,0,0,0,-1,881,1422,0,0
-336,-398,0,0,0,0,0,0,0,0,0,-1,888,1422,0,0
-329,-398,0,0,0,0,0,0,0,0,0,-1,895,1422,0,0
-322,-398,0,0,0,0,0,0,0,0,0,-1,902,1422,0,0
-315,-398,0,0,0,0,0,0,0,0,0,-1,909,1422,0,0
-308,-398,0,0,0,0,0,0,0,0,0,-1,916,1422,0,0
-301,-398,0,0,0,0,0,0,0,0,0,-1,923,1422,0,0
-294,-398,0,0,0,0,0,0,0,0,0,-1,930,1422,0,0
-287,-398,0,0,0,0,0,0,0,0,0,-1,937,1422,0,0
-280,-398,0,0,0,0,0,0,0,0,0,-1,944,1422,0,0
-273,-398,0,0,0,0,0,0,0,0,0,-1,951,1422,0,0
-266,-398,0,0,0,0,0,0,0,0,0,-1,958,1422,0,0
-259,-398,0,0,0,0,0,0,0,0,0,-1,965,1422,0,0
-252,-398,0,0,0,0,0,0,0,0,0,-1,972,1422,0,0
-245,-398,0,0,0,0,0,0,0,0,0,-1,979,1422,0,0
-238,-398,0,0,0,0,0,0,0,0,0,-1,986,1422,0,0
-231,-398,0,0,0,0,0,0,0,0,0,-1,993,1422,0,0
-224,-398,0,0,0,0,0,0,0,0,0,-1,1000,1422,0,0
-217,-398,0,0,0,0,0,0,0,0,0,-1,1007,1422,0,0
-210,-398,0,0,0,0,0,0,0,0,0,-1,1014,1422,0,0
-203,-398,0,0,0,0,0,0,0,0,0,-1,1021,1422,0,0
-196,-398,0,0,0,0,0,0,0,0,0,-1,1028,1422,0,0
-189,-398,0,0,0,0,0,0,0,0,0,-1,1035,1422,0,0
-182,-398,0,0,0,0,0,0,0,0,0,-1,1042,1422,0,0
-175,-398,0,0,0,0,0,0,0,0,0,-1,1049,1422,0,0
-168,-398,0,0,0,0,0,0,0,0,0,-1,1056,1422,0,0
-161,-398,0,0,0,0,0,0,0,0,0,-1,1063,1422,0,0
-154,-398,0,0,0,0,0,0,0,0,0,-1,1070,1422,0,0
-147,-398,0,0,0,0,0,0,0,0,0,-1,1077,1422,0,0
-140,-398,0,0,0,0,0,0,0,0,0,-1,1084,1422,0,0
-133,-398,0,0,0,0,0,0,0,0,0,-1,1091,1422,0,0
-126,-398,0,0,0,0,0,0,0,0,0,-1,1098,1422,0,0
-119,-398,0,0,0,0,0,0,0,0,0,-1,1105,1422,0,0
-112,-398,0,0,0,0,0,0,0,0,0,-1,1112,1422,0,0
-105,-398,0,0,0,0,0,0,0,0,0,-1,1119,1422,0,0
-98,-398,0,0,0,0,0,0,0,0,0,-1,1126,1422,0,0
-91,-398,0,0,0,0,0,0,0,0,0,-1,1133,1422,0,0
-84,-398,0,0,0,0,0,0,0,0,0,-1,1140,1422,0,0
-77,-398,0,0,0,0,0,0,0,0,0,-1,1147,1422,0,0
-70,-398,0,0,0,0,0,0,0,0,0,-1,1154,1422,0,0
-63,-398,0,0,0,0,0,0,0,0,0,-1,1161,1422,0,0
-56,-398,0,0,0,0,0,0,0,0,0,-1,1168,1422,0,0
-49,-398,0,0,0,0,0,0,0,0,0,-1,1175,1422,0,0
-42,-398,0,0,0,0,0,0,0,0,0,-1,1182,1422,0,0
-35,-398,0,0,0,0,0,0,0,0,0,-1,1189,1422,0,0
-28,-398,0,0,0,0,0,0,0,0,0,-1,1196,1422,0,0
-21,-398,0,0,0,0,0,0,0,0,0,-1,1203,1422,0,0
-14,-398,0,0,0,0,0,0,0,0,0,-1,1210,1422,0,0
-7,-398,0,0,0,0,0,0,0,0,0,-1,1217,1422,0,0
0,-398,0,0,0,0,0,0,0,0,0,-1,1224,1422,0,0
7,-398,0,0,0,0,0,0,0,0,0,-1,1231,1422,0,0
14,-398,0,0,0,0,0,0,0,0,0,-1,1238,1422,0,0
21,-398,0,0,0,0,0,0,0,0,0,-1,1245,1422,0,0
28,-398,0,0,0,0,0,0,0,0,0,-1,1252,1422,0,0
35,-398,0,0,0,0,0,0,0,0,0,-1,1259,1422,0,0
42,-398,0,0,0,0,0,0,0,0,0,-1,1266,1422,0,0
49,-398,0,0,0,0,0,0,0,0,0,-1,1273,1422,0,0
56,-398,0,0,0,0,0,0,0,0,0,-1,1280,1422,0,0
63,-398,0,0,0,0,0,0,0,0,0,-1,1287,1422,0,0
70,-398,0,0,0,0,0,0,0,0,0,-1,1294,1422,0,0
77,-398,0,0,0,0,0,0,0,0,0,-1,1301,1422,0,0
84,-398,0,0,0,0,0,0,0,0,0,-1,1308,1422,0,0
91,-398,0,0,0,0,0,0,0,0,0,-1,1315,1422,0,0
98,-398,0,0,0,0,0,0,0,0,0,-1,1322,1422,0,0
105,-398,0,0,0,0,0,0,0,0,0,-1,1329,1422,0,0
112,-398,0,0,0,0,0,0,0,0,0,-1,1336,1422,0,0
119,-398,0,0,0,0,0,0,0,0,0,-1,1343,1422,0,0
126,-398,0,0,0,0,0,0,0,0,0,-1,1350,1422,0,0
133,-398,0,0,0,0,0,0,0,0,0,-1,1357,1422,0,0
140,-398,0,0,0,0,0,0,0,0,0,-1,1364,1422,0,0
147,-398,0,0,0,0,0,0,0,0,0,-1,1371,1422,0,0
154,-398,0,0,0,0,0,0,0,0,0,-1,1378,1422,0,0
161,-398,0,0,0,0,0,0,0,0,0,-1,1385,1422,0,0
168,-398,0,0,0,0,0,0,0,0,0,-1,1392,1422,0,0
175,-398,0,0,0,0,0,0,0,0,0,-1,1399,1422,0,0
182,-398,0,0,0,0,0,0,0,0,0,-1,1406,1422,0,0
189,-398,0,0,0,0,0,0,0,0,0,-1,1413,1422,0,0
196,-398,0,0,0,0,0,0,0,0,0,-1,1420,1422,0,0
203,-398,0,0,0,0,0,0,0,0,0,-1,1427,1422,0,0
210,-398,0,0,0,0,0,0,0,0,0,-1,1434,1422,0,0
217,-398,0,0,0,0,0,0,0,0,0,-1,1441,1422,0,0
224,-398,0,0,0,0,0,0,0,0,0,-1,1448,1422,0,0
231,-398,0,0,0,0,0,0,0,0,0,-1,1455,1422,0,0
238,-398,0,0,0,0,0,0,0,0,0,-1,1462,1422,0,0
245,-398,0,0,0,0,0,0,0,0,0,-1,1469,1422,0,0
252,-398,0,0,0,0,0,0,0,0,0,-1,1476,1422,0,0
259,-398,0,0,0,0,0,0,0,0,0,-1,1483,1422,0,0
266,-398,0,0,0,0,0,0,0,0,0,-1,1490,1422,0,0
273,-398,0,0,0,0,0,0,0,0,0,-1,1497,1422,0,0
280,-398,0,0,0,0,0,0,0,0,0,-1,1504,1422,0,0
287,-398,0,0,0,0,0,0,0,0,0,-1,1511,1422,0,0
294,-398,0,0,0,0,0,0,0,0,0,-1,1518,1422,0,0
301,-398,0,0,0,0,0,0,0,0,0,-1,1525,1422,0,0
308,-398,0,0,0,0,0,0,0,0,0,-1,1532,1422,0,0
315,-398,0,0,0,0,0,0,0,0,0,-1,1539,1422,0,0
322,-398,0,0,0,0,0,0,0,0,0,-1,1546,1422,0,0
329,-398,0,0,0,0,0,0,0,0,0,-1,1553,1422,0,0
336,-398,0,0,0,0,0,0,0,0,0,-1,1560,1422,0,0
343,-398,0,0,0,0,0,0,0,0,0,-1,1567,1422,0,0
350,-398,0,0,0,0,0,0,0,0,0,-1,1574,1422,0,0
357,-398,0,0,0,0,0,0,0,0,0,-1,1581,1422,0,0
364,-398,0,0,0,0,0,0,0,0,0,-1,1588,1422,0,0
371,-398,0,0,0,0,0,0,0,0,0,-1,1595,1422,0,0
378,-398,0,0,0,0,0,0,0,0,0,-1,1602,1422,0,0
385,-398,0,0,0,0,0,0,0,0,0,-1,1609,1422,0,0
392,-398,0,0,0,0,0,0,0,0,0,-1,1616,1422,0,0
399,-398,0,0,0,0,0,0,0,0,0,-1,1623,1422,0,0
406,-398,0,0,0,0,0,0,0,0,0,-1,1630,1422,0,0
413,-398,0,0,0,0,0,0,0,0,0,-1,1637,1422,0,0
420,-398,0,0,0,0,0,0,0,0,0,-1,1644,1422,0,0
427,-398,0,0,0,0,0,0,0,0,0,-1,1651,1422,0,0
434,-398,0,0,0,0,0,0,0,0,0,-1,1658,1422,0,0
441,-398,0,0,0,0,0,0,0,0,0,-1,1665,1422,0,0
448,-398,0,0,0,0,0,0,0,0,0,-1,1672,1422,0,0
455,-398,0,0,0,0,0,0,0,0,0,-1,1679,1422,0,0
462,-398,0,0,0,0,0,0,0,0,0,-1,1686,1422,0,0
469,-398,0,0,0,0,0,0,0,0,0,-1,1693,1422,0,0
476,-398,0,0,0,0,0,0,0,0,0,-1,1700,1422,0,0
483,-398,0,0,0,0,0,0,0,0,0,-1,1707,1422,0,0
490,-398,0,0,0,0,0,0,0,0,0,-1,1714,1422,0,0
497,-398,0,0,0,0,0,0,0,0,0,-1,1721,1422,0,0
504,-398,0,0,0,0,0,0,0,0,0,-1,1728,1422,0,0
511,-398,0,0,0,0,0,0,0,0,0,-1,1735,1422,0,0
518,-398,0,0,0,0,0,0,0,0,0,-1,1742,1422,0,0
525,-398,0,0,0,0,0,0,0,0,0,-1,1749,1422,0,0
532,-398,28.4558,3.84094,0,0,0,0,0,0,0,-1,1756,1422,28.4558,-3.8409
539,-398,27.0594,3.33887,0,0,0,0,0,0,0,-1,1763,1422,27.0595,-3.3389
546,-398,31.6873,5.58582,0,0,0,0,0,0,0,-1,1770,1422,31.6872,-5.58585
553,-398,30.4392,5.92383,0,0,0,0,0,0,0,-1,1777,1422,30.4392,-5.92386
560,-398,29.1621,6.30469,0,0,0,0,0,0,0,-1,1784,1422,29.1621,-6.30469
567,-398,27.8411,6.55029,0,0,0,0,0,0,0,-1,1791,1422,27.8411,-6.55033
574,-398,26.411,6.8916,0,0,0,0,0,0,0,-1,1798,1422,26.411,-6.8916
581,-398,24.75,7.11145,0,0,0,0,0,0,0,-1,1805,1422,24.7499,-7.11142
588,-398,23.1649,7.67969,0,0,0,0,0,0,0,-1,1812,1422,23.1649,-7.67975
595,-398,21.4253,7.86023,0,0,0,0,0,0,0,-1,1819,1422,21.4253,-7.86029
602,-398,19.6857,8.04077,0,0,0,0,0,0,0,-1,1826,1422,19.6856,-8.04083
609,-398,21.1835,13.2628,0,0,0,0,0,0,0,-1,1833,1422,21.1835,-13.2628
616,-398,28.5757,17.4463,0,0,0,0,0,0,0,-1,1840,1422,28.5757,-17.4463
623,-398,29.0458,16.3691,0,0,0,0,0,0,0,-1,1847,1422,29.0457,-16.3692
630,-398,29.0045,15.8401,0.00162176,0.00135084,-0.00130199,0.00279531,0.000177279,-0.733564,0.00180735,0.0143069,1854,1422,29.0045,-15.84
637,-398,28.9738,15.319,0.001246,0.000803224,-0.000810946,0.00186524,0.000183991,-0.652144,0.00118692,0.0160657,1861,1422,28.9738,-15.319
644,-398,28.9037,14.7897,0.00118285,0.000392588,-0.000418185,0.00136305,0.000212387,-0.406868,0.000846831,0.0226559,1868,1422,28.9037,-14.7896
651,-398,28.9539,14.3135,0.00140151,-0.000105818,-4.81625e-05,0.00140305,-0.000107355,-0.0319089,0.000973125,0.0307102,1875,1422,28.9539,-14.3135
658,-398,28.9741,13.7655,0.00176505,-0.000660723,0.000356806,0.00181644,-0.000712116,0.143054,0.00150556,0.02578,1882,1422,28.9741,-13.7655
665,-398,28.9304,13.1758,0.00230752,-0.00137609,0.000825165,0.00248392,-0.00155249,0.210603,0.00235101,0.0170359,1889,1422,28.9304,-13.1757
672,-398,28.9077,12.6163,0.00302087,-0.00230025,0.00140184,0.00336759,-0.00264697,0.242467,0.00348081,0.0138613,1896,1422,28.9078,-12.6164
679,-398,28.8794,12.0629,0.00383992,-0.00355849,0.00216037,0.00442456,-0.00414312,0.264289,0.00494744,0.0124217,1903,1422,28.8793,-12.0629
686,-398,28.8785,11.5671,0.00463884,-0.00539705,0.00332492,0.00564044,-0.00639864,0.292593,0.00695536,0.0180569,1910,1422,28.8785,-11.5671
693,-398,28.8508,11.4835,0.00561479,-0.00773248,0.00467263,0.00708798,-0.00920568,0.305417,0.0094336,0.0455186,1917,1422,28.8508,-11.4835
700,-398,28.8798,11.517,0,0,0,0,0,0,0,-1,1924,1422,28.8797,-11.517
707,-398,10.9731,5.479,0,0,0,0,0,0,0,-1,1931,1422,10.9732,-5.47896
714,-398,11.7313,6.17346,0,0,0,0,0,0,0,-1,1938,1422,11.7313,-6.17348
721,-398,13.9371,8.05103,0,0,0,0,0,0,0,-1,1945,1422,13.9372,-8.05102
728,-398,14.786,7.0282,0,0,0,0,0,0,0,-1,1952,1422,14.786,-7.0282
735,-398,0,0,0,0,0,0,0,0,0,-1,1959,1422,0,0
742,-398,0,0,0,0,0,0,0,0,0,-1,1966,1422,0,0
749,-398,0,0,0,0,0,0,0,0,0,-1,1973,1422,0,0
756,-398,0,0,0,0,0,0,0,0,0,-1,1980,1422,0,0
763,-398,0,0,0,0,0,0,0,0,0,-1,1987,1422,0,0
770,-398,0,0,0,0,0,0,0,0,0,-1,1994,1422,0,0
777,-398,0,0,0,0,0,0,0,0,0,-1,2001,1422,0,0
784,-398,0,0,0,0,0,0,0,0,0,-1,2008,1422,0,0
791,-398,0,0,0,0,0,0,0,0,0,-1,2015,1422,0,0
798,-398,0,0,0,0,0,0,0,0,0,-1,2022,1422,0,0
805,-398,0,0,0,0,0,0,0,0,0,-1,2029,1422,0,0
812,-398,0,0,0,0,0,0,0,0,0,-1,2036,1422,0,0
-700,-405,0,0,0,0,0,0,0,0,0,-1,524,1429,0,0
-693,-405,0,0,0,0,0,0,0,0,0,-1,531,1429,0,0
-686,-405,0,0,0,0,0,0,0,0,0,-1,538,1429,0,0
-679,-405,0,0,0,0,0,0,0,0,0,-1,545,1429,0,0
-672,-405,0,0,0,0,0,0,0,0,0,-1,552,1429,0,0
-665,-405,0,0,0,0,0,0,0,0,0,-1,559,1429,0,0
-658,-405,0,0,0,0,0,0,0,0,0,-1,566,1429,0,0
-651,-405,0,0,0,0,0,0,0,0,0,-1,573,1429,0,0
-644,-405,0,0,0,0,0,0,0,0,0,-1,580,1429,0,0
-637,-405,0,0,0,0,0,0,0,0,0,-1,587,1429,0,0
-630,-405,0,0,0,0,0,0,0,0,0,-1,594,1429,0,0
-623,-405,0,0,0,0,0,0,0,0,0,-1,601,1429,0,0
-616,-405,0,0,0,0,0,0,0,0,0,-1,608,1429,0,0
-609,-405,0,0,0,0,0,0,0,0,0,-1,615,1429,0,0
-602,-405,-5.80988,-3.46594,0,0,0,0,0,0,0,-1,622,1429,-5.80987,3.46592
-595,-405,-9.35413,2.01477,0,0,0,0,0,0,0,-1,629,1429,-9.35411,-2.01476
-588,-405,-7.35693,0.507202,0,0,0,0,0,0,0,-1,636,1429,-7.35696,-0.507187
-581,-405,-10.1284,1.62927,0,0,0,0,0,0,0,-1,643,1429,-10.1284,-1.62922
-574,-405,-9.32074,3.05896,0,0,0,0,0,0,0,-1,650,1429,-9.32077,-3.0589
-567,-405,-9.68781,6.92163,0,0,0,0,0,0,0,-1,657,1429,-9.68782,-6.92166
-560,-405,-9.28674,7.20886,0,0,0,0,0,0,0,-1,664,1429,-9.28675,-7.20885
-553,-405,-12.9841,9.45728,0,0,0,0,0,0,0,-1,671,1429,-12.9841,-9.45722
-546,-405,-12.9614,10.0786,0.00451933,0.00210656,0.00249712,0.00608621,0.000539679,0.560375,0.00389008,0.0415005,678,1429,-12.9614,-10.0787
-539,-405,-12.9447,10.7017,0.00349114,0.00169182,0.00195493,0.00474348,0.000439471,0.569746,0.00302649,0.0127761,685,1429,-12.9447,-10.7017
-532,-405,-12.952,11.3223,0.00266424,0.00123835,0.00145805,0.00357432,0.00032827,0.558006,0.00228134,0.0155256,692,1429,-12.952,-11.3223
-525,-405,-12.9729,11.9342,0.00223413,0.000994432,0.00120317,0.00296773,0.000260832,0.547539,0.00189753,0.015246,699,1429,-12.9729,-11.9343
-518,-405,-12.9932,12.5162,0.00225074,0.00115457,0.00131331,0.00312574,0.000279566,0.587719,0.00199717,0.0162922,706,1429,-12.9932,-12.5163
-511,-405,-13.0306,13.0817,0.00253137,0.00159305,0.00164716,0.00377489,0.000349542,0.646658,0.00240855,0.0154033,713,1429,-13.0306,-13.0817
-504,-405,-13.0353,13.712,0.00310747,0.00231399,0.00224051,0.00498609,0.000435368,0.697769,0.00318886,0.0174776,720,1429,-13.0353,-13.712
-497,-405,-13.0325,14.3021,0.00400921,0.00340134,0.00314222,0.00686216,0.000548393,0.737185,0.00440337,0.014927,727,1429,-13.0325,-14.3022
-490,-405,-13.0635,14.8798,0.00531349,0.00498011,0.00443003,0.00957996,0.000713634,0.766594,0.00616255,0.0130684,734,1429,-13.0635,-14.8798
-483,-405,-13.0092,15.5679,0.006988,0.00714197,0.00615122,0.0132167,0.000913287,0.791656,0.00852302,0.0269304,741,1429,-13.0092,-15.5678
-476,-405,-12.8227,16.4247,0,0,0,0,0,0,0,-1,748,1429,-12.8227,-16.4246
-469,-405,-9.65692,12.8171,0,0,0,0,0,0,0,-1,755,1429,-9.65691,-12.8172
-462,-405,-9.14862,11.3597,0,0,0,0,0,0,0,-1,762,1429,-9.14865,-11.3597
-455,-405,-9.021,9.51111,0,0,0,0,0,0,0,-1,769,1429,-9.021,-9.51109
-448,-405,-8.4649,6.82813,0,0,0,0,0,0,0,-1,776,1429,-8.46492,-6.82817
-441,-405,-6.6712,4.23767,0,0,0,0,0,0,0,-1,783,1429,-6.67121,-4.23764
-434,-405,-9.62549,3.94189,0,0,0,0,0,0,0,-1,790,1429,-9.62546,-3.94191
-427,-405,-10.9764,3.73926,0,0,0,0,0,0,0,-1,797,1429,-10.9764,-3.73923
-420,-405,-12.1187,3.68506,0,0,0,0,0,0,0,-1,804,1429,-12.1187,-3.68512
-413,-405,-13.5353,3.75659,0,0,0,0,0,0,0,-1,811,1429,-13.5353,-3.75655
-406,-405,-14.7374,3.99817,0,0,0,0,0,0,0,-1,818,1429,-14.7374,-3.99814
-399,-405,0,0,0,0,0,0,0,0,0,-1,825,1429,0,0
-392,-405,0,0,0,0,0,0,0,0,0,-1,832,1429,0,0
-385,-405,0,0,0,0,0,0,0,0,0,-1,839,1429,0,0
-378,-405,0,0,0,0,0,0,0,0,0,-1,846,1429,0,0
-371,-405,0,0,0,0,0,0,0,0,0,-1,853,1429,0,0
-364,-405,0,0,0,0,0,0,0,0,0,-1,860,1429,0,0
-357,-405,0,0,0,0,0,0,0,0,0,-1,867,1429,0,0
-350,-405,0,0,0,0,0,0,0,0,0,-1,874,1429,0,0
-343,-405,0,0,0,0,0,0,0,0,0,-1,881,1429,0,0
-336,-405,0,0,0,0,0,0,0,0,0,-1,888,1429,0,0
-329,-405,0,0,0,0,0,0,0,0,0,-1,895,1429,0,0
-322,-405,0,0,0,0,0,0,0,0,0,-1,902,1429,0,0
-315,-405,0,0,0,0,0,0,0,0,0,-1,909,1429,0,0
-308,-405,0,0,0,0,0,0,0,0,0,-1,916,1429,0,0
-301,-405,0,0,0,0,0,0,0,0,0,-1,923,1429,0,0
-294,-405,0,0,0,0,0,0,0,0,0,-1,930,1429,0,0
-287,-405,0,0,0,0,0,0,0,0,0,-1,937,1429,0,0
-280,-405,0,0,0,0,0,0,0,0,0,-1,944,1429,0,0
-273,-405,0,0,0,0,0,0,0,0,0,-1,951,1429,0,0
-266,-405,0,0,0,0,0,0,0,0,0,-1,958,1429,0,0
-259,-405,0,0,0,0,0,0,0,0,0,-1,965,1429,0,0
-252,-405,0,0,0,0,0,0,0,0,0,-1,972,1429,0,0
-245,-405,0,0,0,0,0,0,0,0,0,-1,979,1429,0,0
-238,-405,0,0,0,0,0,0,0,0,0,-1,986,1429,0,0
-231,-405,0,0,0,0,0,0,0,0,0,-1,993,1429,0,0
-224,-405,0,0,0,0,0,0,0,0,0,-1,1000,1429,0,0
-217,-405,0,0,0,0,0,0,0,0,0,-1,1007,1429,0,0
-210,-405,0,0,0,0,0,0,0,0,0,-1,1014,1429,0,0
-203,-405,0,0,0,0,0,0,0,0,0,-1,1021,1429,0,0
-196,-405,0,0,0,0,0,0,0,0,0,-1,1028,1429,0,0
-189,-405,0,0,0,0,0,0,0,0,0,-1,1035,1429,0,0
-182,-405,0,0,0,0,0,0,0,0,0,-1,1042,1429,0,0
-175,-405,0,0,0,0,0,0,0,0,0,-1,1049,1429,0,0
-168,-405,0,0,0,0,0,0,0,0,0,-1,1056,1429,0,0
-161,-405,0,0,0,0,0,0,0,0,0,-1,1063,1429,0,0
-154,-405,0,0,0,0,0,0,0,0,0,-1,1070,1429,0,0
-147,-405,0,0,0,0,0,0,0,0,0,-1,1077,1429,0,0
-140,-405,0,0,0,0,0,0,0,0,0,-1,1084,1429,0,0
-133,-405,0,0,0,0,0,0,0,0,0,-1,1091,1429,0,0
-126,-405,0,0,0,0,0,0,0,0,0,-1,1098,1429,0,0
-119,-405,0,0,0,0,0,0,0,0,0,-1,1105,1429,0,0
-112,-405,0,0,0,0,0,0,0,0,0,-1,1112,1429,0,0
-105,-405,0,0,0,0,0,0,0,0,0,-1,1119,1429,0,0
-98,-405,0,0,0,0,0,0,0,0,0,-1,1126,1429,0,0
-91,-405,0,0,0,0,0,0,0,0,0,-1,1133,1429,0,0
-84,-405,0,0,0,0,0,0,0,0,0,-1,1140,1429,0,0
-77,-405,0,0,0,0,0,0,0,0,0,-1,1147,1429,0,0
-70,-405,0,0,0,0,0,0,0,0,0,-1,1154,1429,0,0
-63,-405,0,0,0,0,0,0,0,0,0,-1,1161,1429,0,0
-56,-405,0,0,0,0,0,0,0,0,0,-1,1168,1429,0,0
-49,-405,0,0,0,0,0,0,0,0,0,-1,1175,1429,0,0
-42,-405,0,0,0,0,0,0,0,0,0,-1,1182,1429,0,0
-35,-405,0,0,0,0,0,0,0,0,0,-1,1189,1429,0,0
-28,-405,0,0,0,0,0,0,0,0,0,-1,1196,1429,0,0
-21,-405,0,0,0,0,0,0,0,0,0,-1,1203,1429,0,0
-14,-405,0,0,0,0,0,0,0,0,0,-1,1210,1429,0,0
-7,-405,0,0,0,0,0,0,0,0,0,-1,1217,1429,0,0
0,-405,0,0,0,0,0,0,0,0,0,-1,1224,1429,0,0
7,-405,0,0,0,0,0,0,0,0,0,-1,1231,1429,0,0
14,-405,0,0,0,0,0,0,0,0,0,-1,1238,1429,0,0
21,-405,0,0,0,0,0,0,0,0,0,-1,1245,1429,0,0
28,-405,0,0,0,0,0,0,0,0,0,-1,1252,1429,0,0
35,-405,0,0,0,0,0,0,0,0,0,-1,1259,1429,0,0
42,-405,0,0,0,0,0,0,0,0,0,-1,1266,1429,0,0
49,-405,0,0,0,0,0,0,0,0,0,-1,1273,1429,0,0
56,-405,0,0,0,0,0,0,0,0,0,-1,1280,1429,0,0
63,-405,0,0,0,0,0,0,0,0,0,-1,1287,1429,0,0
70,-405,0,0,0,0,0,0,0,0,0,-1,1294,1429,0,0
77,-405,0,0,0,0,0,0,0,0,0,-1,1301,1429,0,0
84,-405,0,0,0,0,0,0,0,0,0,-1,1308,1429,0,0
91,-405,0,0,0,0,0,0,0,0,0,-1,1315,1429,0,0
98,-405,0,0,0,0,0,0,0,0,0,-1,1322,1429,0,0
105,-405,0,0,0,0,0,0,0,0,0,-1,1329,1429,0,0
112,-405,0,0,0,0,0,0,0,0,0,-1,1336,1429,0,0
119,-405,0,0,0,0,0,0,0,0,0,-1,1343,1429,0,0
126,-405,0,0,0,0,0,0,0,0,0,-1,1350,1429,0,0
133,-405,0,0,0,0,0,0,0,0,0,-1,1357,1429,0,0
140,-405,0,0,0,0,0,0,0,0,0,-1,1364,1429,0,0
147,-405,0,0,0,0,0,0,0,0,0,-1,1371,1429,0,0
154,-405,0,0,0,0,0,0,0,0,0,-1,1378,1429,0,0
161,-405,0,0,0,0,0,0,0,0,0,-1,1385,1429,0,0
168,-405,0,0,0,0,0,0,0,0,0,-1,1392,1429,0,0
175,-405,0,0,0,0,0,0,0,0,0,-1,1399,1429,0,0
182,-405,0,0,0,0,0,0,0,0,0,-1,1406,1429,0,0
189,-405,0,0,0,0,0,0,0,0,0,-1,1413,1429,0,0
196,-405,0,0,0,0,0,0,0,0,0,-1,1420,1429,0,0
203,-405,0,0,0,0,0,0,0,0,0,-1,1427,1429,0,0
210,-405,0,0,0,0,0,0,0,0,0,-1,1434,1429,0,0
217,-405,0,0,0,0,0,0,0,0,0,-1,1441,1429,0,0
224,-405,0,0,0,0,0,0,0,0,0,-1,1448,1429,0,0
231,-405,0,0,0,0,0,0,0,0,0,-1,1455,1429,0,0
238,-405,0,0,0,0,0,0,0,0,0,-1,1462,1429,0,0
245,-405,0,0,0,0,0,0,0,0,0,-1,1469,1429,0,0
252,-405,0,0,0,0,0,0,0,0,0,-1,1476,1429,0,0
259,-405,0,0,0,0,0,0,0,0,0,-1,1483,1429,0,0
266,-405,0,0,0,0,0,0,0,0,0,-1,1490,1429,0,0
273,-405,0,0,0,0,0,0,0,0,0,-1,1497,1429,0,0
280,-405,0,0,0,0,0,0,0,0,0,-1,1504,1429,0,0
287,-405,0,0,0,0,0,0,0,0,0,-1,1511,1429,0,0
294,-405,0,0,0,0,0,0,0,0,0,-1,1518,1429,0,0
301,-405,0,0,0,0,0,0,0,0,0,-1,1525,1429,0,0
308,-405,0,0,0,0,0,0,0,0,0,-1,1532,1429,0,0
315,-405,0,0,0,0,0,0,0,0,0,-1,1539,1429,0,0
322,-405,0,0,0,0,0,0,0,0,0,-1,1546,1429,0,0
329,-405,0,0,0,0,0,0,0,0,0,-1,1553,1429,0,0
336,-405,0,0,0,0,0,0,0,0,0,-1,1560,1429,0,0
343,-405,0,0,0,0,0,0,0,0,0,-1,1567,1429,0,0
350,-405,0,0,0,0,0,0,0,0,0,-1,1574,1429,0,0
357,-405,0,0,0,0,0,0,0,0,0,-1,1581,1429,0,0
364,-405,0,0,0,0,0,0,0,0,0,-1,1588,1429,0,0
371,-405,0,0,0,0,0,0,0,0,0,-1,1595,1429,0,0
378,-405,0,0,0,0,0,0,0,0,0,-1,1602,1429,0,0
385,-405,0,0,0,0,0,0,0,0,0,-1,1609,1429,0,0
392,-405,0,0,0,0,0,0,0,0,0,-1,1616,1429,0,0
399,-405,0,0,0,0,0,0,0,0,0,-1,1623,1429,0,0
406,-405,0,0,0,0,0,0,0,0,0,-1,1630,1429,0,0
413,-405,0,0,0,0,0,0,0,0,0,-1,1637,1429,0,0
420,-405,0,0,0,0,0,0,0,0,0,-1,1644,1429,0,0
427,-405,0,0,0,0,0,0,0,0,0,-1,1651,1429,0,0
434,-405,0,0,0,0,0,0,0,0,0,-1,1658,1429,0,0
441,-405,0,0,0,0,0,0,0,0,0,-1,1665,1429,0,0
448,-405,0,0,0,0,0,0,0,0,0,-1,1672,1429,0,0
455,-405,0,0,0,0,0,0,0,0,0,-1,1679,1429,0,0
462,-405,0,0,0,0,0,0,0,0,0,-1,1686,1429,0,0
469,-405,0,0,0,0,0,0,0,0,0,-1,1693,1429,0,0
476,-405,0,0,0,0,0,0,0,0,0,-1,1700,1429,0,0
483,-405,0,0,0,0,0,0,0,0,0,-1,1707,1429,0,0
490,-405,0,0,0,0,0,0,0,0,0,-1,1714,1429,0,0
497,-405,0,0,0,0,0,0,0,0,0,-1,1721,1429,0,0
504,-405,0,0,0,0,0,0,0,0,0,-1,1728,1429,0,0
511,-405,0,0,0,0,0,0,0,0,0,-1,1735,1429,0,0
518,-405,0,0,0,0,0,0,0,0,0,-1,1742,1429,0,0
525,-405,31.1563,-1.40942,0,0,0,0,0,0,0,-1,1749,1429,31.1563,1.40937
532,-405,28.156,4.8783,0,0,0,0,0,0,0,-1,1756,1429,28.1561,-4.87833
539,-405,26.5133,3.02454,0,0,0,0,0,0,0,-1,1763,1429,26.5133,-3.0246
546,-405,29.5735,6.53052,0,0,0,0,0,0,0,-1,1770,1429,29.5735,-6.53049
553,-405,28.2911,6.70654,0,0,0,0,0,0,0,-1,1777,1429,28.2912,-6.70656
560,-405,26.9299,7.08472,0,0,0,0,0,0,0,-1,1784,1429,26.9299,-7.08469
567,-405,25.804,7.14661,0,0,0,0,0,0,0,-1,1791,1429,25.8039,-7.14665
574,-405,25.1151,8.07971,0,0,0,0,0,0,0,-1,1798,1429,25.1151,-8.07965
581,-405,23.5055,8.505,0,0,0,0,0,0,0,-1,1805,1429,23.5054,-8.50501
588,-405,21.7491,8.98254,0,0,0,0,0,0,0,-1,1812,1429,21.7491,-8.98254
595,-405,21.6327,10.7795,0,0,0,0,0,0,0,-1,1819,1429,21.6327,-10.7796
602,-405,21.6461,13.9199,0,0,0,0,0,0,0,-1,1826,1429,21.6461,-13.92
609,-405,28.038,17.9177,0,0,0,0,0,0,0,-1,1833,1429,28.038,-17.9177
616,-405,28.3794,17.1693,0.00397716,0.00356918,-0.00319589,0.00697556,0.00057078,-0.753527,0.00447227,0.0472667,1840,1429,28.3794,-17.1693
623,-405,28.4507,16.4623,0.00267972,0.0022579,-0.00207766,0.00455715,0.000380478,-0.734815,0.00291955,0.01419,1847,1429,28.4507,-16.4623
630,-405,28.449,15.8687,0.00193866,0.00137272,-0.0013429,0.00302808,0.000283301,-0.681558,0.00193123,0.0117697,1854,1429,28.449,-15.8686
637,-405,28.4247,15.3439,0.00156667,0.000754808,-0.00083738,0.00209132,0.000230156,-0.559706,0.00132418,0.0126925,1861,1429,28.4247,-15.3438
644,-405,28.3489,14.8358,0.00153317,0.000260439,-0.000444418,0.001673,0.000120617,-0.304815,0.00107738,0.0323214,1868,1429,28.3489,-14.8358
651,-405,28.2943,14.3439,0.00177087,-0.000212157,-0.000118357,0.00177791,-0.000219196,-0.059404,0.00126469,0.0363992,1875,1429,28.2944,-14.3439
658,-405,28.3525,13.7842,0.00213443,-0.000752178,0.000265583,0.00215866,-0.000776409,0.0909872,0.00175609,0.0261127,1882,1429,28.3525,-13.7841
665,-405,28.3503,13.1875,0.00268179,-0.00146974,0.000733551,0.00280759,-0.00159554,0.169845,0.00257405,0.0200858,1889,1429,28.3503,-13.1875
672,-405,28.3372,12.6324,0.00338648,-0.00241253,0.00134154,0.00368179,-0.00270784,0.216674,0.00370332,0.0234057,1896,1429,28.3372,-12.6324
679,-405,28.399,12.1168,0.00414623,-0.00381748,0.00223192,0.00472909,-0.00440034,0.255443,0.00527202,0.0229775,1903,1429,28.3991,-12.1168
686,-405,28.301,11.6862,0.00478516,-0.0060008,0.00371509,0.00594093,-0.00715657,0.30161,0.00757269,0.0412498,1910,1429,28.301,-11.6862
693,-405,28.2982,11.7322,0,0,0,0,0,0,0,-1,1917,1429,28.2982,-11.7322
700,-405,9.1958,4.02026,0,0,0,0,0,0,0,-1,1924,1429,9.19579,-4.02025
707,-405,7.40308,3.83191,0,0,0,0,0,0,0,-1,1931,1429,7.40311,-3.83194
714,-405,7.33252,3.47388,0,0,0,0,0,0,0,-1,1938,1429,7.33255,-3.47383
721,-405,9.23523,0.993896,0,0,0,0,0,0,0,-1,1945,1429,9.23523,-0.993884
728,-405,0,0,0,0,0,0,0,0,0,-1,1952,1429,0,0
735,-405,0,0,0,0,0,0,0,0,0,-1,1959,1429,0,0
742,-405,0,0,0,0,0,0,0,0,0,-1,1966,1429,0,0
749,-405,0,0,0,0,0,0,0,0,0,-1,1973,1429,0,0
756,-405,0,0,0,0,0,0,0,0,0,-1,1980,1429,0,0
763,-405,0,0,0,0,0,0,0,0,0,-1,1987,1429,0,0
770,-405,0,0,0,0,0,0,0,0,0,-1,1994,1429,0,0
777,-405,0,0,0,0,0,0,0,0,0,-1,2001,1429,0,0
784,-405,0,0,0,0,0,0,0,0,0,-1,2008,1429,0,0
791,-405,0,0,0,0,0,0,0,0,0,-1,2015,1429,0,0
798,-405,0,0,0,0,0,0,0,0,0,-1,2022,1429,0,0
805,-405,0,0,0,0,0,0,0,0,0,-1,2029,1429,0,0
812,-405,0,0,0,0,0,0,0,0,0,-1,2036,1429,0,0
-700,-412,0,0,0,0,0,0,0,0,0,-1,524,1436,0,0
-693,-412,0,0,0,0,0,0,0,0,0,-1,531,1436,0,0
-686,-412,0,0,0,0,0,0,0,0,0,-1,538,1436,0,0
-679,-412,0,0,0,0,0,0,0,0,0,-1,545,1436,0,0
-672,-412,0,0,0,0,0,0,0,0,0,-1,552,1436,0,0
-665,-412,0,0,0,0,0,0,0,0,0,-1,559,1436,0,0
-658,-412,0,0,0,0,0,0,0,0,0,-1,566,1436,0,0
-651,-412,0,0,0,0,0,0,0,0,0,-1,573,1436,0,0
-644,-412,0,0,0,0,0,0,0,0,0,-1,580,1436,0,0
-637,-412,0,0,0,0,0,0,0,0,0,-1,587,1436,0,0
-630,-412,0,0,0,0,0,0,0,0,0,-1,594,1436,0,0
-623,-412,0,0,0,0,0,0,0,0,0,-1,601,1436,0,0
-616,-412,0,0,0,0,0,0,0,0,0,-1,608,1436,0,0
-609,-412,0,0,0,0,0,0,0,0,0,-1,615,1436,0,0
-602,-412,-3.72766,-3.50012,0,0,0,0,0,0,0,-1,622,1436,-3.72764,3.50017
-595,-412,-10.3706,0.65564,0,0,0,0,0,0,0,-1,629,1436,-10.3706,-0.655672
-588,-412,-8.17957,1.94934,0,0,0,0,0,0,0,-1,636,1436,-8.17956,-1.94939
-581,-412,-6.60065,-0.0554199,0,0,0,0,0,0,0,-1,643,1436,-6.60063,0.0554733
-574,-412,-8.34131,5.25012,0,0,0,0,0,0,0,-1,650,1436,-8.34129,-5.25012
-567,-412,-7.50354,3.65454,0,0,0,0,0,0,0,-1,657,1436,-7.50356,-3.65452
-560,-412,-8.52448,7.39014,0,0,0,0,0,0,0,-1,664,1436,-8.52447,-7.39019
-553,-412,-7.36761,6.54651,0,0,0,0,0,0,0,-1,671,1436,-7.36763,-6.54654
-546,-412,-12.3523,10.1337,0,0,0,0,0,0,0,-1,678,1436,-12.3523,-10.1336
-539,-412,-12.3182,10.682,0.00373185,0.00228951,0.00236135,0.0054797,0.000541658,0.637194,0.00348663,0.0245162,685,1436,-12.3181,-10.682
-532,-412,-12.3527,11.3584,0.00276732,0.00166907,0.00173642,0.00403938,0.000397016,0.632255,0.00257082,0.0138699,692,1436,-12.3527,-11.3584
-525,-412,-12.3795,11.9613,0.00217806,0.00122816,0.0013144,0.00310069,0.000305528,0.612026,0.00197318,0.0153378,699,1436,-12.3794,-11.9614
-518,-412,-12.3848,12.5372,0.00209422,0.00121912,0.00129898,0.00302737,0.000285974,0.622948,0.00193,0.0161186,706,1436,-12.3849,-12.5372
-511,-412,-12.4279,13.1273,0.00228039,0.00155862,0.00154286,0.00350401,0.000334998,0.67051,0.00223273,0.0182496,713,1436,-12.4279,-13.1274
-504,-412,-12.4634,13.7554,0.00271088,0.00216385,0.00201391,0.00446976,0.000404968,0.717904,0.00285444,0.0185912,720,1436,-12.4634,-13.7553
-497,-412,-12.46,14.3425,0.00342445,0.00309402,0.00274801,0.00601221,0.00050627,0.755374,0.00385049,0.0150895,727,1436,-12.46,-14.3425
-490,-412,-12.4799,14.9139,0.00445623,0.00442763,0.00381115,0.00825311,0.000630752,0.783522,0.00530434,0.013513,734,1436,-12.4799,-14.914
-483,-412,-12.5113,15.4789,0.00578567,0.00622564,0.00522076,0.011231,0.000780263,0.806454,0.0072413,0.0111142,741,1436,-12.5113,-15.4789
-476,-412,-12.2834,16.3617,0.00739037,0.00848502,0.00702845,0.0149874,0.000887963,0.824256,0.00970917,0.0447397,748,1436,-12.2834,-16.3617
-469,-412,-12.0496,17.4186,0,0,0,0,0,0,0,-1,755,1436,-12.0496,-17.4185
-462,-412,-8.94659,13.3385,0,0,0,0,0,0,0,-1,762,1436,-8.94657,-13.3385
-455,-412,-8.25006,11.2572,0,0,0,0,0,0,0,-1,769,1436,-8.25007,-11.2572
-448,-412,-7.38086,8.78186,0,0,0,0,0,0,0,-1,776,1436,-7.38088,-8.78183
-441,-412,-8.79523,9.05286,0,0,0,0,0,0,0,-1,783,1436,-8.79521,-9.0529
-434,-412,-10.6305,8.03577,0,0,0,0,0,0,0,-1,790,1436,-10.6305,-8.0358
-427,-412,-10.0004,5.15271,0,0,0,0,0,0,0,-1,797,1436,-10.0004,-5.15266
-420,-412,-10.4468,4.9043,0,0,0,0,0,0,0,-1,804,1436,-10.4468,-4.90429
-413,-412,-11.5704,4.97766,0,0,0,0,0,0,0,-1,811,1436,-11.5704,-4.97771
-406,-412,-13.1968,5.70093,0,0,0,0,0,0,0,-1,818,1436,-13.1968,-5.70096
-399,-412,-10.5506,0.771973,0,0,0,0,0,0,0,-1,825,1436,-10.5506,-0.771954
-392,-412,0,0,0,0,0,0,0,0,0,-1,832,1436,0,0
-385,-412,0,0,0,0,0,0,0,0,0,-1,839,1436,0,0
-378,-412,0,0,0,0,0,0,0,0,0,-1,846,1436,0,0
-371,-412,0,0,0,0,0,0,0,0,0,-1,853,1436,0,0
-364,-412,0,0,0,0,0,0,0,0,0,-1,860,1436,0,0
-357,-412,0,0,0,0,0,0,0,0,0,-1,867,1436,0,0
-350,-412,0,0,0,0,0,0,0,0,0,-1,874,1436,0,0
-343,-412,0,0,0,0,0,0,0,0,0,-1,881,1436,0,0
-336,-412,0,0,0,0,0,0,0,0,0,-1,888,1436,0,0
-329,-412,0,0,0,0,0,0,0,0,0,-1,895,1436,0,0
-322,-412,0,0,0,0,0,0,0,0,0,-1,902,1436,0,0
-315,-412,0,0,0,0,0,0,0,0,0,-1,909,1436,0,0
-308,-412,0,0,0,0,0,0,0,0,0,-1,916,1436,0,0
-301,-412,0,0,0,0,0,0,0,0,0,-1,923,1436,0,0
-294,-412,0,0,0,0,0,0,0,0,0,-1,930,1436,0,0
-287,-412,0,0,0,0,0,0,0,0,0,-1,937,1436,0,0
-280,-412,0,0,0,0,0,0,0,0,0,-1,944,1436,0,0
-273,-412,0,0,0,0,0,0,0,0,0,-1,951,1436,0,0
-266,-412,0,0,0,0,0,0,0,0,0,-1,958,1436,0,0
-259,-412,0,0,0,0,0,0,0,0,0,-1,965,1436,0,0
-252,-412,0,0,0,0,0,0,0,0,0,-1,972,1436,0,0
-245,-412,0,0,0,0,0,0,0,0,0,-1,979,1436,0,0
-238,-412,0,0,0,0,0,0,0,0,0,-1,986,1436,0,0
-231,-412,0,0,0,0,0,0,0,0,0,-1,993,1436,0,0
-224,-412,0,0,0,0,0,0,0,0,0,-1,1000,1436,0,0
-217,-412,0,0,0,0,0,0,0,0,0,-1,1007,1436,0,0
-210,-412,0,0,0,0,0,0,0,0,0,-1,1014,1436,0,0
-203,-412,0,0,0,0,0,0,0,0,0,-1,1021,1436,0,0
-196,-412,0,0,0,0,0,0,0,0,0,-1,1028,1436,0,0
-189,-412,0,0,0,0,0,0,0,0,0,-1,1035,1436,0,0
-182,-412,0,0,0,0,0,0,0,0,0,-1,1042,1436,0,0
-175,-412,0,0,0,0,0,0,0,0,0,-1,1049,1436,0,0
-168,-412,0,0,0,0,0,0,0,0,0,-1,1056,1436,0,0
-161,-412,0,0,0,0,0,0,0,0,0,-1,1063,1436,0,0
-154,-412,0,0,0,0,0,0,0,0,0,-1,1070,1436,0,0
-147,-412,0,0,0,0,0,0,0,0,0,-1,1077,1436,0,0
-140,-412,0,0,0,0,0,0,0,0,0,-1,1084,1436,0,0
-133,-412,0,0,0,0,0,0,0,0,0,-1,1091,1436,0,0
-126,-412,0,0,0,0,0,0,0,0,0,-1,1098,1436,0,0
-119,-412,0,0,0,0,0,0,0,0,0,-1,1105,1436,0,0
-112,-412,0,0,0,0,0,0,0,0,0,-1,1112,1436,0,0
-105,-412,0,0,0,0,0,0,0,0,0,-1,1119,1436,0,0
-98,-412,0,0,0,0,0,0,0,0,0,-1,1126,1436,0,0
-91,-412,0,0,0,0,0,0,0,0,0,-1,1133,1436,0,0
-84,-412,0,0,0,0,0,0,0,0,0,-1,1140,1436,0,0
-77,-412,0,0,0,0,0,0,0,0,0,-1,1147,1436,0,0
-70,-412,0,0,0,0,0,0,0,0,0,-1,1154,1436,0,0
-63,-412,0,0,0,0,0,0,0,0,0,-1,1161,1436,0,0
-56,-412,0,0,0,0,0,0,0,0,0,-1,1168,1436,0,0
-49,-412,0,0,0,0,0,0,0,0,0,-1,1175,1436,0,0
-42,-412,0,0,0,0,0,0,0,0,0,-1,1182,1436,0,0
-35,-412,0,0,0,0,0,0,0,0,0,-1,1189,1436,0,0
-28,-412,0,0,0,0,0,0,0,0,0,-1,1196,1436,0,0
-21,-412,0,0,0,0,0,0,0,0,0,-1,1203,1436,0,0
-14,-412,0,0,0,0,0,0,0,0,0,-1,1210,1436,0,0
-7,-412,0,0,0,0,0,0,0,0,0,-1,1217,1436,0,0
0,-412,0,0,0,0,0,0,0,0,0,-1,1224,1436,0,0
7,-412,0,0,0,0,0,0,0,0,0,-1,1231,1436,0,0
14,-412,0,0,0,0,0,0,0,0,0,-1,1238,1436,0,0
21,-412,0,0,0,0,0,0,0,0,0,-1,1245,1436,0,0
28,-412,0,0,0,0,0,0,0,0,0,-1,1252,1436,0,0
35,-412,0,0,0,0,0,0,0,0,0,-1,1259,1436,0,0
42,-412,0,0,0,0,0,0,0,0,0,-1,1266,1436,0,0
49,-412,0,0,0,0,0,0,0,0,0,-1,1273,1436,0,0
56,-412,0,0,0,0,0,0,0,0,0,-1,1280,1436,0,0
63,-412,0,0,0,0,0,0,0,0,0,-1,1287,1436,0,0
70,-412,0,0,0,0,0,0,0,0,0,-1,1294,1436,0,0
77,-412,0,0,0,0,0,0,0,0,0,-1,1301,1436,0,0
84,-412,0,0,0,0,0,0,0,0,0,-1,1308,1436,0,0
91,-412,0,0,0,0,0,0,0,0,0,-1,1315,1436,0,0
98,-412,0,0,0,0,0,0,0,0,0,-1,1322,1436,0,0
105,-412,0,0,0,0,0,0,0,0,0,-1,1329,1436,0,0
112,-412,0,0,0,0,0,0,0,0,0,-1,1336,1436,0,0
119,-412,0,0,0,0,0,0,0,0,0,-1,1343,1436,0,0
126,-412,0,0,0,0,0,0,0,0,0,-1,1350,1436,0,0
133,-412,0,0,0,0,0,0,0,0,0,-1,1357,1436,0,0
140,-412,0,0,0,0,0,0,0,0,0,-1,1364,1436,0,0
147,-412,0,0,0,0,0,0,0,0,0,-1,1371,1436,0,0
154,-412,0,0,0,0,0,0,0,0,0,-1,1378,1436,0,0
161,-412,0,0,0,0,0,0,0,0,0,-1,1385,1436,0,0
168,-412,0,0,0,0,0,0,0,0,0,-1,1392,1436,0,0
175,-412,0,0,0,0,0,0,0,0,0,-1,1399,1436,0,0
182,-412,0,0,0,0,0,0,0,0,0,-1,1406,1436,0,0
189,-412,0,0,0,0,0,0,0,0,0,-1,1413,1436,0,0
196,-412,0,0,0,0,0,0,0,0,0,-1,1420,1436,0,0
203,-412,0,0,0,0,0,0,0,0,0,-1,1427,1436,0,0
210,-412,0,0,0,0,0,0,0,0,0,-1,1434,1436,0,0
217,-412,0,0,0,0,0,0,0,0,0,-1,1441,1436,0,0
224,-412,0,0,0,0,0,0,0,0,0,-1,1448,1436,0,0
231,-412,0,0,0,0,0,0,0,0,0,-1,1455,1436,0,0
238,-412,0,0,0,0,0,0,0,0,0,-1,1462,1436,0,0
245,-412,0,0,0,0,0,0,0,0,0,-1,1469,1436,0,0
252,-412,0,0,0,0,0,0,0,0,0,-1,1476,1436,0,0
259,-412,0,0,0,0,0,0,0,0,0,-1,1483,1436,0,0
266,-412,0,0,0,0,0,0,0,0,0,-1,1490,1436,0,0
273,-412,0,0,0,0,0,0,0,0,0,-1,1497,1436,0,0
280,-412,0,0,0,0,0,0,0,0,0,-1,1504,1436,0,0
287,-412,0,0,0,0,0,0,0,0,0,-1,1511,1436,0,0
294,-412,0,0,0,0,0,0,0,0,0,-1,1518,1436,0,0
301,-412,0,0,0,0,0,0,0,0,0,-1,1525,1436,0,0
308,-412,0,0,0,0,0,0,0,0,0,-1,1532,1436,0,0
315,-412,0,0,0,0,0,0,0,0,0,-1,1539,1436,0,0
322,-412,0,0,0,0,0,0,0,0,0,-1,1546,1436,0,0
329,-412,0,0,0,0,0,0,0,0,0,-1,1553,1436,0,0
336,-412,0,0,0,0,0,0,0,0,0,-1,1560,1436,0,0
343,-412,0,0,0,0,0,0,0,0,0,-1,1567,1436,0,0
350,-412,0,0,0,0,0,0,0,0,0,-1,1574,1436,0,0
357,-412,0,0,0,0,0,0,0,0,0,-1,1581,1436,0,0
364,-412,0,0,0,0,0,0,0,0,0,-1,1588,1436,0,0
371,-412,0,0,0,0,0,0,0,0,0,-1,1595,1436,0,0
378,-412,0,0,0,0,0,0,0,0,0,-1,1602,1436,0,0
385,-412,0,0,0,0,0,0,0,0,0,-1,1609,1436,0,0
392,-412,0,0,0,0,0,0,0,0,0,-1,1616,1436,0,0
399,-412,0,0,0,0,0,0,0,0,0,-1,1623,1436,0,0
406,-412,0,0,0,0,0,0,0,0,0,-1,1630,1436,0,0
413,-412,0,0,0,0,0,0,0,0,0,-1,1637,1436,0,0
420,-412,0,0,0,0,0,0,0,0,0,-1,1644,1436,0,0
427,-412,0,0,0,0,0,0,0,0,0,-1,1651,1436,0,0
434,-412,0,0,0,0,0,0,0,0,0,-1,1658,1436,0,0
441,-412,0,0,0,0,0,0,0,0,0,-1,1665,1436,0,0
448,-412,0,0,0,0,0,0,0,0,0,-1,1672,1436,0,0
455,-412,0,0,0,0,0,0,0,0,0,-1,1679,1436,0,0
462,-412,0,0,0,0,0,0,0,0,0,-1,1686,1436,0,0
469,-412,0,0,0,0,0,0,0,0,0,-1,1693,1436,0,0
476,-412,0,0,0,0,0,0,0,0,0,-1,1700,1436,0,0
483,-412,0,0,0,0,0,0,0,0,0,-1,1707,1436,0,0
490,-412,0,0,0,0,0,0,0,0,0,-1,1714,1436,0,0
497,-412,0,0,0,0,0,0,0,0,0,-1,1721,1436,0,0
504,-412,0,0,0,0,0,0,0,0,0,-1,1728,1436,0,0
511,-412,0,0,0,0,0,0,0,0,0,-1,1735,1436,0,0
518,-412,30.1038,-2.43384,0,0,0,0,0,0,0,-1,1742,1436,30.1038,2.43383
525,-412,29.5283,-1.42493,0,0,0,0,0,0,0,-1,1749,1436,29.5283,1.42495
532,-412,28.8533,-0.386597,0,0,0,0,0,0,0,-1,1756,1436,28.8533,0.386632
539,-412,25.8654,2.74683,0,0,0,0,0,0,0,-1,1763,1436,25.8654,-2.74685
546,-412,25.4265,2.4342,0,0,0,0,0,0,0,-1,1770,1436,25.4265,-2.4342
553,-412,26.3595,7.49255,0,0,0,0,0,0,0,-1,1777,1436,26.3595,-7.4925
560,-412,24.9116,7.94324,0,0,0,0,0,0,0,-1,1784,1436,24.9116,-7.94327
567,-412,23.668,7.94531,0,0,0,0,0,0,0,-1,1791,1436,23.6679,-7.94534
574,-412,23.0142,9.17236,0,0,0,0,0,0,0,-1,1798,1436,23.0141,-9.17235
581,-412,22.2615,10.0349,0,0,0,0,0,0,0,-1,1805,1436,22.2615,-10.0349
588,-412,21.6893,10.8069,0,0,0,0,0,0,0,-1,1812,1436,21.6893,-10.8069
595,-412,21.5137,14.3157,0,0,0,0,0,0,0,-1,1819,1436,21.5137,-14.3157
602,-412,27.6968,18.4541,0,0,0,0,0,0,0,-1,1826,1436,27.6967,-18.4542
609,-412,27.8754,17.6274,0.00520764,0.00512781,-0.00436974,0.00953765,0.000797808,-0.780831,0.00610988,0.0385513,1833,1436,27.8754,-17.6274
616,-412,27.9397,17.0272,0.00371827,0.00335661,-0.0029754,0.00651833,0.000556547,-0.755048,0.00417243,0.0119731,1840,1436,27.9397,-17.0272
623,-412,27.9032,16.4742,0.0026893,0.00219369,-0.00203755,0.00449406,0.00038893,-0.724886,0.00287518,0.00938238,1847,1436,27.9032,-16.4742
630,-412,27.8945,15.9033,0.00210242,0.00133388,-0.00138315,0.00315369,0.000282613,-0.649904,0.00201487,0.0124569,1854,1436,27.8946,-15.9034
637,-412,27.8866,15.3514,0.00178947,0.000694848,-0.000875784,0.0022749,0.000209422,-0.50612,0.00145184,0.0148368,1861,1436,27.8866,-15.3515
644,-412,27.8662,14.8075,0.00182217,0.000151571,-0.000489965,0.00195527,1.84748e-05,-0.265244,0.0012974,0.01519,1868,1436,27.8662,-14.8075
651,-412,27.799,14.2698,0.00211793,-0.000293058,-0.000201296,0.00213462,-0.000309749,-0.0827281,0.00153677,0.0241179,1875,1436,27.799,-14.2698
658,-412,27.7855,13.7422,0.00254958,-0.000801687,0.00013776,0.00255523,-0.00080734,0.0410146,0.00202692,0.0172065,1882,1436,27.7856,-13.7422
665,-412,27.7854,13.192,0.00317293,-0.00149319,0.000570156,0.00324159,-0.00156185,0.119842,0.00282922,0.0219134,1889,1436,27.7854,-13.1921
672,-412,27.8185,12.6218,0.0039412,-0.00240011,0.00114948,0.00414314,-0.00260205,0.1739,0.00392807,0.0278059,1896,1436,27.8185,-12.6219
679,-412,27.9407,12.1021,0.0047139,-0.00389715,0.00210025,0.00519884,-0.00438209,0.226921,0.00553825,0.0432303,1903,1436,27.9407,-12.1021
686,-412,27.8009,11.6873,0,0,0,0,0,0,0,-1,1910,1436,27.8009,-11.6872
693,-412,11.9346,6.02344,0,0,0,0,0,0,0,-1,1917,1436,11.9346,-6.02343
700,-412,8.82764,5.8844,0,0,0,0,0,0,0,-1,1924,1436,8.82761,-5.88444
707,-412,6.59998,1.68994,0,0,0,0,0,0,0,-1,1931,1436,6.60002,-1.68995
714,-412,4.77283,-2.39832,0,0,0,0,0,0,0,-1,1938,1436,4.77288,2.39835
721,-412,0,0,0,0,0,0,0,0,0,-1,1945,1436,0,0
728,-412,0,0,0,0,0,0,0,0,0,-1,1952,1436,0,0
735,-412,0,0,0,0,0,0,0,0,0,-1,1959,1436,0,0
742,-412,0,0,0,0,0,0,0,0,0,-1,1966,1436,0,0
749,-412,0,0,0,0,0,0,0,0,0,-1,1973,1436,0,0
756,-412,0,0,0,0,0,0,0,0,0,-1,1980,1436,0,0
763,-412,0,0,0,0,0,0,0,0,0,-1,1987,1436,0,0
770,-412,0,0,0,0,0,0,0,0,0,-1,1994,1436,0,0
777,-412,0,0,0,0,0,0,0,0,0,-1,2001,1436,0,0
784,-412,0,0,0,0,0,0,0,0,0,-1,2008,1436,0,0
791,-412,0,0,0,0,0,0,0,0,0,-1,2015,1436,0,0
798,-412,0,0,0,0,0,0,0,0,0,-1,2022,1436,0,0
805,-412,0,0,0,0,0,0,0,0,0,-1,2029,1436,0,0
812,-412,0,0,0,0,0,0,0,0,0,-1,2036,1436,0,0
-700,-419,0,0,0,0,0,0,0,0,0,-1,524,1443,0,0
-693,-419,0,0,0,0,0,0,0,0,0,-1,531,1443,0,0
-686,-419,0,0,0,0,0,0,0,0,0,-1,538,1443,0,0
-679,-419,0,0,0,0,0,0,0,0,0,-1,545,1443,0,0
-672,-419,0,0,0,0,0,0,0,0,0,-1,552,1443,0,0
-665,-419,0,0,0,0,0,0,0,0,0,-1,559,1443,0,0
-658,-419,0,0,0,0,0,0,0,0,0,-1,566,1443,0,0
-651,-419,0,0,0,0,0,0,0,0,0,-1,573,1443,0,0
-644,-419,0,0,0,0,0,0,0,0,0,-1,580,1443,0,0
-637,-419,0,0,0,0,0,0,0,0,0,-1,587,1443,0,0
-630,-419,0,0,0,0,0,0,0,0,0,-1,594,1443,0,0
-623,-419,0,0,0,0,0,0,0,0,0,-1,601,1443,0,0
-616,-419,0,0,0,0,0,0,0,0,0,-1,608,1443,0,0
-609,-419,0,0,0,0,0,0,0,0,0,-1,615,1443,0,0
-602,-419,0,0,0,0,0,0,0,0,0,-1,622,1443,0,0
-595,-419,-11.4904,-0.622681,0,0,0,0,0,0,0,-1,629,1443,-11.4903,0.622714
-588,-419,-9.09369,0.742432,0,0,0,0,0,0,0,-1,636,1443,-9.09366,-0.742482
-581,-419,-6.39172,2.14673,0,0,0,0,0,0,0,-1,643,1443,-6.39175,-2.14668
-574,-419,-4.09772,3.54773,0,0,0,0,0,0,0,-1,650,1443,-4.09772,-3.54767
-567,-419,-6.14038,3.22498,0,0,0,0,0,0,0,-1,657,1443,-6.14037,-3.22497
-560,-419,-4.52814,5.22253,0,0,0,0,0,0,0,-1,664,1443,-4.52816,-5.22251
-553,-419,-5.08331,6.11829,0,0,0,0,0,0,0,-1,671,1443,-5.08331,-6.1183
-546,-419,-10.3732,9.23279,0,0,0,0,0,0,0,-1,678,1443,-10.3732,-9.23275
-539,-419,-11.7209,10.6111,0,0,0,0,0,0,0,-1,685,1443,-11.7209,-10.6111
-532,-419,-11.7634,11.3428,0.00282965,0.00212127,0.00210026,0.00460538,0.000345547,0.701864,0.0029618,0.0234473,692,1443,-11.7634,-11.3427
-525,-419,-11.7752,11.9908,0.00202006,0.00141445,0.00145964,0.00320797,0.000226545,0.683123,0.00206728,0.0130337,699,1443,-11.7752,-11.9908
-518,-419,-11.7618,12.5852,0.00181705,0.00118894,0.00128735,0.00282809,0.000177897,0.665759,0.00182898,0.0168385,706,1443,-11.7618,-12.5852
-511,-419,-11.7757,13.1787,0.00192172,0.00141863,0.00142821,0.00312037,0.000219977,0.69823,0.00201094,0.0190084,713,1443,-11.7757,-13.1787
-504,-419,-11.8436,13.7784,0.00223603,0.0019161,0.00177041,0.00385369,0.00029844,0.740344,0.00247565,0.0184603,720,1443,-11.8436,-13.7784
-497,-419,-11.8831,14.3429,0.00280164,0.00270742,0.00233875,0.00509375,0.00041531,0.775328,0.00326621,0.013151,727,1443,-11.883,-14.3429
-490,-419,-11.8914,14.9122,0.00362471,0.00383543,0.00318628,0.00691809,0.000542041,0.801926,0.00444242,0.0113358,734,1443,-11.8914,-14.9122
-483,-419,-11.9172,15.4893,0.00469953,0.00535316,0.00430943,0.00934815,0.000704536,0.823244,0.00601104,0.0098022,741,1443,-11.9172,-15.4892
-476,-419,-11.8873,16.1368,0.00598559,0.00724284,0.00572181,0.0123705,0.00085797,0.840111,0.00797638,0.0166319,748,1443,-11.8874,-16.1368
-469,-419,-11.7451,16.9916,0.00757711,0.00953651,0.00749436,0.0161149,0.00099869,0.850392,0.0104263,0.0481273,755,1443,-11.7451,-16.9916
-462,-419,-11.5219,17.8208,0,0,0,0,0,0,0,-1,762,1443,-11.5219,-17.8209
-455,-419,-7.35645,11.9451,0,0,0,0,0,0,0,-1,769,1443,-7.35646,-11.9451
-448,-419,-7.49109,9.92444,0,0,0,0,0,0,0,-1,776,1443,-7.49109,-9.92442
-441,-419,-7.65527,8.75574,0,0,0,0,0,0,0,-1,783,1443,-7.65525,-8.75568
-434,-419,-11.3724,12.3643,0,0,0,0,0,0,0,-1,790,1443,-11.3724,-12.3643
-427,-419,-8.23193,7.89404,0,0,0,0,0,0,0,-1,797,1443,-8.23193,-7.89404
-420,-419,-8.74091,6.36597,0,0,0,0,0,0,0,-1,804,1443,-8.74089,-6.366
-413,-419,-9.88391,6.53955,0,0,0,0,0,0,0,-1,811,1443,-9.8839,-6.53955
-406,-419,-10.3372,2.75195,0,0,0,0,0,0,0,-1,818,1443,-10.3372,-2.75201
-399,-419,-11.5999,1.40002,0,0,0,0,0,0,0,-1,825,1443,-11.5999,-1.39998
-392,-419,0,0,0,0,0,0,0,0,0,-1,832,1443,0,0
-385,-419,0,0,0,0,0,0,0,0,0,-1,839,1443,0,0
-378,-419,0,0,0,0,0,0,0,0,0,-1,846,1443,0,0
-371,-419,0,0,0,0,0,0,0,0,0,-1,853,1443,0,0
-364,-419,0,0,0,0,0,0,0,0,0,-1,860,1443,0,0
-357,-419,0,0,0,0,0,0,0,0,0,-1,867,1443,0,0
-350,-419,0,0,0,0,0,0,0,0,0,-1,874,1443,0,0
-343,-419,0,0,0,0,0,0,0,0,0,-1,881,1443,0,0
-336,-419,0,0,0,0,0,0,0,0,0,-1,888,1443,0,0
-329,-419,0,0,0,0,0,0,0,0,0,-1,895,1443,0,0
-322,-419,0,0,0,0,0,0,0,0,0,-1,902,1443,0,0
-315,-419,0,0,0,0,0,0,0,0,0,-1,909,1443,0,0
-308,-419,0,0,0,0,0,0,0,0,0,-1,916,1443,0,0
-301,-419,0,0,0,0,0,0,0,0,0,-1,923,1443,0,0
-294,-419,0,0,0,0,0,0,0,0,0,-1,930,1443,0,0
-287,-419,0,0,0,0,0,0,0,0,0,-1,937,1443,0,0
-280,-419,0,0,0,0,0,0,0,0,0,-1,944,1443,0,0
-273,-419,0,0,0,0,0,0,0,0,0,-1,951,1443,0,0
-266,-419,0,0,0,0,0,0,0,0,0,-1,958,1443,0,0
-259,-419,0,0,0,0,0,0,0,0,0,-1,965,1443,0,0
-252,-419,0,0,0,0,0,0,0,0,0,-1,972,1443,0,0
-245,-419,0,0,0,0,0,0,0,0,0,-1,979,1443,0,0
-238,-419,0,0,0,0,0,0,0,0,0,-1,986,1443,0,0
-231,-419,0,0,0,0,0,0,0,0,0,-1,993,1443,0,0
-224,-419,0,0,0,0,0,0,0,0,0,-1,1000,1443,0,0
-217,-419,0,0,0,0,0,0,0,0,0,-1,1007,1443,0,0
-210,-419,0,0,0,0,0,0,0,0,0,-1,1014,1443,0,0
-203,-419,0,0,0,0,0,0,0,0,0,-1,1021,1443,0,0
-196,-419,0,0,0,0,0,0,0,0,0,-1,1028,1443,0,0
-189,-419,0,0,0,0,0,0,0,0,0,-1,1035,1443,0,0
-182,-419,0,0,0,0,0,0,0,0,0,-1,1042,1443,0,0
-175,-419,0,0,0,0,0,0,0,0,0,-1,1049,1443,0,0
-168,-419,0,0,0,0,0,0,0,0,0,-1,1056,1443,0,0
-161,-419,0,0,0,0,0,0,0,0,0,-1,1063,1443,0,0
-154,-419,0,0,0,0,0,0,0,0,0,-1,1070,1443,0,0
-147,-419,0,0,0,0,0,0,0,0,0,-1,1077,1443,0,0
-140,-419,0,0,0,0,0,0,0,0,0,-1,1084,1443,0,0
-133,-419,0,0,0,0,0,0,0,0,0,-1,1091,1443,0,0
-126,-419,0,0,0,0,0,0,0,0,0,-1,1098,1443,0,0
-119,-419,0,0,0,0,0,0,0,0,0,-1,1105,1443,0,0
-112,-419,0,0,0,0,0,0,0,0,0,-1,1112,1443,0,0
-105,-419,0,0,0,0,0,0,0,0,0,-1,1119,1443,0,0
-98,-419,0,0,0,0,0,0,0,0,0,-1,1126,1443,0,0
-91,-419,0,0,0,0,0,0,0,0,0,-1,1133,1443,0,0
-84,-419,0,0,0,0,0,0,0,0,0,-1,1140,1443,0,0
-77,-419,0,0,0,0,0,0,0,0,0,-1,1147,1443,0,0
-70,-419,0,0,0,0,0,0,0,0,0,-1,1154,1443,0,0
-63,-419,0,0,0,0,0,0,0,0,0,-1,1161,1443,0,0
-56,-419,0,0,0,0,0,0,0,0,0,-1,1168,1443,0,0
-49,-419,0,0,0,0,0,0,0,0,0,-1,1175,1443,0,0
-42,-419,0,0,0,0,0,0,0,0,0,-1,1182,1443,0,0
-35,-419,0,0,0,0,0,0,0,0,0,-1,1189,1443,0,0
-28,-419,0,0,0,0,0,0,0,0,0,-1,1196,1443,0,0
-21,-419,0,0,0,0,0,0,0,0,0,-1,1203,1443,0,0
-14,-419,0,0,0,0,0,0,0,0,0,-1,1210,1443,0,0
-7,-419,0,0,0,0,0,0,0,0,0,-1,1217,1443,0,0
0,-419,0,0,0,0,0,0,0,0,0,-1,1224,1443,0,0
7,-419,0,0,0,0,0,0,0,0,0,-1,1231,1443,0,0
14,-419,0,0,0,0,0,0,0,0,0,-1,1238,1443,0,0
21,-419,0,0,0,0,0,0,0,0,0,-1,1245,1443,0,0
28,-419,0,0,0,0,0,0,0,0,0,-1,1252,1443,0,0
35,-419,0,0,0,0,0,0,0,0,0,-1,1259,1443,0,0
42,-419,0,0,0,0,0,0,0,0,0,-1,1266,1443,0,0
49,-419,0,0,0,0,0,0,0,0,0,-1,1273,1443,0,0
56,-419,0,0,0,0,0,0,0,0,0,-1,1280,1443,0,0
63,-419,0,0,0,0,0,0,0,0,0,-1,1287,1443,0,0
70,-419,0,0,0,0,0,0,0,0,0,-1,1294,1443,0,0
77,-419,0,0,0,0,0,0,0,0,0,-1,1301,1443,0,0
84,-419,0,0,0,0,0,0,0,0,0,-1,1308,1443,0,0
91,-419,0,0,0,0,0,0,0,0,0,-1,1315,1443,0,0
98,-419,0,0,0,0,0,0,0,0,0,-1,1322,1443,0,0
105,-419,0,0,0,0,0,0,0,0,0,-1,1329,1443,0,0
112,-419,0,0,0,0,0,0,0,0,0,-1,1336,1443,0,0
119,-419,0,0,0,0,0,0,0,0,0,-1,1343,1443,0,0
126,-419,0,0,0,0,0,0,0,0,0,-1,1350,1443,0,0
133,-419,0,0,0,0,0,0,0,0,0,-1,1357,1443,0,0
140,-419,0,0,0,0,0,0,0,0,0,-1,1364,1443,0,0
147,-419,0,0,0,0,0,0,0,0,0,-1,1371,1443,0,0
154,-419,0,0,0,0,0,0,0,0,0,-1,1378,1443,0,0
161,-419,0,0,0,0,0,0,0,0,0,-1,1385,1443,0,0
168,-419,0,0,0,0,0,0,0,0,0,-1,1392,1443,0,0
175,-419,0,0,0,0,0,0,0,0,0,-1,1399,1443,0,0
182,-419,0,0,0,0,0,0,0,0,0,-1,1406,1443,0,0
189,-419,0,0,0,0,0,0,0,0,0,-1,1413,1443,0,0
196,-419,0,0,0,0,0,0,0,0,0,-1,1420,1443,0,0
203,-419,0,0,0,0,0,0,0,0,0,-1,1427,1443,0,0
210,-419,0,0,0,0,0,0,0,0,0,-1,1434,1443,0,0
217,-419,0,0,0,0,0,0,0,0,0,-1,1441,1443,0,0
224,-419,0,0,0,0,0,0,0,0,0,-1,1448,1443,0,0
231,-419,0,0,0,0,0,0,0,0,0,-1,1455,1443,0,0
238,-419,0,0,0,0,0,0,0,0,0,-1,1462,1443,0,0
245,-419,0,0,0,0,0,0,0,0,0,-1,1469,1443,0,0
252,-419,0,0,0,0,0,0,0,0,0,-1,1476,1443,0,0
259,-419,0,0,0,0,0,0,0,0,0,-1,1483,1443,0,0
266,-419,0,0,0,0,0,0,0,0,0,-1,1490,1443,0,0
273,-419,0,0,0,0,0,0,0,0,0,-1,1497,1443,0,0
280,-419,0,0,0,0,0,0,0,0,0,-1,1504,1443,0,0
287,-419,0,0,0,0,0,0,0,0,0,-1,1511,1443,0,0
294,-419,0,0,0,0,0,0,0,0,0,-1,1518,1443,0,0
301,-419,0,0,0,0,0,0,0,0,0,-1,1525,1443,0,0
308,-419,0,0,0,0,0,0,0,0,0,-1,1532,1443,0,0
315,-419,0,0,0,0,0,0,0,0,0,-1,1539,1443,0,0
322,-419,0,0,0,0,0,0,0,0,0,-1,1546,1443,0,0
329,-419,0,0,0,0,0,0,0,0,0,-1,1553,1443,0,0
336,-419,0,0,0,0,0,0,0,0,0,-1,1560,1443,0,0
343,-419,0,0,0,0,0,0,0,0,0,-1,1567,1443,0,0
350,-419,0,0,0,0,0,0,0,0,0,-1,1574,1443,0,0
357,-419,0,0,0,0,0,0,0,0,0,-1,1581,1443,0,0
364,-419,0,0,0,0,0,0,0,0,0,-1,1588,1443,0,0
371,-419,0,0,0,0,0,0,0,0,0,-1,1595,1443,0,0
378,-419,0,0,0,0,0,0,0,0,0,-1,1602,1443,0,0
385,-419,0,0,0,0,0,0,0,0,0,-1,1609,1443,0,0
392,-419,0,0,0,0,0,0,0,0,0,-1,1616,1443,0,0
399,-419,0,0,0,0,0,0,0,0,0,-1,1623,1443,0,0
406,-419,0,0,0,0,0,0,0,0,0,-1,1630,1443,0,0
413,-419,0,0,0,0,0,0,0,0,0,-1,1637,1443,0,0
420,-419,0,0,0,0,0,0,0,0,0,-1,1644,1443,0,0
427,-419,0,0,0,0,0,0,0,0,0,-1,1651,1443,0,0
434,-419,0,0,0,0,0,0,0,0,0,-1,1658,1443,0,0
441,-419,0,0,0,0,0,0,0,0,0,-1,1665,1443,0,0
448,-419,0,0,0,0,0,0,0,0,0,-1,1672,1443,0,0
455,-419,0,0,0,0,0,0,0,0,0,-1,1679,1443,0,0
462,-419,0,0,0,0,0,0,0,0,0,-1,1686,1443,0,0
469,-419,0,0,0,0,0,0,0,0,0,-1,1693,1443,0,0
476,-419,0,0,0,0,0,0,0,0,0,-1,1700,1443,0,0
483,-419,0,0,0,0,0,0,0,0,0,-1,1707,1443,0,0
490,-419,0,0,0,0,0,0,0,0,0,-1,1714,1443,0,0
497,-419,0,0,0,0,0,0,0,0,0,-1,1721,1443,0,0
504,-419,0,0,0,0,0,0,0,0,0,-1,1728,1443,0,0
511,-419,20.3005,3.7959,0,0,0,0,0,0,0,-1,1735,1443,20.3005,-3.79584
518,-419,21.3154,2.03027,0,0,0,0,0,0,0,-1,1742,1443,21.3155,-2.03029
525,-419,28.3439,-1.24475,0,0,0,0,0,0,0,-1,1749,1443,28.3438,1.24471
532,-419,27.5902,-0.272583,0,0,0,0,0,0,0,-1,1756,1443,27.5902,0.272526
539,-419,26.5278,1.60583,0,0,0,0,0,0,0,-1,1763,1443,26.5279,-1.60579
546,-419,24.9509,2.77539,0,0,0,0,0,0,0,-1,1770,1443,24.9509,-2.77537
553,-419,24.118,3.75525,0,0,0,0,0,0,0,-1,1777,1443,24.1181,-3.75526
560,-419,11.8199,8.26343,0,0,0,0,0,0,0,-1,1784,1443,11.82,-8.26341
567,-419,21.5143,8.74719,0,0,0,0,0,0,0,-1,1791,1443,21.5143,-8.74722
574,-419,19.5886,6.46155,0,0,0,0,0,0,0,-1,1798,1443,19.5886,-6.46157
581,-419,20.7926,11.4265,0,0,0,0,0,0,0,-1,1805,1443,20.7926,-11.4265
588,-419,19.4242,12.5363,0,0,0,0,0,0,0,-1,1812,1443,19.4242,-12.5362
595,-419,22.9375,16.0151,0,0,0,0,0,0,0,-1,1819,1443,22.9375,-16.0152
602,-419,27.4124,18.2073,0,0,0,0,0,0,0,-1,1826,1443,27.4124,-18.2072
609,-419,27.4146,17.592,0.00464561,0.0044784,-0.00390926,0.00847216,0.000651851,-0.774707,0.00544385,0.0209152,1833,1443,27.4145,-17.592
616,-419,27.389,17.0533,0.00345662,0.00304754,-0.0027681,0.00602773,0.000476433,-0.74852,0.00386946,0.0115923,1840,1443,27.3891,-17.0533
623,-419,27.3602,16.515,0.00264536,0.00201735,-0.00193882,0.00429544,0.00036727,-0.705116,0.00274939,0.00997484,1847,1443,27.3602,-16.515
630,-419,27.3606,15.9514,0.00220778,0.00120713,-0.00133619,0.00313425,0.00028066,-0.606257,0.00200251,0.0130083,1854,1443,27.3605,-15.9515
637,-419,27.3368,15.3994,0.00198355,0.000577553,-0.000829564,0.00236793,0.000193177,-0.433898,0.00151833,0.0138194,1861,1443,27.3368,-15.3994
644,-419,27.3086,14.8571,0.00210243,2.41317e-05,-0.000453815,0.0021972,-7.06411e-05,-0.205877,0.00148891,0.011659,1868,1443,27.3085,-14.857
651,-419,27.2773,14.3164,0.00247098,-0.000384539,-0.000199299,0.00248482,-0.000398382,-0.0693463,0.00180406,0.0108329,1875,1443,27.2774,-14.3163
658,-419,27.2552,13.7826,0.00301788,-0.000849455,8.01857e-05,0.00301954,-0.000851117,0.0207222,0.00234871,0.0128664,1882,1443,27.2552,-13.7826
665,-419,27.2708,13.2318,0.00377183,-0.00149016,0.000450654,0.00381015,-0.00152848,0.0848201,0.00317471,0.0193017,1889,1443,27.2708,-13.2319
672,-419,27.3199,12.6252,0.00465482,-0.00231297,0.000950029,0.00478203,-0.00244018,0.133109,0.00424218,0.0303069,1896,1443,27.3199,-12.6253
679,-419,27.3978,11.9601,0,0,0,0,0,0,0,-1,1903,1443,27.3978,-11.96
686,-419,17.4127,8.03076,0,0,0,0,0,0,0,-1,1910,1443,17.4127,-8.03071
693,-419,8.76086,5.60535,0,0,0,0,0,0,0,-1,1917,1443,8.76091,-5.6054
700,-419,11.0498,4.85156,0,0,0,0,0,0,0,-1,1924,1443,11.0498,-4.85153
707,-419,9.5752,1.80042,0,0,0,0,0,0,0,-1,1931,1443,9.57523,-1.80037
714,-419,5.77576,-1.25061,0,0,0,0,0,0,0,-1,1938,1443,5.7757,1.25056
721,-419,0,0,0,0,0,0,0,0,0,-1,1945,1443,0,0
728,-419,0,0,0,0,0,0,0,0,0,-1,1952,1443,0,0
735,-419,0,0,0,0,0,0,0,0,0,-1,1959,1443,0,0
742,-419,0,0,0,0,0,0,0,0,0,-1,1966,1443,0,0
749,-419,0,0,0,0,0,0,0,0,0,-1,1973,1443,0,0
756,-419,0,0,0,0,0,0,0,0,0,-1,1980,1443,0,0
763,-419,0,0,0,0,0,0,0,0,0,-1,1987,1443,0,0
770,-419,0,0,0,0,0,0,0,0,0,-1,1994,1443,0,0
777,-419,0,0,0,0,0,0,0,0,0,-1,2001,1443,0,0
784,-419,0,0,0,0,0,0,0,0,0,-1,2008,1443,0,0
791,-419,0,0,0,0,0,0,0,0,0,-1,2015,1443,0,0
798,-419,0,0,0,0,0,0,0,0,0,-1,2022,1443,0,0
805,-419,0,0,0,0,0,0,0,0,0,-1,2029,1443,0,0
812,-419,0,0,0,0,0,0,0,0,0,-1,2036,1443,0,0
-700,-426,0,0,0,0,0,0,0,0,0,-1,524,1450,0,0
-693,-426,0,0,0,0,0,0,0,0,0,-1,531,1450,0,0
-686,-426,0,0,0,0,0,0,0,0,0,-1,538,1450,0,0
-679,-426,0,0,0,0,0,0,0,0,0,-1,545,1450,0,0
-672,-426,0,0,0,0,0,0,0,0,0,-1,552,1450,0,0
-665,-426,0,0,0,0,0,0,0,0,0,-1,559,1450,0,0
-658,-426,0,0,0,0,0,0,0,0,0,-1,566,1450,0,0
-651,-426,0,0,0,0,0,0,0,0,0,-1,573,1450,0,0
-644,-426,0,0,0,0,0,0,0,0,0,-1,580,1450,0,0
-637,-426,0,0,0,0,0,0,0,0,0,-1,587,1450,0,0
-630,-426,0,0,0,0,0,0,0,0,0,-1,594,1450,0,0
-623,-426,0,0,0,0,0,0,0,0,0,-1,601,1450,0,0
-616,-426,0,0,0,0,0,0,0,0,0,-1,608,1450,0,0
-609,-426,0,0,0,0,0,0,0,0,0,-1,615,1450,0,0
-602,-426,0,0,0,0,0,0,0,0,0,-1,622,1450,0,0
-595,-426,0,0,0,0,0,0,0,0,0,-1,629,1450,0,0
-588,-426,-10.184,-0.554321,0,0,0,0,0,0,0,-1,636,1450,-10.184,0.554321
-581,-426,-7.3349,1.48157,0,0,0,0,0,0,0,-1,643,1450,-7.33491,-1.48152
-574,-426,-5.02856,2.89319,0,0,0,0,0,0,0,-1,650,1450,-5.02858,-2.89319
-567,-426,-3.04797,1.72644,0,0,0,0,0,0,0,-1,657,1450,-3.04797,-1.72639
-560,-426,-5.55682,3.44397,0,0,0,0,0,0,0,-1,664,1450,-5.55684,-3.44399
-553,-426,-4.67017,6.66614,0,0,0,0,0,0,0,-1,671,1450,-4.67015,-6.66619
-546,-426,-7.58752,8.28882,0,0,0,0,0,0,0,-1,678,1450,-7.58752,-8.28878
-539,-426,-10.436,10.7441,0,0,0,0,0,0,0,-1,685,1450,-10.436,-10.7441
-532,-426,-11.2394,11.3243,0,0,0,0,0,0,0,-1,692,1450,-11.2394,-11.3243
-525,-426,-11.2152,11.954,0.00189542,0.00148955,0.00161901,0.00332417,6.08049e-05,0.723051,0.00219612,0.0197984,699,1450,-11.2152,-11.9539
-518,-426,-11.1906,12.6068,0.00162426,0.00105736,0.00129563,0.00266708,1.45338e-05,0.677708,0.00177323,0.0167542,706,1450,-11.1906,-12.6068
-511,-426,-11.2029,13.2052,0.00168151,0.00120421,0.00134653,0.00281037,7.53431e-05,0.697692,0.00184898,0.0158692,713,1450,-11.2029,-13.2051
-504,-426,-11.2511,13.776,0.0018984,0.00160394,0.00156719,0.00332526,0.000177076,0.738564,0.00216023,0.0154134,720,1450,-11.2511,-13.776
-497,-426,-11.2799,14.3527,0.00231172,0.0022649,0.00197735,0.0042658,0.000310826,0.779479,0.00274613,0.01307,727,1450,-11.2799,-14.3527
-490,-426,-11.3099,14.9525,0.00292713,0.0032073,0.00262222,0.00569317,0.000441257,0.812083,0.00365725,0.0127153,734,1450,-11.3099,-14.9525
-483,-426,-11.324,15.5275,0.00375409,0.00447566,0.00348808,0.00762157,0.000608184,0.836931,0.00489094,0.0117406,741,1450,-11.324,-15.5275
-476,-426,-11.3323,16.106,0.00476163,0.00603931,0.0045856,0.0100304,0.000770581,0.85461,0.00644542,0.00966435,748,1450,-11.3323,-16.106
-469,-426,-11.3505,16.6853,0.0059762,0.00788492,0.00592808,0.012935,0.000926145,0.865209,0.00833178,0.0112712,755,1450,-11.3505,-16.6853
-462,-426,-11.2852,17.3027,0,0,0,0,0,0,0,-1,762,1450,-11.2851,-17.3027
-455,-426,-10.215,17.7007,0,0,0,0,0,0,0,-1,769,1450,-10.215,-17.7007
-448,-426,-6.46545,10.1322,0,0,0,0,0,0,0,-1,776,1450,-6.46543,-10.1322
-441,-426,-10.9547,11.4747,0,0,0,0,0,0,0,-1,783,1450,-10.9546,-11.4748
-434,-426,-10.4998,13.6189,0,0,0,0,0,0,0,-1,790,1450,-10.4997,-13.6189
-427,-426,-9.36627,13.7396,0,0,0,0,0,0,0,-1,797,1450,-9.36628,-13.7396
-420,-426,-5.33765,7.95044,0,0,0,0,0,0,0,-1,804,1450,-5.33766,-7.95041
-413,-426,-10.1148,5.0415,0,0,0,0,0,0,0,-1,811,1450,-10.1148,-5.04152
-406,-426,-11.4199,3.6438,0,0,0,0,0,0,0,-1,818,1450,-11.4198,-3.64382
-399,-426,-12.7595,2.29004,0,0,0,0,0,0,0,-1,825,1450,-12.7595,-2.29003
-392,-426,-12.4147,0.537354,0,0,0,0,0,0,0,-1,832,1450,-12.4147,-0.53731
-385,-426,0,0,0,0,0,0,0,0,0,-1,839,1450,0,0
-378,-426,0,0,0,0,0,0,0,0,0,-1,846,1450,0,0
-371,-426,0,0,0,0,0,0,0,0,0,-1,853,1450,0,0
-364,-426,0,0,0,0,0,0,0,0,0,-1,860,1450,0,0
-357,-426,0,0,0,0,0,0,0,0,0,-1,867,1450,0,0
-350,-426,0,0,0,0,0,0,0,0,0,-1,874,1450,0,0
-343,-426,0,0,0,0,0,0,0,0,0,-1,881,1450,0,0
-336,-426,0,0,0,0,0,0,0,0,0,-1,888,1450,0,0
-329,-426,0,0,0,0,0,0,0,0,0,-1,895,1450,0,0
-322,-426,0,0,0,0,0,0,0,0,0,-1,902,1450,0,0
-315,-426,0,0,0,0,0,0,0,0,0,-1,909,1450,0,0
-308,-426,0,0,0,0,0,0,0,0,0,-1,916,1450,0,0
-301,-426,0,0,0,0,0,0,0,0,0,-1,923,1450,0,0
-294,-426,0,0,0,0,0,0,0,0,0,-1,930,1450,0,0
-287,-426,0,0,0,0,0,0,0,0,0,-1,937,1450,0,0
-280,-426,0,0,0,0,0,0,0,0,0,-1,944,1450,0,0
-273,-426,0,0,0,0,0,0,0,0,0,-1,951,1450,0,0
-266,-426,0,0,0,0,0,0,0,0,0,-1,958,1450,0,0
-259,-426,0,0,0,0,0,0,0,0,0,-1,965,1450,0,0
-252,-426,0,0,0,0,0,0,0,0,0,-1,972,1450,0,0
-245,-426,0,0,0,0,0,0,0,0,0,-1,979,1450,0,0
-238,-426,0,0,0,0,0,0,0,0,0,-1,986,1450,0,0
-231,-426,0,0,0,0,0,0,0,0,0,-1,993,1450,0,0
-224,-426,0,0,0,0,0,0,0,0,0,-1,1000,1450,0,0
-217,-426,0,0,0,0,0,0,0,0,0,-1,1007,1450,0,0
-210,-426,0,0,0,0,0,0,0,0,0,-1,1014,1450,0,0
-203,-426,0,0,0,0,0,0,0,0,0,-1,1021,1450,0,0
-196,-426,0,0,0,0,0,0,0,0,0,-1,1028,1450,0,0
-189,-426,0,0,0,0,0,0,0,0,0,-1,1035,1450,0,0
-182,-426,0,0,0,0,0,0,0,0,0,-1,1042,1450,0,0
-175,-426,0,0,0,0,0,0,0,0,0,-1,1049,1450,0,0
-168,-426,0,0,0,0,0,0,0,0,0,-1,1056,1450,0,0
-161,-426,0,0,0,0,0,0,0,0,0,-1,1063,1450,0,0
-154,-426,0,0,0,0,0,0,0,0,0,-1,1070,1450,0,0
-147,-426,0,0,0,0,0,0,0,0,0,-1,1077,1450,0,0
-140,-426,0,0,0,0,0,0,0,0,0,-1,1084,1450,0,0
-133,-426,0,0,0,0,0,0,0,0,0,-1,1091,1450,0,0
-126,-426,0,0,0,0,0,0,0,0,0,-1,1098,1450,0,0
-119,-426,0,0,0,0,0,0,0,0,0,-1,1105,1450,0,0
-112,-426,0,0,0,0,0,0,0,0,0,-1,1112,1450,0,0
-105,-426,0,0,0,0,0,0,0,0,0,-1,1119,1450,0,0
-98,-426,0,0,0,0,0,0,0,0,0,-1,1126,1450,0,0
-91,-426,0,0,0,0,0,0,0,0,0,-1,1133,1450,0,0
-84,-426,0,0,0,0,0,0,0,0,0,-1,1140,1450,0,0
-77,-426,0,0,0,0,0,0,0,0,0,-1,1147,1450,0,0
-70,-426,0,0,0,0,0,0,0,0,0,-1,1154,1450,0,0
-63,-426,0,0,0,0,0,0,0,0,0,-1,1161,1450,0,0
-56,-426,0,0,0,0,0,0,0,0,0,-1,1168,1450,0,0
-49,-426,0,0,0,0,0,0,0,0,0,-1,1175,1450,0,0
-42,-426,0,0,0,0,0,0,0,0,0,-1,1182,1450,0,0
-35,-426,0,0,0,0,0,0,0,0,0,-1,1189,1450,0,0
-28,-426,0,0,0,0,0,0,0,0,0,-1,1196,1450,0,0
-21,-426,0,0,0,0,0,0,0,0,0,-1,1203,1450,0,0
-14,-426,0,0,0,0,0,0,0,0,0,-1,1210,1450,0,0
-7,-426,0,0,0,0,0,0,0,0,0,-1,1217,1450,0,0
0,-426,0,0,0,0,0,0,0,0,0,-1,1224,1450,0,0
7,-426,0,0,0,0,0,0,0,0,0,-1,1231,1450,0,0
14,-426,0,0,0,0,0,0,0,0,0,-1,1238,1450,0,0
21,-426,0,0,0,0,0,0,0,0,0,-1,1245,1450,0,0
28,-426,0,0,0,0,0,0,0,0,0,-1,1252,1450,0,0
35,-426,0,0,0,0,0,0,0,0,0,-1,1259,1450,0,0
42,-426,0,0,0,0,0,0,0,0,0,-1,1266,1450,0,0
49,-426,0,0,0,0,0,0,0,0,0,-1,1273,1450,0,0
56,-426,0,0,0,0,0,0,0,0,0,-1,1280,1450,0,0
63,-426,0,0,0,0,0,0,0,0,0,-1,1287,1450,0,0
70,-426,0,0,0,0,0,0,0,0,0,-1,1294,1450,0,0
77,-426,0,0,0,0,0,0,0,0,0,-1,1301,1450,0,0
84,-426,0,0,0,0,0,0,0,0,0,-1,1308,1450,0,0
91,-426,0,0,0,0,0,0,0,0,0,-1,1315,1450,0,0
98,-426,0,0,0,0,0,0,0,0,0,-1,1322,1450,0,0
105,-426,0,0,0,0,0,0,0,0,0,-1,1329,1450,0,0
112,-426,0,0,0,0,0,0,0,0,0,-1,1336,1450,0,0
119,-426,0,0,0,0,0,0,0,0,0,-1,1343,1450,0,0
126,-426,0,0,0,0,0,0,0,0,0,-1,1350,1450,0,0
133,-426,0,0,0,0,0,0,0,0,0,-1,1357,1450,0,0
140,-426,0,0,0,0,0,0,0,0,0,-1,1364,1450,0,0
147,-426,0,0,0,0,0,0,0,0,0,-1,1371,1450,0,0
154,-426,0,0,0,0,0,0,0,0,0,-1,1378,1450,0,0
161,-426,0,0,0,0,0,0,0,0,0,-1,1385,1450,0,0
168,-426,0,0,0,0,0,0,0,0,0,-1,1392,1450,0,0
175,-426,0,0,0,0,0,0,0,0,0,-1,1399,1450,0,0
182,-426,0,0,0,0,0,0,0,0,0,-1,1406,1450,0,0
189,-426,0,0,0,0,0,0,0,0,0,-1,1413,1450,0,0
196,-426,0,0,0,0,0,0,0,0,0,-1,1420,1450,0,0
203,-426,0,0,0,0,0,0,0,0,0,-1,1427,1450,0,0
210,-426,0,0,0,0,0,0,0,0,0,-1,1434,1450,0,0
217,-426,0,0,0,0,0,0,0,0,0,-1,1441,1450,0,0
224,-426,0,0,0,0,0,0,0,0,0,-1,1448,1450,0,0
231,-426,0,0,0,0,0,0,0,0,0,-1,1455,1450,0,0
238,-426,0,0,0,0,0,0,0,0,0,-1,1462,1450,0,0
245,-426,0,0,0,0,0,0,0,0,0,-1,1469,1450,0,0
252,-426,0,0,0,0,0,0,0,0,0,-1,1476,1450,0,0
259,-426,0,0,0,0,0,0,0,0,0,-1,1483,1450,0,0
266,-426,0,0,0,0,0,0,0,0,0,-1,1490,1450,0,0
273,-426,0,0,0,0,0,0,0,0,0,-1,1497,1450,0,0
280,-426,0,0,0,0,0,0,0,0,0,-1,1504,1450,0,0
287,-426,0,0,0,0,0,0,0,0,0,-1,1511,1450,0,0
294,-426,0,0,0,0,0,0,0,0,0,-1,1518,1450,0,0
301,-426,0,0,0,0,0,0,0,0,0,-1,1525,1450,0,0
308,-426,0,0,0,0,0,0,0,0,0,-1,1532,1450,0,0
315,-426,0,0,0,0,0,0,0,0,0,-1,1539,1450,0,0
322,-426,0,0,0,0,0,0,0,0,0,-1,1546,1450,0,0
329,-426,0,0,0,0,0,0,0,0,0,-1,1553,1450,0,0
336,-426,0,0,0,0,0,0,0,0,0,-1,1560,1450,0,0
343,-426,0,0,0,0,0,0,0,0,0,-1,1567,1450,0,0
350,-426,0,0,0,0,0,0,0,0,0,-1,1574,1450,0,0
357,-426,0,0,0,0,0,0,0,0,0,-1,1581,1450,0,0
364,-426,0,0,0,0,0,0,0,0,0,-1,1588,1450,0,0
371,-426,0,0,0,0,0,0,0,0,0,-1,1595,1450,0,0
378,-426,0,0,0,0,0,0,0,0,0,-1,1602,1450,0,0
385,-426,0,0,0,0,0,0,0,0,0,-1,1609,1450,0,0
392,-426,0,0,0,0,0,0,0,0,0,-1,1616,1450,0,0
399,-426,0,0,0,0,0,0,0,0,0,-1,1623,1450,0,0
406,-426,0,0,0,0,0,0,0,0,0,-1,1630,1450,0,0
413,-426,0,0,0,0,0,0,0,0,0,-1,1637,1450,0,0
420,-426,0,0,0,0,0,0,0,0,0,-1,1644,1450,0,0
427,-426,0,0,0,0,0,0,0,0,0,-1,1651,1450,0,0
434,-426,0,0,0,0,0,0,0,0,0,-1,1658,1450,0,0
441,-426,0,0,0,0,0,0,0,0,0,-1,1665,1450,0,0
448,-426,0,0,0,0,0,0,0,0,0,-1,1672,1450,0,0
455,-426,0,0,0,0,0,0,0,0,0,-1,1679,1450,0,0
462,-426,0,0,0,0,0,0,0,0,0,-1,1686,1450,0,0
469,-426,0,0,0,0,0,0,0,0,0,-1,1693,1450,0,0
476,-426,0,0,0,0,0,0,0,0,0,-1,1700,1450,0,0
483,-426,0,0,0,0,0,0,0,0,0,-1,1707,1450,0,0
490,-426,0,0,0,0,0,0,0,0,0,-1,1714,1450,0,0
497,-426,0,0,0,0,0,0,0,0,0,-1,1721,1450,0,0
504,-426,20.6873,3.38367,0,0,0,0,0,0,0,-1,1728,1450,20.6873,-3.38361
511,-426,19.6676,3.53748,0,0,0,0,0,0,0,-1,1735,1450,19.6676,-3.53749
518,-426,18.6853,3.32288,0,0,0,0,0,0,0,-1,1742,1450,18.6853,-3.3229
525,-426,18.9552,2.71033,0,0,0,0,0,0,0,-1,1749,1450,18.9552,-2.71034
532,-426,19.4333,2.70764,0,0,0,0,0,0,0,-1,1756,1450,19.4334,-2.70764
539,-426,25.1482,2.56287,0,0,0,0,0,0,0,-1,1763,1450,25.1482,-2.56286
546,-426,24.1136,3.75659,0,0,0,0,0,0,0,-1,1770,1450,24.1136,-3.7566
553,-426,23.0791,4.95032,0,0,0,0,0,0,0,-1,1777,1450,23.0791,-4.95034
560,-426,12.9688,11.8289,0,0,0,0,0,0,0,-1,1784,1450,12.9688,-11.8288
567,-426,13.6388,11.5623,0,0,0,0,0,0,0,-1,1791,1450,13.6388,-11.5623
574,-426,14.3943,11.0286,0,0,0,0,0,0,0,-1,1798,1450,14.3942,-11.0285
581,-426,16.3879,11.4653,0,0,0,0,0,0,0,-1,1805,1450,16.3879,-11.4653
588,-426,18.1212,12.5547,0,0,0,0,0,0,0,-1,1812,1450,18.1212,-12.5547
595,-426,26.5814,18.7511,0,0,0,0,0,0,0,-1,1819,1450,26.5815,-18.7511
602,-426,26.7601,18.1957,0.00559055,0.00543788,-0.00466703,0.0101819,0.000846562,-0.777221,0.00652406,0.040881,1826,1450,26.7601,-18.1957
609,-426,26.8721,17.618,0.00433096,0.00391529,-0.00345451,0.00758388,0.000662363,-0.755352,0.00485023,0.0142462,1833,1450,26.872,-17.6181
616,-426,26.859,17.0596,0.0033035,0.0027088,-0.00248926,0.00551311,0.000499192,-0.725953,0.00352083,0.015388,1840,1450,26.859,-17.0596
623,-426,26.8268,16.526,0.00265107,0.00177616,-0.00176972,0.0040366,0.000390634,-0.664233,0.00257076,0.012242,1847,1450,26.8268,-16.526
630,-426,26.8428,15.9899,0.00233928,0.00101069,-0.00124163,0.00308314,0.000266818,-0.539763,0.00197251,0.0129709,1854,1450,26.8427,-15.9899
637,-426,26.8202,15.4341,0.0022008,0.00040652,-0.000782164,0.00249389,0.000113432,-0.35852,0.0016261,0.0133322,1861,1450,26.8201,-15.4341
644,-426,26.7701,14.8762,0.00239192,-0.000130053,-0.000447884,0.0024691,-0.000207232,-0.170643,0.00171931,0.0128265,1868,1450,26.7702,-14.8763
651,-426,26.726,14.3441,0.00281608,-0.000497353,-0.000244894,0.00283408,-0.000515355,-0.0733782,0.00208253,0.0120665,1875,1450,26.726,-14.3441
658,-426,26.717,13.7733,0.00348205,-0.000911221,-4.12384e-05,0.00348244,-0.000911608,-0.00938561,0.00267773,0.0122813,1882,1450,26.7171,-13.7733
665,-426,26.7699,13.1392,0.00437693,-0.00148152,0.000259914,0.00438844,-0.00149303,0.0442498,0.00353016,0.0255209,1889,1450,26.7699,-13.1392
672,-426,26.8876,12.5022,0,0,0,0,0,0,0,-1,1896,1450,26.8876,-12.5021
679,-426,17.1522,8.15784,0,0,0,0,0,0,0,-1,1903,1450,17.1522,-8.15784
686,-426,13.5326,8.03711,0,0,0,0,0,0,0,-1,1910,1450,13.5326,-8.03717
693,-426,11.8607,6.45215,0,0,0,0,0,0,0,-1,1917,1450,11.8607,-6.45215
700,-426,9.24304,2.95447,0,0,0,0,0,0,0,-1,1924,1450,9.24305,-2.95442
707,-426,8.44519,-1.21448,0,0,0,0,0,0,0,-1,1931,1450,8.44514,1.21454
714,-426,0,0,0,0,0,0,0,0,0,-1,1938,1450,0,0
721,-426,0,0,0,0,0,0,0,0,0,-1,1945,1450,0,0
728,-426,0,0,0,0,0,0,0,0,0,-1,1952,1450,0,0
735,-426,0,0,0,0,0,0,0,0,0,-1,1959,1450,0,0
742,-426,0,0,0,0,0,0,0,0,0,-1,1966,1450,0,0
749,-426,0,0,0,0,0,0,0,0,0,-1,1973,1450,0,0
756,-426,0,0,0,0,0,0,0,0,0,-1,1980,1450,0,0
763,-426,0,0,0,0,0,0,0,0,0,-1,1987,1450,0,0
770,-426,0,0,0,0,0,0,0,0,0,-1,1994,1450,0,0
777,-426,0,0,0,0,0,0,0,0,0,-1,2001,1450,0,0
784,-426,0,0,0,0,0,0,0,0,0,-1,2008,1450,0,0
791,-426,0,0,0,0,0,0,0,0,0,-1,2015,1450,0,0
798,-426,0,0,0,0,0,0,0,0,0,-1,2022,1450,0,0
805,-426,0,0,0,0,0,0,0,0,0,-1,2029,1450,0,0
812,-426,0,0,0,0,0,0,0,0,0,-1,2036,1450,0,0
-700,-433,0,0,0,0,0,0,0,0,0,-1,524,1457,0,0
-693,-433,0,0,0,0,0,0,0,0,0,-1,531,1457,0,0
-686,-433,0,0,0,0,0,0,0,0,0,-1,538,1457,0,0
-679,-433,0,0,0,0,0,0,0,0,0,-1,545,1457,0,0
-672,-433,0,0,0,0,0,0,0,0,0,-1,552,1457,0,0
-665,-433,0,0,0,0,0,0,0,0,0,-1,559,1457,0,0
-658,-433,0,0,0,0,0,0,0,0,0,-1,566,1457,0,0
-651,-433,0,0,0,0,0,0,0,0,0,-1,573,1457,0,0
-644,-433,0,0,0,0,0,0,0,0,0,-1,580,1457,0,0
-637,-433,0,0,0,0,0,0,0,0,0,-1,587,1457,0,0
-630,-433,0,0,0,0,0,0,0,0,0,-1,594,1457,0,0
-623,-433,0,0,0,0,0,0,0,0,0,-1,601,1457,0,0
-616,-433,0,0,0,0,0,0,0,0,0,-1,608,1457,0,0
-609,-433,0,0,0,0,0,0,0,0,0,-1,615,1457,0,0
-602,-433,0,0,0,0,0,0,0,0,0,-1,622,1457,0,0
-595,-433,0,0,0,0,0,0,0,0,0,-1,629,1457,0,0
-588,-433,-10.3756,-0.467041,0,0,0,0,0,0,0,-1,636,1457,-10.3756,0.467081
-581,-433,-8.12201,0.884033,0,0,0,0,0,0,0,-1,643,1457,-8.12204,-0.884056
-574,-433,-5.86847,2.23523,0,0,0,0,0,0,0,-1,650,1457,-5.86844,-2.23519
-567,-433,-5.42255,1.16833,0,0,0,0,0,0,0,-1,657,1457,-5.42254,-1.1683
-560,-433,-6.84027,1.86414,0,0,0,0,0,0,0,-1,664,1457,-6.84026,-1.86412
-553,-433,-5.74017,1.79163,0,0,0,0,0,0,0,-1,671,1457,-5.74015,-1.79166
-546,-433,-6.9668,8.25073,0,0,0,0,0,0,0,-1,678,1457,-6.96679,-8.25074
-539,-433,-7.3136,8.75659,0,0,0,0,0,0,0,-1,685,1457,-7.31362,-8.75659
-532,-433,-10.5116,11.2261,0,0,0,0,0,0,0,-1,692,1457,-10.5116,-11.2261
-525,-433,-10.5696,12.0479,0.00189221,0.00165144,0.00184782,0.00362357,-7.99143e-05,0.752869,0.00244278,0.0402828,699,1457,-10.5696,-12.0478
-518,-433,-10.6165,12.6262,0.00154742,0.00101681,0.00135652,0.00266434,-0.000100112,0.688828,0.00181052,0.0180608,706,1457,-10.6164,-12.6263
-511,-433,-10.6567,13.215,0.00156561,0.00108612,0.00131831,0.0026658,-1.40667e-05,0.695453,0.00178191,0.0161734,713,1457,-10.6567,-13.215
-504,-433,-10.6536,13.776,0.00168393,0.00137371,0.00141436,0.00295166,0.000105981,0.730783,0.00193341,0.0124101,720,1457,-10.6536,-13.7759
-497,-433,-10.6745,14.3635,0.00195381,0.00188421,0.00167751,0.00359688,0.000241146,0.775027,0.00232172,0.0138959,727,1457,-10.6745,-14.3635
-490,-433,-10.7214,14.9843,0.00238575,0.0026252,0.00213648,0.0046453,0.000365644,0.813388,0.00298247,0.0161617,734,1457,-10.7214,-14.9843
-483,-433,-10.7343,15.58,0.00298982,0.00362875,0.00277639,0.00610399,0.00051458,0.842679,0.00390911,0.0161829,741,1457,-10.7343,-15.5799
-476,-433,-10.7491,16.139,0.00375964,0.00486659,0.00362388,0.00797902,0.000647218,0.861178,0.00511727,0.0110073,748,1457,-10.7492,-16.139
-469,-433,-10.7754,16.7104,0.00471683,0.00633506,0.00472499,0.0103197,0.000732176,0.870197,0.0066492,0.0106921,755,1457,-10.7754,-16.7104
-462,-433,-10.8262,17.3033,0.00586009,0.00812284,0.00605277,0.0131491,0.000833871,0.877791,0.00850173,0.0159495,762,1457,-10.8261,-17.3034
-455,-433,-10.5231,18.2039,0,0,0,0,0,0,0,-1,769,1457,-10.5231,-18.2039
-448,-433,-6.94812,14.5563,0,0,0,0,0,0,0,-1,776,1457,-6.94809,-14.5562
-441,-433,-9.97485,14.0258,0,0,0,0,0,0,0,-1,783,1457,-9.97488,-14.0257
-434,-433,-9.41205,14.2297,0,0,0,0,0,0,0,-1,790,1457,-9.41205,-14.2297
-427,-433,-8.67419,13.6827,0,0,0,0,0,0,0,-1,797,1457,-8.67422,-13.6827
-420,-433,-5.74658,9.49121,0,0,0,0,0,0,0,-1,804,1457,-5.7466,-9.49119
-413,-433,-3.63074,5.5813,0,0,0,0,0,0,0,-1,811,1457,-3.63072,-5.58129
-406,-433,-12.3472,4.69373,0,0,0,0,0,0,0,-1,818,1457,-12.3472,-4.69374
-399,-433,-12.055,2.83594,0,0,0,0,0,0,0,-1,825,1457,-12.055,-2.83594
-392,-433,-12.9772,1.6228,0,0,0,0,0,0,0,-1,832,1457,-12.9772,-1.62282
-385,-433,-13.7999,0.514771,0,0,0,0,0,0,0,-1,839,1457,-13.7999,-0.514788
-378,-433,0,0,0,0,0,0,0,0,0,-1,846,1457,0,0
-371,-433,0,0,0,0,0,0,0,0,0,-1,853,1457,0,0
-364,-433,0,0,0,0,0,0,0,0,0,-1,860,1457,0,0
-357,-433,0,0,0,0,0,0,0,0,0,-1,867,1457,0,0
-350,-433,0,0,0,0,0,0,0,0,0,-1,874,1457,0,0
-343,-433,0,0,0,0,0,0,0,0,0,-1,881,1457,0,0
-336,-433,0,0,0,0,0,0,0,0,0,-1,888,1457,0,0
-329,-433,0,0,0,0,0,0,0,0,0,-1,895,1457,0,0
-322,-433,0,0,0,0,0,0,0,0,0,-1,902,1457,0,0
-315,-433,0,0,0,0,0,0,0,0,0,-1,909,1457,0,0
-308,-433,0,0,0,0,0,0,0,0,0,-1,916,1457,0,0
-301,-433,0,0,0,0,0,0,0,0,0,-1,923,1457,0,0
-294,-433,0,0,0,0,0,0,0,0,0,-1,930,1457,0,0
-287,-433,0,0,0,0,0,0,0,0,0,-1,937,1457,0,0
-280,-433,0,0,0,0,0,0,0,0,0,-1,944,1457,0,0
-273,-433,0,0,0,0,0,0,0,0,0,-1,951,1457,0,0
-266,-433,0,0,0,0,0,0,0,0,0,-1,958,1457,0,0
-259,-433,0,0,0,0,0,0,0,0,0,-1,965,1457,0,0
-252,-433,0,0,0,0,0,0,0,0,0,-1,972,1457,0,0
-245,-433,0,0,0,0,0,0,0,0,0,-1,979,1457,0,0
-238,-433,0,0,0,0,0,0,0,0,0,-1,986,1457,0,0
-231,-433,0,0,0,0,0,0,0,0,0,-1,993,1457,0,0
-224,-433,0,0,0,0,0,0,0,0,0,-1,1000,1457,0,0
-217,-433,0,0,0,0,0,0,0,0,0,-1,1007,1457,0,0
-210,-433,0,0,0,0,0,0,0,0,0,-1,1014,1457,0,0
-203,-433,0,0,0,0,0,0,0,0,0,-1,1021,1457,0,0
-196,-433,0,0,0,0,0,0,0,0,0,-1,1028,1457,0,0
-189,-433,0,0,0,0,0,0,0,0,0,-1,1035,1457,0,0
-182,-433,0,0,0,0,0,0,0,0,0,-1,1042,1457,0,0
-175,-433,0,0,0,0,0,0,0,0,0,-1,1049,1457,0,0
-168,-433,0,0,0,0,0,0,0,0,0,-1,1056,1457,0,0
-161,-433,0,0,0,0,0,0,0,0,0,-1,1063,1457,0,0
-154,-433,0,0,0,0,0,0,0,0,0,-1,1070,1457,0,0
-147,-433,0,0,0,0,0,0,0,0,0,-1,1077,1457,0,0
-140,-433,0,0,0,0,0,0,0,0,0,-1,1084,1457,0,0
-133,-433,0,0,0,0,0,0,0,0,0,-1,1091,1457,0,0
-126,-433,0,0,0,0,0,0,0,0,0,-1,1098,1457,0,0
-119,-433,0,0,0,0,0,0,0,0,0,-1,1105,1457,0,0
-112,-433,0,0,0,0,0,0,0,0,0,-1,1112,1457,0,0
-105,-433,0,0,0,0,0,0,0,0,0,-1,1119,1457,0,0
-98,-433,0,0,0,0,0,0,0,0,0,-1,1126,1457,0,0
-91,-433,0,0,0,0,0,0,0,0,0,-1,1133,1457,0,0
-84,-433,0,0,0,0,0,0,0,0,0,-1,1140,1457,0,0
-77,-433,0,0,0,0,0,0,0,0,0,-1,1147,1457,0,0
-70,-433,0,0,0,0,0,0,0,0,0,-1,1154,1457,0,0
-63,-433,0,0,0,0,0,0,0,0,0,-1,1161,1457,0,0
-56,-433,0,0,0,0,0,0,0,0,0,-1,1168,1457,0,0
-49,-433,0,0,0,0,0,0,0,0,0,-1,1175,1457,0,0
-42,-433,0,0,0,0,0,0,0,0,0,-1,1182,1457,0,0
-35,-433,0,0,0,0,0,0,0,0,0,-1,1189,1457,0,0
-28,-433,0,0,0,0,0,0,0,0,0,-1,1196,1457,0,0
-21,-433,0,0,0,0,0,0,0,0,0,-1,1203,1457,0,0
-14,-433,0,0,0,0,0,0,0,0,0,-1,1210,1457,0,0
-7,-433,0,0,0,0,0,0,0,0,0,-1,1217,1457,0,0
0,-433,0,0,0,0,0,0,0,0,0,-1,1224,1457,0,0
7,-433,0,0,0,0,0,0,0,0,0,-1,1231,1457,0,0
14,-433,0,0,0,0,0,0,0,0,0,-1,1238,1457,0,0
21,-433,0,0,0,0,0,0,0,0,0,-1,1245,1457,0,0
28,-433,0,0,0,0,0,0,0,0,0,-1,1252,1457,0,0
35,-433,0,0,0,0,0,0,0,0,0,-1,1259,1457,0,0
42,-433,0,0,0,0,0,0,0,0,0,-1,1266,1457,0,0
49,-433,0,0,0,0,0,0,0,0,0,-1,1273,1457,0,0
56,-433,0,0,0,0,0,0,0,0,0,-1,1280,1457,0,0
63,-433,0,0,0,0,0,0,0,0,0,-1,1287,1457,0,0
70,-433,0,0,0,0,0,0,0,0,0,-1,1294,1457,0,0
77,-433,0,0,0,0,0,0,0,0,0,-1,1301,1457,0,0
84,-433,0,0,0,0,0,0,0,0,0,-1,1308,1457,0,0
91,-433,0,0,0,0,0,0,0,0,0,-1,1315,1457,0,0
98,-433,0,0,0,0,0,0,0,0,0,-1,1322,1457,0,0
105,-433,0,0,0,0,0,0,0,0,0,-1,1329,1457,0,0
112,-433,0,0,0,0,0,0,0,0,0,-1,1336,1457,0,0
119,-433,0,0,0,0,0,0,0,0,0,-1,1343,1457,0,0
126,-433,0,0,0,0,0,0,0,0,0,-1,1350,1457,0,0
133,-433,0,0,0,0,0,0,0,0,0,-1,1357,1457,0,0
140,-433,0,0,0,0,0,0,0,0,0,-1,1364,1457,0,0
147,-433,0,0,0,0,0,0,0,0,0,-1,1371,1457,0,0
154,-433,0,0,0,0,0,0,0,0,0,-1,1378,1457,0,0
161,-433,0,0,0,0,0,0,0,0,0,-1,1385,1457,0,0
168,-433,0,0,0,0,0,0,0,0,0,-1,1392,1457,0,0
175,-433,0,0,0,0,0,0,0,0,0,-1,1399,1457,0,0
182,-433,0,0,0,0,0,0,0,0,0,-1,1406,1457,0,0
189,-433,0,0,0,0,0,0,0,0,0,-1,1413,1457,0,0
196,-433,0,0,0,0,0,0,0,0,0,-1,1420,1457,0,0
203,-433,0,0,0,0,0,0,0,0,0,-1,1427,1457,0,0
210,-433,0,0,0,0,0,0,0,0,0,-1,1434,1457,0,0
217,-433,0,0,0,0,0,0,0,0,0,-1,1441,1457,0,0
224,-433,0,0,0,0,0,0,0,0,0,-1,1448,1457,0,0
231,-433,0,0,0,0,0,0,0,0,0,-1,1455,1457,0,0
238,-433,0,0,0,0,0,0,0,0,0,-1,1462,1457,0,0
245,-433,0,0,0,0,0,0,0,0,0,-1,1469,1457,0,0
252,-433,0,0,0,0,0,0,0,0,0,-1,1476,1457,0,0
259,-433,0,0,0,0,0,0,0,0,0,-1,1483,1457,0,0
266,-433,0,0,0,0,0,0,0,0,0,-1,1490,1457,0,0
273,-433,0,0,0,0,0,0,0,0,0,-1,1497,1457,0,0
280,-433,0,0,0,0,0,0,0,0,0,-1,1504,1457,0,0
287,-433,0,0,0,0,0,0,0,0,0,-1,1511,1457,0,0
294,-433,0,0,0,0,0,0,0,0,0,-1,1518,1457,0,0
301,-433,0,0,0,0,0,0,0,0,0,-1,1525,1457,0,0
308,-433,0,0,0,0,0,0,0,0,0,-1,1532,1457,0,0
315,-433,0,0,0,0,0,0,0,0,0,-1,1539,1457,0,0
322,-433,0,0,0,0,0,0,0,0,0,-1,1546,1457,0,0
329,-433,0,0,0,0,0,0,0,0,0,-1,1553,1457,0,0
336,-433,0,0,0,0,0,0,0,0,0,-1,1560,1457,0,0
343,-433,0,0,0,0,0,0,0,0,0,-1,1567,1457,0,0
350,-433,0,0,0,0,0,0,0,0,0,-1,1574,1457,0,0
357,-433,0,0,0,0,0,0,0,0,0,-1,1581,1457,0,0
364,-433,0,0,0,0,0,0,0,0,0,-1,1588,1457,0,0
371,-433,0,0,0,0,0,0,0,0,0,-1,1595,1457,0,0
378,-433,0,0,0,0,0,0,0,0,0,-1,1602,1457,0,0
385,-433,0,0,0,0,0,0,0,0,0,-1,1609,1457,0,0
392,-433,0,0,0,0,0,0,0,0,0,-1,1616,1457,0,0
399,-433,0,0,0,0,0,0,0,0,0,-1,1623,1457,0,0
406,-433,0,0,0,0,0,0,0,0,0,-1,1630,1457,0,0
413,-433,0,0,0,0,0,0,0,0,0,-1,1637,1457,0,0
420,-433,0,0,0,0,0,0,0,0,0,-1,1644,1457,0,0
427,-433,0,0,0,0,0,0,0,0,0,-1,1651,1457,0,0
434,-433,0,0,0,0,0,0,0,0,0,-1,1658,1457,0,0
441,-433,0,0,0,0,0,0,0,0,0,-1,1665,1457,0,0
448,-433,0,0,0,0,0,0,0,0,0,-1,1672,1457,0,0
455,-433,0,0,0,0,0,0,0,0,0,-1,1679,1457,0,0
462,-433,0,0,0,0,0,0,0,0,0,-1,1686,1457,0,0
469,-433,0,0,0,0,0,0,0,0,0,-1,1693,1457,0,0
476,-433,0,0,0,0,0,0,0,0,0,-1,1700,1457,0,0
483,-433,0,0,0,0,0,0,0,0,0,-1,1707,1457,0,0
490,-433,0,0,0,0,0,0,0,0,0,-1,1714,1457,0,0
497,-433,0,0,0,0,0,0,0,0,0,-1,1721,1457,0,0
504,-433,19.9058,3.03662,0,0,0,0,0,0,0,-1,1728,1457,19.9058,-3.03656
511,-433,19.0145,3.07837,0,0,0,0,0,0,0,-1,1735,1457,19.0146,-3.07834
518,-433,18.071,3.06433,0,0,0,0,0,0,0,-1,1742,1457,18.071,-3.06432
525,-433,17.2048,3.37085,0,0,0,0,0,0,0,-1,1749,1457,17.2049,-3.37083
532,-433,16.5637,3.36646,0,0,0,0,0,0,0,-1,1756,1457,16.5637,-3.36643
539,-433,15.9193,3.30396,0,0,0,0,0,0,0,-1,1763,1457,15.9193,-3.30394
546,-433,23.1903,4.81775,0,0,0,0,0,0,0,-1,1770,1457,23.1903,-4.81775
553,-433,13.9674,11.5781,0,0,0,0,0,0,0,-1,1777,1457,13.9674,-11.5781
560,-433,13.9855,11.7341,0,0,0,0,0,0,0,-1,1784,1457,13.9855,-11.7341
567,-433,13.9264,11.3364,0,0,0,0,0,0,0,-1,1791,1457,13.9263,-11.3364
574,-433,15.5305,12.3673,0,0,0,0,0,0,0,-1,1798,1457,15.5305,-12.3673
581,-433,16.6405,12.1898,0,0,0,0,0,0,0,-1,1805,1457,16.6405,-12.1898
588,-433,26.4386,19.7478,0,0,0,0,0,0,0,-1,1812,1457,26.4386,-19.7478
595,-433,26.3043,18.8275,0.00645001,0.00627317,-0.00532101,0.0116833,0.00103984,-0.77709,0.00746645,0.0475918,1819,1457,26.3044,-18.8275
602,-433,26.2935,18.2054,0.0050193,0.00466746,-0.00399334,0.0088406,0.000846164,-0.763386,0.0056329,0.0258952,1826,1457,26.2934,-18.2054
609,-433,26.3478,17.6296,0.00392285,0.00332586,-0.00294274,0.00658219,0.000666514,-0.734854,0.00418369,0.0171561,1833,1457,26.3478,-17.6296
616,-433,26.3522,17.0934,0.00304533,0.00226351,-0.00210789,0.00479825,0.000510592,-0.693715,0.00304295,0.0142791,1840,1457,26.3521,-17.0934
623,-433,26.2913,16.5303,0.00253826,0.00139697,-0.00147627,0.00355034,0.000384901,-0.600971,0.00224959,0.0111654,1847,1457,26.2913,-16.5302
630,-433,26.2853,15.994,0.0023572,0.000659395,-0.00101025,0.00282786,0.000188737,-0.435983,0.00182558,0.01404,1854,1457,26.2853,-15.994
637,-433,26.2771,15.4434,0.00234376,8.7656e-05,-0.000618479,0.00250218,-7.07668e-05,-0.250758,0.0016922,0.0152416,1861,1457,26.2771,-15.4434
644,-433,26.2415,14.9144,0.00265864,-0.000418169,-0.000349911,0.00269793,-0.000457461,-0.111823,0.0019689,0.0162042,1868,1457,26.2415,-14.9144
651,-433,26.2092,14.3636,0.00324213,-0.000722742,-0.000233095,0.00325578,-0.000736399,-0.0585214,0.00245311,0.0127856,1875,1457,26.2092,-14.3637
658,-433,26.1461,13.7843,0.00415292,-0.00106308,-0.00015187,0.00415734,-0.0010675,-0.0290834,0.00318754,0.0296061,1882,1457,26.1461,-13.7843
665,-433,26.3707,13.061,0,0,0,0,0,0,0,-1,1889,1457,26.3707,-13.0611
672,-433,18.115,8.7207,0,0,0,0,0,0,0,-1,1896,1457,18.115,-8.72074
679,-433,17.2969,9.6355,0,0,0,0,0,0,0,-1,1903,1457,17.2968,-9.63548
686,-433,13.6356,8.61694,0,0,0,0,0,0,0,-1,1910,1457,13.6356,-8.61694
693,-433,13.4081,8.39624,0,0,0,0,0,0,0,-1,1917,1457,13.4081,-8.39624
700,-433,7.16809,-1.5166,0,0,0,0,0,0,0,-1,1924,1457,7.16806,1.51656
707,-433,8.68359,-2.82202,0,0,0,0,0,0,0,-1,1931,1457,8.68359,2.82197
714,-433,0,0,0,0,0,0,0,0,0,-1,1938,1457,0,0
721,-433,0,0,0,0,0,0,0,0,0,-1,1945,1457,0,0
728,-433,0,0,0,0,0,0,0,0,0,-1,1952,1457,0,0
735,-433,0,0,0,0,0,0,0,0,0,-1,1959,1457,0,0
742,-433,0,0,0,0,0,0,0,0,0,-1,1966,1457,0,0
749,-433,0,0,0,0,0,0,0,0,0,-1,1973,1457,0,0
756,-433,0,0,0,0,0,0,0,0,0,-1,1980,1457,0,0
763,-433,0,0,0,0,0,0,0,0,0,-1,1987,1457,0,0
770,-433,0,0,0,0,0,0,0,0,0,-1,1994,1457,0,0
777,-433,0,0,0,0,0,0,0,0,0,-1,2001,1457,0,0
784,-433,0,0,0,0,0,0,0,0,0,-1,2008,1457,0,0
791,-433,0,0,0,0,0,0,0,0,0,-1,2015,1457,0,0
798,-433,0,0,0,0,0,0,0,0,0,-1,2022,1457,0,0
805,-433,0,0,0,0,0,0,0,0,0,-1,2029,1457,0,0
812,-433,0,0,0,0,0,0,0,0,0,-1,2036,1457,0,0
-700,-440,0,0,0,0,0,0,0,0,0,-1,524,1464,0,0
-693,-440,0,0,0,0,0,0,0,0,0,-1,531,1464,0,0
-686,-440,0,0,0,0,0,0,0,0,0,-1,538,1464,0,0
-679,-440,0,0,0,0,0,0,0,0,0,-1,545,1464,0,0
-672,-440,0,0,0,0,0,0,0,0,0,-1,552,1464,0,0
-665,-440,0,0,0,0,0,0,0,0,0,-1,559,1464,0,0
-658,-440,0,0,0,0,0,0,0,0,0,-1,566,1464,0,0
-651,-440,0,0,0,0,0,0,0,0,0,-1,573,1464,0,0
-644,-440,0,0,0,0,0,0,0,0,0,-1,580,1464,0,0
-637,-440,0,0,0,0,0,0,0,0,0,-1,587,1464,0,0
-630,-440,0,0,0,0,0,0,0,0,0,-1,594,1464,0,0
-623,-440,0,0,0,0,0,0,0,0,0,-1,601,1464,0,0
-616,-440,0,0,0,0,0,0,0,0,0,-1,608,1464,0,0
-609,-440,0,0,0,0,0,0,0,0,0,-1,615,1464,0,0
-602,-440,0,0,0,0,0,0,0,0,0,-1,622,1464,0,0
-595,-440,0,0,0,0,0,0,0,0,0,-1,629,1464,0,0
-588,-440,0,0,0,0,0,0,0,0,0,-1,636,1464,0,0
-581,-440,-8.97278,0.254517,0,0,0,0,0,0,0,-1,643,1464,-8.97276,-0.254526
-574,-440,-7.00818,-0.918579,0,0,0,0,0,0,0,-1,650,1464,-7.00817,0.918538
-567,-440,-6.12152,-0.0766602,0,0,0,0,0,0,0,-1,657,1464,-6.12151,0.0767097
-560,-440,-5.46747,0.82251,0,0,0,0,0,0,0,-1,664,1464,-5.46748,-0.822551
-553,-440,-6.84729,0.0831299,0,0,0,0,0,0,0,-1,671,1464,-6.84732,-0.083136
-546,-440,-5.63446,-0.153198,0,0,0,0,0,0,0,-1,678,1464,-5.63447,0.153147
-539,-440,-6.80017,8.58252,0,0,0,0,0,0,0,-1,685,1464,-6.80015,-8.58257
-532,-440,-9.69647,11.3262,0,0,0,0,0,0,0,-1,692,1464,-9.69649,-11.3262
-525,-440,-10.065,12.0929,0.00165207,0.00176207,0.00199492,0.00370275,-0.000288611,0.799179,0.00257011,0.0461766,699,1464,-10.065,-12.0929
-518,-440,-10.0936,12.5735,0.00119333,0.000904827,0.00130986,0.00236686,-0.000268703,0.730556,0.00167467,0.0232293,706,1464,-10.0936,-12.5734
-511,-440,-10.0538,13.2272,0.00117293,0.000894146,0.00118779,0.00222948,-0.000162407,0.726988,0.00154331,0.0157263,713,1464,-10.0538,-13.2272
-504,-440,-10.0388,13.835,0.00121772,0.00107252,0.00117834,0.0023257,-3.54574e-05,0.754631,0.00156242,0.0180063,720,1464,-10.0388,-13.835
-497,-440,-10.0865,14.42,0.00139687,0.0014405,0.00132781,0.00274668,9.06966e-05,0.793612,0.00180165,0.0222161,727,1464,-10.0866,-14.42
-490,-440,-10.1197,14.9445,0.00173387,0.0020086,0.00165307,0.00353,0.000212469,0.826852,0.0022858,0.0240107,734,1464,-10.1197,-14.9445
-483,-440,-10.15,15.5508,0.00224088,0.00279726,0.00214058,0.00467765,0.000360481,0.850016,0.00300549,0.0211257,741,1464,-10.15,-15.5508
-476,-440,-10.1807,16.1396,0.00291326,0.00377893,0.00282478,0.00620385,0.000488349,0.861421,0.00398311,0.0140398,748,1464,-10.1807,-16.1396
-469,-440,-10.1906,16.7302,0.00374966,0.00499412,0.00376586,0.00818882,0.00055497,0.867273,0.00528395,0.0129951,755,1464,-10.1905,-16.7302
-462,-440,-10.2314,17.2942,0.0047503,0.00642435,0.00488103,0.0105396,0.000635043,0.870315,0.00682457,0.0164077,762,1464,-10.2314,-17.2941
-455,-440,-10.2542,17.9542,0,0,0,0,0,0,0,-1,769,1464,-10.2542,-17.9542
-448,-440,-9.23749,18.6387,0,0,0,0,0,0,0,-1,776,1464,-9.2375,-18.6386
-441,-440,-7.28583,14.7465,0,0,0,0,0,0,0,-1,783,1464,-7.28584,-14.7464
-434,-440,-8.33636,14.5024,0,0,0,0,0,0,0,-1,790,1464,-8.33638,-14.5025
-427,-440,-8.28094,14.2512,0,0,0,0,0,0,0,-1,797,1464,-8.28094,-14.2512
-420,-440,-6.86603,8.09216,0,0,0,0,0,0,0,-1,804,1464,-6.86602,-8.09222
-413,-440,-3.46796,5.72278,0,0,0,0,0,0,0,-1,811,1464,-3.46797,-5.72276
-406,-440,-5.2887,5.20264,0,0,0,0,0,0,0,-1,818,1464,-5.2887,-5.20261
-399,-440,-12.7318,3.94421,0,0,0,0,0,0,0,-1,825,1464,-12.7318,-3.94419
-392,-440,-13.5565,2.51855,0,0,0,0,0,0,0,-1,832,1464,-13.5565,-2.51861
-385,-440,-14.6741,1.39795,0,0,0,0,0,0,0,-1,839,1464,-14.6741,-1.39801
-378,-440,-15.8063,0.293457,0,0,0,0,0,0,0,-1,846,1464,-15.8063,-0.293412
-371,-440,0,0,0,0,0,0,0,0,0,-1,853,1464,0,0
-364,-440,0,0,0,0,0,0,0,0,0,-1,860,1464,0,0
-357,-440,0,0,0,0,0,0,0,0,0,-1,867,1464,0,0
-350,-440,0,0,0,0,0,0,0,0,0,-1,874,1464,0,0
-343,-440,0,0,0,0,0,0,0,0,0,-1,881,1464,0,0
-336,-440,0,0,0,0,0,0,0,0,0,-1,888,1464,0,0
-329,-440,0,0,0,0,0,0,0,0,0,-1,895,1464,0,0
-322,-440,0,0,0,0,0,0,0,0,0,-1,902,1464,0,0
-315,-440,0,0,0,0,0,0,0,0,0,-1,909,1464,0,0
-308,-440,0,0,0,0,0,0,0,0,0,-1,916,1464,0,0
-301,-440,0,0,0,0,0,0,0,0,0,-1,923,1464,0,0
-294,-440,0,0,0,0,0,0,0,0,0,-1,930,1464,0,0
-287,-440,0,0,0,0,0,0,0,0,0,-1,937,1464,0,0
-280,-440,0,0,0,0,0,0,0,0,0,-1,944,1464,0,0
-273,-440,0,0,0,0,0,0,0,0,0,-1,951,1464,0,0
-266,-440,0,0,0,0,0,0,0,0,0,-1,958,1464,0,0
-259,-440,0,0,0,0,0,0,0,0,0,-1,965,1464,0,0
-252,-440,0,0,0,0,0,0,0,0,0,-1,972,1464,0,0
-245,-440,0,0,0,0,0,0,0,0,0,-1,979,1464,0,0
-238,-440,0,0,0,0,0,0,0,0,0,-1,986,1464,0,0
-231,-440,0,0,0,0,0,0,0,0,0,-1,993,1464,0,0
-224,-440,0,0,0,0,0,0,0,0,0,-1,1000,1464,0,0
-217,-440,0,0,0,0,0,0,0,0,0,-1,1007,1464,0,0
-210,-440,0,0,0,0,0,0,0,0,0,-1,1014,1464,0,0
-203,-440,0,0,0,0,0,0,0,0,0,-1,1021,1464,0,0
-196,-440,0,0,0,0,0,0,0,0,0,-1,1028,1464,0,0
-189,-440,0,0,0,0,0,0,0,0,0,-1,1035,1464,0,0
-182,-440,0,0,0,0,0,0,0,0,0,-1,1042,1464,0,0
-175,-440,0,0,0,0,0,0,0,0,0,-1,1049,1464,0,0
-168,-440,0,0,0,0,0,0,0,0,0,-1,1056,1464,0,0
-161,-440,0,0,0,0,0,0,0,0,0,-1,1063,1464,0,0
-154,-440,0,0,0,0,0,0,0,0,0,-1,1070,1464,0,0
-147,-440,0,0,0,0,0,0,0,0,0,-1,1077,1464,0,0
-140,-440,0,0,0,0,0,0,0,0,0,-1,1084,1464,0,0
-133,-440,0,0,0,0,0,0,0,0,0,-1,1091,1464,0,0
-126,-440,0,0,0,0,0,0,0,0,0,-1,1098,1464,0,0
-119,-440,0,0,0,0,0,0,0,0,0,-1,1105,1464,0,0
-112,-440,0,0,0,0,0,0,0,0,0,-1,1112,1464,0,0
-105,-440,0,0,0,0,0,0,0,0,0,-1,1119,1464,0,0
-98,-440,0,0,0,0,0,0,0,0,0,-1,1126,1464,0,0
-91,-440,0,0,0,0,0,0,0,0,0,-1,1133,1464,0,0
-84,-440,0,0,0,0,0,0,0,0,0,-1,1140,1464,0,0
-77,-440,0,0,0,0,0,0,0,0,0,-1,1147,1464,0,0
-70,-440,0,0,0,0,0,0,0,0,0,-1,1154,1464,0,0
-63,-440,0,0,0,0,0,0,0,0,0,-1,1161,1464,0,0
-56,-440,0,0,0,0,0,0,0,0,0,-1,1168,1464,0,0
-49,-440,0,0,0,0,0,0,0,0,0,-1,1175,1464,0,0
-42,-440,0,0,0,0,0,0,0,0,0,-1,1182,1464,0,0
-35,-440,0,0,0,0,0,0,0,0,0,-1,1189,1464,0,0
-28,-440,0,0,0,0,0,0,0,0,0,-1,1196,1464,0,0
-21,-440,0,0,0,0,0,0,0,0,0,-1,1203,1464,0,0
-14,-440,0,0,0,0,0,0,0,0,0,-1,1210,1464,0,0
-7,-440,0,0,0,0,0,0,0,0,0,-1,1217,1464,0,0
0,-440,0,0,0,0,0,0,0,0,0,-1,1224,1464,0,0
7,-440,0,0,0,0,0,0,0,0,0,-1,1231,1464,0,0
14,-440,0,0,0,0,0,0,0,0,0,-1,1238,1464,0,0
21,-440,0,0,0,0,0,0,0,0,0,-1,1245,1464,0,0
28,-440,0,0,0,0,0,0,0,0,0,-1,1252,1464,0,0
35,-440,0,0,0,0,0,0,0,0,0,-1,1259,1464,0,0
42,-440,0,0,0,0,0,0,0,0,0,-1,1266,1464,0,0
49,-440,0,0,0,0,0,0,0,0,0,-1,1273,1464,0,0
56,-440,0,0,0,0,0,0,0,0,0,-1,1280,1464,0,0
63,-440,0,0,0,0,0,0,0,0,0,-1,1287,1464,0,0
70,-440,0,0,0,0,0,0,0,0,0,-1,1294,1464,0,0
77,-440,0,0,0,0,0,0,0,0,0,-1,1301,1464,0,0
84,-440,0,0,0,0,0,0,0,0,0,-1,1308,1464,0,0
91,-440,0,0,0,0,0,0,0,0,0,-1,1315,1464,0,0
98,-440,0,0,0,0,0,0,0,0,0,-1,1322,1464,0,0
105,-440,0,0,0,0,0,0,0,0,0,-1,1329,1464,0,0
112,-440,0,0,0,0,0,0,0,0,0,-1,1336,1464,0,0
119,-440,0,0,0,0,0,0,0,0,0,-1,1343,1464,0,0
126,-440,0,0,0,0,0,0,0,0,0,-1,1350,1464,0,0
133,-440,0,0,0,0,0,0,0,0,0,-1,1357,1464,0,0
140,-440,0,0,0,0,0,0,0,0,0,-1,1364,1464,0,0
147,-440,0,0,0,0,0,0,0,0,0,-1,1371,1464,0,0
154,-440,0,0,0,0,0,0,0,0,0,-1,1378,1464,0,0
161,-440,0,0,0,0,0,0,0,0,0,-1,1385,1464,0,0
168,-440,0,0,0,0,0,0,0,0,0,-1,1392,1464,0,0
175,-440,0,0,0,0,0,0,0,0,0,-1,1399,1464,0,0
182,-440,0,0,0,0,0,0,0,0,0,-1,1406,1464,0,0
189,-440,0,0,0,0,0,0,0,0,0,-1,1413,1464,0,0
196,-440,0,0,0,0,0,0,0,0,0,-1,1420,1464,0,0
203,-440,0,0,0,0,0,0,0,0,0,-1,1427,1464,0,0
210,-440,0,0,0,0,0,0,0,0,0,-1,1434,1464,0,0
217,-440,0,0,0,0,0,0,0,0,0,-1,1441,1464,0,0
224,-440,0,0,0,0,0,0,0,0,0,-1,1448,1464,0,0
231,-440,0,0,0,0,0,0,0,0,0,-1,1455,1464,0,0
238,-440,0,0,0,0,0,0,0,0,0,-1,1462,1464,0,0
245,-440,0,0,0,0,0,0,0,0,0,-1,1469,1464,0,0
252,-440,0,0,0,0,0,0,0,0,0,-1,1476,1464,0,0
259,-440,0,0,0,0,0,0,0,0,0,-1,1483,1464,0,0
266,-440,0,0,0,0,0,0,0,0,0,-1,1490,1464,0,0
273,-440,0,0,0,0,0,0,0,0,0,-1,1497,1464,0,0
280,-440,0,0,0,0,0,0,0,0,0,-1,1504,1464,0,0
287,-440,0,0,0,0,0,0,0,0,0,-1,1511,1464,0,0
294,-440,0,0,0,0,0,0,0,0,0,-1,1518,1464,0,0
301,-440,0,0,0,0,0,0,0,0,0,-1,1525,1464,0,0
308,-440,0,0,0,0,0,0,0,0,0,-1,1532,1464,0,0
315,-440,0,0,0,0,0,0,0,0,0,-1,1539,1464,0,0
322,-440,0,0,0,0,0,0,0,0,0,-1,1546,1464,0,0
329,-440,0,0,0,0,0,0,0,0,0,-1,1553,1464,0,0
336,-440,0,0,0,0,0,0,0,0,0,-1,1560,1464,0,0
343,-440,0,0,0,0,0,0,0,0,0,-1,1567,1464,0,0
350,-440,0,0,0,0,0,0,0,0,0,-1,1574,1464,0,0
357,-440,0,0,0,0,0,0,0,0,0,-1,1581,1464,0,0
364,-440,0,0,0,0,0,0,0,0,0,-1,1588,1464,0,0
371,-440,0,0,0,0,0,0,0,0,0,-1,1595,1464,0,0
378,-440,0,0,0,0,0,0,0,0,0,-1,1602,1464,0,0
385,-440,0,0,0,0,0,0,0,0,0,-1,1609,1464,0,0
392,-440,0,0,0,0,0,0,0,0,0,-1,1616,1464,0,0
399,-440,0,0,0,0,0,0,0,0,0,-1,1623,1464,0,0
406,-440,0,0,0,0,0,0,0,0,0,-1,1630,1464,0,0
413,-440,0,0,0,0,0,0,0,0,0,-1,1637,1464,0,0
420,-440,0,0,0,0,0,0,0,0,0,-1,1644,1464,0,0
427,-440,0,0,0,0,0,0,0,0,0,-1,1651,1464,0,0
434,-440,0,0,0,0,0,0,0,0,0,-1,1658,1464,0,0
441,-440,0,0,0,0,0,0,0,0,0,-1,1665,1464,0,0
448,-440,0,0,0,0,0,0,0,0,0,-1,1672,1464,0,0
455,-440,0,0,0,0,0,0,0,0,0,-1,1679,1464,0,0
462,-440,0,0,0,0,0,0,0,0,0,-1,1686,1464,0,0
469,-440,0,0,0,0,0,0,0,0,0,-1,1693,1464,0,0
476,-440,0,0,0,0,0,0,0,0,0,-1,1700,1464,0,0
483,-440,0,0,0,0,0,0,0,0,0,-1,1707,1464,0,0
490,-440,0,0,0,0,0,0,0,0,0,-1,1714,1464,0,0
497,-440,16.965,-0.528442,0,0,0,0,0,0,0,-1,1721,1464,16.965,0.528492
504,-440,15.8052,0.670166,0,0,0,0,0,0,0,-1,1728,1464,15.8052,-0.670145
511,-440,17.5754,2.77832,0,0,0,0,0,0,0,-1,1735,1464,17.5754,-2.77826
518,-440,16.9017,3.07861,0,0,0,0,0,0,0,-1,1742,1464,16.9018,-3.07859
525,-440,18.4495,12.0867,0,0,0,0,0,0,0,-1,1749,1464,18.4495,-12.0867
532,-440,15.4319,3.64392,0,0,0,0,0,0,0,-1,1756,1464,15.4318,-3.64391
539,-440,14.8214,3.41321,0,0,0,0,0,0,0,-1,1763,1464,14.8214,-3.4132
546,-440,14.8651,10.7683,0,0,0,0,0,0,0,-1,1770,1464,14.8651,-10.7683
553,-440,15.1213,11.4121,0,0,0,0,0,0,0,-1,1777,1464,15.1213,-11.4121
560,-440,17.4325,12.5394,0,0,0,0,0,0,0,-1,1784,1464,17.4325,-12.5394
567,-440,16.9025,12.4249,0,0,0,0,0,0,0,-1,1791,1464,16.9025,-12.425
574,-440,19.2841,14.8679,0,0,0,0,0,0,0,-1,1798,1464,19.2841,-14.868
581,-440,25.4164,20.5526,0,0,0,0,0,0,0,-1,1805,1464,25.4164,-20.5526
588,-440,25.6538,19.4757,0,0,0,0,0,0,0,-1,1812,1464,25.6538,-19.4758
595,-440,25.6897,18.7921,0.00569909,0.00522417,-0.00440087,0.0098689,0.00105436,-0.758445,0.0062575,0.027048,1819,1464,25.6897,-18.7921
602,-440,25.7695,18.1621,0.00451386,0.00385817,-0.00333005,0.00753217,0.000839865,-0.736331,0.00476622,0.0192744,1826,1464,25.7696,-18.1621
609,-440,25.7881,17.6453,0.0035973,0.00268816,-0.00243618,0.00562096,0.000664504,-0.693163,0.00354662,0.0161257,1833,1464,25.788,-17.6453
616,-440,25.7574,17.1323,0.00287749,0.00176656,-0.00172949,0.00413853,0.000505522,-0.630016,0.0026069,0.0168901,1840,1464,25.7574,-17.1323
623,-440,25.7417,16.5684,0.0025098,0.000970637,-0.00118326,0.00315173,0.000328705,-0.497074,0.0020006,0.0136016,1847,1464,25.7417,-16.5684
630,-440,25.712,15.9867,0.00244438,0.000273099,-0.000774307,0.00269222,2.5261e-05,-0.309773,0.00178645,0.011101,1854,1464,25.712,-15.9867
637,-440,25.7206,15.4637,0.0025549,-0.000242648,-0.00045949,0.00262844,-0.000316185,-0.158695,0.00186664,0.0154619,1861,1464,25.7205,-15.4637
644,-440,25.7087,14.9323,0.00297365,-0.000700199,-0.000257763,0.00299164,-0.000718195,-0.0697065,0.00227199,0.0157152,1868,1464,25.7088,-14.9322
651,-440,25.7079,14.3397,0.00368132,-0.000945953,-0.000210121,0.00369084,-0.000955475,-0.045285,0.00283327,0.0202284,1875,1464,25.7078,-14.3397
658,-440,25.7625,13.6844,0,0,0,0,0,0,0,-1,1882,1464,25.7624,-13.6844
665,-440,24.2067,12.5813,0,0,0,0,0,0,0,-1,1889,1464,24.2067,-12.5813
672,-440,18.9385,9.6394,0,0,0,0,0,0,0,-1,1896,1464,18.9384,-9.63939
679,-440,16.9508,10.2336,0,0,0,0,0,0,0,-1,1903,1464,16.9508,-10.2337
686,-440,15.2556,8.44177,0,0,0,0,0,0,0,-1,1910,1464,15.2556,-8.44177
693,-440,9.88635,2.89795,0,0,0,0,0,0,0,-1,1917,1464,9.88638,-2.89798
700,-440,7.07825,-2.62061,0,0,0,0,0,0,0,-1,1924,1464,7.07829,2.62057
707,-440,0,0,0,0,0,0,0,0,0,-1,1931,1464,0,0
714,-440,0,0,0,0,0,0,0,0,0,-1,1938,1464,0,0
721,-440,0,0,0,0,0,0,0,0,0,-1,1945,1464,0,0
728,-440,0,0,0,0,0,0,0,0,0,-1,1952,1464,0,0
735,-440,0,0,0,0,0,0,0,0,0,-1,1959,1464,0,0
742,-440,0,0,0,0,0,0,0,0,0,-1,1966,1464,0,0
749,-440,0,0,0,0,0,0,0,0,0,-1,1973,1464,0,0
756,-440,0,0,0,0,0,0,0,0,0,-1,1980,1464,0,0
763,-440,0,0,0,0,0,0,0,0,0,-1,1987,1464,0,0
770,-440,0,0,0,0,0,0,0,0,0,-1,1994,1464,0,0
777,-440,0,0,0,0,0,0,0,0,0,-1,2001,1464,0,0
784,-440,0,0,0,0,0,0,0,0,0,-1,2008,1464,0,0
791,-440,0,0,0,0,0,0,0,0,0,-1,2015,1464,0,0
798,-440,0,0,0,0,0,0,0,0,0,-1,2022,1464,0,0
805,-440,0,0,0,0,0,0,0,0,0,-1,2029,1464,0,0
812,-440,0,0,0,0,0,0,0,0,0,-1,2036,1464,0,0
-700,-447,0,0,0,0,0,0,0,0,0,-1,524,1471,0,0
-693,-447,0,0,0,0,0,0,0,0,0,-1,531,1471,0,0
-686,-447,0,0,0,0,0,0,0,0,0,-1,538,1471,0,0
-679,-447,0,0,0,0,0,0,0,0,0,-1,545,1471,0,0
-672,-447,0,0,0,0,0,0,0,0,0,-1,552,1471,0,0
-665,-447,0,0,0,0,0,0,0,0,0,-1,559,1471,0,0
-658,-447,0,0,0,0,0,0,0,0,0,-1,566,1471,0,0
-651,-447,0,0,0,0,0,0,0,0,0,-1,573,1471,0,0
-644,-447,0,0,0,0,0,0,0,0,0,-1,580,1471,0,0
-637,-447,0,0,0,0,0,0,0,0,0,-1,587,1471,0,0
-630,-447,0,0,0,0,0,0,0,0,0,-1,594,1471,0,0
-623,-447,0,0,0,0,0,0,0,0,0,-1,601,1471,0,0
-616,-447,0,0,0,0,0,0,0,0,0,-1,608,1471,0,0
-609,-447,0,0,0,0,0,0,0,0,0,-1,615,1471,0,0
-602,-447,0,0,0,0,0,0,0,0,0,-1,622,1471,0,0
-595,-447,0,0,0,0,0,0,0,0,0,-1,629,1471,0,0
-588,-447,0,0,0,0,0,0,0,0,0,-1,636,1471,0,0
-581,-447,-7.06482,-1.50476,0,0,0,0,0,0,0,-1,643,1471,-7.0648,1.50474
-574,-447,-6.88092,-0.00585938,0,0,0,0,0,0,0,-1,650,1471,-6.88095,0.00589852
-567,-447,-6.8205,-1.32178,0,0,0,0,0,0,0,-1,657,1471,-6.82047,1.32172
-560,-447,-8.85748,2.80774,0,0,0,0,0,0,0,-1,664,1471,-8.85748,-2.80775
-553,-447,-7.60486,3.26794,0,0,0,0,0,0,0,-1,671,1471,-7.60487,-3.26799
-546,-447,-3.94501,1.8656,0,0,0,0,0,0,0,-1,678,1471,-3.945,-1.86554
-539,-447,-5.35492,4.50024,0,0,0,0,0,0,0,-1,685,1471,-5.35492,-4.50018
-532,-447,-6.12781,8.81091,0,0,0,0,0,0,0,-1,692,1471,-6.12781,-8.81094
-525,-447,-9.44501,12.098,0,0,0,0,0,0,0,-1,699,1471,-9.44502,-12.098
-518,-447,-9.53705,12.444,0,0,0,0,0,0,0,-1,706,1471,-9.53703,-12.444
-511,-447,-9.48755,13.1989,0.000836564,0.000554979,0.00106332,0.00176837,-0.000376829,0.719577,0.00132254,0.0213312,713,1471,-9.48752,-13.1989
-504,-447,-9.46301,13.8844,0.000818696,0.000627925,0.000954102,0.00168217,-0.000235547,0.735577,0.00120764,0.0199515,720,1471,-9.46301,-13.8844
-497,-447,-9.50946,14.4791,0.000902378,0.000871718,0.00099287,0.00188004,-0.00010594,0.777679,0.00129012,0.0257125,727,1471,-9.50944,-14.4792
-490,-447,-9.50208,14.9672,0.00114967,0.00129906,0.00119701,0.0024237,2.50234e-05,0.816559,0.00160752,0.0261486,734,1471,-9.5021,-14.9671
-483,-447,-9.58691,15.5399,0.00157054,0.0019322,0.00155997,0.00332178,0.000180959,0.8431,0.00215673,0.0224533,741,1471,-9.58691,-15.5399
-476,-447,-9.59937,16.144,0.00215907,0.00274704,0.00211745,0.00459081,0.000315289,0.854377,0.00296105,0.014802,748,1471,-9.5994,-16.144
-469,-447,-9.5993,16.7385,0.00291727,0.00381922,0.00292513,0.00632794,0.000408551,0.861882,0.00408925,0.0137551,755,1471,-9.5993,-16.7385
-462,-447,-9.61493,17.326,0.00384734,0.00505018,0.00388112,0.0083762,0.000521312,0.862267,0.00541873,0.0136259,762,1471,-9.61495,-17.326
-455,-447,-9.65997,17.9286,0.00508937,0.00662161,0.00517711,0.011089,0.000621995,0.858856,0.00719429,0.0219365,769,1471,-9.65995,-17.9286
-448,-447,-9.67352,18.5519,0,0,0,0,0,0,0,-1,776,1471,-9.6735,-18.5519
-441,-447,-8.68506,19.0931,0,0,0,0,0,0,0,-1,783,1471,-8.68504,-19.0932
-434,-447,-7.43402,15.6273,0,0,0,0,0,0,0,-1,790,1471,-7.43404,-15.6274
-427,-447,-7.21832,14.691,0,0,0,0,0,0,0,-1,797,1471,-7.21834,-14.6911
-420,-447,-8.0545,12.8055,0,0,0,0,0,0,0,-1,804,1471,-8.05452,-12.8055
-413,-447,-4.27393,6.59705,0,0,0,0,0,0,0,-1,811,1471,-4.27392,-6.59707
-406,-447,-1.04279,6.18591,0,0,0,0,0,0,0,-1,818,1471,-1.04276,-6.18586
-399,-447,0.0134888,0.687622,0,0,0,0,0,0,0,-1,825,1471,0.0134841,-0.68767
-392,-447,-14.0646,3.76147,0,0,0,0,0,0,0,-1,832,1471,-14.0646,-3.7615
-385,-447,-15.1695,2.61865,0,0,0,0,0,0,0,-1,839,1471,-15.1695,-2.61871
-378,-447,-15.9424,1.49316,0,0,0,0,0,0,0,-1,846,1471,-15.9424,-1.49313
-371,-447,-17.3655,0.73291,0,0,0,0,0,0,0,-1,853,1471,-17.3655,-0.732946
-364,-447,0,0,0,0,0,0,0,0,0,-1,860,1471,0,0
-357,-447,0,0,0,0,0,0,0,0,0,-1,867,1471,0,0
-350,-447,0,0,0,0,0,0,0,0,0,-1,874,1471,0,0
-343,-447,0,0,0,0,0,0,0,0,0,-1,881,1471,0,0
-336,-447,0,0,0,0,0,0,0,0,0,-1,888,1471,0,0
-329,-447,0,0,0,0,0,0,0,0,0,-1,895,1471,0,0
-322,-447,0,0,0,0,0,0,0,0,0,-1,902,1471,0,0
-315,-447,0,0,0,0,0,0,0,0,0,-1,909,1471,0,0
-308,-447,0,0,0,0,0,0,0,0,0,-1,916,1471,0,0
-301,-447,0,0,0,0,0,0,0,0,0,-1,923,1471,0,0
-294,-447,0,0,0,0,0,0,0,0,0,-1,930,1471,0,0
-287,-447,0,0,0,0,0,0,0,0,0,-1,937,1471,0,0
-280,-447,0,0,0,0,0,0,0,0,0,-1,944,1471,0,0
-273,-447,0,0,0,0,0,0,0,0,0,-1,951,1471,0,0
-266,-447,0,0,0,0,0,0,0,0,0,-1,958,1471,0,0
-259,-447,0,0,0,0,0,0,0,0,0,-1,965,1471,0,0
-252,-447,0,0,0,0,0,0,0,0,0,-1,972,1471,0,0
-245,-447,0,0,0,0,0,0,0,0,0,-1,979,1471,0,0
-238,-447,0,0,0,0,0,0,0,0,0,-1,986,1471,0,0
-231,-447,0,0,0,0,0,0,0,0,0,-1,993,1471,0,0
-224,-447,0,0,0,0,0,0,0,0,0,-1,1000,1471,0,0
-217,-447,0,0,0,0,0,0,0,0,0,-1,1007,1471,0,0
-210,-447,0,0,0,0,0,0,0,0,0,-1,1014,1471,0,0
-203,-447,0,0,0,0,0,0,0,0,0,-1,1021,1471,0,0
-196,-447,0,0,0,0,0,0,0,0,0,-1,1028,1471,0,0
-189,-447,0,0,0,0,0,0,0,0,0,-1,1035,1471,0,0
-182,-447,0,0,0,0,0,0,0,0,0,-1,1042,1471,0,0
-175,-447,0,0,0,0,0,0,0,0,0,-1,1049,1471,0,0
-168,-447,0,0,0,0,0,0,0,0,0,-1,1056,1471,0,0
-161,-447,0,0,0,0,0,0,0,0,0,-1,1063,1471,0,0
-154,-447,0,0,0,0,0,0,0,0,0,-1,1070,1471,0,0
-147,-447,0,0,0,0,0,0,0,0,0,-1,1077,1471,0,0
-140,-447,0,0,0,0,0,0,0,0,0,-1,1084,1471,0,0
-133,-447,0,0,0,0,0,0,0,0,0,-1,1091,1471,0,0
-126,-447,0,0,0,0,0,0,0,0,0,-1,1098,1471,0,0
-119,-447,0,0,0,0,0,0,0,0,0,-1,1105,1471,0,0
-112,-447,0,0,0,0,0,0,0,0,0,-1,1112,1471,0,0
-105,-447,0,0,0,0,0,0,0,0,0,-1,1119,1471,0,0
-98,-447,0,0,0,0,0,0,0,0,0,-1,1126,1471,0,0
-91,-447,0,0,0,0,0,0,0,0,0,-1,1133,1471,0,0
-84,-447,0,0,0,0,0,0,0,0,0,-1,1140,1471,0,0
-77,-447,0,0,0,0,0,0,0,0,0,-1,1147,1471,0,0
-70,-447,0,0,0,0,0,0,0,0,0,-1,1154,1471,0,0
-63,-447,0,0,0,0,0,0,0,0,0,-1,1161,1471,0,0
-56,-447,0,0,0,0,0,0,0,0,0,-1,1168,1471,0,0
-49,-447,0,0,0,0,0,0,0,0,0,-1,1175,1471,0,0
-42,-447,0,0,0,0,0,0,0,0,0,-1,1182,1471,0,0
-35,-447,0,0,0,0,0,0,0,0,0,-1,1189,1471,0,0
-28,-447,0,0,0,0,0,0,0,0,0,-1,1196,1471,0,0
-21,-447,0,0,0,0,0,0,0,0,0,-1,1203,1471,0,0
-14,-447,0,0,0,0,0,0,0,0,0,-1,1210,1471,0,0
-7,-447,0,0,0,0,0,0,0,0,0,-1,1217,1471,0,0
0,-447,0,0,0,0,0,0,0,0,0,-1,1224,1471,0,0
7,-447,0,0,0,0,0,0,0,0,0,-1,1231,1471,0,0
14,-447,0,0,0,0,0,0,0,0,0,-1,1238,1471,0,0
21,-447,0,0,0,0,0,0,0,0,0,-1,1245,1471,0,0
28,-447,0,0,0,0,0,0,0,0,0,-1,1252,1471,0,0
35,-447,0,0,0,0,0,0,0,0,0,-1,1259,1471,0,0
42,-447,0,0,0,0,0,0,0,0,0,-1,1266,1471,0,0
49,-447,0,0,0,0,0,0,0,0,0,-1,1273,1471,0,0
56,-447,0,0,0,0,0,0,0,0,0,-1,1280,1471,0,0
63,-447,0,0,0,0,0,0,0,0,0,-1,1287,1471,0,0
70,-447,0,0,0,0,0,0,0,0,0,-1,1294,1471,0,0
77,-447,0,0,0,0,0,0,0,0,0,-1,1301,1471,0,0
84,-447,0,0,0,0,0,0,0,0,0,-1,1308,1471,0,0
91,-447,0,0,0,0,0,0,0,0,0,-1,1315,1471,0,0
98,-447,0,0,0,0,0,0,0,0,0,-1,1322,1471,0,0
105,-447,0,0,0,0,0,0,0,0,0,-1,1329,1471,0,0
112,-447,0,0,0,0,0,0,0,0,0,-1,1336,1471,0,0
119,-447,0,0,0,0,0,0,0,0,0,-1,1343,1471,0,0
126,-447,0,0,0,0,0,0,0,0,0,-1,1350,1471,0,0
133,-447,0,0,0,0,0,0,0,0,0,-1,1357,1471,0,0
140,-447,0,0,0,0,0,0,0,0,0,-1,1364,1471,0,0
147,-447,0,0,0,0,0,0,0,0,0,-1,1371,1471,0,0
154,-447,0,0,0,0,0,0,0,0,0,-1,1378,1471,0,0
161,-447,0,0,0,0,0,0,0,0,0,-1,1385,1471,0,0
168,-447,0,0,0,0,0,0,0,0,0,-1,1392,1471,0,0
175,-447,0,0,0,0,0,0,0,0,0,-1,1399,1471,0,0
182,-447,0,0,0,0,0,0,0,0,0,-1,1406,1471,0,0
189,-447,0,0,0,0,0,0,0,0,0,-1,1413,1471,0,0
196,-447,0,0,0,0,0,0,0,0,0,-1,1420,1471,0,0
203,-447,0,0,0,0,0,0,0,0,0,-1,1427,1471,0,0
210,-447,0,0,0,0,0,0,0,0,0,-1,1434,1471,0,0
217,-447,0,0,0,0,0,0,0,0,0,-1,1441,1471,0,0
224,-447,0,0,0,0,0,0,0,0,0,-1,1448,1471,0,0
231,-447,0,0,0,0,0,0,0,0,0,-1,1455,1471,0,0
238,-447,0,0,0,0,0,0,0,0,0,-1,1462,1471,0,0
245,-447,0,0,0,0,0,0,0,0,0,-1,1469,1471,0,0
252,-447,0,0,0,0,0,0,0,0,0,-1,1476,1471,0,0
259,-447,0,0,0,0,0,0,0,0,0,-1,1483,1471,0,0
266,-447,0,0,0,0,0,0,0,0,0,-1,1490,1471,0,0
273,-447,0,0,0,0,0,0,0,0,0,-1,1497,1471,0,0
280,-447,0,0,0,0,0,0,0,0,0,-1,1504,1471,0,0
287,-447,0,0,0,0,0,0,0,0,0,-1,1511,1471,0,0
294,-447,0,0,0,0,0,0,0,0,0,-1,1518,1471,0,0
301,-447,0,0,0,0,0,0,0,0,0,-1,1525,1471,0,0
308,-447,0,0,0,0,0,0,0,0,0,-1,1532,1471,0,0
315,-447,0,0,0,0,0,0,0,0,0,-1,1539,1471,0,0
322,-447,0,0,0,0,0,0,0,0,0,-1,1546,1471,0,0
329,-447,0,0,0,0,0,0,0,0,0,-1,1553,1471,0,0
336,-447,0,0,0,0,0,0,0,0,0,-1,1560,1471,0,0
343,-447,0,0,0,0,0,0,0,0,0,-1,1567,1471,0,0
350,-447,0,0,0,0,0,0,0,0,0,-1,1574,1471,0,0
357,-447,0,0,0,0,0,0,0,0,0,-1,1581,1471,0,0
364,-447,0,0,0,0,0,0,0,0,0,-1,1588,1471,0,0
371,-447,0,0,0,0,0,0,0,0,0,-1,1595,1471,0,0
378,-447,0,0,0,0,0,0,0,0,0,-1,1602,1471,0,0
385,-447,0,0,0,0,0,0,0,0,0,-1,1609,1471,0,0
392,-447,0,0,0,0,0,0,0,0,0,-1,1616,1471,0,0
399,-447,0,0,0,0,0,0,0,0,0,-1,1623,1471,0,0
406,-447,0,0,0,0,0,0,0,0,0,-1,1630,1471,0,0
413,-447,0,0,0,0,0,0,0,0,0,-1,1637,1471,0,0
420,-447,0,0,0,0,0,0,0,0,0,-1,1644,1471,0,0
427,-447,0,0,0,0,0,0,0,0,0,-1,1651,1471,0,0
434,-447,0,0,0,0,0,0,0,0,0,-1,1658,1471,0,0
441,-447,0,0,0,0,0,0,0,0,0,-1,1665,1471,0,0
448,-447,0,0,0,0,0,0,0,0,0,-1,1672,1471,0,0
455,-447,0,0,0,0,0,0,0,0,0,-1,1679,1471,0,0
462,-447,0,0,0,0,0,0,0,0,0,-1,1686,1471,0,0
469,-447,0,0,0,0,0,0,0,0,0,-1,1693,1471,0,0
476,-447,0,0,0,0,0,0,0,0,0,-1,1700,1471,0,0
483,-447,0,0,0,0,0,0,0,0,0,-1,1707,1471,0,0
490,-447,18.2214,-0.810303,0,0,0,0,0,0,0,-1,1714,1471,18.2215,0.810307
497,-447,17.0237,0.352417,0,0,0,0,0,0,0,-1,1721,1471,17.0237,-0.352442
504,-447,15.8998,1.53479,0,0,0,0,0,0,0,-1,1728,1471,15.8997,-1.53478
511,-447,14.7201,2.76111,0,0,0,0,0,0,0,-1,1735,1471,14.7201,-2.76107
518,-447,17.7618,13.2864,0,0,0,0,0,0,0,-1,1742,1471,17.7619,-13.2863
525,-447,17.1191,11.9014,0,0,0,0,0,0,0,-1,1749,1471,17.1191,-11.9013
532,-447,16.3959,10.0455,0,0,0,0,0,0,0,-1,1756,1471,16.3959,-10.0456
539,-447,14.1699,10.0204,0,0,0,0,0,0,0,-1,1763,1471,14.1699,-10.0204
546,-447,16.3715,11.8046,0,0,0,0,0,0,0,-1,1770,1471,16.3714,-11.8046
553,-447,17.5106,13.4012,0,0,0,0,0,0,0,-1,1777,1471,17.5107,-13.4012
560,-447,17.0187,13.168,0,0,0,0,0,0,0,-1,1784,1471,17.0187,-13.168
567,-447,18.9286,15.1703,0,0,0,0,0,0,0,-1,1791,1471,18.9286,-15.1703
574,-447,24.6284,20.8531,0,0,0,0,0,0,0,-1,1798,1471,24.6284,-20.8532
581,-447,25.0804,20.1406,0.00804016,0.00666139,-0.00543561,0.0128299,0.00187162,-0.722321,0.0080027,0.0482263,1805,1471,25.0804,-20.1407
588,-447,25.2506,19.3236,0.00639518,0.00534315,-0.0044743,0.0103743,0.00136405,-0.726885,0.00650932,0.026723,1812,1471,25.2506,-19.3237
595,-447,25.2506,18.7321,0.00501572,0.00424873,-0.00358321,0.0082359,0.00102855,-0.732089,0.00518189,0.0132943,1819,1471,25.2506,-18.7321
602,-447,25.2238,18.1639,0.00404863,0.00311073,-0.00274327,0.00636274,0.000796616,-0.700744,0.0040028,0.0107167,1826,1471,25.2238,-18.1639
609,-447,25.2089,17.63,0.00332093,0.00211735,-0.00200627,0.00481372,0.00062456,-0.63969,0.00302254,0.0117299,1833,1471,25.2089,-17.63
616,-447,25.213,17.0992,0.00277591,0.00131888,-0.00141584,0.00363967,0.000455121,-0.547789,0.00228987,0.0139412,1840,1471,25.2131,-17.0992
623,-447,25.2097,16.5808,0.00255714,0.000577146,-0.000934716,0.00292868,0.000205603,-0.378343,0.00188765,0.01585,1847,1471,25.2097,-16.5808
630,-447,25.1672,16.0411,0.00260895,-9.25621e-05,-0.000556533,0.00271911,-0.00020272,-0.195411,0.00188395,0.00926738,1854,1471,25.1673,-16.0411
637,-447,25.1729,15.4869,0.00285924,-0.000560523,-0.00030347,0.00288596,-0.000587244,-0.0878254,0.00214667,0.0101482,1861,1471,25.1728,-15.487
644,-447,25.1727,14.9104,0.00339805,-0.000972097,-0.000154728,0.00340352,-0.000977569,-0.0353467,0.00265554,0.0118882,1868,1471,25.1728,-14.9104
651,-447,25.2256,14.335,0.00423288,-0.00118264,-0.000147434,0.00423689,-0.00118665,-0.0271975,0.00329222,0.049219,1875,1471,25.2256,-14.3349
658,-447,25.4291,13.6678,0,0,0,0,0,0,0,-1,1882,1471,25.429,-13.6678
665,-447,18.4946,9.79919,0,0,0,0,0,0,0,-1,1889,1471,18.4946,-9.79922
672,-447,18.9784,9.66077,0,0,0,0,0,0,0,-1,1896,1471,18.9784,-9.66081
679,-447,14.844,7.4248,0,0,0,0,0,0,0,-1,1903,1471,14.844,-7.42477
686,-447,9.81079,4.30859,0,0,0,0,0,0,0,-1,1910,1471,9.8108,-4.30864
693,-447,10.48,2.08643,0,0,0,0,0,0,0,-1,1917,1471,10.48,-2.08642
700,-447,0,0,0,0,0,0,0,0,0,-1,1924,1471,0,0
707,-447,0,0,0,0,0,0,0,0,0,-1,1931,1471,0,0
714,-447,0,0,0,0,0,0,0,0,0,-1,1938,1471,0,0
721,-447,0,0,0,0,0,0,0,0,0,-1,1945,1471,0,0
728,-447,0,0,0,0,0,0,0,0,0,-1,1952,1471,0,0
735,-447,0,0,0,0,0,0,0,0,0,-1,1959,1471,0,0
742,-447,0,0,0,0,0,0,0,0,0,-1,1966,1471,0,0
749,-447,0,0,0,0,0,0,0,0,0,-1,1973,1471,0,0
756,-447,0,0,0,0,0,0,0,0,0,-1,1980,1471,0,0
763,-447,0,0,0,0,0,0,0,0,0,-1,1987,1471,0,0
770,-447,0,0,0,0,0,0,0,0,0,-1,1994,1471,0,0
777,-447,0,0,0,0,0,0,0,0,0,-1,2001,1471,0,0
784,-447,0,0,0,0,0,0,0,0,0,-1,2008,1471,0,0
791,-447,0,0,0,0,0,0,0,0,0,-1,2015,1471,0,0
798,-447,0,0,0,0,0,0,0,0,0,-1,2022,1471,0,0
805,-447,0,0,0,0,0,0,0,0,0,-1,2029,1471,0,0
812,-447,0,0,0,0,0,0,0,0,0,-1,2036,1471,0,0
-700,-454,0,0,0,0,0,0,0,0,0,-1,524,1478,0,0
-693,-454,0,0,0,0,0,0,0,0,0,-1,531,1478,0,0
-686,-454,0,0,0,0,0,0,0,0,0,-1,538,1478,0,0
-679,-454,0,0,0,0,0,0,0,0,0,-1,545,1478,0,0
-672,-454,0,0,0,0,0,0,0,0,0,-1,552,1478,0,0
-665,-454,0,0,0,0,0,0,0,0,0,-1,559,1478,0,0
-658,-454,0,0,0,0,0,0,0,0,0,-1,566,1478,0,0
-651,-454,0,0,0,0,0,0,0,0,0,-1,573,1478,0,0
-644,-454,0,0,0,0,0,0,0,0,0,-1,580,1478,0,0
-637,-454,0,0,0,0,0,0,0,0,0,-1,587,1478,0,0
-630,-454,0,0,0,0,0,0,0,0,0,-1,594,1478,0,0
-623,-454,0,0,0,0,0,0,0,0,0,-1,601,1478,0,0
-616,-454,0,0,0,0,0,0,0,0,0,-1,608,1478,0,0
-609,-454,0,0,0,0,0,0,0,0,0,-1,615,1478,0,0
-602,-454,0,0,0,0,0,0,0,0,0,-1,622,1478,0,0
-595,-454,0,0,0,0,0,0,0,0,0,-1,629,1478,0,0
-588,-454,0,0,0,0,0,0,0,0,0,-1,636,1478,0,0
-581,-454,0,0,0,0,0,0,0,0,0,-1,643,1478,0,0
-574,-454,-8.4881,-0.465942,0,0,0,0,0,0,0,-1,650,1478,-8.4881,0.465885
-567,-454,-8.10046,0.922974,0,0,0,0,0,0,0,-1,657,1478,-8.10047,-0.923034
-560,-454,-10.656,3.51172,0,0,0,0,0,0,0,-1,664,1478,-10.656,-3.51176
-553,-454,-9.01129,3.95251,0,0,0,0,0,0,0,-1,671,1478,-9.0113,-3.95256
-546,-454,-9.61896,6.05237,0,0,0,0,0,0,0,-1,678,1478,-9.61897,-6.05239
-539,-454,-7.72589,4.96533,0,0,0,0,0,0,0,-1,685,1478,-7.72592,-4.96532
-532,-454,-7.03931,7.59985,0,0,0,0,0,0,0,-1,692,1478,-7.03929,-7.59981
-525,-454,-5.78723,9.677,0,0,0,0,0,0,0,-1,699,1478,-5.78722,-9.67703
-518,-454,-8.77643,12.5797,0,0,0,0,0,0,0,-1,706,1478,-8.7764,-12.5797
-511,-454,-8.98065,13.1324,0.000385467,0.0001689,0.00083141,0.00111562,-0.000561248,0.720642,0.000985615,0.0448231,713,1478,-8.98064,-13.1324
-504,-454,-8.92102,13.8365,0.000334483,0.00018545,0.000651642,0.000915856,-0.000395923,0.72847,0.000776932,0.0172817,720,1478,-8.92101,-13.8366
-497,-454,-8.93781,14.4882,0.000344356,0.000348905,0.000608474,0.000955109,-0.000261848,0.787267,0.000739637,0.0197599,727,1478,-8.9378,-14.4881
-490,-454,-8.96094,15.0684,0.000530135,0.000668178,0.000721796,0.00132425,-0.000125933,0.833066,0.000927661,0.0189997,734,1478,-8.96094,-15.0684
-483,-454,-9.00006,15.6027,0.000896666,0.00117837,0.00100042,0.0020478,2.72277e-05,0.855334,0.00135622,0.0159357,741,1478,-9.00008,-15.6026
-476,-454,-9.02783,16.1589,0.00143951,0.00186342,0.00147331,0.00313995,0.000162982,0.856841,0.00204114,0.0134064,748,1478,-9.02782,-16.1589
-469,-454,-9.02576,16.7446,0.00216403,0.00280846,0.00219731,0.00470705,0.000265442,0.8582,0.0030534,0.0105028,755,1478,-9.02578,-16.7446
-462,-454,-9.04401,17.3499,0.00305009,0.00386614,0.00305082,0.00653609,0.000380132,0.851875,0.00423637,0.0109629,762,1478,-9.04399,-17.3498
-455,-454,-9.08392,17.9413,0.00419256,0.00518886,0.00418462,0.00890488,0.000476542,0.844641,0.00578428,0.0118909,769,1478,-9.08395,-17.9413
-448,-454,-9.08582,18.552,0.00564951,0.00691932,0.00568995,0.0120097,0.000559155,0.84096,0.00782673,0.0192472,776,1478,-9.08584,-18.552
-441,-454,-8.85364,19.5092,0,0,0,0,0,0,0,-1,783,1478,-8.85364,-19.5091
-434,-454,-7.55743,19.4857,0,0,0,0,0,0,0,-1,790,1478,-7.55746,-19.4858
-427,-454,-6.00183,15.8636,0,0,0,0,0,0,0,-1,797,1478,-6.00184,-15.8637
-420,-454,-6.28088,15.2135,0,0,0,0,0,0,0,-1,804,1478,-6.28087,-15.2135
-413,-454,-5.4408,13.674,0,0,0,0,0,0,0,-1,811,1478,-5.44079,-13.6739
-406,-454,-2.38208,10.0308,0,0,0,0,0,0,0,-1,818,1478,-2.38209,-10.0308
-399,-454,-1.21033,6.95447,0,0,0,0,0,0,0,-1,825,1478,-1.21035,-6.95452
-392,-454,0.0967407,0.985474,0,0,0,0,0,0,0,-1,832,1478,0.0967364,-0.985529
-385,-454,2.38629,3.297,0,0,0,0,0,0,0,-1,839,1478,2.38629,-3.29702
-378,-454,-15.9756,2.83997,0,0,0,0,0,0,0,-1,846,1478,-15.9756,-2.83994
-371,-454,-17.2753,2.01453,0,0,0,0,0,0,0,-1,853,1478,-17.2753,-2.01455
-364,-454,1.08124,0.819458,0,0,0,0,0,0,0,-1,860,1478,1.08124,-0.819513
-357,-454,0,0,0,0,0,0,0,0,0,-1,867,1478,0,0
-350,-454,0,0,0,0,0,0,0,0,0,-1,874,1478,0,0
-343,-454,0,0,0,0,0,0,0,0,0,-1,881,1478,0,0
-336,-454,0,0,0,0,0,0,0,0,0,-1,888,1478,0,0
-329,-454,0,0,0,0,0,0,0,0,0,-1,895,1478,0,0
-322,-454,0,0,0,0,0,0,0,0,0,-1,902,1478,0,0
-315,-454,0,0,0,0,0,0,0,0,0,-1,909,1478,0,0
-308,-454,0,0,0,0,0,0,0,0,0,-1,916,1478,0,0
-301,-454,0,0,0,0,0,0,0,0,0,-1,923,1478,0,0
-294,-454,0,0,0,0,0,0,0,0,0,-1,930,1478,0,0
-287,-454,0,0,0,0,0,0,0,0,0,-1,937,1478,0,0
-280,-454,0,0,0,0,0,0,0,0,0,-1,944,1478,0,0
-273,-454,0,0,0,0,0,0,0,0,0,-1,951,1478,0,0
-266,-454,0,0,0,0,0,0,0,0,0,-1,958,1478,0,0
-259,-454,0,0,0,0,0,0,0,0,0,-1,965,1478,0,0
-252,-454,0,0,0,0,0,0,0,0,0,-1,972,1478,0,0
-245,-454,0,0,0,0,0,0,0,0,0,-1,979,1478,0,0
-238,-454,0,0,0,0,0,0,0,0,0,-1,986,1478,0,0
-231,-454,0,0,0,0,0,0,0,0,0,-1,993,1478,0,0
-224,-454,0,0,0,0,0,0,0,0,0,-1,1000,1478,0,0
-217,-454,0,0,0,0,0,0,0,0,0,-1,1007,1478,0,0
-210,-454,0,0,0,0,0,0,0,0,0,-1,1014,1478,0,0
-203,-454,0,0,0,0,0,0,0,0,0,-1,1021,1478,0,0
-196,-454,0,0,0,0,0,0,0,0,0,-1,1028,1478,0,0
-189,-454,0,0,0,0,0,0,0,0,0,-1,1035,1478,0,0
-182,-454,0,0,0,0,0,0,0,0,0,-1,1042,1478,0,0
-175,-454,0,0,0,0,0,0,0,0,0,-1,1049,1478,0,0
-168,-454,0,0,0,0,0,0,0,0,0,-1,1056,1478,0,0
-161,-454,0,0,0,0,0,0,0,0,0,-1,1063,1478,0,0
-154,-454,0,0,0,0,0,0,0,0,0,-1,1070,1478,0,0
-147,-454,0,0,0,0,0,0,0,0,0,-1,1077,1478,0,0
-140,-454,0,0,0,0,0,0,0,0,0,-1,1084,1478,0,0
-133,-454,0,0,0,0,0,0,0,0,0,-1,1091,1478,0,0
-126,-454,0,0,0,0,0,0,0,0,0,-1,1098,1478,0,0
-119,-454,0,0,0,0,0,0,0,0,0,-1,1105,1478,0,0
-112,-454,0,0,0,0,0,0,0,0,0,-1,1112,1478,0,0
-105,-454,0,0,0,0,0,0,0,0,0,-1,1119,1478,0,0
-98,-454,0,0,0,0,0,0,0,0,0,-1,1126,1478,0,0
-91,-454,0,0,0,0,0,0,0,0,0,-1,1133,1478,0,0
-84,-454,0,0,0,0,0,0,0,0,0,-1,1140,1478,0,0
-77,-454,0,0,0,0,0,0,0,0,0,-1,1147,1478,0,0
-70,-454,0,0,0,0,0,0,0,0,0,-1,1154,1478,0,0
-63,-454,0,0,0,0,0,0,0,0,0,-1,1161,1478,0,0
-56,-454,0,0,0,0,0,0,0,0,0,-1,1168,1478,0,0
-49,-454,0,0,0,0,0,0,0,0,0,-1,1175,1478,0,0
-42,-454,0,0,0,0,0,0,0,0,0,-1,1182,1478,0,0
-35,-454,0,0,0,0,0,0,0,0,0,-1,1189,1478,0,0
-28,-454,0,0,0,0,0,0,0,0,0,-1,1196,1478,0,0
-21,-454,0,0,0,0,0,0,0,0,0,-1,1203,1478,0,0
-14,-454,0,0,0,0,0,0,0,0,0,-1,1210,1478,0,0
-7,-454,0,0,0,0,0,0,0,0,0,-1,1217,1478,0,0
0,-454,0,0,0,0,0,0,0,0,0,-1,1224,1478,0,0
7,-454,0,0,0,0,0,0,0,0,0,-1,1231,1478,0,0
14,-454,0,0,0,0,0,0,0,0,0,-1,1238,1478,0,0
21,-454,0,0,0,0,0,0,0,0,0,-1,1245,1478,0,0
28,-454,0,0,0,0,0,0,0,0,0,-1,1252,1478,0,0
35,-454,0,0,0,0,0,0,0,0,0,-1,1259,1478,0,0
42,-454,0,0,0,0,0,0,0,0,0,-1,1266,1478,0,0
49,-454,0,0,0,0,0,0,0,0,0,-1,1273,1478,0,0
56,-454,0,0,0,0,0,0,0,0,0,-1,1280,1478,0,0
63,-454,0,0,0,0,0,0,0,0,0,-1,1287,1478,0,0
70,-454,0,0,0,0,0,0,0,0,0,-1,1294,1478,0,0
77,-454,0,0,0,0,0,0,0,0,0,-1,1301,1478,0,0
84,-454,0,0,0,0,0,0,0,0,0,-1,1308,1478,0,0
91,-454,0,0,0,0,0,0,0,0,0,-1,1315,1478,0,0
98,-454,0,0,0,0,0,0,0,0,0,-1,1322,1478,0,0
105,-454,0,0,0,0,0,0,0,0,0,-1,1329,1478,0,0
112,-454,0,0,0,0,0,0,0,0,0,-1,1336,1478,0,0
119,-454,0,0,0,0,0,0,0,0,0,-1,1343,1478,0,0
126,-454,0,0,0,0,0,0,0,0,0,-1,1350,1478,0,0
133,-454,0,0,0,0,0,0,0,0,0,-1,1357,1478,0,0
140,-454,0,0,0,0,0,0,0,0,0,-1,1364,1478,0,0
147,-454,0,0,0,0,0,0,0,0,0,-1,1371,1478,0,0
154,-454,0,0,0,0,0,0,0,0,0,-1,1378,1478,0,0
161,-454,0,0,0,0,0,0,0,0,0,-1,1385,1478,0,0
168,-454,0,0,0,0,0,0,0,0,0,-1,1392,1478,0,0
175,-454,0,0,0,0,0,0,0,0,0,-1,1399,1478,0,0
182,-454,0,0,0,0,0,0,0,0,0,-1,1406,1478,0,0
189,-454,0,0,0,0,0,0,0,0,0,-1,1413,1478,0,0
196,-454,0,0,0,0,0,0,0,0,0,-1,1420,1478,0,0
203,-454,0,0,0,0,0,0,0,0,0,-1,1427,1478,0,0
210,-454,0,0,0,0,0,0,0,0,0,-1,1434,1478,0,0
217,-454,0,0,0,0,0,0,0,0,0,-1,1441,1478,0,0
224,-454,0,0,0,0,0,0,0,0,0,-1,1448,1478,0,0
231,-454,0,0,0,0,0,0,0,0,0,-1,1455,1478,0,0
238,-454,0,0,0,0,0,0,0,0,0,-1,1462,1478,0,0
245,-454,0,0,0,0,0,0,0,0,0,-1,1469,1478,0,0
252,-454,0,0,0,0,0,0,0,0,0,-1,1476,1478,0,0
259,-454,0,0,0,0,0,0,0,0,0,-1,1483,1478,0,0
266,-454,0,0,0,0,0,0,0,0,0,-1,1490,1478,0,0
273,-454,0,0,0,0,0,0,0,0,0,-1,1497,1478,0,0
280,-454,0,0,0,0,0,0,0,0,0,-1,1504,1478,0,0
287,-454,0,0,0,0,0,0,0,0,0,-1,1511,1478,0,0
294,-454,0,0,0,0,0,0,0,0,0,-1,1518,1478,0,0
301,-454,0,0,0,0,0,0,0,0,0,-1,1525,1478,0,0
308,-454,0,0,0,0,0,0,0,0,0,-1,1532,1478,0,0
315,-454,0,0,0,0,0,0,0,0,0,-1,1539,1478,0,0
322,-454,0,0,0,0,0,0,0,0,0,-1,1546,1478,0,0
329,-454,0,0,0,0,0,0,0,0,0,-1,1553,1478,0,0
336,-454,0,0,0,0,0,0,0,0,0,-1,1560,1478,0,0
343,-454,0,0,0,0,0,0,0,0,0,-1,1567,1478,0,0
350,-454,0,0,0,0,0,0,0,0,0,-1,1574,1478,0,0
357,-454,0,0,0,0,0,0,0,0,0,-1,1581,1478,0,0
364,-454,0,0,0,0,0,0,0,0,0,-1,1588,1478,0,0
371,-454,0,0,0,0,0,0,0,0,0,-1,1595,1478,0,0
378,-454,0,0,0,0,0,0,0,0,0,-1,1602,1478,0,0
385,-454,0,0,0,0,0,0,0,0,0,-1,1609,1478,0,0
392,-454,0,0,0,0,0,0,0,0,0,-1,1616,1478,0,0
399,-454,0,0,0,0,0,0,0,0,0,-1,1623,1478,0,0
406,-454,0,0,0,0,0,0,0,0,0,-1,1630,1478,0,0
413,-454,0,0,0,0,0,0,0,0,0,-1,1637,1478,0,0
420,-454,0,0,0,0,0,0,0,0,0,-1,1644,1478,0,0
427,-454,0,0,0,0,0,0,0,0,0,-1,1651,1478,0,0
434,-454,0,0,0,0,0,0,0,0,0,-1,1658,1478,0,0
441,-454,0,0,0,0,0,0,0,0,0,-1,1665,1478,0,0
448,-454,0,0,0,0,0,0,0,0,0,-1,1672,1478,0,0
455,-454,0,0,0,0,0,0,0,0,0,-1,1679,1478,0,0
462,-454,0,0,0,0,0,0,0,0,0,-1,1686,1478,0,0
469,-454,0,0,0,0,0,0,0,0,0,-1,1693,1478,0,0
476,-454,0,0,0,0,0,0,0,0,0,-1,1700,1478,0,0
483,-454,14.2399,3.97498,0,0,0,0,0,0,0,-1,1707,1478,14.2399,-3.97502
490,-454,18.1821,-0.175781,0,0,0,0,0,0,0,-1,1714,1478,18.1821,0.175822
497,-454,16.8854,1.01208,0,0,0,0,0,0,0,-1,1721,1478,16.8854,-1.01209
504,-454,15.587,2.05994,0,0,0,0,0,0,0,-1,1728,1478,15.5871,-2.05998
511,-454,17.0273,14.5258,0,0,0,0,0,0,0,-1,1735,1478,17.0273,-14.5258
518,-454,16.4158,13.1039,0,0,0,0,0,0,0,-1,1742,1478,16.4157,-13.1038
525,-454,15.7842,11.6628,0,0,0,0,0,0,0,-1,1749,1478,15.7841,-11.6629
532,-454,15.1094,10.2476,0,0,0,0,0,0,0,-1,1756,1478,15.1094,-10.2475
539,-454,13.7905,10.9373,0,0,0,0,0,0,0,-1,1763,1478,13.7906,-10.9372
546,-454,16.2002,13.2458,0,0,0,0,0,0,0,-1,1770,1478,16.2002,-13.2459
553,-454,15.6747,12.1868,0,0,0,0,0,0,0,-1,1777,1478,15.6747,-12.1868
560,-454,16.3895,14.0527,0,0,0,0,0,0,0,-1,1784,1478,16.3895,-14.0528
567,-454,24.8591,21.2631,0,0,0,0,0,0,0,-1,1791,1478,24.8592,-21.263
574,-454,24.7261,20.5001,0.00834086,0.00634038,-0.00506793,0.0125063,0.00217493,-0.687967,0.00771543,0.0408848,1798,1478,24.7261,-20.5001
581,-454,24.7046,19.8693,0.00679256,0.00532354,-0.00430834,0.0104286,0.00168755,-0.700967,0.00646371,0.0250835,1805,1478,24.7046,-19.8692
588,-454,24.7672,19.2825,0.0054342,0.00427766,-0.00355885,0.00846145,0.00125041,-0.704858,0.00527381,0.014161,1812,1478,24.7672,-19.2825
595,-454,24.714,18.7411,0.00433433,0.00333683,-0.00284357,0.00672256,0.000948597,-0.698584,0.00420136,0.0118265,1819,1478,24.714,-18.7411
602,-454,24.6833,18.1992,0.00354544,0.00238106,-0.00218002,0.00521967,0.000706829,-0.654914,0.00326974,0.00875774,1826,1478,24.6834,-18.1992
609,-454,24.6797,17.6689,0.00297874,0.00153094,-0.00157033,0.00398399,0.000525693,-0.569422,0.00249926,0.0110017,1833,1478,24.6796,-17.6689
616,-454,24.6694,17.1416,0.00259131,0.000817668,-0.00106351,0.00308923,0.000319748,-0.437873,0.00196161,0.0145169,1840,1478,24.6694,-17.1416
623,-454,24.6832,16.6063,0.00251906,0.000103918,-0.000623956,0.00267074,-4.77562e-05,-0.23846,0.00179662,0.0137763,1847,1478,24.6833,-16.6064
630,-454,24.6704,16.0637,0.00270364,-0.00054855,-0.000258723,0.00272409,-0.000569004,-0.0788924,0.00203245,0.0128565,1854,1478,24.6704,-16.0637
637,-454,24.6061,15.526,0.0031422,-0.000963375,-7.94653e-05,0.00314374,-0.000964913,-0.0193458,0.00248082,0.0116612,1861,1478,24.606,-15.526
644,-454,24.6779,14.946,0.00387158,-0.00130653,-3.36107e-05,0.0038718,-0.00130675,-0.00649056,0.00310969,0.0223994,1868,1478,24.6779,-14.946
651,-454,24.7922,14.3195,0,0,0,0,0,0,0,-1,1875,1478,24.7922,-14.3195
658,-454,17.2583,10.0765,0,0,0,0,0,0,0,-1,1882,1478,17.2583,-10.0765
665,-454,17.683,9.67566,0,0,0,0,0,0,0,-1,1889,1478,17.683,-9.67572
672,-454,16.5476,6.41931,0,0,0,0,0,0,0,-1,1896,1478,16.5476,-6.41929
679,-454,14.2161,5.45007,0,0,0,0,0,0,0,-1,1903,1478,14.2161,-5.45013
686,-454,10.3767,2.12842,0,0,0,0,0,0,0,-1,1910,1478,10.3767,-2.12839
693,-454,11.1857,1.48486,0,0,0,0,0,0,0,-1,1917,1478,11.1857,-1.48487
700,-454,0,0,0,0,0,0,0,0,0,-1,1924,1478,0,0
707,-454,0,0,0,0,0,0,0,0,0,-1,1931,1478,0,0
714,-454,0,0,0,0,0,0,0,0,0,-1,1938,1478,0,0
721,-454,0,0,0,0,0,0,0,0,0,-1,1945,1478,0,0
728,-454,0,0,0,0,0,0,0,0,0,-1,1952,1478,0,0
735,-454,0,0,0,0,0,0,0,0,0,-1,1959,1478,0,0
742,-454,0,0,0,0,0,0,0,0,0,-1,1966,1478,0,0
749,-454,0,0,0,0,0,0,0,0,0,-1,1973,1478,0,0
756,-454,0,0,0,0,0,0,0,0,0,-1,1980,1478,0,0
763,-454,0,0,0,0,0,0,0,0,0,-1,1987,1478,0,0
770,-454,0,0,0,0,0,0,0,0,0,-1,1994,1478,0,0
777,-454,0,0,0,0,0,0,0,0,0,-1,2001,1478,0,0
784,-454,0,0,0,0,0,0,0,0,0,-1,2008,1478,0,0
791,-454,0,0,0,0,0,0,0,0,0,-1,2015,1478,0,0
798,-454,0,0,0,0,0,0,0,0,0,-1,2022,1478,0,0
805,-454,0,0,0,0,0,0,0,0,0,-1,2029,1478,0,0
812,-454,0,0,0,0,0,0,0,0,0,-1,2036,1478,0,0
-700,-461,0,0,0,0,0,0,0,0,0,-1,524,1485,0,0
-693,-461,0,0,0,0,0,0,0,0,0,-1,531,1485,0,0
-686,-461,0,0,0,0,0,0,0,0,0,-1,538,1485,0,0
-679,-461,0,0,0,0,0,0,0,0,0,-1,545,1485,0,0
-672,-461,0,0,0,0,0,0,0,0,0,-1,552,1485,0,0
-665,-461,0,0,0,0,0,0,0,0,0,-1,559,1485,0,0
-658,-461,0,0,0,0,0,0,0,0,0,-1,566,1485,0,0
-651,-461,0,0,0,0,0,0,0,0,0,-1,573,1485,0,0
-644,-461,0,0,0,0,0,0,0,0,0,-1,580,1485,0,0
-637,-461,0,0,0,0,0,0,0,0,0,-1,587,1485,0,0
-630,-461,0,0,0,0,0,0,0,0,0,-1,594,1485,0,0
-623,-461,0,0,0,0,0,0,0,0,0,-1,601,1485,0,0
-616,-461,0,0,0,0,0,0,0,0,0,-1,608,1485,0,0
-609,-461,0,0,0,0,0,0,0,0,0,-1,615,1485,0,0
-602,-461,0,0,0,0,0,0,0,0,0,-1,622,1485,0,0
-595,-461,0,0,0,0,0,0,0,0,0,-1,629,1485,0,0
-588,-461,0,0,0,0,0,0,0,0,0,-1,636,1485,0,0
-581,-461,0,0,0,0,0,0,0,0,0,-1,643,1485,0,0
-574,-461,0,0,0,0,0,0,0,0,0,-1,650,1485,0,0
-567,-461,-9.69031,0.513306,0,0,0,0,0,0,0,-1,657,1485,-9.69032,-0.513305
-560,-461,-7.28815,1.54004,0,0,0,0,0,0,0,-1,664,1485,-7.28817,-1.54005
-553,-461,-11.9607,5.27783,0,0,0,0,0,0,0,-1,671,1485,-11.9607,-5.27778
-546,-461,-11.4215,4.44666,0,0,0,0,0,0,0,-1,678,1485,-11.4215,-4.4467
-539,-461,-9.36493,5.23438,0,0,0,0,0,0,0,-1,685,1485,-9.3649,-5.23432
-532,-461,-7.82898,6.78357,0,0,0,0,0,0,0,-1,692,1485,-7.829,-6.78363
-525,-461,-6.37878,8.75659,0,0,0,0,0,0,0,-1,699,1485,-6.3788,-8.75659
-518,-461,-6.49695,10.886,0,0,0,0,0,0,0,-1,706,1485,-6.49696,-10.8859
-511,-461,-8.49762,13.2302,0,0,0,0,0,0,0,-1,713,1485,-8.4976,-13.2302
-504,-461,-8.41296,13.7875,-0.00105485,-0.00014106,0.000117201,-0.000126268,-0.00106965,1.44525,0.000674957,0.0292825,720,1485,-8.41297,-13.7874
-497,-461,-8.34998,14.4786,-0.00104547,-4.26617e-05,1.72588e-05,-4.23648e-05,-0.00104576,1.55359,0.000683491,0.0111442,727,1485,-8.34996,-14.4787
-490,-461,-8.38715,15.0746,-0.000809773,0.000172506,7.92062e-05,0.000178852,-0.000816119,1.49085,0.000612464,0.012782,734,1485,-8.38717,-15.0746
-483,-461,-8.41937,15.6382,-0.000337006,0.000561177,0.000326258,0.000667178,-0.000443007,1.25666,0.000645306,0.012287,741,1485,-8.41939,-15.6382
-476,-461,-8.45056,16.21,0.000343829,0.0011118,0.00076692,0.00158549,-0.000129862,1.0175,0.00110284,0.0109367,748,1485,-8.45057,-16.21
-469,-461,-8.46326,16.7797,0.00122788,0.00190971,0.00146114,0.00306918,6.84161e-05,0.900008,0.0020237,0.0131708,755,1485,-8.46328,-16.7797
-462,-461,-8.49182,17.3754,0.0022696,0.00279044,0.00227435,0.00481923,0.000240811,0.842402,0.00313563,0.018984,762,1485,-8.49179,-17.3753
-455,-461,-8.57178,17.9514,0.00349469,0.0038686,0.00329912,0.00698606,0.000377235,0.813702,0.00453686,0.0228343,769,1485,-8.57176,-17.9514
-448,-461,-8.53534,18.5571,0.00503192,0.0053395,0.00469251,0.00988074,0.000490682,0.801779,0.00642985,0.0192783,776,1485,-8.53534,-18.5572
-441,-461,-8.43988,19.2109,0.00685741,0.00697846,0.00644268,0.0133609,0.000474971,0.790095,0.00875324,0.0290403,783,1485,-8.43987,-19.211
-434,-461,-8.27271,20.0269,0,0,0,0,0,0,0,-1,790,1485,-8.27272,-20.0268
-427,-461,-7.73358,20.3715,0,0,0,0,0,0,0,-1,797,1485,-7.7336,-20.3715
-420,-461,-5.70355,16.6116,0,0,0,0,0,0,0,-1,804,1485,-5.70353,-16.6115
-413,-461,-5.98798,16.0605,0,0,0,0,0,0,0,-1,811,1485,-5.98796,-16.0605
-406,-461,-5.52667,14.839,0,0,0,0,0,0,0,-1,818,1485,-5.52666,-14.839
-399,-461,-1.93439,9.82849,0,0,0,0,0,0,0,-1,825,1485,-1.9344,-9.82846
-392,-461,-0.357544,5.55225,0,0,0,0,0,0,0,-1,832,1485,-0.357536,-5.55228
-385,-461,1.71509,3.35254,0,0,0,0,0,0,0,-1,839,1485,1.71511,-3.35255
-378,-461,1.95996,3.01111,0,0,0,0,0,0,0,-1,846,1485,1.95993,-3.01111
-371,-461,0.702881,2.33459,0,0,0,0,0,0,0,-1,853,1485,0.702859,-2.33459
-364,-461,-1.93097,2.56458,0,0,0,0,0,0,0,-1,860,1485,-1.93095,-2.56456
-357,-461,-2.41516,3.49487,0,0,0,0,0,0,0,-1,867,1485,-2.41517,-3.49487
-350,-461,0,0,0,0,0,0,0,0,0,-1,874,1485,0,0
-343,-461,0,0,0,0,0,0,0,0,0,-1,881,1485,0,0
-336,-461,0,0,0,0,0,0,0,0,0,-1,888,1485,0,0
-329,-461,0,0,0,0,0,0,0,0,0,-1,895,1485,0,0
-322,-461,0,0,0,0,0,0,0,0,0,-1,902,1485,0,0
-315,-461,0,0,0,0,0,0,0,0,0,-1,909,1485,0,0
-308,-461,0,0,0,0,0,0,0,0,0,-1,916,1485,0,0
-301,-461,0,0,0,0,0,0,0,0,0,-1,923,1485,0,0
-294,-461,0,0,0,0,0,0,0,0,0,-1,930,1485,0,0
-287,-461,0,0,0,0,0,0,0,0,0,-1,937,1485,0,0
-280,-461,0,0,0,0,0,0,0,0,0,-1,944,1485,0,0
-273,-461,0,0,0,0,0,0,0,0,0,-1,951,1485,0,0
-266,-461,0,0,0,0,0,0,0,0,0,-1,958,1485,0,0
-259,-461,0,0,0,0,0,0,0,0,0,-1,965,1485,0,0
-252,-461,0,0,0,0,0,0,0,0,0,-1,972,1485,0,0
-245,-461,0,0,0,0,0,0,0,0,0,-1,979,1485,0,0
-238,-461,0,0,0,0,0,0,0,0,0,-1,986,1485,0,0
-231,-461,0,0,0,0,0,0,0,0,0,-1,993,1485,0,0
-224,-461,0,0,0,0,0,0,0,0,0,-1,1000,1485,0,0
-217,-461,0,0,0,0,0,0,0,0,0,-1,1007,1485,0,0
-210,-461,0,0,0,0,0,0,0,0,0,-1,1014,1485,0,0
-203,-461,0,0,0,0,0,0,0,0,0,-1,1021,1485,0,0
-196,-461,0,0,0,0,0,0,0,0,0,-1,1028,1485,0,0
-189,-461,0,0,0,0,0,0,0,0,0,-1,1035,1485,0,0
-182,-461,0,0,0,0,0,0,0,0,0,-1,1042,1485,0,0
-175,-461,0,0,0,0,0,0,0,0,0,-1,1049,1485,0,0
-168,-461,0,0,0,0,0,0,0,0,0,-1,1056,1485,0,0
-161,-461,0,0,0,0,0,0,0,0,0,-1,1063,1485,0,0
-154,-461,0,0,0,0,0,0,0,0,0,-1,1070,1485,0,0
-147,-461,0,0,0,0,0,0,0,0,0,-1,1077,1485,0,0
-140,-461,0,0,0,0,0,0,0,0,0,-1,1084,1485,0,0
-133,-461,0,0,0,0,0,0,0,0,0,-1,1091,1485,0,0
-126,-461,0,0,0,0,0,0,0,0,0,-1,1098,1485,0,0
-119,-461,0,0,0,0,0,0,0,0,0,-1,1105,1485,0,0
-112,-461,0,0,0,0,0,0,0,0,0,-1,1112,1485,0,0
-105,-461,0,0,0,0,0,0,0,0,0,-1,1119,1485,0,0
-98,-461,0,0,0,0,0,0,0,0,0,-1,1126,1485,0,0
-91,-461,0,0,0,0,0,0,0,0,0,-1,1133,1485,0,0
-84,-461,0,0,0,0,0,0,0,0,0,-1,1140,1485,0,0
-77,-461,0,0,0,0,0,0,0,0,0,-1,1147,1485,0,0
-70,-461,0,0,0,0,0,0,0,0,0,-1,1154,1485,0,0
-63,-461,0,0,0,0,0,0,0,0,0,-1,1161,1485,0,0
-56,-461,0,0,0,0,0,0,0,0,0,-1,1168,1485,0,0
-49,-461,0,0,0,0,0,0,0,0,0,-1,1175,1485,0,0
-42,-461,0,0,0,0,0,0,0,0,0,-1,1182,1485,0,0
-35,-461,0,0,0,0,0,0,0,0,0,-1,1189,1485,0,0
-28,-461,0,0,0,0,0,0,0,0,0,-1,1196,1485,0,0
-21,-461,0,0,0,0,0,0,0,0,0,-1,1203,1485,0,0
-14,-461,0,0,0,0,0,0,0,0,0,-1,1210,1485,0,0
-7,-461,0,0,0,0,0,0,0,0,0,-1,1217,1485,0,0
0,-461,0,0,0,0,0,0,0,0,0,-1,1224,1485,0,0
7,-461,0,0,0,0,0,0,0,0,0,-1,1231,1485,0,0
14,-461,0,0,0,0,0,0,0,0,0,-1,1238,1485,0,0
21,-461,0,0,0,0,0,0,0,0,0,-1,1245,1485,0,0
28,-461,0,0,0,0,0,0,0,0,0,-1,1252,1485,0,0
35,-461,0,0,0,0,0,0,0,0,0,-1,1259,1485,0,0
42,-461,0,0,0,0,0,0,0,0,0,-1,1266,1485,0,0
49,-461,0,0,0,0,0,0,0,0,0,-1,1273,1485,0,0
56,-461,0,0,0,0,0,0,0,0,0,-1,1280,1485,0,0
63,-461,0,0,0,0,0,0,0,0,0,-1,1287,1485,0,0
70,-461,0,0,0,0,0,0,0,0,0,-1,1294,1485,0,0
77,-461,0,0,0,0,0,0,0,0,0,-1,1301,1485,0,0
84,-461,0,0,0,0,0,0,0,0,0,-1,1308,1485,0,0
91,-461,0,0,0,0,0,0,0,0,0,-1,1315,1485,0,0
98,-461,0,0,0,0,0,0,0,0,0,-1,1322,1485,0,0
105,-461,0,0,0,0,0,0,0,0,0,-1,1329,1485,0,0
112,-461,0,0,0,0,0,0,0,0,0,-1,1336,1485,0,0
119,-461,0,0,0,0,0,0,0,0,0,-1,1343,1485,0,0
126,-461,0,0,0,0,0,0,0,0,0,-1,1350,1485,0,0
133,-461,0,0,0,0,0,0,0,0,0,-1,1357,1485,0,0
140,-461,0,0,0,0,0,0,0,0,0,-1,1364,1485,0,0
147,-461,0,0,0,0,0,0,0,0,0,-1,1371,1485,0,0
154,-461,0,0,0,0,0,0,0,0,0,-1,1378,1485,0,0
161,-461,0,0,0,0,0,0,0,0,0,-1,1385,1485,0,0
168,-461,0,0,0,0,0,0,0,0,0,-1,1392,1485,0,0
175,-461,0,0,0,0,0,0,0,0,0,-1,1399,1485,0,0
182,-461,0,0,0,0,0,0,0,0,0,-1,1406,1485,0,0
189,-461,0,0,0,0,0,0,0,0,0,-1,1413,1485,0,0
196,-461,0,0,0,0,0,0,0,0,0,-1,1420,1485,0,0
203,-461,0,0,0,0,0,0,0,0,0,-1,1427,1485,0,0
210,-461,0,0,0,0,0,0,0,0,0,-1,1434,1485,0,0
217,-461,0,0,0,0,0,0,0,0,0,-1,1441,1485,0,0
224,-461,0,0,0,0,0,0,0,0,0,-1,1448,1485,0,0
231,-461,0,0,0,0,0,0,0,0,0,-1,1455,1485,0,0
238,-461,0,0,0,0,0,0,0,0,0,-1,1462,1485,0,0
245,-461,0,0,0,0,0,0,0,0,0,-1,1469,1485,0,0
252,-461,0,0,0,0,0,0,0,0,0,-1,1476,1485,0,0
259,-461,0,0,0,0,0,0,0,0,0,-1,1483,1485,0,0
266,-461,0,0,0,0,0,0,0,0,0,-1,1490,1485,0,0
273,-461,0,0,0,0,0,0,0,0,0,-1,1497,1485,0,0
280,-461,0,0,0,0,0,0,0,0,0,-1,1504,1485,0,0
287,-461,0,0,0,0,0,0,0,0,0,-1,1511,1485,0,0
294,-461,0,0,0,0,0,0,0,0,0,-1,1518,1485,0,0
301,-461,0,0,0,0,0,0,0,0,0,-1,1525,1485,0,0
308,-461,0,0,0,0,0,0,0,0,0,-1,1532,1485,0,0
315,-461,0,0,0,0,0,0,0,0,0,-1,1539,1485,0,0
322,-461,0,0,0,0,0,0,0,0,0,-1,1546,1485,0,0
329,-461,0,0,0,0,0,0,0,0,0,-1,1553,1485,0,0
336,-461,0,0,0,0,0,0,0,0,0,-1,1560,1485,0,0
343,-461,0,0,0,0,0,0,0,0,0,-1,1567,1485,0,0
350,-461,0,0,0,0,0,0,0,0,0,-1,1574,1485,0,0
357,-461,0,0,0,0,0,0,0,0,0,-1,1581,1485,0,0
364,-461,0,0,0,0,0,0,0,0,0,-1,1588,1485,0,0
371,-461,0,0,0,0,0,0,0,0,0,-1,1595,1485,0,0
378,-461,0,0,0,0,0,0,0,0,0,-1,1602,1485,0,0
385,-461,0,0,0,0,0,0,0,0,0,-1,1609,1485,0,0
392,-461,0,0,0,0,0,0,0,0,0,-1,1616,1485,0,0
399,-461,0,0,0,0,0,0,0,0,0,-1,1623,1485,0,0
406,-461,0,0,0,0,0,0,0,0,0,-1,1630,1485,0,0
413,-461,0,0,0,0,0,0,0,0,0,-1,1637,1485,0,0
420,-461,0,0,0,0,0,0,0,0,0,-1,1644,1485,0,0
427,-461,0,0,0,0,0,0,0,0,0,-1,1651,1485,0,0
434,-461,0,0,0,0,0,0,0,0,0,-1,1658,1485,0,0
441,-461,0,0,0,0,0,0,0,0,0,-1,1665,1485,0,0
448,-461,0,0,0,0,0,0,0,0,0,-1,1672,1485,0,0
455,-461,0,0,0,0,0,0,0,0,0,-1,1679,1485,0,0
462,-461,0,0,0,0,0,0,0,0,0,-1,1686,1485,0,0
469,-461,0,0,0,0,0,0,0,0,0,-1,1693,1485,0,0
476,-461,14.1906,0.690552,0,0,0,0,0,0,0,-1,1700,1485,14.1906,-0.690525
483,-461,10.6361,3.09106,0,0,0,0,0,0,0,-1,1707,1485,10.6361,-3.091
490,-461,17.9972,0.665894,0,0,0,0,0,0,0,-1,1714,1485,17.9972,-0.665876
497,-461,16.6829,1.87732,0,0,0,0,0,0,0,-1,1721,1485,16.6828,-1.87736
504,-461,15.3884,3.09216,0,0,0,0,0,0,0,-1,1728,1485,15.3885,-3.09212
511,-461,15.4292,14.3512,0,0,0,0,0,0,0,-1,1735,1485,15.4292,-14.3512
518,-461,14.8081,10.0085,0,0,0,0,0,0,0,-1,1742,1485,14.8081,-10.0086
525,-461,14.0022,10.8033,0,0,0,0,0,0,0,-1,1749,1485,14.0022,-10.8033
532,-461,17.1704,14.077,0,0,0,0,0,0,0,-1,1756,1485,17.1704,-14.077
539,-461,17.0229,14.7386,0,0,0,0,0,0,0,-1,1763,1485,17.0229,-14.7387
546,-461,16.2106,14.1372,0,0,0,0,0,0,0,-1,1770,1485,16.2106,-14.1372
553,-461,23.5532,22.0394,0,0,0,0,0,0,0,-1,1777,1485,23.5532,-22.0395
560,-461,24.1801,21.4628,0,0,0,0,0,0,0,-1,1784,1485,24.18,-21.4628
567,-461,24.2295,20.8502,0.00844621,0.00598972,-0.00454525,0.0119262,0.00250968,-0.653437,0.00726032,0.0345705,1791,1485,24.2295,-20.8502
574,-461,24.246,20.3896,0.00689726,0.00500717,-0.00389158,0.0099569,0.00194753,-0.666282,0.0060934,0.0299334,1798,1485,24.2459,-20.3896
581,-461,24.2406,19.8322,0.00562594,0.00416029,-0.0033163,0.00828942,0.00149681,-0.676657,0.00510108,0.0175758,1805,1485,24.2406,-19.8321
588,-461,24.2156,19.3157,0.00454179,0.00329579,-0.00273536,0.0067242,0.00111338,-0.673429,0.00416162,0.011275,1812,1485,24.2156,-19.3156
595,-461,24.1683,18.7909,0.00372152,0.00247386,-0.00217378,0.00535921,0.000836171,-0.645664,0.00332927,0.00928227,1819,1485,24.1683,-18.7908
602,-461,24.1622,18.2318,0.00312507,0.00166687,-0.00166685,0.0042153,0.000576634,-0.579231,0.00263908,0.0102087,1826,1485,24.1623,-18.2318
609,-461,24.1543,17.6871,0.0027222,0.000936722,-0.00117807,0.00330758,0.000351339,-0.461163,0.00209777,0.0119732,1833,1485,24.1543,-17.6872
616,-461,24.1444,17.1628,0.00249928,0.000291176,-0.00075181,0.00273094,5.95064e-05,-0.298915,0.00180112,0.0141232,1840,1485,24.1444,-17.1629
623,-461,24.1467,16.6492,0.00257428,-0.000402808,-0.000356386,0.00261635,-0.000444877,-0.117498,0.00190987,0.015539,1847,1485,24.1467,-16.6491
630,-461,24.1281,16.1213,0.0028976,-0.00104106,-1.15804e-05,0.00289764,-0.00104109,-0.00294016,0.00235673,0.0151074,1854,1485,24.128,-16.1213
637,-461,24.0806,15.5782,0.00357251,-0.00139578,9.23629e-05,0.00357423,-0.00139749,0.0185819,0.00296071,0.0145788,1861,1485,24.0806,-15.5783
644,-461,24.1737,15.1038,0.00451893,-0.00180818,0.000128797,0.00452155,-0.0018108,0.0203451,0.00376599,0.0302237,1868,1485,24.1737,-15.1038
651,-461,24.3319,14.5973,0,0,0,0,0,0,0,-1,1875,1485,24.3319,-14.5973
658,-461,16.8987,10.1084,0,0,0,0,0,0,0,-1,1882,1485,16.8986,-10.1084
665,-461,17.2638,9.81384,0,0,0,0,0,0,0,-1,1889,1485,17.2638,-9.81385
672,-461,14.4877,6.89429,0,0,0,0,0,0,0,-1,1896,1485,14.4876,-6.89431
679,-461,10.0535,2.16321,0,0,0,0,0,0,0,-1,1903,1485,10.0535,-2.16317
686,-461,10.8195,1.84192,0,0,0,0,0,0,0,-1,1910,1485,10.8194,-1.84195
693,-461,0,0,0,0,0,0,0,0,0,-1,1917,1485,0,0
700,-461,0,0,0,0,0,0,0,0,0,-1,1924,1485,0,0
707,-461,0,0,0,0,0,0,0,0,0,-1,1931,1485,0,0
714,-461,0,0,0,0,0,0,0,0,0,-1,1938,1485,0,0
721,-461,0,0,0,0,0,0,0,0,0,-1,1945,1485,0,0
728,-461,0,0,0,0,0,0,0,0,0,-1,1952,1485,0,0
735,-461,0,0,0,0,0,0,0,0,0,-1,1959,1485,0,0
742,-461,0,0,0,0,0,0,0,0,0,-1,1966,1485,0,0
749,-461,0,0,0,0,0,0,0,0,0,-1,1973,1485,0,0
756,-461,0,0,0,0,0,0,0,0,0,-1,1980,1485,0,0
763,-461,0,0,0,0,0,0,0,0,0,-1,1987,1485,0,0
770,-461,0,0,0,0,0,0,0,0,0,-1,1994,1485,0,0
777,-461,0,0,0,0,0,0,0,0,0,-1,2001,1485,0,0
784,-461,0,0,0,0,0,0,0,0,0,-1,2008,1485,0,0
791,-461,0,0,0,0,0,0,0,0,0,-1,2015,1485,0,0
798,-461,0,0,0,0,0,0,0,0,0,-1,2022,1485,0,0
805,-461,0,0,0,0,0,0,0,0,0,-1,2029,1485,0,0
812,-461,0,0,0,0,0,0,0,0,0,-1,2036,1485,0,0
-700,-468,0,0,0,0,0,0,0,0,0,-1,524,1492,0,0
-693,-468,0,0,0,0,0,0,0,0,0,-1,531,1492,0,0
-686,-468,0,0,0,0,0,0,0,0,0,-1,538,1492,0,0
-679,-468,0,0,0,0,0,0,0,0,0,-1,545,1492,0,0
-672,-468,0,0,0,0,0,0,0,0,0,-1,552,1492,0,0
-665,-468,0,0,0,0,0,0,0,0,0,-1,559,1492,0,0
-658,-468,0,0,0,0,0,0,0,0,0,-1,566,1492,0,0
-651,-468,0,0,0,0,0,0,0,0,0,-1,573,1492,0,0
-644,-468,0,0,0,0,0,0,0,0,0,-1,580,1492,0,0
-637,-468,0,0,0,0,0,0,0,0,0,-1,587,1492,0,0
-630,-468,0,0,0,0,0,0,0,0,0,-1,594,1492,0,0
-623,-468,0,0,0,0,0,0,0,0,0,-1,601,1492,0,0
-616,-468,0,0,0,0,0,0,0,0,0,-1,608,1492,0,0
-609,-468,0,0,0,0,0,0,0,0,0,-1,615,1492,0,0
-602,-468,0,0,0,0,0,0,0,0,0,-1,622,1492,0,0
-595,-468,0,0,0,0,0,0,0,0,0,-1,629,1492,0,0
-588,-468,0,0,0,0,0,0,0,0,0,-1,636,1492,0,0
-581,-468,0,0,0,0,0,0,0,0,0,-1,643,1492,0,0
-574,-468,0,0,0,0,0,0,0,0,0,-1,650,1492,0,0
-567,-468,-11.2603,1.8042,0,0,0,0,0,0,0,-1,657,1492,-11.2603,-1.80424
-560,-468,-8.77441,2.23694,0,0,0,0,0,0,0,-1,664,1492,-8.77443,-2.23692
-553,-468,-5.94061,9.26318,0,0,0,0,0,0,0,-1,671,1492,-5.94062,-9.26322
-546,-468,-10.47,5.43237,0,0,0,0,0,0,0,-1,678,1492,-10.47,-5.4324
-539,-468,-10.2468,5.45203,0,0,0,0,0,0,0,-1,685,1492,-10.2468,-5.45197
-532,-468,-8.39795,6.02783,0,0,0,0,0,0,0,-1,692,1492,-8.39793,-6.02789
-525,-468,-6.59332,7.15405,0,0,0,0,0,0,0,-1,699,1492,-6.59331,-7.15411
-518,-468,-6.33588,8.65393,0,0,0,0,0,0,0,-1,706,1492,-6.33588,-8.65397
-511,-468,-7.73724,13.2416,0,0,0,0,0,0,0,-1,713,1492,-7.73724,-13.2416
-504,-468,-7.67706,13.8308,-0.002158,-0.000536801,-0.000307598,-0.000480401,-0.0022144,-1.38945,0.00134504,0.0456294,720,1492,-7.67706,-13.8308
-497,-468,-7.78888,14.4395,-0.00223819,-0.000567499,-0.000491265,-0.00043375,-0.00237194,-1.30499,0.00145837,0.0197074,727,1492,-7.7889,-14.4394
-490,-468,-7.79303,15.1025,-0.00203783,-0.000493151,-0.000505085,-0.000342658,-0.00218832,-1.28122,0.00135914,0.00817547,734,1492,-7.79302,-15.1025
-483,-468,-7.8324,15.679,-0.00153862,-0.000218995,-0.000310655,-0.000149521,-0.00160809,-1.35078,0.00102586,0.00848817,741,1492,-7.83238,-15.679
-476,-468,-7.86548,16.2479,-0.000812475,0.000236559,7.20536e-05,0.000241485,-0.000817401,1.50254,0.00064078,0.0093788,748,1492,-7.86549,-16.248
-469,-468,-7.88428,16.8236,0.000123062,0.000944511,0.000703501,0.00134841,-0.000280835,1.04962,0.00100571,0.0136736,755,1492,-7.88431,-16.8236
-462,-468,-7.87292,17.4103,0.00120911,0.00175085,0.00145705,0.00296199,-2.03517e-06,0.8773,0.00197534,0.0240299,762,1492,-7.87294,-17.4103
-455,-468,-7.93585,17.9435,0.00242119,0.00272408,0.00237303,0.00495049,0.000194778,0.817265,0.00323735,0.0245593,769,1492,-7.93587,-17.9434
-448,-468,-7.94037,18.538,0.00391011,0.00407417,0.00363332,0.00762638,0.000357896,0.796685,0.00496925,0.0143755,776,1492,-7.94038,-18.538
-441,-468,-7.95526,19.1344,0.00566353,0.00564988,0.00523133,0.010888,0.000425369,0.784746,0.00712114,0.0139044,783,1492,-7.95524,-19.1345
-434,-468,-7.92096,19.7893,0.00757762,0.00776029,0.00715158,0.0148211,0.000516793,0.791784,0.00971306,0.0247227,790,1492,-7.92095,-19.7893
-427,-468,-7.91608,20.4552,0,0,0,0,0,0,0,-1,797,1492,-7.91608,-20.4551
-420,-468,-7.06097,20.8763,0,0,0,0,0,0,0,-1,804,1492,-7.06098,-20.8764
-413,-468,-5.30328,17.3519,0,0,0,0,0,0,0,-1,811,1492,-5.30329,-17.352
-406,-468,-2.2356,9.396,0,0,0,0,0,0,0,-1,818,1492,-2.2356,-9.396
-399,-468,-0.940369,8.1936,0,0,0,0,0,0,0,-1,825,1492,-0.940365,-8.19357
-392,-468,-0.35144,8.14673,0,0,0,0,0,0,0,-1,832,1492,-0.351449,-8.14674
-385,-468,0.465759,5.35864,0,0,0,0,0,0,0,-1,839,1492,0.465732,-5.35864
-378,-468,1.99835,3.25391,0,0,0,0,0,0,0,-1,846,1492,1.99837,-3.2539
-371,-468,-0.31842,3.1532,0,0,0,0,0,0,0,-1,853,1492,-0.318441,-3.15324
-364,-468,-0.966736,2.14563,0,0,0,0,0,0,0,-1,860,1492,-0.966735,-2.14557
-357,-468,-3.06787,3.22742,0,0,0,0,0,0,0,-1,867,1492,-3.06784,-3.2274
-350,-468,-3.18658,4.12659,0,0,0,0,0,0,0,-1,874,1492,-3.18659,-4.12658
-343,-468,0,0,0,0,0,0,0,0,0,-1,881,1492,0,0
-336,-468,0,0,0,0,0,0,0,0,0,-1,888,1492,0,0
-329,-468,0,0,0,0,0,0,0,0,0,-1,895,1492,0,0
-322,-468,0,0,0,0,0,0,0,0,0,-1,902,1492,0,0
-315,-468,0,0,0,0,0,0,0,0,0,-1,909,1492,0,0
-308,-468,0,0,0,0,0,0,0,0,0,-1,916,1492,0,0
-301,-468,0,0,0,0,0,0,0,0,0,-1,923,1492,0,0
-294,-468,0,0,0,0,0,0,0,0,0,-1,930,1492,0,0
-287,-468,0,0,0,0,0,0,0,0,0,-1,937,1492,0,0
-280,-468,0,0,0,0,0,0,0,0,0,-1,944,1492,0,0
-273,-468,0,0,0,0,0,0,0,0,0,-1,951,1492,0,0
-266,-468,0,0,0,0,0,0,0,0,0,-1,958,1492,0,0
-259,-468,0,0,0,0,0,0,0,0,0,-1,965,1492,0,0
-252,-468,0,0,0,0,0,0,0,0,0,-1,972,1492,0,0
-245,-468,0,0,0,0,0,0,0,0,0,-1,979,1492,0,0
-238,-468,0,0,0,0,0,0,0,0,0,-1,986,1492,0,0
-231,-468,0,0,0,0,0,0,0,0,0,-1,993,1492,0,0
-224,-468,0,0,0,0,0,0,0,0,0,-1,1000,1492,0,0
-217,-468,0,0,0,0,0,0,0,0,0,-1,1007,1492,0,0
-210,-468,0,0,0,0,0,0,0,0,0,-1,1014,1492,0,0
-203,-468,0,0,0,0,0,0,0,0,0,-1,1021,1492,0,0
-196,-468,0,0,0,0,0,0,0,0,0,-1,1028,1492,0,0
-189,-468,0,0,0,0,0,0,0,0,0,-1,1035,1492,0,0
-182,-468,0,0,0,0,0,0,0,0,0,-1,1042,1492,0,0
-175,-468,0,0,0,0,0,0,0,0,0,-1,1049,1492,0,0
-168,-468,0,0,0,0,0,0,0,0,0,-1,1056,1492,0,0
-161,-468,0,0,0,0,0,0,0,0,0,-1,1063,1492,0,0
-154,-468,0,0,0,0,0,0,0,0,0,-1,1070,1492,0,0
-147,-468,0,0,0,0,0,0,0,0,0,-1,1077,1492,0,0
-140,-468,0,0,0,0,0,0,0,0,0,-1,1084,1492,0,0
-133,-468,0,0,0,0,0,0,0,0,0,-1,1091,1492,0,0
-126,-468,0,0,0,0,0,0,0,0,0,-1,1098,1492,0,0
-119,-468,0,0,0,0,0,0,0,0,0,-1,1105,1492,0,0
-112,-468,0,0,0,0,0,0,0,0,0,-1,1112,1492,0,0
-105,-468,0,0,0,0,0,0,0,0,0,-1,1119,1492,0,0
-98,-468,0,0,0,0,0,0,0,0,0,-1,1126,1492,0,0
-91,-468,0,0,0,0,0,0,0,0,0,-1,1133,1492,0,0
-84,-468,0,0,0,0,0,0,0,0,0,-1,1140,1492,0,0
-77,-468,0,0,0,0,0,0,0,0,0,-1,1147,1492,0,0
-70,-468,0,0,0,0,0,0,0,0,0,-1,1154,1492,0,0
-63,-468,0,0,0,0,0,0,0,0,0,-1,1161,1492,0,0
-56,-468,0,0,0,0,0,0,0,0,0,-1,1168,1492,0,0
-49,-468,0,0,0,0,0,0,0,0,0,-1,1175,1492,0,0
-42,-468,0,0,0,0,0,0,0,0,0,-1,1182,1492,0,0
-35,-468,0,0,0,0,0,0,0,0,0,-1,1189,1492,0,0
-28,-468,0,0,0,0,0,0,0,0,0,-1,1196,1492,0,0
-21,-468,0,0,0,0,0,0,0,0,0,-1,1203,1492,0,0
-14,-468,0,0,0,0,0,0,0,0,0,-1,1210,1492,0,0
-7,-468,0,0,0,0,0,0,0,0,0,-1,1217,1492,0,0
0,-468,0,0,0,0,0,0,0,0,0,-1,1224,1492,0,0
7,-468,0,0,0,0,0,0,0,0,0,-1,1231,1492,0,0
14,-468,0,0,0,0,0,0,0,0,0,-1,1238,1492,0,0
21,-468,0,0,0,0,0,0,0,0,0,-1,1245,1492,0,0
28,-468,0,0,0,0,0,0,0,0,0,-1,1252,1492,0,0
35,-468,0,0,0,0,0,0,0,0,0,-1,1259,1492,0,0
42,-468,0,0,0,0,0,0,0,0,0,-1,1266,1492,0,0
49,-468,0,0,0,0,0,0,0,0,0,-1,1273,1492,0,0
56,-468,0,0,0,0,0,0,0,0,0,-1,1280,1492,0,0
63,-468,0,0,0,0,0,0,0,0,0,-1,1287,1492,0,0
70,-468,0,0,0,0,0,0,0,0,0,-1,1294,1492,0,0
77,-468,0,0,0,0,0,0,0,0,0,-1,1301,1492,0,0
84,-468,0,0,0,0,0,0,0,0,0,-1,1308,1492,0,0
91,-468,0,0,0,0,0,0,0,0,0,-1,1315,1492,0,0
98,-468,0,0,0,0,0,0,0,0,0,-1,1322,1492,0,0
105,-468,0,0,0,0,0,0,0,0,0,-1,1329,1492,0,0
112,-468,0,0,0,0,0,0,0,0,0,-1,1336,1492,0,0
119,-468,0,0,0,0,0,0,0,0,0,-1,1343,1492,0,0
126,-468,0,0,0,0,0,0,0,0,0,-1,1350,1492,0,0
133,-468,0,0,0,0,0,0,0,0,0,-1,1357,1492,0,0
140,-468,0,0,0,0,0,0,0,0,0,-1,1364,1492,0,0
147,-468,0,0,0,0,0,0,0,0,0,-1,1371,1492,0,0
154,-468,0,0,0,0,0,0,0,0,0,-1,1378,1492,0,0
161,-468,0,0,0,0,0,0,0,0,0,-1,1385,1492,0,0
168,-468,0,0,0,0,0,0,0,0,0,-1,1392,1492,0,0
175,-468,0,0,0,0,0,0,0,0,0,-1,1399,1492,0,0
182,-468,0,0,0,0,0,0,0,0,0,-1,1406,1492,0,0
189,-468,0,0,0,0,0,0,0,0,0,-1,1413,1492,0,0
196,-468,0,0,0,0,0,0,0,0,0,-1,1420,1492,0,0
203,-468,0,0,0,0,0,0,0,0,0,-1,1427,1492,0,0
210,-468,0,0,0,0,0,0,0,0,0,-1,1434,1492,0,0
217,-468,0,0,0,0,0,0,0,0,0,-1,1441,1492,0,0
224,-468,0,0,0,0,0,0,0,0,0,-1,1448,1492,0,0
231,-468,0,0,0,0,0,0,0,0,0,-1,1455,1492,0,0
238,-468,0,0,0,0,0,0,0,0,0,-1,1462,1492,0,0
245,-468,0,0,0,0,0,0,0,0,0,-1,1469,1492,0,0
252,-468,0,0,0,0,0,0,0,0,0,-1,1476,1492,0,0
259,-468,0,0,0,0,0,0,0,0,0,-1,1483,1492,0,0
266,-468,0,0,0,0,0,0,0,0,0,-1,1490,1492,0,0
273,-468,0,0,0,0,0,0,0,0,0,-1,1497,1492,0,0
280,-468,0,0,0,0,0,0,0,0,0,-1,1504,1492,0,0
287,-468,0,0,0,0,0,0,0,0,0,-1,1511,1492,0,0
294,-468,0,0,0,0,0,0,0,0,0,-1,1518,1492,0,0
301,-468,0,0,0,0,0,0,0,0,0,-1,1525,1492,0,0
308,-468,0,0,0,0,0,0,0,0,0,-1,1532,1492,0,0
315,-468,0,0,0,0,0,0,0,0,0,-1,1539,1492,0,0
322,-468,0,0,0,0,0,0,0,0,0,-1,1546,1492,0,0
329,-468,0,0,0,0,0,0,0,0,0,-1,1553,1492,0,0
336,-468,0,0,0,0,0,0,0,0,0,-1,1560,1492,0,0
343,-468,0,0,0,0,0,0,0,0,0,-1,1567,1492,0,0
350,-468,0,0,0,0,0,0,0,0,0,-1,1574,1492,0,0
357,-468,0,0,0,0,0,0,0,0,0,-1,1581,1492,0,0
364,-468,0,0,0,0,0,0,0,0,0,-1,1588,1492,0,0
371,-468,0,0,0,0,0,0,0,0,0,-1,1595,1492,0,0
378,-468,0,0,0,0,0,0,0,0,0,-1,1602,1492,0,0
385,-468,0,0,0,0,0,0,0,0,0,-1,1609,1492,0,0
392,-468,0,0,0,0,0,0,0,0,0,-1,1616,1492,0,0
399,-468,0,0,0,0,0,0,0,0,0,-1,1623,1492,0,0
406,-468,0,0,0,0,0,0,0,0,0,-1,1630,1492,0,0
413,-468,0,0,0,0,0,0,0,0,0,-1,1637,1492,0,0
420,-468,0,0,0,0,0,0,0,0,0,-1,1644,1492,0,0
427,-468,0,0,0,0,0,0,0,0,0,-1,1651,1492,0,0
434,-468,0,0,0,0,0,0,0,0,0,-1,1658,1492,0,0
441,-468,0,0,0,0,0,0,0,0,0,-1,1665,1492,0,0
448,-468,0,0,0,0,0,0,0,0,0,-1,1672,1492,0,0
455,-468,0,0,0,0,0,0,0,0,0,-1,1679,1492,0,0
462,-468,0,0,0,0,0,0,0,0,0,-1,1686,1492,0,0
469,-468,15.6879,1.2677,0,0,0,0,0,0,0,-1,1693,1492,15.6879,-1.26772
476,-468,14.9318,1.61865,0,0,0,0,0,0,0,-1,1700,1492,14.9318,-1.61869
483,-468,11.265,4.64795,0,0,0,0,0,0,0,-1,1707,1492,11.265,-4.64798
490,-468,12.1316,3.51624,0,0,0,0,0,0,0,-1,1714,1492,12.1316,-3.51628
497,-468,16.5355,3.14587,0,0,0,0,0,0,0,-1,1721,1492,16.5356,-3.14583
504,-468,15.0642,4.10437,0,0,0,0,0,0,0,-1,1728,1492,15.0643,-4.10431
511,-468,15.6877,9.4801,0,0,0,0,0,0,0,-1,1735,1492,15.6878,-9.48007
518,-468,13.759,11.0887,0,0,0,0,0,0,0,-1,1742,1492,13.759,-11.0887
525,-468,16.6531,14.2238,0,0,0,0,0,0,0,-1,1749,1492,16.653,-14.2237
532,-468,16.9696,15.9641,0,0,0,0,0,0,0,-1,1756,1492,16.9696,-15.9641
539,-468,21.5308,20.7551,0,0,0,0,0,0,0,-1,1763,1492,21.5308,-20.7551
546,-468,23.2415,22.7125,0,0,0,0,0,0,0,-1,1770,1492,23.2415,-22.7125
553,-468,23.5806,21.9884,0,0,0,0,0,0,0,-1,1777,1492,23.5805,-21.9885
560,-468,23.647,21.4553,0.00911668,0.00606589,-0.00454959,0.0123898,0.00279279,-0.623647,0.0075042,0.0407409,1784,1492,23.6469,-21.4554
567,-468,23.6769,20.9364,0.00728764,0.00484719,-0.00369202,0.00995585,0.00217898,-0.625797,0.0060433,0.0224116,1791,1492,23.6769,-20.9364
574,-468,23.7076,20.3765,0.00590725,0.00397611,-0.0031283,0.0082156,0.00166775,-0.635708,0.00501447,0.0155664,1798,1492,23.7076,-20.3765
581,-468,23.7087,19.8688,0.00475803,0.00323914,-0.00263645,0.00674224,0.00125494,-0.645166,0.0041404,0.0154761,1805,1492,23.7087,-19.8688
588,-468,23.6688,19.3474,0.00384725,0.00252064,-0.00217445,0.00545731,0.000910579,-0.637359,0.00337587,0.0126616,1812,1492,23.6688,-19.3474
595,-468,23.6569,18.8141,0.00322986,0.00179589,-0.00172168,0.00437788,0.000647872,-0.588098,0.00272839,0.0109434,1819,1492,23.6568,-18.8141
602,-468,23.6399,18.26,0.00278703,0.00111365,-0.00132597,0.00351822,0.000382463,-0.503947,0.00222895,0.00938919,1826,1492,23.6399,-18.2601
609,-468,23.6093,17.714,0.00252656,0.000489244,-0.000927557,0.00288559,0.000130213,-0.369311,0.00188183,0.00992578,1833,1492,23.6092,-17.714
616,-468,23.5936,17.1736,0.00246072,-0.000107728,-0.00055124,0.00257402,-0.000221036,-0.202728,0.00179424,0.0100826,1840,1492,23.5936,-17.1735
623,-468,23.5878,16.6453,0.00267417,-0.000799136,-0.000164202,0.00268191,-0.000806882,-0.0471352,0.002109,0.0105779,1847,1492,23.5878,-16.6453
630,-468,23.5739,16.1107,0.00309537,-0.001448,0.000209833,0.00310504,-0.00145767,0.0460537,0.0026909,0.0114639,1854,1492,23.5739,-16.1107
637,-468,23.5632,15.583,0.00392976,-0.0018156,0.000326243,0.00394823,-0.00183406,0.0565415,0.00341198,0.0148532,1861,1492,23.5633,-15.583
644,-468,23.6333,15.2255,0.0049844,-0.00242311,0.000475282,0.00501477,-0.00245348,0.0638134,0.00439551,0.038278,1868,1492,23.6333,-15.2254
651,-468,23.8347,14.8434,0,0,0,0,0,0,0,-1,1875,1492,23.8347,-14.8434
658,-468,16.4969,10.0774,0,0,0,0,0,0,0,-1,1882,1492,16.497,-10.0774
665,-468,15.4673,8.59546,0,0,0,0,0,0,0,-1,1889,1492,15.4672,-8.59548
672,-468,9.96814,3.61133,0,0,0,0,0,0,0,-1,1896,1492,9.96817,-3.61139
679,-468,11.2191,1.91968,0,0,0,0,0,0,0,-1,1903,1492,11.2191,-1.91965
686,-468,11.9252,1.42285,0,0,0,0,0,0,0,-1,1910,1492,11.9252,-1.42291
693,-468,0,0,0,0,0,0,0,0,0,-1,1917,1492,0,0
700,-468,0,0,0,0,0,0,0,0,0,-1,1924,1492,0,0
707,-468,0,0,0,0,0,0,0,0,0,-1,1931,1492,0,0
714,-468,0,0,0,0,0,0,0,0,0,-1,1938,1492,0,0
721,-468,0,0,0,0,0,0,0,0,0,-1,1945,1492,0,0
728,-468,0,0,0,0,0,0,0,0,0,-1,1952,1492,0,0
735,-468,0,0,0,0,0,0,0,0,0,-1,1959,1492,0,0
742,-468,0,0,0,0,0,0,0,0,0,-1,1966,1492,0,0
749,-468,0,0,0,0,0,0,0,0,0,-1,1973,1492,0,0
756,-468,0,0,0,0,0,0,0,0,0,-1,1980,1492,0,0
763,-468,0,0,0,0,0,0,0,0,0,-1,1987,1492,0,0
770,-468,0,0,0,0,0,0,0,0,0,-1,1994,1492,0,0
777,-468,0,0,0,0,0,0,0,0,0,-1,2001,1492,0,0
784,-468,0,0,0,0,0,0,0,0,0,-1,2008,1492,0,0
791,-468,0,0,0,0,0,0,0,0,0,-1,2015,1492,0,0
798,-468,0,0,0,0,0,0,0,0,0,-1,2022,1492,0,0
805,-468,0,0,0,0,0,0,0,0,0,-1,2029,1492,0,0
812,-468,0,0,0,0,0,0,0,0,0,-1,2036,1492,0,0
-700,-475,0,0,0,0,0,0,0,0,0,-1,524,1499,0,0
-693,-475,0,0,0,0,0,0,0,0,0,-1,531,1499,0,0
-686,-475,0,0,0,0,0,0,0,0,0,-1,538,1499,0,0
-679,-475,0,0,0,0,0,0,0,0,0,-1,545,1499,0,0
-672,-475,0,0,0,0,0,0,0,0,0,-1,552,1499,0,0
-665,-475,0,0,0,0,0,0,0,0,0,-1,559,1499,0,0
-658,-475,0,0,0,0,0,0,0,0,0,-1,566,1499,0,0
-651,-475,0,0,0,0,0,0,0,0,0,-1,573,1499,0,0
-644,-475,0,0,0,0,0,0,0,0,0,-1,580,1499,0,0
-637,-475,0,0,0,0,0,0,0,0,0,-1,587,1499,0,0
-630,-475,0,0,0,0,0,0,0,0,0,-1,594,1499,0,0
-623,-475,0,0,0,0,0,0,0,0,0,-1,601,1499,0,0
-616,-475,0,0,0,0,0,0,0,0,0,-1,608,1499,0,0
-609,-475,0,0,0,0,0,0,0,0,0,-1,615,1499,0,0
-602,-475,0,0,0,0,0,0,0,0,0,-1,622,1499,0,0
-595,-475,0,0,0,0,0,0,0,0,0,-1,629,1499,0,0
-588,-475,0,0,0,0,0,0,0,0,0,-1,636,1499,0,0
-581,-475,0,0,0,0,0,0,0,0,0,-1,643,1499,0,0
-574,-475,0,0,0,0,0,0,0,0,0,-1,650,1499,0,0
-567,-475,0,0,0,0,0,0,0,0,0,-1,657,1499,0,0
-560,-475,-9.42731,9.29517,0,0,0,0,0,0,0,-1,664,1499,-9.42731,-9.29519
-553,-475,-8.15131,8.78369,0,0,0,0,0,0,0,-1,671,1499,-8.15131,-8.78367
-546,-475,-8.41254,8.20654,0,0,0,0,0,0,0,-1,678,1499,-8.41251,-8.20655
-539,-475,-4.7345,4.17419,0,0,0,0,0,0,0,-1,685,1499,-4.73449,-4.17418
-532,-475,-7.07379,4.25024,0,0,0,0,0,0,0,-1,692,1499,-7.07378,-4.2503
-525,-475,-6.13147,5.82166,0,0,0,0,0,0,0,-1,699,1499,-6.1315,-5.8216
-518,-475,-7.28784,9.31506,0,0,0,0,0,0,0,-1,706,1499,-7.28782,-9.315
-511,-475,-6.84851,12.4244,0,0,0,0,0,0,0,-1,713,1499,-6.84851,-12.4244
-504,-475,-7.11505,13.7843,0,0,0,0,0,0,0,-1,720,1499,-7.11508,-13.7843
-497,-475,-7.23218,14.6045,-0.00373699,-0.00110292,-0.00140978,-0.000490688,-0.00434922,-1.1611,0.00275055,0.0388272,727,1499,-7.23218,-14.6045
-490,-475,-7.24847,15.1041,-0.00341725,-0.00118858,-0.00142601,-0.000493151,-0.00411268,-1.11706,0.00259308,0.0132107,734,1499,-7.2485,-15.1041
-483,-475,-7.2583,15.7255,-0.00276935,-0.00104148,-0.0012103,-0.000418399,-0.00339242,-1.09537,0.00213585,0.00863927,741,1499,-7.25832,-15.7255
-476,-475,-7.28754,16.274,-0.00192551,-0.000673412,-0.000812604,-0.000273663,-0.00232526,-1.11362,0.00146748,0.00993605,748,1499,-7.28752,-16.274
-469,-475,-7.30804,16.8362,-0.000907199,-5.0415e-05,-0.000172839,-1.68623e-05,-0.000940752,-1.37905,0.000621624,0.012153,755,1499,-7.30805,-16.8361
-462,-475,-7.28516,17.4132,0.000230367,0.000704906,0.000605592,0.00111805,-0.000182777,0.972106,0.000813169,0.0174552,762,1499,-7.28514,-17.4132
-455,-475,-7.30902,17.965,0.00142675,0.00161588,0.00151156,0.00303583,6.79528e-06,0.816639,0.00202163,0.0166059,769,1499,-7.30903,-17.965
-448,-475,-7.36676,18.5421,0.00284009,0.00289278,0.00273411,0.00560067,0.000132205,0.790216,0.0036905,0.0140761,776,1499,-7.36675,-18.5422
-441,-475,-7.40039,19.1362,0.00446195,0.00442065,0.00424921,0.00869056,0.000192041,0.782968,0.00573076,0.0160223,783,1499,-7.40036,-19.1362
-434,-475,-7.38373,19.6976,0.00618566,0.00641735,0.00605527,0.0123579,0.00024513,0.794963,0.0081581,0.0110989,790,1499,-7.38374,-19.6976
-427,-475,-7.31989,20.3643,0.00791516,0.00871988,0.00821054,0.0165379,9.71295e-05,0.809881,0.010993,0.0301139,797,1499,-7.31988,-20.3642
-420,-475,-7.24567,21.0344,0,0,0,0,0,0,0,-1,804,1499,-7.24567,-21.0344
-413,-475,-6.46777,20.8481,0,0,0,0,0,0,0,-1,811,1499,-6.46776,-20.8481
-406,-475,-2.56116,12.4956,0,0,0,0,0,0,0,-1,818,1499,-2.56116,-12.4956
-399,-475,-1.39667,6.1615,0,0,0,0,0,0,0,-1,825,1499,-1.39664,-6.16155
-392,-475,0.217163,8.61389,0,0,0,0,0,0,0,-1,832,1499,0.217167,-8.6139
-385,-475,1.18372,2.73999,0,0,0,0,0,0,0,-1,839,1499,1.18372,-2.73995
-378,-475,1.31409,2.90149,0,0,0,0,0,0,0,-1,846,1499,1.31411,-2.90151
-371,-475,2.3476,3.31116,0,0,0,0,0,0,0,-1,853,1499,2.34761,-3.31121
-364,-475,1.04462,9.05823,0,0,0,0,0,0,0,-1,860,1499,1.04461,-9.05825
-357,-475,-0.262756,7.97205,0,0,0,0,0,0,0,-1,867,1499,-0.262784,-7.97205
-350,-475,-2.77173,4.35486,0,0,0,0,0,0,0,-1,874,1499,-2.77175,-4.35491
-343,-475,-6.81641,-1.95203,0,0,0,0,0,0,0,-1,881,1499,-6.81643,1.95198
-336,-475,0,0,0,0,0,0,0,0,0,-1,888,1499,0,0
-329,-475,0,0,0,0,0,0,0,0,0,-1,895,1499,0,0
-322,-475,0,0,0,0,0,0,0,0,0,-1,902,1499,0,0
-315,-475,0,0,0,0,0,0,0,0,0,-1,909,1499,0,0
-308,-475,0,0,0,0,0,0,0,0,0,-1,916,1499,0,0
-301,-475,0,0,0,0,0,0,0,0,0,-1,923,1499,0,0
-294,-475,0,0,0,0,0,0,0,0,0,-1,930,1499,0,0
-287,-475,0,0,0,0,0,0,0,0,0,-1,937,1499,0,0
-280,-475,0,0,0,0,0,0,0,0,0,-1,944,1499,0,0
-273,-475,0,0,0,0,0,0,0,0,0,-1,951,1499,0,0
-266,-475,0,0,0,0,0,0,0,0,0,-1,958,1499,0,0
-259,-475,0,0,0,0,0,0,0,0,0,-1,965,1499,0,0
-252,-475,0,0,0,0,0,0,0,0,0,-1,972,1499,0,0
-245,-475,0,0,0,0,0,0,0,0,0,-1,979,1499,0,0
-238,-475,0,0,0,0,0,0,0,0,0,-1,986,1499,0,0
-231,-475,0,0,0,0,0,0,0,0,0,-1,993,1499,0,0
-224,-475,0,0,0,0,0,0,0,0,0,-1,1000,1499,0,0
-217,-475,0,0,0,0,0,0,0,0,0,-1,1007,1499,0,0
-210,-475,0,0,0,0,0,0,0,0,0,-1,1014,1499,0,0
-203,-475,0,0,0,0,0,0,0,0,0,-1,1021,1499,0,0
-196,-475,0,0,0,0,0,0,0,0,0,-1,1028,1499,0,0
-189,-475,0,0,0,0,0,0,0,0,0,-1,1035,1499,0,0
-182,-475,0,0,0,0,0,0,0,0,0,-1,1042,1499,0,0
-175,-475,0,0,0,0,0,0,0,0,0,-1,1049,1499,0,0
-168,-475,0,0,0,0,0,0,0,0,0,-1,1056,1499,0,0
-161,-475,0,0,0,0,0,0,0,0,0,-1,1063,1499,0,0
-154,-475,0,0,0,0,0,0,0,0,0,-1,1070,1499,0,0
-147,-475,0,0,0,0,0,0,0,0,0,-1,1077,1499,0,0
-140,-475,0,0,0,0,0,0,0,0,0,-1,1084,1499,0,0
-133,-475,0,0,0,0,0,0,0,0,0,-1,1091,1499,0,0
-126,-475,0,0,0,0,0,0,0,0,0,-1,1098,1499,0,0
-119,-475,0,0,0,0,0,0,0,0,0,-1,1105,1499,0,0
-112,-475,0,0,0,0,0,0,0,0,0,-1,1112,1499,0,0
-105,-475,0,0,0,0,0,0,0,0,0,-1,1119,1499,0,0
-98,-475,0,0,0,0,0,0,0,0,0,-1,1126,1499,0,0
-91,-475,0,0,0,0,0,0,0,0,0,-1,1133,1499,0,0
-84,-475,0,0,0,0,0,0,0,0,0,-1,1140,1499,0,0
-77,-475,0,0,0,0,0,0,0,0,0,-1,1147,1499,0,0
-70,-475,0,0,0,0,0,0,0,0,0,-1,1154,1499,0,0
-63,-475,0,0,0,0,0,0,0,0,0,-1,1161,1499,0,0
-56,-475,0,0,0,0,0,0,0,0,0,-1,1168,1499,0,0
-49,-475,0,0,0,0,0,0,0,0,0,-1,1175,1499,0,0
-42,-475,0,0,0,0,0,0,0,0,0,-1,1182,1499,0,0
-35,-475,0,0,0,0,0,0,0,0,0,-1,1189,1499,0,0
-28,-475,0,0,0,0,0,0,0,0,0,-1,1196,1499,0,0
-21,-475,0,0,0,0,0,0,0,0,0,-1,1203,1499,0,0
-14,-475,0,0,0,0,0,0,0,0,0,-1,1210,1499,0,0
-7,-475,0,0,0,0,0,0,0,0,0,-1,1217,1499,0,0
0,-475,0,0,0,0,0,0,0,0,0,-1,1224,1499,0,0
7,-475,0,0,0,0,0,0,0,0,0,-1,1231,1499,0,0
14,-475,0,0,0,0,0,0,0,0,0,-1,1238,1499,0,0
21,-475,0,0,0,0,0,0,0,0,0,-1,1245,1499,0,0
28,-475,0,0,0,0,0,0,0,0,0,-1,1252,1499,0,0
35,-475,0,0,0,0,0,0,0,0,0,-1,1259,1499,0,0
42,-475,0,0,0,0,0,0,0,0,0,-1,1266,1499,0,0
49,-475,0,0,0,0,0,0,0,0,0,-1,1273,1499,0,0
56,-475,0,0,0,0,0,0,0,0,0,-1,1280,1499,0,0
63,-475,0,0,0,0,0,0,0,0,0,-1,1287,1499,0,0
70,-475,0,0,0,0,0,0,0,0,0,-1,1294,1499,0,0
77,-475,0,0,0,0,0,0,0,0,0,-1,1301,1499,0,0
84,-475,0,0,0,0,0,0,0,0,0,-1,1308,1499,0,0
91,-475,0,0,0,0,0,0,0,0,0,-1,1315,1499,0,0
98,-475,0,0,0,0,0,0,0,0,0,-1,1322,1499,0,0
105,-475,0,0,0,0,0,0,0,0,0,-1,1329,1499,0,0
112,-475,0,0,0,0,0,0,0,0,0,-1,1336,1499,0,0
119,-475,0,0,0,0,0,0,0,0,0,-1,1343,1499,0,0
126,-475,0,0,0,0,0,0,0,0,0,-1,1350,1499,0,0
133,-475,0,0,0,0,0,0,0,0,0,-1,1357,1499,0,0
140,-475,0,0,0,0,0,0,0,0,0,-1,1364,1499,0,0
147,-475,0,0,0,0,0,0,0,0,0,-1,1371,1499,0,0
154,-475,0,0,0,0,0,0,0,0,0,-1,1378,1499,0,0
161,-475,0,0,0,0,0,0,0,0,0,-1,1385,1499,0,0
168,-475,0,0,0,0,0,0,0,0,0,-1,1392,1499,0,0
175,-475,0,0,0,0,0,0,0,0,0,-1,1399,1499,0,0
182,-475,0,0,0,0,0,0,0,0,0,-1,1406,1499,0,0
189,-475,0,0,0,0,0,0,0,0,0,-1,1413,1499,0,0
196,-475,0,0,0,0,0,0,0,0,0,-1,1420,1499,0,0
203,-475,0,0,0,0,0,0,0,0,0,-1,1427,1499,0,0
210,-475,0,0,0,0,0,0,0,0,0,-1,1434,1499,0,0
217,-475,0,0,0,0,0,0,0,0,0,-1,1441,1499,0,0
224,-475,0,0,0,0,0,0,0,0,0,-1,1448,1499,0,0
231,-475,0,0,0,0,0,0,0,0,0,-1,1455,1499,0,0
238,-475,0,0,0,0,0,0,0,0,0,-1,1462,1499,0,0
245,-475,0,0,0,0,0,0,0,0,0,-1,1469,1499,0,0
252,-475,0,0,0,0,0,0,0,0,0,-1,1476,1499,0,0
259,-475,0,0,0,0,0,0,0,0,0,-1,1483,1499,0,0
266,-475,0,0,0,0,0,0,0,0,0,-1,1490,1499,0,0
273,-475,0,0,0,0,0,0,0,0,0,-1,1497,1499,0,0
280,-475,0,0,0,0,0,0,0,0,0,-1,1504,1499,0,0
287,-475,0,0,0,0,0,0,0,0,0,-1,1511,1499,0,0
294,-475,0,0,0,0,0,0,0,0,0,-1,1518,1499,0,0
301,-475,0,0,0,0,0,0,0,0,0,-1,1525,1499,0,0
308,-475,0,0,0,0,0,0,0,0,0,-1,1532,1499,0,0
315,-475,0,0,0,0,0,0,0,0,0,-1,1539,1499,0,0
322,-475,0,0,0,0,0,0,0,0,0,-1,1546,1499,0,0
329,-475,0,0,0,0,0,0,0,0,0,-1,1553,1499,0,0
336,-475,0,0,0,0,0,0,0,0,0,-1,1560,1499,0,0
343,-475,0,0,0,0,0,0,0,0,0,-1,1567,1499,0,0
350,-475,0,0,0,0,0,0,0,0,0,-1,1574,1499,0,0
357,-475,0,0,0,0,0,0,0,0,0,-1,1581,1499,0,0
364,-475,0,0,0,0,0,0,0,0,0,-1,1588,1499,0,0
371,-475,0,0,0,0,0,0,0,0,0,-1,1595,1499,0,0
378,-475,0,0,0,0,0,0,0,0,0,-1,1602,1499,0,0
385,-475,0,0,0,0,0,0,0,0,0,-1,1609,1499,0,0
392,-475,0,0,0,0,0,0,0,0,0,-1,1616,1499,0,0
399,-475,0,0,0,0,0,0,0,0,0,-1,1623,1499,0,0
406,-475,0,0,0,0,0,0,0,0,0,-1,1630,1499,0,0
413,-475,0,0,0,0,0,0,0,0,0,-1,1637,1499,0,0
420,-475,0,0,0,0,0,0,0,0,0,-1,1644,1499,0,0
427,-475,0,0,0,0,0,0,0,0,0,-1,1651,1499,0,0
434,-475,0,0,0,0,0,0,0,0,0,-1,1658,1499,0,0
441,-475,0,0,0,0,0,0,0,0,0,-1,1665,1499,0,0
448,-475,0,0,0,0,0,0,0,0,0,-1,1672,1499,0,0
455,-475,0,0,0,0,0,0,0,0,0,-1,1679,1499,0,0
462,-475,12.6372,0.275391,0,0,0,0,0,0,0,-1,1686,1499,12.6372,-0.27536
469,-475,15.6437,2.28296,0,0,0,0,0,0,0,-1,1693,1499,15.6437,-2.28293
476,-475,15.3302,2.71436,0,0,0,0,0,0,0,-1,1700,1499,15.3303,-2.7143
483,-475,10.7461,5.91479,0,0,0,0,0,0,0,-1,1707,1499,10.7461,-5.91476
490,-475,11.9305,4.4364,0,0,0,0,0,0,0,-1,1714,1499,11.9305,-4.43644
497,-475,15.3451,4.3479,0,0,0,0,0,0,0,-1,1721,1499,15.3451,-4.34789
504,-475,16.9646,7.71265,0,0,0,0,0,0,0,-1,1728,1499,16.9646,-7.71265
511,-475,18.941,12.7572,0,0,0,0,0,0,0,-1,1735,1499,18.941,-12.7572
518,-475,17.0021,13.8564,0,0,0,0,0,0,0,-1,1742,1499,17.0021,-13.8564
525,-475,17.5637,15.2103,0,0,0,0,0,0,0,-1,1749,1499,17.5637,-15.2103
532,-475,20.8623,20.8413,0,0,0,0,0,0,0,-1,1756,1499,20.8623,-20.8413
539,-475,20.5494,20.8519,0,0,0,0,0,0,0,-1,1763,1499,20.5494,-20.852
546,-475,20.4524,19.8799,0,0,0,0,0,0,0,-1,1770,1499,20.4524,-19.8798
553,-475,22.9033,22.1952,0,0,0,0,0,0,0,-1,1777,1499,22.9033,-22.1952
560,-475,23.0253,21.5781,0.00764005,0.00487489,-0.00377448,0.0102772,0.00223774,-0.609839,0.00624074,0.0287854,1784,1499,23.0253,-21.5781
567,-475,23.2041,20.9056,0.00616592,0.00385525,-0.00304169,0.0082643,0.00175686,-0.603898,0.0050273,0.0153769,1791,1499,23.2041,-20.9057
574,-475,23.1595,20.3789,0.00504212,0.00314373,-0.00257843,0.00684052,0.00134533,-0.609031,0.00418462,0.0144053,1798,1499,23.1596,-20.3789
581,-475,23.1458,19.899,0.00408603,0.00253233,-0.00217303,0.0056169,0.00100146,-0.61373,0.00345944,0.0117327,1805,1499,23.1457,-19.899
588,-475,23.1315,19.3547,0.00336379,0.00196562,-0.00182023,0.00461456,0.000714842,-0.602052,0.00286795,0.010316,1812,1499,23.1314,-19.3547
595,-475,23.1323,18.7985,0.00293079,0.0013481,-0.00146816,0.0038073,0.000471598,-0.538217,0.00239652,0.0106056,1819,1499,23.1323,-18.7985
602,-475,23.1077,18.2562,0.00262873,0.000793103,-0.00117544,0.00320224,0.000219599,-0.453927,0.00206552,0.0114465,1826,1499,23.1076,-18.2562
609,-475,23.0718,17.7391,0.00248917,0.000268151,-0.000858531,0.00278234,-2.50157e-05,-0.32906,0.00186328,0.0111491,1833,1499,23.0717,-17.7391
616,-475,23.0488,17.2129,0.00256833,-0.000306307,-0.000521362,0.00265996,-0.000397944,-0.173986,0.00191975,0.011222,1840,1499,23.0488,-17.2129
623,-475,23.0471,16.6455,0.00289576,-0.00102405,-0.000118179,0.00289932,-0.00102761,-0.0301127,0.00235149,0.0110544,1847,1499,23.0471,-16.6455
630,-475,23.0343,16.1099,0.00339219,-0.00169831,0.000318283,0.00341202,-0.00171813,0.062202,0.00301523,0.0133518,1854,1499,23.0343,-16.1098
637,-475,23.0322,15.5817,0.00434658,-0.00212943,0.000516777,0.00438756,-0.00217041,0.0791313,0.0038577,0.0254634,1861,1499,23.0322,-15.5817
644,-475,23.0488,15.3922,0,0,0,0,0,0,0,-1,1868,1499,23.0488,-15.3923
651,-475,11.7965,7.57593,0,0,0,0,0,0,0,-1,1875,1499,11.7965,-7.5759
658,-475,14.6708,8.80322,0,0,0,0,0,0,0,-1,1882,1499,14.6708,-8.8032
665,-475,9.33435,5.43335,0,0,0,0,0,0,0,-1,1889,1499,9.33439,-5.43332
672,-475,9.38635,1.10474,0,0,0,0,0,0,0,-1,1896,1499,9.38629,-1.10475
679,-475,12.2594,1.31079,0,0,0,0,0,0,0,-1,1903,1499,12.2594,-1.31077
686,-475,0,0,0,0,0,0,0,0,0,-1,1910,1499,0,0
693,-475,0,0,0,0,0,0,0,0,0,-1,1917,1499,0,0
700,-475,0,0,0,0,0,0,0,0,0,-1,1924,1499,0,0
707,-475,0,0,0,0,0,0,0,0,0,-1,1931,1499,0,0
714,-475,0,0,0,0,0,0,0,0,0,-1,1938,1499,0,0
721,-475,0,0,0,0,0,0,0,0,0,-1,1945,1499,0,0
728,-475,0,0,0,0,0,0,0,0,0,-1,1952,1499,0,0
735,-475,0,0,0,0,0,0,0,0,0,-1,1959,1499,0,0
742,-475,0,0,0,0,0,0,0,0,0,-1,1966,1499,0,0
749,-475,0,0,0,0,0,0,0,0,0,-1,1973,1499,0,0
756,-475,0,0,0,0,0,0,0,0,0,-1,1980,1499,0,0
763,-475,0,0,0,0,0,0,0,0,0,-1,1987,1499,0,0
770,-475,0,0,0,0,0,0,0,0,0,-1,1994,1499,0,0
777,-475,0,0,0,0,0,0,0,0,0,-1,2001,1499,0,0
784,-475,0,0,0,0,0,0,0,0,0,-1,2008,1499,0,0
791,-475,0,0,0,0,0,0,0,0,0,-1,2015,1499,0,0
798,-475,0,0,0,0,0,0,0,0,0,-1,2022,1499,0,0
805,-475,0,0,0,0,0,0,0,0,0,-1,2029,1499,0,0
812,-475,0,0,0,0,0,0,0,0,0,-1,2036,1499,0,0
-700,-482,0,0,0,0,0,0,0,0,0,-1,524,1506,0,0
-693,-482,0,0,0,0,0,0,0,0,0,-1,531,1506,0,0
-686,-482,0,0,0,0,0,0,0,0,0,-1,538,1506,0,0
-679,-482,0,0,0,0,0,0,0,0,0,-1,545,1506,0,0
-672,-482,0,0,0,0,0,0,0,0,0,-1,552,1506,0,0
-665,-482,0,0,0,0,0,0,0,0,0,-1,559,1506,0,0
-658,-482,0,0,0,0,0,0,0,0,0,-1,566,1506,0,0
-651,-482,0,0,0,0,0,0,0,0,0,-1,573,1506,0,0
-644,-482,0,0,0,0,0,0,0,0,0,-1,580,1506,0,0
-637,-482,0,0,0,0,0,0,0,0,0,-1,587,1506,0,0
-630,-482,0,0,0,0,0,0,0,0,0,-1,594,1506,0,0
-623,-482,0,0,0,0,0,0,0,0,0,-1,601,1506,0,0
-616,-482,0,0,0,0,0,0,0,0,0,-1,608,1506,0,0
-609,-482,0,0,0,0,0,0,0,0,0,-1,615,1506,0,0
-602,-482,0,0,0,0,0,0,0,0,0,-1,622,1506,0,0
-595,-482,0,0,0,0,0,0,0,0,0,-1,629,1506,0,0
-588,-482,0,0,0,0,0,0,0,0,0,-1,636,1506,0,0
-581,-482,0,0,0,0,0,0,0,0,0,-1,643,1506,0,0
-574,-482,0,0,0,0,0,0,0,0,0,-1,650,1506,0,0
-567,-482,0,0,0,0,0,0,0,0,0,-1,657,1506,0,0
-560,-482,0,0,0,0,0,0,0,0,0,-1,664,1506,0,0
-553,-482,-9.06055,9.34314,0,0,0,0,0,0,0,-1,671,1506,-9.06056,-9.34312
-546,-482,-4.08624,8.34241,0,0,0,0,0,0,0,-1,678,1506,-4.08624,-8.3424
-539,-482,-4.29877,2.73499,0,0,0,0,0,0,0,-1,685,1506,-4.29879,-2.73494
-532,-482,-3.63611,4.23987,0,0,0,0,0,0,0,-1,692,1506,-3.63609,-4.23983
-525,-482,-6.19116,5.24927,0,0,0,0,0,0,0,-1,699,1506,-6.19117,-5.24927
-518,-482,-5.92957,6.39807,0,0,0,0,0,0,0,-1,706,1506,-5.92958,-6.39806
-511,-482,-7.74634,11.9137,0,0,0,0,0,0,0,-1,713,1506,-7.74633,-11.9137
-504,-482,-6.42358,13.4211,0,0,0,0,0,0,0,-1,720,1506,-6.42356,-13.4212
-497,-482,-6.72217,14.3232,0,0,0,0,0,0,0,-1,727,1506,-6.72219,-14.3233
-490,-482,-6.71954,15.0587,-0.00577778,-0.00160979,-0.00284203,-0.000169553,-0.00721801,-1.10175,0.0047565,0.0363131,734,1506,-6.71953,-15.0587
-483,-482,-6.69153,15.7281,-0.00473444,-0.00152316,-0.00242967,-0.000216522,-0.00604108,-1.07738,0.00395719,0.00981066,741,1506,-6.69152,-15.7282
-476,-482,-6.69287,16.3019,-0.00356542,-0.00121303,-0.00188435,-0.000167914,-0.00461054,-1.06441,0.00301928,0.0095236,748,1506,-6.69286,-16.3019
-469,-482,-6.72711,16.8672,-0.00227688,-0.000684103,-0.00113243,-9.60649e-05,-0.00286491,-1.09185,0.00187874,0.0109575,755,1506,-6.72713,-16.8672
-462,-482,-6.7475,17.4426,-0.000917765,1.96566e-07,-0.000239302,5.88341e-05,-0.000976402,-1.3305,0.000671406,0.0122018,762,1506,-6.74751,-17.4426
-455,-482,-6.76343,18.0092,0.000433396,0.000812808,0.000734409,0.00138162,-0.000135414,0.911791,0.000969374,0.0133837,769,1506,-6.76346,-18.0092
-448,-482,-6.77985,18.5848,0.00192818,0.00195561,0.00197072,0.00391266,-2.88771e-05,0.788878,0.00261812,0.0145668,776,1506,-6.77983,-18.5848
-441,-482,-6.78589,19.147,0.00356266,0.00335005,0.0034426,0.0069006,1.21114e-05,0.769963,0.00459637,0.0138314,783,1506,-6.78587,-19.147
-434,-482,-6.79657,19.7189,0.00524399,0.00512771,0.00514904,0.0103352,3.64752e-05,0.779753,0.00687802,0.0158008,790,1506,-6.79656,-19.7189
-427,-482,-6.81708,20.3226,0.00689793,0.00712391,0.00705196,0.0140638,-4.19444e-05,0.793408,0.00938987,0.0192703,797,1506,-6.81705,-20.3226
-420,-482,-6.72247,21.132,0.00873786,0.00975079,0.00934747,0.0186055,-0.000116859,0.812463,0.0124428,0.0496072,804,1506,-6.72246,-21.132
-413,-482,-6.42334,21.8748,0,0,0,0,0,0,0,-1,811,1506,-6.42335,-21.8748
-406,-482,-2.51373,12.7556,0,0,0,0,0,0,0,-1,818,1506,-2.51376,-12.7556
-399,-482,-1.3822,9.22595,0,0,0,0,0,0,0,-1,825,1506,-1.38221,-9.22598
-392,-482,-1.06836,9.22729,0,0,0,0,0,0,0,-1,832,1506,-1.06835,-9.2273
-385,-482,0.0647583,8.90649,0,0,0,0,0,0,0,-1,839,1506,0.0647778,-8.90644
-378,-482,0.215698,5.96948,0,0,0,0,0,0,0,-1,846,1506,0.215681,-5.9695
-371,-482,-0.10907,8.10437,0,0,0,0,0,0,0,-1,853,1506,-0.109063,-8.10433
-364,-482,-0.154968,10.5032,0,0,0,0,0,0,0,-1,860,1506,-0.154976,-10.5032
-357,-482,2.14807,4.60144,0,0,0,0,0,0,0,-1,867,1506,2.14807,-4.60144
-350,-482,-7.5813,-1.45935,0,0,0,0,0,0,0,-1,874,1506,-7.58133,1.45937
-343,-482,-7.19983,-1.26416,0,0,0,0,0,0,0,-1,881,1506,-7.19981,1.26414
-336,-482,-5.28741,-0.362915,0,0,0,0,0,0,0,-1,888,1506,-5.28743,0.362905
-329,-482,0,0,0,0,0,0,0,0,0,-1,895,1506,0,0
-322,-482,0,0,0,0,0,0,0,0,0,-1,902,1506,0,0
-315,-482,0,0,0,0,0,0,0,0,0,-1,909,1506,0,0
-308,-482,0,0,0,0,0,0,0,0,0,-1,916,1506,0,0
-301,-482,0,0,0,0,0,0,0,0,0,-1,923,1506,0,0
-294,-482,0,0,0,0,0,0,0,0,0,-1,930,1506,0,0
-287,-482,0,0,0,0,0,0,0,0,0,-1,937,1506,0,0
-280,-482,0,0,0,0,0,0,0,0,0,-1,944,1506,0,0
-273,-482,0,0,0,0,0,0,0,0,0,-1,951,1506,0,0
-266,-482,0,0,0,0,0,0,0,0,0,-1,958,1506,0,0
-259,-482,0,0,0,0,0,0,0,0,0,-1,965,1506,0,0
-252,-482,0,0,0,0,0,0,0,0,0,-1,972,1506,0,0
-245,-482,0,0,0,0,0,0,0,0,0,-1,979,1506,0,0
-238,-482,0,0,0,0,0,0,0,0,0,-1,986,1506,0,0
-231,-482,0,0,0,0,0,0,0,0,0,-1,993,1506,0,0
-224,-482,0,0,0,0,0,0,0,0,0,-1,1000,1506,0,0
-217,-482,0,0,0,0,0,0,0,0,0,-1,1007,1506,0,0
-210,-482,0,0,0,0,0,0,0,0,0,-1,1014,1506,0,0
-203,-482,0,0,0,0,0,0,0,0,0,-1,1021,1506,0,0
-196,-482,0,0,0,0,0,0,0,0,0,-1,1028,1506,0,0
-189,-482,0,0,0,0,0,0,0,0,0,-1,1035,1506,0,0
-182,-482,0,0,0,0,0,0,0,0,0,-1,1042,1506,0,0
-175,-482,0,0,0,0,0,0,0,0,0,-1,1049,1506,0,0
-168,-482,0,0,0,0,0,0,0,0,0,-1,1056,1506,0,0
-161,-482,0,0,0,0,0,0,0,0,0,-1,1063,1506,0,0
-154,-482,0,0,0,0,0,0,0,0,0,-1,1070,1506,0,0
-147,-482,0,0,0,0,0,0,0,0,0,-1,1077,1506,0,0
-140,-482,0,0,0,0,0,0,0,0,0,-1,1084,1506,0,0
-133,-482,0,0,0,0,0,0,0,0,0,-1,1091,1506,0,0
-126,-482,0,0,0,0,0,0,0,0,0,-1,1098,1506,0,0
-119,-482,0,0,0,0,0,0,0,0,0,-1,1105,1506,0,0
-112,-482,0,0,0,0,0,0,0,0,0,-1,1112,1506,0,0
-105,-482,0,0,0,0,0,0,0,0,0,-1,1119,1506,0,0
-98,-482,0,0,0,0,0,0,0,0,0,-1,1126,1506,0,0
-91,-482,0,0,0,0,0,0,0,0,0,-1,1133,1506,0,0
-84,-482,0,0,0,0,0,0,0,0,0,-1,1140,1506,0,0
-77,-482,0,0,0,0,0,0,0,0,0,-1,1147,1506,0,0
-70,-482,0,0,0,0,0,0,0,0,0,-1,1154,1506,0,0
-63,-482,0,0,0,0,0,0,0,0,0,-1,1161,1506,0,0
-56,-482,0,0,0,0,0,0,0,0,0,-1,1168,1506,0,0
-49,-482,0,0,0,0,0,0,0,0,0,-1,1175,1506,0,0
-42,-482,0,0,0,0,0,0,0,0,0,-1,1182,1506,0,0
-35,-482,0,0,0,0,0,0,0,0,0,-1,1189,1506,0,0
-28,-482,0,0,0,0,0,0,0,0,0,-1,1196,1506,0,0
-21,-482,0,0,0,0,0,0,0,0,0,-1,1203,1506,0,0
-14,-482,0,0,0,0,0,0,0,0,0,-1,1210,1506,0,0
-7,-482,0,0,0,0,0,0,0,0,0,-1,1217,1506,0,0
0,-482,0,0,0,0,0,0,0,0,0,-1,1224,1506,0,0
7,-482,0,0,0,0,0,0,0,0,0,-1,1231,1506,0,0
14,-482,0,0,0,0,0,0,0,0,0,-1,1238,1506,0,0
21,-482,0,0,0,0,0,0,0,0,0,-1,1245,1506,0,0
28,-482,0,0,0,0,0,0,0,0,0,-1,1252,1506,0,0
35,-482,0,0,0,0,0,0,0,0,0,-1,1259,1506,0,0
42,-482,0,0,0,0,0,0,0,0,0,-1,1266,1506,0,0
49,-482,0,0,0,0,0,0,0,0,0,-1,1273,1506,0,0
56,-482,0,0,0,0,0,0,0,0,0,-1,1280,1506,0,0
63,-482,0,0,0,0,0,0,0,0,0,-1,1287,1506,0,0
70,-482,0,0,0,0,0,0,0,0,0,-1,1294,1506,0,0
77,-482,0,0,0,0,0,0,0,0,0,-1,1301,1506,0,0
84,-482,0,0,0,0,0,0,0,0,0,-1,1308,1506,0,0
91,-482,0,0,0,0,0,0,0,0,0,-1,1315,1506,0,0
98,-482,0,0,0,0,0,0,0,0,0,-1,1322,1506,0,0
105,-482,0,0,0,0,0,0,0,0,0,-1,1329,1506,0,0
112,-482,0,0,0,0,0,0,0,0,0,-1,1336,1506,0,0
119,-482,0,0,0,0,0,0,0,0,0,-1,1343,1506,0,0
126,-482,0,0,0,0,0,0,0,0,0,-1,1350,1506,0,0
133,-482,0,0,0,0,0,0,0,0,0,-1,1357,1506,0,0
140,-482,0,0,0,0,0,0,0,0,0,-1,1364,1506,0,0
147,-482,0,0,0,0,0,0,0,0,0,-1,1371,1506,0,0
154,-482,0,0,0,0,0,0,0,0,0,-1,1378,1506,0,0
161,-482,0,0,0,0,0,0,0,0,0,-1,1385,1506,0,0
168,-482,0,0,0,0,0,0,0,0,0,-1,1392,1506,0,0
175,-482,0,0,0,0,0,0,0,0,0,-1,1399,1506,0,0
182,-482,0,0,0,0,0,0,0,0,0,-1,1406,1506,0,0
189,-482,0,0,0,0,0,0,0,0,0,-1,1413,1506,0,0
196,-482,0,0,0,0,0,0,0,0,0,-1,1420,1506,0,0
203,-482,0,0,0,0,0,0,0,0,0,-1,1427,1506,0,0
210,-482,0,0,0,0,0,0,0,0,0,-1,1434,1506,0,0
217,-482,0,0,0,0,0,0,0,0,0,-1,1441,1506,0,0
224,-482,0,0,0,0,0,0,0,0,0,-1,1448,1506,0,0
231,-482,0,0,0,0,0,0,0,0,0,-1,1455,1506,0,0
238,-482,0,0,0,0,0,0,0,0,0,-1,1462,1506,0,0
245,-482,0,0,0,0,0,0,0,0,0,-1,1469,1506,0,0
252,-482,0,0,0,0,0,0,0,0,0,-1,1476,1506,0,0
259,-482,0,0,0,0,0,0,0,0,0,-1,1483,1506,0,0
266,-482,0,0,0,0,0,0,0,0,0,-1,1490,1506,0,0
273,-482,0,0,0,0,0,0,0,0,0,-1,1497,1506,0,0
280,-482,0,0,0,0,0,0,0,0,0,-1,1504,1506,0,0
287,-482,0,0,0,0,0,0,0,0,0,-1,1511,1506,0,0
294,-482,0,0,0,0,0,0,0,0,0,-1,1518,1506,0,0
301,-482,0,0,0,0,0,0,0,0,0,-1,1525,1506,0,0
308,-482,0,0,0,0,0,0,0,0,0,-1,1532,1506,0,0
315,-482,0,0,0,0,0,0,0,0,0,-1,1539,1506,0,0
322,-482,0,0,0,0,0,0,0,0,0,-1,1546,1506,0,0
329,-482,0,0,0,0,0,0,0,0,0,-1,1553,1506,0,0
336,-482,0,0,0,0,0,0,0,0,0,-1,1560,1506,0,0
343,-482,0,0,0,0,0,0,0,0,0,-1,1567,1506,0,0
350,-482,0,0,0,0,0,0,0,0,0,-1,1574,1506,0,0
357,-482,0,0,0,0,0,0,0,0,0,-1,1581,1506,0,0
364,-482,0,0,0,0,0,0,0,0,0,-1,1588,1506,0,0
371,-482,0,0,0,0,0,0,0,0,0,-1,1595,1506,0,0
378,-482,0,0,0,0,0,0,0,0,0,-1,1602,1506,0,0
385,-482,0,0,0,0,0,0,0,0,0,-1,1609,1506,0,0
392,-482,0,0,0,0,0,0,0,0,0,-1,1616,1506,0,0
399,-482,0,0,0,0,0,0,0,0,0,-1,1623,1506,0,0
406,-482,0,0,0,0,0,0,0,0,0,-1,1630,1506,0,0
413,-482,0,0,0,0,0,0,0,0,0,-1,1637,1506,0,0
420,-482,0,0,0,0,0,0,0,0,0,-1,1644,1506,0,0
427,-482,0,0,0,0,0,0,0,0,0,-1,1651,1506,0,0
434,-482,0,0,0,0,0,0,0,0,0,-1,1658,1506,0,0
441,-482,0,0,0,0,0,0,0,0,0,-1,1665,1506,0,0
448,-482,4.24146,1.55383,0,0,0,0,0,0,0,-1,1672,1506,4.24149,-1.55381
455,-482,12.4122,1.09729,0,0,0,0,0,0,0,-1,1679,1506,12.4122,-1.09734
462,-482,15.0673,3.13135,0,0,0,0,0,0,0,-1,1686,1506,15.0672,-3.13134
469,-482,15.3793,3.46301,0,0,0,0,0,0,0,-1,1693,1506,15.3793,-3.46307
476,-482,8.69751,9.18738,0,0,0,0,0,0,0,-1,1700,1506,8.69753,-9.18739
483,-482,10.0902,7.17432,0,0,0,0,0,0,0,-1,1707,1506,10.0902,-7.1743
490,-482,11.6289,5.4928,0,0,0,0,0,0,0,-1,1714,1506,11.6289,-5.49283
497,-482,15.9539,7.40222,0,0,0,0,0,0,0,-1,1721,1506,15.9538,-7.40219
504,-482,20.4233,12.006,0,0,0,0,0,0,0,-1,1728,1506,20.4233,-12.006
511,-482,18.4937,12.9175,0,0,0,0,0,0,0,-1,1735,1506,18.4936,-12.9174
518,-482,16.6002,13.9679,0,0,0,0,0,0,0,-1,1742,1506,16.6003,-13.9679
525,-482,18.495,15.9618,0,0,0,0,0,0,0,-1,1749,1506,18.495,-15.9618
532,-482,19.9375,21.0775,0,0,0,0,0,0,0,-1,1756,1506,19.9375,-21.0775
539,-482,20.2291,20.5577,0,0,0,0,0,0,0,-1,1763,1506,20.2291,-20.5578
546,-482,22.5787,22.8781,0,0,0,0,0,0,0,-1,1770,1506,22.5787,-22.878
553,-482,22.448,22.13,0,0,0,0,0,0,0,-1,1777,1506,22.4479,-22.13
560,-482,22.5818,21.5134,0.00636318,0.00395978,-0.00316962,0.00855126,0.0017717,-0.604204,0.00521164,0.0153765,1784,1506,22.5818,-21.5134
567,-482,22.6702,20.9525,0.00516995,0.00312169,-0.00254992,0.00689372,0.00139792,-0.594442,0.00420796,0.0149166,1791,1506,22.6701,-20.9526
574,-482,22.6473,20.4349,0.00427176,0.00255353,-0.00217637,0.00575245,0.00107284,-0.597414,0.00353209,0.0139243,1798,1506,22.6474,-20.4349
581,-482,22.614,19.9216,0.00350622,0.00206113,-0.00185628,0.00477562,0.000791726,-0.599798,0.0029554,0.00992056,1805,1506,22.614,-19.9216
588,-482,22.5916,19.3623,0.00297664,0.00163529,-0.00161006,0.00405013,0.000561802,-0.588051,0.00253366,0.0109782,1812,1506,22.5916,-19.3623
595,-482,22.5922,18.7957,0.00273641,0.00113382,-0.00136575,0.00351858,0.000351652,-0.520105,0.00223773,0.0167465,1819,1506,22.5922,-18.7956
602,-482,22.574,18.2606,0.00260375,0.00070999,-0.00118606,0.00317454,0.0001392,-0.448534,0.00207152,0.0212665,1826,1506,22.574,-18.2606
609,-482,22.5585,17.754,0.00262141,0.000279887,-0.000966916,0.00296907,-6.77737e-05,-0.345163,0.00200236,0.0166747,1833,1506,22.5585,-17.754
616,-482,22.5227,17.2335,0.00291532,-0.000287702,-0.000691868,0.00305838,-0.000430759,-0.203896,0.00219663,0.0117921,1840,1506,22.5227,-17.2336
623,-482,22.484,16.6957,0.00343062,-0.001041,-0.000311451,0.00345221,-0.00106259,-0.0692053,0.00272561,0.0160267,1847,1506,22.484,-16.6957
630,-482,22.47,16.2095,0.0040449,-0.0017475,0.000162243,0.00404944,-0.00175204,0.0279804,0.00343591,0.0344222,1854,1506,22.47,-16.2095
637,-482,22.509,15.5564,0,0,0,0,0,0,0,-1,1861,1506,22.5091,-15.5564
644,-482,17.5909,11.6163,0,0,0,0,0,0,0,-1,1868,1506,17.5909,-11.6163
651,-482,4.03845,7.05273,0,0,0,0,0,0,0,-1,1875,1506,4.03843,-7.05279
658,-482,10.0278,5.87903,0,0,0,0,0,0,0,-1,1882,1506,10.0279,-5.87902
665,-482,8.15198,3.22229,0,0,0,0,0,0,0,-1,1889,1506,8.15199,-3.22232
672,-482,9.87415,1.3147,0,0,0,0,0,0,0,-1,1896,1506,9.87416,-1.31473
679,-482,0,0,0,0,0,0,0,0,0,-1,1903,1506,0,0
686,-482,0,0,0,0,0,0,0,0,0,-1,1910,1506,0,0
693,-482,0,0,0,0,0,0,0,0,0,-1,1917,1506,0,0
700,-482,0,0,0,0,0,0,0,0,0,-1,1924,1506,0,0
707,-482,0,0,0,0,0,0,0,0,0,-1,1931,1506,0,0
714,-482,0,0,0,0,0,0,0,0,0,-1,1938,1506,0,0
721,-482,0,0,0,0,0,0,0,0,0,-1,1945,1506,0,0
728,-482,0,0,0,0,0,0,0,0,0,-1,1952,1506,0,0
735,-482,0,0,0,0,0,0,0,0,0,-1,1959,1506,0,0
742,-482,0,0,0,0,0,0,0,0,0,-1,1966,1506,0,0
749,-482,0,0,0,0,0,0,0,0,0,-1,1973,1506,0,0
756,-482,0,0,0,0,0,0,0,0,0,-1,1980,1506,0,0
763,-482,0,0,0,0,0,0,0,0,0,-1,1987,1506,0,0
770,-482,0,0,0,0,0,0,0,0,0,-1,1994,1506,0,0
777,-482,0,0,0,0,0,0,0,0,0,-1,2001,1506,0,0
784,-482,0,0,0,0,0,0,0,0,0,-1,2008,1506,0,0
791,-482,0,0,0,0,0,0,0,0,0,-1,2015,1506,0,0
798,-482,0,0,0,0,0,0,0,0,0,-1,2022,1506,0,0
805,-482,0,0,0,0,0,0,0,0,0,-1,2029,1506,0,0
812,-482,0,0,0,0,0,0,0,0,0,-1,2036,1506,0,0
-700,-489,0,0,0,0,0,0,0,0,0,-1,524,1513,0,0
-693,-489,0,0,0,0,0,0,0,0,0,-1,531,1513,0,0
-686,-489,0,0,0,0,0,0,0,0,0,-1,538,1513,0,0
-679,-489,0,0,0,0,0,0,0,0,0,-1,545,1513,0,0
-672,-489,0,0,0,0,0,0,0,0,0,-1,552,1513,0,0
-665,-489,0,0,0,0,0,0,0,0,0,-1,559,1513,0,0
-658,-489,0,0,0,0,0,0,0,0,0,-1,566,1513,0,0
-651,-489,0,0,0,0,0,0,0,0,0,-1,573,1513,0,0
-644,-489,0,0,0,0,0,0,0,0,0,-1,580,1513,0,0
-637,-489,0,0,0,0,0,0,0,0,0,-1,587,1513,0,0
-630,-489,0,0,0,0,0,0,0,0,0,-1,594,1513,0,0
-623,-489,0,0,0,0,0,0,0,0,0,-1,601,1513,0,0
-616,-489,0,0,0,0,0,0,0,0,0,-1,608,1513,0,0
-609,-489,0,0,0,0,0,0,0,0,0,-1,615,1513,0,0
-602,-489,0,0,0,0,0,0,0,0,0,-1,622,1513,0,0
-595,-489,0,0,0,0,0,0,0,0,0,-1,629,1513,0,0
-588,-489,0,0,0,0,0,0,0,0,0,-1,636,1513,0,0
-581,-489,0,0,0,0,0,0,0,0,0,-1,643,1513,0,0
-574,-489,0,0,0,0,0,0,0,0,0,-1,650,1513,0,0
-567,-489,0,0,0,0,0,0,0,0,0,-1,657,1513,0,0
-560,-489,0,0,0,0,0,0,0,0,0,-1,664,1513,0,0
-553,-489,-9.42206,8.5116,0,0,0,0,0,0,0,-1,671,1513,-9.42205,-8.51158
-546,-489,-7.80951,8.18506,0,0,0,0,0,0,0,-1,678,1513,-7.8095,-8.18503
-539,-489,-3.06879,2.82349,0,0,0,0,0,0,0,-1,685,1513,-3.06881,-2.82354
-532,-489,-3.14215,2.5835,0,0,0,0,0,0,0,-1,692,1513,-3.14213,-2.58353
-525,-489,-2.604,4.06274,0,0,0,0,0,0,0,-1,699,1513,-2.60399,-4.06274
-518,-489,-5.43774,7.48059,0,0,0,0,0,0,0,-1,706,1513,-5.43777,-7.48058
-511,-489,-7.52856,10.951,0,0,0,0,0,0,0,-1,713,1513,-7.52857,-10.951
-504,-489,-7.17352,12.8508,0,0,0,0,0,0,0,-1,720,1513,-7.17352,-12.8508
-497,-489,-5.51678,14.9254,0,0,0,0,0,0,0,-1,727,1513,-5.51681,-14.9254
-490,-489,-5.87817,15.1387,-0.00843915,-0.00167538,-0.00439741,0.000490206,-0.0106047,-1.11319,0.00723876,0.046971,734,1513,-5.8782,-15.1387
-483,-489,-6.12701,15.6571,-0.00688736,-0.00158804,-0.00371992,0.000329413,-0.00880481,-1.09486,0.0059827,0.0198171,741,1513,-6.12699,-15.6571
-476,-489,-6.12793,16.3081,-0.00533335,-0.00130168,-0.00299409,0.000291945,-0.00692697,-1.08168,0.00471831,0.0096445,748,1513,-6.12793,-16.3081
-469,-489,-6.1507,16.8749,-0.00376368,-0.000873449,-0.00212881,0.00025441,-0.00489154,-1.08359,0.00334905,0.00988153,755,1513,-6.15069,-16.8749
-462,-489,-6.18793,17.4635,-0.00219033,-0.000279753,-0.00113163,0.000245889,-0.00271597,-1.13595,0.00189793,0.015029,762,1513,-6.18792,-17.4636
-455,-489,-6.21771,18.0646,-0.000692109,0.000387231,-0.000107645,0.000397862,-0.00070274,-1.47236,0.000643508,0.0197213,769,1513,-6.21774,-18.0646
-448,-489,-6.24377,18.6113,0.000868235,0.00131795,0.00111327,0.00222885,-4.26616e-05,0.885047,0.00150032,0.018122,776,1513,-6.24379,-18.6113
-441,-489,-6.21521,19.1838,0.00250256,0.00247864,0.00251791,0.00500853,-2.7335e-05,0.783023,0.00334817,0.0158142,783,1513,-6.21518,-19.1838
-434,-489,-6.2337,19.7473,0.00414316,0.00395889,0.00410829,0.00816034,-5.82938e-05,0.774186,0.00545976,0.0181127,790,1513,-6.23371,-19.7474
-427,-489,-6.28259,20.3176,0.00574271,0.00558565,0.00578973,0.0114544,-0.000126079,0.778617,0.00767867,0.019355,797,1513,-6.28261,-20.3176
-420,-489,-6.33972,21.0116,0.00743694,0.00766289,0.00774921,0.0152999,-0.00020012,0.792687,0.0102673,0.0254158,804,1513,-6.33969,-21.0116
-413,-489,-6.31488,21.7844,0,0,0,0,0,0,0,-1,811,1513,-6.31487,-21.7844
-406,-489,-3.10559,15.8143,0,0,0,0,0,0,0,-1,818,1513,-3.10556,-15.8143
-399,-489,-1.41241,9.10718,0,0,0,0,0,0,0,-1,825,1513,-1.41244,-9.10722
-392,-489,-1.0368,9.30469,0,0,0,0,0,0,0,-1,832,1513,-1.03682,-9.30466
-385,-489,-1.75165,10.6559,0,0,0,0,0,0,0,-1,839,1513,-1.75165,-10.6559
-378,-489,-0.401428,9.87048,0,0,0,0,0,0,0,-1,846,1513,-0.401415,-9.87047
-371,-489,-1.11633,10.6606,0,0,0,0,0,0,0,-1,853,1513,-1.11633,-10.6606
-364,-489,-0.503113,8.98486,0,0,0,0,0,0,0,-1,860,1513,-0.503097,-8.98482
-357,-489,-0.609924,10.9606,0,0,0,0,0,0,0,-1,867,1513,-0.609947,-10.9605
-350,-489,-7.94659,-0.358887,0,0,0,0,0,0,0,-1,874,1513,-7.94657,0.358912
-343,-489,-7.49323,-0.437866,0,0,0,0,0,0,0,-1,881,1513,-7.49322,0.437823
-336,-489,-7.02332,-0.53125,0,0,0,0,0,0,0,-1,888,1513,-7.0233,0.531295
-329,-489,-12.9825,5.06604,0,0,0,0,0,0,0,-1,895,1513,-12.9825,-5.06602
-322,-489,0,0,0,0,0,0,0,0,0,-1,902,1513,0,0
-315,-489,0,0,0,0,0,0,0,0,0,-1,909,1513,0,0
-308,-489,0,0,0,0,0,0,0,0,0,-1,916,1513,0,0
-301,-489,0,0,0,0,0,0,0,0,0,-1,923,1513,0,0
-294,-489,0,0,0,0,0,0,0,0,0,-1,930,1513,0,0
-287,-489,0,0,0,0,0,0,0,0,0,-1,937,1513,0,0
-280,-489,0,0,0,0,0,0,0,0,0,-1,944,1513,0,0
-273,-489,0,0,0,0,0,0,0,0,0,-1,951,1513,0,0
-266,-489,0,0,0,0,0,0,0,0,0,-1,958,1513,0,0
-259,-489,0,0,0,0,0,0,0,0,0,-1,965,1513,0,0
-252,-489,0,0,0,0,0,0,0,0,0,-1,972,1513,0,0
-245,-489,0,0,0,0,0,0,0,0,0,-1,979,1513,0,0
-238,-489,0,0,0,0,0,0,0,0,0,-1,986,1513,0,0
-231,-489,0,0,0,0,0,0,0,0,0,-1,993,1513,0,0
-224,-489,0,0,0,0,0,0,0,0,0,-1,1000,1513,0,0
-217,-489,0,0,0,0,0,0,0,0,0,-1,1007,1513,0,0
-210,-489,0,0,0,0,0,0,0,0,0,-1,1014,1513,0,0
-203,-489,0,0,0,0,0,0,0,0,0,-1,1021,1513,0,0
-196,-489,0,0,0,0,0,0,0,0,0,-1,1028,1513,0,0
-189,-489,0,0,0,0,0,0,0,0,0,-1,1035,1513,0,0
-182,-489,0,0,0,0,0,0,0,0,0,-1,1042,1513,0,0
-175,-489,0,0,0,0,0,0,0,0,0,-1,1049,1513,0,0
-168,-489,0,0,0,0,0,0,0,0,0,-1,1056,1513,0,0
-161,-489,0,0,0,0,0,0,0,0,0,-1,1063,1513,0,0
-154,-489,0,0,0,0,0,0,0,0,0,-1,1070,1513,0,0
-147,-489,0,0,0,0,0,0,0,0,0,-1,1077,1513,0,0
-140,-489,0,0,0,0,0,0,0,0,0,-1,1084,1513,0,0
-133,-489,0,0,0,0,0,0,0,0,0,-1,1091,1513,0,0
-126,-489,0,0,0,0,0,0,0,0,0,-1,1098,1513,0,0
-119,-489,0,0,0,0,0,0,0,0,0,-1,1105,1513,0,0
-112,-489,0,0,0,0,0,0,0,0,0,-1,1112,1513,0,0
-105,-489,0,0,0,0,0,0,0,0,0,-1,1119,1513,0,0
-98,-489,0,0,0,0,0,0,0,0,0,-1,1126,1513,0,0
-91,-489,0,0,0,0,0,0,0,0,0,-1,1133,1513,0,0
-84,-489,0,0,0,0,0,0,0,0,0,-1,1140,1513,0,0
-77,-489,0,0,0,0,0,0,0,0,0,-1,1147,1513,0,0
-70,-489,0,0,0,0,0,0,0,0,0,-1,1154,1513,0,0
-63,-489,0,0,0,0,0,0,0,0,0,-1,1161,1513,0,0
-56,-489,0,0,0,0,0,0,0,0,0,-1,1168,1513,0,0
-49,-489,0,0,0,0,0,0,0,0,0,-1,1175,1513,0,0
-42,-489,0,0,0,0,0,0,0,0,0,-1,1182,1513,0,0
-35,-489,0,0,0,0,0,0,0,0,0,-1,1189,1513,0,0
-28,-489,0,0,0,0,0,0,0,0,0,-1,1196,1513,0,0
-21,-489,0,0,0,0,0,0,0,0,0,-1,1203,1513,0,0
-14,-489,0,0,0,0,0,0,0,0,0,-1,1210,1513,0,0
-7,-489,0,0,0,0,0,0,0,0,0,-1,1217,1513,0,0
0,-489,0,0,0,0,0,0,0,0,0,-1,1224,1513,0,0
7,-489,0,0,0,0,0,0,0,0,0,-1,1231,1513,0,0
14,-489,0,0,0,0,0,0,0,0,0,-1,1238,1513,0,0
21,-489,0,0,0,0,0,0,0,0,0,-1,1245,1513,0,0
28,-489,0,0,0,0,0,0,0,0,0,-1,1252,1513,0,0
35,-489,0,0,0,0,0,0,0,0,0,-1,1259,1513,0,0
42,-489,0,0,0,0,0,0,0,0,0,-1,1266,1513,0,0
49,-489,0,0,0,0,0,0,0,0,0,-1,1273,1513,0,0
56,-489,0,0,0,0,0,0,0,0,0,-1,1280,1513,0,0
63,-489,0,0,0,0,0,0,0,0,0,-1,1287,1513,0,0
70,-489,0,0,0,0,0,0,0,0,0,-1,1294,1513,0,0
77,-489,0,0,0,0,0,0,0,0,0,-1,1301,1513,0,0
84,-489,0,0,0,0,0,0,0,0,0,-1,1308,1513,0,0
91,-489,0,0,0,0,0,0,0,0,0,-1,1315,1513,0,0
98,-489,0,0,0,0,0,0,0,0,0,-1,1322,1513,0,0
105,-489,0,0,0,0,0,0,0,0,0,-1,1329,1513,0,0
112,-489,0,0,0,0,0,0,0,0,0,-1,1336,1513,0,0
119,-489,0,0,0,0,0,0,0,0,0,-1,1343,1513,0,0
126,-489,0,0,0,0,0,0,0,0,0,-1,1350,1513,0,0
133,-489,0,0,0,0,0,0,0,0,0,-1,1357,1513,0,0
140,-489,0,0,0,0,0,0,0,0,0,-1,1364,1513,0,0
147,-489,0,0,0,0,0,0,0,0,0,-1,1371,1513,0,0
154,-489,0,0,0,0,0,0,0,0,0,-1,1378,1513,0,0
161,-489,0,0,0,0,0,0,0,0,0,-1,1385,1513,0,0
168,-489,0,0,0,0,0,0,0,0,0,-1,1392,1513,0,0
175,-489,0,0,0,0,0,0,0,0,0,-1,1399,1513,0,0
182,-489,0,0,0,0,0,0,0,0,0,-1,1406,1513,0,0
189,-489,0,0,0,0,0,0,0,0,0,-1,1413,1513,0,0
196,-489,0,0,0,0,0,0,0,0,0,-1,1420,1513,0,0
203,-489,0,0,0,0,0,0,0,0,0,-1,1427,1513,0,0
210,-489,0,0,0,0,0,0,0,0,0,-1,1434,1513,0,0
217,-489,0,0,0,0,0,0,0,0,0,-1,1441,1513,0,0
224,-489,0,0,0,0,0,0,0,0,0,-1,1448,1513,0,0
231,-489,0,0,0,0,0,0,0,0,0,-1,1455,1513,0,0
238,-489,0,0,0,0,0,0,0,0,0,-1,1462,1513,0,0
245,-489,0,0,0,0,0,0,0,0,0,-1,1469,1513,0,0
252,-489,0,0,0,0,0,0,0,0,0,-1,1476,1513,0,0
259,-489,0,0,0,0,0,0,0,0,0,-1,1483,1513,0,0
266,-489,0,0,0,0,0,0,0,0,0,-1,1490,1513,0,0
273,-489,0,0,0,0,0,0,0,0,0,-1,1497,1513,0,0
280,-489,0,0,0,0,0,0,0,0,0,-1,1504,1513,0,0
287,-489,0,0,0,0,0,0,0,0,0,-1,1511,1513,0,0
294,-489,0,0,0,0,0,0,0,0,0,-1,1518,1513,0,0
301,-489,0,0,0,0,0,0,0,0,0,-1,1525,1513,0,0
308,-489,0,0,0,0,0,0,0,0,0,-1,1532,1513,0,0
315,-489,0,0,0,0,0,0,0,0,0,-1,1539,1513,0,0
322,-489,0,0,0,0,0,0,0,0,0,-1,1546,1513,0,0
329,-489,0,0,0,0,0,0,0,0,0,-1,1553,1513,0,0
336,-489,0,0,0,0,0,0,0,0,0,-1,1560,1513,0,0
343,-489,0,0,0,0,0,0,0,0,0,-1,1567,1513,0,0
350,-489,0,0,0,0,0,0,0,0,0,-1,1574,1513,0,0
357,-489,0,0,0,0,0,0,0,0,0,-1,1581,1513,0,0
364,-489,0,0,0,0,0,0,0,0,0,-1,1588,1513,0,0
371,-489,0,0,0,0,0,0,0,0,0,-1,1595,1513,0,0
378,-489,0,0,0,0,0,0,0,0,0,-1,1602,1513,0,0
385,-489,0,0,0,0,0,0,0,0,0,-1,1609,1513,0,0
392,-489,0,0,0,0,0,0,0,0,0,-1,1616,1513,0,0
399,-489,0,0,0,0,0,0,0,0,0,-1,1623,1513,0,0
406,-489,0,0,0,0,0,0,0,0,0,-1,1630,1513,0,0
413,-489,0,0,0,0,0,0,0,0,0,-1,1637,1513,0,0
420,-489,0,0,0,0,0,0,0,0,0,-1,1644,1513,0,0
427,-489,0,0,0,0,0,0,0,0,0,-1,1651,1513,0,0
434,-489,0,0,0,0,0,0,0,0,0,-1,1658,1513,0,0
441,-489,11.4602,2.56787,0,0,0,0,0,0,0,-1,1665,1513,11.4602,-2.56786
448,-489,12.4425,1.72351,0,0,0,0,0,0,0,-1,1672,1513,12.4425,-1.72349
455,-489,12.5575,1.37463,0,0,0,0,0,0,0,-1,1679,1513,12.5575,-1.37469
462,-489,14.9784,3.84888,0,0,0,0,0,0,0,-1,1686,1513,14.9784,-3.84892
469,-489,15.1367,4.53101,0,0,0,0,0,0,0,-1,1693,1513,15.1368,-4.531
476,-489,15.5536,5.09338,0,0,0,0,0,0,0,-1,1700,1513,15.5536,-5.09339
483,-489,8.96912,8.37805,0,0,0,0,0,0,0,-1,1707,1513,8.96909,-8.37809
490,-489,10.5366,7.49561,0,0,0,0,0,0,0,-1,1714,1513,10.5367,-7.49558
497,-489,14.6051,11.8397,0,0,0,0,0,0,0,-1,1721,1513,14.6051,-11.8397
504,-489,16.7527,14.1735,0,0,0,0,0,0,0,-1,1728,1513,16.7527,-14.1735
511,-489,17.83,17.7993,0,0,0,0,0,0,0,-1,1735,1513,17.83,-17.7993
518,-489,16.4751,14.3682,0,0,0,0,0,0,0,-1,1742,1513,16.4751,-14.3682
525,-489,17.2606,17.4949,0,0,0,0,0,0,0,-1,1749,1513,17.2606,-17.4949
532,-489,19.397,21.0182,0,0,0,0,0,0,0,-1,1756,1513,19.397,-21.0182
539,-489,21.9777,23.4932,0,0,0,0,0,0,0,-1,1763,1513,21.9776,-23.4932
546,-489,22.1075,22.7684,0.00818619,0.00561526,-0.00467007,0.0117445,0.00205697,-0.651096,0.00724203,0.0285683,1770,1513,22.1076,-22.7685
553,-489,22.0996,22.0974,0.00663629,0.00432368,-0.0035467,0.00921042,0.00174955,-0.62782,0.00564815,0.0197781,1777,1513,22.0997,-22.0975
560,-489,22.1111,21.5192,0.00538468,0.00333995,-0.00272594,0.00727366,0.00145096,-0.60599,0.0044451,0.0132012,1784,1513,22.1111,-21.5191
567,-489,22.1256,20.9829,0.00442185,0.00262545,-0.00219873,0.00589877,0.00114853,-0.591489,0.00361108,0.0149314,1791,1513,22.1256,-20.9829
574,-489,22.0887,20.4723,0.00370322,0.00214736,-0.00189015,0.00496927,0.000881314,-0.590178,0.00306165,0.0148853,1798,1513,22.0887,-20.4723
581,-489,22.0942,19.9401,0.00310157,0.00173543,-0.00164116,0.00419613,0.000640862,-0.588196,0.00261016,0.0106292,1805,1513,22.0943,-19.9401
588,-489,22.0667,19.4045,0.00273912,0.001424,-0.0014935,0.0037134,0.000449714,-0.578026,0.00234014,0.0131407,1812,1513,22.0667,-19.4045
595,-489,22.0482,18.8728,0.00266436,0.00104105,-0.0013581,0.00343486,0.00027055,-0.516055,0.00220526,0.0203481,1819,1513,22.0482,-18.8728
602,-489,22.0262,18.3236,0.00269281,0.000762641,-0.00129534,0.00334306,0.000112392,-0.465238,0.0021922,0.0268256,1826,1513,22.0262,-18.3236
609,-489,22.0159,17.7854,0.00287575,0.000449172,-0.00119175,0.00336315,-3.82301e-05,-0.388222,0.00225495,0.0184293,1833,1513,22.0159,-17.7853
616,-489,22.0162,17.2354,0.00344113,-5.27868e-05,-0.00102736,0.00372083,-0.000332482,-0.265805,0.00259848,0.0179534,1840,1513,22.0163,-17.2354
623,-489,21.9961,16.7104,0.00419149,-0.000766837,-0.00072532,0.00429541,-0.000870761,-0.142312,0.00319368,0.0390648,1847,1513,21.9961,-16.7104
630,-489,22.0074,16.0627,0,0,0,0,0,0,0,-1,1854,1513,22.0075,-16.0627
637,-489,17.2048,11.8091,0,0,0,0,0,0,0,-1,1861,1513,17.2048,-11.8091
644,-489,9.67578,8.45874,0,0,0,0,0,0,0,-1,1868,1513,9.67576,-8.45879
651,-489,6.13818,6.85095,0,0,0,0,0,0,0,-1,1875,1513,6.13823,-6.85097
658,-489,5.43848,7.75513,0,0,0,0,0,0,0,-1,1882,1513,5.43844,-7.75509
665,-489,5.48438,8.59912,0,0,0,0,0,0,0,-1,1889,1513,5.48434,-8.59907
672,-489,0,0,0,0,0,0,0,0,0,-1,1896,1513,0,0
679,-489,0,0,0,0,0,0,0,0,0,-1,1903,1513,0,0
686,-489,0,0,0,0,0,0,0,0,0,-1,1910,1513,0,0
693,-489,0,0,0,0,0,0,0,0,0,-1,1917,1513,0,0
700,-489,0,0,0,0,0,0,0,0,0,-1,1924,1513,0,0
707,-489,0,0,0,0,0,0,0,0,0,-1,1931,1513,0,0
714,-489,0,0,0,0,0,0,0,0,0,-1,1938,1513,0,0
721,-489,0,0,0,0,0,0,0,0,0,-1,1945,1513,0,0
728,-489,0,0,0,0,0,0,0,0,0,-1,1952,1513,0,0
735,-489,0,0,0,0,0,0,0,0,0,-1,1959,1513,0,0
742,-489,0,0,0,0,0,0,0,0,0,-1,1966,1513,0,0
749,-489,0,0,0,0,0,0,0,0,0,-1,1973,1513,0,0
756,-489,0,0,0,0,0,0,0,0,0,-1,1980,1513,0,0
763,-489,0,0,0,0,0,0,0,0,0,-1,1987,1513,0,0
770,-489,0,0,0,0,0,0,0,0,0,-1,1994,1513,0,0
777,-489,0,0,0,0,0,0,0,0,0,-1,2001,1513,0,0
784,-489,0,0,0,0,0,0,0,0,0,-1,2008,1513,0,0
791,-489,0,0,0,0,0,0,0,0,0,-1,2015,1513,0,0
798,-489,0,0,0,0,0,0,0,0,0,-1,2022,1513,0,0
805,-489,0,0,0,0,0,0,0,0,0,-1,2029,1513,0,0
812,-489,0,0,0,0,0,0,0,0,0,-1,2036,1513,0,0
-700,-496,0,0,0,0,0,0,0,0,0,-1,524,1520,0,0
-693,-496,0,0,0,0,0,0,0,0,0,-1,531,1520,0,0
-686,-496,0,0,0,0,0,0,0,0,0,-1,538,1520,0,0
-679,-496,0,0,0,0,0,0,0,0,0,-1,545,1520,0,0
-672,-496,0,0,0,0,0,0,0,0,0,-1,552,1520,0,0
-665,-496,0,0,0,0,0,0,0,0,0,-1,559,1520,0,0
-658,-496,0,0,0,0,0,0,0,0,0,-1,566,1520,0,0
-651,-496,0,0,0,0,0,0,0,0,0,-1,573,1520,0,0
-644,-496,0,0,0,0,0,0,0,0,0,-1,580,1520,0,0
-637,-496,0,0,0,0,0,0,0,0,0,-1,587,1520,0,0
-630,-496,0,0,0,0,0,0,0,0,0,-1,594,1520,0,0
-623,-496,0,0,0,0,0,0,0,0,0,-1,601,1520,0,0
-616,-496,0,0,0,0,0,0,0,0,0,-1,608,1520,0,0
-609,-496,0,0,0,0,0,0,0,0,0,-1,615,1520,0,0
-602,-496,0,0,0,0,0,0,0,0,0,-1,622,1520,0,0
-595,-496,0,0,0,0,0,0,0,0,0,-1,629,1520,0,0
-588,-496,0,0,0,0,0,0,0,0,0,-1,636,1520,0,0
-581,-496,0,0,0,0,0,0,0,0,0,-1,643,1520,0,0
-574,-496,0,0,0,0,0,0,0,0,0,-1,650,1520,0,0
-567,-496,0,0,0,0,0,0,0,0,0,-1,657,1520,0,0
-560,-496,0,0,0,0,0,0,0,0,0,-1,664,1520,0,0
-553,-496,0,0,0,0,0,0,0,0,0,-1,671,1520,0,0
-546,-496,-8.09711,7.94836,0,0,0,0,0,0,0,-1,678,1520,-8.09712,-7.94842
-539,-496,-3.20129,1.16052,0,0,0,0,0,0,0,-1,685,1520,-3.20131,-1.16054
-532,-496,-2.98279,2.62146,0,0,0,0,0,0,0,-1,692,1520,-2.98278,-2.62151
-525,-496,-2.75201,4.08032,0,0,0,0,0,0,0,-1,699,1520,-2.75201,-4.08031
-518,-496,-2.6333,5.36072,0,0,0,0,0,0,0,-1,706,1520,-2.63328,-5.36077
-511,-496,-7.92126,9.68604,0,0,0,0,0,0,0,-1,713,1520,-7.92127,-9.68598
-504,-496,-7.51044,11.6274,0,0,0,0,0,0,0,-1,720,1520,-7.51042,-11.6275
-497,-496,-5.30933,14.4291,0,0,0,0,0,0,0,-1,727,1520,-5.30932,-14.4291
-490,-496,-5.05066,15.5409,0,0,0,0,0,0,0,-1,734,1520,-5.05067,-15.5409
-483,-496,-5.45874,15.8384,-0.00921171,-0.00111589,-0.0049397,0.00122261,-0.0115502,-1.12865,0.00813834,0.0347777,741,1520,-5.45875,-15.8383
-476,-496,-5.58606,16.3213,-0.0071573,-0.00083655,-0.00397188,0.00107888,-0.00907273,-1.12145,0.00643831,0.0150398,748,1520,-5.58603,-16.3213
-469,-496,-5.59991,16.9138,-0.00525729,-0.000519632,-0.00297454,0.000914074,-0.00669099,-1.12166,0.00479449,0.00951707,755,1520,-5.5999,-16.9139
-462,-496,-5.63159,17.4907,-0.00346244,-4.45825e-05,-0.00188215,0.00078872,-0.00429574,-1.154,0.00315972,0.0155999,762,1520,-5.63161,-17.4907
-455,-496,-5.64685,18.0911,-0.00183152,0.000434664,-0.000835276,0.000709259,-0.00210612,-1.25318,0.00169083,0.0214809,769,1520,-5.64684,-18.0911
-448,-496,-5.66931,18.6813,-0.000239232,0.00109248,0.000319592,0.00116521,-0.000311958,1.34705,0.000899019,0.0201805,776,1520,-5.66931,-18.6812
-441,-496,-5.6615,19.2329,0.00136254,0.0019498,0.00159945,0.00328235,2.99957e-05,0.876178,0.0021783,0.0154566,783,1520,-5.66152,-19.233
-434,-496,-5.68298,19.7834,0.00293588,0.00308372,0.00301866,0.00602937,-9.76725e-06,0.797639,0.00402284,0.0141566,790,1520,-5.683,-19.7834
-427,-496,-5.72467,20.3425,0.00446148,0.00432044,0.00445907,0.00885059,-6.86646e-05,0.777491,0.00592341,0.0178134,797,1520,-5.72467,-20.3425
-420,-496,-5.73083,20.8961,0.0060142,0.0058847,0.0060932,0.012043,-0.000144095,0.780085,0.00807712,0.0186258,804,1520,-5.73081,-20.8961
-413,-496,-5.66382,21.5095,0.00780889,0.00782482,0.00796369,0.0157805,-0.000146832,0.785898,0.0105696,0.030921,811,1520,-5.66384,-21.5095
-406,-496,-5.52802,22.3132,0,0,0,0,0,0,0,-1,818,1520,-5.52802,-22.3133
-399,-496,-5.17902,23.1848,0,0,0,0,0,0,0,-1,825,1520,-5.17903,-23.1848
-392,-496,-1.49786,12.387,0,0,0,0,0,0,0,-1,832,1520,-1.49788,-12.387
-385,-496,-1.72437,11.4985,0,0,0,0,0,0,0,-1,839,1520,-1.72436,-11.4985
-378,-496,-1.45532,14.0719,0,0,0,0,0,0,0,-1,846,1520,-1.45533,-14.0719
-371,-496,0.0877075,12.5299,0,0,0,0,0,0,0,-1,853,1520,0.0876896,-12.5299
-364,-496,0.0881348,10.6422,0,0,0,0,0,0,0,-1,860,1520,0.0881368,-10.6423
-357,-496,0.323792,7.56812,0,0,0,0,0,0,0,-1,867,1520,0.323782,-7.56806
-350,-496,2.1535,7.18945,0,0,0,0,0,0,0,-1,874,1520,2.15348,-7.1894
-343,-496,-7.56244,0.335327,0,0,0,0,0,0,0,-1,881,1520,-7.56242,-0.335322
-336,-496,-3.99249,6.02222,0,0,0,0,0,0,0,-1,888,1520,-3.99246,-6.0222
-329,-496,-6.93689,-0.100342,0,0,0,0,0,0,0,-1,895,1520,-6.93686,0.1003
-322,-496,-6.17505,0.494385,0,0,0,0,0,0,0,-1,902,1520,-6.17507,-0.49437
-315,-496,-7.539,5.78638,0,0,0,0,0,0,0,-1,909,1520,-7.53898,-5.78633
-308,-496,0,0,0,0,0,0,0,0,0,-1,916,1520,0,0
-301,-496,0,0,0,0,0,0,0,0,0,-1,923,1520,0,0
-294,-496,0,0,0,0,0,0,0,0,0,-1,930,1520,0,0
-287,-496,0,0,0,0,0,0,0,0,0,-1,937,1520,0,0
-280,-496,0,0,0,0,0,0,0,0,0,-1,944,1520,0,0
-273,-496,0,0,0,0,0,0,0,0,0,-1,951,1520,0,0
-266,-496,0,0,0,0,0,0,0,0,0,-1,958,1520,0,0
-259,-496,0,0,0,0,0,0,0,0,0,-1,965,1520,0,0
-252,-496,0,0,0,0,0,0,0,0,0,-1,972,1520,0,0
-245,-496,0,0,0,0,0,0,0,0,0,-1,979,1520,0,0
-238,-496,0,0,0,0,0,0,0,0,0,-1,986,1520,0,0
-231,-496,0,0,0,0,0,0,0,0,0,-1,993,1520,0,0
-224,-496,0,0,0,0,0,0,0,0,0,-1,1000,1520,0,0
-217,-496,0,0,0,0,0,0,0,0,0,-1,1007,1520,0,0
-210,-496,0,0,0,0,0,0,0,0,0,-1,1014,1520,0,0
-203,-496,0,0,0,0,0,0,0,0,0,-1,1021,1520,0,0
-196,-496,0,0,0,0,0,0,0,0,0,-1,1028,1520,0,0
-189,-496,0,0,0,0,0,0,0,0,0,-1,1035,1520,0,0
-182,-496,0,0,0,0,0,0,0,0,0,-1,1042,1520,0,0
-175,-496,0,0,0,0,0,0,0,0,0,-1,1049,1520,0,0
-168,-496,0,0,0,0,0,0,0,0,0,-1,1056,1520,0,0
-161,-496,0,0,0,0,0,0,0,0,0,-1,1063,1520,0,0
-154,-496,0,0,0,0,0,0,0,0,0,-1,1070,1520,0,0
-147,-496,0,0,0,0,0,0,0,0,0,-1,1077,1520,0,0
-140,-496,0,0,0,0,0,0,0,0,0,-1,1084,1520,0,0
-133,-496,0,0,0,0,0,0,0,0,0,-1,1091,1520,0,0
-126,-496,0,0,0,0,0,0,0,0,0,-1,1098,1520,0,0
-119,-496,0,0,0,0,0,0,0,0,0,-1,1105,1520,0,0
-112,-496,0,0,0,0,0,0,0,0,0,-1,1112,1520,0,0
-105,-496,0,0,0,0,0,0,0,0,0,-1,1119,1520,0,0
-98,-496,0,0,0,0,0,0,0,0,0,-1,1126,1520,0,0
-91,-496,0,0,0,0,0,0,0,0,0,-1,1133,1520,0,0
-84,-496,0,0,0,0,0,0,0,0,0,-1,1140,1520,0,0
-77,-496,0,0,0,0,0,0,0,0,0,-1,1147,1520,0,0
-70,-496,0,0,0,0,0,0,0,0,0,-1,1154,1520,0,0
-63,-496,0,0,0,0,0,0,0,0,0,-1,1161,1520,0,0
-56,-496,0,0,0,0,0,0,0,0,0,-1,1168,1520,0,0
-49,-496,0,0,0,0,0,0,0,0,0,-1,1175,1520,0,0
-42,-496,0,0,0,0,0,0,0,0,0,-1,1182,1520,0,0
-35,-496,0,0,0,0,0,0,0,0,0,-1,1189,1520,0,0
-28,-496,0,0,0,0,0,0,0,0,0,-1,1196,1520,0,0
-21,-496,0,0,0,0,0,0,0,0,0,-1,1203,1520,0,0
-14,-496,0,0,0,0,0,0,0,0,0,-1,1210,1520,0,0
-7,-496,0,0,0,0,0,0,0,0,0,-1,1217,1520,0,0
0,-496,0,0,0,0,0,0,0,0,0,-1,1224,1520,0,0
7,-496,0,0,0,0,0,0,0,0,0,-1,1231,1520,0,0
14,-496,0,0,0,0,0,0,0,0,0,-1,1238,1520,0,0
21,-496,0,0,0,0,0,0,0,0,0,-1,1245,1520,0,0
28,-496,0,0,0,0,0,0,0,0,0,-1,1252,1520,0,0
35,-496,0,0,0,0,0,0,0,0,0,-1,1259,1520,0,0
42,-496,0,0,0,0,0,0,0,0,0,-1,1266,1520,0,0
49,-496,0,0,0,0,0,0,0,0,0,-1,1273,1520,0,0
56,-496,0,0,0,0,0,0,0,0,0,-1,1280,1520,0,0
63,-496,0,0,0,0,0,0,0,0,0,-1,1287,1520,0,0
70,-496,0,0,0,0,0,0,0,0,0,-1,1294,1520,0,0
77,-496,0,0,0,0,0,0,0,0,0,-1,1301,1520,0,0
84,-496,0,0,0,0,0,0,0,0,0,-1,1308,1520,0,0
91,-496,0,0,0,0,0,0,0,0,0,-1,1315,1520,0,0
98,-496,0,0,0,0,0,0,0,0,0,-1,1322,1520,0,0
105,-496,0,0,0,0,0,0,0,0,0,-1,1329,1520,0,0
112,-496,0,0,0,0,0,0,0,0,0,-1,1336,1520,0,0
119,-496,0,0,0,0,0,0,0,0,0,-1,1343,1520,0,0
126,-496,0,0,0,0,0,0,0,0,0,-1,1350,1520,0,0
133,-496,0,0,0,0,0,0,0,0,0,-1,1357,1520,0,0
140,-496,0,0,0,0,0,0,0,0,0,-1,1364,1520,0,0
147,-496,0,0,0,0,0,0,0,0,0,-1,1371,1520,0,0
154,-496,0,0,0,0,0,0,0,0,0,-1,1378,1520,0,0
161,-496,0,0,0,0,0,0,0,0,0,-1,1385,1520,0,0
168,-496,0,0,0,0,0,0,0,0,0,-1,1392,1520,0,0
175,-496,0,0,0,0,0,0,0,0,0,-1,1399,1520,0,0
182,-496,0,0,0,0,0,0,0,0,0,-1,1406,1520,0,0
189,-496,0,0,0,0,0,0,0,0,0,-1,1413,1520,0,0
196,-496,0,0,0,0,0,0,0,0,0,-1,1420,1520,0,0
203,-496,0,0,0,0,0,0,0,0,0,-1,1427,1520,0,0
210,-496,0,0,0,0,0,0,0,0,0,-1,1434,1520,0,0
217,-496,0,0,0,0,0,0,0,0,0,-1,1441,1520,0,0
224,-496,0,0,0,0,0,0,0,0,0,-1,1448,1520,0,0
231,-496,0,0,0,0,0,0,0,0,0,-1,1455,1520,0,0
238,-496,0,0,0,0,0,0,0,0,0,-1,1462,1520,0,0
245,-496,0,0,0,0,0,0,0,0,0,-1,1469,1520,0,0
252,-496,0,0,0,0,0,0,0,0,0,-1,1476,1520,0,0
259,-496,0,0,0,0,0,0,0,0,0,-1,1483,1520,0,0
266,-496,0,0,0,0,0,0,0,0,0,-1,1490,1520,0,0
273,-496,0,0,0,0,0,0,0,0,0,-1,1497,1520,0,0
280,-496,0,0,0,0,0,0,0,0,0,-1,1504,1520,0,0
287,-496,0,0,0,0,0,0,0,0,0,-1,1511,1520,0,0
294,-496,0,0,0,0,0,0,0,0,0,-1,1518,1520,0,0
301,-496,0,0,0,0,0,0,0,0,0,-1,1525,1520,0,0
308,-496,0,0,0,0,0,0,0,0,0,-1,1532,1520,0,0
315,-496,0,0,0,0,0,0,0,0,0,-1,1539,1520,0,0
322,-496,0,0,0,0,0,0,0,0,0,-1,1546,1520,0,0
329,-496,0,0,0,0,0,0,0,0,0,-1,1553,1520,0,0
336,-496,0,0,0,0,0,0,0,0,0,-1,1560,1520,0,0
343,-496,0,0,0,0,0,0,0,0,0,-1,1567,1520,0,0
350,-496,0,0,0,0,0,0,0,0,0,-1,1574,1520,0,0
357,-496,0,0,0,0,0,0,0,0,0,-1,1581,1520,0,0
364,-496,0,0,0,0,0,0,0,0,0,-1,1588,1520,0,0
371,-496,0,0,0,0,0,0,0,0,0,-1,1595,1520,0,0
378,-496,0,0,0,0,0,0,0,0,0,-1,1602,1520,0,0
385,-496,0,0,0,0,0,0,0,0,0,-1,1609,1520,0,0
392,-496,0,0,0,0,0,0,0,0,0,-1,1616,1520,0,0
399,-496,0,0,0,0,0,0,0,0,0,-1,1623,1520,0,0
406,-496,0,0,0,0,0,0,0,0,0,-1,1630,1520,0,0
413,-496,0,0,0,0,0,0,0,0,0,-1,1637,1520,0,0
420,-496,0,0,0,0,0,0,0,0,0,-1,1644,1520,0,0
427,-496,0,0,0,0,0,0,0,0,0,-1,1651,1520,0,0
434,-496,11.0457,3.37732,0,0,0,0,0,0,0,-1,1658,1520,11.0456,-3.37736
441,-496,11.788,2.75488,0,0,0,0,0,0,0,-1,1665,1520,11.7879,-2.75485
448,-496,12.2146,2.18494,0,0,0,0,0,0,0,-1,1672,1520,12.2146,-2.18489
455,-496,12.3489,1.65173,0,0,0,0,0,0,0,-1,1679,1520,12.3489,-1.65178
462,-496,12.1912,1.32361,0,0,0,0,0,0,0,-1,1686,1520,12.1911,-1.32357
469,-496,14.8138,5.77954,0,0,0,0,0,0,0,-1,1693,1520,14.8138,-5.77958
476,-496,15.2449,6.27942,0,0,0,0,0,0,0,-1,1700,1520,15.2449,-6.27936
483,-496,9.19812,6.88367,0,0,0,0,0,0,0,-1,1707,1520,9.19812,-6.88361
490,-496,10.2123,7.97144,0,0,0,0,0,0,0,-1,1714,1520,10.2122,-7.97145
497,-496,13.9297,12.2981,0,0,0,0,0,0,0,-1,1721,1520,13.9297,-12.2982
504,-496,16.3271,16.6501,0,0,0,0,0,0,0,-1,1728,1520,16.3272,-16.6502
511,-496,17.6753,18.0685,0,0,0,0,0,0,0,-1,1735,1520,17.6753,-18.0685
518,-496,17.0537,17.3118,0,0,0,0,0,0,0,-1,1742,1520,17.0538,-17.3118
525,-496,18.2721,19.3259,0,0,0,0,0,0,0,-1,1749,1520,18.2721,-19.3259
532,-496,21.7008,23.4019,0,0,0,0,0,0,0,-1,1756,1520,21.7008,-23.4019
539,-496,21.3778,23.3151,0,0,0,0,0,0,0,-1,1763,1520,21.3778,-23.315
546,-496,21.5027,22.6719,0.00689924,0.00489678,-0.00410378,0.0101222,0.00167385,-0.665747,0.00626514,0.0175924,1770,1520,21.5027,-22.6718
553,-496,21.5942,22.0481,0.00554502,0.00372424,-0.00306971,0.00783649,0.00143277,-0.641244,0.00481828,0.015418,1777,1520,21.5942,-22.0481
560,-496,21.6036,21.5355,0.00449458,0.00283675,-0.00232777,0.00613662,0.00119471,-0.61435,0.00375671,0.0145195,1784,1520,21.6037,-21.5355
567,-496,21.6085,20.9893,0.00375423,0.00224204,-0.00191249,0.00505466,0.000941605,-0.597155,0.00310388,0.0116013,1791,1520,21.6086,-20.9893
574,-496,21.5797,20.4559,0.00322202,0.00185888,-0.00169058,0.00436325,0.000717659,-0.593785,0.00270158,0.0120776,1798,1520,21.5798,-20.4559
581,-496,21.5613,19.9417,0.00280848,0.00154437,-0.00153824,0.00383946,0.000513399,-0.590466,0.00240683,0.0126574,1805,1520,21.5612,-19.9416
588,-496,21.5546,19.421,0.0026364,0.00136571,-0.00151312,0.00364215,0.000359957,-0.586631,0.00231745,0.0151389,1812,1520,21.5545,-19.421
595,-496,21.5176,18.9041,0.00274778,0.00113569,-0.00151284,0.00365591,0.00022756,-0.540626,0.00236507,0.0169274,1819,1520,21.5176,-18.904
602,-496,21.4877,18.3578,0.00296962,0.00104797,-0.00158968,0.00386629,0.000151305,-0.51357,0.0025286,0.0181884,1826,1520,21.4877,-18.3578
609,-496,21.4994,17.8042,0.00334558,0.000901071,-0.00162528,0.00415691,8.97448e-05,-0.463,0.00274185,0.016688,1833,1520,21.4993,-17.8042
616,-496,21.5834,17.1676,0.00425468,0.000545086,-0.00160712,0.00485408,-5.43215e-05,-0.356989,0.00325431,0.0378253,1840,1520,21.5833,-17.1676
623,-496,21.5076,16.3575,0,0,0,0,0,0,0,-1,1847,1520,21.5076,-16.3575
630,-496,18.5656,13.8966,0,0,0,0,0,0,0,-1,1854,1520,18.5655,-13.8967
637,-496,14.6411,10.1016,0,0,0,0,0,0,0,-1,1861,1520,14.6411,-10.1016
644,-496,12.4537,10.087,0,0,0,0,0,0,0,-1,1868,1520,12.4537,-10.0871
651,-496,8.18506,5.47803,0,0,0,0,0,0,0,-1,1875,1520,8.18505,-5.47806
658,-496,7.79993,4.02563,0,0,0,0,0,0,0,-1,1882,1520,7.79997,-4.02568
665,-496,5.47583,7.90625,0,0,0,0,0,0,0,-1,1889,1520,5.47581,-7.90628
672,-496,0,0,0,0,0,0,0,0,0,-1,1896,1520,0,0
679,-496,0,0,0,0,0,0,0,0,0,-1,1903,1520,0,0
686,-496,0,0,0,0,0,0,0,0,0,-1,1910,1520,0,0
693,-496,0,0,0,0,0,0,0,0,0,-1,1917,1520,0,0
700,-496,0,0,0,0,0,0,0,0,0,-1,1924,1520,0,0
707,-496,0,0,0,0,0,0,0,0,0,-1,1931,1520,0,0
714,-496,0,0,0,0,0,0,0,0,0,-1,1938,1520,0,0
721,-496,0,0,0,0,0,0,0,0,0,-1,1945,1520,0,0
728,-496,0,0,0,0,0,0,0,0,0,-1,1952,1520,0,0
735,-496,0,0,0,0,0,0,0,0,0,-1,1959,1520,0,0
742,-496,0,0,0,0,0,0,0,0,0,-1,1966,1520,0,0
749,-496,0,0,0,0,0,0,0,0,0,-1,1973,1520,0,0
756,-496,0,0,0,0,0,0,0,0,0,-1,1980,1520,0,0
763,-496,0,0,0,0,0,0,0,0,0,-1,1987,1520,0,0
770,-496,0,0,0,0,0,0,0,0,0,-1,1994,1520,0,0
777,-496,0,0,0,0,0,0,0,0,0,-1,2001,1520,0,0
784,-496,0,0,0,0,0,0,0,0,0,-1,2008,1520,0,0
791,-496,0,0,0,0,0,0,0,0,0,-1,2015,1520,0,0
798,-496,0,0,0,0,0,0,0,0,0,-1,2022,1520,0,0
805,-496,0,0,0,0,0,0,0,0,0,-1,2029,1520,0,0
812,-496,0,0,0,0,0,0,0,0,0,-1,2036,1520,0,0
-700,-503,0,0,0,0,0,0,0,0,0,-1,524,1527,0,0
-693,-503,0,0,0,0,0,0,0,0,0,-1,531,1527,0,0
-686,-503,0,0,0,0,0,0,0,0,0,-1,538,1527,0,0
-679,-503,0,0,0,0,0,0,0,0,0,-1,545,1527,0,0
-672,-503,0,0,0,0,0,0,0,0,0,-1,552,1527,0,0
-665,-503,0,0,0,0,0,0,0,0,0,-1,559,1527,0,0
-658,-503,0,0,0,0,0,0,0,0,0,-1,566,1527,0,0
-651,-503,0,0,0,0,0,0,0,0,0,-1,573,1527,0,0
-644,-503,0,0,0,0,0,0,0,0,0,-1,580,1527,0,0
-637,-503,0,0,0,0,0,0,0,0,0,-1,587,1527,0,0
-630,-503,0,0,0,0,0,0,0,0,0,-1,594,1527,0,0
-623,-503,0,0,0,0,0,0,0,0,0,-1,601,1527,0,0
-616,-503,0,0,0,0,0,0,0,0,0,-1,608,1527,0,0
-609,-503,0,0,0,0,0,0,0,0,0,-1,615,1527,0,0
-602,-503,0,0,0,0,0,0,0,0,0,-1,622,1527,0,0
-595,-503,0,0,0,0,0,0,0,0,0,-1,629,1527,0,0
-588,-503,0,0,0,0,0,0,0,0,0,-1,636,1527,0,0
-581,-503,0,0,0,0,0,0,0,0,0,-1,643,1527,0,0
-574,-503,0,0,0,0,0,0,0,0,0,-1,650,1527,0,0
-567,-503,0,0,0,0,0,0,0,0,0,-1,657,1527,0,0
-560,-503,0,0,0,0,0,0,0,0,0,-1,664,1527,0,0
-553,-503,0,0,0,0,0,0,0,0,0,-1,671,1527,0,0
-546,-503,0,0,0,0,0,0,0,0,0,-1,678,1527,0,0
-539,-503,3.50177,4.26428,0,0,0,0,0,0,0,-1,685,1527,3.50177,-4.26424
-532,-503,-3.13196,1.05298,0,0,0,0,0,0,0,-1,692,1527,-3.13194,-1.05299
-525,-503,-2.94293,2.59314,0,0,0,0,0,0,0,-1,699,1527,-2.94296,-2.59314
-518,-503,-2.7395,4.05872,0,0,0,0,0,0,0,-1,706,1527,-2.73948,-4.05871
-511,-503,-1.60022,7.23877,0,0,0,0,0,0,0,-1,713,1527,-1.60023,-7.23872
-504,-503,-8.1402,10.1541,0,0,0,0,0,0,0,-1,720,1527,-8.14017,-10.1541
-497,-503,-4.51758,14.0781,0,0,0,0,0,0,0,-1,727,1527,-4.5176,-14.0782
-490,-503,-4.28577,15.8732,0,0,0,0,0,0,0,-1,734,1527,-4.28578,-15.8731
-483,-503,-4.94611,15.8439,0,0,0,0,0,0,0,-1,741,1527,-4.94613,-15.8439
-476,-503,-4.91315,16.4344,-0.00935516,-0.000407318,-0.00530409,0.00205773,-0.0118202,-1.13575,0.00864804,0.0283614,748,1527,-4.91316,-16.4344
-469,-503,-5.03564,16.9481,-0.00706592,-0.000191892,-0.00410727,0.00172672,-0.00898453,-1.13379,0.00664052,0.0111694,755,1527,-5.03566,-16.9482
-462,-503,-5.06781,17.5458,-0.00500906,0.000180496,-0.00286528,0.0014513,-0.00627986,-1.15335,0.00474491,0.0120624,762,1527,-5.06781,-17.5457
-455,-503,-5.07129,18.1287,-0.00319187,0.0005335,-0.00172455,0.00120926,-0.00386762,-1.19734,0.00306215,0.018795,769,1527,-5.07131,-18.1287
-448,-503,-5.06787,18.7142,-0.00151112,0.000993077,-0.000568454,0.00111608,-0.00163412,-1.35771,0.00159719,0.0177035,776,1527,-5.06785,-18.7143
-441,-503,-5.07678,19.2623,0.000123318,0.00163659,0.000661247,0.00188481,-0.000124908,1.21168,0.00130018,0.01411,783,1527,-5.07679,-19.2623
-434,-503,-5.11957,19.7992,0.00170199,0.00253355,0.00199315,0.00415383,8.17147e-05,0.888226,0.00274239,0.011987,790,1527,-5.11959,-19.7992
-427,-503,-5.19513,20.3323,0.00323585,0.00351886,0.0032994,0.00667979,7.49233e-05,0.806829,0.00442843,0.0185992,797,1527,-5.19515,-20.3323
-420,-503,-5.14893,20.8953,0.00475145,0.00475238,0.00473759,0.0094895,1.43298e-05,0.785448,0.00632156,0.0191019,804,1527,-5.14892,-20.8953
-413,-503,-5.15302,21.4796,0.0064015,0.00632636,0.00631325,0.0126773,5.05713e-05,0.782423,0.00843472,0.0164862,811,1527,-5.15303,-21.4797
-406,-503,-5.16235,22.0289,0.00805445,0.00843527,0.00824821,0.0164953,-5.54882e-06,0.796939,0.0109987,0.0248781,818,1527,-5.16234,-22.029
-399,-503,-5.0274,22.7904,0.0097795,0.011799,0.0103671,0.0212054,0.000373093,0.833945,0.0140142,0.0410796,825,1527,-5.02737,-22.7904
-392,-503,-4.69409,23.7761,0,0,0,0,0,0,0,-1,832,1527,-4.69406,-23.7761
-385,-503,-2.00403,14.1218,0,0,0,0,0,0,0,-1,839,1527,-2.00403,-14.1218
-378,-503,-2.07043,13.8632,0,0,0,0,0,0,0,-1,846,1527,-2.07043,-13.8631
-371,-503,-1.67285,13.8081,0,0,0,0,0,0,0,-1,853,1527,-1.67285,-13.8081
-364,-503,0.181396,12.3768,0,0,0,0,0,0,0,-1,860,1527,0.18138,-12.3768
-357,-503,0.558533,9.25452,0,0,0,0,0,0,0,-1,867,1527,0.558542,-9.25446
-350,-503,0.219971,6.84827,0,0,0,0,0,0,0,-1,874,1527,0.21996,-6.84831
-343,-503,-3.5802,4.43274,0,0,0,0,0,0,0,-1,881,1527,-3.58018,-4.43276
-336,-503,-3.2384,6.40637,0,0,0,0,0,0,0,-1,888,1527,-3.2384,-6.40643
-329,-503,-1.70691,11.886,0,0,0,0,0,0,0,-1,895,1527,-1.70689,-11.886
-322,-503,-3.31317,8.81519,0,0,0,0,0,0,0,-1,902,1527,-3.31315,-8.81524
-315,-503,-3.90265,7.73853,0,0,0,0,0,0,0,-1,909,1527,-3.90264,-7.73854
-308,-503,-1.70264,7.35413,0,0,0,0,0,0,0,-1,916,1527,-1.70262,-7.35416
-301,-503,0,0,0,0,0,0,0,0,0,-1,923,1527,0,0
-294,-503,0,0,0,0,0,0,0,0,0,-1,930,1527,0,0
-287,-503,0,0,0,0,0,0,0,0,0,-1,937,1527,0,0
-280,-503,0,0,0,0,0,0,0,0,0,-1,944,1527,0,0
-273,-503,0,0,0,0,0,0,0,0,0,-1,951,1527,0,0
-266,-503,0,0,0,0,0,0,0,0,0,-1,958,1527,0,0
-259,-503,0,0,0,0,0,0,0,0,0,-1,965,1527,0,0
-252,-503,0,0,0,0,0,0,0,0,0,-1,972,1527,0,0
-245,-503,0,0,0,0,0,0,0,0,0,-1,979,1527,0,0
-238,-503,0,0,0,0,0,0,0,0,0,-1,986,1527,0,0
-231,-503,0,0,0,0,0,0,0,0,0,-1,993,1527,0,0
-224,-503,0,0,0,0,0,0,0,0,0,-1,1000,1527,0,0
-217,-503,0,0,0,0,0,0,0,0,0,-1,1007,1527,0,0
-210,-503,0,0,0,0,0,0,0,0,0,-1,1014,1527,0,0
-203,-503,0,0,0,0,0,0,0,0,0,-1,1021,1527,0,0
-196,-503,0,0,0,0,0,0,0,0,0,-1,1028,1527,0,0
-189,-503,0,0,0,0,0,0,0,0,0,-1,1035,1527,0,0
-182,-503,0,0,0,0,0,0,0,0,0,-1,1042,1527,0,0
-175,-503,0,0,0,0,0,0,0,0,0,-1,1049,1527,0,0
-168,-503,0,0,0,0,0,0,0,0,0,-1,1056,1527,0,0
-161,-503,0,0,0,0,0,0,0,0,0,-1,1063,1527,0,0
-154,-503,0,0,0,0,0,0,0,0,0,-1,1070,1527,0,0
-147,-503,0,0,0,0,0,0,0,0,0,-1,1077,1527,0,0
-140,-503,0,0,0,0,0,0,0,0,0,-1,1084,1527,0,0
-133,-503,0,0,0,0,0,0,0,0,0,-1,1091,1527,0,0
-126,-503,0,0,0,0,0,0,0,0,0,-1,1098,1527,0,0
-119,-503,0,0,0,0,0,0,0,0,0,-1,1105,1527,0,0
-112,-503,0,0,0,0,0,0,0,0,0,-1,1112,1527,0,0
-105,-503,0,0,0,0,0,0,0,0,0,-1,1119,1527,0,0
-98,-503,0,0,0,0,0,0,0,0,0,-1,1126,1527,0,0
-91,-503,0,0,0,0,0,0,0,0,0,-1,1133,1527,0,0
-84,-503,0,0,0,0,0,0,0,0,0,-1,1140,1527,0,0
-77,-503,0,0,0,0,0,0,0,0,0,-1,1147,1527,0,0
-70,-503,0,0,0,0,0,0,0,0,0,-1,1154,1527,0,0
-63,-503,0,0,0,0,0,0,0,0,0,-1,1161,1527,0,0
-56,-503,0,0,0,0,0,0,0,0,0,-1,1168,1527,0,0
-49,-503,0,0,0,0,0,0,0,0,0,-1,1175,1527,0,0
-42,-503,0,0,0,0,0,0,0,0,0,-1,1182,1527,0,0
-35,-503,0,0,0,0,0,0,0,0,0,-1,1189,1527,0,0
-28,-503,0,0,0,0,0,0,0,0,0,-1,1196,1527,0,0
-21,-503,0,0,0,0,0,0,0,0,0,-1,1203,1527,0,0
-14,-503,0,0,0,0,0,0,0,0,0,-1,1210,1527,0,0
-7,-503,0,0,0,0,0,0,0,0,0,-1,1217,1527,0,0
0,-503,0,0,0,0,0,0,0,0,0,-1,1224,1527,0,0
7,-503,0,0,0,0,0,0,0,0,0,-1,1231,1527,0,0
14,-503,0,0,0,0,0,0,0,0,0,-1,1238,1527,0,0
21,-503,0,0,0,0,0,0,0,0,0,-1,1245,1527,0,0
28,-503,0,0,0,0,0,0,0,0,0,-1,1252,1527,0,0
35,-503,0,0,0,0,0,0,0,0,0,-1,1259,1527,0,0
42,-503,0,0,0,0,0,0,0,0,0,-1,1266,1527,0,0
49,-503,0,0,0,0,0,0,0,0,0,-1,1273,1527,0,0
56,-503,0,0,0,0,0,0,0,0,0,-1,1280,1527,0,0
63,-503,0,0,0,0,0,0,0,0,0,-1,1287,1527,0,0
70,-503,0,0,0,0,0,0,0,0,0,-1,1294,1527,0,0
77,-503,0,0,0,0,0,0,0,0,0,-1,1301,1527,0,0
84,-503,0,0,0,0,0,0,0,0,0,-1,1308,1527,0,0
91,-503,0,0,0,0,0,0,0,0,0,-1,1315,1527,0,0
98,-503,0,0,0,0,0,0,0,0,0,-1,1322,1527,0,0
105,-503,0,0,0,0,0,0,0,0,0,-1,1329,1527,0,0
112,-503,0,0,0,0,0,0,0,0,0,-1,1336,1527,0,0
119,-503,0,0,0,0,0,0,0,0,0,-1,1343,1527,0,0
126,-503,0,0,0,0,0,0,0,0,0,-1,1350,1527,0,0
133,-503,0,0,0,0,0,0,0,0,0,-1,1357,1527,0,0
140,-503,0,0,0,0,0,0,0,0,0,-1,1364,1527,0,0
147,-503,0,0,0,0,0,0,0,0,0,-1,1371,1527,0,0
154,-503,0,0,0,0,0,0,0,0,0,-1,1378,1527,0,0
161,-503,0,0,0,0,0,0,0,0,0,-1,1385,1527,0,0
168,-503,0,0,0,0,0,0,0,0,0,-1,1392,1527,0,0
175,-503,0,0,0,0,0,0,0,0,0,-1,1399,1527,0,0
182,-503,0,0,0,0,0,0,0,0,0,-1,1406,1527,0,0
189,-503,0,0,0,0,0,0,0,0,0,-1,1413,1527,0,0
196,-503,0,0,0,0,0,0,0,0,0,-1,1420,1527,0,0
203,-503,0,0,0,0,0,0,0,0,0,-1,1427,1527,0,0
210,-503,0,0,0,0,0,0,0,0,0,-1,1434,1527,0,0
217,-503,0,0,0,0,0,0,0,0,0,-1,1441,1527,0,0
224,-503,0,0,0,0,0,0,0,0,0,-1,1448,1527,0,0
231,-503,0,0,0,0,0,0,0,0,0,-1,1455,1527,0,0
238,-503,0,0,0,0,0,0,0,0,0,-1,1462,1527,0,0
245,-503,0,0,0,0,0,0,0,0,0,-1,1469,1527,0,0
252,-503,0,0,0,0,0,0,0,0,0,-1,1476,1527,0,0
259,-503,0,0,0,0,0,0,0,0,0,-1,1483,1527,0,0
266,-503,0,0,0,0,0,0,0,0,0,-1,1490,1527,0,0
273,-503,0,0,0,0,0,0,0,0,0,-1,1497,1527,0,0
280,-503,0,0,0,0,0,0,0,0,0,-1,1504,1527,0,0
287,-503,0,0,0,0,0,0,0,0,0,-1,1511,1527,0,0
294,-503,0,0,0,0,0,0,0,0,0,-1,1518,1527,0,0
301,-503,0,0,0,0,0,0,0,0,0,-1,1525,1527,0,0
308,-503,0,0,0,0,0,0,0,0,0,-1,1532,1527,0,0
315,-503,0,0,0,0,0,0,0,0,0,-1,1539,1527,0,0
322,-503,0,0,0,0,0,0,0,0,0,-1,1546,1527,0,0
329,-503,0,0,0,0,0,0,0,0,0,-1,1553,1527,0,0
336,-503,0,0,0,0,0,0,0,0,0,-1,1560,1527,0,0
343,-503,0,0,0,0,0,0,0,0,0,-1,1567,1527,0,0
350,-503,0,0,0,0,0,0,0,0,0,-1,1574,1527,0,0
357,-503,0,0,0,0,0,0,0,0,0,-1,1581,1527,0,0
364,-503,0,0,0,0,0,0,0,0,0,-1,1588,1527,0,0
371,-503,0,0,0,0,0,0,0,0,0,-1,1595,1527,0,0
378,-503,0,0,0,0,0,0,0,0,0,-1,1602,1527,0,0
385,-503,0,0,0,0,0,0,0,0,0,-1,1609,1527,0,0
392,-503,0,0,0,0,0,0,0,0,0,-1,1616,1527,0,0
399,-503,0,0,0,0,0,0,0,0,0,-1,1623,1527,0,0
406,-503,0,0,0,0,0,0,0,0,0,-1,1630,1527,0,0
413,-503,0,0,0,0,0,0,0,0,0,-1,1637,1527,0,0
420,-503,0,0,0,0,0,0,0,0,0,-1,1644,1527,0,0
427,-503,10.5968,4.9856,0,0,0,0,0,0,0,-1,1651,1527,10.5969,-4.98563
434,-503,11.4329,3.97217,0,0,0,0,0,0,0,-1,1658,1527,11.4328,-3.97222
441,-503,12.0957,2.96509,0,0,0,0,0,0,0,-1,1665,1527,12.0957,-2.96512
448,-503,12.3259,2.53894,0,0,0,0,0,0,0,-1,1672,1527,12.326,-2.53895
455,-503,12.1669,2.18762,0,0,0,0,0,0,0,-1,1679,1527,12.1668,-2.18767
462,-503,11.59,2.60791,0,0,0,0,0,0,0,-1,1686,1527,11.5899,-2.60794
469,-503,11.1625,1.61853,0,0,0,0,0,0,0,-1,1693,1527,11.1625,-1.61856
476,-503,9.07703,5.81042,0,0,0,0,0,0,0,-1,1700,1527,9.07699,-5.81047
483,-503,9.74414,6.92432,0,0,0,0,0,0,0,-1,1707,1527,9.74417,-6.9243
490,-503,10.5033,10.1071,0,0,0,0,0,0,0,-1,1714,1527,10.5032,-10.107
497,-503,15.0057,17.9476,0,0,0,0,0,0,0,-1,1721,1527,15.0058,-17.9476
504,-503,16.4764,18.4486,0,0,0,0,0,0,0,-1,1728,1527,16.4764,-18.4486
511,-503,16.8276,18.3271,0,0,0,0,0,0,0,-1,1735,1527,16.8276,-18.3272
518,-503,17.2533,18.2738,0,0,0,0,0,0,0,-1,1742,1527,17.2533,-18.2738
525,-503,21.2524,24.1283,0,0,0,0,0,0,0,-1,1749,1527,21.2525,-24.1282
532,-503,21.0133,23.7697,0,0,0,0,0,0,0,-1,1756,1527,21.0134,-23.7696
539,-503,21.021,23.1892,0.00710347,0.00551282,-0.00468392,0.0110591,0.00155719,-0.701301,0.00691239,0.021954,1763,1527,21.021,-23.1892
546,-503,21.0638,22.5732,0.00565425,0.00411637,-0.00344147,0.00841163,0.00135899,-0.675487,0.00521413,0.0127809,1770,1527,21.0638,-22.5732
553,-503,21.072,22.082,0.00450048,0.0030565,-0.00251306,0.00639321,0.00116377,-0.645518,0.00393205,0.0144508,1777,1527,21.072,-22.0821
560,-503,21.0575,21.5613,0.00365452,0.00226593,-0.00185579,0.00494164,0.000978803,-0.606398,0.00302148,0.013636,1784,1527,21.0575,-21.5612
567,-503,21.0852,21.007,0.00313198,0.00180352,-0.00155411,0.00415786,0.00077764,-0.583448,0.00255249,0.0116267,1791,1527,21.0852,-21.0069
574,-503,21.0737,20.4746,0.00280241,0.00154865,-0.00144221,0.00374809,0.000602974,-0.580384,0.00232396,0.0118166,1798,1527,21.0737,-20.4746
581,-503,21.0259,19.9537,0.00261835,0.00139278,-0.00143438,0.00356536,0.000445767,-0.583527,0.00224313,0.0125299,1805,1527,21.0259,-19.9537
588,-503,21.001,19.444,0.00268637,0.00142594,-0.00159487,0.00377103,0.000341284,-0.597239,0.00240833,0.0150902,1812,1527,21.001,-19.4439
595,-503,20.9734,18.9049,0.00303417,0.00145758,-0.0018175,0.00422697,0.000264784,-0.58078,0.002734,0.0120113,1819,1527,20.9733,-18.9049
602,-503,21.0227,18.3224,0.00351761,0.00169558,-0.0021462,0.00493814,0.000275049,-0.584683,0.00320435,0.0259428,1826,1527,21.0227,-18.3224
609,-503,21.0304,17.8092,0,0,0,0,0,0,0,-1,1833,1527,21.0304,-17.8093
616,-503,21.1521,17.2634,0,0,0,0,0,0,0,-1,1840,1527,21.1521,-17.2635
623,-503,18.7351,15.5999,0,0,0,0,0,0,0,-1,1847,1527,18.7351,-15.5999
630,-503,20.6721,13.9077,0,0,0,0,0,0,0,-1,1854,1527,20.6721,-13.9077
637,-503,14.5564,9.20496,0,0,0,0,0,0,0,-1,1861,1527,14.5564,-9.2049
644,-503,11.4802,7.57214,0,0,0,0,0,0,0,-1,1868,1527,11.4802,-7.57215
651,-503,11.5718,6.5448,0,0,0,0,0,0,0,-1,1875,1527,11.5718,-6.54476
658,-503,8.25635,3.10498,0,0,0,0,0,0,0,-1,1882,1527,8.2563,-3.10493
665,-503,0,0,0,0,0,0,0,0,0,-1,1889,1527,0,0
672,-503,0,0,0,0,0,0,0,0,0,-1,1896,1527,0,0
679,-503,0,0,0,0,0,0,0,0,0,-1,1903,1527,0,0
686,-503,0,0,0,0,0,0,0,0,0,-1,1910,1527,0,0
693,-503,0,0,0,0,0,0,0,0,0,-1,1917,1527,0,0
700,-503,0,0,0,0,0,0,0,0,0,-1,1924,1527,0,0
707,-503,0,0,0,0,0,0,0,0,0,-1,1931,1527,0,0
714,-503,0,0,0,0,0,0,0,0,0,-1,1938,1527,0,0
721,-503,0,0,0,0,0,0,0,0,0,-1,1945,1527,0,0
728,-503,0,0,0,0,0,0,0,0,0,-1,1952,1527,0,0
735,-503,0,0,0,0,0,0,0,0,0,-1,1959,1527,0,0
742,-503,0,0,0,0,0,0,0,0,0,-1,1966,1527,0,0
749,-503,0,0,0,0,0,0,0,0,0,-1,1973,1527,0,0
756,-503,0,0,0,0,0,0,0,0,0,-1,1980,1527,0,0
763,-503,0,0,0,0,0,0,0,0,0,-1,1987,1527,0,0
770,-503,0,0,0,0,0,0,0,0,0,-1,1994,1527,0,0
777,-503,0,0,0,0,0,0,0,0,0,-1,2001,1527,0,0
784,-503,0,0,0,0,0,0,0,0,0,-1,2008,1527,0,0
791,-503,0,0,0,0,0,0,0,0,0,-1,2015,1527,0,0
798,-503,0,0,0,0,0,0,0,0,0,-1,2022,1527,0,0
805,-503,0,0,0,0,0,0,0,0,0,-1,2029,1527,0,0
812,-503,0,0,0,0,0,0,0,0,0,-1,2036,1527,0,0
-700,-510,0,0,0,0,0,0,0,0,0,-1,524,1534,0,0
-693,-510,0,0,0,0,0,0,0,0,0,-1,531,1534,0,0
-686,-510,0,0,0,0,0,0,0,0,0,-1,538,1534,0,0
-679,-510,0,0,0,0,0,0,0,0,0,-1,545,1534,0,0
-672,-510,0,0,0,0,0,0,0,0,0,-1,552,1534,0,0
-665,-510,0,0,0,0,0,0,0,0,0,-1,559,1534,0,0
-658,-510,0,0,0,0,0,0,0,0,0,-1,566,1534,0,0
-651,-510,0,0,0,0,0,0,0,0,0,-1,573,1534,0,0
-644,-510,0,0,0,0,0,0,0,0,0,-1,580,1534,0,0
-637,-510,0,0,0,0,0,0,0,0,0,-1,587,1534,0,0
-630,-510,0,0,0,0,0,0,0,0,0,-1,594,1534,0,0
-623,-510,0,0,0,0,0,0,0,0,0,-1,601,1534,0,0
-616,-510,0,0,0,0,0,0,0,0,0,-1,608,1534,0,0
-609,-510,0,0,0,0,0,0,0,0,0,-1,615,1534,0,0
-602,-510,0,0,0,0,0,0,0,0,0,-1,622,1534,0,0
-595,-510,0,0,0,0,0,0,0,0,0,-1,629,1534,0,0
-588,-510,0,0,0,0,0,0,0,0,0,-1,636,1534,0,0
-581,-510,0,0,0,0,0,0,0,0,0,-1,643,1534,0,0
-574,-510,0,0,0,0,0,0,0,0,0,-1,650,1534,0,0
-567,-510,0,0,0,0,0,0,0,0,0,-1,657,1534,0,0
-560,-510,0,0,0,0,0,0,0,0,0,-1,664,1534,0,0
-553,-510,0,0,0,0,0,0,0,0,0,-1,671,1534,0,0
-546,-510,0,0,0,0,0,0,0,0,0,-1,678,1534,0,0
-539,-510,0,0,0,0,0,0,0,0,0,-1,685,1534,0,0
-532,-510,-3.95129,4.52014,0,0,0,0,0,0,0,-1,692,1534,-3.95131,-4.5202
-525,-510,-2.77411,0.316772,0,0,0,0,0,0,0,-1,699,1534,-2.77409,-0.3168
-518,-510,-2.86847,2.71423,0,0,0,0,0,0,0,-1,706,1534,-2.86849,-2.71424
-511,-510,-2.28571,4.48083,0,0,0,0,0,0,0,-1,713,1534,-2.28571,-4.48086
-504,-510,-4.86731,10.8224,0,0,0,0,0,0,0,-1,720,1534,-4.8673,-10.8224
-497,-510,-3.57507,15.3401,0,0,0,0,0,0,0,-1,727,1534,-3.57509,-15.3401
-490,-510,-3.66638,15.5874,0,0,0,0,0,0,0,-1,734,1534,-3.6664,-15.5874
-483,-510,-3.77081,15.9476,-0.0150969,0.000231841,-0.00850583,0.004017,-0.0188821,-1.1521,0.0141188,0.0451189,741,1534,-3.77082,-15.9476
-476,-510,-4.15619,16.4059,-0.0116635,0.000521115,-0.00674656,0.00351904,-0.0146614,-1.15264,0.0111342,0.0398911,748,1534,-4.15619,-16.4059
-469,-510,-4.46069,16.9908,-0.00890278,0.000614002,-0.00527924,0.00296284,-0.0112516,-1.15218,0.00865933,0.0153768,755,1534,-4.46067,-16.9908
-462,-510,-4.487,17.5651,-0.00654438,0.000840729,-0.00384679,0.00248041,-0.00818406,-1.16787,0.00644398,0.0117962,762,1534,-4.48701,-17.5651
-455,-510,-4.50702,18.1582,-0.00452165,0.0010166,-0.00258804,0.00203773,-0.00554278,-1.19499,0.00452987,0.0144583,769,1534,-4.50702,-18.1582
-448,-510,-4.49677,18.7234,-0.00275471,0.00121909,-0.00142197,0.00167551,-0.00321113,-1.26021,0.00286736,0.0130762,776,1534,-4.49677,-18.7234
-441,-510,-4.52008,19.2612,-0.0011035,0.00159133,-0.000238451,0.00161227,-0.00112444,-1.48322,0.00158838,0.0138542,783,1534,-4.52008,-19.2612
-434,-510,-4.58936,19.8068,0.000460736,0.0022066,0.00100656,0.00266603,1.312e-06,1.14261,0.00177692,0.0157909,790,1534,-4.58933,-19.8067
-427,-510,-4.6438,20.3002,0.00197561,0.00291192,0.00219127,0.00468449,0.000203036,0.890639,0.00305756,0.0241626,797,1534,-4.64382,-20.3002
-420,-510,-4.62244,20.8975,0.00342505,0.00381878,0.00345929,0.0070868,0.000157026,0.813822,0.00467307,0.0230944,804,1534,-4.62245,-20.8975
-413,-510,-4.61121,21.5065,0.00492413,0.00506734,0.00481169,0.00980796,0.000183505,0.792838,0.00647834,0.0116063,811,1534,-4.61121,-21.5065
-406,-510,-4.65509,22.0208,0.00632616,0.00676482,0.00639088,0.0129401,0.000150849,0.802551,0.00857692,0.0107174,818,1534,-4.65508,-22.0207
-399,-510,-4.66974,22.557,0.00764941,0.00951236,0.0080006,0.0166355,0.000526243,0.84335,0.0109192,0.0147713,825,1534,-4.66972,-22.557
-392,-510,-4.47119,23.3499,0.0088002,0.0133964,0.00925232,0.0206317,0.00156484,0.907124,0.0132637,0.0446966,832,1534,-4.47122,-23.3499
-385,-510,-4.13184,24.2108,0,0,0,0,0,0,0,-1,839,1534,-4.13182,-24.2108
-378,-510,-1.78308,13.8044,0,0,0,0,0,0,0,-1,846,1534,-1.78309,-13.8044
-371,-510,-1.74982,13.8027,0,0,0,0,0,0,0,-1,853,1534,-1.74981,-13.8028
-364,-510,-1.3479,13.7771,0,0,0,0,0,0,0,-1,860,1534,-1.34791,-13.7771
-357,-510,-0.254395,8.89575,0,0,0,0,0,0,0,-1,867,1534,-0.254397,-8.89569
-350,-510,0.471191,6.06458,0,0,0,0,0,0,0,-1,874,1534,0.47118,-6.06453
-343,-510,-6.96869,26.3074,0,0,0,0,0,0,0,-1,881,1534,-6.9687,-26.3074
-336,-510,-5.76508,28.7972,0,0,0,0,0,0,0,-1,888,1534,-5.76506,-28.7972
-329,-510,-4.87781,20.6893,0,0,0,0,0,0,0,-1,895,1534,-4.87782,-20.6894
-322,-510,-0.251526,11.973,0,0,0,0,0,0,0,-1,902,1534,-0.251497,-11.9731
-315,-510,-1.73047,10.9796,0,0,0,0,0,0,0,-1,909,1534,-1.73049,-10.9796
-308,-510,-2.05328,9.72034,0,0,0,0,0,0,0,-1,916,1534,-2.05327,-9.72036
-301,-510,-1.85437,11.5869,0,0,0,0,0,0,0,-1,923,1534,-1.85437,-11.5869
-294,-510,0,0,0,0,0,0,0,0,0,-1,930,1534,0,0
-287,-510,0,0,0,0,0,0,0,0,0,-1,937,1534,0,0
-280,-510,0,0,0,0,0,0,0,0,0,-1,944,1534,0,0
-273,-510,0,0,0,0,0,0,0,0,0,-1,951,1534,0,0
-266,-510,0,0,0,0,0,0,0,0,0,-1,958,1534,0,0
-259,-510,0,0,0,0,0,0,0,0,0,-1,965,1534,0,0
-252,-510,0,0,0,0,0,0,0,0,0,-1,972,1534,0,0
-245,-510,0,0,0,0,0,0,0,0,0,-1,979,1534,0,0
-238,-510,0,0,0,0,0,0,0,0,0,-1,986,1534,0,0
-231,-510,0,0,0,0,0,0,0,0,0,-1,993,1534,0,0
-224,-510,0,0,0,0,0,0,0,0,0,-1,1000,1534,0,0
-217,-510,0,0,0,0,0,0,0,0,0,-1,1007,1534,0,0
-210,-510,0,0,0,0,0,0,0,0,0,-1,1014,1534,0,0
-203,-510,0,0,0,0,0,0,0,0,0,-1,1021,1534,0,0
-196,-510,0,0,0,0,0,0,0,0,0,-1,1028,1534,0,0
-189,-510,0,0,0,0,0,0,0,0,0,-1,1035,1534,0,0
-182,-510,0,0,0,0,0,0,0,0,0,-1,1042,1534,0,0
-175,-510,0,0,0,0,0,0,0,0,0,-1,1049,1534,0,0
-168,-510,0,0,0,0,0,0,0,0,0,-1,1056,1534,0,0
-161,-510,0,0,0,0,0,0,0,0,0,-1,1063,1534,0,0
-154,-510,0,0,0,0,0,0,0,0,0,-1,1070,1534,0,0
-147,-510,0,0,0,0,0,0,0,0,0,-1,1077,1534,0,0
-140,-510,0,0,0,0,0,0,0,0,0,-1,1084,1534,0,0
-133,-510,0,0,0,0,0,0,0,0,0,-1,1091,1534,0,0
-126,-510,0,0,0,0,0,0,0,0,0,-1,1098,1534,0,0
-119,-510,0,0,0,0,0,0,0,0,0,-1,1105,1534,0,0
-112,-510,0,0,0,0,0,0,0,0,0,-1,1112,1534,0,0
-105,-510,0,0,0,0,0,0,0,0,0,-1,1119,1534,0,0
-98,-510,0,0,0,0,0,0,0,0,0,-1,1126,1534,0,0
-91,-510,0,0,0,0,0,0,0,0,0,-1,1133,1534,0,0
-84,-510,0,0,0,0,0,0,0,0,0,-1,1140,1534,0,0
-77,-510,0,0,0,0,0,0,0,0,0,-1,1147,1534,0,0
-70,-510,0,0,0,0,0,0,0,0,0,-1,1154,1534,0,0
-63,-510,0,0,0,0,0,0,0,0,0,-1,1161,1534,0,0
-56,-510,0,0,0,0,0,0,0,0,0,-1,1168,1534,0,0
-49,-510,0,0,0,0,0,0,0,0,0,-1,1175,1534,0,0
-42,-510,0,0,0,0,0,0,0,0,0,-1,1182,1534,0,0
-35,-510,0,0,0,0,0,0,0,0,0,-1,1189,1534,0,0
-28,-510,0,0,0,0,0,0,0,0,0,-1,1196,1534,0,0
-21,-510,0,0,0,0,0,0,0,0,0,-1,1203,1534,0,0
-14,-510,0,0,0,0,0,0,0,0,0,-1,1210,1534,0,0
-7,-510,0,0,0,0,0,0,0,0,0,-1,1217,1534,0,0
0,-510,0,0,0,0,0,0,0,0,0,-1,1224,1534,0,0
7,-510,0,0,0,0,0,0,0,0,0,-1,1231,1534,0,0
14,-510,0,0,0,0,0,0,0,0,0,-1,1238,1534,0,0
21,-510,0,0,0,0,0,0,0,0,0,-1,1245,1534,0,0
28,-510,0,0,0,0,0,0,0,0,0,-1,1252,1534,0,0
35,-510,0,0,0,0,0,0,0,0,0,-1,1259,1534,0,0
42,-510,0,0,0,0,0,0,0,0,0,-1,1266,1534,0,0
49,-510,0,0,0,0,0,0,0,0,0,-1,1273,1534,0,0
56,-510,0,0,0,0,0,0,0,0,0,-1,1280,1534,0,0
63,-510,0,0,0,0,0,0,0,0,0,-1,1287,1534,0,0
70,-510,0,0,0,0,0,0,0,0,0,-1,1294,1534,0,0
77,-510,0,0,0,0,0,0,0,0,0,-1,1301,1534,0,0
84,-510,0,0,0,0,0,0,0,0,0,-1,1308,1534,0,0
91,-510,0,0,0,0,0,0,0,0,0,-1,1315,1534,0,0
98,-510,0,0,0,0,0,0,0,0,0,-1,1322,1534,0,0
105,-510,0,0,0,0,0,0,0,0,0,-1,1329,1534,0,0
112,-510,0,0,0,0,0,0,0,0,0,-1,1336,1534,0,0
119,-510,0,0,0,0,0,0,0,0,0,-1,1343,1534,0,0
126,-510,0,0,0,0,0,0,0,0,0,-1,1350,1534,0,0
133,-510,0,0,0,0,0,0,0,0,0,-1,1357,1534,0,0
140,-510,0,0,0,0,0,0,0,0,0,-1,1364,1534,0,0
147,-510,0,0,0,0,0,0,0,0,0,-1,1371,1534,0,0
154,-510,0,0,0,0,0,0,0,0,0,-1,1378,1534,0,0
161,-510,0,0,0,0,0,0,0,0,0,-1,1385,1534,0,0
168,-510,0,0,0,0,0,0,0,0,0,-1,1392,1534,0,0
175,-510,0,0,0,0,0,0,0,0,0,-1,1399,1534,0,0
182,-510,0,0,0,0,0,0,0,0,0,-1,1406,1534,0,0
189,-510,0,0,0,0,0,0,0,0,0,-1,1413,1534,0,0
196,-510,0,0,0,0,0,0,0,0,0,-1,1420,1534,0,0
203,-510,0,0,0,0,0,0,0,0,0,-1,1427,1534,0,0
210,-510,0,0,0,0,0,0,0,0,0,-1,1434,1534,0,0
217,-510,0,0,0,0,0,0,0,0,0,-1,1441,1534,0,0
224,-510,0,0,0,0,0,0,0,0,0,-1,1448,1534,0,0
231,-510,0,0,0,0,0,0,0,0,0,-1,1455,1534,0,0
238,-510,0,0,0,0,0,0,0,0,0,-1,1462,1534,0,0
245,-510,0,0,0,0,0,0,0,0,0,-1,1469,1534,0,0
252,-510,0,0,0,0,0,0,0,0,0,-1,1476,1534,0,0
259,-510,0,0,0,0,0,0,0,0,0,-1,1483,1534,0,0
266,-510,0,0,0,0,0,0,0,0,0,-1,1490,1534,0,0
273,-510,0,0,0,0,0,0,0,0,0,-1,1497,1534,0,0
280,-510,0,0,0,0,0,0,0,0,0,-1,1504,1534,0,0
287,-510,0,0,0,0,0,0,0,0,0,-1,1511,1534,0,0
294,-510,0,0,0,0,0,0,0,0,0,-1,1518,1534,0,0
301,-510,0,0,0,0,0,0,0,0,0,-1,1525,1534,0,0
308,-510,0,0,0,0,0,0,0,0,0,-1,1532,1534,0,0
315,-510,0,0,0,0,0,0,0,0,0,-1,1539,1534,0,0
322,-510,0,0,0,0,0,0,0,0,0,-1,1546,1534,0,0
329,-510,0,0,0,0,0,0,0,0,0,-1,1553,1534,0,0
336,-510,0,0,0,0,0,0,0,0,0,-1,1560,1534,0,0
343,-510,0,0,0,0,0,0,0,0,0,-1,1567,1534,0,0
350,-510,0,0,0,0,0,0,0,0,0,-1,1574,1534,0,0
357,-510,0,0,0,0,0,0,0,0,0,-1,1581,1534,0,0
364,-510,0,0,0,0,0,0,0,0,0,-1,1588,1534,0,0
371,-510,0,0,0,0,0,0,0,0,0,-1,1595,1534,0,0
378,-510,0,0,0,0,0,0,0,0,0,-1,1602,1534,0,0
385,-510,0,0,0,0,0,0,0,0,0,-1,1609,1534,0,0
392,-510,0,0,0,0,0,0,0,0,0,-1,1616,1534,0,0
399,-510,0,0,0,0,0,0,0,0,0,-1,1623,1534,0,0
406,-510,0,0,0,0,0,0,0,0,0,-1,1630,1534,0,0
413,-510,0,0,0,0,0,0,0,0,0,-1,1637,1534,0,0
420,-510,14.1888,6.71936,0,0,0,0,0,0,0,-1,1644,1534,14.1889,-6.71939
427,-510,10.2134,5.59485,0,0,0,0,0,0,0,-1,1651,1534,10.2134,-5.59485
434,-510,11.8219,4.07898,0,0,0,0,0,0,0,-1,1658,1534,11.8219,-4.07895
441,-510,12.6812,3.02991,0,0,0,0,0,0,0,-1,1665,1534,12.6811,-3.0299
448,-510,13.2379,2.2804,0,0,0,0,0,0,0,-1,1672,1534,13.2379,-2.28037
455,-510,9.76892,2.20642,0,0,0,0,0,0,0,-1,1679,1534,9.76894,-2.20647
462,-510,9.84692,2.49182,0,0,0,0,0,0,0,-1,1686,1534,9.84695,-2.49185
469,-510,16.6072,7.26941,0,0,0,0,0,0,0,-1,1693,1534,16.6072,-7.26945
476,-510,15.9199,7.8645,0,0,0,0,0,0,0,-1,1700,1534,15.9199,-7.86455
483,-510,13.0833,8.10938,0,0,0,0,0,0,0,-1,1707,1534,13.0833,-8.10932
490,-510,13.0841,15.3286,0,0,0,0,0,0,0,-1,1714,1534,13.0841,-15.3286
497,-510,15.5652,18.823,0,0,0,0,0,0,0,-1,1721,1534,15.5652,-18.823
504,-510,15.998,18.7478,0,0,0,0,0,0,0,-1,1728,1534,15.998,-18.7478
511,-510,15.9443,18.0476,0,0,0,0,0,0,0,-1,1735,1534,15.9443,-18.0476
518,-510,19.9081,24.4524,0,0,0,0,0,0,0,-1,1742,1534,19.9081,-24.4524
525,-510,20.2802,24.4116,0,0,0,0,0,0,0,-1,1749,1534,20.2802,-24.4116
532,-510,20.5499,23.6896,0.00743946,0.00631332,-0.00527878,0.0121851,0.00156766,-0.732266,0.00765455,0.024098,1756,1534,20.5499,-23.6896
539,-510,20.6029,23.0795,0.00587578,0.00470786,-0.00394265,0.00927748,0.00130616,-0.711876,0.00579884,0.013172,1763,1534,20.6029,-23.0794
546,-510,20.5532,22.6023,0.00468667,0.00344617,-0.00289321,0.00702536,0.00110747,-0.679806,0.00436154,0.0135464,1770,1534,20.5533,-22.6023
553,-510,20.5322,22.09,0.00372903,0.00246861,-0.0020705,0.0052631,0.000934535,-0.637664,0.00324243,0.0138547,1777,1534,20.5323,-22.09
560,-510,20.5049,21.5563,0.00307458,0.00175578,-0.00149116,0.00404563,0.000784733,-0.577221,0.00247729,0.0134154,1784,1534,20.5049,-21.5563
567,-510,20.5177,21.0234,0.00273742,0.00140388,-0.00127627,0.0035106,0.000630704,-0.544681,0.00216106,0.0120713,1791,1534,20.5176,-21.0234
574,-510,20.5281,20.5061,0.00257174,0.00126477,-0.00124734,0.00332641,0.000510102,-0.544104,0.00206864,0.0128898,1798,1534,20.5281,-20.5061
581,-510,20.4934,20.0071,0.00258498,0.00126729,-0.00136501,0.00344184,0.000410439,-0.560556,0.00217072,0.0122716,1805,1534,20.4934,-20.0071
588,-510,20.4669,19.4886,0.00285039,0.00152303,-0.0016852,0.00399789,0.000375529,-0.597811,0.00254932,0.0128483,1812,1534,20.4669,-19.4886
595,-510,20.5924,18.821,0.0033695,0.00185997,-0.0021072,0.00485303,0.000376443,-0.613425,0.00311746,0.023154,1819,1534,20.5924,-18.821
602,-510,20.6276,18.1312,0,0,0,0,0,0,0,-1,1826,1534,20.6275,-18.1312
609,-510,20.1014,17.7726,0,0,0,0,0,0,0,-1,1833,1534,20.1014,-17.7726
616,-510,18.7024,16.2474,0,0,0,0,0,0,0,-1,1840,1534,18.7024,-16.2474
623,-510,19.6013,14.6211,0,0,0,0,0,0,0,-1,1847,1534,19.6013,-14.6211
630,-510,13.7461,9.30334,0,0,0,0,0,0,0,-1,1854,1534,13.7461,-9.30335
637,-510,11.0155,7.38464,0,0,0,0,0,0,0,-1,1861,1534,11.0155,-7.38463
644,-510,11.5809,7.17126,0,0,0,0,0,0,0,-1,1868,1534,11.5809,-7.17123
651,-510,8.70471,3.5061,0,0,0,0,0,0,0,-1,1875,1534,8.70475,-3.50611
658,-510,0,0,0,0,0,0,0,0,0,-1,1882,1534,0,0
665,-510,0,0,0,0,0,0,0,0,0,-1,1889,1534,0,0
672,-510,0,0,0,0,0,0,0,0,0,-1,1896,1534,0,0
679,-510,0,0,0,0,0,0,0,0,0,-1,1903,1534,0,0
686,-510,0,0,0,0,0,0,0,0,0,-1,1910,1534,0,0
693,-510,0,0,0,0,0,0,0,0,0,-1,1917,1534,0,0
700,-510,0,0,0,0,0,0,0,0,0,-1,1924,1534,0,0
707,-510,0,0,0,0,0,0,0,0,0,-1,1931,1534,0,0
714,-510,0,0,0,0,0,0,0,0,0,-1,1938,1534,0,0
721,-510,0,0,0,0,0,0,0,0,0,-1,1945,1534,0,0
728,-510,0,0,0,0,0,0,0,0,0,-1,1952,1534,0,0
735,-510,0,0,0,0,0,0,0,0,0,-1,1959,1534,0,0
742,-510,0,0,0,0,0,0,0,0,0,-1,1966,1534,0,0
749,-510,0,0,0,0,0,0,0,0,0,-1,1973,1534,0,0
756,-510,0,0,0,0,0,0,0,0,0,-1,1980,1534,0,0
763,-510,0,0,0,0,0,0,0,0,0,-1,1987,1534,0,0
770,-510,0,0,0,0,0,0,0,0,0,-1,1994,1534,0,0
777,-510,0,0,0,0,0,0,0,0,0,-1,2001,1534,0,0
784,-510,0,0,0,0,0,0,0,0,0,-1,2008,1534,0,0
791,-510,0,0,0,0,0,0,0,0,0,-1,2015,1534,0,0
798,-510,0,0,0,0,0,0,0,0,0,-1,2022,1534,0,0
805,-510,0,0,0,0,0,0,0,0,0,-1,2029,1534,0,0
812,-510,0,0,0,0,0,0,0,0,0,-1,2036,1534,0,0
-700,-517,0,0,0,0,0,0,0,0,0,-1,524,1541,0,0
-693,-517,0,0,0,0,0,0,0,0,0,-1,531,1541,0,0
-686,-517,0,0,0,0,0,0,0,0,0,-1,538,1541,0,0
-679,-517,0,0,0,0,0,0,0,0,0,-1,545,1541,0,0
-672,-517,0,0,0,0,0,0,0,0,0,-1,552,1541,0,0
-665,-517,0,0,0,0,0,0,0,0,0,-1,559,1541,0,0
-658,-517,0,0,0,0,0,0,0,0,0,-1,566,1541,0,0
-651,-517,0,0,0,0,0,0,0,0,0,-1,573,1541,0,0
-644,-517,0,0,0,0,0,0,0,0,0,-1,580,1541,0,0
-637,-517,0,0,0,0,0,0,0,0,0,-1,587,1541,0,0
-630,-517,0,0,0,0,0,0,0,0,0,-1,594,1541,0,0
-623,-517,0,0,0,0,0,0,0,0,0,-1,601,1541,0,0
-616,-517,0,0,0,0,0,0,0,0,0,-1,608,1541,0,0
-609,-517,0,0,0,0,0,0,0,0,0,-1,615,1541,0,0
-602,-517,0,0,0,0,0,0,0,0,0,-1,622,1541,0,0
-595,-517,0,0,0,0,0,0,0,0,0,-1,629,1541,0,0
-588,-517,0,0,0,0,0,0,0,0,0,-1,636,1541,0,0
-581,-517,0,0,0,0,0,0,0,0,0,-1,643,1541,0,0
-574,-517,0,0,0,0,0,0,0,0,0,-1,650,1541,0,0
-567,-517,0,0,0,0,0,0,0,0,0,-1,657,1541,0,0
-560,-517,0,0,0,0,0,0,0,0,0,-1,664,1541,0,0
-553,-517,0,0,0,0,0,0,0,0,0,-1,671,1541,0,0
-546,-517,0,0,0,0,0,0,0,0,0,-1,678,1541,0,0
-539,-517,0,0,0,0,0,0,0,0,0,-1,685,1541,0,0
-532,-517,0,0,0,0,0,0,0,0,0,-1,692,1541,0,0
-525,-517,-3.62903,4.3606,0,0,0,0,0,0,0,-1,699,1541,-3.62904,-4.36056
-518,-517,-1.664,2.27209,0,0,0,0,0,0,0,-1,706,1541,-1.66399,-2.27207
-511,-517,-0.999146,5.52063,0,0,0,0,0,0,0,-1,713,1541,-0.999126,-5.52059
-504,-517,-1.06946,8.67432,0,0,0,0,0,0,0,-1,720,1541,-1.06947,-8.6743
-497,-517,-2.65582,14.3612,0,0,0,0,0,0,0,-1,727,1541,-2.6558,-14.3611
-490,-517,-3.047,15.3018,0,0,0,0,0,0,0,-1,734,1541,-3.04702,-15.3017
-483,-517,-3.04498,15.9858,0,0,0,0,0,0,0,-1,741,1541,-3.045,-15.9858
-476,-517,-3.52881,16.3654,0,0,0,0,0,0,0,-1,748,1541,-3.52884,-16.3653
-469,-517,-3.82306,17.0348,-0.0106131,0.00218288,-0.00630686,0.0047688,-0.0131991,-1.18168,0.0107476,0.0208061,755,1541,-3.82306,-17.0348
-462,-517,-3.9328,17.5737,-0.00798963,0.00211815,-0.0046972,0.00396393,-0.00983542,-1.19638,0.00820393,0.0194665,762,1541,-3.93278,-17.5738
-455,-517,-3.93713,18.1749,-0.0058138,0.00198937,-0.00334762,0.00322869,-0.00705312,-1.21623,0.00607154,0.0142135,769,1541,-3.93716,-18.1749
-448,-517,-3.94788,18.7317,-0.00398196,0.00183096,-0.00218324,0.00255961,-0.00471061,-1.24867,0.00425827,0.0127957,776,1541,-3.9479,-18.7317
-441,-517,-3.99255,19.2683,-0.00233095,0.00185045,-0.00105387,0.00210105,-0.00258155,-1.33735,0.00270824,0.0112494,783,1541,-3.99255,-19.2683
-434,-517,-4.01453,19.8226,-0.000792107,0.00211916,9.82867e-05,0.00212248,-0.000795421,1.53709,0.00174176,0.01397,790,1541,-4.01451,-19.8227
-427,-517,-4.04138,20.3634,0.000694029,0.00250926,0.00117357,0.00308523,0.000118059,1.11455,0.00201862,0.0144786,797,1541,-4.04141,-20.3634
-420,-517,-4.06824,20.9846,0.00207825,0.00307871,0.00228704,0.00491958,0.000237377,0.893065,0.00320353,0.0224317,804,1541,-4.06824,-20.9846
-413,-517,-4.07983,21.5083,0.00345132,0.00400041,0.00345834,0.00719508,0.000256639,0.825008,0.00471351,0.0115033,811,1541,-4.07985,-21.5083
-406,-517,-4.09656,22.0464,0.00466278,0.00530009,0.00474106,0.00973319,0.000229679,0.818954,0.00641361,0.0112525,818,1541,-4.09653,-22.0464
-399,-517,-4.10626,22.5927,0.00568277,0.00742086,0.00593421,0.0125493,0.000554311,0.858104,0.0081877,0.0112754,825,1541,-4.10629,-22.5927
-392,-517,-4.09131,23.1705,0.0065081,0.0106041,0.00677706,0.0156359,0.00147636,0.932134,0.00996831,0.0166669,832,1541,-4.09128,-23.1706
-385,-517,-3.98492,24.0199,0.00696777,0.0137578,0.00772069,0.0187969,0.00192861,0.992537,0.0119404,0.0400467,839,1541,-3.9849,-24.0199
-378,-517,-3.82416,25.0175,0,0,0,0,0,0,0,-1,846,1541,-3.82417,-25.0175
-371,-517,-1.37585,13.2646,0,0,0,0,0,0,0,-1,853,1541,-1.37586,-13.2647
-364,-517,-1.26245,12.6289,0,0,0,0,0,0,0,-1,860,1541,-1.26243,-12.6289
-357,-517,-1.23889,12.979,0,0,0,0,0,0,0,-1,867,1541,-1.23891,-12.979
-350,-517,-5.40198,23.8954,0,0,0,0,0,0,0,-1,874,1541,-5.40196,-23.8954
-343,-517,-5.68799,28.3315,0,0,0,0,0,0,0,-1,881,1541,-5.68797,-28.3315
-336,-517,-4.8252,28.7935,0,0,0,0,0,0,0,-1,888,1541,-4.82519,-28.7934
-329,-517,-3.9624,29.2552,0,0,0,0,0,0,0,-1,895,1541,-3.96241,-29.2553
-322,-517,-4.21246,19.5819,0,0,0,0,0,0,0,-1,902,1541,-4.21244,-19.5819
-315,-517,-0.987976,7.29749,0,0,0,0,0,0,0,-1,909,1541,-0.987993,-7.29743
-308,-517,3.27911,17.621,0,0,0,0,0,0,0,-1,916,1541,3.27913,-17.621
-301,-517,-1.69141,8.87488,0,0,0,0,0,0,0,-1,923,1541,-1.69141,-8.87485
-294,-517,-1.72583,9.92566,0,0,0,0,0,0,0,-1,930,1541,-1.72584,-9.92571
-287,-517,-3.09045,12.1472,0,0,0,0,0,0,0,-1,937,1541,-3.09043,-12.1472
-280,-517,0,0,0,0,0,0,0,0,0,-1,944,1541,0,0
-273,-517,0,0,0,0,0,0,0,0,0,-1,951,1541,0,0
-266,-517,0,0,0,0,0,0,0,0,0,-1,958,1541,0,0
-259,-517,0,0,0,0,0,0,0,0,0,-1,965,1541,0,0
-252,-517,0,0,0,0,0,0,0,0,0,-1,972,1541,0,0
-245,-517,0,0,0,0,0,0,0,0,0,-1,979,1541,0,0
-238,-517,0,0,0,0,0,0,0,0,0,-1,986,1541,0,0
-231,-517,0,0,0,0,0,0,0,0,0,-1,993,1541,0,0
-224,-517,0,0,0,0,0,0,0,0,0,-1,1000,1541,0,0
-217,-517,0,0,0,0,0,0,0,0,0,-1,1007,1541,0,0
-210,-517,0,0,0,0,0,0,0,0,0,-1,1014,1541,0,0
-203,-517,0,0,0,0,0,0,0,0,0,-1,1021,1541,0,0
-196,-517,0,0,0,0,0,0,0,0,0,-1,1028,1541,0,0
-189,-517,0,0,0,0,0,0,0,0,0,-1,1035,1541,0,0
-182,-517,0,0,0,0,0,0,0,0,0,-1,1042,1541,0,0
-175,-517,0,0,0,0,0,0,0,0,0,-1,1049,1541,0,0
-168,-517,0,0,0,0,0,0,0,0,0,-1,1056,1541,0,0
-161,-517,0,0,0,0,0,0,0,0,0,-1,1063,1541,0,0
-154,-517,0,0,0,0,0,0,0,0,0,-1,1070,1541,0,0
-147,-517,0,0,0,0,0,0,0,0,0,-1,1077,1541,0,0
-140,-517,0,0,0,0,0,0,0,0,0,-1,1084,1541,0,0
-133,-517,0,0,0,0,0,0,0,0,0,-1,1091,1541,0,0
-126,-517,0,0,0,0,0,0,0,0,0,-1,1098,1541,0,0
-119,-517,0,0,0,0,0,0,0,0,0,-1,1105,1541,0,0
-112,-517,0,0,0,0,0,0,0,0,0,-1,1112,1541,0,0
-105,-517,0,0,0,0,0,0,0,0,0,-1,1119,1541,0,0
-98,-517,0,0,0,0,0,0,0,0,0,-1,1126,1541,0,0
-91,-517,0,0,0,0,0,0,0,0,0,-1,1133,1541,0,0
-84,-517,0,0,0,0,0,0,0,0,0,-1,1140,1541,0,0
-77,-517,0,0,0,0,0,0,0,0,0,-1,1147,1541,0,0
-70,-517,0,0,0,0,0,0,0,0,0,-1,1154,1541,0,0
-63,-517,0,0,0,0,0,0,0,0,0,-1,1161,1541,0,0
-56,-517,0,0,0,0,0,0,0,0,0,-1,1168,1541,0,0
-49,-517,0,0,0,0,0,0,0,0,0,-1,1175,1541,0,0
-42,-517,0,0,0,0,0,0,0,0,0,-1,1182,1541,0,0
-35,-517,0,0,0,0,0,0,0,0,0,-1,1189,1541,0,0
-28,-517,0,0,0,0,0,0,0,0,0,-1,1196,1541,0,0
-21,-517,0,0,0,0,0,0,0,0,0,-1,1203,1541,0,0
-14,-517,0,0,0,0,0,0,0,0,0,-1,1210,1541,0,0
-7,-517,0,0,0,0,0,0,0,0,0,-1,1217,1541,0,0
0,-517,0,0,0,0,0,0,0,0,0,-1,1224,1541,0,0
7,-517,0,0,0,0,0,0,0,0,0,-1,1231,1541,0,0
14,-517,0,0,0,0,0,0,0,0,0,-1,1238,1541,0,0
21,-517,0,0,0,0,0,0,0,0,0,-1,1245,1541,0,0
28,-517,0,0,0,0,0,0,0,0,0,-1,1252,1541,0,0
35,-517,0,0,0,0,0,0,0,0,0,-1,1259,1541,0,0
42,-517,0,0,0,0,0,0,0,0,0,-1,1266,1541,0,0
49,-517,0,0,0,0,0,0,0,0,0,-1,1273,1541,0,0
56,-517,0,0,0,0,0,0,0,0,0,-1,1280,1541,0,0
63,-517,0,0,0,0,0,0,0,0,0,-1,1287,1541,0,0
70,-517,0,0,0,0,0,0,0,0,0,-1,1294,1541,0,0
77,-517,0,0,0,0,0,0,0,0,0,-1,1301,1541,0,0
84,-517,0,0,0,0,0,0,0,0,0,-1,1308,1541,0,0
91,-517,0,0,0,0,0,0,0,0,0,-1,1315,1541,0,0
98,-517,0,0,0,0,0,0,0,0,0,-1,1322,1541,0,0
105,-517,0,0,0,0,0,0,0,0,0,-1,1329,1541,0,0
112,-517,0,0,0,0,0,0,0,0,0,-1,1336,1541,0,0
119,-517,0,0,0,0,0,0,0,0,0,-1,1343,1541,0,0
126,-517,0,0,0,0,0,0,0,0,0,-1,1350,1541,0,0
133,-517,0,0,0,0,0,0,0,0,0,-1,1357,1541,0,0
140,-517,0,0,0,0,0,0,0,0,0,-1,1364,1541,0,0
147,-517,0,0,0,0,0,0,0,0,0,-1,1371,1541,0,0
154,-517,0,0,0,0,0,0,0,0,0,-1,1378,1541,0,0
161,-517,0,0,0,0,0,0,0,0,0,-1,1385,1541,0,0
168,-517,0,0,0,0,0,0,0,0,0,-1,1392,1541,0,0
175,-517,0,0,0,0,0,0,0,0,0,-1,1399,1541,0,0
182,-517,0,0,0,0,0,0,0,0,0,-1,1406,1541,0,0
189,-517,0,0,0,0,0,0,0,0,0,-1,1413,1541,0,0
196,-517,0,0,0,0,0,0,0,0,0,-1,1420,1541,0,0
203,-517,0,0,0,0,0,0,0,0,0,-1,1427,1541,0,0
210,-517,0,0,0,0,0,0,0,0,0,-1,1434,1541,0,0
217,-517,0,0,0,0,0,0,0,0,0,-1,1441,1541,0,0
224,-517,0,0,0,0,0,0,0,0,0,-1,1448,1541,0,0
231,-517,0,0,0,0,0,0,0,0,0,-1,1455,1541,0,0
238,-517,0,0,0,0,0,0,0,0,0,-1,1462,1541,0,0
245,-517,0,0,0,0,0,0,0,0,0,-1,1469,1541,0,0
252,-517,0,0,0,0,0,0,0,0,0,-1,1476,1541,0,0
259,-517,0,0,0,0,0,0,0,0,0,-1,1483,1541,0,0
266,-517,0,0,0,0,0,0,0,0,0,-1,1490,1541,0,0
273,-517,0,0,0,0,0,0,0,0,0,-1,1497,1541,0,0
280,-517,0,0,0,0,0,0,0,0,0,-1,1504,1541,0,0
287,-517,0,0,0,0,0,0,0,0,0,-1,1511,1541,0,0
294,-517,0,0,0,0,0,0,0,0,0,-1,1518,1541,0,0
301,-517,0,0,0,0,0,0,0,0,0,-1,1525,1541,0,0
308,-517,0,0,0,0,0,0,0,0,0,-1,1532,1541,0,0
315,-517,0,0,0,0,0,0,0,0,0,-1,1539,1541,0,0
322,-517,0,0,0,0,0,0,0,0,0,-1,1546,1541,0,0
329,-517,0,0,0,0,0,0,0,0,0,-1,1553,1541,0,0
336,-517,0,0,0,0,0,0,0,0,0,-1,1560,1541,0,0
343,-517,0,0,0,0,0,0,0,0,0,-1,1567,1541,0,0
350,-517,0,0,0,0,0,0,0,0,0,-1,1574,1541,0,0
357,-517,0,0,0,0,0,0,0,0,0,-1,1581,1541,0,0
364,-517,0,0,0,0,0,0,0,0,0,-1,1588,1541,0,0
371,-517,0,0,0,0,0,0,0,0,0,-1,1595,1541,0,0
378,-517,0,0,0,0,0,0,0,0,0,-1,1602,1541,0,0
385,-517,0,0,0,0,0,0,0,0,0,-1,1609,1541,0,0
392,-517,0,0,0,0,0,0,0,0,0,-1,1616,1541,0,0
399,-517,0,0,0,0,0,0,0,0,0,-1,1623,1541,0,0
406,-517,13.1395,7.01978,0,0,0,0,0,0,0,-1,1630,1541,13.1396,-7.01981
413,-517,12.8859,6.31592,0,0,0,0,0,0,0,-1,1637,1541,12.8858,-6.31588
420,-517,12.4789,6.20337,0,0,0,0,0,0,0,-1,1644,1541,12.4789,-6.20333
427,-517,11.647,4.66516,0,0,0,0,0,0,0,-1,1651,1541,11.647,-4.66519
434,-517,12.3719,3.92773,0,0,0,0,0,0,0,-1,1658,1541,12.3719,-3.92776
441,-517,13.146,3.14124,0,0,0,0,0,0,0,-1,1665,1541,13.146,-3.14121
448,-517,13.8861,2.36682,0,0,0,0,0,0,0,-1,1672,1541,13.8861,-2.36684
455,-517,13.6012,4.06335,0,0,0,0,0,0,0,-1,1679,1541,13.6012,-4.06335
462,-517,14.8956,7.0752,0,0,0,0,0,0,0,-1,1686,1541,14.8956,-7.07525
469,-517,13.6292,6.87744,0,0,0,0,0,0,0,-1,1693,1541,13.6292,-6.87739
476,-517,17.1632,14.1487,0,0,0,0,0,0,0,-1,1700,1541,17.1632,-14.1487
483,-517,16.5157,15.0776,0,0,0,0,0,0,0,-1,1707,1541,16.5157,-15.0777
490,-517,15.5439,18.0258,0,0,0,0,0,0,0,-1,1714,1541,15.5439,-18.0258
497,-517,16.0292,18.7786,0,0,0,0,0,0,0,-1,1721,1541,16.0291,-18.7786
504,-517,17.3815,22.3873,0,0,0,0,0,0,0,-1,1728,1541,17.3814,-22.3873
511,-517,16.9674,21.8491,0,0,0,0,0,0,0,-1,1735,1541,16.9674,-21.8491
518,-517,19.7351,24.7585,0,0,0,0,0,0,0,-1,1742,1541,19.7351,-24.7585
525,-517,19.9386,24.1995,0.00786367,0.00718553,-0.0060358,0.0135699,0.00147929,-0.757339,0.00859605,0.0239774,1749,1541,19.9386,-24.1994
532,-517,20.0983,23.5839,0.00614812,0.00548863,-0.00458445,0.0104147,0.00122208,-0.749497,0.00657373,0.0117436,1756,1541,20.0982,-23.5839
539,-517,20.0969,23.076,0.00483972,0.00404993,-0.0033874,0.00785517,0.00103448,-0.727372,0.00492827,0.0135622,1763,1541,20.0969,-23.076
546,-517,20.058,22.5997,0.00380511,0.00284557,-0.00240047,0.00577328,0.000877394,-0.686765,0.00359229,0.0151514,1770,1541,20.058,-22.5997
553,-517,20.0219,22.0955,0.00295685,0.0018744,-0.0015769,0.00408282,0.000748436,-0.620086,0.00250988,0.0176288,1777,1541,20.0219,-22.0954
560,-517,20.0286,21.59,0.00241433,0.00116507,-0.000981255,0.00295289,0.000626501,-0.501963,0.00179655,0.0165716,1784,1541,20.0285,-21.59
567,-517,20.0249,21.08,0.00218665,0.000830886,-0.000748806,0.00251883,0.000498701,-0.417535,0.00154014,0.013449,1791,1541,20.0248,-21.0799
574,-517,20.015,20.5316,0.0021309,0.000719997,-0.000711104,0.00242711,0.000423784,-0.394695,0.00149694,0.0147915,1798,1541,20.0151,-20.5316
581,-517,19.9777,20.0092,0.00231709,0.000804764,-0.000885998,0.00272573,0.00039612,-0.432149,0.00170056,0.0164323,1805,1541,19.9777,-20.0091
588,-517,19.9698,19.5005,0.0027728,0.0012121,-0.00130365,0.00351181,0.000473098,-0.515707,0.00220053,0.0175186,1812,1541,19.9699,-19.5005
595,-517,19.9818,18.9032,0,0,0,0,0,0,0,-1,1819,1541,19.9818,-18.9032
602,-517,15.8027,13.5498,0,0,0,0,0,0,0,-1,1826,1541,15.8027,-13.5498
609,-517,12.6417,10.8751,0,0,0,0,0,0,0,-1,1833,1541,12.6417,-10.8751
616,-517,14.205,10.3193,0,0,0,0,0,0,0,-1,1840,1541,14.205,-10.3194
623,-517,12.578,10.0779,0,0,0,0,0,0,0,-1,1847,1541,12.578,-10.0779
630,-517,11.7035,7.47815,0,0,0,0,0,0,0,-1,1854,1541,11.7035,-7.47812
637,-517,11.5172,5.79822,0,0,0,0,0,0,0,-1,1861,1541,11.5173,-5.79825
644,-517,11.4232,3.30579,0,0,0,0,0,0,0,-1,1868,1541,11.4232,-3.30574
651,-517,0,0,0,0,0,0,0,0,0,-1,1875,1541,0,0
658,-517,0,0,0,0,0,0,0,0,0,-1,1882,1541,0,0
665,-517,0,0,0,0,0,0,0,0,0,-1,1889,1541,0,0
672,-517,0,0,0,0,0,0,0,0,0,-1,1896,1541,0,0
679,-517,0,0,0,0,0,0,0,0,0,-1,1903,1541,0,0
686,-517,0,0,0,0,0,0,0,0,0,-1,1910,1541,0,0
693,-517,0,0,0,0,0,0,0,0,0,-1,1917,1541,0,0
700,-517,0,0,0,0,0,0,0,0,0,-1,1924,1541,0,0
707,-517,0,0,0,0,0,0,0,0,0,-1,1931,1541,0,0
714,-517,0,0,0,0,0,0,0,0,0,-1,1938,1541,0,0
721,-517,0,0,0,0,0,0,0,0,0,-1,1945,1541,0,0
728,-517,0,0,0,0,0,0,0,0,0,-1,1952,1541,0,0
735,-517,0,0,0,0,0,0,0,0,0,-1,1959,1541,0,0
742,-517,0,0,0,0,0,0,0,0,0,-1,1966,1541,0,0
749,-517,0,0,0,0,0,0,0,0,0,-1,1973,1541,0,0
756,-517,0,0,0,0,0,0,0,0,0,-1,1980,1541,0,0
763,-517,0,0,0,0,0,0,0,0,0,-1,1987,1541,0,0
770,-517,0,0,0,0,0,0,0,0,0,-1,1994,1541,0,0
777,-517,0,0,0,0,0,0,0,0,0,-1,2001,1541,0,0
784,-517,0,0,0,0,0,0,0,0,0,-1,2008,1541,0,0
791,-517,0,0,0,0,0,0,0,0,0,-1,2015,1541,0,0
798,-517,0,0,0,0,0,0,0,0,0,-1,2022,1541,0,0
805,-517,0,0,0,0,0,0,0,0,0,-1,2029,1541,0,0
812,-517,0,0,0,0,0,0,0,0,0,-1,2036,1541,0,0
-700,-524,0,0,0,0,0,0,0,0,0,-1,524,1548,0,0
-693,-524,0,0,0,0,0,0,0,0,0,-1,531,1548,0,0
-686,-524,0,0,0,0,0,0,0,0,0,-1,538,1548,0,0
-679,-524,0,0,0,0,0,0,0,0,0,-1,545,1548,0,0
-672,-524,0,0,0,0,0,0,0,0,0,-1,552,1548,0,0
-665,-524,0,0,0,0,0,0,0,0,0,-1,559,1548,0,0
-658,-524,0,0,0,0,0,0,0,0,0,-1,566,1548,0,0
-651,-524,0,0,0,0,0,0,0,0,0,-1,573,1548,0,0
-644,-524,0,0,0,0,0,0,0,0,0,-1,580,1548,0,0
-637,-524,0,0,0,0,0,0,0,0,0,-1,587,1548,0,0
-630,-524,0,0,0,0,0,0,0,0,0,-1,594,1548,0,0
-623,-524,0,0,0,0,0,0,0,0,0,-1,601,1548,0,0
-616,-524,0,0,0,0,0,0,0,0,0,-1,608,1548,0,0
-609,-524,0,0,0,0,0,0,0,0,0,-1,615,1548,0,0
-602,-524,0,0,0,0,0,0,0,0,0,-1,622,1548,0,0
-595,-524,0,0,0,0,0,0,0,0,0,-1,629,1548,0,0
-588,-524,0,0,0,0,0,0,0,0,0,-1,636,1548,0,0
-581,-524,0,0,0,0,0,0,0,0,0,-1,643,1548,0,0
-574,-524,0,0,0,0,0,0,0,0,0,-1,650,1548,0,0
-567,-524,0,0,0,0,0,0,0,0,0,-1,657,1548,0,0
-560,-524,0,0,0,0,0,0,0,0,0,-1,664,1548,0,0
-553,-524,0,0,0,0,0,0,0,0,0,-1,671,1548,0,0
-546,-524,0,0,0,0,0,0,0,0,0,-1,678,1548,0,0
-539,-524,0,0,0,0,0,0,0,0,0,-1,685,1548,0,0
-532,-524,0,0,0,0,0,0,0,0,0,-1,692,1548,0,0
-525,-524,-0.215515,3.97131,0,0,0,0,0,0,0,-1,699,1548,-0.215501,-3.97136
-518,-524,-0.806274,4.35632,0,0,0,0,0,0,0,-1,706,1548,-0.806259,-4.35633
-511,-524,-1.08301,4.29004,0,0,0,0,0,0,0,-1,713,1548,-1.08301,-4.29006
-504,-524,-1.28821,3.98145,0,0,0,0,0,0,0,-1,720,1548,-1.28822,-3.98151
-497,-524,-0.328491,8.63416,0,0,0,0,0,0,0,-1,727,1548,-0.328487,-8.63411
-490,-524,-2.87793,16.5732,0,0,0,0,0,0,0,-1,734,1548,-2.87794,-16.5733
-483,-524,-2.47748,15.9138,0,0,0,0,0,0,0,-1,741,1548,-2.47747,-15.9138
-476,-524,-3.68713,17.2668,0,0,0,0,0,0,0,-1,748,1548,-3.68715,-17.2668
-469,-524,-3.37006,17.3912,-0.0121458,0.00480637,-0.00719291,0.00744703,-0.0147865,-1.21895,0.0130676,0.0376296,755,1548,-3.37007,-17.3913
-462,-524,-3.28076,17.761,-0.0093086,0.00424369,-0.005393,0.00612784,-0.0111927,-1.23468,0.0101416,0.0302266,762,1548,-3.28076,-17.761
-455,-524,-3.42102,18.2024,-0.00701219,0.00364681,-0.00394165,0.00494605,-0.00831143,-1.25239,0.00773598,0.0244627,769,1548,-3.421,-18.2024
-448,-524,-3.41022,18.7449,-0.00514867,0.00297464,-0.00278697,0.00383886,-0.00601289,-1.27011,0.00573389,0.0135634,776,1548,-3.41022,-18.7449
-441,-524,-3.42743,19.2941,-0.0035018,0.00251759,-0.0017157,0.00297227,-0.00395648,-1.31174,0.00401375,0.0107775,783,1548,-3.4274,-19.2941
-434,-524,-3.40991,19.853,-0.00197747,0.00234538,-0.000658735,0.00244353,-0.00207562,-1.42288,0.00261201,0.0122559,790,1548,-3.40992,-19.853
-427,-524,-3.43213,20.4178,-0.000511039,0.00236852,0.000317261,0.00240306,-0.00054558,1.46235,0.00181149,0.0132393,797,1548,-3.43216,-20.4178
-420,-524,-3.49915,20.9761,0.000824693,0.00257972,0.0012904,0.00326271,0.000141706,1.084,0.00212948,0.0119698,804,1548,-3.49912,-20.9761
-413,-524,-3.51013,21.5255,0.00210949,0.00316763,0.00231263,0.00501094,0.000266187,0.89785,0.00325553,0.0114057,811,1548,-3.51016,-21.5255
-406,-524,-3.51587,22.0656,0.0032055,0.00408516,0.00334809,0.00702219,0.000268472,0.850708,0.00459458,0.0122993,818,1548,-3.51585,-22.0655
-399,-524,-3.53729,22.6106,0.00402899,0.00560872,0.00421033,0.00910264,0.000535073,0.878121,0.00589816,0.00968438,825,1548,-3.53728,-22.6106
-392,-524,-3.56512,23.1501,0.00465366,0.0081682,0.00476857,0.011493,0.00132888,0.961933,0.00725968,0.0100425,832,1548,-3.56513,-23.1501
-385,-524,-3.58344,23.7095,0.00499592,0.0106774,0.00535152,0.0138954,0.00177789,1.0294,0.0087315,0.0154384,839,1548,-3.58343,-23.7094
-378,-524,-3.55255,24.3081,0,0,0,0,0,0,0,-1,846,1548,-3.55256,-24.3081
-371,-524,-2.98999,25.1357,0,0,0,0,0,0,0,-1,853,1548,-2.99,-25.1357
-364,-524,-0.712097,14.9871,0,0,0,0,0,0,0,-1,860,1548,-0.712116,-14.9871
-357,-524,-1.34052,14.7448,0,0,0,0,0,0,0,-1,867,1548,-1.34054,-14.7447
-350,-524,-4.31909,25.032,0,0,0,0,0,0,0,-1,874,1548,-4.31906,-25.0319
-343,-524,-5.0224,28.7482,0,0,0,0,0,0,0,-1,881,1548,-5.02239,-28.7481
-336,-524,-3.70892,28.6487,0,0,0,0,0,0,0,-1,888,1548,-3.70894,-28.6487
-329,-524,-2.99182,29.0154,0,0,0,0,0,0,0,-1,895,1548,-2.99184,-29.0154
-322,-524,-4.31378,25.6389,0,0,0,0,0,0,0,-1,902,1548,-4.31379,-25.639
-315,-524,-1.90839,19.4824,0,0,0,0,0,0,0,-1,909,1548,-1.90838,-19.4824
-308,-524,-2.36938,19.3059,0,0,0,0,0,0,0,-1,916,1548,-2.3694,-19.3058
-301,-524,2.72394,17.7618,0,0,0,0,0,0,0,-1,923,1548,2.72396,-17.7619
-294,-524,-1.52515,9.05408,0,0,0,0,0,0,0,-1,930,1548,-1.52512,-9.05411
-287,-524,-0.962219,10.3199,0,0,0,0,0,0,0,-1,937,1548,-0.962241,-10.32
-280,-524,-1.36255,10.3859,0,0,0,0,0,0,0,-1,944,1548,-1.36253,-10.3859
-273,-524,0,0,0,0,0,0,0,0,0,-1,951,1548,0,0
-266,-524,0,0,0,0,0,0,0,0,0,-1,958,1548,0,0
-259,-524,0,0,0,0,0,0,0,0,0,-1,965,1548,0,0
-252,-524,0,0,0,0,0,0,0,0,0,-1,972,1548,0,0
-245,-524,0,0,0,0,0,0,0,0,0,-1,979,1548,0,0
-238,-524,0,0,0,0,0,0,0,0,0,-1,986,1548,0,0
-231,-524,0,0,0,0,0,0,0,0,0,-1,993,1548,0,0
-224,-524,0,0,0,0,0,0,0,0,0,-1,1000,1548,0,0
-217,-524,0,0,0,0,0,0,0,0,0,-1,1007,1548,0,0
-210,-524,0,0,0,0,0,0,0,0,0,-1,1014,1548,0,0
-203,-524,0,0,0,0,0,0,0,0,0,-1,1021,1548,0,0
-196,-524,0,0,0,0,0,0,0,0,0,-1,1028,1548,0,0
-189,-524,0,0,0,0,0,0,0,0,0,-1,1035,1548,0,0
-182,-524,0,0,0,0,0,0,0,0,0,-1,1042,1548,0,0
-175,-524,0,0,0,0,0,0,0,0,0,-1,1049,1548,0,0
-168,-524,0,0,0,0,0,0,0,0,0,-1,1056,1548,0,0
-161,-524,0,0,0,0,0,0,0,0,0,-1,1063,1548,0,0
-154,-524,0,0,0,0,0,0,0,0,0,-1,1070,1548,0,0
-147,-524,0,0,0,0,0,0,0,0,0,-1,1077,1548,0,0
-140,-524,0,0,0,0,0,0,0,0,0,-1,1084,1548,0,0
-133,-524,0,0,0,0,0,0,0,0,0,-1,1091,1548,0,0
-126,-524,0,0,0,0,0,0,0,0,0,-1,1098,1548,0,0
-119,-524,0,0,0,0,0,0,0,0,0,-1,1105,1548,0,0
-112,-524,0,0,0,0,0,0,0,0,0,-1,1112,1548,0,0
-105,-524,0,0,0,0,0,0,0,0,0,-1,1119,1548,0,0
-98,-524,0,0,0,0,0,0,0,0,0,-1,1126,1548,0,0
-91,-524,0,0,0,0,0,0,0,0,0,-1,1133,1548,0,0
-84,-524,0,0,0,0,0,0,0,0,0,-1,1140,1548,0,0
-77,-524,0,0,0,0,0,0,0,0,0,-1,1147,1548,0,0
-70,-524,0,0,0,0,0,0,0,0,0,-1,1154,1548,0,0
-63,-524,0,0,0,0,0,0,0,0,0,-1,1161,1548,0,0
-56,-524,0,0,0,0,0,0,0,0,0,-1,1168,1548,0,0
-49,-524,0,0,0,0,0,0,0,0,0,-1,1175,1548,0,0
-42,-524,0,0,0,0,0,0,0,0,0,-1,1182,1548,0,0
-35,-524,0,0,0,0,0,0,0,0,0,-1,1189,1548,0,0
-28,-524,0,0,0,0,0,0,0,0,0,-1,1196,1548,0,0
-21,-524,0,0,0,0,0,0,0,0,0,-1,1203,1548,0,0
-14,-524,0,0,0,0,0,0,0,0,0,-1,1210,1548,0,0
-7,-524,0,0,0,0,0,0,0,0,0,-1,1217,1548,0,0
0,-524,0,0,0,0,0,0,0,0,0,-1,1224,1548,0,0
7,-524,0,0,0,0,0,0,0,0,0,-1,1231,1548,0,0
14,-524,0,0,0,0,0,0,0,0,0,-1,1238,1548,0,0
21,-524,0,0,0,0,0,0,0,0,0,-1,1245,1548,0,0
28,-524,0,0,0,0,0,0,0,0,0,-1,1252,1548,0,0
35,-524,0,0,0,0,0,0,0,0,0,-1,1259,1548,0,0
42,-524,0,0,0,0,0,0,0,0,0,-1,1266,1548,0,0
49,-524,0,0,0,0,0,0,0,0,0,-1,1273,1548,0,0
56,-524,0,0,0,0,0,0,0,0,0,-1,1280,1548,0,0
63,-524,0,0,0,0,0,0,0,0,0,-1,1287,1548,0,0
70,-524,0,0,0,0,0,0,0,0,0,-1,1294,1548,0,0
77,-524,0,0,0,0,0,0,0,0,0,-1,1301,1548,0,0
84,-524,0,0,0,0,0,0,0,0,0,-1,1308,1548,0,0
91,-524,0,0,0,0,0,0,0,0,0,-1,1315,1548,0,0
98,-524,0,0,0,0,0,0,0,0,0,-1,1322,1548,0,0
105,-524,0,0,0,0,0,0,0,0,0,-1,1329,1548,0,0
112,-524,0,0,0,0,0,0,0,0,0,-1,1336,1548,0,0
119,-524,0,0,0,0,0,0,0,0,0,-1,1343,1548,0,0
126,-524,0,0,0,0,0,0,0,0,0,-1,1350,1548,0,0
133,-524,0,0,0,0,0,0,0,0,0,-1,1357,1548,0,0
140,-524,0,0,0,0,0,0,0,0,0,-1,1364,1548,0,0
147,-524,0,0,0,0,0,0,0,0,0,-1,1371,1548,0,0
154,-524,0,0,0,0,0,0,0,0,0,-1,1378,1548,0,0
161,-524,0,0,0,0,0,0,0,0,0,-1,1385,1548,0,0
168,-524,0,0,0,0,0,0,0,0,0,-1,1392,1548,0,0
175,-524,0,0,0,0,0,0,0,0,0,-1,1399,1548,0,0
182,-524,0,0,0,0,0,0,0,0,0,-1,1406,1548,0,0
189,-524,0,0,0,0,0,0,0,0,0,-1,1413,1548,0,0
196,-524,0,0,0,0,0,0,0,0,0,-1,1420,1548,0,0
203,-524,0,0,0,0,0,0,0,0,0,-1,1427,1548,0,0
210,-524,0,0,0,0,0,0,0,0,0,-1,1434,1548,0,0
217,-524,0,0,0,0,0,0,0,0,0,-1,1441,1548,0,0
224,-524,0,0,0,0,0,0,0,0,0,-1,1448,1548,0,0
231,-524,0,0,0,0,0,0,0,0,0,-1,1455,1548,0,0
238,-524,0,0,0,0,0,0,0,0,0,-1,1462,1548,0,0
245,-524,0,0,0,0,0,0,0,0,0,-1,1469,1548,0,0
252,-524,0,0,0,0,0,0,0,0,0,-1,1476,1548,0,0
259,-524,0,0,0,0,0,0,0,0,0,-1,1483,1548,0,0
266,-524,0,0,0,0,0,0,0,0,0,-1,1490,1548,0,0
273,-524,0,0,0,0,0,0,0,0,0,-1,1497,1548,0,0
280,-524,0,0,0,0,0,0,0,0,0,-1,1504,1548,0,0
287,-524,0,0,0,0,0,0,0,0,0,-1,1511,1548,0,0
294,-524,0,0,0,0,0,0,0,0,0,-1,1518,1548,0,0
301,-524,0,0,0,0,0,0,0,0,0,-1,1525,1548,0,0
308,-524,0,0,0,0,0,0,0,0,0,-1,1532,1548,0,0
315,-524,0,0,0,0,0,0,0,0,0,-1,1539,1548,0,0
322,-524,0,0,0,0,0,0,0,0,0,-1,1546,1548,0,0
329,-524,0,0,0,0,0,0,0,0,0,-1,1553,1548,0,0
336,-524,0,0,0,0,0,0,0,0,0,-1,1560,1548,0,0
343,-524,0,0,0,0,0,0,0,0,0,-1,1567,1548,0,0
350,-524,0,0,0,0,0,0,0,0,0,-1,1574,1548,0,0
357,-524,0,0,0,0,0,0,0,0,0,-1,1581,1548,0,0
364,-524,0,0,0,0,0,0,0,0,0,-1,1588,1548,0,0
371,-524,0,0,0,0,0,0,0,0,0,-1,1595,1548,0,0
378,-524,0,0,0,0,0,0,0,0,0,-1,1602,1548,0,0
385,-524,0,0,0,0,0,0,0,0,0,-1,1609,1548,0,0
392,-524,0,0,0,0,0,0,0,0,0,-1,1616,1548,0,0
399,-524,8.81848,5.05774,0,0,0,0,0,0,0,-1,1623,1548,8.81843,-5.05769
406,-524,8.64294,6.06799,0,0,0,0,0,0,0,-1,1630,1548,8.6429,-6.06805
413,-524,11.677,6.41858,0,0,0,0,0,0,0,-1,1637,1548,11.677,-6.41864
420,-524,11.4913,6.36401,0,0,0,0,0,0,0,-1,1644,1548,11.4913,-6.36402
427,-524,7.68335,6.17249,0,0,0,0,0,0,0,-1,1651,1548,7.68341,-6.17245
434,-524,10.432,11.6801,0,0,0,0,0,0,0,-1,1658,1548,10.432,-11.68
441,-524,8.78552,4.12305,0,0,0,0,0,0,0,-1,1665,1548,8.78553,-4.12301
448,-524,14.1854,4.78674,0,0,0,0,0,0,0,-1,1672,1548,14.1854,-4.78674
455,-524,12.4784,3.65576,0,0,0,0,0,0,0,-1,1679,1548,12.4784,-3.65572
462,-524,14.7551,9.29395,0,0,0,0,0,0,0,-1,1686,1548,14.7552,-9.29397
469,-524,16.3314,14.3779,0,0,0,0,0,0,0,-1,1693,1548,16.3314,-14.3779
476,-524,15.9106,15.1875,0,0,0,0,0,0,0,-1,1700,1548,15.9107,-15.1876
483,-524,15.2776,16.2268,0,0,0,0,0,0,0,-1,1707,1548,15.2776,-16.2269
490,-524,15.2563,18.5848,0,0,0,0,0,0,0,-1,1714,1548,15.2564,-18.5848
497,-524,17.5173,22.6123,0,0,0,0,0,0,0,-1,1721,1548,17.5174,-22.6123
504,-524,19.161,26.113,0,0,0,0,0,0,0,-1,1728,1548,19.161,-26.1131
511,-524,19.5571,25.3335,0,0,0,0,0,0,0,-1,1735,1548,19.5571,-25.3335
518,-524,19.5946,24.679,0.00825649,0.0081067,-0.00673091,0.0149129,0.00145026,-0.779835,0.00949552,0.0270778,1742,1548,19.5945,-24.6789
525,-524,19.5902,24.1547,0.00641392,0.00614404,-0.00512955,0.0114103,0.00114766,-0.772248,0.00725464,0.014056,1749,1548,19.5902,-24.1547
532,-524,19.5758,23.6189,0.00490712,0.00455199,-0.00377959,0.00851331,0.000945803,-0.761926,0.00538802,0.0101382,1756,1548,19.5758,-23.6189
539,-524,19.5629,23.1011,0.00375303,0.00319203,-0.00263326,0.00612069,0.00082437,-0.732337,0.00383532,0.0117761,1763,1548,19.5628,-23.1011
546,-524,19.5313,22.6357,0.00279491,0.00196546,-0.00161685,0.00404937,0.000710997,-0.659854,0.00249656,0.0160997,1770,1548,19.5312,-22.6358
553,-524,19.5364,22.1307,0.00200267,0.000933179,-0.000714725,0.00236055,0.000575297,-0.464229,0.00142129,0.0242765,1777,1548,19.5363,-22.1308
560,-524,19.5715,21.5995,0.00152561,0.000161249,-2.80683e-05,0.00152619,0.000160672,-0.0205609,0.000968355,0.0325401,1784,1548,19.5715,-21.5995
567,-524,19.5054,21.1216,0.00136491,-0.000233663,0.000309319,0.00142268,-0.000291428,0.184622,0.00105904,0.0196695,1791,1548,19.5054,-21.1216
574,-524,19.4943,20.5632,0.00139607,-0.000390606,0.000434656,0.0014962,-0.000490736,0.226417,0.00119511,0.0144466,1798,1548,19.4942,-20.5632
581,-524,19.4906,20.0079,0.00175674,-0.000282436,0.000258654,0.00178904,-0.000314733,0.124222,0.00131026,0.0151615,1805,1548,19.4906,-20.008
588,-524,19.5399,19.4833,0.00243173,0.00023467,-0.000222593,0.00245406,0.000212346,-0.0999606,0.00157005,0.0283672,1812,1548,19.5399,-19.4833
595,-524,19.6058,18.7386,0,0,0,0,0,0,0,-1,1819,1548,19.6058,-18.7386
602,-524,13.837,12.0682,0,0,0,0,0,0,0,-1,1826,1548,13.837,-12.0683
609,-524,13.0056,10.5138,0,0,0,0,0,0,0,-1,1833,1548,13.0056,-10.5138
616,-524,11.6941,8.65515,0,0,0,0,0,0,0,-1,1840,1548,11.6941,-8.65514
623,-524,9.38452,5.15356,0,0,0,0,0,0,0,-1,1847,1548,9.38456,-5.15359
630,-524,11.0541,3.57434,0,0,0,0,0,0,0,-1,1854,1548,11.0541,-3.57438
637,-524,11.6067,3.20728,0,0,0,0,0,0,0,-1,1861,1548,11.6067,-3.20724
644,-524,12.2134,0.727173,0,0,0,0,0,0,0,-1,1868,1548,12.2134,-0.727222
651,-524,0,0,0,0,0,0,0,0,0,-1,1875,1548,0,0
658,-524,0,0,0,0,0,0,0,0,0,-1,1882,1548,0,0
665,-524,0,0,0,0,0,0,0,0,0,-1,1889,1548,0,0
672,-524,0,0,0,0,0,0,0,0,0,-1,1896,1548,0,0
679,-524,0,0,0,0,0,0,0,0,0,-1,1903,1548,0,0
686,-524,0,0,0,0,0,0,0,0,0,-1,1910,1548,0,0
693,-524,0,0,0,0,0,0,0,0,0,-1,1917,1548,0,0
700,-524,0,0,0,0,0,0,0,0,0,-1,1924,1548,0,0
707,-524,0,0,0,0,0,0,0,0,0,-1,1931,1548,0,0
714,-524,0,0,0,0,0,0,0,0,0,-1,1938,1548,0,0
721,-524,0,0,0,0,0,0,0,0,0,-1,1945,1548,0,0
728,-524,0,0,0,0,0,0,0,0,0,-1,1952,1548,0,0
735,-524,0,0,0,0,0,0,0,0,0,-1,1959,1548,0,0
742,-524,0,0,0,0,0,0,0,0,0,-1,1966,1548,0,0
749,-524,0,0,0,0,0,0,0,0,0,-1,1973,1548,0,0
756,-524,0,0,0,0,0,0,0,0,0,-1,1980,1548,0,0
763,-524,0,0,0,0,0,0,0,0,0,-1,1987,1548,0,0
770,-524,0,0,0,0,0,0,0,0,0,-1,1994,1548,0,0
777,-524,0,0,0,0,0,0,0,0,0,-1,2001,1548,0,0
784,-524,0,0,0,0,0,0,0,0,0,-1,2008,1548,0,0
791,-524,0,0,0,0,0,0,0,0,0,-1,2015,1548,0,0
798,-524,0,0,0,0,0,0,0,0,0,-1,2022,1548,0,0
805,-524,0,0,0,0,0,0,0,0,0,-1,2029,1548,0,0
812,-524,0,0,0,0,0,0,0,0,0,-1,2036,1548,0,0
-700,-531,0,0,0,0,0,0,0,0,0,-1,524,1555,0,0
-693,-531,0,0,0,0,0,0,0,0,0,-1,531,1555,0,0
-686,-531,0,0,0,0,0,0,0,0,0,-1,538,1555,0,0
-679,-531,0,0,0,0,0,0,0,0,0,-1,545,1555,0,0
-672,-531,0,0,0,0,0,0,0,0,0,-1,552,1555,0,0
-665,-531,0,0,0,0,0,0,0,0,0,-1,559,1555,0,0
-658,-531,0,0,0,0,0,0,0,0,0,-1,566,1555,0,0
-651,-531,0,0,0,0,0,0,0,0,0,-1,573,1555,0,0
-644,-531,0,0,0,0,0,0,0,0,0,-1,580,1555,0,0
-637,-531,0,0,0,0,0,0,0,0,0,-1,587,1555,0,0
-630,-531,0,0,0,0,0,0,0,0,0,-1,594,1555,0,0
-623,-531,0,0,0,0,0,0,0,0,0,-1,601,1555,0,0
-616,-531,0,0,0,0,0,0,0,0,0,-1,608,1555,0,0
-609,-531,0,0,0,0,0,0,0,0,0,-1,615,1555,0,0
-602,-531,0,0,0,0,0,0,0,0,0,-1,622,1555,0,0
-595,-531,0,0,0,0,0,0,0,0,0,-1,629,1555,0,0
-588,-531,0,0,0,0,0,0,0,0,0,-1,636,1555,0,0
-581,-531,0,0,0,0,0,0,0,0,0,-1,643,1555,0,0
-574,-531,0,0,0,0,0,0,0,0,0,-1,650,1555,0,0
-567,-531,0,0,0,0,0,0,0,0,0,-1,657,1555,0,0
-560,-531,0,0,0,0,0,0,0,0,0,-1,664,1555,0,0
-553,-531,0,0,0,0,0,0,0,0,0,-1,671,1555,0,0
-546,-531,0,0,0,0,0,0,0,0,0,-1,678,1555,0,0
-539,-531,0,0,0,0,0,0,0,0,0,-1,685,1555,0,0
-532,-531,0,0,0,0,0,0,0,0,0,-1,692,1555,0,0
-525,-531,0,0,0,0,0,0,0,0,0,-1,699,1555,0,0
-518,-531,-1.63983,4.03821,0,0,0,0,0,0,0,-1,706,1555,-1.63982,-4.03821
-511,-531,-2.9682,8.07483,0,0,0,0,0,0,0,-1,713,1555,-2.9682,-8.07479
-504,-531,-2.95978,0.557861,0,0,0,0,0,0,0,-1,720,1555,-2.95978,-0.557917
-497,-531,-2.46039,8.07422,0,0,0,0,0,0,0,-1,727,1555,-2.46039,-8.07423
-490,-531,-0.423462,7.92065,0,0,0,0,0,0,0,-1,734,1555,-0.42344,-7.92066
-483,-531,-2.4892,16.4528,0,0,0,0,0,0,0,-1,741,1555,-2.48919,-16.4527
-476,-531,-2.06769,17.1082,0,0,0,0,0,0,0,-1,748,1555,-2.06767,-17.1081
-469,-531,-2.40338,17.3376,-0.0135373,0.00868295,-0.00780112,0.0111483,-0.0160026,-1.26471,0.0157589,0.0442839,755,1555,-2.40341,-17.3377
-462,-531,-2.6203,17.847,-0.0105245,0.00735098,-0.00584185,0.0090908,-0.0122643,-1.28134,0.0123747,0.0426403,762,1555,-2.62032,-17.847
-455,-531,-2.90338,18.455,-0.00814241,0.00607631,-0.00432359,0.00728779,-0.00935389,-1.2976,0.00963273,0.0383982,769,1555,-2.9034,-18.455
-448,-531,-2.8006,18.7649,-0.00626869,0.00469803,-0.00320998,0.00556851,-0.00713916,-1.30599,0.00735543,0.0187101,776,1555,-2.80058,-18.7649
-441,-531,-2.88116,19.3097,-0.00463827,0.0036265,-0.00223809,0.00419365,-0.00520542,-1.32261,0.00543703,0.0121486,783,1555,-2.88115,-19.3097
-434,-531,-2.89551,19.8979,-0.00312999,0.00291168,-0.00129229,0.00317648,-0.0033948,-1.36868,0.00379463,0.0113742,790,1555,-2.89553,-19.898
-427,-531,-2.91534,20.4608,-0.00168161,0.00251647,-0.000407963,0.00255575,-0.00172089,-1.47481,0.00248475,0.0128377,797,1555,-2.91535,-20.4608
-420,-531,-2.95135,21.0095,-0.000384608,0.002352,0.000442989,0.00242193,-0.00045453,1.41425,0.00178552,0.0121874,804,1555,-2.95137,-21.0096
-413,-531,-2.95953,21.5464,0.000839479,0.00260227,0.00135095,0.00333392,0.000107829,1.07444,0.00218756,0.0110683,811,1555,-2.95955,-21.5464
-406,-531,-2.9682,22.0771,0.00187649,0.00315876,0.00219969,0.00480884,0.00022641,0.927203,0.00313315,0.0123224,818,1555,-2.96818,-22.0772
-399,-531,-2.99261,22.634,0.00258579,0.00412812,0.00283421,0.00629421,0.000419702,0.918229,0.00406347,0.0128811,825,1555,-2.99261,-22.634
-392,-531,-3.02667,23.183,0.00311262,0.00613688,0.00322975,0.00819096,0.00105855,1.00434,0.00514422,0.0157529,832,1555,-3.02667,-23.1829
-385,-531,-3.06305,23.7267,0.00344409,0.00814002,0.00359887,0.0100891,0.00149499,1.07443,0.00628728,0.0142899,839,1555,-3.06302,-23.7267
-378,-531,-3.06696,24.2124,0.00350695,0.0104038,0.0036948,0.0120094,0.00190135,1.16086,0.00745375,0.0175241,846,1555,-3.06694,-24.2124
-371,-531,-3.03485,24.8333,0,0,0,0,0,0,0,-1,853,1555,-3.03485,-24.8332
-364,-531,-2.85315,25.569,0,0,0,0,0,0,0,-1,860,1555,-2.85318,-25.5689
-357,-531,-2.86902,26.1913,0,0,0,0,0,0,0,-1,867,1555,-2.86901,-26.1912
-350,-531,-3.80219,27.2609,0,0,0,0,0,0,0,-1,874,1555,-3.80218,-27.2609
-343,-531,-3.99805,28.2346,0,0,0,0,0,0,0,-1,881,1555,-3.99802,-28.2346
-336,-531,-3.61169,29.3,0,0,0,0,0,0,0,-1,888,1555,-3.61172,-29.3
-329,-531,-4.02655,29.9744,0,0,0,0,0,0,0,-1,895,1555,-4.02655,-29.9744
-322,-531,-0.655029,28.5603,0,0,0,0,0,0,0,-1,902,1555,-0.655029,-28.5602
-315,-531,-3.92139,28.7059,0,0,0,0,0,0,0,-1,909,1555,-3.92138,-28.706
-308,-531,-1.66455,19.0624,0,0,0,0,0,0,0,-1,916,1555,-1.66455,-19.0623
-301,-531,-2.02405,18.8912,0,0,0,0,0,0,0,-1,923,1555,-2.02407,-18.8913
-294,-531,-1.3244,8.1825,0,0,0,0,0,0,0,-1,930,1555,-1.3244,-8.18251
-287,-531,-1.78192,10.1661,0,0,0,0,0,0,0,-1,937,1555,-1.78192,-10.1661
-280,-531,-2.14508,10.3945,0,0,0,0,0,0,0,-1,944,1555,-2.14506,-10.3945
-273,-531,-2.50818,10.6229,0,0,0,0,0,0,0,-1,951,1555,-2.5082,-10.6229
-266,-531,-4.97742,17.9215,0,0,0,0,0,0,0,-1,958,1555,-4.97744,-17.9215
-259,-531,0,0,0,0,0,0,0,0,0,-1,965,1555,0,0
-252,-531,0,0,0,0,0,0,0,0,0,-1,972,1555,0,0
-245,-531,0,0,0,0,0,0,0,0,0,-1,979,1555,0,0
-238,-531,0,0,0,0,0,0,0,0,0,-1,986,1555,0,0
-231,-531,0,0,0,0,0,0,0,0,0,-1,993,1555,0,0
-224,-531,0,0,0,0,0,0,0,0,0,-1,1000,1555,0,0
-217,-531,0,0,0,0,0,0,0,0,0,-1,1007,1555,0,0
-210,-531,0,0,0,0,0,0,0,0,0,-1,1014,1555,0,0
-203,-531,0,0,0,0,0,0,0,0,0,-1,1021,1555,0,0
-196,-531,0,0,0,0,0,0,0,0,0,-1,1028,1555,0,0
-189,-531,0,0,0,0,0,0,0,0,0,-1,1035,1555,0,0
-182,-531,0,0,0,0,0,0,0,0,0,-1,1042,1555,0,0
-175,-531,0,0,0,0,0,0,0,0,0,-1,1049,1555,0,0
-168,-531,0,0,0,0,0,0,0,0,0,-1,1056,1555,0,0
-161,-531,0,0,0,0,0,0,0,0,0,-1,1063,1555,0,0
-154,-531,0,0,0,0,0,0,0,0,0,-1,1070,1555,0,0
-147,-531,0,0,0,0,0,0,0,0,0,-1,1077,1555,0,0
-140,-531,0,0,0,0,0,0,0,0,0,-1,1084,1555,0,0
-133,-531,0,0,0,0,0,0,0,0,0,-1,1091,1555,0,0
-126,-531,0,0,0,0,0,0,0,0,0,-1,1098,1555,0,0
-119,-531,0,0,0,0,0,0,0,0,0,-1,1105,1555,0,0
-112,-531,0,0,0,0,0,0,0,0,0,-1,1112,1555,0,0
-105,-531,0,0,0,0,0,0,0,0,0,-1,1119,1555,0,0
-98,-531,0,0,0,0,0,0,0,0,0,-1,1126,1555,0,0
-91,-531,0,0,0,0,0,0,0,0,0,-1,1133,1555,0,0
-84,-531,0,0,0,0,0,0,0,0,0,-1,1140,1555,0,0
-77,-531,0,0,0,0,0,0,0,0,0,-1,1147,1555,0,0
-70,-531,0,0,0,0,0,0,0,0,0,-1,1154,1555,0,0
-63,-531,0,0,0,0,0,0,0,0,0,-1,1161,1555,0,0
-56,-531,0,0,0,0,0,0,0,0,0,-1,1168,1555,0,0
-49,-531,0,0,0,0,0,0,0,0,0,-1,1175,1555,0,0
-42,-531,0,0,0,0,0,0,0,0,0,-1,1182,1555,0,0
-35,-531,0,0,0,0,0,0,0,0,0,-1,1189,1555,0,0
-28,-531,0,0,0,0,0,0,0,0,0,-1,1196,1555,0,0
-21,-531,0,0,0,0,0,0,0,0,0,-1,1203,1555,0,0
-14,-531,0,0,0,0,0,0,0,0,0,-1,1210,1555,0,0
-7,-531,0,0,0,0,0,0,0,0,0,-1,1217,1555,0,0
0,-531,0,0,0,0,0,0,0,0,0,-1,1224,1555,0,0
7,-531,0,0,0,0,0,0,0,0,0,-1,1231,1555,0,0
14,-531,0,0,0,0,0,0,0,0,0,-1,1238,1555,0,0
21,-531,0,0,0,0,0,0,0,0,0,-1,1245,1555,0,0
28,-531,0,0,0,0,0,0,0,0,0,-1,1252,1555,0,0
35,-531,0,0,0,0,0,0,0,0,0,-1,1259,1555,0,0
42,-531,0,0,0,0,0,0,0,0,0,-1,1266,1555,0,0
49,-531,0,0,0,0,0,0,0,0,0,-1,1273,1555,0,0
56,-531,0,0,0,0,0,0,0,0,0,-1,1280,1555,0,0
63,-531,0,0,0,0,0,0,0,0,0,-1,1287,1555,0,0
70,-531,0,0,0,0,0,0,0,0,0,-1,1294,1555,0,0
77,-531,0,0,0,0,0,0,0,0,0,-1,1301,1555,0,0
84,-531,0,0,0,0,0,0,0,0,0,-1,1308,1555,0,0
91,-531,0,0,0,0,0,0,0,0,0,-1,1315,1555,0,0
98,-531,0,0,0,0,0,0,0,0,0,-1,1322,1555,0,0
105,-531,0,0,0,0,0,0,0,0,0,-1,1329,1555,0,0
112,-531,0,0,0,0,0,0,0,0,0,-1,1336,1555,0,0
119,-531,0,0,0,0,0,0,0,0,0,-1,1343,1555,0,0
126,-531,0,0,0,0,0,0,0,0,0,-1,1350,1555,0,0
133,-531,0,0,0,0,0,0,0,0,0,-1,1357,1555,0,0
140,-531,0,0,0,0,0,0,0,0,0,-1,1364,1555,0,0
147,-531,0,0,0,0,0,0,0,0,0,-1,1371,1555,0,0
154,-531,0,0,0,0,0,0,0,0,0,-1,1378,1555,0,0
161,-531,0,0,0,0,0,0,0,0,0,-1,1385,1555,0,0
168,-531,0,0,0,0,0,0,0,0,0,-1,1392,1555,0,0
175,-531,0,0,0,0,0,0,0,0,0,-1,1399,1555,0,0
182,-531,0,0,0,0,0,0,0,0,0,-1,1406,1555,0,0
189,-531,0,0,0,0,0,0,0,0,0,-1,1413,1555,0,0
196,-531,0,0,0,0,0,0,0,0,0,-1,1420,1555,0,0
203,-531,0,0,0,0,0,0,0,0,0,-1,1427,1555,0,0
210,-531,0,0,0,0,0,0,0,0,0,-1,1434,1555,0,0
217,-531,0,0,0,0,0,0,0,0,0,-1,1441,1555,0,0
224,-531,0,0,0,0,0,0,0,0,0,-1,1448,1555,0,0
231,-531,0,0,0,0,0,0,0,0,0,-1,1455,1555,0,0
238,-531,0,0,0,0,0,0,0,0,0,-1,1462,1555,0,0
245,-531,0,0,0,0,0,0,0,0,0,-1,1469,1555,0,0
252,-531,0,0,0,0,0,0,0,0,0,-1,1476,1555,0,0
259,-531,0,0,0,0,0,0,0,0,0,-1,1483,1555,0,0
266,-531,0,0,0,0,0,0,0,0,0,-1,1490,1555,0,0
273,-531,0,0,0,0,0,0,0,0,0,-1,1497,1555,0,0
280,-531,0,0,0,0,0,0,0,0,0,-1,1504,1555,0,0
287,-531,0,0,0,0,0,0,0,0,0,-1,1511,1555,0,0
294,-531,0,0,0,0,0,0,0,0,0,-1,1518,1555,0,0
301,-531,0,0,0,0,0,0,0,0,0,-1,1525,1555,0,0
308,-531,0,0,0,0,0,0,0,0,0,-1,1532,1555,0,0
315,-531,0,0,0,0,0,0,0,0,0,-1,1539,1555,0,0
322,-531,0,0,0,0,0,0,0,0,0,-1,1546,1555,0,0
329,-531,0,0,0,0,0,0,0,0,0,-1,1553,1555,0,0
336,-531,0,0,0,0,0,0,0,0,0,-1,1560,1555,0,0
343,-531,0,0,0,0,0,0,0,0,0,-1,1567,1555,0,0
350,-531,0,0,0,0,0,0,0,0,0,-1,1574,1555,0,0
357,-531,0,0,0,0,0,0,0,0,0,-1,1581,1555,0,0
364,-531,0,0,0,0,0,0,0,0,0,-1,1588,1555,0,0
371,-531,0,0,0,0,0,0,0,0,0,-1,1595,1555,0,0
378,-531,0,0,0,0,0,0,0,0,0,-1,1602,1555,0,0
385,-531,3.48169,1.78625,0,0,0,0,0,0,0,-1,1609,1555,3.48165,-1.78624
392,-531,10.8781,9.09204,0,0,0,0,0,0,0,-1,1616,1555,10.8781,-9.09205
399,-531,8.26306,5.29602,0,0,0,0,0,0,0,-1,1623,1555,8.26302,-5.29607
406,-531,8.26147,5.42712,0,0,0,0,0,0,0,-1,1630,1555,8.26145,-5.42716
413,-531,8.20618,5.75012,0,0,0,0,0,0,0,-1,1637,1555,8.20619,-5.75017
420,-531,7.64868,7.09558,0,0,0,0,0,0,0,-1,1644,1555,7.64867,-7.09564
427,-531,9.93054,11.8412,0,0,0,0,0,0,0,-1,1651,1555,9.93059,-11.8412
434,-531,10.244,11.7072,0,0,0,0,0,0,0,-1,1658,1555,10.244,-11.7071
441,-531,11.4528,12.9397,0,0,0,0,0,0,0,-1,1665,1555,11.4528,-12.9397
448,-531,11.928,18.8029,0,0,0,0,0,0,0,-1,1672,1555,11.928,-18.8028
455,-531,14.4877,9.67065,0,0,0,0,0,0,0,-1,1679,1555,14.4876,-9.67066
462,-531,13.5253,12.2002,0,0,0,0,0,0,0,-1,1686,1555,13.5252,-12.2002
469,-531,15.5087,15.7894,0,0,0,0,0,0,0,-1,1693,1555,15.5086,-15.7895
476,-531,14.6582,16.2264,0,0,0,0,0,0,0,-1,1700,1555,14.6582,-16.2264
483,-531,14.755,18.5994,0,0,0,0,0,0,0,-1,1707,1555,14.7551,-18.5994
490,-531,16.9362,25.4943,0,0,0,0,0,0,0,-1,1714,1555,16.9362,-25.4942
497,-531,18.7799,26.6292,0,0,0,0,0,0,0,-1,1721,1555,18.78,-26.6292
504,-531,18.9438,25.8411,0.00980608,0.0107588,-0.0083338,0.0186298,0.00193502,-0.813946,0.0118278,0.0404817,1728,1555,18.9439,-25.841
511,-531,19.0645,25.2325,0.00804351,0.00868868,-0.00681271,0.0151864,0.00154575,-0.809056,0.0096504,0.0167434,1735,1555,19.0644,-25.2325
518,-531,19.0798,24.7109,0.00636649,0.0065482,-0.00521846,0.0116766,0.00123809,-0.794103,0.00740627,0.0143434,1742,1555,19.0799,-24.711
525,-531,19.0811,24.1824,0.00479366,0.00469879,-0.00379317,0.00853969,0.000952752,-0.779146,0.00540362,0.0136627,1749,1555,19.081,-24.1823
532,-531,19.0781,23.6508,0.00351774,0.0031873,-0.00258084,0.00593864,0.000766395,-0.753433,0.00372996,0.010761,1756,1555,19.0782,-23.6508
539,-531,19.0537,23.1577,0.00254966,0.00190321,-0.00153374,0.00379386,0.000659005,-0.681547,0.0023407,0.0127916,1763,1555,19.0537,-23.1577
546,-531,19.0219,22.6663,0.00171918,0.000685188,-0.000550376,0.0019573,0.00044707,-0.408329,0.00118431,0.0167036,1770,1555,19.0218,-22.6662
553,-531,19.0706,22.1429,0.00104991,-0.000355883,0.000352154,0.0011332,-0.000439164,0.232224,0.000936817,0.0319891,1777,1555,19.0706,-22.143
560,-531,19.0298,21.6069,0.000699395,-0.00113355,0.00105205,0.00117817,-0.00161233,0.427081,0.00161758,0.0349156,1784,1555,19.0298,-21.6069
567,-531,18.9347,21.0968,0.00065286,-0.00154582,0.00144061,0.00136567,-0.00225863,0.459479,0.00211356,0.020211,1791,1555,18.9347,-21.0968
574,-531,18.9341,20.5637,0.000819494,-0.00170704,0.00161397,0.0016058,-0.00249335,0.453344,0.00238506,0.0141509,1798,1555,18.934,-20.5637
581,-531,18.9789,19.9948,0.00142315,-0.00151308,0.00139274,0.00197867,-0.0020686,0.379528,0.00233688,0.0213215,1805,1555,18.9789,-19.9947
588,-531,19.021,19.3851,0.00241864,-0.000809917,0.000818023,0.00261407,-0.00100535,0.234513,0.00215738,0.0385482,1812,1555,19.021,-19.3852
595,-531,19.0132,18.7219,0,0,0,0,0,0,0,-1,1819,1555,19.0132,-18.7219
602,-531,13.701,11.8346,0,0,0,0,0,0,0,-1,1826,1555,13.701,-11.8347
609,-531,10.9072,8.50903,0,0,0,0,0,0,0,-1,1833,1555,10.9073,-8.50902
616,-531,10.5723,7.17859,0,0,0,0,0,0,0,-1,1840,1555,10.5723,-7.17855
623,-531,10.0674,5.08984,0,0,0,0,0,0,0,-1,1847,1555,10.0674,-5.08981
630,-531,11.672,3.18909,0,0,0,0,0,0,0,-1,1854,1555,11.672,-3.18904
637,-531,13.2546,1.38965,0,0,0,0,0,0,0,-1,1861,1555,13.2547,-1.3896
644,-531,0,0,0,0,0,0,0,0,0,-1,1868,1555,0,0
651,-531,0,0,0,0,0,0,0,0,0,-1,1875,1555,0,0
658,-531,0,0,0,0,0,0,0,0,0,-1,1882,1555,0,0
665,-531,0,0,0,0,0,0,0,0,0,-1,1889,1555,0,0
672,-531,0,0,0,0,0,0,0,0,0,-1,1896,1555,0,0
679,-531,0,0,0,0,0,0,0,0,0,-1,1903,1555,0,0
686,-531,0,0,0,0,0,0,0,0,0,-1,1910,1555,0,0
693,-531,0,0,0,0,0,0,0,0,0,-1,1917,1555,0,0
700,-531,0,0,0,0,0,0,0,0,0,-1,1924,1555,0,0
707,-531,0,0,0,0,0,0,0,0,0,-1,1931,1555,0,0
714,-531,0,0,0,0,0,0,0,0,0,-1,1938,1555,0,0
721,-531,0,0,0,0,0,0,0,0,0,-1,1945,1555,0,0
728,-531,0,0,0,0,0,0,0,0,0,-1,1952,1555,0,0
735,-531,0,0,0,0,0,0,0,0,0,-1,1959,1555,0,0
742,-531,0,0,0,0,0,0,0,0,0,-1,1966,1555,0,0
749,-531,0,0,0,0,0,0,0,0,0,-1,1973,1555,0,0
756,-531,0,0,0,0,0,0,0,0,0,-1,1980,1555,0,0
763,-531,0,0,0,0,0,0,0,0,0,-1,1987,1555,0,0
770,-531,0,0,0,0,0,0,0,0,0,-1,1994,1555,0,0
777,-531,0,0,0,0,0,0,0,0,0,-1,2001,1555,0,0
784,-531,0,0,0,0,0,0,0,0,0,-1,2008,1555,0,0
791,-531,0,0,0,0,0,0,0,0,0,-1,2015,1555,0,0
798,-531,0,0,0,0,0,0,0,0,0,-1,2022,1555,0,0
805,-531,0,0,0,0,0,0,0,0,0,-1,2029,1555,0,0
812,-531,0,0,0,0,0,0,0,0,0,-1,2036,1555,0,0
-700,-538,0,0,0,0,0,0,0,0,0,-1,524,1562,0,0
-693,-538,0,0,0,0,0,0,0,0,0,-1,531,1562,0,0
-686,-538,0,0,0,0,0,0,0,0,0,-1,538,1562,0,0
-679,-538,0,0,0,0,0,0,0,0,0,-1,545,1562,0,0
-672,-538,0,0,0,0,0,0,0,0,0,-1,552,1562,0,0
-665,-538,0,0,0,0,0,0,0,0,0,-1,559,1562,0,0
-658,-538,0,0,0,0,0,0,0,0,0,-1,566,1562,0,0
-651,-538,0,0,0,0,0,0,0,0,0,-1,573,1562,0,0
-644,-538,0,0,0,0,0,0,0,0,0,-1,580,1562,0,0
-637,-538,0,0,0,0,0,0,0,0,0,-1,587,1562,0,0
-630,-538,0,0,0,0,0,0,0,0,0,-1,594,1562,0,0
-623,-538,0,0,0,0,0,0,0,0,0,-1,601,1562,0,0
-616,-538,0,0,0,0,0,0,0,0,0,-1,608,1562,0,0
-609,-538,0,0,0,0,0,0,0,0,0,-1,615,1562,0,0
-602,-538,0,0,0,0,0,0,0,0,0,-1,622,1562,0,0
-595,-538,0,0,0,0,0,0,0,0,0,-1,629,1562,0,0
-588,-538,0,0,0,0,0,0,0,0,0,-1,636,1562,0,0
-581,-538,0,0,0,0,0,0,0,0,0,-1,643,1562,0,0
-574,-538,0,0,0,0,0,0,0,0,0,-1,650,1562,0,0
-567,-538,0,0,0,0,0,0,0,0,0,-1,657,1562,0,0
-560,-538,0,0,0,0,0,0,0,0,0,-1,664,1562,0,0
-553,-538,0,0,0,0,0,0,0,0,0,-1,671,1562,0,0
-546,-538,0,0,0,0,0,0,0,0,0,-1,678,1562,0,0
-539,-538,0,0,0,0,0,0,0,0,0,-1,685,1562,0,0
-532,-538,0,0,0,0,0,0,0,0,0,-1,692,1562,0,0
-525,-538,0,0,0,0,0,0,0,0,0,-1,699,1562,0,0
-518,-538,0,0,0,0,0,0,0,0,0,-1,706,1562,0,0
-511,-538,-2.6582,-1.54321,0,0,0,0,0,0,0,-1,713,1562,-2.65821,1.54327
-504,-538,-2.66455,-0.71167,0,0,0,0,0,0,0,-1,720,1562,-2.66456,0.711667
-497,-538,-0.763855,6.77747,0,0,0,0,0,0,0,-1,727,1562,-0.76385,-6.77743
-490,-538,-2.70453,8.01465,0,0,0,0,0,0,0,-1,734,1562,-2.70451,-8.0147
-483,-538,-0.933533,7.84644,0,0,0,0,0,0,0,-1,741,1562,-0.933548,-7.84638
-476,-538,-3.29962,15.8307,0,0,0,0,0,0,0,-1,748,1562,-3.29962,-15.8306
-469,-538,-1.96954,17.0503,0,0,0,0,0,0,0,-1,755,1562,-1.96956,-17.0502
-462,-538,-2.047,17.7161,-0.0114956,0.0116318,-0.00575041,0.0129827,-0.0128465,-1.34006,0.0149125,0.047761,762,1562,-2.04699,-17.7161
-455,-538,-2.11029,18.2594,-0.00911635,0.00940475,-0.00425772,0.0103366,-0.0100482,-1.35532,0.0117696,0.0418898,769,1562,-2.11026,-18.2594
-448,-538,-2.19501,18.899,-0.00728834,0.00707942,-0.00327767,0.00779182,-0.00800074,-1.35678,0.0091181,0.0213372,776,1562,-2.195,-18.899
-441,-538,-2.29822,19.4403,-0.00576986,0.00522719,-0.00250482,0.00577084,-0.00631351,-1.35707,0.00697925,0.0240169,783,1562,-2.29821,-19.4403
-434,-538,-2.36877,19.8969,-0.00431585,0.00379904,-0.00172736,0.00415143,-0.00466824,-1.36955,0.00509495,0.0126161,790,1562,-2.36876,-19.8969
-427,-538,-2.41394,20.4948,-0.00289731,0.00291449,-0.000956919,0.00306799,-0.00305081,-1.41174,0.0035327,0.0128233,797,1562,-2.41393,-20.4948
-420,-538,-2.43671,21.0515,-0.00163823,0.00233948,-0.000241522,0.00235409,-0.00165284,-1.51037,0.00232518,0.0169557,804,1562,-2.43668,-21.0515
-413,-538,-2.43939,21.5787,-0.00045517,0.00223267,0.000548542,0.00234031,-0.000562808,1.37703,0.00177776,0.0174838,811,1562,-2.43937,-21.5787
-406,-538,-2.42322,22.1031,0.000576007,0.00243081,0.00123141,0.00304497,-3.81612e-05,1.10815,0.00204282,0.0139137,818,1562,-2.4232,-22.1031
-399,-538,-2.44971,22.6504,0.00126727,0.00288072,0.00170007,0.00395576,0.000192223,1.00693,0.00257549,0.0122308,825,1562,-2.44973,-22.6504
-392,-538,-2.47913,23.1924,0.00181826,0.00439493,0.00201014,0.00549416,0.000719029,1.07038,0.00344818,0.0137703,832,1562,-2.47912,-23.1923
-385,-538,-2.5058,23.7336,0.00225828,0.00599689,0.0022637,0.00706334,0.00119184,1.13053,0.00436618,0.0126607,839,1562,-2.50582,-23.7337
-378,-538,-2.50372,24.2638,0.00246093,0.00781191,0.00230295,0.00866655,0.00160629,1.21544,0.00532367,0.01061,846,1562,-2.50371,-24.2638
-371,-538,-2.53882,24.7639,0.00254376,0.0100644,0.0022542,0.0106883,0.00191985,1.30078,0.00657962,0.0135905,853,1562,-2.53884,-24.7639
-364,-538,-2.47339,25.394,0.00247884,0.012818,0.00203685,0.0132048,0.00209204,1.38313,0.00819532,0.0184146,860,1562,-2.47341,-25.394
-357,-538,-2.41345,26.0587,0.00223823,0.0161852,0.00163153,0.0163735,0.00204992,1.45588,0.0103006,0.0420426,867,1562,-2.41346,-26.0587
-350,-538,-2.83398,26.6644,0.00196713,0.0202281,0.00114819,0.0203,0.00189521,1.50825,0.0129479,0.0478208,874,1562,-2.83401,-26.6644
-343,-538,-2.95837,27.4664,0.00141332,0.0246833,0.000327669,0.0246879,0.0014087,1.55672,0.0160097,0.044548,881,1562,-2.95839,-27.4664
-336,-538,-3.01141,28.2382,0,0,0,0,0,0,0,-1,888,1562,-3.01144,-28.2382
-329,-538,-3.10583,28.7306,0,0,0,0,0,0,0,-1,895,1562,-3.10585,-28.7306
-322,-538,-3.22003,29.2385,0,0,0,0,0,0,0,-1,902,1562,-3.22001,-29.2386
-315,-538,-3.11243,27.4591,0,0,0,0,0,0,0,-1,909,1562,-3.11243,-27.4591
-308,-538,-3.32458,27.5726,0,0,0,0,0,0,0,-1,916,1562,-3.32458,-27.5727
-301,-538,-0.452393,18.5101,0,0,0,0,0,0,0,-1,923,1562,-0.452367,-18.5102
-294,-538,1.23138,14.0757,0,0,0,0,0,0,0,-1,930,1562,1.23137,-14.0757
-287,-538,-2.60419,10.2361,0,0,0,0,0,0,0,-1,937,1562,-2.6042,-10.2361
-280,-538,-2.93475,10.5106,0,0,0,0,0,0,0,-1,944,1562,-2.93475,-10.5106
-273,-538,-3.26532,10.785,0,0,0,0,0,0,0,-1,951,1562,-3.26531,-10.785
-266,-538,-5.03412,15.9951,0,0,0,0,0,0,0,-1,958,1562,-5.03409,-15.9951
-259,-538,-5.89642,16.5184,0,0,0,0,0,0,0,-1,965,1562,-5.89644,-16.5184
-252,-538,0,0,0,0,0,0,0,0,0,-1,972,1562,0,0
-245,-538,0,0,0,0,0,0,0,0,0,-1,979,1562,0,0
-238,-538,0,0,0,0,0,0,0,0,0,-1,986,1562,0,0
-231,-538,0,0,0,0,0,0,0,0,0,-1,993,1562,0,0
-224,-538,0,0,0,0,0,0,0,0,0,-1,1000,1562,0,0
-217,-538,0,0,0,0,0,0,0,0,0,-1,1007,1562,0,0
-210,-538,0,0,0,0,0,0,0,0,0,-1,1014,1562,0,0
-203,-538,0,0,0,0,0,0,0,0,0,-1,1021,1562,0,0
-196,-538,0,0,0,0,0,0,0,0,0,-1,1028,1562,0,0
-189,-538,0,0,0,0,0,0,0,0,0,-1,1035,1562,0,0
-182,-538,0,0,0,0,0,0,0,0,0,-1,1042,1562,0,0
-175,-538,0,0,0,0,0,0,0,0,0,-1,1049,1562,0,0
-168,-538,0,0,0,0,0,0,0,0,0,-1,1056,1562,0,0
-161,-538,0,0,0,0,0,0,0,0,0,-1,1063,1562,0,0
-154,-538,0,0,0,0,0,0,0,0,0,-1,1070,1562,0,0
-147,-538,0,0,0,0,0,0,0,0,0,-1,1077,1562,0,0
-140,-538,0,0,0,0,0,0,0,0,0,-1,1084,1562,0,0
-133,-538,0,0,0,0,0,0,0,0,0,-1,1091,1562,0,0
-126,-538,0,0,0,0,0,0,0,0,0,-1,1098,1562,0,0
-119,-538,0,0,0,0,0,0,0,0,0,-1,1105,1562,0,0
-112,-538,0,0,0,0,0,0,0,0,0,-1,1112,1562,0,0
-105,-538,0,0,0,0,0,0,0,0,0,-1,1119,1562,0,0
-98,-538,0,0,0,0,0,0,0,0,0,-1,1126,1562,0,0
-91,-538,0,0,0,0,0,0,0,0,0,-1,1133,1562,0,0
-84,-538,0,0,0,0,0,0,0,0,0,-1,1140,1562,0,0
-77,-538,0,0,0,0,0,0,0,0,0,-1,1147,1562,0,0
-70,-538,0,0,0,0,0,0,0,0,0,-1,1154,1562,0,0
-63,-538,0,0,0,0,0,0,0,0,0,-1,1161,1562,0,0
-56,-538,0,0,0,0,0,0,0,0,0,-1,1168,1562,0,0
-49,-538,0,0,0,0,0,0,0,0,0,-1,1175,1562,0,0
-42,-538,0,0,0,0,0,0,0,0,0,-1,1182,1562,0,0
-35,-538,0,0,0,0,0,0,0,0,0,-1,1189,1562,0,0
-28,-538,0,0,0,0,0,0,0,0,0,-1,1196,1562,0,0
-21,-538,0,0,0,0,0,0,0,0,0,-1,1203,1562,0,0
-14,-538,0,0,0,0,0,0,0,0,0,-1,1210,1562,0,0
-7,-538,0,0,0,0,0,0,0,0,0,-1,1217,1562,0,0
0,-538,0,0,0,0,0,0,0,0,0,-1,1224,1562,0,0
7,-538,0,0,0,0,0,0,0,0,0,-1,1231,1562,0,0
14,-538,0,0,0,0,0,0,0,0,0,-1,1238,1562,0,0
21,-538,0,0,0,0,0,0,0,0,0,-1,1245,1562,0,0
28,-538,0,0,0,0,0,0,0,0,0,-1,1252,1562,0,0
35,-538,0,0,0,0,0,0,0,0,0,-1,1259,1562,0,0
42,-538,0,0,0,0,0,0,0,0,0,-1,1266,1562,0,0
49,-538,0,0,0,0,0,0,0,0,0,-1,1273,1562,0,0
56,-538,0,0,0,0,0,0,0,0,0,-1,1280,1562,0,0
63,-538,0,0,0,0,0,0,0,0,0,-1,1287,1562,0,0
70,-538,0,0,0,0,0,0,0,0,0,-1,1294,1562,0,0
77,-538,0,0,0,0,0,0,0,0,0,-1,1301,1562,0,0
84,-538,0,0,0,0,0,0,0,0,0,-1,1308,1562,0,0
91,-538,0,0,0,0,0,0,0,0,0,-1,1315,1562,0,0
98,-538,0,0,0,0,0,0,0,0,0,-1,1322,1562,0,0
105,-538,0,0,0,0,0,0,0,0,0,-1,1329,1562,0,0
112,-538,0,0,0,0,0,0,0,0,0,-1,1336,1562,0,0
119,-538,0,0,0,0,0,0,0,0,0,-1,1343,1562,0,0
126,-538,0,0,0,0,0,0,0,0,0,-1,1350,1562,0,0
133,-538,0,0,0,0,0,0,0,0,0,-1,1357,1562,0,0
140,-538,0,0,0,0,0,0,0,0,0,-1,1364,1562,0,0
147,-538,0,0,0,0,0,0,0,0,0,-1,1371,1562,0,0
154,-538,0,0,0,0,0,0,0,0,0,-1,1378,1562,0,0
161,-538,0,0,0,0,0,0,0,0,0,-1,1385,1562,0,0
168,-538,0,0,0,0,0,0,0,0,0,-1,1392,1562,0,0
175,-538,0,0,0,0,0,0,0,0,0,-1,1399,1562,0,0
182,-538,0,0,0,0,0,0,0,0,0,-1,1406,1562,0,0
189,-538,0,0,0,0,0,0,0,0,0,-1,1413,1562,0,0
196,-538,0,0,0,0,0,0,0,0,0,-1,1420,1562,0,0
203,-538,0,0,0,0,0,0,0,0,0,-1,1427,1562,0,0
210,-538,0,0,0,0,0,0,0,0,0,-1,1434,1562,0,0
217,-538,0,0,0,0,0,0,0,0,0,-1,1441,1562,0,0
224,-538,0,0,0,0,0,0,0,0,0,-1,1448,1562,0,0
231,-538,0,0,0,0,0,0,0,0,0,-1,1455,1562,0,0
238,-538,0,0,0,0,0,0,0,0,0,-1,1462,1562,0,0
245,-538,0,0,0,0,0,0,0,0,0,-1,1469,1562,0,0
252,-538,0,0,0,0,0,0,0,0,0,-1,1476,1562,0,0
259,-538,0,0,0,0,0,0,0,0,0,-1,1483,1562,0,0
266,-538,0,0,0,0,0,0,0,0,0,-1,1490,1562,0,0
273,-538,0,0,0,0,0,0,0,0,0,-1,1497,1562,0,0
280,-538,0,0,0,0,0,0,0,0,0,-1,1504,1562,0,0
287,-538,0,0,0,0,0,0,0,0,0,-1,1511,1562,0,0
294,-538,0,0,0,0,0,0,0,0,0,-1,1518,1562,0,0
301,-538,0,0,0,0,0,0,0,0,0,-1,1525,1562,0,0
308,-538,0,0,0,0,0,0,0,0,0,-1,1532,1562,0,0
315,-538,0,0,0,0,0,0,0,0,0,-1,1539,1562,0,0
322,-538,0,0,0,0,0,0,0,0,0,-1,1546,1562,0,0
329,-538,0,0,0,0,0,0,0,0,0,-1,1553,1562,0,0
336,-538,0,0,0,0,0,0,0,0,0,-1,1560,1562,0,0
343,-538,0,0,0,0,0,0,0,0,0,-1,1567,1562,0,0
350,-538,0,0,0,0,0,0,0,0,0,-1,1574,1562,0,0
357,-538,0,0,0,0,0,0,0,0,0,-1,1581,1562,0,0
364,-538,0,0,0,0,0,0,0,0,0,-1,1588,1562,0,0
371,-538,0,0,0,0,0,0,0,0,0,-1,1595,1562,0,0
378,-538,9.65479,5.82434,0,0,0,0,0,0,0,-1,1602,1562,9.6548,-5.82439
385,-538,10.5449,7.9502,0,0,0,0,0,0,0,-1,1609,1562,10.5449,-7.95014
392,-538,8.20361,7.07214,0,0,0,0,0,0,0,-1,1616,1562,8.20362,-7.07211
399,-538,7.85425,4.70508,0,0,0,0,0,0,0,-1,1623,1562,7.85425,-4.70512
406,-538,7.77734,4.96094,0,0,0,0,0,0,0,-1,1630,1562,7.77729,-4.96097
413,-538,13.0446,13.1765,0,0,0,0,0,0,0,-1,1637,1562,13.0446,-13.1765
420,-538,9.96216,12.7653,0,0,0,0,0,0,0,-1,1644,1562,9.96221,-12.7653
427,-538,10.1732,14.5863,0,0,0,0,0,0,0,-1,1651,1562,10.1732,-14.5863
434,-538,9.64331,14.7745,0,0,0,0,0,0,0,-1,1658,1562,9.64326,-14.7746
441,-538,11.5039,20.5195,0,0,0,0,0,0,0,-1,1665,1562,11.5039,-20.5195
448,-538,12.8766,22.4932,0,0,0,0,0,0,0,-1,1672,1562,12.8766,-22.4932
455,-538,12.5693,17.4128,0,0,0,0,0,0,0,-1,1679,1562,12.5694,-17.4128
462,-538,12.1389,17.017,0,0,0,0,0,0,0,-1,1686,1562,12.1389,-17.017
469,-538,14.3802,16.6945,0,0,0,0,0,0,0,-1,1693,1562,14.3803,-16.6945
476,-538,13.724,19.0608,0,0,0,0,0,0,0,-1,1700,1562,13.724,-19.0608
483,-538,17.088,25.2936,0,0,0,0,0,0,0,-1,1707,1562,17.088,-25.2936
490,-538,18.3472,26.933,0,0,0,0,0,0,0,-1,1714,1562,18.3471,-26.9329
497,-538,18.4739,26.3595,0.0095554,0.0113867,-0.00815878,0.0186811,0.00226106,-0.84128,0.011773,0.0398251,1721,1562,18.4739,-26.3595
504,-538,18.6066,25.6915,0.00782164,0.0087921,-0.00660557,0.0149302,0.00168351,-0.822061,0.00944248,0.0169992,1728,1562,18.6065,-25.6916
511,-538,18.5756,25.1893,0.00629802,0.00686072,-0.00525868,0.0118456,0.00131317,-0.812124,0.00749776,0.0103326,1735,1562,18.5755,-25.1894
518,-538,18.5703,24.686,0.00481398,0.00487818,-0.00382056,0.00866677,0.00102539,-0.789599,0.00546819,0.0110699,1742,1562,18.5704,-24.686
525,-538,18.5626,24.1736,0.00344154,0.00315023,-0.00251903,0.00581912,0.000772644,-0.756519,0.00364923,0.0124819,1749,1562,18.5627,-24.1735
532,-538,18.5696,23.6774,0.00233081,0.00170571,-0.00138471,0.0034378,0.000598712,-0.674401,0.00212066,0.0144233,1756,1562,18.5695,-23.6774
539,-538,18.5383,23.1882,0.0014777,0.00046044,-0.000368257,0.00159701,0.000341122,-0.313333,0.000971148,0.017172,1763,1562,18.5383,-23.1883
546,-538,18.5129,22.6824,0.000710424,-0.000780416,0.000648664,0.000953142,-0.00102313,0.358052,0.00114124,0.0178796,1770,1562,18.513,-22.6824
553,-538,18.5587,22.1333,0.000104125,-0.00186503,0.0016145,0.00101058,-0.00277149,0.51159,0.00226109,0.0283212,1777,1562,18.5587,-22.1333
560,-538,18.4923,21.6254,-0.000194698,-0.00269363,0.00239855,0.00126032,-0.00414864,0.545275,0.00326791,0.0299881,1784,1562,18.4924,-21.6254
567,-538,18.3657,21.1249,-0.000215236,-0.00318362,0.0029256,0.00158112,-0.00497997,0.550659,0.00395384,0.0230588,1791,1562,18.3657,-21.1249
574,-538,18.3634,20.5828,2.67475e-06,-0.00340741,0.00323352,0.00195315,-0.00535788,0.542773,0.00437094,0.0261958,1798,1562,18.3634,-20.5827
581,-538,18.3752,20.0348,0.000788561,-0.00315588,0.00302285,0.00242567,-0.00479299,0.496355,0.00424174,0.037666,1805,1562,18.3752,-20.0348
588,-538,18.5665,19.4614,0,0,0,0,0,0,0,-1,1812,1562,18.5665,-19.4614
595,-538,15.9808,16.0894,0,0,0,0,0,0,0,-1,1819,1562,15.9808,-16.0893
602,-538,10.314,8.94238,0,0,0,0,0,0,0,-1,1826,1562,10.314,-8.94238
609,-538,10.1046,7.05713,0,0,0,0,0,0,0,-1,1833,1562,10.1046,-7.05719
616,-538,9.92249,5.43506,0,0,0,0,0,0,0,-1,1840,1562,9.92254,-5.43507
623,-538,11.1711,4.31604,0,0,0,0,0,0,0,-1,1847,1562,11.1711,-4.316
630,-538,12.6112,2.61633,0,0,0,0,0,0,0,-1,1854,1562,12.6112,-2.61637
637,-538,0,0,0,0,0,0,0,0,0,-1,1861,1562,0,0
644,-538,0,0,0,0,0,0,0,0,0,-1,1868,1562,0,0
651,-538,0,0,0,0,0,0,0,0,0,-1,1875,1562,0,0
658,-538,0,0,0,0,0,0,0,0,0,-1,1882,1562,0,0
665,-538,0,0,0,0,0,0,0,0,0,-1,1889,1562,0,0
672,-538,0,0,0,0,0,0,0,0,0,-1,1896,1562,0,0
679,-538,0,0,0,0,0,0,0,0,0,-1,1903,1562,0,0
686,-538,0,0,0,0,0,0,0,0,0,-1,1910,1562,0,0
693,-538,0,0,0,0,0,0,0,0,0,-1,1917,1562,0,0
700,-538,0,0,0,0,0,0,0,0,0,-1,1924,1562,0,0
707,-538,0,0,0,0,0,0,0,0,0,-1,1931,1562,0,0
714,-538,0,0,0,0,0,0,0,0,0,-1,1938,1562,0,0
721,-538,0,0,0,0,0,0,0,0,0,-1,1945,1562,0,0
728,-538,0,0,0,0,0,0,0,0,0,-1,1952,1562,0,0
735,-538,0,0,0,0,0,0,0,0,0,-1,1959,1562,0,0
742,-538,0,0,0,0,0,0,0,0,0,-1,1966,1562,0,0
749,-538,0,0,0,0,0,0,0,0,0,-1,1973,1562,0,0
756,-538,0,0,0,0,0,0,0,0,0,-1,1980,1562,0,0
763,-538,0,0,0,0,0,0,0,0,0,-1,1987,1562,0,0
770,-538,0,0,0,0,0,0,0,0,0,-1,1994,1562,0,0
777,-538,0,0,0,0,0,0,0,0,0,-1,2001,1562,0,0
784,-538,0,0,0,0,0,0,0,0,0,-1,2008,1562,0,0
791,-538,0,0,0,0,0,0,0,0,0,-1,2015,1562,0,0
798,-538,0,0,0,0,0,0,0,0,0,-1,2022,1562,0,0
805,-538,0,0,0,0,0,0,0,0,0,-1,2029,1562,0,0
812,-538,0,0,0,0,0,0,0,0,0,-1,2036,1562,0,0
-700,-545,0,0,0,0,0,0,0,0,0,-1,524,1569,0,0
-693,-545,0,0,0,0,0,0,0,0,0,-1,531,1569,0,0
-686,-545,0,0,0,0,0,0,0,0,0,-1,538,1569,0,0
-679,-545,0,0,0,0,0,0,0,0,0,-1,545,1569,0,0
-672,-545,0,0,0,0,0,0,0,0,0,-1,552,1569,0,0
-665,-545,0,0,0,0,0,0,0,0,0,-1,559,1569,0,0
-658,-545,0,0,0,0,0,0,0,0,0,-1,566,1569,0,0
-651,-545,0,0,0,0,0,0,0,0,0,-1,573,1569,0,0
-644,-545,0,0,0,0,0,0,0,0,0,-1,580,1569,0,0
-637,-545,0,0,0,0,0,0,0,0,0,-1,587,1569,0,0
-630,-545,0,0,0,0,0,0,0,0,0,-1,594,1569,0,0
-623,-545,0,0,0,0,0,0,0,0,0,-1,601,1569,0,0
-616,-545,0,0,0,0,0,0,0,0,0,-1,608,1569,0,0
-609,-545,0,0,0,0,0,0,0,0,0,-1,615,1569,0,0
-602,-545,0,0,0,0,0,0,0,0,0,-1,622,1569,0,0
-595,-545,0,0,0,0,0,0,0,0,0,-1,629,1569,0,0
-588,-545,0,0,0,0,0,0,0,0,0,-1,636,1569,0,0
-581,-545,0,0,0,0,0,0,0,0,0,-1,643,1569,0,0
-574,-545,0,0,0,0,0,0,0,0,0,-1,650,1569,0,0
-567,-545,0,0,0,0,0,0,0,0,0,-1,657,1569,0,0
-560,-545,0,0,0,0,0,0,0,0,0,-1,664,1569,0,0
-553,-545,0,0,0,0,0,0,0,0,0,-1,671,1569,0,0
-546,-545,0,0,0,0,0,0,0,0,0,-1,678,1569,0,0
-539,-545,0,0,0,0,0,0,0,0,0,-1,685,1569,0,0
-532,-545,0,0,0,0,0,0,0,0,0,-1,692,1569,0,0
-525,-545,0,0,0,0,0,0,0,0,0,-1,699,1569,0,0
-518,-545,0,0,0,0,0,0,0,0,0,-1,706,1569,0,0
-511,-545,0,0,0,0,0,0,0,0,0,-1,713,1569,0,0
-504,-545,-3.55237,-2.5354,0,0,0,0,0,0,0,-1,720,1569,-3.55236,2.53545
-497,-545,2.26575,5.69214,0,0,0,0,0,0,0,-1,727,1569,2.26573,-5.6922
-490,-545,-2.17334,7.81396,0,0,0,0,0,0,0,-1,734,1569,-2.17334,-7.81399
-483,-545,-1.88336,5.8446,0,0,0,0,0,0,0,-1,741,1569,-1.88334,-5.84466
-476,-545,-1.13147,6.5741,0,0,0,0,0,0,0,-1,748,1569,-1.13149,-6.57405
-469,-545,-1.03412,15.8353,0,0,0,0,0,0,0,-1,755,1569,-1.03414,-15.8353
-462,-545,-1.34088,17.5743,0,0,0,0,0,0,0,-1,762,1569,-1.34085,-17.5744
-455,-545,-1.55865,17.6875,-0.0100895,0.0137314,-0.00375223,0.0143084,-0.0106665,-1.4182,0.0144703,0.0475723,769,1569,-1.55868,-17.6875
-448,-545,-1.44525,18.6543,-0.00834534,0.0101212,-0.00301069,0.0105997,-0.00882379,-1.4132,0.0112298,0.0334901,776,1569,-1.44524,-18.6543
-441,-545,-1.60785,19.5189,-0.00709497,0.00725175,-0.0024983,0.00767435,-0.00751757,-1.40323,0.00877121,0.0297713,783,1569,-1.60782,-19.5189
-434,-545,-1.86523,19.9771,-0.00576577,0.00495315,-0.00194034,0.00529358,-0.0061062,-1.39712,0.00658724,0.0255213,790,1569,-1.86524,-19.9771
-427,-545,-1.85962,20.519,-0.00435452,0.00351263,-0.00128424,0.00371696,-0.00455886,-1.41301,0.00478628,0.0194244,797,1569,-1.85962,-20.5191
-420,-545,-1.84747,21.0498,-0.00308071,0.00252761,-0.000676784,0.00260813,-0.00316123,-1.45239,0.00333604,0.0224104,804,1569,-1.84746,-21.0498
-413,-545,-1.87622,21.5779,-0.00188443,0.00206694,1.71673e-05,0.00206701,-0.0018845,1.56645,0.00228222,0.0217659,811,1569,-1.87622,-21.5779
-406,-545,-1.86792,22.1166,-0.000791694,0.00191969,0.000566807,0.00203341,-0.000905414,1.37279,0.00173789,0.016626,818,1569,-1.86795,-22.1166
-399,-545,-1.90326,22.6504,-3.24862e-05,0.00189187,0.000923111,0.00226308,-0.000403695,1.18846,0.00165973,0.0110658,825,1569,-1.90326,-22.6504
-392,-545,-1.93823,23.1941,0.000630942,0.00294521,0.00119901,0.00345438,0.000121768,1.16921,0.00226342,0.0115286,832,1569,-1.93824,-23.1941
-385,-545,-1.94659,23.7501,0.00125036,0.00420284,0.00139309,0.00475637,0.000696821,1.19258,0.00296605,0.0104711,839,1569,-1.94661,-23.7501
-378,-545,-1.97583,24.2764,0.00165792,0.00564217,0.00142586,0.00609987,0.00120022,1.26019,0.00373141,0.0127149,846,1569,-1.97584,-24.2764
-371,-545,-2.00659,24.8125,0.00195151,0.00735147,0.00137695,0.00768231,0.00162067,1.33499,0.00467589,0.0162025,853,1569,-2.0066,-24.8125
-364,-545,-2.00763,25.3278,0.00215422,0.00951557,0.00124766,0.00972128,0.0019485,1.40739,0.00593888,0.0109279,860,1569,-2.00763,-25.3278
-357,-545,-1.92944,25.9661,0.00228447,0.0120762,0.000994083,0.0121761,0.00218457,1.47063,0.00749605,0.018878,867,1569,-1.92944,-25.966
-350,-545,-1.90173,26.5701,0.00248176,0.0150559,0.000754194,0.0151009,0.00243668,1.5111,0.00936138,0.0294203,874,1569,-1.90174,-26.57
-343,-545,-1.94348,27.0212,0.00261343,0.0183558,0.000432479,0.0183677,0.00260156,1.54335,0.0114766,0.0472675,881,1569,-1.9435,-27.0213
-336,-545,-1.73151,27.3533,0,0,0,0,0,0,0,-1,888,1569,-1.73148,-27.3533
-329,-545,-2.18512,27.4867,0,0,0,0,0,0,0,-1,895,1569,-2.18514,-27.4867
-322,-545,-2.08643,26.1931,0,0,0,0,0,0,0,-1,902,1569,-2.08642,-26.1931
-315,-545,-2.30347,26.2123,0,0,0,0,0,0,0,-1,909,1569,-2.30348,-26.2122
-308,-545,-1.54358,21.4457,0,0,0,0,0,0,0,-1,916,1569,-1.54357,-21.4457
-301,-545,1.52191,17.5009,0,0,0,0,0,0,0,-1,923,1569,1.52192,-17.5008
-294,-545,-2.69287,8.42102,0,0,0,0,0,0,0,-1,930,1569,-2.69287,-8.42097
-287,-545,-3.47784,9.96021,0,0,0,0,0,0,0,-1,937,1569,-3.47785,-9.96021
-280,-545,-3.7879,10.5448,0,0,0,0,0,0,0,-1,944,1569,-3.78793,-10.5448
-273,-545,-5.10333,12.864,0,0,0,0,0,0,0,-1,951,1569,-5.10331,-12.864
-266,-545,-5.78955,13.3704,0,0,0,0,0,0,0,-1,958,1569,-5.78952,-13.3703
-259,-545,-6.32184,13.8101,0,0,0,0,0,0,0,-1,965,1569,-6.32182,-13.81
-252,-545,0.369263,7.54053,0,0,0,0,0,0,0,-1,972,1569,0.369276,-7.54056
-245,-545,-0.236633,6.65564,0,0,0,0,0,0,0,-1,979,1569,-0.236605,-6.65566
-238,-545,0,0,0,0,0,0,0,0,0,-1,986,1569,0,0
-231,-545,0,0,0,0,0,0,0,0,0,-1,993,1569,0,0
-224,-545,0,0,0,0,0,0,0,0,0,-1,1000,1569,0,0
-217,-545,0,0,0,0,0,0,0,0,0,-1,1007,1569,0,0
-210,-545,0,0,0,0,0,0,0,0,0,-1,1014,1569,0,0
-203,-545,0,0,0,0,0,0,0,0,0,-1,1021,1569,0,0
-196,-545,0,0,0,0,0,0,0,0,0,-1,1028,1569,0,0
-189,-545,0,0,0,0,0,0,0,0,0,-1,1035,1569,0,0
-182,-545,0,0,0,0,0,0,0,0,0,-1,1042,1569,0,0
-175,-545,0,0,0,0,0,0,0,0,0,-1,1049,1569,0,0
-168,-545,0,0,0,0,0,0,0,0,0,-1,1056,1569,0,0
-161,-545,0,0,0,0,0,0,0,0,0,-1,1063,1569,0,0
-154,-545,0,0,0,0,0,0,0,0,0,-1,1070,1569,0,0
-147,-545,0,0,0,0,0,0,0,0,0,-1,1077,1569,0,0
-140,-545,0,0,0,0,0,0,0,0,0,-1,1084,1569,0,0
-133,-545,0,0,0,0,0,0,0,0,0,-1,1091,1569,0,0
-126,-545,0,0,0,0,0,0,0,0,0,-1,1098,1569,0,0
-119,-545,0,0,0,0,0,0,0,0,0,-1,1105,1569,0,0
-112,-545,0,0,0,0,0,0,0,0,0,-1,1112,1569,0,0
-105,-545,0,0,0,0,0,0,0,0,0,-1,1119,1569,0,0
-98,-545,0,0,0,0,0,0,0,0,0,-1,1126,1569,0,0
-91,-545,0,0,0,0,0,0,0,0,0,-1,1133,1569,0,0
-84,-545,0,0,0,0,0,0,0,0,0,-1,1140,1569,0,0
-77,-545,0,0,0,0,0,0,0,0,0,-1,1147,1569,0,0
-70,-545,0,0,0,0,0,0,0,0,0,-1,1154,1569,0,0
-63,-545,0,0,0,0,0,0,0,0,0,-1,1161,1569,0,0
-56,-545,0,0,0,0,0,0,0,0,0,-1,1168,1569,0,0
-49,-545,0,0,0,0,0,0,0,0,0,-1,1175,1569,0,0
-42,-545,0,0,0,0,0,0,0,0,0,-1,1182,1569,0,0
-35,-545,0,0,0,0,0,0,0,0,0,-1,1189,1569,0,0
-28,-545,0,0,0,0,0,0,0,0,0,-1,1196,1569,0,0
-21,-545,0,0,0,0,0,0,0,0,0,-1,1203,1569,0,0
-14,-545,0,0,0,0,0,0,0,0,0,-1,1210,1569,0,0
-7,-545,0,0,0,0,0,0,0,0,0,-1,1217,1569,0,0
0,-545,0,0,0,0,0,0,0,0,0,-1,1224,1569,0,0
7,-545,0,0,0,0,0,0,0,0,0,-1,1231,1569,0,0
14,-545,0,0,0,0,0,0,0,0,0,-1,1238,1569,0,0
21,-545,0,0,0,0,0,0,0,0,0,-1,1245,1569,0,0
28,-545,0,0,0,0,0,0,0,0,0,-1,1252,1569,0,0
35,-545,0,0,0,0,0,0,0,0,0,-1,1259,1569,0,0
42,-545,0,0,0,0,0,0,0,0,0,-1,1266,1569,0,0
49,-545,0,0,0,0,0,0,0,0,0,-1,1273,1569,0,0
56,-545,0,0,0,0,0,0,0,0,0,-1,1280,1569,0,0
63,-545,0,0,0,0,0,0,0,0,0,-1,1287,1569,0,0
70,-545,0,0,0,0,0,0,0,0,0,-1,1294,1569,0,0
77,-545,0,0,0,0,0,0,0,0,0,-1,1301,1569,0,0
84,-545,0,0,0,0,0,0,0,0,0,-1,1308,1569,0,0
91,-545,0,0,0,0,0,0,0,0,0,-1,1315,1569,0,0
98,-545,0,0,0,0,0,0,0,0,0,-1,1322,1569,0,0
105,-545,0,0,0,0,0,0,0,0,0,-1,1329,1569,0,0
112,-545,0,0,0,0,0,0,0,0,0,-1,1336,1569,0,0
119,-545,0,0,0,0,0,0,0,0,0,-1,1343,1569,0,0
126,-545,0,0,0,0,0,0,0,0,0,-1,1350,1569,0,0
133,-545,0,0,0,0,0,0,0,0,0,-1,1357,1569,0,0
140,-545,0,0,0,0,0,0,0,0,0,-1,1364,1569,0,0
147,-545,0,0,0,0,0,0,0,0,0,-1,1371,1569,0,0
154,-545,0,0,0,0,0,0,0,0,0,-1,1378,1569,0,0
161,-545,0,0,0,0,0,0,0,0,0,-1,1385,1569,0,0
168,-545,0,0,0,0,0,0,0,0,0,-1,1392,1569,0,0
175,-545,0,0,0,0,0,0,0,0,0,-1,1399,1569,0,0
182,-545,0,0,0,0,0,0,0,0,0,-1,1406,1569,0,0
189,-545,0,0,0,0,0,0,0,0,0,-1,1413,1569,0,0
196,-545,0,0,0,0,0,0,0,0,0,-1,1420,1569,0,0
203,-545,0,0,0,0,0,0,0,0,0,-1,1427,1569,0,0
210,-545,0,0,0,0,0,0,0,0,0,-1,1434,1569,0,0
217,-545,0,0,0,0,0,0,0,0,0,-1,1441,1569,0,0
224,-545,0,0,0,0,0,0,0,0,0,-1,1448,1569,0,0
231,-545,0,0,0,0,0,0,0,0,0,-1,1455,1569,0,0
238,-545,0,0,0,0,0,0,0,0,0,-1,1462,1569,0,0
245,-545,0,0,0,0,0,0,0,0,0,-1,1469,1569,0,0
252,-545,0,0,0,0,0,0,0,0,0,-1,1476,1569,0,0
259,-545,0,0,0,0,0,0,0,0,0,-1,1483,1569,0,0
266,-545,0,0,0,0,0,0,0,0,0,-1,1490,1569,0,0
273,-545,0,0,0,0,0,0,0,0,0,-1,1497,1569,0,0
280,-545,0,0,0,0,0,0,0,0,0,-1,1504,1569,0,0
287,-545,0,0,0,0,0,0,0,0,0,-1,1511,1569,0,0
294,-545,0,0,0,0,0,0,0,0,0,-1,1518,1569,0,0
301,-545,0,0,0,0,0,0,0,0,0,-1,1525,1569,0,0
308,-545,0,0,0,0,0,0,0,0,0,-1,1532,1569,0,0
315,-545,0,0,0,0,0,0,0,0,0,-1,1539,1569,0,0
322,-545,0,0,0,0,0,0,0,0,0,-1,1546,1569,0,0
329,-545,0,0,0,0,0,0,0,0,0,-1,1553,1569,0,0
336,-545,0,0,0,0,0,0,0,0,0,-1,1560,1569,0,0
343,-545,0,0,0,0,0,0,0,0,0,-1,1567,1569,0,0
350,-545,0,0,0,0,0,0,0,0,0,-1,1574,1569,0,0
357,-545,0,0,0,0,0,0,0,0,0,-1,1581,1569,0,0
364,-545,7.19495,4.88098,0,0,0,0,0,0,0,-1,1588,1569,7.19497,-4.88095
371,-545,7.82324,3.84302,0,0,0,0,0,0,0,-1,1595,1569,7.82324,-3.84307
378,-545,7.65674,5.52673,0,0,0,0,0,0,0,-1,1602,1569,7.6567,-5.52667
385,-545,8.58447,1.16125,0,0,0,0,0,0,0,-1,1609,1569,8.5845,-1.1612
392,-545,12.5654,3.89526,0,0,0,0,0,0,0,-1,1616,1569,12.5655,-3.89532
399,-545,11.5869,5.6333,0,0,0,0,0,0,0,-1,1623,1569,11.5869,-5.63326
406,-545,11.234,6.36414,0,0,0,0,0,0,0,-1,1630,1569,11.234,-6.3641
413,-545,12.1521,13.4817,0,0,0,0,0,0,0,-1,1637,1569,12.1521,-13.4817
420,-545,11.1954,13.6047,0,0,0,0,0,0,0,-1,1644,1569,11.1954,-13.6047
427,-545,9.61072,14.9135,0,0,0,0,0,0,0,-1,1651,1569,9.61076,-14.9134
434,-545,13.1598,23.9921,0,0,0,0,0,0,0,-1,1658,1569,13.1598,-23.992
441,-545,12.2833,22.2238,0,0,0,0,0,0,0,-1,1665,1569,12.2833,-22.2237
448,-545,13.0082,21.941,0,0,0,0,0,0,0,-1,1672,1569,13.0082,-21.941
455,-545,13.733,21.6583,0,0,0,0,0,0,0,-1,1679,1569,13.733,-21.6583
462,-545,12.449,20.7413,0,0,0,0,0,0,0,-1,1686,1569,12.4489,-20.7413
469,-545,12.7837,17.7919,0,0,0,0,0,0,0,-1,1693,1569,12.7837,-17.7919
476,-545,15.7562,24.8708,0,0,0,0,0,0,0,-1,1700,1569,15.7563,-24.8709
483,-545,18.0374,27.3923,0,0,0,0,0,0,0,-1,1707,1569,18.0374,-27.3924
490,-545,18.02,26.7717,0.00933731,0.0120734,-0.00833583,0.0191527,0.002258,-0.866731,0.0120863,0.0297093,1714,1569,18.0201,-26.7717
497,-545,18.0498,26.2449,0.00765954,0.00926676,-0.00645213,0.0149651,0.00196117,-0.847354,0.00939154,0.0228188,1721,1569,18.0499,-26.2448
504,-545,18.1442,25.7024,0.00620715,0.0069155,-0.00510072,0.0116743,0.00144832,-0.820061,0.00734785,0.0162097,1728,1569,18.1441,-25.7024
511,-545,18.1091,25.1887,0.00484537,0.00510344,-0.00386616,0.00884273,0.00110609,-0.80208,0.00556323,0.0120003,1735,1569,18.1091,-25.1887
518,-545,18.095,24.689,0.00349586,0.00325382,-0.00254042,0.00591814,0.000831534,-0.761597,0.00369953,0.0136718,1742,1569,18.0949,-24.689
525,-545,18.0598,24.179,0.00225216,0.00161725,-0.00131072,0.00328332,0.000586085,-0.666588,0.00202203,0.0145893,1749,1569,18.0598,-24.179
532,-545,18.0333,23.6812,0.00123636,0.000198292,-0.000193033,0.00127109,0.000163559,-0.178029,0.000798477,0.0151404,1756,1569,18.0333,-23.6812
539,-545,17.9939,23.1827,0.000427235,-0.00107143,0.000868081,0.000824666,-0.00146886,0.429344,0.00134146,0.0172825,1763,1569,17.9939,-23.1827
546,-545,17.9611,22.6749,-0.000337285,-0.00239345,0.00199831,0.000881894,-0.00361263,0.547817,0.00274993,0.0187935,1770,1569,17.961,-22.675
553,-545,18.0068,22.141,-0.000942229,-0.00358975,0.00311579,0.00111935,-0.00565132,0.584524,0.00419079,0.0269659,1777,1569,18.0069,-22.141
560,-545,17.9866,21.5968,-0.00127556,-0.00455497,0.00409114,0.00149223,-0.00732277,0.594803,0.00544781,0.0276335,1784,1569,17.9865,-21.5969
567,-545,17.9468,21.0488,0,0,0,0,0,0,0,-1,1791,1569,17.9468,-21.0489
574,-545,17.9642,20.4337,0,0,0,0,0,0,0,-1,1798,1569,17.9642,-20.4337
581,-545,17.8728,19.9158,0,0,0,0,0,0,0,-1,1805,1569,17.8728,-19.9158
588,-545,15.4786,16.7035,0,0,0,0,0,0,0,-1,1812,1569,15.4786,-16.7035
595,-545,10.2859,9.11218,0,0,0,0,0,0,0,-1,1819,1569,10.2858,-9.11215
602,-545,8.82117,6.32214,0,0,0,0,0,0,0,-1,1826,1569,8.82121,-6.32217
609,-545,10.2406,5.22351,0,0,0,0,0,0,0,-1,1833,1569,10.2406,-5.22353
616,-545,11.701,3.93188,0,0,0,0,0,0,0,-1,1840,1569,11.701,-3.93191
623,-545,13.2139,2.32043,0,0,0,0,0,0,0,-1,1847,1569,13.2139,-2.32042
630,-545,0,0,0,0,0,0,0,0,0,-1,1854,1569,0,0
637,-545,0,0,0,0,0,0,0,0,0,-1,1861,1569,0,0
644,-545,0,0,0,0,0,0,0,0,0,-1,1868,1569,0,0
651,-545,0,0,0,0,0,0,0,0,0,-1,1875,1569,0,0
658,-545,0,0,0,0,0,0,0,0,0,-1,1882,1569,0,0
665,-545,0,0,0,0,0,0,0,0,0,-1,1889,1569,0,0
672,-545,0,0,0,0,0,0,0,0,0,-1,1896,1569,0,0
679,-545,0,0,0,0,0,0,0,0,0,-1,1903,1569,0,0
686,-545,0,0,0,0,0,0,0,0,0,-1,1910,1569,0,0
693,-545,0,0,0,0,0,0,0,0,0,-1,1917,1569,0,0
700,-545,0,0,0,0,0,0,0,0,0,-1,1924,1569,0,0
707,-545,0,0,0,0,0,0,0,0,0,-1,1931,1569,0,0
714,-545,0,0,0,0,0,0,0,0,0,-1,1938,1569,0,0
721,-545,0,0,0,0,0,0,0,0,0,-1,1945,1569,0,0
728,-545,0,0,0,0,0,0,0,0,0,-1,1952,1569,0,0
735,-545,0,0,0,0,0,0,0,0,0,-1,1959,1569,0,0
742,-545,0,0,0,0,0,0,0,0,0,-1,1966,1569,0,0
749,-545,0,0,0,0,0,0,0,0,0,-1,1973,1569,0,0
756,-545,0,0,0,0,0,0,0,0,0,-1,1980,1569,0,0
763,-545,0,0,0,0,0,0,0,0,0,-1,1987,1569,0,0
770,-545,0,0,0,0,0,0,0,0,0,-1,1994,1569,0,0
777,-545,0,0,0,0,0,0,0,0,0,-1,2001,1569,0,0
784,-545,0,0,0,0,0,0,0,0,0,-1,2008,1569,0,0
791,-545,0,0,0,0,0,0,0,0,0,-1,2015,1569,0,0
798,-545,0,0,0,0,0,0,0,0,0,-1,2022,1569,0,0
805,-545,0,0,0,0,0,0,0,0,0,-1,2029,1569,0,0
812,-545,0,0,0,0,0,0,0,0,0,-1,2036,1569,0,0
-700,-552,0,0,0,0,0,0,0,0,0,-1,524,1576,0,0
-693,-552,0,0,0,0,0,0,0,0,0,-1,531,1576,0,0
-686,-552,0,0,0,0,0,0,0,0,0,-1,538,1576,0,0
-679,-552,0,0,0,0,0,0,0,0,0,-1,545,1576,0,0
-672,-552,0,0,0,0,0,0,0,0,0,-1,552,1576,0,0
-665,-552,0,0,0,0,0,0,0,0,0,-1,559,1576,0,0
-658,-552,0,0,0,0,0,0,0,0,0,-1,566,1576,0,0
-651,-552,0,0,0,0,0,0,0,0,0,-1,573,1576,0,0
-644,-552,0,0,0,0,0,0,0,0,0,-1,580,1576,0,0
-637,-552,0,0,0,0,0,0,0,0,0,-1,587,1576,0,0
-630,-552,0,0,0,0,0,0,0,0,0,-1,594,1576,0,0
-623,-552,0,0,0,0,0,0,0,0,0,-1,601,1576,0,0
-616,-552,0,0,0,0,0,0,0,0,0,-1,608,1576,0,0
-609,-552,0,0,0,0,0,0,0,0,0,-1,615,1576,0,0
-602,-552,0,0,0,0,0,0,0,0,0,-1,622,1576,0,0
-595,-552,0,0,0,0,0,0,0,0,0,-1,629,1576,0,0
-588,-552,0,0,0,0,0,0,0,0,0,-1,636,1576,0,0
-581,-552,0,0,0,0,0,0,0,0,0,-1,643,1576,0,0
-574,-552,0,0,0,0,0,0,0,0,0,-1,650,1576,0,0
-567,-552,0,0,0,0,0,0,0,0,0,-1,657,1576,0,0
-560,-552,0,0,0,0,0,0,0,0,0,-1,664,1576,0,0
-553,-552,0,0,0,0,0,0,0,0,0,-1,671,1576,0,0
-546,-552,0,0,0,0,0,0,0,0,0,-1,678,1576,0,0
-539,-552,0,0,0,0,0,0,0,0,0,-1,685,1576,0,0
-532,-552,0,0,0,0,0,0,0,0,0,-1,692,1576,0,0
-525,-552,0,0,0,0,0,0,0,0,0,-1,699,1576,0,0
-518,-552,0,0,0,0,0,0,0,0,0,-1,706,1576,0,0
-511,-552,0,0,0,0,0,0,0,0,0,-1,713,1576,0,0
-504,-552,0,0,0,0,0,0,0,0,0,-1,720,1576,0,0
-497,-552,1.51282,3.96924,0,0,0,0,0,0,0,-1,727,1576,1.5128,-3.96924
-490,-552,-3.82312,6.32104,0,0,0,0,0,0,0,-1,734,1576,-3.82314,-6.3211
-483,-552,-3.50586,6.47986,0,0,0,0,0,0,0,-1,741,1576,-3.50587,-6.47983
-476,-552,-1.95129,4.43054,0,0,0,0,0,0,0,-1,748,1576,-1.95128,-4.43054
-469,-552,-1.40491,7.9895,0,0,0,0,0,0,0,-1,755,1576,-1.40491,-7.98947
-462,-552,0.0459595,16.3469,0,0,0,0,0,0,0,-1,762,1576,0.0459611,-16.3469
-455,-552,-0.856689,17.3298,0,0,0,0,0,0,0,-1,769,1576,-0.85666,-17.3299
-448,-552,-0.73175,18.3241,0,0,0,0,0,0,0,-1,776,1576,-0.731724,-18.324
-441,-552,-0.926025,19.502,-0.0083467,0.00976207,-0.00232433,0.0100557,-0.00864028,-1.44516,0.0108044,0.0459491,783,1576,-0.926008,-19.5019
-434,-552,-1.09991,20.1603,-0.0072683,0.00647865,-0.00205083,0.00677808,-0.00756773,-1.42582,0.00828674,0.0360287,790,1576,-1.09989,-20.1602
-427,-552,-1.35223,20.4467,-0.00592802,0.00437378,-0.00151997,0.00459337,-0.0061476,-1.42732,0.0062229,0.0314197,797,1576,-1.35223,-20.4466
-420,-552,-1.30267,21.0676,-0.00465953,0.00298005,-0.00100857,0.00311096,-0.00479044,-1.44172,0.0045961,0.021962,804,1576,-1.30268,-21.0676
-413,-552,-1.32385,21.5938,-0.00346172,0.00217656,-0.000392215,0.00220372,-0.00348887,-1.50168,0.00331442,0.0167119,811,1576,-1.32384,-21.5937
-406,-552,-1.35614,22.1266,-0.00230746,0.00169844,5.61942e-05,0.00169923,-0.00230825,1.55677,0.00232261,0.0133559,818,1576,-1.35616,-22.1266
-399,-552,-1.37427,22.6664,-0.00146714,0.00124074,0.000352176,0.0012858,-0.00151219,1.44356,0.00161718,0.0138223,825,1576,-1.37429,-22.6664
-392,-552,-1.39423,23.2211,-0.000683172,0.00187223,0.000638558,0.00202291,-0.000833854,1.33906,0.00169631,0.0157212,832,1576,-1.3942,-23.2211
-385,-552,-1.41498,23.7803,0.000105022,0.00283347,0.000818444,0.00306014,-0.000121653,1.30061,0.00208183,0.0143969,839,1576,-1.41499,-23.7803
-378,-552,-1.46246,24.2628,0.000708032,0.00394833,0.000879413,0.00417162,0.000484747,1.32215,0.0026344,0.016393,846,1576,-1.46247,-24.2629
-371,-552,-1.47626,24.7902,0.00120792,0.00519664,0.000854462,0.00537198,0.00103258,1.36841,0.00329156,0.0213507,853,1576,-1.47626,-24.7902
-364,-552,-1.48566,25.3345,0.00166996,0.00683606,0.000801288,0.00695749,0.00154853,1.4204,0.00421799,0.015889,860,1576,-1.48563,-25.3345
-357,-552,-1.46252,25.8641,0.0021124,0.00872739,0.000689345,0.00879846,0.00204133,1.46806,0.00531745,0.0104475,867,1576,-1.46255,-25.8641
-350,-552,-1.45398,26.4283,0.00264935,0.0108622,0.000630754,0.0109103,0.00260119,1.49459,0.00658016,0.0138821,874,1576,-1.45399,-26.4284
-343,-552,-1.4707,26.9346,0.00320407,0.0132482,0.000620047,0.0132863,0.00316594,1.50937,0.00801349,0.0190813,881,1576,-1.47071,-26.9345
-336,-552,-1.41998,27.338,0,0,0,0,0,0,0,-1,888,1576,-1.41998,-27.3381
-329,-552,-1.26685,27.9312,0,0,0,0,0,0,0,-1,895,1576,-1.26687,-27.9312
-322,-552,-1.31458,25.5044,0,0,0,0,0,0,0,-1,902,1576,-1.31457,-25.5044
-315,-552,-0.605347,28.994,0,0,0,0,0,0,0,-1,909,1576,-0.605331,-28.9941
-308,-552,-1.01624,30.3169,0,0,0,0,0,0,0,-1,916,1576,-1.01624,-30.3169
-301,-552,1.39453,18.4995,0,0,0,0,0,0,0,-1,923,1576,1.3945,-18.4995
-294,-552,0.842163,13.7863,0,0,0,0,0,0,0,-1,930,1576,0.842149,-13.7863
-287,-552,-0.663757,13.3474,0,0,0,0,0,0,0,-1,937,1576,-0.663744,-13.3474
-280,-552,-5.47241,8.96765,0,0,0,0,0,0,0,-1,944,1576,-5.47239,-8.96766
-273,-552,1.64587,10.6685,0,0,0,0,0,0,0,-1,951,1576,1.6459,-10.6685
-266,-552,-1.32678,8.05688,0,0,0,0,0,0,0,-1,958,1576,-1.32677,-8.05683
-259,-552,-5.54321,8.31213,0,0,0,0,0,0,0,-1,965,1576,-5.54324,-8.31214
-252,-552,-1.93445,7.81543,0,0,0,0,0,0,0,-1,972,1576,-1.93445,-7.81546
-245,-552,-2.53613,6.92212,0,0,0,0,0,0,0,-1,979,1576,-2.53614,-6.92216
-238,-552,-6.5365,2.81885,0,0,0,0,0,0,0,-1,986,1576,-6.53649,-2.8188
-231,-552,-4.32239,4.34583,0,0,0,0,0,0,0,-1,993,1576,-4.32239,-4.34587
-224,-552,0,0,0,0,0,0,0,0,0,-1,1000,1576,0,0
-217,-552,0,0,0,0,0,0,0,0,0,-1,1007,1576,0,0
-210,-552,0,0,0,0,0,0,0,0,0,-1,1014,1576,0,0
-203,-552,0,0,0,0,0,0,0,0,0,-1,1021,1576,0,0
-196,-552,0,0,0,0,0,0,0,0,0,-1,1028,1576,0,0
-189,-552,0,0,0,0,0,0,0,0,0,-1,1035,1576,0,0
-182,-552,0,0,0,0,0,0,0,0,0,-1,1042,1576,0,0
-175,-552,0,0,0,0,0,0,0,0,0,-1,1049,1576,0,0
-168,-552,0,0,0,0,0,0,0,0,0,-1,1056,1576,0,0
-161,-552,0,0,0,0,0,0,0,0,0,-1,1063,1576,0,0
-154,-552,0,0,0,0,0,0,0,0,0,-1,1070,1576,0,0
-147,-552,0,0,0,0,0,0,0,0,0,-1,1077,1576,0,0
-140,-552,0,0,0,0,0,0,0,0,0,-1,1084,1576,0,0
-133,-552,0,0,0,0,0,0,0,0,0,-1,1091,1576,0,0
-126,-552,0,0,0,0,0,0,0,0,0,-1,1098,1576,0,0
-119,-552,0,0,0,0,0,0,0,0,0,-1,1105,1576,0,0
-112,-552,0,0,0,0,0,0,0,0,0,-1,1112,1576,0,0
-105,-552,0,0,0,0,0,0,0,0,0,-1,1119,1576,0,0
-98,-552,0,0,0,0,0,0,0,0,0,-1,1126,1576,0,0
-91,-552,0,0,0,0,0,0,0,0,0,-1,1133,1576,0,0
-84,-552,0,0,0,0,0,0,0,0,0,-1,1140,1576,0,0
-77,-552,0,0,0,0,0,0,0,0,0,-1,1147,1576,0,0
-70,-552,0,0,0,0,0,0,0,0,0,-1,1154,1576,0,0
-63,-552,0,0,0,0,0,0,0,0,0,-1,1161,1576,0,0
-56,-552,0,0,0,0,0,0,0,0,0,-1,1168,1576,0,0
-49,-552,0,0,0,0,0,0,0,0,0,-1,1175,1576,0,0
-42,-552,0,0,0,0,0,0,0,0,0,-1,1182,1576,0,0
-35,-552,0,0,0,0,0,0,0,0,0,-1,1189,1576,0,0
-28,-552,0,0,0,0,0,0,0,0,0,-1,1196,1576,0,0
-21,-552,0,0,0,0,0,0,0,0,0,-1,1203,1576,0,0
-14,-552,0,0,0,0,0,0,0,0,0,-1,1210,1576,0,0
-7,-552,0,0,0,0,0,0,0,0,0,-1,1217,1576,0,0
0,-552,0,0,0,0,0,0,0,0,0,-1,1224,1576,0,0
7,-552,0,0,0,0,0,0,0,0,0,-1,1231,1576,0,0
14,-552,0,0,0,0,0,0,0,0,0,-1,1238,1576,0,0
21,-552,0,0,0,0,0,0,0,0,0,-1,1245,1576,0,0
28,-552,0,0,0,0,0,0,0,0,0,-1,1252,1576,0,0
35,-552,0,0,0,0,0,0,0,0,0,-1,1259,1576,0,0
42,-552,0,0,0,0,0,0,0,0,0,-1,1266,1576,0,0
49,-552,0,0,0,0,0,0,0,0,0,-1,1273,1576,0,0
56,-552,0,0,0,0,0,0,0,0,0,-1,1280,1576,0,0
63,-552,0,0,0,0,0,0,0,0,0,-1,1287,1576,0,0
70,-552,0,0,0,0,0,0,0,0,0,-1,1294,1576,0,0
77,-552,0,0,0,0,0,0,0,0,0,-1,1301,1576,0,0
84,-552,0,0,0,0,0,0,0,0,0,-1,1308,1576,0,0
91,-552,0,0,0,0,0,0,0,0,0,-1,1315,1576,0,0
98,-552,0,0,0,0,0,0,0,0,0,-1,1322,1576,0,0
105,-552,0,0,0,0,0,0,0,0,0,-1,1329,1576,0,0
112,-552,0,0,0,0,0,0,0,0,0,-1,1336,1576,0,0
119,-552,0,0,0,0,0,0,0,0,0,-1,1343,1576,0,0
126,-552,0,0,0,0,0,0,0,0,0,-1,1350,1576,0,0
133,-552,0,0,0,0,0,0,0,0,0,-1,1357,1576,0,0
140,-552,0,0,0,0,0,0,0,0,0,-1,1364,1576,0,0
147,-552,0,0,0,0,0,0,0,0,0,-1,1371,1576,0,0
154,-552,0,0,0,0,0,0,0,0,0,-1,1378,1576,0,0
161,-552,0,0,0,0,0,0,0,0,0,-1,1385,1576,0,0
168,-552,0,0,0,0,0,0,0,0,0,-1,1392,1576,0,0
175,-552,0,0,0,0,0,0,0,0,0,-1,1399,1576,0,0
182,-552,0,0,0,0,0,0,0,0,0,-1,1406,1576,0,0
189,-552,0,0,0,0,0,0,0,0,0,-1,1413,1576,0,0
196,-552,0,0,0,0,0,0,0,0,0,-1,1420,1576,0,0
203,-552,0,0,0,0,0,0,0,0,0,-1,1427,1576,0,0
210,-552,0,0,0,0,0,0,0,0,0,-1,1434,1576,0,0
217,-552,0,0,0,0,0,0,0,0,0,-1,1441,1576,0,0
224,-552,0,0,0,0,0,0,0,0,0,-1,1448,1576,0,0
231,-552,0,0,0,0,0,0,0,0,0,-1,1455,1576,0,0
238,-552,0,0,0,0,0,0,0,0,0,-1,1462,1576,0,0
245,-552,0,0,0,0,0,0,0,0,0,-1,1469,1576,0,0
252,-552,0,0,0,0,0,0,0,0,0,-1,1476,1576,0,0
259,-552,0,0,0,0,0,0,0,0,0,-1,1483,1576,0,0
266,-552,0,0,0,0,0,0,0,0,0,-1,1490,1576,0,0
273,-552,0,0,0,0,0,0,0,0,0,-1,1497,1576,0,0
280,-552,0,0,0,0,0,0,0,0,0,-1,1504,1576,0,0
287,-552,0,0,0,0,0,0,0,0,0,-1,1511,1576,0,0
294,-552,0,0,0,0,0,0,0,0,0,-1,1518,1576,0,0
301,-552,0,0,0,0,0,0,0,0,0,-1,1525,1576,0,0
308,-552,0,0,0,0,0,0,0,0,0,-1,1532,1576,0,0
315,-552,0,0,0,0,0,0,0,0,0,-1,1539,1576,0,0
322,-552,0,0,0,0,0,0,0,0,0,-1,1546,1576,0,0
329,-552,0,0,0,0,0,0,0,0,0,-1,1553,1576,0,0
336,-552,0,0,0,0,0,0,0,0,0,-1,1560,1576,0,0
343,-552,0,0,0,0,0,0,0,0,0,-1,1567,1576,0,0
350,-552,4.97876,4.09888,0,0,0,0,0,0,0,-1,1574,1576,4.97875,-4.09883
357,-552,5.18469,4.10706,0,0,0,0,0,0,0,-1,1581,1576,5.1847,-4.10702
364,-552,5.80872,5.07031,0,0,0,0,0,0,0,-1,1588,1576,5.80874,-5.07037
371,-552,7.10657,5.64783,0,0,0,0,0,0,0,-1,1595,1576,7.10651,-5.64786
378,-552,6.44446,4.91492,0,0,0,0,0,0,0,-1,1602,1576,6.44448,-4.91496
385,-552,12.8276,3.16504,0,0,0,0,0,0,0,-1,1609,1576,12.8276,-3.16503
392,-552,12.1301,4.3363,0,0,0,0,0,0,0,-1,1616,1576,12.1302,-4.33631
399,-552,11.3486,5.6012,0,0,0,0,0,0,0,-1,1623,1576,11.3486,-5.60115
406,-552,10.7863,6.42542,0,0,0,0,0,0,0,-1,1630,1576,10.7863,-6.42536
413,-552,8.39307,10.365,0,0,0,0,0,0,0,-1,1637,1576,8.3931,-10.365
420,-552,10.2306,12.7225,0,0,0,0,0,0,0,-1,1644,1576,10.2305,-12.7226
427,-552,9.73267,14.783,0,0,0,0,0,0,0,-1,1651,1576,9.73269,-14.783
434,-552,12.0377,20.1364,0,0,0,0,0,0,0,-1,1658,1576,12.0377,-20.1364
441,-552,12.4963,21.5277,0,0,0,0,0,0,0,-1,1665,1576,12.4964,-21.5277
448,-552,12.9141,21.5482,0,0,0,0,0,0,0,-1,1672,1576,12.9141,-21.5482
455,-552,13.3318,21.5687,0,0,0,0,0,0,0,-1,1679,1576,13.3317,-21.5687
462,-552,12.745,20.5947,0,0,0,0,0,0,0,-1,1686,1576,12.745,-20.5947
469,-552,16.9524,28.702,0,0,0,0,0,0,0,-1,1693,1576,16.9524,-28.7021
476,-552,17.4774,27.8905,0,0,0,0,0,0,0,-1,1700,1576,17.4774,-27.8905
483,-552,17.6394,27.1256,0.00881349,0.0132126,-0.00777019,0.0190885,0.00293753,-0.923327,0.0118683,0.0339961,1707,1576,17.6394,-27.1257
490,-552,17.6064,26.6771,0.00744753,0.00996769,-0.00655256,0.0153802,0.00203499,-0.88039,0.00964696,0.0144556,1714,1576,17.6065,-26.6771
497,-552,17.6989,26.2216,0.00603113,0.00747487,-0.0050039,0.0118087,0.00169729,-0.857035,0.00737213,0.0216391,1721,1576,17.6989,-26.2215
504,-552,17.6864,25.7358,0.00474009,0.00528456,-0.00379374,0.00881582,0.00120883,-0.821217,0.00551858,0.0238061,1728,1576,17.6865,-25.7358
511,-552,17.6345,25.198,0.00347476,0.00350484,-0.00262121,0.00611105,0.00086855,-0.788267,0.00381759,0.0171209,1735,1576,17.6345,-25.198
518,-552,17.6158,24.6923,0.0022139,0.00171287,-0.00137353,0.00335958,0.000567196,-0.695196,0.00207663,0.015434,1742,1576,17.6159,-24.6922
525,-552,17.562,24.196,0.00105346,9.20706e-05,-0.000176121,0.00108471,6.08219e-05,-0.1756,0.000703743,0.0157422,1749,1576,17.562,-24.196
532,-552,17.5272,23.6915,8.804e-05,-0.00138458,0.000977056,0.000575163,-0.00187171,0.462497,0.00147733,0.0158545,1756,1576,17.5272,-23.6915
539,-552,17.5034,23.189,-0.000723427,-0.00277892,0.00215372,0.0006352,-0.00413755,0.562779,0.00299266,0.0181044,1763,1576,17.5035,-23.1889
546,-552,17.4645,22.6904,-0.00151502,-0.00427507,0.00347868,0.000847379,-0.00663746,0.596565,0.00473279,0.0216742,1770,1576,17.4644,-22.6904
553,-552,17.5001,22.1646,-0.00214261,-0.00568971,0.00485351,0.00125124,-0.00908356,0.610227,0.00651297,0.0261324,1777,1576,17.5002,-22.1646
560,-552,17.4745,21.7321,-0.00255384,-0.00692401,0.00616013,0.00179726,-0.0112751,0.614964,0.00818189,0.0446027,1784,1576,17.4744,-21.732
567,-552,17.4927,20.9941,0,0,0,0,0,0,0,-1,1791,1576,17.4926,-20.9942
574,-552,12.8835,14.8463,0,0,0,0,0,0,0,-1,1798,1576,12.8836,-14.8463
581,-552,9.74841,9.98645,0,0,0,0,0,0,0,-1,1805,1576,9.74847,-9.9864
588,-552,10.5619,9.34924,0,0,0,0,0,0,0,-1,1812,1576,10.5619,-9.34921
595,-552,5.36194,6.62744,0,0,0,0,0,0,0,-1,1819,1576,5.36193,-6.62742
602,-552,10.6863,4.31616,0,0,0,0,0,0,0,-1,1826,1576,10.6862,-4.31619
609,-552,12.146,3.18286,0,0,0,0,0,0,0,-1,1833,1576,12.1459,-3.18281
616,-552,13.8762,2.08167,0,0,0,0,0,0,0,-1,1840,1576,13.8763,-2.08167
623,-552,0,0,0,0,0,0,0,0,0,-1,1847,1576,0,0
630,-552,0,0,0,0,0,0,0,0,0,-1,1854,1576,0,0
637,-552,0,0,0,0,0,0,0,0,0,-1,1861,1576,0,0
644,-552,0,0,0,0,0,0,0,0,0,-1,1868,1576,0,0
651,-552,0,0,0,0,0,0,0,0,0,-1,1875,1576,0,0
658,-552,0,0,0,0,0,0,0,0,0,-1,1882,1576,0,0
665,-552,0,0,0,0,0,0,0,0,0,-1,1889,1576,0,0
672,-552,0,0,0,0,0,0,0,0,0,-1,1896,1576,0,0
679,-552,0,0,0,0,0,0,0,0,0,-1,1903,1576,0,0
686,-552,0,0,0,0,0,0,0,0,0,-1,1910,1576,0,0
693,-552,0,0,0,0,0,0,0,0,0,-1,1917,1576,0,0
700,-552,0,0,0,0,0,0,0,0,0,-1,1924,1576,0,0
707,-552,0,0,0,0,0,0,0,0,0,-1,1931,1576,0,0
714,-552,0,0,0,0,0,0,0,0,0,-1,1938,1576,0,0
721,-552,0,0,0,0,0,0,0,0,0,-1,1945,1576,0,0
728,-552,0,0,0,0,0,0,0,0,0,-1,1952,1576,0,0
735,-552,0,0,0,0,0,0,0,0,0,-1,1959,1576,0,0
742,-552,0,0,0,0,0,0,0,0,0,-1,1966,1576,0,0
749,-552,0,0,0,0,0,0,0,0,0,-1,1973,1576,0,0
756,-552,0,0,0,0,0,0,0,0,0,-1,1980,1576,0,0
763,-552,0,0,0,0,0,0,0,0,0,-1,1987,1576,0,0
770,-552,0,0,0,0,0,0,0,0,0,-1,1994,1576,0,0
777,-552,0,0,0,0,0,0,0,0,0,-1,2001,1576,0,0
784,-552,0,0,0,0,0,0,0,0,0,-1,2008,1576,0,0
791,-552,0,0,0,0,0,0,0,0,0,-1,2015,1576,0,0
798,-552,0,0,0,0,0,0,0,0,0,-1,2022,1576,0,0
805,-552,0,0,0,0,0,0,0,0,0,-1,2029,1576,0,0
812,-552,0,0,0,0,0,0,0,0,0,-1,2036,1576,0,0
-700,-559,0,0,0,0,0,0,0,0,0,-1,524,1583,0,0
-693,-559,0,0,0,0,0,0,0,0,0,-1,531,1583,0,0
-686,-559,0,0,0,0,0,0,0,0,0,-1,538,1583,0,0
-679,-559,0,0,0,0,0,0,0,0,0,-1,545,1583,0,0
-672,-559,0,0,0,0,0,0,0,0,0,-1,552,1583,0,0
-665,-559,0,0,0,0,0,0,0,0,0,-1,559,1583,0,0
-658,-559,0,0,0,0,0,0,0,0,0,-1,566,1583,0,0
-651,-559,0,0,0,0,0,0,0,0,0,-1,573,1583,0,0
-644,-559,0,0,0,0,0,0,0,0,0,-1,580,1583,0,0
-637,-559,0,0,0,0,0,0,0,0,0,-1,587,1583,0,0
-630,-559,0,0,0,0,0,0,0,0,0,-1,594,1583,0,0
-623,-559,0,0,0,0,0,0,0,0,0,-1,601,1583,0,0
-616,-559,0,0,0,0,0,0,0,0,0,-1,608,1583,0,0
-609,-559,0,0,0,0,0,0,0,0,0,-1,615,1583,0,0
-602,-559,0,0,0,0,0,0,0,0,0,-1,622,1583,0,0
-595,-559,0,0,0,0,0,0,0,0,0,-1,629,1583,0,0
-588,-559,0,0,0,0,0,0,0,0,0,-1,636,1583,0,0
-581,-559,0,0,0,0,0,0,0,0,0,-1,643,1583,0,0
-574,-559,0,0,0,0,0,0,0,0,0,-1,650,1583,0,0
-567,-559,0,0,0,0,0,0,0,0,0,-1,657,1583,0,0
-560,-559,0,0,0,0,0,0,0,0,0,-1,664,1583,0,0
-553,-559,0,0,0,0,0,0,0,0,0,-1,671,1583,0,0
-546,-559,0,0,0,0,0,0,0,0,0,-1,678,1583,0,0
-539,-559,0,0,0,0,0,0,0,0,0,-1,685,1583,0,0
-532,-559,0,0,0,0,0,0,0,0,0,-1,692,1583,0,0
-525,-559,0,0,0,0,0,0,0,0,0,-1,699,1583,0,0
-518,-559,0,0,0,0,0,0,0,0,0,-1,706,1583,0,0
-511,-559,0,0,0,0,0,0,0,0,0,-1,713,1583,0,0
-504,-559,0,0,0,0,0,0,0,0,0,-1,720,1583,0,0
-497,-559,0,0,0,0,0,0,0,0,0,-1,727,1583,0,0
-490,-559,-5.49835,4.47424,0,0,0,0,0,0,0,-1,734,1583,-5.49833,-4.4743
-483,-559,-5.24078,4.74561,0,0,0,0,0,0,0,-1,741,1583,-5.24079,-4.74563
-476,-559,-4.98022,4.99316,0,0,0,0,0,0,0,-1,748,1583,-4.98024,-4.99321
-469,-559,-4.6424,5.38062,0,0,0,0,0,0,0,-1,755,1583,-4.64237,-5.38058
-462,-559,-0.161865,6.49438,0,0,0,0,0,0,0,-1,762,1583,-0.161835,-6.49444
-455,-559,1.08826,7.02527,0,0,0,0,0,0,0,-1,769,1583,1.08823,-7.02529
-448,-559,-1.20264,17.3962,0,0,0,0,0,0,0,-1,776,1583,-1.20264,-17.3963
-441,-559,-0.32782,19.3815,0,0,0,0,0,0,0,-1,783,1583,-0.327839,-19.3815
-434,-559,-0.392822,20.3085,0,0,0,0,0,0,0,-1,790,1583,-0.392823,-20.3085
-427,-559,-0.764526,20.2991,0,0,0,0,0,0,0,-1,797,1583,-0.764497,-20.2991
-420,-559,-0.765991,20.9818,0,0,0,0,0,0,0,-1,804,1583,-0.766001,-20.9818
-413,-559,-0.809143,21.6198,-0.00506824,0.00249478,-0.000522599,0.00253072,-0.00510418,-1.50213,0.0044907,0.0176229,811,1583,-0.809121,-21.6197
-406,-559,-0.830078,22.1714,-0.00384627,0.0016371,-0.000214904,0.00164551,-0.00385468,-1.53168,0.0032598,0.0102423,818,1583,-0.830072,-22.1713
-399,-559,-0.838806,22.6984,-0.0029151,0.000746042,2.53384e-06,0.000746044,-0.0029151,1.5701,0.002234,0.0136244,825,1583,-0.838799,-22.6983
-392,-559,-0.865479,23.2477,-0.00201458,0.000977076,0.000283326,0.00100367,-0.00204118,1.4772,0.00179164,0.0176085,832,1583,-0.865502,-23.2477
-385,-559,-0.885132,23.8076,-0.00109243,0.00169209,0.000440831,0.00176022,-0.00116055,1.41748,0.00169811,0.0172814,839,1583,-0.885158,-23.8076
-378,-559,-0.904358,24.3229,-0.000341871,0.00256408,0.000515664,0.00265287,-0.000430663,1.40028,0.00192824,0.0157483,846,1583,-0.904371,-24.3229
-371,-559,-0.944946,24.853,0.000313342,0.00348299,0.000497373,0.0035592,0.000237128,1.41875,0.00229784,0.0229327,853,1583,-0.944955,-24.853
-364,-559,-0.941406,25.3589,0.000962188,0.00474362,0.000489131,0.00480586,0.000899943,1.44422,0.00295004,0.0199356,860,1583,-0.941397,-25.3589
-357,-559,-0.9422,25.8708,0.00160636,0.00618835,0.000455799,0.00623325,0.00156146,1.4726,0.00374513,0.011942,867,1583,-0.942172,-25.8708
-350,-559,-0.946045,26.3817,0.00237069,0.00776073,0.000498569,0.00780646,0.00232496,1.47933,0.00462825,0.010222,874,1583,-0.94606,-26.3817
-343,-559,-0.960999,26.8944,0.00319365,0.00957866,0.000670279,0.00964827,0.00312404,1.46732,0.00568456,0.0109547,881,1583,-0.961009,-26.8944
-336,-559,-1.00476,27.3989,0,0,0,0,0,0,0,-1,888,1583,-1.00478,-27.3989
-329,-559,-0.909607,28.1659,0,0,0,0,0,0,0,-1,895,1583,-0.909634,-28.1659
-322,-559,-0.517151,29.0594,0,0,0,0,0,0,0,-1,902,1583,-0.517162,-29.0595
-315,-559,-0.659607,29.1698,0,0,0,0,0,0,0,-1,909,1583,-0.659577,-29.1698
-308,-559,-0.755493,30.4624,0,0,0,0,0,0,0,-1,916,1583,-0.755509,-30.4625
-301,-559,-1.22174,31.0372,0,0,0,0,0,0,0,-1,923,1583,-1.22176,-31.0372
-294,-559,0.945129,18.5165,0,0,0,0,0,0,0,-1,930,1583,0.945117,-18.5165
-287,-559,-0.11792,15.4912,0,0,0,0,0,0,0,-1,937,1583,-0.117939,-15.4912
-280,-559,0.191467,13.5093,0,0,0,0,0,0,0,-1,944,1583,0.191441,-13.5093
-273,-559,2.12836,10.3059,0,0,0,0,0,0,0,-1,951,1583,2.12839,-10.3059
-266,-559,-0.597046,6.68933,0,0,0,0,0,0,0,-1,958,1583,-0.597031,-6.68937
-259,-559,-7.00311,8.62756,0,0,0,0,0,0,0,-1,965,1583,-7.00312,-8.6275
-252,-559,-9.4483,2.87805,0,0,0,0,0,0,0,-1,972,1583,-9.44829,-2.87805
-245,-559,-4.80804,7.1803,0,0,0,0,0,0,0,-1,979,1583,-4.80804,-7.18027
-238,-559,-8.45764,2.54858,0,0,0,0,0,0,0,-1,986,1583,-8.45763,-2.54862
-231,-559,-5.86914,4.34021,0,0,0,0,0,0,0,-1,993,1583,-5.86914,-4.34019
-224,-559,-3.30505,6.22864,0,0,0,0,0,0,0,-1,1000,1583,-3.30505,-6.22859
-217,-559,0,0,0,0,0,0,0,0,0,-1,1007,1583,0,0
-210,-559,0,0,0,0,0,0,0,0,0,-1,1014,1583,0,0
-203,-559,0,0,0,0,0,0,0,0,0,-1,1021,1583,0,0
-196,-559,0,0,0,0,0,0,0,0,0,-1,1028,1583,0,0
-189,-559,0,0,0,0,0,0,0,0,0,-1,1035,1583,0,0
-182,-559,0,0,0,0,0,0,0,0,0,-1,1042,1583,0,0
-175,-559,0,0,0,0,0,0,0,0,0,-1,1049,1583,0,0
-168,-559,0,0,0,0,0,0,0,0,0,-1,1056,1583,0,0
-161,-559,0,0,0,0,0,0,0,0,0,-1,1063,1583,0,0
-154,-559,0,0,0,0,0,0,0,0,0,-1,1070,1583,0,0
-147,-559,0,0,0,0,0,0,0,0,0,-1,1077,1583,0,0
-140,-559,0,0,0,0,0,0,0,0,0,-1,1084,1583,0,0
-133,-559,0,0,0,0,0,0,0,0,0,-1,1091,1583,0,0
-126,-559,0,0,0,0,0,0,0,0,0,-1,1098,1583,0,0
-119,-559,0,0,0,0,0,0,0,0,0,-1,1105,1583,0,0
-112,-559,0,0,0,0,0,0,0,0,0,-1,1112,1583,0,0
-105,-559,0,0,0,0,0,0,0,0,0,-1,1119,1583,0,0
-98,-559,0,0,0,0,0,0,0,0,0,-1,1126,1583,0,0
-91,-559,0,0,0,0,0,0,0,0,0,-1,1133,1583,0,0
-84,-559,0,0,0,0,0,0,0,0,0,-1,1140,1583,0,0
-77,-559,0,0,0,0,0,0,0,0,0,-1,1147,1583,0,0
-70,-559,0,0,0,0,0,0,0,0,0,-1,1154,1583,0,0
-63,-559,0,0,0,0,0,0,0,0,0,-1,1161,1583,0,0
-56,-559,0,0,0,0,0,0,0,0,0,-1,1168,1583,0,0
-49,-559,0,0,0,0,0,0,0,0,0,-1,1175,1583,0,0
-42,-559,0,0,0,0,0,0,0,0,0,-1,1182,1583,0,0
-35,-559,0,0,0,0,0,0,0,0,0,-1,1189,1583,0,0
-28,-559,0,0,0,0,0,0,0,0,0,-1,1196,1583,0,0
-21,-559,0,0,0,0,0,0,0,0,0,-1,1203,1583,0,0
-14,-559,0,0,0,0,0,0,0,0,0,-1,1210,1583,0,0
-7,-559,0,0,0,0,0,0,0,0,0,-1,1217,1583,0,0
0,-559,0,0,0,0,0,0,0,0,0,-1,1224,1583,0,0
7,-559,0,0,0,0,0,0,0,0,0,-1,1231,1583,0,0
14,-559,0,0,0,0,0,0,0,0,0,-1,1238,1583,0,0
21,-559,0,0,0,0,0,0,0,0,0,-1,1245,1583,0,0
28,-559,0,0,0,0,0,0,0,0,0,-1,1252,1583,0,0
35,-559,0,0,0,0,0,0,0,0,0,-1,1259,1583,0,0
42,-559,0,0,0,0,0,0,0,0,0,-1,1266,1583,0,0
49,-559,0,0,0,0,0,0,0,0,0,-1,1273,1583,0,0
56,-559,0,0,0,0,0,0,0,0,0,-1,1280,1583,0,0
63,-559,0,0,0,0,0,0,0,0,0,-1,1287,1583,0,0
70,-559,0,0,0,0,0,0,0,0,0,-1,1294,1583,0,0
77,-559,0,0,0,0,0,0,0,0,0,-1,1301,1583,0,0
84,-559,0,0,0,0,0,0,0,0,0,-1,1308,1583,0,0
91,-559,0,0,0,0,0,0,0,0,0,-1,1315,1583,0,0
98,-559,0,0,0,0,0,0,0,0,0,-1,1322,1583,0,0
105,-559,0,0,0,0,0,0,0,0,0,-1,1329,1583,0,0
112,-559,0,0,0,0,0,0,0,0,0,-1,1336,1583,0,0
119,-559,0,0,0,0,0,0,0,0,0,-1,1343,1583,0,0
126,-559,0,0,0,0,0,0,0,0,0,-1,1350,1583,0,0
133,-559,0,0,0,0,0,0,0,0,0,-1,1357,1583,0,0
140,-559,0,0,0,0,0,0,0,0,0,-1,1364,1583,0,0
147,-559,0,0,0,0,0,0,0,0,0,-1,1371,1583,0,0
154,-559,0,0,0,0,0,0,0,0,0,-1,1378,1583,0,0
161,-559,0,0,0,0,0,0,0,0,0,-1,1385,1583,0,0
168,-559,0,0,0,0,0,0,0,0,0,-1,1392,1583,0,0
175,-559,0,0,0,0,0,0,0,0,0,-1,1399,1583,0,0
182,-559,0,0,0,0,0,0,0,0,0,-1,1406,1583,0,0
189,-559,0,0,0,0,0,0,0,0,0,-1,1413,1583,0,0
196,-559,0,0,0,0,0,0,0,0,0,-1,1420,1583,0,0
203,-559,0,0,0,0,0,0,0,0,0,-1,1427,1583,0,0
210,-559,0,0,0,0,0,0,0,0,0,-1,1434,1583,0,0
217,-559,0,0,0,0,0,0,0,0,0,-1,1441,1583,0,0
224,-559,0,0,0,0,0,0,0,0,0,-1,1448,1583,0,0
231,-559,0,0,0,0,0,0,0,0,0,-1,1455,1583,0,0
238,-559,0,0,0,0,0,0,0,0,0,-1,1462,1583,0,0
245,-559,0,0,0,0,0,0,0,0,0,-1,1469,1583,0,0
252,-559,0,0,0,0,0,0,0,0,0,-1,1476,1583,0,0
259,-559,0,0,0,0,0,0,0,0,0,-1,1483,1583,0,0
266,-559,0,0,0,0,0,0,0,0,0,-1,1490,1583,0,0
273,-559,0,0,0,0,0,0,0,0,0,-1,1497,1583,0,0
280,-559,0,0,0,0,0,0,0,0,0,-1,1504,1583,0,0
287,-559,0,0,0,0,0,0,0,0,0,-1,1511,1583,0,0
294,-559,0,0,0,0,0,0,0,0,0,-1,1518,1583,0,0
301,-559,0,0,0,0,0,0,0,0,0,-1,1525,1583,0,0
308,-559,0,0,0,0,0,0,0,0,0,-1,1532,1583,0,0
315,-559,0,0,0,0,0,0,0,0,0,-1,1539,1583,0,0
322,-559,0,0,0,0,0,0,0,0,0,-1,1546,1583,0,0
329,-559,0,0,0,0,0,0,0,0,0,-1,1553,1583,0,0
336,-559,5.97668,3.09827,0,0,0,0,0,0,0,-1,1560,1583,5.97667,-3.09824
343,-559,5.44824,2.88696,0,0,0,0,0,0,0,-1,1567,1583,5.44819,-2.88693
350,-559,4.69775,3.27051,0,0,0,0,0,0,0,-1,1574,1583,4.69771,-3.27048
357,-559,3.88025,3.60999,0,0,0,0,0,0,0,-1,1581,1583,3.88027,-3.60998
364,-559,5.00928,5.32605,0,0,0,0,0,0,0,-1,1588,1583,5.00928,-5.32607
371,-559,1.84436,2.52441,0,0,0,0,0,0,0,-1,1595,1583,1.84441,-2.52447
378,-559,6.34753,1.53137,0,0,0,0,0,0,0,-1,1602,1583,6.34752,-1.53139
385,-559,6.95911,1.48181,0,0,0,0,0,0,0,-1,1609,1583,6.95916,-1.48175
392,-559,11.6949,4.77734,0,0,0,0,0,0,0,-1,1616,1583,11.6949,-4.77731
399,-559,11.1104,5.56909,0,0,0,0,0,0,0,-1,1623,1583,11.1103,-5.56905
406,-559,10.3385,6.48657,0,0,0,0,0,0,0,-1,1630,1583,10.3385,-6.48661
413,-559,9.76147,6.97571,0,0,0,0,0,0,0,-1,1637,1583,9.76143,-6.97574
420,-559,7.77124,10.5851,0,0,0,0,0,0,0,-1,1644,1583,7.77128,-10.585
427,-559,10.1022,12.5565,0,0,0,0,0,0,0,-1,1651,1583,10.1021,-12.5565
434,-559,9.62769,14.6309,0,0,0,0,0,0,0,-1,1658,1583,9.62771,-14.6309
441,-559,12.6149,21.3678,0,0,0,0,0,0,0,-1,1665,1583,12.6149,-21.3678
448,-559,13.7046,22.6677,0,0,0,0,0,0,0,-1,1672,1583,13.7046,-22.6677
455,-559,13.9427,23.0509,0,0,0,0,0,0,0,-1,1679,1583,13.9427,-23.0509
462,-559,16.7064,29.2769,0,0,0,0,0,0,0,-1,1686,1583,16.7064,-29.2768
469,-559,16.8971,28.4497,0.0085065,0.0165702,-0.00804354,0.0215358,0.00354089,-1.01772,0.0133345,0.0487754,1693,1583,16.8971,-28.4497
476,-559,17.0626,27.7362,0.00753439,0.0133935,-0.0070784,0.0181246,0.00280327,-0.981602,0.0112655,0.0215664,1700,1583,17.0626,-27.7361
483,-559,17.1217,27.158,0.00683542,0.0108111,-0.00607796,0.015218,0.0024285,-0.943445,0.00944056,0.0131442,1707,1583,17.1218,-27.158
490,-559,17.1145,26.6665,0.00575273,0.00793255,-0.00509041,0.0120484,0.00163686,-0.890861,0.00754607,0.0145628,1714,1583,17.1145,-26.6665
497,-559,17.1906,26.2263,0.00456762,0.0057269,-0.00379125,0.00898256,0.00131196,-0.861256,0.00560249,0.0175989,1721,1583,17.1906,-26.2263
504,-559,17.1639,25.749,0.00342297,0.00369055,-0.00267001,0.00623012,0.000883396,-0.810432,0.00389251,0.0233383,1728,1583,17.164,-25.7491
511,-559,17.1334,25.2175,0.00225517,0.00193975,-0.00151083,0.0036165,0.000578418,-0.733393,0.00224319,0.0214205,1735,1583,17.1335,-25.2175
518,-559,17.137,24.7058,0.00108817,0.000203448,-0.000306601,0.00118404,0.000107583,-0.303041,0.000756052,0.0148862,1742,1583,17.137,-24.7058
525,-559,17.0894,24.2101,1.41453e-06,-0.00141779,0.000897432,0.000435893,-0.00185226,0.450876,0.0014029,0.0137145,1749,1583,17.0894,-24.2101
532,-559,17.054,23.7164,-0.000942993,-0.00298867,0.00213927,0.000405386,-0.00433705,0.562401,0.00303553,0.0150465,1756,1583,17.054,-23.7164
539,-559,17.021,23.2356,-0.0018109,-0.00457741,0.00350521,0.000574121,-0.00696243,0.597465,0.00484435,0.0189231,1763,1583,17.021,-23.2355
546,-559,16.96,22.7361,-0.00270335,-0.00633443,0.00511941,0.000912921,-0.0099507,0.614998,0.0069581,0.0168025,1770,1583,16.9599,-22.7361
553,-559,17.0399,22.1876,-0.00346111,-0.00807853,0.00687858,0.00148587,-0.0130255,0.623487,0.00921896,0.0214685,1777,1583,17.0399,-22.1876
560,-559,17.0242,21.8245,-0.00407077,-0.00973778,0.00866548,0.0022127,-0.0160213,0.627384,0.0114896,0.0405893,1784,1583,17.0242,-21.8244
567,-559,16.9646,21.2904,0,0,0,0,0,0,0,-1,1791,1583,16.9646,-21.2903
574,-559,10.5109,10.7317,0,0,0,0,0,0,0,-1,1798,1583,10.5108,-10.7317
581,-559,5.97095,5.96179,0,0,0,0,0,0,0,-1,1805,1583,5.97093,-5.96181
588,-559,5.79102,5.89954,0,0,0,0,0,0,0,-1,1812,1583,5.79098,-5.89949
595,-559,5.79089,6.24231,0,0,0,0,0,0,0,-1,1819,1583,5.7909,-6.24227
602,-559,12.478,2.35669,0,0,0,0,0,0,0,-1,1826,1583,12.4781,-2.35675
609,-559,14.0479,1.22681,0,0,0,0,0,0,0,-1,1833,1583,14.0479,-1.22681
616,-559,0,0,0,0,0,0,0,0,0,-1,1840,1583,0,0
623,-559,0,0,0,0,0,0,0,0,0,-1,1847,1583,0,0
630,-559,0,0,0,0,0,0,0,0,0,-1,1854,1583,0,0
637,-559,0,0,0,0,0,0,0,0,0,-1,1861,1583,0,0
644,-559,0,0,0,0,0,0,0,0,0,-1,1868,1583,0,0
651,-559,0,0,0,0,0,0,0,0,0,-1,1875,1583,0,0
658,-559,0,0,0,0,0,0,0,0,0,-1,1882,1583,0,0
665,-559,0,0,0,0,0,0,0,0,0,-1,1889,1583,0,0
672,-559,0,0,0,0,0,0,0,0,0,-1,1896,1583,0,0
679,-559,0,0,0,0,0,0,0,0,0,-1,1903,1583,0,0
686,-559,0,0,0,0,0,0,0,0,0,-1,1910,1583,0,0
693,-559,0,0,0,0,0,0,0,0,0,-1,1917,1583,0,0
700,-559,0,0,0,0,0,0,0,0,0,-1,1924,1583,0,0
707,-559,0,0,0,0,0,0,0,0,0,-1,1931,1583,0,0
714,-559,0,0,0,0,0,0,0,0,0,-1,1938,1583,0,0
721,-559,0,0,0,0,0,0,0,0,0,-1,1945,1583,0,0
728,-559,0,0,0,0,0,0,0,0,0,-1,1952,1583,0,0
735,-559,0,0,0,0,0,0,0,0,0,-1,1959,1583,0,0
742,-559,0,0,0,0,0,0,0,0,0,-1,1966,1583,0,0
749,-559,0,0,0,0,0,0,0,0,0,-1,1973,1583,0,0
756,-559,0,0,0,0,0,0,0,0,0,-1,1980,1583,0,0
763,-559,0,0,0,0,0,0,0,0,0,-1,1987,1583,0,0
770,-559,0,0,0,0,0,0,0,0,0,-1,1994,1583,0,0
777,-559,0,0,0,0,0,0,0,0,0,-1,2001,1583,0,0
784,-559,0,0,0,0,0,0,0,0,0,-1,2008,1583,0,0
791,-559,0,0,0,0,0,0,0,0,0,-1,2015,1583,0,0
798,-559,0,0,0,0,0,0,0,0,0,-1,2022,1583,0,0
805,-559,0,0,0,0,0,0,0,0,0,-1,2029,1583,0,0
812,-559,0,0,0,0,0,0,0,0,0,-1,2036,1583,0,0
-700,-566,0,0,0,0,0,0,0,0,0,-1,524,1590,0,0
-693,-566,0,0,0,0,0,0,0,0,0,-1,531,1590,0,0
-686,-566,0,0,0,0,0,0,0,0,0,-1,538,1590,0,0
-679,-566,0,0,0,0,0,0,0,0,0,-1,545,1590,0,0
-672,-566,0,0,0,0,0,0,0,0,0,-1,552,1590,0,0
-665,-566,0,0,0,0,0,0,0,0,0,-1,559,1590,0,0
-658,-566,0,0,0,0,0,0,0,0,0,-1,566,1590,0,0
-651,-566,0,0,0,0,0,0,0,0,0,-1,573,1590,0,0
-644,-566,0,0,0,0,0,0,0,0,0,-1,580,1590,0,0
-637,-566,0,0,0,0,0,0,0,0,0,-1,587,1590,0,0
-630,-566,0,0,0,0,0,0,0,0,0,-1,594,1590,0,0
-623,-566,0,0,0,0,0,0,0,0,0,-1,601,1590,0,0
-616,-566,0,0,0,0,0,0,0,0,0,-1,608,1590,0,0
-609,-566,0,0,0,0,0,0,0,0,0,-1,615,1590,0,0
-602,-566,0,0,0,0,0,0,0,0,0,-1,622,1590,0,0
-595,-566,0,0,0,0,0,0,0,0,0,-1,629,1590,0,0
-588,-566,0,0,0,0,0,0,0,0,0,-1,636,1590,0,0
-581,-566,0,0,0,0,0,0,0,0,0,-1,643,1590,0,0
-574,-566,0,0,0,0,0,0,0,0,0,-1,650,1590,0,0
-567,-566,0,0,0,0,0,0,0,0,0,-1,657,1590,0,0
-560,-566,0,0,0,0,0,0,0,0,0,-1,664,1590,0,0
-553,-566,0,0,0,0,0,0,0,0,0,-1,671,1590,0,0
-546,-566,0,0,0,0,0,0,0,0,0,-1,678,1590,0,0
-539,-566,0,0,0,0,0,0,0,0,0,-1,685,1590,0,0
-532,-566,0,0,0,0,0,0,0,0,0,-1,692,1590,0,0
-525,-566,0,0,0,0,0,0,0,0,0,-1,699,1590,0,0
-518,-566,0,0,0,0,0,0,0,0,0,-1,706,1590,0,0
-511,-566,0,0,0,0,0,0,0,0,0,-1,713,1590,0,0
-504,-566,0,0,0,0,0,0,0,0,0,-1,720,1590,0,0
-497,-566,0,0,0,0,0,0,0,0,0,-1,727,1590,0,0
-490,-566,0,0,0,0,0,0,0,0,0,-1,734,1590,0,0
-483,-566,-7.17084,2.78613,0,0,0,0,0,0,0,-1,741,1590,-7.17083,-2.78618
-476,-566,-7.13971,2.87183,0,0,0,0,0,0,0,-1,748,1590,-7.13971,-2.87184
-469,-566,-6.43829,3.2998,0,0,0,0,0,0,0,-1,755,1590,-6.43829,-3.2998
-462,-566,-0.459106,3.89343,0,0,0,0,0,0,0,-1,762,1590,-0.459095,-3.89341
-455,-566,0.280212,4.74023,0,0,0,0,0,0,0,-1,769,1590,0.280207,-4.74023
-448,-566,0.436951,5.51306,0,0,0,0,0,0,0,-1,776,1590,0.436971,-5.51301
-441,-566,-0.440735,12.4063,0,0,0,0,0,0,0,-1,783,1590,-0.440753,-12.4062
-434,-566,0.0814819,20.4999,0,0,0,0,0,0,0,-1,790,1590,0.08149,-20.4999
-427,-566,0.0216064,20.7587,0,0,0,0,0,0,0,-1,797,1590,0.0216019,-20.7587
-420,-566,-0.424805,20.9937,0,0,0,0,0,0,0,-1,804,1590,-0.42478,-20.9937
-413,-566,-0.284302,21.6348,-0.00690624,0.00309762,-0.000437094,0.00311668,-0.0069253,-1.52721,0.00593511,0.0295892,811,1590,-0.284289,-21.6347
-406,-566,-0.28717,22.1896,-0.00558808,0.00183885,-0.000288797,0.00185006,-0.00559929,-1.53199,0.00447878,0.0130248,818,1590,-0.287186,-22.1896
-399,-566,-0.32489,22.7318,-0.00453284,0.000526146,-0.000160003,0.000531202,-0.00453789,-1.53921,0.00321698,0.0107217,825,1590,-0.324884,-22.7318
-392,-566,-0.342102,23.254,-0.00348436,0.00037,0.000103199,0.000372762,-0.00348712,1.54405,0.00245844,0.0137186,832,1590,-0.342075,-23.254
-385,-566,-0.348572,23.8157,-0.00241775,0.000853336,0.000237136,0.000870438,-0.00243485,1.4988,0.00197827,0.0164416,839,1590,-0.348575,-23.8157
-378,-566,-0.374756,24.3792,-0.00151166,0.00150366,0.000317059,0.00153663,-0.00154464,1.46716,0.00177898,0.016569,846,1590,-0.374758,-24.3791
-371,-566,-0.432678,24.9028,-0.000695608,0.00214031,0.00030139,0.00217198,-0.000727284,1.46608,0.00174179,0.0215588,853,1590,-0.432697,-24.9029
-364,-566,-0.426392,25.4056,0.000127464,0.00308397,0.00033194,0.00312078,9.06538e-05,1.46035,0.00205097,0.021004,860,1590,-0.426372,-25.4057
-357,-566,-0.438477,25.8833,0.00093955,0.00419114,0.000362036,0.00423096,0.000899728,1.46124,0.0025737,0.0178582,867,1590,-0.43845,-25.8833
-350,-566,-0.434875,26.4021,0.00185275,0.00537067,0.000470197,0.00543243,0.00179099,1.44019,0.00319649,0.0210557,874,1590,-0.434862,-26.4021
-343,-566,-0.41925,26.908,0.00281692,0.00678491,0.000733969,0.00691633,0.0026855,1.39363,0.00402623,0.0251221,881,1590,-0.419229,-26.908
-336,-566,-0.520142,27.3936,0.00372152,0.00826129,0.00105058,0.00849262,0.00349018,1.35406,0.00492906,0.0277347,888,1590,-0.520133,-27.3935
-329,-566,-0.452271,27.8503,0.00469846,0.00980869,0.00159153,0.0102638,0.00424333,1.29226,0.00595536,0.0258233,895,1590,-0.452276,-27.8503
-322,-566,-0.348938,28.5068,0.00606035,0.0116541,0.00269868,0.0127438,0.00497066,1.18703,0.0074167,0.0338159,902,1590,-0.348959,-28.5068
-315,-566,-0.0897217,29.1559,0,0,0,0,0,0,0,-1,909,1590,-0.0897093,-29.1558
-308,-566,-0.127258,29.7607,0,0,0,0,0,0,0,-1,916,1590,-0.12725,-29.7608
-301,-566,0.424011,30.6545,0,0,0,0,0,0,0,-1,923,1590,0.424036,-30.6546
-294,-566,0.741455,25.3229,0,0,0,0,0,0,0,-1,930,1590,0.741475,-25.3229
-287,-566,1.25391,23.4589,0,0,0,0,0,0,0,-1,937,1590,1.2539,-23.4589
-280,-566,1.59406,17.8762,0,0,0,0,0,0,0,-1,944,1590,1.59405,-17.8762
-273,-566,0.49762,11.2427,0,0,0,0,0,0,0,-1,951,1590,0.497591,-11.2426
-266,-566,0.392151,6.90295,0,0,0,0,0,0,0,-1,958,1590,0.392151,-6.90294
-259,-566,0.343628,6.47437,0,0,0,0,0,0,0,-1,965,1590,0.34363,-6.47438
-252,-566,-7.68311,1.01343,0,0,0,0,0,0,0,-1,972,1590,-7.68308,-1.01348
-245,-566,-11.1835,1.97522,0,0,0,0,0,0,0,-1,979,1590,-11.1835,-1.97527
-238,-566,-10.4883,2.40491,0,0,0,0,0,0,0,-1,986,1590,-10.4883,-2.40487
-231,-566,-7.41827,4.22803,0,0,0,0,0,0,0,-1,993,1590,-7.41827,-4.22803
-224,-566,-4.67188,6.30859,0,0,0,0,0,0,0,-1,1000,1590,-4.67185,-6.30853
-217,-566,-2.82867,7.52527,0,0,0,0,0,0,0,-1,1007,1590,-2.82869,-7.52531
-210,-566,-1.03436,8.67737,0,0,0,0,0,0,0,-1,1014,1590,-1.03439,-8.67733
-203,-566,0,0,0,0,0,0,0,0,0,-1,1021,1590,0,0
-196,-566,0,0,0,0,0,0,0,0,0,-1,1028,1590,0,0
-189,-566,0,0,0,0,0,0,0,0,0,-1,1035,1590,0,0
-182,-566,0,0,0,0,0,0,0,0,0,-1,1042,1590,0,0
-175,-566,0,0,0,0,0,0,0,0,0,-1,1049,1590,0,0
-168,-566,0,0,0,0,0,0,0,0,0,-1,1056,1590,0,0
-161,-566,0,0,0,0,0,0,0,0,0,-1,1063,1590,0,0
-154,-566,0,0,0,0,0,0,0,0,0,-1,1070,1590,0,0
-147,-566,0,0,0,0,0,0,0,0,0,-1,1077,1590,0,0
-140,-566,0,0,0,0,0,0,0,0,0,-1,1084,1590,0,0
-133,-566,0,0,0,0,0,0,0,0,0,-1,1091,1590,0,0
-126,-566,0,0,0,0,0,0,0,0,0,-1,1098,1590,0,0
-119,-566,0,0,0,0,0,0,0,0,0,-1,1105,1590,0,0
-112,-566,0,0,0,0,0,0,0,0,0,-1,1112,1590,0,0
-105,-566,0,0,0,0,0,0,0,0,0,-1,1119,1590,0,0
-98,-566,0,0,0,0,0,0,0,0,0,-1,1126,1590,0,0
-91,-566,0,0,0,0,0,0,0,0,0,-1,1133,1590,0,0
-84,-566,0,0,0,0,0,0,0,0,0,-1,1140,1590,0,0
-77,-566,0,0,0,0,0,0,0,0,0,-1,1147,1590,0,0
-70,-566,0,0,0,0,0,0,0,0,0,-1,1154,1590,0,0
-63,-566,0,0,0,0,0,0,0,0,0,-1,1161,1590,0,0
-56,-566,0,0,0,0,0,0,0,0,0,-1,1168,1590,0,0
-49,-566,0,0,0,0,0,0,0,0,0,-1,1175,1590,0,0
-42,-566,0,0,0,0,0,0,0,0,0,-1,1182,1590,0,0
-35,-566,0,0,0,0,0,0,0,0,0,-1,1189,1590,0,0
-28,-566,0,0,0,0,0,0,0,0,0,-1,1196,1590,0,0
-21,-566,0,0,0,0,0,0,0,0,0,-1,1203,1590,0,0
-14,-566,0,0,0,0,0,0,0,0,0,-1,1210,1590,0,0
-7,-566,0,0,0,0,0,0,0,0,0,-1,1217,1590,0,0
0,-566,0,0,0,0,0,0,0,0,0,-1,1224,1590,0,0
7,-566,0,0,0,0,0,0,0,0,0,-1,1231,1590,0,0
14,-566,0,0,0,0,0,0,0,0,0,-1,1238,1590,0,0
21,-566,0,0,0,0,0,0,0,0,0,-1,1245,1590,0,0
28,-566,0,0,0,0,0,0,0,0,0,-1,1252,1590,0,0
35,-566,0,0,0,0,0,0,0,0,0,-1,1259,1590,0,0
42,-566,0,0,0,0,0,0,0,0,0,-1,1266,1590,0,0
49,-566,0,0,0,0,0,0,0,0,0,-1,1273,1590,0,0
56,-566,0,0,0,0,0,0,0,0,0,-1,1280,1590,0,0
63,-566,0,0,0,0,0,0,0,0,0,-1,1287,1590,0,0
70,-566,0,0,0,0,0,0,0,0,0,-1,1294,1590,0,0
77,-566,0,0,0,0,0,0,0,0,0,-1,1301,1590,0,0
84,-566,0,0,0,0,0,0,0,0,0,-1,1308,1590,0,0
91,-566,0,0,0,0,0,0,0,0,0,-1,1315,1590,0,0
98,-566,0,0,0,0,0,0,0,0,0,-1,1322,1590,0,0
105,-566,0,0,0,0,0,0,0,0,0,-1,1329,1590,0,0
112,-566,0,0,0,0,0,0,0,0,0,-1,1336,1590,0,0
119,-566,0,0,0,0,0,0,0,0,0,-1,1343,1590,0,0
126,-566,0,0,0,0,0,0,0,0,0,-1,1350,1590,0,0
133,-566,0,0,0,0,0,0,0,0,0,-1,1357,1590,0,0
140,-566,0,0,0,0,0,0,0,0,0,-1,1364,1590,0,0
147,-566,0,0,0,0,0,0,0,0,0,-1,1371,1590,0,0
154,-566,0,0,0,0,0,0,0,0,0,-1,1378,1590,0,0
161,-566,0,0,0,0,0,0,0,0,0,-1,1385,1590,0,0
168,-566,0,0,0,0,0,0,0,0,0,-1,1392,1590,0,0
175,-566,0,0,0,0,0,0,0,0,0,-1,1399,1590,0,0
182,-566,0,0,0,0,0,0,0,0,0,-1,1406,1590,0,0
189,-566,0,0,0,0,0,0,0,0,0,-1,1413,1590,0,0
196,-566,0,0,0,0,0,0,0,0,0,-1,1420,1590,0,0
203,-566,0,0,0,0,0,0,0,0,0,-1,1427,1590,0,0
210,-566,0,0,0,0,0,0,0,0,0,-1,1434,1590,0,0
217,-566,0,0,0,0,0,0,0,0,0,-1,1441,1590,0,0
224,-566,0,0,0,0,0,0,0,0,0,-1,1448,1590,0,0
231,-566,0,0,0,0,0,0,0,0,0,-1,1455,1590,0,0
238,-566,0,0,0,0,0,0,0,0,0,-1,1462,1590,0,0
245,-566,0,0,0,0,0,0,0,0,0,-1,1469,1590,0,0
252,-566,0,0,0,0,0,0,0,0,0,-1,1476,1590,0,0
259,-566,0,0,0,0,0,0,0,0,0,-1,1483,1590,0,0
266,-566,0,0,0,0,0,0,0,0,0,-1,1490,1590,0,0
273,-566,0,0,0,0,0,0,0,0,0,-1,1497,1590,0,0
280,-566,0,0,0,0,0,0,0,0,0,-1,1504,1590,0,0
287,-566,0,0,0,0,0,0,0,0,0,-1,1511,1590,0,0
294,-566,0,0,0,0,0,0,0,0,0,-1,1518,1590,0,0
301,-566,0,0,0,0,0,0,0,0,0,-1,1525,1590,0,0
308,-566,0,0,0,0,0,0,0,0,0,-1,1532,1590,0,0
315,-566,0,0,0,0,0,0,0,0,0,-1,1539,1590,0,0
322,-566,6.07983,4.44873,0,0,0,0,0,0,0,-1,1546,1590,6.07983,-4.44873
329,-566,5.77026,3.47534,0,0,0,0,0,0,0,-1,1553,1590,5.77026,-3.47535
336,-566,5.41138,2.62915,0,0,0,0,0,0,0,-1,1560,1590,5.41138,-2.62909
343,-566,4.81873,1.79089,0,0,0,0,0,0,0,-1,1567,1590,4.81878,-1.79095
350,-566,4.41663,2.44214,0,0,0,0,0,0,0,-1,1574,1590,4.41666,-2.44214
357,-566,6.34058,5.18579,0,0,0,0,0,0,0,-1,1581,1590,6.34059,-5.1858
364,-566,6.06262,4.20251,0,0,0,0,0,0,0,-1,1588,1590,6.06259,-4.20246
371,-566,5.78455,3.21912,0,0,0,0,0,0,0,-1,1595,1590,5.7846,-3.21912
378,-566,5.7439,0.695557,0,0,0,0,0,0,0,-1,1602,1590,5.74392,-0.695531
385,-566,5.67615,-0.573975,0,0,0,0,0,0,0,-1,1609,1590,5.67612,0.573956
392,-566,5.78638,1.82434,0,0,0,0,0,0,0,-1,1616,1590,5.78637,-1.82439
399,-566,12.8856,32.293,0,0,0,0,0,0,0,-1,1623,1590,12.8856,-32.293
406,-566,4.30359,5.26868,0,0,0,0,0,0,0,-1,1630,1590,4.30364,-5.26867
413,-566,4.27124,5.79492,0,0,0,0,0,0,0,-1,1637,1590,4.27123,-5.7949
420,-566,7.19812,8.25146,0,0,0,0,0,0,0,-1,1644,1590,7.19817,-8.25149
427,-566,16.6625,31.3833,0,0,0,0,0,0,0,-1,1651,1590,16.6625,-31.3833
434,-566,17.2347,31.3944,0,0,0,0,0,0,0,-1,1658,1590,17.2347,-31.3944
441,-566,15.5841,27.5869,0,0,0,0,0,0,0,-1,1665,1590,15.5842,-27.587
448,-566,16.7217,30.4032,0,0,0,0,0,0,0,-1,1672,1590,16.7217,-30.4032
455,-566,16.3831,29.5522,0,0,0,0,0,0,0,-1,1679,1590,16.3831,-29.5522
462,-566,16.448,28.9496,0.007334,0.0157633,-0.00725358,0.0199378,0.0031595,-1.04858,0.0123739,0.0393412,1686,1590,16.448,-28.9496
469,-566,16.5686,28.1718,0.00653605,0.0133688,-0.00626299,0.0170866,0.00281824,-1.03508,0.0105776,0.016929,1693,1590,16.5686,-28.1717
476,-566,16.6333,27.6429,0.00573825,0.0107593,-0.00549536,0.0142904,0.0022071,-0.999663,0.00888312,0.00999282,1700,1590,16.6333,-27.6429
483,-566,16.6343,27.1595,0.00516943,0.00848628,-0.00468568,0.0117984,0.00185735,-0.955486,0.00732537,0.0103705,1707,1590,16.6343,-27.1595
490,-566,16.6268,26.6713,0.00428978,0.00595497,-0.00386395,0.00907501,0.00116975,-0.891515,0.00570024,0.0113915,1714,1590,16.6268,-26.6713
497,-566,16.6796,26.1942,0.00326988,0.00400099,-0.00276224,0.00642175,0.00084911,-0.851186,0.00402807,0.0147288,1721,1590,16.6796,-26.1942
504,-566,16.6556,25.7319,0.00222032,0.00210612,-0.00169517,0.00385935,0.000467088,-0.768563,0.0024322,0.0199618,1728,1590,16.6557,-25.732
511,-566,16.6335,25.2471,0.00112005,0.000382782,-0.000526212,0.00139391,0.000108929,-0.479852,0.000895173,0.0199387,1735,1590,16.6336,-25.2471
518,-566,16.6188,24.7495,2.92832e-05,-0.00129459,0.00065383,0.000297752,-0.00156306,0.389618,0.00115417,0.0118456,1742,1590,16.6187,-24.7495
525,-566,16.5803,24.2372,-0.00100343,-0.00292335,0.00188889,0.000155437,-0.00408221,0.5503,0.00277474,0.0112324,1749,1590,16.5803,-24.2371
532,-566,16.5452,23.7394,-0.00195989,-0.00461361,0.00326413,0.000236754,-0.00681025,0.592351,0.00462111,0.0139386,1756,1590,16.5452,-23.7394
539,-566,16.5153,23.228,-0.00294552,-0.00644624,0.00489472,0.000502391,-0.00989415,0.613683,0.00676978,0.0183947,1763,1590,16.5152,-23.228
546,-566,16.5488,22.6653,-0.0040188,-0.00855351,0.00690874,0.000985128,-0.0135574,0.626843,0.00938392,0.0206918,1770,1590,16.5488,-22.6653
553,-566,16.5907,22.3447,-0.00499265,-0.0107098,0.0091741,0.00175793,-0.0174603,0.634371,0.0122683,0.0326091,1777,1590,16.5907,-22.3448
560,-566,16.3685,22.1223,-0.00599022,-0.0129785,0.0116726,0.00270001,-0.0216687,0.63997,0.0154248,0.0393826,1784,1590,16.3686,-22.1223
567,-566,16.283,21.8274,0,0,0,0,0,0,0,-1,1791,1590,16.283,-21.8273
574,-566,7.99548,3.14514,0,0,0,0,0,0,0,-1,1798,1590,7.99543,-3.14511
581,-566,2.54102,5.1311,0,0,0,0,0,0,0,-1,1805,1590,2.54099,-5.13111
588,-566,-1.91321,8.39197,0,0,0,0,0,0,0,-1,1812,1590,-1.91316,-8.39199
595,-566,9.0271,4.66467,0,0,0,0,0,0,0,-1,1819,1590,9.02705,-4.66468
602,-566,9.953,3.54895,0,0,0,0,0,0,0,-1,1826,1590,9.953,-3.54898
609,-566,0,0,0,0,0,0,0,0,0,-1,1833,1590,0,0
616,-566,0,0,0,0,0,0,0,0,0,-1,1840,1590,0,0
623,-566,0,0,0,0,0,0,0,0,0,-1,1847,1590,0,0
630,-566,0,0,0,0,0,0,0,0,0,-1,1854,1590,0,0
637,-566,0,0,0,0,0,0,0,0,0,-1,1861,1590,0,0
644,-566,0,0,0,0,0,0,0,0,0,-1,1868,1590,0,0
651,-566,0,0,0,0,0,0,0,0,0,-1,1875,1590,0,0
658,-566,0,0,0,0,0,0,0,0,0,-1,1882,1590,0,0
665,-566,0,0,0,0,0,0,0,0,0,-1,1889,1590,0,0
672,-566,0,0,0,0,0,0,0,0,0,-1,1896,1590,0,0
679,-566,0,0,0,0,0,0,0,0,0,-1,1903,1590,0,0
686,-566,0,0,0,0,0,0,0,0,0,-1,1910,1590,0,0
693,-566,0,0,0,0,0,0,0,0,0,-1,1917,1590,0,0
700,-566,0,0,0,0,0,0,0,0,0,-1,1924,1590,0,0
707,-566,0,0,0,0,0,0,0,0,0,-1,1931,1590,0,0
714,-566,0,0,0,0,0,0,0,0,0,-1,1938,1590,0,0
721,-566,0,0,0,0,0,0,0,0,0,-1,1945,1590,0,0
728,-566,0,0,0,0,0,0,0,0,0,-1,1952,1590,0,0
735,-566,0,0,0,0,0,0,0,0,0,-1,1959,1590,0,0
742,-566,0,0,0,0,0,0,0,0,0,-1,1966,1590,0,0
749,-566,0,0,0,0,0,0,0,0,0,-1,1973,1590,0,0
756,-566,0,0,0,0,0,0,0,0,0,-1,1980,1590,0,0
763,-566,0,0,0,0,0,0,0,0,0,-1,1987,1590,0,0
770,-566,0,0,0,0,0,0,0,0,0,-1,1994,1590,0,0
777,-566,0,0,0,0,0,0,0,0,0,-1,2001,1590,0,0
784,-566,0,0,0,0,0,0,0,0,0,-1,2008,1590,0,0
791,-566,0,0,0,0,0,0,0,0,0,-1,2015,1590,0,0
798,-566,0,0,0,0,0,0,0,0,0,-1,2022,1590,0,0
805,-566,0,0,0,0,0,0,0,0,0,-1,2029,1590,0,0
812,-566,0,0,0,0,0,0,0,0,0,-1,2036,1590,0,0
-700,-573,0,0,0,0,0,0,0,0,0,-1,524,1597,0,0
-693,-573,0,0,0,0,0,0,0,0,0,-1,531,1597,0,0
-686,-573,0,0,0,0,0,0,0,0,0,-1,538,1597,0,0
-679,-573,0,0,0,0,0,0,0,0,0,-1,545,1597,0,0
-672,-573,0,0,0,0,0,0,0,0,0,-1,552,1597,0,0
-665,-573,0,0,0,0,0,0,0,0,0,-1,559,1597,0,0
-658,-573,0,0,0,0,0,0,0,0,0,-1,566,1597,0,0
-651,-573,0,0,0,0,0,0,0,0,0,-1,573,1597,0,0
-644,-573,0,0,0,0,0,0,0,0,0,-1,580,1597,0,0
-637,-573,0,0,0,0,0,0,0,0,0,-1,587,1597,0,0
-630,-573,0,0,0,0,0,0,0,0,0,-1,594,1597,0,0
-623,-573,0,0,0,0,0,0,0,0,0,-1,601,1597,0,0
-616,-573,0,0,0,0,0,0,0,0,0,-1,608,1597,0,0
-609,-573,0,0,0,0,0,0,0,0,0,-1,615,1597,0,0
-602,-573,0,0,0,0,0,0,0,0,0,-1,622,1597,0,0
-595,-573,0,0,0,0,0,0,0,0,0,-1,629,1597,0,0
-588,-573,0,0,0,0,0,0,0,0,0,-1,636,1597,0,0
-581,-573,0,0,0,0,0,0,0,0,0,-1,643,1597,0,0
-574,-573,0,0,0,0,0,0,0,0,0,-1,650,1597,0,0
-567,-573,0,0,0,0,0,0,0,0,0,-1,657,1597,0,0
-560,-573,0,0,0,0,0,0,0,0,0,-1,664,1597,0,0
-553,-573,0,0,0,0,0,0,0,0,0,-1,671,1597,0,0
-546,-573,0,0,0,0,0,0,0,0,0,-1,678,1597,0,0
-539,-573,0,0,0,0,0,0,0,0,0,-1,685,1597,0,0
-532,-573,0,0,0,0,0,0,0,0,0,-1,692,1597,0,0
-525,-573,0,0,0,0,0,0,0,0,0,-1,699,1597,0,0
-518,-573,0,0,0,0,0,0,0,0,0,-1,706,1597,0,0
-511,-573,0,0,0,0,0,0,0,0,0,-1,713,1597,0,0
-504,-573,0,0,0,0,0,0,0,0,0,-1,720,1597,0,0
-497,-573,0,0,0,0,0,0,0,0,0,-1,727,1597,0,0
-490,-573,0,0,0,0,0,0,0,0,0,-1,734,1597,0,0
-483,-573,0,0,0,0,0,0,0,0,0,-1,741,1597,0,0
-476,-573,-9.3327,0.972778,0,0,0,0,0,0,0,-1,748,1597,-9.33268,-0.972776
-469,-573,-1.41681,1.13379,0,0,0,0,0,0,0,-1,755,1597,-1.41681,-1.13382
-462,-573,-0.748535,2.02588,0,0,0,0,0,0,0,-1,762,1597,-0.748533,-2.02584
-455,-573,-0.112976,2.70703,0,0,0,0,0,0,0,-1,769,1597,-0.112988,-2.70697
-448,-573,-1.26172,3.33252,0,0,0,0,0,0,0,-1,776,1597,-1.26173,-3.33248
-441,-573,0.108582,5.06726,0,0,0,0,0,0,0,-1,783,1597,0.108584,-5.06721
-434,-573,1.61768,7.05444,0,0,0,0,0,0,0,-1,790,1597,1.61767,-7.05446
-427,-573,-0.326965,19.8281,0,0,0,0,0,0,0,-1,797,1597,-0.326965,-19.8281
-420,-573,0.798462,20.0208,0,0,0,0,0,0,0,-1,804,1597,0.798473,-20.0208
-413,-573,0.15802,21.3928,0,0,0,0,0,0,0,-1,811,1597,0.158001,-21.3928
-406,-573,0.257935,22.1118,-0.00779242,0.00237708,-0.000168153,0.00237986,-0.0077952,-1.55427,0.00614565,0.0331186,818,1597,0.25792,-22.1118
-399,-573,0.213745,22.749,-0.00650426,0.000631885,-0.000125592,0.000634095,-0.00650647,-1.5532,0.00456372,0.0140852,825,1597,0.213732,-22.7491
-392,-573,0.205811,23.2968,-0.00520603,6.82071e-05,0.000107968,7.04166e-05,-0.00520824,1.55034,0.00349587,0.0122902,832,1597,0.205822,-23.2967
-385,-573,0.185181,23.8369,-0.00392995,0.000307197,0.000211784,0.000317757,-0.0039405,1.52098,0.00273907,0.0145319,839,1597,0.185192,-23.837
-378,-573,0.16803,24.3724,-0.00282111,0.000734133,0.000275734,0.000755391,-0.00284236,1.49385,0.00219056,0.0162282,846,1597,0.16802,-24.3725
-371,-573,0.131165,24.9161,-0.00181744,0.00111499,0.000241288,0.00113472,-0.00183716,1.48924,0.00173172,0.0167329,853,1597,0.131169,-24.9162
-364,-573,0.107788,25.4102,-0.000817431,0.00178001,0.000276486,0.00180911,-0.000846536,1.46592,0.00156645,0.0183797,860,1597,0.107787,-25.4102
-357,-573,0.0947266,25.892,0.000149266,0.00261285,0.000330234,0.00265635,0.000105767,1.43983,0.00173672,0.022092,867,1597,0.094709,-25.892
-350,-573,0.108582,26.4402,0.00117708,0.00349561,0.000459232,0.00358325,0.00108944,1.38221,0.0021211,0.0176787,874,1597,0.108606,-26.4401
-343,-573,0.150208,26.9496,0.00221006,0.0046048,0.00073732,0.00481361,0.00200125,1.29482,0.00279226,0.0212208,881,1597,0.150192,-26.9495
-336,-573,0.0792236,27.4688,0.00322857,0.00573488,0.00108056,0.00613642,0.00282704,1.21501,0.00354651,0.0175217,888,1597,0.0792201,-27.4688
-329,-573,0.0653076,27.9429,0.00426874,0.0069799,0.00163994,0.00775199,0.00349665,1.13078,0.00448275,0.0185533,895,1597,0.0652805,-27.9429
-322,-573,0.055603,28.473,0.00550423,0.00843549,0.00259426,0.0099495,0.00399021,1.04252,0.00578172,0.0162281,902,1597,0.0556077,-28.473
-315,-573,0.1875,29.1681,0.0070104,0.0105862,0.0039675,0.01315,0.00444656,0.997089,0.00772364,0.0367989,909,1597,0.187485,-29.1681
-308,-573,0.486633,29.912,0,0,0,0,0,0,0,-1,916,1597,0.486624,-29.9119
-301,-573,0.39679,30.2545,0,0,0,0,0,0,0,-1,923,1597,0.396798,-30.2546
-294,-573,1.00702,24.802,0,0,0,0,0,0,0,-1,930,1597,1.00701,-24.802
-287,-573,1.27222,30.7164,0,0,0,0,0,0,0,-1,937,1597,1.27222,-30.7164
-280,-573,1.19684,26.4906,0,0,0,0,0,0,0,-1,944,1597,1.19685,-26.4906
-273,-573,2.24805,25.4375,0,0,0,0,0,0,0,-1,951,1597,2.24803,-25.4374
-266,-573,1.31116,7.1814,0,0,0,0,0,0,0,-1,958,1597,1.31118,-7.18142
-259,-573,1.2514,6.70959,0,0,0,0,0,0,0,-1,965,1597,1.25137,-6.70965
-252,-573,2.07874,5.27161,0,0,0,0,0,0,0,-1,972,1597,2.07875,-5.27157
-245,-573,-10.2592,1.09827,0,0,0,0,0,0,0,-1,979,1597,-10.2592,-1.09823
-238,-573,-11.5463,4.44141,0,0,0,0,0,0,0,-1,986,1597,-11.5463,-4.44146
-231,-573,-9.23431,4.14539,0,0,0,0,0,0,0,-1,993,1597,-9.23431,-4.14534
-224,-573,-6.70044,7.40857,0,0,0,0,0,0,0,-1,1000,1597,-6.70045,-7.40851
-217,-573,-4.25824,8.59119,0,0,0,0,0,0,0,-1,1007,1597,-4.25824,-8.59122
-210,-573,-2.39661,9.73914,0,0,0,0,0,0,0,-1,1014,1597,-2.39658,-9.73915
-203,-573,-0.557373,10.9005,0,0,0,0,0,0,0,-1,1021,1597,-0.557387,-10.9006
-196,-573,-1.65344,9.02246,0,0,0,0,0,0,0,-1,1028,1597,-1.65349,-9.02241
-189,-573,-6.12915,6.66882,0,0,0,0,0,0,0,-1,1035,1597,-6.12913,-6.66884
-182,-573,0,0,0,0,0,0,0,0,0,-1,1042,1597,0,0
-175,-573,0,0,0,0,0,0,0,0,0,-1,1049,1597,0,0
-168,-573,0,0,0,0,0,0,0,0,0,-1,1056,1597,0,0
-161,-573,0,0,0,0,0,0,0,0,0,-1,1063,1597,0,0
-154,-573,0,0,0,0,0,0,0,0,0,-1,1070,1597,0,0
-147,-573,0,0,0,0,0,0,0,0,0,-1,1077,1597,0,0
-140,-573,0,0,0,0,0,0,0,0,0,-1,1084,1597,0,0
-133,-573,0,0,0,0,0,0,0,0,0,-1,1091,1597,0,0
-126,-573,0,0,0,0,0,0,0,0,0,-1,1098,1597,0,0
-119,-573,0,0,0,0,0,0,0,0,0,-1,1105,1597,0,0
-112,-573,0,0,0,0,0,0,0,0,0,-1,1112,1597,0,0
-105,-573,0,0,0,0,0,0,0,0,0,-1,1119,1597,0,0
-98,-573,0,0,0,0,0,0,0,0,0,-1,1126,1597,0,0
-91,-573,0,0,0,0,0,0,0,0,0,-1,1133,1597,0,0
-84,-573,0,0,0,0,0,0,0,0,0,-1,1140,1597,0,0
-77,-573,0,0,0,0,0,0,0,0,0,-1,1147,1597,0,0
-70,-573,0,0,0,0,0,0,0,0,0,-1,1154,1597,0,0
-63,-573,0,0,0,0,0,0,0,0,0,-1,1161,1597,0,0
-56,-573,0,0,0,0,0,0,0,0,0,-1,1168,1597,0,0
-49,-573,0,0,0,0,0,0,0,0,0,-1,1175,1597,0,0
-42,-573,0,0,0,0,0,0,0,0,0,-1,1182,1597,0,0
-35,-573,0,0,0,0,0,0,0,0,0,-1,1189,1597,0,0
-28,-573,0,0,0,0,0,0,0,0,0,-1,1196,1597,0,0
-21,-573,0,0,0,0,0,0,0,0,0,-1,1203,1597,0,0
-14,-573,0,0,0,0,0,0,0,0,0,-1,1210,1597,0,0
-7,-573,0,0,0,0,0,0,0,0,0,-1,1217,1597,0,0
0,-573,0,0,0,0,0,0,0,0,0,-1,1224,1597,0,0
7,-573,0,0,0,0,0,0,0,0,0,-1,1231,1597,0,0
14,-573,0,0,0,0,0,0,0,0,0,-1,1238,1597,0,0
21,-573,0,0,0,0,0,0,0,0,0,-1,1245,1597,0,0
28,-573,0,0,0,0,0,0,0,0,0,-1,1252,1597,0,0
35,-573,0,0,0,0,0,0,0,0,0,-1,1259,1597,0,0
42,-573,0,0,0,0,0,0,0,0,0,-1,1266,1597,0,0
49,-573,0,0,0,0,0,0,0,0,0,-1,1273,1597,0,0
56,-573,0,0,0,0,0,0,0,0,0,-1,1280,1597,0,0
63,-573,0,0,0,0,0,0,0,0,0,-1,1287,1597,0,0
70,-573,0,0,0,0,0,0,0,0,0,-1,1294,1597,0,0
77,-573,0,0,0,0,0,0,0,0,0,-1,1301,1597,0,0
84,-573,0,0,0,0,0,0,0,0,0,-1,1308,1597,0,0
91,-573,0,0,0,0,0,0,0,0,0,-1,1315,1597,0,0
98,-573,0,0,0,0,0,0,0,0,0,-1,1322,1597,0,0
105,-573,0,0,0,0,0,0,0,0,0,-1,1329,1597,0,0
112,-573,0,0,0,0,0,0,0,0,0,-1,1336,1597,0,0
119,-573,0,0,0,0,0,0,0,0,0,-1,1343,1597,0,0
126,-573,0,0,0,0,0,0,0,0,0,-1,1350,1597,0,0
133,-573,0,0,0,0,0,0,0,0,0,-1,1357,1597,0,0
140,-573,0,0,0,0,0,0,0,0,0,-1,1364,1597,0,0
147,-573,0,0,0,0,0,0,0,0,0,-1,1371,1597,0,0
154,-573,0,0,0,0,0,0,0,0,0,-1,1378,1597,0,0
161,-573,0,0,0,0,0,0,0,0,0,-1,1385,1597,0,0
168,-573,0,0,0,0,0,0,0,0,0,-1,1392,1597,0,0
175,-573,0,0,0,0,0,0,0,0,0,-1,1399,1597,0,0
182,-573,0,0,0,0,0,0,0,0,0,-1,1406,1597,0,0
189,-573,0,0,0,0,0,0,0,0,0,-1,1413,1597,0,0
196,-573,0,0,0,0,0,0,0,0,0,-1,1420,1597,0,0
203,-573,0,0,0,0,0,0,0,0,0,-1,1427,1597,0,0
210,-573,0,0,0,0,0,0,0,0,0,-1,1434,1597,0,0
217,-573,0,0,0,0,0,0,0,0,0,-1,1441,1597,0,0
224,-573,0,0,0,0,0,0,0,0,0,-1,1448,1597,0,0
231,-573,0,0,0,0,0,0,0,0,0,-1,1455,1597,0,0
238,-573,0,0,0,0,0,0,0,0,0,-1,1462,1597,0,0
245,-573,0,0,0,0,0,0,0,0,0,-1,1469,1597,0,0
252,-573,0,0,0,0,0,0,0,0,0,-1,1476,1597,0,0
259,-573,0,0,0,0,0,0,0,0,0,-1,1483,1597,0,0
266,-573,0,0,0,0,0,0,0,0,0,-1,1490,1597,0,0
273,-573,0,0,0,0,0,0,0,0,0,-1,1497,1597,0,0
280,-573,0,0,0,0,0,0,0,0,0,-1,1504,1597,0,0
287,-573,0,0,0,0,0,0,0,0,0,-1,1511,1597,0,0
294,-573,0,0,0,0,0,0,0,0,0,-1,1518,1597,0,0
301,-573,0,0,0,0,0,0,0,0,0,-1,1525,1597,0,0
308,-573,5.93042,9.71143,0,0,0,0,0,0,0,-1,1532,1597,5.93046,-9.71144
315,-573,4.34204,11.719,0,0,0,0,0,0,0,-1,1539,1597,4.34205,-11.719
322,-573,10.3269,7.77563,0,0,0,0,0,0,0,-1,1546,1597,10.327,-7.77565
329,-573,4.99573,3.80273,0,0,0,0,0,0,0,-1,1553,1597,4.9957,-3.80273
336,-573,4.85693,2.53455,0,0,0,0,0,0,0,-1,1560,1597,4.8569,-2.53459
343,-573,5.5946,2.15894,0,0,0,0,0,0,0,-1,1567,1597,5.59456,-2.1589
350,-573,2.53748,1.56433,0,0,0,0,0,0,0,-1,1574,1597,2.53753,-1.5643
357,-573,7.40247,4.03613,0,0,0,0,0,0,0,-1,1581,1597,7.40244,-4.03614
364,-573,7.14551,3.02087,0,0,0,0,0,0,0,-1,1588,1597,7.14556,-3.02084
371,-573,6.88867,2.00549,0,0,0,0,0,0,0,-1,1595,1597,6.88868,-2.00553
378,-573,8.62012,6.09106,0,0,0,0,0,0,0,-1,1602,1597,8.62012,-6.09103
385,-573,6.54346,-0.951904,0,0,0,0,0,0,0,-1,1609,1597,6.54349,0.951901
392,-573,14.558,33.3009,0,0,0,0,0,0,0,-1,1616,1597,14.558,-33.3009
399,-573,13.819,32.2833,0,0,0,0,0,0,0,-1,1623,1597,13.8189,-32.2833
406,-573,13.7181,31.6494,0,0,0,0,0,0,0,-1,1630,1597,13.7182,-31.6494
413,-573,8.90552,13.1737,0,0,0,0,0,0,0,-1,1637,1597,8.90553,-13.1737
420,-573,16.5,31.3271,0,0,0,0,0,0,0,-1,1644,1597,16.5,-31.3272
427,-573,16.3209,31.1658,0.00671426,0.0196461,-0.00941468,0.0246014,0.00175896,-1.0863,0.0158472,0.0470755,1651,1597,16.3209,-31.1658
434,-573,16.4628,30.9843,0.00617108,0.0177843,-0.00854106,0.0223057,0.00164976,-1.08394,0.0143522,0.0476439,1658,1597,16.4628,-30.9842
441,-573,15.9988,30.559,0,0,0,0,0,0,0,-1,1665,1597,15.9988,-30.5589
448,-573,16.1084,29.8979,0.00647638,0.0152897,-0.00703759,0.0191864,0.00257965,-1.06511,0.0120237,0.0455883,1672,1597,16.1083,-29.898
455,-573,16.0933,29.2388,0.00601519,0.0138374,-0.00651285,0.0175232,0.00232932,-1.0558,0.0109883,0.0334737,1679,1597,16.0933,-29.2387
462,-573,16.1582,28.5884,0.00548337,0.0123653,-0.00560555,0.0155018,0.00234692,-1.06067,0.00964783,0.0221749,1686,1597,16.1582,-28.5884
469,-573,16.1747,28.0977,0.00486435,0.0104065,-0.00480719,0.0131841,0.00208673,-1.04686,0.008183,0.0154057,1693,1597,16.1747,-28.0976
476,-573,16.1791,27.6223,0.00418342,0.00823198,-0.00416435,0.010838,0.00157742,-1.01163,0.00676114,0.0135378,1700,1597,16.1791,-27.6223
483,-573,16.189,27.1599,0.00369346,0.00621466,-0.00349284,0.00866742,0.0012407,-0.958578,0.00541232,0.0120912,1707,1597,16.189,-27.16
490,-573,16.1617,26.6765,0.00296514,0.00399962,-0.00279114,0.00632105,0.000643721,-0.877016,0.00401669,0.0123224,1714,1597,16.1618,-26.6765
497,-573,16.1672,26.17,0.00207223,0.00226968,-0.00185966,0.00403323,0.000308674,-0.811917,0.00259207,0.019279,1721,1597,16.1672,-26.17
504,-573,16.1433,25.7039,0.00109779,0.000529748,-0.000846271,0.00170643,-7.88911e-05,-0.623496,0.00116481,0.0191523,1728,1597,16.1434,-25.7039
511,-573,16.1305,25.2153,5.67323e-05,-0.00115175,0.000326893,0.000139489,-0.00123451,0.247952,0.000873225,0.0177383,1735,1597,16.1304,-25.2153
518,-573,16.0944,24.7556,-0.000955297,-0.00275531,0.00148,-0.00012313,-0.00358748,0.512217,0.00235168,0.0130887,1742,1597,16.0943,-24.7556
525,-573,16.0791,24.2819,-0.00193215,-0.00439169,0.0027528,-0.000146911,-0.00617692,0.575331,0.00406986,0.0160039,1749,1597,16.0791,-24.2819
532,-573,16.0674,23.7562,-0.00290421,-0.00622621,0.00429149,3.65032e-05,-0.00916693,0.600754,0.00612349,0.0153105,1756,1597,16.0673,-23.7563
539,-573,16.0264,23.2413,-0.00400416,-0.00835589,0.00623892,0.000427431,-0.0127875,0.617615,0.00867097,0.0219384,1763,1597,16.0264,-23.2414
546,-573,16.0895,22.8123,-0.00522235,-0.0108962,0.0087018,0.00109328,-0.0172119,0.627822,0.0118558,0.0379859,1770,1597,16.0895,-22.8123
553,-573,15.7119,22.6188,-0.00640359,-0.0136166,0.011594,0.00213186,-0.022152,0.634609,0.0155275,0.0452701,1777,1597,15.7119,-22.6188
560,-573,15.6168,22.3568,-0.0078033,-0.016743,0.014996,0.00337482,-0.0279211,0.640556,0.0198349,0.0450956,1784,1597,15.6169,-22.3568
567,-573,15.4775,22.1246,0,0,0,0,0,0,0,-1,1791,1597,15.4776,-22.1246
574,-573,0.83374,5.7041,0,0,0,0,0,0,0,-1,1798,1597,0.833718,-5.70405
581,-573,-0.224854,7.41602,0,0,0,0,0,0,0,-1,1805,1597,-0.224904,-7.41596
588,-573,-0.134033,7.67065,0,0,0,0,0,0,0,-1,1812,1597,-0.134037,-7.67063
595,-573,-0.0825195,8.35083,0,0,0,0,0,0,0,-1,1819,1597,-0.0824684,-8.35088
602,-573,0,0,0,0,0,0,0,0,0,-1,1826,1597,0,0
609,-573,0,0,0,0,0,0,0,0,0,-1,1833,1597,0,0
616,-573,0,0,0,0,0,0,0,0,0,-1,1840,1597,0,0
623,-573,0,0,0,0,0,0,0,0,0,-1,1847,1597,0,0
630,-573,0,0,0,0,0,0,0,0,0,-1,1854,1597,0,0
637,-573,0,0,0,0,0,0,0,0,0,-1,1861,1597,0,0
644,-573,0,0,0,0,0,0,0,0,0,-1,1868,1597,0,0
651,-573,0,0,0,0,0,0,0,0,0,-1,1875,1597,0,0
658,-573,0,0,0,0,0,0,0,0,0,-1,1882,1597,0,0
665,-573,0,0,0,0,0,0,0,0,0,-1,1889,1597,0,0
672,-573,0,0,0,0,0,0,0,0,0,-1,1896,1597,0,0
679,-573,0,0,0,0,0,0,0,0,0,-1,1903,1597,0,0
686,-573,0,0,0,0,0,0,0,0,0,-1,1910,1597,0,0
693,-573,0,0,0,0,0,0,0,0,0,-1,1917,1597,0,0
700,-573,0,0,0,0,0,0,0,0,0,-1,1924,1597,0,0
707,-573,0,0,0,0,0,0,0,0,0,-1,1931,1597,0,0
714,-573,0,0,0,0,0,0,0,0,0,-1,1938,1597,0,0
721,-573,0,0,0,0,0,0,0,0,0,-1,1945,1597,0,0
728,-573,0,0,0,0,0,0,0,0,0,-1,1952,1597,0,0
735,-573,0,0,0,0,0,0,0,0,0,-1,1959,1597,0,0
742,-573,0,0,0,0,0,0,0,0,0,-1,1966,1597,0,0
749,-573,0,0,0,0,0,0,0,0,0,-1,1973,1597,0,0
756,-573,0,0,0,0,0,0,0,0,0,-1,1980,1597,0,0
763,-573,0,0,0,0,0,0,0,0,0,-1,1987,1597,0,0
770,-573,0,0,0,0,0,0,0,0,0,-1,1994,1597,0,0
777,-573,0,0,0,0,0,0,0,0,0,-1,2001,1597,0,0
784,-573,0,0,0,0,0,0,0,0,0,-1,2008,1597,0,0
791,-573,0,0,0,0,0,0,0,0,0,-1,2015,1597,0,0
798,-573,0,0,0,0,0,0,0,0,0,-1,2022,1597,0,0
805,-573,0,0,0,0,0,0,0,0,0,-1,2029,1597,0,0
812,-573,0,0,0,0,0,0,0,0,0,-1,2036,1597,0,0
-700,-580,0,0,0,0,0,0,0,0,0,-1,524,1604,0,0
-693,-580,0,0,0,0,0,0,0,0,0,-1,531,1604,0,0
-686,-580,0,0,0,0,0,0,0,0,0,-1,538,1604,0,0
-679,-580,0,0,0,0,0,0,0,0,0,-1,545,1604,0,0
-672,-580,0,0,0,0,0,0,0,0,0,-1,552,1604,0,0
-665,-580,0,0,0,0,0,0,0,0,0,-1,559,1604,0,0
-658,-580,0,0,0,0,0,0,0,0,0,-1,566,1604,0,0
-651,-580,0,0,0,0,0,0,0,0,0,-1,573,1604,0,0
-644,-580,0,0,0,0,0,0,0,0,0,-1,580,1604,0,0
-637,-580,0,0,0,0,0,0,0,0,0,-1,587,1604,0,0
-630,-580,0,0,0,0,0,0,0,0,0,-1,594,1604,0,0
-623,-580,0,0,0,0,0,0,0,0,0,-1,601,1604,0,0
-616,-580,0,0,0,0,0,0,0,0,0,-1,608,1604,0,0
-609,-580,0,0,0,0,0,0,0,0,0,-1,615,1604,0,0
-602,-580,0,0,0,0,0,0,0,0,0,-1,622,1604,0,0
-595,-580,0,0,0,0,0,0,0,0,0,-1,629,1604,0,0
-588,-580,0,0,0,0,0,0,0,0,0,-1,636,1604,0,0
-581,-580,0,0,0,0,0,0,0,0,0,-1,643,1604,0,0
-574,-580,0,0,0,0,0,0,0,0,0,-1,650,1604,0,0
-567,-580,0,0,0,0,0,0,0,0,0,-1,657,1604,0,0
-560,-580,0,0,0,0,0,0,0,0,0,-1,664,1604,0,0
-553,-580,0,0,0,0,0,0,0,0,0,-1,671,1604,0,0
-546,-580,0,0,0,0,0,0,0,0,0,-1,678,1604,0,0
-539,-580,0,0,0,0,0,0,0,0,0,-1,685,1604,0,0
-532,-580,0,0,0,0,0,0,0,0,0,-1,692,1604,0,0
-525,-580,0,0,0,0,0,0,0,0,0,-1,699,1604,0,0
-518,-580,0,0,0,0,0,0,0,0,0,-1,706,1604,0,0
-511,-580,0,0,0,0,0,0,0,0,0,-1,713,1604,0,0
-504,-580,0,0,0,0,0,0,0,0,0,-1,720,1604,0,0
-497,-580,0,0,0,0,0,0,0,0,0,-1,727,1604,0,0
-490,-580,0,0,0,0,0,0,0,0,0,-1,734,1604,0,0
-483,-580,0,0,0,0,0,0,0,0,0,-1,741,1604,0,0
-476,-580,0,0,0,0,0,0,0,0,0,-1,748,1604,0,0
-469,-580,-1.69189,-0.38916,0,0,0,0,0,0,0,-1,755,1604,-1.69192,0.389188
-462,-580,-0.859863,0.675293,0,0,0,0,0,0,0,-1,762,1604,-0.859834,-0.675245
-455,-580,-0.730164,0.651978,0,0,0,0,0,0,0,-1,769,1604,-0.730153,-0.651957
-448,-580,-3.31891,2.07544,0,0,0,0,0,0,0,-1,776,1604,-3.3189,-2.07539
-441,-580,-1.63843,3.9469,0,0,0,0,0,0,0,-1,783,1604,-1.63842,-3.94695
-434,-580,0.23291,5.97876,0,0,0,0,0,0,0,-1,790,1604,0.232901,-5.97878
-427,-580,1.62756,8.05493,0,0,0,0,0,0,0,-1,797,1604,1.62758,-8.05488
-420,-580,0.986572,11.2383,0,0,0,0,0,0,0,-1,804,1604,0.986544,-11.2382
-413,-580,0.953796,21.127,0,0,0,0,0,0,0,-1,811,1604,0.953818,-21.1269
-406,-580,0.783508,22.0632,0,0,0,0,0,0,0,-1,818,1604,0.783522,-22.0633
-399,-580,0.755615,22.7661,-0.00915093,0.00083066,-0.000187409,0.000834178,-0.00915445,-1.55203,0.00639917,0.0334135,825,1604,0.755625,-22.7661
-392,-580,0.728455,23.3245,-0.00739264,-8.55305e-05,9.58022e-05,-8.42744e-05,-0.00739389,1.55769,0.00490141,0.0163056,832,1604,0.728438,-23.3244
-385,-580,0.711548,23.8647,-0.00576035,-4.63046e-05,0.000249567,-3.54252e-05,-0.00577123,1.52723,0.00383573,0.0116104,839,1604,0.711527,-23.8647
-378,-580,0.703857,24.3938,-0.00434212,0.000205569,0.000342644,0.000231241,-0.00436779,1.49601,0.00299192,0.014872,846,1604,0.703854,-24.3938
-371,-580,0.662048,24.9341,-0.00308513,0.000385202,0.000309706,0.000412625,-0.00311255,1.48248,0.00222536,0.0141967,853,1604,0.66204,-24.934
-364,-580,0.632263,25.4388,-0.00187612,0.000814272,0.00034364,0.000857471,-0.00191932,1.44574,0.00164179,0.0196263,860,1604,0.632244,-25.4389
-357,-580,0.622681,25.9163,-0.000744159,0.00142058,0.000404771,0.00149379,-0.000817369,1.39186,0.00135326,0.0136836,867,1604,0.622694,-25.9162
-350,-580,0.616211,26.4545,0.000387204,0.0020794,0.000526462,0.00222982,0.000236786,1.2925,0.00141424,0.0106235,874,1604,0.616203,-26.4545
-343,-580,0.636719,26.9745,0.00146453,0.00296582,0.000776806,0.00329541,0.00113494,1.16953,0.00193307,0.0115621,881,1604,0.636691,-26.9744
-336,-580,0.624146,27.4415,0.00254879,0.00385121,0.00107864,0.00445998,0.00194002,1.05698,0.00258221,0.0205251,888,1604,0.624151,-27.4415
-329,-580,0.585022,27.9651,0.0035841,0.00487287,0.00156149,0.00591771,0.00253926,0.981091,0.00342802,0.0186082,895,1604,0.585015,-27.9651
-322,-580,0.560669,28.4657,0.0046782,0.00610009,0.00234539,0.00783992,0.00293837,0.932559,0.00457344,0.0209439,902,1604,0.560674,-28.4657
-315,-580,0.590942,28.9862,0.00594661,0.00789818,0.00346723,0.0105243,0.00332047,0.922565,0.00621257,0.0221304,909,1604,0.590962,-28.9862
-308,-580,0.668518,29.6024,0.00745965,0.00940208,0.00461498,0.0131469,0.00371479,0.889109,0.00782598,0.0315798,916,1604,0.66851,-29.6024
-301,-580,0.771973,29.9829,0.00965933,0.0113762,0.00639483,0.01697,0.00406557,0.852119,0.010231,0.0293237,923,1604,0.771951,-29.9829
-294,-580,0.733521,30.5112,0,0,0,0,0,0,0,-1,930,1604,0.733529,-30.5112
-287,-580,1.21619,30.037,0,0,0,0,0,0,0,-1,937,1604,1.21621,-30.0369
-280,-580,1.71606,31.5383,0,0,0,0,0,0,0,-1,944,1604,1.71604,-31.5383
-273,-580,1.39575,28.6672,0,0,0,0,0,0,0,-1,951,1604,1.39577,-28.6672
-266,-580,1.71777,25.6515,0,0,0,0,0,0,0,-1,958,1604,1.71775,-25.6515
-259,-580,1.31091,9.11536,0,0,0,0,0,0,0,-1,965,1604,1.31092,-9.11539
-252,-580,1.07629,7.74097,0,0,0,0,0,0,0,-1,972,1604,1.07627,-7.74101
-245,-580,3.80304,9.16028,0,0,0,0,0,0,0,-1,979,1604,3.80306,-9.16034
-238,-580,-10.3588,1.57556,0,0,0,0,0,0,0,-1,986,1604,-10.3588,-1.5755
-231,-580,-10.576,6.43787,0,0,0,0,0,0,0,-1,993,1604,-10.576,-6.43783
-224,-580,-8.27435,7.58972,0,0,0,0,0,0,0,-1,1000,1604,-8.27435,-7.5897
-217,-580,-5.85632,9.51221,0,0,0,0,0,0,0,-1,1007,1604,-5.85632,-9.5122
-210,-580,-3.6684,11.1569,0,0,0,0,0,0,0,-1,1014,1604,-3.66839,-11.1569
-203,-580,-1.92474,12.7845,0,0,0,0,0,0,0,-1,1021,1604,-1.92477,-12.7845
-196,-580,-2.28552,10.3289,0,0,0,0,0,0,0,-1,1028,1604,-2.28552,-10.3288
-189,-580,-4.58252,7.59058,0,0,0,0,0,0,0,-1,1035,1604,-4.58256,-7.59057
-182,-580,-5.45874,7.65942,0,0,0,0,0,0,0,-1,1042,1604,-5.45876,-7.65939
-175,-580,-6.38977,7.55005,0,0,0,0,0,0,0,-1,1049,1604,-6.38981,-7.5501
-168,-580,0,0,0,0,0,0,0,0,0,-1,1056,1604,0,0
-161,-580,0,0,0,0,0,0,0,0,0,-1,1063,1604,0,0
-154,-580,0,0,0,0,0,0,0,0,0,-1,1070,1604,0,0
-147,-580,0,0,0,0,0,0,0,0,0,-1,1077,1604,0,0
-140,-580,0,0,0,0,0,0,0,0,0,-1,1084,1604,0,0
-133,-580,0,0,0,0,0,0,0,0,0,-1,1091,1604,0,0
-126,-580,0,0,0,0,0,0,0,0,0,-1,1098,1604,0,0
-119,-580,0,0,0,0,0,0,0,0,0,-1,1105,1604,0,0
-112,-580,0,0,0,0,0,0,0,0,0,-1,1112,1604,0,0
-105,-580,0,0,0,0,0,0,0,0,0,-1,1119,1604,0,0
-98,-580,0,0,0,0,0,0,0,0,0,-1,1126,1604,0,0
-91,-580,0,0,0,0,0,0,0,0,0,-1,1133,1604,0,0
-84,-580,0,0,0,0,0,0,0,0,0,-1,1140,1604,0,0
-77,-580,0,0,0,0,0,0,0,0,0,-1,1147,1604,0,0
-70,-580,0,0,0,0,0,0,0,0,0,-1,1154,1604,0,0
-63,-580,0,0,0,0,0,0,0,0,0,-1,1161,1604,0,0
-56,-580,0,0,0,0,0,0,0,0,0,-1,1168,1604,0,0
-49,-580,0,0,0,0,0,0,0,0,0,-1,1175,1604,0,0
-42,-580,0,0,0,0,0,0,0,0,0,-1,1182,1604,0,0
-35,-580,0,0,0,0,0,0,0,0,0,-1,1189,1604,0,0
-28,-580,0,0,0,0,0,0,0,0,0,-1,1196,1604,0,0
-21,-580,0,0,0,0,0,0,0,0,0,-1,1203,1604,0,0
-14,-580,0,0,0,0,0,0,0,0,0,-1,1210,1604,0,0
-7,-580,0,0,0,0,0,0,0,0,0,-1,1217,1604,0,0
0,-580,0,0,0,0,0,0,0,0,0,-1,1224,1604,0,0
7,-580,0,0,0,0,0,0,0,0,0,-1,1231,1604,0,0
14,-580,0,0,0,0,0,0,0,0,0,-1,1238,1604,0,0
21,-580,0,0,0,0,0,0,0,0,0,-1,1245,1604,0,0
28,-580,0,0,0,0,0,0,0,0,0,-1,1252,1604,0,0
35,-580,0,0,0,0,0,0,0,0,0,-1,1259,1604,0,0
42,-580,0,0,0,0,0,0,0,0,0,-1,1266,1604,0,0
49,-580,0,0,0,0,0,0,0,0,0,-1,1273,1604,0,0
56,-580,0,0,0,0,0,0,0,0,0,-1,1280,1604,0,0
63,-580,0,0,0,0,0,0,0,0,0,-1,1287,1604,0,0
70,-580,0,0,0,0,0,0,0,0,0,-1,1294,1604,0,0
77,-580,0,0,0,0,0,0,0,0,0,-1,1301,1604,0,0
84,-580,0,0,0,0,0,0,0,0,0,-1,1308,1604,0,0
91,-580,0,0,0,0,0,0,0,0,0,-1,1315,1604,0,0
98,-580,0,0,0,0,0,0,0,0,0,-1,1322,1604,0,0
105,-580,0,0,0,0,0,0,0,0,0,-1,1329,1604,0,0
112,-580,0,0,0,0,0,0,0,0,0,-1,1336,1604,0,0
119,-580,0,0,0,0,0,0,0,0,0,-1,1343,1604,0,0
126,-580,0,0,0,0,0,0,0,0,0,-1,1350,1604,0,0
133,-580,0,0,0,0,0,0,0,0,0,-1,1357,1604,0,0
140,-580,0,0,0,0,0,0,0,0,0,-1,1364,1604,0,0
147,-580,0,0,0,0,0,0,0,0,0,-1,1371,1604,0,0
154,-580,0,0,0,0,0,0,0,0,0,-1,1378,1604,0,0
161,-580,0,0,0,0,0,0,0,0,0,-1,1385,1604,0,0
168,-580,0,0,0,0,0,0,0,0,0,-1,1392,1604,0,0
175,-580,0,0,0,0,0,0,0,0,0,-1,1399,1604,0,0
182,-580,0,0,0,0,0,0,0,0,0,-1,1406,1604,0,0
189,-580,0,0,0,0,0,0,0,0,0,-1,1413,1604,0,0
196,-580,0,0,0,0,0,0,0,0,0,-1,1420,1604,0,0
203,-580,0,0,0,0,0,0,0,0,0,-1,1427,1604,0,0
210,-580,0,0,0,0,0,0,0,0,0,-1,1434,1604,0,0
217,-580,0,0,0,0,0,0,0,0,0,-1,1441,1604,0,0
224,-580,0,0,0,0,0,0,0,0,0,-1,1448,1604,0,0
231,-580,0,0,0,0,0,0,0,0,0,-1,1455,1604,0,0
238,-580,0,0,0,0,0,0,0,0,0,-1,1462,1604,0,0
245,-580,0,0,0,0,0,0,0,0,0,-1,1469,1604,0,0
252,-580,0,0,0,0,0,0,0,0,0,-1,1476,1604,0,0
259,-580,0,0,0,0,0,0,0,0,0,-1,1483,1604,0,0
266,-580,0,0,0,0,0,0,0,0,0,-1,1490,1604,0,0
273,-580,0,0,0,0,0,0,0,0,0,-1,1497,1604,0,0
280,-580,0,0,0,0,0,0,0,0,0,-1,1504,1604,0,0
287,-580,0,0,0,0,0,0,0,0,0,-1,1511,1604,0,0
294,-580,4.0437,0.177368,0,0,0,0,0,0,0,-1,1518,1604,4.04369,-0.177371
301,-580,7.55164,8.05798,0,0,0,0,0,0,0,-1,1525,1604,7.55158,-8.05802
308,-580,5.9126,9.99341,0,0,0,0,0,0,0,-1,1532,1604,5.91255,-9.99337
315,-580,4.27356,11.9287,0,0,0,0,0,0,0,-1,1539,1604,4.27352,-11.9287
322,-580,10.2366,7.50281,0,0,0,0,0,0,0,-1,1546,1604,10.2366,-7.50282
329,-580,10.5962,8.69641,0,0,0,0,0,0,0,-1,1553,1604,10.5962,-8.69642
336,-580,3.66431,1.58862,0,0,0,0,0,0,0,-1,1560,1604,3.6643,-1.58864
343,-580,3.32227,1.39636,0,0,0,0,0,0,0,-1,1567,1604,3.32222,-1.39633
350,-580,8.71277,4.0564,0,0,0,0,0,0,0,-1,1574,1604,8.71271,-4.05638
357,-580,8.52332,3.08154,0,0,0,0,0,0,0,-1,1581,1604,8.52332,-3.08157
364,-580,8.25818,2.07605,0,0,0,0,0,0,0,-1,1588,1604,8.25812,-2.07608
371,-580,7.42114,7.14282,0,0,0,0,0,0,0,-1,1595,1604,7.42119,-7.14281
378,-580,7.9718,6.6731,0,0,0,0,0,0,0,-1,1602,1604,7.9718,-6.67307
385,-580,8.52246,6.20337,0,0,0,0,0,0,0,-1,1609,1604,8.52241,-6.20334
392,-580,15.1675,33.2534,0,0,0,0,0,0,0,-1,1616,1604,15.1675,-33.2535
399,-580,14.5144,32.5269,0,0,0,0,0,0,0,-1,1623,1604,14.5144,-32.5268
406,-580,14.1705,31.894,0,0,0,0,0,0,0,-1,1630,1604,14.1705,-31.8941
413,-580,13.9116,31.2963,0,0,0,0,0,0,0,-1,1637,1604,13.9116,-31.2962
420,-580,16.2947,31.9155,0,0,0,0,0,0,0,-1,1644,1604,16.2946,-31.9156
427,-580,16.178,31.3828,0.00504107,0.0159151,-0.00734619,0.0196174,0.00133874,-1.10397,0.0126557,0.040263,1651,1604,16.178,-31.3829
434,-580,15.7771,30.8173,0.00454673,0.0139375,-0.00662936,0.0173659,0.00111839,-1.09353,0.011223,0.0339716,1658,1604,15.7771,-30.8173
441,-580,15.6008,30.0824,0.00474567,0.0124497,-0.00607788,0.0157934,0.00140194,-1.06784,0.0100941,0.0201042,1665,1604,15.6008,-30.0824
448,-580,15.6986,29.5288,0.00484321,0.0116339,-0.00540204,0.014619,0.00185808,-1.06596,0.00918947,0.0163057,1672,1604,15.6986,-29.5288
455,-580,15.7328,29.0759,0.00443685,0.0104595,-0.00497867,0.0132667,0.00162965,-1.05739,0.00835439,0.0206997,1679,1604,15.7328,-29.076
462,-580,15.6918,28.5939,0.00401049,0.00921808,-0.00424603,0.0115951,0.00163347,-1.06044,0.0072472,0.0236825,1686,1604,15.6918,-28.5938
469,-580,15.7052,28.0995,0.00353334,0.00759885,-0.00361163,0.00971049,0.0014217,-1.04172,0.00605564,0.020627,1693,1604,15.7052,-28.0995
476,-580,15.7155,27.6263,0.00298442,0.00578553,-0.00308343,0.00777158,0.000998366,-0.998577,0.00488241,0.0146306,1700,1604,15.7155,-27.6264
483,-580,15.6915,27.176,0.00256055,0.00400583,-0.00252205,0.00590673,0.000659649,-0.924924,0.00373739,0.0133207,1707,1604,15.6915,-27.176
490,-580,15.6582,26.7306,0.00194795,0.00209648,-0.00190781,0.00393147,0.000112961,-0.804851,0.00258415,0.0170671,1714,1604,15.6582,-26.7306
497,-580,15.6448,26.2219,0.00114878,0.000574334,-0.00112505,0.0020227,-0.000299579,-0.660418,0.00145862,0.0135315,1721,1604,15.6448,-26.2219
504,-580,15.6195,25.7146,0.000217487,-0.00100356,-0.000161561,0.000238502,-0.00102457,-0.129349,0.000774884,0.0179875,1728,1604,15.6196,-25.7146
511,-580,15.6061,25.2482,-0.000804372,-0.0026411,0.00101341,-0.00035511,-0.00309036,0.417281,0.00195266,0.0177246,1735,1604,15.606,-25.2482
518,-580,15.5959,24.7745,-0.00178718,-0.00417903,0.00214452,-0.00052766,-0.00543855,0.531043,0.00346324,0.0161183,1742,1604,15.5959,-24.7745
525,-580,15.597,24.3059,-0.00278094,-0.00585288,0.00347342,-0.000519038,-0.00811478,0.577221,0.00524541,0.0188849,1749,1604,15.597,-24.3059
532,-580,15.5518,23.8389,-0.00388644,-0.00786832,0.00522337,-0.000287436,-0.0114673,0.603318,0.00755089,0.0229602,1756,1604,15.5518,-23.8388
539,-580,15.5929,23.4122,-0.00521739,-0.0103974,0.00757421,0.0001974,-0.0158122,0.620655,0.0106079,0.0291811,1763,1604,15.5929,-23.4123
546,-580,15.9114,22.8438,0,0,0,0,0,0,0,-1,1770,1604,15.9113,-22.8437
553,-580,14.7144,22.7705,0,0,0,0,0,0,0,-1,1777,1604,14.7144,-22.7705
560,-580,14.8994,22.5314,0,0,0,0,0,0,0,-1,1784,1604,14.8994,-22.5313
567,-580,3.87708,4.0647,0,0,0,0,0,0,0,-1,1791,1604,3.87711,-4.06471
574,-580,2.31653,5.62952,0,0,0,0,0,0,0,-1,1798,1604,2.31654,-5.62947
581,-580,1.60876,6.67664,0,0,0,0,0,0,0,-1,1805,1604,1.60873,-6.67667
588,-580,1.38684,7.14441,0,0,0,0,0,0,0,-1,1812,1604,1.38689,-7.14443
595,-580,0,0,0,0,0,0,0,0,0,-1,1819,1604,0,0
602,-580,0,0,0,0,0,0,0,0,0,-1,1826,1604,0,0
609,-580,0,0,0,0,0,0,0,0,0,-1,1833,1604,0,0
616,-580,0,0,0,0,0,0,0,0,0,-1,1840,1604,0,0
623,-580,0,0,0,0,0,0,0,0,0,-1,1847,1604,0,0
630,-580,0,0,0,0,0,0,0,0,0,-1,1854,1604,0,0
637,-580,0,0,0,0,0,0,0,0,0,-1,1861,1604,0,0
644,-580,0,0,0,0,0,0,0,0,0,-1,1868,1604,0,0
651,-580,0,0,0,0,0,0,0,0,0,-1,1875,1604,0,0
658,-580,0,0,0,0,0,0,0,0,0,-1,1882,1604,0,0
665,-580,0,0,0,0,0,0,0,0,0,-1,1889,1604,0,0
672,-580,0,0,0,0,0,0,0,0,0,-1,1896,1604,0,0
679,-580,0,0,0,0,0,0,0,0,0,-1,1903,1604,0,0
686,-580,0,0,0,0,0,0,0,0,0,-1,1910,1604,0,0
693,-580,0,0,0,0,0,0,0,0,0,-1,1917,1604,0,0
700,-580,0,0,0,0,0,0,0,0,0,-1,1924,1604,0,0
707,-580,0,0,0,0,0,0,0,0,0,-1,1931,1604,0,0
714,-580,0,0,0,0,0,0,0,0,0,-1,1938,1604,0,0
721,-580,0,0,0,0,0,0,0,0,0,-1,1945,1604,0,0
728,-580,0,0,0,0,0,0,0,0,0,-1,1952,1604,0,0
735,-580,0,0,0,0,0,0,0,0,0,-1,1959,1604,0,0
742,-580,0,0,0,0,0,0,0,0,0,-1,1966,1604,0,0
749,-580,0,0,0,0,0,0,0,0,0,-1,1973,1604,0,0
756,-580,0,0,0,0,0,0,0,0,0,-1,1980,1604,0,0
763,-580,0,0,0,0,0,0,0,0,0,-1,1987,1604,0,0
770,-580,0,0,0,0,0,0,0,0,0,-1,1994,1604,0,0
777,-580,0,0,0,0,0,0,0,0,0,-1,2001,1604,0,0
784,-580,0,0,0,0,0,0,0,0,0,-1,2008,1604,0,0
791,-580,0,0,0,0,0,0,0,0,0,-1,2015,1604,0,0
798,-580,0,0,0,0,0,0,0,0,0,-1,2022,1604,0,0
805,-580,0,0,0,0,0,0,0,0,0,-1,2029,1604,0,0
812,-580,0,0,0,0,0,0,0,0,0,-1,2036,1604,0,0
-700,-587,0,0,0,0,0,0,0,0,0,-1,524,1611,0,0
-693,-587,0,0,0,0,0,0,0,0,0,-1,531,1611,0,0
-686,-587,0,0,0,0,0,0,0,0,0,-1,538,1611,0,0
-679,-587,0,0,0,0,0,0,0,0,0,-1,545,1611,0,0
-672,-587,0,0,0,0,0,0,0,0,0,-1,552,1611,0,0
-665,-587,0,0,0,0,0,0,0,0,0,-1,559,1611,0,0
-658,-587,0,0,0,0,0,0,0,0,0,-1,566,1611,0,0
-651,-587,0,0,0,0,0,0,0,0,0,-1,573,1611,0,0
-644,-587,0,0,0,0,0,0,0,0,0,-1,580,1611,0,0
-637,-587,0,0,0,0,0,0,0,0,0,-1,587,1611,0,0
-630,-587,0,0,0,0,0,0,0,0,0,-1,594,1611,0,0
-623,-587,0,0,0,0,0,0,0,0,0,-1,601,1611,0,0
-616,-587,0,0,0,0,0,0,0,0,0,-1,608,1611,0,0
-609,-587,0,0,0,0,0,0,0,0,0,-1,615,1611,0,0
-602,-587,0,0,0,0,0,0,0,0,0,-1,622,1611,0,0
-595,-587,0,0,0,0,0,0,0,0,0,-1,629,1611,0,0
-588,-587,0,0,0,0,0,0,0,0,0,-1,636,1611,0,0
-581,-587,0,0,0,0,0,0,0,0,0,-1,643,1611,0,0
-574,-587,0,0,0,0,0,0,0,0,0,-1,650,1611,0,0
-567,-587,0,0,0,0,0,0,0,0,0,-1,657,1611,0,0
-560,-587,0,0,0,0,0,0,0,0,0,-1,664,1611,0,0
-553,-587,0,0,0,0,0,0,0,0,0,-1,671,1611,0,0
-546,-587,0,0,0,0,0,0,0,0,0,-1,678,1611,0,0
-539,-587,0,0,0,0,0,0,0,0,0,-1,685,1611,0,0
-532,-587,0,0,0,0,0,0,0,0,0,-1,692,1611,0,0
-525,-587,0,0,0,0,0,0,0,0,0,-1,699,1611,0,0
-518,-587,0,0,0,0,0,0,0,0,0,-1,706,1611,0,0
-511,-587,0,0,0,0,0,0,0,0,0,-1,713,1611,0,0
-504,-587,0,0,0,0,0,0,0,0,0,-1,720,1611,0,0
-497,-587,0,0,0,0,0,0,0,0,0,-1,727,1611,0,0
-490,-587,0,0,0,0,0,0,0,0,0,-1,734,1611,0,0
-483,-587,0,0,0,0,0,0,0,0,0,-1,741,1611,0,0
-476,-587,0,0,0,0,0,0,0,0,0,-1,748,1611,0,0
-469,-587,0,0,0,0,0,0,0,0,0,-1,755,1611,0,0
-462,-587,-0.714355,-0.418457,0,0,0,0,0,0,0,-1,762,1611,-0.714359,0.418483
-455,-587,-0.619812,-0.522461,0,0,0,0,0,0,0,-1,769,1611,-0.619802,0.522515
-448,-587,-0.461731,-0.686523,0,0,0,0,0,0,0,-1,776,1611,-0.461739,0.686559
-441,-587,-3.56555,2.72253,0,0,0,0,0,0,0,-1,783,1611,-3.56555,-2.72259
-434,-587,-1.77319,4.76318,0,0,0,0,0,0,0,-1,790,1611,-1.77318,-4.76323
-427,-587,0.0346069,6.92944,0,0,0,0,0,0,0,-1,797,1611,0.034587,-6.92941
-420,-587,-0.647156,10.1157,0,0,0,0,0,0,0,-1,804,1611,-0.647128,-10.1158
-413,-587,2.13971,10.3901,0,0,0,0,0,0,0,-1,811,1611,2.13971,-10.3902
-406,-587,2.2525,19.7814,0,0,0,0,0,0,0,-1,818,1611,2.25253,-19.7814
-399,-587,1.19965,22.7124,0,0,0,0,0,0,0,-1,825,1611,1.19963,-22.7124
-392,-587,1.39587,23.2582,-0.0102046,-0.000263131,-7.01712e-05,-0.000262636,-0.0102051,-1.56374,0.00671754,0.0431602,832,1611,1.39588,-23.2581
-385,-587,1.1709,23.8313,-0.00809318,-0.000407707,0.000179972,-0.000403495,-0.00809739,1.5474,0.00526892,0.0207891,839,1611,1.17087,-23.8313
-378,-587,1.17743,24.4127,-0.00625224,-0.000269466,0.000331963,-0.000251103,-0.0062706,1.51554,0.00409927,0.0128226,846,1611,1.1774,-24.4127
-371,-587,1.13989,24.9543,-0.00467305,-0.000242042,0.000317235,-0.000219444,-0.00469565,1.49969,0.00305991,0.0135902,853,1611,1.1399,-24.9544
-364,-587,1.13477,25.4691,-0.00321286,-8.96914e-06,0.000354022,2.96831e-05,-0.00325151,1.46205,0.00217764,0.0168974,860,1611,1.13474,-25.4691
-357,-587,1.12134,25.9333,-0.00188342,0.000421237,0.000423622,0.000496636,-0.00195882,1.39465,0.0014991,0.0160086,867,1611,1.12133,-25.9333
-350,-587,1.09253,26.465,-0.000622433,0.000926179,0.00053586,0.00109352,-0.000789772,1.26811,0.00109202,0.00973218,874,1611,1.09251,-26.4649
-343,-587,1.08514,26.9679,0.000528872,0.00165823,0.000752536,0.00203439,0.000152715,1.10727,0.00130833,0.0122027,881,1611,1.08516,-26.9679
-336,-587,1.07245,27.4445,0.00170043,0.00238839,0.00100848,0.00310995,0.000978879,0.949754,0.00183614,0.0130453,888,1611,1.07244,-27.4444
-329,-587,1.04291,27.9426,0.0027565,0.00325073,0.0014067,0.00443185,0.00157538,0.872347,0.00259412,0.0157279,895,1611,1.0429,-27.9426
-322,-587,1.05884,28.4614,0.00374392,0.00432199,0.00202535,0.00607883,0.00198708,0.856274,0.00357904,0.0188013,902,1611,1.05887,-28.4615
-315,-587,1.04303,28.9551,0.00481768,0.00583735,0.00290906,0.00828091,0.00237412,0.872146,0.00492387,0.0158751,909,1611,1.04304,-28.9551
-308,-587,1.04315,29.441,0.00608245,0.00710005,0.00379251,0.0104177,0.00276476,0.85208,0.00623148,0.0156385,916,1611,1.04314,-29.4411
-301,-587,1.10724,29.9381,0.0078443,0.00875578,0.00519634,0.0135163,0.00308375,0.829139,0.0081791,0.0158153,923,1611,1.10725,-29.9381
-294,-587,1.18933,30.5009,0.00958372,0.0106715,0.00694311,0.017092,0.00316322,0.824484,0.0105003,0.0299394,930,1611,1.18934,-30.5009
-287,-587,1.19568,31.0249,0,0,0,0,0,0,0,-1,937,1611,1.19566,-31.0248
-280,-587,1.45752,31.9279,0,0,0,0,0,0,0,-1,944,1611,1.4575,-31.9278
-273,-587,1.51239,32.5442,0,0,0,0,0,0,0,-1,951,1611,1.51238,-32.5442
-266,-587,1.62421,33.2343,0,0,0,0,0,0,0,-1,958,1611,1.62419,-33.2342
-259,-587,1.76306,28.5784,0,0,0,0,0,0,0,-1,965,1611,1.76307,-28.5784
-252,-587,1.30188,10.3103,0,0,0,0,0,0,0,-1,972,1611,1.30188,-10.3104
-245,-587,1.52075,27.4791,0,0,0,0,0,0,0,-1,979,1611,1.52076,-27.4791
-238,-587,2.87799,9.53821,0,0,0,0,0,0,0,-1,986,1611,2.87797,-9.53823
-231,-587,2.49548,9.14465,0,0,0,0,0,0,0,-1,993,1611,2.49551,-9.14468
-224,-587,-9.72528,9.21069,0,0,0,0,0,0,0,-1,1000,1611,-9.72529,-9.21072
-217,-587,-7.07495,10.7847,0,0,0,0,0,0,0,-1,1007,1611,-7.07495,-10.7847
-210,-587,-4.72308,12.5889,0,0,0,0,0,0,0,-1,1014,1611,-4.72307,-12.5888
-203,-587,-3.2583,13.7289,0,0,0,0,0,0,0,-1,1021,1611,-3.25828,-13.7289
-196,-587,-1.953,14.8145,0,0,0,0,0,0,0,-1,1028,1611,-1.95302,-14.8144
-189,-587,-3.04138,8.66638,0,0,0,0,0,0,0,-1,1035,1611,-3.04136,-8.66635
-182,-587,-3.97095,9.7146,0,0,0,0,0,0,0,-1,1042,1611,-3.97093,-9.71461
-175,-587,-4.80969,8.37878,0,0,0,0,0,0,0,-1,1049,1611,-4.80964,-8.37883
-168,-587,-5.91394,8.72546,0,0,0,0,0,0,0,-1,1056,1611,-5.91398,-8.72542
-161,-587,-7.06946,8.88501,0,0,0,0,0,0,0,-1,1063,1611,-7.06947,-8.885
-154,-587,-2.24731,6.56519,0,0,0,0,0,0,0,-1,1070,1611,-2.24728,-6.56517
-147,-587,0,0,0,0,0,0,0,0,0,-1,1077,1611,0,0
-140,-587,0,0,0,0,0,0,0,0,0,-1,1084,1611,0,0
-133,-587,0,0,0,0,0,0,0,0,0,-1,1091,1611,0,0
-126,-587,0,0,0,0,0,0,0,0,0,-1,1098,1611,0,0
-119,-587,0,0,0,0,0,0,0,0,0,-1,1105,1611,0,0
-112,-587,0,0,0,0,0,0,0,0,0,-1,1112,1611,0,0
-105,-587,0,0,0,0,0,0,0,0,0,-1,1119,1611,0,0
-98,-587,0,0,0,0,0,0,0,0,0,-1,1126,1611,0,0
-91,-587,0,0,0,0,0,0,0,0,0,-1,1133,1611,0,0
-84,-587,0,0,0,0,0,0,0,0,0,-1,1140,1611,0,0
-77,-587,0,0,0,0,0,0,0,0,0,-1,1147,1611,0,0
-70,-587,0,0,0,0,0,0,0,0,0,-1,1154,1611,0,0
-63,-587,0,0,0,0,0,0,0,0,0,-1,1161,1611,0,0
-56,-587,0,0,0,0,0,0,0,0,0,-1,1168,1611,0,0
-49,-587,0,0,0,0,0,0,0,0,0,-1,1175,1611,0,0
-42,-587,0,0,0,0,0,0,0,0,0,-1,1182,1611,0,0
-35,-587,0,0,0,0,0,0,0,0,0,-1,1189,1611,0,0
-28,-587,0,0,0,0,0,0,0,0,0,-1,1196,1611,0,0
-21,-587,0,0,0,0,0,0,0,0,0,-1,1203,1611,0,0
-14,-587,0,0,0,0,0,0,0,0,0,-1,1210,1611,0,0
-7,-587,0,0,0,0,0,0,0,0,0,-1,1217,1611,0,0
0,-587,0,0,0,0,0,0,0,0,0,-1,1224,1611,0,0
7,-587,0,0,0,0,0,0,0,0,0,-1,1231,1611,0,0
14,-587,0,0,0,0,0,0,0,0,0,-1,1238,1611,0,0
21,-587,0,0,0,0,0,0,0,0,0,-1,1245,1611,0,0
28,-587,0,0,0,0,0,0,0,0,0,-1,1252,1611,0,0
35,-587,0,0,0,0,0,0,0,0,0,-1,1259,1611,0,0
42,-587,0,0,0,0,0,0,0,0,0,-1,1266,1611,0,0
49,-587,0,0,0,0,0,0,0,0,0,-1,1273,1611,0,0
56,-587,0,0,0,0,0,0,0,0,0,-1,1280,1611,0,0
63,-587,0,0,0,0,0,0,0,0,0,-1,1287,1611,0,0
70,-587,0,0,0,0,0,0,0,0,0,-1,1294,1611,0,0
77,-587,0,0,0,0,0,0,0,0,0,-1,1301,1611,0,0
84,-587,0,0,0,0,0,0,0,0,0,-1,1308,1611,0,0
91,-587,0,0,0,0,0,0,0,0,0,-1,1315,1611,0,0
98,-587,0,0,0,0,0,0,0,0,0,-1,1322,1611,0,0
105,-587,0,0,0,0,0,0,0,0,0,-1,1329,1611,0,0
112,-587,0,0,0,0,0,0,0,0,0,-1,1336,1611,0,0
119,-587,0,0,0,0,0,0,0,0,0,-1,1343,1611,0,0
126,-587,0,0,0,0,0,0,0,0,0,-1,1350,1611,0,0
133,-587,0,0,0,0,0,0,0,0,0,-1,1357,1611,0,0
140,-587,0,0,0,0,0,0,0,0,0,-1,1364,1611,0,0
147,-587,0,0,0,0,0,0,0,0,0,-1,1371,1611,0,0
154,-587,0,0,0,0,0,0,0,0,0,-1,1378,1611,0,0
161,-587,0,0,0,0,0,0,0,0,0,-1,1385,1611,0,0
168,-587,0,0,0,0,0,0,0,0,0,-1,1392,1611,0,0
175,-587,0,0,0,0,0,0,0,0,0,-1,1399,1611,0,0
182,-587,0,0,0,0,0,0,0,0,0,-1,1406,1611,0,0
189,-587,0,0,0,0,0,0,0,0,0,-1,1413,1611,0,0
196,-587,0,0,0,0,0,0,0,0,0,-1,1420,1611,0,0
203,-587,0,0,0,0,0,0,0,0,0,-1,1427,1611,0,0
210,-587,0,0,0,0,0,0,0,0,0,-1,1434,1611,0,0
217,-587,0,0,0,0,0,0,0,0,0,-1,1441,1611,0,0
224,-587,0,0,0,0,0,0,0,0,0,-1,1448,1611,0,0
231,-587,0,0,0,0,0,0,0,0,0,-1,1455,1611,0,0
238,-587,0,0,0,0,0,0,0,0,0,-1,1462,1611,0,0
245,-587,0,0,0,0,0,0,0,0,0,-1,1469,1611,0,0
252,-587,0,0,0,0,0,0,0,0,0,-1,1476,1611,0,0
259,-587,0,0,0,0,0,0,0,0,0,-1,1483,1611,0,0
266,-587,0,0,0,0,0,0,0,0,0,-1,1490,1611,0,0
273,-587,10.2936,6.35083,0,0,0,0,0,0,0,-1,1497,1611,10.2936,-6.35087
280,-587,2.09204,1.1217,0,0,0,0,0,0,0,-1,1504,1611,2.092,-1.12176
287,-587,3.2865,0.671509,0,0,0,0,0,0,0,-1,1511,1611,3.28656,-0.671538
294,-587,4.24646,1.58765,0,0,0,0,0,0,0,-1,1518,1611,4.24648,-1.58761
301,-587,7.60474,8.37085,0,0,0,0,0,0,0,-1,1525,1611,7.60478,-8.37084
308,-587,5.99316,10.2291,0,0,0,0,0,0,0,-1,1532,1611,5.99315,-10.2291
315,-587,4.34558,12.3289,0,0,0,0,0,0,0,-1,1539,1611,4.34556,-12.3288
322,-587,10.4526,6.38245,0,0,0,0,0,0,0,-1,1546,1611,10.4526,-6.38245
329,-587,10.7738,8.42444,0,0,0,0,0,0,0,-1,1553,1611,10.7738,-8.42438
336,-587,7.5531,5.96619,0,0,0,0,0,0,0,-1,1560,1611,7.55311,-5.96617
343,-587,9.57495,4.38391,0,0,0,0,0,0,0,-1,1567,1611,9.57494,-4.38397
350,-587,9.50378,3.45093,0,0,0,0,0,0,0,-1,1574,1611,9.50376,-3.4509
357,-587,9.40027,2.50806,0,0,0,0,0,0,0,-1,1581,1611,9.40022,-2.50803
364,-587,9.26477,1.34131,0,0,0,0,0,0,0,-1,1588,1611,9.26479,-1.34126
371,-587,6.98926,7.87561,0,0,0,0,0,0,0,-1,1595,1611,6.98928,-7.87564
378,-587,9.25146,13.8358,0,0,0,0,0,0,0,-1,1602,1611,9.2515,-13.8359
385,-587,17.0917,35.9944,0,0,0,0,0,0,0,-1,1609,1611,17.0917,-35.9944
392,-587,15.4163,32.6893,0,0,0,0,0,0,0,-1,1616,1611,15.4163,-32.6893
399,-587,15.2592,32.8873,0,0,0,0,0,0,0,-1,1623,1611,15.2592,-32.8873
406,-587,14.6851,32.127,0.00623586,0.0229281,-0.00947652,0.0272098,0.00195415,-1.14643,0.0175248,0.0391507,1630,1611,14.6851,-32.1269
413,-587,14.7921,31.7266,0.00532953,0.0183315,-0.00797645,0.0221206,0.0015404,-1.12732,0.0142614,0.0339455,1637,1611,14.7921,-31.7265
420,-587,15.1628,31.3782,0.00476457,0.015307,-0.00685763,0.0186852,0.00138636,-1.11307,0.0120214,0.033997,1644,1611,15.1628,-31.3782
427,-587,15.218,31.0164,0.00395017,0.0125704,-0.00564036,0.0153589,0.00116163,-1.11165,0.00987486,0.0277773,1651,1611,15.218,-31.0164
434,-587,15.2509,30.4174,0.00348885,0.0105836,-0.0050568,0.0132132,0.000859252,-1.09127,0.00853683,0.0189407,1658,1611,15.2509,-30.4173
441,-587,15.2406,29.8708,0.0036639,0.00917183,-0.00464156,0.0118149,0.00102079,-1.05315,0.00755937,0.0220283,1665,1611,15.2406,-29.8709
448,-587,15.259,29.5183,0.00372011,0.00846221,-0.00406705,0.0107989,0.00138343,-1.04931,0.0067853,0.0163542,1672,1611,15.259,-29.5183
455,-587,15.251,29.0844,0.00332194,0.00750381,-0.00372326,0.00968309,0.00114267,-1.04125,0.00611022,0.0147857,1679,1611,15.251,-29.0843
462,-587,15.2365,28.6273,0.0029344,0.00644369,-0.0031436,0.00828919,0.00108891,-1.03994,0.00520129,0.018777,1686,1611,15.2364,-28.6274
469,-587,15.2252,28.1525,0.00251519,0.00507,-0.00263603,0.00672182,0.000863359,-1.01102,0.00422295,0.0169395,1693,1611,15.2252,-28.1525
476,-587,15.2327,27.6741,0.0020267,0.00354691,-0.00219637,0.00511098,0.000462632,-0.951984,0.00326405,0.0105403,1700,1611,15.2327,-27.6741
483,-587,15.2,27.208,0.0016005,0.001963,-0.001717,0.00350829,5.52058e-05,-0.837984,0.00232068,0.0133578,1707,1611,15.2,-27.208
490,-587,15.1658,26.746,0.00103898,0.00032085,-0.00116594,0.00189989,-0.000540068,-0.636027,0.00147984,0.0161252,1714,1611,15.1657,-26.7459
497,-587,15.1504,26.2623,0.000296079,-0.00103384,-0.000516214,0.000472932,-0.00121069,-0.330064,0.00100267,0.0125678,1721,1611,15.1504,-26.2623
504,-587,15.1042,25.7969,-0.000596058,-0.00246006,0.000380843,-0.000521248,-0.00253487,0.193962,0.00154574,0.0122714,1728,1611,15.1042,-25.7969
511,-587,15.0974,25.3232,-0.00159039,-0.00405394,0.00152738,-0.000859985,-0.00478435,0.446064,0.00294506,0.014679,1735,1611,15.0974,-25.3232
518,-587,15.1351,24.8271,-0.00253478,-0.00553632,0.00261653,-0.00101917,-0.00705193,0.525018,0.00440108,0.015016,1742,1611,15.1352,-24.8272
525,-587,15.1519,24.3793,-0.00352959,-0.00723238,0.00398672,-0.000985352,-0.00977662,0.56802,0.00621539,0.0213074,1749,1611,15.1518,-24.3793
532,-587,15.1252,23.9202,-0.00474812,-0.00939851,0.00594721,-0.000687723,-0.0134589,0.599048,0.00875237,0.0340236,1756,1611,15.1252,-23.9202
539,-587,15.298,23.4335,0,0,0,0,0,0,0,-1,1763,1611,15.298,-23.4335
546,-587,16.0444,22.3002,0,0,0,0,0,0,0,-1,1770,1611,16.0444,-22.3002
553,-587,7.5813,8.45068,0,0,0,0,0,0,0,-1,1777,1611,7.58125,-8.45068
560,-587,4.21179,5.23547,0,0,0,0,0,0,0,-1,1784,1611,4.21185,-5.23553
567,-587,4.03711,5.46387,0,0,0,0,0,0,0,-1,1791,1611,4.03715,-5.46382
574,-587,3.83142,5.68884,0,0,0,0,0,0,0,-1,1798,1611,3.83141,-5.68881
581,-587,3.47168,6.00977,0,0,0,0,0,0,0,-1,1805,1611,3.47167,-6.00983
588,-587,0,0,0,0,0,0,0,0,0,-1,1812,1611,0,0
595,-587,0,0,0,0,0,0,0,0,0,-1,1819,1611,0,0
602,-587,0,0,0,0,0,0,0,0,0,-1,1826,1611,0,0
609,-587,0,0,0,0,0,0,0,0,0,-1,1833,1611,0,0
616,-587,0,0,0,0,0,0,0,0,0,-1,1840,1611,0,0
623,-587,0,0,0,0,0,0,0,0,0,-1,1847,1611,0,0
630,-587,0,0,0,0,0,0,0,0,0,-1,1854,1611,0,0
637,-587,0,0,0,0,0,0,0,0,0,-1,1861,1611,0,0
644,-587,0,0,0,0,0,0,0,0,0,-1,1868,1611,0,0
651,-587,0,0,0,0,0,0,0,0,0,-1,1875,1611,0,0
658,-587,0,0,0,0,0,0,0,0,0,-1,1882,1611,0,0
665,-587,0,0,0,0,0,0,0,0,0,-1,1889,1611,0,0
672,-587,0,0,0,0,0,0,0,0,0,-1,1896,1611,0,0
679,-587,0,0,0,0,0,0,0,0,0,-1,1903,1611,0,0
686,-587,0,0,0,0,0,0,0,0,0,-1,1910,1611,0,0
693,-587,0,0,0,0,0,0,0,0,0,-1,1917,1611,0,0
700,-587,0,0,0,0,0,0,0,0,0,-1,1924,1611,0,0
707,-587,0,0,0,0,0,0,0,0,0,-1,1931,1611,0,0
714,-587,0,0,0,0,0,0,0,0,0,-1,1938,1611,0,0
721,-587,0,0,0,0,0,0,0,0,0,-1,1945,1611,0,0
728,-587,0,0,0,0,0,0,0,0,0,-1,1952,1611,0,0
735,-587,0,0,0,0,0,0,0,0,0,-1,1959,1611,0,0
742,-587,0,0,0,0,0,0,0,0,0,-1,1966,1611,0,0
749,-587,0,0,0,0,0,0,0,0,0,-1,1973,1611,0,0
756,-587,0,0,0,0,0,0,0,0,0,-1,1980,1611,0,0
763,-587,0,0,0,0,0,0,0,0,0,-1,1987,1611,0,0
770,-587,0,0,0,0,0,0,0,0,0,-1,1994,1611,0,0
777,-587,0,0,0,0,0,0,0,0,0,-1,2001,1611,0,0
784,-587,0,0,0,0,0,0,0,0,0,-1,2008,1611,0,0
791,-587,0,0,0,0,0,0,0,0,0,-1,2015,1611,0,0
798,-587,0,0,0,0,0,0,0,0,0,-1,2022,1611,0,0
805,-587,0,0,0,0,0,0,0,0,0,-1,2029,1611,0,0
812,-587,0,0,0,0,0,0,0,0,0,-1,2036,1611,0,0
-700,-594,0,0,0,0,0,0,0,0,0,-1,524,1618,0,0
-693,-594,0,0,0,0,0,0,0,0,0,-1,531,1618,0,0
-686,-594,0,0,0,0,0,0,0,0,0,-1,538,1618,0,0
-679,-594,0,0,0,0,0,0,0,0,0,-1,545,1618,0,0
-672,-594,0,0,0,0,0,0,0,0,0,-1,552,1618,0,0
-665,-594,0,0,0,0,0,0,0,0,0,-1,559,1618,0,0
-658,-594,0,0,0,0,0,0,0,0,0,-1,566,1618,0,0
-651,-594,0,0,0,0,0,0,0,0,0,-1,573,1618,0,0
-644,-594,0,0,0,0,0,0,0,0,0,-1,580,1618,0,0
-637,-594,0,0,0,0,0,0,0,0,0,-1,587,1618,0,0
-630,-594,0,0,0,0,0,0,0,0,0,-1,594,1618,0,0
-623,-594,0,0,0,0,0,0,0,0,0,-1,601,1618,0,0
-616,-594,0,0,0,0,0,0,0,0,0,-1,608,1618,0,0
-609,-594,0,0,0,0,0,0,0,0,0,-1,615,1618,0,0
-602,-594,0,0,0,0,0,0,0,0,0,-1,622,1618,0,0
-595,-594,0,0,0,0,0,0,0,0,0,-1,629,1618,0,0
-588,-594,0,0,0,0,0,0,0,0,0,-1,636,1618,0,0
-581,-594,0,0,0,0,0,0,0,0,0,-1,643,1618,0,0
-574,-594,0,0,0,0,0,0,0,0,0,-1,650,1618,0,0
-567,-594,0,0,0,0,0,0,0,0,0,-1,657,1618,0,0
-560,-594,0,0,0,0,0,0,0,0,0,-1,664,1618,0,0
-553,-594,0,0,0,0,0,0,0,0,0,-1,671,1618,0,0
-546,-594,0,0,0,0,0,0,0,0,0,-1,678,1618,0,0
-539,-594,0,0,0,0,0,0,0,0,0,-1,685,1618,0,0
-532,-594,0,0,0,0,0,0,0,0,0,-1,692,1618,0,0
-525,-594,0,0,0,0,0,0,0,0,0,-1,699,1618,0,0
-518,-594,0,0,0,0,0,0,0,0,0,-1,706,1618,0,0
-511,-594,0,0,0,0,0,0,0,0,0,-1,713,1618,0,0
-504,-594,0,0,0,0,0,0,0,0,0,-1,720,1618,0,0
-497,-594,0,0,0,0,0,0,0,0,0,-1,727,1618,0,0
-490,-594,0,0,0,0,0,0,0,0,0,-1,734,1618,0,0
-483,-594,0,0,0,0,0,0,0,0,0,-1,741,1618,0,0
-476,-594,0,0,0,0,0,0,0,0,0,-1,748,1618,0,0
-469,-594,0,0,0,0,0,0,0,0,0,-1,755,1618,0,0
-462,-594,0,0,0,0,0,0,0,0,0,-1,762,1618,0,0
-455,-594,-0.509216,-1.58411,0,0,0,0,0,0,0,-1,769,1618,-0.509245,1.58415
-448,-594,-7.71887,-0.0559082,0,0,0,0,0,0,0,-1,776,1618,-7.71885,0.055939
-441,-594,-5.78473,1.18298,0,0,0,0,0,0,0,-1,783,1618,-5.78474,-1.18295
-434,-594,-3.93628,3.06213,0,0,0,0,0,0,0,-1,790,1618,-3.93631,-3.06208
-427,-594,-3.97693,6.77759,0,0,0,0,0,0,0,-1,797,1618,-3.97695,-6.77764
-420,-594,-2.53046,7.71606,0,0,0,0,0,0,0,-1,804,1618,-2.53047,-7.71609
-413,-594,-0.860413,8.00391,0,0,0,0,0,0,0,-1,811,1618,-0.860423,-8.00389
-406,-594,2.45746,13.6218,0,0,0,0,0,0,0,-1,818,1618,2.45747,-13.6218
-399,-594,2.51508,22.5181,0,0,0,0,0,0,0,-1,825,1618,2.51507,-22.518
-392,-594,2.13647,23.287,-0.0142671,0.000231256,-0.000244432,0.000235376,-0.0142713,-1.55394,0.00959359,0.0479967,832,1618,2.13649,-23.2869
-385,-594,1.72717,24.0573,-0.0113574,-0.000198961,0.000102375,-0.000198022,-0.0113583,1.56162,0.00750706,0.0338353,839,1618,1.72717,-24.0573
-378,-594,1.64343,24.4113,-0.00875095,-0.000226225,0.000352965,-0.000211636,-0.00876554,1.52949,0.00577444,0.0155942,846,1618,1.64341,-24.4113
-371,-594,1.65027,24.9697,-0.0066021,-0.000440656,0.000360885,-0.000419591,-0.00662316,1.51249,0.00428244,0.0117862,853,1618,1.65027,-24.9698
-364,-594,1.65369,25.4756,-0.00471507,-0.000474609,0.000402069,-0.000436823,-0.00475286,1.47709,0.00303347,0.0103493,860,1618,1.65368,-25.4756
-357,-594,1.63861,25.9843,-0.00305145,-0.000281409,0.00048353,-0.000199432,-0.00313343,1.40285,0.00202575,0.0103634,867,1618,1.63861,-25.9842
-350,-594,1.58997,26.5146,-0.00156939,1.51692e-05,0.000587564,0.000209266,-0.00176349,1.25174,0.00125126,0.0147492,874,1618,1.58999,-26.5146
-343,-594,1.56293,27.028,-0.000286118,0.000545039,0.000767843,0.00100255,-0.000743631,1.03344,0.00101185,0.0169589,881,1618,1.56291,-27.028
-336,-594,1.54242,27.4879,0.000991997,0.00109661,0.000976727,0.00202243,6.61754e-05,0.812149,0.00132678,0.0146294,888,1618,1.5424,-27.4879
-329,-594,1.53888,27.989,0.00206546,0.0017862,0.00128978,0.00322314,0.000628516,0.73148,0.00197292,0.0148378,895,1618,1.53891,-27.989
-322,-594,1.56696,28.4995,0.00294048,0.00270239,0.00174921,0.00457469,0.00106818,0.751423,0.00276343,0.0165535,902,1618,1.56695,-28.4995
-315,-594,1.58667,28.9578,0.0038201,0.00394633,0.00240587,0.00628991,0.00147652,0.798512,0.00379801,0.0168557,909,1618,1.58669,-28.9578
-308,-594,1.56744,29.4318,0.00484792,0.00501149,0.00305402,0.00798482,0.00187459,0.798785,0.0048214,0.0149751,916,1618,1.56744,-29.4317
-301,-594,1.53265,29.8967,0.00620974,0.00640732,0.00412519,0.0104349,0.00218216,0.79737,0.00635534,0.0117398,923,1618,1.53265,-29.8967
-294,-594,1.55927,30.3679,0.00746221,0.00806621,0.00536962,0.0131423,0.0023861,0.81349,0.00808442,0.0139682,930,1618,1.55929,-30.3679
-287,-594,1.50299,30.8328,0.00898558,0.0100271,0.00690854,0.0164345,0.00257822,0.823018,0.0102061,0.0251244,937,1618,1.50296,-30.8327
-280,-594,1.61914,31.3521,0.0107933,0.0123509,0.00868872,0.0202956,0.0028485,0.830096,0.0126879,0.0315398,944,1618,1.61915,-31.3521
-273,-594,1.67737,31.9766,0.0128721,0.0150791,0.0106786,0.024711,0.00324015,0.836885,0.0155072,0.0383688,951,1618,1.67735,-31.9766
-266,-594,1.77948,32.6705,0.0149419,0.0179424,0.0127092,0.0292396,0.00364475,0.844147,0.0183989,0.043672,958,1618,1.7795,-32.6705
-259,-594,1.83698,33.2238,0,0,0,0,0,0,0,-1,965,1618,1.837,-33.2237
-252,-594,2.19647,33.526,0,0,0,0,0,0,0,-1,972,1618,2.19647,-33.526
-245,-594,2.57147,33.9465,0,0,0,0,0,0,0,-1,979,1618,2.57147,-33.9465
-238,-594,2.09015,28.0121,0,0,0,0,0,0,0,-1,986,1618,2.09012,-28.0121
-231,-594,1.93774,9.35388,0,0,0,0,0,0,0,-1,993,1618,1.93776,-9.35393
-224,-594,1.81824,8.62744,0,0,0,0,0,0,0,-1,1000,1618,1.81822,-8.62745
-217,-594,-8.24066,12.0752,0,0,0,0,0,0,0,-1,1007,1618,-8.24068,-12.0751
-210,-594,-5.61438,14.2119,0,0,0,0,0,0,0,-1,1014,1618,-5.6144,-14.212
-203,-594,-3.94507,15.5768,0,0,0,0,0,0,0,-1,1021,1618,-3.94506,-15.5768
-196,-594,2.78613,10.5815,0,0,0,0,0,0,0,-1,1028,1618,2.78612,-10.5815
-189,-594,2.60913,9.48865,0,0,0,0,0,0,0,-1,1035,1618,2.6091,-9.48871
-182,-594,1.2395,9.38806,0,0,0,0,0,0,0,-1,1042,1618,1.23951,-9.38804
-175,-594,0.234863,8.73792,0,0,0,0,0,0,0,-1,1049,1618,0.234812,-8.73786
-168,-594,-0.495483,8.46289,0,0,0,0,0,0,0,-1,1056,1618,-0.495513,-8.46285
-161,-594,-1.39734,8.28699,0,0,0,0,0,0,0,-1,1063,1618,-1.39729,-8.28699
-154,-594,-0.000854492,7.68445,0,0,0,0,0,0,0,-1,1070,1618,-0.000805755,-7.6845
-147,-594,0.348267,9.3385,0,0,0,0,0,0,0,-1,1077,1618,0.348237,-9.33849
-140,-594,0.675171,11.5884,0,0,0,0,0,0,0,-1,1084,1618,0.675204,-11.5884
-133,-594,0,0,0,0,0,0,0,0,0,-1,1091,1618,0,0
-126,-594,0,0,0,0,0,0,0,0,0,-1,1098,1618,0,0
-119,-594,0,0,0,0,0,0,0,0,0,-1,1105,1618,0,0
-112,-594,0,0,0,0,0,0,0,0,0,-1,1112,1618,0,0
-105,-594,0,0,0,0,0,0,0,0,0,-1,1119,1618,0,0
-98,-594,0,0,0,0,0,0,0,0,0,-1,1126,1618,0,0
-91,-594,0,0,0,0,0,0,0,0,0,-1,1133,1618,0,0
-84,-594,0,0,0,0,0,0,0,0,0,-1,1140,1618,0,0
-77,-594,0,0,0,0,0,0,0,0,0,-1,1147,1618,0,0
-70,-594,0,0,0,0,0,0,0,0,0,-1,1154,1618,0,0
-63,-594,0,0,0,0,0,0,0,0,0,-1,1161,1618,0,0
-56,-594,0,0,0,0,0,0,0,0,0,-1,1168,1618,0,0
-49,-594,0,0,0,0,0,0,0,0,0,-1,1175,1618,0,0
-42,-594,0,0,0,0,0,0,0,0,0,-1,1182,1618,0,0
-35,-594,0,0,0,0,0,0,0,0,0,-1,1189,1618,0,0
-28,-594,0,0,0,0,0,0,0,0,0,-1,1196,1618,0,0
-21,-594,0,0,0,0,0,0,0,0,0,-1,1203,1618,0,0
-14,-594,0,0,0,0,0,0,0,0,0,-1,1210,1618,0,0
-7,-594,0,0,0,0,0,0,0,0,0,-1,1217,1618,0,0
0,-594,0,0,0,0,0,0,0,0,0,-1,1224,1618,0,0
7,-594,0,0,0,0,0,0,0,0,0,-1,1231,1618,0,0
14,-594,0,0,0,0,0,0,0,0,0,-1,1238,1618,0,0
21,-594,0,0,0,0,0,0,0,0,0,-1,1245,1618,0,0
28,-594,0,0,0,0,0,0,0,0,0,-1,1252,1618,0,0
35,-594,0,0,0,0,0,0,0,0,0,-1,1259,1618,0,0
42,-594,0,0,0,0,0,0,0,0,0,-1,1266,1618,0,0
49,-594,0,0,0,0,0,0,0,0,0,-1,1273,1618,0,0
56,-594,0,0,0,0,0,0,0,0,0,-1,1280,1618,0,0
63,-594,0,0,0,0,0,0,0,0,0,-1,1287,1618,0,0
70,-594,0,0,0,0,0,0,0,0,0,-1,1294,1618,0,0
77,-594,0,0,0,0,0,0,0,0,0,-1,1301,1618,0,0
84,-594,0,0,0,0,0,0,0,0,0,-1,1308,1618,0,0
91,-594,0,0,0,0,0,0,0,0,0,-1,1315,1618,0,0
98,-594,0,0,0,0,0,0,0,0,0,-1,1322,1618,0,0
105,-594,0,0,0,0,0,0,0,0,0,-1,1329,1618,0,0
112,-594,0,0,0,0,0,0,0,0,0,-1,1336,1618,0,0
119,-594,0,0,0,0,0,0,0,0,0,-1,1343,1618,0,0
126,-594,0,0,0,0,0,0,0,0,0,-1,1350,1618,0,0
133,-594,0,0,0,0,0,0,0,0,0,-1,1357,1618,0,0
140,-594,0,0,0,0,0,0,0,0,0,-1,1364,1618,0,0
147,-594,0,0,0,0,0,0,0,0,0,-1,1371,1618,0,0
154,-594,0,0,0,0,0,0,0,0,0,-1,1378,1618,0,0
161,-594,0,0,0,0,0,0,0,0,0,-1,1385,1618,0,0
168,-594,0,0,0,0,0,0,0,0,0,-1,1392,1618,0,0
175,-594,0,0,0,0,0,0,0,0,0,-1,1399,1618,0,0
182,-594,0,0,0,0,0,0,0,0,0,-1,1406,1618,0,0
189,-594,0,0,0,0,0,0,0,0,0,-1,1413,1618,0,0
196,-594,0,0,0,0,0,0,0,0,0,-1,1420,1618,0,0
203,-594,0,0,0,0,0,0,0,0,0,-1,1427,1618,0,0
210,-594,0,0,0,0,0,0,0,0,0,-1,1434,1618,0,0
217,-594,0,0,0,0,0,0,0,0,0,-1,1441,1618,0,0
224,-594,0,0,0,0,0,0,0,0,0,-1,1448,1618,0,0
231,-594,0,0,0,0,0,0,0,0,0,-1,1455,1618,0,0
238,-594,0,0,0,0,0,0,0,0,0,-1,1462,1618,0,0
245,-594,0,0,0,0,0,0,0,0,0,-1,1469,1618,0,0
252,-594,3.03674,1.20996,0,0,0,0,0,0,0,-1,1476,1618,3.0368,-1.20999
259,-594,4.79834,1.53113,0,0,0,0,0,0,0,-1,1483,1618,4.79837,-1.53118
266,-594,3.71606,2.68152,0,0,0,0,0,0,0,-1,1490,1618,3.71609,-2.68149
273,-594,9.7655,6.33557,0,0,0,0,0,0,0,-1,1497,1618,9.76555,-6.33554
280,-594,3.13281,0.911255,0,0,0,0,0,0,0,-1,1504,1618,3.13277,-0.911207
287,-594,4.42749,1.51563,0,0,0,0,0,0,0,-1,1511,1618,4.42747,-1.51564
294,-594,5.36475,3.34937,0,0,0,0,0,0,0,-1,1518,1618,5.36475,-3.3494
301,-594,7.97144,9.04333,0,0,0,0,0,0,0,-1,1525,1618,7.9714,-9.04328
308,-594,6.30347,10.4633,0,0,0,0,0,0,0,-1,1532,1618,6.30351,-10.4633
315,-594,4.62012,11.934,0,0,0,0,0,0,0,-1,1539,1618,4.62006,-11.934
322,-594,2.91528,13.3134,0,0,0,0,0,0,0,-1,1546,1618,2.91523,-13.3133
329,-594,4.19861,9.77258,0,0,0,0,0,0,0,-1,1553,1618,4.19865,-9.77264
336,-594,10.1353,4.66528,0,0,0,0,0,0,0,-1,1560,1618,10.1353,-4.66533
343,-594,10.5729,3.71228,0,0,0,0,0,0,0,-1,1567,1618,10.5729,-3.71232
350,-594,10.219,2.98792,0,0,0,0,0,0,0,-1,1574,1618,10.219,-2.98797
357,-594,9.83154,1.96326,0,0,0,0,0,0,0,-1,1581,1618,9.8315,-1.96321
364,-594,9.74939,0.700562,0,0,0,0,0,0,0,-1,1588,1618,9.74939,-0.700615
371,-594,8.54297,14.3988,0,0,0,0,0,0,0,-1,1595,1618,8.54296,-14.3989
378,-594,15.4661,35.5759,0,0,0,0,0,0,0,-1,1602,1618,15.4661,-35.576
385,-594,16.0098,35.1202,0,0,0,0,0,0,0,-1,1609,1618,16.0098,-35.1202
392,-594,14.5902,33.0939,0,0,0,0,0,0,0,-1,1616,1618,14.5902,-33.0939
399,-594,14.755,32.7501,0.0067279,0.0265788,-0.00957132,0.030442,0.00286478,-1.18718,0.0194103,0.0446484,1623,1618,14.7549,-32.7501
406,-594,14.8217,32.3064,0.00543045,0.020062,-0.00771854,0.0233809,0.00211154,-1.1647,0.0149332,0.027202,1630,1618,14.8216,-32.3064
413,-594,14.8414,31.8815,0.00451804,0.0156399,-0.0063929,0.018552,0.00160588,-1.14335,0.011869,0.0180514,1637,1618,14.8414,-31.8815
420,-594,14.8212,31.451,0.00393107,0.0126031,-0.00537664,0.0151743,0.00135989,-1.12473,0.00969472,0.0164341,1644,1618,14.8211,-31.451
427,-594,14.8384,30.9744,0.00313973,0.00984306,-0.00428524,0.0119317,0.00105109,-1.11728,0.00762828,0.013234,1651,1618,14.8384,-30.9743
434,-594,14.7928,30.491,0.00271751,0.00792538,-0.00381431,0.00993982,0.000703066,-1.0849,0.00640507,0.0179922,1658,1618,14.7929,-30.491
441,-594,14.7601,30.0135,0.00286701,0.00660713,-0.0035065,0.00871107,0.000763066,-1.03037,0.00557047,0.0165108,1665,1618,14.7601,-30.0135
448,-594,14.8021,29.5565,0.00287925,0.00594869,-0.00301519,0.00779727,0.00103067,-1.02081,0.00489096,0.0167296,1672,1618,14.8022,-29.5565
455,-594,14.7845,29.0881,0.00252087,0.0051326,-0.00274279,0.00686453,0.000788939,-1.00757,0.00433736,0.0125208,1679,1618,14.7846,-29.0881
462,-594,14.7745,28.6453,0.00218513,0.00416956,-0.00229162,0.00567455,0.000680138,-0.989702,0.00357793,0.013801,1686,1618,14.7746,-28.6452
469,-594,14.7751,28.1842,0.00182112,0.00294441,-0.00188561,0.00435025,0.000415288,-0.930143,0.00277212,0.0124376,1693,1618,14.7752,-28.1842
476,-594,14.7579,27.7159,0.00139057,0.00162101,-0.00150885,0.00301903,-7.44709e-06,-0.823505,0.00201517,0.0124893,1700,1618,14.7579,-27.7159
483,-594,14.7457,27.2429,0.0009478,0.000175746,-0.00109024,0.00171833,-0.000594787,-0.615247,0.001387,0.0154342,1707,1618,14.7458,-27.2429
490,-594,14.7158,26.7594,0.000404463,-0.00125432,-0.000587178,0.000591274,-0.00144113,-0.308024,0.00120712,0.0136756,1714,1618,14.7159,-26.7594
497,-594,14.6848,26.2711,-0.000302894,-0.00249043,-5.96256e-05,-0.00030127,-0.00249206,-0.0272299,0.00157061,0.0104565,1721,1618,14.6848,-26.2712
504,-594,14.6714,25.7853,-0.00116071,-0.00378717,0.000751167,-0.000961052,-0.00398683,0.259788,0.00240249,0.0107874,1728,1618,14.6714,-25.7852
511,-594,14.6694,25.2939,-0.00217064,-0.00537085,0.00184708,-0.00132697,-0.00621453,0.428461,0.00377916,0.0157197,1735,1618,14.6695,-25.2939
518,-594,14.6234,24.7886,-0.003168,-0.00682468,0.00287542,-0.00158887,-0.00840381,0.502216,0.00515519,0.0224594,1742,1618,14.6234,-24.7886
525,-594,14.5704,24.2914,-0.00420036,-0.00849927,0.00425886,-0.00157928,-0.0111204,0.551697,0.00694724,0.0358443,1749,1618,14.5704,-24.2914
532,-594,14.5947,23.8386,0,0,0,0,0,0,0,-1,1756,1618,14.5947,-23.8386
539,-594,15.4303,22.5825,0,0,0,0,0,0,0,-1,1763,1618,15.4303,-22.5825
546,-594,7.48645,8.54785,0,0,0,0,0,0,0,-1,1770,1618,7.48639,-8.54789
553,-594,3.69714,5.68762,0,0,0,0,0,0,0,-1,1777,1618,3.69715,-5.68764
560,-594,6.06616,4.44482,0,0,0,0,0,0,0,-1,1784,1618,6.06621,-4.44477
567,-594,5.97266,4.73303,0,0,0,0,0,0,0,-1,1791,1618,5.97271,-4.73309
574,-594,5.9906,4.96326,0,0,0,0,0,0,0,-1,1798,1618,5.99065,-4.96326
581,-594,0,0,0,0,0,0,0,0,0,-1,1805,1618,0,0
588,-594,0,0,0,0,0,0,0,0,0,-1,1812,1618,0,0
595,-594,0,0,0,0,0,0,0,0,0,-1,1819,1618,0,0
602,-594,0,0,0,0,0,0,0,0,0,-1,1826,1618,0,0
609,-594,0,0,0,0,0,0,0,0,0,-1,1833,1618,0,0
616,-594,0,0,0,0,0,0,0,0,0,-1,1840,1618,0,0
623,-594,0,0,0,0,0,0,0,0,0,-1,1847,1618,0,0
630,-594,0,0,0,0,0,0,0,0,0,-1,1854,1618,0,0
637,-594,0,0,0,0,0,0,0,0,0,-1,1861,1618,0,0
644,-594,0,0,0,0,0,0,0,0,0,-1,1868,1618,0,0
651,-594,0,0,0,0,0,0,0,0,0,-1,1875,1618,0,0
658,-594,0,0,0,0,0,0,0,0,0,-1,1882,1618,0,0
665,-594,0,0,0,0,0,0,0,0,0,-1,1889,1618,0,0
672,-594,0,0,0,0,0,0,0,0,0,-1,1896,1618,0,0
679,-594,0,0,0,0,0,0,0,0,0,-1,1903,1618,0,0
686,-594,0,0,0,0,0,0,0,0,0,-1,1910,1618,0,0
693,-594,0,0,0,0,0,0,0,0,0,-1,1917,1618,0,0
700,-594,0,0,0,0,0,0,0,0,0,-1,1924,1618,0,0
707,-594,0,0,0,0,0,0,0,0,0,-1,1931,1618,0,0
714,-594,0,0,0,0,0,0,0,0,0,-1,1938,1618,0,0
721,-594,0,0,0,0,0,0,0,0,0,-1,1945,1618,0,0
728,-594,0,0,0,0,0,0,0,0,0,-1,1952,1618,0,0
735,-594,0,0,0,0,0,0,0,0,0,-1,1959,1618,0,0
742,-594,0,0,0,0,0,0,0,0,0,-1,1966,1618,0,0
749,-594,0,0,0,0,0,0,0,0,0,-1,1973,1618,0,0
756,-594,0,0,0,0,0,0,0,0,0,-1,1980,1618,0,0
763,-594,0,0,0,0,0,0,0,0,0,-1,1987,1618,0,0
770,-594,0,0,0,0,0,0,0,0,0,-1,1994,1618,0,0
777,-594,0,0,0,0,0,0,0,0,0,-1,2001,1618,0,0
784,-594,0,0,0,0,0,0,0,0,0,-1,2008,1618,0,0
791,-594,0,0,0,0,0,0,0,0,0,-1,2015,1618,0,0
798,-594,0,0,0,0,0,0,0,0,0,-1,2022,1618,0,0
805,-594,0,0,0,0,0,0,0,0,0,-1,2029,1618,0,0
812,-594,0,0,0,0,0,0,0,0,0,-1,2036,1618,0,0
-700,-601,0,0,0,0,0,0,0,0,0,-1,524,1625,0,0
-693,-601,0,0,0,0,0,0,0,0,0,-1,531,1625,0,0
-686,-601,0,0,0,0,0,0,0,0,0,-1,538,1625,0,0
-679,-601,0,0,0,0,0,0,0,0,0,-1,545,1625,0,0
-672,-601,0,0,0,0,0,0,0,0,0,-1,552,1625,0,0
-665,-601,0,0,0,0,0,0,0,0,0,-1,559,1625,0,0
-658,-601,0,0,0,0,0,0,0,0,0,-1,566,1625,0,0
-651,-601,0,0,0,0,0,0,0,0,0,-1,573,1625,0,0
-644,-601,0,0,0,0,0,0,0,0,0,-1,580,1625,0,0
-637,-601,0,0,0,0,0,0,0,0,0,-1,587,1625,0,0
-630,-601,0,0,0,0,0,0,0,0,0,-1,594,1625,0,0
-623,-601,0,0,0,0,0,0,0,0,0,-1,601,1625,0,0
-616,-601,0,0,0,0,0,0,0,0,0,-1,608,1625,0,0
-609,-601,0,0,0,0,0,0,0,0,0,-1,615,1625,0,0
-602,-601,0,0,0,0,0,0,0,0,0,-1,622,1625,0,0
-595,-601,0,0,0,0,0,0,0,0,0,-1,629,1625,0,0
-588,-601,0,0,0,0,0,0,0,0,0,-1,636,1625,0,0
-581,-601,0,0,0,0,0,0,0,0,0,-1,643,1625,0,0
-574,-601,0,0,0,0,0,0,0,0,0,-1,650,1625,0,0
-567,-601,0,0,0,0,0,0,0,0,0,-1,657,1625,0,0
-560,-601,0,0,0,0,0,0,0,0,0,-1,664,1625,0,0
-553,-601,0,0,0,0,0,0,0,0,0,-1,671,1625,0,0
-546,-601,0,0,0,0,0,0,0,0,0,-1,678,1625,0,0
-539,-601,0,0,0,0,0,0,0,0,0,-1,685,1625,0,0
-532,-601,0,0,0,0,0,0,0,0,0,-1,692,1625,0,0
-525,-601,0,0,0,0,0,0,0,0,0,-1,699,1625,0,0
-518,-601,0,0,0,0,0,0,0,0,0,-1,706,1625,0,0
-511,-601,0,0,0,0,0,0,0,0,0,-1,713,1625,0,0
-504,-601,0,0,0,0,0,0,0,0,0,-1,720,1625,0,0
-497,-601,0,0,0,0,0,0,0,0,0,-1,727,1625,0,0
-490,-601,0,0,0,0,0,0,0,0,0,-1,734,1625,0,0
-483,-601,0,0,0,0,0,0,0,0,0,-1,741,1625,0,0
-476,-601,0,0,0,0,0,0,0,0,0,-1,748,1625,0,0
-469,-601,0,0,0,0,0,0,0,0,0,-1,755,1625,0,0
-462,-601,0,0,0,0,0,0,0,0,0,-1,762,1625,0,0
-455,-601,0,0,0,0,0,0,0,0,0,-1,769,1625,0,0
-448,-601,-7.07623,2.7616,0,0,0,0,0,0,0,-1,776,1625,-7.07626,-2.76161
-441,-601,-6.06689,3.33447,0,0,0,0,0,0,0,-1,783,1625,-6.06691,-3.33448
-434,-601,-5.02655,3.8468,0,0,0,0,0,0,0,-1,790,1625,-5.02657,-3.84674
-427,-601,-5.78601,4.2406,0,0,0,0,0,0,0,-1,797,1625,-5.786,-4.24058
-420,-601,-5.5191,5.60364,0,0,0,0,0,0,0,-1,804,1625,-5.51907,-5.60368
-413,-601,-4.30756,5.86047,0,0,0,0,0,0,0,-1,811,1625,-4.30757,-5.86046
-406,-601,-1.67493,7.20422,0,0,0,0,0,0,0,-1,818,1625,-1.67493,-7.20428
-399,-601,1.40094,15.3108,0,0,0,0,0,0,0,-1,825,1625,1.40096,-15.3107
-392,-601,2.86151,23.2306,0,0,0,0,0,0,0,-1,832,1625,2.86149,-23.2306
-385,-601,2.51703,23.9697,-0.0149936,0.000177178,-0.000143611,0.000178538,-0.014995,-1.56133,0.0100567,0.0491763,839,1625,2.51701,-23.9697
-378,-601,2.20825,24.5474,-0.0114741,-4.7521e-05,0.000220921,-4.32511e-05,-0.0114784,1.55147,0.0076379,0.0444428,846,1625,2.20824,-24.5474
-371,-601,2.13147,24.9296,-0.00871183,-0.000499279,0.000275839,-0.000490025,-0.00872109,1.53726,0.0056578,0.0247013,853,1625,2.13149,-24.9296
-364,-601,2.13593,25.4755,-0.00637857,-0.000723486,0.00035184,-0.00070168,-0.00640038,1.5089,0.00405332,0.0132937,860,1625,2.1359,-25.4754
-357,-601,2.10419,25.999,-0.00438798,-0.000691676,0.000489963,-0.000627832,-0.00445182,1.44122,0.00278232,0.0104324,867,1625,2.10418,-25.999
-350,-601,2.10779,26.5728,-0.00270661,-0.000531121,0.00061792,-0.000367861,-0.00286987,1.31249,0.00180318,0.020768,874,1625,2.10782,-26.5728
-343,-601,2.05176,27.0917,-0.00130262,-0.000137259,0.000781987,0.000255263,-0.00169514,1.10559,0.00122409,0.0233083,881,1625,2.05175,-27.0917
-336,-601,2.00195,27.5486,7.75023e-05,0.000312,0.000968989,0.00117081,-0.000781306,0.845606,0.00113451,0.0193878,888,1625,2.00193,-27.5485
-329,-601,2.02356,28.0486,0.00118386,0.000891586,0.00122273,0.00226915,-0.000193708,0.725922,0.0015813,0.0154765,895,1625,2.02354,-28.0486
-322,-601,2.03937,28.5248,0.00199168,0.00169716,0.001551,0.00340239,0.000286443,0.738069,0.00217907,0.0121823,902,1625,2.03934,-28.5247
-315,-601,2.06067,28.9574,0.0027377,0.00271019,0.00201173,0.00473572,0.000712173,0.78198,0.00294857,0.0125126,909,1625,2.06065,-28.9574
-308,-601,2.04034,29.4293,0.00359569,0.00360225,0.00245592,0.00605489,0.00114305,0.786066,0.00371467,0.0117785,916,1625,2.04037,-29.4294
-301,-601,2.02472,29.9049,0.00470932,0.00475758,0.00323944,0.00797298,0.00149392,0.789123,0.00489395,0.010254,923,1625,2.02473,-29.9049
-294,-601,1.99493,30.3801,0.00570304,0.00616191,0.0041243,0.0100631,0.0018018,0.813184,0.00619612,0.0100843,930,1625,1.99493,-30.3802
-287,-601,1.9635,30.8657,0.00687271,0.00783161,0.00518435,0.0125586,0.00214569,0.831507,0.00775676,0.0112264,937,1625,1.96352,-30.8657
-280,-601,1.99121,31.3282,0.00828819,0.00966091,0.00647195,0.0154828,0.00246631,0.838227,0.00960588,0.015733,944,1625,1.99122,-31.3283
-273,-601,1.99536,31.8434,0.00987756,0.0117114,0.00789374,0.0187413,0.00284768,0.843218,0.0116615,0.0177037,951,1625,1.99537,-31.8434
-266,-601,2.04291,32.3435,0.0114293,0.0138885,0.00934404,0.0220835,0.0032343,0.85082,0.0137714,0.0207208,958,1625,2.04293,-32.3435
-259,-601,2.07904,32.7212,0.0131598,0.016243,0.0110016,0.0258105,0.00359232,0.855008,0.0161433,0.0302387,965,1625,2.07903,-32.7212
-252,-601,2.42542,33.3846,0.0151073,0.018863,0.0128043,0.0299265,0.00404385,0.858209,0.018749,0.0462437,972,1625,2.42542,-33.3847
-245,-601,2.22406,33.9838,0,0,0,0,0,0,0,-1,979,1625,2.22407,-33.9838
-238,-601,2.94312,34.6058,0,0,0,0,0,0,0,-1,986,1625,2.94309,-34.6059
-231,-601,2.66772,13.7051,0,0,0,0,0,0,0,-1,993,1625,2.6677,-13.7051
-224,-601,-0.0305176,9.13684,0,0,0,0,0,0,0,-1,1000,1625,-0.030498,-9.13681
-217,-601,3.39429,10.3898,0,0,0,0,0,0,0,-1,1007,1625,3.39431,-10.3898
-210,-601,-6.53699,15.7931,0,0,0,0,0,0,0,-1,1014,1625,-6.53697,-15.7931
-203,-601,2.69348,15.9099,0,0,0,0,0,0,0,-1,1021,1625,2.69351,-15.91
-196,-601,2.66992,16.1815,0,0,0,0,0,0,0,-1,1028,1625,2.66995,-16.1815
-189,-601,2.849,16.6105,0,0,0,0,0,0,0,-1,1035,1625,2.84902,-16.6104
-182,-601,1.82153,13.9752,0,0,0,0,0,0,0,-1,1042,1625,1.82155,-13.9752
-175,-601,0.544922,9.28687,0,0,0,0,0,0,0,-1,1049,1625,0.544879,-9.28685
-168,-601,-0.247559,8.97461,0,0,0,0,0,0,0,-1,1056,1625,-0.247598,-8.97466
-161,-601,-1.16833,8.80078,0,0,0,0,0,0,0,-1,1063,1625,-1.16837,-8.80081
-154,-601,1.12756,7.94861,0,0,0,0,0,0,0,-1,1070,1625,1.12762,-7.94855
-147,-601,1.35352,9.55432,0,0,0,0,0,0,0,-1,1077,1625,1.35351,-9.55429
-140,-601,1.72437,11.1498,0,0,0,0,0,0,0,-1,1084,1625,1.72432,-11.1498
-133,-601,2.13281,12.8347,0,0,0,0,0,0,0,-1,1091,1625,2.13287,-12.8348
-126,-601,3.09534,15.427,0,0,0,0,0,0,0,-1,1098,1625,3.0953,-15.4271
-119,-601,1.22485,9.43457,0,0,0,0,0,0,0,-1,1105,1625,1.22489,-9.43456
-112,-601,0,0,0,0,0,0,0,0,0,-1,1112,1625,0,0
-105,-601,0,0,0,0,0,0,0,0,0,-1,1119,1625,0,0
-98,-601,0,0,0,0,0,0,0,0,0,-1,1126,1625,0,0
-91,-601,0,0,0,0,0,0,0,0,0,-1,1133,1625,0,0
-84,-601,0,0,0,0,0,0,0,0,0,-1,1140,1625,0,0
-77,-601,0,0,0,0,0,0,0,0,0,-1,1147,1625,0,0
-70,-601,0,0,0,0,0,0,0,0,0,-1,1154,1625,0,0
-63,-601,0,0,0,0,0,0,0,0,0,-1,1161,1625,0,0
-56,-601,0,0,0,0,0,0,0,0,0,-1,1168,1625,0,0
-49,-601,0,0,0,0,0,0,0,0,0,-1,1175,1625,0,0
-42,-601,0,0,0,0,0,0,0,0,0,-1,1182,1625,0,0
-35,-601,0,0,0,0,0,0,0,0,0,-1,1189,1625,0,0
-28,-601,0,0,0,0,0,0,0,0,0,-1,1196,1625,0,0
-21,-601,0,0,0,0,0,0,0,0,0,-1,1203,1625,0,0
-14,-601,0,0,0,0,0,0,0,0,0,-1,1210,1625,0,0
-7,-601,0,0,0,0,0,0,0,0,0,-1,1217,1625,0,0
0,-601,0,0,0,0,0,0,0,0,0,-1,1224,1625,0,0
7,-601,0,0,0,0,0,0,0,0,0,-1,1231,1625,0,0
14,-601,0,0,0,0,0,0,0,0,0,-1,1238,1625,0,0
21,-601,0,0,0,0,0,0,0,0,0,-1,1245,1625,0,0
28,-601,0,0,0,0,0,0,0,0,0,-1,1252,1625,0,0
35,-601,0,0,0,0,0,0,0,0,0,-1,1259,1625,0,0
42,-601,0,0,0,0,0,0,0,0,0,-1,1266,1625,0,0
49,-601,0,0,0,0,0,0,0,0,0,-1,1273,1625,0,0
56,-601,0,0,0,0,0,0,0,0,0,-1,1280,1625,0,0
63,-601,0,0,0,0,0,0,0,0,0,-1,1287,1625,0,0
70,-601,0,0,0,0,0,0,0,0,0,-1,1294,1625,0,0
77,-601,0,0,0,0,0,0,0,0,0,-1,1301,1625,0,0
84,-601,0,0,0,0,0,0,0,0,0,-1,1308,1625,0,0
91,-601,0,0,0,0,0,0,0,0,0,-1,1315,1625,0,0
98,-601,0,0,0,0,0,0,0,0,0,-1,1322,1625,0,0
105,-601,0,0,0,0,0,0,0,0,0,-1,1329,1625,0,0
112,-601,0,0,0,0,0,0,0,0,0,-1,1336,1625,0,0
119,-601,0,0,0,0,0,0,0,0,0,-1,1343,1625,0,0
126,-601,0,0,0,0,0,0,0,0,0,-1,1350,1625,0,0
133,-601,0,0,0,0,0,0,0,0,0,-1,1357,1625,0,0
140,-601,0,0,0,0,0,0,0,0,0,-1,1364,1625,0,0
147,-601,0,0,0,0,0,0,0,0,0,-1,1371,1625,0,0
154,-601,0,0,0,0,0,0,0,0,0,-1,1378,1625,0,0
161,-601,0,0,0,0,0,0,0,0,0,-1,1385,1625,0,0
168,-601,0,0,0,0,0,0,0,0,0,-1,1392,1625,0,0
175,-601,0,0,0,0,0,0,0,0,0,-1,1399,1625,0,0
182,-601,0,0,0,0,0,0,0,0,0,-1,1406,1625,0,0
189,-601,0,0,0,0,0,0,0,0,0,-1,1413,1625,0,0
196,-601,0,0,0,0,0,0,0,0,0,-1,1420,1625,0,0
203,-601,0,0,0,0,0,0,0,0,0,-1,1427,1625,0,0
210,-601,0,0,0,0,0,0,0,0,0,-1,1434,1625,0,0
217,-601,0,0,0,0,0,0,0,0,0,-1,1441,1625,0,0
224,-601,0,0,0,0,0,0,0,0,0,-1,1448,1625,0,0
231,-601,-0.0371094,0.525879,0,0,0,0,0,0,0,-1,1455,1625,-0.0371518,-0.525824
238,-601,2.03369,-1.32861,0,0,0,0,0,0,0,-1,1462,1625,2.03364,1.32858
245,-601,2.71375,2.44983,0,0,0,0,0,0,0,-1,1469,1625,2.71371,-2.44979
252,-601,4.66943,2.28381,0,0,0,0,0,0,0,-1,1476,1625,4.66947,-2.28376
259,-601,6.42712,2.61987,0,0,0,0,0,0,0,-1,1483,1625,6.42711,-2.61985
266,-601,6.75317,1.68701,0,0,0,0,0,0,0,-1,1490,1625,6.75323,-1.687
273,-601,5.4314,2.92053,0,0,0,0,0,0,0,-1,1497,1625,5.43144,-2.92051
280,-601,4.64722,1.17786,0,0,0,0,0,0,0,-1,1504,1625,4.64722,-1.1779
287,-601,5.32532,2.6217,0,0,0,0,0,0,0,-1,1511,1625,5.32535,-2.62171
294,-601,5.97693,4.22693,0,0,0,0,0,0,0,-1,1518,1625,5.97697,-4.22694
301,-601,7.28162,9.50024,0,0,0,0,0,0,0,-1,1525,1625,7.28162,-9.50025
308,-601,6.53528,10.3927,0,0,0,0,0,0,0,-1,1532,1625,6.53529,-10.3927
315,-601,4.88013,11.7184,0,0,0,0,0,0,0,-1,1539,1625,4.88015,-11.7184
322,-601,3.38098,12.7864,0,0,0,0,0,0,0,-1,1546,1625,3.38104,-12.7864
329,-601,1.8772,13.8768,0,0,0,0,0,0,0,-1,1553,1625,1.87716,-13.8768
336,-601,4.67847,9.53308,0,0,0,0,0,0,0,-1,1560,1625,4.67848,-9.53309
343,-601,11.1404,3.14575,0,0,0,0,0,0,0,-1,1567,1625,11.1404,-3.1458
350,-601,10.9462,2.37769,0,0,0,0,0,0,0,-1,1574,1625,10.9461,-2.37764
357,-601,10.7518,1.6095,0,0,0,0,0,0,0,-1,1581,1625,10.7518,-1.60948
364,-601,5.33643,9.74426,0,0,0,0,0,0,0,-1,1588,1625,5.33637,-9.74429
371,-601,14.9453,35.5466,0,0,0,0,0,0,0,-1,1595,1625,14.9453,-35.5466
378,-601,14.9214,34.9551,0.0111114,0.0471255,-0.0139932,0.0519233,0.00631356,-1.24049,0.0327148,0.0465407,1602,1625,14.9213,-34.9551
385,-601,15.0424,34.3351,0.00892282,0.0378364,-0.0114942,0.0418489,0.0049103,-1.23493,0.0264151,0.0416047,1609,1625,15.0424,-34.335
392,-601,14.1812,33.2048,0.00719927,0.0294005,-0.00947444,0.032894,0.00370575,-1.21753,0.0208044,0.0398247,1616,1625,14.1811,-33.2048
399,-601,14.2605,32.7396,0.00586266,0.0224952,-0.00766464,0.0254885,0.00286933,-1.19847,0.0161212,0.0216256,1623,1625,14.2604,-32.7397
406,-601,14.3807,32.2338,0.00470551,0.0169697,-0.0061436,0.0195179,0.00215737,-1.17763,0.0123557,0.0141273,1630,1625,14.3808,-32.2337
413,-601,14.3639,31.7897,0.00385717,0.0130489,-0.0050415,0.0152749,0.0016311,-1.15499,0.00968548,0.0123009,1637,1625,14.3639,-31.7896
420,-601,14.3521,31.3384,0.00327671,0.0102264,-0.00415717,0.0121698,0.00133338,-1.13352,0.00770726,0.0105226,1644,1625,14.3521,-31.3383
427,-601,14.3699,30.9219,0.00253406,0.00761607,-0.00321045,0.00916942,0.000980718,-1.12016,0.00581368,0.0139044,1651,1625,14.3698,-30.9219
434,-601,14.3483,30.4607,0.00214542,0.00583682,-0.00283366,0.00737287,0.00060937,-1.07406,0.00472524,0.0148584,1658,1625,14.3483,-30.4607
441,-601,14.3361,30.0166,0.00225181,0.00463433,-0.00260691,0.00630927,0.000576872,-0.999712,0.00402768,0.0171403,1665,1625,14.336,-30.0166
448,-601,14.3578,29.5786,0.00223475,0.00399655,-0.00219885,0.00548439,0.000746905,-0.975918,0.00343447,0.0156172,1672,1625,14.3577,-29.5786
455,-601,14.3523,29.0867,0.00192565,0.00326948,-0.00198479,0.004693,0.000502125,-0.948609,0.00297545,0.0133062,1679,1625,14.3523,-29.0867
462,-601,14.3435,28.6376,0.00164119,0.00235018,-0.00163804,0.00367164,0.00031972,-0.891962,0.00234845,0.0110692,1686,1625,14.3435,-28.6375
469,-601,14.3274,28.2053,0.00133142,0.00120719,-0.00131232,0.00258309,-4.44868e-05,-0.761749,0.00173708,0.011315,1693,1625,14.3273,-28.2053
476,-601,14.2839,27.7393,0.000963888,9.74999e-06,-0.000973631,0.00157105,-0.00059741,-0.557594,0.00129334,0.0134938,1700,1625,14.284,-27.7393
483,-601,14.2577,27.2693,0.000507148,-0.00134466,-0.0005916,0.000680011,-0.00151752,-0.284282,0.0012991,0.0165949,1707,1625,14.2577,-27.2693
490,-601,14.2413,26.7955,-3.69514e-05,-0.00261946,-0.00011738,-3.16271e-05,-0.00262479,-0.0453274,0.00173941,0.0132645,1714,1625,14.2413,-26.7955
497,-601,14.2349,26.2999,-0.000713349,-0.00377747,0.000311286,-0.000682045,-0.00380877,0.100226,0.00234513,0.010727,1721,1625,14.2349,-26.2999
504,-601,14.2737,25.7794,-0.00154627,-0.00498445,0.00103736,-0.00125753,-0.00527319,0.271472,0.00318027,0.0211325,1728,1625,14.2737,-25.7794
511,-601,14.1937,25.4222,-0.00264402,-0.00663601,0.00207669,-0.00175962,-0.00752041,0.402605,0.00454213,0.0370661,1735,1625,14.1938,-25.4222
518,-601,14.0679,24.8767,-0.00380286,-0.00812058,0.00297047,-0.00228961,-0.00963383,0.471163,0.00581169,0.04789,1742,1625,14.0679,-24.8767
525,-601,13.9343,24.1147,0,0,0,0,0,0,0,-1,1749,1625,13.9344,-24.1147
532,-601,15.9272,20.312,0,0,0,0,0,0,0,-1,1756,1625,15.9273,-20.312
539,-601,7.77112,11.4299,0,0,0,0,0,0,0,-1,1763,1625,7.77116,-11.4299
546,-601,6.56873,3.62354,0,0,0,0,0,0,0,-1,1770,1625,6.56867,-3.62352
553,-601,7.03015,4.25049,0,0,0,0,0,0,0,-1,1777,1625,7.03011,-4.25048
560,-601,7.50745,4.83374,0,0,0,0,0,0,0,-1,1784,1625,7.50744,-4.83376
567,-601,7.82043,3.83301,0,0,0,0,0,0,0,-1,1791,1625,7.82041,-3.83303
574,-601,0,0,0,0,0,0,0,0,0,-1,1798,1625,0,0
581,-601,0,0,0,0,0,0,0,0,0,-1,1805,1625,0,0
588,-601,0,0,0,0,0,0,0,0,0,-1,1812,1625,0,0
595,-601,0,0,0,0,0,0,0,0,0,-1,1819,1625,0,0
602,-601,0,0,0,0,0,0,0,0,0,-1,1826,1625,0,0
609,-601,0,0,0,0,0,0,0,0,0,-1,1833,1625,0,0
616,-601,0,0,0,0,0,0,0,0,0,-1,1840,1625,0,0
623,-601,0,0,0,0,0,0,0,0,0,-1,1847,1625,0,0
630,-601,0,0,0,0,0,0,0,0,0,-1,1854,1625,0,0
637,-601,0,0,0,0,0,0,0,0,0,-1,1861,1625,0,0
644,-601,0,0,0,0,0,0,0,0,0,-1,1868,1625,0,0
651,-601,0,0,0,0,0,0,0,0,0,-1,1875,1625,0,0
658,-601,0,0,0,0,0,0,0,0,0,-1,1882,1625,0,0
665,-601,0,0,0,0,0,0,0,0,0,-1,1889,1625,0,0
672,-601,0,0,0,0,0,0,0,0,0,-1,1896,1625,0,0
679,-601,0,0,0,0,0,0,0,0,0,-1,1903,1625,0,0
686,-601,0,0,0,0,0,0,0,0,0,-1,1910,1625,0,0
693,-601,0,0,0,0,0,0,0,0,0,-1,1917,1625,0,0
700,-601,0,0,0,0,0,0,0,0,0,-1,1924,1625,0,0
707,-601,0,0,0,0,0,0,0,0,0,-1,1931,1625,0,0
714,-601,0,0,0,0,0,0,0,0,0,-1,1938,1625,0,0
721,-601,0,0,0,0,0,0,0,0,0,-1,1945,1625,0,0
728,-601,0,0,0,0,0,0,0,0,0,-1,1952,1625,0,0
735,-601,0,0,0,0,0,0,0,0,0,-1,1959,1625,0,0
742,-601,0,0,0,0,0,0,0,0,0,-1,1966,1625,0,0
749,-601,0,0,0,0,0,0,0,0,0,-1,1973,1625,0,0
756,-601,0,0,0,0,0,0,0,0,0,-1,1980,1625,0,0
763,-601,0,0,0,0,0,0,0,0,0,-1,1987,1625,0,0
770,-601,0,0,0,0,0,0,0,0,0,-1,1994,1625,0,0
777,-601,0,0,0,0,0,0,0,0,0,-1,2001,1625,0,0
784,-601,0,0,0,0,0,0,0,0,0,-1,2008,1625,0,0
791,-601,0,0,0,0,0,0,0,0,0,-1,2015,1625,0,0
798,-601,0,0,0,0,0,0,0,0,0,-1,2022,1625,0,0
805,-601,0,0,0,0,0,0,0,0,0,-1,2029,1625,0,0
812,-601,0,0,0,0,0,0,0,0,0,-1,2036,1625,0,0
-700,-608,0,0,0,0,0,0,0,0,0,-1,524,1632,0,0
-693,-608,0,0,0,0,0,0,0,0,0,-1,531,1632,0,0
-686,-608,0,0,0,0,0,0,0,0,0,-1,538,1632,0,0
-679,-608,0,0,0,0,0,0,0,0,0,-1,545,1632,0,0
-672,-608,0,0,0,0,0,0,0,0,0,-1,552,1632,0,0
-665,-608,0,0,0,0,0,0,0,0,0,-1,559,1632,0,0
-658,-608,0,0,0,0,0,0,0,0,0,-1,566,1632,0,0
-651,-608,0,0,0,0,0,0,0,0,0,-1,573,1632,0,0
-644,-608,0,0,0,0,0,0,0,0,0,-1,580,1632,0,0
-637,-608,0,0,0,0,0,0,0,0,0,-1,587,1632,0,0
-630,-608,0,0,0,0,0,0,0,0,0,-1,594,1632,0,0
-623,-608,0,0,0,0,0,0,0,0,0,-1,601,1632,0,0
-616,-608,0,0,0,0,0,0,0,0,0,-1,608,1632,0,0
-609,-608,0,0,0,0,0,0,0,0,0,-1,615,1632,0,0
-602,-608,0,0,0,0,0,0,0,0,0,-1,622,1632,0,0
-595,-608,0,0,0,0,0,0,0,0,0,-1,629,1632,0,0
-588,-608,0,0,0,0,0,0,0,0,0,-1,636,1632,0,0
-581,-608,0,0,0,0,0,0,0,0,0,-1,643,1632,0,0
-574,-608,0,0,0,0,0,0,0,0,0,-1,650,1632,0,0
-567,-608,0,0,0,0,0,0,0,0,0,-1,657,1632,0,0
-560,-608,0,0,0,0,0,0,0,0,0,-1,664,1632,0,0
-553,-608,0,0,0,0,0,0,0,0,0,-1,671,1632,0,0
-546,-608,0,0,0,0,0,0,0,0,0,-1,678,1632,0,0
-539,-608,0,0,0,0,0,0,0,0,0,-1,685,1632,0,0
-532,-608,0,0,0,0,0,0,0,0,0,-1,692,1632,0,0
-525,-608,0,0,0,0,0,0,0,0,0,-1,699,1632,0,0
-518,-608,0,0,0,0,0,0,0,0,0,-1,706,1632,0,0
-511,-608,0,0,0,0,0,0,0,0,0,-1,713,1632,0,0
-504,-608,0,0,0,0,0,0,0,0,0,-1,720,1632,0,0
-497,-608,0,0,0,0,0,0,0,0,0,-1,727,1632,0,0
-490,-608,0,0,0,0,0,0,0,0,0,-1,734,1632,0,0
-483,-608,0,0,0,0,0,0,0,0,0,-1,741,1632,0,0
-476,-608,0,0,0,0,0,0,0,0,0,-1,748,1632,0,0
-469,-608,0,0,0,0,0,0,0,0,0,-1,755,1632,0,0
-462,-608,0,0,0,0,0,0,0,0,0,-1,762,1632,0,0
-455,-608,0,0,0,0,0,0,0,0,0,-1,769,1632,0,0
-448,-608,0,0,0,0,0,0,0,0,0,-1,776,1632,0,0
-441,-608,-7.34601,2.78052,0,0,0,0,0,0,0,-1,783,1632,-7.346,-2.78056
-434,-608,-6.34558,3.27405,0,0,0,0,0,0,0,-1,790,1632,-6.34555,-3.27406
-427,-608,-7.74335,4.17688,0,0,0,0,0,0,0,-1,797,1632,-7.74334,-4.17693
-420,-608,-6.82794,4.34839,0,0,0,0,0,0,0,-1,804,1632,-6.82794,-4.34838
-413,-608,-5.41919,5.66138,0,0,0,0,0,0,0,-1,811,1632,-5.41917,-5.66133
-406,-608,-4.79681,4.98999,0,0,0,0,0,0,0,-1,818,1632,-4.79684,-4.98997
-399,-608,-2.60645,6.34167,0,0,0,0,0,0,0,-1,825,1632,-2.60643,-6.34169
-392,-608,2.08356,15.437,0,0,0,0,0,0,0,-1,832,1632,2.08354,-15.437
-385,-608,3.29675,23.8809,0,0,0,0,0,0,0,-1,839,1632,3.29677,-23.8808
-378,-608,2.79077,24.5776,0,0,0,0,0,0,0,-1,846,1632,2.79079,-24.5776
-371,-608,2.58374,24.7626,0,0,0,0,0,0,0,-1,853,1632,2.58376,-24.7625
-364,-608,2.69342,25.3793,-0.00810997,-0.000989505,0.000362713,-0.000971076,-0.0081284,1.52003,0.00512599,0.0307443,860,1632,2.69341,-25.3793
-357,-608,2.60065,25.9554,-0.00570629,-0.000972173,0.000607102,-0.000895558,-0.00578291,1.44526,0.00359414,0.0200329,867,1632,2.60067,-25.9554
-350,-608,2.60718,26.5328,-0.00376292,-0.000822799,0.000731452,-0.00065088,-0.00393484,1.33995,0.00243543,0.0184815,874,1632,2.60715,-26.5328
-343,-608,2.57599,27.0673,-0.0022049,-0.000475102,0.000854439,-0.000124222,-0.00255578,1.18114,0.00166399,0.0240697,881,1632,2.57599,-27.0672
-336,-608,2.53119,27.5601,-0.000714029,-5.11246e-05,0.00100702,0.000677587,-0.00144274,0.944385,0.00125046,0.0166753,888,1632,2.53119,-27.56
-329,-608,2.49591,28.0624,0.000434843,0.000471538,0.00119671,0.00165004,-0.000743662,0.793063,0.00141465,0.0147892,895,1632,2.4959,-28.0624
-322,-608,2.48602,28.5198,0.00120081,0.00118743,0.00139992,0.00259406,-0.000205808,0.783009,0.00180189,0.0150021,902,1632,2.486,-28.5198
-315,-608,2.5152,28.9841,0.0018443,0.00198676,0.0016906,0.00360763,0.000223424,0.806452,0.00233418,0.0142771,909,1632,2.51521,-28.9841
-308,-608,2.49359,29.4587,0.00255678,0.00271109,0.00196821,0.00460365,0.000664213,0.804989,0.0028734,0.0152148,916,1632,2.49359,-29.4587
-301,-608,2.47986,29.9215,0.00345414,0.00361671,0.00251333,0.00605007,0.00102078,0.801563,0.00373985,0.0114939,923,1632,2.47988,-29.9215
-294,-608,2.46698,30.3958,0.00425156,0.00474317,0.00315163,0.00765857,0.00133616,0.824316,0.00472374,0.0108679,930,1632,2.46701,-30.3958
-287,-608,2.45062,30.8541,0.00517703,0.00607713,0.00391466,0.00956752,0.00168664,0.842629,0.00589709,0.0101322,937,1632,2.45062,-30.8542
-280,-608,2.46167,31.2974,0.00627612,0.00749156,0.00484515,0.011767,0.00200073,0.847786,0.00727008,0.00852892,944,1632,2.46168,-31.2974
-273,-608,2.44727,31.7712,0.00747991,0.00900488,0.00586654,0.0141583,0.00232652,0.850022,0.00876686,0.00959698,951,1632,2.4473,-31.7712
-266,-608,2.4624,32.2732,0.00864619,0.0106466,0.0069129,0.0166313,0.0026615,0.857242,0.0103154,0.0111385,958,1632,2.46243,-32.2732
-259,-608,2.53729,32.7239,0.00995544,0.0125209,0.00813173,0.0194705,0.0030059,0.863626,0.0121034,0.0160263,965,1632,2.53729,-32.7238
-252,-608,2.6759,33.1743,0.0114667,0.0146086,0.0094642,0.0226314,0.00344397,0.867643,0.0140807,0.028712,972,1632,2.6759,-33.1744
-245,-608,2.64233,33.8607,0.0129288,0.0165997,0.0106398,0.0255612,0.00396723,0.870812,0.0158844,0.0422144,979,1632,2.64235,-33.8607
-238,-608,2.7005,34.6893,0,0,0,0,0,0,0,-1,986,1632,2.70048,-34.6894
-231,-608,3.26025,27.5262,0,0,0,0,0,0,0,-1,993,1632,3.26023,-27.5263
-224,-608,2.51642,15.3452,0,0,0,0,0,0,0,-1,1000,1632,2.5164,-15.3452
-217,-608,1.04419,12.8451,0,0,0,0,0,0,0,-1,1007,1632,1.04418,-12.8451
-210,-608,2.75903,15.9414,0,0,0,0,0,0,0,-1,1014,1632,2.75903,-15.9414
-203,-608,2.76776,16.217,0,0,0,0,0,0,0,-1,1021,1632,2.76773,-16.217
-196,-608,1.53955,18.6058,0,0,0,0,0,0,0,-1,1028,1632,1.53959,-18.6058
-189,-608,1.37634,19.119,0,0,0,0,0,0,0,-1,1035,1632,1.37634,-19.1191
-182,-608,2.89221,16.7092,0,0,0,0,0,0,0,-1,1042,1632,2.89224,-16.7093
-175,-608,0.219116,15.1643,0,0,0,0,0,0,0,-1,1049,1632,0.219173,-15.1644
-168,-608,0.000366211,9.48645,0,0,0,0,0,0,0,-1,1056,1632,0.000317105,-9.48648
-161,-608,2.27832,15.4423,0,0,0,0,0,0,0,-1,1063,1632,2.27826,-15.4423
-154,-608,1.3999,16.4037,0,0,0,0,0,0,0,-1,1070,1632,1.39987,-16.4037
-147,-608,2.4386,9.50317,0,0,0,0,0,0,0,-1,1077,1632,2.43858,-9.50313
-140,-608,2.60132,10.8401,0,0,0,0,0,0,0,-1,1084,1632,2.60134,-10.8401
-133,-608,3.2312,12.4738,0,0,0,0,0,0,0,-1,1091,1632,3.23116,-12.4738
-126,-608,3.76465,13.9644,0,0,0,0,0,0,0,-1,1098,1632,3.76466,-13.9644
-119,-608,4.28906,15.4196,0,0,0,0,0,0,0,-1,1105,1632,4.28911,-15.4195
-112,-608,0.745117,10.5587,0,0,0,0,0,0,0,-1,1112,1632,0.745145,-10.5587
-105,-608,-0.252319,1.42419,0,0,0,0,0,0,0,-1,1119,1632,-0.252331,-1.42418
-98,-608,-2.8595,3.0863,0,0,0,0,0,0,0,-1,1126,1632,-2.85948,-3.08625
-91,-608,-3.71948,1.73608,0,0,0,0,0,0,0,-1,1133,1632,-3.7195,-1.73607
-84,-608,0,0,0,0,0,0,0,0,0,-1,1140,1632,0,0
-77,-608,0,0,0,0,0,0,0,0,0,-1,1147,1632,0,0
-70,-608,0,0,0,0,0,0,0,0,0,-1,1154,1632,0,0
-63,-608,0,0,0,0,0,0,0,0,0,-1,1161,1632,0,0
-56,-608,0,0,0,0,0,0,0,0,0,-1,1168,1632,0,0
-49,-608,0,0,0,0,0,0,0,0,0,-1,1175,1632,0,0
-42,-608,0,0,0,0,0,0,0,0,0,-1,1182,1632,0,0
-35,-608,0,0,0,0,0,0,0,0,0,-1,1189,1632,0,0
-28,-608,0,0,0,0,0,0,0,0,0,-1,1196,1632,0,0
-21,-608,0,0,0,0,0,0,0,0,0,-1,1203,1632,0,0
-14,-608,0,0,0,0,0,0,0,0,0,-1,1210,1632,0,0
-7,-608,0,0,0,0,0,0,0,0,0,-1,1217,1632,0,0
0,-608,0,0,0,0,0,0,0,0,0,-1,1224,1632,0,0
7,-608,0,0,0,0,0,0,0,0,0,-1,1231,1632,0,0
14,-608,0,0,0,0,0,0,0,0,0,-1,1238,1632,0,0
21,-608,0,0,0,0,0,0,0,0,0,-1,1245,1632,0,0
28,-608,0,0,0,0,0,0,0,0,0,-1,1252,1632,0,0
35,-608,0,0,0,0,0,0,0,0,0,-1,1259,1632,0,0
42,-608,0,0,0,0,0,0,0,0,0,-1,1266,1632,0,0
49,-608,0,0,0,0,0,0,0,0,0,-1,1273,1632,0,0
56,-608,0,0,0,0,0,0,0,0,0,-1,1280,1632,0,0
63,-608,0,0,0,0,0,0,0,0,0,-1,1287,1632,0,0
70,-608,0,0,0,0,0,0,0,0,0,-1,1294,1632,0,0
77,-608,0,0,0,0,0,0,0,0,0,-1,1301,1632,0,0
84,-608,0,0,0,0,0,0,0,0,0,-1,1308,1632,0,0
91,-608,0,0,0,0,0,0,0,0,0,-1,1315,1632,0,0
98,-608,0,0,0,0,0,0,0,0,0,-1,1322,1632,0,0
105,-608,0,0,0,0,0,0,0,0,0,-1,1329,1632,0,0
112,-608,0,0,0,0,0,0,0,0,0,-1,1336,1632,0,0
119,-608,0,0,0,0,0,0,0,0,0,-1,1343,1632,0,0
126,-608,0,0,0,0,0,0,0,0,0,-1,1350,1632,0,0
133,-608,0,0,0,0,0,0,0,0,0,-1,1357,1632,0,0
140,-608,0,0,0,0,0,0,0,0,0,-1,1364,1632,0,0
147,-608,0,0,0,0,0,0,0,0,0,-1,1371,1632,0,0
154,-608,0,0,0,0,0,0,0,0,0,-1,1378,1632,0,0
161,-608,0,0,0,0,0,0,0,0,0,-1,1385,1632,0,0
168,-608,0,0,0,0,0,0,0,0,0,-1,1392,1632,0,0
175,-608,0,0,0,0,0,0,0,0,0,-1,1399,1632,0,0
182,-608,0,0,0,0,0,0,0,0,0,-1,1406,1632,0,0
189,-608,0,0,0,0,0,0,0,0,0,-1,1413,1632,0,0
196,-608,0,0,0,0,0,0,0,0,0,-1,1420,1632,0,0
203,-608,0,0,0,0,0,0,0,0,0,-1,1427,1632,0,0
210,-608,5.7157,-0.333008,0,0,0,0,0,0,0,-1,1434,1632,5.71566,0.333004
217,-608,4.49402,-0.831787,0,0,0,0,0,0,0,-1,1441,1632,4.49396,0.831738
224,-608,4.18018,-1.11792,0,0,0,0,0,0,0,-1,1448,1632,4.1802,1.11796
231,-608,0.361816,0.825195,0,0,0,0,0,0,0,-1,1455,1632,0.36185,-0.825226
238,-608,2.85388,-0.28833,0,0,0,0,0,0,0,-1,1462,1632,2.85391,0.288282
245,-608,3.87537,4.02173,0,0,0,0,0,0,0,-1,1469,1632,3.87538,-4.02168
252,-608,5.66956,3.5282,0,0,0,0,0,0,0,-1,1476,1632,5.6696,-3.52815
259,-608,7.47437,3.07178,0,0,0,0,0,0,0,-1,1483,1632,7.4744,-3.07172
266,-608,9.46936,2.34766,0,0,0,0,0,0,0,-1,1490,1632,9.46932,-2.34764
273,-608,6.03003,3.34241,0,0,0,0,0,0,0,-1,1497,1632,6.02997,-3.34245
280,-608,5.72461,2.0769,0,0,0,0,0,0,0,-1,1504,1632,5.72457,-2.07688
287,-608,6.20581,3.59338,0,0,0,0,0,0,0,-1,1511,1632,6.20585,-3.59341
294,-608,6.94922,5.17151,0,0,0,0,0,0,0,-1,1518,1632,6.94925,-5.17151
301,-608,7.60083,6.68018,0,0,0,0,0,0,0,-1,1525,1632,7.60086,-6.68013
308,-608,7.64746,9.93848,0,0,0,0,0,0,0,-1,1532,1632,7.64745,-9.93842
315,-608,5.30688,11.2054,0,0,0,0,0,0,0,-1,1539,1632,5.30694,-11.2054
322,-608,5.32617,13.7581,0,0,0,0,0,0,0,-1,1546,1632,5.32613,-13.758
329,-608,7.12231,13.9607,0,0,0,0,0,0,0,-1,1553,1632,7.12231,-13.9607
336,-608,5.48633,7.82446,0,0,0,0,0,0,0,-1,1560,1632,5.48634,-7.82446
343,-608,5.47192,5.61047,0,0,0,0,0,0,0,-1,1567,1632,5.47192,-5.61045
350,-608,11.6957,1.71387,0,0,0,0,0,0,0,-1,1574,1632,11.6957,-1.71388
357,-608,3.77002,5.10046,0,0,0,0,0,0,0,-1,1581,1632,3.77002,-5.10043
364,-608,13.557,36.6328,0,0,0,0,0,0,0,-1,1588,1632,13.557,-36.6328
371,-608,13.7804,35.5853,0.0112114,0.0445507,-0.0125233,0.0487308,0.00703132,-1.24864,0.0304155,0.0473359,1595,1632,13.7804,-35.5853
378,-608,14.0615,34.3455,0.00916178,0.0370163,-0.010716,0.0406618,0.0055163,-1.24289,0.025469,0.038454,1602,1632,14.0615,-34.3455
385,-608,14.0131,33.7047,0.00746048,0.0302087,-0.00895996,0.0333139,0.00435525,-1.23718,0.0209093,0.0334492,1609,1632,14.013,-33.7047
392,-608,13.8359,33.1084,0.00607551,0.0238619,-0.00745602,0.026574,0.00336349,-1.22194,0.016708,0.0232207,1616,1632,13.8359,-33.1084
399,-608,13.875,32.6193,0.00493396,0.0184155,-0.00603842,0.0207246,0.00262484,-1.20555,0.0130299,0.0107888,1623,1632,13.875,-32.6192
406,-608,13.9222,32.1829,0.00393012,0.0139323,-0.00482422,0.0158799,0.00198255,-1.1871,0.00999152,0.0092254,1630,1632,13.9223,-32.1828
413,-608,13.9152,31.7606,0.00317975,0.0106167,-0.00391568,0.0122982,0.00149826,-1.16518,0.00774779,0.00975336,1637,1632,13.9151,-31.7606
420,-608,13.8707,31.3574,0.00263851,0.00810383,-0.00315437,0.00954459,0.00119774,-1.14234,0.00600377,0.0175646,1644,1632,13.8707,-31.3574
427,-608,13.8967,30.9252,0.0019813,0.00574052,-0.00234238,0.00686418,0.000857634,-1.12351,0.00431872,0.0187054,1651,1632,13.8968,-30.9252
434,-608,13.9086,30.467,0.00165488,0.00415586,-0.00203745,0.00529596,0.000514777,-1.06063,0.00337217,0.0150682,1658,1632,13.9086,-30.467
441,-608,13.8973,30.0313,0.00173657,0.00309538,-0.00186695,0.00440271,0.000429245,-0.959904,0.00280303,0.0136073,1665,1632,13.8973,-30.0312
448,-608,13.9221,29.6244,0.00171265,0.00246758,-0.0015375,0.00367327,0.000506958,-0.90577,0.00229857,0.0156388,1672,1632,13.9221,-29.6244
455,-608,13.9298,29.1226,0.00148448,0.0017886,-0.00136953,0.00301449,0.000258595,-0.840688,0.00192925,0.0116434,1679,1632,13.9298,-29.1225
462,-608,13.8977,28.6555,0.00127623,0.000876271,-0.00111594,0.00220997,-5.7466e-05,-0.696737,0.00149284,0.0109009,1686,1632,13.8977,-28.6555
469,-608,13.8663,28.2264,0.00103793,-0.000235975,-0.000861261,0.00147219,-0.000670226,-0.467005,0.00126548,0.00903479,1693,1632,13.8663,-28.2264
476,-608,13.8358,27.7653,0.000748908,-0.0013704,-0.000544518,0.000880626,-0.00150212,-0.237338,0.00139119,0.00900796,1700,1632,13.8358,-27.7652
483,-608,13.8208,27.2861,0.000282607,-0.00268559,-0.000175252,0.000292919,-0.0026959,-0.0587712,0.00190244,0.00864822,1707,1632,13.8209,-27.2861
490,-608,13.8063,26.8097,-0.000285513,-0.00387221,0.000294216,-0.000261539,-0.00389619,0.0813053,0.00251482,0.00977713,1714,1632,13.8063,-26.8097
497,-608,13.8247,26.3153,-0.000952607,-0.00498618,0.000649296,-0.000850664,-0.00508812,0.155733,0.00314709,0.0213251,1721,1632,13.8247,-26.3153
504,-608,13.918,25.7676,0,0,0,0,0,0,0,-1,1728,1632,13.918,-25.7676
511,-608,13.6871,25.6154,0,0,0,0,0,0,0,-1,1735,1632,13.6872,-25.6153
518,-608,13.6486,24.9194,0,0,0,0,0,0,0,-1,1742,1632,13.6486,-24.9194
525,-608,11.2109,16.2579,0,0,0,0,0,0,0,-1,1749,1632,11.2109,-16.2579
532,-608,8.27917,11.6693,0,0,0,0,0,0,0,-1,1756,1632,8.27919,-11.6694
539,-608,9.40796,1.43457,0,0,0,0,0,0,0,-1,1763,1632,9.40801,-1.43463
546,-608,9.94031,2.1134,0,0,0,0,0,0,0,-1,1770,1632,9.94031,-2.11346
553,-608,10.363,2.81335,0,0,0,0,0,0,0,-1,1777,1632,10.3631,-2.81333
560,-608,9.23999,4.5636,0,0,0,0,0,0,0,-1,1784,1632,9.24,-4.56354
567,-608,0,0,0,0,0,0,0,0,0,-1,1791,1632,0,0
574,-608,0,0,0,0,0,0,0,0,0,-1,1798,1632,0,0
581,-608,0,0,0,0,0,0,0,0,0,-1,1805,1632,0,0
588,-608,0,0,0,0,0,0,0,0,0,-1,1812,1632,0,0
595,-608,0,0,0,0,0,0,0,0,0,-1,1819,1632,0,0
602,-608,0,0,0,0,0,0,0,0,0,-1,1826,1632,0,0
609,-608,0,0,0,0,0,0,0,0,0,-1,1833,1632,0,0
616,-608,0,0,0,0,0,0,0,0,0,-1,1840,1632,0,0
623,-608,0,0,0,0,0,0,0,0,0,-1,1847,1632,0,0
630,-608,0,0,0,0,0,0,0,0,0,-1,1854,1632,0,0
637,-608,0,0,0,0,0,0,0,0,0,-1,1861,1632,0,0
644,-608,0,0,0,0,0,0,0,0,0,-1,1868,1632,0,0
651,-608,0,0,0,0,0,0,0,0,0,-1,1875,1632,0,0
658,-608,0,0,0,0,0,0,0,0,0,-1,1882,1632,0,0
665,-608,0,0,0,0,0,0,0,0,0,-1,1889,1632,0,0
672,-608,0,0,0,0,0,0,0,0,0,-1,1896,1632,0,0
679,-608,0,0,0,0,0,0,0,0,0,-1,1903,1632,0,0
686,-608,0,0,0,0,0,0,0,0,0,-1,1910,1632,0,0
693,-608,0,0,0,0,0,0,0,0,0,-1,1917,1632,0,0
700,-608,0,0,0,0,0,0,0,0,0,-1,1924,1632,0,0
707,-608,0,0,0,0,0,0,0,0,0,-1,1931,1632,0,0
714,-608,0,0,0,0,0,0,0,0,0,-1,1938,1632,0,0
721,-608,0,0,0,0,0,0,0,0,0,-1,1945,1632,0,0
728,-608,0,0,0,0,0,0,0,0,0,-1,1952,1632,0,0
735,-608,0,0,0,0,0,0,0,0,0,-1,1959,1632,0,0
742,-608,0,0,0,0,0,0,0,0,0,-1,1966,1632,0,0
749,-608,0,0,0,0,0,0,0,0,0,-1,1973,1632,0,0
756,-608,0,0,0,0,0,0,0,0,0,-1,1980,1632,0,0
763,-608,0,0,0,0,0,0,0,0,0,-1,1987,1632,0,0
770,-608,0,0,0,0,0,0,0,0,0,-1,1994,1632,0,0
777,-608,0,0,0,0,0,0,0,0,0,-1,2001,1632,0,0
784,-608,0,0,0,0,0,0,0,0,0,-1,2008,1632,0,0
791,-608,0,0,0,0,0,0,0,0,0,-1,2015,1632,0,0
798,-608,0,0,0,0,0,0,0,0,0,-1,2022,1632,0,0
805,-608,0,0,0,0,0,0,0,0,0,-1,2029,1632,0,0
812,-608,0,0,0,0,0,0,0,0,0,-1,2036,1632,0,0
-700,-615,0,0,0,0,0,0,0,0,0,-1,524,1639,0,0
-693,-615,0,0,0,0,0,0,0,0,0,-1,531,1639,0,0
-686,-615,0,0,0,0,0,0,0,0,0,-1,538,1639,0,0
-679,-615,0,0,0,0,0,0,0,0,0,-1,545,1639,0,0
-672,-615,0,0,0,0,0,0,0,0,0,-1,552,1639,0,0
-665,-615,0,0,0,0,0,0,0,0,0,-1,559,1639,0,0
-658,-615,0,0,0,0,0,0,0,0,0,-1,566,1639,0,0
-651,-615,0,0,0,0,0,0,0,0,0,-1,573,1639,0,0
-644,-615,0,0,0,0,0,0,0,0,0,-1,580,1639,0,0
-637,-615,0,0,0,0,0,0,0,0,0,-1,587,1639,0,0
-630,-615,0,0,0,0,0,0,0,0,0,-1,594,1639,0,0
-623,-615,0,0,0,0,0,0,0,0,0,-1,601,1639,0,0
-616,-615,0,0,0,0,0,0,0,0,0,-1,608,1639,0,0
-609,-615,0,0,0,0,0,0,0,0,0,-1,615,1639,0,0
-602,-615,0,0,0,0,0,0,0,0,0,-1,622,1639,0,0
-595,-615,0,0,0,0,0,0,0,0,0,-1,629,1639,0,0
-588,-615,0,0,0,0,0,0,0,0,0,-1,636,1639,0,0
-581,-615,0,0,0,0,0,0,0,0,0,-1,643,1639,0,0
-574,-615,0,0,0,0,0,0,0,0,0,-1,650,1639,0,0
-567,-615,0,0,0,0,0,0,0,0,0,-1,657,1639,0,0
-560,-615,0,0,0,0,0,0,0,0,0,-1,664,1639,0,0
-553,-615,0,0,0,0,0,0,0,0,0,-1,671,1639,0,0
-546,-615,0,0,0,0,0,0,0,0,0,-1,678,1639,0,0
-539,-615,0,0,0,0,0,0,0,0,0,-1,685,1639,0,0
-532,-615,0,0,0,0,0,0,0,0,0,-1,692,1639,0,0
-525,-615,0,0,0,0,0,0,0,0,0,-1,699,1639,0,0
-518,-615,0,0,0,0,0,0,0,0,0,-1,706,1639,0,0
-511,-615,0,0,0,0,0,0,0,0,0,-1,713,1639,0,0
-504,-615,0,0,0,0,0,0,0,0,0,-1,720,1639,0,0
-497,-615,0,0,0,0,0,0,0,0,0,-1,727,1639,0,0
-490,-615,0,0,0,0,0,0,0,0,0,-1,734,1639,0,0
-483,-615,0,0,0,0,0,0,0,0,0,-1,741,1639,0,0
-476,-615,0,0,0,0,0,0,0,0,0,-1,748,1639,0,0
-469,-615,0,0,0,0,0,0,0,0,0,-1,755,1639,0,0
-462,-615,0,0,0,0,0,0,0,0,0,-1,762,1639,0,0
-455,-615,0,0,0,0,0,0,0,0,0,-1,769,1639,0,0
-448,-615,0,0,0,0,0,0,0,0,0,-1,776,1639,0,0
-441,-615,0,0,0,0,0,0,0,0,0,-1,783,1639,0,0
-434,-615,-7.64508,2.98596,0,0,0,0,0,0,0,-1,790,1639,-7.64505,-2.98594
-427,-615,-9.0011,2.89404,0,0,0,0,0,0,0,-1,797,1639,-9.00107,-2.89399
-420,-615,-8.07568,3.0752,0,0,0,0,0,0,0,-1,804,1639,-8.07569,-3.07514
-413,-615,-7.09149,3.396,0,0,0,0,0,0,0,-1,811,1639,-7.09147,-3.39599
-406,-615,-6.21368,3.7312,0,0,0,0,0,0,0,-1,818,1639,-6.21366,-3.73114
-399,-615,-4.84875,3.91907,0,0,0,0,0,0,0,-1,825,1639,-4.84877,-3.91901
-392,-615,1.7395,13.3127,0,0,0,0,0,0,0,-1,832,1639,1.73953,-13.3128
-385,-615,3.42297,14.9401,0,0,0,0,0,0,0,-1,839,1639,3.42296,-14.94
-378,-615,2.54102,17.2609,0,0,0,0,0,0,0,-1,846,1639,2.54099,-17.2608
-371,-615,3.07678,24.972,0,0,0,0,0,0,0,-1,853,1639,3.07677,-24.9721
-364,-615,3.03247,25.6763,0,0,0,0,0,0,0,-1,860,1639,3.03248,-25.6762
-357,-615,3.04077,25.979,0,0,0,0,0,0,0,-1,867,1639,3.04075,-25.979
-350,-615,3.09064,26.6035,-0.00487518,-0.00124223,0.000812739,-0.0010687,-0.00504871,1.36044,0.00307217,0.0312197,874,1639,3.09061,-26.6035
-343,-615,3.04572,27.0511,-0.00321175,-0.000868362,0.000888472,-0.000569598,-0.00351052,1.24641,0.00217548,0.0191276,881,1639,3.0457,-27.0512
-336,-615,3.02747,27.5441,-0.00165643,-0.000407794,0.00100389,0.000150078,-0.0022143,1.06358,0.00152868,0.0105089,888,1639,3.02749,-27.5441
-329,-615,2.98682,28.0404,-0.000494462,0.0001099,0.00112802,0.000975513,-0.00136008,0.916268,0.00135453,0.0109096,895,1639,2.98684,-28.0405
-322,-615,2.97522,28.5353,0.000228162,0.000774963,0.00121513,0.00174707,-0.000743941,0.896054,0.00147654,0.0119892,902,1639,2.9752,-28.5353
-315,-615,2.99347,29.0295,0.000790583,0.00140985,0.00135949,0.00249452,-0.000294091,0.897366,0.00176921,0.0143224,909,1639,2.99344,-29.0296
-308,-615,2.94629,29.504,0.001404,0.00202334,0.001513,0.00325803,0.000169308,0.88634,0.00211784,0.0218789,916,1639,2.94626,-29.504
-301,-615,2.94366,29.9487,0.0021648,0.00273555,0.00187603,0.00434779,0.000552559,0.860878,0.00273302,0.0138837,923,1639,2.94367,-29.9487
-294,-615,2.93433,30.4155,0.00288014,0.00363458,0.00234413,0.00563164,0.000883074,0.865175,0.00349743,0.0108447,930,1639,2.93435,-30.4155
-287,-615,2.90802,30.87,0.00370608,0.0047113,0.00292296,0.00717455,0.00124283,0.870542,0.00442729,0.00775624,937,1639,2.90799,-30.87
-280,-615,2.9054,31.3096,0.00465203,0.00581348,0.00362093,0.00889996,0.00156555,0.864911,0.00548643,0.00909701,944,1639,2.90542,-31.3096
-273,-615,2.89819,31.7837,0.00565494,0.00693097,0.00438216,0.0107213,0.00186459,0.857687,0.00661421,0.0107063,951,1639,2.89821,-31.7837
-266,-615,2.89801,32.2435,0.00662843,0.00817334,0.00516374,0.0126221,0.00217968,0.859644,0.00779048,0.0107531,958,1639,2.89799,-32.2435
-259,-615,2.92657,32.6621,0.00769729,0.00957302,0.00605481,0.0147622,0.00250813,0.862236,0.00912109,0.0125894,965,1639,2.92658,-32.6621
-252,-615,2.94446,33.1346,0.00889179,0.0111611,0.00698248,0.0171005,0.00295238,0.865945,0.0105548,0.0164898,972,1639,2.94447,-33.1347
-245,-615,3.03528,33.6814,0.00996291,0.0126503,0.00774442,0.0191667,0.00344646,0.871294,0.011798,0.0267609,979,1639,3.03525,-33.6814
-238,-615,3.04163,34.2142,0.0108008,0.0137636,0.00828195,0.0206956,0.00386882,0.873896,0.0127053,0.0409301,986,1639,3.04164,-34.2143
-231,-615,3.07904,34.8234,0,0,0,0,0,0,0,-1,993,1639,3.07905,-34.8234
-224,-615,3.33478,34.9344,0,0,0,0,0,0,0,-1,1000,1639,3.33478,-34.9344
-217,-615,3.99097,27.3737,0,0,0,0,0,0,0,-1,1007,1639,3.99096,-27.3736
-210,-615,2.48901,18.9324,0,0,0,0,0,0,0,-1,1014,1639,2.48902,-18.9323
-203,-615,2.13684,18.6173,0,0,0,0,0,0,0,-1,1021,1639,2.13683,-18.6173
-196,-615,4.27161,21.3264,0,0,0,0,0,0,0,-1,1028,1639,4.27165,-21.3264
-189,-615,1.8269,19.6761,0,0,0,0,0,0,0,-1,1035,1639,1.82691,-19.6761
-182,-615,1.63489,20.2278,0,0,0,0,0,0,0,-1,1042,1639,1.63492,-20.2277
-175,-615,-0.609985,13.8434,0,0,0,0,0,0,0,-1,1049,1639,-0.610016,-13.8434
-168,-615,3.85754,15.472,0,0,0,0,0,0,0,-1,1056,1639,3.85757,-15.472
-161,-615,5.38062,36.9541,0,0,0,0,0,0,0,-1,1063,1639,5.38058,-36.9541
-154,-615,6.04199,37.49,0,0,0,0,0,0,0,-1,1070,1639,6.04202,-37.49
-147,-615,1.52502,17.3442,0,0,0,0,0,0,0,-1,1077,1639,1.52501,-17.3442
-140,-615,3.73401,10.2349,0,0,0,0,0,0,0,-1,1084,1639,3.73402,-10.2348
-133,-615,2.6178,17.45,0,0,0,0,0,0,0,-1,1091,1639,2.61776,-17.4499
-126,-615,4.43408,12.5017,0,0,0,0,0,0,0,-1,1098,1639,4.43403,-12.5018
-119,-615,4.82983,13.9279,0,0,0,0,0,0,0,-1,1105,1639,4.82986,-13.9278
-112,-615,3.65698,14.4874,0,0,0,0,0,0,0,-1,1112,1639,3.65695,-14.4875
-105,-615,0.958496,2.45398,0,0,0,0,0,0,0,-1,1119,1639,0.958452,-2.45398
-98,-615,-0.647705,2.12109,0,0,0,0,0,0,0,-1,1126,1639,-0.647756,-2.12105
-91,-615,-3.07983,2.97375,0,0,0,0,0,0,0,-1,1133,1639,-3.07989,-2.97376
-84,-615,-2.46509,0.703247,0,0,0,0,0,0,0,-1,1140,1639,-2.46505,-0.703273
-77,-615,-3.17859,1.23755,0,0,0,0,0,0,0,-1,1147,1639,-3.17865,-1.23752
-70,-615,-4.03943,1.43335,0,0,0,0,0,0,0,-1,1154,1639,-4.03942,-1.43339
-63,-615,-4.8877,1.45544,0,0,0,0,0,0,0,-1,1161,1639,-4.88766,-1.45549
-56,-615,0,0,0,0,0,0,0,0,0,-1,1168,1639,0,0
-49,-615,0,0,0,0,0,0,0,0,0,-1,1175,1639,0,0
-42,-615,0,0,0,0,0,0,0,0,0,-1,1182,1639,0,0
-35,-615,0,0,0,0,0,0,0,0,0,-1,1189,1639,0,0
-28,-615,0,0,0,0,0,0,0,0,0,-1,1196,1639,0,0
-21,-615,0,0,0,0,0,0,0,0,0,-1,1203,1639,0,0
-14,-615,0,0,0,0,0,0,0,0,0,-1,1210,1639,0,0
-7,-615,0,0,0,0,0,0,0,0,0,-1,1217,1639,0,0
0,-615,0,0,0,0,0,0,0,0,0,-1,1224,1639,0,0
7,-615,0,0,0,0,0,0,0,0,0,-1,1231,1639,0,0
14,-615,0,0,0,0,0,0,0,0,0,-1,1238,1639,0,0
21,-615,0,0,0,0,0,0,0,0,0,-1,1245,1639,0,0
28,-615,0,0,0,0,0,0,0,0,0,-1,1252,1639,0,0
35,-615,0,0,0,0,0,0,0,0,0,-1,1259,1639,0,0
42,-615,0,0,0,0,0,0,0,0,0,-1,1266,1639,0,0
49,-615,0,0,0,0,0,0,0,0,0,-1,1273,1639,0,0
56,-615,0,0,0,0,0,0,0,0,0,-1,1280,1639,0,0
63,-615,0,0,0,0,0,0,0,0,0,-1,1287,1639,0,0
70,-615,0,0,0,0,0,0,0,0,0,-1,1294,1639,0,0
77,-615,0,0,0,0,0,0,0,0,0,-1,1301,1639,0,0
84,-615,0,0,0,0,0,0,0,0,0,-1,1308,1639,0,0
91,-615,0,0,0,0,0,0,0,0,0,-1,1315,1639,0,0
98,-615,0,0,0,0,0,0,0,0,0,-1,1322,1639,0,0
105,-615,0,0,0,0,0,0,0,0,0,-1,1329,1639,0,0
112,-615,0,0,0,0,0,0,0,0,0,-1,1336,1639,0,0
119,-615,0,0,0,0,0,0,0,0,0,-1,1343,1639,0,0
126,-615,0,0,0,0,0,0,0,0,0,-1,1350,1639,0,0
133,-615,0,0,0,0,0,0,0,0,0,-1,1357,1639,0,0
140,-615,0,0,0,0,0,0,0,0,0,-1,1364,1639,0,0
147,-615,0,0,0,0,0,0,0,0,0,-1,1371,1639,0,0
154,-615,0,0,0,0,0,0,0,0,0,-1,1378,1639,0,0
161,-615,0,0,0,0,0,0,0,0,0,-1,1385,1639,0,0
168,-615,0,0,0,0,0,0,0,0,0,-1,1392,1639,0,0
175,-615,5.39648,-2.00879,0,0,0,0,0,0,0,-1,1399,1639,5.3965,2.00881
182,-615,5.65393,-1.51025,0,0,0,0,0,0,0,-1,1406,1639,5.65388,1.51028
189,-615,5.58972,-1.35608,0,0,0,0,0,0,0,-1,1413,1639,5.58967,1.35607
196,-615,5.49915,-0.693604,0,0,0,0,0,0,0,-1,1420,1639,5.4991,0.693602
203,-615,5.33411,-0.226685,0,0,0,0,0,0,0,-1,1427,1639,5.33414,0.226689
210,-615,5.60278,0.108276,0,0,0,0,0,0,0,-1,1434,1639,5.60284,-0.10831
217,-615,6.26331,-0.307373,0,0,0,0,0,0,0,-1,1441,1639,6.26331,0.307372
224,-615,5.45422,-0.333984,0,0,0,0,0,0,0,-1,1448,1639,5.45422,0.333992
231,-615,4.92542,1.80298,0,0,0,0,0,0,0,-1,1455,1639,4.92537,-1.80297
238,-615,4.76355,1.96729,0,0,0,0,0,0,0,-1,1462,1639,4.76357,-1.96734
245,-615,4.08643,3.15906,0,0,0,0,0,0,0,-1,1469,1639,4.08638,-3.159
252,-615,6.37805,3.73889,0,0,0,0,0,0,0,-1,1476,1639,6.37806,-3.73891
259,-615,8.35974,3.16443,0,0,0,0,0,0,0,-1,1483,1639,8.35975,-3.16444
266,-615,10.3414,2.58997,0,0,0,0,0,0,0,-1,1490,1639,10.3414,-2.58996
273,-615,6.57043,1.84766,0,0,0,0,0,0,0,-1,1497,1639,6.5704,-1.84771
280,-615,7.10449,3.23438,0,0,0,0,0,0,0,-1,1504,1639,7.10447,-3.23435
287,-615,7.35779,4.68542,0,0,0,0,0,0,0,-1,1511,1639,7.35776,-4.68546
294,-615,7.63733,6.29114,0,0,0,0,0,0,0,-1,1518,1639,7.63735,-6.29109
301,-615,8.47925,11.452,0,0,0,0,0,0,0,-1,1525,1639,8.47922,-11.452
308,-615,6.8114,10.9059,0,0,0,0,0,0,0,-1,1532,1639,6.81137,-10.9058
315,-615,5.1427,14.7251,0,0,0,0,0,0,0,-1,1539,1639,5.14269,-14.7251
322,-615,7.17981,17.6864,0,0,0,0,0,0,0,-1,1546,1639,7.17985,-17.6864
329,-615,7.62134,20.4354,0,0,0,0,0,0,0,-1,1553,1639,7.62139,-20.4354
336,-615,6.45007,14.1138,0,0,0,0,0,0,0,-1,1560,1639,6.45011,-14.1138
343,-615,2.40491,6.50134,0,0,0,0,0,0,0,-1,1567,1639,2.40489,-6.50137
350,-615,12.8768,37.0074,0,0,0,0,0,0,0,-1,1574,1639,12.8768,-37.0074
357,-615,12.8353,36.0439,0,0,0,0,0,0,0,-1,1581,1639,12.8353,-36.0439
364,-615,12.7708,35.4238,0,0,0,0,0,0,0,-1,1588,1639,12.7708,-35.4239
371,-615,13.1954,34.79,0.00888538,0.0334053,-0.00927171,0.0365164,0.00577422,-1.24705,0.0226661,0.0428628,1595,1639,13.1955,-34.79
378,-615,13.4951,33.8663,0.00740255,0.0284223,-0.0080586,0.0311563,0.00466862,-1.24372,0.0194028,0.0220895,1602,1639,13.4951,-33.8663
385,-615,13.4591,33.4235,0.00611721,0.0235892,-0.00686445,0.0259635,0.00374294,-1.2378,0.0162061,0.0125698,1609,1639,13.459,-33.4235
392,-615,13.476,33.0101,0.00500823,0.0188674,-0.00575665,0.0209466,0.00292903,-1.22419,0.0130977,0.0100846,1616,1639,13.4759,-33.0101
399,-615,13.4762,32.6018,0.00402981,0.0146,-0.00465162,0.0163555,0.00227433,-1.20993,0.0102302,0.0115822,1623,1639,13.4762,-32.6018
406,-615,13.4801,32.2056,0.00316305,0.0110139,-0.00368785,0.0124745,0.00170245,-1.1937,0.00781095,0.0108231,1630,1639,13.4801,-32.2055
413,-615,13.4749,31.7975,0.00251606,0.00828772,-0.00294972,0.00952849,0.00127529,-1.17262,0.00597279,0.0124619,1637,1639,13.4749,-31.7975
420,-615,13.4762,31.3732,0.00201582,0.00610776,-0.00229573,0.00713691,0.000986672,-1.14937,0.00446553,0.0145916,1644,1639,13.4762,-31.3732
427,-615,13.4772,30.9188,0.00145681,0.00405645,-0.00161527,0.00482994,0.000683316,-1.1242,0.00301809,0.0156046,1651,1639,13.4772,-30.9188
434,-615,13.4792,30.4855,0.00118999,0.00269902,-0.00135707,0.00349723,0.000391786,-1.03911,0.00221248,0.0144524,1658,1639,13.4792,-30.4855
441,-615,13.4761,30.0388,0.00124727,0.00181529,-0.0012203,0.0027842,0.000278365,-0.899732,0.00177065,0.0142627,1665,1639,13.476,-30.0388
448,-615,13.4655,29.6085,0.00122686,0.00121409,-0.000963702,0.0021842,0.000256753,-0.782086,0.00137854,0.0145646,1672,1639,13.4655,-29.6085
455,-615,13.457,29.1533,0.00110204,0.000593491,-0.000837196,0.00172272,-2.71935e-05,-0.637964,0.00115765,0.0135168,1679,1639,13.457,-29.1533
462,-615,13.4385,28.7076,0.00100855,-0.000283077,-0.000679063,0.00129986,-0.000574387,-0.405245,0.00110879,0.014292,1686,1639,13.4385,-28.7077
469,-615,13.4174,28.2302,0.000899869,-0.00133055,-0.000515884,0.00101341,-0.0014441,-0.216636,0.00142609,0.0127232,1693,1639,13.4174,-28.2302
476,-615,13.3961,27.7729,0.000773883,-0.00238066,-0.000254963,0.000794357,-0.00240113,-0.0801309,0.00192109,0.0116773,1700,1639,13.3961,-27.7729
483,-615,13.4265,27.2623,0.000410816,-0.003606,5.52725e-05,0.000411577,-0.00360676,0.0137568,0.00255278,0.0202268,1707,1639,13.4265,-27.2623
490,-615,13.4143,26.8046,-6.59601e-05,-0.00466512,0.000468518,-1.87173e-05,-0.00471237,0.100495,0.00313536,0.0288896,1714,1639,13.4143,-26.8045
497,-615,13.3192,26.4875,-0.000596851,-0.00570776,0.000724644,-0.000496095,-0.00580852,0.138157,0.00371803,0.0399386,1721,1639,13.3192,-26.4876
504,-615,13.3491,26.1111,0,0,0,0,0,0,0,-1,1728,1639,13.3491,-26.1111
511,-615,12.9941,24.9858,0,0,0,0,0,0,0,-1,1735,1639,12.9941,-24.9858
518,-615,13.2416,9.81812,0,0,0,0,0,0,0,-1,1742,1639,13.2416,-9.81813
525,-615,4.37524,3.90491,0,0,0,0,0,0,0,-1,1749,1639,4.37518,-3.90495
532,-615,7.3645,0.848145,0,0,0,0,0,0,0,-1,1756,1639,7.36451,-0.848093
539,-615,12.8112,-0.0476074,0,0,0,0,0,0,0,-1,1763,1639,12.8111,0.0475553
546,-615,8.33813,2.94556,0,0,0,0,0,0,0,-1,1770,1639,8.33813,-2.9455
553,-615,5.82532,-2.04199,0,0,0,0,0,0,0,-1,1777,1639,5.82534,2.04195
560,-615,0,0,0,0,0,0,0,0,0,-1,1784,1639,0,0
567,-615,0,0,0,0,0,0,0,0,0,-1,1791,1639,0,0
574,-615,0,0,0,0,0,0,0,0,0,-1,1798,1639,0,0
581,-615,0,0,0,0,0,0,0,0,0,-1,1805,1639,0,0
588,-615,0,0,0,0,0,0,0,0,0,-1,1812,1639,0,0
595,-615,0,0,0,0,0,0,0,0,0,-1,1819,1639,0,0
602,-615,0,0,0,0,0,0,0,0,0,-1,1826,1639,0,0
609,-615,0,0,0,0,0,0,0,0,0,-1,1833,1639,0,0
616,-615,0,0,0,0,0,0,0,0,0,-1,1840,1639,0,0
623,-615,0,0,0,0,0,0,0,0,0,-1,1847,1639,0,0
630,-615,0,0,0,0,0,0,0,0,0,-1,1854,1639,0,0
637,-615,0,0,0,0,0,0,0,0,0,-1,1861,1639,0,0
644,-615,0,0,0,0,0,0,0,0,0,-1,1868,1639,0,0
651,-615,0,0,0,0,0,0,0,0,0,-1,1875,1639,0,0
658,-615,0,0,0,0,0,0,0,0,0,-1,1882,1639,0,0
665,-615,0,0,0,0,0,0,0,0,0,-1,1889,1639,0,0
672,-615,0,0,0,0,0,0,0,0,0,-1,1896,1639,0,0
679,-615,0,0,0,0,0,0,0,0,0,-1,1903,1639,0,0
686,-615,0,0,0,0,0,0,0,0,0,-1,1910,1639,0,0
693,-615,0,0,0,0,0,0,0,0,0,-1,1917,1639,0,0
700,-615,0,0,0,0,0,0,0,0,0,-1,1924,1639,0,0
707,-615,0,0,0,0,0,0,0,0,0,-1,1931,1639,0,0
714,-615,0,0,0,0,0,0,0,0,0,-1,1938,1639,0,0
721,-615,0,0,0,0,0,0,0,0,0,-1,1945,1639,0,0
728,-615,0,0,0,0,0,0,0,0,0,-1,1952,1639,0,0
735,-615,0,0,0,0,0,0,0,0,0,-1,1959,1639,0,0
742,-615,0,0,0,0,0,0,0,0,0,-1,1966,1639,0,0
749,-615,0,0,0,0,0,0,0,0,0,-1,1973,1639,0,0
756,-615,0,0,0,0,0,0,0,0,0,-1,1980,1639,0,0
763,-615,0,0,0,0,0,0,0,0,0,-1,1987,1639,0,0
770,-615,0,0,0,0,0,0,0,0,0,-1,1994,1639,0,0
777,-615,0,0,0,0,0,0,0,0,0,-1,2001,1639,0,0
784,-615,0,0,0,0,0,0,0,0,0,-1,2008,1639,0,0
791,-615,0,0,0,0,0,0,0,0,0,-1,2015,1639,0,0
798,-615,0,0,0,0,0,0,0,0,0,-1,2022,1639,0,0
805,-615,0,0,0,0,0,0,0,0,0,-1,2029,1639,0,0
812,-615,0,0,0,0,0,0,0,0,0,-1,2036,1639,0,0
-700,-622,0,0,0,0,0,0,0,0,0,-1,524,1646,0,0
-693,-622,0,0,0,0,0,0,0,0,0,-1,531,1646,0,0
-686,-622,0,0,0,0,0,0,0,0,0,-1,538,1646,0,0
-679,-622,0,0,0,0,0,0,0,0,0,-1,545,1646,0,0
-672,-622,0,0,0,0,0,0,0,0,0,-1,552,1646,0,0
-665,-622,0,0,0,0,0,0,0,0,0,-1,559,1646,0,0
-658,-622,0,0,0,0,0,0,0,0,0,-1,566,1646,0,0
-651,-622,0,0,0,0,0,0,0,0,0,-1,573,1646,0,0
-644,-622,0,0,0,0,0,0,0,0,0,-1,580,1646,0,0
-637,-622,0,0,0,0,0,0,0,0,0,-1,587,1646,0,0
-630,-622,0,0,0,0,0,0,0,0,0,-1,594,1646,0,0
-623,-622,0,0,0,0,0,0,0,0,0,-1,601,1646,0,0
-616,-622,0,0,0,0,0,0,0,0,0,-1,608,1646,0,0
-609,-622,0,0,0,0,0,0,0,0,0,-1,615,1646,0,0
-602,-622,0,0,0,0,0,0,0,0,0,-1,622,1646,0,0
-595,-622,0,0,0,0,0,0,0,0,0,-1,629,1646,0,0
-588,-622,0,0,0,0,0,0,0,0,0,-1,636,1646,0,0
-581,-622,0,0,0,0,0,0,0,0,0,-1,643,1646,0,0
-574,-622,0,0,0,0,0,0,0,0,0,-1,650,1646,0,0
-567,-622,0,0,0,0,0,0,0,0,0,-1,657,1646,0,0
-560,-622,0,0,0,0,0,0,0,0,0,-1,664,1646,0,0
-553,-622,0,0,0,0,0,0,0,0,0,-1,671,1646,0,0
-546,-622,0,0,0,0,0,0,0,0,0,-1,678,1646,0,0
-539,-622,0,0,0,0,0,0,0,0,0,-1,685,1646,0,0
-532,-622,0,0,0,0,0,0,0,0,0,-1,692,1646,0,0
-525,-622,0,0,0,0,0,0,0,0,0,-1,699,1646,0,0
-518,-622,0,0,0,0,0,0,0,0,0,-1,706,1646,0,0
-511,-622,0,0,0,0,0,0,0,0,0,-1,713,1646,0,0
-504,-622,0,0,0,0,0,0,0,0,0,-1,720,1646,0,0
-497,-622,0,0,0,0,0,0,0,0,0,-1,727,1646,0,0
-490,-622,0,0,0,0,0,0,0,0,0,-1,734,1646,0,0
-483,-622,0,0,0,0,0,0,0,0,0,-1,741,1646,0,0
-476,-622,0,0,0,0,0,0,0,0,0,-1,748,1646,0,0
-469,-622,0,0,0,0,0,0,0,0,0,-1,755,1646,0,0
-462,-622,0,0,0,0,0,0,0,0,0,-1,762,1646,0,0
-455,-622,0,0,0,0,0,0,0,0,0,-1,769,1646,0,0
-448,-622,0,0,0,0,0,0,0,0,0,-1,776,1646,0,0
-441,-622,0,0,0,0,0,0,0,0,0,-1,783,1646,0,0
-434,-622,0,0,0,0,0,0,0,0,0,-1,790,1646,0,0
-427,-622,-7.62891,3.48096,0,0,0,0,0,0,0,-1,797,1646,-7.62892,-3.48092
-420,-622,-9.35791,1.77185,0,0,0,0,0,0,0,-1,804,1646,-9.35789,-1.77183
-413,-622,-8.46075,1.96777,0,0,0,0,0,0,0,-1,811,1646,-8.46074,-1.96774
-406,-622,-4.44318,2.16858,0,0,0,0,0,0,0,-1,818,1646,-4.44315,-2.16859
-399,-622,-7.06976,1.51001,0,0,0,0,0,0,0,-1,825,1646,-7.06976,-1.51005
-392,-622,3.89551,5.85376,0,0,0,0,0,0,0,-1,832,1646,3.8955,-5.85379
-385,-622,2.00543,14.0448,0,0,0,0,0,0,0,-1,839,1646,2.00544,-14.0448
-378,-622,1.49036,15.3436,0,0,0,0,0,0,0,-1,846,1646,1.49033,-15.3436
-371,-622,3.23883,20.4496,0,0,0,0,0,0,0,-1,853,1646,3.23886,-20.4496
-364,-622,3.13812,25.6898,0,0,0,0,0,0,0,-1,860,1646,3.13812,-25.6898
-357,-622,3.69189,25.4165,0,0,0,0,0,0,0,-1,867,1646,3.69192,-25.4165
-350,-622,3.55219,26.5331,0,0,0,0,0,0,0,-1,874,1646,3.55217,-26.5331
-343,-622,3.53754,27.0575,-0.00425812,-0.00133338,0.00101638,-0.00101486,-0.00457664,1.26711,0.00277536,0.0238724,881,1646,3.53751,-27.0575
-336,-622,3.49976,27.5544,-0.00272556,-0.000737582,0.00104959,-0.000286005,-0.00317714,1.1645,0.00202949,0.00956944,888,1646,3.49976,-27.5544
-329,-622,3.46051,28.0394,-0.00162349,-0.000128464,0.00107084,0.000429958,-0.00218191,1.09011,0.00161709,0.00894105,895,1646,3.46053,-28.0394
-322,-622,3.44678,28.5247,-0.000990167,0.000533129,0.00102153,0.00104569,-0.00150273,1.10574,0.0014792,0.0104793,902,1646,3.4468,-28.5247
-315,-622,3.43445,29.0128,-0.000535803,0.00104317,0.00100426,0.00153112,-0.00102375,1.11851,0.00148471,0.0136592,909,1646,3.43442,-29.0128
-308,-622,3.43488,29.4722,-3.04435e-05,0.00156494,0.00102623,0.00206704,-0.000532543,1.11577,0.00158564,0.0143698,916,1646,3.4349,-29.4722
-301,-622,3.42816,29.9318,0.000608811,0.00210247,0.00121438,0.00278129,-7.00075e-05,1.06108,0.00187796,0.0139786,923,1646,3.42818,-29.9317
-294,-622,3.39569,30.4336,0.00127393,0.00278573,0.00153345,0.00373947,0.00032019,1.01439,0.0023934,0.0104779,930,1646,3.3957,-30.4335
-287,-622,3.38232,30.879,0.00205399,0.00362845,0.00197223,0.00496476,0.000717678,0.975288,0.00309845,0.00789578,937,1646,3.38234,-30.879
-280,-622,3.3653,31.311,0.00291854,0.00444859,0.00249965,0.00629767,0.00106946,0.933898,0.00389126,0.00908502,944,1646,3.3653,-31.3111
-273,-622,3.3692,31.7454,0.00382335,0.0052299,0.00308786,0.00769355,0.0013597,0.897366,0.00474124,0.0135048,951,1646,3.36918,-31.7453
-266,-622,3.35413,32.2081,0.00472932,0.00614398,0.00371387,0.00921728,0.00165602,0.879499,0.00567398,0.0130329,958,1646,3.35413,-32.2082
-259,-622,3.36005,32.6798,0.00569289,0.00714387,0.00440028,0.0108781,0.0019587,0.8671,0.00669534,0.012347,965,1646,3.36004,-32.6798
-252,-622,3.36627,33.0856,0.00672572,0.00832916,0.00507244,0.0126628,0.00239204,0.863777,0.0077683,0.0129902,972,1646,3.3663,-33.0856
-245,-622,3.39569,33.4968,0.00762004,0.00943143,0.0056181,0.0142164,0.0028351,0.865316,0.00868813,0.0114486,979,1646,3.39571,-33.4968
-238,-622,3.39246,33.9197,0.00829179,0.010228,0.00595385,0.0152919,0.00322784,0.865993,0.00930715,0.0161379,986,1646,3.39243,-33.9197
-231,-622,3.50702,34.4612,0.00875288,0.0111534,0.0062381,0.0163057,0.00360063,0.880442,0.00989116,0.0294562,993,1646,3.50704,-34.4612
-224,-622,3.5921,34.8113,0.00896043,0.0120424,0.00626522,0.0169533,0.00404945,0.905982,0.0102233,0.0446892,1000,1646,3.59212,-34.8112
-217,-622,3.73572,35.2705,0,0,0,0,0,0,0,-1,1007,1646,3.73575,-35.2705
-210,-622,3.87927,28.0903,0,0,0,0,0,0,0,-1,1014,1646,3.87925,-28.0903
-203,-622,4.21375,20.9574,0,0,0,0,0,0,0,-1,1021,1646,4.21375,-20.9574
-196,-622,4.18518,21.2491,0,0,0,0,0,0,0,-1,1028,1646,4.18521,-21.2491
-189,-622,4.98254,25.8979,0,0,0,0,0,0,0,-1,1035,1646,4.98255,-25.8979
-182,-622,2.21411,20.6752,0,0,0,0,0,0,0,-1,1042,1646,2.21416,-20.6751
-175,-622,2.56091,11.0195,0,0,0,0,0,0,0,-1,1049,1646,2.56095,-11.0195
-168,-622,5.58191,36.0128,0,0,0,0,0,0,0,-1,1056,1646,5.58189,-36.0128
-161,-622,5.81848,37.2841,0,0,0,0,0,0,0,-1,1063,1646,5.81853,-37.284
-154,-622,6.2561,37.6737,0,0,0,0,0,0,0,-1,1070,1646,6.25613,-37.6737
-147,-622,6.5719,37.891,0,0,0,0,0,0,0,-1,1077,1646,6.57185,-37.891
-140,-622,3.27515,16.0353,0,0,0,0,0,0,0,-1,1084,1646,3.27519,-16.0353
-133,-622,3.09644,17.677,0,0,0,0,0,0,0,-1,1091,1646,3.09638,-17.677
-126,-622,3.5061,19.5251,0,0,0,0,0,0,0,-1,1098,1646,3.50616,-19.5252
-119,-622,4.06384,13.1715,0,0,0,0,0,0,0,-1,1105,1646,4.06379,-13.1716
-112,-622,4.33276,14.6605,0,0,0,0,0,0,0,-1,1112,1646,4.33281,-14.6605
-105,-622,0.306519,4.38159,0,0,0,0,0,0,0,-1,1119,1646,0.306536,-4.38159
-98,-622,-0.510376,3.5033,0,0,0,0,0,0,0,-1,1126,1646,-0.510393,-3.50324
-91,-622,-1.146,0.975952,0,0,0,0,0,0,0,-1,1133,1646,-1.14599,-0.97597
-84,-622,-2.04895,1.31787,0,0,0,0,0,0,0,-1,1140,1646,-2.0489,-1.31781
-77,-622,-1.80627,0.332275,0,0,0,0,0,0,0,-1,1147,1646,-1.80622,-0.33223
-70,-622,-3.65588,2.28149,0,0,0,0,0,0,0,-1,1154,1646,-3.65589,-2.28155
-63,-622,-2.49683,1.27087,0,0,0,0,0,0,0,-1,1161,1646,-2.49679,-1.27093
-56,-622,-2.44238,-0.575562,0,0,0,0,0,0,0,-1,1168,1646,-2.44242,0.575508
-49,-622,-2.41089,1.38818,0,0,0,0,0,0,0,-1,1175,1646,-2.41088,-1.38815
-42,-622,-2.71497,2.85242,0,0,0,0,0,0,0,-1,1182,1646,-2.71491,-2.85247
-35,-622,-3.0177,4.25842,0,0,0,0,0,0,0,-1,1189,1646,-3.01773,-4.25838
-28,-622,-0.896606,0.678833,0,0,0,0,0,0,0,-1,1196,1646,-0.89661,-0.678835
-21,-622,16.4141,36.2849,0,0,0,0,0,0,0,-1,1203,1646,16.4141,-36.285
-14,-622,12.7726,35.3608,0,0,0,0,0,0,0,-1,1210,1646,12.7726,-35.3609
-7,-622,13.2388,35.5912,0,0,0,0,0,0,0,-1,1217,1646,13.2388,-35.5912
0,-622,0,0,0,0,0,0,0,0,0,-1,1224,1646,0,0
7,-622,0,0,0,0,0,0,0,0,0,-1,1231,1646,0,0
14,-622,0,0,0,0,0,0,0,0,0,-1,1238,1646,0,0
21,-622,0,0,0,0,0,0,0,0,0,-1,1245,1646,0,0
28,-622,0,0,0,0,0,0,0,0,0,-1,1252,1646,0,0
35,-622,0,0,0,0,0,0,0,0,0,-1,1259,1646,0,0
42,-622,0,0,0,0,0,0,0,0,0,-1,1266,1646,0,0
49,-622,0,0,0,0,0,0,0,0,0,-1,1273,1646,0,0
56,-622,0,0,0,0,0,0,0,0,0,-1,1280,1646,0,0
63,-622,0,0,0,0,0,0,0,0,0,-1,1287,1646,0,0
70,-622,0,0,0,0,0,0,0,0,0,-1,1294,1646,0,0
77,-622,0,0,0,0,0,0,0,0,0,-1,1301,1646,0,0
84,-622,0,0,0,0,0,0,0,0,0,-1,1308,1646,0,0
91,-622,0,0,0,0,0,0,0,0,0,-1,1315,1646,0,0
98,-622,0,0,0,0,0,0,0,0,0,-1,1322,1646,0,0
105,-622,0,0,0,0,0,0,0,0,0,-1,1329,1646,0,0
112,-622,0,0,0,0,0,0,0,0,0,-1,1336,1646,0,0
119,-622,0,0,0,0,0,0,0,0,0,-1,1343,1646,0,0
126,-622,3.93164,48.0083,0,0,0,0,0,0,0,-1,1350,1646,3.93169,-48.0083
133,-622,3.1062,48.9863,0,0,0,0,0,0,0,-1,1357,1646,3.10626,-48.9864
140,-622,1.20105,48.7673,0,0,0,0,0,0,0,-1,1364,1646,1.20099,-48.7673
147,-622,0.778931,50.4702,0,0,0,0,0,0,0,-1,1371,1646,0.778959,-50.4703
154,-622,17.2712,25.0475,0,0,0,0,0,0,0,-1,1378,1646,17.2712,-25.0474
161,-622,10.6884,6.46448,0,0,0,0,0,0,0,-1,1385,1646,10.6883,-6.46442
168,-622,12.2402,5.18091,0,0,0,0,0,0,0,-1,1392,1646,12.2403,-5.1809
175,-622,5.64355,-1.77075,0,0,0,0,0,0,0,-1,1399,1646,5.64351,1.77077
182,-622,5.88586,-1.32251,0,0,0,0,0,0,0,-1,1406,1646,5.88587,1.32256
189,-622,5.97986,-1.18005,0,0,0,0,0,0,0,-1,1413,1646,5.97986,1.18003
196,-622,5.85022,-0.244507,0,0,0,0,0,0,0,-1,1420,1646,5.85026,0.244478
203,-622,5.25159,0.138794,0,0,0,0,0,0,0,-1,1427,1646,5.25162,-0.138822
210,-622,6.66833,0.0397949,0,0,0,0,0,0,0,-1,1434,1646,6.6684,-0.0398278
217,-622,6.12061,0.0506592,0,0,0,0,0,0,0,-1,1441,1646,6.12058,-0.0507181
224,-622,5.57275,0.0616455,0,0,0,0,0,0,0,-1,1448,1646,5.57276,-0.0616084
231,-622,5.31348,1.3949,0,0,0,0,0,0,0,-1,1455,1646,5.31342,-1.39495
238,-622,3.76477,2.90686,0,0,0,0,0,0,0,-1,1462,1646,3.7648,-2.90686
245,-622,5.13794,2.67993,0,0,0,0,0,0,0,-1,1469,1646,5.13796,-2.67992
252,-622,6.66528,2.53992,0,0,0,0,0,0,0,-1,1476,1646,6.66522,-2.53991
259,-622,8.93787,3.31458,0,0,0,0,0,0,0,-1,1483,1646,8.93791,-3.31454
266,-622,5.72644,3.11926,0,0,0,0,0,0,0,-1,1490,1646,5.72647,-3.1192
273,-622,7.28076,3.61218,0,0,0,0,0,0,0,-1,1497,1646,7.28071,-3.61212
280,-622,8.43127,4.4447,0,0,0,0,0,0,0,-1,1504,1646,8.43123,-4.44467
287,-622,8.60315,5.94617,0,0,0,0,0,0,0,-1,1511,1646,8.60319,-5.94622
294,-622,7.62756,11.5143,0,0,0,0,0,0,0,-1,1518,1646,7.62762,-11.5143
301,-622,7.36548,11.6569,0,0,0,0,0,0,0,-1,1525,1646,7.36549,-11.6569
308,-622,7.10339,11.7994,0,0,0,0,0,0,0,-1,1532,1646,7.10335,-11.7995
315,-622,8.28687,16.5842,0,0,0,0,0,0,0,-1,1539,1646,8.28689,-16.5843
322,-622,7.43689,20.5786,0,0,0,0,0,0,0,-1,1546,1646,7.43685,-20.5786
329,-622,9.76477,26.4202,0,0,0,0,0,0,0,-1,1553,1646,9.7648,-26.4202
336,-622,10.4526,28.8552,0,0,0,0,0,0,0,-1,1560,1646,10.4526,-28.8552
343,-622,12.5182,37.4672,0,0,0,0,0,0,0,-1,1567,1646,12.5182,-37.4672
350,-622,12.713,36.4535,0,0,0,0,0,0,0,-1,1574,1646,12.713,-36.4535
357,-622,12.7865,35.575,0,0,0,0,0,0,0,-1,1581,1646,12.7865,-35.575
364,-622,12.9124,34.9454,0.00781599,0.0277055,-0.00753024,0.0302349,0.00528667,-1.24675,0.0186459,0.0363874,1588,1646,12.9123,-34.9454
371,-622,13.0345,34.2937,0.00694692,0.0246057,-0.00677916,0.0269081,0.00464459,-1.2434,0.0166084,0.0219838,1595,1646,13.0345,-34.2937
378,-622,13.0648,33.8398,0.00586861,0.0212995,-0.00597678,0.0233436,0.00382444,-1.24125,0.0144572,0.0114439,1602,1646,13.0648,-33.8399
385,-622,13.0756,33.4181,0.00489851,0.0178477,-0.00516622,0.0196563,0.00308998,-1.23406,0.0122053,0.00993543,1609,1646,13.0755,-33.418
392,-622,13.0613,33.0286,0.00399937,0.0143088,-0.00434284,0.0158943,0.00241381,-1.22073,0.0098903,0.0107186,1616,1646,13.0612,-33.0285
399,-622,13.0396,32.6215,0.00315014,0.0109695,-0.00347363,0.0122897,0.00182994,-1.20759,0.00765642,0.0117343,1623,1646,13.0395,-32.6214
406,-622,13.0432,32.2014,0.00240176,0.00813924,-0.00270397,0.00921273,0.00132828,-1.19288,0.00575042,0.0147459,1630,1646,13.0432,-32.2014
413,-622,13.0337,31.7817,0.00184215,0.00593898,-0.00208257,0.00681171,0.000969422,-1.17396,0.00425497,0.016402,1637,1646,13.0337,-31.7817
420,-622,13.0469,31.3464,0.00140102,0.00412879,-0.00153179,0.00481589,0.000713914,-1.14914,0.00300106,0.0165633,1644,1646,13.0469,-31.3464
427,-622,13.0415,30.9149,0.000965078,0.00245069,-0.000986469,0.00294275,0.000473024,-1.10811,0.00182471,0.0136003,1651,1646,13.0415,-30.9149
434,-622,13.0363,30.4854,0.000773061,0.00136753,-0.0007675,0.00189334,0.000247248,-0.970142,0.00118841,0.0136164,1658,1646,13.0363,-30.4854
441,-622,13.0308,30.033,0.00082436,0.000714131,-0.000655735,0.00142729,0.000111199,-0.743472,0.000916713,0.0138111,1665,1646,13.0307,-30.0329
448,-622,13.0096,29.6147,0.000833745,0.000200584,-0.000476142,0.00108895,-5.46176e-05,-0.492014,0.000744838,0.0133835,1672,1646,13.0096,-29.6147
455,-622,12.9886,29.1661,0.00084821,-0.000299115,-0.000400906,0.000974415,-0.00042532,-0.304978,0.000828605,0.0156982,1679,1646,12.9886,-29.1661
462,-622,12.9832,28.7042,0.000919027,-0.00105074,-0.000361525,0.000983284,-0.001115,-0.175901,0.00121224,0.0170616,1686,1646,12.9832,-28.7042
469,-622,12.9615,28.2424,0.000995586,-0.00195188,-0.000325973,0.00103121,-0.0019875,-0.108842,0.00177176,0.0177803,1693,1646,12.9616,-28.2424
476,-622,13.0299,27.8048,0.00108424,-0.00285697,-0.000155442,0.00109036,-0.00286309,-0.0393587,0.00235777,0.0273474,1700,1646,13.0299,-27.8048
483,-622,13.0072,27.4409,0.000887306,-0.00391011,5.88939e-05,0.000888029,-0.00391084,0.0122737,0.00294816,0.0421467,1707,1646,13.0072,-27.4409
490,-622,13.0403,26.8676,0,0,0,0,0,0,0,-1,1714,1646,13.0403,-26.8675
497,-622,12.9501,26.8217,0,0,0,0,0,0,0,-1,1721,1646,12.95,-26.8216
504,-622,10.8306,19.8021,0,0,0,0,0,0,0,-1,1728,1646,10.8306,-19.8022
511,-622,5.29004,4.14587,0,0,0,0,0,0,0,-1,1735,1646,5.29008,-4.14589
518,-622,5.6001,1.55359,0,0,0,0,0,0,0,-1,1742,1646,5.60015,-1.5536
525,-622,5.83093,2.01807,0,0,0,0,0,0,0,-1,1749,1646,5.83097,-2.01802
532,-622,5.44202,0.57373,0,0,0,0,0,0,0,-1,1756,1646,5.44196,-0.573705
539,-622,9.32129,1.06116,0,0,0,0,0,0,0,-1,1763,1646,9.32131,-1.0612
546,-622,6.50977,-3.45618,0,0,0,0,0,0,0,-1,1770,1646,6.50981,3.4562
553,-622,0,0,0,0,0,0,0,0,0,-1,1777,1646,0,0
560,-622,0,0,0,0,0,0,0,0,0,-1,1784,1646,0,0
567,-622,0,0,0,0,0,0,0,0,0,-1,1791,1646,0,0
574,-622,0,0,0,0,0,0,0,0,0,-1,1798,1646,0,0
581,-622,0,0,0,0,0,0,0,0,0,-1,1805,1646,0,0
588,-622,0,0,0,0,0,0,0,0,0,-1,1812,1646,0,0
595,-622,0,0,0,0,0,0,0,0,0,-1,1819,1646,0,0
602,-622,0,0,0,0,0,0,0,0,0,-1,1826,1646,0,0
609,-622,0,0,0,0,0,0,0,0,0,-1,1833,1646,0,0
616,-622,0,0,0,0,0,0,0,0,0,-1,1840,1646,0,0
623,-622,0,0,0,0,0,0,0,0,0,-1,1847,1646,0,0
630,-622,0,0,0,0,0,0,0,0,0,-1,1854,1646,0,0
637,-622,0,0,0,0,0,0,0,0,0,-1,1861,1646,0,0
644,-622,0,0,0,0,0,0,0,0,0,-1,1868,1646,0,0
651,-622,0,0,0,0,0,0,0,0,0,-1,1875,1646,0,0
658,-622,0,0,0,0,0,0,0,0,0,-1,1882,1646,0,0
665,-622,0,0,0,0,0,0,0,0,0,-1,1889,1646,0,0
672,-622,0,0,0,0,0,0,0,0,0,-1,1896,1646,0,0
679,-622,0,0,0,0,0,0,0,0,0,-1,1903,1646,0,0
686,-622,0,0,0,0,0,0,0,0,0,-1,1910,1646,0,0
693,-622,0,0,0,0,0,0,0,0,0,-1,1917,1646,0,0
700,-622,0,0,0,0,0,0,0,0,0,-1,1924,1646,0,0
707,-622,0,0,0,0,0,0,0,0,0,-1,1931,1646,0,0
714,-622,0,0,0,0,0,0,0,0,0,-1,1938,1646,0,0
721,-622,0,0,0,0,0,0,0,0,0,-1,1945,1646,0,0
728,-622,0,0,0,0,0,0,0,0,0,-1,1952,1646,0,0
735,-622,0,0,0,0,0,0,0,0,0,-1,1959,1646,0,0
742,-622,0,0,0,0,0,0,0,0,0,-1,1966,1646,0,0
749,-622,0,0,0,0,0,0,0,0,0,-1,1973,1646,0,0
756,-622,0,0,0,0,0,0,0,0,0,-1,1980,1646,0,0
763,-622,0,0,0,0,0,0,0,0,0,-1,1987,1646,0,0
770,-622,0,0,0,0,0,0,0,0,0,-1,1994,1646,0,0
777,-622,0,0,0,0,0,0,0,0,0,-1,2001,1646,0,0
784,-622,0,0,0,0,0,0,0,0,0,-1,2008,1646,0,0
791,-622,0,0,0,0,0,0,0,0,0,-1,2015,1646,0,0
798,-622,0,0,0,0,0,0,0,0,0,-1,2022,1646,0,0
805,-622,0,0,0,0,0,0,0,0,0,-1,2029,1646,0,0
812,-622,0,0,0,0,0,0,0,0,0,-1,2036,1646,0,0
-700,-629,0,0,0,0,0,0,0,0,0,-1,524,1653,0,0
-693,-629,0,0,0,0,0,0,0,0,0,-1,531,1653,0,0
-686,-629,0,0,0,0,0,0,0,0,0,-1,538,1653,0,0
-679,-629,0,0,0,0,0,0,0,0,0,-1,545,1653,0,0
-672,-629,0,0,0,0,0,0,0,0,0,-1,552,1653,0,0
-665,-629,0,0,0,0,0,0,0,0,0,-1,559,1653,0,0
-658,-629,0,0,0,0,0,0,0,0,0,-1,566,1653,0,0
-651,-629,0,0,0,0,0,0,0,0,0,-1,573,1653,0,0
-644,-629,0,0,0,0,0,0,0,0,0,-1,580,1653,0,0
-637,-629,0,0,0,0,0,0,0,0,0,-1,587,1653,0,0
-630,-629,0,0,0,0,0,0,0,0,0,-1,594,1653,0,0
-623,-629,0,0,0,0,0,0,0,0,0,-1,601,1653,0,0
-616,-629,0,0,0,0,0,0,0,0,0,-1,608,1653,0,0
-609,-629,0,0,0,0,0,0,0,0,0,-1,615,1653,0,0
-602,-629,0,0,0,0,0,0,0,0,0,-1,622,1653,0,0
-595,-629,0,0,0,0,0,0,0,0,0,-1,629,1653,0,0
-588,-629,0,0,0,0,0,0,0,0,0,-1,636,1653,0,0
-581,-629,0,0,0,0,0,0,0,0,0,-1,643,1653,0,0
-574,-629,0,0,0,0,0,0,0,0,0,-1,650,1653,0,0
-567,-629,0,0,0,0,0,0,0,0,0,-1,657,1653,0,0
-560,-629,0,0,0,0,0,0,0,0,0,-1,664,1653,0,0
-553,-629,0,0,0,0,0,0,0,0,0,-1,671,1653,0,0
-546,-629,0,0,0,0,0,0,0,0,0,-1,678,1653,0,0
-539,-629,0,0,0,0,0,0,0,0,0,-1,685,1653,0,0
-532,-629,0,0,0,0,0,0,0,0,0,-1,692,1653,0,0
-525,-629,0,0,0,0,0,0,0,0,0,-1,699,1653,0,0
-518,-629,0,0,0,0,0,0,0,0,0,-1,706,1653,0,0
-511,-629,0,0,0,0,0,0,0,0,0,-1,713,1653,0,0
-504,-629,0,0,0,0,0,0,0,0,0,-1,720,1653,0,0
-497,-629,0,0,0,0,0,0,0,0,0,-1,727,1653,0,0
-490,-629,0,0,0,0,0,0,0,0,0,-1,734,1653,0,0
-483,-629,0,0,0,0,0,0,0,0,0,-1,741,1653,0,0
-476,-629,0,0,0,0,0,0,0,0,0,-1,748,1653,0,0
-469,-629,0,0,0,0,0,0,0,0,0,-1,755,1653,0,0
-462,-629,0,0,0,0,0,0,0,0,0,-1,762,1653,0,0
-455,-629,0,0,0,0,0,0,0,0,0,-1,769,1653,0,0
-448,-629,0,0,0,0,0,0,0,0,0,-1,776,1653,0,0
-441,-629,0,0,0,0,0,0,0,0,0,-1,783,1653,0,0
-434,-629,0,0,0,0,0,0,0,0,0,-1,790,1653,0,0
-427,-629,0,0,0,0,0,0,0,0,0,-1,797,1653,0,0
-420,-629,-3.87103,3.37634,0,0,0,0,0,0,0,-1,804,1653,-3.87101,-3.37633
-413,-629,-5.69751,1.33582,0,0,0,0,0,0,0,-1,811,1653,-5.69754,-1.3358
-406,-629,2.85406,6.01501,0,0,0,0,0,0,0,-1,818,1653,2.85405,-6.01507
-399,-629,-0.455627,10.8687,0,0,0,0,0,0,0,-1,825,1653,-0.455625,-10.8687
-392,-629,1.15369,11.1295,0,0,0,0,0,0,0,-1,832,1653,1.1537,-11.1295
-385,-629,1.81976,11.6935,0,0,0,0,0,0,0,-1,839,1653,1.81975,-11.6935
-378,-629,2.19452,14.7941,0,0,0,0,0,0,0,-1,846,1653,2.19451,-14.7941
-371,-629,3.60114,14.7299,0,0,0,0,0,0,0,-1,853,1653,3.60113,-14.7299
-364,-629,3.26898,21.0801,0,0,0,0,0,0,0,-1,860,1653,3.26895,-21.08
-357,-629,4.38782,16.3444,0,0,0,0,0,0,0,-1,867,1653,4.38783,-16.3443
-350,-629,4.06018,26.6084,0,0,0,0,0,0,0,-1,874,1653,4.06021,-26.6084
-343,-629,4.00598,27.1196,-0.00493267,-0.00157679,0.0015189,-0.000991433,-0.00551803,1.20295,0.00339679,0.0373426,881,1653,4.00601,-27.1197
-336,-629,3.95575,27.569,-0.00342946,-0.000878187,0.00131004,-0.000325309,-0.00398234,1.17144,0.00255337,0.0195559,888,1653,3.95575,-27.569
-329,-629,3.97009,28.0625,-0.00248241,-9.33664e-05,0.00114382,0.000365956,-0.00294173,1.18894,0.00209383,0.0119847,895,1653,3.9701,-28.0625
-322,-629,3.94177,28.5413,-0.00199507,0.00055545,0.000921661,0.000853641,-0.00229326,1.25789,0.00187917,0.0113932,902,1653,3.94176,-28.5413
-315,-629,3.89825,29.0258,-0.00170017,0.000943861,0.000704894,0.00112004,-0.00187635,1.32587,0.00174824,0.0150063,909,1653,3.89828,-29.0258
-308,-629,3.89221,29.4946,-0.00136447,0.00136659,0.000561372,0.00147747,-0.00147536,1.37578,0.00170482,0.0131034,916,1653,3.89223,-29.4947
-301,-629,3.88647,29.9963,-0.000904478,0.00173802,0.000557662,0.00185089,-0.00101734,1.3711,0.00167912,0.0120547,923,1653,3.88648,-29.9963
-294,-629,3.87555,30.4597,-0.000350904,0.00221646,0.000722562,0.00240585,-0.000540292,1.31446,0.00181106,0.0126215,930,1653,3.87557,-30.4597
-287,-629,3.85156,30.8942,0.000341199,0.00284272,0.00103641,0.00321632,-3.24014e-05,1.22482,0.0021551,0.00961761,937,1653,3.85153,-30.8941
-280,-629,3.8338,31.3328,0.00110207,0.00341469,0.00143343,0.00410006,0.000416702,1.1248,0.0026056,0.00983255,944,1653,3.83381,-31.3327
-273,-629,3.81989,31.7496,0.00191196,0.00391794,0.00189894,0.0050625,0.000767404,1.02837,0.00315051,0.0133248,951,1653,3.81986,-31.7497
-266,-629,3.80463,32.2094,0.00278485,0.00455148,0.00242615,0.00625011,0.00108622,0.959981,0.00385601,0.013588,958,1653,3.80465,-32.2093
-259,-629,3.7926,32.6877,0.00371798,0.00521496,0.00299713,0.00755565,0.00137728,0.907763,0.00464655,0.0147696,965,1653,3.79258,-32.6877
-252,-629,3.79504,33.0985,0.00468681,0.00606469,0.00351505,0.00895768,0.00179382,0.88217,0.00547273,0.011852,972,1653,3.79505,-33.0985
-245,-629,3.81134,33.5168,0.00558409,0.00687822,0.00397026,0.0102538,0.00220851,0.866177,0.00623154,0.0089293,979,1653,3.81133,-33.5168
-238,-629,3.80432,33.9393,0.00629422,0.00745654,0.0042266,0.0111417,0.00260901,0.85372,0.00672893,0.0109293,986,1653,3.8043,-33.9393
-231,-629,3.78137,34.3458,0.00675434,0.00816983,0.00436262,0.0118817,0.00304243,0.865812,0.00712688,0.0173508,993,1653,3.78134,-34.3459
-224,-629,3.90417,34.8873,0.00691187,0.00899606,0.00431784,0.0123958,0.00351215,0.903807,0.00737729,0.0224696,1000,1653,3.90417,-34.8873
-217,-629,3.86707,35.219,0.00693882,0.00994847,0.00434599,0.0130428,0.00384449,0.952066,0.00773883,0.0367237,1007,1653,3.86709,-35.219
-210,-629,4.07678,35.6938,0,0,0,0,0,0,0,-1,1014,1653,4.07679,-35.6938
-203,-629,4.04187,36.9398,0,0,0,0,0,0,0,-1,1021,1653,4.04185,-36.9398
-196,-629,4.42908,36.6891,0,0,0,0,0,0,0,-1,1028,1653,4.42903,-36.6891
-189,-629,4.2489,36.7675,0,0,0,0,0,0,0,-1,1035,1653,4.2489,-36.7675
-182,-629,4.13782,37.4226,0,0,0,0,0,0,0,-1,1042,1653,4.13779,-37.4227
-175,-629,3.93286,37.6819,0,0,0,0,0,0,0,-1,1049,1653,3.9329,-37.6819
-168,-629,5.22607,36.2272,0,0,0,0,0,0,0,-1,1056,1653,5.22602,-36.2272
-161,-629,6.27295,37.527,0,0,0,0,0,0,0,-1,1063,1653,6.27297,-37.527
-154,-629,6.43225,37.8851,0,0,0,0,0,0,0,-1,1070,1653,6.43231,-37.8851
-147,-629,6.60645,38.0795,0,0,0,0,0,0,0,-1,1077,1653,6.60649,-38.0795
-140,-629,2.34851,19.2911,0,0,0,0,0,0,0,-1,1084,1653,2.34853,-19.2911
-133,-629,3.41248,17.6686,0,0,0,0,0,0,0,-1,1091,1653,3.41243,-17.6686
-126,-629,4.01025,19.5328,0,0,0,0,0,0,0,-1,1098,1653,4.01022,-19.5328
-119,-629,4.94177,13.5525,0,0,0,0,0,0,0,-1,1105,1653,4.94172,-13.5525
-112,-629,5.63123,15.9187,0,0,0,0,0,0,0,-1,1112,1653,5.63118,-15.9187
-105,-629,2.15881,4.38342,0,0,0,0,0,0,0,-1,1119,1653,2.15878,-4.38347
-98,-629,0.825806,4.19385,0,0,0,0,0,0,0,-1,1126,1653,0.825779,-4.1939
-91,-629,-0.452271,3.64465,0,0,0,0,0,0,0,-1,1133,1653,-0.452278,-3.6446
-84,-629,-2.6084,0.466797,0,0,0,0,0,0,0,-1,1140,1653,-2.6084,-0.466786
-77,-629,-3.50903,2.10706,0,0,0,0,0,0,0,-1,1147,1653,-3.509,-2.10707
-70,-629,-1.20886,2.52502,0,0,0,0,0,0,0,-1,1154,1653,-1.20886,-2.525
-63,-629,-0.960693,4.30212,0,0,0,0,0,0,0,-1,1161,1653,-0.960691,-4.30215
-56,-629,-1.31934,5.64343,0,0,0,0,0,0,0,-1,1168,1653,-1.31928,-5.6434
-49,-629,-2.15662,2.57458,0,0,0,0,0,0,0,-1,1175,1653,-2.15656,-2.57459
-42,-629,-2.46326,3.91467,0,0,0,0,0,0,0,-1,1182,1653,-2.4633,-3.91466
-35,-629,-2.67261,5.24292,0,0,0,0,0,0,0,-1,1189,1653,-2.67257,-5.24298
-28,-629,-0.402954,-0.866577,0,0,0,0,0,0,0,-1,1196,1653,-0.402943,0.866612
-21,-629,3.45508,27.0596,0,0,0,0,0,0,0,-1,1203,1653,3.45508,-27.0596
-14,-629,12.2919,36.3945,0,0,0,0,0,0,0,-1,1210,1653,12.2919,-36.3945
-7,-629,4.03076,42.9125,0,0,0,0,0,0,0,-1,1217,1653,4.03077,-42.9124
0,-629,2.68933,37.6178,0.126221,-0.168894,-0.0567153,0.136746,-0.179418,-0.183476,0.18309,0.0469418,1224,1653,2.68934,-37.6178
7,-629,3.41919,38.5802,0,0,0,0,0,0,0,-1,1231,1653,3.41923,-38.5802
14,-629,3.98413,39.2444,0,0,0,0,0,0,0,-1,1238,1653,3.98408,-39.2443
21,-629,4.91357,39.9933,0,0,0,0,0,0,0,-1,1245,1653,4.91361,-39.9933
28,-629,5.95178,41.0925,0,0,0,0,0,0,0,-1,1252,1653,5.95175,-41.0926
35,-629,7.21375,42.0189,0.103412,-0.110781,-0.0289307,0.107251,-0.11462,-0.131919,0.128121,0.0463176,1259,1653,7.21378,-42.019
42,-629,8.56519,42.8887,0,0,0,0,0,0,0,-1,1266,1653,8.56522,-42.8887
49,-629,9.41736,43.9731,0.0886676,-0.0884773,-0.0353473,0.0954603,-0.0952699,-0.189856,0.110118,0.0440304,1273,1653,9.4174,-43.9732
56,-629,10.25,45.1949,0,0,0,0,0,0,0,-1,1280,1653,10.25,-45.1949
63,-629,11.0887,46.3767,0,0,0,0,0,0,0,-1,1287,1653,11.0887,-46.3767
70,-629,5.29712,42.0668,0,0,0,0,0,0,0,-1,1294,1653,5.29712,-42.0668
77,-629,6.08679,41.6458,0,0,0,0,0,0,0,-1,1301,1653,6.08675,-41.6457
84,-629,3.18567,44.4856,0,0,0,0,0,0,0,-1,1308,1653,3.18571,-44.4856
91,-629,3.85938,45.281,0,0,0,0,0,0,0,-1,1315,1653,3.85938,-45.281
98,-629,4.51062,46.0952,0,0,0,0,0,0,0,-1,1322,1653,4.51058,-46.0953
105,-629,5.38379,46.8146,0,0,0,0,0,0,0,-1,1329,1653,5.38379,-46.8146
112,-629,6.88464,46.6614,-0.0532808,0.0563862,-0.0201354,0.0599663,-0.0568609,-1.39483,0.0674582,0.0437991,1336,1653,6.88465,-46.6614
119,-629,5.1908,46.7245,-0.0691405,0.0703927,-0.00588061,0.0706401,-0.0693879,-1.52875,0.0808463,0.0439121,1343,1653,5.1908,-46.7245
126,-629,4.23792,47.6956,-0.0821645,0.0811176,0.00716914,0.0814318,-0.0824787,1.527,0.0946344,0.0436867,1350,1653,4.23788,-47.6955
133,-629,3.37854,48.5093,0,0,0,0,0,0,0,-1,1357,1653,3.37854,-48.5093
140,-629,1.88013,49.0641,-0.103022,0.0959146,0.0290189,0.100061,-0.107168,1.42887,0.119667,0.0482968,1364,1653,1.88007,-49.064
147,-629,1.70068,50.7614,-0.111031,0.0997118,0.0412681,0.107505,-0.118824,1.38416,0.130725,0.0499116,1371,1653,1.70063,-50.7613
154,-629,1.58569,52.5651,0,0,0,0,0,0,0,-1,1378,1653,1.58564,-52.5651
161,-629,10.5461,6.83752,0,0,0,0,0,0,0,-1,1385,1653,10.5461,-6.83758
168,-629,12.0059,5.56348,0,0,0,0,0,0,0,-1,1392,1653,12.0059,-5.56352
175,-629,5.84485,-1.78845,0,0,0,0,0,0,0,-1,1399,1653,5.84479,1.7884
182,-629,5.99036,-1.27783,0,0,0,0,0,0,0,-1,1406,1653,5.99041,1.27778
189,-629,5.97668,-0.748535,0,0,0,0,0,0,0,-1,1413,1653,5.97671,0.748544
196,-629,4.52869,9.24695,0,0,0,0,0,0,0,-1,1420,1653,4.52869,-9.2469
203,-629,3.75085,6.88037,0,0,0,0,0,0,0,-1,1427,1653,3.75087,-6.88032
210,-629,3.5907,6.52637,0,0,0,0,0,0,0,-1,1434,1653,3.59067,-6.52642
217,-629,2.4585,4.84448,0,0,0,0,0,0,0,-1,1441,1653,2.45855,-4.84448
224,-629,1.31982,3.68481,0,0,0,0,0,0,0,-1,1448,1653,1.31986,-3.68487
231,-629,3.63025,1.73499,0,0,0,0,0,0,0,-1,1455,1653,3.6303,-1.735
238,-629,4.26428,2.11255,0,0,0,0,0,0,0,-1,1462,1653,4.26429,-2.11253
245,-629,5.61816,1.95361,0,0,0,0,0,0,0,-1,1469,1653,5.61815,-1.95359
252,-629,7.27136,2.18982,0,0,0,0,0,0,0,-1,1476,1653,7.27131,-2.18985
259,-629,8.67334,2.18628,0,0,0,0,0,0,0,-1,1483,1653,8.6733,-2.18633
266,-629,6.86475,3.72058,0,0,0,0,0,0,0,-1,1490,1653,6.86479,-3.72063
273,-629,7.9021,3.8717,0,0,0,0,0,0,0,-1,1497,1653,7.90205,-3.87171
280,-629,9.70837,4.39087,0,0,0,0,0,0,0,-1,1504,1653,9.7084,-4.39082
287,-629,9.82947,7.19348,0,0,0,0,0,0,0,-1,1511,1653,9.8295,-7.19347
294,-629,6.56555,11.6359,0,0,0,0,0,0,0,-1,1518,1653,6.5656,-11.6358
301,-629,6.93835,15.6102,0,0,0,0,0,0,0,-1,1525,1653,6.93835,-15.6103
308,-629,6.08264,12.1423,0,0,0,0,0,0,0,-1,1532,1653,6.08263,-12.1423
315,-629,6.82043,18.2764,0,0,0,0,0,0,0,-1,1539,1653,6.82049,-18.2764
322,-629,10.3922,29.9829,0,0,0,0,0,0,0,-1,1546,1653,10.3922,-29.9829
329,-629,12.6536,36.6624,0,0,0,0,0,0,0,-1,1553,1653,12.6535,-36.6624
336,-629,12.636,36.2334,0,0,0,0,0,0,0,-1,1560,1653,12.636,-36.2335
343,-629,12.4541,36.1338,0,0,0,0,0,0,0,-1,1567,1653,12.4541,-36.1338
350,-629,12.5493,35.8995,0,0,0,0,0,0,0,-1,1574,1653,12.5493,-35.8995
357,-629,12.7377,35.1061,0,0,0,0,0,0,0,-1,1581,1653,12.7377,-35.106
364,-629,12.6393,34.6157,0.00601727,0.0196699,-0.0054009,0.0215481,0.00413909,-1.23612,0.0132038,0.0131845,1588,1653,12.6393,-34.6157
371,-629,12.6248,34.2321,0.00534165,0.0176107,-0.00489706,0.0193256,0.00362674,-1.23395,0.0118611,0.0112099,1595,1653,12.6248,-34.232
378,-629,12.6428,33.8187,0.00451496,0.0154254,-0.00434462,0.016944,0.00299628,-1.23452,0.0104416,0.0106551,1602,1653,12.6428,-33.8187
385,-629,12.6433,33.4231,0.00373876,0.0129064,-0.00378972,0.0142701,0.00237502,-1.22537,0.00882886,0.0126366,1609,1653,12.6433,-33.4231
392,-629,12.6287,33.0409,0.00296571,0.0101903,-0.00314602,0.0113682,0.00178779,-1.21254,0.00705876,0.0114359,1616,1653,12.6287,-33.0409
399,-629,12.6283,32.6235,0.00219031,0.00752702,-0.00243343,0.00846999,0.00124733,-1.2011,0.00528022,0.0116538,1623,1653,12.6283,-32.6235
406,-629,12.6406,32.1986,0.00152078,0.00529059,-0.00179848,0.00601095,0.000800421,-1.18983,0.00376893,0.0147133,1630,1653,12.6406,-32.1986
413,-629,12.6233,31.7793,0.00104879,0.00357053,-0.00128379,0.00410908,0.000510239,-1.17359,0.00258614,0.0230083,1637,1653,12.6233,-31.7793
420,-629,12.5947,31.3768,0.000679656,0.00213389,-0.000837932,0.0025162,0.000297346,-1.14275,0.00158766,0.0214526,1644,1653,12.5947,-31.3768
427,-629,12.6146,30.9698,0.00038721,0.000865818,-0.000427262,0.00111623,0.0001368,-1.04068,0.000703003,0.0142815,1651,1653,12.6147,-30.9699
434,-629,12.5994,30.5226,0.000296828,0.000103339,-0.000246993,0.000465347,-6.51802e-05,-0.598738,0.000334084,0.0113098,1658,1653,12.5994,-30.5226
441,-629,12.5813,30.0642,0.000381387,-0.000247702,-0.000159239,0.000419398,-0.000285713,-0.234318,0.000409527,0.0134763,1665,1653,12.5813,-30.0642
448,-629,12.5647,29.6344,0.000466985,-0.000567433,-5.51688e-05,0.000469919,-0.000570367,-0.0531323,0.000601542,0.0140798,1672,1653,12.5647,-29.6344
455,-629,12.5342,29.1615,0.000691998,-0.000821493,-3.79762e-05,0.00069295,-0.000822446,-0.0250707,0.000875978,0.0143981,1679,1653,12.5342,-29.1615
462,-629,12.546,28.7402,0.00102369,-0.00128709,-0.000119574,0.00102987,-0.00129327,-0.0515625,0.00134413,0.0168775,1686,1653,12.5461,-28.7402
469,-629,12.535,28.2832,0.00133988,-0.0019558,-0.000184358,0.00135017,-0.00196608,-0.0557076,0.00192561,0.0210477,1693,1653,12.535,-28.2832
476,-629,12.6671,27.9019,0.00169494,-0.00265337,-7.01945e-05,0.00169608,-0.0026545,-0.0161373,0.00253204,0.04155,1700,1653,12.6672,-27.9018
483,-629,12.7833,27.4049,0,0,0,0,0,0,0,-1,1707,1653,12.7833,-27.4049
490,-629,13.3649,26.5394,0,0,0,0,0,0,0,-1,1714,1653,13.3649,-26.5395
497,-629,10.3662,19.8605,0,0,0,0,0,0,0,-1,1721,1653,10.3662,-19.8605
504,-629,7.89453,15.5316,0,0,0,0,0,0,0,-1,1728,1653,7.89447,-15.5316
511,-629,6.29138,3.40295,0,0,0,0,0,0,0,-1,1735,1653,6.29137,-3.403
518,-629,5.84387,1.41858,0,0,0,0,0,0,0,-1,1742,1653,5.84391,-1.4186
525,-629,6.4729,1.02319,0,0,0,0,0,0,0,-1,1749,1653,6.47284,-1.02316
532,-629,6.86511,0.903687,0,0,0,0,0,0,0,-1,1756,1653,6.86514,-0.903691
539,-629,6.60803,0.746704,0,0,0,0,0,0,0,-1,1763,1653,6.60809,-0.746691
546,-629,0,0,0,0,0,0,0,0,0,-1,1770,1653,0,0
553,-629,0,0,0,0,0,0,0,0,0,-1,1777,1653,0,0
560,-629,0,0,0,0,0,0,0,0,0,-1,1784,1653,0,0
567,-629,0,0,0,0,0,0,0,0,0,-1,1791,1653,0,0
574,-629,0,0,0,0,0,0,0,0,0,-1,1798,1653,0,0
581,-629,0,0,0,0,0,0,0,0,0,-1,1805,1653,0,0
588,-629,0,0,0,0,0,0,0,0,0,-1,1812,1653,0,0
595,-629,0,0,0,0,0,0,0,0,0,-1,1819,1653,0,0
602,-629,0,0,0,0,0,0,0,0,0,-1,1826,1653,0,0
609,-629,0,0,0,0,0,0,0,0,0,-1,1833,1653,0,0
616,-629,0,0,0,0,0,0,0,0,0,-1,1840,1653,0,0
623,-629,0,0,0,0,0,0,0,0,0,-1,1847,1653,0,0
630,-629,0,0,0,0,0,0,0,0,0,-1,1854,1653,0,0
637,-629,0,0,0,0,0,0,0,0,0,-1,1861,1653,0,0
644,-629,0,0,0,0,0,0,0,0,0,-1,1868,1653,0,0
651,-629,0,0,0,0,0,0,0,0,0,-1,1875,1653,0,0
658,-629,0,0,0,0,0,0,0,0,0,-1,1882,1653,0,0
665,-629,0,0,0,0,0,0,0,0,0,-1,1889,1653,0,0
672,-629,0,0,0,0,0,0,0,0,0,-1,1896,1653,0,0
679,-629,0,0,0,0,0,0,0,0,0,-1,1903,1653,0,0
686,-629,0,0,0,0,0,0,0,0,0,-1,1910,1653,0,0
693,-629,0,0,0,0,0,0,0,0,0,-1,1917,1653,0,0
700,-629,0,0,0,0,0,0,0,0,0,-1,1924,1653,0,0
707,-629,0,0,0,0,0,0,0,0,0,-1,1931,1653,0,0
714,-629,0,0,0,0,0,0,0,0,0,-1,1938,1653,0,0
721,-629,0,0,0,0,0,0,0,0,0,-1,1945,1653,0,0
728,-629,0,0,0,0,0,0,0,0,0,-1,1952,1653,0,0
735,-629,0,0,0,0,0,0,0,0,0,-1,1959,1653,0,0
742,-629,0,0,0,0,0,0,0,0,0,-1,1966,1653,0,0
749,-629,0,0,0,0,0,0,0,0,0,-1,1973,1653,0,0
756,-629,0,0,0,0,0,0,0,0,0,-1,1980,1653,0,0
763,-629,0,0,0,0,0,0,0,0,0,-1,1987,1653,0,0
770,-629,0,0,0,0,0,0,0,0,0,-1,1994,1653,0,0
777,-629,0,0,0,0,0,0,0,0,0,-1,2001,1653,0,0
784,-629,0,0,0,0,0,0,0,0,0,-1,2008,1653,0,0
791,-629,0,0,0,0,0,0,0,0,0,-1,2015,1653,0,0
798,-629,0,0,0,0,0,0,0,0,0,-1,2022,1653,0,0
805,-629,0,0,0,0,0,0,0,0,0,-1,2029,1653,0,0
812,-629,0,0,0,0,0,0,0,0,0,-1,2036,1653,0,0
-700,-636,0,0,0,0,0,0,0,0,0,-1,524,1660,0,0
-693,-636,0,0,0,0,0,0,0,0,0,-1,531,1660,0,0
-686,-636,0,0,0,0,0,0,0,0,0,-1,538,1660,0,0
-679,-636,0,0,0,0,0,0,0,0,0,-1,545,1660,0,0
-672,-636,0,0,0,0,0,0,0,0,0,-1,552,1660,0,0
-665,-636,0,0,0,0,0,0,0,0,0,-1,559,1660,0,0
-658,-636,0,0,0,0,0,0,0,0,0,-1,566,1660,0,0
-651,-636,0,0,0,0,0,0,0,0,0,-1,573,1660,0,0
-644,-636,0,0,0,0,0,0,0,0,0,-1,580,1660,0,0
-637,-636,0,0,0,0,0,0,0,0,0,-1,587,1660,0,0
-630,-636,0,0,0,0,0,0,0,0,0,-1,594,1660,0,0
-623,-636,0,0,0,0,0,0,0,0,0,-1,601,1660,0,0
-616,-636,0,0,0,0,0,0,0,0,0,-1,608,1660,0,0
-609,-636,0,0,0,0,0,0,0,0,0,-1,615,1660,0,0
-602,-636,0,0,0,0,0,0,0,0,0,-1,622,1660,0,0
-595,-636,0,0,0,0,0,0,0,0,0,-1,629,1660,0,0
-588,-636,0,0,0,0,0,0,0,0,0,-1,636,1660,0,0
-581,-636,0,0,0,0,0,0,0,0,0,-1,643,1660,0,0
-574,-636,0,0,0,0,0,0,0,0,0,-1,650,1660,0,0
-567,-636,0,0,0,0,0,0,0,0,0,-1,657,1660,0,0
-560,-636,0,0,0,0,0,0,0,0,0,-1,664,1660,0,0
-553,-636,0,0,0,0,0,0,0,0,0,-1,671,1660,0,0
-546,-636,0,0,0,0,0,0,0,0,0,-1,678,1660,0,0
-539,-636,0,0,0,0,0,0,0,0,0,-1,685,1660,0,0
-532,-636,0,0,0,0,0,0,0,0,0,-1,692,1660,0,0
-525,-636,0,0,0,0,0,0,0,0,0,-1,699,1660,0,0
-518,-636,0,0,0,0,0,0,0,0,0,-1,706,1660,0,0
-511,-636,0,0,0,0,0,0,0,0,0,-1,713,1660,0,0
-504,-636,0,0,0,0,0,0,0,0,0,-1,720,1660,0,0
-497,-636,0,0,0,0,0,0,0,0,0,-1,727,1660,0,0
-490,-636,0,0,0,0,0,0,0,0,0,-1,734,1660,0,0
-483,-636,0,0,0,0,0,0,0,0,0,-1,741,1660,0,0
-476,-636,0,0,0,0,0,0,0,0,0,-1,748,1660,0,0
-469,-636,0,0,0,0,0,0,0,0,0,-1,755,1660,0,0
-462,-636,0,0,0,0,0,0,0,0,0,-1,762,1660,0,0
-455,-636,0,0,0,0,0,0,0,0,0,-1,769,1660,0,0
-448,-636,0,0,0,0,0,0,0,0,0,-1,776,1660,0,0
-441,-636,0,0,0,0,0,0,0,0,0,-1,783,1660,0,0
-434,-636,0,0,0,0,0,0,0,0,0,-1,790,1660,0,0
-427,-636,0,0,0,0,0,0,0,0,0,-1,797,1660,0,0
-420,-636,0,0,0,0,0,0,0,0,0,-1,804,1660,0,0
-413,-636,0,0,0,0,0,0,0,0,0,-1,811,1660,0,0
-406,-636,-0.591125,10.6943,0,0,0,0,0,0,0,-1,818,1660,-0.59115,-10.6943
-399,-636,0.0766602,11.2408,0,0,0,0,0,0,0,-1,825,1660,0.076685,-11.2409
-392,-636,0.75946,11.9233,0,0,0,0,0,0,0,-1,832,1660,0.759481,-11.9233
-385,-636,1.68878,12.517,0,0,0,0,0,0,0,-1,839,1660,1.6888,-12.5169
-378,-636,2.22107,13.0013,0,0,0,0,0,0,0,-1,846,1660,2.22107,-13.0014
-371,-636,2.52185,11.9684,0,0,0,0,0,0,0,-1,853,1660,2.52184,-11.9684
-364,-636,4.51947,14.8503,0,0,0,0,0,0,0,-1,860,1660,4.51949,-14.8504
-357,-636,4.55682,15.8809,0,0,0,0,0,0,0,-1,867,1660,4.55681,-15.8808
-350,-636,4.64862,26.9414,0,0,0,0,0,0,0,-1,874,1660,4.64864,-26.9414
-343,-636,4.5177,27.3331,-0.00571482,-0.00148951,0.00214469,-0.000591686,-0.00661265,1.17433,0.00422504,0.0497413,881,1660,4.51773,-27.3332
-336,-636,4.3031,27.692,-0.00458003,-0.000775041,0.00122689,-0.000413743,-0.00494133,1.28441,0.00316533,0.0333114,888,1660,4.30311,-27.6921
-329,-636,4.43158,28.0728,-0.00402535,0.000349875,0.000533264,0.000413933,-0.00408941,1.45125,0.0028742,0.0194583,895,1660,4.43161,-28.0727
-322,-636,4.42108,28.5571,-0.0037509,0.00096493,3.05748e-05,0.000965128,-0.00375109,1.56431,0.00287692,0.0115508,902,1660,4.4211,-28.5572
-315,-636,4.3717,29.0363,-0.00367167,0.00121314,-0.000456938,0.00125552,-0.00371405,-1.47832,0.00298392,0.0131265,909,1660,4.37172,-29.0362
-308,-636,4.35278,29.5283,-0.00352241,0.00151192,-0.000806332,0.00163792,-0.0036484,-1.41579,0.00312477,0.0122198,916,1660,4.35276,-29.5283
-301,-636,4.34424,30.0195,-0.00321696,0.00171463,-0.0009957,0.00190808,-0.00341041,-1.37891,0.00311119,0.0121543,923,1660,4.34424,-30.0195
-294,-636,4.33112,30.4877,-0.00271944,0.00199707,-0.000928586,0.0021733,-0.00289568,-1.38324,0.00293647,0.0156397,930,1660,4.33109,-30.4876
-287,-636,4.30396,30.9048,-0.00202493,0.00241901,-0.000646456,0.00251114,-0.00211706,-1.42924,0.00267532,0.0129437,937,1660,4.30398,-30.9048
-280,-636,4.28876,31.3447,-0.00124304,0.00276336,-0.000240682,0.00277776,-0.00125745,-1.51101,0.00238421,0.0120439,944,1660,4.28876,-31.3447
-273,-636,4.27301,31.775,-0.000383457,0.00302901,0.000273013,0.00305071,-0.000405162,1.49146,0.00218144,0.0129161,951,1660,4.27302,-31.775
-266,-636,4.27167,32.22,0.000606358,0.00341811,0.000893551,0.00367804,0.000346425,1.28771,0.0023451,0.0138046,958,1660,4.27167,-32.22
-259,-636,4.26581,32.6908,0.00165021,0.0037871,0.00154724,0.00459896,0.000838358,1.08758,0.00282825,0.0147837,965,1660,4.26578,-32.6908
-252,-636,4.23718,33.1007,0.00270521,0.00436527,0.0021266,0.00581808,0.0012524,0.97146,0.00353598,0.0116927,972,1660,4.23717,-33.1007
-245,-636,4.23755,33.5308,0.00370642,0.00493318,0.0026399,0.00703003,0.00160958,0.899548,0.00425293,0.0108932,979,1660,4.23752,-33.5308
-238,-636,4.24365,33.9658,0.00450445,0.00536661,0.00297541,0.007942,0.00192906,0.857338,0.00478312,0.0116882,986,1660,4.24364,-33.9658
-231,-636,4.2514,34.3676,0.00500983,0.00590571,0.00311538,0.00860518,0.00231035,0.8568,0.00514267,0.0105665,993,1660,4.25143,-34.3676
-224,-636,4.26691,34.7672,0.00521411,0.00661542,0.0030164,0.00901147,0.00281806,0.899516,0.00532304,0.00933151,1000,1660,4.2669,-34.7673
-217,-636,4.26044,35.2319,0.00532533,0.00742252,0.00302236,0.00957302,0.00317483,0.952374,0.00563045,0.0182762,1007,1660,4.26042,-35.232
-210,-636,4.25378,35.6332,0.00513102,0.00785429,0.00268115,0.00949975,0.00348556,1.02035,0.00554907,0.0325406,1014,1660,4.25378,-35.6332
-203,-636,4.26587,36.1809,0.00492291,0.00841264,0.00241588,0.00964788,0.00368767,1.09815,0.00562148,0.0385208,1021,1660,4.26582,-36.1809
-196,-636,4.47778,36.4165,0.00439997,0.00898236,0.00184578,0.00963335,0.00374897,1.23172,0.00560718,0.0369995,1028,1660,4.47774,-36.4165
-189,-636,4.45715,36.6926,0.00409222,0.00956728,0.00139583,0.0099026,0.0037569,1.33503,0.00577245,0.0323461,1035,1660,4.45712,-36.6926
-182,-636,4.46204,37.1946,0.00350409,0.0103594,0.000975874,0.0104957,0.00336788,1.43211,0.00618792,0.0442397,1042,1660,4.46206,-37.1946
-175,-636,4.38599,37.6218,0.00258055,0.0115225,0.000497208,0.01155,0.00255298,1.51542,0.00700583,0.0488998,1049,1660,4.38604,-37.6218
-168,-636,4.43237,37.9979,0,0,0,0,0,0,0,-1,1056,1660,4.43232,-37.998
-161,-636,4.57202,38.2283,0,0,0,0,0,0,0,-1,1063,1660,4.57196,-38.2283
-154,-636,6.10632,37.8668,0,0,0,0,0,0,0,-1,1070,1660,6.10634,-37.8668
-147,-636,4.32129,31.4845,0,0,0,0,0,0,0,-1,1077,1660,4.32127,-31.4845
-140,-636,3.4729,27.1271,0,0,0,0,0,0,0,-1,1084,1660,3.47287,-27.1271
-133,-636,4.68311,18.0922,0,0,0,0,0,0,0,-1,1091,1660,4.68316,-18.0921
-126,-636,3.79028,18.2225,0,0,0,0,0,0,0,-1,1098,1660,3.79025,-18.2226
-119,-636,1.8667,13.8916,0,0,0,0,0,0,0,-1,1105,1660,1.86668,-13.8916
-112,-636,-1.24963,9.7998,0,0,0,0,0,0,0,-1,1112,1660,-1.24968,-9.79978
-105,-636,3.51624,4.72791,0,0,0,0,0,0,0,-1,1119,1660,3.51618,-4.7279
-98,-636,1.54504,5.11914,0,0,0,0,0,0,0,-1,1126,1660,1.54503,-5.11912
-91,-636,-1.87964,-2.25012,0,0,0,0,0,0,0,-1,1133,1660,-1.87966,2.25016
-84,-636,-2.84143,0.133667,0,0,0,0,0,0,0,-1,1140,1660,-2.84144,-0.133701
-77,-636,-3.57349,2.45935,0,0,0,0,0,0,0,-1,1147,1660,-3.57345,-2.45939
-70,-636,-4.23682,4.82312,0,0,0,0,0,0,0,-1,1154,1660,-4.23681,-4.82307
-63,-636,-2.21033,6.97168,0,0,0,0,0,0,0,-1,1161,1660,-2.21034,-6.97165
-56,-636,-2.51917,8.80359,0,0,0,0,0,0,0,-1,1168,1660,-2.51916,-8.80361
-49,-636,-3.13,10.4113,0,0,0,0,0,0,0,-1,1175,1660,-3.12996,-10.4112
-42,-636,-2.27771,4.90173,0,0,0,0,0,0,0,-1,1182,1660,-2.27775,-4.90173
-35,-636,-2.27698,5.89685,0,0,0,0,0,0,0,-1,1189,1660,-2.27695,-5.89686
-28,-636,-1.70654,4.83936,0,0,0,0,0,0,0,-1,1196,1660,-1.70656,-4.8393
-21,-636,4.24683,27.7834,0,0,0,0,0,0,0,-1,1203,1660,4.24687,-27.7835
-14,-636,3.43628,43.1117,0,0,0,0,0,0,0,-1,1210,1660,3.43629,-43.1117
-7,-636,4.34399,43.0748,0.114446,-0.127741,-0.058865,0.127995,-0.141291,-0.226238,0.155535,0.0495099,1217,1660,4.34395,-43.0749
0,-636,5.21667,43.0515,0.114143,-0.121717,-0.0535805,0.125744,-0.133318,-0.213229,0.149591,0.0451744,1224,1660,5.21663,-43.0515
7,-636,3.46179,38.507,0,0,0,0,0,0,0,-1,1231,1660,3.46181,-38.507
14,-636,4.34399,39.5421,0.110423,-0.105188,-0.0470662,0.120249,-0.115015,-0.20582,0.135841,0.0451527,1238,1660,4.34405,-39.5421
21,-636,5.36536,40.5891,0,0,0,0,0,0,0,-1,1245,1660,5.3654,-40.5891
28,-636,6.4032,41.7045,0.103143,-0.0896838,-0.0474152,0.114172,-0.100712,-0.228529,0.124144,0.0494755,1252,1660,6.40326,-41.7045
35,-636,7.41272,42.8087,0.0984823,-0.0808005,-0.0509841,0.111967,-0.0942851,-0.258565,0.119225,0.048354,1259,1660,7.41269,-42.8087
42,-636,8.42163,43.8597,0,0,0,0,0,0,0,-1,1266,1660,8.42164,-43.8597
49,-636,10.0259,44.6383,0,0,0,0,0,0,0,-1,1273,1660,10.0259,-44.6382
56,-636,6.33398,42.1592,0,0,0,0,0,0,0,-1,1280,1660,6.33395,-42.1592
63,-636,7.26819,41.7767,0,0,0,0,0,0,0,-1,1287,1660,7.2682,-41.7767
70,-636,6.76453,41.8473,0,0,0,0,0,0,0,-1,1294,1660,6.76453,-41.8473
77,-636,7.0293,41.7485,0.0327418,-0.0086462,-0.0606963,0.0761749,-0.0520793,-0.621106,0.0744819,0.0481154,1301,1660,7.0293,-41.7485
84,-636,7.29932,41.6859,0.0205027,0.00585929,-0.0603931,0.0740162,-0.0476543,-0.725076,0.070794,0.0463168,1308,1660,7.29933,-41.6859
91,-636,4.58887,44.7075,0,0,0,0,0,0,0,-1,1315,1660,4.58886,-44.7076
98,-636,5.31482,45.4755,0,0,0,0,0,0,0,-1,1322,1660,5.31487,-45.4755
105,-636,6.10217,46.1895,-0.0270012,0.044297,-0.0336083,0.0576415,-0.0403457,-1.19283,0.0568659,0.0491923,1329,1660,6.10223,-46.1894
112,-636,7.45569,46.5249,-0.043735,0.0578494,-0.0207749,0.0619338,-0.0478195,-1.37667,0.0635405,0.0465877,1336,1660,7.45564,-46.5249
119,-636,5.90918,46.3513,-0.0593297,0.0703106,-0.00908593,0.0709443,-0.0599634,-1.50116,0.0756681,0.0466755,1343,1660,5.90914,-46.3513
126,-636,4.896,47.318,-0.0723241,0.0794951,0.00153965,0.0795107,-0.0723397,1.56066,0.0877034,0.0470863,1350,1660,4.89598,-47.318
133,-636,3.89307,48.2704,-0.0839283,0.0862759,0.0109693,0.08698,-0.0846323,1.5067,0.0990835,0.0490992,1357,1660,3.89304,-48.2704
140,-636,3.00146,49.0588,-0.0939267,0.0903679,0.0189535,0.092297,-0.0958558,1.46937,0.108637,0.0414143,1364,1660,3.00152,-49.0589
147,-636,2.2655,49.9382,-0.103453,0.0922102,0.0289101,0.0963925,-0.107635,1.42713,0.117855,0.0428025,1371,1660,2.26548,-49.9383
154,-636,1.45361,50.7744,0,0,0,0,0,0,0,-1,1378,1660,1.45361,-50.7745
161,-636,10.2961,7.13025,0,0,0,0,0,0,0,-1,1385,1660,10.2961,-7.13021
168,-636,11.7659,5.83899,0,0,0,0,0,0,0,-1,1392,1660,11.7658,-5.83899
175,-636,5.94592,-1.72888,0,0,0,0,0,0,0,-1,1399,1660,5.94598,1.72886
182,-636,5.93994,-1.11938,0,0,0,0,0,0,0,-1,1406,1660,5.93998,1.11936
189,-636,5.32544,11.9595,0,0,0,0,0,0,0,-1,1413,1660,5.32542,-11.9595
196,-636,5.3623,9.38025,0,0,0,0,0,0,0,-1,1420,1660,5.36225,-9.38027
203,-636,5.18542,9.02429,0,0,0,0,0,0,0,-1,1427,1660,5.18547,-9.0243
210,-636,4.09167,7.17041,0,0,0,0,0,0,0,-1,1434,1660,4.09173,-7.17041
217,-636,2.94897,5.28992,0,0,0,0,0,0,0,-1,1441,1660,2.94899,-5.28991
224,-636,1.49194,3.63916,0,0,0,0,0,0,0,-1,1448,1660,1.49197,-3.63918
231,-636,0.17749,2.24854,0,0,0,0,0,0,0,-1,1455,1660,0.177501,-2.24855
238,-636,-0.764648,1.00598,0,0,0,0,0,0,0,-1,1462,1660,-0.764704,-1.00595
245,-636,6.21204,1.18005,0,0,0,0,0,0,0,-1,1469,1660,6.21206,-1.18001
252,-636,7.70251,0.865723,0,0,0,0,0,0,0,-1,1476,1660,7.7025,-0.865692
259,-636,9.03601,0.787231,0,0,0,0,0,0,0,-1,1483,1660,9.03598,-0.787243
266,-636,10.1071,3.24109,0,0,0,0,0,0,0,-1,1490,1660,10.1071,-3.24103
273,-636,8.48535,5.02466,0,0,0,0,0,0,0,-1,1497,1660,8.48533,-5.02472
280,-636,11.908,32.0698,0,0,0,0,0,0,0,-1,1504,1660,11.9079,-32.0698
287,-636,12.1218,36.4158,0,0,0,0,0,0,0,-1,1511,1660,12.1218,-36.4158
294,-636,12.4961,39.9445,0,0,0,0,0,0,0,-1,1518,1660,12.4961,-39.9445
301,-636,12.1777,39.0118,0,0,0,0,0,0,0,-1,1525,1660,12.1778,-39.0118
308,-636,12.1139,38.274,0,0,0,0,0,0,0,-1,1532,1660,12.1139,-38.2741
315,-636,12.1575,37.6744,0,0,0,0,0,0,0,-1,1539,1660,12.1575,-37.6744
322,-636,12.2788,36.8574,0,0,0,0,0,0,0,-1,1546,1660,12.2788,-36.8574
329,-636,12.2365,36.4584,0.00439748,0.0242204,-0.00453971,0.0252106,0.00340728,-1.35604,0.0157943,0.0367333,1553,1660,12.2365,-36.4583
336,-636,12.2118,36.12,0.00470416,0.0222088,-0.00417513,0.0231536,0.00375933,-1.34824,0.0143478,0.0257054,1560,1660,12.2118,-36.1201
343,-636,12.1558,35.8398,0.00475713,0.0196998,-0.00458828,0.0209962,0.00346074,-1.29543,0.0129984,0.0220636,1567,1660,12.1558,-35.8398
350,-636,12.1658,35.4299,0.00524911,0.0164898,-0.00435988,0.0179826,0.0037563,-1.24091,0.0109531,0.0135124,1574,1660,12.1658,-35.43
357,-636,12.2418,35.0087,0.00508014,0.0146992,-0.00405442,0.0161802,0.00359921,-1.22059,0.00980966,0.0105463,1581,1660,12.2419,-35.0087
364,-636,12.2573,34.6184,0.00450798,0.0133968,-0.00377041,0.0147806,0.00312411,-1.21903,0.00899508,0.0101208,1588,1660,12.2574,-34.6184
371,-636,12.2395,34.2384,0.00392436,0.0119818,-0.00337751,0.0132103,0.00269588,-1.22195,0.00805993,0.00952639,1595,1660,12.2395,-34.2384
378,-636,12.2461,33.8408,0.00328819,0.0104435,-0.00292874,0.0114894,0.00224231,-1.2278,0.00703237,0.0100117,1602,1660,12.246,-33.8408
385,-636,12.2402,33.4346,0.00267014,0.00853696,-0.0024517,0.0094266,0.0017805,-1.2227,0.005783,0.0153479,1609,1660,12.2402,-33.4346
392,-636,12.2205,33.0212,0.00199231,0.00638071,-0.00187401,0.00707206,0.00130095,-1.21737,0.00434645,0.0160559,1616,1660,12.2205,-33.0212
399,-636,12.2234,32.6233,0.00127659,0.00424043,-0.0012535,0.00469947,0.000817548,-1.21975,0.00289915,0.0116399,1623,1660,12.2234,-32.6233
406,-636,12.2404,32.22,0.000685736,0.00249687,-0.0007244,0.00275096,0.000431645,-1.23344,0.00170837,0.0135179,1630,1660,12.2403,-32.22
413,-636,12.2279,31.79,0.00030266,0.00121796,-0.000308218,0.00131207,0.000208547,-1.27444,0.000814152,0.0216695,1637,1660,12.2279,-31.7901
420,-636,12.1846,31.3828,-1.10719e-05,0.000164349,2.0832e-05,0.000166789,-1.35118e-05,1.4542,0.000115959,0.0226494,1644,1660,12.1846,-31.3828
427,-636,12.1775,31.0027,-0.000191671,-0.00063593,0.000267268,-6.62747e-05,-0.000761326,0.438686,0.000486964,0.0142668,1651,1660,12.1775,-31.0027
434,-636,12.1682,30.5548,-0.000225096,-0.000992825,0.000362911,-8.07031e-05,-0.00113722,0.378673,0.000732728,0.0123087,1658,1660,12.1682,-30.5548
441,-636,12.158,30.0853,-0.000179513,-0.00094249,0.000357643,-3.80841e-05,-0.00108392,0.376574,0.000710258,0.0114369,1665,1660,12.158,-30.0853
448,-636,12.1521,29.671,-9.24243e-05,-0.000953574,0.000324826,1.63587e-05,-0.00106236,0.323156,0.000713753,0.0134097,1672,1660,12.1521,-29.671
455,-636,12.1001,29.2292,0.000297979,-0.000817372,0.000219272,0.000339538,-0.000858932,0.187311,0.000713268,0.0143548,1679,1660,12.1001,-29.2293
462,-636,12.1095,28.7645,0.000796954,-0.00088586,1.57641e-05,0.000797101,-0.000886008,0.00936659,0.000972195,0.0205471,1686,1660,12.1095,-28.7645
469,-636,12.1333,28.2627,0.00129135,-0.0012335,-0.000136225,0.00129868,-0.00124083,-0.0537457,0.00146631,0.0354834,1693,1660,12.1333,-28.2627
476,-636,12.2393,27.7551,0,0,0,0,0,0,0,-1,1700,1660,12.2393,-27.7551
483,-636,11.3833,24.3958,0,0,0,0,0,0,0,-1,1707,1660,11.3833,-24.3957
490,-636,10.8951,23.9569,0,0,0,0,0,0,0,-1,1714,1660,10.8951,-23.9569
497,-636,9.55579,18.0111,0,0,0,0,0,0,0,-1,1721,1660,9.55574,-18.0111
504,-636,6.26428,19.4268,0,0,0,0,0,0,0,-1,1728,1660,6.26433,-19.4268
511,-636,5.65466,9.23218,0,0,0,0,0,0,0,-1,1735,1660,5.65461,-9.23216
518,-636,6.72791,1.07605,0,0,0,0,0,0,0,-1,1742,1660,6.7279,-1.0761
525,-636,7.04309,0.93335,0,0,0,0,0,0,0,-1,1749,1660,7.04308,-0.933298
532,-636,0,0,0,0,0,0,0,0,0,-1,1756,1660,0,0
539,-636,0,0,0,0,0,0,0,0,0,-1,1763,1660,0,0
546,-636,0,0,0,0,0,0,0,0,0,-1,1770,1660,0,0
553,-636,0,0,0,0,0,0,0,0,0,-1,1777,1660,0,0
560,-636,0,0,0,0,0,0,0,0,0,-1,1784,1660,0,0
567,-636,0,0,0,0,0,0,0,0,0,-1,1791,1660,0,0
574,-636,0,0,0,0,0,0,0,0,0,-1,1798,1660,0,0
581,-636,0,0,0,0,0,0,0,0,0,-1,1805,1660,0,0
588,-636,0,0,0,0,0,0,0,0,0,-1,1812,1660,0,0
595,-636,0,0,0,0,0,0,0,0,0,-1,1819,1660,0,0
602,-636,0,0,0,0,0,0,0,0,0,-1,1826,1660,0,0
609,-636,0,0,0,0,0,0,0,0,0,-1,1833,1660,0,0
616,-636,0,0,0,0,0,0,0,0,0,-1,1840,1660,0,0
623,-636,0,0,0,0,0,0,0,0,0,-1,1847,1660,0,0
630,-636,0,0,0,0,0,0,0,0,0,-1,1854,1660,0,0
637,-636,0,0,0,0,0,0,0,0,0,-1,1861,1660,0,0
644,-636,0,0,0,0,0,0,0,0,0,-1,1868,1660,0,0
651,-636,0,0,0,0,0,0,0,0,0,-1,1875,1660,0,0
658,-636,0,0,0,0,0,0,0,0,0,-1,1882,1660,0,0
665,-636,0,0,0,0,0,0,0,0,0,-1,1889,1660,0,0
672,-636,0,0,0,0,0,0,0,0,0,-1,1896,1660,0,0
679,-636,0,0,0,0,0,0,0,0,0,-1,1903,1660,0,0
686,-636,0,0,0,0,0,0,0,0,0,-1,1910,1660,0,0
693,-636,0,0,0,0,0,0,0,0,0,-1,1917,1660,0,0
700,-636,0,0,0,0,0,0,0,0,0,-1,1924,1660,0,0
707,-636,0,0,0,0,0,0,0,0,0,-1,1931,1660,0,0
714,-636,0,0,0,0,0,0,0,0,0,-1,1938,1660,0,0
721,-636,0,0,0,0,0,0,0,0,0,-1,1945,1660,0,0
728,-636,0,0,0,0,0,0,0,0,0,-1,1952,1660,0,0
735,-636,0,0,0,0,0,0,0,0,0,-1,1959,1660,0,0
742,-636,0,0,0,0,0,0,0,0,0,-1,1966,1660,0,0
749,-636,0,0,0,0,0,0,0,0,0,-1,1973,1660,0,0
756,-636,0,0,0,0,0,0,0,0,0,-1,1980,1660,0,0
763,-636,0,0,0,0,0,0,0,0,0,-1,1987,1660,0,0
770,-636,0,0,0,0,0,0,0,0,0,-1,1994,1660,0,0
777,-636,0,0,0,0,0,0,0,0,0,-1,2001,1660,0,0
784,-636,0,0,0,0,0,0,0,0,0,-1,2008,1660,0,0
791,-636,0,0,0,0,0,0,0,0,0,-1,2015,1660,0,0
798,-636,0,0,0,0,0,0,0,0,0,-1,2022,1660,0,0
805,-636,0,0,0,0,0,0,0,0,0,-1,2029,1660,0,0
812,-636,0,0,0,0,0,0,0,0,0,-1,2036,1660,0,0
-700,-643,0,0,0,0,0,0,0,0,0,-1,524,1667,0,0
-693,-643,0,0,0,0,0,0,0,0,0,-1,531,1667,0,0
-686,-643,0,0,0,0,0,0,0,0,0,-1,538,1667,0,0
-679,-643,0,0,0,0,0,0,0,0,0,-1,545,1667,0,0
-672,-643,0,0,0,0,0,0,0,0,0,-1,552,1667,0,0
-665,-643,0,0,0,0,0,0,0,0,0,-1,559,1667,0,0
-658,-643,0,0,0,0,0,0,0,0,0,-1,566,1667,0,0
-651,-643,0,0,0,0,0,0,0,0,0,-1,573,1667,0,0
-644,-643,0,0,0,0,0,0,0,0,0,-1,580,1667,0,0
-637,-643,0,0,0,0,0,0,0,0,0,-1,587,1667,0,0
-630,-643,0,0,0,0,0,0,0,0,0,-1,594,1667,0,0
-623,-643,0,0,0,0,0,0,0,0,0,-1,601,1667,0,0
-616,-643,0,0,0,0,0,0,0,0,0,-1,608,1667,0,0
-609,-643,0,0,0,0,0,0,0,0,0,-1,615,1667,0,0
-602,-643,0,0,0,0,0,0,0,0,0,-1,622,1667,0,0
-595,-643,0,0,0,0,0,0,0,0,0,-1,629,1667,0,0
-588,-643,0,0,0,0,0,0,0,0,0,-1,636,1667,0,0
-581,-643,0,0,0,0,0,0,0,0,0,-1,643,1667,0,0
-574,-643,0,0,0,0,0,0,0,0,0,-1,650,1667,0,0
-567,-643,0,0,0,0,0,0,0,0,0,-1,657,1667,0,0
-560,-643,0,0,0,0,0,0,0,0,0,-1,664,1667,0,0
-553,-643,0,0,0,0,0,0,0,0,0,-1,671,1667,0,0
-546,-643,0,0,0,0,0,0,0,0,0,-1,678,1667,0,0
-539,-643,0,0,0,0,0,0,0,0,0,-1,685,1667,0,0
-532,-643,0,0,0,0,0,0,0,0,0,-1,692,1667,0,0
-525,-643,0,0,0,0,0,0,0,0,0,-1,699,1667,0,0
-518,-643,0,0,0,0,0,0,0,0,0,-1,706,1667,0,0
-511,-643,0,0,0,0,0,0,0,0,0,-1,713,1667,0,0
-504,-643,0,0,0,0,0,0,0,0,0,-1,720,1667,0,0
-497,-643,0,0,0,0,0,0,0,0,0,-1,727,1667,0,0
-490,-643,0,0,0,0,0,0,0,0,0,-1,734,1667,0,0
-483,-643,0,0,0,0,0,0,0,0,0,-1,741,1667,0,0
-476,-643,0,0,0,0,0,0,0,0,0,-1,748,1667,0,0
-469,-643,0,0,0,0,0,0,0,0,0,-1,755,1667,0,0
-462,-643,0,0,0,0,0,0,0,0,0,-1,762,1667,0,0
-455,-643,0,0,0,0,0,0,0,0,0,-1,769,1667,0,0
-448,-643,0,0,0,0,0,0,0,0,0,-1,776,1667,0,0
-441,-643,0,0,0,0,0,0,0,0,0,-1,783,1667,0,0
-434,-643,0,0,0,0,0,0,0,0,0,-1,790,1667,0,0
-427,-643,0,0,0,0,0,0,0,0,0,-1,797,1667,0,0
-420,-643,0,0,0,0,0,0,0,0,0,-1,804,1667,0,0
-413,-643,0,0,0,0,0,0,0,0,0,-1,811,1667,0,0
-406,-643,0,0,0,0,0,0,0,0,0,-1,818,1667,0,0
-399,-643,0.589417,11.6465,0,0,0,0,0,0,0,-1,825,1667,0.58939,-11.6465
-392,-643,0.865295,12.6523,0,0,0,0,0,0,0,-1,832,1667,0.865315,-12.6523
-385,-643,1.72968,13.2692,0,0,0,0,0,0,0,-1,839,1667,1.72967,-13.2692
-378,-643,2.66522,13.8193,0,0,0,0,0,0,0,-1,846,1667,2.66524,-13.8193
-371,-643,0.466125,3.35095,0,0,0,0,0,0,0,-1,853,1667,0.466148,-3.351
-364,-643,1.69513,9.922,0,0,0,0,0,0,0,-1,860,1667,1.69511,-9.92205
-357,-643,1.14227,10.8429,0,0,0,0,0,0,0,-1,867,1667,1.14228,-10.8429
-350,-643,2.50061,9.96948,0,0,0,0,0,0,0,-1,874,1667,2.50059,-9.96954
-343,-643,5.03363,27.4491,0,0,0,0,0,0,0,-1,881,1667,5.03361,-27.449
-336,-643,4.56458,27.9083,0,0,0,0,0,0,0,-1,888,1667,4.56455,-27.9083
-329,-643,4.77643,28.0164,-0.00565838,0.00104831,0.000148158,0.00105158,-0.00566165,1.54872,0.0041694,0.043007,895,1667,4.77644,-28.0163
-322,-643,4.88049,28.6218,-0.00559531,0.0016398,-0.000653655,0.00169838,-0.00565389,-1.48142,0.00444489,0.0281509,902,1667,4.88047,-28.6218
-315,-643,4.81146,29.0618,-0.00571309,0.00174093,-0.0014283,0.00200524,-0.0059774,-1.38781,0.0047952,0.0188149,909,1667,4.81149,-29.0617
-308,-643,4.80853,29.5231,-0.00573646,0.00188795,-0.00200118,0.00238128,-0.00622979,-1.3291,0.00513445,0.013289,916,1667,4.80854,-29.5231
-301,-643,4.80426,30.0051,-0.005575,0.00189539,-0.00238973,0.00259443,-0.00627405,-1.28621,0.00526508,0.0140383,923,1667,4.80425,-30.0051
-294,-643,4.77283,30.4662,-0.00510096,0.00197183,-0.00241635,0.00271852,-0.00584765,-1.27109,0.00505447,0.0136803,930,1667,4.7728,-30.4662
-287,-643,4.74927,30.8998,-0.00436956,0.00218574,-0.00216766,0.00283768,-0.0050215,-1.27864,0.00459552,0.0109068,937,1667,4.7493,-30.8998
-280,-643,4.72821,31.3438,-0.00354269,0.00231902,-0.00176317,0.0028085,-0.00403216,-1.3,0.00397047,0.0142017,944,1667,4.72818,-31.3438
-273,-643,4.71008,31.7922,-0.0026144,0.00239403,-0.00121423,0.00267288,-0.00289325,-1.34506,0.00321445,0.0126363,951,1667,4.71009,-31.7923
-266,-643,4.70435,32.233,-0.00149708,0.00259627,-0.000516855,0.00266052,-0.00156134,-1.44712,0.00246488,0.0119107,958,1667,4.70436,-32.233
-259,-643,4.69452,32.6777,-0.00034409,0.00273887,0.000193805,0.00275101,-0.000356225,1.50826,0.00196355,0.0118688,965,1667,4.69455,-32.6777
-252,-643,4.65546,33.1205,0.000791211,0.0031149,0.000820832,0.0033756,0.000530506,1.26326,0.00209606,0.012912,972,1667,4.65546,-33.1204
-245,-643,4.65125,33.5372,0.00188904,0.00352036,0.00138987,0.00431623,0.00109317,1.05075,0.00259114,0.0111311,979,1667,4.65126,-33.5372
-238,-643,4.69733,33.9611,0.00277456,0.00387017,0.00181577,0.00521897,0.00142576,0.931904,0.0031148,0.014183,986,1667,4.69731,-33.9611
-231,-643,4.66345,34.38,0.00340753,0.00428221,0.00209462,0.00598466,0.00170508,0.888316,0.00356022,0.0105421,993,1667,4.66344,-34.3801
-224,-643,4.66486,34.771,0.00376016,0.00474794,0.00209802,0.00640942,0.00209869,0.900997,0.00377323,0.00901216,1000,1667,4.66488,-34.771
-217,-643,4.65857,35.1429,0.00393853,0.00542825,0.00208368,0.00689621,0.00247058,0.957056,0.00403451,0.00863312,1007,1667,4.65856,-35.143
-210,-643,4.65778,35.5619,0.00389392,0.00585547,0.00180274,0.00692696,0.00282243,1.03453,0.00402205,0.0121862,1014,1667,4.65781,-35.5619
-203,-643,4.65845,36.0394,0.00386789,0.00628495,0.00156783,0.00705597,0.00309687,1.11375,0.00408389,0.0168444,1021,1667,4.65845,-36.0394
-196,-643,4.67261,36.4098,0.00361747,0.00676582,0.00117742,0.00715744,0.00322586,1.2497,0.00413904,0.0168015,1028,1667,4.67267,-36.4098
-189,-643,4.79077,36.7198,0.00347715,0.00730815,0.000868133,0.0074957,0.0032896,1.35803,0.00433841,0.0157759,1035,1667,4.79078,-36.7199
-182,-643,4.82349,37.0928,0.00317598,0.00804962,0.000551462,0.00811124,0.00311436,1.45952,0.00472488,0.0220058,1042,1667,4.82348,-37.0927
-175,-643,4.89539,37.6023,0.00265027,0.00894517,0.000206248,0.00895192,0.00264352,1.53808,0.00531081,0.033501,1049,1667,4.89535,-37.6023
-168,-643,4.9646,38.0673,0.00258675,0.0102661,8.51449e-05,0.0102671,0.0025858,1.55971,0.00616623,0.0400852,1056,1667,4.96465,-38.0672
-161,-643,4.79846,38.1566,0.00264684,0.011406,2.46657e-05,0.0114061,0.00264677,1.56798,0.0068933,0.0458262,1063,1667,4.79842,-38.1566
-154,-643,4.65857,38.4128,0,0,0,0,0,0,0,-1,1070,1667,4.65857,-38.4128
-147,-643,5.9364,38.2205,0,0,0,0,0,0,0,-1,1077,1667,5.93634,-38.2205
-140,-643,4.30322,22.9166,0,0,0,0,0,0,0,-1,1084,1667,4.30327,-22.9167
-133,-643,3.66748,21.6034,0,0,0,0,0,0,0,-1,1091,1667,3.66743,-21.6034
-126,-643,3.13904,17.689,0,0,0,0,0,0,0,-1,1098,1667,3.13909,-17.689
-119,-643,3.76282,14.1458,0,0,0,0,0,0,0,-1,1105,1667,3.76283,-14.1458
-112,-643,3.81458,16.2069,0,0,0,0,0,0,0,-1,1112,1667,3.81463,-16.2069
-105,-643,-2.23413,10.0996,0,0,0,0,0,0,0,-1,1119,1667,-2.23415,-10.0996
-98,-643,3.11035,4.68066,0,0,0,0,0,0,0,-1,1126,1667,3.11041,-4.68071
-91,-643,-1.74146,-2.5885,0,0,0,0,0,0,0,-1,1133,1667,-1.74146,2.58856
-84,-643,-3.07446,-0.199341,0,0,0,0,0,0,0,-1,1140,1667,-3.07449,0.199383
-77,-643,-3.63794,2.81165,0,0,0,0,0,0,0,-1,1147,1667,-3.63791,-2.8117
-70,-643,-3.36938,4.45203,0,0,0,0,0,0,0,-1,1154,1667,-3.36941,-4.452
-63,-643,-3.67822,6.26855,0,0,0,0,0,0,0,-1,1161,1667,-3.67823,-6.26856
-56,-643,-3.95142,8.1073,0,0,0,0,0,0,0,-1,1168,1667,-3.95139,-8.10732
-49,-643,-4.23535,9.90552,0,0,0,0,0,0,0,-1,1175,1667,-4.23537,-9.90557
-42,-643,-4.25195,10.7059,0,0,0,0,0,0,0,-1,1182,1667,-4.25192,-10.706
-35,-643,-4.10986,11.6588,0,0,0,0,0,0,0,-1,1189,1667,-4.10982,-11.6589
-28,-643,-1.38513,5.604,0,0,0,0,0,0,0,-1,1196,1667,-1.3851,-5.60403
-21,-643,1.61011,23.1276,0,0,0,0,0,0,0,-1,1203,1667,1.61011,-23.1275
-14,-643,4.11682,43.7566,0,0,0,0,0,0,0,-1,1210,1667,4.11685,-43.7567
-7,-643,4.8158,43.4485,0.0987334,-0.0874304,-0.0503701,0.111488,-0.100185,-0.248007,0.122268,0.0489612,1217,1667,4.81581,-43.4484
0,-643,5.57593,43.2024,0.100366,-0.0819597,-0.0492102,0.1128,-0.0943938,-0.247492,0.11978,0.0426125,1224,1667,5.57594,-43.2024
7,-643,4.69409,39.3342,0,0,0,0,0,0,0,-1,1231,1667,4.69405,-39.3343
14,-643,4.63281,40.26,0,0,0,0,0,0,0,-1,1238,1667,4.63286,-40.2601
21,-643,6.10046,42.4238,0,0,0,0,0,0,0,-1,1245,1667,6.10052,-42.4238
28,-643,6.77649,42.3279,0.0979465,-0.0606108,-0.0579359,0.11686,-0.0795242,-0.315546,0.114063,0.0462768,1252,1667,6.77649,-42.3279
35,-643,6.16138,42.8555,0.0947837,-0.0554693,-0.0626324,0.117467,-0.0781528,-0.347475,0.113699,0.0430415,1259,1667,6.16143,-42.8555
42,-643,6.20544,42.6349,0.0895121,-0.0508828,-0.065844,0.11556,-0.0769304,-0.376704,0.111878,0.0457631,1266,1667,6.20545,-42.6349
49,-643,6.31018,42.5051,0,0,0,0,0,0,0,-1,1273,1667,6.31016,-42.5051
56,-643,7.36804,42.605,0.0773598,-0.0339192,-0.0675438,0.10923,-0.0657892,-0.440869,0.10208,0.0491355,1280,1667,7.36803,-42.605
63,-643,8.0697,42.2729,0.0656242,-0.0247985,-0.0677859,0.101893,-0.0610672,-0.491291,0.0950641,0.0471122,1287,1667,8.06972,-42.2729
70,-643,8.50732,42.1511,0,0,0,0,0,0,0,-1,1294,1667,8.50733,-42.1512
77,-643,8.42297,42.0007,0.0355957,-0.00284251,-0.0611243,0.0804512,-0.047698,-0.633079,0.0747882,0.0432158,1301,1667,8.42292,-42.0007
84,-643,8.75134,41.7578,0.0230784,0.0101358,-0.0573881,0.0743589,-0.0411447,-0.729254,0.0675989,0.045535,1308,1667,8.75138,-41.7579
91,-643,6.79199,44.6534,0,0,0,0,0,0,0,-1,1315,1667,6.79202,-44.6534
98,-643,6.61975,44.934,0,0,0,0,0,0,0,-1,1322,1667,6.61969,-44.934
105,-643,6.51782,45.5652,0,0,0,0,0,0,0,-1,1329,1667,6.51784,-45.5651
112,-643,6.48767,45.983,0,0,0,0,0,0,0,-1,1336,1667,6.48762,-45.983
119,-643,6.59546,46.0856,-0.0533095,0.0669218,-0.0107363,0.067873,-0.0542607,-1.48243,0.0706598,0.0478727,1343,1667,6.59549,-46.0855
126,-643,5.97046,46.8611,-0.0652028,0.0739303,-0.00279225,0.0739863,-0.0652588,-1.55074,0.0804459,0.0490094,1350,1667,5.97052,-46.8611
133,-643,5.41138,47.6335,-0.0755167,0.0786285,0.0044457,0.0787566,-0.0756448,1.54199,0.0891497,0.047086,1357,1667,5.41139,-47.6336
140,-643,4.40601,48.6918,-0.0843601,0.0808345,0.0104519,0.0814932,-0.0850188,1.50786,0.0961429,0.0409733,1364,1667,4.40605,-48.6917
147,-643,3.27393,49.5568,-0.0918846,0.081093,0.0181196,0.0829706,-0.0937622,1.46754,0.1021,0.0408289,1371,1667,3.27388,-49.5568
154,-643,2.42419,50.2106,0,0,0,0,0,0,0,-1,1378,1667,2.42423,-50.2106
161,-643,5.57935,26.2754,0,0,0,0,0,0,0,-1,1385,1667,5.57931,-26.2754
168,-643,10.5563,10.9818,0,0,0,0,0,0,0,-1,1392,1667,10.5562,-10.9819
175,-643,5.88525,-1.1698,0,0,0,0,0,0,0,-1,1399,1667,5.88526,1.16977
182,-643,5.80945,-0.418701,0,0,0,0,0,0,0,-1,1406,1667,5.80949,0.418712
189,-643,5.42297,12.9208,0,0,0,0,0,0,0,-1,1413,1667,5.42298,-12.9208
196,-643,5.51953,11.2415,0,0,0,0,0,0,0,-1,1420,1667,5.51948,-11.2414
203,-643,5.60828,9.82153,0,0,0,0,0,0,0,-1,1427,1667,5.60833,-9.82148
210,-643,4.73218,7.58728,0,0,0,0,0,0,0,-1,1434,1667,4.73222,-7.58728
217,-643,3.8031,5.28955,0,0,0,0,0,0,0,-1,1441,1667,3.80305,-5.28955
224,-643,2.96436,2.97095,0,0,0,0,0,0,0,-1,1448,1667,2.96432,-2.97095
231,-643,2.13403,1.08472,0,0,0,0,0,0,0,-1,1455,1667,2.13403,-1.08467
238,-643,1.18152,-0.261963,0,0,0,0,0,0,0,-1,1462,1667,1.18152,0.26192
245,-643,-0.157471,-1.79016,0,0,0,0,0,0,0,-1,1469,1667,-0.157517,1.7901
252,-643,8.08789,0.0202637,0,0,0,0,0,0,0,-1,1476,1667,8.08791,-0.0203056
259,-643,9.02979,-0.46936,0,0,0,0,0,0,0,-1,1483,1667,9.02974,0.46933
266,-643,4.55066,5.17554,0,0,0,0,0,0,0,-1,1490,1667,4.55063,-5.17556
273,-643,10.74,31.432,0,0,0,0,0,0,0,-1,1497,1667,10.7399,-31.4319
280,-643,10.5975,36.9519,0,0,0,0,0,0,0,-1,1504,1667,10.5975,-36.9519
287,-643,12.4106,38.8004,0,0,0,0,0,0,0,-1,1511,1667,12.4106,-38.8004
294,-643,12.0686,39.2992,-0.00211175,0.0398494,-0.00292542,0.0400524,-0.00231472,-1.50153,0.0275057,0.0468517,1518,1667,12.0686,-39.2992
301,-643,11.7201,38.5015,-0.00119171,0.0339135,-0.00270319,0.0341204,-0.00139864,-1.49439,0.0232272,0.0433752,1525,1667,11.7201,-38.5014
308,-643,11.7458,37.8296,-0.000331329,0.0278458,-0.00229606,0.0280317,-0.000517202,-1.49002,0.0188625,0.0438447,1532,1667,11.7459,-37.8296
315,-643,11.7765,37.3386,0.000601465,0.0226092,-0.00218924,0.0228249,0.000385802,-1.4726,0.0150896,0.0339068,1539,1667,11.7765,-37.3386
322,-643,11.8347,36.7465,0.00220462,0.0196466,-0.00281701,0.0200903,0.00176094,-1.41458,0.0128468,0.0216979,1546,1667,11.8347,-36.7465
329,-643,11.8463,36.4083,0.00334472,0.0171036,-0.00284312,0.0176679,0.00278037,-1.37485,0.0109699,0.0151733,1553,1667,11.8463,-36.4083
336,-643,11.7894,36.1487,0.00357556,0.0153215,-0.00269886,0.0159119,0.00298512,-1.35542,0.00976616,0.0131378,1560,1667,11.7894,-36.1487
343,-643,11.8018,35.8105,0.00357537,0.0133701,-0.00305705,0.014246,0.00269954,-1.29178,0.00873759,0.0141253,1567,1667,11.8017,-35.8105
350,-643,11.8291,35.4091,0.00387933,0.0109067,-0.00294098,0.0119751,0.00281095,-1.22235,0.00723088,0.0129136,1574,1667,11.8291,-35.409
357,-643,11.8324,35.0309,0.00365525,0.00962666,-0.00264223,0.0106279,0.002654,-1.20857,0.00638713,0.0106953,1581,1667,11.8324,-35.0309
364,-643,11.842,34.6406,0.00307638,0.00872221,-0.0023398,0.00956584,0.00223276,-1.22475,0.00577859,0.00921484,1588,1667,11.842,-34.6406
371,-643,11.8441,34.2632,0.00247679,0.00771426,-0.00195672,0.00836455,0.0018265,-1.24994,0.00507823,0.00795077,1595,1667,11.8441,-34.2632
378,-643,11.8407,33.8801,0.00185457,0.00656059,-0.00151281,0.00700494,0.00141022,-1.2851,0.00427808,0.0101225,1602,1667,11.8407,-33.8801
385,-643,11.8445,33.478,0.00124885,0.00506414,-0.00102713,0.00532309,0.000989903,-1.32384,0.0032691,0.0164495,1609,1667,11.8444,-33.4781
392,-643,11.832,33.0679,0.000575733,0.00328615,-0.000464153,0.00336344,0.000498451,-1.40581,0.00209599,0.0165219,1616,1667,11.8321,-33.0678
399,-643,11.8185,32.6836,-0.0001264,0.00151637,9.89746e-05,0.00152231,-0.000132342,1.51084,0.00106174,0.013324,1623,1667,11.8185,-32.6836
406,-643,11.8207,32.2379,-0.000658251,0.000119851,0.000537315,0.000394177,-0.000932576,1.09875,0.000786744,0.012105,1630,1667,11.8206,-32.238
413,-643,11.8273,31.7993,-0.00093901,-0.000861149,0.000859017,-4.01803e-05,-0.00175998,0.808043,0.00116016,0.0177037,1637,1667,11.8272,-31.7993
420,-643,11.7748,31.4003,-0.00114591,-0.00163604,0.00105588,-0.000307029,-0.00247492,0.671369,0.00155772,0.0178786,1644,1667,11.7747,-31.4003
427,-643,11.7527,31.0007,-0.00112126,-0.00205671,0.00111261,-0.000382062,-0.00279591,0.58642,0.00175054,0.0151897,1651,1667,11.7527,-31.0007
434,-643,11.7515,30.574,-0.000931782,-0.00206131,0.00109454,-0.000264888,-0.00272821,0.547222,0.00173725,0.0157929,1658,1667,11.7515,-30.574
441,-643,11.7621,30.1119,-0.00078232,-0.00165616,0.000951272,-0.000172427,-0.00226605,0.570118,0.00145663,0.0158178,1665,1667,11.7621,-30.1119
448,-643,11.6661,29.6597,-0.000577469,-0.00139815,0.00075588,-0.000127731,-0.00184789,0.536723,0.00119163,0.0197467,1672,1667,11.6661,-29.6596
455,-643,11.5562,29.1171,0.000251055,-0.000849318,0.00052475,0.000461176,-0.00105944,0.38087,0.000900292,0.0263639,1679,1667,11.5562,-29.1171
462,-643,11.691,28.5093,0.00107978,-0.000434715,0.000356003,0.00115929,-0.000514225,0.219732,0.000989842,0.0418108,1686,1667,11.691,-28.5093
469,-643,11.9286,27.9274,0,0,0,0,0,0,0,-1,1693,1667,11.9286,-27.9273
476,-643,10.5598,24.5066,0,0,0,0,0,0,0,-1,1700,1667,10.5598,-24.5065
483,-643,10.4502,24.3062,0,0,0,0,0,0,0,-1,1707,1667,10.4502,-24.3062
490,-643,10.6885,24.1522,0,0,0,0,0,0,0,-1,1714,1667,10.6884,-24.1522
497,-643,10.9073,23.9465,0,0,0,0,0,0,0,-1,1721,1667,10.9074,-23.9465
504,-643,8.05591,19.0656,0,0,0,0,0,0,0,-1,1728,1667,8.0559,-19.0655
511,-643,7.74719,18.1564,0,0,0,0,0,0,0,-1,1735,1667,7.74724,-18.1563
518,-643,7.40564,0.922607,0,0,0,0,0,0,0,-1,1742,1667,7.4057,-0.922598
525,-643,0,0,0,0,0,0,0,0,0,-1,1749,1667,0,0
532,-643,0,0,0,0,0,0,0,0,0,-1,1756,1667,0,0
539,-643,0,0,0,0,0,0,0,0,0,-1,1763,1667,0,0
546,-643,0,0,0,0,0,0,0,0,0,-1,1770,1667,0,0
553,-643,0,0,0,0,0,0,0,0,0,-1,1777,1667,0,0
560,-643,0,0,0,0,0,0,0,0,0,-1,1784,1667,0,0
567,-643,0,0,0,0,0,0,0,0,0,-1,1791,1667,0,0
574,-643,0,0,0,0,0,0,0,0,0,-1,1798,1667,0,0
581,-643,0,0,0,0,0,0,0,0,0,-1,1805,1667,0,0
588,-643,0,0,0,0,0,0,0,0,0,-1,1812,1667,0,0
595,-643,0,0,0,0,0,0,0,0,0,-1,1819,1667,0,0
602,-643,0,0,0,0,0,0,0,0,0,-1,1826,1667,0,0
609,-643,0,0,0,0,0,0,0,0,0,-1,1833,1667,0,0
616,-643,0,0,0,0,0,0,0,0,0,-1,1840,1667,0,0
623,-643,0,0,0,0,0,0,0,0,0,-1,1847,1667,0,0
630,-643,0,0,0,0,0,0,0,0,0,-1,1854,1667,0,0
637,-643,0,0,0,0,0,0,0,0,0,-1,1861,1667,0,0
644,-643,0,0,0,0,0,0,0,0,0,-1,1868,1667,0,0
651,-643,0,0,0,0,0,0,0,0,0,-1,1875,1667,0,0
658,-643,0,0,0,0,0,0,0,0,0,-1,1882,1667,0,0
665,-643,0,0,0,0,0,0,0,0,0,-1,1889,1667,0,0
672,-643,0,0,0,0,0,0,0,0,0,-1,1896,1667,0,0
679,-643,0,0,0,0,0,0,0,0,0,-1,1903,1667,0,0
686,-643,0,0,0,0,0,0,0,0,0,-1,1910,1667,0,0
693,-643,0,0,0,0,0,0,0,0,0,-1,1917,1667,0,0
700,-643,0,0,0,0,0,0,0,0,0,-1,1924,1667,0,0
707,-643,0,0,0,0,0,0,0,0,0,-1,1931,1667,0,0
714,-643,0,0,0,0,0,0,0,0,0,-1,1938,1667,0,0
721,-643,0,0,0,0,0,0,0,0,0,-1,1945,1667,0,0
728,-643,0,0,0,0,0,0,0,0,0,-1,1952,1667,0,0
735,-643,0,0,0,0,0,0,0,0,0,-1,1959,1667,0,0
742,-643,0,0,0,0,0,0,0,0,0,-1,1966,1667,0,0
749,-643,0,0,0,0,0,0,0,0,0,-1,1973,1667,0,0
756,-643,0,0,0,0,0,0,0,0,0,-1,1980,1667,0,0
763,-643,0,0,0,0,0,0,0,0,0,-1,1987,1667,0,0
770,-643,0,0,0,0,0,0,0,0,0,-1,1994,1667,0,0
777,-643,0,0,0,0,0,0,0,0,0,-1,2001,1667,0,0
784,-643,0,0,0,0,0,0,0,0,0,-1,2008,1667,0,0
791,-643,0,0,0,0,0,0,0,0,0,-1,2015,1667,0,0
798,-643,0,0,0,0,0,0,0,0,0,-1,2022,1667,0,0
805,-643,0,0,0,0,0,0,0,0,0,-1,2029,1667,0,0
812,-643,0,0,0,0,0,0,0,0,0,-1,2036,1667,0,0
-700,-650,0,0,0,0,0,0,0,0,0,-1,524,1674,0,0
-693,-650,0,0,0,0,0,0,0,0,0,-1,531,1674,0,0
-686,-650,0,0,0,0,0,0,0,0,0,-1,538,1674,0,0
-679,-650,0,0,0,0,0,0,0,0,0,-1,545,1674,0,0
-672,-650,0,0,0,0,0,0,0,0,0,-1,552,1674,0,0
-665,-650,0,0,0,0,0,0,0,0,0,-1,559,1674,0,0
-658,-650,0,0,0,0,0,0,0,0,0,-1,566,1674,0,0
-651,-650,0,0,0,0,0,0,0,0,0,-1,573,1674,0,0
-644,-650,0,0,0,0,0,0,0,0,0,-1,580,1674,0,0
-637,-650,0,0,0,0,0,0,0,0,0,-1,587,1674,0,0
-630,-650,0,0,0,0,0,0,0,0,0,-1,594,1674,0,0
-623,-650,0,0,0,0,0,0,0,0,0,-1,601,1674,0,0
-616,-650,0,0,0,0,0,0,0,0,0,-1,608,1674,0,0
-609,-650,0,0,0,0,0,0,0,0,0,-1,615,1674,0,0
-602,-650,0,0,0,0,0,0,0,0,0,-1,622,1674,0,0
-595,-650,0,0,0,0,0,0,0,0,0,-1,629,1674,0,0
-588,-650,0,0,0,0,0,0,0,0,0,-1,636,1674,0,0
-581,-650,0,0,0,0,0,0,0,0,0,-1,643,1674,0,0
-574,-650,0,0,0,0,0,0,0,0,0,-1,650,1674,0,0
-567,-650,0,0,0,0,0,0,0,0,0,-1,657,1674,0,0
-560,-650,0,0,0,0,0,0,0,0,0,-1,664,1674,0,0
-553,-650,0,0,0,0,0,0,0,0,0,-1,671,1674,0,0
-546,-650,0,0,0,0,0,0,0,0,0,-1,678,1674,0,0
-539,-650,0,0,0,0,0,0,0,0,0,-1,685,1674,0,0
-532,-650,0,0,0,0,0,0,0,0,0,-1,692,1674,0,0
-525,-650,0,0,0,0,0,0,0,0,0,-1,699,1674,0,0
-518,-650,0,0,0,0,0,0,0,0,0,-1,706,1674,0,0
-511,-650,0,0,0,0,0,0,0,0,0,-1,713,1674,0,0
-504,-650,0,0,0,0,0,0,0,0,0,-1,720,1674,0,0
-497,-650,0,0,0,0,0,0,0,0,0,-1,727,1674,0,0
-490,-650,0,0,0,0,0,0,0,0,0,-1,734,1674,0,0
-483,-650,0,0,0,0,0,0,0,0,0,-1,741,1674,0,0
-476,-650,0,0,0,0,0,0,0,0,0,-1,748,1674,0,0
-469,-650,0,0,0,0,0,0,0,0,0,-1,755,1674,0,0
-462,-650,0,0,0,0,0,0,0,0,0,-1,762,1674,0,0
-455,-650,0,0,0,0,0,0,0,0,0,-1,769,1674,0,0
-448,-650,0,0,0,0,0,0,0,0,0,-1,776,1674,0,0
-441,-650,0,0,0,0,0,0,0,0,0,-1,783,1674,0,0
-434,-650,0,0,0,0,0,0,0,0,0,-1,790,1674,0,0
-427,-650,0,0,0,0,0,0,0,0,0,-1,797,1674,0,0
-420,-650,0,0,0,0,0,0,0,0,0,-1,804,1674,0,0
-413,-650,0,0,0,0,0,0,0,0,0,-1,811,1674,0,0
-406,-650,0,0,0,0,0,0,0,0,0,-1,818,1674,0,0
-399,-650,0,0,0,0,0,0,0,0,0,-1,825,1674,0,0
-392,-650,5.44415,6.85669,0,0,0,0,0,0,0,-1,832,1674,5.44414,-6.85674
-385,-650,1.74451,14.0183,0,0,0,0,0,0,0,-1,839,1674,1.74453,-14.0183
-378,-650,0.997986,4.11108,0,0,0,0,0,0,0,-1,846,1674,0.998006,-4.11113
-371,-650,-1.80096,3.78625,0,0,0,0,0,0,0,-1,853,1674,-1.80094,-3.78625
-364,-650,-2.95679,2.57507,0,0,0,0,0,0,0,-1,860,1674,-2.95681,-2.57506
-357,-650,1.97833,10.8362,0,0,0,0,0,0,0,-1,867,1674,1.97835,-10.8362
-350,-650,-5.30243,0.159912,0,0,0,0,0,0,0,-1,874,1674,-5.30244,-0.159866
-343,-650,-6.21338,-1.4425,0,0,0,0,0,0,0,-1,881,1674,-6.21341,1.44248
-336,-650,4.74084,25.8169,0,0,0,0,0,0,0,-1,888,1674,4.74087,-25.8168
-329,-650,5.12897,27.9641,0,0,0,0,0,0,0,-1,895,1674,5.12895,-27.9641
-322,-650,5.33258,28.6841,0,0,0,0,0,0,0,-1,902,1674,5.33258,-28.6841
-315,-650,5.18994,28.9363,-0.00844377,0.00269985,-0.00285419,0.00338834,-0.00913227,-1.33409,0.00747804,0.0422336,909,1674,5.18996,-28.9363
-308,-650,5.23181,29.3929,-0.00861839,0.00267343,-0.00368814,0.00377131,-0.00971627,-1.28147,0.00803525,0.0255447,916,1674,5.23183,-29.3929
-301,-650,5.25085,30.0236,-0.00855318,0.00244976,-0.00427724,0.00391686,-0.0100203,-1.24037,0.00829982,0.0150364,923,1674,5.25085,-30.0236
-294,-650,5.19769,30.4589,-0.0080464,0.00227746,-0.00437905,0.00388469,-0.00965364,-1.21903,0.00804943,0.0119044,930,1674,5.19769,-30.4588
-287,-650,5.18427,30.922,-0.00720792,0.00224178,-0.0041226,0.0037875,-0.00875364,-1.21208,0.00742745,0.0135477,937,1674,5.18426,-30.922
-280,-650,5.15808,31.3566,-0.0062526,0.00213605,-0.00365528,0.0035053,-0.00762185,-1.21238,0.00656918,0.0148055,944,1674,5.1581,-31.3566
-273,-650,5.13818,31.8135,-0.00516527,0.00201612,-0.00299454,0.00310093,-0.00625008,-1.22324,0.00549991,0.0140929,951,1674,5.13816,-31.8135
-266,-650,5.12006,32.2672,-0.00384045,0.00203225,-0.00214036,0.00272953,-0.00453773,-1.25586,0.00423883,0.0116901,958,1674,5.12006,-32.2672
-259,-650,5.07727,32.708,-0.00250657,0.00197155,-0.00129449,0.00231882,-0.00285384,-1.3087,0.00299176,0.0141442,965,1674,5.07729,-32.708
-252,-650,5.06116,33.1246,-0.00122112,0.00216771,-0.000537862,0.00225103,-0.00130444,-1.41711,0.00207686,0.0128249,972,1674,5.06116,-33.1246
-245,-650,5.07501,33.531,3.87543e-05,0.00244808,0.000157312,0.00245831,2.85262e-05,1.50587,0.00162945,0.0115688,979,1674,5.07499,-33.5311
-238,-650,5.07367,33.9551,0.00107968,0.00275581,0.00075626,0.00304658,0.0007889,1.20373,0.00182581,0.013078,986,1674,5.0737,-33.9551
-231,-650,5.04108,34.4061,0.00193028,0.00308519,0.00127937,0.00391139,0.00110408,0.997391,0.00232852,0.0178535,993,1674,5.04111,-34.4061
-224,-650,5.05603,34.808,0.00250081,0.0033284,0.00145712,0.00442934,0.00139987,0.923748,0.00261433,0.0148016,1000,1674,5.05605,-34.808
-217,-650,5.0636,35.1608,0.00278049,0.00392412,0.00146436,0.00492435,0.00178027,0.971537,0.00287919,0.0105079,1007,1674,5.06361,-35.1607
-210,-650,5.07806,35.5509,0.00288171,0.00436717,0.00127465,0.0050997,0.00214918,1.0492,0.0029564,0.0101171,1014,1674,5.07808,-35.551
-203,-650,5.11694,35.9629,0.00298098,0.00470236,0.00108464,0.00522631,0.00245703,1.12079,0.00301921,0.0140392,1021,1674,5.11692,-35.9628
-196,-650,5.1217,36.3392,0.00290026,0.00508181,0.00080874,0.00534892,0.00263315,1.2518,0.00308832,0.013354,1028,1674,5.12176,-36.3393
-189,-650,5.11365,36.6848,0.00286154,0.00550315,0.000559667,0.00561683,0.00274786,1.3704,0.00324313,0.0118827,1035,1674,5.11363,-36.6849
-182,-650,5.15723,37.0597,0.00274388,0.00612475,0.000305222,0.00615209,0.00271655,1.48148,0.00355999,0.0115504,1042,1674,5.15719,-37.0597
-175,-650,5.1842,37.4069,0.00249034,0.00679701,5.72394e-05,0.00679777,0.00248958,1.55751,0.00397123,0.0172359,1049,1674,5.18419,-37.4069
-168,-650,5.16321,37.7596,0.0026434,0.00783052,3.36063e-05,0.00783073,0.00264319,1.56432,0.00459994,0.0223135,1056,1674,5.16317,-37.7596
-161,-650,5.12158,38.071,0.00285881,0.0087248,4.53611e-05,0.00872515,0.00285846,1.56306,0.0051363,0.0305425,1063,1674,5.12156,-38.071
-154,-650,5.18042,38.3156,0.0032962,0.00966947,0.000101156,0.00967108,0.0032946,1.55493,0.00567731,0.0354637,1070,1674,5.18037,-38.3156
-147,-650,5.2804,38.6616,0,0,0,0,0,0,0,-1,1077,1674,5.28034,-38.6616
-140,-650,4.9696,36.0964,0,0,0,0,0,0,0,-1,1084,1674,4.96957,-36.0964
-133,-650,4.69751,37.2125,0,0,0,0,0,0,0,-1,1091,1674,4.69756,-37.2125
-126,-650,4.56946,39.0813,0,0,0,0,0,0,0,-1,1098,1674,4.5695,-39.0813
-119,-650,5.16663,20.6232,0,0,0,0,0,0,0,-1,1105,1674,5.16665,-20.6232
-112,-650,3.86292,14.4513,0,0,0,0,0,0,0,-1,1112,1674,3.8629,-14.4513
-105,-650,7.92102,38.1313,0,0,0,0,0,0,0,-1,1119,1674,7.92104,-38.1314
-98,-650,3.3761,6.78003,0,0,0,0,0,0,0,-1,1126,1674,3.37611,-6.78009
-91,-650,3.66809,7.04443,0,0,0,0,0,0,0,-1,1133,1674,3.66806,-7.04439
-84,-650,-3.82666,-1.59521,0,0,0,0,0,0,0,-1,1140,1674,-3.82661,1.59517
-77,-650,-4.70557,1.90198,0,0,0,0,0,0,0,-1,1147,1674,-4.7056,-1.90194
-70,-650,-4.88171,3.81653,0,0,0,0,0,0,0,-1,1154,1674,-4.88176,-3.81651
-63,-650,-5.14612,5.56543,0,0,0,0,0,0,0,-1,1161,1674,-5.14612,-5.56547
-56,-650,-5.38367,7.41101,0,0,0,0,0,0,0,-1,1168,1674,-5.38361,-7.41102
-49,-650,-5.11316,8.23706,0,0,0,0,0,0,0,-1,1175,1674,-5.11317,-8.23708
-42,-650,-4.99487,9.6792,0,0,0,0,0,0,0,-1,1182,1674,-4.99484,-9.67921
-35,-650,-4.77771,11.3369,0,0,0,0,0,0,0,-1,1189,1674,-4.77769,-11.3369
-28,-650,-4.1936,13.1501,0,0,0,0,0,0,0,-1,1196,1674,-4.19358,-13.1501
-21,-650,7.49512,36.2162,0,0,0,0,0,0,0,-1,1203,1674,7.49515,-36.2162
-14,-650,4.17419,43.3931,0,0,0,0,0,0,0,-1,1210,1674,4.17416,-43.3931
-7,-650,5.05957,43.4209,0.0845885,-0.0585309,-0.0428706,0.0964475,-0.07039,-0.269875,0.0967145,0.0491792,1217,1674,5.05953,-43.4209
0,-650,5.94226,43.3888,0.0869094,-0.0530837,-0.0434336,0.09929,-0.0654643,-0.277682,0.0957868,0.0414135,1224,1674,5.94222,-43.3888
7,-650,6.27356,43.5254,0,0,0,0,0,0,0,-1,1231,1674,6.27357,-43.5254
14,-650,6.88867,43.265,0,0,0,0,0,0,0,-1,1238,1674,6.88861,-43.2651
21,-650,6.96631,42.912,0.0913311,-0.042288,-0.0541477,0.110519,-0.0614755,-0.340549,0.100637,0.0433705,1245,1674,6.96635,-42.912
28,-650,7.29712,43.1071,0.0904351,-0.0400159,-0.0588704,0.113074,-0.0626545,-0.367116,0.102839,0.0448713,1252,1674,7.29711,-43.107
35,-650,7.60303,43.1703,0.0883295,-0.0374915,-0.0633644,0.114709,-0.0638714,-0.394496,0.104487,0.0437217,1259,1674,7.60306,-43.1703
42,-650,7.62598,43.0498,0.0838228,-0.0350341,-0.0657312,0.113008,-0.0642191,-0.417857,0.103606,0.0442147,1266,1674,7.626,-43.0498
49,-650,7.84656,43.0435,0,0,0,0,0,0,0,-1,1273,1674,7.84655,-43.0434
56,-650,8.39758,43.03,0.0726461,-0.0234808,-0.0657561,0.106032,-0.0568665,-0.469804,0.0954665,0.0442047,1280,1674,8.39753,-43.03
63,-650,8.98267,42.8521,0.0625865,-0.0166017,-0.0645234,0.0986956,-0.0527107,-0.510204,0.0887482,0.0462521,1287,1674,8.98261,-42.8521
70,-650,9.55542,42.6482,0.0489938,-0.00857529,-0.0615725,0.0881778,-0.0477592,-0.566746,0.0796313,0.0477064,1294,1674,9.55543,-42.6482
77,-650,9.70471,42.3442,0.035436,0.000986366,-0.0559948,0.0767955,-0.0403731,-0.636184,0.0687281,0.0448399,1301,1674,9.70467,-42.3442
84,-650,7.4729,44.2411,0,0,0,0,0,0,0,-1,1308,1674,7.47289,-44.2411
91,-650,7.32568,44.4365,0.00987102,0.021987,-0.0452996,0.0616319,-0.0297739,-0.851869,0.053831,0.0463784,1315,1674,7.32566,-44.4365
98,-650,7.16479,44.6781,-0.0042892,0.0309453,-0.0329035,0.0506511,-0.023995,-1.03119,0.0440034,0.0451751,1322,1674,7.16475,-44.6781
105,-650,6.99854,45.1705,-0.0195148,0.0422171,-0.0257943,0.0515762,-0.0288738,-1.22273,0.0470603,0.0464643,1329,1674,6.99856,-45.1705
112,-650,6.93762,45.5836,-0.0334607,0.0519255,-0.0177506,0.0554686,-0.0370037,-1.37378,0.0537425,0.0479709,1336,1674,6.93762,-45.5836
119,-650,6.91797,45.8518,-0.0464804,0.0600554,-0.0110545,0.0611904,-0.0476153,-1.46849,0.0629818,0.0476649,1343,1674,6.91798,-45.8518
126,-650,6.81873,46.1387,-0.0567528,0.0652018,-0.00531618,0.0654331,-0.0569841,-1.52731,0.0707337,0.0490288,1350,1674,6.81869,-46.1386
133,-650,6.72852,46.4659,-0.0651945,0.0684323,9.01279e-05,0.0684324,-0.0651946,1.57012,0.0771571,0.0466598,1357,1674,6.72857,-46.4659
140,-650,6.60437,46.8488,-0.0720641,0.069747,0.00466283,0.0699002,-0.0722173,1.53796,0.0820552,0.0424848,1364,1674,6.60436,-46.8488
147,-650,4.08398,49.2408,-0.0770135,0.0699389,0.0102817,0.0706548,-0.0777293,1.50128,0.0857021,0.0456735,1371,1674,4.08403,-49.2408
154,-650,3.22974,49.8604,0,0,0,0,0,0,0,-1,1378,1674,3.22975,-49.8603
161,-650,4.09106,30.3021,0,0,0,0,0,0,0,-1,1385,1674,4.09104,-30.3021
168,-650,11.2113,7.87231,0,0,0,0,0,0,0,-1,1392,1674,11.2113,-7.87236
175,-650,5.62537,-0.230713,0,0,0,0,0,0,0,-1,1399,1674,5.62538,0.230745
182,-650,5.56006,0.421631,0,0,0,0,0,0,0,-1,1406,1674,5.56,-0.421652
189,-650,4.81543,11.0654,0,0,0,0,0,0,0,-1,1413,1674,4.81542,-11.0654
196,-650,5.39575,11.9077,0,0,0,0,0,0,0,-1,1420,1674,5.39575,-11.9078
203,-650,3.93628,11.8215,0,0,0,0,0,0,0,-1,1427,1674,3.93624,-11.8216
210,-650,5.40955,8.08594,0,0,0,0,0,0,0,-1,1434,1674,5.40958,-8.086
217,-650,5.12451,4.69739,0,0,0,0,0,0,0,-1,1441,1674,5.12451,-4.69738
224,-650,4.79041,1.45813,0,0,0,0,0,0,0,-1,1448,1674,4.79046,-1.45816
231,-650,4.04102,-0.642212,0,0,0,0,0,0,0,-1,1455,1674,4.04101,0.642209
238,-650,3.23022,-1.43396,0,0,0,0,0,0,0,-1,1462,1674,3.23023,1.43394
245,-650,1.65894,-2.55042,0,0,0,0,0,0,0,-1,1469,1674,1.65889,2.55036
252,-650,8.75342,0.355103,0,0,0,0,0,0,0,-1,1476,1674,8.75337,-0.355147
259,-650,5.61255,3.17566,0,0,0,0,0,0,0,-1,1483,1674,5.61257,-3.17572
266,-650,4.00403,6.10229,0,0,0,0,0,0,0,-1,1490,1674,4.00401,-6.10225
273,-650,10.6254,37.5065,0,0,0,0,0,0,0,-1,1497,1674,10.6254,-37.5065
280,-650,11.4524,38.9589,0,0,0,0,0,0,0,-1,1504,1674,11.4524,-38.9588
287,-650,11.5576,38.6884,-0.000471123,0.0317593,-0.00186391,0.0318667,-0.000578556,-1.51322,0.0214399,0.0444244,1511,1674,11.5576,-38.6884
294,-650,11.4658,38.3982,-0.000107556,0.028398,-0.00185072,0.0285176,-0.00022721,-1.50623,0.019088,0.0426809,1518,1674,11.4658,-38.3982
301,-650,11.3151,37.9517,0.000304832,0.0245528,-0.00174698,0.024678,0.000179614,-1.49924,0.0163925,0.0336823,1525,1674,11.3151,-37.9517
308,-650,11.3956,37.5507,0.000730104,0.0204048,-0.0015265,0.0205225,0.000612372,-1.49382,0.0134822,0.0186445,1532,1674,11.3957,-37.5506
315,-650,11.4182,37.1913,0.00119355,0.0166674,-0.00146217,0.0168044,0.0010566,-1.4774,0.0108678,0.0138435,1539,1674,11.4183,-37.1912
322,-650,11.4124,36.848,0.00196427,0.0142151,-0.00177522,0.0144672,0.00171222,-1.42975,0.00912774,0.0122427,1546,1674,11.4124,-36.848
329,-650,11.4314,36.4849,0.00251548,0.0120634,-0.00180616,0.0123937,0.00218524,-1.38995,0.00763893,0.0156328,1553,1674,11.4314,-36.4849
336,-650,11.4427,36.1432,0.00258428,0.0105011,-0.00168061,0.010843,0.00224228,-1.37004,0.0066093,0.014138,1560,1674,11.4428,-36.1432
343,-650,11.4636,35.7635,0.00249448,0.00891665,-0.00189502,0.00943412,0.00197701,-1.30422,0.00574495,0.0138823,1567,1674,11.4636,-35.7635
350,-650,11.4731,35.3965,0.00256466,0.00694428,-0.00176727,0.00756846,0.00194048,-1.23129,0.00453924,0.0158227,1574,1674,11.4731,-35.3965
357,-650,11.4513,35.0347,0.00226947,0.00585426,-0.00144968,0.00636713,0.0017566,-1.23076,0.00379716,0.0136578,1581,1674,11.4513,-35.0347
364,-650,11.4482,34.6567,0.00171206,0.0050609,-0.00111638,0.00539894,0.00137402,-1.27677,0.00323991,0.00944882,1588,1674,11.4482,-34.6568
371,-650,11.4536,34.2616,0.00113661,0.00418865,-0.000719154,0.00434961,0.000975644,-1.3506,0.00263543,0.0109671,1595,1674,11.4537,-34.2616
378,-650,11.4344,33.8644,0.00055103,0.00319968,-0.000255085,0.00322402,0.000526688,-1.47565,0.00199707,0.0120996,1602,1674,11.4344,-33.8644
385,-650,11.4192,33.4679,-2.13033e-05,0.00192135,0.000249481,0.00195288,-5.28308e-05,1.44509,0.00131988,0.0139333,1609,1674,11.4192,-33.4679
392,-650,11.4252,33.0928,-0.000678193,0.00034995,0.000812944,0.000797724,-0.00112597,1.06733,0.00111602,0.0176901,1616,1674,11.4252,-33.0928
399,-650,11.4111,32.7037,-0.00136535,-0.00116695,0.00134358,8.10887e-05,-0.00261338,0.822248,0.0017699,0.0160648,1623,1674,11.4112,-32.7037
406,-650,11.3942,32.272,-0.00186159,-0.0023061,0.0017268,-0.000342798,-0.00382489,0.721396,0.00244369,0.0139056,1630,1674,11.3941,-32.2719
413,-650,11.4144,31.8428,-0.00208604,-0.0030674,0.00200353,-0.000513982,-0.00463946,0.665309,0.00293668,0.0140107,1637,1674,11.4144,-31.8428
420,-650,11.3799,31.4293,-0.00225197,-0.00360058,0.00211571,-0.000705703,-0.00514684,0.63113,0.00322186,0.0149523,1644,1674,11.3799,-31.4293
427,-650,11.3334,31.0131,-0.00211033,-0.00367713,0.00203092,-0.000716954,-0.00507051,0.601323,0.00316851,0.0140442,1651,1674,11.3333,-31.0131
434,-650,11.307,30.6099,-0.00179606,-0.00336679,0.00193969,-0.000488773,-0.00467408,0.59304,0.00296658,0.0167585,1658,1674,11.307,-30.6099
441,-650,11.2709,30.2214,-0.00163501,-0.00263323,0.00168228,-0.000379366,-0.00388888,0.641191,0.00247584,0.0279754,1665,1674,11.2708,-30.2214
448,-650,11.0449,29.7292,-0.00139015,-0.002112,0.00133029,-0.000372692,-0.00312945,0.65293,0.00197384,0.042287,1672,1674,11.0449,-29.7293
455,-650,11.0177,29.0331,-0.000159342,-0.0011106,0.000918656,0.000399509,-0.00166946,0.546526,0.00126731,0.0464511,1679,1674,11.0177,-29.0331
462,-650,11.0406,28.5322,0.00103027,-0.00011244,0.000759407,0.00140926,-0.000491424,0.462889,0.00113921,0.0489424,1686,1674,11.0406,-28.5322
469,-650,11.077,28.0707,0,0,0,0,0,0,0,-1,1693,1674,11.077,-28.0707
476,-650,10.9189,27.1289,0,0,0,0,0,0,0,-1,1700,1674,10.919,-27.1289
483,-650,10.2426,24.5127,0,0,0,0,0,0,0,-1,1707,1674,10.2425,-24.5127
490,-650,10.4818,24.3475,0,0,0,0,0,0,0,-1,1714,1674,10.4818,-24.3475
497,-650,10.4985,20.1362,0,0,0,0,0,0,0,-1,1721,1674,10.4986,-20.1362
504,-650,9.69458,18.7721,0,0,0,0,0,0,0,-1,1728,1674,9.6946,-18.772
511,-650,9.37158,17.7506,0,0,0,0,0,0,0,-1,1735,1674,9.37159,-17.7506
518,-650,0,0,0,0,0,0,0,0,0,-1,1742,1674,0,0
525,-650,0,0,0,0,0,0,0,0,0,-1,1749,1674,0,0
532,-650,0,0,0,0,0,0,0,0,0,-1,1756,1674,0,0
539,-650,0,0,0,0,0,0,0,0,0,-1,1763,1674,0,0
546,-650,0,0,0,0,0,0,0,0,0,-1,1770,1674,0,0
553,-650,0,0,0,0,0,0,0,0,0,-1,1777,1674,0,0
560,-650,0,0,0,0,0,0,0,0,0,-1,1784,1674,0,0
567,-650,0,0,0,0,0,0,0,0,0,-1,1791,1674,0,0
574,-650,0,0,0,0,0,0,0,0,0,-1,1798,1674,0,0
581,-650,0,0,0,0,0,0,0,0,0,-1,1805,1674,0,0
588,-650,0,0,0,0,0,0,0,0,0,-1,1812,1674,0,0
595,-650,0,0,0,0,0,0,0,0,0,-1,1819,1674,0,0
602,-650,0,0,0,0,0,0,0,0,0,-1,1826,1674,0,0
609,-650,0,0,0,0,0,0,0,0,0,-1,1833,1674,0,0
616,-650,0,0,0,0,0,0,0,0,0,-1,1840,1674,0,0
623,-650,0,0,0,0,0,0,0,0,0,-1,1847,1674,0,0
630,-650,0,0,0,0,0,0,0,0,0,-1,1854,1674,0,0
637,-650,0,0,0,0,0,0,0,0,0,-1,1861,1674,0,0
644,-650,0,0,0,0,0,0,0,0,0,-1,1868,1674,0,0
651,-650,0,0,0,0,0,0,0,0,0,-1,1875,1674,0,0
658,-650,0,0,0,0,0,0,0,0,0,-1,1882,1674,0,0
665,-650,0,0,0,0,0,0,0,0,0,-1,1889,1674,0,0
672,-650,0,0,0,0,0,0,0,0,0,-1,1896,1674,0,0
679,-650,0,0,0,0,0,0,0,0,0,-1,1903,1674,0,0
686,-650,0,0,0,0,0,0,0,0,0,-1,1910,1674,0,0
693,-650,0,0,0,0,0,0,0,0,0,-1,1917,1674,0,0
700,-650,0,0,0,0,0,0,0,0,0,-1,1924,1674,0,0
707,-650,0,0,0,0,0,0,0,0,0,-1,1931,1674,0,0
714,-650,0,0,0,0,0,0,0,0,0,-1,1938,1674,0,0
721,-650,0,0,0,0,0,0,0,0,0,-1,1945,1674,0,0
728,-650,0,0,0,0,0,0,0,0,0,-1,1952,1674,0,0
735,-650,0,0,0,0,0,0,0,0,0,-1,1959,1674,0,0
742,-650,0,0,0,0,0,0,0,0,0,-1,1966,1674,0,0
749,-650,0,0,0,0,0,0,0,0,0,-1,1973,1674,0,0
756,-650,0,0,0,0,0,0,0,0,0,-1,1980,1674,0,0
763,-650,0,0,0,0,0,0,0,0,0,-1,1987,1674,0,0
770,-650,0,0,0,0,0,0,0,0,0,-1,1994,1674,0,0
777,-650,0,0,0,0,0,0,0,0,0,-1,2001,1674,0,0
784,-650,0,0,0,0,0,0,0,0,0,-1,2008,1674,0,0
791,-650,0,0,0,0,0,0,0,0,0,-1,2015,1674,0,0
798,-650,0,0,0,0,0,0,0,0,0,-1,2022,1674,0,0
805,-650,0,0,0,0,0,0,0,0,0,-1,2029,1674,0,0
812,-650,0,0,0,0,0,0,0,0,0,-1,2036,1674,0,0
-700,-657,0,0,0,0,0,0,0,0,0,-1,524,1681,0,0
-693,-657,0,0,0,0,0,0,0,0,0,-1,531,1681,0,0
-686,-657,0,0,0,0,0,0,0,0,0,-1,538,1681,0,0
-679,-657,0,0,0,0,0,0,0,0,0,-1,545,1681,0,0
-672,-657,0,0,0,0,0,0,0,0,0,-1,552,1681,0,0
-665,-657,0,0,0,0,0,0,0,0,0,-1,559,1681,0,0
-658,-657,0,0,0,0,0,0,0,0,0,-1,566,1681,0,0
-651,-657,0,0,0,0,0,0,0,0,0,-1,573,1681,0,0
-644,-657,0,0,0,0,0,0,0,0,0,-1,580,1681,0,0
-637,-657,0,0,0,0,0,0,0,0,0,-1,587,1681,0,0
-630,-657,0,0,0,0,0,0,0,0,0,-1,594,1681,0,0
-623,-657,0,0,0,0,0,0,0,0,0,-1,601,1681,0,0
-616,-657,0,0,0,0,0,0,0,0,0,-1,608,1681,0,0
-609,-657,0,0,0,0,0,0,0,0,0,-1,615,1681,0,0
-602,-657,0,0,0,0,0,0,0,0,0,-1,622,1681,0,0
-595,-657,0,0,0,0,0,0,0,0,0,-1,629,1681,0,0
-588,-657,0,0,0,0,0,0,0,0,0,-1,636,1681,0,0
-581,-657,0,0,0,0,0,0,0,0,0,-1,643,1681,0,0
-574,-657,0,0,0,0,0,0,0,0,0,-1,650,1681,0,0
-567,-657,0,0,0,0,0,0,0,0,0,-1,657,1681,0,0
-560,-657,0,0,0,0,0,0,0,0,0,-1,664,1681,0,0
-553,-657,0,0,0,0,0,0,0,0,0,-1,671,1681,0,0
-546,-657,0,0,0,0,0,0,0,0,0,-1,678,1681,0,0
-539,-657,0,0,0,0,0,0,0,0,0,-1,685,1681,0,0
-532,-657,0,0,0,0,0,0,0,0,0,-1,692,1681,0,0
-525,-657,0,0,0,0,0,0,0,0,0,-1,699,1681,0,0
-518,-657,0,0,0,0,0,0,0,0,0,-1,706,1681,0,0
-511,-657,0,0,0,0,0,0,0,0,0,-1,713,1681,0,0
-504,-657,0,0,0,0,0,0,0,0,0,-1,720,1681,0,0
-497,-657,0,0,0,0,0,0,0,0,0,-1,727,1681,0,0
-490,-657,0,0,0,0,0,0,0,0,0,-1,734,1681,0,0
-483,-657,0,0,0,0,0,0,0,0,0,-1,741,1681,0,0
-476,-657,0,0,0,0,0,0,0,0,0,-1,748,1681,0,0
-469,-657,0,0,0,0,0,0,0,0,0,-1,755,1681,0,0
-462,-657,0,0,0,0,0,0,0,0,0,-1,762,1681,0,0
-455,-657,0,0,0,0,0,0,0,0,0,-1,769,1681,0,0
-448,-657,0,0,0,0,0,0,0,0,0,-1,776,1681,0,0
-441,-657,0,0,0,0,0,0,0,0,0,-1,783,1681,0,0
-434,-657,0,0,0,0,0,0,0,0,0,-1,790,1681,0,0
-427,-657,0,0,0,0,0,0,0,0,0,-1,797,1681,0,0
-420,-657,0,0,0,0,0,0,0,0,0,-1,804,1681,0,0
-413,-657,0,0,0,0,0,0,0,0,0,-1,811,1681,0,0
-406,-657,0,0,0,0,0,0,0,0,0,-1,818,1681,0,0
-399,-657,0,0,0,0,0,0,0,0,0,-1,825,1681,0,0
-392,-657,0,0,0,0,0,0,0,0,0,-1,832,1681,0,0
-385,-657,1.09814,6.18896,0,0,0,0,0,0,0,-1,839,1681,1.09814,-6.18894
-378,-657,0.31488,4.46753,0,0,0,0,0,0,0,-1,846,1681,0.31487,-4.46755
-371,-657,-0.519043,2.69421,0,0,0,0,0,0,0,-1,853,1681,-0.519064,-2.69422
-364,-657,-3.42017,4.18323,0,0,0,0,0,0,0,-1,860,1681,-3.42019,-4.18319
-357,-657,-4.41913,2.97168,0,0,0,0,0,0,0,-1,867,1681,-4.41913,-2.97165
-350,-657,-5.42291,1.70276,0,0,0,0,0,0,0,-1,874,1681,-5.42291,-1.70277
-343,-657,-6.51294,0.397339,0,0,0,0,0,0,0,-1,881,1681,-6.51295,-0.397335
-336,-657,3.08527,26.0612,0,0,0,0,0,0,0,-1,888,1681,3.08528,-26.0611
-329,-657,5.41583,27.2506,0,0,0,0,0,0,0,-1,895,1681,5.41581,-27.2506
-322,-657,5.55182,28.3313,0,0,0,0,0,0,0,-1,902,1681,5.55183,-28.3313
-315,-657,5.57935,28.719,-0.0122373,0.00387614,-0.00523546,0.00542778,-0.013789,-1.28267,0.0114395,0.0475211,909,1681,5.57934,-28.719
-308,-657,5.50592,29.2643,-0.0124857,0.00372376,-0.00634294,0.00591076,-0.0146727,-1.23877,0.0122375,0.0399163,916,1681,5.50593,-29.2643
-301,-657,5.67969,30.0251,-0.0123941,0.00334267,-0.00704233,0.00603393,-0.0150853,-1.20577,0.0125609,0.0342721,923,1681,5.67967,-30.0251
-294,-657,5.65021,30.5306,-0.0117527,0.00294059,-0.00710337,0.0058131,-0.0146252,-1.18651,0.0121601,0.0211709,930,1681,5.65019,-30.5306
-287,-657,5.60455,30.9698,-0.0106847,0.00265804,-0.00669804,0.0054403,-0.0134669,-1.1771,0.0112392,0.0128325,937,1681,5.60457,-30.9699
-280,-657,5.57599,31.3795,-0.00946674,0.0023153,-0.00600896,0.00483925,-0.0119907,-1.17314,0.0100049,0.0138944,944,1681,5.57601,-31.3795
-273,-657,5.56708,31.8383,-0.00808709,0.00200355,-0.00507674,0.00411564,-0.0101992,-1.17655,0.00850981,0.0106342,951,1681,5.5671,-31.8383
-266,-657,5.53217,32.3005,-0.00644236,0.00183497,-0.00391679,0.00339454,-0.00800192,-1.19187,0.00675661,0.0154471,958,1681,5.53218,-32.3006
-259,-657,5.48871,32.7345,-0.00483757,0.00158768,-0.00281005,0.00264323,-0.00589312,-1.21147,0.00504611,0.0190453,965,1681,5.48871,-32.7345
-252,-657,5.4707,33.1198,-0.00332662,0.00161053,-0.00182193,0.00221007,-0.00392615,-1.25289,0.00358863,0.0131294,972,1681,5.47068,-33.1198
-245,-657,5.52777,33.5426,-0.00186129,0.00176673,-0.000945784,0.00199848,-0.00209304,-1.33049,0.00236245,0.0152665,979,1681,5.52779,-33.5426
-238,-657,5.48657,33.957,-0.000640075,0.00206052,-0.000142601,0.00206802,-0.000647584,-1.51819,0.00163779,0.0210528,986,1681,5.48658,-33.957
-231,-657,5.4444,34.3892,0.000461182,0.00234118,0.000679759,0.00256121,0.000241151,1.25775,0.00163304,0.0220101,993,1681,5.44441,-34.3892
-224,-657,5.46198,34.8223,0.00126141,0.00237155,0.00104187,0.00299699,0.000635971,1.03016,0.00182335,0.0169852,1000,1681,5.46198,-34.8223
-217,-657,5.47845,35.1958,0.00162963,0.00290199,0.00104145,0.0034862,0.00104542,1.05958,0.0020658,0.0104396,1007,1681,5.47848,-35.1958
-210,-657,5.48602,35.5745,0.00184618,0.00333271,0.000904843,0.00376042,0.00141847,1.12923,0.00219279,0.0108527,1014,1681,5.48602,-35.5744
-203,-657,5.49243,35.9852,0.00205262,0.00360265,0.000768016,0.00391873,0.00173654,1.18037,0.00226735,0.013281,1021,1681,5.49239,-35.9853
-196,-657,5.51672,36.3644,0.0021222,0.00389232,0.000591956,0.00407203,0.00194249,1.27605,0.00235181,0.0143657,1028,1681,5.51667,-36.3644
-189,-657,5.50366,36.6993,0.00216492,0.00416646,0.00038079,0.00423646,0.00209492,1.38901,0.00244597,0.0107804,1035,1681,5.50369,-36.6994
-182,-657,5.48547,37.0421,0.00218204,0.00462622,0.000176363,0.00463889,0.00216938,1.49913,0.00268013,0.00894617,1042,1681,5.48545,-37.0421
-175,-657,5.51453,37.4032,0.00214606,0.00506313,1.8277e-05,0.00506325,0.00214595,1.56453,0.00293455,0.0111111,1049,1681,5.51455,-37.4032
-168,-657,5.49536,37.7668,0.00244395,0.00579709,6.28408e-05,0.00579827,0.00244278,1.55206,0.00336143,0.0138728,1056,1681,5.49536,-37.7669
-161,-657,5.50732,38.1169,0.00273557,0.00643213,0.000106899,0.00643522,0.00273248,1.54191,0.00372942,0.0139218,1063,1681,5.50727,-38.117
-154,-657,5.56714,38.4098,0.00322405,0.00714564,0.000201251,0.00715594,0.00321375,1.51966,0.00413861,0.0154491,1070,1681,5.5672,-38.4098
-147,-657,5.5437,38.7552,0.00391113,0.00791502,0.000433131,0.00796134,0.00386481,1.46426,0.00459713,0.033163,1077,1681,5.54369,-38.7553
-140,-657,5.61682,39.2689,0,0,0,0,0,0,0,-1,1084,1681,5.61685,-39.2689
-133,-657,5.45166,40.2959,0,0,0,0,0,0,0,-1,1091,1681,5.45164,-40.2959
-126,-657,5.59253,40.3773,0,0,0,0,0,0,0,-1,1098,1681,5.59251,-40.3773
-119,-657,5.61255,40.6569,0,0,0,0,0,0,0,-1,1105,1681,5.61254,-40.6568
-112,-657,5.91699,40.8096,0,0,0,0,0,0,0,-1,1112,1681,5.91695,-40.8095
-105,-657,7.02844,39.8024,0,0,0,0,0,0,0,-1,1119,1681,7.02847,-39.8023
-98,-657,8.14404,38.4435,0,0,0,0,0,0,0,-1,1126,1681,8.14405,-38.4435
-91,-657,3.6521,16.6017,0,0,0,0,0,0,0,-1,1133,1681,3.65215,-16.6017
-84,-657,4.08008,10.4579,0,0,0,0,0,0,0,-1,1140,1681,4.08006,-10.4579
-77,-657,-5.29846,0.396606,0,0,0,0,0,0,0,-1,1147,1681,-5.29842,-0.396573
-70,-657,-4.14893,2.14575,0,0,0,0,0,0,0,-1,1154,1681,-4.14893,-2.1458
-63,-657,-4.1239,3.177,0,0,0,0,0,0,0,-1,1161,1681,-4.12391,-3.17698
-56,-657,-6.40576,5.73987,0,0,0,0,0,0,0,-1,1168,1681,-6.40577,-5.7399
-49,-657,-5.98462,7.54053,0,0,0,0,0,0,0,-1,1175,1681,-5.98466,-7.5405
-42,-657,-5.71948,9.28955,0,0,0,0,0,0,0,-1,1182,1681,-5.71951,-9.2895
-35,-657,-5.44556,11.015,0,0,0,0,0,0,0,-1,1189,1681,-5.44555,-11.015
-28,-657,-1.3446,8.92847,0,0,0,0,0,0,0,-1,1196,1681,-1.34459,-8.92848
-21,-657,8.28564,40.6237,0,0,0,0,0,0,0,-1,1203,1681,8.28569,-40.6237
-14,-657,5.40454,41.3575,0,0,0,0,0,0,0,-1,1210,1681,5.40454,-41.3576
-7,-657,6.11328,43.3035,0,0,0,0,0,0,0,-1,1217,1681,6.1133,-43.3035
0,-657,6.27991,43.4568,0.0743048,-0.0320371,-0.0375255,0.0862131,-0.0439454,-0.307288,0.0764564,0.0454772,1224,1681,6.27989,-43.4568
7,-657,6.69067,43.6615,0.0770395,-0.0285427,-0.0409043,0.0910321,-0.0425353,-0.329603,0.0787914,0.0464629,1231,1681,6.69061,-43.6615
14,-657,7.3988,43.7721,0.0793428,-0.0266485,-0.0455305,0.0962153,-0.043521,-0.354887,0.0825668,0.044654,1238,1681,7.39875,-43.7722
21,-657,8.03662,43.5571,0.0815214,-0.0259921,-0.0501586,0.101288,-0.0457587,-0.375393,0.0868918,0.0440982,1245,1681,8.03667,-43.5571
28,-657,8.56091,43.3502,0.0817602,-0.0254471,-0.0549612,0.104929,-0.0486164,-0.398951,0.0906153,0.0446668,1252,1681,8.56089,-43.3502
35,-657,9.28406,42.8446,0.0804747,-0.0246229,-0.0588582,0.106829,-0.050977,-0.420986,0.0929919,0.0403123,1259,1681,9.28406,-42.8446
42,-657,10.1278,42.0669,0.0767093,-0.0234979,-0.0604928,0.105153,-0.0519421,-0.439531,0.0924172,0.0431508,1266,1681,10.1279,-42.0669
49,-657,10.8605,41.4009,0,0,0,0,0,0,0,-1,1273,1681,10.8605,-41.4008
56,-657,9.44153,43.4094,0.0667332,-0.0156356,-0.059491,0.0979044,-0.0468067,-0.482635,0.0852675,0.042866,1280,1681,9.44158,-43.4094
63,-657,9.91064,43.384,0.0581185,-0.0105505,-0.0576809,0.0909103,-0.0433424,-0.516939,0.079116,0.0487944,1287,1681,9.9107,-43.3841
70,-657,10.4994,43.2339,0.0462679,-0.00444735,-0.0543234,0.0808605,-0.03904,-0.567034,0.0706143,0.0499309,1294,1681,10.4994,-43.2339
77,-657,9.93201,45.8203,0,0,0,0,0,0,0,-1,1301,1681,9.93204,-45.8203
84,-657,8.06567,44.0223,0,0,0,0,0,0,0,-1,1308,1681,8.06566,-44.0223
91,-657,7.89282,44.2168,0.00999893,0.0214519,-0.0376488,0.0538072,-0.0223564,-0.860871,0.0452055,0.0454755,1315,1681,7.89276,-44.2169
98,-657,7.72595,44.3893,-0.00313542,0.0289364,-0.0271601,0.0444413,-0.0186403,-1.05207,0.0374218,0.0441688,1322,1681,7.72601,-44.3893
105,-657,7.50598,44.6477,-0.016251,0.0379085,-0.0217134,0.0455388,-0.0238813,-1.23287,0.0407247,0.0456188,1329,1681,7.50603,-44.6477
112,-657,7.60242,44.8333,-0.0283059,0.0456662,-0.0156592,0.0488446,-0.0314842,-1.37055,0.0467375,0.0471471,1336,1681,7.60236,-44.8332
119,-657,7.53149,45.1028,0,0,0,0,0,0,0,-1,1343,1681,7.53147,-45.1028
126,-657,7.17908,45.7505,0,0,0,0,0,0,0,-1,1350,1681,7.17903,-45.7505
133,-657,7.13367,46.0107,-0.0549591,0.0579704,-0.00296215,0.0580481,-0.0550367,-1.54459,0.0652973,0.0475983,1357,1681,7.13366,-46.0107
140,-657,7.0946,46.6741,-0.060292,0.0589247,0.000421461,0.0589262,-0.0602935,1.56726,0.068833,0.0455513,1364,1681,7.09457,-46.6741
147,-657,4.90796,48.9424,0,0,0,0,0,0,0,-1,1371,1681,4.90791,-48.9424
154,-657,10.5236,41.9224,0,0,0,0,0,0,0,-1,1378,1681,10.5236,-41.9224
161,-657,4.2926,24.9226,0,0,0,0,0,0,0,-1,1385,1681,4.29264,-24.9226
168,-657,5.21643,0.70105,0,0,0,0,0,0,0,-1,1392,1681,5.21648,-0.7011
175,-657,5.52771,0.649048,0,0,0,0,0,0,0,-1,1399,1681,5.52774,-0.649019
182,-657,5.73999,1.02612,0,0,0,0,0,0,0,-1,1406,1681,5.73995,-1.02611
189,-657,5.92126,1.44116,0,0,0,0,0,0,0,-1,1413,1681,5.92126,-1.44115
196,-657,4.92834,9.59021,0,0,0,0,0,0,0,-1,1420,1681,4.9284,-9.59018
203,-657,6.26343,5.16492,0,0,0,0,0,0,0,-1,1427,1681,6.26345,-5.16488
210,-657,3.9856,5.28088,0,0,0,0,0,0,0,-1,1434,1681,3.98555,-5.28084
217,-657,3.95178,5.2843,0,0,0,0,0,0,0,-1,1441,1681,3.95174,-5.28431
224,-657,6.66736,-0.250244,0,0,0,0,0,0,0,-1,1448,1681,6.66737,0.250229
231,-657,6.85498,-1.70752,0,0,0,0,0,0,0,-1,1455,1681,6.855,1.70758
238,-657,5.34143,-2.89819,0,0,0,0,0,0,0,-1,1462,1681,5.34143,2.89813
245,-657,8.66003,-0.102783,0,0,0,0,0,0,0,-1,1469,1681,8.66,0.102824
252,-657,4.78955,0.623779,0,0,0,0,0,0,0,-1,1476,1681,4.7895,-0.623826
259,-657,2.61523,4.31909,0,0,0,0,0,0,0,-1,1483,1681,2.61523,-4.31908
266,-657,5.35437,11.4742,0,0,0,0,0,0,0,-1,1490,1681,5.35441,-11.4742
273,-657,10.9642,39.1625,0,0,0,0,0,0,0,-1,1497,1681,10.9642,-39.1625
280,-657,10.766,38.875,0.000978819,0.0238404,-0.00116638,0.0238997,0.000919464,-1.51995,0.0156357,0.0461783,1504,1681,10.766,-38.875
287,-657,10.7477,38.5173,0.000952106,0.0217883,-0.00104083,0.0218402,0.000900242,-1.52101,0.0142695,0.0386126,1511,1681,10.7477,-38.5174
294,-657,10.9208,38.1913,0.00102075,0.0197566,-0.00107432,0.019818,0.000959352,-1.51371,0.0129041,0.0314839,1518,1681,10.9208,-38.1913
301,-657,11.0084,37.8965,0.00112689,0.0172786,-0.00105323,0.017347,0.0010585,-1.50595,0.0112285,0.0214739,1525,1681,11.0084,-37.8964
308,-657,11.0444,37.5433,0.00124705,0.0145516,-0.000967515,0.0146215,0.00117706,-1.49858,0.00938,0.0149151,1532,1681,11.0444,-37.5434
315,-657,11.0709,37.1682,0.00139405,0.0119586,-0.000949235,0.0120432,0.00130944,-1.48189,0.00762986,0.011789,1539,1681,11.071,-37.1682
322,-657,11.0831,36.8241,0.00166832,0.0100594,-0.00111814,0.0102059,0.00152188,-1.44057,0.00635764,0.0137554,1546,1681,11.0832,-36.8241
329,-657,11.0704,36.5073,0.00179073,0.00822639,-0.00117437,0.00843399,0.00158313,-1.39583,0.00517629,0.0191807,1553,1681,11.0704,-36.5074
336,-657,11.0759,36.1327,0.00173645,0.00678863,-0.00104339,0.00699564,0.00152944,-1.37495,0.00424676,0.0163173,1560,1681,11.076,-36.1327
343,-657,11.104,35.755,0.0015897,0.00544621,-0.00109667,0.00573626,0.00129966,-1.31224,0.00347298,0.0130222,1567,1681,11.104,-35.755
350,-657,11.1147,35.3982,0.0014382,0.0037743,-0.000887834,0.00407342,0.00113908,-1.24583,0.00242673,0.0156517,1574,1681,11.1147,-35.3982
357,-657,11.0936,35.0255,0.00105521,0.00271212,-0.000511886,0.0028575,0.000909823,-1.29406,0.00168566,0.015519,1581,1681,11.0937,-35.0255
364,-657,11.0804,34.6603,0.000487645,0.00188721,-9.69865e-05,0.0018939,0.000480956,-1.50194,0.00113672,0.0111605,1588,1681,11.0804,-34.6603
371,-657,11.0797,34.308,-0.000102201,0.00102117,0.000382552,0.00113907,-0.000220101,1.27184,0.000842388,0.0150787,1595,1681,11.0797,-34.308
378,-657,11.0403,33.8972,-0.000711594,9.41736e-05,0.0009424,0.000716196,-0.00133362,0.987395,0.00120122,0.0140176,1602,1681,11.0403,-33.8973
385,-657,10.9994,33.4738,-0.00132532,-0.00105563,0.0015562,0.000371553,-0.0027525,0.828617,0.00197056,0.0124161,1609,1681,10.9994,-33.4737
392,-657,10.9841,33.0927,-0.00203224,-0.00249753,0.0022047,-4.79368e-05,-0.00448183,0.732831,0.00297203,0.0136118,1616,1681,10.9841,-33.0926
399,-657,11.0067,32.7019,-0.00279081,-0.00377151,0.00276753,-0.000470525,-0.00609179,0.697718,0.00391379,0.0139441,1623,1681,11.0068,-32.7019
406,-657,11.015,32.2911,-0.00334758,-0.0046477,0.0031591,-0.000772355,-0.00722292,0.683927,0.00457959,0.0143124,1630,1681,11.015,-32.2912
413,-657,11.019,31.8749,-0.00360506,-0.00517621,0.00345471,-0.000847737,-0.00793353,0.673602,0.00503031,0.0135471,1637,1681,11.019,-31.8749
420,-657,10.9987,31.4253,-0.00380754,-0.00542942,0.00354539,-0.000981529,-0.00825543,0.672966,0.00520737,0.0152416,1644,1681,10.9986,-31.4253
427,-657,10.9196,30.9716,-0.00360441,-0.00511173,0.00337871,-0.00089632,-0.00781982,0.675664,0.00494161,0.019182,1651,1681,10.9196,-30.9715
434,-657,10.9388,30.5947,-0.0031975,-0.00458031,0.00323377,-0.000582048,-0.00719576,0.68008,0.00461541,0.0271723,1658,1681,10.9389,-30.5947
441,-657,10.8715,30.4077,-0.00293582,-0.00370638,0.00285722,-0.000438015,-0.00620418,0.71838,0.00399812,0.0457229,1665,1681,10.8715,-30.4077
448,-657,10.4352,29.8241,0,0,0,0,0,0,0,-1,1672,1681,10.4352,-29.8241
455,-657,10.4965,28.9479,0,0,0,0,0,0,0,-1,1679,1681,10.4964,-28.9478
462,-657,10.3959,28.4072,0,0,0,0,0,0,0,-1,1686,1681,10.3959,-28.4072
469,-657,9.22205,26.4175,0,0,0,0,0,0,0,-1,1693,1681,9.2221,-26.4175
476,-657,8.9519,20.5712,0,0,0,0,0,0,0,-1,1700,1681,8.95194,-20.5712
483,-657,10.0663,21.8628,0,0,0,0,0,0,0,-1,1707,1681,10.0663,-21.8628
490,-657,11.6039,21.2185,0,0,0,0,0,0,0,-1,1714,1681,11.6038,-21.2185
497,-657,9.20862,17.8127,0,0,0,0,0,0,0,-1,1721,1681,9.2086,-17.8127
504,-657,0,0,0,0,0,0,0,0,0,-1,1728,1681,0,0
511,-657,0,0,0,0,0,0,0,0,0,-1,1735,1681,0,0
518,-657,0,0,0,0,0,0,0,0,0,-1,1742,1681,0,0
525,-657,0,0,0,0,0,0,0,0,0,-1,1749,1681,0,0
532,-657,0,0,0,0,0,0,0,0,0,-1,1756,1681,0,0
539,-657,0,0,0,0,0,0,0,0,0,-1,1763,1681,0,0
546,-657,0,0,0,0,0,0,0,0,0,-1,1770,1681,0,0
553,-657,0,0,0,0,0,0,0,0,0,-1,1777,1681,0,0
560,-657,0,0,0,0,0,0,0,0,0,-1,1784,1681,0,0
567,-657,0,0,0,0,0,0,0,0,0,-1,1791,1681,0,0
574,-657,0,0,0,0,0,0,0,0,0,-1,1798,1681,0,0
581,-657,0,0,0,0,0,0,0,0,0,-1,1805,1681,0,0
588,-657,0,0,0,0,0,0,0,0,0,-1,1812,1681,0,0
595,-657,0,0,0,0,0,0,0,0,0,-1,1819,1681,0,0
602,-657,0,0,0,0,0,0,0,0,0,-1,1826,1681,0,0
609,-657,0,0,0,0,0,0,0,0,0,-1,1833,1681,0,0
616,-657,0,0,0,0,0,0,0,0,0,-1,1840,1681,0,0
623,-657,0,0,0,0,0,0,0,0,0,-1,1847,1681,0,0
630,-657,0,0,0,0,0,0,0,0,0,-1,1854,1681,0,0
637,-657,0,0,0,0,0,0,0,0,0,-1,1861,1681,0,0
644,-657,0,0,0,0,0,0,0,0,0,-1,1868,1681,0,0
651,-657,0,0,0,0,0,0,0,0,0,-1,1875,1681,0,0
658,-657,0,0,0,0,0,0,0,0,0,-1,1882,1681,0,0
665,-657,0,0,0,0,0,0,0,0,0,-1,1889,1681,0,0
672,-657,0,0,0,0,0,0,0,0,0,-1,1896,1681,0,0
679,-657,0,0,0,0,0,0,0,0,0,-1,1903,1681,0,0
686,-657,0,0,0,0,0,0,0,0,0,-1,1910,1681,0,0
693,-657,0,0,0,0,0,0,0,0,0,-1,1917,1681,0,0
700,-657,0,0,0,0,0,0,0,0,0,-1,1924,1681,0,0
707,-657,0,0,0,0,0,0,0,0,0,-1,1931,1681,0,0
714,-657,0,0,0,0,0,0,0,0,0,-1,1938,1681,0,0
721,-657,0,0,0,0,0,0,0,0,0,-1,1945,1681,0,0
728,-657,0,0,0,0,0,0,0,0,0,-1,1952,1681,0,0
735,-657,0,0,0,0,0,0,0,0,0,-1,1959,1681,0,0
742,-657,0,0,0,0,0,0,0,0,0,-1,1966,1681,0,0
749,-657,0,0,0,0,0,0,0,0,0,-1,1973,1681,0,0
756,-657,0,0,0,0,0,0,0,0,0,-1,1980,1681,0,0
763,-657,0,0,0,0,0,0,0,0,0,-1,1987,1681,0,0
770,-657,0,0,0,0,0,0,0,0,0,-1,1994,1681,0,0
777,-657,0,0,0,0,0,0,0,0,0,-1,2001,1681,0,0
784,-657,0,0,0,0,0,0,0,0,0,-1,2008,1681,0,0
791,-657,0,0,0,0,0,0,0,0,0,-1,2015,1681,0,0
798,-657,0,0,0,0,0,0,0,0,0,-1,2022,1681,0,0
805,-657,0,0,0,0,0,0,0,0,0,-1,2029,1681,0,0
812,-657,0,0,0,0,0,0,0,0,0,-1,2036,1681,0,0
-700,-664,0,0,0,0,0,0,0,0,0,-1,524,1688,0,0
-693,-664,0,0,0,0,0,0,0,0,0,-1,531,1688,0,0
-686,-664,0,0,0,0,0,0,0,0,0,-1,538,1688,0,0
-679,-664,0,0,0,0,0,0,0,0,0,-1,545,1688,0,0
-672,-664,0,0,0,0,0,0,0,0,0,-1,552,1688,0,0
-665,-664,0,0,0,0,0,0,0,0,0,-1,559,1688,0,0
-658,-664,0,0,0,0,0,0,0,0,0,-1,566,1688,0,0
-651,-664,0,0,0,0,0,0,0,0,0,-1,573,1688,0,0
-644,-664,0,0,0,0,0,0,0,0,0,-1,580,1688,0,0
-637,-664,0,0,0,0,0,0,0,0,0,-1,587,1688,0,0
-630,-664,0,0,0,0,0,0,0,0,0,-1,594,1688,0,0
-623,-664,0,0,0,0,0,0,0,0,0,-1,601,1688,0,0
-616,-664,0,0,0,0,0,0,0,0,0,-1,608,1688,0,0
-609,-664,0,0,0,0,0,0,0,0,0,-1,615,1688,0,0
-602,-664,0,0,0,0,0,0,0,0,0,-1,622,1688,0,0
-595,-664,0,0,0,0,0,0,0,0,0,-1,629,1688,0,0
-588,-664,0,0,0,0,0,0,0,0,0,-1,636,1688,0,0
-581,-664,0,0,0,0,0,0,0,0,0,-1,643,1688,0,0
-574,-664,0,0,0,0,0,0,0,0,0,-1,650,1688,0,0
-567,-664,0,0,0,0,0,0,0,0,0,-1,657,1688,0,0
-560,-664,0,0,0,0,0,0,0,0,0,-1,664,1688,0,0
-553,-664,0,0,0,0,0,0,0,0,0,-1,671,1688,0,0
-546,-664,0,0,0,0,0,0,0,0,0,-1,678,1688,0,0
-539,-664,0,0,0,0,0,0,0,0,0,-1,685,1688,0,0
-532,-664,0,0,0,0,0,0,0,0,0,-1,692,1688,0,0
-525,-664,0,0,0,0,0,0,0,0,0,-1,699,1688,0,0
-518,-664,0,0,0,0,0,0,0,0,0,-1,706,1688,0,0
-511,-664,0,0,0,0,0,0,0,0,0,-1,713,1688,0,0
-504,-664,0,0,0,0,0,0,0,0,0,-1,720,1688,0,0
-497,-664,0,0,0,0,0,0,0,0,0,-1,727,1688,0,0
-490,-664,0,0,0,0,0,0,0,0,0,-1,734,1688,0,0
-483,-664,0,0,0,0,0,0,0,0,0,-1,741,1688,0,0
-476,-664,0,0,0,0,0,0,0,0,0,-1,748,1688,0,0
-469,-664,0,0,0,0,0,0,0,0,0,-1,755,1688,0,0
-462,-664,0,0,0,0,0,0,0,0,0,-1,762,1688,0,0
-455,-664,0,0,0,0,0,0,0,0,0,-1,769,1688,0,0
-448,-664,0,0,0,0,0,0,0,0,0,-1,776,1688,0,0
-441,-664,0,0,0,0,0,0,0,0,0,-1,783,1688,0,0
-434,-664,0,0,0,0,0,0,0,0,0,-1,790,1688,0,0
-427,-664,0,0,0,0,0,0,0,0,0,-1,797,1688,0,0
-420,-664,0,0,0,0,0,0,0,0,0,-1,804,1688,0,0
-413,-664,0,0,0,0,0,0,0,0,0,-1,811,1688,0,0
-406,-664,0,0,0,0,0,0,0,0,0,-1,818,1688,0,0
-399,-664,0,0,0,0,0,0,0,0,0,-1,825,1688,0,0
-392,-664,0,0,0,0,0,0,0,0,0,-1,832,1688,0,0
-385,-664,0,0,0,0,0,0,0,0,0,-1,839,1688,0,0
-378,-664,0,0,0,0,0,0,0,0,0,-1,846,1688,0,0
-371,-664,-1.61676,5.92737,0,0,0,0,0,0,0,-1,853,1688,-1.61675,-5.92735
-364,-664,-3.901,5.87024,0,0,0,0,0,0,0,-1,860,1688,-3.90097,-5.87027
-357,-664,-4.81012,4.53479,0,0,0,0,0,0,0,-1,867,1688,-4.81012,-4.5348
-350,-664,-5.7193,3.19934,0,0,0,0,0,0,0,-1,874,1688,-5.71927,-3.19932
-343,-664,2.13544,25.5537,0,0,0,0,0,0,0,-1,881,1688,2.13546,-25.5537
-336,-664,3.50238,26.167,0,0,0,0,0,0,0,-1,888,1688,3.50241,-26.167
-329,-664,4.91052,26.7432,0,0,0,0,0,0,0,-1,895,1688,4.91052,-26.7431
-322,-664,6.00836,28.021,0,0,0,0,0,0,0,-1,902,1688,6.00839,-28.021
-315,-664,6.08472,28.4993,0,0,0,0,0,0,0,-1,909,1688,6.08473,-28.4992
-308,-664,6.16107,28.9774,0,0,0,0,0,0,0,-1,916,1688,6.16107,-28.9775
-301,-664,6.73755,29.9983,-0.0174884,0.00449679,-0.0111003,0.00912641,-0.0221181,-1.17566,0.0185515,0.0471379,923,1688,6.73758,-29.9983
-294,-664,6.36548,30.5664,-0.016594,0.00395476,-0.010962,0.00870463,-0.0213439,-1.16191,0.0178528,0.0441815,930,1688,6.36545,-30.5665
-287,-664,6.1474,31.0447,-0.015095,0.00344309,-0.0102241,0.00797434,-0.0196263,-1.15362,0.0164017,0.0316082,937,1688,6.14742,-31.0447
-280,-664,6.00134,31.4193,-0.0133935,0.00287823,-0.00910644,0.00695381,-0.0174691,-1.14998,0.0145297,0.0197651,944,1688,6.00136,-31.4194
-273,-664,5.98438,31.8448,-0.0114992,0.00239211,-0.00769215,0.0058104,-0.0149175,-1.15262,0.0123463,0.0146571,951,1688,5.98435,-31.8448
-266,-664,5.95251,32.3018,-0.00933346,0.00203566,-0.00603804,0.004644,-0.0119418,-1.16302,0.00987997,0.0213888,958,1688,5.9525,-32.3018
-259,-664,5.91882,32.7229,-0.00728711,0.0016048,-0.00451566,0.00349586,-0.00917817,-1.17421,0.00755853,0.0196264,965,1688,5.91881,-32.7228
-252,-664,5.91534,33.1361,-0.00541167,0.00144294,-0.00317044,0.00268449,-0.00665321,-1.19755,0.00555106,0.0168706,972,1688,5.91533,-33.136
-245,-664,5.9328,33.5991,-0.00365452,0.00145321,-0.00204193,0.00216916,-0.00437048,-1.23356,0.0038463,0.0208486,979,1688,5.93277,-33.5991
-238,-664,5.91248,34.0194,-0.00228363,0.00176185,-0.000989107,0.00199073,-0.00251252,-1.34339,0.00260576,0.0244613,986,1688,5.91249,-34.0194
-231,-664,5.8692,34.4016,-0.000947427,0.00198663,0.000201469,0.0020004,-0.000961197,1.50256,0.00174461,0.0205808,993,1688,5.86921,-34.4016
-224,-664,5.86444,34.8228,6.1557e-05,0.00179405,0.000774035,0.00208949,-0.000233882,1.20618,0.00147714,0.0143188,1000,1688,5.86446,-34.8228
-217,-664,5.87311,35.209,0.000459142,0.00227847,0.000753647,0.00255011,0.000187505,1.22486,0.00164115,0.0107915,1007,1688,5.87311,-35.209
-210,-664,5.87738,35.593,0.000725037,0.00270513,0.00066946,0.00291023,0.000519939,1.27351,0.00179216,0.0119823,1014,1688,5.87737,-35.593
-203,-664,5.86597,35.983,0.000964544,0.00295907,0.000583841,0.0031174,0.00080621,1.30597,0.00186844,0.0148571,1021,1688,5.86599,-35.983
-196,-664,5.87134,36.3413,0.0011034,0.00316984,0.000467145,0.00327053,0.0010027,1.35849,0.00193476,0.0153334,1028,1688,5.8714,-36.3413
-189,-664,5.86731,36.708,0.00124304,0.00333375,0.000293431,0.00337415,0.00120264,1.43397,0.00197466,0.0102389,1035,1688,5.86732,-36.708
-182,-664,5.84131,37.052,0.00142009,0.00364612,0.000126635,0.0036533,0.00141291,1.51415,0.00212719,0.0096584,1042,1688,5.84136,-37.052
-175,-664,5.8501,37.3895,0.00161954,0.00389668,3.02853e-05,0.00389709,0.00161914,1.5575,0.00226067,0.0127006,1049,1688,5.85008,-37.3895
-168,-664,5.86902,37.7407,0.00209035,0.00439715,0.000105057,0.00440192,0.00208557,1.52538,0.00254262,0.0130472,1056,1688,5.86898,-37.7407
-161,-664,5.86633,38.0613,0.00253602,0.00480737,0.000151628,0.00481745,0.00252595,1.50443,0.00278245,0.00994272,1063,1688,5.86635,-38.0613
-154,-664,5.91821,38.389,0.00314283,0.00530539,0.000230504,0.00532968,0.00311854,1.46578,0.00309192,0.0110328,1070,1688,5.91817,-38.3891
-147,-664,5.92065,38.7208,0.00388465,0.00586133,0.000405539,0.0059413,0.00380469,1.37611,0.00347498,0.0196096,1077,1688,5.92067,-38.7209
-140,-664,5.92444,39.0864,0.00468379,0.00648503,0.000579186,0.00665519,0.00451363,1.28504,0.00392289,0.0267534,1084,1688,5.92447,-39.0864
-133,-664,5.87524,39.5468,0.00544652,0.00748954,0.000758048,0.00774008,0.00519598,1.25159,0.00455533,0.028398,1091,1688,5.87529,-39.5468
-126,-664,5.99426,39.7573,0,0,0,0,0,0,0,-1,1098,1688,5.99427,-39.7573
-119,-664,6.07874,40.2888,0.00798208,0.00881394,0.00142653,0.00988394,0.00691207,0.927249,0.00585569,0.0416599,1105,1688,6.07879,-40.2888
-112,-664,6.3783,40.6506,0,0,0,0,0,0,0,-1,1112,1688,6.37826,-40.6506
-105,-664,6.74829,40.8572,0,0,0,0,0,0,0,-1,1119,1688,6.74835,-40.8571
-98,-664,7.45081,39.9901,0,0,0,0,0,0,0,-1,1126,1688,7.45081,-39.9901
-91,-664,5.41931,25.6302,0,0,0,0,0,0,0,-1,1133,1688,5.41932,-25.6302
-84,-664,3.48389,16.6913,0,0,0,0,0,0,0,-1,1140,1688,3.4839,-16.6913
-77,-664,4.52014,11.2122,0,0,0,0,0,0,0,-1,1147,1688,4.5202,-11.2122
-70,-664,4.20374,8.24524,0,0,0,0,0,0,0,-1,1154,1688,4.20379,-8.24519
-63,-664,-4.677,2.40503,0,0,0,0,0,0,0,-1,1161,1688,-4.67702,-2.40498
-56,-664,-4.66504,3.32727,0,0,0,0,0,0,0,-1,1168,1688,-4.6651,-3.32724
-49,-664,-2.54297,3.31848,0,0,0,0,0,0,0,-1,1175,1688,-2.54297,-3.31852
-42,-664,-0.359253,4.38684,0,0,0,0,0,0,0,-1,1182,1688,-0.359261,-4.38685
-35,-664,-0.705566,3.55017,0,0,0,0,0,0,0,-1,1189,1688,-0.705567,-3.55023
-28,-664,-1.54236,10.2538,0,0,0,0,0,0,0,-1,1196,1688,-1.54236,-10.2538
-21,-664,5.80261,41.3245,0,0,0,0,0,0,0,-1,1203,1688,5.80258,-41.3245
-14,-664,6.92322,43.4741,0,0,0,0,0,0,0,-1,1210,1688,6.92327,-43.4741
-7,-664,6.56665,43.4098,0.0599437,-0.0204329,-0.0301806,0.0700144,-0.0305036,-0.322064,0.0595098,0.0487302,1217,1688,6.56662,-43.4098
0,-664,6.75317,43.5461,0.0626281,-0.0172078,-0.0317496,0.0737149,-0.0282946,-0.335956,0.0608101,0.046923,1224,1688,6.75319,-43.5461
7,-664,7.0636,43.7737,0.065551,-0.0149916,-0.0353077,0.0788372,-0.0282778,-0.359909,0.0640981,0.046415,1231,1688,7.0636,-43.7737
14,-664,7.62219,44.098,0.0685159,-0.0143476,-0.0398049,0.0845386,-0.0303704,-0.382687,0.0687559,0.0457323,1238,1688,7.62218,-44.098
21,-664,8.20081,44.1434,0,0,0,0,0,0,0,-1,1245,1688,8.20084,-44.1434
28,-664,10.2025,43.7501,0.0723886,-0.0150711,-0.04851,0.0939697,-0.0366522,-0.418588,0.0777972,0.0434118,1252,1688,10.2025,-43.7501
35,-664,10.4581,42.9166,0.0717535,-0.015221,-0.0517298,0.0958467,-0.0393141,-0.435874,0.0802782,0.0446746,1259,1688,10.4581,-42.9166
42,-664,11.3729,42.5322,0.0687232,-0.0148971,-0.0528389,0.0942928,-0.0404667,-0.450699,0.0798455,0.0443663,1266,1688,11.373,-42.5322
49,-664,12.2581,42.4524,0,0,0,0,0,0,0,-1,1273,1688,12.2581,-42.4524
56,-664,13.15,42.1731,0,0,0,0,0,0,0,-1,1280,1688,13.15,-42.173
63,-664,10.6896,44.2091,0,0,0,0,0,0,0,-1,1287,1688,10.6896,-44.2091
70,-664,9.71179,45.6206,0,0,0,0,0,0,0,-1,1294,1688,9.71177,-45.6207
77,-664,9.74121,45.318,0,0,0,0,0,0,0,-1,1301,1688,9.74125,-45.318
84,-664,8.71094,43.9464,0,0,0,0,0,0,0,-1,1308,1688,8.71091,-43.9464
91,-664,8.2948,44.1263,0,0,0,0,0,0,0,-1,1315,1688,8.29485,-44.1263
98,-664,8.18701,44.2415,0,0,0,0,0,0,0,-1,1322,1688,8.18707,-44.2414
105,-664,8.0769,44.1633,0,0,0,0,0,0,0,-1,1329,1688,8.07694,-44.1633
112,-664,7.99097,44.1146,0,0,0,0,0,0,0,-1,1336,1688,7.99102,-44.1146
119,-664,7.84668,44.6355,0,0,0,0,0,0,0,-1,1343,1688,7.84668,-44.6355
126,-664,10.3031,42.2396,0,0,0,0,0,0,0,-1,1350,1688,10.303,-42.2396
133,-664,7.60229,45.5082,0,0,0,0,0,0,0,-1,1357,1688,7.60229,-45.5082
140,-664,6.72583,41.236,0,0,0,0,0,0,0,-1,1364,1688,6.72583,-41.236
147,-664,6.97046,40.6996,0,0,0,0,0,0,0,-1,1371,1688,6.97047,-40.6996
154,-664,11.5098,42.1732,0,0,0,0,0,0,0,-1,1378,1688,11.5097,-42.1732
161,-664,4.60132,1.56238,0,0,0,0,0,0,0,-1,1385,1688,4.60134,-1.56233
168,-664,5.172,1.25488,0,0,0,0,0,0,0,-1,1392,1688,5.17203,-1.25484
175,-664,5.58313,1.16467,0,0,0,0,0,0,0,-1,1399,1688,5.58317,-1.16466
182,-664,5.74268,1.41113,0,0,0,0,0,0,0,-1,1406,1688,5.74263,-1.41115
189,-664,5.87744,1.87061,0,0,0,0,0,0,0,-1,1413,1688,5.87745,-1.87065
196,-664,6.7594,5.97473,0,0,0,0,0,0,0,-1,1420,1688,6.75943,-5.97478
203,-664,5.38452,5.22034,0,0,0,0,0,0,0,-1,1427,1688,5.38453,-5.2203
210,-664,5.25549,6.45715,0,0,0,0,0,0,0,-1,1434,1688,5.25549,-6.45721
217,-664,5.72009,6.73975,0,0,0,0,0,0,0,-1,1441,1688,5.72014,-6.73972
224,-664,5.05725,7.42908,0,0,0,0,0,0,0,-1,1448,1688,5.05723,-7.42912
231,-664,5.13318,7.60864,0,0,0,0,0,0,0,-1,1455,1688,5.13313,-7.60862
238,-664,4.23193,6.45471,0,0,0,0,0,0,0,-1,1462,1688,4.23197,-6.45476
245,-664,4.42004,6.80896,0,0,0,0,0,0,0,-1,1469,1688,4.4201,-6.80901
252,-664,3.67346,6.85461,0,0,0,0,0,0,0,-1,1476,1688,3.6734,-6.85462
259,-664,4.55823,11.7435,0,0,0,0,0,0,0,-1,1483,1688,4.55826,-11.7435
266,-664,10.3204,39.0525,0,0,0,0,0,0,0,-1,1490,1688,10.3204,-39.0525
273,-664,10.5474,39.2061,0,0,0,0,0,0,0,-1,1497,1688,10.5473,-39.206
280,-664,10.5184,38.8612,0.00175086,0.0158702,-0.000820867,0.0159178,0.0017033,-1.51292,0.0100921,0.0291121,1504,1688,10.5184,-38.8612
287,-664,10.5156,38.4747,0.00154185,0.0147303,-0.000720203,0.0147695,0.00150264,-1.5164,0.00938564,0.0281709,1511,1688,10.5156,-38.4747
294,-664,10.5978,38.1527,0.00144552,0.0135434,-0.000756423,0.0135905,0.00139841,-1.50859,0.00863205,0.0198374,1518,1688,10.5978,-38.1527
301,-664,10.6748,37.8306,0.00137414,0.011952,-0.000764658,0.012007,0.00131915,-1.49901,0.0076032,0.0127626,1525,1688,10.6749,-37.8305
308,-664,10.7257,37.4908,0.00131057,0.010167,-0.00074352,0.010229,0.00124858,-1.48762,0.0064436,0.0122495,1532,1688,10.7257,-37.4908
315,-664,10.7396,37.1475,0.00126796,0.00836726,-0.000738438,0.00844325,0.00119196,-1.46824,0.00527658,0.0122627,1539,1688,10.7396,-37.1475
322,-664,10.7429,36.8403,0.00120692,0.00683476,-0.000767031,0.00693742,0.00110425,-1.43774,0.00430434,0.0149868,1546,1688,10.7429,-36.8404
329,-664,10.7245,36.5251,0.00102626,0.00531784,-0.000750325,0.00544525,0.000898857,-1.4026,0.00337073,0.0176698,1553,1688,10.7245,-36.5252
336,-664,10.7141,36.1472,0.000796304,0.00405882,-0.000527724,0.00414206,0.000713066,-1.41436,0.00255704,0.0143606,1560,1688,10.7141,-36.1472
343,-664,10.717,35.7876,0.000513568,0.00289602,-0.000389845,0.00295819,0.000451399,-1.41266,0.00184021,0.0113554,1567,1688,10.717,-35.7875
350,-664,10.7211,35.4221,0.000113635,0.00144499,-1.79034e-05,0.00144523,0.000113395,-1.55735,0.000928004,0.0134715,1574,1688,10.721,-35.4222
357,-664,10.7172,35.0322,-0.00040184,0.000368943,0.000480076,0.000599181,-0.000632078,1.12361,0.000710952,0.0134885,1581,1688,10.7171,-35.0322
364,-664,10.7118,34.6451,-0.00102574,-0.000509207,0.0010263,0.000290818,-0.00182577,0.908664,0.0013248,0.0116446,1588,1688,10.7117,-34.6451
371,-664,10.7028,34.3027,-0.00165943,-0.00139551,0.00163397,0.000111815,-0.00316676,0.82569,0.00214941,0.0145872,1595,1688,10.7028,-34.3027
378,-664,10.6693,33.9133,-0.00231433,-0.00230387,0.00232892,1.98283e-05,-0.00463803,0.786521,0.00309865,0.0132521,1602,1688,10.6693,-33.9134
385,-664,10.6414,33.5073,-0.00298131,-0.00337465,0.00308756,-8.41673e-05,-0.0062718,0.753592,0.00415343,0.0130988,1609,1688,10.6413,-33.5073
392,-664,10.5951,33.1167,-0.00373009,-0.00473674,0.00385759,-0.000343122,-0.0081237,0.720526,0.00530513,0.0167585,1616,1688,10.5951,-33.1167
399,-664,10.6064,32.7122,-0.00452965,-0.0058447,0.00449288,-0.000646433,-0.00972792,0.71274,0.0062809,0.0150873,1623,1688,10.6064,-32.7121
406,-664,10.625,32.3077,-0.00512465,-0.00655268,0.00493787,-0.000849438,-0.0108279,0.713596,0.00695276,0.0127294,1630,1688,10.625,-32.3077
413,-664,10.6292,31.8689,-0.00540867,-0.0069651,0.00531203,-0.000818152,-0.0115556,0.712665,0.00744603,0.0121308,1637,1688,10.6291,-31.8689
420,-664,10.6057,31.4375,-0.00565499,-0.00704467,0.00545428,-0.000851466,-0.0118482,0.722043,0.00763083,0.030047,1644,1688,10.6058,-31.4375
427,-664,10.5488,30.9034,0,0,0,0,0,0,0,-1,1651,1688,10.5488,-30.9035
434,-664,10.5874,30.515,0,0,0,0,0,0,0,-1,1658,1688,10.5875,-30.515
441,-664,10.4056,30.5109,0,0,0,0,0,0,0,-1,1665,1688,10.4056,-30.5108
448,-664,7.27502,19.7417,0,0,0,0,0,0,0,-1,1672,1688,7.27505,-19.7417
455,-664,7.53198,11.3838,0,0,0,0,0,0,0,-1,1679,1688,7.53195,-11.3838
462,-664,4.3147,4.25439,0,0,0,0,0,0,0,-1,1686,1688,4.31467,-4.25435
469,-664,6.05469,7.49341,0,0,0,0,0,0,0,-1,1693,1688,6.05474,-7.49339
476,-664,10.2377,22.7128,0,0,0,0,0,0,0,-1,1700,1688,10.2377,-22.7128
483,-664,8.41895,10.9768,0,0,0,0,0,0,0,-1,1707,1688,8.41897,-10.9769
490,-664,3.90771,13.2842,0,0,0,0,0,0,0,-1,1714,1688,3.90776,-13.2841
497,-664,0,0,0,0,0,0,0,0,0,-1,1721,1688,0,0
504,-664,0,0,0,0,0,0,0,0,0,-1,1728,1688,0,0
511,-664,0,0,0,0,0,0,0,0,0,-1,1735,1688,0,0
518,-664,0,0,0,0,0,0,0,0,0,-1,1742,1688,0,0
525,-664,0,0,0,0,0,0,0,0,0,-1,1749,1688,0,0
532,-664,0,0,0,0,0,0,0,0,0,-1,1756,1688,0,0
539,-664,0,0,0,0,0,0,0,0,0,-1,1763,1688,0,0
546,-664,0,0,0,0,0,0,0,0,0,-1,1770,1688,0,0
553,-664,0,0,0,0,0,0,0,0,0,-1,1777,1688,0,0
560,-664,0,0,0,0,0,0,0,0,0,-1,1784,1688,0,0
567,-664,0,0,0,0,0,0,0,0,0,-1,1791,1688,0,0
574,-664,0,0,0,0,0,0,0,0,0,-1,1798,1688,0,0
581,-664,0,0,0,0,0,0,0,0,0,-1,1805,1688,0,0
588,-664,0,0,0,0,0,0,0,0,0,-1,1812,1688,0,0
595,-664,0,0,0,0,0,0,0,0,0,-1,1819,1688,0,0
602,-664,0,0,0,0,0,0,0,0,0,-1,1826,1688,0,0
609,-664,0,0,0,0,0,0,0,0,0,-1,1833,1688,0,0
616,-664,0,0,0,0,0,0,0,0,0,-1,1840,1688,0,0
623,-664,0,0,0,0,0,0,0,0,0,-1,1847,1688,0,0
630,-664,0,0,0,0,0,0,0,0,0,-1,1854,1688,0,0
637,-664,0,0,0,0,0,0,0,0,0,-1,1861,1688,0,0
644,-664,0,0,0,0,0,0,0,0,0,-1,1868,1688,0,0
651,-664,0,0,0,0,0,0,0,0,0,-1,1875,1688,0,0
658,-664,0,0,0,0,0,0,0,0,0,-1,1882,1688,0,0
665,-664,0,0,0,0,0,0,0,0,0,-1,1889,1688,0,0
672,-664,0,0,0,0,0,0,0,0,0,-1,1896,1688,0,0
679,-664,0,0,0,0,0,0,0,0,0,-1,1903,1688,0,0
686,-664,0,0,0,0,0,0,0,0,0,-1,1910,1688,0,0
693,-664,0,0,0,0,0,0,0,0,0,-1,1917,1688,0,0
700,-664,0,0,0,0,0,0,0,0,0,-1,1924,1688,0,0
707,-664,0,0,0,0,0,0,0,0,0,-1,1931,1688,0,0
714,-664,0,0,0,0,0,0,0,0,0,-1,1938,1688,0,0
721,-664,0,0,0,0,0,0,0,0,0,-1,1945,1688,0,0
728,-664,0,0,0,0,0,0,0,0,0,-1,1952,1688,0,0
735,-664,0,0,0,0,0,0,0,0,0,-1,1959,1688,0,0
742,-664,0,0,0,0,0,0,0,0,0,-1,1966,1688,0,0
749,-664,0,0,0,0,0,0,0,0,0,-1,1973,1688,0,0
756,-664,0,0,0,0,0,0,0,0,0,-1,1980,1688,0,0
763,-664,0,0,0,0,0,0,0,0,0,-1,1987,1688,0,0
770,-664,0,0,0,0,0,0,0,0,0,-1,1994,1688,0,0
777,-664,0,0,0,0,0,0,0,0,0,-1,2001,1688,0,0
784,-664,0,0,0,0,0,0,0,0,0,-1,2008,1688,0,0
791,-664,0,0,0,0,0,0,0,0,0,-1,2015,1688,0,0
798,-664,0,0,0,0,0,0,0,0,0,-1,2022,1688,0,0
805,-664,0,0,0,0,0,0,0,0,0,-1,2029,1688,0,0
812,-664,0,0,0,0,0,0,0,0,0,-1,2036,1688,0,0
-700,-671,0,0,0,0,0,0,0,0,0,-1,524,1695,0,0
-693,-671,0,0,0,0,0,0,0,0,0,-1,531,1695,0,0
-686,-671,0,0,0,0,0,0,0,0,0,-1,538,1695,0,0
-679,-671,0,0,0,0,0,0,0,0,0,-1,545,1695,0,0
-672,-671,0,0,0,0,0,0,0,0,0,-1,552,1695,0,0
-665,-671,0,0,0,0,0,0,0,0,0,-1,559,1695,0,0
-658,-671,0,0,0,0,0,0,0,0,0,-1,566,1695,0,0
-651,-671,0,0,0,0,0,0,0,0,0,-1,573,1695,0,0
-644,-671,0,0,0,0,0,0,0,0,0,-1,580,1695,0,0
-637,-671,0,0,0,0,0,0,0,0,0,-1,587,1695,0,0
-630,-671,0,0,0,0,0,0,0,0,0,-1,594,1695,0,0
-623,-671,0,0,0,0,0,0,0,0,0,-1,601,1695,0,0
-616,-671,0,0,0,0,0,0,0,0,0,-1,608,1695,0,0
-609,-671,0,0,0,0,0,0,0,0,0,-1,615,1695,0,0
-602,-671,0,0,0,0,0,0,0,0,0,-1,622,1695,0,0
-595,-671,0,0,0,0,0,0,0,0,0,-1,629,1695,0,0
-588,-671,0,0,0,0,0,0,0,0,0,-1,636,1695,0,0
-581,-671,0,0,0,0,0,0,0,0,0,-1,643,1695,0,0
-574,-671,0,0,0,0,0,0,0,0,0,-1,650,1695,0,0
-567,-671,0,0,0,0,0,0,0,0,0,-1,657,1695,0,0
-560,-671,0,0,0,0,0,0,0,0,0,-1,664,1695,0,0
-553,-671,0,0,0,0,0,0,0,0,0,-1,671,1695,0,0
-546,-671,0,0,0,0,0,0,0,0,0,-1,678,1695,0,0
-539,-671,0,0,0,0,0,0,0,0,0,-1,685,1695,0,0
-532,-671,0,0,0,0,0,0,0,0,0,-1,692,1695,0,0
-525,-671,0,0,0,0,0,0,0,0,0,-1,699,1695,0,0
-518,-671,0,0,0,0,0,0,0,0,0,-1,706,1695,0,0
-511,-671,0,0,0,0,0,0,0,0,0,-1,713,1695,0,0
-504,-671,0,0,0,0,0,0,0,0,0,-1,720,1695,0,0
-497,-671,0,0,0,0,0,0,0,0,0,-1,727,1695,0,0
-490,-671,0,0,0,0,0,0,0,0,0,-1,734,1695,0,0
-483,-671,0,0,0,0,0,0,0,0,0,-1,741,1695,0,0
-476,-671,0,0,0,0,0,0,0,0,0,-1,748,1695,0,0
-469,-671,0,0,0,0,0,0,0,0,0,-1,755,1695,0,0
-462,-671,0,0,0,0,0,0,0,0,0,-1,762,1695,0,0
-455,-671,0,0,0,0,0,0,0,0,0,-1,769,1695,0,0
-448,-671,0,0,0,0,0,0,0,0,0,-1,776,1695,0,0
-441,-671,0,0,0,0,0,0,0,0,0,-1,783,1695,0,0
-434,-671,0,0,0,0,0,0,0,0,0,-1,790,1695,0,0
-427,-671,0,0,0,0,0,0,0,0,0,-1,797,1695,0,0
-420,-671,0,0,0,0,0,0,0,0,0,-1,804,1695,0,0
-413,-671,0,0,0,0,0,0,0,0,0,-1,811,1695,0,0
-406,-671,0,0,0,0,0,0,0,0,0,-1,818,1695,0,0
-399,-671,0,0,0,0,0,0,0,0,0,-1,825,1695,0,0
-392,-671,0,0,0,0,0,0,0,0,0,-1,832,1695,0,0
-385,-671,0,0,0,0,0,0,0,0,0,-1,839,1695,0,0
-378,-671,0,0,0,0,0,0,0,0,0,-1,846,1695,0,0
-371,-671,0,0,0,0,0,0,0,0,0,-1,853,1695,0,0
-364,-671,-4.18738,7.51416,0,0,0,0,0,0,0,-1,860,1695,-4.18739,-7.51419
-357,-671,-5.02393,6.07129,0,0,0,0,0,0,0,-1,867,1695,-5.0239,-6.07135
-350,-671,-5.72333,4.58386,0,0,0,0,0,0,0,-1,874,1695,-5.72333,-4.58386
-343,-671,2.99432,25.8125,0,0,0,0,0,0,0,-1,881,1695,2.9943,-25.8125
-336,-671,4.1355,26.2717,0,0,0,0,0,0,0,-1,888,1695,4.13547,-26.2718
-329,-671,5.27954,26.6194,0,0,0,0,0,0,0,-1,895,1695,5.27955,-26.6194
-322,-671,6.46808,26.4952,0,0,0,0,0,0,0,-1,902,1695,6.46806,-26.4953
-315,-671,6.61877,28.2434,0,0,0,0,0,0,0,-1,909,1695,6.61878,-28.2434
-308,-671,7.77936,29.6101,0,0,0,0,0,0,0,-1,916,1695,7.77938,-29.6101
-301,-671,7.49255,30.2307,-0.0241483,0.00600471,-0.0169158,0.0135876,-0.0317312,-1.14938,0.0268546,0.0486217,923,1695,7.49258,-30.2307
-294,-671,7.11542,30.6761,-0.0228377,0.00537733,-0.0164191,0.0129172,-0.0303776,-1.14031,0.0256649,0.0470856,930,1695,7.11544,-30.6761
-287,-671,6.81006,31.121,-0.0207054,0.00472046,-0.015101,0.0117473,-0.0277323,-1.13527,0.023408,0.0451913,937,1695,6.81006,-31.1209
-280,-671,6.56085,31.4563,-0.0182608,0.00392468,-0.0132585,0.0101188,-0.0244549,-1.13374,0.0205252,0.0377265,944,1695,6.56083,-31.4563
-273,-671,6.48212,31.8528,-0.0156056,0.00325984,-0.0110669,0.0083685,-0.0207143,-1.13832,0.0172879,0.0326168,951,1695,6.4821,-31.8528
-266,-671,6.40771,32.3628,-0.0127091,0.00269577,-0.00865236,0.00657741,-0.0165907,-1.14909,0.0137863,0.0241158,958,1695,6.40772,-32.3627
-259,-671,6.33466,32.7375,-0.0100515,0.00207596,-0.00649693,0.00489925,-0.0128748,-1.16086,0.0106006,0.0225243,965,1695,6.33463,-32.7376
-252,-671,6.33606,33.1471,-0.00767862,0.0017052,-0.00462165,0.00359916,-0.00957258,-1.18187,0.00786105,0.0171955,972,1695,6.33608,-33.1471
-245,-671,6.30017,33.6021,-0.00555397,0.00153554,-0.00314161,0.00272735,-0.00674577,-1.20821,0.00563094,0.0198833,979,1695,6.30017,-33.6021
-238,-671,6.30438,34.0243,-0.00397025,0.00182165,-0.00176807,0.00231872,-0.00446733,-1.29673,0.00398285,0.0204038,986,1695,6.30438,-34.0243
-231,-671,6.28406,34.424,-0.00233801,0.00196053,-0.000143273,0.0019653,-0.00234278,-1.53751,0.00249045,0.0155399,993,1695,6.28409,-34.424
-224,-671,6.2478,34.8114,-0.00109517,0.00149383,0.000659226,0.00165202,-0.00125336,1.33529,0.00168267,0.012211,1000,1695,6.2478,-34.8114
-217,-671,6.24371,35.2004,-0.00070013,0.00183844,0.000601349,0.00197369,-0.000835376,1.34957,0.00166561,0.0116625,1007,1695,6.24369,-35.2005
-210,-671,6.24707,35.6118,-0.000413252,0.00219298,0.000555678,0.00230651,-0.000526783,1.36926,0.00174005,0.0119158,1014,1695,6.24705,-35.6118
-203,-671,6.22559,35.9899,-0.000172243,0.00239554,0.00050887,0.00249271,-0.000269411,1.38212,0.0017585,0.0208243,1021,1695,6.22564,-35.9898
-196,-671,6.22412,36.3402,-5.0368e-06,0.00250792,0.00042331,0.00257731,-7.44279e-05,1.40832,0.00174354,0.0177887,1028,1695,6.22406,-36.3402
-189,-671,6.2373,36.751,0.00018429,0.00256145,0.000263895,0.0025904,0.000155347,1.46156,0.00167755,0.0125127,1035,1695,6.23726,-36.751
-182,-671,6.20166,37.0775,0.000444234,0.0027784,0.000136228,0.00278632,0.000436311,1.5127,0.00173054,0.00988567,1042,1695,6.20171,-37.0775
-175,-671,6.19397,37.41,0.000780277,0.00292789,9.12003e-05,0.00293176,0.000776411,1.52843,0.00175395,0.0128545,1049,1695,6.194,-37.41
-168,-671,6.20117,37.744,0.00131693,0.00330895,0.000181042,0.00332527,0.00130061,1.48089,0.00193496,0.0132981,1056,1695,6.20119,-37.744
-161,-671,6.20691,38.0723,0.00181428,0.0036508,0.000226621,0.00367835,0.00178672,1.44982,0.00212399,0.00896982,1063,1695,6.20687,-38.0723
-154,-671,6.22314,38.3945,0.00243987,0.00410506,0.000291426,0.00415459,0.00239034,1.40245,0.00240771,0.00884312,1070,1695,6.22312,-38.3946
-147,-671,6.23108,38.7286,0.00315772,0.00462394,0.000421816,0.00473663,0.00304503,1.30974,0.00277166,0.0106612,1077,1695,6.23114,-38.7286
-140,-671,6.27112,39.0251,0.0038814,0.00515358,0.000531733,0.00534656,0.00368842,1.22266,0.00316015,0.0138037,1084,1695,6.27117,-39.0252
-133,-671,6.28271,39.3044,0.00455013,0.0059064,0.000643669,0.00616324,0.00429329,1.19113,0.00364888,0.0191915,1091,1695,6.28275,-39.3044
-126,-671,6.3418,39.6766,0.00536762,0.00634286,0.00080685,0.00679799,0.00491249,1.0572,0.00405244,0.026891,1098,1695,6.34185,-39.6766
-119,-671,6.38916,40.1965,0.00645559,0.00675763,0.00101007,0.00762791,0.00558532,0.859606,0.00455955,0.0449877,1105,1695,6.38916,-40.1965
-112,-671,6.3634,40.8593,0,0,0,0,0,0,0,-1,1112,1695,6.3634,-40.8592
-105,-671,7.26819,40.2883,0,0,0,0,0,0,0,-1,1119,1695,7.26825,-40.2883
-98,-671,6.21729,41.3119,0,0,0,0,0,0,0,-1,1126,1695,6.21734,-41.3119
-91,-671,6.40063,38.2443,0,0,0,0,0,0,0,-1,1133,1695,6.40059,-38.2442
-84,-671,5.4209,26.2415,0,0,0,0,0,0,0,-1,1140,1695,5.42096,-26.2414
-77,-671,4.31763,16.489,0,0,0,0,0,0,0,-1,1147,1695,4.31757,-16.489
-70,-671,3.06067,10.7737,0,0,0,0,0,0,0,-1,1154,1695,3.0607,-10.7737
-63,-671,2.94592,6.90198,0,0,0,0,0,0,0,-1,1161,1695,2.94594,-6.90198
-56,-671,-3.07678,2.87976,0,0,0,0,0,0,0,-1,1168,1695,-3.07675,-2.87979
-49,-671,-1.05957,4.76917,0,0,0,0,0,0,0,-1,1175,1695,-1.05958,-4.76921
-42,-671,0.539307,3.7865,0,0,0,0,0,0,0,-1,1182,1695,0.539266,-3.78648
-35,-671,-0.272461,0.347534,0,0,0,0,0,0,0,-1,1189,1695,-0.272434,-0.347569
-28,-671,-10.4878,17.2009,0,0,0,0,0,0,0,-1,1196,1695,-10.4878,-17.2009
-21,-671,6.9751,43.0017,0,0,0,0,0,0,0,-1,1203,1695,6.97508,-43.0017
-14,-671,7.12305,43.2684,0.0478506,-0.0120235,-0.0243878,0.0565269,-0.0206998,-0.341801,0.0461585,0.048194,1210,1695,7.12308,-43.2684
-7,-671,7.28601,43.4551,0.0492315,-0.00929344,-0.0245318,0.0581541,-0.0182161,-0.348842,0.0460583,0.0482118,1217,1695,7.28596,-43.4551
0,-671,7.42114,43.0931,0.0518461,-0.00718901,-0.026125,0.0617469,-0.0170897,-0.362251,0.0478886,0.0473633,1224,1695,7.4212,-43.0931
7,-671,7.18689,42.6729,0.0547006,-0.00595657,-0.0294247,0.0666288,-0.0178848,-0.385136,0.0514281,0.0478588,1231,1695,7.18693,-42.6729
14,-671,8.026,44.3784,0.0579307,-0.00606138,-0.0333787,0.0721719,-0.0203026,-0.403272,0.0561199,0.0438596,1238,1695,8.02594,-44.3784
21,-671,8.53821,44.623,0.0610314,-0.00668218,-0.0369936,0.0773225,-0.0229732,-0.414821,0.0606736,0.0426745,1245,1695,8.53819,-44.623
28,-671,11.9567,44.2905,0.0626073,-0.00766722,-0.0408424,0.081347,-0.0264069,-0.430173,0.0648512,0.0458714,1252,1695,11.9567,-44.2905
35,-671,12.5508,43.8839,0.0624764,-0.00827116,-0.0434104,0.0831005,-0.0288953,-0.443527,0.0671378,0.0471782,1259,1695,12.5508,-43.884
42,-671,13.1422,43.3524,0.0601635,-0.00839376,-0.0441736,0.0817985,-0.0300287,-0.455431,0.0668299,0.0483456,1266,1695,13.1422,-43.3524
49,-671,14.1553,42.8334,0,0,0,0,0,0,0,-1,1273,1695,14.1553,-42.8333
56,-671,15.0422,42.5621,0,0,0,0,0,0,0,-1,1280,1695,15.0423,-42.5621
63,-671,15.8335,42.2659,0,0,0,0,0,0,0,-1,1287,1695,15.8335,-42.2659
70,-671,9.01904,45.0265,0,0,0,0,0,0,0,-1,1294,1695,9.01902,-45.0265
77,-671,9.52405,44.8013,0,0,0,0,0,0,0,-1,1301,1695,9.52406,-44.8013
84,-671,8.88489,43.7876,0,0,0,0,0,0,0,-1,1308,1695,8.88493,-43.7876
91,-671,8.50598,43.936,0.00905202,0.0180296,-0.0237672,0.0377282,-0.0106466,-0.878731,0.0293519,0.0422732,1315,1695,8.50596,-43.936
98,-671,8.36108,44.0381,-0.00132919,0.0227929,-0.0170193,0.0315915,-0.0101278,-1.09366,0.0251268,0.0422087,1322,1695,8.36113,-44.0381
105,-671,8.36328,44.0184,0,0,0,0,0,0,0,-1,1329,1695,8.3633,-44.0185
112,-671,8.521,42.9424,0,0,0,0,0,0,0,-1,1336,1695,8.52094,-42.9424
119,-671,8.17505,43.1351,0,0,0,0,0,0,0,-1,1343,1695,8.175,-43.1351
126,-671,7.90564,43.4209,0,0,0,0,0,0,0,-1,1350,1695,7.90559,-43.4209
133,-671,7.70374,42.1421,0,0,0,0,0,0,0,-1,1357,1695,7.7037,-42.1421
140,-671,7.1322,41.4187,-0.0394969,0.038807,-0.00470484,0.0390887,-0.0397786,-1.511,0.0455346,0.0485553,1364,1695,7.13222,-41.4187
147,-671,7.10876,40.8301,-0.0412083,0.039168,-0.00290961,0.0392732,-0.0413135,-1.53466,0.0465317,0.0474325,1371,1695,7.10877,-40.8301
154,-671,7.26892,40.2678,0,0,0,0,0,0,0,-1,1378,1695,7.26896,-40.2678
161,-671,4.49292,4.91272,0,0,0,0,0,0,0,-1,1385,1695,4.49297,-4.91273
168,-671,5.17639,6.1416,0,0,0,0,0,0,0,-1,1392,1695,5.1764,-6.14164
175,-671,5.6731,1.64685,0,0,0,0,0,0,0,-1,1399,1695,5.67313,-1.64691
182,-671,5.56812,1.71692,0,0,0,0,0,0,0,-1,1406,1695,5.56809,-1.71686
189,-671,6.98315,6.36169,0,0,0,0,0,0,0,-1,1413,1695,6.98312,-6.36175
196,-671,5.38123,5.69775,0,0,0,0,0,0,0,-1,1420,1695,5.38125,-5.69769
203,-671,5.95117,8.11658,0,0,0,0,0,0,0,-1,1427,1695,5.9512,-8.11662
210,-671,4.73596,8.39624,0,0,0,0,0,0,0,-1,1434,1695,4.736,-8.39618
217,-671,5.37097,11.863,0,0,0,0,0,0,0,-1,1441,1695,5.37094,-11.863
224,-671,5.08167,13.6694,0,0,0,0,0,0,0,-1,1448,1695,5.08165,-13.6695
231,-671,5.66663,15.3348,0,0,0,0,0,0,0,-1,1455,1695,5.66667,-15.3349
238,-671,6.32959,16.2036,0,0,0,0,0,0,0,-1,1462,1695,6.32961,-16.2037
245,-671,10.468,39.5925,0,0,0,0,0,0,0,-1,1469,1695,10.468,-39.5926
252,-671,10.2345,39.6895,0,0,0,0,0,0,0,-1,1476,1695,10.2345,-39.6894
259,-671,10.1238,39.3833,0,0,0,0,0,0,0,-1,1483,1695,10.1238,-39.3833
266,-671,10.2299,39.3123,0.00275341,0.0101557,-0.000687376,0.010219,0.00269012,-1.47898,0.00611645,0.033086,1490,1695,10.2299,-39.3122
273,-671,10.3041,39.0831,0.00243913,0.0103537,-0.000744413,0.0104231,0.00236972,-1.47783,0.00630897,0.0101602,1497,1695,10.3041,-39.0832
280,-671,10.3024,38.7893,0.00204433,0.0102188,-0.00069876,0.0102781,0.00198503,-1.48613,0.00629556,0.00979825,1504,1695,10.3024,-38.7893
287,-671,10.2982,38.3965,0.00169219,0.00966355,-0.000597214,0.00970804,0.0016477,-1.49643,0.00599871,0.0123521,1511,1695,10.2982,-38.3965
294,-671,10.3138,38.078,0.00145401,0.00903018,-0.000598399,0.00907716,0.00140704,-1.49246,0.00564122,0.0119945,1518,1695,10.3139,-38.078
301,-671,10.3406,37.8175,0.00123314,0.00804152,-0.000590776,0.0080924,0.00118226,-1.48488,0.00504721,0.0108718,1525,1695,10.3406,-37.8175
308,-671,10.3671,37.5227,0.00101828,0.00690766,-0.000580641,0.00696436,0.000961582,-1.47345,0.00435789,0.0122193,1532,1695,10.3671,-37.5228
315,-671,10.375,37.1965,0.000832218,0.00567142,-0.000563396,0.00573614,0.000767492,-1.45641,0.00359567,0.0135081,1539,1695,10.3749,-37.1965
322,-671,10.3719,36.8824,0.000583924,0.00451912,-0.000535482,0.00459069,0.00051236,-1.43794,0.00290477,0.015042,1546,1695,10.3719,-36.8825
329,-671,10.3467,36.5454,0.000199607,0.00334351,-0.000484004,0.00341634,0.000126782,-1.42145,0.0022365,0.0145452,1553,1695,10.3467,-36.5454
336,-671,10.3481,36.1622,-0.000166183,0.0023286,-0.000178261,0.00234127,-0.000178856,-1.49982,0.00162376,0.0115799,1560,1695,10.3482,-36.1623
343,-671,10.3756,35.7698,-0.000554505,0.00136927,0.00012164,0.00137693,-0.000562166,1.5079,0.00115201,0.0113558,1567,1695,10.3757,-35.7698
350,-671,10.3601,35.4496,-0.0011781,0.000136589,0.000666702,0.00041551,-0.00145702,1.17456,0.00113548,0.0113952,1574,1695,10.3602,-35.4496
357,-671,10.3434,35.0348,-0.00180906,-0.000954889,0.00130357,-1.02267e-05,-0.00275372,0.943702,0.00183242,0.010788,1581,1695,10.3434,-35.0348
364,-671,10.3287,34.6471,-0.00250246,-0.00190607,0.00201056,-0.000171704,-0.00423682,0.859018,0.00276909,0.0127758,1588,1695,10.3287,-34.6471
371,-671,10.2943,34.3041,-0.00321575,-0.00287478,0.00281157,-0.000228531,-0.00586199,0.815679,0.00383409,0.015078,1595,1695,10.2943,-34.3041
378,-671,10.2933,33.9216,-0.00397934,-0.00389651,0.00375841,-0.000179285,-0.00769656,0.790907,0.00507234,0.0131131,1602,1695,10.2933,-33.9216
385,-671,10.2712,33.5208,-0.00477077,-0.0050665,0.00479701,-0.000119342,-0.00971793,0.769991,0.00643921,0.0146606,1609,1695,10.2713,-33.5208
392,-671,10.2291,33.1392,-0.00561597,-0.00655711,0.00582636,-0.000241203,-0.0119319,0.745103,0.00787541,0.0178146,1616,1695,10.2291,-33.1392
399,-671,10.2174,32.7415,-0.00650357,-0.0077089,0.00666455,-0.000414489,-0.013798,0.740307,0.00906365,0.0141652,1623,1695,10.2174,-32.7414
406,-671,10.2322,32.3292,-0.00719295,-0.00846846,0.00728964,-0.000513223,-0.0151482,0.741765,0.00993214,0.0200395,1630,1695,10.2321,-32.3293
413,-671,10.1876,31.9976,-0.00757394,-0.00896893,0.00786992,-0.000370663,-0.0161722,0.741199,0.0106601,0.034521,1637,1695,10.1876,-31.9976
420,-671,10.2263,31.6536,0,0,0,0,0,0,0,-1,1644,1695,10.2263,-31.6535
427,-671,9.31738,21.7188,0,0,0,0,0,0,0,-1,1651,1695,9.31735,-21.7187
434,-671,9.66528,26.177,0,0,0,0,0,0,0,-1,1658,1695,9.66528,-26.177
441,-671,8.34961,20.6522,0,0,0,0,0,0,0,-1,1665,1695,8.34964,-20.6522
448,-671,7.44873,20.2306,0,0,0,0,0,0,0,-1,1672,1695,7.44872,-20.2306
455,-671,6.62805,19.8612,0,0,0,0,0,0,0,-1,1679,1695,6.62811,-19.8612
462,-671,5.86255,4.47961,0,0,0,0,0,0,0,-1,1686,1695,5.8625,-4.4796
469,-671,3.71301,3.76978,0,0,0,0,0,0,0,-1,1693,1695,3.71297,-3.76974
476,-671,3.75574,3.18848,0,0,0,0,0,0,0,-1,1700,1695,3.7558,-3.18847
483,-671,7.81824,12.1041,0,0,0,0,0,0,0,-1,1707,1695,7.81826,-12.1041
490,-671,0,0,0,0,0,0,0,0,0,-1,1714,1695,0,0
497,-671,0,0,0,0,0,0,0,0,0,-1,1721,1695,0,0
504,-671,0,0,0,0,0,0,0,0,0,-1,1728,1695,0,0
511,-671,0,0,0,0,0,0,0,0,0,-1,1735,1695,0,0
518,-671,0,0,0,0,0,0,0,0,0,-1,1742,1695,0,0
525,-671,0,0,0,0,0,0,0,0,0,-1,1749,1695,0,0
532,-671,0,0,0,0,0,0,0,0,0,-1,1756,1695,0,0
539,-671,0,0,0,0,0,0,0,0,0,-1,1763,1695,0,0
546,-671,0,0,0,0,0,0,0,0,0,-1,1770,1695,0,0
553,-671,0,0,0,0,0,0,0,0,0,-1,1777,1695,0,0
560,-671,0,0,0,0,0,0,0,0,0,-1,1784,1695,0,0
567,-671,0,0,0,0,0,0,0,0,0,-1,1791,1695,0,0
574,-671,0,0,0,0,0,0,0,0,0,-1,1798,1695,0,0
581,-671,0,0,0,0,0,0,0,0,0,-1,1805,1695,0,0
588,-671,0,0,0,0,0,0,0,0,0,-1,1812,1695,0,0
595,-671,0,0,0,0,0,0,0,0,0,-1,1819,1695,0,0
602,-671,0,0,0,0,0,0,0,0,0,-1,1826,1695,0,0
609,-671,0,0,0,0,0,0,0,0,0,-1,1833,1695,0,0
616,-671,0,0,0,0,0,0,0,0,0,-1,1840,1695,0,0
623,-671,0,0,0,0,0,0,0,0,0,-1,1847,1695,0,0
630,-671,0,0,0,0,0,0,0,0,0,-1,1854,1695,0,0
637,-671,0,0,0,0,0,0,0,0,0,-1,1861,1695,0,0
644,-671,0,0,0,0,0,0,0,0,0,-1,1868,1695,0,0
651,-671,0,0,0,0,0,0,0,0,0,-1,1875,1695,0,0
658,-671,0,0,0,0,0,0,0,0,0,-1,1882,1695,0,0
665,-671,0,0,0,0,0,0,0,0,0,-1,1889,1695,0,0
672,-671,0,0,0,0,0,0,0,0,0,-1,1896,1695,0,0
679,-671,0,0,0,0,0,0,0,0,0,-1,1903,1695,0,0
686,-671,0,0,0,0,0,0,0,0,0,-1,1910,1695,0,0
693,-671,0,0,0,0,0,0,0,0,0,-1,1917,1695,0,0
700,-671,0,0,0,0,0,0,0,0,0,-1,1924,1695,0,0
707,-671,0,0,0,0,0,0,0,0,0,-1,1931,1695,0,0
714,-671,0,0,0,0,0,0,0,0,0,-1,1938,1695,0,0
721,-671,0,0,0,0,0,0,0,0,0,-1,1945,1695,0,0
728,-671,0,0,0,0,0,0,0,0,0,-1,1952,1695,0,0
735,-671,0,0,0,0,0,0,0,0,0,-1,1959,1695,0,0
742,-671,0,0,0,0,0,0,0,0,0,-1,1966,1695,0,0
749,-671,0,0,0,0,0,0,0,0,0,-1,1973,1695,0,0
756,-671,0,0,0,0,0,0,0,0,0,-1,1980,1695,0,0
763,-671,0,0,0,0,0,0,0,0,0,-1,1987,1695,0,0
770,-671,0,0,0,0,0,0,0,0,0,-1,1994,1695,0,0
777,-671,0,0,0,0,0,0,0,0,0,-1,2001,1695,0,0
784,-671,0,0,0,0,0,0,0,0,0,-1,2008,1695,0,0
791,-671,0,0,0,0,0,0,0,0,0,-1,2015,1695,0,0
798,-671,0,0,0,0,0,0,0,0,0,-1,2022,1695,0,0
805,-671,0,0,0,0,0,0,0,0,0,-1,2029,1695,0,0
812,-671,0,0,0,0,0,0,0,0,0,-1,2036,1695,0,0
-700,-678,0,0,0,0,0,0,0,0,0,-1,524,1702,0,0
-693,-678,0,0,0,0,0,0,0,0,0,-1,531,1702,0,0
-686,-678,0,0,0,0,0,0,0,0,0,-1,538,1702,0,0
-679,-678,0,0,0,0,0,0,0,0,0,-1,545,1702,0,0
-672,-678,0,0,0,0,0,0,0,0,0,-1,552,1702,0,0
-665,-678,0,0,0,0,0,0,0,0,0,-1,559,1702,0,0
-658,-678,0,0,0,0,0,0,0,0,0,-1,566,1702,0,0
-651,-678,0,0,0,0,0,0,0,0,0,-1,573,1702,0,0
-644,-678,0,0,0,0,0,0,0,0,0,-1,580,1702,0,0
-637,-678,0,0,0,0,0,0,0,0,0,-1,587,1702,0,0
-630,-678,0,0,0,0,0,0,0,0,0,-1,594,1702,0,0
-623,-678,0,0,0,0,0,0,0,0,0,-1,601,1702,0,0
-616,-678,0,0,0,0,0,0,0,0,0,-1,608,1702,0,0
-609,-678,0,0,0,0,0,0,0,0,0,-1,615,1702,0,0
-602,-678,0,0,0,0,0,0,0,0,0,-1,622,1702,0,0
-595,-678,0,0,0,0,0,0,0,0,0,-1,629,1702,0,0
-588,-678,0,0,0,0,0,0,0,0,0,-1,636,1702,0,0
-581,-678,0,0,0,0,0,0,0,0,0,-1,643,1702,0,0
-574,-678,0,0,0,0,0,0,0,0,0,-1,650,1702,0,0
-567,-678,0,0,0,0,0,0,0,0,0,-1,657,1702,0,0
-560,-678,0,0,0,0,0,0,0,0,0,-1,664,1702,0,0
-553,-678,0,0,0,0,0,0,0,0,0,-1,671,1702,0,0
-546,-678,0,0,0,0,0,0,0,0,0,-1,678,1702,0,0
-539,-678,0,0,0,0,0,0,0,0,0,-1,685,1702,0,0
-532,-678,0,0,0,0,0,0,0,0,0,-1,692,1702,0,0
-525,-678,0,0,0,0,0,0,0,0,0,-1,699,1702,0,0
-518,-678,0,0,0,0,0,0,0,0,0,-1,706,1702,0,0
-511,-678,0,0,0,0,0,0,0,0,0,-1,713,1702,0,0
-504,-678,0,0,0,0,0,0,0,0,0,-1,720,1702,0,0
-497,-678,0,0,0,0,0,0,0,0,0,-1,727,1702,0,0
-490,-678,0,0,0,0,0,0,0,0,0,-1,734,1702,0,0
-483,-678,0,0,0,0,0,0,0,0,0,-1,741,1702,0,0
-476,-678,0,0,0,0,0,0,0,0,0,-1,748,1702,0,0
-469,-678,0,0,0,0,0,0,0,0,0,-1,755,1702,0,0
-462,-678,0,0,0,0,0,0,0,0,0,-1,762,1702,0,0
-455,-678,0,0,0,0,0,0,0,0,0,-1,769,1702,0,0
-448,-678,0,0,0,0,0,0,0,0,0,-1,776,1702,0,0
-441,-678,0,0,0,0,0,0,0,0,0,-1,783,1702,0,0
-434,-678,0,0,0,0,0,0,0,0,0,-1,790,1702,0,0
-427,-678,0,0,0,0,0,0,0,0,0,-1,797,1702,0,0
-420,-678,0,0,0,0,0,0,0,0,0,-1,804,1702,0,0
-413,-678,0,0,0,0,0,0,0,0,0,-1,811,1702,0,0
-406,-678,0,0,0,0,0,0,0,0,0,-1,818,1702,0,0
-399,-678,0,0,0,0,0,0,0,0,0,-1,825,1702,0,0
-392,-678,0,0,0,0,0,0,0,0,0,-1,832,1702,0,0
-385,-678,0,0,0,0,0,0,0,0,0,-1,839,1702,0,0
-378,-678,0,0,0,0,0,0,0,0,0,-1,846,1702,0,0
-371,-678,0,0,0,0,0,0,0,0,0,-1,853,1702,0,0
-364,-678,0,0,0,0,0,0,0,0,0,-1,860,1702,0,0
-357,-678,0,0,0,0,0,0,0,0,0,-1,867,1702,0,0
-350,-678,-5.79944,6.11865,0,0,0,0,0,0,0,-1,874,1702,-5.79942,-6.11864
-343,-678,-6.44891,4.52759,0,0,0,0,0,0,0,-1,881,1702,-6.4489,-4.52758
-336,-678,4.8537,26.4368,0,0,0,0,0,0,0,-1,888,1702,4.85368,-26.4368
-329,-678,5.70953,26.5249,0,0,0,0,0,0,0,-1,895,1702,5.70955,-26.5249
-322,-678,3.78455,20.3917,0,0,0,0,0,0,0,-1,902,1702,3.78457,-20.3917
-315,-678,4.74176,22.3245,0,0,0,0,0,0,0,-1,909,1702,4.74178,-22.3244
-308,-678,8.00037,29.4677,0,0,0,0,0,0,0,-1,916,1702,8.00039,-29.4677
-301,-678,7.73621,30.1246,-0.0327615,0.00792596,-0.0251932,0.0199638,-0.0447993,-1.12505,0.0382965,0.0480021,923,1702,7.73623,-30.1246
-294,-678,7.78284,30.9103,-0.0308447,0.00726926,-0.0240925,0.0189306,-0.042506,-1.12001,0.0363306,0.0492799,930,1702,7.78284,-30.9103
-287,-678,7.99432,31.1549,-0.0277899,0.00648475,-0.0218698,0.0171319,-0.038437,-1.11773,0.0328593,0.046131,937,1702,7.99434,-31.1549
-280,-678,7.38879,31.1808,-0.0242947,0.00550592,-0.0189145,0.0146842,-0.033473,-1.11902,0.0285002,0.0475045,944,1702,7.38877,-31.1808
-273,-678,6.9223,31.8574,-0.020592,0.00465452,-0.0155774,0.0120813,-0.0280188,-1.12591,0.0237535,0.0452072,951,1702,6.92232,-31.8574
-266,-678,6.84143,32.4225,-0.0166912,0.00385775,-0.0120314,0.00940473,-0.0222382,-1.1388,0.0187632,0.0374363,958,1702,6.84145,-32.4225
-259,-678,6.72211,32.8066,-0.0132012,0.00304269,-0.00894232,0.00700093,-0.0171595,-1.15408,0.0143541,0.0242839,965,1702,6.72214,-32.8067
-252,-678,6.73749,33.1777,-0.0101618,0.00243915,-0.00629883,0.00504773,-0.0127704,-1.17816,0.0106045,0.0179026,972,1702,6.73747,-33.1778
-245,-678,6.70959,33.5945,-0.00757502,0.00205974,-0.00432577,0.00371688,-0.00923216,-1.20495,0.00769885,0.0186282,979,1702,6.70959,-33.5945
-238,-678,6.69183,34.0049,-0.00576917,0.00233936,-0.00254742,0.00307325,-0.00650306,-1.2903,0.00564585,0.0154108,986,1702,6.69182,-34.0049
-231,-678,6.64764,34.4237,-0.00381768,0.00238173,-0.000406988,0.00240833,-0.00384429,-1.50552,0.00364155,0.0123778,993,1702,6.64764,-34.4237
-224,-678,6.61267,34.8051,-0.00233826,0.00162391,0.0006484,0.00172732,-0.00244167,1.41264,0.00241872,0.0122588,1000,1702,6.61269,-34.805
-217,-678,6.6134,35.2057,-0.00197516,0.00172236,0.000530189,0.00179688,-0.00204968,1.43115,0.00222241,0.0131609,1007,1702,6.61343,-35.2057
-210,-678,6.60101,35.6328,-0.00170412,0.00187089,0.000482526,0.00193487,-0.0017681,1.43897,0.00213864,0.0141503,1014,1702,6.601,-35.6328
-203,-678,6.60974,35.9985,-0.00148633,0.00194342,0.000448086,0.002001,-0.00154391,1.44301,0.00205231,0.0194653,1021,1702,6.60971,-35.9986
-196,-678,6.59741,36.359,-0.00131935,0.00185689,0.000353482,0.00189576,-0.00135822,1.46129,0.00188721,0.019165,1028,1702,6.59738,-36.3589
-189,-678,6.58435,36.7322,-0.00109982,0.00168858,0.000183281,0.00170058,-0.00111182,1.50544,0.00163555,0.0109596,1035,1702,6.58439,-36.7322
-182,-678,6.56995,37.0874,-0.000764632,0.0017129,7.21217e-05,0.001715,-0.00076673,1.54172,0.00146728,0.0101713,1042,1702,6.56997,-37.0874
-175,-678,6.54993,37.4325,-0.000308974,0.00173738,7.69955e-05,0.00174027,-0.000311867,1.53324,0.0012769,0.0110962,1049,1702,6.54997,-37.4325
-168,-678,6.54517,37.7765,0.000288913,0.00198089,0.000183223,0.00200051,0.0002693,1.46415,0.00125358,0.0104586,1056,1702,6.54517,-37.7765
-161,-678,6.54065,38.0995,0.000844491,0.00227934,0.000247879,0.00232096,0.000802876,1.40446,0.00136105,0.00879173,1063,1702,6.54061,-38.0995
-154,-678,6.54773,38.417,0.00150765,0.00274389,0.000332846,0.00282781,0.00142373,1.32382,0.00163265,0.00840146,1070,1702,6.54777,-38.417
-147,-678,6.55005,38.7385,0.00224118,0.00332737,0.000464936,0.0034992,0.00206935,1.21679,0.00203148,0.0106,1077,1702,6.55004,-38.7386
-140,-678,6.5874,39.0421,0.00295249,0.0038991,0.0005687,0.00416569,0.0026859,1.13245,0.00243843,0.0121829,1084,1702,6.5874,-39.0421
-133,-678,6.61267,39.3247,0.00361976,0.00456883,0.000676442,0.00492059,0.003268,1.09127,0.00289148,0.0132688,1091,1702,6.61269,-39.3247
-126,-678,6.62659,39.6283,0.00432772,0.00498942,0.00076732,0.00549418,0.00382296,0.988944,0.00325214,0.0127017,1098,1702,6.62664,-39.6283
-119,-678,6.64404,40.181,0.00515858,0.00527206,0.000853516,0.00607072,0.00435992,0.818588,0.00361446,0.0342409,1105,1702,6.644,-40.181
-112,-678,6.66418,40.7224,0,0,0,0,0,0,0,-1,1112,1702,6.66418,-40.7224
-105,-678,6.60583,40.5237,0,0,0,0,0,0,0,-1,1119,1702,6.60589,-40.5237
-98,-678,6.65491,40.9491,0,0,0,0,0,0,0,-1,1126,1702,6.65492,-40.9491
-91,-678,6.79041,40.9332,0,0,0,0,0,0,0,-1,1133,1702,6.79038,-40.9332
-84,-678,6.58545,36.5073,0,0,0,0,0,0,0,-1,1140,1702,6.58544,-36.5073
-77,-678,5.95154,29.1879,0,0,0,0,0,0,0,-1,1147,1702,5.95156,-29.1878
-70,-678,4.75891,19.6552,0,0,0,0,0,0,0,-1,1154,1702,4.75895,-19.6551
-63,-678,3.41687,11.0365,0,0,0,0,0,0,0,-1,1161,1702,3.41682,-11.0365
-56,-678,1.72388,6.13159,0,0,0,0,0,0,0,-1,1168,1702,1.72388,-6.13157
-49,-678,-0.241699,5.29895,0,0,0,0,0,0,0,-1,1175,1702,-0.241682,-5.29897
-42,-678,0.297119,3.90649,0,0,0,0,0,0,0,-1,1182,1702,0.297139,-3.90655
-35,-678,0.498413,3.64038,0,0,0,0,0,0,0,-1,1189,1702,0.498471,-3.64038
-28,-678,0.132446,3.55994,0,0,0,0,0,0,0,-1,1196,1702,0.132432,-3.55993
-21,-678,7.48022,42.6995,0,0,0,0,0,0,0,-1,1203,1702,7.48024,-42.6994
-14,-678,7.42358,43.0072,0.0378105,-0.00377331,-0.0182444,0.0446801,-0.0106429,-0.360115,0.033896,0.0435183,1210,1702,7.42358,-43.0073
-7,-678,7.48035,43.2129,0.039494,-0.00214339,-0.0192628,0.0470385,-0.00968795,-0.3733,0.0350377,0.0440453,1217,1702,7.48038,-43.2128
0,-678,7.56824,42.9468,0.0419417,-0.000872519,-0.0207451,0.0503444,-0.00927522,-0.384848,0.0370438,0.0443151,1224,1702,7.56825,-42.9468
7,-678,7.48022,42.8457,0.0445631,-0.000294713,-0.0235734,0.0546728,-0.0104044,-0.405136,0.0403661,0.0456267,1231,1702,7.48018,-42.8457
14,-678,7.51648,43.1088,0.0477558,-0.000755407,-0.0268118,0.0596555,-0.0126551,-0.417706,0.0445914,0.0477882,1238,1702,7.51642,-43.1087
21,-678,7.63965,43.3595,0.0508427,-0.00143837,-0.0296648,0.0642411,-0.0148367,-0.424233,0.0485349,0.0449339,1245,1702,7.63965,-43.3595
28,-678,13.6494,44.8274,0,0,0,0,0,0,0,-1,1252,1702,13.6494,-44.8274
35,-678,14.2424,44.3779,0,0,0,0,0,0,0,-1,1259,1702,14.2424,-44.378
42,-678,15.0299,43.408,0,0,0,0,0,0,0,-1,1266,1702,15.03,-43.4079
49,-678,16.0526,43.2142,0,0,0,0,0,0,0,-1,1273,1702,16.0526,-43.2142
56,-678,17.2469,42.8595,0,0,0,0,0,0,0,-1,1280,1702,17.247,-42.8595
63,-678,7.43591,43.6233,0.0406943,0.000263959,-0.0322543,0.0585448,-0.0175865,-0.505472,0.0460259,0.0479295,1287,1702,7.43589,-43.6233
70,-678,8.91614,44.4757,0.0335148,0.00253302,-0.0296086,0.05144,-0.0153922,-0.544385,0.0404133,0.0440723,1294,1702,8.91613,-44.4758
77,-678,9.38135,44.3223,0,0,0,0,0,0,0,-1,1301,1702,9.38139,-44.3222
84,-678,9.20935,44.0074,0.0167685,0.0108836,-0.0220574,0.0360788,-0.00842674,-0.71909,0.0272985,0.042649,1308,1702,9.20935,-44.0074
91,-678,8.65063,43.7601,0.00828874,0.015647,-0.0177983,0.0301424,-0.00620669,-0.887319,0.0224517,0.0428239,1315,1702,8.65059,-43.7601
98,-678,8.57715,43.7677,-0.000504694,0.0191632,-0.0127702,0.0254471,-0.00678859,-1.11351,0.019623,0.0414534,1322,1702,8.57712,-43.7678
105,-678,8.63721,43.5983,0,0,0,0,0,0,0,-1,1329,1702,8.63719,-43.5982
112,-678,8.80688,43.3802,0,0,0,0,0,0,0,-1,1336,1702,8.80692,-43.3803
119,-678,9.86487,43.835,-0.0210031,0.0280108,-0.00841661,0.0294158,-0.0224081,-1.40539,0.0300116,0.0431376,1343,1702,9.86492,-43.835
126,-678,9.52795,43.9851,-0.0256119,0.0289923,-0.00782951,0.0300928,-0.0267123,-1.43116,0.0328158,0.0451483,1350,1702,9.5279,-43.9851
133,-678,8.08044,42.2811,-0.0284904,0.0295661,-0.00676236,0.0303433,-0.0292677,-1.45636,0.0344183,0.0472218,1357,1702,8.08043,-42.2811
140,-678,7.53223,41.6534,-0.030577,0.02975,-0.00584756,0.0303116,-0.0311386,-1.47505,0.0354793,0.0481544,1364,1702,7.5322,-41.6534
147,-678,7.28674,41.009,-0.0316979,0.0298924,-0.00472575,0.0302528,-0.0320584,-1.49466,0.0359805,0.0445946,1371,1702,7.2867,-41.009
154,-678,7.10107,40.6292,0,0,0,0,0,0,0,-1,1378,1702,7.10107,-40.6291
161,-678,8.81226,34.8624,0,0,0,0,0,0,0,-1,1385,1702,8.81229,-34.8624
168,-678,4.21863,5.25781,0,0,0,0,0,0,0,-1,1392,1702,4.21865,-5.25781
175,-678,5.21899,5.9635,0,0,0,0,0,0,0,-1,1399,1702,5.21894,-5.96346
182,-678,7.31262,6.75122,0,0,0,0,0,0,0,-1,1406,1702,7.3126,-6.75123
189,-678,5.96021,6.36853,0,0,0,0,0,0,0,-1,1413,1702,5.96018,-6.36851
196,-678,5.01599,8.15771,0,0,0,0,0,0,0,-1,1420,1702,5.01596,-8.15767
203,-678,4.64771,13.0559,0,0,0,0,0,0,0,-1,1427,1702,4.64766,-13.0559
210,-678,5.6532,18.5957,0,0,0,0,0,0,0,-1,1434,1702,5.65318,-18.5958
217,-678,6.88049,23.4835,0,0,0,0,0,0,0,-1,1441,1702,6.88047,-23.4835
224,-678,8.521,32.0977,0,0,0,0,0,0,0,-1,1448,1702,8.52098,-32.0977
231,-678,9.67908,40.9253,0,0,0,0,0,0,0,-1,1455,1702,9.67913,-40.9254
238,-678,9.91309,40.6332,0,0,0,0,0,0,0,-1,1462,1702,9.91303,-40.6331
245,-678,9.9425,40.2476,0.00366585,0.00470299,0.000840563,0.00517207,0.00319676,1.06179,0.00301373,0.0356443,1469,1702,9.94249,-40.2476
252,-678,9.96851,39.8843,0.00313433,0.00574137,0.000339718,0.00578491,0.00309079,1.44332,0.00334253,0.0266951,1476,1702,9.96845,-39.8843
259,-678,9.96814,39.6631,0.00276316,0.00624856,-8.04802e-05,0.00625042,0.0027613,-1.54772,0.00361683,0.0162977,1483,1702,9.96816,-39.6631
266,-678,9.99219,39.376,0.00244868,0.00653954,-0.000408784,0.00657998,0.00240824,-1.47217,0.00384417,0.0119258,1490,1702,9.99214,-39.376
273,-678,10.014,39.0977,0.00213127,0.00664975,-0.000533915,0.00671198,0.00206904,-1.45476,0.003969,0.0103969,1497,1702,10.0141,-39.0976
280,-678,10.0206,38.8168,0.0017419,0.0065481,-0.000568275,0.00661438,0.00167562,-1.45469,0.0039707,0.0106828,1504,1702,10.0206,-38.8167
287,-678,10.0302,38.4817,0.00135844,0.00619232,-0.000519853,0.0062476,0.00130316,-1.46487,0.00380579,0.0113563,1511,1702,10.0301,-38.4817
294,-678,10.0247,38.1526,0.00106962,0.00578209,-0.000523272,0.00583949,0.00101222,-1.46153,0.0036033,0.0119468,1518,1702,10.0247,-38.1526
301,-678,10.0164,37.8529,0.000781023,0.00511601,-0.000518118,0.00517707,0.000719957,-1.45348,0.00323819,0.011884,1525,1702,10.0164,-37.8529
308,-678,10.0232,37.5334,0.00048196,0.00439171,-0.000518659,0.00445934,0.000414326,-1.44113,0.00284486,0.0138866,1532,1702,10.0232,-37.5335
315,-678,10.0217,37.209,0.000199866,0.00353051,-0.000476839,0.00359743,0.000132943,-1.43136,0.00235522,0.0149498,1539,1702,10.0217,-37.209
322,-678,10.002,36.9087,-0.000133374,0.00273956,-0.00043649,0.00280442,-0.000198227,-1.4233,0.00193907,0.0174425,1546,1702,10.002,-36.9087
329,-678,10.007,36.5355,-0.000656745,0.00191251,-0.000362901,0.00196278,-0.00070702,-1.43314,0.00159724,0.0154392,1553,1702,10.007,-36.5355
336,-678,9.98999,36.1473,-0.00111807,0.00113128,1.04551e-05,0.00113133,-0.00111812,1.56615,0.00129873,0.0133227,1560,1702,9.99003,-36.1473
343,-678,9.99268,35.7931,-0.00157492,0.000377528,0.00046178,0.000481237,-0.00167862,1.34988,0.00130931,0.0134111,1567,1702,9.99265,-35.7931
350,-678,10.0033,35.4252,-0.0024119,-0.00065285,0.00119702,-4.69708e-05,-0.00301778,1.10224,0.00199638,0.0126337,1574,1702,10.0033,-35.4252
357,-678,9.9917,35.0466,-0.00317467,-0.00175201,0.00200748,-0.000333558,-0.00459313,0.955666,0.00295718,0.00951326,1581,1702,9.99167,-35.0467
364,-678,9.96265,34.6854,-0.0039799,-0.00278617,0.00293662,-0.000386366,-0.0063797,0.885657,0.00413037,0.0113026,1588,1702,9.96268,-34.6855
371,-678,9.91833,34.3368,-0.00483341,-0.00388989,0.00402556,-0.000308543,-0.00841475,0.843728,0.00550987,0.0123162,1595,1702,9.91834,-34.3367
378,-678,9.89502,33.9357,-0.00579699,-0.00512144,0.00535309,-9.5475e-05,-0.0108229,0.816906,0.00718369,0.0136225,1602,1702,9.89497,-33.9356
385,-678,9.88599,33.5474,-0.00683048,-0.00653627,0.00683254,0.000150752,-0.0135175,0.796161,0.00906234,0.0139106,1609,1702,9.88595,-33.5474
392,-678,9.89441,33.2203,-0.00788749,-0.00833516,0.00829022,0.000181912,-0.0164046,0.771902,0.0109975,0.0224235,1616,1702,9.8944,-33.2203
399,-678,9.88623,32.8785,-0.00898661,-0.00970206,0.00949698,0.000159375,-0.0188481,0.766573,0.0126188,0.0331381,1623,1702,9.88622,-32.8785
406,-678,9.70886,32.668,-0.00990972,-0.0107108,0.0104735,0.000170887,-0.0207914,0.766286,0.0139182,0.0413497,1630,1702,9.70885,-32.6679
413,-678,9.76782,32.1036,0,0,0,0,0,0,0,-1,1637,1702,9.7678,-32.1036
420,-678,9.6665,28.3398,0,0,0,0,0,0,0,-1,1644,1702,9.66649,-28.3398
427,-678,4.57483,10.1555,0,0,0,0,0,0,0,-1,1651,1702,4.57485,-10.1555
434,-678,9.48169,21.6665,0,0,0,0,0,0,0,-1,1658,1702,9.48169,-21.6665
441,-678,8.64539,21.1864,0,0,0,0,0,0,0,-1,1665,1702,8.64536,-21.1865
448,-678,7.62244,20.7195,0,0,0,0,0,0,0,-1,1672,1702,7.6224,-20.7195
455,-678,5.44678,5.54297,0,0,0,0,0,0,0,-1,1679,1702,5.44676,-5.54294
462,-678,3.86792,2.87402,0,0,0,0,0,0,0,-1,1686,1702,3.86796,-2.87406
469,-678,2.26587,1.98755,0,0,0,0,0,0,0,-1,1693,1702,2.26592,-1.98755
476,-678,0,0,0,0,0,0,0,0,0,-1,1700,1702,0,0
483,-678,0,0,0,0,0,0,0,0,0,-1,1707,1702,0,0
490,-678,0,0,0,0,0,0,0,0,0,-1,1714,1702,0,0
497,-678,0,0,0,0,0,0,0,0,0,-1,1721,1702,0,0
504,-678,0,0,0,0,0,0,0,0,0,-1,1728,1702,0,0
511,-678,0,0,0,0,0,0,0,0,0,-1,1735,1702,0,0
518,-678,0,0,0,0,0,0,0,0,0,-1,1742,1702,0,0
525,-678,0,0,0,0,0,0,0,0,0,-1,1749,1702,0,0
532,-678,0,0,0,0,0,0,0,0,0,-1,1756,1702,0,0
539,-678,0,0,0,0,0,0,0,0,0,-1,1763,1702,0,0
546,-678,0,0,0,0,0,0,0,0,0,-1,1770,1702,0,0
553,-678,0,0,0,0,0,0,0,0,0,-1,1777,1702,0,0
560,-678,0,0,0,0,0,0,0,0,0,-1,1784,1702,0,0
567,-678,0,0,0,0,0,0,0,0,0,-1,1791,1702,0,0
574,-678,0,0,0,0,0,0,0,0,0,-1,1798,1702,0,0
581,-678,0,0,0,0,0,0,0,0,0,-1,1805,1702,0,0
588,-678,0,0,0,0,0,0,0,0,0,-1,1812,1702,0,0
595,-678,0,0,0,0,0,0,0,0,0,-1,1819,1702,0,0
602,-678,0,0,0,0,0,0,0,0,0,-1,1826,1702,0,0
609,-678,0,0,0,0,0,0,0,0,0,-1,1833,1702,0,0
616,-678,0,0,0,0,0,0,0,0,0,-1,1840,1702,0,0
623,-678,0,0,0,0,0,0,0,0,0,-1,1847,1702,0,0
630,-678,0,0,0,0,0,0,0,0,0,-1,1854,1702,0,0
637,-678,0,0,0,0,0,0,0,0,0,-1,1861,1702,0,0
644,-678,0,0,0,0,0,0,0,0,0,-1,1868,1702,0,0
651,-678,0,0,0,0,0,0,0,0,0,-1,1875,1702,0,0
658,-678,0,0,0,0,0,0,0,0,0,-1,1882,1702,0,0
665,-678,0,0,0,0,0,0,0,0,0,-1,1889,1702,0,0
672,-678,0,0,0,0,0,0,0,0,0,-1,1896,1702,0,0
679,-678,0,0,0,0,0,0,0,0,0,-1,1903,1702,0,0
686,-678,0,0,0,0,0,0,0,0,0,-1,1910,1702,0,0
693,-678,0,0,0,0,0,0,0,0,0,-1,1917,1702,0,0
700,-678,0,0,0,0,0,0,0,0,0,-1,1924,1702,0,0
707,-678,0,0,0,0,0,0,0,0,0,-1,1931,1702,0,0
714,-678,0,0,0,0,0,0,0,0,0,-1,1938,1702,0,0
721,-678,0,0,0,0,0,0,0,0,0,-1,1945,1702,0,0
728,-678,0,0,0,0,0,0,0,0,0,-1,1952,1702,0,0
735,-678,0,0,0,0,0,0,0,0,0,-1,1959,1702,0,0
742,-678,0,0,0,0,0,0,0,0,0,-1,1966,1702,0,0
749,-678,0,0,0,0,0,0,0,0,0,-1,1973,1702,0,0
756,-678,0,0,0,0,0,0,0,0,0,-1,1980,1702,0,0
763,-678,0,0,0,0,0,0,0,0,0,-1,1987,1702,0,0
770,-678,0,0,0,0,0,0,0,0,0,-1,1994,1702,0,0
777,-678,0,0,0,0,0,0,0,0,0,-1,2001,1702,0,0
784,-678,0,0,0,0,0,0,0,0,0,-1,2008,1702,0,0
791,-678,0,0,0,0,0,0,0,0,0,-1,2015,1702,0,0
798,-678,0,0,0,0,0,0,0,0,0,-1,2022,1702,0,0
805,-678,0,0,0,0,0,0,0,0,0,-1,2029,1702,0,0
812,-678,0,0,0,0,0,0,0,0,0,-1,2036,1702,0,0
-700,-685,0,0,0,0,0,0,0,0,0,-1,524,1709,0,0
-693,-685,0,0,0,0,0,0,0,0,0,-1,531,1709,0,0
-686,-685,0,0,0,0,0,0,0,0,0,-1,538,1709,0,0
-679,-685,0,0,0,0,0,0,0,0,0,-1,545,1709,0,0
-672,-685,0,0,0,0,0,0,0,0,0,-1,552,1709,0,0
-665,-685,0,0,0,0,0,0,0,0,0,-1,559,1709,0,0
-658,-685,0,0,0,0,0,0,0,0,0,-1,566,1709,0,0
-651,-685,0,0,0,0,0,0,0,0,0,-1,573,1709,0,0
-644,-685,0,0,0,0,0,0,0,0,0,-1,580,1709,0,0
-637,-685,0,0,0,0,0,0,0,0,0,-1,587,1709,0,0
-630,-685,0,0,0,0,0,0,0,0,0,-1,594,1709,0,0
-623,-685,0,0,0,0,0,0,0,0,0,-1,601,1709,0,0
-616,-685,0,0,0,0,0,0,0,0,0,-1,608,1709,0,0
-609,-685,0,0,0,0,0,0,0,0,0,-1,615,1709,0,0
-602,-685,0,0,0,0,0,0,0,0,0,-1,622,1709,0,0
-595,-685,0,0,0,0,0,0,0,0,0,-1,629,1709,0,0
-588,-685,0,0,0,0,0,0,0,0,0,-1,636,1709,0,0
-581,-685,0,0,0,0,0,0,0,0,0,-1,643,1709,0,0
-574,-685,0,0,0,0,0,0,0,0,0,-1,650,1709,0,0
-567,-685,0,0,0,0,0,0,0,0,0,-1,657,1709,0,0
-560,-685,0,0,0,0,0,0,0,0,0,-1,664,1709,0,0
-553,-685,0,0,0,0,0,0,0,0,0,-1,671,1709,0,0
-546,-685,0,0,0,0,0,0,0,0,0,-1,678,1709,0,0
-539,-685,0,0,0,0,0,0,0,0,0,-1,685,1709,0,0
-532,-685,0,0,0,0,0,0,0,0,0,-1,692,1709,0,0
-525,-685,0,0,0,0,0,0,0,0,0,-1,699,1709,0,0
-518,-685,0,0,0,0,0,0,0,0,0,-1,706,1709,0,0
-511,-685,0,0,0,0,0,0,0,0,0,-1,713,1709,0,0
-504,-685,0,0,0,0,0,0,0,0,0,-1,720,1709,0,0
-497,-685,0,0,0,0,0,0,0,0,0,-1,727,1709,0,0
-490,-685,0,0,0,0,0,0,0,0,0,-1,734,1709,0,0
-483,-685,0,0,0,0,0,0,0,0,0,-1,741,1709,0,0
-476,-685,0,0,0,0,0,0,0,0,0,-1,748,1709,0,0
-469,-685,0,0,0,0,0,0,0,0,0,-1,755,1709,0,0
-462,-685,0,0,0,0,0,0,0,0,0,-1,762,1709,0,0
-455,-685,0,0,0,0,0,0,0,0,0,-1,769,1709,0,0
-448,-685,0,0,0,0,0,0,0,0,0,-1,776,1709,0,0
-441,-685,0,0,0,0,0,0,0,0,0,-1,783,1709,0,0
-434,-685,0,0,0,0,0,0,0,0,0,-1,790,1709,0,0
-427,-685,0,0,0,0,0,0,0,0,0,-1,797,1709,0,0
-420,-685,0,0,0,0,0,0,0,0,0,-1,804,1709,0,0
-413,-685,0,0,0,0,0,0,0,0,0,-1,811,1709,0,0
-406,-685,0,0,0,0,0,0,0,0,0,-1,818,1709,0,0
-399,-685,0,0,0,0,0,0,0,0,0,-1,825,1709,0,0
-392,-685,0,0,0,0,0,0,0,0,0,-1,832,1709,0,0
-385,-685,0,0,0,0,0,0,0,0,0,-1,839,1709,0,0
-378,-685,0,0,0,0,0,0,0,0,0,-1,846,1709,0,0
-371,-685,0,0,0,0,0,0,0,0,0,-1,853,1709,0,0
-364,-685,0,0,0,0,0,0,0,0,0,-1,860,1709,0,0
-357,-685,0,0,0,0,0,0,0,0,0,-1,867,1709,0,0
-350,-685,0,0,0,0,0,0,0,0,0,-1,874,1709,0,0
-343,-685,-5.98505,6.56335,0,0,0,0,0,0,0,-1,881,1709,-5.98505,-6.56329
-336,-685,-6.51312,5.10571,0,0,0,0,0,0,0,-1,888,1709,-6.51311,-5.10575
-329,-685,-6.81384,3.34106,0,0,0,0,0,0,0,-1,895,1709,-6.81385,-3.341
-322,-685,3.83191,16.7219,0,0,0,0,0,0,0,-1,902,1709,3.8319,-16.7219
-315,-685,5.15784,21.4388,0,0,0,0,0,0,0,-1,909,1709,5.15783,-21.4389
-308,-685,6.36969,21.0303,0,0,0,0,0,0,0,-1,916,1709,6.36968,-21.0302
-301,-685,8.00598,30.0571,0,0,0,0,0,0,0,-1,923,1709,8.00595,-30.0572
-294,-685,8.36371,31.2257,0,0,0,0,0,0,0,-1,930,1709,8.3637,-31.2258
-287,-685,9.03845,31.421,-0.0367034,0.00864623,-0.0311387,0.0244911,-0.0525482,-1.1001,0.0454513,0.0499594,937,1709,9.03847,-31.421
-280,-685,8.21301,30.5184,-0.0317853,0.00750411,-0.0265603,0.0208952,-0.0451765,-1.10381,0.0389957,0.0482902,944,1709,8.21298,-30.5184
-273,-685,7.37439,31.8427,0,0,0,0,0,0,0,-1,951,1709,7.37442,-31.8426
-266,-685,7.3114,32.5192,-0.0215422,0.0054561,-0.016493,0.01327,-0.0293561,-1.12835,0.0251876,0.0469852,958,1709,7.31139,-32.5192
-259,-685,7.18164,32.9359,-0.0169427,0.00442931,-0.0120804,0.00987173,-0.0223851,-1.14751,0.0190849,0.0438115,965,1709,7.18162,-32.936
-252,-685,7.15729,33.2045,-0.0130201,0.00355634,-0.00836705,0.0070453,-0.0165091,-1.17573,0.0139602,0.0390008,972,1709,7.15726,-33.2044
-245,-685,7.10718,33.603,-0.00983673,0.00293113,-0.00571823,0.00511766,-0.0120233,-1.20557,0.0101605,0.0376022,979,1709,7.10718,-33.6031
-238,-685,7.0954,34.0409,-0.00778646,0.00324061,-0.00342837,0.0042196,-0.00876545,-1.29265,0.00764852,0.0277911,986,1709,7.09541,-34.0408
-231,-685,7.04773,34.4602,-0.00546619,0.00318161,-0.000665123,0.00323246,-0.00551704,-1.49448,0.00510861,0.015868,993,1709,7.04774,-34.4602
-224,-685,7.00189,34.8228,-0.00372377,0.00213117,0.000680617,0.00220925,-0.00380185,1.45658,0.00351088,0.0134865,1000,1709,7.00186,-34.8227
-217,-685,6.99927,35.229,-0.00340804,0.00195235,0.000504329,0.00199939,-0.00345507,1.4778,0.0031863,0.0109829,1007,1709,6.99924,-35.229
-210,-685,6.97504,35.6428,-0.00313551,0.00173669,0.000471028,0.00178181,-0.00318063,1.4753,0.00290276,0.0148374,1014,1709,6.97504,-35.6428
-203,-685,6.97827,36.0122,-0.00293324,0.00161798,0.000451459,0.00166233,-0.00297759,1.47287,0.0027145,0.015826,1021,1709,6.97832,-36.0122
-196,-685,6.97205,36.3868,-0.00281666,0.00117322,0.000338516,0.00120174,-0.00284518,1.48675,0.00239985,0.0135654,1028,1709,6.97209,-36.3868
-189,-685,6.93884,36.7222,-0.00259014,0.000625664,0.000136799,0.000631472,-0.00259595,1.52836,0.00197506,0.00908411,1035,1709,6.93886,-36.7222
-182,-685,6.92114,37.0724,-0.00220764,0.000331272,-6.28405e-06,0.000331287,-0.00220766,-1.56832,0.00159372,0.013358,1042,1709,6.9212,-37.0724
-175,-685,6.90002,37.4156,-0.00168935,0.000149491,7.80922e-06,0.000149524,-0.00168938,1.56655,0.00117926,0.013366,1049,1709,6.9,-37.4157
-168,-685,6.88831,37.7854,-0.00106576,0.000196791,0.000102032,0.000204984,-0.00107395,1.49067,0.000793176,0.0105082,1056,1709,6.88825,-37.7855
-161,-685,6.89001,38.1315,-0.000468766,0.000403711,0.000159716,0.00043203,-0.000497085,1.39531,0.000536863,0.0110945,1063,1709,6.89,-38.1315
-154,-685,6.89929,38.4525,0.000241319,0.000870781,0.000237269,0.000950197,0.000161902,1.24781,0.000586988,0.0103736,1070,1709,6.89924,-38.4525
-147,-685,6.89612,38.7506,0.00103347,0.00158111,0.000345734,0.00174832,0.000866257,1.12032,0.00100941,0.00970057,1077,1709,6.89607,-38.7506
-140,-685,6.90942,39.0273,0.001793,0.00230277,0.00045582,0.00257013,0.00152564,1.04033,0.00149251,0.0116747,1084,1709,6.90936,-39.0273
-133,-685,6.92603,39.3333,0.00254938,0.00304939,0.000596691,0.00344633,0.00215243,0.983784,0.00201022,0.0112869,1091,1709,6.92599,-39.3332
-126,-685,6.93542,39.6313,0.00325108,0.00364022,0.000682206,0.00415506,0.00273624,0.924313,0.00243879,0.00949515,1098,1709,6.93537,-39.6314
-119,-685,6.94324,39.9159,0.0039457,0.00400546,0.000765388,0.00474155,0.00320961,0.804908,0.00279407,0.01297,1105,1709,6.94318,-39.9159
-112,-685,6.94678,40.2053,0.00450234,0.00370763,0.000750283,0.004954,0.00325598,0.541871,0.00290695,0.013356,1112,1709,6.94682,-40.2053
-105,-685,6.93457,40.4802,0.00499428,0.00311053,0.000762695,0.00526436,0.00284045,0.340333,0.00304255,0.0145008,1119,1709,6.9346,-40.4802
-98,-685,7.01904,40.7196,0.00531055,0.00278748,0.00068545,0.00548474,0.00261329,0.24886,0.00316779,0.0197954,1126,1709,7.01899,-40.7196
-91,-685,7.01587,40.8561,0.00541436,0.00204736,0.000387253,0.00545833,0.00200339,0.113048,0.00318829,0.0331168,1133,1709,7.01589,-40.8561
-84,-685,7.01917,41.093,0,0,0,0,0,0,0,-1,1140,1709,7.01916,-41.093
-77,-685,7.06921,41.4658,0,0,0,0,0,0,0,-1,1147,1709,7.06918,-41.4658
-70,-685,7.20361,41.9604,0,0,0,0,0,0,0,-1,1154,1709,7.20362,-41.9604
-63,-685,6.03015,29.7728,0,0,0,0,0,0,0,-1,1161,1709,6.0302,-29.7728
-56,-685,3.93909,15.8704,0,0,0,0,0,0,0,-1,1168,1709,3.93905,-15.8704
-49,-685,3.07471,9.86011,0,0,0,0,0,0,0,-1,1175,1709,3.07467,-9.86009
-42,-685,2.70618,7.54504,0,0,0,0,0,0,0,-1,1182,1709,2.7062,-7.54504
-35,-685,2.95264,7.91516,0,0,0,0,0,0,0,-1,1189,1709,2.95262,-7.91517
-28,-685,7.52161,42.4318,0,0,0,0,0,0,0,-1,1196,1709,7.52166,-42.4318
-21,-685,7.6936,42.6752,0,0,0,0,0,0,0,-1,1203,1709,7.69355,-42.6752
-14,-685,7.67883,42.8772,0.028636,0.00372798,-0.0122522,0.0336525,-0.00128854,-0.388616,0.0228766,0.0304801,1210,1709,7.6788,-42.8772
-7,-685,7.58984,43.088,0.0304922,0.00429633,-0.0138739,0.0364742,-0.00168559,-0.40708,0.024897,0.0448789,1217,1709,7.58986,-43.088
0,-685,7.67346,43.0288,0.032662,0.0048318,-0.0154136,0.0395124,-0.00201867,-0.418223,0.0270396,0.0492792,1224,1709,7.67344,-43.0289
7,-685,7.72766,43.1173,0.0349344,0.00479218,-0.0179233,0.0432808,-0.00355425,-0.435813,0.0301087,0.0437328,1231,1709,7.7276,-43.1173
14,-685,7.89893,43.2981,0,0,0,0,0,0,0,-1,1238,1709,7.89888,-43.2981
21,-685,8.26904,43.8236,0.0407024,0.00324273,-0.0229747,0.0516145,-0.00766937,-0.443417,0.0372304,0.0447617,1245,1709,8.26907,-43.8236
28,-685,8.16541,43.9867,0.0425335,0.00212929,-0.0256372,0.0549717,-0.0103089,-0.451707,0.0405236,0.0476497,1252,1709,8.16538,-43.9867
35,-685,8.07385,43.8047,0,0,0,0,0,0,0,-1,1259,1709,8.07381,-43.8047
42,-685,8.2196,43.9683,0,0,0,0,0,0,0,-1,1266,1709,8.21965,-43.9683
49,-685,8.37048,43.9359,0,0,0,0,0,0,0,-1,1273,1709,8.37044,-43.9359
56,-685,8.1582,43.6508,0,0,0,0,0,0,0,-1,1280,1709,8.15815,-43.6508
63,-685,7.84717,43.5375,0.0339975,0.00262897,-0.0250369,0.0478571,-0.0112306,-0.505579,0.0362332,0.0427476,1287,1709,7.84718,-43.5374
70,-685,8.57288,44.1471,0.0285601,0.0039772,-0.0227605,0.0421361,-0.00959872,-0.537818,0.0317772,0.0418232,1294,1709,8.57293,-44.1471
77,-685,8.78857,44.0879,0,0,0,0,0,0,0,-1,1301,1709,8.78857,-44.0879
84,-685,8.86462,43.7761,0.0151814,0.00984121,-0.0165246,0.0292503,-0.00422767,-0.705299,0.0210514,0.0482422,1308,1709,8.86466,-43.7761
91,-685,8.78027,43.7534,0.00851413,0.013243,-0.0131296,0.0242193,-0.00246221,-0.874485,0.0170264,0.0462078,1315,1709,8.78024,-43.7535
98,-685,8.68213,43.5911,0.00140022,0.015616,-0.00969623,0.0205305,-0.00351434,-1.10168,0.0149963,0.040731,1322,1709,8.68214,-43.5911
105,-685,8.6825,43.3765,0,0,0,0,0,0,0,-1,1329,1709,8.68252,-43.3765
112,-685,8.65051,43.2321,0,0,0,0,0,0,0,-1,1336,1709,8.65048,-43.2321
119,-685,9.34436,43.4341,-0.0147671,0.0214011,-0.0079481,0.0230706,-0.0164366,-1.36375,0.0229165,0.0410983,1343,1709,9.34441,-43.4341
126,-685,9.18298,43.3662,-0.0186381,0.0218978,-0.00807168,0.023446,-0.0201863,-1.3813,0.0252145,0.0457936,1350,1709,9.18295,-43.3663
133,-685,8.63037,42.6754,-0.0209225,0.022104,-0.00768127,0.0234342,-0.0222527,-1.39933,0.0263803,0.0487865,1357,1709,8.63041,-42.6754
140,-685,9.03333,42.9647,0,0,0,0,0,0,0,-1,1364,1709,9.03337,-42.9647
147,-685,9.09729,43.031,0,0,0,0,0,0,0,-1,1371,1709,9.09723,-43.0309
154,-685,9.12207,42.9349,0,0,0,0,0,0,0,-1,1378,1709,9.1221,-42.9349
161,-685,9.43384,42.7469,0,0,0,0,0,0,0,-1,1385,1709,9.43379,-42.7469
168,-685,4.37524,10.8778,0,0,0,0,0,0,0,-1,1392,1709,4.37525,-10.8778
175,-685,3.97522,8.94324,0,0,0,0,0,0,0,-1,1399,1709,3.97519,-8.94328
182,-685,3.98218,9.19739,0,0,0,0,0,0,0,-1,1406,1709,3.98221,-9.1974
189,-685,4.53479,15.2343,0,0,0,0,0,0,0,-1,1413,1709,4.53474,-15.2343
196,-685,9.47595,42.0289,0,0,0,0,0,0,0,-1,1420,1709,9.47593,-42.0289
203,-685,9.50793,41.7517,0,0,0,0,0,0,0,-1,1427,1709,9.50791,-41.7517
210,-685,9.67261,41.4519,0,0,0,0,0,0,0,-1,1434,1709,9.67256,-41.4519
217,-685,9.57373,41.0959,0,0,0,0,0,0,0,-1,1441,1709,9.57374,-41.096
224,-685,9.59644,40.9788,0,0,0,0,0,0,0,-1,1448,1709,9.59646,-40.9787
231,-685,9.59473,40.7988,0.00293811,0.00147469,0.00104449,0.00348168,0.000931112,0.479853,0.00208137,0.0455215,1455,1709,9.59473,-40.7988
238,-685,9.67053,40.4287,0.00269187,0.00191552,0.000941714,0.00332227,0.00128511,0.589909,0.00193443,0.0219549,1462,1709,9.67048,-40.4287
245,-685,9.63794,40.1624,0.00233519,0.00315459,0.000669031,0.0035294,0.00196038,1.06013,0.00204187,0.0199557,1469,1709,9.63794,-40.1624
252,-685,9.67285,39.9299,0.00215526,0.00372961,0.000240894,0.00376564,0.00211923,1.42231,0.0021798,0.0138908,1476,1709,9.67282,-39.9299
259,-685,9.69104,39.663,0.00204334,0.00395032,-0.000141778,0.0039608,0.00203286,-1.49699,0.00228704,0.0102743,1483,1709,9.69108,-39.663
266,-685,9.69836,39.3806,0.00191007,0.00401283,-0.000445827,0.00410345,0.00181945,-1.37027,0.00237418,0.0127793,1490,1709,9.6984,-39.3806
273,-685,9.70471,39.0986,0.00171894,0.00397206,-0.00058447,0.00411465,0.00157635,-1.33151,0.00239714,0.0140955,1497,1709,9.70471,-39.0987
280,-685,9.71179,38.818,0.00141181,0.00382325,-0.000647638,0.00398617,0.00124888,-1.32434,0.00235429,0.0145835,1504,1709,9.71175,-38.818
287,-685,9.72131,38.5178,0.00102746,0.00358583,-0.000612032,0.00372471,0.00088858,-1.34767,0.00224631,0.0115998,1511,1709,9.72137,-38.5178
294,-685,9.71167,38.2041,0.000679497,0.00329943,-0.000589096,0.00342579,0.000553133,-1.35949,0.00212363,0.00989359,1518,1709,9.71166,-38.2042
301,-685,9.68274,37.8796,0.000299422,0.00286177,-0.000555248,0.00297692,0.000184277,-1.36632,0.00192613,0.0125313,1525,1709,9.68279,-37.8797
308,-685,9.70276,37.5419,-0.000120262,0.00243272,-0.000530406,0.00253853,-0.000226073,-1.37389,0.00177252,0.0145317,1532,1709,9.70278,-37.5419
315,-685,9.70825,37.2225,-0.000515893,0.00188864,-0.000456656,0.00197245,-0.000599698,-1.3893,0.00155393,0.0132008,1539,1709,9.70827,-37.2225
322,-685,9.68286,36.8839,-0.000951106,0.00144404,-0.000410683,0.0015125,-0.00101957,-1.40562,0.00147109,0.0209622,1546,1709,9.68289,-36.8839
329,-685,9.68506,36.541,-0.00164753,0.00100014,-0.000305052,0.00103483,-0.00168223,-1.45756,0.00158347,0.019381,1553,1709,9.68507,-36.541
336,-685,9.67188,36.1531,-0.00219324,0.000394378,0.000131886,0.000401083,-0.00219995,1.52,0.00161699,0.0134595,1560,1709,9.67189,-36.1531
343,-685,9.63306,35.7909,-0.00271594,-0.000206983,0.000739706,-5.13694e-06,-0.00291778,1.30441,0.00194348,0.0120676,1567,1709,9.63311,-35.7909
350,-685,9.63831,35.4297,-0.00378147,-0.00111013,0.00170071,-0.000283296,-0.0046083,1.11827,0.00298226,0.0123986,1574,1709,9.63827,-35.4297
357,-685,9.63049,35.0756,-0.00469823,-0.00226493,0.00272887,-0.000493779,-0.00646939,0.995094,0.00415812,0.0101936,1581,1709,9.63055,-35.0755
364,-685,9.59119,34.7238,-0.00565995,-0.00342292,0.00394199,-0.000443833,-0.00863904,0.923636,0.00561726,0.0111967,1588,1709,9.59125,-34.7238
371,-685,9.578,34.3506,-0.00671883,-0.00471791,0.00542496,-0.000201929,-0.0112348,0.876583,0.00742348,0.0182256,1595,1709,9.578,-34.3505
378,-685,9.54578,33.9449,-0.00798475,-0.00625156,0.00730596,0.000239024,-0.0144753,0.84443,0.00973087,0.0218055,1602,1709,9.54576,-33.9449
385,-685,9.41223,33.61,-0.0093891,-0.00805125,0.00944619,0.000749669,-0.01819,0.820746,0.0123841,0.0335782,1609,1709,9.41223,-33.61
392,-685,9.46729,33.3447,-0.0107797,-0.0103366,0.0115692,0.00101318,-0.0221294,0.794973,0.015102,0.036139,1616,1709,9.4673,-33.3447
399,-685,9.20056,33.1487,-0.0122261,-0.0120679,0.0133818,0.00123508,-0.025529,0.788354,0.0174456,0.0408391,1623,1709,9.20061,-33.1487
406,-685,9.22656,33.035,0,0,0,0,0,0,0,-1,1630,1709,9.22659,-33.035
413,-685,8.40112,31.3749,0,0,0,0,0,0,0,-1,1637,1709,8.40117,-31.3749
420,-685,4.84631,10.3781,0,0,0,0,0,0,0,-1,1644,1709,4.84634,-10.378
427,-685,6.05151,9.21155,0,0,0,0,0,0,0,-1,1651,1709,6.05156,-9.21156
434,-685,4.87769,8.91418,0,0,0,0,0,0,0,-1,1658,1709,4.87768,-8.91413
441,-685,5.62,8.75549,0,0,0,0,0,0,0,-1,1665,1709,5.61996,-8.75545
448,-685,6.4043,8.58972,0,0,0,0,0,0,0,-1,1672,1709,6.40435,-8.58971
455,-685,2.31958,4.09802,0,0,0,0,0,0,0,-1,1679,1709,2.31957,-4.09803
462,-685,0,0,0,0,0,0,0,0,0,-1,1686,1709,0,0
469,-685,0,0,0,0,0,0,0,0,0,-1,1693,1709,0,0
476,-685,0,0,0,0,0,0,0,0,0,-1,1700,1709,0,0
483,-685,0,0,0,0,0,0,0,0,0,-1,1707,1709,0,0
490,-685,0,0,0,0,0,0,0,0,0,-1,1714,1709,0,0
497,-685,0,0,0,0,0,0,0,0,0,-1,1721,1709,0,0
504,-685,0,0,0,0,0,0,0,0,0,-1,1728,1709,0,0
511,-685,0,0,0,0,0,0,0,0,0,-1,1735,1709,0,0
518,-685,0,0,0,0,0,0,0,0,0,-1,1742,1709,0,0
525,-685,0,0,0,0,0,0,0,0,0,-1,1749,1709,0,0
532,-685,0,0,0,0,0,0,0,0,0,-1,1756,1709,0,0
539,-685,0,0,0,0,0,0,0,0,0,-1,1763,1709,0,0
546,-685,0,0,0,0,0,0,0,0,0,-1,1770,1709,0,0
553,-685,0,0,0,0,0,0,0,0,0,-1,1777,1709,0,0
560,-685,0,0,0,0,0,0,0,0,0,-1,1784,1709,0,0
567,-685,0,0,0,0,0,0,0,0,0,-1,1791,1709,0,0
574,-685,0,0,0,0,0,0,0,0,0,-1,1798,1709,0,0
581,-685,0,0,0,0,0,0,0,0,0,-1,1805,1709,0,0
588,-685,0,0,0,0,0,0,0,0,0,-1,1812,1709,0,0
595,-685,0,0,0,0,0,0,0,0,0,-1,1819,1709,0,0
602,-685,0,0,0,0,0,0,0,0,0,-1,1826,1709,0,0
609,-685,0,0,0,0,0,0,0,0,0,-1,1833,1709,0,0
616,-685,0,0,0,0,0,0,0,0,0,-1,1840,1709,0,0
623,-685,0,0,0,0,0,0,0,0,0,-1,1847,1709,0,0
630,-685,0,0,0,0,0,0,0,0,0,-1,1854,1709,0,0
637,-685,0,0,0,0,0,0,0,0,0,-1,1861,1709,0,0
644,-685,0,0,0,0,0,0,0,0,0,-1,1868,1709,0,0
651,-685,0,0,0,0,0,0,0,0,0,-1,1875,1709,0,0
658,-685,0,0,0,0,0,0,0,0,0,-1,1882,1709,0,0
665,-685,0,0,0,0,0,0,0,0,0,-1,1889,1709,0,0
672,-685,0,0,0,0,0,0,0,0,0,-1,1896,1709,0,0
679,-685,0,0,0,0,0,0,0,0,0,-1,1903,1709,0,0
686,-685,0,0,0,0,0,0,0,0,0,-1,1910,1709,0,0
693,-685,0,0,0,0,0,0,0,0,0,-1,1917,1709,0,0
700,-685,0,0,0,0,0,0,0,0,0,-1,1924,1709,0,0
707,-685,0,0,0,0,0,0,0,0,0,-1,1931,1709,0,0
714,-685,0,0,0,0,0,0,0,0,0,-1,1938,1709,0,0
721,-685,0,0,0,0,0,0,0,0,0,-1,1945,1709,0,0
728,-685,0,0,0,0,0,0,0,0,0,-1,1952,1709,0,0
735,-685,0,0,0,0,0,0,0,0,0,-1,1959,1709,0,0
742,-685,0,0,0,0,0,0,0,0,0,-1,1966,1709,0,0
749,-685,0,0,0,0,0,0,0,0,0,-1,1973,1709,0,0
756,-685,0,0,0,0,0,0,0,0,0,-1,1980,1709,0,0
763,-685,0,0,0,0,0,0,0,0,0,-1,1987,1709,0,0
770,-685,0,0,0,0,0,0,0,0,0,-1,1994,1709,0,0
777,-685,0,0,0,0,0,0,0,0,0,-1,2001,1709,0,0
784,-685,0,0,0,0,0,0,0,0,0,-1,2008,1709,0,0
791,-685,0,0,0,0,0,0,0,0,0,-1,2015,1709,0,0
798,-685,0,0,0,0,0,0,0,0,0,-1,2022,1709,0,0
805,-685,0,0,0,0,0,0,0,0,0,-1,2029,1709,0,0
812,-685,0,0,0,0,0,0,0,0,0,-1,2036,1709,0,0
-700,-692,0,0,0,0,0,0,0,0,0,-1,524,1716,0,0
-693,-692,0,0,0,0,0,0,0,0,0,-1,531,1716,0,0
-686,-692,0,0,0,0,0,0,0,0,0,-1,538,1716,0,0
-679,-692,0,0,0,0,0,0,0,0,0,-1,545,1716,0,0
-672,-692,0,0,0,0,0,0,0,0,0,-1,552,1716,0,0
-665,-692,0,0,0,0,0,0,0,0,0,-1,559,1716,0,0
-658,-692,0,0,0,0,0,0,0,0,0,-1,566,1716,0,0
-651,-692,0,0,0,0,0,0,0,0,0,-1,573,1716,0,0
-644,-692,0,0,0,0,0,0,0,0,0,-1,580,1716,0,0
-637,-692,0,0,0,0,0,0,0,0,0,-1,587,1716,0,0
-630,-692,0,0,0,0,0,0,0,0,0,-1,594,1716,0,0
-623,-692,0,0,0,0,0,0,0,0,0,-1,601,1716,0,0
-616,-692,0,0,0,0,0,0,0,0,0,-1,608,1716,0,0
-609,-692,0,0,0,0,0,0,0,0,0,-1,615,1716,0,0
-602,-692,0,0,0,0,0,0,0,0,0,-1,622,1716,0,0
-595,-692,0,0,0,0,0,0,0,0,0,-1,629,1716,0,0
-588,-692,0,0,0,0,0,0,0,0,0,-1,636,1716,0,0
-581,-692,0,0,0,0,0,0,0,0,0,-1,643,1716,0,0
-574,-692,0,0,0,0,0,0,0,0,0,-1,650,1716,0,0
-567,-692,0,0,0,0,0,0,0,0,0,-1,657,1716,0,0
-560,-692,0,0,0,0,0,0,0,0,0,-1,664,1716,0,0
-553,-692,0,0,0,0,0,0,0,0,0,-1,671,1716,0,0
-546,-692,0,0,0,0,0,0,0,0,0,-1,678,1716,0,0
-539,-692,0,0,0,0,0,0,0,0,0,-1,685,1716,0,0
-532,-692,0,0,0,0,0,0,0,0,0,-1,692,1716,0,0
-525,-692,0,0,0,0,0,0,0,0,0,-1,699,1716,0,0
-518,-692,0,0,0,0,0,0,0,0,0,-1,706,1716,0,0
-511,-692,0,0,0,0,0,0,0,0,0,-1,713,1716,0,0
-504,-692,0,0,0,0,0,0,0,0,0,-1,720,1716,0,0
-497,-692,0,0,0,0,0,0,0,0,0,-1,727,1716,0,0
-490,-692,0,0,0,0,0,0,0,0,0,-1,734,1716,0,0
-483,-692,0,0,0,0,0,0,0,0,0,-1,741,1716,0,0
-476,-692,0,0,0,0,0,0,0,0,0,-1,748,1716,0,0
-469,-692,0,0,0,0,0,0,0,0,0,-1,755,1716,0,0
-462,-692,0,0,0,0,0,0,0,0,0,-1,762,1716,0,0
-455,-692,0,0,0,0,0,0,0,0,0,-1,769,1716,0,0
-448,-692,0,0,0,0,0,0,0,0,0,-1,776,1716,0,0
-441,-692,0,0,0,0,0,0,0,0,0,-1,783,1716,0,0
-434,-692,0,0,0,0,0,0,0,0,0,-1,790,1716,0,0
-427,-692,0,0,0,0,0,0,0,0,0,-1,797,1716,0,0
-420,-692,0,0,0,0,0,0,0,0,0,-1,804,1716,0,0
-413,-692,0,0,0,0,0,0,0,0,0,-1,811,1716,0,0
-406,-692,0,0,0,0,0,0,0,0,0,-1,818,1716,0,0
-399,-692,0,0,0,0,0,0,0,0,0,-1,825,1716,0,0
-392,-692,0,0,0,0,0,0,0,0,0,-1,832,1716,0,0
-385,-692,0,0,0,0,0,0,0,0,0,-1,839,1716,0,0
-378,-692,0,0,0,0,0,0,0,0,0,-1,846,1716,0,0
-371,-692,0,0,0,0,0,0,0,0,0,-1,853,1716,0,0
-364,-692,0,0,0,0,0,0,0,0,0,-1,860,1716,0,0
-357,-692,0,0,0,0,0,0,0,0,0,-1,867,1716,0,0
-350,-692,0,0,0,0,0,0,0,0,0,-1,874,1716,0,0
-343,-692,0,0,0,0,0,0,0,0,0,-1,881,1716,0,0
-336,-692,0,0,0,0,0,0,0,0,0,-1,888,1716,0,0
-329,-692,3.03107,4.10266,0,0,0,0,0,0,0,-1,895,1716,3.03105,-4.10267
-322,-692,4.43713,18.5242,0,0,0,0,0,0,0,-1,902,1716,4.43711,-18.5241
-315,-692,5.38965,17.975,0,0,0,0,0,0,0,-1,909,1716,5.38963,-17.975
-308,-692,5.86938,17.4392,0,0,0,0,0,0,0,-1,916,1716,5.86937,-17.4392
-301,-692,8.65558,20.7662,0,0,0,0,0,0,0,-1,923,1716,8.65556,-20.7663
-294,-692,7.04529,27.412,0,0,0,0,0,0,0,-1,930,1716,7.04529,-27.412
-287,-692,9.98352,31.5634,0,0,0,0,0,0,0,-1,937,1716,9.98349,-31.5633
-280,-692,9.16382,29.8428,0,0,0,0,0,0,0,-1,944,1716,9.16379,-29.8427
-273,-692,8.92554,30.3801,0,0,0,0,0,0,0,-1,951,1716,8.92552,-30.3801
-266,-692,7.84357,32.5835,0,0,0,0,0,0,0,-1,958,1716,7.84354,-32.5835
-259,-692,7.68329,33.0486,0,0,0,0,0,0,0,-1,965,1716,7.68331,-33.0485
-252,-692,7.56824,33.2313,0,0,0,0,0,0,0,-1,972,1716,7.56824,-33.2313
-245,-692,7.38629,33.4972,-0.0124401,0.00443972,-0.00747864,0.00727643,-0.0152768,-1.20825,0.0132914,0.0483507,979,1716,7.38628,-33.4971
-238,-692,7.4895,34.03,-0.0101659,0.00479605,-0.00453143,0.00606143,-0.0114313,-1.29849,0.0102568,0.0441176,986,1716,7.48952,-34.03
-231,-692,7.54053,34.4948,-0.00742409,0.00461313,-0.000952964,0.00468811,-0.00749907,-1.49228,0.00709838,0.0360085,993,1716,7.54051,-34.4947
-224,-692,7.38928,34.8345,-0.00540061,0.00321113,0.000747214,0.00327549,-0.00546496,1.48488,0.0050988,0.0183105,1000,1716,7.38928,-34.8344
-217,-692,7.34851,35.2429,-0.00517108,0.00254605,0.00049512,0.00257769,-0.00520271,1.50699,0.00457645,0.0125356,1007,1716,7.34851,-35.2429
-210,-692,7.34528,35.6387,-0.00490119,0.00179659,0.000462513,0.00182838,-0.00493298,1.50218,0.00403852,0.0131399,1014,1716,7.34525,-35.6387
-203,-692,7.34973,35.9983,-0.0047024,0.00138747,0.000446711,0.00142006,-0.00473499,1.49796,0.00372145,0.015846,1021,1716,7.3497,-35.9982
-196,-692,7.3009,36.3865,-0.00460769,0.000517842,0.000303646,0.000535768,-0.00462562,1.51183,0.00327697,0.0174486,1028,1716,7.30092,-36.3865
-189,-692,7.26343,36.7196,-0.00434194,-0.000442416,6.85408e-05,-0.000441212,-0.00434315,1.55323,0.00276014,0.00933809,1035,1716,7.26347,-36.7195
-182,-692,7.23975,37.0648,-0.00387637,-0.00107194,-0.000105122,-0.001068,-0.0038803,-1.53338,0.00231451,0.0137461,1042,1716,7.23969,-37.0648
-175,-692,7.2135,37.4285,-0.00326477,-0.0014795,-8.87408e-05,-0.0014751,-0.00326917,-1.52125,0.00189045,0.0138833,1049,1716,7.21346,-37.4285
-168,-692,7.22217,37.7748,-0.00258358,-0.00165803,-1.52534e-05,-0.00165778,-0.00258383,-1.55432,0.00151158,0.0115094,1056,1716,7.22219,-37.7747
-161,-692,7.24048,38.1392,-0.00192127,-0.00157904,3.58063e-05,-0.00157533,-0.00192498,1.46766,0.00118411,0.0140983,1063,1716,7.24046,-38.1392
-154,-692,7.21777,38.4828,-0.0011634,-0.00117687,0.000103557,-0.00106636,-0.00127391,0.752939,0.000789241,0.015134,1070,1716,7.21774,-38.4828
-147,-692,7.19971,38.7793,-0.000325804,-0.000425699,0.000185326,-0.000183812,-0.00056769,0.65377,0.000334472,0.0139885,1077,1716,7.19967,-38.7792
-140,-692,7.19836,39.0511,0.000462355,0.00037103,0.000290659,0.000710916,0.000122469,0.707486,0.000438855,0.0104221,1084,1716,7.19837,-39.0511
-133,-692,7.21301,39.3551,0.00128354,0.00113779,0.000447175,0.00166374,0.000757591,0.704626,0.000961835,0.00982251,1091,1716,7.21297,-39.3551
-126,-692,7.22156,39.6506,0.00196178,0.00189819,0.000505542,0.00243653,0.00142344,0.753994,0.00141336,0.00817905,1098,1716,7.22154,-39.6506
-119,-692,7.2074,39.9419,0.00255221,0.00241033,0.000560444,0.00304619,0.00191635,0.722442,0.00177815,0.0118978,1105,1716,7.20737,-39.9419
-112,-692,7.22534,40.2251,0.00305708,0.00252949,0.000572214,0.00342338,0.00216319,0.569411,0.00199928,0.0114477,1112,1716,7.22538,-40.2251
-105,-692,7.2616,40.4846,0.00346399,0.0022386,0.000541906,0.00366926,0.00203334,0.362082,0.00212258,0.0162105,1119,1716,7.26163,-40.4846
-98,-692,7.30786,40.7153,0.00375347,0.00199937,0.000459232,0.00386643,0.00188641,0.241178,0.0022325,0.01885,1126,1716,7.30789,-40.7154
-91,-692,7.3031,40.9188,0.00387765,0.00146776,0.000237167,0.00390077,0.00144464,0.0971718,0.00227721,0.021439,1133,1716,7.30315,-40.9188
-84,-692,7.32043,41.1349,0.0040581,0.000885537,-6.91714e-05,0.0040596,0.000884029,-0.0217892,0.00246514,0.0222864,1140,1716,7.32046,-41.1349
-77,-692,7.31909,41.4031,0.00431024,0.000284761,-0.000469688,0.00436431,0.000230686,-0.114628,0.00283578,0.0181199,1147,1716,7.31908,-41.4031
-70,-692,7.38245,41.6707,0.00427849,0.000155273,-0.000895884,0.00446473,-3.09709e-05,-0.204968,0.00298687,0.0355976,1154,1716,7.38244,-41.6706
-63,-692,7.4696,41.9429,0,0,0,0,0,0,0,-1,1161,1716,7.46963,-41.9429
-56,-692,7.35254,41.9879,0,0,0,0,0,0,0,-1,1168,1716,7.3526,-41.9879
-49,-692,7.40344,42.2177,0,0,0,0,0,0,0,-1,1175,1716,7.40348,-42.2176
-42,-692,7.45569,42.6011,0,0,0,0,0,0,0,-1,1182,1716,7.45566,-42.6011
-35,-692,7.56091,42.7273,0,0,0,0,0,0,0,-1,1189,1716,7.56094,-42.7273
-28,-692,7.66736,42.7897,0,0,0,0,0,0,0,-1,1196,1716,7.6674,-42.7897
-21,-692,7.6958,42.7772,0.0181811,0.00667256,-0.00694498,0.0214459,0.00340771,-0.439444,0.0133076,0.0342282,1203,1716,7.69583,-42.7772
-14,-692,7.72827,42.8651,0.0197904,0.00671472,-0.00840013,0.0238971,0.00260805,-0.454713,0.0151371,0.0170832,1210,1716,7.72826,-42.8651
-7,-692,7.7262,43.0309,0.0217632,0.00693296,-0.0101836,0.0269453,0.00175088,-0.470715,0.0174093,0.016265,1217,1716,7.72625,-43.0309
0,-692,7.75317,43.1322,0.0237414,0.00723434,-0.0115924,0.0297183,0.00125743,-0.476039,0.0194067,0.01983,1224,1716,7.75321,-43.1322
7,-692,7.82825,43.208,0.025749,0.00705308,-0.0136949,0.0329822,-0.000180107,-0.485927,0.0220484,0.0244125,1231,1716,7.82822,-43.2081
14,-692,7.98242,43.4475,0.0284024,0.00628733,-0.0158534,0.0366737,-0.00198389,-0.48088,0.0251365,0.0278065,1238,1716,7.9824,-43.4475
21,-692,8.10889,43.5536,0.0309532,0.0056514,-0.0175593,0.0399442,-0.00333966,-0.473233,0.0278096,0.0289017,1245,1716,8.1089,-43.5536
28,-692,8.09473,43.5228,0.0327663,0.00472177,-0.0195494,0.0428024,-0.0053143,-0.474286,0.0304613,0.02943,1252,1716,8.09476,-43.5229
35,-692,8.10815,43.6483,0.0334441,0.00399385,-0.0206051,0.0440449,-0.0066069,-0.475158,0.0317952,0.0279924,1259,1716,8.10814,-43.6484
42,-692,8.20154,43.7352,0.0329241,0.00338268,-0.0208301,0.043689,-0.00738223,-0.476993,0.031873,0.0263656,1266,1716,8.20154,-43.7352
49,-692,8.28943,43.7444,0.0314808,0.0032567,-0.0203718,0.042151,-0.00741349,-0.482485,0.03087,0.0326686,1273,1716,8.28948,-43.7444
56,-692,8.26807,43.6382,0.0297869,0.00331228,-0.0193376,0.039984,-0.00688476,-0.485261,0.0292225,0.0405861,1280,1716,8.26807,-43.6381
63,-692,8.2605,43.6837,0.0271113,0.00380704,-0.0180951,0.0369814,-0.00606305,-0.499348,0.0269039,0.039288,1287,1716,8.26053,-43.6837
70,-692,8.42554,43.8502,0.02297,0.00440245,-0.0159699,0.0321585,-0.00478609,-0.522109,0.0231995,0.0330331,1294,1716,8.42556,-43.8502
77,-692,8.58899,43.8252,0.0178411,0.00607943,-0.0137125,0.0268806,-0.00296006,-0.582827,0.0189842,0.0385931,1301,1716,8.58898,-43.8252
84,-692,8.47681,43.5856,0.012297,0.00808459,-0.0108962,0.0212887,-0.000907102,-0.689927,0.0145043,0.0471343,1308,1716,8.47681,-43.5855
91,-692,8.62134,43.6338,0.00710533,0.0103305,-0.00829103,0.0171643,0.000271519,-0.881448,0.0113535,0.043301,1315,1716,8.62134,-43.6337
98,-692,8.65613,43.5537,0.00154443,0.0117424,-0.00608493,0.0145823,-0.00129548,-1.13413,0.0101809,0.0342781,1322,1716,8.65612,-43.5538
105,-692,8.64417,43.4156,-0.00250435,0.012888,-0.00609135,0.0150069,-0.00462325,-1.23603,0.0118502,0.0413671,1329,1716,8.64412,-43.4157
112,-692,8.67932,43.308,-0.00627818,0.0140461,-0.0059076,0.0156385,-0.00787056,-1.30751,0.0138177,0.0442056,1336,1716,8.67927,-43.3079
119,-692,8.78467,43.2568,-0.010386,0.0149391,-0.00611729,0.0163393,-0.0117862,-1.34578,0.0163091,0.0392747,1343,1716,8.78472,-43.2568
126,-692,8.88037,43.1184,-0.0131253,0.0148895,-0.00665613,0.0163906,-0.0146263,-1.349,0.0179173,0.0379968,1350,1716,8.88037,-43.1184
133,-692,8.94165,43.0397,-0.0142401,0.0145837,-0.00670426,0.0160668,-0.0157231,-1.35309,0.0183543,0.0275838,1357,1716,8.94159,-43.0397
140,-692,8.89429,43.0353,-0.0148208,0.0140546,-0.0068177,0.0155834,-0.0163495,-1.35021,0.0184383,0.0335857,1364,1716,8.89432,-43.0353
147,-692,8.98218,42.9847,-0.0149632,0.0135149,-0.00657545,0.0149598,-0.0164082,-1.35449,0.0181167,0.0389989,1371,1716,8.98213,-42.9847
154,-692,9.0033,42.8607,-0.0146779,0.0127613,-0.0060371,0.0140308,-0.0159474,-1.36353,0.0173197,0.032563,1378,1716,9.00327,-42.8608
161,-692,9.17786,42.7112,-0.0138919,0.0118263,-0.00531779,0.0128825,-0.0149481,-1.37473,0.0160828,0.0393299,1385,1716,9.17784,-42.7112
168,-692,9.14514,42.5645,0,0,0,0,0,0,0,-1,1392,1716,9.1452,-42.5645
175,-692,9.23218,42.3792,0,0,0,0,0,0,0,-1,1399,1716,9.23212,-42.3791
182,-692,9.21301,42.1609,0,0,0,0,0,0,0,-1,1406,1716,9.21295,-42.1609
189,-692,9.2168,41.9915,0,0,0,0,0,0,0,-1,1413,1716,9.21685,-41.9915
196,-692,9.24475,41.8287,-0.000441147,0.00179451,0.00122346,0.00233391,-0.000980544,1.15555,0.00196606,0.0366909,1420,1716,9.24478,-41.8287
203,-692,9.27747,41.6444,0.0041416,0.00105061,0.00157163,0.00480032,0.000391886,0.396892,0.00307791,0.0242666,1427,1716,9.27748,-41.6445
210,-692,9.37085,41.4331,0.00312389,0.000801665,0.00145134,0.00382142,0.000104132,0.448019,0.00251362,0.0192581,1434,1716,9.37088,-41.4331
217,-692,9.34937,41.1602,0.00233337,0.000595297,0.00114189,0.0028993,2.93639e-05,0.46013,0.00192316,0.0172229,1441,1716,9.34933,-41.1602
224,-692,9.34949,40.9352,0.00194036,0.000951492,0.00101604,0.00257588,0.000315965,0.558953,0.00162222,0.0140065,1448,1716,9.34952,-40.9351
231,-692,9.35974,40.7147,0.00173509,0.00104069,0.000575666,0.00206016,0.000715626,0.514038,0.00120776,0.0122949,1455,1716,9.35973,-40.7148
238,-692,9.35779,40.4388,0.00171766,0.0012694,0.000384489,0.00193858,0.00104849,0.521514,0.00112048,0.0191393,1462,1716,9.35773,-40.4388
245,-692,9.35376,40.2003,0.00170219,0.00188222,0.000115494,0.00193864,0.00164578,1.11642,0.00120671,0.021438,1469,1716,9.35371,-40.2004
252,-692,9.39758,39.9493,0.00175811,0.00216128,-0.000228369,0.0022643,0.00165508,-1.14699,0.00135298,0.0175176,1476,1716,9.39762,-39.9493
259,-692,9.41394,39.6702,0.00180383,0.00221273,-0.000519604,0.00256666,0.0014499,-0.972831,0.00148601,0.00948678,1483,1716,9.41396,-39.6702
266,-692,9.401,39.3875,0.00174575,0.00215951,-0.000729071,0.00271048,0.00119477,-0.923646,0.00156855,0.0109015,1490,1716,9.40095,-39.3875
273,-692,9.40381,39.0931,0.00158256,0.00205,-0.000818089,0.0026671,0.000965459,-0.924538,0.00155928,0.0146233,1497,1716,9.40386,-39.0931
280,-692,9.41541,38.8154,0.00126174,0.00190649,-0.000853018,0.00249601,0.000672209,-0.966064,0.00149132,0.013216,1504,1716,9.41546,-38.8154
287,-692,9.41125,38.5234,0.000791451,0.00181584,-0.00079151,0.00224643,0.000360867,-1.07257,0.001393,0.0110369,1511,1716,9.41122,-38.5235
294,-692,9.39819,38.2184,0.000315396,0.00164961,-0.000712664,0.00195868,6.32572e-06,-1.16159,0.00130368,0.0102997,1518,1716,9.39818,-38.2183
301,-692,9.38879,37.8923,-0.000214483,0.00140354,-0.0006262,0.00161757,-0.00042852,-1.24144,0.00124603,0.013393,1525,1716,9.38882,-37.8924
308,-692,9.3761,37.5778,-0.000848246,0.00116007,-0.000557493,0.00130445,-0.000992622,-1.31739,0.00133028,0.016669,1532,1716,9.37609,-37.5777
315,-692,9.38757,37.2395,-0.00143957,0.000839948,-0.000424235,0.000916342,-0.00151596,-1.39263,0.00141844,0.0158716,1539,1716,9.38756,-37.2395
322,-692,9.31006,36.8669,-0.00197733,0.000659296,-0.000355449,0.000706374,-0.00202441,-1.43912,0.00163669,0.0209917,1546,1716,9.31003,-36.867
329,-692,9.30017,36.5156,-0.00285519,0.000520542,-0.000193543,0.000531602,-0.00286625,-1.51371,0.00211047,0.0181936,1553,1716,9.30015,-36.5156
336,-692,9.3175,36.1571,-0.00350265,1.52441e-05,0.000320618,4.42261e-05,-0.00353164,1.48065,0.0023693,0.0125023,1560,1716,9.31748,-36.1571
343,-692,9.3031,35.8293,-0.0041131,-0.000506763,0.00110426,-0.000195504,-0.00442436,1.29605,0.00288661,0.0132016,1567,1716,9.30308,-35.8294
350,-692,9.30457,35.4949,-0.00544781,-0.00137666,0.0023437,-0.00030797,-0.00651651,1.14298,0.00424541,0.0171608,1574,1716,9.30451,-35.4949
357,-692,9.27734,35.0603,-0.00655261,-0.00266739,0.00364744,-0.000477502,-0.0087425,1.03009,0.00567586,0.0235324,1581,1716,9.27734,-35.0603
364,-692,9.26233,34.657,-0.00772067,-0.00402369,0.00521679,-0.000337579,-0.0114068,0.955664,0.00749453,0.0276535,1588,1716,9.26235,-34.657
371,-692,9.22034,34.3627,-0.00906099,-0.00559332,0.00722033,9.84371e-05,-0.0147527,0.903233,0.00986814,0.0372164,1595,1716,9.22028,-34.3627
378,-692,9.04199,34.1008,-0.0107565,-0.00755987,0.00989015,0.00086027,-0.0191767,0.86551,0.0130806,0.0482601,1602,1716,9.04199,-34.1008
385,-692,8.48303,33.7258,-0.0126486,-0.0099247,0.0129374,0.00172219,-0.0242955,0.837841,0.0168005,0.0494562,1609,1716,8.48303,-33.7259
392,-692,8.8075,33.3646,-0.0144556,-0.012902,0.0159547,0.00229481,-0.0296524,0.809722,0.0205759,0.0478307,1616,1716,8.80744,-33.3646
399,-692,8.60938,33.2992,-0.016349,-0.0151652,0.0185943,0.00284659,-0.0343608,0.801308,0.0239126,0.0445104,1623,1716,8.60936,-33.2992
406,-692,8.19299,32.9257,0,0,0,0,0,0,0,-1,1630,1716,8.19299,-32.9256
413,-692,7.80396,32.5498,0,0,0,0,0,0,0,-1,1637,1716,7.80392,-32.5498
420,-692,5.48901,10.4845,0,0,0,0,0,0,0,-1,1644,1716,5.48906,-10.4845
427,-692,3.79578,8.60339,0,0,0,0,0,0,0,-1,1651,1716,3.79577,-8.6034
434,-692,4.78516,8.64636,0,0,0,0,0,0,0,-1,1658,1716,4.78512,-8.64634
441,-692,5.8208,8.74036,0,0,0,0,0,0,0,-1,1665,1716,5.82084,-8.7404
448,-692,6.73792,8.51013,0,0,0,0,0,0,0,-1,1672,1716,6.73793,-8.5101
455,-692,0,0,0,0,0,0,0,0,0,-1,1679,1716,0,0
462,-692,0,0,0,0,0,0,0,0,0,-1,1686,1716,0,0
469,-692,0,0,0,0,0,0,0,0,0,-1,1693,1716,0,0
476,-692,0,0,0,0,0,0,0,0,0,-1,1700,1716,0,0
483,-692,0,0,0,0,0,0,0,0,0,-1,1707,1716,0,0
490,-692,0,0,0,0,0,0,0,0,0,-1,1714,1716,0,0
497,-692,0,0,0,0,0,0,0,0,0,-1,1721,1716,0,0
504,-692,0,0,0,0,0,0,0,0,0,-1,1728,1716,0,0
511,-692,0,0,0,0,0,0,0,0,0,-1,1735,1716,0,0
518,-692,0,0,0,0,0,0,0,0,0,-1,1742,1716,0,0
525,-692,0,0,0,0,0,0,0,0,0,-1,1749,1716,0,0
532,-692,0,0,0,0,0,0,0,0,0,-1,1756,1716,0,0
539,-692,0,0,0,0,0,0,0,0,0,-1,1763,1716,0,0
546,-692,0,0,0,0,0,0,0,0,0,-1,1770,1716,0,0
553,-692,0,0,0,0,0,0,0,0,0,-1,1777,1716,0,0
560,-692,0,0,0,0,0,0,0,0,0,-1,1784,1716,0,0
567,-692,0,0,0,0,0,0,0,0,0,-1,1791,1716,0,0
574,-692,0,0,0,0,0,0,0,0,0,-1,1798,1716,0,0
581,-692,0,0,0,0,0,0,0,0,0,-1,1805,1716,0,0
588,-692,0,0,0,0,0,0,0,0,0,-1,1812,1716,0,0
595,-692,0,0,0,0,0,0,0,0,0,-1,1819,1716,0,0
602,-692,0,0,0,0,0,0,0,0,0,-1,1826,1716,0,0
609,-692,0,0,0,0,0,0,0,0,0,-1,1833,1716,0,0
616,-692,0,0,0,0,0,0,0,0,0,-1,1840,1716,0,0
623,-692,0,0,0,0,0,0,0,0,0,-1,1847,1716,0,0
630,-692,0,0,0,0,0,0,0,0,0,-1,1854,1716,0,0
637,-692,0,0,0,0,0,0,0,0,0,-1,1861,1716,0,0
644,-692,0,0,0,0,0,0,0,0,0,-1,1868,1716,0,0
651,-692,0,0,0,0,0,0,0,0,0,-1,1875,1716,0,0
658,-692,0,0,0,0,0,0,0,0,0,-1,1882,1716,0,0
665,-692,0,0,0,0,0,0,0,0,0,-1,1889,1716,0,0
672,-692,0,0,0,0,0,0,0,0,0,-1,1896,1716,0,0
679,-692,0,0,0,0,0,0,0,0,0,-1,1903,1716,0,0
686,-692,0,0,0,0,0,0,0,0,0,-1,1910,1716,0,0
693,-692,0,0,0,0,0,0,0,0,0,-1,1917,1716,0,0
700,-692,0,0,0,0,0,0,0,0,0,-1,1924,1716,0,0
707,-692,0,0,0,0,0,0,0,0,0,-1,1931,1716,0,0
714,-692,0,0,0,0,0,0,0,0,0,-1,1938,1716,0,0
721,-692,0,0,0,0,0,0,0,0,0,-1,1945,1716,0,0
728,-692,0,0,0,0,0,0,0,0,0,-1,1952,1716,0,0
735,-692,0,0,0,0,0,0,0,0,0,-1,1959,1716,0,0
742,-692,0,0,0,0,0,0,0,0,0,-1,1966,1716,0,0
749,-692,0,0,0,0,0,0,0,0,0,-1,1973,1716,0,0
756,-692,0,0,0,0,0,0,0,0,0,-1,1980,1716,0,0
763,-692,0,0,0,0,0,0,0,0,0,-1,1987,1716,0,0
770,-692,0,0,0,0,0,0,0,0,0,-1,1994,1716,0,0
777,-692,0,0,0,0,0,0,0,0,0,-1,2001,1716,0,0
784,-692,0,0,0,0,0,0,0,0,0,-1,2008,1716,0,0
791,-692,0,0,0,0,0,0,0,0,0,-1,2015,1716,0,0
798,-692,0,0,0,0,0,0,0,0,0,-1,2022,1716,0,0
805,-692,0,0,0,0,0,0,0,0,0,-1,2029,1716,0,0
812,-692,0,0,0,0,0,0,0,0,0,-1,2036,1716,0,0
-700,-699,0,0,0,0,0,0,0,0,0,-1,524,1723,0,0
-693,-699,0,0,0,0,0,0,0,0,0,-1,531,1723,0,0
-686,-699,0,0,0,0,0,0,0,0,0,-1,538,1723,0,0
-679,-699,0,0,0,0,0,0,0,0,0,-1,545,1723,0,0
-672,-699,0,0,0,0,0,0,0,0,0,-1,552,1723,0,0
-665,-699,0,0,0,0,0,0,0,0,0,-1,559,1723,0,0
-658,-699,0,0,0,0,0,0,0,0,0,-1,566,1723,0,0
-651,-699,0,0,0,0,0,0,0,0,0,-1,573,1723,0,0
-644,-699,0,0,0,0,0,0,0,0,0,-1,580,1723,0,0
-637,-699,0,0,0,0,0,0,0,0,0,-1,587,1723,0,0
-630,-699,0,0,0,0,0,0,0,0,0,-1,594,1723,0,0
-623,-699,0,0,0,0,0,0,0,0,0,-1,601,1723,0,0
-616,-699,0,0,0,0,0,0,0,0,0,-1,608,1723,0,0
-609,-699,0,0,0,0,0,0,0,0,0,-1,615,1723,0,0
-602,-699,0,0,0,0,0,0,0,0,0,-1,622,1723,0,0
-595,-699,0,0,0,0,0,0,0,0,0,-1,629,1723,0,0
-588,-699,0,0,0,0,0,0,0,0,0,-1,636,1723,0,0
-581,-699,0,0,0,0,0,0,0,0,0,-1,643,1723,0,0
-574,-699,0,0,0,0,0,0,0,0,0,-1,650,1723,0,0
-567,-699,0,0,0,0,0,0,0,0,0,-1,657,1723,0,0
-560,-699,0,0,0,0,0,0,0,0,0,-1,664,1723,0,0
-553,-699,0,0,0,0,0,0,0,0,0,-1,671,1723,0,0
-546,-699,0,0,0,0,0,0,0,0,0,-1,678,1723,0,0
-539,-699,0,0,0,0,0,0,0,0,0,-1,685,1723,0,0
-532,-699,0,0,0,0,0,0,0,0,0,-1,692,1723,0,0
-525,-699,0,0,0,0,0,0,0,0,0,-1,699,1723,0,0
-518,-699,0,0,0,0,0,0,0,0,0,-1,706,1723,0,0
-511,-699,0,0,0,0,0,0,0,0,0,-1,713,1723,0,0
-504,-699,0,0,0,0,0,0,0,0,0,-1,720,1723,0,0
-497,-699,0,0,0,0,0,0,0,0,0,-1,727,1723,0,0
-490,-699,0,0,0,0,0,0,0,0,0,-1,734,1723,0,0
-483,-699,0,0,0,0,0,0,0,0,0,-1,741,1723,0,0
-476,-699,0,0,0,0,0,0,0,0,0,-1,748,1723,0,0
-469,-699,0,0,0,0,0,0,0,0,0,-1,755,1723,0,0
-462,-699,0,0,0,0,0,0,0,0,0,-1,762,1723,0,0
-455,-699,0,0,0,0,0,0,0,0,0,-1,769,1723,0,0
-448,-699,0,0,0,0,0,0,0,0,0,-1,776,1723,0,0
-441,-699,0,0,0,0,0,0,0,0,0,-1,783,1723,0,0
-434,-699,0,0,0,0,0,0,0,0,0,-1,790,1723,0,0
-427,-699,0,0,0,0,0,0,0,0,0,-1,797,1723,0,0
-420,-699,0,0,0,0,0,0,0,0,0,-1,804,1723,0,0
-413,-699,0,0,0,0,0,0,0,0,0,-1,811,1723,0,0
-406,-699,0,0,0,0,0,0,0,0,0,-1,818,1723,0,0
-399,-699,0,0,0,0,0,0,0,0,0,-1,825,1723,0,0
-392,-699,0,0,0,0,0,0,0,0,0,-1,832,1723,0,0
-385,-699,0,0,0,0,0,0,0,0,0,-1,839,1723,0,0
-378,-699,0,0,0,0,0,0,0,0,0,-1,846,1723,0,0
-371,-699,0,0,0,0,0,0,0,0,0,-1,853,1723,0,0
-364,-699,0,0,0,0,0,0,0,0,0,-1,860,1723,0,0
-357,-699,0,0,0,0,0,0,0,0,0,-1,867,1723,0,0
-350,-699,0,0,0,0,0,0,0,0,0,-1,874,1723,0,0
-343,-699,0,0,0,0,0,0,0,0,0,-1,881,1723,0,0
-336,-699,0,0,0,0,0,0,0,0,0,-1,888,1723,0,0
-329,-699,0,0,0,0,0,0,0,0,0,-1,895,1723,0,0
-322,-699,0,0,0,0,0,0,0,0,0,-1,902,1723,0,0
-315,-699,6.20001,19.5193,0,0,0,0,0,0,0,-1,909,1723,6.20001,-19.5193
-308,-699,6.98151,18.9218,0,0,0,0,0,0,0,-1,916,1723,6.98151,-18.9217
-301,-699,4.72729,12.8752,0,0,0,0,0,0,0,-1,923,1723,4.72732,-12.8752
-294,-699,6.90332,19.8601,0,0,0,0,0,0,0,-1,930,1723,6.90332,-19.8601
-287,-699,7.71405,27.0637,0,0,0,0,0,0,0,-1,937,1723,7.71407,-27.0637
-280,-699,10.1707,29.3217,0,0,0,0,0,0,0,-1,944,1723,10.1707,-29.3216
-273,-699,7.89496,31.2267,0,0,0,0,0,0,0,-1,951,1723,7.89495,-31.2267
-266,-699,6.81915,20.8951,0,0,0,0,0,0,0,-1,958,1723,6.81914,-20.8952
-259,-699,5.39758,14.5466,0,0,0,0,0,0,0,-1,965,1723,5.39759,-14.5466
-252,-699,8.3866,31.6284,0,0,0,0,0,0,0,-1,972,1723,8.38657,-31.6284
-245,-699,7.80133,33.5183,0,0,0,0,0,0,0,-1,979,1723,7.80135,-33.5183
-238,-699,8.02649,34.3922,0,0,0,0,0,0,0,-1,986,1723,8.02651,-34.3922
-231,-699,7.93518,34.4767,-0.00983259,0.00678148,-0.00133194,0.00688758,-0.00993869,-1.4913,0.00976775,0.0426701,993,1723,7.93519,-34.4767
-224,-699,7.79114,34.7455,-0.00745502,0.00504524,0.000809254,0.00509741,-0.00750719,1.50642,0.00732146,0.040314,1000,1723,7.79115,-34.7455
-217,-699,7.74585,35.2274,-0.00737468,0.00367028,0.00047783,0.00369092,-0.00739531,1.52764,0.00651866,0.0271553,1007,1723,7.74583,-35.2274
-210,-699,7.72675,35.6543,-0.00711625,0.00205304,0.000420606,0.0020723,-0.0071355,1.52505,0.0055776,0.016431,1014,1723,7.72673,-35.6543
-203,-699,7.70361,36.0013,-0.00689506,0.00119268,0.00041075,0.00121349,-0.00691586,1.52018,0.00506377,0.0204242,1021,1723,7.70367,-36.0013
-196,-699,7.66321,36.3866,-0.00683327,-0.00031731,0.000224899,-0.000309557,-0.00684102,1.53634,0.00446108,0.0176332,1028,1723,7.66318,-36.3866
-189,-699,7.60376,36.7479,-0.00650685,-0.00186443,-5.00513e-05,-0.00186389,-0.00650739,-1.56002,0.0038696,0.00947442,1035,1723,7.60376,-36.7479
-182,-699,7.57336,37.0863,-0.00592483,-0.0029457,-0.000272964,-0.00292089,-0.00594963,-1.48018,0.00343521,0.012619,1042,1723,7.57333,-37.0864
-175,-699,7.57642,37.4539,-0.00520041,-0.00364135,-0.000262248,-0.00359842,-0.00524334,-1.40853,0.00309649,0.0141002,1049,1723,7.57636,-37.4538
-168,-699,7.57935,37.7656,-0.00442378,-0.00408451,-0.000214278,-0.00398085,-0.00452744,-1.12021,0.0028536,0.0155718,1056,1723,7.57932,-37.7656
-161,-699,7.56543,38.1064,-0.00365767,-0.00412716,-0.000166072,-0.00360487,-0.00417996,-0.30786,0.0026161,0.0138769,1063,1723,7.56549,-38.1065
-154,-699,7.52539,38.46,-0.00280929,-0.00375116,-0.000101246,-0.00279853,-0.00376192,-0.105883,0.00225645,0.0139806,1070,1723,7.52533,-38.4599
-147,-699,7.50159,38.7673,-0.00188745,-0.00288353,-3.63336e-05,-0.00188613,-0.00288486,-0.0364121,0.00169163,0.015206,1077,1723,7.50161,-38.7674
-140,-699,7.49792,39.0616,-0.00102896,-0.00190572,7.90564e-05,-0.00102188,-0.0019128,0.0892091,0.00110522,0.0101802,1084,1723,7.49787,-39.0617
-133,-699,7.50769,39.3829,-8.59191e-05,-0.00100057,0.00026751,-1.34259e-05,-0.00107307,0.264637,0.000710945,0.00940279,1091,1723,7.50767,-39.3829
-126,-699,7.50244,39.6709,0.00062555,3.60689e-05,0.000314344,0.000761721,-0.000100101,0.408786,0.000544258,0.0117902,1098,1723,7.50239,-39.6709
-119,-699,7.49304,39.9595,0.00118463,0.000810175,0.000372748,0.00141453,0.000580274,0.552661,0.000821055,0.0171459,1105,1723,7.493,-39.9595
-112,-699,7.49329,40.2336,0.0016902,0.00146905,0.000434294,0.00202777,0.00113147,0.660739,0.00117336,0.0117907,1112,1723,7.49324,-40.2336
-105,-699,7.50049,40.4966,0.00205169,0.00160558,0.000391747,0.00227943,0.00137784,0.526594,0.00132557,0.0119687,1119,1723,7.50047,-40.4965
-98,-699,7.53906,40.7332,0.00234777,0.00152242,0.000333623,0.00246576,0.00140443,0.339932,0.00142819,0.014483,1126,1723,7.53907,-40.7332
-91,-699,7.56689,40.9471,0.00255754,0.00126491,0.000206267,0.00258965,0.0012328,0.154464,0.00149571,0.0208463,1133,1723,7.56685,-40.9471
-84,-699,7.56958,41.1842,0.00274337,0.000927533,5.3466e-06,0.00274338,0.000927517,0.0029444,0.00161134,0.0250519,1140,1723,7.56957,-41.1843
-77,-699,7.5675,41.3767,0.00296278,0.000543299,-0.000247204,0.00298778,0.0005183,-0.100785,0.00184353,0.0164153,1147,1723,7.56745,-41.3767
-70,-699,7.58862,41.6056,0.00303451,0.00041926,-0.000532321,0.00313871,0.00031506,-0.193302,0.00199576,0.0166704,1154,1723,7.58868,-41.6056
-63,-699,7.60632,41.8381,0.00295856,0.00100926,-0.000824446,0.00326049,0.00070733,-0.351052,0.00198044,0.0148277,1161,1723,7.60635,-41.8382
-56,-699,7.57544,42.0219,0.00416806,0.00210053,-0.00166907,0.00509758,0.00117102,-0.508129,0.00308309,0.0117171,1168,1723,7.57549,-42.0219
-49,-699,7.60791,42.2233,0.00532438,0.00273249,-0.00262932,0.00695978,0.00109708,-0.55643,0.00432084,0.0259113,1175,1723,7.60796,-42.2233
-42,-699,7.64099,42.4609,0.00660372,0.00328887,-0.0026521,0.00807371,0.00181889,-0.506117,0.00489026,0.0285067,1182,1723,7.64099,-42.4609
-35,-699,7.66895,42.6034,0.0083579,0.00469752,-0.00218884,0.00938089,0.00367453,-0.4372,0.00545824,0.0260794,1189,1723,7.66895,-42.6034
-28,-699,7.76184,42.7311,0.010317,0.00564893,-0.0022438,0.0112206,0.00474531,-0.382847,0.00650382,0.0217773,1196,1723,7.76187,-42.7311
-21,-699,7.80066,42.7966,0.0121868,0.00586525,-0.00337816,0.0136523,0.00439975,-0.409314,0.00804646,0.0149589,1203,1723,7.80061,-42.7966
-14,-699,7.81372,42.9169,0.0137985,0.00600481,-0.00463851,0.0159598,0.00384351,-0.436036,0.00961821,0.0126821,1210,1723,7.81371,-42.9169
-7,-699,7.83972,43.0624,0.0156942,0.00626736,-0.00610744,0.0186956,0.00326605,-0.456759,0.0115303,0.00889669,1217,1723,7.83977,-43.0623
0,-699,7.87207,43.1774,0.0175006,0.00664201,-0.00721083,0.0210975,0.00304504,-0.46271,0.0131679,0.0104628,1224,1723,7.87212,-43.1774
7,-699,7.92822,43.2533,0.0193062,0.00669145,-0.00876736,0.0237993,0.00219838,-0.473579,0.0151865,0.016379,1231,1723,7.9282,-43.2533
14,-699,7.99854,43.3423,0.0216902,0.00631058,-0.0103274,0.0268763,0.00112449,-0.465379,0.0175547,0.0185425,1238,1723,7.99852,-43.3423
21,-699,8.0321,43.3987,0.0239692,0.00604853,-0.0114862,0.0295766,0.000441062,-0.454156,0.0195724,0.0172609,1245,1723,8.03208,-43.3987
28,-699,8.07678,43.4395,0.025648,0.00557389,-0.0128329,0.0319028,-0.000680938,-0.453522,0.0214991,0.0149265,1252,1723,8.0768,-43.4394
35,-699,8.13293,43.5432,0.0263557,0.00518759,-0.0134121,0.0328569,-0.00131364,-0.451356,0.0223554,0.0128659,1259,1723,8.13294,-43.5433
42,-699,8.18701,43.5962,0.0260932,0.00478087,-0.0134681,0.032611,-0.00173691,-0.450718,0.0223421,0.0132406,1266,1723,8.18696,-43.5962
49,-699,8.23438,43.624,0.025011,0.00467498,-0.0129514,0.031309,-0.00162299,-0.452607,0.0214341,0.0157804,1273,1723,8.23442,-43.6241
56,-699,8.30469,43.6539,0.0236492,0.00467574,-0.0120251,0.0294791,-0.00115426,-0.451428,0.0200486,0.0160891,1280,1723,8.3047,-43.6539
63,-699,8.3584,43.653,0.0214568,0.00494032,-0.010929,0.0268968,-0.000499651,-0.461851,0.0181001,0.0137416,1287,1723,8.35836,-43.6529
70,-699,8.37061,43.6641,0.0181564,0.00512534,-0.00927966,0.0229795,0.000302252,-0.479321,0.0152199,0.011607,1294,1723,8.37066,-43.664
77,-699,8.40735,43.637,0.0141054,0.00605726,-0.0076155,0.0186946,0.00146802,-0.542343,0.0120037,0.011535,1301,1723,8.40732,-43.637
84,-699,8.43689,43.5861,0.00967951,0.00692298,-0.00561792,0.0140858,0.00251673,-0.665107,0.00867417,0.0131829,1308,1723,8.43686,-43.586
91,-699,8.49609,43.5654,0.0058333,0.00795021,-0.00397385,0.0110041,0.00277936,-0.915554,0.00660746,0.0127913,1315,1723,8.49606,-43.5654
98,-699,8.56494,43.5513,0.00192584,0.00835509,-0.00291439,0.00947953,0.000801398,-1.20257,0.00607021,0.0120006,1322,1723,8.565,-43.5513
105,-699,8.5885,43.4962,-0.000759294,0.00855508,-0.00339927,0.00966369,-0.0018679,-1.25554,0.00714693,0.0169511,1329,1723,8.58852,-43.4963
112,-699,8.63196,43.4178,-0.00311798,0.00871146,-0.00375152,0.00980087,-0.00420739,-1.28818,0.00829981,0.0240758,1336,1723,8.63199,-43.4179
119,-699,8.65247,43.3354,-0.00584698,0.00868998,-0.00432995,0.00988195,-0.00703896,-1.30216,0.00981515,0.0181404,1343,1723,8.65244,-43.3354
126,-699,8.72559,43.2338,-0.00759988,0.00805385,-0.00506791,0.00955133,-0.00909737,-1.28349,0.0107679,0.0183501,1350,1723,8.72556,-43.2338
133,-699,8.80212,43.1517,-0.00791028,0.00729802,-0.00538178,0.0090098,-0.00962207,-1.26284,0.0107591,0.0158957,1357,1723,8.80208,-43.1518
140,-699,8.83752,43.0502,-0.00781095,0.00648305,-0.00568447,0.00846802,-0.00979592,-1.23484,0.010554,0.017027,1364,1723,8.83757,-43.0502
147,-699,8.88538,42.9565,-0.00749645,0.00575632,-0.00554168,0.00776818,-0.0095083,-1.22255,0.00999143,0.0141014,1371,1723,8.88539,-42.9566
154,-699,8.88208,42.8387,-0.00691542,0.00498045,-0.00513322,0.00688922,-0.00882419,-1.21479,0.00909504,0.014414,1378,1723,8.8821,-42.8388
161,-699,8.92371,42.6687,-0.00608008,0.00434594,-0.00454675,0.00605018,-0.00778433,-1.21218,0.00800825,0.0105358,1385,1723,8.92366,-42.6687
168,-699,8.9646,42.538,-0.00524448,0.00348906,-0.00377749,0.0048962,-0.00665163,-1.21421,0.00669277,0.011721,1392,1723,8.96464,-42.5379
175,-699,9.02417,42.3955,-0.00399446,0.00259877,-0.00348717,0.00410091,-0.0054966,-1.16406,0.00556062,0.0145626,1399,1723,9.02411,-42.3955
182,-699,9.02136,42.197,-0.00209419,0.00133386,-0.0025214,0.00266866,-0.00342899,-1.08391,0.00352959,0.0154855,1406,1723,9.0213,-42.197
189,-699,9.02026,42.0156,4.56895e-05,0.0014851,-0.000613212,0.00171091,-0.000180124,-1.21796,0.00120514,0.0155604,1413,1723,9.0203,-42.0156
196,-699,9.02063,41.8323,0.00161605,0.00116245,0.000559085,0.00199259,0.000785913,0.592708,0.00115894,0.0136721,1420,1723,9.02065,-41.8323
203,-699,9.04138,41.6377,0.00302514,0.00109771,0.00093716,0.00340568,0.000717177,0.385715,0.00207316,0.0127635,1427,1723,9.04142,-41.6377
210,-699,9.08252,41.4111,0.0023403,0.00095101,0.000791954,0.00269909,0.000592222,0.425381,0.00163807,0.0134528,1434,1723,9.08254,-41.4111
217,-699,9.08459,41.1938,0.00181186,0.000835933,0.000510844,0.00203035,0.000617448,0.40415,0.00120184,0.013712,1441,1723,9.08461,-41.1939
224,-699,9.07959,40.9772,0.00162053,0.000988863,0.000315983,0.00175146,0.000857935,0.392818,0.00101127,0.0157711,1448,1723,9.07958,-40.9772
231,-699,9.12524,40.7286,0.00158083,0.000991563,-5.46242e-05,0.00158585,0.000986542,-0.0916578,0.000924645,0.0131513,1455,1723,9.12521,-40.7286
238,-699,9.1134,40.448,0.00170192,0.00102507,-0.000296781,0.00181362,0.000913374,-0.359965,0.0010471,0.0109405,1462,1723,9.11341,-40.448
245,-699,9.1145,40.1873,0.00188238,0.00104822,-0.000552442,0.0021575,0.000773092,-0.462058,0.00126219,0.0122209,1469,1723,9.11446,-40.1873
252,-699,9.13086,39.9325,0.00201408,0.000971454,-0.000814528,0.00245983,0.000525697,-0.500736,0.00149577,0.0103035,1476,1723,9.13082,-39.9325
259,-699,9.12842,39.6736,0.00204567,0.000771161,-0.00099841,0.00259286,0.000223967,-0.501356,0.00165897,0.010297,1483,1723,9.12841,-39.6736
266,-699,9.11377,39.403,0.00190514,0.000535849,-0.00108477,0.00250325,-6.22614e-05,-0.503895,0.00168997,0.013171,1490,1723,9.11371,-39.4029
273,-699,9.10486,39.1089,0.00164428,0.000335038,-0.00110156,0.00227105,-0.000291734,-0.517302,0.00162006,0.0118775,1497,1723,9.10483,-39.1088
280,-699,9.11353,38.8177,0.00120769,0.000209036,-0.00108986,0.00190717,-0.000490437,-0.570589,0.00146259,0.0114336,1504,1723,9.11358,-38.8177
287,-699,9.1084,38.4886,0.00056662,0.000316697,-0.000991533,0.00144103,-0.000557718,-0.722714,0.00119095,0.0104608,1511,1723,9.10839,-38.4886
294,-699,9.09802,38.1929,-0.000116731,0.000369574,-0.000862342,0.00102239,-0.000769546,-0.922814,0.001038,0.0108713,1518,1723,9.09798,-38.1929
301,-699,9.08606,37.9058,-0.000868759,0.000450126,-0.000737479,0.000779996,-0.00119863,-1.15019,0.00115085,0.0124629,1525,1723,9.08609,-37.9057
308,-699,9.07971,37.6016,-0.00177652,0.000526307,-0.000640672,0.000692548,-0.00194276,-1.31692,0.00157754,0.0169278,1532,1723,9.07977,-37.6016
315,-699,9.06189,37.2471,-0.00263115,0.000544473,-0.000460924,0.00061002,-0.0026967,-1.42953,0.0020319,0.0188539,1539,1723,9.06185,-37.2471
322,-699,9.00073,36.8856,-0.00334591,0.000734076,-0.000380707,0.000769296,-0.00338113,-1.47855,0.0025495,0.0192878,1546,1723,9.00075,-36.8856
329,-699,8.95325,36.5415,-0.00448202,0.00102827,-0.000148963,0.0010323,-0.00448605,-1.54379,0.00338764,0.0171009,1553,1723,8.95321,-36.5414
336,-699,8.95178,36.2234,-0.00525852,0.000587159,0.000444131,0.00062071,-0.00529207,1.4954,0.00375211,0.0211231,1560,1723,8.95183,-36.2234
343,-699,9.32605,35.7661,0,0,0,0,0,0,0,-1,1567,1723,9.32611,-35.7661
350,-699,9.24585,35.4116,0,0,0,0,0,0,0,-1,1574,1723,9.24585,-35.4117
357,-699,8.95227,35.058,-0.008818,-0.00284119,0.00482002,-0.000158341,-0.0115008,1.0629,0.007615,0.045229,1581,1723,8.95228,-35.058
364,-699,8.88928,34.791,-0.0102311,-0.00454574,0.00684153,2.01897e-05,-0.014797,0.982297,0.0098714,0.0429437,1588,1723,8.88928,-34.7911
371,-699,8.7782,34.6309,0,0,0,0,0,0,0,-1,1595,1723,8.77822,-34.6309
378,-699,8.47192,34.3378,0,0,0,0,0,0,0,-1,1602,1723,8.47191,-34.3378
385,-699,7.70593,33.9346,0,0,0,0,0,0,0,-1,1609,1723,7.70595,-33.9345
392,-699,8.18408,33.3484,0,0,0,0,0,0,0,-1,1616,1723,8.18407,-33.3484
399,-699,8.04871,33.4279,0,0,0,0,0,0,0,-1,1623,1723,8.04875,-33.4279
406,-699,7.58911,33.0302,0,0,0,0,0,0,0,-1,1630,1723,7.58912,-33.0301
413,-699,9.31396,23.2781,0,0,0,0,0,0,0,-1,1637,1723,9.31396,-23.278
420,-699,2.15076,7.65527,0,0,0,0,0,0,0,-1,1644,1723,2.15079,-7.65522
427,-699,3.36328,8.2428,0,0,0,0,0,0,0,-1,1651,1723,3.36332,-8.24283
434,-699,4.66455,8.90222,0,0,0,0,0,0,0,-1,1658,1723,4.66456,-8.90223
441,-699,0,0,0,0,0,0,0,0,0,-1,1665,1723,0,0
448,-699,0,0,0,0,0,0,0,0,0,-1,1672,1723,0,0
455,-699,0,0,0,0,0,0,0,0,0,-1,1679,1723,0,0
462,-699,0,0,0,0,0,0,0,0,0,-1,1686,1723,0,0
469,-699,0,0,0,0,0,0,0,0,0,-1,1693,1723,0,0
476,-699,0,0,0,0,0,0,0,0,0,-1,1700,1723,0,0
483,-699,0,0,0,0,0,0,0,0,0,-1,1707,1723,0,0
490,-699,0,0,0,0,0,0,0,0,0,-1,1714,1723,0,0
497,-699,0,0,0,0,0,0,0,0,0,-1,1721,1723,0,0
504,-699,0,0,0,0,0,0,0,0,0,-1,1728,1723,0,0
511,-699,0,0,0,0,0,0,0,0,0,-1,1735,1723,0,0
518,-699,0,0,0,0,0,0,0,0,0,-1,1742,1723,0,0
525,-699,0,0,0,0,0,0,0,0,0,-1,1749,1723,0,0
532,-699,0,0,0,0,0,0,0,0,0,-1,1756,1723,0,0
539,-699,0,0,0,0,0,0,0,0,0,-1,1763,1723,0,0
546,-699,0,0,0,0,0,0,0,0,0,-1,1770,1723,0,0
553,-699,0,0,0,0,0,0,0,0,0,-1,1777,1723,0,0
560,-699,0,0,0,0,0,0,0,0,0,-1,1784,1723,0,0
567,-699,0,0,0,0,0,0,0,0,0,-1,1791,1723,0,0
574,-699,0,0,0,0,0,0,0,0,0,-1,1798,1723,0,0
581,-699,0,0,0,0,0,0,0,0,0,-1,1805,1723,0,0
588,-699,0,0,0,0,0,0,0,0,0,-1,1812,1723,0,0
595,-699,0,0,0,0,0,0,0,0,0,-1,1819,1723,0,0
602,-699,0,0,0,0,0,0,0,0,0,-1,1826,1723,0,0
609,-699,0,0,0,0,0,0,0,0,0,-1,1833,1723,0,0
616,-699,0,0,0,0,0,0,0,0,0,-1,1840,1723,0,0
623,-699,0,0,0,0,0,0,0,0,0,-1,1847,1723,0,0
630,-699,0,0,0,0,0,0,0,0,0,-1,1854,1723,0,0
637,-699,0,0,0,0,0,0,0,0,0,-1,1861,1723,0,0
644,-699,0,0,0,0,0,0,0,0,0,-1,1868,1723,0,0
651,-699,0,0,0,0,0,0,0,0,0,-1,1875,1723,0,0
658,-699,0,0,0,0,0,0,0,0,0,-1,1882,1723,0,0
665,-699,0,0,0,0,0,0,0,0,0,-1,1889,1723,0,0
672,-699,0,0,0,0,0,0,0,0,0,-1,1896,1723,0,0
679,-699,0,0,0,0,0,0,0,0,0,-1,1903,1723,0,0
686,-699,0,0,0,0,0,0,0,0,0,-1,1910,1723,0,0
693,-699,0,0,0,0,0,0,0,0,0,-1,1917,1723,0,0
700,-699,0,0,0,0,0,0,0,0,0,-1,1924,1723,0,0
707,-699,0,0,0,0,0,0,0,0,0,-1,1931,1723,0,0
714,-699,0,0,0,0,0,0,0,0,0,-1,1938,1723,0,0
721,-699,0,0,0,0,0,0,0,0,0,-1,1945,1723,0,0
728,-699,0,0,0,0,0,0,0,0,0,-1,1952,1723,0,0
735,-699,0,0,0,0,0,0,0,0,0,-1,1959,1723,0,0
742,-699,0,0,0,0,0,0,0,0,0,-1,1966,1723,0,0
749,-699,0,0,0,0,0,0,0,0,0,-1,1973,1723,0,0
756,-699,0,0,0,0,0,0,0,0,0,-1,1980,1723,0,0
763,-699,0,0,0,0,0,0,0,0,0,-1,1987,1723,0,0
770,-699,0,0,0,0,0,0,0,0,0,-1,1994,1723,0,0
777,-699,0,0,0,0,0,0,0,0,0,-1,2001,1723,0,0
784,-699,0,0,0,0,0,0,0,0,0,-1,2008,1723,0,0
791,-699,0,0,0,0,0,0,0,0,0,-1,2015,1723,0,0
798,-699,0,0,0,0,0,0,0,0,0,-1,2022,1723,0,0
805,-699,0,0,0,0,0,0,0,0,0,-1,2029,1723,0,0
812,-699,0,0,0,0,0,0,0,0,0,-1,2036,1723,0,0
-700,-706,0,0,0,0,0,0,0,0,0,-1,524,1730,0,0
-693,-706,0,0,0,0,0,0,0,0,0,-1,531,1730,0,0
-686,-706,0,0,0,0,0,0,0,0,0,-1,538,1730,0,0
-679,-706,0,0,0,0,0,0,0,0,0,-1,545,1730,0,0
-672,-706,0,0,0,0,0,0,0,0,0,-1,552,1730,0,0
-665,-706,0,0,0,0,0,0,0,0,0,-1,559,1730,0,0
-658,-706,0,0,0,0,0,0,0,0,0,-1,566,1730,0,0
-651,-706,0,0,0,0,0,0,0,0,0,-1,573,1730,0,0
-644,-706,0,0,0,0,0,0,0,0,0,-1,580,1730,0,0
-637,-706,0,0,0,0,0,0,0,0,0,-1,587,1730,0,0
-630,-706,0,0,0,0,0,0,0,0,0,-1,594,1730,0,0
-623,-706,0,0,0,0,0,0,0,0,0,-1,601,1730,0,0
-616,-706,0,0,0,0,0,0,0,0,0,-1,608,1730,0,0
-609,-706,0,0,0,0,0,0,0,0,0,-1,615,1730,0,0
-602,-706,0,0,0,0,0,0,0,0,0,-1,622,1730,0,0
-595,-706,0,0,0,0,0,0,0,0,0,-1,629,1730,0,0
-588,-706,0,0,0,0,0,0,0,0,0,-1,636,1730,0,0
-581,-706,0,0,0,0,0,0,0,0,0,-1,643,1730,0,0
-574,-706,0,0,0,0,0,0,0,0,0,-1,650,1730,0,0
-567,-706,0,0,0,0,0,0,0,0,0,-1,657,1730,0,0
-560,-706,0,0,0,0,0,0,0,0,0,-1,664,1730,0,0
-553,-706,0,0,0,0,0,0,0,0,0,-1,671,1730,0,0
-546,-706,0,0,0,0,0,0,0,0,0,-1,678,1730,0,0
-539,-706,0,0,0,0,0,0,0,0,0,-1,685,1730,0,0
-532,-706,0,0,0,0,0,0,0,0,0,-1,692,1730,0,0
-525,-706,0,0,0,0,0,0,0,0,0,-1,699,1730,0,0
-518,-706,0,0,0,0,0,0,0,0,0,-1,706,1730,0,0
-511,-706,0,0,0,0,0,0,0,0,0,-1,713,1730,0,0
-504,-706,0,0,0,0,0,0,0,0,0,-1,720,1730,0,0
-497,-706,0,0,0,0,0,0,0,0,0,-1,727,1730,0,0
-490,-706,0,0,0,0,0,0,0,0,0,-1,734,1730,0,0
-483,-706,0,0,0,0,0,0,0,0,0,-1,741,1730,0,0
-476,-706,0,0,0,0,0,0,0,0,0,-1,748,1730,0,0
-469,-706,0,0,0,0,0,0,0,0,0,-1,755,1730,0,0
-462,-706,0,0,0,0,0,0,0,0,0,-1,762,1730,0,0
-455,-706,0,0,0,0,0,0,0,0,0,-1,769,1730,0,0
-448,-706,0,0,0,0,0,0,0,0,0,-1,776,1730,0,0
-441,-706,0,0,0,0,0,0,0,0,0,-1,783,1730,0,0
-434,-706,0,0,0,0,0,0,0,0,0,-1,790,1730,0,0
-427,-706,0,0,0,0,0,0,0,0,0,-1,797,1730,0,0
-420,-706,0,0,0,0,0,0,0,0,0,-1,804,1730,0,0
-413,-706,0,0,0,0,0,0,0,0,0,-1,811,1730,0,0
-406,-706,0,0,0,0,0,0,0,0,0,-1,818,1730,0,0
-399,-706,0,0,0,0,0,0,0,0,0,-1,825,1730,0,0
-392,-706,0,0,0,0,0,0,0,0,0,-1,832,1730,0,0
-385,-706,0,0,0,0,0,0,0,0,0,-1,839,1730,0,0
-378,-706,0,0,0,0,0,0,0,0,0,-1,846,1730,0,0
-371,-706,0,0,0,0,0,0,0,0,0,-1,853,1730,0,0
-364,-706,0,0,0,0,0,0,0,0,0,-1,860,1730,0,0
-357,-706,0,0,0,0,0,0,0,0,0,-1,867,1730,0,0
-350,-706,0,0,0,0,0,0,0,0,0,-1,874,1730,0,0
-343,-706,0,0,0,0,0,0,0,0,0,-1,881,1730,0,0
-336,-706,0,0,0,0,0,0,0,0,0,-1,888,1730,0,0
-329,-706,0,0,0,0,0,0,0,0,0,-1,895,1730,0,0
-322,-706,0,0,0,0,0,0,0,0,0,-1,902,1730,0,0
-315,-706,0,0,0,0,0,0,0,0,0,-1,909,1730,0,0
-308,-706,5.08191,14.6245,0,0,0,0,0,0,0,-1,916,1730,5.08188,-14.6245
-301,-706,7.45007,21.1975,0,0,0,0,0,0,0,-1,923,1730,7.45005,-21.1976
-294,-706,11.8603,21.026,0,0,0,0,0,0,0,-1,930,1730,11.8603,-21.026
-287,-706,10.3292,20.8425,0,0,0,0,0,0,0,-1,937,1730,10.3292,-20.8425
-280,-706,7.9162,21.8951,0,0,0,0,0,0,0,-1,944,1730,7.9162,-21.8952
-273,-706,7.38953,20.6355,0,0,0,0,0,0,0,-1,951,1730,7.38955,-20.6355
-266,-706,9.66724,22.8231,0,0,0,0,0,0,0,-1,958,1730,9.66722,-22.8231
-259,-706,3.47852,20.7363,0,0,0,0,0,0,0,-1,965,1730,3.47851,-20.7364
-252,-706,3.84259,20.1979,0,0,0,0,0,0,0,-1,972,1730,3.84256,-20.1979
-245,-706,4.698,19.2992,0,0,0,0,0,0,0,-1,979,1730,4.69799,-19.2991
-238,-706,7.70691,32.0442,0,0,0,0,0,0,0,-1,986,1730,7.70689,-32.0442
-231,-706,8.44849,34.424,0,0,0,0,0,0,0,-1,993,1730,8.44847,-34.424
-224,-706,8.19702,34.7076,0,0,0,0,0,0,0,-1,1000,1730,8.197,-34.7076
-217,-706,8.15594,35.1877,-0.0103326,0.00502844,0.000264285,0.00503299,-0.0103371,1.5536,0.00904835,0.0444905,1007,1730,8.15594,-35.1877
-210,-706,8.06354,35.5792,-0.00996965,0.00199876,0.000197152,0.00200201,-0.00997289,1.55433,0.00740668,0.0374489,1014,1730,8.06355,-35.5792
-203,-706,8.0343,35.97,-0.00965932,0.000487408,0.000191395,0.000491017,-0.00966292,1.55194,0.0066117,0.0337407,1021,1730,8.03425,-35.9699
-196,-706,8.02661,36.3804,-0.00962341,-0.00188797,-3.38851e-05,-0.00188782,-0.00962356,-1.56642,0.00588819,0.0255341,1028,1730,8.02658,-36.3803
-189,-706,7.96912,36.7319,-0.00917944,-0.00416084,-0.000335185,-0.00413855,-0.00920172,-1.5044,0.00532155,0.0188138,1035,1730,7.96912,-36.7319
-182,-706,7.88879,37.1084,-0.0084156,-0.00573355,-0.000613592,-0.00559984,-0.00854931,-1.35624,0.00501439,0.0151591,1042,1730,7.88884,-37.1084
-175,-706,7.9104,37.4719,-0.00754152,-0.00668746,-0.000600581,-0.00637757,-0.00785141,-1.09444,0.00481872,0.0152483,1049,1730,7.91044,-37.4719
-168,-706,7.90894,37.7784,-0.00662537,-0.00733182,-0.000564336,-0.00631283,-0.00764436,-0.505769,0.00471549,0.0156669,1056,1730,7.90898,-37.7784
-161,-706,7.87744,38.1139,-0.00572257,-0.00740527,-0.00050298,-0.00558369,-0.00754415,-0.26941,0.00451996,0.0125582,1063,1730,7.87745,-38.1139
-154,-706,7.83521,38.4646,-0.00475092,-0.00693679,-0.000425219,-0.00467112,-0.00701659,-0.185521,0.00412454,0.0129555,1070,1730,7.83516,-38.4646
-147,-706,7.80762,38.7732,-0.00370707,-0.00580879,-0.000363744,-0.0036459,-0.00586996,-0.166616,0.003422,0.0128887,1077,1730,7.80766,-38.7731
-140,-706,7.81213,39.0814,-0.00274586,-0.00450445,-0.000218848,-0.00271903,-0.00453128,-0.121966,0.00263354,0.0110403,1084,1730,7.8121,-39.0815
-133,-706,7.8208,39.3777,-0.00164578,-0.0033162,1.97755e-05,-0.00164555,-0.00331644,0.0118364,0.00191476,0.00810697,1091,1730,7.82078,-39.3777
-126,-706,7.79639,39.6541,-0.000855574,-0.00188008,7.61206e-05,-0.000849949,-0.0018857,0.0737601,0.00109047,0.0131062,1098,1730,7.7964,-39.6541
-119,-706,7.77759,39.9401,-0.000271933,-0.000739804,0.000156591,-0.000224361,-0.000787377,0.294938,0.000468398,0.0185492,1105,1730,7.77758,-39.94
-112,-706,7.78601,40.2596,0.000317285,0.000525954,0.00029049,0.000730278,0.000112962,0.957807,0.000453908,0.0123946,1112,1730,7.786,-40.2596
-105,-706,7.76086,40.4971,0.000732325,0.00119328,0.000295763,0.00133776,0.000587841,1.11638,0.000774245,0.00893761,1119,1730,7.76084,-40.4971
-98,-706,7.77551,40.728,0.00106858,0.00132482,0.000280958,0.00150549,0.000887908,0.999321,0.000873854,0.0111244,1126,1730,7.77555,-40.728
-91,-706,7.79175,40.978,0.00142466,0.00140719,0.000265063,0.00168113,0.00115072,0.768924,0.00099238,0.0145377,1133,1730,7.79179,-40.9781
-84,-706,7.7688,41.2188,0.00164082,0.00134203,0.000174319,0.001721,0.00126184,0.431122,0.00102901,0.017484,1140,1730,7.76879,-41.2187
-77,-706,7.78796,41.3892,0.0018432,0.00110822,7.79419e-05,0.00185137,0.00110005,0.104498,0.00107519,0.0167098,1147,1730,7.78801,-41.3891
-70,-706,7.79016,41.6276,0.00198612,0.000912986,-0.000114768,0.00199826,0.000900849,-0.105358,0.00115556,0.0179711,1154,1730,7.7901,-41.6275
-63,-706,7.77869,41.8473,0.00203166,0.0011158,-0.000316486,0.00213039,0.00101708,-0.302371,0.0012304,0.01351,1161,1730,7.77867,-41.8473
-56,-706,7.79065,42.0466,0.00239714,0.0016894,-0.000724715,0.00284976,0.00123677,-0.558282,0.00165008,0.0138331,1168,1730,7.79064,-42.0466
-49,-706,7.79773,42.2198,0.0027412,0.00207556,-0.00121706,0.00367013,0.00114663,-0.65193,0.00216808,0.014746,1175,1730,7.79771,-42.2199
-42,-706,7.82703,42.3888,0.00340574,0.00228668,-0.0012397,0.00420633,0.0014861,-0.573413,0.00246312,0.0186381,1182,1730,7.82698,-42.3888
-35,-706,7.84106,42.5482,0.00447627,0.00327524,-0.000982371,0.00502714,0.00272438,-0.511058,0.00290582,0.0179104,1189,1730,7.84103,-42.5482
-28,-706,7.88318,42.701,0.00574874,0.00411076,-0.000952898,0.00618623,0.00367327,-0.430415,0.0035925,0.0115276,1196,1730,7.88317,-42.701
-21,-706,7.91443,42.8311,0.00707301,0.00449183,-0.00164191,0.00787084,0.003694,-0.452317,0.00454708,0.0116222,1203,1730,7.91446,-42.831
-14,-706,7.93347,42.9431,0.00834343,0.00471359,-0.00243287,0.00956377,0.00349325,-0.46493,0.00558808,0.0108767,1210,1730,7.93348,-42.9431
-7,-706,7.9668,43.0721,0.00989033,0.00494728,-0.00337058,0.0115984,0.00323919,-0.469046,0.00691042,0.00836112,1217,1730,7.96684,-43.0721
0,-706,8.00256,43.1978,0.0113706,0.00535626,-0.00402782,0.01339,0.00333687,-0.464737,0.00804837,0.0114658,1224,1730,8.00255,-43.1978
7,-706,8.02893,43.2936,0.0128555,0.00555212,-0.00493325,0.0153416,0.00306608,-0.466791,0.00937433,0.0134821,1231,1730,8.02891,-43.2935
14,-706,8.06531,43.3633,0.0148436,0.00543085,-0.00582927,0.0176292,0.0026452,-0.44579,0.0109778,0.0143512,1238,1730,8.06534,-43.3633
21,-706,8.10486,43.4259,0.016782,0.00545229,-0.00639017,0.0196567,0.00257754,-0.422746,0.0123354,0.0116682,1245,1730,8.10485,-43.4259
28,-706,8.1333,43.5002,0.0182393,0.00530441,-0.00705733,0.0213444,0.00219931,-0.414492,0.0135561,0.0113086,1252,1730,8.1333,-43.5002
35,-706,8.16052,43.5856,0.0189004,0.00517417,-0.00723306,0.0220082,0.00206635,-0.405819,0.0140341,0.0134187,1259,1730,8.1605,-43.5855
42,-706,8.19836,43.6276,0.018952,0.00495177,-0.00712982,0.0219436,0.00196008,-0.397289,0.0140215,0.0118214,1266,1730,8.19835,-43.6275
49,-706,8.23511,43.6488,0.0183674,0.00488596,-0.00664854,0.0210945,0.00215882,-0.389257,0.0134015,0.0135084,1273,1730,8.23509,-43.6488
56,-706,8.30469,43.6663,0.0175448,0.00482233,-0.00588429,0.0198491,0.00251811,-0.373234,0.0124783,0.0135343,1280,1730,8.30473,-43.6663
63,-706,8.34314,43.6643,0.0160337,0.00485079,-0.00509723,0.0180083,0.00287612,-0.369598,0.0111709,0.0120745,1287,1730,8.34312,-43.6642
70,-706,8.34424,43.6508,0.0136366,0.0047578,-0.00400077,0.0151734,0.00322104,-0.366738,0.00923115,0.0123625,1294,1730,8.34425,-43.6508
77,-706,8.36658,43.634,0.0106529,0.00505851,-0.00298272,0.0119448,0.00376658,-0.408742,0.0070514,0.0114126,1301,1730,8.36656,-43.634
84,-706,8.40417,43.6121,0.00736574,0.00513443,-0.00183809,0.00840026,0.00409991,-0.512636,0.00485035,0.00886173,1308,1730,8.40412,-43.6121
91,-706,8.45972,43.6067,0.00465358,0.00532565,-0.00110872,0.00614814,0.00383108,-0.932541,0.00358533,0.00951177,1315,1730,8.45972,-43.6067
98,-706,8.47693,43.5864,0.00204856,0.00512187,-0.000940849,0.00538702,0.00178341,-1.2961,0.00316883,0.0137619,1322,1730,8.47693,-43.5864
105,-706,8.49878,43.543,0.000270952,0.00470444,-0.00167335,0.00526511,-0.000289723,-1.24749,0.00361053,0.0164098,1329,1730,8.4988,-43.5429
112,-706,8.50562,43.4833,-0.00117553,0.00425494,-0.00234141,0.00512505,-0.00204564,-1.21499,0.00426535,0.0160132,1336,1730,8.50564,-43.4833
119,-706,8.53845,43.4065,-0.0029574,0.00370849,-0.00313726,0.00495276,-0.00420167,-1.19321,0.00529124,0.0134256,1343,1730,8.5384,-43.4065
126,-706,8.58655,43.306,-0.0039647,0.00275636,-0.00404498,0.00465464,-0.00586298,-1.13202,0.00608569,0.0145016,1350,1730,8.5865,-43.306
133,-706,8.65186,43.182,-0.00381501,0.00195837,-0.00454315,0.00445435,-0.00631099,-1.06842,0.00624611,0.01256,1357,1730,8.65189,-43.182
140,-706,8.69434,43.0446,-0.00337861,0.00125223,-0.00491176,0.00436697,-0.00649334,-1.00565,0.00631013,0.0123437,1364,1730,8.69431,-43.0446
147,-706,8.74854,42.9235,-0.00283196,0.000726104,-0.00488782,0.00414858,-0.00625444,-0.959932,0.00604707,0.0206791,1371,1730,8.74855,-42.9235
154,-706,8.76941,42.8302,-0.00216898,0.000322836,-0.00459874,0.00384145,-0.00568759,-0.917684,0.0055359,0.0205778,1378,1730,8.76944,-42.8302
161,-706,8.75574,42.6783,-0.00148114,0.000290663,-0.00409983,0.00359921,-0.00478969,-0.891803,0.00485957,0.0110326,1385,1730,8.75572,-42.6784
168,-706,8.78052,42.5266,-0.000911161,0.00023514,-0.0034529,0.00316213,-0.00383816,-0.867644,0.0040479,0.0108651,1392,1730,8.78058,-42.5266
175,-706,8.82434,42.3735,-0.000170589,3.98482e-06,-0.0031173,0.00303522,-0.00320182,-0.799395,0.00360139,0.0111055,1399,1730,8.82435,-42.3736
182,-706,8.82825,42.1942,0.000810777,-0.00022213,-0.00235936,0.00270954,-0.0021209,-0.67765,0.00279575,0.0115072,1406,1730,8.82826,-42.1942
189,-706,8.81519,42.0129,0.0017883,0.000575769,-0.00105437,0.00239828,-3.42092e-05,-0.52448,0.00161038,0.0137557,1413,1730,8.81522,-42.0129
196,-706,8.81702,41.8141,0.00201209,0.00103761,-0.000232131,0.00206456,0.000985143,-0.222304,0.00119239,0.0116259,1420,1730,8.81699,-41.8141
203,-706,8.82935,41.6229,0.00202782,0.00123749,0.00028063,0.00211733,0.00114798,0.308757,0.00122389,0.0132012,1427,1730,8.8293,-41.6229
210,-706,8.84521,41.3993,0.00175626,0.00124837,9.06442e-05,0.00177195,0.00123267,0.171422,0.00104882,0.0128522,1434,1730,8.84516,-41.3993
217,-706,8.82434,41.1849,0.00155732,0.00122554,-0.000194561,0.00164711,0.00113574,-0.432386,0.000973468,0.0138963,1441,1730,8.82434,-41.1849
224,-706,8.80286,40.9747,0.00163323,0.0011364,-0.000476184,0.0019219,0.000847729,-0.54498,0.00111217,0.0197074,1448,1730,8.8029,-40.9747
231,-706,8.86035,40.7133,0.00179813,0.00105096,-0.000824793,0.00233,0.000519087,-0.572746,0.00141247,0.0154856,1455,1730,8.86034,-40.7133
238,-706,8.8551,40.4506,0.00210255,0.000891298,-0.00112952,0.00277856,0.000215287,-0.539312,0.00178495,0.009316,1462,1730,8.85505,-40.4506
245,-706,8.86194,40.1902,0.00241802,0.000658125,-0.00144981,0.00323403,-0.000157881,-0.512645,0.00221052,0.0111373,1469,1730,8.86197,-40.1902
252,-706,8.87012,39.9285,0.00259663,0.000407732,-0.00171696,0.0035383,-0.000533933,-0.501652,0.0025555,0.0114554,1476,1730,8.87015,-39.9285
259,-706,8.875,39.6722,0.00259855,5.97847e-05,-0.00184758,0.00357079,-0.000912458,-0.484407,0.00273588,0.012001,1483,1730,8.87495,-39.6723
266,-706,8.84875,39.4153,0.00234928,-0.000288576,-0.00183682,0.00329165,-0.00123095,-0.47403,0.00269996,0.0123462,1490,1730,8.84877,-39.4153
273,-706,8.82068,39.1337,0.00195047,-0.000552028,-0.00177624,0.00287193,-0.00147348,-0.478549,0.00255176,0.0113384,1497,1730,8.82069,-39.1337
280,-706,8.80383,38.8292,0.00133974,-0.000642123,-0.00167107,0.0022916,-0.00159398,-0.517773,0.00225536,0.00942276,1504,1730,8.80385,-38.8292
287,-706,8.78796,38.4946,0.000462702,-0.000328017,-0.00146381,0.00158361,-0.00144892,-0.653501,0.00175141,0.0111185,1511,1730,8.78793,-38.4947
294,-706,8.80261,38.2041,-0.000497158,-6.6534e-05,-0.00118496,0.000922514,-0.00148621,-0.87527,0.00140331,0.0114363,1518,1730,8.80265,-38.2041
301,-706,8.79211,37.9139,-0.001546,0.000328926,-0.000893314,0.000686393,-0.00190347,-1.19015,0.00154932,0.0108165,1525,1730,8.79207,-37.9139
308,-706,8.78589,37.6018,-0.00283689,0.000669659,-0.000628553,0.000778923,-0.00294615,-1.39868,0.00226876,0.0125914,1532,1730,8.78591,-37.6018
315,-706,8.74072,37.2727,-0.00407526,0.00099025,-0.000255183,0.00100307,-0.00408808,-1.52059,0.00311407,0.0189344,1539,1730,8.74078,-37.2728
322,-706,8.67737,36.9702,-0.00503909,0.00155399,-4.66304e-05,0.00155432,-0.00503942,-1.56372,0.00398021,0.0280985,1546,1730,8.67735,-36.9702
329,-706,8.72644,36.5139,-0.00653207,0.00239913,0.000361807,0.00241377,-0.00654671,1.53037,0.00535362,0.0301578,1553,1730,8.72644,-36.5139
336,-706,8.6272,35.9598,-0.00747335,0.00195305,0.00105695,0.0020701,-0.00759041,1.46049,0.0058732,0.0441469,1560,1730,8.62724,-35.9599
343,-706,8.38757,35.542,0,0,0,0,0,0,0,-1,1567,1730,8.38755,-35.542
350,-706,8.01672,35.0264,0,0,0,0,0,0,0,-1,1574,1730,8.01678,-35.0264
357,-706,7.93311,34.5054,0,0,0,0,0,0,0,-1,1581,1730,7.93311,-34.5054
364,-706,8.39453,34.9741,0,0,0,0,0,0,0,-1,1588,1730,8.39459,-34.9741
371,-706,6.27881,24.0759,0,0,0,0,0,0,0,-1,1595,1730,6.27883,-24.0759
378,-706,4.80444,25.0989,0,0,0,0,0,0,0,-1,1602,1730,4.80445,-25.0989
385,-706,5.55212,24.9753,0,0,0,0,0,0,0,-1,1609,1730,5.55214,-24.9753
392,-706,6.2998,24.8518,0,0,0,0,0,0,0,-1,1616,1730,6.29983,-24.8518
399,-706,3.9502,25.5428,0,0,0,0,0,0,0,-1,1623,1730,3.95019,-25.5428
406,-706,6.04211,18.8085,0,0,0,0,0,0,0,-1,1630,1730,6.04216,-18.8085
413,-706,6.23413,20.7725,0,0,0,0,0,0,0,-1,1637,1730,6.23413,-20.7725
420,-706,6.51294,21.9171,0,0,0,0,0,0,0,-1,1644,1730,6.51292,-21.9171
427,-706,0,0,0,0,0,0,0,0,0,-1,1651,1730,0,0
434,-706,0,0,0,0,0,0,0,0,0,-1,1658,1730,0,0
441,-706,0,0,0,0,0,0,0,0,0,-1,1665,1730,0,0
448,-706,0,0,0,0,0,0,0,0,0,-1,1672,1730,0,0
455,-706,0,0,0,0,0,0,0,0,0,-1,1679,1730,0,0
462,-706,0,0,0,0,0,0,0,0,0,-1,1686,1730,0,0
469,-706,0,0,0,0,0,0,0,0,0,-1,1693,1730,0,0
476,-706,0,0,0,0,0,0,0,0,0,-1,1700,1730,0,0
483,-706,0,0,0,0,0,0,0,0,0,-1,1707,1730,0,0
490,-706,0,0,0,0,0,0,0,0,0,-1,1714,1730,0,0
497,-706,0,0,0,0,0,0,0,0,0,-1,1721,1730,0,0
504,-706,0,0,0,0,0,0,0,0,0,-1,1728,1730,0,0
511,-706,0,0,0,0,0,0,0,0,0,-1,1735,1730,0,0
518,-706,0,0,0,0,0,0,0,0,0,-1,1742,1730,0,0
525,-706,0,0,0,0,0,0,0,0,0,-1,1749,1730,0,0
532,-706,0,0,0,0,0,0,0,0,0,-1,1756,1730,0,0
539,-706,0,0,0,0,0,0,0,0,0,-1,1763,1730,0,0
546,-706,0,0,0,0,0,0,0,0,0,-1,1770,1730,0,0
553,-706,0,0,0,0,0,0,0,0,0,-1,1777,1730,0,0
560,-706,0,0,0,0,0,0,0,0,0,-1,1784,1730,0,0
567,-706,0,0,0,0,0,0,0,0,0,-1,1791,1730,0,0
574,-706,0,0,0,0,0,0,0,0,0,-1,1798,1730,0,0
581,-706,0,0,0,0,0,0,0,0,0,-1,1805,1730,0,0
588,-706,0,0,0,0,0,0,0,0,0,-1,1812,1730,0,0
595,-706,0,0,0,0,0,0,0,0,0,-1,1819,1730,0,0
602,-706,0,0,0,0,0,0,0,0,0,-1,1826,1730,0,0
609,-706,0,0,0,0,0,0,0,0,0,-1,1833,1730,0,0
616,-706,0,0,0,0,0,0,0,0,0,-1,1840,1730,0,0
623,-706,0,0,0,0,0,0,0,0,0,-1,1847,1730,0,0
630,-706,0,0,0,0,0,0,0,0,0,-1,1854,1730,0,0
637,-706,0,0,0,0,0,0,0,0,0,-1,1861,1730,0,0
644,-706,0,0,0,0,0,0,0,0,0,-1,1868,1730,0,0
651,-706,0,0,0,0,0,0,0,0,0,-1,1875,1730,0,0
658,-706,0,0,0,0,0,0,0,0,0,-1,1882,1730,0,0
665,-706,0,0,0,0,0,0,0,0,0,-1,1889,1730,0,0
672,-706,0,0,0,0,0,0,0,0,0,-1,1896,1730,0,0
679,-706,0,0,0,0,0,0,0,0,0,-1,1903,1730,0,0
686,-706,0,0,0,0,0,0,0,0,0,-1,1910,1730,0,0
693,-706,0,0,0,0,0,0,0,0,0,-1,1917,1730,0,0
700,-706,0,0,0,0,0,0,0,0,0,-1,1924,1730,0,0
707,-706,0,0,0,0,0,0,0,0,0,-1,1931,1730,0,0
714,-706,0,0,0,0,0,0,0,0,0,-1,1938,1730,0,0
721,-706,0,0,0,0,0,0,0,0,0,-1,1945,1730,0,0
728,-706,0,0,0,0,0,0,0,0,0,-1,1952,1730,0,0
735,-706,0,0,0,0,0,0,0,0,0,-1,1959,1730,0,0
742,-706,0,0,0,0,0,0,0,0,0,-1,1966,1730,0,0
749,-706,0,0,0,0,0,0,0,0,0,-1,1973,1730,0,0
756,-706,0,0,0,0,0,0,0,0,0,-1,1980,1730,0,0
763,-706,0,0,0,0,0,0,0,0,0,-1,1987,1730,0,0
770,-706,0,0,0,0,0,0,0,0,0,-1,1994,1730,0,0
777,-706,0,0,0,0,0,0,0,0,0,-1,2001,1730,0,0
784,-706,0,0,0,0,0,0,0,0,0,-1,2008,1730,0,0
791,-706,0,0,0,0,0,0,0,0,0,-1,2015,1730,0,0
798,-706,0,0,0,0,0,0,0,0,0,-1,2022,1730,0,0
805,-706,0,0,0,0,0,0,0,0,0,-1,2029,1730,0,0
812,-706,0,0,0,0,0,0,0,0,0,-1,2036,1730,0,0
-700,-713,0,0,0,0,0,0,0,0,0,-1,524,1737,0,0
-693,-713,0,0,0,0,0,0,0,0,0,-1,531,1737,0,0
-686,-713,0,0,0,0,0,0,0,0,0,-1,538,1737,0,0
-679,-713,0,0,0,0,0,0,0,0,0,-1,545,1737,0,0
-672,-713,0,0,0,0,0,0,0,0,0,-1,552,1737,0,0
-665,-713,0,0,0,0,0,0,0,0,0,-1,559,1737,0,0
-658,-713,0,0,0,0,0,0,0,0,0,-1,566,1737,0,0
-651,-713,0,0,0,0,0,0,0,0,0,-1,573,1737,0,0
-644,-713,0,0,0,0,0,0,0,0,0,-1,580,1737,0,0
-637,-713,0,0,0,0,0,0,0,0,0,-1,587,1737,0,0
-630,-713,0,0,0,0,0,0,0,0,0,-1,594,1737,0,0
-623,-713,0,0,0,0,0,0,0,0,0,-1,601,1737,0,0
-616,-713,0,0,0,0,0,0,0,0,0,-1,608,1737,0,0
-609,-713,0,0,0,0,0,0,0,0,0,-1,615,1737,0,0
-602,-713,0,0,0,0,0,0,0,0,0,-1,622,1737,0,0
-595,-713,0,0,0,0,0,0,0,0,0,-1,629,1737,0,0
-588,-713,0,0,0,0,0,0,0,0,0,-1,636,1737,0,0
-581,-713,0,0,0,0,0,0,0,0,0,-1,643,1737,0,0
-574,-713,0,0,0,0,0,0,0,0,0,-1,650,1737,0,0
-567,-713,0,0,0,0,0,0,0,0,0,-1,657,1737,0,0
-560,-713,0,0,0,0,0,0,0,0,0,-1,664,1737,0,0
-553,-713,0,0,0,0,0,0,0,0,0,-1,671,1737,0,0
-546,-713,0,0,0,0,0,0,0,0,0,-1,678,1737,0,0
-539,-713,0,0,0,0,0,0,0,0,0,-1,685,1737,0,0
-532,-713,0,0,0,0,0,0,0,0,0,-1,692,1737,0,0
-525,-713,0,0,0,0,0,0,0,0,0,-1,699,1737,0,0
-518,-713,0,0,0,0,0,0,0,0,0,-1,706,1737,0,0
-511,-713,0,0,0,0,0,0,0,0,0,-1,713,1737,0,0
-504,-713,0,0,0,0,0,0,0,0,0,-1,720,1737,0,0
-497,-713,0,0,0,0,0,0,0,0,0,-1,727,1737,0,0
-490,-713,0,0,0,0,0,0,0,0,0,-1,734,1737,0,0
-483,-713,0,0,0,0,0,0,0,0,0,-1,741,1737,0,0
-476,-713,0,0,0,0,0,0,0,0,0,-1,748,1737,0,0
-469,-713,0,0,0,0,0,0,0,0,0,-1,755,1737,0,0
-462,-713,0,0,0,0,0,0,0,0,0,-1,762,1737,0,0
-455,-713,0,0,0,0,0,0,0,0,0,-1,769,1737,0,0
-448,-713,0,0,0,0,0,0,0,0,0,-1,776,1737,0,0
-441,-713,0,0,0,0,0,0,0,0,0,-1,783,1737,0,0
-434,-713,0,0,0,0,0,0,0,0,0,-1,790,1737,0,0
-427,-713,0,0,0,0,0,0,0,0,0,-1,797,1737,0,0
-420,-713,0,0,0,0,0,0,0,0,0,-1,804,1737,0,0
-413,-713,0,0,0,0,0,0,0,0,0,-1,811,1737,0,0
-406,-713,0,0,0,0,0,0,0,0,0,-1,818,1737,0,0
-399,-713,0,0,0,0,0,0,0,0,0,-1,825,1737,0,0
-392,-713,0,0,0,0,0,0,0,0,0,-1,832,1737,0,0
-385,-713,0,0,0,0,0,0,0,0,0,-1,839,1737,0,0
-378,-713,0,0,0,0,0,0,0,0,0,-1,846,1737,0,0
-371,-713,0,0,0,0,0,0,0,0,0,-1,853,1737,0,0
-364,-713,0,0,0,0,0,0,0,0,0,-1,860,1737,0,0
-357,-713,0,0,0,0,0,0,0,0,0,-1,867,1737,0,0
-350,-713,0,0,0,0,0,0,0,0,0,-1,874,1737,0,0
-343,-713,0,0,0,0,0,0,0,0,0,-1,881,1737,0,0
-336,-713,0,0,0,0,0,0,0,0,0,-1,888,1737,0,0
-329,-713,0,0,0,0,0,0,0,0,0,-1,895,1737,0,0
-322,-713,0,0,0,0,0,0,0,0,0,-1,902,1737,0,0
-315,-713,0,0,0,0,0,0,0,0,0,-1,909,1737,0,0
-308,-713,0,0,0,0,0,0,0,0,0,-1,916,1737,0,0
-301,-713,0,0,0,0,0,0,0,0,0,-1,923,1737,0,0
-294,-713,7.17883,22.0453,0,0,0,0,0,0,0,-1,930,1737,7.17881,-22.0453
-287,-713,11.8916,21.5834,0,0,0,0,0,0,0,-1,937,1737,11.8916,-21.5833
-280,-713,10.2786,21.3551,0,0,0,0,0,0,0,-1,944,1737,10.2787,-21.3551
-273,-713,11.1981,23.8683,0,0,0,0,0,0,0,-1,951,1737,11.198,-23.8683
-266,-713,3.17981,19.8851,0,0,0,0,0,0,0,-1,958,1737,3.17983,-19.8851
-259,-713,3.5921,19.6868,0,0,0,0,0,0,0,-1,965,1737,3.59207,-19.6868
-252,-713,4.55469,20.5758,0,0,0,0,0,0,0,-1,972,1737,4.55466,-20.5758
-245,-713,3.89014,25.9825,0,0,0,0,0,0,0,-1,979,1737,3.89013,-25.9826
-238,-713,6.62506,30.5463,0,0,0,0,0,0,0,-1,986,1737,6.62509,-30.5462
-231,-713,8.23462,31.5148,0,0,0,0,0,0,0,-1,993,1737,8.23462,-31.5148
-224,-713,7.59491,25.9907,0,0,0,0,0,0,0,-1,1000,1737,7.59488,-25.9908
-217,-713,8.55725,35.0774,0,0,0,0,0,0,0,-1,1007,1737,8.55727,-35.0774
-210,-713,8.40411,35.4603,0,0,0,0,0,0,0,-1,1014,1737,8.40413,-35.4604
-203,-713,8.35889,35.8826,0,0,0,0,0,0,0,-1,1021,1737,8.35887,-35.8826
-196,-713,8.40027,36.5084,0,0,0,0,0,0,0,-1,1028,1737,8.40024,-36.5085
-189,-713,8.86523,36.4167,-0.0125362,-0.00813944,-0.000885489,-0.00796781,-0.0127078,-1.37934,0.00741534,0.0393609,1035,1737,8.86528,-36.4167
-182,-713,8.19104,36.9697,-0.0114817,-0.0101748,-0.00123383,-0.00943206,-0.0122244,-1.02893,0.00739666,0.0282933,1042,1737,8.19106,-36.9697
-175,-713,8.19482,37.3047,-0.0103886,-0.0112808,-0.00120627,-0.00954858,-0.0121208,-0.608293,0.00737422,0.0277149,1049,1737,8.19488,-37.3047
-168,-713,8.2489,37.8143,0,0,0,0,0,0,0,-1,1056,1737,8.24889,-37.8144
-161,-713,8.21411,38.1045,-0.00814729,-0.0119115,-0.0010545,-0.00787202,-0.0121868,-0.255348,0.00713525,0.0174231,1063,1737,8.21415,-38.1045
-154,-713,8.13269,38.4629,-0.0069894,-0.0111549,-0.000934794,-0.00678924,-0.0113551,-0.210939,0.00659761,0.012692,1070,1737,8.13273,-38.463
-147,-713,8.09998,38.7841,-0.00575906,-0.00954352,-0.00085345,-0.0055755,-0.00972709,-0.211855,0.00563596,0.0194588,1077,1737,8.09994,-38.784
-140,-713,8.11304,39.1,-0.00463991,-0.00770167,-0.000648952,-0.00450804,-0.00783354,-0.200473,0.00453984,0.018284,1084,1737,8.11305,-39.1
-133,-713,8.08972,39.3754,-0.00334159,-0.00602246,-0.00033882,-0.00329943,-0.00606462,-0.123791,0.00350594,0.0103435,1091,1737,8.08972,-39.3754
-126,-713,8.07715,39.6365,-0.00242559,-0.00401031,-0.000241281,-0.00238967,-0.00404623,-0.147794,0.00234884,0.0166347,1098,1737,8.07709,-39.6364
-119,-713,8.04895,39.8549,-0.00175485,-0.00235363,-0.000113441,-0.00173408,-0.00237441,-0.181094,0.00141852,0.0260157,1105,1737,8.049,-39.8549
-112,-713,8.03931,40.2566,-0.0010194,-0.000362251,0.000119849,-0.000341076,-0.00104058,1.39592,0.000612542,0.0137169,1112,1737,8.03927,-40.2566
-105,-713,8.03491,40.5027,-0.000507892,0.000958832,0.000211297,0.000988665,-0.000537725,1.43053,0.000893989,0.0109956,1119,1737,8.03487,-40.5027
-98,-713,8.02063,40.7296,-9.80076e-05,0.00138024,0.000273598,0.00142926,-0.000147021,1.39353,0.00100543,0.0104974,1126,1737,8.0206,-40.7297
-91,-713,8.00195,40.9734,0.00046158,0.00186843,0.000385284,0.00196704,0.000362976,1.32025,0.00120867,0.0101414,1133,1737,8.00192,-40.9734
-84,-713,7.99097,41.2057,0.000728585,0.0021019,0.000411595,0.00221581,0.000614675,1.3008,0.00132088,0.00949099,1140,1737,7.99095,-41.2057
-77,-713,7.99695,41.4205,0.000922593,0.00196352,0.000481755,0.00215226,0.000733853,1.1974,0.00126339,0.0128606,1147,1737,7.9969,-41.4206
-70,-713,8.00305,41.6328,0.00111664,0.00163039,0.000347596,0.00180573,0.000941304,1.10361,0.00104285,0.0143864,1154,1737,8.00306,-41.6328
-63,-713,7.99292,41.8518,0.0011497,0.00147387,0.000103136,0.00150391,0.00111967,1.28746,0.000902222,0.0127665,1161,1737,7.99295,-41.8518
-56,-713,8.00537,42.0463,0.00130404,0.00156969,-0.000112153,0.0016107,0.00126302,-1.22019,0.000978715,0.0133107,1168,1737,8.00539,-42.0463
-49,-713,7.97498,42.2123,0.00140027,0.00161454,-0.000332067,0.00185633,0.00115849,-0.941441,0.0010827,0.0160716,1175,1737,7.97498,-42.2123
-42,-713,8.0177,42.3558,0.00161314,0.00151349,-0.000347354,0.00191423,0.00121241,-0.714165,0.00111821,0.0183976,1182,1737,8.01767,-42.3558
-35,-713,8.04602,42.5232,0.0021362,0.00207322,-0.000302133,0.00240848,0.00180094,-0.733474,0.00144632,0.0151707,1189,1737,8.04598,-42.5231
-28,-713,8.0575,42.6929,0.00280003,0.00262239,-0.000286939,0.00301158,0.00241084,-0.635302,0.00184045,0.0129218,1196,1737,8.05745,-42.6929
-21,-713,8.03735,42.8408,0.00355036,0.00298277,-0.000578348,0.00391079,0.00262234,-0.55731,0.00230126,0.0092973,1203,1737,8.0373,-42.8408
-14,-713,8.04163,42.9596,0.00433162,0.00322713,-0.000919727,0.00485216,0.00270659,-0.515026,0.00280763,0.0100567,1210,1737,8.04167,-42.9596
-7,-713,8.08728,43.0791,0.00529997,0.0034216,-0.00132953,0.00598858,0.00273299,-0.477892,0.00346189,0.00838788,1217,1737,8.08727,-43.0791
0,-713,8.11011,43.1913,0.00628439,0.00383007,-0.00155608,0.00703898,0.00307549,-0.451516,0.00407472,0.0131515,1224,1737,8.11005,-43.1913
7,-713,8.11902,43.2941,0.00727133,0.00413054,-0.00188138,0.0081516,0.00325027,-0.437625,0.0047384,0.0168757,1231,1737,8.119,-43.2941
14,-713,8.14648,43.3829,0.00866462,0.00422681,-0.00221051,0.00957778,0.00331364,-0.391751,0.00561652,0.0129138,1238,1737,8.1465,-43.383
21,-713,8.17212,43.4387,0.0100541,0.0044531,-0.00229666,0.0108754,0.00363179,-0.343438,0.00639327,0.0108073,1245,1737,8.17216,-43.4387
28,-713,8.17944,43.5205,0.0110734,0.00451831,-0.00249825,0.011917,0.00367474,-0.325641,0.00704672,0.0108536,1252,1737,8.17938,-43.5205
35,-713,8.19531,43.5909,0.0115719,0.0045532,-0.00244344,0.0123387,0.00378634,-0.304109,0.00729876,0.0111122,1259,1737,8.19535,-43.591
42,-713,8.23047,43.6412,0.0117383,0.00447766,-0.00226961,0.0123893,0.00382658,-0.279366,0.00732514,0.0102927,1266,1737,8.23048,-43.6412
49,-713,8.26563,43.637,0.0114651,0.00444711,-0.00192149,0.0119568,0.00395546,-0.250494,0.00703375,0.0102868,1273,1737,8.26566,-43.637
56,-713,8.30042,43.641,0.0110176,0.00435137,-0.00141049,0.0113038,0.00406521,-0.200162,0.0066114,0.0114042,1280,1737,8.30045,-43.641
63,-713,8.31104,43.6681,0.0101248,0.00421912,-0.000991168,0.0102867,0.00405721,-0.161924,0.00598302,0.0124028,1287,1737,8.31098,-43.668
70,-713,8.32947,43.6583,0.00863985,0.00396567,-0.00046586,0.00868582,0.0039197,-0.0983774,0.00502269,0.0123051,1294,1737,8.32941,-43.6583
77,-713,8.35864,43.6383,0.00676009,0.00394974,-0.000101285,0.00676373,0.0039461,-0.0359777,0.00392312,0.0126003,1301,1737,8.35861,-43.6383
84,-713,8.38562,43.6411,0.0046771,0.00365982,0.000232902,0.00472789,0.00360903,0.214698,0.00285306,0.0124115,1308,1737,8.38566,-43.6411
91,-713,8.40967,43.6371,0.00303031,0.00351306,0.000277503,0.00363948,0.0029039,1.14334,0.00222209,0.0120101,1315,1737,8.40971,-43.6371
98,-713,8.42395,43.5939,0.00144178,0.00312797,-2.02293e-05,0.00312821,0.00144154,-1.5588,0.00180792,0.0117101,1322,1737,8.42398,-43.5939
105,-713,8.43811,43.5555,0.0002998,0.00257749,-0.000702793,0.00277688,0.000100405,-1.29434,0.00181871,0.0137354,1329,1737,8.43816,-43.5555
112,-713,8.45923,43.4983,-0.000589113,0.00203579,-0.00136491,0.00261688,-0.0011702,-1.1683,0.00223902,0.0135499,1336,1737,8.45917,-43.4983
119,-713,8.47253,43.4114,-0.00174485,0.00146799,-0.00207301,0.00248416,-0.00276102,-1.11503,0.00302971,0.0137548,1343,1737,8.47259,-43.4114
126,-713,8.49023,43.3156,-0.00235905,0.000694384,-0.00283675,0.00238916,-0.00405382,-1.03226,0.00376102,0.0132106,1350,1737,8.49023,-43.3155
133,-713,8.50903,43.1992,-0.00222565,0.000192974,-0.00322279,0.00242588,-0.00445855,-0.964888,0.00403206,0.0119871,1357,1737,8.50901,-43.1992
140,-713,8.55457,43.076,-0.00189178,-0.000195005,-0.00347137,0.00253015,-0.00461693,-0.905246,0.00418458,0.0128299,1364,1737,8.55461,-43.0761
147,-713,8.57837,42.9276,-0.00148869,-0.000419622,-0.00340648,0.00249401,-0.00440233,-0.863222,0.00403209,0.0136985,1371,1737,8.57837,-42.9276
154,-713,8.56458,42.8448,-0.00101219,-0.000482974,-0.0031366,0.00240016,-0.00389532,-0.827479,0.00366871,0.0139981,1378,1737,8.5646,-42.8448
161,-713,8.58643,42.6793,-0.000548689,-0.000240695,-0.00272134,0.002331,-0.00312039,-0.813662,0.00315834,0.0107023,1385,1737,8.58648,-42.6794
168,-713,8.59973,42.5081,-0.000174631,-2.13552e-05,-0.00221721,0.00212054,-0.00231652,-0.802674,0.00256257,0.0109308,1392,1737,8.59975,-42.5081
175,-713,8.6394,42.3469,0.000233059,-1.60141e-06,-0.00191332,0.00203264,-0.00180118,-0.754775,0.0022148,0.0144108,1399,1737,8.63938,-42.3469
182,-713,8.64539,42.1937,0.000689441,8.37184e-05,-0.00146294,0.00188054,-0.00110738,-0.683329,0.00174422,0.0126068,1406,1737,8.64541,-42.1937
189,-713,8.64075,42.006,0.00105105,0.000732305,-0.000822326,0.0017293,5.40478e-05,-0.689683,0.00113528,0.0114586,1413,1737,8.64075,-42.0059
196,-713,8.63977,41.8259,0.00102674,0.00110966,-0.000511862,0.00158174,0.00055466,-0.825808,0.000926693,0.0130956,1420,1737,8.63982,-41.826
203,-713,8.63196,41.6344,0.00119465,0.00145698,-0.000388517,0.00173588,0.000915756,-0.948195,0.00100272,0.0185398,1427,1737,8.63194,-41.6344
210,-713,8.63501,41.3854,0.00140714,0.00170025,-0.000651182,0.00222117,0.000886225,-0.896087,0.00129108,0.014987,1434,1737,8.63498,-41.3854
217,-713,8.64697,41.1674,0.00160754,0.00177384,-0.000967841,0.0026621,0.000719283,-0.828251,0.00159015,0.0117857,1441,1737,8.64702,-41.1673
224,-713,8.63684,40.9564,0.00202704,0.0014119,-0.00135276,0.00310676,0.000332183,-0.673616,0.0019698,0.013064,1448,1737,8.63687,-40.9564
231,-713,8.62634,40.7334,0.00245502,0.00123909,-0.00171835,0.00366979,2.43224e-05,-0.615368,0.00243846,0.0125485,1455,1737,8.62636,-40.7333
238,-713,8.61243,40.467,0.00298301,0.000936353,-0.00205181,0.00425253,-0.000333164,-0.554077,0.00295235,0.00897737,1462,1737,8.61248,-40.467
245,-713,8.6217,40.2028,0.00346938,0.000560662,-0.00243409,0.00485051,-0.000820463,-0.51611,0.00353901,0.0111017,1469,1737,8.62174,-40.2028
252,-713,8.63159,39.9297,0.00373064,0.000184334,-0.0027295,0.00521236,-0.00129739,-0.497342,0.00397852,0.0118461,1476,1737,8.63158,-39.9296
259,-713,8.63196,39.656,0.00372896,-0.000296292,-0.00282199,0.0051825,-0.00174983,-0.475635,0.00416273,0.0117929,1483,1737,8.63197,-39.656
266,-713,8.57715,39.4028,0.00337816,-0.000760276,-0.00271837,0.00472526,-0.00210737,-0.460083,0.00404018,0.0102923,1490,1737,8.57716,-39.4028
273,-713,8.54285,39.1407,0.00282862,-0.00110603,-0.0025769,0.00410333,-0.00238074,-0.459372,0.00378736,0.00873688,1497,1737,8.54286,-39.1407
280,-713,8.52551,38.843,0.00202117,-0.00119931,-0.00236136,0.00326906,-0.0024472,-0.486157,0.00331163,0.00965007,1504,1737,8.5255,-38.843
287,-713,8.5072,38.5492,0.000880397,-0.000722537,-0.00202394,0.00225578,-0.00209792,-0.596875,0.00251417,0.011466,1511,1737,8.50725,-38.5492
294,-713,8.49573,38.2635,-0.000395568,-0.000309374,-0.00156735,0.00121547,-0.00192041,-0.799143,0.00182569,0.0177655,1518,1737,8.49569,-38.2636
301,-713,8.49841,37.942,-0.00179465,0.000351095,-0.00105719,0.000784445,-0.002228,-1.18178,0.00180457,0.0196731,1525,1737,8.49843,-37.942
308,-713,8.50806,37.6008,-0.00359265,0.000863793,-0.000557895,0.000932573,-0.00366143,-1.44813,0.00280399,0.0216804,1532,1737,8.50801,-37.6008
315,-713,8.43042,37.1779,-0.00538828,0.00145554,0.00011641,0.00145751,-0.00539026,1.55379,0.00416523,0.029649,1539,1737,8.43046,-37.1779
322,-713,8.28699,36.7657,0,0,0,0,0,0,0,-1,1546,1737,8.28701,-36.7658
329,-713,8.64124,36.3551,0,0,0,0,0,0,0,-1,1553,1737,8.64125,-36.3551
336,-713,8.56738,35.8151,0,0,0,0,0,0,0,-1,1560,1737,8.56739,-35.8151
343,-713,7.44897,35.3177,0,0,0,0,0,0,0,-1,1567,1737,7.449,-35.3178
350,-713,6.78772,34.6411,0,0,0,0,0,0,0,-1,1574,1737,6.78771,-34.6411
357,-713,8.06165,35.0448,0,0,0,0,0,0,0,-1,1581,1737,8.06159,-35.0448
364,-713,7.35474,20.9537,0,0,0,0,0,0,0,-1,1588,1737,7.35472,-20.9537
371,-713,3.07507,25.4108,0,0,0,0,0,0,0,-1,1595,1737,3.07502,-25.4107
378,-713,4.21838,25.306,0,0,0,0,0,0,0,-1,1602,1737,4.21837,-25.306
385,-713,5.078,25.3104,0,0,0,0,0,0,0,-1,1609,1737,5.07795,-25.3104
392,-713,5.92114,25.3118,0,0,0,0,0,0,0,-1,1616,1737,5.92112,-25.3118
399,-713,3.14368,25.2808,0,0,0,0,0,0,0,-1,1623,1737,3.14369,-25.2808
406,-713,1.82678,26.7354,0,0,0,0,0,0,0,-1,1630,1737,1.82679,-26.7354
413,-713,3.24731,18.2787,0,0,0,0,0,0,0,-1,1637,1737,3.24726,-18.2787
420,-713,0,0,0,0,0,0,0,0,0,-1,1644,1737,0,0
427,-713,0,0,0,0,0,0,0,0,0,-1,1651,1737,0,0
434,-713,0,0,0,0,0,0,0,0,0,-1,1658,1737,0,0
441,-713,0,0,0,0,0,0,0,0,0,-1,1665,1737,0,0
448,-713,0,0,0,0,0,0,0,0,0,-1,1672,1737,0,0
455,-713,0,0,0,0,0,0,0,0,0,-1,1679,1737,0,0
462,-713,0,0,0,0,0,0,0,0,0,-1,1686,1737,0,0
469,-713,0,0,0,0,0,0,0,0,0,-1,1693,1737,0,0
476,-713,0,0,0,0,0,0,0,0,0,-1,1700,1737,0,0
483,-713,0,0,0,0,0,0,0,0,0,-1,1707,1737,0,0
490,-713,0,0,0,0,0,0,0,0,0,-1,1714,1737,0,0
497,-713,0,0,0,0,0,0,0,0,0,-1,1721,1737,0,0
504,-713,0,0,0,0,0,0,0,0,0,-1,1728,1737,0,0
511,-713,0,0,0,0,0,0,0,0,0,-1,1735,1737,0,0
518,-713,0,0,0,0,0,0,0,0,0,-1,1742,1737,0,0
525,-713,0,0,0,0,0,0,0,0,0,-1,1749,1737,0,0
532,-713,0,0,0,0,0,0,0,0,0,-1,1756,1737,0,0
539,-713,0,0,0,0,0,0,0,0,0,-1,1763,1737,0,0
546,-713,0,0,0,0,0,0,0,0,0,-1,1770,1737,0,0
553,-713,0,0,0,0,0,0,0,0,0,-1,1777,1737,0,0
560,-713,0,0,0,0,0,0,0,0,0,-1,1784,1737,0,0
567,-713,0,0,0,0,0,0,0,0,0,-1,1791,1737,0,0
574,-713,0,0,0,0,0,0,0,0,0,-1,1798,1737,0,0
581,-713,0,0,0,0,0,0,0,0,0,-1,1805,1737,0,0
588,-713,0,0,0,0,0,0,0,0,0,-1,1812,1737,0,0
595,-713,0,0,0,0,0,0,0,0,0,-1,1819,1737,0,0
602,-713,0,0,0,0,0,0,0,0,0,-1,1826,1737,0,0
609,-713,0,0,0,0,0,0,0,0,0,-1,1833,1737,0,0
616,-713,0,0,0,0,0,0,0,0,0,-1,1840,1737,0,0
623,-713,0,0,0,0,0,0,0,0,0,-1,1847,1737,0,0
630,-713,0,0,0,0,0,0,0,0,0,-1,1854,1737,0,0
637,-713,0,0,0,0,0,0,0,0,0,-1,1861,1737,0,0
644,-713,0,0,0,0,0,0,0,0,0,-1,1868,1737,0,0
651,-713,0,0,0,0,0,0,0,0,0,-1,1875,1737,0,0
658,-713,0,0,0,0,0,0,0,0,0,-1,1882,1737,0,0
665,-713,0,0,0,0,0,0,0,0,0,-1,1889,1737,0,0
672,-713,0,0,0,0,0,0,0,0,0,-1,1896,1737,0,0
679,-713,0,0,0,0,0,0,0,0,0,-1,1903,1737,0,0
686,-713,0,0,0,0,0,0,0,0,0,-1,1910,1737,0,0
693,-713,0,0,0,0,0,0,0,0,0,-1,1917,1737,0,0
700,-713,0,0,0,0,0,0,0,0,0,-1,1924,1737,0,0
707,-713,0,0,0,0,0,0,0,0,0,-1,1931,1737,0,0
714,-713,0,0,0,0,0,0,0,0,0,-1,1938,1737,0,0
721,-713,0,0,0,0,0,0,0,0,0,-1,1945,1737,0,0
728,-713,0,0,0,0,0,0,0,0,0,-1,1952,1737,0,0
735,-713,0,0,0,0,0,0,0,0,0,-1,1959,1737,0,0
742,-713,0,0,0,0,0,0,0,0,0,-1,1966,1737,0,0
749,-713,0,0,0,0,0,0,0,0,0,-1,1973,1737,0,0
756,-713,0,0,0,0,0,0,0,0,0,-1,1980,1737,0,0
763,-713,0,0,0,0,0,0,0,0,0,-1,1987,1737,0,0
770,-713,0,0,0,0,0,0,0,0,0,-1,1994,1737,0,0
777,-713,0,0,0,0,0,0,0,0,0,-1,2001,1737,0,0
784,-713,0,0,0,0,0,0,0,0,0,-1,2008,1737,0,0
791,-713,0,0,0,0,0,0,0,0,0,-1,2015,1737,0,0
798,-713,0,0,0,0,0,0,0,0,0,-1,2022,1737,0,0
805,-713,0,0,0,0,0,0,0,0,0,-1,2029,1737,0,0
812,-713,0,0,0,0,0,0,0,0,0,-1,2036,1737,0,0
-700,-720,0,0,0,0,0,0,0,0,0,-1,524,1744,0,0
-693,-720,0,0,0,0,0,0,0,0,0,-1,531,1744,0,0
-686,-720,0,0,0,0,0,0,0,0,0,-1,538,1744,0,0
-679,-720,0,0,0,0,0,0,0,0,0,-1,545,1744,0,0
-672,-720,0,0,0,0,0,0,0,0,0,-1,552,1744,0,0
-665,-720,0,0,0,0,0,0,0,0,0,-1,559,1744,0,0
-658,-720,0,0,0,0,0,0,0,0,0,-1,566,1744,0,0
-651,-720,0,0,0,0,0,0,0,0,0,-1,573,1744,0,0
-644,-720,0,0,0,0,0,0,0,0,0,-1,580,1744,0,0
-637,-720,0,0,0,0,0,0,0,0,0,-1,587,1744,0,0
-630,-720,0,0,0,0,0,0,0,0,0,-1,594,1744,0,0
-623,-720,0,0,0,0,0,0,0,0,0,-1,601,1744,0,0
-616,-720,0,0,0,0,0,0,0,0,0,-1,608,1744,0,0
-609,-720,0,0,0,0,0,0,0,0,0,-1,615,1744,0,0
-602,-720,0,0,0,0,0,0,0,0,0,-1,622,1744,0,0
-595,-720,0,0,0,0,0,0,0,0,0,-1,629,1744,0,0
-588,-720,0,0,0,0,0,0,0,0,0,-1,636,1744,0,0
-581,-720,0,0,0,0,0,0,0,0,0,-1,643,1744,0,0
-574,-720,0,0,0,0,0,0,0,0,0,-1,650,1744,0,0
-567,-720,0,0,0,0,0,0,0,0,0,-1,657,1744,0,0
-560,-720,0,0,0,0,0,0,0,0,0,-1,664,1744,0,0
-553,-720,0,0,0,0,0,0,0,0,0,-1,671,1744,0,0
-546,-720,0,0,0,0,0,0,0,0,0,-1,678,1744,0,0
-539,-720,0,0,0,0,0,0,0,0,0,-1,685,1744,0,0
-532,-720,0,0,0,0,0,0,0,0,0,-1,692,1744,0,0
-525,-720,0,0,0,0,0,0,0,0,0,-1,699,1744,0,0
-518,-720,0,0,0,0,0,0,0,0,0,-1,706,1744,0,0
-511,-720,0,0,0,0,0,0,0,0,0,-1,713,1744,0,0
-504,-720,0,0,0,0,0,0,0,0,0,-1,720,1744,0,0
-497,-720,0,0,0,0,0,0,0,0,0,-1,727,1744,0,0
-490,-720,0,0,0,0,0,0,0,0,0,-1,734,1744,0,0
-483,-720,0,0,0,0,0,0,0,0,0,-1,741,1744,0,0
-476,-720,0,0,0,0,0,0,0,0,0,-1,748,1744,0,0
-469,-720,0,0,0,0,0,0,0,0,0,-1,755,1744,0,0
-462,-720,0,0,0,0,0,0,0,0,0,-1,762,1744,0,0
-455,-720,0,0,0,0,0,0,0,0,0,-1,769,1744,0,0
-448,-720,0,0,0,0,0,0,0,0,0,-1,776,1744,0,0
-441,-720,0,0,0,0,0,0,0,0,0,-1,783,1744,0,0
-434,-720,0,0,0,0,0,0,0,0,0,-1,790,1744,0,0
-427,-720,0,0,0,0,0,0,0,0,0,-1,797,1744,0,0
-420,-720,0,0,0,0,0,0,0,0,0,-1,804,1744,0,0
-413,-720,0,0,0,0,0,0,0,0,0,-1,811,1744,0,0
-406,-720,0,0,0,0,0,0,0,0,0,-1,818,1744,0,0
-399,-720,0,0,0,0,0,0,0,0,0,-1,825,1744,0,0
-392,-720,0,0,0,0,0,0,0,0,0,-1,832,1744,0,0
-385,-720,0,0,0,0,0,0,0,0,0,-1,839,1744,0,0
-378,-720,0,0,0,0,0,0,0,0,0,-1,846,1744,0,0
-371,-720,0,0,0,0,0,0,0,0,0,-1,853,1744,0,0
-364,-720,0,0,0,0,0,0,0,0,0,-1,860,1744,0,0
-357,-720,0,0,0,0,0,0,0,0,0,-1,867,1744,0,0
-350,-720,0,0,0,0,0,0,0,0,0,-1,874,1744,0,0
-343,-720,0,0,0,0,0,0,0,0,0,-1,881,1744,0,0
-336,-720,0,0,0,0,0,0,0,0,0,-1,888,1744,0,0
-329,-720,0,0,0,0,0,0,0,0,0,-1,895,1744,0,0
-322,-720,0,0,0,0,0,0,0,0,0,-1,902,1744,0,0
-315,-720,0,0,0,0,0,0,0,0,0,-1,909,1744,0,0
-308,-720,0,0,0,0,0,0,0,0,0,-1,916,1744,0,0
-301,-720,0,0,0,0,0,0,0,0,0,-1,923,1744,0,0
-294,-720,0,0,0,0,0,0,0,0,0,-1,930,1744,0,0
-287,-720,0,0,0,0,0,0,0,0,0,-1,937,1744,0,0
-280,-720,6.46796,22.6417,0,0,0,0,0,0,0,-1,944,1744,6.46793,-22.6417
-273,-720,8.54633,13.262,0,0,0,0,0,0,0,-1,951,1744,8.54636,-13.2619
-266,-720,7.28027,13.3165,0,0,0,0,0,0,0,-1,958,1744,7.28026,-13.3166
-259,-720,3.70563,18.6372,0,0,0,0,0,0,0,-1,965,1744,3.70564,-18.6372
-252,-720,4.00989,18.5059,0,0,0,0,0,0,0,-1,972,1744,4.00988,-18.5058
-245,-720,7.05634,33.8489,0,0,0,0,0,0,0,-1,979,1744,7.05634,-33.8489
-238,-720,5.02216,24.1455,0,0,0,0,0,0,0,-1,986,1744,5.02217,-24.1455
-231,-720,7.35455,28.3225,0,0,0,0,0,0,0,-1,993,1744,7.35453,-28.3225
-224,-720,7.65991,19.4061,0,0,0,0,0,0,0,-1,1000,1744,7.6599,-19.4061
-217,-720,4.77637,30.7196,0,0,0,0,0,0,0,-1,1007,1744,4.77636,-30.7197
-210,-720,8.31781,34.7283,0,0,0,0,0,0,0,-1,1014,1744,8.31781,-34.7282
-203,-720,7.89978,34.8447,0,0,0,0,0,0,0,-1,1021,1744,7.89975,-34.8447
-196,-720,7.62878,35.5459,0,0,0,0,0,0,0,-1,1028,1744,7.62883,-35.5459
-189,-720,9.80286,36.265,0,0,0,0,0,0,0,-1,1035,1744,9.80288,-36.265
-182,-720,8.57605,37.1937,0,0,0,0,0,0,0,-1,1042,1744,8.57602,-37.1937
-175,-720,8.38184,37.7563,0,0,0,0,0,0,0,-1,1049,1744,8.38179,-37.7563
-168,-720,8.44165,37.8831,-0.0123846,-0.018513,-0.00202906,-0.0117737,-0.0191239,-0.292448,0.0111392,0.04302,1056,1744,8.44164,-37.8831
-161,-720,8.23792,38.1436,-0.0109888,-0.0180745,-0.00185475,-0.0105327,-0.0185306,-0.241144,0.010732,0.0362325,1063,1744,8.23795,-38.1436
-154,-720,8.45923,38.5262,-0.00956079,-0.0167417,-0.00165683,-0.00919695,-0.0171055,-0.216169,0.00988522,0.029481,1070,1744,8.45926,-38.5263
-147,-720,8.40881,38.881,-0.00806109,-0.0143173,-0.00152724,-0.00770818,-0.0146702,-0.227095,0.00847351,0.0251492,1077,1744,8.40875,-38.8809
-140,-720,8.39832,39.1874,-0.00671543,-0.0116263,-0.0012271,-0.00642588,-0.0119158,-0.231724,0.00688668,0.0202722,1084,1744,8.39833,-39.1874
-133,-720,8.35718,39.4036,-0.00517076,-0.00915685,-0.000819529,-0.00500884,-0.00931876,-0.19506,0.00538523,0.0140865,1091,1744,8.35718,-39.4035
-126,-720,8.34106,39.6682,-0.00407043,-0.00632689,-0.00064116,-0.00390097,-0.00649635,-0.258388,0.00377583,0.0133543,1098,1744,8.34108,-39.6682
-119,-720,8.31567,39.9412,-0.00323707,-0.00394913,-0.000436457,-0.00302985,-0.00415635,-0.443271,0.00248212,0.0144299,1105,1744,8.31569,-39.9412
-112,-720,8.28064,40.225,-0.00228884,-0.00108893,-7.07449e-05,-0.00108477,-0.00229299,-1.51211,0.0013245,0.0141596,1112,1744,8.28063,-40.225
-105,-720,8.25989,40.4921,-0.00163425,0.00100561,0.000140605,0.00101308,-0.00164171,1.51773,0.001547,0.0138381,1119,1744,8.25986,-40.492
-98,-720,8.25769,40.7244,-0.00111134,0.00176159,0.000299707,0.00179253,-0.00114227,1.46795,0.00170821,0.0107719,1126,1744,8.25768,-40.7244
-91,-720,8.23254,40.9669,-0.000288911,0.00270209,0.000555618,0.00280197,-0.000388789,1.39294,0.00201015,0.00967525,1133,1744,8.23253,-40.9669
-84,-720,8.21716,41.2025,3.77619e-05,0.00323388,0.000703437,0.00338185,-0.000110208,1.36347,0.00229218,0.0105216,1140,1744,8.21716,-41.2025
-77,-720,8.21106,41.4504,0.000216435,0.0031126,0.000948822,0.00339576,-6.67267e-05,1.28078,0.00228641,0.0131784,1147,1744,8.21112,-41.4505
-70,-720,8.20508,41.6578,0.000426586,0.00256431,0.000843154,0.00285684,0.000134061,1.23685,0.00186148,0.0121549,1154,1744,8.2051,-41.6579
-63,-720,8.17371,41.8436,0.000333414,0.00205637,0.000466122,0.00217438,0.000215395,1.32281,0.00138339,0.0118414,1161,1744,8.17365,-41.8436
-56,-720,8.18762,42.0397,0.000274235,0.00172141,0.000319333,0.00178874,0.000206904,1.36299,0.00112986,0.0134116,1168,1744,8.18764,-42.0397
-49,-720,8.16125,42.2012,0.00014864,0.00143661,0.000182073,0.00146185,0.000123396,1.43303,0.000936152,0.0191577,1175,1744,8.16123,-42.2012
-42,-720,8.19312,42.3616,4.0578e-05,0.00101967,0.000176569,0.00105054,9.70898e-06,1.39772,0.000697148,0.021188,1182,1744,8.19308,-42.3616
-35,-720,8.23254,42.5004,0.000180086,0.00110295,2.53996e-05,0.00110364,0.000179388,1.5433,0.000683855,0.0190528,1189,1744,8.23259,-42.5003
-28,-720,8.1947,42.6842,0.000390719,0.00126103,-6.94989e-05,0.00126654,0.000385204,-1.49161,0.000749705,0.0107823,1196,1744,8.19472,-42.6842
-21,-720,8.17749,42.8477,0.000725101,0.00147237,-0.000140502,0.00149792,0.000699557,-1.39095,0.00086545,0.00897703,1203,1744,8.17744,-42.8477
-14,-720,8.17065,42.9691,0.00115874,0.0016891,-0.000196737,0.00175411,0.00109373,-1.25165,0.00102299,0.010934,1210,1744,8.17066,-42.9691
-7,-720,8.19141,43.0872,0.00169416,0.00186734,-0.000281715,0.00207547,0.00148603,-0.934496,0.00123498,0.0117564,1217,1744,8.19146,-43.0871
0,-720,8.19788,43.2063,0.0023521,0.00229548,-0.000227114,0.00255266,0.00209492,-0.723389,0.00157157,0.0125685,1224,1744,8.1979,-43.2063
7,-720,8.20776,43.2946,0.00305516,0.00269766,-0.000210199,0.00315234,0.00260048,-0.433037,0.00194389,0.0150222,1231,1744,8.20779,-43.2945
14,-720,8.23743,43.3781,0.00404906,0.00296944,-0.000220197,0.00409224,0.00292625,-0.193656,0.00243442,0.0146342,1238,1744,8.23746,-43.3781
21,-720,8.24609,43.4462,0.00507914,0.00333312,-0.000112494,0.00508636,0.0033259,-0.0640756,0.00298261,0.0123232,1245,1744,8.24607,-43.4462
28,-720,8.24133,43.5173,0.00585877,0.00356514,-0.000117837,0.00586481,0.0035591,-0.051196,0.00341173,0.0116251,1252,1744,8.24132,-43.5173
35,-720,8.24231,43.5853,0.00634033,0.00370846,-4.43946e-05,0.00634108,0.00370771,-0.0168617,0.0036785,0.0110773,1259,1744,8.24226,-43.5853
42,-720,8.25659,43.6328,0.00658376,0.00374282,5.48184e-05,0.00658481,0.00374176,0.0192863,0.00381353,0.0115718,1266,1744,8.25663,-43.6328
49,-720,8.27954,43.6484,0.00649395,0.00371156,0.000163829,0.00650357,0.00370195,0.0586106,0.00376681,0.011632,1273,1744,8.27952,-43.6484
56,-720,8.297,43.6616,0.00628412,0.00363747,0.00035679,0.00633138,0.00359022,0.131677,0.00366636,0.010155,1280,1744,8.29696,-43.6616
63,-720,8.31177,43.6774,0.00578316,0.00352151,0.000405612,0.00585371,0.00345096,0.172196,0.00339765,0.01231,1287,1744,8.31181,-43.6774
70,-720,8.35046,43.6625,0.00492585,0.0032422,0.000509812,0.00506819,0.00309986,0.272264,0.00295033,0.012972,1294,1744,8.3505,-43.6624
77,-720,8.36414,43.6393,0.00378027,0.00312056,0.000517618,0.0040642,0.00283663,0.501717,0.00240699,0.0141873,1301,1744,8.36413,-43.6393
84,-720,8.35803,43.6168,0.00247411,0.00273953,0.000417309,0.00304472,0.00216892,0.939346,0.00180994,0.0143229,1308,1744,8.35803,-43.6168
91,-720,8.36682,43.6051,0.00149228,0.00245624,0.000188054,0.00249163,0.00145689,1.38479,0.00144541,0.0138782,1315,1744,8.36679,-43.6051
98,-720,8.36157,43.5842,0.000593295,0.00204385,-0.000188696,0.00206799,0.000569151,-1.44353,0.00123352,0.0127681,1322,1744,8.36163,-43.5842
105,-720,8.36743,43.5493,-0.000118455,0.00155973,-0.000651581,0.00178301,-0.000341735,-1.24066,0.00131744,0.0120231,1329,1744,8.36741,-43.5493
112,-720,8.40149,43.4735,-0.000639181,0.00110164,-0.00109405,0.00162928,-0.00116682,-1.12142,0.00162168,0.0106871,1336,1744,8.40155,-43.4736
119,-720,8.40723,43.3773,-0.00125229,0.000653168,-0.00157233,0.00153889,-0.00213802,-1.05778,0.00213224,0.0107547,1343,1744,8.40727,-43.3773
126,-720,8.40759,43.2902,-0.00150518,0.000100728,-0.00206616,0.00151447,-0.00291892,-0.970727,0.00260208,0.0104976,1350,1744,8.40757,-43.2902
133,-720,8.41895,43.2089,-0.00131375,-0.000232941,-0.00233607,0.00162442,-0.00317111,-0.899064,0.00281629,0.0115841,1357,1744,8.41897,-43.2088
140,-720,8.46057,43.1484,-0.00103293,-0.000434339,-0.00247522,0.00175961,-0.00322689,-0.845565,0.00292021,0.0178818,1364,1744,8.46056,-43.1484
147,-720,8.44836,42.9852,-0.000708389,-0.000557335,-0.00240437,0.0017727,-0.00303842,-0.801099,0.00280956,0.0193797,1371,1744,8.44833,-42.9853
154,-720,8.41248,42.8224,-0.000349296,-0.000500458,-0.00221339,0.00178981,-0.00263956,-0.768331,0.00257294,0.0132613,1378,1744,8.41245,-42.8224
161,-720,8.44287,42.6769,-5.99729e-05,-0.000284326,-0.00193409,0.00176519,-0.00210949,-0.756431,0.00223999,0.00959179,1385,1744,8.44291,-42.6769
168,-720,8.46045,42.515,0.000144282,-0.00010265,-0.00157136,0.00159702,-0.00155539,-0.746192,0.00182009,0.0097783,1392,1744,8.46051,-42.515
175,-720,8.46033,42.345,0.000278258,5.84466e-05,-0.0013371,0.00150996,-0.00117326,-0.744392,0.00155322,0.0157821,1399,1744,8.46031,-42.3449
182,-720,8.45605,42.1931,0.000328823,0.000342157,-0.00116063,0.00149614,-0.000825159,-0.78827,0.00135874,0.0159376,1406,1744,8.45611,-42.1931
189,-720,8.47852,42.0135,0.000266927,0.00074267,-0.00106907,0.00160002,-0.000590418,-0.894866,0.00130866,0.0132704,1413,1744,8.47854,-42.0135
196,-720,8.47107,41.8156,9.87782e-05,0.00111398,-0.00102765,0.00175256,-0.0005398,-1.01479,0.00138386,0.0144167,1420,1744,8.47104,-41.8156
203,-720,8.44348,41.5994,0.000528967,0.00176703,-0.00106416,0.00237911,-8.31094e-05,-1.04883,0.00161449,0.0170579,1427,1744,8.44347,-41.5994
210,-720,8.43579,41.4006,0.00132321,0.00230874,-0.00142757,0.0033262,0.000305747,-0.951584,0.0021229,0.0143679,1434,1744,8.43573,-41.4006
217,-720,8.44092,41.1857,0.00200697,0.00249256,-0.00180337,0.00406941,0.000430125,-0.852313,0.00258154,0.013346,1441,1744,8.44096,-41.1857
224,-720,8.42297,40.9474,0.00285819,0.00183751,-0.00230579,0.00470944,-1.37477e-05,-0.676489,0.00314422,0.0103511,1448,1744,8.42295,-40.9473
231,-720,8.41052,40.717,0.00362762,0.00159359,-0.00273748,0.0055309,-0.00030969,-0.607542,0.00379471,0.00970306,1455,1744,8.41047,-40.717
238,-720,8.39307,40.46,0.00447583,0.00115895,-0.00313344,0.00636264,-0.00072787,-0.542003,0.00450403,0.00872093,1462,1744,8.39311,-40.46
245,-720,8.36731,40.2067,0.00523939,0.000628697,-0.00360815,0.00721579,-0.0013477,-0.501122,0.005317,0.0115485,1469,1744,8.36732,-40.2066
252,-720,8.36621,39.9384,0.00567709,8.53134e-05,-0.00397341,0.0077397,-0.00197729,-0.478813,0.00592982,0.0115308,1476,1744,8.36618,-39.9383
259,-720,8.3512,39.6689,0.00574121,-0.000584079,-0.00406969,0.00773266,-0.00257553,-0.455081,0.00619473,0.0103666,1483,1744,8.35126,-39.6689
266,-720,8.3031,39.4114,0.00533268,-0.00122678,-0.00390624,0.00715347,-0.00304757,-0.436181,0.00604651,0.00837784,1490,1744,8.3031,-39.4114
273,-720,8.27234,39.1393,0.00463188,-0.00171063,-0.00370192,0.00633516,-0.00341391,-0.431226,0.00571223,0.013805,1497,1744,8.27234,-39.1393
280,-720,8.20789,38.855,0.00359508,-0.00185784,-0.0033779,0.00520956,-0.00347232,-0.445856,0.00504583,0.0188206,1504,1744,8.20787,-38.855
287,-720,8.1438,38.5156,0.0021357,-0.00125816,-0.00290365,0.00380192,-0.00292438,-0.520959,0.00389443,0.032006,1511,1744,8.14383,-38.5157
294,-720,8.24939,38.1167,0.000451206,-0.000714493,-0.00224752,0.00219023,-0.00245351,-0.658528,0.0026825,0.0372664,1518,1744,8.24934,-38.1167
301,-720,8.12671,37.7653,-0.00142809,0.000220014,-0.0014586,0.00107124,-0.00227932,-1.04253,0.00197592,0.0420758,1525,1744,8.12666,-37.7653
308,-720,7.92163,37.5667,-0.00398448,0.000858156,-0.000630717,0.000938954,-0.00406528,-1.44339,0.00307139,0.0397851,1532,1744,7.92158,-37.5666
315,-720,7.79175,37.2804,-0.00668439,0.00176402,0.000533572,0.00179758,-0.00671796,1.50797,0.00518281,0.0422106,1539,1744,7.7918,-37.2803
322,-720,7.69446,37.0588,0,0,0,0,0,0,0,-1,1546,1744,7.6944,-37.0588
329,-720,9.15906,34.7668,0,0,0,0,0,0,0,-1,1553,1744,9.1591,-34.7669
336,-720,6.14148,26.5682,0,0,0,0,0,0,0,-1,1560,1744,6.14151,-26.5683
343,-720,6.78552,21.3625,0,0,0,0,0,0,0,-1,1567,1744,6.78551,-21.3625
350,-720,4.0741,11.1836,0,0,0,0,0,0,0,-1,1574,1744,4.07412,-11.1836
357,-720,6.90833,21.4504,0,0,0,0,0,0,0,-1,1581,1744,6.90827,-21.4505
364,-720,5.83777,24.1599,0,0,0,0,0,0,0,-1,1588,1744,5.83773,-24.1599
371,-720,5.46997,23.6176,0,0,0,0,0,0,0,-1,1595,1744,5.47001,-23.6176
378,-720,3.88257,25.5404,0,0,0,0,0,0,0,-1,1602,1744,3.88262,-25.5404
385,-720,4.63611,25.6746,0,0,0,0,0,0,0,-1,1609,1744,4.63612,-25.6746
392,-720,3.49377,23.5042,0,0,0,0,0,0,0,-1,1616,1744,3.4938,-23.5042
399,-720,2.37317,24.7166,0,0,0,0,0,0,0,-1,1623,1744,2.37317,-24.7166
406,-720,0,0,0,0,0,0,0,0,0,-1,1630,1744,0,0
413,-720,0,0,0,0,0,0,0,0,0,-1,1637,1744,0,0
420,-720,0,0,0,0,0,0,0,0,0,-1,1644,1744,0,0
427,-720,0,0,0,0,0,0,0,0,0,-1,1651,1744,0,0
434,-720,0,0,0,0,0,0,0,0,0,-1,1658,1744,0,0
441,-720,0,0,0,0,0,0,0,0,0,-1,1665,1744,0,0
448,-720,0,0,0,0,0,0,0,0,0,-1,1672,1744,0,0
455,-720,0,0,0,0,0,0,0,0,0,-1,1679,1744,0,0
462,-720,0,0,0,0,0,0,0,0,0,-1,1686,1744,0,0
469,-720,0,0,0,0,0,0,0,0,0,-1,1693,1744,0,0
476,-720,0,0,0,0,0,0,0,0,0,-1,1700,1744,0,0
483,-720,0,0,0,0,0,0,0,0,0,-1,1707,1744,0,0
490,-720,0,0,0,0,0,0,0,0,0,-1,1714,1744,0,0
497,-720,0,0,0,0,0,0,0,0,0,-1,1721,1744,0,0
504,-720,0,0,0,0,0,0,0,0,0,-1,1728,1744,0,0
511,-720,0,0,0,0,0,0,0,0,0,-1,1735,1744,0,0
518,-720,0,0,0,0,0,0,0,0,0,-1,1742,1744,0,0
525,-720,0,0,0,0,0,0,0,0,0,-1,1749,1744,0,0
532,-720,0,0,0,0,0,0,0,0,0,-1,1756,1744,0,0
539,-720,0,0,0,0,0,0,0,0,0,-1,1763,1744,0,0
546,-720,0,0,0,0,0,0,0,0,0,-1,1770,1744,0,0
553,-720,0,0,0,0,0,0,0,0,0,-1,1777,1744,0,0
560,-720,0,0,0,0,0,0,0,0,0,-1,1784,1744,0,0
567,-720,0,0,0,0,0,0,0,0,0,-1,1791,1744,0,0
574,-720,0,0,0,0,0,0,0,0,0,-1,1798,1744,0,0
581,-720,0,0,0,0,0,0,0,0,0,-1,1805,1744,0,0
588,-720,0,0,0,0,0,0,0,0,0,-1,1812,1744,0,0
595,-720,0,0,0,0,0,0,0,0,0,-1,1819,1744,0,0
602,-720,0,0,0,0,0,0,0,0,0,-1,1826,1744,0,0
609,-720,0,0,0,0,0,0,0,0,0,-1,1833,1744,0,0
616,-720,0,0,0,0,0,0,0,0,0,-1,1840,1744,0,0
623,-720,0,0,0,0,0,0,0,0,0,-1,1847,1744,0,0
630,-720,0,0,0,0,0,0,0,0,0,-1,1854,1744,0,0
637,-720,0,0,0,0,0,0,0,0,0,-1,1861,1744,0,0
644,-720,0,0,0,0,0,0,0,0,0,-1,1868,1744,0,0
651,-720,0,0,0,0,0,0,0,0,0,-1,1875,1744,0,0
658,-720,0,0,0,0,0,0,0,0,0,-1,1882,1744,0,0
665,-720,0,0,0,0,0,0,0,0,0,-1,1889,1744,0,0
672,-720,0,0,0,0,0,0,0,0,0,-1,1896,1744,0,0
679,-720,0,0,0,0,0,0,0,0,0,-1,1903,1744,0,0
686,-720,0,0,0,0,0,0,0,0,0,-1,1910,1744,0,0
693,-720,0,0,0,0,0,0,0,0,0,-1,1917,1744,0,0
700,-720,0,0,0,0,0,0,0,0,0,-1,1924,1744,0,0
707,-720,0,0,0,0,0,0,0,0,0,-1,1931,1744,0,0
714,-720,0,0,0,0,0,0,0,0,0,-1,1938,1744,0,0
721,-720,0,0,0,0,0,0,0,0,0,-1,1945,1744,0,0
728,-720,0,0,0,0,0,0,0,0,0,-1,1952,1744,0,0
735,-720,0,0,0,0,0,0,0,0,0,-1,1959,1744,0,0
742,-720,0,0,0,0,0,0,0,0,0,-1,1966,1744,0,0
749,-720,0,0,0,0,0,0,0,0,0,-1,1973,1744,0,0
756,-720,0,0,0,0,0,0,0,0,0,-1,1980,1744,0,0
763,-720,0,0,0,0,0,0,0,0,0,-1,1987,1744,0,0
770,-720,0,0,0,0,0,0,0,0,0,-1,1994,1744,0,0
777,-720,0,0,0,0,0,0,0,0,0,-1,2001,1744,0,0
784,-720,0,0,0,0,0,0,0,0,0,-1,2008,1744,0,0
791,-720,0,0,0,0,0,0,0,0,0,-1,2015,1744,0,0
798,-720,0,0,0,0,0,0,0,0,0,-1,2022,1744,0,0
805,-720,0,0,0,0,0,0,0,0,0,-1,2029,1744,0,0
812,-720,0,0,0,0,0,0,0,0,0,-1,2036,1744,0,0
-700,-727,0,0,0,0,0,0,0,0,0,-1,524,1751,0,0
-693,-727,0,0,0,0,0,0,0,0,0,-1,531,1751,0,0
-686,-727,0,0,0,0,0,0,0,0,0,-1,538,1751,0,0
-679,-727,0,0,0,0,0,0,0,0,0,-1,545,1751,0,0
-672,-727,0,0,0,0,0,0,0,0,0,-1,552,1751,0,0
-665,-727,0,0,0,0,0,0,0,0,0,-1,559,1751,0,0
-658,-727,0,0,0,0,0,0,0,0,0,-1,566,1751,0,0
-651,-727,0,0,0,0,0,0,0,0,0,-1,573,1751,0,0
-644,-727,0,0,0,0,0,0,0,0,0,-1,580,1751,0,0
-637,-727,0,0,0,0,0,0,0,0,0,-1,587,1751,0,0
-630,-727,0,0,0,0,0,0,0,0,0,-1,594,1751,0,0
-623,-727,0,0,0,0,0,0,0,0,0,-1,601,1751,0,0
-616,-727,0,0,0,0,0,0,0,0,0,-1,608,1751,0,0
-609,-727,0,0,0,0,0,0,0,0,0,-1,615,1751,0,0
-602,-727,0,0,0,0,0,0,0,0,0,-1,622,1751,0,0
-595,-727,0,0,0,0,0,0,0,0,0,-1,629,1751,0,0
-588,-727,0,0,0,0,0,0,0,0,0,-1,636,1751,0,0
-581,-727,0,0,0,0,0,0,0,0,0,-1,643,1751,0,0
-574,-727,0,0,0,0,0,0,0,0,0,-1,650,1751,0,0
-567,-727,0,0,0,0,0,0,0,0,0,-1,657,1751,0,0
-560,-727,0,0,0,0,0,0,0,0,0,-1,664,1751,0,0
-553,-727,0,0,0,0,0,0,0,0,0,-1,671,1751,0,0
-546,-727,0,0,0,0,0,0,0,0,0,-1,678,1751,0,0
-539,-727,0,0,0,0,0,0,0,0,0,-1,685,1751,0,0
-532,-727,0,0,0,0,0,0,0,0,0,-1,692,1751,0,0
-525,-727,0,0,0,0,0,0,0,0,0,-1,699,1751,0,0
-518,-727,0,0,0,0,0,0,0,0,0,-1,706,1751,0,0
-511,-727,0,0,0,0,0,0,0,0,0,-1,713,1751,0,0
-504,-727,0,0,0,0,0,0,0,0,0,-1,720,1751,0,0
-497,-727,0,0,0,0,0,0,0,0,0,-1,727,1751,0,0
-490,-727,0,0,0,0,0,0,0,0,0,-1,734,1751,0,0
-483,-727,0,0,0,0,0,0,0,0,0,-1,741,1751,0,0
-476,-727,0,0,0,0,0,0,0,0,0,-1,748,1751,0,0
-469,-727,0,0,0,0,0,0,0,0,0,-1,755,1751,0,0
-462,-727,0,0,0,0,0,0,0,0,0,-1,762,1751,0,0
-455,-727,0,0,0,0,0,0,0,0,0,-1,769,1751,0,0
-448,-727,0,0,0,0,0,0,0,0,0,-1,776,1751,0,0
-441,-727,0,0,0,0,0,0,0,0,0,-1,783,1751,0,0
-434,-727,0,0,0,0,0,0,0,0,0,-1,790,1751,0,0
-427,-727,0,0,0,0,0,0,0,0,0,-1,797,1751,0,0
-420,-727,0,0,0,0,0,0,0,0,0,-1,804,1751,0,0
-413,-727,0,0,0,0,0,0,0,0,0,-1,811,1751,0,0
-406,-727,0,0,0,0,0,0,0,0,0,-1,818,1751,0,0
-399,-727,0,0,0,0,0,0,0,0,0,-1,825,1751,0,0
-392,-727,0,0,0,0,0,0,0,0,0,-1,832,1751,0,0
-385,-727,0,0,0,0,0,0,0,0,0,-1,839,1751,0,0
-378,-727,0,0,0,0,0,0,0,0,0,-1,846,1751,0,0
-371,-727,0,0,0,0,0,0,0,0,0,-1,853,1751,0,0
-364,-727,0,0,0,0,0,0,0,0,0,-1,860,1751,0,0
-357,-727,0,0,0,0,0,0,0,0,0,-1,867,1751,0,0
-350,-727,0,0,0,0,0,0,0,0,0,-1,874,1751,0,0
-343,-727,0,0,0,0,0,0,0,0,0,-1,881,1751,0,0
-336,-727,0,0,0,0,0,0,0,0,0,-1,888,1751,0,0
-329,-727,0,0,0,0,0,0,0,0,0,-1,895,1751,0,0
-322,-727,0,0,0,0,0,0,0,0,0,-1,902,1751,0,0
-315,-727,0,0,0,0,0,0,0,0,0,-1,909,1751,0,0
-308,-727,0,0,0,0,0,0,0,0,0,-1,916,1751,0,0
-301,-727,0,0,0,0,0,0,0,0,0,-1,923,1751,0,0
-294,-727,0,0,0,0,0,0,0,0,0,-1,930,1751,0,0
-287,-727,0,0,0,0,0,0,0,0,0,-1,937,1751,0,0
-280,-727,0,0,0,0,0,0,0,0,0,-1,944,1751,0,0
-273,-727,0,0,0,0,0,0,0,0,0,-1,951,1751,0,0
-266,-727,4.24805,7.61145,0,0,0,0,0,0,0,-1,958,1751,4.24802,-7.6115
-259,-727,3.65228,5.4082,0,0,0,0,0,0,0,-1,965,1751,3.65229,-5.40818
-252,-727,5.8797,32.9292,0,0,0,0,0,0,0,-1,972,1751,5.87972,-32.9292
-245,-727,6.59198,32.2588,0,0,0,0,0,0,0,-1,979,1751,6.59195,-32.2587
-238,-727,6.6189,30.4597,0,0,0,0,0,0,0,-1,986,1751,6.61889,-30.4598
-231,-727,6.70105,28.9473,0,0,0,0,0,0,0,-1,993,1751,6.70103,-28.9472
-224,-727,7.0614,27.79,0,0,0,0,0,0,0,-1,1000,1751,7.06139,-27.79
-217,-727,4.72937,32.0111,0,0,0,0,0,0,0,-1,1007,1751,4.72935,-32.0111
-210,-727,5.0921,32.4524,0,0,0,0,0,0,0,-1,1014,1751,5.09209,-32.4523
-203,-727,10.5354,32.1929,0,0,0,0,0,0,0,-1,1021,1751,10.5354,-32.1928
-196,-727,10.1326,33.5536,0,0,0,0,0,0,0,-1,1028,1751,10.1326,-33.5536
-189,-727,9.11694,37.0548,0,0,0,0,0,0,0,-1,1035,1751,9.11699,-37.0547
-182,-727,8.90613,37.6619,0,0,0,0,0,0,0,-1,1042,1751,8.90613,-37.6619
-175,-727,8.69373,38.2047,0,0,0,0,0,0,0,-1,1049,1751,8.69378,-38.2047
-168,-727,8.73462,38.5096,-0.0161255,-0.0281438,-0.00332674,-0.0152661,-0.0290032,-0.252806,0.0167528,0.0443006,1056,1751,8.73462,-38.5096
-161,-727,8.62622,38.6709,-0.0143439,-0.0268777,-0.00301501,-0.0136563,-0.0275653,-0.224206,0.015915,0.04378,1063,1751,8.62619,-38.6709
-154,-727,8.76904,38.8374,0,0,0,0,0,0,0,-1,1070,1751,8.76907,-38.8374
-147,-727,8.71484,38.7052,-0.0106931,-0.0206795,-0.00242437,-0.0101357,-0.0212369,-0.226004,0.0122654,0.0456779,1077,1751,8.7148,-38.7052
-140,-727,8.56885,38.9977,-0.00903547,-0.0166443,-0.00196591,-0.00855756,-0.0171222,-0.238477,0.00988549,0.0302143,1084,1751,8.56881,-38.9977
-133,-727,8.64844,39.2905,-0.00718478,-0.0129257,-0.00141747,-0.00685387,-0.0132566,-0.229344,0.00765517,0.0225199,1091,1751,8.64838,-39.2905
-126,-727,8.57385,39.6382,-0.00581617,-0.00892068,-0.00109578,-0.00546837,-0.00926849,-0.307346,0.00537998,0.0161197,1098,1751,8.57387,-39.6382
-119,-727,8.54858,39.9681,-0.00471733,-0.00553203,-0.000769576,-0.00425394,-0.00599541,-0.541987,0.00356133,0.0128947,1105,1751,8.54859,-39.9681
-112,-727,8.52783,40.2131,-0.00348117,-0.0016249,-0.000225469,-0.0015979,-0.00350816,-1.45164,0.00202811,0.013817,1112,1751,8.52789,-40.2132
-105,-727,8.46387,40.4786,-0.00263468,0.00138024,0.000146785,0.0013856,-0.00264004,1.5343,0.00236152,0.0138769,1119,1751,8.46385,-40.4786
-98,-727,8.47546,40.7419,-0.00195909,0.00251861,0.000421338,0.00255792,-0.00199839,1.47779,0.00263719,0.0115241,1126,1751,8.47552,-40.7419
-91,-727,8.46484,40.9739,-0.000830279,0.00395736,0.000833382,0.00409828,-0.000971197,1.40329,0.00310693,0.0110373,1133,1751,8.46486,-40.9739
-84,-727,8.4248,41.1919,-0.000442044,0.00477337,0.00110328,0.00499716,-0.000665832,1.37067,0.00357412,0.0116145,1140,1751,8.42478,-41.192
-77,-727,8.40356,41.4282,-0.000288728,0.00458015,0.00152162,0.00501657,-0.000725147,1.29148,0.00361045,0.0123844,1147,1751,8.40353,-41.4283
-70,-727,8.401,41.657,-9.06903e-05,0.00371613,0.00138535,0.0041669,-0.000541459,1.25622,0.00297489,0.0140905,1154,1751,8.40104,-41.657
-63,-727,8.38171,41.8517,-0.000391387,0.0029103,0.000749544,0.00307249,-0.000553579,1.35769,0.00225561,0.0116615,1161,1751,8.38173,-41.8517
-56,-727,8.36328,42.035,-0.000658619,0.00222534,0.000522532,0.00231709,-0.000750375,1.39697,0.0018464,0.0110338,1168,1751,8.36326,-42.0351
-49,-727,8.34399,42.2222,-0.00138195,0.00191848,0.000492266,0.00199034,-0.0014538,1.42585,0.0019965,0.0136363,1175,1751,8.34396,-42.2221
-42,-727,8.34619,42.4094,-0.00190969,0.00143695,0.000702109,0.00157828,-0.00205102,1.37216,0.00210129,0.0167961,1182,1751,8.3462,-42.4094
-35,-727,8.34363,42.5535,-0.00209952,0.00122992,0.000553601,0.00131955,-0.00218915,1.41027,0.00204639,0.0150641,1189,1751,8.34359,-42.5534
-28,-727,8.31763,42.6827,-0.00221338,0.00111835,0.000472919,0.00118418,-0.00227921,1.43249,0.00203263,0.00881931,1196,1751,8.31762,-42.6827
-21,-727,8.30884,42.8364,-0.00222255,0.00107302,0.000492127,0.00114494,-0.00229447,1.42568,0.00202238,0.00993303,1203,1751,8.30884,-42.8365
-14,-727,8.30945,42.9589,-0.00219283,0.00109264,0.000579135,0.00119173,-0.00229193,1.40133,0.00204445,0.0116522,1210,1751,8.30947,-42.9588
-7,-727,8.30798,43.0792,-0.00215379,0.00105211,0.000676975,0.00118921,-0.00229088,1.37099,0.00204251,0.0153,1217,1751,8.30797,-43.0793
0,-727,8.30078,43.2168,-0.00193242,0.0013427,0.000890651,0.00156924,-0.00215896,1.32173,0.00216143,0.014592,1224,1751,8.30072,-43.2169
7,-727,8.30493,43.2942,-0.0016096,0.00166769,0.00109034,0.00199729,-0.0019392,1.27724,0.00227282,0.0135847,1231,1751,8.3049,-43.2942
14,-727,8.31799,43.3795,-0.001026,0.00197454,0.00122774,0.00241287,-0.00146433,1.22788,0.00226072,0.0138047,1238,1751,8.31795,-43.3796
21,-727,8.30786,43.467,-0.000292792,0.00239047,0.00138089,0.00297415,-0.000876476,1.17089,0.00233053,0.0131097,1245,1751,8.30783,-43.4671
28,-727,8.31091,43.5143,0.000381337,0.00272728,0.00142769,0.00340205,-0.000293435,1.12928,0.00237191,0.0119344,1252,1751,8.31089,-43.5143
35,-727,8.33252,43.5724,0.000998458,0.00295402,0.00147199,0.00374339,0.000209093,1.07857,0.0024289,0.0121406,1259,1751,8.33251,-43.5724
42,-727,8.30359,43.6188,0.00154809,0.00314443,0.00147236,0.00402105,0.000671468,1.03378,0.00248728,0.0131429,1266,1751,8.30357,-43.6188
49,-727,8.28174,43.651,0.00186903,0.00315221,0.0013848,0.00403682,0.000984415,1.00233,0.00243046,0.0117723,1273,1751,8.28174,-43.6511
56,-727,8.28918,43.6831,0.0021509,0.00312127,0.00130437,0.00402777,0.0012444,0.963454,0.00238134,0.00950919,1280,1751,8.28915,-43.6831
63,-727,8.31531,43.6831,0.00223508,0.00303025,0.00107118,0.00377525,0.00149008,0.963099,0.0021957,0.0111589,1287,1751,8.3153,-43.6832
70,-727,8.36133,43.6605,0.00203043,0.00280026,0.000925603,0.00341779,0.0014129,0.982446,0.0019831,0.0130829,1294,1751,8.36132,-43.6605
77,-727,8.35718,43.6506,0.0016088,0.0026355,0.000733924,0.00301779,0.00122651,1.09058,0.00175246,0.0152403,1301,1751,8.35714,-43.6506
84,-727,8.33716,43.6093,0.000932114,0.00214559,0.000400058,0.00226561,0.000812095,1.27933,0.00132541,0.0158782,1308,1751,8.33715,-43.6093
91,-727,8.33655,43.5603,0.000358234,0.00172281,3.84874e-05,0.00172389,0.000357149,1.54262,0.00105064,0.0163974,1315,1751,8.3365,-43.5604
98,-727,8.31641,43.5669,-0.000118979,0.00127489,-0.000378363,0.00137097,-0.000215062,-1.32211,0.000993459,0.0141812,1322,1751,8.31641,-43.5669
105,-727,8.31995,43.5144,-0.000558442,0.000750492,-0.000734684,0.00107994,-0.00088789,-1.14926,0.00113793,0.0130372,1329,1751,8.3199,-43.5144
112,-727,8.3429,43.4445,-0.000842564,0.000297439,-0.00108243,0.000950777,-0.0014959,-1.02775,0.00142423,0.01103,1336,1751,8.34285,-43.4445
119,-727,8.33887,43.3672,-0.00108551,-0.000118882,-0.00144996,0.000926195,-0.00213059,-0.946272,0.00180992,0.00912326,1343,1751,8.33886,-43.3672
126,-727,8.33521,43.2747,-0.00107043,-0.000540646,-0.00180352,0.00101734,-0.00262841,-0.858314,0.0021723,0.010164,1350,1751,8.3352,-43.2747
133,-727,8.34558,43.2208,-0.000827353,-0.000752537,-0.00206124,0.00127163,-0.00285152,-0.794471,0.00243806,0.0140613,1357,1751,8.34556,-43.2208
140,-727,8.36792,43.1573,-0.000600131,-0.000784699,-0.00220526,0.00151478,-0.00289961,-0.764487,0.00259011,0.0210882,1364,1751,8.36792,-43.1574
147,-727,8.3446,43.002,-0.000352021,-0.000860832,-0.00217526,0.00158366,-0.00279651,-0.727186,0.002561,0.0189702,1371,1751,8.34457,-43.0019
154,-727,8.32043,42.8173,-5.75021e-05,-0.000701604,-0.00210826,0.00175316,-0.00251227,-0.709606,0.00247561,0.0119182,1378,1751,8.32041,-42.8173
161,-727,8.32104,42.6677,8.72243e-05,-0.000565265,-0.00199942,0.00178684,-0.00226488,-0.704526,0.00234469,0.00938556,1385,1751,8.32102,-42.6678
168,-727,8.31677,42.5182,9.80526e-05,-0.000479233,-0.00172442,0.00155782,-0.001939,-0.702474,0.00202288,0.0118204,1392,1751,8.31683,-42.5182
175,-727,8.30566,42.3624,4.05631e-05,-0.000243178,-0.00159978,0.00150475,-0.00170737,-0.741173,0.00185575,0.0166771,1399,1751,8.3057,-42.3624
182,-727,8.29456,42.2002,-0.000182774,0.00018711,-0.00164641,0.00165893,-0.0016546,-0.841329,0.00191307,0.0188182,1406,1751,8.29455,-42.2002
189,-727,8.26111,42.0095,-0.00050047,0.000470199,-0.00190811,0.00195373,-0.001984,-0.909934,0.00227347,0.0115818,1413,1751,8.2611,-42.0095
196,-727,8.26245,41.8256,-0.000751613,0.00101595,-0.0018128,0.00214893,-0.00188459,-1.01221,0.00233042,0.0133736,1420,1751,8.26246,-41.8255
203,-727,8.24292,41.608,4.81363e-05,0.00215737,-0.00173686,0.00313472,-0.000929216,-1.05825,0.00245879,0.0165577,1427,1751,8.24293,-41.6081
210,-727,8.22876,41.395,0.00154049,0.0030779,-0.00223333,0.00467111,-5.27264e-05,-0.951146,0.0031318,0.0157837,1434,1751,8.2288,-41.395
217,-727,8.21814,41.1852,0.00281941,0.00338643,-0.00269758,0.00581536,0.000390484,-0.837755,0.00375352,0.0123902,1441,1751,8.21815,-41.1852
224,-727,8.19946,40.9246,0.00421952,0.00243203,-0.0033283,0.00677199,-0.00012044,-0.654228,0.00455533,0.0128693,1448,1751,8.19949,-40.9245
231,-727,8.18103,40.6957,0.00544821,0.00214029,-0.00386314,0.00799656,-0.000408062,-0.583135,0.00547213,0.00954407,1455,1751,8.18107,-40.6957
238,-727,8.15918,40.4514,0.00674113,0.00156802,-0.00436953,0.00923228,-0.000923126,-0.518158,0.0064845,0.0098601,1462,1751,8.15915,-40.4514
245,-727,8.12427,40.2126,0.00791401,0.000843075,-0.00497957,0.0104856,-0.00172847,-0.476697,0.00763205,0.0104125,1469,1751,8.12422,-40.2127
252,-727,8.09741,39.9515,0.00866353,5.34779e-05,-0.00546729,0.0113173,-0.00260027,-0.451888,0.00854453,0.0117234,1476,1751,8.09737,-39.9515
259,-727,8.09985,39.6721,0.00891278,-0.000911572,-0.00562435,0.0114681,-0.00346684,-0.426443,0.00902572,0.0150288,1483,1751,8.09981,-39.6721
266,-727,8.10364,39.4447,0.00854013,-0.00186097,-0.00544688,0.0108705,-0.0041913,-0.404264,0.0089764,0.0187096,1490,1751,8.10363,-39.4446
273,-727,8.13135,39.22,0.00772244,-0.00261381,-0.00519605,0.00988292,-0.00477429,-0.394046,0.00863198,0.0323886,1497,1751,8.1314,-39.22
280,-727,7.84497,38.9128,0,0,0,0,0,0,0,-1,1504,1751,7.84497,-38.9128
287,-727,7.71216,38.4569,0,0,0,0,0,0,0,-1,1511,1751,7.71215,-38.4569
294,-727,7.91895,37.9304,0,0,0,0,0,0,0,-1,1518,1751,7.91899,-37.9304
301,-727,7.63879,37.7285,0,0,0,0,0,0,0,-1,1525,1751,7.63877,-37.7285
308,-727,7.27625,37.7365,0,0,0,0,0,0,0,-1,1532,1751,7.27628,-37.7364
315,-727,7.14587,37.4293,0,0,0,0,0,0,0,-1,1539,1751,7.1459,-37.4293
322,-727,8.0835,36.4369,0,0,0,0,0,0,0,-1,1546,1751,8.08349,-36.4369
329,-727,5.54419,31.0325,0,0,0,0,0,0,0,-1,1553,1751,5.54425,-31.0325
336,-727,5.55823,20.2439,0,0,0,0,0,0,0,-1,1560,1751,5.55829,-20.2438
343,-727,2.41699,8.72095,0,0,0,0,0,0,0,-1,1567,1751,2.41702,-8.72098
350,-727,3.89783,7.50195,0,0,0,0,0,0,0,-1,1574,1751,3.89782,-7.50193
357,-727,4.48462,10.2948,0,0,0,0,0,0,0,-1,1581,1751,4.48464,-10.2948
364,-727,6.96729,17.2365,0,0,0,0,0,0,0,-1,1588,1751,6.96732,-17.2365
371,-727,5.04565,23.2227,0,0,0,0,0,0,0,-1,1595,1751,5.04564,-23.2227
378,-727,4.56726,23.0574,0,0,0,0,0,0,0,-1,1602,1751,4.56727,-23.0574
385,-727,3.52307,22.6431,0,0,0,0,0,0,0,-1,1609,1751,3.52303,-22.643
392,-727,0,0,0,0,0,0,0,0,0,-1,1616,1751,0,0
399,-727,0,0,0,0,0,0,0,0,0,-1,1623,1751,0,0
406,-727,0,0,0,0,0,0,0,0,0,-1,1630,1751,0,0
413,-727,0,0,0,0,0,0,0,0,0,-1,1637,1751,0,0
420,-727,0,0,0,0,0,0,0,0,0,-1,1644,1751,0,0
427,-727,0,0,0,0,0,0,0,0,0,-1,1651,1751,0,0
434,-727,0,0,0,0,0,0,0,0,0,-1,1658,1751,0,0
441,-727,0,0,0,0,0,0,0,0,0,-1,1665,1751,0,0
448,-727,0,0,0,0,0,0,0,0,0,-1,1672,1751,0,0
455,-727,0,0,0,0,0,0,0,0,0,-1,1679,1751,0,0
462,-727,0,0,0,0,0,0,0,0,0,-1,1686,1751,0,0
469,-727,0,0,0,0,0,0,0,0,0,-1,1693,1751,0,0
476,-727,0,0,0,0,0,0,0,0,0,-1,1700,1751,0,0
483,-727,0,0,0,0,0,0,0,0,0,-1,1707,1751,0,0
490,-727,0,0,0,0,0,0,0,0,0,-1,1714,1751,0,0
497,-727,0,0,0,0,0,0,0,0,0,-1,1721,1751,0,0
504,-727,0,0,0,0,0,0,0,0,0,-1,1728,1751,0,0
511,-727,0,0,0,0,0,0,0,0,0,-1,1735,1751,0,0
518,-727,0,0,0,0,0,0,0,0,0,-1,1742,1751,0,0
525,-727,0,0,0,0,0,0,0,0,0,-1,1749,1751,0,0
532,-727,0,0,0,0,0,0,0,0,0,-1,1756,1751,0,0
539,-727,0,0,0,0,0,0,0,0,0,-1,1763,1751,0,0
546,-727,0,0,0,0,0,0,0,0,0,-1,1770,1751,0,0
553,-727,0,0,0,0,0,0,0,0,0,-1,1777,1751,0,0
560,-727,0,0,0,0,0,0,0,0,0,-1,1784,1751,0,0
567,-727,0,0,0,0,0,0,0,0,0,-1,1791,1751,0,0
574,-727,0,0,0,0,0,0,0,0,0,-1,1798,1751,0,0
581,-727,0,0,0,0,0,0,0,0,0,-1,1805,1751,0,0
588,-727,0,0,0,0,0,0,0,0,0,-1,1812,1751,0,0
595,-727,0,0,0,0,0,0,0,0,0,-1,1819,1751,0,0
602,-727,0,0,0,0,0,0,0,0,0,-1,1826,1751,0,0
609,-727,0,0,0,0,0,0,0,0,0,-1,1833,1751,0,0
616,-727,0,0,0,0,0,0,0,0,0,-1,1840,1751,0,0
623,-727,0,0,0,0,0,0,0,0,0,-1,1847,1751,0,0
630,-727,0,0,0,0,0,0,0,0,0,-1,1854,1751,0,0
637,-727,0,0,0,0,0,0,0,0,0,-1,1861,1751,0,0
644,-727,0,0,0,0,0,0,0,0,0,-1,1868,1751,0,0
651,-727,0,0,0,0,0,0,0,0,0,-1,1875,1751,0,0
658,-727,0,0,0,0,0,0,0,0,0,-1,1882,1751,0,0
665,-727,0,0,0,0,0,0,0,0,0,-1,1889,1751,0,0
672,-727,0,0,0,0,0,0,0,0,0,-1,1896,1751,0,0
679,-727,0,0,0,0,0,0,0,0,0,-1,1903,1751,0,0
686,-727,0,0,0,0,0,0,0,0,0,-1,1910,1751,0,0
693,-727,0,0,0,0,0,0,0,0,0,-1,1917,1751,0,0
700,-727,0,0,0,0,0,0,0,0,0,-1,1924,1751,0,0
707,-727,0,0,0,0,0,0,0,0,0,-1,1931,1751,0,0
714,-727,0,0,0,0,0,0,0,0,0,-1,1938,1751,0,0
721,-727,0,0,0,0,0,0,0,0,0,-1,1945,1751,0,0
728,-727,0,0,0,0,0,0,0,0,0,-1,1952,1751,0,0
735,-727,0,0,0,0,0,0,0,0,0,-1,1959,1751,0,0
742,-727,0,0,0,0,0,0,0,0,0,-1,1966,1751,0,0
749,-727,0,0,0,0,0,0,0,0,0,-1,1973,1751,0,0
756,-727,0,0,0,0,0,0,0,0,0,-1,1980,1751,0,0
763,-727,0,0,0,0,0,0,0,0,0,-1,1987,1751,0,0
770,-727,0,0,0,0,0,0,0,0,0,-1,1994,1751,0,0
777,-727,0,0,0,0,0,0,0,0,0,-1,2001,1751,0,0
784,-727,0,0,0,0,0,0,0,0,0,-1,2008,1751,0,0
791,-727,0,0,0,0,0,0,0,0,0,-1,2015,1751,0,0
798,-727,0,0,0,0,0,0,0,0,0,-1,2022,1751,0,0
805,-727,0,0,0,0,0,0,0,0,0,-1,2029,1751,0,0
812,-727,0,0,0,0,0,0,0,0,0,-1,2036,1751,0,0
-700,-734,0,0,0,0,0,0,0,0,0,-1,524,1758,0,0
-693,-734,0,0,0,0,0,0,0,0,0,-1,531,1758,0,0
-686,-734,0,0,0,0,0,0,0,0,0,-1,538,1758,0,0
-679,-734,0,0,0,0,0,0,0,0,0,-1,545,1758,0,0
-672,-734,0,0,0,0,0,0,0,0,0,-1,552,1758,0,0
-665,-734,0,0,0,0,0,0,0,0,0,-1,559,1758,0,0
-658,-734,0,0,0,0,0,0,0,0,0,-1,566,1758,0,0
-651,-734,0,0,0,0,0,0,0,0,0,-1,573,1758,0,0
-644,-734,0,0,0,0,0,0,0,0,0,-1,580,1758,0,0
-637,-734,0,0,0,0,0,0,0,0,0,-1,587,1758,0,0
-630,-734,0,0,0,0,0,0,0,0,0,-1,594,1758,0,0
-623,-734,0,0,0,0,0,0,0,0,0,-1,601,1758,0,0
-616,-734,0,0,0,0,0,0,0,0,0,-1,608,1758,0,0
-609,-734,0,0,0,0,0,0,0,0,0,-1,615,1758,0,0
-602,-734,0,0,0,0,0,0,0,0,0,-1,622,1758,0,0
-595,-734,0,0,0,0,0,0,0,0,0,-1,629,1758,0,0
-588,-734,0,0,0,0,0,0,0,0,0,-1,636,1758,0,0
-581,-734,0,0,0,0,0,0,0,0,0,-1,643,1758,0,0
-574,-734,0,0,0,0,0,0,0,0,0,-1,650,1758,0,0
-567,-734,0,0,0,0,0,0,0,0,0,-1,657,1758,0,0
-560,-734,0,0,0,0,0,0,0,0,0,-1,664,1758,0,0
-553,-734,0,0,0,0,0,0,0,0,0,-1,671,1758,0,0
-546,-734,0,0,0,0,0,0,0,0,0,-1,678,1758,0,0
-539,-734,0,0,0,0,0,0,0,0,0,-1,685,1758,0,0
-532,-734,0,0,0,0,0,0,0,0,0,-1,692,1758,0,0
-525,-734,0,0,0,0,0,0,0,0,0,-1,699,1758,0,0
-518,-734,0,0,0,0,0,0,0,0,0,-1,706,1758,0,0
-511,-734,0,0,0,0,0,0,0,0,0,-1,713,1758,0,0
-504,-734,0,0,0,0,0,0,0,0,0,-1,720,1758,0,0
-497,-734,0,0,0,0,0,0,0,0,0,-1,727,1758,0,0
-490,-734,0,0,0,0,0,0,0,0,0,-1,734,1758,0,0
-483,-734,0,0,0,0,0,0,0,0,0,-1,741,1758,0,0
-476,-734,0,0,0,0,0,0,0,0,0,-1,748,1758,0,0
-469,-734,0,0,0,0,0,0,0,0,0,-1,755,1758,0,0
-462,-734,0,0,0,0,0,0,0,0,0,-1,762,1758,0,0
-455,-734,0,0,0,0,0,0,0,0,0,-1,769,1758,0,0
-448,-734,0,0,0,0,0,0,0,0,0,-1,776,1758,0,0
-441,-734,0,0,0,0,0,0,0,0,0,-1,783,1758,0,0
-434,-734,0,0,0,0,0,0,0,0,0,-1,790,1758,0,0
-427,-734,0,0,0,0,0,0,0,0,0,-1,797,1758,0,0
-420,-734,0,0,0,0,0,0,0,0,0,-1,804,1758,0,0
-413,-734,0,0,0,0,0,0,0,0,0,-1,811,1758,0,0
-406,-734,0,0,0,0,0,0,0,0,0,-1,818,1758,0,0
-399,-734,0,0,0,0,0,0,0,0,0,-1,825,1758,0,0
-392,-734,0,0,0,0,0,0,0,0,0,-1,832,1758,0,0
-385,-734,0,0,0,0,0,0,0,0,0,-1,839,1758,0,0
-378,-734,0,0,0,0,0,0,0,0,0,-1,846,1758,0,0
-371,-734,0,0,0,0,0,0,0,0,0,-1,853,1758,0,0
-364,-734,0,0,0,0,0,0,0,0,0,-1,860,1758,0,0
-357,-734,0,0,0,0,0,0,0,0,0,-1,867,1758,0,0
-350,-734,0,0,0,0,0,0,0,0,0,-1,874,1758,0,0
-343,-734,0,0,0,0,0,0,0,0,0,-1,881,1758,0,0
-336,-734,0,0,0,0,0,0,0,0,0,-1,888,1758,0,0
-329,-734,0,0,0,0,0,0,0,0,0,-1,895,1758,0,0
-322,-734,0,0,0,0,0,0,0,0,0,-1,902,1758,0,0
-315,-734,0,0,0,0,0,0,0,0,0,-1,909,1758,0,0
-308,-734,0,0,0,0,0,0,0,0,0,-1,916,1758,0,0
-301,-734,0,0,0,0,0,0,0,0,0,-1,923,1758,0,0
-294,-734,0,0,0,0,0,0,0,0,0,-1,930,1758,0,0
-287,-734,0,0,0,0,0,0,0,0,0,-1,937,1758,0,0
-280,-734,0,0,0,0,0,0,0,0,0,-1,944,1758,0,0
-273,-734,0,0,0,0,0,0,0,0,0,-1,951,1758,0,0
-266,-734,0,0,0,0,0,0,0,0,0,-1,958,1758,0,0
-259,-734,0,0,0,0,0,0,0,0,0,-1,965,1758,0,0
-252,-734,5.73883,31.5245,0,0,0,0,0,0,0,-1,972,1758,5.73884,-31.5246
-245,-734,6.32513,30.9761,0,0,0,0,0,0,0,-1,979,1758,6.32511,-30.9761
-238,-734,6.82385,30.0449,0,0,0,0,0,0,0,-1,986,1758,6.82387,-30.0449
-231,-734,7.1958,29.1666,0,0,0,0,0,0,0,-1,993,1758,7.19578,-29.1666
-224,-734,7.36169,28.5652,0,0,0,0,0,0,0,-1,1000,1758,7.36172,-28.5651
-217,-734,7.45984,28.4386,0,0,0,0,0,0,0,-1,1007,1758,7.45986,-28.4386
-210,-734,7.45483,28.4388,0,0,0,0,0,0,0,-1,1014,1758,7.45482,-28.4388
-203,-734,7.93079,29.6151,0,0,0,0,0,0,0,-1,1021,1758,7.93076,-29.6151
-196,-734,11.3601,34.9989,0,0,0,0,0,0,0,-1,1028,1758,11.3601,-34.9989
-189,-734,10.1284,35.7189,0,0,0,0,0,0,0,-1,1035,1758,10.1284,-35.7189
-182,-734,9.26428,38.1007,0,0,0,0,0,0,0,-1,1042,1758,9.26424,-38.1007
-175,-734,9.31287,38.6627,0,0,0,0,0,0,0,-1,1049,1758,9.31282,-38.6627
-168,-734,9.30127,39.1443,0,0,0,0,0,0,0,-1,1056,1758,9.30125,-39.1443
-161,-734,9.16418,39.2772,-0.0183393,-0.0392369,-0.00469528,-0.0173329,-0.0402434,-0.211161,0.0233088,0.0436198,1063,1758,9.16417,-39.2773
-154,-734,9.14697,39.9302,0,0,0,0,0,0,0,-1,1070,1758,9.14699,-39.9302
-147,-734,9.31189,39.1987,-0.0137367,-0.029052,-0.00363662,-0.012917,-0.0298716,-0.221684,0.0172988,0.0471589,1077,1758,9.31195,-39.1988
-140,-734,8.88672,39.4977,-0.0116643,-0.0230071,-0.00292959,-0.0109524,-0.0237191,-0.238402,0.0137075,0.0462523,1084,1758,8.88677,-39.4976
-133,-734,9.08423,39.4304,-0.00945053,-0.0174411,-0.00218072,-0.00889412,-0.0179975,-0.249816,0.0103911,0.041589,1091,1758,9.08424,-39.4305
-126,-734,8.79797,39.5078,-0.00771809,-0.0118232,-0.00163129,-0.0071488,-0.0123925,-0.335768,0.00718294,0.0391252,1098,1758,8.79796,-39.5078
-119,-734,8.64685,39.8861,-0.00623026,-0.00708084,-0.00112587,-0.00545204,-0.00785907,-0.60481,0.00464957,0.0415976,1105,1758,8.64688,-39.8861
-112,-734,8.65906,40.196,-0.0046278,-0.00195628,-0.000347616,-0.00191179,-0.00467229,-1.4435,0.00271234,0.0369103,1112,1758,8.65905,-40.1961
-105,-734,8.6687,40.4611,-0.00353813,0.00208047,0.000229954,0.00208986,-0.00354753,1.52996,0.00329082,0.0296918,1119,1758,8.66869,-40.461
-98,-734,8.8457,40.4829,-0.00267102,0.0036466,0.000641263,0.00371104,-0.00273545,1.47065,0.00373606,0.0496969,1126,1758,8.84567,-40.4829
-91,-734,8.70691,40.9784,0,0,0,0,0,0,0,-1,1133,1758,8.70687,-40.9784
-84,-734,8.62756,41.1715,0,0,0,0,0,0,0,-1,1140,1758,8.62761,-41.1716
-77,-734,8.59412,41.4276,0,0,0,0,0,0,0,-1,1147,1758,8.59406,-41.4276
-70,-734,8.61072,41.6691,0,0,0,0,0,0,0,-1,1154,1758,8.6107,-41.6691
-63,-734,8.51489,41.6431,-0.00107534,0.00398981,0.00093911,0.00415832,-0.00124385,1.39325,0.00326674,0.0349742,1161,1758,8.5149,-41.6431
-56,-734,8.54651,42.0203,-0.00111725,0.00347365,0.000770446,0.0035995,-0.0012431,1.40888,0.00290411,0.0158057,1168,1758,8.54655,-42.0203
-49,-734,8.50525,42.2256,-0.0021974,0.00357953,0.00128176,0.00385116,-0.00246902,1.36197,0.00367793,0.0127912,1175,1758,8.50526,-42.2256
-42,-734,8.4834,42.4117,-0.00300612,0.00310164,0.00193102,0.00366093,-0.00356541,1.28887,0.00417225,0.0141397,1182,1758,8.48341,-42.4118
-35,-734,8.49097,42.5499,-0.00336717,0.00312887,0.00211665,0.00375768,-0.00399599,1.28202,0.00447729,0.0135576,1189,1758,8.49097,-42.5499
-28,-734,8.47925,42.681,-0.00352955,0.0028638,0.00215787,0.00352396,-0.00418971,1.27391,0.00445901,0.00947951,1196,1758,8.47929,-42.6811
-21,-734,8.50574,42.8279,-0.003482,0.00253254,0.00222245,0.00326465,-0.00421411,1.25258,0.00432945,0.0149817,1203,1758,8.50576,-42.8279
-14,-734,8.43335,42.9872,-0.00345328,0.00228754,0.00232745,0.00311257,-0.00427831,1.23014,0.00428478,0.015819,1210,1758,8.43332,-42.9872
-7,-734,8.42896,43.0707,-0.00340199,0.00186751,0.00238246,0.00278495,-0.00431943,1.20322,0.00413349,0.0176738,1217,1758,8.42891,-43.0706
0,-734,8.41943,43.1819,-0.00313141,0.00187802,0.00247267,0.00289291,-0.00414631,1.18132,0.00408552,0.0166156,1224,1758,8.41949,-43.1819
7,-734,8.39697,43.3037,-0.00273231,0.00195318,0.00251352,0.00304645,-0.00382559,1.16052,0.00397606,0.0126923,1231,1758,8.39701,-43.3037
14,-734,8.37488,43.4169,-0.00223484,0.00210168,0.00240137,0.00316884,-0.003302,1.15261,0.0037362,0.0131088,1238,1758,8.3749,-43.4169
21,-734,8.34839,43.4747,-0.00168608,0.00236014,0.00223698,0.00335316,-0.0026791,1.15302,0.00348997,0.012407,1245,1758,8.34843,-43.4748
28,-734,8.35925,43.5167,-0.00119992,0.00264144,0.00204306,0.00352488,-0.00208336,1.16266,0.00327338,0.0123851,1252,1758,8.35925,-43.5168
35,-734,8.36853,43.5869,-0.000702769,0.00275255,0.00186269,0.00356545,-0.00151566,1.1593,0.0030121,0.0143199,1259,1758,8.36851,-43.5869
42,-734,8.35791,43.6215,-0.000290432,0.00286366,0.00168419,0.0035939,-0.00102067,1.16168,0.0027989,0.0125136,1266,1758,8.35788,-43.6214
49,-734,8.31641,43.6549,-0.000186041,0.00272533,0.00143785,0.00331572,-0.000776429,1.18118,0.00250965,0.0106275,1273,1758,8.31642,-43.6549
56,-734,8.31372,43.6753,-3.01295e-05,0.00257374,0.00122137,0.00305696,-0.000513349,1.19406,0.00222888,0.00909181,1280,1758,8.31378,-43.6752
63,-734,8.32129,43.6727,-2.14087e-05,0.00235359,0.000896707,0.00265412,-0.000321941,1.24741,0.00188591,0.0113912,1287,1758,8.3213,-43.6728
70,-734,8.31396,43.6815,-0.000184103,0.00203705,0.000725856,0.00225322,-0.00040027,1.28135,0.00165181,0.0125557,1294,1758,8.31399,-43.6815
77,-734,8.31226,43.682,-0.000487557,0.00163714,0.000606543,0.00179809,-0.000648515,1.3114,0.0014636,0.0176888,1301,1758,8.31226,-43.682
84,-734,8.30847,43.6316,-0.000980574,0.00102126,0.000446308,0.00111625,-0.00107557,1.36108,0.00126552,0.0164541,1308,1758,8.3085,-43.6316
91,-734,8.31921,43.5863,-0.00128949,0.000432157,0.000183282,0.000451453,-0.00130879,1.46591,0.00105569,0.0167785,1315,1758,8.31921,-43.5863
98,-734,8.29907,43.5862,-0.00146012,-8.1052e-05,-0.00017327,-5.96149e-05,-0.00148156,-1.4477,0.000968445,0.0133445,1322,1758,8.29903,-43.5862
105,-734,8.29626,43.5289,-0.00164625,-0.000724393,-0.000482076,-0.000518349,-0.00185229,-1.16689,0.00110344,0.014299,1329,1758,8.29622,-43.529
112,-734,8.29358,43.4344,-0.0017176,-0.00121442,-0.000856905,-0.000572933,-0.00235908,-0.928188,0.00142079,0.0131411,1336,1758,8.29362,-43.4344
119,-734,8.25708,43.3419,-0.00164179,-0.00161482,-0.00126504,-0.000363197,-0.00289342,-0.790728,0.00182,0.0147514,1343,1758,8.25702,-43.342
126,-734,8.25464,43.2631,-0.00136808,-0.00186835,-0.00171234,0.000112297,-0.00334873,-0.712872,0.00227084,0.0160136,1350,1758,8.25469,-43.263
133,-734,8.23254,43.1702,-0.00101993,-0.00194037,-0.00225913,0.000825383,-0.00378568,-0.684916,0.00283919,0.0138606,1357,1758,8.23254,-43.1702
140,-734,8.24475,43.1045,-0.000823997,-0.00168409,-0.00269771,0.00147773,-0.00398582,-0.706358,0.00326329,0.0184203,1364,1758,8.2448,-43.1045
147,-734,8.22791,42.9425,-0.000638667,-0.00153335,-0.00291228,0.00186043,-0.00403244,-0.709192,0.00347843,0.0141184,1371,1758,8.22792,-42.9425
154,-734,8.20862,42.8229,-0.000427256,-0.00123883,-0.00313145,0.00232459,-0.00399067,-0.720965,0.00368817,0.00985769,1378,1758,8.2086,-42.8228
161,-734,8.19702,42.6758,-0.000510364,-0.0011947,-0.00328891,0.00245413,-0.00415919,-0.733567,0.00386027,0.00901827,1385,1758,8.19702,-42.6757
168,-734,8.14832,42.522,-0.000760689,-0.0012158,-0.00311628,0.00213633,-0.00411282,-0.748952,0.00366761,0.0151905,1392,1758,8.14837,-42.522
175,-734,8.12158,42.3738,-0.000959978,-0.000987165,-0.00314517,0.00217163,-0.00411877,-0.783237,0.0036893,0.0185667,1399,1758,8.12161,-42.3737
182,-734,8.14233,42.1801,-0.00121652,-0.000541265,-0.0032436,0.00238223,-0.00414001,-0.837257,0.00381093,0.0153958,1406,1758,8.14239,-42.18
189,-734,8.10889,41.9979,-0.00140455,-0.000125228,-0.0034059,0.00270056,-0.00423034,-0.878222,0.00403391,0.0106828,1413,1758,8.10888,-41.9979
196,-734,8.08362,41.8341,-0.00156649,0.00080589,-0.00288916,0.00274288,-0.00350348,-0.980189,0.00361524,0.0134277,1420,1758,8.08367,-41.8341
203,-734,8.104,41.5797,-0.000227259,0.00263007,-0.00241534,0.00400764,-0.00160483,-1.05247,0.00333788,0.0203194,1427,1758,8.10401,-41.5797
210,-734,8.08801,41.3475,0.00210724,0.00405158,-0.00309419,0.00632273,-0.000163907,-0.937611,0.00427084,0.0328501,1434,1758,8.08798,-41.3475
217,-734,8.01929,41.1853,0,0,0,0,0,0,0,-1,1441,1758,8.01931,-41.1853
224,-734,7.97156,40.9554,0,0,0,0,0,0,0,-1,1448,1758,7.97161,-40.9554
231,-734,7.9137,40.702,0,0,0,0,0,0,0,-1,1455,1758,7.91372,-40.702
238,-734,7.87744,40.3579,0.0100949,0.0023448,-0.00580881,0.0132025,-0.000762874,-0.491248,0.00906669,0.037466,1462,1758,7.87749,-40.3579
245,-734,7.93518,40.134,0.0118915,0.00134911,-0.0066071,0.0150725,-0.00183187,-0.448697,0.0107113,0.0283965,1469,1758,7.93517,-40.1341
252,-734,8.00439,39.8506,0.0131703,0.000175917,-0.00729072,0.0164387,-0.00309256,-0.421445,0.0121222,0.03097,1476,1758,8.00438,-39.8506
259,-734,8.24768,39.6907,0.013796,-0.0012644,-0.00759163,0.0169587,-0.00442703,-0.39473,0.0130345,0.0360537,1483,1758,8.24773,-39.6907
266,-734,8.36255,39.5896,0.0136009,-0.00273305,-0.00746572,0.016499,-0.00563118,-0.370286,0.0132805,0.0410491,1490,1758,8.36261,-39.5896
273,-734,8.61987,39.9115,0.0127153,-0.00397474,-0.00719471,0.0153886,-0.00664803,-0.355754,0.0130522,0.0471911,1497,1758,8.61991,-39.9115
280,-734,8.82654,40.1428,0,0,0,0,0,0,0,-1,1504,1758,8.82648,-40.1428
287,-734,7.20337,38.5437,0,0,0,0,0,0,0,-1,1511,1758,7.20342,-38.5437
294,-734,7.03406,36.0077,0,0,0,0,0,0,0,-1,1518,1758,7.03407,-36.0077
301,-734,6.88904,37.8728,0,0,0,0,0,0,0,-1,1525,1758,6.88907,-37.8729
308,-734,7.32117,36.5299,0,0,0,0,0,0,0,-1,1532,1758,7.32111,-36.5299
315,-734,7.57275,36.9519,0,0,0,0,0,0,0,-1,1539,1758,7.57281,-36.9519
322,-734,6.86511,33.9312,0,0,0,0,0,0,0,-1,1546,1758,6.86512,-33.9312
329,-734,5.73267,19.656,0,0,0,0,0,0,0,-1,1553,1758,5.73262,-19.656
336,-734,6.71375,23.7469,0,0,0,0,0,0,0,-1,1560,1758,6.71372,-23.7469
343,-734,5.54968,5.14221,0,0,0,0,0,0,0,-1,1567,1758,5.54973,-5.14225
350,-734,5.07397,6.73242,0,0,0,0,0,0,0,-1,1574,1758,5.07402,-6.73243
357,-734,5.05542,7.19189,0,0,0,0,0,0,0,-1,1581,1758,5.05541,-7.19184
364,-734,4.43896,10.4904,0,0,0,0,0,0,0,-1,1588,1758,4.43893,-10.4904
371,-734,7.36975,17.4751,0,0,0,0,0,0,0,-1,1595,1758,7.36972,-17.4752
378,-734,0,0,0,0,0,0,0,0,0,-1,1602,1758,0,0
385,-734,0,0,0,0,0,0,0,0,0,-1,1609,1758,0,0
392,-734,0,0,0,0,0,0,0,0,0,-1,1616,1758,0,0
399,-734,0,0,0,0,0,0,0,0,0,-1,1623,1758,0,0
406,-734,0,0,0,0,0,0,0,0,0,-1,1630,1758,0,0
413,-734,0,0,0,0,0,0,0,0,0,-1,1637,1758,0,0
420,-734,0,0,0,0,0,0,0,0,0,-1,1644,1758,0,0
427,-734,0,0,0,0,0,0,0,0,0,-1,1651,1758,0,0
434,-734,0,0,0,0,0,0,0,0,0,-1,1658,1758,0,0
441,-734,0,0,0,0,0,0,0,0,0,-1,1665,1758,0,0
448,-734,0,0,0,0,0,0,0,0,0,-1,1672,1758,0,0
455,-734,0,0,0,0,0,0,0,0,0,-1,1679,1758,0,0
462,-734,0,0,0,0,0,0,0,0,0,-1,1686,1758,0,0
469,-734,0,0,0,0,0,0,0,0,0,-1,1693,1758,0,0
476,-734,0,0,0,0,0,0,0,0,0,-1,1700,1758,0,0
483,-734,0,0,0,0,0,0,0,0,0,-1,1707,1758,0,0
490,-734,0,0,0,0,0,0,0,0,0,-1,1714,1758,0,0
497,-734,0,0,0,0,0,0,0,0,0,-1,1721,1758,0,0
504,-734,0,0,0,0,0,0,0,0,0,-1,1728,1758,0,0
511,-734,0,0,0,0,0,0,0,0,0,-1,1735,1758,0,0
518,-734,0,0,0,0,0,0,0,0,0,-1,1742,1758,0,0
525,-734,0,0,0,0,0,0,0,0,0,-1,1749,1758,0,0
532,-734,0,0,0,0,0,0,0,0,0,-1,1756,1758,0,0
539,-734,0,0,0,0,0,0,0,0,0,-1,1763,1758,0,0
546,-734,0,0,0,0,0,0,0,0,0,-1,1770,1758,0,0
553,-734,0,0,0,0,0,0,0,0,0,-1,1777,1758,0,0
560,-734,0,0,0,0,0,0,0,0,0,-1,1784,1758,0,0
567,-734,0,0,0,0,0,0,0,0,0,-1,1791,1758,0,0
574,-734,0,0,0,0,0,0,0,0,0,-1,1798,1758,0,0
581,-734,0,0,0,0,0,0,0,0,0,-1,1805,1758,0,0
588,-734,0,0,0,0,0,0,0,0,0,-1,1812,1758,0,0
595,-734,0,0,0,0,0,0,0,0,0,-1,1819,1758,0,0
602,-734,0,0,0,0,0,0,0,0,0,-1,1826,1758,0,0
609,-734,0,0,0,0,0,0,0,0,0,-1,1833,1758,0,0
616,-734,0,0,0,0,0,0,0,0,0,-1,1840,1758,0,0
623,-734,0,0,0,0,0,0,0,0,0,-1,1847,1758,0,0
630,-734,0,0,0,0,0,0,0,0,0,-1,1854,1758,0,0
637,-734,0,0,0,0,0,0,0,0,0,-1,1861,1758,0,0
644,-734,0,0,0,0,0,0,0,0,0,-1,1868,1758,0,0
651,-734,0,0,0,0,0,0,0,0,0,-1,1875,1758,0,0
658,-734,0,0,0,0,0,0,0,0,0,-1,1882,1758,0,0
665,-734,0,0,0,0,0,0,0,0,0,-1,1889,1758,0,0
672,-734,0,0,0,0,0,0,0,0,0,-1,1896,1758,0,0
679,-734,0,0,0,0,0,0,0,0,0,-1,1903,1758,0,0
686,-734,0,0,0,0,0,0,0,0,0,-1,1910,1758,0,0
693,-734,0,0,0,0,0,0,0,0,0,-1,1917,1758,0,0
700,-734,0,0,0,0,0,0,0,0,0,-1,1924,1758,0,0
707,-734,0,0,0,0,0,0,0,0,0,-1,1931,1758,0,0
714,-734,0,0,0,0,0,0,0,0,0,-1,1938,1758,0,0
721,-734,0,0,0,0,0,0,0,0,0,-1,1945,1758,0,0
728,-734,0,0,0,0,0,0,0,0,0,-1,1952,1758,0,0
735,-734,0,0,0,0,0,0,0,0,0,-1,1959,1758,0,0
742,-734,0,0,0,0,0,0,0,0,0,-1,1966,1758,0,0
749,-734,0,0,0,0,0,0,0,0,0,-1,1973,1758,0,0
756,-734,0,0,0,0,0,0,0,0,0,-1,1980,1758,0,0
763,-734,0,0,0,0,0,0,0,0,0,-1,1987,1758,0,0
770,-734,0,0,0,0,0,0,0,0,0,-1,1994,1758,0,0
777,-734,0,0,0,0,0,0,0,0,0,-1,2001,1758,0,0
784,-734,0,0,0,0,0,0,0,0,0,-1,2008,1758,0,0
791,-734,0,0,0,0,0,0,0,0,0,-1,2015,1758,0,0
798,-734,0,0,0,0,0,0,0,0,0,-1,2022,1758,0,0
805,-734,0,0,0,0,0,0,0,0,0,-1,2029,1758,0,0
812,-734,0,0,0,0,0,0,0,0,0,-1,2036,1758,0,0
-700,-741,0,0,0,0,0,0,0,0,0,-1,524,1765,0,0
-693,-741,0,0,0,0,0,0,0,0,0,-1,531,1765,0,0
-686,-741,0,0,0,0,0,0,0,0,0,-1,538,1765,0,0
-679,-741,0,0,0,0,0,0,0,0,0,-1,545,1765,0,0
-672,-741,0,0,0,0,0,0,0,0,0,-1,552,1765,0,0
-665,-741,0,0,0,0,0,0,0,0,0,-1,559,1765,0,0
-658,-741,0,0,0,0,0,0,0,0,0,-1,566,1765,0,0
-651,-741,0,0,0,0,0,0,0,0,0,-1,573,1765,0,0
-644,-741,0,0,0,0,0,0,0,0,0,-1,580,1765,0,0
-637,-741,0,0,0,0,0,0,0,0,0,-1,587,1765,0,0
-630,-741,0,0,0,0,0,0,0,0,0,-1,594,1765,0,0
-623,-741,0,0,0,0,0,0,0,0,0,-1,601,1765,0,0
-616,-741,0,0,0,0,0,0,0,0,0,-1,608,1765,0,0
-609,-741,0,0,0,0,0,0,0,0,0,-1,615,1765,0,0
-602,-741,0,0,0,0,0,0,0,0,0,-1,622,1765,0,0
-595,-741,0,0,0,0,0,0,0,0,0,-1,629,1765,0,0
-588,-741,0,0,0,0,0,0,0,0,0,-1,636,1765,0,0
-581,-741,0,0,0,0,0,0,0,0,0,-1,643,1765,0,0
-574,-741,0,0,0,0,0,0,0,0,0,-1,650,1765,0,0
-567,-741,0,0,0,0,0,0,0,0,0,-1,657,1765,0,0
-560,-741,0,0,0,0,0,0,0,0,0,-1,664,1765,0,0
-553,-741,0,0,0,0,0,0,0,0,0,-1,671,1765,0,0
-546,-741,0,0,0,0,0,0,0,0,0,-1,678,1765,0,0
-539,-741,0,0,0,0,0,0,0,0,0,-1,685,1765,0,0
-532,-741,0,0,0,0,0,0,0,0,0,-1,692,1765,0,0
-525,-741,0,0,0,0,0,0,0,0,0,-1,699,1765,0,0
-518,-741,0,0,0,0,0,0,0,0,0,-1,706,1765,0,0
-511,-741,0,0,0,0,0,0,0,0,0,-1,713,1765,0,0
-504,-741,0,0,0,0,0,0,0,0,0,-1,720,1765,0,0
-497,-741,0,0,0,0,0,0,0,0,0,-1,727,1765,0,0
-490,-741,0,0,0,0,0,0,0,0,0,-1,734,1765,0,0
-483,-741,0,0,0,0,0,0,0,0,0,-1,741,1765,0,0
-476,-741,0,0,0,0,0,0,0,0,0,-1,748,1765,0,0
-469,-741,0,0,0,0,0,0,0,0,0,-1,755,1765,0,0
-462,-741,0,0,0,0,0,0,0,0,0,-1,762,1765,0,0
-455,-741,0,0,0,0,0,0,0,0,0,-1,769,1765,0,0
-448,-741,0,0,0,0,0,0,0,0,0,-1,776,1765,0,0
-441,-741,0,0,0,0,0,0,0,0,0,-1,783,1765,0,0
-434,-741,0,0,0,0,0,0,0,0,0,-1,790,1765,0,0
-427,-741,0,0,0,0,0,0,0,0,0,-1,797,1765,0,0
-420,-741,0,0,0,0,0,0,0,0,0,-1,804,1765,0,0
-413,-741,0,0,0,0,0,0,0,0,0,-1,811,1765,0,0
-406,-741,0,0,0,0,0,0,0,0,0,-1,818,1765,0,0
-399,-741,0,0,0,0,0,0,0,0,0,-1,825,1765,0,0
-392,-741,0,0,0,0,0,0,0,0,0,-1,832,1765,0,0
-385,-741,0,0,0,0,0,0,0,0,0,-1,839,1765,0,0
-378,-741,0,0,0,0,0,0,0,0,0,-1,846,1765,0,0
-371,-741,0,0,0,0,0,0,0,0,0,-1,853,1765,0,0
-364,-741,0,0,0,0,0,0,0,0,0,-1,860,1765,0,0
-357,-741,0,0,0,0,0,0,0,0,0,-1,867,1765,0,0
-350,-741,0,0,0,0,0,0,0,0,0,-1,874,1765,0,0
-343,-741,0,0,0,0,0,0,0,0,0,-1,881,1765,0,0
-336,-741,0,0,0,0,0,0,0,0,0,-1,888,1765,0,0
-329,-741,0,0,0,0,0,0,0,0,0,-1,895,1765,0,0
-322,-741,0,0,0,0,0,0,0,0,0,-1,902,1765,0,0
-315,-741,0,0,0,0,0,0,0,0,0,-1,909,1765,0,0
-308,-741,0,0,0,0,0,0,0,0,0,-1,916,1765,0,0
-301,-741,0,0,0,0,0,0,0,0,0,-1,923,1765,0,0
-294,-741,0,0,0,0,0,0,0,0,0,-1,930,1765,0,0
-287,-741,0,0,0,0,0,0,0,0,0,-1,937,1765,0,0
-280,-741,0,0,0,0,0,0,0,0,0,-1,944,1765,0,0
-273,-741,0,0,0,0,0,0,0,0,0,-1,951,1765,0,0
-266,-741,0,0,0,0,0,0,0,0,0,-1,958,1765,0,0
-259,-741,0,0,0,0,0,0,0,0,0,-1,965,1765,0,0
-252,-741,0,0,0,0,0,0,0,0,0,-1,972,1765,0,0
-245,-741,0,0,0,0,0,0,0,0,0,-1,979,1765,0,0
-238,-741,7.13855,29.8348,0,0,0,0,0,0,0,-1,986,1765,7.13856,-29.8348
-231,-741,7.74182,29.3066,0,0,0,0,0,0,0,-1,993,1765,7.74183,-29.3066
-224,-741,7.80078,29.0964,0,0,0,0,0,0,0,-1,1000,1765,7.80079,-29.0964
-217,-741,8.15863,29.113,0,0,0,0,0,0,0,-1,1007,1765,8.15863,-29.1131
-210,-741,8.37024,29.3896,0,0,0,0,0,0,0,-1,1014,1765,8.37022,-29.3896
-203,-741,8.33801,29.8871,0,0,0,0,0,0,0,-1,1021,1765,8.33805,-29.8871
-196,-741,8.75513,30.84,0,0,0,0,0,0,0,-1,1028,1765,8.75516,-30.8399
-189,-741,9.16321,31.9888,0,0,0,0,0,0,0,-1,1035,1765,9.16327,-31.9888
-182,-741,9.71594,33.2998,0,0,0,0,0,0,0,-1,1042,1765,9.71593,-33.2998
-175,-741,9.8988,37.3856,0,0,0,0,0,0,0,-1,1049,1765,9.89882,-37.3856
-168,-741,11.0741,37.8002,0,0,0,0,0,0,0,-1,1056,1765,11.074,-37.8001
-161,-741,9.60486,39.6904,0,0,0,0,0,0,0,-1,1063,1765,9.60487,-39.6904
-154,-741,9.98682,41.594,0,0,0,0,0,0,0,-1,1070,1765,9.98681,-41.594
-147,-741,9.6543,39.9635,0,0,0,0,0,0,0,-1,1077,1765,9.65434,-39.9635
-140,-741,9.26526,40.0435,0,0,0,0,0,0,0,-1,1084,1765,9.26523,-40.0434
-133,-741,9.64978,39.7648,0,0,0,0,0,0,0,-1,1091,1765,9.64975,-39.7648
-126,-741,9.06604,39.4988,0,0,0,0,0,0,0,-1,1098,1765,9.06604,-39.4987
-119,-741,8.73071,39.8402,0,0,0,0,0,0,0,-1,1105,1765,8.73073,-39.8402
-112,-741,8.75415,40.1472,0,0,0,0,0,0,0,-1,1112,1765,8.75411,-40.1472
-105,-741,8.93567,40.3621,0,0,0,0,0,0,0,-1,1119,1765,8.93565,-40.362
-98,-741,9.19971,40.25,0,0,0,0,0,0,0,-1,1126,1765,9.19971,-40.25
-91,-741,8.40002,36.3687,0,0,0,0,0,0,0,-1,1133,1765,8.40002,-36.3687
-84,-741,7.8877,35.0892,0,0,0,0,0,0,0,-1,1140,1765,7.88776,-35.0892
-77,-741,7.73303,34.1174,0,0,0,0,0,0,0,-1,1147,1765,7.73304,-34.1174
-70,-741,7.5437,32.0275,0,0,0,0,0,0,0,-1,1154,1765,7.5437,-32.0275
-63,-741,8.47717,41.2838,0,0,0,0,0,0,0,-1,1161,1765,8.47717,-41.2839
-56,-741,8.74426,41.9922,0,0,0,0,0,0,0,-1,1168,1765,8.7443,-41.9922
-49,-741,8.68933,42.2732,0,0,0,0,0,0,0,-1,1175,1765,8.68933,-42.2732
-42,-741,8.60876,42.4257,0,0,0,0,0,0,0,-1,1182,1765,8.60882,-42.4257
-35,-741,8.62866,42.5393,-0.00361753,0.00519066,0.00422862,0.00689208,-0.00531895,1.18826,0.00706951,0.0245291,1189,1765,8.62869,-42.5394
-28,-741,8.62244,42.701,-0.00385215,0.00453349,0.00426458,0.00632117,-0.00563984,1.17385,0.00690942,0.0145729,1196,1765,8.62244,-42.7011
-21,-741,8.62036,42.8427,-0.00383723,0.00391732,0.00429342,0.00582509,-0.005745,1.15265,0.00668005,0.0181566,1203,1765,8.6204,-42.8427
-14,-741,8.56702,42.978,-0.00390948,0.00342312,0.00434731,0.00544372,-0.00593009,1.13571,0.00656867,0.0185053,1210,1765,8.56699,-42.978
-7,-741,8.54858,43.0583,-0.00395288,0.0026842,0.00432138,0.00481424,-0.00608292,1.11284,0.00630568,0.0156987,1217,1765,8.54854,-43.0583
0,-741,8.51636,43.1528,-0.00373873,0.00245828,0.00428784,0.00464998,-0.00593043,1.09827,0.0061235,0.0152429,1224,1765,8.51636,-43.1529
7,-741,8.46313,43.2932,-0.0033571,0.00233691,0.00418214,0.00454912,-0.00556932,1.08424,0.00585178,0.0171854,1231,1765,8.46317,-43.2933
14,-741,8.44922,43.3992,-0.00290884,0.002383,0.00385729,0.00441464,-0.00494048,1.08602,0.00540402,0.0164707,1238,1765,8.44923,-43.3992
21,-741,8.42029,43.465,-0.00247163,0.00255965,0.00343435,0.00430114,-0.00421312,1.1015,0.0049158,0.0137041,1245,1765,8.42025,-43.4649
28,-741,8.40564,43.5358,-0.0021143,0.00286578,0.00302013,0.00429001,-0.00353852,1.13014,0.00452674,0.0147237,1252,1765,8.40563,-43.5357
35,-741,8.40381,43.5762,-0.00172177,0.00293744,0.0026159,0.00411069,-0.00289502,1.14918,0.004065,0.0150741,1259,1765,8.40386,-43.5761
42,-741,8.38379,43.6034,-0.00143114,0.00300544,0.00216898,0.00388962,-0.00231531,1.18372,0.00362065,0.0146282,1266,1765,8.38381,-43.6034
49,-741,8.34949,43.6423,-0.00154307,0.00272829,0.00162668,0.00327723,-0.00209202,1.24533,0.00312501,0.0097757,1273,1765,8.34951,-43.6424
56,-741,8.32996,43.6682,-0.00150377,0.00247808,0.0011876,0.00280538,-0.00183107,1.30187,0.00269649,0.00963464,1280,1765,8.32996,-43.6682
63,-741,8.30237,43.6779,-0.00158563,0.00226545,0.000628815,0.00236552,-0.0016857,1.41297,0.00234993,0.0141329,1287,1765,8.30242,-43.6778
70,-741,8.28699,43.688,-0.00178907,0.00178846,0.000282704,0.00181066,-0.00181127,1.49242,0.00209112,0.0163406,1294,1765,8.28697,-43.688
77,-741,8.26831,43.7041,-0.00214212,0.00121787,4.57159e-05,0.00121849,-0.00214274,1.55719,0.00196491,0.0137546,1301,1765,8.26835,-43.7041
84,-741,8.26001,43.6743,-0.00264908,0.000483873,-0.000152558,0.000491285,-0.00265649,-1.52225,0.00195544,0.0159442,1308,1765,8.25996,-43.6743
91,-741,8.23779,43.6364,-0.00288595,-0.000337161,-0.000521132,-0.000234726,-0.00298838,-1.37671,0.00191881,0.0126732,1315,1765,8.23777,-43.6364
98,-741,8.22803,43.5768,-0.00294076,-0.00101307,-0.00100534,-0.000584181,-0.00336965,-1.16756,0.00207925,0.00989659,1322,1765,8.22809,-43.5768
105,-741,8.23511,43.5057,-0.00305113,-0.0018544,-0.00140359,-0.000926951,-0.00397858,-0.986887,0.00240373,0.0102899,1329,1765,8.23514,-43.5058
112,-741,8.23364,43.4258,-0.00306517,-0.0024834,-0.00190367,-0.000848525,-0.00470005,-0.861213,0.00289232,0.0113347,1336,1765,8.23364,-43.4258
119,-741,8.18738,43.3263,-0.0028882,-0.00301281,-0.00244633,-0.000503385,-0.00539763,-0.772667,0.00344291,0.0147131,1343,1765,8.18743,-43.3263
126,-741,8.17065,43.26,-0.00247727,-0.0032723,-0.00307141,0.000222241,-0.00597181,-0.721044,0.00405732,0.0177529,1350,1765,8.17069,-43.26
133,-741,8.1521,43.156,-0.00200691,-0.00336842,-0.00389624,0.00126759,-0.00664292,-0.69891,0.00490604,0.0140129,1357,1765,8.15214,-43.156
140,-741,8.12097,43.0323,-0.0017782,-0.00288633,-0.00457236,0.00227354,-0.00693807,-0.725104,0.00554095,0.0110306,1364,1765,8.12092,-43.0323
147,-741,8.11182,42.9224,-0.00155431,-0.00248415,-0.00477398,0.00277733,-0.00681579,-0.736858,0.00569984,0.0101434,1371,1765,8.11176,-42.9224
154,-741,8.0918,42.8197,-0.00123824,-0.00199022,-0.00498905,0.00338897,-0.00661743,-0.747788,0.00587657,0.00864924,1378,1765,8.09185,-42.8197
161,-741,8.06616,42.6777,-0.00137174,-0.00204246,-0.0052999,0.0036034,-0.0070176,-0.753802,0.00623675,0.010651,1385,1765,8.06616,-42.6778
168,-741,8.05151,42.5281,-0.00175477,-0.002167,-0.00501516,0.0030585,-0.00698028,-0.764861,0.00594149,0.0262881,1392,1765,8.05147,-42.5281
175,-741,7.92249,42.3811,0,0,0,0,0,0,0,-1,1399,1765,7.92247,-42.3811
182,-741,7.9906,42.1829,0,0,0,0,0,0,0,-1,1406,1765,7.99059,-42.1829
189,-741,7.95422,42.0441,0,0,0,0,0,0,0,-1,1413,1765,7.95417,-42.044
196,-741,7.91809,41.8392,0,0,0,0,0,0,0,-1,1420,1765,7.91805,-41.8392
203,-741,7.92236,41.4994,0,0,0,0,0,0,0,-1,1427,1765,7.9224,-41.4994
210,-741,7.8866,41.0872,0,0,0,0,0,0,0,-1,1434,1765,7.88658,-41.0872
217,-741,8.4032,40.1213,0,0,0,0,0,0,0,-1,1441,1765,8.40325,-40.1214
224,-741,8.0719,38.4249,0,0,0,0,0,0,0,-1,1448,1765,8.07187,-38.4249
231,-741,7.95923,39.0671,0,0,0,0,0,0,0,-1,1455,1765,7.9592,-39.0671
238,-741,7.61584,40.2395,0,0,0,0,0,0,0,-1,1462,1765,7.61578,-40.2396
245,-741,7.7677,39.9451,0,0,0,0,0,0,0,-1,1469,1765,7.76769,-39.9451
252,-741,7.99072,39.6187,0.020059,0.000738008,-0.00946113,0.0239203,-0.00312326,-0.387486,0.0170834,0.0473755,1476,1765,7.99076,-39.6186
259,-741,8.40662,39.6139,0.0213519,-0.00142543,-0.0100048,0.0251223,-0.00519584,-0.3604,0.0187221,0.0466381,1483,1765,8.40666,-39.6139
266,-741,8.57166,39.8148,0,0,0,0,0,0,0,-1,1490,1765,8.57162,-39.8149
273,-741,8.81555,40.4974,0,0,0,0,0,0,0,-1,1497,1765,8.81559,-40.4975
280,-741,8.22986,40.8604,0,0,0,0,0,0,0,-1,1504,1765,8.22988,-40.8604
287,-741,7.92236,41.7656,0,0,0,0,0,0,0,-1,1511,1765,7.92231,-41.7656
294,-741,6.55676,41.248,0,0,0,0,0,0,0,-1,1518,1765,6.55675,-41.248
301,-741,6.20667,38.5165,0,0,0,0,0,0,0,-1,1525,1765,6.20667,-38.5165
308,-741,6.65088,37.1075,0,0,0,0,0,0,0,-1,1532,1765,6.65087,-37.1076
315,-741,7.18262,35.4949,0,0,0,0,0,0,0,-1,1539,1765,7.1826,-35.4949
322,-741,9.33398,28.4247,0,0,0,0,0,0,0,-1,1546,1765,9.33399,-28.4247
329,-741,4.74414,17.928,0,0,0,0,0,0,0,-1,1553,1765,4.74414,-17.928
336,-741,5.74304,22.0945,0,0,0,0,0,0,0,-1,1560,1765,5.74306,-22.0945
343,-741,7.09888,26.501,0,0,0,0,0,0,0,-1,1567,1765,7.09885,-26.501
350,-741,4.90369,5.44666,0,0,0,0,0,0,0,-1,1574,1765,4.90368,-5.44664
357,-741,4.02063,5.16626,0,0,0,0,0,0,0,-1,1581,1765,4.02058,-5.1662
364,-741,0,0,0,0,0,0,0,0,0,-1,1588,1765,0,0
371,-741,0,0,0,0,0,0,0,0,0,-1,1595,1765,0,0
378,-741,0,0,0,0,0,0,0,0,0,-1,1602,1765,0,0
385,-741,0,0,0,0,0,0,0,0,0,-1,1609,1765,0,0
392,-741,0,0,0,0,0,0,0,0,0,-1,1616,1765,0,0
399,-741,0,0,0,0,0,0,0,0,0,-1,1623,1765,0,0
406,-741,0,0,0,0,0,0,0,0,0,-1,1630,1765,0,0
413,-741,0,0,0,0,0,0,0,0,0,-1,1637,1765,0,0
420,-741,0,0,0,0,0,0,0,0,0,-1,1644,1765,0,0
427,-741,0,0,0,0,0,0,0,0,0,-1,1651,1765,0,0
434,-741,0,0,0,0,0,0,0,0,0,-1,1658,1765,0,0
441,-741,0,0,0,0,0,0,0,0,0,-1,1665,1765,0,0
448,-741,0,0,0,0,0,0,0,0,0,-1,1672,1765,0,0
455,-741,0,0,0,0,0,0,0,0,0,-1,1679,1765,0,0
462,-741,0,0,0,0,0,0,0,0,0,-1,1686,1765,0,0
469,-741,0,0,0,0,0,0,0,0,0,-1,1693,1765,0,0
476,-741,0,0,0,0,0,0,0,0,0,-1,1700,1765,0,0
483,-741,0,0,0,0,0,0,0,0,0,-1,1707,1765,0,0
490,-741,0,0,0,0,0,0,0,0,0,-1,1714,1765,0,0
497,-741,0,0,0,0,0,0,0,0,0,-1,1721,1765,0,0
504,-741,0,0,0,0,0,0,0,0,0,-1,1728,1765,0,0
511,-741,0,0,0,0,0,0,0,0,0,-1,1735,1765,0,0
518,-741,0,0,0,0,0,0,0,0,0,-1,1742,1765,0,0
525,-741,0,0,0,0,0,0,0,0,0,-1,1749,1765,0,0
532,-741,0,0,0,0,0,0,0,0,0,-1,1756,1765,0,0
539,-741,0,0,0,0,0,0,0,0,0,-1,1763,1765,0,0
546,-741,0,0,0,0,0,0,0,0,0,-1,1770,1765,0,0
553,-741,0,0,0,0,0,0,0,0,0,-1,1777,1765,0,0
560,-741,0,0,0,0,0,0,0,0,0,-1,1784,1765,0,0
567,-741,0,0,0,0,0,0,0,0,0,-1,1791,1765,0,0
574,-741,0,0,0,0,0,0,0,0,0,-1,1798,1765,0,0
581,-741,0,0,0,0,0,0,0,0,0,-1,1805,1765,0,0
588,-741,0,0,0,0,0,0,0,0,0,-1,1812,1765,0,0
595,-741,0,0,0,0,0,0,0,0,0,-1,1819,1765,0,0
602,-741,0,0,0,0,0,0,0,0,0,-1,1826,1765,0,0
609,-741,0,0,0,0,0,0,0,0,0,-1,1833,1765,0,0
616,-741,0,0,0,0,0,0,0,0,0,-1,1840,1765,0,0
623,-741,0,0,0,0,0,0,0,0,0,-1,1847,1765,0,0
630,-741,0,0,0,0,0,0,0,0,0,-1,1854,1765,0,0
637,-741,0,0,0,0,0,0,0,0,0,-1,1861,1765,0,0
644,-741,0,0,0,0,0,0,0,0,0,-1,1868,1765,0,0
651,-741,0,0,0,0,0,0,0,0,0,-1,1875,1765,0,0
658,-741,0,0,0,0,0,0,0,0,0,-1,1882,1765,0,0
665,-741,0,0,0,0,0,0,0,0,0,-1,1889,1765,0,0
672,-741,0,0,0,0,0,0,0,0,0,-1,1896,1765,0,0
679,-741,0,0,0,0,0,0,0,0,0,-1,1903,1765,0,0
686,-741,0,0,0,0,0,0,0,0,0,-1,1910,1765,0,0
693,-741,0,0,0,0,0,0,0,0,0,-1,1917,1765,0,0
700,-741,0,0,0,0,0,0,0,0,0,-1,1924,1765,0,0
707,-741,0,0,0,0,0,0,0,0,0,-1,1931,1765,0,0
714,-741,0,0,0,0,0,0,0,0,0,-1,1938,1765,0,0
721,-741,0,0,0,0,0,0,0,0,0,-1,1945,1765,0,0
728,-741,0,0,0,0,0,0,0,0,0,-1,1952,1765,0,0
735,-741,0,0,0,0,0,0,0,0,0,-1,1959,1765,0,0
742,-741,0,0,0,0,0,0,0,0,0,-1,1966,1765,0,0
749,-741,0,0,0,0,0,0,0,0,0,-1,1973,1765,0,0
756,-741,0,0,0,0,0,0,0,0,0,-1,1980,1765,0,0
763,-741,0,0,0,0,0,0,0,0,0,-1,1987,1765,0,0
770,-741,0,0,0,0,0,0,0,0,0,-1,1994,1765,0,0
777,-741,0,0,0,0,0,0,0,0,0,-1,2001,1765,0,0
784,-741,0,0,0,0,0,0,0,0,0,-1,2008,1765,0,0
791,-741,0,0,0,0,0,0,0,0,0,-1,2015,1765,0,0
798,-741,0,0,0,0,0,0,0,0,0,-1,2022,1765,0,0
805,-741,0,0,0,0,0,0,0,0,0,-1,2029,1765,0,0
812,-741,0,0,0,0,0,0,0,0,0,-1,2036,1765,0,0
-700,-748,0,0,0,0,0,0,0,0,0,-1,524,1772,0,0
-693,-748,0,0,0,0,0,0,0,0,0,-1,531,1772,0,0
-686,-748,0,0,0,0,0,0,0,0,0,-1,538,1772,0,0
-679,-748,0,0,0,0,0,0,0,0,0,-1,545,1772,0,0
-672,-748,0,0,0,0,0,0,0,0,0,-1,552,1772,0,0
-665,-748,0,0,0,0,0,0,0,0,0,-1,559,1772,0,0
-658,-748,0,0,0,0,0,0,0,0,0,-1,566,1772,0,0
-651,-748,0,0,0,0,0,0,0,0,0,-1,573,1772,0,0
-644,-748,0,0,0,0,0,0,0,0,0,-1,580,1772,0,0
-637,-748,0,0,0,0,0,0,0,0,0,-1,587,1772,0,0
-630,-748,0,0,0,0,0,0,0,0,0,-1,594,1772,0,0
-623,-748,0,0,0,0,0,0,0,0,0,-1,601,1772,0,0
-616,-748,0,0,0,0,0,0,0,0,0,-1,608,1772,0,0
-609,-748,0,0,0,0,0,0,0,0,0,-1,615,1772,0,0
-602,-748,0,0,0,0,0,0,0,0,0,-1,622,1772,0,0
-595,-748,0,0,0,0,0,0,0,0,0,-1,629,1772,0,0
-588,-748,0,0,0,0,0,0,0,0,0,-1,636,1772,0,0
-581,-748,0,0,0,0,0,0,0,0,0,-1,643,1772,0,0
-574,-748,0,0,0,0,0,0,0,0,0,-1,650,1772,0,0
-567,-748,0,0,0,0,0,0,0,0,0,-1,657,1772,0,0
-560,-748,0,0,0,0,0,0,0,0,0,-1,664,1772,0,0
-553,-748,0,0,0,0,0,0,0,0,0,-1,671,1772,0,0
-546,-748,0,0,0,0,0,0,0,0,0,-1,678,1772,0,0
-539,-748,0,0,0,0,0,0,0,0,0,-1,685,1772,0,0
-532,-748,0,0,0,0,0,0,0,0,0,-1,692,1772,0,0
-525,-748,0,0,0,0,0,0,0,0,0,-1,699,1772,0,0
-518,-748,0,0,0,0,0,0,0,0,0,-1,706,1772,0,0
-511,-748,0,0,0,0,0,0,0,0,0,-1,713,1772,0,0
-504,-748,0,0,0,0,0,0,0,0,0,-1,720,1772,0,0
-497,-748,0,0,0,0,0,0,0,0,0,-1,727,1772,0,0
-490,-748,0,0,0,0,0,0,0,0,0,-1,734,1772,0,0
-483,-748,0,0,0,0,0,0,0,0,0,-1,741,1772,0,0
-476,-748,0,0,0,0,0,0,0,0,0,-1,748,1772,0,0
-469,-748,0,0,0,0,0,0,0,0,0,-1,755,1772,0,0
-462,-748,0,0,0,0,0,0,0,0,0,-1,762,1772,0,0
-455,-748,0,0,0,0,0,0,0,0,0,-1,769,1772,0,0
-448,-748,0,0,0,0,0,0,0,0,0,-1,776,1772,0,0
-441,-748,0,0,0,0,0,0,0,0,0,-1,783,1772,0,0
-434,-748,0,0,0,0,0,0,0,0,0,-1,790,1772,0,0
-427,-748,0,0,0,0,0,0,0,0,0,-1,797,1772,0,0
-420,-748,0,0,0,0,0,0,0,0,0,-1,804,1772,0,0
-413,-748,0,0,0,0,0,0,0,0,0,-1,811,1772,0,0
-406,-748,0,0,0,0,0,0,0,0,0,-1,818,1772,0,0
-399,-748,0,0,0,0,0,0,0,0,0,-1,825,1772,0,0
-392,-748,0,0,0,0,0,0,0,0,0,-1,832,1772,0,0
-385,-748,0,0,0,0,0,0,0,0,0,-1,839,1772,0,0
-378,-748,0,0,0,0,0,0,0,0,0,-1,846,1772,0,0
-371,-748,0,0,0,0,0,0,0,0,0,-1,853,1772,0,0
-364,-748,0,0,0,0,0,0,0,0,0,-1,860,1772,0,0
-357,-748,0,0,0,0,0,0,0,0,0,-1,867,1772,0,0
-350,-748,0,0,0,0,0,0,0,0,0,-1,874,1772,0,0
-343,-748,0,0,0,0,0,0,0,0,0,-1,881,1772,0,0
-336,-748,0,0,0,0,0,0,0,0,0,-1,888,1772,0,0
-329,-748,0,0,0,0,0,0,0,0,0,-1,895,1772,0,0
-322,-748,0,0,0,0,0,0,0,0,0,-1,902,1772,0,0
-315,-748,0,0,0,0,0,0,0,0,0,-1,909,1772,0,0
-308,-748,0,0,0,0,0,0,0,0,0,-1,916,1772,0,0
-301,-748,0,0,0,0,0,0,0,0,0,-1,923,1772,0,0
-294,-748,0,0,0,0,0,0,0,0,0,-1,930,1772,0,0
-287,-748,0,0,0,0,0,0,0,0,0,-1,937,1772,0,0
-280,-748,0,0,0,0,0,0,0,0,0,-1,944,1772,0,0
-273,-748,0,0,0,0,0,0,0,0,0,-1,951,1772,0,0
-266,-748,0,0,0,0,0,0,0,0,0,-1,958,1772,0,0
-259,-748,0,0,0,0,0,0,0,0,0,-1,965,1772,0,0
-252,-748,0,0,0,0,0,0,0,0,0,-1,972,1772,0,0
-245,-748,0,0,0,0,0,0,0,0,0,-1,979,1772,0,0
-238,-748,0,0,0,0,0,0,0,0,0,-1,986,1772,0,0
-231,-748,0,0,0,0,0,0,0,0,0,-1,993,1772,0,0
-224,-748,0,0,0,0,0,0,0,0,0,-1,1000,1772,0,0
-217,-748,8.97742,29.9884,0,0,0,0,0,0,0,-1,1007,1772,8.97744,-29.9884
-210,-748,8.8941,30.14,0,0,0,0,0,0,0,-1,1014,1772,8.8941,-30.14
-203,-748,8.57703,30.2961,0,0,0,0,0,0,0,-1,1021,1772,8.57706,-30.2962
-196,-748,8.01953,29.9611,0,0,0,0,0,0,0,-1,1028,1772,8.01957,-29.9611
-189,-748,9.63245,31.4406,0,0,0,0,0,0,0,-1,1035,1772,9.6325,-31.4406
-182,-748,3.94958,20.8662,0,0,0,0,0,0,0,-1,1042,1772,3.94959,-20.8662
-175,-748,3.56726,19.4518,0,0,0,0,0,0,0,-1,1049,1772,3.5673,-19.4518
-168,-748,3.04858,18.0109,0,0,0,0,0,0,0,-1,1056,1772,3.04853,-18.0108
-161,-748,3.50562,13.2729,0,0,0,0,0,0,0,-1,1063,1772,3.5056,-13.2729
-154,-748,-3.38562,10.6989,0,0,0,0,0,0,0,-1,1070,1772,-3.38564,-10.6989
-147,-748,10.0063,40.6635,0,0,0,0,0,0,0,-1,1077,1772,10.0064,-40.6634
-140,-748,7.42126,23.8113,0,0,0,0,0,0,0,-1,1084,1772,7.42133,-23.8113
-133,-748,7.44727,22.0308,0,0,0,0,0,0,0,-1,1091,1772,7.44728,-22.0308
-126,-748,5.98035,22.6067,0,0,0,0,0,0,0,-1,1098,1772,5.9803,-22.6067
-119,-748,6.63342,26.309,0,0,0,0,0,0,0,-1,1105,1772,6.6334,-26.3089
-112,-748,6.91333,24.923,0,0,0,0,0,0,0,-1,1112,1772,6.91339,-24.923
-105,-748,6.83313,25.0537,0,0,0,0,0,0,0,-1,1119,1772,6.83311,-25.0537
-98,-748,8.13623,30.8743,0,0,0,0,0,0,0,-1,1126,1772,8.13628,-30.8742
-91,-748,4.85352,15.3033,0,0,0,0,0,0,0,-1,1133,1772,4.85351,-15.3033
-84,-748,-0.192017,7.26196,0,0,0,0,0,0,0,-1,1140,1772,-0.192047,-7.26201
-77,-748,4.42615,13.5537,0,0,0,0,0,0,0,-1,1147,1772,4.4261,-13.5538
-70,-748,4.46191,13.7446,0,0,0,0,0,0,0,-1,1154,1772,4.4619,-13.7446
-63,-748,4.49768,13.9355,0,0,0,0,0,0,0,-1,1161,1772,4.49769,-13.9355
-56,-748,3.05762,7.87817,0,0,0,0,0,0,0,-1,1168,1772,3.05768,-7.87822
-49,-748,3.04102,7.82471,0,0,0,0,0,0,0,-1,1175,1772,3.04096,-7.82468
-42,-748,0.793457,14.9474,0,0,0,0,0,0,0,-1,1182,1772,0.793413,-14.9474
-35,-748,8.8175,42.4794,0,0,0,0,0,0,0,-1,1189,1772,8.81756,-42.4794
-28,-748,8.7262,42.806,0,0,0,0,0,0,0,-1,1196,1772,8.72618,-42.8061
-21,-748,8.74133,42.8757,-0.00389743,0.0035273,0.00680539,0.00756703,-0.00793716,1.03509,0.0089522,0.0242057,1203,1772,8.74138,-42.8757
-14,-748,8.6748,42.9425,-0.00414764,0.00271923,0.00667779,0.00679454,-0.00822295,1.02285,0.00868342,0.0173121,1210,1772,8.67482,-42.9425
-7,-748,8.65283,43.0341,-0.00437511,0.00168612,0.00647268,0.00580255,-0.00849153,1.00435,0.00830123,0.0162652,1217,1772,8.65283,-43.0341
0,-748,8.61328,43.1462,-0.00428708,0.00126087,0.00622972,0.0053063,-0.00833251,0.994859,0.00793872,0.0159095,1224,1772,8.61331,-43.1463
7,-748,8.5708,43.2474,-0.00396053,0.00100884,0.00590499,0.0049306,-0.00788229,0.984542,0.00746267,0.0154521,1231,1772,8.57083,-43.2474
14,-748,8.5249,43.3601,-0.00351781,0.00108417,0.00532361,0.00458279,-0.00701642,0.989385,0.00674576,0.0169771,1238,1772,8.5249,-43.3602
21,-748,8.50867,43.4471,-0.00310343,0.0013791,0.00466887,0.0043168,-0.00604112,1.00918,0.00600771,0.0124214,1245,1772,8.50872,-43.4472
28,-748,8.46362,43.5344,-0.00278263,0.0019165,0.00406265,0.00426008,-0.0051262,1.04757,0.00542685,0.012934,1252,1772,8.46368,-43.5345
35,-748,8.43848,43.5775,-0.00242663,0.00218843,0.00350962,0.00408116,-0.00431935,1.07621,0.00485069,0.0134427,1259,1772,8.43852,-43.5775
42,-748,8.42078,43.6078,-0.00223163,0.00248192,0.00281949,0.00379992,-0.00354962,1.13352,0.00424408,0.0139181,1266,1772,8.42077,-43.6078
49,-748,8.38586,43.6154,-0.00256257,0.00228547,0.00201464,0.00301338,-0.00329048,1.22408,0.00364071,0.0106124,1273,1772,8.38581,-43.6153
56,-748,8.3446,43.655,-0.00265609,0.00214054,0.00138633,0.00251239,-0.00302794,1.30874,0.00320332,0.010123,1280,1772,8.34463,-43.655
63,-748,8.3158,43.6702,-0.0029006,0.00223843,0.00060943,0.00230971,-0.00297189,1.45436,0.00305731,0.0121908,1287,1772,8.31574,-43.6701
70,-748,8.3031,43.665,-0.00327845,0.00169655,6.06127e-05,0.00169729,-0.00327919,1.55862,0.00292116,0.0140339,1294,1772,8.30311,-43.665
77,-748,8.2793,43.6541,-0.00386267,0.00109644,-0.00035633,0.00112192,-0.00388815,-1.49943,0.00303597,0.012614,1301,1772,8.27929,-43.6541
84,-748,8.22278,43.6584,-0.00460108,0.000242681,-0.000739611,0.000353097,-0.0047115,-1.4226,0.00326507,0.014636,1308,1772,8.22279,-43.6585
91,-748,8.18958,43.6267,-0.00494663,-0.000798271,-0.00134994,-0.000397669,-0.00534723,-1.28232,0.00343993,0.0118323,1315,1772,8.1896,-43.6267
98,-748,8.1626,43.5657,-0.00499951,-0.00169257,-0.00210811,-0.000666848,-0.00602524,-1.11796,0.00381402,0.0104998,1322,1772,8.1626,-43.5657
105,-748,8.16907,43.4862,-0.00509799,-0.00280771,-0.00273368,-0.000989007,-0.00691669,-0.983745,0.00431936,0.0114669,1329,1772,8.1691,-43.4862
112,-748,8.16711,43.4114,-0.00505938,-0.00367633,-0.00351207,-0.000788346,-0.00794736,-0.882604,0.00505599,0.0140811,1336,1772,8.16715,-43.4113
119,-748,8.13428,43.3319,-0.00474938,-0.00448143,-0.00431124,-0.000302088,-0.00892872,-0.800931,0.00585438,0.0120275,1343,1772,8.13428,-43.3319
126,-748,8.08716,43.2664,-0.00406718,-0.0049424,-0.00525192,0.000765337,-0.00977491,-0.743832,0.00678612,0.0144186,1350,1772,8.08719,-43.2663
133,-748,8.02563,43.158,-0.00327147,-0.00521573,-0.00640592,0.00223566,-0.0107229,-0.710095,0.00799863,0.00909607,1357,1772,8.02569,-43.158
140,-748,8.00354,43.0327,-0.00276253,-0.00460109,-0.00735962,0.003735,-0.0110986,-0.723266,0.008909,0.0122567,1364,1772,8.00352,-43.0327
147,-748,8.02808,42.9243,-0.00218166,-0.00414412,-0.00738747,0.00428946,-0.0106152,-0.719373,0.00885981,0.0140125,1371,1772,8.02805,-42.9243
154,-748,7.9895,42.8109,-0.00134392,-0.00333404,-0.00745245,0.00517961,-0.00985757,-0.71903,0.00882064,0.0122497,1378,1772,7.98947,-42.8109
161,-748,7.92493,42.6985,-0.0013439,-0.00350202,-0.00792348,0.00557366,-0.0104196,-0.717722,0.00937393,0.0186625,1385,1772,7.92489,-42.6984
168,-748,7.90088,42.5961,0,0,0,0,0,0,0,-1,1392,1772,7.90088,-42.5961
175,-748,11.6235,16.8242,0,0,0,0,0,0,0,-1,1399,1772,11.6236,-16.8242
182,-748,7.62476,10.3058,0,0,0,0,0,0,0,-1,1406,1772,7.62476,-10.3058
189,-748,6.15857,6.95898,0,0,0,0,0,0,0,-1,1413,1772,6.15862,-6.95896
196,-748,3.9425,8.46021,0,0,0,0,0,0,0,-1,1420,1772,3.9425,-8.46026
203,-748,3.9668,12.9835,0,0,0,0,0,0,0,-1,1427,1772,3.96678,-12.9836
210,-748,4.71472,16.8318,0,0,0,0,0,0,0,-1,1434,1772,4.71471,-16.8317
217,-748,5.38452,21.5551,0,0,0,0,0,0,0,-1,1441,1772,5.38455,-21.555
224,-748,6.14258,25.2345,0,0,0,0,0,0,0,-1,1448,1772,6.14263,-25.2345
231,-748,6.46045,29.7867,0,0,0,0,0,0,0,-1,1455,1772,6.46049,-29.7867
238,-748,7.41565,32.8574,0,0,0,0,0,0,0,-1,1462,1772,7.41562,-32.8574
245,-748,7.84912,32.0914,0,0,0,0,0,0,0,-1,1469,1772,7.84914,-32.0914
252,-748,7.94373,39.3752,0,0,0,0,0,0,0,-1,1476,1772,7.94371,-39.3753
259,-748,8.42053,39.4686,0,0,0,0,0,0,0,-1,1483,1772,8.42054,-39.4686
266,-748,8.25952,39.3665,0,0,0,0,0,0,0,-1,1490,1772,8.25952,-39.3664
273,-748,8.50684,39.9956,0,0,0,0,0,0,0,-1,1497,1772,8.50682,-39.9957
280,-748,8.76538,40.4501,0,0,0,0,0,0,0,-1,1504,1772,8.76537,-40.45
287,-748,14.161,8.32813,0,0,0,0,0,0,0,-1,1511,1772,14.161,-8.32808
294,-748,6.38525,32.4724,0,0,0,0,0,0,0,-1,1518,1772,6.38521,-32.4725
301,-748,5.40393,38.9807,0,0,0,0,0,0,0,-1,1525,1772,5.40397,-38.9807
308,-748,5.95227,37.1827,0,0,0,0,0,0,0,-1,1532,1772,5.95229,-37.1827
315,-748,6.50061,35.3848,0,0,0,0,0,0,0,-1,1539,1772,6.50062,-35.3847
322,-748,3.94556,28.3459,0,0,0,0,0,0,0,-1,1546,1772,3.94558,-28.3459
329,-748,3.87256,16.1473,0,0,0,0,0,0,0,-1,1553,1772,3.87259,-16.1474
336,-748,4.81006,19.6141,0,0,0,0,0,0,0,-1,1560,1772,4.81011,-19.6141
343,-748,0,0,0,0,0,0,0,0,0,-1,1567,1772,0,0
350,-748,0,0,0,0,0,0,0,0,0,-1,1574,1772,0,0
357,-748,0,0,0,0,0,0,0,0,0,-1,1581,1772,0,0
364,-748,0,0,0,0,0,0,0,0,0,-1,1588,1772,0,0
371,-748,0,0,0,0,0,0,0,0,0,-1,1595,1772,0,0
378,-748,0,0,0,0,0,0,0,0,0,-1,1602,1772,0,0
385,-748,0,0,0,0,0,0,0,0,0,-1,1609,1772,0,0
392,-748,0,0,0,0,0,0,0,0,0,-1,1616,1772,0,0
399,-748,0,0,0,0,0,0,0,0,0,-1,1623,1772,0,0
406,-748,0,0,0,0,0,0,0,0,0,-1,1630,1772,0,0
413,-748,0,0,0,0,0,0,0,0,0,-1,1637,1772,0,0
420,-748,0,0,0,0,0,0,0,0,0,-1,1644,1772,0,0
427,-748,0,0,0,0,0,0,0,0,0,-1,1651,1772,0,0
434,-748,0,0,0,0,0,0,0,0,0,-1,1658,1772,0,0
441,-748,0,0,0,0,0,0,0,0,0,-1,1665,1772,0,0
448,-748,0,0,0,0,0,0,0,0,0,-1,1672,1772,0,0
455,-748,0,0,0,0,0,0,0,0,0,-1,1679,1772,0,0
462,-748,0,0,0,0,0,0,0,0,0,-1,1686,1772,0,0
469,-748,0,0,0,0,0,0,0,0,0,-1,1693,1772,0,0
476,-748,0,0,0,0,0,0,0,0,0,-1,1700,1772,0,0
483,-748,0,0,0,0,0,0,0,0,0,-1,1707,1772,0,0
490,-748,0,0,0,0,0,0,0,0,0,-1,1714,1772,0,0
497,-748,0,0,0,0,0,0,0,0,0,-1,1721,1772,0,0
504,-748,0,0,0,0,0,0,0,0,0,-1,1728,1772,0,0
511,-748,0,0,0,0,0,0,0,0,0,-1,1735,1772,0,0
518,-748,0,0,0,0,0,0,0,0,0,-1,1742,1772,0,0
525,-748,0,0,0,0,0,0,0,0,0,-1,1749,1772,0,0
532,-748,0,0,0,0,0,0,0,0,0,-1,1756,1772,0,0
539,-748,0,0,0,0,0,0,0,0,0,-1,1763,1772,0,0
546,-748,0,0,0,0,0,0,0,0,0,-1,1770,1772,0,0
553,-748,0,0,0,0,0,0,0,0,0,-1,1777,1772,0,0
560,-748,0,0,0,0,0,0,0,0,0,-1,1784,1772,0,0
567,-748,0,0,0,0,0,0,0,0,0,-1,1791,1772,0,0
574,-748,0,0,0,0,0,0,0,0,0,-1,1798,1772,0,0
581,-748,0,0,0,0,0,0,0,0,0,-1,1805,1772,0,0
588,-748,0,0,0,0,0,0,0,0,0,-1,1812,1772,0,0
595,-748,0,0,0,0,0,0,0,0,0,-1,1819,1772,0,0
602,-748,0,0,0,0,0,0,0,0,0,-1,1826,1772,0,0
609,-748,0,0,0,0,0,0,0,0,0,-1,1833,1772,0,0
616,-748,0,0,0,0,0,0,0,0,0,-1,1840,1772,0,0
623,-748,0,0,0,0,0,0,0,0,0,-1,1847,1772,0,0
630,-748,0,0,0,0,0,0,0,0,0,-1,1854,1772,0,0
637,-748,0,0,0,0,0,0,0,0,0,-1,1861,1772,0,0
644,-748,0,0,0,0,0,0,0,0,0,-1,1868,1772,0,0
651,-748,0,0,0,0,0,0,0,0,0,-1,1875,1772,0,0
658,-748,0,0,0,0,0,0,0,0,0,-1,1882,1772,0,0
665,-748,0,0,0,0,0,0,0,0,0,-1,1889,1772,0,0
672,-748,0,0,0,0,0,0,0,0,0,-1,1896,1772,0,0
679,-748,0,0,0,0,0,0,0,0,0,-1,1903,1772,0,0
686,-748,0,0,0,0,0,0,0,0,0,-1,1910,1772,0,0
693,-748,0,0,0,0,0,0,0,0,0,-1,1917,1772,0,0
700,-748,0,0,0,0,0,0,0,0,0,-1,1924,1772,0,0
707,-748,0,0,0,0,0,0,0,0,0,-1,1931,1772,0,0
714,-748,0,0,0,0,0,0,0,0,0,-1,1938,1772,0,0
721,-748,0,0,0,0,0,0,0,0,0,-1,1945,1772,0,0
728,-748,0,0,0,0,0,0,0,0,0,-1,1952,1772,0,0
735,-748,0,0,0,0,0,0,0,0,0,-1,1959,1772,0,0
742,-748,0,0,0,0,0,0,0,0,0,-1,1966,1772,0,0
749,-748,0,0,0,0,0,0,0,0,0,-1,1973,1772,0,0
756,-748,0,0,0,0,0,0,0,0,0,-1,1980,1772,0,0
763,-748,0,0,0,0,0,0,0,0,0,-1,1987,1772,0,0
770,-748,0,0,0,0,0,0,0,0,0,-1,1994,1772,0,0
777,-748,0,0,0,0,0,0,0,0,0,-1,2001,1772,0,0
784,-748,0,0,0,0,0,0,0,0,0,-1,2008,1772,0,0
791,-748,0,0,0,0,0,0,0,0,0,-1,2015,1772,0,0
798,-748,0,0,0,0,0,0,0,0,0,-1,2022,1772,0,0
805,-748,0,0,0,0,0,0,0,0,0,-1,2029,1772,0,0
812,-748,0,0,0,0,0,0,0,0,0,-1,2036,1772,0,0
-700,-755,0,0,0,0,0,0,0,0,0,-1,524,1779,0,0
-693,-755,0,0,0,0,0,0,0,0,0,-1,531,1779,0,0
-686,-755,0,0,0,0,0,0,0,0,0,-1,538,1779,0,0
-679,-755,0,0,0,0,0,0,0,0,0,-1,545,1779,0,0
-672,-755,0,0,0,0,0,0,0,0,0,-1,552,1779,0,0
-665,-755,0,0,0,0,0,0,0,0,0,-1,559,1779,0,0
-658,-755,0,0,0,0,0,0,0,0,0,-1,566,1779,0,0
-651,-755,0,0,0,0,0,0,0,0,0,-1,573,1779,0,0
-644,-755,0,0,0,0,0,0,0,0,0,-1,580,1779,0,0
-637,-755,0,0,0,0,0,0,0,0,0,-1,587,1779,0,0
-630,-755,0,0,0,0,0,0,0,0,0,-1,594,1779,0,0
-623,-755,0,0,0,0,0,0,0,0,0,-1,601,1779,0,0
-616,-755,0,0,0,0,0,0,0,0,0,-1,608,1779,0,0
-609,-755,0,0,0,0,0,0,0,0,0,-1,615,1779,0,0
-602,-755,0,0,0,0,0,0,0,0,0,-1,622,1779,0,0
-595,-755,0,0,0,0,0,0,0,0,0,-1,629,1779,0,0
-588,-755,0,0,0,0,0,0,0,0,0,-1,636,1779,0,0
-581,-755,0,0,0,0,0,0,0,0,0,-1,643,1779,0,0
-574,-755,0,0,0,0,0,0,0,0,0,-1,650,1779,0,0
-567,-755,0,0,0,0,0,0,0,0,0,-1,657,1779,0,0
-560,-755,0,0,0,0,0,0,0,0,0,-1,664,1779,0,0
-553,-755,0,0,0,0,0,0,0,0,0,-1,671,1779,0,0
-546,-755,0,0,0,0,0,0,0,0,0,-1,678,1779,0,0
-539,-755,0,0,0,0,0,0,0,0,0,-1,685,1779,0,0
-532,-755,0,0,0,0,0,0,0,0,0,-1,692,1779,0,0
-525,-755,0,0,0,0,0,0,0,0,0,-1,699,1779,0,0
-518,-755,0,0,0,0,0,0,0,0,0,-1,706,1779,0,0
-511,-755,0,0,0,0,0,0,0,0,0,-1,713,1779,0,0
-504,-755,0,0,0,0,0,0,0,0,0,-1,720,1779,0,0
-497,-755,0,0,0,0,0,0,0,0,0,-1,727,1779,0,0
-490,-755,0,0,0,0,0,0,0,0,0,-1,734,1779,0,0
-483,-755,0,0,0,0,0,0,0,0,0,-1,741,1779,0,0
-476,-755,0,0,0,0,0,0,0,0,0,-1,748,1779,0,0
-469,-755,0,0,0,0,0,0,0,0,0,-1,755,1779,0,0
-462,-755,0,0,0,0,0,0,0,0,0,-1,762,1779,0,0
-455,-755,0,0,0,0,0,0,0,0,0,-1,769,1779,0,0
-448,-755,0,0,0,0,0,0,0,0,0,-1,776,1779,0,0
-441,-755,0,0,0,0,0,0,0,0,0,-1,783,1779,0,0
-434,-755,0,0,0,0,0,0,0,0,0,-1,790,1779,0,0
-427,-755,0,0,0,0,0,0,0,0,0,-1,797,1779,0,0
-420,-755,0,0,0,0,0,0,0,0,0,-1,804,1779,0,0
-413,-755,0,0,0,0,0,0,0,0,0,-1,811,1779,0,0
-406,-755,0,0,0,0,0,0,0,0,0,-1,818,1779,0,0
-399,-755,0,0,0,0,0,0,0,0,0,-1,825,1779,0,0
-392,-755,0,0,0,0,0,0,0,0,0,-1,832,1779,0,0
-385,-755,0,0,0,0,0,0,0,0,0,-1,839,1779,0,0
-378,-755,0,0,0,0,0,0,0,0,0,-1,846,1779,0,0
-371,-755,0,0,0,0,0,0,0,0,0,-1,853,1779,0,0
-364,-755,0,0,0,0,0,0,0,0,0,-1,860,1779,0,0
-357,-755,0,0,0,0,0,0,0,0,0,-1,867,1779,0,0
-350,-755,0,0,0,0,0,0,0,0,0,-1,874,1779,0,0
-343,-755,0,0,0,0,0,0,0,0,0,-1,881,1779,0,0
-336,-755,0,0,0,0,0,0,0,0,0,-1,888,1779,0,0
-329,-755,0,0,0,0,0,0,0,0,0,-1,895,1779,0,0
-322,-755,0,0,0,0,0,0,0,0,0,-1,902,1779,0,0
-315,-755,0,0,0,0,0,0,0,0,0,-1,909,1779,0,0
-308,-755,0,0,0,0,0,0,0,0,0,-1,916,1779,0,0
-301,-755,0,0,0,0,0,0,0,0,0,-1,923,1779,0,0
-294,-755,0,0,0,0,0,0,0,0,0,-1,930,1779,0,0
-287,-755,0,0,0,0,0,0,0,0,0,-1,937,1779,0,0
-280,-755,0,0,0,0,0,0,0,0,0,-1,944,1779,0,0
-273,-755,0,0,0,0,0,0,0,0,0,-1,951,1779,0,0
-266,-755,0,0,0,0,0,0,0,0,0,-1,958,1779,0,0
-259,-755,0,0,0,0,0,0,0,0,0,-1,965,1779,0,0
-252,-755,0,0,0,0,0,0,0,0,0,-1,972,1779,0,0
-245,-755,0,0,0,0,0,0,0,0,0,-1,979,1779,0,0
-238,-755,0,0,0,0,0,0,0,0,0,-1,986,1779,0,0
-231,-755,0,0,0,0,0,0,0,0,0,-1,993,1779,0,0
-224,-755,0,0,0,0,0,0,0,0,0,-1,1000,1779,0,0
-217,-755,0,0,0,0,0,0,0,0,0,-1,1007,1779,0,0
-210,-755,0,0,0,0,0,0,0,0,0,-1,1014,1779,0,0
-203,-755,8.97363,30.5414,0,0,0,0,0,0,0,-1,1021,1779,8.97362,-30.5414
-196,-755,8.34436,29.0909,0,0,0,0,0,0,0,-1,1028,1779,8.3443,-29.091
-189,-755,4.8175,22.4788,0,0,0,0,0,0,0,-1,1035,1779,4.81745,-22.4788
-182,-755,4.021,20.8032,0,0,0,0,0,0,0,-1,1042,1779,4.02094,-20.8032
-175,-755,3.79993,18.8242,0,0,0,0,0,0,0,-1,1049,1779,3.79995,-18.8242
-168,-755,3.14294,16.9865,0,0,0,0,0,0,0,-1,1056,1779,3.14291,-16.9864
-161,-755,-2.85889,11.5868,0,0,0,0,0,0,0,-1,1063,1779,-2.85887,-11.5868
-154,-755,-5.39026,8.51416,0,0,0,0,0,0,0,-1,1070,1779,-5.3903,-8.51417
-147,-755,-6.45593,10.2422,0,0,0,0,0,0,0,-1,1077,1779,-6.45594,-10.2422
-140,-755,1.33521,21.3856,0,0,0,0,0,0,0,-1,1084,1779,1.33522,-21.3857
-133,-755,2.89417,21.0964,0,0,0,0,0,0,0,-1,1091,1779,2.89422,-21.0964
-126,-755,3.26404,20.9304,0,0,0,0,0,0,0,-1,1098,1779,3.26399,-20.9305
-119,-755,5.17761,21.9325,0,0,0,0,0,0,0,-1,1105,1779,5.17761,-21.9325
-112,-755,5.40247,24.5646,0,0,0,0,0,0,0,-1,1112,1779,5.40244,-24.5646
-105,-755,7.01294,20.1539,0,0,0,0,0,0,0,-1,1119,1779,7.01295,-20.154
-98,-755,5.50708,16.9628,0,0,0,0,0,0,0,-1,1126,1779,5.5071,-16.9628
-91,-755,5.51025,12.0438,0,0,0,0,0,0,0,-1,1133,1779,5.51022,-12.0439
-84,-755,0.169312,8.66443,0,0,0,0,0,0,0,-1,1140,1779,0.16932,-8.66446
-77,-755,-0.0491943,6.87439,0,0,0,0,0,0,0,-1,1147,1779,-0.0491385,-6.87443
-70,-755,4.5686,13.2169,0,0,0,0,0,0,0,-1,1154,1779,4.56865,-13.2169
-63,-755,-1.36316,7.3147,0,0,0,0,0,0,0,-1,1161,1779,-1.36312,-7.31473
-56,-755,0.0483398,5.06079,0,0,0,0,0,0,0,-1,1168,1779,0.0483138,-5.06084
-49,-755,-1.32263,5.33716,0,0,0,0,0,0,0,-1,1175,1779,-1.32264,-5.33718
-42,-755,-2.03613,4.01672,0,0,0,0,0,0,0,-1,1182,1779,-2.0361,-4.01671
-35,-755,-2.72498,2.37476,0,0,0,0,0,0,0,-1,1189,1779,-2.72502,-2.37473
-28,-755,8.88489,42.3264,0,0,0,0,0,0,0,-1,1196,1779,8.88488,-42.3265
-21,-755,8.81226,42.9728,0,0,0,0,0,0,0,-1,1203,1779,8.8123,-42.9728
-14,-755,8.85168,42.9452,-0.00372188,0.00347018,0.0100119,0.0105122,-0.0107639,0.957811,0.0122841,0.0349434,1210,1779,8.85171,-42.9452
-7,-755,8.66992,43.0129,-0.0043254,0.00207998,0.00961141,0.00900826,-0.0112537,0.946221,0.0117222,0.0235222,1217,1779,8.66988,-43.0129
0,-755,8.67383,43.1193,-0.00450595,0.00134077,0.00914608,0.00801932,-0.0111845,0.940082,0.0111374,0.014566,1224,1779,8.67389,-43.1193
7,-755,8.67334,43.2402,-0.00430136,0.000854707,0.00855356,0.00721029,-0.010657,0.931768,0.0103794,0.0130787,1231,1779,8.67337,-43.2402
14,-755,8.63257,43.3462,-0.0038752,0.00087939,0.00761699,0.00648144,-0.00947726,0.93666,0.00926772,0.0122381,1238,1779,8.63252,-43.3462
21,-755,8.53784,43.4371,-0.00351976,0.00126454,0.00667185,0.00596013,-0.00821535,0.957531,0.00821867,0.016876,1245,1779,8.53789,-43.4371
28,-755,8.49658,43.4906,-0.0032639,0.00200914,0.00579114,0.00573568,-0.00699044,0.999011,0.00735932,0.0202888,1252,1779,8.49654,-43.4905
35,-755,8.51038,43.5807,-0.0029802,0.00242456,0.00502948,0.00543169,-0.00598733,1.03192,0.00659538,0.0206556,1259,1779,8.51041,-43.5806
42,-755,8.47571,43.6047,-0.00291554,0.0028433,0.00404665,0.00493041,-0.00500265,1.09462,0.00573491,0.0144298,1266,1779,8.47568,-43.6047
49,-755,8.43799,43.5841,-0.00353536,0.00259727,0.00293946,0.00377863,-0.00471672,1.18866,0.00491475,0.00978547,1273,1779,8.43796,-43.5842
56,-755,8.3761,43.6216,-0.00380454,0.00242876,0.00209125,0.00306535,-0.00444113,1.2753,0.00435806,0.00905702,1280,1779,8.37609,-43.6216
63,-755,8.34753,43.6541,-0.00424169,0.00267411,0.00107487,0.00283732,-0.0044049,1.42011,0.00421382,0.00962435,1287,1779,8.34749,-43.654
70,-755,8.3385,43.6379,-0.00484074,0.00191666,0.000327885,0.00193253,-0.00485661,1.52243,0.00403908,0.013485,1294,1779,8.33855,-43.638
77,-755,8.28406,43.5966,-0.00570135,0.0011157,-0.000256709,0.00112535,-0.00571101,-1.53321,0.00423262,0.0122335,1301,1779,8.28405,-43.5965
84,-755,8.23364,43.6016,-0.00671412,-7.17033e-05,-0.000837479,3.22592e-05,-0.00681808,-1.44729,0.00455618,0.012845,1308,1779,8.2336,-43.6016
91,-755,8.18616,43.5626,-0.00718398,-0.00153564,-0.00173765,-0.00104388,-0.00767573,-1.29501,0.00480712,0.0131504,1315,1779,8.1862,-43.5626
98,-755,8.12488,43.5131,-0.00723412,-0.00280692,-0.00285836,-0.00140524,-0.0086358,-1.11488,0.00535065,0.013839,1322,1779,8.12494,-43.5131
105,-755,8.13367,43.4761,-0.0072927,-0.00434275,-0.00382034,-0.00172254,-0.00991292,-0.969624,0.00611583,0.0169219,1329,1779,8.13365,-43.4761
112,-755,8.1178,43.3911,-0.00715764,-0.00556422,-0.00501096,-0.00128703,-0.0114348,-0.864235,0.00723248,0.0220539,1336,1779,8.1178,-43.3911
119,-755,8.07043,43.3088,-0.00667108,-0.0067656,-0.00622425,-0.000493908,-0.0129428,-0.781602,0.00846868,0.0220451,1343,1779,8.07039,-43.3088
126,-755,8.01392,43.2996,-0.00558025,-0.00761298,-0.00784904,0.00131796,-0.0145112,-0.721012,0.010142,0.0258532,1350,1779,8.01387,-43.2996
133,-755,7.89063,43.218,-0.00434083,-0.00819066,-0.00955453,0.00348076,-0.0160122,-0.685996,0.0120045,0.0260432,1357,1779,7.89058,-43.218
140,-755,7.76038,43.0789,-0.0034457,-0.00739416,-0.0109944,0.00575035,-0.0165902,-0.696562,0.0133949,0.0336599,1364,1779,7.76034,-43.0788
147,-755,7.94763,42.9396,-0.00239699,-0.00673451,-0.0109445,0.00659156,-0.0157231,-0.687586,0.013238,0.037193,1371,1779,7.94759,-42.9395
154,-755,7.98694,42.951,-0.000791541,-0.00545655,-0.0109316,0.00805365,-0.0143017,-0.680288,0.0130738,0.0375664,1378,1779,7.98694,-42.9511
161,-755,7.80981,42.7589,0,0,0,0,0,0,0,-1,1385,1779,7.80983,-42.7589
168,-755,3.98181,7.35901,0,0,0,0,0,0,0,-1,1392,1779,3.98184,-7.35904
175,-755,8.17065,1.34363,0,0,0,0,0,0,0,-1,1399,1779,8.1706,-1.34368
182,-755,8.09216,2.96924,0,0,0,0,0,0,0,-1,1406,1779,8.09213,-2.9693
189,-755,8.04419,4.68042,0,0,0,0,0,0,0,-1,1413,1779,8.04419,-4.68046
196,-755,7.74841,7.4541,0,0,0,0,0,0,0,-1,1420,1779,7.74842,-7.45405
203,-755,4.80554,6.88696,0,0,0,0,0,0,0,-1,1427,1779,4.80554,-6.88697
210,-755,25.1694,7.35693,0,0,0,0,0,0,0,-1,1434,1779,25.1694,-7.35688
217,-755,5.01648,16.411,0,0,0,0,0,0,0,-1,1441,1779,5.01646,-16.411
224,-755,5.18103,22.6283,0,0,0,0,0,0,0,-1,1448,1779,5.18101,-22.6283
231,-755,5.7489,30.15,0,0,0,0,0,0,0,-1,1455,1779,5.74885,-30.15
238,-755,6.56323,29.2726,0,0,0,0,0,0,0,-1,1462,1779,6.56327,-29.2726
245,-755,5.76453,29.2085,0,0,0,0,0,0,0,-1,1469,1779,5.76455,-29.2085
252,-755,5.57678,29.0841,0,0,0,0,0,0,0,-1,1476,1779,5.57682,-29.0841
259,-755,5.37292,29.1577,0,0,0,0,0,0,0,-1,1483,1779,5.37293,-29.1577
266,-755,17.255,7.86096,0,0,0,0,0,0,0,-1,1490,1779,17.255,-7.86092
273,-755,15.7932,7.59778,0,0,0,0,0,0,0,-1,1497,1779,15.7932,-7.59777
280,-755,14.6255,7.34802,0,0,0,0,0,0,0,-1,1504,1779,14.6254,-7.34806
287,-755,13.8279,7.83105,0,0,0,0,0,0,0,-1,1511,1779,13.8279,-7.83104
294,-755,12.5695,7.96814,0,0,0,0,0,0,0,-1,1518,1779,12.5694,-7.9682
301,-755,11.2659,8.27087,0,0,0,0,0,0,0,-1,1525,1779,11.2658,-8.27087
308,-755,5.17737,37.2896,0,0,0,0,0,0,0,-1,1532,1779,5.17742,-37.2896
315,-755,0.828613,31.032,0,0,0,0,0,0,0,-1,1539,1779,0.828668,-31.032
322,-755,0,0,0,0,0,0,0,0,0,-1,1546,1779,0,0
329,-755,0,0,0,0,0,0,0,0,0,-1,1553,1779,0,0
336,-755,0,0,0,0,0,0,0,0,0,-1,1560,1779,0,0
343,-755,0,0,0,0,0,0,0,0,0,-1,1567,1779,0,0
350,-755,0,0,0,0,0,0,0,0,0,-1,1574,1779,0,0
357,-755,0,0,0,0,0,0,0,0,0,-1,1581,1779,0,0
364,-755,0,0,0,0,0,0,0,0,0,-1,1588,1779,0,0
371,-755,0,0,0,0,0,0,0,0,0,-1,1595,1779,0,0
378,-755,0,0,0,0,0,0,0,0,0,-1,1602,1779,0,0
385,-755,0,0,0,0,0,0,0,0,0,-1,1609,1779,0,0
392,-755,0,0,0,0,0,0,0,0,0,-1,1616,1779,0,0
399,-755,0,0,0,0,0,0,0,0,0,-1,1623,1779,0,0
406,-755,0,0,0,0,0,0,0,0,0,-1,1630,1779,0,0
413,-755,0,0,0,0,0,0,0,0,0,-1,1637,1779,0,0
420,-755,0,0,0,0,0,0,0,0,0,-1,1644,1779,0,0
427,-755,0,0,0,0,0,0,0,0,0,-1,1651,1779,0,0
434,-755,0,0,0,0,0,0,0,0,0,-1,1658,1779,0,0
441,-755,0,0,0,0,0,0,0,0,0,-1,1665,1779,0,0
448,-755,0,0,0,0,0,0,0,0,0,-1,1672,1779,0,0
455,-755,0,0,0,0,0,0,0,0,0,-1,1679,1779,0,0
462,-755,0,0,0,0,0,0,0,0,0,-1,1686,1779,0,0
469,-755,0,0,0,0,0,0,0,0,0,-1,1693,1779,0,0
476,-755,0,0,0,0,0,0,0,0,0,-1,1700,1779,0,0
483,-755,0,0,0,0,0,0,0,0,0,-1,1707,1779,0,0
490,-755,0,0,0,0,0,0,0,0,0,-1,1714,1779,0,0
497,-755,0,0,0,0,0,0,0,0,0,-1,1721,1779,0,0
504,-755,0,0,0,0,0,0,0,0,0,-1,1728,1779,0,0
511,-755,0,0,0,0,0,0,0,0,0,-1,1735,1779,0,0
518,-755,0,0,0,0,0,0,0,0,0,-1,1742,1779,0,0
525,-755,0,0,0,0,0,0,0,0,0,-1,1749,1779,0,0
532,-755,0,0,0,0,0,0,0,0,0,-1,1756,1779,0,0
539,-755,0,0,0,0,0,0,0,0,0,-1,1763,1779,0,0
546,-755,0,0,0,0,0,0,0,0,0,-1,1770,1779,0,0
553,-755,0,0,0,0,0,0,0,0,0,-1,1777,1779,0,0
560,-755,0,0,0,0,0,0,0,0,0,-1,1784,1779,0,0
567,-755,0,0,0,0,0,0,0,0,0,-1,1791,1779,0,0
574,-755,0,0,0,0,0,0,0,0,0,-1,1798,1779,0,0
581,-755,0,0,0,0,0,0,0,0,0,-1,1805,1779,0,0
588,-755,0,0,0,0,0,0,0,0,0,-1,1812,1779,0,0
595,-755,0,0,0,0,0,0,0,0,0,-1,1819,1779,0,0
602,-755,0,0,0,0,0,0,0,0,0,-1,1826,1779,0,0
609,-755,0,0,0,0,0,0,0,0,0,-1,1833,1779,0,0
616,-755,0,0,0,0,0,0,0,0,0,-1,1840,1779,0,0
623,-755,0,0,0,0,0,0,0,0,0,-1,1847,1779,0,0
630,-755,0,0,0,0,0,0,0,0,0,-1,1854,1779,0,0
637,-755,0,0,0,0,0,0,0,0,0,-1,1861,1779,0,0
644,-755,0,0,0,0,0,0,0,0,0,-1,1868,1779,0,0
651,-755,0,0,0,0,0,0,0,0,0,-1,1875,1779,0,0
658,-755,0,0,0,0,0,0,0,0,0,-1,1882,1779,0,0
665,-755,0,0,0,0,0,0,0,0,0,-1,1889,1779,0,0
672,-755,0,0,0,0,0,0,0,0,0,-1,1896,1779,0,0
679,-755,0,0,0,0,0,0,0,0,0,-1,1903,1779,0,0
686,-755,0,0,0,0,0,0,0,0,0,-1,1910,1779,0,0
693,-755,0,0,0,0,0,0,0,0,0,-1,1917,1779,0,0
700,-755,0,0,0,0,0,0,0,0,0,-1,1924,1779,0,0
707,-755,0,0,0,0,0,0,0,0,0,-1,1931,1779,0,0
714,-755,0,0,0,0,0,0,0,0,0,-1,1938,1779,0,0
721,-755,0,0,0,0,0,0,0,0,0,-1,1945,1779,0,0
728,-755,0,0,0,0,0,0,0,0,0,-1,1952,1779,0,0
735,-755,0,0,0,0,0,0,0,0,0,-1,1959,1779,0,0
742,-755,0,0,0,0,0,0,0,0,0,-1,1966,1779,0,0
749,-755,0,0,0,0,0,0,0,0,0,-1,1973,1779,0,0
756,-755,0,0,0,0,0,0,0,0,0,-1,1980,1779,0,0
763,-755,0,0,0,0,0,0,0,0,0,-1,1987,1779,0,0
770,-755,0,0,0,0,0,0,0,0,0,-1,1994,1779,0,0
777,-755,0,0,0,0,0,0,0,0,0,-1,2001,1779,0,0
784,-755,0,0,0,0,0,0,0,0,0,-1,2008,1779,0,0
791,-755,0,0,0,0,0,0,0,0,0,-1,2015,1779,0,0
798,-755,0,0,0,0,0,0,0,0,0,-1,2022,1779,0,0
805,-755,0,0,0,0,0,0,0,0,0,-1,2029,1779,0,0
812,-755,0,0,0,0,0,0,0,0,0,-1,2036,1779,0,0
-700,-762,0,0,0,0,0,0,0,0,0,-1,524,1786,0,0
-693,-762,0,0,0,0,0,0,0,0,0,-1,531,1786,0,0
-686,-762,0,0,0,0,0,0,0,0,0,-1,538,1786,0,0
-679,-762,0,0,0,0,0,0,0,0,0,-1,545,1786,0,0
-672,-762,0,0,0,0,0,0,0,0,0,-1,552,1786,0,0
-665,-762,0,0,0,0,0,0,0,0,0,-1,559,1786,0,0
-658,-762,0,0,0,0,0,0,0,0,0,-1,566,1786,0,0
-651,-762,0,0,0,0,0,0,0,0,0,-1,573,1786,0,0
-644,-762,0,0,0,0,0,0,0,0,0,-1,580,1786,0,0
-637,-762,0,0,0,0,0,0,0,0,0,-1,587,1786,0,0
-630,-762,0,0,0,0,0,0,0,0,0,-1,594,1786,0,0
-623,-762,0,0,0,0,0,0,0,0,0,-1,601,1786,0,0
-616,-762,0,0,0,0,0,0,0,0,0,-1,608,1786,0,0
-609,-762,0,0,0,0,0,0,0,0,0,-1,615,1786,0,0
-602,-762,0,0,0,0,0,0,0,0,0,-1,622,1786,0,0
-595,-762,0,0,0,0,0,0,0,0,0,-1,629,1786,0,0
-588,-762,0,0,0,0,0,0,0,0,0,-1,636,1786,0,0
-581,-762,0,0,0,0,0,0,0,0,0,-1,643,1786,0,0
-574,-762,0,0,0,0,0,0,0,0,0,-1,650,1786,0,0
-567,-762,0,0,0,0,0,0,0,0,0,-1,657,1786,0,0
-560,-762,0,0,0,0,0,0,0,0,0,-1,664,1786,0,0
-553,-762,0,0,0,0,0,0,0,0,0,-1,671,1786,0,0
-546,-762,0,0,0,0,0,0,0,0,0,-1,678,1786,0,0
-539,-762,0,0,0,0,0,0,0,0,0,-1,685,1786,0,0
-532,-762,0,0,0,0,0,0,0,0,0,-1,692,1786,0,0
-525,-762,0,0,0,0,0,0,0,0,0,-1,699,1786,0,0
-518,-762,0,0,0,0,0,0,0,0,0,-1,706,1786,0,0
-511,-762,0,0,0,0,0,0,0,0,0,-1,713,1786,0,0
-504,-762,0,0,0,0,0,0,0,0,0,-1,720,1786,0,0
-497,-762,0,0,0,0,0,0,0,0,0,-1,727,1786,0,0
-490,-762,0,0,0,0,0,0,0,0,0,-1,734,1786,0,0
-483,-762,0,0,0,0,0,0,0,0,0,-1,741,1786,0,0
-476,-762,0,0,0,0,0,0,0,0,0,-1,748,1786,0,0
-469,-762,0,0,0,0,0,0,0,0,0,-1,755,1786,0,0
-462,-762,0,0,0,0,0,0,0,0,0,-1,762,1786,0,0
-455,-762,0,0,0,0,0,0,0,0,0,-1,769,1786,0,0
-448,-762,0,0,0,0,0,0,0,0,0,-1,776,1786,0,0
-441,-762,0,0,0,0,0,0,0,0,0,-1,783,1786,0,0
-434,-762,0,0,0,0,0,0,0,0,0,-1,790,1786,0,0
-427,-762,0,0,0,0,0,0,0,0,0,-1,797,1786,0,0
-420,-762,0,0,0,0,0,0,0,0,0,-1,804,1786,0,0
-413,-762,0,0,0,0,0,0,0,0,0,-1,811,1786,0,0
-406,-762,0,0,0,0,0,0,0,0,0,-1,818,1786,0,0
-399,-762,0,0,0,0,0,0,0,0,0,-1,825,1786,0,0
-392,-762,0,0,0,0,0,0,0,0,0,-1,832,1786,0,0
-385,-762,0,0,0,0,0,0,0,0,0,-1,839,1786,0,0
-378,-762,0,0,0,0,0,0,0,0,0,-1,846,1786,0,0
-371,-762,0,0,0,0,0,0,0,0,0,-1,853,1786,0,0
-364,-762,0,0,0,0,0,0,0,0,0,-1,860,1786,0,0
-357,-762,0,0,0,0,0,0,0,0,0,-1,867,1786,0,0
-350,-762,0,0,0,0,0,0,0,0,0,-1,874,1786,0,0
-343,-762,0,0,0,0,0,0,0,0,0,-1,881,1786,0,0
-336,-762,0,0,0,0,0,0,0,0,0,-1,888,1786,0,0
-329,-762,0,0,0,0,0,0,0,0,0,-1,895,1786,0,0
-322,-762,0,0,0,0,0,0,0,0,0,-1,902,1786,0,0
-315,-762,0,0,0,0,0,0,0,0,0,-1,909,1786,0,0
-308,-762,0,0,0,0,0,0,0,0,0,-1,916,1786,0,0
-301,-762,0,0,0,0,0,0,0,0,0,-1,923,1786,0,0
-294,-762,0,0,0,0,0,0,0,0,0,-1,930,1786,0,0
-287,-762,0,0,0,0,0,0,0,0,0,-1,937,1786,0,0
-280,-762,0,0,0,0,0,0,0,0,0,-1,944,1786,0,0
-273,-762,0,0,0,0,0,0,0,0,0,-1,951,1786,0,0
-266,-762,0,0,0,0,0,0,0,0,0,-1,958,1786,0,0
-259,-762,0,0,0,0,0,0,0,0,0,-1,965,1786,0,0
-252,-762,0,0,0,0,0,0,0,0,0,-1,972,1786,0,0
-245,-762,0,0,0,0,0,0,0,0,0,-1,979,1786,0,0
-238,-762,0,0,0,0,0,0,0,0,0,-1,986,1786,0,0
-231,-762,0,0,0,0,0,0,0,0,0,-1,993,1786,0,0
-224,-762,0,0,0,0,0,0,0,0,0,-1,1000,1786,0,0
-217,-762,0,0,0,0,0,0,0,0,0,-1,1007,1786,0,0
-210,-762,0,0,0,0,0,0,0,0,0,-1,1014,1786,0,0
-203,-762,0,0,0,0,0,0,0,0,0,-1,1021,1786,0,0
-196,-762,0,0,0,0,0,0,0,0,0,-1,1028,1786,0,0
-189,-762,0,0,0,0,0,0,0,0,0,-1,1035,1786,0,0
-182,-762,4.44226,13.2462,0,0,0,0,0,0,0,-1,1042,1786,4.44227,-13.2462
-175,-762,4.3219,18.3975,0,0,0,0,0,0,0,-1,1049,1786,4.32192,-18.3974
-168,-762,-2.08618,13.0768,0,0,0,0,0,0,0,-1,1056,1786,-2.08623,-13.0768
-161,-762,-3.29077,11.9508,0,0,0,0,0,0,0,-1,1063,1786,-3.29076,-11.9508
-154,-762,-4.55823,11.1176,0,0,0,0,0,0,0,-1,1070,1786,-4.55828,-11.1175
-147,-762,-6.52454,9.41418,0,0,0,0,0,0,0,-1,1077,1786,-6.52458,-9.41419
-140,-762,4.99792,5.28589,0,0,0,0,0,0,0,-1,1084,1786,4.99793,-5.28587
-133,-762,0.689819,19.2172,0,0,0,0,0,0,0,-1,1091,1786,0.689867,-19.2171
-126,-762,1.48743,19.9288,0,0,0,0,0,0,0,-1,1098,1786,1.48738,-19.9289
-119,-762,2.65637,20.208,0,0,0,0,0,0,0,-1,1105,1786,2.65632,-20.208
-112,-762,6.84705,25.5554,0,0,0,0,0,0,0,-1,1112,1786,6.84706,-25.5554
-105,-762,5.57947,21.618,0,0,0,0,0,0,0,-1,1119,1786,5.57948,-21.618
-98,-762,5.0636,17.9901,0,0,0,0,0,0,0,-1,1126,1786,5.06361,-17.9901
-91,-762,4.54773,14.3622,0,0,0,0,0,0,0,-1,1133,1786,4.54774,-14.3622
-84,-762,3.96375,10.4547,0,0,0,0,0,0,0,-1,1140,1786,3.96371,-10.4548
-77,-762,0.305054,8.49365,0,0,0,0,0,0,0,-1,1147,1786,0.305008,-8.49362
-70,-762,0.183716,6.74622,0,0,0,0,0,0,0,-1,1154,1786,0.183696,-6.74621
-63,-762,-0.883057,9.08813,0,0,0,0,0,0,0,-1,1161,1786,-0.88311,-9.08808
-56,-762,-0.578979,5.10254,0,0,0,0,0,0,0,-1,1168,1786,-0.578951,-5.10249
-49,-762,-2.04541,3.66321,0,0,0,0,0,0,0,-1,1175,1786,-2.0454,-3.66319
-42,-762,-2.23462,3.474,0,0,0,0,0,0,0,-1,1182,1786,-2.23459,-3.47399
-35,-762,-3.28992,1.68164,0,0,0,0,0,0,0,-1,1189,1786,-3.28998,-1.68164
-28,-762,-3.75378,1.37769,0,0,0,0,0,0,0,-1,1196,1786,-3.75373,-1.37767
-21,-762,9.91016,43.1476,0,0,0,0,0,0,0,-1,1203,1786,9.91015,-43.1475
-14,-762,9.57739,43.0599,0,0,0,0,0,0,0,-1,1210,1786,9.57742,-43.0599
-7,-762,8.71179,43.171,0,0,0,0,0,0,0,-1,1217,1786,8.71182,-43.171
0,-762,8.73376,43.2285,-0.00377832,0.000945361,0.012826,0.0116251,-0.0144581,0.876451,0.0150887,0.0363981,1224,1786,8.73382,-43.2285
7,-762,8.78503,43.2839,-0.0038254,0.000129598,0.0118893,0.0102047,-0.0139005,0.867807,0.0139716,0.0213223,1231,1786,8.78503,-43.2839
14,-762,8.69019,43.488,-0.0034961,8.42938e-05,0.0105058,0.00895133,-0.0123631,0.869788,0.0123584,0.0362007,1238,1786,8.69017,-43.488
21,-762,8.44116,43.4673,-0.00326926,0.000610681,0.00916533,0.0080391,-0.0106977,0.889691,0.0108539,0.0446365,1245,1786,8.44117,-43.4673
28,-762,8.47461,43.484,-0.00316464,0.00167378,0.00793637,0.00755147,-0.00904233,0.933337,0.00959332,0.0461881,1252,1786,8.47461,-43.484
35,-762,8.47473,43.6736,-0.00304633,0.00234294,0.00691279,0.00706772,-0.00777111,0.971241,0.00857041,0.0479501,1259,1786,8.47471,-43.6736
42,-762,8.45837,43.6128,-0.00322749,0.00298214,0.00553077,0.00621998,-0.00646534,1.04116,0.00732433,0.0466329,1266,1786,8.45837,-43.6128
49,-762,8.4176,43.5891,-0.0042725,0.00272389,0.00401946,0.00455424,-0.00610286,1.14348,0.0061745,0.0380104,1273,1786,8.41766,-43.5891
56,-762,8.44055,43.6427,-0.00481834,0.00256388,0.00286196,0.00354343,-0.00579789,1.24103,0.00544532,0.0281974,1280,1786,8.44059,-43.6427
63,-762,8.39185,43.6483,-0.00554382,0.00307422,0.00152952,0.00333763,-0.00580722,1.40025,0.00534357,0.025993,1287,1786,8.39182,-43.6484
70,-762,8.31335,43.6552,-0.00645615,0.0020313,0.000494277,0.00205999,-0.00648484,1.51282,0.00514913,0.0263712,1294,1786,8.31339,-43.6551
77,-762,8.26135,43.5859,-0.00768582,0.000958798,-0.000340222,0.000972167,-0.00769919,-1.53152,0.00548564,0.0322562,1301,1786,8.2613,-43.5859
84,-762,8.25122,43.6453,-0.00904497,-0.000698686,-0.00121441,-0.000525576,-0.00921808,-1.4292,0.0059779,0.0401398,1308,1786,8.2512,-43.6452
91,-762,8.24158,43.4869,0,0,0,0,0,0,0,-1,1315,1786,8.24153,-43.4869
98,-762,8.0509,43.4323,0,0,0,0,0,0,0,-1,1322,1786,8.05095,-43.4322
105,-762,7.99695,43.5283,0,0,0,0,0,0,0,-1,1329,1786,7.99693,-43.5283
112,-762,7.91138,43.2667,0,0,0,0,0,0,0,-1,1336,1786,7.91143,-43.2668
119,-762,7.92053,43.2059,0,0,0,0,0,0,0,-1,1343,1786,7.92056,-43.206
126,-762,7.93066,43.3508,0,0,0,0,0,0,0,-1,1350,1786,7.93064,-43.3508
133,-762,8.21338,43.3218,0,0,0,0,0,0,0,-1,1357,1786,8.21335,-43.3218
140,-762,8.32019,43.2649,-0.00388179,-0.01121,-0.0161753,0.0090392,-0.024131,-0.674015,0.0198005,0.0468389,1364,1786,8.32015,-43.2649
147,-762,8.38831,43.0574,-0.00211534,-0.0103389,-0.0160207,0.0103128,-0.022767,-0.659783,0.0195446,0.0425605,1371,1786,8.38831,-43.0574
154,-762,8.76367,42.9764,0,0,0,0,0,0,0,-1,1378,1786,8.76363,-42.9764
161,-762,8.65051,34.8102,0,0,0,0,0,0,0,-1,1385,1786,8.65054,-34.8101
168,-762,8.19287,0.880615,0,0,0,0,0,0,0,-1,1392,1786,8.19291,-0.880603
175,-762,8.33997,1.95947,0,0,0,0,0,0,0,-1,1399,1786,8.33997,-1.95942
182,-762,8.28418,3.56482,0,0,0,0,0,0,0,-1,1406,1786,8.28415,-3.56485
189,-762,8.21179,5.23389,0,0,0,0,0,0,0,-1,1413,1786,8.21183,-5.23383
196,-762,8.05969,6.95483,0,0,0,0,0,0,0,-1,1420,1786,8.05972,-6.9548
203,-762,24.0077,7.10425,0,0,0,0,0,0,0,-1,1427,1786,24.0077,-7.10426
210,-762,23.8073,7.6499,0,0,0,0,0,0,0,-1,1434,1786,23.8073,-7.64987
217,-762,23.3193,8.24426,0,0,0,0,0,0,0,-1,1441,1786,23.3194,-8.2442
224,-762,2.65149,20.6106,0,0,0,0,0,0,0,-1,1448,1786,2.65153,-20.6106
231,-762,5.46655,23.521,0,0,0,0,0,0,0,-1,1455,1786,5.46653,-23.521
238,-762,5.35632,29.7203,0,0,0,0,0,0,0,-1,1462,1786,5.35629,-29.7203
245,-762,5.84509,28.6954,0,0,0,0,0,0,0,-1,1469,1786,5.84509,-28.6954
252,-762,5.82837,27.7246,0,0,0,0,0,0,0,-1,1476,1786,5.82839,-27.7247
259,-762,10.7311,18.3031,0,0,0,0,0,0,0,-1,1483,1786,10.7311,-18.3031
266,-762,16.451,7.67773,0,0,0,0,0,0,0,-1,1490,1786,16.4511,-7.67773
273,-762,15.287,7.5304,0,0,0,0,0,0,0,-1,1497,1786,15.2869,-7.53044
280,-762,14.1501,7.38379,0,0,0,0,0,0,0,-1,1504,1786,14.1502,-7.38376
287,-762,12.6891,7.99133,0,0,0,0,0,0,0,-1,1511,1786,12.6891,-7.99135
294,-762,12.6959,8.30371,0,0,0,0,0,0,0,-1,1518,1786,12.6959,-8.30368
301,-762,11.4222,8.84143,0,0,0,0,0,0,0,-1,1525,1786,11.4223,-8.84149
308,-762,0,0,0,0,0,0,0,0,0,-1,1532,1786,0,0
315,-762,0,0,0,0,0,0,0,0,0,-1,1539,1786,0,0
322,-762,0,0,0,0,0,0,0,0,0,-1,1546,1786,0,0
329,-762,0,0,0,0,0,0,0,0,0,-1,1553,1786,0,0
336,-762,0,0,0,0,0,0,0,0,0,-1,1560,1786,0,0
343,-762,0,0,0,0,0,0,0,0,0,-1,1567,1786,0,0
350,-762,0,0,0,0,0,0,0,0,0,-1,1574,1786,0,0
357,-762,0,0,0,0,0,0,0,0,0,-1,1581,1786,0,0
364,-762,0,0,0,0,0,0,0,0,0,-1,1588,1786,0,0
371,-762,0,0,0,0,0,0,0,0,0,-1,1595,1786,0,0
378,-762,0,0,0,0,0,0,0,0,0,-1,1602,1786,0,0
385,-762,0,0,0,0,0,0,0,0,0,-1,1609,1786,0,0
392,-762,0,0,0,0,0,0,0,0,0,-1,1616,1786,0,0
399,-762,0,0,0,0,0,0,0,0,0,-1,1623,1786,0,0
406,-762,0,0,0,0,0,0,0,0,0,-1,1630,1786,0,0
413,-762,0,0,0,0,0,0,0,0,0,-1,1637,1786,0,0
420,-762,0,0,0,0,0,0,0,0,0,-1,1644,1786,0,0
427,-762,0,0,0,0,0,0,0,0,0,-1,1651,1786,0,0
434,-762,0,0,0,0,0,0,0,0,0,-1,1658,1786,0,0
441,-762,0,0,0,0,0,0,0,0,0,-1,1665,1786,0,0
448,-762,0,0,0,0,0,0,0,0,0,-1,1672,1786,0,0
455,-762,0,0,0,0,0,0,0,0,0,-1,1679,1786,0,0
462,-762,0,0,0,0,0,0,0,0,0,-1,1686,1786,0,0
469,-762,0,0,0,0,0,0,0,0,0,-1,1693,1786,0,0
476,-762,0,0,0,0,0,0,0,0,0,-1,1700,1786,0,0
483,-762,0,0,0,0,0,0,0,0,0,-1,1707,1786,0,0
490,-762,0,0,0,0,0,0,0,0,0,-1,1714,1786,0,0
497,-762,0,0,0,0,0,0,0,0,0,-1,1721,1786,0,0
504,-762,0,0,0,0,0,0,0,0,0,-1,1728,1786,0,0
511,-762,0,0,0,0,0,0,0,0,0,-1,1735,1786,0,0
518,-762,0,0,0,0,0,0,0,0,0,-1,1742,1786,0,0
525,-762,0,0,0,0,0,0,0,0,0,-1,1749,1786,0,0
532,-762,0,0,0,0,0,0,0,0,0,-1,1756,1786,0,0
539,-762,0,0,0,0,0,0,0,0,0,-1,1763,1786,0,0
546,-762,0,0,0,0,0,0,0,0,0,-1,1770,1786,0,0
553,-762,0,0,0,0,0,0,0,0,0,-1,1777,1786,0,0
560,-762,0,0,0,0,0,0,0,0,0,-1,1784,1786,0,0
567,-762,0,0,0,0,0,0,0,0,0,-1,1791,1786,0,0
574,-762,0,0,0,0,0,0,0,0,0,-1,1798,1786,0,0
581,-762,0,0,0,0,0,0,0,0,0,-1,1805,1786,0,0
588,-762,0,0,0,0,0,0,0,0,0,-1,1812,1786,0,0
595,-762,0,0,0,0,0,0,0,0,0,-1,1819,1786,0,0
602,-762,0,0,0,0,0,0,0,0,0,-1,1826,1786,0,0
609,-762,0,0,0,0,0,0,0,0,0,-1,1833,1786,0,0
616,-762,0,0,0,0,0,0,0,0,0,-1,1840,1786,0,0
623,-762,0,0,0,0,0,0,0,0,0,-1,1847,1786,0,0
630,-762,0,0,0,0,0,0,0,0,0,-1,1854,1786,0,0
637,-762,0,0,0,0,0,0,0,0,0,-1,1861,1786,0,0
644,-762,0,0,0,0,0,0,0,0,0,-1,1868,1786,0,0
651,-762,0,0,0,0,0,0,0,0,0,-1,1875,1786,0,0
658,-762,0,0,0,0,0,0,0,0,0,-1,1882,1786,0,0
665,-762,0,0,0,0,0,0,0,0,0,-1,1889,1786,0,0
672,-762,0,0,0,0,0,0,0,0,0,-1,1896,1786,0,0
679,-762,0,0,0,0,0,0,0,0,0,-1,1903,1786,0,0
686,-762,0,0,0,0,0,0,0,0,0,-1,1910,1786,0,0
693,-762,0,0,0,0,0,0,0,0,0,-1,1917,1786,0,0
700,-762,0,0,0,0,0,0,0,0,0,-1,1924,1786,0,0
707,-762,0,0,0,0,0,0,0,0,0,-1,1931,1786,0,0
714,-762,0,0,0,0,0,0,0,0,0,-1,1938,1786,0,0
721,-762,0,0,0,0,0,0,0,0,0,-1,1945,1786,0,0
728,-762,0,0,0,0,0,0,0,0,0,-1,1952,1786,0,0
735,-762,0,0,0,0,0,0,0,0,0,-1,1959,1786,0,0
742,-762,0,0,0,0,0,0,0,0,0,-1,1966,1786,0,0
749,-762,0,0,0,0,0,0,0,0,0,-1,1973,1786,0,0
756,-762,0,0,0,0,0,0,0,0,0,-1,1980,1786,0,0
763,-762,0,0,0,0,0,0,0,0,0,-1,1987,1786,0,0
770,-762,0,0,0,0,0,0,0,0,0,-1,1994,1786,0,0
777,-762,0,0,0,0,0,0,0,0,0,-1,2001,1786,0,0
784,-762,0,0,0,0,0,0,0,0,0,-1,2008,1786,0,0
791,-762,0,0,0,0,0,0,0,0,0,-1,2015,1786,0,0
798,-762,0,0,0,0,0,0,0,0,0,-1,2022,1786,0,0
805,-762,0,0,0,0,0,0,0,0,0,-1,2029,1786,0,0
812,-762,0,0,0,0,0,0,0,0,0,-1,2036,1786,0,0
-700,-769,0,0,0,0,0,0,0,0,0,-1,524,1793,0,0
-693,-769,0,0,0,0,0,0,0,0,0,-1,531,1793,0,0
-686,-769,0,0,0,0,0,0,0,0,0,-1,538,1793,0,0
-679,-769,0,0,0,0,0,0,0,0,0,-1,545,1793,0,0
-672,-769,0,0,0,0,0,0,0,0,0,-1,552,1793,0,0
-665,-769,0,0,0,0,0,0,0,0,0,-1,559,1793,0,0
-658,-769,0,0,0,0,0,0,0,0,0,-1,566,1793,0,0
-651,-769,0,0,0,0,0,0,0,0,0,-1,573,1793,0,0
-644,-769,0,0,0,0,0,0,0,0,0,-1,580,1793,0,0
-637,-769,0,0,0,0,0,0,0,0,0,-1,587,1793,0,0
-630,-769,0,0,0,0,0,0,0,0,0,-1,594,1793,0,0
-623,-769,0,0,0,0,0,0,0,0,0,-1,601,1793,0,0
-616,-769,0,0,0,0,0,0,0,0,0,-1,608,1793,0,0
-609,-769,0,0,0,0,0,0,0,0,0,-1,615,1793,0,0
-602,-769,0,0,0,0,0,0,0,0,0,-1,622,1793,0,0
-595,-769,0,0,0,0,0,0,0,0,0,-1,629,1793,0,0
-588,-769,0,0,0,0,0,0,0,0,0,-1,636,1793,0,0
-581,-769,0,0,0,0,0,0,0,0,0,-1,643,1793,0,0
-574,-769,0,0,0,0,0,0,0,0,0,-1,650,1793,0,0
-567,-769,0,0,0,0,0,0,0,0,0,-1,657,1793,0,0
-560,-769,0,0,0,0,0,0,0,0,0,-1,664,1793,0,0
-553,-769,0,0,0,0,0,0,0,0,0,-1,671,1793,0,0
-546,-769,0,0,0,0,0,0,0,0,0,-1,678,1793,0,0
-539,-769,0,0,0,0,0,0,0,0,0,-1,685,1793,0,0
-532,-769,0,0,0,0,0,0,0,0,0,-1,692,1793,0,0
-525,-769,0,0,0,0,0,0,0,0,0,-1,699,1793,0,0
-518,-769,0,0,0,0,0,0,0,0,0,-1,706,1793,0,0
-511,-769,0,0,0,0,0,0,0,0,0,-1,713,1793,0,0
-504,-769,0,0,0,0,0,0,0,0,0,-1,720,1793,0,0
-497,-769,0,0,0,0,0,0,0,0,0,-1,727,1793,0,0
-490,-769,0,0,0,0,0,0,0,0,0,-1,734,1793,0,0
-483,-769,0,0,0,0,0,0,0,0,0,-1,741,1793,0,0
-476,-769,0,0,0,0,0,0,0,0,0,-1,748,1793,0,0
-469,-769,0,0,0,0,0,0,0,0,0,-1,755,1793,0,0
-462,-769,0,0,0,0,0,0,0,0,0,-1,762,1793,0,0
-455,-769,0,0,0,0,0,0,0,0,0,-1,769,1793,0,0
-448,-769,0,0,0,0,0,0,0,0,0,-1,776,1793,0,0
-441,-769,0,0,0,0,0,0,0,0,0,-1,783,1793,0,0
-434,-769,0,0,0,0,0,0,0,0,0,-1,790,1793,0,0
-427,-769,0,0,0,0,0,0,0,0,0,-1,797,1793,0,0
-420,-769,0,0,0,0,0,0,0,0,0,-1,804,1793,0,0
-413,-769,0,0,0,0,0,0,0,0,0,-1,811,1793,0,0
-406,-769,0,0,0,0,0,0,0,0,0,-1,818,1793,0,0
-399,-769,0,0,0,0,0,0,0,0,0,-1,825,1793,0,0
-392,-769,0,0,0,0,0,0,0,0,0,-1,832,1793,0,0
-385,-769,0,0,0,0,0,0,0,0,0,-1,839,1793,0,0
-378,-769,0,0,0,0,0,0,0,0,0,-1,846,1793,0,0
-371,-769,0,0,0,0,0,0,0,0,0,-1,853,1793,0,0
-364,-769,0,0,0,0,0,0,0,0,0,-1,860,1793,0,0
-357,-769,0,0,0,0,0,0,0,0,0,-1,867,1793,0,0
-350,-769,0,0,0,0,0,0,0,0,0,-1,874,1793,0,0
-343,-769,0,0,0,0,0,0,0,0,0,-1,881,1793,0,0
-336,-769,0,0,0,0,0,0,0,0,0,-1,888,1793,0,0
-329,-769,0,0,0,0,0,0,0,0,0,-1,895,1793,0,0
-322,-769,0,0,0,0,0,0,0,0,0,-1,902,1793,0,0
-315,-769,0,0,0,0,0,0,0,0,0,-1,909,1793,0,0
-308,-769,0,0,0,0,0,0,0,0,0,-1,916,1793,0,0
-301,-769,0,0,0,0,0,0,0,0,0,-1,923,1793,0,0
-294,-769,0,0,0,0,0,0,0,0,0,-1,930,1793,0,0
-287,-769,0,0,0,0,0,0,0,0,0,-1,937,1793,0,0
-280,-769,0,0,0,0,0,0,0,0,0,-1,944,1793,0,0
-273,-769,0,0,0,0,0,0,0,0,0,-1,951,1793,0,0
-266,-769,0,0,0,0,0,0,0,0,0,-1,958,1793,0,0
-259,-769,0,0,0,0,0,0,0,0,0,-1,965,1793,0,0
-252,-769,0,0,0,0,0,0,0,0,0,-1,972,1793,0,0
-245,-769,0,0,0,0,0,0,0,0,0,-1,979,1793,0,0
-238,-769,0,0,0,0,0,0,0,0,0,-1,986,1793,0,0
-231,-769,0,0,0,0,0,0,0,0,0,-1,993,1793,0,0
-224,-769,0,0,0,0,0,0,0,0,0,-1,1000,1793,0,0
-217,-769,0,0,0,0,0,0,0,0,0,-1,1007,1793,0,0
-210,-769,0,0,0,0,0,0,0,0,0,-1,1014,1793,0,0
-203,-769,0,0,0,0,0,0,0,0,0,-1,1021,1793,0,0
-196,-769,0,0,0,0,0,0,0,0,0,-1,1028,1793,0,0
-189,-769,0,0,0,0,0,0,0,0,0,-1,1035,1793,0,0
-182,-769,0,0,0,0,0,0,0,0,0,-1,1042,1793,0,0
-175,-769,0,0,0,0,0,0,0,0,0,-1,1049,1793,0,0
-168,-769,0,0,0,0,0,0,0,0,0,-1,1056,1793,0,0
-161,-769,-3.61145,12.4761,0,0,0,0,0,0,0,-1,1063,1793,-3.6114,-12.476
-154,-769,-0.813232,5.32874,0,0,0,0,0,0,0,-1,1070,1793,-0.813269,-5.32872
-147,-769,4.26587,4.7002,0,0,0,0,0,0,0,-1,1077,1793,4.26593,-4.70022
-140,-769,4.10376,5.28589,0,0,0,0,0,0,0,-1,1084,1793,4.10371,-5.28584
-133,-769,6.422,8.21777,0,0,0,0,0,0,0,-1,1091,1793,6.42198,-8.21773
-126,-769,-0.352295,19.326,0,0,0,0,0,0,0,-1,1098,1793,-0.352235,-19.326
-119,-769,6.01685,16.2577,0,0,0,0,0,0,0,-1,1105,1793,6.01689,-16.2576
-112,-769,5.76416,27.2615,0,0,0,0,0,0,0,-1,1112,1793,5.7642,-27.2615
-105,-769,4.97009,22.8479,0,0,0,0,0,0,0,-1,1119,1793,4.97006,-22.8479
-98,-769,4.69373,18.9142,0,0,0,0,0,0,0,-1,1126,1793,4.69376,-18.9142
-91,-769,4.41748,14.9805,0,0,0,0,0,0,0,-1,1133,1793,4.41746,-14.9805
-84,-769,3.2207,12.4565,0,0,0,0,0,0,0,-1,1140,1793,3.22066,-12.4565
-77,-769,2.48816,8.98486,0,0,0,0,0,0,0,-1,1147,1793,2.48815,-8.98489
-70,-769,1.04944,11.9852,0,0,0,0,0,0,0,-1,1154,1793,1.04947,-11.9852
-63,-769,-2.39709,9.60339,0,0,0,0,0,0,0,-1,1161,1793,-2.39706,-9.6034
-56,-769,-5.84363,7.22156,0,0,0,0,0,0,0,-1,1168,1793,-5.84359,-7.22157
-49,-769,-2.41443,3.95471,0,0,0,0,0,0,0,-1,1175,1793,-2.41446,-3.95471
-42,-769,-3.1991,2.64941,0,0,0,0,0,0,0,-1,1182,1793,-3.19914,-2.64944
-35,-769,-3.50183,1.73389,0,0,0,0,0,0,0,-1,1189,1793,-3.50189,-1.7339
-28,-769,-3.96985,1.14075,0,0,0,0,0,0,0,-1,1196,1793,-3.96985,-1.14078
-21,-769,8.47876,36.2402,0,0,0,0,0,0,0,-1,1203,1793,8.47874,-36.2402
-14,-769,10.1151,43.097,0,0,0,0,0,0,0,-1,1210,1793,10.1151,-43.097
-7,-769,9.67358,43.3711,0,0,0,0,0,0,0,-1,1217,1793,9.67364,-43.3711
0,-769,9.39087,43.4744,-0.00180134,-0.000217123,0.0172158,0.0162248,-0.0182433,0.808387,0.0199115,0.0463171,1224,1793,9.39085,-43.4744
7,-769,8.97595,43.5081,-0.00225963,-0.00156169,0.0158444,0.0139376,-0.0177589,0.796409,0.0183443,0.0442973,1231,1793,8.97601,-43.5081
14,-769,8.73999,43.6125,-0.00213701,-0.00175361,0.0139147,0.0119707,-0.0158613,0.792286,0.016121,0.0439615,1238,1793,8.74001,-43.6125
21,-769,8.24744,43.5898,-0.00218865,-0.00104418,0.0121252,0.0105223,-0.0137551,0.808978,0.0140579,0.0452541,1245,1793,8.24749,-43.5899
28,-769,8.24512,43.6743,-0.00238227,0.000445565,0.0105063,0.00963265,-0.0115694,0.852285,0.012258,0.0458037,1252,1793,8.24508,-43.6743
35,-769,8.31091,43.6813,-0.00258916,0.00150484,0.00921061,0.00889317,-0.0099775,0.894743,0.010901,0.0476755,1259,1793,8.31089,-43.6813
42,-769,8.35913,43.6799,-0.00320178,0.00249622,0.00735832,0.00753783,-0.00824339,0.970102,0.00911432,0.046195,1266,1793,8.3591,-43.68
49,-769,8.3396,43.6324,-0.00485268,0.00231153,0.00537299,0.00518702,-0.00772817,1.07941,0.00750454,0.0437418,1273,1793,8.33959,-43.6325
56,-769,8.77295,43.3038,-0.00582098,0.00225452,0.00384326,0.00379118,-0.00735765,1.19043,0.00654564,0.0459779,1280,1793,8.77299,-43.3039
63,-769,8.61719,43.3837,-0.00696512,0.00324829,0.00215057,0.00368265,-0.00739948,1.3715,0.00651712,0.0444041,1287,1793,8.61715,-43.3837
70,-769,8.53564,43.4757,-0.0083038,0.00191352,0.000741632,0.00196707,-0.00835735,1.49871,0.00632997,0.0409688,1294,1793,8.53564,-43.4757
77,-769,8.29248,43.5812,-0.0100047,0.000566493,-0.000438589,0.000584658,-0.0100229,-1.5294,0.00688507,0.0429773,1301,1793,8.29252,-43.5812
84,-769,8.30615,43.8771,-0.0117718,-0.00165225,-0.0017402,-0.00136136,-0.0120627,-1.40517,0.0076286,0.0456259,1308,1793,8.3062,-43.877
91,-769,8.58813,43.5431,0,0,0,0,0,0,0,-1,1315,1793,8.58819,-43.5431
98,-769,8.02515,43.5592,-0.0126633,-0.00690072,-0.00589473,-0.00322078,-0.0163432,-1.01272,0.00999635,0.0468325,1322,1793,8.0251,-43.5592
105,-769,7.75769,43.5577,-0.0125043,-0.0095209,-0.00804734,-0.00282818,-0.0191971,-0.877042,0.0119672,0.0468387,1329,1793,7.75763,-43.5578
112,-769,7.49292,43.5632,-0.0119609,-0.0115559,-0.0106387,-0.00111776,-0.0223991,-0.794914,0.0145744,0.046834,1336,1793,7.49294,-43.5633
119,-769,7.84534,43.0507,0,0,0,0,0,0,0,-1,1343,1793,7.8453,-43.0507
126,-769,11.7419,43.7067,0,0,0,0,0,0,0,-1,1350,1793,11.742,-43.7067
133,-769,7.84521,42.8517,0,0,0,0,0,0,0,-1,1357,1793,7.84521,-42.8516
140,-769,8.72681,43.3254,0,0,0,0,0,0,0,-1,1364,1793,8.72681,-43.3255
147,-769,8.62671,43.0472,0,0,0,0,0,0,0,-1,1371,1793,8.62665,-43.0472
154,-769,7.76904,34.4832,0,0,0,0,0,0,0,-1,1378,1793,7.7691,-34.4832
161,-769,6.57019,1.53223,0,0,0,0,0,0,0,-1,1385,1793,6.57019,-1.53226
168,-769,8.27637,0.756958,0,0,0,0,0,0,0,-1,1392,1793,8.27639,-0.756944
175,-769,8.47144,2.41174,0,0,0,0,0,0,0,-1,1399,1793,8.47147,-2.4118
182,-769,8.41479,4.05994,0,0,0,0,0,0,0,-1,1406,1793,8.41479,-4.05997
189,-769,8.25049,5.68433,0,0,0,0,0,0,0,-1,1413,1793,8.25054,-5.68428
196,-769,7.97729,7.42847,0,0,0,0,0,0,0,-1,1420,1793,7.9773,-7.42848
203,-769,22.0977,6.73889,0,0,0,0,0,0,0,-1,1427,1793,22.0977,-6.7389
210,-769,22.1115,7.77246,0,0,0,0,0,0,0,-1,1434,1793,22.1115,-7.77248
217,-769,22.4723,8.79102,0,0,0,0,0,0,0,-1,1441,1793,22.4723,-8.79099
224,-769,22.1348,9.35278,0,0,0,0,0,0,0,-1,1448,1793,22.1348,-9.35283
231,-769,3.13318,19.7184,0,0,0,0,0,0,0,-1,1455,1793,3.13323,-19.7184
238,-769,5.74512,18.6597,0,0,0,0,0,0,0,-1,1462,1793,5.74512,-18.6596
245,-769,5.80798,22.87,0,0,0,0,0,0,0,-1,1469,1793,5.80796,-22.87
252,-769,8.39099,20.3199,0,0,0,0,0,0,0,-1,1476,1793,8.39098,-20.3199
259,-769,10.974,17.7698,0,0,0,0,0,0,0,-1,1483,1793,10.974,-17.7698
266,-769,15.8488,7.3905,0,0,0,0,0,0,0,-1,1490,1793,15.8488,-7.39046
273,-769,14.8075,7.56152,0,0,0,0,0,0,0,-1,1497,1793,14.8075,-7.56152
280,-769,13.6519,7.43054,0,0,0,0,0,0,0,-1,1504,1793,13.6518,-7.43058
287,-769,0,0,0,0,0,0,0,0,0,-1,1511,1793,0,0
294,-769,0,0,0,0,0,0,0,0,0,-1,1518,1793,0,0
301,-769,0,0,0,0,0,0,0,0,0,-1,1525,1793,0,0
308,-769,0,0,0,0,0,0,0,0,0,-1,1532,1793,0,0
315,-769,0,0,0,0,0,0,0,0,0,-1,1539,1793,0,0
322,-769,0,0,0,0,0,0,0,0,0,-1,1546,1793,0,0
329,-769,0,0,0,0,0,0,0,0,0,-1,1553,1793,0,0
336,-769,0,0,0,0,0,0,0,0,0,-1,1560,1793,0,0
343,-769,0,0,0,0,0,0,0,0,0,-1,1567,1793,0,0
350,-769,0,0,0,0,0,0,0,0,0,-1,1574,1793,0,0
357,-769,0,0,0,0,0,0,0,0,0,-1,1581,1793,0,0
364,-769,0,0,0,0,0,0,0,0,0,-1,1588,1793,0,0
371,-769,0,0,0,0,0,0,0,0,0,-1,1595,1793,0,0
378,-769,0,0,0,0,0,0,0,0,0,-1,1602,1793,0,0
385,-769,0,0,0,0,0,0,0,0,0,-1,1609,1793,0,0
392,-769,0,0,0,0,0,0,0,0,0,-1,1616,1793,0,0
399,-769,0,0,0,0,0,0,0,0,0,-1,1623,1793,0,0
406,-769,0,0,0,0,0,0,0,0,0,-1,1630,1793,0,0
413,-769,0,0,0,0,0,0,0,0,0,-1,1637,1793,0,0
420,-769,0,0,0,0,0,0,0,0,0,-1,1644,1793,0,0
427,-769,0,0,0,0,0,0,0,0,0,-1,1651,1793,0,0
434,-769,0,0,0,0,0,0,0,0,0,-1,1658,1793,0,0
441,-769,0,0,0,0,0,0,0,0,0,-1,1665,1793,0,0
448,-769,0,0,0,0,0,0,0,0,0,-1,1672,1793,0,0
455,-769,0,0,0,0,0,0,0,0,0,-1,1679,1793,0,0
462,-769,0,0,0,0,0,0,0,0,0,-1,1686,1793,0,0
469,-769,0,0,0,0,0,0,0,0,0,-1,1693,1793,0,0
476,-769,0,0,0,0,0,0,0,0,0,-1,1700,1793,0,0
483,-769,0,0,0,0,0,0,0,0,0,-1,1707,1793,0,0
490,-769,0,0,0,0,0,0,0,0,0,-1,1714,1793,0,0
497,-769,0,0,0,0,0,0,0,0,0,-1,1721,1793,0,0
504,-769,0,0,0,0,0,0,0,0,0,-1,1728,1793,0,0
511,-769,0,0,0,0,0,0,0,0,0,-1,1735,1793,0,0
518,-769,0,0,0,0,0,0,0,0,0,-1,1742,1793,0,0
525,-769,0,0,0,0,0,0,0,0,0,-1,1749,1793,0,0
532,-769,0,0,0,0,0,0,0,0,0,-1,1756,1793,0,0
539,-769,0,0,0,0,0,0,0,0,0,-1,1763,1793,0,0
546,-769,0,0,0,0,0,0,0,0,0,-1,1770,1793,0,0
553,-769,0,0,0,0,0,0,0,0,0,-1,1777,1793,0,0
560,-769,0,0,0,0,0,0,0,0,0,-1,1784,1793,0,0
567,-769,0,0,0,0,0,0,0,0,0,-1,1791,1793,0,0
574,-769,0,0,0,0,0,0,0,0,0,-1,1798,1793,0,0
581,-769,0,0,0,0,0,0,0,0,0,-1,1805,1793,0,0
588,-769,0,0,0,0,0,0,0,0,0,-1,1812,1793,0,0
595,-769,0,0,0,0,0,0,0,0,0,-1,1819,1793,0,0
602,-769,0,0,0,0,0,0,0,0,0,-1,1826,1793,0,0
609,-769,0,0,0,0,0,0,0,0,0,-1,1833,1793,0,0
616,-769,0,0,0,0,0,0,0,0,0,-1,1840,1793,0,0
623,-769,0,0,0,0,0,0,0,0,0,-1,1847,1793,0,0
630,-769,0,0,0,0,0,0,0,0,0,-1,1854,1793,0,0
637,-769,0,0,0,0,0,0,0,0,0,-1,1861,1793,0,0
644,-769,0,0,0,0,0,0,0,0,0,-1,1868,1793,0,0
651,-769,0,0,0,0,0,0,0,0,0,-1,1875,1793,0,0
658,-769,0,0,0,0,0,0,0,0,0,-1,1882,1793,0,0
665,-769,0,0,0,0,0,0,0,0,0,-1,1889,1793,0,0
672,-769,0,0,0,0,0,0,0,0,0,-1,1896,1793,0,0
679,-769,0,0,0,0,0,0,0,0,0,-1,1903,1793,0,0
686,-769,0,0,0,0,0,0,0,0,0,-1,1910,1793,0,0
693,-769,0,0,0,0,0,0,0,0,0,-1,1917,1793,0,0
700,-769,0,0,0,0,0,0,0,0,0,-1,1924,1793,0,0
707,-769,0,0,0,0,0,0,0,0,0,-1,1931,1793,0,0
714,-769,0,0,0,0,0,0,0,0,0,-1,1938,1793,0,0
721,-769,0,0,0,0,0,0,0,0,0,-1,1945,1793,0,0
728,-769,0,0,0,0,0,0,0,0,0,-1,1952,1793,0,0
735,-769,0,0,0,0,0,0,0,0,0,-1,1959,1793,0,0
742,-769,0,0,0,0,0,0,0,0,0,-1,1966,1793,0,0
749,-769,0,0,0,0,0,0,0,0,0,-1,1973,1793,0,0
756,-769,0,0,0,0,0,0,0,0,0,-1,1980,1793,0,0
763,-769,0,0,0,0,0,0,0,0,0,-1,1987,1793,0,0
770,-769,0,0,0,0,0,0,0,0,0,-1,1994,1793,0,0
777,-769,0,0,0,0,0,0,0,0,0,-1,2001,1793,0,0
784,-769,0,0,0,0,0,0,0,0,0,-1,2008,1793,0,0
791,-769,0,0,0,0,0,0,0,0,0,-1,2015,1793,0,0
798,-769,0,0,0,0,0,0,0,0,0,-1,2022,1793,0,0
805,-769,0,0,0,0,0,0,0,0,0,-1,2029,1793,0,0
812,-769,0,0,0,0,0,0,0,0,0,-1,2036,1793,0,0
-700,-776,0,0,0,0,0,0,0,0,0,-1,524,1800,0,0
-693,-776,0,0,0,0,0,0,0,0,0,-1,531,1800,0,0
-686,-776,0,0,0,0,0,0,0,0,0,-1,538,1800,0,0
-679,-776,0,0,0,0,0,0,0,0,0,-1,545,1800,0,0
-672,-776,0,0,0,0,0,0,0,0,0,-1,552,1800,0,0
-665,-776,0,0,0,0,0,0,0,0,0,-1,559,1800,0,0
-658,-776,0,0,0,0,0,0,0,0,0,-1,566,1800,0,0
-651,-776,0,0,0,0,0,0,0,0,0,-1,573,1800,0,0
-644,-776,0,0,0,0,0,0,0,0,0,-1,580,1800,0,0
-637,-776,0,0,0,0,0,0,0,0,0,-1,587,1800,0,0
-630,-776,0,0,0,0,0,0,0,0,0,-1,594,1800,0,0
-623,-776,0,0,0,0,0,0,0,0,0,-1,601,1800,0,0
-616,-776,0,0,0,0,0,0,0,0,0,-1,608,1800,0,0
-609,-776,0,0,0,0,0,0,0,0,0,-1,615,1800,0,0
-602,-776,0,0,0,0,0,0,0,0,0,-1,622,1800,0,0
-595,-776,0,0,0,0,0,0,0,0,0,-1,629,1800,0,0
-588,-776,0,0,0,0,0,0,0,0,0,-1,636,1800,0,0
-581,-776,0,0,0,0,0,0,0,0,0,-1,643,1800,0,0
-574,-776,0,0,0,0,0,0,0,0,0,-1,650,1800,0,0
-567,-776,0,0,0,0,0,0,0,0,0,-1,657,1800,0,0
-560,-776,0,0,0,0,0,0,0,0,0,-1,664,1800,0,0
-553,-776,0,0,0,0,0,0,0,0,0,-1,671,1800,0,0
-546,-776,0,0,0,0,0,0,0,0,0,-1,678,1800,0,0
-539,-776,0,0,0,0,0,0,0,0,0,-1,685,1800,0,0
-532,-776,0,0,0,0,0,0,0,0,0,-1,692,1800,0,0
-525,-776,0,0,0,0,0,0,0,0,0,-1,699,1800,0,0
-518,-776,0,0,0,0,0,0,0,0,0,-1,706,1800,0,0
-511,-776,0,0,0,0,0,0,0,0,0,-1,713,1800,0,0
-504,-776,0,0,0,0,0,0,0,0,0,-1,720,1800,0,0
-497,-776,0,0,0,0,0,0,0,0,0,-1,727,1800,0,0
-490,-776,0,0,0,0,0,0,0,0,0,-1,734,1800,0,0
-483,-776,0,0,0,0,0,0,0,0,0,-1,741,1800,0,0
-476,-776,0,0,0,0,0,0,0,0,0,-1,748,1800,0,0
-469,-776,0,0,0,0,0,0,0,0,0,-1,755,1800,0,0
-462,-776,0,0,0,0,0,0,0,0,0,-1,762,1800,0,0
-455,-776,0,0,0,0,0,0,0,0,0,-1,769,1800,0,0
-448,-776,0,0,0,0,0,0,0,0,0,-1,776,1800,0,0
-441,-776,0,0,0,0,0,0,0,0,0,-1,783,1800,0,0
-434,-776,0,0,0,0,0,0,0,0,0,-1,790,1800,0,0
-427,-776,0,0,0,0,0,0,0,0,0,-1,797,1800,0,0
-420,-776,0,0,0,0,0,0,0,0,0,-1,804,1800,0,0
-413,-776,0,0,0,0,0,0,0,0,0,-1,811,1800,0,0
-406,-776,0,0,0,0,0,0,0,0,0,-1,818,1800,0,0
-399,-776,0,0,0,0,0,0,0,0,0,-1,825,1800,0,0
-392,-776,0,0,0,0,0,0,0,0,0,-1,832,1800,0,0
-385,-776,0,0,0,0,0,0,0,0,0,-1,839,1800,0,0
-378,-776,0,0,0,0,0,0,0,0,0,-1,846,1800,0,0
-371,-776,0,0,0,0,0,0,0,0,0,-1,853,1800,0,0
-364,-776,0,0,0,0,0,0,0,0,0,-1,860,1800,0,0
-357,-776,0,0,0,0,0,0,0,0,0,-1,867,1800,0,0
-350,-776,0,0,0,0,0,0,0,0,0,-1,874,1800,0,0
-343,-776,0,0,0,0,0,0,0,0,0,-1,881,1800,0,0
-336,-776,0,0,0,0,0,0,0,0,0,-1,888,1800,0,0
-329,-776,0,0,0,0,0,0,0,0,0,-1,895,1800,0,0
-322,-776,0,0,0,0,0,0,0,0,0,-1,902,1800,0,0
-315,-776,0,0,0,0,0,0,0,0,0,-1,909,1800,0,0
-308,-776,0,0,0,0,0,0,0,0,0,-1,916,1800,0,0
-301,-776,0,0,0,0,0,0,0,0,0,-1,923,1800,0,0
-294,-776,0,0,0,0,0,0,0,0,0,-1,930,1800,0,0
-287,-776,0,0,0,0,0,0,0,0,0,-1,937,1800,0,0
-280,-776,0,0,0,0,0,0,0,0,0,-1,944,1800,0,0
-273,-776,0,0,0,0,0,0,0,0,0,-1,951,1800,0,0
-266,-776,0,0,0,0,0,0,0,0,0,-1,958,1800,0,0
-259,-776,0,0,0,0,0,0,0,0,0,-1,965,1800,0,0
-252,-776,0,0,0,0,0,0,0,0,0,-1,972,1800,0,0
-245,-776,0,0,0,0,0,0,0,0,0,-1,979,1800,0,0
-238,-776,0,0,0,0,0,0,0,0,0,-1,986,1800,0,0
-231,-776,0,0,0,0,0,0,0,0,0,-1,993,1800,0,0
-224,-776,0,0,0,0,0,0,0,0,0,-1,1000,1800,0,0
-217,-776,0,0,0,0,0,0,0,0,0,-1,1007,1800,0,0
-210,-776,0,0,0,0,0,0,0,0,0,-1,1014,1800,0,0
-203,-776,0,0,0,0,0,0,0,0,0,-1,1021,1800,0,0
-196,-776,0,0,0,0,0,0,0,0,0,-1,1028,1800,0,0
-189,-776,0,0,0,0,0,0,0,0,0,-1,1035,1800,0,0
-182,-776,0,0,0,0,0,0,0,0,0,-1,1042,1800,0,0
-175,-776,0,0,0,0,0,0,0,0,0,-1,1049,1800,0,0
-168,-776,0,0,0,0,0,0,0,0,0,-1,1056,1800,0,0
-161,-776,0,0,0,0,0,0,0,0,0,-1,1063,1800,0,0
-154,-776,0,0,0,0,0,0,0,0,0,-1,1070,1800,0,0
-147,-776,0,0,0,0,0,0,0,0,0,-1,1077,1800,0,0
-140,-776,2.98499,5.20911,0,0,0,0,0,0,0,-1,1084,1800,2.98493,-5.2091
-133,-776,6.72363,9.35828,0,0,0,0,0,0,0,-1,1091,1800,6.72358,-9.35824
-126,-776,6.55029,13.7832,0,0,0,0,0,0,0,-1,1098,1800,6.55029,-13.7832
-119,-776,5.72107,13.7787,0,0,0,0,0,0,0,-1,1105,1800,5.72106,-13.7787
-112,-776,6.84998,20.4421,0,0,0,0,0,0,0,-1,1112,1800,6.84993,-20.4421
-105,-776,4.46863,24.6742,0,0,0,0,0,0,0,-1,1119,1800,4.46868,-24.6742
-98,-776,4.31616,19.7659,0,0,0,0,0,0,0,-1,1126,1800,4.31619,-19.7659
-91,-776,3.30225,18.134,0,0,0,0,0,0,0,-1,1133,1800,3.30222,-18.134
-84,-776,2.67932,14.3162,0,0,0,0,0,0,0,-1,1140,1800,2.67926,-14.3161
-77,-776,0.580078,11.1272,0,0,0,0,0,0,0,-1,1147,1800,0.58002,-11.1272
-70,-776,-0.562866,12.3163,0,0,0,0,0,0,0,-1,1154,1800,-0.562897,-12.3163
-63,-776,-3.96106,9.97656,0,0,0,0,0,0,0,-1,1161,1800,-3.961,-9.97654
-56,-776,-7.35913,7.63672,0,0,0,0,0,0,0,-1,1168,1800,-7.3591,-7.63676
-49,-776,-7.62952,3.1908,0,0,0,0,0,0,0,-1,1175,1800,-7.62955,-3.19076
-42,-776,-3.41272,3.0249,0,0,0,0,0,0,0,-1,1182,1800,-3.41269,-3.02488
-35,-776,-3.71753,1.63635,0,0,0,0,0,0,0,-1,1189,1800,-3.71755,-1.63631
-28,-776,-4.03979,0.716064,0,0,0,0,0,0,0,-1,1196,1800,-4.03977,-0.716055
-21,-776,13.4424,41.88,0,0,0,0,0,0,0,-1,1203,1800,13.4423,-41.88
-14,-776,13.2604,42.3822,0,0,0,0,0,0,0,-1,1210,1800,13.2604,-42.3822
-7,-776,10.4835,43.1658,0,0,0,0,0,0,0,-1,1217,1800,10.4835,-43.1657
0,-776,9.69666,43.0403,0.00173714,-0.00262383,0.0221715,0.0218351,-0.0227218,0.736383,0.0257266,0.0462199,1224,1800,9.6966,-43.0403
7,-776,8.87964,43.1479,0.000702828,-0.0047711,0.0202658,0.0184157,-0.022484,0.718278,0.0236523,0.0470589,1231,1800,8.87965,-43.148
14,-776,8.68811,43.4143,0.000476861,-0.00518549,0.017691,0.0155618,-0.0202705,0.706054,0.0207472,0.044376,1238,1800,8.68813,-43.4143
21,-776,8.15186,43.4642,-7.79175e-05,-0.00420735,0.015441,0.0134358,-0.017721,0.718934,0.018045,0.0435028,1245,1800,8.15185,-43.4642
28,-776,8.01489,43.5278,-0.000776015,-0.00214385,0.0134233,0.0119808,-0.0149006,0.759945,0.0155505,0.0443264,1252,1800,8.01485,-43.5278
35,-776,8.13074,43.6541,0,0,0,0,0,0,0,-1,1259,1800,8.13071,-43.6541
42,-776,8.26819,43.6157,0,0,0,0,0,0,0,-1,1266,1800,8.26822,-43.6158
49,-776,8.37952,43.2977,-0.00529231,0.0010891,0.00699522,0.00558694,-0.00979015,0.999367,0.00898784,0.0430453,1273,1800,8.37947,-43.2977
56,-776,8.62695,43.1829,-0.00686686,0.00130833,0.00503686,0.00370752,-0.00926605,1.12627,0.00771606,0.0447726,1280,1800,8.62692,-43.1829
63,-776,8.80103,43.1873,-0.00859037,0.0031254,0.0029527,0.00382749,-0.00929246,1.33735,0.00779077,0.0470149,1287,1800,8.80105,-43.1872
70,-776,8.79102,43.118,-0.0104823,0.00155603,0.00106929,0.00165027,-0.0105766,1.48289,0.0076606,0.0479021,1294,1800,8.791,-43.1181
77,-776,8.5061,43.4772,-0.0127632,-2.28293e-06,-0.000582266,2.42302e-05,-0.0127898,-1.52529,0.00853459,0.0481851,1301,1800,8.5061,-43.4771
84,-776,8.35901,43.9851,-0.0149957,-0.00284329,-0.00249644,-0.00235044,-0.0154885,-1.37588,0.00963822,0.0481973,1308,1800,8.35896,-43.9851
91,-776,8.64026,43.4895,0,0,0,0,0,0,0,-1,1315,1800,8.64028,-43.4895
98,-776,7.81165,44.0101,-0.0161053,-0.00978973,-0.00840314,-0.00397065,-0.0219244,-0.965129,0.013489,0.0444619,1322,1800,7.81167,-44.0101
105,-776,7.51514,43.5677,-0.0156932,-0.0129991,-0.0116099,-0.0026583,-0.0260339,-0.843154,0.0165412,0.0457681,1329,1800,7.51512,-43.5678
112,-776,7.99133,43.5719,-0.0147324,-0.0153691,-0.0153923,0.000344832,-0.0304464,-0.775058,0.0204135,0.0478589,1336,1800,7.99133,-43.5719
119,-776,7.79175,43.2949,0,0,0,0,0,0,0,-1,1343,1800,7.79174,-43.2949
126,-776,5.42163,41.4197,0,0,0,0,0,0,0,-1,1350,1800,5.42169,-41.4196
133,-776,4.82947,41.1761,0,0,0,0,0,0,0,-1,1357,1800,4.82951,-41.1761
140,-776,7.59167,44.3367,0,0,0,0,0,0,0,-1,1364,1800,7.59164,-44.3367
147,-776,4.38184,33.3923,0,0,0,0,0,0,0,-1,1371,1800,4.38185,-33.3923
154,-776,38.4338,21.854,0,0,0,0,0,0,0,-1,1378,1800,38.4339,-21.854
161,-776,6.50293,1.1731,0,0,0,0,0,0,0,-1,1385,1800,6.5029,-1.17313
168,-776,8.44971,1.22913,0,0,0,0,0,0,0,-1,1392,1800,8.44974,-1.22915
175,-776,8.61523,2.87061,0,0,0,0,0,0,0,-1,1399,1800,8.6152,-2.87063
182,-776,8.54065,4.60645,0,0,0,0,0,0,0,-1,1406,1800,8.5407,-4.60643
189,-776,8.35303,6.28223,0,0,0,0,0,0,0,-1,1413,1800,8.35297,-6.28225
196,-776,8.0387,8.21704,0,0,0,0,0,0,0,-1,1420,1800,8.03865,-8.217
203,-776,7.91736,9.79919,0,0,0,0,0,0,0,-1,1427,1800,7.91735,-9.79922
210,-776,20.2479,7.85718,0,0,0,0,0,0,0,-1,1434,1800,20.248,-7.85719
217,-776,21.5171,9.3418,0,0,0,0,0,0,0,-1,1441,1800,21.5171,-9.34182
224,-776,3.09253,14.9313,0,0,0,0,0,0,0,-1,1448,1800,3.09254,-14.9313
231,-776,20.8671,9.21057,0,0,0,0,0,0,0,-1,1455,1800,20.867,-9.21054
238,-776,20.7511,9.05847,0,0,0,0,0,0,0,-1,1462,1800,20.7511,-9.05848
245,-776,3.80823,15.4108,0,0,0,0,0,0,0,-1,1469,1800,3.80826,-15.4108
252,-776,8.57837,20.2009,0,0,0,0,0,0,0,-1,1476,1800,8.57841,-20.2009
259,-776,14.1882,7.69055,0,0,0,0,0,0,0,-1,1483,1800,14.1882,-7.69061
266,-776,0,0,0,0,0,0,0,0,0,-1,1490,1800,0,0
273,-776,0,0,0,0,0,0,0,0,0,-1,1497,1800,0,0
280,-776,0,0,0,0,0,0,0,0,0,-1,1504,1800,0,0
287,-776,0,0,0,0,0,0,0,0,0,-1,1511,1800,0,0
294,-776,0,0,0,0,0,0,0,0,0,-1,1518,1800,0,0
301,-776,0,0,0,0,0,0,0,0,0,-1,1525,1800,0,0
308,-776,0,0,0,0,0,0,0,0,0,-1,1532,1800,0,0
315,-776,0,0,0,0,0,0,0,0,0,-1,1539,1800,0,0
322,-776,0,0,0,0,0,0,0,0,0,-1,1546,1800,0,0
329,-776,0,0,0,0,0,0,0,0,0,-1,1553,1800,0,0
336,-776,0,0,0,0,0,0,0,0,0,-1,1560,1800,0,0
343,-776,0,0,0,0,0,0,0,0,0,-1,1567,1800,0,0
350,-776,0,0,0,0,0,0,0,0,0,-1,1574,1800,0,0
357,-776,0,0,0,0,0,0,0,0,0,-1,1581,1800,0,0
364,-776,0,0,0,0,0,0,0,0,0,-1,1588,1800,0,0
371,-776,0,0,0,0,0,0,0,0,0,-1,1595,1800,0,0
378,-776,0,0,0,0,0,0,0,0,0,-1,1602,1800,0,0
385,-776,0,0,0,0,0,0,0,0,0,-1,1609,1800,0,0
392,-776,0,0,0,0,0,0,0,0,0,-1,1616,1800,0,0
399,-776,0,0,0,0,0,0,0,0,0,-1,1623,1800,0,0
406,-776,0,0,0,0,0,0,0,0,0,-1,1630,1800,0,0
413,-776,0,0,0,0,0,0,0,0,0,-1,1637,1800,0,0
420,-776,0,0,0,0,0,0,0,0,0,-1,1644,1800,0,0
427,-776,0,0,0,0,0,0,0,0,0,-1,1651,1800,0,0
434,-776,0,0,0,0,0,0,0,0,0,-1,1658,1800,0,0
441,-776,0,0,0,0,0,0,0,0,0,-1,1665,1800,0,0
448,-776,0,0,0,0,0,0,0,0,0,-1,1672,1800,0,0
455,-776,0,0,0,0,0,0,0,0,0,-1,1679,1800,0,0
462,-776,0,0,0,0,0,0,0,0,0,-1,1686,1800,0,0
469,-776,0,0,0,0,0,0,0,0,0,-1,1693,1800,0,0
476,-776,0,0,0,0,0,0,0,0,0,-1,1700,1800,0,0
483,-776,0,0,0,0,0,0,0,0,0,-1,1707,1800,0,0
490,-776,0,0,0,0,0,0,0,0,0,-1,1714,1800,0,0
497,-776,0,0,0,0,0,0,0,0,0,-1,1721,1800,0,0
504,-776,0,0,0,0,0,0,0,0,0,-1,1728,1800,0,0
511,-776,0,0,0,0,0,0,0,0,0,-1,1735,1800,0,0
518,-776,0,0,0,0,0,0,0,0,0,-1,1742,1800,0,0
525,-776,0,0,0,0,0,0,0,0,0,-1,1749,1800,0,0
532,-776,0,0,0,0,0,0,0,0,0,-1,1756,1800,0,0
539,-776,0,0,0,0,0,0,0,0,0,-1,1763,1800,0,0
546,-776,0,0,0,0,0,0,0,0,0,-1,1770,1800,0,0
553,-776,0,0,0,0,0,0,0,0,0,-1,1777,1800,0,0
560,-776,0,0,0,0,0,0,0,0,0,-1,1784,1800,0,0
567,-776,0,0,0,0,0,0,0,0,0,-1,1791,1800,0,0
574,-776,0,0,0,0,0,0,0,0,0,-1,1798,1800,0,0
581,-776,0,0,0,0,0,0,0,0,0,-1,1805,1800,0,0
588,-776,0,0,0,0,0,0,0,0,0,-1,1812,1800,0,0
595,-776,0,0,0,0,0,0,0,0,0,-1,1819,1800,0,0
602,-776,0,0,0,0,0,0,0,0,0,-1,1826,1800,0,0
609,-776,0,0,0,0,0,0,0,0,0,-1,1833,1800,0,0
616,-776,0,0,0,0,0,0,0,0,0,-1,1840,1800,0,0
623,-776,0,0,0,0,0,0,0,0,0,-1,1847,1800,0,0
630,-776,0,0,0,0,0,0,0,0,0,-1,1854,1800,0,0
637,-776,0,0,0,0,0,0,0,0,0,-1,1861,1800,0,0
644,-776,0,0,0,0,0,0,0,0,0,-1,1868,1800,0,0
651,-776,0,0,0,0,0,0,0,0,0,-1,1875,1800,0,0
658,-776,0,0,0,0,0,0,0,0,0,-1,1882,1800,0,0
665,-776,0,0,0,0,0,0,0,0,0,-1,1889,1800,0,0
672,-776,0,0,0,0,0,0,0,0,0,-1,1896,1800,0,0
679,-776,0,0,0,0,0,0,0,0,0,-1,1903,1800,0,0
686,-776,0,0,0,0,0,0,0,0,0,-1,1910,1800,0,0
693,-776,0,0,0,0,0,0,0,0,0,-1,1917,1800,0,0
700,-776,0,0,0,0,0,0,0,0,0,-1,1924,1800,0,0
707,-776,0,0,0,0,0,0,0,0,0,-1,1931,1800,0,0
714,-776,0,0,0,0,0,0,0,0,0,-1,1938,1800,0,0
721,-776,0,0,0,0,0,0,0,0,0,-1,1945,1800,0,0
728,-776,0,0,0,0,0,0,0,0,0,-1,1952,1800,0,0
735,-776,0,0,0,0,0,0,0,0,0,-1,1959,1800,0,0
742,-776,0,0,0,0,0,0,0,0,0,-1,1966,1800,0,0
749,-776,0,0,0,0,0,0,0,0,0,-1,1973,1800,0,0
756,-776,0,0,0,0,0,0,0,0,0,-1,1980,1800,0,0
763,-776,0,0,0,0,0,0,0,0,0,-1,1987,1800,0,0
770,-776,0,0,0,0,0,0,0,0,0,-1,1994,1800,0,0
777,-776,0,0,0,0,0,0,0,0,0,-1,2001,1800,0,0
784,-776,0,0,0,0,0,0,0,0,0,-1,2008,1800,0,0
791,-776,0,0,0,0,0,0,0,0,0,-1,2015,1800,0,0
798,-776,0,0,0,0,0,0,0,0,0,-1,2022,1800,0,0
805,-776,0,0,0,0,0,0,0,0,0,-1,2029,1800,0,0
812,-776,0,0,0,0,0,0,0,0,0,-1,2036,1800,0,0
-700,-783,0,0,0,0,0,0,0,0,0,-1,524,1807,0,0
-693,-783,0,0,0,0,0,0,0,0,0,-1,531,1807,0,0
-686,-783,0,0,0,0,0,0,0,0,0,-1,538,1807,0,0
-679,-783,0,0,0,0,0,0,0,0,0,-1,545,1807,0,0
-672,-783,0,0,0,0,0,0,0,0,0,-1,552,1807,0,0
-665,-783,0,0,0,0,0,0,0,0,0,-1,559,1807,0,0
-658,-783,0,0,0,0,0,0,0,0,0,-1,566,1807,0,0
-651,-783,0,0,0,0,0,0,0,0,0,-1,573,1807,0,0
-644,-783,0,0,0,0,0,0,0,0,0,-1,580,1807,0,0
-637,-783,0,0,0,0,0,0,0,0,0,-1,587,1807,0,0
-630,-783,0,0,0,0,0,0,0,0,0,-1,594,1807,0,0
-623,-783,0,0,0,0,0,0,0,0,0,-1,601,1807,0,0
-616,-783,0,0,0,0,0,0,0,0,0,-1,608,1807,0,0
-609,-783,0,0,0,0,0,0,0,0,0,-1,615,1807,0,0
-602,-783,0,0,0,0,0,0,0,0,0,-1,622,1807,0,0
-595,-783,0,0,0,0,0,0,0,0,0,-1,629,1807,0,0
-588,-783,0,0,0,0,0,0,0,0,0,-1,636,1807,0,0
-581,-783,0,0,0,0,0,0,0,0,0,-1,643,1807,0,0
-574,-783,0,0,0,0,0,0,0,0,0,-1,650,1807,0,0
-567,-783,0,0,0,0,0,0,0,0,0,-1,657,1807,0,0
-560,-783,0,0,0,0,0,0,0,0,0,-1,664,1807,0,0
-553,-783,0,0,0,0,0,0,0,0,0,-1,671,1807,0,0
-546,-783,0,0,0,0,0,0,0,0,0,-1,678,1807,0,0
-539,-783,0,0,0,0,0,0,0,0,0,-1,685,1807,0,0
-532,-783,0,0,0,0,0,0,0,0,0,-1,692,1807,0,0
-525,-783,0,0,0,0,0,0,0,0,0,-1,699,1807,0,0
-518,-783,0,0,0,0,0,0,0,0,0,-1,706,1807,0,0
-511,-783,0,0,0,0,0,0,0,0,0,-1,713,1807,0,0
-504,-783,0,0,0,0,0,0,0,0,0,-1,720,1807,0,0
-497,-783,0,0,0,0,0,0,0,0,0,-1,727,1807,0,0
-490,-783,0,0,0,0,0,0,0,0,0,-1,734,1807,0,0
-483,-783,0,0,0,0,0,0,0,0,0,-1,741,1807,0,0
-476,-783,0,0,0,0,0,0,0,0,0,-1,748,1807,0,0
-469,-783,0,0,0,0,0,0,0,0,0,-1,755,1807,0,0
-462,-783,0,0,0,0,0,0,0,0,0,-1,762,1807,0,0
-455,-783,0,0,0,0,0,0,0,0,0,-1,769,1807,0,0
-448,-783,0,0,0,0,0,0,0,0,0,-1,776,1807,0,0
-441,-783,0,0,0,0,0,0,0,0,0,-1,783,1807,0,0
-434,-783,0,0,0,0,0,0,0,0,0,-1,790,1807,0,0
-427,-783,0,0,0,0,0,0,0,0,0,-1,797,1807,0,0
-420,-783,0,0,0,0,0,0,0,0,0,-1,804,1807,0,0
-413,-783,0,0,0,0,0,0,0,0,0,-1,811,1807,0,0
-406,-783,0,0,0,0,0,0,0,0,0,-1,818,1807,0,0
-399,-783,0,0,0,0,0,0,0,0,0,-1,825,1807,0,0
-392,-783,0,0,0,0,0,0,0,0,0,-1,832,1807,0,0
-385,-783,0,0,0,0,0,0,0,0,0,-1,839,1807,0,0
-378,-783,0,0,0,0,0,0,0,0,0,-1,846,1807,0,0
-371,-783,0,0,0,0,0,0,0,0,0,-1,853,1807,0,0
-364,-783,0,0,0,0,0,0,0,0,0,-1,860,1807,0,0
-357,-783,0,0,0,0,0,0,0,0,0,-1,867,1807,0,0
-350,-783,0,0,0,0,0,0,0,0,0,-1,874,1807,0,0
-343,-783,0,0,0,0,0,0,0,0,0,-1,881,1807,0,0
-336,-783,0,0,0,0,0,0,0,0,0,-1,888,1807,0,0
-329,-783,0,0,0,0,0,0,0,0,0,-1,895,1807,0,0
-322,-783,0,0,0,0,0,0,0,0,0,-1,902,1807,0,0
-315,-783,0,0,0,0,0,0,0,0,0,-1,909,1807,0,0
-308,-783,0,0,0,0,0,0,0,0,0,-1,916,1807,0,0
-301,-783,0,0,0,0,0,0,0,0,0,-1,923,1807,0,0
-294,-783,0,0,0,0,0,0,0,0,0,-1,930,1807,0,0
-287,-783,0,0,0,0,0,0,0,0,0,-1,937,1807,0,0
-280,-783,0,0,0,0,0,0,0,0,0,-1,944,1807,0,0
-273,-783,0,0,0,0,0,0,0,0,0,-1,951,1807,0,0
-266,-783,0,0,0,0,0,0,0,0,0,-1,958,1807,0,0
-259,-783,0,0,0,0,0,0,0,0,0,-1,965,1807,0,0
-252,-783,0,0,0,0,0,0,0,0,0,-1,972,1807,0,0
-245,-783,0,0,0,0,0,0,0,0,0,-1,979,1807,0,0
-238,-783,0,0,0,0,0,0,0,0,0,-1,986,1807,0,0
-231,-783,0,0,0,0,0,0,0,0,0,-1,993,1807,0,0
-224,-783,0,0,0,0,0,0,0,0,0,-1,1000,1807,0,0
-217,-783,0,0,0,0,0,0,0,0,0,-1,1007,1807,0,0
-210,-783,0,0,0,0,0,0,0,0,0,-1,1014,1807,0,0
-203,-783,0,0,0,0,0,0,0,0,0,-1,1021,1807,0,0
-196,-783,0,0,0,0,0,0,0,0,0,-1,1028,1807,0,0
-189,-783,0,0,0,0,0,0,0,0,0,-1,1035,1807,0,0
-182,-783,0,0,0,0,0,0,0,0,0,-1,1042,1807,0,0
-175,-783,0,0,0,0,0,0,0,0,0,-1,1049,1807,0,0
-168,-783,0,0,0,0,0,0,0,0,0,-1,1056,1807,0,0
-161,-783,0,0,0,0,0,0,0,0,0,-1,1063,1807,0,0
-154,-783,0,0,0,0,0,0,0,0,0,-1,1070,1807,0,0
-147,-783,0,0,0,0,0,0,0,0,0,-1,1077,1807,0,0
-140,-783,0,0,0,0,0,0,0,0,0,-1,1084,1807,0,0
-133,-783,0,0,0,0,0,0,0,0,0,-1,1091,1807,0,0
-126,-783,0,0,0,0,0,0,0,0,0,-1,1098,1807,0,0
-119,-783,0,0,0,0,0,0,0,0,0,-1,1105,1807,0,0
-112,-783,5.33936,14.7699,0,0,0,0,0,0,0,-1,1112,1807,5.33931,-14.7699
-105,-783,6.44263,21.2224,0,0,0,0,0,0,0,-1,1119,1807,6.44263,-21.2224
-98,-783,5.54773,20.5695,0,0,0,0,0,0,0,-1,1126,1807,5.54772,-20.5695
-91,-783,2.6106,20.2491,0,0,0,0,0,0,0,-1,1133,1807,2.61056,-20.2492
-84,-783,-0.0491943,14.5743,0,0,0,0,0,0,0,-1,1140,1807,-0.0491562,-14.5743
-77,-783,0.332764,12.7788,0,0,0,0,0,0,0,-1,1147,1807,0.332743,-12.7788
-70,-783,-1.93176,5.12817,0,0,0,0,0,0,0,-1,1154,1807,-1.93171,-5.12813
-63,-783,-5.31702,10.54,0,0,0,0,0,0,0,-1,1161,1807,-5.31703,-10.54
-56,-783,-6.26135,6.9679,0,0,0,0,0,0,0,-1,1168,1807,-6.26136,-6.96785
-49,-783,-3.17688,4.59705,0,0,0,0,0,0,0,-1,1175,1807,-3.17685,-4.5971
-42,-783,-3.72876,3.1405,0,0,0,0,0,0,0,-1,1182,1807,-3.72874,-3.14055
-35,-783,-3.97046,1.59399,0,0,0,0,0,0,0,-1,1189,1807,-3.97041,-1.59401
-28,-783,-4.12195,0.270386,0,0,0,0,0,0,0,-1,1196,1807,-4.12197,-0.270408
-21,-783,13.0039,43.0491,0,0,0,0,0,0,0,-1,1203,1807,13.0039,-43.0491
-14,-783,6.49438,42.4517,0,0,0,0,0,0,0,-1,1210,1807,6.49438,-42.4516
-7,-783,6.95447,42.6068,0.0108531,-0.00174027,0.0292228,0.0344499,-0.0253371,0.679285,0.0346514,0.0443683,1217,1807,6.95445,-42.6068
0,-783,7.35876,42.8168,0.00719592,-0.0070498,0.0274902,0.028471,-0.0283249,0.658633,0.0327912,0.0433572,1224,1807,7.35872,-42.8168
7,-783,7.63953,42.8237,0.00543079,-0.0103531,0.0248958,0.0236556,-0.0285779,0.631909,0.0302016,0.046314,1231,1807,7.63955,-42.8237
14,-783,7.69543,43.0533,0.00466695,-0.011035,0.0215683,0.0197687,-0.0261368,0.61085,0.0265884,0.0469813,1238,1807,7.69548,-43.0534
21,-783,7.74231,43.3693,0.00327218,-0.00961767,0.0189246,0.0168192,-0.0231647,0.621279,0.0231814,0.0445487,1245,1807,7.7423,-43.3693
28,-783,7.88879,43.4792,0.00178491,-0.00677517,0.0165547,0.0146039,-0.0195942,0.658899,0.0198142,0.0456968,1252,1807,7.88877,-43.4792
35,-783,8.15515,43.6354,0,0,0,0,0,0,0,-1,1259,1807,8.15515,-43.6354
42,-783,8.41296,43.5958,-0.00210676,-0.00187967,0.0119439,0.00995123,-0.0139377,0.790151,0.0138561,0.0480495,1266,1807,8.41299,-43.5958
49,-783,8.40662,42.913,-0.00562889,-0.00134974,0.00887501,0.00563996,-0.0126186,0.903681,0.0107952,0.0461093,1273,1807,8.40664,-42.9129
56,-783,8.42896,42.8829,-0.00803847,-0.000572608,0.00645028,0.00314704,-0.0117581,1.04771,0.00907157,0.0452491,1280,1807,8.42898,-42.883
63,-783,8.76648,42.5676,-0.0105382,0.00256541,0.00397008,0.0036744,-0.0116472,1.2984,0.00923649,0.045809,1287,1807,8.76648,-42.5677
70,-783,8.97656,42.7864,0,0,0,0,0,0,0,-1,1294,1807,8.97652,-42.7864
77,-783,8.67126,43.3713,-0.0160889,-0.000703209,-0.00077621,-0.000664148,-0.016128,-1.52052,0.0105376,0.0462189,1301,1807,8.67121,-43.3714
84,-783,8.09692,44.5214,-0.0188336,-0.00417883,-0.00354474,-0.00336645,-0.019646,-1.34551,0.0121319,0.0483478,1308,1807,8.09692,-44.5214
91,-783,7.79102,44.704,-0.0201601,-0.00885861,-0.0073109,-0.00526922,-0.0237495,-1.1144,0.0144016,0.044896,1315,1807,7.79107,-44.704
98,-783,7.36853,44.5492,-0.0201635,-0.0131951,-0.0119056,-0.00427432,-0.0290842,-0.927749,0.0181334,0.0462736,1322,1807,7.36856,-44.5492
105,-783,7.28528,43.8221,0,0,0,0,0,0,0,-1,1329,1807,7.28529,-43.8221
112,-783,8.93579,43.5425,0,0,0,0,0,0,0,-1,1336,1807,8.93574,-43.5424
119,-783,8.52002,43.4021,0,0,0,0,0,0,0,-1,1343,1807,8.51997,-43.4021
126,-783,4.93372,41.8033,0,0,0,0,0,0,0,-1,1350,1807,4.9337,-41.8034
133,-783,7.33765,44.402,0,0,0,0,0,0,0,-1,1357,1807,7.33769,-44.4019
140,-783,8.31726,44.6808,0,0,0,0,0,0,0,-1,1364,1807,8.3173,-44.6808
147,-783,9.69092,45.6047,0,0,0,0,0,0,0,-1,1371,1807,9.69091,-45.6048
154,-783,38.2109,17.545,0,0,0,0,0,0,0,-1,1378,1807,38.2109,-17.545
161,-783,39.5087,17.5449,0,0,0,0,0,0,0,-1,1385,1807,39.5087,-17.545
168,-783,8.62561,1.79944,0,0,0,0,0,0,0,-1,1392,1807,8.62561,-1.79946
175,-783,8.78699,3.40857,0,0,0,0,0,0,0,-1,1399,1807,8.78697,-3.40854
182,-783,8.70984,5.14661,0,0,0,0,0,0,0,-1,1406,1807,8.70989,-5.14666
189,-783,8.55762,6.79871,0,0,0,0,0,0,0,-1,1413,1807,8.55766,-6.79872
196,-783,8.25488,8.66626,0,0,0,0,0,0,0,-1,1420,1807,8.25492,-8.66628
203,-783,7.86755,10.5735,0,0,0,0,0,0,0,-1,1427,1807,7.8676,-10.5734
210,-783,5.6969,8.99231,0,0,0,0,0,0,0,-1,1434,1807,5.69693,-8.99234
217,-783,5.28503,3.80872,0,0,0,0,0,0,0,-1,1441,1807,5.285,-3.80868
224,-783,3.22571,6.62903,0,0,0,0,0,0,0,-1,1448,1807,3.2257,-6.62907
231,-783,4.27942,4.56262,0,0,0,0,0,0,0,-1,1455,1807,4.27948,-4.56267
238,-783,0,0,0,0,0,0,0,0,0,-1,1462,1807,0,0
245,-783,0,0,0,0,0,0,0,0,0,-1,1469,1807,0,0
252,-783,0,0,0,0,0,0,0,0,0,-1,1476,1807,0,0
259,-783,0,0,0,0,0,0,0,0,0,-1,1483,1807,0,0
266,-783,0,0,0,0,0,0,0,0,0,-1,1490,1807,0,0
273,-783,0,0,0,0,0,0,0,0,0,-1,1497,1807,0,0
280,-783,0,0,0,0,0,0,0,0,0,-1,1504,1807,0,0
287,-783,0,0,0,0,0,0,0,0,0,-1,1511,1807,0,0
294,-783,0,0,0,0,0,0,0,0,0,-1,1518,1807,0,0
301,-783,0,0,0,0,0,0,0,0,0,-1,1525,1807,0,0
308,-783,0,0,0,0,0,0,0,0,0,-1,1532,1807,0,0
315,-783,0,0,0,0,0,0,0,0,0,-1,1539,1807,0,0
322,-783,0,0,0,0,0,0,0,0,0,-1,1546,1807,0,0
329,-783,0,0,0,0,0,0,0,0,0,-1,1553,1807,0,0
336,-783,0,0,0,0,0,0,0,0,0,-1,1560,1807,0,0
343,-783,0,0,0,0,0,0,0,0,0,-1,1567,1807,0,0
350,-783,0,0,0,0,0,0,0,0,0,-1,1574,1807,0,0
357,-783,0,0,0,0,0,0,0,0,0,-1,1581,1807,0,0
364,-783,0,0,0,0,0,0,0,0,0,-1,1588,1807,0,0
371,-783,0,0,0,0,0,0,0,0,0,-1,1595,1807,0,0
378,-783,0,0,0,0,0,0,0,0,0,-1,1602,1807,0,0
385,-783,0,0,0,0,0,0,0,0,0,-1,1609,1807,0,0
392,-783,0,0,0,0,0,0,0,0,0,-1,1616,1807,0,0
399,-783,0,0,0,0,0,0,0,0,0,-1,1623,1807,0,0
406,-783,0,0,0,0,0,0,0,0,0,-1,1630,1807,0,0
413,-783,0,0,0,0,0,0,0,0,0,-1,1637,1807,0,0
420,-783,0,0,0,0,0,0,0,0,0,-1,1644,1807,0,0
427,-783,0,0,0,0,0,0,0,0,0,-1,1651,1807,0,0
434,-783,0,0,0,0,0,0,0,0,0,-1,1658,1807,0,0
441,-783,0,0,0,0,0,0,0,0,0,-1,1665,1807,0,0
448,-783,0,0,0,0,0,0,0,0,0,-1,1672,1807,0,0
455,-783,0,0,0,0,0,0,0,0,0,-1,1679,1807,0,0
462,-783,0,0,0,0,0,0,0,0,0,-1,1686,1807,0,0
469,-783,0,0,0,0,0,0,0,0,0,-1,1693,1807,0,0
476,-783,0,0,0,0,0,0,0,0,0,-1,1700,1807,0,0
483,-783,0,0,0,0,0,0,0,0,0,-1,1707,1807,0,0
490,-783,0,0,0,0,0,0,0,0,0,-1,1714,1807,0,0
497,-783,0,0,0,0,0,0,0,0,0,-1,1721,1807,0,0
504,-783,0,0,0,0,0,0,0,0,0,-1,1728,1807,0,0
511,-783,0,0,0,0,0,0,0,0,0,-1,1735,1807,0,0
518,-783,0,0,0,0,0,0,0,0,0,-1,1742,1807,0,0
525,-783,0,0,0,0,0,0,0,0,0,-1,1749,1807,0,0
532,-783,0,0,0,0,0,0,0,0,0,-1,1756,1807,0,0
539,-783,0,0,0,0,0,0,0,0,0,-1,1763,1807,0,0
546,-783,0,0,0,0,0,0,0,0,0,-1,1770,1807,0,0
553,-783,0,0,0,0,0,0,0,0,0,-1,1777,1807,0,0
560,-783,0,0,0,0,0,0,0,0,0,-1,1784,1807,0,0
567,-783,0,0,0,0,0,0,0,0,0,-1,1791,1807,0,0
574,-783,0,0,0,0,0,0,0,0,0,-1,1798,1807,0,0
581,-783,0,0,0,0,0,0,0,0,0,-1,1805,1807,0,0
588,-783,0,0,0,0,0,0,0,0,0,-1,1812,1807,0,0
595,-783,0,0,0,0,0,0,0,0,0,-1,1819,1807,0,0
602,-783,0,0,0,0,0,0,0,0,0,-1,1826,1807,0,0
609,-783,0,0,0,0,0,0,0,0,0,-1,1833,1807,0,0
616,-783,0,0,0,0,0,0,0,0,0,-1,1840,1807,0,0
623,-783,0,0,0,0,0,0,0,0,0,-1,1847,1807,0,0
630,-783,0,0,0,0,0,0,0,0,0,-1,1854,1807,0,0
637,-783,0,0,0,0,0,0,0,0,0,-1,1861,1807,0,0
644,-783,0,0,0,0,0,0,0,0,0,-1,1868,1807,0,0
651,-783,0,0,0,0,0,0,0,0,0,-1,1875,1807,0,0
658,-783,0,0,0,0,0,0,0,0,0,-1,1882,1807,0,0
665,-783,0,0,0,0,0,0,0,0,0,-1,1889,1807,0,0
672,-783,0,0,0,0,0,0,0,0,0,-1,1896,1807,0,0
679,-783,0,0,0,0,0,0,0,0,0,-1,1903,1807,0,0
686,-783,0,0,0,0,0,0,0,0,0,-1,1910,1807,0,0
693,-783,0,0,0,0,0,0,0,0,0,-1,1917,1807,0,0
700,-783,0,0,0,0,0,0,0,0,0,-1,1924,1807,0,0
707,-783,0,0,0,0,0,0,0,0,0,-1,1931,1807,0,0
714,-783,0,0,0,0,0,0,0,0,0,-1,1938,1807,0,0
721,-783,0,0,0,0,0,0,0,0,0,-1,1945,1807,0,0
728,-783,0,0,0,0,0,0,0,0,0,-1,1952,1807,0,0
735,-783,0,0,0,0,0,0,0,0,0,-1,1959,1807,0,0
742,-783,0,0,0,0,0,0,0,0,0,-1,1966,1807,0,0
749,-783,0,0,0,0,0,0,0,0,0,-1,1973,1807,0,0
756,-783,0,0,0,0,0,0,0,0,0,-1,1980,1807,0,0
763,-783,0,0,0,0,0,0,0,0,0,-1,1987,1807,0,0
770,-783,0,0,0,0,0,0,0,0,0,-1,1994,1807,0,0
777,-783,0,0,0,0,0,0,0,0,0,-1,2001,1807,0,0
784,-783,0,0,0,0,0,0,0,0,0,-1,2008,1807,0,0
791,-783,0,0,0,0,0,0,0,0,0,-1,2015,1807,0,0
798,-783,0,0,0,0,0,0,0,0,0,-1,2022,1807,0,0
805,-783,0,0,0,0,0,0,0,0,0,-1,2029,1807,0,0
812,-783,0,0,0,0,0,0,0,0,0,-1,2036,1807,0,0
-700,-790,0,0,0,0,0,0,0,0,0,-1,524,1814,0,0
-693,-790,0,0,0,0,0,0,0,0,0,-1,531,1814,0,0
-686,-790,0,0,0,0,0,0,0,0,0,-1,538,1814,0,0
-679,-790,0,0,0,0,0,0,0,0,0,-1,545,1814,0,0
-672,-790,0,0,0,0,0,0,0,0,0,-1,552,1814,0,0
-665,-790,0,0,0,0,0,0,0,0,0,-1,559,1814,0,0
-658,-790,0,0,0,0,0,0,0,0,0,-1,566,1814,0,0
-651,-790,0,0,0,0,0,0,0,0,0,-1,573,1814,0,0
-644,-790,0,0,0,0,0,0,0,0,0,-1,580,1814,0,0
-637,-790,0,0,0,0,0,0,0,0,0,-1,587,1814,0,0
-630,-790,0,0,0,0,0,0,0,0,0,-1,594,1814,0,0
-623,-790,0,0,0,0,0,0,0,0,0,-1,601,1814,0,0
-616,-790,0,0,0,0,0,0,0,0,0,-1,608,1814,0,0
-609,-790,0,0,0,0,0,0,0,0,0,-1,615,1814,0,0
-602,-790,0,0,0,0,0,0,0,0,0,-1,622,1814,0,0
-595,-790,0,0,0,0,0,0,0,0,0,-1,629,1814,0,0
-588,-790,0,0,0,0,0,0,0,0,0,-1,636,1814,0,0
-581,-790,0,0,0,0,0,0,0,0,0,-1,643,1814,0,0
-574,-790,0,0,0,0,0,0,0,0,0,-1,650,1814,0,0
-567,-790,0,0,0,0,0,0,0,0,0,-1,657,1814,0,0
-560,-790,0,0,0,0,0,0,0,0,0,-1,664,1814,0,0
-553,-790,0,0,0,0,0,0,0,0,0,-1,671,1814,0,0
-546,-790,0,0,0,0,0,0,0,0,0,-1,678,1814,0,0
-539,-790,0,0,0,0,0,0,0,0,0,-1,685,1814,0,0
-532,-790,0,0,0,0,0,0,0,0,0,-1,692,1814,0,0
-525,-790,0,0,0,0,0,0,0,0,0,-1,699,1814,0,0
-518,-790,0,0,0,0,0,0,0,0,0,-1,706,1814,0,0
-511,-790,0,0,0,0,0,0,0,0,0,-1,713,1814,0,0
-504,-790,0,0,0,0,0,0,0,0,0,-1,720,1814,0,0
-497,-790,0,0,0,0,0,0,0,0,0,-1,727,1814,0,0
-490,-790,0,0,0,0,0,0,0,0,0,-1,734,1814,0,0
-483,-790,0,0,0,0,0,0,0,0,0,-1,741,1814,0,0
-476,-790,0,0,0,0,0,0,0,0,0,-1,748,1814,0,0
-469,-790,0,0,0,0,0,0,0,0,0,-1,755,1814,0,0
-462,-790,0,0,0,0,0,0,0,0,0,-1,762,1814,0,0
-455,-790,0,0,0,0,0,0,0,0,0,-1,769,1814,0,0
-448,-790,0,0,0,0,0,0,0,0,0,-1,776,1814,0,0
-441,-790,0,0,0,0,0,0,0,0,0,-1,783,1814,0,0
-434,-790,0,0,0,0,0,0,0,0,0,-1,790,1814,0,0
-427,-790,0,0,0,0,0,0,0,0,0,-1,797,1814,0,0
-420,-790,0,0,0,0,0,0,0,0,0,-1,804,1814,0,0
-413,-790,0,0,0,0,0,0,0,0,0,-1,811,1814,0,0
-406,-790,0,0,0,0,0,0,0,0,0,-1,818,1814,0,0
-399,-790,0,0,0,0,0,0,0,0,0,-1,825,1814,0,0
-392,-790,0,0,0,0,0,0,0,0,0,-1,832,1814,0,0
-385,-790,0,0,0,0,0,0,0,0,0,-1,839,1814,0,0
-378,-790,0,0,0,0,0,0,0,0,0,-1,846,1814,0,0
-371,-790,0,0,0,0,0,0,0,0,0,-1,853,1814,0,0
-364,-790,0,0,0,0,0,0,0,0,0,-1,860,1814,0,0
-357,-790,0,0,0,0,0,0,0,0,0,-1,867,1814,0,0
-350,-790,0,0,0,0,0,0,0,0,0,-1,874,1814,0,0
-343,-790,0,0,0,0,0,0,0,0,0,-1,881,1814,0,0
-336,-790,0,0,0,0,0,0,0,0,0,-1,888,1814,0,0
-329,-790,0,0,0,0,0,0,0,0,0,-1,895,1814,0,0
-322,-790,0,0,0,0,0,0,0,0,0,-1,902,1814,0,0
-315,-790,0,0,0,0,0,0,0,0,0,-1,909,1814,0,0
-308,-790,0,0,0,0,0,0,0,0,0,-1,916,1814,0,0
-301,-790,0,0,0,0,0,0,0,0,0,-1,923,1814,0,0
-294,-790,0,0,0,0,0,0,0,0,0,-1,930,1814,0,0
-287,-790,0,0,0,0,0,0,0,0,0,-1,937,1814,0,0
-280,-790,0,0,0,0,0,0,0,0,0,-1,944,1814,0,0
-273,-790,0,0,0,0,0,0,0,0,0,-1,951,1814,0,0
-266,-790,0,0,0,0,0,0,0,0,0,-1,958,1814,0,0
-259,-790,0,0,0,0,0,0,0,0,0,-1,965,1814,0,0
-252,-790,0,0,0,0,0,0,0,0,0,-1,972,1814,0,0
-245,-790,0,0,0,0,0,0,0,0,0,-1,979,1814,0,0
-238,-790,0,0,0,0,0,0,0,0,0,-1,986,1814,0,0
-231,-790,0,0,0,0,0,0,0,0,0,-1,993,1814,0,0
-224,-790,0,0,0,0,0,0,0,0,0,-1,1000,1814,0,0
-217,-790,0,0,0,0,0,0,0,0,0,-1,1007,1814,0,0
-210,-790,0,0,0,0,0,0,0,0,0,-1,1014,1814,0,0
-203,-790,0,0,0,0,0,0,0,0,0,-1,1021,1814,0,0
-196,-790,0,0,0,0,0,0,0,0,0,-1,1028,1814,0,0
-189,-790,0,0,0,0,0,0,0,0,0,-1,1035,1814,0,0
-182,-790,0,0,0,0,0,0,0,0,0,-1,1042,1814,0,0
-175,-790,0,0,0,0,0,0,0,0,0,-1,1049,1814,0,0
-168,-790,0,0,0,0,0,0,0,0,0,-1,1056,1814,0,0
-161,-790,0,0,0,0,0,0,0,0,0,-1,1063,1814,0,0
-154,-790,0,0,0,0,0,0,0,0,0,-1,1070,1814,0,0
-147,-790,0,0,0,0,0,0,0,0,0,-1,1077,1814,0,0
-140,-790,0,0,0,0,0,0,0,0,0,-1,1084,1814,0,0
-133,-790,0,0,0,0,0,0,0,0,0,-1,1091,1814,0,0
-126,-790,0,0,0,0,0,0,0,0,0,-1,1098,1814,0,0
-119,-790,0,0,0,0,0,0,0,0,0,-1,1105,1814,0,0
-112,-790,0,0,0,0,0,0,0,0,0,-1,1112,1814,0,0
-105,-790,0,0,0,0,0,0,0,0,0,-1,1119,1814,0,0
-98,-790,0,0,0,0,0,0,0,0,0,-1,1126,1814,0,0
-91,-790,0,0,0,0,0,0,0,0,0,-1,1133,1814,0,0
-84,-790,0,0,0,0,0,0,0,0,0,-1,1140,1814,0,0
-77,-790,-0.969238,5.30847,0,0,0,0,0,0,0,-1,1147,1814,-0.969277,-5.3085
-70,-790,-1.23169,4.98914,0,0,0,0,0,0,0,-1,1154,1814,-1.23163,-4.98916
-63,-790,-1.69128,4.32263,0,0,0,0,0,0,0,-1,1161,1814,-1.69128,-4.32258
-56,-790,-2.24756,3.75305,0,0,0,0,0,0,0,-1,1168,1814,-2.24758,-3.75302
-49,-790,-3.11011,3.35779,0,0,0,0,0,0,0,-1,1175,1814,-3.11006,-3.35781
-42,-790,0.593262,1.19165,0,0,0,0,0,0,0,-1,1182,1814,0.593225,-1.19165
-35,-790,0.307129,-0.20105,0,0,0,0,0,0,0,-1,1189,1814,0.307178,0.201006
-28,-790,-2.78467,0.785156,0,0,0,0,0,0,0,-1,1196,1814,-2.78471,-0.785183
-21,-790,5.82092,42.1151,0,0,0,0,0,0,0,-1,1203,1814,5.82086,-42.1151
-14,-790,6.33606,42.168,0,0,0,0,0,0,0,-1,1210,1814,6.33606,-42.1679
-7,-790,6.83447,42.1998,0.0200928,-0.00584973,0.03515,0.0445885,-0.0303455,0.608637,0.0435229,0.0464366,1217,1814,6.83442,-42.1998
0,-790,7.24536,42.4138,0.0150855,-0.0146934,0.0327977,0.0362152,-0.0358232,0.572319,0.0415916,0.0462227,1224,1814,7.24531,-42.4138
7,-790,7.49377,42.7631,0.0124437,-0.0196191,0.0292622,0.0297782,-0.0369536,0.534802,0.0386018,0.0452718,1231,1814,7.49378,-42.763
14,-790,7.47021,43.542,0,0,0,0,0,0,0,-1,1238,1814,7.47023,-43.542
21,-790,7.6217,43.6583,0.0080706,-0.0183134,0.0222954,0.0207845,-0.0310272,0.518254,0.0301077,0.0464344,1245,1814,7.62166,-43.6584
28,-790,7.76514,43.7545,0.00540109,-0.0143776,0.0197143,0.0175674,-0.0265439,0.552922,0.0256429,0.0438607,1252,1814,7.76512,-43.7545
35,-790,7.92114,43.8608,0,0,0,0,0,0,0,-1,1259,1814,7.92115,-43.8609
42,-790,7.82275,43.9674,0,0,0,0,0,0,0,-1,1266,1814,7.82278,-43.9674
49,-790,8.45374,42.5541,0,0,0,0,0,0,0,-1,1273,1814,8.45369,-42.5541
56,-790,9.32288,42.1746,0,0,0,0,0,0,0,-1,1280,1814,9.32283,-42.1746
63,-790,9.15674,42.45,-0.0129695,0.00135702,0.00530103,0.00310516,-0.0147177,1.25225,0.010994,0.0484125,1287,1814,9.1568,-42.4499
70,-790,8.99597,42.7505,-0.0163841,-0.000118288,0.00213053,0.000156143,-0.0166586,1.44269,0.0111581,0.0443556,1294,1814,8.99599,-42.7504
77,-790,8.80176,43.0424,-0.0201418,-0.00151176,-0.000947027,-0.00146375,-0.0201899,-1.52014,0.0129995,0.0426371,1301,1814,8.80176,-43.0424
84,-790,7.70288,45.3639,0,0,0,0,0,0,0,-1,1308,1814,7.70292,-45.3638
91,-790,7.40369,45.855,-0.0250267,-0.0113423,-0.0101791,-0.00591955,-0.0304494,-1.0813,0.0186424,0.0450101,1315,1814,7.40372,-45.855
98,-790,7.30371,44.7261,-0.0249578,-0.0170063,-0.0166517,-0.00386227,-0.0381019,-0.902584,0.0242167,0.0463297,1322,1814,7.30369,-44.7261
105,-790,6.90857,44.424,0,0,0,0,0,0,0,-1,1329,1814,6.90855,-44.4239
112,-790,9.53052,43.3951,0,0,0,0,0,0,0,-1,1336,1814,9.53055,-43.3951
119,-790,12.2244,39.2338,0,0,0,0,0,0,0,-1,1343,1814,12.2244,-39.2337
126,-790,12.5178,39.056,0,0,0,0,0,0,0,-1,1350,1814,12.5178,-39.0561
133,-790,7.88574,44.6008,0,0,0,0,0,0,0,-1,1357,1814,7.88569,-44.6009
140,-790,8.69153,45.1654,0,0,0,0,0,0,0,-1,1364,1814,8.69147,-45.1654
147,-790,9.46143,45.7765,0,0,0,0,0,0,0,-1,1371,1814,9.46145,-45.7765
154,-790,40.215,13.2396,0,0,0,0,0,0,0,-1,1378,1814,40.2149,-13.2396
161,-790,39.3429,13.0336,0,0,0,0,0,0,0,-1,1385,1814,39.3429,-13.0336
168,-790,7.04077,2.23279,0,0,0,0,0,0,0,-1,1392,1814,7.04082,-2.23275
175,-790,9.03918,3.98535,0,0,0,0,0,0,0,-1,1399,1814,9.0392,-3.98535
182,-790,8.96997,5.67896,0,0,0,0,0,0,0,-1,1406,1814,8.97001,-5.6789
189,-790,8.59729,6.86975,0,0,0,0,0,0,0,-1,1413,1814,8.59728,-6.86972
196,-790,8.21924,9.29053,0,0,0,0,0,0,0,-1,1420,1814,8.21924,-9.29048
203,-790,0,0,0,0,0,0,0,0,0,-1,1427,1814,0,0
210,-790,0,0,0,0,0,0,0,0,0,-1,1434,1814,0,0
217,-790,0,0,0,0,0,0,0,0,0,-1,1441,1814,0,0
224,-790,0,0,0,0,0,0,0,0,0,-1,1448,1814,0,0
231,-790,0,0,0,0,0,0,0,0,0,-1,1455,1814,0,0
238,-790,0,0,0,0,0,0,0,0,0,-1,1462,1814,0,0
245,-790,0,0,0,0,0,0,0,0,0,-1,1469,1814,0,0
252,-790,0,0,0,0,0,0,0,0,0,-1,1476,1814,0,0
259,-790,0,0,0,0,0,0,0,0,0,-1,1483,1814,0,0
266,-790,0,0,0,0,0,0,0,0,0,-1,1490,1814,0,0
273,-790,0,0,0,0,0,0,0,0,0,-1,1497,1814,0,0
280,-790,0,0,0,0,0,0,0,0,0,-1,1504,1814,0,0
287,-790,0,0,0,0,0,0,0,0,0,-1,1511,1814,0,0
294,-790,0,0,0,0,0,0,0,0,0,-1,1518,1814,0,0
301,-790,0,0,0,0,0,0,0,0,0,-1,1525,1814,0,0
308,-790,0,0,0,0,0,0,0,0,0,-1,1532,1814,0,0
315,-790,0,0,0,0,0,0,0,0,0,-1,1539,1814,0,0
322,-790,0,0,0,0,0,0,0,0,0,-1,1546,1814,0,0
329,-790,0,0,0,0,0,0,0,0,0,-1,1553,1814,0,0
336,-790,0,0,0,0,0,0,0,0,0,-1,1560,1814,0,0
343,-790,0,0,0,0,0,0,0,0,0,-1,1567,1814,0,0
350,-790,0,0,0,0,0,0,0,0,0,-1,1574,1814,0,0
357,-790,0,0,0,0,0,0,0,0,0,-1,1581,1814,0,0
364,-790,0,0,0,0,0,0,0,0,0,-1,1588,1814,0,0
371,-790,0,0,0,0,0,0,0,0,0,-1,1595,1814,0,0
378,-790,0,0,0,0,0,0,0,0,0,-1,1602,1814,0,0
385,-790,0,0,0,0,0,0,0,0,0,-1,1609,1814,0,0
392,-790,0,0,0,0,0,0,0,0,0,-1,1616,1814,0,0
399,-790,0,0,0,0,0,0,0,0,0,-1,1623,1814,0,0
406,-790,0,0,0,0,0,0,0,0,0,-1,1630,1814,0,0
413,-790,0,0,0,0,0,0,0,0,0,-1,1637,1814,0,0
420,-790,0,0,0,0,0,0,0,0,0,-1,1644,1814,0,0
427,-790,0,0,0,0,0,0,0,0,0,-1,1651,1814,0,0
434,-790,0,0,0,0,0,0,0,0,0,-1,1658,1814,0,0
441,-790,0,0,0,0,0,0,0,0,0,-1,1665,1814,0,0
448,-790,0,0,0,0,0,0,0,0,0,-1,1672,1814,0,0
455,-790,0,0,0,0,0,0,0,0,0,-1,1679,1814,0,0
462,-790,0,0,0,0,0,0,0,0,0,-1,1686,1814,0,0
469,-790,0,0,0,0,0,0,0,0,0,-1,1693,1814,0,0
476,-790,0,0,0,0,0,0,0,0,0,-1,1700,1814,0,0
483,-790,0,0,0,0,0,0,0,0,0,-1,1707,1814,0,0
490,-790,0,0,0,0,0,0,0,0,0,-1,1714,1814,0,0
497,-790,0,0,0,0,0,0,0,0,0,-1,1721,1814,0,0
504,-790,0,0,0,0,0,0,0,0,0,-1,1728,1814,0,0
511,-790,0,0,0,0,0,0,0,0,0,-1,1735,1814,0,0
518,-790,0,0,0,0,0,0,0,0,0,-1,1742,1814,0,0
525,-790,0,0,0,0,0,0,0,0,0,-1,1749,1814,0,0
532,-790,0,0,0,0,0,0,0,0,0,-1,1756,1814,0,0
539,-790,0,0,0,0,0,0,0,0,0,-1,1763,1814,0,0
546,-790,0,0,0,0,0,0,0,0,0,-1,1770,1814,0,0
553,-790,0,0,0,0,0,0,0,0,0,-1,1777,1814,0,0
560,-790,0,0,0,0,0,0,0,0,0,-1,1784,1814,0,0
567,-790,0,0,0,0,0,0,0,0,0,-1,1791,1814,0,0
574,-790,0,0,0,0,0,0,0,0,0,-1,1798,1814,0,0
581,-790,0,0,0,0,0,0,0,0,0,-1,1805,1814,0,0
588,-790,0,0,0,0,0,0,0,0,0,-1,1812,1814,0,0
595,-790,0,0,0,0,0,0,0,0,0,-1,1819,1814,0,0
602,-790,0,0,0,0,0,0,0,0,0,-1,1826,1814,0,0
609,-790,0,0,0,0,0,0,0,0,0,-1,1833,1814,0,0
616,-790,0,0,0,0,0,0,0,0,0,-1,1840,1814,0,0
623,-790,0,0,0,0,0,0,0,0,0,-1,1847,1814,0,0
630,-790,0,0,0,0,0,0,0,0,0,-1,1854,1814,0,0
637,-790,0,0,0,0,0,0,0,0,0,-1,1861,1814,0,0
644,-790,0,0,0,0,0,0,0,0,0,-1,1868,1814,0,0
651,-790,0,0,0,0,0,0,0,0,0,-1,1875,1814,0,0
658,-790,0,0,0,0,0,0,0,0,0,-1,1882,1814,0,0
665,-790,0,0,0,0,0,0,0,0,0,-1,1889,1814,0,0
672,-790,0,0,0,0,0,0,0,0,0,-1,1896,1814,0,0
679,-790,0,0,0,0,0,0,0,0,0,-1,1903,1814,0,0
686,-790,0,0,0,0,0,0,0,0,0,-1,1910,1814,0,0
693,-790,0,0,0,0,0,0,0,0,0,-1,1917,1814,0,0
700,-790,0,0,0,0,0,0,0,0,0,-1,1924,1814,0,0
707,-790,0,0,0,0,0,0,0,0,0,-1,1931,1814,0,0
714,-790,0,0,0,0,0,0,0,0,0,-1,1938,1814,0,0
721,-790,0,0,0,0,0,0,0,0,0,-1,1945,1814,0,0
728,-790,0,0,0,0,0,0,0,0,0,-1,1952,1814,0,0
735,-790,0,0,0,0,0,0,0,0,0,-1,1959,1814,0,0
742,-790,0,0,0,0,0,0,0,0,0,-1,1966,1814,0,0
749,-790,0,0,0,0,0,0,0,0,0,-1,1973,1814,0,0
756,-790,0,0,0,0,0,0,0,0,0,-1,1980,1814,0,0
763,-790,0,0,0,0,0,0,0,0,0,-1,1987,1814,0,0
770,-790,0,0,0,0,0,0,0,0,0,-1,1994,1814,0,0
777,-790,0,0,0,0,0,0,0,0,0,-1,2001,1814,0,0
784,-790,0,0,0,0,0,0,0,0,0,-1,2008,1814,0,0
791,-790,0,0,0,0,0,0,0,0,0,-1,2015,1814,0,0
798,-790,0,0,0,0,0,0,0,0,0,-1,2022,1814,0,0
805,-790,0,0,0,0,0,0,0,0,0,-1,2029,1814,0,0
812,-790,0,0,0,0,0,0,0,0,0,-1,2036,1814,0,0
-700,-797,0,0,0,0,0,0,0,0,0,-1,524,1821,0,0
-693,-797,0,0,0,0,0,0,0,0,0,-1,531,1821,0,0
-686,-797,0,0,0,0,0,0,0,0,0,-1,538,1821,0,0
-679,-797,0,0,0,0,0,0,0,0,0,-1,545,1821,0,0
-672,-797,0,0,0,0,0,0,0,0,0,-1,552,1821,0,0
-665,-797,0,0,0,0,0,0,0,0,0,-1,559,1821,0,0
-658,-797,0,0,0,0,0,0,0,0,0,-1,566,1821,0,0
-651,-797,0,0,0,0,0,0,0,0,0,-1,573,1821,0,0
-644,-797,0,0,0,0,0,0,0,0,0,-1,580,1821,0,0
-637,-797,0,0,0,0,0,0,0,0,0,-1,587,1821,0,0
-630,-797,0,0,0,0,0,0,0,0,0,-1,594,1821,0,0
-623,-797,0,0,0,0,0,0,0,0,0,-1,601,1821,0,0
-616,-797,0,0,0,0,0,0,0,0,0,-1,608,1821,0,0
-609,-797,0,0,0,0,0,0,0,0,0,-1,615,1821,0,0
-602,-797,0,0,0,0,0,0,0,0,0,-1,622,1821,0,0
-595,-797,0,0,0,0,0,0,0,0,0,-1,629,1821,0,0
-588,-797,0,0,0,0,0,0,0,0,0,-1,636,1821,0,0
-581,-797,0,0,0,0,0,0,0,0,0,-1,643,1821,0,0
-574,-797,0,0,0,0,0,0,0,0,0,-1,650,1821,0,0
-567,-797,0,0,0,0,0,0,0,0,0,-1,657,1821,0,0
-560,-797,0,0,0,0,0,0,0,0,0,-1,664,1821,0,0
-553,-797,0,0,0,0,0,0,0,0,0,-1,671,1821,0,0
-546,-797,0,0,0,0,0,0,0,0,0,-1,678,1821,0,0
-539,-797,0,0,0,0,0,0,0,0,0,-1,685,1821,0,0
-532,-797,0,0,0,0,0,0,0,0,0,-1,692,1821,0,0
-525,-797,0,0,0,0,0,0,0,0,0,-1,699,1821,0,0
-518,-797,0,0,0,0,0,0,0,0,0,-1,706,1821,0,0
-511,-797,0,0,0,0,0,0,0,0,0,-1,713,1821,0,0
-504,-797,0,0,0,0,0,0,0,0,0,-1,720,1821,0,0
-497,-797,0,0,0,0,0,0,0,0,0,-1,727,1821,0,0
-490,-797,0,0,0,0,0,0,0,0,0,-1,734,1821,0,0
-483,-797,0,0,0,0,0,0,0,0,0,-1,741,1821,0,0
-476,-797,0,0,0,0,0,0,0,0,0,-1,748,1821,0,0
-469,-797,0,0,0,0,0,0,0,0,0,-1,755,1821,0,0
-462,-797,0,0,0,0,0,0,0,0,0,-1,762,1821,0,0
-455,-797,0,0,0,0,0,0,0,0,0,-1,769,1821,0,0
-448,-797,0,0,0,0,0,0,0,0,0,-1,776,1821,0,0
-441,-797,0,0,0,0,0,0,0,0,0,-1,783,1821,0,0
-434,-797,0,0,0,0,0,0,0,0,0,-1,790,1821,0,0
-427,-797,0,0,0,0,0,0,0,0,0,-1,797,1821,0,0
-420,-797,0,0,0,0,0,0,0,0,0,-1,804,1821,0,0
-413,-797,0,0,0,0,0,0,0,0,0,-1,811,1821,0,0
-406,-797,0,0,0,0,0,0,0,0,0,-1,818,1821,0,0
-399,-797,0,0,0,0,0,0,0,0,0,-1,825,1821,0,0
-392,-797,0,0,0,0,0,0,0,0,0,-1,832,1821,0,0
-385,-797,0,0,0,0,0,0,0,0,0,-1,839,1821,0,0
-378,-797,0,0,0,0,0,0,0,0,0,-1,846,1821,0,0
-371,-797,0,0,0,0,0,0,0,0,0,-1,853,1821,0,0
-364,-797,0,0,0,0,0,0,0,0,0,-1,860,1821,0,0
-357,-797,0,0,0,0,0,0,0,0,0,-1,867,1821,0,0
-350,-797,0,0,0,0,0,0,0,0,0,-1,874,1821,0,0
-343,-797,0,0,0,0,0,0,0,0,0,-1,881,1821,0,0
-336,-797,0,0,0,0,0,0,0,0,0,-1,888,1821,0,0
-329,-797,0,0,0,0,0,0,0,0,0,-1,895,1821,0,0
-322,-797,0,0,0,0,0,0,0,0,0,-1,902,1821,0,0
-315,-797,0,0,0,0,0,0,0,0,0,-1,909,1821,0,0
-308,-797,0,0,0,0,0,0,0,0,0,-1,916,1821,0,0
-301,-797,0,0,0,0,0,0,0,0,0,-1,923,1821,0,0
-294,-797,0,0,0,0,0,0,0,0,0,-1,930,1821,0,0
-287,-797,0,0,0,0,0,0,0,0,0,-1,937,1821,0,0
-280,-797,0,0,0,0,0,0,0,0,0,-1,944,1821,0,0
-273,-797,0,0,0,0,0,0,0,0,0,-1,951,1821,0,0
-266,-797,0,0,0,0,0,0,0,0,0,-1,958,1821,0,0
-259,-797,0,0,0,0,0,0,0,0,0,-1,965,1821,0,0
-252,-797,0,0,0,0,0,0,0,0,0,-1,972,1821,0,0
-245,-797,0,0,0,0,0,0,0,0,0,-1,979,1821,0,0
-238,-797,0,0,0,0,0,0,0,0,0,-1,986,1821,0,0
-231,-797,0,0,0,0,0,0,0,0,0,-1,993,1821,0,0
-224,-797,0,0,0,0,0,0,0,0,0,-1,1000,1821,0,0
-217,-797,0,0,0,0,0,0,0,0,0,-1,1007,1821,0,0
-210,-797,0,0,0,0,0,0,0,0,0,-1,1014,1821,0,0
-203,-797,0,0,0,0,0,0,0,0,0,-1,1021,1821,0,0
-196,-797,0,0,0,0,0,0,0,0,0,-1,1028,1821,0,0
-189,-797,0,0,0,0,0,0,0,0,0,-1,1035,1821,0,0
-182,-797,0,0,0,0,0,0,0,0,0,-1,1042,1821,0,0
-175,-797,0,0,0,0,0,0,0,0,0,-1,1049,1821,0,0
-168,-797,0,0,0,0,0,0,0,0,0,-1,1056,1821,0,0
-161,-797,0,0,0,0,0,0,0,0,0,-1,1063,1821,0,0
-154,-797,0,0,0,0,0,0,0,0,0,-1,1070,1821,0,0
-147,-797,0,0,0,0,0,0,0,0,0,-1,1077,1821,0,0
-140,-797,0,0,0,0,0,0,0,0,0,-1,1084,1821,0,0
-133,-797,0,0,0,0,0,0,0,0,0,-1,1091,1821,0,0
-126,-797,0,0,0,0,0,0,0,0,0,-1,1098,1821,0,0
-119,-797,0,0,0,0,0,0,0,0,0,-1,1105,1821,0,0
-112,-797,0,0,0,0,0,0,0,0,0,-1,1112,1821,0,0
-105,-797,0,0,0,0,0,0,0,0,0,-1,1119,1821,0,0
-98,-797,0,0,0,0,0,0,0,0,0,-1,1126,1821,0,0
-91,-797,0,0,0,0,0,0,0,0,0,-1,1133,1821,0,0
-84,-797,0,0,0,0,0,0,0,0,0,-1,1140,1821,0,0
-77,-797,0,0,0,0,0,0,0,0,0,-1,1147,1821,0,0
-70,-797,0,0,0,0,0,0,0,0,0,-1,1154,1821,0,0
-63,-797,0,0,0,0,0,0,0,0,0,-1,1161,1821,0,0
-56,-797,0,0,0,0,0,0,0,0,0,-1,1168,1821,0,0
-49,-797,0,0,0,0,0,0,0,0,0,-1,1175,1821,0,0
-42,-797,0.579834,0.692871,0,0,0,0,0,0,0,-1,1182,1821,0.579856,-0.692816
-35,-797,-0.185425,5.55396,0,0,0,0,0,0,0,-1,1189,1821,-0.18542,-5.55396
-28,-797,-0.310181,4.71509,0,0,0,0,0,0,0,-1,1196,1821,-0.310228,-4.71503
-21,-797,12.5916,44.6232,0,0,0,0,0,0,0,-1,1203,1821,12.5915,-44.6231
-14,-797,6.21924,41.8253,0,0,0,0,0,0,0,-1,1210,1821,6.21924,-41.8253
-7,-797,6.73779,41.8247,0,0,0,0,0,0,0,-1,1217,1821,6.7378,-41.8247
0,-797,7.38086,45.5945,0,0,0,0,0,0,0,-1,1224,1821,7.38084,-45.5945
7,-797,7.34436,45.2285,0.0225959,-0.0349017,0.0323758,0.0371447,-0.0494505,0.422333,0.0501638,0.0466417,1231,1821,7.34432,-45.2286
14,-797,7.50146,44.8831,0,0,0,0,0,0,0,-1,1238,1821,7.50148,-44.8831
21,-797,7.62964,44.2971,0.0145481,-0.0318166,0.0250358,0.0254863,-0.0427548,0.411909,0.0398173,0.0448646,1245,1821,7.62965,-44.2972
28,-797,7.75684,44.1592,0.0101419,-0.0262328,0.0225403,0.0209174,-0.0370083,0.445937,0.0338708,0.0421312,1252,1821,7.7568,-44.1591
35,-797,7.88086,43.9615,0.00547134,-0.0205642,0.0211135,0.0172576,-0.0323504,0.509144,0.0290797,0.0484162,1259,1821,7.8808,-43.9616
42,-797,7.97144,43.7396,0,0,0,0,0,0,0,-1,1266,1821,7.97138,-43.7396
49,-797,9.64404,41.8156,0,0,0,0,0,0,0,-1,1273,1821,9.64404,-41.8156
56,-797,9.41846,42.0753,-0.0113342,-0.00873596,0.010141,0.000188806,-0.020259,0.849105,0.0135694,0.0478882,1280,1821,9.41842,-42.0753
63,-797,9.22632,42.3531,-0.016156,-0.000594446,0.00706932,0.00213743,-0.0188878,1.20203,0.0133615,0.0460987,1287,1821,9.22638,-42.3532
70,-797,8.93054,42.7106,-0.0205544,-0.00146502,0.00309963,-0.000974338,-0.0210451,1.41379,0.0137168,0.0452956,1294,1821,8.93052,-42.7105
77,-797,8.90723,42.8013,0,0,0,0,0,0,0,-1,1301,1821,8.90727,-42.8013
84,-797,8.25476,46.0581,0,0,0,0,0,0,0,-1,1308,1821,8.2548,-46.0581
91,-797,8.02356,45.4884,-0.0308693,-0.0133414,-0.0138599,-0.00570709,-0.0385037,-1.06732,0.0239941,0.0459163,1315,1821,8.02352,-45.4884
98,-797,7.76331,44.9226,-0.0306735,-0.0205787,-0.0229919,-0.00208673,-0.0491655,-0.893448,0.032104,0.0433029,1322,1821,7.76327,-44.9226
105,-797,7.51392,44.3627,0,0,0,0,0,0,0,-1,1329,1821,7.51397,-44.3626
112,-797,13.8364,39.9149,0,0,0,0,0,0,0,-1,1336,1821,13.8364,-39.9149
119,-797,11.7286,40.0884,0,0,0,0,0,0,0,-1,1343,1821,11.7286,-40.0884
126,-797,12.8905,39.3704,0,0,0,0,0,0,0,-1,1350,1821,12.8904,-39.3704
133,-797,14.0898,38.635,0,0,0,0,0,0,0,-1,1357,1821,14.0898,-38.6351
140,-797,9.0542,45.766,0,0,0,0,0,0,0,-1,1364,1821,9.05418,-45.766
147,-797,9.78406,46.3673,0,0,0,0,0,0,0,-1,1371,1821,9.78407,-46.3673
154,-797,40.2623,8.88733,0,0,0,0,0,0,0,-1,1378,1821,40.2623,-8.88731
161,-797,42.2798,8.17371,0,0,0,0,0,0,0,-1,1385,1821,42.2798,-8.17367
168,-797,0,0,0,0,0,0,0,0,0,-1,1392,1821,0,0
175,-797,0,0,0,0,0,0,0,0,0,-1,1399,1821,0,0
182,-797,0,0,0,0,0,0,0,0,0,-1,1406,1821,0,0
189,-797,0,0,0,0,0,0,0,0,0,-1,1413,1821,0,0
196,-797,0,0,0,0,0,0,0,0,0,-1,1420,1821,0,0
203,-797,0,0,0,0,0,0,0,0,0,-1,1427,1821,0,0
210,-797,0,0,0,0,0,0,0,0,0,-1,1434,1821,0,0
217,-797,0,0,0,0,0,0,0,0,0,-1,1441,1821,0,0
224,-797,0,0,0,0,0,0,0,0,0,-1,1448,1821,0,0
231,-797,0,0,0,0,0,0,0,0,0,-1,1455,1821,0,0
238,-797,0,0,0,0,0,0,0,0,0,-1,1462,1821,0,0
245,-797,0,0,0,0,0,0,0,0,0,-1,1469,1821,0,0
252,-797,0,0,0,0,0,0,0,0,0,-1,1476,1821,0,0
259,-797,0,0,0,0,0,0,0,0,0,-1,1483,1821,0,0
266,-797,0,0,0,0,0,0,0,0,0,-1,1490,1821,0,0
273,-797,0,0,0,0,0,0,0,0,0,-1,1497,1821,0,0
280,-797,0,0,0,0,0,0,0,0,0,-1,1504,1821,0,0
287,-797,0,0,0,0,0,0,0,0,0,-1,1511,1821,0,0
294,-797,0,0,0,0,0,0,0,0,0,-1,1518,1821,0,0
301,-797,0,0,0,0,0,0,0,0,0,-1,1525,1821,0,0
308,-797,0,0,0,0,0,0,0,0,0,-1,1532,1821,0,0
315,-797,0,0,0,0,0,0,0,0,0,-1,1539,1821,0,0
322,-797,0,0,0,0,0,0,0,0,0,-1,1546,1821,0,0
329,-797,0,0,0,0,0,0,0,0,0,-1,1553,1821,0,0
336,-797,0,0,0,0,0,0,0,0,0,-1,1560,1821,0,0
343,-797,0,0,0,0,0,0,0,0,0,-1,1567,1821,0,0
350,-797,0,0,0,0,0,0,0,0,0,-1,1574,1821,0,0
357,-797,0,0,0,0,0,0,0,0,0,-1,1581,1821,0,0
364,-797,0,0,0,0,0,0,0,0,0,-1,1588,1821,0,0
371,-797,0,0,0,0,0,0,0,0,0,-1,1595,1821,0,0
378,-797,0,0,0,0,0,0,0,0,0,-1,1602,1821,0,0
385,-797,0,0,0,0,0,0,0,0,0,-1,1609,1821,0,0
392,-797,0,0,0,0,0,0,0,0,0,-1,1616,1821,0,0
399,-797,0,0,0,0,0,0,0,0,0,-1,1623,1821,0,0
406,-797,0,0,0,0,0,0,0,0,0,-1,1630,1821,0,0
413,-797,0,0,0,0,0,0,0,0,0,-1,1637,1821,0,0
420,-797,0,0,0,0,0,0,0,0,0,-1,1644,1821,0,0
427,-797,0,0,0,0,0,0,0,0,0,-1,1651,1821,0,0
434,-797,0,0,0,0,0,0,0,0,0,-1,1658,1821,0,0
441,-797,0,0,0,0,0,0,0,0,0,-1,1665,1821,0,0
448,-797,0,0,0,0,0,0,0,0,0,-1,1672,1821,0,0
455,-797,0,0,0,0,0,0,0,0,0,-1,1679,1821,0,0
462,-797,0,0,0,0,0,0,0,0,0,-1,1686,1821,0,0
469,-797,0,0,0,0,0,0,0,0,0,-1,1693,1821,0,0
476,-797,0,0,0,0,0,0,0,0,0,-1,1700,1821,0,0
483,-797,0,0,0,0,0,0,0,0,0,-1,1707,1821,0,0
490,-797,0,0,0,0,0,0,0,0,0,-1,1714,1821,0,0
497,-797,0,0,0,0,0,0,0,0,0,-1,1721,1821,0,0
504,-797,0,0,0,0,0,0,0,0,0,-1,1728,1821,0,0
511,-797,0,0,0,0,0,0,0,0,0,-1,1735,1821,0,0
518,-797,0,0,0,0,0,0,0,0,0,-1,1742,1821,0,0
525,-797,0,0,0,0,0,0,0,0,0,-1,1749,1821,0,0
532,-797,0,0,0,0,0,0,0,0,0,-1,1756,1821,0,0
539,-797,0,0,0,0,0,0,0,0,0,-1,1763,1821,0,0
546,-797,0,0,0,0,0,0,0,0,0,-1,1770,1821,0,0
553,-797,0,0,0,0,0,0,0,0,0,-1,1777,1821,0,0
560,-797,0,0,0,0,0,0,0,0,0,-1,1784,1821,0,0
567,-797,0,0,0,0,0,0,0,0,0,-1,1791,1821,0,0
574,-797,0,0,0,0,0,0,0,0,0,-1,1798,1821,0,0
581,-797,0,0,0,0,0,0,0,0,0,-1,1805,1821,0,0
588,-797,0,0,0,0,0,0,0,0,0,-1,1812,1821,0,0
595,-797,0,0,0,0,0,0,0,0,0,-1,1819,1821,0,0
602,-797,0,0,0,0,0,0,0,0,0,-1,1826,1821,0,0
609,-797,0,0,0,0,0,0,0,0,0,-1,1833,1821,0,0
616,-797,0,0,0,0,0,0,0,0,0,-1,1840,1821,0,0
623,-797,0,0,0,0,0,0,0,0,0,-1,1847,1821,0,0
630,-797,0,0,0,0,0,0,0,0,0,-1,1854,1821,0,0
637,-797,0,0,0,0,0,0,0,0,0,-1,1861,1821,0,0
644,-797,0,0,0,0,0,0,0,0,0,-1,1868,1821,0,0
651,-797,0,0,0,0,0,0,0,0,0,-1,1875,1821,0,0
658,-797,0,0,0,0,0,0,0,0,0,-1,1882,1821,0,0
665,-797,0,0,0,0,0,0,0,0,0,-1,1889,1821,0,0
672,-797,0,0,0,0,0,0,0,0,0,-1,1896,1821,0,0
679,-797,0,0,0,0,0,0,0,0,0,-1,1903,1821,0,0
686,-797,0,0,0,0,0,0,0,0,0,-1,1910,1821,0,0
693,-797,0,0,0,0,0,0,0,0,0,-1,1917,1821,0,0
700,-797,0,0,0,0,0,0,0,0,0,-1,1924,1821,0,0
707,-797,0,0,0,0,0,0,0,0,0,-1,1931,1821,0,0
714,-797,0,0,0,0,0,0,0,0,0,-1,1938,1821,0,0
721,-797,0,0,0,0,0,0,0,0,0,-1,1945,1821,0,0
728,-797,0,0,0,0,0,0,0,0,0,-1,1952,1821,0,0
735,-797,0,0,0,0,0,0,0,0,0,-1,1959,1821,0,0
742,-797,0,0,0,0,0,0,0,0,0,-1,1966,1821,0,0
749,-797,0,0,0,0,0,0,0,0,0,-1,1973,1821,0,0
756,-797,0,0,0,0,0,0,0,0,0,-1,1980,1821,0,0
763,-797,0,0,0,0,0,0,0,0,0,-1,1987,1821,0,0
770,-797,0,0,0,0,0,0,0,0,0,-1,1994,1821,0,0
777,-797,0,0,0,0,0,0,0,0,0,-1,2001,1821,0,0
784,-797,0,0,0,0,0,0,0,0,0,-1,2008,1821,0,0
791,-797,0,0,0,0,0,0,0,0,0,-1,2015,1821,0,0
798,-797,0,0,0,0,0,0,0,0,0,-1,2022,1821,0,0
805,-797,0,0,0,0,0,0,0,0,0,-1,2029,1821,0,0
812,-797,0,0,0,0,0,0,0,0,0,-1,2036,1821,0,0
-700,-804,0,0,0,0,0,0,0,0,0,-1,524,1828,0,0
-693,-804,0,0,0,0,0,0,0,0,0,-1,531,1828,0,0
-686,-804,0,0,0,0,0,0,0,0,0,-1,538,1828,0,0
-679,-804,0,0,0,0,0,0,0,0,0,-1,545,1828,0,0
-672,-804,0,0,0,0,0,0,0,0,0,-1,552,1828,0,0
-665,-804,0,0,0,0,0,0,0,0,0,-1,559,1828,0,0
-658,-804,0,0,0,0,0,0,0,0,0,-1,566,1828,0,0
-651,-804,0,0,0,0,0,0,0,0,0,-1,573,1828,0,0
-644,-804,0,0,0,0,0,0,0,0,0,-1,580,1828,0,0
-637,-804,0,0,0,0,0,0,0,0,0,-1,587,1828,0,0
-630,-804,0,0,0,0,0,0,0,0,0,-1,594,1828,0,0
-623,-804,0,0,0,0,0,0,0,0,0,-1,601,1828,0,0
-616,-804,0,0,0,0,0,0,0,0,0,-1,608,1828,0,0
-609,-804,0,0,0,0,0,0,0,0,0,-1,615,1828,0,0
-602,-804,0,0,0,0,0,0,0,0,0,-1,622,1828,0,0
-595,-804,0,0,0,0,0,0,0,0,0,-1,629,1828,0,0
-588,-804,0,0,0,0,0,0,0,0,0,-1,636,1828,0,0
-581,-804,0,0,0,0,0,0,0,0,0,-1,643,1828,0,0
-574,-804,0,0,0,0,0,0,0,0,0,-1,650,1828,0,0
-567,-804,0,0,0,0,0,0,0,0,0,-1,657,1828,0,0
-560,-804,0,0,0,0,0,0,0,0,0,-1,664,1828,0,0
-553,-804,0,0,0,0,0,0,0,0,0,-1,671,1828,0,0
-546,-804,0,0,0,0,0,0,0,0,0,-1,678,1828,0,0
-539,-804,0,0,0,0,0,0,0,0,0,-1,685,1828,0,0
-532,-804,0,0,0,0,0,0,0,0,0,-1,692,1828,0,0
-525,-804,0,0,0,0,0,0,0,0,0,-1,699,1828,0,0
-518,-804,0,0,0,0,0,0,0,0,0,-1,706,1828,0,0
-511,-804,0,0,0,0,0,0,0,0,0,-1,713,1828,0,0
-504,-804,0,0,0,0,0,0,0,0,0,-1,720,1828,0,0
-497,-804,0,0,0,0,0,0,0,0,0,-1,727,1828,0,0
-490,-804,0,0,0,0,0,0,0,0,0,-1,734,1828,0,0
-483,-804,0,0,0,0,0,0,0,0,0,-1,741,1828,0,0
-476,-804,0,0,0,0,0,0,0,0,0,-1,748,1828,0,0
-469,-804,0,0,0,0,0,0,0,0,0,-1,755,1828,0,0
-462,-804,0,0,0,0,0,0,0,0,0,-1,762,1828,0,0
-455,-804,0,0,0,0,0,0,0,0,0,-1,769,1828,0,0
-448,-804,0,0,0,0,0,0,0,0,0,-1,776,1828,0,0
-441,-804,0,0,0,0,0,0,0,0,0,-1,783,1828,0,0
-434,-804,0,0,0,0,0,0,0,0,0,-1,790,1828,0,0
-427,-804,0,0,0,0,0,0,0,0,0,-1,797,1828,0,0
-420,-804,0,0,0,0,0,0,0,0,0,-1,804,1828,0,0
-413,-804,0,0,0,0,0,0,0,0,0,-1,811,1828,0,0
-406,-804,0,0,0,0,0,0,0,0,0,-1,818,1828,0,0
-399,-804,0,0,0,0,0,0,0,0,0,-1,825,1828,0,0
-392,-804,0,0,0,0,0,0,0,0,0,-1,832,1828,0,0
-385,-804,0,0,0,0,0,0,0,0,0,-1,839,1828,0,0
-378,-804,0,0,0,0,0,0,0,0,0,-1,846,1828,0,0
-371,-804,0,0,0,0,0,0,0,0,0,-1,853,1828,0,0
-364,-804,0,0,0,0,0,0,0,0,0,-1,860,1828,0,0
-357,-804,0,0,0,0,0,0,0,0,0,-1,867,1828,0,0
-350,-804,0,0,0,0,0,0,0,0,0,-1,874,1828,0,0
-343,-804,0,0,0,0,0,0,0,0,0,-1,881,1828,0,0
-336,-804,0,0,0,0,0,0,0,0,0,-1,888,1828,0,0
-329,-804,0,0,0,0,0,0,0,0,0,-1,895,1828,0,0
-322,-804,0,0,0,0,0,0,0,0,0,-1,902,1828,0,0
-315,-804,0,0,0,0,0,0,0,0,0,-1,909,1828,0,0
-308,-804,0,0,0,0,0,0,0,0,0,-1,916,1828,0,0
-301,-804,0,0,0,0,0,0,0,0,0,-1,923,1828,0,0
-294,-804,0,0,0,0,0,0,0,0,0,-1,930,1828,0,0
-287,-804,0,0,0,0,0,0,0,0,0,-1,937,1828,0,0
-280,-804,0,0,0,0,0,0,0,0,0,-1,944,1828,0,0
-273,-804,0,0,0,0,0,0,0,0,0,-1,951,1828,0,0
-266,-804,0,0,0,0,0,0,0,0,0,-1,958,1828,0,0
-259,-804,0,0,0,0,0,0,0,0,0,-1,965,1828,0,0
-252,-804,0,0,0,0,0,0,0,0,0,-1,972,1828,0,0
-245,-804,0,0,0,0,0,0,0,0,0,-1,979,1828,0,0
-238,-804,0,0,0,0,0,0,0,0,0,-1,986,1828,0,0
-231,-804,0,0,0,0,0,0,0,0,0,-1,993,1828,0,0
-224,-804,0,0,0,0,0,0,0,0,0,-1,1000,1828,0,0
-217,-804,0,0,0,0,0,0,0,0,0,-1,1007,1828,0,0
-210,-804,0,0,0,0,0,0,0,0,0,-1,1014,1828,0,0
-203,-804,0,0,0,0,0,0,0,0,0,-1,1021,1828,0,0
-196,-804,0,0,0,0,0,0,0,0,0,-1,1028,1828,0,0
-189,-804,0,0,0,0,0,0,0,0,0,-1,1035,1828,0,0
-182,-804,0,0,0,0,0,0,0,0,0,-1,1042,1828,0,0
-175,-804,0,0,0,0,0,0,0,0,0,-1,1049,1828,0,0
-168,-804,0,0,0,0,0,0,0,0,0,-1,1056,1828,0,0
-161,-804,0,0,0,0,0,0,0,0,0,-1,1063,1828,0,0
-154,-804,0,0,0,0,0,0,0,0,0,-1,1070,1828,0,0
-147,-804,0,0,0,0,0,0,0,0,0,-1,1077,1828,0,0
-140,-804,0,0,0,0,0,0,0,0,0,-1,1084,1828,0,0
-133,-804,0,0,0,0,0,0,0,0,0,-1,1091,1828,0,0
-126,-804,0,0,0,0,0,0,0,0,0,-1,1098,1828,0,0
-119,-804,0,0,0,0,0,0,0,0,0,-1,1105,1828,0,0
-112,-804,0,0,0,0,0,0,0,0,0,-1,1112,1828,0,0
-105,-804,0,0,0,0,0,0,0,0,0,-1,1119,1828,0,0
-98,-804,0,0,0,0,0,0,0,0,0,-1,1126,1828,0,0
-91,-804,0,0,0,0,0,0,0,0,0,-1,1133,1828,0,0
-84,-804,0,0,0,0,0,0,0,0,0,-1,1140,1828,0,0
-77,-804,0,0,0,0,0,0,0,0,0,-1,1147,1828,0,0
-70,-804,0,0,0,0,0,0,0,0,0,-1,1154,1828,0,0
-63,-804,0,0,0,0,0,0,0,0,0,-1,1161,1828,0,0
-56,-804,0,0,0,0,0,0,0,0,0,-1,1168,1828,0,0
-49,-804,0,0,0,0,0,0,0,0,0,-1,1175,1828,0,0
-42,-804,0,0,0,0,0,0,0,0,0,-1,1182,1828,0,0
-35,-804,0,0,0,0,0,0,0,0,0,-1,1189,1828,0,0
-28,-804,0,0,0,0,0,0,0,0,0,-1,1196,1828,0,0
-21,-804,0,0,0,0,0,0,0,0,0,-1,1203,1828,0,0
-14,-804,0,0,0,0,0,0,0,0,0,-1,1210,1828,0,0
-7,-804,0,0,0,0,0,0,0,0,0,-1,1217,1828,0,0
0,-804,0,0,0,0,0,0,0,0,0,-1,1224,1828,0,0
7,-804,0,0,0,0,0,0,0,0,0,-1,1231,1828,0,0
14,-804,0,0,0,0,0,0,0,0,0,-1,1238,1828,0,0
21,-804,0,0,0,0,0,0,0,0,0,-1,1245,1828,0,0
28,-804,0,0,0,0,0,0,0,0,0,-1,1252,1828,0,0
35,-804,7.75146,44.3063,0,0,0,0,0,0,0,-1,1259,1828,7.75146,-44.3063
42,-804,9.91089,41.8173,0,0,0,0,0,0,0,-1,1266,1828,9.91087,-41.8173
49,-804,9.64038,41.9821,0,0,0,0,0,0,0,-1,1273,1828,9.64044,-41.982
56,-804,9.41052,42.0742,0,0,0,0,0,0,0,-1,1280,1828,9.41049,-42.0742
63,-804,9.30249,42.2871,0,0,0,0,0,0,0,-1,1287,1828,9.30251,-42.2871
70,-804,8.65112,42.5732,-0.0260941,-0.00280072,0.0044996,-0.00196175,-0.0269331,1.38646,0.0173385,0.047108,1294,1828,8.65111,-42.5732
77,-804,8.24756,43.3691,0,0,0,0,0,0,0,-1,1301,1828,8.24753,-43.3691
84,-804,8.08655,44.1113,0,0,0,0,0,0,0,-1,1308,1828,8.08656,-44.1113
91,-804,0,0,0,0,0,0,0,0,0,-1,1315,1828,0,0
98,-804,0,0,0,0,0,0,0,0,0,-1,1322,1828,0,0
105,-804,0,0,0,0,0,0,0,0,0,-1,1329,1828,0,0
112,-804,0,0,0,0,0,0,0,0,0,-1,1336,1828,0,0
119,-804,0,0,0,0,0,0,0,0,0,-1,1343,1828,0,0
126,-804,0,0,0,0,0,0,0,0,0,-1,1350,1828,0,0
133,-804,0,0,0,0,0,0,0,0,0,-1,1357,1828,0,0
140,-804,0,0,0,0,0,0,0,0,0,-1,1364,1828,0,0
147,-804,0,0,0,0,0,0,0,0,0,-1,1371,1828,0,0
154,-804,0,0,0,0,0,0,0,0,0,-1,1378,1828,0,0
161,-804,0,0,0,0,0,0,0,0,0,-1,1385,1828,0,0
168,-804,0,0,0,0,0,0,0,0,0,-1,1392,1828,0,0
175,-804,0,0,0,0,0,0,0,0,0,-1,1399,1828,0,0
182,-804,0,0,0,0,0,0,0,0,0,-1,1406,1828,0,0
189,-804,0,0,0,0,0,0,0,0,0,-1,1413,1828,0,0
196,-804,0,0,0,0,0,0,0,0,0,-1,1420,1828,0,0
203,-804,0,0,0,0,0,0,0,0,0,-1,1427,1828,0,0
210,-804,0,0,0,0,0,0,0,0,0,-1,1434,1828,0,0
217,-804,0,0,0,0,0,0,0,0,0,-1,1441,1828,0,0
224,-804,0,0,0,0,0,0,0,0,0,-1,1448,1828,0,0
231,-804,0,0,0,0,0,0,0,0,0,-1,1455,1828,0,0
238,-804,0,0,0,0,0,0,0,0,0,-1,1462,1828,0,0
245,-804,0,0,0,0,0,0,0,0,0,-1,1469,1828,0,0
252,-804,0,0,0,0,0,0,0,0,0,-1,1476,1828,0,0
259,-804,0,0,0,0,0,0,0,0,0,-1,1483,1828,0,0
266,-804,0,0,0,0,0,0,0,0,0,-1,1490,1828,0,0
273,-804,0,0,0,0,0,0,0,0,0,-1,1497,1828,0,0
280,-804,0,0,0,0,0,0,0,0,0,-1,1504,1828,0,0
287,-804,0,0,0,0,0,0,0,0,0,-1,1511,1828,0,0
294,-804,0,0,0,0,0,0,0,0,0,-1,1518,1828,0,0
301,-804,0,0,0,0,0,0,0,0,0,-1,1525,1828,0,0
308,-804,0,0,0,0,0,0,0,0,0,-1,1532,1828,0,0
315,-804,0,0,0,0,0,0,0,0,0,-1,1539,1828,0,0
322,-804,0,0,0,0,0,0,0,0,0,-1,1546,1828,0,0
329,-804,0,0,0,0,0,0,0,0,0,-1,1553,1828,0,0
336,-804,0,0,0,0,0,0,0,0,0,-1,1560,1828,0,0
343,-804,0,0,0,0,0,0,0,0,0,-1,1567,1828,0,0
350,-804,0,0,0,0,0,0,0,0,0,-1,1574,1828,0,0
357,-804,0,0,0,0,0,0,0,0,0,-1,1581,1828,0,0
364,-804,0,0,0,0,0,0,0,0,0,-1,1588,1828,0,0
371,-804,0,0,0,0,0,0,0,0,0,-1,1595,1828,0,0
378,-804,0,0,0,0,0,0,0,0,0,-1,1602,1828,0,0
385,-804,0,0,0,0,0,0,0,0,0,-1,1609,1828,0,0
392,-804,0,0,0,0,0,0,0,0,0,-1,1616,1828,0,0
399,-804,0,0,0,0,0,0,0,0,0,-1,1623,1828,0,0
406,-804,0,0,0,0,0,0,0,0,0,-1,1630,1828,0,0
413,-804,0,0,0,0,0,0,0,0,0,-1,1637,1828,0,0
420,-804,0,0,0,0,0,0,0,0,0,-1,1644,1828,0,0
427,-804,0,0,0,0,0,0,0,0,0,-1,1651,1828,0,0
434,-804,0,0,0,0,0,0,0,0,0,-1,1658,1828,0,0
441,-804,0,0,0,0,0,0,0,0,0,-1,1665,1828,0,0
448,-804,0,0,0,0,0,0,0,0,0,-1,1672,1828,0,0
455,-804,0,0,0,0,0,0,0,0,0,-1,1679,1828,0,0
462,-804,0,0,0,0,0,0,0,0,0,-1,1686,1828,0,0
469,-804,0,0,0,0,0,0,0,0,0,-1,1693,1828,0,0
476,-804,0,0,0,0,0,0,0,0,0,-1,1700,1828,0,0
483,-804,0,0,0,0,0,0,0,0,0,-1,1707,1828,0,0
490,-804,0,0,0,0,0,0,0,0,0,-1,1714,1828,0,0
497,-804,0,0,0,0,0,0,0,0,0,-1,1721,1828,0,0
504,-804,0,0,0,0,0,0,0,0,0,-1,1728,1828,0,0
511,-804,0,0,0,0,0,0,0,0,0,-1,1735,1828,0,0
518,-804,0,0,0,0,0,0,0,0,0,-1,1742,1828,0,0
525,-804,0,0,0,0,0,0,0,0,0,-1,1749,1828,0,0
532,-804,0,0,0,0,0,0,0,0,0,-1,1756,1828,0,0
539,-804,0,0,0,0,0,0,0,0,0,-1,1763,1828,0,0
546,-804,0,0,0,0,0,0,0,0,0,-1,1770,1828,0,0
553,-804,0,0,0,0,0,0,0,0,0,-1,1777,1828,0,0
560,-804,0,0,0,0,0,0,0,0,0,-1,1784,1828,0,0
567,-804,0,0,0,0,0,0,0,0,0,-1,1791,1828,0,0
574,-804,0,0,0,0,0,0,0,0,0,-1,1798,1828,0,0
581,-804,0,0,0,0,0,0,0,0,0,-1,1805,1828,0,0
588,-804,0,0,0,0,0,0,0,0,0,-1,1812,1828,0,0
595,-804,0,0,0,0,0,0,0,0,0,-1,1819,1828,0,0
602,-804,0,0,0,0,0,0,0,0,0,-1,1826,1828,0,0
609,-804,0,0,0,0,0,0,0,0,0,-1,1833,1828,0,0
616,-804,0,0,0,0,0,0,0,0,0,-1,1840,1828,0,0
623,-804,0,0,0,0,0,0,0,0,0,-1,1847,1828,0,0
630,-804,0,0,0,0,0,0,0,0,0,-1,1854,1828,0,0
637,-804,0,0,0,0,0,0,0,0,0,-1,1861,1828,0,0
644,-804,0,0,0,0,0,0,0,0,0,-1,1868,1828,0,0
651,-804,0,0,0,0,0,0,0,0,0,-1,1875,1828,0,0
658,-804,0,0,0,0,0,0,0,0,0,-1,1882,1828,0,0
665,-804,0,0,0,0,0,0,0,0,0,-1,1889,1828,0,0
672,-804,0,0,0,0,0,0,0,0,0,-1,1896,1828,0,0
679,-804,0,0,0,0,0,0,0,0,0,-1,1903,1828,0,0
686,-804,0,0,0,0,0,0,0,0,0,-1,1910,1828,0,0
693,-804,0,0,0,0,0,0,0,0,0,-1,1917,1828,0,0
700,-804,0,0,0,0,0,0,0,0,0,-1,1924,1828,0,0
707,-804,0,0,0,0,0,0,0,0,0,-1,1931,1828,0,0
714,-804,0,0,0,0,0,0,0,0,0,-1,1938,1828,0,0
721,-804,0,0,0,0,0,0,0,0,0,-1,1945,1828,0,0
728,-804,0,0,0,0,0,0,0,0,0,-1,1952,1828,0,0
735,-804,0,0,0,0,0,0,0,0,0,-1,1959,1828,0,0
742,-804,0,0,0,0,0,0,0,0,0,-1,1966,1828,0,0
749,-804,0,0,0,0,0,0,0,0,0,-1,1973,1828,0,0
756,-804,0,0,0,0,0,0,0,0,0,-1,1980,1828,0,0
763,-804,0,0,0,0,0,0,0,0,0,-1,1987,1828,0,0
770,-804,0,0,0,0,0,0,0,0,0,-1,1994,1828,0,0
777,-804,0,0,0,0,0,0,0,0,0,-1,2001,1828,0,0
784,-804,0,0,0,0,0,0,0,0,0,-1,2008,1828,0,0
791,-804,0,0,0,0,0,0,0,0,0,-1,2015,1828,0,0
798,-804,0,0,0,0,0,0,0,0,0,-1,2022,1828,0,0
805,-804,0,0,0,0,0,0,0,0,0,-1,2029,1828,0,0
812,-804,0,0,0,0,0,0,0,0,0,-1,2036,1828,0,0

