 "x_c",  "y_c",  "u_c",  "v_c",  "exx",  "eyy",  "exy",  "e1",  "e2",  "gamma",  "e_vonmises",  "sigma",  "x",  "y",  "u",  "v"
-700,715,0,0,0,0,0,0,0,0,0,-1,524,309,0,0
-693,715,0,0,0,0,0,0,0,0,0,-1,531,309,0,0
-686,715,0,0,0,0,0,0,0,0,0,-1,538,309,0,0
-679,715,0,0,0,0,0,0,0,0,0,-1,545,309,0,0
-672,715,0,0,0,0,0,0,0,0,0,-1,552,309,0,0
-665,715,0,0,0,0,0,0,0,0,0,-1,559,309,0,0
-658,715,0,0,0,0,0,0,0,0,0,-1,566,309,0,0
-651,715,0,0,0,0,0,0,0,0,0,-1,573,309,0,0
-644,715,0,0,0,0,0,0,0,0,0,-1,580,309,0,0
-637,715,0,0,0,0,0,0,0,0,0,-1,587,309,0,0
-630,715,0,0,0,0,0,0,0,0,0,-1,594,309,0,0
-623,715,0,0,0,0,0,0,0,0,0,-1,601,309,0,0
-616,715,0,0,0,0,0,0,0,0,0,-1,608,309,0,0
-609,715,0,0,0,0,0,0,0,0,0,-1,615,309,0,0
-602,715,0,0,0,0,0,0,0,0,0,-1,622,309,0,0
-595,715,0,0,0,0,0,0,0,0,0,-1,629,309,0,0
-588,715,0,0,0,0,0,0,0,0,0,-1,636,309,0,0
-581,715,0,0,0,0,0,0,0,0,0,-1,643,309,0,0
-574,715,0,0,0,0,0,0,0,0,0,-1,650,309,0,0
-567,715,0,0,0,0,0,0,0,0,0,-1,657,309,0,0
-560,715,0,0,0,0,0,0,0,0,0,-1,664,309,0,0
-553,715,0,0,0,0,0,0,0,0,0,-1,671,309,0,0
-546,715,0,0,0,0,0,0,0,0,0,-1,678,309,0,0
-539,715,0,0,0,0,0,0,0,0,0,-1,685,309,0,0
-532,715,0,0,0,0,0,0,0,0,0,-1,692,309,0,0
-525,715,0,0,0,0,0,0,0,0,0,-1,699,309,0,0
-518,715,0,0,0,0,0,0,0,0,0,-1,706,309,0,0
-511,715,0,0,0,0,0,0,0,0,0,-1,713,309,0,0
-504,715,0,0,0,0,0,0,0,0,0,-1,720,309,0,0
-497,715,0,0,0,0,0,0,0,0,0,-1,727,309,0,0
-490,715,0,0,0,0,0,0,0,0,0,-1,734,309,0,0
-483,715,0,0,0,0,0,0,0,0,0,-1,741,309,0,0
-476,715,0,0,0,0,0,0,0,0,0,-1,748,309,0,0
-469,715,0,0,0,0,0,0,0,0,0,-1,755,309,0,0
-462,715,0,0,0,0,0,0,0,0,0,-1,762,309,0,0
-455,715,0,0,0,0,0,0,0,0,0,-1,769,309,0,0
-448,715,0,0,0,0,0,0,0,0,0,-1,776,309,0,0
-441,715,0,0,0,0,0,0,0,0,0,-1,783,309,0,0
-434,715,0,0,0,0,0,0,0,0,0,-1,790,309,0,0
-427,715,0,0,0,0,0,0,0,0,0,-1,797,309,0,0
-420,715,0,0,0,0,0,0,0,0,0,-1,804,309,0,0
-413,715,0,0,0,0,0,0,0,0,0,-1,811,309,0,0
-406,715,0,0,0,0,0,0,0,0,0,-1,818,309,0,0
-399,715,0,0,0,0,0,0,0,0,0,-1,825,309,0,0
-392,715,0,0,0,0,0,0,0,0,0,-1,832,309,0,0
-385,715,0,0,0,0,0,0,0,0,0,-1,839,309,0,0
-378,715,0,0,0,0,0,0,0,0,0,-1,846,309,0,0
-371,715,0,0,0,0,0,0,0,0,0,-1,853,309,0,0
-364,715,0,0,0,0,0,0,0,0,0,-1,860,309,0,0
-357,715,0,0,0,0,0,0,0,0,0,-1,867,309,0,0
-350,715,0,0,0,0,0,0,0,0,0,-1,874,309,0,0
-343,715,0,0,0,0,0,0,0,0,0,-1,881,309,0,0
-336,715,0,0,0,0,0,0,0,0,0,-1,888,309,0,0
-329,715,0,0,0,0,0,0,0,0,0,-1,895,309,0,0
-322,715,0,0,0,0,0,0,0,0,0,-1,902,309,0,0
-315,715,0,0,0,0,0,0,0,0,0,-1,909,309,0,0
-308,715,0,0,0,0,0,0,0,0,0,-1,916,309,0,0
-301,715,0,0,0,0,0,0,0,0,0,-1,923,309,0,0
-294,715,0,0,0,0,0,0,0,0,0,-1,930,309,0,0
-287,715,0,0,0,0,0,0,0,0,0,-1,937,309,0,0
-280,715,0,0,0,0,0,0,0,0,0,-1,944,309,0,0
-273,715,0,0,0,0,0,0,0,0,0,-1,951,309,0,0
-266,715,0,0,0,0,0,0,0,0,0,-1,958,309,0,0
-259,715,0,0,0,0,0,0,0,0,0,-1,965,309,0,0
-252,715,0,0,0,0,0,0,0,0,0,-1,972,309,0,0
-245,715,0,0,0,0,0,0,0,0,0,-1,979,309,0,0
-238,715,0,0,0,0,0,0,0,0,0,-1,986,309,0,0
-231,715,0,0,0,0,0,0,0,0,0,-1,993,309,0,0
-224,715,0,0,0,0,0,0,0,0,0,-1,1000,309,0,0
-217,715,0,0,0,0,0,0,0,0,0,-1,1007,309,0,0
-210,715,0,0,0,0,0,0,0,0,0,-1,1014,309,0,0
-203,715,0,0,0,0,0,0,0,0,0,-1,1021,309,0,0
-196,715,0,0,0,0,0,0,0,0,0,-1,1028,309,0,0
-189,715,0,0,0,0,0,0,0,0,0,-1,1035,309,0,0
-182,715,0,0,0,0,0,0,0,0,0,-1,1042,309,0,0
-175,715,0,0,0,0,0,0,0,0,0,-1,1049,309,0,0
-168,715,0,0,0,0,0,0,0,0,0,-1,1056,309,0,0
-161,715,0,0,0,0,0,0,0,0,0,-1,1063,309,0,0
-154,715,0,0,0,0,0,0,0,0,0,-1,1070,309,0,0
-147,715,0,0,0,0,0,0,0,0,0,-1,1077,309,0,0
-140,715,0,0,0,0,0,0,0,0,0,-1,1084,309,0,0
-133,715,0,0,0,0,0,0,0,0,0,-1,1091,309,0,0
-126,715,0,0,0,0,0,0,0,0,0,-1,1098,309,0,0
-119,715,0,0,0,0,0,0,0,0,0,-1,1105,309,0,0
-112,715,0,0,0,0,0,0,0,0,0,-1,1112,309,0,0
-105,715,0,0,0,0,0,0,0,0,0,-1,1119,309,0,0
-98,715,0,0,0,0,0,0,0,0,0,-1,1126,309,0,0
-91,715,0,0,0,0,0,0,0,0,0,-1,1133,309,0,0
-84,715,0,0,0,0,0,0,0,0,0,-1,1140,309,0,0
-77,715,0,0,0,0,0,0,0,0,0,-1,1147,309,0,0
-70,715,0,0,0,0,0,0,0,0,0,-1,1154,309,0,0
-63,715,0,0,0,0,0,0,0,0,0,-1,1161,309,0,0
-56,715,0,0,0,0,0,0,0,0,0,-1,1168,309,0,0
-49,715,0,0,0,0,0,0,0,0,0,-1,1175,309,0,0
-42,715,0,0,0,0,0,0,0,0,0,-1,1182,309,0,0
-35,715,0,0,0,0,0,0,0,0,0,-1,1189,309,0,0
-28,715,0,0,0,0,0,0,0,0,0,-1,1196,309,0,0
-21,715,0,0,0,0,0,0,0,0,0,-1,1203,309,0,0
-14,715,0,0,0,0,0,0,0,0,0,-1,1210,309,0,0
-7,715,0,0,0,0,0,0,0,0,0,-1,1217,309,0,0
0,715,0,0,0,0,0,0,0,0,0,-1,1224,309,0,0
7,715,0,0,0,0,0,0,0,0,0,-1,1231,309,0,0
14,715,0,0,0,0,0,0,0,0,0,-1,1238,309,0,0
21,715,0,0,0,0,0,0,0,0,0,-1,1245,309,0,0
28,715,0,0,0,0,0,0,0,0,0,-1,1252,309,0,0
35,715,0,0,0,0,0,0,0,0,0,-1,1259,309,0,0
42,715,0,0,0,0,0,0,0,0,0,-1,1266,309,0,0
49,715,0,0,0,0,0,0,0,0,0,-1,1273,309,0,0
56,715,0,0,0,0,0,0,0,0,0,-1,1280,309,0,0
63,715,1.62097,-12.343,0.114677,0.0360725,-0.0706547,0.156225,-0.00547553,-0.531581,0.106022,0.049619,1287,309,1.621,12.343
70,715,1.72876,-12.4207,0.0994668,0.0196708,-0.0723636,0.142203,-0.023065,-0.533457,0.103352,0.0490494,1294,309,1.72872,12.4207
77,715,0,0,0,0,0,0,0,0,0,-1,1301,309,0,0
84,715,0,0,0,0,0,0,0,0,0,-1,1308,309,0,0
91,715,0,0,0,0,0,0,0,0,0,-1,1315,309,0,0
98,715,0,0,0,0,0,0,0,0,0,-1,1322,309,0,0
105,715,0,0,0,0,0,0,0,0,0,-1,1329,309,0,0
112,715,0,0,0,0,0,0,0,0,0,-1,1336,309,0,0
119,715,0,0,0,0,0,0,0,0,0,-1,1343,309,0,0
126,715,0,0,0,0,0,0,0,0,0,-1,1350,309,0,0
133,715,0,0,0,0,0,0,0,0,0,-1,1357,309,0,0
140,715,0,0,0,0,0,0,0,0,0,-1,1364,309,0,0
147,715,0,0,0,0,0,0,0,0,0,-1,1371,309,0,0
154,715,0,0,0,0,0,0,0,0,0,-1,1378,309,0,0
161,715,0,0,0,0,0,0,0,0,0,-1,1385,309,0,0
168,715,0,0,0,0,0,0,0,0,0,-1,1392,309,0,0
175,715,0,0,0,0,0,0,0,0,0,-1,1399,309,0,0
182,715,0,0,0,0,0,0,0,0,0,-1,1406,309,0,0
189,715,0,0,0,0,0,0,0,0,0,-1,1413,309,0,0
196,715,0,0,0,0,0,0,0,0,0,-1,1420,309,0,0
203,715,0,0,0,0,0,0,0,0,0,-1,1427,309,0,0
210,715,0,0,0,0,0,0,0,0,0,-1,1434,309,0,0
217,715,0,0,0,0,0,0,0,0,0,-1,1441,309,0,0
224,715,0,0,0,0,0,0,0,0,0,-1,1448,309,0,0
231,715,0,0,0,0,0,0,0,0,0,-1,1455,309,0,0
238,715,0,0,0,0,0,0,0,0,0,-1,1462,309,0,0
245,715,0,0,0,0,0,0,0,0,0,-1,1469,309,0,0
252,715,0,0,0,0,0,0,0,0,0,-1,1476,309,0,0
259,715,0,0,0,0,0,0,0,0,0,-1,1483,309,0,0
266,715,0,0,0,0,0,0,0,0,0,-1,1490,309,0,0
273,715,0,0,0,0,0,0,0,0,0,-1,1497,309,0,0
280,715,0,0,0,0,0,0,0,0,0,-1,1504,309,0,0
287,715,0,0,0,0,0,0,0,0,0,-1,1511,309,0,0
294,715,0,0,0,0,0,0,0,0,0,-1,1518,309,0,0
301,715,0,0,0,0,0,0,0,0,0,-1,1525,309,0,0
308,715,0,0,0,0,0,0,0,0,0,-1,1532,309,0,0
315,715,0,0,0,0,0,0,0,0,0,-1,1539,309,0,0
322,715,0,0,0,0,0,0,0,0,0,-1,1546,309,0,0
329,715,0,0,0,0,0,0,0,0,0,-1,1553,309,0,0
336,715,0,0,0,0,0,0,0,0,0,-1,1560,309,0,0
343,715,0,0,0,0,0,0,0,0,0,-1,1567,309,0,0
350,715,0,0,0,0,0,0,0,0,0,-1,1574,309,0,0
357,715,0,0,0,0,0,0,0,0,0,-1,1581,309,0,0
364,715,0,0,0,0,0,0,0,0,0,-1,1588,309,0,0
371,715,0,0,0,0,0,0,0,0,0,-1,1595,309,0,0
378,715,0,0,0,0,0,0,0,0,0,-1,1602,309,0,0
385,715,0,0,0,0,0,0,0,0,0,-1,1609,309,0,0
392,715,0,0,0,0,0,0,0,0,0,-1,1616,309,0,0
399,715,0,0,0,0,0,0,0,0,0,-1,1623,309,0,0
406,715,0,0,0,0,0,0,0,0,0,-1,1630,309,0,0
413,715,0,0,0,0,0,0,0,0,0,-1,1637,309,0,0
420,715,0,0,0,0,0,0,0,0,0,-1,1644,309,0,0
427,715,0,0,0,0,0,0,0,0,0,-1,1651,309,0,0
434,715,0,0,0,0,0,0,0,0,0,-1,1658,309,0,0
441,715,0,0,0,0,0,0,0,0,0,-1,1665,309,0,0
448,715,0,0,0,0,0,0,0,0,0,-1,1672,309,0,0
455,715,0,0,0,0,0,0,0,0,0,-1,1679,309,0,0
462,715,0,0,0,0,0,0,0,0,0,-1,1686,309,0,0
469,715,0,0,0,0,0,0,0,0,0,-1,1693,309,0,0
476,715,0,0,0,0,0,0,0,0,0,-1,1700,309,0,0
483,715,0,0,0,0,0,0,0,0,0,-1,1707,309,0,0
490,715,0,0,0,0,0,0,0,0,0,-1,1714,309,0,0
497,715,0,0,0,0,0,0,0,0,0,-1,1721,309,0,0
504,715,0,0,0,0,0,0,0,0,0,-1,1728,309,0,0
511,715,0,0,0,0,0,0,0,0,0,-1,1735,309,0,0
518,715,0,0,0,0,0,0,0,0,0,-1,1742,309,0,0
525,715,0,0,0,0,0,0,0,0,0,-1,1749,309,0,0
532,715,0,0,0,0,0,0,0,0,0,-1,1756,309,0,0
539,715,0,0,0,0,0,0,0,0,0,-1,1763,309,0,0
546,715,0,0,0,0,0,0,0,0,0,-1,1770,309,0,0
553,715,0,0,0,0,0,0,0,0,0,-1,1777,309,0,0
560,715,0,0,0,0,0,0,0,0,0,-1,1784,309,0,0
567,715,0,0,0,0,0,0,0,0,0,-1,1791,309,0,0
574,715,0,0,0,0,0,0,0,0,0,-1,1798,309,0,0
581,715,0,0,0,0,0,0,0,0,0,-1,1805,309,0,0
588,715,0,0,0,0,0,0,0,0,0,-1,1812,309,0,0
595,715,0,0,0,0,0,0,0,0,0,-1,1819,309,0,0
602,715,0,0,0,0,0,0,0,0,0,-1,1826,309,0,0
609,715,0,0,0,0,0,0,0,0,0,-1,1833,309,0,0
616,715,0,0,0,0,0,0,0,0,0,-1,1840,309,0,0
623,715,0,0,0,0,0,0,0,0,0,-1,1847,309,0,0
630,715,0,0,0,0,0,0,0,0,0,-1,1854,309,0,0
637,715,0,0,0,0,0,0,0,0,0,-1,1861,309,0,0
644,715,0,0,0,0,0,0,0,0,0,-1,1868,309,0,0
651,715,0,0,0,0,0,0,0,0,0,-1,1875,309,0,0
658,715,0,0,0,0,0,0,0,0,0,-1,1882,309,0,0
665,715,0,0,0,0,0,0,0,0,0,-1,1889,309,0,0
672,715,0,0,0,0,0,0,0,0,0,-1,1896,309,0,0
679,715,0,0,0,0,0,0,0,0,0,-1,1903,309,0,0
686,715,0,0,0,0,0,0,0,0,0,-1,1910,309,0,0
693,715,0,0,0,0,0,0,0,0,0,-1,1917,309,0,0
700,715,0,0,0,0,0,0,0,0,0,-1,1924,309,0,0
707,715,0,0,0,0,0,0,0,0,0,-1,1931,309,0,0
714,715,0,0,0,0,0,0,0,0,0,-1,1938,309,0,0
721,715,0,0,0,0,0,0,0,0,0,-1,1945,309,0,0
728,715,0,0,0,0,0,0,0,0,0,-1,1952,309,0,0
735,715,0,0,0,0,0,0,0,0,0,-1,1959,309,0,0
742,715,0,0,0,0,0,0,0,0,0,-1,1966,309,0,0
749,715,0,0,0,0,0,0,0,0,0,-1,1973,309,0,0
756,715,0,0,0,0,0,0,0,0,0,-1,1980,309,0,0
763,715,0,0,0,0,0,0,0,0,0,-1,1987,309,0,0
770,715,0,0,0,0,0,0,0,0,0,-1,1994,309,0,0
777,715,0,0,0,0,0,0,0,0,0,-1,2001,309,0,0
784,715,0,0,0,0,0,0,0,0,0,-1,2008,309,0,0
791,715,0,0,0,0,0,0,0,0,0,-1,2015,309,0,0
798,715,0,0,0,0,0,0,0,0,0,-1,2022,309,0,0
805,715,0,0,0,0,0,0,0,0,0,-1,2029,309,0,0
812,715,0,0,0,0,0,0,0,0,0,-1,2036,309,0,0
-700,708,0,0,0,0,0,0,0,0,0,-1,524,316,0,0
-693,708,0,0,0,0,0,0,0,0,0,-1,531,316,0,0
-686,708,0,0,0,0,0,0,0,0,0,-1,538,316,0,0
-679,708,0,0,0,0,0,0,0,0,0,-1,545,316,0,0
-672,708,0,0,0,0,0,0,0,0,0,-1,552,316,0,0
-665,708,0,0,0,0,0,0,0,0,0,-1,559,316,0,0
-658,708,0,0,0,0,0,0,0,0,0,-1,566,316,0,0
-651,708,0,0,0,0,0,0,0,0,0,-1,573,316,0,0
-644,708,0,0,0,0,0,0,0,0,0,-1,580,316,0,0
-637,708,0,0,0,0,0,0,0,0,0,-1,587,316,0,0
-630,708,0,0,0,0,0,0,0,0,0,-1,594,316,0,0
-623,708,0,0,0,0,0,0,0,0,0,-1,601,316,0,0
-616,708,0,0,0,0,0,0,0,0,0,-1,608,316,0,0
-609,708,0,0,0,0,0,0,0,0,0,-1,615,316,0,0
-602,708,0,0,0,0,0,0,0,0,0,-1,622,316,0,0
-595,708,0,0,0,0,0,0,0,0,0,-1,629,316,0,0
-588,708,0,0,0,0,0,0,0,0,0,-1,636,316,0,0
-581,708,0,0,0,0,0,0,0,0,0,-1,643,316,0,0
-574,708,0,0,0,0,0,0,0,0,0,-1,650,316,0,0
-567,708,0,0,0,0,0,0,0,0,0,-1,657,316,0,0
-560,708,0,0,0,0,0,0,0,0,0,-1,664,316,0,0
-553,708,0,0,0,0,0,0,0,0,0,-1,671,316,0,0
-546,708,0,0,0,0,0,0,0,0,0,-1,678,316,0,0
-539,708,0,0,0,0,0,0,0,0,0,-1,685,316,0,0
-532,708,0,0,0,0,0,0,0,0,0,-1,692,316,0,0
-525,708,0,0,0,0,0,0,0,0,0,-1,699,316,0,0
-518,708,0,0,0,0,0,0,0,0,0,-1,706,316,0,0
-511,708,0,0,0,0,0,0,0,0,0,-1,713,316,0,0
-504,708,0,0,0,0,0,0,0,0,0,-1,720,316,0,0
-497,708,0,0,0,0,0,0,0,0,0,-1,727,316,0,0
-490,708,0,0,0,0,0,0,0,0,0,-1,734,316,0,0
-483,708,0,0,0,0,0,0,0,0,0,-1,741,316,0,0
-476,708,0,0,0,0,0,0,0,0,0,-1,748,316,0,0
-469,708,0,0,0,0,0,0,0,0,0,-1,755,316,0,0
-462,708,0,0,0,0,0,0,0,0,0,-1,762,316,0,0
-455,708,0,0,0,0,0,0,0,0,0,-1,769,316,0,0
-448,708,0,0,0,0,0,0,0,0,0,-1,776,316,0,0
-441,708,0,0,0,0,0,0,0,0,0,-1,783,316,0,0
-434,708,0,0,0,0,0,0,0,0,0,-1,790,316,0,0
-427,708,0,0,0,0,0,0,0,0,0,-1,797,316,0,0
-420,708,0,0,0,0,0,0,0,0,0,-1,804,316,0,0
-413,708,0,0,0,0,0,0,0,0,0,-1,811,316,0,0
-406,708,0,0,0,0,0,0,0,0,0,-1,818,316,0,0
-399,708,0,0,0,0,0,0,0,0,0,-1,825,316,0,0
-392,708,0,0,0,0,0,0,0,0,0,-1,832,316,0,0
-385,708,0,0,0,0,0,0,0,0,0,-1,839,316,0,0
-378,708,0,0,0,0,0,0,0,0,0,-1,846,316,0,0
-371,708,0,0,0,0,0,0,0,0,0,-1,853,316,0,0
-364,708,0,0,0,0,0,0,0,0,0,-1,860,316,0,0
-357,708,0,0,0,0,0,0,0,0,0,-1,867,316,0,0
-350,708,0,0,0,0,0,0,0,0,0,-1,874,316,0,0
-343,708,0,0,0,0,0,0,0,0,0,-1,881,316,0,0
-336,708,0,0,0,0,0,0,0,0,0,-1,888,316,0,0
-329,708,0,0,0,0,0,0,0,0,0,-1,895,316,0,0
-322,708,0,0,0,0,0,0,0,0,0,-1,902,316,0,0
-315,708,0,0,0,0,0,0,0,0,0,-1,909,316,0,0
-308,708,0,0,0,0,0,0,0,0,0,-1,916,316,0,0
-301,708,0,0,0,0,0,0,0,0,0,-1,923,316,0,0
-294,708,0,0,0,0,0,0,0,0,0,-1,930,316,0,0
-287,708,0,0,0,0,0,0,0,0,0,-1,937,316,0,0
-280,708,0,0,0,0,0,0,0,0,0,-1,944,316,0,0
-273,708,0,0,0,0,0,0,0,0,0,-1,951,316,0,0
-266,708,0,0,0,0,0,0,0,0,0,-1,958,316,0,0
-259,708,0,0,0,0,0,0,0,0,0,-1,965,316,0,0
-252,708,0,0,0,0,0,0,0,0,0,-1,972,316,0,0
-245,708,0,0,0,0,0,0,0,0,0,-1,979,316,0,0
-238,708,0,0,0,0,0,0,0,0,0,-1,986,316,0,0
-231,708,0,0,0,0,0,0,0,0,0,-1,993,316,0,0
-224,708,0,0,0,0,0,0,0,0,0,-1,1000,316,0,0
-217,708,0,0,0,0,0,0,0,0,0,-1,1007,316,0,0
-210,708,0,0,0,0,0,0,0,0,0,-1,1014,316,0,0
-203,708,0,0,0,0,0,0,0,0,0,-1,1021,316,0,0
-196,708,0,0,0,0,0,0,0,0,0,-1,1028,316,0,0
-189,708,0,0,0,0,0,0,0,0,0,-1,1035,316,0,0
-182,708,0,0,0,0,0,0,0,0,0,-1,1042,316,0,0
-175,708,0,0,0,0,0,0,0,0,0,-1,1049,316,0,0
-168,708,0,0,0,0,0,0,0,0,0,-1,1056,316,0,0
-161,708,0,0,0,0,0,0,0,0,0,-1,1063,316,0,0
-154,708,0,0,0,0,0,0,0,0,0,-1,1070,316,0,0
-147,708,0,0,0,0,0,0,0,0,0,-1,1077,316,0,0
-140,708,0,0,0,0,0,0,0,0,0,-1,1084,316,0,0
-133,708,0,0,0,0,0,0,0,0,0,-1,1091,316,0,0
-126,708,0,0,0,0,0,0,0,0,0,-1,1098,316,0,0
-119,708,0,0,0,0,0,0,0,0,0,-1,1105,316,0,0
-112,708,0,0,0,0,0,0,0,0,0,-1,1112,316,0,0
-105,708,0,0,0,0,0,0,0,0,0,-1,1119,316,0,0
-98,708,0,0,0,0,0,0,0,0,0,-1,1126,316,0,0
-91,708,0,0,0,0,0,0,0,0,0,-1,1133,316,0,0
-84,708,0,0,0,0,0,0,0,0,0,-1,1140,316,0,0
-77,708,0,0,0,0,0,0,0,0,0,-1,1147,316,0,0
-70,708,0,0,0,0,0,0,0,0,0,-1,1154,316,0,0
-63,708,0,0,0,0,0,0,0,0,0,-1,1161,316,0,0
-56,708,0,0,0,0,0,0,0,0,0,-1,1168,316,0,0
-49,708,0,0,0,0,0,0,0,0,0,-1,1175,316,0,0
-42,708,0,0,0,0,0,0,0,0,0,-1,1182,316,0,0
-35,708,-2.71204,-6.31558,0,0,0,0,0,0,0,-1,1189,316,-2.712,6.3156
-28,708,-2.92371,-5.53253,0,0,0,0,0,0,0,-1,1196,316,-2.92375,5.53254
-21,708,-5.32227,-7.36841,0,0,0,0,0,0,0,-1,1203,316,-5.32232,7.3684
-14,708,2.37122,-12.3832,0,0,0,0,0,0,0,-1,1210,316,2.37123,12.3832
-7,708,2.60779,-12.6124,0,0,0,0,0,0,0,-1,1217,316,2.60781,12.6124
0,708,-2.72559,-16.8072,0,0,0,0,0,0,0,-1,1224,316,-2.72553,16.8072
7,708,-2.67981,-16.793,0,0,0,0,0,0,0,-1,1231,316,-2.67982,16.793
14,708,-2.21924,-15.3678,0,0,0,0,0,0,0,-1,1238,316,-2.21926,15.3678
21,708,-1.65063,-14.841,0.124414,0.0196911,-0.0482995,0.143289,0.000816613,-0.372533,0.0952548,0.0441088,1245,316,-1.65068,14.841
28,708,-1.01538,-14.3273,0.12337,0.0338838,-0.0451271,0.142176,0.0150786,-0.394834,0.0901788,0.0415774,1252,316,-1.01541,14.3273
35,708,0.307251,-12.716,0,0,0,0,0,0,0,-1,1259,316,0.307247,12.716
42,708,0.973755,-12.3885,0.115398,0.0439037,-0.0434496,0.135916,0.0233861,-0.441174,0.0839086,0.0433957,1266,316,0.973777,12.3885
49,708,1.46814,-11.9859,0.111571,0.0432857,-0.0475004,0.135927,0.0189305,-0.473785,0.0850131,0.0452526,1273,316,1.46815,11.9859
56,708,1.77344,-12.4281,0,0,0,0,0,0,0,-1,1280,316,1.77338,12.4281
63,708,1.94556,-12.473,0.0919716,0.026365,-0.0520414,0.120686,-0.00234889,-0.504186,0.0812513,0.0453489,1287,316,1.94555,12.473
70,708,4.25574,-13.2131,0.0789526,0.0122033,-0.0531399,0.108329,-0.0171733,-0.505003,0.078572,0.0405491,1294,316,4.25579,13.2131
77,708,2.85803,-14.0431,0,0,0,0,0,0,0,-1,1301,316,2.85806,14.0431
84,708,2.43542,-14.0557,0.0559315,-0.0206717,-0.0539855,0.0838224,-0.0485626,-0.476869,0.0773309,0.0451025,1308,316,2.43547,14.0557
91,708,2.2937,-14.6381,0.0430195,-0.0377747,-0.051302,0.0679203,-0.0626755,-0.451881,0.0754198,0.0472877,1315,316,2.29365,14.6381
98,708,1.84497,-15.2644,0.0295053,-0.0534893,-0.0472412,0.0508869,-0.0748708,-0.425018,0.0730451,0.0486838,1322,316,1.84491,15.2644
105,708,2.89819,-16.6805,0.0182678,-0.0673217,-0.0418739,0.0353464,-0.0844003,-0.387261,0.0710431,0.0448517,1329,316,2.8982,16.6805
112,708,1.97986,-16.3005,0.00912314,-0.0749814,-0.0340111,0.0211555,-0.0870138,-0.340036,0.0661976,0.0433197,1336,316,1.97981,16.3006
119,708,0.468506,-15.7,-0.00136805,-0.0814,-0.0257877,0.00622148,-0.0889895,-0.286227,0.0615051,0.0422357,1343,316,0.468567,15.6999
126,708,1.30823,-14.3622,-0.00635784,-0.0852176,-0.0150493,-0.0035835,-0.0879919,-0.182304,0.057504,0.0430444,1350,316,1.30818,14.3622
133,708,1.90613,-14.8343,-0.00587333,-0.0811132,-0.00642931,-0.0053279,-0.0816586,-0.0846332,0.0527529,0.047557,1357,316,1.90614,14.8343
140,708,2.6521,-14.892,-0.00586372,-0.0749027,0.00166121,-0.00582377,-0.0749426,0.0240433,0.0481381,0.0482928,1364,316,2.65205,14.892
147,708,1.94202,-14.6204,3.92687e-05,-0.0658573,0.00857655,0.00113723,-0.0669553,0.127326,0.0450207,0.0453374,1371,316,1.94207,14.6204
154,708,0,0,0,0,0,0,0,0,0,-1,1378,316,0,0
161,708,0,0,0,0,0,0,0,0,0,-1,1385,316,0,0
168,708,0,0,0,0,0,0,0,0,0,-1,1392,316,0,0
175,708,0,0,0,0,0,0,0,0,0,-1,1399,316,0,0
182,708,0,0,0,0,0,0,0,0,0,-1,1406,316,0,0
189,708,0,0,0,0,0,0,0,0,0,-1,1413,316,0,0
196,708,0,0,0,0,0,0,0,0,0,-1,1420,316,0,0
203,708,0,0,0,0,0,0,0,0,0,-1,1427,316,0,0
210,708,0,0,0,0,0,0,0,0,0,-1,1434,316,0,0
217,708,0,0,0,0,0,0,0,0,0,-1,1441,316,0,0
224,708,0,0,0,0,0,0,0,0,0,-1,1448,316,0,0
231,708,0,0,0,0,0,0,0,0,0,-1,1455,316,0,0
238,708,0,0,0,0,0,0,0,0,0,-1,1462,316,0,0
245,708,0,0,0,0,0,0,0,0,0,-1,1469,316,0,0
252,708,0,0,0,0,0,0,0,0,0,-1,1476,316,0,0
259,708,0,0,0,0,0,0,0,0,0,-1,1483,316,0,0
266,708,0,0,0,0,0,0,0,0,0,-1,1490,316,0,0
273,708,0,0,0,0,0,0,0,0,0,-1,1497,316,0,0
280,708,0,0,0,0,0,0,0,0,0,-1,1504,316,0,0
287,708,0,0,0,0,0,0,0,0,0,-1,1511,316,0,0
294,708,0,0,0,0,0,0,0,0,0,-1,1518,316,0,0
301,708,0,0,0,0,0,0,0,0,0,-1,1525,316,0,0
308,708,0,0,0,0,0,0,0,0,0,-1,1532,316,0,0
315,708,0,0,0,0,0,0,0,0,0,-1,1539,316,0,0
322,708,0,0,0,0,0,0,0,0,0,-1,1546,316,0,0
329,708,0,0,0,0,0,0,0,0,0,-1,1553,316,0,0
336,708,0,0,0,0,0,0,0,0,0,-1,1560,316,0,0
343,708,0,0,0,0,0,0,0,0,0,-1,1567,316,0,0
350,708,0,0,0,0,0,0,0,0,0,-1,1574,316,0,0
357,708,0,0,0,0,0,0,0,0,0,-1,1581,316,0,0
364,708,0,0,0,0,0,0,0,0,0,-1,1588,316,0,0
371,708,0,0,0,0,0,0,0,0,0,-1,1595,316,0,0
378,708,0,0,0,0,0,0,0,0,0,-1,1602,316,0,0
385,708,0,0,0,0,0,0,0,0,0,-1,1609,316,0,0
392,708,0,0,0,0,0,0,0,0,0,-1,1616,316,0,0
399,708,0,0,0,0,0,0,0,0,0,-1,1623,316,0,0
406,708,0,0,0,0,0,0,0,0,0,-1,1630,316,0,0
413,708,0,0,0,0,0,0,0,0,0,-1,1637,316,0,0
420,708,0,0,0,0,0,0,0,0,0,-1,1644,316,0,0
427,708,0,0,0,0,0,0,0,0,0,-1,1651,316,0,0
434,708,0,0,0,0,0,0,0,0,0,-1,1658,316,0,0
441,708,0,0,0,0,0,0,0,0,0,-1,1665,316,0,0
448,708,0,0,0,0,0,0,0,0,0,-1,1672,316,0,0
455,708,0,0,0,0,0,0,0,0,0,-1,1679,316,0,0
462,708,0,0,0,0,0,0,0,0,0,-1,1686,316,0,0
469,708,0,0,0,0,0,0,0,0,0,-1,1693,316,0,0
476,708,0,0,0,0,0,0,0,0,0,-1,1700,316,0,0
483,708,0,0,0,0,0,0,0,0,0,-1,1707,316,0,0
490,708,0,0,0,0,0,0,0,0,0,-1,1714,316,0,0
497,708,0,0,0,0,0,0,0,0,0,-1,1721,316,0,0
504,708,0,0,0,0,0,0,0,0,0,-1,1728,316,0,0
511,708,0,0,0,0,0,0,0,0,0,-1,1735,316,0,0
518,708,0,0,0,0,0,0,0,0,0,-1,1742,316,0,0
525,708,0,0,0,0,0,0,0,0,0,-1,1749,316,0,0
532,708,0,0,0,0,0,0,0,0,0,-1,1756,316,0,0
539,708,0,0,0,0,0,0,0,0,0,-1,1763,316,0,0
546,708,0,0,0,0,0,0,0,0,0,-1,1770,316,0,0
553,708,0,0,0,0,0,0,0,0,0,-1,1777,316,0,0
560,708,0,0,0,0,0,0,0,0,0,-1,1784,316,0,0
567,708,0,0,0,0,0,0,0,0,0,-1,1791,316,0,0
574,708,0,0,0,0,0,0,0,0,0,-1,1798,316,0,0
581,708,0,0,0,0,0,0,0,0,0,-1,1805,316,0,0
588,708,0,0,0,0,0,0,0,0,0,-1,1812,316,0,0
595,708,0,0,0,0,0,0,0,0,0,-1,1819,316,0,0
602,708,0,0,0,0,0,0,0,0,0,-1,1826,316,0,0
609,708,0,0,0,0,0,0,0,0,0,-1,1833,316,0,0
616,708,0,0,0,0,0,0,0,0,0,-1,1840,316,0,0
623,708,0,0,0,0,0,0,0,0,0,-1,1847,316,0,0
630,708,0,0,0,0,0,0,0,0,0,-1,1854,316,0,0
637,708,0,0,0,0,0,0,0,0,0,-1,1861,316,0,0
644,708,0,0,0,0,0,0,0,0,0,-1,1868,316,0,0
651,708,0,0,0,0,0,0,0,0,0,-1,1875,316,0,0
658,708,0,0,0,0,0,0,0,0,0,-1,1882,316,0,0
665,708,0,0,0,0,0,0,0,0,0,-1,1889,316,0,0
672,708,0,0,0,0,0,0,0,0,0,-1,1896,316,0,0
679,708,0,0,0,0,0,0,0,0,0,-1,1903,316,0,0
686,708,0,0,0,0,0,0,0,0,0,-1,1910,316,0,0
693,708,0,0,0,0,0,0,0,0,0,-1,1917,316,0,0
700,708,0,0,0,0,0,0,0,0,0,-1,1924,316,0,0
707,708,0,0,0,0,0,0,0,0,0,-1,1931,316,0,0
714,708,0,0,0,0,0,0,0,0,0,-1,1938,316,0,0
721,708,0,0,0,0,0,0,0,0,0,-1,1945,316,0,0
728,708,0,0,0,0,0,0,0,0,0,-1,1952,316,0,0
735,708,0,0,0,0,0,0,0,0,0,-1,1959,316,0,0
742,708,0,0,0,0,0,0,0,0,0,-1,1966,316,0,0
749,708,0,0,0,0,0,0,0,0,0,-1,1973,316,0,0
756,708,0,0,0,0,0,0,0,0,0,-1,1980,316,0,0
763,708,0,0,0,0,0,0,0,0,0,-1,1987,316,0,0
770,708,0,0,0,0,0,0,0,0,0,-1,1994,316,0,0
777,708,0,0,0,0,0,0,0,0,0,-1,2001,316,0,0
784,708,0,0,0,0,0,0,0,0,0,-1,2008,316,0,0
791,708,0,0,0,0,0,0,0,0,0,-1,2015,316,0,0
798,708,0,0,0,0,0,0,0,0,0,-1,2022,316,0,0
805,708,0,0,0,0,0,0,0,0,0,-1,2029,316,0,0
812,708,0,0,0,0,0,0,0,0,0,-1,2036,316,0,0
-700,701,0,0,0,0,0,0,0,0,0,-1,524,323,0,0
-693,701,0,0,0,0,0,0,0,0,0,-1,531,323,0,0
-686,701,0,0,0,0,0,0,0,0,0,-1,538,323,0,0
-679,701,0,0,0,0,0,0,0,0,0,-1,545,323,0,0
-672,701,0,0,0,0,0,0,0,0,0,-1,552,323,0,0
-665,701,0,0,0,0,0,0,0,0,0,-1,559,323,0,0
-658,701,0,0,0,0,0,0,0,0,0,-1,566,323,0,0
-651,701,0,0,0,0,0,0,0,0,0,-1,573,323,0,0
-644,701,0,0,0,0,0,0,0,0,0,-1,580,323,0,0
-637,701,0,0,0,0,0,0,0,0,0,-1,587,323,0,0
-630,701,0,0,0,0,0,0,0,0,0,-1,594,323,0,0
-623,701,0,0,0,0,0,0,0,0,0,-1,601,323,0,0
-616,701,0,0,0,0,0,0,0,0,0,-1,608,323,0,0
-609,701,0,0,0,0,0,0,0,0,0,-1,615,323,0,0
-602,701,0,0,0,0,0,0,0,0,0,-1,622,323,0,0
-595,701,0,0,0,0,0,0,0,0,0,-1,629,323,0,0
-588,701,0,0,0,0,0,0,0,0,0,-1,636,323,0,0
-581,701,0,0,0,0,0,0,0,0,0,-1,643,323,0,0
-574,701,0,0,0,0,0,0,0,0,0,-1,650,323,0,0
-567,701,0,0,0,0,0,0,0,0,0,-1,657,323,0,0
-560,701,0,0,0,0,0,0,0,0,0,-1,664,323,0,0
-553,701,0,0,0,0,0,0,0,0,0,-1,671,323,0,0
-546,701,0,0,0,0,0,0,0,0,0,-1,678,323,0,0
-539,701,0,0,0,0,0,0,0,0,0,-1,685,323,0,0
-532,701,0,0,0,0,0,0,0,0,0,-1,692,323,0,0
-525,701,0,0,0,0,0,0,0,0,0,-1,699,323,0,0
-518,701,0,0,0,0,0,0,0,0,0,-1,706,323,0,0
-511,701,0,0,0,0,0,0,0,0,0,-1,713,323,0,0
-504,701,0,0,0,0,0,0,0,0,0,-1,720,323,0,0
-497,701,0,0,0,0,0,0,0,0,0,-1,727,323,0,0
-490,701,0,0,0,0,0,0,0,0,0,-1,734,323,0,0
-483,701,0,0,0,0,0,0,0,0,0,-1,741,323,0,0
-476,701,0,0,0,0,0,0,0,0,0,-1,748,323,0,0
-469,701,0,0,0,0,0,0,0,0,0,-1,755,323,0,0
-462,701,0,0,0,0,0,0,0,0,0,-1,762,323,0,0
-455,701,0,0,0,0,0,0,0,0,0,-1,769,323,0,0
-448,701,0,0,0,0,0,0,0,0,0,-1,776,323,0,0
-441,701,0,0,0,0,0,0,0,0,0,-1,783,323,0,0
-434,701,0,0,0,0,0,0,0,0,0,-1,790,323,0,0
-427,701,0,0,0,0,0,0,0,0,0,-1,797,323,0,0
-420,701,0,0,0,0,0,0,0,0,0,-1,804,323,0,0
-413,701,0,0,0,0,0,0,0,0,0,-1,811,323,0,0
-406,701,0,0,0,0,0,0,0,0,0,-1,818,323,0,0
-399,701,0,0,0,0,0,0,0,0,0,-1,825,323,0,0
-392,701,0,0,0,0,0,0,0,0,0,-1,832,323,0,0
-385,701,0,0,0,0,0,0,0,0,0,-1,839,323,0,0
-378,701,0,0,0,0,0,0,0,0,0,-1,846,323,0,0
-371,701,0,0,0,0,0,0,0,0,0,-1,853,323,0,0
-364,701,0,0,0,0,0,0,0,0,0,-1,860,323,0,0
-357,701,0,0,0,0,0,0,0,0,0,-1,867,323,0,0
-350,701,0,0,0,0,0,0,0,0,0,-1,874,323,0,0
-343,701,0,0,0,0,0,0,0,0,0,-1,881,323,0,0
-336,701,0,0,0,0,0,0,0,0,0,-1,888,323,0,0
-329,701,0,0,0,0,0,0,0,0,0,-1,895,323,0,0
-322,701,0,0,0,0,0,0,0,0,0,-1,902,323,0,0
-315,701,0,0,0,0,0,0,0,0,0,-1,909,323,0,0
-308,701,0,0,0,0,0,0,0,0,0,-1,916,323,0,0
-301,701,0,0,0,0,0,0,0,0,0,-1,923,323,0,0
-294,701,0,0,0,0,0,0,0,0,0,-1,930,323,0,0
-287,701,0,0,0,0,0,0,0,0,0,-1,937,323,0,0
-280,701,0,0,0,0,0,0,0,0,0,-1,944,323,0,0
-273,701,0,0,0,0,0,0,0,0,0,-1,951,323,0,0
-266,701,0,0,0,0,0,0,0,0,0,-1,958,323,0,0
-259,701,0,0,0,0,0,0,0,0,0,-1,965,323,0,0
-252,701,0,0,0,0,0,0,0,0,0,-1,972,323,0,0
-245,701,0,0,0,0,0,0,0,0,0,-1,979,323,0,0
-238,701,0,0,0,0,0,0,0,0,0,-1,986,323,0,0
-231,701,0,0,0,0,0,0,0,0,0,-1,993,323,0,0
-224,701,0,0,0,0,0,0,0,0,0,-1,1000,323,0,0
-217,701,0,0,0,0,0,0,0,0,0,-1,1007,323,0,0
-210,701,0,0,0,0,0,0,0,0,0,-1,1014,323,0,0
-203,701,0,0,0,0,0,0,0,0,0,-1,1021,323,0,0
-196,701,0,0,0,0,0,0,0,0,0,-1,1028,323,0,0
-189,701,0,0,0,0,0,0,0,0,0,-1,1035,323,0,0
-182,701,0,0,0,0,0,0,0,0,0,-1,1042,323,0,0
-175,701,0,0,0,0,0,0,0,0,0,-1,1049,323,0,0
-168,701,0,0,0,0,0,0,0,0,0,-1,1056,323,0,0
-161,701,0,0,0,0,0,0,0,0,0,-1,1063,323,0,0
-154,701,0,0,0,0,0,0,0,0,0,-1,1070,323,0,0
-147,701,0,0,0,0,0,0,0,0,0,-1,1077,323,0,0
-140,701,0,0,0,0,0,0,0,0,0,-1,1084,323,0,0
-133,701,0,0,0,0,0,0,0,0,0,-1,1091,323,0,0
-126,701,0,0,0,0,0,0,0,0,0,-1,1098,323,0,0
-119,701,0,0,0,0,0,0,0,0,0,-1,1105,323,0,0
-112,701,0,0,0,0,0,0,0,0,0,-1,1112,323,0,0
-105,701,0,0,0,0,0,0,0,0,0,-1,1119,323,0,0
-98,701,0,0,0,0,0,0,0,0,0,-1,1126,323,0,0
-91,701,0,0,0,0,0,0,0,0,0,-1,1133,323,0,0
-84,701,0,0,0,0,0,0,0,0,0,-1,1140,323,0,0
-77,701,0,0,0,0,0,0,0,0,0,-1,1147,323,0,0
-70,701,-2.36731,-1.49271,0,0,0,0,0,0,0,-1,1154,323,-2.36729,1.4927
-63,701,-2.479,-0.295959,0,0,0,0,0,0,0,-1,1161,323,-2.47895,0.295961
-56,701,-0.420166,-0.101776,0,0,0,0,0,0,0,-1,1168,323,-0.420119,0.101777
-49,701,-1.09021,-0.155762,0,0,0,0,0,0,0,-1,1175,323,-1.09024,0.155768
-42,701,-0.210327,-0.299133,0,0,0,0,0,0,0,-1,1182,323,-0.210379,0.29914
-35,701,-2.9635,-7.98676,0,0,0,0,0,0,0,-1,1189,323,-2.9635,7.98676
-28,701,-6.64417,-5.4917,0,0,0,0,0,0,0,-1,1196,323,-6.64411,5.4917
-21,701,2.4342,-12.5175,0,0,0,0,0,0,0,-1,1203,323,2.43418,12.5175
-14,701,2.58508,-12.2806,0,0,0,0,0,0,0,-1,1210,323,2.58512,12.2806
-7,701,2.58179,-12.3097,0,0,0,0,0,0,0,-1,1217,323,2.58176,12.3097
0,701,-2.35364,-17.3861,0,0,0,0,0,0,0,-1,1224,323,-2.35369,17.3861
7,701,-1.94629,-16.5662,0.100732,-0.0115797,-0.0452278,0.116681,-0.0275281,-0.339011,0.0884036,0.046323,1231,323,-1.94624,16.5661
14,701,-1.56543,-15.6848,0.100094,0.00304979,-0.0412383,0.115251,-0.0121069,-0.352213,0.0811711,0.0478646,1238,323,-1.56537,15.6848
21,701,-0.86145,-14.9596,0.100171,0.0167414,-0.039235,0.115724,0.00118927,-0.377386,0.0767557,0.0461837,1245,323,-0.861433,14.9596
28,701,-0.0732422,-14.4407,0.0982863,0.0271507,-0.0359582,0.113296,0.0121412,-0.395428,0.0718263,0.0436768,1252,323,-0.07321,14.4407
35,701,0.787476,-13.8029,0.0944675,0.0331985,-0.0338148,0.109461,0.018205,-0.417352,0.0677262,0.0435023,1259,323,0.787448,13.8029
42,701,1.50537,-13.4084,0.0915321,0.034715,-0.0330272,0.106688,0.0195593,-0.430217,0.0655849,0.0444359,1266,323,1.50538,13.4084
49,701,1.97925,-12.8223,0.088514,0.0339178,-0.0355578,0.106044,0.016388,-0.458028,0.0659158,0.0449867,1273,323,1.97921,12.8223
56,701,2.0979,-12.5151,0,0,0,0,0,0,0,-1,1280,323,2.0979,12.5151
63,701,2.27502,-12.5893,0.0719875,0.0196662,-0.0379522,0.0919218,-0.000268161,-0.483642,0.0613708,0.04502,1287,323,2.27501,12.5893
70,701,4.09961,-12.6359,0.06117,0.00779597,-0.038658,0.0814579,-0.0124919,-0.483293,0.0589123,0.0437586,1294,323,4.09962,12.6359
77,701,3.00464,-13.3061,0.0520031,-0.00537508,-0.0396121,0.072224,-0.0255959,-0.47199,0.0585761,0.042882,1301,323,3.00465,13.3061
84,701,2.8324,-13.8117,0.0425269,-0.019772,-0.0399006,0.0619971,-0.0392422,-0.453975,0.0589406,0.0445071,1308,323,2.83244,13.8117
91,701,2.39954,-13.9568,0.0320401,-0.0340456,-0.0383428,0.0496134,-0.051619,-0.429753,0.0584504,0.0442219,1315,323,2.39956,13.9569
98,701,3.65027,-15.916,0.021123,-0.0470691,-0.0358713,0.0365172,-0.0624634,-0.405383,0.0577972,0.0468595,1322,323,3.65027,15.916
105,701,3.00232,-15.7687,0.01196,-0.0584726,-0.0323383,0.0245553,-0.0710679,-0.371411,0.0573438,0.0470873,1329,323,3.00235,15.7687
112,701,2.23657,-15.3665,0.00453829,-0.064812,-0.0270702,0.0138536,-0.0741274,-0.331425,0.0546249,0.0428223,1336,323,2.23654,15.3665
119,701,1.10986,-14.734,-0.00415519,-0.0701186,-0.0212424,0.00209358,-0.0763674,-0.286096,0.0516236,0.0410025,1343,323,1.10988,14.734
126,701,1.37207,-13.832,-0.00820671,-0.0730186,-0.0137413,-0.00541367,-0.0758116,-0.200527,0.0488366,0.042625,1350,323,1.37211,13.832
133,701,1.87109,-14.2855,-0.00794257,-0.0701957,-0.00743381,-0.00706719,-0.0710711,-0.117217,0.0452095,0.0475206,1357,323,1.87106,14.2855
140,701,2.41711,-14.5369,-0.0078323,-0.0656691,-0.00151409,-0.00779269,-0.0657087,-0.0261547,0.0414531,0.0479038,1364,323,2.41713,14.5369
147,701,1.80969,-14.4195,-0.0037047,-0.059542,0.00331683,-0.00350836,-0.0597384,0.0591246,0.0387092,0.047146,1371,323,1.80972,14.4195
154,701,1.14343,-14.3039,0,0,0,0,0,0,0,-1,1378,323,1.14343,14.3038
161,701,0.745239,-14.1323,0,0,0,0,0,0,0,-1,1385,323,0.74522,14.1323
168,701,6.88513,-0.0237427,0,0,0,0,0,0,0,-1,1392,323,6.88517,0.0237498
175,701,6.94556,0.0693054,0,0,0,0,0,0,0,-1,1399,323,6.94555,-0.0692958
182,701,8.80652,5.42807,0,0,0,0,0,0,0,-1,1406,323,8.8065,-5.42808
189,701,8.58081,4.24493,0,0,0,0,0,0,0,-1,1413,323,8.58082,-4.24494
196,701,0,0,0,0,0,0,0,0,0,-1,1420,323,0,0
203,701,0,0,0,0,0,0,0,0,0,-1,1427,323,0,0
210,701,0,0,0,0,0,0,0,0,0,-1,1434,323,0,0
217,701,0,0,0,0,0,0,0,0,0,-1,1441,323,0,0
224,701,0,0,0,0,0,0,0,0,0,-1,1448,323,0,0
231,701,0,0,0,0,0,0,0,0,0,-1,1455,323,0,0
238,701,0,0,0,0,0,0,0,0,0,-1,1462,323,0,0
245,701,0,0,0,0,0,0,0,0,0,-1,1469,323,0,0
252,701,0,0,0,0,0,0,0,0,0,-1,1476,323,0,0
259,701,0,0,0,0,0,0,0,0,0,-1,1483,323,0,0
266,701,0,0,0,0,0,0,0,0,0,-1,1490,323,0,0
273,701,0,0,0,0,0,0,0,0,0,-1,1497,323,0,0
280,701,0,0,0,0,0,0,0,0,0,-1,1504,323,0,0
287,701,0,0,0,0,0,0,0,0,0,-1,1511,323,0,0
294,701,0,0,0,0,0,0,0,0,0,-1,1518,323,0,0
301,701,0,0,0,0,0,0,0,0,0,-1,1525,323,0,0
308,701,0,0,0,0,0,0,0,0,0,-1,1532,323,0,0
315,701,0,0,0,0,0,0,0,0,0,-1,1539,323,0,0
322,701,0,0,0,0,0,0,0,0,0,-1,1546,323,0,0
329,701,0,0,0,0,0,0,0,0,0,-1,1553,323,0,0
336,701,0,0,0,0,0,0,0,0,0,-1,1560,323,0,0
343,701,0,0,0,0,0,0,0,0,0,-1,1567,323,0,0
350,701,0,0,0,0,0,0,0,0,0,-1,1574,323,0,0
357,701,0,0,0,0,0,0,0,0,0,-1,1581,323,0,0
364,701,0,0,0,0,0,0,0,0,0,-1,1588,323,0,0
371,701,0,0,0,0,0,0,0,0,0,-1,1595,323,0,0
378,701,0,0,0,0,0,0,0,0,0,-1,1602,323,0,0
385,701,0,0,0,0,0,0,0,0,0,-1,1609,323,0,0
392,701,0,0,0,0,0,0,0,0,0,-1,1616,323,0,0
399,701,0,0,0,0,0,0,0,0,0,-1,1623,323,0,0
406,701,0,0,0,0,0,0,0,0,0,-1,1630,323,0,0
413,701,0,0,0,0,0,0,0,0,0,-1,1637,323,0,0
420,701,0,0,0,0,0,0,0,0,0,-1,1644,323,0,0
427,701,0,0,0,0,0,0,0,0,0,-1,1651,323,0,0
434,701,0,0,0,0,0,0,0,0,0,-1,1658,323,0,0
441,701,0,0,0,0,0,0,0,0,0,-1,1665,323,0,0
448,701,0,0,0,0,0,0,0,0,0,-1,1672,323,0,0
455,701,0,0,0,0,0,0,0,0,0,-1,1679,323,0,0
462,701,0,0,0,0,0,0,0,0,0,-1,1686,323,0,0
469,701,0,0,0,0,0,0,0,0,0,-1,1693,323,0,0
476,701,0,0,0,0,0,0,0,0,0,-1,1700,323,0,0
483,701,0,0,0,0,0,0,0,0,0,-1,1707,323,0,0
490,701,0,0,0,0,0,0,0,0,0,-1,1714,323,0,0
497,701,0,0,0,0,0,0,0,0,0,-1,1721,323,0,0
504,701,0,0,0,0,0,0,0,0,0,-1,1728,323,0,0
511,701,0,0,0,0,0,0,0,0,0,-1,1735,323,0,0
518,701,0,0,0,0,0,0,0,0,0,-1,1742,323,0,0
525,701,0,0,0,0,0,0,0,0,0,-1,1749,323,0,0
532,701,0,0,0,0,0,0,0,0,0,-1,1756,323,0,0
539,701,0,0,0,0,0,0,0,0,0,-1,1763,323,0,0
546,701,0,0,0,0,0,0,0,0,0,-1,1770,323,0,0
553,701,0,0,0,0,0,0,0,0,0,-1,1777,323,0,0
560,701,0,0,0,0,0,0,0,0,0,-1,1784,323,0,0
567,701,0,0,0,0,0,0,0,0,0,-1,1791,323,0,0
574,701,0,0,0,0,0,0,0,0,0,-1,1798,323,0,0
581,701,0,0,0,0,0,0,0,0,0,-1,1805,323,0,0
588,701,0,0,0,0,0,0,0,0,0,-1,1812,323,0,0
595,701,0,0,0,0,0,0,0,0,0,-1,1819,323,0,0
602,701,0,0,0,0,0,0,0,0,0,-1,1826,323,0,0
609,701,0,0,0,0,0,0,0,0,0,-1,1833,323,0,0
616,701,0,0,0,0,0,0,0,0,0,-1,1840,323,0,0
623,701,0,0,0,0,0,0,0,0,0,-1,1847,323,0,0
630,701,0,0,0,0,0,0,0,0,0,-1,1854,323,0,0
637,701,0,0,0,0,0,0,0,0,0,-1,1861,323,0,0
644,701,0,0,0,0,0,0,0,0,0,-1,1868,323,0,0
651,701,0,0,0,0,0,0,0,0,0,-1,1875,323,0,0
658,701,0,0,0,0,0,0,0,0,0,-1,1882,323,0,0
665,701,0,0,0,0,0,0,0,0,0,-1,1889,323,0,0
672,701,0,0,0,0,0,0,0,0,0,-1,1896,323,0,0
679,701,0,0,0,0,0,0,0,0,0,-1,1903,323,0,0
686,701,0,0,0,0,0,0,0,0,0,-1,1910,323,0,0
693,701,0,0,0,0,0,0,0,0,0,-1,1917,323,0,0
700,701,0,0,0,0,0,0,0,0,0,-1,1924,323,0,0
707,701,0,0,0,0,0,0,0,0,0,-1,1931,323,0,0
714,701,0,0,0,0,0,0,0,0,0,-1,1938,323,0,0
721,701,0,0,0,0,0,0,0,0,0,-1,1945,323,0,0
728,701,0,0,0,0,0,0,0,0,0,-1,1952,323,0,0
735,701,0,0,0,0,0,0,0,0,0,-1,1959,323,0,0
742,701,0,0,0,0,0,0,0,0,0,-1,1966,323,0,0
749,701,0,0,0,0,0,0,0,0,0,-1,1973,323,0,0
756,701,0,0,0,0,0,0,0,0,0,-1,1980,323,0,0
763,701,0,0,0,0,0,0,0,0,0,-1,1987,323,0,0
770,701,0,0,0,0,0,0,0,0,0,-1,1994,323,0,0
777,701,0,0,0,0,0,0,0,0,0,-1,2001,323,0,0
784,701,0,0,0,0,0,0,0,0,0,-1,2008,323,0,0
791,701,0,0,0,0,0,0,0,0,0,-1,2015,323,0,0
798,701,0,0,0,0,0,0,0,0,0,-1,2022,323,0,0
805,701,0,0,0,0,0,0,0,0,0,-1,2029,323,0,0
812,701,0,0,0,0,0,0,0,0,0,-1,2036,323,0,0
-700,694,0,0,0,0,0,0,0,0,0,-1,524,330,0,0
-693,694,0,0,0,0,0,0,0,0,0,-1,531,330,0,0
-686,694,0,0,0,0,0,0,0,0,0,-1,538,330,0,0
-679,694,0,0,0,0,0,0,0,0,0,-1,545,330,0,0
-672,694,0,0,0,0,0,0,0,0,0,-1,552,330,0,0
-665,694,0,0,0,0,0,0,0,0,0,-1,559,330,0,0
-658,694,0,0,0,0,0,0,0,0,0,-1,566,330,0,0
-651,694,0,0,0,0,0,0,0,0,0,-1,573,330,0,0
-644,694,0,0,0,0,0,0,0,0,0,-1,580,330,0,0
-637,694,0,0,0,0,0,0,0,0,0,-1,587,330,0,0
-630,694,0,0,0,0,0,0,0,0,0,-1,594,330,0,0
-623,694,0,0,0,0,0,0,0,0,0,-1,601,330,0,0
-616,694,0,0,0,0,0,0,0,0,0,-1,608,330,0,0
-609,694,0,0,0,0,0,0,0,0,0,-1,615,330,0,0
-602,694,0,0,0,0,0,0,0,0,0,-1,622,330,0,0
-595,694,0,0,0,0,0,0,0,0,0,-1,629,330,0,0
-588,694,0,0,0,0,0,0,0,0,0,-1,636,330,0,0
-581,694,0,0,0,0,0,0,0,0,0,-1,643,330,0,0
-574,694,0,0,0,0,0,0,0,0,0,-1,650,330,0,0
-567,694,0,0,0,0,0,0,0,0,0,-1,657,330,0,0
-560,694,0,0,0,0,0,0,0,0,0,-1,664,330,0,0
-553,694,0,0,0,0,0,0,0,0,0,-1,671,330,0,0
-546,694,0,0,0,0,0,0,0,0,0,-1,678,330,0,0
-539,694,0,0,0,0,0,0,0,0,0,-1,685,330,0,0
-532,694,0,0,0,0,0,0,0,0,0,-1,692,330,0,0
-525,694,0,0,0,0,0,0,0,0,0,-1,699,330,0,0
-518,694,0,0,0,0,0,0,0,0,0,-1,706,330,0,0
-511,694,0,0,0,0,0,0,0,0,0,-1,713,330,0,0
-504,694,0,0,0,0,0,0,0,0,0,-1,720,330,0,0
-497,694,0,0,0,0,0,0,0,0,0,-1,727,330,0,0
-490,694,0,0,0,0,0,0,0,0,0,-1,734,330,0,0
-483,694,0,0,0,0,0,0,0,0,0,-1,741,330,0,0
-476,694,0,0,0,0,0,0,0,0,0,-1,748,330,0,0
-469,694,0,0,0,0,0,0,0,0,0,-1,755,330,0,0
-462,694,0,0,0,0,0,0,0,0,0,-1,762,330,0,0
-455,694,0,0,0,0,0,0,0,0,0,-1,769,330,0,0
-448,694,0,0,0,0,0,0,0,0,0,-1,776,330,0,0
-441,694,0,0,0,0,0,0,0,0,0,-1,783,330,0,0
-434,694,0,0,0,0,0,0,0,0,0,-1,790,330,0,0
-427,694,0,0,0,0,0,0,0,0,0,-1,797,330,0,0
-420,694,0,0,0,0,0,0,0,0,0,-1,804,330,0,0
-413,694,0,0,0,0,0,0,0,0,0,-1,811,330,0,0
-406,694,0,0,0,0,0,0,0,0,0,-1,818,330,0,0
-399,694,0,0,0,0,0,0,0,0,0,-1,825,330,0,0
-392,694,0,0,0,0,0,0,0,0,0,-1,832,330,0,0
-385,694,0,0,0,0,0,0,0,0,0,-1,839,330,0,0
-378,694,0,0,0,0,0,0,0,0,0,-1,846,330,0,0
-371,694,0,0,0,0,0,0,0,0,0,-1,853,330,0,0
-364,694,0,0,0,0,0,0,0,0,0,-1,860,330,0,0
-357,694,0,0,0,0,0,0,0,0,0,-1,867,330,0,0
-350,694,0,0,0,0,0,0,0,0,0,-1,874,330,0,0
-343,694,0,0,0,0,0,0,0,0,0,-1,881,330,0,0
-336,694,0,0,0,0,0,0,0,0,0,-1,888,330,0,0
-329,694,0,0,0,0,0,0,0,0,0,-1,895,330,0,0
-322,694,0,0,0,0,0,0,0,0,0,-1,902,330,0,0
-315,694,0,0,0,0,0,0,0,0,0,-1,909,330,0,0
-308,694,0,0,0,0,0,0,0,0,0,-1,916,330,0,0
-301,694,0,0,0,0,0,0,0,0,0,-1,923,330,0,0
-294,694,0,0,0,0,0,0,0,0,0,-1,930,330,0,0
-287,694,0,0,0,0,0,0,0,0,0,-1,937,330,0,0
-280,694,0,0,0,0,0,0,0,0,0,-1,944,330,0,0
-273,694,0,0,0,0,0,0,0,0,0,-1,951,330,0,0
-266,694,0,0,0,0,0,0,0,0,0,-1,958,330,0,0
-259,694,0,0,0,0,0,0,0,0,0,-1,965,330,0,0
-252,694,0,0,0,0,0,0,0,0,0,-1,972,330,0,0
-245,694,0,0,0,0,0,0,0,0,0,-1,979,330,0,0
-238,694,0,0,0,0,0,0,0,0,0,-1,986,330,0,0
-231,694,0,0,0,0,0,0,0,0,0,-1,993,330,0,0
-224,694,0,0,0,0,0,0,0,0,0,-1,1000,330,0,0
-217,694,0,0,0,0,0,0,0,0,0,-1,1007,330,0,0
-210,694,0,0,0,0,0,0,0,0,0,-1,1014,330,0,0
-203,694,0,0,0,0,0,0,0,0,0,-1,1021,330,0,0
-196,694,0,0,0,0,0,0,0,0,0,-1,1028,330,0,0
-189,694,0,0,0,0,0,0,0,0,0,-1,1035,330,0,0
-182,694,0,0,0,0,0,0,0,0,0,-1,1042,330,0,0
-175,694,0,0,0,0,0,0,0,0,0,-1,1049,330,0,0
-168,694,0,0,0,0,0,0,0,0,0,-1,1056,330,0,0
-161,694,0,0,0,0,0,0,0,0,0,-1,1063,330,0,0
-154,694,0,0,0,0,0,0,0,0,0,-1,1070,330,0,0
-147,694,0,0,0,0,0,0,0,0,0,-1,1077,330,0,0
-140,694,0,0,0,0,0,0,0,0,0,-1,1084,330,0,0
-133,694,0,0,0,0,0,0,0,0,0,-1,1091,330,0,0
-126,694,0,0,0,0,0,0,0,0,0,-1,1098,330,0,0
-119,694,0,0,0,0,0,0,0,0,0,-1,1105,330,0,0
-112,694,0,0,0,0,0,0,0,0,0,-1,1112,330,0,0
-105,694,-1.35962,-7.57141,0,0,0,0,0,0,0,-1,1119,330,-1.3596,7.57142
-98,694,1.34875,-10.1051,0,0,0,0,0,0,0,-1,1126,330,1.34874,10.1051
-91,694,1.35474,-9.22229,0,0,0,0,0,0,0,-1,1133,330,1.35476,9.22229
-84,694,-4.39136,-4.62332,0,0,0,0,0,0,0,-1,1140,330,-4.3914,4.62331
-77,694,-4.93396,-10.2672,0,0,0,0,0,0,0,-1,1147,330,-4.9339,10.2672
-70,694,-6.49402,-10.0714,0,0,0,0,0,0,0,-1,1154,330,-6.49399,10.0714
-63,694,-5.80835,-4.75275,0,0,0,0,0,0,0,-1,1161,330,-5.80834,4.75274
-56,694,-6.50623,-0.649139,0,0,0,0,0,0,0,-1,1168,330,-6.5062,0.649126
-49,694,-1.11426,0.0341797,0,0,0,0,0,0,0,-1,1175,330,-1.11424,-0.0341846
-42,694,-0.346313,-0.709595,0,0,0,0,0,0,0,-1,1182,330,-0.346298,0.709581
-35,694,-0.459106,-1.24713,0,0,0,0,0,0,0,-1,1189,330,-0.459142,1.24714
-28,694,-6.48413,-3.95972,0,0,0,0,0,0,0,-1,1196,330,-6.48414,3.9597
-21,694,2.89746,-12.2672,0,0,0,0,0,0,0,-1,1203,330,2.89749,12.2672
-14,694,2.79358,-12.1145,0,0,0,0,0,0,0,-1,1210,330,2.79354,12.1145
-7,694,2.36414,-12.0335,0,0,0,0,0,0,0,-1,1217,330,2.36411,12.0335
0,694,-2.03137,-15.187,0,0,0,0,0,0,0,-1,1224,330,-2.03143,15.187
7,694,-1.3186,-15.063,0.0781084,-0.00590723,-0.0362472,0.0915849,-0.0193838,-0.355958,0.068439,0.0491235,1231,330,-1.31861,15.063
14,694,-0.533203,-14.9954,0.0784388,0.00422211,-0.033063,0.0910315,-0.00837057,-0.363906,0.0636615,0.0478852,1238,330,-0.533149,14.9954
21,694,0.248047,-14.9171,0.0784113,0.0140832,-0.0309904,0.0909119,0.0015826,-0.383408,0.0600874,0.0469934,1245,330,0.248071,14.9171
28,694,0.851685,-14.705,0.0762385,0.0216137,-0.0279836,0.0880291,0.00982304,-0.398768,0.0557012,0.0468697,1252,330,0.851691,14.705
35,694,1.35657,-14.3864,0.0728091,0.0261454,-0.0258054,0.0842666,0.0146879,-0.417848,0.0519781,0.0441971,1259,330,1.35655,14.3863
42,694,1.94543,-14.1124,0.0707591,0.0272794,-0.024695,0.08192,0.0161184,-0.424476,0.0501122,0.0457736,1266,330,1.94549,14.1124
49,694,2.47168,-13.7043,0.0684553,0.026516,-0.0262117,0.0810531,0.0139181,-0.448024,0.0500454,0.0471368,1273,330,2.47171,13.7043
56,694,3.10107,-12.5653,0,0,0,0,0,0,0,-1,1280,330,3.10103,12.5653
63,694,2.55432,-12.6832,0.0549379,0.0149047,-0.0272348,0.0687207,0.00112191,-0.468493,0.0454444,0.0449164,1287,330,2.55427,12.6832
70,694,3.85559,-12.1969,0.046199,0.00521775,-0.0276874,0.0601534,-0.00873666,-0.466841,0.0433092,0.0467081,1294,330,3.85558,12.1969
77,694,3.40063,-12.6759,0.0389781,-0.00550456,-0.0285898,0.0529591,-0.0194855,-0.454824,0.0432886,0.0455175,1301,330,3.40068,12.6759
84,694,2.98206,-13.1186,0.0315182,-0.0172736,-0.029063,0.0450672,-0.0308227,-0.436241,0.0440716,0.0426262,1308,330,2.98204,13.1186
91,694,2.49524,-13.5024,0.0232305,-0.0288986,-0.0282342,0.0355916,-0.0412597,-0.412667,0.0444103,0.0421895,1315,330,2.49522,13.5024
98,694,3.8335,-14.8638,0.0146261,-0.0394655,-0.0268176,0.0256678,-0.0505071,-0.39058,0.0447522,0.0479913,1322,330,3.83344,14.8638
105,694,3.26917,-14.8154,0.00736325,-0.0486925,-0.0245602,0.0166015,-0.0579308,-0.359777,0.0451827,0.0463401,1329,330,3.26918,14.8154
112,694,2.73193,-14.6007,0.00151009,-0.0539056,-0.021145,0.00865671,-0.0610522,-0.325929,0.0438727,0.043523,1336,330,2.73195,14.6007
119,694,0.826294,-13.4127,-0.00551465,-0.0583102,-0.0171315,-0.000442896,-0.063382,-0.287827,0.0421078,0.0413061,1343,330,0.82633,13.4127
126,694,1.36853,-13.647,-0.00879591,-0.0607136,-0.0119954,-0.00615841,-0.0633511,-0.216432,0.0403383,0.0422186,1350,330,1.36855,13.647
133,694,1.93701,-13.8732,-0.00865438,-0.0589566,-0.00751655,-0.00755522,-0.0600557,-0.145203,0.0377715,0.0459594,1357,330,1.93696,13.8732
140,694,2.16553,-13.9905,-0.00850781,-0.0558751,-0.00329045,-0.00828032,-0.0561026,-0.0690248,0.0349699,0.0470155,1364,330,2.16549,13.9905
147,694,1.31287,-13.7413,0,0,0,0,0,0,0,-1,1371,330,1.31289,13.7413
154,694,0.974243,-13.9673,0,0,0,0,0,0,0,-1,1378,330,0.974203,13.9673
161,694,3.07007,-10.4028,0,0,0,0,0,0,0,-1,1385,330,3.07004,10.4028
168,694,6.77161,1.01288,0,0,0,0,0,0,0,-1,1392,330,6.77156,-1.01287
175,694,6.72839,0.473175,0,0,0,0,0,0,0,-1,1399,330,6.72838,-0.473182
182,694,8.29028,5.75238,0,0,0,0,0,0,0,-1,1406,330,8.29034,-5.75237
189,694,7.9801,4.46118,0,0,0,0,0,0,0,-1,1413,330,7.9801,-4.46118
196,694,7.39331,3.32632,0,0,0,0,0,0,0,-1,1420,330,7.39329,-3.32633
203,694,7.04492,2.20529,0,0,0,0,0,0,0,-1,1427,330,7.04496,-2.20529
210,694,6.44714,0.646912,0,0,0,0,0,0,0,-1,1434,330,6.44717,-0.646903
217,694,7.12061,-0.644958,0,0,0,0,0,0,0,-1,1441,330,7.12059,0.644961
224,694,6.74011,-1.70544,0,0,0,0,0,0,0,-1,1448,330,6.74013,1.70546
231,694,0,0,0,0,0,0,0,0,0,-1,1455,330,0,0
238,694,0,0,0,0,0,0,0,0,0,-1,1462,330,0,0
245,694,0,0,0,0,0,0,0,0,0,-1,1469,330,0,0
252,694,0,0,0,0,0,0,0,0,0,-1,1476,330,0,0
259,694,0,0,0,0,0,0,0,0,0,-1,1483,330,0,0
266,694,0,0,0,0,0,0,0,0,0,-1,1490,330,0,0
273,694,0,0,0,0,0,0,0,0,0,-1,1497,330,0,0
280,694,0,0,0,0,0,0,0,0,0,-1,1504,330,0,0
287,694,0,0,0,0,0,0,0,0,0,-1,1511,330,0,0
294,694,0,0,0,0,0,0,0,0,0,-1,1518,330,0,0
301,694,0,0,0,0,0,0,0,0,0,-1,1525,330,0,0
308,694,0,0,0,0,0,0,0,0,0,-1,1532,330,0,0
315,694,0,0,0,0,0,0,0,0,0,-1,1539,330,0,0
322,694,0,0,0,0,0,0,0,0,0,-1,1546,330,0,0
329,694,0,0,0,0,0,0,0,0,0,-1,1553,330,0,0
336,694,0,0,0,0,0,0,0,0,0,-1,1560,330,0,0
343,694,0,0,0,0,0,0,0,0,0,-1,1567,330,0,0
350,694,0,0,0,0,0,0,0,0,0,-1,1574,330,0,0
357,694,0,0,0,0,0,0,0,0,0,-1,1581,330,0,0
364,694,0,0,0,0,0,0,0,0,0,-1,1588,330,0,0
371,694,0,0,0,0,0,0,0,0,0,-1,1595,330,0,0
378,694,0,0,0,0,0,0,0,0,0,-1,1602,330,0,0
385,694,0,0,0,0,0,0,0,0,0,-1,1609,330,0,0
392,694,0,0,0,0,0,0,0,0,0,-1,1616,330,0,0
399,694,0,0,0,0,0,0,0,0,0,-1,1623,330,0,0
406,694,0,0,0,0,0,0,0,0,0,-1,1630,330,0,0
413,694,0,0,0,0,0,0,0,0,0,-1,1637,330,0,0
420,694,0,0,0,0,0,0,0,0,0,-1,1644,330,0,0
427,694,0,0,0,0,0,0,0,0,0,-1,1651,330,0,0
434,694,0,0,0,0,0,0,0,0,0,-1,1658,330,0,0
441,694,0,0,0,0,0,0,0,0,0,-1,1665,330,0,0
448,694,0,0,0,0,0,0,0,0,0,-1,1672,330,0,0
455,694,0,0,0,0,0,0,0,0,0,-1,1679,330,0,0
462,694,0,0,0,0,0,0,0,0,0,-1,1686,330,0,0
469,694,0,0,0,0,0,0,0,0,0,-1,1693,330,0,0
476,694,0,0,0,0,0,0,0,0,0,-1,1700,330,0,0
483,694,0,0,0,0,0,0,0,0,0,-1,1707,330,0,0
490,694,0,0,0,0,0,0,0,0,0,-1,1714,330,0,0
497,694,0,0,0,0,0,0,0,0,0,-1,1721,330,0,0
504,694,0,0,0,0,0,0,0,0,0,-1,1728,330,0,0
511,694,0,0,0,0,0,0,0,0,0,-1,1735,330,0,0
518,694,0,0,0,0,0,0,0,0,0,-1,1742,330,0,0
525,694,0,0,0,0,0,0,0,0,0,-1,1749,330,0,0
532,694,0,0,0,0,0,0,0,0,0,-1,1756,330,0,0
539,694,0,0,0,0,0,0,0,0,0,-1,1763,330,0,0
546,694,0,0,0,0,0,0,0,0,0,-1,1770,330,0,0
553,694,0,0,0,0,0,0,0,0,0,-1,1777,330,0,0
560,694,0,0,0,0,0,0,0,0,0,-1,1784,330,0,0
567,694,0,0,0,0,0,0,0,0,0,-1,1791,330,0,0
574,694,0,0,0,0,0,0,0,0,0,-1,1798,330,0,0
581,694,0,0,0,0,0,0,0,0,0,-1,1805,330,0,0
588,694,0,0,0,0,0,0,0,0,0,-1,1812,330,0,0
595,694,0,0,0,0,0,0,0,0,0,-1,1819,330,0,0
602,694,0,0,0,0,0,0,0,0,0,-1,1826,330,0,0
609,694,0,0,0,0,0,0,0,0,0,-1,1833,330,0,0
616,694,0,0,0,0,0,0,0,0,0,-1,1840,330,0,0
623,694,0,0,0,0,0,0,0,0,0,-1,1847,330,0,0
630,694,0,0,0,0,0,0,0,0,0,-1,1854,330,0,0
637,694,0,0,0,0,0,0,0,0,0,-1,1861,330,0,0
644,694,0,0,0,0,0,0,0,0,0,-1,1868,330,0,0
651,694,0,0,0,0,0,0,0,0,0,-1,1875,330,0,0
658,694,0,0,0,0,0,0,0,0,0,-1,1882,330,0,0
665,694,0,0,0,0,0,0,0,0,0,-1,1889,330,0,0
672,694,0,0,0,0,0,0,0,0,0,-1,1896,330,0,0
679,694,0,0,0,0,0,0,0,0,0,-1,1903,330,0,0
686,694,0,0,0,0,0,0,0,0,0,-1,1910,330,0,0
693,694,0,0,0,0,0,0,0,0,0,-1,1917,330,0,0
700,694,0,0,0,0,0,0,0,0,0,-1,1924,330,0,0
707,694,0,0,0,0,0,0,0,0,0,-1,1931,330,0,0
714,694,0,0,0,0,0,0,0,0,0,-1,1938,330,0,0
721,694,0,0,0,0,0,0,0,0,0,-1,1945,330,0,0
728,694,0,0,0,0,0,0,0,0,0,-1,1952,330,0,0
735,694,0,0,0,0,0,0,0,0,0,-1,1959,330,0,0
742,694,0,0,0,0,0,0,0,0,0,-1,1966,330,0,0
749,694,0,0,0,0,0,0,0,0,0,-1,1973,330,0,0
756,694,0,0,0,0,0,0,0,0,0,-1,1980,330,0,0
763,694,0,0,0,0,0,0,0,0,0,-1,1987,330,0,0
770,694,0,0,0,0,0,0,0,0,0,-1,1994,330,0,0
777,694,0,0,0,0,0,0,0,0,0,-1,2001,330,0,0
784,694,0,0,0,0,0,0,0,0,0,-1,2008,330,0,0
791,694,0,0,0,0,0,0,0,0,0,-1,2015,330,0,0
798,694,0,0,0,0,0,0,0,0,0,-1,2022,330,0,0
805,694,0,0,0,0,0,0,0,0,0,-1,2029,330,0,0
812,694,0,0,0,0,0,0,0,0,0,-1,2036,330,0,0
-700,687,0,0,0,0,0,0,0,0,0,-1,524,337,0,0
-693,687,0,0,0,0,0,0,0,0,0,-1,531,337,0,0
-686,687,0,0,0,0,0,0,0,0,0,-1,538,337,0,0
-679,687,0,0,0,0,0,0,0,0,0,-1,545,337,0,0
-672,687,0,0,0,0,0,0,0,0,0,-1,552,337,0,0
-665,687,0,0,0,0,0,0,0,0,0,-1,559,337,0,0
-658,687,0,0,0,0,0,0,0,0,0,-1,566,337,0,0
-651,687,0,0,0,0,0,0,0,0,0,-1,573,337,0,0
-644,687,0,0,0,0,0,0,0,0,0,-1,580,337,0,0
-637,687,0,0,0,0,0,0,0,0,0,-1,587,337,0,0
-630,687,0,0,0,0,0,0,0,0,0,-1,594,337,0,0
-623,687,0,0,0,0,0,0,0,0,0,-1,601,337,0,0
-616,687,0,0,0,0,0,0,0,0,0,-1,608,337,0,0
-609,687,0,0,0,0,0,0,0,0,0,-1,615,337,0,0
-602,687,0,0,0,0,0,0,0,0,0,-1,622,337,0,0
-595,687,0,0,0,0,0,0,0,0,0,-1,629,337,0,0
-588,687,0,0,0,0,0,0,0,0,0,-1,636,337,0,0
-581,687,0,0,0,0,0,0,0,0,0,-1,643,337,0,0
-574,687,0,0,0,0,0,0,0,0,0,-1,650,337,0,0
-567,687,0,0,0,0,0,0,0,0,0,-1,657,337,0,0
-560,687,0,0,0,0,0,0,0,0,0,-1,664,337,0,0
-553,687,0,0,0,0,0,0,0,0,0,-1,671,337,0,0
-546,687,0,0,0,0,0,0,0,0,0,-1,678,337,0,0
-539,687,0,0,0,0,0,0,0,0,0,-1,685,337,0,0
-532,687,0,0,0,0,0,0,0,0,0,-1,692,337,0,0
-525,687,0,0,0,0,0,0,0,0,0,-1,699,337,0,0
-518,687,0,0,0,0,0,0,0,0,0,-1,706,337,0,0
-511,687,0,0,0,0,0,0,0,0,0,-1,713,337,0,0
-504,687,0,0,0,0,0,0,0,0,0,-1,720,337,0,0
-497,687,0,0,0,0,0,0,0,0,0,-1,727,337,0,0
-490,687,0,0,0,0,0,0,0,0,0,-1,734,337,0,0
-483,687,0,0,0,0,0,0,0,0,0,-1,741,337,0,0
-476,687,0,0,0,0,0,0,0,0,0,-1,748,337,0,0
-469,687,0,0,0,0,0,0,0,0,0,-1,755,337,0,0
-462,687,0,0,0,0,0,0,0,0,0,-1,762,337,0,0
-455,687,0,0,0,0,0,0,0,0,0,-1,769,337,0,0
-448,687,0,0,0,0,0,0,0,0,0,-1,776,337,0,0
-441,687,0,0,0,0,0,0,0,0,0,-1,783,337,0,0
-434,687,0,0,0,0,0,0,0,0,0,-1,790,337,0,0
-427,687,0,0,0,0,0,0,0,0,0,-1,797,337,0,0
-420,687,0,0,0,0,0,0,0,0,0,-1,804,337,0,0
-413,687,0,0,0,0,0,0,0,0,0,-1,811,337,0,0
-406,687,0,0,0,0,0,0,0,0,0,-1,818,337,0,0
-399,687,0,0,0,0,0,0,0,0,0,-1,825,337,0,0
-392,687,0,0,0,0,0,0,0,0,0,-1,832,337,0,0
-385,687,0,0,0,0,0,0,0,0,0,-1,839,337,0,0
-378,687,0,0,0,0,0,0,0,0,0,-1,846,337,0,0
-371,687,0,0,0,0,0,0,0,0,0,-1,853,337,0,0
-364,687,0,0,0,0,0,0,0,0,0,-1,860,337,0,0
-357,687,0,0,0,0,0,0,0,0,0,-1,867,337,0,0
-350,687,0,0,0,0,0,0,0,0,0,-1,874,337,0,0
-343,687,0,0,0,0,0,0,0,0,0,-1,881,337,0,0
-336,687,0,0,0,0,0,0,0,0,0,-1,888,337,0,0
-329,687,0,0,0,0,0,0,0,0,0,-1,895,337,0,0
-322,687,0,0,0,0,0,0,0,0,0,-1,902,337,0,0
-315,687,0,0,0,0,0,0,0,0,0,-1,909,337,0,0
-308,687,0,0,0,0,0,0,0,0,0,-1,916,337,0,0
-301,687,0,0,0,0,0,0,0,0,0,-1,923,337,0,0
-294,687,0,0,0,0,0,0,0,0,0,-1,930,337,0,0
-287,687,0,0,0,0,0,0,0,0,0,-1,937,337,0,0
-280,687,0,0,0,0,0,0,0,0,0,-1,944,337,0,0
-273,687,0,0,0,0,0,0,0,0,0,-1,951,337,0,0
-266,687,0,0,0,0,0,0,0,0,0,-1,958,337,0,0
-259,687,0,0,0,0,0,0,0,0,0,-1,965,337,0,0
-252,687,0,0,0,0,0,0,0,0,0,-1,972,337,0,0
-245,687,0,0,0,0,0,0,0,0,0,-1,979,337,0,0
-238,687,0,0,0,0,0,0,0,0,0,-1,986,337,0,0
-231,687,0,0,0,0,0,0,0,0,0,-1,993,337,0,0
-224,687,0,0,0,0,0,0,0,0,0,-1,1000,337,0,0
-217,687,0,0,0,0,0,0,0,0,0,-1,1007,337,0,0
-210,687,0,0,0,0,0,0,0,0,0,-1,1014,337,0,0
-203,687,0,0,0,0,0,0,0,0,0,-1,1021,337,0,0
-196,687,0,0,0,0,0,0,0,0,0,-1,1028,337,0,0
-189,687,0,0,0,0,0,0,0,0,0,-1,1035,337,0,0
-182,687,0,0,0,0,0,0,0,0,0,-1,1042,337,0,0
-175,687,0,0,0,0,0,0,0,0,0,-1,1049,337,0,0
-168,687,0,0,0,0,0,0,0,0,0,-1,1056,337,0,0
-161,687,0,0,0,0,0,0,0,0,0,-1,1063,337,0,0
-154,687,0,0,0,0,0,0,0,0,0,-1,1070,337,0,0
-147,687,0,0,0,0,0,0,0,0,0,-1,1077,337,0,0
-140,687,0,0,0,0,0,0,0,0,0,-1,1084,337,0,0
-133,687,3.94824,-12.1252,0,0,0,0,0,0,0,-1,1091,337,3.94828,12.1252
-126,687,4.90063,-11.4611,0,0,0,0,0,0,0,-1,1098,337,4.90064,11.4611
-119,687,2.34839,-14.2607,0,0,0,0,0,0,0,-1,1105,337,2.3484,14.2607
-112,687,1.21582,-14.5868,0,0,0,0,0,0,0,-1,1112,337,1.21577,14.5868
-105,687,1.47192,-14.1273,0,0,0,0,0,0,0,-1,1119,337,1.47193,14.1273
-98,687,-1.97437,-6.83603,0,0,0,0,0,0,0,-1,1126,337,-1.97434,6.83603
-91,687,2.28162,-7.72437,0,0,0,0,0,0,0,-1,1133,337,2.28167,7.72437
-84,687,-0.867676,-5.7392,0,0,0,0,0,0,0,-1,1140,337,-0.867619,5.73919
-77,687,-3.63806,-12.9185,0,0,0,0,0,0,0,-1,1147,337,-3.6381,12.9185
-70,687,-6.24756,-13.2618,0,0,0,0,0,0,0,-1,1154,337,-6.24752,13.2618
-63,687,-8.37585,-12.8959,0,0,0,0,0,0,0,-1,1161,337,-8.3758,12.8959
-56,687,-10.2228,-7.81,0,0,0,0,0,0,0,-1,1168,337,-10.2228,7.80999
-49,687,-7.44934,-0.550262,0,0,0,0,0,0,0,-1,1175,337,-7.44938,0.550261
-42,687,-4.2019,-0.405609,0,0,0,0,0,0,0,-1,1182,337,-4.20192,0.405614
-35,687,-4.42273,-0.688171,0,0,0,0,0,0,0,-1,1189,337,-4.42276,0.688178
-28,687,-1.14038,-1.39072,0,0,0,0,0,0,0,-1,1196,337,-1.14035,1.3907
-21,687,2.61841,-12.5591,0,0,0,0,0,0,0,-1,1203,337,2.61836,12.5591
-14,687,2.40601,-13.0305,0,0,0,0,0,0,0,-1,1210,337,2.40597,13.0305
-7,687,2.32568,-12.2582,0,0,0,0,0,0,0,-1,1217,337,2.32574,12.2582
0,687,2.77185,-13.0214,0,0,0,0,0,0,0,-1,1224,337,2.77182,13.0214
7,687,0.220825,-15.0232,0.0585701,-0.00251186,-0.0281368,0.0695554,-0.0134971,-0.372224,0.0514627,0.0483748,1231,337,0.220805,15.0232
14,687,0.961548,-14.8017,0.0594388,0.00452934,-0.0256496,0.0695562,-0.00558806,-0.37571,0.0483413,0.044851,1238,337,0.961569,14.8017
21,687,2.44971,-13.5034,0,0,0,0,0,0,0,-1,1245,337,2.44971,13.5034
28,687,2.28882,-13.2028,0,0,0,0,0,0,0,-1,1252,337,2.2888,13.2028
35,687,2.23999,-14.6116,0,0,0,0,0,0,0,-1,1259,337,2.23993,14.6116
42,687,2.59741,-13.1844,0,0,0,0,0,0,0,-1,1266,337,2.59747,13.1844
49,687,2.1814,-12.9886,0,0,0,0,0,0,0,-1,1273,337,2.18141,12.9887
56,687,3.04504,-13.0944,0.0474693,0.016301,-0.0192972,0.0566893,0.00708096,-0.445722,0.0356676,0.0463712,1280,337,3.04505,13.0944
63,687,2.72864,-12.8978,0.0407581,0.0114115,-0.0190995,0.05017,0.00199968,-0.457856,0.0328004,0.0429796,1287,337,2.72864,12.8978
70,687,2.58105,-12.5571,0.0339086,0.00372918,-0.0193929,0.0433909,-0.0057531,-0.454774,0.0310233,0.0401481,1294,337,2.58106,12.5571
77,687,2.34778,-12.7464,0.0283905,-0.00475166,-0.0202053,0.0379509,-0.0143121,-0.44195,0.0311859,0.0439615,1301,337,2.34772,12.7464
84,687,2.37549,-12.4479,0,0,0,0,0,0,0,-1,1308,337,2.3755,12.448
91,687,2.45068,-12.9827,0.0163067,-0.0233723,-0.0203808,0.0249098,-0.0319754,-0.399428,0.032927,0.0418665,1315,337,2.45068,12.9827
98,687,4.56958,-13.5793,0.0096864,-0.0317731,-0.0196529,0.0175216,-0.0396083,-0.379369,0.0337957,0.0465496,1322,337,4.56956,13.5793
105,687,3.74316,-13.8659,0.00407529,-0.0390979,-0.0182697,0.0107688,-0.0457914,-0.351184,0.0346791,0.0444746,1329,337,3.74315,13.8659
112,687,2.96924,-13.6568,-0.000427113,-0.0433422,-0.016151,0.00497203,-0.0487414,-0.322612,0.034272,0.0441496,1336,337,2.96927,13.6568
119,687,2.3291,-13.5616,-0.00596535,-0.0469827,-0.013479,-0.00193242,-0.0510156,-0.290723,0.0333849,0.0423524,1343,337,2.32911,13.5616
126,687,2.13708,-13.481,-0.00858565,-0.0490561,-0.010055,-0.00622514,-0.0514166,-0.230584,0.0324026,0.0427576,1350,337,2.13713,13.481
133,687,2.26294,-13.4528,-0.00851791,-0.0481112,-0.00696708,-0.00732772,-0.0493014,-0.169198,0.0307177,0.0461444,1357,337,2.26291,13.4528
140,687,2.01733,-13.319,-0.00837498,-0.0461342,-0.00401625,-0.00795252,-0.0465566,-0.104802,0.0287558,0.0490636,1364,337,2.01729,13.319
147,687,1.60718,-13.2784,-0.00712199,-0.0436072,-0.00164159,-0.00704827,-0.0436809,-0.0448724,0.0270787,0.0490299,1371,337,1.6072,13.2784
154,687,1.20996,-13.2471,0,0,0,0,0,0,0,-1,1378,337,1.21002,13.2471
161,687,2.62097,-10.8349,0,0,0,0,0,0,0,-1,1385,337,2.62097,10.8349
168,687,6.66968,1.37039,0,0,0,0,0,0,0,-1,1392,337,6.6697,-1.37039
175,687,6.64075,0.771606,0,0,0,0,0,0,0,-1,1399,337,6.64073,-0.771595
182,687,6.67249,0.289917,0,0,0,0,0,0,0,-1,1406,337,6.67247,-0.289916
189,687,7.76062,4.53635,0,0,0,0,0,0,0,-1,1413,337,7.76064,-4.53636
196,687,6.99048,3.2966,0,0,0,0,0,0,0,-1,1420,337,6.99046,-3.2966
203,687,6.36499,2.1445,0,0,0,0,0,0,0,-1,1427,337,6.36499,-2.14451
210,687,6.68066,0.674652,0,0,0,0,0,0,0,-1,1434,337,6.68062,-0.674655
217,687,5.99683,-0.630493,0,0,0,0,0,0,0,-1,1441,337,5.99684,0.630497
224,687,5.52917,0.524902,0,0,0,0,0,0,0,-1,1448,337,5.5292,-0.524915
231,687,5.85583,-1.73651,0,0,0,0,0,0,0,-1,1455,337,5.85577,1.73651
238,687,5.96582,-2.96774,0,0,0,0,0,0,0,-1,1462,337,5.96577,2.96773
245,687,1.28259,2.32211,0,0,0,0,0,0,0,-1,1469,337,1.28258,-2.32211
252,687,1.97278,3.88422,0,0,0,0,0,0,0,-1,1476,337,1.97281,-3.88421
259,687,0,0,0,0,0,0,0,0,0,-1,1483,337,0,0
266,687,0,0,0,0,0,0,0,0,0,-1,1490,337,0,0
273,687,0,0,0,0,0,0,0,0,0,-1,1497,337,0,0
280,687,0,0,0,0,0,0,0,0,0,-1,1504,337,0,0
287,687,0,0,0,0,0,0,0,0,0,-1,1511,337,0,0
294,687,0,0,0,0,0,0,0,0,0,-1,1518,337,0,0
301,687,0,0,0,0,0,0,0,0,0,-1,1525,337,0,0
308,687,0,0,0,0,0,0,0,0,0,-1,1532,337,0,0
315,687,0,0,0,0,0,0,0,0,0,-1,1539,337,0,0
322,687,0,0,0,0,0,0,0,0,0,-1,1546,337,0,0
329,687,0,0,0,0,0,0,0,0,0,-1,1553,337,0,0
336,687,0,0,0,0,0,0,0,0,0,-1,1560,337,0,0
343,687,0,0,0,0,0,0,0,0,0,-1,1567,337,0,0
350,687,0,0,0,0,0,0,0,0,0,-1,1574,337,0,0
357,687,0,0,0,0,0,0,0,0,0,-1,1581,337,0,0
364,687,0,0,0,0,0,0,0,0,0,-1,1588,337,0,0
371,687,0,0,0,0,0,0,0,0,0,-1,1595,337,0,0
378,687,0,0,0,0,0,0,0,0,0,-1,1602,337,0,0
385,687,0,0,0,0,0,0,0,0,0,-1,1609,337,0,0
392,687,0,0,0,0,0,0,0,0,0,-1,1616,337,0,0
399,687,0,0,0,0,0,0,0,0,0,-1,1623,337,0,0
406,687,0,0,0,0,0,0,0,0,0,-1,1630,337,0,0
413,687,0,0,0,0,0,0,0,0,0,-1,1637,337,0,0
420,687,0,0,0,0,0,0,0,0,0,-1,1644,337,0,0
427,687,0,0,0,0,0,0,0,0,0,-1,1651,337,0,0
434,687,0,0,0,0,0,0,0,0,0,-1,1658,337,0,0
441,687,0,0,0,0,0,0,0,0,0,-1,1665,337,0,0
448,687,0,0,0,0,0,0,0,0,0,-1,1672,337,0,0
455,687,0,0,0,0,0,0,0,0,0,-1,1679,337,0,0
462,687,0,0,0,0,0,0,0,0,0,-1,1686,337,0,0
469,687,0,0,0,0,0,0,0,0,0,-1,1693,337,0,0
476,687,0,0,0,0,0,0,0,0,0,-1,1700,337,0,0
483,687,0,0,0,0,0,0,0,0,0,-1,1707,337,0,0
490,687,0,0,0,0,0,0,0,0,0,-1,1714,337,0,0
497,687,0,0,0,0,0,0,0,0,0,-1,1721,337,0,0
504,687,0,0,0,0,0,0,0,0,0,-1,1728,337,0,0
511,687,0,0,0,0,0,0,0,0,0,-1,1735,337,0,0
518,687,0,0,0,0,0,0,0,0,0,-1,1742,337,0,0
525,687,0,0,0,0,0,0,0,0,0,-1,1749,337,0,0
532,687,0,0,0,0,0,0,0,0,0,-1,1756,337,0,0
539,687,0,0,0,0,0,0,0,0,0,-1,1763,337,0,0
546,687,0,0,0,0,0,0,0,0,0,-1,1770,337,0,0
553,687,0,0,0,0,0,0,0,0,0,-1,1777,337,0,0
560,687,0,0,0,0,0,0,0,0,0,-1,1784,337,0,0
567,687,0,0,0,0,0,0,0,0,0,-1,1791,337,0,0
574,687,0,0,0,0,0,0,0,0,0,-1,1798,337,0,0
581,687,0,0,0,0,0,0,0,0,0,-1,1805,337,0,0
588,687,0,0,0,0,0,0,0,0,0,-1,1812,337,0,0
595,687,0,0,0,0,0,0,0,0,0,-1,1819,337,0,0
602,687,0,0,0,0,0,0,0,0,0,-1,1826,337,0,0
609,687,0,0,0,0,0,0,0,0,0,-1,1833,337,0,0
616,687,0,0,0,0,0,0,0,0,0,-1,1840,337,0,0
623,687,0,0,0,0,0,0,0,0,0,-1,1847,337,0,0
630,687,0,0,0,0,0,0,0,0,0,-1,1854,337,0,0
637,687,0,0,0,0,0,0,0,0,0,-1,1861,337,0,0
644,687,0,0,0,0,0,0,0,0,0,-1,1868,337,0,0
651,687,0,0,0,0,0,0,0,0,0,-1,1875,337,0,0
658,687,0,0,0,0,0,0,0,0,0,-1,1882,337,0,0
665,687,0,0,0,0,0,0,0,0,0,-1,1889,337,0,0
672,687,0,0,0,0,0,0,0,0,0,-1,1896,337,0,0
679,687,0,0,0,0,0,0,0,0,0,-1,1903,337,0,0
686,687,0,0,0,0,0,0,0,0,0,-1,1910,337,0,0
693,687,0,0,0,0,0,0,0,0,0,-1,1917,337,0,0
700,687,0,0,0,0,0,0,0,0,0,-1,1924,337,0,0
707,687,0,0,0,0,0,0,0,0,0,-1,1931,337,0,0
714,687,0,0,0,0,0,0,0,0,0,-1,1938,337,0,0
721,687,0,0,0,0,0,0,0,0,0,-1,1945,337,0,0
728,687,0,0,0,0,0,0,0,0,0,-1,1952,337,0,0
735,687,0,0,0,0,0,0,0,0,0,-1,1959,337,0,0
742,687,0,0,0,0,0,0,0,0,0,-1,1966,337,0,0
749,687,0,0,0,0,0,0,0,0,0,-1,1973,337,0,0
756,687,0,0,0,0,0,0,0,0,0,-1,1980,337,0,0
763,687,0,0,0,0,0,0,0,0,0,-1,1987,337,0,0
770,687,0,0,0,0,0,0,0,0,0,-1,1994,337,0,0
777,687,0,0,0,0,0,0,0,0,0,-1,2001,337,0,0
784,687,0,0,0,0,0,0,0,0,0,-1,2008,337,0,0
791,687,0,0,0,0,0,0,0,0,0,-1,2015,337,0,0
798,687,0,0,0,0,0,0,0,0,0,-1,2022,337,0,0
805,687,0,0,0,0,0,0,0,0,0,-1,2029,337,0,0
812,687,0,0,0,0,0,0,0,0,0,-1,2036,337,0,0
-700,680,0,0,0,0,0,0,0,0,0,-1,524,344,0,0
-693,680,0,0,0,0,0,0,0,0,0,-1,531,344,0,0
-686,680,0,0,0,0,0,0,0,0,0,-1,538,344,0,0
-679,680,0,0,0,0,0,0,0,0,0,-1,545,344,0,0
-672,680,0,0,0,0,0,0,0,0,0,-1,552,344,0,0
-665,680,0,0,0,0,0,0,0,0,0,-1,559,344,0,0
-658,680,0,0,0,0,0,0,0,0,0,-1,566,344,0,0
-651,680,0,0,0,0,0,0,0,0,0,-1,573,344,0,0
-644,680,0,0,0,0,0,0,0,0,0,-1,580,344,0,0
-637,680,0,0,0,0,0,0,0,0,0,-1,587,344,0,0
-630,680,0,0,0,0,0,0,0,0,0,-1,594,344,0,0
-623,680,0,0,0,0,0,0,0,0,0,-1,601,344,0,0
-616,680,0,0,0,0,0,0,0,0,0,-1,608,344,0,0
-609,680,0,0,0,0,0,0,0,0,0,-1,615,344,0,0
-602,680,0,0,0,0,0,0,0,0,0,-1,622,344,0,0
-595,680,0,0,0,0,0,0,0,0,0,-1,629,344,0,0
-588,680,0,0,0,0,0,0,0,0,0,-1,636,344,0,0
-581,680,0,0,0,0,0,0,0,0,0,-1,643,344,0,0
-574,680,0,0,0,0,0,0,0,0,0,-1,650,344,0,0
-567,680,0,0,0,0,0,0,0,0,0,-1,657,344,0,0
-560,680,0,0,0,0,0,0,0,0,0,-1,664,344,0,0
-553,680,0,0,0,0,0,0,0,0,0,-1,671,344,0,0
-546,680,0,0,0,0,0,0,0,0,0,-1,678,344,0,0
-539,680,0,0,0,0,0,0,0,0,0,-1,685,344,0,0
-532,680,0,0,0,0,0,0,0,0,0,-1,692,344,0,0
-525,680,0,0,0,0,0,0,0,0,0,-1,699,344,0,0
-518,680,0,0,0,0,0,0,0,0,0,-1,706,344,0,0
-511,680,0,0,0,0,0,0,0,0,0,-1,713,344,0,0
-504,680,0,0,0,0,0,0,0,0,0,-1,720,344,0,0
-497,680,0,0,0,0,0,0,0,0,0,-1,727,344,0,0
-490,680,0,0,0,0,0,0,0,0,0,-1,734,344,0,0
-483,680,0,0,0,0,0,0,0,0,0,-1,741,344,0,0
-476,680,0,0,0,0,0,0,0,0,0,-1,748,344,0,0
-469,680,0,0,0,0,0,0,0,0,0,-1,755,344,0,0
-462,680,0,0,0,0,0,0,0,0,0,-1,762,344,0,0
-455,680,0,0,0,0,0,0,0,0,0,-1,769,344,0,0
-448,680,0,0,0,0,0,0,0,0,0,-1,776,344,0,0
-441,680,0,0,0,0,0,0,0,0,0,-1,783,344,0,0
-434,680,0,0,0,0,0,0,0,0,0,-1,790,344,0,0
-427,680,0,0,0,0,0,0,0,0,0,-1,797,344,0,0
-420,680,0,0,0,0,0,0,0,0,0,-1,804,344,0,0
-413,680,0,0,0,0,0,0,0,0,0,-1,811,344,0,0
-406,680,0,0,0,0,0,0,0,0,0,-1,818,344,0,0
-399,680,0,0,0,0,0,0,0,0,0,-1,825,344,0,0
-392,680,0,0,0,0,0,0,0,0,0,-1,832,344,0,0
-385,680,0,0,0,0,0,0,0,0,0,-1,839,344,0,0
-378,680,0,0,0,0,0,0,0,0,0,-1,846,344,0,0
-371,680,0,0,0,0,0,0,0,0,0,-1,853,344,0,0
-364,680,0,0,0,0,0,0,0,0,0,-1,860,344,0,0
-357,680,0,0,0,0,0,0,0,0,0,-1,867,344,0,0
-350,680,0,0,0,0,0,0,0,0,0,-1,874,344,0,0
-343,680,0,0,0,0,0,0,0,0,0,-1,881,344,0,0
-336,680,0,0,0,0,0,0,0,0,0,-1,888,344,0,0
-329,680,0,0,0,0,0,0,0,0,0,-1,895,344,0,0
-322,680,0,0,0,0,0,0,0,0,0,-1,902,344,0,0
-315,680,0,0,0,0,0,0,0,0,0,-1,909,344,0,0
-308,680,0,0,0,0,0,0,0,0,0,-1,916,344,0,0
-301,680,0,0,0,0,0,0,0,0,0,-1,923,344,0,0
-294,680,0,0,0,0,0,0,0,0,0,-1,930,344,0,0
-287,680,0,0,0,0,0,0,0,0,0,-1,937,344,0,0
-280,680,0,0,0,0,0,0,0,0,0,-1,944,344,0,0
-273,680,0,0,0,0,0,0,0,0,0,-1,951,344,0,0
-266,680,0,0,0,0,0,0,0,0,0,-1,958,344,0,0
-259,680,0,0,0,0,0,0,0,0,0,-1,965,344,0,0
-252,680,0,0,0,0,0,0,0,0,0,-1,972,344,0,0
-245,680,0,0,0,0,0,0,0,0,0,-1,979,344,0,0
-238,680,0,0,0,0,0,0,0,0,0,-1,986,344,0,0
-231,680,0,0,0,0,0,0,0,0,0,-1,993,344,0,0
-224,680,0,0,0,0,0,0,0,0,0,-1,1000,344,0,0
-217,680,0,0,0,0,0,0,0,0,0,-1,1007,344,0,0
-210,680,0,0,0,0,0,0,0,0,0,-1,1014,344,0,0
-203,680,0,0,0,0,0,0,0,0,0,-1,1021,344,0,0
-196,680,0,0,0,0,0,0,0,0,0,-1,1028,344,0,0
-189,680,0,0,0,0,0,0,0,0,0,-1,1035,344,0,0
-182,680,0,0,0,0,0,0,0,0,0,-1,1042,344,0,0
-175,680,0,0,0,0,0,0,0,0,0,-1,1049,344,0,0
-168,680,0,0,0,0,0,0,0,0,0,-1,1056,344,0,0
-161,680,0,0,0,0,0,0,0,0,0,-1,1063,344,0,0
-154,680,-1.22534,-3.19229,0,0,0,0,0,0,0,-1,1070,344,-1.22529,3.1923
-147,680,2.04395,-13.3857,0,0,0,0,0,0,0,-1,1077,344,2.04397,13.3857
-140,680,3.19995,-12.629,0.0728833,-0.0800577,0.0152634,0.0743917,-0.0815661,0.0985046,0.0900741,0.0446164,1084,344,3.19997,12.629
-133,680,4.31287,-11.7563,0.0558269,-0.0739318,0.0140762,0.0573363,-0.0754412,0.106824,0.0768963,0.0406857,1091,344,4.31291,11.7563
-126,680,5.39258,-10.8755,0,0,0,0,0,0,0,-1,1098,344,5.39259,10.8755
-119,680,2.48462,-13.358,0.0284652,-0.059595,0.0119389,0.0300552,-0.0611849,0.132394,0.0536898,0.0432105,1105,344,2.48459,13.358
-112,680,2.30261,-12.9518,0,0,0,0,0,0,0,-1,1112,344,2.30261,12.9518
-105,680,2.38525,-12.5328,0,0,0,0,0,0,0,-1,1119,344,2.38531,12.5328
-98,680,2.47461,-12.014,0,0,0,0,0,0,0,-1,1126,344,2.47463,12.014
-91,680,3.16113,-11.2738,0,0,0,0,0,0,0,-1,1133,344,3.16116,11.2738
-84,680,1.92285,-8.71033,0,0,0,0,0,0,0,-1,1140,344,1.92286,8.71034
-77,680,-0.118652,-5.75586,0,0,0,0,0,0,0,-1,1147,344,-0.118628,5.75586
-70,680,-4.04382,-16.124,0,0,0,0,0,0,0,-1,1154,344,-4.04388,16.124
-63,680,-5.41333,-13.0013,0,0,0,0,0,0,0,-1,1161,344,-5.41332,13.0013
-56,680,-6.96912,-8.83356,0,0,0,0,0,0,0,-1,1168,344,-6.96907,8.83354
-49,680,-6.7677,-2.24063,0,0,0,0,0,0,0,-1,1175,344,-6.76772,2.24063
-42,680,-1.02368,0.618805,0,0,0,0,0,0,0,-1,1182,344,-1.0237,-0.618797
-35,680,-0.947876,-0.942719,0,0,0,0,0,0,0,-1,1189,344,-0.947842,0.942731
-28,680,-1.46118,-1.10574,0,0,0,0,0,0,0,-1,1196,344,-1.4612,1.10575
-21,680,2.62891,-12.8831,0,0,0,0,0,0,0,-1,1203,344,2.62887,12.8831
-14,680,2.49402,-13.063,0,0,0,0,0,0,0,-1,1210,344,2.49406,13.063
-7,680,2.77905,-13.0334,0,0,0,0,0,0,0,-1,1217,344,2.77908,13.0334
0,680,2.77454,-13.0538,0,0,0,0,0,0,0,-1,1224,344,2.7745,13.0538
7,680,2.62891,-13.0561,0,0,0,0,0,0,0,-1,1231,344,2.62887,13.0561
14,680,2.78125,-13.2113,0,0,0,0,0,0,0,-1,1238,344,2.78123,13.2113
21,680,2.5874,-13.4207,0.0434031,0.00926408,-0.0175438,0.0508112,0.00185597,-0.39955,0.0332728,0.0435447,1245,344,2.58745,13.4207
28,680,2.4668,-13.231,0.0416199,0.0130678,-0.0154799,0.0484017,0.00628594,-0.412917,0.03039,0.0420816,1252,344,2.46676,13.231
35,680,2.39343,-13.3067,0,0,0,0,0,0,0,-1,1259,344,2.39346,13.3067
42,680,2.63721,-13.216,0.0385968,0.0162281,-0.0127663,0.044385,0.0104399,-0.425675,0.0267968,0.0488229,1266,344,2.63717,13.216
49,680,2.34595,-13.1116,0.0374604,0.0157864,-0.013222,0.043719,0.00952774,-0.442103,0.0265463,0.0436848,1273,344,2.3459,13.1116
56,680,2.5647,-13.1972,0.0344759,0.0125772,-0.0133566,0.0407976,0.00625556,-0.442059,0.0253716,0.0394419,1280,344,2.56472,13.1972
63,680,2.63879,-13.0819,0.0292907,0.00882693,-0.0129865,0.0355918,0.00252582,-0.451742,0.0229323,0.0376412,1287,344,2.63874,13.0819
70,680,2.63477,-12.8296,0.0240996,0.00292731,-0.0131817,0.0304198,-0.0033929,-0.447087,0.0215002,0.0356298,1294,344,2.63476,12.8296
77,680,2.4325,-12.9672,0.02002,-0.00357725,-0.0138829,0.0264407,-0.0099979,-0.433189,0.0217401,0.0417499,1301,344,2.43244,12.9672
84,680,2.29028,-12.7699,0.0157837,-0.0108457,-0.0144149,0.0220922,-0.0171542,-0.412526,0.0227186,0.0444253,1308,344,2.29031,12.7699
91,680,2.49524,-12.8014,0.0110102,-0.0180267,-0.0143312,0.016892,-0.0239085,-0.389455,0.023672,0.0449926,1315,344,2.49518,12.8014
98,680,2.63574,-12.5127,0,0,0,0,0,0,0,-1,1322,344,2.63572,12.5127
105,680,2.96265,-13.3006,0,0,0,0,0,0,0,-1,1329,344,2.9626,13.3006
112,680,3.45459,-12.8109,-0.00156234,-0.0336854,-0.0119863,0.00241717,-0.0376649,-0.320555,0.0259532,0.0453602,1336,344,3.45463,12.8109
119,680,2.62378,-12.7661,-0.00581332,-0.0366609,-0.0102734,-0.00270507,-0.0397691,-0.293797,0.0256586,0.0435197,1343,344,2.62372,12.7661
126,680,2.47229,-12.9389,-0.00785828,-0.0384547,-0.00806352,-0.00586327,-0.0404497,-0.242542,0.0252401,0.0438016,1350,344,2.47234,12.9389
133,680,2.30261,-13.1607,-0.00783301,-0.0380673,-0.00599919,-0.00668613,-0.0392142,-0.188893,0.0242236,0.0457708,1357,344,2.30262,13.1607
140,680,2.26196,-12.999,-0.00771208,-0.0368572,-0.00398374,-0.00717737,-0.0373919,-0.133426,0.0229133,0.0476557,1364,344,2.262,12.999
147,680,2.07959,-12.8709,-0.00732168,-0.0352399,-0.0023295,-0.00712864,-0.0354329,-0.0826784,0.0216407,0.0485032,1371,344,2.0796,12.8709
154,680,2.10706,-12.7699,0,0,0,0,0,0,0,-1,1378,344,2.10711,12.7699
161,680,2.34851,-12.1949,0,0,0,0,0,0,0,-1,1385,344,2.34846,12.1949
168,680,6.85046,1.69257,0,0,0,0,0,0,0,-1,1392,344,6.85045,-1.69257
175,680,6.66541,0.942078,0,0,0,0,0,0,0,-1,1399,344,6.66538,-0.942088
182,680,6.52917,0.532379,0,0,0,0,0,0,0,-1,1406,344,6.52922,-0.532385
189,680,7.55884,4.77695,0,0,0,0,0,0,0,-1,1413,344,7.55886,-4.77694
196,680,6.55627,3.35254,0,0,0,0,0,0,0,-1,1420,344,6.55622,-3.35255
203,680,5.7334,1.90753,0,0,0,0,0,0,0,-1,1427,344,5.73341,-1.90754
210,680,5.27515,0.493622,0,0,0,0,0,0,0,-1,1434,344,5.27514,-0.493632
217,680,3.96936,1.3656,0,0,0,0,0,0,0,-1,1441,344,3.96942,-1.36559
224,680,3.9491,-0.640228,0,0,0,0,0,0,0,-1,1448,344,3.94908,0.64024
231,680,4.24866,-1.96881,0,0,0,0,0,0,0,-1,1455,344,4.2486,1.96882
238,680,4.29333,-3.23984,0,0,0,0,0,0,0,-1,1462,344,4.29332,3.23984
245,680,2.44397,0.985382,0,0,0,0,0,0,0,-1,1469,344,2.44402,-0.985394
252,680,3.07349,2.18951,0,0,0,0,0,0,0,-1,1476,344,3.0735,-2.18952
259,680,2.82971,1.30682,0,0,0,0,0,0,0,-1,1483,344,2.82972,-1.30684
266,680,2.67554,1.44067,0,0,0,0,0,0,0,-1,1490,344,2.67551,-1.44066
273,680,2.46411,1.54666,0,0,0,0,0,0,0,-1,1497,344,2.46407,-1.54666
280,680,0,0,0,0,0,0,0,0,0,-1,1504,344,0,0
287,680,0,0,0,0,0,0,0,0,0,-1,1511,344,0,0
294,680,0,0,0,0,0,0,0,0,0,-1,1518,344,0,0
301,680,0,0,0,0,0,0,0,0,0,-1,1525,344,0,0
308,680,0,0,0,0,0,0,0,0,0,-1,1532,344,0,0
315,680,0,0,0,0,0,0,0,0,0,-1,1539,344,0,0
322,680,0,0,0,0,0,0,0,0,0,-1,1546,344,0,0
329,680,0,0,0,0,0,0,0,0,0,-1,1553,344,0,0
336,680,0,0,0,0,0,0,0,0,0,-1,1560,344,0,0
343,680,0,0,0,0,0,0,0,0,0,-1,1567,344,0,0
350,680,0,0,0,0,0,0,0,0,0,-1,1574,344,0,0
357,680,0,0,0,0,0,0,0,0,0,-1,1581,344,0,0
364,680,0,0,0,0,0,0,0,0,0,-1,1588,344,0,0
371,680,0,0,0,0,0,0,0,0,0,-1,1595,344,0,0
378,680,0,0,0,0,0,0,0,0,0,-1,1602,344,0,0
385,680,0,0,0,0,0,0,0,0,0,-1,1609,344,0,0
392,680,0,0,0,0,0,0,0,0,0,-1,1616,344,0,0
399,680,0,0,0,0,0,0,0,0,0,-1,1623,344,0,0
406,680,0,0,0,0,0,0,0,0,0,-1,1630,344,0,0
413,680,0,0,0,0,0,0,0,0,0,-1,1637,344,0,0
420,680,0,0,0,0,0,0,0,0,0,-1,1644,344,0,0
427,680,0,0,0,0,0,0,0,0,0,-1,1651,344,0,0
434,680,0,0,0,0,0,0,0,0,0,-1,1658,344,0,0
441,680,0,0,0,0,0,0,0,0,0,-1,1665,344,0,0
448,680,0,0,0,0,0,0,0,0,0,-1,1672,344,0,0
455,680,0,0,0,0,0,0,0,0,0,-1,1679,344,0,0
462,680,0,0,0,0,0,0,0,0,0,-1,1686,344,0,0
469,680,0,0,0,0,0,0,0,0,0,-1,1693,344,0,0
476,680,0,0,0,0,0,0,0,0,0,-1,1700,344,0,0
483,680,0,0,0,0,0,0,0,0,0,-1,1707,344,0,0
490,680,0,0,0,0,0,0,0,0,0,-1,1714,344,0,0
497,680,0,0,0,0,0,0,0,0,0,-1,1721,344,0,0
504,680,0,0,0,0,0,0,0,0,0,-1,1728,344,0,0
511,680,0,0,0,0,0,0,0,0,0,-1,1735,344,0,0
518,680,0,0,0,0,0,0,0,0,0,-1,1742,344,0,0
525,680,0,0,0,0,0,0,0,0,0,-1,1749,344,0,0
532,680,0,0,0,0,0,0,0,0,0,-1,1756,344,0,0
539,680,0,0,0,0,0,0,0,0,0,-1,1763,344,0,0
546,680,0,0,0,0,0,0,0,0,0,-1,1770,344,0,0
553,680,0,0,0,0,0,0,0,0,0,-1,1777,344,0,0
560,680,0,0,0,0,0,0,0,0,0,-1,1784,344,0,0
567,680,0,0,0,0,0,0,0,0,0,-1,1791,344,0,0
574,680,0,0,0,0,0,0,0,0,0,-1,1798,344,0,0
581,680,0,0,0,0,0,0,0,0,0,-1,1805,344,0,0
588,680,0,0,0,0,0,0,0,0,0,-1,1812,344,0,0
595,680,0,0,0,0,0,0,0,0,0,-1,1819,344,0,0
602,680,0,0,0,0,0,0,0,0,0,-1,1826,344,0,0
609,680,0,0,0,0,0,0,0,0,0,-1,1833,344,0,0
616,680,0,0,0,0,0,0,0,0,0,-1,1840,344,0,0
623,680,0,0,0,0,0,0,0,0,0,-1,1847,344,0,0
630,680,0,0,0,0,0,0,0,0,0,-1,1854,344,0,0
637,680,0,0,0,0,0,0,0,0,0,-1,1861,344,0,0
644,680,0,0,0,0,0,0,0,0,0,-1,1868,344,0,0
651,680,0,0,0,0,0,0,0,0,0,-1,1875,344,0,0
658,680,0,0,0,0,0,0,0,0,0,-1,1882,344,0,0
665,680,0,0,0,0,0,0,0,0,0,-1,1889,344,0,0
672,680,0,0,0,0,0,0,0,0,0,-1,1896,344,0,0
679,680,0,0,0,0,0,0,0,0,0,-1,1903,344,0,0
686,680,0,0,0,0,0,0,0,0,0,-1,1910,344,0,0
693,680,0,0,0,0,0,0,0,0,0,-1,1917,344,0,0
700,680,0,0,0,0,0,0,0,0,0,-1,1924,344,0,0
707,680,0,0,0,0,0,0,0,0,0,-1,1931,344,0,0
714,680,0,0,0,0,0,0,0,0,0,-1,1938,344,0,0
721,680,0,0,0,0,0,0,0,0,0,-1,1945,344,0,0
728,680,0,0,0,0,0,0,0,0,0,-1,1952,344,0,0
735,680,0,0,0,0,0,0,0,0,0,-1,1959,344,0,0
742,680,0,0,0,0,0,0,0,0,0,-1,1966,344,0,0
749,680,0,0,0,0,0,0,0,0,0,-1,1973,344,0,0
756,680,0,0,0,0,0,0,0,0,0,-1,1980,344,0,0
763,680,0,0,0,0,0,0,0,0,0,-1,1987,344,0,0
770,680,0,0,0,0,0,0,0,0,0,-1,1994,344,0,0
777,680,0,0,0,0,0,0,0,0,0,-1,2001,344,0,0
784,680,0,0,0,0,0,0,0,0,0,-1,2008,344,0,0
791,680,0,0,0,0,0,0,0,0,0,-1,2015,344,0,0
798,680,0,0,0,0,0,0,0,0,0,-1,2022,344,0,0
805,680,0,0,0,0,0,0,0,0,0,-1,2029,344,0,0
812,680,0,0,0,0,0,0,0,0,0,-1,2036,344,0,0
-700,673,0,0,0,0,0,0,0,0,0,-1,524,351,0,0
-693,673,0,0,0,0,0,0,0,0,0,-1,531,351,0,0
-686,673,0,0,0,0,0,0,0,0,0,-1,538,351,0,0
-679,673,0,0,0,0,0,0,0,0,0,-1,545,351,0,0
-672,673,0,0,0,0,0,0,0,0,0,-1,552,351,0,0
-665,673,0,0,0,0,0,0,0,0,0,-1,559,351,0,0
-658,673,0,0,0,0,0,0,0,0,0,-1,566,351,0,0
-651,673,0,0,0,0,0,0,0,0,0,-1,573,351,0,0
-644,673,0,0,0,0,0,0,0,0,0,-1,580,351,0,0
-637,673,0,0,0,0,0,0,0,0,0,-1,587,351,0,0
-630,673,0,0,0,0,0,0,0,0,0,-1,594,351,0,0
-623,673,0,0,0,0,0,0,0,0,0,-1,601,351,0,0
-616,673,0,0,0,0,0,0,0,0,0,-1,608,351,0,0
-609,673,0,0,0,0,0,0,0,0,0,-1,615,351,0,0
-602,673,0,0,0,0,0,0,0,0,0,-1,622,351,0,0
-595,673,0,0,0,0,0,0,0,0,0,-1,629,351,0,0
-588,673,0,0,0,0,0,0,0,0,0,-1,636,351,0,0
-581,673,0,0,0,0,0,0,0,0,0,-1,643,351,0,0
-574,673,0,0,0,0,0,0,0,0,0,-1,650,351,0,0
-567,673,0,0,0,0,0,0,0,0,0,-1,657,351,0,0
-560,673,0,0,0,0,0,0,0,0,0,-1,664,351,0,0
-553,673,0,0,0,0,0,0,0,0,0,-1,671,351,0,0
-546,673,0,0,0,0,0,0,0,0,0,-1,678,351,0,0
-539,673,0,0,0,0,0,0,0,0,0,-1,685,351,0,0
-532,673,0,0,0,0,0,0,0,0,0,-1,692,351,0,0
-525,673,0,0,0,0,0,0,0,0,0,-1,699,351,0,0
-518,673,0,0,0,0,0,0,0,0,0,-1,706,351,0,0
-511,673,0,0,0,0,0,0,0,0,0,-1,713,351,0,0
-504,673,0,0,0,0,0,0,0,0,0,-1,720,351,0,0
-497,673,0,0,0,0,0,0,0,0,0,-1,727,351,0,0
-490,673,0,0,0,0,0,0,0,0,0,-1,734,351,0,0
-483,673,0,0,0,0,0,0,0,0,0,-1,741,351,0,0
-476,673,0,0,0,0,0,0,0,0,0,-1,748,351,0,0
-469,673,0,0,0,0,0,0,0,0,0,-1,755,351,0,0
-462,673,0,0,0,0,0,0,0,0,0,-1,762,351,0,0
-455,673,0,0,0,0,0,0,0,0,0,-1,769,351,0,0
-448,673,0,0,0,0,0,0,0,0,0,-1,776,351,0,0
-441,673,0,0,0,0,0,0,0,0,0,-1,783,351,0,0
-434,673,0,0,0,0,0,0,0,0,0,-1,790,351,0,0
-427,673,0,0,0,0,0,0,0,0,0,-1,797,351,0,0
-420,673,0,0,0,0,0,0,0,0,0,-1,804,351,0,0
-413,673,0,0,0,0,0,0,0,0,0,-1,811,351,0,0
-406,673,0,0,0,0,0,0,0,0,0,-1,818,351,0,0
-399,673,0,0,0,0,0,0,0,0,0,-1,825,351,0,0
-392,673,0,0,0,0,0,0,0,0,0,-1,832,351,0,0
-385,673,0,0,0,0,0,0,0,0,0,-1,839,351,0,0
-378,673,0,0,0,0,0,0,0,0,0,-1,846,351,0,0
-371,673,0,0,0,0,0,0,0,0,0,-1,853,351,0,0
-364,673,0,0,0,0,0,0,0,0,0,-1,860,351,0,0
-357,673,0,0,0,0,0,0,0,0,0,-1,867,351,0,0
-350,673,0,0,0,0,0,0,0,0,0,-1,874,351,0,0
-343,673,0,0,0,0,0,0,0,0,0,-1,881,351,0,0
-336,673,0,0,0,0,0,0,0,0,0,-1,888,351,0,0
-329,673,0,0,0,0,0,0,0,0,0,-1,895,351,0,0
-322,673,0,0,0,0,0,0,0,0,0,-1,902,351,0,0
-315,673,0,0,0,0,0,0,0,0,0,-1,909,351,0,0
-308,673,0,0,0,0,0,0,0,0,0,-1,916,351,0,0
-301,673,0,0,0,0,0,0,0,0,0,-1,923,351,0,0
-294,673,0,0,0,0,0,0,0,0,0,-1,930,351,0,0
-287,673,0,0,0,0,0,0,0,0,0,-1,937,351,0,0
-280,673,0,0,0,0,0,0,0,0,0,-1,944,351,0,0
-273,673,0,0,0,0,0,0,0,0,0,-1,951,351,0,0
-266,673,0,0,0,0,0,0,0,0,0,-1,958,351,0,0
-259,673,0,0,0,0,0,0,0,0,0,-1,965,351,0,0
-252,673,0,0,0,0,0,0,0,0,0,-1,972,351,0,0
-245,673,0,0,0,0,0,0,0,0,0,-1,979,351,0,0
-238,673,0,0,0,0,0,0,0,0,0,-1,986,351,0,0
-231,673,0,0,0,0,0,0,0,0,0,-1,993,351,0,0
-224,673,0,0,0,0,0,0,0,0,0,-1,1000,351,0,0
-217,673,0,0,0,0,0,0,0,0,0,-1,1007,351,0,0
-210,673,0,0,0,0,0,0,0,0,0,-1,1014,351,0,0
-203,673,0,0,0,0,0,0,0,0,0,-1,1021,351,0,0
-196,673,0,0,0,0,0,0,0,0,0,-1,1028,351,0,0
-189,673,0,0,0,0,0,0,0,0,0,-1,1035,351,0,0
-182,673,0,0,0,0,0,0,0,0,0,-1,1042,351,0,0
-175,673,5.71729,-7.07901,0,0,0,0,0,0,0,-1,1049,351,5.71723,7.079
-168,673,4.18384,-14.0605,0,0,0,0,0,0,0,-1,1056,351,4.18386,14.0604
-161,673,4.29407,-14.5498,0,0,0,0,0,0,0,-1,1063,351,4.29411,14.5498
-154,673,2.04041,-16.1361,0,0,0,0,0,0,0,-1,1070,351,2.04039,16.1361
-147,673,2.39429,-12.9149,0,0,0,0,0,0,0,-1,1077,351,2.39431,12.9149
-140,673,3.3855,-12.024,0.0544595,-0.0577599,0.010033,0.0553494,-0.0586498,0.0884702,0.0658267,0.043921,1084,351,3.38556,12.024
-133,673,4.42725,-11.1406,0.0416171,-0.0523054,0.00941562,0.0425517,-0.05324,0.098937,0.05542,0.0439388,1091,351,4.42727,11.1406
-126,673,3.34668,-12.8099,0.030709,-0.0463273,0.00896013,0.0317374,-0.0473557,0.114278,0.0459602,0.0435742,1098,351,3.34663,12.8099
-119,673,2.72058,-12.5895,0.0212015,-0.0398844,0.00835989,0.0223249,-0.0410078,0.133583,0.0370917,0.0414058,1105,351,2.72055,12.5895
-112,673,3.05078,-11.9517,0,0,0,0,0,0,0,-1,1112,351,3.05074,11.9517
-105,673,3.05762,-11.4408,0,0,0,0,0,0,0,-1,1119,351,3.05758,11.4408
-98,673,2.50854,-11.7838,0,0,0,0,0,0,0,-1,1126,351,2.50853,11.7838
-91,673,2.93323,-11.4874,0,0,0,0,0,0,0,-1,1133,351,2.93318,11.4874
-84,673,3.35779,-11.191,0,0,0,0,0,0,0,-1,1140,351,3.35784,11.191
-77,673,1.60266,-8.87473,0,0,0,0,0,0,0,-1,1147,351,1.60268,8.87474
-70,673,1.88684,-4.7381,0,0,0,0,0,0,0,-1,1154,351,1.88682,4.73809
-63,673,1.11719,-2.95016,0,0,0,0,0,0,0,-1,1161,351,1.11724,2.95016
-56,673,-6.18872,-9.52338,0,0,0,0,0,0,0,-1,1168,351,-6.18874,9.52336
-49,673,-0.926758,-0.115448,0,0,0,0,0,0,0,-1,1175,351,-0.926732,0.115444
-42,673,-1.15015,0.289917,0,0,0,0,0,0,0,-1,1182,351,-1.15017,-0.289932
-35,673,-0.919556,-1.00711,0,0,0,0,0,0,0,-1,1189,351,-0.919514,1.00711
-28,673,1.03564,-2.58228,0,0,0,0,0,0,0,-1,1196,351,1.0356,2.58229
-21,673,2.76184,-13.048,0,0,0,0,0,0,0,-1,1203,351,2.76181,13.048
-14,673,2.61621,-13.1095,0.0274229,-0.00991688,-0.0169533,0.0339716,-0.0164656,-0.368624,0.0296989,0.0428509,1210,351,2.61618,13.1095
-7,673,2.59119,-13.2487,0.0286917,-0.00651232,-0.0166951,0.0353499,-0.0131705,-0.379481,0.0289724,0.0401142,1217,351,2.59122,13.2487
0,673,2.72009,-13.0965,0.0292751,-0.00275511,-0.0161218,0.0359843,-0.00946436,-0.394359,0.0276888,0.0436114,1224,351,2.72005,13.0965
7,673,2.63965,-13.1351,0.0290912,0.000300339,-0.0151112,0.0355663,-0.00617468,-0.404825,0.0260145,0.0432965,1231,351,2.63963,13.1351
14,673,2.71362,-13.2321,0.0302243,0.00361391,-0.0137629,0.0360619,-0.00222364,-0.401152,0.0248157,0.0374141,1238,351,2.71358,13.2321
21,673,2.69641,-13.2423,0.0303931,0.00714266,-0.0124538,0.0358044,0.0017314,-0.409897,0.0233139,0.0239087,1245,351,2.69644,13.2423
28,673,2.67285,-13.2224,0.0290145,0.00980952,-0.0108767,0.033921,0.00490301,-0.423769,0.0211698,0.0166446,1252,351,2.67281,13.2224
35,673,2.70105,-13.2902,0.0273627,0.0116305,-0.00958845,0.0318988,0.00709443,-0.441878,0.0193398,0.0246377,1259,351,2.70104,13.2902
42,673,2.60461,-13.2513,0.0270138,0.0122018,-0.00868692,0.0310232,0.00819238,-0.432412,0.018564,0.0287828,1266,351,2.60458,13.2513
49,673,2.5426,-13.22,0.0263113,0.011952,-0.00890454,0.0305701,0.00769319,-0.446115,0.018361,0.0175832,1273,351,2.54259,13.22
56,673,2.54077,-13.2052,0.0241845,0.00964485,-0.0089077,0.0284124,0.00541697,-0.443148,0.017419,0.0138022,1280,351,2.54081,13.2052
63,673,2.56995,-13.1622,0.0203216,0.00687683,-0.00848795,0.0244268,0.00277168,-0.450478,0.0154438,0.0155257,1287,351,2.56993,13.1622
70,673,2.54993,-13.124,0.0165295,0.00250406,-0.00862167,0.0206304,-0.00159678,-0.443973,0.0143156,0.0237599,1294,351,2.54995,13.124
77,673,2.54333,-13.0925,0.0136204,-0.00232398,-0.0092008,0.0178224,-0.00652596,-0.428409,0.0145531,0.034366,1301,351,2.54332,13.0925
84,673,2.4718,-13.034,0.0105743,-0.00780264,-0.00967724,0.0147304,-0.0119587,-0.40565,0.0154366,0.0406182,1308,351,2.47175,13.034
91,673,2.49402,-13.0131,0.00710252,-0.0132398,-0.00974954,0.0110206,-0.0171579,-0.382118,0.0163969,0.0448268,1315,351,2.49405,13.0131
98,673,2.55457,-12.8185,0.00346858,-0.0182259,-0.00970569,0.00717686,-0.0219341,-0.364957,0.0175123,0.0483634,1322,351,2.55452,12.8185
105,673,2.70996,-13.2101,0.000366778,-0.022563,-0.00926634,0.00364328,-0.0258395,-0.339871,0.0185603,0.043296,1329,351,2.70999,13.2101
112,673,2.48938,-13.3022,-0.00210494,-0.0252515,-0.00858278,0.000730284,-0.0280867,-0.319053,0.0189726,0.0410722,1336,351,2.48941,13.3022
119,673,2.9259,-12.2957,0,0,0,0,0,0,0,-1,1343,351,2.92586,12.2957
126,673,2.34619,-13.0364,-0.00681904,-0.0291267,-0.00615334,-0.00523429,-0.0307114,-0.252066,0.0189718,0.0415574,1350,351,2.34625,13.0364
133,673,2.34009,-12.929,-0.00681588,-0.0290646,-0.00481563,-0.00581829,-0.0300622,-0.204268,0.0184111,0.0426804,1357,351,2.34012,12.929
140,673,2.27417,-12.8302,-0.0067196,-0.0283436,-0.0034664,-0.00617751,-0.0288857,-0.155126,0.0175639,0.0421932,1364,351,2.27412,12.8302
147,673,2.21619,-12.8181,-0.00682745,-0.0272815,-0.00232517,-0.00656646,-0.0275425,-0.111778,0.0166113,0.0416003,1371,351,2.21623,12.8182
154,673,2.24561,-12.7409,-0.00644715,-0.0266967,-0.000956886,-0.00640203,-0.0267418,-0.0471147,0.0161233,0.0398328,1378,351,2.24565,12.7409
161,673,2.33447,-12.6912,0,0,0,0,0,0,0,-1,1385,351,2.33451,12.6912
168,673,6.87061,1.83954,0,0,0,0,0,0,0,-1,1392,351,6.87063,-1.83953
175,673,6.6228,1.1459,0,0,0,0,0,0,0,-1,1399,351,6.62276,-1.14591
182,673,6.37244,0.796112,0,0,0,0,0,0,0,-1,1406,351,6.3724,-0.796102
189,673,6.12097,0.265472,0,0,0,0,0,0,0,-1,1413,351,6.121,-0.265482
196,673,6.02173,3.12717,0,0,0,0,0,0,0,-1,1420,351,6.02176,-3.12717
203,673,5.04456,1.6351,0,0,0,0,0,0,0,-1,1427,351,5.04455,-1.63509
210,673,4.79224,0.447479,0,0,0,0,0,0,0,-1,1434,351,4.79229,-0.447469
217,673,2.01648,0.972687,0,0,0,0,0,0,0,-1,1441,351,2.01644,-0.972691
224,673,2.3689,-1.80539,0,0,0,0,0,0,0,-1,1448,351,2.36896,1.80539
231,673,2.65857,-2.18497,0,0,0,0,0,0,0,-1,1455,351,2.65852,2.18496
238,673,3.24146,-1.01593,0,0,0,0,0,0,0,-1,1462,351,3.24142,1.01593
245,673,3.5376,-0.190399,0,0,0,0,0,0,0,-1,1469,351,3.53759,0.1904
252,673,3.80518,0.55603,0,0,0,0,0,0,0,-1,1476,351,3.80519,-0.556022
259,673,3.88562,1.29617,0,0,0,0,0,0,0,-1,1483,351,3.88562,-1.29618
266,673,4.22424,2.04834,0,0,0,0,0,0,0,-1,1490,351,4.22429,-2.04834
273,673,6.07886,0.385895,0,0,0,0,0,0,0,-1,1497,351,6.0789,-0.385906
280,673,6.97534,-0.0820007,0,0,0,0,0,0,0,-1,1504,351,6.97536,0.0820122
287,673,7.66968,-0.348541,0,0,0,0,0,0,0,-1,1511,351,7.66969,0.348534
294,673,8.20996,0.28537,0,0,0,0,0,0,0,-1,1518,351,8.20993,-0.28536
301,673,0,0,0,0,0,0,0,0,0,-1,1525,351,0,0
308,673,0,0,0,0,0,0,0,0,0,-1,1532,351,0,0
315,673,0,0,0,0,0,0,0,0,0,-1,1539,351,0,0
322,673,0,0,0,0,0,0,0,0,0,-1,1546,351,0,0
329,673,0,0,0,0,0,0,0,0,0,-1,1553,351,0,0
336,673,0,0,0,0,0,0,0,0,0,-1,1560,351,0,0
343,673,0,0,0,0,0,0,0,0,0,-1,1567,351,0,0
350,673,0,0,0,0,0,0,0,0,0,-1,1574,351,0,0
357,673,0,0,0,0,0,0,0,0,0,-1,1581,351,0,0
364,673,0,0,0,0,0,0,0,0,0,-1,1588,351,0,0
371,673,0,0,0,0,0,0,0,0,0,-1,1595,351,0,0
378,673,0,0,0,0,0,0,0,0,0,-1,1602,351,0,0
385,673,0,0,0,0,0,0,0,0,0,-1,1609,351,0,0
392,673,0,0,0,0,0,0,0,0,0,-1,1616,351,0,0
399,673,0,0,0,0,0,0,0,0,0,-1,1623,351,0,0
406,673,0,0,0,0,0,0,0,0,0,-1,1630,351,0,0
413,673,0,0,0,0,0,0,0,0,0,-1,1637,351,0,0
420,673,0,0,0,0,0,0,0,0,0,-1,1644,351,0,0
427,673,0,0,0,0,0,0,0,0,0,-1,1651,351,0,0
434,673,0,0,0,0,0,0,0,0,0,-1,1658,351,0,0
441,673,0,0,0,0,0,0,0,0,0,-1,1665,351,0,0
448,673,0,0,0,0,0,0,0,0,0,-1,1672,351,0,0
455,673,0,0,0,0,0,0,0,0,0,-1,1679,351,0,0
462,673,0,0,0,0,0,0,0,0,0,-1,1686,351,0,0
469,673,0,0,0,0,0,0,0,0,0,-1,1693,351,0,0
476,673,0,0,0,0,0,0,0,0,0,-1,1700,351,0,0
483,673,0,0,0,0,0,0,0,0,0,-1,1707,351,0,0
490,673,0,0,0,0,0,0,0,0,0,-1,1714,351,0,0
497,673,0,0,0,0,0,0,0,0,0,-1,1721,351,0,0
504,673,0,0,0,0,0,0,0,0,0,-1,1728,351,0,0
511,673,0,0,0,0,0,0,0,0,0,-1,1735,351,0,0
518,673,0,0,0,0,0,0,0,0,0,-1,1742,351,0,0
525,673,0,0,0,0,0,0,0,0,0,-1,1749,351,0,0
532,673,0,0,0,0,0,0,0,0,0,-1,1756,351,0,0
539,673,0,0,0,0,0,0,0,0,0,-1,1763,351,0,0
546,673,0,0,0,0,0,0,0,0,0,-1,1770,351,0,0
553,673,0,0,0,0,0,0,0,0,0,-1,1777,351,0,0
560,673,0,0,0,0,0,0,0,0,0,-1,1784,351,0,0
567,673,0,0,0,0,0,0,0,0,0,-1,1791,351,0,0
574,673,0,0,0,0,0,0,0,0,0,-1,1798,351,0,0
581,673,0,0,0,0,0,0,0,0,0,-1,1805,351,0,0
588,673,0,0,0,0,0,0,0,0,0,-1,1812,351,0,0
595,673,0,0,0,0,0,0,0,0,0,-1,1819,351,0,0
602,673,0,0,0,0,0,0,0,0,0,-1,1826,351,0,0
609,673,0,0,0,0,0,0,0,0,0,-1,1833,351,0,0
616,673,0,0,0,0,0,0,0,0,0,-1,1840,351,0,0
623,673,0,0,0,0,0,0,0,0,0,-1,1847,351,0,0
630,673,0,0,0,0,0,0,0,0,0,-1,1854,351,0,0
637,673,0,0,0,0,0,0,0,0,0,-1,1861,351,0,0
644,673,0,0,0,0,0,0,0,0,0,-1,1868,351,0,0
651,673,0,0,0,0,0,0,0,0,0,-1,1875,351,0,0
658,673,0,0,0,0,0,0,0,0,0,-1,1882,351,0,0
665,673,0,0,0,0,0,0,0,0,0,-1,1889,351,0,0
672,673,0,0,0,0,0,0,0,0,0,-1,1896,351,0,0
679,673,0,0,0,0,0,0,0,0,0,-1,1903,351,0,0
686,673,0,0,0,0,0,0,0,0,0,-1,1910,351,0,0
693,673,0,0,0,0,0,0,0,0,0,-1,1917,351,0,0
700,673,0,0,0,0,0,0,0,0,0,-1,1924,351,0,0
707,673,0,0,0,0,0,0,0,0,0,-1,1931,351,0,0
714,673,0,0,0,0,0,0,0,0,0,-1,1938,351,0,0
721,673,0,0,0,0,0,0,0,0,0,-1,1945,351,0,0
728,673,0,0,0,0,0,0,0,0,0,-1,1952,351,0,0
735,673,0,0,0,0,0,0,0,0,0,-1,1959,351,0,0
742,673,0,0,0,0,0,0,0,0,0,-1,1966,351,0,0
749,673,0,0,0,0,0,0,0,0,0,-1,1973,351,0,0
756,673,0,0,0,0,0,0,0,0,0,-1,1980,351,0,0
763,673,0,0,0,0,0,0,0,0,0,-1,1987,351,0,0
770,673,0,0,0,0,0,0,0,0,0,-1,1994,351,0,0
777,673,0,0,0,0,0,0,0,0,0,-1,2001,351,0,0
784,673,0,0,0,0,0,0,0,0,0,-1,2008,351,0,0
791,673,0,0,0,0,0,0,0,0,0,-1,2015,351,0,0
798,673,0,0,0,0,0,0,0,0,0,-1,2022,351,0,0
805,673,0,0,0,0,0,0,0,0,0,-1,2029,351,0,0
812,673,0,0,0,0,0,0,0,0,0,-1,2036,351,0,0
-700,666,0,0,0,0,0,0,0,0,0,-1,524,358,0,0
-693,666,0,0,0,0,0,0,0,0,0,-1,531,358,0,0
-686,666,0,0,0,0,0,0,0,0,0,-1,538,358,0,0
-679,666,0,0,0,0,0,0,0,0,0,-1,545,358,0,0
-672,666,0,0,0,0,0,0,0,0,0,-1,552,358,0,0
-665,666,0,0,0,0,0,0,0,0,0,-1,559,358,0,0
-658,666,0,0,0,0,0,0,0,0,0,-1,566,358,0,0
-651,666,0,0,0,0,0,0,0,0,0,-1,573,358,0,0
-644,666,0,0,0,0,0,0,0,0,0,-1,580,358,0,0
-637,666,0,0,0,0,0,0,0,0,0,-1,587,358,0,0
-630,666,0,0,0,0,0,0,0,0,0,-1,594,358,0,0
-623,666,0,0,0,0,0,0,0,0,0,-1,601,358,0,0
-616,666,0,0,0,0,0,0,0,0,0,-1,608,358,0,0
-609,666,0,0,0,0,0,0,0,0,0,-1,615,358,0,0
-602,666,0,0,0,0,0,0,0,0,0,-1,622,358,0,0
-595,666,0,0,0,0,0,0,0,0,0,-1,629,358,0,0
-588,666,0,0,0,0,0,0,0,0,0,-1,636,358,0,0
-581,666,0,0,0,0,0,0,0,0,0,-1,643,358,0,0
-574,666,0,0,0,0,0,0,0,0,0,-1,650,358,0,0
-567,666,0,0,0,0,0,0,0,0,0,-1,657,358,0,0
-560,666,0,0,0,0,0,0,0,0,0,-1,664,358,0,0
-553,666,0,0,0,0,0,0,0,0,0,-1,671,358,0,0
-546,666,0,0,0,0,0,0,0,0,0,-1,678,358,0,0
-539,666,0,0,0,0,0,0,0,0,0,-1,685,358,0,0
-532,666,0,0,0,0,0,0,0,0,0,-1,692,358,0,0
-525,666,0,0,0,0,0,0,0,0,0,-1,699,358,0,0
-518,666,0,0,0,0,0,0,0,0,0,-1,706,358,0,0
-511,666,0,0,0,0,0,0,0,0,0,-1,713,358,0,0
-504,666,0,0,0,0,0,0,0,0,0,-1,720,358,0,0
-497,666,0,0,0,0,0,0,0,0,0,-1,727,358,0,0
-490,666,0,0,0,0,0,0,0,0,0,-1,734,358,0,0
-483,666,0,0,0,0,0,0,0,0,0,-1,741,358,0,0
-476,666,0,0,0,0,0,0,0,0,0,-1,748,358,0,0
-469,666,0,0,0,0,0,0,0,0,0,-1,755,358,0,0
-462,666,0,0,0,0,0,0,0,0,0,-1,762,358,0,0
-455,666,0,0,0,0,0,0,0,0,0,-1,769,358,0,0
-448,666,0,0,0,0,0,0,0,0,0,-1,776,358,0,0
-441,666,0,0,0,0,0,0,0,0,0,-1,783,358,0,0
-434,666,0,0,0,0,0,0,0,0,0,-1,790,358,0,0
-427,666,0,0,0,0,0,0,0,0,0,-1,797,358,0,0
-420,666,0,0,0,0,0,0,0,0,0,-1,804,358,0,0
-413,666,0,0,0,0,0,0,0,0,0,-1,811,358,0,0
-406,666,0,0,0,0,0,0,0,0,0,-1,818,358,0,0
-399,666,0,0,0,0,0,0,0,0,0,-1,825,358,0,0
-392,666,0,0,0,0,0,0,0,0,0,-1,832,358,0,0
-385,666,0,0,0,0,0,0,0,0,0,-1,839,358,0,0
-378,666,0,0,0,0,0,0,0,0,0,-1,846,358,0,0
-371,666,0,0,0,0,0,0,0,0,0,-1,853,358,0,0
-364,666,0,0,0,0,0,0,0,0,0,-1,860,358,0,0
-357,666,0,0,0,0,0,0,0,0,0,-1,867,358,0,0
-350,666,0,0,0,0,0,0,0,0,0,-1,874,358,0,0
-343,666,0,0,0,0,0,0,0,0,0,-1,881,358,0,0
-336,666,0,0,0,0,0,0,0,0,0,-1,888,358,0,0
-329,666,0,0,0,0,0,0,0,0,0,-1,895,358,0,0
-322,666,0,0,0,0,0,0,0,0,0,-1,902,358,0,0
-315,666,0,0,0,0,0,0,0,0,0,-1,909,358,0,0
-308,666,0,0,0,0,0,0,0,0,0,-1,916,358,0,0
-301,666,0,0,0,0,0,0,0,0,0,-1,923,358,0,0
-294,666,0,0,0,0,0,0,0,0,0,-1,930,358,0,0
-287,666,0,0,0,0,0,0,0,0,0,-1,937,358,0,0
-280,666,0,0,0,0,0,0,0,0,0,-1,944,358,0,0
-273,666,0,0,0,0,0,0,0,0,0,-1,951,358,0,0
-266,666,0,0,0,0,0,0,0,0,0,-1,958,358,0,0
-259,666,0,0,0,0,0,0,0,0,0,-1,965,358,0,0
-252,666,0,0,0,0,0,0,0,0,0,-1,972,358,0,0
-245,666,0,0,0,0,0,0,0,0,0,-1,979,358,0,0
-238,666,0,0,0,0,0,0,0,0,0,-1,986,358,0,0
-231,666,0,0,0,0,0,0,0,0,0,-1,993,358,0,0
-224,666,0,0,0,0,0,0,0,0,0,-1,1000,358,0,0
-217,666,0,0,0,0,0,0,0,0,0,-1,1007,358,0,0
-210,666,0,0,0,0,0,0,0,0,0,-1,1014,358,0,0
-203,666,0,0,0,0,0,0,0,0,0,-1,1021,358,0,0
-196,666,1.68958,-9.41406,0,0,0,0,0,0,0,-1,1028,358,1.68961,9.41406
-189,666,5.26538,-13.977,0,0,0,0,0,0,0,-1,1035,358,5.26541,13.977
-182,666,6.17688,-12.7998,0,0,0,0,0,0,0,-1,1042,358,6.17688,12.7998
-175,666,7.08838,-11.6226,0,0,0,0,0,0,0,-1,1049,358,7.08835,11.6226
-168,666,2.25574,-13.9082,0,0,0,0,0,0,0,-1,1056,358,2.25574,13.9082
-161,666,2.47009,-14.305,0,0,0,0,0,0,0,-1,1063,358,2.47014,14.305
-154,666,2.56042,-15.1173,0,0,0,0,0,0,0,-1,1070,358,2.56039,15.1173
-147,666,2.65894,-12.6429,0,0,0,0,0,0,0,-1,1077,358,2.65894,12.643
-140,666,3.27454,-11.6817,0,0,0,0,0,0,0,-1,1084,358,3.27456,11.6817
-133,666,3.95398,-11.0686,0,0,0,0,0,0,0,-1,1091,358,3.95392,11.0686
-126,666,3.50391,-12.2088,0.0222961,-0.030713,0.00589012,0.0229427,-0.0313596,0.109338,0.0314767,0.041362,1098,358,3.50389,12.2088
-119,666,2.80347,-12.0743,0.0153286,-0.0254808,0.00565812,0.0160986,-0.0262507,0.135249,0.0246835,0.0413249,1105,358,2.8035,12.0743
-112,666,2.87329,-12.1954,0.00929572,-0.0198509,0.00532955,0.0102397,-0.0207949,0.175299,0.01826,0.0412113,1112,358,2.87323,12.1954
-105,666,3.026,-11.9175,0.0042392,-0.0139919,0.0048782,0.00546242,-0.0152152,0.245685,0.0123729,0.0433169,1119,358,3.02595,11.9175
-98,666,3.14783,-11.5973,0,0,0,0,0,0,0,-1,1126,358,3.14778,11.5973
-91,666,3.09631,-11.675,0,0,0,0,0,0,0,-1,1133,358,3.09631,11.675
-84,666,2.46448,-11.4115,0,0,0,0,0,0,0,-1,1140,358,2.46451,11.4115
-77,666,0.964722,-10.3601,0,0,0,0,0,0,0,-1,1147,358,0.964669,10.3601
-70,666,2.05957,-6.51086,0,0,0,0,0,0,0,-1,1154,358,2.05959,6.51088
-63,666,1.47485,-3.79593,0,0,0,0,0,0,0,-1,1161,358,1.47481,3.79593
-56,666,0.424683,-2.04132,0,0,0,0,0,0,0,-1,1168,358,0.424665,2.04132
-49,666,0.754395,-2.23169,0,0,0,0,0,0,0,-1,1175,358,0.754383,2.23169
-42,666,1.34473,-3.53897,0,0,0,0,0,0,0,-1,1182,358,1.34476,3.53896
-35,666,2.46436,-13.2635,0,0,0,0,0,0,0,-1,1189,358,2.46433,13.2635
-28,666,2.71021,-13.1661,0,0,0,0,0,0,0,-1,1196,358,2.71017,13.1661
-21,666,2.72253,-13.0753,0.0151719,-0.00648763,-0.0106783,0.019551,-0.0108667,-0.389178,0.0177987,0.0322092,1203,358,2.72252,13.0753
-14,666,2.64844,-13.1395,0.0171241,-0.00588458,-0.0112579,0.021716,-0.0104765,-0.387286,0.0189602,0.0243237,1210,358,2.64842,13.1395
-7,666,2.62659,-13.1525,0.0183149,-0.00376892,-0.011245,0.0230329,-0.00848689,-0.397255,0.0188328,0.0175995,1217,358,2.62656,13.1525
0,666,2.65942,-13.1387,0.0190349,-0.00130971,-0.0110151,0.0238562,-0.00613104,-0.412578,0.0182936,0.0123656,1224,358,2.65943,13.1387
7,666,2.64771,-13.1837,0.0190996,0.000645618,-0.0103583,0.0237446,-0.00399938,-0.421549,0.0173175,0.0145864,1231,358,2.64773,13.1837
14,666,2.64392,-13.2167,0.0201102,0.00286092,-0.00944164,0.0242734,-0.00130229,-0.415295,0.0166334,0.0146372,1238,358,2.64388,13.2167
21,666,2.6123,-13.2236,0.0203315,0.00530558,-0.00845608,0.02413,0.00150705,-0.422195,0.0156086,0.0108568,1245,358,2.61224,13.2236
28,666,2.59863,-13.2244,0.0193611,0.00715502,-0.00731596,0.0227854,0.00373071,-0.437771,0.014112,0.011284,1252,358,2.59861,13.2244
35,666,2.60791,-13.2297,0.0182325,0.00848631,-0.00636365,0.0213746,0.00534423,-0.458638,0.0128444,0.0106732,1259,358,2.60786,13.2297
42,666,2.59058,-13.2484,0.0181691,0.00897135,-0.0056547,0.0208589,0.00628152,-0.444005,0.0123563,0.0117174,1266,358,2.59054,13.2484
49,666,2.56079,-13.2461,0.017791,0.00888264,-0.00574207,0.020604,0.0060697,-0.455521,0.0122257,0.0103991,1273,358,2.56084,13.2461
56,666,2.54773,-13.2414,0.0163537,0.00730116,-0.00569372,0.0191011,0.00455382,-0.449567,0.0115201,0.0119215,1280,358,2.54778,13.2414
63,666,2.54114,-13.243,0.0135908,0.00534421,-0.00529841,0.0161813,0.00275374,-0.454741,0.00999683,0.0126031,1287,358,2.54112,13.243
70,666,2.52307,-13.2232,0.0109268,0.00222929,-0.00538998,0.0135037,-0.000347513,-0.445953,0.00912048,0.0121866,1294,358,2.52308,13.2232
77,666,2.52185,-13.1913,0.00892703,-0.00122612,-0.00584389,0.0115914,-0.00389052,-0.427774,0.0092998,0.0155456,1301,358,2.52182,13.1913
84,666,2.4873,-13.1552,0.00680808,-0.00522584,-0.00623758,0.00945779,-0.00787555,-0.4017,0.0100213,0.0216535,1308,358,2.48736,13.1552
91,666,2.46985,-13.1447,0.00435692,-0.00922359,-0.00637945,0.00688359,-0.0117503,-0.377107,0.0108799,0.022119,1315,358,2.46981,13.1447
98,666,2.45361,-13.138,0.00176611,-0.0129217,-0.00646428,0.00420586,-0.0153615,-0.36089,0.0118935,0.0194285,1322,358,2.45363,13.138
105,666,2.40869,-13.086,-0.000451674,-0.0161303,-0.00624263,0.00173025,-0.0183122,-0.336247,0.0128239,0.0187153,1329,358,2.40875,13.086
112,666,2.41357,-13.0493,-0.00221133,-0.018186,-0.00589697,-0.000270338,-0.020127,-0.317982,0.0133288,0.0213784,1336,358,2.41358,13.0493
119,666,2.43396,-13.0092,-0.00449124,-0.0200115,-0.00527478,-0.00286826,-0.0216345,-0.298495,0.0135684,0.0236929,1343,358,2.43402,13.0092
126,666,2.42114,-12.8973,-0.00561718,-0.0212128,-0.00445291,-0.00443533,-0.0223946,-0.259429,0.0136929,0.0254124,1350,358,2.42117,12.8973
133,666,2.36768,-12.8205,-0.00562268,-0.0213075,-0.0036107,-0.0048314,-0.0220988,-0.215737,0.0134153,0.022071,1357,358,2.36766,12.8205
140,666,2.32312,-12.8358,-0.00554588,-0.0208856,-0.00272204,-0.00507717,-0.0213543,-0.170517,0.0128818,0.0209695,1364,358,2.32311,12.8358
147,666,2.34497,-12.7848,-0.00586934,-0.0201705,-0.00194217,-0.00561028,-0.0204296,-0.132606,0.0121879,0.0203938,1371,358,2.34492,12.7848
154,666,2.32532,-12.695,-0.0056949,-0.0197048,-0.000867454,-0.00564139,-0.0197583,-0.0616037,0.0117521,0.018156,1378,358,2.32537,12.695
161,666,2.35327,-12.6678,-0.00487411,-0.0189549,-0.000462391,-0.00485894,-0.0189701,-0.0327912,0.0113783,0.0246957,1385,358,2.35331,12.6678
168,666,2.38684,-12.6587,0,0,0,0,0,0,0,-1,1392,358,2.38688,12.6586
175,666,2.56421,-12.7478,0,0,0,0,0,0,0,-1,1399,358,2.56418,12.7478
182,666,2.60876,-5.17068,0,0,0,0,0,0,0,-1,1406,358,2.6088,5.17068
189,666,2.46973,-5.49979,0,0,0,0,0,0,0,-1,1413,358,2.46975,5.49979
196,666,2.32458,-5.23651,0,0,0,0,0,0,0,-1,1420,358,2.32461,5.23653
203,666,2.28064,-3.88004,0,0,0,0,0,0,0,-1,1427,358,2.28059,3.88003
210,666,3.02576,-5.83548,0,0,0,0,0,0,0,-1,1434,358,3.02581,5.83547
217,666,2.30444,-5.36011,0,0,0,0,0,0,0,-1,1441,358,2.30447,5.3601
224,666,1.82324,-6.03101,0,0,0,0,0,0,0,-1,1448,358,1.82322,6.031
231,666,2.29797,-10.1093,0,0,0,0,0,0,0,-1,1455,358,2.29801,10.1093
238,666,2.52429,-6.10568,0,0,0,0,0,0,0,-1,1462,358,2.52423,6.10567
245,666,4.53345,-1.38205,0,0,0,0,0,0,0,-1,1469,358,4.53349,1.38204
252,666,4.77405,-0.246979,0,0,0,0,0,0,0,-1,1476,358,4.77405,0.246993
259,666,4.83655,1.14087,0,0,0,0,0,0,0,-1,1483,358,4.83652,-1.14087
266,666,6.14148,0.749512,0,0,0,0,0,0,0,-1,1490,358,6.14144,-0.749519
273,666,2.61304,-1.53772,0,0,0,0,0,0,0,-1,1497,358,2.613,1.53773
280,666,8.70898,-0.836975,0,0,0,0,0,0,0,-1,1504,358,8.70894,0.836988
287,666,2.27039,-4.09058,0,0,0,0,0,0,0,-1,1511,358,2.27042,4.09059
294,666,9.87,-1.10745,0,0,0,0,0,0,0,-1,1518,358,9.87,1.10745
301,666,3.61511,-3.23752,0,0,0,0,0,0,0,-1,1525,358,3.61511,3.23753
308,666,1.08496,-1.87576,0,0,0,0,0,0,0,-1,1532,358,1.08491,1.87575
315,666,1.76294,-0.284027,0,0,0,0,0,0,0,-1,1539,358,1.76291,0.284016
322,666,0,0,0,0,0,0,0,0,0,-1,1546,358,0,0
329,666,0,0,0,0,0,0,0,0,0,-1,1553,358,0,0
336,666,0,0,0,0,0,0,0,0,0,-1,1560,358,0,0
343,666,0,0,0,0,0,0,0,0,0,-1,1567,358,0,0
350,666,0,0,0,0,0,0,0,0,0,-1,1574,358,0,0
357,666,0,0,0,0,0,0,0,0,0,-1,1581,358,0,0
364,666,0,0,0,0,0,0,0,0,0,-1,1588,358,0,0
371,666,0,0,0,0,0,0,0,0,0,-1,1595,358,0,0
378,666,0,0,0,0,0,0,0,0,0,-1,1602,358,0,0
385,666,0,0,0,0,0,0,0,0,0,-1,1609,358,0,0
392,666,0,0,0,0,0,0,0,0,0,-1,1616,358,0,0
399,666,0,0,0,0,0,0,0,0,0,-1,1623,358,0,0
406,666,0,0,0,0,0,0,0,0,0,-1,1630,358,0,0
413,666,0,0,0,0,0,0,0,0,0,-1,1637,358,0,0
420,666,0,0,0,0,0,0,0,0,0,-1,1644,358,0,0
427,666,0,0,0,0,0,0,0,0,0,-1,1651,358,0,0
434,666,0,0,0,0,0,0,0,0,0,-1,1658,358,0,0
441,666,0,0,0,0,0,0,0,0,0,-1,1665,358,0,0
448,666,0,0,0,0,0,0,0,0,0,-1,1672,358,0,0
455,666,0,0,0,0,0,0,0,0,0,-1,1679,358,0,0
462,666,0,0,0,0,0,0,0,0,0,-1,1686,358,0,0
469,666,0,0,0,0,0,0,0,0,0,-1,1693,358,0,0
476,666,0,0,0,0,0,0,0,0,0,-1,1700,358,0,0
483,666,0,0,0,0,0,0,0,0,0,-1,1707,358,0,0
490,666,0,0,0,0,0,0,0,0,0,-1,1714,358,0,0
497,666,0,0,0,0,0,0,0,0,0,-1,1721,358,0,0
504,666,0,0,0,0,0,0,0,0,0,-1,1728,358,0,0
511,666,0,0,0,0,0,0,0,0,0,-1,1735,358,0,0
518,666,0,0,0,0,0,0,0,0,0,-1,1742,358,0,0
525,666,0,0,0,0,0,0,0,0,0,-1,1749,358,0,0
532,666,0,0,0,0,0,0,0,0,0,-1,1756,358,0,0
539,666,0,0,0,0,0,0,0,0,0,-1,1763,358,0,0
546,666,0,0,0,0,0,0,0,0,0,-1,1770,358,0,0
553,666,0,0,0,0,0,0,0,0,0,-1,1777,358,0,0
560,666,0,0,0,0,0,0,0,0,0,-1,1784,358,0,0
567,666,0,0,0,0,0,0,0,0,0,-1,1791,358,0,0
574,666,0,0,0,0,0,0,0,0,0,-1,1798,358,0,0
581,666,0,0,0,0,0,0,0,0,0,-1,1805,358,0,0
588,666,0,0,0,0,0,0,0,0,0,-1,1812,358,0,0
595,666,0,0,0,0,0,0,0,0,0,-1,1819,358,0,0
602,666,0,0,0,0,0,0,0,0,0,-1,1826,358,0,0
609,666,0,0,0,0,0,0,0,0,0,-1,1833,358,0,0
616,666,0,0,0,0,0,0,0,0,0,-1,1840,358,0,0
623,666,0,0,0,0,0,0,0,0,0,-1,1847,358,0,0
630,666,0,0,0,0,0,0,0,0,0,-1,1854,358,0,0
637,666,0,0,0,0,0,0,0,0,0,-1,1861,358,0,0
644,666,0,0,0,0,0,0,0,0,0,-1,1868,358,0,0
651,666,0,0,0,0,0,0,0,0,0,-1,1875,358,0,0
658,666,0,0,0,0,0,0,0,0,0,-1,1882,358,0,0
665,666,0,0,0,0,0,0,0,0,0,-1,1889,358,0,0
672,666,0,0,0,0,0,0,0,0,0,-1,1896,358,0,0
679,666,0,0,0,0,0,0,0,0,0,-1,1903,358,0,0
686,666,0,0,0,0,0,0,0,0,0,-1,1910,358,0,0
693,666,0,0,0,0,0,0,0,0,0,-1,1917,358,0,0
700,666,0,0,0,0,0,0,0,0,0,-1,1924,358,0,0
707,666,0,0,0,0,0,0,0,0,0,-1,1931,358,0,0
714,666,0,0,0,0,0,0,0,0,0,-1,1938,358,0,0
721,666,0,0,0,0,0,0,0,0,0,-1,1945,358,0,0
728,666,0,0,0,0,0,0,0,0,0,-1,1952,358,0,0
735,666,0,0,0,0,0,0,0,0,0,-1,1959,358,0,0
742,666,0,0,0,0,0,0,0,0,0,-1,1966,358,0,0
749,666,0,0,0,0,0,0,0,0,0,-1,1973,358,0,0
756,666,0,0,0,0,0,0,0,0,0,-1,1980,358,0,0
763,666,0,0,0,0,0,0,0,0,0,-1,1987,358,0,0
770,666,0,0,0,0,0,0,0,0,0,-1,1994,358,0,0
777,666,0,0,0,0,0,0,0,0,0,-1,2001,358,0,0
784,666,0,0,0,0,0,0,0,0,0,-1,2008,358,0,0
791,666,0,0,0,0,0,0,0,0,0,-1,2015,358,0,0
798,666,0,0,0,0,0,0,0,0,0,-1,2022,358,0,0
805,666,0,0,0,0,0,0,0,0,0,-1,2029,358,0,0
812,666,0,0,0,0,0,0,0,0,0,-1,2036,358,0,0
-700,659,0,0,0,0,0,0,0,0,0,-1,524,365,0,0
-693,659,0,0,0,0,0,0,0,0,0,-1,531,365,0,0
-686,659,0,0,0,0,0,0,0,0,0,-1,538,365,0,0
-679,659,0,0,0,0,0,0,0,0,0,-1,545,365,0,0
-672,659,0,0,0,0,0,0,0,0,0,-1,552,365,0,0
-665,659,0,0,0,0,0,0,0,0,0,-1,559,365,0,0
-658,659,0,0,0,0,0,0,0,0,0,-1,566,365,0,0
-651,659,0,0,0,0,0,0,0,0,0,-1,573,365,0,0
-644,659,0,0,0,0,0,0,0,0,0,-1,580,365,0,0
-637,659,0,0,0,0,0,0,0,0,0,-1,587,365,0,0
-630,659,0,0,0,0,0,0,0,0,0,-1,594,365,0,0
-623,659,0,0,0,0,0,0,0,0,0,-1,601,365,0,0
-616,659,0,0,0,0,0,0,0,0,0,-1,608,365,0,0
-609,659,0,0,0,0,0,0,0,0,0,-1,615,365,0,0
-602,659,0,0,0,0,0,0,0,0,0,-1,622,365,0,0
-595,659,0,0,0,0,0,0,0,0,0,-1,629,365,0,0
-588,659,0,0,0,0,0,0,0,0,0,-1,636,365,0,0
-581,659,0,0,0,0,0,0,0,0,0,-1,643,365,0,0
-574,659,0,0,0,0,0,0,0,0,0,-1,650,365,0,0
-567,659,0,0,0,0,0,0,0,0,0,-1,657,365,0,0
-560,659,0,0,0,0,0,0,0,0,0,-1,664,365,0,0
-553,659,0,0,0,0,0,0,0,0,0,-1,671,365,0,0
-546,659,0,0,0,0,0,0,0,0,0,-1,678,365,0,0
-539,659,0,0,0,0,0,0,0,0,0,-1,685,365,0,0
-532,659,0,0,0,0,0,0,0,0,0,-1,692,365,0,0
-525,659,0,0,0,0,0,0,0,0,0,-1,699,365,0,0
-518,659,0,0,0,0,0,0,0,0,0,-1,706,365,0,0
-511,659,0,0,0,0,0,0,0,0,0,-1,713,365,0,0
-504,659,0,0,0,0,0,0,0,0,0,-1,720,365,0,0
-497,659,0,0,0,0,0,0,0,0,0,-1,727,365,0,0
-490,659,0,0,0,0,0,0,0,0,0,-1,734,365,0,0
-483,659,0,0,0,0,0,0,0,0,0,-1,741,365,0,0
-476,659,0,0,0,0,0,0,0,0,0,-1,748,365,0,0
-469,659,0,0,0,0,0,0,0,0,0,-1,755,365,0,0
-462,659,0,0,0,0,0,0,0,0,0,-1,762,365,0,0
-455,659,0,0,0,0,0,0,0,0,0,-1,769,365,0,0
-448,659,0,0,0,0,0,0,0,0,0,-1,776,365,0,0
-441,659,0,0,0,0,0,0,0,0,0,-1,783,365,0,0
-434,659,0,0,0,0,0,0,0,0,0,-1,790,365,0,0
-427,659,0,0,0,0,0,0,0,0,0,-1,797,365,0,0
-420,659,0,0,0,0,0,0,0,0,0,-1,804,365,0,0
-413,659,0,0,0,0,0,0,0,0,0,-1,811,365,0,0
-406,659,0,0,0,0,0,0,0,0,0,-1,818,365,0,0
-399,659,0,0,0,0,0,0,0,0,0,-1,825,365,0,0
-392,659,0,0,0,0,0,0,0,0,0,-1,832,365,0,0
-385,659,0,0,0,0,0,0,0,0,0,-1,839,365,0,0
-378,659,0,0,0,0,0,0,0,0,0,-1,846,365,0,0
-371,659,0,0,0,0,0,0,0,0,0,-1,853,365,0,0
-364,659,0,0,0,0,0,0,0,0,0,-1,860,365,0,0
-357,659,0,0,0,0,0,0,0,0,0,-1,867,365,0,0
-350,659,0,0,0,0,0,0,0,0,0,-1,874,365,0,0
-343,659,0,0,0,0,0,0,0,0,0,-1,881,365,0,0
-336,659,0,0,0,0,0,0,0,0,0,-1,888,365,0,0
-329,659,0,0,0,0,0,0,0,0,0,-1,895,365,0,0
-322,659,0,0,0,0,0,0,0,0,0,-1,902,365,0,0
-315,659,0,0,0,0,0,0,0,0,0,-1,909,365,0,0
-308,659,0,0,0,0,0,0,0,0,0,-1,916,365,0,0
-301,659,0,0,0,0,0,0,0,0,0,-1,923,365,0,0
-294,659,0,0,0,0,0,0,0,0,0,-1,930,365,0,0
-287,659,0,0,0,0,0,0,0,0,0,-1,937,365,0,0
-280,659,0,0,0,0,0,0,0,0,0,-1,944,365,0,0
-273,659,0,0,0,0,0,0,0,0,0,-1,951,365,0,0
-266,659,0,0,0,0,0,0,0,0,0,-1,958,365,0,0
-259,659,0,0,0,0,0,0,0,0,0,-1,965,365,0,0
-252,659,0,0,0,0,0,0,0,0,0,-1,972,365,0,0
-245,659,0,0,0,0,0,0,0,0,0,-1,979,365,0,0
-238,659,0,0,0,0,0,0,0,0,0,-1,986,365,0,0
-231,659,0,0,0,0,0,0,0,0,0,-1,993,365,0,0
-224,659,0,0,0,0,0,0,0,0,0,-1,1000,365,0,0
-217,659,1.57928,-8.48126,0,0,0,0,0,0,0,-1,1007,365,1.57926,8.48126
-210,659,2.00287,-9.36227,0.122355,0.0584776,0.00584702,0.122886,0.0579468,0.0905318,0.0709867,0.0431247,1014,365,2.00284,9.36228
-203,659,2.23798,-10.0347,0,0,0,0,0,0,0,-1,1021,365,2.23795,10.0347
-196,659,3.26367,-12.3659,0,0,0,0,0,0,0,-1,1028,365,3.26361,12.3659
-189,659,4.08716,-12.5415,0,0,0,0,0,0,0,-1,1035,365,4.08715,12.5415
-182,659,5.1864,-11.8471,0,0,0,0,0,0,0,-1,1042,365,5.18645,11.8471
-175,659,6.26416,-10.7472,0,0,0,0,0,0,0,-1,1049,365,6.26422,10.7472
-168,659,2.73999,-13.1813,0,0,0,0,0,0,0,-1,1056,365,2.73998,13.1813
-161,659,2.73877,-13.4597,0,0,0,0,0,0,0,-1,1063,365,2.73876,13.4596
-154,659,1.85632,-12.4225,0,0,0,0,0,0,0,-1,1070,365,1.85633,12.4225
-147,659,2.48047,-12.2732,0,0,0,0,0,0,0,-1,1077,365,2.48042,12.2731
-140,659,2.93689,-11.5287,0.0285236,-0.0265771,0.00342234,0.0287353,-0.0267888,0.0617942,0.0320635,0.0427537,1084,365,2.93693,11.5287
-133,659,3.49487,-11.2836,0.0214422,-0.0229424,0.00344504,0.021708,-0.0232082,0.0770032,0.0259372,0.0436435,1091,365,3.49484,11.2836
-126,659,3.85535,-10.8679,0,0,0,0,0,0,0,-1,1098,365,3.85535,10.8679
-119,659,2.75793,-11.8793,0.0107701,-0.0151689,0.00367515,0.0112807,-0.0156796,0.138065,0.0156345,0.0431144,1105,365,2.75788,11.8793
-112,659,2.84302,-12.092,0.00647154,-0.0108412,0.00360291,0.0071914,-0.011561,0.197203,0.0109242,0.0400301,1112,365,2.84298,12.092
-105,659,2.9458,-12.0444,0.00278128,-0.00631997,0.00336964,0.00389305,-0.00743174,0.31869,0.00664392,0.0389809,1119,365,2.94584,12.0444
-98,659,2.98828,-11.9888,-5.87378e-05,-0.002149,0.00317272,0.00223656,-0.0044443,0.62629,0.00392677,0.0431237,1126,365,2.98831,11.9888
-91,659,2.95081,-12.0058,-0.00197027,0.00158094,0.00282538,0.00314233,-0.00353166,1.06594,0.00385541,0.044239,1133,365,2.95077,12.0058
-84,659,2.65833,-11.9201,-0.0060182,0.00497447,0.00168988,0.00522838,-0.00627211,1.42165,0.00664892,0.0487428,1140,365,2.65834,11.9201
-77,659,2.79358,-12.2317,0,0,0,0,0,0,0,-1,1147,365,2.79353,12.2317
-70,659,2.76355,-12.1276,0,0,0,0,0,0,0,-1,1154,365,2.76357,12.1276
-63,659,2.11267,-9.7796,0,0,0,0,0,0,0,-1,1161,365,2.11266,9.7796
-56,659,2.11182,-9.91541,0,0,0,0,0,0,0,-1,1168,365,2.11178,9.91541
-49,659,2.69653,-12.8579,0,0,0,0,0,0,0,-1,1175,365,2.69651,12.8579
-42,659,2.44165,-13.2391,0,0,0,0,0,0,0,-1,1182,365,2.44169,13.2391
-35,659,2.65784,-13.1001,0.00382224,-0.000887187,-0.00499739,0.00699189,-0.00405684,-0.565231,0.00645358,0.0445552,1189,365,2.65784,13.1001
-28,659,2.70728,-13.0823,0.00670717,-0.00343722,-0.00582485,0.00935871,-0.00608876,-0.427179,0.00898496,0.0174459,1196,365,2.70724,13.0823
-21,659,2.68872,-13.0883,0.00856639,-0.00346918,-0.00659636,0.0114775,-0.00638032,-0.415617,0.0104493,0.0112249,1203,365,2.68875,13.0883
-14,659,2.66077,-13.1431,0.0100711,-0.00328756,-0.00707755,0.0131234,-0.00633989,-0.407169,0.0114624,0.00860409,1210,365,2.66075,13.1431
-7,659,2.64246,-13.1657,0.01106,-0.00206265,-0.00717562,0.0142218,-0.00522453,-0.415044,0.011621,0.00895917,1217,365,2.64248,13.1657
0,659,2.63953,-13.1806,0.0117547,-0.00054753,-0.00714857,0.0150343,-0.00382712,-0.430127,0.0115126,0.00839444,1224,365,2.63947,13.1806
7,659,2.61914,-13.1989,0.0119481,0.000656063,-0.00676443,0.0151132,-0.00250899,-0.437637,0.0110075,0.00747167,1231,365,2.6191,13.1989
14,659,2.59741,-13.219,0.0127996,0.00208043,-0.00618283,0.0156225,-0.000742444,-0.428301,0.0106711,0.0100913,1238,365,2.59742,13.219
21,659,2.58838,-13.2309,0.0130753,0.00362066,-0.00537429,0.0155055,0.00119043,-0.424678,0.00996395,0.0109964,1245,365,2.58834,13.2309
28,659,2.58411,-13.2404,0.0124682,0.00483668,-0.00455313,0.0145931,0.00271181,-0.43664,0.00896258,0.0104162,1252,365,2.58408,13.2404
35,659,2.5918,-13.2601,0.0117615,0.00573959,-0.00383378,0.0136253,0.00387574,-0.452519,0.0081066,0.0104075,1259,365,2.59184,13.2601
42,659,2.58728,-13.2653,0.0118869,0.0060822,-0.00325687,0.013347,0.00462212,-0.421445,0.00782631,0.0104153,1266,365,2.58724,13.2653
49,659,2.56421,-13.2608,0.0117448,0.00604228,-0.0032418,0.0132108,0.00457625,-0.424705,0.00774629,0.0103724,1273,365,2.56424,13.2608
56,659,2.52344,-13.2563,0.010821,0.0049438,-0.00315426,0.0121934,0.00357139,-0.410391,0.00723835,0.0143128,1280,365,2.52344,13.2563
63,659,2.52759,-13.2592,0.00889849,0.00357271,-0.00279908,0.010099,0.0023722,-0.405164,0.00609773,0.0160644,1287,365,2.52759,13.2592
70,659,2.51208,-13.2313,0.00706803,0.00141469,-0.00285919,0.00826193,0.000220788,-0.395558,0.00543585,0.0162101,1294,365,2.51214,13.2313
77,659,2.49487,-13.1861,0.00571899,-0.000966037,-0.00322093,0.00701833,-0.00226538,-0.383438,0.0055892,0.0162098,1301,365,2.4949,13.1861
84,659,2.47437,-13.201,0.00426987,-0.00376286,-0.00356783,0.00562571,-0.00511871,-0.363163,0.00620559,0.0114416,1308,365,2.47441,13.201
91,659,2.46912,-13.1878,0.00256892,-0.00655879,-0.00378557,0.00393459,-0.00792446,-0.346227,0.0069748,0.0104429,1315,365,2.46907,13.1878
98,659,2.47705,-13.154,0.000753925,-0.00915844,-0.00397888,0.00215346,-0.010558,-0.338226,0.00785549,0.00802474,1322,365,2.47705,13.154
105,659,2.46338,-13.11,-0.000800061,-0.0113872,-0.00393026,0.000499461,-0.0126867,-0.319329,0.00862911,0.00840691,1329,365,2.46335,13.1101
112,659,2.46497,-13.0689,-0.00202005,-0.0128234,-0.00381852,-0.000806652,-0.0140368,-0.307677,0.00910088,0.00987203,1336,365,2.46494,13.0689
119,659,2.47095,-13.0279,-0.00359617,-0.0140766,-0.00349816,-0.00253584,-0.0151369,-0.29431,0.00936121,0.011487,1343,365,2.4709,13.0279
126,659,2.4491,-12.9639,-0.00436564,-0.0148553,-0.00310207,-0.00351695,-0.015704,-0.267055,0.00951618,0.012644,1350,365,2.44912,12.9639
133,659,2.40027,-12.8993,-0.00436939,-0.014988,-0.00257467,-0.00377804,-0.0155793,-0.225762,0.00938389,0.0109379,1357,365,2.40026,12.8993
140,659,2.37219,-12.8572,-0.00430548,-0.0147286,-0.00198491,-0.00394028,-0.0150938,-0.181952,0.00904004,0.00897252,1364,365,2.37219,12.8572
147,659,2.36475,-12.7938,-0.00465919,-0.0142215,-0.00144673,-0.0044451,-0.0144356,-0.146917,0.00853689,0.00854795,1371,365,2.36475,12.7938
154,659,2.35449,-12.7147,-0.00455987,-0.013825,-0.000641872,-0.00451562,-0.0138693,-0.0688398,0.00816821,0.00904595,1378,365,2.35444,12.7147
161,659,2.36768,-12.662,-0.00383375,-0.013128,-0.00033976,-0.00382134,-0.0131404,-0.0364909,0.00780484,0.0102654,1385,365,2.36773,12.662
168,659,2.39026,-12.6208,-0.00257524,-0.0120399,-0.000122965,-0.00257364,-0.0120415,-0.0129891,0.00732214,0.01851,1392,365,2.39024,12.6208
175,659,2.40283,-12.5582,-0.00215256,-0.0105309,0.000438509,-0.00212967,-0.0105538,0.0521483,0.00644438,0.0424749,1399,365,2.40289,12.5582
182,659,2.28491,-12.5273,0,0,0,0,0,0,0,-1,1406,365,2.28489,12.5273
189,659,2.31738,-12.3122,0,0,0,0,0,0,0,-1,1413,365,2.31738,12.3122
196,659,2.3562,-11.9105,0,0,0,0,0,0,0,-1,1420,365,2.35617,11.9105
203,659,2.38623,-12.2163,0,0,0,0,0,0,0,-1,1427,365,2.38617,12.2163
210,659,2.25464,-12.1866,0,0,0,0,0,0,0,-1,1434,365,2.25464,12.1866
217,659,2.30884,-11.5136,0,0,0,0,0,0,0,-1,1441,365,2.30883,11.5136
224,659,2.16553,-11.7979,0,0,0,0,0,0,0,-1,1448,365,2.16551,11.7979
231,659,2.22778,-11.6693,0,0,0,0,0,0,0,-1,1455,365,2.22784,11.6693
238,659,2.5509,-11.7478,0,0,0,0,0,0,0,-1,1462,365,2.55091,11.7478
245,659,2.27917,-11.9939,0,0,0,0,0,0,0,-1,1469,365,2.27923,11.9939
252,659,1.8573,-12.334,0,0,0,0,0,0,0,-1,1476,365,1.85736,12.334
259,659,2.33069,-3.36703,0,0,0,0,0,0,0,-1,1483,365,2.33073,3.36702
266,659,1.57434,-10.8011,0,0,0,0,0,0,0,-1,1490,365,1.57432,10.801
273,659,2.00757,-10.7484,0,0,0,0,0,0,0,-1,1497,365,2.00751,10.7483
280,659,1.70947,-9.4129,0,0,0,0,0,0,0,-1,1504,365,1.70952,9.4129
287,659,2.37976,-9.09607,0,0,0,0,0,0,0,-1,1511,365,2.37981,9.09608
294,659,2.64307,-11.792,0,0,0,0,0,0,0,-1,1518,365,2.64309,11.792
301,659,0.770874,-5.72247,0,0,0,0,0,0,0,-1,1525,365,0.770867,5.72248
308,659,1.39648,-4.3577,0,0,0,0,0,0,0,-1,1532,365,1.39651,4.35768
315,659,2.06226,-3.67682,0,0,0,0,0,0,0,-1,1539,365,2.06229,3.67683
322,659,0.382813,-2.2424,0,0,0,0,0,0,0,-1,1546,365,0.382801,2.2424
329,659,0.604004,-1.75998,0,0,0,0,0,0,0,-1,1553,365,0.603966,1.75998
336,659,2.09851,-1.17941,0,0,0,0,0,0,0,-1,1560,365,2.09857,1.17942
343,659,0,0,0,0,0,0,0,0,0,-1,1567,365,0,0
350,659,0,0,0,0,0,0,0,0,0,-1,1574,365,0,0
357,659,0,0,0,0,0,0,0,0,0,-1,1581,365,0,0
364,659,0,0,0,0,0,0,0,0,0,-1,1588,365,0,0
371,659,0,0,0,0,0,0,0,0,0,-1,1595,365,0,0
378,659,0,0,0,0,0,0,0,0,0,-1,1602,365,0,0
385,659,0,0,0,0,0,0,0,0,0,-1,1609,365,0,0
392,659,0,0,0,0,0,0,0,0,0,-1,1616,365,0,0
399,659,0,0,0,0,0,0,0,0,0,-1,1623,365,0,0
406,659,0,0,0,0,0,0,0,0,0,-1,1630,365,0,0
413,659,0,0,0,0,0,0,0,0,0,-1,1637,365,0,0
420,659,0,0,0,0,0,0,0,0,0,-1,1644,365,0,0
427,659,0,0,0,0,0,0,0,0,0,-1,1651,365,0,0
434,659,0,0,0,0,0,0,0,0,0,-1,1658,365,0,0
441,659,0,0,0,0,0,0,0,0,0,-1,1665,365,0,0
448,659,0,0,0,0,0,0,0,0,0,-1,1672,365,0,0
455,659,0,0,0,0,0,0,0,0,0,-1,1679,365,0,0
462,659,0,0,0,0,0,0,0,0,0,-1,1686,365,0,0
469,659,0,0,0,0,0,0,0,0,0,-1,1693,365,0,0
476,659,0,0,0,0,0,0,0,0,0,-1,1700,365,0,0
483,659,0,0,0,0,0,0,0,0,0,-1,1707,365,0,0
490,659,0,0,0,0,0,0,0,0,0,-1,1714,365,0,0
497,659,0,0,0,0,0,0,0,0,0,-1,1721,365,0,0
504,659,0,0,0,0,0,0,0,0,0,-1,1728,365,0,0
511,659,0,0,0,0,0,0,0,0,0,-1,1735,365,0,0
518,659,0,0,0,0,0,0,0,0,0,-1,1742,365,0,0
525,659,0,0,0,0,0,0,0,0,0,-1,1749,365,0,0
532,659,0,0,0,0,0,0,0,0,0,-1,1756,365,0,0
539,659,0,0,0,0,0,0,0,0,0,-1,1763,365,0,0
546,659,0,0,0,0,0,0,0,0,0,-1,1770,365,0,0
553,659,0,0,0,0,0,0,0,0,0,-1,1777,365,0,0
560,659,0,0,0,0,0,0,0,0,0,-1,1784,365,0,0
567,659,0,0,0,0,0,0,0,0,0,-1,1791,365,0,0
574,659,0,0,0,0,0,0,0,0,0,-1,1798,365,0,0
581,659,0,0,0,0,0,0,0,0,0,-1,1805,365,0,0
588,659,0,0,0,0,0,0,0,0,0,-1,1812,365,0,0
595,659,0,0,0,0,0,0,0,0,0,-1,1819,365,0,0
602,659,0,0,0,0,0,0,0,0,0,-1,1826,365,0,0
609,659,0,0,0,0,0,0,0,0,0,-1,1833,365,0,0
616,659,0,0,0,0,0,0,0,0,0,-1,1840,365,0,0
623,659,0,0,0,0,0,0,0,0,0,-1,1847,365,0,0
630,659,0,0,0,0,0,0,0,0,0,-1,1854,365,0,0
637,659,0,0,0,0,0,0,0,0,0,-1,1861,365,0,0
644,659,0,0,0,0,0,0,0,0,0,-1,1868,365,0,0
651,659,0,0,0,0,0,0,0,0,0,-1,1875,365,0,0
658,659,0,0,0,0,0,0,0,0,0,-1,1882,365,0,0
665,659,0,0,0,0,0,0,0,0,0,-1,1889,365,0,0
672,659,0,0,0,0,0,0,0,0,0,-1,1896,365,0,0
679,659,0,0,0,0,0,0,0,0,0,-1,1903,365,0,0
686,659,0,0,0,0,0,0,0,0,0,-1,1910,365,0,0
693,659,0,0,0,0,0,0,0,0,0,-1,1917,365,0,0
700,659,0,0,0,0,0,0,0,0,0,-1,1924,365,0,0
707,659,0,0,0,0,0,0,0,0,0,-1,1931,365,0,0
714,659,0,0,0,0,0,0,0,0,0,-1,1938,365,0,0
721,659,0,0,0,0,0,0,0,0,0,-1,1945,365,0,0
728,659,0,0,0,0,0,0,0,0,0,-1,1952,365,0,0
735,659,0,0,0,0,0,0,0,0,0,-1,1959,365,0,0
742,659,0,0,0,0,0,0,0,0,0,-1,1966,365,0,0
749,659,0,0,0,0,0,0,0,0,0,-1,1973,365,0,0
756,659,0,0,0,0,0,0,0,0,0,-1,1980,365,0,0
763,659,0,0,0,0,0,0,0,0,0,-1,1987,365,0,0
770,659,0,0,0,0,0,0,0,0,0,-1,1994,365,0,0
777,659,0,0,0,0,0,0,0,0,0,-1,2001,365,0,0
784,659,0,0,0,0,0,0,0,0,0,-1,2008,365,0,0
791,659,0,0,0,0,0,0,0,0,0,-1,2015,365,0,0
798,659,0,0,0,0,0,0,0,0,0,-1,2022,365,0,0
805,659,0,0,0,0,0,0,0,0,0,-1,2029,365,0,0
812,659,0,0,0,0,0,0,0,0,0,-1,2036,365,0,0
-700,652,0,0,0,0,0,0,0,0,0,-1,524,372,0,0
-693,652,0,0,0,0,0,0,0,0,0,-1,531,372,0,0
-686,652,0,0,0,0,0,0,0,0,0,-1,538,372,0,0
-679,652,0,0,0,0,0,0,0,0,0,-1,545,372,0,0
-672,652,0,0,0,0,0,0,0,0,0,-1,552,372,0,0
-665,652,0,0,0,0,0,0,0,0,0,-1,559,372,0,0
-658,652,0,0,0,0,0,0,0,0,0,-1,566,372,0,0
-651,652,0,0,0,0,0,0,0,0,0,-1,573,372,0,0
-644,652,0,0,0,0,0,0,0,0,0,-1,580,372,0,0
-637,652,0,0,0,0,0,0,0,0,0,-1,587,372,0,0
-630,652,0,0,0,0,0,0,0,0,0,-1,594,372,0,0
-623,652,0,0,0,0,0,0,0,0,0,-1,601,372,0,0
-616,652,0,0,0,0,0,0,0,0,0,-1,608,372,0,0
-609,652,0,0,0,0,0,0,0,0,0,-1,615,372,0,0
-602,652,0,0,0,0,0,0,0,0,0,-1,622,372,0,0
-595,652,0,0,0,0,0,0,0,0,0,-1,629,372,0,0
-588,652,0,0,0,0,0,0,0,0,0,-1,636,372,0,0
-581,652,0,0,0,0,0,0,0,0,0,-1,643,372,0,0
-574,652,0,0,0,0,0,0,0,0,0,-1,650,372,0,0
-567,652,0,0,0,0,0,0,0,0,0,-1,657,372,0,0
-560,652,0,0,0,0,0,0,0,0,0,-1,664,372,0,0
-553,652,0,0,0,0,0,0,0,0,0,-1,671,372,0,0
-546,652,0,0,0,0,0,0,0,0,0,-1,678,372,0,0
-539,652,0,0,0,0,0,0,0,0,0,-1,685,372,0,0
-532,652,0,0,0,0,0,0,0,0,0,-1,692,372,0,0
-525,652,0,0,0,0,0,0,0,0,0,-1,699,372,0,0
-518,652,0,0,0,0,0,0,0,0,0,-1,706,372,0,0
-511,652,0,0,0,0,0,0,0,0,0,-1,713,372,0,0
-504,652,0,0,0,0,0,0,0,0,0,-1,720,372,0,0
-497,652,0,0,0,0,0,0,0,0,0,-1,727,372,0,0
-490,652,0,0,0,0,0,0,0,0,0,-1,734,372,0,0
-483,652,0,0,0,0,0,0,0,0,0,-1,741,372,0,0
-476,652,0,0,0,0,0,0,0,0,0,-1,748,372,0,0
-469,652,0,0,0,0,0,0,0,0,0,-1,755,372,0,0
-462,652,0,0,0,0,0,0,0,0,0,-1,762,372,0,0
-455,652,0,0,0,0,0,0,0,0,0,-1,769,372,0,0
-448,652,0,0,0,0,0,0,0,0,0,-1,776,372,0,0
-441,652,0,0,0,0,0,0,0,0,0,-1,783,372,0,0
-434,652,0,0,0,0,0,0,0,0,0,-1,790,372,0,0
-427,652,0,0,0,0,0,0,0,0,0,-1,797,372,0,0
-420,652,0,0,0,0,0,0,0,0,0,-1,804,372,0,0
-413,652,0,0,0,0,0,0,0,0,0,-1,811,372,0,0
-406,652,0,0,0,0,0,0,0,0,0,-1,818,372,0,0
-399,652,0,0,0,0,0,0,0,0,0,-1,825,372,0,0
-392,652,0,0,0,0,0,0,0,0,0,-1,832,372,0,0
-385,652,0,0,0,0,0,0,0,0,0,-1,839,372,0,0
-378,652,0,0,0,0,0,0,0,0,0,-1,846,372,0,0
-371,652,0,0,0,0,0,0,0,0,0,-1,853,372,0,0
-364,652,0,0,0,0,0,0,0,0,0,-1,860,372,0,0
-357,652,0,0,0,0,0,0,0,0,0,-1,867,372,0,0
-350,652,0,0,0,0,0,0,0,0,0,-1,874,372,0,0
-343,652,0,0,0,0,0,0,0,0,0,-1,881,372,0,0
-336,652,0,0,0,0,0,0,0,0,0,-1,888,372,0,0
-329,652,0,0,0,0,0,0,0,0,0,-1,895,372,0,0
-322,652,0,0,0,0,0,0,0,0,0,-1,902,372,0,0
-315,652,0,0,0,0,0,0,0,0,0,-1,909,372,0,0
-308,652,0,0,0,0,0,0,0,0,0,-1,916,372,0,0
-301,652,0,0,0,0,0,0,0,0,0,-1,923,372,0,0
-294,652,0,0,0,0,0,0,0,0,0,-1,930,372,0,0
-287,652,0,0,0,0,0,0,0,0,0,-1,937,372,0,0
-280,652,0,0,0,0,0,0,0,0,0,-1,944,372,0,0
-273,652,0,0,0,0,0,0,0,0,0,-1,951,372,0,0
-266,652,0,0,0,0,0,0,0,0,0,-1,958,372,0,0
-259,652,0,0,0,0,0,0,0,0,0,-1,965,372,0,0
-252,652,0,0,0,0,0,0,0,0,0,-1,972,372,0,0
-245,652,0,0,0,0,0,0,0,0,0,-1,979,372,0,0
-238,652,0,0,0,0,0,0,0,0,0,-1,986,372,0,0
-231,652,-3.1214,-6.93527,0,0,0,0,0,0,0,-1,993,372,-3.1214,6.93528
-224,652,-3.74396,-5.71695,0,0,0,0,0,0,0,-1,1000,372,-3.74397,5.71694
-217,652,3.08069,-9.83069,0,0,0,0,0,0,0,-1,1007,372,3.08068,9.83069
-210,652,3.51178,-10.4496,0,0,0,0,0,0,0,-1,1014,372,3.51181,10.4496
-203,652,2.26929,-12.32,0,0,0,0,0,0,0,-1,1021,372,2.26929,12.32
-196,652,2.8833,-11.9591,0.0912443,0.0204333,0.0168979,0.09507,0.0166076,0.222648,0.0586335,0.0439248,1028,372,2.88328,11.9591
-189,652,3.7583,-11.691,0,0,0,0,0,0,0,-1,1035,372,3.75831,11.691
-182,652,4.50732,-11.0848,0,0,0,0,0,0,0,-1,1042,372,4.50729,11.0848
-175,652,5.37146,-10.3482,0,0,0,0,0,0,0,-1,1049,372,5.37143,10.3482
-168,652,2.37524,-11.8734,0,0,0,0,0,0,0,-1,1056,372,2.37521,11.8734
-161,652,2.31677,-12.0692,0,0,0,0,0,0,0,-1,1063,372,2.31675,12.0692
-154,652,2.35486,-11.7488,0.037312,-0.019584,0.00853979,0.0385661,-0.0208381,0.145815,0.0348024,0.0447818,1070,372,2.3549,11.7488
-147,652,2.62256,-11.853,0,0,0,0,0,0,0,-1,1077,372,2.62261,11.853
-140,652,2.854,-11.5275,0.0199545,-0.0166423,0.00155101,0.0200201,-0.0167079,0.0422799,0.0212336,0.0415853,1084,372,2.85399,11.5275
-133,652,2.92102,-11.5919,0.014806,-0.0138667,0.00171603,0.0149083,-0.0139691,0.0595655,0.0166753,0.0409249,1091,372,2.92099,11.5919
-126,652,2.9093,-11.7996,0.0108673,-0.0111092,0.00206546,0.0110597,-0.0113017,0.0929007,0.0129106,0.0399394,1098,372,2.90936,11.7996
-119,652,2.86682,-11.9569,0.00736308,-0.00816111,0.00224792,0.00768203,-0.00848005,0.140945,0.00933497,0.0345503,1105,372,2.86684,11.957
-112,652,2.84412,-12.0597,0.00437764,-0.00498711,0.00233749,0.00492867,-0.00553814,0.231508,0.00604643,0.0235084,1112,372,2.84413,12.0597
-105,652,2.82312,-12.1648,0.00174444,-0.00166062,0.00225754,0.00286947,-0.00278565,0.462321,0.00326511,0.0192664,1119,372,2.82314,12.1648
-98,652,2.79431,-12.2817,-0.000392386,0.0012857,0.00217549,0.00277834,-0.00188503,0.969448,0.00270881,0.0226255,1126,372,2.79433,12.2817
-91,652,2.79346,-12.36,-0.00170239,0.00379063,0.001905,0.00438663,-0.00229839,1.26758,0.00392186,0.0228005,1133,372,2.7934,12.36
-84,652,2.82385,-12.4729,-0.00440488,0.00590369,0.00115186,0.00603083,-0.00453201,1.46086,0.00611889,0.0209931,1140,372,2.82383,12.4729
-77,652,2.75134,-12.5545,-0.00598335,0.00731303,0.000719318,0.00735183,-0.00602215,1.51691,0.00773418,0.0261194,1147,372,2.7514,12.5545
-70,652,2.72583,-12.5641,-0.00413539,0.00845663,0.00110448,0.00855278,-0.00423153,1.48397,0.00752026,0.036884,1154,372,2.72584,12.5641
-63,652,2.74573,-12.7488,0,0,0,0,0,0,0,-1,1161,372,2.74571,12.7488
-56,652,2.72229,-12.8293,0,0,0,0,0,0,0,-1,1168,372,2.72225,12.8293
-49,652,2.69592,-12.8904,-0.00291361,0.00626619,-0.000282942,0.0062749,-0.00292232,-1.54001,0.00542634,0.0301791,1175,372,2.69588,12.8904
-42,652,2.66687,-12.9415,-0.000766656,0.00298665,-0.00163724,0.00360046,-0.00138046,-1.21211,0.00296942,0.0118018,1182,372,2.66692,12.9415
-35,652,2.66858,-12.9842,0.00149536,0.000441332,-0.00290231,0.00391811,-0.00198142,-0.695585,0.00346673,0.0104151,1189,372,2.66863,12.9842
-28,652,2.65698,-13.0353,0.00313983,-0.00150477,-0.00335218,0.00489554,-0.00326048,-0.482469,0.00474032,0.00830001,1196,372,2.657,13.0353
-21,652,2.64221,-13.0831,0.00424671,-0.00177083,-0.00381517,0.00609677,-0.00362089,-0.451512,0.00567087,0.00775076,1203,372,2.64222,13.0831
-14,652,2.64038,-13.1353,0.00528746,-0.0018797,-0.00414518,0.00718334,-0.00377559,-0.428967,0.0064283,0.00914428,1210,372,2.64041,13.1353
-7,652,2.63086,-13.1765,0.0059943,-0.00143627,-0.00428264,0.00794861,-0.00339059,-0.428108,0.00672068,0.0119188,1217,372,2.63087,13.1765
0,652,2.61182,-13.1964,0.00653939,-0.000733139,-0.00436747,0.00858619,-0.00277994,-0.438252,0.0068417,0.0124434,1224,372,2.61177,13.1963
7,652,2.59802,-13.1823,0.00675165,-0.000112926,-0.00417085,0.0087209,-0.00208218,-0.441117,0.00661809,0.0132297,1231,372,2.59802,13.1823
14,652,2.5802,-13.2153,0.0071614,0.000694999,-0.00378452,0.00890577,-0.00104937,-0.431899,0.00631609,0.0107839,1238,372,2.58017,13.2153
21,652,2.58215,-13.2403,0.00708978,0.00163595,-0.00315752,0.00853491,0.000190813,-0.429222,0.00562741,0.0100528,1245,372,2.58209,13.2403
28,652,2.57922,-13.2663,0.00653508,0.00239103,-0.0025922,0.00778161,0.0011445,-0.448232,0.00485145,0.00975944,1252,372,2.5792,13.2663
35,652,2.55798,-13.2848,0.00593944,0.0030016,-0.00203294,0.00697863,0.00196242,-0.472545,0.00415571,0.0102386,1259,372,2.55796,13.2848
42,652,2.54688,-13.2741,0.00604113,0.00331976,-0.00155874,0.00674953,0.00261136,-0.426568,0.00392994,0.0103124,1266,372,2.5469,13.2741
49,652,2.56323,-13.2727,0.0059216,0.00332281,-0.00139175,0.00652625,0.00271815,-0.409852,0.00378541,0.0119022,1273,372,2.56325,13.2727
56,652,2.55396,-13.2682,0.00529605,0.00268744,-0.00122947,0.00578417,0.00219932,-0.377935,0.00337128,0.0143073,1280,372,2.55395,13.2682
63,652,2.51868,-13.2755,0.00407552,0.00189486,-0.00088262,0.00438798,0.00158239,-0.340253,0.002566,0.0178022,1287,372,2.51873,13.2755
70,652,2.52588,-13.2418,0.00296862,0.000594801,-0.000871124,0.00325399,0.00030943,-0.316573,0.00207389,0.0156894,1294,372,2.52583,13.2418
77,652,2.50537,-13.2098,0.00224113,-0.000859061,-0.00112609,0.00260699,-0.00122492,-0.314135,0.00225981,0.0158764,1301,372,2.50536,13.2098
84,652,2.50391,-13.2258,0.00145655,-0.00264129,-0.00140224,0.00189045,-0.00307519,-0.300083,0.00289398,0.0132352,1308,372,2.50395,13.2258
91,652,2.49231,-13.2125,0.000488504,-0.00446741,-0.00165618,0.000991017,-0.00496992,-0.294589,0.00368827,0.015839,1315,372,2.49231,13.2125
98,652,2.50391,-13.1669,-0.000550265,-0.0061468,-0.0019328,5.23499e-05,-0.00674942,-0.302232,0.00451716,0.0126188,1322,372,2.50386,13.1669
105,652,2.50122,-13.1151,-0.0014662,-0.00757337,-0.0020215,-0.000857702,-0.00818187,-0.292385,0.00519234,0.00989874,1329,372,2.50121,13.1151
112,652,2.48401,-13.0813,-0.00219413,-0.00852366,-0.00210551,-0.00155773,-0.00916007,-0.293527,0.00565939,0.00907886,1336,372,2.48405,13.0813
119,652,2.47754,-13.0165,-0.003083,-0.00932159,-0.00206755,-0.00246001,-0.00994459,-0.292669,0.00598081,0.0102508,1343,372,2.47755,13.0165
126,652,2.44312,-12.9641,-0.00345584,-0.00979817,-0.00200677,-0.00287422,-0.0103798,-0.282101,0.00618843,0.0125653,1350,372,2.44316,12.9641
133,652,2.41577,-12.9142,-0.00346725,-0.00986043,-0.00177392,-0.00300803,-0.0103196,-0.253314,0.00612832,0.0121219,1357,372,2.41579,12.9142
140,652,2.41846,-12.8472,-0.00341651,-0.00963349,-0.0014948,-0.00307578,-0.00997422,-0.224116,0.00589791,0.00889068,1364,372,2.41842,12.8472
147,652,2.4104,-12.7864,-0.00374652,-0.00923805,-0.00120293,-0.00349458,-0.00948999,-0.206459,0.0055421,0.00915909,1371,372,2.41038,12.7864
154,652,2.40503,-12.7227,-0.00359316,-0.00878604,-0.000750449,-0.00348688,-0.00889232,-0.140681,0.00517366,0.00915328,1378,372,2.40504,12.7227
161,652,2.40723,-12.6559,-0.00290024,-0.00822226,-0.00054197,-0.00284561,-0.00827689,-0.100461,0.00485577,0.010183,1385,372,2.40723,12.6559
168,652,2.39795,-12.5869,-0.00196518,-0.00738008,-0.000331941,-0.00194491,-0.00740036,-0.0609969,0.00442994,0.0111009,1392,372,2.39794,12.5869
175,652,2.39136,-12.4901,-0.00157232,-0.00630042,0.000210729,-0.00156294,-0.00630979,0.0444521,0.00379441,0.0113596,1399,372,2.39137,12.4901
182,652,2.36487,-12.4232,-0.00187271,-0.00540968,0.000863306,-0.00167324,-0.00560915,0.227066,0.00332511,0.0166386,1406,372,2.36491,12.4232
189,652,2.38428,-12.3444,-0.00212591,-0.00415372,0.00151169,-0.0013196,-0.00496004,0.49,0.00296633,0.0236936,1413,372,2.38429,12.3444
196,652,2.36853,-12.3007,-0.00202855,-0.00293971,0.00174417,-0.000681447,-0.00428682,0.657652,0.00265999,0.0423614,1420,372,2.36858,12.3007
203,652,2.49585,-12.3358,-0.00145853,-0.0028599,0.00202585,-1.56122e-05,-0.00430282,0.618902,0.00286336,0.0478765,1427,372,2.49585,12.3358
210,652,2.3147,-12.2197,-0.00199408,-0.00288806,0.00214251,-0.000252432,-0.00462971,0.682559,0.00300587,0.0371209,1434,372,2.31475,12.2197
217,652,2.35132,-11.8123,-0.00257441,-0.0027642,0.00207623,-0.000590909,-0.00474771,0.762561,0.00298771,0.0358925,1441,372,2.35129,11.8123
224,652,2.29224,-11.7184,-0.00303191,-0.00240106,0.00188661,-0.000803691,-0.00462928,0.868227,0.00285623,0.0316528,1448,372,2.29229,11.7184
231,652,2.30188,-11.5726,-0.00335334,-0.00204148,0.0016833,-0.000890825,-0.00450399,0.971182,0.00275417,0.0376835,1455,372,2.30186,11.5726
238,652,2.427,-11.5531,-0.00370911,-0.00183069,0.00152603,-0.000978006,-0.00456179,1.06125,0.00277328,0.0405284,1462,372,2.42696,11.5531
245,652,2.30811,-11.5972,-0.00400004,-0.00150577,0.0013943,-0.000882229,-0.00462358,1.15027,0.00283445,0.0396008,1469,372,2.30805,11.5972
252,652,2.08264,-11.647,-0.0041033,-0.000913718,0.0014038,-0.000383888,-0.00463313,1.2099,0.00296907,0.0465525,1476,372,2.08265,11.647
259,652,1.88574,-11.5876,0,0,0,0,0,0,0,-1,1483,372,1.88573,11.5876
266,652,2.14746,-10.6928,0,0,0,0,0,0,0,-1,1490,372,2.14744,10.6928
273,652,2.17603,-10.7808,0,0,0,0,0,0,0,-1,1497,372,2.17597,10.7808
280,652,2.20447,-10.8687,0,0,0,0,0,0,0,-1,1504,372,2.20449,10.8687
287,652,2.83862,-10.5782,0,0,0,0,0,0,0,-1,1511,372,2.83857,10.5782
294,652,3.02441,-12.0069,0,0,0,0,0,0,0,-1,1518,372,3.02444,12.0069
301,652,3.92615,-4.65674,0,0,0,0,0,0,0,-1,1525,372,3.92614,4.65674
308,652,4.66345,-4.07922,0.0502538,0.0100201,-0.0545344,0.0882634,-0.0279896,-0.608699,0.0700613,0.0458638,1532,372,4.66351,4.07921
315,652,5.49463,-3.52432,0,0,0,0,0,0,0,-1,1539,372,5.49464,3.52431
322,652,6.10425,-2.87048,0,0,0,0,0,0,0,-1,1546,372,6.10421,2.8705
329,652,4.35828,-2.34665,0,0,0,0,0,0,0,-1,1553,372,4.35832,2.34665
336,652,4.60815,-2.13776,0,0,0,0,0,0,0,-1,1560,372,4.6082,2.13775
343,652,4.18225,-6.7092,0,0,0,0,0,0,0,-1,1567,372,4.18231,6.70921
350,652,4.64563,-7.2074,0,0,0,0,0,0,0,-1,1574,372,4.6456,7.2074
357,652,0,0,0,0,0,0,0,0,0,-1,1581,372,0,0
364,652,0,0,0,0,0,0,0,0,0,-1,1588,372,0,0
371,652,0,0,0,0,0,0,0,0,0,-1,1595,372,0,0
378,652,0,0,0,0,0,0,0,0,0,-1,1602,372,0,0
385,652,0,0,0,0,0,0,0,0,0,-1,1609,372,0,0
392,652,0,0,0,0,0,0,0,0,0,-1,1616,372,0,0
399,652,0,0,0,0,0,0,0,0,0,-1,1623,372,0,0
406,652,0,0,0,0,0,0,0,0,0,-1,1630,372,0,0
413,652,0,0,0,0,0,0,0,0,0,-1,1637,372,0,0
420,652,0,0,0,0,0,0,0,0,0,-1,1644,372,0,0
427,652,0,0,0,0,0,0,0,0,0,-1,1651,372,0,0
434,652,0,0,0,0,0,0,0,0,0,-1,1658,372,0,0
441,652,0,0,0,0,0,0,0,0,0,-1,1665,372,0,0
448,652,0,0,0,0,0,0,0,0,0,-1,1672,372,0,0
455,652,0,0,0,0,0,0,0,0,0,-1,1679,372,0,0
462,652,0,0,0,0,0,0,0,0,0,-1,1686,372,0,0
469,652,0,0,0,0,0,0,0,0,0,-1,1693,372,0,0
476,652,0,0,0,0,0,0,0,0,0,-1,1700,372,0,0
483,652,0,0,0,0,0,0,0,0,0,-1,1707,372,0,0
490,652,0,0,0,0,0,0,0,0,0,-1,1714,372,0,0
497,652,0,0,0,0,0,0,0,0,0,-1,1721,372,0,0
504,652,0,0,0,0,0,0,0,0,0,-1,1728,372,0,0
511,652,0,0,0,0,0,0,0,0,0,-1,1735,372,0,0
518,652,0,0,0,0,0,0,0,0,0,-1,1742,372,0,0
525,652,0,0,0,0,0,0,0,0,0,-1,1749,372,0,0
532,652,0,0,0,0,0,0,0,0,0,-1,1756,372,0,0
539,652,0,0,0,0,0,0,0,0,0,-1,1763,372,0,0
546,652,0,0,0,0,0,0,0,0,0,-1,1770,372,0,0
553,652,0,0,0,0,0,0,0,0,0,-1,1777,372,0,0
560,652,0,0,0,0,0,0,0,0,0,-1,1784,372,0,0
567,652,0,0,0,0,0,0,0,0,0,-1,1791,372,0,0
574,652,0,0,0,0,0,0,0,0,0,-1,1798,372,0,0
581,652,0,0,0,0,0,0,0,0,0,-1,1805,372,0,0
588,652,0,0,0,0,0,0,0,0,0,-1,1812,372,0,0
595,652,0,0,0,0,0,0,0,0,0,-1,1819,372,0,0
602,652,0,0,0,0,0,0,0,0,0,-1,1826,372,0,0
609,652,0,0,0,0,0,0,0,0,0,-1,1833,372,0,0
616,652,0,0,0,0,0,0,0,0,0,-1,1840,372,0,0
623,652,0,0,0,0,0,0,0,0,0,-1,1847,372,0,0
630,652,0,0,0,0,0,0,0,0,0,-1,1854,372,0,0
637,652,0,0,0,0,0,0,0,0,0,-1,1861,372,0,0
644,652,0,0,0,0,0,0,0,0,0,-1,1868,372,0,0
651,652,0,0,0,0,0,0,0,0,0,-1,1875,372,0,0
658,652,0,0,0,0,0,0,0,0,0,-1,1882,372,0,0
665,652,0,0,0,0,0,0,0,0,0,-1,1889,372,0,0
672,652,0,0,0,0,0,0,0,0,0,-1,1896,372,0,0
679,652,0,0,0,0,0,0,0,0,0,-1,1903,372,0,0
686,652,0,0,0,0,0,0,0,0,0,-1,1910,372,0,0
693,652,0,0,0,0,0,0,0,0,0,-1,1917,372,0,0
700,652,0,0,0,0,0,0,0,0,0,-1,1924,372,0,0
707,652,0,0,0,0,0,0,0,0,0,-1,1931,372,0,0
714,652,0,0,0,0,0,0,0,0,0,-1,1938,372,0,0
721,652,0,0,0,0,0,0,0,0,0,-1,1945,372,0,0
728,652,0,0,0,0,0,0,0,0,0,-1,1952,372,0,0
735,652,0,0,0,0,0,0,0,0,0,-1,1959,372,0,0
742,652,0,0,0,0,0,0,0,0,0,-1,1966,372,0,0
749,652,0,0,0,0,0,0,0,0,0,-1,1973,372,0,0
756,652,0,0,0,0,0,0,0,0,0,-1,1980,372,0,0
763,652,0,0,0,0,0,0,0,0,0,-1,1987,372,0,0
770,652,0,0,0,0,0,0,0,0,0,-1,1994,372,0,0
777,652,0,0,0,0,0,0,0,0,0,-1,2001,372,0,0
784,652,0,0,0,0,0,0,0,0,0,-1,2008,372,0,0
791,652,0,0,0,0,0,0,0,0,0,-1,2015,372,0,0
798,652,0,0,0,0,0,0,0,0,0,-1,2022,372,0,0
805,652,0,0,0,0,0,0,0,0,0,-1,2029,372,0,0
812,652,0,0,0,0,0,0,0,0,0,-1,2036,372,0,0
-700,645,0,0,0,0,0,0,0,0,0,-1,524,379,0,0
-693,645,0,0,0,0,0,0,0,0,0,-1,531,379,0,0
-686,645,0,0,0,0,0,0,0,0,0,-1,538,379,0,0
-679,645,0,0,0,0,0,0,0,0,0,-1,545,379,0,0
-672,645,0,0,0,0,0,0,0,0,0,-1,552,379,0,0
-665,645,0,0,0,0,0,0,0,0,0,-1,559,379,0,0
-658,645,0,0,0,0,0,0,0,0,0,-1,566,379,0,0
-651,645,0,0,0,0,0,0,0,0,0,-1,573,379,0,0
-644,645,0,0,0,0,0,0,0,0,0,-1,580,379,0,0
-637,645,0,0,0,0,0,0,0,0,0,-1,587,379,0,0
-630,645,0,0,0,0,0,0,0,0,0,-1,594,379,0,0
-623,645,0,0,0,0,0,0,0,0,0,-1,601,379,0,0
-616,645,0,0,0,0,0,0,0,0,0,-1,608,379,0,0
-609,645,0,0,0,0,0,0,0,0,0,-1,615,379,0,0
-602,645,0,0,0,0,0,0,0,0,0,-1,622,379,0,0
-595,645,0,0,0,0,0,0,0,0,0,-1,629,379,0,0
-588,645,0,0,0,0,0,0,0,0,0,-1,636,379,0,0
-581,645,0,0,0,0,0,0,0,0,0,-1,643,379,0,0
-574,645,0,0,0,0,0,0,0,0,0,-1,650,379,0,0
-567,645,0,0,0,0,0,0,0,0,0,-1,657,379,0,0
-560,645,0,0,0,0,0,0,0,0,0,-1,664,379,0,0
-553,645,0,0,0,0,0,0,0,0,0,-1,671,379,0,0
-546,645,0,0,0,0,0,0,0,0,0,-1,678,379,0,0
-539,645,0,0,0,0,0,0,0,0,0,-1,685,379,0,0
-532,645,0,0,0,0,0,0,0,0,0,-1,692,379,0,0
-525,645,0,0,0,0,0,0,0,0,0,-1,699,379,0,0
-518,645,0,0,0,0,0,0,0,0,0,-1,706,379,0,0
-511,645,0,0,0,0,0,0,0,0,0,-1,713,379,0,0
-504,645,0,0,0,0,0,0,0,0,0,-1,720,379,0,0
-497,645,0,0,0,0,0,0,0,0,0,-1,727,379,0,0
-490,645,0,0,0,0,0,0,0,0,0,-1,734,379,0,0
-483,645,0,0,0,0,0,0,0,0,0,-1,741,379,0,0
-476,645,0,0,0,0,0,0,0,0,0,-1,748,379,0,0
-469,645,0,0,0,0,0,0,0,0,0,-1,755,379,0,0
-462,645,0,0,0,0,0,0,0,0,0,-1,762,379,0,0
-455,645,0,0,0,0,0,0,0,0,0,-1,769,379,0,0
-448,645,0,0,0,0,0,0,0,0,0,-1,776,379,0,0
-441,645,0,0,0,0,0,0,0,0,0,-1,783,379,0,0
-434,645,0,0,0,0,0,0,0,0,0,-1,790,379,0,0
-427,645,0,0,0,0,0,0,0,0,0,-1,797,379,0,0
-420,645,0,0,0,0,0,0,0,0,0,-1,804,379,0,0
-413,645,0,0,0,0,0,0,0,0,0,-1,811,379,0,0
-406,645,0,0,0,0,0,0,0,0,0,-1,818,379,0,0
-399,645,0,0,0,0,0,0,0,0,0,-1,825,379,0,0
-392,645,0,0,0,0,0,0,0,0,0,-1,832,379,0,0
-385,645,0,0,0,0,0,0,0,0,0,-1,839,379,0,0
-378,645,0,0,0,0,0,0,0,0,0,-1,846,379,0,0
-371,645,0,0,0,0,0,0,0,0,0,-1,853,379,0,0
-364,645,0,0,0,0,0,0,0,0,0,-1,860,379,0,0
-357,645,0,0,0,0,0,0,0,0,0,-1,867,379,0,0
-350,645,0,0,0,0,0,0,0,0,0,-1,874,379,0,0
-343,645,0,0,0,0,0,0,0,0,0,-1,881,379,0,0
-336,645,0,0,0,0,0,0,0,0,0,-1,888,379,0,0
-329,645,0,0,0,0,0,0,0,0,0,-1,895,379,0,0
-322,645,0,0,0,0,0,0,0,0,0,-1,902,379,0,0
-315,645,0,0,0,0,0,0,0,0,0,-1,909,379,0,0
-308,645,0,0,0,0,0,0,0,0,0,-1,916,379,0,0
-301,645,0,0,0,0,0,0,0,0,0,-1,923,379,0,0
-294,645,0,0,0,0,0,0,0,0,0,-1,930,379,0,0
-287,645,0,0,0,0,0,0,0,0,0,-1,937,379,0,0
-280,645,0,0,0,0,0,0,0,0,0,-1,944,379,0,0
-273,645,0,0,0,0,0,0,0,0,0,-1,951,379,0,0
-266,645,0,0,0,0,0,0,0,0,0,-1,958,379,0,0
-259,645,0,0,0,0,0,0,0,0,0,-1,965,379,0,0
-252,645,10.0122,-9.04193,0,0,0,0,0,0,0,-1,972,379,10.0122,9.04192
-245,645,-3.15631,-11.1812,0,0,0,0,0,0,0,-1,979,379,-3.15633,11.1812
-238,645,-2.591,-10.3983,0,0,0,0,0,0,0,-1,986,379,-2.59098,10.3983
-231,645,-1.71124,-10.0034,0,0,0,0,0,0,0,-1,993,379,-1.71127,10.0033
-224,645,-2.58899,-7.38031,0,0,0,0,0,0,0,-1,1000,379,-2.58896,7.38031
-217,645,-3.33527,-5.9166,0,0,0,0,0,0,0,-1,1007,379,-3.33529,5.91658
-210,645,0.728638,-13.0316,0,0,0,0,0,0,0,-1,1014,379,0.728654,13.0316
-203,645,1.53198,-12.3115,0.0714341,0.0203796,0.0165556,0.0763327,0.0154811,0.287676,0.0465934,0.0438707,1021,379,1.53198,12.3115
-196,645,2.30298,-11.7168,0.0684769,0.0137966,0.0165102,0.0730753,0.00919822,0.271635,0.0459586,0.0415109,1028,379,2.30292,11.7168
-189,645,3.14294,-11.3177,0,0,0,0,0,0,0,-1,1035,379,3.14296,11.3178
-182,645,3.91882,-10.224,0,0,0,0,0,0,0,-1,1042,379,3.91878,10.224
-175,645,2.59253,-10.843,0,0,0,0,0,0,0,-1,1049,379,2.59251,10.843
-168,645,2.57922,-11.3447,0.0407392,-0.00764584,0.00868158,0.0422498,-0.00915639,0.17227,0.0316631,0.0462351,1056,379,2.5792,11.3447
-161,645,2.44519,-11.7136,0.0330828,-0.00963859,0.00598575,0.0339056,-0.0104614,0.136608,0.0267809,0.0453089,1063,379,2.44517,11.7136
-154,645,2.91687,-11.4985,0.0268483,-0.0120332,0.00571061,0.0276696,-0.0128546,0.142854,0.0239122,0.0419234,1070,379,2.91693,11.4985
-147,645,2.81812,-11.6057,0,0,0,0,0,0,0,-1,1077,379,2.81813,11.6057
-140,645,2.76282,-11.7088,0.0136477,-0.00974107,0.000368512,0.0136536,-0.00974688,0.0157507,0.0135729,0.0354089,1084,379,2.76281,11.7088
-133,645,2.77661,-11.8033,0.00996802,-0.00768792,0.000598668,0.0099883,-0.0077082,0.0338556,0.0102453,0.0309044,1091,379,2.77658,11.8033
-126,645,2.80164,-11.9247,0.0073101,-0.00573712,0.000994271,0.00738543,-0.00581245,0.0756236,0.00763782,0.024527,1098,379,2.80168,11.9247
-119,645,2.78271,-12.0576,0.00491928,-0.00364839,0.00124535,0.00509663,-0.00382574,0.141456,0.00516872,0.0159751,1105,379,2.78271,12.0576
-112,645,2.76318,-12.1723,0.00288898,-0.00138359,0.00141272,0.00331385,-0.00180846,0.292139,0.00299963,0.0110026,1112,379,2.76319,12.1723
-105,645,2.75281,-12.2638,0.00104937,0.000991799,0.00142067,0.00244154,-0.000400372,0.775268,0.00177626,0.0106984,1119,379,2.75284,12.2638
-98,645,2.72656,-12.3441,-0.000515721,0.00299723,0.00139867,0.00348609,-0.00100457,1.23456,0.00272144,0.0119016,1126,379,2.72651,12.3441
-91,645,2.7179,-12.432,-0.00137158,0.00459416,0.00119741,0.00482552,-0.00160295,1.37993,0.0038638,0.0128895,1133,379,2.71792,12.432
-84,645,2.70471,-12.5192,-0.00309138,0.00580028,0.000734377,0.00586053,-0.00315162,1.48894,0.00528094,0.0121725,1140,379,2.7047,12.5192
-77,645,2.67566,-12.6202,-0.00404328,0.00640155,0.000458104,0.00642161,-0.00406333,1.52705,0.00610431,0.0110887,1147,379,2.67569,12.6202
-70,645,2.67932,-12.7131,-0.00287158,0.00689646,0.000724458,0.00694989,-0.00292502,1.49717,0.00585701,0.0104186,1154,379,2.6793,12.7131
-63,645,2.66467,-12.7667,-0.00211248,0.00747479,0.000508743,0.00750171,-0.0021394,1.51793,0.00584625,0.0107237,1161,379,2.66462,12.7667
-56,645,2.65552,-12.8059,-0.00210842,0.00623628,0.000230935,0.00624267,-0.00211481,1.54315,0.00501754,0.0120806,1168,379,2.65555,12.806
-49,645,2.64001,-12.8691,-0.00203681,0.00469677,-0.000109775,0.00469856,-0.0020386,-1.5545,0.00398948,0.0101531,1175,379,2.64005,12.8691
-42,645,2.62476,-12.9405,-0.000959866,0.00295552,-0.000857508,0.00313509,-0.00113943,-1.36437,0.00255598,0.00999284,1182,379,2.62479,12.9404
-35,645,2.61816,-13.0065,0.000219627,0.00141864,-0.00152557,0.00245827,-0.000820001,-0.972615,0.00196991,0.0105033,1189,379,2.61811,13.0065
-28,645,2.6001,-13.0597,0.00105859,3.97208e-05,-0.00172903,0.00235167,-0.00125336,-0.642134,0.00211332,0.00837133,1196,379,2.6001,13.0597
-21,645,2.58801,-13.0836,0.00158511,-0.000278955,-0.00198606,0.00284696,-0.0015408,-0.56601,0.00257042,0.0094921,1203,379,2.58805,13.0837
-14,645,2.60474,-13.1232,0.00210552,-0.000574726,-0.00221024,0.00335017,-0.00181938,-0.512869,0.00302795,0.00948164,1210,379,2.60479,13.1232
-7,645,2.62012,-13.1972,0.00247684,-0.000553145,-0.00234905,0.00375706,-0.00183337,-0.498994,0.00329072,0.0126354,1217,379,2.62017,13.1972
0,645,2.63416,-13.1923,0.00280645,-0.000385437,-0.00247937,0.00415912,-0.0017381,-0.499435,0.00349909,0.0241036,1224,379,2.63411,13.1923
7,645,2.58813,-13.2119,0.00295438,-0.000200175,-0.00240953,0.00425697,-0.00150277,-0.495598,0.00344979,0.0168698,1231,379,2.58814,13.212
14,645,2.57507,-13.2155,0.00310229,9.57152e-05,-0.00219813,0.00426202,-0.00106401,-0.485481,0.00325452,0.0149609,1238,379,2.57508,13.2155
21,645,2.57336,-13.2471,0.00303565,0.000553085,-0.00184754,0.00402017,-0.000431433,-0.489604,0.00283489,0.0102977,1245,379,2.57335,13.2471
28,645,2.56592,-13.2703,0.00272133,0.000965231,-0.00151999,0.00359865,8.79074e-05,-0.52348,0.00237034,0.00936617,1252,379,2.56589,13.2703
35,645,2.55005,-13.2822,0.0023932,0.00129847,-0.00116487,0.0031329,0.000558771,-0.565762,0.00192951,0.00906918,1259,379,2.55004,13.2822
42,645,2.5343,-13.2935,0.00258017,0.00152245,-0.000840595,0.00304443,0.00105819,-0.504609,0.00178472,0.00866831,1266,379,2.5343,13.2935
49,645,2.56824,-13.2958,0.0025971,0.00157631,-0.000684568,0.0029406,0.00123281,-0.465067,0.00170512,0.0115332,1273,379,2.56824,13.2958
56,645,2.58276,-13.2761,0.00235514,0.00125748,-0.000559748,0.00259023,0.00102239,-0.397623,0.00150648,0.0117568,1280,379,2.58271,13.2761
63,645,2.56824,-13.278,0.00174739,0.000818255,-0.000294617,0.00183294,0.000732712,-0.282584,0.00106531,0.0113614,1287,379,2.56825,13.278
70,645,2.56091,-13.2549,0.00120356,0.000168913,-0.000263114,0.00126663,0.000105847,-0.235253,0.000811443,0.0155317,1294,379,2.56087,13.2549
77,645,2.55151,-13.2511,0.000913688,-0.000555911,-0.00039337,0.00101236,-0.00065458,-0.245761,0.000969768,0.0193741,1301,379,2.55149,13.2511
84,645,2.54797,-13.2201,0.000569726,-0.00153683,-0.000544082,0.000701952,-0.00166905,-0.238404,0.00140634,0.0139879,1308,379,2.54803,13.2201
91,645,2.52173,-13.1888,7.14963e-05,-0.00257131,-0.000714904,0.000252489,-0.0027523,-0.247961,0.00192456,0.0149626,1315,379,2.5217,13.1888
98,645,2.53113,-13.1519,-0.000513707,-0.00358863,-0.000921775,-0.000258557,-0.00384378,-0.270042,0.00248083,0.0131541,1322,379,2.53107,13.152
105,645,2.53491,-13.113,-0.00106087,-0.0044503,-0.000994669,-0.000790535,-0.00472064,-0.265375,0.00291948,0.00998625,1329,379,2.53493,13.113
112,645,2.51306,-13.0844,-0.00148857,-0.00506956,-0.00109485,-0.00118036,-0.00537777,-0.274409,0.00326367,0.0087477,1336,379,2.51311,13.0844
119,645,2.49951,-13.0224,-0.00194671,-0.00555644,-0.00113377,-0.00162015,-0.005883,-0.28044,0.00350893,0.00876954,1343,379,2.49957,13.0224
126,645,2.48853,-12.9628,-0.00215142,-0.0058592,-0.00115361,-0.00182179,-0.00618883,-0.278315,0.00367247,0.0115289,1350,379,2.48849,12.9628
133,645,2.49146,-12.911,-0.0021484,-0.00590767,-0.00109051,-0.00185496,-0.00620111,-0.262855,0.00367525,0.0120376,1357,379,2.49148,12.911
140,645,2.4895,-12.843,-0.00209908,-0.00572061,-0.000995167,-0.00184363,-0.00597606,-0.251261,0.00353362,0.0110108,1364,379,2.48948,12.843
147,645,2.47803,-12.793,-0.00229078,-0.00542843,-0.000880585,-0.00206054,-0.00565867,-0.255739,0.00330699,0.011779,1371,379,2.47801,12.793
154,645,2.48486,-12.7416,-0.00212498,-0.00510872,-0.000651285,-0.00198902,-0.00524469,-0.205809,0.00305732,0.0108769,1378,379,2.4848,12.7416
161,645,2.47229,-12.6636,-0.00169096,-0.00476369,-0.000500793,-0.0016114,-0.00484324,-0.15755,0.00284794,0.0138469,1385,379,2.47223,12.6636
168,645,2.45422,-12.5775,-0.00111295,-0.00422328,-0.000327202,-0.0010789,-0.00425733,-0.103686,0.00255566,0.0162823,1392,379,2.45425,12.5775
175,645,2.479,-12.5028,-0.000893526,-0.00359539,0.000120363,-0.000888174,-0.00360074,0.0444307,0.00216601,0.0131113,1399,379,2.47898,12.5028
182,645,2.46875,-12.414,-0.000949783,-0.0030174,0.000611269,-0.000782588,-0.00318459,0.266991,0.00191623,0.00919796,1406,379,2.46869,12.414
189,645,2.46521,-12.3128,-0.000949441,-0.0023233,0.00103714,-0.000392371,-0.00288037,0.492901,0.00180374,0.010498,1413,379,2.46518,12.3128
196,645,2.44202,-12.241,-0.000991148,-0.00178026,0.00127284,-5.31136e-05,-0.00271829,0.635104,0.00179475,0.0115921,1420,379,2.44199,12.241
203,645,2.43481,-12.1297,-0.00109148,-0.00190952,0.00146385,1.94161e-05,-0.00302041,0.649166,0.00202011,0.0114416,1427,379,2.43484,12.1297
210,645,2.44604,-12.0263,-0.00151943,-0.001877,0.00157272,-0.000115359,-0.00328106,0.728802,0.00214995,0.0139973,1434,379,2.44602,12.0263
217,645,2.42432,-11.9352,-0.00195688,-0.00171037,0.00155271,-0.00027603,-0.00339122,0.825004,0.00217465,0.0125306,1441,379,2.42434,11.9351
224,645,2.37793,-11.8139,-0.00229672,-0.00136034,0.00147028,-0.000285509,-0.00337156,0.93954,0.00215884,0.0117928,1448,379,2.37799,11.8139
231,645,2.36023,-11.6685,-0.00251056,-0.00100814,0.00140706,-0.000164315,-0.00335439,1.03059,0.00218355,0.0134284,1455,379,2.3602,11.6685
238,645,2.36133,-11.5508,-0.00273644,-0.000766135,0.00137744,-5.78064e-05,-0.00344476,1.09583,0.00227748,0.0110663,1462,379,2.36139,11.5508
245,645,2.35645,-11.4265,-0.00291573,-0.000412939,0.00136201,0.00018528,-0.00351395,1.15695,0.00240677,0.0119117,1469,379,2.3564,11.4264
252,645,2.38428,-11.2684,-0.00295273,0.00016128,0.00144502,0.000728501,-0.00351995,1.19674,0.0026234,0.0178414,1476,379,2.38426,11.2684
259,645,2.39917,-11.1136,-0.000472042,0.00111845,-0.0020329,0.00250612,-0.00185971,-0.971841,0.0025298,0.028114,1483,379,2.39911,11.1136
266,645,2.33447,-10.9497,0.00201146,0.00276837,-0.00460123,0.00700668,-0.00222685,-0.826431,0.00556398,0.0260036,1490,379,2.33447,10.9497
273,645,2.31665,-10.8224,0.00544208,0.0030298,-0.00750197,0.0118342,-0.00336237,-0.705692,0.00921704,0.0251133,1497,379,2.31667,10.8224
280,645,2.36072,-10.6832,0.00949961,0.003832,-0.0112506,0.0182679,-0.00493624,-0.662025,0.0141147,0.0455446,1504,379,2.36077,10.6832
287,645,3.15515,-11.5603,0,0,0,0,0,0,0,-1,1511,379,3.15511,11.5603
294,645,2.83289,-11.1963,0,0,0,0,0,0,0,-1,1518,379,2.83288,11.1963
301,645,2.51062,-10.8322,0,0,0,0,0,0,0,-1,1525,379,2.51065,10.8322
308,645,7.77051,-3.38297,0,0,0,0,0,0,0,-1,1532,379,7.7705,3.38297
315,645,1.85071,-9.41571,0,0,0,0,0,0,0,-1,1539,379,1.85073,9.41572
322,645,2.86023,-9.90695,0,0,0,0,0,0,0,-1,1546,379,2.86021,9.90694
329,645,2.08398,-8.24109,0,0,0,0,0,0,0,-1,1553,379,2.084,8.24109
336,645,0.61792,-6.51047,0,0,0,0,0,0,0,-1,1560,379,0.617879,6.51047
343,645,3.48962,-5.22675,0,0,0,0,0,0,0,-1,1567,379,3.48959,5.22675
350,645,3.93213,-5.72198,0,0,0,0,0,0,0,-1,1574,379,3.9321,5.72198
357,645,1.63928,-6.465,0,0,0,0,0,0,0,-1,1581,379,1.63926,6.46499
364,645,-0.0794678,-3.22021,0,0,0,0,0,0,0,-1,1588,379,-0.0794987,3.22021
371,645,0,0,0,0,0,0,0,0,0,-1,1595,379,0,0
378,645,0,0,0,0,0,0,0,0,0,-1,1602,379,0,0
385,645,0,0,0,0,0,0,0,0,0,-1,1609,379,0,0
392,645,0,0,0,0,0,0,0,0,0,-1,1616,379,0,0
399,645,0,0,0,0,0,0,0,0,0,-1,1623,379,0,0
406,645,0,0,0,0,0,0,0,0,0,-1,1630,379,0,0
413,645,0,0,0,0,0,0,0,0,0,-1,1637,379,0,0
420,645,0,0,0,0,0,0,0,0,0,-1,1644,379,0,0
427,645,0,0,0,0,0,0,0,0,0,-1,1651,379,0,0
434,645,0,0,0,0,0,0,0,0,0,-1,1658,379,0,0
441,645,0,0,0,0,0,0,0,0,0,-1,1665,379,0,0
448,645,0,0,0,0,0,0,0,0,0,-1,1672,379,0,0
455,645,0,0,0,0,0,0,0,0,0,-1,1679,379,0,0
462,645,0,0,0,0,0,0,0,0,0,-1,1686,379,0,0
469,645,0,0,0,0,0,0,0,0,0,-1,1693,379,0,0
476,645,0,0,0,0,0,0,0,0,0,-1,1700,379,0,0
483,645,0,0,0,0,0,0,0,0,0,-1,1707,379,0,0
490,645,0,0,0,0,0,0,0,0,0,-1,1714,379,0,0
497,645,0,0,0,0,0,0,0,0,0,-1,1721,379,0,0
504,645,0,0,0,0,0,0,0,0,0,-1,1728,379,0,0
511,645,0,0,0,0,0,0,0,0,0,-1,1735,379,0,0
518,645,0,0,0,0,0,0,0,0,0,-1,1742,379,0,0
525,645,0,0,0,0,0,0,0,0,0,-1,1749,379,0,0
532,645,0,0,0,0,0,0,0,0,0,-1,1756,379,0,0
539,645,0,0,0,0,0,0,0,0,0,-1,1763,379,0,0
546,645,0,0,0,0,0,0,0,0,0,-1,1770,379,0,0
553,645,0,0,0,0,0,0,0,0,0,-1,1777,379,0,0
560,645,0,0,0,0,0,0,0,0,0,-1,1784,379,0,0
567,645,0,0,0,0,0,0,0,0,0,-1,1791,379,0,0
574,645,0,0,0,0,0,0,0,0,0,-1,1798,379,0,0
581,645,0,0,0,0,0,0,0,0,0,-1,1805,379,0,0
588,645,0,0,0,0,0,0,0,0,0,-1,1812,379,0,0
595,645,0,0,0,0,0,0,0,0,0,-1,1819,379,0,0
602,645,0,0,0,0,0,0,0,0,0,-1,1826,379,0,0
609,645,0,0,0,0,0,0,0,0,0,-1,1833,379,0,0
616,645,0,0,0,0,0,0,0,0,0,-1,1840,379,0,0
623,645,0,0,0,0,0,0,0,0,0,-1,1847,379,0,0
630,645,0,0,0,0,0,0,0,0,0,-1,1854,379,0,0
637,645,0,0,0,0,0,0,0,0,0,-1,1861,379,0,0
644,645,0,0,0,0,0,0,0,0,0,-1,1868,379,0,0
651,645,0,0,0,0,0,0,0,0,0,-1,1875,379,0,0
658,645,0,0,0,0,0,0,0,0,0,-1,1882,379,0,0
665,645,0,0,0,0,0,0,0,0,0,-1,1889,379,0,0
672,645,0,0,0,0,0,0,0,0,0,-1,1896,379,0,0
679,645,0,0,0,0,0,0,0,0,0,-1,1903,379,0,0
686,645,0,0,0,0,0,0,0,0,0,-1,1910,379,0,0
693,645,0,0,0,0,0,0,0,0,0,-1,1917,379,0,0
700,645,0,0,0,0,0,0,0,0,0,-1,1924,379,0,0
707,645,0,0,0,0,0,0,0,0,0,-1,1931,379,0,0
714,645,0,0,0,0,0,0,0,0,0,-1,1938,379,0,0
721,645,0,0,0,0,0,0,0,0,0,-1,1945,379,0,0
728,645,0,0,0,0,0,0,0,0,0,-1,1952,379,0,0
735,645,0,0,0,0,0,0,0,0,0,-1,1959,379,0,0
742,645,0,0,0,0,0,0,0,0,0,-1,1966,379,0,0
749,645,0,0,0,0,0,0,0,0,0,-1,1973,379,0,0
756,645,0,0,0,0,0,0,0,0,0,-1,1980,379,0,0
763,645,0,0,0,0,0,0,0,0,0,-1,1987,379,0,0
770,645,0,0,0,0,0,0,0,0,0,-1,1994,379,0,0
777,645,0,0,0,0,0,0,0,0,0,-1,2001,379,0,0
784,645,0,0,0,0,0,0,0,0,0,-1,2008,379,0,0
791,645,0,0,0,0,0,0,0,0,0,-1,2015,379,0,0
798,645,0,0,0,0,0,0,0,0,0,-1,2022,379,0,0
805,645,0,0,0,0,0,0,0,0,0,-1,2029,379,0,0
812,645,0,0,0,0,0,0,0,0,0,-1,2036,379,0,0
-700,638,0,0,0,0,0,0,0,0,0,-1,524,386,0,0
-693,638,0,0,0,0,0,0,0,0,0,-1,531,386,0,0
-686,638,0,0,0,0,0,0,0,0,0,-1,538,386,0,0
-679,638,0,0,0,0,0,0,0,0,0,-1,545,386,0,0
-672,638,0,0,0,0,0,0,0,0,0,-1,552,386,0,0
-665,638,0,0,0,0,0,0,0,0,0,-1,559,386,0,0
-658,638,0,0,0,0,0,0,0,0,0,-1,566,386,0,0
-651,638,0,0,0,0,0,0,0,0,0,-1,573,386,0,0
-644,638,0,0,0,0,0,0,0,0,0,-1,580,386,0,0
-637,638,0,0,0,0,0,0,0,0,0,-1,587,386,0,0
-630,638,0,0,0,0,0,0,0,0,0,-1,594,386,0,0
-623,638,0,0,0,0,0,0,0,0,0,-1,601,386,0,0
-616,638,0,0,0,0,0,0,0,0,0,-1,608,386,0,0
-609,638,0,0,0,0,0,0,0,0,0,-1,615,386,0,0
-602,638,0,0,0,0,0,0,0,0,0,-1,622,386,0,0
-595,638,0,0,0,0,0,0,0,0,0,-1,629,386,0,0
-588,638,0,0,0,0,0,0,0,0,0,-1,636,386,0,0
-581,638,0,0,0,0,0,0,0,0,0,-1,643,386,0,0
-574,638,0,0,0,0,0,0,0,0,0,-1,650,386,0,0
-567,638,0,0,0,0,0,0,0,0,0,-1,657,386,0,0
-560,638,0,0,0,0,0,0,0,0,0,-1,664,386,0,0
-553,638,0,0,0,0,0,0,0,0,0,-1,671,386,0,0
-546,638,0,0,0,0,0,0,0,0,0,-1,678,386,0,0
-539,638,0,0,0,0,0,0,0,0,0,-1,685,386,0,0
-532,638,0,0,0,0,0,0,0,0,0,-1,692,386,0,0
-525,638,0,0,0,0,0,0,0,0,0,-1,699,386,0,0
-518,638,0,0,0,0,0,0,0,0,0,-1,706,386,0,0
-511,638,0,0,0,0,0,0,0,0,0,-1,713,386,0,0
-504,638,0,0,0,0,0,0,0,0,0,-1,720,386,0,0
-497,638,0,0,0,0,0,0,0,0,0,-1,727,386,0,0
-490,638,0,0,0,0,0,0,0,0,0,-1,734,386,0,0
-483,638,0,0,0,0,0,0,0,0,0,-1,741,386,0,0
-476,638,0,0,0,0,0,0,0,0,0,-1,748,386,0,0
-469,638,0,0,0,0,0,0,0,0,0,-1,755,386,0,0
-462,638,0,0,0,0,0,0,0,0,0,-1,762,386,0,0
-455,638,0,0,0,0,0,0,0,0,0,-1,769,386,0,0
-448,638,0,0,0,0,0,0,0,0,0,-1,776,386,0,0
-441,638,0,0,0,0,0,0,0,0,0,-1,783,386,0,0
-434,638,0,0,0,0,0,0,0,0,0,-1,790,386,0,0
-427,638,0,0,0,0,0,0,0,0,0,-1,797,386,0,0
-420,638,0,0,0,0,0,0,0,0,0,-1,804,386,0,0
-413,638,0,0,0,0,0,0,0,0,0,-1,811,386,0,0
-406,638,0,0,0,0,0,0,0,0,0,-1,818,386,0,0
-399,638,0,0,0,0,0,0,0,0,0,-1,825,386,0,0
-392,638,0,0,0,0,0,0,0,0,0,-1,832,386,0,0
-385,638,0,0,0,0,0,0,0,0,0,-1,839,386,0,0
-378,638,0,0,0,0,0,0,0,0,0,-1,846,386,0,0
-371,638,0,0,0,0,0,0,0,0,0,-1,853,386,0,0
-364,638,0,0,0,0,0,0,0,0,0,-1,860,386,0,0
-357,638,0,0,0,0,0,0,0,0,0,-1,867,386,0,0
-350,638,0,0,0,0,0,0,0,0,0,-1,874,386,0,0
-343,638,0,0,0,0,0,0,0,0,0,-1,881,386,0,0
-336,638,0,0,0,0,0,0,0,0,0,-1,888,386,0,0
-329,638,0,0,0,0,0,0,0,0,0,-1,895,386,0,0
-322,638,0,0,0,0,0,0,0,0,0,-1,902,386,0,0
-315,638,0,0,0,0,0,0,0,0,0,-1,909,386,0,0
-308,638,0,0,0,0,0,0,0,0,0,-1,916,386,0,0
-301,638,0,0,0,0,0,0,0,0,0,-1,923,386,0,0
-294,638,0,0,0,0,0,0,0,0,0,-1,930,386,0,0
-287,638,0,0,0,0,0,0,0,0,0,-1,937,386,0,0
-280,638,0,0,0,0,0,0,0,0,0,-1,944,386,0,0
-273,638,0,0,0,0,0,0,0,0,0,-1,951,386,0,0
-266,638,0.603821,-10.3962,0,0,0,0,0,0,0,-1,958,386,0.603829,10.3962
-259,638,9.24457,-8.64029,0,0,0,0,0,0,0,-1,965,386,9.24457,8.64028
-252,638,8.62463,-8.76974,0,0,0,0,0,0,0,-1,972,386,8.62463,8.76974
-245,638,7.86023,-9.08749,0,0,0,0,0,0,0,-1,979,386,7.86023,9.08748
-238,638,3.05347,-9.05939,0,0,0,0,0,0,0,-1,986,386,3.05344,9.05939
-231,638,-0.0879517,-10.0367,0,0,0,0,0,0,0,-1,993,386,-0.0879783,10.0367
-224,638,-0.990479,-9.01202,0,0,0,0,0,0,0,-1,1000,386,-0.990463,9.01204
-217,638,-0.470337,-14.8554,0,0,0,0,0,0,0,-1,1007,386,-0.470331,14.8554
-210,638,0.0127563,-13.7673,0,0,0,0,0,0,0,-1,1014,386,0.0127578,13.7673
-203,638,0.749573,-12.3973,0.0510986,0.0141367,0.0146217,0.0561834,0.00905198,0.334669,0.0348325,0.0496815,1021,386,0.749547,12.3973
-196,638,1.76477,-11.535,0.0491586,0.0095712,0.0141734,0.0537098,0.00501999,0.31071,0.034256,0.0438999,1028,386,1.76474,11.535
-189,638,2.71814,-10.9797,0.0463625,0.00481158,0.0128564,0.0500187,0.00115535,0.277074,0.0329675,0.0451527,1035,386,2.71818,10.9797
-182,638,3.60657,-10.3713,0,0,0,0,0,0,0,-1,1042,386,3.60662,10.3714
-175,638,2.56506,-11.0548,0.0367548,-0.00165618,0.00927306,0.0388763,-0.00377768,0.224911,0.0272641,0.0454349,1049,386,2.56501,11.0548
-168,638,2.67163,-11.1673,0.0293796,-0.00416837,0.00640193,0.0305598,-0.00534853,0.182297,0.0223702,0.034336,1056,386,2.67157,11.1673
-161,638,2.71814,-11.3453,0.0236171,-0.00546019,0.00414678,0.0241969,-0.00604001,0.138924,0.0184767,0.0288851,1063,386,2.71812,11.3453
-154,638,2.77722,-11.4964,0.0189057,-0.00690176,0.0036702,0.0194175,-0.00741357,0.138556,0.0159993,0.0215976,1070,386,2.77727,11.4964
-147,638,2.76575,-11.6319,0.013626,-0.00645538,0.00107894,0.0136838,-0.00651318,0.053523,0.0119032,0.0173808,1077,386,2.76578,11.6319
-140,638,2.72424,-11.7328,0.0091353,-0.00519758,-0.000307461,0.00914189,-0.00520418,-0.0214383,0.00838606,0.0139815,1084,386,2.7243,11.7328
-133,638,2.70459,-11.9012,0.00656856,-0.00372948,-6.93608e-05,0.00656903,-0.00372994,-0.00673493,0.00602095,0.0115128,1091,386,2.70458,11.9012
-126,638,2.70154,-11.9832,0.00483906,-0.00238872,0.00030514,0.00485192,-0.00240158,0.0421177,0.00426672,0.0130844,1098,386,2.70157,11.9833
-119,638,2.68542,-12.0748,0.00325013,-0.000932282,0.000562554,0.00332448,-0.00100663,0.131394,0.0026172,0.0148527,1105,386,2.68538,12.0748
-112,638,2.67102,-12.1764,0.00190861,0.000658584,0.000743796,0.00225512,0.000312064,0.435981,0.00141095,0.0140015,1112,386,2.67097,12.1764
-105,638,2.67419,-12.2743,0.000662133,0.00232461,0.000781396,0.00263422,0.000352522,1.19355,0.00165123,0.0155916,1119,386,2.67418,12.2743
-98,638,2.67212,-12.3719,-0.000442839,0.00365545,0.000766207,0.00379401,-0.000581402,1.39189,0.00274375,0.0148598,1126,386,2.67213,12.3719
-91,638,2.62134,-12.4683,-0.000968856,0.00462847,0.000602333,0.00469255,-0.00103294,1.4648,0.00352352,0.0127064,1133,386,2.62131,12.4683
-84,638,2.59204,-12.5354,-0.00198494,0.00523176,0.00033213,0.00524701,-0.00200019,1.5249,0.00432188,0.0143487,1140,386,2.59198,12.5354
-77,638,2.604,-12.6229,-0.00250406,0.00535184,0.000176627,0.00535581,-0.00250803,1.54833,0.00463837,0.0108451,1147,386,2.60405,12.6229
-70,638,2.62024,-12.711,-0.00178047,0.00542357,0.000366151,0.00544213,-0.00179903,1.52014,0.00435349,0.00988873,1154,386,2.62029,12.711
-63,638,2.59644,-12.7856,-0.00130579,0.00541764,0.000279675,0.00542926,-0.0013174,1.52929,0.00412929,0.010587,1161,386,2.59639,12.7856
-56,638,2.58899,-12.8468,-0.00123256,0.00445037,0.000130781,0.00445337,-0.00123557,1.5478,0.00345521,0.0137278,1168,386,2.58898,12.8468
-49,638,2.57056,-12.8994,-0.001128,0.00331188,-4.61235e-05,0.00331236,-0.00112848,-1.56041,0.00266526,0.0117213,1175,386,2.57055,12.8995
-42,638,2.57886,-12.9556,-0.000684363,0.00218108,-0.000289618,0.00221006,-0.000713342,-1.47107,0.00176002,0.0104448,1182,386,2.57883,12.9556
-35,638,2.58508,-13.0229,-0.000164926,0.00112725,-0.000476673,0.00128406,-0.000321737,-1.25298,0.000981035,0.0100671,1189,386,2.58505,13.0229
-28,638,2.58704,-13.074,0.000219465,0.000102086,-0.000432781,0.000597517,-0.000275966,-0.718004,0.00051557,0.00953072,1196,386,2.58707,13.074
-21,638,2.55566,-13.0739,0.000435518,-0.000275335,-0.000478394,0.000676068,-0.000515885,-0.465909,0.000690243,0.0107912,1203,386,2.55562,13.0738
-14,638,2.5592,-13.1066,0.000638191,-0.000631014,-0.000533329,0.00083254,-0.000825363,-0.349451,0.000957194,0.0112111,1210,386,2.55923,13.1066
-7,638,2.56799,-13.2302,0.000775481,-0.000755018,-0.000583855,0.000972777,-0.000952314,-0.325872,0.00111147,0.0162323,1217,386,2.56797,13.2302
0,638,2.63391,-13.2584,0.000899908,-0.000806651,-0.000657397,0.00112378,-0.00103052,-0.328226,0.00124418,0.0286204,1224,386,2.63393,13.2584
7,638,2.57019,-13.2431,0.000966803,-0.000787384,-0.000626644,0.00116766,-0.00098824,-0.310181,0.00124614,0.0228469,1231,386,2.57023,13.2431
14,638,2.54919,-13.2303,0.00102852,-0.000727882,-0.000513456,0.00116761,-0.000866969,-0.264535,0.00117893,0.0125187,1238,386,2.54924,13.2304
21,638,2.55408,-13.2635,0.00103159,-0.000543902,-0.000415116,0.00113428,-0.000646586,-0.242493,0.00104095,0.0108209,1245,386,2.55413,13.2635
28,638,2.5448,-13.2728,0.000883481,-0.000294573,-0.000344584,0.000976869,-0.000387962,-0.264661,0.000812069,0.0088457,1252,386,2.54479,13.2728
35,638,2.55371,-13.2874,0.000755678,-3.56098e-05,-0.00021256,0.000809162,-8.90939e-05,-0.246502,0.000571459,0.0104369,1259,386,2.55367,13.2874
42,638,2.56726,-13.292,0.0010046,0.000148655,-0.000123323,0.00102201,0.000131241,-0.140278,0.000642081,0.00986945,1266,386,2.56725,13.292
49,638,2.57861,-13.277,0.00108205,0.000352163,-0.000134481,0.00110604,0.000328174,-0.176528,0.000655931,0.00874893,1273,386,2.57858,13.2771
56,638,2.57483,-13.262,0.00101408,0.000325359,-0.000159909,0.0010494,0.000290042,-0.217367,0.000625742,0.0114245,1280,386,2.5748,13.262
63,638,2.57104,-13.2904,0.000807453,0.000250055,-0.00011899,0.000831791,0.000225717,-0.20176,0.000496689,0.0124239,1287,386,2.57107,13.2904
70,638,2.57385,-13.2634,0.000574406,9.83356e-05,-0.000148765,0.00061707,5.56719e-05,-0.27929,0.000394136,0.01742,1294,386,2.57388,13.2634
77,638,2.57593,-13.2427,0.000444127,-8.32153e-05,-0.000204334,0.000514034,-0.000153123,-0.329642,0.000403533,0.0191679,1301,386,2.57598,13.2427
84,638,2.57642,-13.2003,0.000269957,-0.000469212,-0.000265288,0.000355313,-0.000554567,-0.311286,0.000529501,0.0134227,1308,386,2.57647,13.2004
91,638,2.56348,-13.1624,-4.04726e-05,-0.000933236,-0.000342875,7.60134e-05,-0.00104972,-0.327499,0.000726479,0.013951,1315,386,2.56343,13.1624
98,638,2.56628,-13.1317,-0.000428601,-0.00147767,-0.000419151,-0.000281702,-0.00162457,-0.337093,0.00100243,0.0129964,1322,386,2.56624,13.1317
105,638,2.56641,-13.1139,-0.00077562,-0.0019619,-0.000400668,-0.000652974,-0.00208454,-0.297048,0.00123118,0.00970316,1329,386,2.56635,13.1139
112,638,2.55261,-13.0897,-0.00104031,-0.00238203,-0.000414405,-0.000922634,-0.00249971,-0.276673,0.0014596,0.00896689,1336,386,2.55264,13.0897
119,638,2.55994,-13.0396,-0.00128692,-0.00270167,-0.000424469,-0.00116934,-0.00281925,-0.270232,0.00163556,0.0110896,1343,386,2.55994,13.0396
126,638,2.56348,-12.9889,-0.00136945,-0.00294336,-0.00039577,-0.00127553,-0.00303728,-0.232987,0.00176105,0.0147796,1350,386,2.56343,12.9889
133,638,2.55298,-12.9266,-0.0012826,-0.00308603,-0.000385786,-0.00120354,-0.00316509,-0.202135,0.00184475,0.0149419,1357,386,2.55302,12.9266
140,638,2.54443,-12.8526,-0.0012002,-0.00307372,-0.000417146,-0.00111152,-0.0031624,-0.209472,0.00185247,0.0155267,1364,386,2.54441,12.8526
147,638,2.54736,-12.8014,-0.00126263,-0.00293567,-0.000415114,-0.0011653,-0.003033,-0.230318,0.00176669,0.017556,1371,386,2.54741,12.8014
154,638,2.55945,-12.7695,-0.00107499,-0.00289117,-0.000346776,-0.00101103,-0.00295513,-0.182391,0.00173427,0.0161679,1378,386,2.55946,12.7695
161,638,2.54456,-12.6839,-0.000828017,-0.00277675,-0.000319723,-0.000776901,-0.00282786,-0.158532,0.001687,0.0190705,1385,386,2.54455,12.6839
168,638,2.5321,-12.583,-0.000571751,-0.00252284,-0.000225674,-0.000545988,-0.0025486,-0.113666,0.00154948,0.0238297,1392,386,2.53209,12.583
175,638,2.55688,-12.5074,-0.000499331,-0.00217812,1.22366e-05,-0.000499242,-0.00217821,0.0072884,0.00131764,0.017516,1399,386,2.55685,12.5074
182,638,2.54309,-12.4221,-0.000484624,-0.00182415,0.000273642,-0.000430881,-0.0018779,0.193934,0.00113588,0.0109085,1406,386,2.54307,12.4221
189,638,2.52161,-12.3353,-0.000472167,-0.00144074,0.00056796,-0.000210055,-0.00170286,0.432374,0.0010721,0.0105348,1413,386,2.52156,12.3353
196,638,2.56396,-12.2206,-0.000524589,-0.00121465,0.000799552,1.20321e-06,-0.00174044,0.581705,0.00116069,0.0146312,1420,386,2.56399,12.2206
203,638,2.57251,-12.1009,-0.000695188,-0.00129849,0.000947827,-2.16882e-06,-0.00199151,0.631338,0.00132695,0.021621,1427,386,2.57247,12.1009
210,638,2.55847,-12.0423,-0.00104535,-0.00120598,0.00108145,-4.12314e-05,-0.00221009,0.748332,0.00145985,0.0172575,1434,386,2.55843,12.0423
217,638,2.5199,-11.9712,-0.00139912,-0.00101959,0.00112639,-6.70961e-05,-0.00235162,0.868851,0.00154586,0.0117729,1441,386,2.51995,11.9712
224,638,2.48804,-11.8439,-0.0016618,-0.000737891,0.00113503,2.55943e-05,-0.00242528,0.97866,0.00162545,0.00961867,1448,386,2.48806,11.8439
231,638,2.46716,-11.7051,-0.00181143,-0.000449044,0.00117371,0.000226823,-0.00248729,1.04833,0.00173874,0.0110098,1455,386,2.4672,11.7051
238,638,2.46497,-11.5756,-0.00195369,-0.000233918,0.00122955,0.000406595,-0.0025942,1.09054,0.00187971,0.0118842,1462,386,2.46501,11.5756
245,638,2.46252,-11.4507,-0.0020644,7.70719e-05,0.00128528,0.000679185,-0.00266651,1.13269,0.00204207,0.0134931,1469,386,2.46258,11.4507
252,638,2.47546,-11.3331,-0.00206744,0.000557902,0.00140525,0.0011682,-0.00267774,1.16107,0.00227676,0.0150208,1476,386,2.47549,11.3331
259,638,2.46008,-11.1984,-0.000454546,0.00129902,-0.000716731,0.00155469,-0.000710218,-1.22815,0.0013376,0.0138924,1483,386,2.46013,11.1984
266,638,2.42981,-11.0558,0.00121508,0.00254725,-0.00229783,0.00427358,-0.00051126,-0.92647,0.00303387,0.0104066,1490,386,2.42979,11.0558
273,638,2.4209,-10.9264,0.00351514,0.00273749,-0.00404825,0.00719319,-0.000940566,-0.737521,0.00513776,0.0103882,1497,386,2.42095,10.9264
280,638,2.45703,-10.7084,0.00618091,0.00332645,-0.00626117,0.0111755,-0.0016681,-0.673338,0.00806406,0.0225236,1504,386,2.45698,10.7084
287,638,2.83472,-10.8081,0,0,0,0,0,0,0,-1,1511,386,2.83469,10.8081
294,638,2.58228,-10.5244,0,0,0,0,0,0,0,-1,1518,386,2.5823,10.5244
301,638,2.32996,-10.2408,0,0,0,0,0,0,0,-1,1525,386,2.32991,10.2408
308,638,2.6366,-9.99991,0,0,0,0,0,0,0,-1,1532,386,2.63658,9.99992
315,638,2.39014,-9.69846,0.0252358,0.00545868,-0.0221811,0.0396327,-0.00893827,-0.575716,0.0298507,0.041113,1539,386,2.39011,9.69845
322,638,2.81567,-10.0703,0.0285462,0.00456442,-0.0247431,0.0440508,-0.0109402,-0.559766,0.0336128,0.0479931,1546,386,2.81567,10.0703
329,638,2.82422,-9.51294,0,0,0,0,0,0,0,-1,1553,386,2.82421,9.51295
336,638,2.02441,-6.86432,0,0,0,0,0,0,0,-1,1560,386,2.0244,6.86431
343,638,1.04028,-10.3387,0,0,0,0,0,0,0,-1,1567,386,1.04031,10.3387
350,638,2.3783,-11.33,0,0,0,0,0,0,0,-1,1574,386,2.37831,11.33
357,638,0.130371,-3.02618,0,0,0,0,0,0,0,-1,1581,386,0.130345,3.0262
364,638,3.78149,-6.45215,0,0,0,0,0,0,0,-1,1588,386,3.78155,6.45216
371,638,4.18604,-6.71164,0,0,0,0,0,0,0,-1,1595,386,4.18598,6.71164
378,638,4.59045,-6.97113,0,0,0,0,0,0,0,-1,1602,386,4.5904,6.97112
385,638,0,0,0,0,0,0,0,0,0,-1,1609,386,0,0
392,638,0,0,0,0,0,0,0,0,0,-1,1616,386,0,0
399,638,0,0,0,0,0,0,0,0,0,-1,1623,386,0,0
406,638,0,0,0,0,0,0,0,0,0,-1,1630,386,0,0
413,638,0,0,0,0,0,0,0,0,0,-1,1637,386,0,0
420,638,0,0,0,0,0,0,0,0,0,-1,1644,386,0,0
427,638,0,0,0,0,0,0,0,0,0,-1,1651,386,0,0
434,638,0,0,0,0,0,0,0,0,0,-1,1658,386,0,0
441,638,0,0,0,0,0,0,0,0,0,-1,1665,386,0,0
448,638,0,0,0,0,0,0,0,0,0,-1,1672,386,0,0
455,638,0,0,0,0,0,0,0,0,0,-1,1679,386,0,0
462,638,0,0,0,0,0,0,0,0,0,-1,1686,386,0,0
469,638,0,0,0,0,0,0,0,0,0,-1,1693,386,0,0
476,638,0,0,0,0,0,0,0,0,0,-1,1700,386,0,0
483,638,0,0,0,0,0,0,0,0,0,-1,1707,386,0,0
490,638,0,0,0,0,0,0,0,0,0,-1,1714,386,0,0
497,638,0,0,0,0,0,0,0,0,0,-1,1721,386,0,0
504,638,0,0,0,0,0,0,0,0,0,-1,1728,386,0,0
511,638,0,0,0,0,0,0,0,0,0,-1,1735,386,0,0
518,638,0,0,0,0,0,0,0,0,0,-1,1742,386,0,0
525,638,0,0,0,0,0,0,0,0,0,-1,1749,386,0,0
532,638,0,0,0,0,0,0,0,0,0,-1,1756,386,0,0
539,638,0,0,0,0,0,0,0,0,0,-1,1763,386,0,0
546,638,0,0,0,0,0,0,0,0,0,-1,1770,386,0,0
553,638,0,0,0,0,0,0,0,0,0,-1,1777,386,0,0
560,638,0,0,0,0,0,0,0,0,0,-1,1784,386,0,0
567,638,0,0,0,0,0,0,0,0,0,-1,1791,386,0,0
574,638,0,0,0,0,0,0,0,0,0,-1,1798,386,0,0
581,638,0,0,0,0,0,0,0,0,0,-1,1805,386,0,0
588,638,0,0,0,0,0,0,0,0,0,-1,1812,386,0,0
595,638,0,0,0,0,0,0,0,0,0,-1,1819,386,0,0
602,638,0,0,0,0,0,0,0,0,0,-1,1826,386,0,0
609,638,0,0,0,0,0,0,0,0,0,-1,1833,386,0,0
616,638,0,0,0,0,0,0,0,0,0,-1,1840,386,0,0
623,638,0,0,0,0,0,0,0,0,0,-1,1847,386,0,0
630,638,0,0,0,0,0,0,0,0,0,-1,1854,386,0,0
637,638,0,0,0,0,0,0,0,0,0,-1,1861,386,0,0
644,638,0,0,0,0,0,0,0,0,0,-1,1868,386,0,0
651,638,0,0,0,0,0,0,0,0,0,-1,1875,386,0,0
658,638,0,0,0,0,0,0,0,0,0,-1,1882,386,0,0
665,638,0,0,0,0,0,0,0,0,0,-1,1889,386,0,0
672,638,0,0,0,0,0,0,0,0,0,-1,1896,386,0,0
679,638,0,0,0,0,0,0,0,0,0,-1,1903,386,0,0
686,638,0,0,0,0,0,0,0,0,0,-1,1910,386,0,0
693,638,0,0,0,0,0,0,0,0,0,-1,1917,386,0,0
700,638,0,0,0,0,0,0,0,0,0,-1,1924,386,0,0
707,638,0,0,0,0,0,0,0,0,0,-1,1931,386,0,0
714,638,0,0,0,0,0,0,0,0,0,-1,1938,386,0,0
721,638,0,0,0,0,0,0,0,0,0,-1,1945,386,0,0
728,638,0,0,0,0,0,0,0,0,0,-1,1952,386,0,0
735,638,0,0,0,0,0,0,0,0,0,-1,1959,386,0,0
742,638,0,0,0,0,0,0,0,0,0,-1,1966,386,0,0
749,638,0,0,0,0,0,0,0,0,0,-1,1973,386,0,0
756,638,0,0,0,0,0,0,0,0,0,-1,1980,386,0,0
763,638,0,0,0,0,0,0,0,0,0,-1,1987,386,0,0
770,638,0,0,0,0,0,0,0,0,0,-1,1994,386,0,0
777,638,0,0,0,0,0,0,0,0,0,-1,2001,386,0,0
784,638,0,0,0,0,0,0,0,0,0,-1,2008,386,0,0
791,638,0,0,0,0,0,0,0,0,0,-1,2015,386,0,0
798,638,0,0,0,0,0,0,0,0,0,-1,2022,386,0,0
805,638,0,0,0,0,0,0,0,0,0,-1,2029,386,0,0
812,638,0,0,0,0,0,0,0,0,0,-1,2036,386,0,0
-700,631,0,0,0,0,0,0,0,0,0,-1,524,393,0,0
-693,631,0,0,0,0,0,0,0,0,0,-1,531,393,0,0
-686,631,0,0,0,0,0,0,0,0,0,-1,538,393,0,0
-679,631,0,0,0,0,0,0,0,0,0,-1,545,393,0,0
-672,631,0,0,0,0,0,0,0,0,0,-1,552,393,0,0
-665,631,0,0,0,0,0,0,0,0,0,-1,559,393,0,0
-658,631,0,0,0,0,0,0,0,0,0,-1,566,393,0,0
-651,631,0,0,0,0,0,0,0,0,0,-1,573,393,0,0
-644,631,0,0,0,0,0,0,0,0,0,-1,580,393,0,0
-637,631,0,0,0,0,0,0,0,0,0,-1,587,393,0,0
-630,631,0,0,0,0,0,0,0,0,0,-1,594,393,0,0
-623,631,0,0,0,0,0,0,0,0,0,-1,601,393,0,0
-616,631,0,0,0,0,0,0,0,0,0,-1,608,393,0,0
-609,631,0,0,0,0,0,0,0,0,0,-1,615,393,0,0
-602,631,0,0,0,0,0,0,0,0,0,-1,622,393,0,0
-595,631,0,0,0,0,0,0,0,0,0,-1,629,393,0,0
-588,631,0,0,0,0,0,0,0,0,0,-1,636,393,0,0
-581,631,0,0,0,0,0,0,0,0,0,-1,643,393,0,0
-574,631,0,0,0,0,0,0,0,0,0,-1,650,393,0,0
-567,631,0,0,0,0,0,0,0,0,0,-1,657,393,0,0
-560,631,0,0,0,0,0,0,0,0,0,-1,664,393,0,0
-553,631,0,0,0,0,0,0,0,0,0,-1,671,393,0,0
-546,631,0,0,0,0,0,0,0,0,0,-1,678,393,0,0
-539,631,0,0,0,0,0,0,0,0,0,-1,685,393,0,0
-532,631,0,0,0,0,0,0,0,0,0,-1,692,393,0,0
-525,631,0,0,0,0,0,0,0,0,0,-1,699,393,0,0
-518,631,0,0,0,0,0,0,0,0,0,-1,706,393,0,0
-511,631,0,0,0,0,0,0,0,0,0,-1,713,393,0,0
-504,631,0,0,0,0,0,0,0,0,0,-1,720,393,0,0
-497,631,0,0,0,0,0,0,0,0,0,-1,727,393,0,0
-490,631,0,0,0,0,0,0,0,0,0,-1,734,393,0,0
-483,631,0,0,0,0,0,0,0,0,0,-1,741,393,0,0
-476,631,0,0,0,0,0,0,0,0,0,-1,748,393,0,0
-469,631,0,0,0,0,0,0,0,0,0,-1,755,393,0,0
-462,631,0,0,0,0,0,0,0,0,0,-1,762,393,0,0
-455,631,0,0,0,0,0,0,0,0,0,-1,769,393,0,0
-448,631,0,0,0,0,0,0,0,0,0,-1,776,393,0,0
-441,631,0,0,0,0,0,0,0,0,0,-1,783,393,0,0
-434,631,0,0,0,0,0,0,0,0,0,-1,790,393,0,0
-427,631,0,0,0,0,0,0,0,0,0,-1,797,393,0,0
-420,631,0,0,0,0,0,0,0,0,0,-1,804,393,0,0
-413,631,0,0,0,0,0,0,0,0,0,-1,811,393,0,0
-406,631,0,0,0,0,0,0,0,0,0,-1,818,393,0,0
-399,631,0,0,0,0,0,0,0,0,0,-1,825,393,0,0
-392,631,0,0,0,0,0,0,0,0,0,-1,832,393,0,0
-385,631,0,0,0,0,0,0,0,0,0,-1,839,393,0,0
-378,631,0,0,0,0,0,0,0,0,0,-1,846,393,0,0
-371,631,0,0,0,0,0,0,0,0,0,-1,853,393,0,0
-364,631,0,0,0,0,0,0,0,0,0,-1,860,393,0,0
-357,631,0,0,0,0,0,0,0,0,0,-1,867,393,0,0
-350,631,0,0,0,0,0,0,0,0,0,-1,874,393,0,0
-343,631,0,0,0,0,0,0,0,0,0,-1,881,393,0,0
-336,631,0,0,0,0,0,0,0,0,0,-1,888,393,0,0
-329,631,0,0,0,0,0,0,0,0,0,-1,895,393,0,0
-322,631,0,0,0,0,0,0,0,0,0,-1,902,393,0,0
-315,631,0,0,0,0,0,0,0,0,0,-1,909,393,0,0
-308,631,0,0,0,0,0,0,0,0,0,-1,916,393,0,0
-301,631,0,0,0,0,0,0,0,0,0,-1,923,393,0,0
-294,631,0,0,0,0,0,0,0,0,0,-1,930,393,0,0
-287,631,0,0,0,0,0,0,0,0,0,-1,937,393,0,0
-280,631,1.12305,-12.4633,0,0,0,0,0,0,0,-1,944,393,1.12305,12.4633
-273,631,1.05743,-9.98688,0,0,0,0,0,0,0,-1,951,393,1.05741,9.98687
-266,631,0.616394,-9.4404,0,0,0,0,0,0,0,-1,958,393,0.616411,9.4404
-259,631,7.9762,-8.11093,0,0,0,0,0,0,0,-1,965,393,7.97622,8.11094
-252,631,7.2074,-8.5423,0,0,0,0,0,0,0,-1,972,393,7.20741,8.54228
-245,631,3.28119,-8.41373,0,0,0,0,0,0,0,-1,979,393,3.28122,8.41373
-238,631,3.02991,-9.08221,0,0,0,0,0,0,0,-1,986,393,3.02993,9.08221
-231,631,2.77863,-9.7507,0,0,0,0,0,0,0,-1,993,393,2.77864,9.7507
-224,631,0.539063,-9.05594,0,0,0,0,0,0,0,-1,1000,393,0.539048,9.05593
-217,631,2.8056,-11.3224,0,0,0,0,0,0,0,-1,1007,393,2.80559,11.3224
-210,631,2.91486,-10.4017,0,0,0,0,0,0,0,-1,1014,393,2.91484,10.4017
-203,631,2.98083,-10.5649,0,0,0,0,0,0,0,-1,1021,393,2.98082,10.5649
-196,631,2.92969,-10.4633,0,0,0,0,0,0,0,-1,1028,393,2.92969,10.4634
-189,631,2.62598,-10.7868,0,0,0,0,0,0,0,-1,1035,393,2.62595,10.7868
-182,631,2.76257,-10.9194,0,0,0,0,0,0,0,-1,1042,393,2.76263,10.9194
-175,631,2.63611,-11.1511,0.025751,-0.000341562,0.00685118,0.0274405,-0.0020311,0.24178,0.0190069,0.0340236,1049,393,2.63614,11.1511
-168,631,2.64063,-11.2705,0.0205888,-0.0018933,0.00454061,0.0214713,-0.00277571,0.191945,0.0153234,0.0180257,1056,393,2.64066,11.2705
-161,631,2.63721,-11.4032,0.0164368,-0.00275165,0.00276808,0.0168281,-0.00314298,0.140444,0.0123999,0.00901178,1063,393,2.63717,11.4032
-154,631,2.63306,-11.5366,0.0130285,-0.00361859,0.00226065,0.01333,-0.00392012,0.1326,0.0104416,0.00847299,1070,393,2.63311,11.5366
-147,631,2.62451,-11.642,0.00921497,-0.00332863,0.000369883,0.00922587,-0.00333953,0.0294537,0.00751529,0.00988392,1077,393,2.62448,11.642
-140,631,2.61328,-11.7724,0.00603052,-0.00245791,-0.000617563,0.00607521,-0.00250261,-0.0722465,0.00509358,0.00975659,1084,393,2.61327,11.7724
-133,631,2.59436,-11.8953,0.00429563,-0.00145756,-0.000406109,0.00432416,-0.00148609,-0.0701249,0.00348539,0.00851299,1091,393,2.59432,11.8953
-126,631,2.61206,-11.9722,0.00321061,-0.000555241,-8.37606e-05,0.00321247,-0.000557103,-0.0222275,0.00234947,0.0126227,1098,393,2.61209,11.9722
-119,631,2.60693,-12.0642,0.00219152,0.000458514,0.000145454,0.00220364,0.000446391,0.0831565,0.00134522,0.0165371,1105,393,2.60691,12.0642
-112,631,2.56482,-12.1722,0.00134361,0.00157896,0.000304722,0.00178794,0.00113463,0.969658,0.00104466,0.0148216,1112,393,2.56486,12.1722
-105,631,2.58313,-12.2833,0.000545043,0.00274894,0.000337326,0.00279942,0.000494568,1.42227,0.00172521,0.0179498,1119,393,2.58312,12.2833
-98,631,2.56213,-12.395,-0.000178084,0.0036288,0.000300193,0.00365233,-0.00020161,1.49259,0.0025048,0.0157584,1126,393,2.5621,12.395
-91,631,2.53516,-12.4934,-0.000452365,0.00420633,0.000151772,0.00421127,-0.000457304,1.53826,0.0029717,0.0179081,1133,393,2.53518,12.4934
-84,631,2.54309,-12.5558,-0.000958818,0.00443084,7.12012e-08,0.00443084,-0.000958818,1.57078,0.00331997,0.0166305,1140,393,2.54312,12.5558
-77,631,2.54651,-12.6228,-0.00116701,0.00428508,-6.5335e-05,0.00428587,-0.0011678,-1.55882,0.00331578,0.0102916,1147,393,2.54651,12.6228
-70,631,2.54956,-12.6995,-0.000727038,0.00409404,7.47247e-05,0.0040952,-0.000728195,1.5553,0.00300245,0.0108604,1154,393,2.54959,12.6995
-63,631,2.53638,-12.7849,-0.000413913,0.00378104,9.74668e-05,0.0037833,-0.000416176,1.54758,0.00267175,0.0112947,1161,393,2.53641,12.7849
-56,631,2.52637,-12.879,-0.00028143,0.00304498,7.8807e-05,0.00304685,-0.000283296,1.54712,0.00213195,0.0124626,1168,393,2.5264,12.879
-49,631,2.51636,-12.9144,-0.000163683,0.00223759,5.79582e-05,0.00223899,-0.000165081,1.54668,0.00155062,0.0102515,1175,393,2.51634,12.9144
-42,631,2.5199,-12.9589,-5.3369e-06,0.00140949,0.000110724,0.0014181,-1.39498e-05,1.49317,0.000950085,0.00827553,1182,393,2.51985,12.9589
-35,631,2.54077,-13.0081,0.000203204,0.000657107,0.000179896,0.000719757,0.000140553,1.23567,0.000440526,0.00930795,1189,393,2.54076,13.0081
-28,631,2.53088,-13.0485,0.000455503,-0.000113175,0.000326112,0.000603827,-0.000261499,0.42686,0.000512462,0.0116911,1196,393,2.53093,13.0485
-21,631,2.51062,-13.0808,0.000621558,-0.000498316,0.00038864,0.000743215,-0.000619973,0.30337,0.000788108,0.0113227,1203,393,2.51065,13.0808
-14,631,2.50525,-13.1257,0.000754663,-0.000753602,0.000396966,0.000852762,-0.000851701,0.242267,0.000984072,0.0136769,1210,393,2.50529,13.1257
-7,631,2.50146,-13.2262,0.000855316,-0.000937241,0.000317942,0.000910038,-0.000991963,0.170444,0.00109846,0.0198395,1217,393,2.50141,13.2262
0,631,2.50513,-13.2675,0.000959257,-0.00100927,0.000217729,0.000983051,-0.00103306,0.108852,0.00116412,0.0214676,1224,393,2.5051,13.2675
7,631,2.49048,-13.2443,0.00105048,-0.00104244,0.000131006,0.00105865,-0.00105061,0.0622706,0.00121779,0.0177954,1231,393,2.49044,13.2443
14,631,2.51172,-13.2484,0.00124224,-0.00110824,0.00010463,0.00124689,-0.00111288,0.0443972,0.00136315,0.0106934,1238,393,2.51171,13.2484
21,631,2.54822,-13.2801,0.00142955,-0.00107109,-2.0646e-05,0.00142972,-0.00107126,-0.00825554,0.00144887,0.0127767,1245,393,2.5482,13.2801
28,631,2.56665,-13.2864,0.00145231,-0.000931185,-0.000171815,0.00146463,-0.000943506,-0.0715919,0.00140115,0.0144079,1252,393,2.56669,13.2864
35,631,2.57141,-13.272,0.00150331,-0.000721388,-0.000254671,0.00153209,-0.000750169,-0.112535,0.00134319,0.0134218,1259,393,2.57141,13.272
42,631,2.58032,-13.2776,0.00168984,-0.000649857,-0.000381379,0.00175044,-0.000710454,-0.157571,0.00146248,0.011762,1266,393,2.58034,13.2776
49,631,2.56543,-13.2798,0.00167063,-0.000332909,-0.000504414,0.00179046,-0.000452734,-0.233231,0.00136972,0.0110507,1273,393,2.56542,13.2798
56,631,2.57141,-13.2801,0.00153359,-0.000193637,-0.000574983,0.00170749,-0.000367537,-0.293697,0.00127857,0.012429,1280,393,2.57139,13.2801
63,631,2.57715,-13.3011,0.0013544,-9.88742e-06,-0.000627095,0.00159884,-0.000254334,-0.371689,0.00116001,0.0130013,1287,393,2.57713,13.3011
70,631,2.57629,-13.2746,0.00107874,0.000206958,-0.00067711,0.00144813,-0.000162433,-0.499413,0.00102387,0.0136849,1294,393,2.57632,13.2746
77,631,2.58118,-13.2693,0.000810689,0.000419757,-0.000591351,0.00123804,-7.59581e-06,-0.62578,0.000827904,0.0149644,1301,393,2.58112,13.2693
84,631,2.58936,-13.2406,0.000540038,0.00047875,-0.000541309,0.00105157,-3.27812e-05,-0.757123,0.000712225,0.0120361,1308,393,2.58941,13.2406
91,631,2.59668,-13.1851,0.000153526,0.000259158,-0.000563834,0.000772644,-0.00035996,-0.832098,0.000668222,0.0146297,1315,393,2.59671,13.1851
98,631,2.59717,-13.1487,-0.000266997,-1.52841e-05,-0.000551868,0.000424897,-0.000707177,-0.897508,0.000660341,0.0134913,1322,393,2.59722,13.1487
105,631,2.58716,-13.1193,-0.000632519,-0.000488577,-0.000564895,8.91299e-06,-0.00113001,-0.84876,0.000756328,0.0108345,1329,393,2.58714,13.1193
112,631,2.59448,-13.0766,-0.000843795,-0.000963679,-0.000587416,-0.00031327,-0.0014942,-0.734552,0.00090987,0.0108918,1336,393,2.59444,13.0766
119,631,2.61084,-13.0436,-0.00105444,-0.00142626,-0.000677701,-0.000537609,-0.00194309,-0.651527,0.00115854,0.0114212,1343,393,2.61082,13.0436
126,631,2.61987,-12.9988,-0.00109281,-0.00194762,-0.000731323,-0.000673156,-0.00236727,-0.520954,0.00140848,0.0163466,1350,393,2.61981,12.9988
133,631,2.60791,-12.9215,-0.000938129,-0.00245639,-0.000829795,-0.000572609,-0.00282191,-0.414921,0.00172243,0.0176188,1357,393,2.60787,12.9215
140,631,2.59924,-12.8454,-0.000819241,-0.00283097,-0.000959346,-0.000435103,-0.00321511,-0.380866,0.0020141,0.018754,1364,393,2.59919,12.8454
147,631,2.5896,-12.7957,-0.000709689,-0.00291283,-0.00101024,-0.000316587,-0.00330594,-0.371089,0.00210637,0.0220325,1371,393,2.5896,12.7957
154,631,2.57996,-12.7512,-0.000456569,-0.00310276,-0.00100107,-0.000120534,-0.0034388,-0.323859,0.00225343,0.0214497,1378,393,2.57999,12.7512
161,631,2.61633,-12.6601,-0.000250653,-0.00297246,-0.00097208,6.08659e-05,-0.00328398,-0.310126,0.00220989,0.0238915,1385,393,2.61635,12.6601
168,631,2.6427,-12.5418,-9.90148e-05,-0.0026493,-0.000818291,0.000140962,-0.00288928,-0.285268,0.00197485,0.0275665,1392,393,2.64266,12.5418
175,631,2.65125,-12.4774,-6.00293e-05,-0.00222592,-0.000600833,9.54805e-05,-0.00238143,-0.253266,0.00162038,0.0196485,1399,393,2.6513,12.4774
182,631,2.61902,-12.4172,-7.62867e-05,-0.00176377,-0.000397697,1.27429e-05,-0.0018528,-0.220232,0.00123947,0.0108078,1406,393,2.61905,12.4172
189,631,2.6156,-12.3199,-0.000112436,-0.00129959,-7.72278e-05,-0.000107433,-0.00130459,-0.0646894,0.000836222,0.0110648,1413,393,2.61555,12.3199
196,631,2.63269,-12.2358,-0.000160516,-0.000949656,0.000229072,-9.88411e-05,-0.00101133,0.263002,0.000643808,0.0121944,1420,393,2.63266,12.2358
203,631,2.64429,-12.1314,-0.00031864,-0.000849893,0.00039357,-0.000109446,-0.00105909,0.488552,0.000672551,0.0142053,1427,393,2.64425,12.1314
210,631,2.62146,-12.0556,-0.000585362,-0.000646184,0.000576003,-3.89677e-05,-0.00119258,0.759024,0.000782386,0.0151908,1434,393,2.62151,12.0556
217,631,2.60681,-11.9722,-0.000886196,-0.000436464,0.000682912,5.76508e-05,-0.00138031,0.944445,0.000940014,0.0150883,1441,393,2.60679,11.9722
224,631,2.59692,-11.8429,-0.00109983,-0.000209193,0.000766114,0.000231626,-0.00154065,1.04866,0.00111237,0.0122264,1448,393,2.59688,11.8429
231,631,2.58313,-11.7041,-0.0012125,2.66323e-05,0.00088092,0.000484045,-0.00166991,1.09187,0.0013049,0.0111436,1455,393,2.5831,11.7041
238,631,2.57593,-11.5726,-0.00129605,0.000206383,0.000996367,0.000702993,-0.00179266,1.10841,0.00148595,0.016097,1462,393,2.57595,11.5726
245,631,2.59082,-11.4584,-0.00135846,0.000453542,0.00109627,0.000969736,-0.00187465,1.13073,0.00166968,0.0176303,1469,393,2.59081,11.4584
252,631,2.57361,-11.3467,-0.00134374,0.000817091,0.00123166,0.00137505,-0.00190171,1.14544,0.00189997,0.0174048,1476,393,2.57366,11.3467
259,631,2.54224,-11.2088,-0.00030963,0.00135013,-2.24107e-05,0.00135044,-0.000309933,-1.5573,0.00101943,0.012585,1483,393,2.54222,11.2088
266,631,2.55371,-11.0747,0.000800805,0.00224254,-0.000981339,0.00273932,0.00030402,-1.10218,0.00173378,0.0110498,1490,393,2.55377,11.0747
273,631,2.55701,-10.9308,0.00230946,0.00236847,-0.0019966,0.00433579,0.000342143,-0.792786,0.0027835,0.0131285,1497,393,2.55697,10.9308
280,631,2.54358,-10.806,0.00402063,0.00277976,-0.00325974,0.00671846,8.19303e-05,-0.691357,0.00445191,0.0126855,1504,393,2.54358,10.806
287,631,2.55383,-10.6302,0.00601447,0.00318933,-0.00485374,0.009657,-0.000453209,-0.643796,0.00659427,0.0144237,1511,393,2.55386,10.6302
294,631,2.53247,-10.426,0.008379,0.00370901,-0.00675879,0.0131948,-0.00110676,-0.619079,0.00918768,0.0177482,1518,393,2.53249,10.426
301,631,2.54004,-10.226,0.0110396,0.00417694,-0.00873728,0.0169952,-0.00177864,-0.598289,0.0119671,0.0276211,1525,393,2.54002,10.226
308,631,2.65576,-10.0697,0.0138069,0.00463918,-0.0105833,0.0207564,-0.00231033,-0.581034,0.0146685,0.0338594,1532,393,2.65579,10.0697
315,631,2.68201,-9.9501,0.0160925,0.00417551,-0.0123893,0.0238816,-0.00361362,-0.561256,0.0172522,0.0358114,1539,393,2.68203,9.95009
322,631,2.62439,-9.91568,0.0181235,0.00359716,-0.0137679,0.0264266,-0.00470591,-0.542679,0.0193778,0.0407276,1546,393,2.62445,9.9157
329,631,2.45569,-9.64151,0,0,0,0,0,0,0,-1,1553,393,2.45566,9.64149
336,631,2.30371,-9.32697,0,0,0,0,0,0,0,-1,1560,393,2.30366,9.32698
343,631,2.39612,-6.96481,0,0,0,0,0,0,0,-1,1567,393,2.39608,6.96482
350,631,2.1344,-9.23401,0,0,0,0,0,0,0,-1,1574,393,2.13439,9.23401
357,631,2.6449,-9.60303,0,0,0,0,0,0,0,-1,1581,393,2.64491,9.60304
364,631,3.39136,-5.7594,0,0,0,0,0,0,0,-1,1588,393,3.39137,5.75939
371,631,3.72839,-6.0574,0,0,0,0,0,0,0,-1,1595,393,3.72845,6.05742
378,631,4.06555,-6.35544,0,0,0,0,0,0,0,-1,1602,393,4.06553,6.35544
385,631,3.90442,-3.58298,0,0,0,0,0,0,0,-1,1609,393,3.90437,3.58299
392,631,0.352295,-2.21301,0,0,0,0,0,0,0,-1,1616,393,0.352345,2.213
399,631,0,0,0,0,0,0,0,0,0,-1,1623,393,0,0
406,631,0,0,0,0,0,0,0,0,0,-1,1630,393,0,0
413,631,0,0,0,0,0,0,0,0,0,-1,1637,393,0,0
420,631,0,0,0,0,0,0,0,0,0,-1,1644,393,0,0
427,631,0,0,0,0,0,0,0,0,0,-1,1651,393,0,0
434,631,0,0,0,0,0,0,0,0,0,-1,1658,393,0,0
441,631,0,0,0,0,0,0,0,0,0,-1,1665,393,0,0
448,631,0,0,0,0,0,0,0,0,0,-1,1672,393,0,0
455,631,0,0,0,0,0,0,0,0,0,-1,1679,393,0,0
462,631,0,0,0,0,0,0,0,0,0,-1,1686,393,0,0
469,631,0,0,0,0,0,0,0,0,0,-1,1693,393,0,0
476,631,0,0,0,0,0,0,0,0,0,-1,1700,393,0,0
483,631,0,0,0,0,0,0,0,0,0,-1,1707,393,0,0
490,631,0,0,0,0,0,0,0,0,0,-1,1714,393,0,0
497,631,0,0,0,0,0,0,0,0,0,-1,1721,393,0,0
504,631,0,0,0,0,0,0,0,0,0,-1,1728,393,0,0
511,631,0,0,0,0,0,0,0,0,0,-1,1735,393,0,0
518,631,0,0,0,0,0,0,0,0,0,-1,1742,393,0,0
525,631,0,0,0,0,0,0,0,0,0,-1,1749,393,0,0
532,631,0,0,0,0,0,0,0,0,0,-1,1756,393,0,0
539,631,0,0,0,0,0,0,0,0,0,-1,1763,393,0,0
546,631,0,0,0,0,0,0,0,0,0,-1,1770,393,0,0
553,631,0,0,0,0,0,0,0,0,0,-1,1777,393,0,0
560,631,0,0,0,0,0,0,0,0,0,-1,1784,393,0,0
567,631,0,0,0,0,0,0,0,0,0,-1,1791,393,0,0
574,631,0,0,0,0,0,0,0,0,0,-1,1798,393,0,0
581,631,0,0,0,0,0,0,0,0,0,-1,1805,393,0,0
588,631,0,0,0,0,0,0,0,0,0,-1,1812,393,0,0
595,631,0,0,0,0,0,0,0,0,0,-1,1819,393,0,0
602,631,0,0,0,0,0,0,0,0,0,-1,1826,393,0,0
609,631,0,0,0,0,0,0,0,0,0,-1,1833,393,0,0
616,631,0,0,0,0,0,0,0,0,0,-1,1840,393,0,0
623,631,0,0,0,0,0,0,0,0,0,-1,1847,393,0,0
630,631,0,0,0,0,0,0,0,0,0,-1,1854,393,0,0
637,631,0,0,0,0,0,0,0,0,0,-1,1861,393,0,0
644,631,0,0,0,0,0,0,0,0,0,-1,1868,393,0,0
651,631,0,0,0,0,0,0,0,0,0,-1,1875,393,0,0
658,631,0,0,0,0,0,0,0,0,0,-1,1882,393,0,0
665,631,0,0,0,0,0,0,0,0,0,-1,1889,393,0,0
672,631,0,0,0,0,0,0,0,0,0,-1,1896,393,0,0
679,631,0,0,0,0,0,0,0,0,0,-1,1903,393,0,0
686,631,0,0,0,0,0,0,0,0,0,-1,1910,393,0,0
693,631,0,0,0,0,0,0,0,0,0,-1,1917,393,0,0
700,631,0,0,0,0,0,0,0,0,0,-1,1924,393,0,0
707,631,0,0,0,0,0,0,0,0,0,-1,1931,393,0,0
714,631,0,0,0,0,0,0,0,0,0,-1,1938,393,0,0
721,631,0,0,0,0,0,0,0,0,0,-1,1945,393,0,0
728,631,0,0,0,0,0,0,0,0,0,-1,1952,393,0,0
735,631,0,0,0,0,0,0,0,0,0,-1,1959,393,0,0
742,631,0,0,0,0,0,0,0,0,0,-1,1966,393,0,0
749,631,0,0,0,0,0,0,0,0,0,-1,1973,393,0,0
756,631,0,0,0,0,0,0,0,0,0,-1,1980,393,0,0
763,631,0,0,0,0,0,0,0,0,0,-1,1987,393,0,0
770,631,0,0,0,0,0,0,0,0,0,-1,1994,393,0,0
777,631,0,0,0,0,0,0,0,0,0,-1,2001,393,0,0
784,631,0,0,0,0,0,0,0,0,0,-1,2008,393,0,0
791,631,0,0,0,0,0,0,0,0,0,-1,2015,393,0,0
798,631,0,0,0,0,0,0,0,0,0,-1,2022,393,0,0
805,631,0,0,0,0,0,0,0,0,0,-1,2029,393,0,0
812,631,0,0,0,0,0,0,0,0,0,-1,2036,393,0,0
-700,624,0,0,0,0,0,0,0,0,0,-1,524,400,0,0
-693,624,0,0,0,0,0,0,0,0,0,-1,531,400,0,0
-686,624,0,0,0,0,0,0,0,0,0,-1,538,400,0,0
-679,624,0,0,0,0,0,0,0,0,0,-1,545,400,0,0
-672,624,0,0,0,0,0,0,0,0,0,-1,552,400,0,0
-665,624,0,0,0,0,0,0,0,0,0,-1,559,400,0,0
-658,624,0,0,0,0,0,0,0,0,0,-1,566,400,0,0
-651,624,0,0,0,0,0,0,0,0,0,-1,573,400,0,0
-644,624,0,0,0,0,0,0,0,0,0,-1,580,400,0,0
-637,624,0,0,0,0,0,0,0,0,0,-1,587,400,0,0
-630,624,0,0,0,0,0,0,0,0,0,-1,594,400,0,0
-623,624,0,0,0,0,0,0,0,0,0,-1,601,400,0,0
-616,624,0,0,0,0,0,0,0,0,0,-1,608,400,0,0
-609,624,0,0,0,0,0,0,0,0,0,-1,615,400,0,0
-602,624,0,0,0,0,0,0,0,0,0,-1,622,400,0,0
-595,624,0,0,0,0,0,0,0,0,0,-1,629,400,0,0
-588,624,0,0,0,0,0,0,0,0,0,-1,636,400,0,0
-581,624,0,0,0,0,0,0,0,0,0,-1,643,400,0,0
-574,624,0,0,0,0,0,0,0,0,0,-1,650,400,0,0
-567,624,0,0,0,0,0,0,0,0,0,-1,657,400,0,0
-560,624,0,0,0,0,0,0,0,0,0,-1,664,400,0,0
-553,624,0,0,0,0,0,0,0,0,0,-1,671,400,0,0
-546,624,0,0,0,0,0,0,0,0,0,-1,678,400,0,0
-539,624,0,0,0,0,0,0,0,0,0,-1,685,400,0,0
-532,624,0,0,0,0,0,0,0,0,0,-1,692,400,0,0
-525,624,0,0,0,0,0,0,0,0,0,-1,699,400,0,0
-518,624,0,0,0,0,0,0,0,0,0,-1,706,400,0,0
-511,624,0,0,0,0,0,0,0,0,0,-1,713,400,0,0
-504,624,0,0,0,0,0,0,0,0,0,-1,720,400,0,0
-497,624,0,0,0,0,0,0,0,0,0,-1,727,400,0,0
-490,624,0,0,0,0,0,0,0,0,0,-1,734,400,0,0
-483,624,0,0,0,0,0,0,0,0,0,-1,741,400,0,0
-476,624,0,0,0,0,0,0,0,0,0,-1,748,400,0,0
-469,624,0,0,0,0,0,0,0,0,0,-1,755,400,0,0
-462,624,0,0,0,0,0,0,0,0,0,-1,762,400,0,0
-455,624,0,0,0,0,0,0,0,0,0,-1,769,400,0,0
-448,624,0,0,0,0,0,0,0,0,0,-1,776,400,0,0
-441,624,0,0,0,0,0,0,0,0,0,-1,783,400,0,0
-434,624,0,0,0,0,0,0,0,0,0,-1,790,400,0,0
-427,624,0,0,0,0,0,0,0,0,0,-1,797,400,0,0
-420,624,0,0,0,0,0,0,0,0,0,-1,804,400,0,0
-413,624,0,0,0,0,0,0,0,0,0,-1,811,400,0,0
-406,624,0,0,0,0,0,0,0,0,0,-1,818,400,0,0
-399,624,0,0,0,0,0,0,0,0,0,-1,825,400,0,0
-392,624,0,0,0,0,0,0,0,0,0,-1,832,400,0,0
-385,624,0,0,0,0,0,0,0,0,0,-1,839,400,0,0
-378,624,0,0,0,0,0,0,0,0,0,-1,846,400,0,0
-371,624,0,0,0,0,0,0,0,0,0,-1,853,400,0,0
-364,624,0,0,0,0,0,0,0,0,0,-1,860,400,0,0
-357,624,0,0,0,0,0,0,0,0,0,-1,867,400,0,0
-350,624,0,0,0,0,0,0,0,0,0,-1,874,400,0,0
-343,624,0,0,0,0,0,0,0,0,0,-1,881,400,0,0
-336,624,0,0,0,0,0,0,0,0,0,-1,888,400,0,0
-329,624,0,0,0,0,0,0,0,0,0,-1,895,400,0,0
-322,624,0,0,0,0,0,0,0,0,0,-1,902,400,0,0
-315,624,0,0,0,0,0,0,0,0,0,-1,909,400,0,0
-308,624,0,0,0,0,0,0,0,0,0,-1,916,400,0,0
-301,624,0,0,0,0,0,0,0,0,0,-1,923,400,0,0
-294,624,-0.912903,-12.9461,0,0,0,0,0,0,0,-1,930,400,-0.912926,12.9461
-287,624,-0.355164,-12.6199,0,0,0,0,0,0,0,-1,937,400,-0.355166,12.6199
-280,624,0.937683,-11.5193,0,0,0,0,0,0,0,-1,944,400,0.937667,11.5193
-273,624,1.08618,-9.31528,0,0,0,0,0,0,0,-1,951,400,1.0862,9.31527
-266,624,3.31458,-9.72238,0,0,0,0,0,0,0,-1,958,400,3.31455,9.72237
-259,624,3.50513,-9.36792,0,0,0,0,0,0,0,-1,965,400,3.50513,9.36791
-252,624,3.83813,-10.15,0,0,0,0,0,0,0,-1,972,400,3.83813,10.15
-245,624,3.42883,-8.59128,0,0,0,0,0,0,0,-1,979,400,3.42883,8.59127
-238,624,3.12366,-9.20386,0.00858341,0.0177008,-0.00104774,0.0178196,0.00846456,-1.45784,0.0102924,0.0461271,986,400,3.12368,9.20387
-231,624,2.73627,-9.97806,0.0129258,0.0171646,0.00181874,0.017838,0.0122524,1.21619,0.0105358,0.0491862,993,400,2.73628,9.97806
-224,624,2.82715,-10.028,0,0,0,0,0,0,0,-1,1000,400,2.82717,10.028
-217,624,2.79639,-10.1956,0,0,0,0,0,0,0,-1,1007,400,2.79637,10.1956
-210,624,2.71954,-10.3826,0.0217362,0.00991872,0.00824991,0.0259751,0.00567985,0.474633,0.0157682,0.0448263,1014,400,2.71954,10.3826
-203,624,2.75244,-10.5601,0.0222633,0.00738521,0.00853014,0.0261425,0.00350601,0.426809,0.0163852,0.0380432,1021,400,2.75245,10.5601
-196,624,2.71619,-10.5887,0.021951,0.00521665,0.00807709,0.0252135,0.00195416,0.38388,0.0161969,0.0363251,1028,400,2.71623,10.5887
-189,624,2.54968,-10.7988,0.0208691,0.00325373,0.00689245,0.0232454,0.000877442,0.332005,0.0152129,0.0342451,1035,400,2.54972,10.7988
-182,624,2.54077,-10.9431,0.019652,0.00180494,0.00610417,0.0215401,-8.31112e-05,0.299972,0.0143878,0.0288514,1042,400,2.54078,10.9431
-175,624,2.55164,-11.1285,0.0168656,0.000754336,0.00466543,0.0181191,-0.000499139,0.262474,0.0122492,0.0181192,1049,400,2.55165,11.1285
-168,624,2.56055,-11.2735,0.0133272,-7.23066e-05,0.00287456,0.0139178,-0.000662946,0.20265,0.00950724,0.0117632,1056,400,2.56051,11.2735
-161,624,2.5293,-11.4142,0.0103567,-0.000615197,0.00151906,0.0105631,-0.000821628,0.135067,0.0073313,0.0102611,1063,400,2.52931,11.4142
-154,624,2.50623,-11.5428,0.0079227,-0.0011057,0.00105431,0.00804419,-0.00122719,0.114721,0.00581518,0.00953624,1070,400,2.50627,11.5428
-147,624,2.50317,-11.6667,0.00521065,-0.000905462,-0.000314928,0.00522682,-0.000921635,-0.0513106,0.00382891,0.0107218,1077,400,2.50315,11.6667
-140,624,2.50098,-11.7776,0.00302389,-0.000322239,-0.0010122,0.00330625,-0.000604602,-0.272044,0.00243089,0.0103456,1084,400,2.50095,11.7776
-133,624,2.49353,-11.8771,0.00195851,0.000309966,-0.000824673,0.00230021,-3.17427e-05,-0.392821,0.00154417,0.0113149,1091,400,2.49347,11.8771
-126,624,2.50806,-11.9789,0.00142567,0.00085013,-0.000541618,0.00175122,0.000524581,-0.541204,0.0010378,0.013171,1098,400,2.508,11.9789
-119,624,2.49121,-12.0663,0.000931419,0.00148528,-0.000330407,0.00163946,0.000777235,-1.13419,0.000946968,0.0157272,1105,400,2.49119,12.0663
-112,624,2.47034,-12.1729,0.000570178,0.0021924,-0.000181419,0.00221244,0.000550136,-1.46077,0.00133006,0.0168229,1112,400,2.4703,12.1728
-105,624,2.48206,-12.2824,0.000243507,0.00292196,-0.000141238,0.00292939,0.00023608,-1.51826,0.00187918,0.0123293,1119,400,2.48202,12.2825
-98,624,2.45471,-12.3842,-4.66413e-05,0.00340906,-0.000179632,0.00341838,-5.59537e-05,-1.519,0.0022978,0.0134803,1126,400,2.45477,12.3842
-91,624,2.44165,-12.4776,-2.26628e-05,0.00366283,-0.000293789,0.00368611,-4.59352e-05,-1.49175,0.00247286,0.0192441,1133,400,2.44163,12.4776
-84,624,2.47583,-12.5506,-6.53215e-05,0.0035939,-0.000339238,0.00362509,-9.65057e-05,-1.47913,0.00244953,0.0173378,1140,400,2.47584,12.5506
-77,624,2.47913,-12.6376,7.73089e-06,0.00327877,-0.000309447,0.00330778,-2.1286e-05,-1.4773,0.00221232,0.0127211,1147,400,2.47919,12.6376
-70,624,2.46887,-12.718,0.000290211,0.00294284,-0.000190708,0.00295648,0.00027657,-1.49939,0.00188557,0.0133635,1154,400,2.46885,12.718
-63,624,2.46521,-12.7816,0.000556973,0.00257727,7.45754e-07,0.00257728,0.000556973,1.57043,0.0015659,0.0138483,1161,400,2.46519,12.7816
-56,624,2.47656,-12.8547,0.000775144,0.00217317,0.000160692,0.0021914,0.000756912,1.45782,0.00128521,0.0115602,1168,400,2.47654,12.8547
-49,624,2.47021,-12.9124,0.000922768,0.00169569,0.000330201,0.00181755,0.000800913,1.21727,0.00105182,0.00942246,1175,400,2.47017,12.9124
-42,624,2.47668,-12.9593,0.00102069,0.00115979,0.000538316,0.00163303,0.000547451,0.849641,0.000959743,0.00886624,1182,400,2.47665,12.9593
-35,624,2.49243,-13.0042,0.00104914,0.000722812,0.000709894,0.00161438,0.000157573,0.672438,0.00102776,0.0135775,1189,400,2.49241,13.0042
-28,624,2.46667,-13.0485,0.00116682,0.000160349,0.000962662,0.00174985,-0.000422677,0.544556,0.00133004,0.0176955,1196,400,2.46663,13.0485
-21,624,2.47131,-13.0865,0.0012472,-0.000275199,0.00112049,0.00184059,-0.00086859,0.487033,0.00159735,0.0136634,1203,400,2.47136,13.0865
-14,624,2.49377,-13.1248,0.00130063,-0.000454925,0.00113119,0.00185466,-0.00100896,0.45544,0.00167718,0.0158379,1210,400,2.49376,13.1247
-7,624,2.45032,-13.1481,0.00127619,-0.000865363,0.000992883,0.00166568,-0.00125485,0.373836,0.00169172,0.0198731,1217,400,2.45037,13.1481
0,624,2.46545,-13.199,0.00122394,-0.000984862,0.000835767,0.00150453,-0.00126545,0.323907,0.00160124,0.019943,1224,400,2.46543,13.199
7,624,2.46606,-13.2242,0.00112979,-0.00107403,0.000659922,0.00131228,-0.00125652,0.269802,0.00148322,0.0141163,1231,400,2.46606,13.2242
14,624,2.50549,-13.2551,0.00122976,-0.00127587,0.000548065,0.00134439,-0.00139051,0.206191,0.00157907,0.0116307,1238,400,2.50545,13.2551
21,624,2.53271,-13.2771,0.00138097,-0.00139462,0.000303644,0.0014138,-0.00142745,0.107701,0.0016404,0.012651,1245,400,2.53273,13.2771
28,624,2.54407,-13.2919,0.00137965,-0.00136264,3.18863e-05,0.00138003,-0.00136301,0.0116255,0.0015837,0.0117176,1252,400,2.54406,13.2919
35,624,2.54211,-13.2856,0.0014635,-0.00122852,-0.000138688,0.00147063,-0.00123565,-0.0513369,0.00156443,0.0138931,1259,400,2.54214,13.2855
42,624,2.54407,-13.2852,0.00169238,-0.00130371,-0.000421611,0.00175058,-0.00136191,-0.137172,0.00180166,0.0162645,1266,400,2.54404,13.2852
49,624,2.57336,-13.2792,0.00170972,-0.000868735,-0.000517422,0.00180967,-0.000968692,-0.190832,0.0016284,0.0182433,1273,400,2.57342,13.2792
56,624,2.58313,-13.293,0.00162556,-0.000673688,-0.00049608,0.00172803,-0.000776154,-0.203688,0.0014802,0.0173065,1280,400,2.58307,13.293
63,624,2.60291,-13.2852,0.00159385,-0.000385831,-0.000522334,0.00172321,-0.000515194,-0.242779,0.00135362,0.01273,1287,400,2.60288,13.2852
70,624,2.58911,-13.2757,0.00149515,3.24997e-05,-0.000510959,0.00165597,-0.000128316,-0.304918,0.00114914,0.0115236,1294,400,2.58908,13.2757
77,624,2.58899,-13.2575,0.00137097,0.000453964,-0.000326638,0.00147542,0.000349513,-0.3095,0.000890282,0.0125763,1301,400,2.58897,13.2576
84,624,2.60828,-13.2361,0.00122647,0.000799785,-0.000189427,0.00129843,0.000727824,-0.363046,0.000751477,0.0112937,1308,400,2.60825,13.2361
91,624,2.62036,-13.197,0.000786252,0.000570793,-0.000203975,0.000909198,0.000447847,-0.542442,0.000524945,0.0118516,1315,400,2.6203,13.197
98,624,2.62756,-13.1618,0.000263812,0.000278598,-0.000249081,0.000520396,2.20143e-05,-0.800234,0.00033983,0.0125652,1322,400,2.62761,13.1618
105,624,2.63574,-13.1356,-0.000253642,-0.000543836,-0.00044888,7.30098e-05,-0.000870487,-0.629078,0.000606129,0.0137433,1329,400,2.63569,13.1356
112,624,2.65295,-13.0884,-0.000588488,-0.00135912,-0.000659026,-0.000210401,-0.0017372,-0.520862,0.00109476,0.0136567,1336,400,2.65298,13.0884
119,624,2.66333,-13.0253,-0.00105073,-0.00219719,-0.00103236,-0.00044313,-0.00280479,-0.531962,0.00174105,0.0139243,1343,400,2.66333,13.0253
126,624,2.67993,-12.9642,-0.00137663,-0.00319614,-0.00141061,-0.000607855,-0.00396491,-0.498993,0.00246576,0.0176939,1350,400,2.67991,12.9642
133,624,2.68494,-12.886,-0.00148304,-0.00427419,-0.00185553,-0.000556838,-0.00520039,-0.462971,0.00329702,0.0182378,1357,400,2.68491,12.8861
140,624,2.67249,-12.838,-0.00161901,-0.00519916,-0.00233283,-0.000468599,-0.00634957,-0.458144,0.00408581,0.0176234,1364,400,2.67247,12.838
147,624,2.64014,-12.7861,-0.00169176,-0.00562681,-0.00260194,-0.000397189,-0.00692138,-0.461678,0.00448772,0.0210419,1371,400,2.6401,12.7861
154,624,2.61975,-12.7513,-0.00149734,-0.00623222,-0.00285113,-0.000158873,-0.00757069,-0.43891,0.00499501,0.0234004,1378,400,2.61977,12.7513
161,624,2.68762,-12.6462,-0.00124716,-0.00602798,-0.00294347,0.000154271,-0.00742941,-0.444358,0.00500516,0.0226194,1385,400,2.68763,12.6462
168,624,2.72095,-12.5277,-0.00105661,-0.00543685,-0.00265926,0.000198307,-0.00669177,-0.44092,0.00452873,0.0223073,1392,400,2.72094,12.5277
175,624,2.72205,-12.4742,-0.00089273,-0.00473927,-0.00228715,0.000172311,-0.00580431,-0.435803,0.00392824,0.0171579,1399,400,2.7221,12.4742
182,624,2.71887,-12.423,-0.000789973,-0.0038237,-0.00197144,0.000180622,-0.0047943,-0.457491,0.00325807,0.0109803,1406,400,2.71888,12.423
189,624,2.71545,-12.3321,-0.000652908,-0.00279998,-0.00141829,5.2328e-05,-0.00350522,-0.46144,0.00235445,0.0109702,1413,400,2.71542,12.3321
196,624,2.72253,-12.2601,-0.000295221,-0.00162036,-0.000757897,4.8891e-05,-0.00196447,-0.426204,0.00132624,0.0113972,1420,400,2.72255,12.2601
203,624,2.73926,-12.1667,-0.000106676,-0.000738568,-0.00030736,1.81634e-05,-0.000863408,-0.385812,0.000581754,0.0133036,1427,400,2.73922,12.1667
210,624,2.72937,-12.0688,-0.000161551,-9.94199e-05,7.32417e-05,-5.09279e-05,-0.000210043,0.985975,0.000126517,0.0160715,1434,400,2.72934,12.0688
217,624,2.71558,-11.9485,-0.000437272,0.000187329,0.000245081,0.000272013,-0.000521956,1.23811,0.000465908,0.0182936,1441,400,2.71558,11.9484
224,624,2.71533,-11.8271,-0.000621014,0.000412109,0.000401433,0.000549752,-0.000758658,1.24048,0.000758614,0.0148536,1448,400,2.71539,11.8271
231,624,2.69849,-11.7211,-0.000713982,0.000629509,0.000582026,0.000846581,-0.000931054,1.21382,0.0010267,0.0118401,1455,400,2.69846,11.7211
238,624,2.67749,-11.6042,-0.000753671,0.000800569,0.000745348,0.00110023,-0.00105333,1.18853,0.00124346,0.0165402,1462,400,2.67745,11.6043
245,624,2.68958,-11.4865,-0.000778394,0.00101156,0.000876221,0.00136908,-0.00113591,1.18339,0.00144835,0.017444,1469,400,2.6896,11.4865
252,624,2.69751,-11.3487,-0.000755317,0.00129385,0.00101798,0.00171358,-0.00117505,1.17971,0.00167739,0.0130909,1476,400,2.69749,11.3487
259,624,2.67908,-11.2135,-0.000111055,0.00166365,0.000323023,0.00172061,-0.000168022,1.39624,0.00120699,0.00890764,1483,400,2.67906,11.2135
266,624,2.6886,-11.0772,0.000618004,0.00227098,-0.000245382,0.00230664,0.000582346,-1.42649,0.00138507,0.0124658,1490,400,2.68854,11.0772
273,624,2.69604,-10.9326,0.00159996,0.00233421,-0.000822424,0.00286773,0.00106644,-0.995323,0.0016737,0.0165853,1497,400,2.69609,10.9326
280,624,2.67664,-10.8133,0.00269614,0.00255835,-0.0015224,0.00415121,0.00110329,-0.762787,0.00248281,0.0158214,1504,400,2.67668,10.8133
287,624,2.64502,-10.667,0.00397011,0.00278315,-0.00241985,0.0058682,0.00088506,-0.665144,0.00365303,0.0111871,1511,400,2.64499,10.667
294,624,2.64063,-10.483,0.00546113,0.00308793,-0.00350026,0.00797045,0.00057861,-0.621975,0.00513165,0.00853509,1518,400,2.64062,10.483
301,624,2.63684,-10.3344,0.00708962,0.00329998,-0.00460513,0.0101745,0.000215084,-0.590226,0.00671246,0.0101664,1525,400,2.63682,10.3345
308,624,2.65125,-10.1665,0.00877005,0.00352575,-0.00558863,0.0123211,-2.53012e-05,-0.566048,0.00822252,0.0140031,1532,400,2.65129,10.1665
315,624,2.64526,-9.99103,0.0101333,0.00317401,-0.00654658,0.0140675,-0.000760235,-0.541126,0.00964176,0.0162953,1539,400,2.64528,9.99103
322,624,2.61572,-9.87271,0.0112858,0.00277754,-0.00721026,0.0154034,-0.00134003,-0.518876,0.0107435,0.0231039,1546,400,2.61574,9.8727
329,624,2.71191,-9.73697,0.0121308,0.00241001,-0.00754977,0.0162494,-0.00170859,-0.499402,0.0114451,0.0378788,1553,400,2.71191,9.73696
336,624,2.81335,-9.45657,0,0,0,0,0,0,0,-1,1560,400,2.81339,9.45659
343,624,2.4281,-8.51022,0,0,0,0,0,0,0,-1,1567,400,2.42807,8.51023
350,624,1.99194,-7.29742,0,0,0,0,0,0,0,-1,1574,400,1.99198,7.29741
357,624,2.64075,-3.13092,0,0,0,0,0,0,0,-1,1581,400,2.64076,3.13091
364,624,3.16565,-4.9458,0,0,0,0,0,0,0,-1,1588,400,3.16564,4.94579
371,624,3.37561,-5.23529,0,0,0,0,0,0,0,-1,1595,400,3.37563,5.23529
378,624,1.50439,-5.22165,0,0,0,0,0,0,0,-1,1602,400,1.50438,5.22164
385,624,0.724731,-2.43875,0,0,0,0,0,0,0,-1,1609,400,0.724746,2.43875
392,624,4.26819,-5.14236,0,0,0,0,0,0,0,-1,1616,400,4.26818,5.14236
399,624,3.86841,-2.36917,0,0,0,0,0,0,0,-1,1623,400,3.86838,2.36916
406,624,4.35376,-2.6962,0,0,0,0,0,0,0,-1,1630,400,4.35373,2.69619
413,624,0,0,0,0,0,0,0,0,0,-1,1637,400,0,0
420,624,0,0,0,0,0,0,0,0,0,-1,1644,400,0,0
427,624,0,0,0,0,0,0,0,0,0,-1,1651,400,0,0
434,624,0,0,0,0,0,0,0,0,0,-1,1658,400,0,0
441,624,0,0,0,0,0,0,0,0,0,-1,1665,400,0,0
448,624,0,0,0,0,0,0,0,0,0,-1,1672,400,0,0
455,624,0,0,0,0,0,0,0,0,0,-1,1679,400,0,0
462,624,0,0,0,0,0,0,0,0,0,-1,1686,400,0,0
469,624,0,0,0,0,0,0,0,0,0,-1,1693,400,0,0
476,624,0,0,0,0,0,0,0,0,0,-1,1700,400,0,0
483,624,0,0,0,0,0,0,0,0,0,-1,1707,400,0,0
490,624,0,0,0,0,0,0,0,0,0,-1,1714,400,0,0
497,624,0,0,0,0,0,0,0,0,0,-1,1721,400,0,0
504,624,0,0,0,0,0,0,0,0,0,-1,1728,400,0,0
511,624,0,0,0,0,0,0,0,0,0,-1,1735,400,0,0
518,624,0,0,0,0,0,0,0,0,0,-1,1742,400,0,0
525,624,0,0,0,0,0,0,0,0,0,-1,1749,400,0,0
532,624,0,0,0,0,0,0,0,0,0,-1,1756,400,0,0
539,624,0,0,0,0,0,0,0,0,0,-1,1763,400,0,0
546,624,0,0,0,0,0,0,0,0,0,-1,1770,400,0,0
553,624,0,0,0,0,0,0,0,0,0,-1,1777,400,0,0
560,624,0,0,0,0,0,0,0,0,0,-1,1784,400,0,0
567,624,0,0,0,0,0,0,0,0,0,-1,1791,400,0,0
574,624,0,0,0,0,0,0,0,0,0,-1,1798,400,0,0
581,624,0,0,0,0,0,0,0,0,0,-1,1805,400,0,0
588,624,0,0,0,0,0,0,0,0,0,-1,1812,400,0,0
595,624,0,0,0,0,0,0,0,0,0,-1,1819,400,0,0
602,624,0,0,0,0,0,0,0,0,0,-1,1826,400,0,0
609,624,0,0,0,0,0,0,0,0,0,-1,1833,400,0,0
616,624,0,0,0,0,0,0,0,0,0,-1,1840,400,0,0
623,624,0,0,0,0,0,0,0,0,0,-1,1847,400,0,0
630,624,0,0,0,0,0,0,0,0,0,-1,1854,400,0,0
637,624,0,0,0,0,0,0,0,0,0,-1,1861,400,0,0
644,624,0,0,0,0,0,0,0,0,0,-1,1868,400,0,0
651,624,0,0,0,0,0,0,0,0,0,-1,1875,400,0,0
658,624,0,0,0,0,0,0,0,0,0,-1,1882,400,0,0
665,624,0,0,0,0,0,0,0,0,0,-1,1889,400,0,0
672,624,0,0,0,0,0,0,0,0,0,-1,1896,400,0,0
679,624,0,0,0,0,0,0,0,0,0,-1,1903,400,0,0
686,624,0,0,0,0,0,0,0,0,0,-1,1910,400,0,0
693,624,0,0,0,0,0,0,0,0,0,-1,1917,400,0,0
700,624,0,0,0,0,0,0,0,0,0,-1,1924,400,0,0
707,624,0,0,0,0,0,0,0,0,0,-1,1931,400,0,0
714,624,0,0,0,0,0,0,0,0,0,-1,1938,400,0,0
721,624,0,0,0,0,0,0,0,0,0,-1,1945,400,0,0
728,624,0,0,0,0,0,0,0,0,0,-1,1952,400,0,0
735,624,0,0,0,0,0,0,0,0,0,-1,1959,400,0,0
742,624,0,0,0,0,0,0,0,0,0,-1,1966,400,0,0
749,624,0,0,0,0,0,0,0,0,0,-1,1973,400,0,0
756,624,0,0,0,0,0,0,0,0,0,-1,1980,400,0,0
763,624,0,0,0,0,0,0,0,0,0,-1,1987,400,0,0
770,624,0,0,0,0,0,0,0,0,0,-1,1994,400,0,0
777,624,0,0,0,0,0,0,0,0,0,-1,2001,400,0,0
784,624,0,0,0,0,0,0,0,0,0,-1,2008,400,0,0
791,624,0,0,0,0,0,0,0,0,0,-1,2015,400,0,0
798,624,0,0,0,0,0,0,0,0,0,-1,2022,400,0,0
805,624,0,0,0,0,0,0,0,0,0,-1,2029,400,0,0
812,624,0,0,0,0,0,0,0,0,0,-1,2036,400,0,0
-700,617,0,0,0,0,0,0,0,0,0,-1,524,407,0,0
-693,617,0,0,0,0,0,0,0,0,0,-1,531,407,0,0
-686,617,0,0,0,0,0,0,0,0,0,-1,538,407,0,0
-679,617,0,0,0,0,0,0,0,0,0,-1,545,407,0,0
-672,617,0,0,0,0,0,0,0,0,0,-1,552,407,0,0
-665,617,0,0,0,0,0,0,0,0,0,-1,559,407,0,0
-658,617,0,0,0,0,0,0,0,0,0,-1,566,407,0,0
-651,617,0,0,0,0,0,0,0,0,0,-1,573,407,0,0
-644,617,0,0,0,0,0,0,0,0,0,-1,580,407,0,0
-637,617,0,0,0,0,0,0,0,0,0,-1,587,407,0,0
-630,617,0,0,0,0,0,0,0,0,0,-1,594,407,0,0
-623,617,0,0,0,0,0,0,0,0,0,-1,601,407,0,0
-616,617,0,0,0,0,0,0,0,0,0,-1,608,407,0,0
-609,617,0,0,0,0,0,0,0,0,0,-1,615,407,0,0
-602,617,0,0,0,0,0,0,0,0,0,-1,622,407,0,0
-595,617,0,0,0,0,0,0,0,0,0,-1,629,407,0,0
-588,617,0,0,0,0,0,0,0,0,0,-1,636,407,0,0
-581,617,0,0,0,0,0,0,0,0,0,-1,643,407,0,0
-574,617,0,0,0,0,0,0,0,0,0,-1,650,407,0,0
-567,617,0,0,0,0,0,0,0,0,0,-1,657,407,0,0
-560,617,0,0,0,0,0,0,0,0,0,-1,664,407,0,0
-553,617,0,0,0,0,0,0,0,0,0,-1,671,407,0,0
-546,617,0,0,0,0,0,0,0,0,0,-1,678,407,0,0
-539,617,0,0,0,0,0,0,0,0,0,-1,685,407,0,0
-532,617,0,0,0,0,0,0,0,0,0,-1,692,407,0,0
-525,617,0,0,0,0,0,0,0,0,0,-1,699,407,0,0
-518,617,0,0,0,0,0,0,0,0,0,-1,706,407,0,0
-511,617,0,0,0,0,0,0,0,0,0,-1,713,407,0,0
-504,617,0,0,0,0,0,0,0,0,0,-1,720,407,0,0
-497,617,0,0,0,0,0,0,0,0,0,-1,727,407,0,0
-490,617,0,0,0,0,0,0,0,0,0,-1,734,407,0,0
-483,617,0,0,0,0,0,0,0,0,0,-1,741,407,0,0
-476,617,0,0,0,0,0,0,0,0,0,-1,748,407,0,0
-469,617,0,0,0,0,0,0,0,0,0,-1,755,407,0,0
-462,617,0,0,0,0,0,0,0,0,0,-1,762,407,0,0
-455,617,0,0,0,0,0,0,0,0,0,-1,769,407,0,0
-448,617,0,0,0,0,0,0,0,0,0,-1,776,407,0,0
-441,617,0,0,0,0,0,0,0,0,0,-1,783,407,0,0
-434,617,0,0,0,0,0,0,0,0,0,-1,790,407,0,0
-427,617,0,0,0,0,0,0,0,0,0,-1,797,407,0,0
-420,617,0,0,0,0,0,0,0,0,0,-1,804,407,0,0
-413,617,0,0,0,0,0,0,0,0,0,-1,811,407,0,0
-406,617,0,0,0,0,0,0,0,0,0,-1,818,407,0,0
-399,617,0,0,0,0,0,0,0,0,0,-1,825,407,0,0
-392,617,0,0,0,0,0,0,0,0,0,-1,832,407,0,0
-385,617,0,0,0,0,0,0,0,0,0,-1,839,407,0,0
-378,617,0,0,0,0,0,0,0,0,0,-1,846,407,0,0
-371,617,0,0,0,0,0,0,0,0,0,-1,853,407,0,0
-364,617,0,0,0,0,0,0,0,0,0,-1,860,407,0,0
-357,617,0,0,0,0,0,0,0,0,0,-1,867,407,0,0
-350,617,0,0,0,0,0,0,0,0,0,-1,874,407,0,0
-343,617,0,0,0,0,0,0,0,0,0,-1,881,407,0,0
-336,617,0,0,0,0,0,0,0,0,0,-1,888,407,0,0
-329,617,0,0,0,0,0,0,0,0,0,-1,895,407,0,0
-322,617,0,0,0,0,0,0,0,0,0,-1,902,407,0,0
-315,617,0,0,0,0,0,0,0,0,0,-1,909,407,0,0
-308,617,0,0,0,0,0,0,0,0,0,-1,916,407,0,0
-301,617,-1.61346,-11.4687,0,0,0,0,0,0,0,-1,923,407,-1.61344,11.4687
-294,617,-0.867493,-11.1655,0,0,0,0,0,0,0,-1,930,407,-0.867487,11.1655
-287,617,-0.212524,-10.7744,0,0,0,0,0,0,0,-1,937,407,-0.212541,10.7743
-280,617,0.457703,-10.3054,0,0,0,0,0,0,0,-1,944,407,0.457708,10.3054
-273,617,0.775146,-9.85422,0,0,0,0,0,0,0,-1,951,407,0.775126,9.85422
-266,617,2.62701,-9.14188,0,0,0,0,0,0,0,-1,958,407,2.62703,9.14188
-259,617,2.94244,-9.05209,-0.0126356,0.00463397,-0.00762789,0.00752065,-0.0155223,-1.20902,0.0135686,0.0438904,965,407,2.94247,9.0521
-252,617,3.24207,-9.78464,0,0,0,0,0,0,0,-1,972,407,3.24205,9.78463
-245,617,3.45905,-8.97586,0,0,0,0,0,0,0,-1,979,407,3.45902,8.97587
-238,617,3.11493,-9.40189,0.0027792,0.0125935,-0.000371005,0.0126075,0.00276519,-1.53307,0.00765165,0.0471944,986,407,3.11491,9.40188
-231,617,2.59821,-10.0793,0.00580785,0.0125186,0.0012658,0.0127494,0.00557703,1.39043,0.00738004,0.0475566,993,407,2.59819,10.0793
-224,617,2.56317,-10.0702,0.00882253,0.0110098,0.00328367,0.0133772,0.00645517,0.946148,0.00772488,0.0455366,1000,407,2.56316,10.0702
-217,617,2.62518,-10.0906,0.0110539,0.0093288,0.00475911,0.015028,0.00535469,0.695753,0.00879501,0.0370253,1007,407,2.6252,10.0906
-210,617,2.53876,-10.4169,0.0127333,0.00738233,0.00559231,0.0162572,0.00385845,0.56228,0.0098083,0.0238826,1014,407,2.53875,10.4169
-203,617,2.53094,-10.5638,0.0134257,0.00556844,0.00585456,0.0165476,0.00244654,0.489887,0.0103134,0.0181723,1021,407,2.53093,10.5638
-196,617,2.49011,-10.7076,0.0135646,0.00405344,0.00553282,0.0161047,0.0015133,0.4304,0.0102693,0.0157472,1028,407,2.49009,10.7076
-189,617,2.44458,-10.8619,0.0130493,0.00274219,0.00458415,0.0147931,0.000998395,0.363494,0.00954671,0.0131342,1035,407,2.44464,10.8619
-182,617,2.42224,-11.002,0.0125906,0.00178875,0.00407664,0.0139564,0.00042292,0.323285,0.00916657,0.0138353,1042,407,2.42223,11.002
-175,617,2.44531,-11.1353,0.0110789,0.00124633,0.00314063,0.0119965,0.000328799,0.284238,0.00789033,0.0123276,1049,407,2.44533,11.1352
-168,617,2.43811,-11.2874,0.00886742,0.000818794,0.00183385,0.00926557,0.000420652,0.213789,0.00604171,0.00973512,1056,407,2.43816,11.2874
-161,617,2.40576,-11.4308,0.00690892,0.000487426,0.000835875,0.00701594,0.000380405,0.127342,0.00455579,0.0113462,1063,407,2.40578,11.4307
-154,617,2.38647,-11.5526,0.00530828,0.000252623,0.00044672,0.00534745,0.000213454,0.0874576,0.00349599,0.0113435,1070,407,2.38643,11.5526
-147,617,2.39221,-11.6692,0.00350583,0.000412744,-0.000501257,0.00358503,0.00033354,-0.156715,0.00228696,0.0149443,1077,407,2.39225,11.6692
-140,617,2.39026,-11.7928,0.00211608,0.000793171,-0.000963686,0.00262348,0.000285774,-0.484636,0.00166194,0.0119384,1084,407,2.39022,11.7928
-133,617,2.38232,-11.8991,0.00149757,0.00117207,-0.000825749,0.00217646,0.00049319,-0.688099,0.00131771,0.0139087,1091,407,2.3823,11.8991
-126,617,2.39319,-11.9892,0.00125785,0.00146034,-0.000616604,0.00198396,0.000734236,-0.86677,0.00115825,0.0132868,1098,407,2.39315,11.9892
-119,617,2.35876,-12.0874,0.00103561,0.00180764,-0.000468694,0.00202882,0.000814436,-1.12988,0.0011789,0.0132604,1105,407,2.3588,12.0874
-112,617,2.35815,-12.1929,0.000903396,0.00218069,-0.000380466,0.00228543,0.000798656,-1.30216,0.00133928,0.0144428,1112,407,2.35811,12.1929
-105,617,2.35559,-12.2856,0.000787663,0.00254786,-0.00038339,0.00262774,0.000707782,-1.36538,0.00157001,0.0158098,1119,407,2.35564,12.2856
-98,617,2.36951,-12.3839,0.000700435,0.00272829,-0.000473203,0.00283328,0.000595448,-1.35247,0.00172497,0.0133985,1126,407,2.36946,12.3839
-91,617,2.37085,-12.4852,0.000813443,0.00277068,-0.000610114,0.00294529,0.000638834,-1.29206,0.00178901,0.0181553,1133,407,2.37085,12.4852
-84,617,2.39441,-12.5711,0.000931218,0.00257039,-0.000622414,0.00277994,0.000721668,-1.24604,0.00166569,0.0175509,1140,407,2.39439,12.5711
-77,617,2.39026,-12.6476,0.00107107,0.00226054,-0.00055216,0.00247735,0.000854273,-1.19665,0.00145307,0.0136317,1147,407,2.3902,12.6476
-70,617,2.38513,-12.729,0.00128351,0.00190739,-0.000428885,0.00212578,0.00106512,-1.09982,0.00122732,0.0144354,1154,407,2.38516,12.729
-63,617,2.39185,-12.7986,0.0017905,0.00183164,4.40965e-05,0.00185973,0.00176241,1.00365,0.00120869,0.0159583,1161,407,2.39188,12.7985
-56,617,2.41187,-12.8573,0.00236546,0.00195491,0.000429937,0.00263661,0.00168376,0.562675,0.00154162,0.0118193,1168,407,2.41188,12.8573
-49,617,2.4187,-12.9032,0.002733,0.00186104,0.0008253,0.0032304,0.00136364,0.542395,0.0018726,0.00914181,1175,407,2.41875,12.9032
-42,617,2.43701,-12.9744,0.00277896,0.00160551,0.00126166,0.00358365,0.000800823,0.567753,0.00217194,0.0112422,1182,407,2.43699,12.9744
-35,617,2.45239,-13.0205,0.00254876,0.00142985,0.00157802,0.00366356,0.000315051,0.615045,0.00234442,0.0162005,1189,407,2.45242,13.0205
-28,617,2.43225,-13.0492,0.00253204,0.000991473,0.00198616,0.00389205,-0.000368537,0.600414,0.00272586,0.0174569,1196,407,2.43222,13.0492
-21,617,2.45435,-13.0887,0.0024651,0.000487202,0.002305,0.00398435,-0.00103205,0.582753,0.00305885,0.0128091,1203,407,2.45432,13.0887
-14,617,2.46436,-13.1106,0.00235441,0.000357521,0.00238321,0.00393987,-0.00122794,0.58703,0.00311757,0.0156706,1210,407,2.46441,13.1106
-7,617,2.42017,-13.1329,0.00226557,-0.000373431,0.00222492,0.00353283,-0.0016407,0.51775,0.0030528,0.019201,1217,407,2.42016,13.1329
0,617,2.45081,-13.16,0.00215595,-0.000546861,0.00192073,0.00315305,-0.00154396,0.478832,0.00276436,0.0163866,1224,407,2.45079,13.16
7,617,2.48169,-13.2155,0.00187866,-0.000671736,0.00163855,0.00267975,-0.00147283,0.45473,0.00243101,0.0106028,1231,407,2.48172,13.2156
14,617,2.47498,-13.2416,0.0018623,-0.000952817,0.0014313,0.00246219,-0.0015527,0.39688,0.00233774,0.011591,1238,407,2.47492,13.2416
21,617,2.49402,-13.2637,0.00201491,-0.00115655,0.00106797,0.00234101,-0.00148265,0.296354,0.00222606,0.0112714,1245,407,2.49398,13.2637
28,617,2.50293,-13.2963,0.00210341,-0.00116602,0.000683288,0.00224047,-0.00130308,0.197957,0.00206959,0.0100469,1252,407,2.50291,13.2963
35,617,2.49121,-13.2993,0.00225555,-0.0010131,0.000388585,0.00230111,-0.00105866,0.116715,0.00198348,0.0122474,1259,407,2.49122,13.2993
42,617,2.52246,-13.2878,0.00252039,-0.0011612,-7.96602e-05,0.00252211,-0.00116293,-0.0216239,0.00217526,0.019367,1266,407,2.52244,13.2878
49,617,2.56836,-13.2777,0.00253082,-0.00067214,-0.000229448,0.00254717,-0.000688493,-0.071152,0.00196817,0.0202893,1273,407,2.56832,13.2777
56,617,2.5813,-13.2781,0.00261291,-0.000413916,-0.000232903,0.00263073,-0.000431733,-0.0763471,0.00191403,0.0142304,1280,407,2.58125,13.2781
63,617,2.60767,-13.2805,0.00271154,-5.3165e-05,-0.000323704,0.00274893,-9.05601e-05,-0.115012,0.00186354,0.00959105,1287,407,2.60771,13.2805
70,617,2.59155,-13.2742,0.00271799,0.000469894,-0.000354796,0.00277265,0.000415229,-0.152872,0.00172675,0.0142155,1294,407,2.59159,13.2742
77,617,2.62292,-13.2453,0.00263194,0.000975616,-0.000163206,0.00264787,0.000959688,-0.0972882,0.00154791,0.0132127,1301,407,2.6229,13.2453
84,617,2.6366,-13.2181,0.00253303,0.00143365,-6.01199e-05,0.00253631,0.00143037,-0.0544688,0.00146832,0.0105815,1308,407,2.63658,13.2181
91,617,2.64954,-13.1909,0.00196722,0.00102248,-0.00017432,0.00199836,0.000991344,-0.176764,0.00115377,0.0101221,1315,407,2.64956,13.1909
98,617,2.66418,-13.1727,0.00105655,0.000381764,-0.000473509,0.00130057,0.00013774,-0.475854,0.000824975,0.0113141,1322,407,2.66419,13.1727
105,617,2.68347,-13.1393,8.77255e-05,-0.00119888,-0.000992059,0.000626801,-0.00173796,-0.497755,0.00141464,0.0129855,1329,407,2.68353,13.1393
112,617,2.69849,-13.079,-0.00049921,-0.0026907,-0.00155791,0.000309705,-0.00349961,-0.478915,0.00244286,0.0159479,1336,407,2.69843,13.079
119,617,2.70154,-13.0197,-0.00137202,-0.00424405,-0.00239796,-1.29784e-05,-0.00560309,-0.515612,0.00373108,0.0189474,1343,407,2.70159,13.0197
126,617,2.69226,-12.9753,-0.00224084,-0.00605757,-0.00327552,-0.000358307,-0.00794009,-0.521629,0.00517809,0.0215435,1350,407,2.69224,12.9753
133,617,2.70276,-12.9088,-0.00293292,-0.0080373,-0.00424135,-0.000535091,-0.0104351,-0.514549,0.00678543,0.0181256,1357,407,2.70272,12.9088
140,617,2.75745,-12.8794,-0.00355164,-0.00984728,-0.00518358,-0.000634954,-0.012764,-0.512525,0.00830576,0.0152996,1364,407,2.75747,12.8794
147,617,2.73315,-12.8112,-0.0040227,-0.0108535,-0.00577971,-0.000724685,-0.0141515,-0.518536,0.0092023,0.0182747,1371,407,2.73313,12.8112
154,617,2.72266,-12.7593,-0.00404095,-0.0120827,-0.00637564,-0.000524166,-0.0155995,-0.504069,0.0102294,0.0211984,1378,407,2.72266,12.7593
161,617,2.76843,-12.6669,-0.0040203,-0.011972,-0.0066358,-0.000260436,-0.0157318,-0.515501,0.0104022,0.0220693,1385,407,2.76839,12.6669
168,617,2.79858,-12.6076,-0.00366121,-0.0110207,-0.00615706,-0.000168099,-0.0145138,-0.516053,0.00962036,0.0206948,1392,407,2.79853,12.6076
175,617,2.79028,-12.5579,-0.00322974,-0.00981617,-0.00545958,-0.00014704,-0.0128989,-0.514014,0.00855065,0.017172,1399,407,2.79034,12.5579
182,617,2.80786,-12.4604,-0.00283433,-0.00814478,-0.00484132,3.20897e-05,-0.0110112,-0.534572,0.00735152,0.0113263,1406,407,2.80782,12.4604
189,617,2.8031,-12.349,-0.0022659,-0.00611106,-0.0037863,5.79734e-05,-0.00843493,-0.550475,0.00564271,0.0112544,1413,407,2.80316,12.349
196,617,2.83118,-12.274,-0.00119401,-0.00356835,-0.00248034,0.000368637,-0.00513099,-0.562195,0.00354993,0.0143802,1420,407,2.83116,12.274
203,617,2.83716,-12.1678,-0.000222973,-0.00114296,-0.0013123,0.000707622,-0.00207356,-0.616827,0.00166902,0.0140249,1427,407,2.8371,12.1678
210,617,2.83337,-12.0687,0.000232184,0.000420764,-0.000434809,0.000771389,-0.000118442,-0.892172,0.000557946,0.0141549,1434,407,2.8334,12.0687
217,617,2.82861,-11.944,-3.85324e-05,0.000819111,-0.000195664,0.000861642,-8.10626e-05,-1.35676,0.000603267,0.0188712,1441,407,2.82856,11.944
224,617,2.8219,-11.8465,-0.000202662,0.00106678,3.20293e-05,0.00106759,-0.000203469,1.54559,0.000788353,0.0178532,1448,407,2.8219,11.8465
231,617,2.83264,-11.7524,-0.000281637,0.00127978,0.000273731,0.00132637,-0.000328234,1.40218,0.00101157,0.0135902,1455,407,2.83267,11.7525
238,617,2.82361,-11.641,-0.000275002,0.00144093,0.000478324,0.00156526,-0.000399328,1.3165,0.00119899,0.0146673,1462,407,2.82363,11.641
245,617,2.82751,-11.5126,-0.000259475,0.0016081,0.000632717,0.00180227,-0.000453645,1.27304,0.00137785,0.012828,1469,407,2.82746,11.5126
252,617,2.83801,-11.3521,-0.000228834,0.00180245,0.000777198,0.0020657,-0.000492084,1.24421,0.00156713,0.0138136,1476,407,2.838,11.3521
259,617,2.82593,-11.214,0.000136316,0.00201037,0.000463848,0.00211889,2.77936e-05,1.34097,0.00140342,0.0108311,1483,407,2.82593,11.214
266,617,2.82471,-11.0701,0.000579141,0.00235164,0.000165618,0.00236698,0.000563799,1.47842,0.00142766,0.0128977,1490,407,2.82465,11.0701
273,617,2.8147,-10.9371,0.00117281,0.00234613,-0.000128168,0.00235997,0.00115898,-1.46325,0.0013626,0.015171,1497,407,2.8147,10.9371
280,617,2.7915,-10.8237,0.00184032,0.0023965,-0.000483583,0.00267625,0.00156057,-1.04634,0.00155223,0.0145006,1504,407,2.79146,10.8237
287,617,2.77893,-10.6619,0.00263178,0.00246518,-0.000967714,0.00351977,0.00157719,-0.742464,0.00203579,0.0124618,1511,407,2.77897,10.6619
294,617,2.78394,-10.5031,0.00355151,0.00259844,-0.00156662,0.00471247,0.00143748,-0.637753,0.00278884,0.00935304,1518,407,2.78396,10.5031
301,617,2.77612,-10.3492,0.00452089,0.00262494,-0.00217252,0.00594325,0.00120257,-0.579677,0.00362836,0.00756086,1525,407,2.77618,10.3492
308,617,2.7738,-10.1907,0.00552258,0.00269299,-0.00267236,0.00713155,0.00108402,-0.541947,0.00443739,0.00812207,1532,407,2.77375,10.1907
315,617,2.76917,-10.0252,0.00632144,0.00241504,-0.00315763,0.00808114,0.000655342,-0.508419,0.00518281,0.0092607,1539,407,2.76918,10.0252
322,617,2.75928,-9.8515,0.00694864,0.00213731,-0.00344553,0.00874523,0.000340721,-0.48064,0.00571996,0.0116708,1546,407,2.75931,9.85149
329,617,2.75122,-9.68561,0.00734422,0.0018986,-0.00349086,0.00904857,0.000194236,-0.454191,0.00596869,0.0121515,1553,407,2.7512,9.68562
336,617,2.77808,-9.52301,0.00741292,0.00168176,-0.00336392,0.00896634,0.00012834,-0.432613,0.00593524,0.0279392,1560,407,2.77803,9.523
343,617,2.74731,-9.16443,0,0,0,0,0,0,0,-1,1567,407,2.74733,9.16444
350,617,2.82263,-9.17941,0,0,0,0,0,0,0,-1,1574,407,2.82269,9.1794
357,617,2.1748,-7.16504,0,0,0,0,0,0,0,-1,1581,407,2.1748,7.16505
364,617,2.30127,-7.60257,0,0,0,0,0,0,0,-1,1588,407,2.30125,7.60258
371,617,2.60266,-6.20667,0,0,0,0,0,0,0,-1,1595,407,2.60261,6.20668
378,617,2.27588,-7.47134,0,0,0,0,0,0,0,-1,1602,407,2.27582,7.47136
385,617,1.37012,-5.41284,0,0,0,0,0,0,0,-1,1609,407,1.37016,5.41286
392,617,3.40723,-2.54929,0,0,0,0,0,0,0,-1,1616,407,3.40725,2.54929
399,617,3.25,-2.14835,0,0,0,0,0,0,0,-1,1623,407,3.25006,2.14836
406,617,3.02429,-3.19577,0,0,0,0,0,0,0,-1,1630,407,3.02431,3.19577
413,617,2.92786,-3.80649,0,0,0,0,0,0,0,-1,1637,407,2.92788,3.8065
420,617,3.42737,-4.47391,0,0,0,0,0,0,0,-1,1644,407,3.42737,4.47391
427,617,0,0,0,0,0,0,0,0,0,-1,1651,407,0,0
434,617,0,0,0,0,0,0,0,0,0,-1,1658,407,0,0
441,617,0,0,0,0,0,0,0,0,0,-1,1665,407,0,0
448,617,0,0,0,0,0,0,0,0,0,-1,1672,407,0,0
455,617,0,0,0,0,0,0,0,0,0,-1,1679,407,0,0
462,617,0,0,0,0,0,0,0,0,0,-1,1686,407,0,0
469,617,0,0,0,0,0,0,0,0,0,-1,1693,407,0,0
476,617,0,0,0,0,0,0,0,0,0,-1,1700,407,0,0
483,617,0,0,0,0,0,0,0,0,0,-1,1707,407,0,0
490,617,0,0,0,0,0,0,0,0,0,-1,1714,407,0,0
497,617,0,0,0,0,0,0,0,0,0,-1,1721,407,0,0
504,617,0,0,0,0,0,0,0,0,0,-1,1728,407,0,0
511,617,0,0,0,0,0,0,0,0,0,-1,1735,407,0,0
518,617,0,0,0,0,0,0,0,0,0,-1,1742,407,0,0
525,617,0,0,0,0,0,0,0,0,0,-1,1749,407,0,0
532,617,0,0,0,0,0,0,0,0,0,-1,1756,407,0,0
539,617,0,0,0,0,0,0,0,0,0,-1,1763,407,0,0
546,617,0,0,0,0,0,0,0,0,0,-1,1770,407,0,0
553,617,0,0,0,0,0,0,0,0,0,-1,1777,407,0,0
560,617,0,0,0,0,0,0,0,0,0,-1,1784,407,0,0
567,617,0,0,0,0,0,0,0,0,0,-1,1791,407,0,0
574,617,0,0,0,0,0,0,0,0,0,-1,1798,407,0,0
581,617,0,0,0,0,0,0,0,0,0,-1,1805,407,0,0
588,617,0,0,0,0,0,0,0,0,0,-1,1812,407,0,0
595,617,0,0,0,0,0,0,0,0,0,-1,1819,407,0,0
602,617,0,0,0,0,0,0,0,0,0,-1,1826,407,0,0
609,617,0,0,0,0,0,0,0,0,0,-1,1833,407,0,0
616,617,0,0,0,0,0,0,0,0,0,-1,1840,407,0,0
623,617,0,0,0,0,0,0,0,0,0,-1,1847,407,0,0
630,617,0,0,0,0,0,0,0,0,0,-1,1854,407,0,0
637,617,0,0,0,0,0,0,0,0,0,-1,1861,407,0,0
644,617,0,0,0,0,0,0,0,0,0,-1,1868,407,0,0
651,617,0,0,0,0,0,0,0,0,0,-1,1875,407,0,0
658,617,0,0,0,0,0,0,0,0,0,-1,1882,407,0,0
665,617,0,0,0,0,0,0,0,0,0,-1,1889,407,0,0
672,617,0,0,0,0,0,0,0,0,0,-1,1896,407,0,0
679,617,0,0,0,0,0,0,0,0,0,-1,1903,407,0,0
686,617,0,0,0,0,0,0,0,0,0,-1,1910,407,0,0
693,617,0,0,0,0,0,0,0,0,0,-1,1917,407,0,0
700,617,0,0,0,0,0,0,0,0,0,-1,1924,407,0,0
707,617,0,0,0,0,0,0,0,0,0,-1,1931,407,0,0
714,617,0,0,0,0,0,0,0,0,0,-1,1938,407,0,0
721,617,0,0,0,0,0,0,0,0,0,-1,1945,407,0,0
728,617,0,0,0,0,0,0,0,0,0,-1,1952,407,0,0
735,617,0,0,0,0,0,0,0,0,0,-1,1959,407,0,0
742,617,0,0,0,0,0,0,0,0,0,-1,1966,407,0,0
749,617,0,0,0,0,0,0,0,0,0,-1,1973,407,0,0
756,617,0,0,0,0,0,0,0,0,0,-1,1980,407,0,0
763,617,0,0,0,0,0,0,0,0,0,-1,1987,407,0,0
770,617,0,0,0,0,0,0,0,0,0,-1,1994,407,0,0
777,617,0,0,0,0,0,0,0,0,0,-1,2001,407,0,0
784,617,0,0,0,0,0,0,0,0,0,-1,2008,407,0,0
791,617,0,0,0,0,0,0,0,0,0,-1,2015,407,0,0
798,617,0,0,0,0,0,0,0,0,0,-1,2022,407,0,0
805,617,0,0,0,0,0,0,0,0,0,-1,2029,407,0,0
812,617,0,0,0,0,0,0,0,0,0,-1,2036,407,0,0
-700,610,0,0,0,0,0,0,0,0,0,-1,524,414,0,0
-693,610,0,0,0,0,0,0,0,0,0,-1,531,414,0,0
-686,610,0,0,0,0,0,0,0,0,0,-1,538,414,0,0
-679,610,0,0,0,0,0,0,0,0,0,-1,545,414,0,0
-672,610,0,0,0,0,0,0,0,0,0,-1,552,414,0,0
-665,610,0,0,0,0,0,0,0,0,0,-1,559,414,0,0
-658,610,0,0,0,0,0,0,0,0,0,-1,566,414,0,0
-651,610,0,0,0,0,0,0,0,0,0,-1,573,414,0,0
-644,610,0,0,0,0,0,0,0,0,0,-1,580,414,0,0
-637,610,0,0,0,0,0,0,0,0,0,-1,587,414,0,0
-630,610,0,0,0,0,0,0,0,0,0,-1,594,414,0,0
-623,610,0,0,0,0,0,0,0,0,0,-1,601,414,0,0
-616,610,0,0,0,0,0,0,0,0,0,-1,608,414,0,0
-609,610,0,0,0,0,0,0,0,0,0,-1,615,414,0,0
-602,610,0,0,0,0,0,0,0,0,0,-1,622,414,0,0
-595,610,0,0,0,0,0,0,0,0,0,-1,629,414,0,0
-588,610,0,0,0,0,0,0,0,0,0,-1,636,414,0,0
-581,610,0,0,0,0,0,0,0,0,0,-1,643,414,0,0
-574,610,0,0,0,0,0,0,0,0,0,-1,650,414,0,0
-567,610,0,0,0,0,0,0,0,0,0,-1,657,414,0,0
-560,610,0,0,0,0,0,0,0,0,0,-1,664,414,0,0
-553,610,0,0,0,0,0,0,0,0,0,-1,671,414,0,0
-546,610,0,0,0,0,0,0,0,0,0,-1,678,414,0,0
-539,610,0,0,0,0,0,0,0,0,0,-1,685,414,0,0
-532,610,0,0,0,0,0,0,0,0,0,-1,692,414,0,0
-525,610,0,0,0,0,0,0,0,0,0,-1,699,414,0,0
-518,610,0,0,0,0,0,0,0,0,0,-1,706,414,0,0
-511,610,0,0,0,0,0,0,0,0,0,-1,713,414,0,0
-504,610,0,0,0,0,0,0,0,0,0,-1,720,414,0,0
-497,610,0,0,0,0,0,0,0,0,0,-1,727,414,0,0
-490,610,0,0,0,0,0,0,0,0,0,-1,734,414,0,0
-483,610,0,0,0,0,0,0,0,0,0,-1,741,414,0,0
-476,610,0,0,0,0,0,0,0,0,0,-1,748,414,0,0
-469,610,0,0,0,0,0,0,0,0,0,-1,755,414,0,0
-462,610,0,0,0,0,0,0,0,0,0,-1,762,414,0,0
-455,610,0,0,0,0,0,0,0,0,0,-1,769,414,0,0
-448,610,0,0,0,0,0,0,0,0,0,-1,776,414,0,0
-441,610,0,0,0,0,0,0,0,0,0,-1,783,414,0,0
-434,610,0,0,0,0,0,0,0,0,0,-1,790,414,0,0
-427,610,0,0,0,0,0,0,0,0,0,-1,797,414,0,0
-420,610,0,0,0,0,0,0,0,0,0,-1,804,414,0,0
-413,610,0,0,0,0,0,0,0,0,0,-1,811,414,0,0
-406,610,0,0,0,0,0,0,0,0,0,-1,818,414,0,0
-399,610,0,0,0,0,0,0,0,0,0,-1,825,414,0,0
-392,610,0,0,0,0,0,0,0,0,0,-1,832,414,0,0
-385,610,0,0,0,0,0,0,0,0,0,-1,839,414,0,0
-378,610,0,0,0,0,0,0,0,0,0,-1,846,414,0,0
-371,610,0,0,0,0,0,0,0,0,0,-1,853,414,0,0
-364,610,0,0,0,0,0,0,0,0,0,-1,860,414,0,0
-357,610,0,0,0,0,0,0,0,0,0,-1,867,414,0,0
-350,610,0,0,0,0,0,0,0,0,0,-1,874,414,0,0
-343,610,0,0,0,0,0,0,0,0,0,-1,881,414,0,0
-336,610,0,0,0,0,0,0,0,0,0,-1,888,414,0,0
-329,610,0,0,0,0,0,0,0,0,0,-1,895,414,0,0
-322,610,0,0,0,0,0,0,0,0,0,-1,902,414,0,0
-315,610,5.57825,-7.69159,0,0,0,0,0,0,0,-1,909,414,5.57823,7.69159
-308,610,5.54938,-7.44653,0,0,0,0,0,0,0,-1,916,414,5.54937,7.44653
-301,610,-1.54291,-9.7341,0,0,0,0,0,0,0,-1,923,414,-1.54293,9.73409
-294,610,-1.43835,-9.29047,0,0,0,0,0,0,0,-1,930,414,-1.43836,9.29047
-287,610,-0.141846,-9.6178,0,0,0,0,0,0,0,-1,937,414,-0.141819,9.61781
-280,610,0.0545654,-9.20004,0,0,0,0,0,0,0,-1,944,414,0.054548,9.20003
-273,610,2.30341,-8.76111,0,0,0,0,0,0,0,-1,951,414,2.30341,8.76111
-266,610,2.37677,-8.76978,0,0,0,0,0,0,0,-1,958,414,2.37678,8.76978
-259,610,2.42084,-9.02545,0,0,0,0,0,0,0,-1,965,414,2.42083,9.02546
-252,610,2.61108,-9.42395,0,0,0,0,0,0,0,-1,972,414,2.61108,9.42396
-245,610,2.94702,-9.43762,-0.00274813,0.00763925,-0.000916525,0.0077195,-0.00282838,-1.48346,0.00630429,0.0464196,979,414,2.94704,9.43761
-238,610,2.76117,-9.58136,-0.000293739,0.00901095,-0.00018859,0.00901477,-0.00029756,-1.55054,0.00611145,0.0402582,986,414,2.76116,9.58136
-231,610,2.41125,-9.86578,0.00171507,0.00920928,0.000625301,0.00926109,0.00166325,1.48812,0.0057011,0.0348152,993,414,2.41127,9.86577
-224,610,2.34509,-10.1038,0.00381555,0.00811809,0.0019036,0.00883939,0.00309425,1.2086,0.00517936,0.0250578,1000,414,2.3451,10.1038
-217,610,2.35059,-10.2601,0.00548735,0.00694919,0.00292749,0.00923563,0.00320092,0.907735,0.00541521,0.0152997,1007,414,2.35057,10.2601
-210,610,2.35327,-10.4261,0.00685702,0.00557439,0.00351252,0.00978629,0.00264512,0.695103,0.0058455,0.0102608,1014,414,2.35325,10.4261
-203,610,2.34869,-10.576,0.00758049,0.00427954,0.0037382,0.0100164,0.00184367,0.57751,0.00615574,0.0124696,1021,414,2.34867,10.576
-196,610,2.35986,-10.7195,0.0079854,0.00322648,0.00349944,0.00983771,0.00137416,0.486825,0.00615179,0.0143627,1028,414,2.35983,10.7195
-189,610,2.34204,-10.8742,0.00800828,0.00228309,0.00277728,0.00913413,0.00115724,0.385136,0.00574267,0.0114777,1035,414,2.34204,10.8742
-182,610,2.31421,-11.0172,0.00806635,0.00155069,0.00239269,0.0088506,0.000766435,0.316735,0.00566224,0.0119064,1042,414,2.3142,11.0172
-175,610,2.29968,-11.1436,0.00741807,0.00124459,0.00171565,0.00786282,0.000799845,0.253647,0.00499665,0.0117751,1049,414,2.29967,11.1436
-168,610,2.28418,-11.2911,0.00614679,0.000957325,0.000738069,0.00624972,0.000854395,0.138565,0.0039129,0.0104892,1056,414,2.28418,11.2911
-161,610,2.2749,-11.4496,0.00495879,0.000708414,-3.79734e-05,0.00495913,0.000708075,-0.00893317,0.00309716,0.0111367,1063,414,2.27493,11.4496
-154,610,2.26392,-11.5706,0.00397408,0.000564831,-0.000407999,0.00402223,0.000516684,-0.117464,0.00252693,0.013823,1070,414,2.26395,11.5706
-147,610,2.26221,-11.6723,0.00285033,0.000640436,-0.00105607,0.00327384,0.000216923,-0.381392,0.00211397,0.0138247,1077,414,2.26215,11.6723
-140,610,2.27539,-11.7974,0.00202495,0.000825253,-0.00134964,0.00290204,-5.18411e-05,-0.576284,0.00195221,0.0112164,1084,414,2.27536,11.7974
-133,610,2.2865,-11.9018,0.00165758,0.00100828,-0.00126274,0.00263674,2.91249e-05,-0.659574,0.0017482,0.0131816,1091,414,2.28646,11.9018
-126,610,2.28333,-11.9914,0.00151668,0.00114359,-0.00110839,0.00245411,0.00020615,-0.702028,0.00157187,0.0113487,1098,414,2.28331,11.9914
-119,610,2.26416,-12.0937,0.00138878,0.00132239,-0.000994324,0.00235046,0.000360708,-0.76871,0.00146165,0.00959131,1105,414,2.26422,12.0937
-112,610,2.26013,-12.1856,0.00131616,0.00149725,-0.000913014,0.0023242,0.000489211,-0.834822,0.00141487,0.0165852,1112,414,2.26007,12.1856
-105,610,2.25867,-12.2794,0.00128884,0.0016502,-0.000876352,0.0023643,0.000574735,-0.887061,0.00142383,0.0171185,1119,414,2.25867,12.2794
-98,610,2.27905,-12.3906,0.00135669,0.00168272,-0.00093243,0.00246628,0.000573134,-0.871935,0.00149034,0.012056,1126,414,2.27906,12.3906
-91,610,2.29358,-12.4822,0.00155779,0.00166541,-0.00102495,0.00263797,0.00058524,-0.811625,0.00159966,0.0128808,1133,414,2.2936,12.4822
-84,610,2.29858,-12.5728,0.00178801,0.00146706,-0.000946504,0.00258755,0.000667523,-0.701424,0.00155116,0.0141614,1140,414,2.29861,12.5728
-77,610,2.28491,-12.6622,0.00203385,0.00127075,-0.000799941,0.00253858,0.000766022,-0.562869,0.00150356,0.0110772,1147,414,2.28495,12.6622
-70,610,2.3075,-12.7348,0.00233483,0.00105317,-0.000633616,0.00259518,0.000792814,-0.389869,0.00153565,0.0127331,1154,414,2.30748,12.7348
-63,610,2.33154,-12.8102,0.00318679,0.00145635,0.000194751,0.00320844,0.0014347,0.110699,0.00185584,0.0124767,1161,414,2.33157,12.8102
-56,610,2.3363,-12.8693,0.00412832,0.00218678,0.000821515,0.00442927,0.00188582,0.351157,0.00256662,0.0101366,1168,414,2.33628,12.8693
-49,610,2.34167,-12.9187,0.00472528,0.00248332,0.0014618,0.00544643,0.00176217,0.458299,0.00320911,0.0105781,1175,414,2.34166,12.9187
-42,610,2.34827,-12.9874,0.00450581,0.00244501,0.00224817,0.00594846,0.00100236,0.570519,0.00367734,0.0145505,1182,414,2.34827,12.9874
-35,610,2.36157,-13.0309,0.00375024,0.00237102,0.00280868,0.00595273,0.000168534,0.665016,0.00391352,0.0146844,1189,414,2.36154,13.0308
-28,610,2.36658,-13.0694,0.00328383,0.00175731,0.00343896,0.00604322,-0.00100208,0.676197,0.00440103,0.0116565,1196,414,2.36656,13.0694
-21,610,2.39111,-13.1049,0.00283513,0.00113008,0.00394787,0.00602147,-0.00205626,0.679058,0.00484736,0.0101211,1203,414,2.3911,13.1048
-14,610,2.40662,-13.1163,0.00247542,0.000964678,0.00416217,0.00595021,-0.00251011,0.695633,0.00501737,0.0125507,1210,414,2.40661,13.1163
-7,610,2.41626,-13.1365,0.00245196,-0.000178947,0.00385777,0.00521239,-0.00293938,0.621086,0.00476702,0.0145246,1217,414,2.41623,13.1365
0,610,2.44714,-13.1801,0.00239818,-0.000423851,0.00323077,0.00451263,-0.00253829,0.579511,0.0041237,0.0115631,1224,414,2.44718,13.18
7,610,2.45886,-13.2133,0.00194984,-0.000559762,0.00273936,0.00370811,-0.00231803,0.570628,0.00350991,0.0108624,1231,414,2.45886,13.2134
14,610,2.46655,-13.2287,0.00183342,-0.000857104,0.00234954,0.00319556,-0.00221925,0.525397,0.00314314,0.0115505,1238,414,2.46653,13.2287
21,610,2.50073,-13.2386,0.00197175,-0.00101601,0.00179841,0.00281581,-0.00186007,0.438817,0.00271835,0.0109758,1245,414,2.50071,13.2386
28,610,2.51782,-13.2774,0.00208506,-0.000918263,0.00128591,0.0025604,-0.00139361,0.354077,0.00231574,0.0117332,1252,414,2.51778,13.2774
35,610,2.53015,-13.285,0.00220756,-0.000649336,0.000851404,0.00244205,-0.000883823,0.268749,0.0019892,0.0151782,1259,414,2.53017,13.285
42,610,2.55432,-13.2654,0.00242499,-0.00071204,0.0002317,0.00244201,-0.000729061,0.0733293,0.00191779,0.0150395,1266,414,2.55433,13.2654
49,610,2.57361,-13.2821,0.00233437,6.17593e-06,7.81905e-05,0.00233699,3.55276e-06,0.0335339,0.00155681,0.0160133,1273,414,2.57361,13.2821
56,610,2.60938,-13.2719,0.00238237,0.000427622,0.000131123,0.00239113,0.000418866,0.0666812,0.00147443,0.0142315,1280,414,2.60936,13.2719
63,610,2.62109,-13.2523,0.00242348,0.000981658,9.06904e-05,0.00242916,0.000975976,0.0625712,0.00141147,0.0159418,1287,414,2.62113,13.2523
70,610,2.66162,-13.2345,0.00238739,0.0017237,0.000118852,0.00240803,0.00170306,0.171961,0.00142953,0.0225285,1294,414,2.66166,13.2345
77,610,2.68079,-13.2397,0.0023022,0.00242301,0.000445448,0.00281213,0.00191308,0.85279,0.00165839,0.0289629,1301,414,2.68082,13.2397
84,610,2.63416,-13.1796,0.00221991,0.00297553,0.000640217,0.0033411,0.00185434,1.05196,0.00193287,0.0294807,1308,414,2.63411,13.1796
91,610,2.68481,-13.1493,0.00149834,0.00228316,0.000428451,0.00247175,0.00130976,1.15616,0.00142791,0.0254189,1315,414,2.6848,13.1493
98,610,2.75525,-13.1801,0.000187986,0.00118078,-5.87611e-05,0.00118425,0.000184521,-1.51188,0.000735745,0.023293,1322,414,2.75531,13.18
105,610,2.76282,-13.1399,-0.00110691,-0.00156654,-0.000995462,-0.000315078,-0.00235837,-0.671954,0.00147845,0.0187316,1329,414,2.76285,13.1399
112,610,2.75085,-13.093,-0.00166538,-0.00425674,-0.00218864,-0.000417647,-0.00550447,-0.51814,0.00353866,0.0126112,1336,414,2.75087,13.0931
119,610,2.73254,-13.0487,-0.00271601,-0.00697892,-0.00377326,-0.000513808,-0.00918112,-0.528299,0.00595687,0.0175049,1343,414,2.73257,13.0487
126,610,2.75427,-12.9911,-0.00392772,-0.0101615,-0.00546011,-0.000757508,-0.0133318,-0.526043,0.0086464,0.0250319,1350,414,2.75424,12.9911
133,610,2.77173,-12.9331,-0.00504718,-0.0136308,-0.00731669,-0.000856443,-0.0178215,-0.520152,0.0116061,0.0199976,1357,414,2.77177,12.9331
140,610,2.81641,-12.895,-0.0060441,-0.0168467,-0.00903107,-0.000922371,-0.0219684,-0.515895,0.0143481,0.0154944,1364,414,2.81646,12.895
147,610,2.82507,-12.8237,-0.00688378,-0.0189118,-0.010201,-0.00105597,-0.0247396,-0.519047,0.0161526,0.0164672,1371,414,2.82511,12.8237
154,610,2.82251,-12.7385,-0.00710209,-0.0212516,-0.0113973,-0.000762257,-0.0275915,-0.507633,0.0181456,0.0211899,1378,414,2.8225,12.7385
161,610,2.86255,-12.6599,-0.00726817,-0.0214851,-0.011993,-0.000435278,-0.028318,-0.517874,0.0187353,0.0258971,1385,414,2.86254,12.6599
168,610,2.88611,-12.6089,-0.00672703,-0.0201472,-0.0113147,-0.000282387,-0.0265919,-0.517754,0.0176345,0.0257352,1392,414,2.88608,12.6089
175,610,2.92383,-12.5545,-0.00602523,-0.0182588,-0.0101867,-0.000259918,-0.0240242,-0.515016,0.0159302,0.0206148,1399,414,2.92383,12.5545
182,610,2.93762,-12.4665,-0.00532427,-0.0155284,-0.0091332,3.53353e-05,-0.020888,-0.530677,0.0139371,0.0144054,1406,414,2.9376,12.4665
189,610,2.92212,-12.3413,-0.00428214,-0.0120084,-0.00736005,0.000167009,-0.0164576,-0.543722,0.0110278,0.013052,1413,414,2.92207,12.3413
196,610,2.91992,-12.2493,-0.00238784,-0.00751745,-0.00514862,0.000799439,-0.0107047,-0.554313,0.00741734,0.0128859,1420,414,2.91995,12.2493
203,610,2.92102,-12.151,-0.000518803,-0.00291349,-0.0029888,0.00150357,-0.00493586,-0.594882,0.00388986,0.0131813,1427,414,2.92104,12.151
210,610,2.90747,-12.0519,0.000580739,0.00049782,-0.0011656,0.00170562,-0.00062706,-0.767621,0.00139393,0.0105387,1434,414,2.90746,12.0519
217,610,2.91077,-11.9404,0.000305617,0.00152532,-0.00064506,0.00180317,2.77624e-05,-1.16407,0.00119297,0.0161587,1441,414,2.91075,11.9404
224,610,2.9303,-11.8545,0.00015515,0.00182544,-0.000344388,0.00189366,8.69294e-05,-1.37523,0.00123448,0.0191448,1448,414,2.93025,11.8545
231,610,2.94568,-11.7615,8.91634e-05,0.0020483,-4.30324e-05,0.00204925,8.82186e-05,-1.54885,0.00133773,0.0148854,1455,414,2.94562,11.7615
238,610,2.9447,-11.6227,0.000143403,0.00220287,0.000200644,0.00222223,0.000124037,1.47458,0.00144192,0.0111419,1462,414,2.94475,11.6227
245,610,2.948,-11.4964,0.000203215,0.00232189,0.000376591,0.00238684,0.000138268,1.40001,0.0015472,0.0126795,1469,414,2.94805,11.4964
252,610,2.97375,-11.3589,0.000236237,0.00241867,0.00052301,0.00253753,0.000117373,1.34732,0.00165395,0.0138532,1476,414,2.97375,11.359
259,610,2.96973,-11.2117,0.000400869,0.00245837,0.000461281,0.00255705,0.000302185,1.36004,0.00161343,0.0110756,1483,414,2.96976,11.2117
266,610,2.96594,-11.0759,0.000629863,0.00254854,0.000343747,0.00260827,0.000570137,1.39876,0.00158339,0.0114419,1490,414,2.96593,11.0759
273,610,2.94507,-10.9473,0.000935209,0.0024566,0.000224151,0.00248894,0.000902871,1.42752,0.00145492,0.0101634,1497,414,2.94507,10.9473
280,610,2.92981,-10.8072,0.00130157,0.00233059,7.13121e-05,0.00233551,0.00129665,1.50193,0.00135114,0.0104756,1504,414,2.92986,10.8072
287,610,2.91138,-10.646,0.00176934,0.0022556,-0.000178011,0.0023138,0.00171114,-1.2548,0.00138603,0.0128112,1511,414,2.91132,10.646
294,610,2.92847,-10.4996,0.0023174,0.00224286,-0.000505662,0.00278717,0.0017731,-0.748611,0.00162894,0.0105369,1518,414,2.92852,10.4996
301,610,2.93958,-10.3745,0.00287306,0.0021294,-0.000834726,0.00341503,0.00158744,-0.575868,0.00197329,0.00995473,1525,414,2.93961,10.3745
308,610,2.9502,-10.2111,0.00346787,0.00209209,-0.00107303,0.00405457,0.00150538,-0.500362,0.00236662,0.0118385,1532,414,2.95018,10.2111
315,610,2.93542,-10.0503,0.00394717,0.00186684,-0.00130619,0.00457676,0.00123726,-0.449146,0.00273373,0.0126054,1539,414,2.93548,10.0503
322,610,2.90759,-9.86627,0.00428826,0.00167472,-0.00140776,0.00490228,0.0010607,-0.411293,0.00297826,0.0120624,1546,414,2.90762,9.86627
329,610,2.88379,-9.67569,0.00446153,0.00152702,-0.00132908,0.00497399,0.00101456,-0.368013,0.00303488,0.0115306,1553,414,2.88377,9.67569
336,610,2.89746,-9.46848,0.00439796,0.00143057,-0.0011314,0.00478012,0.00104841,-0.325743,0.00290112,0.0123884,1560,414,2.89744,9.46848
343,610,2.91016,-9.30048,0.00416718,0.00153179,-0.000785648,0.00438362,0.00131536,-0.268821,0.00259746,0.0252494,1567,414,2.91014,9.30047
350,610,2.88574,-9.23755,0.00383193,0.00173009,-0.000298223,0.00387343,0.0016886,-0.138252,0.00224243,0.0476784,1574,414,2.8858,9.23756
357,610,2.94067,-8.80728,0,0,0,0,0,0,0,-1,1581,414,2.94062,8.80729
364,610,2.95007,-8.68985,0,0,0,0,0,0,0,-1,1588,414,2.95004,8.68985
371,610,2.95349,-8.39844,0,0,0,0,0,0,0,-1,1595,414,2.95346,8.39845
378,610,2.95007,-8.26315,0,0,0,0,0,0,0,-1,1602,414,2.95002,8.26316
385,610,2.83948,-8.06342,0,0,0,0,0,0,0,-1,1609,414,2.83953,8.06343
392,610,2.54626,0.0437622,0,0,0,0,0,0,0,-1,1616,414,2.54632,-0.0437683
399,610,3.03833,-2.82547,0,0,0,0,0,0,0,-1,1623,414,3.03827,2.82546
406,610,2.91687,-2.9166,0,0,0,0,0,0,0,-1,1630,414,2.91688,2.91659
413,610,3.01929,-3.20306,0,0,0,0,0,0,0,-1,1637,414,3.01929,3.20306
420,610,4.78149,-3.64041,0,0,0,0,0,0,0,-1,1644,414,4.78152,3.64042
427,610,5.20764,-4.67545,0,0,0,0,0,0,0,-1,1651,414,5.20759,4.67545
434,610,5.39233,-5.45441,0,0,0,0,0,0,0,-1,1658,414,5.39228,5.4544
441,610,0,0,0,0,0,0,0,0,0,-1,1665,414,0,0
448,610,0,0,0,0,0,0,0,0,0,-1,1672,414,0,0
455,610,0,0,0,0,0,0,0,0,0,-1,1679,414,0,0
462,610,0,0,0,0,0,0,0,0,0,-1,1686,414,0,0
469,610,0,0,0,0,0,0,0,0,0,-1,1693,414,0,0
476,610,0,0,0,0,0,0,0,0,0,-1,1700,414,0,0
483,610,0,0,0,0,0,0,0,0,0,-1,1707,414,0,0
490,610,0,0,0,0,0,0,0,0,0,-1,1714,414,0,0
497,610,0,0,0,0,0,0,0,0,0,-1,1721,414,0,0
504,610,0,0,0,0,0,0,0,0,0,-1,1728,414,0,0
511,610,0,0,0,0,0,0,0,0,0,-1,1735,414,0,0
518,610,0,0,0,0,0,0,0,0,0,-1,1742,414,0,0
525,610,0,0,0,0,0,0,0,0,0,-1,1749,414,0,0
532,610,0,0,0,0,0,0,0,0,0,-1,1756,414,0,0
539,610,0,0,0,0,0,0,0,0,0,-1,1763,414,0,0
546,610,0,0,0,0,0,0,0,0,0,-1,1770,414,0,0
553,610,0,0,0,0,0,0,0,0,0,-1,1777,414,0,0
560,610,0,0,0,0,0,0,0,0,0,-1,1784,414,0,0
567,610,0,0,0,0,0,0,0,0,0,-1,1791,414,0,0
574,610,0,0,0,0,0,0,0,0,0,-1,1798,414,0,0
581,610,0,0,0,0,0,0,0,0,0,-1,1805,414,0,0
588,610,0,0,0,0,0,0,0,0,0,-1,1812,414,0,0
595,610,0,0,0,0,0,0,0,0,0,-1,1819,414,0,0
602,610,0,0,0,0,0,0,0,0,0,-1,1826,414,0,0
609,610,0,0,0,0,0,0,0,0,0,-1,1833,414,0,0
616,610,0,0,0,0,0,0,0,0,0,-1,1840,414,0,0
623,610,0,0,0,0,0,0,0,0,0,-1,1847,414,0,0
630,610,0,0,0,0,0,0,0,0,0,-1,1854,414,0,0
637,610,0,0,0,0,0,0,0,0,0,-1,1861,414,0,0
644,610,0,0,0,0,0,0,0,0,0,-1,1868,414,0,0
651,610,0,0,0,0,0,0,0,0,0,-1,1875,414,0,0
658,610,0,0,0,0,0,0,0,0,0,-1,1882,414,0,0
665,610,0,0,0,0,0,0,0,0,0,-1,1889,414,0,0
672,610,0,0,0,0,0,0,0,0,0,-1,1896,414,0,0
679,610,0,0,0,0,0,0,0,0,0,-1,1903,414,0,0
686,610,0,0,0,0,0,0,0,0,0,-1,1910,414,0,0
693,610,0,0,0,0,0,0,0,0,0,-1,1917,414,0,0
700,610,0,0,0,0,0,0,0,0,0,-1,1924,414,0,0
707,610,0,0,0,0,0,0,0,0,0,-1,1931,414,0,0
714,610,0,0,0,0,0,0,0,0,0,-1,1938,414,0,0
721,610,0,0,0,0,0,0,0,0,0,-1,1945,414,0,0
728,610,0,0,0,0,0,0,0,0,0,-1,1952,414,0,0
735,610,0,0,0,0,0,0,0,0,0,-1,1959,414,0,0
742,610,0,0,0,0,0,0,0,0,0,-1,1966,414,0,0
749,610,0,0,0,0,0,0,0,0,0,-1,1973,414,0,0
756,610,0,0,0,0,0,0,0,0,0,-1,1980,414,0,0
763,610,0,0,0,0,0,0,0,0,0,-1,1987,414,0,0
770,610,0,0,0,0,0,0,0,0,0,-1,1994,414,0,0
777,610,0,0,0,0,0,0,0,0,0,-1,2001,414,0,0
784,610,0,0,0,0,0,0,0,0,0,-1,2008,414,0,0
791,610,0,0,0,0,0,0,0,0,0,-1,2015,414,0,0
798,610,0,0,0,0,0,0,0,0,0,-1,2022,414,0,0
805,610,0,0,0,0,0,0,0,0,0,-1,2029,414,0,0
812,610,0,0,0,0,0,0,0,0,0,-1,2036,414,0,0
-700,603,0,0,0,0,0,0,0,0,0,-1,524,421,0,0
-693,603,0,0,0,0,0,0,0,0,0,-1,531,421,0,0
-686,603,0,0,0,0,0,0,0,0,0,-1,538,421,0,0
-679,603,0,0,0,0,0,0,0,0,0,-1,545,421,0,0
-672,603,0,0,0,0,0,0,0,0,0,-1,552,421,0,0
-665,603,0,0,0,0,0,0,0,0,0,-1,559,421,0,0
-658,603,0,0,0,0,0,0,0,0,0,-1,566,421,0,0
-651,603,0,0,0,0,0,0,0,0,0,-1,573,421,0,0
-644,603,0,0,0,0,0,0,0,0,0,-1,580,421,0,0
-637,603,0,0,0,0,0,0,0,0,0,-1,587,421,0,0
-630,603,0,0,0,0,0,0,0,0,0,-1,594,421,0,0
-623,603,0,0,0,0,0,0,0,0,0,-1,601,421,0,0
-616,603,0,0,0,0,0,0,0,0,0,-1,608,421,0,0
-609,603,0,0,0,0,0,0,0,0,0,-1,615,421,0,0
-602,603,0,0,0,0,0,0,0,0,0,-1,622,421,0,0
-595,603,0,0,0,0,0,0,0,0,0,-1,629,421,0,0
-588,603,0,0,0,0,0,0,0,0,0,-1,636,421,0,0
-581,603,0,0,0,0,0,0,0,0,0,-1,643,421,0,0
-574,603,0,0,0,0,0,0,0,0,0,-1,650,421,0,0
-567,603,0,0,0,0,0,0,0,0,0,-1,657,421,0,0
-560,603,0,0,0,0,0,0,0,0,0,-1,664,421,0,0
-553,603,0,0,0,0,0,0,0,0,0,-1,671,421,0,0
-546,603,0,0,0,0,0,0,0,0,0,-1,678,421,0,0
-539,603,0,0,0,0,0,0,0,0,0,-1,685,421,0,0
-532,603,0,0,0,0,0,0,0,0,0,-1,692,421,0,0
-525,603,0,0,0,0,0,0,0,0,0,-1,699,421,0,0
-518,603,0,0,0,0,0,0,0,0,0,-1,706,421,0,0
-511,603,0,0,0,0,0,0,0,0,0,-1,713,421,0,0
-504,603,0,0,0,0,0,0,0,0,0,-1,720,421,0,0
-497,603,0,0,0,0,0,0,0,0,0,-1,727,421,0,0
-490,603,0,0,0,0,0,0,0,0,0,-1,734,421,0,0
-483,603,0,0,0,0,0,0,0,0,0,-1,741,421,0,0
-476,603,0,0,0,0,0,0,0,0,0,-1,748,421,0,0
-469,603,0,0,0,0,0,0,0,0,0,-1,755,421,0,0
-462,603,0,0,0,0,0,0,0,0,0,-1,762,421,0,0
-455,603,0,0,0,0,0,0,0,0,0,-1,769,421,0,0
-448,603,0,0,0,0,0,0,0,0,0,-1,776,421,0,0
-441,603,0,0,0,0,0,0,0,0,0,-1,783,421,0,0
-434,603,0,0,0,0,0,0,0,0,0,-1,790,421,0,0
-427,603,0,0,0,0,0,0,0,0,0,-1,797,421,0,0
-420,603,0,0,0,0,0,0,0,0,0,-1,804,421,0,0
-413,603,0,0,0,0,0,0,0,0,0,-1,811,421,0,0
-406,603,0,0,0,0,0,0,0,0,0,-1,818,421,0,0
-399,603,0,0,0,0,0,0,0,0,0,-1,825,421,0,0
-392,603,0,0,0,0,0,0,0,0,0,-1,832,421,0,0
-385,603,0,0,0,0,0,0,0,0,0,-1,839,421,0,0
-378,603,0,0,0,0,0,0,0,0,0,-1,846,421,0,0
-371,603,0,0,0,0,0,0,0,0,0,-1,853,421,0,0
-364,603,0,0,0,0,0,0,0,0,0,-1,860,421,0,0
-357,603,0,0,0,0,0,0,0,0,0,-1,867,421,0,0
-350,603,0,0,0,0,0,0,0,0,0,-1,874,421,0,0
-343,603,0,0,0,0,0,0,0,0,0,-1,881,421,0,0
-336,603,0,0,0,0,0,0,0,0,0,-1,888,421,0,0
-329,603,4.6095,-8.85309,0,0,0,0,0,0,0,-1,895,421,4.60952,8.8531
-322,603,4.4209,-8.48056,0,0,0,0,0,0,0,-1,902,421,4.42093,8.48056
-315,603,3.94946,-8.08862,0,0,0,0,0,0,0,-1,909,421,3.94948,8.08863
-308,603,3.67664,-7.59,0,0,0,0,0,0,0,-1,916,421,3.67665,7.58999
-301,603,3.6507,-10.1701,0,0,0,0,0,0,0,-1,923,421,3.65069,10.1701
-294,603,2.68842,-10.0487,0,0,0,0,0,0,0,-1,930,421,2.68843,10.0488
-287,603,2.38202,-10.3654,0,0,0,0,0,0,0,-1,937,421,2.38201,10.3654
-280,603,-0.321289,-8.09372,0,0,0,0,0,0,0,-1,944,421,-0.321311,8.09372
-273,603,1.98877,-9.05646,0,0,0,0,0,0,0,-1,951,421,1.98875,9.05645
-266,603,2.11371,-8.82825,0,0,0,0,0,0,0,-1,958,421,2.11373,8.82824
-259,603,2.18689,-9.08902,-0.00734084,-0.00188224,-0.000221305,-0.00187329,-0.00734979,-1.53034,0.00441011,0.0457119,965,421,2.1869,9.08901
-252,603,2.33221,-9.40894,-0.0057237,0.00161213,6.50987e-05,0.00161271,-0.00572428,1.56192,0.0044522,0.0426554,972,421,2.33224,9.40895
-245,603,2.3819,-9.6741,-0.00333648,0.00428895,0.000371766,0.00430703,-0.00335456,1.5222,0.0044348,0.0303115,979,421,2.3819,9.6741
-238,603,2.27942,-9.75012,-0.00174706,0.00562043,0.000668824,0.00568065,-0.00180728,1.48099,0.00451184,0.0180376,986,421,2.27944,9.75011
-231,603,2.23047,-9.94806,-0.000442492,0.00591832,0.00102485,0.00607937,-0.000603539,1.41493,0.00426834,0.012643,993,421,2.23045,9.94807
-224,603,2.18359,-10.1302,0.0010029,0.00511546,0.0018217,0.00580633,0.000312022,1.20831,0.00377119,0.0128917,1000,421,2.1836,10.1303
-217,603,2.18646,-10.2684,0.00224878,0.00432614,0.00249055,0.00598592,0.000588996,0.982957,0.00380949,0.0117095,1007,421,2.18647,10.2684
-210,603,2.20349,-10.4349,0.00335033,0.00341654,0.00279962,0.00618325,0.000583612,0.79131,0.00394206,0.00975261,1014,421,2.20347,10.4349
-203,603,2.21765,-10.6147,0.00401568,0.00256894,0.00286213,0.00624444,0.000340186,0.661621,0.00405433,0.015673,1021,421,2.21768,10.6147
-196,603,2.23035,-10.7744,0.00450837,0.0019391,0.00254953,0.00607862,0.000368852,0.552028,0.00393523,0.017291,1028,421,2.23035,10.7744
-189,603,2.22034,-10.8786,0.00474546,0.0013746,0.00183388,0.00555077,0.000569294,0.413777,0.0035261,0.013915,1035,421,2.22032,10.8786
-182,603,2.19897,-11.0277,0.00498491,0.000893929,0.00135865,0.00539502,0.00048382,0.293153,0.00344674,0.0112666,1042,421,2.19893,11.0278
-175,603,2.16602,-11.1579,0.00469347,0.000755274,0.000720054,0.004821,0.00062775,0.175286,0.00302653,0.0111764,1049,421,2.16602,11.1579
-168,603,2.15051,-11.284,0.00390721,0.000564179,-0.000107756,0.00391068,0.000560709,-0.0321885,0.00244177,0.0130099,1056,421,2.15057,11.284
-161,603,2.14673,-11.4352,0.00315529,0.000377137,-0.000780022,0.00335931,0.000173113,-0.25583,0.00218413,0.0127748,1063,421,2.14674,11.4352
-154,603,2.1499,-11.5679,0.00255186,0.000332866,-0.00120322,0.00307904,-0.000194314,-0.41295,0.00212044,0.0120717,1070,421,2.14986,11.5679
-147,603,2.15002,-11.676,0.00190326,0.000287106,-0.00161633,0.00290225,-0.000711887,-0.553596,0.00221067,0.0125751,1077,421,2.15006,11.676
-140,603,2.17285,-11.7801,0.00152072,0.000267358,-0.00177669,0.00277801,-0.000989931,-0.615848,0.0022556,0.0103978,1084,421,2.17281,11.7801
-133,603,2.1803,-11.8857,0.00141905,0.000235754,-0.00171114,0.00263794,-0.000983134,-0.61895,0.00216217,0.0109334,1091,421,2.18026,11.8857
-126,603,2.1781,-11.9791,0.00145589,0.000253947,-0.00158271,0.00254789,-0.000838048,-0.603951,0.00203626,0.0103274,1098,421,2.17806,11.9791
-119,603,2.19641,-12.0926,0.00154226,0.000337306,-0.00148268,0.0025402,-0.000660633,-0.592417,0.00195132,0.0106657,1105,421,2.19645,12.0925
-112,603,2.18774,-12.1816,0.00166772,0.000428469,-0.00138359,0.00256409,-0.000467904,-0.57487,0.00188482,0.0150728,1112,421,2.1877,12.1816
-105,603,2.17407,-12.294,0.00186351,0.00053589,-0.00129477,0.00265471,-0.000255316,-0.548526,0.00186076,0.0150264,1119,421,2.1741,12.294
-98,603,2.17932,-12.3783,0.00219417,0.000632791,-0.00130452,0.00293375,-0.000106797,-0.515759,0.00199239,0.0114408,1126,421,2.17928,12.3783
-91,603,2.19739,-12.4577,0.00255887,0.000800018,-0.00135427,0.0032942,6.46834e-05,-0.497432,0.00217489,0.00789639,1133,421,2.19737,12.4577
-84,603,2.21143,-12.5549,0.00283372,0.000852111,-0.00120273,0.0034012,0.000284631,-0.440856,0.0021788,0.00857871,1140,421,2.21139,12.5549
-77,603,2.224,-12.6685,0.00305537,0.000919756,-0.00104209,0.0034796,0.000495533,-0.386604,0.00217346,0.0111539,1147,421,2.224,12.6685
-70,603,2.25635,-12.8145,0.00339749,0.000940669,-0.000818581,0.00364524,0.000692913,-0.2939,0.00223528,0.026919,1154,421,2.25639,12.8145
-63,603,2.26929,-12.7983,0,0,0,0,0,0,0,-1,1161,421,2.26935,12.7983
-56,603,2.23962,-12.8595,0,0,0,0,0,0,0,-1,1168,421,2.2396,12.8595
-49,603,2.27271,-12.9172,0,0,0,0,0,0,0,-1,1175,421,2.27272,12.9172
-42,603,2.26526,-12.9664,0,0,0,0,0,0,0,-1,1182,421,2.26526,12.9664
-35,603,2.20789,-12.9875,0.00495303,0.0038272,0.00488177,0.00930423,-0.000523999,0.727996,0.00638466,0.0409619,1189,421,2.20786,12.9875
-28,603,2.21643,-13.0326,0.00386216,0.00275506,0.00595767,0.00929194,-0.00267472,0.739074,0.00725252,0.0241135,1196,421,2.21642,13.0326
-21,603,2.30457,-13.0656,0.00298404,0.0019061,0.00670274,0.00916944,-0.0042793,0.745279,0.00793389,0.0197356,1203,421,2.30456,13.0656
-14,603,2.37646,-13.0781,0.00229633,0.00157059,0.00701182,0.00895466,-0.00508774,0.759546,0.00820921,0.0206037,1210,421,2.37652,13.0781
-7,603,2.41565,-13.1134,0.00217038,-5.28792e-05,0.00657644,0.00772848,-0.00561098,0.701674,0.00773382,0.0229326,1217,421,2.41567,13.1134
0,603,2.45166,-13.1964,0.00203439,-0.000512388,0.00566257,0.00656498,-0.00504298,0.674799,0.00672103,0.0286816,1224,421,2.45162,13.1964
7,603,2.44897,-13.1899,0.0012464,-0.000717183,0.00496052,0.00532135,-0.00479213,0.6877,0.00584169,0.0334138,1231,421,2.44902,13.1899
14,603,2.49255,-13.1447,0.000816695,-0.0010518,0.00435887,0.00434032,-0.00457542,0.679829,0.0051481,0.0266341,1238,421,2.49257,13.1447
21,603,2.55713,-13.1567,0.000694248,-0.00113119,0.00361368,0.00350869,-0.00394563,0.661699,0.00430622,0.0194333,1245,421,2.55716,13.1567
28,603,2.65234,-13.1787,0.000736655,-0.000893501,0.00290969,0.00294327,-0.00310012,0.648836,0.00348954,0.0236619,1252,421,2.65234,13.1788
35,603,2.60364,-13.2338,0.000756272,-0.000381887,0.00227414,0.00253146,-0.00215707,0.662796,0.0027098,0.0340059,1259,421,2.60363,13.2338
42,603,2.58545,-13.2253,0.000784885,-0.000249246,0.00145987,0.00181656,-0.00128092,0.615199,0.00179722,0.0288056,1266,421,2.58551,13.2253
49,603,2.62024,-13.246,0.000514677,0.000882926,0.00127512,0.00198715,-0.000589543,0.857101,0.00155889,0.0162967,1273,421,2.62023,13.246
56,603,2.62817,-13.2054,0.000584995,0.0016481,0.00134117,0.00255922,-0.000326121,0.97407,0.00182459,0.0294911,1280,421,2.62816,13.2054
63,603,2.72034,-13.1114,0.000626502,0.00257463,0.00130474,0.0032288,-2.76712e-05,1.10604,0.00216182,0.0378481,1287,421,2.7203,13.1114
70,603,2.75635,-13.0501,0.000654869,0.00372933,0.00134467,0.00423445,0.000149746,1.21146,0.0027744,0.0408637,1294,421,2.75635,13.0501
77,603,2.63416,-13.0872,0.000713542,0.00478775,0.00176614,0.00544676,5.45289e-05,1.21366,0.00361314,0.0431648,1301,421,2.6342,13.0872
84,603,2.58398,-12.9897,0.000800679,0.00554264,0.00205727,0.00631075,3.25665e-05,1.21346,0.00419636,0.0423315,1308,421,2.58399,12.9897
91,603,2.81738,-13.0229,8.17282e-05,0.00449168,0.00168824,0.00506377,-0.000490357,1.24408,0.0035506,0.0443634,1315,421,2.81733,13.0229
98,603,2.99365,-13.1439,-0.00150818,0.00264593,0.00079379,0.00279244,-0.0016547,1.38827,0.00259541,0.0446219,1322,421,2.99361,13.1439
105,603,3.02148,-13.2174,-0.00308582,-0.00186992,-0.000937157,-0.00136079,-0.00359495,-1.07314,0.00209586,0.0384747,1329,421,3.02153,13.2174
112,603,2.87183,-13.0799,-0.00347638,-0.00643423,-0.00312995,-0.00149354,-0.00841707,-0.564692,0.00518573,0.0309164,1336,421,2.87186,13.0799
119,603,2.88794,-13.0302,-0.00464358,-0.0109404,-0.00582649,-0.00116927,-0.0144147,-0.537691,0.00924475,0.0323539,1343,421,2.88789,13.0302
126,603,2.93726,-12.9474,-0.00621445,-0.0161988,-0.00873293,-0.00114751,-0.0212658,-0.525742,0.0138106,0.0391472,1350,421,2.9372,12.9474
133,603,2.94824,-12.884,-0.00803915,-0.0217741,-0.0117959,-0.00125724,-0.028556,-0.521788,0.0186324,0.0363333,1357,421,2.94818,12.884
140,603,2.95142,-12.8207,-0.00960235,-0.027003,-0.0145614,-0.0013401,-0.0352653,-0.516111,0.0230765,0.0241439,1364,421,2.95142,12.8207
147,603,2.90869,-12.781,-0.0108847,-0.0305825,-0.0165424,-0.00148125,-0.0399859,-0.516893,0.0261775,0.0183966,1371,421,2.90864,12.781
154,603,2.89001,-12.7213,-0.011371,-0.0344289,-0.0185433,-0.00106488,-0.044735,-0.507274,0.0294748,0.0261815,1378,421,2.88999,12.7213
161,603,2.88721,-12.6586,-0.0118055,-0.0352687,-0.0195778,-0.00071341,-0.0463607,-0.515471,0.0306721,0.0303794,1385,421,2.88719,12.6586
168,603,2.95386,-12.6081,-0.0110182,-0.0335126,-0.0186479,-0.000488291,-0.0440425,-0.514038,0.0292003,0.028004,1392,421,2.95387,12.6081
175,603,3.10974,-12.5326,-0.00994892,-0.0306852,-0.0169303,-0.000464225,-0.0401699,-0.510655,0.0266265,0.0293996,1399,421,3.10974,12.5326
182,603,3.17151,-12.4585,-0.00882125,-0.0265666,-0.0152419,-5.75669e-05,-0.0353302,-0.521813,0.0235343,0.0353278,1406,421,3.17152,12.4585
189,603,3.12952,-12.3118,-0.0071625,-0.0210969,-0.0125072,0.000187128,-0.0284466,-0.531276,0.0190271,0.0307665,1413,421,3.12955,12.3118
196,603,3.05652,-12.1693,-0.00428321,-0.0141233,-0.00913809,0.00117517,-0.0195817,-0.538447,0.0134633,0.0220086,1420,421,3.05649,12.1693
203,603,3.01843,-12.1082,-0.00125844,-0.00657428,-0.00561998,0.00230044,-0.0101332,-0.564514,0.00763861,0.0120207,1427,421,3.01842,12.1082
210,603,3.00757,-12.0594,0.000823436,-7.19724e-05,-0.0022303,0.00265053,-0.00189906,-0.686346,0.00263862,0.00979928,1434,421,3.00752,12.0594
217,603,3.00317,-11.9424,0.000589499,0.00237725,-0.00110924,0.00290795,5.87917e-05,-1.12454,0.00191934,0.0125745,1441,421,3.00315,11.9424
224,603,3.0415,-11.8383,0.000450164,0.00276197,-0.000731655,0.00297407,0.000238065,-1.28864,0.00190831,0.0163897,1448,421,3.04152,11.8384
231,603,3.06128,-11.7382,0.000400474,0.00300745,-0.00036867,0.00305858,0.000349341,-1.43298,0.00193316,0.0141186,1455,421,3.06131,11.7382
238,603,3.04138,-11.6003,0.000510399,0.0031523,-8.56622e-05,0.00315508,0.000507625,-1.53842,0.00195625,0.0108562,1462,421,3.04136,11.6003
245,603,3.05225,-11.4914,0.000622736,0.00321089,0.000111599,0.00321569,0.000617933,1.52778,0.00197038,0.0119055,1469,421,3.0523,11.4914
252,603,3.07556,-11.3614,0.000664788,0.00319541,0.000261737,0.0032222,0.000638001,1.46881,0.00197021,0.0101511,1476,421,3.07562,11.3614
259,603,3.07288,-11.2282,0.00069612,0.00305659,0.000360701,0.00311047,0.000642232,1.42249,0.00189618,0.0096395,1483,421,3.07287,11.2282
266,603,3.06433,-11.0942,0.000771855,0.00289944,0.000364081,0.00296002,0.000711277,1.40592,0.00178415,0.0113862,1490,421,3.06431,11.0942
273,603,3.07458,-10.945,0.000836931,0.00267793,0.000334719,0.0027369,0.000777963,1.39641,0.00162845,0.0110045,1497,421,3.07461,10.945
280,603,3.08362,-10.7925,0.000965286,0.00235061,0.000286175,0.0024074,0.000908497,1.3749,0.00140378,0.0128086,1504,421,3.08367,10.7925
287,603,3.09375,-10.6358,0.00119122,0.00212542,0.000154155,0.0021502,0.00116644,1.41141,0.00124291,0.0116171,1511,421,3.0938,10.6358
294,603,3.07581,-10.5009,0.0014722,0.00197373,-3.27183e-05,0.00197586,0.00147008,-1.50593,0.00118518,0.00984781,1518,421,3.07576,10.5009
301,603,3.08289,-10.3564,0.00174586,0.00174345,-0.000215768,0.00196043,0.00152889,-0.782602,0.00118949,0.0117348,1525,421,3.08289,10.3564
308,603,3.09729,-10.19,0.00208614,0.00163389,-0.000318922,0.00225096,0.00146906,-0.47702,0.00131963,0.0167357,1532,421,3.09728,10.19
315,603,3.07458,-10.0476,0.00239118,0.00145172,-0.000422733,0.00255339,0.00128951,-0.366391,0.00147423,0.0152718,1539,421,3.07453,10.0476
322,603,3.06104,-9.87421,0.00259953,0.00132908,-0.000433614,0.00273342,0.00119519,-0.299479,0.00158228,0.0144569,1546,421,3.06098,9.8742
329,603,3.03918,-9.6785,0.00270388,0.00125193,-0.000303591,0.0027648,0.00119101,-0.198042,0.00160135,0.0108242,1553,421,3.03918,9.6785
336,603,3.03784,-9.51447,0.00264578,0.0012509,-7.61989e-05,0.00264993,0.00124675,-0.0544116,0.00153083,0.00903327,1560,421,3.03788,9.51447
343,603,3.06128,-9.33493,0.00246663,0.00140133,0.000234735,0.00251606,0.0013519,0.207543,0.00145399,0.0108866,1567,421,3.06122,9.33493
350,603,3.06531,-9.14102,0.00222765,0.00162916,0.000645431,0.00263983,0.00121698,0.56833,0.00152565,0.0199516,1574,421,3.06528,9.14104
357,603,3.05542,-8.9202,0.00183434,0.00195445,0.00110534,0.00300136,0.00078743,0.812539,0.00179689,0.0242582,1581,421,3.05547,8.9202
364,603,3.03247,-8.71747,0.00098269,0.00240756,0.00215799,0.00396768,-0.000577431,0.944834,0.00285711,0.0227749,1588,421,3.0325,8.71746
371,603,3.04041,-8.50745,0.000292008,0.00276492,0.00282166,0.00460915,-0.00155222,0.991898,0.00370033,0.0252694,1595,421,3.04046,8.50746
378,603,3.05664,-8.34482,-0.000601832,0.00388066,0.00302427,0.00540364,-0.00212481,1.10428,0.00448186,0.0353442,1602,421,3.05665,8.34481
385,603,3.02625,-8.11929,-0.00111125,0.00458561,0.00299766,0.00587234,-0.00239797,1.16534,0.00491331,0.0483994,1609,421,3.02619,8.1193
392,603,2.96387,-7.85834,0,0,0,0,0,0,0,-1,1616,421,2.9639,7.85833
399,603,2.38013,-5.37076,0,0,0,0,0,0,0,-1,1623,421,2.38016,5.37075
406,603,3.01917,-2.37219,0,0,0,0,0,0,0,-1,1630,421,3.01915,2.37219
413,603,2.38928,-2.41275,0,0,0,0,0,0,0,-1,1637,421,2.38926,2.41274
420,603,2.74866,-2.30066,0,0,0,0,0,0,0,-1,1644,421,2.74867,2.30065
427,603,7.11548,-3.35352,0,0,0,0,0,0,0,-1,1651,421,7.11549,3.35351
434,603,7.32153,-4.50525,0,0,0,0,0,0,0,-1,1658,421,7.32149,4.50525
441,603,3.18213,-0.250946,0,0,0,0,0,0,0,-1,1665,421,3.18212,0.250944
448,603,2.95667,-0.066925,0,0,0,0,0,0,0,-1,1672,421,2.95662,0.0669226
455,603,0,0,0,0,0,0,0,0,0,-1,1679,421,0,0
462,603,0,0,0,0,0,0,0,0,0,-1,1686,421,0,0
469,603,0,0,0,0,0,0,0,0,0,-1,1693,421,0,0
476,603,0,0,0,0,0,0,0,0,0,-1,1700,421,0,0
483,603,0,0,0,0,0,0,0,0,0,-1,1707,421,0,0
490,603,0,0,0,0,0,0,0,0,0,-1,1714,421,0,0
497,603,0,0,0,0,0,0,0,0,0,-1,1721,421,0,0
504,603,0,0,0,0,0,0,0,0,0,-1,1728,421,0,0
511,603,0,0,0,0,0,0,0,0,0,-1,1735,421,0,0
518,603,0,0,0,0,0,0,0,0,0,-1,1742,421,0,0
525,603,0,0,0,0,0,0,0,0,0,-1,1749,421,0,0
532,603,0,0,0,0,0,0,0,0,0,-1,1756,421,0,0
539,603,0,0,0,0,0,0,0,0,0,-1,1763,421,0,0
546,603,0,0,0,0,0,0,0,0,0,-1,1770,421,0,0
553,603,0,0,0,0,0,0,0,0,0,-1,1777,421,0,0
560,603,0,0,0,0,0,0,0,0,0,-1,1784,421,0,0
567,603,0,0,0,0,0,0,0,0,0,-1,1791,421,0,0
574,603,0,0,0,0,0,0,0,0,0,-1,1798,421,0,0
581,603,0,0,0,0,0,0,0,0,0,-1,1805,421,0,0
588,603,0,0,0,0,0,0,0,0,0,-1,1812,421,0,0
595,603,0,0,0,0,0,0,0,0,0,-1,1819,421,0,0
602,603,0,0,0,0,0,0,0,0,0,-1,1826,421,0,0
609,603,0,0,0,0,0,0,0,0,0,-1,1833,421,0,0
616,603,0,0,0,0,0,0,0,0,0,-1,1840,421,0,0
623,603,0,0,0,0,0,0,0,0,0,-1,1847,421,0,0
630,603,0,0,0,0,0,0,0,0,0,-1,1854,421,0,0
637,603,0,0,0,0,0,0,0,0,0,-1,1861,421,0,0
644,603,0,0,0,0,0,0,0,0,0,-1,1868,421,0,0
651,603,0,0,0,0,0,0,0,0,0,-1,1875,421,0,0
658,603,0,0,0,0,0,0,0,0,0,-1,1882,421,0,0
665,603,0,0,0,0,0,0,0,0,0,-1,1889,421,0,0
672,603,0,0,0,0,0,0,0,0,0,-1,1896,421,0,0
679,603,0,0,0,0,0,0,0,0,0,-1,1903,421,0,0
686,603,0,0,0,0,0,0,0,0,0,-1,1910,421,0,0
693,603,0,0,0,0,0,0,0,0,0,-1,1917,421,0,0
700,603,0,0,0,0,0,0,0,0,0,-1,1924,421,0,0
707,603,0,0,0,0,0,0,0,0,0,-1,1931,421,0,0
714,603,0,0,0,0,0,0,0,0,0,-1,1938,421,0,0
721,603,0,0,0,0,0,0,0,0,0,-1,1945,421,0,0
728,603,0,0,0,0,0,0,0,0,0,-1,1952,421,0,0
735,603,0,0,0,0,0,0,0,0,0,-1,1959,421,0,0
742,603,0,0,0,0,0,0,0,0,0,-1,1966,421,0,0
749,603,0,0,0,0,0,0,0,0,0,-1,1973,421,0,0
756,603,0,0,0,0,0,0,0,0,0,-1,1980,421,0,0
763,603,0,0,0,0,0,0,0,0,0,-1,1987,421,0,0
770,603,0,0,0,0,0,0,0,0,0,-1,1994,421,0,0
777,603,0,0,0,0,0,0,0,0,0,-1,2001,421,0,0
784,603,0,0,0,0,0,0,0,0,0,-1,2008,421,0,0
791,603,0,0,0,0,0,0,0,0,0,-1,2015,421,0,0
798,603,0,0,0,0,0,0,0,0,0,-1,2022,421,0,0
805,603,0,0,0,0,0,0,0,0,0,-1,2029,421,0,0
812,603,0,0,0,0,0,0,0,0,0,-1,2036,421,0,0
-700,596,0,0,0,0,0,0,0,0,0,-1,524,428,0,0
-693,596,0,0,0,0,0,0,0,0,0,-1,531,428,0,0
-686,596,0,0,0,0,0,0,0,0,0,-1,538,428,0,0
-679,596,0,0,0,0,0,0,0,0,0,-1,545,428,0,0
-672,596,0,0,0,0,0,0,0,0,0,-1,552,428,0,0
-665,596,0,0,0,0,0,0,0,0,0,-1,559,428,0,0
-658,596,0,0,0,0,0,0,0,0,0,-1,566,428,0,0
-651,596,0,0,0,0,0,0,0,0,0,-1,573,428,0,0
-644,596,0,0,0,0,0,0,0,0,0,-1,580,428,0,0
-637,596,0,0,0,0,0,0,0,0,0,-1,587,428,0,0
-630,596,0,0,0,0,0,0,0,0,0,-1,594,428,0,0
-623,596,0,0,0,0,0,0,0,0,0,-1,601,428,0,0
-616,596,0,0,0,0,0,0,0,0,0,-1,608,428,0,0
-609,596,0,0,0,0,0,0,0,0,0,-1,615,428,0,0
-602,596,0,0,0,0,0,0,0,0,0,-1,622,428,0,0
-595,596,0,0,0,0,0,0,0,0,0,-1,629,428,0,0
-588,596,0,0,0,0,0,0,0,0,0,-1,636,428,0,0
-581,596,0,0,0,0,0,0,0,0,0,-1,643,428,0,0
-574,596,0,0,0,0,0,0,0,0,0,-1,650,428,0,0
-567,596,0,0,0,0,0,0,0,0,0,-1,657,428,0,0
-560,596,0,0,0,0,0,0,0,0,0,-1,664,428,0,0
-553,596,0,0,0,0,0,0,0,0,0,-1,671,428,0,0
-546,596,0,0,0,0,0,0,0,0,0,-1,678,428,0,0
-539,596,0,0,0,0,0,0,0,0,0,-1,685,428,0,0
-532,596,0,0,0,0,0,0,0,0,0,-1,692,428,0,0
-525,596,0,0,0,0,0,0,0,0,0,-1,699,428,0,0
-518,596,0,0,0,0,0,0,0,0,0,-1,706,428,0,0
-511,596,0,0,0,0,0,0,0,0,0,-1,713,428,0,0
-504,596,0,0,0,0,0,0,0,0,0,-1,720,428,0,0
-497,596,0,0,0,0,0,0,0,0,0,-1,727,428,0,0
-490,596,0,0,0,0,0,0,0,0,0,-1,734,428,0,0
-483,596,0,0,0,0,0,0,0,0,0,-1,741,428,0,0
-476,596,0,0,0,0,0,0,0,0,0,-1,748,428,0,0
-469,596,0,0,0,0,0,0,0,0,0,-1,755,428,0,0
-462,596,0,0,0,0,0,0,0,0,0,-1,762,428,0,0
-455,596,0,0,0,0,0,0,0,0,0,-1,769,428,0,0
-448,596,0,0,0,0,0,0,0,0,0,-1,776,428,0,0
-441,596,0,0,0,0,0,0,0,0,0,-1,783,428,0,0
-434,596,0,0,0,0,0,0,0,0,0,-1,790,428,0,0
-427,596,0,0,0,0,0,0,0,0,0,-1,797,428,0,0
-420,596,0,0,0,0,0,0,0,0,0,-1,804,428,0,0
-413,596,0,0,0,0,0,0,0,0,0,-1,811,428,0,0
-406,596,0,0,0,0,0,0,0,0,0,-1,818,428,0,0
-399,596,0,0,0,0,0,0,0,0,0,-1,825,428,0,0
-392,596,0,0,0,0,0,0,0,0,0,-1,832,428,0,0
-385,596,0,0,0,0,0,0,0,0,0,-1,839,428,0,0
-378,596,0,0,0,0,0,0,0,0,0,-1,846,428,0,0
-371,596,0,0,0,0,0,0,0,0,0,-1,853,428,0,0
-364,596,0,0,0,0,0,0,0,0,0,-1,860,428,0,0
-357,596,0,0,0,0,0,0,0,0,0,-1,867,428,0,0
-350,596,0,0,0,0,0,0,0,0,0,-1,874,428,0,0
-343,596,0,0,0,0,0,0,0,0,0,-1,881,428,0,0
-336,596,1.89813,-9.66019,0,0,0,0,0,0,0,-1,888,428,1.89813,9.6602
-329,596,1.54865,-9.16202,0,0,0,0,0,0,0,-1,895,428,1.54866,9.16203
-322,596,2.35809,-9.06784,0,0,0,0,0,0,0,-1,902,428,2.35812,9.06783
-315,596,2.46185,-8.86038,0,0,0,0,0,0,0,-1,909,428,2.46188,8.86039
-308,596,2.35461,-8.94577,0,0,0,0,0,0,0,-1,916,428,2.35461,8.94578
-301,596,2.93207,-9.53336,-0.00678627,-0.0404139,0.0117848,-0.00306751,-0.0441327,0.305665,0.0284545,0.045601,923,428,2.93206,9.53337
-294,596,2.47681,-9.703,-0.00534348,-0.0328852,0.0108171,-0.00160301,-0.0366256,0.332921,0.0239007,0.0477008,930,428,2.47684,9.70299
-287,596,2.43939,-9.50015,-0.00554606,-0.0244719,0.0080577,-0.00258025,-0.0274377,0.352683,0.0174953,0.0497922,937,428,2.43939,9.50014
-280,596,2.03668,-8.8027,0,0,0,0,0,0,0,-1,944,428,2.0367,8.80269
-273,596,1.98749,-8.98724,-0.00506727,-0.0117213,0.00374661,-0.00338367,-0.0134049,0.422325,0.00804934,0.0452445,951,428,1.98748,8.98725
-266,596,2.01483,-9.11157,-0.00546435,-0.00666681,0.00206474,-0.00391509,-0.00821608,0.643721,0.0047453,0.0387426,958,428,2.0148,9.11158
-259,596,2.0238,-9.25943,-0.00526927,-0.00264778,0.000603284,-0.00251561,-0.00540144,1.35512,0.00312096,0.0333603,965,428,2.02378,9.25942
-252,596,2.10718,-9.45779,-0.00433353,0.000383486,0.000380403,0.000413967,-0.00436401,1.49084,0.00305669,0.0178827,972,428,2.10717,9.4578
-245,596,2.11243,-9.62292,-0.00306409,0.00293726,0.000126165,0.00293991,-0.00306675,1.54979,0.0034682,0.0119375,979,428,2.11243,9.62292
-238,596,2.09985,-9.79443,-0.00210748,0.00425064,9.79698e-05,0.00425215,-0.00210899,1.55539,0.00374144,0.0104968,986,428,2.09984,9.79442
-231,596,2.0752,-9.96765,-0.00135154,0.00463343,0.000136074,0.00463652,-0.00135464,1.54808,0.00362786,0.0120158,993,428,2.0752,9.96765
-224,596,2.04236,-10.1349,-0.000471305,0.00401718,0.000636032,0.00410556,-0.000559693,1.43271,0.00294141,0.0128315,1000,428,2.04234,10.1349
-217,596,2.04089,-10.2856,0.000357983,0.00341944,0.00111498,0.00378247,-5.04439e-06,1.25603,0.00252333,0.0133126,1007,428,2.0409,10.2856
-210,596,2.06219,-10.4503,0.00115548,0.00272666,0.00131116,0.00346956,0.000412572,1.0553,0.00218852,0.0113469,1014,428,2.06217,10.4504
-203,596,2.06152,-10.6286,0.0016662,0.00209656,0.00137286,0.00327101,0.000491761,0.863135,0.00203664,0.0147093,1021,428,2.06151,10.6286
-196,596,2.06299,-10.7702,0.00212508,0.00162644,0.00113109,0.00303401,0.000717511,0.67692,0.00183098,0.0140852,1028,428,2.06297,10.7702
-189,596,2.04382,-10.8935,0.00248528,0.0012048,0.000555462,0.00269265,0.00099743,0.357308,0.00157191,0.0108888,1035,428,2.04385,10.8935
-182,596,2.04419,-11.0251,0.00287444,0.000828098,0.00015041,0.00288544,0.000817101,0.072979,0.00171732,0.0120676,1042,428,2.04415,11.0252
-175,596,2.04456,-11.1688,0.00288546,0.000694452,-0.000358048,0.00294249,0.000637425,-0.157945,0.00178748,0.0144641,1049,428,2.04457,11.1688
-168,596,2.04431,-11.2892,0.00254345,0.000460375,-0.000986289,0.00293634,6.74906e-05,-0.37908,0.00193545,0.016521,1056,428,2.04437,11.2892
-161,596,2.0354,-11.4267,0.00221251,0.000237421,-0.0015289,0.00304507,-0.00059514,-0.498648,0.00225476,0.0142616,1063,428,2.03541,11.4267
-154,596,2.0354,-11.566,0.00197138,0.000128252,-0.00188624,0.00314915,-0.00104951,-0.558167,0.00252311,0.0111806,1070,428,2.03546,11.566
-147,596,2.05933,-11.6585,0.00176558,1.97341e-05,-0.00215546,0.00321817,-0.00143286,-0.593002,0.00275042,0.0117569,1077,428,2.05937,11.6585
-140,596,2.08179,-11.7702,0.00177667,-0.000124168,-0.00224146,0.00326088,-0.00160838,-0.584879,0.00286473,0.0120313,1084,428,2.08179,11.7702
-133,596,2.07605,-11.8943,0.00183563,-0.00029976,-0.0022132,0.00322521,-0.00168934,-0.560655,0.00288324,0.0118389,1091,428,2.07609,11.8943
-126,596,2.07349,-11.9964,0.00195495,-0.000360462,-0.00212522,0.00321734,-0.00162285,-0.535997,0.00284457,0.0103716,1098,428,2.0735,11.9964
-119,596,2.08667,-12.1072,0.00214179,-0.00033164,-0.00206004,0.00330783,-0.00149767,-0.515064,0.00283931,0.0137133,1105,428,2.08666,12.1072
-112,596,2.08093,-12.2082,0.00233795,-0.000265583,-0.00196489,0.00339317,-0.0013208,-0.492837,0.00280791,0.015322,1112,428,2.08088,12.2082
-105,596,2.0498,-12.2962,0.00263189,-0.000136248,-0.00184117,0.0035512,-0.00105555,-0.463093,0.00278677,0.0155065,1119,428,2.0498,12.2962
-98,596,2.0885,-12.3698,0.00310668,0.000128123,-0.00179299,0.00394822,-0.000713424,-0.438833,0.00289936,0.0096063,1126,428,2.08846,12.3698
-91,596,2.12183,-12.4628,0.0036038,0.000550663,-0.00184112,0.00446891,-0.000314447,-0.439265,0.00308943,0.00937339,1133,428,2.12184,12.4628
-84,596,2.16846,-12.621,0.00394919,0.000865615,-0.00161638,0.00464119,0.000173622,-0.404505,0.0030379,0.0161202,1140,428,2.1684,12.621
-77,596,2.17676,-12.7886,0.00421743,0.00117134,-0.00145717,0.00480223,0.000586543,-0.381649,0.00302499,0.0382139,1147,428,2.1767,12.7886
-70,596,2.26868,-13.0951,0,0,0,0,0,0,0,-1,1154,428,2.2687,13.0951
-63,596,1.95569,-12.2758,0,0,0,0,0,0,0,-1,1161,428,1.95563,12.2759
-56,596,1.60107,-10.5827,0,0,0,0,0,0,0,-1,1168,428,1.60108,10.5827
-49,596,1.59473,-10.0393,0,0,0,0,0,0,0,-1,1175,428,1.59472,10.0393
-42,596,1.99585,-6.6246,0,0,0,0,0,0,0,-1,1182,428,1.99586,6.62459
-35,596,1.89624,-12.8485,0,0,0,0,0,0,0,-1,1189,428,1.89623,12.8485
-28,596,2.04651,-12.9676,0,0,0,0,0,0,0,-1,1196,428,2.04646,12.9676
-21,596,2.21448,-12.988,0,0,0,0,0,0,0,-1,1203,428,2.21453,12.988
-14,596,2.33398,-12.841,0.00232556,0.00302378,0.0103241,0.0130046,-0.0076553,0.802299,0.0120606,0.0461098,1210,428,2.334,12.841
-7,596,2.42944,-12.9885,0.00204798,0.000854228,0.00970425,0.0111737,-0.00827148,0.754683,0.0112683,0.0488182,1217,428,2.42949,12.9885
0,596,2.54053,-13.0374,0,0,0,0,0,0,0,-1,1224,428,2.54058,13.0374
7,596,2.40332,-13.089,0.000657378,-0.0002757,0.00741041,0.00761592,-0.00723424,0.753961,0.00857469,0.0483322,1231,428,2.40331,13.089
14,596,2.37256,-13.0127,-8.49549e-05,-0.00069212,0.00650834,0.00612688,-0.00690395,0.762092,0.00752781,0.0452543,1238,428,2.37259,13.0127
21,596,2.4646,-13.0171,-0.000410403,-0.000726327,0.00550081,0.00493471,-0.00607144,0.771044,0.00636569,0.0420502,1245,428,2.46458,13.017
28,596,2.58643,-13.0531,-0.000375565,-0.00037207,0.0045734,0.00419958,-0.00494722,0.785589,0.00528678,0.0412555,1252,428,2.58643,13.0531
35,596,2.65833,-13.0671,-0.000412311,0.000366635,0.00370337,0.00370095,-0.00374663,0.837789,0.00429989,0.0435437,1259,428,2.65836,13.0671
42,596,2.64966,-13.2098,-0.000550374,0.000696031,0.00266618,0.00281088,-0.00266522,0.900208,0.003162,0.0435219,1266,428,2.64963,13.2098
49,596,2.74536,-13.224,-0.000996183,0.00229228,0.00248447,0.00362732,-0.00233122,1.07771,0.00346719,0.0414008,1273,428,2.74538,13.224
56,596,2.73889,-13.1366,-0.000876947,0.00345815,0.00262791,0.0046971,-0.00211589,1.13024,0.00402648,0.0430859,1280,428,2.73892,13.1366
63,596,2.78088,-13.0238,-0.000847244,0.00483204,0.00268498,0.00590043,-0.00191563,1.19209,0.00470403,0.0475187,1287,428,2.7809,13.0238
70,596,3.12561,-12.753,-0.000773753,0.0064746,0.00282098,0.00744309,-0.00174224,1.24009,0.00563334,0.0436358,1294,428,3.12564,12.753
77,596,3.16406,-12.8698,-0.000609135,0.007961,0.00345065,0.00917764,-0.00182578,1.23182,0.00680911,0.0434249,1301,428,3.16406,12.8698
84,596,2.6344,-12.6302,-0.000379747,0.00900646,0.0039414,0.010442,-0.00181526,1.22152,0.00763863,0.0432304,1308,428,2.63443,12.6302
91,596,2.97156,-12.7771,-0.0012207,0.00749854,0.00340506,0.00867071,-0.00239287,1.23926,0.00672161,0.0414341,1315,428,2.97157,12.7771
98,596,3.1958,-13.0916,-0.00337612,0.00456542,0.00194697,0.00501706,-0.00382776,1.34286,0.00512193,0.0480456,1322,428,3.1958,13.0916
105,596,2.59631,-12.8943,-0.00549418,-0.00227133,-0.000811538,-0.00207852,-0.00568699,-1.33753,0.00332276,0.0453343,1329,428,2.59637,12.8943
112,596,2.90076,-12.9961,-0.00580181,-0.00918964,-0.00425833,-0.00291285,-0.0120786,-0.596099,0.00727841,0.0412962,1336,428,2.90071,12.9961
119,596,2.62769,-12.971,-0.00721239,-0.015991,-0.00838765,-0.00213497,-0.0210684,-0.54434,0.0133908,0.0437121,1343,428,2.62764,12.971
126,596,2.63013,-13.0473,-0.00937392,-0.0238787,-0.0128842,-0.00184117,-0.0314115,-0.529055,0.020355,0.0470959,1350,428,2.63016,13.0473
133,596,3.09998,-12.8583,-0.0121988,-0.032134,-0.0175592,-0.00197531,-0.0423574,-0.527249,0.0276034,0.0492201,1357,428,3.09997,12.8583
140,596,3.25134,-12.7227,-0.0145348,-0.0398996,-0.0216803,-0.00209993,-0.0523345,-0.52075,0.0342112,0.0437866,1364,428,3.25135,12.7227
147,596,3.05945,-12.5474,-0.016406,-0.0454008,-0.0246969,-0.00226581,-0.059541,-0.51999,0.0389607,0.0395835,1371,428,3.05941,12.5474
154,596,2.97522,-12.5656,-0.0172819,-0.0510815,-0.0276945,-0.00173809,-0.0666253,-0.511447,0.043849,0.0447521,1378,428,2.97525,12.5656
161,596,3.06433,-12.4802,-0.0181322,-0.052716,-0.0292694,-0.00142844,-0.0694198,-0.51859,0.0458111,0.0471987,1385,428,3.06434,12.4802
168,596,3.06653,-12.5074,0,0,0,0,0,0,0,-1,1392,428,3.06655,12.5075
175,596,3.26416,-12.3662,0,0,0,0,0,0,0,-1,1399,428,3.26418,12.3662
182,596,3.31274,-12.4037,0,0,0,0,0,0,0,-1,1406,428,3.31276,12.4037
189,596,3.24536,-12.3157,0,0,0,0,0,0,0,-1,1413,428,3.24533,12.3157
196,596,3.20862,-12.038,0,0,0,0,0,0,0,-1,1420,428,3.20856,12.038
203,596,3.17249,-12.4236,0,0,0,0,0,0,0,-1,1427,428,3.17247,12.4236
210,596,3.13538,-12.111,0.000910256,-0.00123424,-0.00361609,0.00360972,-0.00393371,-0.641267,0.00435654,0.0384604,1434,428,3.13536,12.111
217,596,3.10315,-11.9629,0.000684932,0.00332613,-0.00164145,0.00411227,-0.000101202,-1.12415,0.00277586,0.0135216,1441,428,3.10309,11.9629
224,596,3.13281,-11.8478,0.000563155,0.0038488,-0.00118288,0.00423035,0.000181609,-1.25878,0.00276169,0.0113052,1448,428,3.13285,11.8478
231,596,3.16479,-11.7165,0.000549094,0.00413842,-0.000755862,0.0042911,0.000396415,-1.37148,0.00273817,0.011564,1455,428,3.16481,11.7165
238,596,3.1698,-11.5926,0.000747634,0.00427288,-0.000427409,0.00432396,0.000696554,-1.45185,0.00268079,0.0140128,1462,428,3.16985,11.5926
245,596,3.17981,-11.4736,0.000945257,0.00426226,-0.000199085,0.00427416,0.000933351,-1.51106,0.00259489,0.0129129,1469,428,3.1798,11.4736
252,596,3.19604,-11.3437,0.00102022,0.00412733,-3.15086e-05,0.00412765,0.0010199,-1.56066,0.00248264,0.00948172,1476,428,3.19611,11.3437
259,596,3.19263,-11.2241,0.00103079,0.0038125,0.000103754,0.00381637,0.00102693,1.53357,0.00228036,0.00831231,1483,428,3.19257,11.2241
266,596,3.18347,-11.0963,0.00101346,0.00342831,0.000205249,0.00344563,0.000996136,1.48661,0.00204747,0.00993607,1490,428,3.18342,11.0963
273,596,3.19714,-10.9364,0.000902352,0.00307903,0.000257291,0.00310903,0.000872353,1.45472,0.00185171,0.0123687,1497,428,3.1971,10.9364
280,596,3.21094,-10.7927,0.000837603,0.00253952,0.000296736,0.00258977,0.00078735,1.40304,0.00153301,0.0132856,1504,428,3.21098,10.7927
287,596,3.23157,-10.6612,0.000843635,0.00215636,0.000276603,0.00221226,0.000787733,1.37138,0.00129477,0.01144,1511,428,3.23158,10.6612
294,596,3.22131,-10.5168,0.000862575,0.00186291,0.000249367,0.00192163,0.000803859,1.33955,0.00111438,0.00966083,1518,428,3.22133,10.5168
301,596,3.22217,-10.3419,0.000850191,0.00150671,0.000242522,0.00158658,0.000770319,1.25265,0.000916143,0.0110814,1525,428,3.22218,10.342
308,596,3.25171,-10.1764,0.000931096,0.00129413,0.000299303,0.00146266,0.00076257,1.05798,0.000844722,0.016279,1532,428,3.25167,10.1764
315,596,3.21704,-10.024,0.00106835,0.00111969,0.00034424,0.00143921,0.000748823,0.822611,0.000831159,0.01574,1539,428,3.21703,10.024
322,596,3.21375,-9.85349,0.0011585,0.00102376,0.000425665,0.00152209,0.000660167,0.706915,0.000881351,0.012641,1546,428,3.21368,9.85349
329,596,3.20825,-9.6861,0.00121424,0.000971648,0.000580831,0.0016863,0.000499582,0.682463,0.00100017,0.00954751,1553,428,3.20826,9.68611
336,596,3.19458,-9.52768,0.00118684,0.00102414,0.000793728,0.00190337,0.000307602,0.734333,0.00117983,0.00877198,1560,428,3.19461,9.52769
343,596,3.22449,-9.34274,0.00108355,0.00118943,0.00102929,0.00216715,0.000105835,0.811091,0.00141081,0.0115538,1567,428,3.22448,9.34274
350,596,3.24329,-9.1431,0.000968148,0.00142375,0.00132723,0.00254259,-0.00015069,0.870388,0.00174746,0.0116908,1574,428,3.24329,9.14311
357,596,3.20959,-8.94815,0.000762638,0.0017385,0.001644,0.00296545,-0.000464313,0.929655,0.00214853,0.0092061,1581,428,3.20954,8.94816
364,596,3.19458,-8.75665,0.000490341,0.00216414,0.00192359,0.003425,-0.000770518,0.990583,0.00257883,0.00940231,1588,428,3.1946,8.75666
371,596,3.18506,-8.57996,7.49813e-05,0.00255698,0.0023835,0.0040032,-0.00137124,1.02542,0.00322457,0.0100919,1595,428,3.18509,8.57995
378,596,3.18323,-8.38565,-0.00047879,0.00330396,0.00254103,0.00458026,-0.00175509,1.10533,0.003777,0.0142257,1602,428,3.18325,8.38566
385,596,3.19836,-8.1301,-0.000861368,0.0037231,0.00246882,0.00479975,-0.00193802,1.15956,0.00400531,0.0261369,1609,428,3.19833,8.13008
392,596,3.17493,-7.8978,-0.000967776,0.00374586,0.00228324,0.00467047,-0.00189239,1.18603,0.00390058,0.037167,1616,428,3.17495,7.8978
399,596,3.14551,-7.7236,0,0,0,0,0,0,0,-1,1623,428,3.1455,7.72362
406,596,2.42261,-6.35526,0,0,0,0,0,0,0,-1,1630,428,2.42257,6.35526
413,596,3.39124,-2.63528,0,0,0,0,0,0,0,-1,1637,428,3.39122,2.6353
420,596,2.6344,-3.06308,0,0,0,0,0,0,0,-1,1644,428,2.63439,3.06308
427,596,2.99329,-1.90512,0,0,0,0,0,0,0,-1,1651,428,2.99327,1.90512
434,596,3.80896,-0.253998,0,0,0,0,0,0,0,-1,1658,428,3.80902,0.254004
441,596,3.86401,-0.131622,0,0,0,0,0,0,0,-1,1665,428,3.86406,0.131613
448,596,1.0769,0.0083313,0,0,0,0,0,0,0,-1,1672,428,1.07684,-0.00832231
455,596,2.00769,-1.43329,0,0,0,0,0,0,0,-1,1679,428,2.00765,1.4333
462,596,0,0,0,0,0,0,0,0,0,-1,1686,428,0,0
469,596,0,0,0,0,0,0,0,0,0,-1,1693,428,0,0
476,596,0,0,0,0,0,0,0,0,0,-1,1700,428,0,0
483,596,0,0,0,0,0,0,0,0,0,-1,1707,428,0,0
490,596,0,0,0,0,0,0,0,0,0,-1,1714,428,0,0
497,596,0,0,0,0,0,0,0,0,0,-1,1721,428,0,0
504,596,0,0,0,0,0,0,0,0,0,-1,1728,428,0,0
511,596,0,0,0,0,0,0,0,0,0,-1,1735,428,0,0
518,596,0,0,0,0,0,0,0,0,0,-1,1742,428,0,0
525,596,0,0,0,0,0,0,0,0,0,-1,1749,428,0,0
532,596,0,0,0,0,0,0,0,0,0,-1,1756,428,0,0
539,596,0,0,0,0,0,0,0,0,0,-1,1763,428,0,0
546,596,0,0,0,0,0,0,0,0,0,-1,1770,428,0,0
553,596,0,0,0,0,0,0,0,0,0,-1,1777,428,0,0
560,596,0,0,0,0,0,0,0,0,0,-1,1784,428,0,0
567,596,0,0,0,0,0,0,0,0,0,-1,1791,428,0,0
574,596,0,0,0,0,0,0,0,0,0,-1,1798,428,0,0
581,596,0,0,0,0,0,0,0,0,0,-1,1805,428,0,0
588,596,0,0,0,0,0,0,0,0,0,-1,1812,428,0,0
595,596,0,0,0,0,0,0,0,0,0,-1,1819,428,0,0
602,596,0,0,0,0,0,0,0,0,0,-1,1826,428,0,0
609,596,0,0,0,0,0,0,0,0,0,-1,1833,428,0,0
616,596,0,0,0,0,0,0,0,0,0,-1,1840,428,0,0
623,596,0,0,0,0,0,0,0,0,0,-1,1847,428,0,0
630,596,0,0,0,0,0,0,0,0,0,-1,1854,428,0,0
637,596,0,0,0,0,0,0,0,0,0,-1,1861,428,0,0
644,596,0,0,0,0,0,0,0,0,0,-1,1868,428,0,0
651,596,0,0,0,0,0,0,0,0,0,-1,1875,428,0,0
658,596,0,0,0,0,0,0,0,0,0,-1,1882,428,0,0
665,596,0,0,0,0,0,0,0,0,0,-1,1889,428,0,0
672,596,0,0,0,0,0,0,0,0,0,-1,1896,428,0,0
679,596,0,0,0,0,0,0,0,0,0,-1,1903,428,0,0
686,596,0,0,0,0,0,0,0,0,0,-1,1910,428,0,0
693,596,0,0,0,0,0,0,0,0,0,-1,1917,428,0,0
700,596,0,0,0,0,0,0,0,0,0,-1,1924,428,0,0
707,596,0,0,0,0,0,0,0,0,0,-1,1931,428,0,0
714,596,0,0,0,0,0,0,0,0,0,-1,1938,428,0,0
721,596,0,0,0,0,0,0,0,0,0,-1,1945,428,0,0
728,596,0,0,0,0,0,0,0,0,0,-1,1952,428,0,0
735,596,0,0,0,0,0,0,0,0,0,-1,1959,428,0,0
742,596,0,0,0,0,0,0,0,0,0,-1,1966,428,0,0
749,596,0,0,0,0,0,0,0,0,0,-1,1973,428,0,0
756,596,0,0,0,0,0,0,0,0,0,-1,1980,428,0,0
763,596,0,0,0,0,0,0,0,0,0,-1,1987,428,0,0
770,596,0,0,0,0,0,0,0,0,0,-1,1994,428,0,0
777,596,0,0,0,0,0,0,0,0,0,-1,2001,428,0,0
784,596,0,0,0,0,0,0,0,0,0,-1,2008,428,0,0
791,596,0,0,0,0,0,0,0,0,0,-1,2015,428,0,0
798,596,0,0,0,0,0,0,0,0,0,-1,2022,428,0,0
805,596,0,0,0,0,0,0,0,0,0,-1,2029,428,0,0
812,596,0,0,0,0,0,0,0,0,0,-1,2036,428,0,0
-700,589,0,0,0,0,0,0,0,0,0,-1,524,435,0,0
-693,589,0,0,0,0,0,0,0,0,0,-1,531,435,0,0
-686,589,0,0,0,0,0,0,0,0,0,-1,538,435,0,0
-679,589,0,0,0,0,0,0,0,0,0,-1,545,435,0,0
-672,589,0,0,0,0,0,0,0,0,0,-1,552,435,0,0
-665,589,0,0,0,0,0,0,0,0,0,-1,559,435,0,0
-658,589,0,0,0,0,0,0,0,0,0,-1,566,435,0,0
-651,589,0,0,0,0,0,0,0,0,0,-1,573,435,0,0
-644,589,0,0,0,0,0,0,0,0,0,-1,580,435,0,0
-637,589,0,0,0,0,0,0,0,0,0,-1,587,435,0,0
-630,589,0,0,0,0,0,0,0,0,0,-1,594,435,0,0
-623,589,0,0,0,0,0,0,0,0,0,-1,601,435,0,0
-616,589,0,0,0,0,0,0,0,0,0,-1,608,435,0,0
-609,589,0,0,0,0,0,0,0,0,0,-1,615,435,0,0
-602,589,0,0,0,0,0,0,0,0,0,-1,622,435,0,0
-595,589,0,0,0,0,0,0,0,0,0,-1,629,435,0,0
-588,589,0,0,0,0,0,0,0,0,0,-1,636,435,0,0
-581,589,0,0,0,0,0,0,0,0,0,-1,643,435,0,0
-574,589,0,0,0,0,0,0,0,0,0,-1,650,435,0,0
-567,589,0,0,0,0,0,0,0,0,0,-1,657,435,0,0
-560,589,0,0,0,0,0,0,0,0,0,-1,664,435,0,0
-553,589,0,0,0,0,0,0,0,0,0,-1,671,435,0,0
-546,589,0,0,0,0,0,0,0,0,0,-1,678,435,0,0
-539,589,0,0,0,0,0,0,0,0,0,-1,685,435,0,0
-532,589,0,0,0,0,0,0,0,0,0,-1,692,435,0,0
-525,589,0,0,0,0,0,0,0,0,0,-1,699,435,0,0
-518,589,0,0,0,0,0,0,0,0,0,-1,706,435,0,0
-511,589,0,0,0,0,0,0,0,0,0,-1,713,435,0,0
-504,589,0,0,0,0,0,0,0,0,0,-1,720,435,0,0
-497,589,0,0,0,0,0,0,0,0,0,-1,727,435,0,0
-490,589,0,0,0,0,0,0,0,0,0,-1,734,435,0,0
-483,589,0,0,0,0,0,0,0,0,0,-1,741,435,0,0
-476,589,0,0,0,0,0,0,0,0,0,-1,748,435,0,0
-469,589,0,0,0,0,0,0,0,0,0,-1,755,435,0,0
-462,589,0,0,0,0,0,0,0,0,0,-1,762,435,0,0
-455,589,0,0,0,0,0,0,0,0,0,-1,769,435,0,0
-448,589,0,0,0,0,0,0,0,0,0,-1,776,435,0,0
-441,589,0,0,0,0,0,0,0,0,0,-1,783,435,0,0
-434,589,0,0,0,0,0,0,0,0,0,-1,790,435,0,0
-427,589,0,0,0,0,0,0,0,0,0,-1,797,435,0,0
-420,589,0,0,0,0,0,0,0,0,0,-1,804,435,0,0
-413,589,0,0,0,0,0,0,0,0,0,-1,811,435,0,0
-406,589,0,0,0,0,0,0,0,0,0,-1,818,435,0,0
-399,589,0,0,0,0,0,0,0,0,0,-1,825,435,0,0
-392,589,0,0,0,0,0,0,0,0,0,-1,832,435,0,0
-385,589,0,0,0,0,0,0,0,0,0,-1,839,435,0,0
-378,589,0,0,0,0,0,0,0,0,0,-1,846,435,0,0
-371,589,0,0,0,0,0,0,0,0,0,-1,853,435,0,0
-364,589,0,0,0,0,0,0,0,0,0,-1,860,435,0,0
-357,589,0,0,0,0,0,0,0,0,0,-1,867,435,0,0
-350,589,-0.262695,-13.5742,0,0,0,0,0,0,0,-1,874,435,-0.262715,13.5742
-343,589,0.187195,-13.2853,0,0,0,0,0,0,0,-1,881,435,0.187181,13.2853
-336,589,0.677856,-12.7685,0,0,0,0,0,0,0,-1,888,435,0.677838,12.7685
-329,589,0.0882568,-9.79782,0,0,0,0,0,0,0,-1,895,435,0.0882795,9.79781
-322,589,2.28906,-8.24002,0,0,0,0,0,0,0,-1,902,435,2.28904,8.24004
-315,589,2.28973,-8.53946,0,0,0,0,0,0,0,-1,909,435,2.28975,8.53946
-308,589,2.1452,-8.63217,-0.00661575,-0.0360323,0.00921853,-0.00396561,-0.0386824,0.279931,0.0245733,0.0472234,916,435,2.14518,8.63218
-301,589,2.19025,-8.97806,-0.00518523,-0.0315495,0.008744,-0.00254883,-0.0341859,0.292842,0.0219903,0.0447951,923,435,2.19023,8.97806
-294,589,2.2439,-9.37115,-0.00420457,-0.0260612,0.0081247,-0.00151529,-0.0287505,0.31965,0.0186824,0.0455519,930,435,2.24387,9.37116
-287,589,2.12335,-9.24475,-0.00416322,-0.0199136,0.00636188,-0.00191457,-0.0221623,0.339751,0.0141798,0.0439645,937,435,2.12335,9.24475
-280,589,2.03058,-8.66507,-0.00366599,-0.0147626,0.00463098,-0.00198728,-0.0164413,0.347763,0.0103621,0.0320215,944,435,2.03061,8.66507
-273,589,1.98468,-8.94739,-0.00357199,-0.0100618,0.00338426,-0.00212833,-0.0115055,0.403208,0.00706849,0.0191317,951,435,1.98469,8.94737
-266,589,1.97382,-9.11313,-0.00394427,-0.00611582,0.00207711,-0.00268626,-0.00737382,0.544564,0.00430923,0.0162826,958,435,1.9738,9.11312
-259,589,1.94946,-9.2735,-0.00369351,-0.00287793,0.00091064,-0.00228795,-0.0042835,0.995912,0.002475,0.0146003,965,435,1.94947,9.2735
-252,589,1.95111,-9.46289,-0.00327368,-0.000388627,0.000387783,-0.000337414,-0.00332489,1.43949,0.00211312,0.0102653,972,435,1.95112,9.46289
-245,589,1.95831,-9.63892,-0.00263113,0.00179564,-8.3296e-05,0.00179721,-0.0026327,-1.55199,0.00257273,0.009995,979,435,1.95833,9.63893
-238,589,1.95276,-9.82693,-0.00209043,0.00296936,-0.000271877,0.00298393,-0.002105,-1.51727,0.00295266,0.0128117,986,435,1.95279,9.82693
-231,589,1.9339,-9.97107,-0.00169971,0.00333049,-0.000391114,0.00336072,-0.00172994,-1.49366,0.00298894,0.0142642,993,435,1.93388,9.97108
-224,589,1.90442,-10.1323,-0.001209,0.00282596,-6.82668e-05,0.00282711,-0.00121016,-1.55388,0.00239242,0.014262,1000,435,1.90443,10.1323
-217,589,1.89777,-10.2888,-0.000659688,0.0023699,0.000302842,0.00239988,-0.000689664,1.47214,0.00187263,0.0150706,1007,435,1.89778,10.2888
-210,589,1.91132,-10.4476,-7.85957e-05,0.00187601,0.000430947,0.00196681,-0.000169392,1.36314,0.00137116,0.0140008,1014,435,1.91129,10.4476
-203,589,1.92084,-10.6061,0.000318957,0.00143005,0.000427488,0.00157549,0.00017352,1.24287,0.00099753,0.0107572,1021,435,1.92082,10.6061
-196,589,1.9104,-10.7422,0.000754032,0.00112049,0.000207227,0.00121388,0.000660646,1.1474,0.000701746,0.0127891,1028,435,1.91043,10.7422
-189,589,1.89514,-10.9015,0.00119096,0.00086893,-0.000318929,0.00138722,0.000672676,-0.551632,0.000801031,0.0154365,1035,435,1.8952,10.9015
-182,589,1.90088,-11.0295,0.00168251,0.000651504,-0.00073218,0.00206246,0.000271557,-0.478673,0.00129399,0.0126435,1042,435,1.9009,11.0295
-175,589,1.90991,-11.1547,0.00191442,0.000575334,-0.00123231,0.00264733,-0.000157579,-0.536548,0.00181969,0.0160223,1049,435,1.90992,11.1547
-168,589,1.93237,-11.2904,0.00191021,0.000343736,-0.00180607,0.00309557,-0.00084162,-0.580803,0.00239408,0.0133822,1056,435,1.93234,11.2904
-161,589,1.91614,-11.4234,0.0019051,0.000121043,-0.00236276,0.00353861,-0.00151247,-0.604902,0.00299343,0.011631,1063,435,1.91615,11.4234
-154,589,1.9115,-11.5545,0.00194686,7.03613e-07,-0.00278975,0.00392836,-0.0019808,-0.617593,0.00347287,0.0111178,1070,435,1.91154,11.5545
-147,589,1.93286,-11.6717,0.00208867,-0.000115564,-0.00306284,0.00424165,-0.00226854,-0.612693,0.00381577,0.0114697,1077,435,1.93291,11.6717
-140,589,1.95483,-11.788,0.00234727,-0.000322279,-0.0031668,0.0044491,-0.00242411,-0.585951,0.00402525,0.0123413,1084,435,1.95486,11.788
-133,589,1.95898,-11.9063,0.00253622,-0.000607205,-0.00318917,0.00451993,-0.00259092,-0.556452,0.0041555,0.0116908,1091,435,1.95896,11.9063
-126,589,1.97473,-12.0078,0.00272218,-0.000738954,-0.00312744,0.00456593,-0.00258271,-0.532693,0.00417988,0.00971291,1098,435,1.97471,12.0078
-119,589,1.97156,-12.1087,0.00299616,-0.000757512,-0.00307586,0.00472258,-0.00248393,-0.511462,0.00422707,0.0159014,1105,435,1.97152,12.1087
-112,589,1.96887,-12.2109,0.00324541,-0.00070977,-0.00291243,0.00478821,-0.00225256,-0.487146,0.00415193,0.0174365,1112,435,1.96889,12.2109
-105,589,1.96912,-12.3261,0.00358629,-0.000536025,-0.00265873,0.00488924,-0.00183897,-0.455668,0.0040154,0.0173535,1119,435,1.96912,12.3261
-98,589,2.04321,-12.3916,0.00413332,-0.000146796,-0.00251157,0.00529293,-0.00130641,-0.432549,0.00403521,0.0173262,1126,435,2.04326,12.3916
-91,589,2.13074,-12.4656,0.00481216,0.000461634,-0.0025307,0.00597399,-0.000700201,-0.430392,0.0042354,0.0228787,1133,435,2.13068,12.4656
-84,589,2.20386,-12.626,0.00526238,0.000907147,-0.00215932,0.00615147,1.80604e-05,-0.390589,0.00409497,0.0365775,1140,435,2.20381,12.626
-77,589,2.27527,-12.904,0,0,0,0,0,0,0,-1,1147,435,2.27532,12.904
-70,589,1.48267,-9.90961,0,0,0,0,0,0,0,-1,1154,435,1.48264,9.9096
-63,589,0.880127,-5.50586,0,0,0,0,0,0,0,-1,1161,435,0.880186,5.50587
-56,589,-2.78052,-7.28082,0,0,0,0,0,0,0,-1,1168,435,-2.78053,7.28082
-49,589,-0.525757,-2.76703,0,0,0,0,0,0,0,-1,1175,435,-0.525771,2.76702
-42,589,-2.7738,-2.87921,0,0,0,0,0,0,0,-1,1182,435,-2.77383,2.87922
-35,589,-2.55225,-3.27551,0,0,0,0,0,0,0,-1,1189,435,-2.55223,3.27552
-28,589,-0.0632324,-3.42938,0,0,0,0,0,0,0,-1,1196,435,-0.063241,3.42938
-21,589,1.60083,-12.1585,0,0,0,0,0,0,0,-1,1203,435,1.60089,12.1585
-14,589,2.30408,-12.6228,0,0,0,0,0,0,0,-1,1210,435,2.30405,12.6228
-7,589,2.42603,-12.8573,0,0,0,0,0,0,0,-1,1217,435,2.42604,12.8573
0,589,2.44971,-12.6541,0,0,0,0,0,0,0,-1,1224,435,2.44973,12.6541
7,589,2.48987,-13.0504,0,0,0,0,0,0,0,-1,1231,435,2.48983,13.0504
14,589,2.49304,-13.0763,-0.00154907,-0.000301243,0.00930319,0.00839893,-0.0102492,0.81888,0.0107842,0.0472151,1238,435,2.49302,13.0763
21,589,2.52124,-13.1003,-0.00217555,-0.000227452,0.00797145,0.00682924,-0.00923224,0.846193,0.00930763,0.0452811,1245,435,2.5213,13.1003
28,589,2.49255,-12.9489,-0.00218487,0.00032185,0.00677336,0.00595684,-0.00781986,0.876885,0.00797819,0.047231,1252,435,2.49255,12.9489
35,589,2.64648,-12.7257,-0.00234607,0.00136626,0.00562052,0.00542918,-0.006409,0.944883,0.00684258,0.0463863,1259,435,2.64652,12.7257
42,589,2.71362,-13.1904,0,0,0,0,0,0,0,-1,1266,435,2.71366,13.1904
49,589,2.84961,-13.2358,0,0,0,0,0,0,0,-1,1273,435,2.84956,13.2358
56,589,2.85645,-13.1457,0,0,0,0,0,0,0,-1,1280,435,2.85645,13.1457
63,589,2.93433,-12.9537,-0.00341578,0.00783146,0.00464158,0.00949957,-0.0050839,1.22579,0.00854745,0.0484594,1287,435,2.9343,12.9537
70,589,3.67407,-12.236,-0.00333879,0.010082,0.00494759,0.0117087,-0.00496555,1.25313,0.00988582,0.0444171,1294,435,3.67411,12.236
77,589,3.83423,-13.5478,-0.00306111,0.0121005,0.00588949,0.0141194,-0.00508003,1.24055,0.011487,0.0435688,1301,435,3.83421,13.5478
84,589,2.77075,-12.43,-0.00262986,0.0134909,0.00670598,0.0159157,-0.0050547,1.22383,0.012637,0.0436484,1308,435,2.7707,12.43
91,589,3.03625,-12.532,-0.00356425,0.0113952,0.00596524,0.0134827,-0.00565167,1.23418,0.0113514,0.0431127,1315,435,3.03621,12.5321
98,589,2.86304,-12.7681,-0.00642952,0.00684568,0.00367108,0.00779323,-0.00737708,1.3182,0.00875968,0.045369,1322,435,2.86307,12.7681
105,589,2.45728,-12.7775,-0.00916051,-0.00313171,-0.000564108,-0.00307938,-0.00921284,-1.4783,0.00541558,0.04593,1329,435,2.45727,12.7775
112,589,2.90442,-12.9465,0,0,0,0,0,0,0,-1,1336,435,2.90439,12.9465
119,589,2.22192,-13.0351,-0.0105987,-0.0228873,-0.0117342,-0.00349746,-0.0299885,-0.544214,0.0189345,0.0419609,1343,435,2.22198,13.035
126,589,2.22729,-13.1628,-0.0132948,-0.0340596,-0.0183201,-0.00261969,-0.0447347,-0.527603,0.0289894,0.047514,1350,435,2.22734,13.1628
133,589,3.24939,-12.844,0,0,0,0,0,0,0,-1,1357,435,3.24944,12.844
140,589,3.45081,-12.5156,0,0,0,0,0,0,0,-1,1364,435,3.45085,12.5156
147,589,3.21631,-12.2651,0,0,0,0,0,0,0,-1,1371,435,3.21625,12.2651
154,589,3.06299,-12.4234,0,0,0,0,0,0,0,-1,1378,435,3.06299,12.4234
161,589,3.26245,-12.3582,0,0,0,0,0,0,0,-1,1385,435,3.26239,12.3582
168,589,1.9303,-11.3237,0,0,0,0,0,0,0,-1,1392,435,1.93036,11.3237
175,589,8.66992,-7.65527,0,0,0,0,0,0,0,-1,1399,435,8.66994,7.65528
182,589,3.8136,-2.45389,0,0,0,0,0,0,0,-1,1406,435,3.81363,2.4539
189,589,3.69983,-3.68149,0,0,0,0,0,0,0,-1,1413,435,3.69987,3.68147
196,589,3.31055,-5.31677,0,0,0,0,0,0,0,-1,1420,435,3.31059,5.31678
203,589,2.72559,-8.84338,0,0,0,0,0,0,0,-1,1427,435,2.72558,8.84338
210,589,3.1626,-12.1711,0,0,0,0,0,0,0,-1,1434,435,3.16259,12.1711
217,589,3.26953,-11.8745,0.000745804,0.0049163,-0.00213007,0.0058119,-0.000149795,-1.17278,0.00392548,0.033123,1441,435,3.26958,11.8745
224,589,3.29041,-11.8498,0.00066092,0.00562833,-0.00156272,0.00607905,0.000210193,-1.28999,0.00398449,0.0215835,1448,435,3.29036,11.8498
231,589,3.28516,-11.7505,0.00070067,0.00593583,-0.00106497,0.00614418,0.000492318,-1.3776,0.00394227,0.0203336,1455,435,3.28516,11.7505
238,589,3.29456,-11.6482,0.00100146,0.00598263,-0.00069936,0.00607896,0.000905137,-1.43392,0.00378716,0.0225039,1462,435,3.2946,11.6481
245,589,3.28564,-11.4188,0.00128624,0.00580076,-0.000457868,0.00584673,0.00124027,-1.47073,0.00355722,0.0200217,1469,435,3.2856,11.4188
252,589,3.32446,-11.3058,0.00136785,0.00543095,-0.000294422,0.00545217,0.00134662,-1.49884,0.0032794,0.0131056,1476,435,3.32446,11.3058
259,589,3.33838,-11.2192,0.00135876,0.00483907,-0.000181271,0.00484849,0.00134935,-1.5189,0.00288954,0.00965868,1483,435,3.33833,11.2192
266,589,3.33618,-11.0801,0.00128722,0.00416323,-7.01533e-05,0.00416494,0.00128551,-1.54642,0.00246262,0.00957338,1490,435,3.33616,11.0801
273,589,3.34448,-10.9433,0.00104779,0.00359489,-5.8842e-05,0.00359625,0.00104643,-1.54771,0.00213592,0.0119238,1497,435,3.34451,10.9433
280,589,3.34778,-10.8159,0.000875776,0.0027865,-6.66139e-05,0.00278881,0.000873457,-1.53599,0.00164715,0.0131059,1504,435,3.34782,10.8159
287,589,3.36182,-10.6933,0.000776445,0.00222078,-0.00014274,0.00223475,0.000762474,-1.47323,0.00131175,0.0112431,1511,435,3.36181,10.6933
294,589,3.37695,-10.5287,0.000677904,0.00178266,-0.000205566,0.00181967,0.000640894,-1.39266,0.00106578,0.010331,1518,435,3.37697,10.5287
301,589,3.38818,-10.3504,0.000543821,0.00131209,-0.000227425,0.00137437,0.000481546,-1.30352,0.000805248,0.0113826,1525,435,3.38824,10.3504
308,589,3.39258,-10.1909,0.000503132,0.00100137,-0.00019545,0.00106889,0.000435611,-1.23817,0.000620631,0.0110759,1532,435,3.39258,10.191
315,589,3.38989,-10.0238,0.000551737,0.000804706,-0.000160612,0.000882659,0.000473784,-1.11894,0.000510062,0.0106822,1539,435,3.38984,10.0238
322,589,3.39697,-9.86258,0.0005752,0.000712646,-7.83462e-05,0.000748139,0.000539707,-1.14543,0.00044583,0.0111244,1546,435,3.39698,9.86257
329,589,3.39368,-9.70035,0.000600357,0.00066276,7.36996e-05,0.000711591,0.000551526,0.985638,0.000431062,0.00987154,1553,435,3.39364,9.70034
336,589,3.3844,-9.53491,0.000590642,0.000746466,0.000304095,0.000982471,0.000354637,0.910806,0.000574493,0.0096012,1560,435,3.38445,9.5349
343,589,3.38391,-9.36566,0.000518566,0.000911982,0.000558633,0.00130753,0.00012302,0.954681,0.00083371,0.0115824,1567,435,3.38388,9.36565
350,589,3.37878,-9.16406,0.000468795,0.00114643,0.000873536,0.00174456,-0.000129331,0.9704,0.00120846,0.0170309,1574,435,3.37877,9.16408
357,589,3.37512,-8.95279,0.000378271,0.00144962,0.00120637,0.0022339,-0.000406008,0.994341,0.00164143,0.0129538,1581,435,3.37512,8.95279
364,589,3.38269,-8.76068,0.000238347,0.00184777,0.00150744,0.00275184,-0.000665727,1.03057,0.00209208,0.0111059,1588,435,3.38266,8.76067
371,589,3.37952,-8.5878,2.0952e-05,0.00223757,0.00188877,0.00331919,-0.00106067,1.05072,0.0026384,0.0120084,1595,435,3.37946,8.5878
378,589,3.3739,-8.39438,-0.000302789,0.00277638,0.00206651,0.00381376,-0.00134017,1.10555,0.00308775,0.0131304,1602,435,3.37386,8.39438
385,589,3.38062,-8.19043,-0.000561288,0.00304335,0.00203436,0.00395893,-0.00147687,1.14789,0.00324559,0.0155201,1609,435,3.38065,8.19044
392,589,3.36963,-7.96417,-0.000632795,0.0029539,0.00187503,0.00375512,-0.00143402,1.16697,0.00309425,0.016647,1616,435,3.36962,7.96418
399,589,3.37109,-7.73221,-0.00055434,0.0026005,0.00178688,0.00340661,-0.00136045,1.14701,0.00283551,0.0231462,1623,435,3.37112,7.73222
406,589,3.35596,-7.4845,0,0,0,0,0,0,0,-1,1630,435,3.35598,7.48451
413,589,3.2666,-7.29507,0,0,0,0,0,0,0,-1,1637,435,3.26654,7.29508
420,589,2.79724,-5.79956,0,0,0,0,0,0,0,-1,1644,435,2.7973,5.79955
427,589,2.87976,-5.28177,0,0,0,0,0,0,0,-1,1651,435,2.87972,5.28177
434,589,2.52734,-2.73029,0,0,0,0,0,0,0,-1,1658,435,2.52736,2.73029
441,589,3.17639,-2.02435,0,0,0,0,0,0,0,-1,1665,435,3.17643,2.02435
448,589,0.453735,-3.2868,0,0,0,0,0,0,0,-1,1672,435,0.453701,3.28681
455,589,0.664307,-3.46848,0,0,0,0,0,0,0,-1,1679,435,0.66425,3.46846
462,589,3.46716,-4.41891,0,0,0,0,0,0,0,-1,1686,435,3.4672,4.41891
469,589,0.0238037,-3.81497,0,0,0,0,0,0,0,-1,1693,435,0.0237965,3.81498
476,589,0,0,0,0,0,0,0,0,0,-1,1700,435,0,0
483,589,0,0,0,0,0,0,0,0,0,-1,1707,435,0,0
490,589,0,0,0,0,0,0,0,0,0,-1,1714,435,0,0
497,589,0,0,0,0,0,0,0,0,0,-1,1721,435,0,0
504,589,0,0,0,0,0,0,0,0,0,-1,1728,435,0,0
511,589,0,0,0,0,0,0,0,0,0,-1,1735,435,0,0
518,589,0,0,0,0,0,0,0,0,0,-1,1742,435,0,0
525,589,0,0,0,0,0,0,0,0,0,-1,1749,435,0,0
532,589,0,0,0,0,0,0,0,0,0,-1,1756,435,0,0
539,589,0,0,0,0,0,0,0,0,0,-1,1763,435,0,0
546,589,0,0,0,0,0,0,0,0,0,-1,1770,435,0,0
553,589,0,0,0,0,0,0,0,0,0,-1,1777,435,0,0
560,589,0,0,0,0,0,0,0,0,0,-1,1784,435,0,0
567,589,0,0,0,0,0,0,0,0,0,-1,1791,435,0,0
574,589,0,0,0,0,0,0,0,0,0,-1,1798,435,0,0
581,589,0,0,0,0,0,0,0,0,0,-1,1805,435,0,0
588,589,0,0,0,0,0,0,0,0,0,-1,1812,435,0,0
595,589,0,0,0,0,0,0,0,0,0,-1,1819,435,0,0
602,589,0,0,0,0,0,0,0,0,0,-1,1826,435,0,0
609,589,0,0,0,0,0,0,0,0,0,-1,1833,435,0,0
616,589,0,0,0,0,0,0,0,0,0,-1,1840,435,0,0
623,589,0,0,0,0,0,0,0,0,0,-1,1847,435,0,0
630,589,0,0,0,0,0,0,0,0,0,-1,1854,435,0,0
637,589,0,0,0,0,0,0,0,0,0,-1,1861,435,0,0
644,589,0,0,0,0,0,0,0,0,0,-1,1868,435,0,0
651,589,0,0,0,0,0,0,0,0,0,-1,1875,435,0,0
658,589,0,0,0,0,0,0,0,0,0,-1,1882,435,0,0
665,589,0,0,0,0,0,0,0,0,0,-1,1889,435,0,0
672,589,0,0,0,0,0,0,0,0,0,-1,1896,435,0,0
679,589,0,0,0,0,0,0,0,0,0,-1,1903,435,0,0
686,589,0,0,0,0,0,0,0,0,0,-1,1910,435,0,0
693,589,0,0,0,0,0,0,0,0,0,-1,1917,435,0,0
700,589,0,0,0,0,0,0,0,0,0,-1,1924,435,0,0
707,589,0,0,0,0,0,0,0,0,0,-1,1931,435,0,0
714,589,0,0,0,0,0,0,0,0,0,-1,1938,435,0,0
721,589,0,0,0,0,0,0,0,0,0,-1,1945,435,0,0
728,589,0,0,0,0,0,0,0,0,0,-1,1952,435,0,0
735,589,0,0,0,0,0,0,0,0,0,-1,1959,435,0,0
742,589,0,0,0,0,0,0,0,0,0,-1,1966,435,0,0
749,589,0,0,0,0,0,0,0,0,0,-1,1973,435,0,0
756,589,0,0,0,0,0,0,0,0,0,-1,1980,435,0,0
763,589,0,0,0,0,0,0,0,0,0,-1,1987,435,0,0
770,589,0,0,0,0,0,0,0,0,0,-1,1994,435,0,0
777,589,0,0,0,0,0,0,0,0,0,-1,2001,435,0,0
784,589,0,0,0,0,0,0,0,0,0,-1,2008,435,0,0
791,589,0,0,0,0,0,0,0,0,0,-1,2015,435,0,0
798,589,0,0,0,0,0,0,0,0,0,-1,2022,435,0,0
805,589,0,0,0,0,0,0,0,0,0,-1,2029,435,0,0
812,589,0,0,0,0,0,0,0,0,0,-1,2036,435,0,0
-700,582,0,0,0,0,0,0,0,0,0,-1,524,442,0,0
-693,582,0,0,0,0,0,0,0,0,0,-1,531,442,0,0
-686,582,0,0,0,0,0,0,0,0,0,-1,538,442,0,0
-679,582,0,0,0,0,0,0,0,0,0,-1,545,442,0,0
-672,582,0,0,0,0,0,0,0,0,0,-1,552,442,0,0
-665,582,0,0,0,0,0,0,0,0,0,-1,559,442,0,0
-658,582,0,0,0,0,0,0,0,0,0,-1,566,442,0,0
-651,582,0,0,0,0,0,0,0,0,0,-1,573,442,0,0
-644,582,0,0,0,0,0,0,0,0,0,-1,580,442,0,0
-637,582,0,0,0,0,0,0,0,0,0,-1,587,442,0,0
-630,582,0,0,0,0,0,0,0,0,0,-1,594,442,0,0
-623,582,0,0,0,0,0,0,0,0,0,-1,601,442,0,0
-616,582,0,0,0,0,0,0,0,0,0,-1,608,442,0,0
-609,582,0,0,0,0,0,0,0,0,0,-1,615,442,0,0
-602,582,0,0,0,0,0,0,0,0,0,-1,622,442,0,0
-595,582,0,0,0,0,0,0,0,0,0,-1,629,442,0,0
-588,582,0,0,0,0,0,0,0,0,0,-1,636,442,0,0
-581,582,0,0,0,0,0,0,0,0,0,-1,643,442,0,0
-574,582,0,0,0,0,0,0,0,0,0,-1,650,442,0,0
-567,582,0,0,0,0,0,0,0,0,0,-1,657,442,0,0
-560,582,0,0,0,0,0,0,0,0,0,-1,664,442,0,0
-553,582,0,0,0,0,0,0,0,0,0,-1,671,442,0,0
-546,582,0,0,0,0,0,0,0,0,0,-1,678,442,0,0
-539,582,0,0,0,0,0,0,0,0,0,-1,685,442,0,0
-532,582,0,0,0,0,0,0,0,0,0,-1,692,442,0,0
-525,582,0,0,0,0,0,0,0,0,0,-1,699,442,0,0
-518,582,0,0,0,0,0,0,0,0,0,-1,706,442,0,0
-511,582,0,0,0,0,0,0,0,0,0,-1,713,442,0,0
-504,582,0,0,0,0,0,0,0,0,0,-1,720,442,0,0
-497,582,0,0,0,0,0,0,0,0,0,-1,727,442,0,0
-490,582,0,0,0,0,0,0,0,0,0,-1,734,442,0,0
-483,582,0,0,0,0,0,0,0,0,0,-1,741,442,0,0
-476,582,0,0,0,0,0,0,0,0,0,-1,748,442,0,0
-469,582,0,0,0,0,0,0,0,0,0,-1,755,442,0,0
-462,582,0,0,0,0,0,0,0,0,0,-1,762,442,0,0
-455,582,0,0,0,0,0,0,0,0,0,-1,769,442,0,0
-448,582,0,0,0,0,0,0,0,0,0,-1,776,442,0,0
-441,582,0,0,0,0,0,0,0,0,0,-1,783,442,0,0
-434,582,0,0,0,0,0,0,0,0,0,-1,790,442,0,0
-427,582,0,0,0,0,0,0,0,0,0,-1,797,442,0,0
-420,582,0,0,0,0,0,0,0,0,0,-1,804,442,0,0
-413,582,0,0,0,0,0,0,0,0,0,-1,811,442,0,0
-406,582,0,0,0,0,0,0,0,0,0,-1,818,442,0,0
-399,582,0,0,0,0,0,0,0,0,0,-1,825,442,0,0
-392,582,0,0,0,0,0,0,0,0,0,-1,832,442,0,0
-385,582,0,0,0,0,0,0,0,0,0,-1,839,442,0,0
-378,582,0,0,0,0,0,0,0,0,0,-1,846,442,0,0
-371,582,0,0,0,0,0,0,0,0,0,-1,853,442,0,0
-364,582,0,0,0,0,0,0,0,0,0,-1,860,442,0,0
-357,582,6.4043,-4.18127,0,0,0,0,0,0,0,-1,867,442,6.40427,4.18126
-350,582,-1.12933,-15.713,0,0,0,0,0,0,0,-1,874,442,-1.12935,15.713
-343,582,-0.551086,-15.4312,0,0,0,0,0,0,0,-1,881,442,-0.5511,15.4311
-336,582,0.0556641,-4.78558,0,0,0,0,0,0,0,-1,888,442,0.0556634,4.78559
-329,582,2.80261,-6.47397,0,0,0,0,0,0,0,-1,895,442,2.80262,6.47396
-322,582,1.55219,-7.59317,0,0,0,0,0,0,0,-1,902,442,1.55221,7.59317
-315,582,1.7243,-7.82837,0,0,0,0,0,0,0,-1,909,442,1.72429,7.82837
-308,582,1.94165,-8.43121,-0.004976,-0.0272219,0.00657049,-0.00318031,-0.0290176,0.266782,0.0183769,0.046614,916,442,1.94167,8.4312
-301,582,1.94861,-8.54825,-0.00395333,-0.0239773,0.0063239,-0.00212338,-0.0258073,0.281677,0.0165426,0.0415659,923,442,1.94862,8.54823
-294,582,1.9035,-8.92575,-0.00325342,-0.0200307,0.00593404,-0.00136674,-0.0219174,0.307835,0.014178,0.0411295,930,442,1.9035,8.92574
-287,582,1.84186,-8.51749,-0.00309114,-0.0156138,0.0048102,-0.00145676,-0.0172482,0.327537,0.0110453,0.034078,937,442,1.84187,8.51749
-280,582,1.85297,-8.7135,-0.0025251,-0.0117851,0.0036603,-0.00125302,-0.0130572,0.334478,0.00831867,0.0158603,944,442,1.85299,8.71349
-273,582,1.83435,-8.89523,-0.00244072,-0.00825088,0.00281716,-0.00129909,-0.00939251,0.385017,0.0058767,0.010513,951,442,1.83432,8.89523
-266,582,1.81348,-9.08682,-0.00278247,-0.00528418,0.00183552,-0.00181211,-0.00625453,0.486308,0.00371597,0.00981016,958,442,1.8135,9.08683
-259,582,1.79675,-9.27017,-0.00251842,-0.00280323,0.000956725,-0.00169356,-0.00362809,0.711518,0.00209622,0.00836196,965,442,1.79675,9.27017
-252,582,1.78485,-9.45062,-0.00236586,-0.000875802,0.000404792,-0.000772937,-0.00246872,1.32194,0.00145813,0.00817538,972,442,1.78484,9.45062
-245,582,1.78906,-9.63644,-0.00209544,0.000857634,-8.4754e-05,0.000860065,-0.00209787,-1.54213,0.0017569,0.0110985,979,442,1.78906,9.63645
-238,582,1.78955,-9.81424,-0.00192641,0.00183922,-0.000346818,0.00187089,-0.00195809,-1.47972,0.00221085,0.0149682,986,442,1.78955,9.81425
-231,582,1.78827,-9.9729,-0.00180932,0.00211608,-0.000517607,0.00218318,-0.00187642,-1.44187,0.00234604,0.0128053,993,442,1.78828,9.97291
-224,582,1.7829,-10.1279,-0.00163009,0.00167649,-0.000290346,0.00170179,-0.00165539,-1.48387,0.00193833,0.0111657,1000,442,1.78292,10.1279
-217,582,1.77625,-10.2732,-0.00132597,0.00129406,-1.74825e-05,0.00129418,-0.00132609,-1.56412,0.00151285,0.0132377,1007,442,1.77622,10.2731
-210,582,1.77448,-10.4313,-0.000900538,0.000917483,2.48224e-05,0.000917822,-0.000900877,1.55715,0.00105004,0.0131453,1014,442,1.7745,10.4313
-203,582,1.78906,-10.5992,-0.000521642,0.000602524,-6.9129e-05,0.00060676,-0.000525877,-1.50961,0.000654484,0.0104568,1021,442,1.78903,10.5992
-196,582,1.78174,-10.743,-5.05753e-05,0.000418013,-0.000319714,0.000580091,-0.000212654,-1.10161,0.000473796,0.0156541,1028,442,1.78176,10.7429
-189,582,1.77637,-10.9013,0.000513414,0.00032208,-0.000876711,0.00129966,-0.000464168,-0.731053,0.00105574,0.0203857,1035,442,1.77638,10.9013
-182,582,1.80444,-11.0614,0.00117964,0.000270716,-0.00137309,0.00217153,-0.000721169,-0.625583,0.00173867,0.0137057,1042,442,1.80446,11.0614
-175,582,1.79297,-11.1567,0.00168634,0.00027838,-0.00197412,0.00307825,-0.00111353,-0.614125,0.00250717,0.0123233,1049,442,1.79297,11.1567
-168,582,1.7948,-11.2805,0.0020434,7.3471e-05,-0.00261954,0.00385703,-0.00174016,-0.605571,0.00330768,0.0105718,1056,442,1.79481,11.2805
-161,582,1.79187,-11.4225,0.00236197,-0.000112096,-0.00332266,0.0046704,-0.00242053,-0.607197,0.00416207,0.011737,1063,442,1.79183,11.4226
-154,582,1.79578,-11.5393,0.00264209,-0.000178136,-0.00394398,0.00542047,-0.00295651,-0.613712,0.00490569,0.0120064,1070,442,1.79573,11.5393
-147,582,1.81226,-11.6619,0.00298985,-0.000235812,-0.00439839,0.00606179,-0.00330775,-0.609667,0.00548684,0.0113037,1077,442,1.8123,11.6619
-140,582,1.81116,-11.7741,0.00335719,-0.00041724,-0.00464831,0.00648679,-0.00354684,-0.592564,0.00587522,0.0111744,1084,442,1.81114,11.7741
-133,582,1.84814,-11.8738,0.00352426,-0.000775725,-0.00476395,0.0066009,-0.00385237,-0.573429,0.00610434,0.0142363,1091,442,1.8482,11.8738
-126,582,1.87085,-11.9591,0.00372163,-0.000985708,-0.0047252,0.0066469,-0.00391098,-0.554331,0.00616344,0.0126569,1098,442,1.87084,11.9591
-119,582,1.85681,-12.0338,0.00401172,-0.0010889,-0.00465881,0.00677259,-0.00384977,-0.534969,0.00620972,0.0166111,1105,442,1.85687,12.0338
-112,582,1.83032,-12.2051,0.00421869,-0.0011227,-0.00436101,0.0066618,-0.00356581,-0.510654,0.00599442,0.0248291,1112,442,1.83032,12.2051
-105,582,1.84106,-12.3411,0.0045537,-0.000983947,-0.00386792,0.00654168,-0.00297193,-0.474758,0.0056201,0.033035,1119,442,1.84106,12.3411
-98,582,1.89441,-12.4529,0.00523837,-0.000581299,-0.00353955,0.00691063,-0.00225356,-0.441365,0.00551397,0.0361857,1126,442,1.89445,12.4529
-91,582,2.00171,-12.4939,0.00615693,0.000128893,-0.00347982,0.00774654,-0.00146072,-0.428503,0.00571385,0.0403821,1133,442,2.00173,12.4939
-84,582,2.14648,-12.5602,0,0,0,0,0,0,0,-1,1140,442,2.14644,12.5602
-77,582,2.30212,-11.4907,0,0,0,0,0,0,0,-1,1147,442,2.30207,11.4907
-70,582,1.49255,-6.36548,0,0,0,0,0,0,0,-1,1154,442,1.49251,6.36549
-63,582,-4.62915,-4.0347,0,0,0,0,0,0,0,-1,1161,442,-4.6292,4.03471
-56,582,-5.81714,-5.24149,0,0,0,0,0,0,0,-1,1168,442,-5.81718,5.24149
-49,582,-3.88672,-10.1064,0,0,0,0,0,0,0,-1,1175,442,-3.88678,10.1064
-42,582,-0.948975,1.13968,0,0,0,0,0,0,0,-1,1182,442,-0.949003,-1.13969
-35,582,-2.58435,-3.86911,0,0,0,0,0,0,0,-1,1189,442,-2.58437,3.86912
-28,582,-0.825317,-3.45941,0,0,0,0,0,0,0,-1,1196,442,-0.825377,3.45942
-21,582,3.00024,-13.6259,0,0,0,0,0,0,0,-1,1203,442,3.00024,13.6259
-14,582,3.29614,-14.1111,0.00203334,0.00673166,0.0195048,0.0240282,-0.0152632,0.84533,0.0228723,0.0476015,1210,442,3.29611,14.1112
-7,582,3.38733,-14.4852,0.000746239,0.00348805,0.0185221,0.0206899,-0.0164556,0.822338,0.0214924,0.0498058,1217,442,3.38738,14.4852
0,582,2.48401,-12.6061,0,0,0,0,0,0,0,-1,1224,442,2.48396,12.6061
7,582,2.33813,-12.873,0,0,0,0,0,0,0,-1,1231,442,2.33816,12.873
14,582,2.34924,-13.0148,-0.00366643,-3.78776e-05,0.0128146,0.0110902,-0.0147945,0.85572,0.0149955,0.0464362,1238,442,2.34928,13.0148
21,582,2.33594,-13.104,-0.00471444,0.00022764,0.011088,0.00911656,-0.0136034,0.895036,0.0132023,0.042659,1245,442,2.33597,13.104
28,582,2.4978,-13.3695,-0.00483819,0.00108204,0.00957022,0.00813948,-0.0118956,0.935384,0.0116348,0.0454111,1252,442,2.49776,13.3695
35,582,2.67737,-13.5972,-0.00523614,0.00252828,0.00809022,0.00761954,-0.0103274,1.0091,0.0104009,0.04992,1259,442,2.67737,13.5972
42,582,2.60388,-13.4652,-0.0061076,0.00362582,0.0065546,0.00692291,-0.00940469,1.10474,0.00946298,0.0481161,1266,442,2.60388,13.4653
49,582,3.31238,-11.8994,0,0,0,0,0,0,0,-1,1273,442,3.31233,11.8993
56,582,2.70789,-12.5056,0,0,0,0,0,0,0,-1,1280,442,2.70788,12.5056
63,582,2.78247,-12.7805,-0.00748393,0.011518,0.007275,0.0139834,-0.00994934,1.24406,0.0138828,0.0449848,1287,442,2.7825,12.7805
70,582,2.83118,-13.1649,-0.00750246,0.0144967,0.00785445,0.0170131,-0.0100189,1.26074,0.0157801,0.0439255,1294,442,2.83113,13.1649
77,582,3.04041,-13.6782,-0.00713737,0.0171503,0.00925105,0.0202726,-0.0102597,1.24529,0.017941,0.0438975,1301,442,3.04046,13.6782
84,582,3.3833,-14.1333,-0.00643998,0.0189289,0.0105734,0.0227578,-0.0102689,1.22336,0.0195171,0.0452854,1308,442,3.38333,14.1333
91,582,3.13525,-12.3723,0,0,0,0,0,0,0,-1,1315,442,3.13522,12.3723
98,582,3.02454,-13.1416,-0.011135,0.00919732,0.00607515,0.0108742,-0.0128119,1.30148,0.0136905,0.0469155,1322,442,3.02454,13.1416
105,582,2.7334,-12.8351,-0.0144822,-0.00486609,-0.000228813,-0.00486065,-0.0144876,-1.54702,0.00851397,0.0454624,1329,442,2.73336,12.8351
112,582,3.16406,-12.9517,0,0,0,0,0,0,0,-1,1336,442,3.1641,12.9517
119,582,1.8186,-13.1168,-0.0147722,-0.0319451,-0.0159137,-0.00527629,-0.041441,-0.538,0.0260473,0.043509,1343,442,1.81861,13.1168
126,582,2.01599,-13.1599,-0.0177095,-0.0468835,-0.0250504,-0.00330846,-0.0612845,-0.521745,0.0397994,0.0478789,1350,442,2.01602,13.1599
133,582,2.36426,-13.5322,0,0,0,0,0,0,0,-1,1357,442,2.3643,13.5322
140,582,-0.355347,-16.4944,-0.0272758,-0.0763135,-0.0420494,-0.00311894,-0.10047,-0.521449,0.0659652,0.0478482,1364,442,-0.355289,16.4944
147,582,-1.13806,-17.7231,-0.0305156,-0.086907,-0.0477967,-0.00321782,-0.114205,-0.518915,0.0750869,0.0488213,1371,442,-1.1381,17.7231
154,582,-1.84863,-18.8416,-0.0322721,-0.096914,-0.0531481,-0.0023889,-0.126797,-0.51221,0.0837466,0.0467256,1378,442,-1.84865,18.8416
161,582,-2.55603,-19.951,0,0,0,0,0,0,0,-1,1385,442,-2.55597,19.951
168,582,2.61353,-10.6618,0,0,0,0,0,0,0,-1,1392,442,2.61354,10.6618
175,582,6.50549,-2.00424,0,0,0,0,0,0,0,-1,1399,442,6.50546,2.00425
182,582,5.18958,-2.18652,0,0,0,0,0,0,0,-1,1406,442,5.1896,2.18652
189,582,6.19751,-0.880951,0,0,0,0,0,0,0,-1,1413,442,6.19754,0.88096
196,582,4.87354,-2.22327,0,0,0,0,0,0,0,-1,1420,442,4.87348,2.22325
203,582,3.11401,-4.48257,0,0,0,0,0,0,0,-1,1427,442,3.11404,4.48259
210,582,2.93115,-11.0731,0,0,0,0,0,0,0,-1,1434,442,2.93113,11.0731
217,582,3.42041,-11.8846,0,0,0,0,0,0,0,-1,1441,442,3.42036,11.8846
224,582,3.45593,-11.9026,0.000590234,0.00857759,-0.00201498,0.00905712,0.000110701,-1.33716,0.00600152,0.0434213,1448,442,3.45599,11.9026
231,582,3.39026,-11.8191,0.000738349,0.00884827,-0.00137845,0.00907616,0.000510458,-1.40695,0.005888,0.0452444,1455,442,3.39025,11.819
238,582,3.36755,-11.7007,0.00120863,0.0086601,-0.000944321,0.00877791,0.00109082,-1.44668,0.00552435,0.0419397,1462,442,3.36754,11.7007
245,582,3.42639,-11.6732,0.00162797,0.00814585,-0.000669415,0.0082139,0.00155992,-1.4695,0.00503712,0.0406961,1469,442,3.42635,11.6732
252,582,3.55408,-11.4608,0.00172206,0.00737072,-0.000499567,0.00741456,0.00167822,-1.48326,0.00448944,0.0263614,1476,442,3.55408,11.4608
259,582,3.46362,-11.3271,0.00170185,0.00635308,-0.00040362,0.00638785,0.00166709,-1.48488,0.00382592,0.0204866,1483,442,3.46366,11.3271
266,582,3.45667,-11.166,0.00169151,0.00535111,-0.000370434,0.00538823,0.00165439,-1.47092,0.00318718,0.0153192,1490,442,3.45664,11.166
273,582,3.49902,-10.9848,0.00140581,0.00443008,-0.000461555,0.00449895,0.00133694,-1.42267,0.00266776,0.0132817,1497,442,3.49903,10.9848
280,582,3.48608,-10.8364,0.00114011,0.00325545,-0.000555002,0.00339222,0.00100334,-1.32917,0.00201222,0.0119767,1504,442,3.48612,10.8364
287,582,3.51453,-10.6757,0.000929966,0.00244372,-0.000714861,0.00272795,0.000645744,-1.19237,0.00164616,0.0107126,1511,442,3.51458,10.6756
294,582,3.54663,-10.5153,0.000686319,0.00182328,-0.000819545,0.00225221,0.000257391,-1.08863,0.00142345,0.00907816,1518,442,3.54658,10.5153
301,582,3.56091,-10.3503,0.000386854,0.00121259,-0.00084421,0.00173948,-0.000140039,-1.01283,0.00120904,0.0104072,1525,442,3.56091,10.3503
308,582,3.56104,-10.189,0.000173752,0.000786808,-0.000808381,0.00134482,-0.000384266,-0.966617,0.00104838,0.0134015,1532,442,3.56106,10.189
315,582,3.55029,-10.0188,5.20127e-05,0.000530328,-0.000770149,0.0010976,-0.000515257,-0.935945,0.0009512,0.0139488,1539,442,3.55029,10.0188
322,582,3.55774,-9.85236,-5.5146e-05,0.000416752,-0.000655179,0.000877173,-0.000515567,-0.958233,0.000813083,0.0109531,1546,442,3.55773,9.85235
329,582,3.56494,-9.70041,-0.000100828,0.000343289,-0.000476361,0.000646807,-0.000404345,-1.0035,0.00061224,0.0103665,1553,442,3.56493,9.70041
336,582,3.56482,-9.53091,-0.000120178,0.000439106,-0.000213345,0.000511196,-0.000192268,-1.24494,0.000419828,0.0109583,1560,442,3.5648,9.53093
343,582,3.55322,-9.3392,-0.000173914,0.000588533,6.2277e-05,0.000593586,-0.000178967,1.48983,0.000466955,0.0134613,1567,442,3.55325,9.33919
350,582,3.54993,-9.16119,-0.000158487,0.000800574,0.000389438,0.00093879,-0.000296703,1.22975,0.00074473,0.016432,1574,442,3.54993,9.1612
357,582,3.55908,-8.95139,-0.000129734,0.00106301,0.000728121,0.00140782,-0.000474542,1.12853,0.00113043,0.0133394,1581,442,3.55902,8.95139
364,582,3.56982,-8.76187,-0.000130599,0.0014078,0.00103663,0.00192944,-0.000652241,1.10458,0.00155014,0.0104845,1588,442,3.56986,8.76186
371,582,3.55969,-8.58789,-0.000130434,0.00176904,0.00133695,0.00245925,-0.000820647,1.09423,0.00197085,0.01527,1595,442,3.55972,8.58788
378,582,3.55164,-8.40668,-0.000216447,0.00213361,0.00153419,0.00289105,-0.000973888,1.1122,0.00232113,0.0162237,1602,442,3.55159,8.40668
385,582,3.55481,-8.20929,-0.000366824,0.0022983,0.00155252,0.00301172,-0.00108024,1.14005,0.00244865,0.0114027,1609,442,3.55479,8.2093
392,582,3.52051,-7.99579,-0.000399219,0.00215201,0.00144306,0.00280244,-0.00104964,1.14734,0.00229946,0.00961439,1616,442,3.52046,7.99579
399,582,3.50256,-7.79474,-0.000325159,0.00178937,0.00138565,0.00247505,-0.00101083,1.11129,0.00207091,0.0130175,1623,442,3.50253,7.79473
406,582,3.52332,-7.52866,-0.000272644,0.00147007,0.00124687,0.00211987,-0.000922451,1.09037,0.00180127,0.0203308,1630,442,3.52326,7.52865
413,582,3.49524,-7.30347,-0.00100511,0.00164449,0.000339704,0.00168735,-0.00104797,1.44529,0.00159355,0.0405844,1637,442,3.49523,7.30346
420,582,3.44958,-7.08752,0,0,0,0,0,0,0,-1,1644,442,3.4496,7.08752
427,582,3.37158,-6.94876,0,0,0,0,0,0,0,-1,1651,442,3.37163,6.94877
434,582,3.22131,-6.80374,0,0,0,0,0,0,0,-1,1658,442,3.22127,6.80375
441,582,3.33191,-6.77884,0,0,0,0,0,0,0,-1,1665,442,3.33189,6.77885
448,582,1.52722,-2.85928,0,0,0,0,0,0,0,-1,1672,442,1.52724,2.85927
455,582,3.6698,-4.4032,0,0,0,0,0,0,0,-1,1679,442,3.66983,4.40319
462,582,1.38074,-3.94418,0,0,0,0,0,0,0,-1,1686,442,1.38074,3.94419
469,582,1.80579,-5.776,0,0,0,0,0,0,0,-1,1693,442,1.80575,5.776
476,582,0.489502,-4.23569,0,0,0,0,0,0,0,-1,1700,442,0.489502,4.23569
483,582,0,0,0,0,0,0,0,0,0,-1,1707,442,0,0
490,582,0,0,0,0,0,0,0,0,0,-1,1714,442,0,0
497,582,0,0,0,0,0,0,0,0,0,-1,1721,442,0,0
504,582,0,0,0,0,0,0,0,0,0,-1,1728,442,0,0
511,582,0,0,0,0,0,0,0,0,0,-1,1735,442,0,0
518,582,0,0,0,0,0,0,0,0,0,-1,1742,442,0,0
525,582,0,0,0,0,0,0,0,0,0,-1,1749,442,0,0
532,582,0,0,0,0,0,0,0,0,0,-1,1756,442,0,0
539,582,0,0,0,0,0,0,0,0,0,-1,1763,442,0,0
546,582,0,0,0,0,0,0,0,0,0,-1,1770,442,0,0
553,582,0,0,0,0,0,0,0,0,0,-1,1777,442,0,0
560,582,0,0,0,0,0,0,0,0,0,-1,1784,442,0,0
567,582,0,0,0,0,0,0,0,0,0,-1,1791,442,0,0
574,582,0,0,0,0,0,0,0,0,0,-1,1798,442,0,0
581,582,0,0,0,0,0,0,0,0,0,-1,1805,442,0,0
588,582,0,0,0,0,0,0,0,0,0,-1,1812,442,0,0
595,582,0,0,0,0,0,0,0,0,0,-1,1819,442,0,0
602,582,0,0,0,0,0,0,0,0,0,-1,1826,442,0,0
609,582,0,0,0,0,0,0,0,0,0,-1,1833,442,0,0
616,582,0,0,0,0,0,0,0,0,0,-1,1840,442,0,0
623,582,0,0,0,0,0,0,0,0,0,-1,1847,442,0,0
630,582,0,0,0,0,0,0,0,0,0,-1,1854,442,0,0
637,582,0,0,0,0,0,0,0,0,0,-1,1861,442,0,0
644,582,0,0,0,0,0,0,0,0,0,-1,1868,442,0,0
651,582,0,0,0,0,0,0,0,0,0,-1,1875,442,0,0
658,582,0,0,0,0,0,0,0,0,0,-1,1882,442,0,0
665,582,0,0,0,0,0,0,0,0,0,-1,1889,442,0,0
672,582,0,0,0,0,0,0,0,0,0,-1,1896,442,0,0
679,582,0,0,0,0,0,0,0,0,0,-1,1903,442,0,0
686,582,0,0,0,0,0,0,0,0,0,-1,1910,442,0,0
693,582,0,0,0,0,0,0,0,0,0,-1,1917,442,0,0
700,582,0,0,0,0,0,0,0,0,0,-1,1924,442,0,0
707,582,0,0,0,0,0,0,0,0,0,-1,1931,442,0,0
714,582,0,0,0,0,0,0,0,0,0,-1,1938,442,0,0
721,582,0,0,0,0,0,0,0,0,0,-1,1945,442,0,0
728,582,0,0,0,0,0,0,0,0,0,-1,1952,442,0,0
735,582,0,0,0,0,0,0,0,0,0,-1,1959,442,0,0
742,582,0,0,0,0,0,0,0,0,0,-1,1966,442,0,0
749,582,0,0,0,0,0,0,0,0,0,-1,1973,442,0,0
756,582,0,0,0,0,0,0,0,0,0,-1,1980,442,0,0
763,582,0,0,0,0,0,0,0,0,0,-1,1987,442,0,0
770,582,0,0,0,0,0,0,0,0,0,-1,1994,442,0,0
777,582,0,0,0,0,0,0,0,0,0,-1,2001,442,0,0
784,582,0,0,0,0,0,0,0,0,0,-1,2008,442,0,0
791,582,0,0,0,0,0,0,0,0,0,-1,2015,442,0,0
798,582,0,0,0,0,0,0,0,0,0,-1,2022,442,0,0
805,582,0,0,0,0,0,0,0,0,0,-1,2029,442,0,0
812,582,0,0,0,0,0,0,0,0,0,-1,2036,442,0,0
-700,575,0,0,0,0,0,0,0,0,0,-1,524,449,0,0
-693,575,0,0,0,0,0,0,0,0,0,-1,531,449,0,0
-686,575,0,0,0,0,0,0,0,0,0,-1,538,449,0,0
-679,575,0,0,0,0,0,0,0,0,0,-1,545,449,0,0
-672,575,0,0,0,0,0,0,0,0,0,-1,552,449,0,0
-665,575,0,0,0,0,0,0,0,0,0,-1,559,449,0,0
-658,575,0,0,0,0,0,0,0,0,0,-1,566,449,0,0
-651,575,0,0,0,0,0,0,0,0,0,-1,573,449,0,0
-644,575,0,0,0,0,0,0,0,0,0,-1,580,449,0,0
-637,575,0,0,0,0,0,0,0,0,0,-1,587,449,0,0
-630,575,0,0,0,0,0,0,0,0,0,-1,594,449,0,0
-623,575,0,0,0,0,0,0,0,0,0,-1,601,449,0,0
-616,575,0,0,0,0,0,0,0,0,0,-1,608,449,0,0
-609,575,0,0,0,0,0,0,0,0,0,-1,615,449,0,0
-602,575,0,0,0,0,0,0,0,0,0,-1,622,449,0,0
-595,575,0,0,0,0,0,0,0,0,0,-1,629,449,0,0
-588,575,0,0,0,0,0,0,0,0,0,-1,636,449,0,0
-581,575,0,0,0,0,0,0,0,0,0,-1,643,449,0,0
-574,575,0,0,0,0,0,0,0,0,0,-1,650,449,0,0
-567,575,0,0,0,0,0,0,0,0,0,-1,657,449,0,0
-560,575,0,0,0,0,0,0,0,0,0,-1,664,449,0,0
-553,575,0,0,0,0,0,0,0,0,0,-1,671,449,0,0
-546,575,0,0,0,0,0,0,0,0,0,-1,678,449,0,0
-539,575,0,0,0,0,0,0,0,0,0,-1,685,449,0,0
-532,575,0,0,0,0,0,0,0,0,0,-1,692,449,0,0
-525,575,0,0,0,0,0,0,0,0,0,-1,699,449,0,0
-518,575,0,0,0,0,0,0,0,0,0,-1,706,449,0,0
-511,575,0,0,0,0,0,0,0,0,0,-1,713,449,0,0
-504,575,0,0,0,0,0,0,0,0,0,-1,720,449,0,0
-497,575,0,0,0,0,0,0,0,0,0,-1,727,449,0,0
-490,575,0,0,0,0,0,0,0,0,0,-1,734,449,0,0
-483,575,0,0,0,0,0,0,0,0,0,-1,741,449,0,0
-476,575,0,0,0,0,0,0,0,0,0,-1,748,449,0,0
-469,575,0,0,0,0,0,0,0,0,0,-1,755,449,0,0
-462,575,0,0,0,0,0,0,0,0,0,-1,762,449,0,0
-455,575,0,0,0,0,0,0,0,0,0,-1,769,449,0,0
-448,575,0,0,0,0,0,0,0,0,0,-1,776,449,0,0
-441,575,0,0,0,0,0,0,0,0,0,-1,783,449,0,0
-434,575,0,0,0,0,0,0,0,0,0,-1,790,449,0,0
-427,575,0,0,0,0,0,0,0,0,0,-1,797,449,0,0
-420,575,0,0,0,0,0,0,0,0,0,-1,804,449,0,0
-413,575,0,0,0,0,0,0,0,0,0,-1,811,449,0,0
-406,575,0,0,0,0,0,0,0,0,0,-1,818,449,0,0
-399,575,0,0,0,0,0,0,0,0,0,-1,825,449,0,0
-392,575,0,0,0,0,0,0,0,0,0,-1,832,449,0,0
-385,575,0,0,0,0,0,0,0,0,0,-1,839,449,0,0
-378,575,0,0,0,0,0,0,0,0,0,-1,846,449,0,0
-371,575,0.56897,-3.52304,0,0,0,0,0,0,0,-1,853,449,0.568955,3.52306
-364,575,1.49805,-4.67191,0,0,0,0,0,0,0,-1,860,449,1.49803,4.6719
-357,575,7.00562,-3.99518,0,0,0,0,0,0,0,-1,867,449,7.0056,3.99517
-350,575,1.67273,-7.16425,0,0,0,0,0,0,0,-1,874,449,1.67271,7.16423
-343,575,0.124512,-6.51617,0,0,0,0,0,0,0,-1,881,449,0.124497,6.51618
-336,575,1.73169,-7.50272,0,0,0,0,0,0,0,-1,888,449,1.7317,7.50271
-329,575,0.621399,-7.75183,0,0,0,0,0,0,0,-1,895,449,0.62139,7.75182
-322,575,1.59839,-7.51672,-0.00617138,-0.0232844,0.0038661,-0.00533851,-0.0241173,0.212188,0.0146271,0.0496651,902,449,1.59841,7.51672
-315,575,1.80115,-7.71762,0,0,0,0,0,0,0,-1,909,449,1.80114,7.71762
-308,575,1.99249,-7.87042,0,0,0,0,0,0,0,-1,916,449,1.99252,7.87043
-301,575,1.69482,-8.21173,-0.00300994,-0.0177646,0.00445924,-0.00176696,-0.0190076,0.271844,0.0121257,0.0307544,923,449,1.69484,8.21173
-294,575,1.68616,-8.36514,-0.00247681,-0.0149776,0.00421142,-0.00119039,-0.016264,0.296458,0.0104684,0.0234148,930,449,1.68615,8.36515
-287,575,1.69067,-8.54977,-0.00223883,-0.0118757,0.0034934,-0.0011057,-0.0130088,0.313656,0.00832849,0.0171712,937,449,1.69067,8.54978
-280,575,1.67999,-8.73447,-0.00165081,-0.00913673,0.00274264,-0.00075353,-0.010034,0.316184,0.00645285,0.0126472,944,449,1.67997,8.73448
-273,575,1.65863,-8.92029,-0.00158165,-0.00658869,0.00220554,-0.000748703,-0.00742163,0.361102,0.00471803,0.0112789,951,449,1.65862,8.9203
-266,575,1.63586,-9.10074,-0.0019006,-0.00444988,0.00149388,-0.00121148,-0.00513901,0.432212,0.00310206,0.0128535,958,449,1.63584,9.10074
-259,575,1.63654,-9.26712,-0.00165631,-0.00264967,0.000869814,-0.00115136,-0.00315462,0.525981,0.00184333,0.0126962,965,449,1.63656,9.26711
-252,575,1.63153,-9.44757,-0.00152072,-0.00125379,0.00050349,-0.000866377,-0.00190813,0.914955,0.00110321,0.0113557,972,449,1.63156,9.44756
-245,575,1.63049,-9.64929,-0.0013331,-1.89251e-05,0.000202743,1.1642e-05,-0.00136367,1.42116,0.000913017,0.0136674,979,449,1.63047,9.64928
-238,575,1.62286,-9.82709,-0.00121106,0.000667434,6.79873e-05,0.000669891,-0.00121352,1.53467,0.00110238,0.013412,986,449,1.62286,9.82707
-231,575,1.6228,-9.9838,-0.00115244,0.000781064,1.97534e-05,0.000781265,-0.00115264,1.56058,0.00112338,0.0120666,993,449,1.62283,9.98379
-224,575,1.61981,-10.1346,-0.00105946,0.000343855,0.000298081,0.000404546,-0.00112015,1.36993,0.000912028,0.0123342,1000,449,1.6198,10.1346
-217,575,1.62268,-10.2834,-0.000812379,-3.0948e-05,0.000579299,0.000277082,-0.00112041,1.08209,0.00085441,0.0106327,1007,449,1.6227,10.2834
-210,575,1.62323,-10.4598,-0.000418457,-0.000351064,0.000573389,0.000189618,-0.000959138,0.814748,0.000711109,0.00916313,1014,449,1.62323,10.4598
-203,575,1.6261,-10.6086,-1.68951e-05,-0.000550339,0.000373178,0.000175079,-0.000742314,0.475126,0.000562394,0.0118639,1021,449,1.62612,10.6086
-196,575,1.6377,-10.7369,0.000437982,-0.000601905,-7.9921e-08,0.000437982,-0.000601905,-7.68555e-05,0.00060286,0.0148661,1028,449,1.63774,10.7369
-189,575,1.66394,-10.8936,0.00100771,-0.000504944,-0.000746262,0.0013139,-0.000811132,-0.38935,0.00123828,0.0152661,1035,449,1.66399,10.8935
-182,575,1.66528,-11.0451,0.00169249,-0.000321793,-0.00151119,0.0025014,-0.0011307,-0.491471,0.00214619,0.0127177,1042,449,1.6653,11.0451
-175,575,1.66614,-11.1601,0.00229472,-0.000135636,-0.00244894,0.00381339,-0.00165431,-0.555094,0.00323778,0.0110483,1049,449,1.66609,11.1601
-168,575,1.66492,-11.2794,0.00277962,-0.00024567,-0.00339163,0.00498063,-0.00244668,-0.57564,0.00437056,0.0104341,1056,449,1.66496,11.2794
-161,575,1.67029,-11.4185,0.0032358,-0.000324594,-0.00445175,0.0062501,-0.0033389,-0.595194,0.00562062,0.0143747,1063,449,1.67026,11.4185
-154,575,1.69006,-11.5311,0.00362876,-0.000255324,-0.00546465,0.00748619,-0.00411276,-0.614667,0.00679041,0.0169654,1070,449,1.69009,11.5311
-147,575,1.71399,-11.5963,0.00410794,-0.000161034,-0.00628639,0.00861233,-0.00466543,-0.621735,0.00777799,0.0170674,1077,449,1.71394,11.5963
-140,575,1.64758,-11.6841,0.00457897,-0.000259493,-0.00678716,0.00936517,-0.00504569,-0.614197,0.00844378,0.026613,1084,449,1.64763,11.684
-133,575,1.76245,-11.8582,0.00472007,-0.000706695,-0.00703552,0.00954731,-0.00553394,-0.601353,0.00880933,0.0361673,1091,449,1.76239,11.8583
-126,575,1.8158,-11.8299,0.00491469,-0.0010304,-0.00704229,0.00958609,-0.0057018,-0.585693,0.00892093,0.041065,1098,449,1.81578,11.8299
-119,575,1.65662,-11.7954,0.00521065,-0.00126962,-0.00695538,0.00964357,-0.00570254,-0.567422,0.00895694,0.0394879,1105,449,1.65659,11.7954
-112,575,1.72473,-12.1075,0.00532715,-0.00150287,-0.00645384,0.00921381,-0.00538953,-0.542053,0.00852707,0.0440085,1112,449,1.72476,12.1075
-105,575,1.75439,-12.3613,0.00562293,-0.00156052,-0.00560994,0.00869243,-0.00463002,-0.500655,0.00781001,0.0481277,1119,449,1.75444,12.3613
-98,575,1.75806,-12.4771,0,0,0,0,0,0,0,-1,1126,449,1.75802,12.4771
-91,575,1.87708,-12.4143,0,0,0,0,0,0,0,-1,1133,449,1.87706,12.4143
-84,575,1.16553,-11.9056,0,0,0,0,0,0,0,-1,1140,449,1.16558,11.9056
-77,575,0.205078,-11.2584,0,0,0,0,0,0,0,-1,1147,449,0.205117,11.2584
-70,575,-4.2467,-1.78738,0,0,0,0,0,0,0,-1,1154,449,-4.24674,1.78739
-63,575,-4.52209,-3.48798,0,0,0,0,0,0,0,-1,1161,449,-4.5221,3.48796
-56,575,-5.5968,-5.4928,0,0,0,0,0,0,0,-1,1168,449,-5.59683,5.49281
-49,575,-5.96863,-7.17612,0,0,0,0,0,0,0,-1,1175,449,-5.96868,7.1761
-42,575,-0.830322,0.773499,0,0,0,0,0,0,0,-1,1182,449,-0.83038,-0.77351
-35,575,-0.62085,0.205139,0,0,0,0,0,0,0,-1,1189,449,-0.620855,-0.205126
-28,575,0.49292,-3.87988,0,0,0,0,0,0,0,-1,1196,449,0.492941,3.87989
-21,575,2.15308,-14.0162,0,0,0,0,0,0,0,-1,1203,449,2.15305,14.0162
-14,575,2.44409,-14.3908,0.00203583,0.00850257,0.0253184,0.0307932,-0.0202548,0.848909,0.0296812,0.0489412,1210,449,2.44413,14.3908
-7,575,2.599,-14.6885,-0.000535382,0.00490591,0.0242558,0.0265931,-0.0222226,0.841247,0.0282214,0.0464285,1217,449,2.59894,14.6885
0,575,2.67407,-15.5864,0,0,0,0,0,0,0,-1,1224,449,2.67405,15.5864
7,575,3.08569,-13.683,0,0,0,0,0,0,0,-1,1231,449,3.08566,13.683
14,575,2.55554,-13.3916,-0.00655579,-0.000164196,0.0171405,0.0140759,-0.0207959,0.877563,0.0202575,0.0472444,1238,449,2.55551,13.3916
21,575,2.00122,-13.1042,-0.00818231,0.000430377,0.0149479,0.0116799,-0.0194318,0.925645,0.0181473,0.0414458,1245,449,2.00123,13.1042
28,575,1.63647,-12.7985,-0.00853734,0.00175453,0.0130643,0.0106498,-0.0174326,0.973014,0.0163703,0.0416383,1252,449,1.63649,12.7985
35,575,1.49756,-12.4656,0,0,0,0,0,0,0,-1,1259,449,1.49751,12.4656
42,575,3.69226,-12.2214,-0.0108801,0.00547649,0.00943129,0.00978153,-0.0151851,1.14258,0.0145266,0.0456887,1266,449,3.69226,12.2214
49,575,3.38867,-12.3579,-0.0126793,0.00921005,0.00934391,0.0126562,-0.0161254,1.21747,0.0166572,0.0462727,1273,449,3.38864,12.3579
56,575,2.8634,-12.4435,-0.0128986,0.0123994,0.00994582,0.0158413,-0.0163405,1.23763,0.0185809,0.0430953,1280,449,2.86336,12.4435
63,575,2.45447,-12.5443,-0.0136025,0.0158358,0.0107177,0.0193244,-0.0170912,1.25611,0.0210377,0.0424784,1287,449,2.45449,12.5443
70,575,2.12329,-13.0461,-0.0139018,0.0196556,0.0117074,0.0233363,-0.0175826,1.26619,0.0237022,0.0421841,1294,449,2.1233,13.046
77,575,2.20703,-13.6419,-0.0135352,0.0230295,0.0137454,0.0276203,-0.018126,1.24846,0.0266006,0.043611,1301,449,2.20701,13.6419
84,575,2.73926,-13.9501,-0.0125114,0.0252035,0.0158184,0.0309596,-0.0182675,1.22181,0.0287344,0.0456923,1308,449,2.73926,13.9501
91,575,2.95532,-14.2731,0,0,0,0,0,0,0,-1,1315,449,2.95534,14.2731
98,575,3.0979,-14.6766,-0.0181237,0.011155,0.00927377,0.0138452,-0.0208139,1.28846,0.0201448,0.0454165,1322,449,3.09788,14.6766
105,575,2.89966,-12.8569,-0.0219561,-0.00805156,0.000142672,-0.00805009,-0.0219575,1.56054,0.0128266,0.0423473,1329,449,2.89971,12.8569
112,575,3.53845,-13.025,0,0,0,0,0,0,0,-1,1336,449,3.5384,13.025
119,575,5.2948,-13.6454,0,0,0,0,0,0,0,-1,1343,449,5.29479,13.6454
126,575,6.698,-13.9642,0,0,0,0,0,0,0,-1,1350,449,6.69802,13.9642
133,575,1.01685,-14.2975,0,0,0,0,0,0,0,-1,1357,449,1.01689,14.2975
140,575,-0.0117188,-15.0471,-0.0338943,-0.0988581,-0.0547313,-0.00273197,-0.13002,-0.517592,0.0857841,0.0458043,1364,449,-0.011747,15.0471
147,575,-1.01306,-16.2273,-0.0378825,-0.112365,-0.0620182,-0.00278305,-0.147464,-0.515009,0.097395,0.0466274,1371,449,-1.0131,16.2272
154,575,-1.7865,-17.7461,-0.0400338,-0.124509,-0.0685129,-0.00178529,-0.162758,-0.509169,0.107915,0.0464994,1378,449,-1.78653,17.7461
161,575,-2.07178,-19.0249,0,0,0,0,0,0,0,-1,1385,449,-2.07183,19.0249
168,575,9.2522,-0.307129,0,0,0,0,0,0,0,-1,1392,449,9.25225,0.307127
175,575,4.32617,1.93634,0,0,0,0,0,0,0,-1,1399,449,4.32612,-1.93634
182,575,6.3147,-2.88345,0,0,0,0,0,0,0,-1,1406,449,6.31466,2.88346
189,575,6.10449,-1.30817,0,0,0,0,0,0,0,-1,1413,449,6.10455,1.30817
196,575,5.79895,0.818359,0,0,0,0,0,0,0,-1,1420,449,5.79895,-0.81837
203,575,3.29724,-1.46378,0,0,0,0,0,0,0,-1,1427,449,3.29722,1.46377
210,575,2.32739,-7.74503,0,0,0,0,0,0,0,-1,1434,449,2.32741,7.74502
217,575,3.35645,-11.7791,0,0,0,0,0,0,0,-1,1441,449,3.35648,11.7791
224,575,3.5741,-12.3109,0,0,0,0,0,0,0,-1,1448,449,3.57413,12.3109
231,575,3.51904,-12.0333,0,0,0,0,0,0,0,-1,1455,449,3.51901,12.0333
238,575,3.6322,-11.8945,0,0,0,0,0,0,0,-1,1462,449,3.63218,11.8945
245,575,3.71655,-12.0729,0,0,0,0,0,0,0,-1,1469,449,3.7166,12.0729
252,575,3.79688,-11.7668,0,0,0,0,0,0,0,-1,1476,449,3.79689,11.7668
259,575,3.62708,-11.6057,0,0,0,0,0,0,0,-1,1483,449,3.62704,11.6056
266,575,3.58936,-11.364,0,0,0,0,0,0,0,-1,1490,449,3.5893,11.364
273,575,3.67285,-11.0909,0.00167508,0.00573783,-0.000758315,0.00587475,0.00153816,-1.39216,0.00351772,0.0422625,1497,449,3.67283,11.0909
280,575,3.68677,-10.7894,0.00129724,0.00406728,-0.000968073,0.00437207,0.000992454,-1.26578,0.00264666,0.0276753,1504,449,3.68678,10.7894
287,575,3.64648,-10.6815,0.000985588,0.00292018,-0.00126458,0.003545,0.000360772,-1.11189,0.00225272,0.0154393,1511,449,3.64644,10.6816
294,575,3.71094,-10.5162,0.000635219,0.00205486,-0.00146752,0.00297521,-0.000285133,-1.01065,0.00208503,0.0104691,1518,449,3.71099,10.5162
301,575,3.7323,-10.3578,0.000242012,0.00124967,-0.00155941,0.00238462,-0.000892938,-0.941649,0.00195653,0.00997371,1525,449,3.73232,10.3578
308,575,3.74023,-10.1932,-5.98988e-05,0.000643127,-0.00159847,0.00192828,-0.00134505,-0.893628,0.00189983,0.0107978,1532,449,3.74018,10.1932
315,575,3.72339,-10.0282,-0.00025311,0.000278973,-0.00161911,0.00165376,-0.00162789,-0.866827,0.00189468,0.0112964,1539,449,3.72342,10.0282
322,575,3.72412,-9.8472,-0.000397204,0.000106589,-0.00151429,0.00138979,-0.00168041,-0.867817,0.00177522,0.0102096,1546,449,3.72412,9.8472
329,575,3.72778,-9.70801,-0.000452708,-1.71419e-05,-0.00133508,0.0011178,-0.00158765,-0.866248,0.00156982,0.0103774,1553,449,3.72779,9.70801
336,575,3.72949,-9.54706,-0.000455173,7.15933e-05,-0.00104717,0.000887995,-0.00127157,-0.908602,0.00125337,0.0121036,1560,449,3.72951,9.54707
343,575,3.75684,-9.33481,-0.000498239,0.000182875,-0.00073769,0.000654824,-0.000970188,-1.00165,0.000944072,0.011699,1567,449,3.7568,9.33481
350,575,3.74646,-9.16974,-0.000448539,0.000363184,-0.000367148,0.000504608,-0.000589964,-1.20312,0.000632591,0.01105,1574,449,3.74642,9.16973
357,575,3.75391,-8.96161,-0.000350508,0.00058655,1.64e-05,0.000586837,-0.000350795,1.5533,0.00054703,0.0109828,1581,449,3.75389,8.96161
364,575,3.76221,-8.76779,-0.000280531,0.000889761,0.000374722,0.000999462,-0.000390232,1.286,0.000827641,0.0106824,1588,449,3.76219,8.76779
371,575,3.75146,-8.5831,-0.00022518,0.00119741,0.000711553,0.00149222,-0.00051999,1.17801,0.0012061,0.0187832,1595,449,3.7515,8.58308
378,575,3.7384,-8.40546,-0.000227571,0.00149565,0.000977895,0.00193736,-0.000669284,1.14653,0.00156318,0.0176964,1602,449,3.73835,8.40547
385,575,3.73621,-8.19891,-0.000288037,0.00163467,0.00106291,0.00210649,-0.000759853,1.15303,0.00171468,0.0113634,1609,449,3.73615,8.1989
392,575,3.69373,-7.98749,-0.000282469,0.00150687,0.00102353,0.00197163,-0.000747228,1.14456,0.00162192,0.00903946,1616,449,3.69377,7.98749
399,575,3.68286,-7.7991,-0.00019731,0.0011902,0.00101148,0.00172298,-0.000730087,1.08599,0.00145443,0.00931313,1623,449,3.68287,7.79909
406,575,3.70422,-7.57928,-0.000141604,0.000909361,0.000930503,0.00145251,-0.00068475,1.04244,0.00126021,0.010532,1630,449,3.70419,7.57927
413,575,3.70984,-7.35629,-0.000723459,0.0011117,0.0002563,0.00114683,-0.000758582,1.43461,0.00110767,0.0124487,1637,449,3.70981,7.3563
420,575,3.68384,-7.13214,-0.0015141,0.000680388,-0.000772181,0.000924862,-0.00175857,-1.26418,0.00157401,0.0139896,1644,449,3.68389,7.13213
427,575,3.63745,-6.98016,-0.00237859,0.000335067,-0.00164629,0.0011116,-0.00315512,-1.13005,0.00255584,0.0203212,1651,449,3.63745,6.98018
434,575,3.57068,-6.85107,-0.00340042,3.28744e-06,-0.00289204,0.00165706,-0.00505419,-1.05134,0.00403682,0.0313001,1658,449,3.57071,6.85106
441,575,3.6355,-6.72644,-0.0048053,-0.000235867,-0.00449691,0.00252344,-0.00756461,-1.02044,0.0060619,0.0477756,1665,449,3.63555,6.72643
448,575,3.90186,-6.50854,0,0,0,0,0,0,0,-1,1672,449,3.90184,6.50855
455,575,2.88135,-4.53244,0,0,0,0,0,0,0,-1,1679,449,2.8814,4.53243
462,575,2.60132,-6.26129,0,0,0,0,0,0,0,-1,1686,449,2.60128,6.2613
469,575,2.52686,-5.68939,0,0,0,0,0,0,0,-1,1693,449,2.52691,5.68939
476,575,2.60339,-5.31808,0,0,0,0,0,0,0,-1,1700,449,2.60342,5.31808
483,575,1.63,-5.52939,0,0,0,0,0,0,0,-1,1707,449,1.63006,5.52939
490,575,1.55469,-5.33722,0,0,0,0,0,0,0,-1,1714,449,1.55467,5.33722
497,575,0,0,0,0,0,0,0,0,0,-1,1721,449,0,0
504,575,0,0,0,0,0,0,0,0,0,-1,1728,449,0,0
511,575,0,0,0,0,0,0,0,0,0,-1,1735,449,0,0
518,575,0,0,0,0,0,0,0,0,0,-1,1742,449,0,0
525,575,0,0,0,0,0,0,0,0,0,-1,1749,449,0,0
532,575,0,0,0,0,0,0,0,0,0,-1,1756,449,0,0
539,575,0,0,0,0,0,0,0,0,0,-1,1763,449,0,0
546,575,0,0,0,0,0,0,0,0,0,-1,1770,449,0,0
553,575,0,0,0,0,0,0,0,0,0,-1,1777,449,0,0
560,575,0,0,0,0,0,0,0,0,0,-1,1784,449,0,0
567,575,0,0,0,0,0,0,0,0,0,-1,1791,449,0,0
574,575,0,0,0,0,0,0,0,0,0,-1,1798,449,0,0
581,575,0,0,0,0,0,0,0,0,0,-1,1805,449,0,0
588,575,0,0,0,0,0,0,0,0,0,-1,1812,449,0,0
595,575,0,0,0,0,0,0,0,0,0,-1,1819,449,0,0
602,575,0,0,0,0,0,0,0,0,0,-1,1826,449,0,0
609,575,0,0,0,0,0,0,0,0,0,-1,1833,449,0,0
616,575,0,0,0,0,0,0,0,0,0,-1,1840,449,0,0
623,575,0,0,0,0,0,0,0,0,0,-1,1847,449,0,0
630,575,0,0,0,0,0,0,0,0,0,-1,1854,449,0,0
637,575,0,0,0,0,0,0,0,0,0,-1,1861,449,0,0
644,575,0,0,0,0,0,0,0,0,0,-1,1868,449,0,0
651,575,0,0,0,0,0,0,0,0,0,-1,1875,449,0,0
658,575,0,0,0,0,0,0,0,0,0,-1,1882,449,0,0
665,575,0,0,0,0,0,0,0,0,0,-1,1889,449,0,0
672,575,0,0,0,0,0,0,0,0,0,-1,1896,449,0,0
679,575,0,0,0,0,0,0,0,0,0,-1,1903,449,0,0
686,575,0,0,0,0,0,0,0,0,0,-1,1910,449,0,0
693,575,0,0,0,0,0,0,0,0,0,-1,1917,449,0,0
700,575,0,0,0,0,0,0,0,0,0,-1,1924,449,0,0
707,575,0,0,0,0,0,0,0,0,0,-1,1931,449,0,0
714,575,0,0,0,0,0,0,0,0,0,-1,1938,449,0,0
721,575,0,0,0,0,0,0,0,0,0,-1,1945,449,0,0
728,575,0,0,0,0,0,0,0,0,0,-1,1952,449,0,0
735,575,0,0,0,0,0,0,0,0,0,-1,1959,449,0,0
742,575,0,0,0,0,0,0,0,0,0,-1,1966,449,0,0
749,575,0,0,0,0,0,0,0,0,0,-1,1973,449,0,0
756,575,0,0,0,0,0,0,0,0,0,-1,1980,449,0,0
763,575,0,0,0,0,0,0,0,0,0,-1,1987,449,0,0
770,575,0,0,0,0,0,0,0,0,0,-1,1994,449,0,0
777,575,0,0,0,0,0,0,0,0,0,-1,2001,449,0,0
784,575,0,0,0,0,0,0,0,0,0,-1,2008,449,0,0
791,575,0,0,0,0,0,0,0,0,0,-1,2015,449,0,0
798,575,0,0,0,0,0,0,0,0,0,-1,2022,449,0,0
805,575,0,0,0,0,0,0,0,0,0,-1,2029,449,0,0
812,575,0,0,0,0,0,0,0,0,0,-1,2036,449,0,0
-700,568,0,0,0,0,0,0,0,0,0,-1,524,456,0,0
-693,568,0,0,0,0,0,0,0,0,0,-1,531,456,0,0
-686,568,0,0,0,0,0,0,0,0,0,-1,538,456,0,0
-679,568,0,0,0,0,0,0,0,0,0,-1,545,456,0,0
-672,568,0,0,0,0,0,0,0,0,0,-1,552,456,0,0
-665,568,0,0,0,0,0,0,0,0,0,-1,559,456,0,0
-658,568,0,0,0,0,0,0,0,0,0,-1,566,456,0,0
-651,568,0,0,0,0,0,0,0,0,0,-1,573,456,0,0
-644,568,0,0,0,0,0,0,0,0,0,-1,580,456,0,0
-637,568,0,0,0,0,0,0,0,0,0,-1,587,456,0,0
-630,568,0,0,0,0,0,0,0,0,0,-1,594,456,0,0
-623,568,0,0,0,0,0,0,0,0,0,-1,601,456,0,0
-616,568,0,0,0,0,0,0,0,0,0,-1,608,456,0,0
-609,568,0,0,0,0,0,0,0,0,0,-1,615,456,0,0
-602,568,0,0,0,0,0,0,0,0,0,-1,622,456,0,0
-595,568,0,0,0,0,0,0,0,0,0,-1,629,456,0,0
-588,568,0,0,0,0,0,0,0,0,0,-1,636,456,0,0
-581,568,0,0,0,0,0,0,0,0,0,-1,643,456,0,0
-574,568,0,0,0,0,0,0,0,0,0,-1,650,456,0,0
-567,568,0,0,0,0,0,0,0,0,0,-1,657,456,0,0
-560,568,0,0,0,0,0,0,0,0,0,-1,664,456,0,0
-553,568,0,0,0,0,0,0,0,0,0,-1,671,456,0,0
-546,568,0,0,0,0,0,0,0,0,0,-1,678,456,0,0
-539,568,0,0,0,0,0,0,0,0,0,-1,685,456,0,0
-532,568,0,0,0,0,0,0,0,0,0,-1,692,456,0,0
-525,568,0,0,0,0,0,0,0,0,0,-1,699,456,0,0
-518,568,0,0,0,0,0,0,0,0,0,-1,706,456,0,0
-511,568,0,0,0,0,0,0,0,0,0,-1,713,456,0,0
-504,568,0,0,0,0,0,0,0,0,0,-1,720,456,0,0
-497,568,0,0,0,0,0,0,0,0,0,-1,727,456,0,0
-490,568,0,0,0,0,0,0,0,0,0,-1,734,456,0,0
-483,568,0,0,0,0,0,0,0,0,0,-1,741,456,0,0
-476,568,0,0,0,0,0,0,0,0,0,-1,748,456,0,0
-469,568,0,0,0,0,0,0,0,0,0,-1,755,456,0,0
-462,568,0,0,0,0,0,0,0,0,0,-1,762,456,0,0
-455,568,0,0,0,0,0,0,0,0,0,-1,769,456,0,0
-448,568,0,0,0,0,0,0,0,0,0,-1,776,456,0,0
-441,568,0,0,0,0,0,0,0,0,0,-1,783,456,0,0
-434,568,0,0,0,0,0,0,0,0,0,-1,790,456,0,0
-427,568,0,0,0,0,0,0,0,0,0,-1,797,456,0,0
-420,568,0,0,0,0,0,0,0,0,0,-1,804,456,0,0
-413,568,0,0,0,0,0,0,0,0,0,-1,811,456,0,0
-406,568,0,0,0,0,0,0,0,0,0,-1,818,456,0,0
-399,568,0,0,0,0,0,0,0,0,0,-1,825,456,0,0
-392,568,0,0,0,0,0,0,0,0,0,-1,832,456,0,0
-385,568,0,0,0,0,0,0,0,0,0,-1,839,456,0,0
-378,568,0.0559082,-3.97311,0,0,0,0,0,0,0,-1,846,456,0.0559355,3.97311
-371,568,0.428345,-4.25775,0,0,0,0,0,0,0,-1,853,456,0.428339,4.25776
-364,568,1.06445,-4.49878,0,0,0,0,0,0,0,-1,860,456,1.06443,4.49877
-357,568,1.72162,-7.40503,0,0,0,0,0,0,0,-1,867,456,1.72162,7.40502
-350,568,0.518005,-6.60342,0,0,0,0,0,0,0,-1,874,456,0.518007,6.60342
-343,568,2.30737,-7.34909,0,0,0,0,0,0,0,-1,881,456,2.30738,7.34909
-336,568,1.70911,-7.34247,-0.00777288,-0.0171286,0.000673374,-0.00772467,-0.0171768,0.0714836,0.00993374,0.0492438,888,456,1.70909,7.34247
-329,568,0.967834,-7.56619,-0.00612106,-0.017132,0.00189925,-0.00580267,-0.0174504,0.166095,0.0102617,0.0443967,895,456,0.967836,7.56619
-322,568,1.62085,-7.42969,-0.00476457,-0.0166156,0.00260208,-0.00421841,-0.0171618,0.20689,0.0103264,0.043445,902,456,1.62083,7.4297
-315,568,1.79938,-7.59814,0,0,0,0,0,0,0,-1,909,456,1.79937,7.59815
-308,568,1.57758,-7.9913,-0.00292386,-0.0143845,0.00312613,-0.0021266,-0.0151817,0.249708,0.00949203,0.0267802,916,456,1.57757,7.9913
-301,568,1.54974,-8.1608,-0.00228121,-0.0127967,0.00306498,-0.00145307,-0.0136249,0.263892,0.00863971,0.0145187,923,456,1.54972,8.16078
-294,568,1.51117,-8.31836,-0.00182508,-0.010909,0.00291028,-0.000972678,-0.0117614,0.284924,0.00753765,0.0115581,930,456,1.51118,8.31834
-287,568,1.49927,-8.52878,-0.00150248,-0.00885358,0.002501,-0.000732281,-0.00962377,0.298739,0.00618622,0.0108349,937,456,1.49927,8.52878
-280,568,1.49152,-8.73846,-0.000894483,-0.00701065,0.00207911,-0.000254654,-0.00765048,0.298545,0.00501759,0.0103808,944,456,1.4915,8.73848
-273,568,1.47778,-8.91916,-0.000792201,-0.00523772,0.00177536,-0.000170215,-0.0058597,0.33698,0.00385098,0.0113761,951,456,1.4778,8.91916
-266,568,1.45795,-9.10248,-0.00103445,-0.00375316,0.00129559,-0.000515931,-0.00427167,0.380693,0.00269233,0.0114718,958,456,1.45793,9.10248
-259,568,1.46088,-9.27475,-0.000793845,-0.002521,0.000900019,-0.000410105,-0.00290474,0.403029,0.0018153,0.0121724,965,456,1.46086,9.27477
-252,568,1.45398,-9.46057,-0.000672838,-0.00159622,0.000711512,-0.000286349,-0.00198271,0.497602,0.00123745,0.011851,972,456,1.45401,9.46057
-245,568,1.4646,-9.64499,-0.00056719,-0.000822648,0.000589457,-9.17821e-05,-0.00129806,0.678703,0.000836457,0.0133429,979,456,1.46463,9.64499
-238,568,1.47052,-9.81741,-0.000507397,-0.000421194,0.000580351,0.000117654,-0.00104625,0.822464,0.00073984,0.0120975,986,456,1.4705,9.8174
-231,568,1.4574,-9.9762,-0.000536358,-0.000466562,0.000646857,0.000146338,-0.00114926,0.812347,0.000819319,0.0112148,993,456,1.4574,9.97619
-224,568,1.45746,-10.1345,-0.000562156,-0.000909491,0.000967813,0.000247448,-0.00171909,0.696621,0.00123682,0.0129257,1000,456,1.45744,10.1344
-217,568,1.47308,-10.288,-0.000408405,-0.00128176,0.00125225,0.000481121,-0.00217129,0.617634,0.00163171,0.0108205,1007,456,1.47309,10.288
-210,568,1.47284,-10.4456,-8.24781e-05,-0.00156117,0.00118682,0.000576448,-0.0022201,0.506831,0.00170501,0.0105422,1014,456,1.47286,10.4456
-203,568,1.47192,-10.6031,0.000291099,-0.00166223,0.000879791,0.000628933,-0.00200006,0.366632,0.00158517,0.00978196,1021,456,1.47191,10.6031
-196,568,1.50244,-10.7217,0.000727717,-0.00159625,0.000379501,0.000788119,-0.00165666,0.157838,0.00144088,0.0124614,1028,456,1.50241,10.7217
-189,568,1.52686,-10.8512,0.00131541,-0.00131494,-0.000575083,0.00143565,-0.00143517,-0.206108,0.00165747,0.0122354,1035,456,1.52687,10.8512
-182,568,1.52771,-11.0039,0.00206014,-0.000901015,-0.00161202,0.00276833,-0.0016092,-0.413936,0.00255674,0.013161,1042,456,1.52766,11.0039
-175,568,1.53772,-11.156,0.00281335,-0.000506455,-0.00292541,0.00451698,-0.00221008,-0.527343,0.00395926,0.0113613,1049,456,1.53774,11.156
-168,568,1.53699,-11.2656,0.00347654,-0.000481672,-0.0042854,0.00621776,-0.00322289,-0.569076,0.00554123,0.015103,1056,456,1.53697,11.2656
-161,568,1.54626,-11.3725,0.00413817,-0.000420704,-0.0058665,0.00815251,-0.00443505,-0.600099,0.00737232,0.0252195,1063,456,1.54628,11.3725
-154,568,1.67554,-11.6405,0.00469936,-0.000145362,-0.00746403,0.0101243,-0.00557027,-0.628491,0.00918751,0.0361546,1070,456,1.67557,11.6405
-147,568,1.71692,-11.6617,0.0053901,0.000207499,-0.00888768,0.0120565,-0.00645894,-0.64355,0.0108515,0.0431005,1077,456,1.71694,11.6617
-140,568,1.7196,-11.7719,0.00606248,0.000238592,-0.00981128,0.0133848,-0.00708375,-0.641141,0.0120027,0.0466247,1084,456,1.71959,11.7719
-133,568,1.60681,-12.0239,0,0,0,0,0,0,0,-1,1091,456,1.60684,12.0239
-126,568,1.20886,-11.2504,0,0,0,0,0,0,0,-1,1098,456,1.20888,11.2504
-119,568,1.37964,-11.4571,0,0,0,0,0,0,0,-1,1105,456,1.37967,11.4571
-112,568,1.63098,-11.9518,0,0,0,0,0,0,0,-1,1112,456,1.63096,11.9518
-105,568,1.63977,-12.2492,0,0,0,0,0,0,0,-1,1119,456,1.63977,12.2492
-98,568,0.930664,-12.1578,0,0,0,0,0,0,0,-1,1126,456,0.930642,12.1578
-91,568,1.11621,-11.1853,0,0,0,0,0,0,0,-1,1133,456,1.11626,11.1853
-84,568,0.461792,-9.7959,0,0,0,0,0,0,0,-1,1140,456,0.461793,9.7959
-77,568,-1.13806,-8.57822,0,0,0,0,0,0,0,-1,1147,456,-1.13807,8.57821
-70,568,-4.09766,-1.42911,0,0,0,0,0,0,0,-1,1154,456,-4.09767,1.4291
-63,568,-5.92273,-3.70752,0,0,0,0,0,0,0,-1,1161,456,-5.92272,3.70751
-56,568,-5.24158,-6.01385,0,0,0,0,0,0,0,-1,1168,456,-5.24161,6.01386
-49,568,-5.24365,-8.33557,0,0,0,0,0,0,0,-1,1175,456,-5.24371,8.33557
-42,568,-0.664795,0.521973,0,0,0,0,0,0,0,-1,1182,456,-0.664829,-0.521984
-35,568,-0.153076,-1.67731,0,0,0,0,0,0,0,-1,1189,456,-0.153068,1.67731
-28,568,1.25439,-4.48798,0,0,0,0,0,0,0,-1,1196,456,1.2544,4.48797
-21,568,1.18884,-14.2748,0,0,0,0,0,0,0,-1,1203,456,1.18885,14.2748
-14,568,1.4436,-14.5485,0.00239175,0.00980504,0.0317735,0.0380874,-0.0258906,0.843465,0.0371608,0.0489457,1210,456,1.44356,14.5485
-7,568,2.02881,-15.0829,-0.00244744,0.00600116,0.030852,0.0329167,-0.029363,0.853436,0.0359767,0.0483506,1217,456,2.02886,15.0829
0,568,3.72693,-14.1834,0,0,0,0,0,0,0,-1,1224,456,3.72694,14.1834
7,568,3.26587,-13.8203,-0.00756764,-0.000688049,0.0254722,0.0215755,-0.0298312,0.852513,0.029807,0.0471015,1231,456,3.26585,13.8203
14,568,2.75659,-13.4759,-0.010416,-0.00109008,0.0223833,0.0171108,-0.0286169,0.888091,0.026678,0.0443266,1238,456,2.75657,13.4759
21,568,2.02087,-13.2087,0,0,0,0,0,0,0,-1,1245,456,2.02093,13.2087
28,568,1.68518,-12.731,-0.0135853,0.00208873,0.0173793,0.0133163,-0.0248129,0.997216,0.022345,0.0415812,1252,456,1.68522,12.7309
35,568,1.6134,-11.9062,-0.0150462,0.00475831,0.015149,0.0129543,-0.0232422,1.07487,0.0211776,0.0405295,1259,456,1.61339,11.9061
42,568,1.76489,-10.9247,-0.0175511,0.00743124,0.0131283,0.0130614,-0.0231812,1.16566,0.0211949,0.04149,1266,456,1.76493,10.9247
49,568,3.5271,-12.9427,-0.0203174,0.0121851,0.0130964,0.0168053,-0.0249376,1.23164,0.0242523,0.0482289,1273,456,3.52712,12.9427
56,568,3.05054,-12.9996,-0.0210885,0.016345,0.0139424,0.0209672,-0.0257107,1.25068,0.0269958,0.0438732,1280,456,3.0506,12.9996
63,568,2.38318,-12.927,-0.0225664,0.0206612,0.0151383,0.0254354,-0.0273405,1.2653,0.0304768,0.0434069,1287,456,2.38318,12.927
70,568,1.4762,-12.777,-0.0234594,0.025404,0.0167194,0.0305771,-0.0286325,1.27073,0.0341908,0.0444021,1294,456,1.4762,12.777
77,568,2.22717,-13.2149,-0.0232681,0.0295216,0.0196415,0.0360278,-0.0297743,1.25093,0.038048,0.0436704,1301,456,2.22717,13.2149
84,568,1.88684,-13.8258,0,0,0,0,0,0,0,-1,1308,456,1.88686,13.8258
91,568,2.06897,-14.1242,0,0,0,0,0,0,0,-1,1315,456,2.06899,14.1242
98,568,1.53882,-12.532,0,0,0,0,0,0,0,-1,1322,456,1.53885,12.532
105,568,2.78955,-12.8976,-0.0322318,-0.0134965,0.000463753,-0.0134851,-0.0322432,1.54606,0.0186984,0.0465448,1329,456,2.78953,12.8976
112,568,4.02954,-13.2623,0,0,0,0,0,0,0,-1,1336,456,4.02951,13.2623
119,568,5.29456,-13.5424,0,0,0,0,0,0,0,-1,1343,456,5.29459,13.5424
126,568,6.64526,-13.8543,0,0,0,0,0,0,0,-1,1350,456,6.64531,13.8543
133,568,1.26257,-12.8668,0,0,0,0,0,0,0,-1,1357,456,1.2626,12.8668
140,568,0.33667,-13.6198,0,0,0,0,0,0,0,-1,1364,456,0.33667,13.6198
147,568,-0.371704,-14.4384,-0.044239,-0.139197,-0.077115,-0.0011587,-0.182277,-0.50946,0.121134,0.0436936,1371,456,-0.37173,14.4384
154,568,-1.62292,-16.4832,-0.0468387,-0.153459,-0.0847169,-5.41583e-05,-0.200243,-0.504566,0.133477,0.0444354,1378,456,-1.62289,16.4832
161,568,-1.79382,-17.9836,0,0,0,0,0,0,0,-1,1385,456,-1.79377,17.9836
168,568,9.09583,-0.563782,0,0,0,0,0,0,0,-1,1392,456,9.09586,0.563788
175,568,10.5151,0.747498,0,0,0,0,0,0,0,-1,1399,456,10.5152,-0.747501
182,568,6.35095,-3.63361,0,0,0,0,0,0,0,-1,1406,456,6.35093,3.63359
189,568,6.17493,-1.70911,0,0,0,0,0,0,0,-1,1413,456,6.17497,1.70911
196,568,6.04724,0.200836,0,0,0,0,0,0,0,-1,1420,456,6.04724,-0.200835
203,568,5.9281,2.08649,0,0,0,0,0,0,0,-1,1427,456,5.92812,-2.08648
210,568,1.46216,-2.50446,0,0,0,0,0,0,0,-1,1434,456,1.46219,2.50446
217,568,2.62366,-7.86703,0,0,0,0,0,0,0,-1,1441,456,2.62365,7.86704
224,568,3.69934,-12.8011,0,0,0,0,0,0,0,-1,1448,456,3.69935,12.8011
231,568,4.38245,-9.3205,0,0,0,0,0,0,0,-1,1455,456,4.38244,9.32048
238,568,3.88123,-9.43616,0,0,0,0,0,0,0,-1,1462,456,3.88117,9.43617
245,568,3.34387,-10.6774,0,0,0,0,0,0,0,-1,1469,456,3.34389,10.6774
252,568,3.56946,-9.28928,0,0,0,0,0,0,0,-1,1476,456,3.56948,9.28928
259,568,3.38843,-8.73068,0,0,0,0,0,0,0,-1,1483,456,3.38842,8.73068
266,568,3.104,-9.16876,0,0,0,0,0,0,0,-1,1490,456,3.10397,9.16876
273,568,3.68469,-11.3426,0,0,0,0,0,0,0,-1,1497,456,3.68471,11.3426
280,568,3.68896,-11.0215,0,0,0,0,0,0,0,-1,1504,456,3.68903,11.0215
287,568,3.83862,-10.679,0.000910576,0.00342707,-0.00188412,0.00443445,-9.68084e-05,-1.0798,0.00298909,0.0413275,1511,456,3.83866,10.6789
294,568,3.91187,-10.5164,0.000457001,0.00228707,-0.0021928,0.0037481,-0.00100403,-0.983059,0.0028921,0.0271116,1518,456,3.91192,10.5164
301,568,3.90247,-10.3708,-2.04099e-05,0.0012772,-0.00235753,0.00307357,-0.00181679,-0.919677,0.00285436,0.0200979,1525,456,3.90247,10.3708
308,568,3.90662,-10.1891,-0.000420363,0.000462056,-0.00249082,0.00255044,-0.00250875,-0.873056,0.00292096,0.0121232,1532,456,3.90665,10.1891
315,568,3.89648,-10.0253,-0.000708362,-1.60693e-05,-0.00258536,0.00224621,-0.00297064,-0.851946,0.00302162,0.00804825,1539,456,3.89647,10.0253
322,568,3.896,-9.84958,-0.000894419,-0.000240459,-0.00248325,0.00193724,-0.00307212,-0.850859,0.00291679,0.00972325,1546,456,3.89595,9.84958
329,568,3.90222,-9.70624,-0.000954105,-0.00040951,-0.00229108,0.00162539,-0.00298901,-0.844546,0.00270263,0.0106966,1553,456,3.9022,9.70625
336,568,3.91052,-9.53873,-0.000934168,-0.000332811,-0.00196975,0.00135908,-0.00262606,-0.861137,0.00233926,0.0113399,1560,456,3.91055,9.53873
343,568,3.9436,-9.34155,-0.000992738,-0.000307133,-0.00164767,0.00103301,-0.00233289,-0.887962,0.00199102,0.0108485,1567,456,3.94355,9.34154
350,568,3.94629,-9.16882,-0.000924013,-0.000215702,-0.0012465,0.000725982,-0.0018657,-0.92381,0.00154378,0.00957857,1574,456,3.94625,9.16881
357,568,3.93713,-8.97345,-0.000763395,-6.77572e-05,-0.000823049,0.00047795,-0.0013091,-0.985315,0.0010683,0.00892794,1581,456,3.93712,8.97344
364,568,3.95459,-8.78488,-0.000624792,0.000180668,-0.000413437,0.000355105,-0.000799229,-1.17154,0.000682699,0.0111176,1588,456,3.95453,8.78487
371,568,3.9646,-8.58438,-0.000499102,0.00042575,-2.24656e-05,0.000426295,-0.000499647,-1.54652,0.000535152,0.0199015,1595,456,3.96456,8.58437
378,568,3.93701,-8.39807,-0.000386596,0.000709857,0.000321886,0.000797368,-0.000474107,1.30534,0.000741953,0.0177496,1602,456,3.93705,8.39808
385,568,3.91736,-8.20032,-0.000336284,0.000869788,0.000504696,0.00105312,-0.000519613,1.22237,0.000925267,0.00897697,1609,456,3.9174,8.20032
392,568,3.89478,-7.99545,-0.000268282,0.000828839,0.000574472,0.00107459,-0.000514037,1.16656,0.000936036,0.0100138,1616,456,3.89475,7.99546
399,568,3.88489,-7.82632,-0.000138485,0.000629973,0.000647661,0.000998802,-0.000507315,1.05312,0.000884856,0.0163804,1623,456,3.88491,7.82634
406,568,3.89966,-7.5899,-3.61833e-05,0.00047194,0.000668274,0.000932817,-0.000497061,0.967048,0.000838221,0.0152284,1630,456,3.8997,7.58989
413,568,3.9032,-7.36539,-0.0004328,0.000753785,0.000244634,0.000802241,-0.000481257,1.37525,0.000748712,0.0121847,1637,456,3.9032,7.3654
420,568,3.91138,-7.14206,-0.000982356,0.000494284,-0.000446755,0.000618928,-0.001107,-1.29872,0.00100966,0.0107378,1644,456,3.91136,7.14205
427,568,3.9032,-6.92639,-0.00158859,0.000329178,-0.00102428,0.000773365,-0.00203278,-1.16162,0.00167363,0.0126796,1651,456,3.90324,6.92638
434,568,3.88721,-6.74521,-0.00231498,0.000146435,-0.00186586,0.00115092,-0.00331947,-1.07694,0.00268029,0.0160063,1658,456,3.88719,6.74521
441,568,3.86548,-6.6026,-0.00332109,2.62769e-05,-0.00295031,0.00174458,-0.0050394,-1.04341,0.0040678,0.0233445,1665,456,3.86544,6.60261
448,568,3.98303,-6.41455,-0.00476962,-3.54865e-05,-0.00425127,0.00246328,-0.00726839,-1.03942,0.00584242,0.0403393,1672,456,3.98305,6.41454
455,568,3.93884,-5.91711,0,0,0,0,0,0,0,-1,1679,456,3.9388,5.9171
462,568,3.75537,-5.32562,-0.00840041,0.000610121,-0.00700757,0.00443573,-0.012226,-1.07109,0.00996399,0.0484545,1686,456,3.75533,5.32563
469,568,3.31165,-5.64261,-0.0104294,0.00104975,-0.00847602,0.00554667,-0.0149263,-1.08301,0.0122266,0.0409636,1693,456,3.31163,5.64262
476,568,3.19287,-5.17447,-0.0124633,0.00130044,-0.00998436,0.0065449,-0.0177077,-1.08714,0.0144882,0.0479088,1700,456,3.19287,5.17448
483,568,2.89368,-4.60556,0,0,0,0,0,0,0,-1,1707,456,2.89363,4.60556
490,568,2.37109,-4.57193,0,0,0,0,0,0,0,-1,1714,456,2.37115,4.57194
497,568,6.58289,-3.47745,0,0,0,0,0,0,0,-1,1721,456,6.58294,3.47744
504,568,0,0,0,0,0,0,0,0,0,-1,1728,456,0,0
511,568,0,0,0,0,0,0,0,0,0,-1,1735,456,0,0
518,568,0,0,0,0,0,0,0,0,0,-1,1742,456,0,0
525,568,0,0,0,0,0,0,0,0,0,-1,1749,456,0,0
532,568,0,0,0,0,0,0,0,0,0,-1,1756,456,0,0
539,568,0,0,0,0,0,0,0,0,0,-1,1763,456,0,0
546,568,0,0,0,0,0,0,0,0,0,-1,1770,456,0,0
553,568,0,0,0,0,0,0,0,0,0,-1,1777,456,0,0
560,568,0,0,0,0,0,0,0,0,0,-1,1784,456,0,0
567,568,0,0,0,0,0,0,0,0,0,-1,1791,456,0,0
574,568,0,0,0,0,0,0,0,0,0,-1,1798,456,0,0
581,568,0,0,0,0,0,0,0,0,0,-1,1805,456,0,0
588,568,0,0,0,0,0,0,0,0,0,-1,1812,456,0,0
595,568,0,0,0,0,0,0,0,0,0,-1,1819,456,0,0
602,568,0,0,0,0,0,0,0,0,0,-1,1826,456,0,0
609,568,0,0,0,0,0,0,0,0,0,-1,1833,456,0,0
616,568,0,0,0,0,0,0,0,0,0,-1,1840,456,0,0
623,568,0,0,0,0,0,0,0,0,0,-1,1847,456,0,0
630,568,0,0,0,0,0,0,0,0,0,-1,1854,456,0,0
637,568,0,0,0,0,0,0,0,0,0,-1,1861,456,0,0
644,568,0,0,0,0,0,0,0,0,0,-1,1868,456,0,0
651,568,0,0,0,0,0,0,0,0,0,-1,1875,456,0,0
658,568,0,0,0,0,0,0,0,0,0,-1,1882,456,0,0
665,568,0,0,0,0,0,0,0,0,0,-1,1889,456,0,0
672,568,0,0,0,0,0,0,0,0,0,-1,1896,456,0,0
679,568,0,0,0,0,0,0,0,0,0,-1,1903,456,0,0
686,568,0,0,0,0,0,0,0,0,0,-1,1910,456,0,0
693,568,0,0,0,0,0,0,0,0,0,-1,1917,456,0,0
700,568,0,0,0,0,0,0,0,0,0,-1,1924,456,0,0
707,568,0,0,0,0,0,0,0,0,0,-1,1931,456,0,0
714,568,0,0,0,0,0,0,0,0,0,-1,1938,456,0,0
721,568,0,0,0,0,0,0,0,0,0,-1,1945,456,0,0
728,568,0,0,0,0,0,0,0,0,0,-1,1952,456,0,0
735,568,0,0,0,0,0,0,0,0,0,-1,1959,456,0,0
742,568,0,0,0,0,0,0,0,0,0,-1,1966,456,0,0
749,568,0,0,0,0,0,0,0,0,0,-1,1973,456,0,0
756,568,0,0,0,0,0,0,0,0,0,-1,1980,456,0,0
763,568,0,0,0,0,0,0,0,0,0,-1,1987,456,0,0
770,568,0,0,0,0,0,0,0,0,0,-1,1994,456,0,0
777,568,0,0,0,0,0,0,0,0,0,-1,2001,456,0,0
784,568,0,0,0,0,0,0,0,0,0,-1,2008,456,0,0
791,568,0,0,0,0,0,0,0,0,0,-1,2015,456,0,0
798,568,0,0,0,0,0,0,0,0,0,-1,2022,456,0,0
805,568,0,0,0,0,0,0,0,0,0,-1,2029,456,0,0
812,568,0,0,0,0,0,0,0,0,0,-1,2036,456,0,0
-700,561,0,0,0,0,0,0,0,0,0,-1,524,463,0,0
-693,561,0,0,0,0,0,0,0,0,0,-1,531,463,0,0
-686,561,0,0,0,0,0,0,0,0,0,-1,538,463,0,0
-679,561,0,0,0,0,0,0,0,0,0,-1,545,463,0,0
-672,561,0,0,0,0,0,0,0,0,0,-1,552,463,0,0
-665,561,0,0,0,0,0,0,0,0,0,-1,559,463,0,0
-658,561,0,0,0,0,0,0,0,0,0,-1,566,463,0,0
-651,561,0,0,0,0,0,0,0,0,0,-1,573,463,0,0
-644,561,0,0,0,0,0,0,0,0,0,-1,580,463,0,0
-637,561,0,0,0,0,0,0,0,0,0,-1,587,463,0,0
-630,561,0,0,0,0,0,0,0,0,0,-1,594,463,0,0
-623,561,0,0,0,0,0,0,0,0,0,-1,601,463,0,0
-616,561,0,0,0,0,0,0,0,0,0,-1,608,463,0,0
-609,561,0,0,0,0,0,0,0,0,0,-1,615,463,0,0
-602,561,0,0,0,0,0,0,0,0,0,-1,622,463,0,0
-595,561,0,0,0,0,0,0,0,0,0,-1,629,463,0,0
-588,561,0,0,0,0,0,0,0,0,0,-1,636,463,0,0
-581,561,0,0,0,0,0,0,0,0,0,-1,643,463,0,0
-574,561,0,0,0,0,0,0,0,0,0,-1,650,463,0,0
-567,561,0,0,0,0,0,0,0,0,0,-1,657,463,0,0
-560,561,0,0,0,0,0,0,0,0,0,-1,664,463,0,0
-553,561,0,0,0,0,0,0,0,0,0,-1,671,463,0,0
-546,561,0,0,0,0,0,0,0,0,0,-1,678,463,0,0
-539,561,0,0,0,0,0,0,0,0,0,-1,685,463,0,0
-532,561,0,0,0,0,0,0,0,0,0,-1,692,463,0,0
-525,561,0,0,0,0,0,0,0,0,0,-1,699,463,0,0
-518,561,0,0,0,0,0,0,0,0,0,-1,706,463,0,0
-511,561,0,0,0,0,0,0,0,0,0,-1,713,463,0,0
-504,561,0,0,0,0,0,0,0,0,0,-1,720,463,0,0
-497,561,0,0,0,0,0,0,0,0,0,-1,727,463,0,0
-490,561,0,0,0,0,0,0,0,0,0,-1,734,463,0,0
-483,561,0,0,0,0,0,0,0,0,0,-1,741,463,0,0
-476,561,0,0,0,0,0,0,0,0,0,-1,748,463,0,0
-469,561,0,0,0,0,0,0,0,0,0,-1,755,463,0,0
-462,561,0,0,0,0,0,0,0,0,0,-1,762,463,0,0
-455,561,0,0,0,0,0,0,0,0,0,-1,769,463,0,0
-448,561,0,0,0,0,0,0,0,0,0,-1,776,463,0,0
-441,561,0,0,0,0,0,0,0,0,0,-1,783,463,0,0
-434,561,0,0,0,0,0,0,0,0,0,-1,790,463,0,0
-427,561,0,0,0,0,0,0,0,0,0,-1,797,463,0,0
-420,561,0,0,0,0,0,0,0,0,0,-1,804,463,0,0
-413,561,0,0,0,0,0,0,0,0,0,-1,811,463,0,0
-406,561,0,0,0,0,0,0,0,0,0,-1,818,463,0,0
-399,561,0,0,0,0,0,0,0,0,0,-1,825,463,0,0
-392,561,-0.498413,-4.28265,0,0,0,0,0,0,0,-1,832,463,-0.49843,4.28265
-385,561,-0.50647,-4.17508,0,0,0,0,0,0,0,-1,839,463,-0.506441,4.17507
-378,561,-0.194885,-3.97186,0,0,0,0,0,0,0,-1,846,463,-0.194871,3.97187
-371,561,0.185974,-4.26169,0,0,0,0,0,0,0,-1,853,463,0.185967,4.2617
-364,561,0.57135,-4.56784,0,0,0,0,0,0,0,-1,860,463,0.571359,4.56785
-357,561,1.24811,-6.42285,0,0,0,0,0,0,0,-1,867,463,1.24812,6.42284
-350,561,0.878784,-6.34097,0,0,0,0,0,0,0,-1,874,463,0.878771,6.34098
-343,561,1.64081,-7.02332,0,0,0,0,0,0,0,-1,881,463,1.64082,7.0233
-336,561,1.49744,-7.20471,-0.00576271,-0.0116671,0.000168901,-0.00575789,-0.0116719,0.028575,0.00673898,0.0463269,888,463,1.49746,7.20471
-329,561,1.34308,-7.41705,-0.00474339,-0.0118148,0.00116616,-0.00455604,-0.0120021,0.159294,0.00699608,0.0361565,895,463,1.34307,7.41706
-322,561,1.349,-7.54044,-0.00373097,-0.0114428,0.00169592,-0.00337449,-0.0117992,0.20718,0.0070172,0.0281945,902,463,1.34903,7.54045
-315,561,1.40308,-7.69052,-0.00292103,-0.0108368,0.00199044,-0.00244871,-0.0113091,0.232984,0.00687022,0.0189011,909,463,1.40306,7.69051
-308,561,1.37415,-7.91525,-0.00226129,-0.0100338,0.0021081,-0.00172634,-0.0105687,0.248515,0.00654668,0.0146241,916,463,1.37413,7.91525
-301,561,1.35645,-8.15854,-0.00171921,-0.00900077,0.00207521,-0.00116931,-0.00955067,0.259031,0.00601535,0.0120988,923,463,1.35644,8.15855
-294,561,1.32697,-8.33566,-0.00132627,-0.0077831,0.00197291,-0.000771164,-0.00833821,0.274273,0.00532041,0.0109997,930,463,1.32699,8.33566
-287,561,1.31287,-8.53345,-0.000981358,-0.00648462,0.00171644,-0.000489895,-0.00697608,0.278865,0.00449633,0.00944191,937,463,1.31287,8.53345
-280,561,1.30725,-8.73434,-0.000441445,-0.00531599,0.00146312,-3.60033e-05,-0.00572144,0.270324,0.00380235,0.0111925,944,463,1.30726,8.73434
-273,561,1.28961,-8.90875,-0.000343255,-0.00415837,0.00128073,4.68073e-05,-0.00454843,0.295636,0.00304801,0.0141972,951,463,1.28959,8.90874
-266,561,1.28314,-9.08356,-0.000530474,-0.00320262,0.00094862,-0.000227959,-0.00350513,0.308705,0.0022646,0.00951841,958,463,1.28311,9.08357
-259,561,1.27441,-9.27478,-0.000318162,-0.00244665,0.000715851,-9.98076e-05,-0.002665,0.296063,0.00174435,0.00975123,965,463,1.27444,9.27478
-252,561,1.26239,-9.45776,-0.000235884,-0.00194714,0.000673454,-2.64158e-06,-0.00218039,0.333408,0.00145271,0.0134317,972,463,1.26241,9.45777
-245,561,1.27545,-9.63895,-0.000231508,-0.00159748,0.000716062,7.50588e-05,-0.00190405,0.404518,0.00129511,0.0158803,979,463,1.27544,9.63896
-238,561,1.30487,-9.80435,-0.000246605,-0.00147313,0.000844698,0.000183975,-0.00190371,0.471412,0.0013347,0.0125439,986,463,1.30488,9.80434
-231,561,1.28619,-9.96027,-0.000371134,-0.0016861,0.00106666,0.000224397,-0.00228163,0.509204,0.00160114,0.010997,993,463,1.28621,9.96028
-224,561,1.29492,-10.1371,-0.000525536,-0.00216154,0.00149831,0.000363521,-0.0030506,0.535533,0.0021651,0.0115653,1000,463,1.29492,10.1371
-217,561,1.3208,-10.287,-0.000456529,-0.00254428,0.00187524,0.000645803,-0.00364661,0.531427,0.00267248,0.0108578,1007,463,1.32082,10.287
-210,561,1.32147,-10.4396,-0.000167392,-0.00280472,0.00184234,0.000779574,-0.00375169,0.474787,0.00279743,0.0109613,1014,463,1.32144,10.4396
-203,561,1.3316,-10.6059,0.000159861,-0.00282723,0.00150248,0.000784833,-0.0034522,0.39419,0.00260282,0.0128064,1021,463,1.3316,10.6059
-196,561,1.34412,-10.7427,0.000596736,-0.00265183,0.000918143,0.000838272,-0.00289336,0.257242,0.00226075,0.0132432,1028,463,1.34413,10.7427
-189,561,1.35449,-10.8676,0.00123786,-0.0021774,-0.000247678,0.00125573,-0.00219527,-0.0720188,0.0020169,0.015331,1035,463,1.35455,10.8677
-182,561,1.37122,-11.0379,0.00214655,-0.00151376,-0.00155368,0.0027171,-0.00208431,-0.351938,0.00278011,0.0180281,1042,463,1.37127,11.0379
-175,561,1.35791,-11.1924,0.00315341,-0.000824883,-0.00333053,0.00504358,-0.00271505,-0.516202,0.0045462,0.0260672,1049,463,1.35797,11.1924
-168,561,1.54675,-11.2821,0.00405416,-0.000631397,-0.00525395,0.007464,-0.00404123,-0.575675,0.00673982,0.036221,1056,463,1.54679,11.2821
-161,561,1.96448,-11.4887,0.00500837,-0.000435245,-0.00754819,0.0103105,-0.00573737,-0.612359,0.0093898,0.0417175,1063,463,1.96452,11.4887
-154,561,2.11914,-11.7143,0.00584376,0.000168645,-0.00997789,0.0133797,-0.00736732,-0.646863,0.0121448,0.0448579,1070,463,2.11912,11.7143
-147,561,2.05847,-11.6891,0.00688617,0.000975228,-0.0123484,0.0166279,-0.00876648,-0.667938,0.0148938,0.0465084,1077,463,2.05842,11.6891
-140,561,2.12756,-11.8414,0.00789207,0.00128719,-0.0139631,0.0189379,-0.00975868,-0.669276,0.0168482,0.0491126,1084,463,2.12752,11.8414
-133,561,2.26306,-11.9904,0,0,0,0,0,0,0,-1,1091,463,2.26312,11.9904
-126,561,0.973145,-10.6206,0,0,0,0,0,0,0,-1,1098,463,0.973129,10.6206
-119,561,1.21167,-11.0993,0,0,0,0,0,0,0,-1,1105,463,1.21169,11.0993
-112,561,1.4502,-11.578,0,0,0,0,0,0,0,-1,1112,463,1.45025,11.578
-105,561,1.13269,-10.9895,0,0,0,0,0,0,0,-1,1119,463,1.1327,10.9895
-98,561,1.5387,-7.54352,0,0,0,0,0,0,0,-1,1126,463,1.53871,7.54351
-91,561,1.29553,-6.57968,0,0,0,0,0,0,0,-1,1133,463,1.29549,6.5797
-84,561,1.23364,-5.84555,0,0,0,0,0,0,0,-1,1140,463,1.23363,5.84556
-77,561,-2.36023,1.00204,0,0,0,0,0,0,0,-1,1147,463,-2.3602,-1.00205
-70,561,-3.90015,-1.41541,0,0,0,0,0,0,0,-1,1154,463,-3.90009,1.4154
-63,561,-6.95691,-4.02756,0,0,0,0,0,0,0,-1,1161,463,-6.95696,4.02756
-56,561,-5.37988,-6.66855,0,0,0,0,0,0,0,-1,1168,463,-5.37988,6.66854
-49,561,-5.7439,-9.11029,0,0,0,0,0,0,0,-1,1175,463,-5.74387,9.1103
-42,561,-1.72644,-5.63065,0,0,0,0,0,0,0,-1,1182,463,-1.72648,5.63064
-35,561,-1.65674,-4.87994,0,0,0,0,0,0,0,-1,1189,463,-1.6567,4.87993
-28,561,-1.91418,-3.86896,0,0,0,0,0,0,0,-1,1196,463,-1.91414,3.86895
-21,561,1.34204,-12.6583,0,0,0,0,0,0,0,-1,1203,463,1.34198,12.6583
-14,561,0.447754,-14.8073,0,0,0,0,0,0,0,-1,1210,463,0.447789,14.8073
-7,561,1.28247,-15.325,0,0,0,0,0,0,0,-1,1217,463,1.2825,15.325
0,561,3.72327,-14.213,0,0,0,0,0,0,0,-1,1224,463,3.72326,14.213
7,561,3.26379,-13.7146,-0.01207,-0.00329971,0.0324866,0.0250964,-0.0404661,0.852484,0.0381977,0.0456542,1231,463,3.26377,13.7146
14,561,2.90063,-13.1127,-0.0156283,-0.00336616,0.0286135,0.0197658,-0.0387602,0.890938,0.0343781,0.0406127,1238,463,2.90063,13.1127
21,561,2.63074,-12.5614,-0.019094,-0.00135006,0.0253368,0.0166231,-0.0370672,0.953808,0.0317384,0.0414211,1245,463,2.63076,12.5614
28,561,1.70093,-13.0914,-0.0205187,0.00174536,0.0226488,0.01585,-0.0346234,1.01381,0.0298052,0.0438957,1252,463,1.70088,13.0914
35,561,1.6521,-12.0632,-0.0230022,0.00532811,0.0200404,0.0157041,-0.0333782,1.09305,0.0289436,0.0409122,1259,463,1.65205,12.0632
42,561,1.87476,-10.7998,-0.0268847,0.00929797,0.017847,0.0166194,-0.0342062,1.1815,0.029924,0.0431731,1266,463,1.8747,10.7998
49,561,4.00586,-13.3817,-0.031074,0.0152585,0.0178732,0.0213519,-0.0371674,1.24223,0.0341949,0.0447184,1273,463,4.00591,13.3817
56,561,3.06348,-13.5733,-0.0328408,0.0205184,0.019002,0.0265936,-0.0389161,1.26135,0.0380444,0.0437409,1280,463,3.06344,13.5733
63,561,2.15955,-13.2655,-0.0355878,0.0257365,0.0207171,0.0320793,-0.0419306,1.2737,0.0428556,0.0430118,1287,463,2.15953,13.2655
70,561,0.990967,-12.8741,-0.0375812,0.0314375,0.0231215,0.0384673,-0.044611,1.27564,0.048009,0.0438962,1294,463,0.990965,12.874
77,561,0.463745,-13.2444,-0.0378993,0.0362272,0.0272431,0.0451625,-0.0468347,1.25387,0.0531175,0.0456635,1301,463,0.463722,13.2444
84,561,-0.274902,-13.7222,-0.0361135,0.0388111,0.0319411,0.0505794,-0.0478818,1.21779,0.0568537,0.0439424,1308,463,-0.274932,13.7222
91,561,-0.968506,-13.9163,0,0,0,0,0,0,0,-1,1315,463,-0.96856,13.9163
98,561,-1.61902,-14.1588,0,0,0,0,0,0,0,-1,1322,463,-1.619,14.1588
105,561,2.78149,-12.7776,0,0,0,0,0,0,0,-1,1329,463,2.78154,12.7776
112,561,4.01306,-13.1242,0,0,0,0,0,0,0,-1,1336,463,4.01306,13.1242
119,561,5.33093,-13.4018,0,0,0,0,0,0,0,-1,1343,463,5.33096,13.4018
126,561,6.72986,-13.7234,0,0,0,0,0,0,0,-1,1350,463,6.72982,13.7234
133,561,0.936035,-12.6191,0,0,0,0,0,0,0,-1,1357,463,0.936058,12.6191
140,561,0.662109,-13.2686,0,0,0,0,0,0,0,-1,1364,463,0.66208,13.2686
147,561,-1.36267,-13.7138,0,0,0,0,0,0,0,-1,1371,463,-1.36267,13.7138
154,561,-1.54333,-15.2064,-0.0514692,-0.1821,-0.100945,0.00344829,-0.237017,-0.498252,0.159173,0.0453288,1378,463,-1.5433,15.2064
161,561,-1.6925,-16.7049,-0.0530171,-0.187093,-0.103384,0.00316165,-0.243272,-0.49776,0.163246,0.0498418,1385,463,-1.69252,16.7049
168,561,-1.68591,-18.2095,0,0,0,0,0,0,0,-1,1392,463,-1.68589,18.2095
175,561,10.4185,0.276398,0,0,0,0,0,0,0,-1,1399,463,10.4185,-0.276394
182,561,6.45703,-4.02127,0,0,0,0,0,0,0,-1,1406,463,6.45704,4.02127
189,561,6.50854,-2.08685,0,0,0,0,0,0,0,-1,1413,463,6.50851,2.08686
196,561,6.44775,-0.27182,0,0,0,0,0,0,0,-1,1420,463,6.44773,0.271814
203,561,6.18591,1.1301,0,0,0,0,0,0,0,-1,1427,463,6.18592,-1.13009
210,561,5.68713,2.68427,0,0,0,0,0,0,0,-1,1434,463,5.6871,-2.68425
217,561,3.61743,-7.33582,0,0,0,0,0,0,0,-1,1441,463,3.61738,7.33581
224,561,4.27466,-8.59171,0,0,0,0,0,0,0,-1,1448,463,4.27466,8.59171
231,561,4.93188,-9.8476,0,0,0,0,0,0,0,-1,1455,463,4.93193,9.84761
238,561,2.18018,-5.18359,0,0,0,0,0,0,0,-1,1462,463,2.18023,5.18359
245,561,3.07568,-3.50238,0,0,0,0,0,0,0,-1,1469,463,3.0757,3.50238
252,561,3.47412,-3.71109,0,0,0,0,0,0,0,-1,1476,463,3.47413,3.71109
259,561,3.42212,-3.2334,0,0,0,0,0,0,0,-1,1483,463,3.42214,3.2334
266,561,4.44373,-5.90027,0,0,0,0,0,0,0,-1,1490,463,4.44372,5.90026
273,561,2.59485,-3.65268,0,0,0,0,0,0,0,-1,1497,463,2.5948,3.65268
280,561,3.10767,-6.38235,0,0,0,0,0,0,0,-1,1504,463,3.10766,6.38235
287,561,4.09167,-10.6029,0,0,0,0,0,0,0,-1,1511,463,4.09173,10.6029
294,561,4.15088,-10.5205,0,0,0,0,0,0,0,-1,1518,463,4.15084,10.5205
301,561,4.13452,-10.3975,-0.000602091,0.00113076,-0.00344907,0.00382057,-0.0032919,-0.908455,0.00411016,0.0419554,1525,463,4.13458,10.3975
308,561,4.09058,-10.1902,-0.00109248,7.86284e-05,-0.00366426,0.00320383,-0.00421768,-0.864629,0.00429812,0.0320896,1532,463,4.09063,10.1902
315,561,4.09302,-10.0894,-0.00147374,-0.00050659,-0.00381223,0.00285262,-0.00483295,-0.848485,0.00448609,0.0222062,1539,463,4.09305,10.0894
322,561,4.11011,-9.92087,-0.00166491,-0.000754658,-0.00366465,0.00248302,-0.00490259,-0.847179,0.00433969,0.0225606,1546,463,4.11011,9.92088
329,561,4.07739,-9.69589,-0.00167888,-0.000943626,-0.00341206,0.00212056,-0.00474307,-0.839063,0.00405799,0.015078,1553,463,4.07745,9.69589
336,561,4.09399,-9.50983,-0.00159261,-0.000861763,-0.00302301,0.00181782,-0.0042722,-0.845547,0.00361,0.0109921,1560,463,4.09403,9.50983
343,561,4.11584,-9.33627,-0.00162791,-0.000902562,-0.00265961,0.00141899,-0.00394946,-0.853162,0.0032122,0.00976434,1567,463,4.11586,9.33628
350,561,4.11609,-9.15674,-0.00151976,-0.000983577,-0.00225291,0.00101714,-0.00352048,-0.844619,0.00274948,0.00902867,1574,463,4.11609,9.15673
357,561,4.11011,-8.96216,-0.00128928,-0.000969746,-0.00181872,0.00069621,-0.00295524,-0.829209,0.00223861,0.00954226,1581,463,4.11006,8.96216
364,561,4.12451,-8.80066,-0.00107082,-0.000782564,-0.00136915,0.00045002,-0.0023034,-0.837839,0.00170552,0.00958758,1588,463,4.12449,8.80066
371,561,4.1283,-8.59903,-0.000863568,-0.000601253,-0.000932294,0.000209064,-0.00167389,-0.855281,0.00119174,0.0163577,1595,463,4.12828,8.59902
378,561,4.11926,-8.40332,-0.000644008,-0.000323265,-0.000513367,5.41974e-05,-0.00102147,-0.936791,0.000699746,0.0113221,1602,463,4.11926,8.40333
385,561,4.12085,-8.19052,-0.00050806,-0.000127715,-0.000232999,-1.7131e-05,-0.000618644,-1.12767,0.000406839,0.00890696,1609,463,4.12085,8.19052
392,561,4.10754,-7.98752,-0.000389738,-7.26489e-05,-4.84733e-05,-6.54043e-05,-0.000396983,-1.42244,0.000245772,0.0127099,1616,463,4.10748,7.98752
399,561,4.12146,-7.79327,-0.000230901,-0.000131949,0.00011689,-5.44958e-05,-0.000308355,0.9856,0.000190027,0.0203109,1623,463,4.12146,7.79328
406,561,4.12427,-7.565,-9.45007e-05,-0.000135353,0.00024943,0.000135339,-0.000365192,0.744544,0.000298966,0.0187191,1630,463,4.12424,7.56499
413,561,4.10046,-7.34235,-0.000327317,0.0002482,6.76577e-05,0.000256047,-0.000335163,1.45533,0.000342353,0.0165578,1637,463,4.10044,7.34236
420,561,4.09961,-7.14374,-0.000675084,0.000183843,-0.000320103,0.000290015,-0.000781256,-1.25054,0.000639807,0.0133103,1644,463,4.09957,7.14374
427,561,4.10388,-6.91986,-0.00107623,0.000203518,-0.000645597,0.000472617,-0.00134533,-1.17587,0.00108916,0.0103618,1651,463,4.1039,6.91987
434,561,4.10376,-6.7023,-0.00157245,0.00018121,-0.00116281,0.000760732,-0.00215197,-1.10845,0.00174442,0.0112357,1658,463,4.10377,6.7023
441,561,4.09387,-6.50235,-0.00226836,0.000173392,-0.00185334,0.00117184,-0.00326681,-1.07665,0.0026561,0.0146425,1665,463,4.09384,6.50236
448,561,4.073,-6.29343,-0.00325126,0.000221659,-0.00267131,0.00167129,-0.00470089,-1.0736,0.00381507,0.0197071,1672,463,4.07297,6.29342
455,561,4.10059,-5.99728,-0.0044671,0.00029484,-0.0036395,0.00226301,-0.00643526,-1.07506,0.00521097,0.0370883,1679,463,4.10053,5.99729
462,561,4.04285,-5.69275,-0.00567292,0.000498398,-0.00462696,0.00297421,-0.00814874,-1.07948,0.00664944,0.0344497,1686,463,4.0428,5.69276
469,561,4.01306,-5.51465,-0.00690254,0.000637499,-0.00568192,0.00368637,-0.00995141,-1.07831,0.00814601,0.0229468,1693,463,4.01303,5.51466
476,561,3.77271,-5.02145,-0.00808341,0.000586062,-0.0067879,0.00430524,-0.0118026,-1.06956,0.00962979,0.0414544,1700,463,3.77269,5.02144
483,561,3.46899,-4.44144,0,0,0,0,0,0,0,-1,1707,463,3.46893,4.44144
490,561,6.13135,-2.58374,0,0,0,0,0,0,0,-1,1714,463,6.13139,2.58373
497,561,7.30652,-2.46649,0,0,0,0,0,0,0,-1,1721,463,7.30649,2.4665
504,561,6.45044,-2.35263,0,0,0,0,0,0,0,-1,1728,463,6.4504,2.35263
511,561,0,0,0,0,0,0,0,0,0,-1,1735,463,0,0
518,561,0,0,0,0,0,0,0,0,0,-1,1742,463,0,0
525,561,0,0,0,0,0,0,0,0,0,-1,1749,463,0,0
532,561,0,0,0,0,0,0,0,0,0,-1,1756,463,0,0
539,561,0,0,0,0,0,0,0,0,0,-1,1763,463,0,0
546,561,0,0,0,0,0,0,0,0,0,-1,1770,463,0,0
553,561,0,0,0,0,0,0,0,0,0,-1,1777,463,0,0
560,561,0,0,0,0,0,0,0,0,0,-1,1784,463,0,0
567,561,0,0,0,0,0,0,0,0,0,-1,1791,463,0,0
574,561,0,0,0,0,0,0,0,0,0,-1,1798,463,0,0
581,561,0,0,0,0,0,0,0,0,0,-1,1805,463,0,0
588,561,0,0,0,0,0,0,0,0,0,-1,1812,463,0,0
595,561,0,0,0,0,0,0,0,0,0,-1,1819,463,0,0
602,561,0,0,0,0,0,0,0,0,0,-1,1826,463,0,0
609,561,0,0,0,0,0,0,0,0,0,-1,1833,463,0,0
616,561,0,0,0,0,0,0,0,0,0,-1,1840,463,0,0
623,561,0,0,0,0,0,0,0,0,0,-1,1847,463,0,0
630,561,0,0,0,0,0,0,0,0,0,-1,1854,463,0,0
637,561,0,0,0,0,0,0,0,0,0,-1,1861,463,0,0
644,561,0,0,0,0,0,0,0,0,0,-1,1868,463,0,0
651,561,0,0,0,0,0,0,0,0,0,-1,1875,463,0,0
658,561,0,0,0,0,0,0,0,0,0,-1,1882,463,0,0
665,561,0,0,0,0,0,0,0,0,0,-1,1889,463,0,0
672,561,0,0,0,0,0,0,0,0,0,-1,1896,463,0,0
679,561,0,0,0,0,0,0,0,0,0,-1,1903,463,0,0
686,561,0,0,0,0,0,0,0,0,0,-1,1910,463,0,0
693,561,0,0,0,0,0,0,0,0,0,-1,1917,463,0,0
700,561,0,0,0,0,0,0,0,0,0,-1,1924,463,0,0
707,561,0,0,0,0,0,0,0,0,0,-1,1931,463,0,0
714,561,0,0,0,0,0,0,0,0,0,-1,1938,463,0,0
721,561,0,0,0,0,0,0,0,0,0,-1,1945,463,0,0
728,561,0,0,0,0,0,0,0,0,0,-1,1952,463,0,0
735,561,0,0,0,0,0,0,0,0,0,-1,1959,463,0,0
742,561,0,0,0,0,0,0,0,0,0,-1,1966,463,0,0
749,561,0,0,0,0,0,0,0,0,0,-1,1973,463,0,0
756,561,0,0,0,0,0,0,0,0,0,-1,1980,463,0,0
763,561,0,0,0,0,0,0,0,0,0,-1,1987,463,0,0
770,561,0,0,0,0,0,0,0,0,0,-1,1994,463,0,0
777,561,0,0,0,0,0,0,0,0,0,-1,2001,463,0,0
784,561,0,0,0,0,0,0,0,0,0,-1,2008,463,0,0
791,561,0,0,0,0,0,0,0,0,0,-1,2015,463,0,0
798,561,0,0,0,0,0,0,0,0,0,-1,2022,463,0,0
805,561,0,0,0,0,0,0,0,0,0,-1,2029,463,0,0
812,561,0,0,0,0,0,0,0,0,0,-1,2036,463,0,0
-700,554,0,0,0,0,0,0,0,0,0,-1,524,470,0,0
-693,554,0,0,0,0,0,0,0,0,0,-1,531,470,0,0
-686,554,0,0,0,0,0,0,0,0,0,-1,538,470,0,0
-679,554,0,0,0,0,0,0,0,0,0,-1,545,470,0,0
-672,554,0,0,0,0,0,0,0,0,0,-1,552,470,0,0
-665,554,0,0,0,0,0,0,0,0,0,-1,559,470,0,0
-658,554,0,0,0,0,0,0,0,0,0,-1,566,470,0,0
-651,554,0,0,0,0,0,0,0,0,0,-1,573,470,0,0
-644,554,0,0,0,0,0,0,0,0,0,-1,580,470,0,0
-637,554,0,0,0,0,0,0,0,0,0,-1,587,470,0,0
-630,554,0,0,0,0,0,0,0,0,0,-1,594,470,0,0
-623,554,0,0,0,0,0,0,0,0,0,-1,601,470,0,0
-616,554,0,0,0,0,0,0,0,0,0,-1,608,470,0,0
-609,554,0,0,0,0,0,0,0,0,0,-1,615,470,0,0
-602,554,0,0,0,0,0,0,0,0,0,-1,622,470,0,0
-595,554,0,0,0,0,0,0,0,0,0,-1,629,470,0,0
-588,554,0,0,0,0,0,0,0,0,0,-1,636,470,0,0
-581,554,0,0,0,0,0,0,0,0,0,-1,643,470,0,0
-574,554,0,0,0,0,0,0,0,0,0,-1,650,470,0,0
-567,554,0,0,0,0,0,0,0,0,0,-1,657,470,0,0
-560,554,0,0,0,0,0,0,0,0,0,-1,664,470,0,0
-553,554,0,0,0,0,0,0,0,0,0,-1,671,470,0,0
-546,554,0,0,0,0,0,0,0,0,0,-1,678,470,0,0
-539,554,0,0,0,0,0,0,0,0,0,-1,685,470,0,0
-532,554,0,0,0,0,0,0,0,0,0,-1,692,470,0,0
-525,554,0,0,0,0,0,0,0,0,0,-1,699,470,0,0
-518,554,0,0,0,0,0,0,0,0,0,-1,706,470,0,0
-511,554,0,0,0,0,0,0,0,0,0,-1,713,470,0,0
-504,554,0,0,0,0,0,0,0,0,0,-1,720,470,0,0
-497,554,0,0,0,0,0,0,0,0,0,-1,727,470,0,0
-490,554,0,0,0,0,0,0,0,0,0,-1,734,470,0,0
-483,554,0,0,0,0,0,0,0,0,0,-1,741,470,0,0
-476,554,0,0,0,0,0,0,0,0,0,-1,748,470,0,0
-469,554,0,0,0,0,0,0,0,0,0,-1,755,470,0,0
-462,554,0,0,0,0,0,0,0,0,0,-1,762,470,0,0
-455,554,0,0,0,0,0,0,0,0,0,-1,769,470,0,0
-448,554,0,0,0,0,0,0,0,0,0,-1,776,470,0,0
-441,554,0,0,0,0,0,0,0,0,0,-1,783,470,0,0
-434,554,0,0,0,0,0,0,0,0,0,-1,790,470,0,0
-427,554,0,0,0,0,0,0,0,0,0,-1,797,470,0,0
-420,554,0,0,0,0,0,0,0,0,0,-1,804,470,0,0
-413,554,0,0,0,0,0,0,0,0,0,-1,811,470,0,0
-406,554,0,0,0,0,0,0,0,0,0,-1,818,470,0,0
-399,554,1.22241,-4.88776,0,0,0,0,0,0,0,-1,825,470,1.2224,4.88775
-392,554,-0.667969,-3.71759,0,0,0,0,0,0,0,-1,832,470,-0.667998,3.71759
-385,554,-0.377991,-4.06265,0,0,0,0,0,0,0,-1,839,470,-0.37801,4.06266
-378,554,-0.0618286,-4.44217,0,0,0,0,0,0,0,-1,846,470,-0.0618537,4.44217
-371,554,0.0684204,-4.48541,0,0,0,0,0,0,0,-1,853,470,0.0684178,4.4854
-364,554,0.372986,-4.60822,0,0,0,0,0,0,0,-1,860,470,0.372991,4.60821
-357,554,1.17639,-6.1933,0,0,0,0,0,0,0,-1,867,470,1.17639,6.19329
-350,554,1.46796,-7.02594,0,0,0,0,0,0,0,-1,874,470,1.46798,7.02594
-343,554,1.41742,-7.0459,-0.00463277,-0.00639537,-0.00185682,-0.00345872,-0.00756942,-0.563825,0.0043756,0.043517,881,470,1.41739,7.0459
-336,554,1.31317,-7.15283,-0.00418003,-0.00769851,-0.000144251,-0.00417412,-0.00770442,-0.0409064,0.00445332,0.0323444,888,470,1.31315,7.15282
-329,554,1.18152,-7.36206,-0.00358144,-0.00795062,0.000675172,-0.00347948,-0.00805258,0.149874,0.00466343,0.0170154,895,470,1.18154,7.36206
-322,554,1.15906,-7.5437,-0.00286962,-0.0077317,0.00107275,-0.00264345,-0.00795787,0.207786,0.00467995,0.0105703,902,470,1.15906,7.5437
-315,554,1.16089,-7.74728,-0.0022403,-0.00731608,0.00127903,-0.00193622,-0.00762016,0.23341,0.00457343,0.0102345,909,470,1.16089,7.74727
-308,554,1.15503,-7.95721,-0.00167198,-0.00682187,0.00136181,-0.00133404,-0.0071598,0.243238,0.00439651,0.0127084,916,470,1.15501,7.95721
-301,554,1.16241,-8.15869,-0.00118056,-0.0061371,0.00132508,-0.00084855,-0.00646911,0.245502,0.00405956,0.0140118,923,470,1.16241,8.15869
-294,554,1.13525,-8.34991,-0.000790616,-0.00539229,0.00122485,-0.000484902,-0.00569801,0.244595,0.0036478,0.0123389,930,470,1.13527,8.34991
-287,554,1.10999,-8.55569,-0.000441349,-0.0046225,0.00101412,-0.000208362,-0.00485549,0.225824,0.00316982,0.0112994,937,470,1.10996,8.55571
-280,554,1.10767,-8.74179,1.51176e-05,-0.00397534,0.000847678,0.000187721,-0.00414795,0.200873,0.00282995,0.0104108,944,470,1.10767,8.7418
-273,554,1.1048,-8.90808,0.000119522,-0.00331333,0.000730339,0.000268441,-0.00346225,0.201147,0.00240265,0.0141987,951,470,1.10478,8.90809
-266,554,1.11212,-9.09601,-8.86722e-06,-0.00278532,0.000511987,8.25358e-05,-0.00287673,0.176665,0.00194591,0.0121235,958,470,1.11213,9.09601
-259,554,1.09412,-9.25238,0.000137824,-0.00244623,0.000420575,0.000204553,-0.00251296,0.157349,0.00174748,0.011612,965,470,1.09409,9.25238
-252,554,1.09979,-9.41656,0.000125206,-0.00234755,0.00053205,0.000234825,-0.00245717,0.203188,0.00172173,0.0138823,972,470,1.09982,9.41656
-245,554,1.10126,-9.61133,-3.54606e-05,-0.0024068,0.0007582,0.000186236,-0.00262849,0.284469,0.00181759,0.0155276,979,470,1.10124,9.61133
-238,554,1.11633,-9.79971,-0.000200343,-0.00255631,0.00106969,0.00021286,-0.00296951,0.368627,0.00205431,0.011082,986,470,1.11632,9.79971
-231,554,1.11536,-9.95938,-0.000493854,-0.00293619,0.00151766,0.000232934,-0.00366298,0.446616,0.00252321,0.00960524,993,470,1.11533,9.95938
-224,554,1.12799,-10.1204,-0.000844747,-0.00345218,0.00213587,0.00035386,-0.00465079,0.511386,0.00322496,0.00992056,1000,470,1.12801,10.1204
-217,554,1.15088,-10.27,-0.000930354,-0.00386141,0.00269105,0.000668352,-0.00546011,0.536057,0.00388208,0.00975617,1007,470,1.1509,10.27
-210,554,1.18408,-10.4406,-0.000735672,-0.00412686,0.00276947,0.000816044,-0.00567858,0.510711,0.004085,0.012318,1014,470,1.1841,10.4406
-203,554,1.20825,-10.6215,-0.000489135,-0.0040958,0.00245678,0.000755119,-0.00534005,0.4688,0.00383659,0.0202734,1021,470,1.20824,10.6215
-196,554,1.1803,-10.7286,-4.50627e-05,-0.00383007,0.0018101,0.000681215,-0.00455635,0.381573,0.00328824,0.0274959,1028,470,1.18025,10.7286
-189,554,1.15454,-10.8828,0.000703018,-0.00321157,0.00037094,0.000737857,-0.00324641,0.0936476,0.00244758,0.0338657,1035,470,1.15454,10.8828
-182,554,1.20337,-11.0005,0.0018461,-0.00229655,-0.00127545,0.0022073,-0.00265774,-0.275965,0.00281284,0.0415254,1042,470,1.20343,11.0004
-175,554,1.14844,-11.0791,0.00321821,-0.0012209,-0.00360808,0.00523477,-0.00323746,-0.509651,0.00493654,0.0469382,1049,470,1.14843,11.0791
-168,554,1.24072,-11.0589,0,0,0,0,0,0,0,-1,1056,470,1.2407,11.0589
-161,554,2.31628,-11.5586,0,0,0,0,0,0,0,-1,1063,470,2.31624,11.5586
-154,554,2.50122,-11.7712,0,0,0,0,0,0,0,-1,1070,470,2.50127,11.7713
-147,554,2.2323,-11.8846,0,0,0,0,0,0,0,-1,1077,470,2.23228,11.8846
-140,554,2.44226,-12.0002,0,0,0,0,0,0,0,-1,1084,470,2.44228,12.0002
-133,554,1.05115,-10.659,0,0,0,0,0,0,0,-1,1091,470,1.05113,10.659
-126,554,-0.195923,-8.76236,0,0,0,0,0,0,0,-1,1098,470,-0.195888,8.76235
-119,554,1.1134,-10.4966,0,0,0,0,0,0,0,-1,1105,470,1.11336,10.4966
-112,554,0.944214,-10.2726,0,0,0,0,0,0,0,-1,1112,470,0.944204,10.2726
-105,554,2.82129,-9.46112,0,0,0,0,0,0,0,-1,1119,470,2.82127,9.46112
-98,554,1.51929,-7.3624,0,0,0,0,0,0,0,-1,1126,470,1.51928,7.36241
-91,554,1.41089,-6.5864,0,0,0,0,0,0,0,-1,1133,470,1.41093,6.58638
-84,554,1.62305,-5.87186,0,0,0,0,0,0,0,-1,1140,470,1.62299,5.87186
-77,554,-2.56958,1.33258,0,0,0,0,0,0,0,-1,1147,470,-2.56959,-1.33257
-70,554,-3.68164,-1.18332,0,0,0,0,0,0,0,-1,1154,470,-3.68158,1.18331
-63,554,-4.86853,-3.88708,0,0,0,0,0,0,0,-1,1161,470,-4.86853,3.88708
-56,554,-5.69958,-6.45422,0,0,0,0,0,0,0,-1,1168,470,-5.69955,6.45422
-49,554,-6.23645,-8.8569,0,0,0,0,0,0,0,-1,1175,470,-6.23643,8.85689
-42,554,-6.62524,-11.5382,0,0,0,0,0,0,0,-1,1182,470,-6.62522,11.5382
-35,554,-2.40173,-4.59482,0,0,0,0,0,0,0,-1,1189,470,-2.40169,4.59481
-28,554,-0.760132,-1.65555,0,0,0,0,0,0,0,-1,1196,470,-0.760095,1.65556
-21,554,6.67249,-10.1976,0,0,0,0,0,0,0,-1,1203,470,6.67249,10.1976
-14,554,2.07117,-12.9682,0,0,0,0,0,0,0,-1,1210,470,2.07117,12.9682
-7,554,2.72766,-12.8956,0,0,0,0,0,0,0,-1,1217,470,2.72765,12.8956
0,554,3.69495,-14.7091,0,0,0,0,0,0,0,-1,1224,470,3.69498,14.7091
7,554,3.36365,-13.6589,-0.0184791,-0.00896208,0.0405206,0.0270785,-0.0545197,0.843848,0.0479905,0.0483311,1231,470,3.36368,13.6589
14,554,2.97046,-12.6841,-0.022871,-0.00825797,0.0358093,0.0209826,-0.0521116,0.886037,0.0434579,0.0453928,1238,470,2.97041,12.6841
21,554,2.69751,-11.8634,-0.0278331,-0.00485463,0.0319926,0.0176492,-0.0503369,0.957787,0.040736,0.0409203,1245,470,2.69757,11.8634
28,554,1.75488,-13.3877,0,0,0,0,0,0,0,-1,1252,470,1.75486,13.3877
35,554,1.72937,-12.2127,0,0,0,0,0,0,0,-1,1259,470,1.72942,12.2127
42,554,2.27563,-10.5953,0,0,0,0,0,0,0,-1,1266,470,2.27561,10.5953
49,554,3.47375,-13.4318,0,0,0,0,0,0,0,-1,1273,470,3.47381,13.4318
56,554,2.9751,-13.9362,-0.0499589,0.024014,0.0252582,0.0318157,-0.0577606,1.27122,0.052435,0.0445247,1280,470,2.97507,13.9362
63,554,1.86804,-13.3858,-0.0547142,0.0300044,0.0275472,0.0381739,-0.0628837,1.2825,0.0589241,0.0421843,1287,470,1.86804,13.3858
70,554,0.44812,-13.1526,-0.058669,0.0365458,0.0310618,0.0457829,-0.0679061,1.28175,0.0660513,0.0420689,1294,470,0.448095,13.1526
77,554,-0.0848389,-13.4568,0,0,0,0,0,0,0,-1,1301,470,-0.0848347,13.4568
84,554,-0.949829,-13.141,0,0,0,0,0,0,0,-1,1308,470,-0.949771,13.141
91,554,-1.68384,-13.3807,0,0,0,0,0,0,0,-1,1315,470,-1.68387,13.3807
98,554,-2.06213,-13.7137,0,0,0,0,0,0,0,-1,1322,470,-2.06215,13.7137
105,554,-2.7301,-13.943,0,0,0,0,0,0,0,-1,1329,470,-2.73013,13.943
112,554,2.56396,-9.93524,0,0,0,0,0,0,0,-1,1336,470,2.56399,9.93525
119,554,5.3667,-13.2709,0,0,0,0,0,0,0,-1,1343,470,5.36664,13.2709
126,554,1.60559,-11.4137,0,0,0,0,0,0,0,-1,1350,470,1.60557,11.4137
133,554,0.704346,-11.8094,0,0,0,0,0,0,0,-1,1357,470,0.704355,11.8094
140,554,-0.578003,-11.0034,0,0,0,0,0,0,0,-1,1364,470,-0.577996,11.0034
147,554,-1.19629,-12.3835,0,0,0,0,0,0,0,-1,1371,470,-1.19632,12.3835
154,554,-1.51355,-13.9289,-0.0511003,-0.207502,-0.115706,0.0103534,-0.268955,-0.48823,0.182852,0.0475936,1378,470,-1.51355,13.9289
161,554,-1.74866,-15.3942,-0.0533056,-0.214027,-0.118093,0.00917542,-0.276508,-0.486643,0.187472,0.0470726,1385,470,-1.74866,15.3942
168,554,-1.89685,-16.8844,0,0,0,0,0,0,0,-1,1392,470,-1.89688,16.8844
175,554,10.663,0.286957,0,0,0,0,0,0,0,-1,1399,470,10.663,-0.286966
182,554,6.71106,-4.50217,0,0,0,0,0,0,0,-1,1406,470,6.71107,4.50215
189,554,6.90479,-2.50348,0,0,0,0,0,0,0,-1,1413,470,6.90477,2.50348
196,554,6.96216,-0.740906,0,0,0,0,0,0,0,-1,1420,470,6.96214,0.740912
203,554,6.43518,0.414154,0,0,0,0,0,0,0,-1,1427,470,6.43523,-0.414141
210,554,6.21167,1.96707,0,0,0,0,0,0,0,-1,1434,470,6.21165,-1.96706
217,554,5.64551,3.4989,0,0,0,0,0,0,0,-1,1441,470,5.64555,-3.49891
224,554,4.85144,-8.85172,0,0,0,0,0,0,0,-1,1448,470,4.85146,8.85173
231,554,3.25073,-5.29642,0,0,0,0,0,0,0,-1,1455,470,3.25078,5.29642
238,554,4.28625,-3.25253,0,0,0,0,0,0,0,-1,1462,470,4.28622,3.25252
245,554,4.0752,-2.90033,0,0,0,0,0,0,0,-1,1469,470,4.07515,2.90032
252,554,3.52112,-0.934998,0,0,0,0,0,0,0,-1,1476,470,3.52113,0.934996
259,554,3.96448,-2.16425,0,0,0,0,0,0,0,-1,1483,470,3.96446,2.16424
266,554,3.0592,-2.71716,0,0,0,0,0,0,0,-1,1490,470,3.05923,2.71718
273,554,2.58521,-3.06876,0,0,0,0,0,0,0,-1,1497,470,2.58524,3.06874
280,554,2.83301,-0.991699,0,0,0,0,0,0,0,-1,1504,470,2.83303,0.991704
287,554,3.54126,-4.12277,0,0,0,0,0,0,0,-1,1511,470,3.54123,4.12277
294,554,3.62036,-8.50146,0,0,0,0,0,0,0,-1,1518,470,3.62031,8.50145
301,554,4.33496,-10.3218,0,0,0,0,0,0,0,-1,1525,470,4.33497,10.3218
308,554,4.31042,-10.2744,0,0,0,0,0,0,0,-1,1532,470,4.31042,10.2744
315,554,4.30542,-10.206,0,0,0,0,0,0,0,-1,1539,470,4.30545,10.206
322,554,4.48999,-9.7728,-0.00290025,-0.00152096,-0.00525861,0.00309303,-0.00751425,-0.850599,0.00629895,0.0465237,1546,470,4.48997,9.77278
329,554,4.30823,-9.63489,-0.00279001,-0.00169265,-0.00486694,0.00265644,-0.0071391,-0.841529,0.00584952,0.0259329,1553,470,4.30825,9.63488
336,554,4.26245,-9.49182,-0.00256607,-0.00157585,-0.00434418,0.00230134,-0.00644326,-0.842139,0.00523407,0.0114668,1560,470,4.26246,9.49182
343,554,4.27832,-9.34705,-0.00254022,-0.00169204,-0.00390062,0.00180748,-0.00603974,-0.839547,0.00474516,0.00934869,1567,470,4.27837,9.34706
350,554,4.29346,-9.15485,-0.00234936,-0.00193792,-0.00344079,0.00130329,-0.00559057,-0.815257,0.00422896,0.00935095,1574,470,4.29352,9.15485
357,554,4.30872,-8.96542,-0.00200762,-0.00202694,-0.00295103,0.000933765,-0.00496833,-0.783761,0.00366336,0.0111272,1581,470,4.30865,8.96544
364,554,4.30444,-8.7995,-0.0016795,-0.00187095,-0.002424,0.000650666,-0.00420111,-0.765663,0.00304092,0.00918524,1588,470,4.30442,8.79949
371,554,4.30762,-8.60928,-0.00137055,-0.00170861,-0.00190432,0.000372235,-0.00345139,-0.741134,0.00243451,0.00861508,1595,470,4.30768,8.60927
378,554,4.31262,-8.38635,-0.00102909,-0.00140869,-0.001387,0.000181044,-0.00261882,-0.717399,0.00180925,0.010167,1602,470,4.31264,8.38635
385,554,4.32141,-8.1825,-0.000799116,-0.00115862,-0.00100028,3.74382e-05,-0.00199517,-0.696497,0.00134277,0.00915525,1609,470,4.32142,8.18249
392,554,4.31873,-7.99744,-0.000623928,-0.00100148,-0.000703798,-8.40291e-05,-0.00154138,-0.654369,0.00100075,0.0123463,1616,470,4.31871,7.99743
399,554,4.32935,-7.78403,-0.000429262,-0.000939319,-0.000469559,-0.000149945,-0.00121864,-0.536624,0.000767341,0.0185457,1623,470,4.32938,7.78403
406,554,4.31445,-7.55701,-0.000252652,-0.000825663,-0.000263655,-0.0001498,-0.000928515,-0.371944,0.000575611,0.0169812,1630,470,4.31448,7.55702
413,554,4.30176,-7.34662,-0.000326883,-0.000376245,-0.000255188,-9.51848e-05,-0.000607943,-0.73719,0.000377588,0.0152204,1637,470,4.3018,7.34661
420,554,4.30127,-7.16052,-0.000497768,-0.000281715,-0.00040898,3.32652e-05,-0.000812748,-0.914518,0.000553254,0.0162641,1644,470,4.30122,7.16053
427,554,4.30872,-6.92795,-0.000735317,-0.000118125,-0.00055017,0.000204087,-0.00105753,-1.04099,0.000781977,0.0118396,1651,470,4.30871,6.92794
434,554,4.29651,-6.70947,-0.00105423,-1.23761e-05,-0.000832705,0.000448919,-0.00151553,-1.06491,0.0011886,0.010319,1658,470,4.29653,6.70949
441,554,4.29114,-6.48929,-0.00151503,6.70704e-05,-0.00123798,0.00074515,-0.00219311,-1.0697,0.00176373,0.0112237,1665,470,4.29109,6.48928
448,554,4.28406,-6.25424,-0.00215157,0.000191332,-0.00170821,0.00109118,-0.00305142,-1.08596,0.00247938,0.0133622,1672,470,4.28405,6.25425
455,554,4.28345,-6.02167,-0.0029321,0.00028601,-0.00230171,0.00148532,-0.00413141,-1.09045,0.00336064,0.0146927,1679,470,4.28347,6.02166
462,554,4.26758,-5.79254,-0.00363403,0.000374801,-0.00293948,0.00192822,-0.00518745,-1.08463,0.00424946,0.0176014,1686,470,4.26752,5.79254
469,554,4.25928,-5.5376,-0.00430453,0.000263496,-0.00366144,0.00229491,-0.00633594,-1.06427,0.00516188,0.0230776,1693,470,4.25925,5.53759
476,554,4.37,-5.03891,-0.00497744,6.00514e-07,-0.00444476,0.0026058,-0.00758264,-1.04064,0.00611176,0.0469523,1700,470,4.36998,5.03892
483,554,4.43994,-4.53149,0,0,0,0,0,0,0,-1,1707,470,4.43991,4.53148
490,554,7.31543,-3.51794,0,0,0,0,0,0,0,-1,1714,470,7.3154,3.51794
497,554,7.9751,-2.43454,0,0,0,0,0,0,0,-1,1721,470,7.97505,2.43453
504,554,2.13257,-3.81628,0,0,0,0,0,0,0,-1,1728,470,2.1326,3.8163
511,554,1.31396,-4.02713,0,0,0,0,0,0,0,-1,1735,470,1.31398,4.02712
518,554,-1.15686,-2.436,0,0,0,0,0,0,0,-1,1742,470,-1.15691,2.43599
525,554,0,0,0,0,0,0,0,0,0,-1,1749,470,0,0
532,554,0,0,0,0,0,0,0,0,0,-1,1756,470,0,0
539,554,0,0,0,0,0,0,0,0,0,-1,1763,470,0,0
546,554,0,0,0,0,0,0,0,0,0,-1,1770,470,0,0
553,554,0,0,0,0,0,0,0,0,0,-1,1777,470,0,0
560,554,0,0,0,0,0,0,0,0,0,-1,1784,470,0,0
567,554,0,0,0,0,0,0,0,0,0,-1,1791,470,0,0
574,554,0,0,0,0,0,0,0,0,0,-1,1798,470,0,0
581,554,0,0,0,0,0,0,0,0,0,-1,1805,470,0,0
588,554,0,0,0,0,0,0,0,0,0,-1,1812,470,0,0
595,554,0,0,0,0,0,0,0,0,0,-1,1819,470,0,0
602,554,0,0,0,0,0,0,0,0,0,-1,1826,470,0,0
609,554,0,0,0,0,0,0,0,0,0,-1,1833,470,0,0
616,554,0,0,0,0,0,0,0,0,0,-1,1840,470,0,0
623,554,0,0,0,0,0,0,0,0,0,-1,1847,470,0,0
630,554,0,0,0,0,0,0,0,0,0,-1,1854,470,0,0
637,554,0,0,0,0,0,0,0,0,0,-1,1861,470,0,0
644,554,0,0,0,0,0,0,0,0,0,-1,1868,470,0,0
651,554,0,0,0,0,0,0,0,0,0,-1,1875,470,0,0
658,554,0,0,0,0,0,0,0,0,0,-1,1882,470,0,0
665,554,0,0,0,0,0,0,0,0,0,-1,1889,470,0,0
672,554,0,0,0,0,0,0,0,0,0,-1,1896,470,0,0
679,554,0,0,0,0,0,0,0,0,0,-1,1903,470,0,0
686,554,0,0,0,0,0,0,0,0,0,-1,1910,470,0,0
693,554,0,0,0,0,0,0,0,0,0,-1,1917,470,0,0
700,554,0,0,0,0,0,0,0,0,0,-1,1924,470,0,0
707,554,0,0,0,0,0,0,0,0,0,-1,1931,470,0,0
714,554,0,0,0,0,0,0,0,0,0,-1,1938,470,0,0
721,554,0,0,0,0,0,0,0,0,0,-1,1945,470,0,0
728,554,0,0,0,0,0,0,0,0,0,-1,1952,470,0,0
735,554,0,0,0,0,0,0,0,0,0,-1,1959,470,0,0
742,554,0,0,0,0,0,0,0,0,0,-1,1966,470,0,0
749,554,0,0,0,0,0,0,0,0,0,-1,1973,470,0,0
756,554,0,0,0,0,0,0,0,0,0,-1,1980,470,0,0
763,554,0,0,0,0,0,0,0,0,0,-1,1987,470,0,0
770,554,0,0,0,0,0,0,0,0,0,-1,1994,470,0,0
777,554,0,0,0,0,0,0,0,0,0,-1,2001,470,0,0
784,554,0,0,0,0,0,0,0,0,0,-1,2008,470,0,0
791,554,0,0,0,0,0,0,0,0,0,-1,2015,470,0,0
798,554,0,0,0,0,0,0,0,0,0,-1,2022,470,0,0
805,554,0,0,0,0,0,0,0,0,0,-1,2029,470,0,0
812,554,0,0,0,0,0,0,0,0,0,-1,2036,470,0,0
-700,547,0,0,0,0,0,0,0,0,0,-1,524,477,0,0
-693,547,0,0,0,0,0,0,0,0,0,-1,531,477,0,0
-686,547,0,0,0,0,0,0,0,0,0,-1,538,477,0,0
-679,547,0,0,0,0,0,0,0,0,0,-1,545,477,0,0
-672,547,0,0,0,0,0,0,0,0,0,-1,552,477,0,0
-665,547,0,0,0,0,0,0,0,0,0,-1,559,477,0,0
-658,547,0,0,0,0,0,0,0,0,0,-1,566,477,0,0
-651,547,0,0,0,0,0,0,0,0,0,-1,573,477,0,0
-644,547,0,0,0,0,0,0,0,0,0,-1,580,477,0,0
-637,547,0,0,0,0,0,0,0,0,0,-1,587,477,0,0
-630,547,0,0,0,0,0,0,0,0,0,-1,594,477,0,0
-623,547,0,0,0,0,0,0,0,0,0,-1,601,477,0,0
-616,547,0,0,0,0,0,0,0,0,0,-1,608,477,0,0
-609,547,0,0,0,0,0,0,0,0,0,-1,615,477,0,0
-602,547,0,0,0,0,0,0,0,0,0,-1,622,477,0,0
-595,547,0,0,0,0,0,0,0,0,0,-1,629,477,0,0
-588,547,0,0,0,0,0,0,0,0,0,-1,636,477,0,0
-581,547,0,0,0,0,0,0,0,0,0,-1,643,477,0,0
-574,547,0,0,0,0,0,0,0,0,0,-1,650,477,0,0
-567,547,0,0,0,0,0,0,0,0,0,-1,657,477,0,0
-560,547,0,0,0,0,0,0,0,0,0,-1,664,477,0,0
-553,547,0,0,0,0,0,0,0,0,0,-1,671,477,0,0
-546,547,0,0,0,0,0,0,0,0,0,-1,678,477,0,0
-539,547,0,0,0,0,0,0,0,0,0,-1,685,477,0,0
-532,547,0,0,0,0,0,0,0,0,0,-1,692,477,0,0
-525,547,0,0,0,0,0,0,0,0,0,-1,699,477,0,0
-518,547,0,0,0,0,0,0,0,0,0,-1,706,477,0,0
-511,547,0,0,0,0,0,0,0,0,0,-1,713,477,0,0
-504,547,0,0,0,0,0,0,0,0,0,-1,720,477,0,0
-497,547,0,0,0,0,0,0,0,0,0,-1,727,477,0,0
-490,547,0,0,0,0,0,0,0,0,0,-1,734,477,0,0
-483,547,0,0,0,0,0,0,0,0,0,-1,741,477,0,0
-476,547,0,0,0,0,0,0,0,0,0,-1,748,477,0,0
-469,547,0,0,0,0,0,0,0,0,0,-1,755,477,0,0
-462,547,0,0,0,0,0,0,0,0,0,-1,762,477,0,0
-455,547,0,0,0,0,0,0,0,0,0,-1,769,477,0,0
-448,547,0,0,0,0,0,0,0,0,0,-1,776,477,0,0
-441,547,0,0,0,0,0,0,0,0,0,-1,783,477,0,0
-434,547,0,0,0,0,0,0,0,0,0,-1,790,477,0,0
-427,547,0,0,0,0,0,0,0,0,0,-1,797,477,0,0
-420,547,0,0,0,0,0,0,0,0,0,-1,804,477,0,0
-413,547,0,0,0,0,0,0,0,0,0,-1,811,477,0,0
-406,547,-1.9129,-4.21432,0,0,0,0,0,0,0,-1,818,477,-1.91292,4.21433
-399,547,-3.53412,0.451965,0,0,0,0,0,0,0,-1,825,477,-3.53412,-0.451962
-392,547,-3.37329,1.82104,0,0,0,0,0,0,0,-1,832,477,-3.37327,-1.82105
-385,547,-0.308533,-4.51331,0,0,0,0,0,0,0,-1,839,477,-0.308519,4.51331
-378,547,-0.200256,-5.3024,0,0,0,0,0,0,0,-1,846,477,-0.200245,5.3024
-371,547,-0.116943,-4.61679,0,0,0,0,0,0,0,-1,853,477,-0.116958,4.61679
-364,547,0.271729,-4.58582,0,0,0,0,0,0,0,-1,860,477,0.271753,4.5858
-357,547,1.13318,-6.4292,0,0,0,0,0,0,0,-1,867,477,1.1332,6.4292
-350,547,1.12976,-6.63019,0,0,0,0,0,0,0,-1,874,477,1.12974,6.63018
-343,547,1.06897,-6.89175,-0.00305012,-0.00361893,-0.00182341,-0.00148907,-0.00517998,-0.708034,0.00307941,0.0363226,881,477,1.06898,6.89175
-336,547,1.00977,-7.1431,-0.00296418,-0.00489186,-0.000353535,-0.00290139,-0.00495466,-0.17578,0.00287451,0.015008,888,477,1.00977,7.14309
-329,547,0.975525,-7.33588,-0.00265589,-0.00521881,0.000339633,-0.00261165,-0.00526306,0.129539,0.00303866,0.00863139,895,477,0.975499,7.33588
-322,547,0.962402,-7.54456,-0.00217353,-0.00509398,0.00064249,-0.00203843,-0.00522908,0.20725,0.00304334,0.0104555,902,477,0.962393,7.54457
-315,547,0.95343,-7.7648,-0.00169293,-0.00478495,0.000786557,-0.00150435,-0.00497353,0.235318,0.00294522,0.010741,909,477,0.953449,7.76479
-308,547,0.964966,-7.96118,-0.00120514,-0.00449918,0.000850092,-0.000998693,-0.00470562,0.238238,0.00286285,0.0118827,916,477,0.964977,7.96117
-301,547,0.961731,-8.15387,-0.000762057,-0.00405759,0.000813134,-0.000572346,-0.0042473,0.229208,0.00266134,0.0113246,923,477,0.96176,8.15388
-294,547,0.930786,-8.34589,-0.00039489,-0.00361795,0.000724698,-0.00023944,-0.0037734,0.2113,0.00243971,0.0101627,930,477,0.930785,8.3459
-287,547,0.916016,-8.5394,-7.77024e-05,-0.0032213,0.000554337,1.71845e-05,-0.00331619,0.169529,0.00221654,0.0115626,937,477,0.916033,8.53938
-280,547,0.91864,-8.72974,0.000253973,-0.0029833,0.000456282,0.000317055,-0.00304638,0.137381,0.00214443,0.0126694,944,477,0.918621,8.72975
-273,547,0.924255,-8.9191,0.000345842,-0.00271112,0.000378762,0.000392072,-0.00275735,0.121455,0.0019819,0.0122468,951,477,0.924255,8.91911
-266,547,0.922241,-9.10947,0.000269689,-0.00251348,0.00025855,0.000293504,-0.00253729,0.0918506,0.00179737,0.0118901,958,477,0.922252,9.10946
-259,547,0.913879,-9.27805,0.000342418,-0.00251914,0.000289487,0.00037141,-0.00254813,0.0998166,0.00183513,0.0108515,965,477,0.913869,9.27804
-252,547,0.937622,-9.4465,0.000221707,-0.0027839,0.000551207,0.000319606,-0.0028818,0.175775,0.00203611,0.0108839,972,477,0.937625,9.44649
-245,547,0.952698,-9.61853,-0.000103575,-0.00324128,0.000948298,0.000160757,-0.00350561,0.271844,0.00239246,0.0117871,979,477,0.952716,9.61852
-238,547,0.958984,-9.79959,-0.000411278,-0.00369101,0.00143233,0.000126178,-0.00422847,0.358974,0.00286197,0.00839936,986,477,0.958964,9.7996
-231,547,0.96521,-9.96497,-0.00088623,-0.00425587,0.00212117,0.000137822,-0.00527992,0.449774,0.00356678,0.00798578,993,477,0.965216,9.96496
-224,547,0.964783,-10.1092,-0.0014571,-0.00484856,0.00296315,0.00026122,-0.00656689,0.525507,0.00446754,0.0103074,1000,477,0.964805,10.1092
-217,547,0.990173,-10.282,-0.00172209,-0.00531333,0.00375849,0.000647684,-0.00768311,0.562553,0.00535105,0.014069,1007,477,0.990192,10.282
-210,547,1.01807,-10.4291,-0.00164446,-0.00562578,0.00401361,0.000845034,-0.00811528,0.555186,0.00571273,0.0235309,1014,477,1.01807,10.4291
-203,547,1.05273,-10.3969,-0.00156079,-0.00560492,0.00379463,0.000716904,-0.00788261,0.540598,0.00550961,0.0366166,1021,477,1.05272,10.3969
-196,547,0.781006,-10.5209,-0.00116158,-0.00527476,0.00312452,0.000522446,-0.00695878,0.494336,0.00482278,0.0452537,1028,477,0.78105,10.5209
-189,547,0.460205,-10.7067,0,0,0,0,0,0,0,-1,1035,477,0.460243,10.7067
-182,547,1.06128,-11.0244,0,0,0,0,0,0,0,-1,1042,477,1.0613,11.0244
-175,547,0.901611,-11.0877,0,0,0,0,0,0,0,-1,1049,477,0.901592,11.0877
-168,547,1.12463,-8.66785,0,0,0,0,0,0,0,-1,1056,477,1.12461,8.66786
-161,547,-0.866577,-10.5763,0,0,0,0,0,0,0,-1,1063,477,-0.866574,10.5763
-154,547,1.34363,-11.1508,0,0,0,0,0,0,0,-1,1070,477,1.34368,11.1507
-147,547,2.24561,-12.1978,0,0,0,0,0,0,0,-1,1077,477,2.24557,12.1978
-140,547,0.928467,-10.8473,0,0,0,0,0,0,0,-1,1084,477,0.928422,10.8473
-133,547,3.49597,-11.0495,0,0,0,0,0,0,0,-1,1091,477,3.49598,11.0495
-126,547,0.784302,-9.76431,0,0,0,0,0,0,0,-1,1098,477,0.78428,9.76432
-119,547,-0.531006,-10.0229,0,0,0,0,0,0,0,-1,1105,477,-0.530984,10.0229
-112,547,4.36194,-9.23029,0,0,0,0,0,0,0,-1,1112,477,4.36195,9.23029
-105,547,4.448,-9.17819,0,0,0,0,0,0,0,-1,1119,477,4.44799,9.1782
-98,547,1.50391,-7.20621,0,0,0,0,0,0,0,-1,1126,477,1.50395,7.20621
-91,547,1.37805,-7.12024,0,0,0,0,0,0,0,-1,1133,477,1.37804,7.12025
-84,547,1.94202,-6.66241,0,0,0,0,0,0,0,-1,1140,477,1.94201,6.66241
-77,547,-2.28357,1.8588,0,0,0,0,0,0,0,-1,1147,477,-2.28356,-1.85879
-70,547,-3.70178,-0.874908,0,0,0,0,0,0,0,-1,1154,477,-3.70182,0.874918
-63,547,-5.12012,-3.60861,0,0,0,0,0,0,0,-1,1161,477,-5.12009,3.60862
-56,547,-6.01917,-6.2399,0,0,0,0,0,0,0,-1,1168,477,-6.01921,6.23991
-49,547,-6.729,-8.60349,0,0,0,0,0,0,0,-1,1175,477,-6.72899,8.60348
-42,547,-2.41736,-5.53012,0,0,0,0,0,0,0,-1,1182,477,-2.41734,5.53011
-35,547,-2.96838,-4.45734,0,0,0,0,0,0,0,-1,1189,477,-2.96839,4.45734
-28,547,-0.869141,-1.29901,0,0,0,0,0,0,0,-1,1196,477,-0.869135,1.29901
-21,547,7.02197,-10.6903,0,0,0,0,0,0,0,-1,1203,477,7.02195,10.6903
-14,547,1.01721,-13.8526,0,0,0,0,0,0,0,-1,1210,477,1.01719,13.8526
-7,547,1.21802,-11.6566,0,0,0,0,0,0,0,-1,1217,477,1.21807,11.6567
0,547,1.34045,-9.83615,0,0,0,0,0,0,0,-1,1224,477,1.34047,9.83614
7,547,3.41016,-13.7345,0,0,0,0,0,0,0,-1,1231,477,3.41015,13.7345
14,547,0,0,0,0,0,0,0,0,0,-1,1238,477,0,0
21,547,0,0,0,0,0,0,0,0,0,-1,1245,477,0,0
28,547,0,0,0,0,0,0,0,0,0,-1,1252,477,0,0
35,547,0,0,0,0,0,0,0,0,0,-1,1259,477,0,0
42,547,0,0,0,0,0,0,0,0,0,-1,1266,477,0,0
49,547,0,0,0,0,0,0,0,0,0,-1,1273,477,0,0
56,547,0,0,0,0,0,0,0,0,0,-1,1280,477,0,0
63,547,0,0,0,0,0,0,0,0,0,-1,1287,477,0,0
70,547,0,0,0,0,0,0,0,0,0,-1,1294,477,0,0
77,547,0,0,0,0,0,0,0,0,0,-1,1301,477,0,0
84,547,0,0,0,0,0,0,0,0,0,-1,1308,477,0,0
91,547,0,0,0,0,0,0,0,0,0,-1,1315,477,0,0
98,547,0,0,0,0,0,0,0,0,0,-1,1322,477,0,0
105,547,2.42505,-9.16116,0,0,0,0,0,0,0,-1,1329,477,2.42504,9.16116
112,547,2.5304,-10.0016,0,0,0,0,0,0,0,-1,1336,477,2.53035,10.0016
119,547,2.57361,-10.8568,0,0,0,0,0,0,0,-1,1343,477,2.57361,10.8568
126,547,1.60437,-10.7929,0,0,0,0,0,0,0,-1,1350,477,1.60434,10.7929
133,547,0.587158,-11.0934,0,0,0,0,0,0,0,-1,1357,477,0.587205,11.0934
140,547,-0.394775,-11.6349,0,0,0,0,0,0,0,-1,1364,477,-0.394748,11.6349
147,547,-1.43884,-10.7718,0,0,0,0,0,0,0,-1,1371,477,-1.43886,10.7718
154,547,-1.45337,-12.6353,0,0,0,0,0,0,0,-1,1378,477,-1.45338,12.6353
161,547,-1.66748,-14.0802,0,0,0,0,0,0,0,-1,1385,477,-1.66754,14.0802
168,547,-6.75854,-16.465,0,0,0,0,0,0,0,-1,1392,477,-6.75852,16.465
175,547,3.35034,-0.26532,0,0,0,0,0,0,0,-1,1399,477,3.3503,0.265306
182,547,4.26038,3.72672,0,0,0,0,0,0,0,-1,1406,477,4.26039,-3.7267
189,547,3.40454,1.28671,0,0,0,0,0,0,0,-1,1413,477,3.40457,-1.28673
196,547,3.53931,1.87793,0,0,0,0,0,0,0,-1,1420,477,3.53928,-1.87794
203,547,6.49414,-0.425842,0,0,0,0,0,0,0,-1,1427,477,6.4941,0.425844
210,547,4.82092,0.53595,0,0,0,0,0,0,0,-1,1434,477,4.82096,-0.535942
217,547,4.68579,0.480072,0,0,0,0,0,0,0,-1,1441,477,4.68577,-0.480069
224,547,4.55615,0.739807,0,0,0,0,0,0,0,-1,1448,477,4.55613,-0.73981
231,547,5.90869,-3.57721,0,0,0,0,0,0,0,-1,1455,477,5.90871,3.57722
238,547,5.50049,-3.15356,0,0,0,0,0,0,0,-1,1462,477,5.50045,3.15356
245,547,5.13708,-2.65213,0,0,0,0,0,0,0,-1,1469,477,5.13708,2.65212
252,547,3.73511,-0.645233,0,0,0,0,0,0,0,-1,1476,477,3.73515,0.645237
259,547,5.86816,-3.20816,0,0,0,0,0,0,0,-1,1483,477,5.86815,3.20816
266,547,5.40222,-2.45731,0,0,0,0,0,0,0,-1,1490,477,5.40221,2.45732
273,547,3.05737,0.495789,0,0,0,0,0,0,0,-1,1497,477,3.05742,-0.49578
280,547,2.0885,1.47797,0,0,0,0,0,0,0,-1,1504,477,2.08848,-1.47795
287,547,2.31177,-2.21716,0,0,0,0,0,0,0,-1,1511,477,2.31174,2.21717
294,547,2.4823,-3.03659,0,0,0,0,0,0,0,-1,1518,477,2.48229,3.0366
301,547,4.72119,-3.93454,0,0,0,0,0,0,0,-1,1525,477,4.72119,3.93453
308,547,4.07471,-5.42175,0,0,0,0,0,0,0,-1,1532,477,4.07468,5.42174
315,547,3.58496,-6.62112,0,0,0,0,0,0,0,-1,1539,477,3.58497,6.62113
322,547,4.51563,-9.82587,0,0,0,0,0,0,0,-1,1546,477,4.51566,9.82587
329,547,4.57971,-9.57626,-0.00445981,-0.00259696,-0.00667915,0.00321539,-0.0102722,-0.854678,0.00813457,0.0492179,1553,477,4.57971,9.57628
336,547,4.55945,-9.49664,-0.00402939,-0.00240878,-0.00596945,0.00280511,-0.00924327,-0.852857,0.00727966,0.0294652,1560,477,4.5595,9.49665
343,547,4.51233,-9.39575,-0.00389894,-0.00264745,-0.00542348,0.00218627,-0.00873266,-0.842832,0.00667103,0.0246685,1567,477,4.51234,9.39576
350,547,4.51318,-9.21069,-0.00357346,-0.00317763,-0.00491433,0.00154276,-0.00829386,-0.805524,0.00610878,0.0202657,1574,477,4.5132,9.2107
357,547,4.49072,-9.00049,-0.0030623,-0.00341549,-0.0043619,0.00112657,-0.00760436,-0.765167,0.00548381,0.0147949,1581,477,4.49069,9.00049
364,547,4.47803,-8.79034,-0.00256631,-0.00327893,-0.00372856,0.000822926,-0.00666816,-0.737762,0.0047436,0.0102213,1588,477,4.478,8.79036
371,547,4.49402,-8.58646,-0.00210433,-0.00311797,-0.00310164,0.000531625,-0.00575393,-0.704411,0.00402488,0.0091637,1595,477,4.49397,8.58646
378,547,4.51489,-8.38837,-0.00159221,-0.00276821,-0.0024637,0.000352684,-0.00471311,-0.668257,0.00326599,0.00998335,1602,477,4.51486,8.38836
385,547,4.5166,-8.19424,-0.0012393,-0.00243091,-0.00195725,0.000210824,-0.00388103,-0.63765,0.00266042,0.0103549,1609,477,4.51664,8.19424
392,547,4.50464,-7.99118,-0.000983008,-0.00212714,-0.00153218,8.04157e-05,-0.00319056,-0.606729,0.00215435,0.0113535,1616,477,4.50459,7.99117
399,547,4.49036,-7.78293,-0.000727823,-0.00190499,-0.00120929,2.8513e-05,-0.00266133,-0.558915,0.0017838,0.0138377,1623,477,4.49032,7.78294
406,547,4.51526,-7.569,-0.000489564,-0.00163094,-0.000909734,1.36665e-05,-0.00213417,-0.505268,0.00142736,0.0135551,1630,477,4.51531,7.56901
413,547,4.5238,-7.35385,-0.000405467,-0.00108315,-0.000712536,4.46924e-05,-0.0015333,-0.563454,0.00103742,0.0128454,1637,477,4.52386,7.35386
420,547,4.51929,-7.17596,-0.000415306,-0.000806377,-0.000644362,6.25348e-05,-0.00128422,-0.638086,0.000877733,0.014602,1644,477,4.51931,7.17595
427,547,4.53223,-6.94006,-0.000517707,-0.000492126,-0.000617582,0.000112798,-0.00112263,-0.795752,0.000788713,0.0140617,1651,477,4.53225,6.94008
434,547,4.50732,-6.71384,-0.00069842,-0.000250866,-0.000696582,0.000257001,-0.00120629,-0.940816,0.000902144,0.0096965,1658,477,4.50733,6.71384
441,547,4.48767,-6.49817,-0.000980202,-8.36094e-05,-0.000867329,0.000444429,-0.00150824,-1.02392,0.00118183,0.0102367,1665,477,4.4877,6.49818
448,547,4.48914,-6.26706,-0.00135443,0.00010539,-0.00106822,0.000669262,-0.0019183,-1.08511,0.00155086,0.0113414,1672,477,4.48913,6.26707
455,547,4.49609,-6.03058,-0.00182231,0.000229007,-0.00137716,0.000920483,-0.00251379,-1.10547,0.00205268,0.0112125,1679,477,4.49605,6.03059
462,547,4.48364,-5.79999,-0.0021784,0.000240726,-0.00175357,0.00116143,-0.0030991,-1.08731,0.0025432,0.0116284,1686,477,4.48367,5.79999
469,547,4.48401,-5.56393,-0.00247574,-4.90324e-05,-0.00222852,0.00127504,-0.00379981,-1.03469,0.00304844,0.0195342,1693,477,4.48397,5.56394
476,547,4.57336,-5.22073,-0.00279677,-0.000459004,-0.00276122,0.00137055,-0.00462633,-0.985622,0.0036284,0.0425518,1700,477,4.5734,5.22075
483,547,4.46301,-5.28189,0,0,0,0,0,0,0,-1,1707,477,4.463,5.28189
490,547,3.65271,-3.71707,0,0,0,0,0,0,0,-1,1714,477,3.65277,3.71708
497,547,2.55481,-3.81421,0,0,0,0,0,0,0,-1,1721,477,2.55476,3.8142
504,547,4.01953,-2.22714,0,0,0,0,0,0,0,-1,1728,477,4.0195,2.22713
511,547,4.82495,-1.45642,0,0,0,0,0,0,0,-1,1735,477,4.82495,1.45641
518,547,4.69446,-3.75436,0,0,0,0,0,0,0,-1,1742,477,4.69445,3.75438
525,547,0.781616,-3.76355,0,0,0,0,0,0,0,-1,1749,477,0.781645,3.76354
532,547,0,0,0,0,0,0,0,0,0,-1,1756,477,0,0
539,547,0,0,0,0,0,0,0,0,0,-1,1763,477,0,0
546,547,0,0,0,0,0,0,0,0,0,-1,1770,477,0,0
553,547,0,0,0,0,0,0,0,0,0,-1,1777,477,0,0
560,547,0,0,0,0,0,0,0,0,0,-1,1784,477,0,0
567,547,0,0,0,0,0,0,0,0,0,-1,1791,477,0,0
574,547,0,0,0,0,0,0,0,0,0,-1,1798,477,0,0
581,547,0,0,0,0,0,0,0,0,0,-1,1805,477,0,0
588,547,0,0,0,0,0,0,0,0,0,-1,1812,477,0,0
595,547,0,0,0,0,0,0,0,0,0,-1,1819,477,0,0
602,547,0,0,0,0,0,0,0,0,0,-1,1826,477,0,0
609,547,0,0,0,0,0,0,0,0,0,-1,1833,477,0,0
616,547,0,0,0,0,0,0,0,0,0,-1,1840,477,0,0
623,547,0,0,0,0,0,0,0,0,0,-1,1847,477,0,0
630,547,0,0,0,0,0,0,0,0,0,-1,1854,477,0,0
637,547,0,0,0,0,0,0,0,0,0,-1,1861,477,0,0
644,547,0,0,0,0,0,0,0,0,0,-1,1868,477,0,0
651,547,0,0,0,0,0,0,0,0,0,-1,1875,477,0,0
658,547,0,0,0,0,0,0,0,0,0,-1,1882,477,0,0
665,547,0,0,0,0,0,0,0,0,0,-1,1889,477,0,0
672,547,0,0,0,0,0,0,0,0,0,-1,1896,477,0,0
679,547,0,0,0,0,0,0,0,0,0,-1,1903,477,0,0
686,547,0,0,0,0,0,0,0,0,0,-1,1910,477,0,0
693,547,0,0,0,0,0,0,0,0,0,-1,1917,477,0,0
700,547,0,0,0,0,0,0,0,0,0,-1,1924,477,0,0
707,547,0,0,0,0,0,0,0,0,0,-1,1931,477,0,0
714,547,0,0,0,0,0,0,0,0,0,-1,1938,477,0,0
721,547,0,0,0,0,0,0,0,0,0,-1,1945,477,0,0
728,547,0,0,0,0,0,0,0,0,0,-1,1952,477,0,0
735,547,0,0,0,0,0,0,0,0,0,-1,1959,477,0,0
742,547,0,0,0,0,0,0,0,0,0,-1,1966,477,0,0
749,547,0,0,0,0,0,0,0,0,0,-1,1973,477,0,0
756,547,0,0,0,0,0,0,0,0,0,-1,1980,477,0,0
763,547,0,0,0,0,0,0,0,0,0,-1,1987,477,0,0
770,547,0,0,0,0,0,0,0,0,0,-1,1994,477,0,0
777,547,0,0,0,0,0,0,0,0,0,-1,2001,477,0,0
784,547,0,0,0,0,0,0,0,0,0,-1,2008,477,0,0
791,547,0,0,0,0,0,0,0,0,0,-1,2015,477,0,0
798,547,0,0,0,0,0,0,0,0,0,-1,2022,477,0,0
805,547,0,0,0,0,0,0,0,0,0,-1,2029,477,0,0
812,547,0,0,0,0,0,0,0,0,0,-1,2036,477,0,0
-700,540,0,0,0,0,0,0,0,0,0,-1,524,484,0,0
-693,540,0,0,0,0,0,0,0,0,0,-1,531,484,0,0
-686,540,0,0,0,0,0,0,0,0,0,-1,538,484,0,0
-679,540,0,0,0,0,0,0,0,0,0,-1,545,484,0,0
-672,540,0,0,0,0,0,0,0,0,0,-1,552,484,0,0
-665,540,0,0,0,0,0,0,0,0,0,-1,559,484,0,0
-658,540,0,0,0,0,0,0,0,0,0,-1,566,484,0,0
-651,540,0,0,0,0,0,0,0,0,0,-1,573,484,0,0
-644,540,0,0,0,0,0,0,0,0,0,-1,580,484,0,0
-637,540,0,0,0,0,0,0,0,0,0,-1,587,484,0,0
-630,540,0,0,0,0,0,0,0,0,0,-1,594,484,0,0
-623,540,0,0,0,0,0,0,0,0,0,-1,601,484,0,0
-616,540,0,0,0,0,0,0,0,0,0,-1,608,484,0,0
-609,540,0,0,0,0,0,0,0,0,0,-1,615,484,0,0
-602,540,0,0,0,0,0,0,0,0,0,-1,622,484,0,0
-595,540,0,0,0,0,0,0,0,0,0,-1,629,484,0,0
-588,540,0,0,0,0,0,0,0,0,0,-1,636,484,0,0
-581,540,0,0,0,0,0,0,0,0,0,-1,643,484,0,0
-574,540,0,0,0,0,0,0,0,0,0,-1,650,484,0,0
-567,540,0,0,0,0,0,0,0,0,0,-1,657,484,0,0
-560,540,0,0,0,0,0,0,0,0,0,-1,664,484,0,0
-553,540,0,0,0,0,0,0,0,0,0,-1,671,484,0,0
-546,540,0,0,0,0,0,0,0,0,0,-1,678,484,0,0
-539,540,0,0,0,0,0,0,0,0,0,-1,685,484,0,0
-532,540,0,0,0,0,0,0,0,0,0,-1,692,484,0,0
-525,540,0,0,0,0,0,0,0,0,0,-1,699,484,0,0
-518,540,0,0,0,0,0,0,0,0,0,-1,706,484,0,0
-511,540,0,0,0,0,0,0,0,0,0,-1,713,484,0,0
-504,540,0,0,0,0,0,0,0,0,0,-1,720,484,0,0
-497,540,0,0,0,0,0,0,0,0,0,-1,727,484,0,0
-490,540,0,0,0,0,0,0,0,0,0,-1,734,484,0,0
-483,540,0,0,0,0,0,0,0,0,0,-1,741,484,0,0
-476,540,0,0,0,0,0,0,0,0,0,-1,748,484,0,0
-469,540,0,0,0,0,0,0,0,0,0,-1,755,484,0,0
-462,540,0,0,0,0,0,0,0,0,0,-1,762,484,0,0
-455,540,0,0,0,0,0,0,0,0,0,-1,769,484,0,0
-448,540,0,0,0,0,0,0,0,0,0,-1,776,484,0,0
-441,540,0,0,0,0,0,0,0,0,0,-1,783,484,0,0
-434,540,0,0,0,0,0,0,0,0,0,-1,790,484,0,0
-427,540,0,0,0,0,0,0,0,0,0,-1,797,484,0,0
-420,540,0.50824,-4.86896,0,0,0,0,0,0,0,-1,804,484,0.508247,4.86897
-413,540,-2.80725,-0.0874329,0,0,0,0,0,0,0,-1,811,484,-2.80723,0.0874207
-406,540,-3.07605,0.0525513,0,0,0,0,0,0,0,-1,818,484,-3.07607,-0.0525456
-399,540,-3.17102,-0.438995,0,0,0,0,0,0,0,-1,825,484,-3.17104,0.439004
-392,540,-3.39374,0.737396,0,0,0,0,0,0,0,-1,832,484,-3.39375,-0.737408
-385,540,-3.64734,2.07758,0,0,0,0,0,0,0,-1,839,484,-3.64734,-2.07757
-378,540,-3.828,-3.2016,0,0,0,0,0,0,0,-1,846,484,-3.82798,3.20159
-371,540,-0.0177002,-4.21246,0,0,0,0,0,0,0,-1,853,484,-0.0176722,4.21247
-364,540,0.857483,-6.12668,0,0,0,0,0,0,0,-1,860,484,0.857458,6.12669
-357,540,0.783936,-6.43896,0,0,0,0,0,0,0,-1,867,484,0.78391,6.43896
-350,540,0.806641,-6.70114,-0.00157903,-0.000305847,-0.00300742,0.00213162,-0.0040165,-0.889696,0.00360479,0.0316892,874,484,0.806653,6.70114
-343,540,0.794861,-6.9071,-0.00178267,-0.00153029,-0.00183989,0.00018773,-0.00350069,-0.819636,0.00239882,0.0136484,881,484,0.794854,6.90709
-336,540,0.766907,-7.15305,-0.00186784,-0.00270268,-0.000610461,-0.00154573,-0.00302479,-0.48552,0.0017465,0.0114511,888,484,0.766899,7.15305
-329,540,0.757751,-7.33801,-0.00169806,-0.00305553,-3.94345e-05,-0.00169692,-0.00305668,-0.0290174,0.00176835,0.00952882,895,484,0.757722,7.33801
-322,540,0.747681,-7.54025,-0.00134708,-0.00299608,0.00017284,-0.00132916,-0.003014,0.103319,0.00174417,0.0137102,902,484,0.747663,7.54025
-315,540,0.730835,-7.76089,-0.000965611,-0.00277154,0.000261142,-0.000928608,-0.00280855,0.140762,0.00165223,0.0126702,909,484,0.730865,7.7609
-308,540,0.751343,-7.94882,-0.000520795,-0.0026223,0.000295346,-0.000480076,-0.00266302,0.137005,0.00163893,0.0117047,916,484,0.751345,7.94883
-301,540,0.73761,-8.12518,-0.000118226,-0.00237133,0.000256641,-8.93625e-05,-0.00240019,0.111994,0.00157119,0.011641,923,484,0.737614,8.12519
-294,540,0.736694,-8.32864,0.000207434,-0.00217478,0.000197356,0.000223674,-0.00219102,0.0820999,0.00154066,0.0113945,930,484,0.736672,8.32865
-287,540,0.753723,-8.53781,0.0004563,-0.00209725,8.91376e-05,0.000459408,-0.00210036,0.0348507,0.00157586,0.00883826,937,484,0.753724,8.5378
-280,540,0.751404,-8.72757,0.00062712,-0.00222895,7.95361e-05,0.000629333,-0.00223116,0.0278193,0.00173568,0.00974543,944,484,0.751429,8.72756
-273,540,0.75769,-8.93024,0.000665466,-0.00232047,6.08815e-05,0.000666706,-0.00232171,0.0203781,0.00181141,0.0115951,951,484,0.757671,8.93024
-266,540,0.754639,-9.12155,0.00060743,-0.00244239,5.88026e-05,0.000608563,-0.00244352,0.0192711,0.00186526,0.0126194,958,484,0.754637,9.12154
-259,540,0.752991,-9.29657,0.000560745,-0.0027875,0.000222739,0.000575497,-0.00280225,0.0661358,0.00208662,0.0117691,965,484,0.752963,9.29658
-252,540,0.765564,-9.45377,0.000270437,-0.0034398,0.000658968,0.000383999,-0.00355336,0.170657,0.00250673,0.0114654,972,484,0.76556,9.45376
-245,540,0.782288,-9.62775,-0.000235926,-0.00430162,0.00121661,0.00010032,-0.00463786,0.269649,0.00312589,0.0118989,979,484,0.782271,9.62775
-238,540,0.7854,-9.80066,-0.000725964,-0.00508187,0.00187705,-2.87122e-05,-0.00577912,0.355664,0.00384321,0.00944691,986,484,0.785411,9.80066
-231,540,0.779602,-9.94113,-0.00145686,-0.00586835,0.00280241,-9.62617e-05,-0.00722896,0.451989,0.00478754,0.0117559,993,484,0.779578,9.94112
-224,540,0.785583,-10.1024,-0.00236068,-0.00661684,0.00391754,-3.05343e-05,-0.00894699,0.536587,0.00595451,0.0173659,1000,484,0.785582,10.1024
-217,540,0.784119,-10.3192,-0.00291575,-0.00717916,0.00503459,0.000419829,-0.0105147,0.585136,0.00715388,0.0278965,1007,484,0.784106,10.3192
-210,540,0.763184,-10.354,-0.00305405,-0.00760554,0.00555745,0.000675559,-0.0113351,0.591066,0.00779172,0.0443499,1014,484,0.763209,10.354
-203,540,0.696777,-10.2651,-0.00326539,-0.00767022,0.00551594,0.000471572,-0.0114072,0.595455,0.00776676,0.0475173,1021,484,0.696763,10.2651
-196,540,0.342285,-10.4712,0,0,0,0,0,0,0,-1,1028,484,0.342287,10.4712
-189,540,0.822998,-9.49771,0,0,0,0,0,0,0,-1,1035,484,0.822969,9.49772
-182,540,0.889893,-7.7973,0,0,0,0,0,0,0,-1,1042,484,0.889893,7.79729
-175,540,1.02588,-7.74042,0,0,0,0,0,0,0,-1,1049,484,1.02589,7.74043
-168,540,1.18164,-7.65347,0,0,0,0,0,0,0,-1,1056,484,1.18163,7.65347
-161,540,-1.31653,-9.93869,0,0,0,0,0,0,0,-1,1063,484,-1.31651,9.93868
-154,540,0.81665,-10.381,0,0,0,0,0,0,0,-1,1070,484,0.816696,10.3809
-147,540,0.852905,-10.892,0,0,0,0,0,0,0,-1,1077,484,0.852844,10.892
-140,540,0.889038,-11.403,0,0,0,0,0,0,0,-1,1084,484,0.888992,11.403
-133,540,0.733276,-8.80582,0,0,0,0,0,0,0,-1,1091,484,0.733219,8.80582
-126,540,1.06201,-9.57385,0,0,0,0,0,0,0,-1,1098,484,1.06204,9.57385
-119,540,6.18579,-10.4846,0,0,0,0,0,0,0,-1,1105,484,6.18582,10.4846
-112,540,5.8468,-9.65106,0,0,0,0,0,0,0,-1,1112,484,5.84681,9.65106
-105,540,5.50781,-8.81754,0,0,0,0,0,0,0,-1,1119,484,5.5078,8.81753
-98,540,0.73877,-3.08093,0,0,0,0,0,0,0,-1,1126,484,0.738754,3.08092
-91,540,1.56519,-7.48666,0,0,0,0,0,0,0,-1,1133,484,1.56514,7.48667
-84,540,-0.945923,4.43073,0,0,0,0,0,0,0,-1,1140,484,-0.945891,-4.43074
-77,540,-2.28894,2.14368,0,0,0,0,0,0,0,-1,1147,484,-2.28894,-2.14368
-70,540,-3.75244,-0.452576,0,0,0,0,0,0,0,-1,1154,484,-3.75244,0.452576
-63,540,-5.26257,-3.04767,0,0,0,0,0,0,0,-1,1161,484,-5.26262,3.04766
-56,540,-5.19055,-6.12595,0,0,0,0,0,0,0,-1,1168,484,-5.19057,6.12595
-49,540,-5.63867,-8.52298,0,0,0,0,0,0,0,-1,1175,484,-5.63871,8.52298
-42,540,0,0,0,0,0,0,0,0,0,-1,1182,484,0,0
-35,540,0,0,0,0,0,0,0,0,0,-1,1189,484,0,0
-28,540,0,0,0,0,0,0,0,0,0,-1,1196,484,0,0
-21,540,0,0,0,0,0,0,0,0,0,-1,1203,484,0,0
-14,540,0,0,0,0,0,0,0,0,0,-1,1210,484,0,0
-7,540,0,0,0,0,0,0,0,0,0,-1,1217,484,0,0
0,540,0,0,0,0,0,0,0,0,0,-1,1224,484,0,0
7,540,0,0,0,0,0,0,0,0,0,-1,1231,484,0,0
14,540,0,0,0,0,0,0,0,0,0,-1,1238,484,0,0
21,540,0,0,0,0,0,0,0,0,0,-1,1245,484,0,0
28,540,0,0,0,0,0,0,0,0,0,-1,1252,484,0,0
35,540,0,0,0,0,0,0,0,0,0,-1,1259,484,0,0
42,540,0,0,0,0,0,0,0,0,0,-1,1266,484,0,0
49,540,0,0,0,0,0,0,0,0,0,-1,1273,484,0,0
56,540,0,0,0,0,0,0,0,0,0,-1,1280,484,0,0
63,540,0,0,0,0,0,0,0,0,0,-1,1287,484,0,0
70,540,0,0,0,0,0,0,0,0,0,-1,1294,484,0,0
77,540,0,0,0,0,0,0,0,0,0,-1,1301,484,0,0
84,540,0,0,0,0,0,0,0,0,0,-1,1308,484,0,0
91,540,0,0,0,0,0,0,0,0,0,-1,1315,484,0,0
98,540,0,0,0,0,0,0,0,0,0,-1,1322,484,0,0
105,540,0,0,0,0,0,0,0,0,0,-1,1329,484,0,0
112,540,0,0,0,0,0,0,0,0,0,-1,1336,484,0,0
119,540,0,0,0,0,0,0,0,0,0,-1,1343,484,0,0
126,540,0,0,0,0,0,0,0,0,0,-1,1350,484,0,0
133,540,0,0,0,0,0,0,0,0,0,-1,1357,484,0,0
140,540,0,0,0,0,0,0,0,0,0,-1,1364,484,0,0
147,540,0,0,0,0,0,0,0,0,0,-1,1371,484,0,0
154,540,0,0,0,0,0,0,0,0,0,-1,1378,484,0,0
161,540,0,0,0,0,0,0,0,0,0,-1,1385,484,0,0
168,540,3.05078,-0.0010376,0,0,0,0,0,0,0,-1,1392,484,3.05084,0.00102554
175,540,3.37708,0.617035,0,0,0,0,0,0,0,-1,1399,484,3.37707,-0.617046
182,540,3.32678,1.23267,0,0,0,0,0,0,0,-1,1406,484,3.32678,-1.23266
189,540,3.5813,2.15619,0,0,0,0,0,0,0,-1,1413,484,3.58129,-2.1562
196,540,1.84448,-0.801483,0,0,0,0,0,0,0,-1,1420,484,1.84446,0.80148
203,540,4.14648,0.702087,0,0,0,0,0,0,0,-1,1427,484,4.14645,-0.702089
210,540,4.50671,-0.56076,0,0,0,0,0,0,0,-1,1434,484,4.50667,0.560771
217,540,5.00452,-0.278717,0,0,0,0,0,0,0,-1,1441,484,5.00452,0.278709
224,540,6.44458,-2.83527,0,0,0,0,0,0,0,-1,1448,484,6.44457,2.83525
231,540,6.9231,-3.10504,0,0,0,0,0,0,0,-1,1455,484,6.92307,3.10505
238,540,6.4823,-2.58365,0,0,0,0,0,0,0,-1,1462,484,6.48225,2.58363
245,540,6.02087,-1.97916,0,0,0,0,0,0,0,-1,1469,484,6.02088,1.97915
252,540,6.50647,-3.56006,0,0,0,0,0,0,0,-1,1476,484,6.50649,3.56006
259,540,6.01941,-2.798,0,0,0,0,0,0,0,-1,1483,484,6.01941,2.79801
266,540,5.5332,-2.02853,0,0,0,0,0,0,0,-1,1490,484,5.53323,2.02855
273,540,5.06787,-1.28137,0,0,0,0,0,0,0,-1,1497,484,5.06786,1.28136
280,540,1.62903,-2.14609,0,0,0,0,0,0,0,-1,1504,484,1.62906,2.1461
287,540,1.97156,-2.45053,0,0,0,0,0,0,0,-1,1511,484,1.97159,2.45053
294,540,2.44165,-2.6185,0,0,0,0,0,0,0,-1,1518,484,2.44167,2.6185
301,540,4.36169,-2.54272,0,0,0,0,0,0,0,-1,1525,484,4.36165,2.54272
308,540,4.2019,-4.30469,0,0,0,0,0,0,0,-1,1532,484,4.20193,4.3047
315,540,4.45923,-5.32101,0,0,0,0,0,0,0,-1,1539,484,4.45923,5.32103
322,540,4.71655,-6.33737,0,0,0,0,0,0,0,-1,1546,484,4.71653,6.33736
329,540,4.97974,-9.45551,0,0,0,0,0,0,0,-1,1553,484,4.97971,9.45549
336,540,4.9176,-9.39722,0,0,0,0,0,0,0,-1,1560,484,4.91755,9.39721
343,540,4.75671,-9.50372,0,0,0,0,0,0,0,-1,1567,484,4.75668,9.50374
350,540,4.7052,-9.31366,0,0,0,0,0,0,0,-1,1574,484,4.70526,9.31365
357,540,4.82336,-8.82422,-0.0045868,-0.0052858,-0.00619539,0.00126894,-0.0111415,-0.757221,0.00788478,0.0396415,1581,484,4.82341,8.82421
364,540,4.66992,-8.73279,-0.00383832,-0.0051349,-0.00539519,0.000947382,-0.00992061,-0.725605,0.00695109,0.0221953,1588,484,4.66987,8.7328
371,540,4.67139,-8.58386,-0.00315185,-0.00492294,-0.00460227,0.000649303,-0.00872409,-0.690352,0.00604413,0.0155753,1595,484,4.67137,8.58387
378,540,4.70337,-8.38516,-0.00241409,-0.00447855,-0.00379589,0.000487421,-0.00738006,-0.652642,0.0050903,0.0123777,1602,484,4.70341,8.38515
385,540,4.70776,-8.18793,-0.00193655,-0.00400382,-0.00315193,0.000346902,-0.00628727,-0.626955,0.0043118,0.0131087,1609,484,4.70777,8.18792
392,540,4.69519,-7.98392,-0.00158708,-0.00348539,-0.00257179,0.000205115,-0.00527759,-0.60862,0.00358872,0.0121255,1616,484,4.69516,7.98391
399,540,4.68481,-7.79526,-0.00125136,-0.00304719,-0.00213507,0.000166924,-0.00446547,-0.586349,0.00303415,0.0164134,1623,484,4.68482,7.79526
406,540,4.72412,-7.58246,-0.000932816,-0.00256365,-0.00172377,0.00015867,-0.00365513,-0.564473,0.00249133,0.0179193,1630,484,4.7241,7.58247
413,540,4.73438,-7.3494,-0.000688382,-0.00187785,-0.00133669,0.00017991,-0.00274614,-0.576083,0.00189358,0.0134613,1637,484,4.73432,7.34939
420,540,4.74536,-7.12894,-0.00054454,-0.00139714,-0.00105848,0.000170259,-0.00211194,-0.593962,0.00146801,0.0115389,1644,484,4.74534,7.12895
427,540,4.7384,-6.91559,-0.000524539,-0.000931384,-0.000877582,0.000172889,-0.00162881,-0.67151,0.00114785,0.0121033,1651,484,4.73836,6.91557
434,540,4.72546,-6.70581,-0.000578073,-0.000550349,-0.00077956,0.000215472,-0.00134389,-0.794288,0.000975716,0.0149082,1658,484,4.7255,6.7058
441,540,4.7478,-6.47296,-0.000697287,-0.000287877,-0.000754329,0.000289029,-0.00127419,-0.917894,0.000960413,0.0180363,1665,484,4.74779,6.47296
448,540,4.72156,-6.26608,-0.000846509,-2.84344e-05,-0.000735836,0.000404411,-0.00127935,-1.03907,0.00101493,0.0112162,1672,484,4.72157,6.26609
455,540,4.71301,-6.03101,-0.00106127,0.000136371,-0.000819194,0.000552274,-0.00147717,-1.10101,0.00121158,0.0100712,1679,484,4.71296,6.031
462,540,4.70288,-5.77539,-0.00115824,0.000104364,-0.000994321,0.000650862,-0.00170474,-1.06825,0.00140465,0.0103209,1686,484,4.70288,5.77539
469,540,4.70007,-5.56827,-0.00118927,-0.000298092,-0.00128312,0.000614608,-0.00210197,-0.952518,0.00164491,0.0135652,1693,484,4.70003,5.56826
476,540,4.68176,-5.41293,-0.00126055,-0.000779939,-0.00162399,0.000621428,-0.00266192,-0.858851,0.00201397,0.0211261,1700,484,4.6818,5.41293
483,540,4.70996,-5.20386,-0.00124822,-0.00136604,-0.00200147,0.000695207,-0.00330947,-0.770686,0.00247087,0.0362397,1707,484,4.71001,5.20385
490,540,4.87842,-4.92346,0,0,0,0,0,0,0,-1,1714,484,4.87841,4.92347
497,540,4.27393,-2.67752,0,0,0,0,0,0,0,-1,1721,484,4.27395,2.67751
504,540,4.74207,-4.03241,0,0,0,0,0,0,0,-1,1728,484,4.74201,4.0324
511,540,4.88501,-4.35489,0,0,0,0,0,0,0,-1,1735,484,4.88498,4.3549
518,540,4.854,-3.87787,0,0,0,0,0,0,0,-1,1742,484,4.85401,3.87788
525,540,6.24841,-3.39841,0,0,0,0,0,0,0,-1,1749,484,6.24847,3.39839
532,540,2.84265,-1.07925,0,0,0,0,0,0,0,-1,1756,484,2.84269,1.07927
539,540,0,0,0,0,0,0,0,0,0,-1,1763,484,0,0
546,540,0,0,0,0,0,0,0,0,0,-1,1770,484,0,0
553,540,0,0,0,0,0,0,0,0,0,-1,1777,484,0,0
560,540,0,0,0,0,0,0,0,0,0,-1,1784,484,0,0
567,540,0,0,0,0,0,0,0,0,0,-1,1791,484,0,0
574,540,0,0,0,0,0,0,0,0,0,-1,1798,484,0,0
581,540,0,0,0,0,0,0,0,0,0,-1,1805,484,0,0
588,540,0,0,0,0,0,0,0,0,0,-1,1812,484,0,0
595,540,0,0,0,0,0,0,0,0,0,-1,1819,484,0,0
602,540,0,0,0,0,0,0,0,0,0,-1,1826,484,0,0
609,540,0,0,0,0,0,0,0,0,0,-1,1833,484,0,0
616,540,0,0,0,0,0,0,0,0,0,-1,1840,484,0,0
623,540,0,0,0,0,0,0,0,0,0,-1,1847,484,0,0
630,540,0,0,0,0,0,0,0,0,0,-1,1854,484,0,0
637,540,0,0,0,0,0,0,0,0,0,-1,1861,484,0,0
644,540,0,0,0,0,0,0,0,0,0,-1,1868,484,0,0
651,540,0,0,0,0,0,0,0,0,0,-1,1875,484,0,0
658,540,0,0,0,0,0,0,0,0,0,-1,1882,484,0,0
665,540,0,0,0,0,0,0,0,0,0,-1,1889,484,0,0
672,540,0,0,0,0,0,0,0,0,0,-1,1896,484,0,0
679,540,0,0,0,0,0,0,0,0,0,-1,1903,484,0,0
686,540,0,0,0,0,0,0,0,0,0,-1,1910,484,0,0
693,540,0,0,0,0,0,0,0,0,0,-1,1917,484,0,0
700,540,0,0,0,0,0,0,0,0,0,-1,1924,484,0,0
707,540,0,0,0,0,0,0,0,0,0,-1,1931,484,0,0
714,540,0,0,0,0,0,0,0,0,0,-1,1938,484,0,0
721,540,0,0,0,0,0,0,0,0,0,-1,1945,484,0,0
728,540,0,0,0,0,0,0,0,0,0,-1,1952,484,0,0
735,540,0,0,0,0,0,0,0,0,0,-1,1959,484,0,0
742,540,0,0,0,0,0,0,0,0,0,-1,1966,484,0,0
749,540,0,0,0,0,0,0,0,0,0,-1,1973,484,0,0
756,540,0,0,0,0,0,0,0,0,0,-1,1980,484,0,0
763,540,0,0,0,0,0,0,0,0,0,-1,1987,484,0,0
770,540,0,0,0,0,0,0,0,0,0,-1,1994,484,0,0
777,540,0,0,0,0,0,0,0,0,0,-1,2001,484,0,0
784,540,0,0,0,0,0,0,0,0,0,-1,2008,484,0,0
791,540,0,0,0,0,0,0,0,0,0,-1,2015,484,0,0
798,540,0,0,0,0,0,0,0,0,0,-1,2022,484,0,0
805,540,0,0,0,0,0,0,0,0,0,-1,2029,484,0,0
812,540,0,0,0,0,0,0,0,0,0,-1,2036,484,0,0
-700,533,0,0,0,0,0,0,0,0,0,-1,524,491,0,0
-693,533,0,0,0,0,0,0,0,0,0,-1,531,491,0,0
-686,533,0,0,0,0,0,0,0,0,0,-1,538,491,0,0
-679,533,0,0,0,0,0,0,0,0,0,-1,545,491,0,0
-672,533,0,0,0,0,0,0,0,0,0,-1,552,491,0,0
-665,533,0,0,0,0,0,0,0,0,0,-1,559,491,0,0
-658,533,0,0,0,0,0,0,0,0,0,-1,566,491,0,0
-651,533,0,0,0,0,0,0,0,0,0,-1,573,491,0,0
-644,533,0,0,0,0,0,0,0,0,0,-1,580,491,0,0
-637,533,0,0,0,0,0,0,0,0,0,-1,587,491,0,0
-630,533,0,0,0,0,0,0,0,0,0,-1,594,491,0,0
-623,533,0,0,0,0,0,0,0,0,0,-1,601,491,0,0
-616,533,0,0,0,0,0,0,0,0,0,-1,608,491,0,0
-609,533,0,0,0,0,0,0,0,0,0,-1,615,491,0,0
-602,533,0,0,0,0,0,0,0,0,0,-1,622,491,0,0
-595,533,0,0,0,0,0,0,0,0,0,-1,629,491,0,0
-588,533,0,0,0,0,0,0,0,0,0,-1,636,491,0,0
-581,533,0,0,0,0,0,0,0,0,0,-1,643,491,0,0
-574,533,0,0,0,0,0,0,0,0,0,-1,650,491,0,0
-567,533,0,0,0,0,0,0,0,0,0,-1,657,491,0,0
-560,533,0,0,0,0,0,0,0,0,0,-1,664,491,0,0
-553,533,0,0,0,0,0,0,0,0,0,-1,671,491,0,0
-546,533,0,0,0,0,0,0,0,0,0,-1,678,491,0,0
-539,533,0,0,0,0,0,0,0,0,0,-1,685,491,0,0
-532,533,0,0,0,0,0,0,0,0,0,-1,692,491,0,0
-525,533,0,0,0,0,0,0,0,0,0,-1,699,491,0,0
-518,533,0,0,0,0,0,0,0,0,0,-1,706,491,0,0
-511,533,0,0,0,0,0,0,0,0,0,-1,713,491,0,0
-504,533,0,0,0,0,0,0,0,0,0,-1,720,491,0,0
-497,533,0,0,0,0,0,0,0,0,0,-1,727,491,0,0
-490,533,0,0,0,0,0,0,0,0,0,-1,734,491,0,0
-483,533,0,0,0,0,0,0,0,0,0,-1,741,491,0,0
-476,533,0,0,0,0,0,0,0,0,0,-1,748,491,0,0
-469,533,0,0,0,0,0,0,0,0,0,-1,755,491,0,0
-462,533,0,0,0,0,0,0,0,0,0,-1,762,491,0,0
-455,533,0,0,0,0,0,0,0,0,0,-1,769,491,0,0
-448,533,0,0,0,0,0,0,0,0,0,-1,776,491,0,0
-441,533,0,0,0,0,0,0,0,0,0,-1,783,491,0,0
-434,533,0,0,0,0,0,0,0,0,0,-1,790,491,0,0
-427,533,-1.82031,-0.947235,0,0,0,0,0,0,0,-1,797,491,-1.82033,0.947223
-420,533,-2.23145,-1.00183,0,0,0,0,0,0,0,-1,804,491,-2.23147,1.00182
-413,533,-2.5105,-1.17044,0,0,0,0,0,0,0,-1,811,491,-2.51047,1.17043
-406,533,-2.77142,-1.09973,0,0,0,0,0,0,0,-1,818,491,-2.77141,1.09973
-399,533,-2.93634,-1.02002,0,0,0,0,0,0,0,-1,825,491,-2.93633,1.02003
-392,533,-3.13538,-0.855316,0,0,0,0,0,0,0,-1,832,491,-3.1354,0.855305
-385,533,0.109924,-4.41916,0,0,0,0,0,0,0,-1,839,491,0.109918,4.41915
-378,533,-0.761414,-5.15549,0,0,0,0,0,0,0,-1,846,491,-0.761387,5.15549
-371,533,0.69104,-5.78397,0,0,0,0,0,0,0,-1,853,491,0.691024,5.78397
-364,533,0.678589,-6.19513,0.00257974,0.00414681,-0.00659789,0.0100075,-0.00328098,-0.844499,0.00799305,0.043529,860,491,0.678588,6.19513
-357,533,0.653015,-6.51563,0.000391356,0.00212974,-0.00414458,0.00549529,-0.00297419,-0.888759,0.00496155,0.0259709,867,491,0.652988,6.51562
-350,533,0.602173,-6.68344,-0.000734909,0.000699456,-0.00270252,0.00277833,-0.00281379,-0.915096,0.00322863,0.0111151,874,491,0.602194,6.68345
-343,533,0.608704,-6.93387,-0.00105059,-0.000247967,-0.00171351,0.00111059,-0.00240916,-0.900428,0.00207772,0.0104203,881,491,0.608733,6.93388
-336,533,0.581299,-7.16074,-0.00122066,-0.0012162,-0.000678927,-0.000539498,-0.00189736,-0.787039,0.00112889,0.015403,888,491,0.581327,7.16075
-329,533,0.580994,-7.35507,-0.00113282,-0.00152284,-0.000220642,-0.00103336,-0.0016223,-0.423493,0.000948277,0.0144188,895,491,0.581012,7.35509
-322,533,0.569092,-7.53845,-0.000875041,-0.00147533,-8.86056e-05,-0.000862236,-0.00148814,-0.143528,0.00086278,0.0114444,902,491,0.569079,7.53847
-315,533,0.547668,-7.74771,-0.000570414,-0.00129706,-5.22524e-05,-0.000566676,-0.0013008,-0.0714193,0.000753087,0.011816,909,491,0.547692,7.74771
-308,533,0.54895,-7.94638,-0.000141237,-0.00123952,-5.06174e-05,-0.000138909,-0.00124184,-0.0459581,0.000785696,0.0112523,916,491,0.548964,7.94637
-301,533,0.526672,-8.13345,0.000256827,-0.00115238,-0.000100007,0.000263889,-0.00115945,-0.0704961,0.000874304,0.0130177,923,491,0.526666,8.13346
-294,533,0.535095,-8.33432,0.000586727,-0.00118215,-0.000144895,0.000598517,-0.00119394,-0.0811921,0.00105374,0.0126015,930,491,0.535073,8.33432
-287,533,0.557251,-8.54077,0.000812382,-0.00141896,-0.000207816,0.000831572,-0.00143815,-0.0920797,0.00132593,0.00966603,937,491,0.557236,8.54078
-280,533,0.558228,-8.73148,0.000857159,-0.00193619,-0.000142101,0.000864369,-0.00194341,-0.0506966,0.00166049,0.00844219,944,491,0.558243,8.73148
-273,533,0.564941,-8.9314,0.000867532,-0.00241709,-0.000116031,0.000871625,-0.00242118,-0.0352671,0.00197002,0.0109692,951,491,0.564925,8.93139
-266,533,0.580017,-9.11465,0.000842128,-0.00288198,2.9644e-06,0.00084213,-0.00288199,0.000796002,0.00225507,0.0110781,958,491,0.580003,9.11467
-259,533,0.596497,-9.28943,0.000682082,-0.00357214,0.000279312,0.000700342,-0.0035904,0.0652817,0.00265798,0.0115229,965,491,0.596498,9.28944
-252,533,0.606018,-9.44949,0.000188139,-0.00462041,0.000889355,0.000347356,-0.00477962,0.177149,0.00330828,0.0129939,972,491,0.606048,9.4495
-245,533,0.677246,-9.62515,-0.000567428,-0.00589444,0.00159612,-0.000125796,-0.00633607,0.269936,0.00418275,0.0197602,979,491,0.677216,9.62515
-238,533,0.625427,-9.73895,-0.00131163,-0.0070281,0.002419,-0.000425397,-0.00791433,0.351179,0.00514029,0.022331,986,491,0.625399,9.73896
-231,533,0.663635,-9.86945,-0.00238482,-0.00801004,0.00355867,-0.000661478,-0.00973339,0.450982,0.00628005,0.0312093,993,491,0.663608,9.86945
-224,533,0.552673,-10.1153,-0.00374937,-0.00899522,0.00494716,-0.000772816,-0.0119718,0.541646,0.00773645,0.0380358,1000,491,0.552703,10.1153
-217,533,0.493958,-10.4079,-0.00472774,-0.00968065,0.00649815,-0.000250151,-0.0141582,0.603344,0.00935656,0.0457216,1007,491,0.493954,10.4079
-210,533,0.484619,-10.2656,0,0,0,0,0,0,0,-1,1014,491,0.484638,10.2656
-203,533,0.383362,-10.1382,0,0,0,0,0,0,0,-1,1021,491,0.383378,10.1381
-196,533,0.798584,-9.57816,0,0,0,0,0,0,0,-1,1028,491,0.798541,9.57815
-189,533,0.800903,-9.64487,0,0,0,0,0,0,0,-1,1035,491,0.800896,9.64486
-182,533,0.805786,-7.42383,0,0,0,0,0,0,0,-1,1042,491,0.805827,7.42383
-175,533,0.937744,-7.36966,0,0,0,0,0,0,0,-1,1049,491,0.937769,7.36965
-168,533,2.64807,-2.7543,0,0,0,0,0,0,0,-1,1056,491,2.64812,2.7543
-161,533,1.91833,-1.76553,0,0,0,0,0,0,0,-1,1063,491,1.91836,1.76554
-154,533,-1.24805,-5.92294,0,0,0,0,0,0,0,-1,1070,491,-1.24806,5.92295
-147,533,0.212036,-10.6896,0,0,0,0,0,0,0,-1,1077,491,0.212037,10.6896
-140,533,0.481812,-8.27359,0,0,0,0,0,0,0,-1,1084,491,0.481827,8.2736
-133,533,1.23474,-8.92532,0,0,0,0,0,0,0,-1,1091,491,1.2347,8.92532
-126,533,2.89612,-2.59003,0,0,0,0,0,0,0,-1,1098,491,2.89608,2.59003
-119,533,3.00842,-12.8239,0,0,0,0,0,0,0,-1,1105,491,3.00841,12.8239
-112,533,7.05884,-10.21,0,0,0,0,0,0,0,-1,1112,491,7.0588,10.21
-105,533,3.84839,1.12769,0,0,0,0,0,0,0,-1,1119,491,3.84843,-1.12769
-98,533,-1.39392,-5.16367,0,0,0,0,0,0,0,-1,1126,491,-1.39394,5.16367
-91,533,0.367432,4.49753,0,0,0,0,0,0,0,-1,1133,491,0.367468,-4.49754
-84,533,-0.88623,3.03604,0,0,0,0,0,0,0,-1,1140,491,-0.886288,-3.03605
-77,533,0,0,0,0,0,0,0,0,0,-1,1147,491,0,0
-70,533,0,0,0,0,0,0,0,0,0,-1,1154,491,0,0
-63,533,0,0,0,0,0,0,0,0,0,-1,1161,491,0,0
-56,533,0,0,0,0,0,0,0,0,0,-1,1168,491,0,0
-49,533,0,0,0,0,0,0,0,0,0,-1,1175,491,0,0
-42,533,0,0,0,0,0,0,0,0,0,-1,1182,491,0,0
-35,533,0,0,0,0,0,0,0,0,0,-1,1189,491,0,0
-28,533,0,0,0,0,0,0,0,0,0,-1,1196,491,0,0
-21,533,0,0,0,0,0,0,0,0,0,-1,1203,491,0,0
-14,533,0,0,0,0,0,0,0,0,0,-1,1210,491,0,0
-7,533,0,0,0,0,0,0,0,0,0,-1,1217,491,0,0
0,533,0,0,0,0,0,0,0,0,0,-1,1224,491,0,0
7,533,0,0,0,0,0,0,0,0,0,-1,1231,491,0,0
14,533,0,0,0,0,0,0,0,0,0,-1,1238,491,0,0
21,533,0,0,0,0,0,0,0,0,0,-1,1245,491,0,0
28,533,0,0,0,0,0,0,0,0,0,-1,1252,491,0,0
35,533,0,0,0,0,0,0,0,0,0,-1,1259,491,0,0
42,533,0,0,0,0,0,0,0,0,0,-1,1266,491,0,0
49,533,0,0,0,0,0,0,0,0,0,-1,1273,491,0,0
56,533,0,0,0,0,0,0,0,0,0,-1,1280,491,0,0
63,533,0,0,0,0,0,0,0,0,0,-1,1287,491,0,0
70,533,0,0,0,0,0,0,0,0,0,-1,1294,491,0,0
77,533,0,0,0,0,0,0,0,0,0,-1,1301,491,0,0
84,533,0,0,0,0,0,0,0,0,0,-1,1308,491,0,0
91,533,0,0,0,0,0,0,0,0,0,-1,1315,491,0,0
98,533,0,0,0,0,0,0,0,0,0,-1,1322,491,0,0
105,533,0,0,0,0,0,0,0,0,0,-1,1329,491,0,0
112,533,0,0,0,0,0,0,0,0,0,-1,1336,491,0,0
119,533,0,0,0,0,0,0,0,0,0,-1,1343,491,0,0
126,533,0,0,0,0,0,0,0,0,0,-1,1350,491,0,0
133,533,0,0,0,0,0,0,0,0,0,-1,1357,491,0,0
140,533,0,0,0,0,0,0,0,0,0,-1,1364,491,0,0
147,533,0,0,0,0,0,0,0,0,0,-1,1371,491,0,0
154,533,0,0,0,0,0,0,0,0,0,-1,1378,491,0,0
161,533,0,0,0,0,0,0,0,0,0,-1,1385,491,0,0
168,533,0,0,0,0,0,0,0,0,0,-1,1392,491,0,0
175,533,0,0,0,0,0,0,0,0,0,-1,1399,491,0,0
182,533,0,0,0,0,0,0,0,0,0,-1,1406,491,0,0
189,533,0,0,0,0,0,0,0,0,0,-1,1413,491,0,0
196,533,0,0,0,0,0,0,0,0,0,-1,1420,491,0,0
203,533,3.7887,1.16193,0,0,0,0,0,0,0,-1,1427,491,3.78872,-1.16193
210,533,5.09558,-0.216034,0,0,0,0,0,0,0,-1,1434,491,5.09559,0.216028
217,533,6.91614,-2.46814,0,0,0,0,0,0,0,-1,1441,491,6.91618,2.46814
224,533,7.23621,-2.1857,0,0,0,0,0,0,0,-1,1448,491,7.23621,2.1857
231,533,7.23474,-1.92282,0,0,0,0,0,0,0,-1,1455,491,7.2347,1.92282
238,533,7.23535,-1.67258,0,0,0,0,0,0,0,-1,1462,491,7.23539,1.67258
245,533,6.86682,-1.2301,0,0,0,0,0,0,0,-1,1469,491,6.86686,1.23011
252,533,6.63354,-3.07825,0,0,0,0,0,0,0,-1,1476,491,6.6335,3.07824
259,533,6.16431,-2.35037,0,0,0,0,0,0,0,-1,1483,491,6.1643,2.35037
266,533,5.68884,-1.6214,0,0,0,0,0,0,0,-1,1490,491,5.68885,1.6214
273,533,5.21399,-0.864227,0,0,0,0,0,0,0,-1,1497,491,5.21403,0.864227
280,533,1.41089,-1.97946,0,0,0,0,0,0,0,-1,1504,491,1.41087,1.97946
287,533,1.6814,-2.44443,0,0,0,0,0,0,0,-1,1511,491,1.6814,2.44444
294,533,2.2384,-2.57626,0,0,0,0,0,0,0,-1,1518,491,2.23839,2.57625
301,533,3.39941,-4.0817,0,0,0,0,0,0,0,-1,1525,491,3.3994,4.08171
308,533,4.13733,-4.14752,0,0,0,0,0,0,0,-1,1532,491,4.13727,4.14752
315,533,4.80762,-5.29349,0,0,0,0,0,0,0,-1,1539,491,4.80762,5.29347
322,533,5.47803,-6.43942,0,0,0,0,0,0,0,-1,1546,491,5.47798,6.43943
329,533,3.88477,-3.86301,0,0,0,0,0,0,0,-1,1553,491,3.88475,3.86299
336,533,5.12036,-9.38559,0,0,0,0,0,0,0,-1,1560,491,5.12036,9.38559
343,533,5.87952,-6.38858,0,0,0,0,0,0,0,-1,1567,491,5.87953,6.38857
350,533,5.62915,-8.02426,0,0,0,0,0,0,0,-1,1574,491,5.6291,8.02426
357,533,5.17651,-8.91534,0,0,0,0,0,0,0,-1,1581,491,5.1765,8.91533
364,533,5.02209,-8.69742,-0.00560174,-0.00774043,-0.00760959,0.00101327,-0.0143554,-0.715592,0.0099253,0.0441311,1588,491,5.02212,8.69743
371,533,4.84082,-8.62134,-0.00458894,-0.00734504,-0.00654624,0.000722722,-0.0126567,-0.681658,0.00868873,0.034436,1595,491,4.84078,8.62135
378,533,4.849,-8.38086,-0.00354346,-0.00669469,-0.00548363,0.000586422,-0.0108246,-0.645501,0.00741959,0.024738,1602,491,4.84898,8.38085
385,533,4.92578,-8.16629,-0.00287765,-0.00598459,-0.0046337,0.000456047,-0.00931829,-0.623659,0.00636966,0.0216367,1609,491,4.9258,8.16629
392,533,4.91467,-7.97501,-0.00237866,-0.00516875,-0.00384541,0.000316931,-0.00786435,-0.61139,0.00535167,0.0135222,1616,491,4.91471,7.97502
399,533,4.92297,-7.79132,-0.00192281,-0.00442766,-0.00324827,0.00030612,-0.00665659,-0.601397,0.00454321,0.0124509,1623,491,4.92302,7.79133
406,533,4.94641,-7.57819,-0.00149006,-0.00366157,-0.00270107,0.000335309,-0.00548694,-0.594295,0.0037747,0.0155469,1630,491,4.94641,7.57819
413,533,4.95325,-7.33926,-0.00107036,-0.00277062,-0.00211132,0.000355556,-0.00419654,-0.594002,0.00292343,0.0132622,1637,491,4.9532,7.33925
420,533,4.95227,-7.11856,-0.000775411,-0.0020479,-0.00162526,0.000333699,-0.00315701,-0.598831,0.00222427,0.0118619,1644,491,4.95222,7.11856
427,533,4.96204,-6.88968,-0.000648988,-0.00140894,-0.00129712,0.000322664,-0.00238059,-0.642916,0.00170482,0.0128443,1651,491,4.96199,6.88967
434,533,4.94507,-6.69153,-0.00060238,-0.000867797,-0.00104453,0.000317835,-0.00178801,-0.722211,0.00131086,0.0132323,1658,491,4.94501,6.69154
441,533,4.9613,-6.46686,-0.000597453,-0.000490076,-0.000854699,0.00031262,-0.00140015,-0.816765,0.00105322,0.0146452,1665,491,4.96125,6.46687
448,533,4.96167,-6.25348,-0.000576558,-0.000151048,-0.000660684,0.000330292,-0.0010579,-0.941166,0.000837365,0.0150312,1672,491,4.96166,6.25347
455,533,4.93665,-6.05087,-0.000616675,7.80026e-05,-0.000562042,0.000391372,-0.000930044,-1.06217,0.000783765,0.0151251,1679,491,4.93659,6.05088
462,533,4.91821,-5.75217,-0.000556854,2.81065e-05,-0.000586009,0.00039057,-0.000919318,-1.01686,0.00077653,0.0146369,1686,491,4.91819,5.75216
469,533,4.92004,-5.55057,-0.000436854,-0.000444229,-0.00073919,0.000298658,-0.00117974,-0.782904,0.000902669,0.00960927,1693,491,4.92004,5.55056
476,533,4.9375,-5.33154,-0.000373073,-0.000969691,-0.000939567,0.000314404,-0.00165717,-0.631683,0.00122313,0.0108739,1700,491,4.93749,5.33154
483,533,4.9707,-5.08453,-0.000242546,-0.00152663,-0.00115616,0.000437881,-0.00220706,-0.531938,0.00163697,0.0187052,1707,491,4.97073,5.08453
490,533,4.94971,-5.03308,-0.000198631,-0.00247824,-0.00160238,0.000627975,-0.00330485,-0.476256,0.00243965,0.0409693,1714,491,4.94972,5.03308
497,533,4.92517,-4.9978,0,0,0,0,0,0,0,-1,1721,491,4.92519,4.99781
504,533,4.93311,-4.1788,0,0,0,0,0,0,0,-1,1728,491,4.93315,4.17881
511,533,5.04932,-3.9213,0,0,0,0,0,0,0,-1,1735,491,5.04928,3.92128
518,533,4.86658,-4.07333,0,0,0,0,0,0,0,-1,1742,491,4.86657,4.07334
525,533,5.00793,-3.79895,0,0,0,0,0,0,0,-1,1749,491,5.00799,3.79896
532,533,3.24243,0.0737,0,0,0,0,0,0,0,-1,1756,491,3.24239,-0.0737072
539,533,3.61609,1.62427,0,0,0,0,0,0,0,-1,1763,491,3.61606,-1.62426
546,533,3.59607,1.65799,0,0,0,0,0,0,0,-1,1770,491,3.59605,-1.658
553,533,0,0,0,0,0,0,0,0,0,-1,1777,491,0,0
560,533,0,0,0,0,0,0,0,0,0,-1,1784,491,0,0
567,533,0,0,0,0,0,0,0,0,0,-1,1791,491,0,0
574,533,0,0,0,0,0,0,0,0,0,-1,1798,491,0,0
581,533,0,0,0,0,0,0,0,0,0,-1,1805,491,0,0
588,533,0,0,0,0,0,0,0,0,0,-1,1812,491,0,0
595,533,0,0,0,0,0,0,0,0,0,-1,1819,491,0,0
602,533,0,0,0,0,0,0,0,0,0,-1,1826,491,0,0
609,533,0,0,0,0,0,0,0,0,0,-1,1833,491,0,0
616,533,0,0,0,0,0,0,0,0,0,-1,1840,491,0,0
623,533,0,0,0,0,0,0,0,0,0,-1,1847,491,0,0
630,533,0,0,0,0,0,0,0,0,0,-1,1854,491,0,0
637,533,0,0,0,0,0,0,0,0,0,-1,1861,491,0,0
644,533,0,0,0,0,0,0,0,0,0,-1,1868,491,0,0
651,533,0,0,0,0,0,0,0,0,0,-1,1875,491,0,0
658,533,0,0,0,0,0,0,0,0,0,-1,1882,491,0,0
665,533,0,0,0,0,0,0,0,0,0,-1,1889,491,0,0
672,533,0,0,0,0,0,0,0,0,0,-1,1896,491,0,0
679,533,0,0,0,0,0,0,0,0,0,-1,1903,491,0,0
686,533,0,0,0,0,0,0,0,0,0,-1,1910,491,0,0
693,533,0,0,0,0,0,0,0,0,0,-1,1917,491,0,0
700,533,0,0,0,0,0,0,0,0,0,-1,1924,491,0,0
707,533,0,0,0,0,0,0,0,0,0,-1,1931,491,0,0
714,533,0,0,0,0,0,0,0,0,0,-1,1938,491,0,0
721,533,0,0,0,0,0,0,0,0,0,-1,1945,491,0,0
728,533,0,0,0,0,0,0,0,0,0,-1,1952,491,0,0
735,533,0,0,0,0,0,0,0,0,0,-1,1959,491,0,0
742,533,0,0,0,0,0,0,0,0,0,-1,1966,491,0,0
749,533,0,0,0,0,0,0,0,0,0,-1,1973,491,0,0
756,533,0,0,0,0,0,0,0,0,0,-1,1980,491,0,0
763,533,0,0,0,0,0,0,0,0,0,-1,1987,491,0,0
770,533,0,0,0,0,0,0,0,0,0,-1,1994,491,0,0
777,533,0,0,0,0,0,0,0,0,0,-1,2001,491,0,0
784,533,0,0,0,0,0,0,0,0,0,-1,2008,491,0,0
791,533,0,0,0,0,0,0,0,0,0,-1,2015,491,0,0
798,533,0,0,0,0,0,0,0,0,0,-1,2022,491,0,0
805,533,0,0,0,0,0,0,0,0,0,-1,2029,491,0,0
812,533,0,0,0,0,0,0,0,0,0,-1,2036,491,0,0
-700,526,0,0,0,0,0,0,0,0,0,-1,524,498,0,0
-693,526,0,0,0,0,0,0,0,0,0,-1,531,498,0,0
-686,526,0,0,0,0,0,0,0,0,0,-1,538,498,0,0
-679,526,0,0,0,0,0,0,0,0,0,-1,545,498,0,0
-672,526,0,0,0,0,0,0,0,0,0,-1,552,498,0,0
-665,526,0,0,0,0,0,0,0,0,0,-1,559,498,0,0
-658,526,0,0,0,0,0,0,0,0,0,-1,566,498,0,0
-651,526,0,0,0,0,0,0,0,0,0,-1,573,498,0,0
-644,526,0,0,0,0,0,0,0,0,0,-1,580,498,0,0
-637,526,0,0,0,0,0,0,0,0,0,-1,587,498,0,0
-630,526,0,0,0,0,0,0,0,0,0,-1,594,498,0,0
-623,526,0,0,0,0,0,0,0,0,0,-1,601,498,0,0
-616,526,0,0,0,0,0,0,0,0,0,-1,608,498,0,0
-609,526,0,0,0,0,0,0,0,0,0,-1,615,498,0,0
-602,526,0,0,0,0,0,0,0,0,0,-1,622,498,0,0
-595,526,0,0,0,0,0,0,0,0,0,-1,629,498,0,0
-588,526,0,0,0,0,0,0,0,0,0,-1,636,498,0,0
-581,526,0,0,0,0,0,0,0,0,0,-1,643,498,0,0
-574,526,0,0,0,0,0,0,0,0,0,-1,650,498,0,0
-567,526,0,0,0,0,0,0,0,0,0,-1,657,498,0,0
-560,526,0,0,0,0,0,0,0,0,0,-1,664,498,0,0
-553,526,0,0,0,0,0,0,0,0,0,-1,671,498,0,0
-546,526,0,0,0,0,0,0,0,0,0,-1,678,498,0,0
-539,526,0,0,0,0,0,0,0,0,0,-1,685,498,0,0
-532,526,0,0,0,0,0,0,0,0,0,-1,692,498,0,0
-525,526,0,0,0,0,0,0,0,0,0,-1,699,498,0,0
-518,526,0,0,0,0,0,0,0,0,0,-1,706,498,0,0
-511,526,0,0,0,0,0,0,0,0,0,-1,713,498,0,0
-504,526,0,0,0,0,0,0,0,0,0,-1,720,498,0,0
-497,526,0,0,0,0,0,0,0,0,0,-1,727,498,0,0
-490,526,0,0,0,0,0,0,0,0,0,-1,734,498,0,0
-483,526,0,0,0,0,0,0,0,0,0,-1,741,498,0,0
-476,526,0,0,0,0,0,0,0,0,0,-1,748,498,0,0
-469,526,0,0,0,0,0,0,0,0,0,-1,755,498,0,0
-462,526,0,0,0,0,0,0,0,0,0,-1,762,498,0,0
-455,526,0,0,0,0,0,0,0,0,0,-1,769,498,0,0
-448,526,0,0,0,0,0,0,0,0,0,-1,776,498,0,0
-441,526,0,0,0,0,0,0,0,0,0,-1,783,498,0,0
-434,526,-1.01361,-1.88202,0,0,0,0,0,0,0,-1,790,498,-1.01362,1.88203
-427,526,-1.38489,-2.00546,0,0,0,0,0,0,0,-1,797,498,-1.38489,2.00547
-420,526,-1.79395,-2.09637,0,0,0,0,0,0,0,-1,804,498,-1.79397,2.09639
-413,526,-2.15332,-2.18826,0,0,0,0,0,0,0,-1,811,498,-2.15331,2.18826
-406,526,-2.4693,-2.20227,0,0,0,0,0,0,0,-1,818,498,-2.4693,2.20226
-399,526,-2.71814,-2.1713,0,0,0,0,0,0,0,-1,825,498,-2.71811,2.17129
-392,526,-1.03137,-4.44165,0,0,0,0,0,0,0,-1,832,498,-1.03136,4.44166
-385,526,-0.607239,-4.83832,0,0,0,0,0,0,0,-1,839,498,-0.607215,4.83831
-378,526,0.353088,-5.90308,0,0,0,0,0,0,0,-1,846,498,0.353065,5.90307
-371,526,0.376282,-6.09332,0.00529619,0.00581148,-0.00815273,0.0137106,-0.00260297,-0.801194,0.0101203,0.0444908,853,498,0.376272,6.09334
-364,526,0.463745,-6.32263,0.00297655,0.0038265,-0.00570423,0.00912157,-0.00231852,-0.82258,0.00698338,0.0240741,860,498,0.463724,6.32262
-357,526,0.35791,-6.47842,0.00100672,0.00225649,-0.00366164,0.00534618,-0.00208298,-0.869913,0.004425,0.0157565,867,498,0.357897,6.47842
-350,526,0.388184,-6.68896,-4.65504e-05,0.0012055,-0.00246903,0.00312664,-0.00196769,-0.909557,0.00296647,0.0108292,874,498,0.388166,6.68897
-343,526,0.388977,-6.9129,-0.000374149,0.000523503,-0.00166048,0.00179474,-0.00164539,-0.917394,0.00198679,0.0149266,881,498,0.388953,6.9129
-336,526,0.371582,-7.13614,-0.000558627,-0.000251305,-0.000796985,0.000406697,-0.00121663,-0.880631,0.000975338,0.0153188,888,498,0.371564,7.13615
-329,526,0.379578,-7.34064,-0.000497111,-0.000482072,-0.000420076,-6.94479e-05,-0.000909734,-0.794347,0.000584717,0.0149071,895,498,0.379557,7.34063
-322,526,0.369934,-7.55383,-0.000298686,-0.000449438,-0.000346444,-1.95128e-05,-0.000728611,-0.678283,0.000479369,0.00989425,902,498,0.369936,7.55384
-315,526,0.375793,-7.75272,-6.4458e-05,-0.000330316,-0.000331617,0.00015988,-0.000554655,-0.594778,0.000433016,0.00849561,909,498,0.37578,7.75272
-308,526,0.367676,-7.95502,0.000336489,-0.000367128,-0.000333255,0.000469272,-0.00049991,-0.379161,0.000559651,0.00854036,916,498,0.367671,7.955
-301,526,0.343628,-8.14816,0.000705623,-0.000450139,-0.000368075,0.000812889,-0.000557405,-0.28357,0.00079571,0.0102493,923,498,0.343602,8.14816
-294,526,0.342102,-8.34555,0.00101206,-0.000711303,-0.000383734,0.00109364,-0.000792885,-0.209482,0.00109379,0.0100932,930,498,0.342104,8.34554
-287,526,0.34137,-8.53378,0.00117933,-0.00127871,-0.00039126,0.0012401,-0.00133948,-0.154104,0.00148969,0.00996507,937,498,0.341379,8.53379
-280,526,0.343445,-8.70734,0.00105984,-0.00221758,-0.000239803,0.0010773,-0.00223503,-0.0726524,0.00195092,0.0117618,944,498,0.343437,8.70735
-273,526,0.361877,-8.90732,0.00100662,-0.00314831,-0.000165994,0.00101324,-0.00315493,-0.0398664,0.00251015,0.00981368,951,498,0.361879,8.90732
-266,526,0.389404,-9.10205,0.000991613,-0.00397615,5.47484e-05,0.000992216,-0.00397675,0.0110189,0.00303644,0.00976923,958,498,0.389381,9.10206
-259,526,0.443787,-9.258,0.00068097,-0.00501679,0.000422349,0.000712106,-0.00504792,0.0735894,0.00362603,0.016352,965,498,0.443781,9.25799
-252,526,0.504639,-9.38007,-8.33322e-05,-0.00646287,0.00120038,0.000135056,-0.00668126,0.179965,0.00449987,0.0311257,972,498,0.504613,9.38007
-245,526,0.538452,-9.5155,-0.00113725,-0.00815545,0.00205012,-0.000582265,-0.00871044,0.264372,0.00562293,0.0414475,979,498,0.538456,9.5155
-238,526,0.56543,-9.53021,-0.00217665,-0.0096161,0.00298049,-0.00112986,-0.0106629,0.337756,0.00676351,0.0403856,986,498,0.565449,9.5302
-231,526,0.325134,-9.6087,-0.00370618,-0.0107904,0.00436179,-0.0016294,-0.0128671,0.444369,0.00808984,0.0464827,993,498,0.325104,9.6087
-224,526,0.322876,-9.91275,0,0,0,0,0,0,0,-1,1000,498,0.322892,9.91276
-217,526,0.139221,-10.4307,0,0,0,0,0,0,0,-1,1007,498,0.1392,10.4307
-210,526,0.171021,-8.39801,0,0,0,0,0,0,0,-1,1014,498,0.170997,8.398
-203,526,0.771362,-9.25351,0,0,0,0,0,0,0,-1,1021,498,0.771371,9.25351
-196,526,0.788452,-9.34698,0,0,0,0,0,0,0,-1,1028,498,0.788419,9.34699
-189,526,0.401245,-5.96826,0,0,0,0,0,0,0,-1,1035,498,0.401197,5.96826
-182,526,1.7323,-2.99405,0,0,0,0,0,0,0,-1,1042,498,1.73226,2.99404
-175,526,2.27637,-2.07983,0,0,0,0,0,0,0,-1,1049,498,2.27639,2.07984
-168,526,2.12036,-1.66049,0,0,0,0,0,0,0,-1,1056,498,2.12035,1.66048
-161,526,2.09082,-1.20572,0,0,0,0,0,0,0,-1,1063,498,2.09086,1.2057
-154,526,-1.3446,-5.37799,0,0,0,0,0,0,0,-1,1070,498,-1.34457,5.37799
-147,526,-0.472656,-6.64996,0,0,0,0,0,0,0,-1,1077,498,-0.472659,6.64997
-140,526,0.422852,-8.03339,0,0,0,0,0,0,0,-1,1084,498,0.422844,8.0334
-133,526,1.09583,-9.2215,0,0,0,0,0,0,0,-1,1091,498,1.09581,9.2215
-126,526,3.42529,-2.36053,0,0,0,0,0,0,0,-1,1098,498,3.42523,2.36052
-119,526,2.7771,-0.764099,0,0,0,0,0,0,0,-1,1105,498,2.7771,0.764107
-112,526,2.57715,-1.1893,0,0,0,0,0,0,0,-1,1112,498,2.57718,1.1893
-105,526,0,0,0,0,0,0,0,0,0,-1,1119,498,0,0
-98,526,0,0,0,0,0,0,0,0,0,-1,1126,498,0,0
-91,526,0,0,0,0,0,0,0,0,0,-1,1133,498,0,0
-84,526,0,0,0,0,0,0,0,0,0,-1,1140,498,0,0
-77,526,0,0,0,0,0,0,0,0,0,-1,1147,498,0,0
-70,526,0,0,0,0,0,0,0,0,0,-1,1154,498,0,0
-63,526,0,0,0,0,0,0,0,0,0,-1,1161,498,0,0
-56,526,0,0,0,0,0,0,0,0,0,-1,1168,498,0,0
-49,526,0,0,0,0,0,0,0,0,0,-1,1175,498,0,0
-42,526,0,0,0,0,0,0,0,0,0,-1,1182,498,0,0
-35,526,0,0,0,0,0,0,0,0,0,-1,1189,498,0,0
-28,526,0,0,0,0,0,0,0,0,0,-1,1196,498,0,0
-21,526,0,0,0,0,0,0,0,0,0,-1,1203,498,0,0
-14,526,0,0,0,0,0,0,0,0,0,-1,1210,498,0,0
-7,526,0,0,0,0,0,0,0,0,0,-1,1217,498,0,0
0,526,0,0,0,0,0,0,0,0,0,-1,1224,498,0,0
7,526,0,0,0,0,0,0,0,0,0,-1,1231,498,0,0
14,526,0,0,0,0,0,0,0,0,0,-1,1238,498,0,0
21,526,0,0,0,0,0,0,0,0,0,-1,1245,498,0,0
28,526,0,0,0,0,0,0,0,0,0,-1,1252,498,0,0
35,526,0,0,0,0,0,0,0,0,0,-1,1259,498,0,0
42,526,0,0,0,0,0,0,0,0,0,-1,1266,498,0,0
49,526,0,0,0,0,0,0,0,0,0,-1,1273,498,0,0
56,526,0,0,0,0,0,0,0,0,0,-1,1280,498,0,0
63,526,0,0,0,0,0,0,0,0,0,-1,1287,498,0,0
70,526,0,0,0,0,0,0,0,0,0,-1,1294,498,0,0
77,526,0,0,0,0,0,0,0,0,0,-1,1301,498,0,0
84,526,0,0,0,0,0,0,0,0,0,-1,1308,498,0,0
91,526,0,0,0,0,0,0,0,0,0,-1,1315,498,0,0
98,526,0,0,0,0,0,0,0,0,0,-1,1322,498,0,0
105,526,0,0,0,0,0,0,0,0,0,-1,1329,498,0,0
112,526,0,0,0,0,0,0,0,0,0,-1,1336,498,0,0
119,526,0,0,0,0,0,0,0,0,0,-1,1343,498,0,0
126,526,0,0,0,0,0,0,0,0,0,-1,1350,498,0,0
133,526,0,0,0,0,0,0,0,0,0,-1,1357,498,0,0
140,526,0,0,0,0,0,0,0,0,0,-1,1364,498,0,0
147,526,0,0,0,0,0,0,0,0,0,-1,1371,498,0,0
154,526,0,0,0,0,0,0,0,0,0,-1,1378,498,0,0
161,526,0,0,0,0,0,0,0,0,0,-1,1385,498,0,0
168,526,0,0,0,0,0,0,0,0,0,-1,1392,498,0,0
175,526,0,0,0,0,0,0,0,0,0,-1,1399,498,0,0
182,526,0,0,0,0,0,0,0,0,0,-1,1406,498,0,0
189,526,0,0,0,0,0,0,0,0,0,-1,1413,498,0,0
196,526,0,0,0,0,0,0,0,0,0,-1,1420,498,0,0
203,526,0,0,0,0,0,0,0,0,0,-1,1427,498,0,0
210,526,0,0,0,0,0,0,0,0,0,-1,1434,498,0,0
217,526,0,0,0,0,0,0,0,0,0,-1,1441,498,0,0
224,526,0,0,0,0,0,0,0,0,0,-1,1448,498,0,0
231,526,7.93237,-1.30618,0,0,0,0,0,0,0,-1,1455,498,7.93238,1.30618
238,526,7.97717,-1.08197,0,0,0,0,0,0,0,-1,1462,498,7.97723,1.08196
245,526,7.2793,-0.792938,0,0,0,0,0,0,0,-1,1469,498,7.27931,0.792926
252,526,6.73523,-2.23608,0,0,0,0,0,0,0,-1,1476,498,6.73525,2.23608
259,526,6.22949,-1.84967,0,0,0,0,0,0,0,-1,1483,498,6.22953,1.84968
266,526,5.72375,-1.46329,0,0,0,0,0,0,0,-1,1490,498,5.72381,1.46328
273,526,4.33984,0.49173,0,0,0,0,0,0,0,-1,1497,498,4.33979,-0.491727
280,526,1.4585,-1.59897,0,0,0,0,0,0,0,-1,1504,498,1.45846,1.59895
287,526,1.46411,-2.40134,0,0,0,0,0,0,0,-1,1511,498,1.46406,2.40133
294,526,5.57471,-4.59085,0,0,0,0,0,0,0,-1,1518,498,5.57466,4.59084
301,526,4.42786,-3.99677,0,0,0,0,0,0,0,-1,1525,498,4.42788,3.99676
308,526,5.79529,-4.19366,0,0,0,0,0,0,0,-1,1532,498,5.79528,4.19368
315,526,5.09851,-5.20068,0,0,0,0,0,0,0,-1,1539,498,5.09851,5.20068
322,526,5.50708,-4.72348,0,0,0,0,0,0,0,-1,1546,498,5.50713,4.72347
329,526,3.88672,-4.345,0,0,0,0,0,0,0,-1,1553,498,3.88674,4.34501
336,526,4.97876,-2.23828,0,0,0,0,0,0,0,-1,1560,498,4.97877,2.23828
343,526,3.31665,-2.69696,0,0,0,0,0,0,0,-1,1567,498,3.31667,2.69696
350,526,6.06287,-6.12015,0,0,0,0,0,0,0,-1,1574,498,6.06286,6.12014
357,526,5.79736,-7.7854,0,0,0,0,0,0,0,-1,1581,498,5.79734,7.78539
364,526,5.32275,-8.89679,0,0,0,0,0,0,0,-1,1588,498,5.32276,8.89678
371,526,5.05847,-9.0231,0,0,0,0,0,0,0,-1,1595,498,5.05852,9.02311
378,526,4.96558,-8.69604,0,0,0,0,0,0,0,-1,1602,498,4.96561,8.69604
385,526,5.10718,-8.37323,0,0,0,0,0,0,0,-1,1609,498,5.10717,8.37324
392,526,5.17444,-8.00552,-0.00348589,-0.00728361,-0.00545759,0.000393742,-0.0111632,-0.617983,0.00757682,0.0289799,1616,498,5.17441,8.00553
399,526,5.1167,-7.77731,-0.00282757,-0.00611222,-0.00462411,0.000437205,-0.00937699,-0.614764,0.00640204,0.0168513,1623,498,5.11674,7.77732
406,526,5.16528,-7.53836,-0.00227789,-0.00493917,-0.00391411,0.000525583,-0.00774264,-0.621547,0.00534558,0.0122984,1630,498,5.16526,7.53837
413,526,5.1626,-7.32889,-0.00169097,-0.0037416,-0.00309247,0.00054173,-0.0059743,-0.625325,0.00417517,0.0119694,1637,498,5.1626,7.32889
420,526,5.14868,-7.12323,-0.00125378,-0.00272566,-0.00238617,0.000507363,-0.0044868,-0.635817,0.00317387,0.0124942,1644,498,5.14867,7.12322
427,526,5.17847,-6.90326,-0.00103807,-0.00187817,-0.00190335,0.00049103,-0.00340727,-0.676795,0.00245164,0.0135891,1651,498,5.17847,6.90324
434,526,5.1731,-6.68246,-0.000912289,-0.00114924,-0.00150027,0.000474178,-0.0025357,-0.745995,0.00186869,0.012532,1658,498,5.17306,6.68247
441,526,5.15454,-6.457,-0.00080523,-0.000631995,-0.00115499,0.000439617,-0.00187684,-0.822825,0.00142062,0.010785,1665,498,5.15456,6.457
448,526,5.15027,-6.24683,-0.000640271,-0.000195863,-0.000804577,0.00041663,-0.00125276,-0.920127,0.00100331,0.00971959,1672,498,5.15025,6.24682
455,526,5.14368,-6.05154,-0.000533819,0.000118788,-0.000549144,0.00043126,-0.00084629,-1.05347,0.000750455,0.0127465,1679,498,5.14364,6.05156
462,526,5.1532,-5.79807,-0.000343604,8.04378e-05,-0.000444056,0.000360492,-0.000623658,-1.00813,0.000574931,0.0103511,1686,498,5.15319,5.79806
469,526,5.15381,-5.56937,-9.56476e-05,-0.000420591,-0.000486054,0.00025437,-0.000770609,-0.624103,0.000616284,0.00752132,1693,498,5.15386,5.56936
476,526,5.15869,-5.32864,8.89982e-05,-0.00096937,-0.000579099,0.000344283,-0.00122466,-0.415203,0.000952176,0.00934986,1700,498,5.15869,5.32864
483,526,5.1875,-5.06583,0.000321988,-0.00149812,-0.0006814,0.000548818,-0.00172495,-0.32135,0.00137005,0.0114181,1707,498,5.18755,5.06583
490,526,5.23364,-4.81967,0.000469547,-0.00238442,-0.000993762,0.000781484,-0.00269636,-0.304155,0.00210694,0.0204541,1714,498,5.2336,4.81968
497,526,5.13501,-4.68805,0.000679136,-0.00320301,-0.00118978,0.00101476,-0.00353863,-0.274944,0.00276023,0.0251059,1721,498,5.13503,4.68804
504,526,5.10156,-4.35931,0.00139288,-0.00337762,-0.000971725,0.00158322,-0.00356796,-0.19343,0.00304673,0.0289798,1728,498,5.10162,4.3593
511,526,5.22107,-4.1189,0.00271505,-0.00323499,-0.000337964,0.00273419,-0.00325412,-0.0565578,0.00346169,0.0375461,1735,498,5.22101,4.11891
518,526,5.4187,-4.37799,0,0,0,0,0,0,0,-1,1742,498,5.41872,4.37801
525,526,5.19897,-3.81149,0,0,0,0,0,0,0,-1,1749,498,5.19899,3.81149
532,526,3.54285,-2.81274,0,0,0,0,0,0,0,-1,1756,498,3.54284,2.81273
539,526,3.29407,0.932312,0,0,0,0,0,0,0,-1,1763,498,3.2941,-0.93232
546,526,3.36731,1.07721,0,0,0,0,0,0,0,-1,1770,498,3.36735,-1.07719
553,526,3.40796,1.37137,0,0,0,0,0,0,0,-1,1777,498,3.40792,-1.37138
560,526,0,0,0,0,0,0,0,0,0,-1,1784,498,0,0
567,526,0,0,0,0,0,0,0,0,0,-1,1791,498,0,0
574,526,0,0,0,0,0,0,0,0,0,-1,1798,498,0,0
581,526,0,0,0,0,0,0,0,0,0,-1,1805,498,0,0
588,526,0,0,0,0,0,0,0,0,0,-1,1812,498,0,0
595,526,0,0,0,0,0,0,0,0,0,-1,1819,498,0,0
602,526,0,0,0,0,0,0,0,0,0,-1,1826,498,0,0
609,526,0,0,0,0,0,0,0,0,0,-1,1833,498,0,0
616,526,0,0,0,0,0,0,0,0,0,-1,1840,498,0,0
623,526,0,0,0,0,0,0,0,0,0,-1,1847,498,0,0
630,526,0,0,0,0,0,0,0,0,0,-1,1854,498,0,0
637,526,0,0,0,0,0,0,0,0,0,-1,1861,498,0,0
644,526,0,0,0,0,0,0,0,0,0,-1,1868,498,0,0
651,526,0,0,0,0,0,0,0,0,0,-1,1875,498,0,0
658,526,0,0,0,0,0,0,0,0,0,-1,1882,498,0,0
665,526,0,0,0,0,0,0,0,0,0,-1,1889,498,0,0
672,526,0,0,0,0,0,0,0,0,0,-1,1896,498,0,0
679,526,0,0,0,0,0,0,0,0,0,-1,1903,498,0,0
686,526,0,0,0,0,0,0,0,0,0,-1,1910,498,0,0
693,526,0,0,0,0,0,0,0,0,0,-1,1917,498,0,0
700,526,0,0,0,0,0,0,0,0,0,-1,1924,498,0,0
707,526,0,0,0,0,0,0,0,0,0,-1,1931,498,0,0
714,526,0,0,0,0,0,0,0,0,0,-1,1938,498,0,0
721,526,0,0,0,0,0,0,0,0,0,-1,1945,498,0,0
728,526,0,0,0,0,0,0,0,0,0,-1,1952,498,0,0
735,526,0,0,0,0,0,0,0,0,0,-1,1959,498,0,0
742,526,0,0,0,0,0,0,0,0,0,-1,1966,498,0,0
749,526,0,0,0,0,0,0,0,0,0,-1,1973,498,0,0
756,526,0,0,0,0,0,0,0,0,0,-1,1980,498,0,0
763,526,0,0,0,0,0,0,0,0,0,-1,1987,498,0,0
770,526,0,0,0,0,0,0,0,0,0,-1,1994,498,0,0
777,526,0,0,0,0,0,0,0,0,0,-1,2001,498,0,0
784,526,0,0,0,0,0,0,0,0,0,-1,2008,498,0,0
791,526,0,0,0,0,0,0,0,0,0,-1,2015,498,0,0
798,526,0,0,0,0,0,0,0,0,0,-1,2022,498,0,0
805,526,0,0,0,0,0,0,0,0,0,-1,2029,498,0,0
812,526,0,0,0,0,0,0,0,0,0,-1,2036,498,0,0
-700,519,0,0,0,0,0,0,0,0,0,-1,524,505,0,0
-693,519,0,0,0,0,0,0,0,0,0,-1,531,505,0,0
-686,519,0,0,0,0,0,0,0,0,0,-1,538,505,0,0
-679,519,0,0,0,0,0,0,0,0,0,-1,545,505,0,0
-672,519,0,0,0,0,0,0,0,0,0,-1,552,505,0,0
-665,519,0,0,0,0,0,0,0,0,0,-1,559,505,0,0
-658,519,0,0,0,0,0,0,0,0,0,-1,566,505,0,0
-651,519,0,0,0,0,0,0,0,0,0,-1,573,505,0,0
-644,519,0,0,0,0,0,0,0,0,0,-1,580,505,0,0
-637,519,0,0,0,0,0,0,0,0,0,-1,587,505,0,0
-630,519,0,0,0,0,0,0,0,0,0,-1,594,505,0,0
-623,519,0,0,0,0,0,0,0,0,0,-1,601,505,0,0
-616,519,0,0,0,0,0,0,0,0,0,-1,608,505,0,0
-609,519,0,0,0,0,0,0,0,0,0,-1,615,505,0,0
-602,519,0,0,0,0,0,0,0,0,0,-1,622,505,0,0
-595,519,0,0,0,0,0,0,0,0,0,-1,629,505,0,0
-588,519,0,0,0,0,0,0,0,0,0,-1,636,505,0,0
-581,519,0,0,0,0,0,0,0,0,0,-1,643,505,0,0
-574,519,0,0,0,0,0,0,0,0,0,-1,650,505,0,0
-567,519,0,0,0,0,0,0,0,0,0,-1,657,505,0,0
-560,519,0,0,0,0,0,0,0,0,0,-1,664,505,0,0
-553,519,0,0,0,0,0,0,0,0,0,-1,671,505,0,0
-546,519,0,0,0,0,0,0,0,0,0,-1,678,505,0,0
-539,519,0,0,0,0,0,0,0,0,0,-1,685,505,0,0
-532,519,0,0,0,0,0,0,0,0,0,-1,692,505,0,0
-525,519,0,0,0,0,0,0,0,0,0,-1,699,505,0,0
-518,519,0,0,0,0,0,0,0,0,0,-1,706,505,0,0
-511,519,0,0,0,0,0,0,0,0,0,-1,713,505,0,0
-504,519,0,0,0,0,0,0,0,0,0,-1,720,505,0,0
-497,519,0,0,0,0,0,0,0,0,0,-1,727,505,0,0
-490,519,0,0,0,0,0,0,0,0,0,-1,734,505,0,0
-483,519,0,0,0,0,0,0,0,0,0,-1,741,505,0,0
-476,519,0,0,0,0,0,0,0,0,0,-1,748,505,0,0
-469,519,0,0,0,0,0,0,0,0,0,-1,755,505,0,0
-462,519,0,0,0,0,0,0,0,0,0,-1,762,505,0,0
-455,519,0,0,0,0,0,0,0,0,0,-1,769,505,0,0
-448,519,0,0,0,0,0,0,0,0,0,-1,776,505,0,0
-441,519,1.64478,-2.70544,0,0,0,0,0,0,0,-1,783,505,1.64479,2.70544
-434,519,1.67749,-2.85846,0,0,0,0,0,0,0,-1,790,505,1.67747,2.85846
-427,519,-0.949463,-3.06372,0,0,0,0,0,0,0,-1,797,505,-0.949445,3.06371
-420,519,-1.28473,-4.05075,0,0,0,0,0,0,0,-1,804,505,-1.28475,4.05074
-413,519,-1.82922,-3.40952,0,0,0,0,0,0,0,-1,811,505,-1.82921,3.40951
-406,519,-2.14984,-3.47256,0,0,0,0,0,0,0,-1,818,505,-2.14987,3.47256
-399,519,0.225159,-5.24945,0,0,0,0,0,0,0,-1,825,505,0.22514,5.24946
-392,519,-0.614258,-4.90396,0.016554,0.0123146,-0.0165453,0.0311148,-0.0022462,-0.721689,0.021531,0.0496485,832,505,-0.614266,4.90395
-385,519,-0.316223,-5.20474,0.0111814,0.00958283,-0.0125996,0.0230071,-0.00224282,-0.753721,0.0161377,0.0431211,839,505,-0.316211,5.20475
-378,519,0.0446777,-5.65485,0.00745965,0.00701442,-0.00950446,0.0167441,-0.00227003,-0.773689,0.0119912,0.0354915,846,505,0.0446697,5.65485
-371,519,0.213745,-6.0408,0.00496817,0.00501996,-0.00685464,0.0118488,-0.00186063,-0.787287,0.00858684,0.0211046,853,505,0.213743,6.0408
-364,519,0.186829,-6.24036,0.00303125,0.00345915,-0.00488572,0.0081356,-0.0016452,-0.807279,0.0060472,0.0128724,860,505,0.186846,6.24035
-357,519,0.178101,-6.4772,0.00133607,0.00221397,-0.00319526,0.00500029,-0.00145026,-0.853658,0.0039077,0.0103488,867,505,0.178085,6.4772
-350,519,0.178833,-6.69379,0.000417959,0.00142393,-0.00222855,0.00320556,-0.00136366,-0.896389,0.00270855,0.011426,874,505,0.178832,6.69379
-343,519,0.170349,-6.90268,0.000128046,0.000908758,-0.0015606,0.00212708,-0.00109027,-0.90795,0.00188942,0.013717,881,505,0.170341,6.90267
-336,519,0.15448,-7.11426,-1.44399e-05,0.000264671,-0.000851393,0.000987871,-0.000737639,-0.866633,0.000999709,0.013345,888,505,0.154504,7.11424
-329,519,0.156555,-7.32196,8.03003e-05,8.49883e-05,-0.000554582,0.000637231,-0.000471942,-0.787511,0.000642747,0.0119717,895,505,0.156536,7.32193
-322,519,0.167969,-7.54944,0.000271726,7.20159e-05,-0.000533474,0.00071461,-0.000370868,-0.692879,0.000637089,0.0102607,902,505,0.167994,7.54946
-315,519,0.180054,-7.76807,0.000471045,0.000108836,-0.000539598,0.00085912,-0.000279238,-0.623491,0.000685066,0.00865119,909,505,0.180052,7.76804
-308,519,0.16864,-7.95825,0.000864525,-1.40978e-05,-0.00055021,0.00112929,-0.000278864,-0.448502,0.000861003,0.00803845,916,505,0.168631,7.95826
-301,519,0.156738,-8.1676,0.00121657,-0.000240366,-0.000584537,0.00142209,-0.000445894,-0.338108,0.0011265,0.0125829,923,505,0.156711,8.16761
-294,519,0.161316,-8.34418,0.00150124,-0.000689727,-0.000594127,0.00165198,-0.000840466,-0.248473,0.00146422,0.014746,930,505,0.161299,8.3442
-287,519,0.137329,-8.55109,0.00159334,-0.00153,-0.000574399,0.00169563,-0.00163228,-0.176226,0.00192149,0.0106944,937,505,0.137325,8.55106
-280,519,0.150513,-8.72668,0.00130113,-0.00284083,-0.000366174,0.00133325,-0.00287295,-0.0875018,0.00248209,0.0145284,944,505,0.150528,8.72666
-273,519,0.20697,-8.9375,0.00115352,-0.00418925,-0.000267558,0.00116688,-0.00420262,-0.049912,0.00326106,0.0204641,951,505,0.206997,8.93748
-266,519,0.201782,-9.15247,0.00105483,-0.0053501,6.9451e-05,0.00105559,-0.00535085,0.0108417,0.0039662,0.0280642,958,505,0.201808,9.15245
-259,519,0.346741,-9.19733,0.000534589,-0.00674524,0.000508589,0.000569949,-0.0067806,0.0694135,0.00472186,0.045739,965,505,0.346736,9.19735
-252,519,0.408752,-9.3764,0,0,0,0,0,0,0,-1,972,505,0.408739,9.37638
-245,519,0.38446,-9.39923,0,0,0,0,0,0,0,-1,979,505,0.384462,9.39924
-238,519,0.508667,-9.27972,0,0,0,0,0,0,0,-1,986,505,0.508639,9.27975
-231,519,0.0647583,-9.18701,0,0,0,0,0,0,0,-1,993,505,0.0647503,9.18702
-224,519,-0.0494995,-7.97394,0,0,0,0,0,0,0,-1,1000,505,-0.0495123,7.97392
-217,519,-2.97125,-4.84393,0,0,0,0,0,0,0,-1,1007,505,-2.97128,4.84393
-210,519,-2.14398,-4.74774,0,0,0,0,0,0,0,-1,1014,505,-2.14397,4.74775
-203,519,-0.513611,-5.39017,0,0,0,0,0,0,0,-1,1021,505,-0.513585,5.39017
-196,519,-0.374023,-5.41635,0,0,0,0,0,0,0,-1,1028,505,-0.374047,5.41635
-189,519,-0.234497,-5.44254,0,0,0,0,0,0,0,-1,1035,505,-0.234508,5.44253
-182,519,2.76697,-1.19659,0,0,0,0,0,0,0,-1,1042,505,2.76696,1.19661
-175,519,2.31323,-0.960938,0,0,0,0,0,0,0,-1,1049,505,2.31319,0.960941
-168,519,2.01074,-0.721405,0,0,0,0,0,0,0,-1,1056,505,2.01072,0.721407
-161,519,2.32056,-0.522339,0,0,0,0,0,0,0,-1,1063,505,2.32057,0.522328
-154,519,2.55566,0.116669,0,0,0,0,0,0,0,-1,1070,505,2.55563,-0.116661
-147,519,-0.55127,-6.14001,0,0,0,0,0,0,0,-1,1077,505,-0.551252,6.14001
-140,519,0.240601,-7.53503,0,0,0,0,0,0,0,-1,1084,505,0.240653,7.53501
-133,519,2.70911,-4.4516,0,0,0,0,0,0,0,-1,1091,505,2.70915,4.45161
-126,519,0,0,0,0,0,0,0,0,0,-1,1098,505,0,0
-119,519,0,0,0,0,0,0,0,0,0,-1,1105,505,0,0
-112,519,0,0,0,0,0,0,0,0,0,-1,1112,505,0,0
-105,519,0,0,0,0,0,0,0,0,0,-1,1119,505,0,0
-98,519,0,0,0,0,0,0,0,0,0,-1,1126,505,0,0
-91,519,0,0,0,0,0,0,0,0,0,-1,1133,505,0,0
-84,519,0,0,0,0,0,0,0,0,0,-1,1140,505,0,0
-77,519,0,0,0,0,0,0,0,0,0,-1,1147,505,0,0
-70,519,0,0,0,0,0,0,0,0,0,-1,1154,505,0,0
-63,519,0,0,0,0,0,0,0,0,0,-1,1161,505,0,0
-56,519,0,0,0,0,0,0,0,0,0,-1,1168,505,0,0
-49,519,0,0,0,0,0,0,0,0,0,-1,1175,505,0,0
-42,519,0,0,0,0,0,0,0,0,0,-1,1182,505,0,0
-35,519,0,0,0,0,0,0,0,0,0,-1,1189,505,0,0
-28,519,0,0,0,0,0,0,0,0,0,-1,1196,505,0,0
-21,519,0,0,0,0,0,0,0,0,0,-1,1203,505,0,0
-14,519,0,0,0,0,0,0,0,0,0,-1,1210,505,0,0
-7,519,0,0,0,0,0,0,0,0,0,-1,1217,505,0,0
0,519,0,0,0,0,0,0,0,0,0,-1,1224,505,0,0
7,519,0,0,0,0,0,0,0,0,0,-1,1231,505,0,0
14,519,0,0,0,0,0,0,0,0,0,-1,1238,505,0,0
21,519,0,0,0,0,0,0,0,0,0,-1,1245,505,0,0
28,519,0,0,0,0,0,0,0,0,0,-1,1252,505,0,0
35,519,0,0,0,0,0,0,0,0,0,-1,1259,505,0,0
42,519,0,0,0,0,0,0,0,0,0,-1,1266,505,0,0
49,519,0,0,0,0,0,0,0,0,0,-1,1273,505,0,0
56,519,0,0,0,0,0,0,0,0,0,-1,1280,505,0,0
63,519,0,0,0,0,0,0,0,0,0,-1,1287,505,0,0
70,519,0,0,0,0,0,0,0,0,0,-1,1294,505,0,0
77,519,0,0,0,0,0,0,0,0,0,-1,1301,505,0,0
84,519,0,0,0,0,0,0,0,0,0,-1,1308,505,0,0
91,519,0,0,0,0,0,0,0,0,0,-1,1315,505,0,0
98,519,0,0,0,0,0,0,0,0,0,-1,1322,505,0,0
105,519,0,0,0,0,0,0,0,0,0,-1,1329,505,0,0
112,519,0,0,0,0,0,0,0,0,0,-1,1336,505,0,0
119,519,0,0,0,0,0,0,0,0,0,-1,1343,505,0,0
126,519,0,0,0,0,0,0,0,0,0,-1,1350,505,0,0
133,519,0,0,0,0,0,0,0,0,0,-1,1357,505,0,0
140,519,0,0,0,0,0,0,0,0,0,-1,1364,505,0,0
147,519,0,0,0,0,0,0,0,0,0,-1,1371,505,0,0
154,519,0,0,0,0,0,0,0,0,0,-1,1378,505,0,0
161,519,0,0,0,0,0,0,0,0,0,-1,1385,505,0,0
168,519,0,0,0,0,0,0,0,0,0,-1,1392,505,0,0
175,519,0,0,0,0,0,0,0,0,0,-1,1399,505,0,0
182,519,0,0,0,0,0,0,0,0,0,-1,1406,505,0,0
189,519,0,0,0,0,0,0,0,0,0,-1,1413,505,0,0
196,519,0,0,0,0,0,0,0,0,0,-1,1420,505,0,0
203,519,0,0,0,0,0,0,0,0,0,-1,1427,505,0,0
210,519,0,0,0,0,0,0,0,0,0,-1,1434,505,0,0
217,519,0,0,0,0,0,0,0,0,0,-1,1441,505,0,0
224,519,0,0,0,0,0,0,0,0,0,-1,1448,505,0,0
231,519,0,0,0,0,0,0,0,0,0,-1,1455,505,0,0
238,519,0,0,0,0,0,0,0,0,0,-1,1462,505,0,0
245,519,0,0,0,0,0,0,0,0,0,-1,1469,505,0,0
252,519,5.26208,0.0938416,0,0,0,0,0,0,0,-1,1476,505,5.26207,-0.0938493
259,519,6.14246,-1.36441,0,0,0,0,0,0,0,-1,1483,505,6.14241,1.36441
266,519,5.31909,-0.400787,0,0,0,0,0,0,0,-1,1490,505,5.31912,0.400773
273,519,4.02393,0.325531,0,0,0,0,0,0,0,-1,1497,505,4.0239,-0.325522
280,519,4.68848,0.53006,0,0,0,0,0,0,0,-1,1504,505,4.68842,-0.530073
287,519,7.9519,-3.80801,0,0,0,0,0,0,0,-1,1511,505,7.95193,3.808
294,519,6.92273,-3.38889,0,0,0,0,0,0,0,-1,1518,505,6.92268,3.38888
301,519,5.35669,-2.92661,0,0,0,0,0,0,0,-1,1525,505,5.35675,2.9266
308,519,7.37549,-5.64529,0,0,0,0,0,0,0,-1,1532,505,7.3755,5.64529
315,519,6.30029,-4.53754,0,0,0,0,0,0,0,-1,1539,505,6.30024,4.53753
322,519,5.84302,-5.45117,0,0,0,0,0,0,0,-1,1546,505,5.84303,5.45116
329,519,4.92407,0.62384,0,0,0,0,0,0,0,-1,1553,505,4.92403,-0.623832
336,519,3.10095,-0.329285,0,0,0,0,0,0,0,-1,1560,505,3.1009,0.329283
343,519,2.49146,-2.31119,0,0,0,0,0,0,0,-1,1567,505,2.49145,2.31119
350,519,3.47729,-2.22516,0,0,0,0,0,0,0,-1,1574,505,3.47726,2.22515
357,519,4.51917,-4.51691,0,0,0,0,0,0,0,-1,1581,505,4.51914,4.51691
364,519,3.54626,-7.20673,0,0,0,0,0,0,0,-1,1588,505,3.54622,7.20675
371,519,6.12012,-8.30475,0,0,0,0,0,0,0,-1,1595,505,6.12012,8.30476
378,519,5.96411,-8.09314,0,0,0,0,0,0,0,-1,1602,505,5.96413,8.09313
385,519,5.79968,-7.85809,0,0,0,0,0,0,0,-1,1609,505,5.79965,7.85811
392,519,5.58362,-7.72028,-0.00509838,-0.0103158,-0.00782868,0.000544797,-0.015959,-0.624572,0.0108255,0.0456772,1616,505,5.58361,7.7203
399,519,5.37915,-7.68823,-0.00410976,-0.00844717,-0.00657666,0.000646534,-0.0132035,-0.626134,0.00902555,0.0354222,1623,505,5.3791,7.68822
406,519,5.35815,-7.55914,-0.00333976,-0.00665662,-0.0055568,0.000800808,-0.0107972,-0.640381,0.00747937,0.0212357,1630,505,5.35812,7.55917
413,519,5.40918,-7.35828,-0.00251581,-0.00498598,-0.00438226,0.000802087,-0.00830388,-0.648042,0.00582173,0.0127732,1637,505,5.40915,7.3583
420,519,5.38245,-7.11963,-0.00189789,-0.00355573,-0.00336909,0.00074275,-0.00619637,-0.664776,0.00439945,0.0144273,1644,505,5.38249,7.11962
427,519,5.40771,-6.923,-0.00155141,-0.00241332,-0.00265542,0.000707805,-0.00467253,-0.704953,0.00337578,0.0134009,1651,505,5.40769,6.92302
434,519,5.40198,-6.71262,-0.00132449,-0.00142851,-0.00205309,0.000677248,-0.00343025,-0.772735,0.00254283,0.0122388,1658,505,5.40202,6.71261
441,519,5.37256,-6.47455,-0.00110948,-0.000726523,-0.00152997,0.000623908,-0.00245991,-0.847651,0.00188269,0.0117466,1665,505,5.37258,6.47453
448,519,5.36218,-6.25513,-0.000808813,-0.000160706,-0.00102456,0.000589828,-0.00155935,-0.938563,0.00128222,0.00939157,1672,505,5.36223,6.25512
455,519,5.36316,-6.03693,-0.000582261,0.000272044,-0.000628598,0.000604887,-0.000915105,-1.08383,0.000883639,0.0104446,1679,505,5.36313,6.03692
462,519,5.37585,-5.8017,-0.000310473,0.00027367,-0.000419419,0.000492693,-0.000529497,-1.08954,0.000590289,0.00994137,1686,505,5.37585,5.80168
469,519,5.38428,-5.55353,-5.98503e-07,-0.000213132,-0.000379823,0.000287543,-0.000501273,-0.648996,0.000460962,0.0103333,1693,505,5.38434,5.55353
476,519,5.39136,-5.30936,0.000228416,-0.000747773,-0.000404817,0.000374446,-0.000893803,-0.346201,0.000752411,0.0130935,1700,505,5.39135,5.30935
483,519,5.39233,-5.05832,0.000470129,-0.00123096,-0.000449421,0.000581564,-0.00134239,-0.243051,0.00113938,0.0147971,1707,505,5.3923,5.05832
490,519,5.3844,-4.81622,0.000622923,-0.00204045,-0.000690132,0.000791126,-0.00220866,-0.239066,0.00179522,0.0122701,1714,505,5.38442,4.81623
497,519,5.37378,-4.61554,0.000803031,-0.0027686,-0.000822891,0.000983503,-0.00294907,-0.215897,0.00236312,0.013842,1721,505,5.37379,4.61554
504,519,5.35437,-4.37292,0.00142896,-0.00276363,-0.000498613,0.00148744,-0.00282212,-0.116758,0.00252759,0.0144198,1728,505,5.3544,4.37293
511,519,5.37842,-4.11798,0.00256877,-0.002355,0.000264236,0.00258291,-0.00236914,0.0534607,0.00285995,0.0193208,1735,505,5.37845,4.11797
518,519,5.5011,-4.16336,0.00398306,-0.00197203,0.00142638,0.00430708,-0.00229605,0.223372,0.0038708,0.0414316,1742,505,5.50107,4.16337
525,519,5.69519,-4.1586,0,0,0,0,0,0,0,-1,1749,505,5.69517,4.1586
532,519,3.5155,-2.86511,0,0,0,0,0,0,0,-1,1756,505,3.51554,2.8651
539,519,3.30005,0.0229797,0,0,0,0,0,0,0,-1,1763,505,3.30008,-0.0229869
546,519,4.62024,-2.89774,0,0,0,0,0,0,0,-1,1770,505,4.62023,2.89775
553,519,4.14136,0.0667419,0,0,0,0,0,0,0,-1,1777,505,4.14141,-0.0667503
560,519,3.77856,0.279724,0,0,0,0,0,0,0,-1,1784,505,3.77861,-0.279731
567,519,0,0,0,0,0,0,0,0,0,-1,1791,505,0,0
574,519,0,0,0,0,0,0,0,0,0,-1,1798,505,0,0
581,519,0,0,0,0,0,0,0,0,0,-1,1805,505,0,0
588,519,0,0,0,0,0,0,0,0,0,-1,1812,505,0,0
595,519,0,0,0,0,0,0,0,0,0,-1,1819,505,0,0
602,519,0,0,0,0,0,0,0,0,0,-1,1826,505,0,0
609,519,0,0,0,0,0,0,0,0,0,-1,1833,505,0,0
616,519,0,0,0,0,0,0,0,0,0,-1,1840,505,0,0
623,519,0,0,0,0,0,0,0,0,0,-1,1847,505,0,0
630,519,0,0,0,0,0,0,0,0,0,-1,1854,505,0,0
637,519,0,0,0,0,0,0,0,0,0,-1,1861,505,0,0
644,519,0,0,0,0,0,0,0,0,0,-1,1868,505,0,0
651,519,0,0,0,0,0,0,0,0,0,-1,1875,505,0,0
658,519,0,0,0,0,0,0,0,0,0,-1,1882,505,0,0
665,519,0,0,0,0,0,0,0,0,0,-1,1889,505,0,0
672,519,0,0,0,0,0,0,0,0,0,-1,1896,505,0,0
679,519,0,0,0,0,0,0,0,0,0,-1,1903,505,0,0
686,519,0,0,0,0,0,0,0,0,0,-1,1910,505,0,0
693,519,0,0,0,0,0,0,0,0,0,-1,1917,505,0,0
700,519,0,0,0,0,0,0,0,0,0,-1,1924,505,0,0
707,519,0,0,0,0,0,0,0,0,0,-1,1931,505,0,0
714,519,0,0,0,0,0,0,0,0,0,-1,1938,505,0,0
721,519,0,0,0,0,0,0,0,0,0,-1,1945,505,0,0
728,519,0,0,0,0,0,0,0,0,0,-1,1952,505,0,0
735,519,0,0,0,0,0,0,0,0,0,-1,1959,505,0,0
742,519,0,0,0,0,0,0,0,0,0,-1,1966,505,0,0
749,519,0,0,0,0,0,0,0,0,0,-1,1973,505,0,0
756,519,0,0,0,0,0,0,0,0,0,-1,1980,505,0,0
763,519,0,0,0,0,0,0,0,0,0,-1,1987,505,0,0
770,519,0,0,0,0,0,0,0,0,0,-1,1994,505,0,0
777,519,0,0,0,0,0,0,0,0,0,-1,2001,505,0,0
784,519,0,0,0,0,0,0,0,0,0,-1,2008,505,0,0
791,519,0,0,0,0,0,0,0,0,0,-1,2015,505,0,0
798,519,0,0,0,0,0,0,0,0,0,-1,2022,505,0,0
805,519,0,0,0,0,0,0,0,0,0,-1,2029,505,0,0
812,519,0,0,0,0,0,0,0,0,0,-1,2036,505,0,0
-700,512,0,0,0,0,0,0,0,0,0,-1,524,512,0,0
-693,512,0,0,0,0,0,0,0,0,0,-1,531,512,0,0
-686,512,0,0,0,0,0,0,0,0,0,-1,538,512,0,0
-679,512,0,0,0,0,0,0,0,0,0,-1,545,512,0,0
-672,512,0,0,0,0,0,0,0,0,0,-1,552,512,0,0
-665,512,0,0,0,0,0,0,0,0,0,-1,559,512,0,0
-658,512,0,0,0,0,0,0,0,0,0,-1,566,512,0,0
-651,512,0,0,0,0,0,0,0,0,0,-1,573,512,0,0
-644,512,0,0,0,0,0,0,0,0,0,-1,580,512,0,0
-637,512,0,0,0,0,0,0,0,0,0,-1,587,512,0,0
-630,512,0,0,0,0,0,0,0,0,0,-1,594,512,0,0
-623,512,0,0,0,0,0,0,0,0,0,-1,601,512,0,0
-616,512,0,0,0,0,0,0,0,0,0,-1,608,512,0,0
-609,512,0,0,0,0,0,0,0,0,0,-1,615,512,0,0
-602,512,0,0,0,0,0,0,0,0,0,-1,622,512,0,0
-595,512,0,0,0,0,0,0,0,0,0,-1,629,512,0,0
-588,512,0,0,0,0,0,0,0,0,0,-1,636,512,0,0
-581,512,0,0,0,0,0,0,0,0,0,-1,643,512,0,0
-574,512,0,0,0,0,0,0,0,0,0,-1,650,512,0,0
-567,512,0,0,0,0,0,0,0,0,0,-1,657,512,0,0
-560,512,0,0,0,0,0,0,0,0,0,-1,664,512,0,0
-553,512,0,0,0,0,0,0,0,0,0,-1,671,512,0,0
-546,512,0,0,0,0,0,0,0,0,0,-1,678,512,0,0
-539,512,0,0,0,0,0,0,0,0,0,-1,685,512,0,0
-532,512,0,0,0,0,0,0,0,0,0,-1,692,512,0,0
-525,512,0,0,0,0,0,0,0,0,0,-1,699,512,0,0
-518,512,0,0,0,0,0,0,0,0,0,-1,706,512,0,0
-511,512,0,0,0,0,0,0,0,0,0,-1,713,512,0,0
-504,512,0,0,0,0,0,0,0,0,0,-1,720,512,0,0
-497,512,0,0,0,0,0,0,0,0,0,-1,727,512,0,0
-490,512,0,0,0,0,0,0,0,0,0,-1,734,512,0,0
-483,512,0,0,0,0,0,0,0,0,0,-1,741,512,0,0
-476,512,0,0,0,0,0,0,0,0,0,-1,748,512,0,0
-469,512,0,0,0,0,0,0,0,0,0,-1,755,512,0,0
-462,512,0,0,0,0,0,0,0,0,0,-1,762,512,0,0
-455,512,0,0,0,0,0,0,0,0,0,-1,769,512,0,0
-448,512,1.15979,-3.66168,0,0,0,0,0,0,0,-1,776,512,1.15981,3.6617
-441,512,0.877319,-3.48383,0,0,0,0,0,0,0,-1,783,512,0.877305,3.48386
-434,512,0.756165,-3.5448,0,0,0,0,0,0,0,-1,790,512,0.756189,3.54483
-427,512,-1.63092,-4.28064,0,0,0,0,0,0,0,-1,797,512,-1.63092,4.28064
-420,512,-1.33789,-4.37897,0,0,0,0,0,0,0,-1,804,512,-1.33789,4.37896
-413,512,-1.47351,-4.59778,0,0,0,0,0,0,0,-1,811,512,-1.47354,4.59779
-406,512,0.0610352,-4.96515,0,0,0,0,0,0,0,-1,818,512,0.0610568,4.96513
-399,512,0.052063,-5.16235,0.0181278,0.0109681,-0.0162634,0.0312006,-0.00210475,-0.677066,0.0215363,0.0471459,825,512,0.0520499,5.16238
-392,512,0.0302124,-5.41156,0.0133634,0.00932296,-0.0128557,0.0243567,-0.00167034,-0.707463,0.0168222,0.0347224,832,512,0.0302137,5.41153
-385,512,-0.0102539,-5.57135,0.0095553,0.00746843,-0.00992852,0.0184951,-0.00147134,-0.733043,0.0128486,0.017453,839,512,-0.0102517,5.57132
-378,512,-0.0259399,-5.78198,0.00674562,0.00573059,-0.00757948,0.0138346,-0.00135835,-0.751968,0.00970756,0.0147042,846,512,-0.0259134,5.78197
-371,512,-0.012146,-6.02014,0.00464067,0.00425779,-0.00561788,0.0100704,-0.00117191,-0.768366,0.00713636,0.0119241,853,512,-0.012147,6.02013
-364,512,-0.000610352,-6.26135,0.00311182,0.0030405,-0.00409783,0.00717414,-0.00102183,-0.781047,0.00515723,0.00929237,860,512,-0.000585385,6.26135
-357,512,-0.0125732,-6.47308,0.00173934,0.0020703,-0.00277041,0.00468017,-0.000870528,-0.815228,0.00344713,0.0111588,867,512,-0.0125679,6.47311
-350,512,-0.0221558,-6.70575,0.00100036,0.00147266,-0.00204153,0.00329165,-0.000818624,-0.842979,0.00251217,0.0118053,874,512,-0.0221324,6.70577
-343,512,-0.0375977,-6.92322,0.000772359,0.00106452,-0.00153271,0.00245809,-0.000621216,-0.832908,0.00188032,0.0111829,881,512,-0.0375835,6.92323
-336,512,-0.0450439,-7.12567,0.000688974,0.000553777,-0.00101286,0.00163649,-0.000393736,-0.752077,0.0012432,0.0107457,888,512,-0.0450225,7.12566
-329,512,-0.039917,-7.32172,0.000830759,0.00043735,-0.00082713,0.00148425,-0.000216143,-0.668659,0.00106886,0.0118497,895,512,-0.0399447,7.32172
-322,512,-0.0371704,-7.54144,0.00103224,0.000396191,-0.00087678,0.00164689,-0.000218459,-0.611418,0.00117752,0.0102983,902,512,-0.0371802,7.54143
-315,512,-0.0350952,-7.76477,0.00120945,0.000365302,-0.000913171,0.00179337,-0.00021862,-0.568919,0.00127472,0.00978941,909,512,-0.0350982,7.76479
-308,512,-0.0390015,-7.9715,0.00159819,0.00018515,-0.000932697,0.00206175,-0.000278414,-0.461256,0.00147608,0.0104056,916,512,-0.038987,7.97151
-301,512,-0.0340576,-8.16534,0.00192999,-0.000155406,-0.000955722,0.00230172,-0.000527142,-0.370952,0.00173707,0.0152641,923,512,-0.0340291,8.16536
-294,512,-0.0355835,-8.34247,0.00218269,-0.000742385,-0.000943033,0.00246036,-0.00102006,-0.286353,0.00206598,0.0152617,930,512,-0.0355874,8.34244
-287,512,-0.128235,-8.48914,0.00216898,-0.0017469,-0.000872432,0.00235456,-0.00193248,-0.209589,0.00247911,0.0201087,937,512,-0.128236,8.48911
-280,512,0.0336304,-8.72229,0.00173946,-0.00351032,-0.000575766,0.00180187,-0.00357272,-0.107965,0.00315866,0.0269681,944,512,0.0336524,8.72227
-273,512,0.18335,-8.77405,0.00142634,-0.00529656,-0.000361209,0.00144569,-0.00531591,-0.0535228,0.00411145,0.0455458,951,512,0.183354,8.77403
-266,512,-0.0127563,-9.04572,0.000933946,-0.00688312,5.97113e-05,0.000934402,-0.00688358,0.00763798,0.00493013,0.048192,958,512,-0.0127586,9.04571
-259,512,0.169739,-9.32025,0,0,0,0,0,0,0,-1,965,512,0.169726,9.32026
-252,512,1.45941,-3.43475,0,0,0,0,0,0,0,-1,972,512,1.45938,3.43475
-245,512,4.12927,-11.272,0,0,0,0,0,0,0,-1,979,512,4.1293,11.272
-238,512,0.227051,-8.92969,0,0,0,0,0,0,0,-1,986,512,0.227073,8.92968
-231,512,-2.54437,-10.169,0,0,0,0,0,0,0,-1,993,512,-2.54439,10.169
-224,512,-4.84601,-7.52783,0,0,0,0,0,0,0,-1,1000,512,-4.84602,7.52786
-217,512,-7.37274,-3.89563,0,0,0,0,0,0,0,-1,1007,512,-7.37274,3.89561
-210,512,-3.76642,-1.94702,0,0,0,0,0,0,0,-1,1014,512,-3.76641,1.94702
-203,512,-2.48328,-5.19061,0,0,0,0,0,0,0,-1,1021,512,-2.48328,5.19059
-196,512,-1.14929,-4.63202,0,0,0,0,0,0,0,-1,1028,512,-1.14934,4.632
-189,512,0.197998,4.55505,0,0,0,0,0,0,0,-1,1035,512,0.197996,-4.55506
-182,512,2.73938,0.0778503,0,0,0,0,0,0,0,-1,1042,512,2.73944,-0.077852
-175,512,2.29565,0.209808,0,0,0,0,0,0,0,-1,1049,512,2.29565,-0.209813
-168,512,2.09399,-0.302856,0,0,0,0,0,0,0,-1,1056,512,2.09403,0.302826
-161,512,2.76636,0.0921021,0,0,0,0,0,0,0,-1,1063,512,2.76633,-0.0921104
-154,512,3.41382,0.466187,0,0,0,0,0,0,0,-1,1070,512,3.41382,-0.466178
-147,512,0,0,0,0,0,0,0,0,0,-1,1077,512,0,0
-140,512,0,0,0,0,0,0,0,0,0,-1,1084,512,0,0
-133,512,0,0,0,0,0,0,0,0,0,-1,1091,512,0,0
-126,512,0,0,0,0,0,0,0,0,0,-1,1098,512,0,0
-119,512,0,0,0,0,0,0,0,0,0,-1,1105,512,0,0
-112,512,0,0,0,0,0,0,0,0,0,-1,1112,512,0,0
-105,512,0,0,0,0,0,0,0,0,0,-1,1119,512,0,0
-98,512,0,0,0,0,0,0,0,0,0,-1,1126,512,0,0
-91,512,0,0,0,0,0,0,0,0,0,-1,1133,512,0,0
-84,512,0,0,0,0,0,0,0,0,0,-1,1140,512,0,0
-77,512,0,0,0,0,0,0,0,0,0,-1,1147,512,0,0
-70,512,0,0,0,0,0,0,0,0,0,-1,1154,512,0,0
-63,512,0,0,0,0,0,0,0,0,0,-1,1161,512,0,0
-56,512,0,0,0,0,0,0,0,0,0,-1,1168,512,0,0
-49,512,0,0,0,0,0,0,0,0,0,-1,1175,512,0,0
-42,512,0,0,0,0,0,0,0,0,0,-1,1182,512,0,0
-35,512,0,0,0,0,0,0,0,0,0,-1,1189,512,0,0
-28,512,0,0,0,0,0,0,0,0,0,-1,1196,512,0,0
-21,512,0,0,0,0,0,0,0,0,0,-1,1203,512,0,0
-14,512,0,0,0,0,0,0,0,0,0,-1,1210,512,0,0
-7,512,0,0,0,0,0,0,0,0,0,-1,1217,512,0,0
0,512,0,0,0,0,0,0,0,0,0,-1,1224,512,0,0
7,512,0,0,0,0,0,0,0,0,0,-1,1231,512,0,0
14,512,0,0,0,0,0,0,0,0,0,-1,1238,512,0,0
21,512,0,0,0,0,0,0,0,0,0,-1,1245,512,0,0
28,512,0,0,0,0,0,0,0,0,0,-1,1252,512,0,0
35,512,0,0,0,0,0,0,0,0,0,-1,1259,512,0,0
42,512,0,0,0,0,0,0,0,0,0,-1,1266,512,0,0
49,512,0,0,0,0,0,0,0,0,0,-1,1273,512,0,0
56,512,0,0,0,0,0,0,0,0,0,-1,1280,512,0,0
63,512,0,0,0,0,0,0,0,0,0,-1,1287,512,0,0
70,512,0,0,0,0,0,0,0,0,0,-1,1294,512,0,0
77,512,0,0,0,0,0,0,0,0,0,-1,1301,512,0,0
84,512,0,0,0,0,0,0,0,0,0,-1,1308,512,0,0
91,512,0,0,0,0,0,0,0,0,0,-1,1315,512,0,0
98,512,0,0,0,0,0,0,0,0,0,-1,1322,512,0,0
105,512,0,0,0,0,0,0,0,0,0,-1,1329,512,0,0
112,512,0,0,0,0,0,0,0,0,0,-1,1336,512,0,0
119,512,0,0,0,0,0,0,0,0,0,-1,1343,512,0,0
126,512,0,0,0,0,0,0,0,0,0,-1,1350,512,0,0
133,512,0,0,0,0,0,0,0,0,0,-1,1357,512,0,0
140,512,0,0,0,0,0,0,0,0,0,-1,1364,512,0,0
147,512,0,0,0,0,0,0,0,0,0,-1,1371,512,0,0
154,512,0,0,0,0,0,0,0,0,0,-1,1378,512,0,0
161,512,0,0,0,0,0,0,0,0,0,-1,1385,512,0,0
168,512,0,0,0,0,0,0,0,0,0,-1,1392,512,0,0
175,512,0,0,0,0,0,0,0,0,0,-1,1399,512,0,0
182,512,0,0,0,0,0,0,0,0,0,-1,1406,512,0,0
189,512,0,0,0,0,0,0,0,0,0,-1,1413,512,0,0
196,512,0,0,0,0,0,0,0,0,0,-1,1420,512,0,0
203,512,0,0,0,0,0,0,0,0,0,-1,1427,512,0,0
210,512,0,0,0,0,0,0,0,0,0,-1,1434,512,0,0
217,512,0,0,0,0,0,0,0,0,0,-1,1441,512,0,0
224,512,0,0,0,0,0,0,0,0,0,-1,1448,512,0,0
231,512,0,0,0,0,0,0,0,0,0,-1,1455,512,0,0
238,512,0,0,0,0,0,0,0,0,0,-1,1462,512,0,0
245,512,0,0,0,0,0,0,0,0,0,-1,1469,512,0,0
252,512,0,0,0,0,0,0,0,0,0,-1,1476,512,0,0
259,512,0,0,0,0,0,0,0,0,0,-1,1483,512,0,0
266,512,0,0,0,0,0,0,0,0,0,-1,1490,512,0,0
273,512,4.00745,0.618622,0,0,0,0,0,0,0,-1,1497,512,4.00747,-0.618611
280,512,4.49609,0.649841,0,0,0,0,0,0,0,-1,1504,512,4.49612,-0.649834
287,512,4.77234,0.458069,0,0,0,0,0,0,0,-1,1511,512,4.77233,-0.458083
294,512,8.54956,-2.36273,0,0,0,0,0,0,0,-1,1518,512,8.54952,2.36274
301,512,6.302,-1.69092,0,0,0,0,0,0,0,-1,1525,512,6.30196,1.69093
308,512,8.2439,-6.22754,0,0,0,0,0,0,0,-1,1532,512,8.24394,6.22757
315,512,7.53687,-6.04211,0,0,0,0,0,0,0,-1,1539,512,7.53691,6.04211
322,512,6.82983,-5.85663,0,0,0,0,0,0,0,-1,1546,512,6.82988,5.85666
329,512,4.38147,-0.329651,0,0,0,0,0,0,0,-1,1553,512,4.38144,0.329662
336,512,4.41467,-0.741455,0,0,0,0,0,0,0,-1,1560,512,4.41467,0.741442
343,512,4.44727,-1.21667,0,0,0,0,0,0,0,-1,1567,512,4.44732,1.21666
350,512,4.55469,-1.65082,0,0,0,0,0,0,0,-1,1574,512,4.5547,1.65083
357,512,5.79993,-2.67456,0,0,0,0,0,0,0,-1,1581,512,5.79991,2.67454
364,512,5.18298,-6.80133,0,0,0,0,0,0,0,-1,1588,512,5.18296,6.80132
371,512,5.28467,-7.69269,0,0,0,0,0,0,0,-1,1595,512,5.28464,7.69269
378,512,6.1261,-7.64789,0,0,0,0,0,0,0,-1,1602,512,6.12606,7.64788
385,512,5.95251,-7.37805,0,0,0,0,0,0,0,-1,1609,512,5.9525,7.37805
392,512,5.77844,-7.40125,0,0,0,0,0,0,0,-1,1616,512,5.7784,7.40123
399,512,5.70398,-7.20215,-0.00572442,-0.0116385,-0.00906942,0.000857853,-0.0182208,-0.62781,0.012443,0.0494809,1623,512,5.70393,7.20217
406,512,5.62659,-7.38513,-0.00468132,-0.00893104,-0.00762302,0.00110744,-0.0147198,-0.649477,0.0102024,0.0395797,1630,512,5.6266,7.38511
413,512,5.57263,-7.42328,-0.0037246,-0.00648175,-0.00611194,0.00116231,-0.0113687,-0.674477,0.00799476,0.0303106,1637,512,5.57261,7.42326
420,512,5.65417,-7.16876,-0.00295513,-0.00453197,-0.0047978,0.0011186,-0.00860571,-0.703961,0.00614404,0.0175218,1644,512,5.65419,7.16879
427,512,5.6488,-6.93481,-0.00246119,-0.00303031,-0.00380193,0.00106681,-0.00655831,-0.748045,0.00476776,0.014047,1651,512,5.64879,6.93484
434,512,5.61902,-6.7074,-0.00205072,-0.00170129,-0.00290058,0.00102983,-0.00478184,-0.81548,0.00358087,0.0109284,1658,512,5.61903,6.70737
441,512,5.59302,-6.48871,-0.00163812,-0.000772748,-0.00211488,0.000953251,-0.00336412,-0.886301,0.00261898,0.0125061,1665,512,5.59301,6.48868
448,512,5.57715,-6.26233,-0.00112137,-5.59777e-05,-0.00138216,0.000892587,-0.00206994,-0.969331,0.00175486,0.00874134,1672,512,5.57715,6.26232
455,512,5.58813,-6.0307,-0.000697127,0.000496693,-0.000772671,0.000876165,-0.0010766,-1.11428,0.00112941,0.00835903,1679,512,5.58813,6.03073
462,512,5.60181,-5.79474,-0.000270951,0.000537814,-0.000389275,0.000694733,-0.000427871,-1.18761,0.000654212,0.00909471,1686,512,5.60176,5.79472
469,512,5.59143,-5.5448,0.000163133,8.03397e-05,-0.000206401,0.000332247,-8.87753e-05,-0.68643,0.000256268,0.0111265,1693,512,5.59148,5.54483
476,512,5.5885,-5.30859,0.000487618,-0.000429929,-0.000119263,0.000502866,-0.000445178,-0.127165,0.000547691,0.0147527,1700,512,5.58856,5.30862
483,512,5.61194,-5.06909,0.000768058,-0.00086795,-8.66536e-05,0.000772635,-0.000872527,-0.0527697,0.000950418,0.0134458,1707,512,5.61188,5.06908
490,512,5.61084,-4.81201,0.000930121,-0.00159653,-0.000254354,0.000955472,-0.00162189,-0.09934,0.00150453,0.0102756,1714,512,5.61079,4.81203
497,512,5.60803,-4.58398,0.00105887,-0.00224368,-0.00036033,0.00109773,-0.00228254,-0.107422,0.00199116,0.011129,1721,512,5.60802,4.58397
504,512,5.60352,-4.33728,0.00157855,-0.00212629,-1.51888e-05,0.00157861,-0.00212635,-0.00409964,0.00214684,0.0119037,1728,512,5.60347,4.33728
511,512,5.59033,-4.07037,0.0025183,-0.00153972,0.000760269,0.00265606,-0.00167748,0.179254,0.00252314,0.0124941,1735,512,5.59034,4.07038
518,512,5.64087,-3.87793,0.00343334,-0.000767553,0.00168811,0.00402763,-0.00136184,0.338494,0.00323601,0.0212063,1742,512,5.64083,3.87795
525,512,5.42664,-3.57196,0,0,0,0,0,0,0,-1,1749,512,5.42666,3.57194
532,512,5.41418,-2.95428,0,0,0,0,0,0,0,-1,1756,512,5.4142,2.95429
539,512,4.39929,-3.11737,0,0,0,0,0,0,0,-1,1763,512,4.3993,3.11735
546,512,2.77551,-0.66449,0,0,0,0,0,0,0,-1,1770,512,2.77548,0.664503
553,512,3.927,-0.448853,0,0,0,0,0,0,0,-1,1777,512,3.92704,0.448843
560,512,3.55762,-0.201233,0,0,0,0,0,0,0,-1,1784,512,3.55768,0.201259
567,512,3.09045,0.191193,0,0,0,0,0,0,0,-1,1791,512,3.09045,-0.191203
574,512,0,0,0,0,0,0,0,0,0,-1,1798,512,0,0
581,512,0,0,0,0,0,0,0,0,0,-1,1805,512,0,0
588,512,0,0,0,0,0,0,0,0,0,-1,1812,512,0,0
595,512,0,0,0,0,0,0,0,0,0,-1,1819,512,0,0
602,512,0,0,0,0,0,0,0,0,0,-1,1826,512,0,0
609,512,0,0,0,0,0,0,0,0,0,-1,1833,512,0,0
616,512,0,0,0,0,0,0,0,0,0,-1,1840,512,0,0
623,512,0,0,0,0,0,0,0,0,0,-1,1847,512,0,0
630,512,0,0,0,0,0,0,0,0,0,-1,1854,512,0,0
637,512,0,0,0,0,0,0,0,0,0,-1,1861,512,0,0
644,512,0,0,0,0,0,0,0,0,0,-1,1868,512,0,0
651,512,0,0,0,0,0,0,0,0,0,-1,1875,512,0,0
658,512,0,0,0,0,0,0,0,0,0,-1,1882,512,0,0
665,512,0,0,0,0,0,0,0,0,0,-1,1889,512,0,0
672,512,0,0,0,0,0,0,0,0,0,-1,1896,512,0,0
679,512,0,0,0,0,0,0,0,0,0,-1,1903,512,0,0
686,512,0,0,0,0,0,0,0,0,0,-1,1910,512,0,0
693,512,0,0,0,0,0,0,0,0,0,-1,1917,512,0,0
700,512,0,0,0,0,0,0,0,0,0,-1,1924,512,0,0
707,512,0,0,0,0,0,0,0,0,0,-1,1931,512,0,0
714,512,0,0,0,0,0,0,0,0,0,-1,1938,512,0,0
721,512,0,0,0,0,0,0,0,0,0,-1,1945,512,0,0
728,512,0,0,0,0,0,0,0,0,0,-1,1952,512,0,0
735,512,0,0,0,0,0,0,0,0,0,-1,1959,512,0,0
742,512,0,0,0,0,0,0,0,0,0,-1,1966,512,0,0
749,512,0,0,0,0,0,0,0,0,0,-1,1973,512,0,0
756,512,0,0,0,0,0,0,0,0,0,-1,1980,512,0,0
763,512,0,0,0,0,0,0,0,0,0,-1,1987,512,0,0
770,512,0,0,0,0,0,0,0,0,0,-1,1994,512,0,0
777,512,0,0,0,0,0,0,0,0,0,-1,2001,512,0,0
784,512,0,0,0,0,0,0,0,0,0,-1,2008,512,0,0
791,512,0,0,0,0,0,0,0,0,0,-1,2015,512,0,0
798,512,0,0,0,0,0,0,0,0,0,-1,2022,512,0,0
805,512,0,0,0,0,0,0,0,0,0,-1,2029,512,0,0
812,512,0,0,0,0,0,0,0,0,0,-1,2036,512,0,0
-700,505,0,0,0,0,0,0,0,0,0,-1,524,519,0,0
-693,505,0,0,0,0,0,0,0,0,0,-1,531,519,0,0
-686,505,0,0,0,0,0,0,0,0,0,-1,538,519,0,0
-679,505,0,0,0,0,0,0,0,0,0,-1,545,519,0,0
-672,505,0,0,0,0,0,0,0,0,0,-1,552,519,0,0
-665,505,0,0,0,0,0,0,0,0,0,-1,559,519,0,0
-658,505,0,0,0,0,0,0,0,0,0,-1,566,519,0,0
-651,505,0,0,0,0,0,0,0,0,0,-1,573,519,0,0
-644,505,0,0,0,0,0,0,0,0,0,-1,580,519,0,0
-637,505,0,0,0,0,0,0,0,0,0,-1,587,519,0,0
-630,505,0,0,0,0,0,0,0,0,0,-1,594,519,0,0
-623,505,0,0,0,0,0,0,0,0,0,-1,601,519,0,0
-616,505,0,0,0,0,0,0,0,0,0,-1,608,519,0,0
-609,505,0,0,0,0,0,0,0,0,0,-1,615,519,0,0
-602,505,0,0,0,0,0,0,0,0,0,-1,622,519,0,0
-595,505,0,0,0,0,0,0,0,0,0,-1,629,519,0,0
-588,505,0,0,0,0,0,0,0,0,0,-1,636,519,0,0
-581,505,0,0,0,0,0,0,0,0,0,-1,643,519,0,0
-574,505,0,0,0,0,0,0,0,0,0,-1,650,519,0,0
-567,505,0,0,0,0,0,0,0,0,0,-1,657,519,0,0
-560,505,0,0,0,0,0,0,0,0,0,-1,664,519,0,0
-553,505,0,0,0,0,0,0,0,0,0,-1,671,519,0,0
-546,505,0,0,0,0,0,0,0,0,0,-1,678,519,0,0
-539,505,0,0,0,0,0,0,0,0,0,-1,685,519,0,0
-532,505,0,0,0,0,0,0,0,0,0,-1,692,519,0,0
-525,505,0,0,0,0,0,0,0,0,0,-1,699,519,0,0
-518,505,0,0,0,0,0,0,0,0,0,-1,706,519,0,0
-511,505,0,0,0,0,0,0,0,0,0,-1,713,519,0,0
-504,505,0,0,0,0,0,0,0,0,0,-1,720,519,0,0
-497,505,0,0,0,0,0,0,0,0,0,-1,727,519,0,0
-490,505,0,0,0,0,0,0,0,0,0,-1,734,519,0,0
-483,505,0,0,0,0,0,0,0,0,0,-1,741,519,0,0
-476,505,0,0,0,0,0,0,0,0,0,-1,748,519,0,0
-469,505,0,0,0,0,0,0,0,0,0,-1,755,519,0,0
-462,505,0,0,0,0,0,0,0,0,0,-1,762,519,0,0
-455,505,0.12384,-4.06439,0,0,0,0,0,0,0,-1,769,519,0.123847,4.06437
-448,505,0.147827,-4.17816,0,0,0,0,0,0,0,-1,776,519,0.147853,4.17819
-441,505,0.145325,-4.2962,0,0,0,0,0,0,0,-1,783,519,0.145344,4.2962
-434,505,-0.144592,-3.50854,0,0,0,0,0,0,0,-1,790,519,-0.144573,3.50856
-427,505,-1.66138,-4.58167,0,0,0,0,0,0,0,-1,797,519,-1.66135,4.58165
-420,505,-1.37573,-4.68701,0,0,0,0,0,0,0,-1,804,519,-1.37573,4.68702
-413,505,-0.188721,-4.82477,0,0,0,0,0,0,0,-1,811,519,-0.188748,4.82478
-406,505,-0.312988,-4.91022,0.0182371,0.00891984,-0.0151242,0.0294039,-0.00224698,-0.635997,0.0203929,0.0474227,818,519,-0.31299,4.91023
-399,505,-0.110168,-5.06158,0.0139939,0.008066,-0.0124755,0.0238527,-0.00179278,-0.668769,0.0165318,0.0406742,825,519,-0.110188,5.06156
-392,505,-0.137329,-5.32306,0.0105012,0.00715658,-0.00987758,0.018847,-0.00118925,-0.701541,0.0129793,0.0200137,832,519,-0.137305,5.32306
-385,505,-0.204468,-5.5697,0.00776275,0.00579353,-0.00761611,0.0144576,-0.000901347,-0.721115,0.00995248,0.00939336,839,519,-0.204464,5.56968
-378,505,-0.231567,-5.79962,0.00570148,0.00454714,-0.00591613,0.0110685,-0.000819908,-0.736773,0.00766695,0.0114501,846,519,-0.231581,5.79964
-371,505,-0.221924,-6.04492,0.00412747,0.00339336,-0.00451995,0.00829525,-0.000774419,-0.744883,0.00580555,0.0142461,853,519,-0.221903,6.04492
-364,505,-0.22876,-6.26428,0.0029912,0.0023617,-0.00343116,0.00612202,-0.000769111,-0.739659,0.00436038,0.0144073,860,519,-0.228782,6.26425
-357,505,-0.222412,-6.47162,0.00196596,0.00152949,-0.00248722,0.0042445,-0.000749052,-0.741639,0.00310957,0.0119902,867,519,-0.222391,6.47162
-350,505,-0.247192,-6.69592,0.00144157,0.00101502,-0.00204159,0.003281,-0.000824409,-0.733355,0.00250772,0.0119471,874,519,-0.24718,6.69591
-343,505,-0.254822,-6.92078,0.00130258,0.000645698,-0.00175257,0.00275722,-0.000808936,-0.692769,0.00215891,0.00927988,881,519,-0.254836,6.92077
-336,505,-0.250916,-7.1181,0.0012991,0.000249006,-0.00150095,0.00236418,-0.000816078,-0.617146,0.00190726,0.0102509,888,519,-0.250886,7.11808
-329,505,-0.253906,-7.31689,0.00150661,0.000215553,-0.00150261,0.00249649,-0.000774326,-0.582516,0.00197373,0.0131329,895,519,-0.253885,7.31688
-322,505,-0.258911,-7.53833,0.00173648,0.000198322,-0.00168203,0.00281692,-0.000882115,-0.570972,0.00223089,0.014625,902,519,-0.258915,7.53833
-315,505,-0.259338,-7.76874,0.00189622,0.000166194,-0.00179298,0.00302194,-0.00095953,-0.560646,0.0023993,0.0126831,909,519,-0.259343,7.76872
-308,505,-0.255981,-7.96582,0.00226161,2.18359e-05,-0.00184786,0.00330244,-0.001019,-0.512972,0.00260851,0.0117985,916,519,-0.255986,7.96581
-301,505,-0.219177,-8.17487,0.00252571,-0.000317442,-0.00187121,0.00345409,-0.00124582,-0.460555,0.00281156,0.017487,923,519,-0.219201,8.17484
-294,505,-0.272705,-8.177,0.00266662,-0.000881117,-0.00185918,0.00346241,-0.00167691,-0.404438,0.00302629,0.0296108,930,519,-0.272734,8.177
-287,505,-0.307495,-8.44226,0.00251854,-0.00160627,-0.00165242,0.00309886,-0.00218659,-0.337739,0.00306667,0.0405748,937,519,-0.30751,8.44228
-280,505,-0.085144,-8.90991,0,0,0,0,0,0,0,-1,944,519,-0.0851377,8.9099
-273,505,0.143677,-8.86047,0,0,0,0,0,0,0,-1,951,519,0.1437,8.86047
-266,505,-0.036377,-9.07922,0,0,0,0,0,0,0,-1,958,519,-0.0364055,9.0792
-259,505,0.10321,-6.69824,0,0,0,0,0,0,0,-1,965,519,0.103235,6.69826
-252,505,6.82312,-15.6972,0,0,0,0,0,0,0,-1,972,519,6.82314,15.6972
-245,505,4.26727,-12.9861,0,0,0,0,0,0,0,-1,979,519,4.2673,12.9861
-238,505,1.67432,-11.2307,0,0,0,0,0,0,0,-1,986,519,1.67429,11.2307
-231,505,-0.958435,-8.3075,0,0,0,0,0,0,0,-1,993,519,-0.958421,8.30751
-224,505,-3.69653,-5.12732,0,0,0,0,0,0,0,-1,1000,519,-3.69653,5.12733
-217,505,-6.34302,-1.65533,0,0,0,0,0,0,0,-1,1007,519,-6.34299,1.65535
-210,505,-3.06128,-0.396301,0,0,0,0,0,0,0,-1,1014,519,-3.06129,0.396294
-203,505,-4.26465,2.03607,0,0,0,0,0,0,0,-1,1021,519,-4.26462,-2.03606
-196,505,-5.47595,4.27295,0,0,0,0,0,0,0,-1,1028,519,-5.47597,-4.27292
-189,505,1.51526,5.56207,0,0,0,0,0,0,0,-1,1035,519,1.51523,-5.56209
-182,505,2.97815,7.5097,0,0,0,0,0,0,0,-1,1042,519,2.97812,-7.5097
-175,505,-2.38416,-2.17548,0,0,0,0,0,0,0,-1,1049,519,-2.38411,2.1755
-168,505,0,0,0,0,0,0,0,0,0,-1,1056,519,0,0
-161,505,0,0,0,0,0,0,0,0,0,-1,1063,519,0,0
-154,505,0,0,0,0,0,0,0,0,0,-1,1070,519,0,0
-147,505,0,0,0,0,0,0,0,0,0,-1,1077,519,0,0
-140,505,0,0,0,0,0,0,0,0,0,-1,1084,519,0,0
-133,505,0,0,0,0,0,0,0,0,0,-1,1091,519,0,0
-126,505,0,0,0,0,0,0,0,0,0,-1,1098,519,0,0
-119,505,0,0,0,0,0,0,0,0,0,-1,1105,519,0,0
-112,505,0,0,0,0,0,0,0,0,0,-1,1112,519,0,0
-105,505,0,0,0,0,0,0,0,0,0,-1,1119,519,0,0
-98,505,0,0,0,0,0,0,0,0,0,-1,1126,519,0,0
-91,505,0,0,0,0,0,0,0,0,0,-1,1133,519,0,0
-84,505,0,0,0,0,0,0,0,0,0,-1,1140,519,0,0
-77,505,0,0,0,0,0,0,0,0,0,-1,1147,519,0,0
-70,505,0,0,0,0,0,0,0,0,0,-1,1154,519,0,0
-63,505,0,0,0,0,0,0,0,0,0,-1,1161,519,0,0
-56,505,0,0,0,0,0,0,0,0,0,-1,1168,519,0,0
-49,505,0,0,0,0,0,0,0,0,0,-1,1175,519,0,0
-42,505,0,0,0,0,0,0,0,0,0,-1,1182,519,0,0
-35,505,0,0,0,0,0,0,0,0,0,-1,1189,519,0,0
-28,505,0,0,0,0,0,0,0,0,0,-1,1196,519,0,0
-21,505,0,0,0,0,0,0,0,0,0,-1,1203,519,0,0
-14,505,0,0,0,0,0,0,0,0,0,-1,1210,519,0,0
-7,505,0,0,0,0,0,0,0,0,0,-1,1217,519,0,0
0,505,0,0,0,0,0,0,0,0,0,-1,1224,519,0,0
7,505,0,0,0,0,0,0,0,0,0,-1,1231,519,0,0
14,505,0,0,0,0,0,0,0,0,0,-1,1238,519,0,0
21,505,0,0,0,0,0,0,0,0,0,-1,1245,519,0,0
28,505,0,0,0,0,0,0,0,0,0,-1,1252,519,0,0
35,505,0,0,0,0,0,0,0,0,0,-1,1259,519,0,0
42,505,0,0,0,0,0,0,0,0,0,-1,1266,519,0,0
49,505,0,0,0,0,0,0,0,0,0,-1,1273,519,0,0
56,505,0,0,0,0,0,0,0,0,0,-1,1280,519,0,0
63,505,0,0,0,0,0,0,0,0,0,-1,1287,519,0,0
70,505,0,0,0,0,0,0,0,0,0,-1,1294,519,0,0
77,505,0,0,0,0,0,0,0,0,0,-1,1301,519,0,0
84,505,0,0,0,0,0,0,0,0,0,-1,1308,519,0,0
91,505,0,0,0,0,0,0,0,0,0,-1,1315,519,0,0
98,505,0,0,0,0,0,0,0,0,0,-1,1322,519,0,0
105,505,0,0,0,0,0,0,0,0,0,-1,1329,519,0,0
112,505,0,0,0,0,0,0,0,0,0,-1,1336,519,0,0
119,505,0,0,0,0,0,0,0,0,0,-1,1343,519,0,0
126,505,0,0,0,0,0,0,0,0,0,-1,1350,519,0,0
133,505,0,0,0,0,0,0,0,0,0,-1,1357,519,0,0
140,505,0,0,0,0,0,0,0,0,0,-1,1364,519,0,0
147,505,0,0,0,0,0,0,0,0,0,-1,1371,519,0,0
154,505,0,0,0,0,0,0,0,0,0,-1,1378,519,0,0
161,505,0,0,0,0,0,0,0,0,0,-1,1385,519,0,0
168,505,0,0,0,0,0,0,0,0,0,-1,1392,519,0,0
175,505,0,0,0,0,0,0,0,0,0,-1,1399,519,0,0
182,505,0,0,0,0,0,0,0,0,0,-1,1406,519,0,0
189,505,0,0,0,0,0,0,0,0,0,-1,1413,519,0,0
196,505,0,0,0,0,0,0,0,0,0,-1,1420,519,0,0
203,505,0,0,0,0,0,0,0,0,0,-1,1427,519,0,0
210,505,0,0,0,0,0,0,0,0,0,-1,1434,519,0,0
217,505,0,0,0,0,0,0,0,0,0,-1,1441,519,0,0
224,505,0,0,0,0,0,0,0,0,0,-1,1448,519,0,0
231,505,0,0,0,0,0,0,0,0,0,-1,1455,519,0,0
238,505,0,0,0,0,0,0,0,0,0,-1,1462,519,0,0
245,505,0,0,0,0,0,0,0,0,0,-1,1469,519,0,0
252,505,0,0,0,0,0,0,0,0,0,-1,1476,519,0,0
259,505,0,0,0,0,0,0,0,0,0,-1,1483,519,0,0
266,505,0,0,0,0,0,0,0,0,0,-1,1490,519,0,0
273,505,0,0,0,0,0,0,0,0,0,-1,1497,519,0,0
280,505,0,0,0,0,0,0,0,0,0,-1,1504,519,0,0
287,505,4.39478,0.499512,0,0,0,0,0,0,0,-1,1511,519,4.39476,-0.499506
294,505,4.88867,0.0822754,0,0,0,0,0,0,0,-1,1518,519,4.88871,-0.0822748
301,505,4.82153,-0.0704346,0,0,0,0,0,0,0,-1,1525,519,4.82156,0.0704312
308,505,4.67761,-0.29187,0,0,0,0,0,0,0,-1,1532,519,4.67762,0.291845
315,505,8.44055,-6.54352,0,0,0,0,0,0,0,-1,1539,519,8.44059,6.54349
322,505,4.78955,-0.594116,0,0,0,0,0,0,0,-1,1546,519,4.78957,0.594096
329,505,5.16321,0.434631,0,0,0,0,0,0,0,-1,1553,519,5.16316,-0.434614
336,505,4.94495,-0.920471,0,0,0,0,0,0,0,-1,1560,519,4.945,0.920495
343,505,5.01855,-1.4823,0,0,0,0,0,0,0,-1,1567,519,5.01851,1.48227
350,505,5.33154,-1.77838,0,0,0,0,0,0,0,-1,1574,519,5.33152,1.77838
357,505,5.56567,-1.9425,0,0,0,0,0,0,0,-1,1581,519,5.56562,1.94248
364,505,5.85205,-2.6579,0,0,0,0,0,0,0,-1,1588,519,5.85211,2.65788
371,505,5.88477,-7.00922,0,0,0,0,0,0,0,-1,1595,519,5.88473,7.00924
378,505,5.44104,-7.10162,0,0,0,0,0,0,0,-1,1602,519,5.44099,7.10162
385,505,4.80798,-6.50781,0,0,0,0,0,0,0,-1,1609,519,4.80793,6.50782
392,505,6.49414,-6.92596,0,0,0,0,0,0,0,-1,1616,519,6.4941,6.92598
399,505,6.24585,-6.98474,0,0,0,0,0,0,0,-1,1623,519,6.2459,6.98475
406,505,5.93152,-6.9671,0,0,0,0,0,0,0,-1,1630,519,5.93153,6.9671
413,505,5.72913,-7.53595,0,0,0,0,0,0,0,-1,1637,519,5.72917,7.53597
420,505,5.89612,-7.21552,-0.00440336,-0.00558217,-0.00641213,0.00144639,-0.0114319,-0.739567,0.00814633,0.0341321,1644,519,5.89613,7.21554
427,505,5.86438,-6.94348,-0.00376572,-0.00363993,-0.00512607,0.00142363,-0.00882928,-0.791533,0.00641362,0.0139276,1651,519,5.86442,6.9435
434,505,5.83801,-6.70282,-0.00314893,-0.00191622,-0.00393927,0.00145462,-0.00651977,-0.863001,0.00490384,0.0100976,1658,519,5.83805,6.70281
441,505,5.82971,-6.46564,-0.00253237,-0.000735042,-0.00292946,0.0014305,-0.00469791,-0.934225,0.00370207,0.0100715,1665,519,5.82977,6.46566
448,505,5.8269,-6.24731,-0.00181048,0.000144664,-0.0020179,0.00140931,-0.00307513,-1.01096,0.00264797,0.00936108,1672,519,5.82685,6.24732
455,505,5.83691,-6.02594,-0.00120748,0.000808746,-0.00124607,0.00140344,-0.00180218,-1.12551,0.00185553,0.00980523,1679,519,5.83694,6.02597
462,505,5.8324,-5.78766,-0.000650656,0.000884824,-0.000737376,0.00118158,-0.00094741,-1.18818,0.00123165,0.0102716,1686,519,5.83246,5.78768
469,505,5.81494,-5.54199,-0.000111431,0.000476703,-0.000444657,0.000715735,-0.000350463,-1.07755,0.000627496,0.0109831,1693,519,5.81492,5.54198
476,505,5.80798,-5.30548,0.000307407,2.20486e-06,-0.000264918,0.000460532,-0.000150921,-0.524094,0.000367799,0.0118765,1700,519,5.80802,5.30546
483,505,5.8313,-5.07654,0.000643388,-0.000390796,-0.000154492,0.000665973,-0.000413381,-0.145164,0.000628828,0.0123679,1707,519,5.83135,5.07651
490,505,5.83862,-4.82452,0.000857191,-0.00102862,-0.00022113,0.000882773,-0.0010542,-0.115179,0.00111977,0.0113187,1714,519,5.83867,4.82454
497,505,5.82507,-4.59149,0.000986488,-0.0016033,-0.000270801,0.0010145,-0.00163132,-0.103079,0.00154134,0.0113522,1721,519,5.82511,4.59148
504,505,5.82776,-4.33728,0.00145227,-0.00141551,0.000105212,0.00145612,-0.00141936,0.0366219,0.00166021,0.0117101,1728,519,5.82775,4.33727
511,505,5.81799,-4.0824,0.00230527,-0.000720972,0.000925691,0.00256597,-0.000981671,0.274517,0.00211522,0.0133445,1735,519,5.81802,4.08238
518,505,5.88428,-3.87738,0.00305136,0.000182896,0.00178306,0.00390543,-0.00067117,0.446699,0.00285377,0.0258679,1742,519,5.88431,3.87738
525,505,5.68799,-3.71204,0.00427998,0.00182222,0.00320932,0.00648765,-0.000385453,0.602554,0.00445914,0.0366938,1749,519,5.68796,3.71205
532,505,5.69397,-3.29352,0.00630054,0.00456746,0.00558297,0.0110838,-0.000215819,0.708407,0.00746219,0.0442416,1756,519,5.69396,3.29354
539,505,5.75598,-2.9422,0,0,0,0,0,0,0,-1,1763,519,5.75593,2.9422
546,505,4.69727,-1.47705,0,0,0,0,0,0,0,-1,1770,519,4.69723,1.47703
553,505,2.82837,0.162659,0,0,0,0,0,0,0,-1,1777,519,2.82841,-0.162672
560,505,3.66223,-0.479797,0,0,0,0,0,0,0,-1,1784,519,3.66219,0.47982
567,505,4.65271,-0.950256,0,0,0,0,0,0,0,-1,1791,519,4.65274,0.95028
574,505,5.54443,-1.19977,0,0,0,0,0,0,0,-1,1798,519,5.54443,1.19974
581,505,0,0,0,0,0,0,0,0,0,-1,1805,519,0,0
588,505,0,0,0,0,0,0,0,0,0,-1,1812,519,0,0
595,505,0,0,0,0,0,0,0,0,0,-1,1819,519,0,0
602,505,0,0,0,0,0,0,0,0,0,-1,1826,519,0,0
609,505,0,0,0,0,0,0,0,0,0,-1,1833,519,0,0
616,505,0,0,0,0,0,0,0,0,0,-1,1840,519,0,0
623,505,0,0,0,0,0,0,0,0,0,-1,1847,519,0,0
630,505,0,0,0,0,0,0,0,0,0,-1,1854,519,0,0
637,505,0,0,0,0,0,0,0,0,0,-1,1861,519,0,0
644,505,0,0,0,0,0,0,0,0,0,-1,1868,519,0,0
651,505,0,0,0,0,0,0,0,0,0,-1,1875,519,0,0
658,505,0,0,0,0,0,0,0,0,0,-1,1882,519,0,0
665,505,0,0,0,0,0,0,0,0,0,-1,1889,519,0,0
672,505,0,0,0,0,0,0,0,0,0,-1,1896,519,0,0
679,505,0,0,0,0,0,0,0,0,0,-1,1903,519,0,0
686,505,0,0,0,0,0,0,0,0,0,-1,1910,519,0,0
693,505,0,0,0,0,0,0,0,0,0,-1,1917,519,0,0
700,505,0,0,0,0,0,0,0,0,0,-1,1924,519,0,0
707,505,0,0,0,0,0,0,0,0,0,-1,1931,519,0,0
714,505,0,0,0,0,0,0,0,0,0,-1,1938,519,0,0
721,505,0,0,0,0,0,0,0,0,0,-1,1945,519,0,0
728,505,0,0,0,0,0,0,0,0,0,-1,1952,519,0,0
735,505,0,0,0,0,0,0,0,0,0,-1,1959,519,0,0
742,505,0,0,0,0,0,0,0,0,0,-1,1966,519,0,0
749,505,0,0,0,0,0,0,0,0,0,-1,1973,519,0,0
756,505,0,0,0,0,0,0,0,0,0,-1,1980,519,0,0
763,505,0,0,0,0,0,0,0,0,0,-1,1987,519,0,0
770,505,0,0,0,0,0,0,0,0,0,-1,1994,519,0,0
777,505,0,0,0,0,0,0,0,0,0,-1,2001,519,0,0
784,505,0,0,0,0,0,0,0,0,0,-1,2008,519,0,0
791,505,0,0,0,0,0,0,0,0,0,-1,2015,519,0,0
798,505,0,0,0,0,0,0,0,0,0,-1,2022,519,0,0
805,505,0,0,0,0,0,0,0,0,0,-1,2029,519,0,0
812,505,0,0,0,0,0,0,0,0,0,-1,2036,519,0,0
-700,498,0,0,0,0,0,0,0,0,0,-1,524,526,0,0
-693,498,0,0,0,0,0,0,0,0,0,-1,531,526,0,0
-686,498,0,0,0,0,0,0,0,0,0,-1,538,526,0,0
-679,498,0,0,0,0,0,0,0,0,0,-1,545,526,0,0
-672,498,0,0,0,0,0,0,0,0,0,-1,552,526,0,0
-665,498,0,0,0,0,0,0,0,0,0,-1,559,526,0,0
-658,498,0,0,0,0,0,0,0,0,0,-1,566,526,0,0
-651,498,0,0,0,0,0,0,0,0,0,-1,573,526,0,0
-644,498,0,0,0,0,0,0,0,0,0,-1,580,526,0,0
-637,498,0,0,0,0,0,0,0,0,0,-1,587,526,0,0
-630,498,0,0,0,0,0,0,0,0,0,-1,594,526,0,0
-623,498,0,0,0,0,0,0,0,0,0,-1,601,526,0,0
-616,498,0,0,0,0,0,0,0,0,0,-1,608,526,0,0
-609,498,0,0,0,0,0,0,0,0,0,-1,615,526,0,0
-602,498,0,0,0,0,0,0,0,0,0,-1,622,526,0,0
-595,498,0,0,0,0,0,0,0,0,0,-1,629,526,0,0
-588,498,0,0,0,0,0,0,0,0,0,-1,636,526,0,0
-581,498,0,0,0,0,0,0,0,0,0,-1,643,526,0,0
-574,498,0,0,0,0,0,0,0,0,0,-1,650,526,0,0
-567,498,0,0,0,0,0,0,0,0,0,-1,657,526,0,0
-560,498,0,0,0,0,0,0,0,0,0,-1,664,526,0,0
-553,498,0,0,0,0,0,0,0,0,0,-1,671,526,0,0
-546,498,0,0,0,0,0,0,0,0,0,-1,678,526,0,0
-539,498,0,0,0,0,0,0,0,0,0,-1,685,526,0,0
-532,498,0,0,0,0,0,0,0,0,0,-1,692,526,0,0
-525,498,0,0,0,0,0,0,0,0,0,-1,699,526,0,0
-518,498,0,0,0,0,0,0,0,0,0,-1,706,526,0,0
-511,498,0,0,0,0,0,0,0,0,0,-1,713,526,0,0
-504,498,0,0,0,0,0,0,0,0,0,-1,720,526,0,0
-497,498,0,0,0,0,0,0,0,0,0,-1,727,526,0,0
-490,498,0,0,0,0,0,0,0,0,0,-1,734,526,0,0
-483,498,0,0,0,0,0,0,0,0,0,-1,741,526,0,0
-476,498,0,0,0,0,0,0,0,0,0,-1,748,526,0,0
-469,498,0,0,0,0,0,0,0,0,0,-1,755,526,0,0
-462,498,-0.642761,-3.18683,0,0,0,0,0,0,0,-1,762,526,-0.642769,3.18684
-455,498,-0.253662,-3.45422,0,0,0,0,0,0,0,-1,769,526,-0.253642,3.45424
-448,498,-0.143066,-3.96558,0,0,0,0,0,0,0,-1,776,526,-0.143058,3.9656
-441,498,-0.890503,-3.34076,0,0,0,0,0,0,0,-1,783,526,-0.890502,3.34074
-434,498,-0.921753,-3.71594,0,0,0,0,0,0,0,-1,790,526,-0.921745,3.71595
-427,498,-0.936523,-4.0929,0,0,0,0,0,0,0,-1,797,526,-0.936499,4.09287
-420,498,-1.62524,-4.38037,0,0,0,0,0,0,0,-1,804,526,-1.62527,4.38039
-413,498,-1.12134,-4.53937,0.0175505,0.00714649,-0.0137394,0.0270397,-0.00234271,-0.604427,0.018856,0.0480738,811,526,-1.12137,4.53938
-406,498,-0.460388,-4.79211,0.0138561,0.00651221,-0.01142,0.02218,-0.00181166,-0.629849,0.0154261,0.0401765,818,526,-0.460385,4.79214
-399,498,-0.37262,-5.07404,0.0107378,0.0058723,-0.00943685,0.0180504,-0.00144033,-0.659249,0.0125413,0.0224624,825,526,-0.372636,5.07402
-392,498,-0.406372,-5.33026,0.00825803,0.00519325,-0.00754336,0.0144231,-0.000971791,-0.68519,0.00995514,0.0118855,832,526,-0.406389,5.33025
-385,498,-0.437439,-5.56207,0.00629323,0.00421869,-0.00588942,0.011236,-0.000724106,-0.69823,0.00774335,0.0090451,839,526,-0.437446,5.56205
-378,498,-0.443237,-5.78674,0.00482371,0.00331682,-0.00469897,0.00882926,-0.000688728,-0.705903,0.00612866,0.0105469,846,526,-0.443252,5.78674
-371,498,-0.426819,-6.0191,0.00370441,0.00243282,-0.00373128,0.00685367,-0.000716439,-0.70101,0.00482569,0.0159824,853,526,-0.42683,6.01911
-364,498,-0.427368,-6.24377,0.00292033,0.00158802,-0.00297693,0.00530472,-0.000796383,-0.675325,0.00382965,0.0153012,860,526,-0.427392,6.24378
-357,498,-0.455444,-6.4754,0.00224018,0.000911841,-0.00235177,0.00401977,-0.000867749,-0.647776,0.00301107,0.010228,867,526,-0.45542,6.47542
-350,498,-0.477417,-6.69452,0.00195339,0.00051281,-0.00213315,0.00348458,-0.00101837,-0.622576,0.00272666,0.010921,874,526,-0.477394,6.69453
-343,498,-0.459778,-6.901,0.00192626,0.000226704,-0.00201882,0.00326686,-0.0011139,-0.586191,0.00262908,0.0112249,881,526,-0.459769,6.90102
-336,498,-0.436279,-7.11554,0.00202277,-6.26367e-06,-0.00201103,0.00326069,-0.00124419,-0.551787,0.00268635,0.014185,888,526,-0.436308,7.11554
-329,498,-0.435852,-7.32635,0.0023169,8.62476e-05,-0.00218798,0.00365743,-0.00125428,-0.549689,0.00294674,0.0181914,895,526,-0.435876,7.32637
-322,498,-0.469055,-7.54218,0.0025989,0.000122775,-0.00249132,0.00414283,-0.00142115,-0.554795,0.00333802,0.0175395,902,526,-0.469057,7.54217
-315,498,-0.471191,-7.75934,0.00275301,9.60197e-05,-0.00268702,0.00442201,-0.00157298,-0.555815,0.00358913,0.0159712,909,526,-0.471171,7.75932
-308,498,-0.459961,-7.96924,0.00306942,-5.46444e-06,-0.00280945,0.00473459,-0.00167064,-0.535038,0.0038365,0.0179957,916,526,-0.45999,7.96922
-301,498,-0.367493,-8.26257,0.00320677,-0.000303649,-0.0028715,0.00481702,-0.00191389,-0.511072,0.00400477,0.0307185,923,526,-0.367464,8.2626
-294,498,-0.442749,-8.26361,0.00321643,-0.00083075,-0.0028862,0.00471776,-0.00233208,-0.479657,0.00414718,0.0482554,930,526,-0.442763,8.2636
-287,498,-0.579285,-8.39764,0,0,0,0,0,0,0,-1,937,526,-0.57926,8.39765
-280,498,-0.341614,-8.66608,0,0,0,0,0,0,0,-1,944,526,-0.341589,8.66606
-273,498,-0.988892,-8.62921,0,0,0,0,0,0,0,-1,951,526,-0.988906,8.62922
-266,498,0.362488,-6.33545,0,0,0,0,0,0,0,-1,958,526,0.362478,6.33547
-259,498,10.9454,-17.3615,0,0,0,0,0,0,0,-1,965,526,10.9454,17.3614
-252,498,8.56586,-14.6886,0,0,0,0,0,0,0,-1,972,526,8.56584,14.6886
-245,498,5.97382,-11.928,0,0,0,0,0,0,0,-1,979,526,5.97381,11.928
-238,498,3.31403,-9.40442,0,0,0,0,0,0,0,-1,986,526,3.31405,9.40443
-231,498,0.675598,-6.60547,0,0,0,0,0,0,0,-1,993,526,0.675587,6.60545
-224,498,-2.11243,-4.76312,0,0,0,0,0,0,0,-1,1000,526,-2.11245,4.76314
-217,498,-3.82239,-1.42841,0,0,0,0,0,0,0,-1,1007,526,-3.82241,1.42843
-210,498,-1.80591,-0.358215,0,0,0,0,0,0,0,-1,1014,526,-1.8059,0.3582
-203,498,-3.17316,1.06641,0,0,0,0,0,0,0,-1,1021,526,-3.17313,-1.0664
-196,498,-0.103271,5.40527,0,0,0,0,0,0,0,-1,1028,526,-0.103285,-5.40528
-189,498,3.00256,6.47137,0,0,0,0,0,0,0,-1,1035,526,3.00256,-6.47139
-182,498,0,0,0,0,0,0,0,0,0,-1,1042,526,0,0
-175,498,0,0,0,0,0,0,0,0,0,-1,1049,526,0,0
-168,498,0,0,0,0,0,0,0,0,0,-1,1056,526,0,0
-161,498,0,0,0,0,0,0,0,0,0,-1,1063,526,0,0
-154,498,0,0,0,0,0,0,0,0,0,-1,1070,526,0,0
-147,498,0,0,0,0,0,0,0,0,0,-1,1077,526,0,0
-140,498,0,0,0,0,0,0,0,0,0,-1,1084,526,0,0
-133,498,0,0,0,0,0,0,0,0,0,-1,1091,526,0,0
-126,498,0,0,0,0,0,0,0,0,0,-1,1098,526,0,0
-119,498,0,0,0,0,0,0,0,0,0,-1,1105,526,0,0
-112,498,0,0,0,0,0,0,0,0,0,-1,1112,526,0,0
-105,498,0,0,0,0,0,0,0,0,0,-1,1119,526,0,0
-98,498,0,0,0,0,0,0,0,0,0,-1,1126,526,0,0
-91,498,0,0,0,0,0,0,0,0,0,-1,1133,526,0,0
-84,498,0,0,0,0,0,0,0,0,0,-1,1140,526,0,0
-77,498,0,0,0,0,0,0,0,0,0,-1,1147,526,0,0
-70,498,0,0,0,0,0,0,0,0,0,-1,1154,526,0,0
-63,498,0,0,0,0,0,0,0,0,0,-1,1161,526,0,0
-56,498,0,0,0,0,0,0,0,0,0,-1,1168,526,0,0
-49,498,0,0,0,0,0,0,0,0,0,-1,1175,526,0,0
-42,498,0,0,0,0,0,0,0,0,0,-1,1182,526,0,0
-35,498,0,0,0,0,0,0,0,0,0,-1,1189,526,0,0
-28,498,0,0,0,0,0,0,0,0,0,-1,1196,526,0,0
-21,498,0,0,0,0,0,0,0,0,0,-1,1203,526,0,0
-14,498,0,0,0,0,0,0,0,0,0,-1,1210,526,0,0
-7,498,0,0,0,0,0,0,0,0,0,-1,1217,526,0,0
0,498,0,0,0,0,0,0,0,0,0,-1,1224,526,0,0
7,498,0,0,0,0,0,0,0,0,0,-1,1231,526,0,0
14,498,0,0,0,0,0,0,0,0,0,-1,1238,526,0,0
21,498,0,0,0,0,0,0,0,0,0,-1,1245,526,0,0
28,498,0,0,0,0,0,0,0,0,0,-1,1252,526,0,0
35,498,0,0,0,0,0,0,0,0,0,-1,1259,526,0,0
42,498,0,0,0,0,0,0,0,0,0,-1,1266,526,0,0
49,498,0,0,0,0,0,0,0,0,0,-1,1273,526,0,0
56,498,0,0,0,0,0,0,0,0,0,-1,1280,526,0,0
63,498,0,0,0,0,0,0,0,0,0,-1,1287,526,0,0
70,498,0,0,0,0,0,0,0,0,0,-1,1294,526,0,0
77,498,0,0,0,0,0,0,0,0,0,-1,1301,526,0,0
84,498,0,0,0,0,0,0,0,0,0,-1,1308,526,0,0
91,498,0,0,0,0,0,0,0,0,0,-1,1315,526,0,0
98,498,0,0,0,0,0,0,0,0,0,-1,1322,526,0,0
105,498,0,0,0,0,0,0,0,0,0,-1,1329,526,0,0
112,498,0,0,0,0,0,0,0,0,0,-1,1336,526,0,0
119,498,0,0,0,0,0,0,0,0,0,-1,1343,526,0,0
126,498,0,0,0,0,0,0,0,0,0,-1,1350,526,0,0
133,498,0,0,0,0,0,0,0,0,0,-1,1357,526,0,0
140,498,0,0,0,0,0,0,0,0,0,-1,1364,526,0,0
147,498,0,0,0,0,0,0,0,0,0,-1,1371,526,0,0
154,498,0,0,0,0,0,0,0,0,0,-1,1378,526,0,0
161,498,0,0,0,0,0,0,0,0,0,-1,1385,526,0,0
168,498,0,0,0,0,0,0,0,0,0,-1,1392,526,0,0
175,498,0,0,0,0,0,0,0,0,0,-1,1399,526,0,0
182,498,0,0,0,0,0,0,0,0,0,-1,1406,526,0,0
189,498,0,0,0,0,0,0,0,0,0,-1,1413,526,0,0
196,498,0,0,0,0,0,0,0,0,0,-1,1420,526,0,0
203,498,0,0,0,0,0,0,0,0,0,-1,1427,526,0,0
210,498,0,0,0,0,0,0,0,0,0,-1,1434,526,0,0
217,498,0,0,0,0,0,0,0,0,0,-1,1441,526,0,0
224,498,0,0,0,0,0,0,0,0,0,-1,1448,526,0,0
231,498,0,0,0,0,0,0,0,0,0,-1,1455,526,0,0
238,498,0,0,0,0,0,0,0,0,0,-1,1462,526,0,0
245,498,0,0,0,0,0,0,0,0,0,-1,1469,526,0,0
252,498,0,0,0,0,0,0,0,0,0,-1,1476,526,0,0
259,498,0,0,0,0,0,0,0,0,0,-1,1483,526,0,0
266,498,0,0,0,0,0,0,0,0,0,-1,1490,526,0,0
273,498,0,0,0,0,0,0,0,0,0,-1,1497,526,0,0
280,498,0,0,0,0,0,0,0,0,0,-1,1504,526,0,0
287,498,0,0,0,0,0,0,0,0,0,-1,1511,526,0,0
294,498,0,0,0,0,0,0,0,0,0,-1,1518,526,0,0
301,498,0,0,0,0,0,0,0,0,0,-1,1525,526,0,0
308,498,4.77942,-0.293884,0,0,0,0,0,0,0,-1,1532,526,4.77939,0.293899
315,498,4.56091,-0.564148,0,0,0,0,0,0,0,-1,1539,526,4.56097,0.564142
322,498,4.52344,-0.447266,0,0,0,0,0,0,0,-1,1546,526,4.52341,0.447295
329,498,4.63232,-0.156982,0,0,0,0,0,0,0,-1,1553,526,4.63238,0.156991
336,498,5.22644,0.0925903,0,0,0,0,0,0,0,-1,1560,526,5.22648,-0.0926188
343,498,6.22607,-1.67615,0,0,0,0,0,0,0,-1,1567,526,6.22605,1.67617
350,498,6.19373,-1.59906,0,0,0,0,0,0,0,-1,1574,526,6.19367,1.59906
357,498,6.21472,-1.58929,0,0,0,0,0,0,0,-1,1581,526,6.21476,1.58927
364,498,5.73547,-1.2019,0,0,0,0,0,0,0,-1,1588,526,5.73547,1.20192
371,498,3.27087,-4.55334,0,0,0,0,0,0,0,-1,1595,526,3.27089,4.55332
378,498,8.42944,-4.70624,0,0,0,0,0,0,0,-1,1602,526,8.42942,4.70624
385,498,4.7793,-5.15314,0,0,0,0,0,0,0,-1,1609,526,4.77935,5.15311
392,498,7.33289,-5.40631,0,0,0,0,0,0,0,-1,1616,526,7.33284,5.40631
399,498,6.71655,-5.92999,0,0,0,0,0,0,0,-1,1623,526,6.71654,5.93
406,498,6.22302,-6.35516,0,0,0,0,0,0,0,-1,1630,526,6.22308,6.35518
413,498,5.46252,-6.42645,0,0,0,0,0,0,0,-1,1637,526,5.46258,6.42648
420,498,6.17676,-7.11273,0,0,0,0,0,0,0,-1,1644,526,6.17671,7.11275
427,498,6.13171,-6.89319,-0.00534391,-0.0040636,-0.00663749,0.00196453,-0.0113721,-0.833472,0.00831394,0.0384706,1651,526,6.13177,6.89318
434,498,6.14551,-6.69141,-0.00444651,-0.00188878,-0.00507375,0.0020648,-0.00840009,-0.908854,0.00640033,0.0186514,1658,526,6.14553,6.69141
441,498,6.08032,-6.45605,-0.00358666,-0.000444437,-0.00379157,0.00208864,-0.00611974,-0.981815,0.00492592,0.0100762,1665,526,6.08031,6.45604
448,498,6.07813,-6.23773,-0.00265209,0.000583366,-0.00268371,0.00209922,-0.00416794,-1.05663,0.00368347,0.00925991,1672,526,6.07816,6.23774
455,498,6.08081,-6.01764,-0.00185524,0.00132461,-0.00173788,0.00209012,-0.00262075,-1.15588,0.00272557,0.0127033,1679,526,6.08077,6.01766
462,498,6.07837,-5.79358,-0.00117365,0.00140715,-0.0011014,0.00181327,-0.00157978,-1.21753,0.00196052,0.0142358,1686,526,6.07841,5.79358
469,498,6.06067,-5.55066,-0.000546004,0.00104104,-0.00070021,0.0013058,-0.00081077,-1.20929,0.00123309,0.0125996,1693,526,6.06066,5.55064
476,498,6.05823,-5.3028,-4.86904e-05,0.000584901,-0.000431758,0.000803619,-0.000267408,-1.1019,0.000643672,0.0098858,1700,526,6.05823,5.30278
483,498,6.07385,-5.05841,0.000331655,0.000202566,-0.000251083,0.000526357,7.8647e-06,-0.65959,0.000348313,0.00838615,1707,526,6.07389,5.0584
490,498,6.06689,-4.83575,0.000597439,-0.000368044,-0.000217374,0.000644122,-0.000414727,-0.211547,0.000616091,0.0104941,1714,526,6.06685,4.83574
497,498,6.06641,-4.59448,0.000731866,-0.000903186,-0.000218874,0.000760658,-0.000931979,-0.130796,0.000978911,0.0120899,1721,526,6.06639,4.59446
504,498,6.07397,-4.34045,0.00114059,-0.000712711,0.000155794,0.0011536,-0.000725716,0.083284,0.00109436,0.0135136,1728,526,6.07403,4.34046
511,498,6.05444,-4.07684,0.00190854,-1.65555e-05,0.000981062,0.00232039,-0.00042841,0.397462,0.00170774,0.0149604,1735,526,6.05439,4.07682
518,498,6.1062,-3.82574,0.00251914,0.000857376,0.00176799,0.00364175,-0.000265235,0.565734,0.0025209,0.0173416,1742,526,6.10624,3.82573
525,498,6.04102,-3.60522,0.00353594,0.00236757,0.00303229,0.00603981,-0.000136294,0.690237,0.00407273,0.0298284,1749,526,6.04107,3.6052
532,498,5.90686,-3.45343,0.0052104,0.00486589,0.00508247,0.0101235,-4.72451e-05,0.768459,0.00676483,0.0416317,1756,526,5.90685,3.45346
539,498,5.84949,-3.27783,0.00787742,0.0088986,0.00826151,0.0166653,0.000110734,0.81626,0.0110735,0.0498439,1763,526,5.84943,3.27783
546,498,5.93872,-2.58801,0,0,0,0,0,0,0,-1,1770,526,5.93871,2.588
553,498,6.43225,-1.42072,0,0,0,0,0,0,0,-1,1777,526,6.43231,1.4207
560,498,3.69385,-0.615112,0,0,0,0,0,0,0,-1,1784,526,3.69381,0.615118
567,498,5.12695,-0.581604,0,0,0,0,0,0,0,-1,1791,526,5.12699,0.58159
574,498,3.88,0.0286255,0,0,0,0,0,0,0,-1,1798,526,3.87999,-0.0286535
581,498,10.8722,2.58551,0,0,0,0,0,0,0,-1,1805,526,10.8723,-2.58551
588,498,0,0,0,0,0,0,0,0,0,-1,1812,526,0,0
595,498,0,0,0,0,0,0,0,0,0,-1,1819,526,0,0
602,498,0,0,0,0,0,0,0,0,0,-1,1826,526,0,0
609,498,0,0,0,0,0,0,0,0,0,-1,1833,526,0,0
616,498,0,0,0,0,0,0,0,0,0,-1,1840,526,0,0
623,498,0,0,0,0,0,0,0,0,0,-1,1847,526,0,0
630,498,0,0,0,0,0,0,0,0,0,-1,1854,526,0,0
637,498,0,0,0,0,0,0,0,0,0,-1,1861,526,0,0
644,498,0,0,0,0,0,0,0,0,0,-1,1868,526,0,0
651,498,0,0,0,0,0,0,0,0,0,-1,1875,526,0,0
658,498,0,0,0,0,0,0,0,0,0,-1,1882,526,0,0
665,498,0,0,0,0,0,0,0,0,0,-1,1889,526,0,0
672,498,0,0,0,0,0,0,0,0,0,-1,1896,526,0,0
679,498,0,0,0,0,0,0,0,0,0,-1,1903,526,0,0
686,498,0,0,0,0,0,0,0,0,0,-1,1910,526,0,0
693,498,0,0,0,0,0,0,0,0,0,-1,1917,526,0,0
700,498,0,0,0,0,0,0,0,0,0,-1,1924,526,0,0
707,498,0,0,0,0,0,0,0,0,0,-1,1931,526,0,0
714,498,0,0,0,0,0,0,0,0,0,-1,1938,526,0,0
721,498,0,0,0,0,0,0,0,0,0,-1,1945,526,0,0
728,498,0,0,0,0,0,0,0,0,0,-1,1952,526,0,0
735,498,0,0,0,0,0,0,0,0,0,-1,1959,526,0,0
742,498,0,0,0,0,0,0,0,0,0,-1,1966,526,0,0
749,498,0,0,0,0,0,0,0,0,0,-1,1973,526,0,0
756,498,0,0,0,0,0,0,0,0,0,-1,1980,526,0,0
763,498,0,0,0,0,0,0,0,0,0,-1,1987,526,0,0
770,498,0,0,0,0,0,0,0,0,0,-1,1994,526,0,0
777,498,0,0,0,0,0,0,0,0,0,-1,2001,526,0,0
784,498,0,0,0,0,0,0,0,0,0,-1,2008,526,0,0
791,498,0,0,0,0,0,0,0,0,0,-1,2015,526,0,0
798,498,0,0,0,0,0,0,0,0,0,-1,2022,526,0,0
805,498,0,0,0,0,0,0,0,0,0,-1,2029,526,0,0
812,498,0,0,0,0,0,0,0,0,0,-1,2036,526,0,0
-700,491,0,0,0,0,0,0,0,0,0,-1,524,533,0,0
-693,491,0,0,0,0,0,0,0,0,0,-1,531,533,0,0
-686,491,0,0,0,0,0,0,0,0,0,-1,538,533,0,0
-679,491,0,0,0,0,0,0,0,0,0,-1,545,533,0,0
-672,491,0,0,0,0,0,0,0,0,0,-1,552,533,0,0
-665,491,0,0,0,0,0,0,0,0,0,-1,559,533,0,0
-658,491,0,0,0,0,0,0,0,0,0,-1,566,533,0,0
-651,491,0,0,0,0,0,0,0,0,0,-1,573,533,0,0
-644,491,0,0,0,0,0,0,0,0,0,-1,580,533,0,0
-637,491,0,0,0,0,0,0,0,0,0,-1,587,533,0,0
-630,491,0,0,0,0,0,0,0,0,0,-1,594,533,0,0
-623,491,0,0,0,0,0,0,0,0,0,-1,601,533,0,0
-616,491,0,0,0,0,0,0,0,0,0,-1,608,533,0,0
-609,491,0,0,0,0,0,0,0,0,0,-1,615,533,0,0
-602,491,0,0,0,0,0,0,0,0,0,-1,622,533,0,0
-595,491,0,0,0,0,0,0,0,0,0,-1,629,533,0,0
-588,491,0,0,0,0,0,0,0,0,0,-1,636,533,0,0
-581,491,0,0,0,0,0,0,0,0,0,-1,643,533,0,0
-574,491,0,0,0,0,0,0,0,0,0,-1,650,533,0,0
-567,491,0,0,0,0,0,0,0,0,0,-1,657,533,0,0
-560,491,0,0,0,0,0,0,0,0,0,-1,664,533,0,0
-553,491,0,0,0,0,0,0,0,0,0,-1,671,533,0,0
-546,491,0,0,0,0,0,0,0,0,0,-1,678,533,0,0
-539,491,0,0,0,0,0,0,0,0,0,-1,685,533,0,0
-532,491,0,0,0,0,0,0,0,0,0,-1,692,533,0,0
-525,491,0,0,0,0,0,0,0,0,0,-1,699,533,0,0
-518,491,0,0,0,0,0,0,0,0,0,-1,706,533,0,0
-511,491,0,0,0,0,0,0,0,0,0,-1,713,533,0,0
-504,491,0,0,0,0,0,0,0,0,0,-1,720,533,0,0
-497,491,0,0,0,0,0,0,0,0,0,-1,727,533,0,0
-490,491,0,0,0,0,0,0,0,0,0,-1,734,533,0,0
-483,491,0,0,0,0,0,0,0,0,0,-1,741,533,0,0
-476,491,0,0,0,0,0,0,0,0,0,-1,748,533,0,0
-469,491,-5.85913,4.55011,0,0,0,0,0,0,0,-1,755,533,-5.8591,-4.55009
-462,491,-1.04462,-3.17084,0,0,0,0,0,0,0,-1,762,533,-1.04461,3.17086
-455,491,-0.613831,-3.42908,0,0,0,0,0,0,0,-1,769,533,-0.61381,3.42906
-448,491,-0.343445,-3.69183,0,0,0,0,0,0,0,-1,776,533,-0.343474,3.69183
-441,491,-0.341248,-4.26862,0,0,0,0,0,0,0,-1,783,533,-0.341247,4.2686
-434,491,-1.68018,-3.95538,0,0,0,0,0,0,0,-1,790,533,-1.68015,3.9554
-427,491,-0.913086,-3.21185,0,0,0,0,0,0,0,-1,797,533,-0.913108,3.21186
-420,491,-1.03314,-4.24115,0,0,0,0,0,0,0,-1,804,533,-1.03317,4.24117
-413,491,-0.817627,-4.58655,0.0129744,0.00534226,-0.0102655,0.0201102,-0.00179353,-0.607445,0.0140429,0.0393326,811,533,-0.817635,4.58653
-406,491,-0.650024,-4.90106,0.0104151,0.00480985,-0.00853632,0.0165971,-0.00137215,-0.626784,0.0115493,0.0202076,818,533,-0.650004,4.90106
-399,491,-0.648071,-5.1059,0.00818956,0.00426591,-0.00703364,0.0135298,-0.00107438,-0.649395,0.00939852,0.0102282,825,533,-0.648076,5.1059
-392,491,-0.675232,-5.33752,0.00645517,0.00359912,-0.0056246,0.0108302,-0.000775906,-0.66108,0.00749217,0.0093849,832,533,-0.675248,5.33752
-385,491,-0.676819,-5.56042,0.00506802,0.00284556,-0.00443259,0.00852655,-0.000612971,-0.662581,0.00589931,0.00903739,839,533,-0.676832,5.56044
-378,491,-0.656677,-5.78345,0.00405343,0.00213313,-0.00364102,0.00685877,-0.000672206,-0.656481,0.00481226,0.0128435,846,533,-0.656685,5.78344
-371,491,-0.654663,-6.01593,0.00329839,0.00139833,-0.00302904,0.00552289,-0.000826178,-0.633436,0.00398596,0.0137337,853,533,-0.654638,6.0159
-364,491,-0.645752,-6.24048,0.00280437,0.000660859,-0.00257566,0.00452237,-0.00105713,-0.58824,0.00342215,0.0122597,860,533,-0.645723,6.24051
-357,491,-0.686584,-6.47083,0.0024431,8.29935e-05,-0.0022713,0.0038226,-0.00129651,-0.545815,0.00307313,0.0107694,867,533,-0.686594,6.4708
-350,491,-0.691711,-6.68005,0.00239112,-0.000242569,-0.00229803,0.00372287,-0.00157431,-0.525221,0.00314107,0.0138497,874,533,-0.69169,6.68006
-343,491,-0.650269,-6.85187,0.00248249,-0.000457887,-0.00239455,0.00382217,-0.00179756,-0.510083,0.003314,0.0207663,881,533,-0.650285,6.85185
-336,491,-0.611328,-7.03076,0.00269242,-0.000518825,-0.00268262,0.00421321,-0.00203962,-0.51573,0.00368206,0.0213345,888,533,-0.611336,7.03077
-329,491,-0.63031,-7.29999,0.00309978,-0.000273533,-0.00310348,0.00494532,-0.00211907,-0.536489,0.00418602,0.0225077,895,533,-0.630302,7.3
-322,491,-0.67926,-7.51697,0.00347916,-0.000140343,-0.00360139,0.00569994,-0.00236113,-0.55257,0.00478528,0.0208437,902,533,-0.67923,7.51697
-315,491,-0.701111,-7.71423,0.00367999,-0.000109252,-0.00395377,0.00616965,-0.00259891,-0.561966,0.00520056,0.0190426,909,533,-0.701083,7.71425
-308,491,-0.549072,-7.987,0.00399996,-9.91244e-05,-0.00424358,0.00666302,-0.00276218,-0.560431,0.00559484,0.0441642,916,533,-0.549088,7.98698
-301,491,-0.599915,-8.71686,0,0,0,0,0,0,0,-1,923,533,-0.599918,8.71686
-294,491,-0.777283,-8.60913,0,0,0,0,0,0,0,-1,930,533,-0.777288,8.6091
-287,491,-0.26123,-8.69055,0,0,0,0,0,0,0,-1,937,533,-0.261204,8.69053
-280,491,0.2948,-5.99219,0,0,0,0,0,0,0,-1,944,533,0.294811,5.99221
-273,491,0.369995,-5.33691,0,0,0,0,0,0,0,-1,951,533,0.369985,5.33693
-266,491,1.1167,-5.0321,0,0,0,0,0,0,0,-1,958,533,1.11668,5.0321
-259,491,12.0862,-16.9615,0,0,0,0,0,0,0,-1,965,533,12.0862,16.9615
-252,491,9.72443,-13.8417,0,0,0,0,0,0,0,-1,972,533,9.72444,13.8418
-245,491,7.36926,-10.7169,0,0,0,0,0,0,0,-1,979,533,7.36924,10.7169
-238,491,4.84167,-7.53986,0,0,0,0,0,0,0,-1,986,533,4.84169,7.53984
-231,491,2.15582,-5.05225,0,0,0,0,0,0,0,-1,993,533,2.1558,5.05223
-224,491,-0.429749,-3.09216,0,0,0,0,0,0,0,-1,1000,533,-0.429743,3.09215
-217,491,-2.92743,-1.0766,0,0,0,0,0,0,0,-1,1007,533,-2.92743,1.07659
-210,491,-0.92395,0.374512,0,0,0,0,0,0,0,-1,1014,533,-0.923959,-0.374531
-203,491,0.417419,4.77161,0,0,0,0,0,0,0,-1,1021,533,0.417446,-4.77162
-196,491,0,0,0,0,0,0,0,0,0,-1,1028,533,0,0
-189,491,0,0,0,0,0,0,0,0,0,-1,1035,533,0,0
-182,491,0,0,0,0,0,0,0,0,0,-1,1042,533,0,0
-175,491,0,0,0,0,0,0,0,0,0,-1,1049,533,0,0
-168,491,0,0,0,0,0,0,0,0,0,-1,1056,533,0,0
-161,491,0,0,0,0,0,0,0,0,0,-1,1063,533,0,0
-154,491,0,0,0,0,0,0,0,0,0,-1,1070,533,0,0
-147,491,0,0,0,0,0,0,0,0,0,-1,1077,533,0,0
-140,491,0,0,0,0,0,0,0,0,0,-1,1084,533,0,0
-133,491,0,0,0,0,0,0,0,0,0,-1,1091,533,0,0
-126,491,0,0,0,0,0,0,0,0,0,-1,1098,533,0,0
-119,491,0,0,0,0,0,0,0,0,0,-1,1105,533,0,0
-112,491,0,0,0,0,0,0,0,0,0,-1,1112,533,0,0
-105,491,0,0,0,0,0,0,0,0,0,-1,1119,533,0,0
-98,491,0,0,0,0,0,0,0,0,0,-1,1126,533,0,0
-91,491,0,0,0,0,0,0,0,0,0,-1,1133,533,0,0
-84,491,0,0,0,0,0,0,0,0,0,-1,1140,533,0,0
-77,491,0,0,0,0,0,0,0,0,0,-1,1147,533,0,0
-70,491,0,0,0,0,0,0,0,0,0,-1,1154,533,0,0
-63,491,0,0,0,0,0,0,0,0,0,-1,1161,533,0,0
-56,491,0,0,0,0,0,0,0,0,0,-1,1168,533,0,0
-49,491,0,0,0,0,0,0,0,0,0,-1,1175,533,0,0
-42,491,0,0,0,0,0,0,0,0,0,-1,1182,533,0,0
-35,491,0,0,0,0,0,0,0,0,0,-1,1189,533,0,0
-28,491,0,0,0,0,0,0,0,0,0,-1,1196,533,0,0
-21,491,0,0,0,0,0,0,0,0,0,-1,1203,533,0,0
-14,491,0,0,0,0,0,0,0,0,0,-1,1210,533,0,0
-7,491,0,0,0,0,0,0,0,0,0,-1,1217,533,0,0
0,491,0,0,0,0,0,0,0,0,0,-1,1224,533,0,0
7,491,0,0,0,0,0,0,0,0,0,-1,1231,533,0,0
14,491,0,0,0,0,0,0,0,0,0,-1,1238,533,0,0
21,491,0,0,0,0,0,0,0,0,0,-1,1245,533,0,0
28,491,0,0,0,0,0,0,0,0,0,-1,1252,533,0,0
35,491,0,0,0,0,0,0,0,0,0,-1,1259,533,0,0
42,491,0,0,0,0,0,0,0,0,0,-1,1266,533,0,0
49,491,0,0,0,0,0,0,0,0,0,-1,1273,533,0,0
56,491,0,0,0,0,0,0,0,0,0,-1,1280,533,0,0
63,491,0,0,0,0,0,0,0,0,0,-1,1287,533,0,0
70,491,0,0,0,0,0,0,0,0,0,-1,1294,533,0,0
77,491,0,0,0,0,0,0,0,0,0,-1,1301,533,0,0
84,491,0,0,0,0,0,0,0,0,0,-1,1308,533,0,0
91,491,0,0,0,0,0,0,0,0,0,-1,1315,533,0,0
98,491,0,0,0,0,0,0,0,0,0,-1,1322,533,0,0
105,491,0,0,0,0,0,0,0,0,0,-1,1329,533,0,0
112,491,0,0,0,0,0,0,0,0,0,-1,1336,533,0,0
119,491,0,0,0,0,0,0,0,0,0,-1,1343,533,0,0
126,491,0,0,0,0,0,0,0,0,0,-1,1350,533,0,0
133,491,0,0,0,0,0,0,0,0,0,-1,1357,533,0,0
140,491,0,0,0,0,0,0,0,0,0,-1,1364,533,0,0
147,491,0,0,0,0,0,0,0,0,0,-1,1371,533,0,0
154,491,0,0,0,0,0,0,0,0,0,-1,1378,533,0,0
161,491,0,0,0,0,0,0,0,0,0,-1,1385,533,0,0
168,491,0,0,0,0,0,0,0,0,0,-1,1392,533,0,0
175,491,0,0,0,0,0,0,0,0,0,-1,1399,533,0,0
182,491,0,0,0,0,0,0,0,0,0,-1,1406,533,0,0
189,491,0,0,0,0,0,0,0,0,0,-1,1413,533,0,0
196,491,0,0,0,0,0,0,0,0,0,-1,1420,533,0,0
203,491,0,0,0,0,0,0,0,0,0,-1,1427,533,0,0
210,491,0,0,0,0,0,0,0,0,0,-1,1434,533,0,0
217,491,0,0,0,0,0,0,0,0,0,-1,1441,533,0,0
224,491,0,0,0,0,0,0,0,0,0,-1,1448,533,0,0
231,491,0,0,0,0,0,0,0,0,0,-1,1455,533,0,0
238,491,0,0,0,0,0,0,0,0,0,-1,1462,533,0,0
245,491,0,0,0,0,0,0,0,0,0,-1,1469,533,0,0
252,491,0,0,0,0,0,0,0,0,0,-1,1476,533,0,0
259,491,0,0,0,0,0,0,0,0,0,-1,1483,533,0,0
266,491,0,0,0,0,0,0,0,0,0,-1,1490,533,0,0
273,491,0,0,0,0,0,0,0,0,0,-1,1497,533,0,0
280,491,0,0,0,0,0,0,0,0,0,-1,1504,533,0,0
287,491,0,0,0,0,0,0,0,0,0,-1,1511,533,0,0
294,491,0,0,0,0,0,0,0,0,0,-1,1518,533,0,0
301,491,0,0,0,0,0,0,0,0,0,-1,1525,533,0,0
308,491,0,0,0,0,0,0,0,0,0,-1,1532,533,0,0
315,491,0,0,0,0,0,0,0,0,0,-1,1539,533,0,0
322,491,4.26331,-0.734314,0,0,0,0,0,0,0,-1,1546,533,4.26326,0.734324
329,491,4.25354,-0.783752,0,0,0,0,0,0,0,-1,1553,533,4.25359,0.783734
336,491,4.81604,-0.722107,0,0,0,0,0,0,0,-1,1560,533,4.81605,0.722115
343,491,6.14478,-1.44281,0,0,0,0,0,0,0,-1,1567,533,6.14474,1.44281
350,491,6.36353,-1.30792,0,0,0,0,0,0,0,-1,1574,533,6.36352,1.3079
357,491,6.69482,-1.06018,0,0,0,0,0,0,0,-1,1581,533,6.69489,1.06018
364,491,8.01086,-1.69604,0,0,0,0,0,0,0,-1,1588,533,8.01087,1.69607
371,491,8.2135,-0.539307,0,0,0,0,0,0,0,-1,1595,533,8.21348,0.53929
378,491,13.3589,2.17267,0,0,0,0,0,0,0,-1,1602,533,13.3589,-2.17264
385,491,8.08228,-4.95471,0,0,0,0,0,0,0,-1,1609,533,8.08227,4.95474
392,491,2.88721,-4.30988,0,0,0,0,0,0,0,-1,1616,533,2.88716,4.30986
399,491,6.95227,-5.10754,0,0,0,0,0,0,0,-1,1623,533,6.95226,5.10756
406,491,6.74927,-5.9259,0,0,0,0,0,0,0,-1,1630,533,6.74927,5.92591
413,491,5.31848,-3.7124,0,0,0,0,0,0,0,-1,1637,533,5.31849,3.7124
420,491,4.86389,-3.95892,0,0,0,0,0,0,0,-1,1644,533,4.86387,3.95893
427,491,6.51648,-6.73663,0,0,0,0,0,0,0,-1,1651,533,6.51645,6.73661
434,491,6.53784,-6.62402,-0.00609716,-0.00153722,-0.00635481,0.00293424,-0.0105686,-0.957635,0.00820072,0.0426283,1658,533,6.53786,6.62403
441,491,6.36182,-6.50928,-0.00487293,0.00018714,-0.00471105,0.00300454,-0.00769034,-1.03182,0.00636918,0.0239522,1665,533,6.3618,6.50928
448,491,6.32495,-6.2326,-0.00363904,0.00135554,-0.00335062,0.00303714,-0.00532064,-1.10565,0.00488504,0.0125158,1672,533,6.32494,6.23261
455,491,6.31714,-5.99951,-0.00257463,0.00213114,-0.00219681,0.00299727,-0.00344076,-1.19524,0.00371994,0.0112979,1679,533,6.31709,5.99952
462,491,6.3252,-5.78424,-0.00168086,0.00217536,-0.00139567,0.00262748,-0.00213298,-1.25752,0.00275339,0.0139823,1686,533,6.32513,5.78422
469,491,6.29114,-5.55743,-0.000903121,0.00182526,-0.000862271,0.00207492,-0.00115279,-1.28896,0.0018887,0.0132483,1693,533,6.29109,5.55741
476,491,6.30188,-5.30902,-0.000278874,0.00135514,-0.00049137,0.00149152,-0.000415254,-1.30006,0.00115786,0.0099837,1700,533,6.30188,5.30905
483,491,6.31311,-5.06079,0.000185365,0.000933348,-0.000238713,0.00100304,0.000115674,-1.28675,0.000633663,0.0115768,1707,533,6.31309,5.06082
490,491,6.30725,-4.82404,0.000534426,0.000390409,-0.000108557,0.000592686,0.00033215,-0.492556,0.000343019,0.0107048,1714,533,6.3073,4.82406
497,491,6.30786,-4.58563,0.000692804,-0.000159451,-8.2404e-05,0.000700699,-0.000167345,-0.0955105,0.000531765,0.0120573,1721,533,6.30784,4.58562
504,491,6.33545,-4.32764,0.00104021,-6.25994e-05,0.000246809,0.00109292,-0.000115316,0.210429,0.000769939,0.0132037,1728,533,6.3354,4.32764
511,491,6.32483,-4.06787,0.00170683,0.00052113,0.00101535,0.00228974,-6.17765e-05,0.521154,0.0015475,0.0120509,1735,533,6.32479,4.06788
518,491,6.31946,-3.84021,0.00218306,0.00126594,0.00169293,0.00347844,-2.94285e-05,0.653138,0.00232883,0.00947386,1742,533,6.31948,3.84021
525,491,6.33386,-3.59216,0.00298111,0.00256617,0.00275264,0.00553409,1.31889e-05,0.747784,0.003685,0.00932878,1749,533,6.33388,3.59219
532,491,6.32886,-3.35327,0.00430525,0.00471843,0.00445666,0.00897328,5.04008e-05,0.808559,0.00596546,0.0179993,1756,533,6.3289,3.35329
539,491,6.25989,-3.18066,0.00636349,0.00794777,0.00697955,0.01418,0.000131266,0.841904,0.00940988,0.0265,1763,533,6.2599,3.18065
546,491,6.18591,-2.75958,0.00921516,0.0122011,0.0103114,0.021127,0.000289173,0.857291,0.0139893,0.0376382,1770,533,6.1859,2.75961
553,491,6.40967,-1.81708,0.0130315,0.0176465,0.014544,0.0300649,0.000613109,0.864071,0.0198421,0.0450854,1777,533,6.40962,1.81709
560,491,6.34412,-1.01343,0,0,0,0,0,0,0,-1,1784,533,6.34407,1.0134
567,491,5.67651,-1.3562,0,0,0,0,0,0,0,-1,1791,533,5.67649,1.3562
574,491,8.0719,1.58325,0,0,0,0,0,0,0,-1,1798,533,8.07195,-1.58326
581,491,9.44812,1.60931,0,0,0,0,0,0,0,-1,1805,533,9.44808,-1.60933
588,491,11.0497,1.54962,0,0,0,0,0,0,0,-1,1812,533,11.0496,-1.54963
595,491,0,0,0,0,0,0,0,0,0,-1,1819,533,0,0
602,491,0,0,0,0,0,0,0,0,0,-1,1826,533,0,0
609,491,0,0,0,0,0,0,0,0,0,-1,1833,533,0,0
616,491,0,0,0,0,0,0,0,0,0,-1,1840,533,0,0
623,491,0,0,0,0,0,0,0,0,0,-1,1847,533,0,0
630,491,0,0,0,0,0,0,0,0,0,-1,1854,533,0,0
637,491,0,0,0,0,0,0,0,0,0,-1,1861,533,0,0
644,491,0,0,0,0,0,0,0,0,0,-1,1868,533,0,0
651,491,0,0,0,0,0,0,0,0,0,-1,1875,533,0,0
658,491,0,0,0,0,0,0,0,0,0,-1,1882,533,0,0
665,491,0,0,0,0,0,0,0,0,0,-1,1889,533,0,0
672,491,0,0,0,0,0,0,0,0,0,-1,1896,533,0,0
679,491,0,0,0,0,0,0,0,0,0,-1,1903,533,0,0
686,491,0,0,0,0,0,0,0,0,0,-1,1910,533,0,0
693,491,0,0,0,0,0,0,0,0,0,-1,1917,533,0,0
700,491,0,0,0,0,0,0,0,0,0,-1,1924,533,0,0
707,491,0,0,0,0,0,0,0,0,0,-1,1931,533,0,0
714,491,0,0,0,0,0,0,0,0,0,-1,1938,533,0,0
721,491,0,0,0,0,0,0,0,0,0,-1,1945,533,0,0
728,491,0,0,0,0,0,0,0,0,0,-1,1952,533,0,0
735,491,0,0,0,0,0,0,0,0,0,-1,1959,533,0,0
742,491,0,0,0,0,0,0,0,0,0,-1,1966,533,0,0
749,491,0,0,0,0,0,0,0,0,0,-1,1973,533,0,0
756,491,0,0,0,0,0,0,0,0,0,-1,1980,533,0,0
763,491,0,0,0,0,0,0,0,0,0,-1,1987,533,0,0
770,491,0,0,0,0,0,0,0,0,0,-1,1994,533,0,0
777,491,0,0,0,0,0,0,0,0,0,-1,2001,533,0,0
784,491,0,0,0,0,0,0,0,0,0,-1,2008,533,0,0
791,491,0,0,0,0,0,0,0,0,0,-1,2015,533,0,0
798,491,0,0,0,0,0,0,0,0,0,-1,2022,533,0,0
805,491,0,0,0,0,0,0,0,0,0,-1,2029,533,0,0
812,491,0,0,0,0,0,0,0,0,0,-1,2036,533,0,0
-700,484,0,0,0,0,0,0,0,0,0,-1,524,540,0,0
-693,484,0,0,0,0,0,0,0,0,0,-1,531,540,0,0
-686,484,0,0,0,0,0,0,0,0,0,-1,538,540,0,0
-679,484,0,0,0,0,0,0,0,0,0,-1,545,540,0,0
-672,484,0,0,0,0,0,0,0,0,0,-1,552,540,0,0
-665,484,0,0,0,0,0,0,0,0,0,-1,559,540,0,0
-658,484,0,0,0,0,0,0,0,0,0,-1,566,540,0,0
-651,484,0,0,0,0,0,0,0,0,0,-1,573,540,0,0
-644,484,0,0,0,0,0,0,0,0,0,-1,580,540,0,0
-637,484,0,0,0,0,0,0,0,0,0,-1,587,540,0,0
-630,484,0,0,0,0,0,0,0,0,0,-1,594,540,0,0
-623,484,0,0,0,0,0,0,0,0,0,-1,601,540,0,0
-616,484,0,0,0,0,0,0,0,0,0,-1,608,540,0,0
-609,484,0,0,0,0,0,0,0,0,0,-1,615,540,0,0
-602,484,0,0,0,0,0,0,0,0,0,-1,622,540,0,0
-595,484,0,0,0,0,0,0,0,0,0,-1,629,540,0,0
-588,484,0,0,0,0,0,0,0,0,0,-1,636,540,0,0
-581,484,0,0,0,0,0,0,0,0,0,-1,643,540,0,0
-574,484,0,0,0,0,0,0,0,0,0,-1,650,540,0,0
-567,484,0,0,0,0,0,0,0,0,0,-1,657,540,0,0
-560,484,0,0,0,0,0,0,0,0,0,-1,664,540,0,0
-553,484,0,0,0,0,0,0,0,0,0,-1,671,540,0,0
-546,484,0,0,0,0,0,0,0,0,0,-1,678,540,0,0
-539,484,0,0,0,0,0,0,0,0,0,-1,685,540,0,0
-532,484,0,0,0,0,0,0,0,0,0,-1,692,540,0,0
-525,484,0,0,0,0,0,0,0,0,0,-1,699,540,0,0
-518,484,0,0,0,0,0,0,0,0,0,-1,706,540,0,0
-511,484,0,0,0,0,0,0,0,0,0,-1,713,540,0,0
-504,484,0,0,0,0,0,0,0,0,0,-1,720,540,0,0
-497,484,0,0,0,0,0,0,0,0,0,-1,727,540,0,0
-490,484,0,0,0,0,0,0,0,0,0,-1,734,540,0,0
-483,484,0,0,0,0,0,0,0,0,0,-1,741,540,0,0
-476,484,-7.44257,1.59998,0,0,0,0,0,0,0,-1,748,540,-7.44258,-1.59999
-469,484,-6.87036,1.17047,0,0,0,0,0,0,0,-1,755,540,-6.87037,-1.17045
-462,484,-6.34863,1.11737,0,0,0,0,0,0,0,-1,762,540,-6.34864,-1.11739
-455,484,-5.68115,0.5354,0,0,0,0,0,0,0,-1,769,540,-5.68116,-0.535397
-448,484,-0.487793,-3.3941,0,0,0,0,0,0,0,-1,776,540,-0.48777,3.39409
-441,484,-0.941223,-3.52673,0,0,0,0,0,0,0,-1,783,540,-0.94124,3.52674
-434,484,-0.935608,-3.22925,0,0,0,0,0,0,0,-1,790,540,-0.935628,3.22927
-427,484,-0.938538,-3.66425,0,0,0,0,0,0,0,-1,797,540,-0.938565,3.66425
-420,484,-0.857666,-4.29443,0.011468,0.0046022,-0.00923518,0.0178876,-0.0018175,-0.607453,0.0125748,0.0338585,804,540,-0.857655,4.29441
-413,484,-0.845581,-4.5835,0.00947507,0.00406858,-0.00765865,0.0148936,-0.00134991,-0.615741,0.0104082,0.0203512,811,540,-0.845605,4.58348
-406,484,-0.840881,-4.87201,0.00772437,0.00357891,-0.00633647,0.0123185,-0.00101522,-0.627328,0.0085708,0.0123784,818,540,-0.840888,4.87201
-399,484,-0.889709,-5.08905,0.00618713,0.00305873,-0.00517877,0.0100328,-0.000786916,-0.638734,0.00696565,0.0149673,825,540,-0.889704,5.08908
-392,484,-0.897949,-5.3067,0.00501038,0.00228324,-0.00411144,0.00797846,-0.000684851,-0.62528,0.00556133,0.0169551,832,540,-0.897939,5.30669
-385,484,-0.899597,-5.55597,0.00406244,0.00163365,-0.00326565,0.00633218,-0.00063609,-0.607387,0.00444867,0.0118114,839,540,-0.899606,5.55596
-378,484,-0.877441,-5.79309,0.00339811,0.000986726,-0.00276663,0.00521036,-0.000825516,-0.579907,0.00377892,0.0128244,846,540,-0.87747,5.79308
-371,484,-0.886169,-6.01007,0.00292621,0.000292603,-0.00243099,0.00437413,-0.00115532,-0.537184,0.00336791,0.0141834,853,540,-0.886148,6.01006
-364,484,-0.900635,-6.22522,0.00266131,-0.000421512,-0.0022323,0.00383266,-0.00159287,-0.483236,0.00322018,0.0104417,860,540,-0.900647,6.2252
-357,484,-0.911987,-6.46875,0.00257984,-0.000975452,-0.002233,0.00365637,-0.00205198,-0.449225,0.00333883,0.0114535,867,540,-0.911976,6.46876
-350,484,-0.897156,-6.66272,0.00274221,-0.00129508,-0.00251154,0.0039458,-0.00249866,-0.446887,0.00375185,0.0137875,874,540,-0.897135,6.6627
-343,484,-0.864868,-6.85071,0.00294455,-0.00148508,-0.00285059,0.00433962,-0.00288015,-0.455129,0.00419663,0.0205517,881,540,-0.864875,6.85074
-336,484,-0.839844,-7.04877,0.00326395,-0.00141117,-0.003482,0.00512026,-0.00326748,-0.489788,0.00488189,0.0236649,888,540,-0.839852,7.04875
-329,484,-0.830017,-7.27173,0.00378986,-0.00102284,-0.00423234,0.00625211,-0.00348508,-0.526907,0.00569693,0.029832,895,540,-0.830027,7.27171
-322,484,-0.755066,-7.5896,0.00428389,-0.000759445,-0.00504554,0.00740281,-0.00387837,-0.553661,0.0066183,0.0378227,902,540,-0.755039,7.5896
-315,484,-0.680176,-7.83136,0,0,0,0,0,0,0,-1,909,540,-0.680152,7.83137
-308,484,-0.383545,-7.93457,0,0,0,0,0,0,0,-1,916,540,-0.383575,7.9346
-301,484,-1.33453,-6.52667,0,0,0,0,0,0,0,-1,923,540,-1.33454,6.5267
-294,484,-1.61224,-8.17059,0,0,0,0,0,0,0,-1,930,540,-1.61227,8.17058
-287,484,-0.715759,-5.62103,0,0,0,0,0,0,0,-1,937,540,-0.715772,5.62105
-280,484,2.66742,-1.6795,0,0,0,0,0,0,0,-1,944,540,2.6674,1.67949
-273,484,2.53125,-2.22296,0,0,0,0,0,0,0,-1,951,540,2.53128,2.22295
-266,484,2.6778,-2.72058,0,0,0,0,0,0,0,-1,958,540,2.6778,2.72061
-259,484,2.41718,-2.59894,0,0,0,0,0,0,0,-1,965,540,2.41717,2.59892
-252,484,10.6069,-11.696,0,0,0,0,0,0,0,-1,972,540,10.6069,11.696
-245,484,8.0415,-9.22931,0,0,0,0,0,0,0,-1,979,540,8.0415,9.2293
-238,484,5.56836,-6.82672,0,0,0,0,0,0,0,-1,986,540,5.56834,6.82672
-231,484,3.39185,-3.8576,0,0,0,0,0,0,0,-1,993,540,3.39183,3.85763
-224,484,1.14313,-1.21228,0,0,0,0,0,0,0,-1,1000,540,1.14312,1.21226
-217,484,-0.745056,1.17358,0,0,0,0,0,0,0,-1,1007,540,-0.745043,-1.17359
-210,484,0,0,0,0,0,0,0,0,0,-1,1014,540,0,0
-203,484,0,0,0,0,0,0,0,0,0,-1,1021,540,0,0
-196,484,0,0,0,0,0,0,0,0,0,-1,1028,540,0,0
-189,484,0,0,0,0,0,0,0,0,0,-1,1035,540,0,0
-182,484,0,0,0,0,0,0,0,0,0,-1,1042,540,0,0
-175,484,0,0,0,0,0,0,0,0,0,-1,1049,540,0,0
-168,484,0,0,0,0,0,0,0,0,0,-1,1056,540,0,0
-161,484,0,0,0,0,0,0,0,0,0,-1,1063,540,0,0
-154,484,0,0,0,0,0,0,0,0,0,-1,1070,540,0,0
-147,484,0,0,0,0,0,0,0,0,0,-1,1077,540,0,0
-140,484,0,0,0,0,0,0,0,0,0,-1,1084,540,0,0
-133,484,0,0,0,0,0,0,0,0,0,-1,1091,540,0,0
-126,484,0,0,0,0,0,0,0,0,0,-1,1098,540,0,0
-119,484,0,0,0,0,0,0,0,0,0,-1,1105,540,0,0
-112,484,0,0,0,0,0,0,0,0,0,-1,1112,540,0,0
-105,484,0,0,0,0,0,0,0,0,0,-1,1119,540,0,0
-98,484,0,0,0,0,0,0,0,0,0,-1,1126,540,0,0
-91,484,0,0,0,0,0,0,0,0,0,-1,1133,540,0,0
-84,484,0,0,0,0,0,0,0,0,0,-1,1140,540,0,0
-77,484,0,0,0,0,0,0,0,0,0,-1,1147,540,0,0
-70,484,0,0,0,0,0,0,0,0,0,-1,1154,540,0,0
-63,484,0,0,0,0,0,0,0,0,0,-1,1161,540,0,0
-56,484,0,0,0,0,0,0,0,0,0,-1,1168,540,0,0
-49,484,0,0,0,0,0,0,0,0,0,-1,1175,540,0,0
-42,484,0,0,0,0,0,0,0,0,0,-1,1182,540,0,0
-35,484,0,0,0,0,0,0,0,0,0,-1,1189,540,0,0
-28,484,0,0,0,0,0,0,0,0,0,-1,1196,540,0,0
-21,484,0,0,0,0,0,0,0,0,0,-1,1203,540,0,0
-14,484,0,0,0,0,0,0,0,0,0,-1,1210,540,0,0
-7,484,0,0,0,0,0,0,0,0,0,-1,1217,540,0,0
0,484,0,0,0,0,0,0,0,0,0,-1,1224,540,0,0
7,484,0,0,0,0,0,0,0,0,0,-1,1231,540,0,0
14,484,0,0,0,0,0,0,0,0,0,-1,1238,540,0,0
21,484,0,0,0,0,0,0,0,0,0,-1,1245,540,0,0
28,484,0,0,0,0,0,0,0,0,0,-1,1252,540,0,0
35,484,0,0,0,0,0,0,0,0,0,-1,1259,540,0,0
42,484,0,0,0,0,0,0,0,0,0,-1,1266,540,0,0
49,484,0,0,0,0,0,0,0,0,0,-1,1273,540,0,0
56,484,0,0,0,0,0,0,0,0,0,-1,1280,540,0,0
63,484,0,0,0,0,0,0,0,0,0,-1,1287,540,0,0
70,484,0,0,0,0,0,0,0,0,0,-1,1294,540,0,0
77,484,0,0,0,0,0,0,0,0,0,-1,1301,540,0,0
84,484,0,0,0,0,0,0,0,0,0,-1,1308,540,0,0
91,484,0,0,0,0,0,0,0,0,0,-1,1315,540,0,0
98,484,0,0,0,0,0,0,0,0,0,-1,1322,540,0,0
105,484,0,0,0,0,0,0,0,0,0,-1,1329,540,0,0
112,484,0,0,0,0,0,0,0,0,0,-1,1336,540,0,0
119,484,0,0,0,0,0,0,0,0,0,-1,1343,540,0,0
126,484,0,0,0,0,0,0,0,0,0,-1,1350,540,0,0
133,484,0,0,0,0,0,0,0,0,0,-1,1357,540,0,0
140,484,0,0,0,0,0,0,0,0,0,-1,1364,540,0,0
147,484,0,0,0,0,0,0,0,0,0,-1,1371,540,0,0
154,484,0,0,0,0,0,0,0,0,0,-1,1378,540,0,0
161,484,0,0,0,0,0,0,0,0,0,-1,1385,540,0,0
168,484,0,0,0,0,0,0,0,0,0,-1,1392,540,0,0
175,484,0,0,0,0,0,0,0,0,0,-1,1399,540,0,0
182,484,0,0,0,0,0,0,0,0,0,-1,1406,540,0,0
189,484,0,0,0,0,0,0,0,0,0,-1,1413,540,0,0
196,484,0,0,0,0,0,0,0,0,0,-1,1420,540,0,0
203,484,0,0,0,0,0,0,0,0,0,-1,1427,540,0,0
210,484,0,0,0,0,0,0,0,0,0,-1,1434,540,0,0
217,484,0,0,0,0,0,0,0,0,0,-1,1441,540,0,0
224,484,0,0,0,0,0,0,0,0,0,-1,1448,540,0,0
231,484,0,0,0,0,0,0,0,0,0,-1,1455,540,0,0
238,484,0,0,0,0,0,0,0,0,0,-1,1462,540,0,0
245,484,0,0,0,0,0,0,0,0,0,-1,1469,540,0,0
252,484,0,0,0,0,0,0,0,0,0,-1,1476,540,0,0
259,484,0,0,0,0,0,0,0,0,0,-1,1483,540,0,0
266,484,0,0,0,0,0,0,0,0,0,-1,1490,540,0,0
273,484,0,0,0,0,0,0,0,0,0,-1,1497,540,0,0
280,484,0,0,0,0,0,0,0,0,0,-1,1504,540,0,0
287,484,0,0,0,0,0,0,0,0,0,-1,1511,540,0,0
294,484,0,0,0,0,0,0,0,0,0,-1,1518,540,0,0
301,484,0,0,0,0,0,0,0,0,0,-1,1525,540,0,0
308,484,0,0,0,0,0,0,0,0,0,-1,1532,540,0,0
315,484,0,0,0,0,0,0,0,0,0,-1,1539,540,0,0
322,484,0,0,0,0,0,0,0,0,0,-1,1546,540,0,0
329,484,0,0,0,0,0,0,0,0,0,-1,1553,540,0,0
336,484,4.38708,-1.64136,0,0,0,0,0,0,0,-1,1560,540,4.38704,1.64138
343,484,7.57996,-1.05457,0,0,0,0,0,0,0,-1,1567,540,7.57995,1.05454
350,484,8.10425,-1.18878,0,0,0,0,0,0,0,-1,1574,540,8.1043,1.18877
357,484,7.74902,-3.80286,0,0,0,0,0,0,0,-1,1581,540,7.74901,3.80287
364,484,6.31262,-3.87213,0,0,0,0,0,0,0,-1,1588,540,6.31263,3.87215
371,484,7.21008,0.973511,0,0,0,0,0,0,0,-1,1595,540,7.21014,-0.973541
378,484,11.0563,1.5014,0,0,0,0,0,0,0,-1,1602,540,11.0563,-1.5014
385,484,14.3469,2.5545,0,0,0,0,0,0,0,-1,1609,540,14.3469,-2.55453
392,484,7.39453,-4.95026,0,0,0,0,0,0,0,-1,1616,540,7.39448,4.95023
399,484,7.14417,-2.5639,0,0,0,0,0,0,0,-1,1623,540,7.14417,2.56391
406,484,7.88953,-2.47321,0,0,0,0,0,0,0,-1,1630,540,7.88954,2.47323
413,484,4.4895,-1.08673,0,0,0,0,0,0,0,-1,1637,540,4.48952,1.08674
420,484,4.50012,-2.11255,0,0,0,0,0,0,0,-1,1644,540,4.50012,2.11256
427,484,5.28601,-3.54053,0,0,0,0,0,0,0,-1,1651,540,5.28599,3.54051
434,484,7.0675,-6.54376,0,0,0,0,0,0,0,-1,1658,540,7.06746,6.54377
441,484,6.64771,-6.41937,0,0,0,0,0,0,0,-1,1665,540,6.64766,6.41938
448,484,6.61963,-6.23132,-0.00490447,0.00229787,-0.00416792,0.00420488,-0.00681147,-1.14169,0.00641936,0.0391687,1672,540,6.61965,6.23133
455,484,6.56299,-6.00403,-0.00343186,0.00308429,-0.0027203,0.00407063,-0.0044182,-1.22295,0.0049024,0.0198672,1679,540,6.56293,6.00404
462,484,6.56262,-5.77075,-0.00222122,0.00307527,-0.00168552,0.00356616,-0.00271212,-1.28739,0.00363593,0.0141045,1686,540,6.56258,5.77075
469,484,6.57178,-5.53064,-0.00122596,0.00273856,-0.000965647,0.00296125,-0.00144866,-1.34414,0.0025955,0.0151333,1693,540,6.57181,5.53067
476,484,6.55652,-5.27295,-0.000423946,0.0022567,-0.000450654,0.00233043,-0.000497679,-1.40862,0.00174336,0.0150843,1700,540,6.55654,5.27298
483,484,6.55566,-5.05402,0.000160148,0.00177315,-0.000106065,0.00178009,0.000153204,-1.50542,0.0011391,0.0115454,1707,540,6.55566,5.05404
490,484,6.5509,-4.83521,0.000615486,0.0012458,0.0001274,0.00127058,0.00059071,1.37872,0.000734169,0.0115589,1714,540,6.55094,4.8352
497,484,6.54724,-4.58844,0.000803924,0.000647502,0.000166751,0.000909895,0.000541531,0.566116,0.00052849,0.0136209,1721,540,6.54721,4.58843
504,484,6.57593,-4.31183,0.00106996,0.00056733,0.000406516,0.00129658,0.000340718,0.508543,0.000776153,0.0154296,1728,540,6.57592,4.3118
511,484,6.57483,-4.04797,0.00161036,0.000942171,0.0010543,0.00238224,0.000170297,0.631959,0.00153455,0.016916,1735,540,6.57481,4.04796
518,484,6.55115,-3.83801,0.00195957,0.0014904,0.00158856,0.00333077,0.000119202,0.712092,0.00218187,0.0146085,1742,540,6.55115,3.83802
525,484,6.56274,-3.59991,0.00254599,0.00251558,0.00241286,0.00494369,0.000117879,0.782248,0.00325721,0.0131169,1749,540,6.56269,3.59993
532,484,6.5791,-3.34564,0.00354244,0.00423567,0.00374671,0.00765176,0.000126344,0.831523,0.00505959,0.0140142,1756,540,6.57908,3.34566
539,484,6.56165,-3.07532,0.00508877,0.00670114,0.00567183,0.0116238,0.000166118,0.855995,0.00769442,0.0206978,1763,540,6.56166,3.07531
546,484,6.46472,-2.88245,0.00718773,0.00994571,0.00817295,0.0168552,0.000278254,0.868974,0.0111452,0.0233932,1770,540,6.46472,2.88245
553,484,6.44031,-2.43286,0.00985432,0.0139077,0.0111899,0.023253,0.000509024,0.874986,0.0153352,0.0358955,1777,540,6.44028,2.43289
560,484,7.22156,-1.61035,0.0132708,0.0185818,0.0148425,0.0310045,0.000848163,0.873917,0.0203928,0.046536,1784,540,7.22154,1.61038
567,484,7.69409,-0.932739,0,0,0,0,0,0,0,-1,1791,540,7.69412,0.932758
574,484,5.74463,1.50922,0,0,0,0,0,0,0,-1,1798,540,5.74463,-1.50924
581,484,10.34,2.9491,0,0,0,0,0,0,0,-1,1805,540,10.34,-2.94912
588,484,10.6669,2.88568,0,0,0,0,0,0,0,-1,1812,540,10.6669,-2.88567
595,484,10.7233,1.04767,0,0,0,0,0,0,0,-1,1819,540,10.7233,-1.04766
602,484,0,0,0,0,0,0,0,0,0,-1,1826,540,0,0
609,484,0,0,0,0,0,0,0,0,0,-1,1833,540,0,0
616,484,0,0,0,0,0,0,0,0,0,-1,1840,540,0,0
623,484,0,0,0,0,0,0,0,0,0,-1,1847,540,0,0
630,484,0,0,0,0,0,0,0,0,0,-1,1854,540,0,0
637,484,0,0,0,0,0,0,0,0,0,-1,1861,540,0,0
644,484,0,0,0,0,0,0,0,0,0,-1,1868,540,0,0
651,484,0,0,0,0,0,0,0,0,0,-1,1875,540,0,0
658,484,0,0,0,0,0,0,0,0,0,-1,1882,540,0,0
665,484,0,0,0,0,0,0,0,0,0,-1,1889,540,0,0
672,484,0,0,0,0,0,0,0,0,0,-1,1896,540,0,0
679,484,0,0,0,0,0,0,0,0,0,-1,1903,540,0,0
686,484,0,0,0,0,0,0,0,0,0,-1,1910,540,0,0
693,484,0,0,0,0,0,0,0,0,0,-1,1917,540,0,0
700,484,0,0,0,0,0,0,0,0,0,-1,1924,540,0,0
707,484,0,0,0,0,0,0,0,0,0,-1,1931,540,0,0
714,484,0,0,0,0,0,0,0,0,0,-1,1938,540,0,0
721,484,0,0,0,0,0,0,0,0,0,-1,1945,540,0,0
728,484,0,0,0,0,0,0,0,0,0,-1,1952,540,0,0
735,484,0,0,0,0,0,0,0,0,0,-1,1959,540,0,0
742,484,0,0,0,0,0,0,0,0,0,-1,1966,540,0,0
749,484,0,0,0,0,0,0,0,0,0,-1,1973,540,0,0
756,484,0,0,0,0,0,0,0,0,0,-1,1980,540,0,0
763,484,0,0,0,0,0,0,0,0,0,-1,1987,540,0,0
770,484,0,0,0,0,0,0,0,0,0,-1,1994,540,0,0
777,484,0,0,0,0,0,0,0,0,0,-1,2001,540,0,0
784,484,0,0,0,0,0,0,0,0,0,-1,2008,540,0,0
791,484,0,0,0,0,0,0,0,0,0,-1,2015,540,0,0
798,484,0,0,0,0,0,0,0,0,0,-1,2022,540,0,0
805,484,0,0,0,0,0,0,0,0,0,-1,2029,540,0,0
812,484,0,0,0,0,0,0,0,0,0,-1,2036,540,0,0
-700,477,0,0,0,0,0,0,0,0,0,-1,524,547,0,0
-693,477,0,0,0,0,0,0,0,0,0,-1,531,547,0,0
-686,477,0,0,0,0,0,0,0,0,0,-1,538,547,0,0
-679,477,0,0,0,0,0,0,0,0,0,-1,545,547,0,0
-672,477,0,0,0,0,0,0,0,0,0,-1,552,547,0,0
-665,477,0,0,0,0,0,0,0,0,0,-1,559,547,0,0
-658,477,0,0,0,0,0,0,0,0,0,-1,566,547,0,0
-651,477,0,0,0,0,0,0,0,0,0,-1,573,547,0,0
-644,477,0,0,0,0,0,0,0,0,0,-1,580,547,0,0
-637,477,0,0,0,0,0,0,0,0,0,-1,587,547,0,0
-630,477,0,0,0,0,0,0,0,0,0,-1,594,547,0,0
-623,477,0,0,0,0,0,0,0,0,0,-1,601,547,0,0
-616,477,0,0,0,0,0,0,0,0,0,-1,608,547,0,0
-609,477,0,0,0,0,0,0,0,0,0,-1,615,547,0,0
-602,477,0,0,0,0,0,0,0,0,0,-1,622,547,0,0
-595,477,0,0,0,0,0,0,0,0,0,-1,629,547,0,0
-588,477,0,0,0,0,0,0,0,0,0,-1,636,547,0,0
-581,477,0,0,0,0,0,0,0,0,0,-1,643,547,0,0
-574,477,0,0,0,0,0,0,0,0,0,-1,650,547,0,0
-567,477,0,0,0,0,0,0,0,0,0,-1,657,547,0,0
-560,477,0,0,0,0,0,0,0,0,0,-1,664,547,0,0
-553,477,0,0,0,0,0,0,0,0,0,-1,671,547,0,0
-546,477,0,0,0,0,0,0,0,0,0,-1,678,547,0,0
-539,477,0,0,0,0,0,0,0,0,0,-1,685,547,0,0
-532,477,0,0,0,0,0,0,0,0,0,-1,692,547,0,0
-525,477,0,0,0,0,0,0,0,0,0,-1,699,547,0,0
-518,477,0,0,0,0,0,0,0,0,0,-1,706,547,0,0
-511,477,0,0,0,0,0,0,0,0,0,-1,713,547,0,0
-504,477,0,0,0,0,0,0,0,0,0,-1,720,547,0,0
-497,477,0,0,0,0,0,0,0,0,0,-1,727,547,0,0
-490,477,0,0,0,0,0,0,0,0,0,-1,734,547,0,0
-483,477,-8.30969,1.16516,0,0,0,0,0,0,0,-1,741,547,-8.30969,-1.16514
-476,477,-7.90381,1.0343,0,0,0,0,0,0,0,-1,748,547,-7.90384,-1.03432
-469,477,-7.29449,0.745605,0,0,0,0,0,0,0,-1,755,547,-7.2945,-0.745633
-462,477,-6.69519,0.245605,0,0,0,0,0,0,0,-1,762,547,-6.69519,-0.245597
-455,477,-6.28265,-0.226318,0,0,0,0,0,0,0,-1,769,547,-6.28263,0.226343
-448,477,-5.30103,-1.02991,0,0,0,0,0,0,0,-1,776,547,-5.30104,1.02993
-441,477,-1.44495,-3.37604,0,0,0,0,0,0,0,-1,783,547,-1.44493,3.37604
-434,477,-1.22241,-3.75763,0,0,0,0,0,0,0,-1,790,547,-1.22242,3.75762
-427,477,-0.96405,-4.11664,0,0,0,0,0,0,0,-1,797,547,-0.964023,4.11664
-420,477,-1.10571,-4.31445,0.00821375,0.00353181,-0.00694566,0.0132023,-0.00145677,-0.622856,0.00932515,0.018879,804,547,-1.10569,4.31445
-413,477,-1.09766,-4.60223,0.00682806,0.00300452,-0.00569688,0.0109254,-0.00109282,-0.623512,0.00767385,0.0153066,811,547,-1.09763,4.60224
-406,477,-1.10242,-4.86401,0.00567506,0.0025748,-0.00465516,0.0090314,-0.000781536,-0.624677,0.00629763,0.0101895,818,547,-1.10243,4.86404
-399,477,-1.11743,-5.1012,0.0046446,0.00207933,-0.00371203,0.00728934,-0.000565419,-0.619052,0.00505858,0.0180764,825,547,-1.11743,5.10122
-392,477,-1.12311,-5.32953,0.00388664,0.00119692,-0.00287187,0.00571294,-0.000629392,-0.56642,0.00403482,0.0176346,832,547,-1.12311,5.3295
-385,477,-1.112,-5.53796,0.00328608,0.000624763,-0.00228201,0.00459706,-0.000686213,-0.521445,0.00331719,0.0136243,839,547,-1.11201,5.53795
-378,477,-1.10291,-5.78436,0.00291387,2.18788e-06,-0.00199342,0.00392647,-0.00101041,-0.470004,0.0030115,0.0121303,846,547,-1.10291,5.78436
-371,477,-1.12146,-6.00269,0.00269021,-0.000694225,-0.00188024,0.0035276,-0.00153161,-0.41899,0.00299575,0.0121016,853,547,-1.12148,6.0027
-364,477,-1.14697,-6.23145,0.00263706,-0.0014286,-0.00191477,0.00339686,-0.00218839,-0.37775,0.00324971,0.0124403,860,547,-1.14695,6.23147
-357,477,-1.14496,-6.448,0.00282721,-0.00201368,-0.00222856,0.00369691,-0.00288338,-0.372073,0.00380879,0.0102098,867,547,-1.14493,6.448
-350,477,-1.13177,-6.64435,0.00320396,-0.00239593,-0.00279557,0.00436064,-0.00355261,-0.392308,0.00457665,0.00931249,874,547,-1.13177,6.64435
-343,477,-1.07031,-6.86786,0.00351904,-0.00263074,-0.00344715,0.00506344,-0.00417513,-0.421207,0.0053421,0.0174829,881,547,-1.07031,6.86784
-336,477,-1.00842,-7.12872,0.00393904,-0.00249309,-0.00451961,0.00627004,-0.00482409,-0.47617,0.00642331,0.0270879,888,547,-1.00844,7.1287
-329,477,-0.960815,-7.44965,0.00457293,-0.00202155,-0.00576507,0.00791707,-0.00536568,-0.525635,0.00771581,0.0486333,895,547,-0.960836,7.44962
-322,477,-0.993469,-7.81226,0,0,0,0,0,0,0,-1,902,547,-0.993479,7.81223
-315,477,-1.44391,-7.70148,0,0,0,0,0,0,0,-1,909,547,-1.44389,7.70149
-308,477,-1.30127,-6.55188,0,0,0,0,0,0,0,-1,916,547,-1.30128,6.55185
-301,477,-1.21185,-6.28351,0,0,0,0,0,0,0,-1,923,547,-1.21184,6.28352
-294,477,-0.352905,3.27142,0,0,0,0,0,0,0,-1,930,547,-0.35292,-3.27144
-287,477,3.54364,2.15399,0,0,0,0,0,0,0,-1,937,547,3.54362,-2.15396
-280,477,1.97308,-0.954163,0,0,0,0,0,0,0,-1,944,547,1.9731,0.954178
-273,477,2.11621,-3.76709,0,0,0,0,0,0,0,-1,951,547,2.11619,3.76706
-266,477,2.04669,-3.42389,0,0,0,0,0,0,0,-1,958,547,2.04671,3.42391
-259,477,-1.33478,-3.41205,0,0,0,0,0,0,0,-1,965,547,-1.3348,3.41206
-252,477,0.597168,-5.32922,0,0,0,0,0,0,0,-1,972,547,0.597144,5.32924
-245,477,2.27161,-7.02875,0,0,0,0,0,0,0,-1,979,547,2.27158,7.02873
-238,477,7.29095,-4.50336,0,0,0,0,0,0,0,-1,986,547,7.29093,4.50335
-231,477,4.88141,-2.23413,0,0,0,0,0,0,0,-1,993,547,4.88143,2.23413
-224,477,0,0,0,0,0,0,0,0,0,-1,1000,547,0,0
-217,477,0,0,0,0,0,0,0,0,0,-1,1007,547,0,0
-210,477,0,0,0,0,0,0,0,0,0,-1,1014,547,0,0
-203,477,0,0,0,0,0,0,0,0,0,-1,1021,547,0,0
-196,477,0,0,0,0,0,0,0,0,0,-1,1028,547,0,0
-189,477,0,0,0,0,0,0,0,0,0,-1,1035,547,0,0
-182,477,0,0,0,0,0,0,0,0,0,-1,1042,547,0,0
-175,477,0,0,0,0,0,0,0,0,0,-1,1049,547,0,0
-168,477,0,0,0,0,0,0,0,0,0,-1,1056,547,0,0
-161,477,0,0,0,0,0,0,0,0,0,-1,1063,547,0,0
-154,477,0,0,0,0,0,0,0,0,0,-1,1070,547,0,0
-147,477,0,0,0,0,0,0,0,0,0,-1,1077,547,0,0
-140,477,0,0,0,0,0,0,0,0,0,-1,1084,547,0,0
-133,477,0,0,0,0,0,0,0,0,0,-1,1091,547,0,0
-126,477,0,0,0,0,0,0,0,0,0,-1,1098,547,0,0
-119,477,0,0,0,0,0,0,0,0,0,-1,1105,547,0,0
-112,477,0,0,0,0,0,0,0,0,0,-1,1112,547,0,0
-105,477,0,0,0,0,0,0,0,0,0,-1,1119,547,0,0
-98,477,0,0,0,0,0,0,0,0,0,-1,1126,547,0,0
-91,477,0,0,0,0,0,0,0,0,0,-1,1133,547,0,0
-84,477,0,0,0,0,0,0,0,0,0,-1,1140,547,0,0
-77,477,0,0,0,0,0,0,0,0,0,-1,1147,547,0,0
-70,477,0,0,0,0,0,0,0,0,0,-1,1154,547,0,0
-63,477,0,0,0,0,0,0,0,0,0,-1,1161,547,0,0
-56,477,0,0,0,0,0,0,0,0,0,-1,1168,547,0,0
-49,477,0,0,0,0,0,0,0,0,0,-1,1175,547,0,0
-42,477,0,0,0,0,0,0,0,0,0,-1,1182,547,0,0
-35,477,0,0,0,0,0,0,0,0,0,-1,1189,547,0,0
-28,477,0,0,0,0,0,0,0,0,0,-1,1196,547,0,0
-21,477,0,0,0,0,0,0,0,0,0,-1,1203,547,0,0
-14,477,0,0,0,0,0,0,0,0,0,-1,1210,547,0,0
-7,477,0,0,0,0,0,0,0,0,0,-1,1217,547,0,0
0,477,0,0,0,0,0,0,0,0,0,-1,1224,547,0,0
7,477,0,0,0,0,0,0,0,0,0,-1,1231,547,0,0
14,477,0,0,0,0,0,0,0,0,0,-1,1238,547,0,0
21,477,0,0,0,0,0,0,0,0,0,-1,1245,547,0,0
28,477,0,0,0,0,0,0,0,0,0,-1,1252,547,0,0
35,477,0,0,0,0,0,0,0,0,0,-1,1259,547,0,0
42,477,0,0,0,0,0,0,0,0,0,-1,1266,547,0,0
49,477,0,0,0,0,0,0,0,0,0,-1,1273,547,0,0
56,477,0,0,0,0,0,0,0,0,0,-1,1280,547,0,0
63,477,0,0,0,0,0,0,0,0,0,-1,1287,547,0,0
70,477,0,0,0,0,0,0,0,0,0,-1,1294,547,0,0
77,477,0,0,0,0,0,0,0,0,0,-1,1301,547,0,0
84,477,0,0,0,0,0,0,0,0,0,-1,1308,547,0,0
91,477,0,0,0,0,0,0,0,0,0,-1,1315,547,0,0
98,477,0,0,0,0,0,0,0,0,0,-1,1322,547,0,0
105,477,0,0,0,0,0,0,0,0,0,-1,1329,547,0,0
112,477,0,0,0,0,0,0,0,0,0,-1,1336,547,0,0
119,477,0,0,0,0,0,0,0,0,0,-1,1343,547,0,0
126,477,0,0,0,0,0,0,0,0,0,-1,1350,547,0,0
133,477,0,0,0,0,0,0,0,0,0,-1,1357,547,0,0
140,477,0,0,0,0,0,0,0,0,0,-1,1364,547,0,0
147,477,0,0,0,0,0,0,0,0,0,-1,1371,547,0,0
154,477,0,0,0,0,0,0,0,0,0,-1,1378,547,0,0
161,477,0,0,0,0,0,0,0,0,0,-1,1385,547,0,0
168,477,0,0,0,0,0,0,0,0,0,-1,1392,547,0,0
175,477,0,0,0,0,0,0,0,0,0,-1,1399,547,0,0
182,477,0,0,0,0,0,0,0,0,0,-1,1406,547,0,0
189,477,0,0,0,0,0,0,0,0,0,-1,1413,547,0,0
196,477,0,0,0,0,0,0,0,0,0,-1,1420,547,0,0
203,477,0,0,0,0,0,0,0,0,0,-1,1427,547,0,0
210,477,0,0,0,0,0,0,0,0,0,-1,1434,547,0,0
217,477,0,0,0,0,0,0,0,0,0,-1,1441,547,0,0
224,477,0,0,0,0,0,0,0,0,0,-1,1448,547,0,0
231,477,0,0,0,0,0,0,0,0,0,-1,1455,547,0,0
238,477,0,0,0,0,0,0,0,0,0,-1,1462,547,0,0
245,477,0,0,0,0,0,0,0,0,0,-1,1469,547,0,0
252,477,0,0,0,0,0,0,0,0,0,-1,1476,547,0,0
259,477,0,0,0,0,0,0,0,0,0,-1,1483,547,0,0
266,477,0,0,0,0,0,0,0,0,0,-1,1490,547,0,0
273,477,0,0,0,0,0,0,0,0,0,-1,1497,547,0,0
280,477,0,0,0,0,0,0,0,0,0,-1,1504,547,0,0
287,477,0,0,0,0,0,0,0,0,0,-1,1511,547,0,0
294,477,0,0,0,0,0,0,0,0,0,-1,1518,547,0,0
301,477,0,0,0,0,0,0,0,0,0,-1,1525,547,0,0
308,477,0,0,0,0,0,0,0,0,0,-1,1532,547,0,0
315,477,0,0,0,0,0,0,0,0,0,-1,1539,547,0,0
322,477,0,0,0,0,0,0,0,0,0,-1,1546,547,0,0
329,477,0,0,0,0,0,0,0,0,0,-1,1553,547,0,0
336,477,0,0,0,0,0,0,0,0,0,-1,1560,547,0,0
343,477,0,0,0,0,0,0,0,0,0,-1,1567,547,0,0
350,477,1.7699,-3.32275,0,0,0,0,0,0,0,-1,1574,547,1.7699,3.32272
357,477,3.073,-4.83313,0,0,0,0,0,0,0,-1,1581,547,3.07303,4.83316
364,477,4.30127,-4.22864,0,0,0,0,0,0,0,-1,1588,547,4.30125,4.22865
371,477,4.57703,0.283264,0,0,0,0,0,0,0,-1,1595,547,4.57706,-0.283262
378,477,8.57947,1.05969,0,0,0,0,0,0,0,-1,1602,547,8.5795,-1.05972
385,477,12.3726,2.02356,0,0,0,0,0,0,0,-1,1609,547,12.3725,-2.02355
392,477,16.4678,2.76843,0,0,0,0,0,0,0,-1,1616,547,16.4678,-2.76845
399,477,8.00037,-2.29523,0,0,0,0,0,0,0,-1,1623,547,8.00031,2.2952
406,477,4.82495,2.7475,0,0,0,0,0,0,0,-1,1630,547,4.825,-2.74752
413,477,4.88171,-0.336426,0,0,0,0,0,0,0,-1,1637,547,4.88169,0.336398
420,477,3.34875,0.102722,0,0,0,0,0,0,0,-1,1644,547,3.34871,-0.1027
427,477,1.66772,-0.373108,0,0,0,0,0,0,0,-1,1651,547,1.66768,0.373104
434,477,3.76978,-2.30798,0,0,0,0,0,0,0,-1,1658,547,3.76974,2.30801
441,477,4.05444,-2.80402,0,0,0,0,0,0,0,-1,1665,547,4.05444,2.804
448,477,7.33142,-6.19983,0,0,0,0,0,0,0,-1,1672,547,7.33136,6.19982
455,477,7.08105,-6.07001,-0.00438752,0.00409717,-0.00333456,0.00525082,-0.00554117,-1.23772,0.00623151,0.0496425,1679,547,7.08105,6.07
462,477,6.84424,-5.87256,-0.00274673,0.00397345,-0.00200408,0.00452571,-0.00329899,-1.3019,0.00453606,0.0365016,1686,547,6.84418,5.87255
469,477,6.8363,-5.53241,-0.00147461,0.00363003,-0.00106066,0.00384164,-0.00168622,-1.37387,0.00327139,0.0224529,1693,547,6.8363,5.53241
476,477,6.80994,-5.30145,-0.00043926,0.0031435,-0.000348839,0.00317715,-0.00047291,-1.47463,0.00229205,0.0169812,1700,547,6.80999,5.30148
483,477,6.80676,-5.06006,0.000304795,0.00259705,0.000112978,0.0026026,0.00029924,1.52167,0.00164442,0.0108747,1707,547,6.80682,5.06005
490,477,6.79138,-4.83557,0.000886765,0.00209519,0.000459916,0.00225032,0.000731639,1.24549,0.00132544,0.0107255,1714,547,6.79142,4.83559
497,477,6.79285,-4.56482,0.00110563,0.00144284,0.000509474,0.00181088,0.000737587,0.945193,0.00105148,0.0123418,1721,547,6.79289,4.5648
504,477,6.8064,-4.29407,0.00126309,0.00113633,0.000631344,0.00183423,0.000565195,0.735372,0.00108467,0.0166915,1728,547,6.80636,4.29409
511,477,6.8269,-4.08508,0.00163962,0.00124378,0.00110931,0.00256853,0.000314868,0.69712,0.00161764,0.0201646,1735,547,6.82694,4.08506
518,477,6.82642,-3.86218,0.00184958,0.00157526,0.00148652,0.00320525,0.000219584,0.739394,0.00206753,0.0187414,1742,547,6.82638,3.86218
525,477,6.81311,-3.58148,0.00221653,0.00231197,0.00207701,0.00434181,0.000186684,0.796884,0.00283436,0.016475,1749,547,6.81317,3.58147
532,477,6.78821,-3.32971,0.00288886,0.00358834,0.00305405,0.00631261,0.000164593,0.842408,0.00415463,0.017778,1756,547,6.78827,3.32971
539,477,6.79041,-3.05408,0.00395649,0.00537288,0.00444285,0.00916362,0.000165748,0.864433,0.00605459,0.0163424,1763,547,6.79038,3.05405
546,477,6.78479,-2.83722,0.00540839,0.00773706,0.00623809,0.0129186,0.000226902,0.877661,0.00853774,0.0197679,1770,547,6.78481,2.83723
553,477,6.78088,-2.57581,0.00718302,0.010539,0.00831989,0.0173485,0.000373614,0.884907,0.0114431,0.0204011,1777,547,6.7809,2.5758
560,477,6.77722,-2.18518,0.00938926,0.0137418,0.0107506,0.0225342,0.000596828,0.885264,0.0148279,0.0363472,1784,547,6.77721,2.1852
567,477,6.79907,-1.77264,0,0,0,0,0,0,0,-1,1791,547,6.79909,1.77264
574,477,6.82593,-0.916992,0,0,0,0,0,0,0,-1,1798,547,6.82598,0.916977
581,477,9.29321,-0.557007,0,0,0,0,0,0,0,-1,1805,547,9.29324,0.55703
588,477,9.75195,0.422729,0,0,0,0,0,0,0,-1,1812,547,9.75198,-0.42273
595,477,9.89172,1.21326,0,0,0,0,0,0,0,-1,1819,547,9.89174,-1.21328
602,477,6.5271,-0.964417,0,0,0,0,0,0,0,-1,1826,547,6.52706,0.964427
609,477,0,0,0,0,0,0,0,0,0,-1,1833,547,0,0
616,477,0,0,0,0,0,0,0,0,0,-1,1840,547,0,0
623,477,0,0,0,0,0,0,0,0,0,-1,1847,547,0,0
630,477,0,0,0,0,0,0,0,0,0,-1,1854,547,0,0
637,477,0,0,0,0,0,0,0,0,0,-1,1861,547,0,0
644,477,0,0,0,0,0,0,0,0,0,-1,1868,547,0,0
651,477,0,0,0,0,0,0,0,0,0,-1,1875,547,0,0
658,477,0,0,0,0,0,0,0,0,0,-1,1882,547,0,0
665,477,0,0,0,0,0,0,0,0,0,-1,1889,547,0,0
672,477,0,0,0,0,0,0,0,0,0,-1,1896,547,0,0
679,477,0,0,0,0,0,0,0,0,0,-1,1903,547,0,0
686,477,0,0,0,0,0,0,0,0,0,-1,1910,547,0,0
693,477,0,0,0,0,0,0,0,0,0,-1,1917,547,0,0
700,477,0,0,0,0,0,0,0,0,0,-1,1924,547,0,0
707,477,0,0,0,0,0,0,0,0,0,-1,1931,547,0,0
714,477,0,0,0,0,0,0,0,0,0,-1,1938,547,0,0
721,477,0,0,0,0,0,0,0,0,0,-1,1945,547,0,0
728,477,0,0,0,0,0,0,0,0,0,-1,1952,547,0,0
735,477,0,0,0,0,0,0,0,0,0,-1,1959,547,0,0
742,477,0,0,0,0,0,0,0,0,0,-1,1966,547,0,0
749,477,0,0,0,0,0,0,0,0,0,-1,1973,547,0,0
756,477,0,0,0,0,0,0,0,0,0,-1,1980,547,0,0
763,477,0,0,0,0,0,0,0,0,0,-1,1987,547,0,0
770,477,0,0,0,0,0,0,0,0,0,-1,1994,547,0,0
777,477,0,0,0,0,0,0,0,0,0,-1,2001,547,0,0
784,477,0,0,0,0,0,0,0,0,0,-1,2008,547,0,0
791,477,0,0,0,0,0,0,0,0,0,-1,2015,547,0,0
798,477,0,0,0,0,0,0,0,0,0,-1,2022,547,0,0
805,477,0,0,0,0,0,0,0,0,0,-1,2029,547,0,0
812,477,0,0,0,0,0,0,0,0,0,-1,2036,547,0,0
-700,470,0,0,0,0,0,0,0,0,0,-1,524,554,0,0
-693,470,0,0,0,0,0,0,0,0,0,-1,531,554,0,0
-686,470,0,0,0,0,0,0,0,0,0,-1,538,554,0,0
-679,470,0,0,0,0,0,0,0,0,0,-1,545,554,0,0
-672,470,0,0,0,0,0,0,0,0,0,-1,552,554,0,0
-665,470,0,0,0,0,0,0,0,0,0,-1,559,554,0,0
-658,470,0,0,0,0,0,0,0,0,0,-1,566,554,0,0
-651,470,0,0,0,0,0,0,0,0,0,-1,573,554,0,0
-644,470,0,0,0,0,0,0,0,0,0,-1,580,554,0,0
-637,470,0,0,0,0,0,0,0,0,0,-1,587,554,0,0
-630,470,0,0,0,0,0,0,0,0,0,-1,594,554,0,0
-623,470,0,0,0,0,0,0,0,0,0,-1,601,554,0,0
-616,470,0,0,0,0,0,0,0,0,0,-1,608,554,0,0
-609,470,0,0,0,0,0,0,0,0,0,-1,615,554,0,0
-602,470,0,0,0,0,0,0,0,0,0,-1,622,554,0,0
-595,470,0,0,0,0,0,0,0,0,0,-1,629,554,0,0
-588,470,0,0,0,0,0,0,0,0,0,-1,636,554,0,0
-581,470,0,0,0,0,0,0,0,0,0,-1,643,554,0,0
-574,470,0,0,0,0,0,0,0,0,0,-1,650,554,0,0
-567,470,0,0,0,0,0,0,0,0,0,-1,657,554,0,0
-560,470,0,0,0,0,0,0,0,0,0,-1,664,554,0,0
-553,470,0,0,0,0,0,0,0,0,0,-1,671,554,0,0
-546,470,0,0,0,0,0,0,0,0,0,-1,678,554,0,0
-539,470,0,0,0,0,0,0,0,0,0,-1,685,554,0,0
-532,470,0,0,0,0,0,0,0,0,0,-1,692,554,0,0
-525,470,0,0,0,0,0,0,0,0,0,-1,699,554,0,0
-518,470,0,0,0,0,0,0,0,0,0,-1,706,554,0,0
-511,470,0,0,0,0,0,0,0,0,0,-1,713,554,0,0
-504,470,0,0,0,0,0,0,0,0,0,-1,720,554,0,0
-497,470,0,0,0,0,0,0,0,0,0,-1,727,554,0,0
-490,470,-10.0392,1.38037,0,0,0,0,0,0,0,-1,734,554,-10.0392,-1.38036
-483,470,-5.49719,1.94513,0,0,0,0,0,0,0,-1,741,554,-5.49718,-1.9451
-476,470,-8.63257,0.466431,0,0,0,0,0,0,0,-1,748,554,-8.63258,-0.466428
-469,470,-8.12396,0.151184,0,0,0,0,0,0,0,-1,755,554,-8.12395,-0.15119
-462,470,-7.31451,-0.536011,0,0,0,0,0,0,0,-1,762,554,-7.31449,0.535994
-455,470,-5.36963,-3.09192,0,0,0,0,0,0,0,-1,769,554,-5.36963,3.0919
-448,470,-1.41449,-2.66931,0,0,0,0,0,0,0,-1,776,554,-1.41447,2.66929
-441,470,-1.48682,-3.61865,0.0100373,0.00504316,-0.00922914,0.0171012,-0.00202074,-0.653279,0.0121306,0.0460773,783,554,-1.48681,3.61866
-434,470,-1.25214,-3.94519,0.00846198,0.00414768,-0.00767042,0.0142728,-0.00166315,-0.648324,0.0101153,0.0251263,790,554,-1.25214,3.94521
-427,470,-1.33313,-4.15027,0.0071247,0.00335132,-0.00640189,0.0119121,-0.00143611,-0.642101,0.00846084,0.0128989,797,554,-1.33314,4.15026
-420,470,-1.32062,-4.38861,0.00587707,0.00277032,-0.00513995,0.00969325,-0.00104586,-0.638654,0.0068375,0.0128182,804,554,-1.32061,4.38862
-413,470,-1.32178,-4.62909,0.00486123,0.00225759,-0.00413849,0.00789782,-0.000779002,-0.633016,0.00554316,0.0128261,811,554,-1.32176,4.62907
-406,470,-1.34015,-4.86072,0.00407296,0.00185293,-0.00329637,0.00644119,-0.000515304,-0.622992,0.0044758,0.00968189,818,554,-1.34014,4.86071
-399,470,-1.32874,-5.11011,0.00335169,0.00135207,-0.00250103,0.00504535,-0.000341586,-0.595249,0.00348302,0.0132637,825,554,-1.32872,5.11008
-392,470,-1.32349,-5.33453,0.00284742,0.000345082,-0.00182692,0.00381054,-0.000618033,-0.485154,0.00276945,0.014197,832,554,-1.32351,5.33455
-385,470,-1.31366,-5.54089,0.00246687,-0.000199157,-0.00143793,0.00309461,-0.0008269,-0.411621,0.00238694,0.0104865,839,554,-1.31367,5.54092
-378,470,-1.31744,-5.78772,0.00229135,-0.000856555,-0.00129934,0.00275838,-0.00132358,-0.345057,0.00240476,0.014557,846,554,-1.31747,5.78773
-371,470,-1.33081,-6.01416,0.00225002,-0.0016194,-0.00135912,0.00267969,-0.00204907,-0.306198,0.00273823,0.0126099,853,554,-1.33082,6.01416
-364,470,-1.33899,-6.22223,0.00237357,-0.00244686,-0.0016,0.0028563,-0.00292959,-0.293021,0.00334058,0.0134768,860,554,-1.33897,6.22221
-357,470,-1.33887,-6.43488,0.00282071,-0.00315348,-0.00221963,0.00355511,-0.00388788,-0.319526,0.00429864,0.0137103,867,554,-1.33885,6.4349
-350,470,-1.33649,-6.65021,0.00342225,-0.00370698,-0.00309359,0.00457746,-0.00486219,-0.357387,0.00545081,0.0097207,874,554,-1.33649,6.65022
-343,470,-1.25006,-6.89764,0.00388532,-0.00409704,-0.00411447,0.00562636,-0.00583809,-0.400304,0.00661938,0.0209708,881,554,-1.25007,6.89763
-336,470,-1.11444,-7.21991,0,0,0,0,0,0,0,-1,888,554,-1.11444,7.21992
-329,470,-1.1438,-7.26923,0,0,0,0,0,0,0,-1,895,554,-1.14379,7.26921
-322,470,-1.52979,-6.97113,0,0,0,0,0,0,0,-1,902,554,-1.52977,6.97114
-315,470,-1.38586,-7.2218,0,0,0,0,0,0,0,-1,909,554,-1.38584,7.22178
-308,470,-1.39368,-6.68152,0,0,0,0,0,0,0,-1,916,554,-1.39369,6.68149
-301,470,-0.0340576,3.34888,0,0,0,0,0,0,0,-1,923,554,-0.0340496,-3.3489
-294,470,-1.18378,3.22266,0,0,0,0,0,0,0,-1,930,554,-1.18376,-3.22268
-287,470,-2.15454,3.2204,0,0,0,0,0,0,0,-1,937,554,-2.15452,-3.22037
-280,470,-3.00537,3.099,0,0,0,0,0,0,0,-1,944,554,-3.00536,-3.09898
-273,470,1.05981,-2.39728,0,0,0,0,0,0,0,-1,951,554,1.05983,2.39727
-266,470,-3.55084,-1.16742,0,0,0,0,0,0,0,-1,958,554,-3.55086,1.16744
-259,470,-2.33282,-3.89526,0,0,0,0,0,0,0,-1,965,554,-2.33284,3.89527
-252,470,-0.369019,-4.24976,0,0,0,0,0,0,0,-1,972,554,-0.36901,4.24977
-245,470,1.33221,-6.81122,0,0,0,0,0,0,0,-1,979,554,1.33223,6.8112
-238,470,0,0,0,0,0,0,0,0,0,-1,986,554,0,0
-231,470,0,0,0,0,0,0,0,0,0,-1,993,554,0,0
-224,470,0,0,0,0,0,0,0,0,0,-1,1000,554,0,0
-217,470,0,0,0,0,0,0,0,0,0,-1,1007,554,0,0
-210,470,0,0,0,0,0,0,0,0,0,-1,1014,554,0,0
-203,470,0,0,0,0,0,0,0,0,0,-1,1021,554,0,0
-196,470,0,0,0,0,0,0,0,0,0,-1,1028,554,0,0
-189,470,0,0,0,0,0,0,0,0,0,-1,1035,554,0,0
-182,470,0,0,0,0,0,0,0,0,0,-1,1042,554,0,0
-175,470,0,0,0,0,0,0,0,0,0,-1,1049,554,0,0
-168,470,0,0,0,0,0,0,0,0,0,-1,1056,554,0,0
-161,470,0,0,0,0,0,0,0,0,0,-1,1063,554,0,0
-154,470,0,0,0,0,0,0,0,0,0,-1,1070,554,0,0
-147,470,0,0,0,0,0,0,0,0,0,-1,1077,554,0,0
-140,470,0,0,0,0,0,0,0,0,0,-1,1084,554,0,0
-133,470,0,0,0,0,0,0,0,0,0,-1,1091,554,0,0
-126,470,0,0,0,0,0,0,0,0,0,-1,1098,554,0,0
-119,470,0,0,0,0,0,0,0,0,0,-1,1105,554,0,0
-112,470,0,0,0,0,0,0,0,0,0,-1,1112,554,0,0
-105,470,0,0,0,0,0,0,0,0,0,-1,1119,554,0,0
-98,470,0,0,0,0,0,0,0,0,0,-1,1126,554,0,0
-91,470,0,0,0,0,0,0,0,0,0,-1,1133,554,0,0
-84,470,0,0,0,0,0,0,0,0,0,-1,1140,554,0,0
-77,470,0,0,0,0,0,0,0,0,0,-1,1147,554,0,0
-70,470,0,0,0,0,0,0,0,0,0,-1,1154,554,0,0
-63,470,0,0,0,0,0,0,0,0,0,-1,1161,554,0,0
-56,470,0,0,0,0,0,0,0,0,0,-1,1168,554,0,0
-49,470,0,0,0,0,0,0,0,0,0,-1,1175,554,0,0
-42,470,0,0,0,0,0,0,0,0,0,-1,1182,554,0,0
-35,470,0,0,0,0,0,0,0,0,0,-1,1189,554,0,0
-28,470,0,0,0,0,0,0,0,0,0,-1,1196,554,0,0
-21,470,0,0,0,0,0,0,0,0,0,-1,1203,554,0,0
-14,470,0,0,0,0,0,0,0,0,0,-1,1210,554,0,0
-7,470,0,0,0,0,0,0,0,0,0,-1,1217,554,0,0
0,470,0,0,0,0,0,0,0,0,0,-1,1224,554,0,0
7,470,0,0,0,0,0,0,0,0,0,-1,1231,554,0,0
14,470,0,0,0,0,0,0,0,0,0,-1,1238,554,0,0
21,470,0,0,0,0,0,0,0,0,0,-1,1245,554,0,0
28,470,0,0,0,0,0,0,0,0,0,-1,1252,554,0,0
35,470,0,0,0,0,0,0,0,0,0,-1,1259,554,0,0
42,470,0,0,0,0,0,0,0,0,0,-1,1266,554,0,0
49,470,0,0,0,0,0,0,0,0,0,-1,1273,554,0,0
56,470,0,0,0,0,0,0,0,0,0,-1,1280,554,0,0
63,470,0,0,0,0,0,0,0,0,0,-1,1287,554,0,0
70,470,0,0,0,0,0,0,0,0,0,-1,1294,554,0,0
77,470,0,0,0,0,0,0,0,0,0,-1,1301,554,0,0
84,470,0,0,0,0,0,0,0,0,0,-1,1308,554,0,0
91,470,0,0,0,0,0,0,0,0,0,-1,1315,554,0,0
98,470,0,0,0,0,0,0,0,0,0,-1,1322,554,0,0
105,470,0,0,0,0,0,0,0,0,0,-1,1329,554,0,0
112,470,0,0,0,0,0,0,0,0,0,-1,1336,554,0,0
119,470,0,0,0,0,0,0,0,0,0,-1,1343,554,0,0
126,470,0,0,0,0,0,0,0,0,0,-1,1350,554,0,0
133,470,0,0,0,0,0,0,0,0,0,-1,1357,554,0,0
140,470,0,0,0,0,0,0,0,0,0,-1,1364,554,0,0
147,470,0,0,0,0,0,0,0,0,0,-1,1371,554,0,0
154,470,0,0,0,0,0,0,0,0,0,-1,1378,554,0,0
161,470,0,0,0,0,0,0,0,0,0,-1,1385,554,0,0
168,470,0,0,0,0,0,0,0,0,0,-1,1392,554,0,0
175,470,0,0,0,0,0,0,0,0,0,-1,1399,554,0,0
182,470,0,0,0,0,0,0,0,0,0,-1,1406,554,0,0
189,470,0,0,0,0,0,0,0,0,0,-1,1413,554,0,0
196,470,0,0,0,0,0,0,0,0,0,-1,1420,554,0,0
203,470,0,0,0,0,0,0,0,0,0,-1,1427,554,0,0
210,470,0,0,0,0,0,0,0,0,0,-1,1434,554,0,0
217,470,0,0,0,0,0,0,0,0,0,-1,1441,554,0,0
224,470,0,0,0,0,0,0,0,0,0,-1,1448,554,0,0
231,470,0,0,0,0,0,0,0,0,0,-1,1455,554,0,0
238,470,0,0,0,0,0,0,0,0,0,-1,1462,554,0,0
245,470,0,0,0,0,0,0,0,0,0,-1,1469,554,0,0
252,470,0,0,0,0,0,0,0,0,0,-1,1476,554,0,0
259,470,0,0,0,0,0,0,0,0,0,-1,1483,554,0,0
266,470,0,0,0,0,0,0,0,0,0,-1,1490,554,0,0
273,470,0,0,0,0,0,0,0,0,0,-1,1497,554,0,0
280,470,0,0,0,0,0,0,0,0,0,-1,1504,554,0,0
287,470,0,0,0,0,0,0,0,0,0,-1,1511,554,0,0
294,470,0,0,0,0,0,0,0,0,0,-1,1518,554,0,0
301,470,0,0,0,0,0,0,0,0,0,-1,1525,554,0,0
308,470,0,0,0,0,0,0,0,0,0,-1,1532,554,0,0
315,470,0,0,0,0,0,0,0,0,0,-1,1539,554,0,0
322,470,0,0,0,0,0,0,0,0,0,-1,1546,554,0,0
329,470,0,0,0,0,0,0,0,0,0,-1,1553,554,0,0
336,470,0,0,0,0,0,0,0,0,0,-1,1560,554,0,0
343,470,0,0,0,0,0,0,0,0,0,-1,1567,554,0,0
350,470,0,0,0,0,0,0,0,0,0,-1,1574,554,0,0
357,470,0,0,0,0,0,0,0,0,0,-1,1581,554,0,0
364,470,1.33423,0.293335,0,0,0,0,0,0,0,-1,1588,554,1.33422,-0.293348
371,470,2.22498,-0.0305176,0,0,0,0,0,0,0,-1,1595,554,2.22494,0.0305046
378,470,6.27051,0.710083,0,0,0,0,0,0,0,-1,1602,554,6.27054,-0.710093
385,470,10.3657,1.47296,0,0,0,0,0,0,0,-1,1609,554,10.3657,-1.47299
392,470,15.3881,3.01935,0,0,0,0,0,0,0,-1,1616,554,15.388,-3.01937
399,470,18.4479,2.93793,0,0,0,0,0,0,0,-1,1623,554,18.4479,-2.93792
406,470,15.1896,1.36676,0,0,0,0,0,0,0,-1,1630,554,15.1896,-1.36679
413,470,6.55383,1.99207,0,0,0,0,0,0,0,-1,1637,554,6.5538,-1.99208
420,470,4.47095,0.845703,0,0,0,0,0,0,0,-1,1644,554,4.47098,-0.845718
427,470,3.51038,1.19684,0,0,0,0,0,0,0,-1,1651,554,3.51039,-1.19684
434,470,3.31775,-1.37427,0,0,0,0,0,0,0,-1,1658,554,3.31781,1.37426
441,470,2.55457,-2.05902,0,0,0,0,0,0,0,-1,1665,554,2.55461,2.05904
448,470,3.27258,-2.64032,0,0,0,0,0,0,0,-1,1672,554,3.27257,2.64029
455,470,7.63831,-6.22083,0,0,0,0,0,0,0,-1,1679,554,7.63836,6.22084
462,470,7.14368,-5.97034,0,0,0,0,0,0,0,-1,1686,554,7.1437,5.97036
469,470,6.96509,-5.66064,0,0,0,0,0,0,0,-1,1693,554,6.96515,5.66063
476,470,7.00586,-5.31848,-0.000252297,0.00413627,-1.36525e-05,0.00413632,-0.000252339,-1.56769,0.00284539,0.0297131,1700,554,7.00584,5.31849
483,470,7.06555,-5.06244,0.000688179,0.00345482,0.00051082,0.00354612,0.000596877,1.39393,0.00219237,0.0140839,1707,554,7.0656,5.06245
490,470,7.04248,-4.8222,0.00138908,0.00293278,0.000915961,0.00335873,0.000963125,1.13551,0.00199709,0.0109711,1714,554,7.04252,4.8222
497,470,7.0448,-4.5636,0.00159664,0.00217091,0.000913936,0.00284175,0.000925793,0.937603,0.00167356,0.0110172,1721,554,7.04476,4.56357
504,470,7.08105,-4.35114,0.00158699,0.00157629,0.000855855,0.00243751,0.000725769,0.782275,0.00144517,0.0181286,1728,554,7.08104,4.35114
511,470,7.11963,-4.13879,0.00175373,0.00137433,0.00111025,0.00269037,0.000437688,0.700783,0.00166695,0.0245333,1735,554,7.11964,4.13877
518,470,7.14185,-3.88702,0.00181741,0.0014994,0.00133309,0.00300095,0.000315862,0.726042,0.0019041,0.0241322,1742,554,7.14189,3.88702
525,470,7.11365,-3.57428,0.00197588,0.00198545,0.00172474,0.00370541,0.000255917,0.786784,0.00238954,0.0156022,1749,554,7.11359,3.57427
532,470,7.0697,-3.30292,0.00235995,0.00288887,0.00240343,0.00504234,0.000206474,0.840195,0.00329489,0.0132328,1756,554,7.06968,3.3029
539,470,7.04858,-3.05103,0.00302974,0.0041236,0.00336282,0.00698368,0.000169661,0.866013,0.00460028,0.0151168,1763,554,7.04856,3.05103
546,470,7.05713,-2.8194,0.00397334,0.00582267,0.00462411,0.00961366,0.00018235,0.88408,0.0063492,0.0137631,1770,554,7.05709,2.81938
553,470,7.06372,-2.56769,0.00506467,0.00774672,0.00600835,0.0125619,0.000249515,0.895195,0.00829266,0.0110615,1777,554,7.06372,2.5677
560,470,7.06311,-2.27716,0.00635114,0.00989654,0.00755772,0.0158867,0.000361001,0.900593,0.0104729,0.0151488,1784,554,7.06311,2.27718
567,470,7.02258,-2.00696,0.00778794,0.012201,0.00918988,0.0194455,0.000543403,0.90322,0.0127864,0.0196624,1791,554,7.02257,2.00696
574,470,7.10876,-1.61749,0,0,0,0,0,0,0,-1,1798,554,7.10876,1.61751
581,470,8.24646,-4.06317,0,0,0,0,0,0,0,-1,1805,554,8.24648,4.06318
588,470,11.1803,1.74927,0,0,0,0,0,0,0,-1,1812,554,11.1803,-1.74926
595,470,4.72192,3.44116,0,0,0,0,0,0,0,-1,1819,554,4.72191,-3.44116
602,470,14.4307,2.76141,0,0,0,0,0,0,0,-1,1826,554,14.4306,-2.76139
609,470,20.9181,4.41058,0,0,0,0,0,0,0,-1,1833,554,20.9181,-4.4106
616,470,0,0,0,0,0,0,0,0,0,-1,1840,554,0,0
623,470,0,0,0,0,0,0,0,0,0,-1,1847,554,0,0
630,470,0,0,0,0,0,0,0,0,0,-1,1854,554,0,0
637,470,0,0,0,0,0,0,0,0,0,-1,1861,554,0,0
644,470,0,0,0,0,0,0,0,0,0,-1,1868,554,0,0
651,470,0,0,0,0,0,0,0,0,0,-1,1875,554,0,0
658,470,0,0,0,0,0,0,0,0,0,-1,1882,554,0,0
665,470,0,0,0,0,0,0,0,0,0,-1,1889,554,0,0
672,470,0,0,0,0,0,0,0,0,0,-1,1896,554,0,0
679,470,0,0,0,0,0,0,0,0,0,-1,1903,554,0,0
686,470,0,0,0,0,0,0,0,0,0,-1,1910,554,0,0
693,470,0,0,0,0,0,0,0,0,0,-1,1917,554,0,0
700,470,0,0,0,0,0,0,0,0,0,-1,1924,554,0,0
707,470,0,0,0,0,0,0,0,0,0,-1,1931,554,0,0
714,470,0,0,0,0,0,0,0,0,0,-1,1938,554,0,0
721,470,0,0,0,0,0,0,0,0,0,-1,1945,554,0,0
728,470,0,0,0,0,0,0,0,0,0,-1,1952,554,0,0
735,470,0,0,0,0,0,0,0,0,0,-1,1959,554,0,0
742,470,0,0,0,0,0,0,0,0,0,-1,1966,554,0,0
749,470,0,0,0,0,0,0,0,0,0,-1,1973,554,0,0
756,470,0,0,0,0,0,0,0,0,0,-1,1980,554,0,0
763,470,0,0,0,0,0,0,0,0,0,-1,1987,554,0,0
770,470,0,0,0,0,0,0,0,0,0,-1,1994,554,0,0
777,470,0,0,0,0,0,0,0,0,0,-1,2001,554,0,0
784,470,0,0,0,0,0,0,0,0,0,-1,2008,554,0,0
791,470,0,0,0,0,0,0,0,0,0,-1,2015,554,0,0
798,470,0,0,0,0,0,0,0,0,0,-1,2022,554,0,0
805,470,0,0,0,0,0,0,0,0,0,-1,2029,554,0,0
812,470,0,0,0,0,0,0,0,0,0,-1,2036,554,0,0
-700,463,0,0,0,0,0,0,0,0,0,-1,524,561,0,0
-693,463,0,0,0,0,0,0,0,0,0,-1,531,561,0,0
-686,463,0,0,0,0,0,0,0,0,0,-1,538,561,0,0
-679,463,0,0,0,0,0,0,0,0,0,-1,545,561,0,0
-672,463,0,0,0,0,0,0,0,0,0,-1,552,561,0,0
-665,463,0,0,0,0,0,0,0,0,0,-1,559,561,0,0
-658,463,0,0,0,0,0,0,0,0,0,-1,566,561,0,0
-651,463,0,0,0,0,0,0,0,0,0,-1,573,561,0,0
-644,463,0,0,0,0,0,0,0,0,0,-1,580,561,0,0
-637,463,0,0,0,0,0,0,0,0,0,-1,587,561,0,0
-630,463,0,0,0,0,0,0,0,0,0,-1,594,561,0,0
-623,463,0,0,0,0,0,0,0,0,0,-1,601,561,0,0
-616,463,0,0,0,0,0,0,0,0,0,-1,608,561,0,0
-609,463,0,0,0,0,0,0,0,0,0,-1,615,561,0,0
-602,463,0,0,0,0,0,0,0,0,0,-1,622,561,0,0
-595,463,0,0,0,0,0,0,0,0,0,-1,629,561,0,0
-588,463,0,0,0,0,0,0,0,0,0,-1,636,561,0,0
-581,463,0,0,0,0,0,0,0,0,0,-1,643,561,0,0
-574,463,0,0,0,0,0,0,0,0,0,-1,650,561,0,0
-567,463,0,0,0,0,0,0,0,0,0,-1,657,561,0,0
-560,463,0,0,0,0,0,0,0,0,0,-1,664,561,0,0
-553,463,0,0,0,0,0,0,0,0,0,-1,671,561,0,0
-546,463,0,0,0,0,0,0,0,0,0,-1,678,561,0,0
-539,463,0,0,0,0,0,0,0,0,0,-1,685,561,0,0
-532,463,0,0,0,0,0,0,0,0,0,-1,692,561,0,0
-525,463,0,0,0,0,0,0,0,0,0,-1,699,561,0,0
-518,463,0,0,0,0,0,0,0,0,0,-1,706,561,0,0
-511,463,0,0,0,0,0,0,0,0,0,-1,713,561,0,0
-504,463,0,0,0,0,0,0,0,0,0,-1,720,561,0,0
-497,463,-11.5931,1.22791,0,0,0,0,0,0,0,-1,727,561,-11.5931,-1.2279
-490,463,-6.03046,2.0451,0,0,0,0,0,0,0,-1,734,561,-6.03045,-2.04509
-483,463,-5.01019,1.44458,0,0,0,0,0,0,0,-1,741,561,-5.01021,-1.4446
-476,463,-3.98999,0.844116,0,0,0,0,0,0,0,-1,748,561,-3.98997,-0.844116
-469,463,-3.07709,-1.4928,0,0,0,0,0,0,0,-1,755,561,-3.07709,1.49279
-462,463,-1.36017,-1.14777,0,0,0,0,0,0,0,-1,762,561,-1.36016,1.14774
-455,463,-1.44421,-2.67352,0,0,0,0,0,0,0,-1,769,561,-1.44423,2.67354
-448,463,-1.49744,-3.05927,0.00882699,0.00524021,-0.00858,0.015799,-0.00173183,-0.682372,0.0111549,0.0460479,776,561,-1.49744,3.05925
-441,463,-1.4397,-3.59027,0.00719142,0.00417499,-0.00693347,0.0127788,-0.00141241,-0.678303,0.00902692,0.0318049,783,561,-1.43967,3.59025
-434,463,-1.53687,-3.90033,0.00594169,0.00330778,-0.00558852,0.0103663,-0.00111686,-0.669683,0.00731167,0.0131066,790,561,-1.53687,3.90036
-427,463,-1.5426,-4.15375,0.00489157,0.00251059,-0.00450635,0.00836203,-0.000959876,-0.656258,0.00592064,0.00960821,797,561,-1.54259,4.15377
-420,463,-1.52069,-4.38647,0.00388634,0.00188525,-0.00342567,0.00645459,-0.000683001,-0.643314,0.00454785,0.0102149,804,561,-1.52071,4.38647
-413,463,-1.54285,-4.62848,0.0030998,0.00129805,-0.0025697,0.00492196,-0.000524115,-0.616804,0.00346924,0.00891815,811,561,-1.54285,4.62845
-406,463,-1.57544,-4.86487,0.00256098,0.000840876,-0.00185651,0.00374698,-0.000345125,-0.568485,0.00262061,0.00820222,818,561,-1.57542,4.86488
-399,463,-1.56067,-5.08942,0.00207304,0.000281848,-0.00117339,0.00265356,-0.000298675,-0.459432,0.00187654,0.00946456,825,561,-1.56069,5.08941
-392,463,-1.55072,-5.32745,0.00177342,-0.000857652,-0.000650949,0.00192566,-0.00100989,-0.229746,0.00172211,0.00955116,832,561,-1.55074,5.32747
-385,463,-1.55505,-5.5672,0.00159218,-0.0013925,-0.000473213,0.00166541,-0.00146573,-0.153532,0.00180899,0.0101307,839,561,-1.55505,5.5672
-378,463,-1.54633,-5.79846,0.0016227,-0.00208151,-0.000516944,0.00169349,-0.0021523,-0.136092,0.00222563,0.0109788,846,561,-1.54632,5.79847
-371,463,-1.5293,-6.01794,0.00179914,-0.00288704,-0.000810796,0.00193546,-0.00302336,-0.16657,0.00288585,0.0110197,853,561,-1.52932,6.01795
-364,463,-1.50867,-6.2179,0.00215823,-0.00377508,-0.00135586,0.00245339,-0.00407023,-0.214344,0.00380478,0.0139568,860,561,-1.50869,6.2179
-357,463,-1.52173,-6.42365,0.002929,-0.00458019,-0.00241623,0.00363928,-0.00529047,-0.28591,0.00518489,0.017463,867,561,-1.52175,6.42366
-350,463,-1.51416,-6.71967,0.00384242,-0.00528835,-0.00378346,0.00520639,-0.00665233,-0.346007,0.00686358,0.0184103,874,561,-1.51418,6.71967
-343,463,-1.45856,-6.85468,0.00455529,-0.00582625,-0.00541927,0.00686869,-0.00813965,-0.403466,0.00867542,0.0309126,881,561,-1.45857,6.85469
-336,463,-1.40588,-7.09448,0.00525782,-0.00600839,-0.00763633,0.00911394,-0.00986451,-0.467616,0.0109601,0.0383958,888,561,-1.40591,7.09447
-329,463,-1.11029,-7.44928,0,0,0,0,0,0,0,-1,895,561,-1.1103,7.44929
-322,463,-0.922302,-7.66071,0,0,0,0,0,0,0,-1,902,561,-0.922288,7.66072
-315,463,-0.944763,-5.96234,0,0,0,0,0,0,0,-1,909,561,-0.94479,5.96237
-308,463,-1.1535,-3.17889,0,0,0,0,0,0,0,-1,916,561,-1.15352,3.17889
-301,463,-1.50366,-3.15338,0,0,0,0,0,0,0,-1,923,561,-1.50364,3.15341
-294,463,-2.35889,-3.93463,0,0,0,0,0,0,0,-1,930,561,-2.35886,3.93465
-287,463,-2.80322,2.73999,0,0,0,0,0,0,0,-1,937,561,-2.80322,-2.74
-280,463,-3.29858,2.24219,0,0,0,0,0,0,0,-1,944,561,-3.29859,-2.24221
-273,463,-5.54578,0.486755,0,0,0,0,0,0,0,-1,951,561,-5.54576,-0.486736
-266,463,-4.19269,-1.5509,0,0,0,0,0,0,0,-1,958,561,-4.19268,1.5509
-259,463,-2.62646,-3.57037,0,0,0,0,0,0,0,-1,965,561,-2.62649,3.57035
-252,463,0,0,0,0,0,0,0,0,0,-1,972,561,0,0
-245,463,0,0,0,0,0,0,0,0,0,-1,979,561,0,0
-238,463,0,0,0,0,0,0,0,0,0,-1,986,561,0,0
-231,463,0,0,0,0,0,0,0,0,0,-1,993,561,0,0
-224,463,0,0,0,0,0,0,0,0,0,-1,1000,561,0,0
-217,463,0,0,0,0,0,0,0,0,0,-1,1007,561,0,0
-210,463,0,0,0,0,0,0,0,0,0,-1,1014,561,0,0
-203,463,0,0,0,0,0,0,0,0,0,-1,1021,561,0,0
-196,463,0,0,0,0,0,0,0,0,0,-1,1028,561,0,0
-189,463,0,0,0,0,0,0,0,0,0,-1,1035,561,0,0
-182,463,0,0,0,0,0,0,0,0,0,-1,1042,561,0,0
-175,463,0,0,0,0,0,0,0,0,0,-1,1049,561,0,0
-168,463,0,0,0,0,0,0,0,0,0,-1,1056,561,0,0
-161,463,0,0,0,0,0,0,0,0,0,-1,1063,561,0,0
-154,463,0,0,0,0,0,0,0,0,0,-1,1070,561,0,0
-147,463,0,0,0,0,0,0,0,0,0,-1,1077,561,0,0
-140,463,0,0,0,0,0,0,0,0,0,-1,1084,561,0,0
-133,463,0,0,0,0,0,0,0,0,0,-1,1091,561,0,0
-126,463,0,0,0,0,0,0,0,0,0,-1,1098,561,0,0
-119,463,0,0,0,0,0,0,0,0,0,-1,1105,561,0,0
-112,463,0,0,0,0,0,0,0,0,0,-1,1112,561,0,0
-105,463,0,0,0,0,0,0,0,0,0,-1,1119,561,0,0
-98,463,0,0,0,0,0,0,0,0,0,-1,1126,561,0,0
-91,463,0,0,0,0,0,0,0,0,0,-1,1133,561,0,0
-84,463,0,0,0,0,0,0,0,0,0,-1,1140,561,0,0
-77,463,0,0,0,0,0,0,0,0,0,-1,1147,561,0,0
-70,463,0,0,0,0,0,0,0,0,0,-1,1154,561,0,0
-63,463,0,0,0,0,0,0,0,0,0,-1,1161,561,0,0
-56,463,0,0,0,0,0,0,0,0,0,-1,1168,561,0,0
-49,463,0,0,0,0,0,0,0,0,0,-1,1175,561,0,0
-42,463,0,0,0,0,0,0,0,0,0,-1,1182,561,0,0
-35,463,0,0,0,0,0,0,0,0,0,-1,1189,561,0,0
-28,463,0,0,0,0,0,0,0,0,0,-1,1196,561,0,0
-21,463,0,0,0,0,0,0,0,0,0,-1,1203,561,0,0
-14,463,0,0,0,0,0,0,0,0,0,-1,1210,561,0,0
-7,463,0,0,0,0,0,0,0,0,0,-1,1217,561,0,0
0,463,0,0,0,0,0,0,0,0,0,-1,1224,561,0,0
7,463,0,0,0,0,0,0,0,0,0,-1,1231,561,0,0
14,463,0,0,0,0,0,0,0,0,0,-1,1238,561,0,0
21,463,0,0,0,0,0,0,0,0,0,-1,1245,561,0,0
28,463,0,0,0,0,0,0,0,0,0,-1,1252,561,0,0
35,463,0,0,0,0,0,0,0,0,0,-1,1259,561,0,0
42,463,0,0,0,0,0,0,0,0,0,-1,1266,561,0,0
49,463,0,0,0,0,0,0,0,0,0,-1,1273,561,0,0
56,463,0,0,0,0,0,0,0,0,0,-1,1280,561,0,0
63,463,0,0,0,0,0,0,0,0,0,-1,1287,561,0,0
70,463,0,0,0,0,0,0,0,0,0,-1,1294,561,0,0
77,463,0,0,0,0,0,0,0,0,0,-1,1301,561,0,0
84,463,0,0,0,0,0,0,0,0,0,-1,1308,561,0,0
91,463,0,0,0,0,0,0,0,0,0,-1,1315,561,0,0
98,463,0,0,0,0,0,0,0,0,0,-1,1322,561,0,0
105,463,0,0,0,0,0,0,0,0,0,-1,1329,561,0,0
112,463,0,0,0,0,0,0,0,0,0,-1,1336,561,0,0
119,463,0,0,0,0,0,0,0,0,0,-1,1343,561,0,0
126,463,0,0,0,0,0,0,0,0,0,-1,1350,561,0,0
133,463,0,0,0,0,0,0,0,0,0,-1,1357,561,0,0
140,463,0,0,0,0,0,0,0,0,0,-1,1364,561,0,0
147,463,0,0,0,0,0,0,0,0,0,-1,1371,561,0,0
154,463,0,0,0,0,0,0,0,0,0,-1,1378,561,0,0
161,463,0,0,0,0,0,0,0,0,0,-1,1385,561,0,0
168,463,0,0,0,0,0,0,0,0,0,-1,1392,561,0,0
175,463,0,0,0,0,0,0,0,0,0,-1,1399,561,0,0
182,463,0,0,0,0,0,0,0,0,0,-1,1406,561,0,0
189,463,0,0,0,0,0,0,0,0,0,-1,1413,561,0,0
196,463,0,0,0,0,0,0,0,0,0,-1,1420,561,0,0
203,463,0,0,0,0,0,0,0,0,0,-1,1427,561,0,0
210,463,0,0,0,0,0,0,0,0,0,-1,1434,561,0,0
217,463,0,0,0,0,0,0,0,0,0,-1,1441,561,0,0
224,463,0,0,0,0,0,0,0,0,0,-1,1448,561,0,0
231,463,0,0,0,0,0,0,0,0,0,-1,1455,561,0,0
238,463,0,0,0,0,0,0,0,0,0,-1,1462,561,0,0
245,463,0,0,0,0,0,0,0,0,0,-1,1469,561,0,0
252,463,0,0,0,0,0,0,0,0,0,-1,1476,561,0,0
259,463,0,0,0,0,0,0,0,0,0,-1,1483,561,0,0
266,463,0,0,0,0,0,0,0,0,0,-1,1490,561,0,0
273,463,0,0,0,0,0,0,0,0,0,-1,1497,561,0,0
280,463,0,0,0,0,0,0,0,0,0,-1,1504,561,0,0
287,463,0,0,0,0,0,0,0,0,0,-1,1511,561,0,0
294,463,0,0,0,0,0,0,0,0,0,-1,1518,561,0,0
301,463,0,0,0,0,0,0,0,0,0,-1,1525,561,0,0
308,463,0,0,0,0,0,0,0,0,0,-1,1532,561,0,0
315,463,0,0,0,0,0,0,0,0,0,-1,1539,561,0,0
322,463,0,0,0,0,0,0,0,0,0,-1,1546,561,0,0
329,463,0,0,0,0,0,0,0,0,0,-1,1553,561,0,0
336,463,0,0,0,0,0,0,0,0,0,-1,1560,561,0,0
343,463,0,0,0,0,0,0,0,0,0,-1,1567,561,0,0
350,463,0,0,0,0,0,0,0,0,0,-1,1574,561,0,0
357,463,0,0,0,0,0,0,0,0,0,-1,1581,561,0,0
364,463,0,0,0,0,0,0,0,0,0,-1,1588,561,0,0
371,463,1.75842,0.152588,0,0,0,0,0,0,0,-1,1595,561,1.75844,-0.152558
378,463,4.30493,0.169861,0,0,0,0,0,0,0,-1,1602,561,4.30489,-0.169877
385,463,8.49524,1.90533,0,0,0,0,0,0,0,-1,1609,561,8.49529,-1.90533
392,463,13.4452,2.6582,0,0,0,0,0,0,0,-1,1616,561,13.4452,-2.65821
399,463,18.395,3.41107,0,0,0,0,0,0,0,-1,1623,561,18.395,-3.41109
406,463,7.28088,1.38538,0,0,0,0,0,0,0,-1,1630,561,7.28091,-1.38537
413,463,8.05847,1.82239,0,0,0,0,0,0,0,-1,1637,561,8.05851,-1.82241
420,463,8.849,2.26611,0,0,0,0,0,0,0,-1,1644,561,8.84899,-2.26613
427,463,5.12207,1.69183,0,0,0,0,0,0,0,-1,1651,561,5.12206,-1.69184
434,463,4.59814,1.81995,0,0,0,0,0,0,0,-1,1658,561,4.59812,-1.81994
441,463,1.76392,-5.99225,0,0,0,0,0,0,0,-1,1665,561,1.7639,5.99225
448,463,2.49939,-4.30536,0,0,0,0,0,0,0,-1,1672,561,2.49941,4.30536
455,463,4.40295,-3.02557,0,0,0,0,0,0,0,-1,1679,561,4.40299,3.02558
462,463,5.38293,-4.06445,0,0,0,0,0,0,0,-1,1686,561,5.38289,4.06444
469,463,5.94373,-4.50647,0,0,0,0,0,0,0,-1,1693,561,5.94368,4.50646
476,463,7.13904,-5.55774,0,0,0,0,0,0,0,-1,1700,561,7.13908,5.55773
483,463,7.17566,-5.21954,0.00136709,0.00420351,0.00101998,0.0045322,0.0010384,1.25905,0.00274169,0.0377572,1707,561,7.17567,5.21954
490,463,7.29712,-4.82892,0.00215397,0.00367054,0.0014853,0.00457992,0.00124459,1.02142,0.00273451,0.0193961,1714,561,7.29716,4.82891
497,463,7.30005,-4.5506,0.0023001,0.00279723,0.00142146,0.0039917,0.00110563,0.871955,0.0023798,0.0119256,1721,561,7.30005,4.55062
504,463,7.32214,-4.3208,0.00205493,0.00191181,0.00116804,0.0031536,0.000813135,0.754803,0.00189057,0.016005,1728,561,7.32218,4.32082
511,463,7.33325,-4.09454,0.00196191,0.00141326,0.00118589,0.00290478,0.00047038,0.671734,0.00180033,0.0214224,1735,561,7.33322,4.09457
518,463,7.39478,-3.83972,0.00187274,0.00138947,0.00128525,0.00293887,0.000323336,0.69248,0.00186085,0.0222742,1742,561,7.39479,3.83973
525,463,7.36377,-3.57471,0.00183756,0.00170218,0.00152121,0.00329259,0.000247152,0.763165,0.00211749,0.0186389,1749,561,7.36381,3.5747
532,463,7.34888,-3.3208,0.0019729,0.00232214,0.00195213,0.00410744,0.000187599,0.830006,0.00267795,0.0156115,1756,561,7.34884,3.32083
539,463,7.31921,-3.06226,0.00231851,0.00313366,0.00255888,0.00531722,0.000134955,0.864375,0.0035007,0.0151328,1763,561,7.31927,3.06223
546,463,7.30103,-2.83386,0.00288003,0.00433391,0.0033995,0.00708333,0.00013061,0.89073,0.00467929,0.0120358,1770,561,7.301,2.83384
553,463,7.30859,-2.54407,0.00349297,0.0056086,0.00426005,0.0089402,0.000161369,0.907093,0.00590708,0.0103391,1777,561,7.3086,2.54404
560,463,7.32813,-2.23145,0.00414777,0.00700499,0.00517408,0.0109441,0.000208701,0.920097,0.00722748,0.0120453,1784,561,7.32811,2.23147
567,463,7.26697,-2.01251,0.00485188,0.00842908,0.00608294,0.0129809,0.000300031,0.928386,0.00855569,0.017615,1791,561,7.26698,2.01251
574,463,7.22705,-1.94153,0.00534782,0.0098899,0.00692372,0.0149055,0.000332189,0.943873,0.00982816,0.0473352,1798,561,7.22704,1.94153
581,463,7.39648,-1.81024,0,0,0,0,0,0,0,-1,1805,561,7.39645,1.81024
588,463,1.97424,2.16016,0,0,0,0,0,0,0,-1,1812,561,1.97422,-2.16013
595,463,9.98657,2.99854,0,0,0,0,0,0,0,-1,1819,561,9.98662,-2.99856
602,463,15.0848,4.91132,0,0,0,0,0,0,0,-1,1826,561,15.0848,-4.91134
609,463,17.96,4.03131,0,0,0,0,0,0,0,-1,1833,561,17.96,-4.03132
616,463,20.8352,3.15131,0,0,0,0,0,0,0,-1,1840,561,20.8352,-3.1513
623,463,0,0,0,0,0,0,0,0,0,-1,1847,561,0,0
630,463,0,0,0,0,0,0,0,0,0,-1,1854,561,0,0
637,463,0,0,0,0,0,0,0,0,0,-1,1861,561,0,0
644,463,0,0,0,0,0,0,0,0,0,-1,1868,561,0,0
651,463,0,0,0,0,0,0,0,0,0,-1,1875,561,0,0
658,463,0,0,0,0,0,0,0,0,0,-1,1882,561,0,0
665,463,0,0,0,0,0,0,0,0,0,-1,1889,561,0,0
672,463,0,0,0,0,0,0,0,0,0,-1,1896,561,0,0
679,463,0,0,0,0,0,0,0,0,0,-1,1903,561,0,0
686,463,0,0,0,0,0,0,0,0,0,-1,1910,561,0,0
693,463,0,0,0,0,0,0,0,0,0,-1,1917,561,0,0
700,463,0,0,0,0,0,0,0,0,0,-1,1924,561,0,0
707,463,0,0,0,0,0,0,0,0,0,-1,1931,561,0,0
714,463,0,0,0,0,0,0,0,0,0,-1,1938,561,0,0
721,463,0,0,0,0,0,0,0,0,0,-1,1945,561,0,0
728,463,0,0,0,0,0,0,0,0,0,-1,1952,561,0,0
735,463,0,0,0,0,0,0,0,0,0,-1,1959,561,0,0
742,463,0,0,0,0,0,0,0,0,0,-1,1966,561,0,0
749,463,0,0,0,0,0,0,0,0,0,-1,1973,561,0,0
756,463,0,0,0,0,0,0,0,0,0,-1,1980,561,0,0
763,463,0,0,0,0,0,0,0,0,0,-1,1987,561,0,0
770,463,0,0,0,0,0,0,0,0,0,-1,1994,561,0,0
777,463,0,0,0,0,0,0,0,0,0,-1,2001,561,0,0
784,463,0,0,0,0,0,0,0,0,0,-1,2008,561,0,0
791,463,0,0,0,0,0,0,0,0,0,-1,2015,561,0,0
798,463,0,0,0,0,0,0,0,0,0,-1,2022,561,0,0
805,463,0,0,0,0,0,0,0,0,0,-1,2029,561,0,0
812,463,0,0,0,0,0,0,0,0,0,-1,2036,561,0,0
-700,456,0,0,0,0,0,0,0,0,0,-1,524,568,0,0
-693,456,0,0,0,0,0,0,0,0,0,-1,531,568,0,0
-686,456,0,0,0,0,0,0,0,0,0,-1,538,568,0,0
-679,456,0,0,0,0,0,0,0,0,0,-1,545,568,0,0
-672,456,0,0,0,0,0,0,0,0,0,-1,552,568,0,0
-665,456,0,0,0,0,0,0,0,0,0,-1,559,568,0,0
-658,456,0,0,0,0,0,0,0,0,0,-1,566,568,0,0
-651,456,0,0,0,0,0,0,0,0,0,-1,573,568,0,0
-644,456,0,0,0,0,0,0,0,0,0,-1,580,568,0,0
-637,456,0,0,0,0,0,0,0,0,0,-1,587,568,0,0
-630,456,0,0,0,0,0,0,0,0,0,-1,594,568,0,0
-623,456,0,0,0,0,0,0,0,0,0,-1,601,568,0,0
-616,456,0,0,0,0,0,0,0,0,0,-1,608,568,0,0
-609,456,0,0,0,0,0,0,0,0,0,-1,615,568,0,0
-602,456,0,0,0,0,0,0,0,0,0,-1,622,568,0,0
-595,456,0,0,0,0,0,0,0,0,0,-1,629,568,0,0
-588,456,0,0,0,0,0,0,0,0,0,-1,636,568,0,0
-581,456,0,0,0,0,0,0,0,0,0,-1,643,568,0,0
-574,456,0,0,0,0,0,0,0,0,0,-1,650,568,0,0
-567,456,0,0,0,0,0,0,0,0,0,-1,657,568,0,0
-560,456,0,0,0,0,0,0,0,0,0,-1,664,568,0,0
-553,456,0,0,0,0,0,0,0,0,0,-1,671,568,0,0
-546,456,0,0,0,0,0,0,0,0,0,-1,678,568,0,0
-539,456,0,0,0,0,0,0,0,0,0,-1,685,568,0,0
-532,456,0,0,0,0,0,0,0,0,0,-1,692,568,0,0
-525,456,0,0,0,0,0,0,0,0,0,-1,699,568,0,0
-518,456,0,0,0,0,0,0,0,0,0,-1,706,568,0,0
-511,456,0,0,0,0,0,0,0,0,0,-1,713,568,0,0
-504,456,-13.3015,0.873108,0,0,0,0,0,0,0,-1,720,568,-13.3015,-0.873114
-497,456,-12.4813,0.344604,0,0,0,0,0,0,0,-1,727,568,-12.4813,-0.344597
-490,456,-5.5083,1.51416,0,0,0,0,0,0,0,-1,734,568,-5.50828,-1.51418
-483,456,-4.47461,0.87439,0,0,0,0,0,0,0,-1,741,568,-4.47461,-0.874401
-476,456,-3.44092,0.234619,0,0,0,0,0,0,0,-1,748,568,-3.44094,-0.234624
-469,456,-2.81238,-3.51501,0,0,0,0,0,0,0,-1,755,568,-2.81237,3.51501
-462,456,-2.53406,-3.711,0,0,0,0,0,0,0,-1,762,568,-2.53405,3.71102
-455,456,-1.71082,-2.90094,0,0,0,0,0,0,0,-1,769,568,-1.71079,2.90094
-448,456,-1.67938,-3.29681,0.00654924,0.00422882,-0.00646219,0.0119545,-0.00117648,-0.696575,0.0083894,0.0351187,776,568,-1.6794,3.29679
-441,456,-1.72961,-3.65863,0.00532919,0.00353072,-0.00529329,0.00979908,-0.000939167,-0.70126,0.00686722,0.0160449,783,568,-1.72959,3.65864
-434,456,-1.78064,-3.91394,0.00437502,0.00272681,-0.00422054,0.00785116,-0.000749334,-0.688981,0.00550092,0.00986721,790,568,-1.78064,3.91391
-427,456,-1.77429,-4.1568,0.00356001,0.00198873,-0.00326729,0.00613479,-0.000586049,-0.66741,0.00429855,0.00878134,797,568,-1.7743,4.15681
-420,456,-1.7666,-4.38965,0.00273054,0.00135079,-0.00230331,0.00444508,-0.000363743,-0.639893,0.00309177,0.0092292,804,568,-1.76657,4.38967
-413,456,-1.78497,-4.62982,0.00209674,0.000714981,-0.00152204,0.00307736,-0.000265642,-0.572345,0.00214561,0.00845445,811,568,-1.78495,4.6298
-406,456,-1.81091,-4.86029,0.00172682,0.000214534,-0.000867064,0.00212114,-0.00017978,-0.426813,0.00147767,0.0080866,818,568,-1.8109,4.86028
-399,456,-1.80438,-5.07837,0.00138193,-0.000411438,-0.000222341,0.00140909,-0.000438592,-0.121529,0.00111473,0.00952939,825,568,-1.80437,5.07837
-392,456,-1.77917,-5.31909,0.00118387,-0.00169121,0.000230464,0.00120223,-0.00170957,0.0794828,0.00168961,0.00918507,832,568,-1.77915,5.31908
-385,456,-1.77673,-5.55457,0.00108275,-0.00229259,0.000284088,0.00110649,-0.00231633,0.0833841,0.0020169,0.00910101,839,568,-1.77673,5.55456
-378,456,-1.7854,-5.79413,0.0011731,-0.00311674,0.000160286,0.00117908,-0.00312272,0.0372948,0.00256676,0.0101556,846,568,-1.78542,5.79414
-371,456,-1.77319,-6.00549,0.00140268,-0.00408643,-0.00026567,0.00141551,-0.00409926,-0.0482491,0.00330724,0.0108963,853,568,-1.77319,6.00551
-364,456,-1.75122,-6.21283,0.00182098,-0.00517244,-0.00102996,0.00196952,-0.00532097,-0.143225,0.0043549,0.0146389,860,568,-1.75121,6.21285
-357,456,-1.72058,-6.46649,0.00271468,-0.00623236,-0.00247593,0.00335414,-0.00687183,-0.252749,0.00601928,0.0184999,867,568,-1.72056,6.46647
-350,456,-1.53357,-6.52893,0.00374757,-0.0072565,-0.00435532,0.00526274,-0.00877167,-0.334794,0.00818675,0.0341222,874,568,-1.53359,6.52892
-343,456,-1.32391,-6.20728,0.00455834,-0.00804298,-0.00668897,0.00744683,-0.0109315,-0.407642,0.0106741,0.0413358,881,568,-1.32389,6.20727
-336,456,-1.63391,-7.32666,0.00535419,-0.00852438,-0.00974214,0.0103758,-0.013546,-0.475933,0.0138516,0.0476729,888,568,-1.63391,7.32665
-329,456,-1.3277,-7.6803,0,0,0,0,0,0,0,-1,895,568,-1.3277,7.68027
-322,456,-0.662537,-7.66632,0,0,0,0,0,0,0,-1,902,568,-0.662564,7.66633
-315,456,-0.675476,-3.38397,0,0,0,0,0,0,0,-1,909,568,-0.675473,3.38399
-308,456,-1.1618,-3.15314,0,0,0,0,0,0,0,-1,916,568,-1.16178,3.15314
-301,456,-1.83551,-3.26447,0,0,0,0,0,0,0,-1,923,568,-1.8355,3.26449
-294,456,-2.93414,-3.35449,0,0,0,0,0,0,0,-1,930,568,-2.93413,3.35451
-287,456,-3.7569,-3.53101,0,0,0,0,0,0,0,-1,937,568,-3.75692,3.53101
-280,456,-3.58478,1.37744,0,0,0,0,0,0,0,-1,944,568,-3.58476,-1.37746
-273,456,-5.48199,0.679199,0,0,0,0,0,0,0,-1,951,568,-5.482,-0.679176
-266,456,-3.95667,-0.68927,0,0,0,0,0,0,0,-1,958,568,-3.95667,0.689273
-259,456,0,0,0,0,0,0,0,0,0,-1,965,568,0,0
-252,456,0,0,0,0,0,0,0,0,0,-1,972,568,0,0
-245,456,0,0,0,0,0,0,0,0,0,-1,979,568,0,0
-238,456,0,0,0,0,0,0,0,0,0,-1,986,568,0,0
-231,456,0,0,0,0,0,0,0,0,0,-1,993,568,0,0
-224,456,0,0,0,0,0,0,0,0,0,-1,1000,568,0,0
-217,456,0,0,0,0,0,0,0,0,0,-1,1007,568,0,0
-210,456,0,0,0,0,0,0,0,0,0,-1,1014,568,0,0
-203,456,0,0,0,0,0,0,0,0,0,-1,1021,568,0,0
-196,456,0,0,0,0,0,0,0,0,0,-1,1028,568,0,0
-189,456,0,0,0,0,0,0,0,0,0,-1,1035,568,0,0
-182,456,0,0,0,0,0,0,0,0,0,-1,1042,568,0,0
-175,456,0,0,0,0,0,0,0,0,0,-1,1049,568,0,0
-168,456,0,0,0,0,0,0,0,0,0,-1,1056,568,0,0
-161,456,0,0,0,0,0,0,0,0,0,-1,1063,568,0,0
-154,456,0,0,0,0,0,0,0,0,0,-1,1070,568,0,0
-147,456,0,0,0,0,0,0,0,0,0,-1,1077,568,0,0
-140,456,0,0,0,0,0,0,0,0,0,-1,1084,568,0,0
-133,456,0,0,0,0,0,0,0,0,0,-1,1091,568,0,0
-126,456,0,0,0,0,0,0,0,0,0,-1,1098,568,0,0
-119,456,0,0,0,0,0,0,0,0,0,-1,1105,568,0,0
-112,456,0,0,0,0,0,0,0,0,0,-1,1112,568,0,0
-105,456,0,0,0,0,0,0,0,0,0,-1,1119,568,0,0
-98,456,0,0,0,0,0,0,0,0,0,-1,1126,568,0,0
-91,456,0,0,0,0,0,0,0,0,0,-1,1133,568,0,0
-84,456,0,0,0,0,0,0,0,0,0,-1,1140,568,0,0
-77,456,0,0,0,0,0,0,0,0,0,-1,1147,568,0,0
-70,456,0,0,0,0,0,0,0,0,0,-1,1154,568,0,0
-63,456,0,0,0,0,0,0,0,0,0,-1,1161,568,0,0
-56,456,0,0,0,0,0,0,0,0,0,-1,1168,568,0,0
-49,456,0,0,0,0,0,0,0,0,0,-1,1175,568,0,0
-42,456,0,0,0,0,0,0,0,0,0,-1,1182,568,0,0
-35,456,0,0,0,0,0,0,0,0,0,-1,1189,568,0,0
-28,456,0,0,0,0,0,0,0,0,0,-1,1196,568,0,0
-21,456,0,0,0,0,0,0,0,0,0,-1,1203,568,0,0
-14,456,0,0,0,0,0,0,0,0,0,-1,1210,568,0,0
-7,456,0,0,0,0,0,0,0,0,0,-1,1217,568,0,0
0,456,0,0,0,0,0,0,0,0,0,-1,1224,568,0,0
7,456,0,0,0,0,0,0,0,0,0,-1,1231,568,0,0
14,456,0,0,0,0,0,0,0,0,0,-1,1238,568,0,0
21,456,0,0,0,0,0,0,0,0,0,-1,1245,568,0,0
28,456,0,0,0,0,0,0,0,0,0,-1,1252,568,0,0
35,456,0,0,0,0,0,0,0,0,0,-1,1259,568,0,0
42,456,0,0,0,0,0,0,0,0,0,-1,1266,568,0,0
49,456,0,0,0,0,0,0,0,0,0,-1,1273,568,0,0
56,456,0,0,0,0,0,0,0,0,0,-1,1280,568,0,0
63,456,0,0,0,0,0,0,0,0,0,-1,1287,568,0,0
70,456,0,0,0,0,0,0,0,0,0,-1,1294,568,0,0
77,456,0,0,0,0,0,0,0,0,0,-1,1301,568,0,0
84,456,0,0,0,0,0,0,0,0,0,-1,1308,568,0,0
91,456,0,0,0,0,0,0,0,0,0,-1,1315,568,0,0
98,456,0,0,0,0,0,0,0,0,0,-1,1322,568,0,0
105,456,0,0,0,0,0,0,0,0,0,-1,1329,568,0,0
112,456,0,0,0,0,0,0,0,0,0,-1,1336,568,0,0
119,456,0,0,0,0,0,0,0,0,0,-1,1343,568,0,0
126,456,0,0,0,0,0,0,0,0,0,-1,1350,568,0,0
133,456,0,0,0,0,0,0,0,0,0,-1,1357,568,0,0
140,456,0,0,0,0,0,0,0,0,0,-1,1364,568,0,0
147,456,0,0,0,0,0,0,0,0,0,-1,1371,568,0,0
154,456,0,0,0,0,0,0,0,0,0,-1,1378,568,0,0
161,456,0,0,0,0,0,0,0,0,0,-1,1385,568,0,0
168,456,0,0,0,0,0,0,0,0,0,-1,1392,568,0,0
175,456,0,0,0,0,0,0,0,0,0,-1,1399,568,0,0
182,456,0,0,0,0,0,0,0,0,0,-1,1406,568,0,0
189,456,0,0,0,0,0,0,0,0,0,-1,1413,568,0,0
196,456,0,0,0,0,0,0,0,0,0,-1,1420,568,0,0
203,456,0,0,0,0,0,0,0,0,0,-1,1427,568,0,0
210,456,0,0,0,0,0,0,0,0,0,-1,1434,568,0,0
217,456,0,0,0,0,0,0,0,0,0,-1,1441,568,0,0
224,456,0,0,0,0,0,0,0,0,0,-1,1448,568,0,0
231,456,0,0,0,0,0,0,0,0,0,-1,1455,568,0,0
238,456,0,0,0,0,0,0,0,0,0,-1,1462,568,0,0
245,456,0,0,0,0,0,0,0,0,0,-1,1469,568,0,0
252,456,0,0,0,0,0,0,0,0,0,-1,1476,568,0,0
259,456,0,0,0,0,0,0,0,0,0,-1,1483,568,0,0
266,456,0,0,0,0,0,0,0,0,0,-1,1490,568,0,0
273,456,0,0,0,0,0,0,0,0,0,-1,1497,568,0,0
280,456,0,0,0,0,0,0,0,0,0,-1,1504,568,0,0
287,456,0,0,0,0,0,0,0,0,0,-1,1511,568,0,0
294,456,0,0,0,0,0,0,0,0,0,-1,1518,568,0,0
301,456,0,0,0,0,0,0,0,0,0,-1,1525,568,0,0
308,456,0,0,0,0,0,0,0,0,0,-1,1532,568,0,0
315,456,0,0,0,0,0,0,0,0,0,-1,1539,568,0,0
322,456,0,0,0,0,0,0,0,0,0,-1,1546,568,0,0
329,456,0,0,0,0,0,0,0,0,0,-1,1553,568,0,0
336,456,0,0,0,0,0,0,0,0,0,-1,1560,568,0,0
343,456,0,0,0,0,0,0,0,0,0,-1,1567,568,0,0
350,456,0,0,0,0,0,0,0,0,0,-1,1574,568,0,0
357,456,0,0,0,0,0,0,0,0,0,-1,1581,568,0,0
364,456,0,0,0,0,0,0,0,0,0,-1,1588,568,0,0
371,456,0,0,0,0,0,0,0,0,0,-1,1595,568,0,0
378,456,0,0,0,0,0,0,0,0,0,-1,1602,568,0,0
385,456,5.66284,0.660645,0,0,0,0,0,0,0,-1,1609,568,5.66285,-0.660615
392,456,11.5023,2.29706,0,0,0,0,0,0,0,-1,1616,568,11.5023,-2.29705
399,456,16.0734,3.72198,0,0,0,0,0,0,0,-1,1623,568,16.0734,-3.72199
406,456,18.6315,3.57715,0,0,0,0,0,0,0,-1,1630,568,18.6315,-3.57713
413,456,9.55115,1.49933,0,0,0,0,0,0,0,-1,1637,568,9.55119,-1.49933
420,456,6.33875,1.88824,0,0,0,0,0,0,0,-1,1644,568,6.33876,-1.88827
427,456,6.21375,2.02905,0,0,0,0,0,0,0,-1,1651,568,6.21372,-2.02904
434,456,3.0719,-4.86285,0,0,0,0,0,0,0,-1,1658,568,3.07184,4.86287
441,456,2.90344,-4.70459,0,0,0,0,0,0,0,-1,1665,568,2.90346,4.7046
448,456,3.06995,-4.93689,0,0,0,0,0,0,0,-1,1672,568,3.06991,4.93687
455,456,3.46582,-3.43701,0,0,0,0,0,0,0,-1,1679,568,3.46585,3.43698
462,456,4.68445,-4.45831,0,0,0,0,0,0,0,-1,1686,568,4.68439,4.45833
469,456,4.93201,-2.289,0,0,0,0,0,0,0,-1,1693,568,4.93197,2.28903
476,456,4.8363,-2.79364,0,0,0,0,0,0,0,-1,1700,568,4.83636,2.79363
483,456,7.14929,-5.5799,0,0,0,0,0,0,0,-1,1707,568,7.14926,5.5799
490,456,7.58276,-5.03424,0,0,0,0,0,0,0,-1,1714,568,7.58276,5.03426
497,456,7.56763,-4.61981,0.00315592,0.00346302,0.00208098,0.00539611,0.00122283,0.822225,0.00326699,0.0344548,1721,568,7.56762,4.61979
504,456,7.53894,-4.3064,0.0026403,0.00222939,0.00155767,0.00400601,0.000863683,0.719827,0.00243439,0.0115091,1728,568,7.53899,4.30638
511,456,7.5614,-4.06232,0.00227742,0.00139447,0.00127765,0.00318771,0.000484169,0.619052,0.00198355,0.0127838,1735,568,7.56137,4.0623
518,456,7.58069,-3.82159,0.00205359,0.00122137,0.00123611,0.00294175,0.000333211,0.62304,0.00186007,0.0154665,1742,568,7.58065,3.82162
525,456,7.57874,-3.57861,0.00185447,0.00138746,0.00132856,0.00296989,0.000272047,0.698408,0.00189576,0.0158166,1749,568,7.57876,3.57864
532,456,7.57532,-3.30957,0.00178372,0.00176639,0.00155063,0.00332571,0.0002244,0.782605,0.00214625,0.014601,1756,568,7.57527,3.30957
539,456,7.55981,-3.04846,0.00186971,0.0022447,0.00188134,0.00394786,0.000166552,0.835064,0.00257818,0.0172245,1763,568,7.55978,3.04844
546,456,7.54333,-2.80774,0.00213726,0.00306483,0.00241152,0.00505675,0.000145331,0.880399,0.00332378,0.0190228,1770,568,7.54327,2.80772
553,456,7.55212,-2.51135,0.00240642,0.00388326,0.00292246,0.00615914,0.000130538,0.909144,0.00406328,0.0128485,1777,568,7.55213,2.51137
560,456,7.57739,-2.25659,0.00264248,0.00477329,0.00344514,0.007314,0.000101767,0.935358,0.00484244,0.00998524,1784,568,7.57737,2.25662
567,456,7.59094,-2.0072,0.00290575,0.00567113,0.00396839,0.00849082,8.60631e-05,0.953034,0.00563208,0.0130658,1791,568,7.59097,2.00718
574,456,7.55103,-1.88348,0.00297303,0.00653387,0.00440502,0.00950467,2.22959e-06,0.97745,0.0063357,0.036636,1798,568,7.55103,1.88347
581,456,7.64258,-1.69836,0,0,0,0,0,0,0,-1,1805,568,7.64263,1.69837
588,456,5.23901,-0.0901489,0,0,0,0,0,0,0,-1,1812,568,5.23906,0.0901656
595,456,6.90063,3.14886,0,0,0,0,0,0,0,-1,1819,568,6.90066,-3.14887
602,456,12.3827,4.21948,0,0,0,0,0,0,0,-1,1826,568,12.3827,-4.21951
609,456,14.9966,3.5708,0,0,0,0,0,0,0,-1,1833,568,14.9966,-3.57083
616,456,17.7407,2.6579,0,0,0,0,0,0,0,-1,1840,568,17.7408,-2.6579
623,456,20.6838,1.7121,0,0,0,0,0,0,0,-1,1847,568,20.6838,-1.71208
630,456,0,0,0,0,0,0,0,0,0,-1,1854,568,0,0
637,456,0,0,0,0,0,0,0,0,0,-1,1861,568,0,0
644,456,0,0,0,0,0,0,0,0,0,-1,1868,568,0,0
651,456,0,0,0,0,0,0,0,0,0,-1,1875,568,0,0
658,456,0,0,0,0,0,0,0,0,0,-1,1882,568,0,0
665,456,0,0,0,0,0,0,0,0,0,-1,1889,568,0,0
672,456,0,0,0,0,0,0,0,0,0,-1,1896,568,0,0
679,456,0,0,0,0,0,0,0,0,0,-1,1903,568,0,0
686,456,0,0,0,0,0,0,0,0,0,-1,1910,568,0,0
693,456,0,0,0,0,0,0,0,0,0,-1,1917,568,0,0
700,456,0,0,0,0,0,0,0,0,0,-1,1924,568,0,0
707,456,0,0,0,0,0,0,0,0,0,-1,1931,568,0,0
714,456,0,0,0,0,0,0,0,0,0,-1,1938,568,0,0
721,456,0,0,0,0,0,0,0,0,0,-1,1945,568,0,0
728,456,0,0,0,0,0,0,0,0,0,-1,1952,568,0,0
735,456,0,0,0,0,0,0,0,0,0,-1,1959,568,0,0
742,456,0,0,0,0,0,0,0,0,0,-1,1966,568,0,0
749,456,0,0,0,0,0,0,0,0,0,-1,1973,568,0,0
756,456,0,0,0,0,0,0,0,0,0,-1,1980,568,0,0
763,456,0,0,0,0,0,0,0,0,0,-1,1987,568,0,0
770,456,0,0,0,0,0,0,0,0,0,-1,1994,568,0,0
777,456,0,0,0,0,0,0,0,0,0,-1,2001,568,0,0
784,456,0,0,0,0,0,0,0,0,0,-1,2008,568,0,0
791,456,0,0,0,0,0,0,0,0,0,-1,2015,568,0,0
798,456,0,0,0,0,0,0,0,0,0,-1,2022,568,0,0
805,456,0,0,0,0,0,0,0,0,0,-1,2029,568,0,0
812,456,0,0,0,0,0,0,0,0,0,-1,2036,568,0,0
-700,449,0,0,0,0,0,0,0,0,0,-1,524,575,0,0
-693,449,0,0,0,0,0,0,0,0,0,-1,531,575,0,0
-686,449,0,0,0,0,0,0,0,0,0,-1,538,575,0,0
-679,449,0,0,0,0,0,0,0,0,0,-1,545,575,0,0
-672,449,0,0,0,0,0,0,0,0,0,-1,552,575,0,0
-665,449,0,0,0,0,0,0,0,0,0,-1,559,575,0,0
-658,449,0,0,0,0,0,0,0,0,0,-1,566,575,0,0
-651,449,0,0,0,0,0,0,0,0,0,-1,573,575,0,0
-644,449,0,0,0,0,0,0,0,0,0,-1,580,575,0,0
-637,449,0,0,0,0,0,0,0,0,0,-1,587,575,0,0
-630,449,0,0,0,0,0,0,0,0,0,-1,594,575,0,0
-623,449,0,0,0,0,0,0,0,0,0,-1,601,575,0,0
-616,449,0,0,0,0,0,0,0,0,0,-1,608,575,0,0
-609,449,0,0,0,0,0,0,0,0,0,-1,615,575,0,0
-602,449,0,0,0,0,0,0,0,0,0,-1,622,575,0,0
-595,449,0,0,0,0,0,0,0,0,0,-1,629,575,0,0
-588,449,0,0,0,0,0,0,0,0,0,-1,636,575,0,0
-581,449,0,0,0,0,0,0,0,0,0,-1,643,575,0,0
-574,449,0,0,0,0,0,0,0,0,0,-1,650,575,0,0
-567,449,0,0,0,0,0,0,0,0,0,-1,657,575,0,0
-560,449,0,0,0,0,0,0,0,0,0,-1,664,575,0,0
-553,449,0,0,0,0,0,0,0,0,0,-1,671,575,0,0
-546,449,0,0,0,0,0,0,0,0,0,-1,678,575,0,0
-539,449,0,0,0,0,0,0,0,0,0,-1,685,575,0,0
-532,449,0,0,0,0,0,0,0,0,0,-1,692,575,0,0
-525,449,0,0,0,0,0,0,0,0,0,-1,699,575,0,0
-518,449,0,0,0,0,0,0,0,0,0,-1,706,575,0,0
-511,449,-0.941345,-4.4519,0,0,0,0,0,0,0,-1,713,575,-0.941356,4.45191
-504,449,-14.1078,0.318237,0,0,0,0,0,0,0,-1,720,575,-14.1078,-0.318231
-497,449,-5.80096,1.13574,0,0,0,0,0,0,0,-1,727,575,-5.80098,-1.13577
-490,449,-4.97058,0.830383,0,0,0,0,0,0,0,-1,734,575,-4.97057,-0.830372
-483,449,-4.43695,-1.53308,0,0,0,0,0,0,0,-1,741,575,-4.43697,1.5331
-476,449,-2.62128,-0.568298,0,0,0,0,0,0,0,-1,748,575,-2.62127,0.568324
-469,449,-2.10754,-2.38092,0,0,0,0,0,0,0,-1,755,575,-2.10753,2.38091
-462,449,-2.38336,-3.11072,0,0,0,0,0,0,0,-1,762,575,-2.38335,3.11074
-455,449,-2.17133,-3.22272,0.00635042,0.00388799,-0.00592132,0.0111672,-0.000928766,-0.682894,0.00777289,0.0481945,769,575,-2.1713,3.22272
-448,449,-1.99335,-3.39581,0.00500282,0.00322212,-0.00492652,0.0091188,-0.000893854,-0.696,0.006398,0.023271,776,575,-1.99333,3.39581
-441,449,-1.99744,-3.70349,0.00400286,0.00285799,-0.00406768,0.00753819,-0.00067734,-0.715493,0.00526578,0.0130151,783,575,-1.99743,3.70351
-434,449,-2.02759,-3.92438,0.00316315,0.00218853,-0.00317602,0.00588903,-0.000537348,-0.709275,0.00411684,0.01177,790,575,-2.02756,3.92441
-427,449,-2.02576,-4.15082,0.00242813,0.00156719,-0.00229064,0.0043284,-0.00033308,-0.692519,0.00300279,0.0124529,797,575,-2.02573,4.15082
-420,449,-2.01703,-4.38745,0.00165294,0.000965771,-0.00139748,0.00274845,-0.000129743,-0.66486,0.00187704,0.0125092,804,575,-2.01703,4.38744
-413,449,-2.01648,-4.61835,0.00106431,0.000325232,-0.00064978,0.00144228,-5.2741e-05,-0.526851,0.000979573,0.00993533,811,575,-2.01646,4.61833
-406,449,-2.04443,-4.86011,0.000766746,-0.000197446,-6.38733e-06,0.000766789,-0.000197488,-0.00662415,0.000588179,0.00869885,818,575,-2.04445,4.86008
-399,449,-2.05145,-5.09393,0.000496098,-0.00088213,0.000648905,0.000753533,-0.00113957,0.377678,0.00110053,0.00861383,825,575,-2.05147,5.0939
-392,449,-2.01965,-5.32623,0.000351954,-0.00228525,0.00109422,0.000746833,-0.00268013,0.346333,0.00208086,0.00968082,832,575,-2.01966,5.32626
-385,449,-2.00586,-5.5379,0.000295876,-0.00301463,0.00109657,0.000626152,-0.0033449,0.292548,0.0024653,0.0104374,839,575,-2.00588,5.5379
-378,449,-2.02521,-5.77185,0.000419455,-0.00406649,0.000976023,0.000622611,-0.00426965,0.205217,0.00307505,0.00931753,846,575,-2.02522,5.77185
-371,449,-2.039,-6.00641,0.000679823,-0.00532578,0.000505043,0.000721999,-0.00536795,0.0833156,0.00384198,0.0101745,853,575,-2.03903,6.00641
-364,449,-2.02087,-6.24316,0.00113362,-0.00677509,-0.000402076,0.00115401,-0.00679547,-0.0506655,0.00495994,0.0179933,860,575,-2.02087,6.24318
-357,449,-1.85455,-6.3717,0.00211804,-0.00829505,-0.00219381,0.00256135,-0.00873837,-0.19939,0.00684111,0.0336313,867,575,-1.85458,6.37171
-350,449,-1.61694,-6.51373,0,0,0,0,0,0,0,-1,874,575,-1.61697,6.51374
-343,449,-1.45636,-4.99829,0,0,0,0,0,0,0,-1,881,575,-1.45637,4.99828
-336,449,-1.87073,-7.47357,0,0,0,0,0,0,0,-1,888,575,-1.87073,7.47359
-329,449,-0.733398,-7.78937,0,0,0,0,0,0,0,-1,895,575,-0.733398,7.78937
-322,449,-0.628845,-3.16669,0,0,0,0,0,0,0,-1,902,575,-0.628861,3.16667
-315,449,-0.540344,-3.21918,0,0,0,0,0,0,0,-1,909,575,-0.540336,3.21917
-308,449,-1.04413,-2.99341,0,0,0,0,0,0,0,-1,916,575,-1.04415,2.99338
-301,449,-1.58691,-2.80725,0,0,0,0,0,0,0,-1,923,575,-1.58692,2.80728
-294,449,-3.71118,-2.76086,0,0,0,0,0,0,0,-1,930,575,-3.71119,2.76087
-287,449,-4.4082,-2.69525,0,0,0,0,0,0,0,-1,937,575,-4.40822,2.69526
-280,449,-5.09955,-2.96295,0,0,0,0,0,0,0,-1,944,575,-5.09953,2.96297
-273,449,0,0,0,0,0,0,0,0,0,-1,951,575,0,0
-266,449,0,0,0,0,0,0,0,0,0,-1,958,575,0,0
-259,449,0,0,0,0,0,0,0,0,0,-1,965,575,0,0
-252,449,0,0,0,0,0,0,0,0,0,-1,972,575,0,0
-245,449,0,0,0,0,0,0,0,0,0,-1,979,575,0,0
-238,449,0,0,0,0,0,0,0,0,0,-1,986,575,0,0
-231,449,0,0,0,0,0,0,0,0,0,-1,993,575,0,0
-224,449,0,0,0,0,0,0,0,0,0,-1,1000,575,0,0
-217,449,0,0,0,0,0,0,0,0,0,-1,1007,575,0,0
-210,449,0,0,0,0,0,0,0,0,0,-1,1014,575,0,0
-203,449,0,0,0,0,0,0,0,0,0,-1,1021,575,0,0
-196,449,0,0,0,0,0,0,0,0,0,-1,1028,575,0,0
-189,449,0,0,0,0,0,0,0,0,0,-1,1035,575,0,0
-182,449,0,0,0,0,0,0,0,0,0,-1,1042,575,0,0
-175,449,0,0,0,0,0,0,0,0,0,-1,1049,575,0,0
-168,449,0,0,0,0,0,0,0,0,0,-1,1056,575,0,0
-161,449,0,0,0,0,0,0,0,0,0,-1,1063,575,0,0
-154,449,0,0,0,0,0,0,0,0,0,-1,1070,575,0,0
-147,449,0,0,0,0,0,0,0,0,0,-1,1077,575,0,0
-140,449,0,0,0,0,0,0,0,0,0,-1,1084,575,0,0
-133,449,0,0,0,0,0,0,0,0,0,-1,1091,575,0,0
-126,449,0,0,0,0,0,0,0,0,0,-1,1098,575,0,0
-119,449,0,0,0,0,0,0,0,0,0,-1,1105,575,0,0
-112,449,0,0,0,0,0,0,0,0,0,-1,1112,575,0,0
-105,449,0,0,0,0,0,0,0,0,0,-1,1119,575,0,0
-98,449,0,0,0,0,0,0,0,0,0,-1,1126,575,0,0
-91,449,0,0,0,0,0,0,0,0,0,-1,1133,575,0,0
-84,449,0,0,0,0,0,0,0,0,0,-1,1140,575,0,0
-77,449,0,0,0,0,0,0,0,0,0,-1,1147,575,0,0
-70,449,0,0,0,0,0,0,0,0,0,-1,1154,575,0,0
-63,449,0,0,0,0,0,0,0,0,0,-1,1161,575,0,0
-56,449,0,0,0,0,0,0,0,0,0,-1,1168,575,0,0
-49,449,0,0,0,0,0,0,0,0,0,-1,1175,575,0,0
-42,449,0,0,0,0,0,0,0,0,0,-1,1182,575,0,0
-35,449,0,0,0,0,0,0,0,0,0,-1,1189,575,0,0
-28,449,0,0,0,0,0,0,0,0,0,-1,1196,575,0,0
-21,449,0,0,0,0,0,0,0,0,0,-1,1203,575,0,0
-14,449,0,0,0,0,0,0,0,0,0,-1,1210,575,0,0
-7,449,0,0,0,0,0,0,0,0,0,-1,1217,575,0,0
0,449,0,0,0,0,0,0,0,0,0,-1,1224,575,0,0
7,449,0,0,0,0,0,0,0,0,0,-1,1231,575,0,0
14,449,0,0,0,0,0,0,0,0,0,-1,1238,575,0,0
21,449,0,0,0,0,0,0,0,0,0,-1,1245,575,0,0
28,449,0,0,0,0,0,0,0,0,0,-1,1252,575,0,0
35,449,0,0,0,0,0,0,0,0,0,-1,1259,575,0,0
42,449,0,0,0,0,0,0,0,0,0,-1,1266,575,0,0
49,449,0,0,0,0,0,0,0,0,0,-1,1273,575,0,0
56,449,0,0,0,0,0,0,0,0,0,-1,1280,575,0,0
63,449,0,0,0,0,0,0,0,0,0,-1,1287,575,0,0
70,449,0,0,0,0,0,0,0,0,0,-1,1294,575,0,0
77,449,0,0,0,0,0,0,0,0,0,-1,1301,575,0,0
84,449,0,0,0,0,0,0,0,0,0,-1,1308,575,0,0
91,449,0,0,0,0,0,0,0,0,0,-1,1315,575,0,0
98,449,0,0,0,0,0,0,0,0,0,-1,1322,575,0,0
105,449,0,0,0,0,0,0,0,0,0,-1,1329,575,0,0
112,449,0,0,0,0,0,0,0,0,0,-1,1336,575,0,0
119,449,0,0,0,0,0,0,0,0,0,-1,1343,575,0,0
126,449,0,0,0,0,0,0,0,0,0,-1,1350,575,0,0
133,449,0,0,0,0,0,0,0,0,0,-1,1357,575,0,0
140,449,0,0,0,0,0,0,0,0,0,-1,1364,575,0,0
147,449,0,0,0,0,0,0,0,0,0,-1,1371,575,0,0
154,449,0,0,0,0,0,0,0,0,0,-1,1378,575,0,0
161,449,0,0,0,0,0,0,0,0,0,-1,1385,575,0,0
168,449,0,0,0,0,0,0,0,0,0,-1,1392,575,0,0
175,449,0,0,0,0,0,0,0,0,0,-1,1399,575,0,0
182,449,0,0,0,0,0,0,0,0,0,-1,1406,575,0,0
189,449,0,0,0,0,0,0,0,0,0,-1,1413,575,0,0
196,449,0,0,0,0,0,0,0,0,0,-1,1420,575,0,0
203,449,0,0,0,0,0,0,0,0,0,-1,1427,575,0,0
210,449,0,0,0,0,0,0,0,0,0,-1,1434,575,0,0
217,449,0,0,0,0,0,0,0,0,0,-1,1441,575,0,0
224,449,0,0,0,0,0,0,0,0,0,-1,1448,575,0,0
231,449,0,0,0,0,0,0,0,0,0,-1,1455,575,0,0
238,449,0,0,0,0,0,0,0,0,0,-1,1462,575,0,0
245,449,0,0,0,0,0,0,0,0,0,-1,1469,575,0,0
252,449,0,0,0,0,0,0,0,0,0,-1,1476,575,0,0
259,449,0,0,0,0,0,0,0,0,0,-1,1483,575,0,0
266,449,0,0,0,0,0,0,0,0,0,-1,1490,575,0,0
273,449,0,0,0,0,0,0,0,0,0,-1,1497,575,0,0
280,449,0,0,0,0,0,0,0,0,0,-1,1504,575,0,0
287,449,0,0,0,0,0,0,0,0,0,-1,1511,575,0,0
294,449,0,0,0,0,0,0,0,0,0,-1,1518,575,0,0
301,449,0,0,0,0,0,0,0,0,0,-1,1525,575,0,0
308,449,0,0,0,0,0,0,0,0,0,-1,1532,575,0,0
315,449,0,0,0,0,0,0,0,0,0,-1,1539,575,0,0
322,449,0,0,0,0,0,0,0,0,0,-1,1546,575,0,0
329,449,0,0,0,0,0,0,0,0,0,-1,1553,575,0,0
336,449,0,0,0,0,0,0,0,0,0,-1,1560,575,0,0
343,449,0,0,0,0,0,0,0,0,0,-1,1567,575,0,0
350,449,0,0,0,0,0,0,0,0,0,-1,1574,575,0,0
357,449,0,0,0,0,0,0,0,0,0,-1,1581,575,0,0
364,449,0,0,0,0,0,0,0,0,0,-1,1588,575,0,0
371,449,0,0,0,0,0,0,0,0,0,-1,1595,575,0,0
378,449,0,0,0,0,0,0,0,0,0,-1,1602,575,0,0
385,449,0,0,0,0,0,0,0,0,0,-1,1609,575,0,0
392,449,7.95471,3.66217,0,0,0,0,0,0,0,-1,1616,575,7.95471,-3.66218
399,449,14.7985,4.13007,0,0,0,0,0,0,0,-1,1623,575,14.7985,-4.13007
406,449,15.4888,3.6402,0,0,0,0,0,0,0,-1,1630,575,15.4888,-3.64021
413,449,15.5376,2.44122,0,0,0,0,0,0,0,-1,1637,575,15.5376,-2.44124
420,449,4.70264,2.21893,0,0,0,0,0,0,0,-1,1644,575,4.70263,-2.21894
427,449,8.96924,-4.53351,0,0,0,0,0,0,0,-1,1651,575,8.96925,4.53353
434,449,4.12927,-7.06952,0,0,0,0,0,0,0,-1,1658,575,4.12932,7.06952
441,449,3.89856,-6.06458,0,0,0,0,0,0,0,-1,1665,575,3.89855,6.06459
448,449,4.03198,-5.18207,0,0,0,0,0,0,0,-1,1672,575,4.03197,5.18207
455,449,4.21948,-4.09467,0,0,0,0,0,0,0,-1,1679,575,4.21952,4.09465
462,449,4.23181,-2.96924,0,0,0,0,0,0,0,-1,1686,575,4.23185,2.96926
469,449,4.51672,-2.95135,0,0,0,0,0,0,0,-1,1693,575,4.51672,2.95135
476,449,4.71838,-1.86688,0,0,0,0,0,0,0,-1,1700,575,4.71842,1.86689
483,449,4.87878,-1.73126,0,0,0,0,0,0,0,-1,1707,575,4.87875,1.73128
490,449,5.73279,-2.74573,0,0,0,0,0,0,0,-1,1714,575,5.73282,2.74575
497,449,7.75049,-4.79761,0,0,0,0,0,0,0,-1,1721,575,7.75051,4.79764
504,449,7.73047,-4.31323,0.0031567,0.00274171,0.00208356,0.00504307,0.000855334,0.735769,0.00311631,0.037371,1728,575,7.73048,4.31325
511,449,7.81079,-4.06329,0.00253977,0.00151902,0.00147043,0.00358588,0.000472907,0.618357,0.00224958,0.0107872,1735,575,7.81084,4.06331
518,449,7.83118,-3.83447,0.00222504,0.00118829,0.00129385,0.00310049,0.000312835,0.594866,0.00197101,0.0128242,1742,575,7.83121,3.83445
525,449,7.81055,-3.58069,0.00191157,0.00122546,0.00127032,0.00288434,0.000252691,0.653518,0.00184444,0.0123054,1749,575,7.81053,3.58068
532,449,7.78503,-3.31042,0.00169759,0.00139338,0.00132548,0.00287967,0.000211307,0.728271,0.00185336,0.010207,1756,575,7.785,3.31042
539,449,7.77979,-3.052,0.00160662,0.00160829,0.00144088,0.00304834,0.000166573,0.785687,0.00197904,0.0120123,1763,575,7.77976,3.05198
546,449,7.78369,-2.80042,0.00167612,0.00212598,0.00173196,0.00364755,0.000154545,0.849971,0.00238186,0.0202137,1770,575,7.78368,2.8004
553,449,7.79138,-2.54376,0.00172375,0.00261085,0.00199586,0.00421186,0.00012275,0.894738,0.0027679,0.015701,1777,575,7.79139,2.54375
560,449,7.82788,-2.2962,0.00169466,0.0031508,0.0022532,0.00479064,5.48256e-05,0.941667,0.00317564,0.0140226,1784,575,7.82788,2.29623
567,449,7.80701,-2.03107,0.00171057,0.00370731,0.00252932,0.00542817,-1.0292e-05,0.973371,0.00362222,0.00966818,1791,575,7.80701,2.03106
574,449,7.79346,-1.72809,0.00162978,0.00425471,0.0027756,0.00601251,-0.000128021,1.00625,0.00405169,0.0185807,1798,575,7.79349,1.72807
581,449,7.75403,-1.45215,0.00135305,0.00486231,0.00305887,0.00663406,-0.000418706,1.0458,0.00456868,0.0453797,1805,575,7.75403,1.45215
588,449,7.8197,-1.2674,0,0,0,0,0,0,0,-1,1812,575,7.81974,1.26741
595,449,7.93274,-0.519897,0,0,0,0,0,0,0,-1,1819,575,7.93269,0.519921
602,449,9.46167,4.17444,0,0,0,0,0,0,0,-1,1826,575,9.46164,-4.17442
609,449,12.2028,3.18652,0,0,0,0,0,0,0,-1,1833,575,12.2027,-3.18655
616,449,14.9438,2.19867,0,0,0,0,0,0,0,-1,1840,575,14.9438,-2.19867
623,449,9.83789,-0.0820313,0,0,0,0,0,0,0,-1,1847,575,9.83794,0.0820443
630,449,8.90686,4.99329,0,0,0,0,0,0,0,-1,1854,575,8.90685,-4.99327
637,449,0,0,0,0,0,0,0,0,0,-1,1861,575,0,0
644,449,0,0,0,0,0,0,0,0,0,-1,1868,575,0,0
651,449,0,0,0,0,0,0,0,0,0,-1,1875,575,0,0
658,449,0,0,0,0,0,0,0,0,0,-1,1882,575,0,0
665,449,0,0,0,0,0,0,0,0,0,-1,1889,575,0,0
672,449,0,0,0,0,0,0,0,0,0,-1,1896,575,0,0
679,449,0,0,0,0,0,0,0,0,0,-1,1903,575,0,0
686,449,0,0,0,0,0,0,0,0,0,-1,1910,575,0,0
693,449,0,0,0,0,0,0,0,0,0,-1,1917,575,0,0
700,449,0,0,0,0,0,0,0,0,0,-1,1924,575,0,0
707,449,0,0,0,0,0,0,0,0,0,-1,1931,575,0,0
714,449,0,0,0,0,0,0,0,0,0,-1,1938,575,0,0
721,449,0,0,0,0,0,0,0,0,0,-1,1945,575,0,0
728,449,0,0,0,0,0,0,0,0,0,-1,1952,575,0,0
735,449,0,0,0,0,0,0,0,0,0,-1,1959,575,0,0
742,449,0,0,0,0,0,0,0,0,0,-1,1966,575,0,0
749,449,0,0,0,0,0,0,0,0,0,-1,1973,575,0,0
756,449,0,0,0,0,0,0,0,0,0,-1,1980,575,0,0
763,449,0,0,0,0,0,0,0,0,0,-1,1987,575,0,0
770,449,0,0,0,0,0,0,0,0,0,-1,1994,575,0,0
777,449,0,0,0,0,0,0,0,0,0,-1,2001,575,0,0
784,449,0,0,0,0,0,0,0,0,0,-1,2008,575,0,0
791,449,0,0,0,0,0,0,0,0,0,-1,2015,575,0,0
798,449,0,0,0,0,0,0,0,0,0,-1,2022,575,0,0
805,449,0,0,0,0,0,0,0,0,0,-1,2029,575,0,0
812,449,0,0,0,0,0,0,0,0,0,-1,2036,575,0,0
-700,442,0,0,0,0,0,0,0,0,0,-1,524,582,0,0
-693,442,0,0,0,0,0,0,0,0,0,-1,531,582,0,0
-686,442,0,0,0,0,0,0,0,0,0,-1,538,582,0,0
-679,442,0,0,0,0,0,0,0,0,0,-1,545,582,0,0
-672,442,0,0,0,0,0,0,0,0,0,-1,552,582,0,0
-665,442,0,0,0,0,0,0,0,0,0,-1,559,582,0,0
-658,442,0,0,0,0,0,0,0,0,0,-1,566,582,0,0
-651,442,0,0,0,0,0,0,0,0,0,-1,573,582,0,0
-644,442,0,0,0,0,0,0,0,0,0,-1,580,582,0,0
-637,442,0,0,0,0,0,0,0,0,0,-1,587,582,0,0
-630,442,0,0,0,0,0,0,0,0,0,-1,594,582,0,0
-623,442,0,0,0,0,0,0,0,0,0,-1,601,582,0,0
-616,442,0,0,0,0,0,0,0,0,0,-1,608,582,0,0
-609,442,0,0,0,0,0,0,0,0,0,-1,615,582,0,0
-602,442,0,0,0,0,0,0,0,0,0,-1,622,582,0,0
-595,442,0,0,0,0,0,0,0,0,0,-1,629,582,0,0
-588,442,0,0,0,0,0,0,0,0,0,-1,636,582,0,0
-581,442,0,0,0,0,0,0,0,0,0,-1,643,582,0,0
-574,442,0,0,0,0,0,0,0,0,0,-1,650,582,0,0
-567,442,0,0,0,0,0,0,0,0,0,-1,657,582,0,0
-560,442,0,0,0,0,0,0,0,0,0,-1,664,582,0,0
-553,442,0,0,0,0,0,0,0,0,0,-1,671,582,0,0
-546,442,0,0,0,0,0,0,0,0,0,-1,678,582,0,0
-539,442,0,0,0,0,0,0,0,0,0,-1,685,582,0,0
-532,442,0,0,0,0,0,0,0,0,0,-1,692,582,0,0
-525,442,0,0,0,0,0,0,0,0,0,-1,699,582,0,0
-518,442,-0.493774,-5.72943,0,0,0,0,0,0,0,-1,706,582,-0.493791,5.72946
-511,442,-1.68738,-5.91357,0,0,0,0,0,0,0,-1,713,582,-1.68736,5.91359
-504,442,-3.20807,-6.34082,0,0,0,0,0,0,0,-1,720,582,-3.2081,6.34083
-497,442,-13.6886,-0.250122,0,0,0,0,0,0,0,-1,727,582,-13.6886,0.250143
-490,442,-4.54468,-1.35229,0,0,0,0,0,0,0,-1,734,582,-4.54466,1.35232
-483,442,-4.10706,-1.58167,0,0,0,0,0,0,0,-1,741,582,-4.10706,1.58164
-476,442,-3.1955,-1.58594,0,0,0,0,0,0,0,-1,748,582,-3.19548,1.58596
-469,442,-2.00104,-2.71997,0,0,0,0,0,0,0,-1,755,582,-2.00101,2.71998
-462,442,-2.16205,-3.04858,0.00622876,0.00314062,-0.00516398,0.0100746,-0.000705193,-0.640125,0.00696336,0.0347499,762,582,-2.16202,3.04859
-455,442,-2.30011,-3.23395,0.00485205,0.00287606,-0.00438457,0.00835856,-0.000630451,-0.674581,0.00579397,0.0257462,769,582,-2.30012,3.23393
-448,442,-2.22858,-3.43964,0.00364159,0.00241232,-0.00359794,0.00667702,-0.000623112,-0.7008,0.00467292,0.0139421,776,582,-2.22858,3.43961
-441,442,-2.24634,-3.67615,0.00271059,0.00218385,-0.00290228,0.00536142,-0.000466986,-0.740149,0.00373967,0.0135208,783,582,-2.24635,3.67614
-434,442,-2.26526,-3.90778,0.00187821,0.00154447,-0.00210333,0.00382128,-0.000398602,-0.745813,0.00269025,0.0124814,790,582,-2.26529,3.90777
-427,442,-2.27167,-4.12964,0.00114791,0.000965253,-0.00123111,0.00229108,-0.000177909,-0.748373,0.00159001,0.0132373,797,582,-2.27164,4.12965
-420,442,-2.25812,-4.38666,0.000384943,0.000348248,-0.000373155,0.000740201,-7.01053e-06,-0.760833,0.000495821,0.0135589,804,582,-2.2581,4.38667
-413,442,-2.24939,-4.61761,-0.000183953,-0.000332355,0.000365621,0.00011492,-0.000631228,0.685286,0.000463895,0.010734,811,582,-2.2494,4.6176
-406,442,-2.2627,-4.85132,-0.000428987,-0.000906421,0.00101635,0.000376307,-0.00171171,0.670051,0.00128508,0.0087347,818,582,-2.26272,4.85133
-399,442,-2.26678,-5.099,-0.000622335,-0.00165857,0.0016898,0.000626989,-0.0029079,0.63664,0.00217789,0.00821073,825,582,-2.26676,5.09901
-392,442,-2.25702,-5.32184,-0.000692337,-0.00314673,0.00214202,0.000549121,-0.00438819,0.525265,0.00312462,0.0105579,832,582,-2.25703,5.32183
-385,442,-2.245,-5.53424,-0.00068041,-0.00400452,0.00211566,0.00034797,-0.0050329,0.45245,0.00347707,0.0123573,839,582,-2.245,5.53426
-378,442,-2.25049,-5.76111,-0.000503593,-0.00528603,0.0020238,0.000237872,-0.00602749,0.351185,0.00409992,0.0124572,846,582,-2.25046,5.76114
-371,442,-2.22968,-5.98456,-0.00019677,-0.00684457,0.00153932,0.000142364,-0.00718371,0.21685,0.00483729,0.022629,853,582,-2.22967,5.98453
-364,442,-2.23114,-6.21783,0.000320365,-0.00866405,0.000498339,0.000347922,-0.00869161,0.0552412,0.00591379,0.0352375,860,582,-2.23116,6.2178
-357,442,-2.19366,-6.46521,0,0,0,0,0,0,0,-1,867,582,-2.19365,6.46521
-350,442,-1.76355,-5.98529,0,0,0,0,0,0,0,-1,874,582,-1.76352,5.98531
-343,442,-1.63092,-4.12115,0,0,0,0,0,0,0,-1,881,582,-1.63091,4.12113
-336,442,-1.4054,-2.64313,0,0,0,0,0,0,0,-1,888,582,-1.40539,2.64315
-329,442,-0.952576,-2.76923,0,0,0,0,0,0,0,-1,895,582,-0.952571,2.7692
-322,442,-0.972534,-2.63208,0,0,0,0,0,0,0,-1,902,582,-0.972512,2.6321
-315,442,-0.445557,-2.89764,0,0,0,0,0,0,0,-1,909,582,-0.445582,2.89765
-308,442,-0.654175,-3.07831,0,0,0,0,0,0,0,-1,916,582,-0.654145,3.07832
-301,442,-1.37427,-2.41455,0,0,0,0,0,0,0,-1,923,582,-1.37425,2.41453
-294,442,-2.99963,-2.07855,0,0,0,0,0,0,0,-1,930,582,-2.99964,2.07857
-287,442,-5.62799,-2.76422,0,0,0,0,0,0,0,-1,937,582,-5.628,2.76424
-280,442,0,0,0,0,0,0,0,0,0,-1,944,582,0,0
-273,442,0,0,0,0,0,0,0,0,0,-1,951,582,0,0
-266,442,0,0,0,0,0,0,0,0,0,-1,958,582,0,0
-259,442,0,0,0,0,0,0,0,0,0,-1,965,582,0,0
-252,442,0,0,0,0,0,0,0,0,0,-1,972,582,0,0
-245,442,0,0,0,0,0,0,0,0,0,-1,979,582,0,0
-238,442,0,0,0,0,0,0,0,0,0,-1,986,582,0,0
-231,442,0,0,0,0,0,0,0,0,0,-1,993,582,0,0
-224,442,0,0,0,0,0,0,0,0,0,-1,1000,582,0,0
-217,442,0,0,0,0,0,0,0,0,0,-1,1007,582,0,0
-210,442,0,0,0,0,0,0,0,0,0,-1,1014,582,0,0
-203,442,0,0,0,0,0,0,0,0,0,-1,1021,582,0,0
-196,442,0,0,0,0,0,0,0,0,0,-1,1028,582,0,0
-189,442,0,0,0,0,0,0,0,0,0,-1,1035,582,0,0
-182,442,0,0,0,0,0,0,0,0,0,-1,1042,582,0,0
-175,442,0,0,0,0,0,0,0,0,0,-1,1049,582,0,0
-168,442,0,0,0,0,0,0,0,0,0,-1,1056,582,0,0
-161,442,0,0,0,0,0,0,0,0,0,-1,1063,582,0,0
-154,442,0,0,0,0,0,0,0,0,0,-1,1070,582,0,0
-147,442,0,0,0,0,0,0,0,0,0,-1,1077,582,0,0
-140,442,0,0,0,0,0,0,0,0,0,-1,1084,582,0,0
-133,442,0,0,0,0,0,0,0,0,0,-1,1091,582,0,0
-126,442,0,0,0,0,0,0,0,0,0,-1,1098,582,0,0
-119,442,0,0,0,0,0,0,0,0,0,-1,1105,582,0,0
-112,442,0,0,0,0,0,0,0,0,0,-1,1112,582,0,0
-105,442,0,0,0,0,0,0,0,0,0,-1,1119,582,0,0
-98,442,0,0,0,0,0,0,0,0,0,-1,1126,582,0,0
-91,442,0,0,0,0,0,0,0,0,0,-1,1133,582,0,0
-84,442,0,0,0,0,0,0,0,0,0,-1,1140,582,0,0
-77,442,0,0,0,0,0,0,0,0,0,-1,1147,582,0,0
-70,442,0,0,0,0,0,0,0,0,0,-1,1154,582,0,0
-63,442,0,0,0,0,0,0,0,0,0,-1,1161,582,0,0
-56,442,0,0,0,0,0,0,0,0,0,-1,1168,582,0,0
-49,442,0,0,0,0,0,0,0,0,0,-1,1175,582,0,0
-42,442,0,0,0,0,0,0,0,0,0,-1,1182,582,0,0
-35,442,0,0,0,0,0,0,0,0,0,-1,1189,582,0,0
-28,442,0,0,0,0,0,0,0,0,0,-1,1196,582,0,0
-21,442,0,0,0,0,0,0,0,0,0,-1,1203,582,0,0
-14,442,0,0,0,0,0,0,0,0,0,-1,1210,582,0,0
-7,442,0,0,0,0,0,0,0,0,0,-1,1217,582,0,0
0,442,0,0,0,0,0,0,0,0,0,-1,1224,582,0,0
7,442,0,0,0,0,0,0,0,0,0,-1,1231,582,0,0
14,442,0,0,0,0,0,0,0,0,0,-1,1238,582,0,0
21,442,0,0,0,0,0,0,0,0,0,-1,1245,582,0,0
28,442,0,0,0,0,0,0,0,0,0,-1,1252,582,0,0
35,442,0,0,0,0,0,0,0,0,0,-1,1259,582,0,0
42,442,0,0,0,0,0,0,0,0,0,-1,1266,582,0,0
49,442,0,0,0,0,0,0,0,0,0,-1,1273,582,0,0
56,442,0,0,0,0,0,0,0,0,0,-1,1280,582,0,0
63,442,0,0,0,0,0,0,0,0,0,-1,1287,582,0,0
70,442,0,0,0,0,0,0,0,0,0,-1,1294,582,0,0
77,442,0,0,0,0,0,0,0,0,0,-1,1301,582,0,0
84,442,0,0,0,0,0,0,0,0,0,-1,1308,582,0,0
91,442,0,0,0,0,0,0,0,0,0,-1,1315,582,0,0
98,442,0,0,0,0,0,0,0,0,0,-1,1322,582,0,0
105,442,0,0,0,0,0,0,0,0,0,-1,1329,582,0,0
112,442,0,0,0,0,0,0,0,0,0,-1,1336,582,0,0
119,442,0,0,0,0,0,0,0,0,0,-1,1343,582,0,0
126,442,0,0,0,0,0,0,0,0,0,-1,1350,582,0,0
133,442,0,0,0,0,0,0,0,0,0,-1,1357,582,0,0
140,442,0,0,0,0,0,0,0,0,0,-1,1364,582,0,0
147,442,0,0,0,0,0,0,0,0,0,-1,1371,582,0,0
154,442,0,0,0,0,0,0,0,0,0,-1,1378,582,0,0
161,442,0,0,0,0,0,0,0,0,0,-1,1385,582,0,0
168,442,0,0,0,0,0,0,0,0,0,-1,1392,582,0,0
175,442,0,0,0,0,0,0,0,0,0,-1,1399,582,0,0
182,442,0,0,0,0,0,0,0,0,0,-1,1406,582,0,0
189,442,0,0,0,0,0,0,0,0,0,-1,1413,582,0,0
196,442,0,0,0,0,0,0,0,0,0,-1,1420,582,0,0
203,442,0,0,0,0,0,0,0,0,0,-1,1427,582,0,0
210,442,0,0,0,0,0,0,0,0,0,-1,1434,582,0,0
217,442,0,0,0,0,0,0,0,0,0,-1,1441,582,0,0
224,442,0,0,0,0,0,0,0,0,0,-1,1448,582,0,0
231,442,0,0,0,0,0,0,0,0,0,-1,1455,582,0,0
238,442,0,0,0,0,0,0,0,0,0,-1,1462,582,0,0
245,442,0,0,0,0,0,0,0,0,0,-1,1469,582,0,0
252,442,0,0,0,0,0,0,0,0,0,-1,1476,582,0,0
259,442,0,0,0,0,0,0,0,0,0,-1,1483,582,0,0
266,442,0,0,0,0,0,0,0,0,0,-1,1490,582,0,0
273,442,0,0,0,0,0,0,0,0,0,-1,1497,582,0,0
280,442,0,0,0,0,0,0,0,0,0,-1,1504,582,0,0
287,442,0,0,0,0,0,0,0,0,0,-1,1511,582,0,0
294,442,0,0,0,0,0,0,0,0,0,-1,1518,582,0,0
301,442,0,0,0,0,0,0,0,0,0,-1,1525,582,0,0
308,442,0,0,0,0,0,0,0,0,0,-1,1532,582,0,0
315,442,0,0,0,0,0,0,0,0,0,-1,1539,582,0,0
322,442,0,0,0,0,0,0,0,0,0,-1,1546,582,0,0
329,442,0,0,0,0,0,0,0,0,0,-1,1553,582,0,0
336,442,0,0,0,0,0,0,0,0,0,-1,1560,582,0,0
343,442,0,0,0,0,0,0,0,0,0,-1,1567,582,0,0
350,442,0,0,0,0,0,0,0,0,0,-1,1574,582,0,0
357,442,0,0,0,0,0,0,0,0,0,-1,1581,582,0,0
364,442,0,0,0,0,0,0,0,0,0,-1,1588,582,0,0
371,442,0,0,0,0,0,0,0,0,0,-1,1595,582,0,0
378,442,0,0,0,0,0,0,0,0,0,-1,1602,582,0,0
385,442,0,0,0,0,0,0,0,0,0,-1,1609,582,0,0
392,442,0,0,0,0,0,0,0,0,0,-1,1616,582,0,0
399,442,0,0,0,0,0,0,0,0,0,-1,1623,582,0,0
406,442,13.1598,3.8465,0,0,0,0,0,0,0,-1,1630,582,13.1598,-3.84653
413,442,3.66699,2.87408,0,0,0,0,0,0,0,-1,1637,582,3.66703,-2.87408
420,442,4.69055,3.09448,0,0,0,0,0,0,0,-1,1644,582,4.69054,-3.0945
427,442,2.44519,-1.35358,0,0,0,0,0,0,0,-1,1651,582,2.44514,1.35361
434,442,8.45898,-3.86719,0,0,0,0,0,0,0,-1,1658,582,8.45904,3.86719
441,442,4.89368,-7.42456,0,0,0,0,0,0,0,-1,1665,582,4.89365,7.42457
448,442,4.7749,-5.88562,0,0,0,0,0,0,0,-1,1672,582,4.7749,5.8856
455,442,4.87024,-4.60687,0,0,0,0,0,0,0,-1,1679,582,4.87019,4.60686
462,442,5.02307,-3.72821,0,0,0,0,0,0,0,-1,1686,582,5.02311,3.7282
469,442,5.12976,-2.98834,0,0,0,0,0,0,0,-1,1693,582,5.12971,2.98834
476,442,5.4624,1.76947,0,0,0,0,0,0,0,-1,1700,582,5.46234,-1.76944
483,442,5.98486,1.87042,0,0,0,0,0,0,0,-1,1707,582,5.98492,-1.87045
490,442,5.04407,-2.35834,0,0,0,0,0,0,0,-1,1714,582,5.04411,2.35837
497,442,6.20984,-3.07831,0,0,0,0,0,0,0,-1,1721,582,6.2098,3.07833
504,442,7.8374,-4.29626,0,0,0,0,0,0,0,-1,1728,582,7.83735,4.29627
511,442,8.00183,-4.07257,0.00276787,0.00158665,0.00154112,0.00382768,0.00052684,0.602414,0.00239556,0.0241513,1735,582,8.0018,4.07254
518,442,8.08179,-3.81293,0.00239891,0.00114558,0.00132105,0.00323439,0.000310095,0.56393,0.00206069,0.0117491,1742,582,8.0818,3.81293
525,442,8.05811,-3.56195,0.00201467,0.00111426,0.0012753,0.0029169,0.000212029,0.615717,0.00187792,0.0107114,1749,582,8.05813,3.56197
532,442,8.06348,-3.29248,0.00170928,0.00113482,0.0012523,0.00270687,0.000137237,0.672666,0.00176062,0.0105926,1756,582,8.06353,3.29245
539,442,8.05737,-3.03058,0.00150119,0.00117867,0.00123992,0.00259029,8.95719e-05,0.720731,0.00169779,0.0104157,1763,582,8.05738,3.03056
546,442,8.04517,-2.80341,0.00143625,0.00148106,0.00137116,0.00282999,8.73092e-05,0.793567,0.00185824,0.0133783,1770,582,8.04515,2.80343
553,442,8.03931,-2.55432,0.00134217,0.00175537,0.0014801,0.00304322,5.43162e-05,0.854743,0.00201095,0.016252,1777,582,8.03932,2.55435
560,442,8.06824,-2.28577,0.00114755,0.00208842,0.00156999,0.00325694,-2.09702e-05,0.930961,0.00217832,0.0156705,1784,582,8.0683,2.28577
567,442,8.04309,-2.01855,0.00100998,0.0024606,0.00169384,0.00357789,-0.000107311,0.98769,0.00242182,0.0103055,1791,582,8.04312,2.01857
574,442,8.0238,-1.73999,0.000854691,0.00286309,0.00183662,0.00395212,-0.000234334,1.03558,0.00271623,0.0114567,1798,582,8.02383,1.73996
581,442,8.05969,-1.44904,0.000585657,0.00335805,0.00201878,0.00442073,-0.000477025,1.08625,0.00311835,0.0179224,1805,582,8.05964,1.44902
588,442,8.03577,-1.29413,0.000277262,0.00399987,0.00227539,0.00507827,-0.000801135,1.12821,0.00368173,0.0267463,1812,582,8.03578,1.2941
595,442,8.03467,-0.849487,-0.000126893,0.00493086,0.00269781,0.00609974,-0.00129577,1.16194,0.0045602,0.0405922,1819,582,8.03468,0.849509
602,442,7.86902,-0.640808,0,0,0,0,0,0,0,-1,1826,582,7.869,0.64081
609,442,9.38428,2.86908,0,0,0,0,0,0,0,-1,1833,582,9.38429,-2.86906
616,442,7.16003,-1.18372,0,0,0,0,0,0,0,-1,1840,582,7.16,1.18373
623,442,9.23828,0.326721,0,0,0,0,0,0,0,-1,1847,582,9.23829,-0.326727
630,442,7.74304,2.3924,0,0,0,0,0,0,0,-1,1854,582,7.7431,-2.39238
637,442,5.87805,1.84027,0,0,0,0,0,0,0,-1,1861,582,5.87807,-1.84025
644,442,0,0,0,0,0,0,0,0,0,-1,1868,582,0,0
651,442,0,0,0,0,0,0,0,0,0,-1,1875,582,0,0
658,442,0,0,0,0,0,0,0,0,0,-1,1882,582,0,0
665,442,0,0,0,0,0,0,0,0,0,-1,1889,582,0,0
672,442,0,0,0,0,0,0,0,0,0,-1,1896,582,0,0
679,442,0,0,0,0,0,0,0,0,0,-1,1903,582,0,0
686,442,0,0,0,0,0,0,0,0,0,-1,1910,582,0,0
693,442,0,0,0,0,0,0,0,0,0,-1,1917,582,0,0
700,442,0,0,0,0,0,0,0,0,0,-1,1924,582,0,0
707,442,0,0,0,0,0,0,0,0,0,-1,1931,582,0,0
714,442,0,0,0,0,0,0,0,0,0,-1,1938,582,0,0
721,442,0,0,0,0,0,0,0,0,0,-1,1945,582,0,0
728,442,0,0,0,0,0,0,0,0,0,-1,1952,582,0,0
735,442,0,0,0,0,0,0,0,0,0,-1,1959,582,0,0
742,442,0,0,0,0,0,0,0,0,0,-1,1966,582,0,0
749,442,0,0,0,0,0,0,0,0,0,-1,1973,582,0,0
756,442,0,0,0,0,0,0,0,0,0,-1,1980,582,0,0
763,442,0,0,0,0,0,0,0,0,0,-1,1987,582,0,0
770,442,0,0,0,0,0,0,0,0,0,-1,1994,582,0,0
777,442,0,0,0,0,0,0,0,0,0,-1,2001,582,0,0
784,442,0,0,0,0,0,0,0,0,0,-1,2008,582,0,0
791,442,0,0,0,0,0,0,0,0,0,-1,2015,582,0,0
798,442,0,0,0,0,0,0,0,0,0,-1,2022,582,0,0
805,442,0,0,0,0,0,0,0,0,0,-1,2029,582,0,0
812,442,0,0,0,0,0,0,0,0,0,-1,2036,582,0,0
-700,435,0,0,0,0,0,0,0,0,0,-1,524,589,0,0
-693,435,0,0,0,0,0,0,0,0,0,-1,531,589,0,0
-686,435,0,0,0,0,0,0,0,0,0,-1,538,589,0,0
-679,435,0,0,0,0,0,0,0,0,0,-1,545,589,0,0
-672,435,0,0,0,0,0,0,0,0,0,-1,552,589,0,0
-665,435,0,0,0,0,0,0,0,0,0,-1,559,589,0,0
-658,435,0,0,0,0,0,0,0,0,0,-1,566,589,0,0
-651,435,0,0,0,0,0,0,0,0,0,-1,573,589,0,0
-644,435,0,0,0,0,0,0,0,0,0,-1,580,589,0,0
-637,435,0,0,0,0,0,0,0,0,0,-1,587,589,0,0
-630,435,0,0,0,0,0,0,0,0,0,-1,594,589,0,0
-623,435,0,0,0,0,0,0,0,0,0,-1,601,589,0,0
-616,435,0,0,0,0,0,0,0,0,0,-1,608,589,0,0
-609,435,0,0,0,0,0,0,0,0,0,-1,615,589,0,0
-602,435,0,0,0,0,0,0,0,0,0,-1,622,589,0,0
-595,435,0,0,0,0,0,0,0,0,0,-1,629,589,0,0
-588,435,0,0,0,0,0,0,0,0,0,-1,636,589,0,0
-581,435,0,0,0,0,0,0,0,0,0,-1,643,589,0,0
-574,435,0,0,0,0,0,0,0,0,0,-1,650,589,0,0
-567,435,0,0,0,0,0,0,0,0,0,-1,657,589,0,0
-560,435,0,0,0,0,0,0,0,0,0,-1,664,589,0,0
-553,435,0,0,0,0,0,0,0,0,0,-1,671,589,0,0
-546,435,0,0,0,0,0,0,0,0,0,-1,678,589,0,0
-539,435,0,0,0,0,0,0,0,0,0,-1,685,589,0,0
-532,435,0,0,0,0,0,0,0,0,0,-1,692,589,0,0
-525,435,-10.0776,10.0547,0,0,0,0,0,0,0,-1,699,589,-10.0776,-10.0547
-518,435,-0.928711,-4.91492,0,0,0,0,0,0,0,-1,706,589,-0.928723,4.91489
-511,435,-2.43555,-5.38599,0,0,0,0,0,0,0,-1,713,589,-2.43553,5.38597
-504,435,-3.89355,-5.72308,0,0,0,0,0,0,0,-1,720,589,-3.89353,5.72309
-497,435,-5.18701,-5.97711,0,0,0,0,0,0,0,-1,727,589,-5.18703,5.97714
-490,435,-4.0412,-1.37115,0,0,0,0,0,0,0,-1,734,589,-4.04119,1.37113
-483,435,-3.81012,-1.55109,0,0,0,0,0,0,0,-1,741,589,-3.81012,1.55111
-476,435,-3.15057,-2.26489,0,0,0,0,0,0,0,-1,748,589,-3.1506,2.26486
-469,435,-2.49658,-2.5473,0.00588945,0.0022612,-0.0041703,0.00862312,-0.000472472,-0.580238,0.00591253,0.0308647,755,589,-2.49661,2.54729
-462,435,-2.42114,-2.9646,0.00488275,0.00234581,-0.00377732,0.0075989,-0.000370336,-0.623408,0.00519378,0.0143872,762,589,-2.42116,2.96457
-455,435,-2.48566,-3.17737,0.00384075,0.00207192,-0.00319516,0.00627164,-0.000358963,-0.65038,0.00430574,0.0137498,769,589,-2.48563,3.17735
-448,435,-2.46399,-3.42261,0.0028369,0.00168469,-0.00252628,0.00485193,-0.00033034,-0.673293,0.00335017,0.0135096,776,589,-2.464,3.42261
-441,435,-2.47192,-3.66022,0.00198819,0.00149848,-0.00192376,0.00368262,-0.000195942,-0.722098,0.00252293,0.0112878,783,589,-2.47194,3.66019
-434,435,-2.49652,-3.87231,0.00115639,0.000834586,-0.00116658,0.00217311,-0.000182136,-0.716867,0.00151311,0.0117288,790,589,-2.49652,3.87229
-427,435,-2.50323,-4.13702,0.000402544,0.000255482,-0.000264672,0.000603709,5.4317e-05,-0.649906,0.000385644,0.0102103,797,589,-2.50323,4.13703
-420,435,-2.49249,-4.37738,-0.00039269,-0.000407085,0.00059999,0.000200146,-0.000999921,0.7794,0.000742378,0.0107356,804,589,-2.49247,4.3774
-413,435,-2.4917,-4.61322,-0.00102361,-0.00114899,0.00137415,0.000289278,-0.00246188,0.762604,0.00174569,0.0109911,811,589,-2.4917,4.61323
-406,435,-2.49377,-4.84924,-0.00135057,-0.00180166,0.00208625,0.000522297,-0.00367452,0.731552,0.00264105,0.0105844,818,589,-2.49377,4.84922
-399,435,-2.49341,-5.08698,-0.00162174,-0.00263683,0.00283004,0.000745905,-0.00500447,0.69667,0.00361072,0.00874372,825,589,-2.49341,5.08698
-392,435,-2.49658,-5.31134,-0.00178591,-0.00419048,0.00335351,0.00057432,-0.00655071,0.613278,0.00457062,0.0098746,832,589,-2.49656,5.31134
-385,435,-2.48401,-5.5415,-0.00189269,-0.0052058,0.00338239,0.000217015,-0.0073155,0.557688,0.00495093,0.0124665,839,589,-2.48399,5.54152
-378,435,-2.43213,-5.75079,-0.00186462,-0.00674552,0.00340258,-0.000117787,-0.00849235,0.474298,0.00562272,0.0203939,846,589,-2.43214,5.75079
-371,435,-2.32385,-5.83429,-0.00167644,-0.00864492,0.00298442,-0.000573015,-0.00974835,0.354142,0.00631656,0.038893,853,589,-2.32385,5.83432
-364,435,-2.5271,-5.98431,-0.00124813,-0.010812,0.00186347,-0.000897872,-0.0111623,0.185792,0.00716103,0.0461794,860,589,-2.5271,5.98431
-357,435,-2.86603,-6.41937,0,0,0,0,0,0,0,-1,867,589,-2.86603,6.41936
-350,435,-0.86676,-3.69836,0,0,0,0,0,0,0,-1,874,589,-0.866784,3.69834
-343,435,-1.60706,-2.36835,0,0,0,0,0,0,0,-1,881,589,-1.60706,2.36838
-336,435,-2.07263,-1.94012,0,0,0,0,0,0,0,-1,888,589,-2.07265,1.94014
-329,435,-2.55963,-1.5517,0,0,0,0,0,0,0,-1,895,589,-2.5596,1.55168
-322,435,-3.08545,-1.55255,0,0,0,0,0,0,0,-1,902,589,-3.08544,1.55254
-315,435,-0.404297,-2.63763,0,0,0,0,0,0,0,-1,909,589,-0.404276,2.63761
-308,435,-1.70056,-1.90369,0,0,0,0,0,0,0,-1,916,589,-1.70056,1.90367
-301,435,-1.25232,-2.05511,0,0,0,0,0,0,0,-1,923,589,-1.25234,2.05514
-294,435,-1.79974,-1.97321,0,0,0,0,0,0,0,-1,930,589,-1.79973,1.97322
-287,435,0,0,0,0,0,0,0,0,0,-1,937,589,0,0
-280,435,0,0,0,0,0,0,0,0,0,-1,944,589,0,0
-273,435,0,0,0,0,0,0,0,0,0,-1,951,589,0,0
-266,435,0,0,0,0,0,0,0,0,0,-1,958,589,0,0
-259,435,0,0,0,0,0,0,0,0,0,-1,965,589,0,0
-252,435,0,0,0,0,0,0,0,0,0,-1,972,589,0,0
-245,435,0,0,0,0,0,0,0,0,0,-1,979,589,0,0
-238,435,0,0,0,0,0,0,0,0,0,-1,986,589,0,0
-231,435,0,0,0,0,0,0,0,0,0,-1,993,589,0,0
-224,435,0,0,0,0,0,0,0,0,0,-1,1000,589,0,0
-217,435,0,0,0,0,0,0,0,0,0,-1,1007,589,0,0
-210,435,0,0,0,0,0,0,0,0,0,-1,1014,589,0,0
-203,435,0,0,0,0,0,0,0,0,0,-1,1021,589,0,0
-196,435,0,0,0,0,0,0,0,0,0,-1,1028,589,0,0
-189,435,0,0,0,0,0,0,0,0,0,-1,1035,589,0,0
-182,435,0,0,0,0,0,0,0,0,0,-1,1042,589,0,0
-175,435,0,0,0,0,0,0,0,0,0,-1,1049,589,0,0
-168,435,0,0,0,0,0,0,0,0,0,-1,1056,589,0,0
-161,435,0,0,0,0,0,0,0,0,0,-1,1063,589,0,0
-154,435,0,0,0,0,0,0,0,0,0,-1,1070,589,0,0
-147,435,0,0,0,0,0,0,0,0,0,-1,1077,589,0,0
-140,435,0,0,0,0,0,0,0,0,0,-1,1084,589,0,0
-133,435,0,0,0,0,0,0,0,0,0,-1,1091,589,0,0
-126,435,0,0,0,0,0,0,0,0,0,-1,1098,589,0,0
-119,435,0,0,0,0,0,0,0,0,0,-1,1105,589,0,0
-112,435,0,0,0,0,0,0,0,0,0,-1,1112,589,0,0
-105,435,0,0,0,0,0,0,0,0,0,-1,1119,589,0,0
-98,435,0,0,0,0,0,0,0,0,0,-1,1126,589,0,0
-91,435,0,0,0,0,0,0,0,0,0,-1,1133,589,0,0
-84,435,0,0,0,0,0,0,0,0,0,-1,1140,589,0,0
-77,435,0,0,0,0,0,0,0,0,0,-1,1147,589,0,0
-70,435,0,0,0,0,0,0,0,0,0,-1,1154,589,0,0
-63,435,0,0,0,0,0,0,0,0,0,-1,1161,589,0,0
-56,435,0,0,0,0,0,0,0,0,0,-1,1168,589,0,0
-49,435,0,0,0,0,0,0,0,0,0,-1,1175,589,0,0
-42,435,0,0,0,0,0,0,0,0,0,-1,1182,589,0,0
-35,435,0,0,0,0,0,0,0,0,0,-1,1189,589,0,0
-28,435,0,0,0,0,0,0,0,0,0,-1,1196,589,0,0
-21,435,0,0,0,0,0,0,0,0,0,-1,1203,589,0,0
-14,435,0,0,0,0,0,0,0,0,0,-1,1210,589,0,0
-7,435,0,0,0,0,0,0,0,0,0,-1,1217,589,0,0
0,435,0,0,0,0,0,0,0,0,0,-1,1224,589,0,0
7,435,0,0,0,0,0,0,0,0,0,-1,1231,589,0,0
14,435,0,0,0,0,0,0,0,0,0,-1,1238,589,0,0
21,435,0,0,0,0,0,0,0,0,0,-1,1245,589,0,0
28,435,0,0,0,0,0,0,0,0,0,-1,1252,589,0,0
35,435,0,0,0,0,0,0,0,0,0,-1,1259,589,0,0
42,435,0,0,0,0,0,0,0,0,0,-1,1266,589,0,0
49,435,0,0,0,0,0,0,0,0,0,-1,1273,589,0,0
56,435,0,0,0,0,0,0,0,0,0,-1,1280,589,0,0
63,435,0,0,0,0,0,0,0,0,0,-1,1287,589,0,0
70,435,0,0,0,0,0,0,0,0,0,-1,1294,589,0,0
77,435,0,0,0,0,0,0,0,0,0,-1,1301,589,0,0
84,435,0,0,0,0,0,0,0,0,0,-1,1308,589,0,0
91,435,0,0,0,0,0,0,0,0,0,-1,1315,589,0,0
98,435,0,0,0,0,0,0,0,0,0,-1,1322,589,0,0
105,435,0,0,0,0,0,0,0,0,0,-1,1329,589,0,0
112,435,0,0,0,0,0,0,0,0,0,-1,1336,589,0,0
119,435,0,0,0,0,0,0,0,0,0,-1,1343,589,0,0
126,435,0,0,0,0,0,0,0,0,0,-1,1350,589,0,0
133,435,0,0,0,0,0,0,0,0,0,-1,1357,589,0,0
140,435,0,0,0,0,0,0,0,0,0,-1,1364,589,0,0
147,435,0,0,0,0,0,0,0,0,0,-1,1371,589,0,0
154,435,0,0,0,0,0,0,0,0,0,-1,1378,589,0,0
161,435,0,0,0,0,0,0,0,0,0,-1,1385,589,0,0
168,435,0,0,0,0,0,0,0,0,0,-1,1392,589,0,0
175,435,0,0,0,0,0,0,0,0,0,-1,1399,589,0,0
182,435,0,0,0,0,0,0,0,0,0,-1,1406,589,0,0
189,435,0,0,0,0,0,0,0,0,0,-1,1413,589,0,0
196,435,0,0,0,0,0,0,0,0,0,-1,1420,589,0,0
203,435,0,0,0,0,0,0,0,0,0,-1,1427,589,0,0
210,435,0,0,0,0,0,0,0,0,0,-1,1434,589,0,0
217,435,0,0,0,0,0,0,0,0,0,-1,1441,589,0,0
224,435,0,0,0,0,0,0,0,0,0,-1,1448,589,0,0
231,435,0,0,0,0,0,0,0,0,0,-1,1455,589,0,0
238,435,0,0,0,0,0,0,0,0,0,-1,1462,589,0,0
245,435,0,0,0,0,0,0,0,0,0,-1,1469,589,0,0
252,435,0,0,0,0,0,0,0,0,0,-1,1476,589,0,0
259,435,0,0,0,0,0,0,0,0,0,-1,1483,589,0,0
266,435,0,0,0,0,0,0,0,0,0,-1,1490,589,0,0
273,435,0,0,0,0,0,0,0,0,0,-1,1497,589,0,0
280,435,0,0,0,0,0,0,0,0,0,-1,1504,589,0,0
287,435,0,0,0,0,0,0,0,0,0,-1,1511,589,0,0
294,435,0,0,0,0,0,0,0,0,0,-1,1518,589,0,0
301,435,0,0,0,0,0,0,0,0,0,-1,1525,589,0,0
308,435,0,0,0,0,0,0,0,0,0,-1,1532,589,0,0
315,435,0,0,0,0,0,0,0,0,0,-1,1539,589,0,0
322,435,0,0,0,0,0,0,0,0,0,-1,1546,589,0,0
329,435,0,0,0,0,0,0,0,0,0,-1,1553,589,0,0
336,435,0,0,0,0,0,0,0,0,0,-1,1560,589,0,0
343,435,0,0,0,0,0,0,0,0,0,-1,1567,589,0,0
350,435,0,0,0,0,0,0,0,0,0,-1,1574,589,0,0
357,435,0,0,0,0,0,0,0,0,0,-1,1581,589,0,0
364,435,0,0,0,0,0,0,0,0,0,-1,1588,589,0,0
371,435,0,0,0,0,0,0,0,0,0,-1,1595,589,0,0
378,435,0,0,0,0,0,0,0,0,0,-1,1602,589,0,0
385,435,0,0,0,0,0,0,0,0,0,-1,1609,589,0,0
392,435,0,0,0,0,0,0,0,0,0,-1,1616,589,0,0
399,435,0,0,0,0,0,0,0,0,0,-1,1623,589,0,0
406,435,0,0,0,0,0,0,0,0,0,-1,1630,589,0,0
413,435,3.62073,3.42682,0,0,0,0,0,0,0,-1,1637,589,3.62069,-3.4268
420,435,3.6062,3.71564,0,0,0,0,0,0,0,-1,1644,589,3.60616,-3.71562
427,435,3.11963,0.640198,0,0,0,0,0,0,0,-1,1651,589,3.11967,-0.640192
434,435,2.72107,-1.34802,0,0,0,0,0,0,0,-1,1658,589,2.7211,1.34803
441,435,7.33191,-1.57452,0,0,0,0,0,0,0,-1,1665,589,7.33193,1.57452
448,435,7.4585,-0.00292969,0,0,0,0,0,0,0,-1,1672,589,7.45848,0.00294131
455,435,5.49915,-5.047,0,0,0,0,0,0,0,-1,1679,589,5.49914,5.04703
462,435,5.60669,-4.71466,0,0,0,0,0,0,0,-1,1686,589,5.60675,4.71469
469,435,5.87708,1.22351,0,0,0,0,0,0,0,-1,1693,589,5.87703,-1.22351
476,435,6.14136,1.37714,0,0,0,0,0,0,0,-1,1700,589,6.14138,-1.37712
483,435,6.49243,1.36169,0,0,0,0,0,0,0,-1,1707,589,6.49242,-1.36171
490,435,4.38391,-1.36218,0,0,0,0,0,0,0,-1,1714,589,4.38389,1.3622
497,435,7.23499,-3.64551,0,0,0,0,0,0,0,-1,1721,589,7.23495,3.64551
504,435,7.31189,-3.75909,0,0,0,0,0,0,0,-1,1728,589,7.31184,3.75911
511,435,8.21643,-4.16321,0,0,0,0,0,0,0,-1,1735,589,8.21648,4.16318
518,435,8.33521,-3.82227,0.00277297,0.00144087,0.00173495,0.00396533,0.000248509,0.602122,0.00256473,0.0175056,1742,589,8.33518,3.82224
525,435,8.31604,-3.55164,0.00221296,0.0012295,0.0015154,0.00331442,0.00012804,0.628514,0.00216819,0.0122017,1749,589,8.31602,3.55166
532,435,8.32703,-3.28314,0.00174142,0.00100023,0.00128462,0.00270783,3.38238e-05,0.644968,0.00179405,0.0130339,1756,589,8.32697,3.28312
539,435,8.33435,-3.01959,0.00136993,0.000809884,0.00104256,0.00216942,1.03947e-05,0.654199,0.00144283,0.0131918,1763,589,8.33433,3.0196
546,435,8.30579,-2.76886,0.00115099,0.00084141,0.000939911,0.00194877,4.36294e-05,0.703787,0.00128489,0.0135171,1770,589,8.30581,2.76885
553,435,8.29724,-2.54431,0.000936791,0.000900804,0.000869234,0.00178822,4.9378e-05,0.77505,0.00117603,0.0116096,1777,589,8.2972,2.54433
560,435,8.31079,-2.2782,0.000637847,0.0010554,0.000810987,0.00168405,9.19297e-06,0.911379,0.00111965,0.00999089,1784,589,8.3108,2.27821
567,435,8.31934,-1.99976,0.000424729,0.00130191,0.000834689,0.00180622,-7.95842e-05,1.0273,0.00123153,0.00896876,1791,589,8.31936,1.99973
574,435,8.3103,-1.74945,0.000279467,0.00163625,0.000943026,0.00211954,-0.000203828,1.0972,0.00148564,0.00976992,1798,589,8.31029,1.74944
581,435,8.30164,-1.53278,8.37463e-05,0.00210394,0.00112383,0.0026049,-0.00041721,1.15147,0.00189107,0.0164084,1805,589,8.30165,1.53277
588,435,8.2959,-1.27563,-0.000136936,0.00273138,0.0014158,0.00331249,-0.000718043,1.18132,0.00248253,0.0202597,1812,589,8.29585,1.2756
595,435,8.25916,-1.00269,-0.000348697,0.00362638,0.00191071,0.00439586,-0.00111817,1.18795,0.00336579,0.0228402,1819,589,8.25919,1.0027
602,435,8.19873,-0.706909,-0.000682242,0.00478047,0.0025959,0.00581727,-0.00171904,1.19081,0.0045605,0.0430414,1826,589,8.19871,0.706917
609,435,8.17566,-0.481934,0,0,0,0,0,0,0,-1,1833,589,8.1756,0.481907
616,435,5.05151,-2.75269,0,0,0,0,0,0,0,-1,1840,589,5.05157,2.7527
623,435,11.7588,3.9704,0,0,0,0,0,0,0,-1,1847,589,11.7587,-3.97043
630,435,4.72742,-0.87561,0,0,0,0,0,0,0,-1,1854,589,4.7274,0.875636
637,435,5.05286,1.48792,0,0,0,0,0,0,0,-1,1861,589,5.05291,-1.48792
644,435,0,0,0,0,0,0,0,0,0,-1,1868,589,0,0
651,435,0,0,0,0,0,0,0,0,0,-1,1875,589,0,0
658,435,0,0,0,0,0,0,0,0,0,-1,1882,589,0,0
665,435,0,0,0,0,0,0,0,0,0,-1,1889,589,0,0
672,435,0,0,0,0,0,0,0,0,0,-1,1896,589,0,0
679,435,0,0,0,0,0,0,0,0,0,-1,1903,589,0,0
686,435,0,0,0,0,0,0,0,0,0,-1,1910,589,0,0
693,435,0,0,0,0,0,0,0,0,0,-1,1917,589,0,0
700,435,0,0,0,0,0,0,0,0,0,-1,1924,589,0,0
707,435,0,0,0,0,0,0,0,0,0,-1,1931,589,0,0
714,435,0,0,0,0,0,0,0,0,0,-1,1938,589,0,0
721,435,0,0,0,0,0,0,0,0,0,-1,1945,589,0,0
728,435,0,0,0,0,0,0,0,0,0,-1,1952,589,0,0
735,435,0,0,0,0,0,0,0,0,0,-1,1959,589,0,0
742,435,0,0,0,0,0,0,0,0,0,-1,1966,589,0,0
749,435,0,0,0,0,0,0,0,0,0,-1,1973,589,0,0
756,435,0,0,0,0,0,0,0,0,0,-1,1980,589,0,0
763,435,0,0,0,0,0,0,0,0,0,-1,1987,589,0,0
770,435,0,0,0,0,0,0,0,0,0,-1,1994,589,0,0
777,435,0,0,0,0,0,0,0,0,0,-1,2001,589,0,0
784,435,0,0,0,0,0,0,0,0,0,-1,2008,589,0,0
791,435,0,0,0,0,0,0,0,0,0,-1,2015,589,0,0
798,435,0,0,0,0,0,0,0,0,0,-1,2022,589,0,0
805,435,0,0,0,0,0,0,0,0,0,-1,2029,589,0,0
812,435,0,0,0,0,0,0,0,0,0,-1,2036,589,0,0
-700,428,0,0,0,0,0,0,0,0,0,-1,524,596,0,0
-693,428,0,0,0,0,0,0,0,0,0,-1,531,596,0,0
-686,428,0,0,0,0,0,0,0,0,0,-1,538,596,0,0
-679,428,0,0,0,0,0,0,0,0,0,-1,545,596,0,0
-672,428,0,0,0,0,0,0,0,0,0,-1,552,596,0,0
-665,428,0,0,0,0,0,0,0,0,0,-1,559,596,0,0
-658,428,0,0,0,0,0,0,0,0,0,-1,566,596,0,0
-651,428,0,0,0,0,0,0,0,0,0,-1,573,596,0,0
-644,428,0,0,0,0,0,0,0,0,0,-1,580,596,0,0
-637,428,0,0,0,0,0,0,0,0,0,-1,587,596,0,0
-630,428,0,0,0,0,0,0,0,0,0,-1,594,596,0,0
-623,428,0,0,0,0,0,0,0,0,0,-1,601,596,0,0
-616,428,0,0,0,0,0,0,0,0,0,-1,608,596,0,0
-609,428,0,0,0,0,0,0,0,0,0,-1,615,596,0,0
-602,428,0,0,0,0,0,0,0,0,0,-1,622,596,0,0
-595,428,0,0,0,0,0,0,0,0,0,-1,629,596,0,0
-588,428,0,0,0,0,0,0,0,0,0,-1,636,596,0,0
-581,428,0,0,0,0,0,0,0,0,0,-1,643,596,0,0
-574,428,0,0,0,0,0,0,0,0,0,-1,650,596,0,0
-567,428,0,0,0,0,0,0,0,0,0,-1,657,596,0,0
-560,428,0,0,0,0,0,0,0,0,0,-1,664,596,0,0
-553,428,0,0,0,0,0,0,0,0,0,-1,671,596,0,0
-546,428,0,0,0,0,0,0,0,0,0,-1,678,596,0,0
-539,428,0,0,0,0,0,0,0,0,0,-1,685,596,0,0
-532,428,0,0,0,0,0,0,0,0,0,-1,692,596,0,0
-525,428,-9.59918,7.58618,0,0,0,0,0,0,0,-1,699,596,-9.59918,-7.5862
-518,428,-9.69434,5.60547,0,0,0,0,0,0,0,-1,706,596,-9.69436,-5.60549
-511,428,-3.32758,-4.85852,0,0,0,0,0,0,0,-1,713,596,-3.32759,4.85853
-504,428,-4.19916,-4.97797,0,0,0,0,0,0,0,-1,720,596,-4.19918,4.97795
-497,428,-2.85516,-3.52179,0,0,0,0,0,0,0,-1,727,596,-2.85517,3.52181
-490,428,-3.466,-1.2525,0,0,0,0,0,0,0,-1,734,596,-3.46599,1.2525
-483,428,-3.56165,-2.14008,0,0,0,0,0,0,0,-1,741,596,-3.56162,2.14005
-476,428,-3.1275,-2.3833,0.00505168,0.000534728,-0.00282977,0.00641374,-0.000827336,-0.448604,0.0045766,0.0384047,748,596,-3.12752,2.38329
-469,428,-2.68756,-2.67889,0.00443167,0.00131475,-0.00279299,0.00607158,-0.000325156,-0.53092,0.00416034,0.0187307,755,596,-2.68758,2.67892
-462,428,-2.70428,-2.90662,0.00374842,0.00149225,-0.00258866,0.00544411,-0.000203444,-0.579914,0.00369909,0.0154135,762,596,-2.70429,2.90659
-455,428,-2.7312,-3.15527,0.00295654,0.0012548,-0.002191,0.00445609,-0.000244749,-0.600188,0.00305558,0.0120203,769,596,-2.73122,3.15525
-448,428,-2.72632,-3.40277,0.0021239,0.000955355,-0.00162298,0.00326458,-0.00018532,-0.61262,0.00224071,0.0108042,776,596,-2.72633,3.40276
-441,428,-2.72107,-3.66016,0.00134811,0.000810649,-0.0010888,0.00220086,-4.20925e-05,-0.664408,0.00148147,0.01267,783,596,-2.7211,3.66018
-434,428,-2.71973,-3.91608,0.000514971,0.000134492,-0.000355041,0.000727528,-7.8065e-05,-0.539451,0.000513024,0.00994537,790,596,-2.71972,3.9161
-427,428,-2.72461,-4.16461,-0.000276918,-0.000436941,0.000593969,0.000242405,-0.000956264,0.718448,0.000731818,0.0105914,797,596,-2.72459,4.16459
-420,428,-2.71857,-4.35773,-0.00112333,-0.00113855,0.00149622,0.0003653,-0.00262718,0.782856,0.00188505,0.0113585,804,596,-2.71854,4.35771
-413,428,-2.72247,-4.57867,-0.00186067,-0.00194479,0.00235429,0.000451941,-0.0042574,0.776466,0.00300028,0.0137068,811,596,-2.72249,4.57866
-406,428,-2.72723,-4.8396,-0.00235742,-0.00270165,0.00319539,0.00067049,-0.00572956,0.758493,0.00406169,0.0156656,818,596,-2.72721,4.83958
-399,428,-2.72601,-5.08655,-0.00281119,-0.00364929,0.00408492,0.000876112,-0.00733659,0.734285,0.00520772,0.0130454,825,596,-2.72599,5.08655
-392,428,-2.716,-5.31982,-0.00319205,-0.00527799,0.00478152,0.00065893,-0.00912896,0.678017,0.00631708,0.0131339,832,596,-2.71601,5.31984
-385,428,-2.72485,-5.56805,-0.00356652,-0.00653646,0.0049979,0.000162348,-0.0102653,0.640992,0.0068983,0.0203727,839,596,-2.72483,5.56808
-378,428,-2.72583,-5.67719,-0.00384757,-0.00841931,0.00523913,-0.000417346,-0.0118495,0.579694,0.00776431,0.0374178,846,596,-2.72581,5.67719
-371,428,-2.41418,-5.76178,0,0,0,0,0,0,0,-1,853,596,-2.4142,5.7618
-364,428,-2.65082,-5.69897,0,0,0,0,0,0,0,-1,860,596,-2.65084,5.69897
-357,428,-3.20996,-4.70966,0,0,0,0,0,0,0,-1,867,596,-3.20997,4.70965
-350,428,-1.62793,-3.94055,0,0,0,0,0,0,0,-1,874,596,-1.62794,3.94055
-343,428,-0.0567017,-4.80994,0,0,0,0,0,0,0,-1,881,596,-0.0567096,4.80996
-336,428,-3.29175,-1.39569,0,0,0,0,0,0,0,-1,888,596,-3.29172,1.39568
-329,428,-3.71564,-0.791321,0,0,0,0,0,0,0,-1,895,596,-3.71564,0.791299
-322,428,-5.52863,-3.59827,0,0,0,0,0,0,0,-1,902,596,-5.52865,3.59829
-315,428,-4.57172,-1.22052,0,0,0,0,0,0,0,-1,909,596,-4.57171,1.22052
-308,428,-5.26538,-1.1521,0,0,0,0,0,0,0,-1,916,596,-5.26539,1.15209
-301,428,0,0,0,0,0,0,0,0,0,-1,923,596,0,0
-294,428,0,0,0,0,0,0,0,0,0,-1,930,596,0,0
-287,428,0,0,0,0,0,0,0,0,0,-1,937,596,0,0
-280,428,0,0,0,0,0,0,0,0,0,-1,944,596,0,0
-273,428,0,0,0,0,0,0,0,0,0,-1,951,596,0,0
-266,428,0,0,0,0,0,0,0,0,0,-1,958,596,0,0
-259,428,0,0,0,0,0,0,0,0,0,-1,965,596,0,0
-252,428,0,0,0,0,0,0,0,0,0,-1,972,596,0,0
-245,428,0,0,0,0,0,0,0,0,0,-1,979,596,0,0
-238,428,0,0,0,0,0,0,0,0,0,-1,986,596,0,0
-231,428,0,0,0,0,0,0,0,0,0,-1,993,596,0,0
-224,428,0,0,0,0,0,0,0,0,0,-1,1000,596,0,0
-217,428,0,0,0,0,0,0,0,0,0,-1,1007,596,0,0
-210,428,0,0,0,0,0,0,0,0,0,-1,1014,596,0,0
-203,428,0,0,0,0,0,0,0,0,0,-1,1021,596,0,0
-196,428,0,0,0,0,0,0,0,0,0,-1,1028,596,0,0
-189,428,0,0,0,0,0,0,0,0,0,-1,1035,596,0,0
-182,428,0,0,0,0,0,0,0,0,0,-1,1042,596,0,0
-175,428,0,0,0,0,0,0,0,0,0,-1,1049,596,0,0
-168,428,0,0,0,0,0,0,0,0,0,-1,1056,596,0,0
-161,428,0,0,0,0,0,0,0,0,0,-1,1063,596,0,0
-154,428,0,0,0,0,0,0,0,0,0,-1,1070,596,0,0
-147,428,0,0,0,0,0,0,0,0,0,-1,1077,596,0,0
-140,428,0,0,0,0,0,0,0,0,0,-1,1084,596,0,0
-133,428,0,0,0,0,0,0,0,0,0,-1,1091,596,0,0
-126,428,0,0,0,0,0,0,0,0,0,-1,1098,596,0,0
-119,428,0,0,0,0,0,0,0,0,0,-1,1105,596,0,0
-112,428,0,0,0,0,0,0,0,0,0,-1,1112,596,0,0
-105,428,0,0,0,0,0,0,0,0,0,-1,1119,596,0,0
-98,428,0,0,0,0,0,0,0,0,0,-1,1126,596,0,0
-91,428,0,0,0,0,0,0,0,0,0,-1,1133,596,0,0
-84,428,0,0,0,0,0,0,0,0,0,-1,1140,596,0,0
-77,428,0,0,0,0,0,0,0,0,0,-1,1147,596,0,0
-70,428,0,0,0,0,0,0,0,0,0,-1,1154,596,0,0
-63,428,0,0,0,0,0,0,0,0,0,-1,1161,596,0,0
-56,428,0,0,0,0,0,0,0,0,0,-1,1168,596,0,0
-49,428,0,0,0,0,0,0,0,0,0,-1,1175,596,0,0
-42,428,0,0,0,0,0,0,0,0,0,-1,1182,596,0,0
-35,428,0,0,0,0,0,0,0,0,0,-1,1189,596,0,0
-28,428,0,0,0,0,0,0,0,0,0,-1,1196,596,0,0
-21,428,0,0,0,0,0,0,0,0,0,-1,1203,596,0,0
-14,428,0,0,0,0,0,0,0,0,0,-1,1210,596,0,0
-7,428,0,0,0,0,0,0,0,0,0,-1,1217,596,0,0
0,428,0,0,0,0,0,0,0,0,0,-1,1224,596,0,0
7,428,0,0,0,0,0,0,0,0,0,-1,1231,596,0,0
14,428,0,0,0,0,0,0,0,0,0,-1,1238,596,0,0
21,428,0,0,0,0,0,0,0,0,0,-1,1245,596,0,0
28,428,0,0,0,0,0,0,0,0,0,-1,1252,596,0,0
35,428,0,0,0,0,0,0,0,0,0,-1,1259,596,0,0
42,428,0,0,0,0,0,0,0,0,0,-1,1266,596,0,0
49,428,0,0,0,0,0,0,0,0,0,-1,1273,596,0,0
56,428,0,0,0,0,0,0,0,0,0,-1,1280,596,0,0
63,428,0,0,0,0,0,0,0,0,0,-1,1287,596,0,0
70,428,0,0,0,0,0,0,0,0,0,-1,1294,596,0,0
77,428,0,0,0,0,0,0,0,0,0,-1,1301,596,0,0
84,428,0,0,0,0,0,0,0,0,0,-1,1308,596,0,0
91,428,0,0,0,0,0,0,0,0,0,-1,1315,596,0,0
98,428,0,0,0,0,0,0,0,0,0,-1,1322,596,0,0
105,428,0,0,0,0,0,0,0,0,0,-1,1329,596,0,0
112,428,0,0,0,0,0,0,0,0,0,-1,1336,596,0,0
119,428,0,0,0,0,0,0,0,0,0,-1,1343,596,0,0
126,428,0,0,0,0,0,0,0,0,0,-1,1350,596,0,0
133,428,0,0,0,0,0,0,0,0,0,-1,1357,596,0,0
140,428,0,0,0,0,0,0,0,0,0,-1,1364,596,0,0
147,428,0,0,0,0,0,0,0,0,0,-1,1371,596,0,0
154,428,0,0,0,0,0,0,0,0,0,-1,1378,596,0,0
161,428,0,0,0,0,0,0,0,0,0,-1,1385,596,0,0
168,428,0,0,0,0,0,0,0,0,0,-1,1392,596,0,0
175,428,0,0,0,0,0,0,0,0,0,-1,1399,596,0,0
182,428,0,0,0,0,0,0,0,0,0,-1,1406,596,0,0
189,428,0,0,0,0,0,0,0,0,0,-1,1413,596,0,0
196,428,0,0,0,0,0,0,0,0,0,-1,1420,596,0,0
203,428,0,0,0,0,0,0,0,0,0,-1,1427,596,0,0
210,428,0,0,0,0,0,0,0,0,0,-1,1434,596,0,0
217,428,0,0,0,0,0,0,0,0,0,-1,1441,596,0,0
224,428,0,0,0,0,0,0,0,0,0,-1,1448,596,0,0
231,428,0,0,0,0,0,0,0,0,0,-1,1455,596,0,0
238,428,0,0,0,0,0,0,0,0,0,-1,1462,596,0,0
245,428,0,0,0,0,0,0,0,0,0,-1,1469,596,0,0
252,428,0,0,0,0,0,0,0,0,0,-1,1476,596,0,0
259,428,0,0,0,0,0,0,0,0,0,-1,1483,596,0,0
266,428,0,0,0,0,0,0,0,0,0,-1,1490,596,0,0
273,428,0,0,0,0,0,0,0,0,0,-1,1497,596,0,0
280,428,0,0,0,0,0,0,0,0,0,-1,1504,596,0,0
287,428,0,0,0,0,0,0,0,0,0,-1,1511,596,0,0
294,428,0,0,0,0,0,0,0,0,0,-1,1518,596,0,0
301,428,0,0,0,0,0,0,0,0,0,-1,1525,596,0,0
308,428,0,0,0,0,0,0,0,0,0,-1,1532,596,0,0
315,428,0,0,0,0,0,0,0,0,0,-1,1539,596,0,0
322,428,0,0,0,0,0,0,0,0,0,-1,1546,596,0,0
329,428,0,0,0,0,0,0,0,0,0,-1,1553,596,0,0
336,428,0,0,0,0,0,0,0,0,0,-1,1560,596,0,0
343,428,0,0,0,0,0,0,0,0,0,-1,1567,596,0,0
350,428,0,0,0,0,0,0,0,0,0,-1,1574,596,0,0
357,428,0,0,0,0,0,0,0,0,0,-1,1581,596,0,0
364,428,0,0,0,0,0,0,0,0,0,-1,1588,596,0,0
371,428,0,0,0,0,0,0,0,0,0,-1,1595,596,0,0
378,428,0,0,0,0,0,0,0,0,0,-1,1602,596,0,0
385,428,0,0,0,0,0,0,0,0,0,-1,1609,596,0,0
392,428,0,0,0,0,0,0,0,0,0,-1,1616,596,0,0
399,428,0,0,0,0,0,0,0,0,0,-1,1623,596,0,0
406,428,0,0,0,0,0,0,0,0,0,-1,1630,596,0,0
413,428,0,0,0,0,0,0,0,0,0,-1,1637,596,0,0
420,428,2.95886,0.551819,0,0,0,0,0,0,0,-1,1644,596,2.9589,-0.551797
427,428,3.19385,0.384705,0,0,0,0,0,0,0,-1,1651,596,3.19383,-0.384692
434,428,8.18152,1.80432,0,0,0,0,0,0,0,-1,1658,596,8.18148,-1.80434
441,428,8.17993,0.607483,0,0,0,0,0,0,0,-1,1665,596,8.17997,-0.607513
448,428,7.84338,-0.385986,0,0,0,0,0,0,0,-1,1672,596,7.84336,0.385978
455,428,6.64038,2.1123,0,0,0,0,0,0,0,-1,1679,596,6.64037,-2.11229
462,428,4.84106,4.12341,0,0,0,0,0,0,0,-1,1686,596,4.84107,-4.12339
469,428,7.83789,3.10083,0,0,0,0,0,0,0,-1,1693,596,7.83785,-3.10086
476,428,7.61255,1.73956,0,0,0,0,0,0,0,-1,1700,596,7.61252,-1.73958
483,428,7.22766,1.05121,0,0,0,0,0,0,0,-1,1707,596,7.2277,-1.05121
490,428,5.4071,-3.2793,0,0,0,0,0,0,0,-1,1714,596,5.40707,3.27929
497,428,7.84106,-3.65491,0,0,0,0,0,0,0,-1,1721,596,7.84107,3.65491
504,428,6.92139,-2.83356,0,0,0,0,0,0,0,-1,1728,596,6.92137,2.83353
511,428,7.88501,-3.78723,0,0,0,0,0,0,0,-1,1735,596,7.88502,3.78722
518,428,8.54553,-3.90808,0,0,0,0,0,0,0,-1,1742,596,8.54559,3.9081
525,428,8.48535,-3.61707,0.00294429,0.00216799,0.00225408,0.0048434,0.000268882,0.700136,0.00314314,0.0346183,1749,596,8.48535,3.61705
532,428,8.54407,-3.29205,0.00214034,0.00160305,0.00175141,0.00364358,9.98011e-05,0.709298,0.00239648,0.0177295,1756,596,8.54408,3.29204
539,428,8.60095,-3.06226,0.0014564,0.00111551,0.0012282,0.00252593,4.59796e-05,0.716451,0.00166884,0.0181512,1763,596,8.60094,3.06223
546,428,8.58508,-2.78577,0.000954203,0.000797404,0.000842825,0.00172227,2.93402e-05,0.739021,0.00113852,0.0154096,1770,596,8.58512,2.78578
553,428,8.56018,-2.53186,0.000532523,0.000580361,0.00055836,0.00111531,-2.43e-06,0.806804,0.000744354,0.0119165,1777,596,8.56023,2.53188
560,428,8.57544,-2.26208,8.00826e-05,0.000495103,0.000328256,0.000675938,-0.000100753,1.06726,0.000487691,0.0120302,1784,596,8.57543,2.26207
567,428,8.5824,-1.99976,-0.000235932,0.000550029,0.000227061,0.00061091,-0.000296813,1.30883,0.00053443,0.0108232,1791,596,8.58244,1.99977
574,428,8.57996,-1.75305,-0.000388833,0.000741093,0.000271338,0.000802873,-0.000450614,1.34692,0.000733165,0.0131347,1798,596,8.57996,1.75308
581,428,8.56384,-1.48871,-0.000513127,0.00109295,0.000424894,0.00119843,-0.000618607,1.32747,0.00106672,0.0112675,1805,596,8.56388,1.48872
588,428,8.54858,-1.23987,-0.000614734,0.00162407,0.000732866,0.00184264,-0.000833298,1.28096,0.00158116,0.0150372,1812,596,8.54857,1.23989
595,428,8.5509,-0.971924,-0.000619712,0.00241798,0.00125765,0.00287108,-0.00107281,1.225,0.00235459,0.0100776,1819,596,8.55086,0.971952
602,428,8.52893,-0.685974,-0.000622072,0.00348705,0.00199351,0.00429523,-0.00143026,1.18564,0.0034408,0.0201397,1826,596,8.52894,0.686
609,428,8.49451,-0.357178,0,0,0,0,0,0,0,-1,1833,596,8.49446,0.357169
616,428,5.88977,-0.239319,0,0,0,0,0,0,0,-1,1840,596,5.88983,0.239293
623,428,8.10767,1.20917,0,0,0,0,0,0,0,-1,1847,596,8.10763,-1.20919
630,428,4.94434,0.773193,0,0,0,0,0,0,0,-1,1854,596,4.9443,-0.773171
637,428,3.95435,1.90857,0,0,0,0,0,0,0,-1,1861,596,3.95439,-1.90858
644,428,5.75476,0.888977,0,0,0,0,0,0,0,-1,1868,596,5.75472,-0.888955
651,428,0,0,0,0,0,0,0,0,0,-1,1875,596,0,0
658,428,0,0,0,0,0,0,0,0,0,-1,1882,596,0,0
665,428,0,0,0,0,0,0,0,0,0,-1,1889,596,0,0
672,428,0,0,0,0,0,0,0,0,0,-1,1896,596,0,0
679,428,0,0,0,0,0,0,0,0,0,-1,1903,596,0,0
686,428,0,0,0,0,0,0,0,0,0,-1,1910,596,0,0
693,428,0,0,0,0,0,0,0,0,0,-1,1917,596,0,0
700,428,0,0,0,0,0,0,0,0,0,-1,1924,596,0,0
707,428,0,0,0,0,0,0,0,0,0,-1,1931,596,0,0
714,428,0,0,0,0,0,0,0,0,0,-1,1938,596,0,0
721,428,0,0,0,0,0,0,0,0,0,-1,1945,596,0,0
728,428,0,0,0,0,0,0,0,0,0,-1,1952,596,0,0
735,428,0,0,0,0,0,0,0,0,0,-1,1959,596,0,0
742,428,0,0,0,0,0,0,0,0,0,-1,1966,596,0,0
749,428,0,0,0,0,0,0,0,0,0,-1,1973,596,0,0
756,428,0,0,0,0,0,0,0,0,0,-1,1980,596,0,0
763,428,0,0,0,0,0,0,0,0,0,-1,1987,596,0,0
770,428,0,0,0,0,0,0,0,0,0,-1,1994,596,0,0
777,428,0,0,0,0,0,0,0,0,0,-1,2001,596,0,0
784,428,0,0,0,0,0,0,0,0,0,-1,2008,596,0,0
791,428,0,0,0,0,0,0,0,0,0,-1,2015,596,0,0
798,428,0,0,0,0,0,0,0,0,0,-1,2022,596,0,0
805,428,0,0,0,0,0,0,0,0,0,-1,2029,596,0,0
812,428,0,0,0,0,0,0,0,0,0,-1,2036,596,0,0
-700,421,0,0,0,0,0,0,0,0,0,-1,524,603,0,0
-693,421,0,0,0,0,0,0,0,0,0,-1,531,603,0,0
-686,421,0,0,0,0,0,0,0,0,0,-1,538,603,0,0
-679,421,0,0,0,0,0,0,0,0,0,-1,545,603,0,0
-672,421,0,0,0,0,0,0,0,0,0,-1,552,603,0,0
-665,421,0,0,0,0,0,0,0,0,0,-1,559,603,0,0
-658,421,0,0,0,0,0,0,0,0,0,-1,566,603,0,0
-651,421,0,0,0,0,0,0,0,0,0,-1,573,603,0,0
-644,421,0,0,0,0,0,0,0,0,0,-1,580,603,0,0
-637,421,0,0,0,0,0,0,0,0,0,-1,587,603,0,0
-630,421,0,0,0,0,0,0,0,0,0,-1,594,603,0,0
-623,421,0,0,0,0,0,0,0,0,0,-1,601,603,0,0
-616,421,0,0,0,0,0,0,0,0,0,-1,608,603,0,0
-609,421,0,0,0,0,0,0,0,0,0,-1,615,603,0,0
-602,421,0,0,0,0,0,0,0,0,0,-1,622,603,0,0
-595,421,0,0,0,0,0,0,0,0,0,-1,629,603,0,0
-588,421,0,0,0,0,0,0,0,0,0,-1,636,603,0,0
-581,421,0,0,0,0,0,0,0,0,0,-1,643,603,0,0
-574,421,0,0,0,0,0,0,0,0,0,-1,650,603,0,0
-567,421,0,0,0,0,0,0,0,0,0,-1,657,603,0,0
-560,421,0,0,0,0,0,0,0,0,0,-1,664,603,0,0
-553,421,0,0,0,0,0,0,0,0,0,-1,671,603,0,0
-546,421,0,0,0,0,0,0,0,0,0,-1,678,603,0,0
-539,421,0,0,0,0,0,0,0,0,0,-1,685,603,0,0
-532,421,-8.97382,6.95636,0,0,0,0,0,0,0,-1,692,603,-8.97384,-6.95634
-525,421,-9.2019,5.10803,0,0,0,0,0,0,0,-1,699,603,-9.20192,-5.10806
-518,421,-9.54236,3.41217,0,0,0,0,0,0,0,-1,706,603,-9.54234,-3.41218
-511,421,-2.75134,-5.12311,0,0,0,0,0,0,0,-1,713,603,-2.75136,5.12308
-504,421,-4.97272,-4.38385,0,0,0,0,0,0,0,-1,720,603,-4.9727,4.38383
-497,421,-3.29065,-1.39111,0,0,0,0,0,0,0,-1,727,603,-3.29068,1.39111
-490,421,-2.93536,-1.78326,0,0,0,0,0,0,0,-1,734,603,-2.93534,1.78323
-483,421,-3.02295,-2.16699,0.00338707,-0.00116084,-0.00139382,0.00378025,-0.00155401,-0.274943,0.00316788,0.0393813,741,603,-3.02297,2.16699
-476,421,-2.97961,-2.48608,0.00323821,-0.000282207,-0.00163777,0.0038823,-0.000926289,-0.37469,0.00294591,0.022118,748,603,-2.9796,2.48608
-469,421,-2.9599,-2.67914,0.00309902,0.000486017,-0.00170074,0.00393716,-0.000352116,-0.457875,0.00274967,0.0169637,755,603,-2.9599,2.67912
-462,421,-2.96094,-2.92749,0.00271651,0.000752441,-0.00163564,0.00364228,-0.000173329,-0.515043,0.00248797,0.0190377,762,603,-2.96096,2.92751
-455,421,-2.96503,-3.15204,0.0021545,0.00055836,-0.00137955,0.00295019,-0.000237329,-0.523167,0.00205049,0.0195061,769,603,-2.96504,3.15203
-448,421,-2.97058,-3.39648,0.00146971,0.00032579,-0.000884816,0.00195133,-0.000155834,-0.498473,0.00135582,0.0179678,776,603,-2.9706,3.39649
-441,421,-2.95795,-3.67096,0.000749747,0.000180503,-0.000388088,0.000946396,-1.61467e-05,-0.469004,0.000636381,0.013727,783,603,-2.95794,3.67093
-434,421,-2.96411,-3.92114,-0.000102914,-0.000531796,0.000348344,9.17033e-05,-0.000726413,0.509492,0.000517558,0.0102902,790,603,-2.96408,3.92116
-427,421,-2.95697,-4.14771,-0.000964351,-0.00112684,0.00136855,0.000325361,-0.00241655,0.755751,0.00172972,0.00969958,797,603,-2.95696,4.14768
-420,421,-2.9472,-4.35657,-0.00189436,-0.00189409,0.00234845,0.000454226,-0.00424268,0.785426,0.00299138,0.0114984,804,603,-2.94722,4.35657
-413,421,-2.94775,-4.5802,-0.00278788,-0.00278783,0.00334913,0.000561277,-0.00613699,0.785401,0.00429067,0.0133581,811,603,-2.94778,4.58018
-406,421,-2.97443,-4.86151,-0.00353797,-0.00368615,0.0043948,0.000783366,-0.00800749,0.77697,0.00561768,0.0167718,818,603,-2.97446,4.86148
-399,421,-2.9397,-5.13153,-0.0042683,-0.00477791,0.00551357,0.000996349,-0.0100426,0.762307,0.00705066,0.0166367,825,603,-2.93971,5.13151
-392,421,-2.96893,-5.29742,-0.00498908,-0.00649012,0.00650288,0.000806451,-0.0122857,0.727945,0.00847205,0.0195382,832,603,-2.96893,5.29741
-385,421,-3.17462,-5.60175,-0.00580326,-0.00805066,0.00708573,0.000247314,-0.0141012,0.70676,0.00948433,0.0386573,839,603,-3.17464,5.60172
-378,421,-3.33801,-5.77539,-0.00653292,-0.0103268,0.00768575,-0.000513501,-0.0163463,0.664409,0.0107304,0.0496319,846,603,-3.33804,5.77536
-371,421,-3.17462,-5.89313,0,0,0,0,0,0,0,-1,853,603,-3.17464,5.8931
-364,421,-5.06079,-5.61859,0,0,0,0,0,0,0,-1,860,603,-5.0608,5.61861
-357,421,-5.57581,-5.5918,0,0,0,0,0,0,0,-1,867,603,-5.5758,5.59181
-350,421,-5.38019,-3.75024,0,0,0,0,0,0,0,-1,874,603,-5.38017,3.75026
-343,421,-6.22797,-2.57123,0,0,0,0,0,0,0,-1,881,603,-6.22798,2.57121
-336,421,-6.22882,-2.59369,0,0,0,0,0,0,0,-1,888,603,-6.22883,2.5937
-329,421,-4.50134,-1.49469,0,0,0,0,0,0,0,-1,895,603,-4.50137,1.49468
-322,421,-6.30377,-0.285339,0,0,0,0,0,0,0,-1,902,603,-6.30379,0.285355
-315,421,-4.47821,-1.26733,0,0,0,0,0,0,0,-1,909,603,-4.47824,1.26732
-308,421,0,0,0,0,0,0,0,0,0,-1,916,603,0,0
-301,421,0,0,0,0,0,0,0,0,0,-1,923,603,0,0
-294,421,0,0,0,0,0,0,0,0,0,-1,930,603,0,0
-287,421,0,0,0,0,0,0,0,0,0,-1,937,603,0,0
-280,421,0,0,0,0,0,0,0,0,0,-1,944,603,0,0
-273,421,0,0,0,0,0,0,0,0,0,-1,951,603,0,0
-266,421,0,0,0,0,0,0,0,0,0,-1,958,603,0,0
-259,421,0,0,0,0,0,0,0,0,0,-1,965,603,0,0
-252,421,0,0,0,0,0,0,0,0,0,-1,972,603,0,0
-245,421,0,0,0,0,0,0,0,0,0,-1,979,603,0,0
-238,421,0,0,0,0,0,0,0,0,0,-1,986,603,0,0
-231,421,0,0,0,0,0,0,0,0,0,-1,993,603,0,0
-224,421,0,0,0,0,0,0,0,0,0,-1,1000,603,0,0
-217,421,0,0,0,0,0,0,0,0,0,-1,1007,603,0,0
-210,421,0,0,0,0,0,0,0,0,0,-1,1014,603,0,0
-203,421,0,0,0,0,0,0,0,0,0,-1,1021,603,0,0
-196,421,0,0,0,0,0,0,0,0,0,-1,1028,603,0,0
-189,421,0,0,0,0,0,0,0,0,0,-1,1035,603,0,0
-182,421,0,0,0,0,0,0,0,0,0,-1,1042,603,0,0
-175,421,0,0,0,0,0,0,0,0,0,-1,1049,603,0,0
-168,421,0,0,0,0,0,0,0,0,0,-1,1056,603,0,0
-161,421,0,0,0,0,0,0,0,0,0,-1,1063,603,0,0
-154,421,0,0,0,0,0,0,0,0,0,-1,1070,603,0,0
-147,421,0,0,0,0,0,0,0,0,0,-1,1077,603,0,0
-140,421,0,0,0,0,0,0,0,0,0,-1,1084,603,0,0
-133,421,0,0,0,0,0,0,0,0,0,-1,1091,603,0,0
-126,421,0,0,0,0,0,0,0,0,0,-1,1098,603,0,0
-119,421,0,0,0,0,0,0,0,0,0,-1,1105,603,0,0
-112,421,0,0,0,0,0,0,0,0,0,-1,1112,603,0,0
-105,421,0,0,0,0,0,0,0,0,0,-1,1119,603,0,0
-98,421,0,0,0,0,0,0,0,0,0,-1,1126,603,0,0
-91,421,0,0,0,0,0,0,0,0,0,-1,1133,603,0,0
-84,421,0,0,0,0,0,0,0,0,0,-1,1140,603,0,0
-77,421,0,0,0,0,0,0,0,0,0,-1,1147,603,0,0
-70,421,0,0,0,0,0,0,0,0,0,-1,1154,603,0,0
-63,421,0,0,0,0,0,0,0,0,0,-1,1161,603,0,0
-56,421,0,0,0,0,0,0,0,0,0,-1,1168,603,0,0
-49,421,0,0,0,0,0,0,0,0,0,-1,1175,603,0,0
-42,421,0,0,0,0,0,0,0,0,0,-1,1182,603,0,0
-35,421,0,0,0,0,0,0,0,0,0,-1,1189,603,0,0
-28,421,0,0,0,0,0,0,0,0,0,-1,1196,603,0,0
-21,421,0,0,0,0,0,0,0,0,0,-1,1203,603,0,0
-14,421,0,0,0,0,0,0,0,0,0,-1,1210,603,0,0
-7,421,0,0,0,0,0,0,0,0,0,-1,1217,603,0,0
0,421,0,0,0,0,0,0,0,0,0,-1,1224,603,0,0
7,421,0,0,0,0,0,0,0,0,0,-1,1231,603,0,0
14,421,0,0,0,0,0,0,0,0,0,-1,1238,603,0,0
21,421,0,0,0,0,0,0,0,0,0,-1,1245,603,0,0
28,421,0,0,0,0,0,0,0,0,0,-1,1252,603,0,0
35,421,0,0,0,0,0,0,0,0,0,-1,1259,603,0,0
42,421,0,0,0,0,0,0,0,0,0,-1,1266,603,0,0
49,421,0,0,0,0,0,0,0,0,0,-1,1273,603,0,0
56,421,0,0,0,0,0,0,0,0,0,-1,1280,603,0,0
63,421,0,0,0,0,0,0,0,0,0,-1,1287,603,0,0
70,421,0,0,0,0,0,0,0,0,0,-1,1294,603,0,0
77,421,0,0,0,0,0,0,0,0,0,-1,1301,603,0,0
84,421,0,0,0,0,0,0,0,0,0,-1,1308,603,0,0
91,421,0,0,0,0,0,0,0,0,0,-1,1315,603,0,0
98,421,0,0,0,0,0,0,0,0,0,-1,1322,603,0,0
105,421,0,0,0,0,0,0,0,0,0,-1,1329,603,0,0
112,421,0,0,0,0,0,0,0,0,0,-1,1336,603,0,0
119,421,0,0,0,0,0,0,0,0,0,-1,1343,603,0,0
126,421,0,0,0,0,0,0,0,0,0,-1,1350,603,0,0
133,421,0,0,0,0,0,0,0,0,0,-1,1357,603,0,0
140,421,0,0,0,0,0,0,0,0,0,-1,1364,603,0,0
147,421,0,0,0,0,0,0,0,0,0,-1,1371,603,0,0
154,421,0,0,0,0,0,0,0,0,0,-1,1378,603,0,0
161,421,0,0,0,0,0,0,0,0,0,-1,1385,603,0,0
168,421,0,0,0,0,0,0,0,0,0,-1,1392,603,0,0
175,421,0,0,0,0,0,0,0,0,0,-1,1399,603,0,0
182,421,0,0,0,0,0,0,0,0,0,-1,1406,603,0,0
189,421,0,0,0,0,0,0,0,0,0,-1,1413,603,0,0
196,421,0,0,0,0,0,0,0,0,0,-1,1420,603,0,0
203,421,0,0,0,0,0,0,0,0,0,-1,1427,603,0,0
210,421,0,0,0,0,0,0,0,0,0,-1,1434,603,0,0
217,421,0,0,0,0,0,0,0,0,0,-1,1441,603,0,0
224,421,0,0,0,0,0,0,0,0,0,-1,1448,603,0,0
231,421,0,0,0,0,0,0,0,0,0,-1,1455,603,0,0
238,421,0,0,0,0,0,0,0,0,0,-1,1462,603,0,0
245,421,0,0,0,0,0,0,0,0,0,-1,1469,603,0,0
252,421,0,0,0,0,0,0,0,0,0,-1,1476,603,0,0
259,421,0,0,0,0,0,0,0,0,0,-1,1483,603,0,0
266,421,0,0,0,0,0,0,0,0,0,-1,1490,603,0,0
273,421,0,0,0,0,0,0,0,0,0,-1,1497,603,0,0
280,421,0,0,0,0,0,0,0,0,0,-1,1504,603,0,0
287,421,0,0,0,0,0,0,0,0,0,-1,1511,603,0,0
294,421,0,0,0,0,0,0,0,0,0,-1,1518,603,0,0
301,421,0,0,0,0,0,0,0,0,0,-1,1525,603,0,0
308,421,0,0,0,0,0,0,0,0,0,-1,1532,603,0,0
315,421,0,0,0,0,0,0,0,0,0,-1,1539,603,0,0
322,421,0,0,0,0,0,0,0,0,0,-1,1546,603,0,0
329,421,0,0,0,0,0,0,0,0,0,-1,1553,603,0,0
336,421,0,0,0,0,0,0,0,0,0,-1,1560,603,0,0
343,421,0,0,0,0,0,0,0,0,0,-1,1567,603,0,0
350,421,0,0,0,0,0,0,0,0,0,-1,1574,603,0,0
357,421,0,0,0,0,0,0,0,0,0,-1,1581,603,0,0
364,421,0,0,0,0,0,0,0,0,0,-1,1588,603,0,0
371,421,0,0,0,0,0,0,0,0,0,-1,1595,603,0,0
378,421,0,0,0,0,0,0,0,0,0,-1,1602,603,0,0
385,421,0,0,0,0,0,0,0,0,0,-1,1609,603,0,0
392,421,0,0,0,0,0,0,0,0,0,-1,1616,603,0,0
399,421,0,0,0,0,0,0,0,0,0,-1,1623,603,0,0
406,421,0,0,0,0,0,0,0,0,0,-1,1630,603,0,0
413,421,0,0,0,0,0,0,0,0,0,-1,1637,603,0,0
420,421,0,0,0,0,0,0,0,0,0,-1,1644,603,0,0
427,421,0,0,0,0,0,0,0,0,0,-1,1651,603,0,0
434,421,3.68176,-0.0327759,0,0,0,0,0,0,0,-1,1658,603,3.6818,0.0328037
441,421,8.06689,0.527832,0,0,0,0,0,0,0,-1,1665,603,8.06693,-0.527851
448,421,6.93921,0.802246,0,0,0,0,0,0,0,-1,1672,603,6.93923,-0.802251
455,421,7.29456,2.14825,0,0,0,0,0,0,0,-1,1679,603,7.29461,-2.14827
462,421,7.86902,3.53174,0,0,0,0,0,0,0,-1,1686,603,7.869,-3.53173
469,421,8.06604,2.81213,0,0,0,0,0,0,0,-1,1693,603,8.06606,-2.81212
476,421,8.26306,2.09253,0,0,0,0,0,0,0,-1,1700,603,8.26312,-2.09251
483,421,8.05322,0.798096,0,0,0,0,0,0,0,-1,1707,603,8.05323,-0.7981
490,421,7.51233,0.213074,0,0,0,0,0,0,0,-1,1714,603,7.51235,-0.213043
497,421,7.49634,-2.86688,0,0,0,0,0,0,0,-1,1721,603,7.4963,2.86688
504,421,6.90491,-2.18671,0,0,0,0,0,0,0,-1,1728,603,6.90491,2.18669
511,421,6.31348,-1.50653,0,0,0,0,0,0,0,-1,1735,603,6.31353,1.5065
518,421,6.27588,-2.49878,0,0,0,0,0,0,0,-1,1742,603,6.2759,2.4988
525,421,8.63281,-3.80475,0,0,0,0,0,0,0,-1,1749,603,8.63277,3.80474
532,421,8.76611,-3.36688,0.00216103,0.00262253,0.0023792,0.00478214,1.41747e-06,0.833741,0.00318762,0.0341163,1756,603,8.76616,3.3669
539,421,8.86169,-3.086,0.00144674,0.00194656,0.0017099,0.00342472,-3.14157e-05,0.857962,0.00229369,0.0200744,1763,603,8.86175,3.08602
546,421,8.84106,-2.79163,0.00094153,0.00137289,0.00116756,0.00234452,-3.01007e-05,0.876733,0.00157314,0.0125851,1770,603,8.84103,2.79162
553,421,8.82471,-2.49469,0.000565548,0.000963631,0.000773701,0.00156348,-3.43045e-05,0.911298,0.00105394,0.0126855,1777,603,8.82476,2.49467
560,421,8.83435,-2.21899,0.000168714,0.000700421,0.000450696,0.000957831,-8.86963e-05,1.05187,0.000670079,0.0141459,1784,603,8.83431,2.21902
567,421,8.83997,-1.97864,-0.000103592,0.00058965,0.000268207,0.0006813,-0.000195242,1.24152,0.000531374,0.0155936,1791,603,8.83996,1.97866
574,421,8.83948,-1.73206,-0.000187879,0.000630004,0.000255344,0.000703176,-0.000261052,1.29171,0.000575874,0.0176392,1798,603,8.83948,1.73206
581,421,8.83191,-1.44269,-0.000229591,0.000830827,0.000356152,0.00093934,-0.000338104,1.27505,0.000764277,0.0147981,1805,603,8.83193,1.44267
588,421,8.81653,-1.22119,-0.000249708,0.00120549,0.000618077,0.00143257,-0.000476793,1.2187,0.00114749,0.0111528,1812,603,8.8165,1.2212
595,421,8.83752,-0.951538,-0.00012912,0.00183579,0.00108867,0.00231977,-0.000613095,1.15248,0.0017863,0.014999,1819,603,8.83758,0.951531
602,421,8.82422,-0.723328,6.90833e-05,0.00277098,0.001762,0.00364032,-0.000800261,1.11245,0.00273297,0.0156031,1826,603,8.82418,0.723339
609,421,8.69495,-0.410645,0.000399602,0.00368197,0.0025856,0.00510328,-0.0010217,1.06818,0.00378895,0.0359379,1833,603,8.69497,0.410624
616,421,8.85034,0.029541,0,0,0,0,0,0,0,-1,1840,603,8.85037,-0.0295161
623,421,6.19885,0.376648,0,0,0,0,0,0,0,-1,1847,603,6.19881,-0.376624
630,421,6.54993,0.778748,0,0,0,0,0,0,0,-1,1854,603,6.54991,-0.778744
637,421,3.74512,1.65405,0,0,0,0,0,0,0,-1,1861,603,3.74517,-1.65407
644,421,3.58081,0.354675,0,0,0,0,0,0,0,-1,1868,603,3.58082,-0.354704
651,421,3.28687,3.66351,0,0,0,0,0,0,0,-1,1875,603,3.28688,-3.66353
658,421,0,0,0,0,0,0,0,0,0,-1,1882,603,0,0
665,421,0,0,0,0,0,0,0,0,0,-1,1889,603,0,0
672,421,0,0,0,0,0,0,0,0,0,-1,1896,603,0,0
679,421,0,0,0,0,0,0,0,0,0,-1,1903,603,0,0
686,421,0,0,0,0,0,0,0,0,0,-1,1910,603,0,0
693,421,0,0,0,0,0,0,0,0,0,-1,1917,603,0,0
700,421,0,0,0,0,0,0,0,0,0,-1,1924,603,0,0
707,421,0,0,0,0,0,0,0,0,0,-1,1931,603,0,0
714,421,0,0,0,0,0,0,0,0,0,-1,1938,603,0,0
721,421,0,0,0,0,0,0,0,0,0,-1,1945,603,0,0
728,421,0,0,0,0,0,0,0,0,0,-1,1952,603,0,0
735,421,0,0,0,0,0,0,0,0,0,-1,1959,603,0,0
742,421,0,0,0,0,0,0,0,0,0,-1,1966,603,0,0
749,421,0,0,0,0,0,0,0,0,0,-1,1973,603,0,0
756,421,0,0,0,0,0,0,0,0,0,-1,1980,603,0,0
763,421,0,0,0,0,0,0,0,0,0,-1,1987,603,0,0
770,421,0,0,0,0,0,0,0,0,0,-1,1994,603,0,0
777,421,0,0,0,0,0,0,0,0,0,-1,2001,603,0,0
784,421,0,0,0,0,0,0,0,0,0,-1,2008,603,0,0
791,421,0,0,0,0,0,0,0,0,0,-1,2015,603,0,0
798,421,0,0,0,0,0,0,0,0,0,-1,2022,603,0,0
805,421,0,0,0,0,0,0,0,0,0,-1,2029,603,0,0
812,421,0,0,0,0,0,0,0,0,0,-1,2036,603,0,0
-700,414,0,0,0,0,0,0,0,0,0,-1,524,610,0,0
-693,414,0,0,0,0,0,0,0,0,0,-1,531,610,0,0
-686,414,0,0,0,0,0,0,0,0,0,-1,538,610,0,0
-679,414,0,0,0,0,0,0,0,0,0,-1,545,610,0,0
-672,414,0,0,0,0,0,0,0,0,0,-1,552,610,0,0
-665,414,0,0,0,0,0,0,0,0,0,-1,559,610,0,0
-658,414,0,0,0,0,0,0,0,0,0,-1,566,610,0,0
-651,414,0,0,0,0,0,0,0,0,0,-1,573,610,0,0
-644,414,0,0,0,0,0,0,0,0,0,-1,580,610,0,0
-637,414,0,0,0,0,0,0,0,0,0,-1,587,610,0,0
-630,414,0,0,0,0,0,0,0,0,0,-1,594,610,0,0
-623,414,0,0,0,0,0,0,0,0,0,-1,601,610,0,0
-616,414,0,0,0,0,0,0,0,0,0,-1,608,610,0,0
-609,414,0,0,0,0,0,0,0,0,0,-1,615,610,0,0
-602,414,0,0,0,0,0,0,0,0,0,-1,622,610,0,0
-595,414,0,0,0,0,0,0,0,0,0,-1,629,610,0,0
-588,414,0,0,0,0,0,0,0,0,0,-1,636,610,0,0
-581,414,0,0,0,0,0,0,0,0,0,-1,643,610,0,0
-574,414,0,0,0,0,0,0,0,0,0,-1,650,610,0,0
-567,414,0,0,0,0,0,0,0,0,0,-1,657,610,0,0
-560,414,0,0,0,0,0,0,0,0,0,-1,664,610,0,0
-553,414,0,0,0,0,0,0,0,0,0,-1,671,610,0,0
-546,414,0,0,0,0,0,0,0,0,0,-1,678,610,0,0
-539,414,-7.50146,5.65619,0,0,0,0,0,0,0,-1,685,610,-7.50149,-5.65617
-532,414,-8.15204,4.01605,0,0,0,0,0,0,0,-1,692,610,-8.15206,-4.01606
-525,414,-8.80328,2.42987,0,0,0,0,0,0,0,-1,699,610,-8.8033,-2.42985
-518,414,-3.92554,-4.91833,0,0,0,0,0,0,0,-1,706,610,-3.92551,4.91833
-511,414,-2.77478,-4.28168,0,0,0,0,0,0,0,-1,713,610,-2.77479,4.28166
-504,414,-1.62408,-3.64496,0,0,0,0,0,0,0,-1,720,610,-1.62406,3.64499
-497,414,-3.21594,-1.71558,0,0,0,0,0,0,0,-1,727,610,-3.21596,1.71557
-490,414,-3.18225,-1.91687,0.00119439,-0.00256248,-5.75725e-05,0.00119527,-0.00256336,-0.0153198,0.00221744,0.0366994,734,610,-3.18227,1.91686
-483,414,-3.14386,-2.18182,0.0016594,-0.00149013,-0.000471874,0.00172858,-0.0015593,-0.145567,0.0018991,0.0170948,741,610,-3.14387,2.18184
-476,414,-3.18378,-2.44257,0.00189646,-0.000666328,-0.000798123,0.00212469,-0.00089456,-0.278528,0.00179074,0.012004,748,610,-3.18375,2.44258
-469,414,-3.19293,-2.68573,0.0020225,1.23034e-05,-0.000917012,0.00237797,-0.000343162,-0.369801,0.00171121,0.0125236,755,610,-3.1929,2.68574
-462,414,-3.19958,-2.9502,0.0018072,0.000275616,-0.000917102,0.00223619,-0.000153378,-0.437533,0.00154446,0.0218272,762,610,-3.19961,2.95022
-455,414,-3.19,-3.19421,0.00138867,6.82313e-05,-0.000728003,0.00171124,-0.00025434,-0.417093,0.00123437,0.0243262,769,610,-3.18999,3.19421
-448,414,-3.2182,-3.41821,0.000796356,-0.000149836,-0.000252346,0.000859449,-0.000212929,-0.245002,0.000655572,0.0233949,776,610,-3.21818,3.41822
-441,414,-3.20551,-3.67059,9.78704e-05,-0.00036075,0.00025843,0.000214059,-0.000476938,0.422516,0.000408457,0.0162109,783,610,-3.20549,3.67058
-434,414,-3.19843,-3.92169,-0.000794548,-0.00114859,0.00103336,7.68418e-05,-0.00201998,0.700568,0.00137298,0.00931291,790,610,-3.19842,3.92168
-427,414,-3.2066,-4.14154,-0.00174951,-0.00181834,0.0021475,0.000363852,-0.0039317,0.777387,0.00275045,0.00986391,797,610,-3.20659,4.14155
-420,414,-3.19684,-4.36316,-0.00278714,-0.002701,0.00324108,0.000497297,-0.00598544,0.792042,0.00416596,0.00998348,804,610,-3.19683,4.36315
-413,414,-3.19501,-4.60168,-0.00387699,-0.00373081,0.00443999,0.000636695,-0.00824449,0.793629,0.00572038,0.0101127,811,610,-3.19498,4.60171
-406,414,-3.19183,-4.91296,-0.00496087,-0.00484023,0.00577047,0.000870238,-0.0106713,0.790624,0.00742133,0.0155091,818,610,-3.19181,4.91295
-399,414,-3.20892,-5.08496,-0.0060789,-0.00615627,0.00722655,0.00110907,-0.0133442,0.782721,0.00928795,0.0238964,825,610,-3.20891,5.08497
-392,414,-3.26825,-5.18933,-0.00729344,-0.00802304,0.0086614,0.00101084,-0.0163273,0.764352,0.011237,0.0290016,832,610,-3.26823,5.18932
-385,414,-3.35107,-5.34094,-0.00874472,-0.00988444,0.00978364,0.000485634,-0.0191148,0.756308,0.0129081,0.043245,839,610,-3.35109,5.34095
-378,414,-3.92932,-5.6994,0,0,0,0,0,0,0,-1,846,610,-3.92933,5.69941
-371,414,-4.03845,-6.16486,0,0,0,0,0,0,0,-1,853,610,-4.03847,6.16486
-364,414,-4.2124,-6.60828,0,0,0,0,0,0,0,-1,860,610,-4.2124,6.60826
-357,414,-5.95874,-2.51605,0,0,0,0,0,0,0,-1,867,610,-5.95872,2.51603
-350,414,-6.4502,-2.41821,0,0,0,0,0,0,0,-1,874,610,-6.45021,2.41822
-343,414,-6.80249,-2.32117,0,0,0,0,0,0,0,-1,881,610,-6.80252,2.32116
-336,414,-7.11017,-2.52026,0,0,0,0,0,0,0,-1,888,610,-7.11016,2.52026
-329,414,-7.59747,-2.70313,0,0,0,0,0,0,0,-1,895,610,-7.59747,2.70315
-322,414,-4.42236,-1.29163,0,0,0,0,0,0,0,-1,902,610,-4.42238,1.2916
-315,414,0,0,0,0,0,0,0,0,0,-1,909,610,0,0
-308,414,0,0,0,0,0,0,0,0,0,-1,916,610,0,0
-301,414,0,0,0,0,0,0,0,0,0,-1,923,610,0,0
-294,414,0,0,0,0,0,0,0,0,0,-1,930,610,0,0
-287,414,0,0,0,0,0,0,0,0,0,-1,937,610,0,0
-280,414,0,0,0,0,0,0,0,0,0,-1,944,610,0,0
-273,414,0,0,0,0,0,0,0,0,0,-1,951,610,0,0
-266,414,0,0,0,0,0,0,0,0,0,-1,958,610,0,0
-259,414,0,0,0,0,0,0,0,0,0,-1,965,610,0,0
-252,414,0,0,0,0,0,0,0,0,0,-1,972,610,0,0
-245,414,0,0,0,0,0,0,0,0,0,-1,979,610,0,0
-238,414,0,0,0,0,0,0,0,0,0,-1,986,610,0,0
-231,414,0,0,0,0,0,0,0,0,0,-1,993,610,0,0
-224,414,0,0,0,0,0,0,0,0,0,-1,1000,610,0,0
-217,414,0,0,0,0,0,0,0,0,0,-1,1007,610,0,0
-210,414,0,0,0,0,0,0,0,0,0,-1,1014,610,0,0
-203,414,0,0,0,0,0,0,0,0,0,-1,1021,610,0,0
-196,414,0,0,0,0,0,0,0,0,0,-1,1028,610,0,0
-189,414,0,0,0,0,0,0,0,0,0,-1,1035,610,0,0
-182,414,0,0,0,0,0,0,0,0,0,-1,1042,610,0,0
-175,414,0,0,0,0,0,0,0,0,0,-1,1049,610,0,0
-168,414,0,0,0,0,0,0,0,0,0,-1,1056,610,0,0
-161,414,0,0,0,0,0,0,0,0,0,-1,1063,610,0,0
-154,414,0,0,0,0,0,0,0,0,0,-1,1070,610,0,0
-147,414,0,0,0,0,0,0,0,0,0,-1,1077,610,0,0
-140,414,0,0,0,0,0,0,0,0,0,-1,1084,610,0,0
-133,414,0,0,0,0,0,0,0,0,0,-1,1091,610,0,0
-126,414,0,0,0,0,0,0,0,0,0,-1,1098,610,0,0
-119,414,0,0,0,0,0,0,0,0,0,-1,1105,610,0,0
-112,414,0,0,0,0,0,0,0,0,0,-1,1112,610,0,0
-105,414,0,0,0,0,0,0,0,0,0,-1,1119,610,0,0
-98,414,0,0,0,0,0,0,0,0,0,-1,1126,610,0,0
-91,414,0,0,0,0,0,0,0,0,0,-1,1133,610,0,0
-84,414,0,0,0,0,0,0,0,0,0,-1,1140,610,0,0
-77,414,0,0,0,0,0,0,0,0,0,-1,1147,610,0,0
-70,414,0,0,0,0,0,0,0,0,0,-1,1154,610,0,0
-63,414,0,0,0,0,0,0,0,0,0,-1,1161,610,0,0
-56,414,0,0,0,0,0,0,0,0,0,-1,1168,610,0,0
-49,414,0,0,0,0,0,0,0,0,0,-1,1175,610,0,0
-42,414,0,0,0,0,0,0,0,0,0,-1,1182,610,0,0
-35,414,0,0,0,0,0,0,0,0,0,-1,1189,610,0,0
-28,414,0,0,0,0,0,0,0,0,0,-1,1196,610,0,0
-21,414,0,0,0,0,0,0,0,0,0,-1,1203,610,0,0
-14,414,0,0,0,0,0,0,0,0,0,-1,1210,610,0,0
-7,414,0,0,0,0,0,0,0,0,0,-1,1217,610,0,0
0,414,0,0,0,0,0,0,0,0,0,-1,1224,610,0,0
7,414,0,0,0,0,0,0,0,0,0,-1,1231,610,0,0
14,414,0,0,0,0,0,0,0,0,0,-1,1238,610,0,0
21,414,0,0,0,0,0,0,0,0,0,-1,1245,610,0,0
28,414,0,0,0,0,0,0,0,0,0,-1,1252,610,0,0
35,414,0,0,0,0,0,0,0,0,0,-1,1259,610,0,0
42,414,0,0,0,0,0,0,0,0,0,-1,1266,610,0,0
49,414,0,0,0,0,0,0,0,0,0,-1,1273,610,0,0
56,414,0,0,0,0,0,0,0,0,0,-1,1280,610,0,0
63,414,0,0,0,0,0,0,0,0,0,-1,1287,610,0,0
70,414,0,0,0,0,0,0,0,0,0,-1,1294,610,0,0
77,414,0,0,0,0,0,0,0,0,0,-1,1301,610,0,0
84,414,0,0,0,0,0,0,0,0,0,-1,1308,610,0,0
91,414,0,0,0,0,0,0,0,0,0,-1,1315,610,0,0
98,414,0,0,0,0,0,0,0,0,0,-1,1322,610,0,0
105,414,0,0,0,0,0,0,0,0,0,-1,1329,610,0,0
112,414,0,0,0,0,0,0,0,0,0,-1,1336,610,0,0
119,414,0,0,0,0,0,0,0,0,0,-1,1343,610,0,0
126,414,0,0,0,0,0,0,0,0,0,-1,1350,610,0,0
133,414,0,0,0,0,0,0,0,0,0,-1,1357,610,0,0
140,414,0,0,0,0,0,0,0,0,0,-1,1364,610,0,0
147,414,0,0,0,0,0,0,0,0,0,-1,1371,610,0,0
154,414,0,0,0,0,0,0,0,0,0,-1,1378,610,0,0
161,414,0,0,0,0,0,0,0,0,0,-1,1385,610,0,0
168,414,0,0,0,0,0,0,0,0,0,-1,1392,610,0,0
175,414,0,0,0,0,0,0,0,0,0,-1,1399,610,0,0
182,414,0,0,0,0,0,0,0,0,0,-1,1406,610,0,0
189,414,0,0,0,0,0,0,0,0,0,-1,1413,610,0,0
196,414,0,0,0,0,0,0,0,0,0,-1,1420,610,0,0
203,414,0,0,0,0,0,0,0,0,0,-1,1427,610,0,0
210,414,0,0,0,0,0,0,0,0,0,-1,1434,610,0,0
217,414,0,0,0,0,0,0,0,0,0,-1,1441,610,0,0
224,414,0,0,0,0,0,0,0,0,0,-1,1448,610,0,0
231,414,0,0,0,0,0,0,0,0,0,-1,1455,610,0,0
238,414,0,0,0,0,0,0,0,0,0,-1,1462,610,0,0
245,414,0,0,0,0,0,0,0,0,0,-1,1469,610,0,0
252,414,0,0,0,0,0,0,0,0,0,-1,1476,610,0,0
259,414,0,0,0,0,0,0,0,0,0,-1,1483,610,0,0
266,414,0,0,0,0,0,0,0,0,0,-1,1490,610,0,0
273,414,0,0,0,0,0,0,0,0,0,-1,1497,610,0,0
280,414,0,0,0,0,0,0,0,0,0,-1,1504,610,0,0
287,414,0,0,0,0,0,0,0,0,0,-1,1511,610,0,0
294,414,0,0,0,0,0,0,0,0,0,-1,1518,610,0,0
301,414,0,0,0,0,0,0,0,0,0,-1,1525,610,0,0
308,414,0,0,0,0,0,0,0,0,0,-1,1532,610,0,0
315,414,0,0,0,0,0,0,0,0,0,-1,1539,610,0,0
322,414,0,0,0,0,0,0,0,0,0,-1,1546,610,0,0
329,414,0,0,0,0,0,0,0,0,0,-1,1553,610,0,0
336,414,0,0,0,0,0,0,0,0,0,-1,1560,610,0,0
343,414,0,0,0,0,0,0,0,0,0,-1,1567,610,0,0
350,414,0,0,0,0,0,0,0,0,0,-1,1574,610,0,0
357,414,0,0,0,0,0,0,0,0,0,-1,1581,610,0,0
364,414,0,0,0,0,0,0,0,0,0,-1,1588,610,0,0
371,414,0,0,0,0,0,0,0,0,0,-1,1595,610,0,0
378,414,0,0,0,0,0,0,0,0,0,-1,1602,610,0,0
385,414,0,0,0,0,0,0,0,0,0,-1,1609,610,0,0
392,414,0,0,0,0,0,0,0,0,0,-1,1616,610,0,0
399,414,0,0,0,0,0,0,0,0,0,-1,1623,610,0,0
406,414,0,0,0,0,0,0,0,0,0,-1,1630,610,0,0
413,414,0,0,0,0,0,0,0,0,0,-1,1637,610,0,0
420,414,0,0,0,0,0,0,0,0,0,-1,1644,610,0,0
427,414,0,0,0,0,0,0,0,0,0,-1,1651,610,0,0
434,414,0,0,0,0,0,0,0,0,0,-1,1658,610,0,0
441,414,7.84375,0.584412,0,0,0,0,0,0,0,-1,1665,610,7.84379,-0.584394
448,414,7.40808,1.25446,0,0,0,0,0,0,0,-1,1672,610,7.40807,-1.25446
455,414,6.3512,1.73846,0,0,0,0,0,0,0,-1,1679,610,6.3512,-1.73847
462,414,8.18103,3.22113,0,0,0,0,0,0,0,-1,1686,610,8.18108,-3.22112
469,414,8.38513,2.49579,0,0,0,0,0,0,0,-1,1693,610,8.38516,-2.49576
476,414,8.64099,1.71161,0,0,0,0,0,0,0,-1,1700,610,8.64097,-1.71164
483,414,8.62744,0.687622,0,0,0,0,0,0,0,-1,1707,610,8.62749,-0.687615
490,414,8.38831,-0.0302734,0,0,0,0,0,0,0,-1,1714,610,8.38835,0.0302913
497,414,4.71094,-0.110046,0,0,0,0,0,0,0,-1,1721,610,4.71089,0.110024
504,414,7.19568,-1.43835,0,0,0,0,0,0,0,-1,1728,610,7.19563,1.43836
511,414,5.94153,-1.28772,0,0,0,0,0,0,0,-1,1735,610,5.94151,1.28769
518,414,4.53381,-0.0996704,0,0,0,0,0,0,0,-1,1742,610,4.53378,0.0996819
525,414,6.18811,-1.64056,0,0,0,0,0,0,0,-1,1749,610,6.18814,1.64055
532,414,9.05774,-3.58868,0,0,0,0,0,0,0,-1,1756,610,9.0577,3.5887
539,414,9.06641,-3.15045,0.00100053,0.00254818,0.00187127,0.00379931,-0.000250596,0.981456,0.0026204,0.0397427,1763,610,9.06641,3.15043
546,414,9.07153,-2.78516,0.000531356,0.0018165,0.00124197,0.00257228,-0.000224425,1.02413,0.00179434,0.0129296,1770,610,9.07153,2.78517
553,414,9.0802,-2.50909,0.00025388,0.00131909,0.000813523,0.00175885,-0.000185877,1.07523,0.00123918,0.0123469,1777,610,9.08015,2.50911
560,414,9.09656,-2.20642,-3.34485e-05,0.00097877,0.000476087,0.0011675,-0.000222181,1.19338,0.000861993,0.0136364,1784,610,9.09659,2.20643
567,414,9.11047,-1.9436,-0.000217754,0.000790789,0.000286579,0.000866533,-0.000293498,1.3124,0.00069645,0.02239,1791,610,9.11046,1.94357
574,414,9.09351,-1.72327,-0.000193332,0.000762919,0.000281455,0.00083961,-0.000270022,1.30478,0.000668189,0.0199838,1798,610,9.09349,1.72329
581,414,9.10352,-1.45917,-0.00010683,0.000894157,0.000392466,0.00102968,-0.000242358,1.23829,0.000779897,0.0146635,1805,610,9.10348,1.45919
588,414,9.08154,-1.22571,8.39755e-06,0.00118335,0.000657321,0.00147747,-0.000285715,1.15007,0.00109274,0.014889,1812,610,9.08157,1.22573
595,414,9.09302,-0.946777,0.000302835,0.00171225,0.00111134,0.00232348,-0.000308392,1.06796,0.00166135,0.0211511,1819,610,9.09302,0.946796
602,414,9.10962,-0.676819,0.000679053,0.00254543,0.00173761,0.00358458,-0.000360102,1.03182,0.00251835,0.0233487,1826,610,9.10958,0.676846
609,414,9.0083,-0.441162,0.00103126,0.00330968,0.00243463,0.00485845,-0.00051751,1.00423,0.00342453,0.0247772,1833,610,9.00829,0.441192
616,414,9.34143,0.0415039,0,0,0,0,0,0,0,-1,1840,610,9.34141,-0.041496
623,414,9.18359,0.122925,0,0,0,0,0,0,0,-1,1847,610,9.1836,-0.122948
630,414,5.47144,0.499329,0,0,0,0,0,0,0,-1,1854,610,5.47142,-0.499303
637,414,6.57898,2.38019,0,0,0,0,0,0,0,-1,1861,610,6.579,-2.38019
644,414,5.87073,1.51422,0,0,0,0,0,0,0,-1,1868,610,5.87076,-1.51424
651,414,3.6377,0.820557,0,0,0,0,0,0,0,-1,1875,610,3.6377,-0.820543
658,414,2.29761,3.87323,0,0,0,0,0,0,0,-1,1882,610,2.29758,-3.87325
665,414,0,0,0,0,0,0,0,0,0,-1,1889,610,0,0
672,414,0,0,0,0,0,0,0,0,0,-1,1896,610,0,0
679,414,0,0,0,0,0,0,0,0,0,-1,1903,610,0,0
686,414,0,0,0,0,0,0,0,0,0,-1,1910,610,0,0
693,414,0,0,0,0,0,0,0,0,0,-1,1917,610,0,0
700,414,0,0,0,0,0,0,0,0,0,-1,1924,610,0,0
707,414,0,0,0,0,0,0,0,0,0,-1,1931,610,0,0
714,414,0,0,0,0,0,0,0,0,0,-1,1938,610,0,0
721,414,0,0,0,0,0,0,0,0,0,-1,1945,610,0,0
728,414,0,0,0,0,0,0,0,0,0,-1,1952,610,0,0
735,414,0,0,0,0,0,0,0,0,0,-1,1959,610,0,0
742,414,0,0,0,0,0,0,0,0,0,-1,1966,610,0,0
749,414,0,0,0,0,0,0,0,0,0,-1,1973,610,0,0
756,414,0,0,0,0,0,0,0,0,0,-1,1980,610,0,0
763,414,0,0,0,0,0,0,0,0,0,-1,1987,610,0,0
770,414,0,0,0,0,0,0,0,0,0,-1,1994,610,0,0
777,414,0,0,0,0,0,0,0,0,0,-1,2001,610,0,0
784,414,0,0,0,0,0,0,0,0,0,-1,2008,610,0,0
791,414,0,0,0,0,0,0,0,0,0,-1,2015,610,0,0
798,414,0,0,0,0,0,0,0,0,0,-1,2022,610,0,0
805,414,0,0,0,0,0,0,0,0,0,-1,2029,610,0,0
812,414,0,0,0,0,0,0,0,0,0,-1,2036,610,0,0
-700,407,0,0,0,0,0,0,0,0,0,-1,524,617,0,0
-693,407,0,0,0,0,0,0,0,0,0,-1,531,617,0,0
-686,407,0,0,0,0,0,0,0,0,0,-1,538,617,0,0
-679,407,0,0,0,0,0,0,0,0,0,-1,545,617,0,0
-672,407,0,0,0,0,0,0,0,0,0,-1,552,617,0,0
-665,407,0,0,0,0,0,0,0,0,0,-1,559,617,0,0
-658,407,0,0,0,0,0,0,0,0,0,-1,566,617,0,0
-651,407,0,0,0,0,0,0,0,0,0,-1,573,617,0,0
-644,407,0,0,0,0,0,0,0,0,0,-1,580,617,0,0
-637,407,0,0,0,0,0,0,0,0,0,-1,587,617,0,0
-630,407,0,0,0,0,0,0,0,0,0,-1,594,617,0,0
-623,407,0,0,0,0,0,0,0,0,0,-1,601,617,0,0
-616,407,0,0,0,0,0,0,0,0,0,-1,608,617,0,0
-609,407,0,0,0,0,0,0,0,0,0,-1,615,617,0,0
-602,407,0,0,0,0,0,0,0,0,0,-1,622,617,0,0
-595,407,0,0,0,0,0,0,0,0,0,-1,629,617,0,0
-588,407,0,0,0,0,0,0,0,0,0,-1,636,617,0,0
-581,407,0,0,0,0,0,0,0,0,0,-1,643,617,0,0
-574,407,0,0,0,0,0,0,0,0,0,-1,650,617,0,0
-567,407,0,0,0,0,0,0,0,0,0,-1,657,617,0,0
-560,407,0,0,0,0,0,0,0,0,0,-1,664,617,0,0
-553,407,0,0,0,0,0,0,0,0,0,-1,671,617,0,0
-546,407,-8.54517,-0.658142,0,0,0,0,0,0,0,-1,678,617,-8.54515,0.658112
-539,407,-6.09442,-1.01154,0,0,0,0,0,0,0,-1,685,617,-6.09441,1.01155
-532,407,-7.75665,1.62152,0,0,0,0,0,0,0,-1,692,617,-7.75667,-1.62154
-525,407,-4.53937,-5.61676,0,0,0,0,0,0,0,-1,699,617,-4.53938,5.61677
-518,407,-3.72192,-4.58167,0,0,0,0,0,0,0,-1,706,617,-3.72193,4.58169
-511,407,-2.87604,-3.50256,0,0,0,0,0,0,0,-1,713,617,-2.87606,3.50259
-504,407,-2.77325,-3.05133,0,0,0,0,0,0,0,-1,720,617,-2.77323,3.05136
-497,407,-3.33533,-2.37079,-0.000876933,-0.00264965,0.000305644,-0.000825715,-0.00270087,0.166031,0.00159811,0.0414527,727,617,-3.33535,2.37077
-490,407,-3.38885,-1.99011,2.4207e-07,-0.00205082,0.000257079,3.19735e-05,-0.00208255,0.122809,0.00139914,0.0211406,734,617,-3.38886,1.9901
-483,407,-3.39789,-2.19733,0.000613852,-0.0015208,-4.87656e-06,0.000613863,-0.00152081,-0.00228447,0.00126899,0.0119031,741,617,-3.39786,2.19731
-476,407,-3.40997,-2.42126,0.00104591,-0.000938827,-0.000255342,0.00107823,-0.000971152,-0.125921,0.00118375,0.010051,748,617,-3.40997,2.42129
-469,407,-3.41797,-2.6673,0.00132161,-0.00041138,-0.000357262,0.00139237,-0.000482142,-0.195536,0.00112397,0.0122772,755,617,-3.41796,2.66731
-462,407,-3.4386,-2.92487,0.00121265,-0.000195808,-0.00037883,0.00130808,-0.000291236,-0.246767,0.000983609,0.019278,762,617,-3.43861,2.92484
-455,407,-3.44812,-3.18817,0.000883919,-0.000430134,-0.000217229,0.000918898,-0.000465113,-0.159655,0.00081325,0.0210909,769,617,-3.44814,3.18814
-448,407,-3.43402,-3.42468,0.000326398,-0.000639701,0.00026231,0.000393024,-0.000706327,0.248738,0.000643245,0.0179021,776,617,-3.43399,3.42466
-441,407,-3.44098,-3.63824,-0.000410916,-0.000939084,0.000821056,0.000187482,-0.00153748,0.629804,0.00109285,0.0133962,783,617,-3.44101,3.63825
-434,407,-3.44519,-3.8822,-0.00140541,-0.00178773,0.0016585,7.29136e-05,-0.00326605,0.728021,0.00220207,0.00953164,790,617,-3.44518,3.88217
-427,407,-3.44611,-4.12158,-0.00253288,-0.00253405,0.00287948,0.000346019,-0.00541295,0.785296,0.00372933,0.0100567,797,617,-3.44611,4.12155
-420,407,-3.43182,-4.34613,-0.00376762,-0.00353799,0.00411359,0.000462383,-0.007768,0.79935,0.00533947,0.0103377,804,617,-3.43182,4.34614
-413,407,-3.41364,-4.58203,-0.00516605,-0.0047207,0.00556622,0.0006273,-0.0105141,0.80539,0.00722755,0.0114442,811,617,-3.41366,4.58203
-406,407,-3.44977,-4.76721,-0.00674838,-0.006098,0.00727621,0.00086029,-0.0137067,0.80773,0.00943762,0.0219839,818,617,-3.44974,4.7672
-399,407,-3.50861,-4.90387,-0.00845958,-0.00770198,0.00921382,0.00114083,-0.0173024,0.805943,0.0119334,0.0379394,825,617,-3.50861,4.90387
-392,407,-3.54382,-5.04333,-0.0103658,-0.00977038,0.0113044,0.0012402,-0.0213764,0.798564,0.0146818,0.0466344,832,617,-3.54382,5.04334
-385,407,-3.68201,-5.22675,0,0,0,0,0,0,0,-1,839,617,-3.68202,5.22676
-378,407,-4.3089,-5.33673,0,0,0,0,0,0,0,-1,846,617,-4.3089,5.33672
-371,407,-4.39404,-5.7431,0,0,0,0,0,0,0,-1,853,617,-4.39405,5.74309
-364,407,-6.26666,-1.91302,0,0,0,0,0,0,0,-1,860,617,-6.26669,1.91305
-357,407,-6.64447,-1.83337,0,0,0,0,0,0,0,-1,867,617,-6.64446,1.8334
-350,407,-7.03351,-1.77551,0,0,0,0,0,0,0,-1,874,617,-7.03349,1.77551
-343,407,-7.40967,-1.95026,0,0,0,0,0,0,0,-1,881,617,-7.40969,1.95026
-336,407,-8.10229,-2.40662,0,0,0,0,0,0,0,-1,888,617,-8.10229,2.40664
-329,407,-8.81232,-2.76331,0,0,0,0,0,0,0,-1,895,617,-8.81235,2.76331
-322,407,0,0,0,0,0,0,0,0,0,-1,902,617,0,0
-315,407,0,0,0,0,0,0,0,0,0,-1,909,617,0,0
-308,407,0,0,0,0,0,0,0,0,0,-1,916,617,0,0
-301,407,0,0,0,0,0,0,0,0,0,-1,923,617,0,0
-294,407,0,0,0,0,0,0,0,0,0,-1,930,617,0,0
-287,407,0,0,0,0,0,0,0,0,0,-1,937,617,0,0
-280,407,0,0,0,0,0,0,0,0,0,-1,944,617,0,0
-273,407,0,0,0,0,0,0,0,0,0,-1,951,617,0,0
-266,407,0,0,0,0,0,0,0,0,0,-1,958,617,0,0
-259,407,0,0,0,0,0,0,0,0,0,-1,965,617,0,0
-252,407,0,0,0,0,0,0,0,0,0,-1,972,617,0,0
-245,407,0,0,0,0,0,0,0,0,0,-1,979,617,0,0
-238,407,0,0,0,0,0,0,0,0,0,-1,986,617,0,0
-231,407,0,0,0,0,0,0,0,0,0,-1,993,617,0,0
-224,407,0,0,0,0,0,0,0,0,0,-1,1000,617,0,0
-217,407,0,0,0,0,0,0,0,0,0,-1,1007,617,0,0
-210,407,0,0,0,0,0,0,0,0,0,-1,1014,617,0,0
-203,407,0,0,0,0,0,0,0,0,0,-1,1021,617,0,0
-196,407,0,0,0,0,0,0,0,0,0,-1,1028,617,0,0
-189,407,0,0,0,0,0,0,0,0,0,-1,1035,617,0,0
-182,407,0,0,0,0,0,0,0,0,0,-1,1042,617,0,0
-175,407,0,0,0,0,0,0,0,0,0,-1,1049,617,0,0
-168,407,0,0,0,0,0,0,0,0,0,-1,1056,617,0,0
-161,407,0,0,0,0,0,0,0,0,0,-1,1063,617,0,0
-154,407,0,0,0,0,0,0,0,0,0,-1,1070,617,0,0
-147,407,0,0,0,0,0,0,0,0,0,-1,1077,617,0,0
-140,407,0,0,0,0,0,0,0,0,0,-1,1084,617,0,0
-133,407,0,0,0,0,0,0,0,0,0,-1,1091,617,0,0
-126,407,0,0,0,0,0,0,0,0,0,-1,1098,617,0,0
-119,407,0,0,0,0,0,0,0,0,0,-1,1105,617,0,0
-112,407,0,0,0,0,0,0,0,0,0,-1,1112,617,0,0
-105,407,0,0,0,0,0,0,0,0,0,-1,1119,617,0,0
-98,407,0,0,0,0,0,0,0,0,0,-1,1126,617,0,0
-91,407,0,0,0,0,0,0,0,0,0,-1,1133,617,0,0
-84,407,0,0,0,0,0,0,0,0,0,-1,1140,617,0,0
-77,407,0,0,0,0,0,0,0,0,0,-1,1147,617,0,0
-70,407,0,0,0,0,0,0,0,0,0,-1,1154,617,0,0
-63,407,0,0,0,0,0,0,0,0,0,-1,1161,617,0,0
-56,407,0,0,0,0,0,0,0,0,0,-1,1168,617,0,0
-49,407,0,0,0,0,0,0,0,0,0,-1,1175,617,0,0
-42,407,0,0,0,0,0,0,0,0,0,-1,1182,617,0,0
-35,407,0,0,0,0,0,0,0,0,0,-1,1189,617,0,0
-28,407,0,0,0,0,0,0,0,0,0,-1,1196,617,0,0
-21,407,0,0,0,0,0,0,0,0,0,-1,1203,617,0,0
-14,407,0,0,0,0,0,0,0,0,0,-1,1210,617,0,0
-7,407,0,0,0,0,0,0,0,0,0,-1,1217,617,0,0
0,407,0,0,0,0,0,0,0,0,0,-1,1224,617,0,0
7,407,0,0,0,0,0,0,0,0,0,-1,1231,617,0,0
14,407,0,0,0,0,0,0,0,0,0,-1,1238,617,0,0
21,407,0,0,0,0,0,0,0,0,0,-1,1245,617,0,0
28,407,0,0,0,0,0,0,0,0,0,-1,1252,617,0,0
35,407,0,0,0,0,0,0,0,0,0,-1,1259,617,0,0
42,407,0,0,0,0,0,0,0,0,0,-1,1266,617,0,0
49,407,0,0,0,0,0,0,0,0,0,-1,1273,617,0,0
56,407,0,0,0,0,0,0,0,0,0,-1,1280,617,0,0
63,407,0,0,0,0,0,0,0,0,0,-1,1287,617,0,0
70,407,0,0,0,0,0,0,0,0,0,-1,1294,617,0,0
77,407,0,0,0,0,0,0,0,0,0,-1,1301,617,0,0
84,407,0,0,0,0,0,0,0,0,0,-1,1308,617,0,0
91,407,0,0,0,0,0,0,0,0,0,-1,1315,617,0,0
98,407,0,0,0,0,0,0,0,0,0,-1,1322,617,0,0
105,407,0,0,0,0,0,0,0,0,0,-1,1329,617,0,0
112,407,0,0,0,0,0,0,0,0,0,-1,1336,617,0,0
119,407,0,0,0,0,0,0,0,0,0,-1,1343,617,0,0
126,407,0,0,0,0,0,0,0,0,0,-1,1350,617,0,0
133,407,0,0,0,0,0,0,0,0,0,-1,1357,617,0,0
140,407,0,0,0,0,0,0,0,0,0,-1,1364,617,0,0
147,407,0,0,0,0,0,0,0,0,0,-1,1371,617,0,0
154,407,0,0,0,0,0,0,0,0,0,-1,1378,617,0,0
161,407,0,0,0,0,0,0,0,0,0,-1,1385,617,0,0
168,407,0,0,0,0,0,0,0,0,0,-1,1392,617,0,0
175,407,0,0,0,0,0,0,0,0,0,-1,1399,617,0,0
182,407,0,0,0,0,0,0,0,0,0,-1,1406,617,0,0
189,407,0,0,0,0,0,0,0,0,0,-1,1413,617,0,0
196,407,0,0,0,0,0,0,0,0,0,-1,1420,617,0,0
203,407,0,0,0,0,0,0,0,0,0,-1,1427,617,0,0
210,407,0,0,0,0,0,0,0,0,0,-1,1434,617,0,0
217,407,0,0,0,0,0,0,0,0,0,-1,1441,617,0,0
224,407,0,0,0,0,0,0,0,0,0,-1,1448,617,0,0
231,407,0,0,0,0,0,0,0,0,0,-1,1455,617,0,0
238,407,0,0,0,0,0,0,0,0,0,-1,1462,617,0,0
245,407,0,0,0,0,0,0,0,0,0,-1,1469,617,0,0
252,407,0,0,0,0,0,0,0,0,0,-1,1476,617,0,0
259,407,0,0,0,0,0,0,0,0,0,-1,1483,617,0,0
266,407,0,0,0,0,0,0,0,0,0,-1,1490,617,0,0
273,407,0,0,0,0,0,0,0,0,0,-1,1497,617,0,0
280,407,0,0,0,0,0,0,0,0,0,-1,1504,617,0,0
287,407,0,0,0,0,0,0,0,0,0,-1,1511,617,0,0
294,407,0,0,0,0,0,0,0,0,0,-1,1518,617,0,0
301,407,0,0,0,0,0,0,0,0,0,-1,1525,617,0,0
308,407,0,0,0,0,0,0,0,0,0,-1,1532,617,0,0
315,407,0,0,0,0,0,0,0,0,0,-1,1539,617,0,0
322,407,0,0,0,0,0,0,0,0,0,-1,1546,617,0,0
329,407,0,0,0,0,0,0,0,0,0,-1,1553,617,0,0
336,407,0,0,0,0,0,0,0,0,0,-1,1560,617,0,0
343,407,0,0,0,0,0,0,0,0,0,-1,1567,617,0,0
350,407,0,0,0,0,0,0,0,0,0,-1,1574,617,0,0
357,407,0,0,0,0,0,0,0,0,0,-1,1581,617,0,0
364,407,0,0,0,0,0,0,0,0,0,-1,1588,617,0,0
371,407,0,0,0,0,0,0,0,0,0,-1,1595,617,0,0
378,407,0,0,0,0,0,0,0,0,0,-1,1602,617,0,0
385,407,0,0,0,0,0,0,0,0,0,-1,1609,617,0,0
392,407,0,0,0,0,0,0,0,0,0,-1,1616,617,0,0
399,407,0,0,0,0,0,0,0,0,0,-1,1623,617,0,0
406,407,0,0,0,0,0,0,0,0,0,-1,1630,617,0,0
413,407,0,0,0,0,0,0,0,0,0,-1,1637,617,0,0
420,407,0,0,0,0,0,0,0,0,0,-1,1644,617,0,0
427,407,0,0,0,0,0,0,0,0,0,-1,1651,617,0,0
434,407,0,0,0,0,0,0,0,0,0,-1,1658,617,0,0
441,407,0,0,0,0,0,0,0,0,0,-1,1665,617,0,0
448,407,7.02893,2.13843,0,0,0,0,0,0,0,-1,1672,617,7.02899,-2.13844
455,407,7.55237,2.29242,0,0,0,0,0,0,0,-1,1679,617,7.55236,-2.29244
462,407,8.2926,2.46173,0,0,0,0,0,0,0,-1,1686,617,8.29261,-2.46174
469,407,8.71509,2.22681,0,0,0,0,0,0,0,-1,1693,617,8.71511,-2.22681
476,407,8.89917,1.47766,0,0,0,0,0,0,0,-1,1700,617,8.89914,-1.47768
483,407,9.02612,0.682983,0,0,0,0,0,0,0,-1,1707,617,9.02608,-0.683004
490,407,9.12659,0.000671387,0,0,0,0,0,0,0,-1,1714,617,9.12653,-0.000675931
497,407,7.76819,0.855835,0,0,0,0,0,0,0,-1,1721,617,7.7682,-0.855865
504,407,4.69336,0.160706,0,0,0,0,0,0,0,-1,1728,617,4.69337,-0.1607
511,407,4.07104,-0.00140381,0,0,0,0,0,0,0,-1,1735,617,4.07109,0.00141425
518,407,6.09534,1.9411,0,0,0,0,0,0,0,-1,1742,617,6.09532,-1.94113
525,407,5.72534,-1.35986,0,0,0,0,0,0,0,-1,1749,617,5.72529,1.35988
532,407,7.31763,-2.34937,0,0,0,0,0,0,0,-1,1756,617,7.31766,2.34937
539,407,9.22656,-3.22644,0,0,0,0,0,0,0,-1,1763,617,9.2265,3.22642
546,407,9.32275,-2.79785,-0.000186786,0.00219095,0.00112947,0.00264193,-0.000637768,1.19091,0.00200793,0.0146848,1770,617,9.32271,2.79786
553,407,9.31897,-2.52222,-0.000315261,0.00159894,0.000703744,0.00182982,-0.000546141,1.25379,0.00143695,0.0146013,1777,617,9.319,2.52221
560,407,9.35559,-2.20013,-0.00045852,0.00117407,0.000386666,0.00126102,-0.000545468,1.34961,0.0010699,0.0148753,1784,617,9.35565,2.20015
567,407,9.35352,-1.97052,-0.000540401,0.000909752,0.000214422,0.000940792,-0.000571441,1.42703,0.000881726,0.0272892,1791,617,9.35351,1.97049
574,407,9.34741,-1.76624,-0.000404422,0.000830004,0.000233513,0.0008727,-0.000447119,1.38995,0.00077509,0.0236288,1798,617,9.34742,1.76626
581,407,9.35376,-1.48755,-0.000189148,0.000923393,0.00037175,0.00103618,-0.000301933,1.27623,0.0008104,0.016199,1805,617,9.35373,1.48758
588,407,9.32739,-1.22076,6.26336e-05,0.00116939,0.000652243,0.00147137,-0.000239354,1.13719,0.00106966,0.0118273,1812,617,9.32739,1.22078
595,407,9.3468,-0.957031,0.000510758,0.0016401,0.00110124,0.002313,-0.000162141,1.0223,0.00159879,0.0223657,1819,617,9.34679,0.957013
602,407,9.35645,-0.683472,0.00102486,0.00240548,0.00170693,0.0035564,-0.000126061,0.977552,0.00241405,0.0176862,1826,617,9.35647,0.683474
609,407,9.31519,-0.397888,0.00140265,0.0030953,0.00233139,0.00472922,-0.000231272,0.959508,0.00323267,0.0158551,1833,617,9.31513,0.397868
616,407,9.39526,-0.0206909,0.00175508,0.00454131,0.00323992,0.00667493,-0.000378533,0.988441,0.00458135,0.0260712,1840,617,9.39532,0.0207191
623,407,9.69031,0.381409,0,0,0,0,0,0,0,-1,1847,617,9.69033,-0.381411
630,407,7.06177,0.814575,0,0,0,0,0,0,0,-1,1854,617,7.06178,-0.814579
637,407,6.27808,1.17114,0,0,0,0,0,0,0,-1,1861,617,6.27803,-1.17116
644,407,5.09766,2.27747,0,0,0,0,0,0,0,-1,1868,617,5.09764,-2.27746
651,407,7.37524,0.0513916,0,0,0,0,0,0,0,-1,1875,617,7.3752,-0.0513923
658,407,3.76685,0.594177,0,0,0,0,0,0,0,-1,1882,617,3.76683,-0.594184
665,407,5.76123,0.375061,0,0,0,0,0,0,0,-1,1889,617,5.76118,-0.37509
672,407,0,0,0,0,0,0,0,0,0,-1,1896,617,0,0
679,407,0,0,0,0,0,0,0,0,0,-1,1903,617,0,0
686,407,0,0,0,0,0,0,0,0,0,-1,1910,617,0,0
693,407,0,0,0,0,0,0,0,0,0,-1,1917,617,0,0
700,407,0,0,0,0,0,0,0,0,0,-1,1924,617,0,0
707,407,0,0,0,0,0,0,0,0,0,-1,1931,617,0,0
714,407,0,0,0,0,0,0,0,0,0,-1,1938,617,0,0
721,407,0,0,0,0,0,0,0,0,0,-1,1945,617,0,0
728,407,0,0,0,0,0,0,0,0,0,-1,1952,617,0,0
735,407,0,0,0,0,0,0,0,0,0,-1,1959,617,0,0
742,407,0,0,0,0,0,0,0,0,0,-1,1966,617,0,0
749,407,0,0,0,0,0,0,0,0,0,-1,1973,617,0,0
756,407,0,0,0,0,0,0,0,0,0,-1,1980,617,0,0
763,407,0,0,0,0,0,0,0,0,0,-1,1987,617,0,0
770,407,0,0,0,0,0,0,0,0,0,-1,1994,617,0,0
777,407,0,0,0,0,0,0,0,0,0,-1,2001,617,0,0
784,407,0,0,0,0,0,0,0,0,0,-1,2008,617,0,0
791,407,0,0,0,0,0,0,0,0,0,-1,2015,617,0,0
798,407,0,0,0,0,0,0,0,0,0,-1,2022,617,0,0
805,407,0,0,0,0,0,0,0,0,0,-1,2029,617,0,0
812,407,0,0,0,0,0,0,0,0,0,-1,2036,617,0,0
-700,400,0,0,0,0,0,0,0,0,0,-1,524,624,0,0
-693,400,0,0,0,0,0,0,0,0,0,-1,531,624,0,0
-686,400,0,0,0,0,0,0,0,0,0,-1,538,624,0,0
-679,400,0,0,0,0,0,0,0,0,0,-1,545,624,0,0
-672,400,0,0,0,0,0,0,0,0,0,-1,552,624,0,0
-665,400,0,0,0,0,0,0,0,0,0,-1,559,624,0,0
-658,400,0,0,0,0,0,0,0,0,0,-1,566,624,0,0
-651,400,0,0,0,0,0,0,0,0,0,-1,573,624,0,0
-644,400,0,0,0,0,0,0,0,0,0,-1,580,624,0,0
-637,400,0,0,0,0,0,0,0,0,0,-1,587,624,0,0
-630,400,0,0,0,0,0,0,0,0,0,-1,594,624,0,0
-623,400,0,0,0,0,0,0,0,0,0,-1,601,624,0,0
-616,400,0,0,0,0,0,0,0,0,0,-1,608,624,0,0
-609,400,0,0,0,0,0,0,0,0,0,-1,615,624,0,0
-602,400,0,0,0,0,0,0,0,0,0,-1,622,624,0,0
-595,400,0,0,0,0,0,0,0,0,0,-1,629,624,0,0
-588,400,0,0,0,0,0,0,0,0,0,-1,636,624,0,0
-581,400,0,0,0,0,0,0,0,0,0,-1,643,624,0,0
-574,400,0,0,0,0,0,0,0,0,0,-1,650,624,0,0
-567,400,0,0,0,0,0,0,0,0,0,-1,657,624,0,0
-560,400,0,0,0,0,0,0,0,0,0,-1,664,624,0,0
-553,400,0,0,0,0,0,0,0,0,0,-1,671,624,0,0
-546,400,-8.41174,-1.4599,0,0,0,0,0,0,0,-1,678,624,-8.41173,1.45989
-539,400,-5.69104,-1.7337,0,0,0,0,0,0,0,-1,685,624,-5.69103,1.7337
-532,400,-3.03632,-2.03912,0,0,0,0,0,0,0,-1,692,624,-3.03632,2.03909
-525,400,-0.330627,-2.44366,0,0,0,0,0,0,0,-1,699,624,-0.330601,2.44365
-518,400,-2.77826,-0.674927,0,0,0,0,0,0,0,-1,706,624,-2.77825,0.674942
-511,400,-2.94586,-3.29926,0,0,0,0,0,0,0,-1,713,624,-2.94587,3.29923
-504,400,-3.16327,-2.57635,0,0,0,0,0,0,0,-1,720,624,-3.16328,2.57638
-497,400,-3.59021,-1.88184,-0.00149047,-0.00166832,0.000248292,-0.00131566,-0.00184313,0.61344,0.00109609,0.0337814,727,624,-3.59018,1.88186
-490,400,-3.66162,-1.93793,-0.000650066,-0.00151291,0.000319627,-0.000544565,-0.00161841,0.318815,0.000950903,0.0163511,734,624,-3.66164,1.93791
-483,400,-3.68054,-2.19226,-4.14524e-05,-0.00135579,0.000140582,-2.65838e-05,-0.00137066,0.105372,0.000905044,0.0138248,741,624,-3.68055,2.19229
-476,400,-3.67517,-2.42456,0.000505374,-0.000949787,-6.43627e-05,0.000508215,-0.000952628,-0.0441158,0.000856329,0.0123964,748,624,-3.67517,2.42458
-469,400,-3.67566,-2.66589,0.000875849,-0.000576084,-0.000137101,0.000888682,-0.000588916,-0.0933275,0.000858924,0.0137458,755,624,-3.67564,2.66588
-462,400,-3.66711,-2.91321,0.000818265,-0.000432013,-0.000147989,0.000835543,-0.000449291,-0.116225,0.00075289,0.0194466,762,624,-3.66711,2.91323
-455,400,-3.67383,-3.16614,0.000527066,-0.000707054,2.24129e-05,0.000527473,-0.000707461,0.0181531,0.000715509,0.0201241,769,624,-3.67381,3.16611
-448,400,-3.6781,-3.40576,-3.83989e-05,-0.000937195,0.000542351,0.000216549,-0.00119214,0.439426,0.000875913,0.0149007,776,624,-3.67813,3.40579
-441,400,-3.68011,-3.62482,-0.000859789,-0.00138382,0.00120906,0.000115322,-0.00235893,0.678693,0.00161244,0.013897,783,624,-3.68013,3.62484
-434,400,-3.68951,-3.85217,-0.00200117,-0.00230971,0.00216902,1.90597e-05,-0.00432994,0.749895,0.002893,0.0110441,790,624,-3.68952,3.85217
-427,400,-3.68695,-4.08771,-0.00335551,-0.00316532,0.00355253,0.000293392,-0.00681422,0.798779,0.0046437,0.00992972,797,624,-3.68698,4.0877
-420,400,-3.63806,-4.35229,-0.00485582,-0.00433053,0.00500001,0.000413722,-0.00960008,0.811639,0.00654232,0.0123315,804,624,-3.63806,4.35232
-413,400,-3.66608,-4.56,-0.00666973,-0.00572227,0.00681367,0.000634122,-0.0130261,0.820105,0.00890298,0.025758,811,624,-3.66609,4.56
-406,400,-3.98566,-4.69989,-0.00893532,-0.0074566,0.0090567,0.000890868,-0.0172828,0.826126,0.01183,0.0356241,818,624,-3.98567,4.69989
-399,400,-4.07281,-5.01556,-0.0114888,-0.00940888,0.0116377,0.00123524,-0.0221329,0.829961,0.0151838,0.0487578,825,624,-4.07283,5.01559
-392,400,-4.12256,-5.38525,0,0,0,0,0,0,0,-1,832,624,-4.12258,5.38525
-385,400,-3.68738,-5.04205,0,0,0,0,0,0,0,-1,839,624,-3.68736,5.04207
-378,400,-6.84064,-1.28662,0,0,0,0,0,0,0,-1,846,624,-6.84062,1.28662
-371,400,-6.98865,-1.2572,0,0,0,0,0,0,0,-1,853,624,-6.98865,1.25721
-364,400,-6.97247,-1.24133,0,0,0,0,0,0,0,-1,860,624,-6.97249,1.24135
-357,400,-7.18329,-1.23218,0,0,0,0,0,0,0,-1,867,624,-7.18327,1.2322
-350,400,-7.40186,-1.19409,0,0,0,0,0,0,0,-1,874,624,-7.40187,1.19407
-343,400,-8.09357,-1.51147,0,0,0,0,0,0,0,-1,881,624,-8.09355,1.51148
-336,400,0,0,0,0,0,0,0,0,0,-1,888,624,0,0
-329,400,0,0,0,0,0,0,0,0,0,-1,895,624,0,0
-322,400,0,0,0,0,0,0,0,0,0,-1,902,624,0,0
-315,400,0,0,0,0,0,0,0,0,0,-1,909,624,0,0
-308,400,0,0,0,0,0,0,0,0,0,-1,916,624,0,0
-301,400,0,0,0,0,0,0,0,0,0,-1,923,624,0,0
-294,400,0,0,0,0,0,0,0,0,0,-1,930,624,0,0
-287,400,0,0,0,0,0,0,0,0,0,-1,937,624,0,0
-280,400,0,0,0,0,0,0,0,0,0,-1,944,624,0,0
-273,400,0,0,0,0,0,0,0,0,0,-1,951,624,0,0
-266,400,0,0,0,0,0,0,0,0,0,-1,958,624,0,0
-259,400,0,0,0,0,0,0,0,0,0,-1,965,624,0,0
-252,400,0,0,0,0,0,0,0,0,0,-1,972,624,0,0
-245,400,0,0,0,0,0,0,0,0,0,-1,979,624,0,0
-238,400,0,0,0,0,0,0,0,0,0,-1,986,624,0,0
-231,400,0,0,0,0,0,0,0,0,0,-1,993,624,0,0
-224,400,0,0,0,0,0,0,0,0,0,-1,1000,624,0,0
-217,400,0,0,0,0,0,0,0,0,0,-1,1007,624,0,0
-210,400,0,0,0,0,0,0,0,0,0,-1,1014,624,0,0
-203,400,0,0,0,0,0,0,0,0,0,-1,1021,624,0,0
-196,400,0,0,0,0,0,0,0,0,0,-1,1028,624,0,0
-189,400,0,0,0,0,0,0,0,0,0,-1,1035,624,0,0
-182,400,0,0,0,0,0,0,0,0,0,-1,1042,624,0,0
-175,400,0,0,0,0,0,0,0,0,0,-1,1049,624,0,0
-168,400,0,0,0,0,0,0,0,0,0,-1,1056,624,0,0
-161,400,0,0,0,0,0,0,0,0,0,-1,1063,624,0,0
-154,400,0,0,0,0,0,0,0,0,0,-1,1070,624,0,0
-147,400,0,0,0,0,0,0,0,0,0,-1,1077,624,0,0
-140,400,0,0,0,0,0,0,0,0,0,-1,1084,624,0,0
-133,400,0,0,0,0,0,0,0,0,0,-1,1091,624,0,0
-126,400,0,0,0,0,0,0,0,0,0,-1,1098,624,0,0
-119,400,0,0,0,0,0,0,0,0,0,-1,1105,624,0,0
-112,400,0,0,0,0,0,0,0,0,0,-1,1112,624,0,0
-105,400,0,0,0,0,0,0,0,0,0,-1,1119,624,0,0
-98,400,0,0,0,0,0,0,0,0,0,-1,1126,624,0,0
-91,400,0,0,0,0,0,0,0,0,0,-1,1133,624,0,0
-84,400,0,0,0,0,0,0,0,0,0,-1,1140,624,0,0
-77,400,0,0,0,0,0,0,0,0,0,-1,1147,624,0,0
-70,400,0,0,0,0,0,0,0,0,0,-1,1154,624,0,0
-63,400,0,0,0,0,0,0,0,0,0,-1,1161,624,0,0
-56,400,0,0,0,0,0,0,0,0,0,-1,1168,624,0,0
-49,400,0,0,0,0,0,0,0,0,0,-1,1175,624,0,0
-42,400,0,0,0,0,0,0,0,0,0,-1,1182,624,0,0
-35,400,0,0,0,0,0,0,0,0,0,-1,1189,624,0,0
-28,400,0,0,0,0,0,0,0,0,0,-1,1196,624,0,0
-21,400,0,0,0,0,0,0,0,0,0,-1,1203,624,0,0
-14,400,0,0,0,0,0,0,0,0,0,-1,1210,624,0,0
-7,400,0,0,0,0,0,0,0,0,0,-1,1217,624,0,0
0,400,0,0,0,0,0,0,0,0,0,-1,1224,624,0,0
7,400,0,0,0,0,0,0,0,0,0,-1,1231,624,0,0
14,400,0,0,0,0,0,0,0,0,0,-1,1238,624,0,0
21,400,0,0,0,0,0,0,0,0,0,-1,1245,624,0,0
28,400,0,0,0,0,0,0,0,0,0,-1,1252,624,0,0
35,400,0,0,0,0,0,0,0,0,0,-1,1259,624,0,0
42,400,0,0,0,0,0,0,0,0,0,-1,1266,624,0,0
49,400,0,0,0,0,0,0,0,0,0,-1,1273,624,0,0
56,400,0,0,0,0,0,0,0,0,0,-1,1280,624,0,0
63,400,0,0,0,0,0,0,0,0,0,-1,1287,624,0,0
70,400,0,0,0,0,0,0,0,0,0,-1,1294,624,0,0
77,400,0,0,0,0,0,0,0,0,0,-1,1301,624,0,0
84,400,0,0,0,0,0,0,0,0,0,-1,1308,624,0,0
91,400,0,0,0,0,0,0,0,0,0,-1,1315,624,0,0
98,400,0,0,0,0,0,0,0,0,0,-1,1322,624,0,0
105,400,0,0,0,0,0,0,0,0,0,-1,1329,624,0,0
112,400,0,0,0,0,0,0,0,0,0,-1,1336,624,0,0
119,400,0,0,0,0,0,0,0,0,0,-1,1343,624,0,0
126,400,0,0,0,0,0,0,0,0,0,-1,1350,624,0,0
133,400,0,0,0,0,0,0,0,0,0,-1,1357,624,0,0
140,400,0,0,0,0,0,0,0,0,0,-1,1364,624,0,0
147,400,0,0,0,0,0,0,0,0,0,-1,1371,624,0,0
154,400,0,0,0,0,0,0,0,0,0,-1,1378,624,0,0
161,400,0,0,0,0,0,0,0,0,0,-1,1385,624,0,0
168,400,0,0,0,0,0,0,0,0,0,-1,1392,624,0,0
175,400,0,0,0,0,0,0,0,0,0,-1,1399,624,0,0
182,400,0,0,0,0,0,0,0,0,0,-1,1406,624,0,0
189,400,0,0,0,0,0,0,0,0,0,-1,1413,624,0,0
196,400,0,0,0,0,0,0,0,0,0,-1,1420,624,0,0
203,400,0,0,0,0,0,0,0,0,0,-1,1427,624,0,0
210,400,0,0,0,0,0,0,0,0,0,-1,1434,624,0,0
217,400,0,0,0,0,0,0,0,0,0,-1,1441,624,0,0
224,400,0,0,0,0,0,0,0,0,0,-1,1448,624,0,0
231,400,0,0,0,0,0,0,0,0,0,-1,1455,624,0,0
238,400,0,0,0,0,0,0,0,0,0,-1,1462,624,0,0
245,400,0,0,0,0,0,0,0,0,0,-1,1469,624,0,0
252,400,0,0,0,0,0,0,0,0,0,-1,1476,624,0,0
259,400,0,0,0,0,0,0,0,0,0,-1,1483,624,0,0
266,400,0,0,0,0,0,0,0,0,0,-1,1490,624,0,0
273,400,0,0,0,0,0,0,0,0,0,-1,1497,624,0,0
280,400,0,0,0,0,0,0,0,0,0,-1,1504,624,0,0
287,400,0,0,0,0,0,0,0,0,0,-1,1511,624,0,0
294,400,0,0,0,0,0,0,0,0,0,-1,1518,624,0,0
301,400,0,0,0,0,0,0,0,0,0,-1,1525,624,0,0
308,400,0,0,0,0,0,0,0,0,0,-1,1532,624,0,0
315,400,0,0,0,0,0,0,0,0,0,-1,1539,624,0,0
322,400,0,0,0,0,0,0,0,0,0,-1,1546,624,0,0
329,400,0,0,0,0,0,0,0,0,0,-1,1553,624,0,0
336,400,0,0,0,0,0,0,0,0,0,-1,1560,624,0,0
343,400,0,0,0,0,0,0,0,0,0,-1,1567,624,0,0
350,400,0,0,0,0,0,0,0,0,0,-1,1574,624,0,0
357,400,0,0,0,0,0,0,0,0,0,-1,1581,624,0,0
364,400,0,0,0,0,0,0,0,0,0,-1,1588,624,0,0
371,400,0,0,0,0,0,0,0,0,0,-1,1595,624,0,0
378,400,0,0,0,0,0,0,0,0,0,-1,1602,624,0,0
385,400,0,0,0,0,0,0,0,0,0,-1,1609,624,0,0
392,400,0,0,0,0,0,0,0,0,0,-1,1616,624,0,0
399,400,0,0,0,0,0,0,0,0,0,-1,1623,624,0,0
406,400,0,0,0,0,0,0,0,0,0,-1,1630,624,0,0
413,400,0,0,0,0,0,0,0,0,0,-1,1637,624,0,0
420,400,0,0,0,0,0,0,0,0,0,-1,1644,624,0,0
427,400,0,0,0,0,0,0,0,0,0,-1,1651,624,0,0
434,400,0,0,0,0,0,0,0,0,0,-1,1658,624,0,0
441,400,0,0,0,0,0,0,0,0,0,-1,1665,624,0,0
448,400,0,0,0,0,0,0,0,0,0,-1,1672,624,0,0
455,400,8.91309,2.75885,0,0,0,0,0,0,0,-1,1679,624,8.91312,-2.75885
462,400,8.90356,2.37878,0,0,0,0,0,0,0,-1,1686,624,8.90353,-2.37878
469,400,9.14429,1.76849,0,0,0,0,0,0,0,-1,1693,624,9.14432,-1.76847
476,400,9.23254,1.25995,0,0,0,0,0,0,0,-1,1700,624,9.23252,-1.25994
483,400,9.59766,0.562439,0,0,0,0,0,0,0,-1,1707,624,9.59771,-0.56242
490,400,9.92578,-0.213745,0,0,0,0,0,0,0,-1,1714,624,9.92579,0.21376
497,400,9.19141,0.175232,0,0,0,0,0,0,0,-1,1721,624,9.19138,-0.175209
504,400,9.23438,0.00823975,0,0,0,0,0,0,0,-1,1728,624,9.23436,-0.00823766
511,400,6.16687,3.3501,0,0,0,0,0,0,0,-1,1735,624,6.16682,-3.35007
518,400,6.55237,1.74994,0,0,0,0,0,0,0,-1,1742,624,6.55236,-1.74993
525,400,6.99731,1.08783,0,0,0,0,0,0,0,-1,1749,624,6.99736,-1.08785
532,400,6.96582,-1.74982,0,0,0,0,0,0,0,-1,1756,624,6.96585,1.74983
539,400,9.70239,-3.04993,0,0,0,0,0,0,0,-1,1763,624,9.70234,3.04991
546,400,9.66553,-2.82196,-0.00166314,0.00240792,0.000658405,0.00251176,-0.00176698,1.41438,0.00248277,0.0247305,1770,624,9.6655,2.82193
553,400,9.57703,-2.51141,-0.00164468,0.00170448,0.000214154,0.00171812,-0.00165832,1.5072,0.00194949,0.0146882,1777,624,9.57697,2.51141
560,400,9.60168,-2.20654,-0.0016247,0.00117921,-9.62756e-05,0.00118251,-0.001628,-1.53651,0.00162943,0.0123737,1784,624,9.60173,2.20656
567,400,9.62769,-1.98285,-0.00157958,0.000829731,-0.00026466,0.00085846,-0.00160831,-1.46267,0.00144596,0.0162764,1791,624,9.62763,1.98285
574,400,9.61377,-1.76849,-0.00128355,0.000701787,-0.000220174,0.000725911,-0.00130767,-1.46166,0.00119,0.0188457,1798,624,9.6138,1.76848
581,400,9.57849,-1.46783,-0.000854681,0.000770957,-2.73911e-05,0.000771419,-0.000855142,-1.55395,0.00093951,0.018883,1805,624,9.5785,1.46783
588,400,9.58044,-1.1911,-0.000361241,0.00100313,0.000315581,0.00107259,-0.000430699,1.35415,0.000893909,0.0148673,1812,624,9.5805,1.19111
595,400,9.60303,-0.958435,0.000336697,0.00145527,0.000819799,0.00188839,-9.64234e-05,1.08475,0.00129227,0.0132084,1819,624,9.60302,0.958436
602,400,9.60425,-0.700989,0.00108845,0.00219463,0.00147576,0.00321754,6.55445e-05,0.964689,0.00212352,0.0125016,1826,624,9.60431,0.700963
609,400,9.55737,-0.416443,0.00161534,0.00287801,0.00211774,0.00445652,3.68387e-05,0.930263,0.00295881,0.0135203,1833,624,9.55739,0.416422
616,400,9.58069,-0.122803,0.00206354,0.00408207,0.00293809,0.00617941,-3.37956e-05,0.950839,0.00413092,0.0160942,1840,624,9.58074,0.122789
623,400,9.79968,0.252136,0.00261879,0.00537771,0.0037675,0.00801035,-1.38497e-05,0.960892,0.00534486,0.0393398,1847,624,9.79964,-0.25211
630,400,10.0815,0.569153,0,0,0,0,0,0,0,-1,1854,624,10.0815,-0.569143
637,400,6.92896,1.01917,0,0,0,0,0,0,0,-1,1861,624,6.92899,-1.01918
644,400,8.65381,1.4599,0,0,0,0,0,0,0,-1,1868,624,8.65379,-1.45991
651,400,7.90601,0.424072,0,0,0,0,0,0,0,-1,1875,624,7.90598,-0.424097
658,400,8.69031,1.0484,0,0,0,0,0,0,0,-1,1882,624,8.6903,-1.0484
665,400,5.98438,0.522522,0,0,0,0,0,0,0,-1,1889,624,5.98442,-0.522552
672,400,0,0,0,0,0,0,0,0,0,-1,1896,624,0,0
679,400,0,0,0,0,0,0,0,0,0,-1,1903,624,0,0
686,400,0,0,0,0,0,0,0,0,0,-1,1910,624,0,0
693,400,0,0,0,0,0,0,0,0,0,-1,1917,624,0,0
700,400,0,0,0,0,0,0,0,0,0,-1,1924,624,0,0
707,400,0,0,0,0,0,0,0,0,0,-1,1931,624,0,0
714,400,0,0,0,0,0,0,0,0,0,-1,1938,624,0,0
721,400,0,0,0,0,0,0,0,0,0,-1,1945,624,0,0
728,400,0,0,0,0,0,0,0,0,0,-1,1952,624,0,0
735,400,0,0,0,0,0,0,0,0,0,-1,1959,624,0,0
742,400,0,0,0,0,0,0,0,0,0,-1,1966,624,0,0
749,400,0,0,0,0,0,0,0,0,0,-1,1973,624,0,0
756,400,0,0,0,0,0,0,0,0,0,-1,1980,624,0,0
763,400,0,0,0,0,0,0,0,0,0,-1,1987,624,0,0
770,400,0,0,0,0,0,0,0,0,0,-1,1994,624,0,0
777,400,0,0,0,0,0,0,0,0,0,-1,2001,624,0,0
784,400,0,0,0,0,0,0,0,0,0,-1,2008,624,0,0
791,400,0,0,0,0,0,0,0,0,0,-1,2015,624,0,0
798,400,0,0,0,0,0,0,0,0,0,-1,2022,624,0,0
805,400,0,0,0,0,0,0,0,0,0,-1,2029,624,0,0
812,400,0,0,0,0,0,0,0,0,0,-1,2036,624,0,0
-700,393,0,0,0,0,0,0,0,0,0,-1,524,631,0,0
-693,393,0,0,0,0,0,0,0,0,0,-1,531,631,0,0
-686,393,0,0,0,0,0,0,0,0,0,-1,538,631,0,0
-679,393,0,0,0,0,0,0,0,0,0,-1,545,631,0,0
-672,393,0,0,0,0,0,0,0,0,0,-1,552,631,0,0
-665,393,0,0,0,0,0,0,0,0,0,-1,559,631,0,0
-658,393,0,0,0,0,0,0,0,0,0,-1,566,631,0,0
-651,393,0,0,0,0,0,0,0,0,0,-1,573,631,0,0
-644,393,0,0,0,0,0,0,0,0,0,-1,580,631,0,0
-637,393,0,0,0,0,0,0,0,0,0,-1,587,631,0,0
-630,393,0,0,0,0,0,0,0,0,0,-1,594,631,0,0
-623,393,0,0,0,0,0,0,0,0,0,-1,601,631,0,0
-616,393,0,0,0,0,0,0,0,0,0,-1,608,631,0,0
-609,393,0,0,0,0,0,0,0,0,0,-1,615,631,0,0
-602,393,0,0,0,0,0,0,0,0,0,-1,622,631,0,0
-595,393,0,0,0,0,0,0,0,0,0,-1,629,631,0,0
-588,393,0,0,0,0,0,0,0,0,0,-1,636,631,0,0
-581,393,0,0,0,0,0,0,0,0,0,-1,643,631,0,0
-574,393,0,0,0,0,0,0,0,0,0,-1,650,631,0,0
-567,393,0,0,0,0,0,0,0,0,0,-1,657,631,0,0
-560,393,0,0,0,0,0,0,0,0,0,-1,664,631,0,0
-553,393,-2.35107,3.92633,0,0,0,0,0,0,0,-1,671,631,-2.35108,-3.92634
-546,393,-1.78778,2.4856,0,0,0,0,0,0,0,-1,678,631,-1.78778,-2.48557
-539,393,-5.2113,-2.20245,0,0,0,0,0,0,0,-1,685,631,-5.21128,2.20247
-532,393,-2.83643,-2.01624,0,0,0,0,0,0,0,-1,692,631,-2.83642,2.01626
-525,393,-4.12323,0.471191,0,0,0,0,0,0,0,-1,699,631,-4.12323,-0.47119
-518,393,-3.78778,-0.330444,0,0,0,0,0,0,0,-1,706,631,-3.78778,0.330463
-511,393,-3.33521,-1.00183,0,0,0,0,0,0,0,-1,713,631,-3.33519,1.00183
-504,393,-3.55334,-2.10138,0,0,0,0,0,0,0,-1,720,631,-3.55333,2.1014
-497,393,-3.90192,-1.62329,-0.00181239,-0.000900273,-8.8716e-05,-0.000891724,-0.00182094,-1.47473,0.00105139,0.0245784,727,631,-3.9019,1.62329
-490,393,-3.91266,-1.94379,-0.00103748,-0.00100812,0.000213401,-0.000808891,-0.0012367,0.819741,0.000725221,0.0145022,734,631,-3.91269,1.94379
-483,393,-3.9118,-2.20288,-0.000467712,-0.00103652,0.000141024,-0.000434668,-0.00106957,0.230163,0.000621112,0.0187101,741,631,-3.91179,2.20291
-476,393,-3.90424,-2.41266,0.000108142,-0.000746196,-3.30955e-05,0.000109422,-0.000747476,-0.038661,0.00053851,0.0156201,748,631,-3.90421,2.41266
-469,393,-3.90295,-2.65137,0.00050974,-0.000511883,-6.92321e-05,0.00051441,-0.000516554,-0.0673563,0.000595228,0.0130192,755,631,-3.90296,2.65139
-462,393,-3.90106,-2.92505,0.000475535,-0.000444808,-5.54185e-05,0.00047886,-0.000448133,-0.0599264,0.000535298,0.01554,762,631,-3.90105,2.92502
-455,393,-3.91711,-3.18103,0.000207981,-0.000752973,0.000138531,0.000227553,-0.000772545,0.140353,0.00060531,0.0142611,769,631,-3.91711,3.18101
-448,393,-3.92023,-3.41132,-0.000360889,-0.00102152,0.000708625,9.06254e-05,-0.00147304,0.567302,0.00101358,0.0138467,776,631,-3.92024,3.4113
-441,393,-3.93243,-3.62933,-0.00124906,-0.00167268,0.00151399,6.78615e-05,-0.0029896,0.715899,0.00201607,0.0123027,783,631,-3.93245,3.62935
-434,393,-3.93542,-3.84259,-0.00251061,-0.00270657,0.00262922,2.24595e-05,-0.00523964,0.766774,0.0035006,0.0113221,790,631,-3.93543,3.8426
-427,393,-3.88959,-4.11737,-0.00407318,-0.00372549,0.00420721,0.000311468,-0.00811013,0.806047,0.00551351,0.0163229,797,631,-3.88956,4.11737
-420,393,-3.88745,-4.35596,-0.00584168,-0.00512382,0.00592706,0.000455165,-0.0114207,0.81564,0.00776994,0.0305344,804,631,-3.88745,4.35597
-413,393,-4.21466,-4.40619,-0.00813809,-0.00683366,0.00820241,0.000742423,-0.0157142,0.825072,0.0107322,0.043041,811,631,-4.21468,4.40616
-406,393,-4.49072,-4.79517,0,0,0,0,0,0,0,-1,818,631,-4.49073,4.79515
-399,393,-4.58643,-4.98413,0,0,0,0,0,0,0,-1,825,631,-4.58642,4.98412
-392,393,-2.08063,-3.02386,0,0,0,0,0,0,0,-1,832,631,-2.08063,3.02384
-385,393,-3.16931,-0.624756,0,0,0,0,0,0,0,-1,839,631,-3.16928,0.624764
-378,393,-7.33081,-0.872314,0,0,0,0,0,0,0,-1,846,631,-7.33081,0.872325
-371,393,-7.47858,-0.811096,0,0,0,0,0,0,0,-1,853,631,-7.47859,0.811075
-364,393,-7.64917,-0.662415,0,0,0,0,0,0,0,-1,860,631,-7.64917,0.662406
-357,393,-8.09686,-0.726013,0,0,0,0,0,0,0,-1,867,631,-8.09689,0.726029
-350,393,-8.38788,-0.511841,0,0,0,0,0,0,0,-1,874,631,-8.38785,0.511811
-343,393,0,0,0,0,0,0,0,0,0,-1,881,631,0,0
-336,393,0,0,0,0,0,0,0,0,0,-1,888,631,0,0
-329,393,0,0,0,0,0,0,0,0,0,-1,895,631,0,0
-322,393,0,0,0,0,0,0,0,0,0,-1,902,631,0,0
-315,393,0,0,0,0,0,0,0,0,0,-1,909,631,0,0
-308,393,0,0,0,0,0,0,0,0,0,-1,916,631,0,0
-301,393,0,0,0,0,0,0,0,0,0,-1,923,631,0,0
-294,393,0,0,0,0,0,0,0,0,0,-1,930,631,0,0
-287,393,0,0,0,0,0,0,0,0,0,-1,937,631,0,0
-280,393,0,0,0,0,0,0,0,0,0,-1,944,631,0,0
-273,393,0,0,0,0,0,0,0,0,0,-1,951,631,0,0
-266,393,0,0,0,0,0,0,0,0,0,-1,958,631,0,0
-259,393,0,0,0,0,0,0,0,0,0,-1,965,631,0,0
-252,393,0,0,0,0,0,0,0,0,0,-1,972,631,0,0
-245,393,0,0,0,0,0,0,0,0,0,-1,979,631,0,0
-238,393,0,0,0,0,0,0,0,0,0,-1,986,631,0,0
-231,393,0,0,0,0,0,0,0,0,0,-1,993,631,0,0
-224,393,0,0,0,0,0,0,0,0,0,-1,1000,631,0,0
-217,393,0,0,0,0,0,0,0,0,0,-1,1007,631,0,0
-210,393,0,0,0,0,0,0,0,0,0,-1,1014,631,0,0
-203,393,0,0,0,0,0,0,0,0,0,-1,1021,631,0,0
-196,393,0,0,0,0,0,0,0,0,0,-1,1028,631,0,0
-189,393,0,0,0,0,0,0,0,0,0,-1,1035,631,0,0
-182,393,0,0,0,0,0,0,0,0,0,-1,1042,631,0,0
-175,393,0,0,0,0,0,0,0,0,0,-1,1049,631,0,0
-168,393,0,0,0,0,0,0,0,0,0,-1,1056,631,0,0
-161,393,0,0,0,0,0,0,0,0,0,-1,1063,631,0,0
-154,393,0,0,0,0,0,0,0,0,0,-1,1070,631,0,0
-147,393,0,0,0,0,0,0,0,0,0,-1,1077,631,0,0
-140,393,0,0,0,0,0,0,0,0,0,-1,1084,631,0,0
-133,393,0,0,0,0,0,0,0,0,0,-1,1091,631,0,0
-126,393,0,0,0,0,0,0,0,0,0,-1,1098,631,0,0
-119,393,0,0,0,0,0,0,0,0,0,-1,1105,631,0,0
-112,393,0,0,0,0,0,0,0,0,0,-1,1112,631,0,0
-105,393,0,0,0,0,0,0,0,0,0,-1,1119,631,0,0
-98,393,0,0,0,0,0,0,0,0,0,-1,1126,631,0,0
-91,393,0,0,0,0,0,0,0,0,0,-1,1133,631,0,0
-84,393,0,0,0,0,0,0,0,0,0,-1,1140,631,0,0
-77,393,0,0,0,0,0,0,0,0,0,-1,1147,631,0,0
-70,393,0,0,0,0,0,0,0,0,0,-1,1154,631,0,0
-63,393,0,0,0,0,0,0,0,0,0,-1,1161,631,0,0
-56,393,0,0,0,0,0,0,0,0,0,-1,1168,631,0,0
-49,393,0,0,0,0,0,0,0,0,0,-1,1175,631,0,0
-42,393,0,0,0,0,0,0,0,0,0,-1,1182,631,0,0
-35,393,0,0,0,0,0,0,0,0,0,-1,1189,631,0,0
-28,393,0,0,0,0,0,0,0,0,0,-1,1196,631,0,0
-21,393,0,0,0,0,0,0,0,0,0,-1,1203,631,0,0
-14,393,0,0,0,0,0,0,0,0,0,-1,1210,631,0,0
-7,393,0,0,0,0,0,0,0,0,0,-1,1217,631,0,0
0,393,0,0,0,0,0,0,0,0,0,-1,1224,631,0,0
7,393,0,0,0,0,0,0,0,0,0,-1,1231,631,0,0
14,393,0,0,0,0,0,0,0,0,0,-1,1238,631,0,0
21,393,0,0,0,0,0,0,0,0,0,-1,1245,631,0,0
28,393,0,0,0,0,0,0,0,0,0,-1,1252,631,0,0
35,393,0,0,0,0,0,0,0,0,0,-1,1259,631,0,0
42,393,0,0,0,0,0,0,0,0,0,-1,1266,631,0,0
49,393,0,0,0,0,0,0,0,0,0,-1,1273,631,0,0
56,393,0,0,0,0,0,0,0,0,0,-1,1280,631,0,0
63,393,0,0,0,0,0,0,0,0,0,-1,1287,631,0,0
70,393,0,0,0,0,0,0,0,0,0,-1,1294,631,0,0
77,393,0,0,0,0,0,0,0,0,0,-1,1301,631,0,0
84,393,0,0,0,0,0,0,0,0,0,-1,1308,631,0,0
91,393,0,0,0,0,0,0,0,0,0,-1,1315,631,0,0
98,393,0,0,0,0,0,0,0,0,0,-1,1322,631,0,0
105,393,0,0,0,0,0,0,0,0,0,-1,1329,631,0,0
112,393,0,0,0,0,0,0,0,0,0,-1,1336,631,0,0
119,393,0,0,0,0,0,0,0,0,0,-1,1343,631,0,0
126,393,0,0,0,0,0,0,0,0,0,-1,1350,631,0,0
133,393,0,0,0,0,0,0,0,0,0,-1,1357,631,0,0
140,393,0,0,0,0,0,0,0,0,0,-1,1364,631,0,0
147,393,0,0,0,0,0,0,0,0,0,-1,1371,631,0,0
154,393,0,0,0,0,0,0,0,0,0,-1,1378,631,0,0
161,393,0,0,0,0,0,0,0,0,0,-1,1385,631,0,0
168,393,0,0,0,0,0,0,0,0,0,-1,1392,631,0,0
175,393,0,0,0,0,0,0,0,0,0,-1,1399,631,0,0
182,393,0,0,0,0,0,0,0,0,0,-1,1406,631,0,0
189,393,0,0,0,0,0,0,0,0,0,-1,1413,631,0,0
196,393,0,0,0,0,0,0,0,0,0,-1,1420,631,0,0
203,393,0,0,0,0,0,0,0,0,0,-1,1427,631,0,0
210,393,0,0,0,0,0,0,0,0,0,-1,1434,631,0,0
217,393,0,0,0,0,0,0,0,0,0,-1,1441,631,0,0
224,393,0,0,0,0,0,0,0,0,0,-1,1448,631,0,0
231,393,0,0,0,0,0,0,0,0,0,-1,1455,631,0,0
238,393,0,0,0,0,0,0,0,0,0,-1,1462,631,0,0
245,393,0,0,0,0,0,0,0,0,0,-1,1469,631,0,0
252,393,0,0,0,0,0,0,0,0,0,-1,1476,631,0,0
259,393,0,0,0,0,0,0,0,0,0,-1,1483,631,0,0
266,393,0,0,0,0,0,0,0,0,0,-1,1490,631,0,0
273,393,0,0,0,0,0,0,0,0,0,-1,1497,631,0,0
280,393,0,0,0,0,0,0,0,0,0,-1,1504,631,0,0
287,393,0,0,0,0,0,0,0,0,0,-1,1511,631,0,0
294,393,0,0,0,0,0,0,0,0,0,-1,1518,631,0,0
301,393,0,0,0,0,0,0,0,0,0,-1,1525,631,0,0
308,393,0,0,0,0,0,0,0,0,0,-1,1532,631,0,0
315,393,0,0,0,0,0,0,0,0,0,-1,1539,631,0,0
322,393,0,0,0,0,0,0,0,0,0,-1,1546,631,0,0
329,393,0,0,0,0,0,0,0,0,0,-1,1553,631,0,0
336,393,0,0,0,0,0,0,0,0,0,-1,1560,631,0,0
343,393,0,0,0,0,0,0,0,0,0,-1,1567,631,0,0
350,393,0,0,0,0,0,0,0,0,0,-1,1574,631,0,0
357,393,0,0,0,0,0,0,0,0,0,-1,1581,631,0,0
364,393,0,0,0,0,0,0,0,0,0,-1,1588,631,0,0
371,393,0,0,0,0,0,0,0,0,0,-1,1595,631,0,0
378,393,0,0,0,0,0,0,0,0,0,-1,1602,631,0,0
385,393,0,0,0,0,0,0,0,0,0,-1,1609,631,0,0
392,393,0,0,0,0,0,0,0,0,0,-1,1616,631,0,0
399,393,0,0,0,0,0,0,0,0,0,-1,1623,631,0,0
406,393,0,0,0,0,0,0,0,0,0,-1,1630,631,0,0
413,393,0,0,0,0,0,0,0,0,0,-1,1637,631,0,0
420,393,0,0,0,0,0,0,0,0,0,-1,1644,631,0,0
427,393,0,0,0,0,0,0,0,0,0,-1,1651,631,0,0
434,393,0,0,0,0,0,0,0,0,0,-1,1658,631,0,0
441,393,0,0,0,0,0,0,0,0,0,-1,1665,631,0,0
448,393,0,0,0,0,0,0,0,0,0,-1,1672,631,0,0
455,393,0,0,0,0,0,0,0,0,0,-1,1679,631,0,0
462,393,8.51099,1.89502,0,0,0,0,0,0,0,-1,1686,631,8.51103,-1.89504
469,393,9.39465,1.51703,0,0,0,0,0,0,0,-1,1693,631,9.39465,-1.51703
476,393,9.95569,1.185,0,0,0,0,0,0,0,-1,1700,631,9.95575,-1.18497
483,393,10.5267,0.887329,0,0,0,0,0,0,0,-1,1707,631,10.5267,-0.887321
490,393,10.9303,0.761414,0,0,0,0,0,0,0,-1,1714,631,10.9303,-0.761386
497,393,8.32153,1.88104,0,0,0,0,0,0,0,-1,1721,631,8.32148,-1.88103
504,393,9.46985,1.78711,0,0,0,0,0,0,0,-1,1728,631,9.46986,-1.78713
511,393,9.66565,-0.375977,0,0,0,0,0,0,0,-1,1735,631,9.66571,0.375949
518,393,7.01599,1.62482,0,0,0,0,0,0,0,-1,1742,631,7.01597,-1.62483
525,393,7.88245,-1.13422,0,0,0,0,0,0,0,-1,1749,631,7.88246,1.13423
532,393,7.06335,-1.18103,0,0,0,0,0,0,0,-1,1756,631,7.06332,1.18101
539,393,9.91626,-2.46301,0,0,0,0,0,0,0,-1,1763,631,9.91625,2.46302
546,393,9.89124,-2.75586,0,0,0,0,0,0,0,-1,1770,631,9.89126,2.75584
553,393,9.90234,-2.50305,-0.00312127,0.00211337,-8.96322e-05,0.00211491,-0.0031228,-1.55368,0.0030426,0.0216867,1777,631,9.9024,2.50303
560,393,9.8822,-2.2467,-0.00286642,0.00141707,-0.000458225,0.00146554,-0.00291489,-1.46541,0.00257477,0.0125986,1784,631,9.88225,2.24668
567,393,9.87549,-1.97583,-0.00267726,0.000914152,-0.000678931,0.00103821,-0.00280132,-1.39006,0.00229334,0.0130807,1791,631,9.8755,1.97584
574,393,9.84521,-1.72754,-0.00223546,0.0006695,-0.000666848,0.000815263,-0.00238123,-1.35559,0.0019179,0.015135,1798,631,9.84519,1.72752
581,393,9.82813,-1.44122,-0.00162881,0.000647534,-0.00047061,0.00074099,-0.00172227,-1.37476,0.00145929,0.0153566,1805,631,9.8281,1.44124
588,393,9.84924,-1.17358,-0.000950789,0.000808357,-0.000116064,0.000815982,-0.000958413,-1.5052,0.00102555,0.0162147,1812,631,9.84929,1.17358
595,393,9.86865,-0.952026,-9.65105e-05,0.0011885,0.000389583,0.00129738,-0.000205396,1.29826,0.000940892,0.0128085,1819,631,9.86865,0.952005
602,393,9.85938,-0.70343,0.000770732,0.00185084,0.00103624,0.00247931,0.000142258,1.02562,0.00160755,0.0141356,1826,631,9.85939,0.703425
609,393,9.83728,-0.423035,0.00133788,0.00249324,0.00164941,0.00366321,0.000167913,0.953839,0.00238814,0.0145969,1833,631,9.83732,0.423019
616,393,9.84595,-0.149292,0.00178476,0.00344512,0.00232168,0.00508059,0.000149291,0.957103,0.00333841,0.0146122,1840,631,9.84595,0.149274
623,393,9.88,0.149536,0.00234686,0.00458632,0.00294595,0.00661816,0.000315013,0.967011,0.00431094,0.0205183,1847,631,9.87998,-0.149508
630,393,10.0024,0.487976,0.00298804,0.00606744,0.00322611,0.00810244,0.000953035,1.00804,0.00511364,0.0400519,1854,631,10.0025,-0.487986
637,393,10.0366,0.889893,0,0,0,0,0,0,0,-1,1861,631,10.0366,-0.889875
644,393,8.97583,1.30585,0,0,0,0,0,0,0,-1,1868,631,8.97586,-1.30584
651,393,9.58679,0.726563,0,0,0,0,0,0,0,-1,1875,631,9.58684,-0.726583
658,393,9.21338,1.50836,0,0,0,0,0,0,0,-1,1882,631,9.21338,-1.50834
665,393,6.1001,2.32129,0,0,0,0,0,0,0,-1,1889,631,6.10012,-2.3213
672,393,7.14575,2.43225,0,0,0,0,0,0,0,-1,1896,631,7.14572,-2.43222
679,393,0,0,0,0,0,0,0,0,0,-1,1903,631,0,0
686,393,0,0,0,0,0,0,0,0,0,-1,1910,631,0,0
693,393,0,0,0,0,0,0,0,0,0,-1,1917,631,0,0
700,393,0,0,0,0,0,0,0,0,0,-1,1924,631,0,0
707,393,0,0,0,0,0,0,0,0,0,-1,1931,631,0,0
714,393,0,0,0,0,0,0,0,0,0,-1,1938,631,0,0
721,393,0,0,0,0,0,0,0,0,0,-1,1945,631,0,0
728,393,0,0,0,0,0,0,0,0,0,-1,1952,631,0,0
735,393,0,0,0,0,0,0,0,0,0,-1,1959,631,0,0
742,393,0,0,0,0,0,0,0,0,0,-1,1966,631,0,0
749,393,0,0,0,0,0,0,0,0,0,-1,1973,631,0,0
756,393,0,0,0,0,0,0,0,0,0,-1,1980,631,0,0
763,393,0,0,0,0,0,0,0,0,0,-1,1987,631,0,0
770,393,0,0,0,0,0,0,0,0,0,-1,1994,631,0,0
777,393,0,0,0,0,0,0,0,0,0,-1,2001,631,0,0
784,393,0,0,0,0,0,0,0,0,0,-1,2008,631,0,0
791,393,0,0,0,0,0,0,0,0,0,-1,2015,631,0,0
798,393,0,0,0,0,0,0,0,0,0,-1,2022,631,0,0
805,393,0,0,0,0,0,0,0,0,0,-1,2029,631,0,0
812,393,0,0,0,0,0,0,0,0,0,-1,2036,631,0,0
-700,386,0,0,0,0,0,0,0,0,0,-1,524,638,0,0
-693,386,0,0,0,0,0,0,0,0,0,-1,531,638,0,0
-686,386,0,0,0,0,0,0,0,0,0,-1,538,638,0,0
-679,386,0,0,0,0,0,0,0,0,0,-1,545,638,0,0
-672,386,0,0,0,0,0,0,0,0,0,-1,552,638,0,0
-665,386,0,0,0,0,0,0,0,0,0,-1,559,638,0,0
-658,386,0,0,0,0,0,0,0,0,0,-1,566,638,0,0
-651,386,0,0,0,0,0,0,0,0,0,-1,573,638,0,0
-644,386,0,0,0,0,0,0,0,0,0,-1,580,638,0,0
-637,386,0,0,0,0,0,0,0,0,0,-1,587,638,0,0
-630,386,0,0,0,0,0,0,0,0,0,-1,594,638,0,0
-623,386,0,0,0,0,0,0,0,0,0,-1,601,638,0,0
-616,386,0,0,0,0,0,0,0,0,0,-1,608,638,0,0
-609,386,0,0,0,0,0,0,0,0,0,-1,615,638,0,0
-602,386,0,0,0,0,0,0,0,0,0,-1,622,638,0,0
-595,386,0,0,0,0,0,0,0,0,0,-1,629,638,0,0
-588,386,0,0,0,0,0,0,0,0,0,-1,636,638,0,0
-581,386,0,0,0,0,0,0,0,0,0,-1,643,638,0,0
-574,386,0,0,0,0,0,0,0,0,0,-1,650,638,0,0
-567,386,0,0,0,0,0,0,0,0,0,-1,657,638,0,0
-560,386,-3.05145,4.98737,0,0,0,0,0,0,0,-1,664,638,-3.05144,-4.98737
-553,386,-2.34491,3.22894,0,0,0,0,0,0,0,-1,671,638,-2.34489,-3.22893
-546,386,-1.78668,1.72827,0,0,0,0,0,0,0,-1,678,638,-1.78668,-1.72829
-539,386,-0.879456,-2.90009,0,0,0,0,0,0,0,-1,685,638,-0.879442,2.90008
-532,386,-4.83362,1.61053,0,0,0,0,0,0,0,-1,692,638,-4.83361,-1.61051
-525,386,-4.17273,-0.159973,0,0,0,0,0,0,0,-1,699,638,-4.1727,0.159978
-518,386,-3.8222,-0.612,0,0,0,0,0,0,0,-1,706,638,-3.82223,0.612027
-511,386,-3.81989,-1.02094,-0.00316189,0.00205464,-0.00239264,0.00298584,-0.00409308,-1.19964,0.00410365,0.0449711,713,638,-3.81987,1.02092
-504,386,-4.0343,-1.41376,-0.00241516,0.0005707,-0.00112578,0.000947586,-0.00279205,-1.24775,0.00224491,0.0282286,720,638,-4.03432,1.41378
-497,386,-4.16553,-1.70398,-0.00171848,-0.000128346,-0.000363636,-4.91349e-05,-0.00179769,-1.35632,0.00118242,0.0123045,727,638,-4.1655,1.70396
-490,386,-4.15289,-1.9671,-0.00101448,-0.000459557,4.53255e-05,-0.000455879,-0.00101815,1.48983,0.0005889,0.012194,734,638,-4.1529,1.96707
-483,386,-4.13495,-2.22906,-0.000468479,-0.000645105,5.20799e-05,-0.000454266,-0.000659317,0.266413,0.000389616,0.0158377,741,638,-4.13496,2.22905
-476,386,-4.12054,-2.44678,0.000127893,-0.000482655,-9.11205e-05,0.000141202,-0.000495964,-0.145034,0.000386408,0.0149443,748,638,-4.12056,2.44675
-469,386,-4.146,-2.66431,0.00052779,-0.000399656,-0.000106559,0.000539876,-0.000411742,-0.112935,0.000551074,0.0123655,755,638,-4.14597,2.66433
-462,386,-4.14496,-2.92938,0.00048655,-0.000433164,-7.57745e-05,0.000492751,-0.000439366,-0.0816554,0.000538452,0.0110499,762,638,-4.14498,2.92938
-455,386,-4.15131,-3.18292,0.000186612,-0.000776801,0.000143472,0.000207524,-0.000797713,0.144738,0.00061281,0.0120831,769,638,-4.15131,3.18293
-448,386,-4.1532,-3.39948,-0.000455015,-0.00110647,0.000759741,4.58795e-05,-0.00160737,0.582883,0.00108719,0.0126497,776,638,-4.15321,3.39945
-441,386,-4.17212,-3.61646,-0.00148434,-0.00201661,0.00171493,-1.50203e-05,-0.00348594,0.708419,0.00231897,0.0124954,783,638,-4.17213,3.61647
-434,386,-4.14502,-3.90503,-0.00294258,-0.0031982,0.00300596,-6.17141e-05,-0.00607907,0.764152,0.0040323,0.0203511,790,638,-4.14499,3.90501
-427,386,-4.04681,-4.11237,-0.00480362,-0.0044394,0.00480052,0.000182459,-0.00942548,0.804357,0.00634535,0.0496343,797,638,-4.0468,4.11234
-420,386,-4.27771,-3.96222,-0.00695988,-0.00613574,0.00684217,0.000306756,-0.0134024,0.815474,0.00903891,0.0468007,804,638,-4.27773,3.96222
-413,386,-4.56635,-4.02222,0,0,0,0,0,0,0,-1,811,638,-4.56633,4.02223
-406,386,-4.51135,-4.10999,0,0,0,0,0,0,0,-1,818,638,-4.51135,4.10996
-399,386,-3.57117,-3.42126,0,0,0,0,0,0,0,-1,825,638,-3.57116,3.42129
-392,386,-4.00977,0.403625,0,0,0,0,0,0,0,-1,832,638,-4.0098,-0.403616
-385,386,-3.2406,-0.118469,0,0,0,0,0,0,0,-1,839,638,-3.24058,0.118485
-378,386,-2.55243,-1.22748,0,0,0,0,0,0,0,-1,846,638,-2.55243,1.22748
-371,386,-7.95807,-0.330261,0,0,0,0,0,0,0,-1,853,638,-7.95806,0.330284
-364,386,-8.90637,-0.665955,0,0,0,0,0,0,0,-1,860,638,-8.90635,0.665951
-357,386,-9.10364,-0.388733,0,0,0,0,0,0,0,-1,867,638,-9.10364,0.388744
-350,386,0,0,0,0,0,0,0,0,0,-1,874,638,0,0
-343,386,0,0,0,0,0,0,0,0,0,-1,881,638,0,0
-336,386,0,0,0,0,0,0,0,0,0,-1,888,638,0,0
-329,386,0,0,0,0,0,0,0,0,0,-1,895,638,0,0
-322,386,0,0,0,0,0,0,0,0,0,-1,902,638,0,0
-315,386,0,0,0,0,0,0,0,0,0,-1,909,638,0,0
-308,386,0,0,0,0,0,0,0,0,0,-1,916,638,0,0
-301,386,0,0,0,0,0,0,0,0,0,-1,923,638,0,0
-294,386,0,0,0,0,0,0,0,0,0,-1,930,638,0,0
-287,386,0,0,0,0,0,0,0,0,0,-1,937,638,0,0
-280,386,0,0,0,0,0,0,0,0,0,-1,944,638,0,0
-273,386,0,0,0,0,0,0,0,0,0,-1,951,638,0,0
-266,386,0,0,0,0,0,0,0,0,0,-1,958,638,0,0
-259,386,0,0,0,0,0,0,0,0,0,-1,965,638,0,0
-252,386,0,0,0,0,0,0,0,0,0,-1,972,638,0,0
-245,386,0,0,0,0,0,0,0,0,0,-1,979,638,0,0
-238,386,0,0,0,0,0,0,0,0,0,-1,986,638,0,0
-231,386,0,0,0,0,0,0,0,0,0,-1,993,638,0,0
-224,386,0,0,0,0,0,0,0,0,0,-1,1000,638,0,0
-217,386,0,0,0,0,0,0,0,0,0,-1,1007,638,0,0
-210,386,0,0,0,0,0,0,0,0,0,-1,1014,638,0,0
-203,386,0,0,0,0,0,0,0,0,0,-1,1021,638,0,0
-196,386,0,0,0,0,0,0,0,0,0,-1,1028,638,0,0
-189,386,0,0,0,0,0,0,0,0,0,-1,1035,638,0,0
-182,386,0,0,0,0,0,0,0,0,0,-1,1042,638,0,0
-175,386,0,0,0,0,0,0,0,0,0,-1,1049,638,0,0
-168,386,0,0,0,0,0,0,0,0,0,-1,1056,638,0,0
-161,386,0,0,0,0,0,0,0,0,0,-1,1063,638,0,0
-154,386,0,0,0,0,0,0,0,0,0,-1,1070,638,0,0
-147,386,0,0,0,0,0,0,0,0,0,-1,1077,638,0,0
-140,386,0,0,0,0,0,0,0,0,0,-1,1084,638,0,0
-133,386,0,0,0,0,0,0,0,0,0,-1,1091,638,0,0
-126,386,0,0,0,0,0,0,0,0,0,-1,1098,638,0,0
-119,386,0,0,0,0,0,0,0,0,0,-1,1105,638,0,0
-112,386,0,0,0,0,0,0,0,0,0,-1,1112,638,0,0
-105,386,0,0,0,0,0,0,0,0,0,-1,1119,638,0,0
-98,386,0,0,0,0,0,0,0,0,0,-1,1126,638,0,0
-91,386,0,0,0,0,0,0,0,0,0,-1,1133,638,0,0
-84,386,0,0,0,0,0,0,0,0,0,-1,1140,638,0,0
-77,386,0,0,0,0,0,0,0,0,0,-1,1147,638,0,0
-70,386,0,0,0,0,0,0,0,0,0,-1,1154,638,0,0
-63,386,0,0,0,0,0,0,0,0,0,-1,1161,638,0,0
-56,386,0,0,0,0,0,0,0,0,0,-1,1168,638,0,0
-49,386,0,0,0,0,0,0,0,0,0,-1,1175,638,0,0
-42,386,0,0,0,0,0,0,0,0,0,-1,1182,638,0,0
-35,386,0,0,0,0,0,0,0,0,0,-1,1189,638,0,0
-28,386,0,0,0,0,0,0,0,0,0,-1,1196,638,0,0
-21,386,0,0,0,0,0,0,0,0,0,-1,1203,638,0,0
-14,386,0,0,0,0,0,0,0,0,0,-1,1210,638,0,0
-7,386,0,0,0,0,0,0,0,0,0,-1,1217,638,0,0
0,386,0,0,0,0,0,0,0,0,0,-1,1224,638,0,0
7,386,0,0,0,0,0,0,0,0,0,-1,1231,638,0,0
14,386,0,0,0,0,0,0,0,0,0,-1,1238,638,0,0
21,386,0,0,0,0,0,0,0,0,0,-1,1245,638,0,0
28,386,0,0,0,0,0,0,0,0,0,-1,1252,638,0,0
35,386,0,0,0,0,0,0,0,0,0,-1,1259,638,0,0
42,386,0,0,0,0,0,0,0,0,0,-1,1266,638,0,0
49,386,0,0,0,0,0,0,0,0,0,-1,1273,638,0,0
56,386,0,0,0,0,0,0,0,0,0,-1,1280,638,0,0
63,386,0,0,0,0,0,0,0,0,0,-1,1287,638,0,0
70,386,0,0,0,0,0,0,0,0,0,-1,1294,638,0,0
77,386,0,0,0,0,0,0,0,0,0,-1,1301,638,0,0
84,386,0,0,0,0,0,0,0,0,0,-1,1308,638,0,0
91,386,0,0,0,0,0,0,0,0,0,-1,1315,638,0,0
98,386,0,0,0,0,0,0,0,0,0,-1,1322,638,0,0
105,386,0,0,0,0,0,0,0,0,0,-1,1329,638,0,0
112,386,0,0,0,0,0,0,0,0,0,-1,1336,638,0,0
119,386,0,0,0,0,0,0,0,0,0,-1,1343,638,0,0
126,386,0,0,0,0,0,0,0,0,0,-1,1350,638,0,0
133,386,0,0,0,0,0,0,0,0,0,-1,1357,638,0,0
140,386,0,0,0,0,0,0,0,0,0,-1,1364,638,0,0
147,386,0,0,0,0,0,0,0,0,0,-1,1371,638,0,0
154,386,0,0,0,0,0,0,0,0,0,-1,1378,638,0,0
161,386,0,0,0,0,0,0,0,0,0,-1,1385,638,0,0
168,386,0,0,0,0,0,0,0,0,0,-1,1392,638,0,0
175,386,0,0,0,0,0,0,0,0,0,-1,1399,638,0,0
182,386,0,0,0,0,0,0,0,0,0,-1,1406,638,0,0
189,386,0,0,0,0,0,0,0,0,0,-1,1413,638,0,0
196,386,0,0,0,0,0,0,0,0,0,-1,1420,638,0,0
203,386,0,0,0,0,0,0,0,0,0,-1,1427,638,0,0
210,386,0,0,0,0,0,0,0,0,0,-1,1434,638,0,0
217,386,0,0,0,0,0,0,0,0,0,-1,1441,638,0,0
224,386,0,0,0,0,0,0,0,0,0,-1,1448,638,0,0
231,386,0,0,0,0,0,0,0,0,0,-1,1455,638,0,0
238,386,0,0,0,0,0,0,0,0,0,-1,1462,638,0,0
245,386,0,0,0,0,0,0,0,0,0,-1,1469,638,0,0
252,386,0,0,0,0,0,0,0,0,0,-1,1476,638,0,0
259,386,0,0,0,0,0,0,0,0,0,-1,1483,638,0,0
266,386,0,0,0,0,0,0,0,0,0,-1,1490,638,0,0
273,386,0,0,0,0,0,0,0,0,0,-1,1497,638,0,0
280,386,0,0,0,0,0,0,0,0,0,-1,1504,638,0,0
287,386,0,0,0,0,0,0,0,0,0,-1,1511,638,0,0
294,386,0,0,0,0,0,0,0,0,0,-1,1518,638,0,0
301,386,0,0,0,0,0,0,0,0,0,-1,1525,638,0,0
308,386,0,0,0,0,0,0,0,0,0,-1,1532,638,0,0
315,386,0,0,0,0,0,0,0,0,0,-1,1539,638,0,0
322,386,0,0,0,0,0,0,0,0,0,-1,1546,638,0,0
329,386,0,0,0,0,0,0,0,0,0,-1,1553,638,0,0
336,386,0,0,0,0,0,0,0,0,0,-1,1560,638,0,0
343,386,0,0,0,0,0,0,0,0,0,-1,1567,638,0,0
350,386,0,0,0,0,0,0,0,0,0,-1,1574,638,0,0
357,386,0,0,0,0,0,0,0,0,0,-1,1581,638,0,0
364,386,0,0,0,0,0,0,0,0,0,-1,1588,638,0,0
371,386,0,0,0,0,0,0,0,0,0,-1,1595,638,0,0
378,386,0,0,0,0,0,0,0,0,0,-1,1602,638,0,0
385,386,0,0,0,0,0,0,0,0,0,-1,1609,638,0,0
392,386,0,0,0,0,0,0,0,0,0,-1,1616,638,0,0
399,386,0,0,0,0,0,0,0,0,0,-1,1623,638,0,0
406,386,0,0,0,0,0,0,0,0,0,-1,1630,638,0,0
413,386,0,0,0,0,0,0,0,0,0,-1,1637,638,0,0
420,386,0,0,0,0,0,0,0,0,0,-1,1644,638,0,0
427,386,0,0,0,0,0,0,0,0,0,-1,1651,638,0,0
434,386,0,0,0,0,0,0,0,0,0,-1,1658,638,0,0
441,386,0,0,0,0,0,0,0,0,0,-1,1665,638,0,0
448,386,0,0,0,0,0,0,0,0,0,-1,1672,638,0,0
455,386,0,0,0,0,0,0,0,0,0,-1,1679,638,0,0
462,386,0,0,0,0,0,0,0,0,0,-1,1686,638,0,0
469,386,9.84692,1.55804,0,0,0,0,0,0,0,-1,1693,638,9.84691,-1.55807
476,386,10.6145,0.986511,0,0,0,0,0,0,0,-1,1700,638,10.6145,-0.986529
483,386,11.4113,0.732971,0,0,0,0,0,0,0,-1,1707,638,11.4112,-0.732958
490,386,7.79785,1.79572,0,0,0,0,0,0,0,-1,1714,638,7.79788,-1.7957
497,386,8.96362,1.77081,0,0,0,0,0,0,0,-1,1721,638,8.96357,-1.77081
504,386,10.0555,1.69427,0,0,0,0,0,0,0,-1,1728,638,10.0555,-1.69426
511,386,11.2172,1.534,0,0,0,0,0,0,0,-1,1735,638,11.2172,-1.53398
518,386,7.41553,1.75238,0,0,0,0,0,0,0,-1,1742,638,7.41547,-1.75238
525,386,8.82422,-1.1449,0,0,0,0,0,0,0,-1,1749,638,8.82426,1.14492
532,386,10.6432,0.617371,0,0,0,0,0,0,0,-1,1756,638,10.6432,-0.617359
539,386,9.62061,-0.393616,0,0,0,0,0,0,0,-1,1763,638,9.62059,0.393634
546,386,10.1602,-2.3418,0,0,0,0,0,0,0,-1,1770,638,10.1601,2.3418
553,386,10.255,-2.24139,-0.00514106,0.00283585,-0.000414026,0.00285728,-0.00516249,-1.51908,0.00469354,0.0448174,1777,638,10.255,2.2414
560,386,10.186,-2.14655,-0.00457151,0.00184017,-0.000856972,0.00195274,-0.00468407,-1.44019,0.00393844,0.0299264,1784,638,10.186,2.14654
567,386,10.1156,-1.95551,-0.00417347,0.00108032,-0.00114235,0.00131795,-0.00441111,-1.3657,0.00346465,0.0191682,1791,638,10.1157,1.95551
574,386,10.1193,-1.70343,-0.00353525,0.00064243,-0.00117044,0.000947997,-0.00384082,-1.31543,0.00292815,0.0139133,1798,638,10.1193,1.70343
581,386,10.0872,-1.45294,-0.00270452,0.000475005,-0.00097067,0.000747913,-0.00297743,-1.29672,0.0022756,0.0136404,1805,638,10.0872,1.45291
588,386,10.1115,-1.19196,-0.00180331,0.000532219,-0.000602303,0.000678397,-0.00194948,-1.3327,0.00157526,0.0120366,1812,638,10.1114,1.19194
595,386,10.114,-0.958191,-0.000775819,0.000817078,-9.69668e-05,0.000822959,-0.0007817,-1.51022,0.000926553,0.0127672,1819,638,10.114,0.958201
602,386,10.0928,-0.712158,0.000213796,0.00138186,0.000530547,0.00158686,8.79465e-06,1.20207,0.00105499,0.0136278,1826,638,10.0928,0.712168
609,386,10.1019,-0.44342,0.00083904,0.00196772,0.00110288,0.00264226,0.000164504,1.02188,0.00170931,0.0132603,1833,638,10.1019,0.443419
616,386,10.1249,-0.160583,0.00129627,0.00267373,0.00162509,0.00375002,0.000219987,0.985829,0.00243,0.0119339,1840,638,10.1249,0.160565
623,386,10.119,0.108948,0.00181359,0.00364802,0.00207145,0.00499624,0.000465367,0.993818,0.00318705,0.0106521,1847,638,10.119,-0.108919
630,386,10.1897,0.364807,0.00242796,0.0048686,0.00221105,0.00617373,0.00112283,1.03756,0.00379729,0.0194154,1854,638,10.1897,-0.364805
637,386,10.1027,0.649414,0.00200727,0.00569644,0.00177449,0.00641141,0.0012923,1.18778,0.00391525,0.0397467,1861,638,10.1027,-0.649393
644,386,10.0287,1.01245,0,0,0,0,0,0,0,-1,1868,638,10.0287,-1.01243
651,386,9.3866,1.31097,0,0,0,0,0,0,0,-1,1875,638,9.3866,-1.31095
658,386,9.91907,0.689819,0,0,0,0,0,0,0,-1,1882,638,9.91904,-0.689819
665,386,6.33167,1.78601,0,0,0,0,0,0,0,-1,1889,638,6.33171,-1.78601
672,386,7.23352,2.14435,0,0,0,0,0,0,0,-1,1896,638,7.23353,-2.14433
679,386,8.07764,2.57104,0,0,0,0,0,0,0,-1,1903,638,8.07758,-2.57103
686,386,0,0,0,0,0,0,0,0,0,-1,1910,638,0,0
693,386,0,0,0,0,0,0,0,0,0,-1,1917,638,0,0
700,386,0,0,0,0,0,0,0,0,0,-1,1924,638,0,0
707,386,0,0,0,0,0,0,0,0,0,-1,1931,638,0,0
714,386,0,0,0,0,0,0,0,0,0,-1,1938,638,0,0
721,386,0,0,0,0,0,0,0,0,0,-1,1945,638,0,0
728,386,0,0,0,0,0,0,0,0,0,-1,1952,638,0,0
735,386,0,0,0,0,0,0,0,0,0,-1,1959,638,0,0
742,386,0,0,0,0,0,0,0,0,0,-1,1966,638,0,0
749,386,0,0,0,0,0,0,0,0,0,-1,1973,638,0,0
756,386,0,0,0,0,0,0,0,0,0,-1,1980,638,0,0
763,386,0,0,0,0,0,0,0,0,0,-1,1987,638,0,0
770,386,0,0,0,0,0,0,0,0,0,-1,1994,638,0,0
777,386,0,0,0,0,0,0,0,0,0,-1,2001,638,0,0
784,386,0,0,0,0,0,0,0,0,0,-1,2008,638,0,0
791,386,0,0,0,0,0,0,0,0,0,-1,2015,638,0,0
798,386,0,0,0,0,0,0,0,0,0,-1,2022,638,0,0
805,386,0,0,0,0,0,0,0,0,0,-1,2029,638,0,0
812,386,0,0,0,0,0,0,0,0,0,-1,2036,638,0,0
-700,379,0,0,0,0,0,0,0,0,0,-1,524,645,0,0
-693,379,0,0,0,0,0,0,0,0,0,-1,531,645,0,0
-686,379,0,0,0,0,0,0,0,0,0,-1,538,645,0,0
-679,379,0,0,0,0,0,0,0,0,0,-1,545,645,0,0
-672,379,0,0,0,0,0,0,0,0,0,-1,552,645,0,0
-665,379,0,0,0,0,0,0,0,0,0,-1,559,645,0,0
-658,379,0,0,0,0,0,0,0,0,0,-1,566,645,0,0
-651,379,0,0,0,0,0,0,0,0,0,-1,573,645,0,0
-644,379,0,0,0,0,0,0,0,0,0,-1,580,645,0,0
-637,379,0,0,0,0,0,0,0,0,0,-1,587,645,0,0
-630,379,0,0,0,0,0,0,0,0,0,-1,594,645,0,0
-623,379,0,0,0,0,0,0,0,0,0,-1,601,645,0,0
-616,379,0,0,0,0,0,0,0,0,0,-1,608,645,0,0
-609,379,0,0,0,0,0,0,0,0,0,-1,615,645,0,0
-602,379,0,0,0,0,0,0,0,0,0,-1,622,645,0,0
-595,379,0,0,0,0,0,0,0,0,0,-1,629,645,0,0
-588,379,0,0,0,0,0,0,0,0,0,-1,636,645,0,0
-581,379,0,0,0,0,0,0,0,0,0,-1,643,645,0,0
-574,379,0,0,0,0,0,0,0,0,0,-1,650,645,0,0
-567,379,-3.6662,4.6087,0,0,0,0,0,0,0,-1,657,645,-3.66618,-4.60868
-560,379,-3.35614,4.00958,0,0,0,0,0,0,0,-1,664,645,-3.35615,-4.0096
-553,379,-2.80804,2.62805,0,0,0,0,0,0,0,-1,671,645,-2.80804,-2.62805
-546,379,-2.1358,-1.87762,0,0,0,0,0,0,0,-1,678,645,-2.13579,1.87765
-539,379,-0.71698,-2.19427,0,0,0,0,0,0,0,-1,685,645,-0.716959,2.19427
-532,379,-4.15576,0.072876,0,0,0,0,0,0,0,-1,692,645,-4.15576,-0.0729009
-525,379,-4.20734,-0.494385,-0.00301385,0.0101136,-0.00672642,0.0129481,-0.00584839,-1.17198,0.0111072,0.0491055,699,645,-4.20733,0.4944
-518,379,-4.27948,-1.0838,-0.00294944,0.00612817,-0.00412974,0.00772577,-0.00454704,-1.20167,0.0071645,0.0431016,706,645,-4.27951,1.08377
-511,379,-4.26361,-1.32404,-0.00257959,0.00346211,-0.00237324,0.00428285,-0.00340033,-1.23784,0.00444563,0.0304591,713,645,-4.2636,1.32402
-504,379,-4.34052,-1.50433,-0.00210584,0.00139721,-0.00124659,0.00179553,-0.00250416,-1.26152,0.00249364,0.0175907,720,645,-4.3405,1.50435
-497,379,-4.38568,-1.71045,-0.00154818,0.00040277,-0.000471386,0.000510695,-0.0016561,-1.34572,0.00130797,0.0104579,727,645,-4.38569,1.71046
-490,379,-4.37891,-1.95258,-0.000881806,-0.000109844,-2.91975e-05,-0.000108741,-0.000882908,-1.53305,0.000555915,0.0106425,734,645,-4.37888,1.95259
-483,379,-4.36926,-2.20636,-0.00032676,-0.000434623,9.15647e-06,-0.000325988,-0.000435394,0.084088,0.000261537,0.0121317,741,645,-4.36927,2.20634
-476,379,-4.36218,-2.42657,0.000315645,-0.000375574,-0.000129313,0.000339045,-0.000398974,-0.179016,0.000426563,0.0126069,748,645,-4.36219,2.4266
-469,379,-4.38458,-2.6496,0.000749351,-0.000412213,-0.000166241,0.000772675,-0.000435537,-0.139391,0.000706556,0.0122363,755,645,-4.38458,2.64957
-462,379,-4.40302,-2.89911,0.000753696,-0.000527886,-0.000155764,0.000772356,-0.000546546,-0.119228,0.000765179,0.00883519,762,645,-4.40299,2.89913
-455,379,-4.40558,-3.14026,0.000468361,-0.000861825,5.59621e-05,0.000470711,-0.000864175,0.0419721,0.000781777,0.00939612,769,645,-4.40557,3.14024
-448,379,-4.39014,-3.36658,-0.000205035,-0.00122328,0.000676815,0.000132768,-0.00156109,0.462933,0.00108768,0.012187,776,645,-4.39016,3.3666
-441,379,-4.36707,-3.63239,-0.00134285,-0.00238832,0.00174946,-3.97009e-05,-0.00369147,0.640221,0.00244785,0.0160008,783,645,-4.36706,3.6324
-434,379,-4.27991,-4.01886,0,0,0,0,0,0,0,-1,790,645,-4.2799,4.01888
-427,379,-4.11957,-3.83014,0,0,0,0,0,0,0,-1,797,645,-4.11957,3.83013
-420,379,-4.46313,-3.48676,0,0,0,0,0,0,0,-1,804,645,-4.46311,3.48678
-413,379,-4.62543,-3.7912,0,0,0,0,0,0,0,-1,811,645,-4.62541,3.79123
-406,379,-4.64063,-4.38489,0,0,0,0,0,0,0,-1,818,645,-4.64065,4.3849
-399,379,-2.93536,-1.40118,0,0,0,0,0,0,0,-1,825,645,-2.93534,1.40119
-392,379,-4.16711,-0.466003,0,0,0,0,0,0,0,-1,832,645,-4.16714,0.465992
-385,379,-3.51862,0.441101,0,0,0,0,0,0,0,-1,839,645,-3.51859,-0.441072
-378,379,-5.3504,0.212219,0,0,0,0,0,0,0,-1,846,645,-5.35038,-0.212241
-371,379,-4.32092,-0.186707,0,0,0,0,0,0,0,-1,853,645,-4.3209,0.186707
-364,379,-3.40887,-0.549805,0,0,0,0,0,0,0,-1,860,645,-3.4089,0.549802
-357,379,0,0,0,0,0,0,0,0,0,-1,867,645,0,0
-350,379,0,0,0,0,0,0,0,0,0,-1,874,645,0,0
-343,379,0,0,0,0,0,0,0,0,0,-1,881,645,0,0
-336,379,0,0,0,0,0,0,0,0,0,-1,888,645,0,0
-329,379,0,0,0,0,0,0,0,0,0,-1,895,645,0,0
-322,379,0,0,0,0,0,0,0,0,0,-1,902,645,0,0
-315,379,0,0,0,0,0,0,0,0,0,-1,909,645,0,0
-308,379,0,0,0,0,0,0,0,0,0,-1,916,645,0,0
-301,379,0,0,0,0,0,0,0,0,0,-1,923,645,0,0
-294,379,0,0,0,0,0,0,0,0,0,-1,930,645,0,0
-287,379,0,0,0,0,0,0,0,0,0,-1,937,645,0,0
-280,379,0,0,0,0,0,0,0,0,0,-1,944,645,0,0
-273,379,0,0,0,0,0,0,0,0,0,-1,951,645,0,0
-266,379,0,0,0,0,0,0,0,0,0,-1,958,645,0,0
-259,379,0,0,0,0,0,0,0,0,0,-1,965,645,0,0
-252,379,0,0,0,0,0,0,0,0,0,-1,972,645,0,0
-245,379,0,0,0,0,0,0,0,0,0,-1,979,645,0,0
-238,379,0,0,0,0,0,0,0,0,0,-1,986,645,0,0
-231,379,0,0,0,0,0,0,0,0,0,-1,993,645,0,0
-224,379,0,0,0,0,0,0,0,0,0,-1,1000,645,0,0
-217,379,0,0,0,0,0,0,0,0,0,-1,1007,645,0,0
-210,379,0,0,0,0,0,0,0,0,0,-1,1014,645,0,0
-203,379,0,0,0,0,0,0,0,0,0,-1,1021,645,0,0
-196,379,0,0,0,0,0,0,0,0,0,-1,1028,645,0,0
-189,379,0,0,0,0,0,0,0,0,0,-1,1035,645,0,0
-182,379,0,0,0,0,0,0,0,0,0,-1,1042,645,0,0
-175,379,0,0,0,0,0,0,0,0,0,-1,1049,645,0,0
-168,379,0,0,0,0,0,0,0,0,0,-1,1056,645,0,0
-161,379,0,0,0,0,0,0,0,0,0,-1,1063,645,0,0
-154,379,0,0,0,0,0,0,0,0,0,-1,1070,645,0,0
-147,379,0,0,0,0,0,0,0,0,0,-1,1077,645,0,0
-140,379,0,0,0,0,0,0,0,0,0,-1,1084,645,0,0
-133,379,0,0,0,0,0,0,0,0,0,-1,1091,645,0,0
-126,379,0,0,0,0,0,0,0,0,0,-1,1098,645,0,0
-119,379,0,0,0,0,0,0,0,0,0,-1,1105,645,0,0
-112,379,0,0,0,0,0,0,0,0,0,-1,1112,645,0,0
-105,379,0,0,0,0,0,0,0,0,0,-1,1119,645,0,0
-98,379,0,0,0,0,0,0,0,0,0,-1,1126,645,0,0
-91,379,0,0,0,0,0,0,0,0,0,-1,1133,645,0,0
-84,379,0,0,0,0,0,0,0,0,0,-1,1140,645,0,0
-77,379,0,0,0,0,0,0,0,0,0,-1,1147,645,0,0
-70,379,0,0,0,0,0,0,0,0,0,-1,1154,645,0,0
-63,379,0,0,0,0,0,0,0,0,0,-1,1161,645,0,0
-56,379,0,0,0,0,0,0,0,0,0,-1,1168,645,0,0
-49,379,0,0,0,0,0,0,0,0,0,-1,1175,645,0,0
-42,379,0,0,0,0,0,0,0,0,0,-1,1182,645,0,0
-35,379,0,0,0,0,0,0,0,0,0,-1,1189,645,0,0
-28,379,0,0,0,0,0,0,0,0,0,-1,1196,645,0,0
-21,379,0,0,0,0,0,0,0,0,0,-1,1203,645,0,0
-14,379,0,0,0,0,0,0,0,0,0,-1,1210,645,0,0
-7,379,0,0,0,0,0,0,0,0,0,-1,1217,645,0,0
0,379,0,0,0,0,0,0,0,0,0,-1,1224,645,0,0
7,379,0,0,0,0,0,0,0,0,0,-1,1231,645,0,0
14,379,0,0,0,0,0,0,0,0,0,-1,1238,645,0,0
21,379,0,0,0,0,0,0,0,0,0,-1,1245,645,0,0
28,379,0,0,0,0,0,0,0,0,0,-1,1252,645,0,0
35,379,0,0,0,0,0,0,0,0,0,-1,1259,645,0,0
42,379,0,0,0,0,0,0,0,0,0,-1,1266,645,0,0
49,379,0,0,0,0,0,0,0,0,0,-1,1273,645,0,0
56,379,0,0,0,0,0,0,0,0,0,-1,1280,645,0,0
63,379,0,0,0,0,0,0,0,0,0,-1,1287,645,0,0
70,379,0,0,0,0,0,0,0,0,0,-1,1294,645,0,0
77,379,0,0,0,0,0,0,0,0,0,-1,1301,645,0,0
84,379,0,0,0,0,0,0,0,0,0,-1,1308,645,0,0
91,379,0,0,0,0,0,0,0,0,0,-1,1315,645,0,0
98,379,0,0,0,0,0,0,0,0,0,-1,1322,645,0,0
105,379,0,0,0,0,0,0,0,0,0,-1,1329,645,0,0
112,379,0,0,0,0,0,0,0,0,0,-1,1336,645,0,0
119,379,0,0,0,0,0,0,0,0,0,-1,1343,645,0,0
126,379,0,0,0,0,0,0,0,0,0,-1,1350,645,0,0
133,379,0,0,0,0,0,0,0,0,0,-1,1357,645,0,0
140,379,0,0,0,0,0,0,0,0,0,-1,1364,645,0,0
147,379,0,0,0,0,0,0,0,0,0,-1,1371,645,0,0
154,379,0,0,0,0,0,0,0,0,0,-1,1378,645,0,0
161,379,0,0,0,0,0,0,0,0,0,-1,1385,645,0,0
168,379,0,0,0,0,0,0,0,0,0,-1,1392,645,0,0
175,379,0,0,0,0,0,0,0,0,0,-1,1399,645,0,0
182,379,0,0,0,0,0,0,0,0,0,-1,1406,645,0,0
189,379,0,0,0,0,0,0,0,0,0,-1,1413,645,0,0
196,379,0,0,0,0,0,0,0,0,0,-1,1420,645,0,0
203,379,0,0,0,0,0,0,0,0,0,-1,1427,645,0,0
210,379,0,0,0,0,0,0,0,0,0,-1,1434,645,0,0
217,379,0,0,0,0,0,0,0,0,0,-1,1441,645,0,0
224,379,0,0,0,0,0,0,0,0,0,-1,1448,645,0,0
231,379,0,0,0,0,0,0,0,0,0,-1,1455,645,0,0
238,379,0,0,0,0,0,0,0,0,0,-1,1462,645,0,0
245,379,0,0,0,0,0,0,0,0,0,-1,1469,645,0,0
252,379,0,0,0,0,0,0,0,0,0,-1,1476,645,0,0
259,379,0,0,0,0,0,0,0,0,0,-1,1483,645,0,0
266,379,0,0,0,0,0,0,0,0,0,-1,1490,645,0,0
273,379,0,0,0,0,0,0,0,0,0,-1,1497,645,0,0
280,379,0,0,0,0,0,0,0,0,0,-1,1504,645,0,0
287,379,0,0,0,0,0,0,0,0,0,-1,1511,645,0,0
294,379,0,0,0,0,0,0,0,0,0,-1,1518,645,0,0
301,379,0,0,0,0,0,0,0,0,0,-1,1525,645,0,0
308,379,0,0,0,0,0,0,0,0,0,-1,1532,645,0,0
315,379,0,0,0,0,0,0,0,0,0,-1,1539,645,0,0
322,379,0,0,0,0,0,0,0,0,0,-1,1546,645,0,0
329,379,0,0,0,0,0,0,0,0,0,-1,1553,645,0,0
336,379,0,0,0,0,0,0,0,0,0,-1,1560,645,0,0
343,379,0,0,0,0,0,0,0,0,0,-1,1567,645,0,0
350,379,0,0,0,0,0,0,0,0,0,-1,1574,645,0,0
357,379,0,0,0,0,0,0,0,0,0,-1,1581,645,0,0
364,379,0,0,0,0,0,0,0,0,0,-1,1588,645,0,0
371,379,0,0,0,0,0,0,0,0,0,-1,1595,645,0,0
378,379,0,0,0,0,0,0,0,0,0,-1,1602,645,0,0
385,379,0,0,0,0,0,0,0,0,0,-1,1609,645,0,0
392,379,0,0,0,0,0,0,0,0,0,-1,1616,645,0,0
399,379,0,0,0,0,0,0,0,0,0,-1,1623,645,0,0
406,379,0,0,0,0,0,0,0,0,0,-1,1630,645,0,0
413,379,0,0,0,0,0,0,0,0,0,-1,1637,645,0,0
420,379,0,0,0,0,0,0,0,0,0,-1,1644,645,0,0
427,379,0,0,0,0,0,0,0,0,0,-1,1651,645,0,0
434,379,0,0,0,0,0,0,0,0,0,-1,1658,645,0,0
441,379,0,0,0,0,0,0,0,0,0,-1,1665,645,0,0
448,379,0,0,0,0,0,0,0,0,0,-1,1672,645,0,0
455,379,0,0,0,0,0,0,0,0,0,-1,1679,645,0,0
462,379,0,0,0,0,0,0,0,0,0,-1,1686,645,0,0
469,379,0,0,0,0,0,0,0,0,0,-1,1693,645,0,0
476,379,11.1787,0.830383,0,0,0,0,0,0,0,-1,1700,645,11.1787,-0.830365
483,379,7.4231,1.54321,0,0,0,0,0,0,0,-1,1707,645,7.42314,-1.54324
490,379,8.52881,1.56677,0,0,0,0,0,0,0,-1,1714,645,8.52878,-1.56677
497,379,9.63599,1.49573,0,0,0,0,0,0,0,-1,1721,645,9.63604,-1.4957
504,379,10.0833,1.35229,0,0,0,0,0,0,0,-1,1728,645,10.0832,-1.35227
511,379,8.14343,1.59912,0,0,0,0,0,0,0,-1,1735,645,8.14347,-1.59912
518,379,12.7955,-0.324097,0,0,0,0,0,0,0,-1,1742,645,12.7955,0.324101
525,379,6.03711,1.10352,0,0,0,0,0,0,0,-1,1749,645,6.03711,-1.10351
532,379,8.70947,0.887817,0,0,0,0,0,0,0,-1,1756,645,8.70953,-0.887808
539,379,9.87097,0.111389,0,0,0,0,0,0,0,-1,1763,645,9.87095,-0.111395
546,379,8.42383,-0.730652,0,0,0,0,0,0,0,-1,1770,645,8.42378,0.730638
553,379,10.5066,-2.01306,0,0,0,0,0,0,0,-1,1777,645,10.5066,2.01308
560,379,10.4749,-2.14038,-0.0069395,0.00221372,-0.00154653,0.00246796,-0.00719374,-1.40786,0.00579634,0.0392611,1784,645,10.4748,2.14037
567,379,10.2936,-1.9176,-0.00622061,0.00118392,-0.00184785,0.00161944,-0.00665614,-1.33933,0.0050643,0.0236664,1791,645,10.2936,1.91762
574,379,10.3962,-1.68805,-0.00527093,0.000557169,-0.00185816,0.0010992,-0.00581295,-1.28697,0.00428891,0.0129284,1798,645,10.3962,1.68803
581,379,10.3816,-1.43286,-0.00409766,0.00026274,-0.00159417,0.0007834,-0.00461832,-1.25512,0.0033705,0.0140402,1805,645,10.3817,1.43287
588,379,10.3795,-1.18842,-0.00287474,0.000243607,-0.001157,0.000625997,-0.00325713,-1.2516,0.00240737,0.0162888,1812,645,10.3795,1.18839
595,379,10.3705,-0.947144,-0.0016101,0.000461699,-0.000607155,0.000626517,-0.00177492,-1.30572,0.00143835,0.0142649,1819,645,10.3704,0.947135
602,379,10.3595,-0.712463,-0.000452611,0.000948624,3.80098e-05,0.000949654,-0.000453641,1.5437,0.000826892,0.0140613,1826,645,10.3595,0.712493
609,379,10.3425,-0.464355,0.000273029,0.00149142,0.000607275,0.0017424,2.20488e-05,1.17889,0.00115432,0.0148335,1833,645,10.3426,0.464339
616,379,10.3677,-0.181091,0.000766132,0.00197704,0.0010256,0.00256257,0.000180605,1.05204,0.00165147,0.0128899,1840,645,10.3676,0.18109
623,379,10.3848,0.11908,0.00124467,0.00280686,0.00134946,0.00358498,0.000466554,1.04775,0.00225064,0.0122858,1847,645,10.3848,-0.119051
630,379,10.3761,0.366089,0.00182909,0.00381768,0.00139638,0.00453759,0.00110919,1.09478,0.00273146,0.0129801,1854,645,10.376,-0.3661
637,379,10.387,0.637817,0.00156107,0.00458235,0.000988521,0.00487704,0.00126638,1.28107,0.00292218,0.0181046,1861,645,10.387,-0.63784
644,379,10.3658,0.974976,0.0012932,0.00566837,0.000390869,0.00570302,0.00125856,1.48239,0.00345966,0.0316639,1868,645,10.3658,-0.974952
651,379,10.6055,1.31995,0,0,0,0,0,0,0,-1,1875,645,10.6055,-1.31995
658,379,9.33484,0.666504,0,0,0,0,0,0,0,-1,1882,645,9.3348,-0.666487
665,379,8.93787,0.850464,0,0,0,0,0,0,0,-1,1889,645,8.93784,-0.850482
672,379,7.57605,2.15326,0,0,0,0,0,0,0,-1,1896,645,7.57599,-2.15326
679,379,8.55078,2.50409,0,0,0,0,0,0,0,-1,1903,645,8.55073,-2.50406
686,379,0,0,0,0,0,0,0,0,0,-1,1910,645,0,0
693,379,0,0,0,0,0,0,0,0,0,-1,1917,645,0,0
700,379,0,0,0,0,0,0,0,0,0,-1,1924,645,0,0
707,379,0,0,0,0,0,0,0,0,0,-1,1931,645,0,0
714,379,0,0,0,0,0,0,0,0,0,-1,1938,645,0,0
721,379,0,0,0,0,0,0,0,0,0,-1,1945,645,0,0
728,379,0,0,0,0,0,0,0,0,0,-1,1952,645,0,0
735,379,0,0,0,0,0,0,0,0,0,-1,1959,645,0,0
742,379,0,0,0,0,0,0,0,0,0,-1,1966,645,0,0
749,379,0,0,0,0,0,0,0,0,0,-1,1973,645,0,0
756,379,0,0,0,0,0,0,0,0,0,-1,1980,645,0,0
763,379,0,0,0,0,0,0,0,0,0,-1,1987,645,0,0
770,379,0,0,0,0,0,0,0,0,0,-1,1994,645,0,0
777,379,0,0,0,0,0,0,0,0,0,-1,2001,645,0,0
784,379,0,0,0,0,0,0,0,0,0,-1,2008,645,0,0
791,379,0,0,0,0,0,0,0,0,0,-1,2015,645,0,0
798,379,0,0,0,0,0,0,0,0,0,-1,2022,645,0,0
805,379,0,0,0,0,0,0,0,0,0,-1,2029,645,0,0
812,379,0,0,0,0,0,0,0,0,0,-1,2036,645,0,0
-700,372,0,0,0,0,0,0,0,0,0,-1,524,652,0,0
-693,372,0,0,0,0,0,0,0,0,0,-1,531,652,0,0
-686,372,0,0,0,0,0,0,0,0,0,-1,538,652,0,0
-679,372,0,0,0,0,0,0,0,0,0,-1,545,652,0,0
-672,372,0,0,0,0,0,0,0,0,0,-1,552,652,0,0
-665,372,0,0,0,0,0,0,0,0,0,-1,559,652,0,0
-658,372,0,0,0,0,0,0,0,0,0,-1,566,652,0,0
-651,372,0,0,0,0,0,0,0,0,0,-1,573,652,0,0
-644,372,0,0,0,0,0,0,0,0,0,-1,580,652,0,0
-637,372,0,0,0,0,0,0,0,0,0,-1,587,652,0,0
-630,372,0,0,0,0,0,0,0,0,0,-1,594,652,0,0
-623,372,0,0,0,0,0,0,0,0,0,-1,601,652,0,0
-616,372,0,0,0,0,0,0,0,0,0,-1,608,652,0,0
-609,372,0,0,0,0,0,0,0,0,0,-1,615,652,0,0
-602,372,0,0,0,0,0,0,0,0,0,-1,622,652,0,0
-595,372,0,0,0,0,0,0,0,0,0,-1,629,652,0,0
-588,372,0,0,0,0,0,0,0,0,0,-1,636,652,0,0
-581,372,0,0,0,0,0,0,0,0,0,-1,643,652,0,0
-574,372,0,0,0,0,0,0,0,0,0,-1,650,652,0,0
-567,372,-3.98065,4.39612,0,0,0,0,0,0,0,-1,657,652,-3.98064,-4.39614
-560,372,-3.56708,3.19385,0,0,0,0,0,0,0,-1,664,652,-3.56709,-3.19385
-553,372,-3.60773,1.84839,0,0,0,0,0,0,0,-1,671,652,-3.60774,-1.84839
-546,372,-4.15826,1.88702,0,0,0,0,0,0,0,-1,678,652,-4.15826,-1.88703
-539,372,-4.86688,0.931091,0,0,0,0,0,0,0,-1,685,652,-4.86689,-0.931066
-532,372,-4.3103,-0.0292969,0,0,0,0,0,0,0,-1,692,652,-4.3103,0.0293146
-525,372,-4.3891,-0.422607,-0.00196839,0.0109165,-0.00593098,0.0132308,-0.00428275,-1.19875,0.0105422,0.045418,699,652,-4.38912,0.422586
-518,372,-4.52966,-0.919373,-0.00224202,0.00682166,-0.00371677,0.00815088,-0.00357124,-1.22734,0.00693779,0.0304316,706,652,-4.52967,0.919403
-511,372,-4.60742,-1.26971,-0.00211237,0.00403085,-0.002185,0.00472873,-0.00281024,-1.26164,0.00439935,0.0181889,713,652,-4.60745,1.26972
-504,372,-4.62177,-1.46625,-0.00180651,0.00178795,-0.00118843,0.00214535,-0.00216391,-1.27867,0.00248796,0.0121082,720,652,-4.62176,1.46623
-497,372,-4.6178,-1.71106,-0.0013627,0.000672657,-0.000479123,0.000779802,-0.00146984,-1.35079,0.00131904,0.0114122,727,652,-4.61781,1.71107
-490,372,-4.62653,-1.93506,-0.00073403,8.86905e-05,-7.48901e-05,9.54519e-05,-0.000740791,-1.48076,0.000528559,0.0122608,734,652,-4.62653,1.93506
-483,372,-4.62781,-2.17194,-0.000156978,-0.000286159,-5.45992e-05,-0.000136993,-0.000306143,-0.350884,0.000177077,0.0121745,741,652,-4.62781,2.17194
-476,372,-4.62823,-2.38684,0.000561426,-0.000264545,-0.000232787,0.000622515,-0.000325634,-0.256639,0.000556287,0.0128182,748,652,-4.62822,2.38687
-469,372,-4.62872,-2.6236,0.00108597,-0.000363294,-0.000344632,0.00116375,-0.000441073,-0.221968,0.000957346,0.0103007,755,652,-4.6287,2.6236
-462,372,-4.62885,-2.88794,0.00122343,-0.000525608,-0.000397283,0.00130944,-0.000611618,-0.213206,0.00113325,0.00848603,762,652,-4.62884,2.88795
-455,372,-4.6438,-3.12341,0.00105493,-0.000794565,-0.000225392,0.001082,-0.000821636,-0.119536,0.00110249,0.00945947,769,652,-4.64381,3.12339
-448,372,-4.62921,-3.36041,0.000452711,-0.00115085,0.000372635,0.000535074,-0.00123321,0.217529,0.00104711,0.011417,776,652,-4.62918,3.36044
-441,372,-4.48975,-3.76019,-0.000682187,-0.0025403,0.00154158,0.000188648,-0.00341113,0.51421,0.00233951,0.0318622,783,652,-4.48972,3.76021
-434,372,-4.40894,-4.25806,0,0,0,0,0,0,0,-1,790,652,-4.40896,4.25807
-427,372,-4.54248,-3.56268,0,0,0,0,0,0,0,-1,797,652,-4.54247,3.56266
-420,372,-4.66168,-2.93597,0,0,0,0,0,0,0,-1,804,652,-4.66166,2.93599
-413,372,-4.74762,-3.29541,0,0,0,0,0,0,0,-1,811,652,-4.74763,3.29542
-406,372,-0.885437,-0.583923,0,0,0,0,0,0,0,-1,818,652,-0.885437,0.5839
-399,372,-3.97357,-0.825012,0,0,0,0,0,0,0,-1,825,652,-3.97359,0.825037
-392,372,-7.64337,0.173035,0,0,0,0,0,0,0,-1,832,652,-7.64337,-0.173019
-385,372,-6.48871,-0.0271606,0,0,0,0,0,0,0,-1,839,652,-6.48874,0.0271353
-378,372,-5.33044,-0.242432,0,0,0,0,0,0,0,-1,846,652,-5.33042,0.242457
-371,372,-4.40802,-0.495667,0,0,0,0,0,0,0,-1,853,652,-4.40802,0.495661
-364,372,0,0,0,0,0,0,0,0,0,-1,860,652,0,0
-357,372,0,0,0,0,0,0,0,0,0,-1,867,652,0,0
-350,372,0,0,0,0,0,0,0,0,0,-1,874,652,0,0
-343,372,0,0,0,0,0,0,0,0,0,-1,881,652,0,0
-336,372,0,0,0,0,0,0,0,0,0,-1,888,652,0,0
-329,372,0,0,0,0,0,0,0,0,0,-1,895,652,0,0
-322,372,0,0,0,0,0,0,0,0,0,-1,902,652,0,0
-315,372,0,0,0,0,0,0,0,0,0,-1,909,652,0,0
-308,372,0,0,0,0,0,0,0,0,0,-1,916,652,0,0
-301,372,0,0,0,0,0,0,0,0,0,-1,923,652,0,0
-294,372,0,0,0,0,0,0,0,0,0,-1,930,652,0,0
-287,372,0,0,0,0,0,0,0,0,0,-1,937,652,0,0
-280,372,0,0,0,0,0,0,0,0,0,-1,944,652,0,0
-273,372,0,0,0,0,0,0,0,0,0,-1,951,652,0,0
-266,372,0,0,0,0,0,0,0,0,0,-1,958,652,0,0
-259,372,0,0,0,0,0,0,0,0,0,-1,965,652,0,0
-252,372,0,0,0,0,0,0,0,0,0,-1,972,652,0,0
-245,372,0,0,0,0,0,0,0,0,0,-1,979,652,0,0
-238,372,0,0,0,0,0,0,0,0,0,-1,986,652,0,0
-231,372,0,0,0,0,0,0,0,0,0,-1,993,652,0,0
-224,372,0,0,0,0,0,0,0,0,0,-1,1000,652,0,0
-217,372,0,0,0,0,0,0,0,0,0,-1,1007,652,0,0
-210,372,0,0,0,0,0,0,0,0,0,-1,1014,652,0,0
-203,372,0,0,0,0,0,0,0,0,0,-1,1021,652,0,0
-196,372,0,0,0,0,0,0,0,0,0,-1,1028,652,0,0
-189,372,0,0,0,0,0,0,0,0,0,-1,1035,652,0,0
-182,372,0,0,0,0,0,0,0,0,0,-1,1042,652,0,0
-175,372,0,0,0,0,0,0,0,0,0,-1,1049,652,0,0
-168,372,0,0,0,0,0,0,0,0,0,-1,1056,652,0,0
-161,372,0,0,0,0,0,0,0,0,0,-1,1063,652,0,0
-154,372,0,0,0,0,0,0,0,0,0,-1,1070,652,0,0
-147,372,0,0,0,0,0,0,0,0,0,-1,1077,652,0,0
-140,372,0,0,0,0,0,0,0,0,0,-1,1084,652,0,0
-133,372,0,0,0,0,0,0,0,0,0,-1,1091,652,0,0
-126,372,0,0,0,0,0,0,0,0,0,-1,1098,652,0,0
-119,372,0,0,0,0,0,0,0,0,0,-1,1105,652,0,0
-112,372,0,0,0,0,0,0,0,0,0,-1,1112,652,0,0
-105,372,0,0,0,0,0,0,0,0,0,-1,1119,652,0,0
-98,372,0,0,0,0,0,0,0,0,0,-1,1126,652,0,0
-91,372,0,0,0,0,0,0,0,0,0,-1,1133,652,0,0
-84,372,0,0,0,0,0,0,0,0,0,-1,1140,652,0,0
-77,372,0,0,0,0,0,0,0,0,0,-1,1147,652,0,0
-70,372,0,0,0,0,0,0,0,0,0,-1,1154,652,0,0
-63,372,0,0,0,0,0,0,0,0,0,-1,1161,652,0,0
-56,372,0,0,0,0,0,0,0,0,0,-1,1168,652,0,0
-49,372,0,0,0,0,0,0,0,0,0,-1,1175,652,0,0
-42,372,0,0,0,0,0,0,0,0,0,-1,1182,652,0,0
-35,372,0,0,0,0,0,0,0,0,0,-1,1189,652,0,0
-28,372,0,0,0,0,0,0,0,0,0,-1,1196,652,0,0
-21,372,0,0,0,0,0,0,0,0,0,-1,1203,652,0,0
-14,372,0,0,0,0,0,0,0,0,0,-1,1210,652,0,0
-7,372,0,0,0,0,0,0,0,0,0,-1,1217,652,0,0
0,372,0,0,0,0,0,0,0,0,0,-1,1224,652,0,0
7,372,0,0,0,0,0,0,0,0,0,-1,1231,652,0,0
14,372,0,0,0,0,0,0,0,0,0,-1,1238,652,0,0
21,372,0,0,0,0,0,0,0,0,0,-1,1245,652,0,0
28,372,0,0,0,0,0,0,0,0,0,-1,1252,652,0,0
35,372,0,0,0,0,0,0,0,0,0,-1,1259,652,0,0
42,372,0,0,0,0,0,0,0,0,0,-1,1266,652,0,0
49,372,0,0,0,0,0,0,0,0,0,-1,1273,652,0,0
56,372,0,0,0,0,0,0,0,0,0,-1,1280,652,0,0
63,372,0,0,0,0,0,0,0,0,0,-1,1287,652,0,0
70,372,0,0,0,0,0,0,0,0,0,-1,1294,652,0,0
77,372,0,0,0,0,0,0,0,0,0,-1,1301,652,0,0
84,372,0,0,0,0,0,0,0,0,0,-1,1308,652,0,0
91,372,0,0,0,0,0,0,0,0,0,-1,1315,652,0,0
98,372,0,0,0,0,0,0,0,0,0,-1,1322,652,0,0
105,372,0,0,0,0,0,0,0,0,0,-1,1329,652,0,0
112,372,0,0,0,0,0,0,0,0,0,-1,1336,652,0,0
119,372,0,0,0,0,0,0,0,0,0,-1,1343,652,0,0
126,372,0,0,0,0,0,0,0,0,0,-1,1350,652,0,0
133,372,0,0,0,0,0,0,0,0,0,-1,1357,652,0,0
140,372,0,0,0,0,0,0,0,0,0,-1,1364,652,0,0
147,372,0,0,0,0,0,0,0,0,0,-1,1371,652,0,0
154,372,0,0,0,0,0,0,0,0,0,-1,1378,652,0,0
161,372,0,0,0,0,0,0,0,0,0,-1,1385,652,0,0
168,372,0,0,0,0,0,0,0,0,0,-1,1392,652,0,0
175,372,0,0,0,0,0,0,0,0,0,-1,1399,652,0,0
182,372,0,0,0,0,0,0,0,0,0,-1,1406,652,0,0
189,372,0,0,0,0,0,0,0,0,0,-1,1413,652,0,0
196,372,0,0,0,0,0,0,0,0,0,-1,1420,652,0,0
203,372,0,0,0,0,0,0,0,0,0,-1,1427,652,0,0
210,372,0,0,0,0,0,0,0,0,0,-1,1434,652,0,0
217,372,0,0,0,0,0,0,0,0,0,-1,1441,652,0,0
224,372,0,0,0,0,0,0,0,0,0,-1,1448,652,0,0
231,372,0,0,0,0,0,0,0,0,0,-1,1455,652,0,0
238,372,0,0,0,0,0,0,0,0,0,-1,1462,652,0,0
245,372,0,0,0,0,0,0,0,0,0,-1,1469,652,0,0
252,372,0,0,0,0,0,0,0,0,0,-1,1476,652,0,0
259,372,0,0,0,0,0,0,0,0,0,-1,1483,652,0,0
266,372,0,0,0,0,0,0,0,0,0,-1,1490,652,0,0
273,372,0,0,0,0,0,0,0,0,0,-1,1497,652,0,0
280,372,0,0,0,0,0,0,0,0,0,-1,1504,652,0,0
287,372,0,0,0,0,0,0,0,0,0,-1,1511,652,0,0
294,372,0,0,0,0,0,0,0,0,0,-1,1518,652,0,0
301,372,0,0,0,0,0,0,0,0,0,-1,1525,652,0,0
308,372,0,0,0,0,0,0,0,0,0,-1,1532,652,0,0
315,372,0,0,0,0,0,0,0,0,0,-1,1539,652,0,0
322,372,0,0,0,0,0,0,0,0,0,-1,1546,652,0,0
329,372,0,0,0,0,0,0,0,0,0,-1,1553,652,0,0
336,372,0,0,0,0,0,0,0,0,0,-1,1560,652,0,0
343,372,0,0,0,0,0,0,0,0,0,-1,1567,652,0,0
350,372,0,0,0,0,0,0,0,0,0,-1,1574,652,0,0
357,372,0,0,0,0,0,0,0,0,0,-1,1581,652,0,0
364,372,0,0,0,0,0,0,0,0,0,-1,1588,652,0,0
371,372,0,0,0,0,0,0,0,0,0,-1,1595,652,0,0
378,372,0,0,0,0,0,0,0,0,0,-1,1602,652,0,0
385,372,0,0,0,0,0,0,0,0,0,-1,1609,652,0,0
392,372,0,0,0,0,0,0,0,0,0,-1,1616,652,0,0
399,372,0,0,0,0,0,0,0,0,0,-1,1623,652,0,0
406,372,0,0,0,0,0,0,0,0,0,-1,1630,652,0,0
413,372,0,0,0,0,0,0,0,0,0,-1,1637,652,0,0
420,372,0,0,0,0,0,0,0,0,0,-1,1644,652,0,0
427,372,0,0,0,0,0,0,0,0,0,-1,1651,652,0,0
434,372,0,0,0,0,0,0,0,0,0,-1,1658,652,0,0
441,372,0,0,0,0,0,0,0,0,0,-1,1665,652,0,0
448,372,0,0,0,0,0,0,0,0,0,-1,1672,652,0,0
455,372,0,0,0,0,0,0,0,0,0,-1,1679,652,0,0
462,372,0,0,0,0,0,0,0,0,0,-1,1686,652,0,0
469,372,0,0,0,0,0,0,0,0,0,-1,1693,652,0,0
476,372,0,0,0,0,0,0,0,0,0,-1,1700,652,0,0
483,372,8.74182,1.53125,0,0,0,0,0,0,0,-1,1707,652,8.74186,-1.53126
490,372,9.78455,1.67096,0,0,0,0,0,0,0,-1,1714,652,9.7846,-1.67093
497,372,9.97644,1.46069,0,0,0,0,0,0,0,-1,1721,652,9.97647,-1.46071
504,372,10.1216,1.28375,0,0,0,0,0,0,0,-1,1728,652,10.1216,-1.28376
511,372,11.7367,-0.0272217,0,0,0,0,0,0,0,-1,1735,652,11.7367,0.0272326
518,372,12.0657,-0.0995483,0,0,0,0,0,0,0,-1,1742,652,12.0657,0.0995285
525,372,12.3947,-0.171814,0,0,0,0,0,0,0,-1,1749,652,12.3946,0.171824
532,372,9.36597,1.72034,0,0,0,0,0,0,0,-1,1756,652,9.36597,-1.72036
539,372,7.82886,-0.0865479,0,0,0,0,0,0,0,-1,1763,652,7.82882,0.0865771
546,372,10.953,-0.187195,0,0,0,0,0,0,0,-1,1770,652,10.953,0.187181
553,372,10.4906,-3.19098,0,0,0,0,0,0,0,-1,1777,652,10.4906,3.19098
560,372,10.5979,-2.58289,-0.0102219,0.00230862,-0.00262501,0.00283631,-0.0107496,-1.37242,0.00827547,0.0449771,1784,652,10.5978,2.58291
567,372,10.5845,-1.97363,-0.00897646,0.00103387,-0.00287787,0.00180225,-0.00974484,-1.30989,0.00717318,0.0252542,1791,652,10.5844,1.97363
574,372,10.6732,-1.64923,-0.00756629,0.000252313,-0.00280997,0.00115742,-0.0084714,-1.25918,0.0060703,0.0169177,1798,652,10.6732,1.64923
581,372,10.6558,-1.43878,-0.0059255,-0.000127709,-0.00241931,0.000749191,-0.0068024,-1.22306,0.00480417,0.0146198,1805,652,10.6557,1.43875
588,372,10.6481,-1.20172,-0.00429463,-0.000179041,-0.00186653,0.000541372,-0.00501505,-1.20245,0.00353766,0.0153184,1812,652,10.6481,1.2017
595,372,10.6373,-0.929749,-0.00274215,4.72286e-06,-0.0012383,0.000480535,-0.00321796,-1.20394,0.00232212,0.013907,1819,652,10.6373,0.929777
602,372,10.6563,-0.691345,-0.00137058,0.000437264,-0.000544281,0.00058848,-0.0015218,-1.2998,0.00125746,0.0141432,1826,652,10.6562,0.691319
609,372,10.6085,-0.443237,-0.000479236,0.000962735,5.83046e-05,0.000965089,-0.000481589,1.53045,0.000850647,0.0145507,1833,652,10.6085,0.443265
616,372,10.6118,-0.164368,0.000108953,0.00127651,0.000418686,0.00141113,-2.56661e-05,1.25971,0.000949425,0.0143135,1840,652,10.6118,0.164374
623,372,10.6447,0.125244,0.000609583,0.00199776,0.00067295,0.00227043,0.000336913,1.18583,0.00141475,0.0128738,1847,652,10.6447,-0.125221
630,372,10.6398,0.389526,0.00120323,0.00283969,0.000671095,0.0030797,0.00096322,1.22733,0.00181915,0.0166058,1854,652,10.6397,-0.389514
637,372,10.645,0.599182,0.00108922,0.00355542,0.00030785,0.00359326,0.00105137,1.44847,0.00213324,0.0201208,1861,652,10.645,-0.599188
644,372,10.6866,0.92749,0.000899597,0.0044203,-0.000348562,0.00445447,0.00086542,-1.47306,0.00272733,0.0222048,1868,652,10.6866,-0.927515
651,372,10.7367,1.3158,0.00113168,0.00555625,-0.00128021,0.00589996,0.000787961,-1.3085,0.00369874,0.0484872,1875,652,10.7367,-1.31578
658,372,10.7905,1.60791,0,0,0,0,0,0,0,-1,1882,652,10.7906,-1.60788
665,372,9.24951,1.03357,0,0,0,0,0,0,0,-1,1889,652,9.24953,-1.03356
672,372,9.34106,1.48444,0,0,0,0,0,0,0,-1,1896,652,9.34109,-1.48444
679,372,10.7308,2.32391,0,0,0,0,0,0,0,-1,1903,652,10.7309,-2.3239
686,372,11.6295,2.52997,0,0,0,0,0,0,0,-1,1910,652,11.6296,-2.52996
693,372,0,0,0,0,0,0,0,0,0,-1,1917,652,0,0
700,372,0,0,0,0,0,0,0,0,0,-1,1924,652,0,0
707,372,0,0,0,0,0,0,0,0,0,-1,1931,652,0,0
714,372,0,0,0,0,0,0,0,0,0,-1,1938,652,0,0
721,372,0,0,0,0,0,0,0,0,0,-1,1945,652,0,0
728,372,0,0,0,0,0,0,0,0,0,-1,1952,652,0,0
735,372,0,0,0,0,0,0,0,0,0,-1,1959,652,0,0
742,372,0,0,0,0,0,0,0,0,0,-1,1966,652,0,0
749,372,0,0,0,0,0,0,0,0,0,-1,1973,652,0,0
756,372,0,0,0,0,0,0,0,0,0,-1,1980,652,0,0
763,372,0,0,0,0,0,0,0,0,0,-1,1987,652,0,0
770,372,0,0,0,0,0,0,0,0,0,-1,1994,652,0,0
777,372,0,0,0,0,0,0,0,0,0,-1,2001,652,0,0
784,372,0,0,0,0,0,0,0,0,0,-1,2008,652,0,0
791,372,0,0,0,0,0,0,0,0,0,-1,2015,652,0,0
798,372,0,0,0,0,0,0,0,0,0,-1,2022,652,0,0
805,372,0,0,0,0,0,0,0,0,0,-1,2029,652,0,0
812,372,0,0,0,0,0,0,0,0,0,-1,2036,652,0,0
-700,365,0,0,0,0,0,0,0,0,0,-1,524,659,0,0
-693,365,0,0,0,0,0,0,0,0,0,-1,531,659,0,0
-686,365,0,0,0,0,0,0,0,0,0,-1,538,659,0,0
-679,365,0,0,0,0,0,0,0,0,0,-1,545,659,0,0
-672,365,0,0,0,0,0,0,0,0,0,-1,552,659,0,0
-665,365,0,0,0,0,0,0,0,0,0,-1,559,659,0,0
-658,365,0,0,0,0,0,0,0,0,0,-1,566,659,0,0
-651,365,0,0,0,0,0,0,0,0,0,-1,573,659,0,0
-644,365,0,0,0,0,0,0,0,0,0,-1,580,659,0,0
-637,365,0,0,0,0,0,0,0,0,0,-1,587,659,0,0
-630,365,0,0,0,0,0,0,0,0,0,-1,594,659,0,0
-623,365,0,0,0,0,0,0,0,0,0,-1,601,659,0,0
-616,365,0,0,0,0,0,0,0,0,0,-1,608,659,0,0
-609,365,0,0,0,0,0,0,0,0,0,-1,615,659,0,0
-602,365,0,0,0,0,0,0,0,0,0,-1,622,659,0,0
-595,365,0,0,0,0,0,0,0,0,0,-1,629,659,0,0
-588,365,0,0,0,0,0,0,0,0,0,-1,636,659,0,0
-581,365,0,0,0,0,0,0,0,0,0,-1,643,659,0,0
-574,365,-4.47388,4.59729,0,0,0,0,0,0,0,-1,650,659,-4.47387,-4.59727
-567,365,-4.12921,3.70837,0,0,0,0,0,0,0,-1,657,659,-4.1292,-3.70838
-560,365,-3.93262,2.6405,0,0,0,0,0,0,0,-1,664,659,-3.93261,-2.64047
-553,365,-3.77966,1.60437,0,0,0,0,0,0,0,-1,671,659,-3.77966,-1.60434
-546,365,-5.21094,0.557556,0,0,0,0,0,0,0,-1,678,659,-5.21093,-0.557586
-539,365,-4.96082,0.464417,0,0,0,0,0,0,0,-1,685,659,-4.96081,-0.464396
-532,365,-4.68011,0.010437,0,0,0,0,0,0,0,-1,692,659,-4.68013,-0.0104557
-525,365,-4.67865,-0.480347,0,0,0,0,0,0,0,-1,699,659,-4.67865,0.480371
-518,365,-4.86786,-0.93512,0,0,0,0,0,0,0,-1,706,659,-4.86784,0.93512
-511,365,-4.85675,-1.20844,-0.00139988,0.00431596,-0.00198802,0.00493942,-0.00202333,-1.26691,0.00413579,0.019975,713,659,-4.85678,1.20846
-504,365,-4.84747,-1.45758,-0.00115543,0.00200601,-0.00112868,0.00236761,-0.00151703,-1.26076,0.00226065,0.0123533,720,659,-4.84746,1.45758
-497,365,-4.84949,-1.70648,-0.000754202,0.000852895,-0.000507368,0.000999668,-0.000900976,-1.2892,0.00109783,0.0126156,727,659,-4.84948,1.70649
-490,365,-4.86945,-1.9375,-0.000148841,0.000236724,-0.000167155,0.0002991,-0.000211217,-1.21364,0.000296084,0.0135254,734,659,-4.86947,1.93748
-483,365,-4.87268,-2.16486,0.000437748,-0.000149235,-0.000186653,0.000492073,-0.00020356,-0.283226,0.000412978,0.0127099,741,659,-4.87269,2.16486
-476,365,-4.86377,-2.39771,0.00119001,-0.000146398,-0.000420466,0.00131129,-0.00026768,-0.280824,0.000975739,0.0126075,748,659,-4.86376,2.39771
-469,365,-4.85406,-2.63464,0.00174605,-0.000300835,-0.000628375,0.00192356,-0.000478346,-0.275319,0.00146803,0.0114861,755,659,-4.85407,2.63465
-462,365,-4.84589,-2.87018,0.00194629,-0.000522565,-0.000757083,0.00215996,-0.000736234,-0.275073,0.00173816,0.0120016,762,659,-4.84589,2.87019
-455,365,-4.86298,-3.1123,0.00181186,-0.000728579,-0.00063322,0.00196094,-0.000877664,-0.231228,0.00167818,0.01392,769,659,-4.86301,3.11232
-448,365,-4.80438,-3.40814,0.00119497,-0.00107784,-6.84506e-05,0.00119703,-0.0010799,-0.0300809,0.00131516,0.0210415,776,659,-4.80436,3.40816
-441,365,-4.67517,-3.82678,0,0,0,0,0,0,0,-1,783,659,-4.67519,3.82677
-434,365,-5.0437,-3.99042,0,0,0,0,0,0,0,-1,790,659,-5.04373,3.99044
-427,365,-5.05377,-4.74689,0,0,0,0,0,0,0,-1,797,659,-5.05376,4.7469
-420,365,-4.58813,-3.16376,0,0,0,0,0,0,0,-1,804,659,-4.58816,3.16374
-413,365,0.141357,0.672729,0,0,0,0,0,0,0,-1,811,659,0.141365,-0.672714
-406,365,-1.75067,-0.934448,0,0,0,0,0,0,0,-1,818,659,-1.7507,0.934424
-399,365,-4.10242,-1.25439,0,0,0,0,0,0,0,-1,825,659,-4.10244,1.25438
-392,365,-7.46545,-0.779724,0,0,0,0,0,0,0,-1,832,659,-7.46543,0.779744
-385,365,-6.27875,-0.887573,0,0,0,0,0,0,0,-1,839,659,-6.27874,0.887545
-378,365,-5.34503,-0.263306,0,0,0,0,0,0,0,-1,846,659,-5.34504,0.263275
-371,365,0,0,0,0,0,0,0,0,0,-1,853,659,0,0
-364,365,0,0,0,0,0,0,0,0,0,-1,860,659,0,0
-357,365,0,0,0,0,0,0,0,0,0,-1,867,659,0,0
-350,365,0,0,0,0,0,0,0,0,0,-1,874,659,0,0
-343,365,0,0,0,0,0,0,0,0,0,-1,881,659,0,0
-336,365,0,0,0,0,0,0,0,0,0,-1,888,659,0,0
-329,365,0,0,0,0,0,0,0,0,0,-1,895,659,0,0
-322,365,0,0,0,0,0,0,0,0,0,-1,902,659,0,0
-315,365,0,0,0,0,0,0,0,0,0,-1,909,659,0,0
-308,365,0,0,0,0,0,0,0,0,0,-1,916,659,0,0
-301,365,0,0,0,0,0,0,0,0,0,-1,923,659,0,0
-294,365,0,0,0,0,0,0,0,0,0,-1,930,659,0,0
-287,365,0,0,0,0,0,0,0,0,0,-1,937,659,0,0
-280,365,0,0,0,0,0,0,0,0,0,-1,944,659,0,0
-273,365,0,0,0,0,0,0,0,0,0,-1,951,659,0,0
-266,365,0,0,0,0,0,0,0,0,0,-1,958,659,0,0
-259,365,0,0,0,0,0,0,0,0,0,-1,965,659,0,0
-252,365,0,0,0,0,0,0,0,0,0,-1,972,659,0,0
-245,365,0,0,0,0,0,0,0,0,0,-1,979,659,0,0
-238,365,0,0,0,0,0,0,0,0,0,-1,986,659,0,0
-231,365,0,0,0,0,0,0,0,0,0,-1,993,659,0,0
-224,365,0,0,0,0,0,0,0,0,0,-1,1000,659,0,0
-217,365,0,0,0,0,0,0,0,0,0,-1,1007,659,0,0
-210,365,0,0,0,0,0,0,0,0,0,-1,1014,659,0,0
-203,365,0,0,0,0,0,0,0,0,0,-1,1021,659,0,0
-196,365,0,0,0,0,0,0,0,0,0,-1,1028,659,0,0
-189,365,0,0,0,0,0,0,0,0,0,-1,1035,659,0,0
-182,365,0,0,0,0,0,0,0,0,0,-1,1042,659,0,0
-175,365,0,0,0,0,0,0,0,0,0,-1,1049,659,0,0
-168,365,0,0,0,0,0,0,0,0,0,-1,1056,659,0,0
-161,365,0,0,0,0,0,0,0,0,0,-1,1063,659,0,0
-154,365,0,0,0,0,0,0,0,0,0,-1,1070,659,0,0
-147,365,0,0,0,0,0,0,0,0,0,-1,1077,659,0,0
-140,365,0,0,0,0,0,0,0,0,0,-1,1084,659,0,0
-133,365,0,0,0,0,0,0,0,0,0,-1,1091,659,0,0
-126,365,0,0,0,0,0,0,0,0,0,-1,1098,659,0,0
-119,365,0,0,0,0,0,0,0,0,0,-1,1105,659,0,0
-112,365,0,0,0,0,0,0,0,0,0,-1,1112,659,0,0
-105,365,0,0,0,0,0,0,0,0,0,-1,1119,659,0,0
-98,365,0,0,0,0,0,0,0,0,0,-1,1126,659,0,0
-91,365,0,0,0,0,0,0,0,0,0,-1,1133,659,0,0
-84,365,0,0,0,0,0,0,0,0,0,-1,1140,659,0,0
-77,365,0,0,0,0,0,0,0,0,0,-1,1147,659,0,0
-70,365,0,0,0,0,0,0,0,0,0,-1,1154,659,0,0
-63,365,0,0,0,0,0,0,0,0,0,-1,1161,659,0,0
-56,365,0,0,0,0,0,0,0,0,0,-1,1168,659,0,0
-49,365,0,0,0,0,0,0,0,0,0,-1,1175,659,0,0
-42,365,0,0,0,0,0,0,0,0,0,-1,1182,659,0,0
-35,365,0,0,0,0,0,0,0,0,0,-1,1189,659,0,0
-28,365,0,0,0,0,0,0,0,0,0,-1,1196,659,0,0
-21,365,0,0,0,0,0,0,0,0,0,-1,1203,659,0,0
-14,365,0,0,0,0,0,0,0,0,0,-1,1210,659,0,0
-7,365,0,0,0,0,0,0,0,0,0,-1,1217,659,0,0
0,365,0,0,0,0,0,0,0,0,0,-1,1224,659,0,0
7,365,0,0,0,0,0,0,0,0,0,-1,1231,659,0,0
14,365,0,0,0,0,0,0,0,0,0,-1,1238,659,0,0
21,365,0,0,0,0,0,0,0,0,0,-1,1245,659,0,0
28,365,0,0,0,0,0,0,0,0,0,-1,1252,659,0,0
35,365,0,0,0,0,0,0,0,0,0,-1,1259,659,0,0
42,365,0,0,0,0,0,0,0,0,0,-1,1266,659,0,0
49,365,0,0,0,0,0,0,0,0,0,-1,1273,659,0,0
56,365,0,0,0,0,0,0,0,0,0,-1,1280,659,0,0
63,365,0,0,0,0,0,0,0,0,0,-1,1287,659,0,0
70,365,0,0,0,0,0,0,0,0,0,-1,1294,659,0,0
77,365,0,0,0,0,0,0,0,0,0,-1,1301,659,0,0
84,365,0,0,0,0,0,0,0,0,0,-1,1308,659,0,0
91,365,0,0,0,0,0,0,0,0,0,-1,1315,659,0,0
98,365,0,0,0,0,0,0,0,0,0,-1,1322,659,0,0
105,365,0,0,0,0,0,0,0,0,0,-1,1329,659,0,0
112,365,0,0,0,0,0,0,0,0,0,-1,1336,659,0,0
119,365,0,0,0,0,0,0,0,0,0,-1,1343,659,0,0
126,365,0,0,0,0,0,0,0,0,0,-1,1350,659,0,0
133,365,0,0,0,0,0,0,0,0,0,-1,1357,659,0,0
140,365,0,0,0,0,0,0,0,0,0,-1,1364,659,0,0
147,365,0,0,0,0,0,0,0,0,0,-1,1371,659,0,0
154,365,0,0,0,0,0,0,0,0,0,-1,1378,659,0,0
161,365,0,0,0,0,0,0,0,0,0,-1,1385,659,0,0
168,365,0,0,0,0,0,0,0,0,0,-1,1392,659,0,0
175,365,0,0,0,0,0,0,0,0,0,-1,1399,659,0,0
182,365,0,0,0,0,0,0,0,0,0,-1,1406,659,0,0
189,365,0,0,0,0,0,0,0,0,0,-1,1413,659,0,0
196,365,0,0,0,0,0,0,0,0,0,-1,1420,659,0,0
203,365,0,0,0,0,0,0,0,0,0,-1,1427,659,0,0
210,365,0,0,0,0,0,0,0,0,0,-1,1434,659,0,0
217,365,0,0,0,0,0,0,0,0,0,-1,1441,659,0,0
224,365,0,0,0,0,0,0,0,0,0,-1,1448,659,0,0
231,365,0,0,0,0,0,0,0,0,0,-1,1455,659,0,0
238,365,0,0,0,0,0,0,0,0,0,-1,1462,659,0,0
245,365,0,0,0,0,0,0,0,0,0,-1,1469,659,0,0
252,365,0,0,0,0,0,0,0,0,0,-1,1476,659,0,0
259,365,0,0,0,0,0,0,0,0,0,-1,1483,659,0,0
266,365,0,0,0,0,0,0,0,0,0,-1,1490,659,0,0
273,365,0,0,0,0,0,0,0,0,0,-1,1497,659,0,0
280,365,0,0,0,0,0,0,0,0,0,-1,1504,659,0,0
287,365,0,0,0,0,0,0,0,0,0,-1,1511,659,0,0
294,365,0,0,0,0,0,0,0,0,0,-1,1518,659,0,0
301,365,0,0,0,0,0,0,0,0,0,-1,1525,659,0,0
308,365,0,0,0,0,0,0,0,0,0,-1,1532,659,0,0
315,365,0,0,0,0,0,0,0,0,0,-1,1539,659,0,0
322,365,0,0,0,0,0,0,0,0,0,-1,1546,659,0,0
329,365,0,0,0,0,0,0,0,0,0,-1,1553,659,0,0
336,365,0,0,0,0,0,0,0,0,0,-1,1560,659,0,0
343,365,0,0,0,0,0,0,0,0,0,-1,1567,659,0,0
350,365,0,0,0,0,0,0,0,0,0,-1,1574,659,0,0
357,365,0,0,0,0,0,0,0,0,0,-1,1581,659,0,0
364,365,0,0,0,0,0,0,0,0,0,-1,1588,659,0,0
371,365,0,0,0,0,0,0,0,0,0,-1,1595,659,0,0
378,365,0,0,0,0,0,0,0,0,0,-1,1602,659,0,0
385,365,0,0,0,0,0,0,0,0,0,-1,1609,659,0,0
392,365,0,0,0,0,0,0,0,0,0,-1,1616,659,0,0
399,365,0,0,0,0,0,0,0,0,0,-1,1623,659,0,0
406,365,0,0,0,0,0,0,0,0,0,-1,1630,659,0,0
413,365,0,0,0,0,0,0,0,0,0,-1,1637,659,0,0
420,365,0,0,0,0,0,0,0,0,0,-1,1644,659,0,0
427,365,0,0,0,0,0,0,0,0,0,-1,1651,659,0,0
434,365,0,0,0,0,0,0,0,0,0,-1,1658,659,0,0
441,365,0,0,0,0,0,0,0,0,0,-1,1665,659,0,0
448,365,0,0,0,0,0,0,0,0,0,-1,1672,659,0,0
455,365,0,0,0,0,0,0,0,0,0,-1,1679,659,0,0
462,365,0,0,0,0,0,0,0,0,0,-1,1686,659,0,0
469,365,0,0,0,0,0,0,0,0,0,-1,1693,659,0,0
476,365,0,0,0,0,0,0,0,0,0,-1,1700,659,0,0
483,365,0,0,0,0,0,0,0,0,0,-1,1707,659,0,0
490,365,8.39551,0.471252,0,0,0,0,0,0,0,-1,1714,659,8.39551,-0.471241
497,365,9.89233,1.35394,0,0,0,0,0,0,0,-1,1721,659,9.89237,-1.35396
504,365,10.1414,1.18005,0,0,0,0,0,0,0,-1,1728,659,10.1413,-1.18004
511,365,10.5151,0.993896,0,0,0,0,0,0,0,-1,1735,659,10.5152,-0.993894
518,365,11.2029,0.398132,0,0,0,0,0,0,0,-1,1742,659,11.2029,-0.398136
525,365,15.5748,3.85303,0,0,0,0,0,0,0,-1,1749,659,15.5748,-3.85303
532,365,11.2446,1.00629,0,0,0,0,0,0,0,-1,1756,659,11.2446,-1.00631
539,365,12.6301,1.03204,0,0,0,0,0,0,0,-1,1763,659,12.6302,-1.03204
546,365,11.647,0.84198,0,0,0,0,0,0,0,-1,1770,659,11.6469,-0.841955
553,365,12.028,-0.558899,0,0,0,0,0,0,0,-1,1777,659,12.028,0.558873
560,365,11.0236,-3.2124,0,0,0,0,0,0,0,-1,1784,659,11.0235,3.21242
567,365,10.9912,-2.16528,0,0,0,0,0,0,0,-1,1791,659,10.9912,2.1653
574,365,11.0963,-1.74854,-0.0105155,-0.000246191,-0.00402112,0.00114097,-0.0119027,-1.23861,0.0083415,0.040468,1798,659,11.0963,1.74852
581,365,10.9219,-1.49231,-0.00820616,-0.000694071,-0.00342665,0.000634157,-0.00953439,-1.20101,0.00657784,0.0194501,1805,659,10.9219,1.49231
588,365,10.881,-1.21765,-0.00599039,-0.000734967,-0.00267768,0.000388967,-0.00711432,-1.17339,0.00487771,0.0119814,1812,659,10.881,1.21766
595,365,10.8962,-0.919617,-0.00403569,-0.000556884,-0.0019146,0.000290453,-0.00488302,-1.15414,0.00335636,0.012214,1819,659,10.8962,0.919639
602,365,10.9086,-0.660156,-0.00235294,-0.000160875,-0.0011325,0.000319114,-0.00283293,-1.16992,0.00200348,0.0140045,1826,659,10.9085,0.660179
609,365,10.8617,-0.418213,-0.00119696,0.000377939,-0.000456304,0.000500593,-0.00131962,-1.3082,0.00108578,0.0147145,1833,659,10.8617,0.418222
616,365,10.8728,-0.154724,-0.00044719,0.000580769,-0.000106343,0.000591655,-0.000458076,-1.46879,0.000607696,0.0159517,1840,659,10.8728,0.15473
623,365,10.9138,0.119446,0.000118689,0.00122111,0.000120709,0.00123417,0.000105627,1.463,0.000789929,0.0115383,1847,659,10.9138,-0.11946
630,365,10.8845,0.373535,0.000744369,0.00192447,0.000109309,0.00193451,0.00073433,1.47921,0.00112763,0.0152344,1854,659,10.8845,-0.373548
637,365,10.8741,0.568359,0.000815958,0.00261559,-0.000176207,0.00263268,0.000798868,-1.47411,0.00155864,0.0206334,1861,659,10.8741,-0.568379
644,365,10.9187,0.824219,0.000726767,0.00330377,-0.000844913,0.00355608,0.000474452,-1.2806,0.00222946,0.0151699,1868,659,10.9188,-0.824215
651,365,11.0392,1.15228,0.00094788,0.00419888,-0.00177891,0.0049831,0.000163658,-1.15558,0.00326888,0.027427,1875,659,11.0392,-1.15227
658,365,10.7316,1.22839,0.00163221,0.00536012,-0.00307454,0.00709159,-9.92648e-05,-1.0579,0.00476116,0.0447803,1882,659,10.7316,-1.22837
665,365,10.4165,1.5368,0,0,0,0,0,0,0,-1,1889,659,10.4166,-1.53679
672,365,10.0579,2.15088,0,0,0,0,0,0,0,-1,1896,659,10.0579,-2.15088
679,365,10.9718,2.19208,0,0,0,0,0,0,0,-1,1903,659,10.9718,-2.19211
686,365,12.2134,2.17108,0,0,0,0,0,0,0,-1,1910,659,12.2134,-2.17109
693,365,13.7141,1.98279,0,0,0,0,0,0,0,-1,1917,659,13.7141,-1.98278
700,365,0,0,0,0,0,0,0,0,0,-1,1924,659,0,0
707,365,0,0,0,0,0,0,0,0,0,-1,1931,659,0,0
714,365,0,0,0,0,0,0,0,0,0,-1,1938,659,0,0
721,365,0,0,0,0,0,0,0,0,0,-1,1945,659,0,0
728,365,0,0,0,0,0,0,0,0,0,-1,1952,659,0,0
735,365,0,0,0,0,0,0,0,0,0,-1,1959,659,0,0
742,365,0,0,0,0,0,0,0,0,0,-1,1966,659,0,0
749,365,0,0,0,0,0,0,0,0,0,-1,1973,659,0,0
756,365,0,0,0,0,0,0,0,0,0,-1,1980,659,0,0
763,365,0,0,0,0,0,0,0,0,0,-1,1987,659,0,0
770,365,0,0,0,0,0,0,0,0,0,-1,1994,659,0,0
777,365,0,0,0,0,0,0,0,0,0,-1,2001,659,0,0
784,365,0,0,0,0,0,0,0,0,0,-1,2008,659,0,0
791,365,0,0,0,0,0,0,0,0,0,-1,2015,659,0,0
798,365,0,0,0,0,0,0,0,0,0,-1,2022,659,0,0
805,365,0,0,0,0,0,0,0,0,0,-1,2029,659,0,0
812,365,0,0,0,0,0,0,0,0,0,-1,2036,659,0,0
-700,358,0,0,0,0,0,0,0,0,0,-1,524,666,0,0
-693,358,0,0,0,0,0,0,0,0,0,-1,531,666,0,0
-686,358,0,0,0,0,0,0,0,0,0,-1,538,666,0,0
-679,358,0,0,0,0,0,0,0,0,0,-1,545,666,0,0
-672,358,0,0,0,0,0,0,0,0,0,-1,552,666,0,0
-665,358,0,0,0,0,0,0,0,0,0,-1,559,666,0,0
-658,358,0,0,0,0,0,0,0,0,0,-1,566,666,0,0
-651,358,0,0,0,0,0,0,0,0,0,-1,573,666,0,0
-644,358,0,0,0,0,0,0,0,0,0,-1,580,666,0,0
-637,358,0,0,0,0,0,0,0,0,0,-1,587,666,0,0
-630,358,0,0,0,0,0,0,0,0,0,-1,594,666,0,0
-623,358,0,0,0,0,0,0,0,0,0,-1,601,666,0,0
-616,358,0,0,0,0,0,0,0,0,0,-1,608,666,0,0
-609,358,0,0,0,0,0,0,0,0,0,-1,615,666,0,0
-602,358,0,0,0,0,0,0,0,0,0,-1,622,666,0,0
-595,358,0,0,0,0,0,0,0,0,0,-1,629,666,0,0
-588,358,0,0,0,0,0,0,0,0,0,-1,636,666,0,0
-581,358,-5.15869,4.84088,0,0,0,0,0,0,0,-1,643,666,-5.15868,-4.84087
-574,358,-4.90881,4.24939,0,0,0,0,0,0,0,-1,650,666,-4.90881,-4.24939
-567,358,-4.12598,3.14642,0,0,0,0,0,0,0,-1,657,666,-4.126,-3.14645
-560,358,-4.12036,2.31384,0,0,0,0,0,0,0,-1,664,666,-4.12039,-2.31382
-553,358,-5.86536,0.474487,0,0,0,0,0,0,0,-1,671,666,-5.86535,-0.474491
-546,358,-5.52942,0.226624,0,0,0,0,0,0,0,-1,678,666,-5.52942,-0.226646
-539,358,-5.18878,0.152954,0.000887099,0.0237186,-0.00881382,0.0267252,-0.00211945,-1.24206,0.0185636,0.0444072,685,666,-5.18879,-0.152956
-532,358,-5.12842,-0.209351,1.15148e-05,0.0161227,-0.00635193,0.0183257,-0.00219153,-1.23695,0.0130093,0.0413949,692,666,-5.12841,0.209329
-525,358,-5.04022,-0.827454,-0.000565401,0.0107282,-0.00438466,0.0122306,-0.00206784,-1.24068,0.00892324,0.0294112,699,666,-5.04023,0.82743
-518,358,-4.99622,-0.919434,-0.0008228,0.00697979,-0.00286581,0.00791926,-0.00176227,-1.25402,0.0059545,0.0254948,706,666,-4.99622,0.919459
-511,358,-5.08051,-1.19458,-0.000782408,0.00431673,-0.00176298,0.0048669,-0.00133258,-1.2683,0.00376817,0.0146514,713,666,-5.0805,1.19455
-504,358,-5.0827,-1.43457,-0.000520238,0.00201344,-0.00105054,0.00239236,-0.000899153,-1.22463,0.00196445,0.0114464,720,666,-5.08271,1.43459
-497,358,-5.07843,-1.69171,-0.000122509,0.000863746,-0.000527392,0.00109264,-0.000351404,-1.16132,0.000869561,0.0108761,727,666,-5.0784,1.69172
-490,358,-5.0816,-1.92792,0.000471591,0.000239896,-0.000257544,0.000638144,7.33437e-05,-0.574048,0.000403211,0.0101316,734,666,-5.08161,1.9279
-483,358,-5.09735,-2.15393,0.00108887,-0.000123502,-0.000321514,0.00116885,-0.000203488,-0.243831,0.000855174,0.00990984,741,666,-5.09736,2.15392
-476,358,-5.08521,-2.39258,0.00188959,-0.00012284,-0.000608666,0.00205936,-0.000292612,-0.27201,0.00148012,0.0112928,748,666,-5.08519,2.39257
-469,358,-5.07874,-2.60834,0.00249133,-0.000327541,-0.000915291,0.00276245,-0.000598661,-0.287977,0.00207024,0.01308,755,666,-5.07873,2.60837
-462,358,-5.08075,-2.84918,0.00276903,-0.000612314,-0.00111742,0.00310493,-0.000948215,-0.292011,0.00244802,0.0158626,762,666,-5.08075,2.84916
-455,358,-5.05542,-3.12549,0.0026911,-0.000740922,-0.00105061,0.00298718,-0.001037,-0.274686,0.00241258,0.0211113,769,666,-5.05541,3.12547
-448,358,-4.92181,-3.52722,0,0,0,0,0,0,0,-1,776,666,-4.9218,3.52721
-441,358,-5.26093,-3.75592,0,0,0,0,0,0,0,-1,783,666,-5.26095,3.75589
-434,358,-5.21558,-4.43127,0,0,0,0,0,0,0,-1,790,666,-5.21559,4.43125
-427,358,-3.56189,-3.15729,0,0,0,0,0,0,0,-1,797,666,-3.56192,3.15729
-420,358,0.200195,1.08234,0,0,0,0,0,0,0,-1,804,666,0.200174,-1.08231
-413,358,0.0325317,0.161072,0,0,0,0,0,0,0,-1,811,666,0.0325501,-0.161098
-406,358,-3.85846,0.753113,0,0,0,0,0,0,0,-1,818,666,-3.85846,-0.753129
-399,358,-1.31213,0.190735,0,0,0,0,0,0,0,-1,825,666,-1.31215,-0.190763
-392,358,-3.73914,-0.832214,0,0,0,0,0,0,0,-1,832,666,-3.73915,0.832202
-385,358,-5.95178,-1.69141,0,0,0,0,0,0,0,-1,839,666,-5.9518,1.69143
-378,358,0,0,0,0,0,0,0,0,0,-1,846,666,0,0
-371,358,0,0,0,0,0,0,0,0,0,-1,853,666,0,0
-364,358,0,0,0,0,0,0,0,0,0,-1,860,666,0,0
-357,358,0,0,0,0,0,0,0,0,0,-1,867,666,0,0
-350,358,0,0,0,0,0,0,0,0,0,-1,874,666,0,0
-343,358,0,0,0,0,0,0,0,0,0,-1,881,666,0,0
-336,358,0,0,0,0,0,0,0,0,0,-1,888,666,0,0
-329,358,0,0,0,0,0,0,0,0,0,-1,895,666,0,0
-322,358,0,0,0,0,0,0,0,0,0,-1,902,666,0,0
-315,358,0,0,0,0,0,0,0,0,0,-1,909,666,0,0
-308,358,0,0,0,0,0,0,0,0,0,-1,916,666,0,0
-301,358,0,0,0,0,0,0,0,0,0,-1,923,666,0,0
-294,358,0,0,0,0,0,0,0,0,0,-1,930,666,0,0
-287,358,0,0,0,0,0,0,0,0,0,-1,937,666,0,0
-280,358,0,0,0,0,0,0,0,0,0,-1,944,666,0,0
-273,358,0,0,0,0,0,0,0,0,0,-1,951,666,0,0
-266,358,0,0,0,0,0,0,0,0,0,-1,958,666,0,0
-259,358,0,0,0,0,0,0,0,0,0,-1,965,666,0,0
-252,358,0,0,0,0,0,0,0,0,0,-1,972,666,0,0
-245,358,0,0,0,0,0,0,0,0,0,-1,979,666,0,0
-238,358,0,0,0,0,0,0,0,0,0,-1,986,666,0,0
-231,358,0,0,0,0,0,0,0,0,0,-1,993,666,0,0
-224,358,0,0,0,0,0,0,0,0,0,-1,1000,666,0,0
-217,358,0,0,0,0,0,0,0,0,0,-1,1007,666,0,0
-210,358,0,0,0,0,0,0,0,0,0,-1,1014,666,0,0
-203,358,0,0,0,0,0,0,0,0,0,-1,1021,666,0,0
-196,358,0,0,0,0,0,0,0,0,0,-1,1028,666,0,0
-189,358,0,0,0,0,0,0,0,0,0,-1,1035,666,0,0
-182,358,0,0,0,0,0,0,0,0,0,-1,1042,666,0,0
-175,358,0,0,0,0,0,0,0,0,0,-1,1049,666,0,0
-168,358,0,0,0,0,0,0,0,0,0,-1,1056,666,0,0
-161,358,0,0,0,0,0,0,0,0,0,-1,1063,666,0,0
-154,358,0,0,0,0,0,0,0,0,0,-1,1070,666,0,0
-147,358,0,0,0,0,0,0,0,0,0,-1,1077,666,0,0
-140,358,0,0,0,0,0,0,0,0,0,-1,1084,666,0,0
-133,358,0,0,0,0,0,0,0,0,0,-1,1091,666,0,0
-126,358,0,0,0,0,0,0,0,0,0,-1,1098,666,0,0
-119,358,0,0,0,0,0,0,0,0,0,-1,1105,666,0,0
-112,358,0,0,0,0,0,0,0,0,0,-1,1112,666,0,0
-105,358,0,0,0,0,0,0,0,0,0,-1,1119,666,0,0
-98,358,0,0,0,0,0,0,0,0,0,-1,1126,666,0,0
-91,358,0,0,0,0,0,0,0,0,0,-1,1133,666,0,0
-84,358,0,0,0,0,0,0,0,0,0,-1,1140,666,0,0
-77,358,0,0,0,0,0,0,0,0,0,-1,1147,666,0,0
-70,358,0,0,0,0,0,0,0,0,0,-1,1154,666,0,0
-63,358,0,0,0,0,0,0,0,0,0,-1,1161,666,0,0
-56,358,0,0,0,0,0,0,0,0,0,-1,1168,666,0,0
-49,358,0,0,0,0,0,0,0,0,0,-1,1175,666,0,0
-42,358,0,0,0,0,0,0,0,0,0,-1,1182,666,0,0
-35,358,0,0,0,0,0,0,0,0,0,-1,1189,666,0,0
-28,358,0,0,0,0,0,0,0,0,0,-1,1196,666,0,0
-21,358,0,0,0,0,0,0,0,0,0,-1,1203,666,0,0
-14,358,0,0,0,0,0,0,0,0,0,-1,1210,666,0,0
-7,358,0,0,0,0,0,0,0,0,0,-1,1217,666,0,0
0,358,0,0,0,0,0,0,0,0,0,-1,1224,666,0,0
7,358,0,0,0,0,0,0,0,0,0,-1,1231,666,0,0
14,358,0,0,0,0,0,0,0,0,0,-1,1238,666,0,0
21,358,0,0,0,0,0,0,0,0,0,-1,1245,666,0,0
28,358,0,0,0,0,0,0,0,0,0,-1,1252,666,0,0
35,358,0,0,0,0,0,0,0,0,0,-1,1259,666,0,0
42,358,0,0,0,0,0,0,0,0,0,-1,1266,666,0,0
49,358,0,0,0,0,0,0,0,0,0,-1,1273,666,0,0
56,358,0,0,0,0,0,0,0,0,0,-1,1280,666,0,0
63,358,0,0,0,0,0,0,0,0,0,-1,1287,666,0,0
70,358,0,0,0,0,0,0,0,0,0,-1,1294,666,0,0
77,358,0,0,0,0,0,0,0,0,0,-1,1301,666,0,0
84,358,0,0,0,0,0,0,0,0,0,-1,1308,666,0,0
91,358,0,0,0,0,0,0,0,0,0,-1,1315,666,0,0
98,358,0,0,0,0,0,0,0,0,0,-1,1322,666,0,0
105,358,0,0,0,0,0,0,0,0,0,-1,1329,666,0,0
112,358,0,0,0,0,0,0,0,0,0,-1,1336,666,0,0
119,358,0,0,0,0,0,0,0,0,0,-1,1343,666,0,0
126,358,0,0,0,0,0,0,0,0,0,-1,1350,666,0,0
133,358,0,0,0,0,0,0,0,0,0,-1,1357,666,0,0
140,358,0,0,0,0,0,0,0,0,0,-1,1364,666,0,0
147,358,0,0,0,0,0,0,0,0,0,-1,1371,666,0,0
154,358,0,0,0,0,0,0,0,0,0,-1,1378,666,0,0
161,358,0,0,0,0,0,0,0,0,0,-1,1385,666,0,0
168,358,0,0,0,0,0,0,0,0,0,-1,1392,666,0,0
175,358,0,0,0,0,0,0,0,0,0,-1,1399,666,0,0
182,358,0,0,0,0,0,0,0,0,0,-1,1406,666,0,0
189,358,0,0,0,0,0,0,0,0,0,-1,1413,666,0,0
196,358,0,0,0,0,0,0,0,0,0,-1,1420,666,0,0
203,358,0,0,0,0,0,0,0,0,0,-1,1427,666,0,0
210,358,0,0,0,0,0,0,0,0,0,-1,1434,666,0,0
217,358,0,0,0,0,0,0,0,0,0,-1,1441,666,0,0
224,358,0,0,0,0,0,0,0,0,0,-1,1448,666,0,0
231,358,0,0,0,0,0,0,0,0,0,-1,1455,666,0,0
238,358,0,0,0,0,0,0,0,0,0,-1,1462,666,0,0
245,358,0,0,0,0,0,0,0,0,0,-1,1469,666,0,0
252,358,0,0,0,0,0,0,0,0,0,-1,1476,666,0,0
259,358,0,0,0,0,0,0,0,0,0,-1,1483,666,0,0
266,358,0,0,0,0,0,0,0,0,0,-1,1490,666,0,0
273,358,0,0,0,0,0,0,0,0,0,-1,1497,666,0,0
280,358,0,0,0,0,0,0,0,0,0,-1,1504,666,0,0
287,358,0,0,0,0,0,0,0,0,0,-1,1511,666,0,0
294,358,0,0,0,0,0,0,0,0,0,-1,1518,666,0,0
301,358,0,0,0,0,0,0,0,0,0,-1,1525,666,0,0
308,358,0,0,0,0,0,0,0,0,0,-1,1532,666,0,0
315,358,0,0,0,0,0,0,0,0,0,-1,1539,666,0,0
322,358,0,0,0,0,0,0,0,0,0,-1,1546,666,0,0
329,358,0,0,0,0,0,0,0,0,0,-1,1553,666,0,0
336,358,0,0,0,0,0,0,0,0,0,-1,1560,666,0,0
343,358,0,0,0,0,0,0,0,0,0,-1,1567,666,0,0
350,358,0,0,0,0,0,0,0,0,0,-1,1574,666,0,0
357,358,0,0,0,0,0,0,0,0,0,-1,1581,666,0,0
364,358,0,0,0,0,0,0,0,0,0,-1,1588,666,0,0
371,358,0,0,0,0,0,0,0,0,0,-1,1595,666,0,0
378,358,0,0,0,0,0,0,0,0,0,-1,1602,666,0,0
385,358,0,0,0,0,0,0,0,0,0,-1,1609,666,0,0
392,358,0,0,0,0,0,0,0,0,0,-1,1616,666,0,0
399,358,0,0,0,0,0,0,0,0,0,-1,1623,666,0,0
406,358,0,0,0,0,0,0,0,0,0,-1,1630,666,0,0
413,358,0,0,0,0,0,0,0,0,0,-1,1637,666,0,0
420,358,0,0,0,0,0,0,0,0,0,-1,1644,666,0,0
427,358,0,0,0,0,0,0,0,0,0,-1,1651,666,0,0
434,358,0,0,0,0,0,0,0,0,0,-1,1658,666,0,0
441,358,0,0,0,0,0,0,0,0,0,-1,1665,666,0,0
448,358,0,0,0,0,0,0,0,0,0,-1,1672,666,0,0
455,358,0,0,0,0,0,0,0,0,0,-1,1679,666,0,0
462,358,0,0,0,0,0,0,0,0,0,-1,1686,666,0,0
469,358,0,0,0,0,0,0,0,0,0,-1,1693,666,0,0
476,358,0,0,0,0,0,0,0,0,0,-1,1700,666,0,0
483,358,0,0,0,0,0,0,0,0,0,-1,1707,666,0,0
490,358,0,0,0,0,0,0,0,0,0,-1,1714,666,0,0
497,358,8.57239,1.1322,0,0,0,0,0,0,0,-1,1721,666,8.57234,-1.13219
504,358,10.5972,0.832947,0,0,0,0,0,0,0,-1,1728,666,10.5972,-0.832968
511,358,10.6873,0.868469,0,0,0,0,0,0,0,-1,1735,666,10.6872,-0.868484
518,358,16.5884,2.34894,0,0,0,0,0,0,0,-1,1742,666,16.5884,-2.34894
525,358,15.7626,3.65344,0,0,0,0,0,0,0,-1,1749,666,15.7626,-3.65342
532,358,14.9368,4.95789,0,0,0,0,0,0,0,-1,1756,666,14.9367,-4.9579
539,358,15.1597,3.42694,0,0,0,0,0,0,0,-1,1763,666,15.1597,-3.42692
546,358,12.3792,1.53558,0,0,0,0,0,0,0,-1,1770,666,12.3792,-1.5356
553,358,11.6584,1.26172,0,0,0,0,0,0,0,-1,1777,666,11.6585,-1.26175
560,358,10.8234,1.43042,0,0,0,0,0,0,0,-1,1784,666,10.8233,-1.43041
567,358,10.1333,-0.955139,0,0,0,0,0,0,0,-1,1791,666,10.1333,0.955132
574,358,11.5642,-1.94647,0,0,0,0,0,0,0,-1,1798,666,11.5642,1.9465
581,358,11.3029,-1.42236,-0.0112594,0.000513318,-0.00367441,0.00156602,-0.0123121,-1.29177,0.00877674,0.0317984,1805,666,11.3029,1.42235
588,358,11.1039,-1.21857,-0.00833755,2.49514e-05,-0.0029023,0.000933514,-0.00924612,-1.26741,0.00649764,0.0165151,1812,666,11.1039,1.21859
595,358,11.1489,-0.912109,-0.00583136,-0.000164619,-0.00213925,0.000552275,-0.00654826,-1.24744,0.00456076,0.0115889,1819,666,11.1489,0.912119
602,358,11.1412,-0.64679,-0.0036899,-9.98857e-05,-0.00138684,0.000373448,-0.00416323,-1.24189,0.00290797,0.0123962,1826,666,11.1412,0.646792
609,358,11.1029,-0.409119,-0.00212738,0.000228593,-0.00071979,0.000431096,-0.00232988,-1.29655,0.00171511,0.0156795,1833,666,11.103,0.40912
616,358,11.0999,-0.147217,-0.00110284,0.000211962,-0.000410441,0.000329569,-0.00122044,-1.29173,0.000942885,0.0148938,1840,666,11.0998,0.147198
623,358,11.1499,0.112671,-0.000384606,0.000666216,-0.00022533,0.000712496,-0.000430886,-1.36823,0.000666772,0.013952,1847,666,11.1499,-0.112694
630,358,11.1235,0.348267,0.00032539,0.00117727,-0.000249588,0.00124501,0.000257651,-1.30578,0.000758843,0.0175328,1854,666,11.1235,-0.348276
637,358,11.0959,0.570007,0.000592615,0.00183549,-0.000451364,0.00198211,0.000445994,-1.25671,0.00120068,0.0236377,1861,666,11.096,-0.570013
644,358,11.1581,0.831421,0.000533148,0.00239675,-0.00109886,0.00290569,2.42032e-05,-1.13706,0.00192911,0.0187398,1868,666,11.1581,-0.831434
651,358,11.2368,1.16028,0.000699828,0.00310776,-0.00199105,0.00423056,-0.00042297,-1.05733,0.00297141,0.019497,1875,666,11.2368,-1.16025
658,358,10.9958,1.37213,0.00127126,0.00403983,-0.00315976,0.00610522,-0.000794136,-0.991854,0.00435904,0.0351761,1882,666,10.9959,-1.37213
665,358,10.7646,1.53363,0.00255081,0.00533796,-0.0045914,0.00874262,-0.000853849,-0.932739,0.00613287,0.0460697,1889,666,10.7646,-1.53366
672,358,10.6409,1.81342,0,0,0,0,0,0,0,-1,1896,666,10.6408,-1.81344
679,358,11.2441,2.52136,0,0,0,0,0,0,0,-1,1903,666,11.2441,-2.52135
686,358,11.9557,2.2002,0,0,0,0,0,0,0,-1,1910,666,11.9557,-2.20021
693,358,13.188,2.52203,0,0,0,0,0,0,0,-1,1917,666,13.188,-2.52202
700,358,0,0,0,0,0,0,0,0,0,-1,1924,666,0,0
707,358,0,0,0,0,0,0,0,0,0,-1,1931,666,0,0
714,358,0,0,0,0,0,0,0,0,0,-1,1938,666,0,0
721,358,0,0,0,0,0,0,0,0,0,-1,1945,666,0,0
728,358,0,0,0,0,0,0,0,0,0,-1,1952,666,0,0
735,358,0,0,0,0,0,0,0,0,0,-1,1959,666,0,0
742,358,0,0,0,0,0,0,0,0,0,-1,1966,666,0,0
749,358,0,0,0,0,0,0,0,0,0,-1,1973,666,0,0
756,358,0,0,0,0,0,0,0,0,0,-1,1980,666,0,0
763,358,0,0,0,0,0,0,0,0,0,-1,1987,666,0,0
770,358,0,0,0,0,0,0,0,0,0,-1,1994,666,0,0
777,358,0,0,0,0,0,0,0,0,0,-1,2001,666,0,0
784,358,0,0,0,0,0,0,0,0,0,-1,2008,666,0,0
791,358,0,0,0,0,0,0,0,0,0,-1,2015,666,0,0
798,358,0,0,0,0,0,0,0,0,0,-1,2022,666,0,0
805,358,0,0,0,0,0,0,0,0,0,-1,2029,666,0,0
812,358,0,0,0,0,0,0,0,0,0,-1,2036,666,0,0
-700,351,0,0,0,0,0,0,0,0,0,-1,524,673,0,0
-693,351,0,0,0,0,0,0,0,0,0,-1,531,673,0,0
-686,351,0,0,0,0,0,0,0,0,0,-1,538,673,0,0
-679,351,0,0,0,0,0,0,0,0,0,-1,545,673,0,0
-672,351,0,0,0,0,0,0,0,0,0,-1,552,673,0,0
-665,351,0,0,0,0,0,0,0,0,0,-1,559,673,0,0
-658,351,0,0,0,0,0,0,0,0,0,-1,566,673,0,0
-651,351,0,0,0,0,0,0,0,0,0,-1,573,673,0,0
-644,351,0,0,0,0,0,0,0,0,0,-1,580,673,0,0
-637,351,0,0,0,0,0,0,0,0,0,-1,587,673,0,0
-630,351,0,0,0,0,0,0,0,0,0,-1,594,673,0,0
-623,351,0,0,0,0,0,0,0,0,0,-1,601,673,0,0
-616,351,0,0,0,0,0,0,0,0,0,-1,608,673,0,0
-609,351,0,0,0,0,0,0,0,0,0,-1,615,673,0,0
-602,351,0,0,0,0,0,0,0,0,0,-1,622,673,0,0
-595,351,0,0,0,0,0,0,0,0,0,-1,629,673,0,0
-588,351,0,0,0,0,0,0,0,0,0,-1,636,673,0,0
-581,351,-4.08875,0.467529,0,0,0,0,0,0,0,-1,643,673,-4.08874,-0.467548
-574,351,-5.33008,3.91156,0,0,0,0,0,0,0,-1,650,673,-5.33009,-3.91156
-567,351,-4.18726,3.02448,0,0,0,0,0,0,0,-1,657,673,-4.18727,-3.0245
-560,351,-4.25867,2.12225,0,0,0,0,0,0,0,-1,664,673,-4.25865,-2.12224
-553,351,-4.08002,0.919495,0,0,0,0,0,0,0,-1,671,673,-4.08002,-0.919468
-546,351,-5.8479,-0.104309,0,0,0,0,0,0,0,-1,678,673,-5.8479,0.104294
-539,351,-5.49158,-0.291809,0.000149011,0.0210008,-0.00661989,0.0229249,-0.00177508,-1.28794,0.015908,0.0436191,685,673,-5.49161,0.29181
-532,351,-5.19977,-0.538269,-0.000224483,0.014641,-0.0049938,0.0161628,-0.00174628,-1.275,0.0114019,0.030251,692,673,-5.19977,0.53827
-525,351,-5.29132,-0.820679,-0.000445181,0.00999625,-0.00361556,0.011126,-0.00157491,-1.26794,0.00799417,0.0195397,699,673,-5.29133,0.82069
-518,351,-5.32727,-0.954651,-0.000449703,0.0067234,-0.0025436,0.00753381,-0.00126011,-1.26236,0.00549099,0.0122693,706,673,-5.32728,0.954643
-511,351,-5.30591,-1.19678,-0.000249886,0.00425301,-0.00170402,0.00482515,-0.000822033,-1.24686,0.0035229,0.0108477,713,673,-5.30589,1.1968
-504,351,-5.31805,-1.44543,0.000115903,0.00201939,-0.00112842,0.00254384,-0.000408546,-1.13573,0.0018472,0.0102382,720,673,-5.31802,1.44544
-497,351,-5.32861,-1.67932,0.000552966,0.00087431,-0.000674006,0.00140653,2.07453e-05,-0.902406,0.000930849,0.00972086,727,673,-5.32864,1.67934
-490,351,-5.32373,-1.90204,0.00116527,0.000215933,-0.00043658,0.00133551,4.56882e-05,-0.371812,0.000875511,0.00906381,734,673,-5.32375,1.90206
-483,351,-5.3252,-2.13745,0.00185135,-0.000161479,-0.000491984,0.00196517,-0.000275296,-0.227343,0.00141086,0.0112018,741,673,-5.32517,2.13743
-476,351,-5.34534,-2.37842,0.00272512,-0.000224145,-0.000756404,0.0029078,-0.000406826,-0.236975,0.0020874,0.0111774,748,673,-5.34532,2.37839
-469,351,-5.33496,-2.58246,0.00339102,-0.000564831,-0.00107135,0.00366253,-0.000836343,-0.248205,0.00276299,0.0131223,755,673,-5.33493,2.58245
-462,351,-5.30933,-2.85944,0.00376728,-0.000999572,-0.00125807,0.00407894,-0.00131123,-0.242836,0.00324588,0.017106,762,673,-5.30934,2.85944
-455,351,-5.29236,-3.18408,0,0,0,0,0,0,0,-1,769,673,-5.29233,3.1841
-448,351,-4.98999,-3.08295,0,0,0,0,0,0,0,-1,776,673,-4.98998,3.08293
-441,351,-4.31567,-2.3009,0,0,0,0,0,0,0,-1,783,673,-4.31565,2.30089
-434,351,-3.81708,-2.28003,0,0,0,0,0,0,0,-1,790,673,-3.81706,2.28006
-427,351,-2.05157,-2.7785,0,0,0,0,0,0,0,-1,797,673,-2.05157,2.77848
-420,351,-1.06989,-2.43665,0,0,0,0,0,0,0,-1,804,673,-1.06991,2.43663
-413,351,-0.392334,-2.06671,0,0,0,0,0,0,0,-1,811,673,-0.392363,2.06672
-406,351,-1.86316,-2.58105,0,0,0,0,0,0,0,-1,818,673,-1.86313,2.58106
-399,351,1.00952,-1.53455,0,0,0,0,0,0,0,-1,825,673,1.00954,1.53457
-392,351,-1.02197,0.877136,0,0,0,0,0,0,0,-1,832,673,-1.02195,-0.877143
-385,351,-1.47205,1.04437,0,0,0,0,0,0,0,-1,839,673,-1.47207,-1.04435
-378,351,0,0,0,0,0,0,0,0,0,-1,846,673,0,0
-371,351,0,0,0,0,0,0,0,0,0,-1,853,673,0,0
-364,351,0,0,0,0,0,0,0,0,0,-1,860,673,0,0
-357,351,0,0,0,0,0,0,0,0,0,-1,867,673,0,0
-350,351,0,0,0,0,0,0,0,0,0,-1,874,673,0,0
-343,351,0,0,0,0,0,0,0,0,0,-1,881,673,0,0
-336,351,0,0,0,0,0,0,0,0,0,-1,888,673,0,0
-329,351,0,0,0,0,0,0,0,0,0,-1,895,673,0,0
-322,351,0,0,0,0,0,0,0,0,0,-1,902,673,0,0
-315,351,0,0,0,0,0,0,0,0,0,-1,909,673,0,0
-308,351,0,0,0,0,0,0,0,0,0,-1,916,673,0,0
-301,351,0,0,0,0,0,0,0,0,0,-1,923,673,0,0
-294,351,0,0,0,0,0,0,0,0,0,-1,930,673,0,0
-287,351,0,0,0,0,0,0,0,0,0,-1,937,673,0,0
-280,351,0,0,0,0,0,0,0,0,0,-1,944,673,0,0
-273,351,0,0,0,0,0,0,0,0,0,-1,951,673,0,0
-266,351,0,0,0,0,0,0,0,0,0,-1,958,673,0,0
-259,351,0,0,0,0,0,0,0,0,0,-1,965,673,0,0
-252,351,0,0,0,0,0,0,0,0,0,-1,972,673,0,0
-245,351,0,0,0,0,0,0,0,0,0,-1,979,673,0,0
-238,351,0,0,0,0,0,0,0,0,0,-1,986,673,0,0
-231,351,0,0,0,0,0,0,0,0,0,-1,993,673,0,0
-224,351,0,0,0,0,0,0,0,0,0,-1,1000,673,0,0
-217,351,0,0,0,0,0,0,0,0,0,-1,1007,673,0,0
-210,351,0,0,0,0,0,0,0,0,0,-1,1014,673,0,0
-203,351,0,0,0,0,0,0,0,0,0,-1,1021,673,0,0
-196,351,0,0,0,0,0,0,0,0,0,-1,1028,673,0,0
-189,351,0,0,0,0,0,0,0,0,0,-1,1035,673,0,0
-182,351,0,0,0,0,0,0,0,0,0,-1,1042,673,0,0
-175,351,0,0,0,0,0,0,0,0,0,-1,1049,673,0,0
-168,351,0,0,0,0,0,0,0,0,0,-1,1056,673,0,0
-161,351,0,0,0,0,0,0,0,0,0,-1,1063,673,0,0
-154,351,0,0,0,0,0,0,0,0,0,-1,1070,673,0,0
-147,351,0,0,0,0,0,0,0,0,0,-1,1077,673,0,0
-140,351,0,0,0,0,0,0,0,0,0,-1,1084,673,0,0
-133,351,0,0,0,0,0,0,0,0,0,-1,1091,673,0,0
-126,351,0,0,0,0,0,0,0,0,0,-1,1098,673,0,0
-119,351,0,0,0,0,0,0,0,0,0,-1,1105,673,0,0
-112,351,0,0,0,0,0,0,0,0,0,-1,1112,673,0,0
-105,351,0,0,0,0,0,0,0,0,0,-1,1119,673,0,0
-98,351,0,0,0,0,0,0,0,0,0,-1,1126,673,0,0
-91,351,0,0,0,0,0,0,0,0,0,-1,1133,673,0,0
-84,351,0,0,0,0,0,0,0,0,0,-1,1140,673,0,0
-77,351,0,0,0,0,0,0,0,0,0,-1,1147,673,0,0
-70,351,0,0,0,0,0,0,0,0,0,-1,1154,673,0,0
-63,351,0,0,0,0,0,0,0,0,0,-1,1161,673,0,0
-56,351,0,0,0,0,0,0,0,0,0,-1,1168,673,0,0
-49,351,0,0,0,0,0,0,0,0,0,-1,1175,673,0,0
-42,351,0,0,0,0,0,0,0,0,0,-1,1182,673,0,0
-35,351,0,0,0,0,0,0,0,0,0,-1,1189,673,0,0
-28,351,0,0,0,0,0,0,0,0,0,-1,1196,673,0,0
-21,351,0,0,0,0,0,0,0,0,0,-1,1203,673,0,0
-14,351,0,0,0,0,0,0,0,0,0,-1,1210,673,0,0
-7,351,0,0,0,0,0,0,0,0,0,-1,1217,673,0,0
0,351,0,0,0,0,0,0,0,0,0,-1,1224,673,0,0
7,351,0,0,0,0,0,0,0,0,0,-1,1231,673,0,0
14,351,0,0,0,0,0,0,0,0,0,-1,1238,673,0,0
21,351,0,0,0,0,0,0,0,0,0,-1,1245,673,0,0
28,351,0,0,0,0,0,0,0,0,0,-1,1252,673,0,0
35,351,0,0,0,0,0,0,0,0,0,-1,1259,673,0,0
42,351,0,0,0,0,0,0,0,0,0,-1,1266,673,0,0
49,351,0,0,0,0,0,0,0,0,0,-1,1273,673,0,0
56,351,0,0,0,0,0,0,0,0,0,-1,1280,673,0,0
63,351,0,0,0,0,0,0,0,0,0,-1,1287,673,0,0
70,351,0,0,0,0,0,0,0,0,0,-1,1294,673,0,0
77,351,0,0,0,0,0,0,0,0,0,-1,1301,673,0,0
84,351,0,0,0,0,0,0,0,0,0,-1,1308,673,0,0
91,351,0,0,0,0,0,0,0,0,0,-1,1315,673,0,0
98,351,0,0,0,0,0,0,0,0,0,-1,1322,673,0,0
105,351,0,0,0,0,0,0,0,0,0,-1,1329,673,0,0
112,351,0,0,0,0,0,0,0,0,0,-1,1336,673,0,0
119,351,0,0,0,0,0,0,0,0,0,-1,1343,673,0,0
126,351,0,0,0,0,0,0,0,0,0,-1,1350,673,0,0
133,351,0,0,0,0,0,0,0,0,0,-1,1357,673,0,0
140,351,0,0,0,0,0,0,0,0,0,-1,1364,673,0,0
147,351,0,0,0,0,0,0,0,0,0,-1,1371,673,0,0
154,351,0,0,0,0,0,0,0,0,0,-1,1378,673,0,0
161,351,0,0,0,0,0,0,0,0,0,-1,1385,673,0,0
168,351,0,0,0,0,0,0,0,0,0,-1,1392,673,0,0
175,351,0,0,0,0,0,0,0,0,0,-1,1399,673,0,0
182,351,0,0,0,0,0,0,0,0,0,-1,1406,673,0,0
189,351,0,0,0,0,0,0,0,0,0,-1,1413,673,0,0
196,351,0,0,0,0,0,0,0,0,0,-1,1420,673,0,0
203,351,0,0,0,0,0,0,0,0,0,-1,1427,673,0,0
210,351,0,0,0,0,0,0,0,0,0,-1,1434,673,0,0
217,351,0,0,0,0,0,0,0,0,0,-1,1441,673,0,0
224,351,0,0,0,0,0,0,0,0,0,-1,1448,673,0,0
231,351,0,0,0,0,0,0,0,0,0,-1,1455,673,0,0
238,351,0,0,0,0,0,0,0,0,0,-1,1462,673,0,0
245,351,0,0,0,0,0,0,0,0,0,-1,1469,673,0,0
252,351,0,0,0,0,0,0,0,0,0,-1,1476,673,0,0
259,351,0,0,0,0,0,0,0,0,0,-1,1483,673,0,0
266,351,0,0,0,0,0,0,0,0,0,-1,1490,673,0,0
273,351,0,0,0,0,0,0,0,0,0,-1,1497,673,0,0
280,351,0,0,0,0,0,0,0,0,0,-1,1504,673,0,0
287,351,0,0,0,0,0,0,0,0,0,-1,1511,673,0,0
294,351,0,0,0,0,0,0,0,0,0,-1,1518,673,0,0
301,351,0,0,0,0,0,0,0,0,0,-1,1525,673,0,0
308,351,0,0,0,0,0,0,0,0,0,-1,1532,673,0,0
315,351,0,0,0,0,0,0,0,0,0,-1,1539,673,0,0
322,351,0,0,0,0,0,0,0,0,0,-1,1546,673,0,0
329,351,0,0,0,0,0,0,0,0,0,-1,1553,673,0,0
336,351,0,0,0,0,0,0,0,0,0,-1,1560,673,0,0
343,351,0,0,0,0,0,0,0,0,0,-1,1567,673,0,0
350,351,0,0,0,0,0,0,0,0,0,-1,1574,673,0,0
357,351,0,0,0,0,0,0,0,0,0,-1,1581,673,0,0
364,351,0,0,0,0,0,0,0,0,0,-1,1588,673,0,0
371,351,0,0,0,0,0,0,0,0,0,-1,1595,673,0,0
378,351,0,0,0,0,0,0,0,0,0,-1,1602,673,0,0
385,351,0,0,0,0,0,0,0,0,0,-1,1609,673,0,0
392,351,0,0,0,0,0,0,0,0,0,-1,1616,673,0,0
399,351,0,0,0,0,0,0,0,0,0,-1,1623,673,0,0
406,351,0,0,0,0,0,0,0,0,0,-1,1630,673,0,0
413,351,0,0,0,0,0,0,0,0,0,-1,1637,673,0,0
420,351,0,0,0,0,0,0,0,0,0,-1,1644,673,0,0
427,351,0,0,0,0,0,0,0,0,0,-1,1651,673,0,0
434,351,0,0,0,0,0,0,0,0,0,-1,1658,673,0,0
441,351,0,0,0,0,0,0,0,0,0,-1,1665,673,0,0
448,351,0,0,0,0,0,0,0,0,0,-1,1672,673,0,0
455,351,0,0,0,0,0,0,0,0,0,-1,1679,673,0,0
462,351,0,0,0,0,0,0,0,0,0,-1,1686,673,0,0
469,351,0,0,0,0,0,0,0,0,0,-1,1693,673,0,0
476,351,0,0,0,0,0,0,0,0,0,-1,1700,673,0,0
483,351,0,0,0,0,0,0,0,0,0,-1,1707,673,0,0
490,351,0,0,0,0,0,0,0,0,0,-1,1714,673,0,0
497,351,0,0,0,0,0,0,0,0,0,-1,1721,673,0,0
504,351,10.8842,1.61615,0,0,0,0,0,0,0,-1,1728,673,10.8842,-1.61618
511,351,15.4548,0.0236816,0,0,0,0,0,0,0,-1,1735,673,15.4549,-0.0236664
518,351,16.7448,2.49268,0,0,0,0,0,0,0,-1,1742,673,16.7448,-2.49269
525,351,16.0701,3.43225,0,0,0,0,0,0,0,-1,1749,673,16.07,-3.43227
532,351,16.4181,3.33472,0,0,0,0,0,0,0,-1,1756,673,16.4181,-3.33473
539,351,15.3387,3.54486,0,0,0,0,0,0,0,-1,1763,673,15.3387,-3.54485
546,351,13.9387,4.59357,0,0,0,0,0,0,0,-1,1770,673,13.9388,-4.59359
553,351,12.0682,2.02832,0,0,0,0,0,0,0,-1,1777,673,12.0683,-2.02831
560,351,12.0173,0.55304,0,0,0,0,0,0,0,-1,1784,673,12.0174,-0.553028
567,351,10.7827,0.130188,0,0,0,0,0,0,0,-1,1791,673,10.7827,-0.130183
574,351,12.5488,-0.84021,0,0,0,0,0,0,0,-1,1798,673,12.5488,0.840209
581,351,11.9895,-0.97937,-0.0138868,-0.00350864,0.0044453,-0.00186492,-0.0155306,1.21662,0.00979145,0.0481613,1805,673,11.9895,0.979361
588,351,11.3602,-1.16107,-0.0106433,-0.00230616,0.00263032,-0.00154568,-0.0114038,1.28935,0.00714325,0.0337459,1812,673,11.3603,1.16106
595,351,11.3761,-0.963318,-0.00775656,-0.00146639,0.00144974,-0.00114834,-0.00807461,1.35483,0.00504406,0.0191411,1819,673,11.3761,0.963289
602,351,11.3944,-0.665344,-0.00520862,-0.000850614,0.000784825,-0.000713585,-0.00534565,1.39794,0.00335132,0.0184449,1826,673,11.3945,0.665349
609,351,11.4001,-0.419922,-0.00323404,-0.00024722,0.000487736,-0.000169592,-0.00331166,1.41296,0.00215347,0.0178114,1833,673,11.4002,0.419951
616,351,11.3741,-0.153809,-0.00189143,-0.00016963,0.00016124,-0.000154661,-0.0019064,1.47822,0.00122265,0.0148515,1840,673,11.3741,0.153806
623,351,11.4164,0.1073,-0.000966447,0.000495582,-0.00022445,0.000529263,-0.00100013,-1.42185,0.000896836,0.0153259,1847,673,11.4164,-0.107318
630,351,11.4397,0.356079,-0.000138044,0.000692757,-0.000385333,0.00084396,-0.000289246,-1.19686,0.000679883,0.0249186,1854,673,11.4397,-0.356093
637,351,11.4678,0.636414,0.00033626,0.00119987,-0.000569178,0.0014825,5.36293e-05,-1.10991,0.000970953,0.0288129,1861,673,11.4678,-0.636422
644,351,11.4358,0.898499,0.000334901,0.00164193,-0.00119094,0.00234688,-0.000370044,-1.03634,0.0017014,0.0208375,1868,673,11.4358,-0.898488
651,351,11.4293,1.16028,0.000448755,0.00221253,-0.00201476,0.00352995,-0.000868668,-0.991693,0.00269002,0.0152106,1875,673,11.4293,-1.16026
658,351,11.3896,1.44702,0.000904071,0.00297857,-0.00304116,0.0051545,-0.00127186,-0.949747,0.00392951,0.0244262,1882,673,11.3897,-1.44702
665,351,11.1206,1.54303,0.00189316,0.00402976,-0.00426253,0.00735582,-0.0014329,-0.908182,0.00544473,0.0311349,1889,673,11.1206,-1.54305
672,351,11.1725,2.00867,0.00375745,0.00549051,-0.00583998,0.0105279,-0.00127994,-0.85905,0.00748183,0.044682,1896,673,11.1725,-2.00868
679,351,11.6345,2.15186,0.0068506,0.00757738,-0.00770275,0.0149253,-0.000497327,-0.808969,0.0101201,0.047778,1903,673,11.6345,-2.15183
686,351,12.1202,2.25208,0,0,0,0,0,0,0,-1,1910,673,12.1202,-2.25209
693,351,13.5187,2.34595,0,0,0,0,0,0,0,-1,1917,673,13.5187,-2.34596
700,351,14.5629,-2.40173,0,0,0,0,0,0,0,-1,1924,673,14.5629,2.40172
707,351,0,0,0,0,0,0,0,0,0,-1,1931,673,0,0
714,351,0,0,0,0,0,0,0,0,0,-1,1938,673,0,0
721,351,0,0,0,0,0,0,0,0,0,-1,1945,673,0,0
728,351,0,0,0,0,0,0,0,0,0,-1,1952,673,0,0
735,351,0,0,0,0,0,0,0,0,0,-1,1959,673,0,0
742,351,0,0,0,0,0,0,0,0,0,-1,1966,673,0,0
749,351,0,0,0,0,0,0,0,0,0,-1,1973,673,0,0
756,351,0,0,0,0,0,0,0,0,0,-1,1980,673,0,0
763,351,0,0,0,0,0,0,0,0,0,-1,1987,673,0,0
770,351,0,0,0,0,0,0,0,0,0,-1,1994,673,0,0
777,351,0,0,0,0,0,0,0,0,0,-1,2001,673,0,0
784,351,0,0,0,0,0,0,0,0,0,-1,2008,673,0,0
791,351,0,0,0,0,0,0,0,0,0,-1,2015,673,0,0
798,351,0,0,0,0,0,0,0,0,0,-1,2022,673,0,0
805,351,0,0,0,0,0,0,0,0,0,-1,2029,673,0,0
812,351,0,0,0,0,0,0,0,0,0,-1,2036,673,0,0
-700,344,0,0,0,0,0,0,0,0,0,-1,524,680,0,0
-693,344,0,0,0,0,0,0,0,0,0,-1,531,680,0,0
-686,344,0,0,0,0,0,0,0,0,0,-1,538,680,0,0
-679,344,0,0,0,0,0,0,0,0,0,-1,545,680,0,0
-672,344,0,0,0,0,0,0,0,0,0,-1,552,680,0,0
-665,344,0,0,0,0,0,0,0,0,0,-1,559,680,0,0
-658,344,0,0,0,0,0,0,0,0,0,-1,566,680,0,0
-651,344,0,0,0,0,0,0,0,0,0,-1,573,680,0,0
-644,344,0,0,0,0,0,0,0,0,0,-1,580,680,0,0
-637,344,0,0,0,0,0,0,0,0,0,-1,587,680,0,0
-630,344,0,0,0,0,0,0,0,0,0,-1,594,680,0,0
-623,344,0,0,0,0,0,0,0,0,0,-1,601,680,0,0
-616,344,0,0,0,0,0,0,0,0,0,-1,608,680,0,0
-609,344,0,0,0,0,0,0,0,0,0,-1,615,680,0,0
-602,344,0,0,0,0,0,0,0,0,0,-1,622,680,0,0
-595,344,0,0,0,0,0,0,0,0,0,-1,629,680,0,0
-588,344,-7.89941,5.00134,0,0,0,0,0,0,0,-1,636,680,-7.89941,-5.00132
-581,344,-7.30463,3.9386,0,0,0,0,0,0,0,-1,643,680,-7.30465,-3.93857
-574,344,-6.97876,3.05481,0,0,0,0,0,0,0,-1,650,680,-6.97878,-3.0548
-567,344,-3.92029,2.68195,0,0,0,0,0,0,0,-1,657,680,-3.92031,-2.68193
-560,344,-5.50854,1.55707,0,0,0,0,0,0,0,-1,664,680,-5.50855,-1.55709
-553,344,-5.66742,0.785278,0,0,0,0,0,0,0,-1,671,680,-5.66741,-0.785278
-546,344,-5.58002,0.348694,-0.00116016,0.0244933,-0.0055429,0.0256397,-0.00230657,-1.36685,0.0179116,0.0452239,678,680,-5.58003,-0.348666
-539,344,-5.73999,-0.547668,-0.000898553,0.0177744,-0.00455662,0.018827,-0.00195114,-1.34378,0.0132497,0.0386146,685,680,-5.73996,0.547648
-532,344,-5.47797,-0.527039,-0.000702506,0.0126108,-0.00356509,0.0135054,-0.00159707,-1.32495,0.0095804,0.0198991,692,680,-5.47798,0.527044
-525,344,-5.57135,-0.727844,-0.000519696,0.00873299,-0.00266205,0.00944421,-0.00123091,-1.30973,0.00674399,0.017051,699,680,-5.57132,0.727832
-518,344,-5.59424,-0.990845,-0.000211366,0.00598289,-0.00195706,0.00654941,-0.000777883,-1.28903,0.00464732,0.0186266,706,680,-5.59422,0.990857
-511,344,-5.59076,-1.23505,0.000174555,0.00376341,-0.00137006,0.00422664,-0.000288676,-1.24475,0.00291875,0.015374,713,680,-5.59078,1.23505
-504,344,-5.57141,-1.47308,0.000645907,0.00169852,-0.000947967,0.00225648,8.79451e-05,-1.03881,0.00147588,0.0158661,720,680,-5.57143,1.47311
-497,344,-5.56604,-1.69763,0.00112601,0.000621612,-0.000602261,0.00152675,0.000220879,-0.587113,0.000952778,0.0140234,727,680,-5.56602,1.69761
-490,344,-5.57953,-1.91577,0.00187983,-0.000173354,-0.000274603,0.00191592,-0.000209447,-0.130686,0.00135251,0.0127009,734,680,-5.57956,1.91579
-483,344,-5.56689,-2.14032,0.00292912,-0.000805114,0.000134132,0.00293393,-0.000809926,0.0358579,0.00227452,0.0130297,741,680,-5.56691,2.1403
-476,344,-5.58496,-2.37683,0.00423936,-0.00132683,0.000516849,0.00428694,-0.00137442,0.0918092,0.00340972,0.0137916,748,680,-5.58497,2.37683
-469,344,-5.5954,-2.61224,0.00560983,-0.00247173,0.00133024,0.00582316,-0.00268506,0.159015,0.00502236,0.0125238,755,680,-5.59542,2.61226
-462,344,-5.57031,-2.91254,0.00719901,-0.00409261,0.00299584,0.00794462,-0.00483822,0.243925,0.00745246,0.0225262,762,680,-5.5703,2.91251
-455,344,-5.67133,-2.8645,0,0,0,0,0,0,0,-1,769,680,-5.67135,2.8645
-448,344,-5.67657,-2.72864,0,0,0,0,0,0,0,-1,776,680,-5.6766,2.72863
-441,344,-5.09229,-2.34167,0,0,0,0,0,0,0,-1,783,680,-5.09229,2.34168
-434,344,-4.28778,-2.08807,0,0,0,0,0,0,0,-1,790,680,-4.28778,2.08809
-427,344,-3.06506,-1.45404,0,0,0,0,0,0,0,-1,797,680,-3.06505,1.45402
-420,344,-1.96582,-1.57574,0,0,0,0,0,0,0,-1,804,680,-1.96579,1.57574
-413,344,-0.817993,-1.4751,0,0,0,0,0,0,0,-1,811,680,-0.818017,1.47511
-406,344,-0.00714111,-1.25189,0,0,0,0,0,0,0,-1,818,680,-0.00714956,1.25191
-399,344,0.240051,-1.75769,0,0,0,0,0,0,0,-1,825,680,0.240079,1.75767
-392,344,1.11353,-2.05615,0,0,0,0,0,0,0,-1,832,680,1.11351,2.05616
-385,344,0,0,0,0,0,0,0,0,0,-1,839,680,0,0
-378,344,0,0,0,0,0,0,0,0,0,-1,846,680,0,0
-371,344,0,0,0,0,0,0,0,0,0,-1,853,680,0,0
-364,344,0,0,0,0,0,0,0,0,0,-1,860,680,0,0
-357,344,0,0,0,0,0,0,0,0,0,-1,867,680,0,0
-350,344,0,0,0,0,0,0,0,0,0,-1,874,680,0,0
-343,344,0,0,0,0,0,0,0,0,0,-1,881,680,0,0
-336,344,0,0,0,0,0,0,0,0,0,-1,888,680,0,0
-329,344,0,0,0,0,0,0,0,0,0,-1,895,680,0,0
-322,344,0,0,0,0,0,0,0,0,0,-1,902,680,0,0
-315,344,0,0,0,0,0,0,0,0,0,-1,909,680,0,0
-308,344,0,0,0,0,0,0,0,0,0,-1,916,680,0,0
-301,344,0,0,0,0,0,0,0,0,0,-1,923,680,0,0
-294,344,0,0,0,0,0,0,0,0,0,-1,930,680,0,0
-287,344,0,0,0,0,0,0,0,0,0,-1,937,680,0,0
-280,344,0,0,0,0,0,0,0,0,0,-1,944,680,0,0
-273,344,0,0,0,0,0,0,0,0,0,-1,951,680,0,0
-266,344,0,0,0,0,0,0,0,0,0,-1,958,680,0,0
-259,344,0,0,0,0,0,0,0,0,0,-1,965,680,0,0
-252,344,0,0,0,0,0,0,0,0,0,-1,972,680,0,0
-245,344,0,0,0,0,0,0,0,0,0,-1,979,680,0,0
-238,344,0,0,0,0,0,0,0,0,0,-1,986,680,0,0
-231,344,0,0,0,0,0,0,0,0,0,-1,993,680,0,0
-224,344,0,0,0,0,0,0,0,0,0,-1,1000,680,0,0
-217,344,0,0,0,0,0,0,0,0,0,-1,1007,680,0,0
-210,344,0,0,0,0,0,0,0,0,0,-1,1014,680,0,0
-203,344,0,0,0,0,0,0,0,0,0,-1,1021,680,0,0
-196,344,0,0,0,0,0,0,0,0,0,-1,1028,680,0,0
-189,344,0,0,0,0,0,0,0,0,0,-1,1035,680,0,0
-182,344,0,0,0,0,0,0,0,0,0,-1,1042,680,0,0
-175,344,0,0,0,0,0,0,0,0,0,-1,1049,680,0,0
-168,344,0,0,0,0,0,0,0,0,0,-1,1056,680,0,0
-161,344,0,0,0,0,0,0,0,0,0,-1,1063,680,0,0
-154,344,0,0,0,0,0,0,0,0,0,-1,1070,680,0,0
-147,344,0,0,0,0,0,0,0,0,0,-1,1077,680,0,0
-140,344,0,0,0,0,0,0,0,0,0,-1,1084,680,0,0
-133,344,0,0,0,0,0,0,0,0,0,-1,1091,680,0,0
-126,344,0,0,0,0,0,0,0,0,0,-1,1098,680,0,0
-119,344,0,0,0,0,0,0,0,0,0,-1,1105,680,0,0
-112,344,0,0,0,0,0,0,0,0,0,-1,1112,680,0,0
-105,344,0,0,0,0,0,0,0,0,0,-1,1119,680,0,0
-98,344,0,0,0,0,0,0,0,0,0,-1,1126,680,0,0
-91,344,0,0,0,0,0,0,0,0,0,-1,1133,680,0,0
-84,344,0,0,0,0,0,0,0,0,0,-1,1140,680,0,0
-77,344,0,0,0,0,0,0,0,0,0,-1,1147,680,0,0
-70,344,0,0,0,0,0,0,0,0,0,-1,1154,680,0,0
-63,344,0,0,0,0,0,0,0,0,0,-1,1161,680,0,0
-56,344,0,0,0,0,0,0,0,0,0,-1,1168,680,0,0
-49,344,0,0,0,0,0,0,0,0,0,-1,1175,680,0,0
-42,344,0,0,0,0,0,0,0,0,0,-1,1182,680,0,0
-35,344,0,0,0,0,0,0,0,0,0,-1,1189,680,0,0
-28,344,0,0,0,0,0,0,0,0,0,-1,1196,680,0,0
-21,344,0,0,0,0,0,0,0,0,0,-1,1203,680,0,0
-14,344,0,0,0,0,0,0,0,0,0,-1,1210,680,0,0
-7,344,0,0,0,0,0,0,0,0,0,-1,1217,680,0,0
0,344,0,0,0,0,0,0,0,0,0,-1,1224,680,0,0
7,344,0,0,0,0,0,0,0,0,0,-1,1231,680,0,0
14,344,0,0,0,0,0,0,0,0,0,-1,1238,680,0,0
21,344,0,0,0,0,0,0,0,0,0,-1,1245,680,0,0
28,344,0,0,0,0,0,0,0,0,0,-1,1252,680,0,0
35,344,0,0,0,0,0,0,0,0,0,-1,1259,680,0,0
42,344,0,0,0,0,0,0,0,0,0,-1,1266,680,0,0
49,344,0,0,0,0,0,0,0,0,0,-1,1273,680,0,0
56,344,0,0,0,0,0,0,0,0,0,-1,1280,680,0,0
63,344,0,0,0,0,0,0,0,0,0,-1,1287,680,0,0
70,344,0,0,0,0,0,0,0,0,0,-1,1294,680,0,0
77,344,0,0,0,0,0,0,0,0,0,-1,1301,680,0,0
84,344,0,0,0,0,0,0,0,0,0,-1,1308,680,0,0
91,344,0,0,0,0,0,0,0,0,0,-1,1315,680,0,0
98,344,0,0,0,0,0,0,0,0,0,-1,1322,680,0,0
105,344,0,0,0,0,0,0,0,0,0,-1,1329,680,0,0
112,344,0,0,0,0,0,0,0,0,0,-1,1336,680,0,0
119,344,0,0,0,0,0,0,0,0,0,-1,1343,680,0,0
126,344,0,0,0,0,0,0,0,0,0,-1,1350,680,0,0
133,344,0,0,0,0,0,0,0,0,0,-1,1357,680,0,0
140,344,0,0,0,0,0,0,0,0,0,-1,1364,680,0,0
147,344,0,0,0,0,0,0,0,0,0,-1,1371,680,0,0
154,344,0,0,0,0,0,0,0,0,0,-1,1378,680,0,0
161,344,0,0,0,0,0,0,0,0,0,-1,1385,680,0,0
168,344,0,0,0,0,0,0,0,0,0,-1,1392,680,0,0
175,344,0,0,0,0,0,0,0,0,0,-1,1399,680,0,0
182,344,0,0,0,0,0,0,0,0,0,-1,1406,680,0,0
189,344,0,0,0,0,0,0,0,0,0,-1,1413,680,0,0
196,344,0,0,0,0,0,0,0,0,0,-1,1420,680,0,0
203,344,0,0,0,0,0,0,0,0,0,-1,1427,680,0,0
210,344,0,0,0,0,0,0,0,0,0,-1,1434,680,0,0
217,344,0,0,0,0,0,0,0,0,0,-1,1441,680,0,0
224,344,0,0,0,0,0,0,0,0,0,-1,1448,680,0,0
231,344,0,0,0,0,0,0,0,0,0,-1,1455,680,0,0
238,344,0,0,0,0,0,0,0,0,0,-1,1462,680,0,0
245,344,0,0,0,0,0,0,0,0,0,-1,1469,680,0,0
252,344,0,0,0,0,0,0,0,0,0,-1,1476,680,0,0
259,344,0,0,0,0,0,0,0,0,0,-1,1483,680,0,0
266,344,0,0,0,0,0,0,0,0,0,-1,1490,680,0,0
273,344,0,0,0,0,0,0,0,0,0,-1,1497,680,0,0
280,344,0,0,0,0,0,0,0,0,0,-1,1504,680,0,0
287,344,0,0,0,0,0,0,0,0,0,-1,1511,680,0,0
294,344,0,0,0,0,0,0,0,0,0,-1,1518,680,0,0
301,344,0,0,0,0,0,0,0,0,0,-1,1525,680,0,0
308,344,0,0,0,0,0,0,0,0,0,-1,1532,680,0,0
315,344,0,0,0,0,0,0,0,0,0,-1,1539,680,0,0
322,344,0,0,0,0,0,0,0,0,0,-1,1546,680,0,0
329,344,0,0,0,0,0,0,0,0,0,-1,1553,680,0,0
336,344,0,0,0,0,0,0,0,0,0,-1,1560,680,0,0
343,344,0,0,0,0,0,0,0,0,0,-1,1567,680,0,0
350,344,0,0,0,0,0,0,0,0,0,-1,1574,680,0,0
357,344,0,0,0,0,0,0,0,0,0,-1,1581,680,0,0
364,344,0,0,0,0,0,0,0,0,0,-1,1588,680,0,0
371,344,0,0,0,0,0,0,0,0,0,-1,1595,680,0,0
378,344,0,0,0,0,0,0,0,0,0,-1,1602,680,0,0
385,344,0,0,0,0,0,0,0,0,0,-1,1609,680,0,0
392,344,0,0,0,0,0,0,0,0,0,-1,1616,680,0,0
399,344,0,0,0,0,0,0,0,0,0,-1,1623,680,0,0
406,344,0,0,0,0,0,0,0,0,0,-1,1630,680,0,0
413,344,0,0,0,0,0,0,0,0,0,-1,1637,680,0,0
420,344,0,0,0,0,0,0,0,0,0,-1,1644,680,0,0
427,344,0,0,0,0,0,0,0,0,0,-1,1651,680,0,0
434,344,0,0,0,0,0,0,0,0,0,-1,1658,680,0,0
441,344,0,0,0,0,0,0,0,0,0,-1,1665,680,0,0
448,344,0,0,0,0,0,0,0,0,0,-1,1672,680,0,0
455,344,0,0,0,0,0,0,0,0,0,-1,1679,680,0,0
462,344,0,0,0,0,0,0,0,0,0,-1,1686,680,0,0
469,344,0,0,0,0,0,0,0,0,0,-1,1693,680,0,0
476,344,0,0,0,0,0,0,0,0,0,-1,1700,680,0,0
483,344,0,0,0,0,0,0,0,0,0,-1,1707,680,0,0
490,344,0,0,0,0,0,0,0,0,0,-1,1714,680,0,0
497,344,0,0,0,0,0,0,0,0,0,-1,1721,680,0,0
504,344,0,0,0,0,0,0,0,0,0,-1,1728,680,0,0
511,344,15.4819,0.452637,0,0,0,0,0,0,0,-1,1735,680,15.4819,-0.452656
518,344,17.1357,2.31207,0,0,0,0,0,0,0,-1,1742,680,17.1358,-2.31207
525,344,16.4807,2.83368,0,0,0,0,0,0,0,-1,1749,680,16.4807,-2.83368
532,344,15.8599,3.37219,0,0,0,0,0,0,0,-1,1756,680,15.8598,-3.3722
539,344,15.3691,3.78113,0,0,0,0,0,0,0,-1,1763,680,15.3691,-3.78113
546,344,14.6722,4.30243,0,0,0,0,0,0,0,-1,1770,680,14.6722,-4.30241
553,344,14.8136,4.35681,0,0,0,0,0,0,0,-1,1777,680,14.8136,-4.35679
560,344,11.9363,2.14185,0,0,0,0,0,0,0,-1,1784,680,11.9362,-2.14182
567,344,11.397,0.925842,0,0,0,0,0,0,0,-1,1791,680,11.397,-0.92583
574,344,10.0004,0.504639,0,0,0,0,0,0,0,-1,1798,680,10.0004,-0.504645
581,344,12.6642,-0.710022,0,0,0,0,0,0,0,-1,1805,680,12.6642,0.710013
588,344,11.6823,-1.27008,0,0,0,0,0,0,0,-1,1812,680,11.6822,1.27008
595,344,11.5585,-1.00787,0,0,0,0,0,0,0,-1,1819,680,11.5584,1.00788
602,344,11.7488,-0.618896,-0.000790563,-0.00113953,0.000756601,-0.000188587,-0.00174151,0.672072,0.00110353,0.0291393,1826,680,11.7487,0.618872
609,344,11.678,-0.396362,-0.000835282,-0.000388006,0.000520574,-4.50651e-05,-0.00117822,0.988278,0.000770899,0.0150491,1833,680,11.6779,0.39638
616,344,11.6611,-0.138672,-0.000740807,-0.000265656,0.000213881,-0.000183564,-0.000822898,1.20432,0.0004988,0.0220497,1840,680,11.6612,0.138661
623,344,11.7354,0.110352,-0.00115598,0.000708398,-0.000234269,0.000737384,-0.00118497,-1.44769,0.00111985,0.0188587,1847,680,11.7353,-0.110324
630,344,11.7572,0.361023,-0.0006231,0.000491485,-0.000315763,0.000574724,-0.000706339,-1.31305,0.000740922,0.0247793,1854,680,11.7572,-0.361026
637,344,11.7638,0.637024,5.93818e-05,0.000726474,-0.000526817,0.00101646,-0.000230601,-1.06761,0.000766162,0.0255217,1861,680,11.7637,-0.637054
644,344,11.7247,0.894592,0.000138584,0.0010522,-0.00114113,0.00182456,-0.000633777,-0.975785,0.00147378,0.0173064,1868,680,11.7247,-0.894605
651,344,11.6749,1.1521,0.000228663,0.00149661,-0.00188303,0.00284952,-0.00112425,-0.947776,0.00236524,0.0119451,1875,680,11.6749,-1.15211
658,344,11.6561,1.46393,0.000633762,0.00211191,-0.00273639,0.00420727,-0.0014616,-0.917296,0.00339848,0.0186972,1882,680,11.6561,-1.46393
665,344,11.5934,1.70453,0.00141785,0.00294517,-0.00373282,0.00599165,-0.00162863,-0.886296,0.00463371,0.0274378,1889,680,11.5934,-1.70454
672,344,11.6409,1.84985,0.00282414,0.00407389,-0.00494283,0.00843118,-0.00153315,-0.848275,0.0061954,0.0217763,1896,680,11.6408,-1.84983
679,344,12.0144,1.82654,0.00508934,0.00566696,-0.00630075,0.0116855,-0.000929218,-0.8083,0.00811783,0.04179,1903,680,12.0144,-1.82652
686,344,12.5308,1.85022,0,0,0,0,0,0,0,-1,1910,680,12.5308,-1.8502
693,344,12.4362,-1.42346,0,0,0,0,0,0,0,-1,1917,680,12.4361,1.42348
700,344,14.0134,-1.63721,0,0,0,0,0,0,0,-1,1924,680,14.0135,1.63722
707,344,14.8154,-1.64838,0,0,0,0,0,0,0,-1,1931,680,14.8155,1.64837
714,344,0,0,0,0,0,0,0,0,0,-1,1938,680,0,0
721,344,0,0,0,0,0,0,0,0,0,-1,1945,680,0,0
728,344,0,0,0,0,0,0,0,0,0,-1,1952,680,0,0
735,344,0,0,0,0,0,0,0,0,0,-1,1959,680,0,0
742,344,0,0,0,0,0,0,0,0,0,-1,1966,680,0,0
749,344,0,0,0,0,0,0,0,0,0,-1,1973,680,0,0
756,344,0,0,0,0,0,0,0,0,0,-1,1980,680,0,0
763,344,0,0,0,0,0,0,0,0,0,-1,1987,680,0,0
770,344,0,0,0,0,0,0,0,0,0,-1,1994,680,0,0
777,344,0,0,0,0,0,0,0,0,0,-1,2001,680,0,0
784,344,0,0,0,0,0,0,0,0,0,-1,2008,680,0,0
791,344,0,0,0,0,0,0,0,0,0,-1,2015,680,0,0
798,344,0,0,0,0,0,0,0,0,0,-1,2022,680,0,0
805,344,0,0,0,0,0,0,0,0,0,-1,2029,680,0,0
812,344,0,0,0,0,0,0,0,0,0,-1,2036,680,0,0
-700,337,0,0,0,0,0,0,0,0,0,-1,524,687,0,0
-693,337,0,0,0,0,0,0,0,0,0,-1,531,687,0,0
-686,337,0,0,0,0,0,0,0,0,0,-1,538,687,0,0
-679,337,0,0,0,0,0,0,0,0,0,-1,545,687,0,0
-672,337,0,0,0,0,0,0,0,0,0,-1,552,687,0,0
-665,337,0,0,0,0,0,0,0,0,0,-1,559,687,0,0
-658,337,0,0,0,0,0,0,0,0,0,-1,566,687,0,0
-651,337,0,0,0,0,0,0,0,0,0,-1,573,687,0,0
-644,337,0,0,0,0,0,0,0,0,0,-1,580,687,0,0
-637,337,0,0,0,0,0,0,0,0,0,-1,587,687,0,0
-630,337,0,0,0,0,0,0,0,0,0,-1,594,687,0,0
-623,337,0,0,0,0,0,0,0,0,0,-1,601,687,0,0
-616,337,0,0,0,0,0,0,0,0,0,-1,608,687,0,0
-609,337,0,0,0,0,0,0,0,0,0,-1,615,687,0,0
-602,337,0,0,0,0,0,0,0,0,0,-1,622,687,0,0
-595,337,0,0,0,0,0,0,0,0,0,-1,629,687,0,0
-588,337,-8.20203,3.8374,0,0,0,0,0,0,0,-1,636,687,-8.20205,-3.8374
-581,337,-7.54236,2.87201,0,0,0,0,0,0,0,-1,643,687,-7.54236,-2.87198
-574,337,-7.15466,1.9892,0,0,0,0,0,0,0,-1,650,687,-7.15468,-1.98918
-567,337,-5.23175,1.48181,0,0,0,0,0,0,0,-1,657,687,-5.23174,-1.48184
-560,337,-5.60535,1.20551,-0.0057903,0.0347432,-0.0025349,0.0349011,-0.00594821,-1.50858,0.0254826,0.0499115,664,687,-5.60535,-1.20551
-553,337,-5.77905,0.629272,-0.00386815,0.0264799,-0.00317595,0.0268087,-0.00419695,-1.46763,0.0194232,0.0480305,671,687,-5.77908,-0.629288
-546,337,-5.74677,0.170654,-0.00261729,0.019778,-0.00317352,0.020219,-0.00305831,-1.43271,0.0146059,0.0427114,678,687,-5.74674,-0.170673
-539,337,-5.69806,-0.250061,-0.00175606,0.0145691,-0.00280818,0.0150386,-0.0022256,-1.40512,0.010844,0.0263972,685,687,-5.69805,0.250071
-532,337,-5.77496,-0.518127,-0.00113145,0.0104288,-0.00230102,0.01087,-0.00157263,-1.38137,0.00782373,0.0135164,692,687,-5.77498,0.518098
-525,337,-5.80884,-0.752441,-0.000630934,0.00723538,-0.00177067,0.00761558,-0.00101113,-1.35929,0.00544548,0.0142808,699,687,-5.80886,0.752438
-518,337,-5.84424,-1.01349,-8.38368e-05,0.00494303,-0.00135585,0.00528541,-0.000426216,-1.32345,0.00367393,0.0215978,706,687,-5.84424,1.01349
-511,337,-5.87079,-1.24463,0.000456808,0.00296457,-0.000949283,0.00328338,0.000137998,-1.24679,0.0021444,0.0215654,713,687,-5.87077,1.24461
-504,337,-5.84058,-1.47717,0.00104264,0.00105839,-0.000605911,0.00165648,0.000444555,-0.791895,0.000989985,0.021678,720,687,-5.84061,1.47714
-497,337,-5.81091,-1.69812,0.00163111,-0.000107634,-0.000263476,0.00167016,-0.000146682,-0.147133,0.00116541,0.015624,727,687,-5.81089,1.69814
-490,337,-5.82263,-1.92841,0.00260266,-0.00140677,0.000432463,0.00264878,-0.00145289,0.106233,0.00240142,0.0133547,734,687,-5.82262,1.92839
-483,337,-5.81915,-2.1709,0.00406368,-0.00284817,0.00175109,0.004482,-0.00326649,0.234494,0.0044919,0.0139546,741,687,-5.81914,2.17089
-476,337,-5.80786,-2.40765,0.00579587,-0.00457701,0.00328114,0.00674661,-0.00552775,0.282036,0.00709824,0.0126696,748,687,-5.80784,2.40767
-469,337,-5.80072,-2.68164,0.00782839,-0.00731896,0.00575657,0.00976779,-0.00925836,0.324959,0.0109861,0.0199804,755,687,-5.80069,2.68165
-462,337,-5.78961,-2.81696,0.0104078,-0.0108899,0.00951364,0.0140386,-0.0145207,0.364577,0.0164895,0.0449318,762,687,-5.78962,2.81693
-455,337,-5.68726,-3.00061,0,0,0,0,0,0,0,-1,769,687,-5.68726,3.00063
-448,337,-5.30627,-2.07202,0,0,0,0,0,0,0,-1,776,687,-5.30628,2.07205
-441,337,-4.24762,-1.49597,0,0,0,0,0,0,0,-1,783,687,-4.24762,1.49598
-434,337,-6.86908,1.37531,0,0,0,0,0,0,0,-1,790,687,-6.86908,-1.3753
-427,337,-9.92004,2.487,0,0,0,0,0,0,0,-1,797,687,-9.92002,-2.48701
-420,337,-2.95996,-1.76697,0,0,0,0,0,0,0,-1,804,687,-2.95998,1.76696
-413,337,-1.29169,-1.99487,0,0,0,0,0,0,0,-1,811,687,-1.29171,1.9949
-406,337,-1.02356,-1.89563,0,0,0,0,0,0,0,-1,818,687,-1.02357,1.89564
-399,337,-0.472839,-2.21338,0,0,0,0,0,0,0,-1,825,687,-0.472837,2.2134
-392,337,0,0,0,0,0,0,0,0,0,-1,832,687,0,0
-385,337,0,0,0,0,0,0,0,0,0,-1,839,687,0,0
-378,337,0,0,0,0,0,0,0,0,0,-1,846,687,0,0
-371,337,0,0,0,0,0,0,0,0,0,-1,853,687,0,0
-364,337,0,0,0,0,0,0,0,0,0,-1,860,687,0,0
-357,337,0,0,0,0,0,0,0,0,0,-1,867,687,0,0
-350,337,0,0,0,0,0,0,0,0,0,-1,874,687,0,0
-343,337,0,0,0,0,0,0,0,0,0,-1,881,687,0,0
-336,337,0,0,0,0,0,0,0,0,0,-1,888,687,0,0
-329,337,0,0,0,0,0,0,0,0,0,-1,895,687,0,0
-322,337,0,0,0,0,0,0,0,0,0,-1,902,687,0,0
-315,337,0,0,0,0,0,0,0,0,0,-1,909,687,0,0
-308,337,0,0,0,0,0,0,0,0,0,-1,916,687,0,0
-301,337,0,0,0,0,0,0,0,0,0,-1,923,687,0,0
-294,337,0,0,0,0,0,0,0,0,0,-1,930,687,0,0
-287,337,0,0,0,0,0,0,0,0,0,-1,937,687,0,0
-280,337,0,0,0,0,0,0,0,0,0,-1,944,687,0,0
-273,337,0,0,0,0,0,0,0,0,0,-1,951,687,0,0
-266,337,0,0,0,0,0,0,0,0,0,-1,958,687,0,0
-259,337,0,0,0,0,0,0,0,0,0,-1,965,687,0,0
-252,337,0,0,0,0,0,0,0,0,0,-1,972,687,0,0
-245,337,0,0,0,0,0,0,0,0,0,-1,979,687,0,0
-238,337,0,0,0,0,0,0,0,0,0,-1,986,687,0,0
-231,337,0,0,0,0,0,0,0,0,0,-1,993,687,0,0
-224,337,0,0,0,0,0,0,0,0,0,-1,1000,687,0,0
-217,337,0,0,0,0,0,0,0,0,0,-1,1007,687,0,0
-210,337,0,0,0,0,0,0,0,0,0,-1,1014,687,0,0
-203,337,0,0,0,0,0,0,0,0,0,-1,1021,687,0,0
-196,337,0,0,0,0,0,0,0,0,0,-1,1028,687,0,0
-189,337,0,0,0,0,0,0,0,0,0,-1,1035,687,0,0
-182,337,0,0,0,0,0,0,0,0,0,-1,1042,687,0,0
-175,337,0,0,0,0,0,0,0,0,0,-1,1049,687,0,0
-168,337,0,0,0,0,0,0,0,0,0,-1,1056,687,0,0
-161,337,0,0,0,0,0,0,0,0,0,-1,1063,687,0,0
-154,337,0,0,0,0,0,0,0,0,0,-1,1070,687,0,0
-147,337,0,0,0,0,0,0,0,0,0,-1,1077,687,0,0
-140,337,0,0,0,0,0,0,0,0,0,-1,1084,687,0,0
-133,337,0,0,0,0,0,0,0,0,0,-1,1091,687,0,0
-126,337,0,0,0,0,0,0,0,0,0,-1,1098,687,0,0
-119,337,0,0,0,0,0,0,0,0,0,-1,1105,687,0,0
-112,337,0,0,0,0,0,0,0,0,0,-1,1112,687,0,0
-105,337,0,0,0,0,0,0,0,0,0,-1,1119,687,0,0
-98,337,0,0,0,0,0,0,0,0,0,-1,1126,687,0,0
-91,337,0,0,0,0,0,0,0,0,0,-1,1133,687,0,0
-84,337,0,0,0,0,0,0,0,0,0,-1,1140,687,0,0
-77,337,0,0,0,0,0,0,0,0,0,-1,1147,687,0,0
-70,337,0,0,0,0,0,0,0,0,0,-1,1154,687,0,0
-63,337,0,0,0,0,0,0,0,0,0,-1,1161,687,0,0
-56,337,0,0,0,0,0,0,0,0,0,-1,1168,687,0,0
-49,337,0,0,0,0,0,0,0,0,0,-1,1175,687,0,0
-42,337,0,0,0,0,0,0,0,0,0,-1,1182,687,0,0
-35,337,0,0,0,0,0,0,0,0,0,-1,1189,687,0,0
-28,337,0,0,0,0,0,0,0,0,0,-1,1196,687,0,0
-21,337,0,0,0,0,0,0,0,0,0,-1,1203,687,0,0
-14,337,0,0,0,0,0,0,0,0,0,-1,1210,687,0,0
-7,337,0,0,0,0,0,0,0,0,0,-1,1217,687,0,0
0,337,0,0,0,0,0,0,0,0,0,-1,1224,687,0,0
7,337,0,0,0,0,0,0,0,0,0,-1,1231,687,0,0
14,337,0,0,0,0,0,0,0,0,0,-1,1238,687,0,0
21,337,0,0,0,0,0,0,0,0,0,-1,1245,687,0,0
28,337,0,0,0,0,0,0,0,0,0,-1,1252,687,0,0
35,337,0,0,0,0,0,0,0,0,0,-1,1259,687,0,0
42,337,0,0,0,0,0,0,0,0,0,-1,1266,687,0,0
49,337,0,0,0,0,0,0,0,0,0,-1,1273,687,0,0
56,337,0,0,0,0,0,0,0,0,0,-1,1280,687,0,0
63,337,0,0,0,0,0,0,0,0,0,-1,1287,687,0,0
70,337,0,0,0,0,0,0,0,0,0,-1,1294,687,0,0
77,337,0,0,0,0,0,0,0,0,0,-1,1301,687,0,0
84,337,0,0,0,0,0,0,0,0,0,-1,1308,687,0,0
91,337,0,0,0,0,0,0,0,0,0,-1,1315,687,0,0
98,337,0,0,0,0,0,0,0,0,0,-1,1322,687,0,0
105,337,0,0,0,0,0,0,0,0,0,-1,1329,687,0,0
112,337,0,0,0,0,0,0,0,0,0,-1,1336,687,0,0
119,337,0,0,0,0,0,0,0,0,0,-1,1343,687,0,0
126,337,0,0,0,0,0,0,0,0,0,-1,1350,687,0,0
133,337,0,0,0,0,0,0,0,0,0,-1,1357,687,0,0
140,337,0,0,0,0,0,0,0,0,0,-1,1364,687,0,0
147,337,0,0,0,0,0,0,0,0,0,-1,1371,687,0,0
154,337,0,0,0,0,0,0,0,0,0,-1,1378,687,0,0
161,337,0,0,0,0,0,0,0,0,0,-1,1385,687,0,0
168,337,0,0,0,0,0,0,0,0,0,-1,1392,687,0,0
175,337,0,0,0,0,0,0,0,0,0,-1,1399,687,0,0
182,337,0,0,0,0,0,0,0,0,0,-1,1406,687,0,0
189,337,0,0,0,0,0,0,0,0,0,-1,1413,687,0,0
196,337,0,0,0,0,0,0,0,0,0,-1,1420,687,0,0
203,337,0,0,0,0,0,0,0,0,0,-1,1427,687,0,0
210,337,0,0,0,0,0,0,0,0,0,-1,1434,687,0,0
217,337,0,0,0,0,0,0,0,0,0,-1,1441,687,0,0
224,337,0,0,0,0,0,0,0,0,0,-1,1448,687,0,0
231,337,0,0,0,0,0,0,0,0,0,-1,1455,687,0,0
238,337,0,0,0,0,0,0,0,0,0,-1,1462,687,0,0
245,337,0,0,0,0,0,0,0,0,0,-1,1469,687,0,0
252,337,0,0,0,0,0,0,0,0,0,-1,1476,687,0,0
259,337,0,0,0,0,0,0,0,0,0,-1,1483,687,0,0
266,337,0,0,0,0,0,0,0,0,0,-1,1490,687,0,0
273,337,0,0,0,0,0,0,0,0,0,-1,1497,687,0,0
280,337,0,0,0,0,0,0,0,0,0,-1,1504,687,0,0
287,337,0,0,0,0,0,0,0,0,0,-1,1511,687,0,0
294,337,0,0,0,0,0,0,0,0,0,-1,1518,687,0,0
301,337,0,0,0,0,0,0,0,0,0,-1,1525,687,0,0
308,337,0,0,0,0,0,0,0,0,0,-1,1532,687,0,0
315,337,0,0,0,0,0,0,0,0,0,-1,1539,687,0,0
322,337,0,0,0,0,0,0,0,0,0,-1,1546,687,0,0
329,337,0,0,0,0,0,0,0,0,0,-1,1553,687,0,0
336,337,0,0,0,0,0,0,0,0,0,-1,1560,687,0,0
343,337,0,0,0,0,0,0,0,0,0,-1,1567,687,0,0
350,337,0,0,0,0,0,0,0,0,0,-1,1574,687,0,0
357,337,0,0,0,0,0,0,0,0,0,-1,1581,687,0,0
364,337,0,0,0,0,0,0,0,0,0,-1,1588,687,0,0
371,337,0,0,0,0,0,0,0,0,0,-1,1595,687,0,0
378,337,0,0,0,0,0,0,0,0,0,-1,1602,687,0,0
385,337,0,0,0,0,0,0,0,0,0,-1,1609,687,0,0
392,337,0,0,0,0,0,0,0,0,0,-1,1616,687,0,0
399,337,0,0,0,0,0,0,0,0,0,-1,1623,687,0,0
406,337,0,0,0,0,0,0,0,0,0,-1,1630,687,0,0
413,337,0,0,0,0,0,0,0,0,0,-1,1637,687,0,0
420,337,0,0,0,0,0,0,0,0,0,-1,1644,687,0,0
427,337,0,0,0,0,0,0,0,0,0,-1,1651,687,0,0
434,337,0,0,0,0,0,0,0,0,0,-1,1658,687,0,0
441,337,0,0,0,0,0,0,0,0,0,-1,1665,687,0,0
448,337,0,0,0,0,0,0,0,0,0,-1,1672,687,0,0
455,337,0,0,0,0,0,0,0,0,0,-1,1679,687,0,0
462,337,0,0,0,0,0,0,0,0,0,-1,1686,687,0,0
469,337,0,0,0,0,0,0,0,0,0,-1,1693,687,0,0
476,337,0,0,0,0,0,0,0,0,0,-1,1700,687,0,0
483,337,0,0,0,0,0,0,0,0,0,-1,1707,687,0,0
490,337,0,0,0,0,0,0,0,0,0,-1,1714,687,0,0
497,337,0,0,0,0,0,0,0,0,0,-1,1721,687,0,0
504,337,0,0,0,0,0,0,0,0,0,-1,1728,687,0,0
511,337,0,0,0,0,0,0,0,0,0,-1,1735,687,0,0
518,337,18.0369,1.64581,0,0,0,0,0,0,0,-1,1742,687,18.0368,-1.64581
525,337,16.9935,2.33093,0,0,0,0,0,0,0,-1,1749,687,16.9935,-2.33094
532,337,16.3579,2.91357,0,0,0,0,0,0,0,-1,1756,687,16.3579,-2.91358
539,337,15.7062,3.49115,0,0,0,0,0,0,0,-1,1763,687,15.7062,-3.49114
546,337,15.0701,4.06219,0,0,0,0,0,0,0,-1,1770,687,15.0701,-4.06219
553,337,19.068,3.61273,0,0,0,0,0,0,0,-1,1777,687,19.068,-3.6127
560,337,18.4053,3.62793,0,0,0,0,0,0,0,-1,1784,687,18.4052,-3.6279
567,337,11.9288,1.38776,0,0,0,0,0,0,0,-1,1791,687,11.9288,-1.38777
574,337,10.704,1.19476,0,0,0,0,0,0,0,-1,1798,687,10.704,-1.19478
581,337,8.50427,0.561768,0,0,0,0,0,0,0,-1,1805,687,8.5043,-0.561754
588,337,8.5885,-0.0536499,0,0,0,0,0,0,0,-1,1812,687,8.58844,0.0536788
595,337,11.7218,-1.11426,0,0,0,0,0,0,0,-1,1819,687,11.7218,1.11423
602,337,11.9304,-0.639343,0.000438175,-0.00080872,0.000558784,0.000651941,-0.00102249,0.365378,0.000974589,0.0422522,1826,687,11.9304,0.639338
609,337,11.9312,-0.337219,-0.000316249,-0.00035687,0.000564219,0.000228025,-0.000901144,0.767407,0.000689457,0.0214981,1833,687,11.9311,0.337241
616,337,11.9136,-0.0958252,-0.000747131,-0.000687064,0.000674295,-4.2134e-05,-0.00139206,0.807654,0.00091432,0.0165672,1840,687,11.9135,0.0958298
623,337,11.9568,0.114807,-0.00178472,0.000722693,6.48686e-05,0.00072437,-0.0017864,1.54495,0.00149219,0.0139177,1847,687,11.9568,-0.114811
630,337,11.9691,0.358337,-0.00124176,0.000281621,-4.00284e-05,0.000282672,-0.00124281,-1.54454,0.000937085,0.0185565,1854,687,11.9691,-0.358364
637,337,11.9612,0.626526,-0.000236411,0.00028317,-0.000339824,0.000451131,-0.000404372,-1.11175,0.000494171,0.0179589,1861,687,11.9612,-0.626501
644,337,11.9414,0.895935,-1.15132e-06,0.000602579,-0.000956013,0.00130325,-0.000701825,-0.938322,0.00117486,0.0118758,1868,687,11.9414,-0.895905
651,337,11.9287,1.15991,5.74879e-05,0.000969797,-0.00162155,0.00219813,-0.00117084,-0.922509,0.00197499,0.0102427,1875,687,11.9287,-1.1599
658,337,11.9298,1.42072,0.000371548,0.00145296,-0.0023386,0.00331255,-0.00148804,-0.899006,0.00283756,0.0117773,1882,687,11.9298,-1.42071
665,337,11.9471,1.64905,0.000986377,0.00207482,-0.00310865,0.00468653,-0.00162533,-0.872054,0.00378432,0.0140514,1889,687,11.9472,-1.64905
672,337,11.9136,1.86542,0.00200715,0.00289604,-0.00399935,0.00647556,-0.00157237,-0.840736,0.00492555,0.0180729,1896,687,11.9135,-1.86542
679,337,11.9109,2.03577,0.0036276,0.00398931,-0.00490435,0.00871613,-0.00109923,-0.803828,0.00620968,0.0390049,1903,687,11.9109,-2.03576
686,337,11.9855,2.99243,0,0,0,0,0,0,0,-1,1910,687,11.9855,-2.99244
693,337,12.0886,3.77679,0,0,0,0,0,0,0,-1,1917,687,12.0886,-3.77682
700,337,13.4678,-0.972046,0,0,0,0,0,0,0,-1,1924,687,13.4677,0.972062
707,337,14.9698,-0.898987,0,0,0,0,0,0,0,-1,1931,687,14.9698,0.898974
714,337,0,0,0,0,0,0,0,0,0,-1,1938,687,0,0
721,337,0,0,0,0,0,0,0,0,0,-1,1945,687,0,0
728,337,0,0,0,0,0,0,0,0,0,-1,1952,687,0,0
735,337,0,0,0,0,0,0,0,0,0,-1,1959,687,0,0
742,337,0,0,0,0,0,0,0,0,0,-1,1966,687,0,0
749,337,0,0,0,0,0,0,0,0,0,-1,1973,687,0,0
756,337,0,0,0,0,0,0,0,0,0,-1,1980,687,0,0
763,337,0,0,0,0,0,0,0,0,0,-1,1987,687,0,0
770,337,0,0,0,0,0,0,0,0,0,-1,1994,687,0,0
777,337,0,0,0,0,0,0,0,0,0,-1,2001,687,0,0
784,337,0,0,0,0,0,0,0,0,0,-1,2008,687,0,0
791,337,0,0,0,0,0,0,0,0,0,-1,2015,687,0,0
798,337,0,0,0,0,0,0,0,0,0,-1,2022,687,0,0
805,337,0,0,0,0,0,0,0,0,0,-1,2029,687,0,0
812,337,0,0,0,0,0,0,0,0,0,-1,2036,687,0,0
-700,330,0,0,0,0,0,0,0,0,0,-1,524,694,0,0
-693,330,0,0,0,0,0,0,0,0,0,-1,531,694,0,0
-686,330,0,0,0,0,0,0,0,0,0,-1,538,694,0,0
-679,330,0,0,0,0,0,0,0,0,0,-1,545,694,0,0
-672,330,0,0,0,0,0,0,0,0,0,-1,552,694,0,0
-665,330,0,0,0,0,0,0,0,0,0,-1,559,694,0,0
-658,330,0,0,0,0,0,0,0,0,0,-1,566,694,0,0
-651,330,0,0,0,0,0,0,0,0,0,-1,573,694,0,0
-644,330,0,0,0,0,0,0,0,0,0,-1,580,694,0,0
-637,330,0,0,0,0,0,0,0,0,0,-1,587,694,0,0
-630,330,0,0,0,0,0,0,0,0,0,-1,594,694,0,0
-623,330,0,0,0,0,0,0,0,0,0,-1,601,694,0,0
-616,330,0,0,0,0,0,0,0,0,0,-1,608,694,0,0
-609,330,0,0,0,0,0,0,0,0,0,-1,615,694,0,0
-602,330,0,0,0,0,0,0,0,0,0,-1,622,694,0,0
-595,330,-4.67883,1.65515,0,0,0,0,0,0,0,-1,629,694,-4.67881,-1.65515
-588,330,-8.5047,2.67346,0,0,0,0,0,0,0,-1,636,694,-8.50469,-2.67348
-581,330,-7.78009,1.80542,0,0,0,0,0,0,0,-1,643,694,-7.78008,-1.80539
-574,330,-6.85742,0.83551,0,0,0,0,0,0,0,-1,650,694,-6.85743,-0.835501
-567,330,-6.35162,0.695068,0,0,0,0,0,0,0,-1,657,694,-6.35162,-0.695038
-560,330,-6.20868,0.512512,-0.00773295,0.0251888,0.000668087,0.0252024,-0.0077465,1.55051,0.019893,0.0495685,664,694,-6.20869,-0.512519
-553,330,-6.01038,0.310425,-0.00556355,0.0197595,-0.000701056,0.0197788,-0.00558295,-1.54314,0.0153883,0.0410671,671,694,-6.0104,-0.310411
-546,330,-5.92285,-0.0443115,-0.00381166,0.015097,-0.00130153,0.0151861,-0.00390082,-1.50239,0.0116442,0.0264164,678,694,-5.92284,0.0443131
-539,330,-5.96558,-0.304321,-0.00247548,0.0112704,-0.00138617,0.0114088,-0.00261387,-1.47129,0.00861041,0.0124252,685,694,-5.96556,0.304306
-532,330,-6.05237,-0.519714,-0.00147577,0.00809742,-0.00125443,0.00825907,-0.00163742,-1.44264,0.00612524,0.00998459,692,694,-6.05239,0.519719
-525,330,-6.06287,-0.757141,-0.000686961,0.00558121,-0.00102015,0.00574306,-0.000848811,-1.41345,0.00414075,0.0110705,699,694,-6.06287,0.757153
-518,330,-6.05768,-0.979675,8.49371e-05,0.00374447,-0.000841114,0.00392854,-9.91281e-05,-1.35536,0.00265269,0.0140414,706,694,-6.05768,0.979695
-511,330,-6.09583,-1.22949,0.000781427,0.00197197,-0.000541166,0.00218119,0.000572205,-1.20188,0.00130587,0.0191116,713,694,-6.09584,1.22952
-504,330,-6.08612,-1.46228,0.00149218,0.000192398,-0.000192759,0.00152017,0.000164414,-0.144168,0.000963328,0.0181708,720,694,-6.08613,1.46229
-497,330,-6.06335,-1.68237,0.00221452,-0.0011817,0.000266083,0.00223524,-0.00120242,0.0777149,0.00201437,0.0128736,727,694,-6.06337,1.68236
-490,330,-6.03979,-1.92572,0.00343113,-0.00306179,0.00141566,0.00372636,-0.00335702,0.205601,0.00409145,0.0124071,734,694,-6.03982,1.92572
-483,330,-6.0545,-2.1593,0.00528932,-0.00534513,0.00359981,0.00639327,-0.00644908,0.297564,0.00741456,0.013078,741,694,-6.05452,2.1593
-476,330,-6.05975,-2.37817,0.00742723,-0.00821251,0.00609769,0.00952362,-0.0103089,0.331141,0.0114533,0.0216155,748,694,-6.05978,2.37815
-469,330,-5.89404,-2.50616,0.0100529,-0.0121433,0.00971838,0.0137065,-0.015797,0.359607,0.0170481,0.0404236,755,694,-5.89407,2.50615
-462,330,-5.62207,-2.84668,0,0,0,0,0,0,0,-1,762,694,-5.62209,2.84668
-455,330,-5.04254,-1.79303,0,0,0,0,0,0,0,-1,769,694,-5.04252,1.79305
-448,330,-4.89886,-1.66156,0,0,0,0,0,0,0,-1,776,694,-4.89886,1.66157
-441,330,-5.30676,-2.34045,0,0,0,0,0,0,0,-1,783,694,-5.30679,2.34048
-434,330,-7.20428,1.00024,0,0,0,0,0,0,0,-1,790,694,-7.20431,-1.00027
-427,330,-7.67114,0.451782,0,0,0,0,0,0,0,-1,797,694,-7.67116,-0.451789
-420,330,-9.80774,2.9187,0,0,0,0,0,0,0,-1,804,694,-9.80774,-2.91868
-413,330,-10.4567,2.56183,0,0,0,0,0,0,0,-1,811,694,-10.4567,-2.56182
-406,330,-1.65375,-1.74371,0,0,0,0,0,0,0,-1,818,694,-1.65375,1.74371
-399,330,0,0,0,0,0,0,0,0,0,-1,825,694,0,0
-392,330,0,0,0,0,0,0,0,0,0,-1,832,694,0,0
-385,330,0,0,0,0,0,0,0,0,0,-1,839,694,0,0
-378,330,0,0,0,0,0,0,0,0,0,-1,846,694,0,0
-371,330,0,0,0,0,0,0,0,0,0,-1,853,694,0,0
-364,330,0,0,0,0,0,0,0,0,0,-1,860,694,0,0
-357,330,0,0,0,0,0,0,0,0,0,-1,867,694,0,0
-350,330,0,0,0,0,0,0,0,0,0,-1,874,694,0,0
-343,330,0,0,0,0,0,0,0,0,0,-1,881,694,0,0
-336,330,0,0,0,0,0,0,0,0,0,-1,888,694,0,0
-329,330,0,0,0,0,0,0,0,0,0,-1,895,694,0,0
-322,330,0,0,0,0,0,0,0,0,0,-1,902,694,0,0
-315,330,0,0,0,0,0,0,0,0,0,-1,909,694,0,0
-308,330,0,0,0,0,0,0,0,0,0,-1,916,694,0,0
-301,330,0,0,0,0,0,0,0,0,0,-1,923,694,0,0
-294,330,0,0,0,0,0,0,0,0,0,-1,930,694,0,0
-287,330,0,0,0,0,0,0,0,0,0,-1,937,694,0,0
-280,330,0,0,0,0,0,0,0,0,0,-1,944,694,0,0
-273,330,0,0,0,0,0,0,0,0,0,-1,951,694,0,0
-266,330,0,0,0,0,0,0,0,0,0,-1,958,694,0,0
-259,330,0,0,0,0,0,0,0,0,0,-1,965,694,0,0
-252,330,0,0,0,0,0,0,0,0,0,-1,972,694,0,0
-245,330,0,0,0,0,0,0,0,0,0,-1,979,694,0,0
-238,330,0,0,0,0,0,0,0,0,0,-1,986,694,0,0
-231,330,0,0,0,0,0,0,0,0,0,-1,993,694,0,0
-224,330,0,0,0,0,0,0,0,0,0,-1,1000,694,0,0
-217,330,0,0,0,0,0,0,0,0,0,-1,1007,694,0,0
-210,330,0,0,0,0,0,0,0,0,0,-1,1014,694,0,0
-203,330,0,0,0,0,0,0,0,0,0,-1,1021,694,0,0
-196,330,0,0,0,0,0,0,0,0,0,-1,1028,694,0,0
-189,330,0,0,0,0,0,0,0,0,0,-1,1035,694,0,0
-182,330,0,0,0,0,0,0,0,0,0,-1,1042,694,0,0
-175,330,0,0,0,0,0,0,0,0,0,-1,1049,694,0,0
-168,330,0,0,0,0,0,0,0,0,0,-1,1056,694,0,0
-161,330,0,0,0,0,0,0,0,0,0,-1,1063,694,0,0
-154,330,0,0,0,0,0,0,0,0,0,-1,1070,694,0,0
-147,330,0,0,0,0,0,0,0,0,0,-1,1077,694,0,0
-140,330,0,0,0,0,0,0,0,0,0,-1,1084,694,0,0
-133,330,0,0,0,0,0,0,0,0,0,-1,1091,694,0,0
-126,330,0,0,0,0,0,0,0,0,0,-1,1098,694,0,0
-119,330,0,0,0,0,0,0,0,0,0,-1,1105,694,0,0
-112,330,0,0,0,0,0,0,0,0,0,-1,1112,694,0,0
-105,330,0,0,0,0,0,0,0,0,0,-1,1119,694,0,0
-98,330,0,0,0,0,0,0,0,0,0,-1,1126,694,0,0
-91,330,0,0,0,0,0,0,0,0,0,-1,1133,694,0,0
-84,330,0,0,0,0,0,0,0,0,0,-1,1140,694,0,0
-77,330,0,0,0,0,0,0,0,0,0,-1,1147,694,0,0
-70,330,0,0,0,0,0,0,0,0,0,-1,1154,694,0,0
-63,330,0,0,0,0,0,0,0,0,0,-1,1161,694,0,0
-56,330,0,0,0,0,0,0,0,0,0,-1,1168,694,0,0
-49,330,0,0,0,0,0,0,0,0,0,-1,1175,694,0,0
-42,330,0,0,0,0,0,0,0,0,0,-1,1182,694,0,0
-35,330,0,0,0,0,0,0,0,0,0,-1,1189,694,0,0
-28,330,0,0,0,0,0,0,0,0,0,-1,1196,694,0,0
-21,330,0,0,0,0,0,0,0,0,0,-1,1203,694,0,0
-14,330,0,0,0,0,0,0,0,0,0,-1,1210,694,0,0
-7,330,0,0,0,0,0,0,0,0,0,-1,1217,694,0,0
0,330,0,0,0,0,0,0,0,0,0,-1,1224,694,0,0
7,330,0,0,0,0,0,0,0,0,0,-1,1231,694,0,0
14,330,0,0,0,0,0,0,0,0,0,-1,1238,694,0,0
21,330,0,0,0,0,0,0,0,0,0,-1,1245,694,0,0
28,330,0,0,0,0,0,0,0,0,0,-1,1252,694,0,0
35,330,0,0,0,0,0,0,0,0,0,-1,1259,694,0,0
42,330,0,0,0,0,0,0,0,0,0,-1,1266,694,0,0
49,330,0,0,0,0,0,0,0,0,0,-1,1273,694,0,0
56,330,0,0,0,0,0,0,0,0,0,-1,1280,694,0,0
63,330,0,0,0,0,0,0,0,0,0,-1,1287,694,0,0
70,330,0,0,0,0,0,0,0,0,0,-1,1294,694,0,0
77,330,0,0,0,0,0,0,0,0,0,-1,1301,694,0,0
84,330,0,0,0,0,0,0,0,0,0,-1,1308,694,0,0
91,330,0,0,0,0,0,0,0,0,0,-1,1315,694,0,0
98,330,0,0,0,0,0,0,0,0,0,-1,1322,694,0,0
105,330,0,0,0,0,0,0,0,0,0,-1,1329,694,0,0
112,330,0,0,0,0,0,0,0,0,0,-1,1336,694,0,0
119,330,0,0,0,0,0,0,0,0,0,-1,1343,694,0,0
126,330,0,0,0,0,0,0,0,0,0,-1,1350,694,0,0
133,330,0,0,0,0,0,0,0,0,0,-1,1357,694,0,0
140,330,0,0,0,0,0,0,0,0,0,-1,1364,694,0,0
147,330,0,0,0,0,0,0,0,0,0,-1,1371,694,0,0
154,330,0,0,0,0,0,0,0,0,0,-1,1378,694,0,0
161,330,0,0,0,0,0,0,0,0,0,-1,1385,694,0,0
168,330,0,0,0,0,0,0,0,0,0,-1,1392,694,0,0
175,330,0,0,0,0,0,0,0,0,0,-1,1399,694,0,0
182,330,0,0,0,0,0,0,0,0,0,-1,1406,694,0,0
189,330,0,0,0,0,0,0,0,0,0,-1,1413,694,0,0
196,330,0,0,0,0,0,0,0,0,0,-1,1420,694,0,0
203,330,0,0,0,0,0,0,0,0,0,-1,1427,694,0,0
210,330,0,0,0,0,0,0,0,0,0,-1,1434,694,0,0
217,330,0,0,0,0,0,0,0,0,0,-1,1441,694,0,0
224,330,0,0,0,0,0,0,0,0,0,-1,1448,694,0,0
231,330,0,0,0,0,0,0,0,0,0,-1,1455,694,0,0
238,330,0,0,0,0,0,0,0,0,0,-1,1462,694,0,0
245,330,0,0,0,0,0,0,0,0,0,-1,1469,694,0,0
252,330,0,0,0,0,0,0,0,0,0,-1,1476,694,0,0
259,330,0,0,0,0,0,0,0,0,0,-1,1483,694,0,0
266,330,0,0,0,0,0,0,0,0,0,-1,1490,694,0,0
273,330,0,0,0,0,0,0,0,0,0,-1,1497,694,0,0
280,330,0,0,0,0,0,0,0,0,0,-1,1504,694,0,0
287,330,0,0,0,0,0,0,0,0,0,-1,1511,694,0,0
294,330,0,0,0,0,0,0,0,0,0,-1,1518,694,0,0
301,330,0,0,0,0,0,0,0,0,0,-1,1525,694,0,0
308,330,0,0,0,0,0,0,0,0,0,-1,1532,694,0,0
315,330,0,0,0,0,0,0,0,0,0,-1,1539,694,0,0
322,330,0,0,0,0,0,0,0,0,0,-1,1546,694,0,0
329,330,0,0,0,0,0,0,0,0,0,-1,1553,694,0,0
336,330,0,0,0,0,0,0,0,0,0,-1,1560,694,0,0
343,330,0,0,0,0,0,0,0,0,0,-1,1567,694,0,0
350,330,0,0,0,0,0,0,0,0,0,-1,1574,694,0,0
357,330,0,0,0,0,0,0,0,0,0,-1,1581,694,0,0
364,330,0,0,0,0,0,0,0,0,0,-1,1588,694,0,0
371,330,0,0,0,0,0,0,0,0,0,-1,1595,694,0,0
378,330,0,0,0,0,0,0,0,0,0,-1,1602,694,0,0
385,330,0,0,0,0,0,0,0,0,0,-1,1609,694,0,0
392,330,0,0,0,0,0,0,0,0,0,-1,1616,694,0,0
399,330,0,0,0,0,0,0,0,0,0,-1,1623,694,0,0
406,330,0,0,0,0,0,0,0,0,0,-1,1630,694,0,0
413,330,0,0,0,0,0,0,0,0,0,-1,1637,694,0,0
420,330,0,0,0,0,0,0,0,0,0,-1,1644,694,0,0
427,330,0,0,0,0,0,0,0,0,0,-1,1651,694,0,0
434,330,0,0,0,0,0,0,0,0,0,-1,1658,694,0,0
441,330,0,0,0,0,0,0,0,0,0,-1,1665,694,0,0
448,330,0,0,0,0,0,0,0,0,0,-1,1672,694,0,0
455,330,0,0,0,0,0,0,0,0,0,-1,1679,694,0,0
462,330,0,0,0,0,0,0,0,0,0,-1,1686,694,0,0
469,330,0,0,0,0,0,0,0,0,0,-1,1693,694,0,0
476,330,0,0,0,0,0,0,0,0,0,-1,1700,694,0,0
483,330,0,0,0,0,0,0,0,0,0,-1,1707,694,0,0
490,330,0,0,0,0,0,0,0,0,0,-1,1714,694,0,0
497,330,0,0,0,0,0,0,0,0,0,-1,1721,694,0,0
504,330,0,0,0,0,0,0,0,0,0,-1,1728,694,0,0
511,330,0,0,0,0,0,0,0,0,0,-1,1735,694,0,0
518,330,0,0,0,0,0,0,0,0,0,-1,1742,694,0,0
525,330,17.5052,1.86627,0,0,0,0,0,0,0,-1,1749,694,17.5052,-1.86629
532,330,16.8772,2.56702,0,0,0,0,0,0,0,-1,1756,694,16.8772,-2.567
539,330,16.1982,5.49628,0,0,0,0,0,0,0,-1,1763,694,16.1983,-5.49626
546,330,20.1758,3.75854,0,0,0,0,0,0,0,-1,1770,694,20.1758,-3.75856
553,330,19.3512,3.78687,0,0,0,0,0,0,0,-1,1777,694,19.3512,-3.78684
560,330,18.6956,3.84155,0,0,0,0,0,0,0,-1,1784,694,18.6956,-3.84155
567,330,18.0321,3.98578,0,0,0,0,0,0,0,-1,1791,694,18.0321,-3.98576
574,330,12.0454,2.1662,0,0,0,0,0,0,0,-1,1798,694,12.0455,-2.16618
581,330,11.4215,4.50836,0,0,0,0,0,0,0,-1,1805,694,11.4215,-4.50837
588,330,6.45667,-0.0630493,0,0,0,0,0,0,0,-1,1812,694,6.45661,0.0630695
595,330,8.23193,-0.258484,0,0,0,0,0,0,0,-1,1819,694,8.23188,0.258459
602,330,11.8768,-0.929565,0,0,0,0,0,0,0,-1,1826,694,11.8768,0.92954
609,330,12.0858,-0.408325,-0.000922163,0.000235696,0.000901066,0.000727785,-0.00141425,1.07094,0.0012577,0.030825,1833,694,12.0858,0.408299
616,330,12.1775,-0.114319,-0.00119634,-0.000687856,0.00119879,0.000283359,-0.00216755,0.88989,0.00154816,0.0106372,1840,694,12.1775,0.114308
623,330,12.1859,0.135498,-0.00266128,0.000989931,0.000458421,0.00104661,-0.00271795,1.44779,0.00224374,0.0115633,1847,694,12.1859,-0.135468
630,330,12.2031,0.391541,-0.00209307,0.000194644,0.000384766,0.000257623,-0.00215605,1.40855,0.00153048,0.0126258,1854,694,12.2032,-0.391571
637,330,12.2072,0.652588,-0.000684068,-5.4261e-05,-4.74992e-05,-5.06988e-05,-0.00068763,-1.49594,0.000442489,0.0126028,1861,694,12.2071,-0.652593
644,330,12.192,0.911011,-0.000171816,0.000310311,-0.000686789,0.000797115,-0.00065862,-0.954181,0.000841736,0.00825757,1868,694,12.192,-0.911012
651,330,12.1838,1.16473,-3.47024e-05,0.000640573,-0.00128298,0.0016296,-0.00102373,-0.914064,0.00154515,0.0111671,1875,694,12.1839,-1.16474
658,330,12.1702,1.41559,0.00019024,0.000996661,-0.00189222,0.00252815,-0.00134125,-0.890373,0.00226876,0.0118528,1882,694,12.1701,-1.4156
665,330,12.163,1.65533,0.000583806,0.00145219,-0.00251163,0.00356689,-0.00153089,-0.870988,0.00302044,0.0104909,1889,694,12.163,-1.65532
672,330,12.167,1.9021,0.00119755,0.00211281,-0.00324686,0.00493413,-0.00162377,-0.85541,0.00394373,0.013606,1896,694,12.167,-1.9021
679,330,12.075,2.1413,0.00217746,0.00290848,-0.00394922,0.00650907,-0.00142313,-0.831543,0.00488338,0.0279024,1903,694,12.075,-2.14127
686,330,12.2065,2.47589,0.00372378,0.00387156,-0.00455779,0.00835606,-0.000760717,-0.793504,0.00584081,0.0462646,1910,694,12.2065,-2.47587
693,330,12.3462,2.54852,0,0,0,0,0,0,0,-1,1917,694,12.3462,-2.54853
700,330,12.2338,-0.0736084,0,0,0,0,0,0,0,-1,1924,694,12.2338,0.0736035
707,330,13.4666,-0.003479,0,0,0,0,0,0,0,-1,1931,694,13.4665,0.00345908
714,330,14.6604,0.0909424,0,0,0,0,0,0,0,-1,1938,694,14.6604,-0.0909463
721,330,0,0,0,0,0,0,0,0,0,-1,1945,694,0,0
728,330,0,0,0,0,0,0,0,0,0,-1,1952,694,0,0
735,330,0,0,0,0,0,0,0,0,0,-1,1959,694,0,0
742,330,0,0,0,0,0,0,0,0,0,-1,1966,694,0,0
749,330,0,0,0,0,0,0,0,0,0,-1,1973,694,0,0
756,330,0,0,0,0,0,0,0,0,0,-1,1980,694,0,0
763,330,0,0,0,0,0,0,0,0,0,-1,1987,694,0,0
770,330,0,0,0,0,0,0,0,0,0,-1,1994,694,0,0
777,330,0,0,0,0,0,0,0,0,0,-1,2001,694,0,0
784,330,0,0,0,0,0,0,0,0,0,-1,2008,694,0,0
791,330,0,0,0,0,0,0,0,0,0,-1,2015,694,0,0
798,330,0,0,0,0,0,0,0,0,0,-1,2022,694,0,0
805,330,0,0,0,0,0,0,0,0,0,-1,2029,694,0,0
812,330,0,0,0,0,0,0,0,0,0,-1,2036,694,0,0
-700,323,0,0,0,0,0,0,0,0,0,-1,524,701,0,0
-693,323,0,0,0,0,0,0,0,0,0,-1,531,701,0,0
-686,323,0,0,0,0,0,0,0,0,0,-1,538,701,0,0
-679,323,0,0,0,0,0,0,0,0,0,-1,545,701,0,0
-672,323,0,0,0,0,0,0,0,0,0,-1,552,701,0,0
-665,323,0,0,0,0,0,0,0,0,0,-1,559,701,0,0
-658,323,0,0,0,0,0,0,0,0,0,-1,566,701,0,0
-651,323,0,0,0,0,0,0,0,0,0,-1,573,701,0,0
-644,323,0,0,0,0,0,0,0,0,0,-1,580,701,0,0
-637,323,0,0,0,0,0,0,0,0,0,-1,587,701,0,0
-630,323,0,0,0,0,0,0,0,0,0,-1,594,701,0,0
-623,323,0,0,0,0,0,0,0,0,0,-1,601,701,0,0
-616,323,0,0,0,0,0,0,0,0,0,-1,608,701,0,0
-609,323,0,0,0,0,0,0,0,0,0,-1,615,701,0,0
-602,323,-4.15833,2.12256,0,0,0,0,0,0,0,-1,622,701,-4.1583,-2.12257
-595,323,-4.052,1.79156,0,0,0,0,0,0,0,-1,629,701,-4.05198,-1.79158
-588,323,-4.07019,1.94543,0,0,0,0,0,0,0,-1,636,701,-4.07019,-1.94542
-581,323,-6.63727,0.562805,0,0,0,0,0,0,0,-1,643,701,-6.63728,-0.56279
-574,323,-6.15887,0.426697,0,0,0,0,0,0,0,-1,650,701,-6.15887,-0.426727
-567,323,-6.49475,-0.355591,0,0,0,0,0,0,0,-1,657,701,-6.49475,0.355561
-560,323,-6.66052,0.0969238,0,0,0,0,0,0,0,-1,664,701,-6.66055,-0.096942
-553,323,-6.33209,0.064209,-0.00682812,0.0142937,0.00121223,0.0143631,-0.00689746,1.51365,0.0125245,0.0310532,671,701,-6.33211,-0.0641921
-546,323,-6.2486,-0.0814209,-0.00490791,0.0112833,0.000213592,0.0112861,-0.00491073,1.55761,0.00958967,0.0113999,678,701,-6.24858,0.0814162
-539,323,-6.26282,-0.270691,-0.00321862,0.00860684,-0.000192953,0.00860998,-0.00322177,-1.55449,0.00706324,0.0103451,685,701,-6.26279,0.270719
-532,323,-6.2887,-0.511902,-0.00191878,0.0062545,-0.000352594,0.00626968,-0.00193397,-1.52776,0.00495197,0.00964891,692,701,-6.28867,0.511897
-525,323,-6.30188,-0.748718,-0.00088188,0.00430567,-0.00035849,0.00433033,-0.000906536,-1.50213,0.00323173,0.00823497,699,701,-6.30187,0.748738
-518,323,-6.27515,-0.96167,9.52949e-05,0.00282336,-0.000375024,0.00287398,4.46801e-05,-1.43664,0.00190127,0.00982282,706,701,-6.27514,0.961643
-511,323,-6.31061,-1.20532,0.000941817,0.00115864,-0.000147436,0.00123324,0.000867226,-1.10242,0.000731348,0.0135883,713,701,-6.31063,1.2053
-504,323,-6.33337,-1.43719,0.00177611,-0.000562396,0.000223949,0.00179737,-0.000583649,0.09462,0.00143298,0.0147304,720,701,-6.33335,1.43722
-497,323,-6.30249,-1.67084,0.00265286,-0.00220048,0.000796851,0.00278034,-0.00232796,0.158639,0.00295313,0.0113046,727,701,-6.30251,1.67086
-490,323,-6.28522,-1.90729,0.00419065,-0.00477942,0.00248596,0.00483354,-0.0054223,0.253062,0.00592446,0.0122452,734,701,-6.28523,1.90727
-483,323,-6.297,-2.13263,0.00655669,-0.00792287,0.00566877,0.00851198,-0.00987817,0.332145,0.0106273,0.0174074,741,701,-6.29702,2.13263
-476,323,-6.19012,-2.41449,0.00915629,-0.0118527,0.00921449,0.012625,-0.0153214,0.360036,0.0161599,0.0374704,748,701,-6.19012,2.41447
-469,323,-5.82043,-2.77808,0,0,0,0,0,0,0,-1,755,701,-5.82043,2.77807
-462,323,-5.29431,-1.45697,0,0,0,0,0,0,0,-1,762,701,-5.29431,1.45699
-455,323,-5.0658,-1.36639,0,0,0,0,0,0,0,-1,769,701,-5.06578,1.3664
-448,323,-4.91608,-1.59601,0,0,0,0,0,0,0,-1,776,701,-4.91606,1.59604
-441,323,-4.66174,-2.02039,0,0,0,0,0,0,0,-1,783,701,-4.66175,2.02036
-434,323,-7.5022,0.849731,0,0,0,0,0,0,0,-1,790,701,-7.50219,-0.849752
-427,323,-7.61346,-0.0681763,0,0,0,0,0,0,0,-1,797,701,-7.61345,0.0681943
-420,323,-10.3256,2.65674,0,0,0,0,0,0,0,-1,804,701,-10.3256,-2.65675
-413,323,-10.202,3.21863,0,0,0,0,0,0,0,-1,811,701,-10.202,-3.21863
-406,323,0,0,0,0,0,0,0,0,0,-1,818,701,0,0
-399,323,0,0,0,0,0,0,0,0,0,-1,825,701,0,0
-392,323,0,0,0,0,0,0,0,0,0,-1,832,701,0,0
-385,323,0,0,0,0,0,0,0,0,0,-1,839,701,0,0
-378,323,0,0,0,0,0,0,0,0,0,-1,846,701,0,0
-371,323,0,0,0,0,0,0,0,0,0,-1,853,701,0,0
-364,323,0,0,0,0,0,0,0,0,0,-1,860,701,0,0
-357,323,0,0,0,0,0,0,0,0,0,-1,867,701,0,0
-350,323,0,0,0,0,0,0,0,0,0,-1,874,701,0,0
-343,323,0,0,0,0,0,0,0,0,0,-1,881,701,0,0
-336,323,0,0,0,0,0,0,0,0,0,-1,888,701,0,0
-329,323,0,0,0,0,0,0,0,0,0,-1,895,701,0,0
-322,323,0,0,0,0,0,0,0,0,0,-1,902,701,0,0
-315,323,0,0,0,0,0,0,0,0,0,-1,909,701,0,0
-308,323,0,0,0,0,0,0,0,0,0,-1,916,701,0,0
-301,323,0,0,0,0,0,0,0,0,0,-1,923,701,0,0
-294,323,0,0,0,0,0,0,0,0,0,-1,930,701,0,0
-287,323,0,0,0,0,0,0,0,0,0,-1,937,701,0,0
-280,323,0,0,0,0,0,0,0,0,0,-1,944,701,0,0
-273,323,0,0,0,0,0,0,0,0,0,-1,951,701,0,0
-266,323,0,0,0,0,0,0,0,0,0,-1,958,701,0,0
-259,323,0,0,0,0,0,0,0,0,0,-1,965,701,0,0
-252,323,0,0,0,0,0,0,0,0,0,-1,972,701,0,0
-245,323,0,0,0,0,0,0,0,0,0,-1,979,701,0,0
-238,323,0,0,0,0,0,0,0,0,0,-1,986,701,0,0
-231,323,0,0,0,0,0,0,0,0,0,-1,993,701,0,0
-224,323,0,0,0,0,0,0,0,0,0,-1,1000,701,0,0
-217,323,0,0,0,0,0,0,0,0,0,-1,1007,701,0,0
-210,323,0,0,0,0,0,0,0,0,0,-1,1014,701,0,0
-203,323,0,0,0,0,0,0,0,0,0,-1,1021,701,0,0
-196,323,0,0,0,0,0,0,0,0,0,-1,1028,701,0,0
-189,323,0,0,0,0,0,0,0,0,0,-1,1035,701,0,0
-182,323,0,0,0,0,0,0,0,0,0,-1,1042,701,0,0
-175,323,0,0,0,0,0,0,0,0,0,-1,1049,701,0,0
-168,323,0,0,0,0,0,0,0,0,0,-1,1056,701,0,0
-161,323,0,0,0,0,0,0,0,0,0,-1,1063,701,0,0
-154,323,0,0,0,0,0,0,0,0,0,-1,1070,701,0,0
-147,323,0,0,0,0,0,0,0,0,0,-1,1077,701,0,0
-140,323,0,0,0,0,0,0,0,0,0,-1,1084,701,0,0
-133,323,0,0,0,0,0,0,0,0,0,-1,1091,701,0,0
-126,323,0,0,0,0,0,0,0,0,0,-1,1098,701,0,0
-119,323,0,0,0,0,0,0,0,0,0,-1,1105,701,0,0
-112,323,0,0,0,0,0,0,0,0,0,-1,1112,701,0,0
-105,323,0,0,0,0,0,0,0,0,0,-1,1119,701,0,0
-98,323,0,0,0,0,0,0,0,0,0,-1,1126,701,0,0
-91,323,0,0,0,0,0,0,0,0,0,-1,1133,701,0,0
-84,323,0,0,0,0,0,0,0,0,0,-1,1140,701,0,0
-77,323,0,0,0,0,0,0,0,0,0,-1,1147,701,0,0
-70,323,0,0,0,0,0,0,0,0,0,-1,1154,701,0,0
-63,323,0,0,0,0,0,0,0,0,0,-1,1161,701,0,0
-56,323,0,0,0,0,0,0,0,0,0,-1,1168,701,0,0
-49,323,0,0,0,0,0,0,0,0,0,-1,1175,701,0,0
-42,323,0,0,0,0,0,0,0,0,0,-1,1182,701,0,0
-35,323,0,0,0,0,0,0,0,0,0,-1,1189,701,0,0
-28,323,0,0,0,0,0,0,0,0,0,-1,1196,701,0,0
-21,323,0,0,0,0,0,0,0,0,0,-1,1203,701,0,0
-14,323,0,0,0,0,0,0,0,0,0,-1,1210,701,0,0
-7,323,0,0,0,0,0,0,0,0,0,-1,1217,701,0,0
0,323,0,0,0,0,0,0,0,0,0,-1,1224,701,0,0
7,323,0,0,0,0,0,0,0,0,0,-1,1231,701,0,0
14,323,0,0,0,0,0,0,0,0,0,-1,1238,701,0,0
21,323,0,0,0,0,0,0,0,0,0,-1,1245,701,0,0
28,323,0,0,0,0,0,0,0,0,0,-1,1252,701,0,0
35,323,0,0,0,0,0,0,0,0,0,-1,1259,701,0,0
42,323,0,0,0,0,0,0,0,0,0,-1,1266,701,0,0
49,323,0,0,0,0,0,0,0,0,0,-1,1273,701,0,0
56,323,0,0,0,0,0,0,0,0,0,-1,1280,701,0,0
63,323,0,0,0,0,0,0,0,0,0,-1,1287,701,0,0
70,323,0,0,0,0,0,0,0,0,0,-1,1294,701,0,0
77,323,0,0,0,0,0,0,0,0,0,-1,1301,701,0,0
84,323,0,0,0,0,0,0,0,0,0,-1,1308,701,0,0
91,323,0,0,0,0,0,0,0,0,0,-1,1315,701,0,0
98,323,0,0,0,0,0,0,0,0,0,-1,1322,701,0,0
105,323,0,0,0,0,0,0,0,0,0,-1,1329,701,0,0
112,323,0,0,0,0,0,0,0,0,0,-1,1336,701,0,0
119,323,0,0,0,0,0,0,0,0,0,-1,1343,701,0,0
126,323,0,0,0,0,0,0,0,0,0,-1,1350,701,0,0
133,323,0,0,0,0,0,0,0,0,0,-1,1357,701,0,0
140,323,0,0,0,0,0,0,0,0,0,-1,1364,701,0,0
147,323,0,0,0,0,0,0,0,0,0,-1,1371,701,0,0
154,323,0,0,0,0,0,0,0,0,0,-1,1378,701,0,0
161,323,0,0,0,0,0,0,0,0,0,-1,1385,701,0,0
168,323,0,0,0,0,0,0,0,0,0,-1,1392,701,0,0
175,323,0,0,0,0,0,0,0,0,0,-1,1399,701,0,0
182,323,0,0,0,0,0,0,0,0,0,-1,1406,701,0,0
189,323,0,0,0,0,0,0,0,0,0,-1,1413,701,0,0
196,323,0,0,0,0,0,0,0,0,0,-1,1420,701,0,0
203,323,0,0,0,0,0,0,0,0,0,-1,1427,701,0,0
210,323,0,0,0,0,0,0,0,0,0,-1,1434,701,0,0
217,323,0,0,0,0,0,0,0,0,0,-1,1441,701,0,0
224,323,0,0,0,0,0,0,0,0,0,-1,1448,701,0,0
231,323,0,0,0,0,0,0,0,0,0,-1,1455,701,0,0
238,323,0,0,0,0,0,0,0,0,0,-1,1462,701,0,0
245,323,0,0,0,0,0,0,0,0,0,-1,1469,701,0,0
252,323,0,0,0,0,0,0,0,0,0,-1,1476,701,0,0
259,323,0,0,0,0,0,0,0,0,0,-1,1483,701,0,0
266,323,0,0,0,0,0,0,0,0,0,-1,1490,701,0,0
273,323,0,0,0,0,0,0,0,0,0,-1,1497,701,0,0
280,323,0,0,0,0,0,0,0,0,0,-1,1504,701,0,0
287,323,0,0,0,0,0,0,0,0,0,-1,1511,701,0,0
294,323,0,0,0,0,0,0,0,0,0,-1,1518,701,0,0
301,323,0,0,0,0,0,0,0,0,0,-1,1525,701,0,0
308,323,0,0,0,0,0,0,0,0,0,-1,1532,701,0,0
315,323,0,0,0,0,0,0,0,0,0,-1,1539,701,0,0
322,323,0,0,0,0,0,0,0,0,0,-1,1546,701,0,0
329,323,0,0,0,0,0,0,0,0,0,-1,1553,701,0,0
336,323,0,0,0,0,0,0,0,0,0,-1,1560,701,0,0
343,323,0,0,0,0,0,0,0,0,0,-1,1567,701,0,0
350,323,0,0,0,0,0,0,0,0,0,-1,1574,701,0,0
357,323,0,0,0,0,0,0,0,0,0,-1,1581,701,0,0
364,323,0,0,0,0,0,0,0,0,0,-1,1588,701,0,0
371,323,0,0,0,0,0,0,0,0,0,-1,1595,701,0,0
378,323,0,0,0,0,0,0,0,0,0,-1,1602,701,0,0
385,323,0,0,0,0,0,0,0,0,0,-1,1609,701,0,0
392,323,0,0,0,0,0,0,0,0,0,-1,1616,701,0,0
399,323,0,0,0,0,0,0,0,0,0,-1,1623,701,0,0
406,323,0,0,0,0,0,0,0,0,0,-1,1630,701,0,0
413,323,0,0,0,0,0,0,0,0,0,-1,1637,701,0,0
420,323,0,0,0,0,0,0,0,0,0,-1,1644,701,0,0
427,323,0,0,0,0,0,0,0,0,0,-1,1651,701,0,0
434,323,0,0,0,0,0,0,0,0,0,-1,1658,701,0,0
441,323,0,0,0,0,0,0,0,0,0,-1,1665,701,0,0
448,323,0,0,0,0,0,0,0,0,0,-1,1672,701,0,0
455,323,0,0,0,0,0,0,0,0,0,-1,1679,701,0,0
462,323,0,0,0,0,0,0,0,0,0,-1,1686,701,0,0
469,323,0,0,0,0,0,0,0,0,0,-1,1693,701,0,0
476,323,0,0,0,0,0,0,0,0,0,-1,1700,701,0,0
483,323,0,0,0,0,0,0,0,0,0,-1,1707,701,0,0
490,323,0,0,0,0,0,0,0,0,0,-1,1714,701,0,0
497,323,0,0,0,0,0,0,0,0,0,-1,1721,701,0,0
504,323,0,0,0,0,0,0,0,0,0,-1,1728,701,0,0
511,323,0,0,0,0,0,0,0,0,0,-1,1735,701,0,0
518,323,0,0,0,0,0,0,0,0,0,-1,1742,701,0,0
525,323,0,0,0,0,0,0,0,0,0,-1,1749,701,0,0
532,323,16.1195,3.75397,0,0,0,0,0,0,0,-1,1756,701,16.1196,-3.75396
539,323,15.8151,4.36414,0,0,0,0,0,0,0,-1,1763,701,15.8151,-4.36415
546,323,14.9697,4.06653,0,0,0,0,0,0,0,-1,1770,701,14.9697,-4.06654
553,323,19.7142,3.41541,0,0,0,0,0,0,0,-1,1777,701,19.7142,-3.41542
560,323,19.1747,3.96667,0,0,0,0,0,0,0,-1,1784,701,19.1747,-3.96669
567,323,18.6687,4.57452,0,0,0,0,0,0,0,-1,1791,701,18.6686,-4.57453
574,323,12.514,5.89685,0,0,0,0,0,0,0,-1,1798,701,12.5141,-5.89683
581,323,11.821,5.3476,0,0,0,0,0,0,0,-1,1805,701,11.821,-5.34762
588,323,11.7933,7.00818,0,0,0,0,0,0,0,-1,1812,701,11.7933,-7.00819
595,323,6.67847,0.06604,0,0,0,0,0,0,0,-1,1819,701,6.67841,-0.0660418
602,323,11.2856,-0.595459,0,0,0,0,0,0,0,-1,1826,701,11.2856,0.595433
609,323,12.223,-0.509399,0,0,0,0,0,0,0,-1,1833,701,12.223,0.509392
616,323,12.4341,-0.126221,-0.00162623,-6.77856e-05,0.000388616,2.37447e-05,-0.00171776,1.33948,0.00115317,0.0137525,1840,701,12.4341,0.12621
623,323,12.4449,0.151123,-0.00363408,0.00160466,-0.000196178,0.001612,-0.00364141,-1.53342,0.00310758,0.0123193,1847,701,12.4449,-0.151131
630,323,12.4598,0.435486,-0.00312279,0.000309826,6.13308e-05,0.000310921,-0.00312389,1.55294,0.00219359,0.0138971,1854,701,12.4599,-0.435458
637,323,12.4742,0.683777,-0.00137824,-0.000359458,-0.000242417,-0.000304717,-0.00143298,-1.34871,0.000871687,0.0112276,1861,701,12.4743,-0.683761
644,323,12.4619,0.902222,-0.000550408,5.53578e-05,-0.000727066,0.000540106,-0.00103516,-0.982758,0.000924327,0.00820182,1868,701,12.462,-0.902204
651,323,12.4434,1.16138,-0.000234618,0.000406889,-0.0010969,0.00122897,-0.0010567,-0.927641,0.00132088,0.00985956,1875,701,12.4434,-1.16136
658,323,12.4049,1.42334,-5.30491e-06,0.000638355,-0.0015189,0.00186915,-0.0012361,-0.889796,0.00180519,0.01273,1882,701,12.405,-1.42331
665,323,12.3914,1.66956,0.000251154,0.00098954,-0.0020157,0.00266958,-0.00142889,-0.875973,0.00240212,0.0108764,1889,701,12.3914,-1.66955
672,323,12.4078,1.92865,0.000617656,0.00158125,-0.00268369,0.00382605,-0.00162715,-0.874216,0.0032326,0.00970319,1896,701,12.4078,-1.92867
679,323,12.3912,2.16797,0.00121121,0.00221345,-0.00330402,0.00505414,-0.00162947,-0.860659,0.00402409,0.0201694,1903,701,12.3912,-2.16799
686,323,12.2351,2.26117,0.00215698,0.00290989,-0.00395127,0.0065026,-0.00143573,-0.832892,0.00488449,0.0446473,1910,701,12.2351,-2.26117
693,323,12.1162,2.34747,0,0,0,0,0,0,0,-1,1917,701,12.1162,-2.34749
700,323,10.7705,0.828613,0,0,0,0,0,0,0,-1,1924,701,10.7705,-0.828591
707,323,12.7253,0.564026,0,0,0,0,0,0,0,-1,1931,701,12.7254,-0.564037
714,323,13.9398,0.620789,0,0,0,0,0,0,0,-1,1938,701,13.9399,-0.620761
721,323,0,0,0,0,0,0,0,0,0,-1,1945,701,0,0
728,323,0,0,0,0,0,0,0,0,0,-1,1952,701,0,0
735,323,0,0,0,0,0,0,0,0,0,-1,1959,701,0,0
742,323,0,0,0,0,0,0,0,0,0,-1,1966,701,0,0
749,323,0,0,0,0,0,0,0,0,0,-1,1973,701,0,0
756,323,0,0,0,0,0,0,0,0,0,-1,1980,701,0,0
763,323,0,0,0,0,0,0,0,0,0,-1,1987,701,0,0
770,323,0,0,0,0,0,0,0,0,0,-1,1994,701,0,0
777,323,0,0,0,0,0,0,0,0,0,-1,2001,701,0,0
784,323,0,0,0,0,0,0,0,0,0,-1,2008,701,0,0
791,323,0,0,0,0,0,0,0,0,0,-1,2015,701,0,0
798,323,0,0,0,0,0,0,0,0,0,-1,2022,701,0,0
805,323,0,0,0,0,0,0,0,0,0,-1,2029,701,0,0
812,323,0,0,0,0,0,0,0,0,0,-1,2036,701,0,0
-700,316,0,0,0,0,0,0,0,0,0,-1,524,708,0,0
-693,316,0,0,0,0,0,0,0,0,0,-1,531,708,0,0
-686,316,0,0,0,0,0,0,0,0,0,-1,538,708,0,0
-679,316,0,0,0,0,0,0,0,0,0,-1,545,708,0,0
-672,316,0,0,0,0,0,0,0,0,0,-1,552,708,0,0
-665,316,0,0,0,0,0,0,0,0,0,-1,559,708,0,0
-658,316,0,0,0,0,0,0,0,0,0,-1,566,708,0,0
-651,316,0,0,0,0,0,0,0,0,0,-1,573,708,0,0
-644,316,0,0,0,0,0,0,0,0,0,-1,580,708,0,0
-637,316,0,0,0,0,0,0,0,0,0,-1,587,708,0,0
-630,316,0,0,0,0,0,0,0,0,0,-1,594,708,0,0
-623,316,0,0,0,0,0,0,0,0,0,-1,601,708,0,0
-616,316,0,0,0,0,0,0,0,0,0,-1,608,708,0,0
-609,316,0,0,0,0,0,0,0,0,0,-1,615,708,0,0
-602,316,-0.451782,-0.0494995,0,0,0,0,0,0,0,-1,622,708,-0.451768,0.0495022
-595,316,-3.3761,2.17188,0,0,0,0,0,0,0,-1,629,708,-3.37609,-2.17189
-588,316,-5.00177,2.60675,0,0,0,0,0,0,0,-1,636,708,-5.00175,-2.60676
-581,316,-3.94653,0.393433,0,0,0,0,0,0,0,-1,643,708,-3.94655,-0.39342
-574,316,-3.65845,1.06451,0,0,0,0,0,0,0,-1,650,708,-3.65847,-1.06454
-567,316,-6.31555,0.698242,0,0,0,0,0,0,0,-1,657,708,-6.31552,-0.698223
-560,316,-6.35809,0.385803,-0.00846134,0.0120937,0.00499823,0.0132446,-0.00961229,1.34447,0.0132519,0.0476268,664,708,-6.35812,-0.38579
-553,316,-6.42688,0.124329,-0.00720961,0.0100274,0.00266156,0.010429,-0.00761122,1.42103,0.0104578,0.0292995,671,708,-6.42688,-0.124337
-546,316,-6.53046,-0.0281982,-0.00534988,0.00807176,0.00129462,0.00819549,-0.00547361,1.47551,0.00794385,0.0167324,678,708,-6.53045,0.0281725
-539,316,-6.50763,-0.263428,-0.00358601,0.00613856,0.000651368,0.006182,-0.00362945,1.50421,0.00572818,0.01179,685,708,-6.50761,0.263436
-532,316,-6.53302,-0.498047,-0.00223005,0.00451138,0.000323597,0.00452688,-0.00224555,1.52294,0.00398332,0.00995869,692,708,-6.53305,0.498041
-525,316,-6.52039,-0.725647,-0.00108794,0.00311957,0.000173003,0.00312667,-0.00109505,1.52977,0.00252974,0.0088615,699,708,-6.52038,0.725665
-518,316,-6.51398,-0.957825,-0.000121249,0.00201232,6.9572e-05,0.00201459,-0.000123515,1.53823,0.00138607,0.00907635,706,708,-6.51396,0.957807
-511,316,-6.53033,-1.19592,0.000616385,0.000505562,0.000349824,0.00091516,0.000206788,0.706852,0.00055419,0.0103491,713,708,-6.53036,1.19594
-504,316,-6.55609,-1.42303,0.00131738,-0.00112491,0.000898096,0.00161207,-0.00141961,0.317063,0.00175152,0.0127826,720,708,-6.55606,1.42304
-497,316,-6.52313,-1.64905,0.00202663,-0.00299562,0.00174917,0.00257579,-0.00354478,0.30421,0.00354844,0.0114655,727,708,-6.52314,1.64904
-490,316,-6.5285,-1.90527,0.00350339,-0.00615268,0.00409398,0.00500549,-0.00765478,0.351654,0.00736256,0.0140373,734,708,-6.52849,1.90526
-483,316,-6.44067,-2.21649,0.00593546,-0.009898,0.00814454,0.00937691,-0.0133394,0.399791,0.0131816,0.0378381,741,708,-6.44068,2.21647
-476,316,-6.27887,-2.53333,0,0,0,0,0,0,0,-1,748,708,-6.27888,2.53333
-469,316,-6.24194,-1.42725,0,0,0,0,0,0,0,-1,755,708,-6.24192,1.42725
-462,316,-5.74237,-1.40039,0,0,0,0,0,0,0,-1,762,708,-5.74238,1.40039
-455,316,-5.44745,-1.21899,0,0,0,0,0,0,0,-1,769,708,-5.44746,1.21898
-448,316,-5.21997,-1.72546,0,0,0,0,0,0,0,-1,776,708,-5.22,1.72546
-441,316,-4.64679,-2.33038,0,0,0,0,0,0,0,-1,783,708,-4.64677,2.33039
-434,316,-7.45673,0.935486,0,0,0,0,0,0,0,-1,790,708,-7.45674,-0.935479
-427,316,-7.84717,0.0581055,0,0,0,0,0,0,0,-1,797,708,-7.84716,-0.0581049
-420,316,-8.02203,-0.534973,0,0,0,0,0,0,0,-1,804,708,-8.02205,0.534991
-413,316,0,0,0,0,0,0,0,0,0,-1,811,708,0,0
-406,316,0,0,0,0,0,0,0,0,0,-1,818,708,0,0
-399,316,0,0,0,0,0,0,0,0,0,-1,825,708,0,0
-392,316,0,0,0,0,0,0,0,0,0,-1,832,708,0,0
-385,316,0,0,0,0,0,0,0,0,0,-1,839,708,0,0
-378,316,0,0,0,0,0,0,0,0,0,-1,846,708,0,0
-371,316,0,0,0,0,0,0,0,0,0,-1,853,708,0,0
-364,316,0,0,0,0,0,0,0,0,0,-1,860,708,0,0
-357,316,0,0,0,0,0,0,0,0,0,-1,867,708,0,0
-350,316,0,0,0,0,0,0,0,0,0,-1,874,708,0,0
-343,316,0,0,0,0,0,0,0,0,0,-1,881,708,0,0
-336,316,0,0,0,0,0,0,0,0,0,-1,888,708,0,0
-329,316,0,0,0,0,0,0,0,0,0,-1,895,708,0,0
-322,316,0,0,0,0,0,0,0,0,0,-1,902,708,0,0
-315,316,0,0,0,0,0,0,0,0,0,-1,909,708,0,0
-308,316,0,0,0,0,0,0,0,0,0,-1,916,708,0,0
-301,316,0,0,0,0,0,0,0,0,0,-1,923,708,0,0
-294,316,0,0,0,0,0,0,0,0,0,-1,930,708,0,0
-287,316,0,0,0,0,0,0,0,0,0,-1,937,708,0,0
-280,316,0,0,0,0,0,0,0,0,0,-1,944,708,0,0
-273,316,0,0,0,0,0,0,0,0,0,-1,951,708,0,0
-266,316,0,0,0,0,0,0,0,0,0,-1,958,708,0,0
-259,316,0,0,0,0,0,0,0,0,0,-1,965,708,0,0
-252,316,0,0,0,0,0,0,0,0,0,-1,972,708,0,0
-245,316,0,0,0,0,0,0,0,0,0,-1,979,708,0,0
-238,316,0,0,0,0,0,0,0,0,0,-1,986,708,0,0
-231,316,0,0,0,0,0,0,0,0,0,-1,993,708,0,0
-224,316,0,0,0,0,0,0,0,0,0,-1,1000,708,0,0
-217,316,0,0,0,0,0,0,0,0,0,-1,1007,708,0,0
-210,316,0,0,0,0,0,0,0,0,0,-1,1014,708,0,0
-203,316,0,0,0,0,0,0,0,0,0,-1,1021,708,0,0
-196,316,0,0,0,0,0,0,0,0,0,-1,1028,708,0,0
-189,316,0,0,0,0,0,0,0,0,0,-1,1035,708,0,0
-182,316,0,0,0,0,0,0,0,0,0,-1,1042,708,0,0
-175,316,0,0,0,0,0,0,0,0,0,-1,1049,708,0,0
-168,316,0,0,0,0,0,0,0,0,0,-1,1056,708,0,0
-161,316,0,0,0,0,0,0,0,0,0,-1,1063,708,0,0
-154,316,0,0,0,0,0,0,0,0,0,-1,1070,708,0,0
-147,316,0,0,0,0,0,0,0,0,0,-1,1077,708,0,0
-140,316,0,0,0,0,0,0,0,0,0,-1,1084,708,0,0
-133,316,0,0,0,0,0,0,0,0,0,-1,1091,708,0,0
-126,316,0,0,0,0,0,0,0,0,0,-1,1098,708,0,0
-119,316,0,0,0,0,0,0,0,0,0,-1,1105,708,0,0
-112,316,0,0,0,0,0,0,0,0,0,-1,1112,708,0,0
-105,316,0,0,0,0,0,0,0,0,0,-1,1119,708,0,0
-98,316,0,0,0,0,0,0,0,0,0,-1,1126,708,0,0
-91,316,0,0,0,0,0,0,0,0,0,-1,1133,708,0,0
-84,316,0,0,0,0,0,0,0,0,0,-1,1140,708,0,0
-77,316,0,0,0,0,0,0,0,0,0,-1,1147,708,0,0
-70,316,0,0,0,0,0,0,0,0,0,-1,1154,708,0,0
-63,316,0,0,0,0,0,0,0,0,0,-1,1161,708,0,0
-56,316,0,0,0,0,0,0,0,0,0,-1,1168,708,0,0
-49,316,0,0,0,0,0,0,0,0,0,-1,1175,708,0,0
-42,316,0,0,0,0,0,0,0,0,0,-1,1182,708,0,0
-35,316,0,0,0,0,0,0,0,0,0,-1,1189,708,0,0
-28,316,0,0,0,0,0,0,0,0,0,-1,1196,708,0,0
-21,316,0,0,0,0,0,0,0,0,0,-1,1203,708,0,0
-14,316,0,0,0,0,0,0,0,0,0,-1,1210,708,0,0
-7,316,0,0,0,0,0,0,0,0,0,-1,1217,708,0,0
0,316,0,0,0,0,0,0,0,0,0,-1,1224,708,0,0
7,316,0,0,0,0,0,0,0,0,0,-1,1231,708,0,0
14,316,0,0,0,0,0,0,0,0,0,-1,1238,708,0,0
21,316,0,0,0,0,0,0,0,0,0,-1,1245,708,0,0
28,316,0,0,0,0,0,0,0,0,0,-1,1252,708,0,0
35,316,0,0,0,0,0,0,0,0,0,-1,1259,708,0,0
42,316,0,0,0,0,0,0,0,0,0,-1,1266,708,0,0
49,316,0,0,0,0,0,0,0,0,0,-1,1273,708,0,0
56,316,0,0,0,0,0,0,0,0,0,-1,1280,708,0,0
63,316,0,0,0,0,0,0,0,0,0,-1,1287,708,0,0
70,316,0,0,0,0,0,0,0,0,0,-1,1294,708,0,0
77,316,0,0,0,0,0,0,0,0,0,-1,1301,708,0,0
84,316,0,0,0,0,0,0,0,0,0,-1,1308,708,0,0
91,316,0,0,0,0,0,0,0,0,0,-1,1315,708,0,0
98,316,0,0,0,0,0,0,0,0,0,-1,1322,708,0,0
105,316,0,0,0,0,0,0,0,0,0,-1,1329,708,0,0
112,316,0,0,0,0,0,0,0,0,0,-1,1336,708,0,0
119,316,0,0,0,0,0,0,0,0,0,-1,1343,708,0,0
126,316,0,0,0,0,0,0,0,0,0,-1,1350,708,0,0
133,316,0,0,0,0,0,0,0,0,0,-1,1357,708,0,0
140,316,0,0,0,0,0,0,0,0,0,-1,1364,708,0,0
147,316,0,0,0,0,0,0,0,0,0,-1,1371,708,0,0
154,316,0,0,0,0,0,0,0,0,0,-1,1378,708,0,0
161,316,0,0,0,0,0,0,0,0,0,-1,1385,708,0,0
168,316,0,0,0,0,0,0,0,0,0,-1,1392,708,0,0
175,316,0,0,0,0,0,0,0,0,0,-1,1399,708,0,0
182,316,0,0,0,0,0,0,0,0,0,-1,1406,708,0,0
189,316,0,0,0,0,0,0,0,0,0,-1,1413,708,0,0
196,316,0,0,0,0,0,0,0,0,0,-1,1420,708,0,0
203,316,0,0,0,0,0,0,0,0,0,-1,1427,708,0,0
210,316,0,0,0,0,0,0,0,0,0,-1,1434,708,0,0
217,316,0,0,0,0,0,0,0,0,0,-1,1441,708,0,0
224,316,0,0,0,0,0,0,0,0,0,-1,1448,708,0,0
231,316,0,0,0,0,0,0,0,0,0,-1,1455,708,0,0
238,316,0,0,0,0,0,0,0,0,0,-1,1462,708,0,0
245,316,0,0,0,0,0,0,0,0,0,-1,1469,708,0,0
252,316,0,0,0,0,0,0,0,0,0,-1,1476,708,0,0
259,316,0,0,0,0,0,0,0,0,0,-1,1483,708,0,0
266,316,0,0,0,0,0,0,0,0,0,-1,1490,708,0,0
273,316,0,0,0,0,0,0,0,0,0,-1,1497,708,0,0
280,316,0,0,0,0,0,0,0,0,0,-1,1504,708,0,0
287,316,0,0,0,0,0,0,0,0,0,-1,1511,708,0,0
294,316,0,0,0,0,0,0,0,0,0,-1,1518,708,0,0
301,316,0,0,0,0,0,0,0,0,0,-1,1525,708,0,0
308,316,0,0,0,0,0,0,0,0,0,-1,1532,708,0,0
315,316,0,0,0,0,0,0,0,0,0,-1,1539,708,0,0
322,316,0,0,0,0,0,0,0,0,0,-1,1546,708,0,0
329,316,0,0,0,0,0,0,0,0,0,-1,1553,708,0,0
336,316,0,0,0,0,0,0,0,0,0,-1,1560,708,0,0
343,316,0,0,0,0,0,0,0,0,0,-1,1567,708,0,0
350,316,0,0,0,0,0,0,0,0,0,-1,1574,708,0,0
357,316,0,0,0,0,0,0,0,0,0,-1,1581,708,0,0
364,316,0,0,0,0,0,0,0,0,0,-1,1588,708,0,0
371,316,0,0,0,0,0,0,0,0,0,-1,1595,708,0,0
378,316,0,0,0,0,0,0,0,0,0,-1,1602,708,0,0
385,316,0,0,0,0,0,0,0,0,0,-1,1609,708,0,0
392,316,0,0,0,0,0,0,0,0,0,-1,1616,708,0,0
399,316,0,0,0,0,0,0,0,0,0,-1,1623,708,0,0
406,316,0,0,0,0,0,0,0,0,0,-1,1630,708,0,0
413,316,0,0,0,0,0,0,0,0,0,-1,1637,708,0,0
420,316,0,0,0,0,0,0,0,0,0,-1,1644,708,0,0
427,316,0,0,0,0,0,0,0,0,0,-1,1651,708,0,0
434,316,0,0,0,0,0,0,0,0,0,-1,1658,708,0,0
441,316,0,0,0,0,0,0,0,0,0,-1,1665,708,0,0
448,316,0,0,0,0,0,0,0,0,0,-1,1672,708,0,0
455,316,0,0,0,0,0,0,0,0,0,-1,1679,708,0,0
462,316,0,0,0,0,0,0,0,0,0,-1,1686,708,0,0
469,316,0,0,0,0,0,0,0,0,0,-1,1693,708,0,0
476,316,0,0,0,0,0,0,0,0,0,-1,1700,708,0,0
483,316,0,0,0,0,0,0,0,0,0,-1,1707,708,0,0
490,316,0,0,0,0,0,0,0,0,0,-1,1714,708,0,0
497,316,0,0,0,0,0,0,0,0,0,-1,1721,708,0,0
504,316,0,0,0,0,0,0,0,0,0,-1,1728,708,0,0
511,316,0,0,0,0,0,0,0,0,0,-1,1735,708,0,0
518,316,0,0,0,0,0,0,0,0,0,-1,1742,708,0,0
525,316,0,0,0,0,0,0,0,0,0,-1,1749,708,0,0
532,316,15.6722,2.51886,0,0,0,0,0,0,0,-1,1756,708,15.6722,-2.51888
539,316,19.1591,2.70428,0,0,0,0,0,0,0,-1,1763,708,19.159,-2.70428
546,316,19.3698,3.4729,0,0,0,0,0,0,0,-1,1770,708,19.3697,-3.47291
553,316,19.9391,3.10297,0,0,0,0,0,0,0,-1,1777,708,19.9391,-3.10297
560,316,19.39,3.67322,0,0,0,0,0,0,0,-1,1784,708,19.39,-3.67322
567,316,20.8519,0.674194,0,0,0,0,0,0,0,-1,1791,708,20.8519,-0.674223
574,316,18.2991,4.84393,0,0,0,0,0,0,0,-1,1798,708,18.2991,-4.84392
581,316,19.7086,2.66235,0,0,0,0,0,0,0,-1,1805,708,19.7087,-2.66236
588,316,19.7659,2.90198,0,0,0,0,0,0,0,-1,1812,708,19.7659,-2.902
595,316,12.5363,1.50702,0,0,0,0,0,0,0,-1,1819,708,12.5363,-1.50701
602,316,7.79919,0.0422363,0,0,0,0,0,0,0,-1,1826,708,7.79923,-0.0422066
609,316,12.6755,-0.391479,0,0,0,0,0,0,0,-1,1833,708,12.6755,0.391453
616,316,12.7097,-0.0982666,-0.000821229,0.000510668,-0.00062937,0.000761013,-0.00107157,-1.19221,0.0010631,0.0172206,1840,708,12.7097,0.0982406
623,316,12.6986,0.162598,-0.0034946,0.0020745,-0.00113011,0.00229509,-0.00371519,-1.37803,0.00350218,0.0110473,1847,708,12.6986,-0.162582
630,316,12.6829,0.408813,-0.00339153,0.000327626,-0.000607159,0.000424237,-0.00348814,-1.413,0.00247897,0.0131133,1854,708,12.6828,-0.408834
637,316,12.7087,0.671143,-0.00166682,-0.000732948,-0.000785623,-0.000285974,-0.0021138,-1.05353,0.00132421,0.013027,1861,708,12.7087,-0.671138
644,316,12.7299,0.922791,-0.000758911,-0.000263663,-0.00108586,0.00060245,-0.00162502,-0.897503,0.00133044,0.0124051,1868,708,12.7299,-0.922774
651,316,12.707,1.16876,-0.000400743,0.000133161,-0.00117663,0.00107274,-0.00134033,-0.896949,0.00139604,0.0128276,1875,708,12.7071,-1.16875
658,316,12.6797,1.43646,-0.000204521,0.000261205,-0.00134333,0.00139171,-0.00133502,-0.871219,0.00157439,0.0211103,1882,708,12.6797,-1.43645
665,316,12.6379,1.70703,-3.55977e-05,0.00054673,-0.00163579,0.00191707,-0.00140593,-0.873474,0.00192609,0.0164331,1889,708,12.6379,-1.70704
672,316,12.6705,1.94977,0.00018387,0.00109621,-0.00217955,0.00286682,-0.00158673,-0.888557,0.00260642,0.0123632,1896,708,12.6705,-1.9498
679,316,12.6901,2.19604,0.000556902,0.00162627,-0.0026641,0.00380881,-0.00162563,-0.884433,0.00322087,0.0179623,1903,708,12.69,-2.19605
686,316,12.5806,2.3833,0.00114277,0.0021254,-0.0032419,0.00491301,-0.00164484,-0.860602,0.00393978,0.0332893,1910,708,12.5806,-2.38329
693,316,12.4403,2.57538,0,0,0,0,0,0,0,-1,1917,708,12.4403,-2.57538
700,316,11.1136,2.43738,0,0,0,0,0,0,0,-1,1924,708,11.1136,-2.43735
707,316,11.7877,1.08746,0,0,0,0,0,0,0,-1,1931,708,11.7877,-1.08746
714,316,12.8584,5.60095,0,0,0,0,0,0,0,-1,1938,708,12.8584,-5.60096
721,316,13.9999,5.36664,0,0,0,0,0,0,0,-1,1945,708,13.9999,-5.36665
728,316,0,0,0,0,0,0,0,0,0,-1,1952,708,0,0
735,316,0,0,0,0,0,0,0,0,0,-1,1959,708,0,0
742,316,0,0,0,0,0,0,0,0,0,-1,1966,708,0,0
749,316,0,0,0,0,0,0,0,0,0,-1,1973,708,0,0
756,316,0,0,0,0,0,0,0,0,0,-1,1980,708,0,0
763,316,0,0,0,0,0,0,0,0,0,-1,1987,708,0,0
770,316,0,0,0,0,0,0,0,0,0,-1,1994,708,0,0
777,316,0,0,0,0,0,0,0,0,0,-1,2001,708,0,0
784,316,0,0,0,0,0,0,0,0,0,-1,2008,708,0,0
791,316,0,0,0,0,0,0,0,0,0,-1,2015,708,0,0
798,316,0,0,0,0,0,0,0,0,0,-1,2022,708,0,0
805,316,0,0,0,0,0,0,0,0,0,-1,2029,708,0,0
812,316,0,0,0,0,0,0,0,0,0,-1,2036,708,0,0
-700,309,0,0,0,0,0,0,0,0,0,-1,524,715,0,0
-693,309,0,0,0,0,0,0,0,0,0,-1,531,715,0,0
-686,309,0,0,0,0,0,0,0,0,0,-1,538,715,0,0
-679,309,0,0,0,0,0,0,0,0,0,-1,545,715,0,0
-672,309,0,0,0,0,0,0,0,0,0,-1,552,715,0,0
-665,309,0,0,0,0,0,0,0,0,0,-1,559,715,0,0
-658,309,0,0,0,0,0,0,0,0,0,-1,566,715,0,0
-651,309,0,0,0,0,0,0,0,0,0,-1,573,715,0,0
-644,309,0,0,0,0,0,0,0,0,0,-1,580,715,0,0
-637,309,0,0,0,0,0,0,0,0,0,-1,587,715,0,0
-630,309,0,0,0,0,0,0,0,0,0,-1,594,715,0,0
-623,309,0,0,0,0,0,0,0,0,0,-1,601,715,0,0
-616,309,0,0,0,0,0,0,0,0,0,-1,608,715,0,0
-609,309,-5.95392,-3.93689,0,0,0,0,0,0,0,-1,615,715,-5.95392,3.93686
-602,309,-4.99786,-3.31287,0,0,0,0,0,0,0,-1,622,715,-4.99786,3.31284
-595,309,-6.80847,2.4046,0,0,0,0,0,0,0,-1,629,715,-6.80845,-2.40458
-588,309,-6.08795,2.19324,0,0,0,0,0,0,0,-1,636,715,-6.08793,-2.19325
-581,309,-5.97552,1.3277,0,0,0,0,0,0,0,-1,643,715,-5.97552,-1.32769
-574,309,-5.77289,-0.180908,0,0,0,0,0,0,0,-1,650,715,-5.77287,0.180891
-567,309,-6.19794,0.525635,0,0,0,0,0,0,0,-1,657,715,-6.19797,-0.525652
-560,309,-6.4212,0.279419,-0.00784494,0.00772318,0.00590802,0.00971134,-0.0098331,1.24618,0.0112841,0.0486654,664,715,-6.42122,-0.279446
-553,309,-6.69434,0.121887,-0.00714867,0.00657574,0.00334992,0.00734976,-0.00792268,1.34373,0.00881961,0.029963,671,715,-6.69431,-0.121898
-546,309,-6.77246,-0.0509644,-0.00547085,0.00533209,0.00190619,0.00565857,-0.00579733,1.40117,0.00661423,0.0164571,678,715,-6.77246,0.0509785
-539,309,-6.76202,-0.278442,-0.0038472,0.00395832,0.00118565,0.00413445,-0.00402333,1.42333,0.00471004,0.0145833,685,715,-6.76202,0.278432
-532,309,-6.75964,-0.492554,-0.00256025,0.00287957,0.000759647,0.00298366,-0.00266434,1.43462,0.00326261,0.0115932,692,715,-6.75966,0.492571
-525,309,-6.76788,-0.737793,-0.00144243,0.00196831,0.000517206,0.00204501,-0.00151913,1.42356,0.00206521,0.0134334,699,715,-6.76788,0.737813
-518,309,-6.76477,-0.982178,-0.000588668,0.00120177,0.000360974,0.0012718,-0.000658705,1.37915,0.00113316,0.0135666,706,715,-6.76475,0.982195
-511,309,-6.75836,-1.211,-2.01116e-05,-0.000143926,0.000701894,0.0006226,-0.000786637,0.741412,0.000815458,0.0113781,713,715,-6.75839,1.211
-504,309,-6.75183,-1.41132,0.000524739,-0.00165496,0.00140278,0.00121128,-0.0023415,0.455143,0.00208551,0.00903032,720,715,-6.75185,1.41132
-497,309,-6.74426,-1.63287,0.0011014,-0.00368113,0.0024499,0.00213361,-0.00471334,0.398755,0.00404553,0.0130631,727,715,-6.74425,1.63288
-490,309,-6.72821,-1.87146,0.00257494,-0.00716383,0.00520293,0.00483167,-0.00942055,0.40925,0.00836949,0.0264139,734,715,-6.72822,1.87148
-483,309,-6.60425,-2.22327,0,0,0,0,0,0,0,-1,741,715,-6.60426,2.22328
-476,309,-5.29486,-1.2262,0,0,0,0,0,0,0,-1,748,715,-5.29484,1.22622
-469,309,-4.22717,-0.592896,0,0,0,0,0,0,0,-1,755,715,-4.2272,0.592905
-462,309,-7.69855,1.83942,0,0,0,0,0,0,0,-1,762,715,-7.69854,-1.83943
-455,309,-5.70184,-1.18042,0,0,0,0,0,0,0,-1,769,715,-5.70185,1.18044
-448,309,-5.56927,-2.21387,0,0,0,0,0,0,0,-1,776,715,-5.56928,2.21385
-441,309,-7.34198,1.73737,0,0,0,0,0,0,0,-1,783,715,-7.34199,-1.73737
-434,309,-7.58209,1.37335,0,0,0,0,0,0,0,-1,790,715,-7.58208,-1.37335
-427,309,-7.76324,1.12799,0,0,0,0,0,0,0,-1,797,715,-7.76323,-1.12801
-420,309,-11.6252,2.34113,0,0,0,0,0,0,0,-1,804,715,-11.6252,-2.34114
-413,309,0,0,0,0,0,0,0,0,0,-1,811,715,0,0
-406,309,0,0,0,0,0,0,0,0,0,-1,818,715,0,0
-399,309,0,0,0,0,0,0,0,0,0,-1,825,715,0,0
-392,309,0,0,0,0,0,0,0,0,0,-1,832,715,0,0
-385,309,0,0,0,0,0,0,0,0,0,-1,839,715,0,0
-378,309,0,0,0,0,0,0,0,0,0,-1,846,715,0,0
-371,309,0,0,0,0,0,0,0,0,0,-1,853,715,0,0
-364,309,0,0,0,0,0,0,0,0,0,-1,860,715,0,0
-357,309,0,0,0,0,0,0,0,0,0,-1,867,715,0,0
-350,309,0,0,0,0,0,0,0,0,0,-1,874,715,0,0
-343,309,0,0,0,0,0,0,0,0,0,-1,881,715,0,0
-336,309,0,0,0,0,0,0,0,0,0,-1,888,715,0,0
-329,309,0,0,0,0,0,0,0,0,0,-1,895,715,0,0
-322,309,0,0,0,0,0,0,0,0,0,-1,902,715,0,0
-315,309,0,0,0,0,0,0,0,0,0,-1,909,715,0,0
-308,309,0,0,0,0,0,0,0,0,0,-1,916,715,0,0
-301,309,0,0,0,0,0,0,0,0,0,-1,923,715,0,0
-294,309,0,0,0,0,0,0,0,0,0,-1,930,715,0,0
-287,309,0,0,0,0,0,0,0,0,0,-1,937,715,0,0
-280,309,0,0,0,0,0,0,0,0,0,-1,944,715,0,0
-273,309,0,0,0,0,0,0,0,0,0,-1,951,715,0,0
-266,309,0,0,0,0,0,0,0,0,0,-1,958,715,0,0
-259,309,0,0,0,0,0,0,0,0,0,-1,965,715,0,0
-252,309,0,0,0,0,0,0,0,0,0,-1,972,715,0,0
-245,309,0,0,0,0,0,0,0,0,0,-1,979,715,0,0
-238,309,0,0,0,0,0,0,0,0,0,-1,986,715,0,0
-231,309,0,0,0,0,0,0,0,0,0,-1,993,715,0,0
-224,309,0,0,0,0,0,0,0,0,0,-1,1000,715,0,0
-217,309,0,0,0,0,0,0,0,0,0,-1,1007,715,0,0
-210,309,0,0,0,0,0,0,0,0,0,-1,1014,715,0,0
-203,309,0,0,0,0,0,0,0,0,0,-1,1021,715,0,0
-196,309,0,0,0,0,0,0,0,0,0,-1,1028,715,0,0
-189,309,0,0,0,0,0,0,0,0,0,-1,1035,715,0,0
-182,309,0,0,0,0,0,0,0,0,0,-1,1042,715,0,0
-175,309,0,0,0,0,0,0,0,0,0,-1,1049,715,0,0
-168,309,0,0,0,0,0,0,0,0,0,-1,1056,715,0,0
-161,309,0,0,0,0,0,0,0,0,0,-1,1063,715,0,0
-154,309,0,0,0,0,0,0,0,0,0,-1,1070,715,0,0
-147,309,0,0,0,0,0,0,0,0,0,-1,1077,715,0,0
-140,309,0,0,0,0,0,0,0,0,0,-1,1084,715,0,0
-133,309,0,0,0,0,0,0,0,0,0,-1,1091,715,0,0
-126,309,0,0,0,0,0,0,0,0,0,-1,1098,715,0,0
-119,309,0,0,0,0,0,0,0,0,0,-1,1105,715,0,0
-112,309,0,0,0,0,0,0,0,0,0,-1,1112,715,0,0
-105,309,0,0,0,0,0,0,0,0,0,-1,1119,715,0,0
-98,309,0,0,0,0,0,0,0,0,0,-1,1126,715,0,0
-91,309,0,0,0,0,0,0,0,0,0,-1,1133,715,0,0
-84,309,0,0,0,0,0,0,0,0,0,-1,1140,715,0,0
-77,309,0,0,0,0,0,0,0,0,0,-1,1147,715,0,0
-70,309,0,0,0,0,0,0,0,0,0,-1,1154,715,0,0
-63,309,0,0,0,0,0,0,0,0,0,-1,1161,715,0,0
-56,309,0,0,0,0,0,0,0,0,0,-1,1168,715,0,0
-49,309,0,0,0,0,0,0,0,0,0,-1,1175,715,0,0
-42,309,0,0,0,0,0,0,0,0,0,-1,1182,715,0,0
-35,309,0,0,0,0,0,0,0,0,0,-1,1189,715,0,0
-28,309,0,0,0,0,0,0,0,0,0,-1,1196,715,0,0
-21,309,0,0,0,0,0,0,0,0,0,-1,1203,715,0,0
-14,309,0,0,0,0,0,0,0,0,0,-1,1210,715,0,0
-7,309,0,0,0,0,0,0,0,0,0,-1,1217,715,0,0
0,309,0,0,0,0,0,0,0,0,0,-1,1224,715,0,0
7,309,0,0,0,0,0,0,0,0,0,-1,1231,715,0,0
14,309,0,0,0,0,0,0,0,0,0,-1,1238,715,0,0
21,309,0,0,0,0,0,0,0,0,0,-1,1245,715,0,0
28,309,0,0,0,0,0,0,0,0,0,-1,1252,715,0,0
35,309,0,0,0,0,0,0,0,0,0,-1,1259,715,0,0
42,309,0,0,0,0,0,0,0,0,0,-1,1266,715,0,0
49,309,0,0,0,0,0,0,0,0,0,-1,1273,715,0,0
56,309,0,0,0,0,0,0,0,0,0,-1,1280,715,0,0
63,309,0,0,0,0,0,0,0,0,0,-1,1287,715,0,0
70,309,0,0,0,0,0,0,0,0,0,-1,1294,715,0,0
77,309,0,0,0,0,0,0,0,0,0,-1,1301,715,0,0
84,309,0,0,0,0,0,0,0,0,0,-1,1308,715,0,0
91,309,0,0,0,0,0,0,0,0,0,-1,1315,715,0,0
98,309,0,0,0,0,0,0,0,0,0,-1,1322,715,0,0
105,309,0,0,0,0,0,0,0,0,0,-1,1329,715,0,0
112,309,0,0,0,0,0,0,0,0,0,-1,1336,715,0,0
119,309,0,0,0,0,0,0,0,0,0,-1,1343,715,0,0
126,309,0,0,0,0,0,0,0,0,0,-1,1350,715,0,0
133,309,0,0,0,0,0,0,0,0,0,-1,1357,715,0,0
140,309,0,0,0,0,0,0,0,0,0,-1,1364,715,0,0
147,309,0,0,0,0,0,0,0,0,0,-1,1371,715,0,0
154,309,0,0,0,0,0,0,0,0,0,-1,1378,715,0,0
161,309,0,0,0,0,0,0,0,0,0,-1,1385,715,0,0
168,309,0,0,0,0,0,0,0,0,0,-1,1392,715,0,0
175,309,0,0,0,0,0,0,0,0,0,-1,1399,715,0,0
182,309,0,0,0,0,0,0,0,0,0,-1,1406,715,0,0
189,309,0,0,0,0,0,0,0,0,0,-1,1413,715,0,0
196,309,0,0,0,0,0,0,0,0,0,-1,1420,715,0,0
203,309,0,0,0,0,0,0,0,0,0,-1,1427,715,0,0
210,309,0,0,0,0,0,0,0,0,0,-1,1434,715,0,0
217,309,0,0,0,0,0,0,0,0,0,-1,1441,715,0,0
224,309,0,0,0,0,0,0,0,0,0,-1,1448,715,0,0
231,309,0,0,0,0,0,0,0,0,0,-1,1455,715,0,0
238,309,0,0,0,0,0,0,0,0,0,-1,1462,715,0,0
245,309,0,0,0,0,0,0,0,0,0,-1,1469,715,0,0
252,309,0,0,0,0,0,0,0,0,0,-1,1476,715,0,0
259,309,0,0,0,0,0,0,0,0,0,-1,1483,715,0,0
266,309,0,0,0,0,0,0,0,0,0,-1,1490,715,0,0
273,309,0,0,0,0,0,0,0,0,0,-1,1497,715,0,0
280,309,0,0,0,0,0,0,0,0,0,-1,1504,715,0,0
287,309,0,0,0,0,0,0,0,0,0,-1,1511,715,0,0
294,309,0,0,0,0,0,0,0,0,0,-1,1518,715,0,0
301,309,0,0,0,0,0,0,0,0,0,-1,1525,715,0,0
308,309,0,0,0,0,0,0,0,0,0,-1,1532,715,0,0
315,309,0,0,0,0,0,0,0,0,0,-1,1539,715,0,0
322,309,0,0,0,0,0,0,0,0,0,-1,1546,715,0,0
329,309,0,0,0,0,0,0,0,0,0,-1,1553,715,0,0
336,309,0,0,0,0,0,0,0,0,0,-1,1560,715,0,0
343,309,0,0,0,0,0,0,0,0,0,-1,1567,715,0,0
350,309,0,0,0,0,0,0,0,0,0,-1,1574,715,0,0
357,309,0,0,0,0,0,0,0,0,0,-1,1581,715,0,0
364,309,0,0,0,0,0,0,0,0,0,-1,1588,715,0,0
371,309,0,0,0,0,0,0,0,0,0,-1,1595,715,0,0
378,309,0,0,0,0,0,0,0,0,0,-1,1602,715,0,0
385,309,0,0,0,0,0,0,0,0,0,-1,1609,715,0,0
392,309,0,0,0,0,0,0,0,0,0,-1,1616,715,0,0
399,309,0,0,0,0,0,0,0,0,0,-1,1623,715,0,0
406,309,0,0,0,0,0,0,0,0,0,-1,1630,715,0,0
413,309,0,0,0,0,0,0,0,0,0,-1,1637,715,0,0
420,309,0,0,0,0,0,0,0,0,0,-1,1644,715,0,0
427,309,0,0,0,0,0,0,0,0,0,-1,1651,715,0,0
434,309,0,0,0,0,0,0,0,0,0,-1,1658,715,0,0
441,309,0,0,0,0,0,0,0,0,0,-1,1665,715,0,0
448,309,0,0,0,0,0,0,0,0,0,-1,1672,715,0,0
455,309,0,0,0,0,0,0,0,0,0,-1,1679,715,0,0
462,309,0,0,0,0,0,0,0,0,0,-1,1686,715,0,0
469,309,0,0,0,0,0,0,0,0,0,-1,1693,715,0,0
476,309,0,0,0,0,0,0,0,0,0,-1,1700,715,0,0
483,309,0,0,0,0,0,0,0,0,0,-1,1707,715,0,0
490,309,0,0,0,0,0,0,0,0,0,-1,1714,715,0,0
497,309,0,0,0,0,0,0,0,0,0,-1,1721,715,0,0
504,309,0,0,0,0,0,0,0,0,0,-1,1728,715,0,0
511,309,0,0,0,0,0,0,0,0,0,-1,1735,715,0,0
518,309,0,0,0,0,0,0,0,0,0,-1,1742,715,0,0
525,309,0,0,0,0,0,0,0,0,0,-1,1749,715,0,0
532,309,0,0,0,0,0,0,0,0,0,-1,1756,715,0,0
539,309,19.4202,2.61884,0,0,0,0,0,0,0,-1,1763,715,19.4202,-2.61883
546,309,19.571,3.34857,0,0,0,0,0,0,0,-1,1770,715,19.571,-3.3486
553,309,20.3191,3.7149,0,0,0,0,0,0,0,-1,1777,715,20.3191,-3.71488
560,309,21.6508,-0.27533,0,0,0,0,0,0,0,-1,1784,715,21.6508,0.275359
567,309,20.9368,0.399292,0,0,0,0,0,0,0,-1,1791,715,20.9368,-0.3993
574,309,20.6499,1.4809,0,0,0,0,0,0,0,-1,1798,715,20.6499,-1.48087
581,309,20.2668,2.29675,0.0189687,0.0060722,-0.00282231,0.0195592,0.0054816,-0.206284,0.0116504,0.0468948,1805,715,20.2669,-2.29676
588,309,20.0039,2.70148,0.0110449,0.00610692,-0.00235749,0.0119897,0.00516216,-0.38115,0.00694445,0.048483,1812,715,20.0039,-2.70145
595,309,19.585,3.71558,0,0,0,0,0,0,0,-1,1819,715,19.5849,-3.71555
602,309,11.0811,3.47772,0,0,0,0,0,0,0,-1,1826,715,11.0811,-3.47772
609,309,12.9963,-0.376282,0,0,0,0,0,0,0,-1,1833,715,12.9963,0.376291
616,309,12.9934,-0.0932007,-0.000221906,0.000986419,-0.00107588,0.00161616,-0.000851648,-1.04123,0.0014474,0.0262306,1840,715,12.9934,0.0931708
623,309,12.9558,0.171326,-0.00337265,0.00246171,-0.00158174,0.00286294,-0.00377388,-1.32237,0.00384378,0.0111107,1847,715,12.9558,-0.171335
630,309,12.9156,0.432495,-0.0036039,0.000339233,-0.000944008,0.000553581,-0.00381825,-1.34752,0.00274867,0.0105161,1854,715,12.9156,-0.43251
637,309,12.9312,0.68811,-0.00188244,-0.00105081,-0.00111345,-0.000278066,-0.00265518,-0.964101,0.0016851,0.0135574,1861,715,12.9312,-0.688139
644,309,12.9363,0.941833,-0.000856804,-0.000504449,-0.00131652,0.000647629,-0.00200888,-0.851913,0.00159945,0.0144833,1868,715,12.9363,-0.941859
651,309,12.9451,1.18158,-0.000396148,-2.56761e-05,-0.00120336,0.00100662,-0.00142845,-0.861765,0.0014129,0.0128098,1875,715,12.9451,-1.18158
658,309,12.9313,1.42468,-0.000186721,-5.8978e-06,-0.0011719,0.00107908,-0.00127169,-0.823897,0.00135874,0.0193619,1882,715,12.9313,-1.42468
665,309,12.9261,1.69006,-4.48337e-05,0.000249064,-0.00127673,0.00138728,-0.00118305,-0.842695,0.00148554,0.0177035,1889,715,12.9261,-1.69004
672,309,12.9348,1.93451,0.000120463,0.000779738,-0.00174351,0.0022245,-0.0013243,-0.878828,0.00207076,0.0154781,1896,715,12.9348,-1.93449
679,309,12.9827,2.18341,0.000392502,0.00124565,-0.00215327,0.00301419,-0.00137604,-0.883184,0.00259285,0.0161362,1903,715,12.9827,-2.18343
686,309,12.9438,2.39984,0.000805443,0.00166036,-0.00266936,0.00393627,-0.00147046,-0.864792,0.00322797,0.021276,1910,715,12.9438,-2.39982
693,309,12.6377,2.58679,0.00155639,0.00226382,-0.00325716,0.00518641,-0.00136621,-0.839484,0.00399172,0.034742,1917,715,12.6377,-2.5868
700,309,12.3727,2.88495,0,0,0,0,0,0,0,-1,1924,715,12.3726,-2.88495
707,309,12.095,5.50159,0,0,0,0,0,0,0,-1,1931,715,12.0949,-5.50158
714,309,12.6477,5.3147,0,0,0,0,0,0,0,-1,1938,715,12.6477,-5.31468
721,309,13.5358,5.03687,0,0,0,0,0,0,0,-1,1945,715,13.5358,-5.03687
728,309,0,0,0,0,0,0,0,0,0,-1,1952,715,0,0
735,309,0,0,0,0,0,0,0,0,0,-1,1959,715,0,0
742,309,0,0,0,0,0,0,0,0,0,-1,1966,715,0,0
749,309,0,0,0,0,0,0,0,0,0,-1,1973,715,0,0
756,309,0,0,0,0,0,0,0,0,0,-1,1980,715,0,0
763,309,0,0,0,0,0,0,0,0,0,-1,1987,715,0,0
770,309,0,0,0,0,0,0,0,0,0,-1,1994,715,0,0
777,309,0,0,0,0,0,0,0,0,0,-1,2001,715,0,0
784,309,0,0,0,0,0,0,0,0,0,-1,2008,715,0,0
791,309,0,0,0,0,0,0,0,0,0,-1,2015,715,0,0
798,309,0,0,0,0,0,0,0,0,0,-1,2022,715,0,0
805,309,0,0,0,0,0,0,0,0,0,-1,2029,715,0,0
812,309,0,0,0,0,0,0,0,0,0,-1,2036,715,0,0
-700,302,0,0,0,0,0,0,0,0,0,-1,524,722,0,0
-693,302,0,0,0,0,0,0,0,0,0,-1,531,722,0,0
-686,302,0,0,0,0,0,0,0,0,0,-1,538,722,0,0
-679,302,0,0,0,0,0,0,0,0,0,-1,545,722,0,0
-672,302,0,0,0,0,0,0,0,0,0,-1,552,722,0,0
-665,302,0,0,0,0,0,0,0,0,0,-1,559,722,0,0
-658,302,0,0,0,0,0,0,0,0,0,-1,566,722,0,0
-651,302,0,0,0,0,0,0,0,0,0,-1,573,722,0,0
-644,302,0,0,0,0,0,0,0,0,0,-1,580,722,0,0
-637,302,0,0,0,0,0,0,0,0,0,-1,587,722,0,0
-630,302,0,0,0,0,0,0,0,0,0,-1,594,722,0,0
-623,302,0,0,0,0,0,0,0,0,0,-1,601,722,0,0
-616,302,0,0,0,0,0,0,0,0,0,-1,608,722,0,0
-609,302,-6.14014,-3.6167,0,0,0,0,0,0,0,-1,615,722,-6.14016,3.61669
-602,302,0.92865,-1.99158,0,0,0,0,0,0,0,-1,622,722,0.928637,1.99157
-595,302,-7.89941,2.13641,0,0,0,0,0,0,0,-1,629,722,-7.89939,-2.13639
-588,302,-7.10895,1.79163,0,0,0,0,0,0,0,-1,636,722,-7.10896,-1.79163
-581,302,-5.68024,0.112427,0,0,0,0,0,0,0,-1,643,722,-5.68025,-0.112435
-574,302,-5.92273,0.144958,-0.00397076,0.00381754,0.0142823,0.0147271,-0.0148803,0.918491,0.0170939,0.046537,650,722,-5.9227,-0.144978
-567,302,-6.01593,0.370728,-0.00605057,0.0043787,0.00966207,0.0101435,-0.0118154,1.03285,0.0126902,0.0478212,657,722,-6.01596,-0.370746
-560,302,-6.69482,0.236633,-0.00660873,0.00438081,0.00636411,0.00729403,-0.00952195,1.14151,0.00973707,0.0409748,664,722,-6.69482,-0.236627
-553,302,-6.9776,0.198547,-0.00651892,0.00385018,0.00378301,0.00508363,-0.00775237,1.25562,0.00746407,0.0175114,671,722,-6.97758,-0.198539
-546,302,-6.98938,-0.0283813,-0.00529575,0.00308874,0.00233615,0.00369571,-0.00590273,1.3166,0.00559028,0.0149555,678,722,-6.98938,0.0283586
-539,302,-6.99951,-0.254883,-0.00394068,0.00208731,0.0015753,0.00247416,-0.00432753,1.32999,0.00397526,0.014672,685,722,-6.99952,0.25487
-532,302,-6.98132,-0.48822,-0.00277345,0.00139583,0.00112775,0.00168133,-0.00305894,1.32285,0.00277505,0.0138636,692,722,-6.98133,0.488215
-525,302,-6.99683,-0.757996,-0.00170886,0.000874901,0.000842491,0.00112534,-0.0019593,1.28186,0.00180248,0.0185807,699,722,-6.99683,0.757999
-518,302,-7.02759,-0.992249,-0.000992239,0.000394585,0.000681636,0.000673514,-0.00127117,1.18238,0.0011403,0.0187234,706,722,-7.02759,0.992252
-511,302,-6.98694,-1.17883,-0.000592638,-0.000792819,0.00110783,0.000419617,-0.00180507,0.740347,0.00136493,0.00967107,713,722,-6.98695,1.17885
-504,302,-6.98761,-1.41144,-0.000154035,-0.00214039,0.00193851,0.00103091,-0.00332533,0.548663,0.00262879,0.00888195,720,722,-6.98763,1.41146
-497,302,-6.98969,-1.6286,0.000369242,-0.00421582,0.00312371,0.00195141,-0.00579798,0.468836,0.00465421,0.0136439,727,722,-6.98968,1.62862
-490,302,-6.88525,-1.80994,0.00187602,-0.00783444,0.00613425,0.00484397,-0.0108024,0.450631,0.0092492,0.0364858,734,722,-6.88524,1.80991
-483,302,-6.48724,-1.83521,0,0,0,0,0,0,0,-1,741,722,-6.48725,1.83523
-476,302,-4.29749,-0.203491,0,0,0,0,0,0,0,-1,748,722,-4.29751,0.203464
-469,302,-12.7021,-0.267517,0,0,0,0,0,0,0,-1,755,722,-12.7021,0.267545
-462,302,-8.16956,2.04803,0,0,0,0,0,0,0,-1,762,722,-8.16956,-2.04802
-455,302,-11.7719,-0.259155,0,0,0,0,0,0,0,-1,769,722,-11.7719,0.259169
-448,302,-7.46857,2.26135,0,0,0,0,0,0,0,-1,776,722,-7.46855,-2.26136
-441,302,-10.9663,-0.476196,0,0,0,0,0,0,0,-1,783,722,-10.9663,0.476214
-434,302,-10.2335,0.168701,0,0,0,0,0,0,0,-1,790,722,-10.2335,-0.168684
-427,302,-7.91388,1.72229,0,0,0,0,0,0,0,-1,797,722,-7.91388,-1.72227
-420,302,0,0,0,0,0,0,0,0,0,-1,804,722,0,0
-413,302,0,0,0,0,0,0,0,0,0,-1,811,722,0,0
-406,302,0,0,0,0,0,0,0,0,0,-1,818,722,0,0
-399,302,0,0,0,0,0,0,0,0,0,-1,825,722,0,0
-392,302,0,0,0,0,0,0,0,0,0,-1,832,722,0,0
-385,302,0,0,0,0,0,0,0,0,0,-1,839,722,0,0
-378,302,0,0,0,0,0,0,0,0,0,-1,846,722,0,0
-371,302,0,0,0,0,0,0,0,0,0,-1,853,722,0,0
-364,302,0,0,0,0,0,0,0,0,0,-1,860,722,0,0
-357,302,0,0,0,0,0,0,0,0,0,-1,867,722,0,0
-350,302,0,0,0,0,0,0,0,0,0,-1,874,722,0,0
-343,302,0,0,0,0,0,0,0,0,0,-1,881,722,0,0
-336,302,0,0,0,0,0,0,0,0,0,-1,888,722,0,0
-329,302,0,0,0,0,0,0,0,0,0,-1,895,722,0,0
-322,302,0,0,0,0,0,0,0,0,0,-1,902,722,0,0
-315,302,0,0,0,0,0,0,0,0,0,-1,909,722,0,0
-308,302,0,0,0,0,0,0,0,0,0,-1,916,722,0,0
-301,302,0,0,0,0,0,0,0,0,0,-1,923,722,0,0
-294,302,0,0,0,0,0,0,0,0,0,-1,930,722,0,0
-287,302,0,0,0,0,0,0,0,0,0,-1,937,722,0,0
-280,302,0,0,0,0,0,0,0,0,0,-1,944,722,0,0
-273,302,0,0,0,0,0,0,0,0,0,-1,951,722,0,0
-266,302,0,0,0,0,0,0,0,0,0,-1,958,722,0,0
-259,302,0,0,0,0,0,0,0,0,0,-1,965,722,0,0
-252,302,0,0,0,0,0,0,0,0,0,-1,972,722,0,0
-245,302,0,0,0,0,0,0,0,0,0,-1,979,722,0,0
-238,302,0,0,0,0,0,0,0,0,0,-1,986,722,0,0
-231,302,0,0,0,0,0,0,0,0,0,-1,993,722,0,0
-224,302,0,0,0,0,0,0,0,0,0,-1,1000,722,0,0
-217,302,0,0,0,0,0,0,0,0,0,-1,1007,722,0,0
-210,302,0,0,0,0,0,0,0,0,0,-1,1014,722,0,0
-203,302,0,0,0,0,0,0,0,0,0,-1,1021,722,0,0
-196,302,0,0,0,0,0,0,0,0,0,-1,1028,722,0,0
-189,302,0,0,0,0,0,0,0,0,0,-1,1035,722,0,0
-182,302,0,0,0,0,0,0,0,0,0,-1,1042,722,0,0
-175,302,0,0,0,0,0,0,0,0,0,-1,1049,722,0,0
-168,302,0,0,0,0,0,0,0,0,0,-1,1056,722,0,0
-161,302,0,0,0,0,0,0,0,0,0,-1,1063,722,0,0
-154,302,0,0,0,0,0,0,0,0,0,-1,1070,722,0,0
-147,302,0,0,0,0,0,0,0,0,0,-1,1077,722,0,0
-140,302,0,0,0,0,0,0,0,0,0,-1,1084,722,0,0
-133,302,0,0,0,0,0,0,0,0,0,-1,1091,722,0,0
-126,302,0,0,0,0,0,0,0,0,0,-1,1098,722,0,0
-119,302,0,0,0,0,0,0,0,0,0,-1,1105,722,0,0
-112,302,0,0,0,0,0,0,0,0,0,-1,1112,722,0,0
-105,302,0,0,0,0,0,0,0,0,0,-1,1119,722,0,0
-98,302,0,0,0,0,0,0,0,0,0,-1,1126,722,0,0
-91,302,0,0,0,0,0,0,0,0,0,-1,1133,722,0,0
-84,302,0,0,0,0,0,0,0,0,0,-1,1140,722,0,0
-77,302,0,0,0,0,0,0,0,0,0,-1,1147,722,0,0
-70,302,0,0,0,0,0,0,0,0,0,-1,1154,722,0,0
-63,302,0,0,0,0,0,0,0,0,0,-1,1161,722,0,0
-56,302,0,0,0,0,0,0,0,0,0,-1,1168,722,0,0
-49,302,0,0,0,0,0,0,0,0,0,-1,1175,722,0,0
-42,302,0,0,0,0,0,0,0,0,0,-1,1182,722,0,0
-35,302,0,0,0,0,0,0,0,0,0,-1,1189,722,0,0
-28,302,0,0,0,0,0,0,0,0,0,-1,1196,722,0,0
-21,302,0,0,0,0,0,0,0,0,0,-1,1203,722,0,0
-14,302,0,0,0,0,0,0,0,0,0,-1,1210,722,0,0
-7,302,0,0,0,0,0,0,0,0,0,-1,1217,722,0,0
0,302,0,0,0,0,0,0,0,0,0,-1,1224,722,0,0
7,302,0,0,0,0,0,0,0,0,0,-1,1231,722,0,0
14,302,0,0,0,0,0,0,0,0,0,-1,1238,722,0,0
21,302,0,0,0,0,0,0,0,0,0,-1,1245,722,0,0
28,302,0,0,0,0,0,0,0,0,0,-1,1252,722,0,0
35,302,0,0,0,0,0,0,0,0,0,-1,1259,722,0,0
42,302,0,0,0,0,0,0,0,0,0,-1,1266,722,0,0
49,302,0,0,0,0,0,0,0,0,0,-1,1273,722,0,0
56,302,0,0,0,0,0,0,0,0,0,-1,1280,722,0,0
63,302,0,0,0,0,0,0,0,0,0,-1,1287,722,0,0
70,302,0,0,0,0,0,0,0,0,0,-1,1294,722,0,0
77,302,0,0,0,0,0,0,0,0,0,-1,1301,722,0,0
84,302,0,0,0,0,0,0,0,0,0,-1,1308,722,0,0
91,302,0,0,0,0,0,0,0,0,0,-1,1315,722,0,0
98,302,0,0,0,0,0,0,0,0,0,-1,1322,722,0,0
105,302,0,0,0,0,0,0,0,0,0,-1,1329,722,0,0
112,302,0,0,0,0,0,0,0,0,0,-1,1336,722,0,0
119,302,0,0,0,0,0,0,0,0,0,-1,1343,722,0,0
126,302,0,0,0,0,0,0,0,0,0,-1,1350,722,0,0
133,302,0,0,0,0,0,0,0,0,0,-1,1357,722,0,0
140,302,0,0,0,0,0,0,0,0,0,-1,1364,722,0,0
147,302,0,0,0,0,0,0,0,0,0,-1,1371,722,0,0
154,302,0,0,0,0,0,0,0,0,0,-1,1378,722,0,0
161,302,0,0,0,0,0,0,0,0,0,-1,1385,722,0,0
168,302,0,0,0,0,0,0,0,0,0,-1,1392,722,0,0
175,302,0,0,0,0,0,0,0,0,0,-1,1399,722,0,0
182,302,0,0,0,0,0,0,0,0,0,-1,1406,722,0,0
189,302,0,0,0,0,0,0,0,0,0,-1,1413,722,0,0
196,302,0,0,0,0,0,0,0,0,0,-1,1420,722,0,0
203,302,0,0,0,0,0,0,0,0,0,-1,1427,722,0,0
210,302,0,0,0,0,0,0,0,0,0,-1,1434,722,0,0
217,302,0,0,0,0,0,0,0,0,0,-1,1441,722,0,0
224,302,0,0,0,0,0,0,0,0,0,-1,1448,722,0,0
231,302,0,0,0,0,0,0,0,0,0,-1,1455,722,0,0
238,302,0,0,0,0,0,0,0,0,0,-1,1462,722,0,0
245,302,0,0,0,0,0,0,0,0,0,-1,1469,722,0,0
252,302,0,0,0,0,0,0,0,0,0,-1,1476,722,0,0
259,302,0,0,0,0,0,0,0,0,0,-1,1483,722,0,0
266,302,0,0,0,0,0,0,0,0,0,-1,1490,722,0,0
273,302,0,0,0,0,0,0,0,0,0,-1,1497,722,0,0
280,302,0,0,0,0,0,0,0,0,0,-1,1504,722,0,0
287,302,0,0,0,0,0,0,0,0,0,-1,1511,722,0,0
294,302,0,0,0,0,0,0,0,0,0,-1,1518,722,0,0
301,302,0,0,0,0,0,0,0,0,0,-1,1525,722,0,0
308,302,0,0,0,0,0,0,0,0,0,-1,1532,722,0,0
315,302,0,0,0,0,0,0,0,0,0,-1,1539,722,0,0
322,302,0,0,0,0,0,0,0,0,0,-1,1546,722,0,0
329,302,0,0,0,0,0,0,0,0,0,-1,1553,722,0,0
336,302,0,0,0,0,0,0,0,0,0,-1,1560,722,0,0
343,302,0,0,0,0,0,0,0,0,0,-1,1567,722,0,0
350,302,0,0,0,0,0,0,0,0,0,-1,1574,722,0,0
357,302,0,0,0,0,0,0,0,0,0,-1,1581,722,0,0
364,302,0,0,0,0,0,0,0,0,0,-1,1588,722,0,0
371,302,0,0,0,0,0,0,0,0,0,-1,1595,722,0,0
378,302,0,0,0,0,0,0,0,0,0,-1,1602,722,0,0
385,302,0,0,0,0,0,0,0,0,0,-1,1609,722,0,0
392,302,0,0,0,0,0,0,0,0,0,-1,1616,722,0,0
399,302,0,0,0,0,0,0,0,0,0,-1,1623,722,0,0
406,302,0,0,0,0,0,0,0,0,0,-1,1630,722,0,0
413,302,0,0,0,0,0,0,0,0,0,-1,1637,722,0,0
420,302,0,0,0,0,0,0,0,0,0,-1,1644,722,0,0
427,302,0,0,0,0,0,0,0,0,0,-1,1651,722,0,0
434,302,0,0,0,0,0,0,0,0,0,-1,1658,722,0,0
441,302,0,0,0,0,0,0,0,0,0,-1,1665,722,0,0
448,302,0,0,0,0,0,0,0,0,0,-1,1672,722,0,0
455,302,0,0,0,0,0,0,0,0,0,-1,1679,722,0,0
462,302,0,0,0,0,0,0,0,0,0,-1,1686,722,0,0
469,302,0,0,0,0,0,0,0,0,0,-1,1693,722,0,0
476,302,0,0,0,0,0,0,0,0,0,-1,1700,722,0,0
483,302,0,0,0,0,0,0,0,0,0,-1,1707,722,0,0
490,302,0,0,0,0,0,0,0,0,0,-1,1714,722,0,0
497,302,0,0,0,0,0,0,0,0,0,-1,1721,722,0,0
504,302,0,0,0,0,0,0,0,0,0,-1,1728,722,0,0
511,302,0,0,0,0,0,0,0,0,0,-1,1735,722,0,0
518,302,0,0,0,0,0,0,0,0,0,-1,1742,722,0,0
525,302,0,0,0,0,0,0,0,0,0,-1,1749,722,0,0
532,302,0,0,0,0,0,0,0,0,0,-1,1756,722,0,0
539,302,0,0,0,0,0,0,0,0,0,-1,1763,722,0,0
546,302,15.8817,5.34479,0,0,0,0,0,0,0,-1,1770,722,15.8818,-5.34477
553,302,16.7661,4.97906,0,0,0,0,0,0,0,-1,1777,722,16.7661,-4.97906
560,302,21.1725,-0.421265,0,0,0,0,0,0,0,-1,1784,722,21.1725,0.421269
567,302,20.9922,0.288879,0.0503753,0.0106954,-0.00756487,0.0517686,0.00930207,-0.182139,0.0318675,0.0478621,1791,722,20.9921,-0.28887
574,302,20.8625,1.09033,0.0334974,0.00970056,-0.00448936,0.0343161,0.0088818,-0.180396,0.0205664,0.0451007,1798,722,20.8626,-1.09031
581,302,20.5707,1.86023,0.0204646,0.00951208,-0.00303242,0.0212482,0.00872855,-0.252854,0.0123326,0.0435476,1805,722,20.5707,-1.86024
588,302,20.2638,2.61786,0.0119793,0.00846047,-0.00257321,0.0133371,0.00710269,-0.48553,0.00770562,0.0474259,1812,722,20.2638,-2.61788
595,302,19.9587,3.38165,0,0,0,0,0,0,0,-1,1819,722,19.9588,-3.38164
602,302,14.7349,5.21246,0,0,0,0,0,0,0,-1,1826,722,14.7349,-5.21247
609,302,11.1578,-0.125854,0,0,0,0,0,0,0,-1,1833,722,11.1579,0.125839
616,302,13.2397,-0.0917358,0,0,0,0,0,0,0,-1,1840,722,13.2397,0.0917251
623,302,13.217,0.160645,-0.00324833,0.0026308,-0.00205004,0.00327505,-0.00389258,-1.26631,0.00414335,0.0148903,1847,722,13.217,-0.160667
630,302,13.1617,0.434937,-0.00367875,0.000189818,-0.00134021,0.00060875,-0.00409768,-1.26783,0.00295567,0.011056,1854,722,13.1617,-0.434938
637,302,13.1483,0.697632,-0.00196918,-0.00149212,-0.00151631,-0.000195699,-0.0032656,-0.863414,0.00211486,0.0140248,1861,722,13.1484,-0.697602
644,302,13.1709,0.941101,-0.000819577,-0.000841056,-0.00163892,0.000808642,-0.00246928,-0.782122,0.0019718,0.0151652,1868,722,13.1709,-0.941111
651,302,13.1942,1.19098,-0.000229714,-0.000234005,-0.00132766,0.00109581,-0.00155953,-0.78459,0.00154083,0.0137322,1875,722,13.1942,-1.19095
658,302,13.214,1.42108,-2.69705e-06,-0.000299131,-0.00108874,0.000947866,-0.00124969,-0.717746,0.00127275,0.0146122,1882,722,13.2139,-1.42106
665,302,13.1833,1.67078,0.000100059,-4.80525e-05,-0.000994873,0.00102363,-0.000971623,-0.748248,0.00115209,0.0147312,1889,722,13.1833,-1.67076
672,302,13.1726,1.91479,0.00021865,0.000497425,-0.00139984,0.0017648,-0.00104872,-0.835022,0.00164183,0.0120769,1896,722,13.1726,-1.91479
679,302,13.1948,2.17535,0.000430787,0.00092265,-0.00175771,0.00245155,-0.00109811,-0.854905,0.00209847,0.0102555,1903,722,13.1948,-2.17534
686,302,13.2112,2.39227,0.000734643,0.00129975,-0.00222794,0.00326299,-0.00122859,-0.848473,0.00268041,0.0132318,1910,722,13.2112,-2.39225
693,302,13.0327,2.58386,0.00129502,0.00178286,-0.00280458,0.00435411,-0.00127622,-0.828776,0.00340873,0.0255895,1917,722,13.0327,-2.58388
700,302,13.3809,2.74902,0,0,0,0,0,0,0,-1,1924,722,13.3808,-2.74899
707,302,13.5458,3.07294,0,0,0,0,0,0,0,-1,1931,722,13.5457,-3.07295
714,302,12.8571,4.37555,0,0,0,0,0,0,0,-1,1938,722,12.857,-4.37558
721,302,13.1056,4.55646,0,0,0,0,0,0,0,-1,1945,722,13.1055,-4.55643
728,302,13.6528,4.55371,0,0,0,0,0,0,0,-1,1952,722,13.6528,-4.55373
735,302,0,0,0,0,0,0,0,0,0,-1,1959,722,0,0
742,302,0,0,0,0,0,0,0,0,0,-1,1966,722,0,0
749,302,0,0,0,0,0,0,0,0,0,-1,1973,722,0,0
756,302,0,0,0,0,0,0,0,0,0,-1,1980,722,0,0
763,302,0,0,0,0,0,0,0,0,0,-1,1987,722,0,0
770,302,0,0,0,0,0,0,0,0,0,-1,1994,722,0,0
777,302,0,0,0,0,0,0,0,0,0,-1,2001,722,0,0
784,302,0,0,0,0,0,0,0,0,0,-1,2008,722,0,0
791,302,0,0,0,0,0,0,0,0,0,-1,2015,722,0,0
798,302,0,0,0,0,0,0,0,0,0,-1,2022,722,0,0
805,302,0,0,0,0,0,0,0,0,0,-1,2029,722,0,0
812,302,0,0,0,0,0,0,0,0,0,-1,2036,722,0,0
-700,295,0,0,0,0,0,0,0,0,0,-1,524,729,0,0
-693,295,0,0,0,0,0,0,0,0,0,-1,531,729,0,0
-686,295,0,0,0,0,0,0,0,0,0,-1,538,729,0,0
-679,295,0,0,0,0,0,0,0,0,0,-1,545,729,0,0
-672,295,0,0,0,0,0,0,0,0,0,-1,552,729,0,0
-665,295,0,0,0,0,0,0,0,0,0,-1,559,729,0,0
-658,295,0,0,0,0,0,0,0,0,0,-1,566,729,0,0
-651,295,0,0,0,0,0,0,0,0,0,-1,573,729,0,0
-644,295,0,0,0,0,0,0,0,0,0,-1,580,729,0,0
-637,295,0,0,0,0,0,0,0,0,0,-1,587,729,0,0
-630,295,0,0,0,0,0,0,0,0,0,-1,594,729,0,0
-623,295,0,0,0,0,0,0,0,0,0,-1,601,729,0,0
-616,295,-14.2637,-0.2052,0,0,0,0,0,0,0,-1,608,729,-14.2637,0.205178
-609,295,-6.39551,0.162842,0,0,0,0,0,0,0,-1,615,729,-6.39551,-0.162818
-602,295,-0.795044,-1.32373,0,0,0,0,0,0,0,-1,622,729,-0.795031,1.32371
-595,295,-0.615479,-1.95447,0,0,0,0,0,0,0,-1,629,729,-0.615481,1.95445
-588,295,-7.98999,1.56903,0,0,0,0,0,0,0,-1,636,729,-7.98997,-1.56905
-581,295,-5.8963,0.83783,0,0,0,0,0,0,0,-1,643,729,-5.8963,-0.837827
-574,295,-6.21942,0.606018,-0.00203956,0.000801391,0.0137047,0.013159,-0.0143972,0.837038,0.0159149,0.045985,650,729,-6.2194,-0.606034
-567,295,-6.60461,0.461731,-0.00429218,0.00182212,0.00930986,0.00856393,-0.011034,0.94404,0.0113448,0.0422824,657,729,-6.6046,-0.461712
-560,295,-7.16705,0.391052,-0.00525593,0.00226113,0.00616639,0.00572416,-0.00871896,1.05909,0.00839828,0.023704,664,729,-7.16705,-0.391071
-553,295,-7.18823,0.176697,-0.00563994,0.00211442,0.00371248,0.0036052,-0.00713073,1.18895,0.00630881,0.0164284,671,729,-7.18822,-0.176669
-546,295,-7.19745,-0.0120239,-0.0048325,0.0016283,0.00241286,0.00242994,-0.00563414,1.25003,0.00477674,0.0191546,678,729,-7.19742,0.0119953
-539,295,-7.20471,-0.230225,-0.00379812,0.00083702,0.00175214,0.00142481,-0.00438591,1.24712,0.00349701,0.0168575,685,729,-7.2047,0.230228
-532,295,-7.20081,-0.497742,-0.00280464,0.00038643,0.00143025,0.000933639,-0.00335184,1.20538,0.00260222,0.0153901,692,729,-7.20081,0.497753
-525,295,-7.20483,-0.735901,-0.00183197,0.000137814,0.00125857,0.000751053,-0.00244521,1.1174,0.00192984,0.0156016,699,729,-7.20481,0.735927
-518,295,-7.22528,-0.947693,-0.00130439,-0.000152164,0.00123651,0.000635856,-0.00209241,1.0034,0.00164829,0.0114883,706,729,-7.2253,0.947689
-511,295,-7.22174,-1.1626,-0.00110354,-0.00121555,0.00180662,0.00064795,-0.00296703,0.769904,0.00222567,0.00936168,713,729,-7.22177,1.16257
-504,295,-7.22528,-1.41351,-0.000776711,-0.00245584,0.00276371,0.00127215,-0.0045047,0.637937,0.003505,0.0101754,720,729,-7.22525,1.41351
-497,295,-7.2301,-1.62817,-0.000331429,-0.00454442,0.0040242,0.00210427,-0.00698012,0.54428,0.00549093,0.0150399,727,729,-7.23011,1.62815
-490,295,-7.23602,-1.82349,0,0,0,0,0,0,0,-1,734,729,-7.23604,1.82347
-483,295,-6.84503,-0.454651,0,0,0,0,0,0,0,-1,741,729,-6.84505,0.454639
-476,295,-12.0771,0.0350952,0,0,0,0,0,0,0,-1,748,729,-12.0772,-0.0351183
-469,295,-13.3843,-0.838623,0,0,0,0,0,0,0,-1,755,729,-13.3843,0.83861
-462,295,-13.5937,-0.565918,0,0,0,0,0,0,0,-1,762,729,-13.5937,0.565909
-455,295,-13.6317,0.0618896,0,0,0,0,0,0,0,-1,769,729,-13.6317,-0.0619192
-448,295,-13.2974,0.323608,0,0,0,0,0,0,0,-1,776,729,-13.2974,-0.323624
-441,295,-12.0248,0.191833,0.0454457,-0.0646616,0.0753482,0.0837101,-0.102926,0.469895,0.107945,0.0479806,783,729,-12.0248,-0.19181
-434,295,-11.528,0.559875,0.0606577,-0.077953,0.099752,0.112817,-0.130112,0.481792,0.140374,0.0482176,790,729,-11.528,-0.559849
-427,295,0,0,0,0,0,0,0,0,0,-1,797,729,0,0
-420,295,0,0,0,0,0,0,0,0,0,-1,804,729,0,0
-413,295,0,0,0,0,0,0,0,0,0,-1,811,729,0,0
-406,295,0,0,0,0,0,0,0,0,0,-1,818,729,0,0
-399,295,0,0,0,0,0,0,0,0,0,-1,825,729,0,0
-392,295,0,0,0,0,0,0,0,0,0,-1,832,729,0,0
-385,295,0,0,0,0,0,0,0,0,0,-1,839,729,0,0
-378,295,0,0,0,0,0,0,0,0,0,-1,846,729,0,0
-371,295,0,0,0,0,0,0,0,0,0,-1,853,729,0,0
-364,295,0,0,0,0,0,0,0,0,0,-1,860,729,0,0
-357,295,0,0,0,0,0,0,0,0,0,-1,867,729,0,0
-350,295,0,0,0,0,0,0,0,0,0,-1,874,729,0,0
-343,295,0,0,0,0,0,0,0,0,0,-1,881,729,0,0
-336,295,0,0,0,0,0,0,0,0,0,-1,888,729,0,0
-329,295,0,0,0,0,0,0,0,0,0,-1,895,729,0,0
-322,295,0,0,0,0,0,0,0,0,0,-1,902,729,0,0
-315,295,0,0,0,0,0,0,0,0,0,-1,909,729,0,0
-308,295,0,0,0,0,0,0,0,0,0,-1,916,729,0,0
-301,295,0,0,0,0,0,0,0,0,0,-1,923,729,0,0
-294,295,0,0,0,0,0,0,0,0,0,-1,930,729,0,0
-287,295,0,0,0,0,0,0,0,0,0,-1,937,729,0,0
-280,295,0,0,0,0,0,0,0,0,0,-1,944,729,0,0
-273,295,0,0,0,0,0,0,0,0,0,-1,951,729,0,0
-266,295,0,0,0,0,0,0,0,0,0,-1,958,729,0,0
-259,295,0,0,0,0,0,0,0,0,0,-1,965,729,0,0
-252,295,0,0,0,0,0,0,0,0,0,-1,972,729,0,0
-245,295,0,0,0,0,0,0,0,0,0,-1,979,729,0,0
-238,295,0,0,0,0,0,0,0,0,0,-1,986,729,0,0
-231,295,0,0,0,0,0,0,0,0,0,-1,993,729,0,0
-224,295,0,0,0,0,0,0,0,0,0,-1,1000,729,0,0
-217,295,0,0,0,0,0,0,0,0,0,-1,1007,729,0,0
-210,295,0,0,0,0,0,0,0,0,0,-1,1014,729,0,0
-203,295,0,0,0,0,0,0,0,0,0,-1,1021,729,0,0
-196,295,0,0,0,0,0,0,0,0,0,-1,1028,729,0,0
-189,295,0,0,0,0,0,0,0,0,0,-1,1035,729,0,0
-182,295,0,0,0,0,0,0,0,0,0,-1,1042,729,0,0
-175,295,0,0,0,0,0,0,0,0,0,-1,1049,729,0,0
-168,295,0,0,0,0,0,0,0,0,0,-1,1056,729,0,0
-161,295,0,0,0,0,0,0,0,0,0,-1,1063,729,0,0
-154,295,0,0,0,0,0,0,0,0,0,-1,1070,729,0,0
-147,295,0,0,0,0,0,0,0,0,0,-1,1077,729,0,0
-140,295,0,0,0,0,0,0,0,0,0,-1,1084,729,0,0
-133,295,0,0,0,0,0,0,0,0,0,-1,1091,729,0,0
-126,295,0,0,0,0,0,0,0,0,0,-1,1098,729,0,0
-119,295,0,0,0,0,0,0,0,0,0,-1,1105,729,0,0
-112,295,0,0,0,0,0,0,0,0,0,-1,1112,729,0,0
-105,295,0,0,0,0,0,0,0,0,0,-1,1119,729,0,0
-98,295,0,0,0,0,0,0,0,0,0,-1,1126,729,0,0
-91,295,0,0,0,0,0,0,0,0,0,-1,1133,729,0,0
-84,295,0,0,0,0,0,0,0,0,0,-1,1140,729,0,0
-77,295,0,0,0,0,0,0,0,0,0,-1,1147,729,0,0
-70,295,0,0,0,0,0,0,0,0,0,-1,1154,729,0,0
-63,295,0,0,0,0,0,0,0,0,0,-1,1161,729,0,0
-56,295,0,0,0,0,0,0,0,0,0,-1,1168,729,0,0
-49,295,0,0,0,0,0,0,0,0,0,-1,1175,729,0,0
-42,295,0,0,0,0,0,0,0,0,0,-1,1182,729,0,0
-35,295,0,0,0,0,0,0,0,0,0,-1,1189,729,0,0
-28,295,0,0,0,0,0,0,0,0,0,-1,1196,729,0,0
-21,295,0,0,0,0,0,0,0,0,0,-1,1203,729,0,0
-14,295,0,0,0,0,0,0,0,0,0,-1,1210,729,0,0
-7,295,0,0,0,0,0,0,0,0,0,-1,1217,729,0,0
0,295,0,0,0,0,0,0,0,0,0,-1,1224,729,0,0
7,295,0,0,0,0,0,0,0,0,0,-1,1231,729,0,0
14,295,0,0,0,0,0,0,0,0,0,-1,1238,729,0,0
21,295,0,0,0,0,0,0,0,0,0,-1,1245,729,0,0
28,295,0,0,0,0,0,0,0,0,0,-1,1252,729,0,0
35,295,0,0,0,0,0,0,0,0,0,-1,1259,729,0,0
42,295,0,0,0,0,0,0,0,0,0,-1,1266,729,0,0
49,295,0,0,0,0,0,0,0,0,0,-1,1273,729,0,0
56,295,0,0,0,0,0,0,0,0,0,-1,1280,729,0,0
63,295,0,0,0,0,0,0,0,0,0,-1,1287,729,0,0
70,295,0,0,0,0,0,0,0,0,0,-1,1294,729,0,0
77,295,0,0,0,0,0,0,0,0,0,-1,1301,729,0,0
84,295,0,0,0,0,0,0,0,0,0,-1,1308,729,0,0
91,295,0,0,0,0,0,0,0,0,0,-1,1315,729,0,0
98,295,0,0,0,0,0,0,0,0,0,-1,1322,729,0,0
105,295,0,0,0,0,0,0,0,0,0,-1,1329,729,0,0
112,295,0,0,0,0,0,0,0,0,0,-1,1336,729,0,0
119,295,0,0,0,0,0,0,0,0,0,-1,1343,729,0,0
126,295,0,0,0,0,0,0,0,0,0,-1,1350,729,0,0
133,295,0,0,0,0,0,0,0,0,0,-1,1357,729,0,0
140,295,0,0,0,0,0,0,0,0,0,-1,1364,729,0,0
147,295,0,0,0,0,0,0,0,0,0,-1,1371,729,0,0
154,295,0,0,0,0,0,0,0,0,0,-1,1378,729,0,0
161,295,0,0,0,0,0,0,0,0,0,-1,1385,729,0,0
168,295,0,0,0,0,0,0,0,0,0,-1,1392,729,0,0
175,295,0,0,0,0,0,0,0,0,0,-1,1399,729,0,0
182,295,0,0,0,0,0,0,0,0,0,-1,1406,729,0,0
189,295,0,0,0,0,0,0,0,0,0,-1,1413,729,0,0
196,295,0,0,0,0,0,0,0,0,0,-1,1420,729,0,0
203,295,0,0,0,0,0,0,0,0,0,-1,1427,729,0,0
210,295,0,0,0,0,0,0,0,0,0,-1,1434,729,0,0
217,295,0,0,0,0,0,0,0,0,0,-1,1441,729,0,0
224,295,0,0,0,0,0,0,0,0,0,-1,1448,729,0,0
231,295,0,0,0,0,0,0,0,0,0,-1,1455,729,0,0
238,295,0,0,0,0,0,0,0,0,0,-1,1462,729,0,0
245,295,0,0,0,0,0,0,0,0,0,-1,1469,729,0,0
252,295,0,0,0,0,0,0,0,0,0,-1,1476,729,0,0
259,295,0,0,0,0,0,0,0,0,0,-1,1483,729,0,0
266,295,0,0,0,0,0,0,0,0,0,-1,1490,729,0,0
273,295,0,0,0,0,0,0,0,0,0,-1,1497,729,0,0
280,295,0,0,0,0,0,0,0,0,0,-1,1504,729,0,0
287,295,0,0,0,0,0,0,0,0,0,-1,1511,729,0,0
294,295,0,0,0,0,0,0,0,0,0,-1,1518,729,0,0
301,295,0,0,0,0,0,0,0,0,0,-1,1525,729,0,0
308,295,0,0,0,0,0,0,0,0,0,-1,1532,729,0,0
315,295,0,0,0,0,0,0,0,0,0,-1,1539,729,0,0
322,295,0,0,0,0,0,0,0,0,0,-1,1546,729,0,0
329,295,0,0,0,0,0,0,0,0,0,-1,1553,729,0,0
336,295,0,0,0,0,0,0,0,0,0,-1,1560,729,0,0
343,295,0,0,0,0,0,0,0,0,0,-1,1567,729,0,0
350,295,0,0,0,0,0,0,0,0,0,-1,1574,729,0,0
357,295,0,0,0,0,0,0,0,0,0,-1,1581,729,0,0
364,295,0,0,0,0,0,0,0,0,0,-1,1588,729,0,0
371,295,0,0,0,0,0,0,0,0,0,-1,1595,729,0,0
378,295,0,0,0,0,0,0,0,0,0,-1,1602,729,0,0
385,295,0,0,0,0,0,0,0,0,0,-1,1609,729,0,0
392,295,0,0,0,0,0,0,0,0,0,-1,1616,729,0,0
399,295,0,0,0,0,0,0,0,0,0,-1,1623,729,0,0
406,295,0,0,0,0,0,0,0,0,0,-1,1630,729,0,0
413,295,0,0,0,0,0,0,0,0,0,-1,1637,729,0,0
420,295,0,0,0,0,0,0,0,0,0,-1,1644,729,0,0
427,295,0,0,0,0,0,0,0,0,0,-1,1651,729,0,0
434,295,0,0,0,0,0,0,0,0,0,-1,1658,729,0,0
441,295,0,0,0,0,0,0,0,0,0,-1,1665,729,0,0
448,295,0,0,0,0,0,0,0,0,0,-1,1672,729,0,0
455,295,0,0,0,0,0,0,0,0,0,-1,1679,729,0,0
462,295,0,0,0,0,0,0,0,0,0,-1,1686,729,0,0
469,295,0,0,0,0,0,0,0,0,0,-1,1693,729,0,0
476,295,0,0,0,0,0,0,0,0,0,-1,1700,729,0,0
483,295,0,0,0,0,0,0,0,0,0,-1,1707,729,0,0
490,295,0,0,0,0,0,0,0,0,0,-1,1714,729,0,0
497,295,0,0,0,0,0,0,0,0,0,-1,1721,729,0,0
504,295,0,0,0,0,0,0,0,0,0,-1,1728,729,0,0
511,295,0,0,0,0,0,0,0,0,0,-1,1735,729,0,0
518,295,0,0,0,0,0,0,0,0,0,-1,1742,729,0,0
525,295,0,0,0,0,0,0,0,0,0,-1,1749,729,0,0
532,295,0,0,0,0,0,0,0,0,0,-1,1756,729,0,0
539,295,0,0,0,0,0,0,0,0,0,-1,1763,729,0,0
546,295,16.4219,5.28088,0,0,0,0,0,0,0,-1,1770,729,16.4219,-5.28089
553,295,17.2222,4.76135,0,0,0,0,0,0,0,-1,1777,729,17.2222,-4.76137
560,295,17.5791,4.12781,0,0,0,0,0,0,0,-1,1784,729,17.5791,-4.12778
567,295,18.4592,4.13,0.0473964,0.0195441,-0.00896496,0.0500325,0.016908,-0.285985,0.0293877,0.0467517,1791,729,18.4592,-4.13003
574,295,21.0631,0.755615,0.0330783,0.0159613,-0.00561566,0.0347562,0.0142834,-0.290343,0.0201723,0.0483096,1798,729,21.0631,-0.755598
581,295,20.7152,1.17047,0.0211884,0.0134444,-0.00389449,0.0228081,0.0118246,-0.394147,0.0131713,0.0446733,1805,729,20.7152,-1.17046
588,295,20.3536,1.12964,0,0,0,0,0,0,0,-1,1812,729,20.3536,-1.12962
595,295,19.7826,1.6178,0,0,0,0,0,0,0,-1,1819,729,19.7826,-1.61777
602,295,15.6809,5.12988,0,0,0,0,0,0,0,-1,1826,729,15.6809,-5.12989
609,295,11.7737,2.19989,0,0,0,0,0,0,0,-1,1833,729,11.7736,-2.19988
616,295,13.5471,-0.0941162,0,0,0,0,0,0,0,-1,1840,729,13.5471,0.0941003
623,295,13.4752,0.154419,-0.00331278,0.00246776,-0.00202451,0.00310627,-0.00395129,-1.26528,0.00408441,0.0306577,1847,729,13.4752,-0.15444
630,295,13.4166,0.425537,-0.00401522,-0.000179601,-0.00123216,0.000182108,-0.00437693,-1.28526,0.00298051,0.012197,1854,729,13.4166,-0.42552
637,295,13.4067,0.699768,-0.00254824,-0.00204088,-0.00142662,-0.000845561,-0.00374356,-0.873388,0.00226704,0.0130436,1861,729,13.4068,-0.699765
644,295,13.4264,0.945801,-0.00138595,-0.00133244,-0.00156061,0.000201646,-0.00292003,-0.793969,0.00201727,0.0128656,1868,729,13.4264,-0.945783
651,295,13.4467,1.19067,-0.000654917,-0.000644084,-0.00118129,0.000531805,-0.00183081,-0.787691,0.00143113,0.0128181,1875,729,13.4467,-1.19066
658,295,13.436,1.44318,-0.000343114,-0.000804312,-0.000860479,0.00031713,-0.00146456,-0.65448,0.00109746,0.0121163,1882,729,13.436,-1.4432
665,295,13.4073,1.68762,-0.000183207,-0.000568391,-0.000651508,0.000303579,-0.00105518,-0.641686,0.000823512,0.0118628,1889,729,13.4074,-1.68764
672,295,13.4015,1.90808,-4.97976e-05,-2.31242e-05,-0.00105664,0.00102026,-0.00109319,-0.791709,0.00122044,0.0128354,1896,729,13.4015,-1.90808
679,295,13.4059,2.17004,0.000129833,0.000359083,-0.00138446,0.00163365,-0.00114474,-0.826701,0.00161236,0.0100351,1903,729,13.4059,-2.17006
686,295,13.4286,2.39075,0.000298893,0.000713817,-0.00177398,0.00229243,-0.00127972,-0.843607,0.00208982,0.00955703,1910,729,13.4286,-2.39075
693,295,13.4515,2.56104,0.000684569,0.00111336,-0.00230292,0.00321184,-0.00141391,-0.831813,0.0027371,0.0209331,1917,729,13.4515,-2.56106
700,295,13.5059,2.74255,0.00154435,0.00160792,-0.00288089,0.0044572,-0.00130493,-0.790914,0.00348877,0.03492,1924,729,13.5058,-2.74254
707,295,13.6816,2.99487,0.00292916,0.00241075,-0.00358448,0.00626379,-0.000923881,-0.749304,0.00451544,0.0442749,1931,729,13.6817,-2.99484
714,295,13.8676,3.17926,0,0,0,0,0,0,0,-1,1938,729,13.8675,-3.17926
721,295,12.8071,4.81628,0,0,0,0,0,0,0,-1,1945,729,12.8072,-4.81627
728,295,14.9326,4.67651,0,0,0,0,0,0,0,-1,1952,729,14.9326,-4.6765
735,295,0,0,0,0,0,0,0,0,0,-1,1959,729,0,0
742,295,0,0,0,0,0,0,0,0,0,-1,1966,729,0,0
749,295,0,0,0,0,0,0,0,0,0,-1,1973,729,0,0
756,295,0,0,0,0,0,0,0,0,0,-1,1980,729,0,0
763,295,0,0,0,0,0,0,0,0,0,-1,1987,729,0,0
770,295,0,0,0,0,0,0,0,0,0,-1,1994,729,0,0
777,295,0,0,0,0,0,0,0,0,0,-1,2001,729,0,0
784,295,0,0,0,0,0,0,0,0,0,-1,2008,729,0,0
791,295,0,0,0,0,0,0,0,0,0,-1,2015,729,0,0
798,295,0,0,0,0,0,0,0,0,0,-1,2022,729,0,0
805,295,0,0,0,0,0,0,0,0,0,-1,2029,729,0,0
812,295,0,0,0,0,0,0,0,0,0,-1,2036,729,0,0
-700,288,0,0,0,0,0,0,0,0,0,-1,524,736,0,0
-693,288,0,0,0,0,0,0,0,0,0,-1,531,736,0,0
-686,288,0,0,0,0,0,0,0,0,0,-1,538,736,0,0
-679,288,0,0,0,0,0,0,0,0,0,-1,545,736,0,0
-672,288,0,0,0,0,0,0,0,0,0,-1,552,736,0,0
-665,288,0,0,0,0,0,0,0,0,0,-1,559,736,0,0
-658,288,0,0,0,0,0,0,0,0,0,-1,566,736,0,0
-651,288,0,0,0,0,0,0,0,0,0,-1,573,736,0,0
-644,288,0,0,0,0,0,0,0,0,0,-1,580,736,0,0
-637,288,0,0,0,0,0,0,0,0,0,-1,587,736,0,0
-630,288,0,0,0,0,0,0,0,0,0,-1,594,736,0,0
-623,288,0,0,0,0,0,0,0,0,0,-1,601,736,0,0
-616,288,-7.26917,0.858704,0,0,0,0,0,0,0,-1,608,736,-7.26914,-0.858709
-609,288,-6.93396,0.421021,0,0,0,0,0,0,0,-1,615,736,-6.93396,-0.421042
-602,288,-6.59875,-0.0166016,0,0,0,0,0,0,0,-1,622,736,-6.59878,0.0166241
-595,288,-11.2771,-0.210388,0,0,0,0,0,0,0,-1,629,736,-11.2771,0.210363
-588,288,-6.75586,1.0415,0,0,0,0,0,0,0,-1,636,736,-6.75586,-1.04148
-581,288,-7.31281,0.879272,0,0,0,0,0,0,0,-1,643,736,-7.31283,-0.879288
-574,288,-6.84039,0.708191,0,0,0,0,0,0,0,-1,650,736,-6.84041,-0.708216
-567,288,-7.17975,0.466248,0,0,0,0,0,0,0,-1,657,736,-7.17976,-0.466268
-560,288,-7.43811,0.381042,-0.00366654,0.00110542,0.00602679,0.00520134,-0.00776246,0.97388,0.00753319,0.0129185,664,736,-7.43811,-0.381027
-553,288,-7.41241,0.182434,-0.00444076,0.00112529,0.00374234,0.00300599,-0.00632146,1.10511,0.00549744,0.0170461,671,736,-7.41244,-0.182434
-546,288,-7.422,-0.0148926,-0.00404564,0.000744775,0.00261966,0.00189917,-0.00520003,1.15573,0.00424384,0.0178264,678,736,-7.42199,0.0149159
-539,288,-7.42133,-0.248596,-0.00342029,5.28441e-05,0.0020983,0.00103997,-0.00440742,1.13107,0.00333936,0.0154813,685,736,-7.4213,0.248613
-532,288,-7.40503,-0.503601,-0.00271461,-0.000278132,0.0019253,0.000781982,-0.00377472,1.06748,0.0028136,0.0134038,692,736,-7.40503,0.503627
-525,288,-7.41382,-0.732117,-0.00194934,-0.000342906,0.00187927,0.000897604,-0.00318985,0.987353,0.00248051,0.0133252,699,736,-7.4138,0.732105
-518,288,-7.44104,-0.949951,-0.00169905,-0.000493457,0.00198077,0.000974213,-0.00316672,0.933108,0.00249998,0.01233,706,736,-7.44105,0.949941
-511,288,-7.44824,-1.1792,-0.00171057,-0.00141383,0.00259888,0.00104092,-0.00416531,0.813912,0.00318113,0.00917435,713,736,-7.44827,1.17921
-504,288,-7.4519,-1.42072,-0.0014681,-0.00250386,0.00356656,0.00161799,-0.00558995,0.713299,0.00436704,0.0105914,720,736,-7.45192,1.42072
-497,288,-7.435,-1.58362,-0.00107013,-0.00448501,0.00476707,0.00228606,-0.0078412,0.613429,0.00613319,0.0206034,727,736,-7.43498,1.58361
-490,288,-7.37799,-1.71472,0,0,0,0,0,0,0,-1,734,736,-7.37798,1.71475
-483,288,-12.4954,-0.917297,0,0,0,0,0,0,0,-1,741,736,-12.4954,0.917303
-476,288,-13.4535,-0.953979,0,0,0,0,0,0,0,-1,748,736,-13.4535,0.953975
-469,288,-13.6223,-0.510132,0,0,0,0,0,0,0,-1,755,736,-13.6223,0.510147
-462,288,-13.5272,-0.230713,0.0142875,-0.0302012,0.0301169,0.0294842,-0.045398,0.467316,0.0435575,0.0497692,762,736,-13.5272,0.230742
-455,288,-13.5634,0.418579,0.0210698,-0.0394668,0.0402951,0.0411986,-0.0595956,0.463275,0.0585157,0.0488276,769,736,-13.5634,-0.418575
-448,288,-13.3105,0.785156,0.0302445,-0.0504415,0.0541985,0.0574665,-0.0776635,0.465459,0.0783073,0.0456745,776,736,-13.3105,-0.785144
-441,288,-13.1221,0.976929,0.0421478,-0.0638293,0.0734903,0.0797606,-0.101442,0.473048,0.104867,0.0420216,783,736,-13.1221,-0.97694
-434,288,-12.8195,1.03143,0.0555911,-0.0755173,0.0961201,0.106383,-0.126309,0.486126,0.134509,0.0444873,790,736,-12.8195,-1.03145
-427,288,0,0,0,0,0,0,0,0,0,-1,797,736,0,0
-420,288,0,0,0,0,0,0,0,0,0,-1,804,736,0,0
-413,288,0,0,0,0,0,0,0,0,0,-1,811,736,0,0
-406,288,0,0,0,0,0,0,0,0,0,-1,818,736,0,0
-399,288,0,0,0,0,0,0,0,0,0,-1,825,736,0,0
-392,288,0,0,0,0,0,0,0,0,0,-1,832,736,0,0
-385,288,0,0,0,0,0,0,0,0,0,-1,839,736,0,0
-378,288,0,0,0,0,0,0,0,0,0,-1,846,736,0,0
-371,288,0,0,0,0,0,0,0,0,0,-1,853,736,0,0
-364,288,0,0,0,0,0,0,0,0,0,-1,860,736,0,0
-357,288,0,0,0,0,0,0,0,0,0,-1,867,736,0,0
-350,288,0,0,0,0,0,0,0,0,0,-1,874,736,0,0
-343,288,0,0,0,0,0,0,0,0,0,-1,881,736,0,0
-336,288,0,0,0,0,0,0,0,0,0,-1,888,736,0,0
-329,288,0,0,0,0,0,0,0,0,0,-1,895,736,0,0
-322,288,0,0,0,0,0,0,0,0,0,-1,902,736,0,0
-315,288,0,0,0,0,0,0,0,0,0,-1,909,736,0,0
-308,288,0,0,0,0,0,0,0,0,0,-1,916,736,0,0
-301,288,0,0,0,0,0,0,0,0,0,-1,923,736,0,0
-294,288,0,0,0,0,0,0,0,0,0,-1,930,736,0,0
-287,288,0,0,0,0,0,0,0,0,0,-1,937,736,0,0
-280,288,0,0,0,0,0,0,0,0,0,-1,944,736,0,0
-273,288,0,0,0,0,0,0,0,0,0,-1,951,736,0,0
-266,288,0,0,0,0,0,0,0,0,0,-1,958,736,0,0
-259,288,0,0,0,0,0,0,0,0,0,-1,965,736,0,0
-252,288,0,0,0,0,0,0,0,0,0,-1,972,736,0,0
-245,288,0,0,0,0,0,0,0,0,0,-1,979,736,0,0
-238,288,0,0,0,0,0,0,0,0,0,-1,986,736,0,0
-231,288,0,0,0,0,0,0,0,0,0,-1,993,736,0,0
-224,288,0,0,0,0,0,0,0,0,0,-1,1000,736,0,0
-217,288,0,0,0,0,0,0,0,0,0,-1,1007,736,0,0
-210,288,0,0,0,0,0,0,0,0,0,-1,1014,736,0,0
-203,288,0,0,0,0,0,0,0,0,0,-1,1021,736,0,0
-196,288,0,0,0,0,0,0,0,0,0,-1,1028,736,0,0
-189,288,0,0,0,0,0,0,0,0,0,-1,1035,736,0,0
-182,288,0,0,0,0,0,0,0,0,0,-1,1042,736,0,0
-175,288,0,0,0,0,0,0,0,0,0,-1,1049,736,0,0
-168,288,0,0,0,0,0,0,0,0,0,-1,1056,736,0,0
-161,288,0,0,0,0,0,0,0,0,0,-1,1063,736,0,0
-154,288,0,0,0,0,0,0,0,0,0,-1,1070,736,0,0
-147,288,0,0,0,0,0,0,0,0,0,-1,1077,736,0,0
-140,288,0,0,0,0,0,0,0,0,0,-1,1084,736,0,0
-133,288,0,0,0,0,0,0,0,0,0,-1,1091,736,0,0
-126,288,0,0,0,0,0,0,0,0,0,-1,1098,736,0,0
-119,288,0,0,0,0,0,0,0,0,0,-1,1105,736,0,0
-112,288,0,0,0,0,0,0,0,0,0,-1,1112,736,0,0
-105,288,0,0,0,0,0,0,0,0,0,-1,1119,736,0,0
-98,288,0,0,0,0,0,0,0,0,0,-1,1126,736,0,0
-91,288,0,0,0,0,0,0,0,0,0,-1,1133,736,0,0
-84,288,0,0,0,0,0,0,0,0,0,-1,1140,736,0,0
-77,288,0,0,0,0,0,0,0,0,0,-1,1147,736,0,0
-70,288,0,0,0,0,0,0,0,0,0,-1,1154,736,0,0
-63,288,0,0,0,0,0,0,0,0,0,-1,1161,736,0,0
-56,288,0,0,0,0,0,0,0,0,0,-1,1168,736,0,0
-49,288,0,0,0,0,0,0,0,0,0,-1,1175,736,0,0
-42,288,0,0,0,0,0,0,0,0,0,-1,1182,736,0,0
-35,288,0,0,0,0,0,0,0,0,0,-1,1189,736,0,0
-28,288,0,0,0,0,0,0,0,0,0,-1,1196,736,0,0
-21,288,0,0,0,0,0,0,0,0,0,-1,1203,736,0,0
-14,288,0,0,0,0,0,0,0,0,0,-1,1210,736,0,0
-7,288,0,0,0,0,0,0,0,0,0,-1,1217,736,0,0
0,288,0,0,0,0,0,0,0,0,0,-1,1224,736,0,0
7,288,0,0,0,0,0,0,0,0,0,-1,1231,736,0,0
14,288,0,0,0,0,0,0,0,0,0,-1,1238,736,0,0
21,288,0,0,0,0,0,0,0,0,0,-1,1245,736,0,0
28,288,0,0,0,0,0,0,0,0,0,-1,1252,736,0,0
35,288,0,0,0,0,0,0,0,0,0,-1,1259,736,0,0
42,288,0,0,0,0,0,0,0,0,0,-1,1266,736,0,0
49,288,0,0,0,0,0,0,0,0,0,-1,1273,736,0,0
56,288,0,0,0,0,0,0,0,0,0,-1,1280,736,0,0
63,288,0,0,0,0,0,0,0,0,0,-1,1287,736,0,0
70,288,0,0,0,0,0,0,0,0,0,-1,1294,736,0,0
77,288,0,0,0,0,0,0,0,0,0,-1,1301,736,0,0
84,288,0,0,0,0,0,0,0,0,0,-1,1308,736,0,0
91,288,0,0,0,0,0,0,0,0,0,-1,1315,736,0,0
98,288,0,0,0,0,0,0,0,0,0,-1,1322,736,0,0
105,288,0,0,0,0,0,0,0,0,0,-1,1329,736,0,0
112,288,0,0,0,0,0,0,0,0,0,-1,1336,736,0,0
119,288,0,0,0,0,0,0,0,0,0,-1,1343,736,0,0
126,288,0,0,0,0,0,0,0,0,0,-1,1350,736,0,0
133,288,0,0,0,0,0,0,0,0,0,-1,1357,736,0,0
140,288,0,0,0,0,0,0,0,0,0,-1,1364,736,0,0
147,288,0,0,0,0,0,0,0,0,0,-1,1371,736,0,0
154,288,0,0,0,0,0,0,0,0,0,-1,1378,736,0,0
161,288,0,0,0,0,0,0,0,0,0,-1,1385,736,0,0
168,288,0,0,0,0,0,0,0,0,0,-1,1392,736,0,0
175,288,0,0,0,0,0,0,0,0,0,-1,1399,736,0,0
182,288,0,0,0,0,0,0,0,0,0,-1,1406,736,0,0
189,288,0,0,0,0,0,0,0,0,0,-1,1413,736,0,0
196,288,0,0,0,0,0,0,0,0,0,-1,1420,736,0,0
203,288,0,0,0,0,0,0,0,0,0,-1,1427,736,0,0
210,288,0,0,0,0,0,0,0,0,0,-1,1434,736,0,0
217,288,0,0,0,0,0,0,0,0,0,-1,1441,736,0,0
224,288,0,0,0,0,0,0,0,0,0,-1,1448,736,0,0
231,288,0,0,0,0,0,0,0,0,0,-1,1455,736,0,0
238,288,0,0,0,0,0,0,0,0,0,-1,1462,736,0,0
245,288,0,0,0,0,0,0,0,0,0,-1,1469,736,0,0
252,288,0,0,0,0,0,0,0,0,0,-1,1476,736,0,0
259,288,0,0,0,0,0,0,0,0,0,-1,1483,736,0,0
266,288,0,0,0,0,0,0,0,0,0,-1,1490,736,0,0
273,288,0,0,0,0,0,0,0,0,0,-1,1497,736,0,0
280,288,0,0,0,0,0,0,0,0,0,-1,1504,736,0,0
287,288,0,0,0,0,0,0,0,0,0,-1,1511,736,0,0
294,288,0,0,0,0,0,0,0,0,0,-1,1518,736,0,0
301,288,0,0,0,0,0,0,0,0,0,-1,1525,736,0,0
308,288,0,0,0,0,0,0,0,0,0,-1,1532,736,0,0
315,288,0,0,0,0,0,0,0,0,0,-1,1539,736,0,0
322,288,0,0,0,0,0,0,0,0,0,-1,1546,736,0,0
329,288,0,0,0,0,0,0,0,0,0,-1,1553,736,0,0
336,288,0,0,0,0,0,0,0,0,0,-1,1560,736,0,0
343,288,0,0,0,0,0,0,0,0,0,-1,1567,736,0,0
350,288,0,0,0,0,0,0,0,0,0,-1,1574,736,0,0
357,288,0,0,0,0,0,0,0,0,0,-1,1581,736,0,0
364,288,0,0,0,0,0,0,0,0,0,-1,1588,736,0,0
371,288,0,0,0,0,0,0,0,0,0,-1,1595,736,0,0
378,288,0,0,0,0,0,0,0,0,0,-1,1602,736,0,0
385,288,0,0,0,0,0,0,0,0,0,-1,1609,736,0,0
392,288,0,0,0,0,0,0,0,0,0,-1,1616,736,0,0
399,288,0,0,0,0,0,0,0,0,0,-1,1623,736,0,0
406,288,0,0,0,0,0,0,0,0,0,-1,1630,736,0,0
413,288,0,0,0,0,0,0,0,0,0,-1,1637,736,0,0
420,288,0,0,0,0,0,0,0,0,0,-1,1644,736,0,0
427,288,0,0,0,0,0,0,0,0,0,-1,1651,736,0,0
434,288,0,0,0,0,0,0,0,0,0,-1,1658,736,0,0
441,288,0,0,0,0,0,0,0,0,0,-1,1665,736,0,0
448,288,0,0,0,0,0,0,0,0,0,-1,1672,736,0,0
455,288,0,0,0,0,0,0,0,0,0,-1,1679,736,0,0
462,288,0,0,0,0,0,0,0,0,0,-1,1686,736,0,0
469,288,0,0,0,0,0,0,0,0,0,-1,1693,736,0,0
476,288,0,0,0,0,0,0,0,0,0,-1,1700,736,0,0
483,288,0,0,0,0,0,0,0,0,0,-1,1707,736,0,0
490,288,0,0,0,0,0,0,0,0,0,-1,1714,736,0,0
497,288,0,0,0,0,0,0,0,0,0,-1,1721,736,0,0
504,288,0,0,0,0,0,0,0,0,0,-1,1728,736,0,0
511,288,0,0,0,0,0,0,0,0,0,-1,1735,736,0,0
518,288,0,0,0,0,0,0,0,0,0,-1,1742,736,0,0
525,288,0,0,0,0,0,0,0,0,0,-1,1749,736,0,0
532,288,0,0,0,0,0,0,0,0,0,-1,1756,736,0,0
539,288,0,0,0,0,0,0,0,0,0,-1,1763,736,0,0
546,288,0,0,0,0,0,0,0,0,0,-1,1770,736,0,0
553,288,17.7463,4.54291,0,0,0,0,0,0,0,-1,1777,736,17.7464,-4.54293
560,288,18.4413,4.21887,0.04881,0.0371489,-0.020754,0.0645369,0.021422,-0.64846,0.0379556,0.0404106,1784,736,18.4412,-4.21889
567,288,18.985,4.21576,0.0376515,0.0271172,-0.0132881,0.0466783,0.0180904,-0.596707,0.0271759,0.0453889,1791,736,18.985,-4.21577
574,288,19.3104,4.63715,0,0,0,0,0,0,0,-1,1798,736,19.3105,-4.63718
581,288,20.8934,0.979919,0.0171901,0.0158979,-0.00646381,0.0230401,0.010048,-0.735587,0.0133383,0.048519,1805,736,20.8935,-0.979945
588,288,20.6118,1.39856,0.0103617,0.0122816,-0.00506715,0.0164789,0.00616435,-0.87901,0.00961415,0.0432827,1812,736,20.6118,-1.39858
595,288,20.1666,1.81366,0.00566176,0.009321,-0.00427652,0.0121429,0.00283991,-0.98753,0.00733422,0.0446635,1819,736,20.1666,-1.81368
602,288,19.3573,3.5863,0,0,0,0,0,0,0,-1,1826,736,19.3573,-3.58631
609,288,17.5223,4.86414,0,0,0,0,0,0,0,-1,1833,736,17.5223,-4.86412
616,288,13.4886,0.801331,0,0,0,0,0,0,0,-1,1840,736,13.4886,-0.80132
623,288,13.741,0.142212,0,0,0,0,0,0,0,-1,1847,736,13.741,-0.142223
630,288,13.6854,0.437683,-0.00416742,-0.000778225,-0.00130943,-0.000331264,-0.00461438,-1.24186,0.00297199,0.0194374,1854,736,13.6854,-0.437666
637,288,13.6666,0.703674,-0.00288733,-0.00264061,-0.0014278,-0.00133085,-0.00419708,-0.828491,0.00247664,0.00963412,1861,736,13.6667,-0.703667
644,288,13.6888,0.939941,-0.00176611,-0.00193984,-0.00156455,-0.000286015,-0.00341993,-0.757666,0.00219085,0.00988667,1868,736,13.6888,-0.939912
651,288,13.6963,1.17487,-0.000955581,-0.00122165,-0.0011577,7.6705e-05,-0.00225394,-0.728193,0.00152883,0.0111368,1875,736,13.6963,-1.17486
658,288,13.6788,1.45728,-0.000557014,-0.00142757,-0.000780379,-9.87268e-05,-0.00188586,-0.531001,0.00122566,0.0154339,1882,736,13.6788,-1.45727
665,288,13.662,1.70331,-0.000303828,-0.00111775,-0.000451495,-0.000102952,-0.00131862,-0.418615,0.000846854,0.0172527,1889,736,13.662,-1.70332
672,288,13.6608,1.90668,-9.8963e-05,-0.000455009,-0.000834686,0.000576474,-0.00113045,-0.680332,0.00100264,0.0146814,1896,736,13.6608,-1.90669
679,288,13.6813,2.16302,0.000127977,3.76593e-05,-0.00114236,0.00122607,-0.00106043,-0.765643,0.00132127,0.0121619,1903,736,13.6813,-2.163
686,288,13.6666,2.37469,0.000266426,0.000499513,-0.00146931,0.0018569,-0.00109096,-0.824974,0.00172099,0.00984063,1910,736,13.6667,-2.37469
693,288,13.6818,2.604,0.000556978,0.000954633,-0.00194395,0.0027099,-0.00119829,-0.836361,0.00231196,0.012506,1917,736,13.6818,-2.60402
700,288,13.6693,2.79468,0.00126064,0.00147909,-0.00250641,0.00387865,-0.00113892,-0.807174,0.00303744,0.0228497,1924,736,13.6693,-2.79471
707,288,13.7274,3.00049,0.00254123,0.00215001,-0.00325087,0.00560237,-0.000911135,-0.755349,0.00407274,0.0373159,1931,736,13.7274,-3.00048
714,288,13.9542,3.24628,0.00417533,0.00335968,-0.00421112,0.00799832,-0.000463316,-0.737126,0.00549317,0.0465125,1938,736,13.9542,-3.24626
721,288,13.3296,3.54736,0,0,0,0,0,0,0,-1,1945,736,13.3296,-3.54737
728,288,15.3007,3.64716,0,0,0,0,0,0,0,-1,1952,736,15.3006,-3.64716
735,288,16.448,3.76532,0,0,0,0,0,0,0,-1,1959,736,16.448,-3.76532
742,288,0,0,0,0,0,0,0,0,0,-1,1966,736,0,0
749,288,0,0,0,0,0,0,0,0,0,-1,1973,736,0,0
756,288,0,0,0,0,0,0,0,0,0,-1,1980,736,0,0
763,288,0,0,0,0,0,0,0,0,0,-1,1987,736,0,0
770,288,0,0,0,0,0,0,0,0,0,-1,1994,736,0,0
777,288,0,0,0,0,0,0,0,0,0,-1,2001,736,0,0
784,288,0,0,0,0,0,0,0,0,0,-1,2008,736,0,0
791,288,0,0,0,0,0,0,0,0,0,-1,2015,736,0,0
798,288,0,0,0,0,0,0,0,0,0,-1,2022,736,0,0
805,288,0,0,0,0,0,0,0,0,0,-1,2029,736,0,0
812,288,0,0,0,0,0,0,0,0,0,-1,2036,736,0,0
-700,281,0,0,0,0,0,0,0,0,0,-1,524,743,0,0
-693,281,0,0,0,0,0,0,0,0,0,-1,531,743,0,0
-686,281,0,0,0,0,0,0,0,0,0,-1,538,743,0,0
-679,281,0,0,0,0,0,0,0,0,0,-1,545,743,0,0
-672,281,0,0,0,0,0,0,0,0,0,-1,552,743,0,0
-665,281,0,0,0,0,0,0,0,0,0,-1,559,743,0,0
-658,281,0,0,0,0,0,0,0,0,0,-1,566,743,0,0
-651,281,0,0,0,0,0,0,0,0,0,-1,573,743,0,0
-644,281,0,0,0,0,0,0,0,0,0,-1,580,743,0,0
-637,281,0,0,0,0,0,0,0,0,0,-1,587,743,0,0
-630,281,0,0,0,0,0,0,0,0,0,-1,594,743,0,0
-623,281,-7.48248,-0.576172,0,0,0,0,0,0,0,-1,601,743,-7.48251,0.576166
-616,281,-7.53442,0.308594,0,0,0,0,0,0,0,-1,608,743,-7.53443,-0.308588
-609,281,-7.39569,0.326233,0.0303421,-0.0244173,0.0473061,0.0576206,-0.0516958,0.523064,0.0631447,0.0449903,615,743,-7.39571,-0.326262
-602,281,-7.42041,0.418335,0.023855,-0.0174698,0.038064,0.0465032,-0.0401179,0.536736,0.050056,0.0471784,622,743,-7.42043,-0.418324
-595,281,-7.53943,0.47229,0,0,0,0,0,0,0,-1,629,743,-7.53945,-0.472296
-588,281,-7.53516,1.11505,0,0,0,0,0,0,0,-1,636,743,-7.53518,-1.11508
-581,281,-7.55542,0.91217,0.00678602,-0.00494767,0.0171028,0.0190003,-0.017162,0.620171,0.0208873,0.0464813,643,743,-7.5554,-0.912174
-574,281,-7.55756,0.718994,0.00248581,-0.00209996,0.0120982,0.0125065,-0.0121207,0.691748,0.0142191,0.0277874,650,743,-7.55754,-0.718995
-567,281,-7.65179,0.569397,-0.0002883,-0.00083854,0.00828772,0.00772887,-0.0088557,0.768806,0.00958247,0.013431,657,743,-7.65181,-0.569378
-560,281,-7.66602,0.378601,-0.00196476,-0.00014314,0.00563019,0.00464944,-0.00675734,0.86559,0.00662308,0.0082668,664,743,-7.66602,-0.378579
-553,281,-7.65601,0.173157,-0.00309823,2.69857e-05,0.00360702,0.00239532,-0.00546657,0.989802,0.00465308,0.0126819,671,743,-7.656,-0.173161
-546,281,-7.64594,-0.0281982,-0.00313736,-0.000242431,0.00270904,0.00138159,-0.00476138,1.03076,0.00372128,0.0144371,678,743,-7.64594,0.0282089
-539,281,-7.64594,-0.268616,-0.00293487,-0.000812541,0.00235111,0.000705786,-0.0044532,0.997385,0.00322987,0.0130093,685,743,-7.64591,0.268608
-532,281,-7.64777,-0.488281,-0.00254859,-0.00100628,0.00234766,0.000693628,-0.0042485,0.944086,0.00308961,0.011987,692,743,-7.64778,0.488268
-525,281,-7.66339,-0.734009,-0.00203559,-0.000859272,0.00242831,0.00105109,-0.00394595,0.904215,0.00304214,0.0138141,699,743,-7.66339,0.73399
-518,281,-7.66632,-0.96582,-0.0020815,-0.000817665,0.00263446,0.0012596,-0.00415876,0.903107,0.00327416,0.0116971,706,743,-7.66634,0.965809
-511,281,-7.67267,-1.2002,-0.0023229,-0.0015068,0.00325226,0.00136291,-0.00519261,0.847805,0.00399431,0.0105099,713,743,-7.67267,1.20023
-504,281,-7.68945,-1.44232,-0.00219626,-0.00233282,0.00417961,0.00191563,-0.00644471,0.777231,0.00505743,0.0132931,720,743,-7.68942,1.44235
-497,281,-7.58325,-1.68054,-0.0019042,-0.0040604,0.00527841,0.00240508,-0.00836969,0.68466,0.00653081,0.0361905,727,743,-7.58326,1.68057
-490,281,-7.74957,-1.37842,0,0,0,0,0,0,0,-1,734,743,-7.74958,1.37839
-483,281,-7.97223,-1.18591,0,0,0,0,0,0,0,-1,741,743,-7.97226,1.1859
-476,281,-11.3518,1.32623,0,0,0,0,0,0,0,-1,748,743,-11.3518,-1.32626
-469,281,-13.6948,-0.237244,0,0,0,0,0,0,0,-1,755,743,-13.6948,0.237259
-462,281,-13.593,0.263245,0.0123585,-0.0285541,0.0293136,0.0276478,-0.0438434,0.48076,0.041627,0.0482707,762,743,-13.593,-0.263233
-455,281,-13.459,0.792114,0.0186008,-0.037399,0.0389098,0.0385381,-0.0573362,0.473515,0.0557066,0.0452314,769,743,-13.459,-0.792086
-448,281,-13.3201,1.26062,0.0269267,-0.0474683,0.0517354,0.0534489,-0.0739906,0.473718,0.0738952,0.045535,776,743,-13.3201,-1.26061
-441,281,-13.1906,1.76788,0,0,0,0,0,0,0,-1,783,743,-13.1906,-1.76791
-434,281,0,0,0,0,0,0,0,0,0,-1,790,743,0,0
-427,281,0,0,0,0,0,0,0,0,0,-1,797,743,0,0
-420,281,0,0,0,0,0,0,0,0,0,-1,804,743,0,0
-413,281,0,0,0,0,0,0,0,0,0,-1,811,743,0,0
-406,281,0,0,0,0,0,0,0,0,0,-1,818,743,0,0
-399,281,0,0,0,0,0,0,0,0,0,-1,825,743,0,0
-392,281,0,0,0,0,0,0,0,0,0,-1,832,743,0,0
-385,281,0,0,0,0,0,0,0,0,0,-1,839,743,0,0
-378,281,0,0,0,0,0,0,0,0,0,-1,846,743,0,0
-371,281,0,0,0,0,0,0,0,0,0,-1,853,743,0,0
-364,281,0,0,0,0,0,0,0,0,0,-1,860,743,0,0
-357,281,0,0,0,0,0,0,0,0,0,-1,867,743,0,0
-350,281,0,0,0,0,0,0,0,0,0,-1,874,743,0,0
-343,281,0,0,0,0,0,0,0,0,0,-1,881,743,0,0
-336,281,0,0,0,0,0,0,0,0,0,-1,888,743,0,0
-329,281,0,0,0,0,0,0,0,0,0,-1,895,743,0,0
-322,281,0,0,0,0,0,0,0,0,0,-1,902,743,0,0
-315,281,0,0,0,0,0,0,0,0,0,-1,909,743,0,0
-308,281,0,0,0,0,0,0,0,0,0,-1,916,743,0,0
-301,281,0,0,0,0,0,0,0,0,0,-1,923,743,0,0
-294,281,0,0,0,0,0,0,0,0,0,-1,930,743,0,0
-287,281,0,0,0,0,0,0,0,0,0,-1,937,743,0,0
-280,281,0,0,0,0,0,0,0,0,0,-1,944,743,0,0
-273,281,0,0,0,0,0,0,0,0,0,-1,951,743,0,0
-266,281,0,0,0,0,0,0,0,0,0,-1,958,743,0,0
-259,281,0,0,0,0,0,0,0,0,0,-1,965,743,0,0
-252,281,0,0,0,0,0,0,0,0,0,-1,972,743,0,0
-245,281,0,0,0,0,0,0,0,0,0,-1,979,743,0,0
-238,281,0,0,0,0,0,0,0,0,0,-1,986,743,0,0
-231,281,0,0,0,0,0,0,0,0,0,-1,993,743,0,0
-224,281,0,0,0,0,0,0,0,0,0,-1,1000,743,0,0
-217,281,0,0,0,0,0,0,0,0,0,-1,1007,743,0,0
-210,281,0,0,0,0,0,0,0,0,0,-1,1014,743,0,0
-203,281,0,0,0,0,0,0,0,0,0,-1,1021,743,0,0
-196,281,0,0,0,0,0,0,0,0,0,-1,1028,743,0,0
-189,281,0,0,0,0,0,0,0,0,0,-1,1035,743,0,0
-182,281,0,0,0,0,0,0,0,0,0,-1,1042,743,0,0
-175,281,0,0,0,0,0,0,0,0,0,-1,1049,743,0,0
-168,281,0,0,0,0,0,0,0,0,0,-1,1056,743,0,0
-161,281,0,0,0,0,0,0,0,0,0,-1,1063,743,0,0
-154,281,0,0,0,0,0,0,0,0,0,-1,1070,743,0,0
-147,281,0,0,0,0,0,0,0,0,0,-1,1077,743,0,0
-140,281,0,0,0,0,0,0,0,0,0,-1,1084,743,0,0
-133,281,0,0,0,0,0,0,0,0,0,-1,1091,743,0,0
-126,281,0,0,0,0,0,0,0,0,0,-1,1098,743,0,0
-119,281,0,0,0,0,0,0,0,0,0,-1,1105,743,0,0
-112,281,0,0,0,0,0,0,0,0,0,-1,1112,743,0,0
-105,281,0,0,0,0,0,0,0,0,0,-1,1119,743,0,0
-98,281,0,0,0,0,0,0,0,0,0,-1,1126,743,0,0
-91,281,0,0,0,0,0,0,0,0,0,-1,1133,743,0,0
-84,281,0,0,0,0,0,0,0,0,0,-1,1140,743,0,0
-77,281,0,0,0,0,0,0,0,0,0,-1,1147,743,0,0
-70,281,0,0,0,0,0,0,0,0,0,-1,1154,743,0,0
-63,281,0,0,0,0,0,0,0,0,0,-1,1161,743,0,0
-56,281,0,0,0,0,0,0,0,0,0,-1,1168,743,0,0
-49,281,0,0,0,0,0,0,0,0,0,-1,1175,743,0,0
-42,281,0,0,0,0,0,0,0,0,0,-1,1182,743,0,0
-35,281,0,0,0,0,0,0,0,0,0,-1,1189,743,0,0
-28,281,0,0,0,0,0,0,0,0,0,-1,1196,743,0,0
-21,281,0,0,0,0,0,0,0,0,0,-1,1203,743,0,0
-14,281,0,0,0,0,0,0,0,0,0,-1,1210,743,0,0
-7,281,0,0,0,0,0,0,0,0,0,-1,1217,743,0,0
0,281,0,0,0,0,0,0,0,0,0,-1,1224,743,0,0
7,281,0,0,0,0,0,0,0,0,0,-1,1231,743,0,0
14,281,0,0,0,0,0,0,0,0,0,-1,1238,743,0,0
21,281,0,0,0,0,0,0,0,0,0,-1,1245,743,0,0
28,281,0,0,0,0,0,0,0,0,0,-1,1252,743,0,0
35,281,0,0,0,0,0,0,0,0,0,-1,1259,743,0,0
42,281,0,0,0,0,0,0,0,0,0,-1,1266,743,0,0
49,281,0,0,0,0,0,0,0,0,0,-1,1273,743,0,0
56,281,0,0,0,0,0,0,0,0,0,-1,1280,743,0,0
63,281,0,0,0,0,0,0,0,0,0,-1,1287,743,0,0
70,281,0,0,0,0,0,0,0,0,0,-1,1294,743,0,0
77,281,0,0,0,0,0,0,0,0,0,-1,1301,743,0,0
84,281,0,0,0,0,0,0,0,0,0,-1,1308,743,0,0
91,281,0,0,0,0,0,0,0,0,0,-1,1315,743,0,0
98,281,0,0,0,0,0,0,0,0,0,-1,1322,743,0,0
105,281,0,0,0,0,0,0,0,0,0,-1,1329,743,0,0
112,281,0,0,0,0,0,0,0,0,0,-1,1336,743,0,0
119,281,0,0,0,0,0,0,0,0,0,-1,1343,743,0,0
126,281,0,0,0,0,0,0,0,0,0,-1,1350,743,0,0
133,281,0,0,0,0,0,0,0,0,0,-1,1357,743,0,0
140,281,0,0,0,0,0,0,0,0,0,-1,1364,743,0,0
147,281,0,0,0,0,0,0,0,0,0,-1,1371,743,0,0
154,281,0,0,0,0,0,0,0,0,0,-1,1378,743,0,0
161,281,0,0,0,0,0,0,0,0,0,-1,1385,743,0,0
168,281,0,0,0,0,0,0,0,0,0,-1,1392,743,0,0
175,281,0,0,0,0,0,0,0,0,0,-1,1399,743,0,0
182,281,0,0,0,0,0,0,0,0,0,-1,1406,743,0,0
189,281,0,0,0,0,0,0,0,0,0,-1,1413,743,0,0
196,281,0,0,0,0,0,0,0,0,0,-1,1420,743,0,0
203,281,0,0,0,0,0,0,0,0,0,-1,1427,743,0,0
210,281,0,0,0,0,0,0,0,0,0,-1,1434,743,0,0
217,281,0,0,0,0,0,0,0,0,0,-1,1441,743,0,0
224,281,0,0,0,0,0,0,0,0,0,-1,1448,743,0,0
231,281,0,0,0,0,0,0,0,0,0,-1,1455,743,0,0
238,281,0,0,0,0,0,0,0,0,0,-1,1462,743,0,0
245,281,0,0,0,0,0,0,0,0,0,-1,1469,743,0,0
252,281,0,0,0,0,0,0,0,0,0,-1,1476,743,0,0
259,281,0,0,0,0,0,0,0,0,0,-1,1483,743,0,0
266,281,0,0,0,0,0,0,0,0,0,-1,1490,743,0,0
273,281,0,0,0,0,0,0,0,0,0,-1,1497,743,0,0
280,281,0,0,0,0,0,0,0,0,0,-1,1504,743,0,0
287,281,0,0,0,0,0,0,0,0,0,-1,1511,743,0,0
294,281,0,0,0,0,0,0,0,0,0,-1,1518,743,0,0
301,281,0,0,0,0,0,0,0,0,0,-1,1525,743,0,0
308,281,0,0,0,0,0,0,0,0,0,-1,1532,743,0,0
315,281,0,0,0,0,0,0,0,0,0,-1,1539,743,0,0
322,281,0,0,0,0,0,0,0,0,0,-1,1546,743,0,0
329,281,0,0,0,0,0,0,0,0,0,-1,1553,743,0,0
336,281,0,0,0,0,0,0,0,0,0,-1,1560,743,0,0
343,281,0,0,0,0,0,0,0,0,0,-1,1567,743,0,0
350,281,0,0,0,0,0,0,0,0,0,-1,1574,743,0,0
357,281,0,0,0,0,0,0,0,0,0,-1,1581,743,0,0
364,281,0,0,0,0,0,0,0,0,0,-1,1588,743,0,0
371,281,0,0,0,0,0,0,0,0,0,-1,1595,743,0,0
378,281,0,0,0,0,0,0,0,0,0,-1,1602,743,0,0
385,281,0,0,0,0,0,0,0,0,0,-1,1609,743,0,0
392,281,0,0,0,0,0,0,0,0,0,-1,1616,743,0,0
399,281,0,0,0,0,0,0,0,0,0,-1,1623,743,0,0
406,281,0,0,0,0,0,0,0,0,0,-1,1630,743,0,0
413,281,0,0,0,0,0,0,0,0,0,-1,1637,743,0,0
420,281,0,0,0,0,0,0,0,0,0,-1,1644,743,0,0
427,281,0,0,0,0,0,0,0,0,0,-1,1651,743,0,0
434,281,0,0,0,0,0,0,0,0,0,-1,1658,743,0,0
441,281,0,0,0,0,0,0,0,0,0,-1,1665,743,0,0
448,281,0,0,0,0,0,0,0,0,0,-1,1672,743,0,0
455,281,0,0,0,0,0,0,0,0,0,-1,1679,743,0,0
462,281,0,0,0,0,0,0,0,0,0,-1,1686,743,0,0
469,281,0,0,0,0,0,0,0,0,0,-1,1693,743,0,0
476,281,0,0,0,0,0,0,0,0,0,-1,1700,743,0,0
483,281,0,0,0,0,0,0,0,0,0,-1,1707,743,0,0
490,281,0,0,0,0,0,0,0,0,0,-1,1714,743,0,0
497,281,0,0,0,0,0,0,0,0,0,-1,1721,743,0,0
504,281,0,0,0,0,0,0,0,0,0,-1,1728,743,0,0
511,281,0,0,0,0,0,0,0,0,0,-1,1735,743,0,0
518,281,0,0,0,0,0,0,0,0,0,-1,1742,743,0,0
525,281,0,0,0,0,0,0,0,0,0,-1,1749,743,0,0
532,281,0,0,0,0,0,0,0,0,0,-1,1756,743,0,0
539,281,0,0,0,0,0,0,0,0,0,-1,1763,743,0,0
546,281,0,0,0,0,0,0,0,0,0,-1,1770,743,0,0
553,281,0,0,0,0,0,0,0,0,0,-1,1777,743,0,0
560,281,20.8184,3.17651,0.0361708,0.0462314,-0.0232775,0.0650159,0.0173863,-0.891813,0.0388671,0.0482028,1784,743,20.8183,-3.17654
567,281,19.7344,3.88391,0.0292553,0.0332041,-0.0158413,0.0471935,0.0152659,-0.847396,0.0278075,0.04397,1791,743,19.7343,-3.88388
574,281,19.8577,4.09741,0.0212535,0.0240818,-0.0111878,0.0339445,0.0113908,-0.848266,0.019948,0.0495259,1798,743,19.8577,-4.09743
581,281,21.0521,1.36066,0,0,0,0,0,0,0,-1,1805,743,21.0522,-1.36068
588,281,20.8501,1.80914,0.0080647,0.0131331,-0.00649457,0.0175704,0.00362741,-0.971414,0.0107112,0.0410505,1812,743,20.8501,-1.80912
595,281,20.66,2.24664,0.00413218,0.00969061,-0.00541017,0.0129937,0.000829128,-1.02267,0.00839971,0.0421178,1819,743,20.66,-2.24663
602,281,20.0599,3.05743,0.00154464,0.00688191,-0.00463415,0.00956089,-0.00113434,-1.04664,0.00678372,0.0475499,1826,743,20.0599,-3.05743
609,281,19.975,3.4054,0,0,0,0,0,0,0,-1,1833,743,19.975,-3.40541
616,281,18.9973,0.716797,0,0,0,0,0,0,0,-1,1840,743,18.9973,-0.716792
623,281,13.8805,0.233826,0,0,0,0,0,0,0,-1,1847,743,13.8805,-0.233844
630,281,13.8959,0.458435,-0.00429173,-0.00110095,-0.00182686,-0.000270916,-0.00512177,-1.14433,0.00332788,0.0325354,1854,743,13.8959,-0.458425
637,281,13.8928,0.700745,-0.00321934,-0.00290088,-0.00188123,-0.00117216,-0.00494806,-0.827618,0.0029857,0.0121364,1861,743,13.8928,-0.700719
644,281,13.9171,0.934937,-0.00220345,-0.00232217,-0.00199003,-0.000271892,-0.00425373,-0.770488,0.00274967,0.0100296,1868,743,13.9171,-0.934911
651,281,13.9404,1.17114,-0.00132188,-0.00170226,-0.00157427,7.36443e-05,-0.00309778,-0.725284,0.00209017,0.0110617,1875,743,13.9405,-1.17113
658,281,13.9113,1.42548,-0.000756494,-0.00200706,-0.00114053,-8.10872e-05,-0.00268247,-0.534653,0.00176191,0.0190028,1882,743,13.9113,-1.42548
665,281,13.8951,1.66583,-0.000273721,-0.00165615,-0.000670768,-1.75909e-06,-0.00192811,-0.385194,0.00128482,0.0215853,1889,743,13.8952,-1.66585
672,281,13.8827,1.91956,0.000115147,-0.000895662,-0.000962506,0.000696872,-0.00147739,-0.543638,0.00128199,0.0121446,1896,743,13.8827,-1.91954
679,281,13.897,2.1507,0.000486394,-0.000246397,-0.00121496,0.001389,-0.00114901,-0.63895,0.0014675,0.0177584,1903,743,13.8969,-2.15072
686,281,13.9001,2.3573,0.000695501,0.000343521,-0.00144801,0.00197818,-0.00093916,-0.724925,0.00171957,0.0148174,1910,743,13.9002,-2.35729
693,281,13.8928,2.59503,0.000947758,0.000877179,-0.0018216,0.00273441,-0.000909477,-0.775713,0.00218998,0.0109347,1917,743,13.8928,-2.59505
700,281,13.8909,2.83002,0.00153303,0.00144094,-0.00231839,0.00380584,-0.000831863,-0.775469,0.0028552,0.0168234,1924,743,13.8908,-2.83001
707,281,13.9099,3.03711,0.00266762,0.00197984,-0.00309325,0.00543604,-0.000788581,-0.730038,0.00391346,0.0337242,1931,743,13.9099,-3.03709
714,281,13.8684,3.31427,0.00413177,0.00298262,-0.00413275,0.00772969,-0.000615309,-0.716326,0.00537,0.0456863,1938,743,13.8685,-3.31425
721,281,13.8276,3.27228,0.00584467,0.0045645,-0.00541203,0.0106543,-0.000245169,-0.726537,0.00718601,0.0479687,1945,743,13.8277,-3.2723
728,281,14.1503,3.22754,0,0,0,0,0,0,0,-1,1952,743,14.1503,-3.22756
735,281,16.7875,2.70435,0,0,0,0,0,0,0,-1,1959,743,16.7875,-2.70433
742,281,0,0,0,0,0,0,0,0,0,-1,1966,743,0,0
749,281,0,0,0,0,0,0,0,0,0,-1,1973,743,0,0
756,281,0,0,0,0,0,0,0,0,0,-1,1980,743,0,0
763,281,0,0,0,0,0,0,0,0,0,-1,1987,743,0,0
770,281,0,0,0,0,0,0,0,0,0,-1,1994,743,0,0
777,281,0,0,0,0,0,0,0,0,0,-1,2001,743,0,0
784,281,0,0,0,0,0,0,0,0,0,-1,2008,743,0,0
791,281,0,0,0,0,0,0,0,0,0,-1,2015,743,0,0
798,281,0,0,0,0,0,0,0,0,0,-1,2022,743,0,0
805,281,0,0,0,0,0,0,0,0,0,-1,2029,743,0,0
812,281,0,0,0,0,0,0,0,0,0,-1,2036,743,0,0
-700,274,0,0,0,0,0,0,0,0,0,-1,524,750,0,0
-693,274,0,0,0,0,0,0,0,0,0,-1,531,750,0,0
-686,274,0,0,0,0,0,0,0,0,0,-1,538,750,0,0
-679,274,0,0,0,0,0,0,0,0,0,-1,545,750,0,0
-672,274,0,0,0,0,0,0,0,0,0,-1,552,750,0,0
-665,274,0,0,0,0,0,0,0,0,0,-1,559,750,0,0
-658,274,0,0,0,0,0,0,0,0,0,-1,566,750,0,0
-651,274,0,0,0,0,0,0,0,0,0,-1,573,750,0,0
-644,274,0,0,0,0,0,0,0,0,0,-1,580,750,0,0
-637,274,0,0,0,0,0,0,0,0,0,-1,587,750,0,0
-630,274,0,0,0,0,0,0,0,0,0,-1,594,750,0,0
-623,274,-8.24066,-0.199097,0,0,0,0,0,0,0,-1,601,750,-8.24064,0.199101
-616,274,-8.23431,0.195557,0,0,0,0,0,0,0,-1,608,750,-8.23434,-0.19553
-609,274,-7.89447,0.274597,0.0360908,-0.023078,0.0426015,0.0583728,-0.04536,0.481904,0.060047,0.0449085,615,750,-7.89445,-0.274613
-602,274,-7.66254,0.404358,0.0278756,-0.0164326,0.0340441,0.0463393,-0.0348963,0.496948,0.0470562,0.0448554,622,750,-7.66252,-0.404339
-595,274,-7.46143,0.52594,0,0,0,0,0,0,0,-1,629,750,-7.46142,-0.525936
-588,274,-7.64069,1.22565,0,0,0,0,0,0,0,-1,636,750,-7.64069,-1.22564
-581,274,-7.72235,0.972534,0.00882699,-0.00496632,0.0148898,0.0183398,-0.0144791,0.568519,0.0189917,0.0375657,643,750,-7.72238,-0.972529
-574,274,-7.79968,0.749084,0.0043143,-0.00240593,0.0103896,0.0118737,-0.0099653,0.629001,0.0126248,0.0195641,650,750,-7.79966,-0.749095
-567,274,-7.89465,0.544067,0.00128041,-0.00130477,0.00703964,0.00714515,-0.0071695,0.694602,0.00826457,0.0177477,657,750,-7.89466,-0.54407
-560,274,-7.87531,0.342346,-0.000677764,-0.000717125,0.00476793,0.00407052,-0.00546541,0.783334,0.00552517,0.0145606,664,750,-7.87528,-0.342335
-553,274,-7.88251,0.148376,-0.00207147,-0.000546042,0.00311491,0.00189817,-0.00451568,0.905466,0.00380444,0.00917884,671,750,-7.88249,-0.148365
-546,274,-7.88184,-0.0536499,-0.0024454,-0.000827913,0.00252414,0.00101388,-0.0042872,0.940432,0.00324926,0.010628,678,750,-7.88181,0.0536567
-539,274,-7.89233,-0.271729,-0.00260647,-0.00136142,0.00240554,0.000500844,-0.00446874,0.912015,0.00315937,0.011172,685,750,-7.89236,0.271721
-532,274,-7.89545,-0.496765,-0.00249059,-0.00149727,0.00263333,0.000685836,-0.00467369,0.878606,0.00336776,0.0115199,692,750,-7.89547,0.496761
-525,274,-7.89703,-0.720398,-0.00218923,-0.00121136,0.00287068,0.00121173,-0.00461232,0.869749,0.00354844,0.0117626,699,750,-7.89701,0.720381
-518,274,-7.88843,-0.950867,-0.00247837,-0.00101142,0.00318248,0.00152101,-0.00501081,0.898657,0.00394649,0.011738,706,750,-7.88842,0.950865
-511,274,-7.89301,-1.20862,-0.00288824,-0.00146936,0.00377,0.00165737,-0.00601497,0.878401,0.0046617,0.0113311,713,750,-7.89298,1.20861
-504,274,-7.88794,-1.44946,-0.00286388,-0.00198875,0.00461936,0.00221373,-0.00706635,0.832619,0.0055967,0.0201957,720,750,-7.88794,1.44945
-497,274,-7.87402,-1.50458,-0.00271522,-0.00335238,0.0055678,0.00254311,-0.00861071,0.75682,0.00674981,0.0450469,727,750,-7.874,1.50456
-490,274,-7.86572,-1.53931,0,0,0,0,0,0,0,-1,734,750,-7.86573,1.53932
-483,274,-11.7986,1.93903,0,0,0,0,0,0,0,-1,741,750,-11.7986,-1.939
-476,274,-11.9892,1.38153,0,0,0,0,0,0,0,-1,748,750,-11.9892,-1.38153
-469,274,-12.1689,0.911194,0,0,0,0,0,0,0,-1,755,750,-12.1689,-0.911193
-462,274,-13.313,1.09778,0,0,0,0,0,0,0,-1,762,750,-13.313,-1.0978
-455,274,-13.3519,1.16235,0,0,0,0,0,0,0,-1,769,750,-13.3519,-1.16235
-448,274,-13.2915,1.64667,0,0,0,0,0,0,0,-1,776,750,-13.2915,-1.64666
-441,274,0,0,0,0,0,0,0,0,0,-1,783,750,0,0
-434,274,0,0,0,0,0,0,0,0,0,-1,790,750,0,0
-427,274,0,0,0,0,0,0,0,0,0,-1,797,750,0,0
-420,274,0,0,0,0,0,0,0,0,0,-1,804,750,0,0
-413,274,0,0,0,0,0,0,0,0,0,-1,811,750,0,0
-406,274,0,0,0,0,0,0,0,0,0,-1,818,750,0,0
-399,274,0,0,0,0,0,0,0,0,0,-1,825,750,0,0
-392,274,0,0,0,0,0,0,0,0,0,-1,832,750,0,0
-385,274,0,0,0,0,0,0,0,0,0,-1,839,750,0,0
-378,274,0,0,0,0,0,0,0,0,0,-1,846,750,0,0
-371,274,0,0,0,0,0,0,0,0,0,-1,853,750,0,0
-364,274,0,0,0,0,0,0,0,0,0,-1,860,750,0,0
-357,274,0,0,0,0,0,0,0,0,0,-1,867,750,0,0
-350,274,0,0,0,0,0,0,0,0,0,-1,874,750,0,0
-343,274,0,0,0,0,0,0,0,0,0,-1,881,750,0,0
-336,274,0,0,0,0,0,0,0,0,0,-1,888,750,0,0
-329,274,0,0,0,0,0,0,0,0,0,-1,895,750,0,0
-322,274,0,0,0,0,0,0,0,0,0,-1,902,750,0,0
-315,274,0,0,0,0,0,0,0,0,0,-1,909,750,0,0
-308,274,0,0,0,0,0,0,0,0,0,-1,916,750,0,0
-301,274,0,0,0,0,0,0,0,0,0,-1,923,750,0,0
-294,274,0,0,0,0,0,0,0,0,0,-1,930,750,0,0
-287,274,0,0,0,0,0,0,0,0,0,-1,937,750,0,0
-280,274,0,0,0,0,0,0,0,0,0,-1,944,750,0,0
-273,274,0,0,0,0,0,0,0,0,0,-1,951,750,0,0
-266,274,0,0,0,0,0,0,0,0,0,-1,958,750,0,0
-259,274,0,0,0,0,0,0,0,0,0,-1,965,750,0,0
-252,274,0,0,0,0,0,0,0,0,0,-1,972,750,0,0
-245,274,0,0,0,0,0,0,0,0,0,-1,979,750,0,0
-238,274,0,0,0,0,0,0,0,0,0,-1,986,750,0,0
-231,274,0,0,0,0,0,0,0,0,0,-1,993,750,0,0
-224,274,0,0,0,0,0,0,0,0,0,-1,1000,750,0,0
-217,274,0,0,0,0,0,0,0,0,0,-1,1007,750,0,0
-210,274,0,0,0,0,0,0,0,0,0,-1,1014,750,0,0
-203,274,0,0,0,0,0,0,0,0,0,-1,1021,750,0,0
-196,274,0,0,0,0,0,0,0,0,0,-1,1028,750,0,0
-189,274,0,0,0,0,0,0,0,0,0,-1,1035,750,0,0
-182,274,0,0,0,0,0,0,0,0,0,-1,1042,750,0,0
-175,274,0,0,0,0,0,0,0,0,0,-1,1049,750,0,0
-168,274,0,0,0,0,0,0,0,0,0,-1,1056,750,0,0
-161,274,0,0,0,0,0,0,0,0,0,-1,1063,750,0,0
-154,274,0,0,0,0,0,0,0,0,0,-1,1070,750,0,0
-147,274,0,0,0,0,0,0,0,0,0,-1,1077,750,0,0
-140,274,0,0,0,0,0,0,0,0,0,-1,1084,750,0,0
-133,274,0,0,0,0,0,0,0,0,0,-1,1091,750,0,0
-126,274,0,0,0,0,0,0,0,0,0,-1,1098,750,0,0
-119,274,0,0,0,0,0,0,0,0,0,-1,1105,750,0,0
-112,274,0,0,0,0,0,0,0,0,0,-1,1112,750,0,0
-105,274,0,0,0,0,0,0,0,0,0,-1,1119,750,0,0
-98,274,0,0,0,0,0,0,0,0,0,-1,1126,750,0,0
-91,274,0,0,0,0,0,0,0,0,0,-1,1133,750,0,0
-84,274,0,0,0,0,0,0,0,0,0,-1,1140,750,0,0
-77,274,0,0,0,0,0,0,0,0,0,-1,1147,750,0,0
-70,274,0,0,0,0,0,0,0,0,0,-1,1154,750,0,0
-63,274,0,0,0,0,0,0,0,0,0,-1,1161,750,0,0
-56,274,0,0,0,0,0,0,0,0,0,-1,1168,750,0,0
-49,274,0,0,0,0,0,0,0,0,0,-1,1175,750,0,0
-42,274,0,0,0,0,0,0,0,0,0,-1,1182,750,0,0
-35,274,0,0,0,0,0,0,0,0,0,-1,1189,750,0,0
-28,274,0,0,0,0,0,0,0,0,0,-1,1196,750,0,0
-21,274,0,0,0,0,0,0,0,0,0,-1,1203,750,0,0
-14,274,0,0,0,0,0,0,0,0,0,-1,1210,750,0,0
-7,274,0,0,0,0,0,0,0,0,0,-1,1217,750,0,0
0,274,0,0,0,0,0,0,0,0,0,-1,1224,750,0,0
7,274,0,0,0,0,0,0,0,0,0,-1,1231,750,0,0
14,274,0,0,0,0,0,0,0,0,0,-1,1238,750,0,0
21,274,0,0,0,0,0,0,0,0,0,-1,1245,750,0,0
28,274,0,0,0,0,0,0,0,0,0,-1,1252,750,0,0
35,274,0,0,0,0,0,0,0,0,0,-1,1259,750,0,0
42,274,0,0,0,0,0,0,0,0,0,-1,1266,750,0,0
49,274,0,0,0,0,0,0,0,0,0,-1,1273,750,0,0
56,274,0,0,0,0,0,0,0,0,0,-1,1280,750,0,0
63,274,0,0,0,0,0,0,0,0,0,-1,1287,750,0,0
70,274,0,0,0,0,0,0,0,0,0,-1,1294,750,0,0
77,274,0,0,0,0,0,0,0,0,0,-1,1301,750,0,0
84,274,0,0,0,0,0,0,0,0,0,-1,1308,750,0,0
91,274,0,0,0,0,0,0,0,0,0,-1,1315,750,0,0
98,274,0,0,0,0,0,0,0,0,0,-1,1322,750,0,0
105,274,0,0,0,0,0,0,0,0,0,-1,1329,750,0,0
112,274,0,0,0,0,0,0,0,0,0,-1,1336,750,0,0
119,274,0,0,0,0,0,0,0,0,0,-1,1343,750,0,0
126,274,0,0,0,0,0,0,0,0,0,-1,1350,750,0,0
133,274,0,0,0,0,0,0,0,0,0,-1,1357,750,0,0
140,274,0,0,0,0,0,0,0,0,0,-1,1364,750,0,0
147,274,0,0,0,0,0,0,0,0,0,-1,1371,750,0,0
154,274,0,0,0,0,0,0,0,0,0,-1,1378,750,0,0
161,274,0,0,0,0,0,0,0,0,0,-1,1385,750,0,0
168,274,0,0,0,0,0,0,0,0,0,-1,1392,750,0,0
175,274,0,0,0,0,0,0,0,0,0,-1,1399,750,0,0
182,274,0,0,0,0,0,0,0,0,0,-1,1406,750,0,0
189,274,0,0,0,0,0,0,0,0,0,-1,1413,750,0,0
196,274,0,0,0,0,0,0,0,0,0,-1,1420,750,0,0
203,274,0,0,0,0,0,0,0,0,0,-1,1427,750,0,0
210,274,0,0,0,0,0,0,0,0,0,-1,1434,750,0,0
217,274,0,0,0,0,0,0,0,0,0,-1,1441,750,0,0
224,274,0,0,0,0,0,0,0,0,0,-1,1448,750,0,0
231,274,0,0,0,0,0,0,0,0,0,-1,1455,750,0,0
238,274,0,0,0,0,0,0,0,0,0,-1,1462,750,0,0
245,274,0,0,0,0,0,0,0,0,0,-1,1469,750,0,0
252,274,0,0,0,0,0,0,0,0,0,-1,1476,750,0,0
259,274,0,0,0,0,0,0,0,0,0,-1,1483,750,0,0
266,274,0,0,0,0,0,0,0,0,0,-1,1490,750,0,0
273,274,0,0,0,0,0,0,0,0,0,-1,1497,750,0,0
280,274,0,0,0,0,0,0,0,0,0,-1,1504,750,0,0
287,274,0,0,0,0,0,0,0,0,0,-1,1511,750,0,0
294,274,0,0,0,0,0,0,0,0,0,-1,1518,750,0,0
301,274,0,0,0,0,0,0,0,0,0,-1,1525,750,0,0
308,274,0,0,0,0,0,0,0,0,0,-1,1532,750,0,0
315,274,0,0,0,0,0,0,0,0,0,-1,1539,750,0,0
322,274,0,0,0,0,0,0,0,0,0,-1,1546,750,0,0
329,274,0,0,0,0,0,0,0,0,0,-1,1553,750,0,0
336,274,0,0,0,0,0,0,0,0,0,-1,1560,750,0,0
343,274,0,0,0,0,0,0,0,0,0,-1,1567,750,0,0
350,274,0,0,0,0,0,0,0,0,0,-1,1574,750,0,0
357,274,0,0,0,0,0,0,0,0,0,-1,1581,750,0,0
364,274,0,0,0,0,0,0,0,0,0,-1,1588,750,0,0
371,274,0,0,0,0,0,0,0,0,0,-1,1595,750,0,0
378,274,0,0,0,0,0,0,0,0,0,-1,1602,750,0,0
385,274,0,0,0,0,0,0,0,0,0,-1,1609,750,0,0
392,274,0,0,0,0,0,0,0,0,0,-1,1616,750,0,0
399,274,0,0,0,0,0,0,0,0,0,-1,1623,750,0,0
406,274,0,0,0,0,0,0,0,0,0,-1,1630,750,0,0
413,274,0,0,0,0,0,0,0,0,0,-1,1637,750,0,0
420,274,0,0,0,0,0,0,0,0,0,-1,1644,750,0,0
427,274,0,0,0,0,0,0,0,0,0,-1,1651,750,0,0
434,274,0,0,0,0,0,0,0,0,0,-1,1658,750,0,0
441,274,0,0,0,0,0,0,0,0,0,-1,1665,750,0,0
448,274,0,0,0,0,0,0,0,0,0,-1,1672,750,0,0
455,274,0,0,0,0,0,0,0,0,0,-1,1679,750,0,0
462,274,0,0,0,0,0,0,0,0,0,-1,1686,750,0,0
469,274,0,0,0,0,0,0,0,0,0,-1,1693,750,0,0
476,274,0,0,0,0,0,0,0,0,0,-1,1700,750,0,0
483,274,0,0,0,0,0,0,0,0,0,-1,1707,750,0,0
490,274,0,0,0,0,0,0,0,0,0,-1,1714,750,0,0
497,274,0,0,0,0,0,0,0,0,0,-1,1721,750,0,0
504,274,0,0,0,0,0,0,0,0,0,-1,1728,750,0,0
511,274,0,0,0,0,0,0,0,0,0,-1,1735,750,0,0
518,274,0,0,0,0,0,0,0,0,0,-1,1742,750,0,0
525,274,0,0,0,0,0,0,0,0,0,-1,1749,750,0,0
532,274,0,0,0,0,0,0,0,0,0,-1,1756,750,0,0
539,274,0,0,0,0,0,0,0,0,0,-1,1763,750,0,0
546,274,0,0,0,0,0,0,0,0,0,-1,1770,750,0,0
553,274,0,0,0,0,0,0,0,0,0,-1,1777,750,0,0
560,274,20.792,3.05511,0.0252779,0.0522691,-0.0235012,0.065874,0.011673,-1.04603,0.0405885,0.0454404,1784,750,20.792,-3.05511
567,274,20.4089,3.43829,0.022061,0.0377929,-0.0166923,0.0483798,0.0114741,-1.00558,0.0291901,0.0424447,1791,750,20.409,-3.43832
574,274,20.4011,3.53986,0.0170268,0.0267958,-0.0121754,0.0350299,0.00879273,-0.976159,0.0210439,0.0455049,1798,750,20.4012,-3.53983
581,274,20.5232,3.43378,0.0110626,0.0189402,-0.00901208,0.0248366,0.00516614,-0.991418,0.0151325,0.0437393,1805,750,20.5232,-3.43379
588,274,21.2881,2.8064,0,0,0,0,0,0,0,-1,1812,750,21.288,-2.8064
595,274,21.1851,2.70624,0.00274051,0.00991237,-0.00598913,0.013307,-0.000654142,-1.05514,0.00909724,0.0433365,1819,750,21.185,-2.70621
602,274,20.8599,2.72589,0.000586855,0.00691772,-0.00517507,0.0098187,-0.00231412,-1.05988,0.00743815,0.045455,1826,750,20.8599,-2.72586
609,274,20.6842,3.00909,-0.000895325,0.00459579,-0.00453534,0.00715188,-0.00345141,-1.05758,0.00624484,0.0458167,1833,750,20.6841,-3.0091
616,274,20.5421,3.31097,0,0,0,0,0,0,0,-1,1840,750,20.5421,-3.311
623,274,14.2844,0.593384,0,0,0,0,0,0,0,-1,1847,750,14.2844,-0.593401
630,274,14.2136,0.63562,-0.00430382,-0.00104109,-0.00241201,0.000239448,-0.00558436,-1.08274,0.00380523,0.0406823,1854,750,14.2136,-0.63565
637,274,14.1243,0.710693,-0.00343752,-0.00267458,-0.00245333,-0.000573237,-0.00553886,-0.862526,0.0035171,0.0130059,1861,750,14.1242,-0.710697
644,274,14.1396,0.931763,-0.00257613,-0.00225236,-0.00256159,0.000152457,-0.00498094,-0.816954,0.0033726,0.0118857,1868,750,14.1397,-0.931763
651,274,14.1528,1.17181,-0.00171071,-0.00181702,-0.00220554,0.000442319,-0.00397005,-0.77335,0.00280578,0.0138146,1875,750,14.1528,-1.17182
658,274,14.1484,1.4223,-0.0010394,-0.00229848,-0.00178351,0.000222412,-0.0035603,-0.615736,0.00245103,0.0165597,1882,750,14.1485,-1.42229
665,274,14.124,1.68439,-0.000345664,-0.00205615,-0.00119989,0.000272587,-0.0026744,-0.475777,0.0018804,0.0169337,1889,750,14.124,-1.6844
672,274,14.1422,1.91254,0.000217036,-0.0013579,-0.00135052,0.000992903,-0.00213377,-0.521454,0.00184481,0.0137784,1896,750,14.1422,-1.91252
679,274,14.1434,2.14337,0.000727699,-0.00066422,-0.00150766,0.00169228,-0.0016288,-0.569163,0.00191755,0.0143081,1903,750,14.1434,-2.14338
686,274,14.1442,2.38318,0.000996159,-4.5842e-05,-0.00160598,0.00216354,-0.00121322,-0.628548,0.00197514,0.01546,1910,750,14.1441,-2.38316
693,274,14.134,2.62793,0.00116897,0.000526567,-0.00183171,0.00270743,-0.00101189,-0.698602,0.00222048,0.0119155,1917,750,14.134,-2.62794
700,274,14.1473,2.86499,0.00160621,0.00110332,-0.00221173,0.00358074,-0.000871211,-0.728798,0.0027244,0.0130428,1924,750,14.1474,-2.86496
707,274,14.1451,3.09894,0.00239495,0.00156816,-0.00285224,0.0048636,-0.000900492,-0.713431,0.00358051,0.0191894,1931,750,14.1451,-3.09896
714,274,14.1372,3.25867,0.00312016,0.00234862,-0.00373011,0.00648439,-0.00101561,-0.733871,0.0046982,0.0384042,1938,750,14.1372,-3.25864
721,274,14.1555,3.02386,0.00361474,0.00357791,-0.00462285,0.00821921,-0.00102656,-0.783406,0.00585175,0.0470983,1945,750,14.1555,-3.02389
728,274,14.4059,2.88275,0,0,0,0,0,0,0,-1,1952,750,14.4059,-2.88276
735,274,14.9237,2.3988,0,0,0,0,0,0,0,-1,1959,750,14.9236,-2.39878
742,274,11.7815,-0.740234,0,0,0,0,0,0,0,-1,1966,750,11.7815,0.740253
749,274,0,0,0,0,0,0,0,0,0,-1,1973,750,0,0
756,274,0,0,0,0,0,0,0,0,0,-1,1980,750,0,0
763,274,0,0,0,0,0,0,0,0,0,-1,1987,750,0,0
770,274,0,0,0,0,0,0,0,0,0,-1,1994,750,0,0
777,274,0,0,0,0,0,0,0,0,0,-1,2001,750,0,0
784,274,0,0,0,0,0,0,0,0,0,-1,2008,750,0,0
791,274,0,0,0,0,0,0,0,0,0,-1,2015,750,0,0
798,274,0,0,0,0,0,0,0,0,0,-1,2022,750,0,0
805,274,0,0,0,0,0,0,0,0,0,-1,2029,750,0,0
812,274,0,0,0,0,0,0,0,0,0,-1,2036,750,0,0
-700,267,0,0,0,0,0,0,0,0,0,-1,524,757,0,0
-693,267,0,0,0,0,0,0,0,0,0,-1,531,757,0,0
-686,267,0,0,0,0,0,0,0,0,0,-1,538,757,0,0
-679,267,0,0,0,0,0,0,0,0,0,-1,545,757,0,0
-672,267,0,0,0,0,0,0,0,0,0,-1,552,757,0,0
-665,267,0,0,0,0,0,0,0,0,0,-1,559,757,0,0
-658,267,0,0,0,0,0,0,0,0,0,-1,566,757,0,0
-651,267,0,0,0,0,0,0,0,0,0,-1,573,757,0,0
-644,267,0,0,0,0,0,0,0,0,0,-1,580,757,0,0
-637,267,0,0,0,0,0,0,0,0,0,-1,587,757,0,0
-630,267,-9.50287,0.0358887,0.0680059,-0.0647541,0.068208,0.0968028,-0.093551,0.39949,0.109906,0.0444371,594,757,-9.50285,-0.0358874
-623,267,-9.0166,0.152588,0.059363,-0.0440591,0.0570983,0.084686,-0.0693821,0.417434,0.0890974,0.0448158,601,757,-9.01659,-0.152604
-616,267,-8.87445,0.125061,0.0494001,-0.030936,0.0469508,0.0710208,-0.0525567,0.431549,0.0716125,0.0437651,608,757,-8.87447,-0.125039
-609,267,-8.31146,0.315735,0.0394899,-0.0215177,0.0379623,0.0576854,-0.0397131,0.446954,0.0565513,0.0411956,615,757,-8.31146,-0.315741
-602,267,-7.72662,0.403748,0.030558,-0.0146917,0.0300304,0.0455324,-0.0296661,0.462562,0.0437368,0.0466138,622,757,-7.72665,-0.403733
-595,267,-8.68188,2.09247,0.0226992,-0.00972308,0.0231756,0.0347707,-0.0217946,0.480206,0.0329432,0.0470269,629,757,-8.68188,-2.09244
-588,267,-7.99664,1.57037,0.0159714,-0.00620682,0.0174112,0.0255249,-0.0157604,0.501845,0.0240573,0.0407932,636,757,-7.99662,-1.5704
-581,267,-7.96143,1.05908,0.0104796,-0.00381775,0.0127189,0.0179211,-0.0112593,0.529374,0.016993,0.0263542,643,757,-7.96141,-1.05907
-574,267,-8.0542,0.770996,0.00587014,-0.00162513,0.00878075,0.0116696,-0.00742456,0.583701,0.0111144,0.0144193,650,757,-8.05418,-0.770998
-567,267,-8.1098,0.577698,0.00268022,-0.000800743,0.00590618,0.00709703,-0.00521755,0.64211,0.00713737,0.0217645,657,757,-8.10982,-0.577668
-560,267,-8.0946,0.347412,0.000526477,-0.000460814,0.00401814,0.00408118,-0.00401552,0.724277,0.00467468,0.0221342,664,757,-8.09458,-0.347413
-553,267,-8.08728,0.161438,-0.00102749,-0.000393955,0.00271431,0.00202201,-0.00344345,0.843487,0.00319086,0.0181019,671,757,-8.08728,-0.161451
-546,267,-8.09381,-0.0564575,-0.00171194,-0.00077362,0.00235927,0.00116268,-0.00364825,0.883547,0.00289853,0.0114598,678,757,-8.0938,0.0564689
-539,267,-8.11188,-0.279358,-0.00224316,-0.00130229,0.00236516,0.000638764,-0.00418422,0.883567,0.00302496,0.0104736,685,757,-8.11188,0.279374
-532,267,-8.10791,-0.50354,-0.00240764,-0.00140986,0.00267015,0.000807607,-0.00462511,0.877753,0.00338488,0.0102663,692,757,-8.10791,0.50351
-525,267,-8.10791,-0.716125,-0.00229192,-0.00102363,0.00293456,0.00134452,-0.00466007,0.891809,0.00363865,0.00997205,699,757,-8.10789,0.716103
-518,267,-8.1134,-0.932922,-0.00273204,-0.000735713,0.00325601,0.0016717,-0.00513945,0.93413,0.00409878,0.0106361,706,757,-8.11339,0.932893
-511,267,-8.09772,-1.18011,-0.0032367,-0.00100991,0.0037669,0.0018047,-0.00605131,0.929094,0.00475142,0.0144329,713,757,-8.09769,1.1801
-504,267,-8.11316,-1.34479,-0.00328914,-0.00130656,0.00454205,0.00235111,-0.00694681,0.892837,0.00558246,0.0268975,720,757,-8.11316,1.34479
-497,267,-8.19604,-1.37915,-0.00325784,-0.00234788,0.00538793,0.00260425,-0.00820997,0.82752,0.00651721,0.0442224,727,757,-8.19606,1.37913
-490,267,-8.52515,-1.58508,-0.00259489,-0.00442948,0.00733997,0.00388488,-0.0109092,0.723234,0.00885651,0.046564,734,757,-8.52513,1.5851
-483,267,-8.58624,-1.91431,0,0,0,0,0,0,0,-1,741,757,-8.58623,1.91428
-476,267,-13.1664,1.38568,0,0,0,0,0,0,0,-1,748,757,-13.1664,-1.3857
-469,267,-12.8651,0.948669,0.00302454,-0.0148017,0.0178588,0.0140709,-0.025848,0.55394,0.0233792,0.0434034,755,757,-12.865,-0.948676
-462,267,-13.4158,1.05682,0.00658361,-0.0202278,0.0233174,0.0200743,-0.0337185,0.524511,0.0313885,0.0484247,762,757,-13.4158,-1.05683
-455,267,-13.2524,1.13885,0.0116306,-0.0266938,0.0303017,0.0283206,-0.0433838,0.503453,0.041702,0.0496922,769,757,-13.2524,-1.13887
-448,267,-13.2856,1.3443,0,0,0,0,0,0,0,-1,776,757,-13.2856,-1.3443
-441,267,0,0,0,0,0,0,0,0,0,-1,783,757,0,0
-434,267,0,0,0,0,0,0,0,0,0,-1,790,757,0,0
-427,267,0,0,0,0,0,0,0,0,0,-1,797,757,0,0
-420,267,0,0,0,0,0,0,0,0,0,-1,804,757,0,0
-413,267,0,0,0,0,0,0,0,0,0,-1,811,757,0,0
-406,267,0,0,0,0,0,0,0,0,0,-1,818,757,0,0
-399,267,0,0,0,0,0,0,0,0,0,-1,825,757,0,0
-392,267,0,0,0,0,0,0,0,0,0,-1,832,757,0,0
-385,267,0,0,0,0,0,0,0,0,0,-1,839,757,0,0
-378,267,0,0,0,0,0,0,0,0,0,-1,846,757,0,0
-371,267,0,0,0,0,0,0,0,0,0,-1,853,757,0,0
-364,267,0,0,0,0,0,0,0,0,0,-1,860,757,0,0
-357,267,0,0,0,0,0,0,0,0,0,-1,867,757,0,0
-350,267,0,0,0,0,0,0,0,0,0,-1,874,757,0,0
-343,267,0,0,0,0,0,0,0,0,0,-1,881,757,0,0
-336,267,0,0,0,0,0,0,0,0,0,-1,888,757,0,0
-329,267,0,0,0,0,0,0,0,0,0,-1,895,757,0,0
-322,267,0,0,0,0,0,0,0,0,0,-1,902,757,0,0
-315,267,0,0,0,0,0,0,0,0,0,-1,909,757,0,0
-308,267,0,0,0,0,0,0,0,0,0,-1,916,757,0,0
-301,267,0,0,0,0,0,0,0,0,0,-1,923,757,0,0
-294,267,0,0,0,0,0,0,0,0,0,-1,930,757,0,0
-287,267,0,0,0,0,0,0,0,0,0,-1,937,757,0,0
-280,267,0,0,0,0,0,0,0,0,0,-1,944,757,0,0
-273,267,0,0,0,0,0,0,0,0,0,-1,951,757,0,0
-266,267,0,0,0,0,0,0,0,0,0,-1,958,757,0,0
-259,267,0,0,0,0,0,0,0,0,0,-1,965,757,0,0
-252,267,0,0,0,0,0,0,0,0,0,-1,972,757,0,0
-245,267,0,0,0,0,0,0,0,0,0,-1,979,757,0,0
-238,267,0,0,0,0,0,0,0,0,0,-1,986,757,0,0
-231,267,0,0,0,0,0,0,0,0,0,-1,993,757,0,0
-224,267,0,0,0,0,0,0,0,0,0,-1,1000,757,0,0
-217,267,0,0,0,0,0,0,0,0,0,-1,1007,757,0,0
-210,267,0,0,0,0,0,0,0,0,0,-1,1014,757,0,0
-203,267,0,0,0,0,0,0,0,0,0,-1,1021,757,0,0
-196,267,0,0,0,0,0,0,0,0,0,-1,1028,757,0,0
-189,267,0,0,0,0,0,0,0,0,0,-1,1035,757,0,0
-182,267,0,0,0,0,0,0,0,0,0,-1,1042,757,0,0
-175,267,0,0,0,0,0,0,0,0,0,-1,1049,757,0,0
-168,267,0,0,0,0,0,0,0,0,0,-1,1056,757,0,0
-161,267,0,0,0,0,0,0,0,0,0,-1,1063,757,0,0
-154,267,0,0,0,0,0,0,0,0,0,-1,1070,757,0,0
-147,267,0,0,0,0,0,0,0,0,0,-1,1077,757,0,0
-140,267,0,0,0,0,0,0,0,0,0,-1,1084,757,0,0
-133,267,0,0,0,0,0,0,0,0,0,-1,1091,757,0,0
-126,267,0,0,0,0,0,0,0,0,0,-1,1098,757,0,0
-119,267,0,0,0,0,0,0,0,0,0,-1,1105,757,0,0
-112,267,0,0,0,0,0,0,0,0,0,-1,1112,757,0,0
-105,267,0,0,0,0,0,0,0,0,0,-1,1119,757,0,0
-98,267,0,0,0,0,0,0,0,0,0,-1,1126,757,0,0
-91,267,0,0,0,0,0,0,0,0,0,-1,1133,757,0,0
-84,267,0,0,0,0,0,0,0,0,0,-1,1140,757,0,0
-77,267,0,0,0,0,0,0,0,0,0,-1,1147,757,0,0
-70,267,0,0,0,0,0,0,0,0,0,-1,1154,757,0,0
-63,267,0,0,0,0,0,0,0,0,0,-1,1161,757,0,0
-56,267,0,0,0,0,0,0,0,0,0,-1,1168,757,0,0
-49,267,0,0,0,0,0,0,0,0,0,-1,1175,757,0,0
-42,267,0,0,0,0,0,0,0,0,0,-1,1182,757,0,0
-35,267,0,0,0,0,0,0,0,0,0,-1,1189,757,0,0
-28,267,0,0,0,0,0,0,0,0,0,-1,1196,757,0,0
-21,267,0,0,0,0,0,0,0,0,0,-1,1203,757,0,0
-14,267,0,0,0,0,0,0,0,0,0,-1,1210,757,0,0
-7,267,0,0,0,0,0,0,0,0,0,-1,1217,757,0,0
0,267,0,0,0,0,0,0,0,0,0,-1,1224,757,0,0
7,267,0,0,0,0,0,0,0,0,0,-1,1231,757,0,0
14,267,0,0,0,0,0,0,0,0,0,-1,1238,757,0,0
21,267,0,0,0,0,0,0,0,0,0,-1,1245,757,0,0
28,267,0,0,0,0,0,0,0,0,0,-1,1252,757,0,0
35,267,0,0,0,0,0,0,0,0,0,-1,1259,757,0,0
42,267,0,0,0,0,0,0,0,0,0,-1,1266,757,0,0
49,267,0,0,0,0,0,0,0,0,0,-1,1273,757,0,0
56,267,0,0,0,0,0,0,0,0,0,-1,1280,757,0,0
63,267,0,0,0,0,0,0,0,0,0,-1,1287,757,0,0
70,267,0,0,0,0,0,0,0,0,0,-1,1294,757,0,0
77,267,0,0,0,0,0,0,0,0,0,-1,1301,757,0,0
84,267,0,0,0,0,0,0,0,0,0,-1,1308,757,0,0
91,267,0,0,0,0,0,0,0,0,0,-1,1315,757,0,0
98,267,0,0,0,0,0,0,0,0,0,-1,1322,757,0,0
105,267,0,0,0,0,0,0,0,0,0,-1,1329,757,0,0
112,267,0,0,0,0,0,0,0,0,0,-1,1336,757,0,0
119,267,0,0,0,0,0,0,0,0,0,-1,1343,757,0,0
126,267,0,0,0,0,0,0,0,0,0,-1,1350,757,0,0
133,267,0,0,0,0,0,0,0,0,0,-1,1357,757,0,0
140,267,0,0,0,0,0,0,0,0,0,-1,1364,757,0,0
147,267,0,0,0,0,0,0,0,0,0,-1,1371,757,0,0
154,267,0,0,0,0,0,0,0,0,0,-1,1378,757,0,0
161,267,0,0,0,0,0,0,0,0,0,-1,1385,757,0,0
168,267,0,0,0,0,0,0,0,0,0,-1,1392,757,0,0
175,267,0,0,0,0,0,0,0,0,0,-1,1399,757,0,0
182,267,0,0,0,0,0,0,0,0,0,-1,1406,757,0,0
189,267,0,0,0,0,0,0,0,0,0,-1,1413,757,0,0
196,267,0,0,0,0,0,0,0,0,0,-1,1420,757,0,0
203,267,0,0,0,0,0,0,0,0,0,-1,1427,757,0,0
210,267,0,0,0,0,0,0,0,0,0,-1,1434,757,0,0
217,267,0,0,0,0,0,0,0,0,0,-1,1441,757,0,0
224,267,0,0,0,0,0,0,0,0,0,-1,1448,757,0,0
231,267,0,0,0,0,0,0,0,0,0,-1,1455,757,0,0
238,267,0,0,0,0,0,0,0,0,0,-1,1462,757,0,0
245,267,0,0,0,0,0,0,0,0,0,-1,1469,757,0,0
252,267,0,0,0,0,0,0,0,0,0,-1,1476,757,0,0
259,267,0,0,0,0,0,0,0,0,0,-1,1483,757,0,0
266,267,0,0,0,0,0,0,0,0,0,-1,1490,757,0,0
273,267,0,0,0,0,0,0,0,0,0,-1,1497,757,0,0
280,267,0,0,0,0,0,0,0,0,0,-1,1504,757,0,0
287,267,0,0,0,0,0,0,0,0,0,-1,1511,757,0,0
294,267,0,0,0,0,0,0,0,0,0,-1,1518,757,0,0
301,267,0,0,0,0,0,0,0,0,0,-1,1525,757,0,0
308,267,0,0,0,0,0,0,0,0,0,-1,1532,757,0,0
315,267,0,0,0,0,0,0,0,0,0,-1,1539,757,0,0
322,267,0,0,0,0,0,0,0,0,0,-1,1546,757,0,0
329,267,0,0,0,0,0,0,0,0,0,-1,1553,757,0,0
336,267,0,0,0,0,0,0,0,0,0,-1,1560,757,0,0
343,267,0,0,0,0,0,0,0,0,0,-1,1567,757,0,0
350,267,0,0,0,0,0,0,0,0,0,-1,1574,757,0,0
357,267,0,0,0,0,0,0,0,0,0,-1,1581,757,0,0
364,267,0,0,0,0,0,0,0,0,0,-1,1588,757,0,0
371,267,0,0,0,0,0,0,0,0,0,-1,1595,757,0,0
378,267,0,0,0,0,0,0,0,0,0,-1,1602,757,0,0
385,267,0,0,0,0,0,0,0,0,0,-1,1609,757,0,0
392,267,0,0,0,0,0,0,0,0,0,-1,1616,757,0,0
399,267,0,0,0,0,0,0,0,0,0,-1,1623,757,0,0
406,267,0,0,0,0,0,0,0,0,0,-1,1630,757,0,0
413,267,0,0,0,0,0,0,0,0,0,-1,1637,757,0,0
420,267,0,0,0,0,0,0,0,0,0,-1,1644,757,0,0
427,267,0,0,0,0,0,0,0,0,0,-1,1651,757,0,0
434,267,0,0,0,0,0,0,0,0,0,-1,1658,757,0,0
441,267,0,0,0,0,0,0,0,0,0,-1,1665,757,0,0
448,267,0,0,0,0,0,0,0,0,0,-1,1672,757,0,0
455,267,0,0,0,0,0,0,0,0,0,-1,1679,757,0,0
462,267,0,0,0,0,0,0,0,0,0,-1,1686,757,0,0
469,267,0,0,0,0,0,0,0,0,0,-1,1693,757,0,0
476,267,0,0,0,0,0,0,0,0,0,-1,1700,757,0,0
483,267,0,0,0,0,0,0,0,0,0,-1,1707,757,0,0
490,267,0,0,0,0,0,0,0,0,0,-1,1714,757,0,0
497,267,0,0,0,0,0,0,0,0,0,-1,1721,757,0,0
504,267,0,0,0,0,0,0,0,0,0,-1,1728,757,0,0
511,267,0,0,0,0,0,0,0,0,0,-1,1735,757,0,0
518,267,0,0,0,0,0,0,0,0,0,-1,1742,757,0,0
525,267,0,0,0,0,0,0,0,0,0,-1,1749,757,0,0
532,267,0,0,0,0,0,0,0,0,0,-1,1756,757,0,0
539,267,0,0,0,0,0,0,0,0,0,-1,1763,757,0,0
546,267,0,0,0,0,0,0,0,0,0,-1,1770,757,0,0
553,267,0,0,0,0,0,0,0,0,0,-1,1777,757,0,0
560,267,0,0,0,0,0,0,0,0,0,-1,1784,757,0,0
567,267,20.7639,3.0553,0.0157343,0.0402925,-0.0159652,0.0481545,0.00787232,-1.11321,0.0298272,0.0382106,1791,757,20.7639,-3.05527
574,267,20.7218,3.14252,0.013731,0.0285614,-0.0120264,0.0352749,0.00701758,-1.06166,0.0215615,0.0406829,1798,757,20.7217,-3.14254
581,267,21.0609,2.88275,0.0093482,0.019821,-0.00892514,0.0249324,0.00423675,-1.05069,0.0154048,0.0426657,1805,757,21.0609,-2.88276
588,267,21.1552,2.84277,0.00505205,0.0141039,-0.00711845,0.0180134,0.00114256,-1.06856,0.0116468,0.043628,1812,757,21.1552,-2.84278
595,267,21.2648,2.83136,0.00184753,0.0100916,-0.00589238,0.0131606,-0.00122149,-1.09061,0.00920796,0.0437865,1819,757,21.2648,-2.83134
602,267,21.6111,2.87408,-9.09976e-05,0.00695874,-0.00513489,0.00966218,-0.00279444,-1.08619,0.00754739,0.0441948,1826,757,21.6111,-2.87405
609,267,21.9893,2.94257,-0.00144766,0.00462607,-0.00455887,0.00706696,-0.00388856,-1.07922,0.00641329,0.0415223,1833,757,21.9892,-2.94258
616,267,22.1543,2.96405,0,0,0,0,0,0,0,-1,1840,757,22.1543,-2.96407
623,267,14.5647,0.939209,0,0,0,0,0,0,0,-1,1847,757,14.5647,-0.939219
630,267,14.4667,0.893311,-0.00434267,-0.000858875,-0.00262297,0.000547906,-0.00574945,-1.07851,0.00402805,0.0418576,1854,757,14.4667,-0.893337
637,267,14.3844,0.769104,-0.00368804,-0.00227332,-0.00263924,-0.000248295,-0.00571307,-0.916329,0.0037287,0.0246623,1861,757,14.3844,-0.769099
644,267,14.3754,0.942444,-0.00302594,-0.0019742,-0.00274557,0.000295402,-0.00529555,-0.880019,0.00363284,0.0122681,1868,757,14.3754,-0.942465
651,267,14.3704,1.18347,-0.00228026,-0.00171659,-0.00247467,0.000492235,-0.00448909,-0.842098,0.00316957,0.0151101,1875,757,14.3703,-1.18348
658,267,14.3779,1.4212,-0.00155611,-0.0023328,-0.00212428,0.000215028,-0.00410393,-0.69499,0.00281038,0.0158369,1882,757,14.378,-1.42121
665,267,14.3906,1.67212,-0.000643168,-0.0022351,-0.00152792,0.000283682,-0.00316195,-0.545266,0.00220861,0.0161764,1889,757,14.3907,-1.67214
672,267,14.3999,1.90302,0.000163406,-0.00165345,-0.00157211,0.00107067,-0.00256072,-0.523414,0.00215462,0.0137199,1896,757,14.3998,-1.903
679,267,14.3782,2.13562,0.000910745,-0.000948131,-0.00166444,0.00188767,-0.00192506,-0.530761,0.00220132,0.0126721,1903,757,14.3782,-2.13562
686,267,14.3849,2.40283,0.00133283,-0.000346674,-0.00164622,0.00234111,-0.00135495,-0.549547,0.00215909,0.012905,1910,757,14.3849,-2.40286
693,267,14.3767,2.63007,0.00149982,0.000238738,-0.00173336,0.00271376,-0.000975204,-0.610955,0.00220726,0.0128169,1917,757,14.3767,-2.63005
700,267,14.3785,2.85785,0.00182834,0.000847089,-0.00200496,0.00340184,-0.000726405,-0.665403,0.00254482,0.0150156,1924,757,14.3786,-2.85786
707,267,14.3789,3.06128,0.00227348,0.00127231,-0.00245079,0.00427429,-0.000728499,-0.684657,0.00312083,0.0142832,1931,757,14.3789,-3.06129
714,267,14.3945,3.22083,0.00241171,0.00185478,-0.00304134,0.00518731,-0.000920818,-0.739746,0.00380249,0.028341,1938,757,14.3945,-3.22085
721,267,14.7655,2.84473,0,0,0,0,0,0,0,-1,1945,757,14.7655,-2.84472
728,267,14.0778,3.42041,0,0,0,0,0,0,0,-1,1952,757,14.0778,-3.42043
735,267,14.7295,2.87762,0,0,0,0,0,0,0,-1,1959,757,14.7295,-2.8776
742,267,15.7451,3.65533,0,0,0,0,0,0,0,-1,1966,757,15.7451,-3.65533
749,267,0,0,0,0,0,0,0,0,0,-1,1973,757,0,0
756,267,0,0,0,0,0,0,0,0,0,-1,1980,757,0,0
763,267,0,0,0,0,0,0,0,0,0,-1,1987,757,0,0
770,267,0,0,0,0,0,0,0,0,0,-1,1994,757,0,0
777,267,0,0,0,0,0,0,0,0,0,-1,2001,757,0,0
784,267,0,0,0,0,0,0,0,0,0,-1,2008,757,0,0
791,267,0,0,0,0,0,0,0,0,0,-1,2015,757,0,0
798,267,0,0,0,0,0,0,0,0,0,-1,2022,757,0,0
805,267,0,0,0,0,0,0,0,0,0,-1,2029,757,0,0
812,267,0,0,0,0,0,0,0,0,0,-1,2036,757,0,0
-700,260,0,0,0,0,0,0,0,0,0,-1,524,764,0,0
-693,260,0,0,0,0,0,0,0,0,0,-1,531,764,0,0
-686,260,0,0,0,0,0,0,0,0,0,-1,538,764,0,0
-679,260,0,0,0,0,0,0,0,0,0,-1,545,764,0,0
-672,260,0,0,0,0,0,0,0,0,0,-1,552,764,0,0
-665,260,0,0,0,0,0,0,0,0,0,-1,559,764,0,0
-658,260,0,0,0,0,0,0,0,0,0,-1,566,764,0,0
-651,260,0,0,0,0,0,0,0,0,0,-1,573,764,0,0
-644,260,0,0,0,0,0,0,0,0,0,-1,580,764,0,0
-637,260,0,0,0,0,0,0,0,0,0,-1,587,764,0,0
-630,260,-10.3359,0.703064,0.0594711,-0.0437977,0.0516032,0.0808367,-0.0651633,0.392548,0.0844549,0.0455384,594,764,-10.3359,-0.703038
-623,260,-9.84827,0.499084,0.0545802,-0.0339241,0.0461488,0.0742653,-0.0536091,0.403188,0.0741487,0.0444042,601,764,-9.84824,-0.499076
-616,260,-9.5061,0.543823,0.0471596,-0.02534,0.0391679,0.0642781,-0.0424585,0.412036,0.0620521,0.0438497,608,764,-9.50612,-0.543851
-609,260,-9.04901,0.696228,0.0387726,-0.0180094,0.0321195,0.0532501,-0.032487,0.423469,0.0499819,0.0423743,615,764,-9.04898,-0.696252
-602,260,-9.3974,1.01178,0,0,0,0,0,0,0,-1,622,764,-9.39738,-1.01181
-595,260,-8.6554,1.53613,0.0232675,-0.00807133,0.0197926,0.0328425,-0.0176463,0.450575,0.0295865,0.046612,629,764,-8.65537,-1.53612
-588,260,-8.46545,1.435,0.016812,-0.00507219,0.0148588,0.0243229,-0.0125831,0.468027,0.0216641,0.0385327,636,764,-8.46548,-1.43501
-581,260,-8.2738,1.01178,0.0114358,-0.00292842,0.0107663,0.0171957,-0.00868833,0.49125,0.0152108,0.021014,643,764,-8.27382,-1.01177
-574,260,-8.31152,0.795959,0.00692005,-0.00106603,0.00738835,0.0113254,-0.00547133,0.537657,0.00989195,0.0145586,650,764,-8.31152,-0.795957
-567,260,-8.31293,0.619873,0.00369682,-0.000486685,0.00498952,0.00701532,-0.00380518,0.586912,0.00633819,0.0159622,657,764,-8.31291,-0.619862
-560,260,-8.29651,0.411133,0.00140849,-0.000325172,0.0034517,0.00410054,-0.00301722,0.662376,0.00412528,0.0185492,664,764,-8.2965,-0.411145
-553,260,-8.29944,0.196045,-0.000301065,-0.000307398,0.00247429,0.00217006,-0.00277852,0.784758,0.00286425,0.0177329,671,764,-8.29946,-0.196038
-546,260,-8.30597,-0.0457764,-0.00133376,-0.000716374,0.0022998,0.00129536,-0.00334549,0.852113,0.00276517,0.0113223,678,764,-8.30599,0.0457604
-539,260,-8.31421,-0.269836,-0.00226297,-0.0011599,0.00237312,0.00072493,-0.00414781,0.899576,0.00303584,0.0110215,685,764,-8.31421,0.269813
-532,260,-8.3194,-0.476501,-0.0027578,-0.00118617,0.00267531,0.00081635,-0.00476032,0.928244,0.00347775,0.0125435,692,764,-8.31942,0.476501
-525,260,-8.30957,-0.695923,-0.00283076,-0.000693675,0.00289642,0.00132502,-0.00484946,0.962112,0.00375343,0.0119854,699,764,-8.3096,0.695919
-518,260,-8.31482,-0.911194,-0.003361,-0.000310485,0.00316616,0.00167865,-0.00535013,1.00986,0.00423859,0.0132547,706,764,-8.31479,0.911175
-511,260,-8.29926,-1.12659,-0.00389451,-0.000393562,0.00355097,0.00181494,-0.00610302,1.0144,0.00478969,0.0218465,713,764,-8.29923,1.12662
-504,260,-8.32336,-1.30011,-0.00397266,-0.000461545,0.0041963,0.00233162,-0.00676583,0.983514,0.00545642,0.0406709,720,764,-8.32336,1.30008
-497,260,-8.60376,-1.33484,-0.00396853,-0.00115166,0.00488522,0.0025241,-0.0076443,0.925745,0.00611379,0.0485336,727,764,-8.60377,1.33487
-490,260,-8.85809,-1.87097,-0.00346356,-0.0026406,0.00641306,0.00337417,-0.00947833,0.817435,0.00769431,0.0471693,734,764,-8.85807,1.87097
-483,260,-8.90503,-2.70526,0,0,0,0,0,0,0,-1,741,764,-8.90501,2.70528
-476,260,-13.2387,1.49524,-0.000911254,-0.00715414,0.0113048,0.00769516,-0.0157606,0.650696,0.0138065,0.0422227,748,764,-13.2387,-1.49525
-469,260,-13.307,1.14606,0.00128773,-0.01056,0.0145958,0.011116,-0.0203883,0.592623,0.0184497,0.0421789,755,764,-13.307,-1.14609
-462,260,-13.5375,1.04608,0.0045422,-0.014871,0.0188616,0.0160483,-0.026377,0.54776,0.0247351,0.0436115,762,764,-13.5376,-1.04609
-455,260,-13.5352,1.18683,0.00944846,-0.0201474,0.0244121,0.0231975,-0.0338965,0.512925,0.0331556,0.0480456,769,764,-13.5352,-1.18681
-448,260,0,0,0,0,0,0,0,0,0,-1,776,764,0,0
-441,260,0,0,0,0,0,0,0,0,0,-1,783,764,0,0
-434,260,0,0,0,0,0,0,0,0,0,-1,790,764,0,0
-427,260,0,0,0,0,0,0,0,0,0,-1,797,764,0,0
-420,260,0,0,0,0,0,0,0,0,0,-1,804,764,0,0
-413,260,0,0,0,0,0,0,0,0,0,-1,811,764,0,0
-406,260,0,0,0,0,0,0,0,0,0,-1,818,764,0,0
-399,260,0,0,0,0,0,0,0,0,0,-1,825,764,0,0
-392,260,0,0,0,0,0,0,0,0,0,-1,832,764,0,0
-385,260,0,0,0,0,0,0,0,0,0,-1,839,764,0,0
-378,260,0,0,0,0,0,0,0,0,0,-1,846,764,0,0
-371,260,0,0,0,0,0,0,0,0,0,-1,853,764,0,0
-364,260,0,0,0,0,0,0,0,0,0,-1,860,764,0,0
-357,260,0,0,0,0,0,0,0,0,0,-1,867,764,0,0
-350,260,0,0,0,0,0,0,0,0,0,-1,874,764,0,0
-343,260,0,0,0,0,0,0,0,0,0,-1,881,764,0,0
-336,260,0,0,0,0,0,0,0,0,0,-1,888,764,0,0
-329,260,0,0,0,0,0,0,0,0,0,-1,895,764,0,0
-322,260,0,0,0,0,0,0,0,0,0,-1,902,764,0,0
-315,260,0,0,0,0,0,0,0,0,0,-1,909,764,0,0
-308,260,0,0,0,0,0,0,0,0,0,-1,916,764,0,0
-301,260,0,0,0,0,0,0,0,0,0,-1,923,764,0,0
-294,260,0,0,0,0,0,0,0,0,0,-1,930,764,0,0
-287,260,0,0,0,0,0,0,0,0,0,-1,937,764,0,0
-280,260,0,0,0,0,0,0,0,0,0,-1,944,764,0,0
-273,260,0,0,0,0,0,0,0,0,0,-1,951,764,0,0
-266,260,0,0,0,0,0,0,0,0,0,-1,958,764,0,0
-259,260,0,0,0,0,0,0,0,0,0,-1,965,764,0,0
-252,260,0,0,0,0,0,0,0,0,0,-1,972,764,0,0
-245,260,0,0,0,0,0,0,0,0,0,-1,979,764,0,0
-238,260,0,0,0,0,0,0,0,0,0,-1,986,764,0,0
-231,260,0,0,0,0,0,0,0,0,0,-1,993,764,0,0
-224,260,0,0,0,0,0,0,0,0,0,-1,1000,764,0,0
-217,260,0,0,0,0,0,0,0,0,0,-1,1007,764,0,0
-210,260,0,0,0,0,0,0,0,0,0,-1,1014,764,0,0
-203,260,0,0,0,0,0,0,0,0,0,-1,1021,764,0,0
-196,260,0,0,0,0,0,0,0,0,0,-1,1028,764,0,0
-189,260,0,0,0,0,0,0,0,0,0,-1,1035,764,0,0
-182,260,0,0,0,0,0,0,0,0,0,-1,1042,764,0,0
-175,260,0,0,0,0,0,0,0,0,0,-1,1049,764,0,0
-168,260,0,0,0,0,0,0,0,0,0,-1,1056,764,0,0
-161,260,0,0,0,0,0,0,0,0,0,-1,1063,764,0,0
-154,260,0,0,0,0,0,0,0,0,0,-1,1070,764,0,0
-147,260,0,0,0,0,0,0,0,0,0,-1,1077,764,0,0
-140,260,0,0,0,0,0,0,0,0,0,-1,1084,764,0,0
-133,260,0,0,0,0,0,0,0,0,0,-1,1091,764,0,0
-126,260,0,0,0,0,0,0,0,0,0,-1,1098,764,0,0
-119,260,0,0,0,0,0,0,0,0,0,-1,1105,764,0,0
-112,260,0,0,0,0,0,0,0,0,0,-1,1112,764,0,0
-105,260,0,0,0,0,0,0,0,0,0,-1,1119,764,0,0
-98,260,0,0,0,0,0,0,0,0,0,-1,1126,764,0,0
-91,260,0,0,0,0,0,0,0,0,0,-1,1133,764,0,0
-84,260,0,0,0,0,0,0,0,0,0,-1,1140,764,0,0
-77,260,0,0,0,0,0,0,0,0,0,-1,1147,764,0,0
-70,260,0,0,0,0,0,0,0,0,0,-1,1154,764,0,0
-63,260,0,0,0,0,0,0,0,0,0,-1,1161,764,0,0
-56,260,0,0,0,0,0,0,0,0,0,-1,1168,764,0,0
-49,260,0,0,0,0,0,0,0,0,0,-1,1175,764,0,0
-42,260,0,0,0,0,0,0,0,0,0,-1,1182,764,0,0
-35,260,0,0,0,0,0,0,0,0,0,-1,1189,764,0,0
-28,260,0,0,0,0,0,0,0,0,0,-1,1196,764,0,0
-21,260,0,0,0,0,0,0,0,0,0,-1,1203,764,0,0
-14,260,0,0,0,0,0,0,0,0,0,-1,1210,764,0,0
-7,260,0,0,0,0,0,0,0,0,0,-1,1217,764,0,0
0,260,0,0,0,0,0,0,0,0,0,-1,1224,764,0,0
7,260,0,0,0,0,0,0,0,0,0,-1,1231,764,0,0
14,260,0,0,0,0,0,0,0,0,0,-1,1238,764,0,0
21,260,0,0,0,0,0,0,0,0,0,-1,1245,764,0,0
28,260,0,0,0,0,0,0,0,0,0,-1,1252,764,0,0
35,260,0,0,0,0,0,0,0,0,0,-1,1259,764,0,0
42,260,0,0,0,0,0,0,0,0,0,-1,1266,764,0,0
49,260,0,0,0,0,0,0,0,0,0,-1,1273,764,0,0
56,260,0,0,0,0,0,0,0,0,0,-1,1280,764,0,0
63,260,0,0,0,0,0,0,0,0,0,-1,1287,764,0,0
70,260,0,0,0,0,0,0,0,0,0,-1,1294,764,0,0
77,260,0,0,0,0,0,0,0,0,0,-1,1301,764,0,0
84,260,0,0,0,0,0,0,0,0,0,-1,1308,764,0,0
91,260,0,0,0,0,0,0,0,0,0,-1,1315,764,0,0
98,260,0,0,0,0,0,0,0,0,0,-1,1322,764,0,0
105,260,0,0,0,0,0,0,0,0,0,-1,1329,764,0,0
112,260,0,0,0,0,0,0,0,0,0,-1,1336,764,0,0
119,260,0,0,0,0,0,0,0,0,0,-1,1343,764,0,0
126,260,0,0,0,0,0,0,0,0,0,-1,1350,764,0,0
133,260,0,0,0,0,0,0,0,0,0,-1,1357,764,0,0
140,260,0,0,0,0,0,0,0,0,0,-1,1364,764,0,0
147,260,0,0,0,0,0,0,0,0,0,-1,1371,764,0,0
154,260,0,0,0,0,0,0,0,0,0,-1,1378,764,0,0
161,260,0,0,0,0,0,0,0,0,0,-1,1385,764,0,0
168,260,0,0,0,0,0,0,0,0,0,-1,1392,764,0,0
175,260,0,0,0,0,0,0,0,0,0,-1,1399,764,0,0
182,260,0,0,0,0,0,0,0,0,0,-1,1406,764,0,0
189,260,0,0,0,0,0,0,0,0,0,-1,1413,764,0,0
196,260,0,0,0,0,0,0,0,0,0,-1,1420,764,0,0
203,260,0,0,0,0,0,0,0,0,0,-1,1427,764,0,0
210,260,0,0,0,0,0,0,0,0,0,-1,1434,764,0,0
217,260,0,0,0,0,0,0,0,0,0,-1,1441,764,0,0
224,260,0,0,0,0,0,0,0,0,0,-1,1448,764,0,0
231,260,0,0,0,0,0,0,0,0,0,-1,1455,764,0,0
238,260,0,0,0,0,0,0,0,0,0,-1,1462,764,0,0
245,260,0,0,0,0,0,0,0,0,0,-1,1469,764,0,0
252,260,0,0,0,0,0,0,0,0,0,-1,1476,764,0,0
259,260,0,0,0,0,0,0,0,0,0,-1,1483,764,0,0
266,260,0,0,0,0,0,0,0,0,0,-1,1490,764,0,0
273,260,0,0,0,0,0,0,0,0,0,-1,1497,764,0,0
280,260,0,0,0,0,0,0,0,0,0,-1,1504,764,0,0
287,260,0,0,0,0,0,0,0,0,0,-1,1511,764,0,0
294,260,0,0,0,0,0,0,0,0,0,-1,1518,764,0,0
301,260,0,0,0,0,0,0,0,0,0,-1,1525,764,0,0
308,260,0,0,0,0,0,0,0,0,0,-1,1532,764,0,0
315,260,0,0,0,0,0,0,0,0,0,-1,1539,764,0,0
322,260,0,0,0,0,0,0,0,0,0,-1,1546,764,0,0
329,260,0,0,0,0,0,0,0,0,0,-1,1553,764,0,0
336,260,0,0,0,0,0,0,0,0,0,-1,1560,764,0,0
343,260,0,0,0,0,0,0,0,0,0,-1,1567,764,0,0
350,260,0,0,0,0,0,0,0,0,0,-1,1574,764,0,0
357,260,0,0,0,0,0,0,0,0,0,-1,1581,764,0,0
364,260,0,0,0,0,0,0,0,0,0,-1,1588,764,0,0
371,260,0,0,0,0,0,0,0,0,0,-1,1595,764,0,0
378,260,0,0,0,0,0,0,0,0,0,-1,1602,764,0,0
385,260,0,0,0,0,0,0,0,0,0,-1,1609,764,0,0
392,260,0,0,0,0,0,0,0,0,0,-1,1616,764,0,0
399,260,0,0,0,0,0,0,0,0,0,-1,1623,764,0,0
406,260,0,0,0,0,0,0,0,0,0,-1,1630,764,0,0
413,260,0,0,0,0,0,0,0,0,0,-1,1637,764,0,0
420,260,0,0,0,0,0,0,0,0,0,-1,1644,764,0,0
427,260,0,0,0,0,0,0,0,0,0,-1,1651,764,0,0
434,260,0,0,0,0,0,0,0,0,0,-1,1658,764,0,0
441,260,0,0,0,0,0,0,0,0,0,-1,1665,764,0,0
448,260,0,0,0,0,0,0,0,0,0,-1,1672,764,0,0
455,260,0,0,0,0,0,0,0,0,0,-1,1679,764,0,0
462,260,0,0,0,0,0,0,0,0,0,-1,1686,764,0,0
469,260,0,0,0,0,0,0,0,0,0,-1,1693,764,0,0
476,260,0,0,0,0,0,0,0,0,0,-1,1700,764,0,0
483,260,0,0,0,0,0,0,0,0,0,-1,1707,764,0,0
490,260,0,0,0,0,0,0,0,0,0,-1,1714,764,0,0
497,260,0,0,0,0,0,0,0,0,0,-1,1721,764,0,0
504,260,0,0,0,0,0,0,0,0,0,-1,1728,764,0,0
511,260,0,0,0,0,0,0,0,0,0,-1,1735,764,0,0
518,260,0,0,0,0,0,0,0,0,0,-1,1742,764,0,0
525,260,0,0,0,0,0,0,0,0,0,-1,1749,764,0,0
532,260,0,0,0,0,0,0,0,0,0,-1,1756,764,0,0
539,260,0,0,0,0,0,0,0,0,0,-1,1763,764,0,0
546,260,0,0,0,0,0,0,0,0,0,-1,1770,764,0,0
553,260,0,0,0,0,0,0,0,0,0,-1,1777,764,0,0
560,260,0,0,0,0,0,0,0,0,0,-1,1784,764,0,0
567,260,0,0,0,0,0,0,0,0,0,-1,1791,764,0,0
574,260,20.983,2.75549,0.0112362,0.0291283,-0.0111836,0.0345037,0.00586081,-1.12275,0.0213191,0.0353469,1798,764,20.983,-2.75549
581,260,20.9325,2.87329,0.008438,0.0199769,-0.00829311,0.02431,0.00410487,-1.08931,0.0150265,0.0384089,1805,764,20.9325,-2.87331
588,260,21.0161,2.87549,0.0045732,0.014051,-0.00655435,0.0174001,0.00122403,-1.0984,0.0112144,0.0410243,1812,764,21.0161,-2.8755
595,260,21.0835,2.80737,0.00137561,0.00998436,-0.0053927,0.0125799,-0.00121994,-1.12221,0.00882141,0.0433372,1819,764,21.0835,-2.80739
602,260,21.3773,2.60413,-0.000557465,0.00678757,-0.00473931,0.00911075,-0.00288065,-1.11502,0.007228,0.0430705,1826,764,21.3773,-2.60411
609,260,21.531,0.0716553,0,0,0,0,0,0,0,-1,1833,764,21.531,-0.071655
616,260,20.3439,1.07947,0,0,0,0,0,0,0,-1,1840,764,20.3438,-1.07948
623,260,19.8365,2.7276,0,0,0,0,0,0,0,-1,1847,764,19.8365,-2.72757
630,260,14.6619,0.750732,0,0,0,0,0,0,0,-1,1854,764,14.6619,-0.750762
637,260,14.6304,0.846375,-0.0039216,-0.00201387,-0.00268663,-0.000116797,-0.00581867,-0.955977,0.00384078,0.045462,1861,764,14.6303,-0.846381
644,260,14.6088,0.971436,-0.00342824,-0.00181832,-0.00279138,0.000281848,-0.00552841,-0.925776,0.00378306,0.0239671,1868,764,14.6088,-0.971464
651,260,14.6388,1.20215,-0.00283403,-0.00169737,-0.00261839,0.000413659,-0.00494506,-0.892267,0.00344288,0.0137115,1875,764,14.6388,-1.20212
658,260,14.637,1.44928,-0.00210835,-0.00233952,-0.00239414,0.000172995,-0.00462086,-0.761277,0.00313983,0.016119,1882,764,14.6369,-1.44926
665,260,14.6383,1.70319,-0.00103456,-0.00232757,-0.00187711,0.000304258,-0.00366638,-0.619552,0.00255173,0.0160556,1889,764,14.6384,-1.70316
672,260,14.6395,1.94238,-3.61644e-05,-0.00185591,-0.00184453,0.0011107,-0.00300277,-0.556269,0.00245723,0.013619,1896,764,14.6395,-1.9424
679,260,14.614,2.17108,0.000913242,-0.00114471,-0.00188793,0.0020344,-0.00226587,-0.53589,0.00248396,0.012412,1903,764,14.614,-2.17111
686,260,14.6282,2.40466,0.00146419,-0.000596293,-0.00176423,0.00247697,-0.00160907,-0.521127,0.00237675,0.0143114,1910,764,14.6282,-2.40466
693,260,14.6138,2.6059,0.0015993,-3.92006e-05,-0.00171783,0.00268324,-0.00112314,-0.562896,0.0022583,0.0146522,1917,764,14.6137,-2.6059
700,260,14.5872,2.83258,0.00177131,0.000583379,-0.00188748,0.00315608,-0.000801388,-0.63296,0.0024159,0.013836,1924,764,14.5871,-2.83256
707,260,14.5977,3.02289,0.0018682,0.00093361,-0.00214314,0.00359439,-0.000792584,-0.678057,0.00269952,0.0137534,1931,764,14.5977,-3.02288
714,260,14.6125,3.22351,0.00159392,0.00130842,-0.00254571,0.00400088,-0.00109854,-0.75739,0.00309902,0.0227666,1938,764,14.6125,-3.22352
721,260,14.6869,3.37152,0.000820758,0.0017932,-0.00288745,0.00423508,-0.00162112,-0.868811,0.00349154,0.040749,1945,764,14.6868,-3.37153
728,260,14.7505,3.5108,0,0,0,0,0,0,0,-1,1952,764,14.7505,-3.5108
735,260,14.6575,3.03876,0,0,0,0,0,0,0,-1,1959,764,14.6575,-3.03877
742,260,15.7606,3.51672,0,0,0,0,0,0,0,-1,1966,764,15.7606,-3.51672
749,260,16.6082,3.20825,0,0,0,0,0,0,0,-1,1973,764,16.6082,-3.20827
756,260,0,0,0,0,0,0,0,0,0,-1,1980,764,0,0
763,260,0,0,0,0,0,0,0,0,0,-1,1987,764,0,0
770,260,0,0,0,0,0,0,0,0,0,-1,1994,764,0,0
777,260,0,0,0,0,0,0,0,0,0,-1,2001,764,0,0
784,260,0,0,0,0,0,0,0,0,0,-1,2008,764,0,0
791,260,0,0,0,0,0,0,0,0,0,-1,2015,764,0,0
798,260,0,0,0,0,0,0,0,0,0,-1,2022,764,0,0
805,260,0,0,0,0,0,0,0,0,0,-1,2029,764,0,0
812,260,0,0,0,0,0,0,0,0,0,-1,2036,764,0,0
-700,253,0,0,0,0,0,0,0,0,0,-1,524,771,0,0
-693,253,0,0,0,0,0,0,0,0,0,-1,531,771,0,0
-686,253,0,0,0,0,0,0,0,0,0,-1,538,771,0,0
-679,253,0,0,0,0,0,0,0,0,0,-1,545,771,0,0
-672,253,0,0,0,0,0,0,0,0,0,-1,552,771,0,0
-665,253,0,0,0,0,0,0,0,0,0,-1,559,771,0,0
-658,253,0,0,0,0,0,0,0,0,0,-1,566,771,0,0
-651,253,0,0,0,0,0,0,0,0,0,-1,573,771,0,0
-644,253,0,0,0,0,0,0,0,0,0,-1,580,771,0,0
-637,253,-9.21332,3.43799,0,0,0,0,0,0,0,-1,587,771,-9.21334,-3.43801
-630,253,-11.1473,0.894714,0,0,0,0,0,0,0,-1,594,771,-11.1473,-0.894732
-623,253,-10.6685,0.891296,0,0,0,0,0,0,0,-1,601,771,-10.6685,-0.891297
-616,253,-10.4515,0.448425,0,0,0,0,0,0,0,-1,608,771,-10.4515,-0.448441
-609,253,-9.76685,0.989075,0.0355048,-0.0132532,0.0255481,0.0464393,-0.0241876,0.404405,0.0414456,0.0441988,615,771,-9.76685,-0.989083
-602,253,-9.4137,1.08887,0.028653,-0.00924636,0.0206102,0.037701,-0.0182943,0.413674,0.0329697,0.0464895,622,771,-9.41371,-1.08886
-595,253,-8.75256,1.51184,0.0223464,-0.00641184,0.0163496,0.0297404,-0.0138058,0.424718,0.0256963,0.0456997,629,771,-8.75257,-1.51185
-588,253,-8.61511,1.22394,0.0165394,-0.00412388,0.0123512,0.0223104,-0.0098949,0.4371,0.0190487,0.0377832,636,771,-8.61513,-1.22396
-581,253,-8.51306,0.985229,0.0115324,-0.00221692,0.00884772,0.0158623,-0.00654687,0.45512,0.0133053,0.0220755,643,771,-8.51304,-0.985236
-574,253,-8.52734,0.790833,0.00730729,-0.000656356,0.00600308,0.0105291,-0.00387813,0.492565,0.00860838,0.0181637,650,771,-8.52732,-0.790855
-567,253,-8.53583,0.586304,0.00422336,-0.000283435,0.00406848,0.0066208,-0.00268088,0.532494,0.00552858,0.0156749,657,771,-8.5358,-0.586329
-560,253,-8.49677,0.410645,0.00194181,-0.000204704,0.00286079,0.00392404,-0.00218693,0.605942,0.00357537,0.0126631,664,771,-8.49679,-0.410621
-553,253,-8.50696,0.19696,0.000195795,-0.000157439,0.00219105,0.00221733,-0.00217898,0.745181,0.00253824,0.0116508,671,771,-8.50699,-0.196962
-546,253,-8.53827,-0.00830078,-0.00107159,-0.000499609,0.00217927,0.00141235,-0.00298356,0.850642,0.00259146,0.00992124,678,771,-8.53828,0.008315
-539,253,-8.54254,-0.248535,-0.00224848,-0.000769101,0.0023131,0.000919704,-0.00393728,0.940151,0.00297913,0.011262,685,771,-8.54256,0.248549
-532,253,-8.53748,-0.452881,-0.00291939,-0.00064923,0.00259278,0.00104604,-0.00461467,0.991723,0.00347796,0.0142474,692,771,-8.53748,0.45288
-525,253,-8.52692,-0.682617,-0.00308648,-3.96051e-05,0.00277034,0.00159854,-0.00472463,1.03679,0.00379649,0.0116617,699,771,-8.52693,0.682632
-518,253,-8.54291,-0.905212,-0.00362428,0.000444997,0.00298108,0.00201959,-0.00519887,1.08485,0.00430021,0.0153134,706,771,-8.54289,0.905224
-511,253,-8.61072,-1.04675,-0.0041568,0.000554902,0.00323004,0.00219695,-0.00579884,1.10048,0.00476995,0.0355469,713,771,-8.61071,1.04677
-504,253,-8.7052,-1.19385,0,0,0,0,0,0,0,-1,720,771,-8.7052,1.19383
-497,253,-8.86096,-1.323,0,0,0,0,0,0,0,-1,727,771,-8.86093,1.323
-490,253,-9.28326,-1.62103,0,0,0,0,0,0,0,-1,734,771,-9.28327,1.62105
-483,253,-9.28589,-2.46429,0,0,0,0,0,0,0,-1,741,771,-9.28587,2.46428
-476,253,-13.4768,1.38257,-0.0017057,-0.00364989,0.00861788,0.00599474,-0.0113503,0.729236,0.0101721,0.0475946,748,771,-13.4768,-1.38257
-469,253,-13.4052,1.19751,0.000316512,-0.00619585,0.0109542,0.00848823,-0.0143676,0.64093,0.0133405,0.0415126,755,771,-13.4051,-1.1975
-462,253,-13.5739,1.11426,0.00344364,-0.00965338,0.0141125,0.0124529,-0.0186627,0.568171,0.0180835,0.0425895,762,771,-13.5739,-1.11424
-455,253,-13.6315,1.00751,0.00840244,-0.0141509,0.0184406,0.018741,-0.0244895,0.510976,0.0250326,0.0344539,769,771,-13.6315,-1.00751
-448,253,0,0,0,0,0,0,0,0,0,-1,776,771,0,0
-441,253,0,0,0,0,0,0,0,0,0,-1,783,771,0,0
-434,253,0,0,0,0,0,0,0,0,0,-1,790,771,0,0
-427,253,0,0,0,0,0,0,0,0,0,-1,797,771,0,0
-420,253,0,0,0,0,0,0,0,0,0,-1,804,771,0,0
-413,253,0,0,0,0,0,0,0,0,0,-1,811,771,0,0
-406,253,0,0,0,0,0,0,0,0,0,-1,818,771,0,0
-399,253,0,0,0,0,0,0,0,0,0,-1,825,771,0,0
-392,253,0,0,0,0,0,0,0,0,0,-1,832,771,0,0
-385,253,0,0,0,0,0,0,0,0,0,-1,839,771,0,0
-378,253,0,0,0,0,0,0,0,0,0,-1,846,771,0,0
-371,253,0,0,0,0,0,0,0,0,0,-1,853,771,0,0
-364,253,0,0,0,0,0,0,0,0,0,-1,860,771,0,0
-357,253,0,0,0,0,0,0,0,0,0,-1,867,771,0,0
-350,253,0,0,0,0,0,0,0,0,0,-1,874,771,0,0
-343,253,0,0,0,0,0,0,0,0,0,-1,881,771,0,0
-336,253,0,0,0,0,0,0,0,0,0,-1,888,771,0,0
-329,253,0,0,0,0,0,0,0,0,0,-1,895,771,0,0
-322,253,0,0,0,0,0,0,0,0,0,-1,902,771,0,0
-315,253,0,0,0,0,0,0,0,0,0,-1,909,771,0,0
-308,253,0,0,0,0,0,0,0,0,0,-1,916,771,0,0
-301,253,0,0,0,0,0,0,0,0,0,-1,923,771,0,0
-294,253,0,0,0,0,0,0,0,0,0,-1,930,771,0,0
-287,253,0,0,0,0,0,0,0,0,0,-1,937,771,0,0
-280,253,0,0,0,0,0,0,0,0,0,-1,944,771,0,0
-273,253,0,0,0,0,0,0,0,0,0,-1,951,771,0,0
-266,253,0,0,0,0,0,0,0,0,0,-1,958,771,0,0
-259,253,0,0,0,0,0,0,0,0,0,-1,965,771,0,0
-252,253,0,0,0,0,0,0,0,0,0,-1,972,771,0,0
-245,253,0,0,0,0,0,0,0,0,0,-1,979,771,0,0
-238,253,0,0,0,0,0,0,0,0,0,-1,986,771,0,0
-231,253,0,0,0,0,0,0,0,0,0,-1,993,771,0,0
-224,253,0,0,0,0,0,0,0,0,0,-1,1000,771,0,0
-217,253,0,0,0,0,0,0,0,0,0,-1,1007,771,0,0
-210,253,0,0,0,0,0,0,0,0,0,-1,1014,771,0,0
-203,253,0,0,0,0,0,0,0,0,0,-1,1021,771,0,0
-196,253,0,0,0,0,0,0,0,0,0,-1,1028,771,0,0
-189,253,0,0,0,0,0,0,0,0,0,-1,1035,771,0,0
-182,253,0,0,0,0,0,0,0,0,0,-1,1042,771,0,0
-175,253,0,0,0,0,0,0,0,0,0,-1,1049,771,0,0
-168,253,0,0,0,0,0,0,0,0,0,-1,1056,771,0,0
-161,253,0,0,0,0,0,0,0,0,0,-1,1063,771,0,0
-154,253,0,0,0,0,0,0,0,0,0,-1,1070,771,0,0
-147,253,0,0,0,0,0,0,0,0,0,-1,1077,771,0,0
-140,253,0,0,0,0,0,0,0,0,0,-1,1084,771,0,0
-133,253,0,0,0,0,0,0,0,0,0,-1,1091,771,0,0
-126,253,0,0,0,0,0,0,0,0,0,-1,1098,771,0,0
-119,253,0,0,0,0,0,0,0,0,0,-1,1105,771,0,0
-112,253,0,0,0,0,0,0,0,0,0,-1,1112,771,0,0
-105,253,0,0,0,0,0,0,0,0,0,-1,1119,771,0,0
-98,253,0,0,0,0,0,0,0,0,0,-1,1126,771,0,0
-91,253,0,0,0,0,0,0,0,0,0,-1,1133,771,0,0
-84,253,0,0,0,0,0,0,0,0,0,-1,1140,771,0,0
-77,253,0,0,0,0,0,0,0,0,0,-1,1147,771,0,0
-70,253,0,0,0,0,0,0,0,0,0,-1,1154,771,0,0
-63,253,0,0,0,0,0,0,0,0,0,-1,1161,771,0,0
-56,253,0,0,0,0,0,0,0,0,0,-1,1168,771,0,0
-49,253,0,0,0,0,0,0,0,0,0,-1,1175,771,0,0
-42,253,0,0,0,0,0,0,0,0,0,-1,1182,771,0,0
-35,253,0,0,0,0,0,0,0,0,0,-1,1189,771,0,0
-28,253,0,0,0,0,0,0,0,0,0,-1,1196,771,0,0
-21,253,0,0,0,0,0,0,0,0,0,-1,1203,771,0,0
-14,253,0,0,0,0,0,0,0,0,0,-1,1210,771,0,0
-7,253,0,0,0,0,0,0,0,0,0,-1,1217,771,0,0
0,253,0,0,0,0,0,0,0,0,0,-1,1224,771,0,0
7,253,0,0,0,0,0,0,0,0,0,-1,1231,771,0,0
14,253,0,0,0,0,0,0,0,0,0,-1,1238,771,0,0
21,253,0,0,0,0,0,0,0,0,0,-1,1245,771,0,0
28,253,0,0,0,0,0,0,0,0,0,-1,1252,771,0,0
35,253,0,0,0,0,0,0,0,0,0,-1,1259,771,0,0
42,253,0,0,0,0,0,0,0,0,0,-1,1266,771,0,0
49,253,0,0,0,0,0,0,0,0,0,-1,1273,771,0,0
56,253,0,0,0,0,0,0,0,0,0,-1,1280,771,0,0
63,253,0,0,0,0,0,0,0,0,0,-1,1287,771,0,0
70,253,0,0,0,0,0,0,0,0,0,-1,1294,771,0,0
77,253,0,0,0,0,0,0,0,0,0,-1,1301,771,0,0
84,253,0,0,0,0,0,0,0,0,0,-1,1308,771,0,0
91,253,0,0,0,0,0,0,0,0,0,-1,1315,771,0,0
98,253,0,0,0,0,0,0,0,0,0,-1,1322,771,0,0
105,253,0,0,0,0,0,0,0,0,0,-1,1329,771,0,0
112,253,0,0,0,0,0,0,0,0,0,-1,1336,771,0,0
119,253,0,0,0,0,0,0,0,0,0,-1,1343,771,0,0
126,253,0,0,0,0,0,0,0,0,0,-1,1350,771,0,0
133,253,0,0,0,0,0,0,0,0,0,-1,1357,771,0,0
140,253,0,0,0,0,0,0,0,0,0,-1,1364,771,0,0
147,253,0,0,0,0,0,0,0,0,0,-1,1371,771,0,0
154,253,0,0,0,0,0,0,0,0,0,-1,1378,771,0,0
161,253,0,0,0,0,0,0,0,0,0,-1,1385,771,0,0
168,253,0,0,0,0,0,0,0,0,0,-1,1392,771,0,0
175,253,0,0,0,0,0,0,0,0,0,-1,1399,771,0,0
182,253,0,0,0,0,0,0,0,0,0,-1,1406,771,0,0
189,253,0,0,0,0,0,0,0,0,0,-1,1413,771,0,0
196,253,0,0,0,0,0,0,0,0,0,-1,1420,771,0,0
203,253,0,0,0,0,0,0,0,0,0,-1,1427,771,0,0
210,253,0,0,0,0,0,0,0,0,0,-1,1434,771,0,0
217,253,0,0,0,0,0,0,0,0,0,-1,1441,771,0,0
224,253,0,0,0,0,0,0,0,0,0,-1,1448,771,0,0
231,253,0,0,0,0,0,0,0,0,0,-1,1455,771,0,0
238,253,0,0,0,0,0,0,0,0,0,-1,1462,771,0,0
245,253,0,0,0,0,0,0,0,0,0,-1,1469,771,0,0
252,253,0,0,0,0,0,0,0,0,0,-1,1476,771,0,0
259,253,0,0,0,0,0,0,0,0,0,-1,1483,771,0,0
266,253,0,0,0,0,0,0,0,0,0,-1,1490,771,0,0
273,253,0,0,0,0,0,0,0,0,0,-1,1497,771,0,0
280,253,0,0,0,0,0,0,0,0,0,-1,1504,771,0,0
287,253,0,0,0,0,0,0,0,0,0,-1,1511,771,0,0
294,253,0,0,0,0,0,0,0,0,0,-1,1518,771,0,0
301,253,0,0,0,0,0,0,0,0,0,-1,1525,771,0,0
308,253,0,0,0,0,0,0,0,0,0,-1,1532,771,0,0
315,253,0,0,0,0,0,0,0,0,0,-1,1539,771,0,0
322,253,0,0,0,0,0,0,0,0,0,-1,1546,771,0,0
329,253,0,0,0,0,0,0,0,0,0,-1,1553,771,0,0
336,253,0,0,0,0,0,0,0,0,0,-1,1560,771,0,0
343,253,0,0,0,0,0,0,0,0,0,-1,1567,771,0,0
350,253,0,0,0,0,0,0,0,0,0,-1,1574,771,0,0
357,253,0,0,0,0,0,0,0,0,0,-1,1581,771,0,0
364,253,0,0,0,0,0,0,0,0,0,-1,1588,771,0,0
371,253,0,0,0,0,0,0,0,0,0,-1,1595,771,0,0
378,253,0,0,0,0,0,0,0,0,0,-1,1602,771,0,0
385,253,0,0,0,0,0,0,0,0,0,-1,1609,771,0,0
392,253,0,0,0,0,0,0,0,0,0,-1,1616,771,0,0
399,253,0,0,0,0,0,0,0,0,0,-1,1623,771,0,0
406,253,0,0,0,0,0,0,0,0,0,-1,1630,771,0,0
413,253,0,0,0,0,0,0,0,0,0,-1,1637,771,0,0
420,253,0,0,0,0,0,0,0,0,0,-1,1644,771,0,0
427,253,0,0,0,0,0,0,0,0,0,-1,1651,771,0,0
434,253,0,0,0,0,0,0,0,0,0,-1,1658,771,0,0
441,253,0,0,0,0,0,0,0,0,0,-1,1665,771,0,0
448,253,0,0,0,0,0,0,0,0,0,-1,1672,771,0,0
455,253,0,0,0,0,0,0,0,0,0,-1,1679,771,0,0
462,253,0,0,0,0,0,0,0,0,0,-1,1686,771,0,0
469,253,0,0,0,0,0,0,0,0,0,-1,1693,771,0,0
476,253,0,0,0,0,0,0,0,0,0,-1,1700,771,0,0
483,253,0,0,0,0,0,0,0,0,0,-1,1707,771,0,0
490,253,0,0,0,0,0,0,0,0,0,-1,1714,771,0,0
497,253,0,0,0,0,0,0,0,0,0,-1,1721,771,0,0
504,253,0,0,0,0,0,0,0,0,0,-1,1728,771,0,0
511,253,0,0,0,0,0,0,0,0,0,-1,1735,771,0,0
518,253,0,0,0,0,0,0,0,0,0,-1,1742,771,0,0
525,253,0,0,0,0,0,0,0,0,0,-1,1749,771,0,0
532,253,0,0,0,0,0,0,0,0,0,-1,1756,771,0,0
539,253,0,0,0,0,0,0,0,0,0,-1,1763,771,0,0
546,253,0,0,0,0,0,0,0,0,0,-1,1770,771,0,0
553,253,0,0,0,0,0,0,0,0,0,-1,1777,771,0,0
560,253,0,0,0,0,0,0,0,0,0,-1,1784,771,0,0
567,253,0,0,0,0,0,0,0,0,0,-1,1791,771,0,0
574,253,21.0121,2.6369,0.00884558,0.0284463,-0.00967266,0.0324158,0.00487614,-1.18138,0.0201824,0.0349536,1798,771,21.0121,-2.63689
581,253,20.8833,2.83972,0.00806548,0.0191851,-0.00728172,0.0227869,0.00446369,-1.11145,0.0139436,0.0369118,1805,771,20.8833,-2.83969
588,253,20.865,2.94171,0.00470389,0.0133481,-0.00573227,0.0162051,0.0018469,-1.10843,0.0102434,0.0409856,1812,771,20.865,-2.9417
595,253,20.9257,2.98315,0.00143896,0.00947235,-0.00472093,0.0116541,-0.000742815,-1.13788,0.00802848,0.045064,1819,771,20.9256,-2.98316
602,253,23.5428,-0.961426,0,0,0,0,0,0,0,-1,1826,771,23.5428,0.961437
609,253,22.33,0.167786,0,0,0,0,0,0,0,-1,1833,771,22.33,-0.167797
616,253,21.0271,1.20483,0,0,0,0,0,0,0,-1,1840,771,21.0271,-1.20486
623,253,19.7311,2.07483,0,0,0,0,0,0,0,-1,1847,771,19.7311,-2.07483
630,253,19.2064,3.52429,0,0,0,0,0,0,0,-1,1854,771,19.2065,-3.5243
637,253,14.8734,0.901978,0,0,0,0,0,0,0,-1,1861,771,14.8735,-0.901973
644,253,14.6292,1.16827,-0.00371126,-0.00161747,-0.0027997,0.000324667,-0.00565341,-0.964314,0.00388169,0.041203,1868,771,14.6292,-1.16826
651,253,14.842,1.24359,-0.00321276,-0.00160992,-0.00272152,0.000425728,-0.00524841,-0.928589,0.00364913,0.02316,1875,771,14.8421,-1.24358
658,253,14.8918,1.48578,-0.00249666,-0.00220897,-0.0026468,0.000297892,-0.00500352,-0.812545,0.00343928,0.0191163,1882,771,14.8918,-1.48577
665,253,14.8314,1.71234,-0.00132847,-0.00226629,-0.00225461,0.000505474,-0.00410023,-0.682871,0.00291661,0.0205731,1889,771,14.8315,-1.71231
672,253,14.7957,1.91656,-0.000204506,-0.00194053,-0.00214736,0.00124364,-0.00338868,-0.593327,0.0027684,0.0155218,1896,771,14.7957,-1.91658
679,253,14.843,2.18018,0.000903005,-0.00127047,-0.00213664,0.00221339,-0.00258086,-0.550138,0.00277067,0.013103,1903,771,14.8431,-2.1802
686,253,14.855,2.40997,0.00157543,-0.000827134,-0.00191259,0.00263271,-0.00188441,-0.504989,0.00261986,0.0176661,1910,771,14.855,-2.40997
693,253,14.8392,2.6261,0.00169134,-0.000337778,-0.00174178,0.00269251,-0.00133894,-0.521678,0.00237089,0.0175137,1917,771,14.8392,-2.6261
700,253,14.8381,2.8288,0.00172084,0.000252875,-0.00182891,0.00295755,-0.000983836,-0.594575,0.00236876,0.0149536,1924,771,14.8381,-2.8288
707,253,14.8391,3.04364,0.00150896,0.000574766,-0.00193647,0.00303387,-0.000950139,-0.667053,0.00240275,0.0140741,1931,771,14.8391,-3.04364
714,253,14.8376,3.25232,0.000874383,0.000797817,-0.00220815,0.00304458,-0.00137238,-0.776731,0.00261034,0.0177321,1938,771,14.8377,-3.25232
721,253,14.8624,3.46515,-0.000270434,0.00103258,-0.00245732,0.0029233,-0.00216115,-0.914981,0.00294648,0.0294899,1945,771,14.8624,-3.46517
728,253,14.9371,3.67419,-0.00250209,0.0013468,-0.00233889,0.0024512,-0.00360649,-1.12964,0.00351854,0.0451041,1952,771,14.9372,-3.67422
735,253,14.999,3.90826,0,0,0,0,0,0,0,-1,1959,771,14.999,-3.90826
742,253,15.5857,3.76086,0,0,0,0,0,0,0,-1,1966,771,15.5857,-3.76086
749,253,16.3292,4.35529,0,0,0,0,0,0,0,-1,1973,771,16.3292,-4.3553
756,253,0,0,0,0,0,0,0,0,0,-1,1980,771,0,0
763,253,0,0,0,0,0,0,0,0,0,-1,1987,771,0,0
770,253,0,0,0,0,0,0,0,0,0,-1,1994,771,0,0
777,253,0,0,0,0,0,0,0,0,0,-1,2001,771,0,0
784,253,0,0,0,0,0,0,0,0,0,-1,2008,771,0,0
791,253,0,0,0,0,0,0,0,0,0,-1,2015,771,0,0
798,253,0,0,0,0,0,0,0,0,0,-1,2022,771,0,0
805,253,0,0,0,0,0,0,0,0,0,-1,2029,771,0,0
812,253,0,0,0,0,0,0,0,0,0,-1,2036,771,0,0
-700,246,0,0,0,0,0,0,0,0,0,-1,524,778,0,0
-693,246,0,0,0,0,0,0,0,0,0,-1,531,778,0,0
-686,246,0,0,0,0,0,0,0,0,0,-1,538,778,0,0
-679,246,0,0,0,0,0,0,0,0,0,-1,545,778,0,0
-672,246,0,0,0,0,0,0,0,0,0,-1,552,778,0,0
-665,246,0,0,0,0,0,0,0,0,0,-1,559,778,0,0
-658,246,0,0,0,0,0,0,0,0,0,-1,566,778,0,0
-651,246,0,0,0,0,0,0,0,0,0,-1,573,778,0,0
-644,246,0,0,0,0,0,0,0,0,0,-1,580,778,0,0
-637,246,-9.4447,3.2439,0,0,0,0,0,0,0,-1,587,778,-9.44469,-3.24391
-630,246,-9.49127,3.43115,0,0,0,0,0,0,0,-1,594,778,-9.49128,-3.43114
-623,246,-10.5247,0.757996,0,0,0,0,0,0,0,-1,601,778,-10.5247,-0.757967
-616,246,-10.0937,0.938293,0,0,0,0,0,0,0,-1,608,778,-10.0937,-0.938299
-609,246,-9.58789,1.10406,0.0304357,-0.00699396,0.0184383,0.0379928,-0.0145511,0.388978,0.0313264,0.0487445,615,778,-9.58787,-1.10408
-602,246,-9.38208,1.21796,0.0251571,-0.00526742,0.0154185,0.0316045,-0.0117148,0.396065,0.0258743,0.0494315,622,778,-9.38209,-1.21794
-595,246,-9.11139,1.24695,0.0202227,-0.00418284,0.0128253,0.025723,-0.00968307,0.405133,0.0211293,0.0440338,629,778,-9.11138,-1.24698
-588,246,-8.72302,1.19574,0.0153788,-0.00289982,0.00988165,0.0196995,-0.00722061,0.412204,0.0160894,0.0283231,636,778,-8.72304,-1.19577
-581,246,-8.72925,1.00745,0.0109792,-0.00130649,0.00693284,0.0140991,-0.0044264,0.42287,0.0111711,0.0157083,643,778,-8.72924,-1.00745
-574,246,-8.71655,0.763428,0.00721423,-9.12359e-05,0.00460917,0.00944256,-0.00231956,0.450325,0.00719398,0.016991,650,778,-8.71653,-0.76343
-567,246,-8.73181,0.569763,0.00439192,5.40128e-05,0.00314149,0.00604047,-0.00159454,0.483264,0.00465053,0.0174213,657,778,-8.7318,-0.569745
-560,246,-8.73676,0.370789,0.00219237,3.98511e-05,0.00225699,0.00361657,-0.00138435,0.562917,0.00298162,0.0143237,664,778,-8.73678,-0.370804
-553,246,-8.73303,0.180847,0.000434562,0.000127462,0.00185968,0.00214702,-0.001585,0.744208,0.00216281,0.0127314,671,778,-8.73301,-0.18085
-546,246,-8.74457,0.00799561,-0.00103892,-0.000136545,0.00200148,0.00146397,-0.00263943,0.896258,0.00240129,0.0101882,678,778,-8.74456,-0.00800096
-539,246,-8.72931,-0.220093,-0.00240762,-0.000257333,0.00218409,0.0011019,-0.00376685,1.01412,0.002948,0.0103949,685,778,-8.7293,0.220115
-532,246,-8.7301,-0.450012,-0.0032058,-3.42107e-05,0.00242645,0.00127868,-0.00451869,1.07483,0.00351704,0.0114586,692,778,-8.7301,0.450007
-525,246,-8.74762,-0.671021,-0.00344622,0.000636898,0.00255207,0.00186353,-0.00467285,1.12276,0.00388823,0.0120824,699,778,-8.74759,0.67105
-518,246,-8.75409,-0.851013,-0.00396488,0.00118933,0.00269511,0.00234117,-0.00511673,1.16691,0.0044041,0.0188939,706,778,-8.75411,0.851023
-511,246,-8.83923,-0.836365,-0.00448046,0.00146636,0.00281379,0.00258667,-0.00560078,1.19188,0.00483262,0.0388951,713,778,-8.83923,0.836356
-504,246,-8.65271,-0.539001,-0.00459844,0.0018082,0.00310946,0.00306919,-0.00585942,1.18553,0.00523817,0.0452385,720,778,-8.65271,0.538984
-497,246,-8.49622,-0.248352,0,0,0,0,0,0,0,-1,727,778,-8.49622,0.248378
-490,246,-9.71332,-1.39886,0,0,0,0,0,0,0,-1,734,778,-9.71329,1.39884
-483,246,-13.8129,1.34454,0,0,0,0,0,0,0,-1,741,778,-13.8129,-1.34453
-476,246,-13.5677,1.27008,-0.001926,-0.000738961,0.00606278,0.00475928,-0.00742424,0.834191,0.00709003,0.0478952,748,778,-13.5677,-1.27007
-469,246,-13.5439,1.19122,0.000185656,-0.00266591,0.0075708,0.00646376,-0.00894401,0.692325,0.00893402,0.040121,755,778,-13.5439,-1.19124
-462,246,-13.623,1.02393,0.00348297,-0.00561044,0.00980274,0.00974211,-0.0118696,0.568255,0.0124977,0.0463406,762,778,-13.623,-1.02392
-455,246,0,0,0,0,0,0,0,0,0,-1,769,778,0,0
-448,246,0,0,0,0,0,0,0,0,0,-1,776,778,0,0
-441,246,0,0,0,0,0,0,0,0,0,-1,783,778,0,0
-434,246,0,0,0,0,0,0,0,0,0,-1,790,778,0,0
-427,246,0,0,0,0,0,0,0,0,0,-1,797,778,0,0
-420,246,0,0,0,0,0,0,0,0,0,-1,804,778,0,0
-413,246,0,0,0,0,0,0,0,0,0,-1,811,778,0,0
-406,246,0,0,0,0,0,0,0,0,0,-1,818,778,0,0
-399,246,0,0,0,0,0,0,0,0,0,-1,825,778,0,0
-392,246,0,0,0,0,0,0,0,0,0,-1,832,778,0,0
-385,246,0,0,0,0,0,0,0,0,0,-1,839,778,0,0
-378,246,0,0,0,0,0,0,0,0,0,-1,846,778,0,0
-371,246,0,0,0,0,0,0,0,0,0,-1,853,778,0,0
-364,246,0,0,0,0,0,0,0,0,0,-1,860,778,0,0
-357,246,0,0,0,0,0,0,0,0,0,-1,867,778,0,0
-350,246,0,0,0,0,0,0,0,0,0,-1,874,778,0,0
-343,246,0,0,0,0,0,0,0,0,0,-1,881,778,0,0
-336,246,0,0,0,0,0,0,0,0,0,-1,888,778,0,0
-329,246,0,0,0,0,0,0,0,0,0,-1,895,778,0,0
-322,246,0,0,0,0,0,0,0,0,0,-1,902,778,0,0
-315,246,0,0,0,0,0,0,0,0,0,-1,909,778,0,0
-308,246,0,0,0,0,0,0,0,0,0,-1,916,778,0,0
-301,246,0,0,0,0,0,0,0,0,0,-1,923,778,0,0
-294,246,0,0,0,0,0,0,0,0,0,-1,930,778,0,0
-287,246,0,0,0,0,0,0,0,0,0,-1,937,778,0,0
-280,246,0,0,0,0,0,0,0,0,0,-1,944,778,0,0
-273,246,0,0,0,0,0,0,0,0,0,-1,951,778,0,0
-266,246,0,0,0,0,0,0,0,0,0,-1,958,778,0,0
-259,246,0,0,0,0,0,0,0,0,0,-1,965,778,0,0
-252,246,0,0,0,0,0,0,0,0,0,-1,972,778,0,0
-245,246,0,0,0,0,0,0,0,0,0,-1,979,778,0,0
-238,246,0,0,0,0,0,0,0,0,0,-1,986,778,0,0
-231,246,0,0,0,0,0,0,0,0,0,-1,993,778,0,0
-224,246,0,0,0,0,0,0,0,0,0,-1,1000,778,0,0
-217,246,0,0,0,0,0,0,0,0,0,-1,1007,778,0,0
-210,246,0,0,0,0,0,0,0,0,0,-1,1014,778,0,0
-203,246,0,0,0,0,0,0,0,0,0,-1,1021,778,0,0
-196,246,0,0,0,0,0,0,0,0,0,-1,1028,778,0,0
-189,246,0,0,0,0,0,0,0,0,0,-1,1035,778,0,0
-182,246,0,0,0,0,0,0,0,0,0,-1,1042,778,0,0
-175,246,0,0,0,0,0,0,0,0,0,-1,1049,778,0,0
-168,246,0,0,0,0,0,0,0,0,0,-1,1056,778,0,0
-161,246,0,0,0,0,0,0,0,0,0,-1,1063,778,0,0
-154,246,0,0,0,0,0,0,0,0,0,-1,1070,778,0,0
-147,246,0,0,0,0,0,0,0,0,0,-1,1077,778,0,0
-140,246,0,0,0,0,0,0,0,0,0,-1,1084,778,0,0
-133,246,0,0,0,0,0,0,0,0,0,-1,1091,778,0,0
-126,246,0,0,0,0,0,0,0,0,0,-1,1098,778,0,0
-119,246,0,0,0,0,0,0,0,0,0,-1,1105,778,0,0
-112,246,0,0,0,0,0,0,0,0,0,-1,1112,778,0,0
-105,246,0,0,0,0,0,0,0,0,0,-1,1119,778,0,0
-98,246,0,0,0,0,0,0,0,0,0,-1,1126,778,0,0
-91,246,0,0,0,0,0,0,0,0,0,-1,1133,778,0,0
-84,246,0,0,0,0,0,0,0,0,0,-1,1140,778,0,0
-77,246,0,0,0,0,0,0,0,0,0,-1,1147,778,0,0
-70,246,0,0,0,0,0,0,0,0,0,-1,1154,778,0,0
-63,246,0,0,0,0,0,0,0,0,0,-1,1161,778,0,0
-56,246,0,0,0,0,0,0,0,0,0,-1,1168,778,0,0
-49,246,0,0,0,0,0,0,0,0,0,-1,1175,778,0,0
-42,246,0,0,0,0,0,0,0,0,0,-1,1182,778,0,0
-35,246,0,0,0,0,0,0,0,0,0,-1,1189,778,0,0
-28,246,0,0,0,0,0,0,0,0,0,-1,1196,778,0,0
-21,246,0,0,0,0,0,0,0,0,0,-1,1203,778,0,0
-14,246,0,0,0,0,0,0,0,0,0,-1,1210,778,0,0
-7,246,0,0,0,0,0,0,0,0,0,-1,1217,778,0,0
0,246,0,0,0,0,0,0,0,0,0,-1,1224,778,0,0
7,246,0,0,0,0,0,0,0,0,0,-1,1231,778,0,0
14,246,0,0,0,0,0,0,0,0,0,-1,1238,778,0,0
21,246,0,0,0,0,0,0,0,0,0,-1,1245,778,0,0
28,246,0,0,0,0,0,0,0,0,0,-1,1252,778,0,0
35,246,0,0,0,0,0,0,0,0,0,-1,1259,778,0,0
42,246,0,0,0,0,0,0,0,0,0,-1,1266,778,0,0
49,246,0,0,0,0,0,0,0,0,0,-1,1273,778,0,0
56,246,0,0,0,0,0,0,0,0,0,-1,1280,778,0,0
63,246,0,0,0,0,0,0,0,0,0,-1,1287,778,0,0
70,246,0,0,0,0,0,0,0,0,0,-1,1294,778,0,0
77,246,0,0,0,0,0,0,0,0,0,-1,1301,778,0,0
84,246,0,0,0,0,0,0,0,0,0,-1,1308,778,0,0
91,246,0,0,0,0,0,0,0,0,0,-1,1315,778,0,0
98,246,0,0,0,0,0,0,0,0,0,-1,1322,778,0,0
105,246,0,0,0,0,0,0,0,0,0,-1,1329,778,0,0
112,246,0,0,0,0,0,0,0,0,0,-1,1336,778,0,0
119,246,0,0,0,0,0,0,0,0,0,-1,1343,778,0,0
126,246,0,0,0,0,0,0,0,0,0,-1,1350,778,0,0
133,246,0,0,0,0,0,0,0,0,0,-1,1357,778,0,0
140,246,0,0,0,0,0,0,0,0,0,-1,1364,778,0,0
147,246,0,0,0,0,0,0,0,0,0,-1,1371,778,0,0
154,246,0,0,0,0,0,0,0,0,0,-1,1378,778,0,0
161,246,0,0,0,0,0,0,0,0,0,-1,1385,778,0,0
168,246,0,0,0,0,0,0,0,0,0,-1,1392,778,0,0
175,246,0,0,0,0,0,0,0,0,0,-1,1399,778,0,0
182,246,0,0,0,0,0,0,0,0,0,-1,1406,778,0,0
189,246,0,0,0,0,0,0,0,0,0,-1,1413,778,0,0
196,246,0,0,0,0,0,0,0,0,0,-1,1420,778,0,0
203,246,0,0,0,0,0,0,0,0,0,-1,1427,778,0,0
210,246,0,0,0,0,0,0,0,0,0,-1,1434,778,0,0
217,246,0,0,0,0,0,0,0,0,0,-1,1441,778,0,0
224,246,0,0,0,0,0,0,0,0,0,-1,1448,778,0,0
231,246,0,0,0,0,0,0,0,0,0,-1,1455,778,0,0
238,246,0,0,0,0,0,0,0,0,0,-1,1462,778,0,0
245,246,0,0,0,0,0,0,0,0,0,-1,1469,778,0,0
252,246,0,0,0,0,0,0,0,0,0,-1,1476,778,0,0
259,246,0,0,0,0,0,0,0,0,0,-1,1483,778,0,0
266,246,0,0,0,0,0,0,0,0,0,-1,1490,778,0,0
273,246,0,0,0,0,0,0,0,0,0,-1,1497,778,0,0
280,246,0,0,0,0,0,0,0,0,0,-1,1504,778,0,0
287,246,0,0,0,0,0,0,0,0,0,-1,1511,778,0,0
294,246,0,0,0,0,0,0,0,0,0,-1,1518,778,0,0
301,246,0,0,0,0,0,0,0,0,0,-1,1525,778,0,0
308,246,0,0,0,0,0,0,0,0,0,-1,1532,778,0,0
315,246,0,0,0,0,0,0,0,0,0,-1,1539,778,0,0
322,246,0,0,0,0,0,0,0,0,0,-1,1546,778,0,0
329,246,0,0,0,0,0,0,0,0,0,-1,1553,778,0,0
336,246,0,0,0,0,0,0,0,0,0,-1,1560,778,0,0
343,246,0,0,0,0,0,0,0,0,0,-1,1567,778,0,0
350,246,0,0,0,0,0,0,0,0,0,-1,1574,778,0,0
357,246,0,0,0,0,0,0,0,0,0,-1,1581,778,0,0
364,246,0,0,0,0,0,0,0,0,0,-1,1588,778,0,0
371,246,0,0,0,0,0,0,0,0,0,-1,1595,778,0,0
378,246,0,0,0,0,0,0,0,0,0,-1,1602,778,0,0
385,246,0,0,0,0,0,0,0,0,0,-1,1609,778,0,0
392,246,0,0,0,0,0,0,0,0,0,-1,1616,778,0,0
399,246,0,0,0,0,0,0,0,0,0,-1,1623,778,0,0
406,246,0,0,0,0,0,0,0,0,0,-1,1630,778,0,0
413,246,0,0,0,0,0,0,0,0,0,-1,1637,778,0,0
420,246,0,0,0,0,0,0,0,0,0,-1,1644,778,0,0
427,246,0,0,0,0,0,0,0,0,0,-1,1651,778,0,0
434,246,0,0,0,0,0,0,0,0,0,-1,1658,778,0,0
441,246,0,0,0,0,0,0,0,0,0,-1,1665,778,0,0
448,246,0,0,0,0,0,0,0,0,0,-1,1672,778,0,0
455,246,0,0,0,0,0,0,0,0,0,-1,1679,778,0,0
462,246,0,0,0,0,0,0,0,0,0,-1,1686,778,0,0
469,246,0,0,0,0,0,0,0,0,0,-1,1693,778,0,0
476,246,0,0,0,0,0,0,0,0,0,-1,1700,778,0,0
483,246,0,0,0,0,0,0,0,0,0,-1,1707,778,0,0
490,246,0,0,0,0,0,0,0,0,0,-1,1714,778,0,0
497,246,0,0,0,0,0,0,0,0,0,-1,1721,778,0,0
504,246,0,0,0,0,0,0,0,0,0,-1,1728,778,0,0
511,246,0,0,0,0,0,0,0,0,0,-1,1735,778,0,0
518,246,0,0,0,0,0,0,0,0,0,-1,1742,778,0,0
525,246,0,0,0,0,0,0,0,0,0,-1,1749,778,0,0
532,246,0,0,0,0,0,0,0,0,0,-1,1756,778,0,0
539,246,0,0,0,0,0,0,0,0,0,-1,1763,778,0,0
546,246,0,0,0,0,0,0,0,0,0,-1,1770,778,0,0
553,246,0,0,0,0,0,0,0,0,0,-1,1777,778,0,0
560,246,0,0,0,0,0,0,0,0,0,-1,1784,778,0,0
567,246,0,0,0,0,0,0,0,0,0,-1,1791,778,0,0
574,246,0,0,0,0,0,0,0,0,0,-1,1798,778,0,0
581,246,20.8528,2.91504,0.00828721,0.0188229,-0.00722355,0.0224954,0.00461471,-1.10045,0.0137199,0.0371661,1805,778,20.8527,-2.91506
588,246,20.7979,2.95667,0.00540319,0.0131524,-0.00584478,0.0162902,0.00226538,-1.0781,0.0101893,0.0405102,1812,778,20.7979,-2.95665
595,246,20.9142,2.90021,0.00199773,0.00944189,-0.00483298,0.0118199,-0.00038032,-1.11353,0.00800974,0.0413036,1819,778,20.9142,-2.90022
602,246,21.1698,2.77081,-0.000418084,0.00644707,-0.00415253,0.00840209,-0.0023731,-1.13078,0.0065376,0.0441232,1826,778,21.1698,-2.77079
609,246,22.8896,0.432678,0,0,0,0,0,0,0,-1,1833,778,22.8897,-0.432691
616,246,21.6437,1.48694,0,0,0,0,0,0,0,-1,1840,778,21.6437,-1.48695
623,246,20.2035,2.41473,-0.0040871,0.000747312,-0.00290002,0.00210542,-0.00544521,-1.13282,0.00449926,0.0435953,1847,778,20.2035,-2.41472
630,246,19.4955,3.41681,-0.00439449,-0.000638908,-0.00260982,0.00069846,-0.00573186,-1.09725,0.00407407,0.0431221,1854,778,19.4955,-3.41682
637,246,18.9102,4.22638,0,0,0,0,0,0,0,-1,1861,778,18.9101,-4.22637
644,246,14.7494,1.33038,0,0,0,0,0,0,0,-1,1868,778,14.7494,-1.33041
651,246,14.9404,1.36572,-0.00323548,-0.00145848,-0.0027093,0.00050429,-0.00519825,-0.943845,0.00364524,0.0322905,1875,778,14.9404,-1.36571
658,246,15.0826,1.49072,-0.00254933,-0.00197304,-0.00276176,0.000515562,-0.00503793,-0.837377,0.003543,0.0218896,1882,778,15.0826,-1.49072
665,246,15.0519,1.70398,-0.00140575,-0.00208704,-0.00251902,0.000795555,-0.00428835,-0.718192,0.00315767,0.0215825,1889,778,15.0519,-1.70401
672,246,15.0327,1.92944,-0.000296201,-0.00193801,-0.00237343,0.00139428,-0.00362849,-0.618902,0.002994,0.0204187,1896,778,15.0327,-1.92944
679,246,15.0349,2.17017,0.000847853,-0.00133135,-0.00234198,0.0023413,-0.00282479,-0.567667,0.00298699,0.020765,1903,778,15.0349,-2.17017
686,246,15.0698,2.41632,0.00155625,-0.00101176,-0.00205972,0.0026994,-0.00215491,-0.506678,0.00280851,0.0220603,1910,778,15.0698,-2.41634
693,246,15.0865,2.64624,0.00160704,-0.000606287,-0.00180252,0.00261551,-0.00161475,-0.51009,0.00246502,0.0173778,1917,778,15.0865,-2.64624
700,246,15.0923,2.83862,0.00145305,-7.64776e-05,-0.00182505,0.0026671,-0.00129052,-0.586994,0.00233055,0.014366,1924,778,15.0922,-2.8386
707,246,15.0917,3.05713,0.000915431,0.000159135,-0.00181737,0.00239358,-0.00131902,-0.682825,0.00217319,0.0133007,1931,778,15.0917,-3.05713
714,246,15.0601,3.28766,1.97024e-06,0.000132736,-0.00201851,0.00208692,-0.00195222,-0.801588,0.00233243,0.0124127,1938,778,15.06,-3.28766
721,246,15.0693,3.48553,-0.00138834,-2.17611e-06,-0.00226372,0.00167218,-0.0030627,-0.933952,0.0027727,0.0167766,1945,778,15.0694,-3.48555
728,246,15.1757,3.74854,-0.00383319,-0.000226638,-0.00222238,0.000832039,-0.00489186,-1.12623,0.00357105,0.0363491,1952,778,15.1757,-3.74853
735,246,15.4067,4.05334,0,0,0,0,0,0,0,-1,1959,778,15.4068,-4.05336
742,246,15.752,3.61761,0,0,0,0,0,0,0,-1,1966,778,15.7519,-3.61759
749,246,13.7891,4.02997,0,0,0,0,0,0,0,-1,1973,778,13.7891,-4.02996
756,246,13.2834,4.66998,0,0,0,0,0,0,0,-1,1980,778,13.2835,-4.66999
763,246,0,0,0,0,0,0,0,0,0,-1,1987,778,0,0
770,246,0,0,0,0,0,0,0,0,0,-1,1994,778,0,0
777,246,0,0,0,0,0,0,0,0,0,-1,2001,778,0,0
784,246,0,0,0,0,0,0,0,0,0,-1,2008,778,0,0
791,246,0,0,0,0,0,0,0,0,0,-1,2015,778,0,0
798,246,0,0,0,0,0,0,0,0,0,-1,2022,778,0,0
805,246,0,0,0,0,0,0,0,0,0,-1,2029,778,0,0
812,246,0,0,0,0,0,0,0,0,0,-1,2036,778,0,0
-700,239,0,0,0,0,0,0,0,0,0,-1,524,785,0,0
-693,239,0,0,0,0,0,0,0,0,0,-1,531,785,0,0
-686,239,0,0,0,0,0,0,0,0,0,-1,538,785,0,0
-679,239,0,0,0,0,0,0,0,0,0,-1,545,785,0,0
-672,239,0,0,0,0,0,0,0,0,0,-1,552,785,0,0
-665,239,0,0,0,0,0,0,0,0,0,-1,559,785,0,0
-658,239,0,0,0,0,0,0,0,0,0,-1,566,785,0,0
-651,239,0,0,0,0,0,0,0,0,0,-1,573,785,0,0
-644,239,0,0,0,0,0,0,0,0,0,-1,580,785,0,0
-637,239,-9.664,3.05054,0,0,0,0,0,0,0,-1,587,785,-9.66401,-3.05056
-630,239,-9.28149,3.08441,0,0,0,0,0,0,0,-1,594,785,-9.28148,-3.0844
-623,239,-9.10266,2.88574,0,0,0,0,0,0,0,-1,601,785,-9.10266,-2.88575
-616,239,-9.74841,1.40698,0,0,0,0,0,0,0,-1,608,785,-9.7484,-1.40699
-609,239,-9.24902,1.52411,0,0,0,0,0,0,0,-1,615,785,-9.24901,-1.52412
-602,239,-9.24445,1.34723,0,0,0,0,0,0,0,-1,622,785,-9.24447,-1.34721
-595,239,-9.05371,1.27032,0.0172777,-0.00226544,0.00996396,0.0214619,-0.00644966,0.397573,0.0168738,0.0400981,629,785,-9.05369,-1.27033
-588,239,-8.88055,1.18182,0.0134003,-0.00189708,0.00790342,0.01675,-0.00524687,0.400889,0.0132661,0.0170446,636,785,-8.88053,-1.18184
-581,239,-8.93262,0.990112,0.00972736,-0.000644386,0.00545975,0.0120716,-0.0029886,0.40556,0.00920704,0.0101498,643,785,-8.93261,-0.990087
-574,239,-8.93781,0.774597,0.00652704,0.000224673,0.00361424,0.00817093,-0.00141921,0.426868,0.00597679,0.0112695,650,785,-8.93783,-0.774597
-567,239,-8.94971,0.575317,0.00407514,0.000185145,0.00255021,0.00533741,-0.00107713,0.459614,0.00396637,0.013043,657,785,-8.94973,-0.575309
-560,239,-8.95966,0.376587,0.00206119,0.000189292,0.00187883,0.00322429,-0.000973807,0.554313,0.00253721,0.0134835,664,785,-8.95968,-0.376604
-553,239,-8.96149,0.171509,0.000355876,0.000416007,0.00161513,0.00200135,-0.00122947,0.794705,0.00188297,0.0140557,671,785,-8.96147,-0.1715
-546,239,-8.97504,-0.0150757,-0.00122276,0.000337611,0.00178164,0.0015024,-0.00238755,0.991772,0.00226516,0.014366,678,785,-8.97506,0.0150777
-539,239,-8.96283,-0.232544,-0.00267081,0.000452038,0.00190494,0.00135371,-0.00357248,1.12871,0.00293873,0.0147851,685,785,-8.96285,0.232558
-532,239,-8.93036,-0.460632,-0.00353441,0.000849711,0.0020232,0.00164068,-0.00432538,1.19812,0.00355886,0.0123543,692,785,-8.93034,0.460613
-525,239,-8.94604,-0.651184,-0.00383048,0.00161812,0.00203987,0.00229718,-0.00450954,1.24944,0.00399846,0.0150304,699,785,-8.94605,0.651209
-518,239,-8.93372,-0.779114,-0.00433948,0.00228602,0.00206114,0.00287489,-0.00492834,1.29251,0.0045569,0.0360873,706,785,-8.93373,0.779093
-511,239,-9.1651,-0.667358,-0.0048364,0.00275409,0.0020183,0.00325738,-0.00533969,1.32642,0.00501182,0.040279,713,785,-9.1651,0.667333
-504,239,-9.29803,-0.593933,-0.00493591,0.00327971,0.00210292,0.0037867,-0.0054429,1.33422,0.00535724,0.0426087,720,785,-9.29801,0.593905
-497,239,-9.14209,-0.335999,0,0,0,0,0,0,0,-1,727,785,-9.14211,0.336011
-490,239,-9.01947,-0.0811157,0,0,0,0,0,0,0,-1,734,785,-9.01947,0.0811274
-483,239,-13.7396,1.1817,-0.00353353,0.00307777,0.00253002,0.00393485,-0.00439061,1.24417,0.0048091,0.0470096,741,785,-13.7396,-1.1817
-476,239,-13.623,1.13239,-0.00216532,0.00229234,0.00280623,0.00364717,-0.00352014,1.12101,0.00413827,0.0428329,748,785,-13.6231,-1.13237
-469,239,-13.5431,1.06891,-5.66205e-05,0.000817989,0.00333733,0.00374654,-0.00298517,0.850544,0.00389483,0.0427478,755,785,-13.5431,-1.06893
-462,239,-13.5906,1.02399,0.00314925,-0.00184888,0.00441692,0.00572508,-0.00442471,0.527954,0.00587599,0.0482935,762,785,-13.5907,-1.02396
-455,239,0,0,0,0,0,0,0,0,0,-1,769,785,0,0
-448,239,0,0,0,0,0,0,0,0,0,-1,776,785,0,0
-441,239,0,0,0,0,0,0,0,0,0,-1,783,785,0,0
-434,239,0,0,0,0,0,0,0,0,0,-1,790,785,0,0
-427,239,0,0,0,0,0,0,0,0,0,-1,797,785,0,0
-420,239,0,0,0,0,0,0,0,0,0,-1,804,785,0,0
-413,239,0,0,0,0,0,0,0,0,0,-1,811,785,0,0
-406,239,0,0,0,0,0,0,0,0,0,-1,818,785,0,0
-399,239,0,0,0,0,0,0,0,0,0,-1,825,785,0,0
-392,239,0,0,0,0,0,0,0,0,0,-1,832,785,0,0
-385,239,0,0,0,0,0,0,0,0,0,-1,839,785,0,0
-378,239,0,0,0,0,0,0,0,0,0,-1,846,785,0,0
-371,239,0,0,0,0,0,0,0,0,0,-1,853,785,0,0
-364,239,0,0,0,0,0,0,0,0,0,-1,860,785,0,0
-357,239,0,0,0,0,0,0,0,0,0,-1,867,785,0,0
-350,239,0,0,0,0,0,0,0,0,0,-1,874,785,0,0
-343,239,0,0,0,0,0,0,0,0,0,-1,881,785,0,0
-336,239,0,0,0,0,0,0,0,0,0,-1,888,785,0,0
-329,239,0,0,0,0,0,0,0,0,0,-1,895,785,0,0
-322,239,0,0,0,0,0,0,0,0,0,-1,902,785,0,0
-315,239,0,0,0,0,0,0,0,0,0,-1,909,785,0,0
-308,239,0,0,0,0,0,0,0,0,0,-1,916,785,0,0
-301,239,0,0,0,0,0,0,0,0,0,-1,923,785,0,0
-294,239,0,0,0,0,0,0,0,0,0,-1,930,785,0,0
-287,239,0,0,0,0,0,0,0,0,0,-1,937,785,0,0
-280,239,0,0,0,0,0,0,0,0,0,-1,944,785,0,0
-273,239,0,0,0,0,0,0,0,0,0,-1,951,785,0,0
-266,239,0,0,0,0,0,0,0,0,0,-1,958,785,0,0
-259,239,0,0,0,0,0,0,0,0,0,-1,965,785,0,0
-252,239,0,0,0,0,0,0,0,0,0,-1,972,785,0,0
-245,239,0,0,0,0,0,0,0,0,0,-1,979,785,0,0
-238,239,0,0,0,0,0,0,0,0,0,-1,986,785,0,0
-231,239,0,0,0,0,0,0,0,0,0,-1,993,785,0,0
-224,239,0,0,0,0,0,0,0,0,0,-1,1000,785,0,0
-217,239,0,0,0,0,0,0,0,0,0,-1,1007,785,0,0
-210,239,0,0,0,0,0,0,0,0,0,-1,1014,785,0,0
-203,239,0,0,0,0,0,0,0,0,0,-1,1021,785,0,0
-196,239,0,0,0,0,0,0,0,0,0,-1,1028,785,0,0
-189,239,0,0,0,0,0,0,0,0,0,-1,1035,785,0,0
-182,239,0,0,0,0,0,0,0,0,0,-1,1042,785,0,0
-175,239,0,0,0,0,0,0,0,0,0,-1,1049,785,0,0
-168,239,0,0,0,0,0,0,0,0,0,-1,1056,785,0,0
-161,239,0,0,0,0,0,0,0,0,0,-1,1063,785,0,0
-154,239,0,0,0,0,0,0,0,0,0,-1,1070,785,0,0
-147,239,0,0,0,0,0,0,0,0,0,-1,1077,785,0,0
-140,239,0,0,0,0,0,0,0,0,0,-1,1084,785,0,0
-133,239,0,0,0,0,0,0,0,0,0,-1,1091,785,0,0
-126,239,0,0,0,0,0,0,0,0,0,-1,1098,785,0,0
-119,239,0,0,0,0,0,0,0,0,0,-1,1105,785,0,0
-112,239,0,0,0,0,0,0,0,0,0,-1,1112,785,0,0
-105,239,0,0,0,0,0,0,0,0,0,-1,1119,785,0,0
-98,239,0,0,0,0,0,0,0,0,0,-1,1126,785,0,0
-91,239,0,0,0,0,0,0,0,0,0,-1,1133,785,0,0
-84,239,0,0,0,0,0,0,0,0,0,-1,1140,785,0,0
-77,239,0,0,0,0,0,0,0,0,0,-1,1147,785,0,0
-70,239,0,0,0,0,0,0,0,0,0,-1,1154,785,0,0
-63,239,0,0,0,0,0,0,0,0,0,-1,1161,785,0,0
-56,239,0,0,0,0,0,0,0,0,0,-1,1168,785,0,0
-49,239,0,0,0,0,0,0,0,0,0,-1,1175,785,0,0
-42,239,0,0,0,0,0,0,0,0,0,-1,1182,785,0,0
-35,239,0,0,0,0,0,0,0,0,0,-1,1189,785,0,0
-28,239,0,0,0,0,0,0,0,0,0,-1,1196,785,0,0
-21,239,0,0,0,0,0,0,0,0,0,-1,1203,785,0,0
-14,239,0,0,0,0,0,0,0,0,0,-1,1210,785,0,0
-7,239,0,0,0,0,0,0,0,0,0,-1,1217,785,0,0
0,239,0,0,0,0,0,0,0,0,0,-1,1224,785,0,0
7,239,0,0,0,0,0,0,0,0,0,-1,1231,785,0,0
14,239,0,0,0,0,0,0,0,0,0,-1,1238,785,0,0
21,239,0,0,0,0,0,0,0,0,0,-1,1245,785,0,0
28,239,0,0,0,0,0,0,0,0,0,-1,1252,785,0,0
35,239,0,0,0,0,0,0,0,0,0,-1,1259,785,0,0
42,239,0,0,0,0,0,0,0,0,0,-1,1266,785,0,0
49,239,0,0,0,0,0,0,0,0,0,-1,1273,785,0,0
56,239,0,0,0,0,0,0,0,0,0,-1,1280,785,0,0
63,239,0,0,0,0,0,0,0,0,0,-1,1287,785,0,0
70,239,0,0,0,0,0,0,0,0,0,-1,1294,785,0,0
77,239,0,0,0,0,0,0,0,0,0,-1,1301,785,0,0
84,239,0,0,0,0,0,0,0,0,0,-1,1308,785,0,0
91,239,0,0,0,0,0,0,0,0,0,-1,1315,785,0,0
98,239,0,0,0,0,0,0,0,0,0,-1,1322,785,0,0
105,239,0,0,0,0,0,0,0,0,0,-1,1329,785,0,0
112,239,0,0,0,0,0,0,0,0,0,-1,1336,785,0,0
119,239,0,0,0,0,0,0,0,0,0,-1,1343,785,0,0
126,239,0,0,0,0,0,0,0,0,0,-1,1350,785,0,0
133,239,0,0,0,0,0,0,0,0,0,-1,1357,785,0,0
140,239,0,0,0,0,0,0,0,0,0,-1,1364,785,0,0
147,239,0,0,0,0,0,0,0,0,0,-1,1371,785,0,0
154,239,0,0,0,0,0,0,0,0,0,-1,1378,785,0,0
161,239,0,0,0,0,0,0,0,0,0,-1,1385,785,0,0
168,239,0,0,0,0,0,0,0,0,0,-1,1392,785,0,0
175,239,0,0,0,0,0,0,0,0,0,-1,1399,785,0,0
182,239,0,0,0,0,0,0,0,0,0,-1,1406,785,0,0
189,239,0,0,0,0,0,0,0,0,0,-1,1413,785,0,0
196,239,0,0,0,0,0,0,0,0,0,-1,1420,785,0,0
203,239,0,0,0,0,0,0,0,0,0,-1,1427,785,0,0
210,239,0,0,0,0,0,0,0,0,0,-1,1434,785,0,0
217,239,0,0,0,0,0,0,0,0,0,-1,1441,785,0,0
224,239,0,0,0,0,0,0,0,0,0,-1,1448,785,0,0
231,239,0,0,0,0,0,0,0,0,0,-1,1455,785,0,0
238,239,0,0,0,0,0,0,0,0,0,-1,1462,785,0,0
245,239,0,0,0,0,0,0,0,0,0,-1,1469,785,0,0
252,239,0,0,0,0,0,0,0,0,0,-1,1476,785,0,0
259,239,0,0,0,0,0,0,0,0,0,-1,1483,785,0,0
266,239,0,0,0,0,0,0,0,0,0,-1,1490,785,0,0
273,239,0,0,0,0,0,0,0,0,0,-1,1497,785,0,0
280,239,0,0,0,0,0,0,0,0,0,-1,1504,785,0,0
287,239,0,0,0,0,0,0,0,0,0,-1,1511,785,0,0
294,239,0,0,0,0,0,0,0,0,0,-1,1518,785,0,0
301,239,0,0,0,0,0,0,0,0,0,-1,1525,785,0,0
308,239,0,0,0,0,0,0,0,0,0,-1,1532,785,0,0
315,239,0,0,0,0,0,0,0,0,0,-1,1539,785,0,0
322,239,0,0,0,0,0,0,0,0,0,-1,1546,785,0,0
329,239,0,0,0,0,0,0,0,0,0,-1,1553,785,0,0
336,239,0,0,0,0,0,0,0,0,0,-1,1560,785,0,0
343,239,0,0,0,0,0,0,0,0,0,-1,1567,785,0,0
350,239,0,0,0,0,0,0,0,0,0,-1,1574,785,0,0
357,239,0,0,0,0,0,0,0,0,0,-1,1581,785,0,0
364,239,0,0,0,0,0,0,0,0,0,-1,1588,785,0,0
371,239,0,0,0,0,0,0,0,0,0,-1,1595,785,0,0
378,239,0,0,0,0,0,0,0,0,0,-1,1602,785,0,0
385,239,0,0,0,0,0,0,0,0,0,-1,1609,785,0,0
392,239,0,0,0,0,0,0,0,0,0,-1,1616,785,0,0
399,239,0,0,0,0,0,0,0,0,0,-1,1623,785,0,0
406,239,0,0,0,0,0,0,0,0,0,-1,1630,785,0,0
413,239,0,0,0,0,0,0,0,0,0,-1,1637,785,0,0
420,239,0,0,0,0,0,0,0,0,0,-1,1644,785,0,0
427,239,0,0,0,0,0,0,0,0,0,-1,1651,785,0,0
434,239,0,0,0,0,0,0,0,0,0,-1,1658,785,0,0
441,239,0,0,0,0,0,0,0,0,0,-1,1665,785,0,0
448,239,0,0,0,0,0,0,0,0,0,-1,1672,785,0,0
455,239,0,0,0,0,0,0,0,0,0,-1,1679,785,0,0
462,239,0,0,0,0,0,0,0,0,0,-1,1686,785,0,0
469,239,0,0,0,0,0,0,0,0,0,-1,1693,785,0,0
476,239,0,0,0,0,0,0,0,0,0,-1,1700,785,0,0
483,239,0,0,0,0,0,0,0,0,0,-1,1707,785,0,0
490,239,0,0,0,0,0,0,0,0,0,-1,1714,785,0,0
497,239,0,0,0,0,0,0,0,0,0,-1,1721,785,0,0
504,239,0,0,0,0,0,0,0,0,0,-1,1728,785,0,0
511,239,0,0,0,0,0,0,0,0,0,-1,1735,785,0,0
518,239,0,0,0,0,0,0,0,0,0,-1,1742,785,0,0
525,239,0,0,0,0,0,0,0,0,0,-1,1749,785,0,0
532,239,0,0,0,0,0,0,0,0,0,-1,1756,785,0,0
539,239,0,0,0,0,0,0,0,0,0,-1,1763,785,0,0
546,239,0,0,0,0,0,0,0,0,0,-1,1770,785,0,0
553,239,0,0,0,0,0,0,0,0,0,-1,1777,785,0,0
560,239,0,0,0,0,0,0,0,0,0,-1,1784,785,0,0
567,239,0,0,0,0,0,0,0,0,0,-1,1791,785,0,0
574,239,0,0,0,0,0,0,0,0,0,-1,1798,785,0,0
581,239,20.858,2.95416,0.00541508,0.0163915,-0.00553729,0.0186996,0.00310701,-1.17587,0.0115706,0.0374011,1805,785,20.858,-2.95419
588,239,20.7156,3.03864,0.00331516,0.0112683,-0.00414051,0.0130325,0.00155091,-1.168,0.00822028,0.0392783,1812,785,20.7155,-3.03865
595,239,20.8519,2.82281,0.00032937,0.00819027,-0.00333911,0.00941715,-0.000897511,-1.21868,0.00659765,0.0351442,1819,785,20.8519,-2.82281
602,239,20.9985,2.80945,-0.00191758,0.00574028,-0.00281671,0.00666472,-0.00284203,-1.25367,0.00563469,0.0384602,1826,785,20.9985,-2.80946
609,239,21.079,2.90662,-0.00326614,0.00373049,-0.00271306,0.00465923,-0.00419489,-1.24097,0.00511427,0.0499622,1833,785,21.0789,-2.90661
616,239,20.8661,2.34467,0,0,0,0,0,0,0,-1,1840,785,20.866,-2.34464
623,239,20.3322,2.7876,-0.00433606,0.000584742,-0.00248358,0.0016203,-0.00537161,-1.17575,0.00422602,0.0441501,1847,785,20.3322,-2.78759
630,239,19.7838,3.34656,-0.00432976,-0.000551554,-0.00248536,0.000681155,-0.00556247,-1.11036,0.00395497,0.0400698,1854,785,19.7838,-3.34659
637,239,19.5608,3.66614,0,0,0,0,0,0,0,-1,1861,785,19.5608,-3.66616
644,239,14.8413,1.38214,0,0,0,0,0,0,0,-1,1868,785,14.8413,-1.38216
651,239,15.0629,1.44507,-0.00316164,-0.00137046,-0.00270846,0.000586641,-0.00511874,-0.945071,0.0036239,0.0456178,1875,785,15.0629,-1.44507
658,239,15.2749,1.52448,-0.00250519,-0.00174986,-0.00284117,0.000738635,-0.00499369,-0.851474,0.00360068,0.0207172,1882,785,15.275,-1.52445
665,239,15.3097,1.73022,-0.0014331,-0.00186703,-0.00271361,0.00107221,-0.00437234,-0.745506,0.00333033,0.0147433,1889,785,15.3096,-1.73023
672,239,15.2881,1.95813,-0.000408629,-0.00182655,-0.00255441,0.00153338,-0.00376856,-0.650033,0.00315044,0.0211418,1896,785,15.288,-1.95812
679,239,15.2994,2.21765,0.000674115,-0.00126999,-0.00251577,0.00239909,-0.00299497,-0.601041,0.00312059,0.0220311,1903,785,15.2994,-2.21768
686,239,15.2946,2.45166,0.00135287,-0.00105826,-0.00219867,0.00265481,-0.00236019,-0.534623,0.00289708,0.0235837,1910,785,15.2946,-2.45169
693,239,15.319,2.65344,0.0013321,-0.000751811,-0.00189183,0.00244993,-0.00186964,-0.533683,0.0025014,0.0155849,1917,785,15.319,-2.65346
700,239,15.3297,2.85254,0.00100304,-0.000294791,-0.00187128,0.00233473,-0.00162648,-0.618498,0.00229916,0.0119042,1924,785,15.3297,-2.85252
707,239,15.3217,3.06177,0.000175246,-0.000150685,-0.00178016,0.00179989,-0.00177533,-0.739753,0.00206417,0.0111552,1931,785,15.3217,-3.06177
714,239,15.2931,3.26892,-0.000921507,-0.000378522,-0.00193662,0.00130555,-0.00260557,-0.855039,0.00229929,0.0105612,1938,785,15.2931,-3.26891
721,239,15.2772,3.48773,-0.00241741,-0.000789041,-0.00218972,0.000732962,-0.00393941,-0.963388,0.00290162,0.0195764,1945,785,15.2772,-3.48776
728,239,15.3104,3.65314,-0.00489542,-0.00139949,-0.00224055,-0.000305721,-0.00598918,-1.11666,0.00389488,0.0358315,1952,785,15.3104,-3.65314
735,239,15.4608,3.85205,0,0,0,0,0,0,0,-1,1959,785,15.4608,-3.85203
742,239,15.1206,2.36267,0,0,0,0,0,0,0,-1,1966,785,15.1206,-2.36268
749,239,18.3204,4.08917,0,0,0,0,0,0,0,-1,1973,785,18.3204,-4.08919
756,239,17.8062,5.92566,0,0,0,0,0,0,0,-1,1980,785,17.8061,-5.92567
763,239,0,0,0,0,0,0,0,0,0,-1,1987,785,0,0
770,239,0,0,0,0,0,0,0,0,0,-1,1994,785,0,0
777,239,0,0,0,0,0,0,0,0,0,-1,2001,785,0,0
784,239,0,0,0,0,0,0,0,0,0,-1,2008,785,0,0
791,239,0,0,0,0,0,0,0,0,0,-1,2015,785,0,0
798,239,0,0,0,0,0,0,0,0,0,-1,2022,785,0,0
805,239,0,0,0,0,0,0,0,0,0,-1,2029,785,0,0
812,239,0,0,0,0,0,0,0,0,0,-1,2036,785,0,0
-700,232,0,0,0,0,0,0,0,0,0,-1,524,792,0,0
-693,232,0,0,0,0,0,0,0,0,0,-1,531,792,0,0
-686,232,0,0,0,0,0,0,0,0,0,-1,538,792,0,0
-679,232,0,0,0,0,0,0,0,0,0,-1,545,792,0,0
-672,232,0,0,0,0,0,0,0,0,0,-1,552,792,0,0
-665,232,0,0,0,0,0,0,0,0,0,-1,559,792,0,0
-658,232,0,0,0,0,0,0,0,0,0,-1,566,792,0,0
-651,232,0,0,0,0,0,0,0,0,0,-1,573,792,0,0
-644,232,-10.1761,2.45599,0,0,0,0,0,0,0,-1,580,792,-10.1761,-2.45599
-637,232,-9.63983,2.92438,0,0,0,0,0,0,0,-1,587,792,-9.63986,-2.92435
-630,232,-9.2746,2.77808,0,0,0,0,0,0,0,-1,594,792,-9.27458,-2.7781
-623,232,-9.00909,2.72614,0,0,0,0,0,0,0,-1,601,792,-9.00907,-2.72615
-616,232,-8.70605,2.65002,0,0,0,0,0,0,0,-1,608,792,-8.70607,-2.65004
-609,232,-9.66827,1.72174,0,0,0,0,0,0,0,-1,615,792,-9.66828,-1.72174
-602,232,-9.54291,1.56891,0.0163704,0.00151037,0.00737046,0.019406,-0.00152522,0.390687,0.0134745,0.0499021,622,792,-9.54289,-1.56893
-595,232,-9.20221,1.40643,0.0136187,-0.000695,0.00744533,0.0167891,-0.00386547,0.402576,0.0126792,0.0324192,629,792,-9.20221,-1.40642
-588,232,-9.12262,1.19403,0.0106275,-0.00125759,0.00623237,0.0132963,-0.00392645,0.4046,0.0104226,0.0114365,636,792,-9.12259,-1.19401
-581,232,-9.14532,0.985718,0.00767469,-0.000353438,0.0042598,0.00951371,-0.00219246,0.407545,0.00718567,0.00774938,643,792,-9.14532,-0.98574
-574,232,-9.14362,0.79657,0.00508312,0.000195907,0.00285821,0.00639991,-0.00112088,0.43172,0.00468514,0.00787011,650,792,-9.14363,-0.796574
-567,232,-9.16113,0.591187,0.00309587,5.27461e-05,0.00214064,0.00420061,-0.001052,0.47643,0.00320908,0.00946467,657,792,-9.16114,-0.591158
-560,232,-9.17126,0.391785,0.00137016,0.000250777,0.00158929,0.00249543,-0.000874495,0.616098,0.00201926,0.012033,664,792,-9.17128,-0.391764
-553,232,-9.18457,0.182068,-0.000221082,0.000760802,0.00133987,0.00169684,-0.00115712,0.961008,0.00165752,0.012497,671,792,-9.18456,-0.182097
-546,232,-9.22577,-0.015564,-0.00180288,0.0010117,0.00142884,0.00160991,-0.00240109,1.1743,0.00233072,0.0198261,678,792,-9.22576,0.0155592
-539,232,-9.21356,-0.234741,-0.00324758,0.00145784,0.00142597,0.00185624,-0.00364599,1.29835,0.00323224,0.023937,685,792,-9.21356,0.234757
-532,232,-9.16553,-0.438721,-0.0041336,0.00209303,0.00137998,0.00238517,-0.00442573,1.36218,0.00399067,0.0152605,692,792,-9.16553,0.438701
-525,232,-9.17218,-0.600525,-0.00448657,0.00300078,0.0012597,0.00320703,-0.00469282,1.4085,0.00458779,0.0252715,699,792,-9.17217,0.600521
-518,232,-9.23328,-0.549316,-0.0049887,0.0038378,0.00113243,0.00398077,-0.00513168,1.44521,0.00527504,0.0488185,706,792,-9.23327,0.549306
-511,232,-9.28394,-0.582886,0,0,0,0,0,0,0,-1,713,792,-9.28395,0.582869
-504,232,-10.0005,-0.644043,0,0,0,0,0,0,0,-1,720,792,-10.0006,0.644013
-497,232,-9.78802,-0.423645,0,0,0,0,0,0,0,-1,727,792,-9.788,0.423644
-490,232,-13.5738,1.11554,-0.00483089,0.00600667,0.000284331,0.00601412,-0.00483834,1.54458,0.00627792,0.0434421,734,792,-13.5738,-1.11553
-483,232,-13.6799,1.05164,-0.00377093,0.00592774,1.50139e-05,0.00592776,-0.00377096,1.56925,0.00564552,0.0419684,741,792,-13.6799,-1.05165
-476,232,-13.6483,0.953735,-0.00209064,0.00539717,-0.000257204,0.005406,-0.00209946,-1.5365,0.00447126,0.0355404,748,792,-13.6483,-0.953752
-469,232,-13.5476,0.996765,0.000362097,0.00413553,-0.000392269,0.00417587,0.00032175,-1.4683,0.0026831,0.0343108,755,792,-13.5476,-0.996777
-462,232,0,0,0,0,0,0,0,0,0,-1,762,792,0,0
-455,232,0,0,0,0,0,0,0,0,0,-1,769,792,0,0
-448,232,0,0,0,0,0,0,0,0,0,-1,776,792,0,0
-441,232,0,0,0,0,0,0,0,0,0,-1,783,792,0,0
-434,232,0,0,0,0,0,0,0,0,0,-1,790,792,0,0
-427,232,0,0,0,0,0,0,0,0,0,-1,797,792,0,0
-420,232,0,0,0,0,0,0,0,0,0,-1,804,792,0,0
-413,232,0,0,0,0,0,0,0,0,0,-1,811,792,0,0
-406,232,0,0,0,0,0,0,0,0,0,-1,818,792,0,0
-399,232,0,0,0,0,0,0,0,0,0,-1,825,792,0,0
-392,232,0,0,0,0,0,0,0,0,0,-1,832,792,0,0
-385,232,0,0,0,0,0,0,0,0,0,-1,839,792,0,0
-378,232,0,0,0,0,0,0,0,0,0,-1,846,792,0,0
-371,232,0,0,0,0,0,0,0,0,0,-1,853,792,0,0
-364,232,0,0,0,0,0,0,0,0,0,-1,860,792,0,0
-357,232,0,0,0,0,0,0,0,0,0,-1,867,792,0,0
-350,232,0,0,0,0,0,0,0,0,0,-1,874,792,0,0
-343,232,0,0,0,0,0,0,0,0,0,-1,881,792,0,0
-336,232,0,0,0,0,0,0,0,0,0,-1,888,792,0,0
-329,232,0,0,0,0,0,0,0,0,0,-1,895,792,0,0
-322,232,0,0,0,0,0,0,0,0,0,-1,902,792,0,0
-315,232,0,0,0,0,0,0,0,0,0,-1,909,792,0,0
-308,232,0,0,0,0,0,0,0,0,0,-1,916,792,0,0
-301,232,0,0,0,0,0,0,0,0,0,-1,923,792,0,0
-294,232,0,0,0,0,0,0,0,0,0,-1,930,792,0,0
-287,232,0,0,0,0,0,0,0,0,0,-1,937,792,0,0
-280,232,0,0,0,0,0,0,0,0,0,-1,944,792,0,0
-273,232,0,0,0,0,0,0,0,0,0,-1,951,792,0,0
-266,232,0,0,0,0,0,0,0,0,0,-1,958,792,0,0
-259,232,0,0,0,0,0,0,0,0,0,-1,965,792,0,0
-252,232,0,0,0,0,0,0,0,0,0,-1,972,792,0,0
-245,232,0,0,0,0,0,0,0,0,0,-1,979,792,0,0
-238,232,0,0,0,0,0,0,0,0,0,-1,986,792,0,0
-231,232,0,0,0,0,0,0,0,0,0,-1,993,792,0,0
-224,232,0,0,0,0,0,0,0,0,0,-1,1000,792,0,0
-217,232,0,0,0,0,0,0,0,0,0,-1,1007,792,0,0
-210,232,0,0,0,0,0,0,0,0,0,-1,1014,792,0,0
-203,232,0,0,0,0,0,0,0,0,0,-1,1021,792,0,0
-196,232,0,0,0,0,0,0,0,0,0,-1,1028,792,0,0
-189,232,0,0,0,0,0,0,0,0,0,-1,1035,792,0,0
-182,232,0,0,0,0,0,0,0,0,0,-1,1042,792,0,0
-175,232,0,0,0,0,0,0,0,0,0,-1,1049,792,0,0
-168,232,0,0,0,0,0,0,0,0,0,-1,1056,792,0,0
-161,232,0,0,0,0,0,0,0,0,0,-1,1063,792,0,0
-154,232,0,0,0,0,0,0,0,0,0,-1,1070,792,0,0
-147,232,0,0,0,0,0,0,0,0,0,-1,1077,792,0,0
-140,232,0,0,0,0,0,0,0,0,0,-1,1084,792,0,0
-133,232,0,0,0,0,0,0,0,0,0,-1,1091,792,0,0
-126,232,0,0,0,0,0,0,0,0,0,-1,1098,792,0,0
-119,232,0,0,0,0,0,0,0,0,0,-1,1105,792,0,0
-112,232,0,0,0,0,0,0,0,0,0,-1,1112,792,0,0
-105,232,0,0,0,0,0,0,0,0,0,-1,1119,792,0,0
-98,232,0,0,0,0,0,0,0,0,0,-1,1126,792,0,0
-91,232,0,0,0,0,0,0,0,0,0,-1,1133,792,0,0
-84,232,0,0,0,0,0,0,0,0,0,-1,1140,792,0,0
-77,232,0,0,0,0,0,0,0,0,0,-1,1147,792,0,0
-70,232,0,0,0,0,0,0,0,0,0,-1,1154,792,0,0
-63,232,0,0,0,0,0,0,0,0,0,-1,1161,792,0,0
-56,232,0,0,0,0,0,0,0,0,0,-1,1168,792,0,0
-49,232,0,0,0,0,0,0,0,0,0,-1,1175,792,0,0
-42,232,0,0,0,0,0,0,0,0,0,-1,1182,792,0,0
-35,232,0,0,0,0,0,0,0,0,0,-1,1189,792,0,0
-28,232,0,0,0,0,0,0,0,0,0,-1,1196,792,0,0
-21,232,0,0,0,0,0,0,0,0,0,-1,1203,792,0,0
-14,232,0,0,0,0,0,0,0,0,0,-1,1210,792,0,0
-7,232,0,0,0,0,0,0,0,0,0,-1,1217,792,0,0
0,232,0,0,0,0,0,0,0,0,0,-1,1224,792,0,0
7,232,0,0,0,0,0,0,0,0,0,-1,1231,792,0,0
14,232,0,0,0,0,0,0,0,0,0,-1,1238,792,0,0
21,232,0,0,0,0,0,0,0,0,0,-1,1245,792,0,0
28,232,0,0,0,0,0,0,0,0,0,-1,1252,792,0,0
35,232,0,0,0,0,0,0,0,0,0,-1,1259,792,0,0
42,232,0,0,0,0,0,0,0,0,0,-1,1266,792,0,0
49,232,0,0,0,0,0,0,0,0,0,-1,1273,792,0,0
56,232,0,0,0,0,0,0,0,0,0,-1,1280,792,0,0
63,232,0,0,0,0,0,0,0,0,0,-1,1287,792,0,0
70,232,0,0,0,0,0,0,0,0,0,-1,1294,792,0,0
77,232,0,0,0,0,0,0,0,0,0,-1,1301,792,0,0
84,232,0,0,0,0,0,0,0,0,0,-1,1308,792,0,0
91,232,0,0,0,0,0,0,0,0,0,-1,1315,792,0,0
98,232,0,0,0,0,0,0,0,0,0,-1,1322,792,0,0
105,232,0,0,0,0,0,0,0,0,0,-1,1329,792,0,0
112,232,0,0,0,0,0,0,0,0,0,-1,1336,792,0,0
119,232,0,0,0,0,0,0,0,0,0,-1,1343,792,0,0
126,232,0,0,0,0,0,0,0,0,0,-1,1350,792,0,0
133,232,0,0,0,0,0,0,0,0,0,-1,1357,792,0,0
140,232,0,0,0,0,0,0,0,0,0,-1,1364,792,0,0
147,232,0,0,0,0,0,0,0,0,0,-1,1371,792,0,0
154,232,0,0,0,0,0,0,0,0,0,-1,1378,792,0,0
161,232,0,0,0,0,0,0,0,0,0,-1,1385,792,0,0
168,232,0,0,0,0,0,0,0,0,0,-1,1392,792,0,0
175,232,0,0,0,0,0,0,0,0,0,-1,1399,792,0,0
182,232,0,0,0,0,0,0,0,0,0,-1,1406,792,0,0
189,232,0,0,0,0,0,0,0,0,0,-1,1413,792,0,0
196,232,0,0,0,0,0,0,0,0,0,-1,1420,792,0,0
203,232,0,0,0,0,0,0,0,0,0,-1,1427,792,0,0
210,232,0,0,0,0,0,0,0,0,0,-1,1434,792,0,0
217,232,0,0,0,0,0,0,0,0,0,-1,1441,792,0,0
224,232,0,0,0,0,0,0,0,0,0,-1,1448,792,0,0
231,232,0,0,0,0,0,0,0,0,0,-1,1455,792,0,0
238,232,0,0,0,0,0,0,0,0,0,-1,1462,792,0,0
245,232,0,0,0,0,0,0,0,0,0,-1,1469,792,0,0
252,232,0,0,0,0,0,0,0,0,0,-1,1476,792,0,0
259,232,0,0,0,0,0,0,0,0,0,-1,1483,792,0,0
266,232,0,0,0,0,0,0,0,0,0,-1,1490,792,0,0
273,232,0,0,0,0,0,0,0,0,0,-1,1497,792,0,0
280,232,0,0,0,0,0,0,0,0,0,-1,1504,792,0,0
287,232,0,0,0,0,0,0,0,0,0,-1,1511,792,0,0
294,232,0,0,0,0,0,0,0,0,0,-1,1518,792,0,0
301,232,0,0,0,0,0,0,0,0,0,-1,1525,792,0,0
308,232,0,0,0,0,0,0,0,0,0,-1,1532,792,0,0
315,232,0,0,0,0,0,0,0,0,0,-1,1539,792,0,0
322,232,0,0,0,0,0,0,0,0,0,-1,1546,792,0,0
329,232,0,0,0,0,0,0,0,0,0,-1,1553,792,0,0
336,232,0,0,0,0,0,0,0,0,0,-1,1560,792,0,0
343,232,0,0,0,0,0,0,0,0,0,-1,1567,792,0,0
350,232,0,0,0,0,0,0,0,0,0,-1,1574,792,0,0
357,232,0,0,0,0,0,0,0,0,0,-1,1581,792,0,0
364,232,0,0,0,0,0,0,0,0,0,-1,1588,792,0,0
371,232,0,0,0,0,0,0,0,0,0,-1,1595,792,0,0
378,232,0,0,0,0,0,0,0,0,0,-1,1602,792,0,0
385,232,0,0,0,0,0,0,0,0,0,-1,1609,792,0,0
392,232,0,0,0,0,0,0,0,0,0,-1,1616,792,0,0
399,232,0,0,0,0,0,0,0,0,0,-1,1623,792,0,0
406,232,0,0,0,0,0,0,0,0,0,-1,1630,792,0,0
413,232,0,0,0,0,0,0,0,0,0,-1,1637,792,0,0
420,232,0,0,0,0,0,0,0,0,0,-1,1644,792,0,0
427,232,0,0,0,0,0,0,0,0,0,-1,1651,792,0,0
434,232,0,0,0,0,0,0,0,0,0,-1,1658,792,0,0
441,232,0,0,0,0,0,0,0,0,0,-1,1665,792,0,0
448,232,0,0,0,0,0,0,0,0,0,-1,1672,792,0,0
455,232,0,0,0,0,0,0,0,0,0,-1,1679,792,0,0
462,232,0,0,0,0,0,0,0,0,0,-1,1686,792,0,0
469,232,0,0,0,0,0,0,0,0,0,-1,1693,792,0,0
476,232,0,0,0,0,0,0,0,0,0,-1,1700,792,0,0
483,232,0,0,0,0,0,0,0,0,0,-1,1707,792,0,0
490,232,0,0,0,0,0,0,0,0,0,-1,1714,792,0,0
497,232,0,0,0,0,0,0,0,0,0,-1,1721,792,0,0
504,232,0,0,0,0,0,0,0,0,0,-1,1728,792,0,0
511,232,0,0,0,0,0,0,0,0,0,-1,1735,792,0,0
518,232,0,0,0,0,0,0,0,0,0,-1,1742,792,0,0
525,232,0,0,0,0,0,0,0,0,0,-1,1749,792,0,0
532,232,0,0,0,0,0,0,0,0,0,-1,1756,792,0,0
539,232,0,0,0,0,0,0,0,0,0,-1,1763,792,0,0
546,232,0,0,0,0,0,0,0,0,0,-1,1770,792,0,0
553,232,0,0,0,0,0,0,0,0,0,-1,1777,792,0,0
560,232,0,0,0,0,0,0,0,0,0,-1,1784,792,0,0
567,232,0,0,0,0,0,0,0,0,0,-1,1791,792,0,0
574,232,0,0,0,0,0,0,0,0,0,-1,1798,792,0,0
581,232,0,0,0,0,0,0,0,0,0,-1,1805,792,0,0
588,232,20.701,3.12006,0.00474934,0.00747472,-0.00253612,0.00899107,0.003233,-1.03192,0.00525879,0.0402348,1812,792,20.7011,-3.12004
595,232,20.8457,2.70935,0.00178791,0.00603946,-0.00211116,0.00690967,0.000917706,-1.17982,0.00433306,0.0377651,1819,792,20.8457,-2.70934
602,232,20.9373,2.67303,-0.00100689,0.00486532,-0.00171035,0.00532715,-0.00146873,-1.30706,0.00412902,0.0354904,1826,792,20.9373,-2.67306
609,232,20.9103,2.83112,-0.00267341,0.00346721,-0.0018015,0.0039567,-0.0031629,-1.30549,0.00411901,0.0408711,1833,792,20.9103,-2.83111
616,232,20.48,3.14978,-0.00360375,0.00212673,-0.00203277,0.00277458,-0.00425159,-1.26227,0.00408633,0.0435976,1840,792,20.48,-3.14976
623,232,20.2972,3.15936,-0.00405809,0.00100827,-0.00215293,0.00179956,-0.00484938,-1.21858,0.0039711,0.0421007,1847,792,20.2973,-3.15935
630,232,20.1206,3.30042,-0.00409051,-1.28121e-05,-0.00229411,0.00101751,-0.00512084,-1.14868,0.00379876,0.0434041,1854,792,20.1206,-3.30041
637,232,15.02,2.55933,0,0,0,0,0,0,0,-1,1861,792,15.02,-2.55931
644,232,15.2919,2.32501,0,0,0,0,0,0,0,-1,1868,792,15.2919,-2.325
651,232,15.4338,1.99829,-0.00293832,-0.00104821,-0.0026491,0.000819362,-0.00480589,-0.956734,0.00350908,0.0444926,1875,792,15.4339,-1.99827
658,232,15.545,1.56714,-0.00229463,-0.001337,-0.00282679,0.00105124,-0.00468287,-0.869294,0.00352497,0.0248714,1882,792,15.5451,-1.56712
665,232,15.5333,1.73132,-0.00130813,-0.00148877,-0.00280292,0.00140592,-0.00420282,-0.769292,0.00336975,0.0122538,1889,792,15.5333,-1.73131
672,232,15.491,1.9801,-0.000404719,-0.00156689,-0.00265035,0.0017275,-0.00369911,-0.677481,0.00320124,0.0181462,1896,792,15.491,-1.98013
679,232,15.5233,2.22864,0.000557432,-0.00110907,-0.00261663,0.00247028,-0.00302192,-0.631252,0.00317625,0.0199439,1903,792,15.5233,-2.22865
686,232,15.5358,2.45831,0.00118753,-0.00102296,-0.00229101,0.00262596,-0.00246139,-0.560653,0.0029377,0.0200844,1910,792,15.5358,-2.4583
693,232,15.532,2.65259,0.0011316,-0.000837782,-0.00197014,0.00234943,-0.00205561,-0.553651,0.00254513,0.0110862,1917,792,15.5319,-2.65258
700,232,15.5602,2.8476,0.000663993,-0.000456663,-0.00192226,0.00210593,-0.00189859,-0.64358,0.00231304,0.0127519,1924,792,15.5601,-2.8476
707,232,15.564,3.05682,-0.000404886,-0.000354706,-0.00173167,0.00135206,-0.00211165,-0.792642,0.00201574,0.01263,1931,792,15.564,-3.05683
714,232,15.5287,3.26172,-0.00163403,-0.000668652,-0.00180022,0.000712466,-0.00301515,-0.916381,0.00228492,0.013341,1938,792,15.5287,-3.26175
721,232,15.5154,3.45313,-0.00317923,-0.00119933,-0.00199227,3.5384e-05,-0.00441394,-1.01598,0.0029545,0.0175333,1945,792,15.5154,-3.45312
728,232,15.4744,3.63165,-0.00563472,-0.00198418,-0.00202936,-0.00108,-0.0065389,-1.15165,0.00404759,0.0328277,1952,792,15.4744,-3.63167
735,232,15.4951,3.88446,0,0,0,0,0,0,0,-1,1959,792,15.4951,-3.88445
742,232,18.1797,4.2431,0,0,0,0,0,0,0,-1,1966,792,18.1797,-4.24311
749,232,17.752,4.03937,0,0,0,0,0,0,0,-1,1973,792,17.752,-4.03937
756,232,17.3202,3.89856,0,0,0,0,0,0,0,-1,1980,792,17.3201,-3.89858
763,232,16.7686,3.55792,0,0,0,0,0,0,0,-1,1987,792,16.7686,-3.55792
770,232,0,0,0,0,0,0,0,0,0,-1,1994,792,0,0
777,232,0,0,0,0,0,0,0,0,0,-1,2001,792,0,0
784,232,0,0,0,0,0,0,0,0,0,-1,2008,792,0,0
791,232,0,0,0,0,0,0,0,0,0,-1,2015,792,0,0
798,232,0,0,0,0,0,0,0,0,0,-1,2022,792,0,0
805,232,0,0,0,0,0,0,0,0,0,-1,2029,792,0,0
812,232,0,0,0,0,0,0,0,0,0,-1,2036,792,0,0
-700,225,0,0,0,0,0,0,0,0,0,-1,524,799,0,0
-693,225,0,0,0,0,0,0,0,0,0,-1,531,799,0,0
-686,225,0,0,0,0,0,0,0,0,0,-1,538,799,0,0
-679,225,0,0,0,0,0,0,0,0,0,-1,545,799,0,0
-672,225,0,0,0,0,0,0,0,0,0,-1,552,799,0,0
-665,225,0,0,0,0,0,0,0,0,0,-1,559,799,0,0
-658,225,0,0,0,0,0,0,0,0,0,-1,566,799,0,0
-651,225,0,0,0,0,0,0,0,0,0,-1,573,799,0,0
-644,225,-15.6301,7.62964,0,0,0,0,0,0,0,-1,580,799,-15.6301,-7.62966
-637,225,-9.30768,2.54071,0,0,0,0,0,0,0,-1,587,799,-9.30768,-2.54071
-630,225,-9.34625,2.59662,0,0,0,0,0,0,0,-1,594,799,-9.34625,-2.59661
-623,225,-8.85889,2.41711,0,0,0,0,0,0,0,-1,601,799,-8.85891,-2.41711
-616,225,-8.75671,2.55206,0,0,0,0,0,0,0,-1,608,799,-8.75669,-2.55206
-609,225,-9.40662,1.89313,0,0,0,0,0,0,0,-1,615,799,-9.40662,-1.89313
-602,225,-9.43561,1.64624,0.0121033,0.00519091,0.00378524,0.0137729,0.00352136,0.415402,0.00826217,0.045183,622,799,-9.43558,-1.64623
-595,225,-9.41144,1.40607,0.0100572,0.00115646,0.00515014,0.0124134,-0.00119976,0.429078,0.00870315,0.0260208,629,799,-9.41143,-1.40605
-588,225,-9.36554,1.17206,0.00787404,-0.000663355,0.00484969,0.0100661,-0.0028554,0.424514,0.00783787,0.0113577,636,799,-9.36556,-1.17207
-581,225,-9.34418,0.985046,0.00573127,-8.86463e-05,0.00328121,0.00720699,-0.00156437,0.422646,0.00540215,0.00976276,643,799,-9.34418,-0.985027
-574,225,-9.33862,0.795227,0.00378172,0.000205936,0.00224971,0.00486746,-0.000879806,0.449642,0.00357452,0.00798335,650,799,-9.3386,-0.79524
-567,225,-9.35547,0.579956,0.0023119,2.7819e-05,0.00177247,0.00327839,-0.000938672,0.499212,0.00255659,0.0102349,657,799,-9.35546,-0.579956
-560,225,-9.37366,0.376587,0.000856703,0.000471323,0.0012802,0.00195864,-0.000630611,0.710701,0.00155907,0.0108193,664,799,-9.37364,-0.376602
-553,225,-9.38281,0.196533,-0.000645481,0.00128158,0.000993387,0.00170196,-0.00106586,1.17047,0.00161201,0.0102123,671,799,-9.38279,-0.196541
-546,225,-9.41748,-0.0090332,-0.00221476,0.00187763,0.00096267,0.00209277,-0.0024299,1.35092,0.00261358,0.0179695,678,799,-9.41749,0.0090544
-539,225,-9.39844,-0.224548,-0.00364117,0.00262441,0.000822911,0.00273068,-0.00374745,1.44236,0.00375548,0.0232163,685,799,-9.39841,0.224521
-532,225,-9.38068,-0.401306,-0.00454809,0.00347453,0.000621941,0.00352245,-0.00459602,1.49389,0.00470085,0.0172701,692,799,-9.38066,0.401329
-525,225,-9.47711,-0.490601,-0.00497714,0.00452545,0.000360827,0.00453913,-0.00499082,1.5329,0.00550418,0.0387501,699,799,-9.47712,0.490591
-518,225,-9.46887,-0.427002,0,0,0,0,0,0,0,-1,706,799,-9.46887,0.427024
-511,225,-12.2939,3.4187,0,0,0,0,0,0,0,-1,713,799,-12.2939,-3.4187
-504,225,-13.803,1.05414,0,0,0,0,0,0,0,-1,720,799,-13.803,-1.05415
-497,225,-13.6909,1.03778,0,0,0,0,0,0,0,-1,727,799,-13.6909,-1.03781
-490,225,-13.6276,1.04346,-0.00509692,0.00817228,-0.00157061,0.00835565,-0.00528029,-1.45457,0.00793917,0.0386116,734,799,-13.6276,-1.04345
-483,225,-13.6393,0.950256,-0.00361955,0.00793974,-0.0020192,0.00828231,-0.00396211,-1.40274,0.0072145,0.0332485,741,799,-13.6393,-0.95025
-476,225,-13.5954,0.914673,-0.00134196,0.00704277,-0.00239051,0.00767642,-0.00197562,-1.31168,0.0058877,0.0305541,748,799,-13.5954,-0.914678
-469,225,-13.5378,0.934448,0.00193508,0.00508199,-0.00241703,0.00639259,0.000624478,-1.07393,0.00406957,0.0342039,755,799,-13.5378,-0.934449
-462,225,0,0,0,0,0,0,0,0,0,-1,762,799,0,0
-455,225,0,0,0,0,0,0,0,0,0,-1,769,799,0,0
-448,225,0,0,0,0,0,0,0,0,0,-1,776,799,0,0
-441,225,0,0,0,0,0,0,0,0,0,-1,783,799,0,0
-434,225,0,0,0,0,0,0,0,0,0,-1,790,799,0,0
-427,225,0,0,0,0,0,0,0,0,0,-1,797,799,0,0
-420,225,0,0,0,0,0,0,0,0,0,-1,804,799,0,0
-413,225,0,0,0,0,0,0,0,0,0,-1,811,799,0,0
-406,225,0,0,0,0,0,0,0,0,0,-1,818,799,0,0
-399,225,0,0,0,0,0,0,0,0,0,-1,825,799,0,0
-392,225,0,0,0,0,0,0,0,0,0,-1,832,799,0,0
-385,225,0,0,0,0,0,0,0,0,0,-1,839,799,0,0
-378,225,0,0,0,0,0,0,0,0,0,-1,846,799,0,0
-371,225,0,0,0,0,0,0,0,0,0,-1,853,799,0,0
-364,225,0,0,0,0,0,0,0,0,0,-1,860,799,0,0
-357,225,0,0,0,0,0,0,0,0,0,-1,867,799,0,0
-350,225,0,0,0,0,0,0,0,0,0,-1,874,799,0,0
-343,225,0,0,0,0,0,0,0,0,0,-1,881,799,0,0
-336,225,0,0,0,0,0,0,0,0,0,-1,888,799,0,0
-329,225,0,0,0,0,0,0,0,0,0,-1,895,799,0,0
-322,225,0,0,0,0,0,0,0,0,0,-1,902,799,0,0
-315,225,0,0,0,0,0,0,0,0,0,-1,909,799,0,0
-308,225,0,0,0,0,0,0,0,0,0,-1,916,799,0,0
-301,225,0,0,0,0,0,0,0,0,0,-1,923,799,0,0
-294,225,0,0,0,0,0,0,0,0,0,-1,930,799,0,0
-287,225,0,0,0,0,0,0,0,0,0,-1,937,799,0,0
-280,225,0,0,0,0,0,0,0,0,0,-1,944,799,0,0
-273,225,0,0,0,0,0,0,0,0,0,-1,951,799,0,0
-266,225,0,0,0,0,0,0,0,0,0,-1,958,799,0,0
-259,225,0,0,0,0,0,0,0,0,0,-1,965,799,0,0
-252,225,0,0,0,0,0,0,0,0,0,-1,972,799,0,0
-245,225,0,0,0,0,0,0,0,0,0,-1,979,799,0,0
-238,225,0,0,0,0,0,0,0,0,0,-1,986,799,0,0
-231,225,0,0,0,0,0,0,0,0,0,-1,993,799,0,0
-224,225,0,0,0,0,0,0,0,0,0,-1,1000,799,0,0
-217,225,0,0,0,0,0,0,0,0,0,-1,1007,799,0,0
-210,225,0,0,0,0,0,0,0,0,0,-1,1014,799,0,0
-203,225,0,0,0,0,0,0,0,0,0,-1,1021,799,0,0
-196,225,0,0,0,0,0,0,0,0,0,-1,1028,799,0,0
-189,225,0,0,0,0,0,0,0,0,0,-1,1035,799,0,0
-182,225,0,0,0,0,0,0,0,0,0,-1,1042,799,0,0
-175,225,0,0,0,0,0,0,0,0,0,-1,1049,799,0,0
-168,225,0,0,0,0,0,0,0,0,0,-1,1056,799,0,0
-161,225,0,0,0,0,0,0,0,0,0,-1,1063,799,0,0
-154,225,0,0,0,0,0,0,0,0,0,-1,1070,799,0,0
-147,225,0,0,0,0,0,0,0,0,0,-1,1077,799,0,0
-140,225,0,0,0,0,0,0,0,0,0,-1,1084,799,0,0
-133,225,0,0,0,0,0,0,0,0,0,-1,1091,799,0,0
-126,225,0,0,0,0,0,0,0,0,0,-1,1098,799,0,0
-119,225,0,0,0,0,0,0,0,0,0,-1,1105,799,0,0
-112,225,0,0,0,0,0,0,0,0,0,-1,1112,799,0,0
-105,225,0,0,0,0,0,0,0,0,0,-1,1119,799,0,0
-98,225,0,0,0,0,0,0,0,0,0,-1,1126,799,0,0
-91,225,0,0,0,0,0,0,0,0,0,-1,1133,799,0,0
-84,225,0,0,0,0,0,0,0,0,0,-1,1140,799,0,0
-77,225,0,0,0,0,0,0,0,0,0,-1,1147,799,0,0
-70,225,0,0,0,0,0,0,0,0,0,-1,1154,799,0,0
-63,225,0,0,0,0,0,0,0,0,0,-1,1161,799,0,0
-56,225,0,0,0,0,0,0,0,0,0,-1,1168,799,0,0
-49,225,0,0,0,0,0,0,0,0,0,-1,1175,799,0,0
-42,225,0,0,0,0,0,0,0,0,0,-1,1182,799,0,0
-35,225,0,0,0,0,0,0,0,0,0,-1,1189,799,0,0
-28,225,0,0,0,0,0,0,0,0,0,-1,1196,799,0,0
-21,225,0,0,0,0,0,0,0,0,0,-1,1203,799,0,0
-14,225,0,0,0,0,0,0,0,0,0,-1,1210,799,0,0
-7,225,0,0,0,0,0,0,0,0,0,-1,1217,799,0,0
0,225,0,0,0,0,0,0,0,0,0,-1,1224,799,0,0
7,225,0,0,0,0,0,0,0,0,0,-1,1231,799,0,0
14,225,0,0,0,0,0,0,0,0,0,-1,1238,799,0,0
21,225,0,0,0,0,0,0,0,0,0,-1,1245,799,0,0
28,225,0,0,0,0,0,0,0,0,0,-1,1252,799,0,0
35,225,0,0,0,0,0,0,0,0,0,-1,1259,799,0,0
42,225,0,0,0,0,0,0,0,0,0,-1,1266,799,0,0
49,225,0,0,0,0,0,0,0,0,0,-1,1273,799,0,0
56,225,0,0,0,0,0,0,0,0,0,-1,1280,799,0,0
63,225,0,0,0,0,0,0,0,0,0,-1,1287,799,0,0
70,225,0,0,0,0,0,0,0,0,0,-1,1294,799,0,0
77,225,0,0,0,0,0,0,0,0,0,-1,1301,799,0,0
84,225,0,0,0,0,0,0,0,0,0,-1,1308,799,0,0
91,225,0,0,0,0,0,0,0,0,0,-1,1315,799,0,0
98,225,0,0,0,0,0,0,0,0,0,-1,1322,799,0,0
105,225,0,0,0,0,0,0,0,0,0,-1,1329,799,0,0
112,225,0,0,0,0,0,0,0,0,0,-1,1336,799,0,0
119,225,0,0,0,0,0,0,0,0,0,-1,1343,799,0,0
126,225,0,0,0,0,0,0,0,0,0,-1,1350,799,0,0
133,225,0,0,0,0,0,0,0,0,0,-1,1357,799,0,0
140,225,0,0,0,0,0,0,0,0,0,-1,1364,799,0,0
147,225,0,0,0,0,0,0,0,0,0,-1,1371,799,0,0
154,225,0,0,0,0,0,0,0,0,0,-1,1378,799,0,0
161,225,0,0,0,0,0,0,0,0,0,-1,1385,799,0,0
168,225,0,0,0,0,0,0,0,0,0,-1,1392,799,0,0
175,225,0,0,0,0,0,0,0,0,0,-1,1399,799,0,0
182,225,0,0,0,0,0,0,0,0,0,-1,1406,799,0,0
189,225,0,0,0,0,0,0,0,0,0,-1,1413,799,0,0
196,225,0,0,0,0,0,0,0,0,0,-1,1420,799,0,0
203,225,0,0,0,0,0,0,0,0,0,-1,1427,799,0,0
210,225,0,0,0,0,0,0,0,0,0,-1,1434,799,0,0
217,225,0,0,0,0,0,0,0,0,0,-1,1441,799,0,0
224,225,0,0,0,0,0,0,0,0,0,-1,1448,799,0,0
231,225,0,0,0,0,0,0,0,0,0,-1,1455,799,0,0
238,225,0,0,0,0,0,0,0,0,0,-1,1462,799,0,0
245,225,0,0,0,0,0,0,0,0,0,-1,1469,799,0,0
252,225,0,0,0,0,0,0,0,0,0,-1,1476,799,0,0
259,225,0,0,0,0,0,0,0,0,0,-1,1483,799,0,0
266,225,0,0,0,0,0,0,0,0,0,-1,1490,799,0,0
273,225,0,0,0,0,0,0,0,0,0,-1,1497,799,0,0
280,225,0,0,0,0,0,0,0,0,0,-1,1504,799,0,0
287,225,0,0,0,0,0,0,0,0,0,-1,1511,799,0,0
294,225,0,0,0,0,0,0,0,0,0,-1,1518,799,0,0
301,225,0,0,0,0,0,0,0,0,0,-1,1525,799,0,0
308,225,0,0,0,0,0,0,0,0,0,-1,1532,799,0,0
315,225,0,0,0,0,0,0,0,0,0,-1,1539,799,0,0
322,225,0,0,0,0,0,0,0,0,0,-1,1546,799,0,0
329,225,0,0,0,0,0,0,0,0,0,-1,1553,799,0,0
336,225,0,0,0,0,0,0,0,0,0,-1,1560,799,0,0
343,225,0,0,0,0,0,0,0,0,0,-1,1567,799,0,0
350,225,0,0,0,0,0,0,0,0,0,-1,1574,799,0,0
357,225,0,0,0,0,0,0,0,0,0,-1,1581,799,0,0
364,225,0,0,0,0,0,0,0,0,0,-1,1588,799,0,0
371,225,0,0,0,0,0,0,0,0,0,-1,1595,799,0,0
378,225,0,0,0,0,0,0,0,0,0,-1,1602,799,0,0
385,225,0,0,0,0,0,0,0,0,0,-1,1609,799,0,0
392,225,0,0,0,0,0,0,0,0,0,-1,1616,799,0,0
399,225,0,0,0,0,0,0,0,0,0,-1,1623,799,0,0
406,225,0,0,0,0,0,0,0,0,0,-1,1630,799,0,0
413,225,0,0,0,0,0,0,0,0,0,-1,1637,799,0,0
420,225,0,0,0,0,0,0,0,0,0,-1,1644,799,0,0
427,225,0,0,0,0,0,0,0,0,0,-1,1651,799,0,0
434,225,0,0,0,0,0,0,0,0,0,-1,1658,799,0,0
441,225,0,0,0,0,0,0,0,0,0,-1,1665,799,0,0
448,225,0,0,0,0,0,0,0,0,0,-1,1672,799,0,0
455,225,0,0,0,0,0,0,0,0,0,-1,1679,799,0,0
462,225,0,0,0,0,0,0,0,0,0,-1,1686,799,0,0
469,225,0,0,0,0,0,0,0,0,0,-1,1693,799,0,0
476,225,0,0,0,0,0,0,0,0,0,-1,1700,799,0,0
483,225,0,0,0,0,0,0,0,0,0,-1,1707,799,0,0
490,225,0,0,0,0,0,0,0,0,0,-1,1714,799,0,0
497,225,0,0,0,0,0,0,0,0,0,-1,1721,799,0,0
504,225,0,0,0,0,0,0,0,0,0,-1,1728,799,0,0
511,225,0,0,0,0,0,0,0,0,0,-1,1735,799,0,0
518,225,0,0,0,0,0,0,0,0,0,-1,1742,799,0,0
525,225,0,0,0,0,0,0,0,0,0,-1,1749,799,0,0
532,225,0,0,0,0,0,0,0,0,0,-1,1756,799,0,0
539,225,0,0,0,0,0,0,0,0,0,-1,1763,799,0,0
546,225,0,0,0,0,0,0,0,0,0,-1,1770,799,0,0
553,225,0,0,0,0,0,0,0,0,0,-1,1777,799,0,0
560,225,0,0,0,0,0,0,0,0,0,-1,1784,799,0,0
567,225,0,0,0,0,0,0,0,0,0,-1,1791,799,0,0
574,225,0,0,0,0,0,0,0,0,0,-1,1798,799,0,0
581,225,0,0,0,0,0,0,0,0,0,-1,1805,799,0,0
588,225,20.7902,3.05493,0.00776584,0.00380423,-0.00220678,0.00875041,0.00281966,-0.419654,0.00515739,0.0364275,1812,799,20.7901,-3.05494
595,225,20.8545,2.67932,0.00427815,0.00374074,-0.00169879,0.00572936,0.00228953,-0.70696,0.00333,0.0361484,1819,799,20.8545,-2.67934
602,225,20.8973,2.63806,0.000548397,0.00387789,-0.00110244,0.00420983,0.000216455,-1.27833,0.00273726,0.0346654,1826,799,20.8973,-2.63808
609,225,20.8999,2.77271,-0.00162777,0.00315975,-0.00117727,0.00343359,-0.0019016,-1.34226,0.00312232,0.0330091,1833,799,20.8999,-2.77271
616,225,20.817,2.88226,-0.00300495,0.00230823,-0.00153125,0.00271794,-0.00341465,-1.30936,0.00354826,0.0364339,1840,799,20.8171,-2.88227
623,225,20.7059,2.95929,-0.00364373,0.00145817,-0.00180397,0.00203159,-0.00421714,-1.26303,0.00368053,0.0363916,1847,799,20.7059,-2.95926
630,225,20.5255,3.11188,-0.00368151,0.000624422,-0.00208002,0.00146507,-0.00452216,-1.18671,0.0036038,0.0406543,1854,799,20.5255,-3.11186
637,225,20.3176,3.29248,-0.00334437,8.9178e-05,-0.00234725,0.00128048,-0.00453567,-1.10114,0.00352892,0.0439462,1861,799,20.3176,-3.29249
644,225,15.3593,2.72437,0,0,0,0,0,0,0,-1,1868,799,15.3593,-2.72439
651,225,15.6768,2.28613,-0.00252674,-0.000577209,-0.00250537,0.00113634,-0.00424029,-0.970922,0.00327209,0.0417313,1875,799,15.6767,-2.28614
658,225,16.0035,1.67737,-0.00194481,-0.000783758,-0.00268223,0.00138004,-0.00410862,-0.891972,0.00329682,0.0377957,1882,799,16.0035,-1.67737
665,225,15.7888,1.72772,-0.00106829,-0.0010095,-0.0027101,0.00167136,-0.00374915,-0.790822,0.00320526,0.0146613,1889,799,15.7888,-1.72774
672,225,15.7338,1.99786,-0.000310805,-0.00124241,-0.0025624,0.00182778,-0.003381,-0.695488,0.00305153,0.0168996,1896,799,15.7337,-1.99789
679,225,15.7543,2.23328,0.000495759,-0.000932508,-0.00252723,0.00240781,-0.00284456,-0.6477,0.00303595,0.0174072,1903,799,15.7543,-2.23327
686,225,15.7474,2.45313,0.00106059,-0.000997473,-0.00219577,0.00245649,-0.00239337,-0.566273,0.00280015,0.0115198,1910,799,15.7475,-2.45311
693,225,15.7384,2.6521,0.00102993,-0.000957393,-0.00187115,0.0021549,-0.00208236,-0.541312,0.0024465,0.0104321,1917,799,15.7383,-2.65209
700,225,15.7666,2.84296,0.000528084,-0.000685483,-0.00178922,0.00181061,-0.00196801,-0.621918,0.00218222,0.0114904,1924,799,15.7666,-2.84296
707,225,15.7578,3.05664,-0.000648087,-0.000582929,-0.00150342,0.00088826,-0.00211928,-0.796232,0.00178423,0.0115225,1931,799,15.7578,-3.05667
714,225,15.7505,3.27295,-0.00187879,-0.0009603,-0.00148243,0.000132387,-0.00297148,-0.935607,0.00202656,0.0122932,1938,799,15.7505,-3.27292
721,225,15.778,3.4668,-0.00334451,-0.00155748,-0.00159836,-0.000619839,-0.00428215,-1.04027,0.00267223,0.013774,1945,799,15.778,-3.4668
728,225,15.7367,3.64685,-0.0056484,-0.00243741,-0.00161154,-0.00176812,-0.00631769,-1.17716,0.00376351,0.0233097,1952,799,15.7367,-3.64685
735,225,17.4426,4.28308,0,0,0,0,0,0,0,-1,1959,799,17.4426,-4.2831
742,225,17.434,4.22186,0,0,0,0,0,0,0,-1,1966,799,17.4339,-4.22189
749,225,17.2346,3.9436,0,0,0,0,0,0,0,-1,1973,799,17.2346,-3.94358
756,225,16.7743,3.74072,-0.0277796,-0.0100452,0.00118272,-0.00996671,-0.0278582,1.5045,0.0162994,0.0464896,1980,799,16.7742,-3.74075
763,225,16.3131,3.45245,-0.0373372,-0.0126859,0.00308278,-0.0123062,-0.0377169,1.44826,0.0222097,0.0440899,1987,799,16.3132,-3.45243
770,225,0,0,0,0,0,0,0,0,0,-1,1994,799,0,0
777,225,0,0,0,0,0,0,0,0,0,-1,2001,799,0,0
784,225,0,0,0,0,0,0,0,0,0,-1,2008,799,0,0
791,225,0,0,0,0,0,0,0,0,0,-1,2015,799,0,0
798,225,0,0,0,0,0,0,0,0,0,-1,2022,799,0,0
805,225,0,0,0,0,0,0,0,0,0,-1,2029,799,0,0
812,225,0,0,0,0,0,0,0,0,0,-1,2036,799,0,0
-700,218,0,0,0,0,0,0,0,0,0,-1,524,806,0,0
-693,218,0,0,0,0,0,0,0,0,0,-1,531,806,0,0
-686,218,0,0,0,0,0,0,0,0,0,-1,538,806,0,0
-679,218,0,0,0,0,0,0,0,0,0,-1,545,806,0,0
-672,218,0,0,0,0,0,0,0,0,0,-1,552,806,0,0
-665,218,0,0,0,0,0,0,0,0,0,-1,559,806,0,0
-658,218,0,0,0,0,0,0,0,0,0,-1,566,806,0,0
-651,218,-15.6638,7.11768,0,0,0,0,0,0,0,-1,573,806,-15.6638,-7.11765
-644,218,-15.3438,6.8504,0,0,0,0,0,0,0,-1,580,806,-15.3438,-6.8504
-637,218,-15.4128,6.56738,0,0,0,0,0,0,0,-1,587,806,-15.4129,-6.56737
-630,218,-8.66321,2.49872,0,0,0,0,0,0,0,-1,594,806,-8.66319,-2.49874
-623,218,-8.75024,2.44739,0,0,0,0,0,0,0,-1,601,806,-8.75026,-2.44741
-616,218,-8.74493,1.98669,0,0,0,0,0,0,0,-1,608,806,-8.74492,-1.9867
-609,218,-9.17139,1.72723,0.00950001,0.0143823,-0.00100673,0.0145818,0.00930057,-1.37522,0.00852473,0.0472309,615,806,-9.1714,-1.72722
-602,218,-9.49042,1.56305,0.00783875,0.00825168,0.00120233,0.00926515,0.00682529,0.87043,0.00554538,0.0377598,622,806,-9.49043,-1.56305
-595,218,-9.59717,1.34406,0.00654123,0.00298195,0.00337557,0.00857756,0.000945626,0.542809,0.00543068,0.0162746,629,806,-9.59715,-1.34406
-588,218,-9.56317,1.17072,0.00520099,8.60956e-05,0.0037576,0.00718888,-0.00190179,0.486602,0.00553649,0.0103601,636,806,-9.56318,-1.17071
-581,218,-9.55328,0.996216,0.0038261,0.000231303,0.00259916,0.00518881,-0.0011314,0.482888,0.00389155,0.0100524,643,806,-9.55325,-0.996235
-574,218,-9.55511,0.792603,0.00244987,0.00029436,0.00193716,0.0035889,-0.000844668,0.531541,0.00271826,0.00951092,650,806,-9.55514,-0.792621
-567,218,-9.54388,0.575256,0.00140706,0.000107832,0.00169282,0.00257063,-0.00105574,0.602189,0.00215372,0.0157018,657,806,-9.54388,-0.575228
-560,218,-9.55859,0.391541,0.000169749,0.000785458,0.00125264,0.00176751,-0.000812307,0.905893,0.00152311,0.0160024,664,806,-9.5586,-0.391556
-553,218,-9.57147,0.170044,-0.00127112,0.00183258,0.000893615,0.00207148,-0.00151002,1.30956,0.00207623,0.0162197,671,806,-9.57149,-0.170039
-546,218,-9.58911,-0.0273438,-0.00283519,0.00271397,0.000747251,0.00281284,-0.00293405,1.43926,0.00331821,0.0135762,678,806,-9.58911,0.0273168
-539,218,-9.59052,-0.240295,-0.0042497,0.00368562,0.000469451,0.0037133,-0.00427737,1.51191,0.00461725,0.0188659,685,806,-9.59049,0.240319
-532,218,-9.5918,-0.346191,-0.00517592,0.00469855,0.000100621,0.00469958,-0.00517695,1.56061,0.00570444,0.0221878,692,806,-9.59181,0.34617
-525,218,-9.65503,-0.417114,0,0,0,0,0,0,0,-1,699,806,-9.65502,0.417084
-518,218,-12.1176,3.77789,0,0,0,0,0,0,0,-1,706,806,-12.1176,-3.77791
-511,218,-12.5084,2.93616,-0.00671035,0.00807466,-0.00145823,0.00821711,-0.0068528,-1.47342,0.00871249,0.0431566,713,806,-12.5084,-2.93613
-504,218,-12.6824,1.78351,-0.00675662,0.00896349,-0.00203787,0.00922337,-0.0070165,-1.44395,0.00940491,0.0447347,720,806,-12.6824,-1.78349
-497,218,-13.5767,1.03156,0,0,0,0,0,0,0,-1,727,806,-13.5767,-1.03154
-490,218,-13.616,0.963623,-0.00526145,0.009332,-0.00321113,0.0100073,-0.00593677,-1.36351,0.00930479,0.0390206,734,806,-13.616,-0.963642
-483,218,-13.6268,0.91626,-0.00314698,0.00846943,-0.00374399,0.00957156,-0.00424911,-1.28451,0.00817422,0.0347992,741,806,-13.6268,-0.91624
-476,218,-13.4821,0.980591,-4.7011e-06,0.00639742,-0.00391301,0.0082519,-0.00185918,-1.12823,0.00621439,0.0361576,748,806,-13.4821,-0.980596
-469,218,0,0,0,0,0,0,0,0,0,-1,755,806,0,0
-462,218,0,0,0,0,0,0,0,0,0,-1,762,806,0,0
-455,218,0,0,0,0,0,0,0,0,0,-1,769,806,0,0
-448,218,0,0,0,0,0,0,0,0,0,-1,776,806,0,0
-441,218,0,0,0,0,0,0,0,0,0,-1,783,806,0,0
-434,218,0,0,0,0,0,0,0,0,0,-1,790,806,0,0
-427,218,0,0,0,0,0,0,0,0,0,-1,797,806,0,0
-420,218,0,0,0,0,0,0,0,0,0,-1,804,806,0,0
-413,218,0,0,0,0,0,0,0,0,0,-1,811,806,0,0
-406,218,0,0,0,0,0,0,0,0,0,-1,818,806,0,0
-399,218,0,0,0,0,0,0,0,0,0,-1,825,806,0,0
-392,218,0,0,0,0,0,0,0,0,0,-1,832,806,0,0
-385,218,0,0,0,0,0,0,0,0,0,-1,839,806,0,0
-378,218,0,0,0,0,0,0,0,0,0,-1,846,806,0,0
-371,218,0,0,0,0,0,0,0,0,0,-1,853,806,0,0
-364,218,0,0,0,0,0,0,0,0,0,-1,860,806,0,0
-357,218,0,0,0,0,0,0,0,0,0,-1,867,806,0,0
-350,218,0,0,0,0,0,0,0,0,0,-1,874,806,0,0
-343,218,0,0,0,0,0,0,0,0,0,-1,881,806,0,0
-336,218,0,0,0,0,0,0,0,0,0,-1,888,806,0,0
-329,218,0,0,0,0,0,0,0,0,0,-1,895,806,0,0
-322,218,0,0,0,0,0,0,0,0,0,-1,902,806,0,0
-315,218,0,0,0,0,0,0,0,0,0,-1,909,806,0,0
-308,218,0,0,0,0,0,0,0,0,0,-1,916,806,0,0
-301,218,0,0,0,0,0,0,0,0,0,-1,923,806,0,0
-294,218,0,0,0,0,0,0,0,0,0,-1,930,806,0,0
-287,218,0,0,0,0,0,0,0,0,0,-1,937,806,0,0
-280,218,0,0,0,0,0,0,0,0,0,-1,944,806,0,0
-273,218,0,0,0,0,0,0,0,0,0,-1,951,806,0,0
-266,218,0,0,0,0,0,0,0,0,0,-1,958,806,0,0
-259,218,0,0,0,0,0,0,0,0,0,-1,965,806,0,0
-252,218,0,0,0,0,0,0,0,0,0,-1,972,806,0,0
-245,218,0,0,0,0,0,0,0,0,0,-1,979,806,0,0
-238,218,0,0,0,0,0,0,0,0,0,-1,986,806,0,0
-231,218,0,0,0,0,0,0,0,0,0,-1,993,806,0,0
-224,218,0,0,0,0,0,0,0,0,0,-1,1000,806,0,0
-217,218,0,0,0,0,0,0,0,0,0,-1,1007,806,0,0
-210,218,0,0,0,0,0,0,0,0,0,-1,1014,806,0,0
-203,218,0,0,0,0,0,0,0,0,0,-1,1021,806,0,0
-196,218,0,0,0,0,0,0,0,0,0,-1,1028,806,0,0
-189,218,0,0,0,0,0,0,0,0,0,-1,1035,806,0,0
-182,218,0,0,0,0,0,0,0,0,0,-1,1042,806,0,0
-175,218,0,0,0,0,0,0,0,0,0,-1,1049,806,0,0
-168,218,0,0,0,0,0,0,0,0,0,-1,1056,806,0,0
-161,218,0,0,0,0,0,0,0,0,0,-1,1063,806,0,0
-154,218,0,0,0,0,0,0,0,0,0,-1,1070,806,0,0
-147,218,0,0,0,0,0,0,0,0,0,-1,1077,806,0,0
-140,218,0,0,0,0,0,0,0,0,0,-1,1084,806,0,0
-133,218,0,0,0,0,0,0,0,0,0,-1,1091,806,0,0
-126,218,0,0,0,0,0,0,0,0,0,-1,1098,806,0,0
-119,218,0,0,0,0,0,0,0,0,0,-1,1105,806,0,0
-112,218,0,0,0,0,0,0,0,0,0,-1,1112,806,0,0
-105,218,0,0,0,0,0,0,0,0,0,-1,1119,806,0,0
-98,218,0,0,0,0,0,0,0,0,0,-1,1126,806,0,0
-91,218,0,0,0,0,0,0,0,0,0,-1,1133,806,0,0
-84,218,0,0,0,0,0,0,0,0,0,-1,1140,806,0,0
-77,218,0,0,0,0,0,0,0,0,0,-1,1147,806,0,0
-70,218,0,0,0,0,0,0,0,0,0,-1,1154,806,0,0
-63,218,0,0,0,0,0,0,0,0,0,-1,1161,806,0,0
-56,218,0,0,0,0,0,0,0,0,0,-1,1168,806,0,0
-49,218,0,0,0,0,0,0,0,0,0,-1,1175,806,0,0
-42,218,0,0,0,0,0,0,0,0,0,-1,1182,806,0,0
-35,218,0,0,0,0,0,0,0,0,0,-1,1189,806,0,0
-28,218,0,0,0,0,0,0,0,0,0,-1,1196,806,0,0
-21,218,0,0,0,0,0,0,0,0,0,-1,1203,806,0,0
-14,218,0,0,0,0,0,0,0,0,0,-1,1210,806,0,0
-7,218,0,0,0,0,0,0,0,0,0,-1,1217,806,0,0
0,218,0,0,0,0,0,0,0,0,0,-1,1224,806,0,0
7,218,0,0,0,0,0,0,0,0,0,-1,1231,806,0,0
14,218,0,0,0,0,0,0,0,0,0,-1,1238,806,0,0
21,218,0,0,0,0,0,0,0,0,0,-1,1245,806,0,0
28,218,0,0,0,0,0,0,0,0,0,-1,1252,806,0,0
35,218,0,0,0,0,0,0,0,0,0,-1,1259,806,0,0
42,218,0,0,0,0,0,0,0,0,0,-1,1266,806,0,0
49,218,0,0,0,0,0,0,0,0,0,-1,1273,806,0,0
56,218,0,0,0,0,0,0,0,0,0,-1,1280,806,0,0
63,218,0,0,0,0,0,0,0,0,0,-1,1287,806,0,0
70,218,0,0,0,0,0,0,0,0,0,-1,1294,806,0,0
77,218,0,0,0,0,0,0,0,0,0,-1,1301,806,0,0
84,218,0,0,0,0,0,0,0,0,0,-1,1308,806,0,0
91,218,0,0,0,0,0,0,0,0,0,-1,1315,806,0,0
98,218,0,0,0,0,0,0,0,0,0,-1,1322,806,0,0
105,218,0,0,0,0,0,0,0,0,0,-1,1329,806,0,0
112,218,0,0,0,0,0,0,0,0,0,-1,1336,806,0,0
119,218,0,0,0,0,0,0,0,0,0,-1,1343,806,0,0
126,218,0,0,0,0,0,0,0,0,0,-1,1350,806,0,0
133,218,0,0,0,0,0,0,0,0,0,-1,1357,806,0,0
140,218,0,0,0,0,0,0,0,0,0,-1,1364,806,0,0
147,218,0,0,0,0,0,0,0,0,0,-1,1371,806,0,0
154,218,0,0,0,0,0,0,0,0,0,-1,1378,806,0,0
161,218,0,0,0,0,0,0,0,0,0,-1,1385,806,0,0
168,218,0,0,0,0,0,0,0,0,0,-1,1392,806,0,0
175,218,0,0,0,0,0,0,0,0,0,-1,1399,806,0,0
182,218,0,0,0,0,0,0,0,0,0,-1,1406,806,0,0
189,218,0,0,0,0,0,0,0,0,0,-1,1413,806,0,0
196,218,0,0,0,0,0,0,0,0,0,-1,1420,806,0,0
203,218,0,0,0,0,0,0,0,0,0,-1,1427,806,0,0
210,218,0,0,0,0,0,0,0,0,0,-1,1434,806,0,0
217,218,0,0,0,0,0,0,0,0,0,-1,1441,806,0,0
224,218,0,0,0,0,0,0,0,0,0,-1,1448,806,0,0
231,218,0,0,0,0,0,0,0,0,0,-1,1455,806,0,0
238,218,0,0,0,0,0,0,0,0,0,-1,1462,806,0,0
245,218,0,0,0,0,0,0,0,0,0,-1,1469,806,0,0
252,218,0,0,0,0,0,0,0,0,0,-1,1476,806,0,0
259,218,0,0,0,0,0,0,0,0,0,-1,1483,806,0,0
266,218,0,0,0,0,0,0,0,0,0,-1,1490,806,0,0
273,218,0,0,0,0,0,0,0,0,0,-1,1497,806,0,0
280,218,0,0,0,0,0,0,0,0,0,-1,1504,806,0,0
287,218,0,0,0,0,0,0,0,0,0,-1,1511,806,0,0
294,218,0,0,0,0,0,0,0,0,0,-1,1518,806,0,0
301,218,0,0,0,0,0,0,0,0,0,-1,1525,806,0,0
308,218,0,0,0,0,0,0,0,0,0,-1,1532,806,0,0
315,218,0,0,0,0,0,0,0,0,0,-1,1539,806,0,0
322,218,0,0,0,0,0,0,0,0,0,-1,1546,806,0,0
329,218,0,0,0,0,0,0,0,0,0,-1,1553,806,0,0
336,218,0,0,0,0,0,0,0,0,0,-1,1560,806,0,0
343,218,0,0,0,0,0,0,0,0,0,-1,1567,806,0,0
350,218,0,0,0,0,0,0,0,0,0,-1,1574,806,0,0
357,218,0,0,0,0,0,0,0,0,0,-1,1581,806,0,0
364,218,0,0,0,0,0,0,0,0,0,-1,1588,806,0,0
371,218,0,0,0,0,0,0,0,0,0,-1,1595,806,0,0
378,218,0,0,0,0,0,0,0,0,0,-1,1602,806,0,0
385,218,0,0,0,0,0,0,0,0,0,-1,1609,806,0,0
392,218,0,0,0,0,0,0,0,0,0,-1,1616,806,0,0
399,218,0,0,0,0,0,0,0,0,0,-1,1623,806,0,0
406,218,0,0,0,0,0,0,0,0,0,-1,1630,806,0,0
413,218,0,0,0,0,0,0,0,0,0,-1,1637,806,0,0
420,218,0,0,0,0,0,0,0,0,0,-1,1644,806,0,0
427,218,0,0,0,0,0,0,0,0,0,-1,1651,806,0,0
434,218,0,0,0,0,0,0,0,0,0,-1,1658,806,0,0
441,218,0,0,0,0,0,0,0,0,0,-1,1665,806,0,0
448,218,0,0,0,0,0,0,0,0,0,-1,1672,806,0,0
455,218,0,0,0,0,0,0,0,0,0,-1,1679,806,0,0
462,218,0,0,0,0,0,0,0,0,0,-1,1686,806,0,0
469,218,0,0,0,0,0,0,0,0,0,-1,1693,806,0,0
476,218,0,0,0,0,0,0,0,0,0,-1,1700,806,0,0
483,218,0,0,0,0,0,0,0,0,0,-1,1707,806,0,0
490,218,0,0,0,0,0,0,0,0,0,-1,1714,806,0,0
497,218,0,0,0,0,0,0,0,0,0,-1,1721,806,0,0
504,218,0,0,0,0,0,0,0,0,0,-1,1728,806,0,0
511,218,0,0,0,0,0,0,0,0,0,-1,1735,806,0,0
518,218,0,0,0,0,0,0,0,0,0,-1,1742,806,0,0
525,218,0,0,0,0,0,0,0,0,0,-1,1749,806,0,0
532,218,0,0,0,0,0,0,0,0,0,-1,1756,806,0,0
539,218,0,0,0,0,0,0,0,0,0,-1,1763,806,0,0
546,218,0,0,0,0,0,0,0,0,0,-1,1770,806,0,0
553,218,0,0,0,0,0,0,0,0,0,-1,1777,806,0,0
560,218,0,0,0,0,0,0,0,0,0,-1,1784,806,0,0
567,218,0,0,0,0,0,0,0,0,0,-1,1791,806,0,0
574,218,0,0,0,0,0,0,0,0,0,-1,1798,806,0,0
581,218,0,0,0,0,0,0,0,0,0,-1,1805,806,0,0
588,218,0,0,0,0,0,0,0,0,0,-1,1812,806,0,0
595,218,20.8163,2.70593,0.00622507,0.00103579,-0.00138163,0.00657,0.000690864,-0.244652,0.00416884,0.0362551,1819,806,20.8163,-2.70593
602,218,20.8765,2.70477,0.00173915,0.00242843,-0.000167099,0.00246681,0.00170078,-1.34507,0.0014579,0.0338884,1826,806,20.8764,-2.7048
609,218,20.8872,2.74481,-0.000751855,0.0024612,-3.2992e-05,0.00246154,-0.000752194,-1.56053,0.00194096,0.0301733,1833,806,20.8872,-2.74481
616,218,20.9611,2.77527,-0.00229683,0.00213467,-0.000446991,0.0021793,-0.00234146,-1.47127,0.00261062,0.0318909,1840,806,20.9611,-2.77525
623,218,20.9298,2.79968,-0.00301027,0.0016713,-0.000937074,0.0018519,-0.00319087,-1.3804,0.00294546,0.0359695,1847,806,20.9298,-2.7997
630,218,20.9095,2.81183,-0.00304874,0.00107652,-0.00141629,0.00151595,-0.00348817,-1.26994,0.00296298,0.0384773,1854,806,20.9096,-2.8118
637,218,20.6471,2.93262,-0.00269853,0.000644743,-0.00182744,0.00144978,-0.00350356,-1.15585,0.00294061,0.0425947,1861,806,20.6471,-2.9326
644,218,20.4408,3.10193,-0.00228608,0.000284271,-0.00199176,0.00136949,-0.0033713,-1.07191,0.00281726,0.0433162,1868,806,20.4408,-3.10193
651,218,15.9777,2.49554,0,0,0,0,0,0,0,-1,1875,806,15.9777,-2.49553
658,218,16.2115,1.63757,0,0,0,0,0,0,0,-1,1882,806,16.2115,-1.63755
665,218,16.1014,1.79022,-0.000646092,-0.000552202,-0.00241738,0.00181869,-0.00301698,-0.795107,0.0028203,0.0321844,1889,806,16.1014,-1.7902
672,218,16.0061,1.97748,-8.8526e-05,-0.000901211,-0.00229631,0.00183712,-0.00282686,-0.697828,0.00271288,0.0118906,1896,806,16.0061,-1.97747
679,218,16.0023,2.20563,0.000518011,-0.000744186,-0.00225275,0.00222639,-0.00245256,-0.648826,0.00270245,0.011245,1903,806,16.0023,-2.2056
686,218,15.99,2.42877,0.000979885,-0.000926397,-0.00193998,0.00218823,-0.00213474,-0.557061,0.00249593,0.0113998,1910,806,15.99,-2.42878
693,218,15.9763,2.64282,0.000961893,-0.00101243,-0.00164592,0.00189398,-0.00194452,-0.515275,0.00221622,0.0113405,1917,806,15.9764,-2.64282
700,218,15.9792,2.8396,0.000423457,-0.000854881,-0.00155835,0.00146862,-0.00190005,-0.590782,0.00195021,0.00919983,1924,806,15.9792,-2.83959
707,218,15.9644,3.04535,-0.000847765,-0.000761574,-0.00125057,0.000446639,-0.00205598,-0.802622,0.00154126,0.00738178,1931,806,15.9643,-3.04533
714,218,15.9768,3.255,-0.00207676,-0.00117917,-0.0011956,-0.000350914,-0.00290502,-0.964946,0.00183095,0.00928892,1938,806,15.9769,-3.25498
721,218,15.9954,3.46893,-0.00338329,-0.00184231,-0.00124691,-0.00114705,-0.00407856,-1.06214,0.00242872,0.012161,1945,806,15.9954,-3.46896
728,218,15.9822,3.67584,-0.00534675,-0.00282974,-0.00121797,-0.00233688,-0.00583961,-1.18628,0.00339382,0.0179623,1952,806,15.9822,-3.67582
735,218,16.0093,3.85291,-0.00823023,-0.00423771,-0.00107438,-0.00396696,-0.00850098,-1.32393,0.00491168,0.0341864,1959,806,16.0093,-3.85289
742,218,16.0593,3.77197,0,0,0,0,0,0,0,-1,1966,806,16.0593,-3.77197
749,218,15.9,3.75946,0,0,0,0,0,0,0,-1,1973,806,15.9001,-3.75945
756,218,16.1431,3.69281,-0.0232147,-0.0115017,0.00111853,-0.0113959,-0.0233206,1.47644,0.0134653,0.0475635,1980,806,16.1431,-3.69282
763,218,15.8397,3.4646,-0.0303628,-0.0149187,0.00272808,-0.014451,-0.0308306,1.401,0.0178116,0.0443454,1987,806,15.8397,-3.46463
770,218,0,0,0,0,0,0,0,0,0,-1,1994,806,0,0
777,218,0,0,0,0,0,0,0,0,0,-1,2001,806,0,0
784,218,0,0,0,0,0,0,0,0,0,-1,2008,806,0,0
791,218,0,0,0,0,0,0,0,0,0,-1,2015,806,0,0
798,218,0,0,0,0,0,0,0,0,0,-1,2022,806,0,0
805,218,0,0,0,0,0,0,0,0,0,-1,2029,806,0,0
812,218,0,0,0,0,0,0,0,0,0,-1,2036,806,0,0
-700,211,0,0,0,0,0,0,0,0,0,-1,524,813,0,0
-693,211,0,0,0,0,0,0,0,0,0,-1,531,813,0,0
-686,211,0,0,0,0,0,0,0,0,0,-1,538,813,0,0
-679,211,0,0,0,0,0,0,0,0,0,-1,545,813,0,0
-672,211,0,0,0,0,0,0,0,0,0,-1,552,813,0,0
-665,211,0,0,0,0,0,0,0,0,0,-1,559,813,0,0
-658,211,0,0,0,0,0,0,0,0,0,-1,566,813,0,0
-651,211,-15.1475,6.45148,0.0162905,0.103245,-0.0556963,0.130425,-0.0108888,-1.1168,0.0907973,0.0453261,573,813,-15.1475,-6.4515
-644,211,-15.0894,6.15564,0.0144506,0.0866277,-0.0436015,0.107138,-0.00606006,-1.1311,0.0735289,0.0445698,580,813,-15.0894,-6.15561
-637,211,-15.215,5.90277,0,0,0,0,0,0,0,-1,587,813,-15.2149,-5.90279
-630,211,-8.59265,2.95264,0,0,0,0,0,0,0,-1,594,813,-8.59265,-2.95261
-623,211,-8.7511,2.65265,0,0,0,0,0,0,0,-1,601,813,-8.75108,-2.65264
-616,211,-9.75787,1.92035,0,0,0,0,0,0,0,-1,608,813,-9.75786,-1.92038
-609,211,-9.71851,1.70587,0.00500228,0.0190697,-0.00487724,0.0205952,0.00347675,-1.26765,0.0127305,0.0397888,615,813,-9.71851,-1.70588
-602,211,-9.71112,1.4989,0.0039025,0.0114121,-0.00168206,0.0117717,0.00354296,-1.36021,0.00697356,0.0194788,622,813,-9.71112,-1.49887
-595,211,-9.77209,1.34094,0.0031506,0.0047665,0.00138016,0.00555781,0.00235929,1.05021,0.00322097,0.0100157,629,813,-9.7721,-1.34094
-588,211,-9.75879,1.17218,0.0025486,0.000864304,0.00247437,0.00432021,-0.000907305,0.621373,0.0032254,0.00977429,636,813,-9.75877,-1.17216
-581,211,-9.75604,0.997009,0.0019811,0.000517315,0.00180594,0.00319782,-0.000699409,0.592879,0.00239924,0.0109812,643,813,-9.75602,-0.997037
-574,211,-9.7652,0.785278,0.00125732,0.000329497,0.00154989,0.00241124,-0.000824419,0.639982,0.00194155,0.012812,650,813,-9.76517,-0.78525
-567,211,-9.77954,0.596741,0.00070089,0.000176577,0.00152715,0.00198822,-0.00111075,0.700395,0.00181294,0.0191541,657,813,-9.77953,-0.596757
-560,211,-9.75592,0.420837,-0.000246092,0.00106851,0.00113213,0.00172031,-0.000897895,1.04841,0.00153628,0.0203084,664,813,-9.75594,-0.420841
-553,211,-9.75232,0.197937,-0.00154723,0.0022753,0.000703999,0.00240083,-0.00167276,1.39434,0.00236438,0.0168299,671,813,-9.75231,-0.197934
-546,211,-9.82898,0.0698853,-0.00301756,0.00336823,0.000467051,0.0034022,-0.00305154,1.49817,0.00372791,0.021058,678,813,-9.82896,-0.0698698
-539,211,-9.79663,-0.163574,-0.00434712,0.00449019,7.92048e-05,0.0044909,-0.00434783,1.56183,0.00510326,0.0159942,685,813,-9.79664,0.163548
-532,211,-9.98926,-0.206055,-0.00525451,0.00560356,-0.000424524,0.00562013,-0.00527108,-1.53178,0.00628912,0.048248,692,813,-9.98926,0.20606
-525,211,-10.2626,-0.128174,0,0,0,0,0,0,0,-1,699,813,-10.2626,0.128181
-518,211,-13.2377,1.82996,0,0,0,0,0,0,0,-1,706,813,-13.2377,-1.82994
-511,211,-12.7377,2.44128,-0.00679853,0.00916222,-0.00251777,0.00954997,-0.00718628,-1.41799,0.00969475,0.0424641,713,813,-12.7377,-2.44131
-504,211,-13.1521,1.492,-0.00679457,0.00996728,-0.00331133,0.0105977,-0.00742501,-1.38266,0.010459,0.0463194,720,813,-13.1521,-1.49203
-497,211,-13.5892,0.994873,-0.00622,0.0102019,-0.00408936,0.0111639,-0.00718198,-1.33976,0.0106748,0.0477339,727,813,-13.5891,-0.994891
-490,211,-13.6411,0.970764,-0.0047723,0.00959085,-0.00476007,0.0110251,-0.0062066,-1.27813,0.0100776,0.0357194,734,813,-13.6411,-0.97079
-483,211,-13.6277,1.02759,-0.0021496,0.00785271,-0.00526675,0.0101145,-0.00441138,-1.16517,0.00859927,0.0332659,741,813,-13.6278,-1.02759
-476,211,-13.5587,1.08582,0.00158931,0.0041926,-0.0049512,0.00801039,-0.00222848,-0.913937,0.00621766,0.0368505,748,813,-13.5587,-1.0858
-469,211,0,0,0,0,0,0,0,0,0,-1,755,813,0,0
-462,211,0,0,0,0,0,0,0,0,0,-1,762,813,0,0
-455,211,0,0,0,0,0,0,0,0,0,-1,769,813,0,0
-448,211,0,0,0,0,0,0,0,0,0,-1,776,813,0,0
-441,211,0,0,0,0,0,0,0,0,0,-1,783,813,0,0
-434,211,0,0,0,0,0,0,0,0,0,-1,790,813,0,0
-427,211,0,0,0,0,0,0,0,0,0,-1,797,813,0,0
-420,211,0,0,0,0,0,0,0,0,0,-1,804,813,0,0
-413,211,0,0,0,0,0,0,0,0,0,-1,811,813,0,0
-406,211,0,0,0,0,0,0,0,0,0,-1,818,813,0,0
-399,211,0,0,0,0,0,0,0,0,0,-1,825,813,0,0
-392,211,0,0,0,0,0,0,0,0,0,-1,832,813,0,0
-385,211,0,0,0,0,0,0,0,0,0,-1,839,813,0,0
-378,211,0,0,0,0,0,0,0,0,0,-1,846,813,0,0
-371,211,0,0,0,0,0,0,0,0,0,-1,853,813,0,0
-364,211,0,0,0,0,0,0,0,0,0,-1,860,813,0,0
-357,211,0,0,0,0,0,0,0,0,0,-1,867,813,0,0
-350,211,0,0,0,0,0,0,0,0,0,-1,874,813,0,0
-343,211,0,0,0,0,0,0,0,0,0,-1,881,813,0,0
-336,211,0,0,0,0,0,0,0,0,0,-1,888,813,0,0
-329,211,0,0,0,0,0,0,0,0,0,-1,895,813,0,0
-322,211,0,0,0,0,0,0,0,0,0,-1,902,813,0,0
-315,211,0,0,0,0,0,0,0,0,0,-1,909,813,0,0
-308,211,0,0,0,0,0,0,0,0,0,-1,916,813,0,0
-301,211,0,0,0,0,0,0,0,0,0,-1,923,813,0,0
-294,211,0,0,0,0,0,0,0,0,0,-1,930,813,0,0
-287,211,0,0,0,0,0,0,0,0,0,-1,937,813,0,0
-280,211,0,0,0,0,0,0,0,0,0,-1,944,813,0,0
-273,211,0,0,0,0,0,0,0,0,0,-1,951,813,0,0
-266,211,0,0,0,0,0,0,0,0,0,-1,958,813,0,0
-259,211,0,0,0,0,0,0,0,0,0,-1,965,813,0,0
-252,211,0,0,0,0,0,0,0,0,0,-1,972,813,0,0
-245,211,0,0,0,0,0,0,0,0,0,-1,979,813,0,0
-238,211,0,0,0,0,0,0,0,0,0,-1,986,813,0,0
-231,211,0,0,0,0,0,0,0,0,0,-1,993,813,0,0
-224,211,0,0,0,0,0,0,0,0,0,-1,1000,813,0,0
-217,211,0,0,0,0,0,0,0,0,0,-1,1007,813,0,0
-210,211,0,0,0,0,0,0,0,0,0,-1,1014,813,0,0
-203,211,0,0,0,0,0,0,0,0,0,-1,1021,813,0,0
-196,211,0,0,0,0,0,0,0,0,0,-1,1028,813,0,0
-189,211,0,0,0,0,0,0,0,0,0,-1,1035,813,0,0
-182,211,0,0,0,0,0,0,0,0,0,-1,1042,813,0,0
-175,211,0,0,0,0,0,0,0,0,0,-1,1049,813,0,0
-168,211,0,0,0,0,0,0,0,0,0,-1,1056,813,0,0
-161,211,0,0,0,0,0,0,0,0,0,-1,1063,813,0,0
-154,211,0,0,0,0,0,0,0,0,0,-1,1070,813,0,0
-147,211,0,0,0,0,0,0,0,0,0,-1,1077,813,0,0
-140,211,0,0,0,0,0,0,0,0,0,-1,1084,813,0,0
-133,211,0,0,0,0,0,0,0,0,0,-1,1091,813,0,0
-126,211,0,0,0,0,0,0,0,0,0,-1,1098,813,0,0
-119,211,0,0,0,0,0,0,0,0,0,-1,1105,813,0,0
-112,211,0,0,0,0,0,0,0,0,0,-1,1112,813,0,0
-105,211,0,0,0,0,0,0,0,0,0,-1,1119,813,0,0
-98,211,0,0,0,0,0,0,0,0,0,-1,1126,813,0,0
-91,211,0,0,0,0,0,0,0,0,0,-1,1133,813,0,0
-84,211,0,0,0,0,0,0,0,0,0,-1,1140,813,0,0
-77,211,0,0,0,0,0,0,0,0,0,-1,1147,813,0,0
-70,211,0,0,0,0,0,0,0,0,0,-1,1154,813,0,0
-63,211,0,0,0,0,0,0,0,0,0,-1,1161,813,0,0
-56,211,0,0,0,0,0,0,0,0,0,-1,1168,813,0,0
-49,211,0,0,0,0,0,0,0,0,0,-1,1175,813,0,0
-42,211,0,0,0,0,0,0,0,0,0,-1,1182,813,0,0
-35,211,0,0,0,0,0,0,0,0,0,-1,1189,813,0,0
-28,211,0,0,0,0,0,0,0,0,0,-1,1196,813,0,0
-21,211,0,0,0,0,0,0,0,0,0,-1,1203,813,0,0
-14,211,0,0,0,0,0,0,0,0,0,-1,1210,813,0,0
-7,211,0,0,0,0,0,0,0,0,0,-1,1217,813,0,0
0,211,0,0,0,0,0,0,0,0,0,-1,1224,813,0,0
7,211,0,0,0,0,0,0,0,0,0,-1,1231,813,0,0
14,211,0,0,0,0,0,0,0,0,0,-1,1238,813,0,0
21,211,0,0,0,0,0,0,0,0,0,-1,1245,813,0,0
28,211,0,0,0,0,0,0,0,0,0,-1,1252,813,0,0
35,211,0,0,0,0,0,0,0,0,0,-1,1259,813,0,0
42,211,0,0,0,0,0,0,0,0,0,-1,1266,813,0,0
49,211,0,0,0,0,0,0,0,0,0,-1,1273,813,0,0
56,211,0,0,0,0,0,0,0,0,0,-1,1280,813,0,0
63,211,0,0,0,0,0,0,0,0,0,-1,1287,813,0,0
70,211,0,0,0,0,0,0,0,0,0,-1,1294,813,0,0
77,211,0,0,0,0,0,0,0,0,0,-1,1301,813,0,0
84,211,0,0,0,0,0,0,0,0,0,-1,1308,813,0,0
91,211,0,0,0,0,0,0,0,0,0,-1,1315,813,0,0
98,211,0,0,0,0,0,0,0,0,0,-1,1322,813,0,0
105,211,0,0,0,0,0,0,0,0,0,-1,1329,813,0,0
112,211,0,0,0,0,0,0,0,0,0,-1,1336,813,0,0
119,211,0,0,0,0,0,0,0,0,0,-1,1343,813,0,0
126,211,0,0,0,0,0,0,0,0,0,-1,1350,813,0,0
133,211,0,0,0,0,0,0,0,0,0,-1,1357,813,0,0
140,211,0,0,0,0,0,0,0,0,0,-1,1364,813,0,0
147,211,0,0,0,0,0,0,0,0,0,-1,1371,813,0,0
154,211,0,0,0,0,0,0,0,0,0,-1,1378,813,0,0
161,211,0,0,0,0,0,0,0,0,0,-1,1385,813,0,0
168,211,0,0,0,0,0,0,0,0,0,-1,1392,813,0,0
175,211,0,0,0,0,0,0,0,0,0,-1,1399,813,0,0
182,211,0,0,0,0,0,0,0,0,0,-1,1406,813,0,0
189,211,0,0,0,0,0,0,0,0,0,-1,1413,813,0,0
196,211,0,0,0,0,0,0,0,0,0,-1,1420,813,0,0
203,211,0,0,0,0,0,0,0,0,0,-1,1427,813,0,0
210,211,0,0,0,0,0,0,0,0,0,-1,1434,813,0,0
217,211,0,0,0,0,0,0,0,0,0,-1,1441,813,0,0
224,211,0,0,0,0,0,0,0,0,0,-1,1448,813,0,0
231,211,0,0,0,0,0,0,0,0,0,-1,1455,813,0,0
238,211,0,0,0,0,0,0,0,0,0,-1,1462,813,0,0
245,211,0,0,0,0,0,0,0,0,0,-1,1469,813,0,0
252,211,0,0,0,0,0,0,0,0,0,-1,1476,813,0,0
259,211,0,0,0,0,0,0,0,0,0,-1,1483,813,0,0
266,211,0,0,0,0,0,0,0,0,0,-1,1490,813,0,0
273,211,0,0,0,0,0,0,0,0,0,-1,1497,813,0,0
280,211,0,0,0,0,0,0,0,0,0,-1,1504,813,0,0
287,211,0,0,0,0,0,0,0,0,0,-1,1511,813,0,0
294,211,0,0,0,0,0,0,0,0,0,-1,1518,813,0,0
301,211,0,0,0,0,0,0,0,0,0,-1,1525,813,0,0
308,211,0,0,0,0,0,0,0,0,0,-1,1532,813,0,0
315,211,0,0,0,0,0,0,0,0,0,-1,1539,813,0,0
322,211,0,0,0,0,0,0,0,0,0,-1,1546,813,0,0
329,211,0,0,0,0,0,0,0,0,0,-1,1553,813,0,0
336,211,0,0,0,0,0,0,0,0,0,-1,1560,813,0,0
343,211,0,0,0,0,0,0,0,0,0,-1,1567,813,0,0
350,211,0,0,0,0,0,0,0,0,0,-1,1574,813,0,0
357,211,0,0,0,0,0,0,0,0,0,-1,1581,813,0,0
364,211,0,0,0,0,0,0,0,0,0,-1,1588,813,0,0
371,211,0,0,0,0,0,0,0,0,0,-1,1595,813,0,0
378,211,0,0,0,0,0,0,0,0,0,-1,1602,813,0,0
385,211,0,0,0,0,0,0,0,0,0,-1,1609,813,0,0
392,211,0,0,0,0,0,0,0,0,0,-1,1616,813,0,0
399,211,0,0,0,0,0,0,0,0,0,-1,1623,813,0,0
406,211,0,0,0,0,0,0,0,0,0,-1,1630,813,0,0
413,211,0,0,0,0,0,0,0,0,0,-1,1637,813,0,0
420,211,0,0,0,0,0,0,0,0,0,-1,1644,813,0,0
427,211,0,0,0,0,0,0,0,0,0,-1,1651,813,0,0
434,211,0,0,0,0,0,0,0,0,0,-1,1658,813,0,0
441,211,0,0,0,0,0,0,0,0,0,-1,1665,813,0,0
448,211,0,0,0,0,0,0,0,0,0,-1,1672,813,0,0
455,211,0,0,0,0,0,0,0,0,0,-1,1679,813,0,0
462,211,0,0,0,0,0,0,0,0,0,-1,1686,813,0,0
469,211,0,0,0,0,0,0,0,0,0,-1,1693,813,0,0
476,211,0,0,0,0,0,0,0,0,0,-1,1700,813,0,0
483,211,0,0,0,0,0,0,0,0,0,-1,1707,813,0,0
490,211,0,0,0,0,0,0,0,0,0,-1,1714,813,0,0
497,211,0,0,0,0,0,0,0,0,0,-1,1721,813,0,0
504,211,0,0,0,0,0,0,0,0,0,-1,1728,813,0,0
511,211,0,0,0,0,0,0,0,0,0,-1,1735,813,0,0
518,211,0,0,0,0,0,0,0,0,0,-1,1742,813,0,0
525,211,0,0,0,0,0,0,0,0,0,-1,1749,813,0,0
532,211,0,0,0,0,0,0,0,0,0,-1,1756,813,0,0
539,211,0,0,0,0,0,0,0,0,0,-1,1763,813,0,0
546,211,0,0,0,0,0,0,0,0,0,-1,1770,813,0,0
553,211,0,0,0,0,0,0,0,0,0,-1,1777,813,0,0
560,211,0,0,0,0,0,0,0,0,0,-1,1784,813,0,0
567,211,0,0,0,0,0,0,0,0,0,-1,1791,813,0,0
574,211,0,0,0,0,0,0,0,0,0,-1,1798,813,0,0
581,211,0,0,0,0,0,0,0,0,0,-1,1805,813,0,0
588,211,0,0,0,0,0,0,0,0,0,-1,1812,813,0,0
595,211,20.8789,2.67938,0.0072039,-0.00159756,-0.00132187,0.00739814,-0.0017918,-0.1459,0.0056253,0.0389682,1819,813,20.8789,-2.67937
602,211,20.9574,2.63379,0.00193824,0.000896405,0.000365892,0.0020539,0.000780744,0.306167,0.00119713,0.0378512,1826,813,20.9574,-2.63379
609,211,20.8849,2.7088,-0.000744094,0.00163348,0.000769905,0.00186101,-0.00097163,1.28344,0.00166208,0.0372299,1833,813,20.8848,-2.70879
616,211,20.9631,2.78467,-0.00219578,0.00182499,0.000395248,0.00186347,-0.00223426,1.47373,0.00236905,0.0316733,1840,813,20.9632,-2.78465
623,211,20.9512,2.77637,-0.00278581,0.00175053,-0.000181541,0.00175779,-0.00279307,-1.53086,0.00265,0.0317957,1847,813,20.9512,-2.7764
630,211,20.9365,2.75488,-0.00268509,0.00139715,-0.000758304,0.00153346,-0.0028214,-1.39294,0.00255067,0.035846,1854,813,20.9365,-2.75488
637,211,20.9156,2.77899,-0.00224468,0.00104668,-0.00123281,0.00145723,-0.00265523,-1.24933,0.00240768,0.0396839,1861,813,20.9156,-2.77897
644,211,20.6471,2.98608,-0.00177241,0.000681605,-0.00144002,0.00134648,-0.00243729,-1.13825,0.00221461,0.038234,1868,813,20.6471,-2.98611
651,211,20.4552,3.44678,0,0,0,0,0,0,0,-1,1875,813,20.4552,-3.44675
658,211,15.4792,2.15845,0,0,0,0,0,0,0,-1,1882,813,15.4793,-2.15845
665,211,16.1904,1.84723,0,0,0,0,0,0,0,-1,1889,813,16.1904,-1.84724
672,211,16.1819,2.0105,0.000136493,-0.000590089,-0.00193936,0.00174629,-0.00219989,-0.692809,0.00228334,0.0184237,1896,813,16.1818,-2.01052
679,211,16.2115,2.20276,0.000535116,-0.000542195,-0.00192832,0.0019986,-0.00200568,-0.6492,0.00231187,0.0129125,1903,813,16.2116,-2.20274
686,211,16.2032,2.43835,0.000869286,-0.000774224,-0.00168968,0.00192644,-0.00183138,-0.559069,0.00216981,0.0114681,1910,813,16.2032,-2.43834
693,211,16.184,2.64142,0.000861753,-0.000966188,-0.00148446,0.00169105,-0.00179548,-0.509459,0.00201325,0.0107533,1917,813,16.1839,-2.6414
700,211,16.1366,2.83508,0.00032333,-0.000912183,-0.00144996,0.00128165,-0.0018705,-0.584018,0.00183045,0.0122061,1924,813,16.1365,-2.83508
707,211,16.1589,3.04791,-0.000965826,-0.000847565,-0.00120435,0.000299105,-0.0021125,-0.809927,0.00151789,0.0181047,1931,813,16.159,-3.04789
714,211,16.1863,3.26111,-0.00212844,-0.00126041,-0.00118999,-0.000427763,-0.00296109,-0.960265,0.00184805,0.0200845,1938,813,16.1863,-3.26111
721,211,16.2039,3.45813,-0.00320996,-0.00194426,-0.00122115,-0.00120172,-0.0039525,-1.02447,0.00233967,0.0148885,1945,813,16.2039,-3.45815
728,211,16.1781,3.66034,-0.00475609,-0.00300138,-0.0011643,-0.00242087,-0.00533659,-1.10828,0.0030855,0.0140421,1952,813,16.1781,-3.66033
735,211,16.1785,3.81854,-0.00703414,-0.00444796,-0.00103744,-0.00408323,-0.00739887,-1.23273,0.0042794,0.0246345,1959,813,16.1784,-3.81854
742,211,16.1785,3.87646,-0.0100341,-0.00647218,-0.000689447,-0.00634338,-0.0101629,-1.38612,0.00592753,0.0461907,1966,813,16.1785,-3.87649
749,211,16.0521,3.89075,-0.013705,-0.00911381,-2.94662e-05,-0.00911362,-0.0137052,-1.56438,0.00805497,0.0493321,1973,813,16.0521,-3.89076
756,211,15.9746,3.90485,-0.0179391,-0.0124314,0.00102824,-0.0122457,-0.0181248,1.39212,0.0106774,0.0489461,1980,813,15.9747,-3.90482
763,211,15.9191,3.94836,0,0,0,0,0,0,0,-1,1987,813,15.919,-3.94836
770,211,17.2487,3.47461,0,0,0,0,0,0,0,-1,1994,813,17.2486,-3.47463
777,211,0,0,0,0,0,0,0,0,0,-1,2001,813,0,0
784,211,0,0,0,0,0,0,0,0,0,-1,2008,813,0,0
791,211,0,0,0,0,0,0,0,0,0,-1,2015,813,0,0
798,211,0,0,0,0,0,0,0,0,0,-1,2022,813,0,0
805,211,0,0,0,0,0,0,0,0,0,-1,2029,813,0,0
812,211,0,0,0,0,0,0,0,0,0,-1,2036,813,0,0
-700,204,0,0,0,0,0,0,0,0,0,-1,524,820,0,0
-693,204,0,0,0,0,0,0,0,0,0,-1,531,820,0,0
-686,204,0,0,0,0,0,0,0,0,0,-1,538,820,0,0
-679,204,0,0,0,0,0,0,0,0,0,-1,545,820,0,0
-672,204,0,0,0,0,0,0,0,0,0,-1,552,820,0,0
-665,204,0,0,0,0,0,0,0,0,0,-1,559,820,0,0
-658,204,0,0,0,0,0,0,0,0,0,-1,566,820,0,0
-651,204,-14.6564,5.8623,0.00878,0.116035,-0.0622723,0.144589,-0.0197736,-1.14087,0.103615,0.0430398,573,820,-14.6564,-5.8623
-644,204,-14.6791,5.40558,0.00705431,0.0977619,-0.0493763,0.119453,-0.0146366,-1.15688,0.0849355,0.0446187,580,820,-14.6791,-5.40559
-637,204,-14.8848,4.95209,0,0,0,0,0,0,0,-1,587,820,-14.8848,-4.95207
-630,204,-14.5509,3.31085,0,0,0,0,0,0,0,-1,594,820,-14.5509,-3.31088
-623,204,-9.43439,2.23474,0,0,0,0,0,0,0,-1,601,820,-9.43437,-2.23476
-616,204,-9.90845,1.86584,0,0,0,0,0,0,0,-1,608,820,-9.90844,-1.86586
-609,204,-9.90869,1.68457,0.000527809,0.0224134,-0.00641162,0.0241534,-0.0012122,-1.30579,0.0165212,0.037201,615,820,-9.9087,-1.68457
-602,204,-9.92114,1.50677,0.000219268,0.0137058,-0.00278094,0.0142567,-0.000331659,-1.37522,0.00961694,0.01489,622,820,-9.92115,-1.50677
-595,204,-9.94385,1.33881,0.000132979,0.00616169,0.000589169,0.00621873,7.59412e-05,1.47429,0.00412074,0.0138323,629,820,-9.94384,-1.3388
-588,204,-9.95917,1.15033,0.000141587,0.00147197,0.00203081,0.00294376,-0.0013302,0.943667,0.00252551,0.0108072,636,820,-9.9592,-1.15035
-581,204,-9.94733,0.978943,0.000105482,0.000675249,0.00166563,0.00208018,-0.00129945,0.870097,0.00196851,0.011614,643,820,-9.9473,-0.978972
-574,204,-9.95844,0.798584,-0.000269345,0.000233166,0.00166552,0.00166628,-0.00170245,0.860262,0.00194497,0.0140518,650,820,-9.95843,-0.798587
-567,204,-9.9563,0.59729,-0.000612855,7.04994e-05,0.00177176,0.00153322,-0.00207558,0.880652,0.00209137,0.013661,657,820,-9.95631,-0.597299
-560,204,-9.94214,0.399902,-0.00145441,0.00105346,0.00140747,0.00168455,-0.0020855,1.14928,0.00218074,0.0123119,664,820,-9.94212,-0.399914
-553,204,-9.9292,0.221619,-0.00269172,0.00228565,0.000934323,0.00245526,-0.00286133,1.39122,0.00307252,0.0099236,671,820,-9.9292,-0.221621
-546,204,-9.9549,0.069458,-0.00407991,0.00348969,0.000613319,0.00353906,-0.00412928,1.49047,0.00443169,0.0153415,678,820,-9.95491,-0.0694501
-539,204,-10.0032,-0.16748,-0.00529667,0.00473766,0.000128214,0.0047393,-0.00529831,1.55802,0.00579821,0.0277805,685,820,-10.0032,0.167465
-532,204,-9.98969,-0.450378,0,0,0,0,0,0,0,-1,692,820,-9.98969,0.450367
-525,204,-13.1776,1.29559,0,0,0,0,0,0,0,-1,699,820,-13.1776,-1.29559
-518,204,-13.1785,1.66107,-0.0071506,0.00859064,-0.00208894,0.00886314,-0.0074231,-1.44108,0.0094151,0.0427285,706,820,-13.1785,-1.6611
-511,204,-13.0027,1.77997,-0.00744167,0.00964858,-0.00308066,0.0101869,-0.00798002,-1.39779,0.0105145,0.0477017,713,820,-13.0027,-1.77997
-504,204,-13.3297,1.22961,-0.00724929,0.0102751,-0.00406859,0.0111736,-0.00814781,-1.35344,0.0112007,0.0477436,720,820,-13.3297,-1.2296
-497,204,-13.545,0.996155,-0.00633946,0.0100957,-0.0049919,0.0114931,-0.00773686,-1.29785,0.0111728,0.0378493,727,820,-13.545,-0.99614
-490,204,-13.6124,0.989868,-0.00433391,0.00863514,-0.00573261,0.0108058,-0.00650455,-1.20883,0.0100964,0.0316628,734,820,-13.6123,-0.989877
-483,204,-13.5613,1.10699,-0.00115135,0.00535867,-0.00600077,0.0089304,-0.00472308,-1.03391,0.00800662,0.0373,741,820,-13.5613,-1.10701
-476,204,0,0,0,0,0,0,0,0,0,-1,748,820,0,0
-469,204,0,0,0,0,0,0,0,0,0,-1,755,820,0,0
-462,204,0,0,0,0,0,0,0,0,0,-1,762,820,0,0
-455,204,0,0,0,0,0,0,0,0,0,-1,769,820,0,0
-448,204,0,0,0,0,0,0,0,0,0,-1,776,820,0,0
-441,204,0,0,0,0,0,0,0,0,0,-1,783,820,0,0
-434,204,0,0,0,0,0,0,0,0,0,-1,790,820,0,0
-427,204,0,0,0,0,0,0,0,0,0,-1,797,820,0,0
-420,204,0,0,0,0,0,0,0,0,0,-1,804,820,0,0
-413,204,0,0,0,0,0,0,0,0,0,-1,811,820,0,0
-406,204,0,0,0,0,0,0,0,0,0,-1,818,820,0,0
-399,204,0,0,0,0,0,0,0,0,0,-1,825,820,0,0
-392,204,0,0,0,0,0,0,0,0,0,-1,832,820,0,0
-385,204,0,0,0,0,0,0,0,0,0,-1,839,820,0,0
-378,204,0,0,0,0,0,0,0,0,0,-1,846,820,0,0
-371,204,0,0,0,0,0,0,0,0,0,-1,853,820,0,0
-364,204,0,0,0,0,0,0,0,0,0,-1,860,820,0,0
-357,204,0,0,0,0,0,0,0,0,0,-1,867,820,0,0
-350,204,0,0,0,0,0,0,0,0,0,-1,874,820,0,0
-343,204,0,0,0,0,0,0,0,0,0,-1,881,820,0,0
-336,204,0,0,0,0,0,0,0,0,0,-1,888,820,0,0
-329,204,0,0,0,0,0,0,0,0,0,-1,895,820,0,0
-322,204,0,0,0,0,0,0,0,0,0,-1,902,820,0,0
-315,204,0,0,0,0,0,0,0,0,0,-1,909,820,0,0
-308,204,0,0,0,0,0,0,0,0,0,-1,916,820,0,0
-301,204,0,0,0,0,0,0,0,0,0,-1,923,820,0,0
-294,204,0,0,0,0,0,0,0,0,0,-1,930,820,0,0
-287,204,0,0,0,0,0,0,0,0,0,-1,937,820,0,0
-280,204,0,0,0,0,0,0,0,0,0,-1,944,820,0,0
-273,204,0,0,0,0,0,0,0,0,0,-1,951,820,0,0
-266,204,0,0,0,0,0,0,0,0,0,-1,958,820,0,0
-259,204,0,0,0,0,0,0,0,0,0,-1,965,820,0,0
-252,204,0,0,0,0,0,0,0,0,0,-1,972,820,0,0
-245,204,0,0,0,0,0,0,0,0,0,-1,979,820,0,0
-238,204,0,0,0,0,0,0,0,0,0,-1,986,820,0,0
-231,204,0,0,0,0,0,0,0,0,0,-1,993,820,0,0
-224,204,0,0,0,0,0,0,0,0,0,-1,1000,820,0,0
-217,204,0,0,0,0,0,0,0,0,0,-1,1007,820,0,0
-210,204,0,0,0,0,0,0,0,0,0,-1,1014,820,0,0
-203,204,0,0,0,0,0,0,0,0,0,-1,1021,820,0,0
-196,204,0,0,0,0,0,0,0,0,0,-1,1028,820,0,0
-189,204,0,0,0,0,0,0,0,0,0,-1,1035,820,0,0
-182,204,0,0,0,0,0,0,0,0,0,-1,1042,820,0,0
-175,204,0,0,0,0,0,0,0,0,0,-1,1049,820,0,0
-168,204,0,0,0,0,0,0,0,0,0,-1,1056,820,0,0
-161,204,0,0,0,0,0,0,0,0,0,-1,1063,820,0,0
-154,204,0,0,0,0,0,0,0,0,0,-1,1070,820,0,0
-147,204,0,0,0,0,0,0,0,0,0,-1,1077,820,0,0
-140,204,0,0,0,0,0,0,0,0,0,-1,1084,820,0,0
-133,204,0,0,0,0,0,0,0,0,0,-1,1091,820,0,0
-126,204,0,0,0,0,0,0,0,0,0,-1,1098,820,0,0
-119,204,0,0,0,0,0,0,0,0,0,-1,1105,820,0,0
-112,204,0,0,0,0,0,0,0,0,0,-1,1112,820,0,0
-105,204,0,0,0,0,0,0,0,0,0,-1,1119,820,0,0
-98,204,0,0,0,0,0,0,0,0,0,-1,1126,820,0,0
-91,204,0,0,0,0,0,0,0,0,0,-1,1133,820,0,0
-84,204,0,0,0,0,0,0,0,0,0,-1,1140,820,0,0
-77,204,0,0,0,0,0,0,0,0,0,-1,1147,820,0,0
-70,204,0,0,0,0,0,0,0,0,0,-1,1154,820,0,0
-63,204,0,0,0,0,0,0,0,0,0,-1,1161,820,0,0
-56,204,0,0,0,0,0,0,0,0,0,-1,1168,820,0,0
-49,204,0,0,0,0,0,0,0,0,0,-1,1175,820,0,0
-42,204,0,0,0,0,0,0,0,0,0,-1,1182,820,0,0
-35,204,0,0,0,0,0,0,0,0,0,-1,1189,820,0,0
-28,204,0,0,0,0,0,0,0,0,0,-1,1196,820,0,0
-21,204,0,0,0,0,0,0,0,0,0,-1,1203,820,0,0
-14,204,0,0,0,0,0,0,0,0,0,-1,1210,820,0,0
-7,204,0,0,0,0,0,0,0,0,0,-1,1217,820,0,0
0,204,0,0,0,0,0,0,0,0,0,-1,1224,820,0,0
7,204,0,0,0,0,0,0,0,0,0,-1,1231,820,0,0
14,204,0,0,0,0,0,0,0,0,0,-1,1238,820,0,0
21,204,0,0,0,0,0,0,0,0,0,-1,1245,820,0,0
28,204,0,0,0,0,0,0,0,0,0,-1,1252,820,0,0
35,204,0,0,0,0,0,0,0,0,0,-1,1259,820,0,0
42,204,0,0,0,0,0,0,0,0,0,-1,1266,820,0,0
49,204,0,0,0,0,0,0,0,0,0,-1,1273,820,0,0
56,204,0,0,0,0,0,0,0,0,0,-1,1280,820,0,0
63,204,0,0,0,0,0,0,0,0,0,-1,1287,820,0,0
70,204,0,0,0,0,0,0,0,0,0,-1,1294,820,0,0
77,204,0,0,0,0,0,0,0,0,0,-1,1301,820,0,0
84,204,0,0,0,0,0,0,0,0,0,-1,1308,820,0,0
91,204,0,0,0,0,0,0,0,0,0,-1,1315,820,0,0
98,204,0,0,0,0,0,0,0,0,0,-1,1322,820,0,0
105,204,0,0,0,0,0,0,0,0,0,-1,1329,820,0,0
112,204,0,0,0,0,0,0,0,0,0,-1,1336,820,0,0
119,204,0,0,0,0,0,0,0,0,0,-1,1343,820,0,0
126,204,0,0,0,0,0,0,0,0,0,-1,1350,820,0,0
133,204,0,0,0,0,0,0,0,0,0,-1,1357,820,0,0
140,204,0,0,0,0,0,0,0,0,0,-1,1364,820,0,0
147,204,0,0,0,0,0,0,0,0,0,-1,1371,820,0,0
154,204,0,0,0,0,0,0,0,0,0,-1,1378,820,0,0
161,204,0,0,0,0,0,0,0,0,0,-1,1385,820,0,0
168,204,0,0,0,0,0,0,0,0,0,-1,1392,820,0,0
175,204,0,0,0,0,0,0,0,0,0,-1,1399,820,0,0
182,204,0,0,0,0,0,0,0,0,0,-1,1406,820,0,0
189,204,0,0,0,0,0,0,0,0,0,-1,1413,820,0,0
196,204,0,0,0,0,0,0,0,0,0,-1,1420,820,0,0
203,204,0,0,0,0,0,0,0,0,0,-1,1427,820,0,0
210,204,0,0,0,0,0,0,0,0,0,-1,1434,820,0,0
217,204,0,0,0,0,0,0,0,0,0,-1,1441,820,0,0
224,204,0,0,0,0,0,0,0,0,0,-1,1448,820,0,0
231,204,0,0,0,0,0,0,0,0,0,-1,1455,820,0,0
238,204,0,0,0,0,0,0,0,0,0,-1,1462,820,0,0
245,204,0,0,0,0,0,0,0,0,0,-1,1469,820,0,0
252,204,0,0,0,0,0,0,0,0,0,-1,1476,820,0,0
259,204,0,0,0,0,0,0,0,0,0,-1,1483,820,0,0
266,204,0,0,0,0,0,0,0,0,0,-1,1490,820,0,0
273,204,0,0,0,0,0,0,0,0,0,-1,1497,820,0,0
280,204,0,0,0,0,0,0,0,0,0,-1,1504,820,0,0
287,204,0,0,0,0,0,0,0,0,0,-1,1511,820,0,0
294,204,0,0,0,0,0,0,0,0,0,-1,1518,820,0,0
301,204,0,0,0,0,0,0,0,0,0,-1,1525,820,0,0
308,204,0,0,0,0,0,0,0,0,0,-1,1532,820,0,0
315,204,0,0,0,0,0,0,0,0,0,-1,1539,820,0,0
322,204,0,0,0,0,0,0,0,0,0,-1,1546,820,0,0
329,204,0,0,0,0,0,0,0,0,0,-1,1553,820,0,0
336,204,0,0,0,0,0,0,0,0,0,-1,1560,820,0,0
343,204,0,0,0,0,0,0,0,0,0,-1,1567,820,0,0
350,204,0,0,0,0,0,0,0,0,0,-1,1574,820,0,0
357,204,0,0,0,0,0,0,0,0,0,-1,1581,820,0,0
364,204,0,0,0,0,0,0,0,0,0,-1,1588,820,0,0
371,204,0,0,0,0,0,0,0,0,0,-1,1595,820,0,0
378,204,0,0,0,0,0,0,0,0,0,-1,1602,820,0,0
385,204,0,0,0,0,0,0,0,0,0,-1,1609,820,0,0
392,204,0,0,0,0,0,0,0,0,0,-1,1616,820,0,0
399,204,0,0,0,0,0,0,0,0,0,-1,1623,820,0,0
406,204,0,0,0,0,0,0,0,0,0,-1,1630,820,0,0
413,204,0,0,0,0,0,0,0,0,0,-1,1637,820,0,0
420,204,0,0,0,0,0,0,0,0,0,-1,1644,820,0,0
427,204,0,0,0,0,0,0,0,0,0,-1,1651,820,0,0
434,204,0,0,0,0,0,0,0,0,0,-1,1658,820,0,0
441,204,0,0,0,0,0,0,0,0,0,-1,1665,820,0,0
448,204,0,0,0,0,0,0,0,0,0,-1,1672,820,0,0
455,204,0,0,0,0,0,0,0,0,0,-1,1679,820,0,0
462,204,0,0,0,0,0,0,0,0,0,-1,1686,820,0,0
469,204,0,0,0,0,0,0,0,0,0,-1,1693,820,0,0
476,204,0,0,0,0,0,0,0,0,0,-1,1700,820,0,0
483,204,0,0,0,0,0,0,0,0,0,-1,1707,820,0,0
490,204,0,0,0,0,0,0,0,0,0,-1,1714,820,0,0
497,204,0,0,0,0,0,0,0,0,0,-1,1721,820,0,0
504,204,0,0,0,0,0,0,0,0,0,-1,1728,820,0,0
511,204,0,0,0,0,0,0,0,0,0,-1,1735,820,0,0
518,204,0,0,0,0,0,0,0,0,0,-1,1742,820,0,0
525,204,0,0,0,0,0,0,0,0,0,-1,1749,820,0,0
532,204,0,0,0,0,0,0,0,0,0,-1,1756,820,0,0
539,204,0,0,0,0,0,0,0,0,0,-1,1763,820,0,0
546,204,0,0,0,0,0,0,0,0,0,-1,1770,820,0,0
553,204,0,0,0,0,0,0,0,0,0,-1,1777,820,0,0
560,204,0,0,0,0,0,0,0,0,0,-1,1784,820,0,0
567,204,0,0,0,0,0,0,0,0,0,-1,1791,820,0,0
574,204,0,0,0,0,0,0,0,0,0,-1,1798,820,0,0
581,204,0,0,0,0,0,0,0,0,0,-1,1805,820,0,0
588,204,0,0,0,0,0,0,0,0,0,-1,1812,820,0,0
595,204,0,0,0,0,0,0,0,0,0,-1,1819,820,0,0
602,204,20.9871,2.76984,0.00241724,0.000143869,0.000641088,0.00258556,-2.44546e-05,0.256763,0.00173192,0.0397507,1826,820,20.9871,-2.76981
609,204,20.8794,2.90845,-0.000250828,0.00119201,0.00108184,0.0017709,-0.000829723,1.07946,0.0015339,0.0404709,1833,820,20.8794,-2.90847
616,204,20.8932,2.96191,-0.00154343,0.00167371,0.000713713,0.00182494,-0.00169466,1.362,0.0020325,0.0368832,1840,820,20.8931,-2.96189
623,204,20.9171,2.84839,-0.00206546,0.00181985,0.000123487,0.00182377,-0.00206939,1.53906,0.00224921,0.0283292,1847,820,20.9171,-2.84837
630,204,20.9063,2.815,-0.00193723,0.00165324,-0.000453024,0.00170952,-0.0019935,-1.4472,0.00214004,0.0269547,1854,820,20.9063,-2.81502
637,204,20.8901,2.79004,-0.00151427,0.00135739,-0.00089705,0.00161458,-0.00177146,-1.29158,0.00195563,0.0321255,1861,820,20.8902,-2.79004
644,204,20.8821,2.87366,-0.00106025,0.00100438,-0.00109349,0.00147586,-0.00153173,-1.16371,0.00173653,0.0382344,1868,820,20.8821,-2.87364
651,204,20.8876,2.98029,0,0,0,0,0,0,0,-1,1875,820,20.8875,-2.98028
658,204,19.4967,3.38763,0,0,0,0,0,0,0,-1,1882,820,19.4967,-3.38762
665,204,16.3916,1.74719,0,0,0,0,0,0,0,-1,1889,820,16.3916,-1.74717
672,204,16.3826,1.89386,0.000425068,-0.000317104,-0.00158971,0.00168643,-0.00157846,-0.670736,0.00188533,0.0362117,1896,820,16.3826,-1.89388
679,204,16.3872,2.13733,0.000639381,-0.000359577,-0.00161225,0.00182775,-0.00154794,-0.635185,0.00195119,0.0206868,1903,820,16.3872,-2.13733
686,204,16.399,2.42035,0.000844505,-0.00059617,-0.00141179,0.00170911,-0.00146077,-0.549499,0.001832,0.0116228,1910,820,16.399,-2.42035
693,204,16.377,2.62531,0.000826957,-0.000857069,-0.0012744,0.00151238,-0.00154249,-0.493462,0.00176376,0.0148996,1917,820,16.3769,-2.62533
700,204,16.4189,2.8584,0.000293657,-0.000900126,-0.00129641,0.00112398,-0.00173045,-0.569656,0.00166036,0.0149546,1924,820,16.419,-2.85838
707,204,16.3844,3.08051,-0.000961469,-0.000875535,-0.00113428,0.00021659,-0.00205359,-0.804329,0.00144667,0.013127,1931,820,16.3844,-3.08051
714,204,16.4004,3.29785,-0.0019928,-0.00124363,-0.00115915,-0.00040004,-0.00283638,-0.941679,0.00177268,0.0219021,1938,820,16.4004,-3.29784
721,204,16.3884,3.46802,-0.00279421,-0.00188069,-0.00114828,-0.00110166,-0.00357324,-0.974693,0.00211295,0.0198729,1945,820,16.3884,-3.46804
728,204,16.3793,3.6463,-0.00386253,-0.00296502,-0.000987153,-0.00232941,-0.00449815,-0.998733,0.00259756,0.0120745,1952,820,16.3793,-3.64628
735,204,16.3464,3.83978,-0.00538733,-0.00446586,-0.000781071,-0.00401976,-0.00583343,-1.05187,0.00344728,0.0144687,1959,820,16.3465,-3.83977
742,204,16.3965,3.94153,-0.00730947,-0.00655021,-0.000344085,-0.00641748,-0.0074422,-1.20263,0.00465762,0.028889,1966,820,16.3965,-3.94154
749,204,16.1847,3.83704,-0.0094793,-0.00936746,0.000442129,-0.00897773,-0.00986903,0.848301,0.00630329,0.0440471,1973,820,16.1847,-3.83702
756,204,15.9827,3.79065,0,0,0,0,0,0,0,-1,1980,820,15.9826,-3.79064
763,204,15.6465,4.04022,0,0,0,0,0,0,0,-1,1987,820,15.6465,-4.04023
770,204,15.824,4.13428,0,0,0,0,0,0,0,-1,1994,820,15.8239,-4.13429
777,204,0,0,0,0,0,0,0,0,0,-1,2001,820,0,0
784,204,0,0,0,0,0,0,0,0,0,-1,2008,820,0,0
791,204,0,0,0,0,0,0,0,0,0,-1,2015,820,0,0
798,204,0,0,0,0,0,0,0,0,0,-1,2022,820,0,0
805,204,0,0,0,0,0,0,0,0,0,-1,2029,820,0,0
812,204,0,0,0,0,0,0,0,0,0,-1,2036,820,0,0
-700,197,0,0,0,0,0,0,0,0,0,-1,524,827,0,0
-693,197,0,0,0,0,0,0,0,0,0,-1,531,827,0,0
-686,197,0,0,0,0,0,0,0,0,0,-1,538,827,0,0
-679,197,0,0,0,0,0,0,0,0,0,-1,545,827,0,0
-672,197,0,0,0,0,0,0,0,0,0,-1,552,827,0,0
-665,197,0,0,0,0,0,0,0,0,0,-1,559,827,0,0
-658,197,-13.9348,5.44788,0,0,0,0,0,0,0,-1,566,827,-13.9347,-5.44789
-651,197,-14.1136,5.1568,0.00507455,0.113392,-0.0528498,0.134905,-0.0164388,-1.18421,0.0958874,0.0454291,573,827,-14.1137,-5.15682
-644,197,-14.2704,4.66516,0.00290627,0.0953071,-0.0423781,0.111799,-0.0135861,-1.19966,0.0794498,0.0479543,580,827,-14.2704,-4.66518
-637,197,-14.3123,3.83075,0,0,0,0,0,0,0,-1,587,827,-14.3122,-3.83074
-630,197,-14.4098,3.01233,0,0,0,0,0,0,0,-1,594,827,-14.4098,-3.01231
-623,197,-14.5478,2.17853,0,0,0,0,0,0,0,-1,601,827,-14.5478,-2.17852
-616,197,-10.0919,1.8537,-0.00171934,0.0332514,-0.0102629,0.0360408,-0.00450873,-1.30541,0.0256625,0.0470196,608,827,-10.0919,-1.85368
-609,197,-10.0972,1.65411,-0.00220344,0.022017,-0.00545482,0.0231888,-0.00337526,-1.35919,0.0166984,0.0343499,615,827,-10.0972,-1.6541
-602,197,-10.1197,1.47424,-0.00211965,0.0135343,-0.00221776,0.0138424,-0.00242779,-1.43274,0.0101349,0.0168448,622,827,-10.1197,-1.47423
-595,197,-10.1241,1.32141,-0.00193834,0.00612229,0.000846071,0.00621014,-0.00202619,1.46734,0.00495554,0.0177172,629,827,-10.1241,-1.32143
-588,197,-10.1376,1.13599,-0.00172038,0.0013915,0.00221587,0.00254314,-0.00287203,1.09149,0.00312837,0.0176128,636,827,-10.1376,-1.13597
-581,197,-10.131,0.9729,-0.00156171,0.000484723,0.00193214,0.00164786,-0.00272484,1.02891,0.00254998,0.0106451,643,827,-10.131,-0.972906
-574,197,-10.145,0.79248,-0.00184059,1.61828e-05,0.00200489,0.0012972,-0.00312161,1.00223,0.00262269,0.0125152,650,827,-10.145,-0.792475
-567,197,-10.1663,0.577881,-0.0021021,-0.000107894,0.00212356,0.00124101,-0.003451,1.00489,0.00280731,0.0135641,657,827,-10.1663,-0.577865
-560,197,-10.1634,0.41571,-0.00285703,0.00092092,0.00176894,0.00161988,-0.00355599,1.1945,0.00305718,0.0128296,664,827,-10.1634,-0.415729
-553,197,-10.1628,0.267944,-0.00399027,0.00213215,0.00128086,0.00238931,-0.00424743,1.37266,0.00388146,0.0135282,671,827,-10.1628,-0.267962
-546,197,-10.1173,0.0552368,-0.00523298,0.00338916,0.000924282,0.00348713,-0.00533095,1.4652,0.00512809,0.0239536,678,827,-10.1173,-0.055264
-539,197,-10.1824,-0.150391,0,0,0,0,0,0,0,-1,685,827,-10.1824,0.150361
-532,197,-13.0875,0.910156,0,0,0,0,0,0,0,-1,692,827,-13.0875,-0.910182
-525,197,-13.1001,1.31696,-0.00757505,0.00737269,-0.00118932,0.00746673,-0.00766909,-1.49189,0.00873893,0.0481344,699,827,-13.1001,-1.31696
-518,197,-13.2034,1.58356,-0.0079961,0.00874251,-0.00219746,0.00902618,-0.00827978,-1.44241,0.0099947,0.0425196,706,827,-13.2034,-1.58354
-511,197,-13.1992,1.42603,-0.00813981,0.0097435,-0.00333299,0.0103445,-0.0087408,-1.3924,0.0110319,0.0430085,713,827,-13.1992,-1.42601
-504,197,-13.5059,0.982178,-0.00769249,0.010063,-0.00445677,0.0111189,-0.00874838,-1.33817,0.0114975,0.0399979,720,827,-13.5058,-0.982152
-497,197,-13.6333,0.965698,-0.00632203,0.00921694,-0.00542165,0.0109216,-0.00802668,-1.26617,0.0109823,0.0386138,727,827,-13.6333,-0.965673
-490,197,-13.62,1.08234,-0.00356445,0.00644403,-0.00597703,0.00923514,-0.00635555,-1.13392,0.00905232,0.0360663,734,827,-13.62,-1.08234
-483,197,-13.5394,1.19519,0.000438991,0.0010423,-0.00547484,0.00622379,-0.0047425,-0.81292,0.00635062,0.0404265,741,827,-13.5394,-1.19516
-476,197,0,0,0,0,0,0,0,0,0,-1,748,827,0,0
-469,197,0,0,0,0,0,0,0,0,0,-1,755,827,0,0
-462,197,0,0,0,0,0,0,0,0,0,-1,762,827,0,0
-455,197,0,0,0,0,0,0,0,0,0,-1,769,827,0,0
-448,197,0,0,0,0,0,0,0,0,0,-1,776,827,0,0
-441,197,0,0,0,0,0,0,0,0,0,-1,783,827,0,0
-434,197,0,0,0,0,0,0,0,0,0,-1,790,827,0,0
-427,197,0,0,0,0,0,0,0,0,0,-1,797,827,0,0
-420,197,0,0,0,0,0,0,0,0,0,-1,804,827,0,0
-413,197,0,0,0,0,0,0,0,0,0,-1,811,827,0,0
-406,197,0,0,0,0,0,0,0,0,0,-1,818,827,0,0
-399,197,0,0,0,0,0,0,0,0,0,-1,825,827,0,0
-392,197,0,0,0,0,0,0,0,0,0,-1,832,827,0,0
-385,197,0,0,0,0,0,0,0,0,0,-1,839,827,0,0
-378,197,0,0,0,0,0,0,0,0,0,-1,846,827,0,0
-371,197,0,0,0,0,0,0,0,0,0,-1,853,827,0,0
-364,197,0,0,0,0,0,0,0,0,0,-1,860,827,0,0
-357,197,0,0,0,0,0,0,0,0,0,-1,867,827,0,0
-350,197,0,0,0,0,0,0,0,0,0,-1,874,827,0,0
-343,197,0,0,0,0,0,0,0,0,0,-1,881,827,0,0
-336,197,0,0,0,0,0,0,0,0,0,-1,888,827,0,0
-329,197,0,0,0,0,0,0,0,0,0,-1,895,827,0,0
-322,197,0,0,0,0,0,0,0,0,0,-1,902,827,0,0
-315,197,0,0,0,0,0,0,0,0,0,-1,909,827,0,0
-308,197,0,0,0,0,0,0,0,0,0,-1,916,827,0,0
-301,197,0,0,0,0,0,0,0,0,0,-1,923,827,0,0
-294,197,0,0,0,0,0,0,0,0,0,-1,930,827,0,0
-287,197,0,0,0,0,0,0,0,0,0,-1,937,827,0,0
-280,197,0,0,0,0,0,0,0,0,0,-1,944,827,0,0
-273,197,0,0,0,0,0,0,0,0,0,-1,951,827,0,0
-266,197,0,0,0,0,0,0,0,0,0,-1,958,827,0,0
-259,197,0,0,0,0,0,0,0,0,0,-1,965,827,0,0
-252,197,0,0,0,0,0,0,0,0,0,-1,972,827,0,0
-245,197,0,0,0,0,0,0,0,0,0,-1,979,827,0,0
-238,197,0,0,0,0,0,0,0,0,0,-1,986,827,0,0
-231,197,0,0,0,0,0,0,0,0,0,-1,993,827,0,0
-224,197,0,0,0,0,0,0,0,0,0,-1,1000,827,0,0
-217,197,0,0,0,0,0,0,0,0,0,-1,1007,827,0,0
-210,197,0,0,0,0,0,0,0,0,0,-1,1014,827,0,0
-203,197,0,0,0,0,0,0,0,0,0,-1,1021,827,0,0
-196,197,0,0,0,0,0,0,0,0,0,-1,1028,827,0,0
-189,197,0,0,0,0,0,0,0,0,0,-1,1035,827,0,0
-182,197,0,0,0,0,0,0,0,0,0,-1,1042,827,0,0
-175,197,0,0,0,0,0,0,0,0,0,-1,1049,827,0,0
-168,197,0,0,0,0,0,0,0,0,0,-1,1056,827,0,0
-161,197,0,0,0,0,0,0,0,0,0,-1,1063,827,0,0
-154,197,0,0,0,0,0,0,0,0,0,-1,1070,827,0,0
-147,197,0,0,0,0,0,0,0,0,0,-1,1077,827,0,0
-140,197,0,0,0,0,0,0,0,0,0,-1,1084,827,0,0
-133,197,0,0,0,0,0,0,0,0,0,-1,1091,827,0,0
-126,197,0,0,0,0,0,0,0,0,0,-1,1098,827,0,0
-119,197,0,0,0,0,0,0,0,0,0,-1,1105,827,0,0
-112,197,0,0,0,0,0,0,0,0,0,-1,1112,827,0,0
-105,197,0,0,0,0,0,0,0,0,0,-1,1119,827,0,0
-98,197,0,0,0,0,0,0,0,0,0,-1,1126,827,0,0
-91,197,0,0,0,0,0,0,0,0,0,-1,1133,827,0,0
-84,197,0,0,0,0,0,0,0,0,0,-1,1140,827,0,0
-77,197,0,0,0,0,0,0,0,0,0,-1,1147,827,0,0
-70,197,0,0,0,0,0,0,0,0,0,-1,1154,827,0,0
-63,197,0,0,0,0,0,0,0,0,0,-1,1161,827,0,0
-56,197,0,0,0,0,0,0,0,0,0,-1,1168,827,0,0
-49,197,0,0,0,0,0,0,0,0,0,-1,1175,827,0,0
-42,197,0,0,0,0,0,0,0,0,0,-1,1182,827,0,0
-35,197,0,0,0,0,0,0,0,0,0,-1,1189,827,0,0
-28,197,0,0,0,0,0,0,0,0,0,-1,1196,827,0,0
-21,197,0,0,0,0,0,0,0,0,0,-1,1203,827,0,0
-14,197,0,0,0,0,0,0,0,0,0,-1,1210,827,0,0
-7,197,0,0,0,0,0,0,0,0,0,-1,1217,827,0,0
0,197,0,0,0,0,0,0,0,0,0,-1,1224,827,0,0
7,197,0,0,0,0,0,0,0,0,0,-1,1231,827,0,0
14,197,0,0,0,0,0,0,0,0,0,-1,1238,827,0,0
21,197,0,0,0,0,0,0,0,0,0,-1,1245,827,0,0
28,197,0,0,0,0,0,0,0,0,0,-1,1252,827,0,0
35,197,0,0,0,0,0,0,0,0,0,-1,1259,827,0,0
42,197,0,0,0,0,0,0,0,0,0,-1,1266,827,0,0
49,197,0,0,0,0,0,0,0,0,0,-1,1273,827,0,0
56,197,0,0,0,0,0,0,0,0,0,-1,1280,827,0,0
63,197,0,0,0,0,0,0,0,0,0,-1,1287,827,0,0
70,197,0,0,0,0,0,0,0,0,0,-1,1294,827,0,0
77,197,0,0,0,0,0,0,0,0,0,-1,1301,827,0,0
84,197,0,0,0,0,0,0,0,0,0,-1,1308,827,0,0
91,197,0,0,0,0,0,0,0,0,0,-1,1315,827,0,0
98,197,0,0,0,0,0,0,0,0,0,-1,1322,827,0,0
105,197,0,0,0,0,0,0,0,0,0,-1,1329,827,0,0
112,197,0,0,0,0,0,0,0,0,0,-1,1336,827,0,0
119,197,0,0,0,0,0,0,0,0,0,-1,1343,827,0,0
126,197,0,0,0,0,0,0,0,0,0,-1,1350,827,0,0
133,197,0,0,0,0,0,0,0,0,0,-1,1357,827,0,0
140,197,0,0,0,0,0,0,0,0,0,-1,1364,827,0,0
147,197,0,0,0,0,0,0,0,0,0,-1,1371,827,0,0
154,197,0,0,0,0,0,0,0,0,0,-1,1378,827,0,0
161,197,0,0,0,0,0,0,0,0,0,-1,1385,827,0,0
168,197,0,0,0,0,0,0,0,0,0,-1,1392,827,0,0
175,197,0,0,0,0,0,0,0,0,0,-1,1399,827,0,0
182,197,0,0,0,0,0,0,0,0,0,-1,1406,827,0,0
189,197,0,0,0,0,0,0,0,0,0,-1,1413,827,0,0
196,197,0,0,0,0,0,0,0,0,0,-1,1420,827,0,0
203,197,0,0,0,0,0,0,0,0,0,-1,1427,827,0,0
210,197,0,0,0,0,0,0,0,0,0,-1,1434,827,0,0
217,197,0,0,0,0,0,0,0,0,0,-1,1441,827,0,0
224,197,0,0,0,0,0,0,0,0,0,-1,1448,827,0,0
231,197,0,0,0,0,0,0,0,0,0,-1,1455,827,0,0
238,197,0,0,0,0,0,0,0,0,0,-1,1462,827,0,0
245,197,0,0,0,0,0,0,0,0,0,-1,1469,827,0,0
252,197,0,0,0,0,0,0,0,0,0,-1,1476,827,0,0
259,197,0,0,0,0,0,0,0,0,0,-1,1483,827,0,0
266,197,0,0,0,0,0,0,0,0,0,-1,1490,827,0,0
273,197,0,0,0,0,0,0,0,0,0,-1,1497,827,0,0
280,197,0,0,0,0,0,0,0,0,0,-1,1504,827,0,0
287,197,0,0,0,0,0,0,0,0,0,-1,1511,827,0,0
294,197,0,0,0,0,0,0,0,0,0,-1,1518,827,0,0
301,197,0,0,0,0,0,0,0,0,0,-1,1525,827,0,0
308,197,0,0,0,0,0,0,0,0,0,-1,1532,827,0,0
315,197,0,0,0,0,0,0,0,0,0,-1,1539,827,0,0
322,197,0,0,0,0,0,0,0,0,0,-1,1546,827,0,0
329,197,0,0,0,0,0,0,0,0,0,-1,1553,827,0,0
336,197,0,0,0,0,0,0,0,0,0,-1,1560,827,0,0
343,197,0,0,0,0,0,0,0,0,0,-1,1567,827,0,0
350,197,0,0,0,0,0,0,0,0,0,-1,1574,827,0,0
357,197,0,0,0,0,0,0,0,0,0,-1,1581,827,0,0
364,197,0,0,0,0,0,0,0,0,0,-1,1588,827,0,0
371,197,0,0,0,0,0,0,0,0,0,-1,1595,827,0,0
378,197,0,0,0,0,0,0,0,0,0,-1,1602,827,0,0
385,197,0,0,0,0,0,0,0,0,0,-1,1609,827,0,0
392,197,0,0,0,0,0,0,0,0,0,-1,1616,827,0,0
399,197,0,0,0,0,0,0,0,0,0,-1,1623,827,0,0
406,197,0,0,0,0,0,0,0,0,0,-1,1630,827,0,0
413,197,0,0,0,0,0,0,0,0,0,-1,1637,827,0,0
420,197,0,0,0,0,0,0,0,0,0,-1,1644,827,0,0
427,197,0,0,0,0,0,0,0,0,0,-1,1651,827,0,0
434,197,0,0,0,0,0,0,0,0,0,-1,1658,827,0,0
441,197,0,0,0,0,0,0,0,0,0,-1,1665,827,0,0
448,197,0,0,0,0,0,0,0,0,0,-1,1672,827,0,0
455,197,0,0,0,0,0,0,0,0,0,-1,1679,827,0,0
462,197,0,0,0,0,0,0,0,0,0,-1,1686,827,0,0
469,197,0,0,0,0,0,0,0,0,0,-1,1693,827,0,0
476,197,0,0,0,0,0,0,0,0,0,-1,1700,827,0,0
483,197,0,0,0,0,0,0,0,0,0,-1,1707,827,0,0
490,197,0,0,0,0,0,0,0,0,0,-1,1714,827,0,0
497,197,0,0,0,0,0,0,0,0,0,-1,1721,827,0,0
504,197,0,0,0,0,0,0,0,0,0,-1,1728,827,0,0
511,197,0,0,0,0,0,0,0,0,0,-1,1735,827,0,0
518,197,0,0,0,0,0,0,0,0,0,-1,1742,827,0,0
525,197,0,0,0,0,0,0,0,0,0,-1,1749,827,0,0
532,197,0,0,0,0,0,0,0,0,0,-1,1756,827,0,0
539,197,0,0,0,0,0,0,0,0,0,-1,1763,827,0,0
546,197,0,0,0,0,0,0,0,0,0,-1,1770,827,0,0
553,197,0,0,0,0,0,0,0,0,0,-1,1777,827,0,0
560,197,0,0,0,0,0,0,0,0,0,-1,1784,827,0,0
567,197,0,0,0,0,0,0,0,0,0,-1,1791,827,0,0
574,197,0,0,0,0,0,0,0,0,0,-1,1798,827,0,0
581,197,0,0,0,0,0,0,0,0,0,-1,1805,827,0,0
588,197,0,0,0,0,0,0,0,0,0,-1,1812,827,0,0
595,197,0,0,0,0,0,0,0,0,0,-1,1819,827,0,0
602,197,20.8698,2.89655,0.00299406,0.000315611,0.000892214,0.00326405,4.56221e-05,0.293845,0.00216099,0.0413877,1826,827,20.8698,-2.89656
609,197,20.785,2.96973,0.000449479,0.00141992,0.0013387,0.00235862,-0.00048922,0.959263,0.00175832,0.0396924,1833,827,20.785,-2.96973
616,197,20.8859,2.83997,-0.000658113,0.00197557,0.000998232,0.00231116,-0.000993706,1.24648,0.00195795,0.0370003,1840,827,20.8858,-2.83995
623,197,20.9144,2.7818,-0.00116261,0.00216506,0.000411276,0.00221513,-0.00121269,1.44963,0.00200706,0.0346735,1847,827,20.9145,-2.78183
630,197,20.9272,2.76563,-0.00109351,0.00205986,-0.00015102,0.00206707,-0.00110073,-1.52305,0.00185708,0.0291319,1854,827,20.9273,-2.76563
637,197,20.8805,2.80334,-0.000763951,0.00174339,-0.000573447,0.00186831,-0.000888878,-1.35629,0.001625,0.0265432,1861,827,20.8804,-2.80335
644,197,20.8707,2.82874,-0.000381077,0.00135804,-0.000760594,0.00164375,-0.000666783,-1.21147,0.00137316,0.0323668,1868,827,20.8707,-2.82871
651,197,21.2286,2.94879,-5.17466e-05,0.000930543,-0.000894765,0.0014601,-0.000581301,-1.0364,0.00121446,0.0417403,1875,827,21.2287,-2.9488
658,197,21.3246,2.89148,0,0,0,0,0,0,0,-1,1882,827,21.3246,-2.89147
665,197,14.0618,1.80304,0,0,0,0,0,0,0,-1,1889,827,14.0617,-1.80303
672,197,16.7104,1.89258,0,0,0,0,0,0,0,-1,1896,827,16.7104,-1.89255
679,197,16.6636,2.21558,0.000743634,-0.000239587,-0.00128004,0.00162322,-0.00111917,-0.602053,0.00159221,0.0251346,1903,827,16.6635,-2.2156
686,197,16.6143,2.44128,0.00084479,-0.000483289,-0.00110168,0.00146708,-0.00110558,-0.514177,0.0014902,0.0145611,1910,827,16.6142,-2.44126
693,197,16.5811,2.67279,0.000834178,-0.000752312,-0.00100656,0.00132249,-0.00124063,-0.451683,0.00148007,0.0148081,1917,827,16.581,-2.6728
700,197,16.6224,2.90912,0.000346568,-0.0008565,-0.00105941,0.000963308,-0.00147324,-0.527195,0.00141697,0.0195419,1924,827,16.6225,-2.90913
707,197,16.6467,3.08331,-0.000828251,-0.000853952,-0.000983193,0.000142175,-0.00182438,-0.778863,0.00126631,0.00791805,1931,827,16.6468,-3.0833
714,197,16.6106,3.26678,-0.00172005,-0.00115351,-0.001051,-0.000348277,-0.00252528,-0.917032,0.00158028,0.0107216,1938,827,16.6106,-3.2668
721,197,16.6014,3.43799,-0.00228628,-0.00169313,-0.000974639,-0.000970945,-0.00300847,-0.933093,0.00177295,0.0116236,1945,827,16.6015,-3.43798
728,197,16.5919,3.64545,-0.00288781,-0.00268782,-0.000680392,-0.00210011,-0.00347551,-0.85836,0.00202108,0.0099079,1952,827,16.5919,-3.64543
735,197,16.5746,3.85236,-0.00353003,-0.00413239,-0.000350705,-0.00336893,-0.00429349,-0.430612,0.00260932,0.0111776,1959,827,16.5746,-3.85237
742,197,16.5695,4.02393,-0.00433197,-0.00609766,0.000241902,-0.00429943,-0.0061302,0.13372,0.00363367,0.0197141,1966,827,16.5695,-4.0239
749,197,16.4392,4.05188,-0.00491583,-0.00881196,0.00124615,-0.00455135,-0.00917644,0.284545,0.00529808,0.0407744,1973,827,16.4392,-4.05189
756,197,16.0028,4.14648,-0.00495955,-0.0124601,0.00277746,-0.00404304,-0.0133766,0.318729,0.00792177,0.0469821,1980,827,16.0029,-4.14651
763,197,16.0587,4.29663,-0.00411716,-0.0172603,0.00500745,-0.00242676,-0.0189507,0.325564,0.0119076,0.0478348,1987,827,16.0587,-4.29664
770,197,16.201,4.38281,0,0,0,0,0,0,0,-1,1994,827,16.2011,-4.3828
777,197,0,0,0,0,0,0,0,0,0,-1,2001,827,0,0
784,197,0,0,0,0,0,0,0,0,0,-1,2008,827,0,0
791,197,0,0,0,0,0,0,0,0,0,-1,2015,827,0,0
798,197,0,0,0,0,0,0,0,0,0,-1,2022,827,0,0
805,197,0,0,0,0,0,0,0,0,0,-1,2029,827,0,0
812,197,0,0,0,0,0,0,0,0,0,-1,2036,827,0,0
-700,190,0,0,0,0,0,0,0,0,0,-1,524,834,0,0
-693,190,0,0,0,0,0,0,0,0,0,-1,531,834,0,0
-686,190,0,0,0,0,0,0,0,0,0,-1,538,834,0,0
-679,190,0,0,0,0,0,0,0,0,0,-1,545,834,0,0
-672,190,0,0,0,0,0,0,0,0,0,-1,552,834,0,0
-665,190,0,0,0,0,0,0,0,0,0,-1,559,834,0,0
-658,190,-13.0889,4.46521,0,0,0,0,0,0,0,-1,566,834,-13.0889,-4.46523
-651,190,-13.441,4.65564,0,0,0,0,0,0,0,-1,573,834,-13.441,-4.65565
-644,190,-13.3141,4.97284,0,0,0,0,0,0,0,-1,580,834,-13.3141,-4.97285
-637,190,-14.1807,3.49182,0,0,0,0,0,0,0,-1,587,834,-14.1807,-3.49182
-630,190,-8.08405,2.09076,0,0,0,0,0,0,0,-1,594,834,-8.08403,-2.09078
-623,190,-10.1522,1.46161,0,0,0,0,0,0,0,-1,601,834,-10.1522,-1.46159
-616,190,-10.1809,1.49353,-0.00335727,0.0320558,-0.00807804,0.0338115,-0.0051129,-1.35679,0.0244243,0.0442112,608,834,-10.1809,-1.49354
-609,190,-10.3221,1.58978,-0.00372275,0.0212254,-0.00396801,0.0218413,-0.00433866,-1.41681,0.0162019,0.0246245,615,834,-10.3221,-1.58978
-602,190,-10.3169,1.45813,-0.00345194,0.0130707,-0.0012301,0.0131618,-0.00354302,-1.49689,0.0101635,0.0154586,622,834,-10.3169,-1.45812
-595,190,-10.3239,1.31659,-0.00318745,0.00591206,0.00141516,0.00612706,-0.00340245,1.42002,0.00557632,0.0178299,629,834,-10.3239,-1.31662
-588,190,-10.3328,1.14258,-0.00295296,0.00127362,0.00260227,0.00251261,-0.00419195,1.12643,0.00391115,0.0150215,636,834,-10.3328,-1.14259
-581,190,-10.3109,0.973511,-0.00281042,0.000286074,0.00233449,0.00153906,-0.0040634,1.0782,0.00334224,0.0106611,643,834,-10.3109,-0.973508
-574,190,-10.3178,0.786926,-0.00314124,-0.000165634,0.00241705,0.00118482,-0.00449169,1.06128,0.00345774,0.0102661,650,834,-10.3178,-0.786899
-567,190,-10.3371,0.57605,-0.00342319,-0.00025682,0.00248867,0.00110957,-0.00478958,1.06869,0.00362004,0.0120965,657,834,-10.3371,-0.576054
-560,190,-10.3834,0.415344,-0.00414524,0.000750179,0.0021098,0.00153396,-0.00492902,1.2151,0.00389924,0.0195632,664,834,-10.3834,-0.415337
-553,190,-10.3721,0.252502,-0.00521228,0.0018948,0.00154724,0.00221704,-0.00553451,1.36547,0.00460995,0.0174403,671,834,-10.3721,-0.25248
-546,190,-10.3242,0.072937,-0.00634979,0.00314813,0.00112911,0.00328051,-0.00648217,1.45408,0.00573663,0.0332975,678,834,-10.3242,-0.0729397
-539,190,-10.1493,-0.188538,0,0,0,0,0,0,0,-1,685,834,-10.1493,0.188515
-532,190,-13.3573,1.34784,0,0,0,0,0,0,0,-1,692,834,-13.3573,-1.34787
-525,190,-13.2595,1.44305,-0.00843199,0.00722466,-0.0013096,0.00733344,-0.00854078,-1.48792,0.00917382,0.0471514,699,834,-13.2595,-1.44305
-518,190,-13.2418,1.50427,-0.00872962,0.00857059,-0.00247514,0.00891774,-0.00907677,-1.43145,0.0103893,0.048049,706,834,-13.2418,-1.5043
-511,190,-13.2502,1.30414,-0.0086348,0.00945106,-0.00373705,0.0101928,-0.00937656,-1.37486,0.0113017,0.0421796,713,834,-13.2502,-1.30413
-504,190,-13.5215,0.876831,-0.00780956,0.00940582,-0.00491221,0.0107088,-0.00911258,-1.31151,0.0114563,0.0436562,720,834,-13.5216,-0.876807
-497,190,-13.7933,0.418884,0,0,0,0,0,0,0,-1,727,834,-13.7933,-0.418862
-490,190,-13.5269,1.25421,0,0,0,0,0,0,0,-1,734,834,-13.5268,-1.25419
-483,190,0,0,0,0,0,0,0,0,0,-1,741,834,0,0
-476,190,0,0,0,0,0,0,0,0,0,-1,748,834,0,0
-469,190,0,0,0,0,0,0,0,0,0,-1,755,834,0,0
-462,190,0,0,0,0,0,0,0,0,0,-1,762,834,0,0
-455,190,0,0,0,0,0,0,0,0,0,-1,769,834,0,0
-448,190,0,0,0,0,0,0,0,0,0,-1,776,834,0,0
-441,190,0,0,0,0,0,0,0,0,0,-1,783,834,0,0
-434,190,0,0,0,0,0,0,0,0,0,-1,790,834,0,0
-427,190,0,0,0,0,0,0,0,0,0,-1,797,834,0,0
-420,190,0,0,0,0,0,0,0,0,0,-1,804,834,0,0
-413,190,0,0,0,0,0,0,0,0,0,-1,811,834,0,0
-406,190,0,0,0,0,0,0,0,0,0,-1,818,834,0,0
-399,190,0,0,0,0,0,0,0,0,0,-1,825,834,0,0
-392,190,0,0,0,0,0,0,0,0,0,-1,832,834,0,0
-385,190,0,0,0,0,0,0,0,0,0,-1,839,834,0,0
-378,190,0,0,0,0,0,0,0,0,0,-1,846,834,0,0
-371,190,0,0,0,0,0,0,0,0,0,-1,853,834,0,0
-364,190,0,0,0,0,0,0,0,0,0,-1,860,834,0,0
-357,190,0,0,0,0,0,0,0,0,0,-1,867,834,0,0
-350,190,0,0,0,0,0,0,0,0,0,-1,874,834,0,0
-343,190,0,0,0,0,0,0,0,0,0,-1,881,834,0,0
-336,190,0,0,0,0,0,0,0,0,0,-1,888,834,0,0
-329,190,0,0,0,0,0,0,0,0,0,-1,895,834,0,0
-322,190,0,0,0,0,0,0,0,0,0,-1,902,834,0,0
-315,190,0,0,0,0,0,0,0,0,0,-1,909,834,0,0
-308,190,0,0,0,0,0,0,0,0,0,-1,916,834,0,0
-301,190,0,0,0,0,0,0,0,0,0,-1,923,834,0,0
-294,190,0,0,0,0,0,0,0,0,0,-1,930,834,0,0
-287,190,0,0,0,0,0,0,0,0,0,-1,937,834,0,0
-280,190,0,0,0,0,0,0,0,0,0,-1,944,834,0,0
-273,190,0,0,0,0,0,0,0,0,0,-1,951,834,0,0
-266,190,0,0,0,0,0,0,0,0,0,-1,958,834,0,0
-259,190,0,0,0,0,0,0,0,0,0,-1,965,834,0,0
-252,190,0,0,0,0,0,0,0,0,0,-1,972,834,0,0
-245,190,0,0,0,0,0,0,0,0,0,-1,979,834,0,0
-238,190,0,0,0,0,0,0,0,0,0,-1,986,834,0,0
-231,190,0,0,0,0,0,0,0,0,0,-1,993,834,0,0
-224,190,0,0,0,0,0,0,0,0,0,-1,1000,834,0,0
-217,190,0,0,0,0,0,0,0,0,0,-1,1007,834,0,0
-210,190,0,0,0,0,0,0,0,0,0,-1,1014,834,0,0
-203,190,0,0,0,0,0,0,0,0,0,-1,1021,834,0,0
-196,190,0,0,0,0,0,0,0,0,0,-1,1028,834,0,0
-189,190,0,0,0,0,0,0,0,0,0,-1,1035,834,0,0
-182,190,0,0,0,0,0,0,0,0,0,-1,1042,834,0,0
-175,190,0,0,0,0,0,0,0,0,0,-1,1049,834,0,0
-168,190,0,0,0,0,0,0,0,0,0,-1,1056,834,0,0
-161,190,0,0,0,0,0,0,0,0,0,-1,1063,834,0,0
-154,190,0,0,0,0,0,0,0,0,0,-1,1070,834,0,0
-147,190,0,0,0,0,0,0,0,0,0,-1,1077,834,0,0
-140,190,0,0,0,0,0,0,0,0,0,-1,1084,834,0,0
-133,190,0,0,0,0,0,0,0,0,0,-1,1091,834,0,0
-126,190,0,0,0,0,0,0,0,0,0,-1,1098,834,0,0
-119,190,0,0,0,0,0,0,0,0,0,-1,1105,834,0,0
-112,190,0,0,0,0,0,0,0,0,0,-1,1112,834,0,0
-105,190,0,0,0,0,0,0,0,0,0,-1,1119,834,0,0
-98,190,0,0,0,0,0,0,0,0,0,-1,1126,834,0,0
-91,190,0,0,0,0,0,0,0,0,0,-1,1133,834,0,0
-84,190,0,0,0,0,0,0,0,0,0,-1,1140,834,0,0
-77,190,0,0,0,0,0,0,0,0,0,-1,1147,834,0,0
-70,190,0,0,0,0,0,0,0,0,0,-1,1154,834,0,0
-63,190,0,0,0,0,0,0,0,0,0,-1,1161,834,0,0
-56,190,0,0,0,0,0,0,0,0,0,-1,1168,834,0,0
-49,190,0,0,0,0,0,0,0,0,0,-1,1175,834,0,0
-42,190,0,0,0,0,0,0,0,0,0,-1,1182,834,0,0
-35,190,0,0,0,0,0,0,0,0,0,-1,1189,834,0,0
-28,190,0,0,0,0,0,0,0,0,0,-1,1196,834,0,0
-21,190,0,0,0,0,0,0,0,0,0,-1,1203,834,0,0
-14,190,0,0,0,0,0,0,0,0,0,-1,1210,834,0,0
-7,190,0,0,0,0,0,0,0,0,0,-1,1217,834,0,0
0,190,0,0,0,0,0,0,0,0,0,-1,1224,834,0,0
7,190,0,0,0,0,0,0,0,0,0,-1,1231,834,0,0
14,190,0,0,0,0,0,0,0,0,0,-1,1238,834,0,0
21,190,0,0,0,0,0,0,0,0,0,-1,1245,834,0,0
28,190,0,0,0,0,0,0,0,0,0,-1,1252,834,0,0
35,190,0,0,0,0,0,0,0,0,0,-1,1259,834,0,0
42,190,0,0,0,0,0,0,0,0,0,-1,1266,834,0,0
49,190,0,0,0,0,0,0,0,0,0,-1,1273,834,0,0
56,190,0,0,0,0,0,0,0,0,0,-1,1280,834,0,0
63,190,0,0,0,0,0,0,0,0,0,-1,1287,834,0,0
70,190,0,0,0,0,0,0,0,0,0,-1,1294,834,0,0
77,190,0,0,0,0,0,0,0,0,0,-1,1301,834,0,0
84,190,0,0,0,0,0,0,0,0,0,-1,1308,834,0,0
91,190,0,0,0,0,0,0,0,0,0,-1,1315,834,0,0
98,190,0,0,0,0,0,0,0,0,0,-1,1322,834,0,0
105,190,0,0,0,0,0,0,0,0,0,-1,1329,834,0,0
112,190,0,0,0,0,0,0,0,0,0,-1,1336,834,0,0
119,190,0,0,0,0,0,0,0,0,0,-1,1343,834,0,0
126,190,0,0,0,0,0,0,0,0,0,-1,1350,834,0,0
133,190,0,0,0,0,0,0,0,0,0,-1,1357,834,0,0
140,190,0,0,0,0,0,0,0,0,0,-1,1364,834,0,0
147,190,0,0,0,0,0,0,0,0,0,-1,1371,834,0,0
154,190,0,0,0,0,0,0,0,0,0,-1,1378,834,0,0
161,190,0,0,0,0,0,0,0,0,0,-1,1385,834,0,0
168,190,0,0,0,0,0,0,0,0,0,-1,1392,834,0,0
175,190,0,0,0,0,0,0,0,0,0,-1,1399,834,0,0
182,190,0,0,0,0,0,0,0,0,0,-1,1406,834,0,0
189,190,0,0,0,0,0,0,0,0,0,-1,1413,834,0,0
196,190,0,0,0,0,0,0,0,0,0,-1,1420,834,0,0
203,190,0,0,0,0,0,0,0,0,0,-1,1427,834,0,0
210,190,0,0,0,0,0,0,0,0,0,-1,1434,834,0,0
217,190,0,0,0,0,0,0,0,0,0,-1,1441,834,0,0
224,190,0,0,0,0,0,0,0,0,0,-1,1448,834,0,0
231,190,0,0,0,0,0,0,0,0,0,-1,1455,834,0,0
238,190,0,0,0,0,0,0,0,0,0,-1,1462,834,0,0
245,190,0,0,0,0,0,0,0,0,0,-1,1469,834,0,0
252,190,0,0,0,0,0,0,0,0,0,-1,1476,834,0,0
259,190,0,0,0,0,0,0,0,0,0,-1,1483,834,0,0
266,190,0,0,0,0,0,0,0,0,0,-1,1490,834,0,0
273,190,0,0,0,0,0,0,0,0,0,-1,1497,834,0,0
280,190,0,0,0,0,0,0,0,0,0,-1,1504,834,0,0
287,190,0,0,0,0,0,0,0,0,0,-1,1511,834,0,0
294,190,0,0,0,0,0,0,0,0,0,-1,1518,834,0,0
301,190,0,0,0,0,0,0,0,0,0,-1,1525,834,0,0
308,190,0,0,0,0,0,0,0,0,0,-1,1532,834,0,0
315,190,0,0,0,0,0,0,0,0,0,-1,1539,834,0,0
322,190,0,0,0,0,0,0,0,0,0,-1,1546,834,0,0
329,190,0,0,0,0,0,0,0,0,0,-1,1553,834,0,0
336,190,0,0,0,0,0,0,0,0,0,-1,1560,834,0,0
343,190,0,0,0,0,0,0,0,0,0,-1,1567,834,0,0
350,190,0,0,0,0,0,0,0,0,0,-1,1574,834,0,0
357,190,0,0,0,0,0,0,0,0,0,-1,1581,834,0,0
364,190,0,0,0,0,0,0,0,0,0,-1,1588,834,0,0
371,190,0,0,0,0,0,0,0,0,0,-1,1595,834,0,0
378,190,0,0,0,0,0,0,0,0,0,-1,1602,834,0,0
385,190,0,0,0,0,0,0,0,0,0,-1,1609,834,0,0
392,190,0,0,0,0,0,0,0,0,0,-1,1616,834,0,0
399,190,0,0,0,0,0,0,0,0,0,-1,1623,834,0,0
406,190,0,0,0,0,0,0,0,0,0,-1,1630,834,0,0
413,190,0,0,0,0,0,0,0,0,0,-1,1637,834,0,0
420,190,0,0,0,0,0,0,0,0,0,-1,1644,834,0,0
427,190,0,0,0,0,0,0,0,0,0,-1,1651,834,0,0
434,190,0,0,0,0,0,0,0,0,0,-1,1658,834,0,0
441,190,0,0,0,0,0,0,0,0,0,-1,1665,834,0,0
448,190,0,0,0,0,0,0,0,0,0,-1,1672,834,0,0
455,190,0,0,0,0,0,0,0,0,0,-1,1679,834,0,0
462,190,0,0,0,0,0,0,0,0,0,-1,1686,834,0,0
469,190,0,0,0,0,0,0,0,0,0,-1,1693,834,0,0
476,190,0,0,0,0,0,0,0,0,0,-1,1700,834,0,0
483,190,0,0,0,0,0,0,0,0,0,-1,1707,834,0,0
490,190,0,0,0,0,0,0,0,0,0,-1,1714,834,0,0
497,190,0,0,0,0,0,0,0,0,0,-1,1721,834,0,0
504,190,0,0,0,0,0,0,0,0,0,-1,1728,834,0,0
511,190,0,0,0,0,0,0,0,0,0,-1,1735,834,0,0
518,190,0,0,0,0,0,0,0,0,0,-1,1742,834,0,0
525,190,0,0,0,0,0,0,0,0,0,-1,1749,834,0,0
532,190,0,0,0,0,0,0,0,0,0,-1,1756,834,0,0
539,190,0,0,0,0,0,0,0,0,0,-1,1763,834,0,0
546,190,0,0,0,0,0,0,0,0,0,-1,1770,834,0,0
553,190,0,0,0,0,0,0,0,0,0,-1,1777,834,0,0
560,190,0,0,0,0,0,0,0,0,0,-1,1784,834,0,0
567,190,0,0,0,0,0,0,0,0,0,-1,1791,834,0,0
574,190,0,0,0,0,0,0,0,0,0,-1,1798,834,0,0
581,190,0,0,0,0,0,0,0,0,0,-1,1805,834,0,0
588,190,0,0,0,0,0,0,0,0,0,-1,1812,834,0,0
595,190,0,0,0,0,0,0,0,0,0,-1,1819,834,0,0
602,190,20.8955,3.04651,0.0020368,0.00116467,0.00215788,0.00380223,-0.000600763,0.685701,0.00275698,0.046201,1826,834,20.8955,-3.04651
609,190,20.835,3.05695,0.000273674,0.00209877,0.00207271,0.00345092,-0.00107848,0.992763,0.00273201,0.0426029,1833,834,20.835,-3.05696
616,190,20.7972,2.73975,-0.000156471,0.00253127,0.00141893,0.00314171,-0.000766916,1.16452,0.00239146,0.0385492,1840,834,20.7972,-2.73975
623,190,20.8087,3.03625,-0.000287698,0.00259733,0.000625743,0.0027272,-0.000417571,1.36615,0.00197211,0.0367296,1847,834,20.8088,-3.03628
630,190,21.0044,2.94342,-8.08461e-05,0.00244891,-3.85756e-05,0.0024495,-8.14344e-05,-1.55555,0.00166081,0.0403627,1854,834,21.0044,-2.94341
637,190,20.9092,2.88037,0.000219884,0.00206997,-0.000484507,0.00218917,0.000100681,-1.32956,0.00142707,0.0347417,1861,834,20.9092,-2.88036
644,190,20.8138,2.85565,0.000518895,0.0016324,-0.000667936,0.0019452,0.0002061,-1.13283,0.00123385,0.0271701,1868,834,20.8139,-2.85565
651,190,20.9388,2.83649,0.000748682,0.00117806,-0.000778057,0.0017705,0.000156237,-0.920012,0.00113186,0.036954,1875,834,20.9389,-2.83648
658,190,21.1476,2.83447,0.000961266,0.000928249,-0.000920489,0.00186539,2.41199e-05,-0.776432,0.00123563,0.0447117,1882,834,21.1476,-2.83447
665,190,21.303,2.79297,0,0,0,0,0,0,0,-1,1889,834,21.303,-2.79299
672,190,17.0563,2.19659,0,0,0,0,0,0,0,-1,1896,834,17.0563,-2.19661
679,190,16.8929,2.3858,0.000881335,-0.000151404,-0.00103773,0.00152407,-0.000794137,-0.554537,0.00136035,0.0302672,1903,834,16.8929,-2.38578
686,190,16.7986,2.4989,0.000817915,-0.000357256,-0.000844,0.00125872,-0.000798064,-0.481316,0.00119737,0.0129963,1910,834,16.7985,-2.49893
693,190,16.8085,2.6734,0.000793757,-0.000587356,-0.000764786,0.00113362,-0.000927219,-0.418179,0.00119181,0.0125837,1917,834,16.8085,-2.6734
700,190,16.8065,2.8858,0.000358879,-0.000704507,-0.00081694,0.000801911,-0.00114754,-0.496917,0.0011314,0.0111282,1924,834,16.8066,-2.88578
707,190,16.8309,3.07159,-0.00068257,-0.00072829,-0.000796089,9.09874e-05,-0.00150185,-0.771045,0.0010329,0.0124055,1931,834,16.8309,-3.07158
714,190,16.8335,3.25586,-0.00140249,-0.000963962,-0.000891624,-0.000265037,-0.00210141,-0.905962,0.00132149,0.0118295,1938,834,16.8335,-3.25586
721,190,16.8236,3.44452,-0.00167407,-0.00139841,-0.000764692,-0.000759228,-0.00231326,-0.874564,0.00136158,0.0109571,1945,834,16.8236,-3.44454
728,190,16.8049,3.62854,-0.00177857,-0.00217757,-0.000354878,-0.00157096,-0.00238518,-0.529335,0.0014,0.0119727,1952,834,16.8049,-3.62854
735,190,16.797,3.81964,-0.00156601,-0.00322698,3.08769e-06,-0.00156601,-0.00322699,0.00185896,0.00186337,0.0119212,1959,834,16.7969,-3.81966
742,190,16.767,4.07172,-0.00105323,-0.00470001,0.000385144,-0.001013,-0.00474024,0.104082,0.00288245,0.015255,1966,834,16.7669,-4.07169
749,190,16.6986,4.32849,-1.00307e-05,-0.00672536,0.0012018,0.00019857,-0.00693396,0.17186,0.00469023,0.0357399,1973,834,16.6987,-4.32851
756,190,16.5104,4.57129,0.00210895,-0.00941728,0.00232968,0.00256201,-0.00987034,0.192078,0.00757996,0.0458907,1980,834,16.5104,-4.5713
763,190,16.5006,4.56567,0.00571351,-0.0128761,0.00374951,0.0064413,-0.0136038,0.191716,0.0118168,0.0487537,1987,834,16.5006,-4.56566
770,190,16.4541,4.4718,0,0,0,0,0,0,0,-1,1994,834,16.4541,-4.47179
777,190,16.3834,4.15253,0,0,0,0,0,0,0,-1,2001,834,16.3834,-4.15251
784,190,0,0,0,0,0,0,0,0,0,-1,2008,834,0,0
791,190,0,0,0,0,0,0,0,0,0,-1,2015,834,0,0
798,190,0,0,0,0,0,0,0,0,0,-1,2022,834,0,0
805,190,0,0,0,0,0,0,0,0,0,-1,2029,834,0,0
812,190,0,0,0,0,0,0,0,0,0,-1,2036,834,0,0
-700,183,0,0,0,0,0,0,0,0,0,-1,524,841,0,0
-693,183,0,0,0,0,0,0,0,0,0,-1,531,841,0,0
-686,183,0,0,0,0,0,0,0,0,0,-1,538,841,0,0
-679,183,0,0,0,0,0,0,0,0,0,-1,545,841,0,0
-672,183,0,0,0,0,0,0,0,0,0,-1,552,841,0,0
-665,183,0,0,0,0,0,0,0,0,0,-1,559,841,0,0
-658,183,-12.7227,3.84351,-0.000631089,0.11006,-0.0375859,0.121616,-0.0121871,-1.27251,0.0854303,0.0487432,566,841,-12.7227,-3.84353
-651,183,-12.733,4.02905,-0.00122663,0.0975076,-0.0328504,0.107439,-0.0111576,-1.27722,0.0756197,0.0487759,573,841,-12.7331,-4.02905
-644,183,-12.5571,4.31177,0,0,0,0,0,0,0,-1,580,841,-12.5571,-4.31175
-637,183,-8.58636,2.11548,0,0,0,0,0,0,0,-1,587,841,-8.58636,-2.11548
-630,183,-8.75214,2.14014,0,0,0,0,0,0,0,-1,594,841,-8.75213,-2.14011
-623,183,-10.1415,1.57513,0,0,0,0,0,0,0,-1,601,841,-10.1415,-1.57511
-616,183,-10.3339,1.60571,-0.00402925,0.0290509,-0.0056557,0.0299911,-0.00496948,-1.40606,0.0218399,0.0410206,608,841,-10.334,-1.60574
-609,183,-10.5137,1.64838,-0.00419338,0.0192878,-0.00232558,0.0195159,-0.00442148,-1.47302,0.0147077,0.017208,615,841,-10.5137,-1.64838
-602,183,-10.5053,1.48621,-0.00394509,0.0119299,-0.000104763,0.0119306,-0.00394578,-1.5642,0.00954481,0.010769,622,841,-10.5053,-1.48623
-595,183,-10.5134,1.3089,-0.00378615,0.00531187,0.0020567,0.00575521,-0.00422949,1.35849,0.00578706,0.0101688,629,841,-10.5134,-1.30888
-588,183,-10.5115,1.14386,-0.00372692,0.00102849,0.00303925,0.00250961,-0.00520803,1.11734,0.00454566,0.00994678,636,841,-10.5115,-1.14383
-581,183,-10.5026,0.972778,-0.00378338,9.81315e-05,0.0028281,0.00158734,-0.00527259,1.08611,0.00414671,0.0110556,643,841,-10.5026,-0.972807
-574,183,-10.4973,0.795776,-0.00428531,-0.000278121,0.00293549,0.00127237,-0.0058358,1.08485,0.00437675,0.0115401,650,841,-10.4972,-0.795749
-567,183,-10.4745,0.608215,-0.00465213,-0.000307133,0.00296906,0.00119937,-0.00615863,1.10125,0.00455845,0.0169691,657,841,-10.4745,-0.60819
-560,183,-10.5679,0.462891,-0.00533068,0.000635582,0.00259543,0.0016066,-0.0063017,1.21279,0.00482664,0.0208188,664,841,-10.5679,-0.462884
-553,183,-10.5062,0.214478,-0.00630799,0.00165877,0.00202413,0.00214354,-0.00679276,1.33573,0.0053871,0.0167188,671,841,-10.5061,-0.214454
-546,183,-10.4277,0.0213013,-0.00731433,0.00284191,0.00157095,0.00307935,-0.00755177,1.42079,0.00631634,0.0409135,678,841,-10.4277,-0.0212979
-539,183,-10.1246,-0.190186,0,0,0,0,0,0,0,-1,685,841,-10.1246,0.1902
-532,183,-13.2555,1.50378,0,0,0,0,0,0,0,-1,692,841,-13.2555,-1.50379
-525,183,-13.3045,1.40436,-0.0089405,0.00679208,-0.00116048,0.00687722,-0.00902564,-1.49756,0.00920941,0.0498219,699,841,-13.3045,-1.40434
-518,183,-13.3134,1.35144,-0.00900869,0.00802766,-0.00249587,0.00838579,-0.00936681,-1.42828,0.0102547,0.0473683,706,841,-13.3134,-1.35147
-511,183,-13.4305,0.934387,-0.00857335,0.00869638,-0.00393034,0.00954879,-0.00942576,-1.35722,0.010955,0.0415839,713,841,-13.4305,-0.934411
-504,183,-13.7634,0.576965,-0.00730743,0.00816812,-0.00519642,0.00975107,-0.00889038,-1.2751,0.0107665,0.0435791,720,841,-13.7634,-0.576947
-497,183,-13.8965,0.504456,0,0,0,0,0,0,0,-1,727,841,-13.8965,-0.504479
-490,183,-13.384,1.23621,0,0,0,0,0,0,0,-1,734,841,-13.3841,-1.23621
-483,183,0,0,0,0,0,0,0,0,0,-1,741,841,0,0
-476,183,0,0,0,0,0,0,0,0,0,-1,748,841,0,0
-469,183,0,0,0,0,0,0,0,0,0,-1,755,841,0,0
-462,183,0,0,0,0,0,0,0,0,0,-1,762,841,0,0
-455,183,0,0,0,0,0,0,0,0,0,-1,769,841,0,0
-448,183,0,0,0,0,0,0,0,0,0,-1,776,841,0,0
-441,183,0,0,0,0,0,0,0,0,0,-1,783,841,0,0
-434,183,0,0,0,0,0,0,0,0,0,-1,790,841,0,0
-427,183,0,0,0,0,0,0,0,0,0,-1,797,841,0,0
-420,183,0,0,0,0,0,0,0,0,0,-1,804,841,0,0
-413,183,0,0,0,0,0,0,0,0,0,-1,811,841,0,0
-406,183,0,0,0,0,0,0,0,0,0,-1,818,841,0,0
-399,183,0,0,0,0,0,0,0,0,0,-1,825,841,0,0
-392,183,0,0,0,0,0,0,0,0,0,-1,832,841,0,0
-385,183,0,0,0,0,0,0,0,0,0,-1,839,841,0,0
-378,183,0,0,0,0,0,0,0,0,0,-1,846,841,0,0
-371,183,0,0,0,0,0,0,0,0,0,-1,853,841,0,0
-364,183,0,0,0,0,0,0,0,0,0,-1,860,841,0,0
-357,183,0,0,0,0,0,0,0,0,0,-1,867,841,0,0
-350,183,0,0,0,0,0,0,0,0,0,-1,874,841,0,0
-343,183,0,0,0,0,0,0,0,0,0,-1,881,841,0,0
-336,183,0,0,0,0,0,0,0,0,0,-1,888,841,0,0
-329,183,0,0,0,0,0,0,0,0,0,-1,895,841,0,0
-322,183,0,0,0,0,0,0,0,0,0,-1,902,841,0,0
-315,183,0,0,0,0,0,0,0,0,0,-1,909,841,0,0
-308,183,0,0,0,0,0,0,0,0,0,-1,916,841,0,0
-301,183,0,0,0,0,0,0,0,0,0,-1,923,841,0,0
-294,183,0,0,0,0,0,0,0,0,0,-1,930,841,0,0
-287,183,0,0,0,0,0,0,0,0,0,-1,937,841,0,0
-280,183,0,0,0,0,0,0,0,0,0,-1,944,841,0,0
-273,183,0,0,0,0,0,0,0,0,0,-1,951,841,0,0
-266,183,0,0,0,0,0,0,0,0,0,-1,958,841,0,0
-259,183,0,0,0,0,0,0,0,0,0,-1,965,841,0,0
-252,183,0,0,0,0,0,0,0,0,0,-1,972,841,0,0
-245,183,0,0,0,0,0,0,0,0,0,-1,979,841,0,0
-238,183,0,0,0,0,0,0,0,0,0,-1,986,841,0,0
-231,183,0,0,0,0,0,0,0,0,0,-1,993,841,0,0
-224,183,0,0,0,0,0,0,0,0,0,-1,1000,841,0,0
-217,183,0,0,0,0,0,0,0,0,0,-1,1007,841,0,0
-210,183,0,0,0,0,0,0,0,0,0,-1,1014,841,0,0
-203,183,0,0,0,0,0,0,0,0,0,-1,1021,841,0,0
-196,183,0,0,0,0,0,0,0,0,0,-1,1028,841,0,0
-189,183,0,0,0,0,0,0,0,0,0,-1,1035,841,0,0
-182,183,0,0,0,0,0,0,0,0,0,-1,1042,841,0,0
-175,183,0,0,0,0,0,0,0,0,0,-1,1049,841,0,0
-168,183,0,0,0,0,0,0,0,0,0,-1,1056,841,0,0
-161,183,0,0,0,0,0,0,0,0,0,-1,1063,841,0,0
-154,183,0,0,0,0,0,0,0,0,0,-1,1070,841,0,0
-147,183,0,0,0,0,0,0,0,0,0,-1,1077,841,0,0
-140,183,0,0,0,0,0,0,0,0,0,-1,1084,841,0,0
-133,183,0,0,0,0,0,0,0,0,0,-1,1091,841,0,0
-126,183,0,0,0,0,0,0,0,0,0,-1,1098,841,0,0
-119,183,0,0,0,0,0,0,0,0,0,-1,1105,841,0,0
-112,183,0,0,0,0,0,0,0,0,0,-1,1112,841,0,0
-105,183,0,0,0,0,0,0,0,0,0,-1,1119,841,0,0
-98,183,0,0,0,0,0,0,0,0,0,-1,1126,841,0,0
-91,183,0,0,0,0,0,0,0,0,0,-1,1133,841,0,0
-84,183,0,0,0,0,0,0,0,0,0,-1,1140,841,0,0
-77,183,0,0,0,0,0,0,0,0,0,-1,1147,841,0,0
-70,183,0,0,0,0,0,0,0,0,0,-1,1154,841,0,0
-63,183,0,0,0,0,0,0,0,0,0,-1,1161,841,0,0
-56,183,0,0,0,0,0,0,0,0,0,-1,1168,841,0,0
-49,183,0,0,0,0,0,0,0,0,0,-1,1175,841,0,0
-42,183,0,0,0,0,0,0,0,0,0,-1,1182,841,0,0
-35,183,0,0,0,0,0,0,0,0,0,-1,1189,841,0,0
-28,183,0,0,0,0,0,0,0,0,0,-1,1196,841,0,0
-21,183,0,0,0,0,0,0,0,0,0,-1,1203,841,0,0
-14,183,0,0,0,0,0,0,0,0,0,-1,1210,841,0,0
-7,183,0,0,0,0,0,0,0,0,0,-1,1217,841,0,0
0,183,0,0,0,0,0,0,0,0,0,-1,1224,841,0,0
7,183,0,0,0,0,0,0,0,0,0,-1,1231,841,0,0
14,183,0,0,0,0,0,0,0,0,0,-1,1238,841,0,0
21,183,0,0,0,0,0,0,0,0,0,-1,1245,841,0,0
28,183,0,0,0,0,0,0,0,0,0,-1,1252,841,0,0
35,183,0,0,0,0,0,0,0,0,0,-1,1259,841,0,0
42,183,0,0,0,0,0,0,0,0,0,-1,1266,841,0,0
49,183,0,0,0,0,0,0,0,0,0,-1,1273,841,0,0
56,183,0,0,0,0,0,0,0,0,0,-1,1280,841,0,0
63,183,0,0,0,0,0,0,0,0,0,-1,1287,841,0,0
70,183,0,0,0,0,0,0,0,0,0,-1,1294,841,0,0
77,183,0,0,0,0,0,0,0,0,0,-1,1301,841,0,0
84,183,0,0,0,0,0,0,0,0,0,-1,1308,841,0,0
91,183,0,0,0,0,0,0,0,0,0,-1,1315,841,0,0
98,183,0,0,0,0,0,0,0,0,0,-1,1322,841,0,0
105,183,0,0,0,0,0,0,0,0,0,-1,1329,841,0,0
112,183,0,0,0,0,0,0,0,0,0,-1,1336,841,0,0
119,183,0,0,0,0,0,0,0,0,0,-1,1343,841,0,0
126,183,0,0,0,0,0,0,0,0,0,-1,1350,841,0,0
133,183,0,0,0,0,0,0,0,0,0,-1,1357,841,0,0
140,183,0,0,0,0,0,0,0,0,0,-1,1364,841,0,0
147,183,0,0,0,0,0,0,0,0,0,-1,1371,841,0,0
154,183,0,0,0,0,0,0,0,0,0,-1,1378,841,0,0
161,183,0,0,0,0,0,0,0,0,0,-1,1385,841,0,0
168,183,0,0,0,0,0,0,0,0,0,-1,1392,841,0,0
175,183,0,0,0,0,0,0,0,0,0,-1,1399,841,0,0
182,183,0,0,0,0,0,0,0,0,0,-1,1406,841,0,0
189,183,0,0,0,0,0,0,0,0,0,-1,1413,841,0,0
196,183,0,0,0,0,0,0,0,0,0,-1,1420,841,0,0
203,183,0,0,0,0,0,0,0,0,0,-1,1427,841,0,0
210,183,0,0,0,0,0,0,0,0,0,-1,1434,841,0,0
217,183,0,0,0,0,0,0,0,0,0,-1,1441,841,0,0
224,183,0,0,0,0,0,0,0,0,0,-1,1448,841,0,0
231,183,0,0,0,0,0,0,0,0,0,-1,1455,841,0,0
238,183,0,0,0,0,0,0,0,0,0,-1,1462,841,0,0
245,183,0,0,0,0,0,0,0,0,0,-1,1469,841,0,0
252,183,0,0,0,0,0,0,0,0,0,-1,1476,841,0,0
259,183,0,0,0,0,0,0,0,0,0,-1,1483,841,0,0
266,183,0,0,0,0,0,0,0,0,0,-1,1490,841,0,0
273,183,0,0,0,0,0,0,0,0,0,-1,1497,841,0,0
280,183,0,0,0,0,0,0,0,0,0,-1,1504,841,0,0
287,183,0,0,0,0,0,0,0,0,0,-1,1511,841,0,0
294,183,0,0,0,0,0,0,0,0,0,-1,1518,841,0,0
301,183,0,0,0,0,0,0,0,0,0,-1,1525,841,0,0
308,183,0,0,0,0,0,0,0,0,0,-1,1532,841,0,0
315,183,0,0,0,0,0,0,0,0,0,-1,1539,841,0,0
322,183,0,0,0,0,0,0,0,0,0,-1,1546,841,0,0
329,183,0,0,0,0,0,0,0,0,0,-1,1553,841,0,0
336,183,0,0,0,0,0,0,0,0,0,-1,1560,841,0,0
343,183,0,0,0,0,0,0,0,0,0,-1,1567,841,0,0
350,183,0,0,0,0,0,0,0,0,0,-1,1574,841,0,0
357,183,0,0,0,0,0,0,0,0,0,-1,1581,841,0,0
364,183,0,0,0,0,0,0,0,0,0,-1,1588,841,0,0
371,183,0,0,0,0,0,0,0,0,0,-1,1595,841,0,0
378,183,0,0,0,0,0,0,0,0,0,-1,1602,841,0,0
385,183,0,0,0,0,0,0,0,0,0,-1,1609,841,0,0
392,183,0,0,0,0,0,0,0,0,0,-1,1616,841,0,0
399,183,0,0,0,0,0,0,0,0,0,-1,1623,841,0,0
406,183,0,0,0,0,0,0,0,0,0,-1,1630,841,0,0
413,183,0,0,0,0,0,0,0,0,0,-1,1637,841,0,0
420,183,0,0,0,0,0,0,0,0,0,-1,1644,841,0,0
427,183,0,0,0,0,0,0,0,0,0,-1,1651,841,0,0
434,183,0,0,0,0,0,0,0,0,0,-1,1658,841,0,0
441,183,0,0,0,0,0,0,0,0,0,-1,1665,841,0,0
448,183,0,0,0,0,0,0,0,0,0,-1,1672,841,0,0
455,183,0,0,0,0,0,0,0,0,0,-1,1679,841,0,0
462,183,0,0,0,0,0,0,0,0,0,-1,1686,841,0,0
469,183,0,0,0,0,0,0,0,0,0,-1,1693,841,0,0
476,183,0,0,0,0,0,0,0,0,0,-1,1700,841,0,0
483,183,0,0,0,0,0,0,0,0,0,-1,1707,841,0,0
490,183,0,0,0,0,0,0,0,0,0,-1,1714,841,0,0
497,183,0,0,0,0,0,0,0,0,0,-1,1721,841,0,0
504,183,0,0,0,0,0,0,0,0,0,-1,1728,841,0,0
511,183,0,0,0,0,0,0,0,0,0,-1,1735,841,0,0
518,183,0,0,0,0,0,0,0,0,0,-1,1742,841,0,0
525,183,0,0,0,0,0,0,0,0,0,-1,1749,841,0,0
532,183,0,0,0,0,0,0,0,0,0,-1,1756,841,0,0
539,183,0,0,0,0,0,0,0,0,0,-1,1763,841,0,0
546,183,0,0,0,0,0,0,0,0,0,-1,1770,841,0,0
553,183,0,0,0,0,0,0,0,0,0,-1,1777,841,0,0
560,183,0,0,0,0,0,0,0,0,0,-1,1784,841,0,0
567,183,0,0,0,0,0,0,0,0,0,-1,1791,841,0,0
574,183,0,0,0,0,0,0,0,0,0,-1,1798,841,0,0
581,183,0,0,0,0,0,0,0,0,0,-1,1805,841,0,0
588,183,0,0,0,0,0,0,0,0,0,-1,1812,841,0,0
595,183,0,0,0,0,0,0,0,0,0,-1,1819,841,0,0
602,183,0,0,0,0,0,0,0,0,0,-1,1826,841,0,0
609,183,20.8569,2.92505,-9.33453e-05,0.00285441,0.00264296,0.00440668,-0.00164561,1.03975,0.00361346,0.0424886,1833,841,20.8569,-2.92505
616,183,20.6801,2.95752,-5.83308e-06,0.00305462,0.00182783,0.00390821,-0.000859418,1.1339,0.0029342,0.0377657,1840,841,20.68,-2.95749
623,183,20.8175,3.24609,0.000147423,0.00293623,0.000961757,0.00323574,-0.000152085,1.2689,0.0022096,0.0402911,1847,841,20.8175,-3.24612
630,183,21.0525,3.17773,0.000469813,0.00274089,0.000261278,0.00277056,0.000440142,1.45772,0.00171921,0.0413304,1854,841,21.0524,-3.17773
637,183,20.9343,2.91888,0.000749217,0.00232973,-0.000196332,0.00235375,0.000725194,-1.44904,0.0013919,0.0362752,1861,841,20.9344,-2.91886
644,183,20.7665,2.84058,0.000865179,0.00187941,-0.000410132,0.0020245,0.000720087,-1.23077,0.00118496,0.029476,1868,841,20.7665,-2.84055
651,183,20.8254,2.82043,0.000908425,0.00142725,-0.000534165,0.00176167,0.000574015,-1.01145,0.00103746,0.0260395,1875,841,20.8254,-2.82041
658,183,20.9905,2.81268,0.000954447,0.00116527,-0.000659828,0.00172806,0.000391664,-0.864608,0.00104621,0.0428604,1882,841,20.9905,-2.81267
665,183,21.1511,2.8147,0,0,0,0,0,0,0,-1,1889,841,21.1511,-2.8147
672,183,17.0568,2.3136,0,0,0,0,0,0,0,-1,1896,841,17.0568,-2.31358
679,183,17.0582,2.38538,0.000403353,8.6307e-06,-0.000810268,0.00103995,-0.000627966,-0.665937,0.000972715,0.0366564,1903,841,17.0582,-2.38538
686,183,17.0413,2.50238,0.000195456,-0.000169589,-0.000665479,0.000702989,-0.000677122,-0.651553,0.000796854,0.0165157,1910,841,17.0412,-2.50238
693,183,17.0415,2.7038,0.000114259,-0.000348007,-0.000603197,0.000529089,-0.000762838,-0.602437,0.000749953,0.0134748,1917,841,17.0415,-2.70379
700,183,17.0294,2.90735,-0.000234237,-0.000471273,-0.000641624,0.000299723,-0.00100523,-0.69407,0.000789267,0.0144095,1924,841,17.0294,-2.90733
707,183,17.0078,3.07184,-0.00102555,-0.000543914,-0.000654182,-8.76315e-05,-0.00148183,-0.96176,0.000960009,0.0122454,1931,841,17.0078,-3.07187
714,183,17.0165,3.23706,-0.00143405,-0.000712716,-0.000764632,-0.00022796,-0.00191881,-1.00577,0.0012104,0.0160372,1938,841,17.0165,-3.23709
721,183,17.0197,3.44977,-0.00123943,-0.00103336,-0.000603763,-0.000523903,-0.00174889,-0.869909,0.00103641,0.0144629,1945,841,17.0196,-3.44975
728,183,16.989,3.63831,-0.000706286,-0.00152193,-0.000136305,-0.00068411,-0.00154411,-0.161277,0.000893417,0.0124656,1952,841,16.989,-3.63828
735,183,16.9802,3.81555,0.000388182,-0.00203298,0.000213898,0.000406934,-0.00205173,0.0874425,0.00152171,0.0116032,1959,841,16.9803,-3.81556
742,183,16.9771,4.02283,0.0020215,-0.00288656,0.00049995,0.00207191,-0.00293697,0.100488,0.00290622,0.0108327,1966,841,16.977,-4.02285
749,183,16.9487,4.30078,0.00427532,-0.00406683,0.001188,0.0044412,-0.00423271,0.138736,0.00500837,0.0311347,1973,841,16.9487,-4.3008
756,183,16.8707,5.06708,0.00780578,-0.00564791,0.00210031,0.00812605,-0.00596817,0.151318,0.00816903,0.0451728,1980,841,16.8707,-5.06706
763,183,17.0214,5.79407,0,0,0,0,0,0,0,-1,1987,841,17.0213,-5.79406
770,183,19.6804,3.79657,0,0,0,0,0,0,0,-1,1994,841,19.6804,-3.79659
777,183,16.9512,3.56696,0,0,0,0,0,0,0,-1,2001,841,16.9512,-3.56697
784,183,0,0,0,0,0,0,0,0,0,-1,2008,841,0,0
791,183,0,0,0,0,0,0,0,0,0,-1,2015,841,0,0
798,183,0,0,0,0,0,0,0,0,0,-1,2022,841,0,0
805,183,0,0,0,0,0,0,0,0,0,-1,2029,841,0,0
812,183,0,0,0,0,0,0,0,0,0,-1,2036,841,0,0
-700,176,0,0,0,0,0,0,0,0,0,-1,524,848,0,0
-693,176,0,0,0,0,0,0,0,0,0,-1,531,848,0,0
-686,176,0,0,0,0,0,0,0,0,0,-1,538,848,0,0
-679,176,0,0,0,0,0,0,0,0,0,-1,545,848,0,0
-672,176,0,0,0,0,0,0,0,0,0,-1,552,848,0,0
-665,176,-12.6597,3.15967,0,0,0,0,0,0,0,-1,559,848,-12.6597,-3.1597
-658,176,-12.2591,3.2536,-0.00607435,0.0894597,-0.0256106,0.0958922,-0.0125069,-1.32472,0.0684788,0.0486483,566,848,-12.2591,-3.25361
-651,176,-12.0341,3.15192,-0.00516624,0.0811732,-0.0227171,0.0867856,-0.0107786,-1.32859,0.0617642,0.0463688,573,848,-12.034,-3.15189
-644,176,-11.5827,2.79858,-0.00511666,0.0697879,-0.0183685,0.0740498,-0.0093786,-1.34281,0.0527713,0.0451971,580,848,-11.5827,-2.79856
-637,176,-9.23975,2.19147,0,0,0,0,0,0,0,-1,587,848,-9.23972,-2.19149
-630,176,-9.47046,2.20593,0,0,0,0,0,0,0,-1,594,848,-9.47049,-2.2059
-623,176,-9.96826,2.06549,-0.00563981,0.0340203,-0.00531251,0.0347196,-0.0063391,-1.43992,0.0255232,0.0426198,601,848,-9.96828,-2.06549
-616,176,-10.6291,1.86151,-0.00462098,0.025405,-0.00328143,0.0257594,-0.00497541,-1.4632,0.0190492,0.0304569,608,848,-10.6291,-1.8615
-609,176,-10.6837,1.65521,-0.00465557,0.0169761,-0.00068351,0.0169976,-0.00467715,-1.53924,0.0131706,0.0114547,615,848,-10.6836,-1.65518
-602,176,-10.6993,1.47577,-0.00448346,0.0105631,0.00103689,0.0106342,-0.00455457,1.50232,0.00900038,0.0112616,622,848,-10.6993,-1.47575
-595,176,-10.6943,1.29541,-0.00451017,0.0046153,0.00272755,0.0053684,-0.00526327,1.3014,0.0061383,0.0103102,629,848,-10.6943,-1.29544
-588,176,-10.6834,1.12793,-0.00468543,0.000746658,0.00351305,0.00247115,-0.00640993,1.11447,0.00529292,0.0107221,636,848,-10.6834,-1.12792
-581,176,-10.6807,0.974304,-0.00498064,-0.000116175,0.00336509,0.00160365,-0.00670046,1.09833,0.0050865,0.0108196,643,848,-10.6807,-0.974287
-574,176,-10.6757,0.797852,-0.00567731,-0.00042744,0.0034894,0.00131411,-0.00741886,1.10787,0.00543714,0.0126951,650,848,-10.6757,-0.797836
-567,176,-10.6318,0.678284,-0.00615328,-0.00042221,0.00348961,0.00122764,-0.00780313,1.12915,0.00565588,0.0221244,657,848,-10.6319,-0.678295
-560,176,-10.7384,0.49054,-0.0067905,0.000357943,0.00316548,0.00155817,-0.00799073,1.20838,0.00591535,0.0181022,664,848,-10.7384,-0.490534
-553,176,-10.6634,0.24176,-0.00766552,0.00120165,0.00268449,0.00195104,-0.0084149,1.29857,0.00636082,0.0303652,671,848,-10.6634,-0.24179
-546,176,-10.5977,-0.0442505,-0.00851292,0.00223736,0.00225724,0.00269208,-0.00896764,1.37201,0.00704927,0.0495644,678,848,-10.5977,0.0442256
-539,176,-10.4295,-0.476807,0,0,0,0,0,0,0,-1,685,848,-10.4295,0.476832
-532,176,-13.3541,1.19482,-0.00935774,0.004626,0.000617672,0.00465323,-0.00938497,1.52674,0.008257,0.0403172,692,848,-13.3541,-1.19485
-525,176,-13.3916,1.21515,-0.00935068,0.00586236,-0.000622162,0.00588776,-0.00937608,-1.52999,0.00888896,0.047404,699,848,-13.3916,-1.21513
-518,176,-13.4357,1.07196,-0.00897714,0.00693715,-0.00212956,0.00721718,-0.00925718,-1.44005,0.00953575,0.0412001,706,848,-13.4357,-1.07195
-511,176,-13.5585,0.517517,-0.00794187,0.00732353,-0.0037727,0.00820502,-0.00882336,-1.34127,0.0098335,0.0379388,713,848,-13.5585,-0.517513
-504,176,-13.6631,0.316528,-0.00600465,0.0063205,-0.00524863,0.0082527,-0.00793685,-1.21806,0.00934763,0.0398968,720,848,-13.6631,-0.316525
-497,176,-13.5302,0.640442,0,0,0,0,0,0,0,-1,727,848,-13.5301,-0.640433
-490,176,-13.3885,0.95459,0,0,0,0,0,0,0,-1,734,848,-13.3885,-0.954616
-483,176,0,0,0,0,0,0,0,0,0,-1,741,848,0,0
-476,176,0,0,0,0,0,0,0,0,0,-1,748,848,0,0
-469,176,0,0,0,0,0,0,0,0,0,-1,755,848,0,0
-462,176,0,0,0,0,0,0,0,0,0,-1,762,848,0,0
-455,176,0,0,0,0,0,0,0,0,0,-1,769,848,0,0
-448,176,0,0,0,0,0,0,0,0,0,-1,776,848,0,0
-441,176,0,0,0,0,0,0,0,0,0,-1,783,848,0,0
-434,176,0,0,0,0,0,0,0,0,0,-1,790,848,0,0
-427,176,0,0,0,0,0,0,0,0,0,-1,797,848,0,0
-420,176,0,0,0,0,0,0,0,0,0,-1,804,848,0,0
-413,176,0,0,0,0,0,0,0,0,0,-1,811,848,0,0
-406,176,0,0,0,0,0,0,0,0,0,-1,818,848,0,0
-399,176,0,0,0,0,0,0,0,0,0,-1,825,848,0,0
-392,176,0,0,0,0,0,0,0,0,0,-1,832,848,0,0
-385,176,0,0,0,0,0,0,0,0,0,-1,839,848,0,0
-378,176,0,0,0,0,0,0,0,0,0,-1,846,848,0,0
-371,176,0,0,0,0,0,0,0,0,0,-1,853,848,0,0
-364,176,0,0,0,0,0,0,0,0,0,-1,860,848,0,0
-357,176,0,0,0,0,0,0,0,0,0,-1,867,848,0,0
-350,176,0,0,0,0,0,0,0,0,0,-1,874,848,0,0
-343,176,0,0,0,0,0,0,0,0,0,-1,881,848,0,0
-336,176,0,0,0,0,0,0,0,0,0,-1,888,848,0,0
-329,176,0,0,0,0,0,0,0,0,0,-1,895,848,0,0
-322,176,0,0,0,0,0,0,0,0,0,-1,902,848,0,0
-315,176,0,0,0,0,0,0,0,0,0,-1,909,848,0,0
-308,176,0,0,0,0,0,0,0,0,0,-1,916,848,0,0
-301,176,0,0,0,0,0,0,0,0,0,-1,923,848,0,0
-294,176,0,0,0,0,0,0,0,0,0,-1,930,848,0,0
-287,176,0,0,0,0,0,0,0,0,0,-1,937,848,0,0
-280,176,0,0,0,0,0,0,0,0,0,-1,944,848,0,0
-273,176,0,0,0,0,0,0,0,0,0,-1,951,848,0,0
-266,176,0,0,0,0,0,0,0,0,0,-1,958,848,0,0
-259,176,0,0,0,0,0,0,0,0,0,-1,965,848,0,0
-252,176,0,0,0,0,0,0,0,0,0,-1,972,848,0,0
-245,176,0,0,0,0,0,0,0,0,0,-1,979,848,0,0
-238,176,0,0,0,0,0,0,0,0,0,-1,986,848,0,0
-231,176,0,0,0,0,0,0,0,0,0,-1,993,848,0,0
-224,176,0,0,0,0,0,0,0,0,0,-1,1000,848,0,0
-217,176,0,0,0,0,0,0,0,0,0,-1,1007,848,0,0
-210,176,0,0,0,0,0,0,0,0,0,-1,1014,848,0,0
-203,176,0,0,0,0,0,0,0,0,0,-1,1021,848,0,0
-196,176,0,0,0,0,0,0,0,0,0,-1,1028,848,0,0
-189,176,0,0,0,0,0,0,0,0,0,-1,1035,848,0,0
-182,176,0,0,0,0,0,0,0,0,0,-1,1042,848,0,0
-175,176,0,0,0,0,0,0,0,0,0,-1,1049,848,0,0
-168,176,0,0,0,0,0,0,0,0,0,-1,1056,848,0,0
-161,176,0,0,0,0,0,0,0,0,0,-1,1063,848,0,0
-154,176,0,0,0,0,0,0,0,0,0,-1,1070,848,0,0
-147,176,0,0,0,0,0,0,0,0,0,-1,1077,848,0,0
-140,176,0,0,0,0,0,0,0,0,0,-1,1084,848,0,0
-133,176,0,0,0,0,0,0,0,0,0,-1,1091,848,0,0
-126,176,0,0,0,0,0,0,0,0,0,-1,1098,848,0,0
-119,176,0,0,0,0,0,0,0,0,0,-1,1105,848,0,0
-112,176,0,0,0,0,0,0,0,0,0,-1,1112,848,0,0
-105,176,0,0,0,0,0,0,0,0,0,-1,1119,848,0,0
-98,176,0,0,0,0,0,0,0,0,0,-1,1126,848,0,0
-91,176,0,0,0,0,0,0,0,0,0,-1,1133,848,0,0
-84,176,0,0,0,0,0,0,0,0,0,-1,1140,848,0,0
-77,176,0,0,0,0,0,0,0,0,0,-1,1147,848,0,0
-70,176,0,0,0,0,0,0,0,0,0,-1,1154,848,0,0
-63,176,0,0,0,0,0,0,0,0,0,-1,1161,848,0,0
-56,176,0,0,0,0,0,0,0,0,0,-1,1168,848,0,0
-49,176,0,0,0,0,0,0,0,0,0,-1,1175,848,0,0
-42,176,0,0,0,0,0,0,0,0,0,-1,1182,848,0,0
-35,176,0,0,0,0,0,0,0,0,0,-1,1189,848,0,0
-28,176,0,0,0,0,0,0,0,0,0,-1,1196,848,0,0
-21,176,0,0,0,0,0,0,0,0,0,-1,1203,848,0,0
-14,176,0,0,0,0,0,0,0,0,0,-1,1210,848,0,0
-7,176,0,0,0,0,0,0,0,0,0,-1,1217,848,0,0
0,176,0,0,0,0,0,0,0,0,0,-1,1224,848,0,0
7,176,0,0,0,0,0,0,0,0,0,-1,1231,848,0,0
14,176,0,0,0,0,0,0,0,0,0,-1,1238,848,0,0
21,176,0,0,0,0,0,0,0,0,0,-1,1245,848,0,0
28,176,0,0,0,0,0,0,0,0,0,-1,1252,848,0,0
35,176,0,0,0,0,0,0,0,0,0,-1,1259,848,0,0
42,176,0,0,0,0,0,0,0,0,0,-1,1266,848,0,0
49,176,0,0,0,0,0,0,0,0,0,-1,1273,848,0,0
56,176,0,0,0,0,0,0,0,0,0,-1,1280,848,0,0
63,176,0,0,0,0,0,0,0,0,0,-1,1287,848,0,0
70,176,0,0,0,0,0,0,0,0,0,-1,1294,848,0,0
77,176,0,0,0,0,0,0,0,0,0,-1,1301,848,0,0
84,176,0,0,0,0,0,0,0,0,0,-1,1308,848,0,0
91,176,0,0,0,0,0,0,0,0,0,-1,1315,848,0,0
98,176,0,0,0,0,0,0,0,0,0,-1,1322,848,0,0
105,176,0,0,0,0,0,0,0,0,0,-1,1329,848,0,0
112,176,0,0,0,0,0,0,0,0,0,-1,1336,848,0,0
119,176,0,0,0,0,0,0,0,0,0,-1,1343,848,0,0
126,176,0,0,0,0,0,0,0,0,0,-1,1350,848,0,0
133,176,0,0,0,0,0,0,0,0,0,-1,1357,848,0,0
140,176,0,0,0,0,0,0,0,0,0,-1,1364,848,0,0
147,176,0,0,0,0,0,0,0,0,0,-1,1371,848,0,0
154,176,0,0,0,0,0,0,0,0,0,-1,1378,848,0,0
161,176,0,0,0,0,0,0,0,0,0,-1,1385,848,0,0
168,176,0,0,0,0,0,0,0,0,0,-1,1392,848,0,0
175,176,0,0,0,0,0,0,0,0,0,-1,1399,848,0,0
182,176,0,0,0,0,0,0,0,0,0,-1,1406,848,0,0
189,176,0,0,0,0,0,0,0,0,0,-1,1413,848,0,0
196,176,0,0,0,0,0,0,0,0,0,-1,1420,848,0,0
203,176,0,0,0,0,0,0,0,0,0,-1,1427,848,0,0
210,176,0,0,0,0,0,0,0,0,0,-1,1434,848,0,0
217,176,0,0,0,0,0,0,0,0,0,-1,1441,848,0,0
224,176,0,0,0,0,0,0,0,0,0,-1,1448,848,0,0
231,176,0,0,0,0,0,0,0,0,0,-1,1455,848,0,0
238,176,0,0,0,0,0,0,0,0,0,-1,1462,848,0,0
245,176,0,0,0,0,0,0,0,0,0,-1,1469,848,0,0
252,176,0,0,0,0,0,0,0,0,0,-1,1476,848,0,0
259,176,0,0,0,0,0,0,0,0,0,-1,1483,848,0,0
266,176,0,0,0,0,0,0,0,0,0,-1,1490,848,0,0
273,176,0,0,0,0,0,0,0,0,0,-1,1497,848,0,0
280,176,0,0,0,0,0,0,0,0,0,-1,1504,848,0,0
287,176,0,0,0,0,0,0,0,0,0,-1,1511,848,0,0
294,176,0,0,0,0,0,0,0,0,0,-1,1518,848,0,0
301,176,0,0,0,0,0,0,0,0,0,-1,1525,848,0,0
308,176,0,0,0,0,0,0,0,0,0,-1,1532,848,0,0
315,176,0,0,0,0,0,0,0,0,0,-1,1539,848,0,0
322,176,0,0,0,0,0,0,0,0,0,-1,1546,848,0,0
329,176,0,0,0,0,0,0,0,0,0,-1,1553,848,0,0
336,176,0,0,0,0,0,0,0,0,0,-1,1560,848,0,0
343,176,0,0,0,0,0,0,0,0,0,-1,1567,848,0,0
350,176,0,0,0,0,0,0,0,0,0,-1,1574,848,0,0
357,176,0,0,0,0,0,0,0,0,0,-1,1581,848,0,0
364,176,0,0,0,0,0,0,0,0,0,-1,1588,848,0,0
371,176,0,0,0,0,0,0,0,0,0,-1,1595,848,0,0
378,176,0,0,0,0,0,0,0,0,0,-1,1602,848,0,0
385,176,0,0,0,0,0,0,0,0,0,-1,1609,848,0,0
392,176,0,0,0,0,0,0,0,0,0,-1,1616,848,0,0
399,176,0,0,0,0,0,0,0,0,0,-1,1623,848,0,0
406,176,0,0,0,0,0,0,0,0,0,-1,1630,848,0,0
413,176,0,0,0,0,0,0,0,0,0,-1,1637,848,0,0
420,176,0,0,0,0,0,0,0,0,0,-1,1644,848,0,0
427,176,0,0,0,0,0,0,0,0,0,-1,1651,848,0,0
434,176,0,0,0,0,0,0,0,0,0,-1,1658,848,0,0
441,176,0,0,0,0,0,0,0,0,0,-1,1665,848,0,0
448,176,0,0,0,0,0,0,0,0,0,-1,1672,848,0,0
455,176,0,0,0,0,0,0,0,0,0,-1,1679,848,0,0
462,176,0,0,0,0,0,0,0,0,0,-1,1686,848,0,0
469,176,0,0,0,0,0,0,0,0,0,-1,1693,848,0,0
476,176,0,0,0,0,0,0,0,0,0,-1,1700,848,0,0
483,176,0,0,0,0,0,0,0,0,0,-1,1707,848,0,0
490,176,0,0,0,0,0,0,0,0,0,-1,1714,848,0,0
497,176,0,0,0,0,0,0,0,0,0,-1,1721,848,0,0
504,176,0,0,0,0,0,0,0,0,0,-1,1728,848,0,0
511,176,0,0,0,0,0,0,0,0,0,-1,1735,848,0,0
518,176,0,0,0,0,0,0,0,0,0,-1,1742,848,0,0
525,176,0,0,0,0,0,0,0,0,0,-1,1749,848,0,0
532,176,0,0,0,0,0,0,0,0,0,-1,1756,848,0,0
539,176,0,0,0,0,0,0,0,0,0,-1,1763,848,0,0
546,176,0,0,0,0,0,0,0,0,0,-1,1770,848,0,0
553,176,0,0,0,0,0,0,0,0,0,-1,1777,848,0,0
560,176,0,0,0,0,0,0,0,0,0,-1,1784,848,0,0
567,176,0,0,0,0,0,0,0,0,0,-1,1791,848,0,0
574,176,0,0,0,0,0,0,0,0,0,-1,1798,848,0,0
581,176,0,0,0,0,0,0,0,0,0,-1,1805,848,0,0
588,176,0,0,0,0,0,0,0,0,0,-1,1812,848,0,0
595,176,0,0,0,0,0,0,0,0,0,-1,1819,848,0,0
602,176,0,0,0,0,0,0,0,0,0,-1,1826,848,0,0
609,176,20.8088,2.72119,-0.000767441,0.00387176,0.00290483,0.00526949,-0.00216517,1.12232,0.00441537,0.0385561,1833,848,20.8088,-2.7212
616,176,20.7217,2.70209,-0.00021439,0.00360226,0.00199995,0.00445827,-0.00107039,1.16638,0.00338585,0.0362355,1840,848,20.7217,-2.70211
623,176,20.686,3.12561,0.000205517,0.00312257,0.0011921,0.00354776,-0.00021968,1.22819,0.0024417,0.041827,1847,848,20.686,-3.12563
630,176,20.7897,3.00647,0.000675936,0.00279003,0.000570571,0.00293419,0.000531776,1.32332,0.00180517,0.0410293,1854,848,20.7897,-3.00648
637,176,20.9115,2.80945,0.000985897,0.00234125,0.000153662,0.00235845,0.000968694,1.45931,0.00136887,0.0342853,1861,848,20.9115,-2.80944
644,176,20.7584,2.82068,0.000915968,0.00189876,-8.18047e-05,0.00190553,0.000909205,-1.48832,0.00110054,0.0333797,1868,848,20.7585,-2.82069
651,176,20.7483,2.85583,0.000738537,0.0014735,-0.000228553,0.00153877,0.000673261,-1.2926,0.000890719,0.0317602,1875,848,20.7483,-2.85585
658,176,20.8457,2.81927,0.000605306,0.00121507,-0.000358929,0.00138112,0.000439248,-1.13748,0.000814803,0.0353668,1882,848,20.8458,-2.8193
665,176,20.8763,2.88068,0,0,0,0,0,0,0,-1,1889,848,20.8764,-2.88065
672,176,16.9304,2.80719,0,0,0,0,0,0,0,-1,1896,848,16.9305,-2.80719
679,176,17.4225,2.28363,0,0,0,0,0,0,0,-1,1903,848,17.4225,-2.28364
686,176,17.3153,2.51416,-0.000685258,-8.80866e-05,-0.000561178,0.000248996,-0.00102234,-1.02988,0.000777957,0.023113,1910,848,17.3153,-2.51413
693,176,17.2479,2.74414,-0.000831385,-0.00021077,-0.000518256,8.29757e-05,-0.00112513,-1.05515,0.00077922,0.0127861,1917,848,17.2479,-2.74416
700,176,17.2124,2.9292,-0.00111219,-0.000322108,-0.000555055,-3.58691e-05,-0.00139843,-1.09467,0.000920565,0.0149071,1924,848,17.2124,-2.92921
707,176,17.212,3.09766,-0.00166461,-0.000418928,-0.000611729,-0.000168762,-0.00191478,-1.1826,0.00122415,0.0133404,1931,848,17.212,-3.09765
714,176,17.2173,3.27441,-0.00177571,-0.00051132,-0.00072062,-0.000184889,-0.00210214,-1.14546,0.00134404,0.0121292,1938,848,17.2173,-3.2744
721,176,17.1995,3.46942,-0.00114776,-0.000712954,-0.000483993,-0.000399778,-0.00146093,-0.996485,0.000871805,0.0117471,1945,848,17.1994,-3.46944
728,176,17.1934,3.65961,-3.16017e-06,-0.000938247,0.000104363,8.34593e-06,-0.000949753,0.109807,0.000635969,0.0138944,1952,848,17.1934,-3.65962
735,176,17.171,3.82819,0.00192805,-0.00102634,0.00051143,0.00201408,-0.00111237,0.166651,0.00182991,0.0135721,1959,848,17.171,-3.82816
742,176,17.1908,3.99103,0.00451828,-0.00138022,0.000792689,0.00462295,-0.00148489,0.131286,0.00367823,0.0164704,1966,848,17.1908,-3.99105
749,176,17.1428,4.23682,0.00776945,-0.00191548,0.00146771,0.00798699,-0.00213302,0.147145,0.00616002,0.0271317,1973,848,17.1428,-4.23682
756,176,17.1541,4.8822,0.0123465,-0.00268208,0.00229201,0.0126883,-0.00302386,0.148028,0.00962642,0.0440103,1980,848,17.1541,-4.88221
763,176,19.053,3.7995,0,0,0,0,0,0,0,-1,1987,848,19.053,-3.79952
770,176,19.3826,4.02899,0,0,0,0,0,0,0,-1,1994,848,19.3825,-4.029
777,176,19.712,4.25848,0,0,0,0,0,0,0,-1,2001,848,19.712,-4.25849
784,176,0,0,0,0,0,0,0,0,0,-1,2008,848,0,0
791,176,0,0,0,0,0,0,0,0,0,-1,2015,848,0,0
798,176,0,0,0,0,0,0,0,0,0,-1,2022,848,0,0
805,176,0,0,0,0,0,0,0,0,0,-1,2029,848,0,0
812,176,0,0,0,0,0,0,0,0,0,-1,2036,848,0,0
-700,169,0,0,0,0,0,0,0,0,0,-1,524,855,0,0
-693,169,0,0,0,0,0,0,0,0,0,-1,531,855,0,0
-686,169,0,0,0,0,0,0,0,0,0,-1,538,855,0,0
-679,169,0,0,0,0,0,0,0,0,0,-1,545,855,0,0
-672,169,0,0,0,0,0,0,0,0,0,-1,552,855,0,0
-665,169,-12.3803,2.52954,0,0,0,0,0,0,0,-1,559,855,-12.3803,-2.52956
-658,169,-11.8885,2.5069,0,0,0,0,0,0,0,-1,566,855,-11.8885,-2.50688
-651,169,-11.1529,2.01953,0,0,0,0,0,0,0,-1,573,855,-11.1529,-2.01955
-644,169,-10.8088,1.51294,-0.00791754,0.0558975,-0.0111696,0.057796,-0.00981607,-1.40243,0.0421851,0.0471348,580,855,-10.8088,-1.51293
-637,169,-11.0413,1.58087,-0.00714002,0.0464757,-0.00794891,0.0476293,-0.00829368,-1.42667,0.034848,0.0424078,587,855,-11.0413,-1.58085
-630,169,-10.8509,2.28931,0,0,0,0,0,0,0,-1,594,855,-10.8509,-2.28932
-623,169,-10.8467,2.03528,-0.00618677,0.0278075,-0.00215682,0.0279438,-0.00632306,-1.50769,0.0210558,0.0414783,601,855,-10.8467,-2.03528
-616,169,-10.8461,1.83124,-0.00471455,0.0211493,-0.00122028,0.0212067,-0.00477199,-1.52375,0.015968,0.0228305,608,855,-10.8461,-1.83125
-609,169,-10.8494,1.66339,-0.00464182,0.0142517,0.000747181,0.0142812,-0.00467132,1.53133,0.0114015,0.0126102,615,855,-10.8494,-1.66337
-602,169,-10.8705,1.48901,-0.00458644,0.00888517,0.00202554,0.00918314,-0.0048844,1.42474,0.00824733,0.0122502,622,855,-10.8706,-1.48901
-595,169,-10.8804,1.28796,-0.00484982,0.00371593,0.0032959,0.00483731,-0.0059712,1.24285,0.00625173,0.0111068,629,855,-10.8805,-1.28797
-588,169,-10.8557,1.13403,-0.0053044,0.000324805,0.00389817,0.00231829,-0.00729789,1.09808,0.00579472,0.0090813,636,855,-10.8557,-1.13403
-581,169,-10.8663,0.979614,-0.00587379,-0.000451573,0.00380433,0.00150883,-0.0078342,1.09498,0.00579163,0.00969589,643,855,-10.8663,-0.979645
-574,169,-10.9191,0.815552,-0.00678221,-0.000696669,0.00394084,0.00123939,-0.00871826,1.11415,0.00626629,0.0122714,650,855,-10.9191,-0.815563
-567,169,-10.8466,0.710083,-0.00740758,-0.000709638,0.00394821,0.00111865,-0.00923587,1.13713,0.00656199,0.0204343,657,855,-10.8466,-0.710084
-560,169,-10.892,0.552551,-0.00806793,-0.000121401,0.00371958,0.00134795,-0.00953728,1.19458,0.00685185,0.0199597,664,855,-10.892,-0.552554
-553,169,-10.8462,0.331177,-0.00889654,0.000517539,0.00337591,0.001603,-0.00998199,1.25971,0.00724832,0.0294751,671,855,-10.8462,-0.331171
-546,169,-10.6524,0.0762939,0,0,0,0,0,0,0,-1,678,855,-10.6524,-0.0763203
-539,169,-13.0052,0.638733,-0.010069,0.00237763,0.00238408,0.00281866,-0.01051,1.38788,0.00811118,0.046243,685,855,-13.0053,-0.638743
-532,169,-13.502,1.02167,-0.0100679,0.0034429,0.00143369,0.00359336,-0.0102183,1.46623,0.00827432,0.0370094,692,855,-13.502,-1.02169
-525,169,-13.491,0.988464,-0.00967992,0.00454446,0.000127886,0.00454561,-0.00968107,1.56181,0.00839026,0.0442086,699,855,-13.4909,-0.988483
-518,169,-13.5273,0.929016,-0.00875092,0.00545741,-0.00153861,0.00562212,-0.00891562,-1.46415,0.00846486,0.0404853,706,855,-13.5273,-0.929046
-511,169,-13.4909,0.594666,-0.00699459,0.00564179,-0.00342896,0.00651229,-0.00786509,-1.32218,0.00831303,0.0383385,713,855,-13.4909,-0.594689
-504,169,-13.5396,0.3573,-0.00432539,0.0043989,-0.00519703,0.00682184,-0.00674833,-1.13454,0.00783478,0.0391263,720,855,-13.5395,-0.357318
-497,169,-13.5761,0.148315,0,0,0,0,0,0,0,-1,727,855,-13.5761,-0.148329
-490,169,0,0,0,0,0,0,0,0,0,-1,734,855,0,0
-483,169,0,0,0,0,0,0,0,0,0,-1,741,855,0,0
-476,169,0,0,0,0,0,0,0,0,0,-1,748,855,0,0
-469,169,0,0,0,0,0,0,0,0,0,-1,755,855,0,0
-462,169,0,0,0,0,0,0,0,0,0,-1,762,855,0,0
-455,169,0,0,0,0,0,0,0,0,0,-1,769,855,0,0
-448,169,0,0,0,0,0,0,0,0,0,-1,776,855,0,0
-441,169,0,0,0,0,0,0,0,0,0,-1,783,855,0,0
-434,169,0,0,0,0,0,0,0,0,0,-1,790,855,0,0
-427,169,0,0,0,0,0,0,0,0,0,-1,797,855,0,0
-420,169,0,0,0,0,0,0,0,0,0,-1,804,855,0,0
-413,169,0,0,0,0,0,0,0,0,0,-1,811,855,0,0
-406,169,0,0,0,0,0,0,0,0,0,-1,818,855,0,0
-399,169,0,0,0,0,0,0,0,0,0,-1,825,855,0,0
-392,169,0,0,0,0,0,0,0,0,0,-1,832,855,0,0
-385,169,0,0,0,0,0,0,0,0,0,-1,839,855,0,0
-378,169,0,0,0,0,0,0,0,0,0,-1,846,855,0,0
-371,169,0,0,0,0,0,0,0,0,0,-1,853,855,0,0
-364,169,0,0,0,0,0,0,0,0,0,-1,860,855,0,0
-357,169,0,0,0,0,0,0,0,0,0,-1,867,855,0,0
-350,169,0,0,0,0,0,0,0,0,0,-1,874,855,0,0
-343,169,0,0,0,0,0,0,0,0,0,-1,881,855,0,0
-336,169,0,0,0,0,0,0,0,0,0,-1,888,855,0,0
-329,169,0,0,0,0,0,0,0,0,0,-1,895,855,0,0
-322,169,0,0,0,0,0,0,0,0,0,-1,902,855,0,0
-315,169,0,0,0,0,0,0,0,0,0,-1,909,855,0,0
-308,169,0,0,0,0,0,0,0,0,0,-1,916,855,0,0
-301,169,0,0,0,0,0,0,0,0,0,-1,923,855,0,0
-294,169,0,0,0,0,0,0,0,0,0,-1,930,855,0,0
-287,169,0,0,0,0,0,0,0,0,0,-1,937,855,0,0
-280,169,0,0,0,0,0,0,0,0,0,-1,944,855,0,0
-273,169,0,0,0,0,0,0,0,0,0,-1,951,855,0,0
-266,169,0,0,0,0,0,0,0,0,0,-1,958,855,0,0
-259,169,0,0,0,0,0,0,0,0,0,-1,965,855,0,0
-252,169,0,0,0,0,0,0,0,0,0,-1,972,855,0,0
-245,169,0,0,0,0,0,0,0,0,0,-1,979,855,0,0
-238,169,0,0,0,0,0,0,0,0,0,-1,986,855,0,0
-231,169,0,0,0,0,0,0,0,0,0,-1,993,855,0,0
-224,169,0,0,0,0,0,0,0,0,0,-1,1000,855,0,0
-217,169,0,0,0,0,0,0,0,0,0,-1,1007,855,0,0
-210,169,0,0,0,0,0,0,0,0,0,-1,1014,855,0,0
-203,169,0,0,0,0,0,0,0,0,0,-1,1021,855,0,0
-196,169,0,0,0,0,0,0,0,0,0,-1,1028,855,0,0
-189,169,0,0,0,0,0,0,0,0,0,-1,1035,855,0,0
-182,169,0,0,0,0,0,0,0,0,0,-1,1042,855,0,0
-175,169,0,0,0,0,0,0,0,0,0,-1,1049,855,0,0
-168,169,0,0,0,0,0,0,0,0,0,-1,1056,855,0,0
-161,169,0,0,0,0,0,0,0,0,0,-1,1063,855,0,0
-154,169,0,0,0,0,0,0,0,0,0,-1,1070,855,0,0
-147,169,0,0,0,0,0,0,0,0,0,-1,1077,855,0,0
-140,169,0,0,0,0,0,0,0,0,0,-1,1084,855,0,0
-133,169,0,0,0,0,0,0,0,0,0,-1,1091,855,0,0
-126,169,0,0,0,0,0,0,0,0,0,-1,1098,855,0,0
-119,169,0,0,0,0,0,0,0,0,0,-1,1105,855,0,0
-112,169,0,0,0,0,0,0,0,0,0,-1,1112,855,0,0
-105,169,0,0,0,0,0,0,0,0,0,-1,1119,855,0,0
-98,169,0,0,0,0,0,0,0,0,0,-1,1126,855,0,0
-91,169,0,0,0,0,0,0,0,0,0,-1,1133,855,0,0
-84,169,0,0,0,0,0,0,0,0,0,-1,1140,855,0,0
-77,169,0,0,0,0,0,0,0,0,0,-1,1147,855,0,0
-70,169,0,0,0,0,0,0,0,0,0,-1,1154,855,0,0
-63,169,0,0,0,0,0,0,0,0,0,-1,1161,855,0,0
-56,169,0,0,0,0,0,0,0,0,0,-1,1168,855,0,0
-49,169,0,0,0,0,0,0,0,0,0,-1,1175,855,0,0
-42,169,0,0,0,0,0,0,0,0,0,-1,1182,855,0,0
-35,169,0,0,0,0,0,0,0,0,0,-1,1189,855,0,0
-28,169,0,0,0,0,0,0,0,0,0,-1,1196,855,0,0
-21,169,0,0,0,0,0,0,0,0,0,-1,1203,855,0,0
-14,169,0,0,0,0,0,0,0,0,0,-1,1210,855,0,0
-7,169,0,0,0,0,0,0,0,0,0,-1,1217,855,0,0
0,169,0,0,0,0,0,0,0,0,0,-1,1224,855,0,0
7,169,0,0,0,0,0,0,0,0,0,-1,1231,855,0,0
14,169,0,0,0,0,0,0,0,0,0,-1,1238,855,0,0
21,169,0,0,0,0,0,0,0,0,0,-1,1245,855,0,0
28,169,0,0,0,0,0,0,0,0,0,-1,1252,855,0,0
35,169,0,0,0,0,0,0,0,0,0,-1,1259,855,0,0
42,169,0,0,0,0,0,0,0,0,0,-1,1266,855,0,0
49,169,0,0,0,0,0,0,0,0,0,-1,1273,855,0,0
56,169,0,0,0,0,0,0,0,0,0,-1,1280,855,0,0
63,169,0,0,0,0,0,0,0,0,0,-1,1287,855,0,0
70,169,0,0,0,0,0,0,0,0,0,-1,1294,855,0,0
77,169,0,0,0,0,0,0,0,0,0,-1,1301,855,0,0
84,169,0,0,0,0,0,0,0,0,0,-1,1308,855,0,0
91,169,0,0,0,0,0,0,0,0,0,-1,1315,855,0,0
98,169,0,0,0,0,0,0,0,0,0,-1,1322,855,0,0
105,169,0,0,0,0,0,0,0,0,0,-1,1329,855,0,0
112,169,0,0,0,0,0,0,0,0,0,-1,1336,855,0,0
119,169,0,0,0,0,0,0,0,0,0,-1,1343,855,0,0
126,169,0,0,0,0,0,0,0,0,0,-1,1350,855,0,0
133,169,0,0,0,0,0,0,0,0,0,-1,1357,855,0,0
140,169,0,0,0,0,0,0,0,0,0,-1,1364,855,0,0
147,169,0,0,0,0,0,0,0,0,0,-1,1371,855,0,0
154,169,0,0,0,0,0,0,0,0,0,-1,1378,855,0,0
161,169,0,0,0,0,0,0,0,0,0,-1,1385,855,0,0
168,169,0,0,0,0,0,0,0,0,0,-1,1392,855,0,0
175,169,0,0,0,0,0,0,0,0,0,-1,1399,855,0,0
182,169,0,0,0,0,0,0,0,0,0,-1,1406,855,0,0
189,169,0,0,0,0,0,0,0,0,0,-1,1413,855,0,0
196,169,0,0,0,0,0,0,0,0,0,-1,1420,855,0,0
203,169,0,0,0,0,0,0,0,0,0,-1,1427,855,0,0
210,169,0,0,0,0,0,0,0,0,0,-1,1434,855,0,0
217,169,0,0,0,0,0,0,0,0,0,-1,1441,855,0,0
224,169,0,0,0,0,0,0,0,0,0,-1,1448,855,0,0
231,169,0,0,0,0,0,0,0,0,0,-1,1455,855,0,0
238,169,0,0,0,0,0,0,0,0,0,-1,1462,855,0,0
245,169,0,0,0,0,0,0,0,0,0,-1,1469,855,0,0
252,169,0,0,0,0,0,0,0,0,0,-1,1476,855,0,0
259,169,0,0,0,0,0,0,0,0,0,-1,1483,855,0,0
266,169,0,0,0,0,0,0,0,0,0,-1,1490,855,0,0
273,169,0,0,0,0,0,0,0,0,0,-1,1497,855,0,0
280,169,0,0,0,0,0,0,0,0,0,-1,1504,855,0,0
287,169,0,0,0,0,0,0,0,0,0,-1,1511,855,0,0
294,169,0,0,0,0,0,0,0,0,0,-1,1518,855,0,0
301,169,0,0,0,0,0,0,0,0,0,-1,1525,855,0,0
308,169,0,0,0,0,0,0,0,0,0,-1,1532,855,0,0
315,169,0,0,0,0,0,0,0,0,0,-1,1539,855,0,0
322,169,0,0,0,0,0,0,0,0,0,-1,1546,855,0,0
329,169,0,0,0,0,0,0,0,0,0,-1,1553,855,0,0
336,169,0,0,0,0,0,0,0,0,0,-1,1560,855,0,0
343,169,0,0,0,0,0,0,0,0,0,-1,1567,855,0,0
350,169,0,0,0,0,0,0,0,0,0,-1,1574,855,0,0
357,169,0,0,0,0,0,0,0,0,0,-1,1581,855,0,0
364,169,0,0,0,0,0,0,0,0,0,-1,1588,855,0,0
371,169,0,0,0,0,0,0,0,0,0,-1,1595,855,0,0
378,169,0,0,0,0,0,0,0,0,0,-1,1602,855,0,0
385,169,0,0,0,0,0,0,0,0,0,-1,1609,855,0,0
392,169,0,0,0,0,0,0,0,0,0,-1,1616,855,0,0
399,169,0,0,0,0,0,0,0,0,0,-1,1623,855,0,0
406,169,0,0,0,0,0,0,0,0,0,-1,1630,855,0,0
413,169,0,0,0,0,0,0,0,0,0,-1,1637,855,0,0
420,169,0,0,0,0,0,0,0,0,0,-1,1644,855,0,0
427,169,0,0,0,0,0,0,0,0,0,-1,1651,855,0,0
434,169,0,0,0,0,0,0,0,0,0,-1,1658,855,0,0
441,169,0,0,0,0,0,0,0,0,0,-1,1665,855,0,0
448,169,0,0,0,0,0,0,0,0,0,-1,1672,855,0,0
455,169,0,0,0,0,0,0,0,0,0,-1,1679,855,0,0
462,169,0,0,0,0,0,0,0,0,0,-1,1686,855,0,0
469,169,0,0,0,0,0,0,0,0,0,-1,1693,855,0,0
476,169,0,0,0,0,0,0,0,0,0,-1,1700,855,0,0
483,169,0,0,0,0,0,0,0,0,0,-1,1707,855,0,0
490,169,0,0,0,0,0,0,0,0,0,-1,1714,855,0,0
497,169,0,0,0,0,0,0,0,0,0,-1,1721,855,0,0
504,169,0,0,0,0,0,0,0,0,0,-1,1728,855,0,0
511,169,0,0,0,0,0,0,0,0,0,-1,1735,855,0,0
518,169,0,0,0,0,0,0,0,0,0,-1,1742,855,0,0
525,169,0,0,0,0,0,0,0,0,0,-1,1749,855,0,0
532,169,0,0,0,0,0,0,0,0,0,-1,1756,855,0,0
539,169,0,0,0,0,0,0,0,0,0,-1,1763,855,0,0
546,169,0,0,0,0,0,0,0,0,0,-1,1770,855,0,0
553,169,0,0,0,0,0,0,0,0,0,-1,1777,855,0,0
560,169,0,0,0,0,0,0,0,0,0,-1,1784,855,0,0
567,169,0,0,0,0,0,0,0,0,0,-1,1791,855,0,0
574,169,0,0,0,0,0,0,0,0,0,-1,1798,855,0,0
581,169,0,0,0,0,0,0,0,0,0,-1,1805,855,0,0
588,169,0,0,0,0,0,0,0,0,0,-1,1812,855,0,0
595,169,0,0,0,0,0,0,0,0,0,-1,1819,855,0,0
602,169,0,0,0,0,0,0,0,0,0,-1,1826,855,0,0
609,169,0,0,0,0,0,0,0,0,0,-1,1833,855,0,0
616,169,20.7231,2.58624,-0.000817124,0.00493583,0.001787,0.00544572,-0.00132702,1.29285,0.00414425,0.042727,1840,855,20.7232,-2.58625
623,169,20.948,2.89185,-0.000238031,0.00377347,0.00104666,0.00403014,-0.000494699,1.33032,0.00286593,0.0470432,1847,855,20.948,-2.89186
630,169,20.9366,2.81976,0.000369753,0.00301634,0.000561746,0.00313063,0.000255457,1.37007,0.00200736,0.0459775,1854,855,20.9367,-2.81975
637,169,20.9137,2.81519,0.000710672,0.00236247,0.000258115,0.00240186,0.000671277,1.41934,0.00143096,0.0402768,1861,855,20.9138,-2.81521
644,169,20.8088,2.92505,0.000457415,0.00186159,4.40513e-05,0.00186297,0.000456034,1.53947,0.00112132,0.0370191,1868,855,20.8089,-2.92505
651,169,20.7543,2.96454,5.79954e-06,0.00143875,-0.000101491,0.0014459,-1.35298e-06,-1.50044,0.000964385,0.03383,1875,855,20.7543,-2.96452
658,169,20.8267,2.85138,-0.000340919,0.00118315,-0.000219166,0.00121404,-0.00037181,-1.43077,0.000957664,0.0337535,1882,855,20.8266,-2.8514
665,169,20.8867,2.8103,-0.000686673,0.000794368,-0.000286309,0.000847789,-0.000740094,-1.38633,0.000917467,0.0474782,1889,855,20.8868,-2.81033
672,169,20.9637,2.77563,0,0,0,0,0,0,0,-1,1896,855,20.9637,-2.77565
679,169,17.3499,2.27319,0,0,0,0,0,0,0,-1,1903,855,17.3498,-2.27321
686,169,17.3868,2.52197,-0.00215928,8.92627e-06,-0.000584856,0.000156625,-0.00230698,-1.32343,0.00159276,0.0240311,1910,855,17.3869,-2.52199
693,169,17.4194,2.75061,-0.00240439,-2.39536e-05,-0.000564954,0.000103323,-0.00253167,-1.34921,0.00172325,0.0130688,1917,855,17.4195,-2.75062
700,169,17.4402,2.9339,-0.00261626,-0.000118743,-0.00059252,1.46981e-05,-0.00274971,-1.34928,0.00183806,0.0123929,1924,855,17.4402,-2.93392
707,169,17.4193,3.10742,-0.00288147,-0.000227197,-0.000683208,-6.1663e-05,-0.00304701,-1.33309,0.0020111,0.0137017,1931,855,17.4193,-3.10744
714,169,17.3823,3.29065,-0.00262606,-0.000278191,-0.000796001,-3.37677e-05,-0.00287048,-1.27287,0.0019025,0.0137002,1938,855,17.3823,-3.29066
721,169,17.366,3.48517,-0.00149849,-0.000381805,-0.000508362,-0.000185047,-0.00169525,-1.20151,0.00107381,0.0155853,1945,855,17.3659,-3.48515
728,169,17.3916,3.66675,0.000339718,-0.00034885,0.000168133,0.000378579,-0.000387711,0.227144,0.000442428,0.0123886,1952,855,17.3916,-3.66672
735,169,17.3727,3.82776,0.00319612,-3.62659e-05,0.000607535,0.00330654,-0.000146682,0.179782,0.00225485,0.0180883,1959,855,17.3727,-3.82779
742,169,17.4021,3.98621,0.00683697,6.35403e-05,0.000837864,0.00693907,-3.85633e-05,0.121264,0.00463895,0.0137989,1966,855,17.4021,-3.98621
749,169,17.3879,4.13464,0.011182,0.000126075,0.00145351,0.0113699,-6.1824e-05,0.128559,0.00760062,0.0233549,1973,855,17.3879,-4.13466
756,169,17.4144,4.17535,0.0168674,0.000124762,0.00212535,0.017133,-0.000140822,0.124316,0.0114692,0.0468339,1980,855,17.4144,-4.17536
763,169,17.4773,4.26996,0,0,0,0,0,0,0,-1,1987,855,17.4773,-4.26994
770,169,19.0789,4.26471,0.0344252,-0.000593314,0.00336902,0.0347464,-0.00091449,0.0950453,0.023475,0.0472501,1994,855,19.0789,-4.26473
777,169,19.4125,4.48706,0.047063,-0.00179693,0.00345796,0.0473065,-0.00204045,0.0703058,0.0322394,0.0479056,2001,855,19.4124,-4.48706
784,169,19.7153,4.66974,0,0,0,0,0,0,0,-1,2008,855,19.7154,-4.66976
791,169,0,0,0,0,0,0,0,0,0,-1,2015,855,0,0
798,169,0,0,0,0,0,0,0,0,0,-1,2022,855,0,0
805,169,0,0,0,0,0,0,0,0,0,-1,2029,855,0,0
812,169,0,0,0,0,0,0,0,0,0,-1,2036,855,0,0
-700,162,0,0,0,0,0,0,0,0,0,-1,524,862,0,0
-693,162,0,0,0,0,0,0,0,0,0,-1,531,862,0,0
-686,162,0,0,0,0,0,0,0,0,0,-1,538,862,0,0
-679,162,0,0,0,0,0,0,0,0,0,-1,545,862,0,0
-672,162,0,0,0,0,0,0,0,0,0,-1,552,862,0,0
-665,162,-12.1471,1.75623,-0.0235161,0.047604,-0.00521057,0.0479837,-0.0238958,-1.49805,0.0422692,0.0437327,559,862,-12.1471,-1.75621
-658,162,-11.6284,1.79822,0,0,0,0,0,0,0,-1,566,862,-11.6284,-1.79823
-651,162,-11.1276,1.52057,-0.0130264,0.0475236,-0.00700419,0.0483233,-0.013826,-1.45712,0.0376794,0.049133,573,862,-11.1277,-1.52057
-644,162,-10.8932,1.27234,-0.0104252,0.0422358,-0.00546266,0.0427964,-0.0109859,-1.46851,0.0328118,0.0456619,580,862,-10.8933,-1.27235
-637,162,-11.0704,1.17407,-0.00866347,0.035571,-0.0034585,0.0358398,-0.00893224,-1.49324,0.027361,0.0424083,587,862,-11.0704,-1.17407
-630,162,-11.0808,1.52142,-0.00743571,0.0284774,-0.00146472,0.0285371,-0.00749534,-1.5301,0.0219539,0.0419934,594,862,-11.0808,-1.52143
-623,162,-10.9861,1.82886,-0.00639372,0.0216091,0.00022033,0.0216108,-0.00639545,1.56293,0.0169462,0.0334064,601,862,-10.9862,-1.82884
-616,162,-11.0001,1.81714,-0.00451245,0.0169245,0.000289187,0.0169284,-0.00451635,1.55731,0.0130541,0.018526,608,862,-11.0001,-1.81716
-609,162,-11.0202,1.65564,-0.00438133,0.0114953,0.00173979,0.0116837,-0.00456974,1.46292,0.00967892,0.0126343,615,862,-11.0202,-1.65561
-602,162,-11.0347,1.48456,-0.00452522,0.00721055,0.00267168,0.00779014,-0.00510481,1.35717,0.00749852,0.0113281,622,862,-11.0347,-1.48459
-595,162,-11.037,1.31598,-0.00508794,0.00284713,0.00362195,0.00425173,-0.00649255,1.20085,0.00624802,0.0103952,629,862,-11.0371,-1.31595
-588,162,-11.0343,1.15228,-0.00585075,-5.37656e-05,0.00409899,0.002068,-0.00797252,1.09314,0.0061219,0.0105423,636,862,-11.0343,-1.15231
-581,162,-11.0876,0.97583,-0.0067272,-0.000726232,0.00406822,0.00132831,-0.00878174,1.10314,0.00634379,0.0123781,643,862,-11.0876,-0.975805
-574,162,-11.178,0.804871,-0.00787797,-0.000917191,0.0042266,0.00107757,-0.00987272,1.12984,0.00696883,0.0164808,650,862,-11.178,-0.804888
-567,162,-11.1088,0.670288,-0.00867895,-0.000927171,0.0042396,0.000941219,-0.0105473,1.1557,0.00736537,0.0245202,657,862,-11.1088,-0.670311
-560,162,-11.063,0.420227,-0.00938839,-0.00056426,0.00415835,0.00108653,-0.0110392,1.19289,0.00774707,0.0212437,664,862,-11.063,-0.420238
-553,162,-11.0068,0.21759,-0.0102005,-0.00014329,0.00400545,0.00125698,-0.0116008,1.23449,0.0081851,0.0280894,671,862,-11.0068,-0.217612
-546,162,-13.6406,0.751221,0,0,0,0,0,0,0,-1,678,862,-13.6406,-0.75122
-539,162,-13.5906,0.812134,-0.011069,0.00132061,0.00321221,0.00210391,-0.0118523,1.33161,0.00868815,0.0466,685,862,-13.5907,-0.812149
-532,162,-13.5176,0.833374,-0.0107319,0.00222532,0.00229381,0.0026194,-0.011126,1.40065,0.00842729,0.0403398,692,862,-13.5177,-0.833356
-525,162,-13.509,0.898193,-0.00986948,0.00319327,0.000951019,0.00326214,-0.00993835,1.4985,0.00793957,0.041891,699,862,-13.509,-0.898223
-518,162,-13.5687,0.857056,-0.00824408,0.00397983,-0.000836836,0.00403685,-0.0083011,-1.50276,0.00726376,0.0419722,706,862,-13.5686,-0.857066
-511,162,-13.5161,0.593384,-0.00567298,0.00413873,-0.00300216,0.00498443,-0.00651868,-1.29621,0.00666098,0.0434917,713,862,-13.516,-0.5934
-504,162,-13.4942,0.580688,-0.00233314,0.00310562,-0.00515254,0.00621236,-0.00543988,-1.02821,0.00673235,0.0427129,720,862,-13.4942,-0.580709
-497,162,-13.4514,0.681458,0,0,0,0,0,0,0,-1,727,862,-13.4514,-0.681479
-490,162,0,0,0,0,0,0,0,0,0,-1,734,862,0,0
-483,162,0,0,0,0,0,0,0,0,0,-1,741,862,0,0
-476,162,0,0,0,0,0,0,0,0,0,-1,748,862,0,0
-469,162,0,0,0,0,0,0,0,0,0,-1,755,862,0,0
-462,162,0,0,0,0,0,0,0,0,0,-1,762,862,0,0
-455,162,0,0,0,0,0,0,0,0,0,-1,769,862,0,0
-448,162,0,0,0,0,0,0,0,0,0,-1,776,862,0,0
-441,162,0,0,0,0,0,0,0,0,0,-1,783,862,0,0
-434,162,0,0,0,0,0,0,0,0,0,-1,790,862,0,0
-427,162,0,0,0,0,0,0,0,0,0,-1,797,862,0,0
-420,162,0,0,0,0,0,0,0,0,0,-1,804,862,0,0
-413,162,0,0,0,0,0,0,0,0,0,-1,811,862,0,0
-406,162,0,0,0,0,0,0,0,0,0,-1,818,862,0,0
-399,162,0,0,0,0,0,0,0,0,0,-1,825,862,0,0
-392,162,0,0,0,0,0,0,0,0,0,-1,832,862,0,0
-385,162,0,0,0,0,0,0,0,0,0,-1,839,862,0,0
-378,162,0,0,0,0,0,0,0,0,0,-1,846,862,0,0
-371,162,0,0,0,0,0,0,0,0,0,-1,853,862,0,0
-364,162,0,0,0,0,0,0,0,0,0,-1,860,862,0,0
-357,162,0,0,0,0,0,0,0,0,0,-1,867,862,0,0
-350,162,0,0,0,0,0,0,0,0,0,-1,874,862,0,0
-343,162,0,0,0,0,0,0,0,0,0,-1,881,862,0,0
-336,162,0,0,0,0,0,0,0,0,0,-1,888,862,0,0
-329,162,0,0,0,0,0,0,0,0,0,-1,895,862,0,0
-322,162,0,0,0,0,0,0,0,0,0,-1,902,862,0,0
-315,162,0,0,0,0,0,0,0,0,0,-1,909,862,0,0
-308,162,0,0,0,0,0,0,0,0,0,-1,916,862,0,0
-301,162,0,0,0,0,0,0,0,0,0,-1,923,862,0,0
-294,162,0,0,0,0,0,0,0,0,0,-1,930,862,0,0
-287,162,0,0,0,0,0,0,0,0,0,-1,937,862,0,0
-280,162,0,0,0,0,0,0,0,0,0,-1,944,862,0,0
-273,162,0,0,0,0,0,0,0,0,0,-1,951,862,0,0
-266,162,0,0,0,0,0,0,0,0,0,-1,958,862,0,0
-259,162,0,0,0,0,0,0,0,0,0,-1,965,862,0,0
-252,162,0,0,0,0,0,0,0,0,0,-1,972,862,0,0
-245,162,0,0,0,0,0,0,0,0,0,-1,979,862,0,0
-238,162,0,0,0,0,0,0,0,0,0,-1,986,862,0,0
-231,162,0,0,0,0,0,0,0,0,0,-1,993,862,0,0
-224,162,0,0,0,0,0,0,0,0,0,-1,1000,862,0,0
-217,162,0,0,0,0,0,0,0,0,0,-1,1007,862,0,0
-210,162,0,0,0,0,0,0,0,0,0,-1,1014,862,0,0
-203,162,0,0,0,0,0,0,0,0,0,-1,1021,862,0,0
-196,162,0,0,0,0,0,0,0,0,0,-1,1028,862,0,0
-189,162,0,0,0,0,0,0,0,0,0,-1,1035,862,0,0
-182,162,0,0,0,0,0,0,0,0,0,-1,1042,862,0,0
-175,162,0,0,0,0,0,0,0,0,0,-1,1049,862,0,0
-168,162,0,0,0,0,0,0,0,0,0,-1,1056,862,0,0
-161,162,0,0,0,0,0,0,0,0,0,-1,1063,862,0,0
-154,162,0,0,0,0,0,0,0,0,0,-1,1070,862,0,0
-147,162,0,0,0,0,0,0,0,0,0,-1,1077,862,0,0
-140,162,0,0,0,0,0,0,0,0,0,-1,1084,862,0,0
-133,162,0,0,0,0,0,0,0,0,0,-1,1091,862,0,0
-126,162,0,0,0,0,0,0,0,0,0,-1,1098,862,0,0
-119,162,0,0,0,0,0,0,0,0,0,-1,1105,862,0,0
-112,162,0,0,0,0,0,0,0,0,0,-1,1112,862,0,0
-105,162,0,0,0,0,0,0,0,0,0,-1,1119,862,0,0
-98,162,0,0,0,0,0,0,0,0,0,-1,1126,862,0,0
-91,162,0,0,0,0,0,0,0,0,0,-1,1133,862,0,0
-84,162,0,0,0,0,0,0,0,0,0,-1,1140,862,0,0
-77,162,0,0,0,0,0,0,0,0,0,-1,1147,862,0,0
-70,162,0,0,0,0,0,0,0,0,0,-1,1154,862,0,0
-63,162,0,0,0,0,0,0,0,0,0,-1,1161,862,0,0
-56,162,0,0,0,0,0,0,0,0,0,-1,1168,862,0,0
-49,162,0,0,0,0,0,0,0,0,0,-1,1175,862,0,0
-42,162,0,0,0,0,0,0,0,0,0,-1,1182,862,0,0
-35,162,0,0,0,0,0,0,0,0,0,-1,1189,862,0,0
-28,162,0,0,0,0,0,0,0,0,0,-1,1196,862,0,0
-21,162,0,0,0,0,0,0,0,0,0,-1,1203,862,0,0
-14,162,0,0,0,0,0,0,0,0,0,-1,1210,862,0,0
-7,162,0,0,0,0,0,0,0,0,0,-1,1217,862,0,0
0,162,0,0,0,0,0,0,0,0,0,-1,1224,862,0,0
7,162,0,0,0,0,0,0,0,0,0,-1,1231,862,0,0
14,162,0,0,0,0,0,0,0,0,0,-1,1238,862,0,0
21,162,0,0,0,0,0,0,0,0,0,-1,1245,862,0,0
28,162,0,0,0,0,0,0,0,0,0,-1,1252,862,0,0
35,162,0,0,0,0,0,0,0,0,0,-1,1259,862,0,0
42,162,0,0,0,0,0,0,0,0,0,-1,1266,862,0,0
49,162,0,0,0,0,0,0,0,0,0,-1,1273,862,0,0
56,162,0,0,0,0,0,0,0,0,0,-1,1280,862,0,0
63,162,0,0,0,0,0,0,0,0,0,-1,1287,862,0,0
70,162,0,0,0,0,0,0,0,0,0,-1,1294,862,0,0
77,162,0,0,0,0,0,0,0,0,0,-1,1301,862,0,0
84,162,0,0,0,0,0,0,0,0,0,-1,1308,862,0,0
91,162,0,0,0,0,0,0,0,0,0,-1,1315,862,0,0
98,162,0,0,0,0,0,0,0,0,0,-1,1322,862,0,0
105,162,0,0,0,0,0,0,0,0,0,-1,1329,862,0,0
112,162,0,0,0,0,0,0,0,0,0,-1,1336,862,0,0
119,162,0,0,0,0,0,0,0,0,0,-1,1343,862,0,0
126,162,0,0,0,0,0,0,0,0,0,-1,1350,862,0,0
133,162,0,0,0,0,0,0,0,0,0,-1,1357,862,0,0
140,162,0,0,0,0,0,0,0,0,0,-1,1364,862,0,0
147,162,0,0,0,0,0,0,0,0,0,-1,1371,862,0,0
154,162,0,0,0,0,0,0,0,0,0,-1,1378,862,0,0
161,162,0,0,0,0,0,0,0,0,0,-1,1385,862,0,0
168,162,0,0,0,0,0,0,0,0,0,-1,1392,862,0,0
175,162,0,0,0,0,0,0,0,0,0,-1,1399,862,0,0
182,162,0,0,0,0,0,0,0,0,0,-1,1406,862,0,0
189,162,0,0,0,0,0,0,0,0,0,-1,1413,862,0,0
196,162,0,0,0,0,0,0,0,0,0,-1,1420,862,0,0
203,162,0,0,0,0,0,0,0,0,0,-1,1427,862,0,0
210,162,0,0,0,0,0,0,0,0,0,-1,1434,862,0,0
217,162,0,0,0,0,0,0,0,0,0,-1,1441,862,0,0
224,162,0,0,0,0,0,0,0,0,0,-1,1448,862,0,0
231,162,0,0,0,0,0,0,0,0,0,-1,1455,862,0,0
238,162,0,0,0,0,0,0,0,0,0,-1,1462,862,0,0
245,162,0,0,0,0,0,0,0,0,0,-1,1469,862,0,0
252,162,0,0,0,0,0,0,0,0,0,-1,1476,862,0,0
259,162,0,0,0,0,0,0,0,0,0,-1,1483,862,0,0
266,162,0,0,0,0,0,0,0,0,0,-1,1490,862,0,0
273,162,0,0,0,0,0,0,0,0,0,-1,1497,862,0,0
280,162,0,0,0,0,0,0,0,0,0,-1,1504,862,0,0
287,162,0,0,0,0,0,0,0,0,0,-1,1511,862,0,0
294,162,0,0,0,0,0,0,0,0,0,-1,1518,862,0,0
301,162,0,0,0,0,0,0,0,0,0,-1,1525,862,0,0
308,162,0,0,0,0,0,0,0,0,0,-1,1532,862,0,0
315,162,0,0,0,0,0,0,0,0,0,-1,1539,862,0,0
322,162,0,0,0,0,0,0,0,0,0,-1,1546,862,0,0
329,162,0,0,0,0,0,0,0,0,0,-1,1553,862,0,0
336,162,0,0,0,0,0,0,0,0,0,-1,1560,862,0,0
343,162,0,0,0,0,0,0,0,0,0,-1,1567,862,0,0
350,162,0,0,0,0,0,0,0,0,0,-1,1574,862,0,0
357,162,0,0,0,0,0,0,0,0,0,-1,1581,862,0,0
364,162,0,0,0,0,0,0,0,0,0,-1,1588,862,0,0
371,162,0,0,0,0,0,0,0,0,0,-1,1595,862,0,0
378,162,0,0,0,0,0,0,0,0,0,-1,1602,862,0,0
385,162,0,0,0,0,0,0,0,0,0,-1,1609,862,0,0
392,162,0,0,0,0,0,0,0,0,0,-1,1616,862,0,0
399,162,0,0,0,0,0,0,0,0,0,-1,1623,862,0,0
406,162,0,0,0,0,0,0,0,0,0,-1,1630,862,0,0
413,162,0,0,0,0,0,0,0,0,0,-1,1637,862,0,0
420,162,0,0,0,0,0,0,0,0,0,-1,1644,862,0,0
427,162,0,0,0,0,0,0,0,0,0,-1,1651,862,0,0
434,162,0,0,0,0,0,0,0,0,0,-1,1658,862,0,0
441,162,0,0,0,0,0,0,0,0,0,-1,1665,862,0,0
448,162,0,0,0,0,0,0,0,0,0,-1,1672,862,0,0
455,162,0,0,0,0,0,0,0,0,0,-1,1679,862,0,0
462,162,0,0,0,0,0,0,0,0,0,-1,1686,862,0,0
469,162,0,0,0,0,0,0,0,0,0,-1,1693,862,0,0
476,162,0,0,0,0,0,0,0,0,0,-1,1700,862,0,0
483,162,0,0,0,0,0,0,0,0,0,-1,1707,862,0,0
490,162,0,0,0,0,0,0,0,0,0,-1,1714,862,0,0
497,162,0,0,0,0,0,0,0,0,0,-1,1721,862,0,0
504,162,0,0,0,0,0,0,0,0,0,-1,1728,862,0,0
511,162,0,0,0,0,0,0,0,0,0,-1,1735,862,0,0
518,162,0,0,0,0,0,0,0,0,0,-1,1742,862,0,0
525,162,0,0,0,0,0,0,0,0,0,-1,1749,862,0,0
532,162,0,0,0,0,0,0,0,0,0,-1,1756,862,0,0
539,162,0,0,0,0,0,0,0,0,0,-1,1763,862,0,0
546,162,0,0,0,0,0,0,0,0,0,-1,1770,862,0,0
553,162,0,0,0,0,0,0,0,0,0,-1,1777,862,0,0
560,162,0,0,0,0,0,0,0,0,0,-1,1784,862,0,0
567,162,0,0,0,0,0,0,0,0,0,-1,1791,862,0,0
574,162,0,0,0,0,0,0,0,0,0,-1,1798,862,0,0
581,162,0,0,0,0,0,0,0,0,0,-1,1805,862,0,0
588,162,0,0,0,0,0,0,0,0,0,-1,1812,862,0,0
595,162,0,0,0,0,0,0,0,0,0,-1,1819,862,0,0
602,162,0,0,0,0,0,0,0,0,0,-1,1826,862,0,0
609,162,0,0,0,0,0,0,0,0,0,-1,1833,862,0,0
616,162,20.8019,2.52545,0,0,0,0,0,0,0,-1,1840,862,20.8019,-2.52543
623,162,20.7903,2.78729,0,0,0,0,0,0,0,-1,1847,862,20.7902,-2.78732
630,162,20.7974,2.83856,2.83732e-05,0.00359143,0.000607625,0.0036922,-7.2398e-05,1.40645,0.00248595,0.0462155,1854,862,20.7974,-2.83857
637,162,20.8096,2.8374,0.000485474,0.00264683,0.000170878,0.00266025,0.000472047,1.49238,0.00163897,0.0425602,1861,862,20.8095,-2.83738
644,162,20.85,2.88043,0.000156836,0.00199859,-0.000137118,0.00200874,0.000146684,-1.49689,0.00129304,0.0394061,1868,862,20.8499,-2.88041
651,162,20.84,2.88477,-0.000599912,0.00151907,-0.000357933,0.0015779,-0.00065874,-1.4079,0.00132717,0.0337966,1875,862,20.8399,-2.88476
658,162,20.849,2.76215,-0.00123417,0.00123338,-0.000497962,0.00133008,-0.00133087,-1.37899,0.0015363,0.0330947,1882,862,20.849,-2.76212
665,162,20.8159,2.8241,-0.00180044,0.000856417,-0.000567939,0.000972729,-0.00191676,-1.36879,0.00169766,0.0411558,1889,862,20.8159,-2.82409
672,162,20.7926,2.8866,0,0,0,0,0,0,0,-1,1896,862,20.7926,-2.88661
679,162,17.6412,2.46057,0,0,0,0,0,0,0,-1,1903,862,17.6412,-2.4606
686,162,17.5887,2.62659,-0.00373783,0.000144754,-0.00088944,0.000338812,-0.00393189,-1.35598,0.00274118,0.0319002,1910,862,17.5888,-2.6266
693,162,17.583,2.77374,-0.00414155,0.000175442,-0.000854629,0.000338474,-0.00430458,-1.3823,0.00298894,0.0167319,1917,862,17.583,-2.77374
700,162,17.6201,2.92084,-0.00436534,0.000111413,-0.000825044,0.000258624,-0.00451255,-1.39423,0.00309818,0.0146024,1924,862,17.6202,-2.92086
707,162,17.6045,3.08154,-0.00444114,2.5161e-05,-0.000851417,0.000181963,-0.00459794,-1.38867,0.00312771,0.0108309,1931,862,17.6044,-3.08155
714,162,17.5631,3.2757,-0.00389306,-5.66684e-06,-0.000914143,0.000198569,-0.0040973,-1.35099,0.00280007,0.0145624,1938,862,17.5631,-3.27569
721,162,17.4952,3.53979,-0.00233181,-3.66086e-05,-0.00058678,0.000104704,-0.00247313,-1.33447,0.00168474,0.0283013,1945,862,17.4952,-3.53981
728,162,17.528,3.6731,8.12893e-05,0.000231857,0.00014258,0.000317808,-4.66159e-06,1.0283,0.000213443,0.0225023,1952,862,17.5279,-3.67312
735,162,17.5664,3.81439,0.00361339,0.000936495,0.000572842,0.00373082,0.000819062,0.2022,0.00226413,0.0108921,1959,862,17.5664,-3.81437
742,162,17.5824,3.98175,0.0079133,0.00155278,0.000727757,0.0079955,0.00147058,0.112481,0.00491405,0.0112717,1966,862,17.5824,-3.98172
749,162,17.5885,4.12695,0.0129016,0.00225366,0.00125334,0.0130471,0.00210812,0.115603,0.0080875,0.0161883,1973,862,17.5885,-4.12693
756,162,17.6069,4.24042,0.0190045,0.00312075,0.00173661,0.0191922,0.0029331,0.107638,0.0119378,0.0370774,1980,862,17.6069,-4.24043
763,162,17.6316,4.37732,0,0,0,0,0,0,0,-1,1987,862,17.6316,-4.37734
770,162,18.834,4.4978,0.0369335,0.00495143,0.0023115,0.0370997,0.00478523,0.0717779,0.0233024,0.0415484,1994,862,18.834,-4.49782
777,162,19.1925,4.6958,0.0495331,0.00555248,0.00192516,0.0496172,0.00546837,0.0436616,0.0314144,0.0462031,2001,862,19.1925,-4.69582
784,162,19.1329,4.55017,0,0,0,0,0,0,0,-1,2008,862,19.1329,-4.55015
791,162,0,0,0,0,0,0,0,0,0,-1,2015,862,0,0
798,162,0,0,0,0,0,0,0,0,0,-1,2022,862,0,0
805,162,0,0,0,0,0,0,0,0,0,-1,2029,862,0,0
812,162,0,0,0,0,0,0,0,0,0,-1,2036,862,0,0
-700,155,0,0,0,0,0,0,0,0,0,-1,524,869,0,0
-693,155,0,0,0,0,0,0,0,0,0,-1,531,869,0,0
-686,155,0,0,0,0,0,0,0,0,0,-1,538,869,0,0
-679,155,0,0,0,0,0,0,0,0,0,-1,545,869,0,0
-672,155,0,0,0,0,0,0,0,0,0,-1,552,869,0,0
-665,155,-11.7122,0.743347,0,0,0,0,0,0,0,-1,559,869,-11.7122,-0.743339
-658,155,-10.5095,0.458557,0,0,0,0,0,0,0,-1,566,869,-10.5095,-0.458542
-651,155,-10.6984,0.559143,-0.013806,0.0321035,-0.00050733,0.0321091,-0.0138116,-1.55975,0.0272048,0.0493447,573,869,-10.6984,-0.559167
-644,155,-10.8964,0.597839,-0.0109635,0.028963,-0.000122978,0.0289634,-0.0109639,-1.56772,0.02382,0.0465523,580,869,-10.8964,-0.597825
-637,155,-11.1351,0.727173,-0.00896941,0.0246948,0.000731864,0.0247107,-0.00898532,1.54907,0.0201482,0.0452878,587,869,-11.1351,-0.727144
-630,155,-11.196,1.37231,-0.00752938,0.01998,0.00165296,0.0200789,-0.00762834,1.511,0.0165264,0.0392367,594,869,-11.1961,-1.37234
-623,155,-11.1084,1.93414,-0.00631167,0.0151908,0.00239713,0.0154548,-0.00657567,1.46111,0.0130591,0.0239872,601,869,-11.1084,-1.93413
-616,155,-11.1526,1.80212,-0.0043396,0.0124636,0.00169687,0.0126333,-0.00450925,1.47115,0.010261,0.013373,608,869,-11.1526,-1.8021
-609,155,-11.1929,1.63342,-0.00441183,0.00863307,0.00264374,0.0091485,-0.00492726,1.37825,0.00824756,0.0126297,615,869,-11.1929,-1.63342
-602,155,-11.2054,1.47577,-0.00485691,0.00549563,0.00324256,0.00642739,-0.00578866,1.29098,0.00705615,0.0120031,622,869,-11.2054,-1.4758
-595,155,-11.21,1.30859,-0.00564911,0.0019974,0.00388985,0.00362834,-0.00728005,1.17378,0.00641451,0.0110588,629,869,-11.21,-1.30859
-588,155,-11.2024,1.15308,-0.00661531,-0.000359508,0.00422062,0.00176591,-0.00874072,1.10429,0.00649629,0.0119793,636,869,-11.2024,-1.15306
-581,155,-11.2827,1.00549,-0.00767972,-0.000938338,0.00422919,0.00109908,-0.00971713,1.12185,0.0068738,0.0167546,643,869,-11.2826,-1.00547
-574,155,-11.3283,0.874695,-0.00896723,-0.00109977,0.00438802,0.000859632,-0.0109266,1.15083,0.00758721,0.0221111,650,869,-11.3283,-0.874697
-567,155,-11.2744,0.651978,-0.00985966,-0.00112581,0.00439415,0.000702317,-0.0116878,1.17654,0.0080362,0.0222833,657,869,-11.2744,-0.651962
-560,155,-11.2427,0.414612,-0.0105491,-0.000969533,0.0044082,0.000750231,-0.0122689,1.19883,0.00844047,0.0213699,664,869,-11.2428,-0.414633
-553,155,-11.2659,0.229004,-0.0112457,-0.00073403,0.00436889,0.000844687,-0.0128244,1.22404,0.0088446,0.0413565,671,869,-11.266,-0.228987
-546,155,-12.4312,0.599915,-0.0117122,-0.000262344,0.00420616,0.00111672,-0.0130912,1.25397,0.00912254,0.0451215,678,869,-12.4311,-0.599888
-539,155,-13.5671,0.835449,-0.0115893,0.000375866,0.00368866,0.00142162,-0.0126351,1.29454,0.00893503,0.0439218,685,869,-13.5671,-0.835438
-532,155,-13.4904,0.879639,-0.0107974,0.00113916,0.00277614,0.00175323,-0.0114115,1.35311,0.00825437,0.0378617,692,869,-13.4904,-0.879609
-525,155,-13.4876,1.00006,-0.00929799,0.00199713,0.00138306,0.00216402,-0.00946488,1.45071,0.0071414,0.0392444,699,869,-13.4876,-1.00005
-518,155,-13.5347,0.987854,-0.00680752,0.00272368,-0.000527342,0.00275277,-0.00683661,-1.51569,0.00570133,0.0426342,706,869,-13.5348,-0.987832
-511,155,-13.5283,0.703979,-0.00332499,0.00297847,-0.00291854,0.00412223,-0.00446875,-1.1973,0.00496135,0.0432046,713,869,-13.5283,-0.703978
-504,155,-13.5067,0.874573,0.000582202,0.00240417,-0.00528901,0.00686008,-0.0038737,-0.870682,0.0062766,0.0410482,720,869,-13.5067,-0.874548
-497,155,0,0,0,0,0,0,0,0,0,-1,727,869,0,0
-490,155,0,0,0,0,0,0,0,0,0,-1,734,869,0,0
-483,155,0,0,0,0,0,0,0,0,0,-1,741,869,0,0
-476,155,0,0,0,0,0,0,0,0,0,-1,748,869,0,0
-469,155,0,0,0,0,0,0,0,0,0,-1,755,869,0,0
-462,155,0,0,0,0,0,0,0,0,0,-1,762,869,0,0
-455,155,0,0,0,0,0,0,0,0,0,-1,769,869,0,0
-448,155,0,0,0,0,0,0,0,0,0,-1,776,869,0,0
-441,155,0,0,0,0,0,0,0,0,0,-1,783,869,0,0
-434,155,0,0,0,0,0,0,0,0,0,-1,790,869,0,0
-427,155,0,0,0,0,0,0,0,0,0,-1,797,869,0,0
-420,155,0,0,0,0,0,0,0,0,0,-1,804,869,0,0
-413,155,0,0,0,0,0,0,0,0,0,-1,811,869,0,0
-406,155,0,0,0,0,0,0,0,0,0,-1,818,869,0,0
-399,155,0,0,0,0,0,0,0,0,0,-1,825,869,0,0
-392,155,0,0,0,0,0,0,0,0,0,-1,832,869,0,0
-385,155,0,0,0,0,0,0,0,0,0,-1,839,869,0,0
-378,155,0,0,0,0,0,0,0,0,0,-1,846,869,0,0
-371,155,0,0,0,0,0,0,0,0,0,-1,853,869,0,0
-364,155,0,0,0,0,0,0,0,0,0,-1,860,869,0,0
-357,155,0,0,0,0,0,0,0,0,0,-1,867,869,0,0
-350,155,0,0,0,0,0,0,0,0,0,-1,874,869,0,0
-343,155,0,0,0,0,0,0,0,0,0,-1,881,869,0,0
-336,155,0,0,0,0,0,0,0,0,0,-1,888,869,0,0
-329,155,0,0,0,0,0,0,0,0,0,-1,895,869,0,0
-322,155,0,0,0,0,0,0,0,0,0,-1,902,869,0,0
-315,155,0,0,0,0,0,0,0,0,0,-1,909,869,0,0
-308,155,0,0,0,0,0,0,0,0,0,-1,916,869,0,0
-301,155,0,0,0,0,0,0,0,0,0,-1,923,869,0,0
-294,155,0,0,0,0,0,0,0,0,0,-1,930,869,0,0
-287,155,0,0,0,0,0,0,0,0,0,-1,937,869,0,0
-280,155,0,0,0,0,0,0,0,0,0,-1,944,869,0,0
-273,155,0,0,0,0,0,0,0,0,0,-1,951,869,0,0
-266,155,0,0,0,0,0,0,0,0,0,-1,958,869,0,0
-259,155,0,0,0,0,0,0,0,0,0,-1,965,869,0,0
-252,155,0,0,0,0,0,0,0,0,0,-1,972,869,0,0
-245,155,0,0,0,0,0,0,0,0,0,-1,979,869,0,0
-238,155,0,0,0,0,0,0,0,0,0,-1,986,869,0,0
-231,155,0,0,0,0,0,0,0,0,0,-1,993,869,0,0
-224,155,0,0,0,0,0,0,0,0,0,-1,1000,869,0,0
-217,155,0,0,0,0,0,0,0,0,0,-1,1007,869,0,0
-210,155,0,0,0,0,0,0,0,0,0,-1,1014,869,0,0
-203,155,0,0,0,0,0,0,0,0,0,-1,1021,869,0,0
-196,155,0,0,0,0,0,0,0,0,0,-1,1028,869,0,0
-189,155,0,0,0,0,0,0,0,0,0,-1,1035,869,0,0
-182,155,0,0,0,0,0,0,0,0,0,-1,1042,869,0,0
-175,155,0,0,0,0,0,0,0,0,0,-1,1049,869,0,0
-168,155,0,0,0,0,0,0,0,0,0,-1,1056,869,0,0
-161,155,0,0,0,0,0,0,0,0,0,-1,1063,869,0,0
-154,155,0,0,0,0,0,0,0,0,0,-1,1070,869,0,0
-147,155,0,0,0,0,0,0,0,0,0,-1,1077,869,0,0
-140,155,0,0,0,0,0,0,0,0,0,-1,1084,869,0,0
-133,155,0,0,0,0,0,0,0,0,0,-1,1091,869,0,0
-126,155,0,0,0,0,0,0,0,0,0,-1,1098,869,0,0
-119,155,0,0,0,0,0,0,0,0,0,-1,1105,869,0,0
-112,155,0,0,0,0,0,0,0,0,0,-1,1112,869,0,0
-105,155,0,0,0,0,0,0,0,0,0,-1,1119,869,0,0
-98,155,0,0,0,0,0,0,0,0,0,-1,1126,869,0,0
-91,155,0,0,0,0,0,0,0,0,0,-1,1133,869,0,0
-84,155,0,0,0,0,0,0,0,0,0,-1,1140,869,0,0
-77,155,0,0,0,0,0,0,0,0,0,-1,1147,869,0,0
-70,155,0,0,0,0,0,0,0,0,0,-1,1154,869,0,0
-63,155,0,0,0,0,0,0,0,0,0,-1,1161,869,0,0
-56,155,0,0,0,0,0,0,0,0,0,-1,1168,869,0,0
-49,155,0,0,0,0,0,0,0,0,0,-1,1175,869,0,0
-42,155,0,0,0,0,0,0,0,0,0,-1,1182,869,0,0
-35,155,0,0,0,0,0,0,0,0,0,-1,1189,869,0,0
-28,155,0,0,0,0,0,0,0,0,0,-1,1196,869,0,0
-21,155,0,0,0,0,0,0,0,0,0,-1,1203,869,0,0
-14,155,0,0,0,0,0,0,0,0,0,-1,1210,869,0,0
-7,155,0,0,0,0,0,0,0,0,0,-1,1217,869,0,0
0,155,0,0,0,0,0,0,0,0,0,-1,1224,869,0,0
7,155,0,0,0,0,0,0,0,0,0,-1,1231,869,0,0
14,155,0,0,0,0,0,0,0,0,0,-1,1238,869,0,0
21,155,0,0,0,0,0,0,0,0,0,-1,1245,869,0,0
28,155,0,0,0,0,0,0,0,0,0,-1,1252,869,0,0
35,155,0,0,0,0,0,0,0,0,0,-1,1259,869,0,0
42,155,0,0,0,0,0,0,0,0,0,-1,1266,869,0,0
49,155,0,0,0,0,0,0,0,0,0,-1,1273,869,0,0
56,155,0,0,0,0,0,0,0,0,0,-1,1280,869,0,0
63,155,0,0,0,0,0,0,0,0,0,-1,1287,869,0,0
70,155,0,0,0,0,0,0,0,0,0,-1,1294,869,0,0
77,155,0,0,0,0,0,0,0,0,0,-1,1301,869,0,0
84,155,0,0,0,0,0,0,0,0,0,-1,1308,869,0,0
91,155,0,0,0,0,0,0,0,0,0,-1,1315,869,0,0
98,155,0,0,0,0,0,0,0,0,0,-1,1322,869,0,0
105,155,0,0,0,0,0,0,0,0,0,-1,1329,869,0,0
112,155,0,0,0,0,0,0,0,0,0,-1,1336,869,0,0
119,155,0,0,0,0,0,0,0,0,0,-1,1343,869,0,0
126,155,0,0,0,0,0,0,0,0,0,-1,1350,869,0,0
133,155,0,0,0,0,0,0,0,0,0,-1,1357,869,0,0
140,155,0,0,0,0,0,0,0,0,0,-1,1364,869,0,0
147,155,0,0,0,0,0,0,0,0,0,-1,1371,869,0,0
154,155,0,0,0,0,0,0,0,0,0,-1,1378,869,0,0
161,155,0,0,0,0,0,0,0,0,0,-1,1385,869,0,0
168,155,0,0,0,0,0,0,0,0,0,-1,1392,869,0,0
175,155,0,0,0,0,0,0,0,0,0,-1,1399,869,0,0
182,155,0,0,0,0,0,0,0,0,0,-1,1406,869,0,0
189,155,0,0,0,0,0,0,0,0,0,-1,1413,869,0,0
196,155,0,0,0,0,0,0,0,0,0,-1,1420,869,0,0
203,155,0,0,0,0,0,0,0,0,0,-1,1427,869,0,0
210,155,0,0,0,0,0,0,0,0,0,-1,1434,869,0,0
217,155,0,0,0,0,0,0,0,0,0,-1,1441,869,0,0
224,155,0,0,0,0,0,0,0,0,0,-1,1448,869,0,0
231,155,0,0,0,0,0,0,0,0,0,-1,1455,869,0,0
238,155,0,0,0,0,0,0,0,0,0,-1,1462,869,0,0
245,155,0,0,0,0,0,0,0,0,0,-1,1469,869,0,0
252,155,0,0,0,0,0,0,0,0,0,-1,1476,869,0,0
259,155,0,0,0,0,0,0,0,0,0,-1,1483,869,0,0
266,155,0,0,0,0,0,0,0,0,0,-1,1490,869,0,0
273,155,0,0,0,0,0,0,0,0,0,-1,1497,869,0,0
280,155,0,0,0,0,0,0,0,0,0,-1,1504,869,0,0
287,155,0,0,0,0,0,0,0,0,0,-1,1511,869,0,0
294,155,0,0,0,0,0,0,0,0,0,-1,1518,869,0,0
301,155,0,0,0,0,0,0,0,0,0,-1,1525,869,0,0
308,155,0,0,0,0,0,0,0,0,0,-1,1532,869,0,0
315,155,0,0,0,0,0,0,0,0,0,-1,1539,869,0,0
322,155,0,0,0,0,0,0,0,0,0,-1,1546,869,0,0
329,155,0,0,0,0,0,0,0,0,0,-1,1553,869,0,0
336,155,0,0,0,0,0,0,0,0,0,-1,1560,869,0,0
343,155,0,0,0,0,0,0,0,0,0,-1,1567,869,0,0
350,155,0,0,0,0,0,0,0,0,0,-1,1574,869,0,0
357,155,0,0,0,0,0,0,0,0,0,-1,1581,869,0,0
364,155,0,0,0,0,0,0,0,0,0,-1,1588,869,0,0
371,155,0,0,0,0,0,0,0,0,0,-1,1595,869,0,0
378,155,0,0,0,0,0,0,0,0,0,-1,1602,869,0,0
385,155,0,0,0,0,0,0,0,0,0,-1,1609,869,0,0
392,155,0,0,0,0,0,0,0,0,0,-1,1616,869,0,0
399,155,0,0,0,0,0,0,0,0,0,-1,1623,869,0,0
406,155,0,0,0,0,0,0,0,0,0,-1,1630,869,0,0
413,155,0,0,0,0,0,0,0,0,0,-1,1637,869,0,0
420,155,0,0,0,0,0,0,0,0,0,-1,1644,869,0,0
427,155,0,0,0,0,0,0,0,0,0,-1,1651,869,0,0
434,155,0,0,0,0,0,0,0,0,0,-1,1658,869,0,0
441,155,0,0,0,0,0,0,0,0,0,-1,1665,869,0,0
448,155,0,0,0,0,0,0,0,0,0,-1,1672,869,0,0
455,155,0,0,0,0,0,0,0,0,0,-1,1679,869,0,0
462,155,0,0,0,0,0,0,0,0,0,-1,1686,869,0,0
469,155,0,0,0,0,0,0,0,0,0,-1,1693,869,0,0
476,155,0,0,0,0,0,0,0,0,0,-1,1700,869,0,0
483,155,0,0,0,0,0,0,0,0,0,-1,1707,869,0,0
490,155,0,0,0,0,0,0,0,0,0,-1,1714,869,0,0
497,155,0,0,0,0,0,0,0,0,0,-1,1721,869,0,0
504,155,0,0,0,0,0,0,0,0,0,-1,1728,869,0,0
511,155,0,0,0,0,0,0,0,0,0,-1,1735,869,0,0
518,155,0,0,0,0,0,0,0,0,0,-1,1742,869,0,0
525,155,0,0,0,0,0,0,0,0,0,-1,1749,869,0,0
532,155,0,0,0,0,0,0,0,0,0,-1,1756,869,0,0
539,155,0,0,0,0,0,0,0,0,0,-1,1763,869,0,0
546,155,0,0,0,0,0,0,0,0,0,-1,1770,869,0,0
553,155,0,0,0,0,0,0,0,0,0,-1,1777,869,0,0
560,155,0,0,0,0,0,0,0,0,0,-1,1784,869,0,0
567,155,0,0,0,0,0,0,0,0,0,-1,1791,869,0,0
574,155,0,0,0,0,0,0,0,0,0,-1,1798,869,0,0
581,155,0,0,0,0,0,0,0,0,0,-1,1805,869,0,0
588,155,0,0,0,0,0,0,0,0,0,-1,1812,869,0,0
595,155,0,0,0,0,0,0,0,0,0,-1,1819,869,0,0
602,155,0,0,0,0,0,0,0,0,0,-1,1826,869,0,0
609,155,0,0,0,0,0,0,0,0,0,-1,1833,869,0,0
616,155,20.9309,2.63983,0,0,0,0,0,0,0,-1,1840,869,20.9309,-2.63983
623,155,20.821,3.03119,-0.000675723,0.00574759,0.00155134,0.00610264,-0.00103077,1.34581,0.00445197,0.0461616,1847,869,20.8211,-3.03116
630,155,20.7208,3.25183,-9.90742e-05,0.00426048,0.000604913,0.00434286,-0.000181452,1.43545,0.00295758,0.0448214,1854,869,20.7209,-3.25182
637,155,20.8247,2.8067,0.000260422,0.00308751,-2.30923e-05,0.0030877,0.000260233,-1.56263,0.00197744,0.0417319,1861,869,20.8247,-2.80671
644,155,20.8492,2.85376,-0.000160756,0.00224977,-0.000441612,0.00232813,-0.000239113,-1.39519,0.00163762,0.0388355,1868,869,20.8492,-2.85377
651,155,20.8549,2.73285,-0.00121653,0.00166671,-0.000743139,0.00184698,-0.0013968,-1.33282,0.0018788,0.0330759,1875,869,20.8548,-2.73287
658,155,20.8235,2.7229,-0.00216806,0.00130424,-0.000911781,0.0015291,-0.00239292,-1.32901,0.00228262,0.0269704,1882,869,20.8234,-2.72289
665,155,20.808,2.79541,-0.0029733,0.000900207,-0.000978315,0.00113327,-0.00320637,-1.33692,0.00259904,0.0321593,1889,869,20.808,-2.7954
672,155,20.8368,2.78571,-0.0038183,0.000591761,-0.00112023,0.000860002,-0.00408654,-1.33577,0.00305169,0.0407851,1896,869,20.8368,-2.7857
679,155,20.9089,2.7475,0,0,0,0,0,0,0,-1,1903,869,20.909,-2.7475
686,155,17.722,2.67114,0,0,0,0,0,0,0,-1,1910,869,17.7221,-2.67113
693,155,17.7462,2.77856,-0.00566978,0.000238545,-0.00117532,0.000463763,-0.005895,-1.38147,0.00409335,0.0220874,1917,869,17.7462,-2.77855
700,155,17.8092,2.93372,-0.0058302,0.000213532,-0.00108309,0.00040177,-0.00601844,-1.39872,0.0041527,0.0147555,1924,869,17.8092,-2.93374
707,155,17.8649,3.14166,-0.00571136,0.000180986,-0.00103996,0.000359146,-0.00588952,-1.40113,0.00405137,0.0107613,1931,869,17.8649,-3.14167
714,155,17.8259,3.28516,-0.0049399,0.000187649,-0.00103638,0.000389199,-0.00514145,-1.37872,0.00356445,0.0200139,1938,869,17.8259,-3.28516
721,155,17.7524,3.48444,-0.00311197,0.000258445,-0.000670823,0.000387054,-0.00324058,-1.38138,0.00230029,0.0254182,1945,869,17.7525,-3.48445
728,155,17.7638,3.64423,-0.000373937,0.000777743,9.41279e-05,0.000785386,-0.000381579,1.48978,0.000687062,0.0196199,1952,869,17.7638,-3.64423
735,155,17.7737,3.81946,0.00345444,0.00190394,0.000464386,0.00358289,0.0017755,0.269847,0.00206861,0.0152805,1959,869,17.7737,-3.81944
742,155,17.7795,3.99982,0.00797621,0.0031031,0.000477224,0.0080225,0.0030568,0.0967059,0.0046753,0.0154012,1966,869,17.7796,-3.99983
749,155,17.776,4.15021,0.0131715,0.00447059,0.000839854,0.0132518,0.00439026,0.0953519,0.00779476,0.0132554,1973,869,17.776,-4.1502
756,155,17.7987,4.31891,0.0192194,0.00625827,0.001032,0.0193011,0.00617661,0.0789599,0.0113816,0.0243456,1980,869,17.7987,-4.31892
763,155,18.1976,4.56122,0.0267006,0.00842221,0.000993304,0.0267544,0.00836839,0.0541307,0.0158035,0.0417247,1987,869,18.1976,-4.56121
770,155,18.5646,4.7937,0.036126,0.0108921,0.000577947,0.0361392,0.0108789,0.0228876,0.0214086,0.0433317,1994,869,18.5646,-4.79367
777,155,18.9043,4.95636,0.0477902,0.0135465,-0.00052486,0.0477982,0.0135384,-0.0153224,0.0284476,0.0459712,2001,869,18.9043,-4.95634
784,155,19.1477,5.08209,0.0620025,0.0160918,-0.00277072,0.0621691,0.0159252,-0.0600597,0.037289,0.0469306,2008,869,19.1478,-5.08211
791,155,0,0,0,0,0,0,0,0,0,-1,2015,869,0,0
798,155,0,0,0,0,0,0,0,0,0,-1,2022,869,0,0
805,155,0,0,0,0,0,0,0,0,0,-1,2029,869,0,0
812,155,0,0,0,0,0,0,0,0,0,-1,2036,869,0,0
-700,148,0,0,0,0,0,0,0,0,0,-1,524,876,0,0
-693,148,0,0,0,0,0,0,0,0,0,-1,531,876,0,0
-686,148,0,0,0,0,0,0,0,0,0,-1,538,876,0,0
-679,148,0,0,0,0,0,0,0,0,0,-1,545,876,0,0
-672,148,-8.89209,-3.3512,-0.0349434,0.0043929,0.0159067,0.0100202,-0.0405707,1.23077,0.030933,0.0439181,552,876,-8.89207,3.35118
-665,148,-11.1723,-0.217712,0,0,0,0,0,0,0,-1,559,876,-11.1723,0.217727
-658,148,-13.8875,-1.17139,0,0,0,0,0,0,0,-1,566,876,-13.8875,1.17139
-651,148,-10.7839,-0.0671997,0,0,0,0,0,0,0,-1,573,876,-10.7839,0.0672076
-644,148,-11.6477,2.02161,0,0,0,0,0,0,0,-1,580,876,-11.6477,-2.02163
-637,148,-11.0095,1.05347,-0.00892704,0.0141617,0.00393382,0.0148135,-0.00957888,1.40659,0.0141907,0.0487653,587,876,-11.0094,-1.0535
-630,148,-11.1931,1.43524,-0.0073312,0.0119377,0.00396553,0.0127219,-0.00811539,1.37556,0.012128,0.0384128,594,876,-11.1931,-1.43522
-623,148,-11.2089,1.88361,-0.00601781,0.00924652,0.00396452,0.0102148,-0.00698608,1.33125,0.00998907,0.0205466,601,876,-11.2089,-1.88359
-616,148,-11.313,1.77124,-0.00414613,0.00836112,0.00270903,0.00892268,-0.00470768,1.3664,0.00799393,0.0119589,608,876,-11.3131,-1.77123
-609,148,-11.3558,1.61292,-0.0044291,0.00606499,0.00329044,0.00701137,-0.00537548,1.29074,0.00717231,0.0113061,615,876,-11.3558,-1.61289
-602,148,-11.367,1.45612,-0.00512603,0.00397117,0.00361014,0.00522971,-0.00638457,1.23536,0.00671655,0.0122562,622,876,-11.367,-1.45613
-595,148,-11.3748,1.28882,-0.00615347,0.00127198,0.00398722,0.0030074,-0.00788889,1.16028,0.006498,0.0109506,629,876,-11.3747,-1.28885
-588,148,-11.402,1.12085,-0.00731244,-0.000595378,0.00418362,0.00141102,-0.00931884,1.12362,0.00673237,0.0138937,636,876,-11.402,-1.12083
-581,148,-11.4531,0.982971,-0.00854492,-0.00110497,0.00422709,0.000805911,-0.0104558,1.14623,0.00725411,0.020464,643,876,-11.4531,-0.982943
-574,148,-11.3298,0.867188,-0.00992725,-0.00126317,0.0043753,0.000561883,-0.0117523,1.17561,0.00802872,0.0253043,650,876,-11.3298,-0.867195
-567,148,-11.4048,0.668274,-0.0108982,-0.00134082,0.00437774,0.000361267,-0.0126003,1.19998,0.00852318,0.0322303,657,876,-11.4048,-0.668261
-560,148,-11.4033,0.436951,-0.011604,-0.00136453,0.00443256,0.000287676,-0.0132562,1.214,0.00893491,0.031089,664,876,-11.4033,-0.436944
-553,148,-12.1187,0.808838,-0.0122168,-0.00128857,0.00444721,0.000292472,-0.0137978,1.22922,0.00929759,0.0405137,671,876,-12.1187,-0.808857
-546,148,-13.4182,1.05853,-0.012514,-0.000995882,0.00430133,0.000433119,-0.013943,1.25005,0.00944304,0.0473051,678,876,-13.4182,-1.05854
-539,148,-13.5291,0.84436,-0.0121144,-0.000534126,0.00378357,0.000592461,-0.013241,1.2814,0.0090313,0.0353824,685,876,-13.5291,-0.844331
-532,148,-13.5231,0.824463,-0.0109124,7.17499e-05,0.00283976,0.000762485,-0.0116031,1.33219,0.00800171,0.03519,692,876,-13.5232,-0.82448
-525,148,-13.4766,0.942688,-0.00880333,0.000768315,0.0013884,0.000965639,-0.00900065,1.42962,0.00634685,0.0368373,699,876,-13.4765,-0.942658
-518,148,-13.4741,0.823181,-0.00546746,0.0014046,-0.000647183,0.00146502,-0.00552788,-1.47771,0.00425843,0.0401369,706,876,-13.474,-0.823186
-511,148,-13.4738,0.880249,-0.00112366,0.00172011,-0.00318794,0.00378888,-0.00319244,-0.995168,0.00403557,0.0411377,713,876,-13.4738,-0.880227
-504,148,-13.476,1.1629,0.00332116,0.00157796,-0.00553004,0.00804787,-0.00314875,-0.707235,0.00666745,0.0404182,720,876,-13.476,-1.16287
-497,148,0,0,0,0,0,0,0,0,0,-1,727,876,0,0
-490,148,0,0,0,0,0,0,0,0,0,-1,734,876,0,0
-483,148,0,0,0,0,0,0,0,0,0,-1,741,876,0,0
-476,148,0,0,0,0,0,0,0,0,0,-1,748,876,0,0
-469,148,0,0,0,0,0,0,0,0,0,-1,755,876,0,0
-462,148,0,0,0,0,0,0,0,0,0,-1,762,876,0,0
-455,148,0,0,0,0,0,0,0,0,0,-1,769,876,0,0
-448,148,0,0,0,0,0,0,0,0,0,-1,776,876,0,0
-441,148,0,0,0,0,0,0,0,0,0,-1,783,876,0,0
-434,148,0,0,0,0,0,0,0,0,0,-1,790,876,0,0
-427,148,0,0,0,0,0,0,0,0,0,-1,797,876,0,0
-420,148,0,0,0,0,0,0,0,0,0,-1,804,876,0,0
-413,148,0,0,0,0,0,0,0,0,0,-1,811,876,0,0
-406,148,0,0,0,0,0,0,0,0,0,-1,818,876,0,0
-399,148,0,0,0,0,0,0,0,0,0,-1,825,876,0,0
-392,148,0,0,0,0,0,0,0,0,0,-1,832,876,0,0
-385,148,0,0,0,0,0,0,0,0,0,-1,839,876,0,0
-378,148,0,0,0,0,0,0,0,0,0,-1,846,876,0,0
-371,148,0,0,0,0,0,0,0,0,0,-1,853,876,0,0
-364,148,0,0,0,0,0,0,0,0,0,-1,860,876,0,0
-357,148,0,0,0,0,0,0,0,0,0,-1,867,876,0,0
-350,148,0,0,0,0,0,0,0,0,0,-1,874,876,0,0
-343,148,0,0,0,0,0,0,0,0,0,-1,881,876,0,0
-336,148,0,0,0,0,0,0,0,0,0,-1,888,876,0,0
-329,148,0,0,0,0,0,0,0,0,0,-1,895,876,0,0
-322,148,0,0,0,0,0,0,0,0,0,-1,902,876,0,0
-315,148,0,0,0,0,0,0,0,0,0,-1,909,876,0,0
-308,148,0,0,0,0,0,0,0,0,0,-1,916,876,0,0
-301,148,0,0,0,0,0,0,0,0,0,-1,923,876,0,0
-294,148,0,0,0,0,0,0,0,0,0,-1,930,876,0,0
-287,148,0,0,0,0,0,0,0,0,0,-1,937,876,0,0
-280,148,0,0,0,0,0,0,0,0,0,-1,944,876,0,0
-273,148,0,0,0,0,0,0,0,0,0,-1,951,876,0,0
-266,148,0,0,0,0,0,0,0,0,0,-1,958,876,0,0
-259,148,0,0,0,0,0,0,0,0,0,-1,965,876,0,0
-252,148,0,0,0,0,0,0,0,0,0,-1,972,876,0,0
-245,148,0,0,0,0,0,0,0,0,0,-1,979,876,0,0
-238,148,0,0,0,0,0,0,0,0,0,-1,986,876,0,0
-231,148,0,0,0,0,0,0,0,0,0,-1,993,876,0,0
-224,148,0,0,0,0,0,0,0,0,0,-1,1000,876,0,0
-217,148,0,0,0,0,0,0,0,0,0,-1,1007,876,0,0
-210,148,0,0,0,0,0,0,0,0,0,-1,1014,876,0,0
-203,148,0,0,0,0,0,0,0,0,0,-1,1021,876,0,0
-196,148,0,0,0,0,0,0,0,0,0,-1,1028,876,0,0
-189,148,0,0,0,0,0,0,0,0,0,-1,1035,876,0,0
-182,148,0,0,0,0,0,0,0,0,0,-1,1042,876,0,0
-175,148,0,0,0,0,0,0,0,0,0,-1,1049,876,0,0
-168,148,0,0,0,0,0,0,0,0,0,-1,1056,876,0,0
-161,148,0,0,0,0,0,0,0,0,0,-1,1063,876,0,0
-154,148,0,0,0,0,0,0,0,0,0,-1,1070,876,0,0
-147,148,0,0,0,0,0,0,0,0,0,-1,1077,876,0,0
-140,148,0,0,0,0,0,0,0,0,0,-1,1084,876,0,0
-133,148,0,0,0,0,0,0,0,0,0,-1,1091,876,0,0
-126,148,0,0,0,0,0,0,0,0,0,-1,1098,876,0,0
-119,148,0,0,0,0,0,0,0,0,0,-1,1105,876,0,0
-112,148,0,0,0,0,0,0,0,0,0,-1,1112,876,0,0
-105,148,0,0,0,0,0,0,0,0,0,-1,1119,876,0,0
-98,148,0,0,0,0,0,0,0,0,0,-1,1126,876,0,0
-91,148,0,0,0,0,0,0,0,0,0,-1,1133,876,0,0
-84,148,0,0,0,0,0,0,0,0,0,-1,1140,876,0,0
-77,148,0,0,0,0,0,0,0,0,0,-1,1147,876,0,0
-70,148,0,0,0,0,0,0,0,0,0,-1,1154,876,0,0
-63,148,0,0,0,0,0,0,0,0,0,-1,1161,876,0,0
-56,148,0,0,0,0,0,0,0,0,0,-1,1168,876,0,0
-49,148,0,0,0,0,0,0,0,0,0,-1,1175,876,0,0
-42,148,0,0,0,0,0,0,0,0,0,-1,1182,876,0,0
-35,148,0,0,0,0,0,0,0,0,0,-1,1189,876,0,0
-28,148,0,0,0,0,0,0,0,0,0,-1,1196,876,0,0
-21,148,0,0,0,0,0,0,0,0,0,-1,1203,876,0,0
-14,148,0,0,0,0,0,0,0,0,0,-1,1210,876,0,0
-7,148,0,0,0,0,0,0,0,0,0,-1,1217,876,0,0
0,148,0,0,0,0,0,0,0,0,0,-1,1224,876,0,0
7,148,0,0,0,0,0,0,0,0,0,-1,1231,876,0,0
14,148,0,0,0,0,0,0,0,0,0,-1,1238,876,0,0
21,148,0,0,0,0,0,0,0,0,0,-1,1245,876,0,0
28,148,0,0,0,0,0,0,0,0,0,-1,1252,876,0,0
35,148,0,0,0,0,0,0,0,0,0,-1,1259,876,0,0
42,148,0,0,0,0,0,0,0,0,0,-1,1266,876,0,0
49,148,0,0,0,0,0,0,0,0,0,-1,1273,876,0,0
56,148,0,0,0,0,0,0,0,0,0,-1,1280,876,0,0
63,148,0,0,0,0,0,0,0,0,0,-1,1287,876,0,0
70,148,0,0,0,0,0,0,0,0,0,-1,1294,876,0,0
77,148,0,0,0,0,0,0,0,0,0,-1,1301,876,0,0
84,148,0,0,0,0,0,0,0,0,0,-1,1308,876,0,0
91,148,0,0,0,0,0,0,0,0,0,-1,1315,876,0,0
98,148,0,0,0,0,0,0,0,0,0,-1,1322,876,0,0
105,148,0,0,0,0,0,0,0,0,0,-1,1329,876,0,0
112,148,0,0,0,0,0,0,0,0,0,-1,1336,876,0,0
119,148,0,0,0,0,0,0,0,0,0,-1,1343,876,0,0
126,148,0,0,0,0,0,0,0,0,0,-1,1350,876,0,0
133,148,0,0,0,0,0,0,0,0,0,-1,1357,876,0,0
140,148,0,0,0,0,0,0,0,0,0,-1,1364,876,0,0
147,148,0,0,0,0,0,0,0,0,0,-1,1371,876,0,0
154,148,0,0,0,0,0,0,0,0,0,-1,1378,876,0,0
161,148,0,0,0,0,0,0,0,0,0,-1,1385,876,0,0
168,148,0,0,0,0,0,0,0,0,0,-1,1392,876,0,0
175,148,0,0,0,0,0,0,0,0,0,-1,1399,876,0,0
182,148,0,0,0,0,0,0,0,0,0,-1,1406,876,0,0
189,148,0,0,0,0,0,0,0,0,0,-1,1413,876,0,0
196,148,0,0,0,0,0,0,0,0,0,-1,1420,876,0,0
203,148,0,0,0,0,0,0,0,0,0,-1,1427,876,0,0
210,148,0,0,0,0,0,0,0,0,0,-1,1434,876,0,0
217,148,0,0,0,0,0,0,0,0,0,-1,1441,876,0,0
224,148,0,0,0,0,0,0,0,0,0,-1,1448,876,0,0
231,148,0,0,0,0,0,0,0,0,0,-1,1455,876,0,0
238,148,0,0,0,0,0,0,0,0,0,-1,1462,876,0,0
245,148,0,0,0,0,0,0,0,0,0,-1,1469,876,0,0
252,148,0,0,0,0,0,0,0,0,0,-1,1476,876,0,0
259,148,0,0,0,0,0,0,0,0,0,-1,1483,876,0,0
266,148,0,0,0,0,0,0,0,0,0,-1,1490,876,0,0
273,148,0,0,0,0,0,0,0,0,0,-1,1497,876,0,0
280,148,0,0,0,0,0,0,0,0,0,-1,1504,876,0,0
287,148,0,0,0,0,0,0,0,0,0,-1,1511,876,0,0
294,148,0,0,0,0,0,0,0,0,0,-1,1518,876,0,0
301,148,0,0,0,0,0,0,0,0,0,-1,1525,876,0,0
308,148,0,0,0,0,0,0,0,0,0,-1,1532,876,0,0
315,148,0,0,0,0,0,0,0,0,0,-1,1539,876,0,0
322,148,0,0,0,0,0,0,0,0,0,-1,1546,876,0,0
329,148,0,0,0,0,0,0,0,0,0,-1,1553,876,0,0
336,148,0,0,0,0,0,0,0,0,0,-1,1560,876,0,0
343,148,0,0,0,0,0,0,0,0,0,-1,1567,876,0,0
350,148,0,0,0,0,0,0,0,0,0,-1,1574,876,0,0
357,148,0,0,0,0,0,0,0,0,0,-1,1581,876,0,0
364,148,0,0,0,0,0,0,0,0,0,-1,1588,876,0,0
371,148,0,0,0,0,0,0,0,0,0,-1,1595,876,0,0
378,148,0,0,0,0,0,0,0,0,0,-1,1602,876,0,0
385,148,0,0,0,0,0,0,0,0,0,-1,1609,876,0,0
392,148,0,0,0,0,0,0,0,0,0,-1,1616,876,0,0
399,148,0,0,0,0,0,0,0,0,0,-1,1623,876,0,0
406,148,0,0,0,0,0,0,0,0,0,-1,1630,876,0,0
413,148,0,0,0,0,0,0,0,0,0,-1,1637,876,0,0
420,148,0,0,0,0,0,0,0,0,0,-1,1644,876,0,0
427,148,0,0,0,0,0,0,0,0,0,-1,1651,876,0,0
434,148,0,0,0,0,0,0,0,0,0,-1,1658,876,0,0
441,148,0,0,0,0,0,0,0,0,0,-1,1665,876,0,0
448,148,0,0,0,0,0,0,0,0,0,-1,1672,876,0,0
455,148,0,0,0,0,0,0,0,0,0,-1,1679,876,0,0
462,148,0,0,0,0,0,0,0,0,0,-1,1686,876,0,0
469,148,0,0,0,0,0,0,0,0,0,-1,1693,876,0,0
476,148,0,0,0,0,0,0,0,0,0,-1,1700,876,0,0
483,148,0,0,0,0,0,0,0,0,0,-1,1707,876,0,0
490,148,0,0,0,0,0,0,0,0,0,-1,1714,876,0,0
497,148,0,0,0,0,0,0,0,0,0,-1,1721,876,0,0
504,148,0,0,0,0,0,0,0,0,0,-1,1728,876,0,0
511,148,0,0,0,0,0,0,0,0,0,-1,1735,876,0,0
518,148,0,0,0,0,0,0,0,0,0,-1,1742,876,0,0
525,148,0,0,0,0,0,0,0,0,0,-1,1749,876,0,0
532,148,0,0,0,0,0,0,0,0,0,-1,1756,876,0,0
539,148,0,0,0,0,0,0,0,0,0,-1,1763,876,0,0
546,148,0,0,0,0,0,0,0,0,0,-1,1770,876,0,0
553,148,0,0,0,0,0,0,0,0,0,-1,1777,876,0,0
560,148,0,0,0,0,0,0,0,0,0,-1,1784,876,0,0
567,148,0,0,0,0,0,0,0,0,0,-1,1791,876,0,0
574,148,0,0,0,0,0,0,0,0,0,-1,1798,876,0,0
581,148,0,0,0,0,0,0,0,0,0,-1,1805,876,0,0
588,148,0,0,0,0,0,0,0,0,0,-1,1812,876,0,0
595,148,0,0,0,0,0,0,0,0,0,-1,1819,876,0,0
602,148,0,0,0,0,0,0,0,0,0,-1,1826,876,0,0
609,148,0,0,0,0,0,0,0,0,0,-1,1833,876,0,0
616,148,0,0,0,0,0,0,0,0,0,-1,1840,876,0,0
623,148,20.8109,2.98547,-0.000548312,0.00680645,0.00157017,0.00712764,-0.0008695,1.36902,0.00506652,0.0424124,1847,876,20.8109,-2.98547
630,148,20.7844,2.93518,-0.000368588,0.00501796,0.000447198,0.00505483,-0.000405463,1.48853,0.00351285,0.0421077,1854,876,20.7845,-2.93519
637,148,20.8369,2.88312,-0.000242422,0.00362148,-0.000305339,0.00364546,-0.000266402,-1.49242,0.0025238,0.0384619,1861,876,20.8369,-2.88313
644,148,20.8186,2.81506,-0.000755085,0.00256997,-0.000789868,0.00274806,-0.00093318,-1.34903,0.00220979,0.0375895,1868,876,20.8186,-2.81509
651,148,20.7849,2.67877,-0.00212973,0.00186807,-0.00115465,0.0021776,-0.00243925,-1.30889,0.00266697,0.036342,1875,876,20.7849,-2.67877
658,148,20.7786,2.75665,-0.00346447,0.00141055,-0.0013527,0.00176073,-0.00381465,-1.31748,0.00329095,0.0319725,1882,876,20.7785,-2.75666
665,148,20.7469,2.87207,-0.00455125,0.000965993,-0.00142175,0.00131082,-0.00489608,-1.33286,0.00377758,0.0245265,1889,876,20.7469,-2.87204
672,148,20.8124,2.76489,-0.00555563,0.000646712,-0.00153979,0.00100794,-0.00591686,-1.34037,0.00431993,0.0286855,1896,876,20.8123,-2.76488
679,148,20.9125,2.64935,0,0,0,0,0,0,0,-1,1903,876,20.9124,-2.64937
686,148,17.8676,2.5094,0,0,0,0,0,0,0,-1,1910,876,17.8675,-2.5094
693,148,17.8922,2.73389,-0.00753558,0.000258863,-0.00152601,0.00054698,-0.0078237,-1.38419,0.00540735,0.03527,1917,876,17.8922,-2.73389
700,148,18.0063,2.97754,-0.00758694,0.000256885,-0.00136905,0.000488972,-0.00781902,-1.40287,0.00538308,0.0160361,1924,876,18.0064,-2.97754
707,148,18.0787,3.20728,-0.00728356,0.000252363,-0.0012503,0.000454387,-0.00748558,-1.4106,0.00514854,0.0132635,1931,876,18.0787,-3.20728
714,148,18.0303,3.33185,-0.00627884,0.000294045,-0.00117749,0.000498617,-0.00648342,-1.39878,0.00449771,0.0134469,1938,876,18.0303,-3.33184
721,148,17.9594,3.4613,-0.00423019,0.000446434,-0.000795667,0.0005781,-0.00436185,-1.4068,0.00311852,0.0165412,1945,876,17.9593,-3.4613
728,148,17.9464,3.65289,-0.00124321,0.00117585,-3.25758e-05,0.00117629,-0.00124365,-1.55733,0.00139733,0.019278,1952,876,17.9464,-3.6529
735,148,17.9478,3.84802,0.00270577,0.00270784,0.000181599,0.00288841,0.00252521,0.78825,0.00181668,0.0178802,1959,876,17.9477,-3.848
742,148,17.9441,4.03009,0.00722291,0.00453529,-7.43098e-05,0.00722496,0.00453324,-0.0276208,0.00421626,0.0189488,1966,876,17.9441,-4.03007
749,148,17.9459,4.17664,0.0124027,0.00657401,-1.3094e-05,0.0124027,0.00657398,-0.00224646,0.00716502,0.0154346,1973,876,17.9459,-4.17662
756,148,17.9597,4.35724,0.018097,0.00928986,-0.00029934,0.0181072,0.0092797,-0.0339362,0.0104553,0.0208204,1980,876,17.9597,-4.35723
763,148,18.2589,4.44568,0.0247498,0.0126942,-0.00102354,0.0248361,0.012608,-0.0840998,0.0143397,0.043157,1987,876,18.2589,-4.44565
770,148,18.5823,4.58344,0.0329005,0.0167788,-0.0023149,0.0332263,0.016453,-0.139827,0.0191835,0.0447873,1994,876,18.5823,-4.58341
777,148,18.0673,5.54095,0.0428242,0.0215093,-0.0044759,0.043726,0.0206076,-0.198805,0.0252591,0.0416479,2001,876,18.0672,-5.54096
784,148,19.1754,5.59265,0.0547041,0.0267221,-0.00792074,0.0567906,0.0246356,-0.257571,0.0328838,0.0487166,2008,876,19.1754,-5.59267
791,148,19.7236,3.48444,0,0,0,0,0,0,0,-1,2015,876,19.7236,-3.48446
798,148,0,0,0,0,0,0,0,0,0,-1,2022,876,0,0
805,148,0,0,0,0,0,0,0,0,0,-1,2029,876,0,0
812,148,0,0,0,0,0,0,0,0,0,-1,2036,876,0,0
-700,141,0,0,0,0,0,0,0,0,0,-1,524,883,0,0
-693,141,0,0,0,0,0,0,0,0,0,-1,531,883,0,0
-686,141,0,0,0,0,0,0,0,0,0,-1,538,883,0,0
-679,141,0,0,0,0,0,0,0,0,0,-1,545,883,0,0
-672,141,-10.2907,-2.19781,0,0,0,0,0,0,0,-1,552,883,-10.2907,2.19783
-665,141,-13.2797,-0.90155,0,0,0,0,0,0,0,-1,559,883,-13.2797,0.901571
-658,141,-13.3584,-0.755981,0,0,0,0,0,0,0,-1,566,883,-13.3584,0.756
-651,141,-12.0369,1.90857,0,0,0,0,0,0,0,-1,573,883,-12.0369,-1.90859
-644,141,-12.0217,1.86719,0,0,0,0,0,0,0,-1,580,883,-12.0217,-1.86718
-637,141,-12.0066,1.82574,0,0,0,0,0,0,0,-1,587,883,-12.0066,-1.82577
-630,141,-11.2977,1.95575,-0.00674032,0.0046955,0.00552768,0.00693057,-0.00897538,1.18655,0.00920856,0.0383707,594,883,-11.2977,-1.95576
-623,141,-11.3766,1.83936,-0.00548049,0.00379915,0.005019,0.0059944,-0.00767575,1.15848,0.00791234,0.0210815,601,883,-11.3766,-1.83933
-616,141,-11.4794,1.73444,-0.00385589,0.00440678,0.0034667,0.00566858,-0.0051177,1.22172,0.00623017,0.0114513,608,883,-11.4794,-1.73445
-609,141,-11.5043,1.59741,-0.00440281,0.0035398,0.00376962,0.00504401,-0.00590703,1.19112,0.00632913,0.0124465,615,883,-11.5043,-1.59739
-602,141,-11.5091,1.43713,-0.00537551,0.00247543,0.003859,0.00405461,-0.0069547,1.18237,0.00642932,0.0121768,622,883,-11.5091,-1.43711
-595,141,-11.5203,1.26453,-0.00660182,0.000569322,0.004002,0.00235705,-0.00838955,1.15068,0.00652226,0.0109712,629,883,-11.5203,-1.26454
-588,141,-11.6427,1.14624,-0.00788384,-0.000811337,0.00405862,0.00103548,-0.00973066,1.14376,0.00685837,0.0153768,636,883,-11.6427,-1.14626
-581,141,-11.6348,1.01672,-0.00921684,-0.00122344,0.00410435,0.000508673,-0.0109489,1.17145,0.00747463,0.0208055,643,883,-11.6348,-1.01671
-574,141,-11.4572,0.903015,-0.0106329,-0.00134303,0.00422118,0.000288476,-0.0122644,1.20198,0.00827413,0.0247683,650,883,-11.4572,-0.902994
-567,141,-11.478,0.817078,-0.0115998,-0.00141903,0.00421181,9.75053e-05,-0.0131163,1.22518,0.00877688,0.0296241,657,883,-11.478,-0.817103
-560,141,-11.4803,0.779419,0,0,0,0,0,0,0,-1,664,883,-11.4803,-0.779398
-553,141,-12.6768,1.07611,-0.0127467,-0.00147821,0.00430636,-2.09496e-05,-0.0142039,1.24449,0.00946232,0.0471432,671,883,-12.6767,-1.07609
-546,141,-13.4424,1.07159,-0.0128193,-0.00126842,0.00413341,5.83087e-05,-0.014146,1.26021,0.00945019,0.0356805,678,883,-13.4425,-1.0716
-539,141,-13.4629,0.866577,-0.012102,-0.000888452,0.00359028,0.000162555,-0.013153,1.28602,0.00882333,0.029678,685,883,-13.4629,-0.866578
-532,141,-13.5257,0.781921,-0.0104714,-0.000366747,0.00260838,0.000266845,-0.011105,1.33251,0.00749386,0.0303706,692,883,-13.5257,-0.781915
-525,141,-13.5208,0.845032,-0.00776201,0.000240453,0.00110173,0.000389363,-0.00791092,1.43645,0.00540841,0.0393558,699,883,-13.5207,-0.845014
-518,141,-13.4915,0.951782,-0.00367724,0.000828299,-0.00103033,0.00105273,-0.00390167,-1.35632,0.00301395,0.0414512,706,883,-13.4915,-0.951806
-511,141,-13.5016,0.993103,0.00124445,0.00119672,-0.00363564,0.0048563,-0.00241513,-0.782116,0.0042763,0.039583,713,883,-13.5017,-0.993094
-504,141,-13.5112,0.938354,0.00580539,0.00145881,-0.00581033,0.00983558,-0.00257137,-0.606434,0.00756135,0.0406179,720,883,-13.5112,-0.938339
-497,141,0,0,0,0,0,0,0,0,0,-1,727,883,0,0
-490,141,0,0,0,0,0,0,0,0,0,-1,734,883,0,0
-483,141,0,0,0,0,0,0,0,0,0,-1,741,883,0,0
-476,141,0,0,0,0,0,0,0,0,0,-1,748,883,0,0
-469,141,0,0,0,0,0,0,0,0,0,-1,755,883,0,0
-462,141,0,0,0,0,0,0,0,0,0,-1,762,883,0,0
-455,141,0,0,0,0,0,0,0,0,0,-1,769,883,0,0
-448,141,0,0,0,0,0,0,0,0,0,-1,776,883,0,0
-441,141,0,0,0,0,0,0,0,0,0,-1,783,883,0,0
-434,141,0,0,0,0,0,0,0,0,0,-1,790,883,0,0
-427,141,0,0,0,0,0,0,0,0,0,-1,797,883,0,0
-420,141,0,0,0,0,0,0,0,0,0,-1,804,883,0,0
-413,141,0,0,0,0,0,0,0,0,0,-1,811,883,0,0
-406,141,0,0,0,0,0,0,0,0,0,-1,818,883,0,0
-399,141,0,0,0,0,0,0,0,0,0,-1,825,883,0,0
-392,141,0,0,0,0,0,0,0,0,0,-1,832,883,0,0
-385,141,0,0,0,0,0,0,0,0,0,-1,839,883,0,0
-378,141,0,0,0,0,0,0,0,0,0,-1,846,883,0,0
-371,141,0,0,0,0,0,0,0,0,0,-1,853,883,0,0
-364,141,0,0,0,0,0,0,0,0,0,-1,860,883,0,0
-357,141,0,0,0,0,0,0,0,0,0,-1,867,883,0,0
-350,141,0,0,0,0,0,0,0,0,0,-1,874,883,0,0
-343,141,0,0,0,0,0,0,0,0,0,-1,881,883,0,0
-336,141,0,0,0,0,0,0,0,0,0,-1,888,883,0,0
-329,141,0,0,0,0,0,0,0,0,0,-1,895,883,0,0
-322,141,0,0,0,0,0,0,0,0,0,-1,902,883,0,0
-315,141,0,0,0,0,0,0,0,0,0,-1,909,883,0,0
-308,141,0,0,0,0,0,0,0,0,0,-1,916,883,0,0
-301,141,0,0,0,0,0,0,0,0,0,-1,923,883,0,0
-294,141,0,0,0,0,0,0,0,0,0,-1,930,883,0,0
-287,141,0,0,0,0,0,0,0,0,0,-1,937,883,0,0
-280,141,0,0,0,0,0,0,0,0,0,-1,944,883,0,0
-273,141,0,0,0,0,0,0,0,0,0,-1,951,883,0,0
-266,141,0,0,0,0,0,0,0,0,0,-1,958,883,0,0
-259,141,0,0,0,0,0,0,0,0,0,-1,965,883,0,0
-252,141,0,0,0,0,0,0,0,0,0,-1,972,883,0,0
-245,141,0,0,0,0,0,0,0,0,0,-1,979,883,0,0
-238,141,0,0,0,0,0,0,0,0,0,-1,986,883,0,0
-231,141,0,0,0,0,0,0,0,0,0,-1,993,883,0,0
-224,141,0,0,0,0,0,0,0,0,0,-1,1000,883,0,0
-217,141,0,0,0,0,0,0,0,0,0,-1,1007,883,0,0
-210,141,0,0,0,0,0,0,0,0,0,-1,1014,883,0,0
-203,141,0,0,0,0,0,0,0,0,0,-1,1021,883,0,0
-196,141,0,0,0,0,0,0,0,0,0,-1,1028,883,0,0
-189,141,0,0,0,0,0,0,0,0,0,-1,1035,883,0,0
-182,141,0,0,0,0,0,0,0,0,0,-1,1042,883,0,0
-175,141,0,0,0,0,0,0,0,0,0,-1,1049,883,0,0
-168,141,0,0,0,0,0,0,0,0,0,-1,1056,883,0,0
-161,141,0,0,0,0,0,0,0,0,0,-1,1063,883,0,0
-154,141,0,0,0,0,0,0,0,0,0,-1,1070,883,0,0
-147,141,0,0,0,0,0,0,0,0,0,-1,1077,883,0,0
-140,141,0,0,0,0,0,0,0,0,0,-1,1084,883,0,0
-133,141,0,0,0,0,0,0,0,0,0,-1,1091,883,0,0
-126,141,0,0,0,0,0,0,0,0,0,-1,1098,883,0,0
-119,141,0,0,0,0,0,0,0,0,0,-1,1105,883,0,0
-112,141,0,0,0,0,0,0,0,0,0,-1,1112,883,0,0
-105,141,0,0,0,0,0,0,0,0,0,-1,1119,883,0,0
-98,141,0,0,0,0,0,0,0,0,0,-1,1126,883,0,0
-91,141,0,0,0,0,0,0,0,0,0,-1,1133,883,0,0
-84,141,0,0,0,0,0,0,0,0,0,-1,1140,883,0,0
-77,141,0,0,0,0,0,0,0,0,0,-1,1147,883,0,0
-70,141,0,0,0,0,0,0,0,0,0,-1,1154,883,0,0
-63,141,0,0,0,0,0,0,0,0,0,-1,1161,883,0,0
-56,141,0,0,0,0,0,0,0,0,0,-1,1168,883,0,0
-49,141,0,0,0,0,0,0,0,0,0,-1,1175,883,0,0
-42,141,0,0,0,0,0,0,0,0,0,-1,1182,883,0,0
-35,141,0,0,0,0,0,0,0,0,0,-1,1189,883,0,0
-28,141,0,0,0,0,0,0,0,0,0,-1,1196,883,0,0
-21,141,0,0,0,0,0,0,0,0,0,-1,1203,883,0,0
-14,141,0,0,0,0,0,0,0,0,0,-1,1210,883,0,0
-7,141,0,0,0,0,0,0,0,0,0,-1,1217,883,0,0
0,141,0,0,0,0,0,0,0,0,0,-1,1224,883,0,0
7,141,0,0,0,0,0,0,0,0,0,-1,1231,883,0,0
14,141,0,0,0,0,0,0,0,0,0,-1,1238,883,0,0
21,141,0,0,0,0,0,0,0,0,0,-1,1245,883,0,0
28,141,0,0,0,0,0,0,0,0,0,-1,1252,883,0,0
35,141,0,0,0,0,0,0,0,0,0,-1,1259,883,0,0
42,141,0,0,0,0,0,0,0,0,0,-1,1266,883,0,0
49,141,0,0,0,0,0,0,0,0,0,-1,1273,883,0,0
56,141,0,0,0,0,0,0,0,0,0,-1,1280,883,0,0
63,141,0,0,0,0,0,0,0,0,0,-1,1287,883,0,0
70,141,0,0,0,0,0,0,0,0,0,-1,1294,883,0,0
77,141,0,0,0,0,0,0,0,0,0,-1,1301,883,0,0
84,141,0,0,0,0,0,0,0,0,0,-1,1308,883,0,0
91,141,0,0,0,0,0,0,0,0,0,-1,1315,883,0,0
98,141,0,0,0,0,0,0,0,0,0,-1,1322,883,0,0
105,141,0,0,0,0,0,0,0,0,0,-1,1329,883,0,0
112,141,0,0,0,0,0,0,0,0,0,-1,1336,883,0,0
119,141,0,0,0,0,0,0,0,0,0,-1,1343,883,0,0
126,141,0,0,0,0,0,0,0,0,0,-1,1350,883,0,0
133,141,0,0,0,0,0,0,0,0,0,-1,1357,883,0,0
140,141,0,0,0,0,0,0,0,0,0,-1,1364,883,0,0
147,141,0,0,0,0,0,0,0,0,0,-1,1371,883,0,0
154,141,0,0,0,0,0,0,0,0,0,-1,1378,883,0,0
161,141,0,0,0,0,0,0,0,0,0,-1,1385,883,0,0
168,141,0,0,0,0,0,0,0,0,0,-1,1392,883,0,0
175,141,0,0,0,0,0,0,0,0,0,-1,1399,883,0,0
182,141,0,0,0,0,0,0,0,0,0,-1,1406,883,0,0
189,141,0,0,0,0,0,0,0,0,0,-1,1413,883,0,0
196,141,0,0,0,0,0,0,0,0,0,-1,1420,883,0,0
203,141,0,0,0,0,0,0,0,0,0,-1,1427,883,0,0
210,141,0,0,0,0,0,0,0,0,0,-1,1434,883,0,0
217,141,0,0,0,0,0,0,0,0,0,-1,1441,883,0,0
224,141,0,0,0,0,0,0,0,0,0,-1,1448,883,0,0
231,141,0,0,0,0,0,0,0,0,0,-1,1455,883,0,0
238,141,0,0,0,0,0,0,0,0,0,-1,1462,883,0,0
245,141,0,0,0,0,0,0,0,0,0,-1,1469,883,0,0
252,141,0,0,0,0,0,0,0,0,0,-1,1476,883,0,0
259,141,0,0,0,0,0,0,0,0,0,-1,1483,883,0,0
266,141,0,0,0,0,0,0,0,0,0,-1,1490,883,0,0
273,141,0,0,0,0,0,0,0,0,0,-1,1497,883,0,0
280,141,0,0,0,0,0,0,0,0,0,-1,1504,883,0,0
287,141,0,0,0,0,0,0,0,0,0,-1,1511,883,0,0
294,141,0,0,0,0,0,0,0,0,0,-1,1518,883,0,0
301,141,0,0,0,0,0,0,0,0,0,-1,1525,883,0,0
308,141,0,0,0,0,0,0,0,0,0,-1,1532,883,0,0
315,141,0,0,0,0,0,0,0,0,0,-1,1539,883,0,0
322,141,0,0,0,0,0,0,0,0,0,-1,1546,883,0,0
329,141,0,0,0,0,0,0,0,0,0,-1,1553,883,0,0
336,141,0,0,0,0,0,0,0,0,0,-1,1560,883,0,0
343,141,0,0,0,0,0,0,0,0,0,-1,1567,883,0,0
350,141,0,0,0,0,0,0,0,0,0,-1,1574,883,0,0
357,141,0,0,0,0,0,0,0,0,0,-1,1581,883,0,0
364,141,0,0,0,0,0,0,0,0,0,-1,1588,883,0,0
371,141,0,0,0,0,0,0,0,0,0,-1,1595,883,0,0
378,141,0,0,0,0,0,0,0,0,0,-1,1602,883,0,0
385,141,0,0,0,0,0,0,0,0,0,-1,1609,883,0,0
392,141,0,0,0,0,0,0,0,0,0,-1,1616,883,0,0
399,141,0,0,0,0,0,0,0,0,0,-1,1623,883,0,0
406,141,0,0,0,0,0,0,0,0,0,-1,1630,883,0,0
413,141,0,0,0,0,0,0,0,0,0,-1,1637,883,0,0
420,141,0,0,0,0,0,0,0,0,0,-1,1644,883,0,0
427,141,0,0,0,0,0,0,0,0,0,-1,1651,883,0,0
434,141,0,0,0,0,0,0,0,0,0,-1,1658,883,0,0
441,141,0,0,0,0,0,0,0,0,0,-1,1665,883,0,0
448,141,0,0,0,0,0,0,0,0,0,-1,1672,883,0,0
455,141,0,0,0,0,0,0,0,0,0,-1,1679,883,0,0
462,141,0,0,0,0,0,0,0,0,0,-1,1686,883,0,0
469,141,0,0,0,0,0,0,0,0,0,-1,1693,883,0,0
476,141,0,0,0,0,0,0,0,0,0,-1,1700,883,0,0
483,141,0,0,0,0,0,0,0,0,0,-1,1707,883,0,0
490,141,0,0,0,0,0,0,0,0,0,-1,1714,883,0,0
497,141,0,0,0,0,0,0,0,0,0,-1,1721,883,0,0
504,141,0,0,0,0,0,0,0,0,0,-1,1728,883,0,0
511,141,0,0,0,0,0,0,0,0,0,-1,1735,883,0,0
518,141,0,0,0,0,0,0,0,0,0,-1,1742,883,0,0
525,141,0,0,0,0,0,0,0,0,0,-1,1749,883,0,0
532,141,0,0,0,0,0,0,0,0,0,-1,1756,883,0,0
539,141,0,0,0,0,0,0,0,0,0,-1,1763,883,0,0
546,141,0,0,0,0,0,0,0,0,0,-1,1770,883,0,0
553,141,0,0,0,0,0,0,0,0,0,-1,1777,883,0,0
560,141,0,0,0,0,0,0,0,0,0,-1,1784,883,0,0
567,141,0,0,0,0,0,0,0,0,0,-1,1791,883,0,0
574,141,0,0,0,0,0,0,0,0,0,-1,1798,883,0,0
581,141,0,0,0,0,0,0,0,0,0,-1,1805,883,0,0
588,141,0,0,0,0,0,0,0,0,0,-1,1812,883,0,0
595,141,0,0,0,0,0,0,0,0,0,-1,1819,883,0,0
602,141,0,0,0,0,0,0,0,0,0,-1,1826,883,0,0
609,141,0,0,0,0,0,0,0,0,0,-1,1833,883,0,0
616,141,0,0,0,0,0,0,0,0,0,-1,1840,883,0,0
623,141,20.7701,2.69324,-0.000136164,0.00783223,0.00196167,0.00828898,-0.00059291,1.34204,0.00573385,0.04386,1847,883,20.7702,-2.69324
630,141,20.8035,2.77789,-0.000506364,0.00586061,0.000540763,0.00590621,-0.000551966,1.48667,0.00413376,0.0450367,1854,883,20.8035,-2.7779
637,141,20.929,2.86127,-0.000723771,0.00437986,-0.000402609,0.00441142,-0.000755336,-1.49255,0.00322237,0.0418729,1861,883,20.929,-2.86126
644,141,20.926,2.82355,-0.00128723,0.00321272,-0.00097335,0.00341423,-0.00148875,-1.36665,0.00290259,0.0380692,1868,883,20.9261,-2.82357
651,141,20.8479,2.80438,-0.00295214,0.00244792,-0.00142186,0.00279942,-0.00330365,-1.32844,0.00352761,0.0362773,1875,883,20.8479,-2.80441
658,141,20.8544,2.82544,-0.00472824,0.00192099,-0.0016766,0.00231982,-0.00512707,-1.33726,0.00440012,0.0347422,1882,883,20.8544,-2.82543
665,141,20.7505,2.84656,-0.00615566,0.00143516,-0.00176484,0.00182541,-0.00654591,-1.35317,0.00508287,0.027252,1889,883,20.7505,-2.84656
672,141,20.7942,2.7998,-0.00736286,0.00108744,-0.00186905,0.00148238,-0.0077578,-1.36255,0.00573027,0.0217768,1896,883,20.7941,-2.79978
679,141,20.8594,2.6994,-0.008242,0.000675136,-0.00191864,0.00107043,-0.0086373,-1.36761,0.00614616,0.0261006,1903,883,20.8593,-2.69942
686,141,20.9193,2.57843,0,0,0,0,0,0,0,-1,1910,883,20.9194,-2.57842
693,141,18.057,2.7002,0,0,0,0,0,0,0,-1,1917,883,18.0571,-2.70017
700,141,18.149,2.95898,-0.00945984,0.000498572,-0.00159476,0.000747727,-0.009709,-1.41582,0.00673576,0.0170002,1924,883,18.149,-2.95901
707,141,18.1578,3.14532,-0.00895672,0.000495765,-0.00139957,0.000698636,-0.00915959,-1.42685,0.00635209,0.0145826,1931,883,18.1579,-3.14531
714,141,18.0773,3.29797,-0.00775239,0.000533776,-0.00127736,0.000726219,-0.00794483,-1.42126,0.00555448,0.0147656,1938,883,18.0772,-3.29799
721,141,18.0856,3.46149,-0.0055138,0.000713706,-0.000902356,0.00084182,-0.00564191,-1.42976,0.004071,0.0121127,1945,883,18.0856,-3.46147
728,141,18.105,3.59662,-0.00233393,0.00156517,-0.000166429,0.00157226,-0.00234102,-1.52822,0.00227382,0.014374,1952,883,18.105,-3.59662
735,141,18.106,3.82965,0.00168743,0.00337961,-5.79427e-05,0.00338159,0.00168545,-1.53661,0.00195236,0.0146499,1959,883,18.106,-3.82963
742,141,18.0963,4.01776,0.00618098,0.00567525,-0.000470566,0.00646232,0.00539391,-0.538854,0.00399993,0.0155503,1966,883,18.0964,-4.01778
749,141,18.111,4.16168,0.0113187,0.00822925,-0.000600721,0.0114314,0.00811655,-0.185444,0.00679123,0.0127072,1973,883,18.1109,-4.1617
756,141,18.1023,4.33911,0.0166672,0.0116472,-0.00120608,0.0169419,0.0113725,-0.223969,0.00997084,0.019551,1980,883,18.1023,-4.33913
763,141,18.0945,4.48956,0.0224997,0.0159771,-0.00240546,0.0232909,0.015186,-0.317752,0.0136526,0.0437879,1987,883,18.0945,-4.48956
770,141,18.3732,4.44348,0.0293489,0.0212814,-0.00432809,0.0312315,0.0193987,-0.410292,0.018207,0.0450072,1994,883,18.3731,-4.44347
777,141,18.719,4.75555,0.0374434,0.0276192,-0.00730399,0.0413334,0.0237292,-0.489375,0.023951,0.0433233,2001,883,18.719,-4.75555
784,141,19.0287,5.87512,0.0467384,0.0349701,-0.0117629,0.0540068,0.0277017,-0.553484,0.0311843,0.0441778,2008,883,19.0287,-5.87512
791,141,19.8347,3.50183,0.0571852,0.043283,-0.0183595,0.0698655,0.0306027,-0.604432,0.04044,0.0477978,2015,883,19.8348,-3.50183
798,141,0,0,0,0,0,0,0,0,0,-1,2022,883,0,0
805,141,0,0,0,0,0,0,0,0,0,-1,2029,883,0,0
812,141,0,0,0,0,0,0,0,0,0,-1,2036,883,0,0
-700,134,0,0,0,0,0,0,0,0,0,-1,524,890,0,0
-693,134,0,0,0,0,0,0,0,0,0,-1,531,890,0,0
-686,134,0,0,0,0,0,0,0,0,0,-1,538,890,0,0
-679,134,0,0,0,0,0,0,0,0,0,-1,545,890,0,0
-672,134,-11.3139,-1.23193,-0.0288402,-0.027316,0.0183444,-0.0097179,-0.0464383,0.806158,0.0282817,0.0455568,552,890,-11.3139,1.23191
-665,134,-12.762,-0.525146,-0.020832,-0.0195079,0.0135357,-0.00661806,-0.0337219,0.809834,0.0206321,0.0436868,559,890,-12.762,0.525138
-658,134,-12.8146,-0.335327,-0.0154637,-0.0132799,0.010535,-0.00378037,-0.0249632,0.837035,0.0155361,0.0424782,566,890,-12.8146,0.335301
-651,134,-12.3684,1.66614,0,0,0,0,0,0,0,-1,573,890,-12.3684,-1.66616
-644,134,-12.3616,1.67511,0,0,0,0,0,0,0,-1,580,890,-12.3616,-1.67509
-637,134,-11.623,2.01813,0,0,0,0,0,0,0,-1,587,890,-11.623,-2.01813
-630,134,-11.595,1.92267,-0.00581469,-0.000729248,0.00566533,0.00293781,-0.00948175,0.996335,0.00749489,0.0401371,594,890,-11.595,-1.92268
-623,134,-11.5909,1.82556,-0.00477624,-0.000252303,0.00500471,0.00297787,-0.00800641,0.997643,0.00655955,0.0205313,601,890,-11.5909,-1.82556
-616,134,-11.6592,1.73596,-0.00358615,0.00141454,0.00349999,0.00321556,-0.00538716,1.09556,0.00501925,0.0110248,608,890,-11.6592,-1.73597
-609,134,-11.6873,1.60321,-0.00443208,0.00168787,0.00370703,0.00343471,-0.00617893,1.13043,0.00562531,0.0106813,615,890,-11.6873,-1.60321
-602,134,-11.6815,1.43561,-0.00563374,0.00143177,0.00371211,0.00302348,-0.00722545,1.16572,0.00608073,0.0114772,622,890,-11.6815,-1.43559
-595,134,-11.6664,1.30011,-0.00696542,0.000155883,0.00376013,0.00177373,-0.00858327,1.16448,0.00639593,0.0120349,629,890,-11.6664,-1.30012
-588,134,-11.8165,1.22009,-0.00828573,-0.000873501,0.00376751,0.000705212,-0.00986445,1.17399,0.00682353,0.0197441,636,890,-11.8165,-1.22009
-581,134,-11.7717,1.0094,-0.00965014,-0.00121168,0.0038109,0.000254583,-0.0111164,1.2035,0.00749724,0.023975,643,890,-11.7717,-1.00943
-574,134,-11.7158,0.837585,-0.0110504,-0.00130528,0.00390915,6.90208e-05,-0.0124247,1.23273,0.00830623,0.0247645,650,890,-11.7158,-0.837583
-567,134,-11.5892,0.714539,-0.0119712,-0.00135907,0.00389534,-8.27396e-05,-0.0132475,1.25416,0.00880423,0.0218221,657,890,-11.5892,-0.714529
-560,134,-12.0493,0.969421,-0.0125684,-0.0014591,0.0039739,-0.000183956,-0.0138435,1.2603,0.00916831,0.0390361,664,890,-12.0493,-0.969426
-553,134,-12.8488,1.3667,0,0,0,0,0,0,0,-1,671,890,-12.8487,-1.36672
-546,134,-13.4257,0.906494,-0.0126849,-0.00125905,0.00379645,-0.000112638,-0.0138313,1.27753,0.00918356,0.0278888,678,890,-13.4257,-0.906492
-539,134,-13.4308,0.889771,-0.0116371,-0.000918477,0.00324542,-1.24145e-05,-0.0125432,1.29855,0.008358,0.0188523,685,890,-13.4308,-0.889743
-532,134,-13.5433,0.901428,-0.00959825,-0.000454923,0.00227952,8.18688e-05,-0.010135,1.33953,0.00678415,0.023109,692,890,-13.5433,-0.901415
-525,134,-13.6421,0.931458,-0.00636677,8.18964e-05,0.00080761,0.0001815,-0.00646638,1.44808,0.00437267,0.0352377,699,890,-13.6421,-0.931428
-518,134,-13.5354,1.02826,-0.00172322,0.000596526,-0.00125604,0.00114631,-0.00227301,-1.15821,0.00200955,0.0413716,706,890,-13.5354,-1.02825
-511,134,-13.5184,0.970459,0.00344917,0.000917095,-0.00363285,0.00603026,-0.001664,-0.617731,0.00467463,0.0453321,713,890,-13.5183,-0.970433
-504,134,0,0,0,0,0,0,0,0,0,-1,720,890,0,0
-497,134,0,0,0,0,0,0,0,0,0,-1,727,890,0,0
-490,134,0,0,0,0,0,0,0,0,0,-1,734,890,0,0
-483,134,0,0,0,0,0,0,0,0,0,-1,741,890,0,0
-476,134,0,0,0,0,0,0,0,0,0,-1,748,890,0,0
-469,134,0,0,0,0,0,0,0,0,0,-1,755,890,0,0
-462,134,0,0,0,0,0,0,0,0,0,-1,762,890,0,0
-455,134,0,0,0,0,0,0,0,0,0,-1,769,890,0,0
-448,134,0,0,0,0,0,0,0,0,0,-1,776,890,0,0
-441,134,0,0,0,0,0,0,0,0,0,-1,783,890,0,0
-434,134,0,0,0,0,0,0,0,0,0,-1,790,890,0,0
-427,134,0,0,0,0,0,0,0,0,0,-1,797,890,0,0
-420,134,0,0,0,0,0,0,0,0,0,-1,804,890,0,0
-413,134,0,0,0,0,0,0,0,0,0,-1,811,890,0,0
-406,134,0,0,0,0,0,0,0,0,0,-1,818,890,0,0
-399,134,0,0,0,0,0,0,0,0,0,-1,825,890,0,0
-392,134,0,0,0,0,0,0,0,0,0,-1,832,890,0,0
-385,134,0,0,0,0,0,0,0,0,0,-1,839,890,0,0
-378,134,0,0,0,0,0,0,0,0,0,-1,846,890,0,0
-371,134,0,0,0,0,0,0,0,0,0,-1,853,890,0,0
-364,134,0,0,0,0,0,0,0,0,0,-1,860,890,0,0
-357,134,0,0,0,0,0,0,0,0,0,-1,867,890,0,0
-350,134,0,0,0,0,0,0,0,0,0,-1,874,890,0,0
-343,134,0,0,0,0,0,0,0,0,0,-1,881,890,0,0
-336,134,0,0,0,0,0,0,0,0,0,-1,888,890,0,0
-329,134,0,0,0,0,0,0,0,0,0,-1,895,890,0,0
-322,134,0,0,0,0,0,0,0,0,0,-1,902,890,0,0
-315,134,0,0,0,0,0,0,0,0,0,-1,909,890,0,0
-308,134,0,0,0,0,0,0,0,0,0,-1,916,890,0,0
-301,134,0,0,0,0,0,0,0,0,0,-1,923,890,0,0
-294,134,0,0,0,0,0,0,0,0,0,-1,930,890,0,0
-287,134,0,0,0,0,0,0,0,0,0,-1,937,890,0,0
-280,134,0,0,0,0,0,0,0,0,0,-1,944,890,0,0
-273,134,0,0,0,0,0,0,0,0,0,-1,951,890,0,0
-266,134,0,0,0,0,0,0,0,0,0,-1,958,890,0,0
-259,134,0,0,0,0,0,0,0,0,0,-1,965,890,0,0
-252,134,0,0,0,0,0,0,0,0,0,-1,972,890,0,0
-245,134,0,0,0,0,0,0,0,0,0,-1,979,890,0,0
-238,134,0,0,0,0,0,0,0,0,0,-1,986,890,0,0
-231,134,0,0,0,0,0,0,0,0,0,-1,993,890,0,0
-224,134,0,0,0,0,0,0,0,0,0,-1,1000,890,0,0
-217,134,0,0,0,0,0,0,0,0,0,-1,1007,890,0,0
-210,134,0,0,0,0,0,0,0,0,0,-1,1014,890,0,0
-203,134,0,0,0,0,0,0,0,0,0,-1,1021,890,0,0
-196,134,0,0,0,0,0,0,0,0,0,-1,1028,890,0,0
-189,134,0,0,0,0,0,0,0,0,0,-1,1035,890,0,0
-182,134,0,0,0,0,0,0,0,0,0,-1,1042,890,0,0
-175,134,0,0,0,0,0,0,0,0,0,-1,1049,890,0,0
-168,134,0,0,0,0,0,0,0,0,0,-1,1056,890,0,0
-161,134,0,0,0,0,0,0,0,0,0,-1,1063,890,0,0
-154,134,0,0,0,0,0,0,0,0,0,-1,1070,890,0,0
-147,134,0,0,0,0,0,0,0,0,0,-1,1077,890,0,0
-140,134,0,0,0,0,0,0,0,0,0,-1,1084,890,0,0
-133,134,0,0,0,0,0,0,0,0,0,-1,1091,890,0,0
-126,134,0,0,0,0,0,0,0,0,0,-1,1098,890,0,0
-119,134,0,0,0,0,0,0,0,0,0,-1,1105,890,0,0
-112,134,0,0,0,0,0,0,0,0,0,-1,1112,890,0,0
-105,134,0,0,0,0,0,0,0,0,0,-1,1119,890,0,0
-98,134,0,0,0,0,0,0,0,0,0,-1,1126,890,0,0
-91,134,0,0,0,0,0,0,0,0,0,-1,1133,890,0,0
-84,134,0,0,0,0,0,0,0,0,0,-1,1140,890,0,0
-77,134,0,0,0,0,0,0,0,0,0,-1,1147,890,0,0
-70,134,0,0,0,0,0,0,0,0,0,-1,1154,890,0,0
-63,134,0,0,0,0,0,0,0,0,0,-1,1161,890,0,0
-56,134,0,0,0,0,0,0,0,0,0,-1,1168,890,0,0
-49,134,0,0,0,0,0,0,0,0,0,-1,1175,890,0,0
-42,134,0,0,0,0,0,0,0,0,0,-1,1182,890,0,0
-35,134,0,0,0,0,0,0,0,0,0,-1,1189,890,0,0
-28,134,0,0,0,0,0,0,0,0,0,-1,1196,890,0,0
-21,134,0,0,0,0,0,0,0,0,0,-1,1203,890,0,0
-14,134,0,0,0,0,0,0,0,0,0,-1,1210,890,0,0
-7,134,0,0,0,0,0,0,0,0,0,-1,1217,890,0,0
0,134,0,0,0,0,0,0,0,0,0,-1,1224,890,0,0
7,134,0,0,0,0,0,0,0,0,0,-1,1231,890,0,0
14,134,0,0,0,0,0,0,0,0,0,-1,1238,890,0,0
21,134,0,0,0,0,0,0,0,0,0,-1,1245,890,0,0
28,134,0,0,0,0,0,0,0,0,0,-1,1252,890,0,0
35,134,0,0,0,0,0,0,0,0,0,-1,1259,890,0,0
42,134,0,0,0,0,0,0,0,0,0,-1,1266,890,0,0
49,134,0,0,0,0,0,0,0,0,0,-1,1273,890,0,0
56,134,0,0,0,0,0,0,0,0,0,-1,1280,890,0,0
63,134,0,0,0,0,0,0,0,0,0,-1,1287,890,0,0
70,134,0,0,0,0,0,0,0,0,0,-1,1294,890,0,0
77,134,0,0,0,0,0,0,0,0,0,-1,1301,890,0,0
84,134,0,0,0,0,0,0,0,0,0,-1,1308,890,0,0
91,134,0,0,0,0,0,0,0,0,0,-1,1315,890,0,0
98,134,0,0,0,0,0,0,0,0,0,-1,1322,890,0,0
105,134,0,0,0,0,0,0,0,0,0,-1,1329,890,0,0
112,134,0,0,0,0,0,0,0,0,0,-1,1336,890,0,0
119,134,0,0,0,0,0,0,0,0,0,-1,1343,890,0,0
126,134,0,0,0,0,0,0,0,0,0,-1,1350,890,0,0
133,134,0,0,0,0,0,0,0,0,0,-1,1357,890,0,0
140,134,0,0,0,0,0,0,0,0,0,-1,1364,890,0,0
147,134,0,0,0,0,0,0,0,0,0,-1,1371,890,0,0
154,134,0,0,0,0,0,0,0,0,0,-1,1378,890,0,0
161,134,0,0,0,0,0,0,0,0,0,-1,1385,890,0,0
168,134,0,0,0,0,0,0,0,0,0,-1,1392,890,0,0
175,134,0,0,0,0,0,0,0,0,0,-1,1399,890,0,0
182,134,0,0,0,0,0,0,0,0,0,-1,1406,890,0,0
189,134,0,0,0,0,0,0,0,0,0,-1,1413,890,0,0
196,134,0,0,0,0,0,0,0,0,0,-1,1420,890,0,0
203,134,0,0,0,0,0,0,0,0,0,-1,1427,890,0,0
210,134,0,0,0,0,0,0,0,0,0,-1,1434,890,0,0
217,134,0,0,0,0,0,0,0,0,0,-1,1441,890,0,0
224,134,0,0,0,0,0,0,0,0,0,-1,1448,890,0,0
231,134,0,0,0,0,0,0,0,0,0,-1,1455,890,0,0
238,134,0,0,0,0,0,0,0,0,0,-1,1462,890,0,0
245,134,0,0,0,0,0,0,0,0,0,-1,1469,890,0,0
252,134,0,0,0,0,0,0,0,0,0,-1,1476,890,0,0
259,134,0,0,0,0,0,0,0,0,0,-1,1483,890,0,0
266,134,0,0,0,0,0,0,0,0,0,-1,1490,890,0,0
273,134,0,0,0,0,0,0,0,0,0,-1,1497,890,0,0
280,134,0,0,0,0,0,0,0,0,0,-1,1504,890,0,0
287,134,0,0,0,0,0,0,0,0,0,-1,1511,890,0,0
294,134,0,0,0,0,0,0,0,0,0,-1,1518,890,0,0
301,134,0,0,0,0,0,0,0,0,0,-1,1525,890,0,0
308,134,0,0,0,0,0,0,0,0,0,-1,1532,890,0,0
315,134,0,0,0,0,0,0,0,0,0,-1,1539,890,0,0
322,134,0,0,0,0,0,0,0,0,0,-1,1546,890,0,0
329,134,0,0,0,0,0,0,0,0,0,-1,1553,890,0,0
336,134,0,0,0,0,0,0,0,0,0,-1,1560,890,0,0
343,134,0,0,0,0,0,0,0,0,0,-1,1567,890,0,0
350,134,0,0,0,0,0,0,0,0,0,-1,1574,890,0,0
357,134,0,0,0,0,0,0,0,0,0,-1,1581,890,0,0
364,134,0,0,0,0,0,0,0,0,0,-1,1588,890,0,0
371,134,0,0,0,0,0,0,0,0,0,-1,1595,890,0,0
378,134,0,0,0,0,0,0,0,0,0,-1,1602,890,0,0
385,134,0,0,0,0,0,0,0,0,0,-1,1609,890,0,0
392,134,0,0,0,0,0,0,0,0,0,-1,1616,890,0,0
399,134,0,0,0,0,0,0,0,0,0,-1,1623,890,0,0
406,134,0,0,0,0,0,0,0,0,0,-1,1630,890,0,0
413,134,0,0,0,0,0,0,0,0,0,-1,1637,890,0,0
420,134,0,0,0,0,0,0,0,0,0,-1,1644,890,0,0
427,134,0,0,0,0,0,0,0,0,0,-1,1651,890,0,0
434,134,0,0,0,0,0,0,0,0,0,-1,1658,890,0,0
441,134,0,0,0,0,0,0,0,0,0,-1,1665,890,0,0
448,134,0,0,0,0,0,0,0,0,0,-1,1672,890,0,0
455,134,0,0,0,0,0,0,0,0,0,-1,1679,890,0,0
462,134,0,0,0,0,0,0,0,0,0,-1,1686,890,0,0
469,134,0,0,0,0,0,0,0,0,0,-1,1693,890,0,0
476,134,0,0,0,0,0,0,0,0,0,-1,1700,890,0,0
483,134,0,0,0,0,0,0,0,0,0,-1,1707,890,0,0
490,134,0,0,0,0,0,0,0,0,0,-1,1714,890,0,0
497,134,0,0,0,0,0,0,0,0,0,-1,1721,890,0,0
504,134,0,0,0,0,0,0,0,0,0,-1,1728,890,0,0
511,134,0,0,0,0,0,0,0,0,0,-1,1735,890,0,0
518,134,0,0,0,0,0,0,0,0,0,-1,1742,890,0,0
525,134,0,0,0,0,0,0,0,0,0,-1,1749,890,0,0
532,134,0,0,0,0,0,0,0,0,0,-1,1756,890,0,0
539,134,0,0,0,0,0,0,0,0,0,-1,1763,890,0,0
546,134,0,0,0,0,0,0,0,0,0,-1,1770,890,0,0
553,134,0,0,0,0,0,0,0,0,0,-1,1777,890,0,0
560,134,0,0,0,0,0,0,0,0,0,-1,1784,890,0,0
567,134,0,0,0,0,0,0,0,0,0,-1,1791,890,0,0
574,134,0,0,0,0,0,0,0,0,0,-1,1798,890,0,0
581,134,0,0,0,0,0,0,0,0,0,-1,1805,890,0,0
588,134,0,0,0,0,0,0,0,0,0,-1,1812,890,0,0
595,134,0,0,0,0,0,0,0,0,0,-1,1819,890,0,0
602,134,0,0,0,0,0,0,0,0,0,-1,1826,890,0,0
609,134,0,0,0,0,0,0,0,0,0,-1,1833,890,0,0
616,134,0,0,0,0,0,0,0,0,0,-1,1840,890,0,0
623,134,20.8878,2.60449,0.000360529,0.00881059,0.00258326,0.00953774,-0.000366625,1.29641,0.00648416,0.0447161,1847,890,20.8879,-2.60447
630,134,20.7604,2.74329,-0.000482111,0.00670404,0.000843598,0.00680175,-0.000579814,1.45549,0.00473961,0.0463305,1854,890,20.7604,-2.7433
637,134,21.0177,3.02197,-0.000963337,0.00516986,-0.000270927,0.00518181,-0.000975281,-1.52674,0.00382134,0.0442835,1861,890,21.0177,-3.02197
644,134,21.1135,2.96368,-0.00145937,0.00391041,-0.000889837,0.00405403,-0.00160298,-1.41078,0.00336672,0.0392633,1868,890,21.1136,-2.96369
651,134,20.9255,2.8678,-0.00332785,0.00308944,-0.00140657,0.0033842,-0.0036226,-1.36423,0.00404616,0.0393082,1875,890,20.9256,-2.86778
658,134,20.8662,2.76898,-0.00557997,0.00249567,-0.00173393,0.00285222,-0.00593652,-1.36799,0.00517729,0.0373933,1882,890,20.8662,-2.76899
665,134,20.8302,2.71252,-0.00743605,0.00197129,-0.00187456,0.00233107,-0.00779583,-1.38118,0.00612396,0.0310037,1889,890,20.8302,-2.7125
672,134,20.8608,2.69385,-0.00892427,0.0015719,-0.00198619,0.00193518,-0.00928755,-1.3899,0.00692745,0.0228555,1896,890,20.8609,-2.69383
679,134,20.8467,2.68457,-0.00998999,0.00110423,-0.00203604,0.00146608,-0.0103518,-1.39491,0.00743824,0.0184174,1903,890,20.8467,-2.68458
686,134,20.4104,2.81537,0,0,0,0,0,0,0,-1,1910,890,20.4104,-2.8154
693,134,19.1229,2.85815,-0.0114495,0.000846839,-0.00196145,0.00115214,-0.0117548,-1.41639,0.00824746,0.0380876,1917,890,19.1229,-2.85814
700,134,18.2094,2.92432,-0.0113565,0.000753561,-0.00175033,0.00100147,-0.0116044,-1.4301,0.00809079,0.0211751,1924,890,18.2093,-2.92433
707,134,18.0972,3.00745,-0.0107484,0.000729428,-0.00153338,0.000930748,-0.0109497,-1.44025,0.007629,0.0198735,1931,890,18.0972,-3.00744
714,134,18.1558,3.25244,-0.00939222,0.000743206,-0.00138453,0.000928933,-0.00957794,-1.43745,0.00671639,0.0181411,1938,890,18.1558,-3.25242
721,134,18.2642,3.45898,-0.00704687,0.00091979,-0.00105568,0.00105731,-0.00718438,-1.44126,0.00517813,0.0152544,1945,890,18.2641,-3.45899
728,134,18.2914,3.61395,-0.00377944,0.00180866,-0.000391071,0.00183589,-0.00380668,-1.50127,0.00332331,0.0156675,1952,890,18.2914,-3.61396
735,134,18.3014,3.81122,0.000156225,0.00376525,-0.000417268,0.00381287,0.00010861,-1.45718,0.00250649,0.0209489,1959,890,18.3014,-3.81119
742,134,18.2638,3.97595,0.00442689,0.0063868,-0.000997777,0.00680537,0.00400832,-1.17359,0.00394977,0.0147025,1966,890,18.2638,-3.97594
749,134,18.2772,4.12036,0.00916124,0.0093577,-0.00132998,0.0105931,0.00792586,-0.82226,0.00636215,0.0126596,1973,890,18.2773,-4.12033
756,134,18.2632,4.28998,0.0136424,0.0134192,-0.00227319,0.0158067,0.0112549,-0.760868,0.00939557,0.0172972,1980,890,18.2632,-4.29001
763,134,18.2817,4.32965,0.0180854,0.0185286,-0.00390547,0.0222188,0.0143953,-0.813739,0.0130137,0.0366344,1987,890,18.2818,-4.32964
770,134,18.6569,4.16162,0.0228207,0.0248768,-0.00636778,0.030299,0.0173985,-0.865428,0.0175573,0.0430453,1994,890,18.6569,-4.16161
777,134,19.1077,3.93213,0.0280229,0.0325779,-0.00994872,0.0405065,0.0200943,-0.897922,0.0233867,0.0485236,2001,890,19.1077,-3.93214
784,134,19.2625,3.67816,0.0333789,0.0416908,-0.0150156,0.053115,0.0219547,-0.920405,0.0308191,0.047901,2008,890,19.2624,-3.67818
791,134,19.7354,3.47589,0.038511,0.0522704,-0.0220904,0.0685276,0.0222539,-0.936355,0.0403664,0.0446434,2015,890,19.7353,-3.47586
798,134,0,0,0,0,0,0,0,0,0,-1,2022,890,0,0
805,134,0,0,0,0,0,0,0,0,0,-1,2029,890,0,0
812,134,0,0,0,0,0,0,0,0,0,-1,2036,890,0,0
-700,127,0,0,0,0,0,0,0,0,0,-1,524,897,0,0
-693,127,0,0,0,0,0,0,0,0,0,-1,531,897,0,0
-686,127,0,0,0,0,0,0,0,0,0,-1,538,897,0,0
-679,127,-11.4789,-0.316101,0,0,0,0,0,0,0,-1,545,897,-11.4789,0.316108
-672,127,-11.798,-0.193481,-0.0225963,-0.0383671,0.017146,-0.0116093,-0.0493541,0.569871,0.0297966,0.0451113,552,897,-11.798,0.193509
-665,127,-12.0589,0.137573,-0.0163067,-0.0306729,0.0133401,-0.00833874,-0.0386409,0.538428,0.0234799,0.0453032,559,897,-12.0589,-0.137557
-658,127,-12.2619,0.28717,-0.0120551,-0.0235593,0.0107619,-0.00560448,-0.0300099,0.53997,0.0184248,0.0441794,566,897,-12.2619,-0.287145
-651,127,-12.3153,1.03485,-0.00910378,-0.0173711,0.00895485,-0.00337457,-0.0231003,0.569163,0.0144077,0.0405039,573,897,-12.3153,-1.03487
-644,127,-12.386,1.54663,-0.00703662,-0.0122364,0.00763476,-0.00157122,-0.0177018,0.621289,0.0113139,0.0434487,580,897,-12.386,-1.54662
-637,127,-11.7864,1.93286,0,0,0,0,0,0,0,-1,587,897,-11.7864,-1.93287
-630,127,-11.7586,1.8761,-0.0045736,-0.00513033,0.00568747,0.00084231,-0.0105462,0.760945,0.00732775,0.031248,594,897,-11.7586,-1.87611
-623,127,-11.7786,1.80072,-0.00388164,-0.00352143,0.00491516,0.00121692,-0.00861999,0.803711,0.00619229,0.0131181,601,897,-11.7786,-1.80072
-616,127,-11.8066,1.71985,-0.00322451,-0.00100441,0.00348867,0.00154656,-0.00577547,0.939427,0.00445621,0.00985543,608,897,-11.8066,-1.71983
-609,127,-11.8337,1.59131,-0.00441302,0.00021292,0.00359921,0.00217829,-0.00637839,1.07099,0.00513475,0.0127507,615,897,-11.8338,-1.59132
-602,127,-11.8452,1.4549,-0.0058385,0.000657599,0.00350277,0.0021865,-0.0073674,1.15924,0.00577997,0.0140566,622,897,-11.8452,-1.45489
-595,127,-11.8174,1.32904,-0.00726116,-4.64915e-05,0.00344684,0.00133552,-0.00864317,1.18947,0.00625499,0.0149786,629,897,-11.8174,-1.32902
-588,127,-11.8687,1.19849,-0.00856192,-0.000787206,0.00340874,0.000495643,-0.00984477,1.21085,0.00673448,0.0192255,636,897,-11.8686,-1.19846
-581,127,-11.8903,1.00513,-0.00987715,-0.00106335,0.00343208,0.000115437,-0.0110559,1.23996,0.00740941,0.0266539,643,897,-11.8902,-1.00513
-574,127,-11.8716,0.853149,-0.0112021,-0.00114229,0.00351237,-3.73274e-05,-0.0123071,1.26601,0.00819232,0.0256139,650,897,-11.8716,-0.853127
-567,127,-11.7982,0.65033,-0.0120312,-0.00117927,0.00349639,-0.000150325,-0.0130602,1.28459,0.0086571,0.044245,657,897,-11.7982,-0.650309
-560,127,-12.442,0.870728,-0.0124999,-0.00130865,0.00356925,-0.000267213,-0.0135414,1.2869,0.00893984,0.0446136,664,897,-12.442,-0.870708
-553,127,-13.3109,1.12762,0,0,0,0,0,0,0,-1,671,897,-13.3108,-1.12764
-546,127,-13.4368,0.863586,-0.012097,-0.00111143,0.00335744,-0.000166581,-0.0130418,1.29647,0.00863955,0.0239222,678,897,-13.4368,-0.863572
-539,127,-13.3872,0.857666,-0.0107192,-0.000792462,0.0028181,-4.82281e-05,-0.0114634,1.3126,0.00762626,0.0204869,685,897,-13.3872,-0.857677
-532,127,-13.4387,0.921692,-0.00832501,-0.000360811,0.00190142,6.98571e-05,-0.00875568,1.34806,0.00586054,0.0160545,692,897,-13.4387,-0.921675
-525,127,-13.5714,1.0238,-0.00470254,0.000141832,0.00051375,0.000195716,-0.00475642,1.46629,0.00323816,0.03046,699,897,-13.5714,-1.02381
-518,127,-13.6932,1.00592,0.000186755,0.000641117,-0.00141072,0.00184283,-0.00101496,-0.865232,0.00167287,0.0378676,706,897,-13.6932,-1.0059
-511,127,-13.568,0.818665,0.00504634,0.00102814,-0.00346138,0.00703944,-0.000964965,-0.522445,0.00504547,0.0433188,713,897,-13.568,-0.81865
-504,127,0,0,0,0,0,0,0,0,0,-1,720,897,0,0
-497,127,0,0,0,0,0,0,0,0,0,-1,727,897,0,0
-490,127,0,0,0,0,0,0,0,0,0,-1,734,897,0,0
-483,127,0,0,0,0,0,0,0,0,0,-1,741,897,0,0
-476,127,0,0,0,0,0,0,0,0,0,-1,748,897,0,0
-469,127,0,0,0,0,0,0,0,0,0,-1,755,897,0,0
-462,127,0,0,0,0,0,0,0,0,0,-1,762,897,0,0
-455,127,0,0,0,0,0,0,0,0,0,-1,769,897,0,0
-448,127,0,0,0,0,0,0,0,0,0,-1,776,897,0,0
-441,127,0,0,0,0,0,0,0,0,0,-1,783,897,0,0
-434,127,0,0,0,0,0,0,0,0,0,-1,790,897,0,0
-427,127,0,0,0,0,0,0,0,0,0,-1,797,897,0,0
-420,127,0,0,0,0,0,0,0,0,0,-1,804,897,0,0
-413,127,0,0,0,0,0,0,0,0,0,-1,811,897,0,0
-406,127,0,0,0,0,0,0,0,0,0,-1,818,897,0,0
-399,127,0,0,0,0,0,0,0,0,0,-1,825,897,0,0
-392,127,0,0,0,0,0,0,0,0,0,-1,832,897,0,0
-385,127,0,0,0,0,0,0,0,0,0,-1,839,897,0,0
-378,127,0,0,0,0,0,0,0,0,0,-1,846,897,0,0
-371,127,0,0,0,0,0,0,0,0,0,-1,853,897,0,0
-364,127,0,0,0,0,0,0,0,0,0,-1,860,897,0,0
-357,127,0,0,0,0,0,0,0,0,0,-1,867,897,0,0
-350,127,0,0,0,0,0,0,0,0,0,-1,874,897,0,0
-343,127,0,0,0,0,0,0,0,0,0,-1,881,897,0,0
-336,127,0,0,0,0,0,0,0,0,0,-1,888,897,0,0
-329,127,0,0,0,0,0,0,0,0,0,-1,895,897,0,0
-322,127,0,0,0,0,0,0,0,0,0,-1,902,897,0,0
-315,127,0,0,0,0,0,0,0,0,0,-1,909,897,0,0
-308,127,0,0,0,0,0,0,0,0,0,-1,916,897,0,0
-301,127,0,0,0,0,0,0,0,0,0,-1,923,897,0,0
-294,127,0,0,0,0,0,0,0,0,0,-1,930,897,0,0
-287,127,0,0,0,0,0,0,0,0,0,-1,937,897,0,0
-280,127,0,0,0,0,0,0,0,0,0,-1,944,897,0,0
-273,127,0,0,0,0,0,0,0,0,0,-1,951,897,0,0
-266,127,0,0,0,0,0,0,0,0,0,-1,958,897,0,0
-259,127,0,0,0,0,0,0,0,0,0,-1,965,897,0,0
-252,127,0,0,0,0,0,0,0,0,0,-1,972,897,0,0
-245,127,0,0,0,0,0,0,0,0,0,-1,979,897,0,0
-238,127,0,0,0,0,0,0,0,0,0,-1,986,897,0,0
-231,127,0,0,0,0,0,0,0,0,0,-1,993,897,0,0
-224,127,0,0,0,0,0,0,0,0,0,-1,1000,897,0,0
-217,127,0,0,0,0,0,0,0,0,0,-1,1007,897,0,0
-210,127,0,0,0,0,0,0,0,0,0,-1,1014,897,0,0
-203,127,0,0,0,0,0,0,0,0,0,-1,1021,897,0,0
-196,127,0,0,0,0,0,0,0,0,0,-1,1028,897,0,0
-189,127,0,0,0,0,0,0,0,0,0,-1,1035,897,0,0
-182,127,0,0,0,0,0,0,0,0,0,-1,1042,897,0,0
-175,127,0,0,0,0,0,0,0,0,0,-1,1049,897,0,0
-168,127,0,0,0,0,0,0,0,0,0,-1,1056,897,0,0
-161,127,0,0,0,0,0,0,0,0,0,-1,1063,897,0,0
-154,127,0,0,0,0,0,0,0,0,0,-1,1070,897,0,0
-147,127,0,0,0,0,0,0,0,0,0,-1,1077,897,0,0
-140,127,0,0,0,0,0,0,0,0,0,-1,1084,897,0,0
-133,127,0,0,0,0,0,0,0,0,0,-1,1091,897,0,0
-126,127,0,0,0,0,0,0,0,0,0,-1,1098,897,0,0
-119,127,0,0,0,0,0,0,0,0,0,-1,1105,897,0,0
-112,127,0,0,0,0,0,0,0,0,0,-1,1112,897,0,0
-105,127,0,0,0,0,0,0,0,0,0,-1,1119,897,0,0
-98,127,0,0,0,0,0,0,0,0,0,-1,1126,897,0,0
-91,127,0,0,0,0,0,0,0,0,0,-1,1133,897,0,0
-84,127,0,0,0,0,0,0,0,0,0,-1,1140,897,0,0
-77,127,0,0,0,0,0,0,0,0,0,-1,1147,897,0,0
-70,127,0,0,0,0,0,0,0,0,0,-1,1154,897,0,0
-63,127,0,0,0,0,0,0,0,0,0,-1,1161,897,0,0
-56,127,0,0,0,0,0,0,0,0,0,-1,1168,897,0,0
-49,127,0,0,0,0,0,0,0,0,0,-1,1175,897,0,0
-42,127,0,0,0,0,0,0,0,0,0,-1,1182,897,0,0
-35,127,0,0,0,0,0,0,0,0,0,-1,1189,897,0,0
-28,127,0,0,0,0,0,0,0,0,0,-1,1196,897,0,0
-21,127,0,0,0,0,0,0,0,0,0,-1,1203,897,0,0
-14,127,0,0,0,0,0,0,0,0,0,-1,1210,897,0,0
-7,127,0,0,0,0,0,0,0,0,0,-1,1217,897,0,0
0,127,0,0,0,0,0,0,0,0,0,-1,1224,897,0,0
7,127,0,0,0,0,0,0,0,0,0,-1,1231,897,0,0
14,127,0,0,0,0,0,0,0,0,0,-1,1238,897,0,0
21,127,0,0,0,0,0,0,0,0,0,-1,1245,897,0,0
28,127,0,0,0,0,0,0,0,0,0,-1,1252,897,0,0
35,127,0,0,0,0,0,0,0,0,0,-1,1259,897,0,0
42,127,0,0,0,0,0,0,0,0,0,-1,1266,897,0,0
49,127,0,0,0,0,0,0,0,0,0,-1,1273,897,0,0
56,127,0,0,0,0,0,0,0,0,0,-1,1280,897,0,0
63,127,0,0,0,0,0,0,0,0,0,-1,1287,897,0,0
70,127,0,0,0,0,0,0,0,0,0,-1,1294,897,0,0
77,127,0,0,0,0,0,0,0,0,0,-1,1301,897,0,0
84,127,0,0,0,0,0,0,0,0,0,-1,1308,897,0,0
91,127,0,0,0,0,0,0,0,0,0,-1,1315,897,0,0
98,127,0,0,0,0,0,0,0,0,0,-1,1322,897,0,0
105,127,0,0,0,0,0,0,0,0,0,-1,1329,897,0,0
112,127,0,0,0,0,0,0,0,0,0,-1,1336,897,0,0
119,127,0,0,0,0,0,0,0,0,0,-1,1343,897,0,0
126,127,0,0,0,0,0,0,0,0,0,-1,1350,897,0,0
133,127,0,0,0,0,0,0,0,0,0,-1,1357,897,0,0
140,127,0,0,0,0,0,0,0,0,0,-1,1364,897,0,0
147,127,0,0,0,0,0,0,0,0,0,-1,1371,897,0,0
154,127,0,0,0,0,0,0,0,0,0,-1,1378,897,0,0
161,127,0,0,0,0,0,0,0,0,0,-1,1385,897,0,0
168,127,0,0,0,0,0,0,0,0,0,-1,1392,897,0,0
175,127,0,0,0,0,0,0,0,0,0,-1,1399,897,0,0
182,127,0,0,0,0,0,0,0,0,0,-1,1406,897,0,0
189,127,0,0,0,0,0,0,0,0,0,-1,1413,897,0,0
196,127,0,0,0,0,0,0,0,0,0,-1,1420,897,0,0
203,127,0,0,0,0,0,0,0,0,0,-1,1427,897,0,0
210,127,0,0,0,0,0,0,0,0,0,-1,1434,897,0,0
217,127,0,0,0,0,0,0,0,0,0,-1,1441,897,0,0
224,127,0,0,0,0,0,0,0,0,0,-1,1448,897,0,0
231,127,0,0,0,0,0,0,0,0,0,-1,1455,897,0,0
238,127,0,0,0,0,0,0,0,0,0,-1,1462,897,0,0
245,127,0,0,0,0,0,0,0,0,0,-1,1469,897,0,0
252,127,0,0,0,0,0,0,0,0,0,-1,1476,897,0,0
259,127,0,0,0,0,0,0,0,0,0,-1,1483,897,0,0
266,127,0,0,0,0,0,0,0,0,0,-1,1490,897,0,0
273,127,0,0,0,0,0,0,0,0,0,-1,1497,897,0,0
280,127,0,0,0,0,0,0,0,0,0,-1,1504,897,0,0
287,127,0,0,0,0,0,0,0,0,0,-1,1511,897,0,0
294,127,0,0,0,0,0,0,0,0,0,-1,1518,897,0,0
301,127,0,0,0,0,0,0,0,0,0,-1,1525,897,0,0
308,127,0,0,0,0,0,0,0,0,0,-1,1532,897,0,0
315,127,0,0,0,0,0,0,0,0,0,-1,1539,897,0,0
322,127,0,0,0,0,0,0,0,0,0,-1,1546,897,0,0
329,127,0,0,0,0,0,0,0,0,0,-1,1553,897,0,0
336,127,0,0,0,0,0,0,0,0,0,-1,1560,897,0,0
343,127,0,0,0,0,0,0,0,0,0,-1,1567,897,0,0
350,127,0,0,0,0,0,0,0,0,0,-1,1574,897,0,0
357,127,0,0,0,0,0,0,0,0,0,-1,1581,897,0,0
364,127,0,0,0,0,0,0,0,0,0,-1,1588,897,0,0
371,127,0,0,0,0,0,0,0,0,0,-1,1595,897,0,0
378,127,0,0,0,0,0,0,0,0,0,-1,1602,897,0,0
385,127,0,0,0,0,0,0,0,0,0,-1,1609,897,0,0
392,127,0,0,0,0,0,0,0,0,0,-1,1616,897,0,0
399,127,0,0,0,0,0,0,0,0,0,-1,1623,897,0,0
406,127,0,0,0,0,0,0,0,0,0,-1,1630,897,0,0
413,127,0,0,0,0,0,0,0,0,0,-1,1637,897,0,0
420,127,0,0,0,0,0,0,0,0,0,-1,1644,897,0,0
427,127,0,0,0,0,0,0,0,0,0,-1,1651,897,0,0
434,127,0,0,0,0,0,0,0,0,0,-1,1658,897,0,0
441,127,0,0,0,0,0,0,0,0,0,-1,1665,897,0,0
448,127,0,0,0,0,0,0,0,0,0,-1,1672,897,0,0
455,127,0,0,0,0,0,0,0,0,0,-1,1679,897,0,0
462,127,0,0,0,0,0,0,0,0,0,-1,1686,897,0,0
469,127,0,0,0,0,0,0,0,0,0,-1,1693,897,0,0
476,127,0,0,0,0,0,0,0,0,0,-1,1700,897,0,0
483,127,0,0,0,0,0,0,0,0,0,-1,1707,897,0,0
490,127,0,0,0,0,0,0,0,0,0,-1,1714,897,0,0
497,127,0,0,0,0,0,0,0,0,0,-1,1721,897,0,0
504,127,0,0,0,0,0,0,0,0,0,-1,1728,897,0,0
511,127,0,0,0,0,0,0,0,0,0,-1,1735,897,0,0
518,127,0,0,0,0,0,0,0,0,0,-1,1742,897,0,0
525,127,0,0,0,0,0,0,0,0,0,-1,1749,897,0,0
532,127,0,0,0,0,0,0,0,0,0,-1,1756,897,0,0
539,127,0,0,0,0,0,0,0,0,0,-1,1763,897,0,0
546,127,0,0,0,0,0,0,0,0,0,-1,1770,897,0,0
553,127,0,0,0,0,0,0,0,0,0,-1,1777,897,0,0
560,127,0,0,0,0,0,0,0,0,0,-1,1784,897,0,0
567,127,0,0,0,0,0,0,0,0,0,-1,1791,897,0,0
574,127,0,0,0,0,0,0,0,0,0,-1,1798,897,0,0
581,127,0,0,0,0,0,0,0,0,0,-1,1805,897,0,0
588,127,0,0,0,0,0,0,0,0,0,-1,1812,897,0,0
595,127,0,0,0,0,0,0,0,0,0,-1,1819,897,0,0
602,127,0,0,0,0,0,0,0,0,0,-1,1826,897,0,0
609,127,0,0,0,0,0,0,0,0,0,-1,1833,897,0,0
616,127,0,0,0,0,0,0,0,0,0,-1,1840,897,0,0
623,127,0,0,0,0,0,0,0,0,0,-1,1847,897,0,0
630,127,20.8416,3.1355,0,0,0,0,0,0,0,-1,1854,897,20.8416,-3.13548
637,127,21.071,3.15259,-0.00100024,0.00524721,-0.000216274,0.00525469,-0.00100771,-1.53623,0.00388286,0.0443693,1861,897,21.0711,-3.15258
644,127,21.0023,3.05585,-0.00134564,0.00410133,-0.000774141,0.00420921,-0.00145352,-1.43233,0.00339597,0.0425933,1868,897,21.0023,-3.05587
651,127,20.8186,2.92407,-0.00329593,0.00336517,-0.0012878,0.00360547,-0.00353624,-1.38632,0.00412333,0.0434073,1875,897,20.8186,-2.92405
658,127,20.6807,2.87573,-0.00592211,0.00282026,-0.00164857,0.0031208,-0.00622265,-1.39047,0.00549264,0.0408787,1882,897,20.6807,-2.87573
665,127,20.769,2.60132,-0.00824286,0.00232891,-0.00182966,0.00263661,-0.00855056,-1.40418,0.00675305,0.0366802,1889,897,20.7691,-2.60133
672,127,20.8507,2.52789,-0.010061,0.00192535,-0.00195865,0.00223728,-0.0103729,-1.41286,0.00776917,0.0324794,1896,897,20.8508,-2.52792
679,127,20.8514,2.6239,-0.0113669,0.00145377,-0.00202396,0.0017657,-0.0116788,-1.41788,0.00843627,0.0251155,1903,897,20.8515,-2.62393
686,127,20.7703,2.68164,0,0,0,0,0,0,0,-1,1910,897,20.7702,-2.68165
693,127,19.5107,2.82184,-0.0130741,0.00112713,-0.00201446,0.00140735,-0.0133543,-1.43258,0.00940715,0.03875,1917,897,19.5107,-2.82184
700,127,18.408,2.97211,-0.0130082,0.00098474,-0.00182486,0.00121881,-0.0132423,-1.44323,0.00926123,0.0278646,1924,897,18.4079,-2.9721
707,127,18.252,3.06042,-0.0123724,0.000911665,-0.00163309,0.00110948,-0.0125703,-1.45025,0.00877342,0.0248577,1931,897,18.252,-3.06043
714,127,18.3203,3.25726,-0.0109674,0.000870687,-0.00151107,0.00106052,-0.0111572,-1.44582,0.00781566,0.0199232,1938,897,18.3203,-3.25727
721,127,18.4788,3.50677,-0.00861046,0.00101855,-0.00127233,0.00118383,-0.00877575,-1.44161,0.0062824,0.0145878,1945,897,18.4787,-3.50679
728,127,18.4568,3.62415,-0.00536629,0.00185658,-0.000731869,0.00192999,-0.0054397,-1.47082,0.0044128,0.0148231,1952,897,18.4568,-3.62415
735,127,18.4681,3.79852,-0.00165292,0.00380027,-0.000924509,0.00395274,-0.00180539,-1.40734,0.00340064,0.02104,1959,897,18.4682,-3.79853
742,127,18.4569,3.95734,0.0022271,0.00656201,-0.00168975,0.00714285,0.00164626,-1.23971,0.00431903,0.018402,1966,897,18.4569,-3.95734
749,127,18.4353,4.10864,0.00640638,0.00975386,-0.00225111,0.0108853,0.00527496,-1.10507,0.00628561,0.0131775,1973,897,18.4353,-4.10865
756,127,18.4205,4.25,0.00994372,0.0143175,-0.00356159,0.01631,0.0079512,-1.06073,0.00941756,0.0155524,1980,897,18.4206,-4.24999
763,127,18.351,4.30176,0,0,0,0,0,0,0,-1,1987,897,18.3509,-4.30174
770,127,19.0356,4.138,0,0,0,0,0,0,0,-1,1994,897,19.0356,-4.13802
777,127,19.7203,3.9743,0,0,0,0,0,0,0,-1,2001,897,19.7203,-3.97431
784,127,19.2651,3.50275,0.0202419,0.0467545,-0.0179956,0.0558493,0.0111471,-1.10285,0.0341294,0.0479112,2008,897,19.2651,-3.50276
791,127,19.4004,3.39368,0.0212807,0.0593732,-0.0252418,0.0719483,0.00870563,-1.1086,0.0453431,0.045204,2015,897,19.4004,-3.3937
798,127,0,0,0,0,0,0,0,0,0,-1,2022,897,0,0
805,127,0,0,0,0,0,0,0,0,0,-1,2029,897,0,0
812,127,0,0,0,0,0,0,0,0,0,-1,2036,897,0,0
-700,120,0,0,0,0,0,0,0,0,0,-1,524,904,0,0
-693,120,0,0,0,0,0,0,0,0,0,-1,531,904,0,0
-686,120,0,0,0,0,0,0,0,0,0,-1,538,904,0,0
-679,120,-12.8342,1.01312,0,0,0,0,0,0,0,-1,545,904,-12.8341,-1.01314
-672,120,-11.5131,0.713562,0,0,0,0,0,0,0,-1,552,904,-11.5131,-0.713561
-665,120,-11.6317,0.829956,-0.0108362,-0.0382873,0.012761,-0.00582053,-0.043303,0.374499,0.0271374,0.042409,559,904,-11.6317,-0.829965
-658,120,-11.7665,0.935181,-0.00816041,-0.0309741,0.0108031,-0.00385667,-0.0352779,0.37911,0.0223442,0.0431645,566,904,-11.7665,-0.935192
-651,120,-12.0435,1.21448,-0.00626639,-0.0240487,0.00924506,-0.00233087,-0.0279842,0.402455,0.0179298,0.0437416,573,904,-12.0435,-1.2145
-644,120,-12.2332,1.65015,-0.00492261,-0.0179126,0.00795597,-0.00114715,-0.0216881,0.443077,0.0140919,0.0424306,580,904,-12.2332,-1.65015
-637,120,-12.1743,1.89484,-0.00399473,-0.0127684,0.00683474,-0.000260123,-0.016503,0.500087,0.0109164,0.0379563,587,904,-12.1742,-1.89486
-630,120,-11.9396,1.90076,-0.00332439,-0.00869235,0.00579482,0.000377843,-0.0123946,0.568523,0.00839184,0.021309,594,904,-11.9396,-1.90073
-623,120,-11.9514,1.80353,-0.00299069,-0.00624041,0.00491081,0.000557093,-0.00978819,0.62563,0.00671886,0.0101225,601,904,-11.9513,-1.8035
-616,120,-11.9366,1.68872,-0.00286124,-0.00311921,0.00354782,0.000559936,-0.00654039,0.767228,0.00455839,0.00955817,608,904,-11.9367,-1.68872
-609,120,-11.9629,1.58057,-0.00435944,-0.00115148,0.00352432,0.00111669,-0.00662761,0.998949,0.00483383,0.0131346,615,904,-11.9629,-1.58059
-602,120,-11.9873,1.46313,-0.005941,-0.000119481,0.00328891,0.00136173,-0.00742222,1.14764,0.00545897,0.0136449,622,904,-11.9873,-1.46313
-595,120,-11.9662,1.3407,-0.00739306,-0.000341577,0.00309967,0.000827231,-0.00856186,1.21021,0.00600268,0.0181166,629,904,-11.9662,-1.34067
-588,120,-11.9619,1.19537,-0.00862928,-0.000739582,0.00296429,0.000250025,-0.00961889,1.24859,0.00649754,0.0224914,636,904,-11.9619,-1.19534
-581,120,-12.053,1.0675,-0.00988059,-0.000947543,0.00296294,-5.41345e-05,-0.010774,1.27794,0.00716469,0.0269911,643,904,-12.053,-1.06752
-574,120,-11.9761,0.866516,-0.0111053,-0.000988672,0.00303347,-0.000148807,-0.0119451,1.3007,0.00791429,0.0225856,650,904,-11.9761,-0.866495
-567,120,-12.113,0.746521,-0.011846,-0.000979775,0.00302616,-0.000193855,-0.0126319,1.3167,0.00835739,0.0481551,657,904,-12.113,-0.746507
-560,120,-12.9272,0.642822,0,0,0,0,0,0,0,-1,664,904,-12.9272,-0.642847
-553,120,-13.4793,0.92041,-0.0120104,-0.000988924,0.00306556,-0.000193637,-0.0128057,1.31697,0.0084733,0.0372332,671,904,-13.4793,-0.920417
-546,120,-13.4465,0.871887,-0.0112254,-0.000749569,0.00284464,-2.6972e-05,-0.011948,1.32204,0.00795637,0.031375,678,904,-13.4465,-0.871884
-539,120,-13.3775,0.872375,-0.00954327,-0.000369279,0.00234067,0.00019341,-0.010106,1.33488,0.00680269,0.0244608,685,904,-13.3775,-0.872349
-532,120,-13.3048,0.876587,-0.00686474,0.000136362,0.00150364,0.000445639,-0.00717402,1.36794,0.00493793,0.0254395,692,904,-13.3048,-0.876588
-525,120,-13.5532,1.06879,-0.00299926,0.000739659,0.000235781,0.000754469,-0.00301407,1.50807,0.00230245,0.0326555,699,904,-13.5532,-1.06879
-518,120,-13.8868,1.26288,0,0,0,0,0,0,0,-1,706,904,-13.8868,-1.26289
-511,120,-13.7715,1.24518,0,0,0,0,0,0,0,-1,713,904,-13.7715,-1.24517
-504,120,0,0,0,0,0,0,0,0,0,-1,720,904,0,0
-497,120,0,0,0,0,0,0,0,0,0,-1,727,904,0,0
-490,120,0,0,0,0,0,0,0,0,0,-1,734,904,0,0
-483,120,0,0,0,0,0,0,0,0,0,-1,741,904,0,0
-476,120,0,0,0,0,0,0,0,0,0,-1,748,904,0,0
-469,120,0,0,0,0,0,0,0,0,0,-1,755,904,0,0
-462,120,0,0,0,0,0,0,0,0,0,-1,762,904,0,0
-455,120,0,0,0,0,0,0,0,0,0,-1,769,904,0,0
-448,120,0,0,0,0,0,0,0,0,0,-1,776,904,0,0
-441,120,0,0,0,0,0,0,0,0,0,-1,783,904,0,0
-434,120,0,0,0,0,0,0,0,0,0,-1,790,904,0,0
-427,120,0,0,0,0,0,0,0,0,0,-1,797,904,0,0
-420,120,0,0,0,0,0,0,0,0,0,-1,804,904,0,0
-413,120,0,0,0,0,0,0,0,0,0,-1,811,904,0,0
-406,120,0,0,0,0,0,0,0,0,0,-1,818,904,0,0
-399,120,0,0,0,0,0,0,0,0,0,-1,825,904,0,0
-392,120,0,0,0,0,0,0,0,0,0,-1,832,904,0,0
-385,120,0,0,0,0,0,0,0,0,0,-1,839,904,0,0
-378,120,0,0,0,0,0,0,0,0,0,-1,846,904,0,0
-371,120,0,0,0,0,0,0,0,0,0,-1,853,904,0,0
-364,120,0,0,0,0,0,0,0,0,0,-1,860,904,0,0
-357,120,0,0,0,0,0,0,0,0,0,-1,867,904,0,0
-350,120,0,0,0,0,0,0,0,0,0,-1,874,904,0,0
-343,120,0,0,0,0,0,0,0,0,0,-1,881,904,0,0
-336,120,0,0,0,0,0,0,0,0,0,-1,888,904,0,0
-329,120,0,0,0,0,0,0,0,0,0,-1,895,904,0,0
-322,120,0,0,0,0,0,0,0,0,0,-1,902,904,0,0
-315,120,0,0,0,0,0,0,0,0,0,-1,909,904,0,0
-308,120,0,0,0,0,0,0,0,0,0,-1,916,904,0,0
-301,120,0,0,0,0,0,0,0,0,0,-1,923,904,0,0
-294,120,0,0,0,0,0,0,0,0,0,-1,930,904,0,0
-287,120,0,0,0,0,0,0,0,0,0,-1,937,904,0,0
-280,120,0,0,0,0,0,0,0,0,0,-1,944,904,0,0
-273,120,0,0,0,0,0,0,0,0,0,-1,951,904,0,0
-266,120,0,0,0,0,0,0,0,0,0,-1,958,904,0,0
-259,120,0,0,0,0,0,0,0,0,0,-1,965,904,0,0
-252,120,0,0,0,0,0,0,0,0,0,-1,972,904,0,0
-245,120,0,0,0,0,0,0,0,0,0,-1,979,904,0,0
-238,120,0,0,0,0,0,0,0,0,0,-1,986,904,0,0
-231,120,0,0,0,0,0,0,0,0,0,-1,993,904,0,0
-224,120,0,0,0,0,0,0,0,0,0,-1,1000,904,0,0
-217,120,0,0,0,0,0,0,0,0,0,-1,1007,904,0,0
-210,120,0,0,0,0,0,0,0,0,0,-1,1014,904,0,0
-203,120,0,0,0,0,0,0,0,0,0,-1,1021,904,0,0
-196,120,0,0,0,0,0,0,0,0,0,-1,1028,904,0,0
-189,120,0,0,0,0,0,0,0,0,0,-1,1035,904,0,0
-182,120,0,0,0,0,0,0,0,0,0,-1,1042,904,0,0
-175,120,0,0,0,0,0,0,0,0,0,-1,1049,904,0,0
-168,120,0,0,0,0,0,0,0,0,0,-1,1056,904,0,0
-161,120,0,0,0,0,0,0,0,0,0,-1,1063,904,0,0
-154,120,0,0,0,0,0,0,0,0,0,-1,1070,904,0,0
-147,120,0,0,0,0,0,0,0,0,0,-1,1077,904,0,0
-140,120,0,0,0,0,0,0,0,0,0,-1,1084,904,0,0
-133,120,0,0,0,0,0,0,0,0,0,-1,1091,904,0,0
-126,120,0,0,0,0,0,0,0,0,0,-1,1098,904,0,0
-119,120,0,0,0,0,0,0,0,0,0,-1,1105,904,0,0
-112,120,0,0,0,0,0,0,0,0,0,-1,1112,904,0,0
-105,120,0,0,0,0,0,0,0,0,0,-1,1119,904,0,0
-98,120,0,0,0,0,0,0,0,0,0,-1,1126,904,0,0
-91,120,0,0,0,0,0,0,0,0,0,-1,1133,904,0,0
-84,120,0,0,0,0,0,0,0,0,0,-1,1140,904,0,0
-77,120,0,0,0,0,0,0,0,0,0,-1,1147,904,0,0
-70,120,0,0,0,0,0,0,0,0,0,-1,1154,904,0,0
-63,120,0,0,0,0,0,0,0,0,0,-1,1161,904,0,0
-56,120,0,0,0,0,0,0,0,0,0,-1,1168,904,0,0
-49,120,0,0,0,0,0,0,0,0,0,-1,1175,904,0,0
-42,120,0,0,0,0,0,0,0,0,0,-1,1182,904,0,0
-35,120,0,0,0,0,0,0,0,0,0,-1,1189,904,0,0
-28,120,0,0,0,0,0,0,0,0,0,-1,1196,904,0,0
-21,120,0,0,0,0,0,0,0,0,0,-1,1203,904,0,0
-14,120,0,0,0,0,0,0,0,0,0,-1,1210,904,0,0
-7,120,0,0,0,0,0,0,0,0,0,-1,1217,904,0,0
0,120,0,0,0,0,0,0,0,0,0,-1,1224,904,0,0
7,120,0,0,0,0,0,0,0,0,0,-1,1231,904,0,0
14,120,0,0,0,0,0,0,0,0,0,-1,1238,904,0,0
21,120,0,0,0,0,0,0,0,0,0,-1,1245,904,0,0
28,120,0,0,0,0,0,0,0,0,0,-1,1252,904,0,0
35,120,0,0,0,0,0,0,0,0,0,-1,1259,904,0,0
42,120,0,0,0,0,0,0,0,0,0,-1,1266,904,0,0
49,120,0,0,0,0,0,0,0,0,0,-1,1273,904,0,0
56,120,0,0,0,0,0,0,0,0,0,-1,1280,904,0,0
63,120,0,0,0,0,0,0,0,0,0,-1,1287,904,0,0
70,120,0,0,0,0,0,0,0,0,0,-1,1294,904,0,0
77,120,0,0,0,0,0,0,0,0,0,-1,1301,904,0,0
84,120,0,0,0,0,0,0,0,0,0,-1,1308,904,0,0
91,120,0,0,0,0,0,0,0,0,0,-1,1315,904,0,0
98,120,0,0,0,0,0,0,0,0,0,-1,1322,904,0,0
105,120,0,0,0,0,0,0,0,0,0,-1,1329,904,0,0
112,120,0,0,0,0,0,0,0,0,0,-1,1336,904,0,0
119,120,0,0,0,0,0,0,0,0,0,-1,1343,904,0,0
126,120,0,0,0,0,0,0,0,0,0,-1,1350,904,0,0
133,120,0,0,0,0,0,0,0,0,0,-1,1357,904,0,0
140,120,0,0,0,0,0,0,0,0,0,-1,1364,904,0,0
147,120,0,0,0,0,0,0,0,0,0,-1,1371,904,0,0
154,120,0,0,0,0,0,0,0,0,0,-1,1378,904,0,0
161,120,0,0,0,0,0,0,0,0,0,-1,1385,904,0,0
168,120,0,0,0,0,0,0,0,0,0,-1,1392,904,0,0
175,120,0,0,0,0,0,0,0,0,0,-1,1399,904,0,0
182,120,0,0,0,0,0,0,0,0,0,-1,1406,904,0,0
189,120,0,0,0,0,0,0,0,0,0,-1,1413,904,0,0
196,120,0,0,0,0,0,0,0,0,0,-1,1420,904,0,0
203,120,0,0,0,0,0,0,0,0,0,-1,1427,904,0,0
210,120,0,0,0,0,0,0,0,0,0,-1,1434,904,0,0
217,120,0,0,0,0,0,0,0,0,0,-1,1441,904,0,0
224,120,0,0,0,0,0,0,0,0,0,-1,1448,904,0,0
231,120,0,0,0,0,0,0,0,0,0,-1,1455,904,0,0
238,120,0,0,0,0,0,0,0,0,0,-1,1462,904,0,0
245,120,0,0,0,0,0,0,0,0,0,-1,1469,904,0,0
252,120,0,0,0,0,0,0,0,0,0,-1,1476,904,0,0
259,120,0,0,0,0,0,0,0,0,0,-1,1483,904,0,0
266,120,0,0,0,0,0,0,0,0,0,-1,1490,904,0,0
273,120,0,0,0,0,0,0,0,0,0,-1,1497,904,0,0
280,120,0,0,0,0,0,0,0,0,0,-1,1504,904,0,0
287,120,0,0,0,0,0,0,0,0,0,-1,1511,904,0,0
294,120,0,0,0,0,0,0,0,0,0,-1,1518,904,0,0
301,120,0,0,0,0,0,0,0,0,0,-1,1525,904,0,0
308,120,0,0,0,0,0,0,0,0,0,-1,1532,904,0,0
315,120,0,0,0,0,0,0,0,0,0,-1,1539,904,0,0
322,120,0,0,0,0,0,0,0,0,0,-1,1546,904,0,0
329,120,0,0,0,0,0,0,0,0,0,-1,1553,904,0,0
336,120,0,0,0,0,0,0,0,0,0,-1,1560,904,0,0
343,120,0,0,0,0,0,0,0,0,0,-1,1567,904,0,0
350,120,0,0,0,0,0,0,0,0,0,-1,1574,904,0,0
357,120,0,0,0,0,0,0,0,0,0,-1,1581,904,0,0
364,120,0,0,0,0,0,0,0,0,0,-1,1588,904,0,0
371,120,0,0,0,0,0,0,0,0,0,-1,1595,904,0,0
378,120,0,0,0,0,0,0,0,0,0,-1,1602,904,0,0
385,120,0,0,0,0,0,0,0,0,0,-1,1609,904,0,0
392,120,0,0,0,0,0,0,0,0,0,-1,1616,904,0,0
399,120,0,0,0,0,0,0,0,0,0,-1,1623,904,0,0
406,120,0,0,0,0,0,0,0,0,0,-1,1630,904,0,0
413,120,0,0,0,0,0,0,0,0,0,-1,1637,904,0,0
420,120,0,0,0,0,0,0,0,0,0,-1,1644,904,0,0
427,120,0,0,0,0,0,0,0,0,0,-1,1651,904,0,0
434,120,0,0,0,0,0,0,0,0,0,-1,1658,904,0,0
441,120,0,0,0,0,0,0,0,0,0,-1,1665,904,0,0
448,120,0,0,0,0,0,0,0,0,0,-1,1672,904,0,0
455,120,0,0,0,0,0,0,0,0,0,-1,1679,904,0,0
462,120,0,0,0,0,0,0,0,0,0,-1,1686,904,0,0
469,120,0,0,0,0,0,0,0,0,0,-1,1693,904,0,0
476,120,0,0,0,0,0,0,0,0,0,-1,1700,904,0,0
483,120,0,0,0,0,0,0,0,0,0,-1,1707,904,0,0
490,120,0,0,0,0,0,0,0,0,0,-1,1714,904,0,0
497,120,0,0,0,0,0,0,0,0,0,-1,1721,904,0,0
504,120,0,0,0,0,0,0,0,0,0,-1,1728,904,0,0
511,120,0,0,0,0,0,0,0,0,0,-1,1735,904,0,0
518,120,0,0,0,0,0,0,0,0,0,-1,1742,904,0,0
525,120,0,0,0,0,0,0,0,0,0,-1,1749,904,0,0
532,120,0,0,0,0,0,0,0,0,0,-1,1756,904,0,0
539,120,0,0,0,0,0,0,0,0,0,-1,1763,904,0,0
546,120,0,0,0,0,0,0,0,0,0,-1,1770,904,0,0
553,120,0,0,0,0,0,0,0,0,0,-1,1777,904,0,0
560,120,0,0,0,0,0,0,0,0,0,-1,1784,904,0,0
567,120,0,0,0,0,0,0,0,0,0,-1,1791,904,0,0
574,120,0,0,0,0,0,0,0,0,0,-1,1798,904,0,0
581,120,0,0,0,0,0,0,0,0,0,-1,1805,904,0,0
588,120,0,0,0,0,0,0,0,0,0,-1,1812,904,0,0
595,120,0,0,0,0,0,0,0,0,0,-1,1819,904,0,0
602,120,0,0,0,0,0,0,0,0,0,-1,1826,904,0,0
609,120,0,0,0,0,0,0,0,0,0,-1,1833,904,0,0
616,120,0,0,0,0,0,0,0,0,0,-1,1840,904,0,0
623,120,0,0,0,0,0,0,0,0,0,-1,1847,904,0,0
630,120,20.9927,3.29901,0,0,0,0,0,0,0,-1,1854,904,20.9927,-3.29901
637,120,21.1226,3.22357,-0.000619019,0.00479457,-0.000215312,0.00480312,-0.000627569,-1.53111,0.00343046,0.0461825,1861,904,21.1225,-3.22357
644,120,21.0177,3.10718,-0.000856712,0.00396875,-0.000663122,0.00405822,-0.000946181,-1.43669,0.00306987,0.044719,1868,904,21.0176,-3.10715
651,120,20.8324,2.98962,-0.00279498,0.00344069,-0.00113682,0.00364148,-0.00299576,-1.39598,0.00383805,0.0439764,1875,904,20.8324,-2.98964
658,120,20.73,2.94244,-0.00568835,0.00302438,-0.00149742,0.00327455,-0.00593852,-1.40526,0.00539278,0.0418092,1882,904,20.73,-2.94242
665,120,20.7805,3.14673,0,0,0,0,0,0,0,-1,1889,904,20.7805,-3.14672
672,120,20.8553,2.60486,-0.0106132,0.00223914,-0.00184131,0.00249774,-0.0108718,-1.43127,0.00820811,0.0350181,1896,904,20.8553,-2.60485
679,120,20.8021,2.60211,-0.0122206,0.00178585,-0.00192004,0.00204428,-0.012479,-1.437,0.00907782,0.0306542,1903,904,20.8022,-2.6021
686,120,20.7942,2.71265,-0.0134986,0.00156516,-0.00204386,0.00183755,-0.0137709,-1.43831,0.00985044,0.0191804,1910,904,20.7942,-2.71266
693,120,20.129,2.86658,-0.0142398,0.00138274,-0.001956,0.00162391,-0.014481,-1.44811,0.0102383,0.0436156,1917,904,20.129,-2.8666
700,120,18.9862,2.9693,-0.0142588,0.00117843,-0.0017759,0.0013801,-0.0144605,-1.45772,0.0101317,0.0322754,1924,904,18.9861,-2.96928
707,120,18.5045,3.19086,-0.0136744,0.00101873,-0.001602,0.00119137,-0.013847,-1.46345,0.00965301,0.0209472,1931,904,18.5046,-3.19083
714,120,18.6099,3.3786,-0.012312,0.000906564,-0.00150356,0.00107543,-0.0124808,-1.45895,0.00870121,0.0171937,1938,904,18.6098,-3.3786
721,120,18.6377,3.5141,-0.0100268,0.00100017,-0.00133927,0.0011605,-0.0101871,-1.45165,0.00720946,0.0135105,1945,904,18.6377,-3.5141
728,120,18.636,3.67163,-0.00689693,0.00171726,-0.000900612,0.00181042,-0.00699009,-1.46773,0.00536631,0.00996033,1952,904,18.6359,-3.67163
735,120,18.6029,3.80859,-0.00350228,0.00352767,-0.00121074,0.00373035,-0.00370496,-1.40493,0.00429279,0.0122627,1959,904,18.6029,-3.80857
742,120,18.5991,3.95728,-8.26953e-05,0.00628002,-0.00208774,0.00690388,-0.000706557,-1.28042,0.00485527,0.0133101,1966,904,18.5992,-3.95725
749,120,18.6121,4.09253,0.00358685,0.00945109,-0.00278825,0.0105652,0.00247278,-1.19067,0.00638094,0.0105701,1973,904,18.612,-4.09252
756,120,18.6044,4.21246,0.00642132,0.0141253,-0.00430496,0.01605,0.00449659,-1.15036,0.00956038,0.0122876,1980,904,18.6044,-4.21245
763,120,18.4783,4.42548,0,0,0,0,0,0,0,-1,1987,904,18.4783,-4.42546
770,120,19.1855,4.22668,0,0,0,0,0,0,0,-1,1994,904,19.1855,-4.2267
777,120,19.8927,4.02795,0,0,0,0,0,0,0,-1,2001,904,19.8927,-4.02793
784,120,19.4425,3.36517,0,0,0,0,0,0,0,-1,2008,904,19.4426,-3.3652
791,120,19.6849,2.97125,0,0,0,0,0,0,0,-1,2015,904,19.6849,-2.97126
798,120,18.3619,3.82581,0,0,0,0,0,0,0,-1,2022,904,18.3619,-3.8258
805,120,0,0,0,0,0,0,0,0,0,-1,2029,904,0,0
812,120,0,0,0,0,0,0,0,0,0,-1,2036,904,0,0
-700,113,0,0,0,0,0,0,0,0,0,-1,524,911,0,0
-693,113,0,0,0,0,0,0,0,0,0,-1,531,911,0,0
-686,113,0,0,0,0,0,0,0,0,0,-1,538,911,0,0
-679,113,-13.1788,0.88324,-0.00135709,-0.0444259,0.011225,0.00139288,-0.0471759,0.240255,0.031925,0.0475682,545,911,-13.1788,-0.883269
-672,113,-13.4153,0.215881,-0.00133198,-0.0428587,0.0100543,0.00097427,-0.0451649,0.225478,0.0304399,0.0467192,552,911,-13.4153,-0.215896
-665,113,-12.2294,1.03973,0,0,0,0,0,0,0,-1,559,911,-12.2293,-1.03972
-658,113,-11.9016,1.38165,-0.00136677,-0.0316976,0.00827652,0.000744702,-0.033809,0.249787,0.0227916,0.0447112,566,911,-11.9016,-1.38167
-651,113,-11.9022,1.62305,-0.00144744,-0.0253085,0.0074427,0.00068372,-0.0274397,0.278881,0.0185252,0.0467041,573,911,-11.9021,-1.62302
-644,113,-12.1546,1.69598,-0.00153164,-0.0193541,0.0066367,0.000668191,-0.0215539,0.320069,0.0145971,0.0425513,580,911,-12.1546,-1.69601
-637,113,-12.207,1.88397,-0.00162814,-0.0141797,0.00583754,0.000667094,-0.0164749,0.374618,0.0112123,0.0329449,587,911,-12.207,-1.88396
-630,113,-12.1036,1.90381,-0.0018511,-0.00999703,0.00506558,0.000575873,-0.012424,0.446796,0.00848115,0.015329,594,911,-12.1036,-1.90383
-623,113,-12.0854,1.80463,-0.00208571,-0.00733812,0.00431509,0.000339518,-0.00976334,0.512035,0.00662497,0.00987565,601,911,-12.0855,-1.80463
-616,113,-12.0779,1.67755,-0.00261022,-0.00414666,0.00319736,-9.00889e-05,-0.00666679,0.667499,0.00441481,0.00897773,608,911,-12.0779,-1.67756
-609,113,-12.0914,1.57495,-0.00443753,-0.00190139,0.00316881,0.000243659,-0.00658258,0.975725,0.00447182,0.0109526,615,911,-12.0914,-1.57496
-602,113,-12.1148,1.46252,-0.0061569,-0.000633348,0.00291402,0.000619712,-0.00740996,1.16469,0.00515896,0.0147628,622,911,-12.1148,-1.46251
-595,113,-12.1115,1.36041,-0.00759195,-0.000578842,0.00265594,0.000313464,-0.00848425,1.24668,0.0057635,0.0180215,629,911,-12.1115,-1.36043
-588,113,-12.0939,1.22241,-0.00872384,-0.000746741,0.00242577,-6.70035e-05,-0.00940358,1.29759,0.00624684,0.0191876,636,911,-12.0938,-1.22244
-581,113,-12.1091,1.08911,-0.00983249,-0.000882528,0.00236038,-0.000298175,-0.0104168,1.32811,0.00684733,0.0202171,643,911,-12.1091,-1.08912
-574,113,-12.0467,0.871887,-0.0109016,-0.000895345,0.00238711,-0.000355048,-0.0114419,1.34821,0.00751238,0.0194953,650,911,-12.0467,-0.871899
-567,113,-12.5157,0.762268,-0.011469,-0.000830546,0.00234032,-0.000338467,-0.011961,1.36355,0.00786364,0.0405703,657,911,-12.5158,-0.762266
-560,113,-13.3814,0.829529,0,0,0,0,0,0,0,-1,664,911,-13.3814,-0.829549
-553,113,-13.4662,0.96991,-0.011207,-0.000675347,0.00230938,-0.000191204,-0.0116911,1.36415,0.00773115,0.0362903,671,911,-13.4663,-0.969923
-546,113,-13.4739,0.822998,-0.0101489,-0.000354229,0.00209506,7.50837e-05,-0.0105782,1.36868,0.00707732,0.0327227,678,911,-13.4739,-0.822981
-539,113,-13.4126,0.853455,-0.0082332,0.000119173,0.00166936,0.000440463,-0.00855449,1.38066,0.00585534,0.033918,685,911,-13.4126,-0.853485
-532,113,-13.2916,0.91394,-0.00540276,0.00073684,0.00100114,0.000895964,-0.00556188,1.41317,0.00403983,0.0364277,692,911,-13.2916,-0.913945
-525,113,-13.4415,0.982666,-0.00154231,0.00148009,9.64095e-06,0.00148012,-0.00154234,1.56761,0.00174515,0.0356606,699,911,-13.4415,-0.982684
-518,113,-13.7563,1.22626,0.00273867,0.00233489,-0.00131088,0.00386311,0.00121044,-0.708993,0.00228159,0.0379556,706,911,-13.7563,-1.22628
-511,113,-13.8055,1.09192,0,0,0,0,0,0,0,-1,713,911,-13.8056,-1.0919
-504,113,0,0,0,0,0,0,0,0,0,-1,720,911,0,0
-497,113,0,0,0,0,0,0,0,0,0,-1,727,911,0,0
-490,113,0,0,0,0,0,0,0,0,0,-1,734,911,0,0
-483,113,0,0,0,0,0,0,0,0,0,-1,741,911,0,0
-476,113,0,0,0,0,0,0,0,0,0,-1,748,911,0,0
-469,113,0,0,0,0,0,0,0,0,0,-1,755,911,0,0
-462,113,0,0,0,0,0,0,0,0,0,-1,762,911,0,0
-455,113,0,0,0,0,0,0,0,0,0,-1,769,911,0,0
-448,113,0,0,0,0,0,0,0,0,0,-1,776,911,0,0
-441,113,0,0,0,0,0,0,0,0,0,-1,783,911,0,0
-434,113,0,0,0,0,0,0,0,0,0,-1,790,911,0,0
-427,113,0,0,0,0,0,0,0,0,0,-1,797,911,0,0
-420,113,0,0,0,0,0,0,0,0,0,-1,804,911,0,0
-413,113,0,0,0,0,0,0,0,0,0,-1,811,911,0,0
-406,113,0,0,0,0,0,0,0,0,0,-1,818,911,0,0
-399,113,0,0,0,0,0,0,0,0,0,-1,825,911,0,0
-392,113,0,0,0,0,0,0,0,0,0,-1,832,911,0,0
-385,113,0,0,0,0,0,0,0,0,0,-1,839,911,0,0
-378,113,0,0,0,0,0,0,0,0,0,-1,846,911,0,0
-371,113,0,0,0,0,0,0,0,0,0,-1,853,911,0,0
-364,113,0,0,0,0,0,0,0,0,0,-1,860,911,0,0
-357,113,0,0,0,0,0,0,0,0,0,-1,867,911,0,0
-350,113,0,0,0,0,0,0,0,0,0,-1,874,911,0,0
-343,113,0,0,0,0,0,0,0,0,0,-1,881,911,0,0
-336,113,0,0,0,0,0,0,0,0,0,-1,888,911,0,0
-329,113,0,0,0,0,0,0,0,0,0,-1,895,911,0,0
-322,113,0,0,0,0,0,0,0,0,0,-1,902,911,0,0
-315,113,0,0,0,0,0,0,0,0,0,-1,909,911,0,0
-308,113,0,0,0,0,0,0,0,0,0,-1,916,911,0,0
-301,113,0,0,0,0,0,0,0,0,0,-1,923,911,0,0
-294,113,0,0,0,0,0,0,0,0,0,-1,930,911,0,0
-287,113,0,0,0,0,0,0,0,0,0,-1,937,911,0,0
-280,113,0,0,0,0,0,0,0,0,0,-1,944,911,0,0
-273,113,0,0,0,0,0,0,0,0,0,-1,951,911,0,0
-266,113,0,0,0,0,0,0,0,0,0,-1,958,911,0,0
-259,113,0,0,0,0,0,0,0,0,0,-1,965,911,0,0
-252,113,0,0,0,0,0,0,0,0,0,-1,972,911,0,0
-245,113,0,0,0,0,0,0,0,0,0,-1,979,911,0,0
-238,113,0,0,0,0,0,0,0,0,0,-1,986,911,0,0
-231,113,0,0,0,0,0,0,0,0,0,-1,993,911,0,0
-224,113,0,0,0,0,0,0,0,0,0,-1,1000,911,0,0
-217,113,0,0,0,0,0,0,0,0,0,-1,1007,911,0,0
-210,113,0,0,0,0,0,0,0,0,0,-1,1014,911,0,0
-203,113,0,0,0,0,0,0,0,0,0,-1,1021,911,0,0
-196,113,0,0,0,0,0,0,0,0,0,-1,1028,911,0,0
-189,113,0,0,0,0,0,0,0,0,0,-1,1035,911,0,0
-182,113,0,0,0,0,0,0,0,0,0,-1,1042,911,0,0
-175,113,0,0,0,0,0,0,0,0,0,-1,1049,911,0,0
-168,113,0,0,0,0,0,0,0,0,0,-1,1056,911,0,0
-161,113,0,0,0,0,0,0,0,0,0,-1,1063,911,0,0
-154,113,0,0,0,0,0,0,0,0,0,-1,1070,911,0,0
-147,113,0,0,0,0,0,0,0,0,0,-1,1077,911,0,0
-140,113,0,0,0,0,0,0,0,0,0,-1,1084,911,0,0
-133,113,0,0,0,0,0,0,0,0,0,-1,1091,911,0,0
-126,113,0,0,0,0,0,0,0,0,0,-1,1098,911,0,0
-119,113,0,0,0,0,0,0,0,0,0,-1,1105,911,0,0
-112,113,0,0,0,0,0,0,0,0,0,-1,1112,911,0,0
-105,113,0,0,0,0,0,0,0,0,0,-1,1119,911,0,0
-98,113,0,0,0,0,0,0,0,0,0,-1,1126,911,0,0
-91,113,0,0,0,0,0,0,0,0,0,-1,1133,911,0,0
-84,113,0,0,0,0,0,0,0,0,0,-1,1140,911,0,0
-77,113,0,0,0,0,0,0,0,0,0,-1,1147,911,0,0
-70,113,0,0,0,0,0,0,0,0,0,-1,1154,911,0,0
-63,113,0,0,0,0,0,0,0,0,0,-1,1161,911,0,0
-56,113,0,0,0,0,0,0,0,0,0,-1,1168,911,0,0
-49,113,0,0,0,0,0,0,0,0,0,-1,1175,911,0,0
-42,113,0,0,0,0,0,0,0,0,0,-1,1182,911,0,0
-35,113,0,0,0,0,0,0,0,0,0,-1,1189,911,0,0
-28,113,0,0,0,0,0,0,0,0,0,-1,1196,911,0,0
-21,113,0,0,0,0,0,0,0,0,0,-1,1203,911,0,0
-14,113,0,0,0,0,0,0,0,0,0,-1,1210,911,0,0
-7,113,0,0,0,0,0,0,0,0,0,-1,1217,911,0,0
0,113,0,0,0,0,0,0,0,0,0,-1,1224,911,0,0
7,113,0,0,0,0,0,0,0,0,0,-1,1231,911,0,0
14,113,0,0,0,0,0,0,0,0,0,-1,1238,911,0,0
21,113,0,0,0,0,0,0,0,0,0,-1,1245,911,0,0
28,113,0,0,0,0,0,0,0,0,0,-1,1252,911,0,0
35,113,0,0,0,0,0,0,0,0,0,-1,1259,911,0,0
42,113,0,0,0,0,0,0,0,0,0,-1,1266,911,0,0
49,113,0,0,0,0,0,0,0,0,0,-1,1273,911,0,0
56,113,0,0,0,0,0,0,0,0,0,-1,1280,911,0,0
63,113,0,0,0,0,0,0,0,0,0,-1,1287,911,0,0
70,113,0,0,0,0,0,0,0,0,0,-1,1294,911,0,0
77,113,0,0,0,0,0,0,0,0,0,-1,1301,911,0,0
84,113,0,0,0,0,0,0,0,0,0,-1,1308,911,0,0
91,113,0,0,0,0,0,0,0,0,0,-1,1315,911,0,0
98,113,0,0,0,0,0,0,0,0,0,-1,1322,911,0,0
105,113,0,0,0,0,0,0,0,0,0,-1,1329,911,0,0
112,113,0,0,0,0,0,0,0,0,0,-1,1336,911,0,0
119,113,0,0,0,0,0,0,0,0,0,-1,1343,911,0,0
126,113,0,0,0,0,0,0,0,0,0,-1,1350,911,0,0
133,113,0,0,0,0,0,0,0,0,0,-1,1357,911,0,0
140,113,0,0,0,0,0,0,0,0,0,-1,1364,911,0,0
147,113,0,0,0,0,0,0,0,0,0,-1,1371,911,0,0
154,113,0,0,0,0,0,0,0,0,0,-1,1378,911,0,0
161,113,0,0,0,0,0,0,0,0,0,-1,1385,911,0,0
168,113,0,0,0,0,0,0,0,0,0,-1,1392,911,0,0
175,113,0,0,0,0,0,0,0,0,0,-1,1399,911,0,0
182,113,0,0,0,0,0,0,0,0,0,-1,1406,911,0,0
189,113,0,0,0,0,0,0,0,0,0,-1,1413,911,0,0
196,113,0,0,0,0,0,0,0,0,0,-1,1420,911,0,0
203,113,0,0,0,0,0,0,0,0,0,-1,1427,911,0,0
210,113,0,0,0,0,0,0,0,0,0,-1,1434,911,0,0
217,113,0,0,0,0,0,0,0,0,0,-1,1441,911,0,0
224,113,0,0,0,0,0,0,0,0,0,-1,1448,911,0,0
231,113,0,0,0,0,0,0,0,0,0,-1,1455,911,0,0
238,113,0,0,0,0,0,0,0,0,0,-1,1462,911,0,0
245,113,0,0,0,0,0,0,0,0,0,-1,1469,911,0,0
252,113,0,0,0,0,0,0,0,0,0,-1,1476,911,0,0
259,113,0,0,0,0,0,0,0,0,0,-1,1483,911,0,0
266,113,0,0,0,0,0,0,0,0,0,-1,1490,911,0,0
273,113,0,0,0,0,0,0,0,0,0,-1,1497,911,0,0
280,113,0,0,0,0,0,0,0,0,0,-1,1504,911,0,0
287,113,0,0,0,0,0,0,0,0,0,-1,1511,911,0,0
294,113,0,0,0,0,0,0,0,0,0,-1,1518,911,0,0
301,113,0,0,0,0,0,0,0,0,0,-1,1525,911,0,0
308,113,0,0,0,0,0,0,0,0,0,-1,1532,911,0,0
315,113,0,0,0,0,0,0,0,0,0,-1,1539,911,0,0
322,113,0,0,0,0,0,0,0,0,0,-1,1546,911,0,0
329,113,0,0,0,0,0,0,0,0,0,-1,1553,911,0,0
336,113,0,0,0,0,0,0,0,0,0,-1,1560,911,0,0
343,113,0,0,0,0,0,0,0,0,0,-1,1567,911,0,0
350,113,0,0,0,0,0,0,0,0,0,-1,1574,911,0,0
357,113,0,0,0,0,0,0,0,0,0,-1,1581,911,0,0
364,113,0,0,0,0,0,0,0,0,0,-1,1588,911,0,0
371,113,0,0,0,0,0,0,0,0,0,-1,1595,911,0,0
378,113,0,0,0,0,0,0,0,0,0,-1,1602,911,0,0
385,113,0,0,0,0,0,0,0,0,0,-1,1609,911,0,0
392,113,0,0,0,0,0,0,0,0,0,-1,1616,911,0,0
399,113,0,0,0,0,0,0,0,0,0,-1,1623,911,0,0
406,113,0,0,0,0,0,0,0,0,0,-1,1630,911,0,0
413,113,0,0,0,0,0,0,0,0,0,-1,1637,911,0,0
420,113,0,0,0,0,0,0,0,0,0,-1,1644,911,0,0
427,113,0,0,0,0,0,0,0,0,0,-1,1651,911,0,0
434,113,0,0,0,0,0,0,0,0,0,-1,1658,911,0,0
441,113,0,0,0,0,0,0,0,0,0,-1,1665,911,0,0
448,113,0,0,0,0,0,0,0,0,0,-1,1672,911,0,0
455,113,0,0,0,0,0,0,0,0,0,-1,1679,911,0,0
462,113,0,0,0,0,0,0,0,0,0,-1,1686,911,0,0
469,113,0,0,0,0,0,0,0,0,0,-1,1693,911,0,0
476,113,0,0,0,0,0,0,0,0,0,-1,1700,911,0,0
483,113,0,0,0,0,0,0,0,0,0,-1,1707,911,0,0
490,113,0,0,0,0,0,0,0,0,0,-1,1714,911,0,0
497,113,0,0,0,0,0,0,0,0,0,-1,1721,911,0,0
504,113,0,0,0,0,0,0,0,0,0,-1,1728,911,0,0
511,113,0,0,0,0,0,0,0,0,0,-1,1735,911,0,0
518,113,0,0,0,0,0,0,0,0,0,-1,1742,911,0,0
525,113,0,0,0,0,0,0,0,0,0,-1,1749,911,0,0
532,113,0,0,0,0,0,0,0,0,0,-1,1756,911,0,0
539,113,0,0,0,0,0,0,0,0,0,-1,1763,911,0,0
546,113,0,0,0,0,0,0,0,0,0,-1,1770,911,0,0
553,113,0,0,0,0,0,0,0,0,0,-1,1777,911,0,0
560,113,0,0,0,0,0,0,0,0,0,-1,1784,911,0,0
567,113,0,0,0,0,0,0,0,0,0,-1,1791,911,0,0
574,113,0,0,0,0,0,0,0,0,0,-1,1798,911,0,0
581,113,0,0,0,0,0,0,0,0,0,-1,1805,911,0,0
588,113,0,0,0,0,0,0,0,0,0,-1,1812,911,0,0
595,113,0,0,0,0,0,0,0,0,0,-1,1819,911,0,0
602,113,0,0,0,0,0,0,0,0,0,-1,1826,911,0,0
609,113,0,0,0,0,0,0,0,0,0,-1,1833,911,0,0
616,113,0,0,0,0,0,0,0,0,0,-1,1840,911,0,0
623,113,0,0,0,0,0,0,0,0,0,-1,1847,911,0,0
630,113,20.9629,2.95966,0.000171267,0.00499346,0.000743511,0.0051055,5.92317e-05,1.42124,0.00338409,0.0401361,1854,911,20.9629,-2.95965
637,113,21.0636,3.17523,-0.000505756,0.0045085,-0.000141805,0.00451251,-0.000509763,-1.54255,0.00319186,0.0421995,1861,911,21.0635,-3.17524
644,113,21.0671,2.98322,-0.000476749,0.00389949,-0.000473105,0.00395005,-0.000527311,-1.46433,0.00282559,0.0395642,1868,911,21.0671,-2.98324
651,113,20.9124,2.78735,-0.00222321,0.00351224,-0.000889478,0.00364702,-0.00235798,-1.42042,0.00349351,0.040079,1875,911,20.9123,-2.78735
658,113,20.8323,2.62085,-0.00518209,0.00318579,-0.00123332,0.00336378,-0.00536008,-1.42747,0.00508049,0.0414988,1882,911,20.8323,-2.62086
665,113,20.9189,2.68054,-0.00820542,0.00282478,-0.00144877,0.0030119,-0.00839253,-1.44235,0.00682426,0.0382578,1889,911,20.9189,-2.68052
672,113,20.8768,2.73462,-0.0106489,0.00247254,-0.00159272,0.0026631,-0.0108395,-1.45172,0.00825839,0.0369826,1896,911,20.8768,-2.73459
679,113,20.8259,2.62305,-0.0125281,0.0020432,-0.00168959,0.00223655,-0.0127215,-1.45686,0.00931642,0.0299658,1903,911,20.8259,-2.62306
686,113,20.7662,2.70044,-0.0139965,0.00180126,-0.00183343,0.00201125,-0.0142064,-1.45676,0.0102076,0.0254962,1910,911,20.7662,-2.70045
693,113,20.8376,2.65826,-0.0148375,0.00155322,-0.00176426,0.00174097,-0.0150253,-1.46478,0.0106447,0.0365474,1917,911,20.8376,-2.65824
700,113,19.62,2.98193,-0.0149501,0.00130539,-0.00159194,0.00145982,-0.0151045,-1.47409,0.0105899,0.0439268,1924,911,19.62,-2.98195
707,113,18.7385,3.18103,-0.0144548,0.00110402,-0.00142187,0.00123289,-0.0145836,-1.48041,0.0101584,0.029721,1931,911,18.7385,-3.18105
714,113,18.7413,3.34851,-0.0131987,0.000944756,-0.00134416,0.00107137,-0.0133253,-1.47688,0.00926133,0.0168515,1938,911,18.7413,-3.34854
721,113,18.7661,3.49097,-0.0110617,0.00100496,-0.00124965,0.00113302,-0.0111898,-1.46868,0.00786478,0.0158368,1945,911,18.7661,-3.49098
728,113,18.8071,3.67657,-0.00815805,0.00161527,-0.000904681,0.00169831,-0.00824109,-1.47927,0.00613897,0.0157742,1952,911,18.8071,-3.6766
735,113,18.7584,3.81793,-0.00516656,0.00327146,-0.00128697,0.00346339,-0.00535848,-1.42276,0.00513233,0.0144501,1959,911,18.7584,-3.81794
742,113,18.7579,3.95374,-0.00225805,0.00597235,-0.00222641,0.00653601,-0.00282171,-1.32283,0.00554274,0.0113628,1966,911,18.7579,-3.95375
749,113,18.7743,4.08026,0.000808946,0.00905316,-0.00298781,0.0100221,-0.000159993,-1.2572,0.00673536,0.00865059,1973,911,18.7743,-4.08028
756,113,18.7677,4.20862,0.00291026,0.013633,-0.00452843,0.0152895,0.00125373,-1.22011,0.00980187,0.0104796,1980,911,18.7677,-4.20863
763,113,18.7,4.40649,0.0040589,0.0193119,-0.0067016,0.021838,0.00153282,-1.21033,0.0140756,0.0202289,1987,911,18.7,-4.40651
770,113,19.0148,4.46533,0.00415185,0.02652,-0.00963248,0.0300963,0.000575563,-1.2153,0.0198751,0.0433647,1994,911,19.0148,-4.46532
777,113,20.3278,3.07074,0,0,0,0,0,0,0,-1,2001,911,20.3277,-3.07076
784,113,19.8354,3.23065,0.00233904,0.04583,-0.0181307,0.0523968,-0.00422779,-1.2233,0.0364224,0.0445677,2008,911,19.8354,-3.23067
791,113,19.3464,3.38953,0.000120567,0.0580601,-0.0239115,0.0666537,-0.00847304,-1.22578,0.0475126,0.0432985,2015,911,19.3464,-3.38954
798,113,18.8422,3.52063,0,0,0,0,0,0,0,-1,2022,911,18.8422,-3.52062
805,113,0,0,0,0,0,0,0,0,0,-1,2029,911,0,0
812,113,0,0,0,0,0,0,0,0,0,-1,2036,911,0,0
-700,106,0,0,0,0,0,0,0,0,0,-1,524,918,0,0
-693,106,0,0,0,0,0,0,0,0,0,-1,531,918,0,0
-686,106,0,0,0,0,0,0,0,0,0,-1,538,918,0,0
-679,106,-13.6043,0.338928,0.0128746,-0.039469,0.00562715,0.0134727,-0.0400671,0.105892,0.0321572,0.0479152,545,918,-13.6043,-0.338954
-672,106,-13.7054,0.190979,0.00854881,-0.0407578,0.006422,0.00937152,-0.0415805,0.127415,0.0313151,0.0469858,552,918,-13.7055,-0.190991
-665,106,-13.3647,0.296265,0.00553587,-0.0374957,0.00669581,0.00655368,-0.0385135,0.150852,0.028116,0.045789,559,918,-13.3647,-0.296236
-658,106,-11.5965,1.89386,0.00334216,-0.032201,0.0065698,0.00451764,-0.0333765,0.177049,0.0238997,0.0448727,566,918,-11.5965,-1.89384
-651,106,-11.6702,1.70184,0.0017659,-0.0262417,0.00620155,0.00307764,-0.0275534,0.208445,0.019476,0.0429013,573,918,-11.6702,-1.70182
-644,106,-11.9236,1.67194,0.00063902,-0.0204112,0.00568625,0.00207683,-0.021849,0.247666,0.0153053,0.0413643,580,918,-11.9236,-1.67193
-637,106,-12.2176,1.97253,-0.000173997,-0.0151885,0.00507157,0.00137853,-0.0167411,0.297065,0.0116474,0.028571,587,918,-12.2176,-1.97253
-630,106,-12.2218,1.92969,-0.000973132,-0.0108802,0.00444312,0.000727567,-0.0125809,0.365567,0.00863999,0.012338,594,918,-12.2218,-1.9297
-623,106,-12.2257,1.79834,-0.00161788,-0.00804118,0.00377192,0.000124469,-0.00978353,0.432727,0.00656424,0.0109164,601,918,-12.2257,-1.79834
-616,106,-12.2228,1.66388,-0.00262219,-0.00482123,0.00283936,-0.000676893,-0.00676653,0.600668,0.00430317,0.010534,608,918,-12.2228,-1.66389
-609,106,-12.2192,1.55444,-0.00463049,-0.00233496,0.00277395,-0.000480691,-0.00648475,0.981556,0.00417218,0.0101979,615,918,-12.2192,-1.55444
-602,106,-12.2211,1.43524,-0.00638849,-0.000922733,0.00250672,5.27946e-05,-0.00736401,1.19967,0.00492703,0.0125293,622,918,-12.2211,-1.43522
-595,106,-12.2725,1.32104,-0.00774701,-0.000614762,0.00217266,-5.03939e-06,-0.00835673,1.2972,0.00556948,0.0161495,629,918,-12.2725,-1.32104
-588,106,-12.2609,1.19293,-0.00879092,-0.00065377,0.00190628,-0.000229326,-0.00921537,1.35171,0.00606858,0.0176383,636,918,-12.2609,-1.19295
-581,106,-12.1967,1.05493,-0.00977475,-0.000747929,0.00181315,-0.000397351,-0.0101253,1.3798,0.00662174,0.0143821,643,918,-12.1967,-1.05496
-574,106,-12.2332,0.931213,-0.010697,-0.000745307,0.0018173,-0.00042383,-0.0110184,1.39571,0.0072085,0.0201289,650,918,-12.2332,-0.931206
-567,106,-12.8253,0.927063,-0.0111243,-0.00065165,0.00174918,-0.000367222,-0.0114088,1.4096,0.00748643,0.0361131,657,918,-12.8253,-0.927088
-560,106,-13.6116,0.951538,0,0,0,0,0,0,0,-1,664,918,-13.6116,-0.951561
-553,106,-13.4591,1.00732,-0.0105087,-0.000395318,0.00164851,-0.000133392,-0.0107707,1.41323,0.0071364,0.0342184,671,918,-13.4591,-1.00731
-546,106,-13.427,0.861877,-0.00921556,-3.66348e-05,0.00143276,0.00018181,-0.00943401,1.4195,0.00635081,0.0363111,678,918,-13.427,-0.86186
-539,106,-13.3922,0.815247,-0.00708852,0.000477895,0.00105276,0.000621641,-0.00723227,1.43509,0.00504152,0.0393533,685,918,-13.3921,-0.815235
-532,106,-13.2051,0.822998,-0.00409955,0.00114611,0.000483323,0.00119027,-0.00414371,1.47968,0.00323311,0.0406286,692,918,-13.2052,-0.823
-525,106,-13.3083,0.943176,-0.000226204,0.00196475,-0.000357295,0.00202154,-0.000282999,-1.41316,0.00145126,0.037282,699,918,-13.3084,-0.943177
-518,106,-13.4249,0.915161,0.00353823,0.00295995,-0.00145964,0.00473709,0.00176109,-0.687619,0.00276478,0.0374767,706,918,-13.4248,-0.915155
-511,106,0,0,0,0,0,0,0,0,0,-1,713,918,0,0
-504,106,0,0,0,0,0,0,0,0,0,-1,720,918,0,0
-497,106,0,0,0,0,0,0,0,0,0,-1,727,918,0,0
-490,106,0,0,0,0,0,0,0,0,0,-1,734,918,0,0
-483,106,0,0,0,0,0,0,0,0,0,-1,741,918,0,0
-476,106,0,0,0,0,0,0,0,0,0,-1,748,918,0,0
-469,106,0,0,0,0,0,0,0,0,0,-1,755,918,0,0
-462,106,0,0,0,0,0,0,0,0,0,-1,762,918,0,0
-455,106,0,0,0,0,0,0,0,0,0,-1,769,918,0,0
-448,106,0,0,0,0,0,0,0,0,0,-1,776,918,0,0
-441,106,0,0,0,0,0,0,0,0,0,-1,783,918,0,0
-434,106,0,0,0,0,0,0,0,0,0,-1,790,918,0,0
-427,106,0,0,0,0,0,0,0,0,0,-1,797,918,0,0
-420,106,0,0,0,0,0,0,0,0,0,-1,804,918,0,0
-413,106,0,0,0,0,0,0,0,0,0,-1,811,918,0,0
-406,106,0,0,0,0,0,0,0,0,0,-1,818,918,0,0
-399,106,0,0,0,0,0,0,0,0,0,-1,825,918,0,0
-392,106,0,0,0,0,0,0,0,0,0,-1,832,918,0,0
-385,106,0,0,0,0,0,0,0,0,0,-1,839,918,0,0
-378,106,0,0,0,0,0,0,0,0,0,-1,846,918,0,0
-371,106,0,0,0,0,0,0,0,0,0,-1,853,918,0,0
-364,106,0,0,0,0,0,0,0,0,0,-1,860,918,0,0
-357,106,0,0,0,0,0,0,0,0,0,-1,867,918,0,0
-350,106,0,0,0,0,0,0,0,0,0,-1,874,918,0,0
-343,106,0,0,0,0,0,0,0,0,0,-1,881,918,0,0
-336,106,0,0,0,0,0,0,0,0,0,-1,888,918,0,0
-329,106,0,0,0,0,0,0,0,0,0,-1,895,918,0,0
-322,106,0,0,0,0,0,0,0,0,0,-1,902,918,0,0
-315,106,0,0,0,0,0,0,0,0,0,-1,909,918,0,0
-308,106,0,0,0,0,0,0,0,0,0,-1,916,918,0,0
-301,106,0,0,0,0,0,0,0,0,0,-1,923,918,0,0
-294,106,0,0,0,0,0,0,0,0,0,-1,930,918,0,0
-287,106,0,0,0,0,0,0,0,0,0,-1,937,918,0,0
-280,106,0,0,0,0,0,0,0,0,0,-1,944,918,0,0
-273,106,0,0,0,0,0,0,0,0,0,-1,951,918,0,0
-266,106,0,0,0,0,0,0,0,0,0,-1,958,918,0,0
-259,106,0,0,0,0,0,0,0,0,0,-1,965,918,0,0
-252,106,0,0,0,0,0,0,0,0,0,-1,972,918,0,0
-245,106,0,0,0,0,0,0,0,0,0,-1,979,918,0,0
-238,106,0,0,0,0,0,0,0,0,0,-1,986,918,0,0
-231,106,0,0,0,0,0,0,0,0,0,-1,993,918,0,0
-224,106,0,0,0,0,0,0,0,0,0,-1,1000,918,0,0
-217,106,0,0,0,0,0,0,0,0,0,-1,1007,918,0,0
-210,106,0,0,0,0,0,0,0,0,0,-1,1014,918,0,0
-203,106,0,0,0,0,0,0,0,0,0,-1,1021,918,0,0
-196,106,0,0,0,0,0,0,0,0,0,-1,1028,918,0,0
-189,106,0,0,0,0,0,0,0,0,0,-1,1035,918,0,0
-182,106,0,0,0,0,0,0,0,0,0,-1,1042,918,0,0
-175,106,0,0,0,0,0,0,0,0,0,-1,1049,918,0,0
-168,106,0,0,0,0,0,0,0,0,0,-1,1056,918,0,0
-161,106,0,0,0,0,0,0,0,0,0,-1,1063,918,0,0
-154,106,0,0,0,0,0,0,0,0,0,-1,1070,918,0,0
-147,106,0,0,0,0,0,0,0,0,0,-1,1077,918,0,0
-140,106,0,0,0,0,0,0,0,0,0,-1,1084,918,0,0
-133,106,0,0,0,0,0,0,0,0,0,-1,1091,918,0,0
-126,106,0,0,0,0,0,0,0,0,0,-1,1098,918,0,0
-119,106,0,0,0,0,0,0,0,0,0,-1,1105,918,0,0
-112,106,0,0,0,0,0,0,0,0,0,-1,1112,918,0,0
-105,106,0,0,0,0,0,0,0,0,0,-1,1119,918,0,0
-98,106,0,0,0,0,0,0,0,0,0,-1,1126,918,0,0
-91,106,0,0,0,0,0,0,0,0,0,-1,1133,918,0,0
-84,106,0,0,0,0,0,0,0,0,0,-1,1140,918,0,0
-77,106,0,0,0,0,0,0,0,0,0,-1,1147,918,0,0
-70,106,0,0,0,0,0,0,0,0,0,-1,1154,918,0,0
-63,106,0,0,0,0,0,0,0,0,0,-1,1161,918,0,0
-56,106,0,0,0,0,0,0,0,0,0,-1,1168,918,0,0
-49,106,0,0,0,0,0,0,0,0,0,-1,1175,918,0,0
-42,106,0,0,0,0,0,0,0,0,0,-1,1182,918,0,0
-35,106,0,0,0,0,0,0,0,0,0,-1,1189,918,0,0
-28,106,0,0,0,0,0,0,0,0,0,-1,1196,918,0,0
-21,106,0,0,0,0,0,0,0,0,0,-1,1203,918,0,0
-14,106,0,0,0,0,0,0,0,0,0,-1,1210,918,0,0
-7,106,0,0,0,0,0,0,0,0,0,-1,1217,918,0,0
0,106,0,0,0,0,0,0,0,0,0,-1,1224,918,0,0
7,106,0,0,0,0,0,0,0,0,0,-1,1231,918,0,0
14,106,0,0,0,0,0,0,0,0,0,-1,1238,918,0,0
21,106,0,0,0,0,0,0,0,0,0,-1,1245,918,0,0
28,106,0,0,0,0,0,0,0,0,0,-1,1252,918,0,0
35,106,0,0,0,0,0,0,0,0,0,-1,1259,918,0,0
42,106,0,0,0,0,0,0,0,0,0,-1,1266,918,0,0
49,106,0,0,0,0,0,0,0,0,0,-1,1273,918,0,0
56,106,0,0,0,0,0,0,0,0,0,-1,1280,918,0,0
63,106,0,0,0,0,0,0,0,0,0,-1,1287,918,0,0
70,106,0,0,0,0,0,0,0,0,0,-1,1294,918,0,0
77,106,0,0,0,0,0,0,0,0,0,-1,1301,918,0,0
84,106,0,0,0,0,0,0,0,0,0,-1,1308,918,0,0
91,106,0,0,0,0,0,0,0,0,0,-1,1315,918,0,0
98,106,0,0,0,0,0,0,0,0,0,-1,1322,918,0,0
105,106,0,0,0,0,0,0,0,0,0,-1,1329,918,0,0
112,106,0,0,0,0,0,0,0,0,0,-1,1336,918,0,0
119,106,0,0,0,0,0,0,0,0,0,-1,1343,918,0,0
126,106,0,0,0,0,0,0,0,0,0,-1,1350,918,0,0
133,106,0,0,0,0,0,0,0,0,0,-1,1357,918,0,0
140,106,0,0,0,0,0,0,0,0,0,-1,1364,918,0,0
147,106,0,0,0,0,0,0,0,0,0,-1,1371,918,0,0
154,106,0,0,0,0,0,0,0,0,0,-1,1378,918,0,0
161,106,0,0,0,0,0,0,0,0,0,-1,1385,918,0,0
168,106,0,0,0,0,0,0,0,0,0,-1,1392,918,0,0
175,106,0,0,0,0,0,0,0,0,0,-1,1399,918,0,0
182,106,0,0,0,0,0,0,0,0,0,-1,1406,918,0,0
189,106,0,0,0,0,0,0,0,0,0,-1,1413,918,0,0
196,106,0,0,0,0,0,0,0,0,0,-1,1420,918,0,0
203,106,0,0,0,0,0,0,0,0,0,-1,1427,918,0,0
210,106,0,0,0,0,0,0,0,0,0,-1,1434,918,0,0
217,106,0,0,0,0,0,0,0,0,0,-1,1441,918,0,0
224,106,0,0,0,0,0,0,0,0,0,-1,1448,918,0,0
231,106,0,0,0,0,0,0,0,0,0,-1,1455,918,0,0
238,106,0,0,0,0,0,0,0,0,0,-1,1462,918,0,0
245,106,0,0,0,0,0,0,0,0,0,-1,1469,918,0,0
252,106,0,0,0,0,0,0,0,0,0,-1,1476,918,0,0
259,106,0,0,0,0,0,0,0,0,0,-1,1483,918,0,0
266,106,0,0,0,0,0,0,0,0,0,-1,1490,918,0,0
273,106,0,0,0,0,0,0,0,0,0,-1,1497,918,0,0
280,106,0,0,0,0,0,0,0,0,0,-1,1504,918,0,0
287,106,0,0,0,0,0,0,0,0,0,-1,1511,918,0,0
294,106,0,0,0,0,0,0,0,0,0,-1,1518,918,0,0
301,106,0,0,0,0,0,0,0,0,0,-1,1525,918,0,0
308,106,0,0,0,0,0,0,0,0,0,-1,1532,918,0,0
315,106,0,0,0,0,0,0,0,0,0,-1,1539,918,0,0
322,106,0,0,0,0,0,0,0,0,0,-1,1546,918,0,0
329,106,0,0,0,0,0,0,0,0,0,-1,1553,918,0,0
336,106,0,0,0,0,0,0,0,0,0,-1,1560,918,0,0
343,106,0,0,0,0,0,0,0,0,0,-1,1567,918,0,0
350,106,0,0,0,0,0,0,0,0,0,-1,1574,918,0,0
357,106,0,0,0,0,0,0,0,0,0,-1,1581,918,0,0
364,106,0,0,0,0,0,0,0,0,0,-1,1588,918,0,0
371,106,0,0,0,0,0,0,0,0,0,-1,1595,918,0,0
378,106,0,0,0,0,0,0,0,0,0,-1,1602,918,0,0
385,106,0,0,0,0,0,0,0,0,0,-1,1609,918,0,0
392,106,0,0,0,0,0,0,0,0,0,-1,1616,918,0,0
399,106,0,0,0,0,0,0,0,0,0,-1,1623,918,0,0
406,106,0,0,0,0,0,0,0,0,0,-1,1630,918,0,0
413,106,0,0,0,0,0,0,0,0,0,-1,1637,918,0,0
420,106,0,0,0,0,0,0,0,0,0,-1,1644,918,0,0
427,106,0,0,0,0,0,0,0,0,0,-1,1651,918,0,0
434,106,0,0,0,0,0,0,0,0,0,-1,1658,918,0,0
441,106,0,0,0,0,0,0,0,0,0,-1,1665,918,0,0
448,106,0,0,0,0,0,0,0,0,0,-1,1672,918,0,0
455,106,0,0,0,0,0,0,0,0,0,-1,1679,918,0,0
462,106,0,0,0,0,0,0,0,0,0,-1,1686,918,0,0
469,106,0,0,0,0,0,0,0,0,0,-1,1693,918,0,0
476,106,0,0,0,0,0,0,0,0,0,-1,1700,918,0,0
483,106,0,0,0,0,0,0,0,0,0,-1,1707,918,0,0
490,106,0,0,0,0,0,0,0,0,0,-1,1714,918,0,0
497,106,0,0,0,0,0,0,0,0,0,-1,1721,918,0,0
504,106,0,0,0,0,0,0,0,0,0,-1,1728,918,0,0
511,106,0,0,0,0,0,0,0,0,0,-1,1735,918,0,0
518,106,0,0,0,0,0,0,0,0,0,-1,1742,918,0,0
525,106,0,0,0,0,0,0,0,0,0,-1,1749,918,0,0
532,106,0,0,0,0,0,0,0,0,0,-1,1756,918,0,0
539,106,0,0,0,0,0,0,0,0,0,-1,1763,918,0,0
546,106,0,0,0,0,0,0,0,0,0,-1,1770,918,0,0
553,106,0,0,0,0,0,0,0,0,0,-1,1777,918,0,0
560,106,0,0,0,0,0,0,0,0,0,-1,1784,918,0,0
567,106,0,0,0,0,0,0,0,0,0,-1,1791,918,0,0
574,106,0,0,0,0,0,0,0,0,0,-1,1798,918,0,0
581,106,0,0,0,0,0,0,0,0,0,-1,1805,918,0,0
588,106,0,0,0,0,0,0,0,0,0,-1,1812,918,0,0
595,106,0,0,0,0,0,0,0,0,0,-1,1819,918,0,0
602,106,0,0,0,0,0,0,0,0,0,-1,1826,918,0,0
609,106,0,0,0,0,0,0,0,0,0,-1,1833,918,0,0
616,106,0,0,0,0,0,0,0,0,0,-1,1840,918,0,0
623,106,0,0,0,0,0,0,0,0,0,-1,1847,918,0,0
630,106,20.7566,3.08051,0.000288075,0.00512582,0.000849371,0.00527061,0.000143283,1.40195,0.00346697,0.0419501,1854,918,20.7566,-3.08049
637,106,20.8898,3.0545,-0.000320965,0.00465083,8.32704e-05,0.00465223,-0.000322359,1.55405,0.00321433,0.0406022,1861,918,20.8898,-3.05449
644,106,20.9115,2.84314,-0.000115474,0.00408126,-0.000157028,0.00408713,-0.000121341,-1.53345,0.00276608,0.0374978,1868,918,20.9115,-2.84312
651,106,20.7921,2.69043,-0.00158783,0.00370904,-0.000503823,0.00375653,-0.00163532,-1.4768,0.00319228,0.0373502,1875,918,20.7921,-2.69042
658,106,20.9222,2.38947,-0.00442674,0.00339629,-0.000802809,0.00347782,-0.00450827,-1.46958,0.00462355,0.0382637,1882,918,20.9222,-2.38949
665,106,20.8768,2.73822,-0.00757478,0.00304906,-0.00100412,0.00314313,-0.00766886,-1.47738,0.006422,0.0407569,1889,918,20.8768,-2.73822
672,106,20.8115,2.90662,-0.0101988,0.0026934,-0.00114355,0.00279405,-0.0102994,-1.48301,0.00796273,0.0422133,1896,918,20.8115,-2.90662
679,106,20.782,2.77814,-0.012291,0.00226931,-0.001237,0.00237365,-0.0123954,-1.48664,0.00915792,0.0351618,1903,918,20.782,-2.77815
686,106,20.7411,2.71002,-0.0139134,0.00199735,-0.00138794,0.00211752,-0.0140336,-1.48443,0.0101356,0.0310331,1910,918,20.7411,-2.71004
693,106,20.8354,2.56775,-0.0148538,0.00170305,-0.00134853,0.00181217,-0.014963,-1.49006,0.010631,0.0255151,1917,918,20.8355,-2.56774
700,106,20.0443,2.99335,0,0,0,0,0,0,0,-1,1924,918,20.0443,-2.99334
707,106,19.0919,3.17963,-0.0147184,0.00124411,-0.00107415,0.00131607,-0.0147904,-1.50391,0.0103269,0.0384005,1931,918,19.0919,-3.17961
714,106,18.9155,3.34399,-0.0136389,0.0010693,-0.00104301,0.0011429,-0.0137125,-1.50035,0.00954544,0.0187244,1938,918,18.9155,-3.34399
721,106,18.9346,3.49109,-0.0117448,0.00111417,-0.00103897,0.00119757,-0.0118282,-1.49069,0.00831347,0.0178395,1945,918,18.9345,-3.49108
728,106,18.9624,3.67914,-0.00917673,0.00162267,-0.000808614,0.00168288,-0.00923694,-1.49647,0.00678881,0.0174529,1952,918,18.9625,-3.67912
735,106,18.943,3.82355,-0.00663292,0.00309265,-0.00124581,0.0032497,-0.00678997,-1.4454,0.00591531,0.0154717,1959,918,18.943,-3.82357
742,106,18.9252,3.95282,-0.00426996,0.00561588,-0.00221578,0.0060898,-0.00474388,-1.36009,0.0062709,0.0108947,1966,918,18.9251,-3.9528
749,106,18.9202,4.0827,-0.0018829,0.0084934,-0.00303025,0.00931352,-0.00270302,-1.30648,0.00727928,0.00873483,1973,918,18.9202,-4.08272
756,106,18.9022,4.19165,-0.000549554,0.0128297,-0.00459955,0.0142584,-0.00197823,-1.26963,0.010229,0.00986691,1980,918,18.9023,-4.19165
763,106,18.8639,4.37933,-0.000251753,0.0181562,-0.00673113,0.0203549,-0.00245046,-1.25507,0.0144562,0.0170484,1987,918,18.8639,-4.37936
770,106,18.8846,4.59357,-0.0012859,0.0249039,-0.00954978,0.0280162,-0.00439825,-1.25574,0.020303,0.0370445,1994,918,18.8847,-4.59358
777,106,20.7274,2.93372,0,0,0,0,0,0,0,-1,2001,918,20.7274,-2.93369
784,106,20.2416,3.05493,-0.0057785,0.0428075,-0.017445,0.0484223,-0.0113933,-1.25941,0.0366741,0.046419,2008,918,20.2415,-3.05495
791,106,19.5492,2.78613,-0.00931669,0.0540817,-0.0226545,0.0613449,-0.0165798,-1.26054,0.0473998,0.0428408,2015,918,19.5492,-2.78614
798,106,19.2988,3.25897,0,0,0,0,0,0,0,-1,2022,918,19.2989,-3.259
805,106,0,0,0,0,0,0,0,0,0,-1,2029,918,0,0
812,106,0,0,0,0,0,0,0,0,0,-1,2036,918,0,0
-700,99,0,0,0,0,0,0,0,0,0,-1,524,925,0,0
-693,99,0,0,0,0,0,0,0,0,0,-1,531,925,0,0
-686,99,0,0,0,0,0,0,0,0,0,-1,538,925,0,0
-679,99,-14.1528,0.24292,0,0,0,0,0,0,0,-1,545,925,-14.1528,-0.24294
-672,99,-13.7296,0.456299,0.0223259,-0.0334899,0.00223328,0.0224151,-0.0335791,0.0399265,0.0325417,0.0460748,552,925,-13.7296,-0.456274
-665,99,-13.1663,0.681946,0.0155043,-0.0323131,0.00351806,0.0157618,-0.0325706,0.0730484,0.0284616,0.0469621,559,925,-13.1663,-0.681922
-658,99,-12.5753,0.54187,0,0,0,0,0,0,0,-1,566,925,-12.5753,-0.541846
-651,99,-11.3897,1.80151,0,0,0,0,0,0,0,-1,573,925,-11.3897,-1.80151
-644,99,-12.2501,2.05414,0,0,0,0,0,0,0,-1,580,925,-12.2501,-2.05413
-637,99,-12.2675,1.99622,0.00210808,-0.0143193,0.0039568,0.00301146,-0.0152227,0.224463,0.011287,0.0314243,587,925,-12.2675,-1.99622
-630,99,-12.316,1.91559,0.00033398,-0.0104295,0.00360001,0.00142706,-0.0115225,0.294785,0.00819888,0.0139744,594,925,-12.316,-1.91561
-623,99,-12.3621,1.78894,-0.000925435,-0.00775746,0.00306696,0.000249347,-0.00893224,0.365804,0.00603966,0.00864569,601,925,-12.3621,-1.78892
-616,99,-12.3677,1.66504,-0.00241711,-0.00476592,0.0023357,-0.000977186,-0.00620584,0.552453,0.00385303,0.0095039,608,925,-12.3677,-1.66504
-609,99,-12.3524,1.55383,-0.00461909,-0.0023823,0.00228001,-0.000961158,-0.00604024,1.01342,0.00374775,0.00982574,615,925,-12.3524,-1.55381
-602,99,-12.3521,1.44873,-0.0063682,-0.000930005,0.00199922,-0.000274141,-0.00702407,1.2538,0.00459406,0.0108145,622,925,-12.3521,-1.44873
-595,99,-12.3969,1.34583,-0.00762227,-0.000436337,0.00159179,-9.95207e-05,-0.00795909,1.36228,0.0052732,0.0143841,629,925,-12.3969,-1.34581
-588,99,-12.3928,1.22137,-0.00849716,-0.000367241,0.00128389,-0.000169304,-0.0086951,1.41783,0.00574113,0.0138273,636,925,-12.3928,-1.22139
-581,99,-12.3268,1.07251,-0.00926563,-0.000420268,0.00113579,-0.000276756,-0.00940914,1.44511,0.00618258,0.0105902,643,925,-12.3269,-1.07249
-574,99,-12.4384,0.93689,-0.00993994,-0.00036228,0.00109127,-0.000239516,-0.0100627,1.45877,0.00663007,0.0170325,650,925,-12.4384,-0.936902
-567,99,-12.9374,0.813599,-0.0101382,-0.000216786,0.000978016,-0.000121297,-0.0102337,1.47347,0.00678241,0.0388715,657,925,-12.9374,-0.813616
-560,99,-13.4598,0.696777,0,0,0,0,0,0,0,-1,664,925,-13.4598,-0.696748
-553,99,-13.3336,1.11066,-0.00901627,0.000205318,0.000766874,0.000268656,-0.00907961,1.48839,0.00614459,0.0384661,671,925,-13.3336,-1.11065
-546,99,-13.2886,0.984009,-0.00748521,0.000610447,0.000551411,0.000647832,-0.0075226,1.5031,0.00524436,0.0417664,678,925,-13.2886,-0.983978
-539,99,-13.3462,0.830505,-0.00522413,0.00114654,0.000238999,0.0011555,-0.00523308,1.53335,0.00393091,0.0398879,685,925,-13.3462,-0.830523
-532,99,-13.3845,0.934265,-0.00226865,0.00180825,-0.000182964,0.00181645,-0.00227684,-1.52604,0.00236824,0.0432335,692,925,-13.3845,-0.934253
-525,99,-13.4216,0.904968,0.00123548,0.00260811,-0.000789432,0.00296785,0.000875737,-1.14322,0.00176081,0.0419749,699,925,-13.4216,-0.904984
-518,99,-13.4028,0.898865,0.00385639,0.0035996,-0.0015309,0.00526427,0.00219173,-0.743561,0.00305347,0.0393808,706,925,-13.4028,-0.898885
-511,99,0,0,0,0,0,0,0,0,0,-1,713,925,0,0
-504,99,0,0,0,0,0,0,0,0,0,-1,720,925,0,0
-497,99,0,0,0,0,0,0,0,0,0,-1,727,925,0,0
-490,99,0,0,0,0,0,0,0,0,0,-1,734,925,0,0
-483,99,0,0,0,0,0,0,0,0,0,-1,741,925,0,0
-476,99,0,0,0,0,0,0,0,0,0,-1,748,925,0,0
-469,99,0,0,0,0,0,0,0,0,0,-1,755,925,0,0
-462,99,0,0,0,0,0,0,0,0,0,-1,762,925,0,0
-455,99,0,0,0,0,0,0,0,0,0,-1,769,925,0,0
-448,99,0,0,0,0,0,0,0,0,0,-1,776,925,0,0
-441,99,0,0,0,0,0,0,0,0,0,-1,783,925,0,0
-434,99,0,0,0,0,0,0,0,0,0,-1,790,925,0,0
-427,99,0,0,0,0,0,0,0,0,0,-1,797,925,0,0
-420,99,0,0,0,0,0,0,0,0,0,-1,804,925,0,0
-413,99,0,0,0,0,0,0,0,0,0,-1,811,925,0,0
-406,99,0,0,0,0,0,0,0,0,0,-1,818,925,0,0
-399,99,0,0,0,0,0,0,0,0,0,-1,825,925,0,0
-392,99,0,0,0,0,0,0,0,0,0,-1,832,925,0,0
-385,99,0,0,0,0,0,0,0,0,0,-1,839,925,0,0
-378,99,0,0,0,0,0,0,0,0,0,-1,846,925,0,0
-371,99,0,0,0,0,0,0,0,0,0,-1,853,925,0,0
-364,99,0,0,0,0,0,0,0,0,0,-1,860,925,0,0
-357,99,0,0,0,0,0,0,0,0,0,-1,867,925,0,0
-350,99,0,0,0,0,0,0,0,0,0,-1,874,925,0,0
-343,99,0,0,0,0,0,0,0,0,0,-1,881,925,0,0
-336,99,0,0,0,0,0,0,0,0,0,-1,888,925,0,0
-329,99,0,0,0,0,0,0,0,0,0,-1,895,925,0,0
-322,99,0,0,0,0,0,0,0,0,0,-1,902,925,0,0
-315,99,0,0,0,0,0,0,0,0,0,-1,909,925,0,0
-308,99,0,0,0,0,0,0,0,0,0,-1,916,925,0,0
-301,99,0,0,0,0,0,0,0,0,0,-1,923,925,0,0
-294,99,0,0,0,0,0,0,0,0,0,-1,930,925,0,0
-287,99,0,0,0,0,0,0,0,0,0,-1,937,925,0,0
-280,99,0,0,0,0,0,0,0,0,0,-1,944,925,0,0
-273,99,0,0,0,0,0,0,0,0,0,-1,951,925,0,0
-266,99,0,0,0,0,0,0,0,0,0,-1,958,925,0,0
-259,99,0,0,0,0,0,0,0,0,0,-1,965,925,0,0
-252,99,0,0,0,0,0,0,0,0,0,-1,972,925,0,0
-245,99,0,0,0,0,0,0,0,0,0,-1,979,925,0,0
-238,99,0,0,0,0,0,0,0,0,0,-1,986,925,0,0
-231,99,0,0,0,0,0,0,0,0,0,-1,993,925,0,0
-224,99,0,0,0,0,0,0,0,0,0,-1,1000,925,0,0
-217,99,0,0,0,0,0,0,0,0,0,-1,1007,925,0,0
-210,99,0,0,0,0,0,0,0,0,0,-1,1014,925,0,0
-203,99,0,0,0,0,0,0,0,0,0,-1,1021,925,0,0
-196,99,0,0,0,0,0,0,0,0,0,-1,1028,925,0,0
-189,99,0,0,0,0,0,0,0,0,0,-1,1035,925,0,0
-182,99,0,0,0,0,0,0,0,0,0,-1,1042,925,0,0
-175,99,0,0,0,0,0,0,0,0,0,-1,1049,925,0,0
-168,99,0,0,0,0,0,0,0,0,0,-1,1056,925,0,0
-161,99,0,0,0,0,0,0,0,0,0,-1,1063,925,0,0
-154,99,0,0,0,0,0,0,0,0,0,-1,1070,925,0,0
-147,99,0,0,0,0,0,0,0,0,0,-1,1077,925,0,0
-140,99,0,0,0,0,0,0,0,0,0,-1,1084,925,0,0
-133,99,0,0,0,0,0,0,0,0,0,-1,1091,925,0,0
-126,99,0,0,0,0,0,0,0,0,0,-1,1098,925,0,0
-119,99,0,0,0,0,0,0,0,0,0,-1,1105,925,0,0
-112,99,0,0,0,0,0,0,0,0,0,-1,1112,925,0,0
-105,99,0,0,0,0,0,0,0,0,0,-1,1119,925,0,0
-98,99,0,0,0,0,0,0,0,0,0,-1,1126,925,0,0
-91,99,0,0,0,0,0,0,0,0,0,-1,1133,925,0,0
-84,99,0,0,0,0,0,0,0,0,0,-1,1140,925,0,0
-77,99,0,0,0,0,0,0,0,0,0,-1,1147,925,0,0
-70,99,0,0,0,0,0,0,0,0,0,-1,1154,925,0,0
-63,99,0,0,0,0,0,0,0,0,0,-1,1161,925,0,0
-56,99,0,0,0,0,0,0,0,0,0,-1,1168,925,0,0
-49,99,0,0,0,0,0,0,0,0,0,-1,1175,925,0,0
-42,99,0,0,0,0,0,0,0,0,0,-1,1182,925,0,0
-35,99,0,0,0,0,0,0,0,0,0,-1,1189,925,0,0
-28,99,0,0,0,0,0,0,0,0,0,-1,1196,925,0,0
-21,99,0,0,0,0,0,0,0,0,0,-1,1203,925,0,0
-14,99,0,0,0,0,0,0,0,0,0,-1,1210,925,0,0
-7,99,0,0,0,0,0,0,0,0,0,-1,1217,925,0,0
0,99,0,0,0,0,0,0,0,0,0,-1,1224,925,0,0
7,99,0,0,0,0,0,0,0,0,0,-1,1231,925,0,0
14,99,0,0,0,0,0,0,0,0,0,-1,1238,925,0,0
21,99,0,0,0,0,0,0,0,0,0,-1,1245,925,0,0
28,99,0,0,0,0,0,0,0,0,0,-1,1252,925,0,0
35,99,0,0,0,0,0,0,0,0,0,-1,1259,925,0,0
42,99,0,0,0,0,0,0,0,0,0,-1,1266,925,0,0
49,99,0,0,0,0,0,0,0,0,0,-1,1273,925,0,0
56,99,0,0,0,0,0,0,0,0,0,-1,1280,925,0,0
63,99,0,0,0,0,0,0,0,0,0,-1,1287,925,0,0
70,99,0,0,0,0,0,0,0,0,0,-1,1294,925,0,0
77,99,0,0,0,0,0,0,0,0,0,-1,1301,925,0,0
84,99,0,0,0,0,0,0,0,0,0,-1,1308,925,0,0
91,99,0,0,0,0,0,0,0,0,0,-1,1315,925,0,0
98,99,0,0,0,0,0,0,0,0,0,-1,1322,925,0,0
105,99,0,0,0,0,0,0,0,0,0,-1,1329,925,0,0
112,99,0,0,0,0,0,0,0,0,0,-1,1336,925,0,0
119,99,0,0,0,0,0,0,0,0,0,-1,1343,925,0,0
126,99,0,0,0,0,0,0,0,0,0,-1,1350,925,0,0
133,99,0,0,0,0,0,0,0,0,0,-1,1357,925,0,0
140,99,0,0,0,0,0,0,0,0,0,-1,1364,925,0,0
147,99,0,0,0,0,0,0,0,0,0,-1,1371,925,0,0
154,99,0,0,0,0,0,0,0,0,0,-1,1378,925,0,0
161,99,0,0,0,0,0,0,0,0,0,-1,1385,925,0,0
168,99,0,0,0,0,0,0,0,0,0,-1,1392,925,0,0
175,99,0,0,0,0,0,0,0,0,0,-1,1399,925,0,0
182,99,0,0,0,0,0,0,0,0,0,-1,1406,925,0,0
189,99,0,0,0,0,0,0,0,0,0,-1,1413,925,0,0
196,99,0,0,0,0,0,0,0,0,0,-1,1420,925,0,0
203,99,0,0,0,0,0,0,0,0,0,-1,1427,925,0,0
210,99,0,0,0,0,0,0,0,0,0,-1,1434,925,0,0
217,99,0,0,0,0,0,0,0,0,0,-1,1441,925,0,0
224,99,0,0,0,0,0,0,0,0,0,-1,1448,925,0,0
231,99,0,0,0,0,0,0,0,0,0,-1,1455,925,0,0
238,99,0,0,0,0,0,0,0,0,0,-1,1462,925,0,0
245,99,0,0,0,0,0,0,0,0,0,-1,1469,925,0,0
252,99,0,0,0,0,0,0,0,0,0,-1,1476,925,0,0
259,99,0,0,0,0,0,0,0,0,0,-1,1483,925,0,0
266,99,0,0,0,0,0,0,0,0,0,-1,1490,925,0,0
273,99,0,0,0,0,0,0,0,0,0,-1,1497,925,0,0
280,99,0,0,0,0,0,0,0,0,0,-1,1504,925,0,0
287,99,0,0,0,0,0,0,0,0,0,-1,1511,925,0,0
294,99,0,0,0,0,0,0,0,0,0,-1,1518,925,0,0
301,99,0,0,0,0,0,0,0,0,0,-1,1525,925,0,0
308,99,0,0,0,0,0,0,0,0,0,-1,1532,925,0,0
315,99,0,0,0,0,0,0,0,0,0,-1,1539,925,0,0
322,99,0,0,0,0,0,0,0,0,0,-1,1546,925,0,0
329,99,0,0,0,0,0,0,0,0,0,-1,1553,925,0,0
336,99,0,0,0,0,0,0,0,0,0,-1,1560,925,0,0
343,99,0,0,0,0,0,0,0,0,0,-1,1567,925,0,0
350,99,0,0,0,0,0,0,0,0,0,-1,1574,925,0,0
357,99,0,0,0,0,0,0,0,0,0,-1,1581,925,0,0
364,99,0,0,0,0,0,0,0,0,0,-1,1588,925,0,0
371,99,0,0,0,0,0,0,0,0,0,-1,1595,925,0,0
378,99,0,0,0,0,0,0,0,0,0,-1,1602,925,0,0
385,99,0,0,0,0,0,0,0,0,0,-1,1609,925,0,0
392,99,0,0,0,0,0,0,0,0,0,-1,1616,925,0,0
399,99,0,0,0,0,0,0,0,0,0,-1,1623,925,0,0
406,99,0,0,0,0,0,0,0,0,0,-1,1630,925,0,0
413,99,0,0,0,0,0,0,0,0,0,-1,1637,925,0,0
420,99,0,0,0,0,0,0,0,0,0,-1,1644,925,0,0
427,99,0,0,0,0,0,0,0,0,0,-1,1651,925,0,0
434,99,0,0,0,0,0,0,0,0,0,-1,1658,925,0,0
441,99,0,0,0,0,0,0,0,0,0,-1,1665,925,0,0
448,99,0,0,0,0,0,0,0,0,0,-1,1672,925,0,0
455,99,0,0,0,0,0,0,0,0,0,-1,1679,925,0,0
462,99,0,0,0,0,0,0,0,0,0,-1,1686,925,0,0
469,99,0,0,0,0,0,0,0,0,0,-1,1693,925,0,0
476,99,0,0,0,0,0,0,0,0,0,-1,1700,925,0,0
483,99,0,0,0,0,0,0,0,0,0,-1,1707,925,0,0
490,99,0,0,0,0,0,0,0,0,0,-1,1714,925,0,0
497,99,0,0,0,0,0,0,0,0,0,-1,1721,925,0,0
504,99,0,0,0,0,0,0,0,0,0,-1,1728,925,0,0
511,99,0,0,0,0,0,0,0,0,0,-1,1735,925,0,0
518,99,0,0,0,0,0,0,0,0,0,-1,1742,925,0,0
525,99,0,0,0,0,0,0,0,0,0,-1,1749,925,0,0
532,99,0,0,0,0,0,0,0,0,0,-1,1756,925,0,0
539,99,0,0,0,0,0,0,0,0,0,-1,1763,925,0,0
546,99,0,0,0,0,0,0,0,0,0,-1,1770,925,0,0
553,99,0,0,0,0,0,0,0,0,0,-1,1777,925,0,0
560,99,0,0,0,0,0,0,0,0,0,-1,1784,925,0,0
567,99,0,0,0,0,0,0,0,0,0,-1,1791,925,0,0
574,99,0,0,0,0,0,0,0,0,0,-1,1798,925,0,0
581,99,0,0,0,0,0,0,0,0,0,-1,1805,925,0,0
588,99,0,0,0,0,0,0,0,0,0,-1,1812,925,0,0
595,99,0,0,0,0,0,0,0,0,0,-1,1819,925,0,0
602,99,0,0,0,0,0,0,0,0,0,-1,1826,925,0,0
609,99,0,0,0,0,0,0,0,0,0,-1,1833,925,0,0
616,99,0,0,0,0,0,0,0,0,0,-1,1840,925,0,0
623,99,0,0,0,0,0,0,0,0,0,-1,1847,925,0,0
630,99,0,0,0,0,0,0,0,0,0,-1,1854,925,0,0
637,99,20.8903,2.96997,-0.000290902,0.00453635,0.000323929,0.00455799,-0.000312542,1.50409,0.00314801,0.0440449,1861,925,20.8903,-2.96998
644,99,20.848,2.93274,7.63228e-05,0.0040627,0.000165544,0.00406956,6.94599e-05,1.52936,0.00269019,0.0377684,1868,925,20.848,-2.93273
651,99,20.7737,2.73236,-0.00104783,0.00372631,-0.000112246,0.00372895,-0.00105047,-1.5473,0.00290024,0.0361723,1875,925,20.7736,-2.73235
658,99,20.8394,2.53052,0,0,0,0,0,0,0,-1,1882,925,20.8393,-2.53052
665,99,20.8765,2.80096,-0.00669684,0.00315155,-0.000493181,0.00317618,-0.00672148,-1.52089,0.00583533,0.0405817,1889,925,20.8764,-2.80097
672,99,20.899,3.08862,-0.00940401,0.00283211,-0.000590916,0.00286058,-0.00943248,-1.52265,0.00742778,0.0412886,1896,925,20.8991,-3.0886
679,99,20.8076,2.95612,-0.0116286,0.00245474,-0.00064646,0.00248435,-0.0116582,-1.52502,0.00871903,0.0382931,1903,925,20.8076,-2.95609
686,99,20.7273,2.80933,-0.0133515,0.00220049,-0.000787984,0.00224031,-0.0133913,-1.5203,0.00976042,0.0310889,1910,925,20.7273,-2.8093
693,99,20.7482,2.67822,-0.0143769,0.00189549,-0.000773622,0.00193218,-0.0144136,-1.5234,0.0103136,0.0260533,1917,925,20.7482,-2.67822
700,99,20.5549,2.73267,0,0,0,0,0,0,0,-1,1924,925,20.5549,-2.73265
707,99,19.4767,3.17236,-0.0145068,0.00147828,-0.000568211,0.00149845,-0.014527,-1.53531,0.0102208,0.0406505,1931,925,19.4767,-3.17236
714,99,19.1014,3.362,-0.0136593,0.00131104,-0.000595948,0.00133472,-0.013683,-1.53107,0.00959786,0.018575,1938,925,19.1015,-3.36199
721,99,19.0571,3.47845,-0.0120595,0.00133319,-0.000682061,0.00136783,-0.0120942,-1.52004,0.00855525,0.0202248,1945,925,19.0572,-3.47846
728,99,19.1061,3.64978,-0.00988494,0.00172928,-0.000582479,0.00175842,-0.00991408,-1.52081,0.00726679,0.0171535,1952,925,19.1061,-3.64976
735,99,19.0994,3.79547,-0.00781968,0.0030114,-0.00107972,0.00311799,-0.00792626,-1.4724,0.00657475,0.014283,1959,925,19.0993,-3.79549
742,99,19.0742,3.92938,-0.00599417,0.0053009,-0.00205748,0.00566401,-0.00635728,-1.39611,0.00694434,0.0111303,1966,925,19.0742,-3.92941
749,99,19.0482,4.06854,-0.00425446,0.00790395,-0.00290496,0.00856237,-0.00491287,-1.34791,0.00787447,0.00953288,1973,925,19.0482,-4.06854
756,99,19.0129,4.17242,-0.00355165,0.011912,-0.00450167,0.013127,-0.00476667,-1.30717,0.0107002,0.0106071,1980,925,19.013,-4.17245
763,99,19.0007,4.28436,-0.00386881,0.0168442,-0.00656914,0.0187519,-0.00577652,-1.28817,0.0148073,0.0131074,1987,925,19.0007,-4.28433
770,99,19.0614,4.45258,-0.00569352,0.0231468,-0.00926291,0.0258655,-0.00841228,-1.2853,0.0206277,0.0254689,1994,925,19.0614,-4.45258
777,99,21.8717,3.24127,0,0,0,0,0,0,0,-1,2001,925,21.8717,-3.2413
784,99,21.0894,2.47272,-0.0119186,0.0397735,-0.016678,0.0446874,-0.0168325,-1.28427,0.0367121,0.042849,2008,925,21.0893,-2.47272
791,99,20.3182,1.66858,-0.0161728,0.0502124,-0.0215211,0.0565787,-0.0225391,-1.28318,0.0470668,0.0459094,2015,925,20.3182,-1.66856
798,99,19.5604,0.958252,0,0,0,0,0,0,0,-1,2022,925,19.5604,-0.958258
805,99,0,0,0,0,0,0,0,0,0,-1,2029,925,0,0
812,99,0,0,0,0,0,0,0,0,0,-1,2036,925,0,0
-700,92,0,0,0,0,0,0,0,0,0,-1,524,932,0,0
-693,92,0,0,0,0,0,0,0,0,0,-1,531,932,0,0
-686,92,-12.2161,1.34747,0,0,0,0,0,0,0,-1,538,932,-12.2161,-1.34748
-679,92,-12.3016,1.23346,0,0,0,0,0,0,0,-1,545,932,-12.3016,-1.23344
-672,92,-12.7206,1.05328,0,0,0,0,0,0,0,-1,552,932,-12.7207,-1.05329
-665,92,-12.5936,1.03467,0.0248096,-0.0258136,-0.000559157,0.0248158,-0.0258198,-0.0110437,0.0292364,0.0492364,559,932,-12.5935,-1.03465
-658,92,-12.4292,1.00085,0.0169359,-0.0233405,0.00118305,0.0169706,-0.0233753,0.0293396,0.0233913,0.0465728,566,932,-12.4292,-1.00087
-651,92,-12.2716,1.35004,0.0111015,-0.019708,0.00222275,0.011261,-0.0198676,0.0716504,0.0181996,0.0477374,573,932,-12.2716,-1.35006
-644,92,-12.3313,1.60809,0.00690539,-0.0157029,0.00273956,0.00723262,-0.0160301,0.118883,0.0137472,0.0452078,580,932,-12.3313,-1.60807
-637,92,-12.4028,1.96173,0.0039442,-0.0118728,0.00286235,0.00444625,-0.0123749,0.173633,0.0100649,0.0257002,587,932,-12.4027,-1.96176
-630,92,-12.4377,1.8938,0.00123795,-0.00870081,0.00287083,0.0020076,-0.00947046,0.261932,0.00707838,0.0123521,594,932,-12.4378,-1.89379
-623,92,-12.468,1.77667,-0.00054959,-0.00645695,0.00248469,0.000356512,-0.00736305,0.349687,0.00503175,0.00894021,601,932,-12.468,-1.77669
-616,92,-12.4848,1.65356,-0.00242365,-0.00397256,0.00201674,-0.00103777,-0.00535843,0.602074,0.00328153,0.00844348,608,932,-12.4848,-1.65356
-609,92,-12.4918,1.54785,-0.00461888,-0.00192071,0.00188925,-0.000948313,-0.00559128,1.09546,0.00345507,0.00872914,615,932,-12.4918,-1.54785
-602,92,-12.4796,1.44708,-0.00624047,-0.000591099,0.00153849,-0.000199296,-0.00663228,1.32143,0.0043566,0.00917141,622,932,-12.4795,-1.44709
-595,92,-12.4448,1.32837,-0.00734998,-6.51954e-05,0.00105249,8.38179e-05,-0.007499,1.43015,0.0050275,0.0148947,629,932,-12.4449,-1.32836
-588,92,-12.447,1.22076,-0.00807952,2.17632e-05,0.000704913,8.26418e-05,-0.0081404,1.48465,0.00545469,0.016434,636,932,-12.4469,-1.22076
-581,92,-12.4521,1.10364,-0.00866689,-2.79161e-05,0.000494608,3.09199e-07,-0.00869511,1.51379,0.00579685,0.0138682,643,932,-12.4522,-1.10362
-574,92,-12.682,1.00372,-0.00914223,7.38322e-05,0.000391351,9.04212e-05,-0.00915882,1.52843,0.00613624,0.0229314,650,932,-12.682,-1.00371
-567,92,-13.1461,0.767212,-0.00916733,0.000272434,0.000241786,0.000278623,-0.00917352,1.54521,0.00621064,0.0414424,657,932,-13.1461,-0.767238
-560,92,-13.3149,0.824768,-0.00870256,0.000473663,0.000102032,0.000474798,-0.0087037,1.55968,0.00596703,0.036511,664,932,-13.3149,-0.824759
-553,92,-13.2669,0.985779,-0.00766424,0.000817205,-7.30653e-05,0.000817834,-0.00766486,-1.56218,0.00540319,0.0393413,671,932,-13.2669,-0.98578
-546,92,-13.195,1.05182,-0.00598166,0.00123996,-0.000302362,0.00125259,-0.0059943,-1.52902,0.00447258,0.0411478,678,932,-13.195,-1.05179
-539,92,-13.3888,0.831665,-0.00366479,0.00175693,-0.000595865,0.00182164,-0.00372951,-1.46261,0.00326745,0.0375068,685,932,-13.3888,-0.831661
-532,92,-13.4624,0.983643,-0.000800084,0.00235762,-0.000976257,0.00263507,-0.00107753,-1.2939,0.00220545,0.0430075,692,932,-13.4624,-0.98363
-525,92,-13.4041,1.0506,0.00228577,0.0030699,-0.00153729,0.00426433,0.00109134,-0.910256,0.00255793,0.0433879,699,932,-13.4041,-1.05061
-518,92,-13.284,1.11115,0.00382866,0.00394724,-0.00223592,0.00612466,0.00165125,-0.798653,0.00365907,0.0424561,706,932,-13.284,-1.11117
-511,92,0,0,0,0,0,0,0,0,0,-1,713,932,0,0
-504,92,0,0,0,0,0,0,0,0,0,-1,720,932,0,0
-497,92,0,0,0,0,0,0,0,0,0,-1,727,932,0,0
-490,92,0,0,0,0,0,0,0,0,0,-1,734,932,0,0
-483,92,0,0,0,0,0,0,0,0,0,-1,741,932,0,0
-476,92,0,0,0,0,0,0,0,0,0,-1,748,932,0,0
-469,92,0,0,0,0,0,0,0,0,0,-1,755,932,0,0
-462,92,0,0,0,0,0,0,0,0,0,-1,762,932,0,0
-455,92,0,0,0,0,0,0,0,0,0,-1,769,932,0,0
-448,92,0,0,0,0,0,0,0,0,0,-1,776,932,0,0
-441,92,0,0,0,0,0,0,0,0,0,-1,783,932,0,0
-434,92,0,0,0,0,0,0,0,0,0,-1,790,932,0,0
-427,92,0,0,0,0,0,0,0,0,0,-1,797,932,0,0
-420,92,0,0,0,0,0,0,0,0,0,-1,804,932,0,0
-413,92,0,0,0,0,0,0,0,0,0,-1,811,932,0,0
-406,92,0,0,0,0,0,0,0,0,0,-1,818,932,0,0
-399,92,0,0,0,0,0,0,0,0,0,-1,825,932,0,0
-392,92,0,0,0,0,0,0,0,0,0,-1,832,932,0,0
-385,92,0,0,0,0,0,0,0,0,0,-1,839,932,0,0
-378,92,0,0,0,0,0,0,0,0,0,-1,846,932,0,0
-371,92,0,0,0,0,0,0,0,0,0,-1,853,932,0,0
-364,92,0,0,0,0,0,0,0,0,0,-1,860,932,0,0
-357,92,0,0,0,0,0,0,0,0,0,-1,867,932,0,0
-350,92,0,0,0,0,0,0,0,0,0,-1,874,932,0,0
-343,92,0,0,0,0,0,0,0,0,0,-1,881,932,0,0
-336,92,0,0,0,0,0,0,0,0,0,-1,888,932,0,0
-329,92,0,0,0,0,0,0,0,0,0,-1,895,932,0,0
-322,92,0,0,0,0,0,0,0,0,0,-1,902,932,0,0
-315,92,0,0,0,0,0,0,0,0,0,-1,909,932,0,0
-308,92,0,0,0,0,0,0,0,0,0,-1,916,932,0,0
-301,92,0,0,0,0,0,0,0,0,0,-1,923,932,0,0
-294,92,0,0,0,0,0,0,0,0,0,-1,930,932,0,0
-287,92,0,0,0,0,0,0,0,0,0,-1,937,932,0,0
-280,92,0,0,0,0,0,0,0,0,0,-1,944,932,0,0
-273,92,0,0,0,0,0,0,0,0,0,-1,951,932,0,0
-266,92,0,0,0,0,0,0,0,0,0,-1,958,932,0,0
-259,92,0,0,0,0,0,0,0,0,0,-1,965,932,0,0
-252,92,0,0,0,0,0,0,0,0,0,-1,972,932,0,0
-245,92,0,0,0,0,0,0,0,0,0,-1,979,932,0,0
-238,92,0,0,0,0,0,0,0,0,0,-1,986,932,0,0
-231,92,0,0,0,0,0,0,0,0,0,-1,993,932,0,0
-224,92,0,0,0,0,0,0,0,0,0,-1,1000,932,0,0
-217,92,0,0,0,0,0,0,0,0,0,-1,1007,932,0,0
-210,92,0,0,0,0,0,0,0,0,0,-1,1014,932,0,0
-203,92,0,0,0,0,0,0,0,0,0,-1,1021,932,0,0
-196,92,0,0,0,0,0,0,0,0,0,-1,1028,932,0,0
-189,92,0,0,0,0,0,0,0,0,0,-1,1035,932,0,0
-182,92,0,0,0,0,0,0,0,0,0,-1,1042,932,0,0
-175,92,0,0,0,0,0,0,0,0,0,-1,1049,932,0,0
-168,92,0,0,0,0,0,0,0,0,0,-1,1056,932,0,0
-161,92,0,0,0,0,0,0,0,0,0,-1,1063,932,0,0
-154,92,0,0,0,0,0,0,0,0,0,-1,1070,932,0,0
-147,92,0,0,0,0,0,0,0,0,0,-1,1077,932,0,0
-140,92,0,0,0,0,0,0,0,0,0,-1,1084,932,0,0
-133,92,0,0,0,0,0,0,0,0,0,-1,1091,932,0,0
-126,92,0,0,0,0,0,0,0,0,0,-1,1098,932,0,0
-119,92,0,0,0,0,0,0,0,0,0,-1,1105,932,0,0
-112,92,0,0,0,0,0,0,0,0,0,-1,1112,932,0,0
-105,92,0,0,0,0,0,0,0,0,0,-1,1119,932,0,0
-98,92,0,0,0,0,0,0,0,0,0,-1,1126,932,0,0
-91,92,0,0,0,0,0,0,0,0,0,-1,1133,932,0,0
-84,92,0,0,0,0,0,0,0,0,0,-1,1140,932,0,0
-77,92,0,0,0,0,0,0,0,0,0,-1,1147,932,0,0
-70,92,0,0,0,0,0,0,0,0,0,-1,1154,932,0,0
-63,92,0,0,0,0,0,0,0,0,0,-1,1161,932,0,0
-56,92,0,0,0,0,0,0,0,0,0,-1,1168,932,0,0
-49,92,0,0,0,0,0,0,0,0,0,-1,1175,932,0,0
-42,92,0,0,0,0,0,0,0,0,0,-1,1182,932,0,0
-35,92,0,0,0,0,0,0,0,0,0,-1,1189,932,0,0
-28,92,0,0,0,0,0,0,0,0,0,-1,1196,932,0,0
-21,92,0,0,0,0,0,0,0,0,0,-1,1203,932,0,0
-14,92,0,0,0,0,0,0,0,0,0,-1,1210,932,0,0
-7,92,0,0,0,0,0,0,0,0,0,-1,1217,932,0,0
0,92,0,0,0,0,0,0,0,0,0,-1,1224,932,0,0
7,92,0,0,0,0,0,0,0,0,0,-1,1231,932,0,0
14,92,0,0,0,0,0,0,0,0,0,-1,1238,932,0,0
21,92,0,0,0,0,0,0,0,0,0,-1,1245,932,0,0
28,92,0,0,0,0,0,0,0,0,0,-1,1252,932,0,0
35,92,0,0,0,0,0,0,0,0,0,-1,1259,932,0,0
42,92,0,0,0,0,0,0,0,0,0,-1,1266,932,0,0
49,92,0,0,0,0,0,0,0,0,0,-1,1273,932,0,0
56,92,0,0,0,0,0,0,0,0,0,-1,1280,932,0,0
63,92,0,0,0,0,0,0,0,0,0,-1,1287,932,0,0
70,92,0,0,0,0,0,0,0,0,0,-1,1294,932,0,0
77,92,0,0,0,0,0,0,0,0,0,-1,1301,932,0,0
84,92,0,0,0,0,0,0,0,0,0,-1,1308,932,0,0
91,92,0,0,0,0,0,0,0,0,0,-1,1315,932,0,0
98,92,0,0,0,0,0,0,0,0,0,-1,1322,932,0,0
105,92,0,0,0,0,0,0,0,0,0,-1,1329,932,0,0
112,92,0,0,0,0,0,0,0,0,0,-1,1336,932,0,0
119,92,0,0,0,0,0,0,0,0,0,-1,1343,932,0,0
126,92,0,0,0,0,0,0,0,0,0,-1,1350,932,0,0
133,92,0,0,0,0,0,0,0,0,0,-1,1357,932,0,0
140,92,0,0,0,0,0,0,0,0,0,-1,1364,932,0,0
147,92,0,0,0,0,0,0,0,0,0,-1,1371,932,0,0
154,92,0,0,0,0,0,0,0,0,0,-1,1378,932,0,0
161,92,0,0,0,0,0,0,0,0,0,-1,1385,932,0,0
168,92,0,0,0,0,0,0,0,0,0,-1,1392,932,0,0
175,92,0,0,0,0,0,0,0,0,0,-1,1399,932,0,0
182,92,0,0,0,0,0,0,0,0,0,-1,1406,932,0,0
189,92,0,0,0,0,0,0,0,0,0,-1,1413,932,0,0
196,92,0,0,0,0,0,0,0,0,0,-1,1420,932,0,0
203,92,0,0,0,0,0,0,0,0,0,-1,1427,932,0,0
210,92,0,0,0,0,0,0,0,0,0,-1,1434,932,0,0
217,92,0,0,0,0,0,0,0,0,0,-1,1441,932,0,0
224,92,0,0,0,0,0,0,0,0,0,-1,1448,932,0,0
231,92,0,0,0,0,0,0,0,0,0,-1,1455,932,0,0
238,92,0,0,0,0,0,0,0,0,0,-1,1462,932,0,0
245,92,0,0,0,0,0,0,0,0,0,-1,1469,932,0,0
252,92,0,0,0,0,0,0,0,0,0,-1,1476,932,0,0
259,92,0,0,0,0,0,0,0,0,0,-1,1483,932,0,0
266,92,0,0,0,0,0,0,0,0,0,-1,1490,932,0,0
273,92,0,0,0,0,0,0,0,0,0,-1,1497,932,0,0
280,92,0,0,0,0,0,0,0,0,0,-1,1504,932,0,0
287,92,0,0,0,0,0,0,0,0,0,-1,1511,932,0,0
294,92,0,0,0,0,0,0,0,0,0,-1,1518,932,0,0
301,92,0,0,0,0,0,0,0,0,0,-1,1525,932,0,0
308,92,0,0,0,0,0,0,0,0,0,-1,1532,932,0,0
315,92,0,0,0,0,0,0,0,0,0,-1,1539,932,0,0
322,92,0,0,0,0,0,0,0,0,0,-1,1546,932,0,0
329,92,0,0,0,0,0,0,0,0,0,-1,1553,932,0,0
336,92,0,0,0,0,0,0,0,0,0,-1,1560,932,0,0
343,92,0,0,0,0,0,0,0,0,0,-1,1567,932,0,0
350,92,0,0,0,0,0,0,0,0,0,-1,1574,932,0,0
357,92,0,0,0,0,0,0,0,0,0,-1,1581,932,0,0
364,92,0,0,0,0,0,0,0,0,0,-1,1588,932,0,0
371,92,0,0,0,0,0,0,0,0,0,-1,1595,932,0,0
378,92,0,0,0,0,0,0,0,0,0,-1,1602,932,0,0
385,92,0,0,0,0,0,0,0,0,0,-1,1609,932,0,0
392,92,0,0,0,0,0,0,0,0,0,-1,1616,932,0,0
399,92,0,0,0,0,0,0,0,0,0,-1,1623,932,0,0
406,92,0,0,0,0,0,0,0,0,0,-1,1630,932,0,0
413,92,0,0,0,0,0,0,0,0,0,-1,1637,932,0,0
420,92,0,0,0,0,0,0,0,0,0,-1,1644,932,0,0
427,92,0,0,0,0,0,0,0,0,0,-1,1651,932,0,0
434,92,0,0,0,0,0,0,0,0,0,-1,1658,932,0,0
441,92,0,0,0,0,0,0,0,0,0,-1,1665,932,0,0
448,92,0,0,0,0,0,0,0,0,0,-1,1672,932,0,0
455,92,0,0,0,0,0,0,0,0,0,-1,1679,932,0,0
462,92,0,0,0,0,0,0,0,0,0,-1,1686,932,0,0
469,92,0,0,0,0,0,0,0,0,0,-1,1693,932,0,0
476,92,0,0,0,0,0,0,0,0,0,-1,1700,932,0,0
483,92,0,0,0,0,0,0,0,0,0,-1,1707,932,0,0
490,92,0,0,0,0,0,0,0,0,0,-1,1714,932,0,0
497,92,0,0,0,0,0,0,0,0,0,-1,1721,932,0,0
504,92,0,0,0,0,0,0,0,0,0,-1,1728,932,0,0
511,92,0,0,0,0,0,0,0,0,0,-1,1735,932,0,0
518,92,0,0,0,0,0,0,0,0,0,-1,1742,932,0,0
525,92,0,0,0,0,0,0,0,0,0,-1,1749,932,0,0
532,92,0,0,0,0,0,0,0,0,0,-1,1756,932,0,0
539,92,0,0,0,0,0,0,0,0,0,-1,1763,932,0,0
546,92,0,0,0,0,0,0,0,0,0,-1,1770,932,0,0
553,92,0,0,0,0,0,0,0,0,0,-1,1777,932,0,0
560,92,0,0,0,0,0,0,0,0,0,-1,1784,932,0,0
567,92,0,0,0,0,0,0,0,0,0,-1,1791,932,0,0
574,92,0,0,0,0,0,0,0,0,0,-1,1798,932,0,0
581,92,0,0,0,0,0,0,0,0,0,-1,1805,932,0,0
588,92,0,0,0,0,0,0,0,0,0,-1,1812,932,0,0
595,92,0,0,0,0,0,0,0,0,0,-1,1819,932,0,0
602,92,0,0,0,0,0,0,0,0,0,-1,1826,932,0,0
609,92,0,0,0,0,0,0,0,0,0,-1,1833,932,0,0
616,92,0,0,0,0,0,0,0,0,0,-1,1840,932,0,0
623,92,0,0,0,0,0,0,0,0,0,-1,1847,932,0,0
630,92,0,0,0,0,0,0,0,0,0,-1,1854,932,0,0
637,92,20.8899,2.84442,-0.000237906,0.00357405,0.000551646,0.00365228,-0.000316132,1.42993,0.00254678,0.0442147,1861,932,20.8899,-2.84439
644,92,20.8506,2.75214,0.000252017,0.00337661,0.000400255,0.00342707,0.00020156,1.4454,0.00222057,0.0384926,1868,932,20.8506,-2.75216
651,92,20.7957,2.62671,-0.000530873,0.00319549,0.000157355,0.00320213,-0.000537506,1.52867,0.00233464,0.0380376,1875,932,20.7957,-2.6267
658,92,20.8007,2.5639,-0.00265621,0.00301201,-2.18746e-05,0.00301209,-0.0026563,-1.56694,0.00327479,0.0412289,1882,932,20.8007,-2.56388
665,92,20.8608,2.74103,-0.00562501,0.00284908,-0.000110155,0.00285051,-0.00562644,-1.5578,0.00498087,0.042226,1889,932,20.8609,-2.74102
672,92,20.9041,2.96777,-0.00833542,0.00262216,-0.000154717,0.00262435,-0.00833761,-1.55668,0.00660921,0.0405977,1896,932,20.904,-2.96777
679,92,20.7866,2.96545,-0.0106218,0.00233991,-0.000168781,0.0023421,-0.010624,-1.55778,0.00797878,0.0381992,1903,932,20.7866,-2.96545
686,92,20.7344,2.8584,-0.0124086,0.002144,-0.000278389,0.00214932,-0.0124139,-1.55168,0.00907759,0.0302392,1910,932,20.7343,-2.8584
693,92,20.738,2.82422,-0.0135177,0.00185468,-0.000276203,0.00185965,-0.0135226,-1.55284,0.00969461,0.0240068,1917,932,20.738,-2.82423
700,92,20.7732,2.65253,0,0,0,0,0,0,0,-1,1924,932,20.7732,-2.65253
707,92,19.7769,3.19617,-0.0139152,0.00150765,-0.000134867,0.00150883,-0.0139164,-1.56205,0.00981926,0.0452322,1931,932,19.7768,-3.19616
714,92,19.123,3.4386,-0.0133011,0.00138411,-0.000202558,0.00138691,-0.0133039,-1.55701,0.00936587,0.0352969,1938,932,19.1231,-3.43859
721,92,19.2504,3.53119,-0.0119806,0.00139906,-0.000357053,0.00140858,-0.0119901,-1.54414,0.00850193,0.0244962,1945,932,19.2503,-3.53116
728,92,19.2028,3.68549,-0.010208,0.00165692,-0.000356026,0.00166759,-0.0102187,-1.54083,0.00743097,0.0189823,1952,932,19.2028,-3.68547
735,92,19.2089,3.80194,-0.00866078,0.00269888,-0.000856733,0.00276313,-0.00872503,-1.49594,0.00692402,0.0151353,1959,932,19.2088,-3.80195
742,92,19.2268,3.90698,-0.0073518,0.00473787,-0.00177906,0.00499423,-0.00760816,-1.42768,0.00732798,0.0144585,1966,932,19.2269,-3.90698
749,92,19.1943,4.04053,-0.006201,0.00701532,-0.00258556,0.00750314,-0.00668882,-1.38432,0.00819822,0.0127953,1973,932,19.1943,-4.04054
756,92,19.141,4.16199,-0.00605787,0.0105981,-0.00408382,0.0115455,-0.00700528,-1.34284,0.0108167,0.0127589,1980,932,19.141,-4.162
763,92,19.1443,4.28131,-0.00690379,0.0150296,-0.00596572,0.0165472,-0.00842141,-1.32169,0.0146679,0.0149653,1987,932,19.1443,-4.28132
770,92,19.1606,4.42413,-0.00942272,0.020781,-0.00839337,0.0229567,-0.0115984,-1.31716,0.0203065,0.0227859,1994,932,19.1606,-4.42415
777,92,19.2397,4.51953,-0.0129848,0.0277081,-0.0113827,0.0306757,-0.0159524,-1.31576,0.0273644,0.0406757,2001,932,19.2397,-4.51951
784,92,21.9072,1.55634,0,0,0,0,0,0,0,-1,2008,932,21.9073,-1.55631
791,92,21.0906,0.687195,0,0,0,0,0,0,0,-1,2015,932,21.0906,-0.687212
798,92,20.328,0.0355835,0,0,0,0,0,0,0,-1,2022,932,20.328,-0.0355806
805,92,0,0,0,0,0,0,0,0,0,-1,2029,932,0,0
812,92,0,0,0,0,0,0,0,0,0,-1,2036,932,0,0
-700,85,0,0,0,0,0,0,0,0,0,-1,524,939,0,0
-693,85,0,0,0,0,0,0,0,0,0,-1,531,939,0,0
-686,85,-12.1868,1.83136,0,0,0,0,0,0,0,-1,538,939,-12.1868,-1.83136
-679,85,-12.3185,1.724,0,0,0,0,0,0,0,-1,545,939,-12.3185,-1.72399
-672,85,-12.491,1.57806,0,0,0,0,0,0,0,-1,552,939,-12.4911,-1.57804
-665,85,-12.4444,1.49701,0.0280035,-0.0228312,-0.00145812,0.0280453,-0.022873,-0.0286522,0.0294482,0.0452273,559,939,-12.4444,-1.49701
-658,85,-12.2473,1.48859,0.0195614,-0.0202028,0.000478515,0.0195671,-0.0202086,0.0120315,0.0229655,0.0489672,566,939,-12.2472,-1.48859
-651,85,-12.3054,1.6778,0.0130466,-0.016854,0.00168823,0.0131416,-0.016949,0.0562233,0.0174191,0.0427782,573,939,-12.3054,-1.67777
-644,85,-12.4828,1.94458,0.0082418,-0.013319,0.00233124,0.00849099,-0.0135682,0.106484,0.0128478,0.0322727,580,939,-12.4829,-1.9446
-637,85,-12.5468,1.94885,0.0048413,-0.00992375,0.00254407,0.00526736,-0.0103498,0.165932,0.00917435,0.0164558,587,939,-12.5467,-1.94885
-630,85,-12.5567,1.8551,0.00160792,-0.00728149,0.0026674,0.00234689,-0.00802045,0.270258,0.00627725,0.0102698,594,939,-12.5567,-1.85512
-623,85,-12.5793,1.75189,-0.000461893,-0.00533757,0.00222993,0.000404154,-0.00620362,0.370444,0.00427683,0.00902952,601,939,-12.5794,-1.75186
-616,85,-12.6046,1.65167,-0.00242934,-0.00319725,0.00170768,-0.00106298,-0.00456361,0.674817,0.00275725,0.00896796,608,939,-12.6045,-1.65165
-609,85,-12.6181,1.54675,-0.00455094,-0.00146563,0.00149392,-0.000860828,-0.00515574,1.18612,0.00318918,0.0116675,615,939,-12.6181,-1.54673
-602,85,-12.616,1.44476,-0.00606537,-0.000289418,0.00109651,-8.82596e-05,-0.00626653,1.38936,0.00414858,0.0147032,622,939,-12.616,-1.44474
-595,85,-12.5801,1.36536,-0.00709292,0.000217641,0.000582122,0.000263704,-0.00713898,1.49183,0.00484961,0.0149409,629,939,-12.5801,-1.36538
-588,85,-12.5728,1.25867,-0.0077199,0.000309972,0.000228957,0.000316495,-0.00772642,1.54231,0.00525962,0.0149462,636,939,-12.5728,-1.25866
-581,85,-12.5709,1.16577,-0.0081627,0.000276666,-2.0944e-06,0.000276666,-0.00816271,-1.57055,0.00553633,0.0162517,643,939,-12.5709,-1.1658
-574,85,-12.8153,1.10516,-0.00849073,0.000395333,-0.000126238,0.000397127,-0.00849253,-1.55659,0.0057986,0.0278302,650,939,-12.8153,-1.10514
-567,85,-13.2724,0.965515,-0.00838466,0.000616878,-0.000261822,0.000624486,-0.00839227,-1.54174,0.0058142,0.038675,657,939,-13.2724,-0.96549
-560,85,-13.3254,0.836914,-0.00776356,0.000848976,-0.000372013,0.000865015,-0.0077796,-1.52771,0.00549747,0.0363623,664,939,-13.3254,-0.836909
-553,85,-13.2481,0.820923,-0.00655078,0.00117016,-0.000496094,0.0012019,-0.00658252,-1.50689,0.004839,0.0391979,671,939,-13.2481,-0.820914
-546,85,-13.3807,0.669128,-0.00471198,0.00156379,-0.000654416,0.0016313,-0.00477949,-1.46799,0.00384717,0.0396162,678,939,-13.3807,-0.669133
-539,85,-13.3735,0.83136,-0.00229098,0.002018,-0.000854865,0.0021814,-0.00245438,-1.38193,0.00267801,0.0381253,685,939,-13.3735,-0.831381
-532,85,-13.3145,0.968079,0.000579863,0.00251977,-0.00114147,0.00304774,5.1894e-05,-1.13757,0.00201475,0.0404573,692,939,-13.3145,-0.968108
-525,85,-13.1918,0.99408,0.00339063,0.00310627,-0.00162784,0.00488249,0.00161442,-0.741837,0.00287229,0.0406423,699,939,-13.1918,-0.994108
-518,85,-13.1382,1.07037,0.00415464,0.00380003,-0.00231391,0.00629803,0.00165665,-0.74716,0.00376982,0.040517,706,939,-13.1382,-1.07039
-511,85,0,0,0,0,0,0,0,0,0,-1,713,939,0,0
-504,85,0,0,0,0,0,0,0,0,0,-1,720,939,0,0
-497,85,0,0,0,0,0,0,0,0,0,-1,727,939,0,0
-490,85,0,0,0,0,0,0,0,0,0,-1,734,939,0,0
-483,85,0,0,0,0,0,0,0,0,0,-1,741,939,0,0
-476,85,0,0,0,0,0,0,0,0,0,-1,748,939,0,0
-469,85,0,0,0,0,0,0,0,0,0,-1,755,939,0,0
-462,85,0,0,0,0,0,0,0,0,0,-1,762,939,0,0
-455,85,0,0,0,0,0,0,0,0,0,-1,769,939,0,0
-448,85,0,0,0,0,0,0,0,0,0,-1,776,939,0,0
-441,85,0,0,0,0,0,0,0,0,0,-1,783,939,0,0
-434,85,0,0,0,0,0,0,0,0,0,-1,790,939,0,0
-427,85,0,0,0,0,0,0,0,0,0,-1,797,939,0,0
-420,85,0,0,0,0,0,0,0,0,0,-1,804,939,0,0
-413,85,0,0,0,0,0,0,0,0,0,-1,811,939,0,0
-406,85,0,0,0,0,0,0,0,0,0,-1,818,939,0,0
-399,85,0,0,0,0,0,0,0,0,0,-1,825,939,0,0
-392,85,0,0,0,0,0,0,0,0,0,-1,832,939,0,0
-385,85,0,0,0,0,0,0,0,0,0,-1,839,939,0,0
-378,85,0,0,0,0,0,0,0,0,0,-1,846,939,0,0
-371,85,0,0,0,0,0,0,0,0,0,-1,853,939,0,0
-364,85,0,0,0,0,0,0,0,0,0,-1,860,939,0,0
-357,85,0,0,0,0,0,0,0,0,0,-1,867,939,0,0
-350,85,0,0,0,0,0,0,0,0,0,-1,874,939,0,0
-343,85,0,0,0,0,0,0,0,0,0,-1,881,939,0,0
-336,85,0,0,0,0,0,0,0,0,0,-1,888,939,0,0
-329,85,0,0,0,0,0,0,0,0,0,-1,895,939,0,0
-322,85,0,0,0,0,0,0,0,0,0,-1,902,939,0,0
-315,85,0,0,0,0,0,0,0,0,0,-1,909,939,0,0
-308,85,0,0,0,0,0,0,0,0,0,-1,916,939,0,0
-301,85,0,0,0,0,0,0,0,0,0,-1,923,939,0,0
-294,85,0,0,0,0,0,0,0,0,0,-1,930,939,0,0
-287,85,0,0,0,0,0,0,0,0,0,-1,937,939,0,0
-280,85,0,0,0,0,0,0,0,0,0,-1,944,939,0,0
-273,85,0,0,0,0,0,0,0,0,0,-1,951,939,0,0
-266,85,0,0,0,0,0,0,0,0,0,-1,958,939,0,0
-259,85,0,0,0,0,0,0,0,0,0,-1,965,939,0,0
-252,85,0,0,0,0,0,0,0,0,0,-1,972,939,0,0
-245,85,0,0,0,0,0,0,0,0,0,-1,979,939,0,0
-238,85,0,0,0,0,0,0,0,0,0,-1,986,939,0,0
-231,85,0,0,0,0,0,0,0,0,0,-1,993,939,0,0
-224,85,0,0,0,0,0,0,0,0,0,-1,1000,939,0,0
-217,85,0,0,0,0,0,0,0,0,0,-1,1007,939,0,0
-210,85,0,0,0,0,0,0,0,0,0,-1,1014,939,0,0
-203,85,0,0,0,0,0,0,0,0,0,-1,1021,939,0,0
-196,85,0,0,0,0,0,0,0,0,0,-1,1028,939,0,0
-189,85,0,0,0,0,0,0,0,0,0,-1,1035,939,0,0
-182,85,0,0,0,0,0,0,0,0,0,-1,1042,939,0,0
-175,85,0,0,0,0,0,0,0,0,0,-1,1049,939,0,0
-168,85,0,0,0,0,0,0,0,0,0,-1,1056,939,0,0
-161,85,0,0,0,0,0,0,0,0,0,-1,1063,939,0,0
-154,85,0,0,0,0,0,0,0,0,0,-1,1070,939,0,0
-147,85,0,0,0,0,0,0,0,0,0,-1,1077,939,0,0
-140,85,0,0,0,0,0,0,0,0,0,-1,1084,939,0,0
-133,85,0,0,0,0,0,0,0,0,0,-1,1091,939,0,0
-126,85,0,0,0,0,0,0,0,0,0,-1,1098,939,0,0
-119,85,0,0,0,0,0,0,0,0,0,-1,1105,939,0,0
-112,85,0,0,0,0,0,0,0,0,0,-1,1112,939,0,0
-105,85,0,0,0,0,0,0,0,0,0,-1,1119,939,0,0
-98,85,0,0,0,0,0,0,0,0,0,-1,1126,939,0,0
-91,85,0,0,0,0,0,0,0,0,0,-1,1133,939,0,0
-84,85,0,0,0,0,0,0,0,0,0,-1,1140,939,0,0
-77,85,0,0,0,0,0,0,0,0,0,-1,1147,939,0,0
-70,85,0,0,0,0,0,0,0,0,0,-1,1154,939,0,0
-63,85,0,0,0,0,0,0,0,0,0,-1,1161,939,0,0
-56,85,0,0,0,0,0,0,0,0,0,-1,1168,939,0,0
-49,85,0,0,0,0,0,0,0,0,0,-1,1175,939,0,0
-42,85,0,0,0,0,0,0,0,0,0,-1,1182,939,0,0
-35,85,0,0,0,0,0,0,0,0,0,-1,1189,939,0,0
-28,85,0,0,0,0,0,0,0,0,0,-1,1196,939,0,0
-21,85,0,0,0,0,0,0,0,0,0,-1,1203,939,0,0
-14,85,0,0,0,0,0,0,0,0,0,-1,1210,939,0,0
-7,85,0,0,0,0,0,0,0,0,0,-1,1217,939,0,0
0,85,0,0,0,0,0,0,0,0,0,-1,1224,939,0,0
7,85,0,0,0,0,0,0,0,0,0,-1,1231,939,0,0
14,85,0,0,0,0,0,0,0,0,0,-1,1238,939,0,0
21,85,0,0,0,0,0,0,0,0,0,-1,1245,939,0,0
28,85,0,0,0,0,0,0,0,0,0,-1,1252,939,0,0
35,85,0,0,0,0,0,0,0,0,0,-1,1259,939,0,0
42,85,0,0,0,0,0,0,0,0,0,-1,1266,939,0,0
49,85,0,0,0,0,0,0,0,0,0,-1,1273,939,0,0
56,85,0,0,0,0,0,0,0,0,0,-1,1280,939,0,0
63,85,0,0,0,0,0,0,0,0,0,-1,1287,939,0,0
70,85,0,0,0,0,0,0,0,0,0,-1,1294,939,0,0
77,85,0,0,0,0,0,0,0,0,0,-1,1301,939,0,0
84,85,0,0,0,0,0,0,0,0,0,-1,1308,939,0,0
91,85,0,0,0,0,0,0,0,0,0,-1,1315,939,0,0
98,85,0,0,0,0,0,0,0,0,0,-1,1322,939,0,0
105,85,0,0,0,0,0,0,0,0,0,-1,1329,939,0,0
112,85,0,0,0,0,0,0,0,0,0,-1,1336,939,0,0
119,85,0,0,0,0,0,0,0,0,0,-1,1343,939,0,0
126,85,0,0,0,0,0,0,0,0,0,-1,1350,939,0,0
133,85,0,0,0,0,0,0,0,0,0,-1,1357,939,0,0
140,85,0,0,0,0,0,0,0,0,0,-1,1364,939,0,0
147,85,0,0,0,0,0,0,0,0,0,-1,1371,939,0,0
154,85,0,0,0,0,0,0,0,0,0,-1,1378,939,0,0
161,85,0,0,0,0,0,0,0,0,0,-1,1385,939,0,0
168,85,0,0,0,0,0,0,0,0,0,-1,1392,939,0,0
175,85,0,0,0,0,0,0,0,0,0,-1,1399,939,0,0
182,85,0,0,0,0,0,0,0,0,0,-1,1406,939,0,0
189,85,0,0,0,0,0,0,0,0,0,-1,1413,939,0,0
196,85,0,0,0,0,0,0,0,0,0,-1,1420,939,0,0
203,85,0,0,0,0,0,0,0,0,0,-1,1427,939,0,0
210,85,0,0,0,0,0,0,0,0,0,-1,1434,939,0,0
217,85,0,0,0,0,0,0,0,0,0,-1,1441,939,0,0
224,85,0,0,0,0,0,0,0,0,0,-1,1448,939,0,0
231,85,0,0,0,0,0,0,0,0,0,-1,1455,939,0,0
238,85,0,0,0,0,0,0,0,0,0,-1,1462,939,0,0
245,85,0,0,0,0,0,0,0,0,0,-1,1469,939,0,0
252,85,0,0,0,0,0,0,0,0,0,-1,1476,939,0,0
259,85,0,0,0,0,0,0,0,0,0,-1,1483,939,0,0
266,85,0,0,0,0,0,0,0,0,0,-1,1490,939,0,0
273,85,0,0,0,0,0,0,0,0,0,-1,1497,939,0,0
280,85,0,0,0,0,0,0,0,0,0,-1,1504,939,0,0
287,85,0,0,0,0,0,0,0,0,0,-1,1511,939,0,0
294,85,0,0,0,0,0,0,0,0,0,-1,1518,939,0,0
301,85,0,0,0,0,0,0,0,0,0,-1,1525,939,0,0
308,85,0,0,0,0,0,0,0,0,0,-1,1532,939,0,0
315,85,0,0,0,0,0,0,0,0,0,-1,1539,939,0,0
322,85,0,0,0,0,0,0,0,0,0,-1,1546,939,0,0
329,85,0,0,0,0,0,0,0,0,0,-1,1553,939,0,0
336,85,0,0,0,0,0,0,0,0,0,-1,1560,939,0,0
343,85,0,0,0,0,0,0,0,0,0,-1,1567,939,0,0
350,85,0,0,0,0,0,0,0,0,0,-1,1574,939,0,0
357,85,0,0,0,0,0,0,0,0,0,-1,1581,939,0,0
364,85,0,0,0,0,0,0,0,0,0,-1,1588,939,0,0
371,85,0,0,0,0,0,0,0,0,0,-1,1595,939,0,0
378,85,0,0,0,0,0,0,0,0,0,-1,1602,939,0,0
385,85,0,0,0,0,0,0,0,0,0,-1,1609,939,0,0
392,85,0,0,0,0,0,0,0,0,0,-1,1616,939,0,0
399,85,0,0,0,0,0,0,0,0,0,-1,1623,939,0,0
406,85,0,0,0,0,0,0,0,0,0,-1,1630,939,0,0
413,85,0,0,0,0,0,0,0,0,0,-1,1637,939,0,0
420,85,0,0,0,0,0,0,0,0,0,-1,1644,939,0,0
427,85,0,0,0,0,0,0,0,0,0,-1,1651,939,0,0
434,85,0,0,0,0,0,0,0,0,0,-1,1658,939,0,0
441,85,0,0,0,0,0,0,0,0,0,-1,1665,939,0,0
448,85,0,0,0,0,0,0,0,0,0,-1,1672,939,0,0
455,85,0,0,0,0,0,0,0,0,0,-1,1679,939,0,0
462,85,0,0,0,0,0,0,0,0,0,-1,1686,939,0,0
469,85,0,0,0,0,0,0,0,0,0,-1,1693,939,0,0
476,85,0,0,0,0,0,0,0,0,0,-1,1700,939,0,0
483,85,0,0,0,0,0,0,0,0,0,-1,1707,939,0,0
490,85,0,0,0,0,0,0,0,0,0,-1,1714,939,0,0
497,85,0,0,0,0,0,0,0,0,0,-1,1721,939,0,0
504,85,0,0,0,0,0,0,0,0,0,-1,1728,939,0,0
511,85,0,0,0,0,0,0,0,0,0,-1,1735,939,0,0
518,85,0,0,0,0,0,0,0,0,0,-1,1742,939,0,0
525,85,0,0,0,0,0,0,0,0,0,-1,1749,939,0,0
532,85,0,0,0,0,0,0,0,0,0,-1,1756,939,0,0
539,85,0,0,0,0,0,0,0,0,0,-1,1763,939,0,0
546,85,0,0,0,0,0,0,0,0,0,-1,1770,939,0,0
553,85,0,0,0,0,0,0,0,0,0,-1,1777,939,0,0
560,85,0,0,0,0,0,0,0,0,0,-1,1784,939,0,0
567,85,0,0,0,0,0,0,0,0,0,-1,1791,939,0,0
574,85,0,0,0,0,0,0,0,0,0,-1,1798,939,0,0
581,85,0,0,0,0,0,0,0,0,0,-1,1805,939,0,0
588,85,0,0,0,0,0,0,0,0,0,-1,1812,939,0,0
595,85,0,0,0,0,0,0,0,0,0,-1,1819,939,0,0
602,85,0,0,0,0,0,0,0,0,0,-1,1826,939,0,0
609,85,0,0,0,0,0,0,0,0,0,-1,1833,939,0,0
616,85,0,0,0,0,0,0,0,0,0,-1,1840,939,0,0
623,85,0,0,0,0,0,0,0,0,0,-1,1847,939,0,0
630,85,0,0,0,0,0,0,0,0,0,-1,1854,939,0,0
637,85,20.7725,2.70477,-0.000164297,0.00233759,0.000576987,0.00246424,-0.000290951,1.35471,0.0017479,0.0466649,1861,939,20.7724,-2.70474
644,85,20.7369,2.57941,0.000382855,0.00231399,0.000444574,0.00241143,0.000285424,1.35505,0.00152143,0.0418992,1868,939,20.7369,-2.57942
651,85,20.6973,2.56689,-9.39774e-05,0.00223678,0.000271219,0.00226792,-0.000125122,1.45647,0.00155533,0.0404092,1875,939,20.6973,-2.56692
658,85,20.7078,2.53864,-0.00174156,0.00214183,0.000184368,0.00215057,-0.00175029,1.52346,0.00225611,0.0407912,1882,939,20.7077,-2.53862
665,85,20.8136,2.53253,-0.00443717,0.00209925,0.000185586,0.00210451,-0.00444243,1.54243,0.00385938,0.041409,1889,939,20.8136,-2.53254
672,85,20.8729,2.64624,-0.0070492,0.00198746,0.000220085,0.00199282,-0.00705456,1.54646,0.00548924,0.0394635,1896,939,20.8729,-2.64626
679,85,20.8246,2.79034,-0.00931443,0.00183263,0.000272485,0.00183929,-0.00932108,1.54637,0.00690924,0.0382874,1903,939,20.8245,-2.79032
686,85,20.7842,2.76056,-0.0111098,0.00172317,0.000219307,0.00172692,-0.0111135,1.55371,0.00804667,0.0342136,1910,939,20.7842,-2.76055
693,85,20.7638,2.80042,-0.012278,0.00149795,0.000221459,0.00150151,-0.0122816,1.55473,0.00873135,0.0275508,1917,939,20.7638,-2.80039
700,85,20.9094,2.66962,0,0,0,0,0,0,0,-1,1924,939,20.9094,-2.66963
707,85,20.0934,3.10168,-0.0129253,0.00129198,0.000296872,0.00129818,-0.0129315,1.54993,0.00908468,0.0490196,1931,939,20.0934,-3.10165
714,85,19.0769,3.44373,-0.0125331,0.00125046,0.0001979,0.0012533,-0.0125359,1.55644,0.00880485,0.0432275,1938,939,19.0769,-3.44373
721,85,19.3464,3.51971,-0.0115205,0.00130002,1.73931e-05,0.00130004,-0.0115205,1.56944,0.00814834,0.0228474,1945,939,19.3464,-3.5197
728,85,19.3215,3.70862,-0.0101653,0.00142673,-3.00278e-05,0.0014268,-0.0101654,-1.56821,0.00729913,0.0175182,1952,939,19.3215,-3.70861
735,85,19.3313,3.81769,-0.0090448,0.00213974,-0.000483376,0.0021606,-0.00906565,-1.52769,0.00687803,0.0163316,1959,939,19.3314,-3.81768
742,85,19.3569,3.91791,-0.00824201,0.00386728,-0.00127518,0.00400011,-0.00837484,-1.46701,0.00729198,0.0145567,1966,939,19.357,-3.91788
749,85,19.3219,4.03625,-0.00762483,0.00568668,-0.00193801,0.00596309,-0.00790124,-1.42912,0.00803061,0.0127994,1973,939,19.3219,-4.03626
756,85,19.2981,4.14948,-0.00793549,0.00863457,-0.00316873,0.00921986,-0.00852077,-1.38815,0.0102452,0.0120656,1980,939,19.298,-4.14949
763,85,19.2927,4.2785,-0.00918052,0.0122889,-0.00465446,0.0132545,-0.0101462,-1.36623,0.0135501,0.0124582,1987,939,19.2927,-4.2785
770,85,19.2748,4.37494,-0.0122103,0.017137,-0.00655238,0.0185335,-0.0136068,-1.36081,0.0186287,0.0170653,1994,939,19.2748,-4.37492
777,85,19.1654,4.5036,-0.0163963,0.022991,-0.0088729,0.0248976,-0.0183028,-1.35914,0.0250385,0.0366408,2001,939,19.1654,-4.50361
784,85,19.0579,4.72247,0,0,0,0,0,0,0,-1,2008,939,19.0578,-4.72247
791,85,21.8774,-0.246094,0,0,0,0,0,0,0,-1,2015,939,21.8775,0.246086
798,85,18.7677,5.23926,-0.033142,0.0468381,-0.0187094,0.0509983,-0.0373022,-1.352,0.0511844,0.0421968,2022,939,18.7677,-5.23926
805,85,17.9849,5.50494,-0.0395902,0.0564545,-0.0227335,0.0615637,-0.0446994,-1.34973,0.061608,0.0469642,2029,939,17.9849,-5.50496
812,85,0,0,0,0,0,0,0,0,0,-1,2036,939,0,0
-700,78,0,0,0,0,0,0,0,0,0,-1,524,946,0,0
-693,78,0,0,0,0,0,0,0,0,0,-1,531,946,0,0
-686,78,-17.8681,-0.54834,0,0,0,0,0,0,0,-1,538,946,-17.8681,0.548349
-679,78,-12.3086,2.18994,0,0,0,0,0,0,0,-1,545,946,-12.3086,-2.18995
-672,78,-12.4584,2.05109,0,0,0,0,0,0,0,-1,552,946,-12.4585,-2.05107
-665,78,-12.4388,1.93793,0,0,0,0,0,0,0,-1,559,946,-12.4388,-1.93791
-658,78,-12.0778,1.98199,0,0,0,0,0,0,0,-1,566,946,-12.0778,-1.982
-651,78,-12.8702,2.19214,0.015415,-0.0109999,0.00237349,0.0156265,-0.0112115,0.0889052,0.0155647,0.046595,573,946,-12.8702,-2.19216
-644,78,-12.5629,1.98846,0.00992214,-0.00870654,0.00277002,0.0103253,-0.00910971,0.144531,0.0112281,0.0264932,580,946,-12.5629,-1.98848
-637,78,-12.6351,1.89911,0.00600295,-0.00644679,0.00280342,0.0066051,-0.00704894,0.211576,0.00788455,0.0133299,587,946,-12.6351,-1.89912
-630,78,-12.6694,1.82257,0.00217561,-0.00476845,0.00282336,0.00317866,-0.0057715,0.341361,0.00523916,0.0118974,594,946,-12.6695,-1.82259
-623,78,-12.6891,1.72479,-0.000231138,-0.00348091,0.00217533,0.000859172,-0.00457122,0.464621,0.00337057,0.0111465,601,946,-12.6891,-1.72478
-616,78,-12.7114,1.63147,-0.00236549,-0.00199186,0.00144425,-0.000722393,-0.00363496,0.849716,0.002222,0.00974566,608,946,-12.7114,-1.63147
-609,78,-12.6934,1.5437,-0.00441108,-0.000998878,0.00103052,-0.000711804,-0.00469815,1.29911,0.00292386,0.0109132,615,946,-12.6934,-1.5437
-602,78,-12.6913,1.43707,-0.00581257,-5.72853e-05,0.000592598,3.09874e-06,-0.00587296,1.46925,0.00391634,0.014226,622,946,-12.6913,-1.43706
-595,78,-12.6747,1.33484,-0.00676889,0.000387107,5.39402e-05,0.000387514,-0.00676929,1.56326,0.00464742,0.0134317,629,946,-12.6747,-1.33483
-588,78,-12.6876,1.27637,-0.00730233,0.000458175,-0.000309452,0.000470494,-0.00731465,-1.53101,0.00504059,0.0123728,636,946,-12.6875,-1.27636
-581,78,-12.7222,1.22107,-0.00761119,0.000415005,-0.000553956,0.000453058,-0.00764924,-1.50221,0.00525702,0.0194948,643,946,-12.7222,-1.22107
-574,78,-12.9806,1.10199,-0.0078117,0.000543448,-0.000692338,0.000600429,-0.00786868,-1.48868,0.00545695,0.0244973,650,946,-12.9806,-1.10199
-567,78,-13.3637,0.923889,-0.00760702,0.000743115,-0.000800526,0.000819168,-0.00768308,-1.47608,0.0054158,0.0315088,657,946,-13.3637,-0.923874
-560,78,-13.3765,0.912964,-0.00687932,0.000951128,-0.000860414,0.00104456,-0.00697275,-1.46264,0.00503295,0.0338405,664,946,-13.3765,-0.912978
-553,78,-13.4077,0.802795,-0.0055492,0.00124103,-0.000908486,0.00136048,-0.00566864,-1.44007,0.00430486,0.0409435,671,946,-13.4077,-0.802801
-546,78,-13.4868,0.643066,-0.00360629,0.00159936,-0.000959163,0.00177047,-0.00377739,-1.39426,0.00327217,0.0414702,678,946,-13.4868,-0.643041
-539,78,-13.2731,0.836975,-0.00110511,0.00201683,-0.00102337,0.00232238,-0.00141066,-1.28065,0.0021766,0.0387403,685,946,-13.2731,-0.836982
-532,78,-13.0312,0.944641,0.00178797,0.00249502,-0.00116945,0.00336322,0.000919774,-0.932179,0.00200708,0.0385834,692,946,-13.0312,-0.944622
-525,78,-12.9956,0.889587,0.00442427,0.0031104,-0.00153012,0.00543252,0.00210215,-0.58263,0.00316307,0.0390279,699,946,-12.9956,-0.889562
-518,78,-13.1354,1.02167,0.00474864,0.00390796,-0.00216185,0.00653063,0.00212596,-0.689378,0.00384621,0.0422991,706,946,-13.1354,-1.02164
-511,78,0,0,0,0,0,0,0,0,0,-1,713,946,0,0
-504,78,0,0,0,0,0,0,0,0,0,-1,720,946,0,0
-497,78,0,0,0,0,0,0,0,0,0,-1,727,946,0,0
-490,78,0,0,0,0,0,0,0,0,0,-1,734,946,0,0
-483,78,0,0,0,0,0,0,0,0,0,-1,741,946,0,0
-476,78,0,0,0,0,0,0,0,0,0,-1,748,946,0,0
-469,78,0,0,0,0,0,0,0,0,0,-1,755,946,0,0
-462,78,0,0,0,0,0,0,0,0,0,-1,762,946,0,0
-455,78,0,0,0,0,0,0,0,0,0,-1,769,946,0,0
-448,78,0,0,0,0,0,0,0,0,0,-1,776,946,0,0
-441,78,0,0,0,0,0,0,0,0,0,-1,783,946,0,0
-434,78,0,0,0,0,0,0,0,0,0,-1,790,946,0,0
-427,78,0,0,0,0,0,0,0,0,0,-1,797,946,0,0
-420,78,0,0,0,0,0,0,0,0,0,-1,804,946,0,0
-413,78,0,0,0,0,0,0,0,0,0,-1,811,946,0,0
-406,78,0,0,0,0,0,0,0,0,0,-1,818,946,0,0
-399,78,0,0,0,0,0,0,0,0,0,-1,825,946,0,0
-392,78,0,0,0,0,0,0,0,0,0,-1,832,946,0,0
-385,78,0,0,0,0,0,0,0,0,0,-1,839,946,0,0
-378,78,0,0,0,0,0,0,0,0,0,-1,846,946,0,0
-371,78,0,0,0,0,0,0,0,0,0,-1,853,946,0,0
-364,78,0,0,0,0,0,0,0,0,0,-1,860,946,0,0
-357,78,0,0,0,0,0,0,0,0,0,-1,867,946,0,0
-350,78,0,0,0,0,0,0,0,0,0,-1,874,946,0,0
-343,78,0,0,0,0,0,0,0,0,0,-1,881,946,0,0
-336,78,0,0,0,0,0,0,0,0,0,-1,888,946,0,0
-329,78,0,0,0,0,0,0,0,0,0,-1,895,946,0,0
-322,78,0,0,0,0,0,0,0,0,0,-1,902,946,0,0
-315,78,0,0,0,0,0,0,0,0,0,-1,909,946,0,0
-308,78,0,0,0,0,0,0,0,0,0,-1,916,946,0,0
-301,78,0,0,0,0,0,0,0,0,0,-1,923,946,0,0
-294,78,0,0,0,0,0,0,0,0,0,-1,930,946,0,0
-287,78,0,0,0,0,0,0,0,0,0,-1,937,946,0,0
-280,78,0,0,0,0,0,0,0,0,0,-1,944,946,0,0
-273,78,0,0,0,0,0,0,0,0,0,-1,951,946,0,0
-266,78,0,0,0,0,0,0,0,0,0,-1,958,946,0,0
-259,78,0,0,0,0,0,0,0,0,0,-1,965,946,0,0
-252,78,0,0,0,0,0,0,0,0,0,-1,972,946,0,0
-245,78,0,0,0,0,0,0,0,0,0,-1,979,946,0,0
-238,78,0,0,0,0,0,0,0,0,0,-1,986,946,0,0
-231,78,0,0,0,0,0,0,0,0,0,-1,993,946,0,0
-224,78,0,0,0,0,0,0,0,0,0,-1,1000,946,0,0
-217,78,0,0,0,0,0,0,0,0,0,-1,1007,946,0,0
-210,78,0,0,0,0,0,0,0,0,0,-1,1014,946,0,0
-203,78,0,0,0,0,0,0,0,0,0,-1,1021,946,0,0
-196,78,0,0,0,0,0,0,0,0,0,-1,1028,946,0,0
-189,78,0,0,0,0,0,0,0,0,0,-1,1035,946,0,0
-182,78,0,0,0,0,0,0,0,0,0,-1,1042,946,0,0
-175,78,0,0,0,0,0,0,0,0,0,-1,1049,946,0,0
-168,78,0,0,0,0,0,0,0,0,0,-1,1056,946,0,0
-161,78,0,0,0,0,0,0,0,0,0,-1,1063,946,0,0
-154,78,0,0,0,0,0,0,0,0,0,-1,1070,946,0,0
-147,78,0,0,0,0,0,0,0,0,0,-1,1077,946,0,0
-140,78,0,0,0,0,0,0,0,0,0,-1,1084,946,0,0
-133,78,0,0,0,0,0,0,0,0,0,-1,1091,946,0,0
-126,78,0,0,0,0,0,0,0,0,0,-1,1098,946,0,0
-119,78,0,0,0,0,0,0,0,0,0,-1,1105,946,0,0
-112,78,0,0,0,0,0,0,0,0,0,-1,1112,946,0,0
-105,78,0,0,0,0,0,0,0,0,0,-1,1119,946,0,0
-98,78,0,0,0,0,0,0,0,0,0,-1,1126,946,0,0
-91,78,0,0,0,0,0,0,0,0,0,-1,1133,946,0,0
-84,78,0,0,0,0,0,0,0,0,0,-1,1140,946,0,0
-77,78,0,0,0,0,0,0,0,0,0,-1,1147,946,0,0
-70,78,0,0,0,0,0,0,0,0,0,-1,1154,946,0,0
-63,78,0,0,0,0,0,0,0,0,0,-1,1161,946,0,0
-56,78,0,0,0,0,0,0,0,0,0,-1,1168,946,0,0
-49,78,0,0,0,0,0,0,0,0,0,-1,1175,946,0,0
-42,78,0,0,0,0,0,0,0,0,0,-1,1182,946,0,0
-35,78,0,0,0,0,0,0,0,0,0,-1,1189,946,0,0
-28,78,0,0,0,0,0,0,0,0,0,-1,1196,946,0,0
-21,78,0,0,0,0,0,0,0,0,0,-1,1203,946,0,0
-14,78,0,0,0,0,0,0,0,0,0,-1,1210,946,0,0
-7,78,0,0,0,0,0,0,0,0,0,-1,1217,946,0,0
0,78,0,0,0,0,0,0,0,0,0,-1,1224,946,0,0
7,78,0,0,0,0,0,0,0,0,0,-1,1231,946,0,0
14,78,0,0,0,0,0,0,0,0,0,-1,1238,946,0,0
21,78,0,0,0,0,0,0,0,0,0,-1,1245,946,0,0
28,78,0,0,0,0,0,0,0,0,0,-1,1252,946,0,0
35,78,0,0,0,0,0,0,0,0,0,-1,1259,946,0,0
42,78,0,0,0,0,0,0,0,0,0,-1,1266,946,0,0
49,78,0,0,0,0,0,0,0,0,0,-1,1273,946,0,0
56,78,0,0,0,0,0,0,0,0,0,-1,1280,946,0,0
63,78,0,0,0,0,0,0,0,0,0,-1,1287,946,0,0
70,78,0,0,0,0,0,0,0,0,0,-1,1294,946,0,0
77,78,0,0,0,0,0,0,0,0,0,-1,1301,946,0,0
84,78,0,0,0,0,0,0,0,0,0,-1,1308,946,0,0
91,78,0,0,0,0,0,0,0,0,0,-1,1315,946,0,0
98,78,0,0,0,0,0,0,0,0,0,-1,1322,946,0,0
105,78,0,0,0,0,0,0,0,0,0,-1,1329,946,0,0
112,78,0,0,0,0,0,0,0,0,0,-1,1336,946,0,0
119,78,0,0,0,0,0,0,0,0,0,-1,1343,946,0,0
126,78,0,0,0,0,0,0,0,0,0,-1,1350,946,0,0
133,78,0,0,0,0,0,0,0,0,0,-1,1357,946,0,0
140,78,0,0,0,0,0,0,0,0,0,-1,1364,946,0,0
147,78,0,0,0,0,0,0,0,0,0,-1,1371,946,0,0
154,78,0,0,0,0,0,0,0,0,0,-1,1378,946,0,0
161,78,0,0,0,0,0,0,0,0,0,-1,1385,946,0,0
168,78,0,0,0,0,0,0,0,0,0,-1,1392,946,0,0
175,78,0,0,0,0,0,0,0,0,0,-1,1399,946,0,0
182,78,0,0,0,0,0,0,0,0,0,-1,1406,946,0,0
189,78,0,0,0,0,0,0,0,0,0,-1,1413,946,0,0
196,78,0,0,0,0,0,0,0,0,0,-1,1420,946,0,0
203,78,0,0,0,0,0,0,0,0,0,-1,1427,946,0,0
210,78,0,0,0,0,0,0,0,0,0,-1,1434,946,0,0
217,78,0,0,0,0,0,0,0,0,0,-1,1441,946,0,0
224,78,0,0,0,0,0,0,0,0,0,-1,1448,946,0,0
231,78,0,0,0,0,0,0,0,0,0,-1,1455,946,0,0
238,78,0,0,0,0,0,0,0,0,0,-1,1462,946,0,0
245,78,0,0,0,0,0,0,0,0,0,-1,1469,946,0,0
252,78,0,0,0,0,0,0,0,0,0,-1,1476,946,0,0
259,78,0,0,0,0,0,0,0,0,0,-1,1483,946,0,0
266,78,0,0,0,0,0,0,0,0,0,-1,1490,946,0,0
273,78,0,0,0,0,0,0,0,0,0,-1,1497,946,0,0
280,78,0,0,0,0,0,0,0,0,0,-1,1504,946,0,0
287,78,0,0,0,0,0,0,0,0,0,-1,1511,946,0,0
294,78,0,0,0,0,0,0,0,0,0,-1,1518,946,0,0
301,78,0,0,0,0,0,0,0,0,0,-1,1525,946,0,0
308,78,0,0,0,0,0,0,0,0,0,-1,1532,946,0,0
315,78,0,0,0,0,0,0,0,0,0,-1,1539,946,0,0
322,78,0,0,0,0,0,0,0,0,0,-1,1546,946,0,0
329,78,0,0,0,0,0,0,0,0,0,-1,1553,946,0,0
336,78,0,0,0,0,0,0,0,0,0,-1,1560,946,0,0
343,78,0,0,0,0,0,0,0,0,0,-1,1567,946,0,0
350,78,0,0,0,0,0,0,0,0,0,-1,1574,946,0,0
357,78,0,0,0,0,0,0,0,0,0,-1,1581,946,0,0
364,78,0,0,0,0,0,0,0,0,0,-1,1588,946,0,0
371,78,0,0,0,0,0,0,0,0,0,-1,1595,946,0,0
378,78,0,0,0,0,0,0,0,0,0,-1,1602,946,0,0
385,78,0,0,0,0,0,0,0,0,0,-1,1609,946,0,0
392,78,0,0,0,0,0,0,0,0,0,-1,1616,946,0,0
399,78,0,0,0,0,0,0,0,0,0,-1,1623,946,0,0
406,78,0,0,0,0,0,0,0,0,0,-1,1630,946,0,0
413,78,0,0,0,0,0,0,0,0,0,-1,1637,946,0,0
420,78,0,0,0,0,0,0,0,0,0,-1,1644,946,0,0
427,78,0,0,0,0,0,0,0,0,0,-1,1651,946,0,0
434,78,0,0,0,0,0,0,0,0,0,-1,1658,946,0,0
441,78,0,0,0,0,0,0,0,0,0,-1,1665,946,0,0
448,78,0,0,0,0,0,0,0,0,0,-1,1672,946,0,0
455,78,0,0,0,0,0,0,0,0,0,-1,1679,946,0,0
462,78,0,0,0,0,0,0,0,0,0,-1,1686,946,0,0
469,78,0,0,0,0,0,0,0,0,0,-1,1693,946,0,0
476,78,0,0,0,0,0,0,0,0,0,-1,1700,946,0,0
483,78,0,0,0,0,0,0,0,0,0,-1,1707,946,0,0
490,78,0,0,0,0,0,0,0,0,0,-1,1714,946,0,0
497,78,0,0,0,0,0,0,0,0,0,-1,1721,946,0,0
504,78,0,0,0,0,0,0,0,0,0,-1,1728,946,0,0
511,78,0,0,0,0,0,0,0,0,0,-1,1735,946,0,0
518,78,0,0,0,0,0,0,0,0,0,-1,1742,946,0,0
525,78,0,0,0,0,0,0,0,0,0,-1,1749,946,0,0
532,78,0,0,0,0,0,0,0,0,0,-1,1756,946,0,0
539,78,0,0,0,0,0,0,0,0,0,-1,1763,946,0,0
546,78,0,0,0,0,0,0,0,0,0,-1,1770,946,0,0
553,78,0,0,0,0,0,0,0,0,0,-1,1777,946,0,0
560,78,0,0,0,0,0,0,0,0,0,-1,1784,946,0,0
567,78,0,0,0,0,0,0,0,0,0,-1,1791,946,0,0
574,78,0,0,0,0,0,0,0,0,0,-1,1798,946,0,0
581,78,0,0,0,0,0,0,0,0,0,-1,1805,946,0,0
588,78,0,0,0,0,0,0,0,0,0,-1,1812,946,0,0
595,78,0,0,0,0,0,0,0,0,0,-1,1819,946,0,0
602,78,0,0,0,0,0,0,0,0,0,-1,1826,946,0,0
609,78,0,0,0,0,0,0,0,0,0,-1,1833,946,0,0
616,78,0,0,0,0,0,0,0,0,0,-1,1840,946,0,0
623,78,0,0,0,0,0,0,0,0,0,-1,1847,946,0,0
630,78,0,0,0,0,0,0,0,0,0,-1,1854,946,0,0
637,78,20.6313,2.67871,5.82411e-05,0.0014636,0.000442031,0.00159107,-6.92302e-05,1.29004,0.00108453,0.047259,1861,946,20.6313,-2.67872
644,78,20.5637,2.65826,0.000444338,0.00150533,0.000275547,0.00157262,0.000377045,1.33127,0.000948064,0.0438746,1868,946,20.5637,-2.65825
651,78,20.6281,2.53784,0.000218227,0.00146261,0.000169386,0.00148526,0.000195583,1.4379,0.000931844,0.0400411,1875,946,20.6281,-2.53786
658,78,20.6852,2.58887,-0.000860971,0.00141796,0.000197215,0.0014349,-0.000877911,1.48511,0.00134815,0.0376776,1882,946,20.6852,-2.58885
665,78,20.7633,2.63458,-0.00314955,0.00148546,0.000337507,0.00150991,-0.00317399,1.49849,0.00276055,0.0398057,1889,946,20.7633,-2.63461
672,78,20.7915,2.69586,-0.00554566,0.00149346,0.000506426,0.00152971,-0.00558191,1.49934,0.00432237,0.0393111,1896,946,20.7915,-2.69587
679,78,20.8033,2.69122,-0.00770094,0.00146682,0.000679668,0.00151693,-0.00775105,1.4972,0.00574022,0.0401038,1903,946,20.8034,-2.69123
686,78,20.8063,2.63599,-0.00943382,0.00145184,0.000736884,0.0015015,-0.00948347,1.50351,0.00687767,0.0385068,1910,946,20.8062,-2.63597
693,78,20.7792,2.65948,-0.0106138,0.0013083,0.00078476,0.00135973,-0.0106653,1.50535,0.00760405,0.0311743,1917,946,20.7792,-2.6595
700,78,20.7324,2.70807,-0.0112306,0.00123211,0.000835461,0.00128786,-0.0112864,1.50416,0.00798821,0.0276367,1924,946,20.7324,-2.7081
707,78,20.5145,3.08569,-0.0115018,0.00125523,0.00085313,0.00131203,-0.0115586,1.50432,0.00817822,0.0430221,1931,946,20.5145,-3.08572
714,78,19.5812,3.448,-0.0113425,0.00125045,0.000750976,0.00129508,-0.0113871,1.51144,0.00805784,0.0381312,1938,946,19.5812,-3.44799
721,78,19.4309,3.54663,-0.0106477,0.00132751,0.000584854,0.001356,-0.0106762,1.52211,0.00760985,0.0207044,1945,946,19.4309,-3.5466
728,78,19.4745,3.71863,-0.00969604,0.0013624,0.000536311,0.00138835,-0.00972199,1.52245,0.00699022,0.0195698,1952,946,19.4744,-3.71864
735,78,19.48,3.82434,-0.00894251,0.00180328,0.000116687,0.00180455,-0.00894378,1.55994,0.0066462,0.0139302,1959,946,19.48,-3.82431
742,78,19.4692,3.92773,-0.00851009,0.00319577,-0.000662837,0.00323318,-0.0085475,-1.51441,0.00702848,0.0132802,1966,946,19.4692,-3.92772
749,78,19.4458,4.02704,-0.00829074,0.0045697,-0.00126704,0.00469334,-0.00841438,-1.47352,0.00766872,0.0129562,1973,946,19.4459,-4.02704
756,78,19.4438,4.11932,-0.00880782,0.00686721,-0.00233288,0.00720704,-0.00914765,-1.42614,0.00946452,0.0132313,1980,946,19.4439,-4.11932
763,78,19.4576,4.24011,-0.010073,0.00970116,-0.00357664,0.0103282,-0.0107001,-1.39725,0.0121413,0.0119836,1987,946,19.4576,-4.24012
770,78,19.4261,4.34454,-0.0130658,0.0135605,-0.00514904,0.0145215,-0.0140268,-1.38627,0.0164832,0.0154368,1994,946,19.4262,-4.34455
777,78,19.3295,4.49133,-0.0172017,0.0182424,-0.00708019,0.0196044,-0.0185636,-1.38075,0.022039,0.0343328,2001,946,19.3294,-4.49132
784,78,19.2113,4.65448,0,0,0,0,0,0,0,-1,2008,946,19.2113,-4.65449
791,78,19.599,4.71692,0,0,0,0,0,0,0,-1,2015,946,19.599,-4.71689
798,78,19.2328,4.67407,-0.032899,0.0370933,-0.0153726,0.0403208,-0.0361265,-1.36385,0.044159,0.0416126,2022,946,19.2328,-4.67409
805,78,18.925,4.85992,-0.038298,0.0443904,-0.0187436,0.0484408,-0.0423484,-1.35798,0.0524565,0.0461855,2029,946,18.925,-4.85993
812,78,0,0,0,0,0,0,0,0,0,-1,2036,946,0,0
-700,71,0,0,0,0,0,0,0,0,0,-1,524,953,0,0
-693,71,0,0,0,0,0,0,0,0,0,-1,531,953,0,0
-686,71,-17.1467,-0.901001,0,0,0,0,0,0,0,-1,538,953,-17.1467,0.900973
-679,71,-15.541,-0.998291,0,0,0,0,0,0,0,-1,545,953,-15.541,0.998319
-672,71,-12.5673,1.89935,0,0,0,0,0,0,0,-1,552,953,-12.5672,-1.89937
-665,71,-12.9266,2.13361,0,0,0,0,0,0,0,-1,559,953,-12.9266,-2.1336
-658,71,-13.1758,2.07562,0,0,0,0,0,0,0,-1,566,953,-13.1758,-2.07564
-651,71,-12.9722,2.00439,0.0160377,-0.00610688,0.00281132,0.016389,-0.00645821,0.124326,0.0135999,0.0447868,573,953,-12.9721,-2.00436
-644,71,-12.6886,1.97211,0.0103733,-0.0047264,0.00298866,0.0109433,-0.00529642,0.188465,0.0095631,0.0323256,580,953,-12.6886,-1.97214
-637,71,-12.7372,1.91522,0.00632054,-0.00336207,0.00283342,0.00708873,-0.00413027,0.264755,0.00655193,0.0137938,587,953,-12.7373,-1.91523
-630,71,-12.7818,1.83997,0.00221055,-0.00243789,0.00277026,0.00350245,-0.00372979,0.436364,0.00417623,0.0128283,594,953,-12.7818,-1.83994
-623,71,-12.8051,1.72803,-0.000317311,-0.00169347,0.00196346,0.00107514,-0.00308592,0.616864,0.00249414,0.0124299,601,953,-12.8051,-1.72803
-616,71,-12.8143,1.61542,-0.00234012,-0.000759673,0.00107432,-0.000216244,-0.00288354,1.10249,0.00185449,0.011963,608,953,-12.8144,-1.61543
-609,71,-12.7876,1.54816,-0.00417835,-0.00043131,0.000517594,-0.000361127,-0.00424853,1.43602,0.00271998,0.0130156,615,953,-12.7876,-1.54817
-602,71,-12.7537,1.44281,-0.00541638,0.00029575,6.31785e-05,0.000296449,-0.00541708,1.55974,0.00371415,0.0143921,622,953,-12.7537,-1.44282
-595,71,-12.7754,1.35327,-0.00626119,0.000679426,-0.000491764,0.000714096,-0.00629586,-1.50041,0.00445439,0.015263,629,953,-12.7754,-1.35326
-588,71,-12.796,1.29132,-0.00669824,0.000719572,-0.00085515,0.00081688,-0.00679555,-1.45749,0.00482576,0.0168181,636,953,-12.7959,-1.2913
-581,71,-12.8854,1.16876,-0.00689372,0.000645189,-0.00108911,0.000799373,-0.0070479,-1.43016,0.00498646,0.0251634,643,953,-12.8854,-1.16877
-574,71,-13.184,1.04254,-0.00697721,0.000757625,-0.00122731,0.000947694,-0.00716728,-1.41715,0.00512339,0.0286438,650,953,-13.184,-1.04255
-567,71,-13.3707,0.86615,-0.00669805,0.000898411,-0.00128556,0.00111007,-0.00690971,-1.40762,0.0050176,0.020842,657,953,-13.3707,-0.866166
-560,71,-13.394,0.831665,-0.00592626,0.00105112,-0.0012661,0.00127376,-0.0061489,-1.39673,0.00458324,0.0297865,664,953,-13.394,-0.831682
-553,71,-13.4921,0.846863,-0.00457272,0.00125176,-0.00120223,0.00149015,-0.00481111,-1.37504,0.00380273,0.0420479,671,953,-13.4921,-0.846867
-546,71,-13.4694,0.820129,-0.00264907,0.00150185,-0.00110435,0.00177738,-0.00292459,-1.3263,0.00274149,0.0420624,678,953,-13.4694,-0.820135
-539,71,-13.2056,0.798889,-0.000212666,0.0018005,-0.000988142,0.00220446,-0.000616628,-1.18272,0.00171259,0.0407848,685,953,-13.2056,-0.798915
-532,71,-13.038,0.731689,0.0025367,0.00218035,-0.000954333,0.00332935,0.0013877,-0.693111,0.00193105,0.0420737,692,953,-13.038,-0.731706
-525,71,-13.0806,0.660767,0.00484897,0.00278776,-0.00116584,0.00537442,0.0022623,-0.423445,0.00311583,0.042341,699,953,-13.0806,-0.660794
-518,71,0,0,0,0,0,0,0,0,0,-1,706,953,0,0
-511,71,0,0,0,0,0,0,0,0,0,-1,713,953,0,0
-504,71,0,0,0,0,0,0,0,0,0,-1,720,953,0,0
-497,71,0,0,0,0,0,0,0,0,0,-1,727,953,0,0
-490,71,0,0,0,0,0,0,0,0,0,-1,734,953,0,0
-483,71,0,0,0,0,0,0,0,0,0,-1,741,953,0,0
-476,71,0,0,0,0,0,0,0,0,0,-1,748,953,0,0
-469,71,0,0,0,0,0,0,0,0,0,-1,755,953,0,0
-462,71,0,0,0,0,0,0,0,0,0,-1,762,953,0,0
-455,71,0,0,0,0,0,0,0,0,0,-1,769,953,0,0
-448,71,0,0,0,0,0,0,0,0,0,-1,776,953,0,0
-441,71,0,0,0,0,0,0,0,0,0,-1,783,953,0,0
-434,71,0,0,0,0,0,0,0,0,0,-1,790,953,0,0
-427,71,0,0,0,0,0,0,0,0,0,-1,797,953,0,0
-420,71,0,0,0,0,0,0,0,0,0,-1,804,953,0,0
-413,71,0,0,0,0,0,0,0,0,0,-1,811,953,0,0
-406,71,0,0,0,0,0,0,0,0,0,-1,818,953,0,0
-399,71,0,0,0,0,0,0,0,0,0,-1,825,953,0,0
-392,71,0,0,0,0,0,0,0,0,0,-1,832,953,0,0
-385,71,0,0,0,0,0,0,0,0,0,-1,839,953,0,0
-378,71,0,0,0,0,0,0,0,0,0,-1,846,953,0,0
-371,71,0,0,0,0,0,0,0,0,0,-1,853,953,0,0
-364,71,0,0,0,0,0,0,0,0,0,-1,860,953,0,0
-357,71,0,0,0,0,0,0,0,0,0,-1,867,953,0,0
-350,71,0,0,0,0,0,0,0,0,0,-1,874,953,0,0
-343,71,0,0,0,0,0,0,0,0,0,-1,881,953,0,0
-336,71,0,0,0,0,0,0,0,0,0,-1,888,953,0,0
-329,71,0,0,0,0,0,0,0,0,0,-1,895,953,0,0
-322,71,0,0,0,0,0,0,0,0,0,-1,902,953,0,0
-315,71,0,0,0,0,0,0,0,0,0,-1,909,953,0,0
-308,71,0,0,0,0,0,0,0,0,0,-1,916,953,0,0
-301,71,0,0,0,0,0,0,0,0,0,-1,923,953,0,0
-294,71,0,0,0,0,0,0,0,0,0,-1,930,953,0,0
-287,71,0,0,0,0,0,0,0,0,0,-1,937,953,0,0
-280,71,0,0,0,0,0,0,0,0,0,-1,944,953,0,0
-273,71,0,0,0,0,0,0,0,0,0,-1,951,953,0,0
-266,71,0,0,0,0,0,0,0,0,0,-1,958,953,0,0
-259,71,0,0,0,0,0,0,0,0,0,-1,965,953,0,0
-252,71,0,0,0,0,0,0,0,0,0,-1,972,953,0,0
-245,71,0,0,0,0,0,0,0,0,0,-1,979,953,0,0
-238,71,0,0,0,0,0,0,0,0,0,-1,986,953,0,0
-231,71,0,0,0,0,0,0,0,0,0,-1,993,953,0,0
-224,71,0,0,0,0,0,0,0,0,0,-1,1000,953,0,0
-217,71,0,0,0,0,0,0,0,0,0,-1,1007,953,0,0
-210,71,0,0,0,0,0,0,0,0,0,-1,1014,953,0,0
-203,71,0,0,0,0,0,0,0,0,0,-1,1021,953,0,0
-196,71,0,0,0,0,0,0,0,0,0,-1,1028,953,0,0
-189,71,0,0,0,0,0,0,0,0,0,-1,1035,953,0,0
-182,71,0,0,0,0,0,0,0,0,0,-1,1042,953,0,0
-175,71,0,0,0,0,0,0,0,0,0,-1,1049,953,0,0
-168,71,0,0,0,0,0,0,0,0,0,-1,1056,953,0,0
-161,71,0,0,0,0,0,0,0,0,0,-1,1063,953,0,0
-154,71,0,0,0,0,0,0,0,0,0,-1,1070,953,0,0
-147,71,0,0,0,0,0,0,0,0,0,-1,1077,953,0,0
-140,71,0,0,0,0,0,0,0,0,0,-1,1084,953,0,0
-133,71,0,0,0,0,0,0,0,0,0,-1,1091,953,0,0
-126,71,0,0,0,0,0,0,0,0,0,-1,1098,953,0,0
-119,71,0,0,0,0,0,0,0,0,0,-1,1105,953,0,0
-112,71,0,0,0,0,0,0,0,0,0,-1,1112,953,0,0
-105,71,0,0,0,0,0,0,0,0,0,-1,1119,953,0,0
-98,71,0,0,0,0,0,0,0,0,0,-1,1126,953,0,0
-91,71,0,0,0,0,0,0,0,0,0,-1,1133,953,0,0
-84,71,0,0,0,0,0,0,0,0,0,-1,1140,953,0,0
-77,71,0,0,0,0,0,0,0,0,0,-1,1147,953,0,0
-70,71,0,0,0,0,0,0,0,0,0,-1,1154,953,0,0
-63,71,0,0,0,0,0,0,0,0,0,-1,1161,953,0,0
-56,71,0,0,0,0,0,0,0,0,0,-1,1168,953,0,0
-49,71,0,0,0,0,0,0,0,0,0,-1,1175,953,0,0
-42,71,0,0,0,0,0,0,0,0,0,-1,1182,953,0,0
-35,71,0,0,0,0,0,0,0,0,0,-1,1189,953,0,0
-28,71,0,0,0,0,0,0,0,0,0,-1,1196,953,0,0
-21,71,0,0,0,0,0,0,0,0,0,-1,1203,953,0,0
-14,71,0,0,0,0,0,0,0,0,0,-1,1210,953,0,0
-7,71,0,0,0,0,0,0,0,0,0,-1,1217,953,0,0
0,71,0,0,0,0,0,0,0,0,0,-1,1224,953,0,0
7,71,0,0,0,0,0,0,0,0,0,-1,1231,953,0,0
14,71,0,0,0,0,0,0,0,0,0,-1,1238,953,0,0
21,71,0,0,0,0,0,0,0,0,0,-1,1245,953,0,0
28,71,0,0,0,0,0,0,0,0,0,-1,1252,953,0,0
35,71,0,0,0,0,0,0,0,0,0,-1,1259,953,0,0
42,71,0,0,0,0,0,0,0,0,0,-1,1266,953,0,0
49,71,0,0,0,0,0,0,0,0,0,-1,1273,953,0,0
56,71,0,0,0,0,0,0,0,0,0,-1,1280,953,0,0
63,71,0,0,0,0,0,0,0,0,0,-1,1287,953,0,0
70,71,0,0,0,0,0,0,0,0,0,-1,1294,953,0,0
77,71,0,0,0,0,0,0,0,0,0,-1,1301,953,0,0
84,71,0,0,0,0,0,0,0,0,0,-1,1308,953,0,0
91,71,0,0,0,0,0,0,0,0,0,-1,1315,953,0,0
98,71,0,0,0,0,0,0,0,0,0,-1,1322,953,0,0
105,71,0,0,0,0,0,0,0,0,0,-1,1329,953,0,0
112,71,0,0,0,0,0,0,0,0,0,-1,1336,953,0,0
119,71,0,0,0,0,0,0,0,0,0,-1,1343,953,0,0
126,71,0,0,0,0,0,0,0,0,0,-1,1350,953,0,0
133,71,0,0,0,0,0,0,0,0,0,-1,1357,953,0,0
140,71,0,0,0,0,0,0,0,0,0,-1,1364,953,0,0
147,71,0,0,0,0,0,0,0,0,0,-1,1371,953,0,0
154,71,0,0,0,0,0,0,0,0,0,-1,1378,953,0,0
161,71,0,0,0,0,0,0,0,0,0,-1,1385,953,0,0
168,71,0,0,0,0,0,0,0,0,0,-1,1392,953,0,0
175,71,0,0,0,0,0,0,0,0,0,-1,1399,953,0,0
182,71,0,0,0,0,0,0,0,0,0,-1,1406,953,0,0
189,71,0,0,0,0,0,0,0,0,0,-1,1413,953,0,0
196,71,0,0,0,0,0,0,0,0,0,-1,1420,953,0,0
203,71,0,0,0,0,0,0,0,0,0,-1,1427,953,0,0
210,71,0,0,0,0,0,0,0,0,0,-1,1434,953,0,0
217,71,0,0,0,0,0,0,0,0,0,-1,1441,953,0,0
224,71,0,0,0,0,0,0,0,0,0,-1,1448,953,0,0
231,71,0,0,0,0,0,0,0,0,0,-1,1455,953,0,0
238,71,0,0,0,0,0,0,0,0,0,-1,1462,953,0,0
245,71,0,0,0,0,0,0,0,0,0,-1,1469,953,0,0
252,71,0,0,0,0,0,0,0,0,0,-1,1476,953,0,0
259,71,0,0,0,0,0,0,0,0,0,-1,1483,953,0,0
266,71,0,0,0,0,0,0,0,0,0,-1,1490,953,0,0
273,71,0,0,0,0,0,0,0,0,0,-1,1497,953,0,0
280,71,0,0,0,0,0,0,0,0,0,-1,1504,953,0,0
287,71,0,0,0,0,0,0,0,0,0,-1,1511,953,0,0
294,71,0,0,0,0,0,0,0,0,0,-1,1518,953,0,0
301,71,0,0,0,0,0,0,0,0,0,-1,1525,953,0,0
308,71,0,0,0,0,0,0,0,0,0,-1,1532,953,0,0
315,71,0,0,0,0,0,0,0,0,0,-1,1539,953,0,0
322,71,0,0,0,0,0,0,0,0,0,-1,1546,953,0,0
329,71,0,0,0,0,0,0,0,0,0,-1,1553,953,0,0
336,71,0,0,0,0,0,0,0,0,0,-1,1560,953,0,0
343,71,0,0,0,0,0,0,0,0,0,-1,1567,953,0,0
350,71,0,0,0,0,0,0,0,0,0,-1,1574,953,0,0
357,71,0,0,0,0,0,0,0,0,0,-1,1581,953,0,0
364,71,0,0,0,0,0,0,0,0,0,-1,1588,953,0,0
371,71,0,0,0,0,0,0,0,0,0,-1,1595,953,0,0
378,71,0,0,0,0,0,0,0,0,0,-1,1602,953,0,0
385,71,0,0,0,0,0,0,0,0,0,-1,1609,953,0,0
392,71,0,0,0,0,0,0,0,0,0,-1,1616,953,0,0
399,71,0,0,0,0,0,0,0,0,0,-1,1623,953,0,0
406,71,0,0,0,0,0,0,0,0,0,-1,1630,953,0,0
413,71,0,0,0,0,0,0,0,0,0,-1,1637,953,0,0
420,71,0,0,0,0,0,0,0,0,0,-1,1644,953,0,0
427,71,0,0,0,0,0,0,0,0,0,-1,1651,953,0,0
434,71,0,0,0,0,0,0,0,0,0,-1,1658,953,0,0
441,71,0,0,0,0,0,0,0,0,0,-1,1665,953,0,0
448,71,0,0,0,0,0,0,0,0,0,-1,1672,953,0,0
455,71,0,0,0,0,0,0,0,0,0,-1,1679,953,0,0
462,71,0,0,0,0,0,0,0,0,0,-1,1686,953,0,0
469,71,0,0,0,0,0,0,0,0,0,-1,1693,953,0,0
476,71,0,0,0,0,0,0,0,0,0,-1,1700,953,0,0
483,71,0,0,0,0,0,0,0,0,0,-1,1707,953,0,0
490,71,0,0,0,0,0,0,0,0,0,-1,1714,953,0,0
497,71,0,0,0,0,0,0,0,0,0,-1,1721,953,0,0
504,71,0,0,0,0,0,0,0,0,0,-1,1728,953,0,0
511,71,0,0,0,0,0,0,0,0,0,-1,1735,953,0,0
518,71,0,0,0,0,0,0,0,0,0,-1,1742,953,0,0
525,71,0,0,0,0,0,0,0,0,0,-1,1749,953,0,0
532,71,0,0,0,0,0,0,0,0,0,-1,1756,953,0,0
539,71,0,0,0,0,0,0,0,0,0,-1,1763,953,0,0
546,71,0,0,0,0,0,0,0,0,0,-1,1770,953,0,0
553,71,0,0,0,0,0,0,0,0,0,-1,1777,953,0,0
560,71,0,0,0,0,0,0,0,0,0,-1,1784,953,0,0
567,71,0,0,0,0,0,0,0,0,0,-1,1791,953,0,0
574,71,0,0,0,0,0,0,0,0,0,-1,1798,953,0,0
581,71,0,0,0,0,0,0,0,0,0,-1,1805,953,0,0
588,71,0,0,0,0,0,0,0,0,0,-1,1812,953,0,0
595,71,0,0,0,0,0,0,0,0,0,-1,1819,953,0,0
602,71,0,0,0,0,0,0,0,0,0,-1,1826,953,0,0
609,71,0,0,0,0,0,0,0,0,0,-1,1833,953,0,0
616,71,0,0,0,0,0,0,0,0,0,-1,1840,953,0,0
623,71,0,0,0,0,0,0,0,0,0,-1,1847,953,0,0
630,71,0,0,0,0,0,0,0,0,0,-1,1854,953,0,0
637,71,20.5159,2.68634,0.00048265,0.000584429,0.000947076,0.00148198,-0.000414903,0.812239,0.00115148,0.0439768,1861,953,20.5159,-2.68632
644,71,20.6238,2.58667,0.000572496,0.000809834,0.000591709,0.00129466,8.76738e-05,0.884362,0.000835415,0.0448244,1868,953,20.6238,-2.58669
651,71,20.6738,2.47894,0.000455382,0.000899006,0.000416361,0.00114895,0.000205435,1.03015,0.000707503,0.040284,1875,953,20.6738,-2.47896
658,71,20.8168,2.55646,-0.000140397,0.000959601,0.000443099,0.00111589,-0.000296681,1.23171,0.000860047,0.0376242,1882,953,20.8168,-2.55646
665,71,20.8324,2.71039,-0.00200937,0.00117231,0.000636699,0.00129499,-0.00213205,1.38044,0.00199818,0.0386184,1889,953,20.8324,-2.7104
672,71,20.7324,2.69794,-0.00415161,0.00132685,0.000879802,0.00146467,-0.00428943,1.41541,0.00345299,0.039306,1896,953,20.7324,-2.69793
679,71,20.6573,2.64844,-0.00614126,0.00142793,0.00112602,0.00159189,-0.00630522,1.4262,0.0048225,0.0393979,1903,953,20.6574,-2.64841
686,71,20.7562,2.55847,-0.00776925,0.00149887,0.00125261,0.00166518,-0.00793556,1.4388,0.00592396,0.0364277,1910,953,20.7563,-2.55845
693,71,20.7848,2.52155,-0.00892428,0.00143118,0.00132852,0.0015989,-0.009092,1.44521,0.0066586,0.0329294,1917,953,20.7847,-2.52153
700,71,20.7275,2.60333,-0.00957021,0.00141211,0.00137258,0.00158105,-0.00973916,1.44832,0.00707889,0.0337975,1924,953,20.7276,-2.60335
707,71,20.6643,2.93201,-0.00993977,0.00147767,0.00136651,0.00163895,-0.010101,1.45332,0.00734158,0.0332553,1931,953,20.6643,-2.93198
714,71,19.9907,3.47852,-0.0099396,0.00147098,0.00122524,0.00160106,-0.0100697,1.46503,0.00730552,0.0386279,1938,953,19.9908,-3.47851
721,71,19.6484,3.58002,-0.0094631,0.00155035,0.0010456,0.00164874,-0.00956149,1.47697,0.00698903,0.0298094,1945,953,19.6484,-3.58002
728,71,19.5818,3.75348,-0.00880594,0.00157428,0.000963435,0.00166294,-0.0088946,1.47903,0.00655474,0.0192036,1952,953,19.5817,-3.75348
735,71,19.6045,3.83594,-0.00832053,0.00189977,0.000533319,0.00192752,-0.00834828,1.5188,0.00630699,0.0125615,1959,953,19.6045,-3.83595
742,71,19.5988,3.91718,-0.00810934,0.00301681,-0.000286112,0.00302416,-0.00811669,-1.5451,0.0066524,0.0129423,1966,953,19.5988,-3.9172
749,71,19.5682,4.00543,-0.00810187,0.00408478,-0.000910603,0.00415245,-0.00816953,-1.49662,0.00723902,0.0151429,1973,953,19.5683,-4.00544
756,71,19.5621,4.10516,-0.00862562,0.00593108,-0.00194716,0.00618704,-0.00888158,-1.44009,0.00874611,0.0145706,1980,953,19.5621,-4.10517
763,71,19.5649,4.23334,-0.00966709,0.00822971,-0.00317384,0.00877589,-0.0102133,-1.40038,0.0109739,0.0123843,1987,953,19.565,-4.23336
770,71,19.5303,4.35046,-0.0122574,0.0113929,-0.004642,0.0122714,-0.0131359,-1.38376,0.0146717,0.0138318,1994,953,19.5302,-4.35045
777,71,19.459,4.46826,-0.0159499,0.0152618,-0.00643751,0.0165374,-0.0172256,-1.37518,0.0194944,0.0311948,2001,953,19.459,-4.46824
784,71,19.3951,4.58319,-0.0202668,0.0197766,-0.00864387,0.0215628,-0.022053,-1.36702,0.0251821,0.043998,2008,953,19.3952,-4.5832
791,71,19.5431,4.52423,0,0,0,0,0,0,0,-1,2015,953,19.543,-4.52422
798,71,19.5446,4.24835,-0.0297621,0.0304889,-0.014496,0.0337951,-0.0330683,-1.34655,0.0386044,0.0447663,2022,953,19.5445,-4.24832
805,71,19.9817,3.83838,-0.034366,0.0363116,-0.0180845,0.0406702,-0.0387246,-1.3343,0.0458432,0.0439131,2029,953,19.9817,-3.8384
812,71,0,0,0,0,0,0,0,0,0,-1,2036,953,0,0
-700,64,0,0,0,0,0,0,0,0,0,-1,524,960,0,0
-693,64,0,0,0,0,0,0,0,0,0,-1,531,960,0,0
-686,64,-16.3578,-1.12701,0.0677269,-0.0137803,-0.00915895,0.0687434,-0.0147968,-0.110533,0.0514751,0.0491694,538,960,-16.3578,1.12704
-679,64,-15.1596,-1.07422,0,0,0,0,0,0,0,-1,545,960,-15.1596,1.0742
-672,64,-13.997,-0.941589,0,0,0,0,0,0,0,-1,552,960,-13.997,0.94158
-665,64,-12.8326,2.0755,0.0317614,-0.00662677,0.00257551,0.0319334,-0.0067988,0.066693,0.02388,0.0440145,559,960,-12.8326,-2.07549
-658,64,-12.8431,1.98798,0.0229656,-0.00486142,0.00368922,0.0234464,-0.00534222,0.129595,0.0176827,0.0424411,566,960,-12.8431,-1.98796
-651,64,-12.8162,1.88202,0.0157995,-0.00344453,0.00404585,0.0166155,-0.00426052,0.199017,0.012737,0.0418662,573,960,-12.8162,-1.88203
-644,64,-12.8076,1.89038,0.0102298,-0.0023537,0.00388688,0.0113336,-0.00345749,0.276694,0.00893406,0.0296098,580,960,-12.8075,-1.8904
-637,64,-12.8435,1.8764,0.00624641,-0.00128368,0.00342282,0.00756971,-0.00260698,0.368911,0.00610395,0.0139648,587,960,-12.8435,-1.87641
-630,64,-12.8903,1.81696,0.00204718,-0.000722596,0.00311929,0.00407519,-0.00275061,0.576482,0.00396553,0.0126231,594,960,-12.8903,-1.81698
-623,64,-12.8981,1.72986,-0.00051725,-0.000290028,0.00201788,0.00161744,-0.00242471,0.81352,0.0023492,0.0131717,601,960,-12.8981,-1.72987
-616,64,-12.9004,1.62714,-0.0023604,0.000309939,0.000821937,0.000542653,-0.00259311,1.29489,0.00193515,0.0166218,608,960,-12.9004,-1.62716
-609,64,-12.8785,1.55127,-0.00397477,0.000117421,6.49788e-05,0.000118452,-0.0039758,1.55492,0.00269089,0.0157708,615,960,-12.8785,-1.55129
-602,64,-12.8579,1.45898,-0.00503616,0.000699223,-0.000467253,0.00073704,-0.00507398,-1.49004,0.0036532,0.0154646,622,960,-12.8579,-1.459
-595,64,-12.8771,1.39526,-0.00577426,0.00101943,-0.00105413,0.00117924,-0.00593406,-1.42034,0.00440209,0.0164369,629,960,-12.8772,-1.39528
-588,64,-12.8909,1.37006,-0.00614295,0.00102213,-0.00139757,0.00128508,-0.0064059,-1.38482,0.00475717,0.0230591,636,960,-12.8909,-1.37006
-581,64,-13.0254,1.21338,-0.00626926,0.000920757,-0.00159294,0.00125787,-0.00660637,-1.36225,0.0048779,0.028564,643,960,-13.0254,-1.21337
-574,64,-13.2412,1.07153,-0.00627372,0.000999651,-0.00170707,0.00138037,-0.00665444,-1.35136,0.00496085,0.0304051,650,960,-13.2412,-1.07151
-567,64,-13.2982,0.858826,-0.00597152,0.00106749,-0.00168959,0.00145204,-0.00635607,-1.34701,0.00479524,0.0255376,657,960,-13.2982,-0.858802
-560,64,-13.3826,0.851135,-0.00521406,0.00112317,-0.00156899,0.00149034,-0.00558124,-1.34091,0.00430448,0.0361837,664,960,-13.3826,-0.851133
-553,64,-13.4877,0.853394,-0.00391868,0.00118799,-0.00137972,0.00153692,-0.00426761,-1.32309,0.00347266,0.0399078,671,960,-13.4877,-0.853386
-546,64,-13.4865,0.801331,-0.00209283,0.00126226,-0.00113874,0.00161225,-0.00244282,-1.27261,0.00235751,0.0400972,678,960,-13.4865,-0.801329
-539,64,-13.4454,0.822754,0.000217343,0.00134867,-0.000878511,0.00182788,-0.000261865,-1.07143,0.0013146,0.0407669,685,960,-13.4454,-0.822737
-532,64,-13.3667,0.58783,0.00280028,0.00151816,-0.000746351,0.00314309,0.00117535,-0.430571,0.00183379,0.0405477,692,960,-13.3667,-0.58782
-525,64,-13.5598,0.519897,0.00486767,0.0019581,-0.000930683,0.00513989,0.00168587,-0.284564,0.00302548,0.0405086,699,960,-13.5598,-0.519898
-518,64,0,0,0,0,0,0,0,0,0,-1,706,960,0,0
-511,64,0,0,0,0,0,0,0,0,0,-1,713,960,0,0
-504,64,0,0,0,0,0,0,0,0,0,-1,720,960,0,0
-497,64,0,0,0,0,0,0,0,0,0,-1,727,960,0,0
-490,64,0,0,0,0,0,0,0,0,0,-1,734,960,0,0
-483,64,0,0,0,0,0,0,0,0,0,-1,741,960,0,0
-476,64,0,0,0,0,0,0,0,0,0,-1,748,960,0,0
-469,64,0,0,0,0,0,0,0,0,0,-1,755,960,0,0
-462,64,0,0,0,0,0,0,0,0,0,-1,762,960,0,0
-455,64,0,0,0,0,0,0,0,0,0,-1,769,960,0,0
-448,64,0,0,0,0,0,0,0,0,0,-1,776,960,0,0
-441,64,0,0,0,0,0,0,0,0,0,-1,783,960,0,0
-434,64,0,0,0,0,0,0,0,0,0,-1,790,960,0,0
-427,64,0,0,0,0,0,0,0,0,0,-1,797,960,0,0
-420,64,0,0,0,0,0,0,0,0,0,-1,804,960,0,0
-413,64,0,0,0,0,0,0,0,0,0,-1,811,960,0,0
-406,64,0,0,0,0,0,0,0,0,0,-1,818,960,0,0
-399,64,0,0,0,0,0,0,0,0,0,-1,825,960,0,0
-392,64,0,0,0,0,0,0,0,0,0,-1,832,960,0,0
-385,64,0,0,0,0,0,0,0,0,0,-1,839,960,0,0
-378,64,0,0,0,0,0,0,0,0,0,-1,846,960,0,0
-371,64,0,0,0,0,0,0,0,0,0,-1,853,960,0,0
-364,64,0,0,0,0,0,0,0,0,0,-1,860,960,0,0
-357,64,0,0,0,0,0,0,0,0,0,-1,867,960,0,0
-350,64,0,0,0,0,0,0,0,0,0,-1,874,960,0,0
-343,64,0,0,0,0,0,0,0,0,0,-1,881,960,0,0
-336,64,0,0,0,0,0,0,0,0,0,-1,888,960,0,0
-329,64,0,0,0,0,0,0,0,0,0,-1,895,960,0,0
-322,64,0,0,0,0,0,0,0,0,0,-1,902,960,0,0
-315,64,0,0,0,0,0,0,0,0,0,-1,909,960,0,0
-308,64,0,0,0,0,0,0,0,0,0,-1,916,960,0,0
-301,64,0,0,0,0,0,0,0,0,0,-1,923,960,0,0
-294,64,0,0,0,0,0,0,0,0,0,-1,930,960,0,0
-287,64,0,0,0,0,0,0,0,0,0,-1,937,960,0,0
-280,64,0,0,0,0,0,0,0,0,0,-1,944,960,0,0
-273,64,0,0,0,0,0,0,0,0,0,-1,951,960,0,0
-266,64,0,0,0,0,0,0,0,0,0,-1,958,960,0,0
-259,64,0,0,0,0,0,0,0,0,0,-1,965,960,0,0
-252,64,0,0,0,0,0,0,0,0,0,-1,972,960,0,0
-245,64,0,0,0,0,0,0,0,0,0,-1,979,960,0,0
-238,64,0,0,0,0,0,0,0,0,0,-1,986,960,0,0
-231,64,0,0,0,0,0,0,0,0,0,-1,993,960,0,0
-224,64,0,0,0,0,0,0,0,0,0,-1,1000,960,0,0
-217,64,0,0,0,0,0,0,0,0,0,-1,1007,960,0,0
-210,64,0,0,0,0,0,0,0,0,0,-1,1014,960,0,0
-203,64,0,0,0,0,0,0,0,0,0,-1,1021,960,0,0
-196,64,0,0,0,0,0,0,0,0,0,-1,1028,960,0,0
-189,64,0,0,0,0,0,0,0,0,0,-1,1035,960,0,0
-182,64,0,0,0,0,0,0,0,0,0,-1,1042,960,0,0
-175,64,0,0,0,0,0,0,0,0,0,-1,1049,960,0,0
-168,64,0,0,0,0,0,0,0,0,0,-1,1056,960,0,0
-161,64,0,0,0,0,0,0,0,0,0,-1,1063,960,0,0
-154,64,0,0,0,0,0,0,0,0,0,-1,1070,960,0,0
-147,64,0,0,0,0,0,0,0,0,0,-1,1077,960,0,0
-140,64,0,0,0,0,0,0,0,0,0,-1,1084,960,0,0
-133,64,0,0,0,0,0,0,0,0,0,-1,1091,960,0,0
-126,64,0,0,0,0,0,0,0,0,0,-1,1098,960,0,0
-119,64,0,0,0,0,0,0,0,0,0,-1,1105,960,0,0
-112,64,0,0,0,0,0,0,0,0,0,-1,1112,960,0,0
-105,64,0,0,0,0,0,0,0,0,0,-1,1119,960,0,0
-98,64,0,0,0,0,0,0,0,0,0,-1,1126,960,0,0
-91,64,0,0,0,0,0,0,0,0,0,-1,1133,960,0,0
-84,64,0,0,0,0,0,0,0,0,0,-1,1140,960,0,0
-77,64,0,0,0,0,0,0,0,0,0,-1,1147,960,0,0
-70,64,0,0,0,0,0,0,0,0,0,-1,1154,960,0,0
-63,64,0,0,0,0,0,0,0,0,0,-1,1161,960,0,0
-56,64,0,0,0,0,0,0,0,0,0,-1,1168,960,0,0
-49,64,0,0,0,0,0,0,0,0,0,-1,1175,960,0,0
-42,64,0,0,0,0,0,0,0,0,0,-1,1182,960,0,0
-35,64,0,0,0,0,0,0,0,0,0,-1,1189,960,0,0
-28,64,0,0,0,0,0,0,0,0,0,-1,1196,960,0,0
-21,64,0,0,0,0,0,0,0,0,0,-1,1203,960,0,0
-14,64,0,0,0,0,0,0,0,0,0,-1,1210,960,0,0
-7,64,0,0,0,0,0,0,0,0,0,-1,1217,960,0,0
0,64,0,0,0,0,0,0,0,0,0,-1,1224,960,0,0
7,64,0,0,0,0,0,0,0,0,0,-1,1231,960,0,0
14,64,0,0,0,0,0,0,0,0,0,-1,1238,960,0,0
21,64,0,0,0,0,0,0,0,0,0,-1,1245,960,0,0
28,64,0,0,0,0,0,0,0,0,0,-1,1252,960,0,0
35,64,0,0,0,0,0,0,0,0,0,-1,1259,960,0,0
42,64,0,0,0,0,0,0,0,0,0,-1,1266,960,0,0
49,64,0,0,0,0,0,0,0,0,0,-1,1273,960,0,0
56,64,0,0,0,0,0,0,0,0,0,-1,1280,960,0,0
63,64,0,0,0,0,0,0,0,0,0,-1,1287,960,0,0
70,64,0,0,0,0,0,0,0,0,0,-1,1294,960,0,0
77,64,0,0,0,0,0,0,0,0,0,-1,1301,960,0,0
84,64,0,0,0,0,0,0,0,0,0,-1,1308,960,0,0
91,64,0,0,0,0,0,0,0,0,0,-1,1315,960,0,0
98,64,0,0,0,0,0,0,0,0,0,-1,1322,960,0,0
105,64,0,0,0,0,0,0,0,0,0,-1,1329,960,0,0
112,64,0,0,0,0,0,0,0,0,0,-1,1336,960,0,0
119,64,0,0,0,0,0,0,0,0,0,-1,1343,960,0,0
126,64,0,0,0,0,0,0,0,0,0,-1,1350,960,0,0
133,64,0,0,0,0,0,0,0,0,0,-1,1357,960,0,0
140,64,0,0,0,0,0,0,0,0,0,-1,1364,960,0,0
147,64,0,0,0,0,0,0,0,0,0,-1,1371,960,0,0
154,64,0,0,0,0,0,0,0,0,0,-1,1378,960,0,0
161,64,0,0,0,0,0,0,0,0,0,-1,1385,960,0,0
168,64,0,0,0,0,0,0,0,0,0,-1,1392,960,0,0
175,64,0,0,0,0,0,0,0,0,0,-1,1399,960,0,0
182,64,0,0,0,0,0,0,0,0,0,-1,1406,960,0,0
189,64,0,0,0,0,0,0,0,0,0,-1,1413,960,0,0
196,64,0,0,0,0,0,0,0,0,0,-1,1420,960,0,0
203,64,0,0,0,0,0,0,0,0,0,-1,1427,960,0,0
210,64,0,0,0,0,0,0,0,0,0,-1,1434,960,0,0
217,64,0,0,0,0,0,0,0,0,0,-1,1441,960,0,0
224,64,0,0,0,0,0,0,0,0,0,-1,1448,960,0,0
231,64,0,0,0,0,0,0,0,0,0,-1,1455,960,0,0
238,64,0,0,0,0,0,0,0,0,0,-1,1462,960,0,0
245,64,0,0,0,0,0,0,0,0,0,-1,1469,960,0,0
252,64,0,0,0,0,0,0,0,0,0,-1,1476,960,0,0
259,64,0,0,0,0,0,0,0,0,0,-1,1483,960,0,0
266,64,0,0,0,0,0,0,0,0,0,-1,1490,960,0,0
273,64,0,0,0,0,0,0,0,0,0,-1,1497,960,0,0
280,64,0,0,0,0,0,0,0,0,0,-1,1504,960,0,0
287,64,0,0,0,0,0,0,0,0,0,-1,1511,960,0,0
294,64,0,0,0,0,0,0,0,0,0,-1,1518,960,0,0
301,64,0,0,0,0,0,0,0,0,0,-1,1525,960,0,0
308,64,0,0,0,0,0,0,0,0,0,-1,1532,960,0,0
315,64,0,0,0,0,0,0,0,0,0,-1,1539,960,0,0
322,64,0,0,0,0,0,0,0,0,0,-1,1546,960,0,0
329,64,0,0,0,0,0,0,0,0,0,-1,1553,960,0,0
336,64,0,0,0,0,0,0,0,0,0,-1,1560,960,0,0
343,64,0,0,0,0,0,0,0,0,0,-1,1567,960,0,0
350,64,0,0,0,0,0,0,0,0,0,-1,1574,960,0,0
357,64,0,0,0,0,0,0,0,0,0,-1,1581,960,0,0
364,64,0,0,0,0,0,0,0,0,0,-1,1588,960,0,0
371,64,0,0,0,0,0,0,0,0,0,-1,1595,960,0,0
378,64,0,0,0,0,0,0,0,0,0,-1,1602,960,0,0
385,64,0,0,0,0,0,0,0,0,0,-1,1609,960,0,0
392,64,0,0,0,0,0,0,0,0,0,-1,1616,960,0,0
399,64,0,0,0,0,0,0,0,0,0,-1,1623,960,0,0
406,64,0,0,0,0,0,0,0,0,0,-1,1630,960,0,0
413,64,0,0,0,0,0,0,0,0,0,-1,1637,960,0,0
420,64,0,0,0,0,0,0,0,0,0,-1,1644,960,0,0
427,64,0,0,0,0,0,0,0,0,0,-1,1651,960,0,0
434,64,0,0,0,0,0,0,0,0,0,-1,1658,960,0,0
441,64,0,0,0,0,0,0,0,0,0,-1,1665,960,0,0
448,64,0,0,0,0,0,0,0,0,0,-1,1672,960,0,0
455,64,0,0,0,0,0,0,0,0,0,-1,1679,960,0,0
462,64,0,0,0,0,0,0,0,0,0,-1,1686,960,0,0
469,64,0,0,0,0,0,0,0,0,0,-1,1693,960,0,0
476,64,0,0,0,0,0,0,0,0,0,-1,1700,960,0,0
483,64,0,0,0,0,0,0,0,0,0,-1,1707,960,0,0
490,64,0,0,0,0,0,0,0,0,0,-1,1714,960,0,0
497,64,0,0,0,0,0,0,0,0,0,-1,1721,960,0,0
504,64,0,0,0,0,0,0,0,0,0,-1,1728,960,0,0
511,64,0,0,0,0,0,0,0,0,0,-1,1735,960,0,0
518,64,0,0,0,0,0,0,0,0,0,-1,1742,960,0,0
525,64,0,0,0,0,0,0,0,0,0,-1,1749,960,0,0
532,64,0,0,0,0,0,0,0,0,0,-1,1756,960,0,0
539,64,0,0,0,0,0,0,0,0,0,-1,1763,960,0,0
546,64,0,0,0,0,0,0,0,0,0,-1,1770,960,0,0
553,64,0,0,0,0,0,0,0,0,0,-1,1777,960,0,0
560,64,0,0,0,0,0,0,0,0,0,-1,1784,960,0,0
567,64,0,0,0,0,0,0,0,0,0,-1,1791,960,0,0
574,64,0,0,0,0,0,0,0,0,0,-1,1798,960,0,0
581,64,0,0,0,0,0,0,0,0,0,-1,1805,960,0,0
588,64,0,0,0,0,0,0,0,0,0,-1,1812,960,0,0
595,64,0,0,0,0,0,0,0,0,0,-1,1819,960,0,0
602,64,0,0,0,0,0,0,0,0,0,-1,1826,960,0,0
609,64,0,0,0,0,0,0,0,0,0,-1,1833,960,0,0
616,64,0,0,0,0,0,0,0,0,0,-1,1840,960,0,0
623,64,0,0,0,0,0,0,0,0,0,-1,1847,960,0,0
630,64,0,0,0,0,0,0,0,0,0,-1,1854,960,0,0
637,64,0,0,0,0,0,0,0,0,0,-1,1861,960,0,0
644,64,20.6832,2.62323,0.000629432,-0.000328339,0.000891277,0.00116233,-0.000861237,0.538877,0.00117261,0.0425547,1868,960,20.6832,-2.62322
651,64,20.6627,2.66534,0.00054952,-4.62325e-05,0.000612326,0.000932579,-0.000429292,0.559017,0.000803975,0.0391103,1875,960,20.6627,-2.66532
658,64,20.8425,2.64594,0.000369528,0.000165473,0.000611367,0.000887322,-0.000352321,0.702718,0.000737591,0.0364201,1882,960,20.8426,-2.64592
665,64,20.8344,2.74268,-0.00104354,0.000545765,0.000834126,0.000903171,-0.00140095,1.16598,0.00134059,0.0381038,1889,960,20.8344,-2.74265
672,64,20.8248,2.66083,-0.00285926,0.000880962,0.00114243,0.0012023,-0.0031806,1.2966,0.00261498,0.0416049,1896,960,20.8248,-2.66084
679,64,20.7708,2.60004,-0.00462528,0.00113791,0.00145852,0.001486,-0.00497337,1.33652,0.00390629,0.0397304,1903,960,20.7707,-2.60003
686,64,20.7655,2.50433,-0.006098,0.00131813,0.00165666,0.00167138,-0.00645124,1.36071,0.00495287,0.034297,1910,960,20.7655,-2.50435
693,64,20.7543,2.47925,-0.00718841,0.0013521,0.00176963,0.00170425,-0.00754056,1.37436,0.00568098,0.0338521,1917,960,20.7543,-2.47926
700,64,20.746,2.68811,-0.0078325,0.00141407,0.00181246,0.00175665,-0.00817508,1.38399,0.00612022,0.0326628,1924,960,20.746,-2.6881
707,64,20.7144,2.87567,-0.00827662,0.00153773,0.00179288,0.00185499,-0.00859388,1.39565,0.0064373,0.0384577,1931,960,20.7144,-2.87566
714,64,20.2147,3.60364,0,0,0,0,0,0,0,-1,1938,960,20.2147,-3.60361
721,64,19.7666,3.59668,-0.00815189,0.001647,0.00144154,0.00185467,-0.00835956,1.42772,0.00628318,0.031147,1945,960,19.7667,-3.5967
728,64,19.66,3.78076,-0.00775133,0.00169063,0.00134179,0.00187761,-0.00793831,1.43234,0.00601654,0.0153203,1952,960,19.66,-3.78079
735,64,19.6749,3.86957,-0.00752001,0.00196574,0.000919709,0.00205409,-0.00760836,1.47503,0.00587781,0.0181307,1959,960,19.6749,-3.86958
742,64,19.7145,3.9173,-0.0075571,0.00288099,0.000112029,0.00288219,-0.0075583,1.56007,0.00622609,0.0162083,1966,960,19.7144,-3.91732
749,64,19.6775,4.00031,-0.00774064,0.00370919,-0.000524356,0.00373316,-0.0077646,-1.52513,0.00677289,0.0129931,1973,960,19.6775,-4.00029
756,64,19.6635,4.10376,-0.00828448,0.00518106,-0.00153771,0.00535443,-0.00845785,-1.45853,0.00804134,0.0136974,1980,960,19.6635,-4.10378
763,64,19.6593,4.22296,-0.00913482,0.00704327,-0.00276412,0.0075025,-0.00959406,-1.40616,0.00989529,0.0126392,1987,960,19.6593,-4.22295
770,64,19.6243,4.33032,-0.0112878,0.00957537,-0.00416705,0.0103769,-0.0120893,-1.38077,0.0129834,0.0124386,1994,960,19.6243,-4.3303
777,64,19.5348,4.51941,-0.0144334,0.0127216,-0.00588421,0.0139419,-0.0156536,-1.36632,0.0170965,0.0278776,2001,960,19.5347,-4.51941
784,64,19.3728,4.60876,-0.0180522,0.0163124,-0.00804954,0.0181045,-0.0198443,-1.35174,0.0219174,0.0418447,2008,960,19.3728,-4.60879
791,64,19.0737,4.64508,0,0,0,0,0,0,0,-1,2015,960,19.0738,-4.64508
798,64,18.2316,4.94714,-0.0257839,0.0247653,-0.0142075,0.0284849,-0.0295034,-1.31474,0.0334813,0.0491493,2022,960,18.2316,-4.94712
805,64,18.3942,5.10419,-0.0293453,0.0294181,-0.0183734,0.0346899,-0.0346172,-1.29138,0.0400145,0.0486288,2029,960,18.3941,-5.10417
812,64,0,0,0,0,0,0,0,0,0,-1,2036,960,0,0
-700,57,0,0,0,0,0,0,0,0,0,-1,524,967,0,0
-693,57,0,0,0,0,0,0,0,0,0,-1,531,967,0,0
-686,57,-15.6396,-1.16821,0,0,0,0,0,0,0,-1,538,967,-15.6396,1.16821
-679,57,-14.4828,-1.13867,0,0,0,0,0,0,0,-1,545,967,-14.4828,1.13864
-672,57,-13.9916,-0.571228,0,0,0,0,0,0,0,-1,552,967,-13.9916,0.571206
-665,57,-12.8741,1.99365,0.0306165,-0.00651794,0.00426178,0.0310993,-0.00700077,0.112812,0.0234179,0.0463129,559,967,-12.8741,-1.99363
-658,57,-12.5531,1.92682,0.0220914,-0.00411075,0.0052264,0.0230954,-0.00511476,0.189792,0.0173549,0.0491523,566,967,-12.5531,-1.92682
-651,57,-12.7877,1.7865,0.0151789,-0.00236325,0.00535309,0.0166834,-0.00386775,0.273984,0.0126108,0.0452794,573,967,-12.7877,-1.78652
-644,57,-12.8604,1.84601,0.00981282,-0.00118855,0.00490433,0.0116817,-0.0030574,0.364074,0.00898207,0.028064,580,967,-12.8604,-1.84599
-637,57,-12.9306,1.81769,0.00599853,-6.04319e-05,0.00417427,0.00812679,-0.00218869,0.471498,0.00627595,0.0140219,587,967,-12.9306,-1.81768
-630,57,-12.9816,1.75989,0.00186952,0.000403262,0.00361937,0.00482927,-0.00255648,0.685471,0.00433094,0.0121474,594,967,-12.9816,-1.75987
-623,57,-12.9689,1.71533,-0.000651469,0.000722672,0.00218649,0.0023275,-0.00225629,0.937631,0.00264656,0.0117855,601,967,-12.9689,-1.71531
-616,57,-12.957,1.62433,-0.00226719,0.00108752,0.000630342,0.00120205,-0.00238172,1.39106,0.00210612,0.014358,608,967,-12.957,-1.62431
-609,57,-12.9633,1.52826,-0.00361696,0.000452459,-0.000346389,0.000481733,-0.00364624,-1.48648,0.00260629,0.0143084,615,967,-12.9632,-1.52823
-602,57,-12.9649,1.4549,-0.0044568,0.000918902,-0.000979156,0.0010917,-0.0046296,-1.39612,0.00350739,0.0100665,622,967,-12.9649,-1.45488
-595,57,-12.9589,1.41571,-0.0050608,0.00115837,-0.00158625,0.00153959,-0.00544202,-1.33494,0.00423553,0.0116408,629,967,-12.9589,-1.4157
-588,57,-12.9915,1.40527,-0.00535153,0.00112509,-0.00189892,0.00164079,-0.00586722,-1.30562,0.00455794,0.0177522,636,967,-12.9915,-1.40529
-581,57,-13.1576,1.19934,-0.00540937,0.000996623,-0.00204202,0.00159219,-0.00600493,-1.28701,0.00462627,0.0249757,643,967,-13.1576,-1.19936
-574,57,-13.311,0.953552,-0.00535805,0.00103398,-0.00210565,0.00166527,-0.00598933,-1.27952,0.00464849,0.0272595,650,967,-13.311,-0.953534
-567,57,-13.3177,0.764404,-0.00506269,0.00100723,-0.00197236,0.00159182,-0.00564728,-1.28265,0.00439268,0.0302742,657,967,-13.3178,-0.764399
-560,57,-13.2989,0.82489,-0.00437226,0.000959151,-0.00171361,0.00146243,-0.00487554,-1.28513,0.00383201,0.0396155,664,967,-13.2989,-0.824876
-553,57,-13.3766,0.900635,-0.00320882,0.000885899,-0.00136441,0.00129888,-0.00362181,-1.27688,0.00294459,0.040149,671,967,-13.3767,-0.900635
-546,57,-13.4875,0.941467,-0.00157143,0.00078593,-0.000950917,0.00112169,-0.00190719,-1.23137,0.00176822,0.0416806,678,967,-13.4875,-0.941458
-539,57,-13.6042,0.948364,0.000520637,0.000664255,-0.000536554,0.00113378,5.11076e-05,-0.85192,0.000739409,0.0432397,685,967,-13.6043,-0.948334
-532,57,-13.5333,0.847778,0.00283897,0.000634296,-0.000326309,0.00288625,0.000587014,-0.143899,0.00176141,0.0390166,692,967,-13.5333,-0.847793
-525,57,-13.4786,0.733459,0.00461308,0.000916071,-0.000526449,0.00468658,0.000842567,-0.138726,0.00288484,0.0377255,699,967,-13.4786,-0.733438
-518,57,0,0,0,0,0,0,0,0,0,-1,706,967,0,0
-511,57,0,0,0,0,0,0,0,0,0,-1,713,967,0,0
-504,57,0,0,0,0,0,0,0,0,0,-1,720,967,0,0
-497,57,0,0,0,0,0,0,0,0,0,-1,727,967,0,0
-490,57,0,0,0,0,0,0,0,0,0,-1,734,967,0,0
-483,57,0,0,0,0,0,0,0,0,0,-1,741,967,0,0
-476,57,0,0,0,0,0,0,0,0,0,-1,748,967,0,0
-469,57,0,0,0,0,0,0,0,0,0,-1,755,967,0,0
-462,57,0,0,0,0,0,0,0,0,0,-1,762,967,0,0
-455,57,0,0,0,0,0,0,0,0,0,-1,769,967,0,0
-448,57,0,0,0,0,0,0,0,0,0,-1,776,967,0,0
-441,57,0,0,0,0,0,0,0,0,0,-1,783,967,0,0
-434,57,0,0,0,0,0,0,0,0,0,-1,790,967,0,0
-427,57,0,0,0,0,0,0,0,0,0,-1,797,967,0,0
-420,57,0,0,0,0,0,0,0,0,0,-1,804,967,0,0
-413,57,0,0,0,0,0,0,0,0,0,-1,811,967,0,0
-406,57,0,0,0,0,0,0,0,0,0,-1,818,967,0,0
-399,57,0,0,0,0,0,0,0,0,0,-1,825,967,0,0
-392,57,0,0,0,0,0,0,0,0,0,-1,832,967,0,0
-385,57,0,0,0,0,0,0,0,0,0,-1,839,967,0,0
-378,57,0,0,0,0,0,0,0,0,0,-1,846,967,0,0
-371,57,0,0,0,0,0,0,0,0,0,-1,853,967,0,0
-364,57,0,0,0,0,0,0,0,0,0,-1,860,967,0,0
-357,57,0,0,0,0,0,0,0,0,0,-1,867,967,0,0
-350,57,0,0,0,0,0,0,0,0,0,-1,874,967,0,0
-343,57,0,0,0,0,0,0,0,0,0,-1,881,967,0,0
-336,57,0,0,0,0,0,0,0,0,0,-1,888,967,0,0
-329,57,0,0,0,0,0,0,0,0,0,-1,895,967,0,0
-322,57,0,0,0,0,0,0,0,0,0,-1,902,967,0,0
-315,57,0,0,0,0,0,0,0,0,0,-1,909,967,0,0
-308,57,0,0,0,0,0,0,0,0,0,-1,916,967,0,0
-301,57,0,0,0,0,0,0,0,0,0,-1,923,967,0,0
-294,57,0,0,0,0,0,0,0,0,0,-1,930,967,0,0
-287,57,0,0,0,0,0,0,0,0,0,-1,937,967,0,0
-280,57,0,0,0,0,0,0,0,0,0,-1,944,967,0,0
-273,57,0,0,0,0,0,0,0,0,0,-1,951,967,0,0
-266,57,0,0,0,0,0,0,0,0,0,-1,958,967,0,0
-259,57,0,0,0,0,0,0,0,0,0,-1,965,967,0,0
-252,57,0,0,0,0,0,0,0,0,0,-1,972,967,0,0
-245,57,0,0,0,0,0,0,0,0,0,-1,979,967,0,0
-238,57,0,0,0,0,0,0,0,0,0,-1,986,967,0,0
-231,57,0,0,0,0,0,0,0,0,0,-1,993,967,0,0
-224,57,0,0,0,0,0,0,0,0,0,-1,1000,967,0,0
-217,57,0,0,0,0,0,0,0,0,0,-1,1007,967,0,0
-210,57,0,0,0,0,0,0,0,0,0,-1,1014,967,0,0
-203,57,0,0,0,0,0,0,0,0,0,-1,1021,967,0,0
-196,57,0,0,0,0,0,0,0,0,0,-1,1028,967,0,0
-189,57,0,0,0,0,0,0,0,0,0,-1,1035,967,0,0
-182,57,0,0,0,0,0,0,0,0,0,-1,1042,967,0,0
-175,57,0,0,0,0,0,0,0,0,0,-1,1049,967,0,0
-168,57,0,0,0,0,0,0,0,0,0,-1,1056,967,0,0
-161,57,0,0,0,0,0,0,0,0,0,-1,1063,967,0,0
-154,57,0,0,0,0,0,0,0,0,0,-1,1070,967,0,0
-147,57,0,0,0,0,0,0,0,0,0,-1,1077,967,0,0
-140,57,0,0,0,0,0,0,0,0,0,-1,1084,967,0,0
-133,57,0,0,0,0,0,0,0,0,0,-1,1091,967,0,0
-126,57,0,0,0,0,0,0,0,0,0,-1,1098,967,0,0
-119,57,0,0,0,0,0,0,0,0,0,-1,1105,967,0,0
-112,57,0,0,0,0,0,0,0,0,0,-1,1112,967,0,0
-105,57,0,0,0,0,0,0,0,0,0,-1,1119,967,0,0
-98,57,0,0,0,0,0,0,0,0,0,-1,1126,967,0,0
-91,57,0,0,0,0,0,0,0,0,0,-1,1133,967,0,0
-84,57,0,0,0,0,0,0,0,0,0,-1,1140,967,0,0
-77,57,0,0,0,0,0,0,0,0,0,-1,1147,967,0,0
-70,57,0,0,0,0,0,0,0,0,0,-1,1154,967,0,0
-63,57,0,0,0,0,0,0,0,0,0,-1,1161,967,0,0
-56,57,0,0,0,0,0,0,0,0,0,-1,1168,967,0,0
-49,57,0,0,0,0,0,0,0,0,0,-1,1175,967,0,0
-42,57,0,0,0,0,0,0,0,0,0,-1,1182,967,0,0
-35,57,0,0,0,0,0,0,0,0,0,-1,1189,967,0,0
-28,57,0,0,0,0,0,0,0,0,0,-1,1196,967,0,0
-21,57,0,0,0,0,0,0,0,0,0,-1,1203,967,0,0
-14,57,0,0,0,0,0,0,0,0,0,-1,1210,967,0,0
-7,57,0,0,0,0,0,0,0,0,0,-1,1217,967,0,0
0,57,0,0,0,0,0,0,0,0,0,-1,1224,967,0,0
7,57,0,0,0,0,0,0,0,0,0,-1,1231,967,0,0
14,57,0,0,0,0,0,0,0,0,0,-1,1238,967,0,0
21,57,0,0,0,0,0,0,0,0,0,-1,1245,967,0,0
28,57,0,0,0,0,0,0,0,0,0,-1,1252,967,0,0
35,57,0,0,0,0,0,0,0,0,0,-1,1259,967,0,0
42,57,0,0,0,0,0,0,0,0,0,-1,1266,967,0,0
49,57,0,0,0,0,0,0,0,0,0,-1,1273,967,0,0
56,57,0,0,0,0,0,0,0,0,0,-1,1280,967,0,0
63,57,0,0,0,0,0,0,0,0,0,-1,1287,967,0,0
70,57,0,0,0,0,0,0,0,0,0,-1,1294,967,0,0
77,57,0,0,0,0,0,0,0,0,0,-1,1301,967,0,0
84,57,0,0,0,0,0,0,0,0,0,-1,1308,967,0,0
91,57,0,0,0,0,0,0,0,0,0,-1,1315,967,0,0
98,57,0,0,0,0,0,0,0,0,0,-1,1322,967,0,0
105,57,0,0,0,0,0,0,0,0,0,-1,1329,967,0,0
112,57,0,0,0,0,0,0,0,0,0,-1,1336,967,0,0
119,57,0,0,0,0,0,0,0,0,0,-1,1343,967,0,0
126,57,0,0,0,0,0,0,0,0,0,-1,1350,967,0,0
133,57,0,0,0,0,0,0,0,0,0,-1,1357,967,0,0
140,57,0,0,0,0,0,0,0,0,0,-1,1364,967,0,0
147,57,0,0,0,0,0,0,0,0,0,-1,1371,967,0,0
154,57,0,0,0,0,0,0,0,0,0,-1,1378,967,0,0
161,57,0,0,0,0,0,0,0,0,0,-1,1385,967,0,0
168,57,0,0,0,0,0,0,0,0,0,-1,1392,967,0,0
175,57,0,0,0,0,0,0,0,0,0,-1,1399,967,0,0
182,57,0,0,0,0,0,0,0,0,0,-1,1406,967,0,0
189,57,0,0,0,0,0,0,0,0,0,-1,1413,967,0,0
196,57,0,0,0,0,0,0,0,0,0,-1,1420,967,0,0
203,57,0,0,0,0,0,0,0,0,0,-1,1427,967,0,0
210,57,0,0,0,0,0,0,0,0,0,-1,1434,967,0,0
217,57,0,0,0,0,0,0,0,0,0,-1,1441,967,0,0
224,57,0,0,0,0,0,0,0,0,0,-1,1448,967,0,0
231,57,0,0,0,0,0,0,0,0,0,-1,1455,967,0,0
238,57,0,0,0,0,0,0,0,0,0,-1,1462,967,0,0
245,57,0,0,0,0,0,0,0,0,0,-1,1469,967,0,0
252,57,0,0,0,0,0,0,0,0,0,-1,1476,967,0,0
259,57,0,0,0,0,0,0,0,0,0,-1,1483,967,0,0
266,57,0,0,0,0,0,0,0,0,0,-1,1490,967,0,0
273,57,0,0,0,0,0,0,0,0,0,-1,1497,967,0,0
280,57,0,0,0,0,0,0,0,0,0,-1,1504,967,0,0
287,57,0,0,0,0,0,0,0,0,0,-1,1511,967,0,0
294,57,0,0,0,0,0,0,0,0,0,-1,1518,967,0,0
301,57,0,0,0,0,0,0,0,0,0,-1,1525,967,0,0
308,57,0,0,0,0,0,0,0,0,0,-1,1532,967,0,0
315,57,0,0,0,0,0,0,0,0,0,-1,1539,967,0,0
322,57,0,0,0,0,0,0,0,0,0,-1,1546,967,0,0
329,57,0,0,0,0,0,0,0,0,0,-1,1553,967,0,0
336,57,0,0,0,0,0,0,0,0,0,-1,1560,967,0,0
343,57,0,0,0,0,0,0,0,0,0,-1,1567,967,0,0
350,57,0,0,0,0,0,0,0,0,0,-1,1574,967,0,0
357,57,0,0,0,0,0,0,0,0,0,-1,1581,967,0,0
364,57,0,0,0,0,0,0,0,0,0,-1,1588,967,0,0
371,57,0,0,0,0,0,0,0,0,0,-1,1595,967,0,0
378,57,0,0,0,0,0,0,0,0,0,-1,1602,967,0,0
385,57,0,0,0,0,0,0,0,0,0,-1,1609,967,0,0
392,57,0,0,0,0,0,0,0,0,0,-1,1616,967,0,0
399,57,0,0,0,0,0,0,0,0,0,-1,1623,967,0,0
406,57,0,0,0,0,0,0,0,0,0,-1,1630,967,0,0
413,57,0,0,0,0,0,0,0,0,0,-1,1637,967,0,0
420,57,0,0,0,0,0,0,0,0,0,-1,1644,967,0,0
427,57,0,0,0,0,0,0,0,0,0,-1,1651,967,0,0
434,57,0,0,0,0,0,0,0,0,0,-1,1658,967,0,0
441,57,0,0,0,0,0,0,0,0,0,-1,1665,967,0,0
448,57,0,0,0,0,0,0,0,0,0,-1,1672,967,0,0
455,57,0,0,0,0,0,0,0,0,0,-1,1679,967,0,0
462,57,0,0,0,0,0,0,0,0,0,-1,1686,967,0,0
469,57,0,0,0,0,0,0,0,0,0,-1,1693,967,0,0
476,57,0,0,0,0,0,0,0,0,0,-1,1700,967,0,0
483,57,0,0,0,0,0,0,0,0,0,-1,1707,967,0,0
490,57,0,0,0,0,0,0,0,0,0,-1,1714,967,0,0
497,57,0,0,0,0,0,0,0,0,0,-1,1721,967,0,0
504,57,0,0,0,0,0,0,0,0,0,-1,1728,967,0,0
511,57,0,0,0,0,0,0,0,0,0,-1,1735,967,0,0
518,57,0,0,0,0,0,0,0,0,0,-1,1742,967,0,0
525,57,0,0,0,0,0,0,0,0,0,-1,1749,967,0,0
532,57,0,0,0,0,0,0,0,0,0,-1,1756,967,0,0
539,57,0,0,0,0,0,0,0,0,0,-1,1763,967,0,0
546,57,0,0,0,0,0,0,0,0,0,-1,1770,967,0,0
553,57,0,0,0,0,0,0,0,0,0,-1,1777,967,0,0
560,57,0,0,0,0,0,0,0,0,0,-1,1784,967,0,0
567,57,0,0,0,0,0,0,0,0,0,-1,1791,967,0,0
574,57,0,0,0,0,0,0,0,0,0,-1,1798,967,0,0
581,57,0,0,0,0,0,0,0,0,0,-1,1805,967,0,0
588,57,0,0,0,0,0,0,0,0,0,-1,1812,967,0,0
595,57,0,0,0,0,0,0,0,0,0,-1,1819,967,0,0
602,57,0,0,0,0,0,0,0,0,0,-1,1826,967,0,0
609,57,0,0,0,0,0,0,0,0,0,-1,1833,967,0,0
616,57,0,0,0,0,0,0,0,0,0,-1,1840,967,0,0
623,57,0,0,0,0,0,0,0,0,0,-1,1847,967,0,0
630,57,0,0,0,0,0,0,0,0,0,-1,1854,967,0,0
637,57,0,0,0,0,0,0,0,0,0,-1,1861,967,0,0
644,57,20.8562,2.66388,0.000410603,-0.00148252,0.000678411,0.00062861,-0.00170053,0.310927,0.00139139,0.0399065,1868,967,20.8562,-2.66385
651,57,20.7306,2.84271,0.000281167,-0.00106035,0.000457228,0.000422181,-0.00120136,0.299156,0.00097267,0.0328392,1875,967,20.7306,-2.84273
658,57,20.7393,2.724,0.00037734,-0.000749329,0.000505168,0.00057067,-0.000942659,0.365507,0.000882475,0.0322651,1882,967,20.7392,-2.72401
665,57,20.6481,2.62286,-0.000603564,-0.000269149,0.000791697,0.000372805,-0.00124552,0.889469,0.000978578,0.0395802,1889,967,20.6481,-2.62289
672,57,20.7363,2.63995,-0.00204035,0.000199828,0.00118852,0.000712889,-0.00255341,1.16328,0.00198308,0.0433485,1896,967,20.7363,-2.63992
679,57,20.8984,2.55292,-0.00351826,0.000582108,0.00158777,0.00112504,-0.0040612,1.24131,0.00315017,0.0422446,1903,967,20.8984,-2.55289
686,57,20.7769,2.42389,-0.00476511,0.000853969,0.00187295,0.00142104,-0.00533218,1.2768,0.00411116,0.0378766,1910,967,20.7769,-2.4239
693,57,20.7028,2.5592,-0.00571755,0.000995308,0.00203407,0.00156355,-0.0062858,1.29838,0.00479741,0.0334313,1917,967,20.7027,-2.55919
700,57,20.7451,2.75531,-0.00629598,0.00114819,0.00208801,0.00169386,-0.00684165,1.31518,0.00521818,0.0263258,1924,967,20.7451,-2.75529
707,57,20.74,2.81384,-0.00674948,0.00134208,0.00206742,0.00183971,-0.00724711,1.33459,0.00554728,0.041994,1931,967,20.74,-2.81382
714,57,20.7476,2.96729,0,0,0,0,0,0,0,-1,1938,967,20.7475,-2.96727
721,57,19.8997,3.60834,-0.00688404,0.00154212,0.00170206,0.00187295,-0.00721486,1.37882,0.00554076,0.0378489,1945,967,19.8997,-3.60833
728,57,19.7734,3.77209,-0.00668398,0.00164922,0.00159668,0.00194467,-0.00697943,1.38782,0.00541877,0.0197142,1952,967,19.7734,-3.77208
735,57,19.7897,3.85864,-0.00665401,0.00194337,0.00117263,0.00210044,-0.00681108,1.43764,0.00537934,0.0208226,1959,967,19.7897,-3.85866
742,57,19.8246,3.9295,-0.00689512,0.00277171,0.000314782,0.00278195,-0.00690536,1.53828,0.00575938,0.0160173,1966,967,19.8246,-3.92952
749,57,19.7855,4.01862,-0.00725431,0.00347233,-0.000367482,0.0034849,-0.00726689,-1.53659,0.00633427,0.0130234,1973,967,19.7855,-4.01862
756,57,19.7539,4.10919,-0.00787363,0.00471782,-0.00145646,0.00488409,-0.0080399,-1.45713,0.00753546,0.0106027,1980,967,19.7539,-4.10919
763,57,19.7495,4.19635,-0.00865178,0.00636023,-0.00282153,0.00687303,-0.00916457,-1.39102,0.00929077,0.0108147,1987,967,19.7496,-4.19637
770,57,19.7417,4.27386,-0.0104819,0.00850501,-0.00435162,0.00945484,-0.0114318,-1.3559,0.0120769,0.0106908,1994,967,19.7417,-4.27384
777,57,19.6681,4.48871,-0.0131873,0.0112275,-0.00622929,0.012725,-0.0146848,-1.33487,0.0158385,0.0245799,2001,967,19.6681,-4.4887
784,57,19.4106,4.74603,-0.016258,0.0143046,-0.00863736,0.0165767,-0.0185301,-1.31357,0.0202794,0.0416982,2008,967,19.4107,-4.74602
791,57,19.1099,4.9057,-0.019509,0.0177758,-0.0117487,0.0211691,-0.0229023,-1.28963,0.0254512,0.0462045,2015,967,19.1099,-4.9057
798,57,18.6459,5.09479,-0.0226628,0.0216315,-0.0157252,0.0266465,-0.0276777,-1.26208,0.0313659,0.0472717,2022,967,18.6459,-5.09478
805,57,18.3188,5.21973,-0.0254859,0.025845,-0.0207224,0.0331664,-0.0328073,-1.23118,0.0380901,0.0476007,2029,967,18.3188,-5.21972
812,57,0,0,0,0,0,0,0,0,0,-1,2036,967,0,0
-700,50,0,0,0,0,0,0,0,0,0,-1,524,974,0,0
-693,50,-16.1147,-1.586,0,0,0,0,0,0,0,-1,531,974,-16.1147,1.58598
-686,50,-15.0386,-1.41882,0.0588732,-0.0178119,-0.00720489,0.0595443,-0.0184829,-0.0928713,0.0470824,0.0418935,538,974,-15.0386,1.41884
-679,50,-14.1021,-1.22357,0.0465117,-0.0126964,-0.00077414,0.0465218,-0.0127065,-0.0130719,0.0360053,0.0450929,545,974,-14.1021,1.22359
-672,50,-13.452,-0.715027,0,0,0,0,0,0,0,-1,552,974,-13.4519,0.715048
-665,50,-12.7513,-0.216064,0,0,0,0,0,0,0,-1,559,974,-12.7513,0.216076
-658,50,-12.273,1.672,0,0,0,0,0,0,0,-1,566,974,-12.273,-1.67202
-651,50,-12.803,1.69031,0,0,0,0,0,0,0,-1,573,974,-12.803,-1.69033
-644,50,-12.9567,1.78534,0.00822611,-0.000264428,0.00574261,0.0111223,-0.00316058,0.467103,0.00866274,0.0260095,580,974,-12.9567,-1.78533
-637,50,-13.0138,1.76807,0.00493695,0.000778156,0.00480078,0.00808932,-0.00237422,0.581027,0.00633438,0.0132195,587,974,-13.0138,-1.76806
-630,50,-13.0328,1.73474,0.00120756,0.00115033,0.00400637,0.00518542,-0.00282753,0.781827,0.00469256,0.00976836,594,974,-13.0328,-1.73474
-623,50,-13.0231,1.70081,-0.000997595,0.0014231,0.00231299,0.00282328,-0.00239778,1.02645,0.00301772,0.0104816,601,974,-13.0231,-1.70083
-616,50,-13.0137,1.63501,-0.0022521,0.00166694,0.000440827,0.00171591,-0.00230107,1.46015,0.00232739,0.0111103,608,974,-13.0137,-1.63504
-609,50,-13.0368,1.54321,-0.00324287,0.000655467,-0.000750304,0.00079489,-0.00338229,-1.38707,0.00256128,0.0102349,615,974,-13.0368,-1.54323
-602,50,-13.0623,1.46124,-0.00381751,0.00107956,-0.00149283,0.00149875,-0.00423671,-1.29704,0.00343483,0.0101283,622,974,-13.0622,-1.46127
-595,50,-13.0447,1.41882,-0.00429973,0.00128472,-0.00212978,0.00200426,-0.00501927,-1.24499,0.00417772,0.0104129,629,974,-13.0447,-1.41884
-588,50,-13.0884,1.34259,-0.00452561,0.0012425,-0.00241283,0.0021187,-0.00540182,-1.22246,0.00447777,0.0125287,636,974,-13.0884,-1.34256
-581,50,-13.2545,1.0813,-0.0045376,0.00111778,-0.00249506,0.00206118,-0.005481,-1.2093,0.00450122,0.0206724,643,974,-13.2545,-1.08131
-574,50,-13.3527,0.820862,-0.00446702,0.00114267,-0.00249623,0.0020926,-0.00541695,-1.20717,0.00447501,0.0254045,650,974,-13.3527,-0.820866
-567,50,-13.3904,0.706421,-0.00421597,0.00108247,-0.00224261,0.00190422,-0.00503772,-1.21956,0.0041418,0.0345523,657,974,-13.3904,-0.706399
-560,50,-13.3105,0.720886,-0.00363262,0.000987791,-0.00184071,0.00163144,-0.00427627,-1.23441,0.00352292,0.0416353,664,974,-13.3105,-0.72086
-553,50,-13.271,0.948975,-0.0026495,0.000841679,-0.00133215,0.00129193,-0.00309975,-1.24486,0.00260616,0.0416078,671,974,-13.271,-0.948974
-546,50,-13.3467,1.07367,-0.0012536,0.000636501,-0.000757487,0.000902609,-0.00151971,-1.23296,0.00141357,0.0420177,678,974,-13.3468,-1.07368
-539,50,-13.4937,1.11597,0.00056828,0.000375273,-0.000220806,0.00071275,0.000230803,-0.579381,0.000419935,0.0455445,685,974,-13.4937,-1.11599
-532,50,-13.5438,0.945679,0.00256919,0.000222616,-9.48751e-06,0.00256922,0.000222578,-0.00404305,0.00164366,0.0438908,692,974,-13.5438,-0.945694
-525,50,-13.4116,0.892151,0.00403634,0.000408417,-0.000339858,0.0040679,0.000376854,-0.0926048,0.00259545,0.0414071,699,974,-13.4117,-0.892164
-518,50,0,0,0,0,0,0,0,0,0,-1,706,974,0,0
-511,50,0,0,0,0,0,0,0,0,0,-1,713,974,0,0
-504,50,0,0,0,0,0,0,0,0,0,-1,720,974,0,0
-497,50,0,0,0,0,0,0,0,0,0,-1,727,974,0,0
-490,50,0,0,0,0,0,0,0,0,0,-1,734,974,0,0
-483,50,0,0,0,0,0,0,0,0,0,-1,741,974,0,0
-476,50,0,0,0,0,0,0,0,0,0,-1,748,974,0,0
-469,50,0,0,0,0,0,0,0,0,0,-1,755,974,0,0
-462,50,0,0,0,0,0,0,0,0,0,-1,762,974,0,0
-455,50,0,0,0,0,0,0,0,0,0,-1,769,974,0,0
-448,50,0,0,0,0,0,0,0,0,0,-1,776,974,0,0
-441,50,0,0,0,0,0,0,0,0,0,-1,783,974,0,0
-434,50,0,0,0,0,0,0,0,0,0,-1,790,974,0,0
-427,50,0,0,0,0,0,0,0,0,0,-1,797,974,0,0
-420,50,0,0,0,0,0,0,0,0,0,-1,804,974,0,0
-413,50,0,0,0,0,0,0,0,0,0,-1,811,974,0,0
-406,50,0,0,0,0,0,0,0,0,0,-1,818,974,0,0
-399,50,0,0,0,0,0,0,0,0,0,-1,825,974,0,0
-392,50,0,0,0,0,0,0,0,0,0,-1,832,974,0,0
-385,50,0,0,0,0,0,0,0,0,0,-1,839,974,0,0
-378,50,0,0,0,0,0,0,0,0,0,-1,846,974,0,0
-371,50,0,0,0,0,0,0,0,0,0,-1,853,974,0,0
-364,50,0,0,0,0,0,0,0,0,0,-1,860,974,0,0
-357,50,0,0,0,0,0,0,0,0,0,-1,867,974,0,0
-350,50,0,0,0,0,0,0,0,0,0,-1,874,974,0,0
-343,50,0,0,0,0,0,0,0,0,0,-1,881,974,0,0
-336,50,0,0,0,0,0,0,0,0,0,-1,888,974,0,0
-329,50,0,0,0,0,0,0,0,0,0,-1,895,974,0,0
-322,50,0,0,0,0,0,0,0,0,0,-1,902,974,0,0
-315,50,0,0,0,0,0,0,0,0,0,-1,909,974,0,0
-308,50,0,0,0,0,0,0,0,0,0,-1,916,974,0,0
-301,50,0,0,0,0,0,0,0,0,0,-1,923,974,0,0
-294,50,0,0,0,0,0,0,0,0,0,-1,930,974,0,0
-287,50,0,0,0,0,0,0,0,0,0,-1,937,974,0,0
-280,50,0,0,0,0,0,0,0,0,0,-1,944,974,0,0
-273,50,0,0,0,0,0,0,0,0,0,-1,951,974,0,0
-266,50,0,0,0,0,0,0,0,0,0,-1,958,974,0,0
-259,50,0,0,0,0,0,0,0,0,0,-1,965,974,0,0
-252,50,0,0,0,0,0,0,0,0,0,-1,972,974,0,0
-245,50,0,0,0,0,0,0,0,0,0,-1,979,974,0,0
-238,50,0,0,0,0,0,0,0,0,0,-1,986,974,0,0
-231,50,0,0,0,0,0,0,0,0,0,-1,993,974,0,0
-224,50,0,0,0,0,0,0,0,0,0,-1,1000,974,0,0
-217,50,0,0,0,0,0,0,0,0,0,-1,1007,974,0,0
-210,50,0,0,0,0,0,0,0,0,0,-1,1014,974,0,0
-203,50,0,0,0,0,0,0,0,0,0,-1,1021,974,0,0
-196,50,0,0,0,0,0,0,0,0,0,-1,1028,974,0,0
-189,50,0,0,0,0,0,0,0,0,0,-1,1035,974,0,0
-182,50,0,0,0,0,0,0,0,0,0,-1,1042,974,0,0
-175,50,0,0,0,0,0,0,0,0,0,-1,1049,974,0,0
-168,50,0,0,0,0,0,0,0,0,0,-1,1056,974,0,0
-161,50,0,0,0,0,0,0,0,0,0,-1,1063,974,0,0
-154,50,0,0,0,0,0,0,0,0,0,-1,1070,974,0,0
-147,50,0,0,0,0,0,0,0,0,0,-1,1077,974,0,0
-140,50,0,0,0,0,0,0,0,0,0,-1,1084,974,0,0
-133,50,0,0,0,0,0,0,0,0,0,-1,1091,974,0,0
-126,50,0,0,0,0,0,0,0,0,0,-1,1098,974,0,0
-119,50,0,0,0,0,0,0,0,0,0,-1,1105,974,0,0
-112,50,0,0,0,0,0,0,0,0,0,-1,1112,974,0,0
-105,50,0,0,0,0,0,0,0,0,0,-1,1119,974,0,0
-98,50,0,0,0,0,0,0,0,0,0,-1,1126,974,0,0
-91,50,0,0,0,0,0,0,0,0,0,-1,1133,974,0,0
-84,50,0,0,0,0,0,0,0,0,0,-1,1140,974,0,0
-77,50,0,0,0,0,0,0,0,0,0,-1,1147,974,0,0
-70,50,0,0,0,0,0,0,0,0,0,-1,1154,974,0,0
-63,50,0,0,0,0,0,0,0,0,0,-1,1161,974,0,0
-56,50,0,0,0,0,0,0,0,0,0,-1,1168,974,0,0
-49,50,0,0,0,0,0,0,0,0,0,-1,1175,974,0,0
-42,50,0,0,0,0,0,0,0,0,0,-1,1182,974,0,0
-35,50,0,0,0,0,0,0,0,0,0,-1,1189,974,0,0
-28,50,0,0,0,0,0,0,0,0,0,-1,1196,974,0,0
-21,50,0,0,0,0,0,0,0,0,0,-1,1203,974,0,0
-14,50,0,0,0,0,0,0,0,0,0,-1,1210,974,0,0
-7,50,0,0,0,0,0,0,0,0,0,-1,1217,974,0,0
0,50,0,0,0,0,0,0,0,0,0,-1,1224,974,0,0
7,50,0,0,0,0,0,0,0,0,0,-1,1231,974,0,0
14,50,0,0,0,0,0,0,0,0,0,-1,1238,974,0,0
21,50,0,0,0,0,0,0,0,0,0,-1,1245,974,0,0
28,50,0,0,0,0,0,0,0,0,0,-1,1252,974,0,0
35,50,0,0,0,0,0,0,0,0,0,-1,1259,974,0,0
42,50,0,0,0,0,0,0,0,0,0,-1,1266,974,0,0
49,50,0,0,0,0,0,0,0,0,0,-1,1273,974,0,0
56,50,0,0,0,0,0,0,0,0,0,-1,1280,974,0,0
63,50,0,0,0,0,0,0,0,0,0,-1,1287,974,0,0
70,50,0,0,0,0,0,0,0,0,0,-1,1294,974,0,0
77,50,0,0,0,0,0,0,0,0,0,-1,1301,974,0,0
84,50,0,0,0,0,0,0,0,0,0,-1,1308,974,0,0
91,50,0,0,0,0,0,0,0,0,0,-1,1315,974,0,0
98,50,0,0,0,0,0,0,0,0,0,-1,1322,974,0,0
105,50,0,0,0,0,0,0,0,0,0,-1,1329,974,0,0
112,50,0,0,0,0,0,0,0,0,0,-1,1336,974,0,0
119,50,0,0,0,0,0,0,0,0,0,-1,1343,974,0,0
126,50,0,0,0,0,0,0,0,0,0,-1,1350,974,0,0
133,50,0,0,0,0,0,0,0,0,0,-1,1357,974,0,0
140,50,0,0,0,0,0,0,0,0,0,-1,1364,974,0,0
147,50,0,0,0,0,0,0,0,0,0,-1,1371,974,0,0
154,50,0,0,0,0,0,0,0,0,0,-1,1378,974,0,0
161,50,0,0,0,0,0,0,0,0,0,-1,1385,974,0,0
168,50,0,0,0,0,0,0,0,0,0,-1,1392,974,0,0
175,50,0,0,0,0,0,0,0,0,0,-1,1399,974,0,0
182,50,0,0,0,0,0,0,0,0,0,-1,1406,974,0,0
189,50,0,0,0,0,0,0,0,0,0,-1,1413,974,0,0
196,50,0,0,0,0,0,0,0,0,0,-1,1420,974,0,0
203,50,0,0,0,0,0,0,0,0,0,-1,1427,974,0,0
210,50,0,0,0,0,0,0,0,0,0,-1,1434,974,0,0
217,50,0,0,0,0,0,0,0,0,0,-1,1441,974,0,0
224,50,0,0,0,0,0,0,0,0,0,-1,1448,974,0,0
231,50,0,0,0,0,0,0,0,0,0,-1,1455,974,0,0
238,50,0,0,0,0,0,0,0,0,0,-1,1462,974,0,0
245,50,0,0,0,0,0,0,0,0,0,-1,1469,974,0,0
252,50,0,0,0,0,0,0,0,0,0,-1,1476,974,0,0
259,50,0,0,0,0,0,0,0,0,0,-1,1483,974,0,0
266,50,0,0,0,0,0,0,0,0,0,-1,1490,974,0,0
273,50,0,0,0,0,0,0,0,0,0,-1,1497,974,0,0
280,50,0,0,0,0,0,0,0,0,0,-1,1504,974,0,0
287,50,0,0,0,0,0,0,0,0,0,-1,1511,974,0,0
294,50,0,0,0,0,0,0,0,0,0,-1,1518,974,0,0
301,50,0,0,0,0,0,0,0,0,0,-1,1525,974,0,0
308,50,0,0,0,0,0,0,0,0,0,-1,1532,974,0,0
315,50,0,0,0,0,0,0,0,0,0,-1,1539,974,0,0
322,50,0,0,0,0,0,0,0,0,0,-1,1546,974,0,0
329,50,0,0,0,0,0,0,0,0,0,-1,1553,974,0,0
336,50,0,0,0,0,0,0,0,0,0,-1,1560,974,0,0
343,50,0,0,0,0,0,0,0,0,0,-1,1567,974,0,0
350,50,0,0,0,0,0,0,0,0,0,-1,1574,974,0,0
357,50,0,0,0,0,0,0,0,0,0,-1,1581,974,0,0
364,50,0,0,0,0,0,0,0,0,0,-1,1588,974,0,0
371,50,0,0,0,0,0,0,0,0,0,-1,1595,974,0,0
378,50,0,0,0,0,0,0,0,0,0,-1,1602,974,0,0
385,50,0,0,0,0,0,0,0,0,0,-1,1609,974,0,0
392,50,0,0,0,0,0,0,0,0,0,-1,1616,974,0,0
399,50,0,0,0,0,0,0,0,0,0,-1,1623,974,0,0
406,50,0,0,0,0,0,0,0,0,0,-1,1630,974,0,0
413,50,0,0,0,0,0,0,0,0,0,-1,1637,974,0,0
420,50,0,0,0,0,0,0,0,0,0,-1,1644,974,0,0
427,50,0,0,0,0,0,0,0,0,0,-1,1651,974,0,0
434,50,0,0,0,0,0,0,0,0,0,-1,1658,974,0,0
441,50,0,0,0,0,0,0,0,0,0,-1,1665,974,0,0
448,50,0,0,0,0,0,0,0,0,0,-1,1672,974,0,0
455,50,0,0,0,0,0,0,0,0,0,-1,1679,974,0,0
462,50,0,0,0,0,0,0,0,0,0,-1,1686,974,0,0
469,50,0,0,0,0,0,0,0,0,0,-1,1693,974,0,0
476,50,0,0,0,0,0,0,0,0,0,-1,1700,974,0,0
483,50,0,0,0,0,0,0,0,0,0,-1,1707,974,0,0
490,50,0,0,0,0,0,0,0,0,0,-1,1714,974,0,0
497,50,0,0,0,0,0,0,0,0,0,-1,1721,974,0,0
504,50,0,0,0,0,0,0,0,0,0,-1,1728,974,0,0
511,50,0,0,0,0,0,0,0,0,0,-1,1735,974,0,0
518,50,0,0,0,0,0,0,0,0,0,-1,1742,974,0,0
525,50,0,0,0,0,0,0,0,0,0,-1,1749,974,0,0
532,50,0,0,0,0,0,0,0,0,0,-1,1756,974,0,0
539,50,0,0,0,0,0,0,0,0,0,-1,1763,974,0,0
546,50,0,0,0,0,0,0,0,0,0,-1,1770,974,0,0
553,50,0,0,0,0,0,0,0,0,0,-1,1777,974,0,0
560,50,0,0,0,0,0,0,0,0,0,-1,1784,974,0,0
567,50,0,0,0,0,0,0,0,0,0,-1,1791,974,0,0
574,50,0,0,0,0,0,0,0,0,0,-1,1798,974,0,0
581,50,0,0,0,0,0,0,0,0,0,-1,1805,974,0,0
588,50,0,0,0,0,0,0,0,0,0,-1,1812,974,0,0
595,50,0,0,0,0,0,0,0,0,0,-1,1819,974,0,0
602,50,0,0,0,0,0,0,0,0,0,-1,1826,974,0,0
609,50,0,0,0,0,0,0,0,0,0,-1,1833,974,0,0
616,50,0,0,0,0,0,0,0,0,0,-1,1840,974,0,0
623,50,0,0,0,0,0,0,0,0,0,-1,1847,974,0,0
630,50,0,0,0,0,0,0,0,0,0,-1,1854,974,0,0
637,50,0,0,0,0,0,0,0,0,0,-1,1861,974,0,0
644,50,20.8245,2.70209,0.000467141,-0.0027317,0.000694293,0.000611334,-0.00287589,0.204773,0.00215021,0.0375709,1868,974,20.8244,-2.70206
651,50,20.6693,2.73993,0.000276108,-0.00207136,0.00045327,0.000360589,-0.00215584,0.184267,0.00157128,0.0292216,1875,974,20.6693,-2.73994
658,50,20.5925,2.70856,0.00036985,-0.00160764,0.000451596,0.000468098,-0.00170589,0.214221,0.00132123,0.0336136,1882,974,20.5925,-2.70853
665,50,20.54,2.60962,-0.000420318,-0.00101893,0.000723251,6.31126e-05,-0.00150236,0.589211,0.00102326,0.0394264,1889,974,20.54,-2.6096
672,50,20.6295,2.5235,-0.00164798,-0.000419247,0.00117798,0.000294954,-0.00236218,1.02576,0.00168175,0.0405539,1896,974,20.6295,-2.52352
679,50,20.7354,2.58148,-0.00296683,6.76424e-05,0.00167081,0.000807312,-0.0037065,1.15403,0.00277946,0.041094,1903,974,20.7354,-2.58147
686,50,20.6835,2.5683,-0.00407799,0.000416366,0.0020569,0.0012156,-0.00487723,1.20019,0.00372343,0.0412966,1910,974,20.6834,-2.56827
693,50,20.6642,2.66284,-0.0049386,0.000641172,0.00229765,0.00146551,-0.00576294,1.22632,0.00441235,0.0381563,1917,974,20.6642,-2.66285
700,50,20.7388,2.74231,-0.00547017,0.000850262,0.0024059,0.00166186,-0.00628177,1.24545,0.0048379,0.0220793,1924,974,20.7388,-2.74234
707,50,20.7708,2.71899,-0.00591277,0.00109262,0.002428,0.00185186,-0.00667201,1.26773,0.0051769,0.0335167,1931,974,20.7707,-2.71901
714,50,20.6522,3.13562,-0.00619436,0.001186,0.00226795,0.00182723,-0.00683558,1.29526,0.00527274,0.0491205,1938,974,20.6523,-3.13563
721,50,19.923,3.60388,0,0,0,0,0,0,0,-1,1945,974,19.923,-3.60389
728,50,19.8923,3.74524,-0.00600848,0.00147835,0.00200596,0.00198193,-0.00651206,1.32483,0.00513123,0.0201733,1952,974,19.8923,-3.74522
735,50,19.915,3.81702,-0.00603308,0.00178307,0.00157843,0.00208979,-0.0063398,1.37887,0.00506882,0.0186245,1959,974,19.915,-3.81699
742,50,19.9207,3.90063,-0.0063282,0.00255654,0.00067678,0.0026078,-0.00637946,1.4952,0.00533893,0.0146604,1966,974,19.9207,-3.90062
749,50,19.9063,3.99139,-0.00669457,0.0031585,-5.70467e-05,0.00315883,-0.0066949,-1.56501,0.00580987,0.0147947,1973,974,19.9063,-3.99139
756,50,19.8654,4.08038,-0.007244,0.00424402,-0.00121115,0.00437032,-0.0073703,-1.46689,0.00685182,0.0110903,1980,974,19.8654,-4.0804
763,50,19.8485,4.16486,-0.0079111,0.00572178,-0.00271941,0.00624421,-0.00843353,-1.381,0.00850556,0.0108545,1987,974,19.8486,-4.16486
770,50,19.8375,4.23022,-0.00943123,0.00757076,-0.00440148,0.00864264,-0.0105031,-1.33192,0.0110712,0.010478,1994,974,19.8376,-4.23024
777,50,19.8464,4.35431,-0.011724,0.00999081,-0.00645619,0.0117653,-0.0134986,-1.30256,0.0145976,0.0207334,2001,974,19.8464,-4.35434
784,50,19.6383,4.771,-0.0143641,0.0127318,-0.00911036,0.01551,-0.0171423,-1.2748,0.0188597,0.0373658,2008,974,19.6383,-4.77097
791,50,19.4762,5.14325,-0.0171859,0.0158634,-0.0126183,0.0201302,-0.0214527,-1.24472,0.024012,0.0428154,2015,974,19.4762,-5.14325
798,50,19.0234,5.28925,-0.0199304,0.0194262,-0.017221,0.0258974,-0.0264016,-1.21135,0.0301953,0.0452109,2022,974,19.0235,-5.28925
805,50,18.907,5.41205,-0.0224127,0.0234744,-0.0231539,0.033127,-0.0320652,-1.17582,0.0376404,0.0452643,2029,974,18.907,-5.41203
812,50,0,0,0,0,0,0,0,0,0,-1,2036,974,0,0
-700,43,0,0,0,0,0,0,0,0,0,-1,524,981,0,0
-693,43,-15.2238,-1.98688,0,0,0,0,0,0,0,-1,531,981,-15.2238,1.98687
-686,43,-14.4948,-1.61237,0.0487576,-0.0159497,-0.00223332,0.0488346,-0.0160267,-0.0344596,0.0390118,0.0432166,538,981,-14.4948,1.61236
-679,43,-13.7631,-1.26086,0.0389711,-0.0108586,0.00307604,0.0391603,-0.0110477,0.0614203,0.0304646,0.0430399,545,981,-13.7631,1.26087
-672,43,-13.3058,-1.1994,0,0,0,0,0,0,0,-1,552,981,-13.3058,1.19943
-665,43,-13.0615,4.02332,0,0,0,0,0,0,0,-1,559,981,-13.0615,-4.02334
-658,43,-12.2344,0.994751,0,0,0,0,0,0,0,-1,566,981,-12.2344,-0.994779
-651,43,-12.662,1.37189,0.0109691,-0.000326942,0.00770291,0.0148728,-0.00423062,0.469056,0.0115858,0.0394916,573,981,-12.662,-1.37188
-644,43,-13.0741,1.77734,0.00696831,0.000521653,0.00665448,0.011139,-0.00364906,0.559859,0.00889546,0.0184802,580,981,-13.0741,-1.77732
-637,43,-13.0862,1.76477,0.00414359,0.00144639,0.00537818,0.00833968,-0.00274969,0.662554,0.00666808,0.0118009,587,981,-13.0862,-1.76476
-630,43,-13.0858,1.72565,0.00085699,0.00174543,0.00425274,0.00557709,-0.00297467,0.837437,0.00501299,0.0116022,594,981,-13.0858,-1.72564
-623,43,-13.1011,1.67316,-0.00106558,0.00191804,0.00230988,0.00317596,-0.0023235,1.07212,0.00318781,0.0116914,601,981,-13.1011,-1.67316
-616,43,-13.0923,1.61615,-0.00203521,0.00208254,0.000200705,0.0020923,-0.00204497,1.52221,0.0023887,0.0101682,608,981,-13.0924,-1.61616
-609,43,-13.1053,1.53717,-0.00278868,0.000795771,-0.00119159,0.00115574,-0.00314865,-1.27742,0.0025724,0.0122627,615,981,-13.1053,-1.53716
-602,43,-13.1293,1.46387,-0.00318456,0.00123785,-0.00203647,0.00203274,-0.00397945,-1.19865,0.00353128,0.0145904,622,981,-13.1293,-1.4639
-595,43,-13.123,1.40283,-0.00354482,0.00143175,-0.00266518,0.00258966,-0.00470273,-1.16094,0.00426877,0.0130299,629,981,-13.1231,-1.40282
-588,43,-13.1328,1.25671,-0.00369469,0.00137842,-0.00290304,0.00269696,-0.00501323,-1.14446,0.00451794,0.0131031,636,981,-13.1328,-1.25671
-581,43,-13.2566,1.01306,-0.00365634,0.00126643,-0.00292378,0.00262694,-0.00501685,-1.13527,0.00448447,0.0198982,643,981,-13.2566,-1.01303
-574,43,-13.3254,0.849915,-0.0035879,0.00129395,-0.00284471,0.00260142,-0.00489537,-1.13998,0.0043953,0.0268525,650,981,-13.3254,-0.8499
-567,43,-13.3444,0.875305,-0.00340144,0.00124195,-0.0024707,0.00231063,-0.00447012,-1.16256,0.00398049,0.0382379,657,981,-13.3444,-0.875294
-560,43,-13.204,0.940674,-0.00294471,0.00113941,-0.00192714,0.00190517,-0.00371047,-1.19257,0.00329757,0.0432253,664,981,-13.204,-0.940694
-553,43,-13.1829,0.683655,-0.00216903,0.000971368,-0.00126723,0.00141894,-0.0026166,-1.23128,0.00236387,0.0429163,671,981,-13.1829,-0.683674
-546,43,-13.1915,0.690125,-0.0010514,0.000726766,-0.000550884,0.0008836,-0.00120823,-1.29344,0.00121256,0.0438071,678,981,-13.1915,-0.690138
-539,43,-13.3467,1.15509,0.000449745,0.000411682,6.5043e-05,0.000498484,0.000362943,0.643074,0.000297615,0.0471207,685,981,-13.3467,-1.15508
-532,43,-13.3755,0.985107,0.00206379,0.000262952,0.000198986,0.00208551,0.000241227,0.108749,0.00131732,0.0470664,692,981,-13.3755,-0.985081
-525,43,-13.3016,0.674072,0.00318656,0.000502662,-0.000373976,0.00323769,0.000451526,-0.135893,0.0020248,0.0438767,699,981,-13.3016,-0.674059
-518,43,0,0,0,0,0,0,0,0,0,-1,706,981,0,0
-511,43,0,0,0,0,0,0,0,0,0,-1,713,981,0,0
-504,43,0,0,0,0,0,0,0,0,0,-1,720,981,0,0
-497,43,0,0,0,0,0,0,0,0,0,-1,727,981,0,0
-490,43,0,0,0,0,0,0,0,0,0,-1,734,981,0,0
-483,43,0,0,0,0,0,0,0,0,0,-1,741,981,0,0
-476,43,0,0,0,0,0,0,0,0,0,-1,748,981,0,0
-469,43,0,0,0,0,0,0,0,0,0,-1,755,981,0,0
-462,43,0,0,0,0,0,0,0,0,0,-1,762,981,0,0
-455,43,0,0,0,0,0,0,0,0,0,-1,769,981,0,0
-448,43,0,0,0,0,0,0,0,0,0,-1,776,981,0,0
-441,43,0,0,0,0,0,0,0,0,0,-1,783,981,0,0
-434,43,0,0,0,0,0,0,0,0,0,-1,790,981,0,0
-427,43,0,0,0,0,0,0,0,0,0,-1,797,981,0,0
-420,43,0,0,0,0,0,0,0,0,0,-1,804,981,0,0
-413,43,0,0,0,0,0,0,0,0,0,-1,811,981,0,0
-406,43,0,0,0,0,0,0,0,0,0,-1,818,981,0,0
-399,43,0,0,0,0,0,0,0,0,0,-1,825,981,0,0
-392,43,0,0,0,0,0,0,0,0,0,-1,832,981,0,0
-385,43,0,0,0,0,0,0,0,0,0,-1,839,981,0,0
-378,43,0,0,0,0,0,0,0,0,0,-1,846,981,0,0
-371,43,0,0,0,0,0,0,0,0,0,-1,853,981,0,0
-364,43,0,0,0,0,0,0,0,0,0,-1,860,981,0,0
-357,43,0,0,0,0,0,0,0,0,0,-1,867,981,0,0
-350,43,0,0,0,0,0,0,0,0,0,-1,874,981,0,0
-343,43,0,0,0,0,0,0,0,0,0,-1,881,981,0,0
-336,43,0,0,0,0,0,0,0,0,0,-1,888,981,0,0
-329,43,0,0,0,0,0,0,0,0,0,-1,895,981,0,0
-322,43,0,0,0,0,0,0,0,0,0,-1,902,981,0,0
-315,43,0,0,0,0,0,0,0,0,0,-1,909,981,0,0
-308,43,0,0,0,0,0,0,0,0,0,-1,916,981,0,0
-301,43,0,0,0,0,0,0,0,0,0,-1,923,981,0,0
-294,43,0,0,0,0,0,0,0,0,0,-1,930,981,0,0
-287,43,0,0,0,0,0,0,0,0,0,-1,937,981,0,0
-280,43,0,0,0,0,0,0,0,0,0,-1,944,981,0,0
-273,43,0,0,0,0,0,0,0,0,0,-1,951,981,0,0
-266,43,0,0,0,0,0,0,0,0,0,-1,958,981,0,0
-259,43,0,0,0,0,0,0,0,0,0,-1,965,981,0,0
-252,43,0,0,0,0,0,0,0,0,0,-1,972,981,0,0
-245,43,0,0,0,0,0,0,0,0,0,-1,979,981,0,0
-238,43,0,0,0,0,0,0,0,0,0,-1,986,981,0,0
-231,43,0,0,0,0,0,0,0,0,0,-1,993,981,0,0
-224,43,0,0,0,0,0,0,0,0,0,-1,1000,981,0,0
-217,43,0,0,0,0,0,0,0,0,0,-1,1007,981,0,0
-210,43,0,0,0,0,0,0,0,0,0,-1,1014,981,0,0
-203,43,0,0,0,0,0,0,0,0,0,-1,1021,981,0,0
-196,43,0,0,0,0,0,0,0,0,0,-1,1028,981,0,0
-189,43,0,0,0,0,0,0,0,0,0,-1,1035,981,0,0
-182,43,0,0,0,0,0,0,0,0,0,-1,1042,981,0,0
-175,43,0,0,0,0,0,0,0,0,0,-1,1049,981,0,0
-168,43,0,0,0,0,0,0,0,0,0,-1,1056,981,0,0
-161,43,0,0,0,0,0,0,0,0,0,-1,1063,981,0,0
-154,43,0,0,0,0,0,0,0,0,0,-1,1070,981,0,0
-147,43,0,0,0,0,0,0,0,0,0,-1,1077,981,0,0
-140,43,0,0,0,0,0,0,0,0,0,-1,1084,981,0,0
-133,43,0,0,0,0,0,0,0,0,0,-1,1091,981,0,0
-126,43,0,0,0,0,0,0,0,0,0,-1,1098,981,0,0
-119,43,0,0,0,0,0,0,0,0,0,-1,1105,981,0,0
-112,43,0,0,0,0,0,0,0,0,0,-1,1112,981,0,0
-105,43,0,0,0,0,0,0,0,0,0,-1,1119,981,0,0
-98,43,0,0,0,0,0,0,0,0,0,-1,1126,981,0,0
-91,43,0,0,0,0,0,0,0,0,0,-1,1133,981,0,0
-84,43,0,0,0,0,0,0,0,0,0,-1,1140,981,0,0
-77,43,0,0,0,0,0,0,0,0,0,-1,1147,981,0,0
-70,43,0,0,0,0,0,0,0,0,0,-1,1154,981,0,0
-63,43,0,0,0,0,0,0,0,0,0,-1,1161,981,0,0
-56,43,0,0,0,0,0,0,0,0,0,-1,1168,981,0,0
-49,43,0,0,0,0,0,0,0,0,0,-1,1175,981,0,0
-42,43,0,0,0,0,0,0,0,0,0,-1,1182,981,0,0
-35,43,0,0,0,0,0,0,0,0,0,-1,1189,981,0,0
-28,43,0,0,0,0,0,0,0,0,0,-1,1196,981,0,0
-21,43,0,0,0,0,0,0,0,0,0,-1,1203,981,0,0
-14,43,0,0,0,0,0,0,0,0,0,-1,1210,981,0,0
-7,43,0,0,0,0,0,0,0,0,0,-1,1217,981,0,0
0,43,0,0,0,0,0,0,0,0,0,-1,1224,981,0,0
7,43,0,0,0,0,0,0,0,0,0,-1,1231,981,0,0
14,43,0,0,0,0,0,0,0,0,0,-1,1238,981,0,0
21,43,0,0,0,0,0,0,0,0,0,-1,1245,981,0,0
28,43,0,0,0,0,0,0,0,0,0,-1,1252,981,0,0
35,43,0,0,0,0,0,0,0,0,0,-1,1259,981,0,0
42,43,0,0,0,0,0,0,0,0,0,-1,1266,981,0,0
49,43,0,0,0,0,0,0,0,0,0,-1,1273,981,0,0
56,43,0,0,0,0,0,0,0,0,0,-1,1280,981,0,0
63,43,0,0,0,0,0,0,0,0,0,-1,1287,981,0,0
70,43,0,0,0,0,0,0,0,0,0,-1,1294,981,0,0
77,43,0,0,0,0,0,0,0,0,0,-1,1301,981,0,0
84,43,0,0,0,0,0,0,0,0,0,-1,1308,981,0,0
91,43,0,0,0,0,0,0,0,0,0,-1,1315,981,0,0
98,43,0,0,0,0,0,0,0,0,0,-1,1322,981,0,0
105,43,0,0,0,0,0,0,0,0,0,-1,1329,981,0,0
112,43,0,0,0,0,0,0,0,0,0,-1,1336,981,0,0
119,43,0,0,0,0,0,0,0,0,0,-1,1343,981,0,0
126,43,0,0,0,0,0,0,0,0,0,-1,1350,981,0,0
133,43,0,0,0,0,0,0,0,0,0,-1,1357,981,0,0
140,43,0,0,0,0,0,0,0,0,0,-1,1364,981,0,0
147,43,0,0,0,0,0,0,0,0,0,-1,1371,981,0,0
154,43,0,0,0,0,0,0,0,0,0,-1,1378,981,0,0
161,43,0,0,0,0,0,0,0,0,0,-1,1385,981,0,0
168,43,0,0,0,0,0,0,0,0,0,-1,1392,981,0,0
175,43,0,0,0,0,0,0,0,0,0,-1,1399,981,0,0
182,43,0,0,0,0,0,0,0,0,0,-1,1406,981,0,0
189,43,0,0,0,0,0,0,0,0,0,-1,1413,981,0,0
196,43,0,0,0,0,0,0,0,0,0,-1,1420,981,0,0
203,43,0,0,0,0,0,0,0,0,0,-1,1427,981,0,0
210,43,0,0,0,0,0,0,0,0,0,-1,1434,981,0,0
217,43,0,0,0,0,0,0,0,0,0,-1,1441,981,0,0
224,43,0,0,0,0,0,0,0,0,0,-1,1448,981,0,0
231,43,0,0,0,0,0,0,0,0,0,-1,1455,981,0,0
238,43,0,0,0,0,0,0,0,0,0,-1,1462,981,0,0
245,43,0,0,0,0,0,0,0,0,0,-1,1469,981,0,0
252,43,0,0,0,0,0,0,0,0,0,-1,1476,981,0,0
259,43,0,0,0,0,0,0,0,0,0,-1,1483,981,0,0
266,43,0,0,0,0,0,0,0,0,0,-1,1490,981,0,0
273,43,0,0,0,0,0,0,0,0,0,-1,1497,981,0,0
280,43,0,0,0,0,0,0,0,0,0,-1,1504,981,0,0
287,43,0,0,0,0,0,0,0,0,0,-1,1511,981,0,0
294,43,0,0,0,0,0,0,0,0,0,-1,1518,981,0,0
301,43,0,0,0,0,0,0,0,0,0,-1,1525,981,0,0
308,43,0,0,0,0,0,0,0,0,0,-1,1532,981,0,0
315,43,0,0,0,0,0,0,0,0,0,-1,1539,981,0,0
322,43,0,0,0,0,0,0,0,0,0,-1,1546,981,0,0
329,43,0,0,0,0,0,0,0,0,0,-1,1553,981,0,0
336,43,0,0,0,0,0,0,0,0,0,-1,1560,981,0,0
343,43,0,0,0,0,0,0,0,0,0,-1,1567,981,0,0
350,43,0,0,0,0,0,0,0,0,0,-1,1574,981,0,0
357,43,0,0,0,0,0,0,0,0,0,-1,1581,981,0,0
364,43,0,0,0,0,0,0,0,0,0,-1,1588,981,0,0
371,43,0,0,0,0,0,0,0,0,0,-1,1595,981,0,0
378,43,0,0,0,0,0,0,0,0,0,-1,1602,981,0,0
385,43,0,0,0,0,0,0,0,0,0,-1,1609,981,0,0
392,43,0,0,0,0,0,0,0,0,0,-1,1616,981,0,0
399,43,0,0,0,0,0,0,0,0,0,-1,1623,981,0,0
406,43,0,0,0,0,0,0,0,0,0,-1,1630,981,0,0
413,43,0,0,0,0,0,0,0,0,0,-1,1637,981,0,0
420,43,0,0,0,0,0,0,0,0,0,-1,1644,981,0,0
427,43,0,0,0,0,0,0,0,0,0,-1,1651,981,0,0
434,43,0,0,0,0,0,0,0,0,0,-1,1658,981,0,0
441,43,0,0,0,0,0,0,0,0,0,-1,1665,981,0,0
448,43,0,0,0,0,0,0,0,0,0,-1,1672,981,0,0
455,43,0,0,0,0,0,0,0,0,0,-1,1679,981,0,0
462,43,0,0,0,0,0,0,0,0,0,-1,1686,981,0,0
469,43,0,0,0,0,0,0,0,0,0,-1,1693,981,0,0
476,43,0,0,0,0,0,0,0,0,0,-1,1700,981,0,0
483,43,0,0,0,0,0,0,0,0,0,-1,1707,981,0,0
490,43,0,0,0,0,0,0,0,0,0,-1,1714,981,0,0
497,43,0,0,0,0,0,0,0,0,0,-1,1721,981,0,0
504,43,0,0,0,0,0,0,0,0,0,-1,1728,981,0,0
511,43,0,0,0,0,0,0,0,0,0,-1,1735,981,0,0
518,43,0,0,0,0,0,0,0,0,0,-1,1742,981,0,0
525,43,0,0,0,0,0,0,0,0,0,-1,1749,981,0,0
532,43,0,0,0,0,0,0,0,0,0,-1,1756,981,0,0
539,43,0,0,0,0,0,0,0,0,0,-1,1763,981,0,0
546,43,0,0,0,0,0,0,0,0,0,-1,1770,981,0,0
553,43,0,0,0,0,0,0,0,0,0,-1,1777,981,0,0
560,43,0,0,0,0,0,0,0,0,0,-1,1784,981,0,0
567,43,0,0,0,0,0,0,0,0,0,-1,1791,981,0,0
574,43,0,0,0,0,0,0,0,0,0,-1,1798,981,0,0
581,43,0,0,0,0,0,0,0,0,0,-1,1805,981,0,0
588,43,0,0,0,0,0,0,0,0,0,-1,1812,981,0,0
595,43,0,0,0,0,0,0,0,0,0,-1,1819,981,0,0
602,43,0,0,0,0,0,0,0,0,0,-1,1826,981,0,0
609,43,0,0,0,0,0,0,0,0,0,-1,1833,981,0,0
616,43,0,0,0,0,0,0,0,0,0,-1,1840,981,0,0
623,43,0,0,0,0,0,0,0,0,0,-1,1847,981,0,0
630,43,0,0,0,0,0,0,0,0,0,-1,1854,981,0,0
637,43,0,0,0,0,0,0,0,0,0,-1,1861,981,0,0
644,43,20.7048,2.67126,0.00117603,-0.00410235,0.000655168,0.00125614,-0.00418246,0.121664,0.003288,0.0387028,1868,981,20.7048,-2.67127
651,43,20.6165,2.69,0.000690838,-0.00310226,0.000433006,0.000739641,-0.00315106,0.112232,0.00238578,0.0355601,1875,981,20.6164,-2.69002
658,43,20.729,2.77631,0.000579681,-0.00240415,0.000409873,0.000634958,-0.00245943,0.134057,0.00188722,0.0371609,1882,981,20.729,-2.77632
665,43,20.692,2.65198,-0.000133982,-0.00167478,0.000657306,0.000108321,-0.00191708,0.353175,0.00131565,0.037842,1889,981,20.6921,-2.65196
672,43,20.713,2.58191,-0.00119343,-0.000936626,0.00115842,0.000100486,-0.00223054,0.840594,0.00152163,0.037518,1896,981,20.713,-2.58193
679,43,20.5983,2.58362,-0.00236314,-0.000343757,0.00174109,0.000659228,-0.00336612,1.04816,0.00249305,0.0387782,1903,981,20.5983,-2.58362
686,43,20.6298,2.63324,-0.0033472,8.0593e-05,0.00221548,0.00116773,-0.00443433,1.11462,0.00341272,0.0392147,1910,981,20.6297,-2.63322
693,43,20.6868,2.81018,-0.00411339,0.000365444,0.00254047,0.00151261,-0.00526056,1.14665,0.00410521,0.0362228,1917,981,20.6868,-2.81019
700,43,20.6943,2.8053,-0.00459685,0.000612518,0.00271004,0.00176665,-0.00575098,1.16819,0.00453895,0.0316266,1924,981,20.6943,-2.80531
707,43,20.7581,2.65564,-0.00503568,0.000880924,0.00278577,0.00198613,-0.00614088,1.19311,0.00489225,0.0288063,1931,981,20.758,-2.65562
714,43,20.7657,2.75653,-0.00537142,0.000971181,0.00265662,0.00193688,-0.00633712,1.22214,0.0049971,0.0343777,1938,981,20.7658,-2.75651
721,43,20.4618,3.37555,0,0,0,0,0,0,0,-1,1945,981,20.4618,-3.37558
728,43,20.093,3.73041,-0.00527629,0.00128621,0.00242089,0.00208262,-0.0060727,1.25297,0.00489272,0.0196594,1952,981,20.093,-3.73041
735,43,20.0194,3.8562,-0.0053337,0.00158665,0.00198473,0.00211545,-0.0058625,1.31041,0.00477242,0.0142904,1959,981,20.0194,-3.85619
742,43,20.0042,3.8999,-0.00566491,0.00229612,0.00104122,0.00243005,-0.00579884,1.44287,0.00488186,0.0160933,1966,981,20.0041,-3.8999
749,43,19.9812,3.97809,-0.00606304,0.0027212,0.00019866,0.0027257,-0.00606753,1.5482,0.00519754,0.0170149,1973,981,19.9811,-3.97809
756,43,19.9784,4.04065,-0.00655884,0.00365481,-0.0010728,0.00376628,-0.00667031,-1.46727,0.00610283,0.0150646,1980,981,19.9784,-4.04066
763,43,19.9851,4.09814,-0.00715763,0.00499045,-0.00279171,0.00560129,-0.00776847,-1.35539,0.00775277,0.0172322,1987,981,19.985,-4.09815
770,43,19.9222,4.19305,-0.00842775,0.00657105,-0.00475799,0.00795306,-0.00980976,-1.28811,0.010274,0.0143115,1994,981,19.9222,-4.19303
777,43,19.9358,4.29486,-0.0103727,0.00871204,-0.00717217,0.0111069,-0.0127675,-1.24853,0.013795,0.0185774,2001,981,19.9358,-4.29487
784,43,19.7413,4.69,-0.0126724,0.0111607,-0.0102774,0.0149804,-0.0164921,-1.21496,0.0181776,0.0386282,2008,981,19.7413,-4.69002
791,43,19.453,5.04541,-0.0151911,0.0140325,-0.0144254,0.0199535,-0.0211121,-1.18131,0.0237124,0.0424736,2015,981,19.453,-5.04539
798,43,19.4109,5.53271,0,0,0,0,0,0,0,-1,2022,981,19.4108,-5.53273
805,43,19.9331,5.52606,0,0,0,0,0,0,0,-1,2029,981,19.9331,-5.52608
812,43,19.9512,5.4173,0,0,0,0,0,0,0,-1,2036,981,19.9512,-5.41731
-700,36,0,0,0,0,0,0,0,0,0,-1,524,988,0,0
-693,36,-13.4348,-1.50104,0.0479457,-0.0222493,-0.00503587,0.0483052,-0.0226088,-0.0712547,0.0418286,0.0461042,531,988,-13.4348,1.50102
-686,36,-13.4662,-1.53241,0.0410794,-0.0148719,0.00191897,0.0411452,-0.0149376,0.0342435,0.0335372,0.0465053,538,988,-13.4662,1.53242
-679,36,-13.501,-1.3844,0.0335151,-0.00951614,0.00608261,0.0343584,-0.0103594,0.137758,0.0270288,0.0465173,545,988,-13.501,1.38442
-672,36,-13.2896,-0.995667,0.0263352,-0.00555594,0.00837528,0.0284009,-0.00762166,0.241818,0.0219207,0.0468621,552,988,-13.2896,0.995637
-665,36,-13.0843,-0.621094,0,0,0,0,0,0,0,-1,559,988,-13.0843,0.62109
-658,36,-13.174,1.86737,0,0,0,0,0,0,0,-1,566,988,-13.174,-1.86739
-651,36,-13.1598,1.82141,0.00988387,0.000597018,0.00845983,0.0148908,-0.00440995,0.534407,0.0116781,0.0360477,573,988,-13.1598,-1.82144
-644,36,-13.159,1.77448,0.00633745,0.00127058,0.007134,0.0113745,-0.00376647,0.614783,0.00910207,0.0186691,580,988,-13.159,-1.7745
-637,36,-13.1607,1.75336,0.00378321,0.00204516,0.00563428,0.00861509,-0.00278672,0.708882,0.00686354,0.0128743,587,988,-13.1607,-1.75335
-630,36,-13.1575,1.73151,0.000827558,0.00224828,0.00427319,0.00586975,-0.00279391,0.867763,0.00510597,0.011938,594,988,-13.1575,-1.73153
-623,36,-13.1818,1.66364,-0.000916701,0.00243441,0.00222906,0.00354744,-0.00202973,1.10769,0.00325948,0.0127527,601,988,-13.1818,-1.66361
-616,36,-13.1752,1.60095,-0.00175037,0.00250684,-6.97744e-05,0.00250798,-0.00175152,-1.55441,0.00247212,0.0104117,608,988,-13.1753,-1.60094
-609,36,-13.1683,1.54926,-0.0023316,0.000939553,-0.00166566,0.0016384,-0.00303045,-1.17354,0.00273521,0.0152212,615,988,-13.1682,-1.54927
-602,36,-13.1727,1.47559,-0.00256702,0.00133029,-0.00263972,0.0026627,-0.00389943,-1.10335,0.00381101,0.0195569,622,988,-13.1728,-1.47562
-595,36,-13.1659,1.4165,-0.00283269,0.00144626,-0.00324267,0.00319166,-0.00457809,-1.07701,0.00450961,0.020014,629,988,-13.1659,-1.41648
-588,36,-13.1988,1.20068,-0.00292513,0.0013504,-0.00342208,0.00324757,-0.0048223,-1.06459,0.00468862,0.0194987,636,988,-13.1988,-1.20071
-581,36,-13.2839,0.930725,-0.00285908,0.00122532,-0.00337515,0.00312802,-0.00476178,-1.05747,0.00458761,0.0235599,643,988,-13.2839,-0.930756
-574,36,-13.3116,0.855774,-0.00281715,0.00123341,-0.00320821,0.00300212,-0.00458586,-1.06695,0.00441262,0.0274896,650,988,-13.3116,-0.855773
-567,36,-13.3394,0.857544,-0.00272199,0.0011686,-0.00271439,0.00256278,-0.00411617,-1.09631,0.0038907,0.0360433,657,988,-13.3394,-0.85754
-560,36,-13.2365,0.713989,-0.00242283,0.00104515,-0.00202529,0.00197734,-0.00335502,-1.13943,0.0031127,0.0414067,664,988,-13.2365,-0.714009
-553,36,-13.2386,0.487671,-0.00188969,0.000850484,-0.00120153,0.00130271,-0.00234191,-1.21082,0.00213254,0.0438044,671,988,-13.2386,-0.487672
-546,36,-13.2687,0.616272,-0.001096,0.000571984,-0.000318921,0.000630882,-0.00115489,-1.38817,0.00104571,0.0455099,678,988,-13.2687,-0.616289
-539,36,-13.1201,1.01794,2.16454e-05,0.000223007,0.00040585,0.000540478,-0.000295826,0.906981,0.000489679,0.0473435,685,988,-13.12,-1.01793
-532,36,-13.1294,1.12463,0.00118016,0.000126661,0.000495605,0.00137666,-6.9839e-05,0.377473,0.000941915,0.0468454,692,988,-13.1294,-1.12465
-525,36,-13.008,0.984863,0,0,0,0,0,0,0,-1,699,988,-13.008,-0.984885
-518,36,0,0,0,0,0,0,0,0,0,-1,706,988,0,0
-511,36,0,0,0,0,0,0,0,0,0,-1,713,988,0,0
-504,36,0,0,0,0,0,0,0,0,0,-1,720,988,0,0
-497,36,0,0,0,0,0,0,0,0,0,-1,727,988,0,0
-490,36,0,0,0,0,0,0,0,0,0,-1,734,988,0,0
-483,36,0,0,0,0,0,0,0,0,0,-1,741,988,0,0
-476,36,0,0,0,0,0,0,0,0,0,-1,748,988,0,0
-469,36,0,0,0,0,0,0,0,0,0,-1,755,988,0,0
-462,36,0,0,0,0,0,0,0,0,0,-1,762,988,0,0
-455,36,0,0,0,0,0,0,0,0,0,-1,769,988,0,0
-448,36,0,0,0,0,0,0,0,0,0,-1,776,988,0,0
-441,36,0,0,0,0,0,0,0,0,0,-1,783,988,0,0
-434,36,0,0,0,0,0,0,0,0,0,-1,790,988,0,0
-427,36,0,0,0,0,0,0,0,0,0,-1,797,988,0,0
-420,36,0,0,0,0,0,0,0,0,0,-1,804,988,0,0
-413,36,0,0,0,0,0,0,0,0,0,-1,811,988,0,0
-406,36,0,0,0,0,0,0,0,0,0,-1,818,988,0,0
-399,36,0,0,0,0,0,0,0,0,0,-1,825,988,0,0
-392,36,0,0,0,0,0,0,0,0,0,-1,832,988,0,0
-385,36,0,0,0,0,0,0,0,0,0,-1,839,988,0,0
-378,36,0,0,0,0,0,0,0,0,0,-1,846,988,0,0
-371,36,0,0,0,0,0,0,0,0,0,-1,853,988,0,0
-364,36,0,0,0,0,0,0,0,0,0,-1,860,988,0,0
-357,36,0,0,0,0,0,0,0,0,0,-1,867,988,0,0
-350,36,0,0,0,0,0,0,0,0,0,-1,874,988,0,0
-343,36,0,0,0,0,0,0,0,0,0,-1,881,988,0,0
-336,36,0,0,0,0,0,0,0,0,0,-1,888,988,0,0
-329,36,0,0,0,0,0,0,0,0,0,-1,895,988,0,0
-322,36,0,0,0,0,0,0,0,0,0,-1,902,988,0,0
-315,36,0,0,0,0,0,0,0,0,0,-1,909,988,0,0
-308,36,0,0,0,0,0,0,0,0,0,-1,916,988,0,0
-301,36,0,0,0,0,0,0,0,0,0,-1,923,988,0,0
-294,36,0,0,0,0,0,0,0,0,0,-1,930,988,0,0
-287,36,0,0,0,0,0,0,0,0,0,-1,937,988,0,0
-280,36,0,0,0,0,0,0,0,0,0,-1,944,988,0,0
-273,36,0,0,0,0,0,0,0,0,0,-1,951,988,0,0
-266,36,0,0,0,0,0,0,0,0,0,-1,958,988,0,0
-259,36,0,0,0,0,0,0,0,0,0,-1,965,988,0,0
-252,36,0,0,0,0,0,0,0,0,0,-1,972,988,0,0
-245,36,0,0,0,0,0,0,0,0,0,-1,979,988,0,0
-238,36,0,0,0,0,0,0,0,0,0,-1,986,988,0,0
-231,36,0,0,0,0,0,0,0,0,0,-1,993,988,0,0
-224,36,0,0,0,0,0,0,0,0,0,-1,1000,988,0,0
-217,36,0,0,0,0,0,0,0,0,0,-1,1007,988,0,0
-210,36,0,0,0,0,0,0,0,0,0,-1,1014,988,0,0
-203,36,0,0,0,0,0,0,0,0,0,-1,1021,988,0,0
-196,36,0,0,0,0,0,0,0,0,0,-1,1028,988,0,0
-189,36,0,0,0,0,0,0,0,0,0,-1,1035,988,0,0
-182,36,0,0,0,0,0,0,0,0,0,-1,1042,988,0,0
-175,36,0,0,0,0,0,0,0,0,0,-1,1049,988,0,0
-168,36,0,0,0,0,0,0,0,0,0,-1,1056,988,0,0
-161,36,0,0,0,0,0,0,0,0,0,-1,1063,988,0,0
-154,36,0,0,0,0,0,0,0,0,0,-1,1070,988,0,0
-147,36,0,0,0,0,0,0,0,0,0,-1,1077,988,0,0
-140,36,0,0,0,0,0,0,0,0,0,-1,1084,988,0,0
-133,36,0,0,0,0,0,0,0,0,0,-1,1091,988,0,0
-126,36,0,0,0,0,0,0,0,0,0,-1,1098,988,0,0
-119,36,0,0,0,0,0,0,0,0,0,-1,1105,988,0,0
-112,36,0,0,0,0,0,0,0,0,0,-1,1112,988,0,0
-105,36,0,0,0,0,0,0,0,0,0,-1,1119,988,0,0
-98,36,0,0,0,0,0,0,0,0,0,-1,1126,988,0,0
-91,36,0,0,0,0,0,0,0,0,0,-1,1133,988,0,0
-84,36,0,0,0,0,0,0,0,0,0,-1,1140,988,0,0
-77,36,0,0,0,0,0,0,0,0,0,-1,1147,988,0,0
-70,36,0,0,0,0,0,0,0,0,0,-1,1154,988,0,0
-63,36,0,0,0,0,0,0,0,0,0,-1,1161,988,0,0
-56,36,0,0,0,0,0,0,0,0,0,-1,1168,988,0,0
-49,36,0,0,0,0,0,0,0,0,0,-1,1175,988,0,0
-42,36,0,0,0,0,0,0,0,0,0,-1,1182,988,0,0
-35,36,0,0,0,0,0,0,0,0,0,-1,1189,988,0,0
-28,36,0,0,0,0,0,0,0,0,0,-1,1196,988,0,0
-21,36,0,0,0,0,0,0,0,0,0,-1,1203,988,0,0
-14,36,0,0,0,0,0,0,0,0,0,-1,1210,988,0,0
-7,36,0,0,0,0,0,0,0,0,0,-1,1217,988,0,0
0,36,0,0,0,0,0,0,0,0,0,-1,1224,988,0,0
7,36,0,0,0,0,0,0,0,0,0,-1,1231,988,0,0
14,36,0,0,0,0,0,0,0,0,0,-1,1238,988,0,0
21,36,0,0,0,0,0,0,0,0,0,-1,1245,988,0,0
28,36,0,0,0,0,0,0,0,0,0,-1,1252,988,0,0
35,36,0,0,0,0,0,0,0,0,0,-1,1259,988,0,0
42,36,0,0,0,0,0,0,0,0,0,-1,1266,988,0,0
49,36,0,0,0,0,0,0,0,0,0,-1,1273,988,0,0
56,36,0,0,0,0,0,0,0,0,0,-1,1280,988,0,0
63,36,0,0,0,0,0,0,0,0,0,-1,1287,988,0,0
70,36,0,0,0,0,0,0,0,0,0,-1,1294,988,0,0
77,36,0,0,0,0,0,0,0,0,0,-1,1301,988,0,0
84,36,0,0,0,0,0,0,0,0,0,-1,1308,988,0,0
91,36,0,0,0,0,0,0,0,0,0,-1,1315,988,0,0
98,36,0,0,0,0,0,0,0,0,0,-1,1322,988,0,0
105,36,0,0,0,0,0,0,0,0,0,-1,1329,988,0,0
112,36,0,0,0,0,0,0,0,0,0,-1,1336,988,0,0
119,36,0,0,0,0,0,0,0,0,0,-1,1343,988,0,0
126,36,0,0,0,0,0,0,0,0,0,-1,1350,988,0,0
133,36,0,0,0,0,0,0,0,0,0,-1,1357,988,0,0
140,36,0,0,0,0,0,0,0,0,0,-1,1364,988,0,0
147,36,0,0,0,0,0,0,0,0,0,-1,1371,988,0,0
154,36,0,0,0,0,0,0,0,0,0,-1,1378,988,0,0
161,36,0,0,0,0,0,0,0,0,0,-1,1385,988,0,0
168,36,0,0,0,0,0,0,0,0,0,-1,1392,988,0,0
175,36,0,0,0,0,0,0,0,0,0,-1,1399,988,0,0
182,36,0,0,0,0,0,0,0,0,0,-1,1406,988,0,0
189,36,0,0,0,0,0,0,0,0,0,-1,1413,988,0,0
196,36,0,0,0,0,0,0,0,0,0,-1,1420,988,0,0
203,36,0,0,0,0,0,0,0,0,0,-1,1427,988,0,0
210,36,0,0,0,0,0,0,0,0,0,-1,1434,988,0,0
217,36,0,0,0,0,0,0,0,0,0,-1,1441,988,0,0
224,36,0,0,0,0,0,0,0,0,0,-1,1448,988,0,0
231,36,0,0,0,0,0,0,0,0,0,-1,1455,988,0,0
238,36,0,0,0,0,0,0,0,0,0,-1,1462,988,0,0
245,36,0,0,0,0,0,0,0,0,0,-1,1469,988,0,0
252,36,0,0,0,0,0,0,0,0,0,-1,1476,988,0,0
259,36,0,0,0,0,0,0,0,0,0,-1,1483,988,0,0
266,36,0,0,0,0,0,0,0,0,0,-1,1490,988,0,0
273,36,0,0,0,0,0,0,0,0,0,-1,1497,988,0,0
280,36,0,0,0,0,0,0,0,0,0,-1,1504,988,0,0
287,36,0,0,0,0,0,0,0,0,0,-1,1511,988,0,0
294,36,0,0,0,0,0,0,0,0,0,-1,1518,988,0,0
301,36,0,0,0,0,0,0,0,0,0,-1,1525,988,0,0
308,36,0,0,0,0,0,0,0,0,0,-1,1532,988,0,0
315,36,0,0,0,0,0,0,0,0,0,-1,1539,988,0,0
322,36,0,0,0,0,0,0,0,0,0,-1,1546,988,0,0
329,36,0,0,0,0,0,0,0,0,0,-1,1553,988,0,0
336,36,0,0,0,0,0,0,0,0,0,-1,1560,988,0,0
343,36,0,0,0,0,0,0,0,0,0,-1,1567,988,0,0
350,36,0,0,0,0,0,0,0,0,0,-1,1574,988,0,0
357,36,0,0,0,0,0,0,0,0,0,-1,1581,988,0,0
364,36,0,0,0,0,0,0,0,0,0,-1,1588,988,0,0
371,36,0,0,0,0,0,0,0,0,0,-1,1595,988,0,0
378,36,0,0,0,0,0,0,0,0,0,-1,1602,988,0,0
385,36,0,0,0,0,0,0,0,0,0,-1,1609,988,0,0
392,36,0,0,0,0,0,0,0,0,0,-1,1616,988,0,0
399,36,0,0,0,0,0,0,0,0,0,-1,1623,988,0,0
406,36,0,0,0,0,0,0,0,0,0,-1,1630,988,0,0
413,36,0,0,0,0,0,0,0,0,0,-1,1637,988,0,0
420,36,0,0,0,0,0,0,0,0,0,-1,1644,988,0,0
427,36,0,0,0,0,0,0,0,0,0,-1,1651,988,0,0
434,36,0,0,0,0,0,0,0,0,0,-1,1658,988,0,0
441,36,0,0,0,0,0,0,0,0,0,-1,1665,988,0,0
448,36,0,0,0,0,0,0,0,0,0,-1,1672,988,0,0
455,36,0,0,0,0,0,0,0,0,0,-1,1679,988,0,0
462,36,0,0,0,0,0,0,0,0,0,-1,1686,988,0,0
469,36,0,0,0,0,0,0,0,0,0,-1,1693,988,0,0
476,36,0,0,0,0,0,0,0,0,0,-1,1700,988,0,0
483,36,0,0,0,0,0,0,0,0,0,-1,1707,988,0,0
490,36,0,0,0,0,0,0,0,0,0,-1,1714,988,0,0
497,36,0,0,0,0,0,0,0,0,0,-1,1721,988,0,0
504,36,0,0,0,0,0,0,0,0,0,-1,1728,988,0,0
511,36,0,0,0,0,0,0,0,0,0,-1,1735,988,0,0
518,36,0,0,0,0,0,0,0,0,0,-1,1742,988,0,0
525,36,0,0,0,0,0,0,0,0,0,-1,1749,988,0,0
532,36,0,0,0,0,0,0,0,0,0,-1,1756,988,0,0
539,36,0,0,0,0,0,0,0,0,0,-1,1763,988,0,0
546,36,0,0,0,0,0,0,0,0,0,-1,1770,988,0,0
553,36,0,0,0,0,0,0,0,0,0,-1,1777,988,0,0
560,36,0,0,0,0,0,0,0,0,0,-1,1784,988,0,0
567,36,0,0,0,0,0,0,0,0,0,-1,1791,988,0,0
574,36,0,0,0,0,0,0,0,0,0,-1,1798,988,0,0
581,36,0,0,0,0,0,0,0,0,0,-1,1805,988,0,0
588,36,0,0,0,0,0,0,0,0,0,-1,1812,988,0,0
595,36,0,0,0,0,0,0,0,0,0,-1,1819,988,0,0
602,36,0,0,0,0,0,0,0,0,0,-1,1826,988,0,0
609,36,0,0,0,0,0,0,0,0,0,-1,1833,988,0,0
616,36,0,0,0,0,0,0,0,0,0,-1,1840,988,0,0
623,36,0,0,0,0,0,0,0,0,0,-1,1847,988,0,0
630,36,0,0,0,0,0,0,0,0,0,-1,1854,988,0,0
637,36,0,0,0,0,0,0,0,0,0,-1,1861,988,0,0
644,36,20.6842,2.72583,0.00184656,-0.00495641,0.00069516,0.00191687,-0.00502672,0.100797,0.00414074,0.0417996,1868,988,20.6842,-2.72582
651,36,20.7043,2.82416,0.00103813,-0.00382773,0.000498989,0.00108877,-0.00387837,0.101146,0.00301477,0.0403926,1875,988,20.7043,-2.82418
658,36,20.8608,2.93481,0.000674526,-0.00301737,0.000448323,0.000728188,-0.00307103,0.119128,0.00232835,0.040416,1882,988,20.8608,-2.93481
665,36,20.9862,2.9209,1.3149e-05,-0.00224359,0.00063902,0.000181531,-0.00241197,0.257644,0.00167178,0.0385673,1889,988,20.9862,-2.92089
672,36,20.8373,2.74585,-0.00086988,-0.00144089,0.00114468,2.43653e-05,-0.00233514,0.663182,0.00156494,0.0382207,1896,988,20.8373,-2.74583
679,36,20.7267,2.55237,-0.00186903,-0.000765962,0.00178982,0.000555374,-0.00319037,0.934857,0.00233416,0.0405975,1903,988,20.7267,-2.55239
686,36,20.6857,2.75836,-0.00271631,-0.000268356,0.00233932,0.00114784,-0.00413252,1.02642,0.00320685,0.0385107,1910,988,20.6856,-2.75837
693,36,20.7014,2.99249,-0.00338259,8.70831e-05,0.00274427,0.00159889,-0.00489439,1.06727,0.00390653,0.0383803,1917,988,20.7014,-2.99249
700,36,20.7557,2.88287,-0.00381553,0.000396568,0.00297946,0.00193917,-0.00535813,1.09305,0.00436452,0.0341258,1924,988,20.7558,-2.88288
707,36,20.7332,2.69031,-0.0042502,0.000702293,0.00311609,0.00220623,-0.00575414,1.12114,0.00474564,0.025199,1931,988,20.7332,-2.69033
714,36,20.7803,2.77838,-0.00462158,0.000814773,0.00302304,0.00216197,-0.00596877,1.15157,0.00486276,0.0307813,1938,988,20.7803,-2.77838
721,36,20.4163,3.62616,0,0,0,0,0,0,0,-1,1945,988,20.4162,-3.62617
728,36,20.2441,3.763,-0.00460837,0.00120882,0.00280516,0.00234112,-0.00574067,1.18715,0.00480166,0.022999,1952,988,20.2441,-3.76298
735,36,20.0819,3.88739,-0.00472508,0.00155613,0.00230745,0.00231266,-0.00548162,1.25397,0.00462235,0.0179493,1959,988,20.0819,-3.88737
742,36,20.0743,3.92694,-0.00514532,0.00225731,0.0012704,0.00246926,-0.00535727,1.40548,0.00462006,0.0146395,1966,988,20.0743,-3.92695
749,36,20.0811,3.9848,-0.00559612,0.00253569,0.00031135,0.00254759,-0.00560803,1.53258,0.00481789,0.0158788,1973,988,20.0811,-3.98479
756,36,20.0547,4.01868,-0.006086,0.00337534,-0.00114294,0.00351145,-0.00622211,-1.45227,0.00569185,0.0137778,1980,988,20.0546,-4.01866
763,36,20.0417,4.09863,-0.00669619,0.00467144,-0.00317236,0.00549682,-0.00752157,-1.31626,0.00754641,0.0154871,1987,988,20.0417,-4.09861
770,36,20.0144,4.17609,-0.0078212,0.00612273,-0.00555463,0.00806493,-0.0097634,-1.23443,0.0103087,0.0131706,1994,988,20.0145,-4.17609
777,36,19.9976,4.24939,-0.00952888,0.00813421,-0.0084872,0.0115513,-0.012946,-1.18804,0.0141511,0.0216801,2001,988,19.9975,-4.24941
784,36,19.6782,4.4024,-0.0115899,0.010451,-0.0121494,0.0158336,-0.0169724,-1.15375,0.0189444,0.0432131,2008,988,19.6783,-4.40239
791,36,19.9034,3.80389,-0.0138839,0.0132169,-0.0169791,0.0213898,-0.0220568,-1.12218,0.0250849,0.0449893,2015,988,19.9034,-3.80388
798,36,20.4938,5.8681,0,0,0,0,0,0,0,-1,2022,988,20.4938,-5.86811
805,36,20.6326,5.54901,0,0,0,0,0,0,0,-1,2029,988,20.6325,-5.54898
812,36,20.7712,5.22986,0,0,0,0,0,0,0,-1,2036,988,20.7713,-5.22985
-700,29,0,0,0,0,0,0,0,0,0,-1,524,995,0,0
-693,29,-13.2638,-0.796204,0.0412456,-0.0222404,-0.00103277,0.0412624,-0.0222572,-0.0162619,0.0372162,0.0441313,531,995,-13.2638,0.796178
-686,29,-13.3803,-1.18976,0.035825,-0.0148887,0.00482668,0.0362803,-0.015344,0.0940498,0.0306114,0.0466901,538,995,-13.3803,1.18977
-679,29,-13.4932,-0.998352,0.0295564,-0.00945607,0.00809017,0.0311676,-0.0110672,0.196577,0.025288,0.0462845,545,995,-13.4932,0.998382
-672,29,-13.4852,-0.515015,0.0234415,-0.0054452,0.00967337,0.0263816,-0.00838531,0.295066,0.0209499,0.0435255,552,995,-13.4852,0.515
-665,29,-13.6264,2.78479,0.0178667,-0.00255365,0.0100767,0.0220019,-0.00668879,0.38941,0.0173332,0.0432693,559,995,-13.6264,-2.78476
-658,29,-13.3889,2.14081,0,0,0,0,0,0,0,-1,566,995,-13.3889,-2.14082
-651,29,-13.1837,1.79358,0.00895522,0.000658177,0.00862397,0.0143766,-0.00476321,0.561214,0.0115056,0.0353706,573,995,-13.1836,-1.79359
-644,29,-13.1461,1.7417,0.00577165,0.0013049,0.00711383,0.0109944,-0.0039179,0.633296,0.00892694,0.0189286,580,995,-13.1461,-1.74171
-637,29,-13.2054,1.7193,0.00340405,0.00201393,0.00547934,0.00823224,-0.00281426,0.722309,0.00662847,0.0125996,587,995,-13.2054,-1.71933
-630,29,-13.2076,1.72229,0.000714617,0.00219857,0.00392978,0.0054558,-0.00254262,0.878704,0.00471888,0.0109685,594,995,-13.2076,-1.72231
-623,29,-13.2004,1.68542,-0.000839746,0.00253458,0.00191077,0.00339645,-0.00170161,1.14706,0.00299709,0.0111507,601,995,-13.2005,-1.68543
-616,29,-13.1965,1.60327,-0.00147644,0.00262447,-0.000410684,0.0026652,-0.00151716,-1.47196,0.00244482,0.0131621,608,995,-13.1964,-1.60326
-609,29,-13.2079,1.57159,-0.00186917,0.000908485,-0.00209101,0.00202987,-0.00299056,-1.07854,0.00291618,0.0201244,615,995,-13.2079,-1.5716
-602,29,-13.2225,1.52362,-0.00198489,0.00126129,-0.0031694,0.00319903,-0.00392263,-1.02204,0.00411876,0.0219107,622,995,-13.2225,-1.52363
-595,29,-13.2,1.45422,-0.00219024,0.001315,-0.00375088,0.00370252,-0.00457776,-1.00395,0.00478952,0.0198262,629,995,-13.2,-1.45423
-588,29,-13.2343,1.18854,-0.00225009,0.00120546,-0.00388813,0.00373242,-0.00477705,-0.99448,0.00492527,0.0240124,636,995,-13.2343,-1.18854
-581,29,-13.2973,0.917297,-0.0021672,0.00107627,-0.00377455,0.00356273,-0.00465366,-0.988299,0.00475765,0.0366923,643,995,-13.2973,-0.917274
-574,29,-13.2996,0.849854,-0.00215867,0.001072,-0.00351051,0.00332098,-0.00440766,-1.00103,0.00447681,0.0331406,650,995,-13.2996,-0.849877
-567,29,-13.3171,0.728699,-0.00214792,0.0010041,-0.00289537,0.0027246,-0.00386842,-1.03463,0.00382553,0.0334743,657,995,-13.3171,-0.728723
-560,29,-13.3311,0.666626,-0.00199749,0.000878259,-0.00205639,0.00194962,-0.00306884,-1.0905,0.00292133,0.0387223,664,995,-13.3311,-0.66662
-553,29,-13.3112,0.77124,-0.00168637,0.000670818,-0.0010614,0.0010783,-0.00209385,-1.20423,0.00186247,0.0412138,671,995,-13.3112,-0.771217
-546,29,-13.2958,0.835632,-0.0011803,0.000358369,6.66205e-07,0.00035837,-0.0011803,1.57036,0.000929643,0.0429911,678,995,-13.2958,-0.83564
-539,29,-13.2866,0.879333,-0.000390368,-5.57373e-05,0.000842449,0.00063585,-0.00108196,0.883425,0.00100286,0.044228,685,995,-13.2866,-0.879354
-532,29,-13.1337,0.890686,0.000406642,-0.00018524,0.000891336,0.00104988,-0.00082848,0.625114,0.00108698,0.0444827,692,995,-13.1336,-0.890684
-525,29,-12.9618,0.723022,0,0,0,0,0,0,0,-1,699,995,-12.9618,-0.723005
-518,29,0,0,0,0,0,0,0,0,0,-1,706,995,0,0
-511,29,0,0,0,0,0,0,0,0,0,-1,713,995,0,0
-504,29,0,0,0,0,0,0,0,0,0,-1,720,995,0,0
-497,29,0,0,0,0,0,0,0,0,0,-1,727,995,0,0
-490,29,0,0,0,0,0,0,0,0,0,-1,734,995,0,0
-483,29,0,0,0,0,0,0,0,0,0,-1,741,995,0,0
-476,29,0,0,0,0,0,0,0,0,0,-1,748,995,0,0
-469,29,0,0,0,0,0,0,0,0,0,-1,755,995,0,0
-462,29,0,0,0,0,0,0,0,0,0,-1,762,995,0,0
-455,29,0,0,0,0,0,0,0,0,0,-1,769,995,0,0
-448,29,0,0,0,0,0,0,0,0,0,-1,776,995,0,0
-441,29,0,0,0,0,0,0,0,0,0,-1,783,995,0,0
-434,29,0,0,0,0,0,0,0,0,0,-1,790,995,0,0
-427,29,0,0,0,0,0,0,0,0,0,-1,797,995,0,0
-420,29,0,0,0,0,0,0,0,0,0,-1,804,995,0,0
-413,29,0,0,0,0,0,0,0,0,0,-1,811,995,0,0
-406,29,0,0,0,0,0,0,0,0,0,-1,818,995,0,0
-399,29,0,0,0,0,0,0,0,0,0,-1,825,995,0,0
-392,29,0,0,0,0,0,0,0,0,0,-1,832,995,0,0
-385,29,0,0,0,0,0,0,0,0,0,-1,839,995,0,0
-378,29,0,0,0,0,0,0,0,0,0,-1,846,995,0,0
-371,29,0,0,0,0,0,0,0,0,0,-1,853,995,0,0
-364,29,0,0,0,0,0,0,0,0,0,-1,860,995,0,0
-357,29,0,0,0,0,0,0,0,0,0,-1,867,995,0,0
-350,29,0,0,0,0,0,0,0,0,0,-1,874,995,0,0
-343,29,0,0,0,0,0,0,0,0,0,-1,881,995,0,0
-336,29,0,0,0,0,0,0,0,0,0,-1,888,995,0,0
-329,29,0,0,0,0,0,0,0,0,0,-1,895,995,0,0
-322,29,0,0,0,0,0,0,0,0,0,-1,902,995,0,0
-315,29,0,0,0,0,0,0,0,0,0,-1,909,995,0,0
-308,29,0,0,0,0,0,0,0,0,0,-1,916,995,0,0
-301,29,0,0,0,0,0,0,0,0,0,-1,923,995,0,0
-294,29,0,0,0,0,0,0,0,0,0,-1,930,995,0,0
-287,29,0,0,0,0,0,0,0,0,0,-1,937,995,0,0
-280,29,0,0,0,0,0,0,0,0,0,-1,944,995,0,0
-273,29,0,0,0,0,0,0,0,0,0,-1,951,995,0,0
-266,29,0,0,0,0,0,0,0,0,0,-1,958,995,0,0
-259,29,0,0,0,0,0,0,0,0,0,-1,965,995,0,0
-252,29,0,0,0,0,0,0,0,0,0,-1,972,995,0,0
-245,29,0,0,0,0,0,0,0,0,0,-1,979,995,0,0
-238,29,0,0,0,0,0,0,0,0,0,-1,986,995,0,0
-231,29,0,0,0,0,0,0,0,0,0,-1,993,995,0,0
-224,29,0,0,0,0,0,0,0,0,0,-1,1000,995,0,0
-217,29,0,0,0,0,0,0,0,0,0,-1,1007,995,0,0
-210,29,0,0,0,0,0,0,0,0,0,-1,1014,995,0,0
-203,29,0,0,0,0,0,0,0,0,0,-1,1021,995,0,0
-196,29,0,0,0,0,0,0,0,0,0,-1,1028,995,0,0
-189,29,0,0,0,0,0,0,0,0,0,-1,1035,995,0,0
-182,29,0,0,0,0,0,0,0,0,0,-1,1042,995,0,0
-175,29,0,0,0,0,0,0,0,0,0,-1,1049,995,0,0
-168,29,0,0,0,0,0,0,0,0,0,-1,1056,995,0,0
-161,29,0,0,0,0,0,0,0,0,0,-1,1063,995,0,0
-154,29,0,0,0,0,0,0,0,0,0,-1,1070,995,0,0
-147,29,0,0,0,0,0,0,0,0,0,-1,1077,995,0,0
-140,29,0,0,0,0,0,0,0,0,0,-1,1084,995,0,0
-133,29,0,0,0,0,0,0,0,0,0,-1,1091,995,0,0
-126,29,0,0,0,0,0,0,0,0,0,-1,1098,995,0,0
-119,29,0,0,0,0,0,0,0,0,0,-1,1105,995,0,0
-112,29,0,0,0,0,0,0,0,0,0,-1,1112,995,0,0
-105,29,0,0,0,0,0,0,0,0,0,-1,1119,995,0,0
-98,29,0,0,0,0,0,0,0,0,0,-1,1126,995,0,0
-91,29,0,0,0,0,0,0,0,0,0,-1,1133,995,0,0
-84,29,0,0,0,0,0,0,0,0,0,-1,1140,995,0,0
-77,29,0,0,0,0,0,0,0,0,0,-1,1147,995,0,0
-70,29,0,0,0,0,0,0,0,0,0,-1,1154,995,0,0
-63,29,0,0,0,0,0,0,0,0,0,-1,1161,995,0,0
-56,29,0,0,0,0,0,0,0,0,0,-1,1168,995,0,0
-49,29,0,0,0,0,0,0,0,0,0,-1,1175,995,0,0
-42,29,0,0,0,0,0,0,0,0,0,-1,1182,995,0,0
-35,29,0,0,0,0,0,0,0,0,0,-1,1189,995,0,0
-28,29,0,0,0,0,0,0,0,0,0,-1,1196,995,0,0
-21,29,0,0,0,0,0,0,0,0,0,-1,1203,995,0,0
-14,29,0,0,0,0,0,0,0,0,0,-1,1210,995,0,0
-7,29,0,0,0,0,0,0,0,0,0,-1,1217,995,0,0
0,29,0,0,0,0,0,0,0,0,0,-1,1224,995,0,0
7,29,0,0,0,0,0,0,0,0,0,-1,1231,995,0,0
14,29,0,0,0,0,0,0,0,0,0,-1,1238,995,0,0
21,29,0,0,0,0,0,0,0,0,0,-1,1245,995,0,0
28,29,0,0,0,0,0,0,0,0,0,-1,1252,995,0,0
35,29,0,0,0,0,0,0,0,0,0,-1,1259,995,0,0
42,29,0,0,0,0,0,0,0,0,0,-1,1266,995,0,0
49,29,0,0,0,0,0,0,0,0,0,-1,1273,995,0,0
56,29,0,0,0,0,0,0,0,0,0,-1,1280,995,0,0
63,29,0,0,0,0,0,0,0,0,0,-1,1287,995,0,0
70,29,0,0,0,0,0,0,0,0,0,-1,1294,995,0,0
77,29,0,0,0,0,0,0,0,0,0,-1,1301,995,0,0
84,29,0,0,0,0,0,0,0,0,0,-1,1308,995,0,0
91,29,0,0,0,0,0,0,0,0,0,-1,1315,995,0,0
98,29,0,0,0,0,0,0,0,0,0,-1,1322,995,0,0
105,29,0,0,0,0,0,0,0,0,0,-1,1329,995,0,0
112,29,0,0,0,0,0,0,0,0,0,-1,1336,995,0,0
119,29,0,0,0,0,0,0,0,0,0,-1,1343,995,0,0
126,29,0,0,0,0,0,0,0,0,0,-1,1350,995,0,0
133,29,0,0,0,0,0,0,0,0,0,-1,1357,995,0,0
140,29,0,0,0,0,0,0,0,0,0,-1,1364,995,0,0
147,29,0,0,0,0,0,0,0,0,0,-1,1371,995,0,0
154,29,0,0,0,0,0,0,0,0,0,-1,1378,995,0,0
161,29,0,0,0,0,0,0,0,0,0,-1,1385,995,0,0
168,29,0,0,0,0,0,0,0,0,0,-1,1392,995,0,0
175,29,0,0,0,0,0,0,0,0,0,-1,1399,995,0,0
182,29,0,0,0,0,0,0,0,0,0,-1,1406,995,0,0
189,29,0,0,0,0,0,0,0,0,0,-1,1413,995,0,0
196,29,0,0,0,0,0,0,0,0,0,-1,1420,995,0,0
203,29,0,0,0,0,0,0,0,0,0,-1,1427,995,0,0
210,29,0,0,0,0,0,0,0,0,0,-1,1434,995,0,0
217,29,0,0,0,0,0,0,0,0,0,-1,1441,995,0,0
224,29,0,0,0,0,0,0,0,0,0,-1,1448,995,0,0
231,29,0,0,0,0,0,0,0,0,0,-1,1455,995,0,0
238,29,0,0,0,0,0,0,0,0,0,-1,1462,995,0,0
245,29,0,0,0,0,0,0,0,0,0,-1,1469,995,0,0
252,29,0,0,0,0,0,0,0,0,0,-1,1476,995,0,0
259,29,0,0,0,0,0,0,0,0,0,-1,1483,995,0,0
266,29,0,0,0,0,0,0,0,0,0,-1,1490,995,0,0
273,29,0,0,0,0,0,0,0,0,0,-1,1497,995,0,0
280,29,0,0,0,0,0,0,0,0,0,-1,1504,995,0,0
287,29,0,0,0,0,0,0,0,0,0,-1,1511,995,0,0
294,29,0,0,0,0,0,0,0,0,0,-1,1518,995,0,0
301,29,0,0,0,0,0,0,0,0,0,-1,1525,995,0,0
308,29,0,0,0,0,0,0,0,0,0,-1,1532,995,0,0
315,29,0,0,0,0,0,0,0,0,0,-1,1539,995,0,0
322,29,0,0,0,0,0,0,0,0,0,-1,1546,995,0,0
329,29,0,0,0,0,0,0,0,0,0,-1,1553,995,0,0
336,29,0,0,0,0,0,0,0,0,0,-1,1560,995,0,0
343,29,0,0,0,0,0,0,0,0,0,-1,1567,995,0,0
350,29,0,0,0,0,0,0,0,0,0,-1,1574,995,0,0
357,29,0,0,0,0,0,0,0,0,0,-1,1581,995,0,0
364,29,0,0,0,0,0,0,0,0,0,-1,1588,995,0,0
371,29,0,0,0,0,0,0,0,0,0,-1,1595,995,0,0
378,29,0,0,0,0,0,0,0,0,0,-1,1602,995,0,0
385,29,0,0,0,0,0,0,0,0,0,-1,1609,995,0,0
392,29,0,0,0,0,0,0,0,0,0,-1,1616,995,0,0
399,29,0,0,0,0,0,0,0,0,0,-1,1623,995,0,0
406,29,0,0,0,0,0,0,0,0,0,-1,1630,995,0,0
413,29,0,0,0,0,0,0,0,0,0,-1,1637,995,0,0
420,29,0,0,0,0,0,0,0,0,0,-1,1644,995,0,0
427,29,0,0,0,0,0,0,0,0,0,-1,1651,995,0,0
434,29,0,0,0,0,0,0,0,0,0,-1,1658,995,0,0
441,29,0,0,0,0,0,0,0,0,0,-1,1665,995,0,0
448,29,0,0,0,0,0,0,0,0,0,-1,1672,995,0,0
455,29,0,0,0,0,0,0,0,0,0,-1,1679,995,0,0
462,29,0,0,0,0,0,0,0,0,0,-1,1686,995,0,0
469,29,0,0,0,0,0,0,0,0,0,-1,1693,995,0,0
476,29,0,0,0,0,0,0,0,0,0,-1,1700,995,0,0
483,29,0,0,0,0,0,0,0,0,0,-1,1707,995,0,0
490,29,0,0,0,0,0,0,0,0,0,-1,1714,995,0,0
497,29,0,0,0,0,0,0,0,0,0,-1,1721,995,0,0
504,29,0,0,0,0,0,0,0,0,0,-1,1728,995,0,0
511,29,0,0,0,0,0,0,0,0,0,-1,1735,995,0,0
518,29,0,0,0,0,0,0,0,0,0,-1,1742,995,0,0
525,29,0,0,0,0,0,0,0,0,0,-1,1749,995,0,0
532,29,0,0,0,0,0,0,0,0,0,-1,1756,995,0,0
539,29,0,0,0,0,0,0,0,0,0,-1,1763,995,0,0
546,29,0,0,0,0,0,0,0,0,0,-1,1770,995,0,0
553,29,0,0,0,0,0,0,0,0,0,-1,1777,995,0,0
560,29,0,0,0,0,0,0,0,0,0,-1,1784,995,0,0
567,29,0,0,0,0,0,0,0,0,0,-1,1791,995,0,0
574,29,0,0,0,0,0,0,0,0,0,-1,1798,995,0,0
581,29,0,0,0,0,0,0,0,0,0,-1,1805,995,0,0
588,29,0,0,0,0,0,0,0,0,0,-1,1812,995,0,0
595,29,0,0,0,0,0,0,0,0,0,-1,1819,995,0,0
602,29,0,0,0,0,0,0,0,0,0,-1,1826,995,0,0
609,29,0,0,0,0,0,0,0,0,0,-1,1833,995,0,0
616,29,0,0,0,0,0,0,0,0,0,-1,1840,995,0,0
623,29,0,0,0,0,0,0,0,0,0,-1,1847,995,0,0
630,29,0,0,0,0,0,0,0,0,0,-1,1854,995,0,0
637,29,0,0,0,0,0,0,0,0,0,-1,1861,995,0,0
644,29,20.6798,2.76099,0,0,0,0,0,0,0,-1,1868,995,20.6798,-2.76097
651,29,20.828,3.01794,0.00135124,-0.00402248,0.000503644,0.00139804,-0.00406927,0.0926484,0.00327974,0.0424936,1875,995,20.828,-3.01793
658,29,20.952,3.12579,0.00071651,-0.0031299,0.000455097,0.000769623,-0.00318302,0.11618,0.0024197,0.0446411,1882,995,20.952,-3.12578
665,29,21.0564,3.1557,8.64202e-05,-0.00235731,0.00058569,0.000219541,-0.00249043,0.223492,0.0017381,0.0430982,1889,995,21.0564,-3.15571
672,29,20.8624,2.92059,-0.00062668,-0.00156285,0.00107788,8.0366e-05,-0.0022699,0.580553,0.00154075,0.0394944,1896,995,20.8625,-2.92058
679,29,20.6898,2.66913,-0.00146126,-0.000882181,0.00178113,0.000632787,-0.00297623,0.865973,0.00222527,0.0387106,1903,995,20.6899,-2.66911
686,29,20.6306,2.76184,-0.0021839,-0.00037882,0.0024172,0.00129884,-0.00386156,0.964074,0.00309941,0.0375469,1910,995,20.6306,-2.76182
693,29,20.6373,2.93854,-0.00275727,-1.00308e-05,0.00291954,0.00184288,-0.00461019,1.00528,0.00383817,0.0372373,1917,995,20.6374,-2.93854
700,29,20.6947,2.89349,-0.00314817,0.000312278,0.00324495,0.00225947,-0.00509536,1.03033,0.00435026,0.0323714,1924,995,20.6947,-2.89349
707,29,20.6978,2.74268,-0.00358416,0.000621921,0.00346457,0.00257179,-0.00553403,1.05818,0.00478293,0.0210014,1931,995,20.6978,-2.74267
714,29,20.7399,2.90613,-0.00398719,0.000733018,0.00342499,0.00253232,-0.00578648,1.08708,0.00492383,0.0257121,1938,995,20.7399,-2.90613
721,29,20.5327,3.46277,0,0,0,0,0,0,0,-1,1945,995,20.5327,-3.46274
728,29,20.2404,3.7348,-0.00402514,0.00115668,0.00325348,0.00272485,-0.00559331,1.12165,0.00489675,0.0224806,1952,995,20.2404,-3.73481
735,29,20.1177,3.86987,-0.00417698,0.00152598,0.0027333,0.00262442,-0.00527542,1.18868,0.00464579,0.0144949,1959,995,20.1176,-3.86987
742,29,20.1288,3.92639,-0.00464677,0.00218027,0.0016547,0.00256019,-0.00502668,1.34511,0.00445677,0.0124025,1966,995,20.1287,-3.92639
749,29,20.1534,3.99188,-0.00507711,0.00231031,0.000601604,0.00235898,-0.00512578,1.49007,0.00441865,0.0134476,1973,995,20.1535,-3.99187
756,29,20.1364,4.05878,-0.00545532,0.0030108,-0.00101006,0.00312964,-0.00557416,-1.45368,0.00509078,0.0123874,1980,995,20.1364,-4.05879
763,29,20.1152,4.10266,-0.00596895,0.00421566,-0.00331332,0.00519868,-0.00695198,-1.28238,0.00703949,0.0119016,1987,995,20.1152,-4.10268
770,29,20.0717,4.15002,-0.00682024,0.00547242,-0.00606368,0.00796007,-0.00930789,-1.18148,0.00997978,0.0128364,1994,995,20.0717,-4.15005
777,29,20.0575,4.22772,-0.00812489,0.00724572,-0.00946383,0.0117517,-0.0126309,-1.12643,0.0140804,0.0215148,2001,995,20.0574,-4.22774
784,29,20.0811,3.92188,-0.00978651,0.0093288,-0.0136231,0.0164126,-0.0168703,-1.09129,0.0192164,0.0429911,2008,995,20.081,-3.9219
791,29,20.1301,3.48926,-0.0116771,0.0118785,-0.0190667,0.0225118,-0.0223104,-1.06207,0.0258782,0.043664,2015,995,20.1301,-3.48924
798,29,19.9857,3.04816,0,0,0,0,0,0,0,-1,2022,995,19.9858,-3.04814
805,29,21.0862,5.65338,0,0,0,0,0,0,0,-1,2029,995,21.0861,-5.65341
812,29,17.0205,3.51471,0,0,0,0,0,0,0,-1,2036,995,17.0204,-3.51473
-700,22,0,0,0,0,0,0,0,0,0,-1,524,1002,0,0
-693,22,-13.5776,-1.5246,0.0377159,-0.0208506,-0.000848898,0.0377282,-0.0208629,-0.0144905,0.0342915,0.0455308,531,1002,-13.5777,1.52461
-686,22,-13.491,-1.13861,0.0318445,-0.0149634,0.0047203,0.0323158,-0.0154347,0.0995091,0.0281371,0.0472121,538,1002,-13.491,1.13862
-679,22,-13.4673,-0.674316,0.0257639,-0.0101773,0.0077773,0.0273746,-0.011788,0.20422,0.0231998,0.0473489,545,1002,-13.4673,0.674287
-672,22,-13.4178,-0.316406,0.0201033,-0.00641201,0.00921376,0.0229906,-0.00929929,0.303673,0.0191931,0.0474395,552,1002,-13.4178,0.316391
-665,22,-13.2135,0.17041,0.0150811,-0.00356555,0.0095287,0.019089,-0.0075734,0.398146,0.0158649,0.0479816,559,1002,-13.2135,-0.170418
-658,22,-13.1127,1.75269,0,0,0,0,0,0,0,-1,566,1002,-13.1127,-1.7527
-651,22,-13.1129,1.76648,0.00726162,-0.000187319,0.00806677,0.0124222,-0.00534792,0.569126,0.0105271,0.0361106,573,1002,-13.1128,-1.7665
-644,22,-13.1611,1.74915,0.00454652,0.000590379,0.00657172,0.00943141,-0.00429451,0.639212,0.00810755,0.0185263,580,1002,-13.1611,-1.74914
-637,22,-13.2214,1.71466,0.00244297,0.00132187,0.00494298,0.00685708,-0.00309224,0.728937,0.00587973,0.0134598,587,1002,-13.2215,-1.71467
-630,22,-13.2361,1.69952,0.000175181,0.00158866,0.00334999,0.00430565,-0.00254181,0.889358,0.00399687,0.0111289,594,1002,-13.2362,-1.69952
-623,22,-13.2311,1.66827,-0.00101414,0.00216098,0.00141484,0.00269995,-0.00155311,1.20683,0.00248509,0.00995439,601,1002,-13.2311,-1.66829
-616,22,-13.2462,1.6026,-0.0013182,0.00239455,-0.000777811,0.00255092,-0.00147456,-1.37241,0.00235164,0.0161587,608,1002,-13.2462,-1.60261
-609,22,-13.27,1.54413,-0.00145289,0.000756701,-0.00245067,0.00234009,-0.00303629,-0.997164,0.00311272,0.0264098,615,1002,-13.27,-1.5441
-602,22,-13.2953,1.53937,-0.00145542,0.00116086,-0.00362556,0.00370705,-0.00400161,-0.958535,0.00445168,0.0262403,622,1002,-13.2953,-1.53936
-595,22,-13.2641,1.4679,-0.00158561,0.00120878,-0.00419448,0.00423265,-0.00460948,-0.94617,0.00510655,0.0213528,629,1002,-13.2641,-1.46791
-588,22,-13.2656,1.16241,-0.00162107,0.00113139,-0.00429146,0.00426189,-0.00475157,-0.940563,0.00520648,0.0268721,636,1002,-13.2655,-1.16239
-581,22,-13.3181,0.85498,-0.00154956,0.00103666,-0.00410347,0.00404595,-0.00455885,-0.938036,0.00497092,0.0391852,643,1002,-13.3181,-0.854978
-574,22,-13.2992,0.780762,-0.00158937,0.00106614,-0.0037385,0.00370566,-0.00422889,-0.956029,0.00458433,0.0357777,650,1002,-13.2992,-0.780755
-567,22,-13.2552,0.663635,-0.00166955,0.0010565,-0.00299779,0.00298659,-0.00359964,-0.998767,0.00380805,0.0329475,657,1002,-13.2552,-0.663612
-560,22,-13.1751,0.682617,-0.00167728,0.000995552,-0.00199574,0.002061,-0.00274273,-1.08043,0.00278273,0.03763,664,1002,-13.1751,-0.682608
-553,22,-13.2373,0.947021,-0.00158692,0.000840472,-0.000807865,0.00108476,-0.0018312,-1.27716,0.00170182,0.0402682,671,1002,-13.2373,-0.947048
-546,22,-13.2979,0.969788,-0.0013503,0.00054984,0.000465874,0.000657915,-0.00145838,1.34284,0.00125064,0.0417072,678,1002,-13.2978,-0.969804
-539,22,-13.429,0.753479,-0.000841843,0.000103643,0.00146706,0.00117224,-0.00191044,0.941265,0.00179672,0.0423045,685,1002,-13.429,-0.753505
-532,22,-13.4471,1.00745,-0.00029193,-8.45724e-05,0.00151173,0.00132703,-0.00170354,0.819636,0.0017542,0.0433074,692,1002,-13.4471,-1.00745
-525,22,0,0,0,0,0,0,0,0,0,-1,699,1002,0,0
-518,22,0,0,0,0,0,0,0,0,0,-1,706,1002,0,0
-511,22,0,0,0,0,0,0,0,0,0,-1,713,1002,0,0
-504,22,0,0,0,0,0,0,0,0,0,-1,720,1002,0,0
-497,22,0,0,0,0,0,0,0,0,0,-1,727,1002,0,0
-490,22,0,0,0,0,0,0,0,0,0,-1,734,1002,0,0
-483,22,0,0,0,0,0,0,0,0,0,-1,741,1002,0,0
-476,22,0,0,0,0,0,0,0,0,0,-1,748,1002,0,0
-469,22,0,0,0,0,0,0,0,0,0,-1,755,1002,0,0
-462,22,0,0,0,0,0,0,0,0,0,-1,762,1002,0,0
-455,22,0,0,0,0,0,0,0,0,0,-1,769,1002,0,0
-448,22,0,0,0,0,0,0,0,0,0,-1,776,1002,0,0
-441,22,0,0,0,0,0,0,0,0,0,-1,783,1002,0,0
-434,22,0,0,0,0,0,0,0,0,0,-1,790,1002,0,0
-427,22,0,0,0,0,0,0,0,0,0,-1,797,1002,0,0
-420,22,0,0,0,0,0,0,0,0,0,-1,804,1002,0,0
-413,22,0,0,0,0,0,0,0,0,0,-1,811,1002,0,0
-406,22,0,0,0,0,0,0,0,0,0,-1,818,1002,0,0
-399,22,0,0,0,0,0,0,0,0,0,-1,825,1002,0,0
-392,22,0,0,0,0,0,0,0,0,0,-1,832,1002,0,0
-385,22,0,0,0,0,0,0,0,0,0,-1,839,1002,0,0
-378,22,0,0,0,0,0,0,0,0,0,-1,846,1002,0,0
-371,22,0,0,0,0,0,0,0,0,0,-1,853,1002,0,0
-364,22,0,0,0,0,0,0,0,0,0,-1,860,1002,0,0
-357,22,0,0,0,0,0,0,0,0,0,-1,867,1002,0,0
-350,22,0,0,0,0,0,0,0,0,0,-1,874,1002,0,0
-343,22,0,0,0,0,0,0,0,0,0,-1,881,1002,0,0
-336,22,0,0,0,0,0,0,0,0,0,-1,888,1002,0,0
-329,22,0,0,0,0,0,0,0,0,0,-1,895,1002,0,0
-322,22,0,0,0,0,0,0,0,0,0,-1,902,1002,0,0
-315,22,0,0,0,0,0,0,0,0,0,-1,909,1002,0,0
-308,22,0,0,0,0,0,0,0,0,0,-1,916,1002,0,0
-301,22,0,0,0,0,0,0,0,0,0,-1,923,1002,0,0
-294,22,0,0,0,0,0,0,0,0,0,-1,930,1002,0,0
-287,22,0,0,0,0,0,0,0,0,0,-1,937,1002,0,0
-280,22,0,0,0,0,0,0,0,0,0,-1,944,1002,0,0
-273,22,0,0,0,0,0,0,0,0,0,-1,951,1002,0,0
-266,22,0,0,0,0,0,0,0,0,0,-1,958,1002,0,0
-259,22,0,0,0,0,0,0,0,0,0,-1,965,1002,0,0
-252,22,0,0,0,0,0,0,0,0,0,-1,972,1002,0,0
-245,22,0,0,0,0,0,0,0,0,0,-1,979,1002,0,0
-238,22,0,0,0,0,0,0,0,0,0,-1,986,1002,0,0
-231,22,0,0,0,0,0,0,0,0,0,-1,993,1002,0,0
-224,22,0,0,0,0,0,0,0,0,0,-1,1000,1002,0,0
-217,22,0,0,0,0,0,0,0,0,0,-1,1007,1002,0,0
-210,22,0,0,0,0,0,0,0,0,0,-1,1014,1002,0,0
-203,22,0,0,0,0,0,0,0,0,0,-1,1021,1002,0,0
-196,22,0,0,0,0,0,0,0,0,0,-1,1028,1002,0,0
-189,22,0,0,0,0,0,0,0,0,0,-1,1035,1002,0,0
-182,22,0,0,0,0,0,0,0,0,0,-1,1042,1002,0,0
-175,22,0,0,0,0,0,0,0,0,0,-1,1049,1002,0,0
-168,22,0,0,0,0,0,0,0,0,0,-1,1056,1002,0,0
-161,22,0,0,0,0,0,0,0,0,0,-1,1063,1002,0,0
-154,22,0,0,0,0,0,0,0,0,0,-1,1070,1002,0,0
-147,22,0,0,0,0,0,0,0,0,0,-1,1077,1002,0,0
-140,22,0,0,0,0,0,0,0,0,0,-1,1084,1002,0,0
-133,22,0,0,0,0,0,0,0,0,0,-1,1091,1002,0,0
-126,22,0,0,0,0,0,0,0,0,0,-1,1098,1002,0,0
-119,22,0,0,0,0,0,0,0,0,0,-1,1105,1002,0,0
-112,22,0,0,0,0,0,0,0,0,0,-1,1112,1002,0,0
-105,22,0,0,0,0,0,0,0,0,0,-1,1119,1002,0,0
-98,22,0,0,0,0,0,0,0,0,0,-1,1126,1002,0,0
-91,22,0,0,0,0,0,0,0,0,0,-1,1133,1002,0,0
-84,22,0,0,0,0,0,0,0,0,0,-1,1140,1002,0,0
-77,22,0,0,0,0,0,0,0,0,0,-1,1147,1002,0,0
-70,22,0,0,0,0,0,0,0,0,0,-1,1154,1002,0,0
-63,22,0,0,0,0,0,0,0,0,0,-1,1161,1002,0,0
-56,22,0,0,0,0,0,0,0,0,0,-1,1168,1002,0,0
-49,22,0,0,0,0,0,0,0,0,0,-1,1175,1002,0,0
-42,22,0,0,0,0,0,0,0,0,0,-1,1182,1002,0,0
-35,22,0,0,0,0,0,0,0,0,0,-1,1189,1002,0,0
-28,22,0,0,0,0,0,0,0,0,0,-1,1196,1002,0,0
-21,22,0,0,0,0,0,0,0,0,0,-1,1203,1002,0,0
-14,22,0,0,0,0,0,0,0,0,0,-1,1210,1002,0,0
-7,22,0,0,0,0,0,0,0,0,0,-1,1217,1002,0,0
0,22,0,0,0,0,0,0,0,0,0,-1,1224,1002,0,0
7,22,0,0,0,0,0,0,0,0,0,-1,1231,1002,0,0
14,22,0,0,0,0,0,0,0,0,0,-1,1238,1002,0,0
21,22,0,0,0,0,0,0,0,0,0,-1,1245,1002,0,0
28,22,0,0,0,0,0,0,0,0,0,-1,1252,1002,0,0
35,22,0,0,0,0,0,0,0,0,0,-1,1259,1002,0,0
42,22,0,0,0,0,0,0,0,0,0,-1,1266,1002,0,0
49,22,0,0,0,0,0,0,0,0,0,-1,1273,1002,0,0
56,22,0,0,0,0,0,0,0,0,0,-1,1280,1002,0,0
63,22,0,0,0,0,0,0,0,0,0,-1,1287,1002,0,0
70,22,0,0,0,0,0,0,0,0,0,-1,1294,1002,0,0
77,22,0,0,0,0,0,0,0,0,0,-1,1301,1002,0,0
84,22,0,0,0,0,0,0,0,0,0,-1,1308,1002,0,0
91,22,0,0,0,0,0,0,0,0,0,-1,1315,1002,0,0
98,22,0,0,0,0,0,0,0,0,0,-1,1322,1002,0,0
105,22,0,0,0,0,0,0,0,0,0,-1,1329,1002,0,0
112,22,0,0,0,0,0,0,0,0,0,-1,1336,1002,0,0
119,22,0,0,0,0,0,0,0,0,0,-1,1343,1002,0,0
126,22,0,0,0,0,0,0,0,0,0,-1,1350,1002,0,0
133,22,0,0,0,0,0,0,0,0,0,-1,1357,1002,0,0
140,22,0,0,0,0,0,0,0,0,0,-1,1364,1002,0,0
147,22,0,0,0,0,0,0,0,0,0,-1,1371,1002,0,0
154,22,0,0,0,0,0,0,0,0,0,-1,1378,1002,0,0
161,22,0,0,0,0,0,0,0,0,0,-1,1385,1002,0,0
168,22,0,0,0,0,0,0,0,0,0,-1,1392,1002,0,0
175,22,0,0,0,0,0,0,0,0,0,-1,1399,1002,0,0
182,22,0,0,0,0,0,0,0,0,0,-1,1406,1002,0,0
189,22,0,0,0,0,0,0,0,0,0,-1,1413,1002,0,0
196,22,0,0,0,0,0,0,0,0,0,-1,1420,1002,0,0
203,22,0,0,0,0,0,0,0,0,0,-1,1427,1002,0,0
210,22,0,0,0,0,0,0,0,0,0,-1,1434,1002,0,0
217,22,0,0,0,0,0,0,0,0,0,-1,1441,1002,0,0
224,22,0,0,0,0,0,0,0,0,0,-1,1448,1002,0,0
231,22,0,0,0,0,0,0,0,0,0,-1,1455,1002,0,0
238,22,0,0,0,0,0,0,0,0,0,-1,1462,1002,0,0
245,22,0,0,0,0,0,0,0,0,0,-1,1469,1002,0,0
252,22,0,0,0,0,0,0,0,0,0,-1,1476,1002,0,0
259,22,0,0,0,0,0,0,0,0,0,-1,1483,1002,0,0
266,22,0,0,0,0,0,0,0,0,0,-1,1490,1002,0,0
273,22,0,0,0,0,0,0,0,0,0,-1,1497,1002,0,0
280,22,0,0,0,0,0,0,0,0,0,-1,1504,1002,0,0
287,22,0,0,0,0,0,0,0,0,0,-1,1511,1002,0,0
294,22,0,0,0,0,0,0,0,0,0,-1,1518,1002,0,0
301,22,0,0,0,0,0,0,0,0,0,-1,1525,1002,0,0
308,22,0,0,0,0,0,0,0,0,0,-1,1532,1002,0,0
315,22,0,0,0,0,0,0,0,0,0,-1,1539,1002,0,0
322,22,0,0,0,0,0,0,0,0,0,-1,1546,1002,0,0
329,22,0,0,0,0,0,0,0,0,0,-1,1553,1002,0,0
336,22,0,0,0,0,0,0,0,0,0,-1,1560,1002,0,0
343,22,0,0,0,0,0,0,0,0,0,-1,1567,1002,0,0
350,22,0,0,0,0,0,0,0,0,0,-1,1574,1002,0,0
357,22,0,0,0,0,0,0,0,0,0,-1,1581,1002,0,0
364,22,0,0,0,0,0,0,0,0,0,-1,1588,1002,0,0
371,22,0,0,0,0,0,0,0,0,0,-1,1595,1002,0,0
378,22,0,0,0,0,0,0,0,0,0,-1,1602,1002,0,0
385,22,0,0,0,0,0,0,0,0,0,-1,1609,1002,0,0
392,22,0,0,0,0,0,0,0,0,0,-1,1616,1002,0,0
399,22,0,0,0,0,0,0,0,0,0,-1,1623,1002,0,0
406,22,0,0,0,0,0,0,0,0,0,-1,1630,1002,0,0
413,22,0,0,0,0,0,0,0,0,0,-1,1637,1002,0,0
420,22,0,0,0,0,0,0,0,0,0,-1,1644,1002,0,0
427,22,0,0,0,0,0,0,0,0,0,-1,1651,1002,0,0
434,22,0,0,0,0,0,0,0,0,0,-1,1658,1002,0,0
441,22,0,0,0,0,0,0,0,0,0,-1,1665,1002,0,0
448,22,0,0,0,0,0,0,0,0,0,-1,1672,1002,0,0
455,22,0,0,0,0,0,0,0,0,0,-1,1679,1002,0,0
462,22,0,0,0,0,0,0,0,0,0,-1,1686,1002,0,0
469,22,0,0,0,0,0,0,0,0,0,-1,1693,1002,0,0
476,22,0,0,0,0,0,0,0,0,0,-1,1700,1002,0,0
483,22,0,0,0,0,0,0,0,0,0,-1,1707,1002,0,0
490,22,0,0,0,0,0,0,0,0,0,-1,1714,1002,0,0
497,22,0,0,0,0,0,0,0,0,0,-1,1721,1002,0,0
504,22,0,0,0,0,0,0,0,0,0,-1,1728,1002,0,0
511,22,0,0,0,0,0,0,0,0,0,-1,1735,1002,0,0
518,22,0,0,0,0,0,0,0,0,0,-1,1742,1002,0,0
525,22,0,0,0,0,0,0,0,0,0,-1,1749,1002,0,0
532,22,0,0,0,0,0,0,0,0,0,-1,1756,1002,0,0
539,22,0,0,0,0,0,0,0,0,0,-1,1763,1002,0,0
546,22,0,0,0,0,0,0,0,0,0,-1,1770,1002,0,0
553,22,0,0,0,0,0,0,0,0,0,-1,1777,1002,0,0
560,22,0,0,0,0,0,0,0,0,0,-1,1784,1002,0,0
567,22,0,0,0,0,0,0,0,0,0,-1,1791,1002,0,0
574,22,0,0,0,0,0,0,0,0,0,-1,1798,1002,0,0
581,22,0,0,0,0,0,0,0,0,0,-1,1805,1002,0,0
588,22,0,0,0,0,0,0,0,0,0,-1,1812,1002,0,0
595,22,0,0,0,0,0,0,0,0,0,-1,1819,1002,0,0
602,22,0,0,0,0,0,0,0,0,0,-1,1826,1002,0,0
609,22,0,0,0,0,0,0,0,0,0,-1,1833,1002,0,0
616,22,0,0,0,0,0,0,0,0,0,-1,1840,1002,0,0
623,22,0,0,0,0,0,0,0,0,0,-1,1847,1002,0,0
630,22,0,0,0,0,0,0,0,0,0,-1,1854,1002,0,0
637,22,0,0,0,0,0,0,0,0,0,-1,1861,1002,0,0
644,22,20.6982,2.53644,0,0,0,0,0,0,0,-1,1868,1002,20.6982,-2.53646
651,22,20.9214,3.15448,0,0,0,0,0,0,0,-1,1875,1002,20.9213,-3.15446
658,22,20.9419,2.51135,0.000868061,-0.00310811,0.000490016,0.000927559,-0.00316761,0.12083,0.00247945,0.0418552,1882,1002,20.9419,-2.51132
665,22,21.0731,2.9718,0.000176062,-0.00228401,0.000590459,0.000310441,-0.00241839,0.223774,0.00172508,0.0427289,1889,1002,21.0731,-2.97178
672,22,20.8615,2.73895,-0.000447574,-0.00149591,0.00108479,0.000233051,-0.00217654,0.56034,0.00153462,0.0395084,1896,1002,20.8614,-2.73898
679,22,20.6152,2.55096,-0.00118547,-0.000851846,0.00186586,0.000854645,-0.00289196,0.829981,0.0022672,0.0375663,1903,1002,20.6152,-2.55098
686,22,20.6257,2.70258,-0.00183746,-0.000399198,0.00260467,0.00158379,-0.00382045,0.920089,0.00320797,0.0369251,1910,1002,20.6257,-2.7026
693,22,20.6538,2.83331,-0.00235259,-8.12431e-05,0.00322079,0.00219823,-0.00463206,0.954896,0.00402606,0.0358091,1917,1002,20.6538,-2.83328
700,22,20.7351,2.8125,-0.00271402,0.000198049,0.00364658,0.00266853,-0.0051845,0.975344,0.00461087,0.0327101,1924,1002,20.7351,-2.81249
707,22,20.6649,2.72815,-0.00315389,0.000470613,0.00395372,0.00300764,-0.00569091,1.00029,0.00510114,0.0299935,1931,1002,20.6649,-2.72818
714,22,20.7002,2.79816,-0.00357583,0.000555643,0.00397054,0.00296567,-0.00598586,1.02526,0.00526531,0.0285144,1938,1002,20.7002,-2.79813
721,22,20.8175,2.97211,0,0,0,0,0,0,0,-1,1945,1002,20.8175,-2.97208
728,22,20.1642,3.79681,0,0,0,0,0,0,0,-1,1952,1002,20.1641,-3.7968
735,22,20.192,3.88757,-0.003793,0.00131812,0.00330033,0.00293665,-0.00541153,1.11485,0.00488992,0.0144096,1959,1002,20.192,-3.88755
742,22,20.1832,3.93872,-0.00427462,0.00193501,0.00220538,0.00263855,-0.00497816,1.26199,0.00446613,0.0157482,1966,1002,20.1832,-3.93874
749,22,20.1971,3.99915,-0.00467927,0.00196015,0.00106334,0.0021263,-0.00484542,1.4158,0.00412591,0.0122688,1973,1002,20.1972,-3.99916
756,22,20.1909,4.05774,-0.00497217,0.00256539,-0.000686594,0.00262742,-0.0050342,-1.48069,0.0044956,0.0160697,1980,1002,20.1909,-4.05775
763,22,20.1405,4.11731,-0.00538522,0.00370622,-0.0032004,0.00471982,-0.00639883,-1.26408,0.00644371,0.0178324,1987,1002,20.1404,-4.11729
770,22,20.1317,4.1134,-0.00605376,0.00480541,-0.00622695,0.0076375,-0.00888585,-1.14395,0.00954883,0.0116958,1994,1002,20.1317,-4.11338
777,22,20.1039,4.18866,-0.00708339,0.00635899,-0.00996849,0.0116605,-0.0123849,-1.08201,0.0138847,0.018663,2001,1002,20.1039,-4.18864
784,22,20.1389,3.87732,-0.00851607,0.00821476,-0.014472,0.0165652,-0.0168665,-1.04746,0.019302,0.0404314,2008,1002,20.139,-3.87732
791,22,20.0844,3.25751,-0.0102333,0.0105444,-0.0203518,0.0230056,-0.0226945,-1.02139,0.0263851,0.0475892,2015,1002,20.0843,-3.25753
798,22,20.1516,2.82507,0,0,0,0,0,0,0,-1,2022,1002,20.1517,-2.82508
805,22,18.2729,3.31531,-0.0136414,0.0177827,-0.0380299,0.0432185,-0.0390772,-0.981294,0.0475335,0.0474479,2029,1002,18.2729,-3.31533
812,22,18.0107,2.93073,-0.0150506,0.0236676,-0.0506616,0.0585429,-0.0499259,-0.9679,0.0626903,0.0440582,2036,1002,18.0107,-2.93071
-700,15,0,0,0,0,0,0,0,0,0,-1,524,1009,0,0
-693,15,-13.6563,-1.30896,0.0359699,-0.0184132,-0.00347774,0.0361914,-0.0186347,-0.0636037,0.0321903,0.0460051,531,1009,-13.6563,1.30896
-686,15,-13.6066,-0.905334,0.0294171,-0.0145128,0.0024175,0.0295497,-0.0146454,0.0548102,0.0259952,0.0446379,538,1009,-13.6065,0.905347
-679,15,-13.488,-0.458862,0.0232336,-0.0107828,0.00586105,0.0242151,-0.0117644,0.165929,0.0211833,0.0468569,545,1009,-13.488,0.458859
-672,15,-13.3292,-0.159302,0.0177781,-0.00751976,0.0076713,0.0199226,-0.00966421,0.272585,0.0174208,0.0482717,552,1009,-13.3292,0.159297
-665,15,-13.0313,0.346924,0.0131122,-0.00484117,0.0083188,0.0163741,-0.00810308,0.373689,0.0143983,0.0455006,559,1009,-13.0313,-0.346925
-658,15,-13.0761,0.825806,0.00921086,-0.00277463,0.00814309,0.0133287,-0.00689242,0.468181,0.0118701,0.0421779,566,1009,-13.0761,-0.825823
-651,15,-13.12,1.59833,0.00609155,-0.00129764,0.00736376,0.0106356,-0.00584167,0.552884,0.00964642,0.0352048,573,1009,-13.12,-1.59831
-644,15,-13.2272,1.69019,0.0037228,-0.000337295,0.00600749,0.00803397,-0.00464846,0.622462,0.00740866,0.0194892,580,1009,-13.2273,-1.69021
-637,15,-13.2422,1.71692,0.00183156,0.000472072,0.00443424,0.00563786,-0.00333422,0.709343,0.00523664,0.0153867,587,1009,-13.2422,-1.71695
-630,15,-13.2549,1.67047,-0.000114708,0.000827511,0.00284973,0.00324481,-0.00253201,0.867316,0.0033437,0.0110104,594,1009,-13.255,-1.67048
-623,15,-13.2684,1.63147,-0.00102298,0.00168224,0.00100275,0.00201339,-0.00135413,1.25183,0.00195662,0.00821616,601,1009,-13.2684,-1.63147
-616,15,-13.3177,1.59705,-0.00110047,0.0020725,-0.0010729,0.00240123,-0.00142919,-1.27348,0.00223511,0.0130796,608,1009,-13.3178,-1.59705
-609,15,-13.3085,1.5777,-0.00104659,0.000620469,-0.00273247,0.00264371,-0.00306983,-0.933438,0.00330177,0.0208447,615,1009,-13.3084,-1.57772
-602,15,-13.3051,1.54681,-0.00097824,0.0010928,-0.00400235,0.00419141,-0.00407686,-0.911986,0.00477384,0.0208356,622,1009,-13.3051,-1.54679
-595,15,-13.2813,1.31189,-0.00107239,0.00114394,-0.00455525,0.00472388,-0.00465232,-0.904717,0.00541341,0.0233474,629,1009,-13.2813,-1.31188
-588,15,-13.2684,1.0274,-0.00110451,0.00110074,-0.00459401,0.0047226,-0.00472637,-0.903177,0.00545536,0.0283687,636,1009,-13.2685,-1.0274
-581,15,-13.2982,0.798462,-0.00106446,0.00104974,-0.00432746,0.00444734,-0.00446206,-0.905191,0.00514384,0.0364612,643,1009,-13.2982,-0.798474
-574,15,-13.2814,0.814575,-0.00117254,0.0011188,-0.00386022,0.00399977,-0.00405351,-0.929652,0.0046496,0.0330856,650,1009,-13.2814,-0.814578
-567,15,-13.2521,0.700989,-0.00137158,0.00117501,-0.00299275,0.00315407,-0.00335064,-0.986528,0.00375607,0.0335646,657,1009,-13.2521,-0.701004
-560,15,-13.1718,0.765869,-0.00156099,0.00118852,-0.00183446,0.00210619,-0.00247866,-1.10696,0.00264997,0.0386213,664,1009,-13.1718,-0.765888
-553,15,-13.0951,1.03314,0,0,0,0,0,0,0,-1,671,1009,-13.0951,-1.03314
-546,15,-13.1855,0.895203,-0.00181938,0.000859477,0.000998147,0.00119049,-0.00215039,1.25058,0.00195521,0.0405914,678,1009,-13.1856,-0.895179
-539,15,-13.405,0.949646,-0.00169783,0.000425969,0.00214096,0.00175391,-0.00302577,1.01562,0.00279193,0.0420092,685,1009,-13.405,-0.949644
-532,15,-13.5606,1.1438,-0.00154653,0.000213755,0.00217179,0.00167697,-0.00300974,0.977915,0.0027421,0.043919,692,1009,-13.5606,-1.1438
-525,15,0,0,0,0,0,0,0,0,0,-1,699,1009,0,0
-518,15,0,0,0,0,0,0,0,0,0,-1,706,1009,0,0
-511,15,0,0,0,0,0,0,0,0,0,-1,713,1009,0,0
-504,15,0,0,0,0,0,0,0,0,0,-1,720,1009,0,0
-497,15,0,0,0,0,0,0,0,0,0,-1,727,1009,0,0
-490,15,0,0,0,0,0,0,0,0,0,-1,734,1009,0,0
-483,15,0,0,0,0,0,0,0,0,0,-1,741,1009,0,0
-476,15,0,0,0,0,0,0,0,0,0,-1,748,1009,0,0
-469,15,0,0,0,0,0,0,0,0,0,-1,755,1009,0,0
-462,15,0,0,0,0,0,0,0,0,0,-1,762,1009,0,0
-455,15,0,0,0,0,0,0,0,0,0,-1,769,1009,0,0
-448,15,0,0,0,0,0,0,0,0,0,-1,776,1009,0,0
-441,15,0,0,0,0,0,0,0,0,0,-1,783,1009,0,0
-434,15,0,0,0,0,0,0,0,0,0,-1,790,1009,0,0
-427,15,0,0,0,0,0,0,0,0,0,-1,797,1009,0,0
-420,15,0,0,0,0,0,0,0,0,0,-1,804,1009,0,0
-413,15,0,0,0,0,0,0,0,0,0,-1,811,1009,0,0
-406,15,0,0,0,0,0,0,0,0,0,-1,818,1009,0,0
-399,15,0,0,0,0,0,0,0,0,0,-1,825,1009,0,0
-392,15,0,0,0,0,0,0,0,0,0,-1,832,1009,0,0
-385,15,0,0,0,0,0,0,0,0,0,-1,839,1009,0,0
-378,15,0,0,0,0,0,0,0,0,0,-1,846,1009,0,0
-371,15,0,0,0,0,0,0,0,0,0,-1,853,1009,0,0
-364,15,0,0,0,0,0,0,0,0,0,-1,860,1009,0,0
-357,15,0,0,0,0,0,0,0,0,0,-1,867,1009,0,0
-350,15,0,0,0,0,0,0,0,0,0,-1,874,1009,0,0
-343,15,0,0,0,0,0,0,0,0,0,-1,881,1009,0,0
-336,15,0,0,0,0,0,0,0,0,0,-1,888,1009,0,0
-329,15,0,0,0,0,0,0,0,0,0,-1,895,1009,0,0
-322,15,0,0,0,0,0,0,0,0,0,-1,902,1009,0,0
-315,15,0,0,0,0,0,0,0,0,0,-1,909,1009,0,0
-308,15,0,0,0,0,0,0,0,0,0,-1,916,1009,0,0
-301,15,0,0,0,0,0,0,0,0,0,-1,923,1009,0,0
-294,15,0,0,0,0,0,0,0,0,0,-1,930,1009,0,0
-287,15,0,0,0,0,0,0,0,0,0,-1,937,1009,0,0
-280,15,0,0,0,0,0,0,0,0,0,-1,944,1009,0,0
-273,15,0,0,0,0,0,0,0,0,0,-1,951,1009,0,0
-266,15,0,0,0,0,0,0,0,0,0,-1,958,1009,0,0
-259,15,0,0,0,0,0,0,0,0,0,-1,965,1009,0,0
-252,15,0,0,0,0,0,0,0,0,0,-1,972,1009,0,0
-245,15,0,0,0,0,0,0,0,0,0,-1,979,1009,0,0
-238,15,0,0,0,0,0,0,0,0,0,-1,986,1009,0,0
-231,15,0,0,0,0,0,0,0,0,0,-1,993,1009,0,0
-224,15,0,0,0,0,0,0,0,0,0,-1,1000,1009,0,0
-217,15,0,0,0,0,0,0,0,0,0,-1,1007,1009,0,0
-210,15,0,0,0,0,0,0,0,0,0,-1,1014,1009,0,0
-203,15,0,0,0,0,0,0,0,0,0,-1,1021,1009,0,0
-196,15,0,0,0,0,0,0,0,0,0,-1,1028,1009,0,0
-189,15,0,0,0,0,0,0,0,0,0,-1,1035,1009,0,0
-182,15,0,0,0,0,0,0,0,0,0,-1,1042,1009,0,0
-175,15,0,0,0,0,0,0,0,0,0,-1,1049,1009,0,0
-168,15,0,0,0,0,0,0,0,0,0,-1,1056,1009,0,0
-161,15,0,0,0,0,0,0,0,0,0,-1,1063,1009,0,0
-154,15,0,0,0,0,0,0,0,0,0,-1,1070,1009,0,0
-147,15,0,0,0,0,0,0,0,0,0,-1,1077,1009,0,0
-140,15,0,0,0,0,0,0,0,0,0,-1,1084,1009,0,0
-133,15,0,0,0,0,0,0,0,0,0,-1,1091,1009,0,0
-126,15,0,0,0,0,0,0,0,0,0,-1,1098,1009,0,0
-119,15,0,0,0,0,0,0,0,0,0,-1,1105,1009,0,0
-112,15,0,0,0,0,0,0,0,0,0,-1,1112,1009,0,0
-105,15,0,0,0,0,0,0,0,0,0,-1,1119,1009,0,0
-98,15,0,0,0,0,0,0,0,0,0,-1,1126,1009,0,0
-91,15,0,0,0,0,0,0,0,0,0,-1,1133,1009,0,0
-84,15,0,0,0,0,0,0,0,0,0,-1,1140,1009,0,0
-77,15,0,0,0,0,0,0,0,0,0,-1,1147,1009,0,0
-70,15,0,0,0,0,0,0,0,0,0,-1,1154,1009,0,0
-63,15,0,0,0,0,0,0,0,0,0,-1,1161,1009,0,0
-56,15,0,0,0,0,0,0,0,0,0,-1,1168,1009,0,0
-49,15,0,0,0,0,0,0,0,0,0,-1,1175,1009,0,0
-42,15,0,0,0,0,0,0,0,0,0,-1,1182,1009,0,0
-35,15,0,0,0,0,0,0,0,0,0,-1,1189,1009,0,0
-28,15,0,0,0,0,0,0,0,0,0,-1,1196,1009,0,0
-21,15,0,0,0,0,0,0,0,0,0,-1,1203,1009,0,0
-14,15,0,0,0,0,0,0,0,0,0,-1,1210,1009,0,0
-7,15,0,0,0,0,0,0,0,0,0,-1,1217,1009,0,0
0,15,0,0,0,0,0,0,0,0,0,-1,1224,1009,0,0
7,15,0,0,0,0,0,0,0,0,0,-1,1231,1009,0,0
14,15,0,0,0,0,0,0,0,0,0,-1,1238,1009,0,0
21,15,0,0,0,0,0,0,0,0,0,-1,1245,1009,0,0
28,15,0,0,0,0,0,0,0,0,0,-1,1252,1009,0,0
35,15,0,0,0,0,0,0,0,0,0,-1,1259,1009,0,0
42,15,0,0,0,0,0,0,0,0,0,-1,1266,1009,0,0
49,15,0,0,0,0,0,0,0,0,0,-1,1273,1009,0,0
56,15,0,0,0,0,0,0,0,0,0,-1,1280,1009,0,0
63,15,0,0,0,0,0,0,0,0,0,-1,1287,1009,0,0
70,15,0,0,0,0,0,0,0,0,0,-1,1294,1009,0,0
77,15,0,0,0,0,0,0,0,0,0,-1,1301,1009,0,0
84,15,0,0,0,0,0,0,0,0,0,-1,1308,1009,0,0
91,15,0,0,0,0,0,0,0,0,0,-1,1315,1009,0,0
98,15,0,0,0,0,0,0,0,0,0,-1,1322,1009,0,0
105,15,0,0,0,0,0,0,0,0,0,-1,1329,1009,0,0
112,15,0,0,0,0,0,0,0,0,0,-1,1336,1009,0,0
119,15,0,0,0,0,0,0,0,0,0,-1,1343,1009,0,0
126,15,0,0,0,0,0,0,0,0,0,-1,1350,1009,0,0
133,15,0,0,0,0,0,0,0,0,0,-1,1357,1009,0,0
140,15,0,0,0,0,0,0,0,0,0,-1,1364,1009,0,0
147,15,0,0,0,0,0,0,0,0,0,-1,1371,1009,0,0
154,15,0,0,0,0,0,0,0,0,0,-1,1378,1009,0,0
161,15,0,0,0,0,0,0,0,0,0,-1,1385,1009,0,0
168,15,0,0,0,0,0,0,0,0,0,-1,1392,1009,0,0
175,15,0,0,0,0,0,0,0,0,0,-1,1399,1009,0,0
182,15,0,0,0,0,0,0,0,0,0,-1,1406,1009,0,0
189,15,0,0,0,0,0,0,0,0,0,-1,1413,1009,0,0
196,15,0,0,0,0,0,0,0,0,0,-1,1420,1009,0,0
203,15,0,0,0,0,0,0,0,0,0,-1,1427,1009,0,0
210,15,0,0,0,0,0,0,0,0,0,-1,1434,1009,0,0
217,15,0,0,0,0,0,0,0,0,0,-1,1441,1009,0,0
224,15,0,0,0,0,0,0,0,0,0,-1,1448,1009,0,0
231,15,0,0,0,0,0,0,0,0,0,-1,1455,1009,0,0
238,15,0,0,0,0,0,0,0,0,0,-1,1462,1009,0,0
245,15,0,0,0,0,0,0,0,0,0,-1,1469,1009,0,0
252,15,0,0,0,0,0,0,0,0,0,-1,1476,1009,0,0
259,15,0,0,0,0,0,0,0,0,0,-1,1483,1009,0,0
266,15,0,0,0,0,0,0,0,0,0,-1,1490,1009,0,0
273,15,0,0,0,0,0,0,0,0,0,-1,1497,1009,0,0
280,15,0,0,0,0,0,0,0,0,0,-1,1504,1009,0,0
287,15,0,0,0,0,0,0,0,0,0,-1,1511,1009,0,0
294,15,0,0,0,0,0,0,0,0,0,-1,1518,1009,0,0
301,15,0,0,0,0,0,0,0,0,0,-1,1525,1009,0,0
308,15,0,0,0,0,0,0,0,0,0,-1,1532,1009,0,0
315,15,0,0,0,0,0,0,0,0,0,-1,1539,1009,0,0
322,15,0,0,0,0,0,0,0,0,0,-1,1546,1009,0,0
329,15,0,0,0,0,0,0,0,0,0,-1,1553,1009,0,0
336,15,0,0,0,0,0,0,0,0,0,-1,1560,1009,0,0
343,15,0,0,0,0,0,0,0,0,0,-1,1567,1009,0,0
350,15,0,0,0,0,0,0,0,0,0,-1,1574,1009,0,0
357,15,0,0,0,0,0,0,0,0,0,-1,1581,1009,0,0
364,15,0,0,0,0,0,0,0,0,0,-1,1588,1009,0,0
371,15,0,0,0,0,0,0,0,0,0,-1,1595,1009,0,0
378,15,0,0,0,0,0,0,0,0,0,-1,1602,1009,0,0
385,15,0,0,0,0,0,0,0,0,0,-1,1609,1009,0,0
392,15,0,0,0,0,0,0,0,0,0,-1,1616,1009,0,0
399,15,0,0,0,0,0,0,0,0,0,-1,1623,1009,0,0
406,15,0,0,0,0,0,0,0,0,0,-1,1630,1009,0,0
413,15,0,0,0,0,0,0,0,0,0,-1,1637,1009,0,0
420,15,0,0,0,0,0,0,0,0,0,-1,1644,1009,0,0
427,15,0,0,0,0,0,0,0,0,0,-1,1651,1009,0,0
434,15,0,0,0,0,0,0,0,0,0,-1,1658,1009,0,0
441,15,0,0,0,0,0,0,0,0,0,-1,1665,1009,0,0
448,15,0,0,0,0,0,0,0,0,0,-1,1672,1009,0,0
455,15,0,0,0,0,0,0,0,0,0,-1,1679,1009,0,0
462,15,0,0,0,0,0,0,0,0,0,-1,1686,1009,0,0
469,15,0,0,0,0,0,0,0,0,0,-1,1693,1009,0,0
476,15,0,0,0,0,0,0,0,0,0,-1,1700,1009,0,0
483,15,0,0,0,0,0,0,0,0,0,-1,1707,1009,0,0
490,15,0,0,0,0,0,0,0,0,0,-1,1714,1009,0,0
497,15,0,0,0,0,0,0,0,0,0,-1,1721,1009,0,0
504,15,0,0,0,0,0,0,0,0,0,-1,1728,1009,0,0
511,15,0,0,0,0,0,0,0,0,0,-1,1735,1009,0,0
518,15,0,0,0,0,0,0,0,0,0,-1,1742,1009,0,0
525,15,0,0,0,0,0,0,0,0,0,-1,1749,1009,0,0
532,15,0,0,0,0,0,0,0,0,0,-1,1756,1009,0,0
539,15,0,0,0,0,0,0,0,0,0,-1,1763,1009,0,0
546,15,0,0,0,0,0,0,0,0,0,-1,1770,1009,0,0
553,15,0,0,0,0,0,0,0,0,0,-1,1777,1009,0,0
560,15,0,0,0,0,0,0,0,0,0,-1,1784,1009,0,0
567,15,0,0,0,0,0,0,0,0,0,-1,1791,1009,0,0
574,15,0,0,0,0,0,0,0,0,0,-1,1798,1009,0,0
581,15,0,0,0,0,0,0,0,0,0,-1,1805,1009,0,0
588,15,0,0,0,0,0,0,0,0,0,-1,1812,1009,0,0
595,15,0,0,0,0,0,0,0,0,0,-1,1819,1009,0,0
602,15,0,0,0,0,0,0,0,0,0,-1,1826,1009,0,0
609,15,0,0,0,0,0,0,0,0,0,-1,1833,1009,0,0
616,15,0,0,0,0,0,0,0,0,0,-1,1840,1009,0,0
623,15,0,0,0,0,0,0,0,0,0,-1,1847,1009,0,0
630,15,0,0,0,0,0,0,0,0,0,-1,1854,1009,0,0
637,15,0,0,0,0,0,0,0,0,0,-1,1861,1009,0,0
644,15,20.7196,2.5517,0.00354243,-0.0057599,0.000357531,0.00355615,-0.00577362,0.0383592,0.00543702,0.0402263,1868,1009,20.7196,-2.55168
651,15,20.7319,2.55511,0.00190042,-0.00411397,0.00052185,0.00194537,-0.00415891,0.0859113,0.00360072,0.0387851,1875,1009,20.7319,-2.55512
658,15,20.8428,2.43109,0.000901544,-0.00288748,0.00060967,0.000997226,-0.00298316,0.155671,0.00239152,0.038114,1882,1009,20.8428,-2.43106
665,15,20.9021,2.69006,0.000178236,-0.00200601,0.000686356,0.000376004,-0.00220378,0.280542,0.00160923,0.0404957,1889,1009,20.9021,-2.69007
672,15,20.8035,2.74304,-0.000367376,-0.00123003,0.00117754,0.000455345,-0.00205275,0.609839,0.00154285,0.0405927,1896,1009,20.8035,-2.74302
679,15,20.6205,2.60968,-0.00103421,-0.000642232,0.00203808,0.00120926,-0.0028857,0.833332,0.00242937,0.0381292,1903,1009,20.6205,-2.60969
686,15,20.6978,2.4823,-0.00164904,-0.000260801,0.00288001,0.00200756,-0.0039174,0.90365,0.00347951,0.0409435,1910,1009,20.6978,-2.4823
693,15,20.7223,2.54401,-0.00212539,-1.88655e-05,0.00360512,0.0026837,-0.00482796,0.927521,0.00439536,0.0383478,1917,1009,20.7223,-2.54401
700,15,20.7977,2.67896,-0.00247013,0.000195102,0.00412644,0.00319877,-0.0054738,0.941585,0.00506421,0.0330295,1924,1009,20.7978,-2.67896
707,15,20.7003,2.79767,-0.00291744,0.00040655,0.00451349,0.00355432,-0.00606521,0.961809,0.00561655,0.0305188,1931,1009,20.7004,-2.79769
714,15,20.692,2.76959,-0.00334431,0.000450076,0.00458014,0.0035104,-0.00640464,0.981751,0.00580518,0.0315018,1938,1009,20.692,-2.76962
721,15,20.8467,2.61841,0,0,0,0,0,0,0,-1,1945,1009,20.8466,-2.61839
728,15,20.2732,3.86639,0,0,0,0,0,0,0,-1,1952,1009,20.2732,-3.86642
735,15,20.2523,3.91327,-0.00357107,0.00112307,0.00390076,0.00332843,-0.00577644,1.05623,0.00531966,0.0160811,1959,1009,20.2523,-3.91327
742,15,20.2385,3.96448,-0.00404351,0.00169507,0.00277467,0.00281723,-0.00516566,1.18648,0.00467493,0.0165884,1966,1009,20.2385,-3.96447
749,15,20.2113,4.00488,-0.00445324,0.00165198,0.00152229,0.0020105,-0.00481176,1.3395,0.004048,0.00988959,1973,1009,20.2114,-4.00488
756,15,20.2349,4.03973,-0.00473435,0.0022502,-0.000391117,0.00227204,-0.00475619,-1.51503,0.00414137,0.0111345,1980,1009,20.2349,-4.03971
763,15,20.2041,4.0708,-0.00511319,0.003391,-0.00309341,0.00439718,-0.00611937,-1.25632,0.00609881,0.012133,1987,1009,20.2041,-4.07081
770,15,20.1935,4.07373,-0.0057403,0.00445829,-0.00636772,0.00751685,-0.00879886,-1.12301,0.00942957,0.0110431,1994,1009,20.1935,-4.07376
777,15,20.1611,4.14764,-0.00670364,0.00595984,-0.0104035,0.0118069,-0.0125507,-1.05876,0.0140651,0.019301,2001,1009,20.1611,-4.14767
784,15,20.0933,4.22766,-0.00816633,0.00779807,-0.0151969,0.0169816,-0.0173498,-1.02722,0.0198216,0.0404358,2008,1009,20.0933,-4.22765
791,15,19.6783,4.39331,-0.0100218,0.0101662,-0.0214461,0.023775,-0.0236306,-1.00535,0.0273697,0.0461756,2015,1009,19.6783,-4.39329
798,15,19.0055,3.63922,0,0,0,0,0,0,0,-1,2022,1009,19.0054,-3.63921
805,15,18.803,2.93549,-0.0139151,0.0178503,-0.0403233,0.0453061,-0.0413709,-0.973009,0.0500602,0.0446711,2029,1009,18.8029,-2.93551
812,15,18.7834,2.5799,-0.0157035,0.0242994,-0.0538677,0.0617592,-0.0531632,-0.963163,0.0664123,0.0462887,2036,1009,18.7833,-2.57987
-700,8,0,0,0,0,0,0,0,0,0,-1,524,1016,0,0
-693,8,-13.3394,-0.510254,0.0343008,-0.0135018,-0.0063214,0.0351226,-0.0143236,-0.12928,0.0293776,0.0454164,531,1016,-13.3394,0.510271
-686,8,-13.2854,-0.29425,0.0274029,-0.0124742,-0.00025098,0.0274045,-0.0124758,-0.00629351,0.0235565,0.0431402,538,1016,-13.2854,0.294239
-679,8,-13.301,-0.270081,0.0212128,-0.0104738,0.00357201,0.0216105,-0.0108715,0.110875,0.0190921,0.0437356,545,1016,-13.301,0.270078
-672,8,-13.3557,-0.183472,0.0159511,-0.00818976,0.00580877,0.0172761,-0.00951475,0.224264,0.0156825,0.0464332,552,1016,-13.3556,0.183447
-665,8,-13.3447,0.364563,0.011587,-0.00598925,0.0068625,0.013949,-0.00835123,0.331487,0.0130096,0.0438506,559,1016,-13.3447,-0.364559
-658,8,-13.2729,1.11969,0.00802503,-0.0040762,0.00703889,0.0112564,-0.00730761,0.430379,0.0107985,0.034388,566,1016,-13.2729,-1.11966
-651,8,-13.1785,1.53491,0.00523305,-0.0025518,0.00654309,0.00895397,-0.00627272,0.517071,0.00883645,0.0194269,573,1016,-13.1785,-1.53493
-644,8,-13.1649,1.6087,0.00315058,-0.00144911,0.00539412,0.00671467,-0.00501321,0.583887,0.00679481,0.0199024,580,1016,-13.1649,-1.60868
-637,8,-13.2134,1.64832,0.00141863,-0.000593636,0.00393284,0.00447199,-0.003647,0.66017,0.00469556,0.0175276,587,1016,-13.2135,-1.6483
-630,8,-13.2788,1.63208,-0.000210059,-0.00015293,0.00234786,0.00216654,-0.00252952,0.791481,0.00271397,0.0133958,594,1016,-13.2788,-1.63208
-623,8,-13.2783,1.61182,-0.000923752,0.000992303,0.000605034,0.00116736,-0.00109881,1.28915,0.00130857,0.0118525,601,1016,-13.2783,-1.6118
-616,8,-13.2827,1.59479,-0.000853355,0.00159239,-0.00133223,0.0021779,-0.00143886,-1.15671,0.00210262,0.0116299,608,1016,-13.2827,-1.59476
-609,8,-13.2919,1.59265,-0.000659015,0.000385734,-0.00296322,0.00287227,-0.00314556,-0.872645,0.00347559,0.0153323,615,1016,-13.2919,-1.59265
-602,8,-13.3008,1.57849,-0.000567864,0.000880848,-0.0042999,0.00451698,-0.00420399,-0.868844,0.00503614,0.0214792,622,1016,-13.3008,-1.57846
-595,8,-13.2419,1.27155,-0.000662107,0.000908214,-0.00482138,0.00500795,-0.00476184,-0.866114,0.00564119,0.027423,629,1016,-13.2419,-1.27155
-588,8,-13.2783,0.867554,0,0,0,0,0,0,0,-1,636,1016,-13.2783,-0.867562
-581,8,-13.2586,0.856628,-0.000663994,0.000854791,-0.00446076,0.00462034,-0.00442954,-0.869709,0.00522534,0.0283483,643,1016,-13.2586,-0.856631
-574,8,-13.1989,0.858765,-0.000800788,0.000974246,-0.00388696,0.00407373,-0.00390027,-0.89764,0.00460416,0.0354572,650,1016,-13.1989,-0.858778
-567,8,-13.1859,0.650208,-0.0010611,0.00110952,-0.00289802,0.00311878,-0.00307037,-0.964565,0.00357334,0.0382622,657,1016,-13.1859,-0.650235
-560,8,-13.2368,0.914246,-0.00134995,0.00122984,-0.00159116,0.00198827,-0.00210838,-1.126,0.00236554,0.0397853,664,1016,-13.2368,-0.914255
-553,8,-13.1256,1.30017,0,0,0,0,0,0,0,-1,671,1016,-13.1256,-1.30014
-546,8,-13.1591,0.991516,-0.00195123,0.00116617,0.0015913,0.00183498,-0.00262004,1.17292,0.00258538,0.0384998,678,1016,-13.1591,-0.991493
-539,8,-13.3905,1.08154,-0.00206598,0.000863841,0.00286227,0.00261429,-0.00381643,1.02192,0.00373434,0.0410818,685,1016,-13.3905,-1.08156
-532,8,-13.339,1.07898,-0.00213595,0.00073936,0.00284696,0.00249107,-0.00388766,1.01921,0.00371206,0.0427545,692,1016,-13.339,-1.07897
-525,8,0,0,0,0,0,0,0,0,0,-1,699,1016,0,0
-518,8,0,0,0,0,0,0,0,0,0,-1,706,1016,0,0
-511,8,0,0,0,0,0,0,0,0,0,-1,713,1016,0,0
-504,8,0,0,0,0,0,0,0,0,0,-1,720,1016,0,0
-497,8,0,0,0,0,0,0,0,0,0,-1,727,1016,0,0
-490,8,0,0,0,0,0,0,0,0,0,-1,734,1016,0,0
-483,8,0,0,0,0,0,0,0,0,0,-1,741,1016,0,0
-476,8,0,0,0,0,0,0,0,0,0,-1,748,1016,0,0
-469,8,0,0,0,0,0,0,0,0,0,-1,755,1016,0,0
-462,8,0,0,0,0,0,0,0,0,0,-1,762,1016,0,0
-455,8,0,0,0,0,0,0,0,0,0,-1,769,1016,0,0
-448,8,0,0,0,0,0,0,0,0,0,-1,776,1016,0,0
-441,8,0,0,0,0,0,0,0,0,0,-1,783,1016,0,0
-434,8,0,0,0,0,0,0,0,0,0,-1,790,1016,0,0
-427,8,0,0,0,0,0,0,0,0,0,-1,797,1016,0,0
-420,8,0,0,0,0,0,0,0,0,0,-1,804,1016,0,0
-413,8,0,0,0,0,0,0,0,0,0,-1,811,1016,0,0
-406,8,0,0,0,0,0,0,0,0,0,-1,818,1016,0,0
-399,8,0,0,0,0,0,0,0,0,0,-1,825,1016,0,0
-392,8,0,0,0,0,0,0,0,0,0,-1,832,1016,0,0
-385,8,0,0,0,0,0,0,0,0,0,-1,839,1016,0,0
-378,8,0,0,0,0,0,0,0,0,0,-1,846,1016,0,0
-371,8,0,0,0,0,0,0,0,0,0,-1,853,1016,0,0
-364,8,0,0,0,0,0,0,0,0,0,-1,860,1016,0,0
-357,8,0,0,0,0,0,0,0,0,0,-1,867,1016,0,0
-350,8,0,0,0,0,0,0,0,0,0,-1,874,1016,0,0
-343,8,0,0,0,0,0,0,0,0,0,-1,881,1016,0,0
-336,8,0,0,0,0,0,0,0,0,0,-1,888,1016,0,0
-329,8,0,0,0,0,0,0,0,0,0,-1,895,1016,0,0
-322,8,0,0,0,0,0,0,0,0,0,-1,902,1016,0,0
-315,8,0,0,0,0,0,0,0,0,0,-1,909,1016,0,0
-308,8,0,0,0,0,0,0,0,0,0,-1,916,1016,0,0
-301,8,0,0,0,0,0,0,0,0,0,-1,923,1016,0,0
-294,8,0,0,0,0,0,0,0,0,0,-1,930,1016,0,0
-287,8,0,0,0,0,0,0,0,0,0,-1,937,1016,0,0
-280,8,0,0,0,0,0,0,0,0,0,-1,944,1016,0,0
-273,8,0,0,0,0,0,0,0,0,0,-1,951,1016,0,0
-266,8,0,0,0,0,0,0,0,0,0,-1,958,1016,0,0
-259,8,0,0,0,0,0,0,0,0,0,-1,965,1016,0,0
-252,8,0,0,0,0,0,0,0,0,0,-1,972,1016,0,0
-245,8,0,0,0,0,0,0,0,0,0,-1,979,1016,0,0
-238,8,0,0,0,0,0,0,0,0,0,-1,986,1016,0,0
-231,8,0,0,0,0,0,0,0,0,0,-1,993,1016,0,0
-224,8,0,0,0,0,0,0,0,0,0,-1,1000,1016,0,0
-217,8,0,0,0,0,0,0,0,0,0,-1,1007,1016,0,0
-210,8,0,0,0,0,0,0,0,0,0,-1,1014,1016,0,0
-203,8,0,0,0,0,0,0,0,0,0,-1,1021,1016,0,0
-196,8,0,0,0,0,0,0,0,0,0,-1,1028,1016,0,0
-189,8,0,0,0,0,0,0,0,0,0,-1,1035,1016,0,0
-182,8,0,0,0,0,0,0,0,0,0,-1,1042,1016,0,0
-175,8,0,0,0,0,0,0,0,0,0,-1,1049,1016,0,0
-168,8,0,0,0,0,0,0,0,0,0,-1,1056,1016,0,0
-161,8,0,0,0,0,0,0,0,0,0,-1,1063,1016,0,0
-154,8,0,0,0,0,0,0,0,0,0,-1,1070,1016,0,0
-147,8,0,0,0,0,0,0,0,0,0,-1,1077,1016,0,0
-140,8,0,0,0,0,0,0,0,0,0,-1,1084,1016,0,0
-133,8,0,0,0,0,0,0,0,0,0,-1,1091,1016,0,0
-126,8,0,0,0,0,0,0,0,0,0,-1,1098,1016,0,0
-119,8,0,0,0,0,0,0,0,0,0,-1,1105,1016,0,0
-112,8,0,0,0,0,0,0,0,0,0,-1,1112,1016,0,0
-105,8,0,0,0,0,0,0,0,0,0,-1,1119,1016,0,0
-98,8,0,0,0,0,0,0,0,0,0,-1,1126,1016,0,0
-91,8,0,0,0,0,0,0,0,0,0,-1,1133,1016,0,0
-84,8,0,0,0,0,0,0,0,0,0,-1,1140,1016,0,0
-77,8,0,0,0,0,0,0,0,0,0,-1,1147,1016,0,0
-70,8,0,0,0,0,0,0,0,0,0,-1,1154,1016,0,0
-63,8,0,0,0,0,0,0,0,0,0,-1,1161,1016,0,0
-56,8,0,0,0,0,0,0,0,0,0,-1,1168,1016,0,0
-49,8,0,0,0,0,0,0,0,0,0,-1,1175,1016,0,0
-42,8,0,0,0,0,0,0,0,0,0,-1,1182,1016,0,0
-35,8,0,0,0,0,0,0,0,0,0,-1,1189,1016,0,0
-28,8,0,0,0,0,0,0,0,0,0,-1,1196,1016,0,0
-21,8,0,0,0,0,0,0,0,0,0,-1,1203,1016,0,0
-14,8,0,0,0,0,0,0,0,0,0,-1,1210,1016,0,0
-7,8,0,0,0,0,0,0,0,0,0,-1,1217,1016,0,0
0,8,0,0,0,0,0,0,0,0,0,-1,1224,1016,0,0
7,8,0,0,0,0,0,0,0,0,0,-1,1231,1016,0,0
14,8,0,0,0,0,0,0,0,0,0,-1,1238,1016,0,0
21,8,0,0,0,0,0,0,0,0,0,-1,1245,1016,0,0
28,8,0,0,0,0,0,0,0,0,0,-1,1252,1016,0,0
35,8,0,0,0,0,0,0,0,0,0,-1,1259,1016,0,0
42,8,0,0,0,0,0,0,0,0,0,-1,1266,1016,0,0
49,8,0,0,0,0,0,0,0,0,0,-1,1273,1016,0,0
56,8,0,0,0,0,0,0,0,0,0,-1,1280,1016,0,0
63,8,0,0,0,0,0,0,0,0,0,-1,1287,1016,0,0
70,8,0,0,0,0,0,0,0,0,0,-1,1294,1016,0,0
77,8,0,0,0,0,0,0,0,0,0,-1,1301,1016,0,0
84,8,0,0,0,0,0,0,0,0,0,-1,1308,1016,0,0
91,8,0,0,0,0,0,0,0,0,0,-1,1315,1016,0,0
98,8,0,0,0,0,0,0,0,0,0,-1,1322,1016,0,0
105,8,0,0,0,0,0,0,0,0,0,-1,1329,1016,0,0
112,8,0,0,0,0,0,0,0,0,0,-1,1336,1016,0,0
119,8,0,0,0,0,0,0,0,0,0,-1,1343,1016,0,0
126,8,0,0,0,0,0,0,0,0,0,-1,1350,1016,0,0
133,8,0,0,0,0,0,0,0,0,0,-1,1357,1016,0,0
140,8,0,0,0,0,0,0,0,0,0,-1,1364,1016,0,0
147,8,0,0,0,0,0,0,0,0,0,-1,1371,1016,0,0
154,8,0,0,0,0,0,0,0,0,0,-1,1378,1016,0,0
161,8,0,0,0,0,0,0,0,0,0,-1,1385,1016,0,0
168,8,0,0,0,0,0,0,0,0,0,-1,1392,1016,0,0
175,8,0,0,0,0,0,0,0,0,0,-1,1399,1016,0,0
182,8,0,0,0,0,0,0,0,0,0,-1,1406,1016,0,0
189,8,0,0,0,0,0,0,0,0,0,-1,1413,1016,0,0
196,8,0,0,0,0,0,0,0,0,0,-1,1420,1016,0,0
203,8,0,0,0,0,0,0,0,0,0,-1,1427,1016,0,0
210,8,0,0,0,0,0,0,0,0,0,-1,1434,1016,0,0
217,8,0,0,0,0,0,0,0,0,0,-1,1441,1016,0,0
224,8,0,0,0,0,0,0,0,0,0,-1,1448,1016,0,0
231,8,0,0,0,0,0,0,0,0,0,-1,1455,1016,0,0
238,8,0,0,0,0,0,0,0,0,0,-1,1462,1016,0,0
245,8,0,0,0,0,0,0,0,0,0,-1,1469,1016,0,0
252,8,0,0,0,0,0,0,0,0,0,-1,1476,1016,0,0
259,8,0,0,0,0,0,0,0,0,0,-1,1483,1016,0,0
266,8,0,0,0,0,0,0,0,0,0,-1,1490,1016,0,0
273,8,0,0,0,0,0,0,0,0,0,-1,1497,1016,0,0
280,8,0,0,0,0,0,0,0,0,0,-1,1504,1016,0,0
287,8,0,0,0,0,0,0,0,0,0,-1,1511,1016,0,0
294,8,0,0,0,0,0,0,0,0,0,-1,1518,1016,0,0
301,8,0,0,0,0,0,0,0,0,0,-1,1525,1016,0,0
308,8,0,0,0,0,0,0,0,0,0,-1,1532,1016,0,0
315,8,0,0,0,0,0,0,0,0,0,-1,1539,1016,0,0
322,8,0,0,0,0,0,0,0,0,0,-1,1546,1016,0,0
329,8,0,0,0,0,0,0,0,0,0,-1,1553,1016,0,0
336,8,0,0,0,0,0,0,0,0,0,-1,1560,1016,0,0
343,8,0,0,0,0,0,0,0,0,0,-1,1567,1016,0,0
350,8,0,0,0,0,0,0,0,0,0,-1,1574,1016,0,0
357,8,0,0,0,0,0,0,0,0,0,-1,1581,1016,0,0
364,8,0,0,0,0,0,0,0,0,0,-1,1588,1016,0,0
371,8,0,0,0,0,0,0,0,0,0,-1,1595,1016,0,0
378,8,0,0,0,0,0,0,0,0,0,-1,1602,1016,0,0
385,8,0,0,0,0,0,0,0,0,0,-1,1609,1016,0,0
392,8,0,0,0,0,0,0,0,0,0,-1,1616,1016,0,0
399,8,0,0,0,0,0,0,0,0,0,-1,1623,1016,0,0
406,8,0,0,0,0,0,0,0,0,0,-1,1630,1016,0,0
413,8,0,0,0,0,0,0,0,0,0,-1,1637,1016,0,0
420,8,0,0,0,0,0,0,0,0,0,-1,1644,1016,0,0
427,8,0,0,0,0,0,0,0,0,0,-1,1651,1016,0,0
434,8,0,0,0,0,0,0,0,0,0,-1,1658,1016,0,0
441,8,0,0,0,0,0,0,0,0,0,-1,1665,1016,0,0
448,8,0,0,0,0,0,0,0,0,0,-1,1672,1016,0,0
455,8,0,0,0,0,0,0,0,0,0,-1,1679,1016,0,0
462,8,0,0,0,0,0,0,0,0,0,-1,1686,1016,0,0
469,8,0,0,0,0,0,0,0,0,0,-1,1693,1016,0,0
476,8,0,0,0,0,0,0,0,0,0,-1,1700,1016,0,0
483,8,0,0,0,0,0,0,0,0,0,-1,1707,1016,0,0
490,8,0,0,0,0,0,0,0,0,0,-1,1714,1016,0,0
497,8,0,0,0,0,0,0,0,0,0,-1,1721,1016,0,0
504,8,0,0,0,0,0,0,0,0,0,-1,1728,1016,0,0
511,8,0,0,0,0,0,0,0,0,0,-1,1735,1016,0,0
518,8,0,0,0,0,0,0,0,0,0,-1,1742,1016,0,0
525,8,0,0,0,0,0,0,0,0,0,-1,1749,1016,0,0
532,8,0,0,0,0,0,0,0,0,0,-1,1756,1016,0,0
539,8,0,0,0,0,0,0,0,0,0,-1,1763,1016,0,0
546,8,0,0,0,0,0,0,0,0,0,-1,1770,1016,0,0
553,8,0,0,0,0,0,0,0,0,0,-1,1777,1016,0,0
560,8,0,0,0,0,0,0,0,0,0,-1,1784,1016,0,0
567,8,0,0,0,0,0,0,0,0,0,-1,1791,1016,0,0
574,8,0,0,0,0,0,0,0,0,0,-1,1798,1016,0,0
581,8,0,0,0,0,0,0,0,0,0,-1,1805,1016,0,0
588,8,0,0,0,0,0,0,0,0,0,-1,1812,1016,0,0
595,8,0,0,0,0,0,0,0,0,0,-1,1819,1016,0,0
602,8,0,0,0,0,0,0,0,0,0,-1,1826,1016,0,0
609,8,0,0,0,0,0,0,0,0,0,-1,1833,1016,0,0
616,8,0,0,0,0,0,0,0,0,0,-1,1840,1016,0,0
623,8,0,0,0,0,0,0,0,0,0,-1,1847,1016,0,0
630,8,0,0,0,0,0,0,0,0,0,-1,1854,1016,0,0
637,8,0,0,0,0,0,0,0,0,0,-1,1861,1016,0,0
644,8,20.7032,2.66449,0.00431249,-0.00539617,-1.56505e-05,0.00431252,-0.00539619,-0.001612,0.00561695,0.0412314,1868,1016,20.7033,-2.66452
651,8,20.6808,2.53558,0.00233563,-0.00376356,0.000332118,0.00235366,-0.00378159,0.0542392,0.00357402,0.0370362,1875,1016,20.6808,-2.53559
658,8,20.7458,2.37244,0.00114075,-0.00249392,0.000547777,0.00122151,-0.00257468,0.146379,0.00223766,0.037244,1882,1016,20.7459,-2.37245
665,8,20.7417,2.58527,0.000293104,-0.00160047,0.00067089,0.000506704,-0.00181407,0.308236,0.00140899,0.0403397,1889,1016,20.7417,-2.58524
672,8,20.7114,2.74689,-0.000298304,-0.000859197,0.00119252,0.000646305,-0.00180381,0.669911,0.00146625,0.0419784,1896,1016,20.7114,-2.74691
679,8,20.5863,2.72192,-0.00100819,-0.000339185,0.00213875,0.00149107,-0.00283844,0.86297,0.00253967,0.0369927,1903,1016,20.5863,-2.72192
686,8,20.6499,2.5127,-0.0016804,-3.40502e-05,0.00308078,0.00233163,-0.00404609,0.915947,0.00372626,0.0380955,1910,1016,20.6499,-2.51272
693,8,20.7532,2.54102,-0.00219886,0.000126848,0.00390477,0.00303823,-0.00511025,0.930119,0.00475496,0.036781,1917,1016,20.7532,-2.54102
700,8,20.84,2.6767,-0.00258174,0.000266815,0.00452261,0.00358412,-0.00589904,0.937944,0.00552922,0.0313309,1924,1016,20.84,-2.67669
707,8,20.7324,2.8147,-0.00305828,0.000403646,0.00498711,0.00395165,-0.00660628,0.952437,0.00615951,0.025858,1931,1016,20.7324,-2.81471
714,8,20.7115,2.77582,-0.00349644,0.000399372,0.0051083,0.00391855,-0.00701562,0.967549,0.0063967,0.0271123,1938,1016,20.7116,-2.77584
721,8,20.8561,2.61658,0,0,0,0,0,0,0,-1,1945,1016,20.856,-2.61656
728,8,20.2859,3.93164,0,0,0,0,0,0,0,-1,1952,1016,20.2859,-3.93166
735,8,20.2418,3.92493,-0.0035985,0.000947848,0.00439943,0.00362667,-0.00627733,1.02386,0.00578593,0.016824,1959,1016,20.2418,-3.92493
742,8,20.2327,3.9317,-0.00396776,0.00145591,0.00327705,0.00299767,-0.00550952,1.13105,0.00498249,0.0144662,1966,1016,20.2326,-3.93169
749,8,20.2266,3.98334,-0.00424791,0.00134011,0.00193592,0.00194526,-0.00485306,1.26783,0.00404292,0.0104747,1973,1016,20.2266,-3.98333
756,8,20.241,4.01166,-0.0043479,0.00195628,-0.000128335,0.0019589,-0.00435051,-1.55045,0.00372895,0.0123606,1980,1016,20.241,-4.01168
763,8,20.2633,4.02063,-0.0044979,0.00308383,-0.0029512,0.00409715,-0.00551123,-1.24005,0.00556739,0.0137501,1987,1016,20.2633,-4.02066
770,8,20.2604,4.01685,-0.00484893,0.00413787,-0.00637346,0.00744266,-0.00815371,-1.09244,0.00900768,0.0145177,1994,1016,20.2604,-4.01683
777,8,20.2162,4.08105,-0.00549344,0.0055951,-0.0105863,0.0120011,-0.0118994,-1.02662,0.013799,0.0183536,2001,1016,20.2162,-4.08103
784,8,20.1519,4.14771,-0.00668163,0.00741036,-0.0155556,0.0174413,-0.0167126,-0.998053,0.0197203,0.0362786,2008,1016,20.1518,-4.1477
791,8,19.9391,3.96411,-0.00830557,0.00978524,-0.0220483,0.0245715,-0.0230918,-0.980055,0.0275229,0.0440957,2015,1016,19.9391,-3.96412
798,8,19.5001,3.32343,0,0,0,0,0,0,0,-1,2022,1016,19.5001,-3.32343
805,8,19.3442,2.67603,-0.0117436,0.0176878,-0.0417714,0.0472598,-0.0413157,-0.954755,0.0511775,0.0467019,2029,1016,19.3442,-2.67601
812,8,19.2632,2.2923,-0.0133645,0.0244097,-0.0559542,0.0645785,-0.0535333,-0.948166,0.0682912,0.0473493,2036,1016,19.2631,-2.2923
-700,1,0,0,0,0,0,0,0,0,0,-1,524,1023,0,0
-693,1,-12.9959,0.175293,0,0,0,0,0,0,0,-1,531,1023,-12.9959,-0.175301
-686,1,-12.7051,-0.408325,0,0,0,0,0,0,0,-1,538,1023,-12.7052,0.408333
-679,1,-13.1818,-0.0304565,0.0209797,-0.00955454,-8.25216e-05,0.0209799,-0.00955476,-0.00270256,0.0180359,0.0474098,545,1023,-13.1817,0.0304627
-672,1,-13.4174,0.112915,0.0154781,-0.00841549,0.00271105,0.0157819,-0.00871924,0.111574,0.0143403,0.0462624,552,1023,-13.4174,-0.112902
-665,1,-13.4124,0.77655,0.011044,-0.00682933,0.00436022,0.0120509,-0.00783628,0.226961,0.0115675,0.0437103,559,1023,-13.4124,-0.776522
-658,1,-13.2795,1.44312,0.00752689,-0.00516349,0.00509414,0.00931876,-0.00695536,0.338233,0.00942883,0.031628,566,1023,-13.2795,-1.4431
-651,1,-13.2348,1.61035,0.00483824,-0.0036524,0.0050812,0.0072142,-0.00602836,0.437392,0.00765581,0.0155661,573,1023,-13.2348,-1.61036
-644,1,-13.1612,1.67584,0.00287661,-0.00245024,0.00432958,0.0052964,-0.00487003,0.509648,0.00587131,0.0198681,580,1023,-13.1612,-1.67586
-637,1,-13.2352,1.62738,0.0011996,-0.00160306,0.00311162,0.00321088,-0.00361434,0.573824,0.00394284,0.0174623,587,1023,-13.2352,-1.62741
-630,1,-13.3117,1.61237,-0.000309333,-0.00109387,0.0016801,0.00102368,-0.00242688,0.670712,0.00204636,0.0170541,594,1023,-13.3117,-1.61239
-623,1,-13.2935,1.61218,-0.00085881,0.000289707,0.000108069,0.000299787,-0.00086889,1.47779,0.000700896,0.0122974,601,1023,-13.2935,-1.61218
-616,1,-13.288,1.58936,-0.000659358,0.00107151,-0.00163407,0.00205517,-0.00164303,-1.02893,0.00213957,0.014582,608,1023,-13.288,-1.58937
-609,1,-13.2878,1.59186,-0.000349902,0.000113772,-0.00319743,0.00308776,-0.00332389,-0.821588,0.0037026,0.0157975,615,1023,-13.2878,-1.59187
-602,1,-13.2892,1.58655,-0.000288699,0.000567167,-0.00457852,0.00473771,-0.00445924,-0.831995,0.00531068,0.0129846,622,1023,-13.2892,-1.58653
-595,1,-13.2723,1.56061,-0.000408099,0.000550368,-0.00507786,0.00517156,-0.00502929,-0.832447,0.00588965,0.0162393,629,1023,-13.2723,-1.5606
-588,1,-13.2579,1.19733,-0.000448074,0.000510188,-0.00501453,0.00506843,-0.00500632,-0.833028,0.00581669,0.0223691,636,1023,-13.258,-1.19732
-581,1,-13.2148,0.783447,0,0,0,0,0,0,0,-1,643,1023,-13.2149,-0.783431
-574,1,-13.1545,0.83197,-0.000623574,0.000696431,-0.00395183,0.00404299,-0.00397013,-0.868141,0.00462644,0.0353717,650,1023,-13.1545,-0.831971
-567,1,-13.2691,0.677429,-0.000938759,0.000931133,-0.00284515,0.00299102,-0.00299864,-0.944145,0.00345813,0.0405465,657,1023,-13.2691,-0.677442
-560,1,-13.2845,1.00177,-0.00131718,0.00119765,-0.00137325,0.0018022,-0.00192173,-1.15609,0.00215038,0.0406525,664,1023,-13.2845,-1.00179
-553,1,-13.3036,1.302,-0.00176229,0.00143449,0.000382788,0.00147968,-0.00180749,1.45327,0.00190099,0.0414475,671,1023,-13.3036,-1.30203
-546,1,-13.3907,1.37231,-0.00225009,0.00156633,0.00229332,0.00264151,-0.00332527,1.13239,0.00345245,0.0423046,678,1023,-13.3908,-1.37232
-539,1,-13.3874,0.933167,-0.0026302,0.0015229,0.00383861,0.00381064,-0.00491793,1.03334,0.00505294,0.0431451,685,1023,-13.3874,-0.933188
-532,1,-13.3082,0.914246,-0.00299932,0.00161754,0.00397831,0.00390866,-0.00529044,1.04829,0.00533104,0.043632,692,1023,-13.3082,-0.914221
-525,1,0,0,0,0,0,0,0,0,0,-1,699,1023,0,0
-518,1,0,0,0,0,0,0,0,0,0,-1,706,1023,0,0
-511,1,0,0,0,0,0,0,0,0,0,-1,713,1023,0,0
-504,1,0,0,0,0,0,0,0,0,0,-1,720,1023,0,0
-497,1,0,0,0,0,0,0,0,0,0,-1,727,1023,0,0
-490,1,0,0,0,0,0,0,0,0,0,-1,734,1023,0,0
-483,1,0,0,0,0,0,0,0,0,0,-1,741,1023,0,0
-476,1,0,0,0,0,0,0,0,0,0,-1,748,1023,0,0
-469,1,0,0,0,0,0,0,0,0,0,-1,755,1023,0,0
-462,1,0,0,0,0,0,0,0,0,0,-1,762,1023,0,0
-455,1,0,0,0,0,0,0,0,0,0,-1,769,1023,0,0
-448,1,0,0,0,0,0,0,0,0,0,-1,776,1023,0,0
-441,1,0,0,0,0,0,0,0,0,0,-1,783,1023,0,0
-434,1,0,0,0,0,0,0,0,0,0,-1,790,1023,0,0
-427,1,0,0,0,0,0,0,0,0,0,-1,797,1023,0,0
-420,1,0,0,0,0,0,0,0,0,0,-1,804,1023,0,0
-413,1,0,0,0,0,0,0,0,0,0,-1,811,1023,0,0
-406,1,0,0,0,0,0,0,0,0,0,-1,818,1023,0,0
-399,1,0,0,0,0,0,0,0,0,0,-1,825,1023,0,0
-392,1,0,0,0,0,0,0,0,0,0,-1,832,1023,0,0
-385,1,0,0,0,0,0,0,0,0,0,-1,839,1023,0,0
-378,1,0,0,0,0,0,0,0,0,0,-1,846,1023,0,0
-371,1,0,0,0,0,0,0,0,0,0,-1,853,1023,0,0
-364,1,0,0,0,0,0,0,0,0,0,-1,860,1023,0,0
-357,1,0,0,0,0,0,0,0,0,0,-1,867,1023,0,0
-350,1,0,0,0,0,0,0,0,0,0,-1,874,1023,0,0
-343,1,0,0,0,0,0,0,0,0,0,-1,881,1023,0,0
-336,1,0,0,0,0,0,0,0,0,0,-1,888,1023,0,0
-329,1,0,0,0,0,0,0,0,0,0,-1,895,1023,0,0
-322,1,0,0,0,0,0,0,0,0,0,-1,902,1023,0,0
-315,1,0,0,0,0,0,0,0,0,0,-1,909,1023,0,0
-308,1,0,0,0,0,0,0,0,0,0,-1,916,1023,0,0
-301,1,0,0,0,0,0,0,0,0,0,-1,923,1023,0,0
-294,1,0,0,0,0,0,0,0,0,0,-1,930,1023,0,0
-287,1,0,0,0,0,0,0,0,0,0,-1,937,1023,0,0
-280,1,0,0,0,0,0,0,0,0,0,-1,944,1023,0,0
-273,1,0,0,0,0,0,0,0,0,0,-1,951,1023,0,0
-266,1,0,0,0,0,0,0,0,0,0,-1,958,1023,0,0
-259,1,0,0,0,0,0,0,0,0,0,-1,965,1023,0,0
-252,1,0,0,0,0,0,0,0,0,0,-1,972,1023,0,0
-245,1,0,0,0,0,0,0,0,0,0,-1,979,1023,0,0
-238,1,0,0,0,0,0,0,0,0,0,-1,986,1023,0,0
-231,1,0,0,0,0,0,0,0,0,0,-1,993,1023,0,0
-224,1,0,0,0,0,0,0,0,0,0,-1,1000,1023,0,0
-217,1,0,0,0,0,0,0,0,0,0,-1,1007,1023,0,0
-210,1,0,0,0,0,0,0,0,0,0,-1,1014,1023,0,0
-203,1,0,0,0,0,0,0,0,0,0,-1,1021,1023,0,0
-196,1,0,0,0,0,0,0,0,0,0,-1,1028,1023,0,0
-189,1,0,0,0,0,0,0,0,0,0,-1,1035,1023,0,0
-182,1,0,0,0,0,0,0,0,0,0,-1,1042,1023,0,0
-175,1,0,0,0,0,0,0,0,0,0,-1,1049,1023,0,0
-168,1,0,0,0,0,0,0,0,0,0,-1,1056,1023,0,0
-161,1,0,0,0,0,0,0,0,0,0,-1,1063,1023,0,0
-154,1,0,0,0,0,0,0,0,0,0,-1,1070,1023,0,0
-147,1,0,0,0,0,0,0,0,0,0,-1,1077,1023,0,0
-140,1,0,0,0,0,0,0,0,0,0,-1,1084,1023,0,0
-133,1,0,0,0,0,0,0,0,0,0,-1,1091,1023,0,0
-126,1,0,0,0,0,0,0,0,0,0,-1,1098,1023,0,0
-119,1,0,0,0,0,0,0,0,0,0,-1,1105,1023,0,0
-112,1,0,0,0,0,0,0,0,0,0,-1,1112,1023,0,0
-105,1,0,0,0,0,0,0,0,0,0,-1,1119,1023,0,0
-98,1,0,0,0,0,0,0,0,0,0,-1,1126,1023,0,0
-91,1,0,0,0,0,0,0,0,0,0,-1,1133,1023,0,0
-84,1,0,0,0,0,0,0,0,0,0,-1,1140,1023,0,0
-77,1,0,0,0,0,0,0,0,0,0,-1,1147,1023,0,0
-70,1,0,0,0,0,0,0,0,0,0,-1,1154,1023,0,0
-63,1,0,0,0,0,0,0,0,0,0,-1,1161,1023,0,0
-56,1,0,0,0,0,0,0,0,0,0,-1,1168,1023,0,0
-49,1,0,0,0,0,0,0,0,0,0,-1,1175,1023,0,0
-42,1,0,0,0,0,0,0,0,0,0,-1,1182,1023,0,0
-35,1,0,0,0,0,0,0,0,0,0,-1,1189,1023,0,0
-28,1,0,0,0,0,0,0,0,0,0,-1,1196,1023,0,0
-21,1,0,0,0,0,0,0,0,0,0,-1,1203,1023,0,0
-14,1,0,0,0,0,0,0,0,0,0,-1,1210,1023,0,0
-7,1,0,0,0,0,0,0,0,0,0,-1,1217,1023,0,0
0,1,0,0,0,0,0,0,0,0,0,-1,1224,1023,0,0
7,1,0,0,0,0,0,0,0,0,0,-1,1231,1023,0,0
14,1,0,0,0,0,0,0,0,0,0,-1,1238,1023,0,0
21,1,0,0,0,0,0,0,0,0,0,-1,1245,1023,0,0
28,1,0,0,0,0,0,0,0,0,0,-1,1252,1023,0,0
35,1,0,0,0,0,0,0,0,0,0,-1,1259,1023,0,0
42,1,0,0,0,0,0,0,0,0,0,-1,1266,1023,0,0
49,1,0,0,0,0,0,0,0,0,0,-1,1273,1023,0,0
56,1,0,0,0,0,0,0,0,0,0,-1,1280,1023,0,0
63,1,0,0,0,0,0,0,0,0,0,-1,1287,1023,0,0
70,1,0,0,0,0,0,0,0,0,0,-1,1294,1023,0,0
77,1,0,0,0,0,0,0,0,0,0,-1,1301,1023,0,0
84,1,0,0,0,0,0,0,0,0,0,-1,1308,1023,0,0
91,1,0,0,0,0,0,0,0,0,0,-1,1315,1023,0,0
98,1,0,0,0,0,0,0,0,0,0,-1,1322,1023,0,0
105,1,0,0,0,0,0,0,0,0,0,-1,1329,1023,0,0
112,1,0,0,0,0,0,0,0,0,0,-1,1336,1023,0,0
119,1,0,0,0,0,0,0,0,0,0,-1,1343,1023,0,0
126,1,0,0,0,0,0,0,0,0,0,-1,1350,1023,0,0
133,1,0,0,0,0,0,0,0,0,0,-1,1357,1023,0,0
140,1,0,0,0,0,0,0,0,0,0,-1,1364,1023,0,0
147,1,0,0,0,0,0,0,0,0,0,-1,1371,1023,0,0
154,1,0,0,0,0,0,0,0,0,0,-1,1378,1023,0,0
161,1,0,0,0,0,0,0,0,0,0,-1,1385,1023,0,0
168,1,0,0,0,0,0,0,0,0,0,-1,1392,1023,0,0
175,1,0,0,0,0,0,0,0,0,0,-1,1399,1023,0,0
182,1,0,0,0,0,0,0,0,0,0,-1,1406,1023,0,0
189,1,0,0,0,0,0,0,0,0,0,-1,1413,1023,0,0
196,1,0,0,0,0,0,0,0,0,0,-1,1420,1023,0,0
203,1,0,0,0,0,0,0,0,0,0,-1,1427,1023,0,0
210,1,0,0,0,0,0,0,0,0,0,-1,1434,1023,0,0
217,1,0,0,0,0,0,0,0,0,0,-1,1441,1023,0,0
224,1,0,0,0,0,0,0,0,0,0,-1,1448,1023,0,0
231,1,0,0,0,0,0,0,0,0,0,-1,1455,1023,0,0
238,1,0,0,0,0,0,0,0,0,0,-1,1462,1023,0,0
245,1,0,0,0,0,0,0,0,0,0,-1,1469,1023,0,0
252,1,0,0,0,0,0,0,0,0,0,-1,1476,1023,0,0
259,1,0,0,0,0,0,0,0,0,0,-1,1483,1023,0,0
266,1,0,0,0,0,0,0,0,0,0,-1,1490,1023,0,0
273,1,0,0,0,0,0,0,0,0,0,-1,1497,1023,0,0
280,1,0,0,0,0,0,0,0,0,0,-1,1504,1023,0,0
287,1,0,0,0,0,0,0,0,0,0,-1,1511,1023,0,0
294,1,0,0,0,0,0,0,0,0,0,-1,1518,1023,0,0
301,1,0,0,0,0,0,0,0,0,0,-1,1525,1023,0,0
308,1,0,0,0,0,0,0,0,0,0,-1,1532,1023,0,0
315,1,0,0,0,0,0,0,0,0,0,-1,1539,1023,0,0
322,1,0,0,0,0,0,0,0,0,0,-1,1546,1023,0,0
329,1,0,0,0,0,0,0,0,0,0,-1,1553,1023,0,0
336,1,0,0,0,0,0,0,0,0,0,-1,1560,1023,0,0
343,1,0,0,0,0,0,0,0,0,0,-1,1567,1023,0,0
350,1,0,0,0,0,0,0,0,0,0,-1,1574,1023,0,0
357,1,0,0,0,0,0,0,0,0,0,-1,1581,1023,0,0
364,1,0,0,0,0,0,0,0,0,0,-1,1588,1023,0,0
371,1,0,0,0,0,0,0,0,0,0,-1,1595,1023,0,0
378,1,0,0,0,0,0,0,0,0,0,-1,1602,1023,0,0
385,1,0,0,0,0,0,0,0,0,0,-1,1609,1023,0,0
392,1,0,0,0,0,0,0,0,0,0,-1,1616,1023,0,0
399,1,0,0,0,0,0,0,0,0,0,-1,1623,1023,0,0
406,1,0,0,0,0,0,0,0,0,0,-1,1630,1023,0,0
413,1,0,0,0,0,0,0,0,0,0,-1,1637,1023,0,0
420,1,0,0,0,0,0,0,0,0,0,-1,1644,1023,0,0
427,1,0,0,0,0,0,0,0,0,0,-1,1651,1023,0,0
434,1,0,0,0,0,0,0,0,0,0,-1,1658,1023,0,0
441,1,0,0,0,0,0,0,0,0,0,-1,1665,1023,0,0
448,1,0,0,0,0,0,0,0,0,0,-1,1672,1023,0,0
455,1,0,0,0,0,0,0,0,0,0,-1,1679,1023,0,0
462,1,0,0,0,0,0,0,0,0,0,-1,1686,1023,0,0
469,1,0,0,0,0,0,0,0,0,0,-1,1693,1023,0,0
476,1,0,0,0,0,0,0,0,0,0,-1,1700,1023,0,0
483,1,0,0,0,0,0,0,0,0,0,-1,1707,1023,0,0
490,1,0,0,0,0,0,0,0,0,0,-1,1714,1023,0,0
497,1,0,0,0,0,0,0,0,0,0,-1,1721,1023,0,0
504,1,0,0,0,0,0,0,0,0,0,-1,1728,1023,0,0
511,1,0,0,0,0,0,0,0,0,0,-1,1735,1023,0,0
518,1,0,0,0,0,0,0,0,0,0,-1,1742,1023,0,0
525,1,0,0,0,0,0,0,0,0,0,-1,1749,1023,0,0
532,1,0,0,0,0,0,0,0,0,0,-1,1756,1023,0,0
539,1,0,0,0,0,0,0,0,0,0,-1,1763,1023,0,0
546,1,0,0,0,0,0,0,0,0,0,-1,1770,1023,0,0
553,1,0,0,0,0,0,0,0,0,0,-1,1777,1023,0,0
560,1,0,0,0,0,0,0,0,0,0,-1,1784,1023,0,0
567,1,0,0,0,0,0,0,0,0,0,-1,1791,1023,0,0
574,1,0,0,0,0,0,0,0,0,0,-1,1798,1023,0,0
581,1,0,0,0,0,0,0,0,0,0,-1,1805,1023,0,0
588,1,0,0,0,0,0,0,0,0,0,-1,1812,1023,0,0
595,1,0,0,0,0,0,0,0,0,0,-1,1819,1023,0,0
602,1,0,0,0,0,0,0,0,0,0,-1,1826,1023,0,0
609,1,0,0,0,0,0,0,0,0,0,-1,1833,1023,0,0
616,1,0,0,0,0,0,0,0,0,0,-1,1840,1023,0,0
623,1,0,0,0,0,0,0,0,0,0,-1,1847,1023,0,0
630,1,0,0,0,0,0,0,0,0,0,-1,1854,1023,0,0
637,1,0,0,0,0,0,0,0,0,0,-1,1861,1023,0,0
644,1,0,0,0,0,0,0,0,0,0,-1,1868,1023,0,0
651,1,20.6969,2.54877,0.00283083,-0.00388362,0.000140707,0.00283378,-0.00388656,0.0209436,0.00389583,0.0383251,1875,1023,20.6968,-2.54879
658,1,20.7592,2.45129,0.00145238,-0.0025721,0.000399803,0.00149171,-0.00261143,0.0980657,0.00239817,0.0405077,1882,1023,20.7591,-2.45132
665,1,20.842,2.57361,0.000484234,-0.00163393,0.000534349,0.0006114,-0.00176109,0.233637,0.00142236,0.0406562,1889,1023,20.8421,-2.5736
672,1,20.7574,2.74915,-0.000157138,-0.000887421,0.00108856,0.000625887,-0.00167045,0.623577,0.00137075,0.0403054,1896,1023,20.7574,-2.74916
679,1,20.5929,2.7774,-0.000909357,-0.00037696,0.00214366,0.00151697,-0.00280329,0.847172,0.00253089,0.0374907,1903,1023,20.5929,-2.7774
686,1,20.6396,2.80194,-0.00164149,-9.15335e-05,0.00322174,0.00244713,-0.00418015,0.903429,0.00386962,0.0356172,1910,1023,20.6397,-2.80196
693,1,20.8057,2.82996,-0.00220925,4.23428e-05,0.00418299,0.00324838,-0.00541529,0.916852,0.00505386,0.0333869,1917,1023,20.8057,-2.82995
700,1,20.8257,2.80682,-0.00264217,0.000151638,0.00493825,0.00388675,-0.00637729,0.923234,0.00598381,0.0284041,1924,1023,20.8257,-2.8068
707,1,20.7224,2.78027,-0.00315584,0.000252289,0.00550564,0.00431155,-0.0072151,0.935479,0.00672493,0.0261672,1931,1023,20.7224,-2.78028
714,1,20.6715,2.69403,-0.00360541,0.000240191,0.00570821,0.00434075,-0.00770597,0.947854,0.00704505,0.0286036,1938,1023,20.6715,-2.69402
721,1,20.7135,3.07617,-0.00373503,0.000274434,0.00573392,0.00434397,-0.00780457,0.953569,0.00710819,0.0341466,1945,1023,20.7134,-3.07617
728,1,20.3571,3.74933,-0.00361132,0.000416842,0.00561614,0.00436913,-0.0075636,0.957566,0.00697117,0.0262901,1952,1023,20.3571,-3.74935
735,1,20.2562,3.93488,-0.00363277,0.000712162,0.00500575,0.00399654,-0.00691715,0.99013,0.00637579,0.0143387,1959,1023,20.2563,-3.93487
742,1,20.2631,3.94,-0.00393798,0.00117443,0.00390554,0.00328593,-0.00604948,1.07517,0.00546796,0.0131918,1966,1023,20.2631,-3.93998
749,1,20.23,3.97839,-0.00412037,0.000952289,0.00250669,0.00198198,-0.00515006,1.18104,0.00425094,0.011848,1973,1023,20.23,-3.97841
756,1,20.2351,4.00653,-0.00405468,0.00149158,0.000388917,0.00151872,-0.00408182,1.50113,0.00334444,0.01205,1980,1023,20.2351,-4.00653
763,1,20.2687,4.00513,-0.00403862,0.00247936,-0.00244181,0.00329265,-0.00485191,-1.24929,0.0047309,0.0139515,1987,1023,20.2687,-4.00515
770,1,20.2817,4.00983,-0.00419856,0.00333725,-0.00582893,0.00651006,-0.00737137,-1.07232,0.00801959,0.0135277,1994,1023,20.2817,-4.00981
777,1,20.233,4.0274,-0.00462811,0.00447298,-0.0099146,0.0108315,-0.0109866,-1.00054,0.0125968,0.0148866,2001,1023,20.2331,-4.02739
784,1,20.2106,4.05237,-0.00563975,0.00587834,-0.0146451,0.0158561,-0.0156175,-0.97273,0.0181715,0.0331538,2008,1023,20.2105,-4.05239
791,1,20.2241,4.0459,-0.00713358,0.00771636,-0.0208412,0.0224157,-0.021833,-0.95652,0.0255477,0.0470275,2015,1023,20.2241,-4.04587
798,1,20.1875,4.06311,0,0,0,0,0,0,0,-1,2022,1023,20.1876,-4.06312
805,1,19.8872,2.38245,0,0,0,0,0,0,0,-1,2029,1023,19.8873,-2.38243
812,1,19.4209,1.55939,0,0,0,0,0,0,0,-1,2036,1023,19.421,-1.55936
-700,-6,0,0,0,0,0,0,0,0,0,-1,524,1030,0,0
-693,-6,-14.2443,0.85437,0,0,0,0,0,0,0,-1,531,1030,-14.2444,-0.854406
-686,-6,-13.9288,1.10864,0,0,0,0,0,0,0,-1,538,1030,-13.9288,-1.10867
-679,-6,-13.5727,1.13281,0,0,0,0,0,0,0,-1,545,1030,-13.5727,-1.13283
-672,-6,-13.283,1.27466,0.0145282,-0.0101041,0.000712697,0.0145488,-0.0101247,0.0289013,0.0143213,0.0472168,552,1030,-13.283,-1.27467
-665,-6,-13.2866,1.36621,0.0101081,-0.00861129,0.00250533,0.0104376,-0.0089408,0.130771,0.0111992,0.04369,559,1030,-13.2866,-1.36626
-658,-6,-13.2392,1.55603,0.0066942,-0.0068235,0.0035005,0.00754689,-0.00767619,0.238937,0.00878916,0.0384578,566,1030,-13.2392,-1.556
-651,-6,-13.3157,1.59851,0.00415731,-0.00506819,0.00379583,0.00551832,-0.0064292,0.344275,0.00690458,0.033139,573,1030,-13.3156,-1.59847
-644,-6,-13.2108,1.6167,0.0023659,-0.00358666,0.00336934,0.00388525,-0.00510601,0.423631,0.00520703,0.0346141,580,1030,-13.2108,-1.61672
-637,-6,-13.2728,1.6593,0.00077912,-0.00268085,0.00235797,0.00197366,-0.00387539,0.468913,0.00343594,0.0211285,587,1030,-13.2728,-1.65935
-630,-6,-13.2961,1.59839,-0.000546229,-0.00183642,0.000945102,-4.70497e-05,-0.0023356,0.485932,0.00154162,0.0143507,594,1030,-13.2961,-1.5984
-623,-6,-13.2827,1.5918,-0.00088442,-0.000281802,-0.000429935,-5.81053e-05,-0.00110812,-1.09104,0.000720158,0.0128037,601,1030,-13.2827,-1.59178
-616,-6,-13.2853,1.59521,-0.000569899,0.000601368,-0.00194828,0.00205013,-0.00201866,-0.931397,0.00234914,0.0137385,608,1030,-13.2854,-1.5952
-609,-6,-13.2747,1.60388,-0.000199037,-0.000122552,-0.00340679,0.00324621,-0.0035678,-0.791011,0.00393553,0.0151578,615,1030,-13.2747,-1.60383
-602,-6,-13.2704,1.60693,-0.000190056,0.00026132,-0.00480978,0.00485071,-0.00477944,-0.808842,0.00556002,0.0118061,622,1030,-13.2704,-1.60688
-595,-6,-13.2317,1.59131,-0.000333416,0.000180006,-0.0053151,0.00524459,-0.005398,-0.809529,0.00614472,0.0141128,629,1030,-13.2317,-1.59126
-588,-6,-13.2372,1.17615,-0.000393987,0.000129905,-0.00524014,0.00511465,-0.00537873,-0.810372,0.00605899,0.0159026,636,1030,-13.2372,-1.1761
-581,-6,-13.2686,0.858276,-0.00042832,0.00014628,-0.00481915,0.00468669,-0.00496873,-0.815171,0.00557535,0.0213034,643,1030,-13.2685,-0.858308
-574,-6,-13.269,0.75,-0.000653636,0.000340904,-0.00409931,0.00397299,-0.00428573,-0.845756,0.00476931,0.0294814,650,1030,-13.269,-0.749988
-567,-6,-13.3104,0.716797,-0.0010178,0.000633589,-0.00291395,0.00283657,-0.00322078,-0.923459,0.00349956,0.0390091,657,1030,-13.3104,-0.716768
-560,-6,-13.2903,1.0188,-0.00146606,0.000993754,-0.00131045,0.00156105,-0.00203336,-1.16225,0.0020812,0.0425332,664,1030,-13.2903,-1.01882
-553,-6,-13.1502,0.915405,-0.00201134,0.00136108,0.000638898,0.00147806,-0.00212832,1.38971,0.00209339,0.0422778,671,1030,-13.1502,-0.915373
-546,-6,-13.2936,1.0448,-0.00265049,0.00165613,0.00281498,0.00304695,-0.00404131,1.1119,0.00410581,0.0422377,678,1030,-13.2936,-1.04478
-539,-6,-13.3602,1.1698,-0.00324134,0.001791,0.00466029,0.004571,-0.00602133,1.03293,0.00613456,0.0437574,685,1030,-13.3601,-1.16985
-532,-6,-13.2584,0.987915,-0.00387615,0.00198798,0.0050228,0.00487188,-0.00676006,1.04959,0.00674513,0.04379,692,1030,-13.2584,-0.987932
-525,-6,0,0,0,0,0,0,0,0,0,-1,699,1030,0,0
-518,-6,0,0,0,0,0,0,0,0,0,-1,706,1030,0,0
-511,-6,0,0,0,0,0,0,0,0,0,-1,713,1030,0,0
-504,-6,0,0,0,0,0,0,0,0,0,-1,720,1030,0,0
-497,-6,0,0,0,0,0,0,0,0,0,-1,727,1030,0,0
-490,-6,0,0,0,0,0,0,0,0,0,-1,734,1030,0,0
-483,-6,0,0,0,0,0,0,0,0,0,-1,741,1030,0,0
-476,-6,0,0,0,0,0,0,0,0,0,-1,748,1030,0,0
-469,-6,0,0,0,0,0,0,0,0,0,-1,755,1030,0,0
-462,-6,0,0,0,0,0,0,0,0,0,-1,762,1030,0,0
-455,-6,0,0,0,0,0,0,0,0,0,-1,769,1030,0,0
-448,-6,0,0,0,0,0,0,0,0,0,-1,776,1030,0,0
-441,-6,0,0,0,0,0,0,0,0,0,-1,783,1030,0,0
-434,-6,0,0,0,0,0,0,0,0,0,-1,790,1030,0,0
-427,-6,0,0,0,0,0,0,0,0,0,-1,797,1030,0,0
-420,-6,0,0,0,0,0,0,0,0,0,-1,804,1030,0,0
-413,-6,0,0,0,0,0,0,0,0,0,-1,811,1030,0,0
-406,-6,0,0,0,0,0,0,0,0,0,-1,818,1030,0,0
-399,-6,0,0,0,0,0,0,0,0,0,-1,825,1030,0,0
-392,-6,0,0,0,0,0,0,0,0,0,-1,832,1030,0,0
-385,-6,0,0,0,0,0,0,0,0,0,-1,839,1030,0,0
-378,-6,0,0,0,0,0,0,0,0,0,-1,846,1030,0,0
-371,-6,0,0,0,0,0,0,0,0,0,-1,853,1030,0,0
-364,-6,0,0,0,0,0,0,0,0,0,-1,860,1030,0,0
-357,-6,0,0,0,0,0,0,0,0,0,-1,867,1030,0,0
-350,-6,0,0,0,0,0,0,0,0,0,-1,874,1030,0,0
-343,-6,0,0,0,0,0,0,0,0,0,-1,881,1030,0,0
-336,-6,0,0,0,0,0,0,0,0,0,-1,888,1030,0,0
-329,-6,0,0,0,0,0,0,0,0,0,-1,895,1030,0,0
-322,-6,0,0,0,0,0,0,0,0,0,-1,902,1030,0,0
-315,-6,0,0,0,0,0,0,0,0,0,-1,909,1030,0,0
-308,-6,0,0,0,0,0,0,0,0,0,-1,916,1030,0,0
-301,-6,0,0,0,0,0,0,0,0,0,-1,923,1030,0,0
-294,-6,0,0,0,0,0,0,0,0,0,-1,930,1030,0,0
-287,-6,0,0,0,0,0,0,0,0,0,-1,937,1030,0,0
-280,-6,0,0,0,0,0,0,0,0,0,-1,944,1030,0,0
-273,-6,0,0,0,0,0,0,0,0,0,-1,951,1030,0,0
-266,-6,0,0,0,0,0,0,0,0,0,-1,958,1030,0,0
-259,-6,0,0,0,0,0,0,0,0,0,-1,965,1030,0,0
-252,-6,0,0,0,0,0,0,0,0,0,-1,972,1030,0,0
-245,-6,0,0,0,0,0,0,0,0,0,-1,979,1030,0,0
-238,-6,0,0,0,0,0,0,0,0,0,-1,986,1030,0,0
-231,-6,0,0,0,0,0,0,0,0,0,-1,993,1030,0,0
-224,-6,0,0,0,0,0,0,0,0,0,-1,1000,1030,0,0
-217,-6,0,0,0,0,0,0,0,0,0,-1,1007,1030,0,0
-210,-6,0,0,0,0,0,0,0,0,0,-1,1014,1030,0,0
-203,-6,0,0,0,0,0,0,0,0,0,-1,1021,1030,0,0
-196,-6,0,0,0,0,0,0,0,0,0,-1,1028,1030,0,0
-189,-6,0,0,0,0,0,0,0,0,0,-1,1035,1030,0,0
-182,-6,0,0,0,0,0,0,0,0,0,-1,1042,1030,0,0
-175,-6,0,0,0,0,0,0,0,0,0,-1,1049,1030,0,0
-168,-6,0,0,0,0,0,0,0,0,0,-1,1056,1030,0,0
-161,-6,0,0,0,0,0,0,0,0,0,-1,1063,1030,0,0
-154,-6,0,0,0,0,0,0,0,0,0,-1,1070,1030,0,0
-147,-6,0,0,0,0,0,0,0,0,0,-1,1077,1030,0,0
-140,-6,0,0,0,0,0,0,0,0,0,-1,1084,1030,0,0
-133,-6,0,0,0,0,0,0,0,0,0,-1,1091,1030,0,0
-126,-6,0,0,0,0,0,0,0,0,0,-1,1098,1030,0,0
-119,-6,0,0,0,0,0,0,0,0,0,-1,1105,1030,0,0
-112,-6,0,0,0,0,0,0,0,0,0,-1,1112,1030,0,0
-105,-6,0,0,0,0,0,0,0,0,0,-1,1119,1030,0,0
-98,-6,0,0,0,0,0,0,0,0,0,-1,1126,1030,0,0
-91,-6,0,0,0,0,0,0,0,0,0,-1,1133,1030,0,0
-84,-6,0,0,0,0,0,0,0,0,0,-1,1140,1030,0,0
-77,-6,0,0,0,0,0,0,0,0,0,-1,1147,1030,0,0
-70,-6,0,0,0,0,0,0,0,0,0,-1,1154,1030,0,0
-63,-6,0,0,0,0,0,0,0,0,0,-1,1161,1030,0,0
-56,-6,0,0,0,0,0,0,0,0,0,-1,1168,1030,0,0
-49,-6,0,0,0,0,0,0,0,0,0,-1,1175,1030,0,0
-42,-6,0,0,0,0,0,0,0,0,0,-1,1182,1030,0,0
-35,-6,0,0,0,0,0,0,0,0,0,-1,1189,1030,0,0
-28,-6,0,0,0,0,0,0,0,0,0,-1,1196,1030,0,0
-21,-6,0,0,0,0,0,0,0,0,0,-1,1203,1030,0,0
-14,-6,0,0,0,0,0,0,0,0,0,-1,1210,1030,0,0
-7,-6,0,0,0,0,0,0,0,0,0,-1,1217,1030,0,0
0,-6,0,0,0,0,0,0,0,0,0,-1,1224,1030,0,0
7,-6,0,0,0,0,0,0,0,0,0,-1,1231,1030,0,0
14,-6,0,0,0,0,0,0,0,0,0,-1,1238,1030,0,0
21,-6,0,0,0,0,0,0,0,0,0,-1,1245,1030,0,0
28,-6,0,0,0,0,0,0,0,0,0,-1,1252,1030,0,0
35,-6,0,0,0,0,0,0,0,0,0,-1,1259,1030,0,0
42,-6,0,0,0,0,0,0,0,0,0,-1,1266,1030,0,0
49,-6,0,0,0,0,0,0,0,0,0,-1,1273,1030,0,0
56,-6,0,0,0,0,0,0,0,0,0,-1,1280,1030,0,0
63,-6,0,0,0,0,0,0,0,0,0,-1,1287,1030,0,0
70,-6,0,0,0,0,0,0,0,0,0,-1,1294,1030,0,0
77,-6,0,0,0,0,0,0,0,0,0,-1,1301,1030,0,0
84,-6,0,0,0,0,0,0,0,0,0,-1,1308,1030,0,0
91,-6,0,0,0,0,0,0,0,0,0,-1,1315,1030,0,0
98,-6,0,0,0,0,0,0,0,0,0,-1,1322,1030,0,0
105,-6,0,0,0,0,0,0,0,0,0,-1,1329,1030,0,0
112,-6,0,0,0,0,0,0,0,0,0,-1,1336,1030,0,0
119,-6,0,0,0,0,0,0,0,0,0,-1,1343,1030,0,0
126,-6,0,0,0,0,0,0,0,0,0,-1,1350,1030,0,0
133,-6,0,0,0,0,0,0,0,0,0,-1,1357,1030,0,0
140,-6,0,0,0,0,0,0,0,0,0,-1,1364,1030,0,0
147,-6,0,0,0,0,0,0,0,0,0,-1,1371,1030,0,0
154,-6,0,0,0,0,0,0,0,0,0,-1,1378,1030,0,0
161,-6,0,0,0,0,0,0,0,0,0,-1,1385,1030,0,0
168,-6,0,0,0,0,0,0,0,0,0,-1,1392,1030,0,0
175,-6,0,0,0,0,0,0,0,0,0,-1,1399,1030,0,0
182,-6,0,0,0,0,0,0,0,0,0,-1,1406,1030,0,0
189,-6,0,0,0,0,0,0,0,0,0,-1,1413,1030,0,0
196,-6,0,0,0,0,0,0,0,0,0,-1,1420,1030,0,0
203,-6,0,0,0,0,0,0,0,0,0,-1,1427,1030,0,0
210,-6,0,0,0,0,0,0,0,0,0,-1,1434,1030,0,0
217,-6,0,0,0,0,0,0,0,0,0,-1,1441,1030,0,0
224,-6,0,0,0,0,0,0,0,0,0,-1,1448,1030,0,0
231,-6,0,0,0,0,0,0,0,0,0,-1,1455,1030,0,0
238,-6,0,0,0,0,0,0,0,0,0,-1,1462,1030,0,0
245,-6,0,0,0,0,0,0,0,0,0,-1,1469,1030,0,0
252,-6,0,0,0,0,0,0,0,0,0,-1,1476,1030,0,0
259,-6,0,0,0,0,0,0,0,0,0,-1,1483,1030,0,0
266,-6,0,0,0,0,0,0,0,0,0,-1,1490,1030,0,0
273,-6,0,0,0,0,0,0,0,0,0,-1,1497,1030,0,0
280,-6,0,0,0,0,0,0,0,0,0,-1,1504,1030,0,0
287,-6,0,0,0,0,0,0,0,0,0,-1,1511,1030,0,0
294,-6,0,0,0,0,0,0,0,0,0,-1,1518,1030,0,0
301,-6,0,0,0,0,0,0,0,0,0,-1,1525,1030,0,0
308,-6,0,0,0,0,0,0,0,0,0,-1,1532,1030,0,0
315,-6,0,0,0,0,0,0,0,0,0,-1,1539,1030,0,0
322,-6,0,0,0,0,0,0,0,0,0,-1,1546,1030,0,0
329,-6,0,0,0,0,0,0,0,0,0,-1,1553,1030,0,0
336,-6,0,0,0,0,0,0,0,0,0,-1,1560,1030,0,0
343,-6,0,0,0,0,0,0,0,0,0,-1,1567,1030,0,0
350,-6,0,0,0,0,0,0,0,0,0,-1,1574,1030,0,0
357,-6,0,0,0,0,0,0,0,0,0,-1,1581,1030,0,0
364,-6,0,0,0,0,0,0,0,0,0,-1,1588,1030,0,0
371,-6,0,0,0,0,0,0,0,0,0,-1,1595,1030,0,0
378,-6,0,0,0,0,0,0,0,0,0,-1,1602,1030,0,0
385,-6,0,0,0,0,0,0,0,0,0,-1,1609,1030,0,0
392,-6,0,0,0,0,0,0,0,0,0,-1,1616,1030,0,0
399,-6,0,0,0,0,0,0,0,0,0,-1,1623,1030,0,0
406,-6,0,0,0,0,0,0,0,0,0,-1,1630,1030,0,0
413,-6,0,0,0,0,0,0,0,0,0,-1,1637,1030,0,0
420,-6,0,0,0,0,0,0,0,0,0,-1,1644,1030,0,0
427,-6,0,0,0,0,0,0,0,0,0,-1,1651,1030,0,0
434,-6,0,0,0,0,0,0,0,0,0,-1,1658,1030,0,0
441,-6,0,0,0,0,0,0,0,0,0,-1,1665,1030,0,0
448,-6,0,0,0,0,0,0,0,0,0,-1,1672,1030,0,0
455,-6,0,0,0,0,0,0,0,0,0,-1,1679,1030,0,0
462,-6,0,0,0,0,0,0,0,0,0,-1,1686,1030,0,0
469,-6,0,0,0,0,0,0,0,0,0,-1,1693,1030,0,0
476,-6,0,0,0,0,0,0,0,0,0,-1,1700,1030,0,0
483,-6,0,0,0,0,0,0,0,0,0,-1,1707,1030,0,0
490,-6,0,0,0,0,0,0,0,0,0,-1,1714,1030,0,0
497,-6,0,0,0,0,0,0,0,0,0,-1,1721,1030,0,0
504,-6,0,0,0,0,0,0,0,0,0,-1,1728,1030,0,0
511,-6,0,0,0,0,0,0,0,0,0,-1,1735,1030,0,0
518,-6,0,0,0,0,0,0,0,0,0,-1,1742,1030,0,0
525,-6,0,0,0,0,0,0,0,0,0,-1,1749,1030,0,0
532,-6,0,0,0,0,0,0,0,0,0,-1,1756,1030,0,0
539,-6,0,0,0,0,0,0,0,0,0,-1,1763,1030,0,0
546,-6,0,0,0,0,0,0,0,0,0,-1,1770,1030,0,0
553,-6,0,0,0,0,0,0,0,0,0,-1,1777,1030,0,0
560,-6,0,0,0,0,0,0,0,0,0,-1,1784,1030,0,0
567,-6,0,0,0,0,0,0,0,0,0,-1,1791,1030,0,0
574,-6,0,0,0,0,0,0,0,0,0,-1,1798,1030,0,0
581,-6,0,0,0,0,0,0,0,0,0,-1,1805,1030,0,0
588,-6,0,0,0,0,0,0,0,0,0,-1,1812,1030,0,0
595,-6,0,0,0,0,0,0,0,0,0,-1,1819,1030,0,0
602,-6,0,0,0,0,0,0,0,0,0,-1,1826,1030,0,0
609,-6,0,0,0,0,0,0,0,0,0,-1,1833,1030,0,0
616,-6,0,0,0,0,0,0,0,0,0,-1,1840,1030,0,0
623,-6,0,0,0,0,0,0,0,0,0,-1,1847,1030,0,0
630,-6,0,0,0,0,0,0,0,0,0,-1,1854,1030,0,0
637,-6,0,0,0,0,0,0,0,0,0,-1,1861,1030,0,0
644,-6,0,0,0,0,0,0,0,0,0,-1,1868,1030,0,0
651,-6,20.7103,2.88818,0.00344235,-0.00393246,-3.15993e-05,0.00344249,-0.0039326,-0.00428465,0.00426114,0.0374816,1875,1030,20.7103,-2.88822
658,-6,20.7738,2.70154,0.00186874,-0.00257999,0.000215103,0.00187911,-0.00259037,0.0482017,0.00259132,0.0408436,1882,1030,20.7738,-2.70155
665,-6,20.9802,2.62756,0.00076717,-0.00160027,0.000337666,0.000814389,-0.00164749,0.138939,0.00144824,0.0435257,1889,1030,20.9803,-2.62759
672,-6,20.8159,2.68384,5.72071e-05,-0.000883352,0.000911509,0.000612603,-0.00143875,0.547241,0.00121594,0.0414565,1896,1030,20.8159,-2.68386
679,-6,20.6791,2.81445,-0.000763632,-0.000421171,0.00206766,0.00148233,-0.00266714,0.826711,0.00242803,0.0411944,1903,1030,20.6791,-2.81448
686,-6,20.6179,2.86133,-0.00157682,-0.000187234,0.00327915,0.00246992,-0.00423397,0.889795,0.0039149,0.037647,1910,1030,20.6179,-2.86127
693,-6,20.7302,2.84351,-0.00221139,-0.000106895,0.00437645,0.00334203,-0.00566031,0.903376,0.00525464,0.0346818,1917,1030,20.7303,-2.84348
700,-6,20.7634,2.88879,-0.00270802,-4.91762e-05,0.00526917,0.00405569,-0.00681289,0.90897,0.00634193,0.0284971,1924,1030,20.7634,-2.88877
707,-6,20.6632,2.77478,-0.00327072,3.71607e-06,0.00593796,0.00452603,-0.00779304,0.919916,0.0071953,0.0271432,1931,1030,20.6632,-2.77474
714,-6,20.6718,2.55066,-0.00373019,-2.36192e-05,0.00623421,0.00462694,-0.00838075,0.929877,0.00761352,0.0370292,1938,1030,20.6717,-2.55066
721,-6,20.594,3.13306,-0.0038694,-8.68913e-06,0.00630703,0.00465678,-0.00853487,0.933904,0.00772513,0.0424328,1945,1030,20.594,-3.13309
728,-6,20.314,3.87109,-0.00374711,0.000108989,0.00619309,0.00466722,-0.00830534,0.936304,0.00758725,0.0332658,1952,1030,20.314,-3.8711
735,-6,20.2788,3.92871,-0.00375905,0.000371352,0.0055887,0.00426422,-0.00765192,0.962382,0.00697184,0.0152617,1959,1030,20.2788,-3.92871
742,-6,20.2983,3.95276,-0.00403388,0.000799219,0.00449468,0.0034858,-0.00672046,1.03205,0.00599042,0.012222,1966,1030,20.2983,-3.95279
749,-6,20.2657,3.9928,-0.0041848,0.000537046,0.0030149,0.00200543,-0.00565318,1.11757,0.00458584,0.0111809,1973,1030,20.2657,-3.99274
756,-6,20.296,4.00378,-0.00395037,0.00111127,0.000750819,0.00122029,-0.00405939,1.4266,0.00319175,0.0122873,1980,1030,20.2961,-4.00383
763,-6,20.2825,3.98828,-0.00350877,0.00202609,-0.00212788,0.00274958,-0.00423226,-1.24305,0.00406115,0.0125294,1987,1030,20.2825,-3.98831
770,-6,20.2654,3.9917,-0.00323882,0.0028351,-0.00559895,0.0061677,-0.00657143,-1.0339,0.00735617,0.0113183,1994,1030,20.2654,-3.99173
777,-6,20.2532,4.0177,-0.00296292,0.00386516,-0.00974696,0.0107787,-0.00987646,-0.953855,0.0119291,0.0139014,2001,1030,20.2531,-4.01776
784,-6,20.2711,3.9845,-0.00292324,0.00515704,-0.0144977,0.016167,-0.0139332,-0.921288,0.0173943,0.0332768,2008,1030,20.2711,-3.98445
791,-6,20.5035,3.41028,-0.00277923,0.00690414,-0.0207337,0.0233539,-0.019229,-0.900102,0.0246237,0.043288,2015,1030,20.5036,-3.41031
798,-6,20.7316,2.9989,-0.00178452,0.00944435,-0.0291069,0.0334734,-0.0258136,-0.880673,0.0343244,0.0435266,2022,1030,20.7316,-2.99886
805,-6,19.699,0.691895,0,0,0,0,0,0,0,-1,2029,1030,19.699,-0.691869
812,-6,19.4875,0.602051,0,0,0,0,0,0,0,-1,2036,1030,19.4874,-0.601992
-700,-13,0,0,0,0,0,0,0,0,0,-1,524,1037,0,0
-693,-13,-14.0585,0.437744,0.0393804,-0.00603869,-0.0125552,0.04262,-0.00927826,-0.252518,0.0319582,0.0489521,531,1037,-14.0585,-0.437799
-686,-13,-13.7541,0.551758,0.0303921,-0.0106674,-0.00818513,0.0319637,-0.0122389,-0.189691,0.0263537,0.0454282,538,1037,-13.7541,-0.5517
-679,-13,-13.4869,0.68396,0.0226525,-0.0121125,-0.0046851,0.0232728,-0.0127328,-0.131637,0.0210827,0.0462255,545,1037,-13.4869,-0.683988
-672,-13,-13.1165,0.919312,0.0163213,-0.0116908,-0.00195959,0.0164578,-0.0118272,-0.0695038,0.0164031,0.0461932,552,1037,-13.1165,-0.919345
-665,-13,-13.238,1.0177,0.0113319,-0.0102269,2.56299e-05,0.0113319,-0.0102269,0.00118884,0.0124524,0.0421516,559,1037,-13.238,-1.01771
-658,-13,-13.2023,1.68726,0.00750631,-0.00829225,0.00132067,0.00761595,-0.00840188,0.0828281,0.00925161,0.0468556,566,1037,-13.2023,-1.68726
-651,-13,-13.1198,1.89978,0,0,0,0,0,0,0,-1,573,1037,-13.1198,-1.89974
-644,-13,-13.2335,1.53857,0.00271658,-0.00456335,0.00195717,0.0032094,-0.00505617,0.246671,0.00481167,0.0275376,580,1037,-13.2335,-1.53862
-637,-13,-13.258,1.56299,0.000981729,-0.0035859,0.00121732,0.0012859,-0.00389007,0.244858,0.00311187,0.0208645,587,1037,-13.258,-1.56294
-630,-13,-13.2726,1.55798,-0.000554507,-0.00250606,-9.13319e-06,-0.000554465,-0.0025061,-0.00467983,0.00152,0.0132045,594,1037,-13.2726,-1.55798
-623,-13,-13.2625,1.5907,-0.000873881,-0.000751161,-0.00115499,0.000344095,-0.00196914,-0.811936,0.00144121,0.0110619,601,1037,-13.2625,-1.59073
-616,-13,-13.252,1.61218,-0.000496086,0.000203074,-0.00237816,0.00225721,-0.00255022,-0.858373,0.00277729,0.0103445,608,1037,-13.252,-1.61221
-609,-13,-13.2227,1.60803,-0.000110496,-0.000353349,-0.00365171,0.00342181,-0.00388565,-0.768778,0.00422179,0.014957,615,1037,-13.2226,-1.60805
-602,-13,-13.2413,1.61401,-0.000176177,-5.43006e-05,-0.00501799,0.00490312,-0.0051336,-0.79147,0.00579521,0.011191,622,1037,-13.2414,-1.61404
-595,-13,-13.222,1.58557,-0.000377066,-0.000225819,-0.00551161,0.00521069,-0.00581357,-0.792258,0.00636803,0.016096,629,1037,-13.222,-1.5856
-588,-13,-13.15,1.11938,-0.00047536,-0.000308303,-0.00543788,0.00504669,-0.00583036,-0.793078,0.0062853,0.0227192,636,1037,-13.15,-1.11934
-581,-13,-13.2717,0.824463,-0.000550695,-0.000293596,-0.00500587,0.00458538,-0.00542967,-0.798235,0.00578903,0.0221865,643,1037,-13.2717,-0.824457
-574,-13,-13.2904,0.734619,-0.000807289,-0.000120883,-0.00425916,0.00380888,-0.00473705,-0.825601,0.00494368,0.0324613,650,1037,-13.2904,-0.734678
-567,-13,-13.387,0.795288,-0.00120398,0.000188821,-0.00302396,0.00259554,-0.00361069,-0.898572,0.00359911,0.0401808,657,1037,-13.387,-0.79531
-560,-13,-13.1957,0.817749,-0.00169498,0.000594145,-0.00131711,0.00119452,-0.00229536,-1.14311,0.00204802,0.0442104,664,1037,-13.1957,-0.817783
-553,-13,-13.0697,0.685791,-0.00230358,0.00103611,0.000802267,0.00121883,-0.00248631,1.34686,0.00218049,0.0421011,671,1037,-13.0697,-0.68578
-546,-13,-13.2151,0.86731,-0.0030508,0.00143376,0.00323663,0.00312894,-0.00474598,1.08833,0.00457843,0.037257,678,1037,-13.2152,-0.867287
-539,-13,-13.2907,1.18054,-0.00380538,0.00168662,0.00539365,0.00499306,-0.00711182,1.02086,0.00702435,0.0404986,685,1037,-13.2907,-1.18052
-532,-13,-13.2693,1.03308,-0.00469407,0.00189865,0.0060496,0.00549168,-0.00828709,1.03485,0.00800956,0.0422048,692,1037,-13.2693,-1.03304
-525,-13,0,0,0,0,0,0,0,0,0,-1,699,1037,0,0
-518,-13,0,0,0,0,0,0,0,0,0,-1,706,1037,0,0
-511,-13,0,0,0,0,0,0,0,0,0,-1,713,1037,0,0
-504,-13,0,0,0,0,0,0,0,0,0,-1,720,1037,0,0
-497,-13,0,0,0,0,0,0,0,0,0,-1,727,1037,0,0
-490,-13,0,0,0,0,0,0,0,0,0,-1,734,1037,0,0
-483,-13,0,0,0,0,0,0,0,0,0,-1,741,1037,0,0
-476,-13,0,0,0,0,0,0,0,0,0,-1,748,1037,0,0
-469,-13,0,0,0,0,0,0,0,0,0,-1,755,1037,0,0
-462,-13,0,0,0,0,0,0,0,0,0,-1,762,1037,0,0
-455,-13,0,0,0,0,0,0,0,0,0,-1,769,1037,0,0
-448,-13,0,0,0,0,0,0,0,0,0,-1,776,1037,0,0
-441,-13,0,0,0,0,0,0,0,0,0,-1,783,1037,0,0
-434,-13,0,0,0,0,0,0,0,0,0,-1,790,1037,0,0
-427,-13,0,0,0,0,0,0,0,0,0,-1,797,1037,0,0
-420,-13,0,0,0,0,0,0,0,0,0,-1,804,1037,0,0
-413,-13,0,0,0,0,0,0,0,0,0,-1,811,1037,0,0
-406,-13,0,0,0,0,0,0,0,0,0,-1,818,1037,0,0
-399,-13,0,0,0,0,0,0,0,0,0,-1,825,1037,0,0
-392,-13,0,0,0,0,0,0,0,0,0,-1,832,1037,0,0
-385,-13,0,0,0,0,0,0,0,0,0,-1,839,1037,0,0
-378,-13,0,0,0,0,0,0,0,0,0,-1,846,1037,0,0
-371,-13,0,0,0,0,0,0,0,0,0,-1,853,1037,0,0
-364,-13,0,0,0,0,0,0,0,0,0,-1,860,1037,0,0
-357,-13,0,0,0,0,0,0,0,0,0,-1,867,1037,0,0
-350,-13,0,0,0,0,0,0,0,0,0,-1,874,1037,0,0
-343,-13,0,0,0,0,0,0,0,0,0,-1,881,1037,0,0
-336,-13,0,0,0,0,0,0,0,0,0,-1,888,1037,0,0
-329,-13,0,0,0,0,0,0,0,0,0,-1,895,1037,0,0
-322,-13,0,0,0,0,0,0,0,0,0,-1,902,1037,0,0
-315,-13,0,0,0,0,0,0,0,0,0,-1,909,1037,0,0
-308,-13,0,0,0,0,0,0,0,0,0,-1,916,1037,0,0
-301,-13,0,0,0,0,0,0,0,0,0,-1,923,1037,0,0
-294,-13,0,0,0,0,0,0,0,0,0,-1,930,1037,0,0
-287,-13,0,0,0,0,0,0,0,0,0,-1,937,1037,0,0
-280,-13,0,0,0,0,0,0,0,0,0,-1,944,1037,0,0
-273,-13,0,0,0,0,0,0,0,0,0,-1,951,1037,0,0
-266,-13,0,0,0,0,0,0,0,0,0,-1,958,1037,0,0
-259,-13,0,0,0,0,0,0,0,0,0,-1,965,1037,0,0
-252,-13,0,0,0,0,0,0,0,0,0,-1,972,1037,0,0
-245,-13,0,0,0,0,0,0,0,0,0,-1,979,1037,0,0
-238,-13,0,0,0,0,0,0,0,0,0,-1,986,1037,0,0
-231,-13,0,0,0,0,0,0,0,0,0,-1,993,1037,0,0
-224,-13,0,0,0,0,0,0,0,0,0,-1,1000,1037,0,0
-217,-13,0,0,0,0,0,0,0,0,0,-1,1007,1037,0,0
-210,-13,0,0,0,0,0,0,0,0,0,-1,1014,1037,0,0
-203,-13,0,0,0,0,0,0,0,0,0,-1,1021,1037,0,0
-196,-13,0,0,0,0,0,0,0,0,0,-1,1028,1037,0,0
-189,-13,0,0,0,0,0,0,0,0,0,-1,1035,1037,0,0
-182,-13,0,0,0,0,0,0,0,0,0,-1,1042,1037,0,0
-175,-13,0,0,0,0,0,0,0,0,0,-1,1049,1037,0,0
-168,-13,0,0,0,0,0,0,0,0,0,-1,1056,1037,0,0
-161,-13,0,0,0,0,0,0,0,0,0,-1,1063,1037,0,0
-154,-13,0,0,0,0,0,0,0,0,0,-1,1070,1037,0,0
-147,-13,0,0,0,0,0,0,0,0,0,-1,1077,1037,0,0
-140,-13,0,0,0,0,0,0,0,0,0,-1,1084,1037,0,0
-133,-13,0,0,0,0,0,0,0,0,0,-1,1091,1037,0,0
-126,-13,0,0,0,0,0,0,0,0,0,-1,1098,1037,0,0
-119,-13,0,0,0,0,0,0,0,0,0,-1,1105,1037,0,0
-112,-13,0,0,0,0,0,0,0,0,0,-1,1112,1037,0,0
-105,-13,0,0,0,0,0,0,0,0,0,-1,1119,1037,0,0
-98,-13,0,0,0,0,0,0,0,0,0,-1,1126,1037,0,0
-91,-13,0,0,0,0,0,0,0,0,0,-1,1133,1037,0,0
-84,-13,0,0,0,0,0,0,0,0,0,-1,1140,1037,0,0
-77,-13,0,0,0,0,0,0,0,0,0,-1,1147,1037,0,0
-70,-13,0,0,0,0,0,0,0,0,0,-1,1154,1037,0,0
-63,-13,0,0,0,0,0,0,0,0,0,-1,1161,1037,0,0
-56,-13,0,0,0,0,0,0,0,0,0,-1,1168,1037,0,0
-49,-13,0,0,0,0,0,0,0,0,0,-1,1175,1037,0,0
-42,-13,0,0,0,0,0,0,0,0,0,-1,1182,1037,0,0
-35,-13,0,0,0,0,0,0,0,0,0,-1,1189,1037,0,0
-28,-13,0,0,0,0,0,0,0,0,0,-1,1196,1037,0,0
-21,-13,0,0,0,0,0,0,0,0,0,-1,1203,1037,0,0
-14,-13,0,0,0,0,0,0,0,0,0,-1,1210,1037,0,0
-7,-13,0,0,0,0,0,0,0,0,0,-1,1217,1037,0,0
0,-13,0,0,0,0,0,0,0,0,0,-1,1224,1037,0,0
7,-13,0,0,0,0,0,0,0,0,0,-1,1231,1037,0,0
14,-13,0,0,0,0,0,0,0,0,0,-1,1238,1037,0,0
21,-13,0,0,0,0,0,0,0,0,0,-1,1245,1037,0,0
28,-13,0,0,0,0,0,0,0,0,0,-1,1252,1037,0,0
35,-13,0,0,0,0,0,0,0,0,0,-1,1259,1037,0,0
42,-13,0,0,0,0,0,0,0,0,0,-1,1266,1037,0,0
49,-13,0,0,0,0,0,0,0,0,0,-1,1273,1037,0,0
56,-13,0,0,0,0,0,0,0,0,0,-1,1280,1037,0,0
63,-13,0,0,0,0,0,0,0,0,0,-1,1287,1037,0,0
70,-13,0,0,0,0,0,0,0,0,0,-1,1294,1037,0,0
77,-13,0,0,0,0,0,0,0,0,0,-1,1301,1037,0,0
84,-13,0,0,0,0,0,0,0,0,0,-1,1308,1037,0,0
91,-13,0,0,0,0,0,0,0,0,0,-1,1315,1037,0,0
98,-13,0,0,0,0,0,0,0,0,0,-1,1322,1037,0,0
105,-13,0,0,0,0,0,0,0,0,0,-1,1329,1037,0,0
112,-13,0,0,0,0,0,0,0,0,0,-1,1336,1037,0,0
119,-13,0,0,0,0,0,0,0,0,0,-1,1343,1037,0,0
126,-13,0,0,0,0,0,0,0,0,0,-1,1350,1037,0,0
133,-13,0,0,0,0,0,0,0,0,0,-1,1357,1037,0,0
140,-13,0,0,0,0,0,0,0,0,0,-1,1364,1037,0,0
147,-13,0,0,0,0,0,0,0,0,0,-1,1371,1037,0,0
154,-13,0,0,0,0,0,0,0,0,0,-1,1378,1037,0,0
161,-13,0,0,0,0,0,0,0,0,0,-1,1385,1037,0,0
168,-13,0,0,0,0,0,0,0,0,0,-1,1392,1037,0,0
175,-13,0,0,0,0,0,0,0,0,0,-1,1399,1037,0,0
182,-13,0,0,0,0,0,0,0,0,0,-1,1406,1037,0,0
189,-13,0,0,0,0,0,0,0,0,0,-1,1413,1037,0,0
196,-13,0,0,0,0,0,0,0,0,0,-1,1420,1037,0,0
203,-13,0,0,0,0,0,0,0,0,0,-1,1427,1037,0,0
210,-13,0,0,0,0,0,0,0,0,0,-1,1434,1037,0,0
217,-13,0,0,0,0,0,0,0,0,0,-1,1441,1037,0,0
224,-13,0,0,0,0,0,0,0,0,0,-1,1448,1037,0,0
231,-13,0,0,0,0,0,0,0,0,0,-1,1455,1037,0,0
238,-13,0,0,0,0,0,0,0,0,0,-1,1462,1037,0,0
245,-13,0,0,0,0,0,0,0,0,0,-1,1469,1037,0,0
252,-13,0,0,0,0,0,0,0,0,0,-1,1476,1037,0,0
259,-13,0,0,0,0,0,0,0,0,0,-1,1483,1037,0,0
266,-13,0,0,0,0,0,0,0,0,0,-1,1490,1037,0,0
273,-13,0,0,0,0,0,0,0,0,0,-1,1497,1037,0,0
280,-13,0,0,0,0,0,0,0,0,0,-1,1504,1037,0,0
287,-13,0,0,0,0,0,0,0,0,0,-1,1511,1037,0,0
294,-13,0,0,0,0,0,0,0,0,0,-1,1518,1037,0,0
301,-13,0,0,0,0,0,0,0,0,0,-1,1525,1037,0,0
308,-13,0,0,0,0,0,0,0,0,0,-1,1532,1037,0,0
315,-13,0,0,0,0,0,0,0,0,0,-1,1539,1037,0,0
322,-13,0,0,0,0,0,0,0,0,0,-1,1546,1037,0,0
329,-13,0,0,0,0,0,0,0,0,0,-1,1553,1037,0,0
336,-13,0,0,0,0,0,0,0,0,0,-1,1560,1037,0,0
343,-13,0,0,0,0,0,0,0,0,0,-1,1567,1037,0,0
350,-13,0,0,0,0,0,0,0,0,0,-1,1574,1037,0,0
357,-13,0,0,0,0,0,0,0,0,0,-1,1581,1037,0,0
364,-13,0,0,0,0,0,0,0,0,0,-1,1588,1037,0,0
371,-13,0,0,0,0,0,0,0,0,0,-1,1595,1037,0,0
378,-13,0,0,0,0,0,0,0,0,0,-1,1602,1037,0,0
385,-13,0,0,0,0,0,0,0,0,0,-1,1609,1037,0,0
392,-13,0,0,0,0,0,0,0,0,0,-1,1616,1037,0,0
399,-13,0,0,0,0,0,0,0,0,0,-1,1623,1037,0,0
406,-13,0,0,0,0,0,0,0,0,0,-1,1630,1037,0,0
413,-13,0,0,0,0,0,0,0,0,0,-1,1637,1037,0,0
420,-13,0,0,0,0,0,0,0,0,0,-1,1644,1037,0,0
427,-13,0,0,0,0,0,0,0,0,0,-1,1651,1037,0,0
434,-13,0,0,0,0,0,0,0,0,0,-1,1658,1037,0,0
441,-13,0,0,0,0,0,0,0,0,0,-1,1665,1037,0,0
448,-13,0,0,0,0,0,0,0,0,0,-1,1672,1037,0,0
455,-13,0,0,0,0,0,0,0,0,0,-1,1679,1037,0,0
462,-13,0,0,0,0,0,0,0,0,0,-1,1686,1037,0,0
469,-13,0,0,0,0,0,0,0,0,0,-1,1693,1037,0,0
476,-13,0,0,0,0,0,0,0,0,0,-1,1700,1037,0,0
483,-13,0,0,0,0,0,0,0,0,0,-1,1707,1037,0,0
490,-13,0,0,0,0,0,0,0,0,0,-1,1714,1037,0,0
497,-13,0,0,0,0,0,0,0,0,0,-1,1721,1037,0,0
504,-13,0,0,0,0,0,0,0,0,0,-1,1728,1037,0,0
511,-13,0,0,0,0,0,0,0,0,0,-1,1735,1037,0,0
518,-13,0,0,0,0,0,0,0,0,0,-1,1742,1037,0,0
525,-13,0,0,0,0,0,0,0,0,0,-1,1749,1037,0,0
532,-13,0,0,0,0,0,0,0,0,0,-1,1756,1037,0,0
539,-13,0,0,0,0,0,0,0,0,0,-1,1763,1037,0,0
546,-13,0,0,0,0,0,0,0,0,0,-1,1770,1037,0,0
553,-13,0,0,0,0,0,0,0,0,0,-1,1777,1037,0,0
560,-13,0,0,0,0,0,0,0,0,0,-1,1784,1037,0,0
567,-13,0,0,0,0,0,0,0,0,0,-1,1791,1037,0,0
574,-13,0,0,0,0,0,0,0,0,0,-1,1798,1037,0,0
581,-13,0,0,0,0,0,0,0,0,0,-1,1805,1037,0,0
588,-13,0,0,0,0,0,0,0,0,0,-1,1812,1037,0,0
595,-13,0,0,0,0,0,0,0,0,0,-1,1819,1037,0,0
602,-13,0,0,0,0,0,0,0,0,0,-1,1826,1037,0,0
609,-13,0,0,0,0,0,0,0,0,0,-1,1833,1037,0,0
616,-13,0,0,0,0,0,0,0,0,0,-1,1840,1037,0,0
623,-13,0,0,0,0,0,0,0,0,0,-1,1847,1037,0,0
630,-13,0,0,0,0,0,0,0,0,0,-1,1854,1037,0,0
637,-13,0,0,0,0,0,0,0,0,0,-1,1861,1037,0,0
644,-13,0,0,0,0,0,0,0,0,0,-1,1868,1037,0,0
651,-13,20.7166,2.8053,0.00395747,-0.00327443,4.74246e-05,0.00395778,-0.00327474,0.00655732,0.0041819,0.0387509,1875,1037,20.7165,-2.80526
658,-13,20.7939,2.8147,0.00222859,-0.00195452,0.000253009,0.00224384,-0.00196977,0.060191,0.00243444,0.0466202,1882,1037,20.794,-2.81473
665,-13,20.7429,2.78479,0.00102068,-0.00100887,0.000359503,0.00108248,-0.00107067,0.170236,0.00124313,0.0476063,1889,1037,20.7429,-2.78475
672,-13,20.7456,2.64551,0.000265688,-0.000362834,0.000957764,0.000959431,-0.00105658,0.626873,0.00116439,0.0388218,1896,1037,20.7456,-2.64545
679,-13,20.6086,2.76807,-0.000588135,1.60874e-05,0.00220631,0.00194087,-0.00251292,0.85344,0.00257846,0.0384497,1903,1037,20.6087,-2.76808
686,-13,20.5686,2.85046,-0.00144367,0.000163751,0.00353126,0.0029816,-0.00426153,0.897292,0.00420353,0.0414148,1910,1037,20.5686,-2.85049
693,-13,20.6733,2.80884,-0.00211166,0.000158029,0.00473726,0.00389448,-0.0058481,0.902961,0.00566245,0.0390972,1917,1037,20.6733,-2.80887
700,-13,20.7438,2.71277,-0.00264277,0.000128537,0.00573678,0.00464464,-0.00715887,0.903898,0.0068661,0.0333588,1924,1037,20.7438,-2.71282
707,-13,20.6742,2.72229,-0.00324191,9.80499e-05,0.00647205,0.0051121,-0.00825596,0.911659,0.00778887,0.0304309,1931,1037,20.6742,-2.72233
714,-13,20.6644,2.75879,-0.0036947,2.10516e-05,0.00683185,0.00524314,-0.00891678,0.918159,0.00826644,0.0311046,1938,1037,20.6644,-2.75873
721,-13,20.5923,3.31494,-0.00383569,-1.88333e-05,0.0069316,0.00526226,-0.00911679,0.919731,0.00840058,0.039438,1945,1037,20.5922,-3.315
728,-13,20.3677,3.91309,-0.00373716,3.99704e-05,0.00679843,0.00520727,-0.00890446,0.920879,0.00824009,0.030927,1952,1037,20.3677,-3.91313
735,-13,20.3098,3.96716,-0.00373053,0.000237083,0.00616446,0.00472909,-0.00822253,0.941072,0.00756775,0.0182025,1959,1037,20.3098,-3.96719
742,-13,20.2875,3.98352,-0.00393937,0.000553779,0.00504782,0.00383239,-0.00721798,0.994766,0.00647897,0.00986038,1966,1037,20.2874,-3.98349
749,-13,20.3019,3.96997,-0.00406095,0.00020415,0.00346155,0.00213732,-0.00599412,1.06147,0.00486753,0.0137814,1973,1037,20.3019,-3.97
756,-13,20.3132,3.98193,-0.0037322,0.000709104,0.00106938,0.000953178,-0.00397627,1.3464,0.00301915,0.0119595,1980,1037,20.3133,-3.98189
763,-13,20.3043,3.98462,-0.00310831,0.00142038,-0.00177973,0.00203609,-0.00372401,-1.23773,0.00337286,0.0121879,1987,1037,20.3043,-3.98468
770,-13,20.2659,3.98865,-0.00265807,0.00202095,-0.00524747,0.0054268,-0.00606393,-0.995091,0.00663758,0.0115368,1994,1037,20.2658,-3.98868
777,-13,20.2606,3.99829,-0.00210677,0.00274338,-0.00931453,0.00994335,-0.00930675,-0.912748,0.0111161,0.0119883,2001,1037,20.2606,-3.99832
784,-13,20.3124,3.92603,-0.00169239,0.00362663,-0.0138515,0.0150716,-0.0131374,-0.880244,0.0162993,0.0263705,2008,1037,20.3124,-3.92608
791,-13,20.4108,3.69849,-0.0010592,0.00485349,-0.019711,0.0218287,-0.0180344,-0.859835,0.0230497,0.0422716,2015,1037,20.4108,-3.69847
798,-13,20.5862,3.84314,0.000612301,0.00675311,-0.0275009,0.0313545,-0.0239891,-0.840992,0.0320468,0.0415738,2022,1037,20.5862,-3.84319
805,-13,19.3154,-0.000732422,0,0,0,0,0,0,0,-1,2029,1037,19.3154,0.000761816
812,-13,19.5029,-0.331299,0,0,0,0,0,0,0,-1,2036,1037,19.5029,0.331291
-700,-20,-14.6421,-0.278198,0,0,0,0,0,0,0,-1,524,1044,-14.6421,0.27825
-693,-20,-13.9382,-0.0848389,0.0401614,0.00125932,-0.0143573,0.0448863,-0.00346558,-0.31793,0.0311437,0.0481,531,1044,-13.9382,0.0847873
-686,-20,-13.3749,-0.107422,0.0312323,-0.00557354,-0.0106147,0.0340741,-0.00841539,-0.261592,0.0259796,0.0450246,538,1044,-13.3749,0.107442
-679,-20,-11.959,1.92212,0.0234444,-0.00871037,-0.0073672,0.0250519,-0.0103179,-0.21484,0.0210031,0.0474937,545,1044,-11.959,-1.92212
-672,-20,-12.4469,1.52515,0.01699,-0.0095549,-0.00463118,0.0177748,-0.0103397,-0.167862,0.01642,0.0473373,552,1044,-12.4469,-1.5251
-665,-20,-12.9711,0.942017,0.0118483,-0.00900008,-0.00245324,0.0121331,-0.00928487,-0.115567,0.0124021,0.0440041,559,1044,-12.9711,-0.941962
-658,-20,-13.1365,1.76709,0,0,0,0,0,0,0,-1,566,1044,-13.1365,-1.76708
-651,-20,-13.1685,1.46753,0.00492115,-0.00607295,0.00018032,0.0049241,-0.00607591,0.0163956,0.00636245,0.0391152,573,1044,-13.1684,-1.46758
-644,-20,-13.1967,1.46545,0.0028422,-0.00454156,0.000592496,0.00288944,-0.0045888,0.0795647,0.00435457,0.0252183,580,1044,-13.1967,-1.46544
-637,-20,-13.2256,1.49573,0.00106812,-0.00390077,0.000159626,0.00107325,-0.00390589,0.032081,0.0030258,0.0174884,587,1044,-13.2256,-1.49568
-630,-20,-13.2419,1.56262,-0.000587209,-0.00285267,-0.00086291,-0.000295969,-0.00314391,-0.325505,0.00200458,0.0140835,594,1044,-13.2419,-1.56259
-623,-20,-13.2404,1.59412,-0.00100289,-0.0010745,-0.00177196,0.000733624,-0.00281101,-0.775295,0.00216048,0.0123288,601,1044,-13.2404,-1.59406
-616,-20,-13.2348,1.61328,-0.000654766,-9.9952e-05,-0.00271371,0.00235049,-0.00310521,-0.836333,0.00315988,0.010925,608,1044,-13.2348,-1.61331
-609,-20,-13.2241,1.62854,-0.000226762,-0.000487498,-0.00382897,0.00347406,-0.00418832,-0.768381,0.00443028,0.0129172,615,1044,-13.2241,-1.62859
-602,-20,-13.2217,1.63721,-0.000315964,-0.000200497,-0.00517005,0.00491214,-0.0054286,-0.790981,0.00597271,0.0113145,622,1044,-13.2217,-1.6372
-595,-20,-13.2319,1.60242,-0.000539109,-0.000379079,-0.00569025,0.00523172,-0.00614991,-0.792429,0.00657831,0.0137842,629,1044,-13.2319,-1.60236
-588,-20,-13.2196,1.17627,-0.000667316,-0.000447964,-0.00564729,0.00509072,-0.006206,-0.795107,0.00653275,0.0189032,636,1044,-13.2196,-1.17621
-581,-20,-13.274,0.847046,-0.000778956,-0.000398985,-0.00524186,0.00465633,-0.00583427,-0.803512,0.00606947,0.0288668,643,1044,-13.274,-0.847052
-574,-20,-13.304,0.923096,-0.00104962,-0.000183791,-0.00452979,0.00393373,-0.00516714,-0.833039,0.00527045,0.039178,650,1044,-13.304,-0.923077
-567,-20,-13.3174,0.895508,-0.00145904,0.000188696,-0.00331269,0.00277843,-0.00404877,-0.907276,0.00396437,0.04268,657,1044,-13.3174,-0.895565
-560,-20,-13.1929,0.951172,-0.00196324,0.000679316,-0.0015989,0.00143222,-0.00271615,-1.13071,0.002433,0.0450661,664,1044,-13.1929,-0.951144
-553,-20,-13.1188,0.83252,-0.00259672,0.00122912,0.000555355,0.0013081,-0.0026757,1.42952,0.00234479,0.0419926,671,1044,-13.1189,-0.83254
-546,-20,-13.2031,0.760254,-0.00340371,0.00175347,0.00306155,0.00317765,-0.0048279,1.13539,0.00465463,0.0393891,678,1044,-13.2031,-0.760277
-539,-20,-13.2006,1.0575,-0.00426867,0.0021486,0.0053056,0.00514034,-0.00726041,1.05736,0.00719437,0.0424171,685,1044,-13.2006,-1.05753
-532,-20,-13.1388,1.14771,-0.00535839,0.00239422,0.0059826,0.00564654,-0.0086107,1.07286,0.00829051,0.0436939,692,1044,-13.1388,-1.14775
-525,-20,0,0,0,0,0,0,0,0,0,-1,699,1044,0,0
-518,-20,0,0,0,0,0,0,0,0,0,-1,706,1044,0,0
-511,-20,0,0,0,0,0,0,0,0,0,-1,713,1044,0,0
-504,-20,0,0,0,0,0,0,0,0,0,-1,720,1044,0,0
-497,-20,0,0,0,0,0,0,0,0,0,-1,727,1044,0,0
-490,-20,0,0,0,0,0,0,0,0,0,-1,734,1044,0,0
-483,-20,0,0,0,0,0,0,0,0,0,-1,741,1044,0,0
-476,-20,0,0,0,0,0,0,0,0,0,-1,748,1044,0,0
-469,-20,0,0,0,0,0,0,0,0,0,-1,755,1044,0,0
-462,-20,0,0,0,0,0,0,0,0,0,-1,762,1044,0,0
-455,-20,0,0,0,0,0,0,0,0,0,-1,769,1044,0,0
-448,-20,0,0,0,0,0,0,0,0,0,-1,776,1044,0,0
-441,-20,0,0,0,0,0,0,0,0,0,-1,783,1044,0,0
-434,-20,0,0,0,0,0,0,0,0,0,-1,790,1044,0,0
-427,-20,0,0,0,0,0,0,0,0,0,-1,797,1044,0,0
-420,-20,0,0,0,0,0,0,0,0,0,-1,804,1044,0,0
-413,-20,0,0,0,0,0,0,0,0,0,-1,811,1044,0,0
-406,-20,0,0,0,0,0,0,0,0,0,-1,818,1044,0,0
-399,-20,0,0,0,0,0,0,0,0,0,-1,825,1044,0,0
-392,-20,0,0,0,0,0,0,0,0,0,-1,832,1044,0,0
-385,-20,0,0,0,0,0,0,0,0,0,-1,839,1044,0,0
-378,-20,0,0,0,0,0,0,0,0,0,-1,846,1044,0,0
-371,-20,0,0,0,0,0,0,0,0,0,-1,853,1044,0,0
-364,-20,0,0,0,0,0,0,0,0,0,-1,860,1044,0,0
-357,-20,0,0,0,0,0,0,0,0,0,-1,867,1044,0,0
-350,-20,0,0,0,0,0,0,0,0,0,-1,874,1044,0,0
-343,-20,0,0,0,0,0,0,0,0,0,-1,881,1044,0,0
-336,-20,0,0,0,0,0,0,0,0,0,-1,888,1044,0,0
-329,-20,0,0,0,0,0,0,0,0,0,-1,895,1044,0,0
-322,-20,0,0,0,0,0,0,0,0,0,-1,902,1044,0,0
-315,-20,0,0,0,0,0,0,0,0,0,-1,909,1044,0,0
-308,-20,0,0,0,0,0,0,0,0,0,-1,916,1044,0,0
-301,-20,0,0,0,0,0,0,0,0,0,-1,923,1044,0,0
-294,-20,0,0,0,0,0,0,0,0,0,-1,930,1044,0,0
-287,-20,0,0,0,0,0,0,0,0,0,-1,937,1044,0,0
-280,-20,0,0,0,0,0,0,0,0,0,-1,944,1044,0,0
-273,-20,0,0,0,0,0,0,0,0,0,-1,951,1044,0,0
-266,-20,0,0,0,0,0,0,0,0,0,-1,958,1044,0,0
-259,-20,0,0,0,0,0,0,0,0,0,-1,965,1044,0,0
-252,-20,0,0,0,0,0,0,0,0,0,-1,972,1044,0,0
-245,-20,0,0,0,0,0,0,0,0,0,-1,979,1044,0,0
-238,-20,0,0,0,0,0,0,0,0,0,-1,986,1044,0,0
-231,-20,0,0,0,0,0,0,0,0,0,-1,993,1044,0,0
-224,-20,0,0,0,0,0,0,0,0,0,-1,1000,1044,0,0
-217,-20,0,0,0,0,0,0,0,0,0,-1,1007,1044,0,0
-210,-20,0,0,0,0,0,0,0,0,0,-1,1014,1044,0,0
-203,-20,0,0,0,0,0,0,0,0,0,-1,1021,1044,0,0
-196,-20,0,0,0,0,0,0,0,0,0,-1,1028,1044,0,0
-189,-20,0,0,0,0,0,0,0,0,0,-1,1035,1044,0,0
-182,-20,0,0,0,0,0,0,0,0,0,-1,1042,1044,0,0
-175,-20,0,0,0,0,0,0,0,0,0,-1,1049,1044,0,0
-168,-20,0,0,0,0,0,0,0,0,0,-1,1056,1044,0,0
-161,-20,0,0,0,0,0,0,0,0,0,-1,1063,1044,0,0
-154,-20,0,0,0,0,0,0,0,0,0,-1,1070,1044,0,0
-147,-20,0,0,0,0,0,0,0,0,0,-1,1077,1044,0,0
-140,-20,0,0,0,0,0,0,0,0,0,-1,1084,1044,0,0
-133,-20,0,0,0,0,0,0,0,0,0,-1,1091,1044,0,0
-126,-20,0,0,0,0,0,0,0,0,0,-1,1098,1044,0,0
-119,-20,0,0,0,0,0,0,0,0,0,-1,1105,1044,0,0
-112,-20,0,0,0,0,0,0,0,0,0,-1,1112,1044,0,0
-105,-20,0,0,0,0,0,0,0,0,0,-1,1119,1044,0,0
-98,-20,0,0,0,0,0,0,0,0,0,-1,1126,1044,0,0
-91,-20,0,0,0,0,0,0,0,0,0,-1,1133,1044,0,0
-84,-20,0,0,0,0,0,0,0,0,0,-1,1140,1044,0,0
-77,-20,0,0,0,0,0,0,0,0,0,-1,1147,1044,0,0
-70,-20,0,0,0,0,0,0,0,0,0,-1,1154,1044,0,0
-63,-20,0,0,0,0,0,0,0,0,0,-1,1161,1044,0,0
-56,-20,0,0,0,0,0,0,0,0,0,-1,1168,1044,0,0
-49,-20,0,0,0,0,0,0,0,0,0,-1,1175,1044,0,0
-42,-20,0,0,0,0,0,0,0,0,0,-1,1182,1044,0,0
-35,-20,0,0,0,0,0,0,0,0,0,-1,1189,1044,0,0
-28,-20,0,0,0,0,0,0,0,0,0,-1,1196,1044,0,0
-21,-20,0,0,0,0,0,0,0,0,0,-1,1203,1044,0,0
-14,-20,0,0,0,0,0,0,0,0,0,-1,1210,1044,0,0
-7,-20,0,0,0,0,0,0,0,0,0,-1,1217,1044,0,0
0,-20,0,0,0,0,0,0,0,0,0,-1,1224,1044,0,0
7,-20,0,0,0,0,0,0,0,0,0,-1,1231,1044,0,0
14,-20,0,0,0,0,0,0,0,0,0,-1,1238,1044,0,0
21,-20,0,0,0,0,0,0,0,0,0,-1,1245,1044,0,0
28,-20,0,0,0,0,0,0,0,0,0,-1,1252,1044,0,0
35,-20,0,0,0,0,0,0,0,0,0,-1,1259,1044,0,0
42,-20,0,0,0,0,0,0,0,0,0,-1,1266,1044,0,0
49,-20,0,0,0,0,0,0,0,0,0,-1,1273,1044,0,0
56,-20,0,0,0,0,0,0,0,0,0,-1,1280,1044,0,0
63,-20,0,0,0,0,0,0,0,0,0,-1,1287,1044,0,0
70,-20,0,0,0,0,0,0,0,0,0,-1,1294,1044,0,0
77,-20,0,0,0,0,0,0,0,0,0,-1,1301,1044,0,0
84,-20,0,0,0,0,0,0,0,0,0,-1,1308,1044,0,0
91,-20,0,0,0,0,0,0,0,0,0,-1,1315,1044,0,0
98,-20,0,0,0,0,0,0,0,0,0,-1,1322,1044,0,0
105,-20,0,0,0,0,0,0,0,0,0,-1,1329,1044,0,0
112,-20,0,0,0,0,0,0,0,0,0,-1,1336,1044,0,0
119,-20,0,0,0,0,0,0,0,0,0,-1,1343,1044,0,0
126,-20,0,0,0,0,0,0,0,0,0,-1,1350,1044,0,0
133,-20,0,0,0,0,0,0,0,0,0,-1,1357,1044,0,0
140,-20,0,0,0,0,0,0,0,0,0,-1,1364,1044,0,0
147,-20,0,0,0,0,0,0,0,0,0,-1,1371,1044,0,0
154,-20,0,0,0,0,0,0,0,0,0,-1,1378,1044,0,0
161,-20,0,0,0,0,0,0,0,0,0,-1,1385,1044,0,0
168,-20,0,0,0,0,0,0,0,0,0,-1,1392,1044,0,0
175,-20,0,0,0,0,0,0,0,0,0,-1,1399,1044,0,0
182,-20,0,0,0,0,0,0,0,0,0,-1,1406,1044,0,0
189,-20,0,0,0,0,0,0,0,0,0,-1,1413,1044,0,0
196,-20,0,0,0,0,0,0,0,0,0,-1,1420,1044,0,0
203,-20,0,0,0,0,0,0,0,0,0,-1,1427,1044,0,0
210,-20,0,0,0,0,0,0,0,0,0,-1,1434,1044,0,0
217,-20,0,0,0,0,0,0,0,0,0,-1,1441,1044,0,0
224,-20,0,0,0,0,0,0,0,0,0,-1,1448,1044,0,0
231,-20,0,0,0,0,0,0,0,0,0,-1,1455,1044,0,0
238,-20,0,0,0,0,0,0,0,0,0,-1,1462,1044,0,0
245,-20,0,0,0,0,0,0,0,0,0,-1,1469,1044,0,0
252,-20,0,0,0,0,0,0,0,0,0,-1,1476,1044,0,0
259,-20,0,0,0,0,0,0,0,0,0,-1,1483,1044,0,0
266,-20,0,0,0,0,0,0,0,0,0,-1,1490,1044,0,0
273,-20,0,0,0,0,0,0,0,0,0,-1,1497,1044,0,0
280,-20,0,0,0,0,0,0,0,0,0,-1,1504,1044,0,0
287,-20,0,0,0,0,0,0,0,0,0,-1,1511,1044,0,0
294,-20,0,0,0,0,0,0,0,0,0,-1,1518,1044,0,0
301,-20,0,0,0,0,0,0,0,0,0,-1,1525,1044,0,0
308,-20,0,0,0,0,0,0,0,0,0,-1,1532,1044,0,0
315,-20,0,0,0,0,0,0,0,0,0,-1,1539,1044,0,0
322,-20,0,0,0,0,0,0,0,0,0,-1,1546,1044,0,0
329,-20,0,0,0,0,0,0,0,0,0,-1,1553,1044,0,0
336,-20,0,0,0,0,0,0,0,0,0,-1,1560,1044,0,0
343,-20,0,0,0,0,0,0,0,0,0,-1,1567,1044,0,0
350,-20,0,0,0,0,0,0,0,0,0,-1,1574,1044,0,0
357,-20,0,0,0,0,0,0,0,0,0,-1,1581,1044,0,0
364,-20,0,0,0,0,0,0,0,0,0,-1,1588,1044,0,0
371,-20,0,0,0,0,0,0,0,0,0,-1,1595,1044,0,0
378,-20,0,0,0,0,0,0,0,0,0,-1,1602,1044,0,0
385,-20,0,0,0,0,0,0,0,0,0,-1,1609,1044,0,0
392,-20,0,0,0,0,0,0,0,0,0,-1,1616,1044,0,0
399,-20,0,0,0,0,0,0,0,0,0,-1,1623,1044,0,0
406,-20,0,0,0,0,0,0,0,0,0,-1,1630,1044,0,0
413,-20,0,0,0,0,0,0,0,0,0,-1,1637,1044,0,0
420,-20,0,0,0,0,0,0,0,0,0,-1,1644,1044,0,0
427,-20,0,0,0,0,0,0,0,0,0,-1,1651,1044,0,0
434,-20,0,0,0,0,0,0,0,0,0,-1,1658,1044,0,0
441,-20,0,0,0,0,0,0,0,0,0,-1,1665,1044,0,0
448,-20,0,0,0,0,0,0,0,0,0,-1,1672,1044,0,0
455,-20,0,0,0,0,0,0,0,0,0,-1,1679,1044,0,0
462,-20,0,0,0,0,0,0,0,0,0,-1,1686,1044,0,0
469,-20,0,0,0,0,0,0,0,0,0,-1,1693,1044,0,0
476,-20,0,0,0,0,0,0,0,0,0,-1,1700,1044,0,0
483,-20,0,0,0,0,0,0,0,0,0,-1,1707,1044,0,0
490,-20,0,0,0,0,0,0,0,0,0,-1,1714,1044,0,0
497,-20,0,0,0,0,0,0,0,0,0,-1,1721,1044,0,0
504,-20,0,0,0,0,0,0,0,0,0,-1,1728,1044,0,0
511,-20,0,0,0,0,0,0,0,0,0,-1,1735,1044,0,0
518,-20,0,0,0,0,0,0,0,0,0,-1,1742,1044,0,0
525,-20,0,0,0,0,0,0,0,0,0,-1,1749,1044,0,0
532,-20,0,0,0,0,0,0,0,0,0,-1,1756,1044,0,0
539,-20,0,0,0,0,0,0,0,0,0,-1,1763,1044,0,0
546,-20,0,0,0,0,0,0,0,0,0,-1,1770,1044,0,0
553,-20,0,0,0,0,0,0,0,0,0,-1,1777,1044,0,0
560,-20,0,0,0,0,0,0,0,0,0,-1,1784,1044,0,0
567,-20,0,0,0,0,0,0,0,0,0,-1,1791,1044,0,0
574,-20,0,0,0,0,0,0,0,0,0,-1,1798,1044,0,0
581,-20,0,0,0,0,0,0,0,0,0,-1,1805,1044,0,0
588,-20,0,0,0,0,0,0,0,0,0,-1,1812,1044,0,0
595,-20,0,0,0,0,0,0,0,0,0,-1,1819,1044,0,0
602,-20,0,0,0,0,0,0,0,0,0,-1,1826,1044,0,0
609,-20,0,0,0,0,0,0,0,0,0,-1,1833,1044,0,0
616,-20,0,0,0,0,0,0,0,0,0,-1,1840,1044,0,0
623,-20,0,0,0,0,0,0,0,0,0,-1,1847,1044,0,0
630,-20,0,0,0,0,0,0,0,0,0,-1,1854,1044,0,0
637,-20,0,0,0,0,0,0,0,0,0,-1,1861,1044,0,0
644,-20,0,0,0,0,0,0,0,0,0,-1,1868,1044,0,0
651,-20,20.7014,2.69336,0.00430902,-0.00175911,0.00017218,0.0043139,-0.001764,0.0283441,0.00361055,0.0414486,1875,1044,20.7015,-2.69332
658,-20,20.7401,2.73975,0.00249473,-0.000677059,0.000274782,0.00251836,-0.000700688,0.0857814,0.00195479,0.0461704,1882,1044,20.7401,-2.73977
665,-20,20.6735,2.76868,0.00125244,6.31007e-05,0.000334306,0.00133997,-2.44266e-05,0.25607,0.000901563,0.0429156,1889,1044,20.6735,-2.76873
672,-20,20.6395,2.76648,0.0004874,0.000527767,0.00093322,0.00144102,-0.000425855,0.79621,0.00112971,0.0263423,1896,1044,20.6396,-2.76643
679,-20,20.6432,2.76331,-0.000373716,0.000734229,0.00223461,0.00248251,-0.002122,0.906901,0.00266113,0.029492,1903,1044,20.6432,-2.76327
686,-20,20.6371,2.84314,-0.00125578,0.00072729,0.00363642,0.00350493,-0.00403343,0.918497,0.00435584,0.0400554,1910,1044,20.6371,-2.84318
693,-20,20.6812,2.755,-0.00195296,0.000586907,0.0049175,0.00439581,-0.00576186,0.911761,0.00588218,0.0415683,1917,1044,20.6812,-2.75506
700,-20,20.7324,2.62317,-0.00251439,0.000430697,0.00599673,0.00513303,-0.00721672,0.905795,0.00716388,0.036084,1924,1044,20.7324,-2.62318
707,-20,20.6759,2.64465,-0.00315299,0.000291973,0.00677436,0.00555941,-0.00842042,0.909892,0.00812741,0.031204,1931,1044,20.6759,-2.64467
714,-20,20.6952,2.76367,-0.0036106,0.000143453,0.00718373,0.00569133,-0.00915848,0.913186,0.00865108,0.0275759,1938,1044,20.6952,-2.76363
721,-20,20.7152,3.01147,-0.00376214,3.27157e-05,0.00731378,0.00569119,-0.00942062,0.912316,0.00881293,0.0246845,1945,1044,20.7152,-3.01144
728,-20,20.5112,3.63733,-0.00369446,3.54237e-05,0.00717523,0.00558411,-0.00924315,0.912542,0.00864697,0.0219827,1952,1044,20.5112,-3.63738
735,-20,20.2642,3.94006,-0.00372004,0.00016036,0.00655911,0.00506021,-0.00861989,0.929199,0.00798684,0.0160845,1959,1044,20.2642,-3.94005
742,-20,20.2932,3.98071,-0.00395319,0.000381527,0.00551506,0.00413982,-0.00771148,0.972622,0.00694515,0.0136933,1966,1044,20.2932,-3.98076
749,-20,20.3219,3.95886,-0.00412099,-1.64309e-05,0.00393814,0.0023721,-0.00650952,1.0256,0.00531003,0.0152284,1973,1044,20.3219,-3.95887
756,-20,20.3236,3.96777,-0.00379484,0.000388575,0.00158598,0.000921859,-0.00432812,1.24642,0.00323676,0.0114847,1980,1044,20.3236,-3.96772
763,-20,20.3043,3.96826,-0.00309796,0.00086038,-0.00102992,0.00111232,-0.0033499,-1.33089,0.00268206,0.0131304,1987,1044,20.3043,-3.96826
770,-20,20.2712,3.98132,-0.00260716,0.00120839,-0.00422819,0.00393928,-0.00533805,-0.997326,0.00537653,0.0130484,1994,1044,20.2712,-3.98134
777,-20,20.2478,3.9834,-0.00196285,0.00156024,-0.00788154,0.00787469,-0.00827731,-0.895342,0.00932633,0.0122148,2001,1044,20.2478,-3.98343
784,-20,20.276,3.98132,-0.00137221,0.00191005,-0.0118142,0.0121965,-0.0116587,-0.854412,0.013774,0.0166787,2008,1044,20.276,-3.98128
791,-20,20.3118,4.15234,-0.000474463,0.0023867,-0.0168038,0.0178207,-0.0159085,-0.827863,0.019484,0.0348896,2015,1044,20.3118,-4.1524
798,-20,20.3213,4.40466,0,0,0,0,0,0,0,-1,2022,1044,20.3213,-4.40472
805,-20,20.2529,3.31055,0,0,0,0,0,0,0,-1,2029,1044,20.2531,-3.31056
812,-20,20.5322,3.08984,0,0,0,0,0,0,0,-1,2036,1044,20.5323,-3.08981
-700,-27,-14.3998,-0.990234,0,0,0,0,0,0,0,-1,524,1051,-14.3998,0.990252
-693,-27,-13.6508,-0.785522,0.0379476,0.00683361,-0.0162584,0.044893,-0.000111768,-0.403721,0.029966,0.0483999,531,1051,-13.6508,0.785539
-686,-27,-12.8995,-0.967896,0.0298717,-0.00173145,-0.0130176,0.0345432,-0.00640299,-0.344548,0.0254332,0.0450812,538,1051,-12.8995,0.96788
-679,-27,-11.1926,2.24573,0,0,0,0,0,0,0,-1,545,1051,-11.1926,-2.24578
-672,-27,-11.6463,1.79944,0.0166717,-0.00819301,-0.0072177,0.018615,-0.0101363,-0.263,0.0168384,0.0457332,552,1051,-11.6463,-1.79941
-665,-27,-12.6643,0.931763,0.011787,-0.0084336,-0.00486129,0.012895,-0.00954161,-0.224095,0.0130019,0.0458785,559,1051,-12.6643,-0.931791
-658,-27,-13.4887,0.13147,0,0,0,0,0,0,0,-1,566,1051,-13.4887,-0.131458
-651,-27,-13.1437,1.48499,0.00504964,-0.00635002,-0.00158116,0.00526489,-0.00656526,-0.1353,0.00684388,0.0333682,573,1051,-13.1438,-1.48496
-644,-27,-13.1741,1.46326,0.00296276,-0.00492734,-0.000738433,0.00303128,-0.00499586,-0.0925192,0.00468051,0.0154192,580,1051,-13.1741,-1.46321
-637,-27,-13.191,1.46497,0.00125199,-0.00451205,-0.000866945,0.00137956,-0.00463962,-0.146101,0.00364112,0.0127453,587,1051,-13.191,-1.46501
-630,-27,-13.2283,1.54541,-0.000518552,-0.0033919,-0.00168039,0.000255599,-0.00416606,-0.431714,0.00286637,0.0175497,594,1051,-13.2283,-1.5454
-623,-27,-13.2186,1.59912,-0.00106726,-0.00160371,-0.00234543,0.00102524,-0.00369621,-0.728466,0.00286764,0.0148373,601,1051,-13.2185,-1.59909
-616,-27,-13.1923,1.63806,-0.00081094,-0.000538723,-0.00304621,0.00237442,-0.00372408,-0.807724,0.00354959,0.0116218,608,1051,-13.1923,-1.63811
-609,-27,-13.2075,1.64758,-0.000424465,-0.000588013,-0.00403167,0.00352626,-0.00453874,-0.775258,0.00466855,0.0125444,615,1051,-13.2075,-1.64754
-602,-27,-13.2,1.67407,-0.000556053,-0.000291494,-0.005358,0.00493586,-0.00578341,-0.79774,0.00619522,0.0112145,622,1051,-13.1999,-1.67408
-595,-27,-13.2301,1.88306,0,0,0,0,0,0,0,-1,629,1051,-13.2301,-1.88308
-588,-27,-13.2322,1.26477,-0.000948185,-0.000469083,-0.00590543,0.00520165,-0.00661892,-0.805669,0.00684094,0.0152578,636,1051,-13.2322,-1.26474
-581,-27,-13.2041,0.850464,-0.00109041,-0.000361566,-0.0055361,0.00482209,-0.00627407,-0.818264,0.00642462,0.0212972,643,1051,-13.2041,-0.85045
-574,-27,-13.2597,0.837524,-0.00135807,-7.37111e-05,-0.00485889,0.00418525,-0.00561703,-0.8511,0.00567944,0.0355401,650,1051,-13.2597,-0.837525
-567,-27,-13.0709,0.785156,-0.00175144,0.000390332,-0.00365567,0.00312874,-0.00448984,-0.927881,0.00442193,0.0432694,657,1051,-13.0709,-0.785151
-560,-27,-13.0704,0.915283,-0.00223005,0.000992697,-0.0019246,0.00189143,-0.00312878,-1.13392,0.00292762,0.0447842,664,1051,-13.0704,-0.915251
-553,-27,-13.1734,0.857666,-0.002837,0.00167347,0.000283029,0.00169116,-0.0028547,1.50837,0.00265305,0.0392176,671,1051,-13.1734,-0.857662
-546,-27,-13.1605,0.60144,-0.00363979,0.00233831,0.00288507,0.00350354,-0.00480502,1.18695,0.00481653,0.0408019,678,1051,-13.1605,-0.601428
-539,-27,-13.0637,0.954102,-0.00455119,0.00287284,0.00524022,0.00558258,-0.00726093,1.09356,0.00743628,0.0438532,685,1051,-13.0637,-0.954048
-532,-27,-13.1462,1.19031,-0.00580417,0.00314799,0.00596423,0.00612894,-0.00878512,1.1073,0.00865604,0.0435086,692,1051,-13.1462,-1.19034
-525,-27,0,0,0,0,0,0,0,0,0,-1,699,1051,0,0
-518,-27,0,0,0,0,0,0,0,0,0,-1,706,1051,0,0
-511,-27,0,0,0,0,0,0,0,0,0,-1,713,1051,0,0
-504,-27,0,0,0,0,0,0,0,0,0,-1,720,1051,0,0
-497,-27,0,0,0,0,0,0,0,0,0,-1,727,1051,0,0
-490,-27,0,0,0,0,0,0,0,0,0,-1,734,1051,0,0
-483,-27,0,0,0,0,0,0,0,0,0,-1,741,1051,0,0
-476,-27,0,0,0,0,0,0,0,0,0,-1,748,1051,0,0
-469,-27,0,0,0,0,0,0,0,0,0,-1,755,1051,0,0
-462,-27,0,0,0,0,0,0,0,0,0,-1,762,1051,0,0
-455,-27,0,0,0,0,0,0,0,0,0,-1,769,1051,0,0
-448,-27,0,0,0,0,0,0,0,0,0,-1,776,1051,0,0
-441,-27,0,0,0,0,0,0,0,0,0,-1,783,1051,0,0
-434,-27,0,0,0,0,0,0,0,0,0,-1,790,1051,0,0
-427,-27,0,0,0,0,0,0,0,0,0,-1,797,1051,0,0
-420,-27,0,0,0,0,0,0,0,0,0,-1,804,1051,0,0
-413,-27,0,0,0,0,0,0,0,0,0,-1,811,1051,0,0
-406,-27,0,0,0,0,0,0,0,0,0,-1,818,1051,0,0
-399,-27,0,0,0,0,0,0,0,0,0,-1,825,1051,0,0
-392,-27,0,0,0,0,0,0,0,0,0,-1,832,1051,0,0
-385,-27,0,0,0,0,0,0,0,0,0,-1,839,1051,0,0
-378,-27,0,0,0,0,0,0,0,0,0,-1,846,1051,0,0
-371,-27,0,0,0,0,0,0,0,0,0,-1,853,1051,0,0
-364,-27,0,0,0,0,0,0,0,0,0,-1,860,1051,0,0
-357,-27,0,0,0,0,0,0,0,0,0,-1,867,1051,0,0
-350,-27,0,0,0,0,0,0,0,0,0,-1,874,1051,0,0
-343,-27,0,0,0,0,0,0,0,0,0,-1,881,1051,0,0
-336,-27,0,0,0,0,0,0,0,0,0,-1,888,1051,0,0
-329,-27,0,0,0,0,0,0,0,0,0,-1,895,1051,0,0
-322,-27,0,0,0,0,0,0,0,0,0,-1,902,1051,0,0
-315,-27,0,0,0,0,0,0,0,0,0,-1,909,1051,0,0
-308,-27,0,0,0,0,0,0,0,0,0,-1,916,1051,0,0
-301,-27,0,0,0,0,0,0,0,0,0,-1,923,1051,0,0
-294,-27,0,0,0,0,0,0,0,0,0,-1,930,1051,0,0
-287,-27,0,0,0,0,0,0,0,0,0,-1,937,1051,0,0
-280,-27,0,0,0,0,0,0,0,0,0,-1,944,1051,0,0
-273,-27,0,0,0,0,0,0,0,0,0,-1,951,1051,0,0
-266,-27,0,0,0,0,0,0,0,0,0,-1,958,1051,0,0
-259,-27,0,0,0,0,0,0,0,0,0,-1,965,1051,0,0
-252,-27,0,0,0,0,0,0,0,0,0,-1,972,1051,0,0
-245,-27,0,0,0,0,0,0,0,0,0,-1,979,1051,0,0
-238,-27,0,0,0,0,0,0,0,0,0,-1,986,1051,0,0
-231,-27,0,0,0,0,0,0,0,0,0,-1,993,1051,0,0
-224,-27,0,0,0,0,0,0,0,0,0,-1,1000,1051,0,0
-217,-27,0,0,0,0,0,0,0,0,0,-1,1007,1051,0,0
-210,-27,0,0,0,0,0,0,0,0,0,-1,1014,1051,0,0
-203,-27,0,0,0,0,0,0,0,0,0,-1,1021,1051,0,0
-196,-27,0,0,0,0,0,0,0,0,0,-1,1028,1051,0,0
-189,-27,0,0,0,0,0,0,0,0,0,-1,1035,1051,0,0
-182,-27,0,0,0,0,0,0,0,0,0,-1,1042,1051,0,0
-175,-27,0,0,0,0,0,0,0,0,0,-1,1049,1051,0,0
-168,-27,0,0,0,0,0,0,0,0,0,-1,1056,1051,0,0
-161,-27,0,0,0,0,0,0,0,0,0,-1,1063,1051,0,0
-154,-27,0,0,0,0,0,0,0,0,0,-1,1070,1051,0,0
-147,-27,0,0,0,0,0,0,0,0,0,-1,1077,1051,0,0
-140,-27,0,0,0,0,0,0,0,0,0,-1,1084,1051,0,0
-133,-27,0,0,0,0,0,0,0,0,0,-1,1091,1051,0,0
-126,-27,0,0,0,0,0,0,0,0,0,-1,1098,1051,0,0
-119,-27,0,0,0,0,0,0,0,0,0,-1,1105,1051,0,0
-112,-27,0,0,0,0,0,0,0,0,0,-1,1112,1051,0,0
-105,-27,0,0,0,0,0,0,0,0,0,-1,1119,1051,0,0
-98,-27,0,0,0,0,0,0,0,0,0,-1,1126,1051,0,0
-91,-27,0,0,0,0,0,0,0,0,0,-1,1133,1051,0,0
-84,-27,0,0,0,0,0,0,0,0,0,-1,1140,1051,0,0
-77,-27,0,0,0,0,0,0,0,0,0,-1,1147,1051,0,0
-70,-27,0,0,0,0,0,0,0,0,0,-1,1154,1051,0,0
-63,-27,0,0,0,0,0,0,0,0,0,-1,1161,1051,0,0
-56,-27,0,0,0,0,0,0,0,0,0,-1,1168,1051,0,0
-49,-27,0,0,0,0,0,0,0,0,0,-1,1175,1051,0,0
-42,-27,0,0,0,0,0,0,0,0,0,-1,1182,1051,0,0
-35,-27,0,0,0,0,0,0,0,0,0,-1,1189,1051,0,0
-28,-27,0,0,0,0,0,0,0,0,0,-1,1196,1051,0,0
-21,-27,0,0,0,0,0,0,0,0,0,-1,1203,1051,0,0
-14,-27,0,0,0,0,0,0,0,0,0,-1,1210,1051,0,0
-7,-27,0,0,0,0,0,0,0,0,0,-1,1217,1051,0,0
0,-27,0,0,0,0,0,0,0,0,0,-1,1224,1051,0,0
7,-27,0,0,0,0,0,0,0,0,0,-1,1231,1051,0,0
14,-27,0,0,0,0,0,0,0,0,0,-1,1238,1051,0,0
21,-27,0,0,0,0,0,0,0,0,0,-1,1245,1051,0,0
28,-27,0,0,0,0,0,0,0,0,0,-1,1252,1051,0,0
35,-27,0,0,0,0,0,0,0,0,0,-1,1259,1051,0,0
42,-27,0,0,0,0,0,0,0,0,0,-1,1266,1051,0,0
49,-27,0,0,0,0,0,0,0,0,0,-1,1273,1051,0,0
56,-27,0,0,0,0,0,0,0,0,0,-1,1280,1051,0,0
63,-27,0,0,0,0,0,0,0,0,0,-1,1287,1051,0,0
70,-27,0,0,0,0,0,0,0,0,0,-1,1294,1051,0,0
77,-27,0,0,0,0,0,0,0,0,0,-1,1301,1051,0,0
84,-27,0,0,0,0,0,0,0,0,0,-1,1308,1051,0,0
91,-27,0,0,0,0,0,0,0,0,0,-1,1315,1051,0,0
98,-27,0,0,0,0,0,0,0,0,0,-1,1322,1051,0,0
105,-27,0,0,0,0,0,0,0,0,0,-1,1329,1051,0,0
112,-27,0,0,0,0,0,0,0,0,0,-1,1336,1051,0,0
119,-27,0,0,0,0,0,0,0,0,0,-1,1343,1051,0,0
126,-27,0,0,0,0,0,0,0,0,0,-1,1350,1051,0,0
133,-27,0,0,0,0,0,0,0,0,0,-1,1357,1051,0,0
140,-27,0,0,0,0,0,0,0,0,0,-1,1364,1051,0,0
147,-27,0,0,0,0,0,0,0,0,0,-1,1371,1051,0,0
154,-27,0,0,0,0,0,0,0,0,0,-1,1378,1051,0,0
161,-27,0,0,0,0,0,0,0,0,0,-1,1385,1051,0,0
168,-27,0,0,0,0,0,0,0,0,0,-1,1392,1051,0,0
175,-27,0,0,0,0,0,0,0,0,0,-1,1399,1051,0,0
182,-27,0,0,0,0,0,0,0,0,0,-1,1406,1051,0,0
189,-27,0,0,0,0,0,0,0,0,0,-1,1413,1051,0,0
196,-27,0,0,0,0,0,0,0,0,0,-1,1420,1051,0,0
203,-27,0,0,0,0,0,0,0,0,0,-1,1427,1051,0,0
210,-27,0,0,0,0,0,0,0,0,0,-1,1434,1051,0,0
217,-27,0,0,0,0,0,0,0,0,0,-1,1441,1051,0,0
224,-27,0,0,0,0,0,0,0,0,0,-1,1448,1051,0,0
231,-27,0,0,0,0,0,0,0,0,0,-1,1455,1051,0,0
238,-27,0,0,0,0,0,0,0,0,0,-1,1462,1051,0,0
245,-27,0,0,0,0,0,0,0,0,0,-1,1469,1051,0,0
252,-27,0,0,0,0,0,0,0,0,0,-1,1476,1051,0,0
259,-27,0,0,0,0,0,0,0,0,0,-1,1483,1051,0,0
266,-27,0,0,0,0,0,0,0,0,0,-1,1490,1051,0,0
273,-27,0,0,0,0,0,0,0,0,0,-1,1497,1051,0,0
280,-27,0,0,0,0,0,0,0,0,0,-1,1504,1051,0,0
287,-27,0,0,0,0,0,0,0,0,0,-1,1511,1051,0,0
294,-27,0,0,0,0,0,0,0,0,0,-1,1518,1051,0,0
301,-27,0,0,0,0,0,0,0,0,0,-1,1525,1051,0,0
308,-27,0,0,0,0,0,0,0,0,0,-1,1532,1051,0,0
315,-27,0,0,0,0,0,0,0,0,0,-1,1539,1051,0,0
322,-27,0,0,0,0,0,0,0,0,0,-1,1546,1051,0,0
329,-27,0,0,0,0,0,0,0,0,0,-1,1553,1051,0,0
336,-27,0,0,0,0,0,0,0,0,0,-1,1560,1051,0,0
343,-27,0,0,0,0,0,0,0,0,0,-1,1567,1051,0,0
350,-27,0,0,0,0,0,0,0,0,0,-1,1574,1051,0,0
357,-27,0,0,0,0,0,0,0,0,0,-1,1581,1051,0,0
364,-27,0,0,0,0,0,0,0,0,0,-1,1588,1051,0,0
371,-27,0,0,0,0,0,0,0,0,0,-1,1595,1051,0,0
378,-27,0,0,0,0,0,0,0,0,0,-1,1602,1051,0,0
385,-27,0,0,0,0,0,0,0,0,0,-1,1609,1051,0,0
392,-27,0,0,0,0,0,0,0,0,0,-1,1616,1051,0,0
399,-27,0,0,0,0,0,0,0,0,0,-1,1623,1051,0,0
406,-27,0,0,0,0,0,0,0,0,0,-1,1630,1051,0,0
413,-27,0,0,0,0,0,0,0,0,0,-1,1637,1051,0,0
420,-27,0,0,0,0,0,0,0,0,0,-1,1644,1051,0,0
427,-27,0,0,0,0,0,0,0,0,0,-1,1651,1051,0,0
434,-27,0,0,0,0,0,0,0,0,0,-1,1658,1051,0,0
441,-27,0,0,0,0,0,0,0,0,0,-1,1665,1051,0,0
448,-27,0,0,0,0,0,0,0,0,0,-1,1672,1051,0,0
455,-27,0,0,0,0,0,0,0,0,0,-1,1679,1051,0,0
462,-27,0,0,0,0,0,0,0,0,0,-1,1686,1051,0,0
469,-27,0,0,0,0,0,0,0,0,0,-1,1693,1051,0,0
476,-27,0,0,0,0,0,0,0,0,0,-1,1700,1051,0,0
483,-27,0,0,0,0,0,0,0,0,0,-1,1707,1051,0,0
490,-27,0,0,0,0,0,0,0,0,0,-1,1714,1051,0,0
497,-27,0,0,0,0,0,0,0,0,0,-1,1721,1051,0,0
504,-27,0,0,0,0,0,0,0,0,0,-1,1728,1051,0,0
511,-27,0,0,0,0,0,0,0,0,0,-1,1735,1051,0,0
518,-27,0,0,0,0,0,0,0,0,0,-1,1742,1051,0,0
525,-27,0,0,0,0,0,0,0,0,0,-1,1749,1051,0,0
532,-27,0,0,0,0,0,0,0,0,0,-1,1756,1051,0,0
539,-27,0,0,0,0,0,0,0,0,0,-1,1763,1051,0,0
546,-27,0,0,0,0,0,0,0,0,0,-1,1770,1051,0,0
553,-27,0,0,0,0,0,0,0,0,0,-1,1777,1051,0,0
560,-27,0,0,0,0,0,0,0,0,0,-1,1784,1051,0,0
567,-27,0,0,0,0,0,0,0,0,0,-1,1791,1051,0,0
574,-27,0,0,0,0,0,0,0,0,0,-1,1798,1051,0,0
581,-27,0,0,0,0,0,0,0,0,0,-1,1805,1051,0,0
588,-27,0,0,0,0,0,0,0,0,0,-1,1812,1051,0,0
595,-27,0,0,0,0,0,0,0,0,0,-1,1819,1051,0,0
602,-27,0,0,0,0,0,0,0,0,0,-1,1826,1051,0,0
609,-27,0,0,0,0,0,0,0,0,0,-1,1833,1051,0,0
616,-27,0,0,0,0,0,0,0,0,0,-1,1840,1051,0,0
623,-27,0,0,0,0,0,0,0,0,0,-1,1847,1051,0,0
630,-27,0,0,0,0,0,0,0,0,0,-1,1854,1051,0,0
637,-27,0,0,0,0,0,0,0,0,0,-1,1861,1051,0,0
644,-27,0,0,0,0,0,0,0,0,0,-1,1868,1051,0,0
651,-27,20.7174,2.70374,0.00449055,-0.000653744,0.000294489,0.00450735,-0.000670547,0.0569975,0.00325155,0.0419592,1875,1051,20.7175,-2.7037
658,-27,20.8428,2.69739,0.00270415,6.52333e-05,0.000257722,0.00272908,4.02991e-05,0.096448,0.0018061,0.042683,1882,1051,20.8427,-2.69741
665,-27,20.7278,2.78296,0.0014811,0.000536773,0.000260548,0.00154822,0.000469656,0.252118,0.00091662,0.0384595,1889,1051,20.7278,-2.78301
672,-27,20.6997,2.7373,0.000729234,0.000806932,0.000844368,0.00161334,-7.71779e-05,0.808387,0.00110219,0.0296524,1896,1051,20.6997,-2.73729
679,-27,20.6284,2.65808,-0.00013231,0.000859319,0.00216441,0.00258398,-0.00185697,0.897993,0.00257541,0.0298204,1903,1051,20.6285,-2.65804
686,-27,20.7139,2.58435,-0.00103708,0.000742478,0.00360324,0.00356417,-0.00385877,0.906446,0.00428676,0.0413889,1910,1051,20.7138,-2.58433
693,-27,20.7891,2.50647,-0.00175814,0.000526522,0.00492128,0.00443631,-0.00566793,0.899439,0.00584811,0.043311,1917,1051,20.7891,-2.50644
700,-27,20.6964,2.64111,-0.0023481,0.000311409,0.00603641,0.0051628,-0.00719949,0.893811,0.00716958,0.0388322,1924,1051,20.6964,-2.64106
707,-27,20.6497,2.71472,-0.00301291,0.000122467,0.00683316,0.00556546,-0.00845591,0.898159,0.00815238,0.0250282,1931,1051,20.6496,-2.71469
714,-27,20.697,2.81323,-0.00347676,-2.50926e-05,0.00727394,0.00572495,-0.00922679,0.901876,0.00871095,0.0217367,1938,1051,20.697,-2.81319
721,-27,20.7418,3.03772,-0.00364261,-0.000140202,0.00742703,0.00573929,-0.00952209,0.901177,0.00890093,0.02488,1945,1051,20.7418,-3.03767
728,-27,20.5435,3.66724,-0.00362312,-0.000126021,0.00729984,0.00563177,-0.00938091,0.90295,0.0087572,0.0263953,1952,1051,20.5435,-3.66719
735,-27,20.2455,3.96509,-0.00369588,-1.64858e-06,0.0067246,0.00512491,-0.00882243,0.919433,0.00814628,0.0163674,1959,1051,20.2455,-3.96506
742,-27,20.2573,3.98083,-0.0039579,0.000240152,0.00572884,0.00424239,-0.00796014,0.961002,0.0071533,0.0162341,1966,1051,20.2573,-3.98086
749,-27,20.3044,3.98291,-0.00420204,-9.42442e-05,0.00415382,0.00248572,-0.00678201,1.015,0.00553906,0.0121049,1973,1051,20.3044,-3.98287
756,-27,20.3066,3.98779,-0.00388539,0.000333124,0.00181225,0.00100473,-0.004557,1.21589,0.00342243,0.0112496,1980,1051,20.3066,-3.98782
763,-27,20.3021,3.9458,-0.00310707,0.000705043,-0.000645356,0.000811332,-0.00321336,-1.40756,0.00245774,0.0124856,1987,1051,20.3022,-3.9458
770,-27,20.2501,3.92432,-0.00257319,0.000983848,-0.0036954,0.00330644,-0.00489578,-1.00968,0.0047651,0.0148683,1994,1051,20.2501,-3.92433
777,-27,20.2349,3.96692,-0.00181047,0.00120434,-0.00712212,0.00697684,-0.00758296,-0.889685,0.00840853,0.0154987,2001,1051,20.2348,-3.96691
784,-27,20.2043,3.98462,-0.000977084,0.00132354,-0.0107265,0.0109612,-0.0106147,-0.838814,0.0124574,0.0228653,2008,1051,20.2044,-3.98467
791,-27,20.2593,4.18738,0.000334645,0.00141917,-0.0152304,0.0161169,-0.0143631,-0.803193,0.0176073,0.042196,2015,1051,20.2593,-4.18734
798,-27,20.3967,4.56738,0,0,0,0,0,0,0,-1,2022,1051,20.3968,-4.56732
805,-27,20.7405,3.17578,0,0,0,0,0,0,0,-1,2029,1051,20.7404,-3.17576
812,-27,21.0508,2.95227,0,0,0,0,0,0,0,-1,2036,1051,21.0508,-2.95229
-700,-34,-12.334,-1.63171,0,0,0,0,0,0,0,-1,524,1058,-12.3341,1.63175
-693,-34,-13.3595,-1.40454,0,0,0,0,0,0,0,-1,531,1058,-13.3595,1.40454
-686,-34,-12.3564,-1.31323,0.0276174,0.000883447,-0.0147593,0.0341631,-0.00566224,-0.417431,0.0248785,0.0474743,538,1058,-12.3564,1.31325
-679,-34,-11.991,-1.64258,0,0,0,0,0,0,0,-1,545,1058,-11.991,1.64255
-672,-34,-10.899,1.92847,0,0,0,0,0,0,0,-1,552,1058,-10.899,-1.92848
-665,-34,-12.5056,0.68042,0,0,0,0,0,0,0,-1,559,1058,-12.5056,-0.680375
-658,-34,-13.0801,0.751953,0.00768183,-0.00664623,-0.00443649,0.00894429,-0.00790869,-0.277235,0.00973619,0.0408888,566,1058,-13.0801,-0.752011
-651,-34,-13.0905,1.4502,0.00496633,-0.00564128,-0.00282421,0.00567139,-0.00634635,-0.244649,0.00694209,0.0277029,573,1058,-13.0904,-1.45015
-644,-34,-13.1561,1.42468,0.0029671,-0.0044438,-0.00170226,0.0033394,-0.0048161,-0.215319,0.00473424,0.0115044,580,1058,-13.1561,-1.42465
-637,-34,-13.1705,1.43115,0.00136589,-0.00427426,-0.00160922,0.00179272,-0.0047011,-0.259272,0.00387252,0.0124521,587,1058,-13.1705,-1.43112
-630,-34,-13.2122,1.50916,-0.00040854,-0.00326213,-0.00229638,0.000868204,-0.00453888,-0.507423,0.003353,0.0153834,594,1058,-13.2122,-1.5091
-623,-34,-13.1624,1.57703,-0.00106034,-0.00168595,-0.00279984,0.00144411,-0.00419041,-0.729768,0.00337945,0.0123829,601,1058,-13.1624,-1.57703
-616,-34,-13.1413,1.64917,-0.000933513,-0.000735111,-0.00333286,0.00250002,-0.00416864,-0.800276,0.00389012,0.0176532,608,1058,-13.1413,-1.64915
-609,-34,-13.1537,1.67236,-0.000622788,-0.000737899,-0.00422208,0.00354213,-0.00490282,-0.778583,0.00489675,0.0172798,615,1058,-13.1537,-1.67238
-602,-34,-13.1783,1.67212,-0.000801893,-0.000528669,-0.00548234,0.00481876,-0.00614932,-0.797855,0.00634793,0.0137315,622,1058,-13.1783,-1.67217
-595,-34,-13.2307,1.8844,0,0,0,0,0,0,0,-1,629,1058,-13.2306,-1.88441
-588,-34,-13.2247,1.27966,-0.00123332,-0.00075966,-0.00606673,0.00507486,-0.00706784,-0.804907,0.007042,0.0202138,636,1058,-13.2247,-1.27968
-581,-34,-13.1893,0.799561,-0.00137904,-0.000629322,-0.00574278,0.00475082,-0.00675918,-0.817989,0.00667894,0.0229858,643,1058,-13.1893,-0.799605
-574,-34,-13.1946,0.659424,-0.00161325,-0.000327176,-0.00511041,0.00418049,-0.00612092,-0.847984,0.00598259,0.0352905,650,1058,-13.1946,-0.659461
-567,-34,-13.1974,0.700806,-0.00194277,0.000174842,-0.00394022,0.00319603,-0.00496396,-0.916656,0.00474789,0.0406063,657,1058,-13.1975,-0.700842
-560,-34,-13.0863,0.787842,-0.00233005,0.000848265,-0.00222318,0.00199187,-0.00347365,-1.0957,0.00319394,0.0408888,664,1058,-13.0863,-0.787797
-553,-34,-13.1295,0.811523,-0.00282111,0.00164647,-3.9917e-06,0.00164647,-0.00282112,-1.5699,0.00260891,0.0411538,671,1058,-13.1294,-0.811568
-546,-34,-13.175,0.839111,-0.00350217,0.00248448,0.00264526,0.00348583,-0.00450352,1.20892,0.00462511,0.0439158,678,1058,-13.1751,-0.8391
-539,-34,-13.1912,0.725708,-0.00433505,0.00322683,0.00506328,0.00576509,-0.00687331,1.1061,0.00730613,0.0442735,685,1058,-13.1912,-0.725725
-532,-34,-13.4193,0.980957,-0.00562916,0.00371809,0.00578442,0.00648101,-0.00839209,1.12519,0.00861058,0.0438914,692,1058,-13.4193,-0.980957
-525,-34,0,0,0,0,0,0,0,0,0,-1,699,1058,0,0
-518,-34,0,0,0,0,0,0,0,0,0,-1,706,1058,0,0
-511,-34,0,0,0,0,0,0,0,0,0,-1,713,1058,0,0
-504,-34,0,0,0,0,0,0,0,0,0,-1,720,1058,0,0
-497,-34,0,0,0,0,0,0,0,0,0,-1,727,1058,0,0
-490,-34,0,0,0,0,0,0,0,0,0,-1,734,1058,0,0
-483,-34,0,0,0,0,0,0,0,0,0,-1,741,1058,0,0
-476,-34,0,0,0,0,0,0,0,0,0,-1,748,1058,0,0
-469,-34,0,0,0,0,0,0,0,0,0,-1,755,1058,0,0
-462,-34,0,0,0,0,0,0,0,0,0,-1,762,1058,0,0
-455,-34,0,0,0,0,0,0,0,0,0,-1,769,1058,0,0
-448,-34,0,0,0,0,0,0,0,0,0,-1,776,1058,0,0
-441,-34,0,0,0,0,0,0,0,0,0,-1,783,1058,0,0
-434,-34,0,0,0,0,0,0,0,0,0,-1,790,1058,0,0
-427,-34,0,0,0,0,0,0,0,0,0,-1,797,1058,0,0
-420,-34,0,0,0,0,0,0,0,0,0,-1,804,1058,0,0
-413,-34,0,0,0,0,0,0,0,0,0,-1,811,1058,0,0
-406,-34,0,0,0,0,0,0,0,0,0,-1,818,1058,0,0
-399,-34,0,0,0,0,0,0,0,0,0,-1,825,1058,0,0
-392,-34,0,0,0,0,0,0,0,0,0,-1,832,1058,0,0
-385,-34,0,0,0,0,0,0,0,0,0,-1,839,1058,0,0
-378,-34,0,0,0,0,0,0,0,0,0,-1,846,1058,0,0
-371,-34,0,0,0,0,0,0,0,0,0,-1,853,1058,0,0
-364,-34,0,0,0,0,0,0,0,0,0,-1,860,1058,0,0
-357,-34,0,0,0,0,0,0,0,0,0,-1,867,1058,0,0
-350,-34,0,0,0,0,0,0,0,0,0,-1,874,1058,0,0
-343,-34,0,0,0,0,0,0,0,0,0,-1,881,1058,0,0
-336,-34,0,0,0,0,0,0,0,0,0,-1,888,1058,0,0
-329,-34,0,0,0,0,0,0,0,0,0,-1,895,1058,0,0
-322,-34,0,0,0,0,0,0,0,0,0,-1,902,1058,0,0
-315,-34,0,0,0,0,0,0,0,0,0,-1,909,1058,0,0
-308,-34,0,0,0,0,0,0,0,0,0,-1,916,1058,0,0
-301,-34,0,0,0,0,0,0,0,0,0,-1,923,1058,0,0
-294,-34,0,0,0,0,0,0,0,0,0,-1,930,1058,0,0
-287,-34,0,0,0,0,0,0,0,0,0,-1,937,1058,0,0
-280,-34,0,0,0,0,0,0,0,0,0,-1,944,1058,0,0
-273,-34,0,0,0,0,0,0,0,0,0,-1,951,1058,0,0
-266,-34,0,0,0,0,0,0,0,0,0,-1,958,1058,0,0
-259,-34,0,0,0,0,0,0,0,0,0,-1,965,1058,0,0
-252,-34,0,0,0,0,0,0,0,0,0,-1,972,1058,0,0
-245,-34,0,0,0,0,0,0,0,0,0,-1,979,1058,0,0
-238,-34,0,0,0,0,0,0,0,0,0,-1,986,1058,0,0
-231,-34,0,0,0,0,0,0,0,0,0,-1,993,1058,0,0
-224,-34,0,0,0,0,0,0,0,0,0,-1,1000,1058,0,0
-217,-34,0,0,0,0,0,0,0,0,0,-1,1007,1058,0,0
-210,-34,0,0,0,0,0,0,0,0,0,-1,1014,1058,0,0
-203,-34,0,0,0,0,0,0,0,0,0,-1,1021,1058,0,0
-196,-34,0,0,0,0,0,0,0,0,0,-1,1028,1058,0,0
-189,-34,0,0,0,0,0,0,0,0,0,-1,1035,1058,0,0
-182,-34,0,0,0,0,0,0,0,0,0,-1,1042,1058,0,0
-175,-34,0,0,0,0,0,0,0,0,0,-1,1049,1058,0,0
-168,-34,0,0,0,0,0,0,0,0,0,-1,1056,1058,0,0
-161,-34,0,0,0,0,0,0,0,0,0,-1,1063,1058,0,0
-154,-34,0,0,0,0,0,0,0,0,0,-1,1070,1058,0,0
-147,-34,0,0,0,0,0,0,0,0,0,-1,1077,1058,0,0
-140,-34,0,0,0,0,0,0,0,0,0,-1,1084,1058,0,0
-133,-34,0,0,0,0,0,0,0,0,0,-1,1091,1058,0,0
-126,-34,0,0,0,0,0,0,0,0,0,-1,1098,1058,0,0
-119,-34,0,0,0,0,0,0,0,0,0,-1,1105,1058,0,0
-112,-34,0,0,0,0,0,0,0,0,0,-1,1112,1058,0,0
-105,-34,0,0,0,0,0,0,0,0,0,-1,1119,1058,0,0
-98,-34,0,0,0,0,0,0,0,0,0,-1,1126,1058,0,0
-91,-34,0,0,0,0,0,0,0,0,0,-1,1133,1058,0,0
-84,-34,0,0,0,0,0,0,0,0,0,-1,1140,1058,0,0
-77,-34,0,0,0,0,0,0,0,0,0,-1,1147,1058,0,0
-70,-34,0,0,0,0,0,0,0,0,0,-1,1154,1058,0,0
-63,-34,0,0,0,0,0,0,0,0,0,-1,1161,1058,0,0
-56,-34,0,0,0,0,0,0,0,0,0,-1,1168,1058,0,0
-49,-34,0,0,0,0,0,0,0,0,0,-1,1175,1058,0,0
-42,-34,0,0,0,0,0,0,0,0,0,-1,1182,1058,0,0
-35,-34,0,0,0,0,0,0,0,0,0,-1,1189,1058,0,0
-28,-34,0,0,0,0,0,0,0,0,0,-1,1196,1058,0,0
-21,-34,0,0,0,0,0,0,0,0,0,-1,1203,1058,0,0
-14,-34,0,0,0,0,0,0,0,0,0,-1,1210,1058,0,0
-7,-34,0,0,0,0,0,0,0,0,0,-1,1217,1058,0,0
0,-34,0,0,0,0,0,0,0,0,0,-1,1224,1058,0,0
7,-34,0,0,0,0,0,0,0,0,0,-1,1231,1058,0,0
14,-34,0,0,0,0,0,0,0,0,0,-1,1238,1058,0,0
21,-34,0,0,0,0,0,0,0,0,0,-1,1245,1058,0,0
28,-34,0,0,0,0,0,0,0,0,0,-1,1252,1058,0,0
35,-34,0,0,0,0,0,0,0,0,0,-1,1259,1058,0,0
42,-34,0,0,0,0,0,0,0,0,0,-1,1266,1058,0,0
49,-34,0,0,0,0,0,0,0,0,0,-1,1273,1058,0,0
56,-34,0,0,0,0,0,0,0,0,0,-1,1280,1058,0,0
63,-34,0,0,0,0,0,0,0,0,0,-1,1287,1058,0,0
70,-34,0,0,0,0,0,0,0,0,0,-1,1294,1058,0,0
77,-34,0,0,0,0,0,0,0,0,0,-1,1301,1058,0,0
84,-34,0,0,0,0,0,0,0,0,0,-1,1308,1058,0,0
91,-34,0,0,0,0,0,0,0,0,0,-1,1315,1058,0,0
98,-34,0,0,0,0,0,0,0,0,0,-1,1322,1058,0,0
105,-34,0,0,0,0,0,0,0,0,0,-1,1329,1058,0,0
112,-34,0,0,0,0,0,0,0,0,0,-1,1336,1058,0,0
119,-34,0,0,0,0,0,0,0,0,0,-1,1343,1058,0,0
126,-34,0,0,0,0,0,0,0,0,0,-1,1350,1058,0,0
133,-34,0,0,0,0,0,0,0,0,0,-1,1357,1058,0,0
140,-34,0,0,0,0,0,0,0,0,0,-1,1364,1058,0,0
147,-34,0,0,0,0,0,0,0,0,0,-1,1371,1058,0,0
154,-34,0,0,0,0,0,0,0,0,0,-1,1378,1058,0,0
161,-34,0,0,0,0,0,0,0,0,0,-1,1385,1058,0,0
168,-34,0,0,0,0,0,0,0,0,0,-1,1392,1058,0,0
175,-34,0,0,0,0,0,0,0,0,0,-1,1399,1058,0,0
182,-34,0,0,0,0,0,0,0,0,0,-1,1406,1058,0,0
189,-34,0,0,0,0,0,0,0,0,0,-1,1413,1058,0,0
196,-34,0,0,0,0,0,0,0,0,0,-1,1420,1058,0,0
203,-34,0,0,0,0,0,0,0,0,0,-1,1427,1058,0,0
210,-34,0,0,0,0,0,0,0,0,0,-1,1434,1058,0,0
217,-34,0,0,0,0,0,0,0,0,0,-1,1441,1058,0,0
224,-34,0,0,0,0,0,0,0,0,0,-1,1448,1058,0,0
231,-34,0,0,0,0,0,0,0,0,0,-1,1455,1058,0,0
238,-34,0,0,0,0,0,0,0,0,0,-1,1462,1058,0,0
245,-34,0,0,0,0,0,0,0,0,0,-1,1469,1058,0,0
252,-34,0,0,0,0,0,0,0,0,0,-1,1476,1058,0,0
259,-34,0,0,0,0,0,0,0,0,0,-1,1483,1058,0,0
266,-34,0,0,0,0,0,0,0,0,0,-1,1490,1058,0,0
273,-34,0,0,0,0,0,0,0,0,0,-1,1497,1058,0,0
280,-34,0,0,0,0,0,0,0,0,0,-1,1504,1058,0,0
287,-34,0,0,0,0,0,0,0,0,0,-1,1511,1058,0,0
294,-34,0,0,0,0,0,0,0,0,0,-1,1518,1058,0,0
301,-34,0,0,0,0,0,0,0,0,0,-1,1525,1058,0,0
308,-34,0,0,0,0,0,0,0,0,0,-1,1532,1058,0,0
315,-34,0,0,0,0,0,0,0,0,0,-1,1539,1058,0,0
322,-34,0,0,0,0,0,0,0,0,0,-1,1546,1058,0,0
329,-34,0,0,0,0,0,0,0,0,0,-1,1553,1058,0,0
336,-34,0,0,0,0,0,0,0,0,0,-1,1560,1058,0,0
343,-34,0,0,0,0,0,0,0,0,0,-1,1567,1058,0,0
350,-34,0,0,0,0,0,0,0,0,0,-1,1574,1058,0,0
357,-34,0,0,0,0,0,0,0,0,0,-1,1581,1058,0,0
364,-34,0,0,0,0,0,0,0,0,0,-1,1588,1058,0,0
371,-34,0,0,0,0,0,0,0,0,0,-1,1595,1058,0,0
378,-34,0,0,0,0,0,0,0,0,0,-1,1602,1058,0,0
385,-34,0,0,0,0,0,0,0,0,0,-1,1609,1058,0,0
392,-34,0,0,0,0,0,0,0,0,0,-1,1616,1058,0,0
399,-34,0,0,0,0,0,0,0,0,0,-1,1623,1058,0,0
406,-34,0,0,0,0,0,0,0,0,0,-1,1630,1058,0,0
413,-34,0,0,0,0,0,0,0,0,0,-1,1637,1058,0,0
420,-34,0,0,0,0,0,0,0,0,0,-1,1644,1058,0,0
427,-34,0,0,0,0,0,0,0,0,0,-1,1651,1058,0,0
434,-34,0,0,0,0,0,0,0,0,0,-1,1658,1058,0,0
441,-34,0,0,0,0,0,0,0,0,0,-1,1665,1058,0,0
448,-34,0,0,0,0,0,0,0,0,0,-1,1672,1058,0,0
455,-34,0,0,0,0,0,0,0,0,0,-1,1679,1058,0,0
462,-34,0,0,0,0,0,0,0,0,0,-1,1686,1058,0,0
469,-34,0,0,0,0,0,0,0,0,0,-1,1693,1058,0,0
476,-34,0,0,0,0,0,0,0,0,0,-1,1700,1058,0,0
483,-34,0,0,0,0,0,0,0,0,0,-1,1707,1058,0,0
490,-34,0,0,0,0,0,0,0,0,0,-1,1714,1058,0,0
497,-34,0,0,0,0,0,0,0,0,0,-1,1721,1058,0,0
504,-34,0,0,0,0,0,0,0,0,0,-1,1728,1058,0,0
511,-34,0,0,0,0,0,0,0,0,0,-1,1735,1058,0,0
518,-34,0,0,0,0,0,0,0,0,0,-1,1742,1058,0,0
525,-34,0,0,0,0,0,0,0,0,0,-1,1749,1058,0,0
532,-34,0,0,0,0,0,0,0,0,0,-1,1756,1058,0,0
539,-34,0,0,0,0,0,0,0,0,0,-1,1763,1058,0,0
546,-34,0,0,0,0,0,0,0,0,0,-1,1770,1058,0,0
553,-34,0,0,0,0,0,0,0,0,0,-1,1777,1058,0,0
560,-34,0,0,0,0,0,0,0,0,0,-1,1784,1058,0,0
567,-34,0,0,0,0,0,0,0,0,0,-1,1791,1058,0,0
574,-34,0,0,0,0,0,0,0,0,0,-1,1798,1058,0,0
581,-34,0,0,0,0,0,0,0,0,0,-1,1805,1058,0,0
588,-34,0,0,0,0,0,0,0,0,0,-1,1812,1058,0,0
595,-34,0,0,0,0,0,0,0,0,0,-1,1819,1058,0,0
602,-34,0,0,0,0,0,0,0,0,0,-1,1826,1058,0,0
609,-34,0,0,0,0,0,0,0,0,0,-1,1833,1058,0,0
616,-34,0,0,0,0,0,0,0,0,0,-1,1840,1058,0,0
623,-34,0,0,0,0,0,0,0,0,0,-1,1847,1058,0,0
630,-34,0,0,0,0,0,0,0,0,0,-1,1854,1058,0,0
637,-34,0,0,0,0,0,0,0,0,0,-1,1861,1058,0,0
644,-34,0,0,0,0,0,0,0,0,0,-1,1868,1058,0,0
651,-34,20.714,2.76904,0.00426832,-0.000598355,0.000384862,0.00429857,-0.000628602,0.0784315,0.00309659,0.0415016,1875,1058,20.714,-2.76907
658,-34,20.8524,2.80408,0.00269309,-4.19637e-05,0.000193267,0.00270668,-5.55532e-05,0.0701982,0.00182325,0.0453237,1882,1058,20.8524,-2.80405
665,-34,20.6782,2.94922,0.00160789,0.000317191,0.000154564,0.00162614,0.00029894,0.117538,0.000999461,0.0447561,1889,1058,20.6782,-2.94923
672,-34,20.6024,2.71948,0.000924688,0.000495957,0.000774636,0.00151407,-9.34266e-05,0.650411,0.00104192,0.0387919,1896,1058,20.6025,-2.71944
679,-34,20.532,2.55359,9.98664e-05,0.000481245,0.00213326,0.00243232,-0.00185121,0.829974,0.00248067,0.0382876,1903,1058,20.5319,-2.55363
686,-34,20.59,2.50037,-0.000793697,0.000329882,0.00360717,0.00341875,-0.00388256,0.862649,0.00421825,0.0445135,1910,1058,20.5899,-2.50033
693,-34,20.6439,2.57422,-0.0015117,0.000106142,0.00495185,0.00431471,-0.00572027,0.866362,0.00581261,0.0448105,1917,1058,20.644,-2.57422
700,-34,20.61,2.63879,-0.0021017,-9.32707e-05,0.00607353,0.00505851,-0.00725348,0.867328,0.00714588,0.0408087,1924,1058,20.61,-2.63874
707,-34,20.6195,2.76306,-0.00277588,-0.000273856,0.00686648,0.00545465,-0.00850438,0.875505,0.00812311,0.0254611,1931,1058,20.6195,-2.76301
714,-34,20.6616,2.84338,-0.00323351,-0.000386365,0.00732469,0.00565181,-0.00927168,0.881378,0.00870016,0.0192686,1938,1058,20.6616,-2.84336
721,-34,20.752,3.12695,-0.00341111,-0.000459836,0.00748245,0.0056911,-0.00956204,0.882755,0.00890043,0.028231,1945,1058,20.7519,-3.127
728,-34,20.5023,3.74683,-0.00344251,-0.000400863,0.00734671,0.00558078,-0.00942415,0.88746,0.00875732,0.0269826,1952,1058,20.5023,-3.74684
735,-34,20.2285,4.00537,-0.00356131,-0.000211711,0.00678838,0.00510542,-0.00887844,0.906341,0.00817096,0.0136695,1959,1058,20.2285,-4.00532
742,-34,20.2172,3.98157,-0.0038405,0.000128785,0.00581957,0.00429281,-0.00800453,0.949729,0.00720687,0.0142444,1966,1058,20.2172,-3.98157
749,-34,20.2695,3.98303,-0.00412975,-0.000101926,0.0042354,0.00257399,-0.00680566,1.00732,0.00559603,0.0128109,1973,1058,20.2696,-3.98305
756,-34,20.3064,3.98938,-0.00379256,0.000366052,0.00197299,0.00115314,-0.00457965,1.19121,0.00350135,0.0103969,1980,1058,20.3064,-3.98942
763,-34,20.288,3.948,-0.00288762,0.000668404,-0.000220254,0.000681994,-0.00290121,-1.50917,0.00219705,0.0109127,1987,1058,20.288,-3.94802
770,-34,20.2603,3.92957,-0.00223295,0.000908843,-0.00300114,0.00272536,-0.00404947,-1.02651,0.00393627,0.0162755,1994,1058,20.2603,-3.92956
777,-34,20.22,3.95569,-0.00123113,0.00100286,-0.00600434,0.00599322,-0.00622149,-0.877363,0.00705258,0.0172065,2001,1058,20.22,-3.9557
784,-34,20.147,3.93665,2.63456e-05,0.000872677,-0.00900423,0.00946368,-0.00856466,-0.808879,0.010413,0.0328325,2008,1058,20.147,-3.93665
791,-34,20.0387,3.88672,0.00199352,0.000520117,-0.0125981,0.0138765,-0.0113628,-0.756193,0.014596,0.049677,2015,1058,20.0387,-3.88671
798,-34,19.9803,3.93042,0,0,0,0,0,0,0,-1,2022,1058,19.9804,-3.93042
805,-34,20.9788,3.34692,0,0,0,0,0,0,0,-1,2029,1058,20.9789,-3.3469
812,-34,21.4438,3.31653,0,0,0,0,0,0,0,-1,2036,1058,21.4437,-3.31653
-700,-41,-12.0028,-1.67834,0.0318957,0.0296169,-0.0193528,0.0501426,0.01137,-0.755995,0.0303567,0.0449148,524,1065,-12.0028,1.67832
-693,-41,-11.9592,-1.60022,0.0269966,0.0146066,-0.0176965,0.0395511,0.00205204,-0.61703,0.0257107,0.0433696,531,1065,-11.9591,1.60024
-686,-41,-11.8865,-1.62402,0.0218797,0.0055184,-0.0153933,0.0311311,-0.00373298,-0.541156,0.0221037,0.045266,538,1065,-11.8866,1.62407
-679,-41,-13.7172,-0.673706,0,0,0,0,0,0,0,-1,545,1065,-13.7172,0.673686
-672,-41,-13.4653,-0.022583,0.0127042,-0.0027773,-0.0103402,0.0178801,-0.00795311,-0.464092,0.0152774,0.0434041,552,1065,-13.4653,0.022588
-665,-41,-13.1976,0.534058,0.00913514,-0.00401169,-0.00795868,0.012884,-0.0077606,-0.440218,0.0120409,0.038867,559,1065,-13.1976,-0.534003
-658,-41,-13.0943,0.87561,0.0062686,-0.00416277,-0.00584996,0.00889035,-0.00678452,-0.421327,0.00907707,0.0375819,566,1065,-13.0943,-0.875636
-651,-41,-13.0268,1.34973,0.00405784,-0.00370669,-0.00409669,0.00581958,-0.00546843,-0.406133,0.00651819,0.0273352,573,1065,-13.0268,-1.34969
-644,-41,-13.0983,1.40796,0.00240389,-0.00300731,-0.00273912,0.00354836,-0.00415178,-0.395777,0.00445022,0.0118903,580,1065,-13.0983,-1.4079
-637,-41,-13.1208,1.42456,0.00118129,-0.00332918,-0.00243856,0.0022476,-0.00439549,-0.412218,0.00390164,0.0127642,587,1065,-13.1208,-1.42461
-630,-41,-13.1282,1.48535,-0.000434968,-0.0026112,-0.00297582,0.00164543,-0.0046916,-0.610123,0.00379698,0.0124276,594,1065,-13.1282,-1.4854
-623,-41,-13.1044,1.53601,-0.00115746,-0.00138655,-0.00328859,0.00201858,-0.00456258,-0.76799,0.00389312,0.0118195,601,1065,-13.1044,-1.53596
-616,-41,-13.0897,1.6261,-0.00111972,-0.000684095,-0.00362561,0.00273024,-0.00453405,-0.8154,0.00423692,0.0150218,608,1065,-13.0897,-1.62613
-609,-41,-13.0942,1.69385,-0.000873163,-0.000821273,-0.00436819,0.00352105,-0.00521549,-0.788368,0.00507557,0.019963,615,1065,-13.0943,-1.6938
-602,-41,-13.1156,1.70007,-0.0010728,-0.000756776,-0.00550729,0.00459477,-0.00642435,-0.79974,0.00639105,0.0120893,622,1065,-13.1156,-1.70007
-595,-41,-13.159,1.75269,0,0,0,0,0,0,0,-1,629,1065,-13.159,-1.75267
-588,-41,-13.2252,1.27954,-0.00152567,-0.00109782,-0.00614681,0.00483878,-0.00746227,-0.802792,0.00715565,0.0245962,636,1065,-13.2252,-1.27955
-581,-41,-13.2061,0.829468,-0.00165778,-0.000988665,-0.00588383,0.00457011,-0.00721655,-0.813798,0.00686197,0.0358273,643,1065,-13.2061,-0.829449
-574,-41,-13.1855,0.520264,-0.00184656,-0.000733759,-0.00532424,0.00406308,-0.0066434,-0.837461,0.00624094,0.0384035,650,1065,-13.1855,-0.520287
-567,-41,-13.3595,0.685669,-0.00208849,-0.000269672,-0.00422441,0.0031421,-0.00550027,-0.891418,0.00505121,0.0407906,657,1065,-13.3595,-0.685659
-560,-41,-13.2774,0.80603,-0.00234249,0.000386809,-0.00256693,0.00192929,-0.00388497,-1.02971,0.00341957,0.0408527,664,1065,-13.2774,-0.806033
-553,-41,-13.1469,0.78894,-0.00265315,0.00120633,-0.000386838,0.00124472,-0.00269154,-1.47188,0.00232321,0.041348,671,1065,-13.1469,-0.788885
-546,-41,-13.203,0.901367,-0.00311833,0.00212407,0.00226074,0.00296432,-0.00395858,1.21495,0.00401066,0.0399989,678,1065,-13.203,-0.901419
-539,-41,-13.3799,0.796143,-0.00374264,0.00300504,0.00472491,0.00543703,-0.00617463,1.09545,0.0067085,0.039574,685,1065,-13.38,-0.796119
-532,-41,-13.4554,0.858154,-0.00490457,0.00366581,0.00545964,0.00632112,-0.00755988,1.11813,0.00802483,0.0404894,692,1065,-13.4554,-0.858155
-525,-41,0,0,0,0,0,0,0,0,0,-1,699,1065,0,0
-518,-41,0,0,0,0,0,0,0,0,0,-1,706,1065,0,0
-511,-41,0,0,0,0,0,0,0,0,0,-1,713,1065,0,0
-504,-41,0,0,0,0,0,0,0,0,0,-1,720,1065,0,0
-497,-41,0,0,0,0,0,0,0,0,0,-1,727,1065,0,0
-490,-41,0,0,0,0,0,0,0,0,0,-1,734,1065,0,0
-483,-41,0,0,0,0,0,0,0,0,0,-1,741,1065,0,0
-476,-41,0,0,0,0,0,0,0,0,0,-1,748,1065,0,0
-469,-41,0,0,0,0,0,0,0,0,0,-1,755,1065,0,0
-462,-41,0,0,0,0,0,0,0,0,0,-1,762,1065,0,0
-455,-41,0,0,0,0,0,0,0,0,0,-1,769,1065,0,0
-448,-41,0,0,0,0,0,0,0,0,0,-1,776,1065,0,0
-441,-41,0,0,0,0,0,0,0,0,0,-1,783,1065,0,0
-434,-41,0,0,0,0,0,0,0,0,0,-1,790,1065,0,0
-427,-41,0,0,0,0,0,0,0,0,0,-1,797,1065,0,0
-420,-41,0,0,0,0,0,0,0,0,0,-1,804,1065,0,0
-413,-41,0,0,0,0,0,0,0,0,0,-1,811,1065,0,0
-406,-41,0,0,0,0,0,0,0,0,0,-1,818,1065,0,0
-399,-41,0,0,0,0,0,0,0,0,0,-1,825,1065,0,0
-392,-41,0,0,0,0,0,0,0,0,0,-1,832,1065,0,0
-385,-41,0,0,0,0,0,0,0,0,0,-1,839,1065,0,0
-378,-41,0,0,0,0,0,0,0,0,0,-1,846,1065,0,0
-371,-41,0,0,0,0,0,0,0,0,0,-1,853,1065,0,0
-364,-41,0,0,0,0,0,0,0,0,0,-1,860,1065,0,0
-357,-41,0,0,0,0,0,0,0,0,0,-1,867,1065,0,0
-350,-41,0,0,0,0,0,0,0,0,0,-1,874,1065,0,0
-343,-41,0,0,0,0,0,0,0,0,0,-1,881,1065,0,0
-336,-41,0,0,0,0,0,0,0,0,0,-1,888,1065,0,0
-329,-41,0,0,0,0,0,0,0,0,0,-1,895,1065,0,0
-322,-41,0,0,0,0,0,0,0,0,0,-1,902,1065,0,0
-315,-41,0,0,0,0,0,0,0,0,0,-1,909,1065,0,0
-308,-41,0,0,0,0,0,0,0,0,0,-1,916,1065,0,0
-301,-41,0,0,0,0,0,0,0,0,0,-1,923,1065,0,0
-294,-41,0,0,0,0,0,0,0,0,0,-1,930,1065,0,0
-287,-41,0,0,0,0,0,0,0,0,0,-1,937,1065,0,0
-280,-41,0,0,0,0,0,0,0,0,0,-1,944,1065,0,0
-273,-41,0,0,0,0,0,0,0,0,0,-1,951,1065,0,0
-266,-41,0,0,0,0,0,0,0,0,0,-1,958,1065,0,0
-259,-41,0,0,0,0,0,0,0,0,0,-1,965,1065,0,0
-252,-41,0,0,0,0,0,0,0,0,0,-1,972,1065,0,0
-245,-41,0,0,0,0,0,0,0,0,0,-1,979,1065,0,0
-238,-41,0,0,0,0,0,0,0,0,0,-1,986,1065,0,0
-231,-41,0,0,0,0,0,0,0,0,0,-1,993,1065,0,0
-224,-41,0,0,0,0,0,0,0,0,0,-1,1000,1065,0,0
-217,-41,0,0,0,0,0,0,0,0,0,-1,1007,1065,0,0
-210,-41,0,0,0,0,0,0,0,0,0,-1,1014,1065,0,0
-203,-41,0,0,0,0,0,0,0,0,0,-1,1021,1065,0,0
-196,-41,0,0,0,0,0,0,0,0,0,-1,1028,1065,0,0
-189,-41,0,0,0,0,0,0,0,0,0,-1,1035,1065,0,0
-182,-41,0,0,0,0,0,0,0,0,0,-1,1042,1065,0,0
-175,-41,0,0,0,0,0,0,0,0,0,-1,1049,1065,0,0
-168,-41,0,0,0,0,0,0,0,0,0,-1,1056,1065,0,0
-161,-41,0,0,0,0,0,0,0,0,0,-1,1063,1065,0,0
-154,-41,0,0,0,0,0,0,0,0,0,-1,1070,1065,0,0
-147,-41,0,0,0,0,0,0,0,0,0,-1,1077,1065,0,0
-140,-41,0,0,0,0,0,0,0,0,0,-1,1084,1065,0,0
-133,-41,0,0,0,0,0,0,0,0,0,-1,1091,1065,0,0
-126,-41,0,0,0,0,0,0,0,0,0,-1,1098,1065,0,0
-119,-41,0,0,0,0,0,0,0,0,0,-1,1105,1065,0,0
-112,-41,0,0,0,0,0,0,0,0,0,-1,1112,1065,0,0
-105,-41,0,0,0,0,0,0,0,0,0,-1,1119,1065,0,0
-98,-41,0,0,0,0,0,0,0,0,0,-1,1126,1065,0,0
-91,-41,0,0,0,0,0,0,0,0,0,-1,1133,1065,0,0
-84,-41,0,0,0,0,0,0,0,0,0,-1,1140,1065,0,0
-77,-41,0,0,0,0,0,0,0,0,0,-1,1147,1065,0,0
-70,-41,0,0,0,0,0,0,0,0,0,-1,1154,1065,0,0
-63,-41,0,0,0,0,0,0,0,0,0,-1,1161,1065,0,0
-56,-41,0,0,0,0,0,0,0,0,0,-1,1168,1065,0,0
-49,-41,0,0,0,0,0,0,0,0,0,-1,1175,1065,0,0
-42,-41,0,0,0,0,0,0,0,0,0,-1,1182,1065,0,0
-35,-41,0,0,0,0,0,0,0,0,0,-1,1189,1065,0,0
-28,-41,0,0,0,0,0,0,0,0,0,-1,1196,1065,0,0
-21,-41,0,0,0,0,0,0,0,0,0,-1,1203,1065,0,0
-14,-41,0,0,0,0,0,0,0,0,0,-1,1210,1065,0,0
-7,-41,0,0,0,0,0,0,0,0,0,-1,1217,1065,0,0
0,-41,0,0,0,0,0,0,0,0,0,-1,1224,1065,0,0
7,-41,0,0,0,0,0,0,0,0,0,-1,1231,1065,0,0
14,-41,0,0,0,0,0,0,0,0,0,-1,1238,1065,0,0
21,-41,0,0,0,0,0,0,0,0,0,-1,1245,1065,0,0
28,-41,0,0,0,0,0,0,0,0,0,-1,1252,1065,0,0
35,-41,0,0,0,0,0,0,0,0,0,-1,1259,1065,0,0
42,-41,0,0,0,0,0,0,0,0,0,-1,1266,1065,0,0
49,-41,0,0,0,0,0,0,0,0,0,-1,1273,1065,0,0
56,-41,0,0,0,0,0,0,0,0,0,-1,1280,1065,0,0
63,-41,0,0,0,0,0,0,0,0,0,-1,1287,1065,0,0
70,-41,0,0,0,0,0,0,0,0,0,-1,1294,1065,0,0
77,-41,0,0,0,0,0,0,0,0,0,-1,1301,1065,0,0
84,-41,0,0,0,0,0,0,0,0,0,-1,1308,1065,0,0
91,-41,0,0,0,0,0,0,0,0,0,-1,1315,1065,0,0
98,-41,0,0,0,0,0,0,0,0,0,-1,1322,1065,0,0
105,-41,0,0,0,0,0,0,0,0,0,-1,1329,1065,0,0
112,-41,0,0,0,0,0,0,0,0,0,-1,1336,1065,0,0
119,-41,0,0,0,0,0,0,0,0,0,-1,1343,1065,0,0
126,-41,0,0,0,0,0,0,0,0,0,-1,1350,1065,0,0
133,-41,0,0,0,0,0,0,0,0,0,-1,1357,1065,0,0
140,-41,0,0,0,0,0,0,0,0,0,-1,1364,1065,0,0
147,-41,0,0,0,0,0,0,0,0,0,-1,1371,1065,0,0
154,-41,0,0,0,0,0,0,0,0,0,-1,1378,1065,0,0
161,-41,0,0,0,0,0,0,0,0,0,-1,1385,1065,0,0
168,-41,0,0,0,0,0,0,0,0,0,-1,1392,1065,0,0
175,-41,0,0,0,0,0,0,0,0,0,-1,1399,1065,0,0
182,-41,0,0,0,0,0,0,0,0,0,-1,1406,1065,0,0
189,-41,0,0,0,0,0,0,0,0,0,-1,1413,1065,0,0
196,-41,0,0,0,0,0,0,0,0,0,-1,1420,1065,0,0
203,-41,0,0,0,0,0,0,0,0,0,-1,1427,1065,0,0
210,-41,0,0,0,0,0,0,0,0,0,-1,1434,1065,0,0
217,-41,0,0,0,0,0,0,0,0,0,-1,1441,1065,0,0
224,-41,0,0,0,0,0,0,0,0,0,-1,1448,1065,0,0
231,-41,0,0,0,0,0,0,0,0,0,-1,1455,1065,0,0
238,-41,0,0,0,0,0,0,0,0,0,-1,1462,1065,0,0
245,-41,0,0,0,0,0,0,0,0,0,-1,1469,1065,0,0
252,-41,0,0,0,0,0,0,0,0,0,-1,1476,1065,0,0
259,-41,0,0,0,0,0,0,0,0,0,-1,1483,1065,0,0
266,-41,0,0,0,0,0,0,0,0,0,-1,1490,1065,0,0
273,-41,0,0,0,0,0,0,0,0,0,-1,1497,1065,0,0
280,-41,0,0,0,0,0,0,0,0,0,-1,1504,1065,0,0
287,-41,0,0,0,0,0,0,0,0,0,-1,1511,1065,0,0
294,-41,0,0,0,0,0,0,0,0,0,-1,1518,1065,0,0
301,-41,0,0,0,0,0,0,0,0,0,-1,1525,1065,0,0
308,-41,0,0,0,0,0,0,0,0,0,-1,1532,1065,0,0
315,-41,0,0,0,0,0,0,0,0,0,-1,1539,1065,0,0
322,-41,0,0,0,0,0,0,0,0,0,-1,1546,1065,0,0
329,-41,0,0,0,0,0,0,0,0,0,-1,1553,1065,0,0
336,-41,0,0,0,0,0,0,0,0,0,-1,1560,1065,0,0
343,-41,0,0,0,0,0,0,0,0,0,-1,1567,1065,0,0
350,-41,0,0,0,0,0,0,0,0,0,-1,1574,1065,0,0
357,-41,0,0,0,0,0,0,0,0,0,-1,1581,1065,0,0
364,-41,0,0,0,0,0,0,0,0,0,-1,1588,1065,0,0
371,-41,0,0,0,0,0,0,0,0,0,-1,1595,1065,0,0
378,-41,0,0,0,0,0,0,0,0,0,-1,1602,1065,0,0
385,-41,0,0,0,0,0,0,0,0,0,-1,1609,1065,0,0
392,-41,0,0,0,0,0,0,0,0,0,-1,1616,1065,0,0
399,-41,0,0,0,0,0,0,0,0,0,-1,1623,1065,0,0
406,-41,0,0,0,0,0,0,0,0,0,-1,1630,1065,0,0
413,-41,0,0,0,0,0,0,0,0,0,-1,1637,1065,0,0
420,-41,0,0,0,0,0,0,0,0,0,-1,1644,1065,0,0
427,-41,0,0,0,0,0,0,0,0,0,-1,1651,1065,0,0
434,-41,0,0,0,0,0,0,0,0,0,-1,1658,1065,0,0
441,-41,0,0,0,0,0,0,0,0,0,-1,1665,1065,0,0
448,-41,0,0,0,0,0,0,0,0,0,-1,1672,1065,0,0
455,-41,0,0,0,0,0,0,0,0,0,-1,1679,1065,0,0
462,-41,0,0,0,0,0,0,0,0,0,-1,1686,1065,0,0
469,-41,0,0,0,0,0,0,0,0,0,-1,1693,1065,0,0
476,-41,0,0,0,0,0,0,0,0,0,-1,1700,1065,0,0
483,-41,0,0,0,0,0,0,0,0,0,-1,1707,1065,0,0
490,-41,0,0,0,0,0,0,0,0,0,-1,1714,1065,0,0
497,-41,0,0,0,0,0,0,0,0,0,-1,1721,1065,0,0
504,-41,0,0,0,0,0,0,0,0,0,-1,1728,1065,0,0
511,-41,0,0,0,0,0,0,0,0,0,-1,1735,1065,0,0
518,-41,0,0,0,0,0,0,0,0,0,-1,1742,1065,0,0
525,-41,0,0,0,0,0,0,0,0,0,-1,1749,1065,0,0
532,-41,0,0,0,0,0,0,0,0,0,-1,1756,1065,0,0
539,-41,0,0,0,0,0,0,0,0,0,-1,1763,1065,0,0
546,-41,0,0,0,0,0,0,0,0,0,-1,1770,1065,0,0
553,-41,0,0,0,0,0,0,0,0,0,-1,1777,1065,0,0
560,-41,0,0,0,0,0,0,0,0,0,-1,1784,1065,0,0
567,-41,0,0,0,0,0,0,0,0,0,-1,1791,1065,0,0
574,-41,0,0,0,0,0,0,0,0,0,-1,1798,1065,0,0
581,-41,0,0,0,0,0,0,0,0,0,-1,1805,1065,0,0
588,-41,0,0,0,0,0,0,0,0,0,-1,1812,1065,0,0
595,-41,0,0,0,0,0,0,0,0,0,-1,1819,1065,0,0
602,-41,0,0,0,0,0,0,0,0,0,-1,1826,1065,0,0
609,-41,0,0,0,0,0,0,0,0,0,-1,1833,1065,0,0
616,-41,0,0,0,0,0,0,0,0,0,-1,1840,1065,0,0
623,-41,0,0,0,0,0,0,0,0,0,-1,1847,1065,0,0
630,-41,0,0,0,0,0,0,0,0,0,-1,1854,1065,0,0
637,-41,0,0,0,0,0,0,0,0,0,-1,1861,1065,0,0
644,-41,0,0,0,0,0,0,0,0,0,-1,1868,1065,0,0
651,-41,20.6865,2.80444,0.00412726,-0.000193853,0.000412973,0.00416637,-0.000232968,0.094432,0.0028584,0.0360254,1875,1065,20.6865,-2.80445
658,-41,20.7485,2.66919,0.00270645,0.000219428,0.000118327,0.00271207,0.000213811,0.0474347,0.00174116,0.0404449,1882,1065,20.7485,-2.6692
665,-41,20.9,2.56836,0.00172205,0.000443529,5.94115e-05,0.0017248,0.000440775,0.0463359,0.00103473,0.0432285,1889,1065,20.9,-2.5684
672,-41,20.7974,2.58801,0.00108747,0.000480969,0.000733345,0.00157779,-9.35019e-06,0.589345,0.00105499,0.0411706,1896,1065,20.7973,-2.58798
679,-41,20.486,2.5542,0.000301631,0.000342141,0.00212913,0.00245111,-0.00180734,0.790155,0.00246796,0.0400749,1903,1065,20.4859,-2.55418
686,-41,20.41,2.48767,-0.000565814,9.92463e-05,0.00362137,0.00340332,-0.00386988,0.831182,0.00420206,0.0425514,1910,1065,20.41,-2.48763
693,-41,20.4706,2.47302,-0.00126263,-0.000183416,0.00496626,0.00427247,-0.00571851,0.839513,0.0057884,0.0431308,1917,1065,20.4706,-2.47297
700,-41,20.6229,2.60889,-0.00183182,-0.000405684,0.00606355,0.00498658,-0.00722409,0.843929,0.00708918,0.0400383,1924,1065,20.623,-2.60885
707,-41,20.6572,2.7251,-0.00249249,-0.000597315,0.00682745,0.005348,-0.0084378,0.854353,0.00802559,0.0297242,1931,1065,20.6572,-2.72516
714,-41,20.6377,2.78833,-0.00293596,-0.000720764,0.00726731,0.00552286,-0.00917959,0.861021,0.00857554,0.0171263,1938,1065,20.6377,-2.78835
721,-41,20.704,3.51074,0,0,0,0,0,0,0,-1,1945,1065,20.704,-3.51079
728,-41,20.406,3.92468,-0.00317451,-0.000678971,0.00725729,0.00543703,-0.00929051,0.870532,0.00859942,0.0294655,1952,1065,20.406,-3.92471
735,-41,20.2317,4.01978,-0.00332069,-0.000425963,0.0066854,0.00496695,-0.00871361,0.892001,0.0079966,0.0153278,1959,1065,20.2317,-4.01981
742,-41,20.1992,3.99329,-0.00360371,-1.26563e-05,0.00571425,0.00418152,-0.00779789,0.937624,0.00702058,0.0126021,1966,1065,20.1992,-3.99334
749,-41,20.2539,3.99097,-0.00393108,-0.000125975,0.00412031,0.00250982,-0.00656688,1.00169,0.00541212,0.0124779,1973,1065,20.2539,-3.99097
756,-41,20.2889,3.974,-0.00356942,0.000394444,0.0019207,0.00117243,-0.0043474,1.18594,0.00335801,0.0125902,1980,1065,20.289,-3.97397
763,-41,20.2659,3.95569,-0.00255648,0.00066314,-7.83949e-05,0.000665048,-0.00255839,-1.54647,0.00196515,0.0107022,1987,1065,20.2658,-3.95573
770,-41,20.2318,3.93787,-0.00179134,0.000917106,-0.00268326,0.00256851,-0.00344274,-1.0191,0.00348281,0.0118456,1994,1065,20.2318,-3.93787
777,-41,20.2039,3.91003,-0.000578404,0.000969413,-0.00539366,0.00564441,-0.0052534,-0.856654,0.0062932,0.0131921,2001,1065,20.2038,-3.90998
784,-41,20.1702,3.87012,0.00105713,0.000728674,-0.00797747,0.00887206,-0.00708626,-0.775106,0.00923275,0.0247368,2008,1065,20.1702,-3.87009
791,-41,20.3584,3.69263,0.00358282,0.000129139,-0.010914,0.0129058,-0.00919382,-0.706937,0.0128191,0.0462834,2015,1065,20.3584,-3.69262
798,-41,18.9021,3.2395,0,0,0,0,0,0,0,-1,2022,1065,18.9021,-3.23946
805,-41,21.3599,3.35034,0,0,0,0,0,0,0,-1,2029,1065,21.3599,-3.35037
812,-41,21.6809,2.54541,0,0,0,0,0,0,0,-1,2036,1065,21.6808,-2.54543
-700,-48,-11.6227,-1.72668,0.0191607,0.0359474,-0.0175378,0.0469969,0.00811123,-1.00858,0.029008,0.0470451,524,1072,-11.6228,1.72668
-693,-48,-11.5616,-1.64868,0.0177315,0.0208905,-0.0169233,0.0363079,0.00231416,-0.83193,0.0234719,0.0428087,531,1072,-11.5616,1.64874
-686,-48,-11.4079,-2.01208,0,0,0,0,0,0,0,-1,538,1072,-11.4079,2.01208
-679,-48,-13.7192,0.713013,0,0,0,0,0,0,0,-1,545,1072,-13.7192,-0.713022
-672,-48,-13.5159,0.859741,0.00926892,0.00168507,-0.0110343,0.0171447,-0.00619067,-0.619895,0.0139587,0.0466556,552,1072,-13.5159,-0.859765
-665,-48,-13.3841,0.905029,0.00677755,-0.000318443,-0.0088127,0.0127297,-0.00627055,-0.594025,0.0111791,0.0423087,559,1072,-13.3841,-0.904992
-658,-48,-13.1807,0.993164,0.00470777,-0.00121606,-0.0067485,0.00911573,-0.00562403,-0.578606,0.00858923,0.0439605,566,1072,-13.1807,-0.993203
-651,-48,-13.005,1.22778,0.00306853,-0.00144551,-0.00494302,0.00624544,-0.00462242,-0.57123,0.00629784,0.0310489,573,1072,-13.005,-1.2278
-644,-48,-13.0256,1.40417,0.00181107,-0.00135336,-0.00344985,0.00402423,-0.00356651,-0.570393,0.00438517,0.0139448,580,1072,-13.0256,-1.40423
-637,-48,-13.034,1.41748,0.00100799,-0.0022221,-0.00301724,0.00281523,-0.00402935,-0.539665,0.00397239,0.0134212,587,1072,-13.034,-1.41753
-630,-48,-13.0298,1.49731,-0.000429185,-0.00184699,-0.00347558,0.00240905,-0.00468523,-0.684794,0.00416556,0.0152499,594,1072,-13.0298,-1.49728
-623,-48,-13.0541,1.55688,-0.00123784,-0.0010077,-0.00365914,0.00253817,-0.00478372,-0.801117,0.00429305,0.0107518,601,1072,-13.0541,-1.55683
-616,-48,-13.061,1.61389,-0.00135358,-0.000540391,-0.00386454,0.00293888,-0.00483286,-0.837811,0.00453121,0.0100645,608,1072,-13.0609,-1.61387
-609,-48,-13.0508,1.66467,-0.00120164,-0.000772111,-0.00451476,0.00353299,-0.00550675,-0.809165,0.0052604,0.0114048,615,1072,-13.0508,-1.6647
-602,-48,-13.0687,1.70654,-0.00140502,-0.000780145,-0.00556379,0.00447997,-0.00666514,-0.813447,0.00647572,0.0112229,622,1072,-13.0687,-1.70654
-595,-48,-13.1428,1.78479,0,0,0,0,0,0,0,-1,629,1072,-13.1428,-1.78476
-588,-48,-13.1639,1.34851,-0.00187411,-0.0011723,-0.00631011,0.00479666,-0.00784306,-0.813174,0.00736786,0.030916,636,1072,-13.1639,-1.34852
-581,-48,-13.1837,0.901733,-0.00200933,-0.00107776,-0.00610994,0.00458412,-0.00767121,-0.823441,0.00715006,0.0419734,643,1072,-13.1837,-0.90173
-574,-48,-13.2632,0.965454,-0.0021592,-0.00086318,-0.00562307,0.00414909,-0.00717147,-0.842766,0.00661312,0.0418375,650,1072,-13.2633,-0.965506
-567,-48,-13.3849,0.959839,-0.00232012,-0.000444715,-0.0045901,0.00330249,-0.00606732,-0.886156,0.00548761,0.0412758,657,1072,-13.3849,-0.959848
-560,-48,-13.3938,0.813965,-0.00245704,0.000169273,-0.00298518,0.00211736,-0.00440512,-0.992606,0.00384219,0.0414967,664,1072,-13.3938,-0.814017
-553,-48,-13.3139,0.757446,-0.00261689,0.000959568,-0.000830339,0.00114294,-0.00280027,-1.35344,0.00234268,0.0426078,671,1072,-13.3139,-0.757436
-546,-48,-13.3383,0.859863,-0.0029111,0.00187653,0.00183815,0.00250085,-0.00353542,1.24338,0.00350206,0.0411862,678,1072,-13.3382,-0.859914
-539,-48,-13.5076,1.05798,-0.00339439,0.00281993,0.00437948,0.00508252,-0.00565699,1.09393,0.00620342,0.0401207,685,1072,-13.5077,-1.058
-532,-48,-13.5368,1.11987,-0.00451911,0.00354505,0.0051632,0.00606402,-0.00703808,1.1169,0.00757147,0.0401466,692,1072,-13.5368,-1.11984
-525,-48,0,0,0,0,0,0,0,0,0,-1,699,1072,0,0
-518,-48,0,0,0,0,0,0,0,0,0,-1,706,1072,0,0
-511,-48,0,0,0,0,0,0,0,0,0,-1,713,1072,0,0
-504,-48,0,0,0,0,0,0,0,0,0,-1,720,1072,0,0
-497,-48,0,0,0,0,0,0,0,0,0,-1,727,1072,0,0
-490,-48,0,0,0,0,0,0,0,0,0,-1,734,1072,0,0
-483,-48,0,0,0,0,0,0,0,0,0,-1,741,1072,0,0
-476,-48,0,0,0,0,0,0,0,0,0,-1,748,1072,0,0
-469,-48,0,0,0,0,0,0,0,0,0,-1,755,1072,0,0
-462,-48,0,0,0,0,0,0,0,0,0,-1,762,1072,0,0
-455,-48,0,0,0,0,0,0,0,0,0,-1,769,1072,0,0
-448,-48,0,0,0,0,0,0,0,0,0,-1,776,1072,0,0
-441,-48,0,0,0,0,0,0,0,0,0,-1,783,1072,0,0
-434,-48,0,0,0,0,0,0,0,0,0,-1,790,1072,0,0
-427,-48,0,0,0,0,0,0,0,0,0,-1,797,1072,0,0
-420,-48,0,0,0,0,0,0,0,0,0,-1,804,1072,0,0
-413,-48,0,0,0,0,0,0,0,0,0,-1,811,1072,0,0
-406,-48,0,0,0,0,0,0,0,0,0,-1,818,1072,0,0
-399,-48,0,0,0,0,0,0,0,0,0,-1,825,1072,0,0
-392,-48,0,0,0,0,0,0,0,0,0,-1,832,1072,0,0
-385,-48,0,0,0,0,0,0,0,0,0,-1,839,1072,0,0
-378,-48,0,0,0,0,0,0,0,0,0,-1,846,1072,0,0
-371,-48,0,0,0,0,0,0,0,0,0,-1,853,1072,0,0
-364,-48,0,0,0,0,0,0,0,0,0,-1,860,1072,0,0
-357,-48,0,0,0,0,0,0,0,0,0,-1,867,1072,0,0
-350,-48,0,0,0,0,0,0,0,0,0,-1,874,1072,0,0
-343,-48,0,0,0,0,0,0,0,0,0,-1,881,1072,0,0
-336,-48,0,0,0,0,0,0,0,0,0,-1,888,1072,0,0
-329,-48,0,0,0,0,0,0,0,0,0,-1,895,1072,0,0
-322,-48,0,0,0,0,0,0,0,0,0,-1,902,1072,0,0
-315,-48,0,0,0,0,0,0,0,0,0,-1,909,1072,0,0
-308,-48,0,0,0,0,0,0,0,0,0,-1,916,1072,0,0
-301,-48,0,0,0,0,0,0,0,0,0,-1,923,1072,0,0
-294,-48,0,0,0,0,0,0,0,0,0,-1,930,1072,0,0
-287,-48,0,0,0,0,0,0,0,0,0,-1,937,1072,0,0
-280,-48,0,0,0,0,0,0,0,0,0,-1,944,1072,0,0
-273,-48,0,0,0,0,0,0,0,0,0,-1,951,1072,0,0
-266,-48,0,0,0,0,0,0,0,0,0,-1,958,1072,0,0
-259,-48,0,0,0,0,0,0,0,0,0,-1,965,1072,0,0
-252,-48,0,0,0,0,0,0,0,0,0,-1,972,1072,0,0
-245,-48,0,0,0,0,0,0,0,0,0,-1,979,1072,0,0
-238,-48,0,0,0,0,0,0,0,0,0,-1,986,1072,0,0
-231,-48,0,0,0,0,0,0,0,0,0,-1,993,1072,0,0
-224,-48,0,0,0,0,0,0,0,0,0,-1,1000,1072,0,0
-217,-48,0,0,0,0,0,0,0,0,0,-1,1007,1072,0,0
-210,-48,0,0,0,0,0,0,0,0,0,-1,1014,1072,0,0
-203,-48,0,0,0,0,0,0,0,0,0,-1,1021,1072,0,0
-196,-48,0,0,0,0,0,0,0,0,0,-1,1028,1072,0,0
-189,-48,0,0,0,0,0,0,0,0,0,-1,1035,1072,0,0
-182,-48,0,0,0,0,0,0,0,0,0,-1,1042,1072,0,0
-175,-48,0,0,0,0,0,0,0,0,0,-1,1049,1072,0,0
-168,-48,0,0,0,0,0,0,0,0,0,-1,1056,1072,0,0
-161,-48,0,0,0,0,0,0,0,0,0,-1,1063,1072,0,0
-154,-48,0,0,0,0,0,0,0,0,0,-1,1070,1072,0,0
-147,-48,0,0,0,0,0,0,0,0,0,-1,1077,1072,0,0
-140,-48,0,0,0,0,0,0,0,0,0,-1,1084,1072,0,0
-133,-48,0,0,0,0,0,0,0,0,0,-1,1091,1072,0,0
-126,-48,0,0,0,0,0,0,0,0,0,-1,1098,1072,0,0
-119,-48,0,0,0,0,0,0,0,0,0,-1,1105,1072,0,0
-112,-48,0,0,0,0,0,0,0,0,0,-1,1112,1072,0,0
-105,-48,0,0,0,0,0,0,0,0,0,-1,1119,1072,0,0
-98,-48,0,0,0,0,0,0,0,0,0,-1,1126,1072,0,0
-91,-48,0,0,0,0,0,0,0,0,0,-1,1133,1072,0,0
-84,-48,0,0,0,0,0,0,0,0,0,-1,1140,1072,0,0
-77,-48,0,0,0,0,0,0,0,0,0,-1,1147,1072,0,0
-70,-48,0,0,0,0,0,0,0,0,0,-1,1154,1072,0,0
-63,-48,0,0,0,0,0,0,0,0,0,-1,1161,1072,0,0
-56,-48,0,0,0,0,0,0,0,0,0,-1,1168,1072,0,0
-49,-48,0,0,0,0,0,0,0,0,0,-1,1175,1072,0,0
-42,-48,0,0,0,0,0,0,0,0,0,-1,1182,1072,0,0
-35,-48,0,0,0,0,0,0,0,0,0,-1,1189,1072,0,0
-28,-48,0,0,0,0,0,0,0,0,0,-1,1196,1072,0,0
-21,-48,0,0,0,0,0,0,0,0,0,-1,1203,1072,0,0
-14,-48,0,0,0,0,0,0,0,0,0,-1,1210,1072,0,0
-7,-48,0,0,0,0,0,0,0,0,0,-1,1217,1072,0,0
0,-48,0,0,0,0,0,0,0,0,0,-1,1224,1072,0,0
7,-48,0,0,0,0,0,0,0,0,0,-1,1231,1072,0,0
14,-48,0,0,0,0,0,0,0,0,0,-1,1238,1072,0,0
21,-48,0,0,0,0,0,0,0,0,0,-1,1245,1072,0,0
28,-48,0,0,0,0,0,0,0,0,0,-1,1252,1072,0,0
35,-48,0,0,0,0,0,0,0,0,0,-1,1259,1072,0,0
42,-48,0,0,0,0,0,0,0,0,0,-1,1266,1072,0,0
49,-48,0,0,0,0,0,0,0,0,0,-1,1273,1072,0,0
56,-48,0,0,0,0,0,0,0,0,0,-1,1280,1072,0,0
63,-48,0,0,0,0,0,0,0,0,0,-1,1287,1072,0,0
70,-48,0,0,0,0,0,0,0,0,0,-1,1294,1072,0,0
77,-48,0,0,0,0,0,0,0,0,0,-1,1301,1072,0,0
84,-48,0,0,0,0,0,0,0,0,0,-1,1308,1072,0,0
91,-48,0,0,0,0,0,0,0,0,0,-1,1315,1072,0,0
98,-48,0,0,0,0,0,0,0,0,0,-1,1322,1072,0,0
105,-48,0,0,0,0,0,0,0,0,0,-1,1329,1072,0,0
112,-48,0,0,0,0,0,0,0,0,0,-1,1336,1072,0,0
119,-48,0,0,0,0,0,0,0,0,0,-1,1343,1072,0,0
126,-48,0,0,0,0,0,0,0,0,0,-1,1350,1072,0,0
133,-48,0,0,0,0,0,0,0,0,0,-1,1357,1072,0,0
140,-48,0,0,0,0,0,0,0,0,0,-1,1364,1072,0,0
147,-48,0,0,0,0,0,0,0,0,0,-1,1371,1072,0,0
154,-48,0,0,0,0,0,0,0,0,0,-1,1378,1072,0,0
161,-48,0,0,0,0,0,0,0,0,0,-1,1385,1072,0,0
168,-48,0,0,0,0,0,0,0,0,0,-1,1392,1072,0,0
175,-48,0,0,0,0,0,0,0,0,0,-1,1399,1072,0,0
182,-48,0,0,0,0,0,0,0,0,0,-1,1406,1072,0,0
189,-48,0,0,0,0,0,0,0,0,0,-1,1413,1072,0,0
196,-48,0,0,0,0,0,0,0,0,0,-1,1420,1072,0,0
203,-48,0,0,0,0,0,0,0,0,0,-1,1427,1072,0,0
210,-48,0,0,0,0,0,0,0,0,0,-1,1434,1072,0,0
217,-48,0,0,0,0,0,0,0,0,0,-1,1441,1072,0,0
224,-48,0,0,0,0,0,0,0,0,0,-1,1448,1072,0,0
231,-48,0,0,0,0,0,0,0,0,0,-1,1455,1072,0,0
238,-48,0,0,0,0,0,0,0,0,0,-1,1462,1072,0,0
245,-48,0,0,0,0,0,0,0,0,0,-1,1469,1072,0,0
252,-48,0,0,0,0,0,0,0,0,0,-1,1476,1072,0,0
259,-48,0,0,0,0,0,0,0,0,0,-1,1483,1072,0,0
266,-48,0,0,0,0,0,0,0,0,0,-1,1490,1072,0,0
273,-48,0,0,0,0,0,0,0,0,0,-1,1497,1072,0,0
280,-48,0,0,0,0,0,0,0,0,0,-1,1504,1072,0,0
287,-48,0,0,0,0,0,0,0,0,0,-1,1511,1072,0,0
294,-48,0,0,0,0,0,0,0,0,0,-1,1518,1072,0,0
301,-48,0,0,0,0,0,0,0,0,0,-1,1525,1072,0,0
308,-48,0,0,0,0,0,0,0,0,0,-1,1532,1072,0,0
315,-48,0,0,0,0,0,0,0,0,0,-1,1539,1072,0,0
322,-48,0,0,0,0,0,0,0,0,0,-1,1546,1072,0,0
329,-48,0,0,0,0,0,0,0,0,0,-1,1553,1072,0,0
336,-48,0,0,0,0,0,0,0,0,0,-1,1560,1072,0,0
343,-48,0,0,0,0,0,0,0,0,0,-1,1567,1072,0,0
350,-48,0,0,0,0,0,0,0,0,0,-1,1574,1072,0,0
357,-48,0,0,0,0,0,0,0,0,0,-1,1581,1072,0,0
364,-48,0,0,0,0,0,0,0,0,0,-1,1588,1072,0,0
371,-48,0,0,0,0,0,0,0,0,0,-1,1595,1072,0,0
378,-48,0,0,0,0,0,0,0,0,0,-1,1602,1072,0,0
385,-48,0,0,0,0,0,0,0,0,0,-1,1609,1072,0,0
392,-48,0,0,0,0,0,0,0,0,0,-1,1616,1072,0,0
399,-48,0,0,0,0,0,0,0,0,0,-1,1623,1072,0,0
406,-48,0,0,0,0,0,0,0,0,0,-1,1630,1072,0,0
413,-48,0,0,0,0,0,0,0,0,0,-1,1637,1072,0,0
420,-48,0,0,0,0,0,0,0,0,0,-1,1644,1072,0,0
427,-48,0,0,0,0,0,0,0,0,0,-1,1651,1072,0,0
434,-48,0,0,0,0,0,0,0,0,0,-1,1658,1072,0,0
441,-48,0,0,0,0,0,0,0,0,0,-1,1665,1072,0,0
448,-48,0,0,0,0,0,0,0,0,0,-1,1672,1072,0,0
455,-48,0,0,0,0,0,0,0,0,0,-1,1679,1072,0,0
462,-48,0,0,0,0,0,0,0,0,0,-1,1686,1072,0,0
469,-48,0,0,0,0,0,0,0,0,0,-1,1693,1072,0,0
476,-48,0,0,0,0,0,0,0,0,0,-1,1700,1072,0,0
483,-48,0,0,0,0,0,0,0,0,0,-1,1707,1072,0,0
490,-48,0,0,0,0,0,0,0,0,0,-1,1714,1072,0,0
497,-48,0,0,0,0,0,0,0,0,0,-1,1721,1072,0,0
504,-48,0,0,0,0,0,0,0,0,0,-1,1728,1072,0,0
511,-48,0,0,0,0,0,0,0,0,0,-1,1735,1072,0,0
518,-48,0,0,0,0,0,0,0,0,0,-1,1742,1072,0,0
525,-48,0,0,0,0,0,0,0,0,0,-1,1749,1072,0,0
532,-48,0,0,0,0,0,0,0,0,0,-1,1756,1072,0,0
539,-48,0,0,0,0,0,0,0,0,0,-1,1763,1072,0,0
546,-48,0,0,0,0,0,0,0,0,0,-1,1770,1072,0,0
553,-48,0,0,0,0,0,0,0,0,0,-1,1777,1072,0,0
560,-48,0,0,0,0,0,0,0,0,0,-1,1784,1072,0,0
567,-48,0,0,0,0,0,0,0,0,0,-1,1791,1072,0,0
574,-48,0,0,0,0,0,0,0,0,0,-1,1798,1072,0,0
581,-48,0,0,0,0,0,0,0,0,0,-1,1805,1072,0,0
588,-48,0,0,0,0,0,0,0,0,0,-1,1812,1072,0,0
595,-48,0,0,0,0,0,0,0,0,0,-1,1819,1072,0,0
602,-48,0,0,0,0,0,0,0,0,0,-1,1826,1072,0,0
609,-48,0,0,0,0,0,0,0,0,0,-1,1833,1072,0,0
616,-48,0,0,0,0,0,0,0,0,0,-1,1840,1072,0,0
623,-48,0,0,0,0,0,0,0,0,0,-1,1847,1072,0,0
630,-48,0,0,0,0,0,0,0,0,0,-1,1854,1072,0,0
637,-48,0,0,0,0,0,0,0,0,0,-1,1861,1072,0,0
644,-48,0,0,0,0,0,0,0,0,0,-1,1868,1072,0,0
651,-48,20.6295,2.77209,0.00420309,2.7954e-05,0.000591361,0.00428523,-5.41895e-05,0.138023,0.00287505,0.0331623,1875,1072,20.6295,-2.77203
658,-48,20.647,2.74304,0.002862,0.00047988,0.000192823,0.00287751,0.000464373,0.0802498,0.00178381,0.0375923,1882,1072,20.647,-2.743
665,-48,20.6292,2.70337,0.00191112,0.000674925,0.000108817,0.00192063,0.00066542,0.0871332,0.00112617,0.0419099,1889,1072,20.6291,-2.70333
672,-48,20.561,2.67114,0.0012622,0.000617344,0.000837384,0.00183708,4.24579e-05,0.601626,0.00121082,0.0409262,1896,1072,20.561,-2.67116
679,-48,20.5052,2.64172,0.000470221,0.000369081,0.00224605,0.00266627,-0.00182696,0.774143,0.00260921,0.038375,1903,1072,20.5053,-2.64168
686,-48,20.4512,2.56897,-0.00039087,3.41799e-05,0.00372451,0.00355222,-0.00390891,0.813898,0.00430933,0.0399852,1910,1072,20.4512,-2.56891
693,-48,20.6,2.57458,-0.00107681,-0.000319807,0.00503778,0.00435367,-0.00575029,0.822894,0.00585207,0.0394374,1917,1072,20.5999,-2.5746
700,-48,20.7157,2.57715,-0.00162821,-0.000570098,0.00607779,0.00500162,-0.00719993,0.828813,0.00708257,0.0356833,1924,1072,20.7157,-2.5772
707,-48,20.7209,2.67786,-0.00227008,-0.000785081,0.00679821,0.00531106,-0.00836622,0.839792,0.00796198,0.0307042,1931,1072,20.7209,-2.67782
714,-48,20.6478,2.8335,-0.00269931,-0.000944498,0.00720219,0.00543353,-0.00907734,0.846012,0.00846545,0.0266975,1938,1072,20.6478,-2.83345
721,-48,20.5516,3.526,-0.0028694,-0.00100619,0.00730523,0.00542659,-0.00930219,0.848819,0.00860123,0.0392066,1945,1072,20.5517,-3.526
728,-48,20.281,4.10498,0,0,0,0,0,0,0,-1,1952,1072,20.281,-4.10501
735,-48,20.2397,4.07104,-0.0030895,-0.00058234,0.00653851,0.00482167,-0.00849351,0.88011,0.00778435,0.016711,1959,1072,20.2397,-4.07104
742,-48,20.1919,4.01892,-0.00339124,-0.000163003,0.00561104,0.00406147,-0.00761571,0.925451,0.00684513,0.012889,1966,1072,20.1919,-4.01896
749,-48,20.2272,3.96411,-0.00376824,-0.000222575,0.00408062,0.00245369,-0.0064445,0.990322,0.0053068,0.0117126,1973,1072,20.2271,-3.96413
756,-48,20.2445,3.93726,-0.0034315,0.000288988,0.00203223,0.00118382,-0.00432633,1.15602,0.00334931,0.0115222,1980,1072,20.2445,-3.93723
763,-48,20.2413,3.93262,-0.00242166,0.000453754,0.00028546,0.00048182,-0.00244973,1.4728,0.0018152,0.0112559,1987,1072,20.2414,-3.93266
770,-48,20.238,3.90674,-0.00167209,0.000626483,-0.00204185,0.00182027,-0.00286588,-1.04173,0.00272791,0.0110642,1994,1072,20.2381,-3.90675
777,-48,20.1875,3.86401,-0.000440104,0.000512833,-0.00433813,0.00440058,-0.00432785,-0.840095,0.00503942,0.0101837,2001,1072,20.1875,-3.86407
784,-48,20.1554,3.79443,0.00131245,3.9913e-05,-0.00639585,0.00710361,-0.00575124,-0.73582,0.00743543,0.0232742,2008,1072,20.1554,-3.79445
791,-48,19.5437,3.58752,0.00403114,-0.000921456,-0.00860163,0.0105058,-0.00739614,-0.645244,0.0103876,0.0408785,2015,1072,19.5437,-3.5875
798,-48,19.1007,3.08386,0.00887231,-0.00247087,-0.0111554,0.0157151,-0.00931367,-0.550219,0.0146071,0.0461539,2022,1072,19.1007,-3.08386
805,-48,18.5912,2.63293,0,0,0,0,0,0,0,-1,2029,1072,18.5912,-2.63294
812,-48,21.1509,2.74817,0,0,0,0,0,0,0,-1,2036,1072,21.1508,-2.74813
-700,-55,-11.2806,-1.77942,0,0,0,0,0,0,0,-1,524,1079,-11.2806,1.77942
-693,-55,-11.2753,-1.73584,0.00507211,0.0272158,-0.0157859,0.0354255,-0.00313767,-1.09122,0.0247294,0.0482986,531,1079,-11.2753,1.73589
-686,-55,-11.2688,-1.53735,0.00568091,0.0178539,-0.0148569,0.0278227,-0.0042879,-0.979808,0.0201306,0.0471205,538,1079,-11.2688,1.53734
-679,-55,-11.2036,-1.34985,0,0,0,0,0,0,0,-1,545,1079,-11.2035,1.34991
-672,-55,-13.5248,1.51038,0,0,0,0,0,0,0,-1,552,1079,-13.5248,-1.5104
-665,-55,-13.076,0.674683,0,0,0,0,0,0,0,-1,559,1079,-13.076,-0.674622
-658,-55,-13.0549,0.866089,0.00214776,0.00284205,-0.00741757,0.0099206,-0.00493079,-0.808781,0.00873428,0.0493867,566,1079,-13.0549,-0.866068
-651,-55,-13.003,1.10376,0.00132021,0.00178328,-0.00562153,0.00717804,-0.00407456,-0.80598,0.00657854,0.034875,573,1079,-13.003,-1.10371
-644,-55,-12.9931,1.35278,0.000680546,0.00107826,-0.00406433,0.00494859,-0.00318979,-0.809843,0.00473513,0.0151385,580,1079,-12.9931,-1.3528
-637,-55,-12.9992,1.39038,0.000451685,-0.000436707,-0.00352177,0.00355716,-0.00354218,-0.722665,0.00409881,0.0121403,587,1079,-12.9992,-1.39033
-630,-55,-12.9905,1.47754,-0.000654183,-0.000587827,-0.00392236,0.00330149,-0.0045435,-0.789627,0.00454819,0.0141151,594,1079,-12.9905,-1.47759
-623,-55,-13.0052,1.56824,-0.00144071,-0.00029825,-0.00400257,0.00317364,-0.0049126,-0.856278,0.00470444,0.0134842,601,1079,-13.0053,-1.56818
-616,-55,-12.9951,1.60339,-0.00166809,-0.000189717,-0.00410355,0.00324069,-0.0050985,-0.874509,0.0048543,0.0126383,608,1079,-12.9951,-1.60342
-609,-55,-12.9916,1.67456,-0.00157033,-0.000695898,-0.00469142,0.00357864,-0.00584486,-0.831861,0.00549285,0.0129067,615,1079,-12.9916,-1.67457
-602,-55,-13.0239,1.74438,-0.00174674,-0.000765608,-0.00564327,0.00440838,-0.00692072,-0.828754,0.00659425,0.01207,622,1079,-13.0239,-1.7444
-595,-55,-12.947,1.85217,0,0,0,0,0,0,0,-1,629,1079,-12.947,-1.85215
-588,-55,-13.0078,1.32898,-0.00224713,-0.00119653,-0.00646848,0.00476794,-0.0082116,-0.825914,0.00758115,0.0291447,636,1079,-13.0078,-1.32904
-581,-55,-13.145,0.837769,-0.00238741,-0.00112021,-0.00634407,0.00462182,-0.00812944,-0.83517,0.00745421,0.0400542,643,1079,-13.145,-0.837777
-574,-55,-13.1591,0.969971,-0.00250516,-0.000971915,-0.00593612,0.00424688,-0.00772396,-0.849615,0.00700788,0.0409465,650,1079,-13.1591,-0.969991
-567,-55,-13.0938,1.03821,-0.00259264,-0.00062568,-0.00499073,0.00347755,-0.00669587,-0.882682,0.00597079,0.0417081,657,1079,-13.0938,-1.03821
-560,-55,-13.3397,0.872681,-0.00261646,-0.000104233,-0.00347089,0.00233085,-0.00505154,-0.959016,0.00435764,0.0425109,664,1079,-13.3396,-0.872724
-553,-55,-13.3506,0.839478,-0.0026226,0.000572885,-0.00139146,0.00109386,-0.00314358,-1.21255,0.0025401,0.0431897,671,1079,-13.3506,-0.839483
-546,-55,-13.3257,0.829834,-0.00271944,0.00135632,0.00122427,0.00169579,-0.0030589,1.30031,0.00278247,0.0415382,678,1079,-13.3257,-0.829865
-539,-55,-13.4236,0.955444,-0.00300872,0.00217339,0.00378478,0.00416907,-0.00500439,1.08556,0.00530361,0.0402682,685,1079,-13.4236,-0.955435
-532,-55,-13.4739,1.1189,-0.00400184,0.00270078,0.00464436,0.00507672,-0.00637778,1.09793,0.00662746,0.0411044,692,1079,-13.4739,-1.11889
-525,-55,0,0,0,0,0,0,0,0,0,-1,699,1079,0,0
-518,-55,0,0,0,0,0,0,0,0,0,-1,706,1079,0,0
-511,-55,0,0,0,0,0,0,0,0,0,-1,713,1079,0,0
-504,-55,0,0,0,0,0,0,0,0,0,-1,720,1079,0,0
-497,-55,0,0,0,0,0,0,0,0,0,-1,727,1079,0,0
-490,-55,0,0,0,0,0,0,0,0,0,-1,734,1079,0,0
-483,-55,0,0,0,0,0,0,0,0,0,-1,741,1079,0,0
-476,-55,0,0,0,0,0,0,0,0,0,-1,748,1079,0,0
-469,-55,0,0,0,0,0,0,0,0,0,-1,755,1079,0,0
-462,-55,0,0,0,0,0,0,0,0,0,-1,762,1079,0,0
-455,-55,0,0,0,0,0,0,0,0,0,-1,769,1079,0,0
-448,-55,0,0,0,0,0,0,0,0,0,-1,776,1079,0,0
-441,-55,0,0,0,0,0,0,0,0,0,-1,783,1079,0,0
-434,-55,0,0,0,0,0,0,0,0,0,-1,790,1079,0,0
-427,-55,0,0,0,0,0,0,0,0,0,-1,797,1079,0,0
-420,-55,0,0,0,0,0,0,0,0,0,-1,804,1079,0,0
-413,-55,0,0,0,0,0,0,0,0,0,-1,811,1079,0,0
-406,-55,0,0,0,0,0,0,0,0,0,-1,818,1079,0,0
-399,-55,0,0,0,0,0,0,0,0,0,-1,825,1079,0,0
-392,-55,0,0,0,0,0,0,0,0,0,-1,832,1079,0,0
-385,-55,0,0,0,0,0,0,0,0,0,-1,839,1079,0,0
-378,-55,0,0,0,0,0,0,0,0,0,-1,846,1079,0,0
-371,-55,0,0,0,0,0,0,0,0,0,-1,853,1079,0,0
-364,-55,0,0,0,0,0,0,0,0,0,-1,860,1079,0,0
-357,-55,0,0,0,0,0,0,0,0,0,-1,867,1079,0,0
-350,-55,0,0,0,0,0,0,0,0,0,-1,874,1079,0,0
-343,-55,0,0,0,0,0,0,0,0,0,-1,881,1079,0,0
-336,-55,0,0,0,0,0,0,0,0,0,-1,888,1079,0,0
-329,-55,0,0,0,0,0,0,0,0,0,-1,895,1079,0,0
-322,-55,0,0,0,0,0,0,0,0,0,-1,902,1079,0,0
-315,-55,0,0,0,0,0,0,0,0,0,-1,909,1079,0,0
-308,-55,0,0,0,0,0,0,0,0,0,-1,916,1079,0,0
-301,-55,0,0,0,0,0,0,0,0,0,-1,923,1079,0,0
-294,-55,0,0,0,0,0,0,0,0,0,-1,930,1079,0,0
-287,-55,0,0,0,0,0,0,0,0,0,-1,937,1079,0,0
-280,-55,0,0,0,0,0,0,0,0,0,-1,944,1079,0,0
-273,-55,0,0,0,0,0,0,0,0,0,-1,951,1079,0,0
-266,-55,0,0,0,0,0,0,0,0,0,-1,958,1079,0,0
-259,-55,0,0,0,0,0,0,0,0,0,-1,965,1079,0,0
-252,-55,0,0,0,0,0,0,0,0,0,-1,972,1079,0,0
-245,-55,0,0,0,0,0,0,0,0,0,-1,979,1079,0,0
-238,-55,0,0,0,0,0,0,0,0,0,-1,986,1079,0,0
-231,-55,0,0,0,0,0,0,0,0,0,-1,993,1079,0,0
-224,-55,0,0,0,0,0,0,0,0,0,-1,1000,1079,0,0
-217,-55,0,0,0,0,0,0,0,0,0,-1,1007,1079,0,0
-210,-55,0,0,0,0,0,0,0,0,0,-1,1014,1079,0,0
-203,-55,0,0,0,0,0,0,0,0,0,-1,1021,1079,0,0
-196,-55,0,0,0,0,0,0,0,0,0,-1,1028,1079,0,0
-189,-55,0,0,0,0,0,0,0,0,0,-1,1035,1079,0,0
-182,-55,0,0,0,0,0,0,0,0,0,-1,1042,1079,0,0
-175,-55,0,0,0,0,0,0,0,0,0,-1,1049,1079,0,0
-168,-55,0,0,0,0,0,0,0,0,0,-1,1056,1079,0,0
-161,-55,0,0,0,0,0,0,0,0,0,-1,1063,1079,0,0
-154,-55,0,0,0,0,0,0,0,0,0,-1,1070,1079,0,0
-147,-55,0,0,0,0,0,0,0,0,0,-1,1077,1079,0,0
-140,-55,0,0,0,0,0,0,0,0,0,-1,1084,1079,0,0
-133,-55,0,0,0,0,0,0,0,0,0,-1,1091,1079,0,0
-126,-55,0,0,0,0,0,0,0,0,0,-1,1098,1079,0,0
-119,-55,0,0,0,0,0,0,0,0,0,-1,1105,1079,0,0
-112,-55,0,0,0,0,0,0,0,0,0,-1,1112,1079,0,0
-105,-55,0,0,0,0,0,0,0,0,0,-1,1119,1079,0,0
-98,-55,0,0,0,0,0,0,0,0,0,-1,1126,1079,0,0
-91,-55,0,0,0,0,0,0,0,0,0,-1,1133,1079,0,0
-84,-55,0,0,0,0,0,0,0,0,0,-1,1140,1079,0,0
-77,-55,0,0,0,0,0,0,0,0,0,-1,1147,1079,0,0
-70,-55,0,0,0,0,0,0,0,0,0,-1,1154,1079,0,0
-63,-55,0,0,0,0,0,0,0,0,0,-1,1161,1079,0,0
-56,-55,0,0,0,0,0,0,0,0,0,-1,1168,1079,0,0
-49,-55,0,0,0,0,0,0,0,0,0,-1,1175,1079,0,0
-42,-55,0,0,0,0,0,0,0,0,0,-1,1182,1079,0,0
-35,-55,0,0,0,0,0,0,0,0,0,-1,1189,1079,0,0
-28,-55,0,0,0,0,0,0,0,0,0,-1,1196,1079,0,0
-21,-55,0,0,0,0,0,0,0,0,0,-1,1203,1079,0,0
-14,-55,0,0,0,0,0,0,0,0,0,-1,1210,1079,0,0
-7,-55,0,0,0,0,0,0,0,0,0,-1,1217,1079,0,0
0,-55,0,0,0,0,0,0,0,0,0,-1,1224,1079,0,0
7,-55,0,0,0,0,0,0,0,0,0,-1,1231,1079,0,0
14,-55,0,0,0,0,0,0,0,0,0,-1,1238,1079,0,0
21,-55,0,0,0,0,0,0,0,0,0,-1,1245,1079,0,0
28,-55,0,0,0,0,0,0,0,0,0,-1,1252,1079,0,0
35,-55,0,0,0,0,0,0,0,0,0,-1,1259,1079,0,0
42,-55,0,0,0,0,0,0,0,0,0,-1,1266,1079,0,0
49,-55,0,0,0,0,0,0,0,0,0,-1,1273,1079,0,0
56,-55,0,0,0,0,0,0,0,0,0,-1,1280,1079,0,0
63,-55,0,0,0,0,0,0,0,0,0,-1,1287,1079,0,0
70,-55,0,0,0,0,0,0,0,0,0,-1,1294,1079,0,0
77,-55,0,0,0,0,0,0,0,0,0,-1,1301,1079,0,0
84,-55,0,0,0,0,0,0,0,0,0,-1,1308,1079,0,0
91,-55,0,0,0,0,0,0,0,0,0,-1,1315,1079,0,0
98,-55,0,0,0,0,0,0,0,0,0,-1,1322,1079,0,0
105,-55,0,0,0,0,0,0,0,0,0,-1,1329,1079,0,0
112,-55,0,0,0,0,0,0,0,0,0,-1,1336,1079,0,0
119,-55,0,0,0,0,0,0,0,0,0,-1,1343,1079,0,0
126,-55,0,0,0,0,0,0,0,0,0,-1,1350,1079,0,0
133,-55,0,0,0,0,0,0,0,0,0,-1,1357,1079,0,0
140,-55,0,0,0,0,0,0,0,0,0,-1,1364,1079,0,0
147,-55,0,0,0,0,0,0,0,0,0,-1,1371,1079,0,0
154,-55,0,0,0,0,0,0,0,0,0,-1,1378,1079,0,0
161,-55,0,0,0,0,0,0,0,0,0,-1,1385,1079,0,0
168,-55,0,0,0,0,0,0,0,0,0,-1,1392,1079,0,0
175,-55,0,0,0,0,0,0,0,0,0,-1,1399,1079,0,0
182,-55,0,0,0,0,0,0,0,0,0,-1,1406,1079,0,0
189,-55,0,0,0,0,0,0,0,0,0,-1,1413,1079,0,0
196,-55,0,0,0,0,0,0,0,0,0,-1,1420,1079,0,0
203,-55,0,0,0,0,0,0,0,0,0,-1,1427,1079,0,0
210,-55,0,0,0,0,0,0,0,0,0,-1,1434,1079,0,0
217,-55,0,0,0,0,0,0,0,0,0,-1,1441,1079,0,0
224,-55,0,0,0,0,0,0,0,0,0,-1,1448,1079,0,0
231,-55,0,0,0,0,0,0,0,0,0,-1,1455,1079,0,0
238,-55,0,0,0,0,0,0,0,0,0,-1,1462,1079,0,0
245,-55,0,0,0,0,0,0,0,0,0,-1,1469,1079,0,0
252,-55,0,0,0,0,0,0,0,0,0,-1,1476,1079,0,0
259,-55,0,0,0,0,0,0,0,0,0,-1,1483,1079,0,0
266,-55,0,0,0,0,0,0,0,0,0,-1,1490,1079,0,0
273,-55,0,0,0,0,0,0,0,0,0,-1,1497,1079,0,0
280,-55,0,0,0,0,0,0,0,0,0,-1,1504,1079,0,0
287,-55,0,0,0,0,0,0,0,0,0,-1,1511,1079,0,0
294,-55,0,0,0,0,0,0,0,0,0,-1,1518,1079,0,0
301,-55,0,0,0,0,0,0,0,0,0,-1,1525,1079,0,0
308,-55,0,0,0,0,0,0,0,0,0,-1,1532,1079,0,0
315,-55,0,0,0,0,0,0,0,0,0,-1,1539,1079,0,0
322,-55,0,0,0,0,0,0,0,0,0,-1,1546,1079,0,0
329,-55,0,0,0,0,0,0,0,0,0,-1,1553,1079,0,0
336,-55,0,0,0,0,0,0,0,0,0,-1,1560,1079,0,0
343,-55,0,0,0,0,0,0,0,0,0,-1,1567,1079,0,0
350,-55,0,0,0,0,0,0,0,0,0,-1,1574,1079,0,0
357,-55,0,0,0,0,0,0,0,0,0,-1,1581,1079,0,0
364,-55,0,0,0,0,0,0,0,0,0,-1,1588,1079,0,0
371,-55,0,0,0,0,0,0,0,0,0,-1,1595,1079,0,0
378,-55,0,0,0,0,0,0,0,0,0,-1,1602,1079,0,0
385,-55,0,0,0,0,0,0,0,0,0,-1,1609,1079,0,0
392,-55,0,0,0,0,0,0,0,0,0,-1,1616,1079,0,0
399,-55,0,0,0,0,0,0,0,0,0,-1,1623,1079,0,0
406,-55,0,0,0,0,0,0,0,0,0,-1,1630,1079,0,0
413,-55,0,0,0,0,0,0,0,0,0,-1,1637,1079,0,0
420,-55,0,0,0,0,0,0,0,0,0,-1,1644,1079,0,0
427,-55,0,0,0,0,0,0,0,0,0,-1,1651,1079,0,0
434,-55,0,0,0,0,0,0,0,0,0,-1,1658,1079,0,0
441,-55,0,0,0,0,0,0,0,0,0,-1,1665,1079,0,0
448,-55,0,0,0,0,0,0,0,0,0,-1,1672,1079,0,0
455,-55,0,0,0,0,0,0,0,0,0,-1,1679,1079,0,0
462,-55,0,0,0,0,0,0,0,0,0,-1,1686,1079,0,0
469,-55,0,0,0,0,0,0,0,0,0,-1,1693,1079,0,0
476,-55,0,0,0,0,0,0,0,0,0,-1,1700,1079,0,0
483,-55,0,0,0,0,0,0,0,0,0,-1,1707,1079,0,0
490,-55,0,0,0,0,0,0,0,0,0,-1,1714,1079,0,0
497,-55,0,0,0,0,0,0,0,0,0,-1,1721,1079,0,0
504,-55,0,0,0,0,0,0,0,0,0,-1,1728,1079,0,0
511,-55,0,0,0,0,0,0,0,0,0,-1,1735,1079,0,0
518,-55,0,0,0,0,0,0,0,0,0,-1,1742,1079,0,0
525,-55,0,0,0,0,0,0,0,0,0,-1,1749,1079,0,0
532,-55,0,0,0,0,0,0,0,0,0,-1,1756,1079,0,0
539,-55,0,0,0,0,0,0,0,0,0,-1,1763,1079,0,0
546,-55,0,0,0,0,0,0,0,0,0,-1,1770,1079,0,0
553,-55,0,0,0,0,0,0,0,0,0,-1,1777,1079,0,0
560,-55,0,0,0,0,0,0,0,0,0,-1,1784,1079,0,0
567,-55,0,0,0,0,0,0,0,0,0,-1,1791,1079,0,0
574,-55,0,0,0,0,0,0,0,0,0,-1,1798,1079,0,0
581,-55,0,0,0,0,0,0,0,0,0,-1,1805,1079,0,0
588,-55,0,0,0,0,0,0,0,0,0,-1,1812,1079,0,0
595,-55,0,0,0,0,0,0,0,0,0,-1,1819,1079,0,0
602,-55,0,0,0,0,0,0,0,0,0,-1,1826,1079,0,0
609,-55,0,0,0,0,0,0,0,0,0,-1,1833,1079,0,0
616,-55,0,0,0,0,0,0,0,0,0,-1,1840,1079,0,0
623,-55,0,0,0,0,0,0,0,0,0,-1,1847,1079,0,0
630,-55,0,0,0,0,0,0,0,0,0,-1,1854,1079,0,0
637,-55,0,0,0,0,0,0,0,0,0,-1,1861,1079,0,0
644,-55,0,0,0,0,0,0,0,0,0,-1,1868,1079,0,0
651,-55,20.5946,2.7428,0.00413243,-0.000255266,0.000335895,0.00415799,-0.000280831,0.0759638,0.00287019,0.0369027,1875,1079,20.5946,-2.74274
658,-55,20.6862,2.83533,0.00298186,0.000400241,5.60754e-05,0.00298307,0.000399023,0.0217074,0.00186995,0.0356085,1882,1079,20.6862,-2.83532
665,-55,20.5808,2.85144,0.00211376,0.000685293,0.000103904,0.00212128,0.000677775,0.0722314,0.00125104,0.0386077,1889,1079,20.5808,-2.85148
672,-55,20.5831,2.78198,0.00142853,0.000613441,0.000984363,0.00208638,-4.44076e-05,0.589132,0.00140596,0.0385105,1896,1079,20.5832,-2.78199
679,-55,20.6614,2.66711,0.00058601,0.000318915,0.00243802,0.00289413,-0.00198921,0.758037,0.00283549,0.0371757,1903,1079,20.6614,-2.66712
686,-55,20.7906,2.73767,-0.000310226,-6.1359e-05,0.00390362,0.00371981,-0.0040914,0.801331,0.00451151,0.0401505,1910,1079,20.7906,-2.73762
693,-55,20.7307,2.89478,-0.00102751,-0.000449227,0.00517566,0.00444537,-0.0059221,0.813302,0.00600586,0.0393283,1917,1079,20.7308,-2.89482
700,-55,20.7657,2.62415,-0.00159814,-0.000685953,0.00615192,0.00502676,-0.00731085,0.8224,0.0071637,0.0339517,1924,1079,20.7657,-2.62418
707,-55,20.7141,2.70874,-0.00223389,-0.000909211,0.00682507,0.00528558,-0.00842868,0.833769,0.00798695,0.0289908,1931,1079,20.7141,-2.7087
714,-55,20.6724,2.85791,-0.0026513,-0.00109233,0.00717813,0.00534852,-0.00909215,0.839482,0.00843019,0.0315141,1938,1079,20.6724,-2.85796
721,-55,20.5507,3.55457,-0.00281263,-0.00115547,0.00720462,0.00526806,-0.00923616,0.84265,0.00847783,0.0378514,1945,1079,20.5506,-3.55456
728,-55,20.2247,4.07031,0,0,0,0,0,0,0,-1,1952,1079,20.2248,-4.07025
735,-55,20.1757,4.03882,-0.00301551,-0.000690033,0.006359,0.00461165,-0.0083172,0.875824,0.00756598,0.0163646,1959,1079,20.1756,-4.03884
742,-55,20.167,4.01257,-0.00328692,-0.000276798,0.00544883,0.00387102,-0.00743473,0.920147,0.00663459,0.0151197,1966,1079,20.167,-4.01259
749,-55,20.1957,3.94971,-0.00365041,-0.000290594,0.00394683,0.00231897,-0.00625997,0.986602,0.0051243,0.0112159,1973,1079,20.1957,-3.94971
756,-55,20.2034,3.91992,-0.00331434,0.000219318,0.00197695,0.00110391,-0.00419893,1.15006,0.00323074,0.0108087,1980,1079,20.2034,-3.91997
763,-55,20.2085,3.92188,-0.00232198,0.000378087,0.000349172,0.00042251,-0.0023664,1.44425,0.00173567,0.0136955,1987,1079,20.2085,-3.92193
770,-55,20.2128,3.87378,-0.00161182,0.000562982,-0.0018388,0.00161185,-0.00266068,-1.05242,0.0024914,0.014094,1994,1079,20.2128,-3.87372
777,-55,20.1676,3.82788,-0.000473093,0.000439255,-0.00389846,0.00390814,-0.00394198,-0.84364,0.00453229,0.0116563,2001,1079,20.1676,-3.82794
784,-55,20.1206,3.77734,0.00118885,1.13035e-05,-0.00569363,0.00632407,-0.00512392,-0.733877,0.00662159,0.0291419,2008,1079,20.1206,-3.77735
791,-55,19.4958,3.68567,0.00375423,-0.000832582,-0.0075681,0.00936878,-0.00644714,-0.638278,0.00918311,0.0429012,2015,1079,19.4958,-3.68569
798,-55,18.929,3.5863,0.00821878,-0.00215164,-0.009646,0.0139849,-0.00791777,-0.538781,0.0128062,0.0458847,2022,1079,18.929,-3.58635
805,-55,18.6815,3.4137,0.0155826,-0.00399898,-0.0117665,0.021099,-0.00951538,-0.438396,0.0180921,0.0453543,2029,1079,18.6815,-3.41375
812,-55,20.6194,2.85559,0.0272307,-0.00638514,-0.0135709,0.0320255,-0.0111799,-0.339622,0.0258944,0.048298,2036,1079,20.6194,-2.85557
-700,-62,-11.912,-0.130371,0,0,0,0,0,0,0,-1,524,1086,-11.912,0.130333
-693,-62,-10.9786,-1.84485,0,0,0,0,0,0,0,-1,531,1086,-10.9786,1.84488
-686,-62,-14.1779,3.92395,-0.00616955,0.0259205,-0.0133644,0.0307573,-0.0110063,-1.22355,0.0249949,0.0465414,538,1086,-14.1779,-3.92398
-679,-62,-12.6583,1.99695,-0.00341556,0.0191127,-0.0120365,0.0243336,-0.00863649,-1.16153,0.0197413,0.0491849,545,1086,-12.6583,-1.99694
-672,-62,-12.8799,1.88147,-0.00187606,0.0141242,-0.0103892,0.0192366,-0.00698846,-1.1135,0.0156818,0.0450233,552,1086,-12.8799,-1.88152
-665,-62,-13.0146,1.67847,-0.00103738,0.0104558,-0.00862674,0.0150747,-0.0056563,-1.07922,0.012374,0.0455063,559,1086,-13.0146,-1.67845
-658,-62,-13.0031,1.38745,-0.000627848,0.00774208,-0.00688637,0.0116154,-0.00450117,-1.05844,0.00960234,0.0473506,566,1086,-13.003,-1.38745
-651,-62,-12.9244,1.27222,-0.000453418,0.00569568,-0.00527327,0.00872524,-0.00348298,-1.04933,0.0072618,0.0357823,573,1086,-12.9243,-1.27218
-644,-62,-12.9322,1.31555,-0.00036296,0.00401243,-0.00386271,0.00626394,-0.00261447,-1.04306,0.00526832,0.0112624,580,1086,-12.9322,-1.31557
-637,-62,-12.938,1.38635,7.09156e-05,0.00176019,-0.00336636,0.00438626,-0.00255515,-0.908314,0.00405384,0.00970782,587,1086,-12.938,-1.38634
-630,-62,-12.9517,1.46118,-0.000655192,0.000910046,-0.00385469,0.00406076,-0.00380591,-0.885552,0.00454262,0.0113219,594,1086,-12.9517,-1.46114
-623,-62,-12.9564,1.5459,-0.00149829,0.000623154,-0.00400766,0.00370809,-0.00458323,-0.914769,0.00479587,0.0122796,601,1086,-12.9563,-1.54584
-616,-62,-12.9257,1.60071,-0.00189542,0.000274296,-0.00417229,0.00350046,-0.00512158,-0.912589,0.00500718,0.0121167,608,1086,-12.9257,-1.60071
-609,-62,-12.9007,1.67297,-0.00195304,-0.00054633,-0.00482046,0.00362182,-0.00612119,-0.857842,0.00568649,0.0123874,615,1086,-12.9007,-1.67292
-602,-62,-12.92,1.77771,-0.00219227,-0.000696269,-0.00571875,0.00432319,-0.00721173,-0.850428,0.00672893,0.012827,622,1086,-12.92,-1.77768
-595,-62,-12.8336,1.98938,0,0,0,0,0,0,0,-1,629,1086,-12.8336,-1.98937
-588,-62,-12.9469,1.50659,-0.00275895,-0.00114169,-0.00663812,0.00473687,-0.00863752,-0.846008,0.00783041,0.0266315,636,1086,-12.9469,-1.50659
-581,-62,-13.1415,1.01843,-0.0029131,-0.00107571,-0.00658833,0.00465767,-0.00864648,-0.854673,0.00779538,0.0338575,643,1086,-13.1415,-1.01849
-574,-62,-13.1676,0.966309,-0.00302206,-0.000987353,-0.00625254,0.00433006,-0.00833948,-0.866047,0.00743585,0.0358001,650,1086,-13.1676,-0.9663
-567,-62,-13.0283,1.078,-0.00305204,-0.00072285,-0.00539696,0.00363374,-0.00740863,-0.891662,0.00649831,0.0390167,657,1086,-13.0283,-1.07804
-560,-62,-13.2072,1.12512,-0.00296399,-0.000326427,-0.00396416,0.00253256,-0.00582298,-0.945978,0.00494718,0.04006,664,1086,-13.2072,-1.12517
-553,-62,-13.1058,1.08057,-0.00279852,0.000175344,-0.00195871,0.00114758,-0.00377076,-1.11006,0.00297118,0.0362889,671,1086,-13.1058,-1.08051
-546,-62,-13.1391,0.800781,-0.00265288,0.000724733,0.000614322,0.000832997,-0.00276114,1.39636,0.00217233,0.030721,678,1086,-13.1391,-0.800738
-539,-62,-13.249,0.845215,-0.00266918,0.0012633,0.00324096,0.00308782,-0.00449371,1.05806,0.00440221,0.0381942,685,1086,-13.249,-0.845239
-532,-62,-13.3026,0.998535,-0.00341586,0.00143834,0.0042812,0.00393257,-0.00591009,1.04327,0.00572077,0.0422635,692,1086,-13.3025,-0.998497
-525,-62,0,0,0,0,0,0,0,0,0,-1,699,1086,0,0
-518,-62,0,0,0,0,0,0,0,0,0,-1,706,1086,0,0
-511,-62,0,0,0,0,0,0,0,0,0,-1,713,1086,0,0
-504,-62,0,0,0,0,0,0,0,0,0,-1,720,1086,0,0
-497,-62,0,0,0,0,0,0,0,0,0,-1,727,1086,0,0
-490,-62,0,0,0,0,0,0,0,0,0,-1,734,1086,0,0
-483,-62,0,0,0,0,0,0,0,0,0,-1,741,1086,0,0
-476,-62,0,0,0,0,0,0,0,0,0,-1,748,1086,0,0
-469,-62,0,0,0,0,0,0,0,0,0,-1,755,1086,0,0
-462,-62,0,0,0,0,0,0,0,0,0,-1,762,1086,0,0
-455,-62,0,0,0,0,0,0,0,0,0,-1,769,1086,0,0
-448,-62,0,0,0,0,0,0,0,0,0,-1,776,1086,0,0
-441,-62,0,0,0,0,0,0,0,0,0,-1,783,1086,0,0
-434,-62,0,0,0,0,0,0,0,0,0,-1,790,1086,0,0
-427,-62,0,0,0,0,0,0,0,0,0,-1,797,1086,0,0
-420,-62,0,0,0,0,0,0,0,0,0,-1,804,1086,0,0
-413,-62,0,0,0,0,0,0,0,0,0,-1,811,1086,0,0
-406,-62,0,0,0,0,0,0,0,0,0,-1,818,1086,0,0
-399,-62,0,0,0,0,0,0,0,0,0,-1,825,1086,0,0
-392,-62,0,0,0,0,0,0,0,0,0,-1,832,1086,0,0
-385,-62,0,0,0,0,0,0,0,0,0,-1,839,1086,0,0
-378,-62,0,0,0,0,0,0,0,0,0,-1,846,1086,0,0
-371,-62,0,0,0,0,0,0,0,0,0,-1,853,1086,0,0
-364,-62,0,0,0,0,0,0,0,0,0,-1,860,1086,0,0
-357,-62,0,0,0,0,0,0,0,0,0,-1,867,1086,0,0
-350,-62,0,0,0,0,0,0,0,0,0,-1,874,1086,0,0
-343,-62,0,0,0,0,0,0,0,0,0,-1,881,1086,0,0
-336,-62,0,0,0,0,0,0,0,0,0,-1,888,1086,0,0
-329,-62,0,0,0,0,0,0,0,0,0,-1,895,1086,0,0
-322,-62,0,0,0,0,0,0,0,0,0,-1,902,1086,0,0
-315,-62,0,0,0,0,0,0,0,0,0,-1,909,1086,0,0
-308,-62,0,0,0,0,0,0,0,0,0,-1,916,1086,0,0
-301,-62,0,0,0,0,0,0,0,0,0,-1,923,1086,0,0
-294,-62,0,0,0,0,0,0,0,0,0,-1,930,1086,0,0
-287,-62,0,0,0,0,0,0,0,0,0,-1,937,1086,0,0
-280,-62,0,0,0,0,0,0,0,0,0,-1,944,1086,0,0
-273,-62,0,0,0,0,0,0,0,0,0,-1,951,1086,0,0
-266,-62,0,0,0,0,0,0,0,0,0,-1,958,1086,0,0
-259,-62,0,0,0,0,0,0,0,0,0,-1,965,1086,0,0
-252,-62,0,0,0,0,0,0,0,0,0,-1,972,1086,0,0
-245,-62,0,0,0,0,0,0,0,0,0,-1,979,1086,0,0
-238,-62,0,0,0,0,0,0,0,0,0,-1,986,1086,0,0
-231,-62,0,0,0,0,0,0,0,0,0,-1,993,1086,0,0
-224,-62,0,0,0,0,0,0,0,0,0,-1,1000,1086,0,0
-217,-62,0,0,0,0,0,0,0,0,0,-1,1007,1086,0,0
-210,-62,0,0,0,0,0,0,0,0,0,-1,1014,1086,0,0
-203,-62,0,0,0,0,0,0,0,0,0,-1,1021,1086,0,0
-196,-62,0,0,0,0,0,0,0,0,0,-1,1028,1086,0,0
-189,-62,0,0,0,0,0,0,0,0,0,-1,1035,1086,0,0
-182,-62,0,0,0,0,0,0,0,0,0,-1,1042,1086,0,0
-175,-62,0,0,0,0,0,0,0,0,0,-1,1049,1086,0,0
-168,-62,0,0,0,0,0,0,0,0,0,-1,1056,1086,0,0
-161,-62,0,0,0,0,0,0,0,0,0,-1,1063,1086,0,0
-154,-62,0,0,0,0,0,0,0,0,0,-1,1070,1086,0,0
-147,-62,0,0,0,0,0,0,0,0,0,-1,1077,1086,0,0
-140,-62,0,0,0,0,0,0,0,0,0,-1,1084,1086,0,0
-133,-62,0,0,0,0,0,0,0,0,0,-1,1091,1086,0,0
-126,-62,0,0,0,0,0,0,0,0,0,-1,1098,1086,0,0
-119,-62,0,0,0,0,0,0,0,0,0,-1,1105,1086,0,0
-112,-62,0,0,0,0,0,0,0,0,0,-1,1112,1086,0,0
-105,-62,0,0,0,0,0,0,0,0,0,-1,1119,1086,0,0
-98,-62,0,0,0,0,0,0,0,0,0,-1,1126,1086,0,0
-91,-62,0,0,0,0,0,0,0,0,0,-1,1133,1086,0,0
-84,-62,0,0,0,0,0,0,0,0,0,-1,1140,1086,0,0
-77,-62,0,0,0,0,0,0,0,0,0,-1,1147,1086,0,0
-70,-62,0,0,0,0,0,0,0,0,0,-1,1154,1086,0,0
-63,-62,0,0,0,0,0,0,0,0,0,-1,1161,1086,0,0
-56,-62,0,0,0,0,0,0,0,0,0,-1,1168,1086,0,0
-49,-62,0,0,0,0,0,0,0,0,0,-1,1175,1086,0,0
-42,-62,0,0,0,0,0,0,0,0,0,-1,1182,1086,0,0
-35,-62,0,0,0,0,0,0,0,0,0,-1,1189,1086,0,0
-28,-62,0,0,0,0,0,0,0,0,0,-1,1196,1086,0,0
-21,-62,0,0,0,0,0,0,0,0,0,-1,1203,1086,0,0
-14,-62,0,0,0,0,0,0,0,0,0,-1,1210,1086,0,0
-7,-62,0,0,0,0,0,0,0,0,0,-1,1217,1086,0,0
0,-62,0,0,0,0,0,0,0,0,0,-1,1224,1086,0,0
7,-62,0,0,0,0,0,0,0,0,0,-1,1231,1086,0,0
14,-62,0,0,0,0,0,0,0,0,0,-1,1238,1086,0,0
21,-62,0,0,0,0,0,0,0,0,0,-1,1245,1086,0,0
28,-62,0,0,0,0,0,0,0,0,0,-1,1252,1086,0,0
35,-62,0,0,0,0,0,0,0,0,0,-1,1259,1086,0,0
42,-62,0,0,0,0,0,0,0,0,0,-1,1266,1086,0,0
49,-62,0,0,0,0,0,0,0,0,0,-1,1273,1086,0,0
56,-62,0,0,0,0,0,0,0,0,0,-1,1280,1086,0,0
63,-62,0,0,0,0,0,0,0,0,0,-1,1287,1086,0,0
70,-62,0,0,0,0,0,0,0,0,0,-1,1294,1086,0,0
77,-62,0,0,0,0,0,0,0,0,0,-1,1301,1086,0,0
84,-62,0,0,0,0,0,0,0,0,0,-1,1308,1086,0,0
91,-62,0,0,0,0,0,0,0,0,0,-1,1315,1086,0,0
98,-62,0,0,0,0,0,0,0,0,0,-1,1322,1086,0,0
105,-62,0,0,0,0,0,0,0,0,0,-1,1329,1086,0,0
112,-62,0,0,0,0,0,0,0,0,0,-1,1336,1086,0,0
119,-62,0,0,0,0,0,0,0,0,0,-1,1343,1086,0,0
126,-62,0,0,0,0,0,0,0,0,0,-1,1350,1086,0,0
133,-62,0,0,0,0,0,0,0,0,0,-1,1357,1086,0,0
140,-62,0,0,0,0,0,0,0,0,0,-1,1364,1086,0,0
147,-62,0,0,0,0,0,0,0,0,0,-1,1371,1086,0,0
154,-62,0,0,0,0,0,0,0,0,0,-1,1378,1086,0,0
161,-62,0,0,0,0,0,0,0,0,0,-1,1385,1086,0,0
168,-62,0,0,0,0,0,0,0,0,0,-1,1392,1086,0,0
175,-62,0,0,0,0,0,0,0,0,0,-1,1399,1086,0,0
182,-62,0,0,0,0,0,0,0,0,0,-1,1406,1086,0,0
189,-62,0,0,0,0,0,0,0,0,0,-1,1413,1086,0,0
196,-62,0,0,0,0,0,0,0,0,0,-1,1420,1086,0,0
203,-62,0,0,0,0,0,0,0,0,0,-1,1427,1086,0,0
210,-62,0,0,0,0,0,0,0,0,0,-1,1434,1086,0,0
217,-62,0,0,0,0,0,0,0,0,0,-1,1441,1086,0,0
224,-62,0,0,0,0,0,0,0,0,0,-1,1448,1086,0,0
231,-62,0,0,0,0,0,0,0,0,0,-1,1455,1086,0,0
238,-62,0,0,0,0,0,0,0,0,0,-1,1462,1086,0,0
245,-62,0,0,0,0,0,0,0,0,0,-1,1469,1086,0,0
252,-62,0,0,0,0,0,0,0,0,0,-1,1476,1086,0,0
259,-62,0,0,0,0,0,0,0,0,0,-1,1483,1086,0,0
266,-62,0,0,0,0,0,0,0,0,0,-1,1490,1086,0,0
273,-62,0,0,0,0,0,0,0,0,0,-1,1497,1086,0,0
280,-62,0,0,0,0,0,0,0,0,0,-1,1504,1086,0,0
287,-62,0,0,0,0,0,0,0,0,0,-1,1511,1086,0,0
294,-62,0,0,0,0,0,0,0,0,0,-1,1518,1086,0,0
301,-62,0,0,0,0,0,0,0,0,0,-1,1525,1086,0,0
308,-62,0,0,0,0,0,0,0,0,0,-1,1532,1086,0,0
315,-62,0,0,0,0,0,0,0,0,0,-1,1539,1086,0,0
322,-62,0,0,0,0,0,0,0,0,0,-1,1546,1086,0,0
329,-62,0,0,0,0,0,0,0,0,0,-1,1553,1086,0,0
336,-62,0,0,0,0,0,0,0,0,0,-1,1560,1086,0,0
343,-62,0,0,0,0,0,0,0,0,0,-1,1567,1086,0,0
350,-62,0,0,0,0,0,0,0,0,0,-1,1574,1086,0,0
357,-62,0,0,0,0,0,0,0,0,0,-1,1581,1086,0,0
364,-62,0,0,0,0,0,0,0,0,0,-1,1588,1086,0,0
371,-62,0,0,0,0,0,0,0,0,0,-1,1595,1086,0,0
378,-62,0,0,0,0,0,0,0,0,0,-1,1602,1086,0,0
385,-62,0,0,0,0,0,0,0,0,0,-1,1609,1086,0,0
392,-62,0,0,0,0,0,0,0,0,0,-1,1616,1086,0,0
399,-62,0,0,0,0,0,0,0,0,0,-1,1623,1086,0,0
406,-62,0,0,0,0,0,0,0,0,0,-1,1630,1086,0,0
413,-62,0,0,0,0,0,0,0,0,0,-1,1637,1086,0,0
420,-62,0,0,0,0,0,0,0,0,0,-1,1644,1086,0,0
427,-62,0,0,0,0,0,0,0,0,0,-1,1651,1086,0,0
434,-62,0,0,0,0,0,0,0,0,0,-1,1658,1086,0,0
441,-62,0,0,0,0,0,0,0,0,0,-1,1665,1086,0,0
448,-62,0,0,0,0,0,0,0,0,0,-1,1672,1086,0,0
455,-62,0,0,0,0,0,0,0,0,0,-1,1679,1086,0,0
462,-62,0,0,0,0,0,0,0,0,0,-1,1686,1086,0,0
469,-62,0,0,0,0,0,0,0,0,0,-1,1693,1086,0,0
476,-62,0,0,0,0,0,0,0,0,0,-1,1700,1086,0,0
483,-62,0,0,0,0,0,0,0,0,0,-1,1707,1086,0,0
490,-62,0,0,0,0,0,0,0,0,0,-1,1714,1086,0,0
497,-62,0,0,0,0,0,0,0,0,0,-1,1721,1086,0,0
504,-62,0,0,0,0,0,0,0,0,0,-1,1728,1086,0,0
511,-62,0,0,0,0,0,0,0,0,0,-1,1735,1086,0,0
518,-62,0,0,0,0,0,0,0,0,0,-1,1742,1086,0,0
525,-62,0,0,0,0,0,0,0,0,0,-1,1749,1086,0,0
532,-62,0,0,0,0,0,0,0,0,0,-1,1756,1086,0,0
539,-62,0,0,0,0,0,0,0,0,0,-1,1763,1086,0,0
546,-62,0,0,0,0,0,0,0,0,0,-1,1770,1086,0,0
553,-62,0,0,0,0,0,0,0,0,0,-1,1777,1086,0,0
560,-62,0,0,0,0,0,0,0,0,0,-1,1784,1086,0,0
567,-62,0,0,0,0,0,0,0,0,0,-1,1791,1086,0,0
574,-62,0,0,0,0,0,0,0,0,0,-1,1798,1086,0,0
581,-62,0,0,0,0,0,0,0,0,0,-1,1805,1086,0,0
588,-62,0,0,0,0,0,0,0,0,0,-1,1812,1086,0,0
595,-62,0,0,0,0,0,0,0,0,0,-1,1819,1086,0,0
602,-62,0,0,0,0,0,0,0,0,0,-1,1826,1086,0,0
609,-62,0,0,0,0,0,0,0,0,0,-1,1833,1086,0,0
616,-62,0,0,0,0,0,0,0,0,0,-1,1840,1086,0,0
623,-62,0,0,0,0,0,0,0,0,0,-1,1847,1086,0,0
630,-62,0,0,0,0,0,0,0,0,0,-1,1854,1086,0,0
637,-62,0,0,0,0,0,0,0,0,0,-1,1861,1086,0,0
644,-62,0,0,0,0,0,0,0,0,0,-1,1868,1086,0,0
651,-62,20.5947,2.70215,0.00406202,-0.000829095,-0.000265474,0.00407639,-0.000843461,-0.054065,0.00303803,0.0407582,1875,1086,20.5948,-2.70213
658,-62,20.8386,2.82153,0.003111,-5.90245e-05,-0.000303472,0.00313979,-8.7815e-05,-0.0945872,0.00212307,0.0399871,1882,1086,20.8386,-2.82152
665,-62,20.746,2.91199,0.0023479,0.00029402,-4.84757e-05,0.00234905,0.000292876,-0.0235844,0.00147811,0.038349,1889,1086,20.7459,-2.91201
672,-62,20.6348,2.69092,0.00163236,0.000228432,0.00103956,0.00218476,-0.000323974,0.488438,0.00157564,0.035792,1896,1086,20.6348,-2.69096
679,-62,20.746,2.64819,0.000734295,-7.23415e-05,0.00257474,0.00293711,-0.00227516,0.707707,0.00301738,0.0368936,1903,1086,20.746,-2.64816
686,-62,20.6598,2.77954,-0.000205605,-0.000450918,0.00405069,0.00372429,-0.00438081,0.770263,0.00468459,0.0394891,1910,1086,20.6598,-2.77949
693,-62,20.7273,2.84888,-0.000967121,-0.000823818,0.0052925,0.00439752,-0.00618846,0.792167,0.0061409,0.0374595,1917,1086,20.7273,-2.84883
700,-62,20.7239,2.75195,-0.00157296,-0.00101215,0.00621458,0.00492834,-0.00751346,0.807943,0.00723478,0.0312161,1924,1086,20.7239,-2.75195
707,-62,20.6857,2.78125,-0.00221474,-0.00120755,0.00684822,0.00515557,-0.00857786,0.822101,0.00801064,0.0247064,1931,1086,20.6857,-2.78129
714,-62,20.6974,2.76624,-0.00262845,-0.0013604,0.00715711,0.00519071,-0.00917956,0.829576,0.00840255,0.0263457,1938,1086,20.6974,-2.76624
721,-62,20.6826,3.51953,-0.002787,-0.00139729,0.00711589,0.00505759,-0.00924188,0.834068,0.0083728,0.0355665,1945,1086,20.6826,-3.51955
728,-62,20.1244,4.0979,0,0,0,0,0,0,0,-1,1952,1086,20.1244,-4.09789
735,-62,20.1383,4.05042,-0.0029936,-0.000870799,0.00619036,0.00434849,-0.00821289,0.870303,0.00736583,0.0170048,1959,1086,20.1384,-4.05047
742,-62,20.1339,4.03882,-0.00324023,-0.00043251,0.00531025,0.00365632,-0.00732906,0.914626,0.00645948,0.0146303,1966,1086,20.1339,-4.0388
749,-62,20.1322,3.95398,-0.00350271,-0.000496979,0.00388413,0.0021649,-0.00616458,0.96999,0.00499042,0.0123875,1973,1086,20.1322,-3.95398
756,-62,20.1068,3.94788,-0.00313143,-0.000110093,0.00210579,0.000970853,-0.00421237,1.09655,0.00318163,0.0132117,1980,1086,20.1069,-3.9479
763,-62,20.1256,3.92517,-0.00220892,-8.47239e-05,0.000687871,0.000118571,-0.00241221,1.28343,0.00164909,0.0140976,1987,1086,20.1256,-3.92522
770,-62,20.1368,3.85681,-0.00152412,-7.59628e-05,-0.00122008,0.000618722,-0.00221881,-1.0532,0.00172289,0.0110847,1994,1086,20.1369,-3.85677
777,-62,20.1128,3.78198,-0.000512776,-0.000457404,-0.00283291,0.00234795,-0.00331813,-0.790285,0.00328726,0.0125004,2001,1086,20.1128,-3.78204
784,-62,20.094,3.72791,0.00095408,-0.00113852,-0.00410595,0.00414494,-0.00432939,-0.660641,0.00489304,0.027709,2008,1086,20.094,-3.72785
791,-62,20.3645,3.39575,0.00317091,-0.00219425,-0.00533936,0.00646369,-0.00548703,-0.552609,0.00690743,0.0443614,2015,1086,20.3646,-3.39571
798,-62,20.5148,3.16577,0.0069493,-0.00360833,-0.00658849,0.0101129,-0.00677191,-0.447657,0.00981185,0.0453187,2022,1086,20.5148,-3.16581
805,-62,20.4954,2.86719,0.0131043,-0.00532453,-0.00769445,0.0158945,-0.0081147,-0.347874,0.0141022,0.0426844,2029,1086,20.4953,-2.86716
812,-62,20.1165,2.97949,0.0227807,-0.00716366,-0.00831037,0.0249324,-0.0093154,-0.253357,0.0204468,0.0452905,2036,1086,20.1164,-2.97944
-700,-69,-11.7766,1.97656,0,0,0,0,0,0,0,-1,524,1093,-11.7766,-1.97661
-693,-69,-12.4948,2.47119,-0.0269496,0.0435577,-0.0129251,0.0458524,-0.0292443,-1.39509,0.0437091,0.0484362,531,1093,-12.4947,-2.47124
-686,-69,-13.2029,2.94104,-0.0184445,0.0341328,-0.0123384,0.0368842,-0.021196,-1.35139,0.0339379,0.0453918,538,1093,-13.203,-2.94105
-679,-69,-13.8765,3.3252,-0.0127134,0.0267643,-0.0112083,0.0297245,-0.0156737,-1.31258,0.0266258,0.0489995,545,1093,-13.8766,-3.32519
-672,-69,-12.335,2.00854,-0.00876895,0.0209273,-0.00976713,0.0238517,-0.0116934,-1.27988,0.0209183,0.0465156,552,1093,-12.3349,-2.00855
-665,-69,-12.4606,1.47815,-0.00602265,0.0162554,-0.00819479,0.0189451,-0.00871231,-1.25366,0.0163282,0.0475214,559,1093,-12.4606,-1.47812
-658,-69,-12.8782,1.47266,-0.00413411,0.012488,-0.00661314,0.014798,-0.00644413,-1.23474,0.0125763,0.0485788,566,1093,-12.8783,-1.47269
-651,-69,-12.8381,1.37634,-0.00284112,0.00942269,-0.00511863,0.0112783,-0.00469675,-1.22301,0.00948054,0.0320279,573,1093,-12.8381,-1.37629
-644,-69,-12.8344,1.31604,-0.00191423,0.00677733,-0.00380332,0.00820659,-0.00334349,-1.21133,0.00686264,0.00924244,580,1093,-12.8344,-1.31605
-637,-69,-12.8577,1.40027,-0.00072978,0.00383357,-0.00327673,0.00554476,-0.00244098,-1.08953,0.00472522,0.0111819,587,1093,-12.8577,-1.40031
-630,-69,-12.8852,1.47058,-0.000990308,0.00230604,-0.00383754,0.00483437,-0.00351864,-0.988231,0.00484251,0.0133143,594,1093,-12.8852,-1.47055
-623,-69,-12.8688,1.55042,-0.00176636,0.00145501,-0.00410086,0.00425016,-0.00456151,-0.972526,0.00508848,0.0122085,601,1093,-12.8688,-1.55046
-616,-69,-12.8358,1.59924,-0.00225355,0.000732938,-0.0042983,0.00378998,-0.00531059,-0.952578,0.00527861,0.0126242,608,1093,-12.8358,-1.59929
-609,-69,-12.8323,1.66211,-0.00241075,-0.000292673,-0.00497651,0.00373624,-0.00643966,-0.890238,0.00594377,0.0119982,615,1093,-12.8323,-1.66208
-602,-69,-12.8394,1.8053,-0.0026692,-0.000511752,-0.00582983,0.00433832,-0.00751927,-0.876881,0.00692761,0.0152423,622,1093,-12.8394,-1.80536
-595,-69,-12.8222,1.88367,-0.00301778,-0.000787986,-0.00649151,0.00468368,-0.00848944,-0.870442,0.00771058,0.0194032,629,1093,-12.8222,-1.88366
-588,-69,-12.9269,1.63623,-0.00326402,-0.000904977,-0.00685882,0.004875,-0.009044,-0.870551,0.00815541,0.0241928,636,1093,-12.927,-1.63621
-581,-69,-13.1042,1.15527,-0.00341934,-0.000819747,-0.00687901,0.00488119,-0.00912028,-0.878773,0.00820632,0.0287102,643,1093,-13.1043,-1.15531
-574,-69,-13.1886,0.869385,-0.0035207,-0.000741432,-0.00660452,0.00461806,-0.00888019,-0.889089,0.00792166,0.0310512,650,1093,-13.1886,-0.869332
-567,-69,-13.2015,0.805542,-0.00348927,-0.000513112,-0.00582409,0.00401,-0.00801238,-0.910474,0.00706818,0.0352056,657,1093,-13.2015,-0.805554
-560,-69,-13.1636,1.10083,-0.00328967,-0.000194106,-0.00446744,0.00298608,-0.00646986,-0.952156,0.00558153,0.0386923,664,1093,-13.1635,-1.10081
-553,-69,-13.046,1.13,-0.00296162,0.00017847,-0.00253647,0.0015915,-0.00437465,-1.06253,0.0035673,0.0390758,671,1093,-13.046,-1.13004
-546,-69,-13.0708,0.885254,-0.00259602,0.000541624,-3.17142e-05,0.000541945,-0.00259634,-1.56069,0.00193698,0.033217,678,1093,-13.0708,-0.885288
-539,-69,-13.1326,0.843994,-0.00237073,0.000842544,0.00260388,0.00229556,-0.00382374,1.06182,0.00356951,0.0374461,685,1093,-13.1326,-0.84404
-532,-69,-13.1481,0.898315,-0.00293594,0.000753256,0.0037392,0.00307809,-0.00526078,1.01454,0.00486911,0.0423482,692,1093,-13.1481,-0.898342
-525,-69,0,0,0,0,0,0,0,0,0,-1,699,1093,0,0
-518,-69,0,0,0,0,0,0,0,0,0,-1,706,1093,0,0
-511,-69,0,0,0,0,0,0,0,0,0,-1,713,1093,0,0
-504,-69,0,0,0,0,0,0,0,0,0,-1,720,1093,0,0
-497,-69,0,0,0,0,0,0,0,0,0,-1,727,1093,0,0
-490,-69,0,0,0,0,0,0,0,0,0,-1,734,1093,0,0
-483,-69,0,0,0,0,0,0,0,0,0,-1,741,1093,0,0
-476,-69,0,0,0,0,0,0,0,0,0,-1,748,1093,0,0
-469,-69,0,0,0,0,0,0,0,0,0,-1,755,1093,0,0
-462,-69,0,0,0,0,0,0,0,0,0,-1,762,1093,0,0
-455,-69,0,0,0,0,0,0,0,0,0,-1,769,1093,0,0
-448,-69,0,0,0,0,0,0,0,0,0,-1,776,1093,0,0
-441,-69,0,0,0,0,0,0,0,0,0,-1,783,1093,0,0
-434,-69,0,0,0,0,0,0,0,0,0,-1,790,1093,0,0
-427,-69,0,0,0,0,0,0,0,0,0,-1,797,1093,0,0
-420,-69,0,0,0,0,0,0,0,0,0,-1,804,1093,0,0
-413,-69,0,0,0,0,0,0,0,0,0,-1,811,1093,0,0
-406,-69,0,0,0,0,0,0,0,0,0,-1,818,1093,0,0
-399,-69,0,0,0,0,0,0,0,0,0,-1,825,1093,0,0
-392,-69,0,0,0,0,0,0,0,0,0,-1,832,1093,0,0
-385,-69,0,0,0,0,0,0,0,0,0,-1,839,1093,0,0
-378,-69,0,0,0,0,0,0,0,0,0,-1,846,1093,0,0
-371,-69,0,0,0,0,0,0,0,0,0,-1,853,1093,0,0
-364,-69,0,0,0,0,0,0,0,0,0,-1,860,1093,0,0
-357,-69,0,0,0,0,0,0,0,0,0,-1,867,1093,0,0
-350,-69,0,0,0,0,0,0,0,0,0,-1,874,1093,0,0
-343,-69,0,0,0,0,0,0,0,0,0,-1,881,1093,0,0
-336,-69,0,0,0,0,0,0,0,0,0,-1,888,1093,0,0
-329,-69,0,0,0,0,0,0,0,0,0,-1,895,1093,0,0
-322,-69,0,0,0,0,0,0,0,0,0,-1,902,1093,0,0
-315,-69,0,0,0,0,0,0,0,0,0,-1,909,1093,0,0
-308,-69,0,0,0,0,0,0,0,0,0,-1,916,1093,0,0
-301,-69,0,0,0,0,0,0,0,0,0,-1,923,1093,0,0
-294,-69,0,0,0,0,0,0,0,0,0,-1,930,1093,0,0
-287,-69,0,0,0,0,0,0,0,0,0,-1,937,1093,0,0
-280,-69,0,0,0,0,0,0,0,0,0,-1,944,1093,0,0
-273,-69,0,0,0,0,0,0,0,0,0,-1,951,1093,0,0
-266,-69,0,0,0,0,0,0,0,0,0,-1,958,1093,0,0
-259,-69,0,0,0,0,0,0,0,0,0,-1,965,1093,0,0
-252,-69,0,0,0,0,0,0,0,0,0,-1,972,1093,0,0
-245,-69,0,0,0,0,0,0,0,0,0,-1,979,1093,0,0
-238,-69,0,0,0,0,0,0,0,0,0,-1,986,1093,0,0
-231,-69,0,0,0,0,0,0,0,0,0,-1,993,1093,0,0
-224,-69,0,0,0,0,0,0,0,0,0,-1,1000,1093,0,0
-217,-69,0,0,0,0,0,0,0,0,0,-1,1007,1093,0,0
-210,-69,0,0,0,0,0,0,0,0,0,-1,1014,1093,0,0
-203,-69,0,0,0,0,0,0,0,0,0,-1,1021,1093,0,0
-196,-69,0,0,0,0,0,0,0,0,0,-1,1028,1093,0,0
-189,-69,0,0,0,0,0,0,0,0,0,-1,1035,1093,0,0
-182,-69,0,0,0,0,0,0,0,0,0,-1,1042,1093,0,0
-175,-69,0,0,0,0,0,0,0,0,0,-1,1049,1093,0,0
-168,-69,0,0,0,0,0,0,0,0,0,-1,1056,1093,0,0
-161,-69,0,0,0,0,0,0,0,0,0,-1,1063,1093,0,0
-154,-69,0,0,0,0,0,0,0,0,0,-1,1070,1093,0,0
-147,-69,0,0,0,0,0,0,0,0,0,-1,1077,1093,0,0
-140,-69,0,0,0,0,0,0,0,0,0,-1,1084,1093,0,0
-133,-69,0,0,0,0,0,0,0,0,0,-1,1091,1093,0,0
-126,-69,0,0,0,0,0,0,0,0,0,-1,1098,1093,0,0
-119,-69,0,0,0,0,0,0,0,0,0,-1,1105,1093,0,0
-112,-69,0,0,0,0,0,0,0,0,0,-1,1112,1093,0,0
-105,-69,0,0,0,0,0,0,0,0,0,-1,1119,1093,0,0
-98,-69,0,0,0,0,0,0,0,0,0,-1,1126,1093,0,0
-91,-69,0,0,0,0,0,0,0,0,0,-1,1133,1093,0,0
-84,-69,0,0,0,0,0,0,0,0,0,-1,1140,1093,0,0
-77,-69,0,0,0,0,0,0,0,0,0,-1,1147,1093,0,0
-70,-69,0,0,0,0,0,0,0,0,0,-1,1154,1093,0,0
-63,-69,0,0,0,0,0,0,0,0,0,-1,1161,1093,0,0
-56,-69,0,0,0,0,0,0,0,0,0,-1,1168,1093,0,0
-49,-69,0,0,0,0,0,0,0,0,0,-1,1175,1093,0,0
-42,-69,0,0,0,0,0,0,0,0,0,-1,1182,1093,0,0
-35,-69,0,0,0,0,0,0,0,0,0,-1,1189,1093,0,0
-28,-69,0,0,0,0,0,0,0,0,0,-1,1196,1093,0,0
-21,-69,0,0,0,0,0,0,0,0,0,-1,1203,1093,0,0
-14,-69,0,0,0,0,0,0,0,0,0,-1,1210,1093,0,0
-7,-69,0,0,0,0,0,0,0,0,0,-1,1217,1093,0,0
0,-69,0,0,0,0,0,0,0,0,0,-1,1224,1093,0,0
7,-69,0,0,0,0,0,0,0,0,0,-1,1231,1093,0,0
14,-69,0,0,0,0,0,0,0,0,0,-1,1238,1093,0,0
21,-69,0,0,0,0,0,0,0,0,0,-1,1245,1093,0,0
28,-69,0,0,0,0,0,0,0,0,0,-1,1252,1093,0,0
35,-69,0,0,0,0,0,0,0,0,0,-1,1259,1093,0,0
42,-69,0,0,0,0,0,0,0,0,0,-1,1266,1093,0,0
49,-69,0,0,0,0,0,0,0,0,0,-1,1273,1093,0,0
56,-69,0,0,0,0,0,0,0,0,0,-1,1280,1093,0,0
63,-69,0,0,0,0,0,0,0,0,0,-1,1287,1093,0,0
70,-69,0,0,0,0,0,0,0,0,0,-1,1294,1093,0,0
77,-69,0,0,0,0,0,0,0,0,0,-1,1301,1093,0,0
84,-69,0,0,0,0,0,0,0,0,0,-1,1308,1093,0,0
91,-69,0,0,0,0,0,0,0,0,0,-1,1315,1093,0,0
98,-69,0,0,0,0,0,0,0,0,0,-1,1322,1093,0,0
105,-69,0,0,0,0,0,0,0,0,0,-1,1329,1093,0,0
112,-69,0,0,0,0,0,0,0,0,0,-1,1336,1093,0,0
119,-69,0,0,0,0,0,0,0,0,0,-1,1343,1093,0,0
126,-69,0,0,0,0,0,0,0,0,0,-1,1350,1093,0,0
133,-69,0,0,0,0,0,0,0,0,0,-1,1357,1093,0,0
140,-69,0,0,0,0,0,0,0,0,0,-1,1364,1093,0,0
147,-69,0,0,0,0,0,0,0,0,0,-1,1371,1093,0,0
154,-69,0,0,0,0,0,0,0,0,0,-1,1378,1093,0,0
161,-69,0,0,0,0,0,0,0,0,0,-1,1385,1093,0,0
168,-69,0,0,0,0,0,0,0,0,0,-1,1392,1093,0,0
175,-69,0,0,0,0,0,0,0,0,0,-1,1399,1093,0,0
182,-69,0,0,0,0,0,0,0,0,0,-1,1406,1093,0,0
189,-69,0,0,0,0,0,0,0,0,0,-1,1413,1093,0,0
196,-69,0,0,0,0,0,0,0,0,0,-1,1420,1093,0,0
203,-69,0,0,0,0,0,0,0,0,0,-1,1427,1093,0,0
210,-69,0,0,0,0,0,0,0,0,0,-1,1434,1093,0,0
217,-69,0,0,0,0,0,0,0,0,0,-1,1441,1093,0,0
224,-69,0,0,0,0,0,0,0,0,0,-1,1448,1093,0,0
231,-69,0,0,0,0,0,0,0,0,0,-1,1455,1093,0,0
238,-69,0,0,0,0,0,0,0,0,0,-1,1462,1093,0,0
245,-69,0,0,0,0,0,0,0,0,0,-1,1469,1093,0,0
252,-69,0,0,0,0,0,0,0,0,0,-1,1476,1093,0,0
259,-69,0,0,0,0,0,0,0,0,0,-1,1483,1093,0,0
266,-69,0,0,0,0,0,0,0,0,0,-1,1490,1093,0,0
273,-69,0,0,0,0,0,0,0,0,0,-1,1497,1093,0,0
280,-69,0,0,0,0,0,0,0,0,0,-1,1504,1093,0,0
287,-69,0,0,0,0,0,0,0,0,0,-1,1511,1093,0,0
294,-69,0,0,0,0,0,0,0,0,0,-1,1518,1093,0,0
301,-69,0,0,0,0,0,0,0,0,0,-1,1525,1093,0,0
308,-69,0,0,0,0,0,0,0,0,0,-1,1532,1093,0,0
315,-69,0,0,0,0,0,0,0,0,0,-1,1539,1093,0,0
322,-69,0,0,0,0,0,0,0,0,0,-1,1546,1093,0,0
329,-69,0,0,0,0,0,0,0,0,0,-1,1553,1093,0,0
336,-69,0,0,0,0,0,0,0,0,0,-1,1560,1093,0,0
343,-69,0,0,0,0,0,0,0,0,0,-1,1567,1093,0,0
350,-69,0,0,0,0,0,0,0,0,0,-1,1574,1093,0,0
357,-69,0,0,0,0,0,0,0,0,0,-1,1581,1093,0,0
364,-69,0,0,0,0,0,0,0,0,0,-1,1588,1093,0,0
371,-69,0,0,0,0,0,0,0,0,0,-1,1595,1093,0,0
378,-69,0,0,0,0,0,0,0,0,0,-1,1602,1093,0,0
385,-69,0,0,0,0,0,0,0,0,0,-1,1609,1093,0,0
392,-69,0,0,0,0,0,0,0,0,0,-1,1616,1093,0,0
399,-69,0,0,0,0,0,0,0,0,0,-1,1623,1093,0,0
406,-69,0,0,0,0,0,0,0,0,0,-1,1630,1093,0,0
413,-69,0,0,0,0,0,0,0,0,0,-1,1637,1093,0,0
420,-69,0,0,0,0,0,0,0,0,0,-1,1644,1093,0,0
427,-69,0,0,0,0,0,0,0,0,0,-1,1651,1093,0,0
434,-69,0,0,0,0,0,0,0,0,0,-1,1658,1093,0,0
441,-69,0,0,0,0,0,0,0,0,0,-1,1665,1093,0,0
448,-69,0,0,0,0,0,0,0,0,0,-1,1672,1093,0,0
455,-69,0,0,0,0,0,0,0,0,0,-1,1679,1093,0,0
462,-69,0,0,0,0,0,0,0,0,0,-1,1686,1093,0,0
469,-69,0,0,0,0,0,0,0,0,0,-1,1693,1093,0,0
476,-69,0,0,0,0,0,0,0,0,0,-1,1700,1093,0,0
483,-69,0,0,0,0,0,0,0,0,0,-1,1707,1093,0,0
490,-69,0,0,0,0,0,0,0,0,0,-1,1714,1093,0,0
497,-69,0,0,0,0,0,0,0,0,0,-1,1721,1093,0,0
504,-69,0,0,0,0,0,0,0,0,0,-1,1728,1093,0,0
511,-69,0,0,0,0,0,0,0,0,0,-1,1735,1093,0,0
518,-69,0,0,0,0,0,0,0,0,0,-1,1742,1093,0,0
525,-69,0,0,0,0,0,0,0,0,0,-1,1749,1093,0,0
532,-69,0,0,0,0,0,0,0,0,0,-1,1756,1093,0,0
539,-69,0,0,0,0,0,0,0,0,0,-1,1763,1093,0,0
546,-69,0,0,0,0,0,0,0,0,0,-1,1770,1093,0,0
553,-69,0,0,0,0,0,0,0,0,0,-1,1777,1093,0,0
560,-69,0,0,0,0,0,0,0,0,0,-1,1784,1093,0,0
567,-69,0,0,0,0,0,0,0,0,0,-1,1791,1093,0,0
574,-69,0,0,0,0,0,0,0,0,0,-1,1798,1093,0,0
581,-69,0,0,0,0,0,0,0,0,0,-1,1805,1093,0,0
588,-69,0,0,0,0,0,0,0,0,0,-1,1812,1093,0,0
595,-69,0,0,0,0,0,0,0,0,0,-1,1819,1093,0,0
602,-69,0,0,0,0,0,0,0,0,0,-1,1826,1093,0,0
609,-69,0,0,0,0,0,0,0,0,0,-1,1833,1093,0,0
616,-69,0,0,0,0,0,0,0,0,0,-1,1840,1093,0,0
623,-69,0,0,0,0,0,0,0,0,0,-1,1847,1093,0,0
630,-69,0,0,0,0,0,0,0,0,0,-1,1854,1093,0,0
637,-69,0,0,0,0,0,0,0,0,0,-1,1861,1093,0,0
644,-69,0,0,0,0,0,0,0,0,0,-1,1868,1093,0,0
651,-69,20.468,2.63586,0.00408383,-0.00141011,-0.00140463,0.00442212,-0.0017484,-0.236338,0.00367234,0.0433441,1875,1093,20.468,-2.6359
658,-69,20.6924,2.69531,0.00333095,-0.000634127,-0.0010296,0.00358237,-0.00088554,-0.239498,0.00273169,0.0444679,1882,1093,20.6924,-2.69528
665,-69,20.793,2.7688,0.00266511,-0.000267089,-0.000438398,0.00272926,-0.000331231,-0.14528,0.00193937,0.0431474,1889,1093,20.793,-2.76882
672,-69,20.5511,2.5741,0.00187388,-0.000349852,0.000948423,0.00222344,-0.000699407,0.353117,0.00176231,0.0368043,1896,1093,20.5511,-2.5741
679,-69,20.5406,2.55005,0.000866907,-0.000668531,0.00263433,0.0028431,-0.00264473,0.643611,0.00316909,0.036758,1903,1093,20.5407,-2.55007
686,-69,20.5895,2.56787,-0.000160657,-0.00104598,0.00416892,0.00358903,-0.00479567,0.732506,0.00485759,0.0375509,1910,1093,20.5894,-2.56788
693,-69,20.6086,2.6344,-0.00100472,-0.00140298,0.00541666,0.00421646,-0.00662417,0.767025,0.00631009,0.0352249,1917,1093,20.6086,-2.6344
700,-69,20.6648,2.68494,-0.00167455,-0.00155541,0.00631754,0.00470284,-0.0079328,0.790113,0.00737421,0.0284478,1924,1093,20.6648,-2.68492
707,-69,20.6624,2.729,-0.00233913,-0.00172081,0.00693305,0.00490998,-0.00896991,0.80768,0.00812703,0.0235987,1931,1093,20.6624,-2.729
714,-69,20.7119,2.73279,-0.00277065,-0.00182317,0.00720745,0.00492609,-0.00951991,0.818215,0.0084798,0.0256168,1938,1093,20.7119,-2.7328
721,-69,20.6815,4.00818,0,0,0,0,0,0,0,-1,1945,1093,20.6815,-4.00821
728,-69,20.2501,4.05957,-0.00301361,-0.00160827,0.00669546,0.00442129,-0.00904318,0.83768,0.00792491,0.0289316,1952,1093,20.2502,-4.05957
735,-69,20.0863,4.09937,-0.00310593,-0.00118272,0.00606589,0.00399732,-0.00828596,0.864007,0.0072344,0.017234,1959,1093,20.0863,-4.09939
742,-69,20.1061,4.05164,-0.0032857,-0.000671314,0.00518119,0.00336504,-0.00732206,0.908967,0.00630961,0.0131551,1966,1093,20.1061,-4.05164
749,-69,20.0367,3.97998,-0.00353306,-0.000830276,0.00374494,0.00179964,-0.00616298,0.958556,0.00482181,0.0143875,1973,1093,20.0368,-3.97995
756,-69,20.0532,3.95605,-0.00322067,-0.000598156,0.00208403,0.000552819,-0.00437164,1.0662,0.00311509,0.0152437,1980,1093,20.0532,-3.95599
763,-69,20.0563,3.90979,-0.00249107,-0.000728116,0.000755135,-0.00044889,-0.0027703,1.21662,0.00171691,0.0151481,1987,1093,20.0562,-3.90982
770,-69,20.0519,3.84155,-0.00199508,-0.000973254,-0.00102384,-0.000339929,-0.0026284,-1.01683,0.00165067,0.0132228,1994,1093,20.0519,-3.84152
777,-69,20.0399,3.75537,-0.00138377,-0.00175024,-0.00238151,0.000821544,-0.00395556,-0.747004,0.00294928,0.0175751,2001,1093,20.0399,-3.75536
784,-69,20.0325,3.67224,-0.000483503,-0.00288806,-0.00336851,0.00189085,-0.00526242,-0.613986,0.00428013,0.031376,2008,1093,20.0325,-3.67228
791,-69,20.0461,3.60364,0.000957421,-0.00443072,-0.00426392,0.00330706,-0.00678037,-0.50365,0.00593794,0.0447729,2015,1093,20.0462,-3.60369
798,-69,20.072,3.5365,0.00359953,-0.0063119,-0.00506599,0.00573066,-0.00844303,-0.398201,0.00823298,0.0475679,2022,1093,20.072,-3.53652
805,-69,19.9578,3.21741,0.00811173,-0.0083902,-0.00560867,0.00983751,-0.010116,-0.298506,0.0115205,0.0461965,2029,1093,19.9578,-3.21741
812,-69,19.6099,3.17493,0.0154878,-0.0103405,-0.00554101,0.0166264,-0.011479,-0.202654,0.0163171,0.0468137,2036,1093,19.6099,-3.17491
-700,-76,0,0,0,0,0,0,0,0,0,-1,524,1100,0,0
-693,-76,-11.4429,1.47852,-0.0462481,0.053448,-0.0102207,0.054485,-0.0472852,-1.46968,0.058806,0.0455677,531,1100,-11.4429,-1.47846
-686,-76,-12.5094,2.01868,-0.0333736,0.0441051,-0.00946833,0.0452454,-0.0345139,-1.45094,0.0461878,0.0496194,538,1100,-12.5094,-2.01862
-679,-76,-12.788,2.21057,-0.0239815,0.0360928,-0.00841151,0.0372483,-0.0251371,-1.43427,0.0362438,0.0485947,545,1100,-12.788,-2.21059
-672,-76,-12.504,1.82288,-0.0170446,0.0292028,-0.00720093,0.0302981,-0.0181398,-1.41985,0.0282578,0.0471691,552,1100,-12.504,-1.82283
-665,-76,-12.0591,1.4989,-0.0119215,0.0232686,-0.0059531,0.0242484,-0.0129013,-1.40767,0.0217794,0.0486944,559,1100,-12.0591,-1.49886
-658,-76,-12.7491,1.22107,0,0,0,0,0,0,0,-1,566,1100,-12.7491,-1.22111
-651,-76,-12.7202,1.26648,-0.00555003,0.0138557,-0.00362388,0.0145103,-0.00620467,-1.39208,0.0122761,0.0292662,573,1100,-12.7202,-1.26644
-644,-76,-12.712,1.30981,-0.00362796,0.0100693,-0.00269095,0.010579,-0.00413765,-1.3836,0.00876377,0.0103026,580,1100,-12.712,-1.30983
-637,-76,-12.7658,1.38782,-0.00152443,0.00625052,-0.00237472,0.00691845,-0.00219236,-1.29661,0.00549097,0.0134074,587,1100,-12.7658,-1.38778
-630,-76,-12.7943,1.45972,-0.00116404,0.00387376,-0.00322807,0.0054494,-0.00273968,-1.11671,0.00481347,0.0148032,594,1100,-12.7943,-1.45973
-623,-76,-12.779,1.55359,-0.0018906,0.00243465,-0.00380335,0.00464722,-0.00410318,-1.04391,0.0050553,0.0139762,601,1100,-12.779,-1.55357
-616,-76,-12.7656,1.61743,-0.00255607,0.00123252,-0.00429627,0.00403357,-0.00535712,-0.993035,0.00543964,0.0122205,608,1100,-12.7656,-1.61741
-609,-76,-12.7635,1.69446,-0.00281798,-2.60421e-05,-0.0051258,0.00389048,-0.00673451,-0.918345,0.00620716,0.0125145,615,1100,-12.7635,-1.69447
-602,-76,-12.7585,1.81348,-0.00310601,-0.00029693,-0.00601473,0.00447507,-0.00787801,-0.900101,0.0072217,0.0167769,622,1100,-12.7585,-1.81345
-595,-76,-12.7524,1.87671,-0.00346565,-0.000527811,-0.0067442,0.00490558,-0.00889904,-0.892626,0.0080805,0.0213289,629,1100,-12.7523,-1.87671
-588,-76,-12.8641,1.63904,-0.00372119,-0.000608062,-0.00719688,0.00519866,-0.00952791,-0.891899,0.00862398,0.0271581,636,1100,-12.864,-1.63905
-581,-76,-13.0614,1.06982,-0.0038914,-0.000483906,-0.0072897,0.0052985,-0.0096738,-0.900197,0.00876643,0.0304267,643,1100,-13.0614,-1.06985
-574,-76,-13.1249,0.789185,-0.00400739,-0.000380633,-0.00706334,0.00509839,-0.00948641,-0.91105,0.00854663,0.0350754,650,1100,-13.125,-0.789244
-567,-76,-13.1443,0.647217,-0.00393827,-0.000140574,-0.00634076,0.00457955,-0.0086584,-0.930882,0.00776293,0.0379371,657,1100,-13.1443,-0.647238
-560,-76,-13.139,0.692627,-0.00365778,0.000167002,-0.00503707,0.0036425,-0.00713327,-0.966824,0.00632927,0.0394572,664,1100,-13.1391,-0.692644
-553,-76,-13.0668,0.58728,-0.00320496,0.000497368,-0.00315985,0.00230837,-0.00501596,-1.05037,0.00432394,0.0440062,671,1100,-13.0668,-0.58728
-546,-76,-13.1264,0.863159,-0.00266586,0.000788826,-0.000717451,0.000931897,-0.00280893,-1.37396,0.00224857,0.0418167,678,1100,-13.1264,-0.863125
-539,-76,-13.0978,0.786499,-0.00222146,0.000976029,0.00191187,0.00186952,-0.00311495,1.13362,0.00290758,0.0398025,685,1100,-13.0978,-0.786469
-532,-76,-13.0197,0.753906,-0.00263285,0.000821016,0.00311313,0.00265413,-0.00446596,1.03863,0.00415491,0.04076,692,1100,-13.0197,-0.753902
-525,-76,0,0,0,0,0,0,0,0,0,-1,699,1100,0,0
-518,-76,0,0,0,0,0,0,0,0,0,-1,706,1100,0,0
-511,-76,0,0,0,0,0,0,0,0,0,-1,713,1100,0,0
-504,-76,0,0,0,0,0,0,0,0,0,-1,720,1100,0,0
-497,-76,0,0,0,0,0,0,0,0,0,-1,727,1100,0,0
-490,-76,0,0,0,0,0,0,0,0,0,-1,734,1100,0,0
-483,-76,0,0,0,0,0,0,0,0,0,-1,741,1100,0,0
-476,-76,0,0,0,0,0,0,0,0,0,-1,748,1100,0,0
-469,-76,0,0,0,0,0,0,0,0,0,-1,755,1100,0,0
-462,-76,0,0,0,0,0,0,0,0,0,-1,762,1100,0,0
-455,-76,0,0,0,0,0,0,0,0,0,-1,769,1100,0,0
-448,-76,0,0,0,0,0,0,0,0,0,-1,776,1100,0,0
-441,-76,0,0,0,0,0,0,0,0,0,-1,783,1100,0,0
-434,-76,0,0,0,0,0,0,0,0,0,-1,790,1100,0,0
-427,-76,0,0,0,0,0,0,0,0,0,-1,797,1100,0,0
-420,-76,0,0,0,0,0,0,0,0,0,-1,804,1100,0,0
-413,-76,0,0,0,0,0,0,0,0,0,-1,811,1100,0,0
-406,-76,0,0,0,0,0,0,0,0,0,-1,818,1100,0,0
-399,-76,0,0,0,0,0,0,0,0,0,-1,825,1100,0,0
-392,-76,0,0,0,0,0,0,0,0,0,-1,832,1100,0,0
-385,-76,0,0,0,0,0,0,0,0,0,-1,839,1100,0,0
-378,-76,0,0,0,0,0,0,0,0,0,-1,846,1100,0,0
-371,-76,0,0,0,0,0,0,0,0,0,-1,853,1100,0,0
-364,-76,0,0,0,0,0,0,0,0,0,-1,860,1100,0,0
-357,-76,0,0,0,0,0,0,0,0,0,-1,867,1100,0,0
-350,-76,0,0,0,0,0,0,0,0,0,-1,874,1100,0,0
-343,-76,0,0,0,0,0,0,0,0,0,-1,881,1100,0,0
-336,-76,0,0,0,0,0,0,0,0,0,-1,888,1100,0,0
-329,-76,0,0,0,0,0,0,0,0,0,-1,895,1100,0,0
-322,-76,0,0,0,0,0,0,0,0,0,-1,902,1100,0,0
-315,-76,0,0,0,0,0,0,0,0,0,-1,909,1100,0,0
-308,-76,0,0,0,0,0,0,0,0,0,-1,916,1100,0,0
-301,-76,0,0,0,0,0,0,0,0,0,-1,923,1100,0,0
-294,-76,0,0,0,0,0,0,0,0,0,-1,930,1100,0,0
-287,-76,0,0,0,0,0,0,0,0,0,-1,937,1100,0,0
-280,-76,0,0,0,0,0,0,0,0,0,-1,944,1100,0,0
-273,-76,0,0,0,0,0,0,0,0,0,-1,951,1100,0,0
-266,-76,0,0,0,0,0,0,0,0,0,-1,958,1100,0,0
-259,-76,0,0,0,0,0,0,0,0,0,-1,965,1100,0,0
-252,-76,0,0,0,0,0,0,0,0,0,-1,972,1100,0,0
-245,-76,0,0,0,0,0,0,0,0,0,-1,979,1100,0,0
-238,-76,0,0,0,0,0,0,0,0,0,-1,986,1100,0,0
-231,-76,0,0,0,0,0,0,0,0,0,-1,993,1100,0,0
-224,-76,0,0,0,0,0,0,0,0,0,-1,1000,1100,0,0
-217,-76,0,0,0,0,0,0,0,0,0,-1,1007,1100,0,0
-210,-76,0,0,0,0,0,0,0,0,0,-1,1014,1100,0,0
-203,-76,0,0,0,0,0,0,0,0,0,-1,1021,1100,0,0
-196,-76,0,0,0,0,0,0,0,0,0,-1,1028,1100,0,0
-189,-76,0,0,0,0,0,0,0,0,0,-1,1035,1100,0,0
-182,-76,0,0,0,0,0,0,0,0,0,-1,1042,1100,0,0
-175,-76,0,0,0,0,0,0,0,0,0,-1,1049,1100,0,0
-168,-76,0,0,0,0,0,0,0,0,0,-1,1056,1100,0,0
-161,-76,0,0,0,0,0,0,0,0,0,-1,1063,1100,0,0
-154,-76,0,0,0,0,0,0,0,0,0,-1,1070,1100,0,0
-147,-76,0,0,0,0,0,0,0,0,0,-1,1077,1100,0,0
-140,-76,0,0,0,0,0,0,0,0,0,-1,1084,1100,0,0
-133,-76,0,0,0,0,0,0,0,0,0,-1,1091,1100,0,0
-126,-76,0,0,0,0,0,0,0,0,0,-1,1098,1100,0,0
-119,-76,0,0,0,0,0,0,0,0,0,-1,1105,1100,0,0
-112,-76,0,0,0,0,0,0,0,0,0,-1,1112,1100,0,0
-105,-76,0,0,0,0,0,0,0,0,0,-1,1119,1100,0,0
-98,-76,0,0,0,0,0,0,0,0,0,-1,1126,1100,0,0
-91,-76,0,0,0,0,0,0,0,0,0,-1,1133,1100,0,0
-84,-76,0,0,0,0,0,0,0,0,0,-1,1140,1100,0,0
-77,-76,0,0,0,0,0,0,0,0,0,-1,1147,1100,0,0
-70,-76,0,0,0,0,0,0,0,0,0,-1,1154,1100,0,0
-63,-76,0,0,0,0,0,0,0,0,0,-1,1161,1100,0,0
-56,-76,0,0,0,0,0,0,0,0,0,-1,1168,1100,0,0
-49,-76,0,0,0,0,0,0,0,0,0,-1,1175,1100,0,0
-42,-76,0,0,0,0,0,0,0,0,0,-1,1182,1100,0,0
-35,-76,0,0,0,0,0,0,0,0,0,-1,1189,1100,0,0
-28,-76,0,0,0,0,0,0,0,0,0,-1,1196,1100,0,0
-21,-76,0,0,0,0,0,0,0,0,0,-1,1203,1100,0,0
-14,-76,0,0,0,0,0,0,0,0,0,-1,1210,1100,0,0
-7,-76,0,0,0,0,0,0,0,0,0,-1,1217,1100,0,0
0,-76,0,0,0,0,0,0,0,0,0,-1,1224,1100,0,0
7,-76,0,0,0,0,0,0,0,0,0,-1,1231,1100,0,0
14,-76,0,0,0,0,0,0,0,0,0,-1,1238,1100,0,0
21,-76,0,0,0,0,0,0,0,0,0,-1,1245,1100,0,0
28,-76,0,0,0,0,0,0,0,0,0,-1,1252,1100,0,0
35,-76,0,0,0,0,0,0,0,0,0,-1,1259,1100,0,0
42,-76,0,0,0,0,0,0,0,0,0,-1,1266,1100,0,0
49,-76,0,0,0,0,0,0,0,0,0,-1,1273,1100,0,0
56,-76,0,0,0,0,0,0,0,0,0,-1,1280,1100,0,0
63,-76,0,0,0,0,0,0,0,0,0,-1,1287,1100,0,0
70,-76,0,0,0,0,0,0,0,0,0,-1,1294,1100,0,0
77,-76,0,0,0,0,0,0,0,0,0,-1,1301,1100,0,0
84,-76,0,0,0,0,0,0,0,0,0,-1,1308,1100,0,0
91,-76,0,0,0,0,0,0,0,0,0,-1,1315,1100,0,0
98,-76,0,0,0,0,0,0,0,0,0,-1,1322,1100,0,0
105,-76,0,0,0,0,0,0,0,0,0,-1,1329,1100,0,0
112,-76,0,0,0,0,0,0,0,0,0,-1,1336,1100,0,0
119,-76,0,0,0,0,0,0,0,0,0,-1,1343,1100,0,0
126,-76,0,0,0,0,0,0,0,0,0,-1,1350,1100,0,0
133,-76,0,0,0,0,0,0,0,0,0,-1,1357,1100,0,0
140,-76,0,0,0,0,0,0,0,0,0,-1,1364,1100,0,0
147,-76,0,0,0,0,0,0,0,0,0,-1,1371,1100,0,0
154,-76,0,0,0,0,0,0,0,0,0,-1,1378,1100,0,0
161,-76,0,0,0,0,0,0,0,0,0,-1,1385,1100,0,0
168,-76,0,0,0,0,0,0,0,0,0,-1,1392,1100,0,0
175,-76,0,0,0,0,0,0,0,0,0,-1,1399,1100,0,0
182,-76,0,0,0,0,0,0,0,0,0,-1,1406,1100,0,0
189,-76,0,0,0,0,0,0,0,0,0,-1,1413,1100,0,0
196,-76,0,0,0,0,0,0,0,0,0,-1,1420,1100,0,0
203,-76,0,0,0,0,0,0,0,0,0,-1,1427,1100,0,0
210,-76,0,0,0,0,0,0,0,0,0,-1,1434,1100,0,0
217,-76,0,0,0,0,0,0,0,0,0,-1,1441,1100,0,0
224,-76,0,0,0,0,0,0,0,0,0,-1,1448,1100,0,0
231,-76,0,0,0,0,0,0,0,0,0,-1,1455,1100,0,0
238,-76,0,0,0,0,0,0,0,0,0,-1,1462,1100,0,0
245,-76,0,0,0,0,0,0,0,0,0,-1,1469,1100,0,0
252,-76,0,0,0,0,0,0,0,0,0,-1,1476,1100,0,0
259,-76,0,0,0,0,0,0,0,0,0,-1,1483,1100,0,0
266,-76,0,0,0,0,0,0,0,0,0,-1,1490,1100,0,0
273,-76,0,0,0,0,0,0,0,0,0,-1,1497,1100,0,0
280,-76,0,0,0,0,0,0,0,0,0,-1,1504,1100,0,0
287,-76,0,0,0,0,0,0,0,0,0,-1,1511,1100,0,0
294,-76,0,0,0,0,0,0,0,0,0,-1,1518,1100,0,0
301,-76,0,0,0,0,0,0,0,0,0,-1,1525,1100,0,0
308,-76,0,0,0,0,0,0,0,0,0,-1,1532,1100,0,0
315,-76,0,0,0,0,0,0,0,0,0,-1,1539,1100,0,0
322,-76,0,0,0,0,0,0,0,0,0,-1,1546,1100,0,0
329,-76,0,0,0,0,0,0,0,0,0,-1,1553,1100,0,0
336,-76,0,0,0,0,0,0,0,0,0,-1,1560,1100,0,0
343,-76,0,0,0,0,0,0,0,0,0,-1,1567,1100,0,0
350,-76,0,0,0,0,0,0,0,0,0,-1,1574,1100,0,0
357,-76,0,0,0,0,0,0,0,0,0,-1,1581,1100,0,0
364,-76,0,0,0,0,0,0,0,0,0,-1,1588,1100,0,0
371,-76,0,0,0,0,0,0,0,0,0,-1,1595,1100,0,0
378,-76,0,0,0,0,0,0,0,0,0,-1,1602,1100,0,0
385,-76,0,0,0,0,0,0,0,0,0,-1,1609,1100,0,0
392,-76,0,0,0,0,0,0,0,0,0,-1,1616,1100,0,0
399,-76,0,0,0,0,0,0,0,0,0,-1,1623,1100,0,0
406,-76,0,0,0,0,0,0,0,0,0,-1,1630,1100,0,0
413,-76,0,0,0,0,0,0,0,0,0,-1,1637,1100,0,0
420,-76,0,0,0,0,0,0,0,0,0,-1,1644,1100,0,0
427,-76,0,0,0,0,0,0,0,0,0,-1,1651,1100,0,0
434,-76,0,0,0,0,0,0,0,0,0,-1,1658,1100,0,0
441,-76,0,0,0,0,0,0,0,0,0,-1,1665,1100,0,0
448,-76,0,0,0,0,0,0,0,0,0,-1,1672,1100,0,0
455,-76,0,0,0,0,0,0,0,0,0,-1,1679,1100,0,0
462,-76,0,0,0,0,0,0,0,0,0,-1,1686,1100,0,0
469,-76,0,0,0,0,0,0,0,0,0,-1,1693,1100,0,0
476,-76,0,0,0,0,0,0,0,0,0,-1,1700,1100,0,0
483,-76,0,0,0,0,0,0,0,0,0,-1,1707,1100,0,0
490,-76,0,0,0,0,0,0,0,0,0,-1,1714,1100,0,0
497,-76,0,0,0,0,0,0,0,0,0,-1,1721,1100,0,0
504,-76,0,0,0,0,0,0,0,0,0,-1,1728,1100,0,0
511,-76,0,0,0,0,0,0,0,0,0,-1,1735,1100,0,0
518,-76,0,0,0,0,0,0,0,0,0,-1,1742,1100,0,0
525,-76,0,0,0,0,0,0,0,0,0,-1,1749,1100,0,0
532,-76,0,0,0,0,0,0,0,0,0,-1,1756,1100,0,0
539,-76,0,0,0,0,0,0,0,0,0,-1,1763,1100,0,0
546,-76,0,0,0,0,0,0,0,0,0,-1,1770,1100,0,0
553,-76,0,0,0,0,0,0,0,0,0,-1,1777,1100,0,0
560,-76,0,0,0,0,0,0,0,0,0,-1,1784,1100,0,0
567,-76,0,0,0,0,0,0,0,0,0,-1,1791,1100,0,0
574,-76,0,0,0,0,0,0,0,0,0,-1,1798,1100,0,0
581,-76,0,0,0,0,0,0,0,0,0,-1,1805,1100,0,0
588,-76,0,0,0,0,0,0,0,0,0,-1,1812,1100,0,0
595,-76,0,0,0,0,0,0,0,0,0,-1,1819,1100,0,0
602,-76,0,0,0,0,0,0,0,0,0,-1,1826,1100,0,0
609,-76,0,0,0,0,0,0,0,0,0,-1,1833,1100,0,0
616,-76,0,0,0,0,0,0,0,0,0,-1,1840,1100,0,0
623,-76,0,0,0,0,0,0,0,0,0,-1,1847,1100,0,0
630,-76,0,0,0,0,0,0,0,0,0,-1,1854,1100,0,0
637,-76,0,0,0,0,0,0,0,0,0,-1,1861,1100,0,0
644,-76,0,0,0,0,0,0,0,0,0,-1,1868,1100,0,0
651,-76,20.6166,2.4917,0.00385893,-0.00177434,-0.00242497,0.004759,-0.00267442,-0.355407,0.00434757,0.0431002,1875,1100,20.6165,-2.49172
658,-76,20.6082,2.42773,0.00327406,-0.000989882,-0.00161235,0.00381509,-0.00153092,-0.323751,0.00317904,0.0452986,1882,1100,20.6082,-2.42776
665,-76,20.6942,2.45715,0.00271595,-0.000607498,-0.000677606,0.00284879,-0.000740343,-0.193595,0.00218813,0.0392269,1889,1100,20.6943,-2.45718
672,-76,20.623,2.57275,0.0018553,-0.000727818,0.00100028,0.00219735,-0.00106987,0.329491,0.00192341,0.0348863,1896,1100,20.623,-2.5728
679,-76,20.6344,2.57178,0.00076228,-0.00108964,0.00281914,0.00280363,-0.00313099,0.626721,0.00342809,0.0367439,1903,1100,20.6344,-2.5718
686,-76,20.7722,2.50317,-0.000327692,-0.00149627,0.00439377,0.00352047,-0.00534443,0.719295,0.00515414,0.038421,1910,1100,20.7722,-2.5032
693,-76,20.8173,2.55469,-0.00123743,-0.00186847,0.00563415,0.00409003,-0.00719593,0.757426,0.00659769,0.0386494,1917,1100,20.8173,-2.55467
700,-76,20.671,2.66687,-0.00196192,-0.00201607,0.00650705,0.00451812,-0.0084961,0.783318,0.00762987,0.0320821,1924,1100,20.6711,-2.66682
707,-76,20.6522,2.75537,-0.00262904,-0.00217198,0.00709432,0.00469749,-0.00949851,0.801499,0.00835084,0.0241839,1931,1100,20.6522,-2.75541
714,-76,20.6719,3.14539,0,0,0,0,0,0,0,-1,1938,1100,20.6719,-3.14533
721,-76,20.458,3.69702,0,0,0,0,0,0,0,-1,1945,1100,20.4579,-3.697
728,-76,20.1101,4.12671,-0.00326284,-0.00197363,0.00663635,0.00404935,-0.00928582,0.833812,0.00789445,0.0236375,1952,1100,20.1101,-4.12666
735,-76,19.9275,4.09875,-0.00330116,-0.00148656,0.0059552,0.00363006,-0.00841778,0.860994,0.00713655,0.0193957,1959,1100,19.9275,-4.09875
742,-76,20.0416,4.04553,-0.00338421,-0.00091023,0.00505441,0.00305636,-0.0073508,0.905407,0.00617674,0.0128484,1966,1100,20.0416,-4.04554
749,-76,19.9952,3.99097,-0.00359462,-0.00129729,0.00359053,0.00132384,-0.00621575,0.940211,0.00464838,0.013679,1973,1100,19.9952,-3.99097
756,-76,20.0128,3.96069,-0.00334514,-0.00131244,0.00199924,-8.60377e-05,-0.00457154,1.02056,0.00301942,0.0157047,1980,1100,20.0128,-3.96075
763,-76,20.0114,3.87732,-0.0028275,-0.00170779,0.000670054,-0.00139448,-0.0031408,1.13342,0.00181713,0.0154784,1987,1100,20.0113,-3.87728
770,-76,19.9908,3.80798,-0.00253158,-0.00238352,-0.00106708,-0.0013879,-0.0035272,-0.820031,0.00205178,0.0131529,1994,1100,19.9909,-3.80801
777,-76,19.994,3.76001,-0.0023903,-0.0038224,-0.0022818,-0.00071484,-0.00549786,-0.63336,0.00345173,0.0162689,2001,1100,19.994,-3.76
784,-76,20.0435,3.63171,-0.00217895,-0.00573876,-0.00313282,-0.000355717,-0.00756199,-0.527063,0.00492704,0.0301468,2008,1100,20.0434,-3.63177
791,-76,20.1968,3.50415,-0.00166346,-0.00816341,-0.00388621,0.000152626,-0.00997949,-0.437159,0.00670445,0.0413679,2015,1100,20.1968,-3.50414
798,-76,19.8835,3.25806,-0.000340467,-0.011,-0.00449064,0.00129915,-0.0126396,-0.35008,0.00889113,0.044229,2022,1100,19.8835,-3.25806
805,-76,19.4536,3.29871,0,0,0,0,0,0,0,-1,2029,1100,19.4535,-3.29872
812,-76,19.1006,3.3667,0,0,0,0,0,0,0,-1,2036,1100,19.1005,-3.3667
-700,-83,0,0,0,0,0,0,0,0,0,-1,524,1107,0,0
-693,-83,-11.0688,1.07971,0,0,0,0,0,0,0,-1,531,1107,-11.0688,-1.07974
-686,-83,-11.8577,1.34119,-0.0490833,0.0545082,-0.00530122,0.0547787,-0.0493539,-1.5198,0.0601482,0.0473014,538,1107,-11.8577,-1.34124
-679,-83,-12.3781,2.00476,-0.0359155,0.0456179,-0.00458053,0.0458745,-0.036172,-1.51485,0.0474798,0.0453848,545,1107,-12.378,-2.00481
-672,-83,-12.5152,1.75171,-0.0258334,0.0374607,-0.00382868,0.0376915,-0.0260642,-1.5106,0.0370128,0.0422462,552,1107,-12.5152,-1.75172
-665,-83,-12.7711,1.28687,-0.0181844,0.0301043,-0.00309748,0.0303021,-0.0183822,-1.507,0.0283874,0.0468201,559,1107,-12.7711,-1.28692
-658,-83,-12.7574,1.24414,-0.0125128,0.0236013,-0.00241775,0.0237624,-0.0126739,-1.50424,0.0213588,0.0446458,566,1107,-12.7574,-1.24411
-651,-83,-12.6659,1.18848,-0.0084022,0.0179828,-0.00180138,0.0181052,-0.00852462,-1.50294,0.0157029,0.0312847,573,1107,-12.6659,-1.18853
-644,-83,-12.6088,1.25281,-0.00543552,0.0131218,-0.00134082,0.0132182,-0.0055319,-1.49904,0.0111244,0.014891,580,1107,-12.6088,-1.25286
-637,-83,-12.659,1.35828,-0.00234069,0.0084228,-0.00132454,0.0085834,-0.00250129,-1.45014,0.0067132,0.0117702,587,1107,-12.659,-1.35828
-630,-83,-12.6724,1.46191,-0.00137156,0.00518307,-0.00252423,0.00604248,-0.00223098,-1.24264,0.00494276,0.0174231,594,1107,-12.6723,-1.46189
-623,-83,-12.675,1.55017,-0.0020795,0.00327391,-0.0033597,0.00489282,-0.00369841,-1.12176,0.00497611,0.0162878,601,1107,-12.6751,-1.55011
-616,-83,-12.6919,1.62195,-0.00288811,0.00164117,-0.00412937,0.00408613,-0.00533307,-1.03621,0.00545403,0.0121904,608,1107,-12.6919,-1.622
-609,-83,-12.6754,1.7124,-0.00326968,0.000113874,-0.00512873,0.00382265,-0.00697846,-0.94471,0.00632413,0.0115004,615,1107,-12.6754,-1.71238
-602,-83,-12.6709,1.82471,-0.00357865,-0.000241211,-0.00607232,0.00438751,-0.00820736,-0.919492,0.00738229,0.013898,622,1107,-12.6709,-1.82472
-595,-83,-12.6324,1.94336,-0.00395581,-0.000417185,-0.00687571,0.00491321,-0.00928621,-0.91133,0.00832662,0.0176305,629,1107,-12.6324,-1.94332
-588,-83,-12.7623,1.64514,-0.0042265,-0.000487545,-0.00740582,0.00528111,-0.00999515,-0.909032,0.00895864,0.0318454,636,1107,-12.7623,-1.64517
-581,-83,-13.1747,0.827393,0,0,0,0,0,0,0,-1,643,1107,-13.1747,-0.827399
-574,-83,-13.1879,0.814209,-0.00449666,-0.000254948,-0.00738122,0.00530407,-0.0100557,-0.925295,0.00900829,0.0376552,650,1107,-13.1879,-0.814161
-567,-83,-13.1882,0.697266,-0.00435223,-1.87649e-05,-0.00673479,0.00488925,-0.00926025,-0.94103,0.00829813,0.0416163,657,1107,-13.1882,-0.697289
-560,-83,-13.123,0.619507,-0.00394496,0.000270601,-0.00552157,0.00407302,-0.00774738,-0.96773,0.00693355,0.0405803,664,1107,-13.123,-0.619505
-553,-83,-13.0917,0.613037,-0.00330885,0.000564479,-0.00375561,0.00285337,-0.00559774,-1.02345,0.00496426,0.0420774,671,1107,-13.0917,-0.613077
-546,-83,-13.086,0.670532,-0.0025301,0.00079539,-0.00145418,0.00134158,-0.00307629,-1.2115,0.00261538,0.0430001,678,1107,-13.086,-0.67055
-539,-83,-13.0661,0.754395,-0.00177473,0.000875627,0.00108803,0.00126506,-0.00216417,1.22708,0.00200243,0.045023,685,1107,-13.0661,-0.754416
-532,-83,-13.0359,0.705322,-0.00195002,0.000651143,0.00234416,0.00203135,-0.00333023,1.03867,0.00312564,0.0432108,692,1107,-13.0359,-0.705312
-525,-83,0,0,0,0,0,0,0,0,0,-1,699,1107,0,0
-518,-83,0,0,0,0,0,0,0,0,0,-1,706,1107,0,0
-511,-83,0,0,0,0,0,0,0,0,0,-1,713,1107,0,0
-504,-83,0,0,0,0,0,0,0,0,0,-1,720,1107,0,0
-497,-83,0,0,0,0,0,0,0,0,0,-1,727,1107,0,0
-490,-83,0,0,0,0,0,0,0,0,0,-1,734,1107,0,0
-483,-83,0,0,0,0,0,0,0,0,0,-1,741,1107,0,0
-476,-83,0,0,0,0,0,0,0,0,0,-1,748,1107,0,0
-469,-83,0,0,0,0,0,0,0,0,0,-1,755,1107,0,0
-462,-83,0,0,0,0,0,0,0,0,0,-1,762,1107,0,0
-455,-83,0,0,0,0,0,0,0,0,0,-1,769,1107,0,0
-448,-83,0,0,0,0,0,0,0,0,0,-1,776,1107,0,0
-441,-83,0,0,0,0,0,0,0,0,0,-1,783,1107,0,0
-434,-83,0,0,0,0,0,0,0,0,0,-1,790,1107,0,0
-427,-83,0,0,0,0,0,0,0,0,0,-1,797,1107,0,0
-420,-83,0,0,0,0,0,0,0,0,0,-1,804,1107,0,0
-413,-83,0,0,0,0,0,0,0,0,0,-1,811,1107,0,0
-406,-83,0,0,0,0,0,0,0,0,0,-1,818,1107,0,0
-399,-83,0,0,0,0,0,0,0,0,0,-1,825,1107,0,0
-392,-83,0,0,0,0,0,0,0,0,0,-1,832,1107,0,0
-385,-83,0,0,0,0,0,0,0,0,0,-1,839,1107,0,0
-378,-83,0,0,0,0,0,0,0,0,0,-1,846,1107,0,0
-371,-83,0,0,0,0,0,0,0,0,0,-1,853,1107,0,0
-364,-83,0,0,0,0,0,0,0,0,0,-1,860,1107,0,0
-357,-83,0,0,0,0,0,0,0,0,0,-1,867,1107,0,0
-350,-83,0,0,0,0,0,0,0,0,0,-1,874,1107,0,0
-343,-83,0,0,0,0,0,0,0,0,0,-1,881,1107,0,0
-336,-83,0,0,0,0,0,0,0,0,0,-1,888,1107,0,0
-329,-83,0,0,0,0,0,0,0,0,0,-1,895,1107,0,0
-322,-83,0,0,0,0,0,0,0,0,0,-1,902,1107,0,0
-315,-83,0,0,0,0,0,0,0,0,0,-1,909,1107,0,0
-308,-83,0,0,0,0,0,0,0,0,0,-1,916,1107,0,0
-301,-83,0,0,0,0,0,0,0,0,0,-1,923,1107,0,0
-294,-83,0,0,0,0,0,0,0,0,0,-1,930,1107,0,0
-287,-83,0,0,0,0,0,0,0,0,0,-1,937,1107,0,0
-280,-83,0,0,0,0,0,0,0,0,0,-1,944,1107,0,0
-273,-83,0,0,0,0,0,0,0,0,0,-1,951,1107,0,0
-266,-83,0,0,0,0,0,0,0,0,0,-1,958,1107,0,0
-259,-83,0,0,0,0,0,0,0,0,0,-1,965,1107,0,0
-252,-83,0,0,0,0,0,0,0,0,0,-1,972,1107,0,0
-245,-83,0,0,0,0,0,0,0,0,0,-1,979,1107,0,0
-238,-83,0,0,0,0,0,0,0,0,0,-1,986,1107,0,0
-231,-83,0,0,0,0,0,0,0,0,0,-1,993,1107,0,0
-224,-83,0,0,0,0,0,0,0,0,0,-1,1000,1107,0,0
-217,-83,0,0,0,0,0,0,0,0,0,-1,1007,1107,0,0
-210,-83,0,0,0,0,0,0,0,0,0,-1,1014,1107,0,0
-203,-83,0,0,0,0,0,0,0,0,0,-1,1021,1107,0,0
-196,-83,0,0,0,0,0,0,0,0,0,-1,1028,1107,0,0
-189,-83,0,0,0,0,0,0,0,0,0,-1,1035,1107,0,0
-182,-83,0,0,0,0,0,0,0,0,0,-1,1042,1107,0,0
-175,-83,0,0,0,0,0,0,0,0,0,-1,1049,1107,0,0
-168,-83,0,0,0,0,0,0,0,0,0,-1,1056,1107,0,0
-161,-83,0,0,0,0,0,0,0,0,0,-1,1063,1107,0,0
-154,-83,0,0,0,0,0,0,0,0,0,-1,1070,1107,0,0
-147,-83,0,0,0,0,0,0,0,0,0,-1,1077,1107,0,0
-140,-83,0,0,0,0,0,0,0,0,0,-1,1084,1107,0,0
-133,-83,0,0,0,0,0,0,0,0,0,-1,1091,1107,0,0
-126,-83,0,0,0,0,0,0,0,0,0,-1,1098,1107,0,0
-119,-83,0,0,0,0,0,0,0,0,0,-1,1105,1107,0,0
-112,-83,0,0,0,0,0,0,0,0,0,-1,1112,1107,0,0
-105,-83,0,0,0,0,0,0,0,0,0,-1,1119,1107,0,0
-98,-83,0,0,0,0,0,0,0,0,0,-1,1126,1107,0,0
-91,-83,0,0,0,0,0,0,0,0,0,-1,1133,1107,0,0
-84,-83,0,0,0,0,0,0,0,0,0,-1,1140,1107,0,0
-77,-83,0,0,0,0,0,0,0,0,0,-1,1147,1107,0,0
-70,-83,0,0,0,0,0,0,0,0,0,-1,1154,1107,0,0
-63,-83,0,0,0,0,0,0,0,0,0,-1,1161,1107,0,0
-56,-83,0,0,0,0,0,0,0,0,0,-1,1168,1107,0,0
-49,-83,0,0,0,0,0,0,0,0,0,-1,1175,1107,0,0
-42,-83,0,0,0,0,0,0,0,0,0,-1,1182,1107,0,0
-35,-83,0,0,0,0,0,0,0,0,0,-1,1189,1107,0,0
-28,-83,0,0,0,0,0,0,0,0,0,-1,1196,1107,0,0
-21,-83,0,0,0,0,0,0,0,0,0,-1,1203,1107,0,0
-14,-83,0,0,0,0,0,0,0,0,0,-1,1210,1107,0,0
-7,-83,0,0,0,0,0,0,0,0,0,-1,1217,1107,0,0
0,-83,0,0,0,0,0,0,0,0,0,-1,1224,1107,0,0
7,-83,0,0,0,0,0,0,0,0,0,-1,1231,1107,0,0
14,-83,0,0,0,0,0,0,0,0,0,-1,1238,1107,0,0
21,-83,0,0,0,0,0,0,0,0,0,-1,1245,1107,0,0
28,-83,0,0,0,0,0,0,0,0,0,-1,1252,1107,0,0
35,-83,0,0,0,0,0,0,0,0,0,-1,1259,1107,0,0
42,-83,0,0,0,0,0,0,0,0,0,-1,1266,1107,0,0
49,-83,0,0,0,0,0,0,0,0,0,-1,1273,1107,0,0
56,-83,0,0,0,0,0,0,0,0,0,-1,1280,1107,0,0
63,-83,0,0,0,0,0,0,0,0,0,-1,1287,1107,0,0
70,-83,0,0,0,0,0,0,0,0,0,-1,1294,1107,0,0
77,-83,0,0,0,0,0,0,0,0,0,-1,1301,1107,0,0
84,-83,0,0,0,0,0,0,0,0,0,-1,1308,1107,0,0
91,-83,0,0,0,0,0,0,0,0,0,-1,1315,1107,0,0
98,-83,0,0,0,0,0,0,0,0,0,-1,1322,1107,0,0
105,-83,0,0,0,0,0,0,0,0,0,-1,1329,1107,0,0
112,-83,0,0,0,0,0,0,0,0,0,-1,1336,1107,0,0
119,-83,0,0,0,0,0,0,0,0,0,-1,1343,1107,0,0
126,-83,0,0,0,0,0,0,0,0,0,-1,1350,1107,0,0
133,-83,0,0,0,0,0,0,0,0,0,-1,1357,1107,0,0
140,-83,0,0,0,0,0,0,0,0,0,-1,1364,1107,0,0
147,-83,0,0,0,0,0,0,0,0,0,-1,1371,1107,0,0
154,-83,0,0,0,0,0,0,0,0,0,-1,1378,1107,0,0
161,-83,0,0,0,0,0,0,0,0,0,-1,1385,1107,0,0
168,-83,0,0,0,0,0,0,0,0,0,-1,1392,1107,0,0
175,-83,0,0,0,0,0,0,0,0,0,-1,1399,1107,0,0
182,-83,0,0,0,0,0,0,0,0,0,-1,1406,1107,0,0
189,-83,0,0,0,0,0,0,0,0,0,-1,1413,1107,0,0
196,-83,0,0,0,0,0,0,0,0,0,-1,1420,1107,0,0
203,-83,0,0,0,0,0,0,0,0,0,-1,1427,1107,0,0
210,-83,0,0,0,0,0,0,0,0,0,-1,1434,1107,0,0
217,-83,0,0,0,0,0,0,0,0,0,-1,1441,1107,0,0
224,-83,0,0,0,0,0,0,0,0,0,-1,1448,1107,0,0
231,-83,0,0,0,0,0,0,0,0,0,-1,1455,1107,0,0
238,-83,0,0,0,0,0,0,0,0,0,-1,1462,1107,0,0
245,-83,0,0,0,0,0,0,0,0,0,-1,1469,1107,0,0
252,-83,0,0,0,0,0,0,0,0,0,-1,1476,1107,0,0
259,-83,0,0,0,0,0,0,0,0,0,-1,1483,1107,0,0
266,-83,0,0,0,0,0,0,0,0,0,-1,1490,1107,0,0
273,-83,0,0,0,0,0,0,0,0,0,-1,1497,1107,0,0
280,-83,0,0,0,0,0,0,0,0,0,-1,1504,1107,0,0
287,-83,0,0,0,0,0,0,0,0,0,-1,1511,1107,0,0
294,-83,0,0,0,0,0,0,0,0,0,-1,1518,1107,0,0
301,-83,0,0,0,0,0,0,0,0,0,-1,1525,1107,0,0
308,-83,0,0,0,0,0,0,0,0,0,-1,1532,1107,0,0
315,-83,0,0,0,0,0,0,0,0,0,-1,1539,1107,0,0
322,-83,0,0,0,0,0,0,0,0,0,-1,1546,1107,0,0
329,-83,0,0,0,0,0,0,0,0,0,-1,1553,1107,0,0
336,-83,0,0,0,0,0,0,0,0,0,-1,1560,1107,0,0
343,-83,0,0,0,0,0,0,0,0,0,-1,1567,1107,0,0
350,-83,0,0,0,0,0,0,0,0,0,-1,1574,1107,0,0
357,-83,0,0,0,0,0,0,0,0,0,-1,1581,1107,0,0
364,-83,0,0,0,0,0,0,0,0,0,-1,1588,1107,0,0
371,-83,0,0,0,0,0,0,0,0,0,-1,1595,1107,0,0
378,-83,0,0,0,0,0,0,0,0,0,-1,1602,1107,0,0
385,-83,0,0,0,0,0,0,0,0,0,-1,1609,1107,0,0
392,-83,0,0,0,0,0,0,0,0,0,-1,1616,1107,0,0
399,-83,0,0,0,0,0,0,0,0,0,-1,1623,1107,0,0
406,-83,0,0,0,0,0,0,0,0,0,-1,1630,1107,0,0
413,-83,0,0,0,0,0,0,0,0,0,-1,1637,1107,0,0
420,-83,0,0,0,0,0,0,0,0,0,-1,1644,1107,0,0
427,-83,0,0,0,0,0,0,0,0,0,-1,1651,1107,0,0
434,-83,0,0,0,0,0,0,0,0,0,-1,1658,1107,0,0
441,-83,0,0,0,0,0,0,0,0,0,-1,1665,1107,0,0
448,-83,0,0,0,0,0,0,0,0,0,-1,1672,1107,0,0
455,-83,0,0,0,0,0,0,0,0,0,-1,1679,1107,0,0
462,-83,0,0,0,0,0,0,0,0,0,-1,1686,1107,0,0
469,-83,0,0,0,0,0,0,0,0,0,-1,1693,1107,0,0
476,-83,0,0,0,0,0,0,0,0,0,-1,1700,1107,0,0
483,-83,0,0,0,0,0,0,0,0,0,-1,1707,1107,0,0
490,-83,0,0,0,0,0,0,0,0,0,-1,1714,1107,0,0
497,-83,0,0,0,0,0,0,0,0,0,-1,1721,1107,0,0
504,-83,0,0,0,0,0,0,0,0,0,-1,1728,1107,0,0
511,-83,0,0,0,0,0,0,0,0,0,-1,1735,1107,0,0
518,-83,0,0,0,0,0,0,0,0,0,-1,1742,1107,0,0
525,-83,0,0,0,0,0,0,0,0,0,-1,1749,1107,0,0
532,-83,0,0,0,0,0,0,0,0,0,-1,1756,1107,0,0
539,-83,0,0,0,0,0,0,0,0,0,-1,1763,1107,0,0
546,-83,0,0,0,0,0,0,0,0,0,-1,1770,1107,0,0
553,-83,0,0,0,0,0,0,0,0,0,-1,1777,1107,0,0
560,-83,0,0,0,0,0,0,0,0,0,-1,1784,1107,0,0
567,-83,0,0,0,0,0,0,0,0,0,-1,1791,1107,0,0
574,-83,0,0,0,0,0,0,0,0,0,-1,1798,1107,0,0
581,-83,0,0,0,0,0,0,0,0,0,-1,1805,1107,0,0
588,-83,0,0,0,0,0,0,0,0,0,-1,1812,1107,0,0
595,-83,0,0,0,0,0,0,0,0,0,-1,1819,1107,0,0
602,-83,0,0,0,0,0,0,0,0,0,-1,1826,1107,0,0
609,-83,0,0,0,0,0,0,0,0,0,-1,1833,1107,0,0
616,-83,0,0,0,0,0,0,0,0,0,-1,1840,1107,0,0
623,-83,0,0,0,0,0,0,0,0,0,-1,1847,1107,0,0
630,-83,0,0,0,0,0,0,0,0,0,-1,1854,1107,0,0
637,-83,0,0,0,0,0,0,0,0,0,-1,1861,1107,0,0
644,-83,20.7535,2.49561,0.00403067,-0.00347926,-0.00505207,0.0065704,-0.00601899,-0.465814,0.00727081,0.0358371,1868,1107,20.7536,-2.49559
651,-83,20.6528,2.52197,0.00339048,-0.00202489,-0.00333009,0.00497477,-0.00360918,-0.44406,0.00497681,0.0413737,1875,1107,20.6528,-2.52199
658,-83,20.5033,2.44482,0.00302505,-0.00125509,-0.00217753,0.0039381,-0.00216814,-0.397037,0.00357446,0.0459811,1882,1107,20.5032,-2.44484
665,-83,20.5145,2.45569,0.00260921,-0.000865727,-0.000953773,0.00285378,-0.0011103,-0.251016,0.00236129,0.0413055,1889,1107,20.5145,-2.45573
672,-83,20.5607,2.64905,0.00175503,-0.000992736,0.000949397,0.00205115,-0.00128886,0.302341,0.00194502,0.03597,1896,1107,20.5606,-2.64901
679,-83,20.6875,2.69495,0.000663695,-0.00134565,0.00284749,0.00267855,-0.0033605,0.615802,0.00349405,0.0362557,1903,1107,20.6875,-2.69492
686,-83,20.8337,2.625,-0.000419372,-0.00173595,0.00443666,0.00340758,-0.0055629,0.711748,0.0052287,0.0358224,1910,1107,20.8337,-2.62505
693,-83,20.8218,2.65857,-0.00134381,-0.0020836,0.00565787,0.00395624,-0.00738366,0.752756,0.00664603,0.0372623,1917,1107,20.8218,-2.65852
700,-83,20.6855,2.71008,-0.00208889,-0.00220564,0.00650125,0.00435425,-0.00864877,0.780909,0.00764256,0.0326684,1924,1107,20.6855,-2.71009
707,-83,20.6536,2.76172,-0.00274066,-0.00233284,0.0070677,0.00453389,-0.00960739,0.79982,0.00833779,0.02295,1931,1107,20.6536,-2.76172
714,-83,20.7017,3.01953,-0.00315048,-0.00236501,0.00726456,0.00451742,-0.0100329,0.812403,0.00859947,0.0367039,1938,1107,20.7017,-3.01949
721,-83,19.9132,4.24243,0,0,0,0,0,0,0,-1,1945,1107,19.9133,-4.24243
728,-83,19.9409,4.15125,-0.00335793,-0.00205251,0.00647098,0.0037986,-0.00920903,0.835662,0.00772347,0.0205132,1952,1107,19.9409,-4.15124
735,-83,19.8853,4.06152,-0.00336579,-0.00153611,0.0057611,0.00338234,-0.00828424,0.864138,0.00693105,0.0210035,1959,1107,19.8852,-4.06154
742,-83,19.9622,4.04028,-0.0033671,-0.00094975,0.00486899,0.00285834,-0.00717519,0.907058,0.00596891,0.0122677,1966,1107,19.9622,-4.04024
749,-83,19.9609,3.99902,-0.00352309,-0.00154949,0.00343847,0.00104098,-0.00611356,0.925137,0.00446335,0.0100791,1973,1107,19.961,-3.99901
756,-83,19.9729,3.93884,-0.00338802,-0.00181234,0.00194377,-0.000502815,-0.00469755,0.977938,0.00297828,0.0134085,1980,1107,19.973,-3.93889
763,-83,19.9635,3.8584,-0.00315926,-0.00247012,0.000606097,-0.00211749,-0.00351189,1.04387,0.00204187,0.011367,1987,1107,19.9635,-3.85843
770,-83,19.9423,3.79089,-0.00313567,-0.00354523,-0.00108452,-0.00223677,-0.00444413,-0.692087,0.00256584,0.0127804,1994,1107,19.9422,-3.79086
777,-83,19.944,3.73425,-0.00355436,-0.00557446,-0.00218745,-0.00215503,-0.00697379,-0.569108,0.00412306,0.0141372,2001,1107,19.944,-3.73428
784,-83,19.9871,3.68127,-0.00415143,-0.00815676,-0.00298003,-0.00256366,-0.00974453,-0.489545,0.00583272,0.022831,2008,1107,19.9871,-3.68132
791,-83,20.1609,3.70789,-0.00473069,-0.0113357,-0.00371405,-0.00306321,-0.0130032,-0.421993,0.00784954,0.0394607,2015,1107,20.1609,-3.70793
798,-83,20.2256,3.7749,-0.00494747,-0.0149923,-0.00432042,-0.00334488,-0.0165949,-0.3552,0.010134,0.0462724,2022,1107,20.2256,-3.77486
805,-83,20.3086,3.80273,-0.00443862,-0.0188599,-0.00464035,-0.00307452,-0.020224,-0.285912,0.0125836,0.0485245,2029,1107,20.3087,-3.80276
812,-83,20.4426,3.80725,-0.00254767,-0.0224071,-0.00433819,-0.00164138,-0.0233134,-0.205949,0.0150251,0.0483889,2036,1107,20.4426,-3.80721
-700,-90,0,0,0,0,0,0,0,0,0,-1,524,1114,0,0
-693,-90,-10.1671,0.411377,-0.0857691,0.0764359,-0.000475948,0.0764373,-0.0857705,-1.56786,0.0937024,0.0459675,531,1114,-10.167,-0.411356
-686,-90,-11.1934,0.81665,-0.0651234,0.0664209,-0.000306582,0.0664216,-0.0651241,-1.56847,0.0759492,0.0432033,538,1114,-11.1934,-0.816665
-679,-90,-11.5092,0.991577,0,0,0,0,0,0,0,-1,545,1114,-11.5092,-0.991558
-672,-90,-11.637,1.04114,-0.0356266,0.0465008,-0.000209891,0.0465013,-0.0356272,-1.56824,0.0475552,0.0434823,552,1114,-11.637,-1.04116
-665,-90,-12.1245,1.00635,-0.0254416,0.0374442,-0.000214381,0.0374449,-0.0254424,-1.56739,0.0365277,0.0452555,559,1114,-12.1245,-1.00636
-658,-90,-12.4533,1.03455,-0.0176999,0.0293095,-0.000222173,0.0293106,-0.0177009,-1.56607,0.0274166,0.0415879,566,1114,-12.4533,-1.03457
-651,-90,-12.5121,0.992188,-0.0119784,0.022237,-0.000200471,0.0222382,-0.0119796,-1.56494,0.0200494,0.0293209,573,1114,-12.5122,-0.992155
-644,-90,-12.5472,1.17993,-0.00783054,0.0162123,-0.000233067,0.0162145,-0.0078328,-1.5611,0.0141621,0.0132816,580,1114,-12.5473,-1.17991
-637,-90,-12.5555,1.33105,-0.00359586,0.0105048,-0.000507403,0.010523,-0.00361409,-1.53487,0.00848073,0.0115903,587,1114,-12.5555,-1.3311
-630,-90,-12.5631,1.42969,-0.00184692,0.00635511,-0.0020003,0.00681694,-0.00230875,-1.34389,0.00547883,0.0121564,594,1114,-12.5631,-1.42968
-623,-90,-12.5706,1.5199,-0.00246336,0.0040013,-0.00306599,0.00522411,-0.00368617,-1.1913,0.00516983,0.00988415,601,1114,-12.5706,-1.51989
-616,-90,-12.5746,1.63159,-0.0033217,0.00199223,-0.00405608,0.0041841,-0.00551358,-1.07536,0.00561647,0.0083027,608,1114,-12.5746,-1.63161
-609,-90,-12.5749,1.73645,-0.00376279,0.000224729,-0.00518464,0.00378575,-0.00732381,-0.968957,0.00652163,0.0108209,615,1114,-12.5749,-1.73644
-602,-90,-12.5866,1.83386,-0.00411636,-0.000224677,-0.00619053,0.00431863,-0.00865966,-0.937671,0.00763146,0.0107126,622,1114,-12.5866,-1.83385
-595,-90,-12.5129,1.95593,-0.00450629,-0.000342394,-0.00706013,0.00493636,-0.00978504,-0.928778,0.00865171,0.0125047,629,1114,-12.513,-1.95592
-588,-90,-12.8565,1.79285,0,0,0,0,0,0,0,-1,636,1114,-12.8565,-1.79287
-581,-90,-13.103,1.17175,-0.00498213,-0.000292002,-0.00789115,0.00559516,-0.0108693,-0.92983,0.00966696,0.0340197,643,1114,-13.103,-1.17178
-574,-90,-13.2297,0.889771,-0.0050758,-0.000173115,-0.00777207,0.00552503,-0.0107739,-0.938162,0.00957149,0.0356319,650,1114,-13.2297,-0.88974
-567,-90,-13.2425,0.86438,-0.00486088,5.85395e-05,-0.00720645,0.00521349,-0.0100158,-0.949859,0.00893719,0.0368605,657,1114,-13.2425,-0.864427
-560,-90,-13.196,0.824829,-0.0043152,0.000333702,-0.00606926,0.00450841,-0.0084899,-0.968275,0.00762103,0.038417,664,1114,-13.196,-0.824877
-553,-90,-13.135,0.958252,-0.00345498,0.000604746,-0.00436997,0.00339329,-0.00624352,-1.00282,0.00564435,0.0380478,671,1114,-13.135,-0.958246
-546,-90,-13.076,1.06445,-0.00235987,0.00080105,-0.0021215,0.00186608,-0.0034249,-1.10554,0.00309862,0.0420952,678,1114,-13.076,-1.0644
-539,-90,-13.1099,0.852661,-0.00116315,0.000829066,0.00046144,0.000930754,-0.00126484,1.35389,0.00127251,0.0433963,685,1114,-13.1098,-0.852689
-532,-90,-13.069,0.679077,-0.00087149,0.000585421,0.00196934,0.00195672,-0.00224279,0.962543,0.00242646,0.0409051,692,1114,-13.069,-0.679071
-525,-90,0,0,0,0,0,0,0,0,0,-1,699,1114,0,0
-518,-90,0,0,0,0,0,0,0,0,0,-1,706,1114,0,0
-511,-90,0,0,0,0,0,0,0,0,0,-1,713,1114,0,0
-504,-90,0,0,0,0,0,0,0,0,0,-1,720,1114,0,0
-497,-90,0,0,0,0,0,0,0,0,0,-1,727,1114,0,0
-490,-90,0,0,0,0,0,0,0,0,0,-1,734,1114,0,0
-483,-90,0,0,0,0,0,0,0,0,0,-1,741,1114,0,0
-476,-90,0,0,0,0,0,0,0,0,0,-1,748,1114,0,0
-469,-90,0,0,0,0,0,0,0,0,0,-1,755,1114,0,0
-462,-90,0,0,0,0,0,0,0,0,0,-1,762,1114,0,0
-455,-90,0,0,0,0,0,0,0,0,0,-1,769,1114,0,0
-448,-90,0,0,0,0,0,0,0,0,0,-1,776,1114,0,0
-441,-90,0,0,0,0,0,0,0,0,0,-1,783,1114,0,0
-434,-90,0,0,0,0,0,0,0,0,0,-1,790,1114,0,0
-427,-90,0,0,0,0,0,0,0,0,0,-1,797,1114,0,0
-420,-90,0,0,0,0,0,0,0,0,0,-1,804,1114,0,0
-413,-90,0,0,0,0,0,0,0,0,0,-1,811,1114,0,0
-406,-90,0,0,0,0,0,0,0,0,0,-1,818,1114,0,0
-399,-90,0,0,0,0,0,0,0,0,0,-1,825,1114,0,0
-392,-90,0,0,0,0,0,0,0,0,0,-1,832,1114,0,0
-385,-90,0,0,0,0,0,0,0,0,0,-1,839,1114,0,0
-378,-90,0,0,0,0,0,0,0,0,0,-1,846,1114,0,0
-371,-90,0,0,0,0,0,0,0,0,0,-1,853,1114,0,0
-364,-90,0,0,0,0,0,0,0,0,0,-1,860,1114,0,0
-357,-90,0,0,0,0,0,0,0,0,0,-1,867,1114,0,0
-350,-90,0,0,0,0,0,0,0,0,0,-1,874,1114,0,0
-343,-90,0,0,0,0,0,0,0,0,0,-1,881,1114,0,0
-336,-90,0,0,0,0,0,0,0,0,0,-1,888,1114,0,0
-329,-90,0,0,0,0,0,0,0,0,0,-1,895,1114,0,0
-322,-90,0,0,0,0,0,0,0,0,0,-1,902,1114,0,0
-315,-90,0,0,0,0,0,0,0,0,0,-1,909,1114,0,0
-308,-90,0,0,0,0,0,0,0,0,0,-1,916,1114,0,0
-301,-90,0,0,0,0,0,0,0,0,0,-1,923,1114,0,0
-294,-90,0,0,0,0,0,0,0,0,0,-1,930,1114,0,0
-287,-90,0,0,0,0,0,0,0,0,0,-1,937,1114,0,0
-280,-90,0,0,0,0,0,0,0,0,0,-1,944,1114,0,0
-273,-90,0,0,0,0,0,0,0,0,0,-1,951,1114,0,0
-266,-90,0,0,0,0,0,0,0,0,0,-1,958,1114,0,0
-259,-90,0,0,0,0,0,0,0,0,0,-1,965,1114,0,0
-252,-90,0,0,0,0,0,0,0,0,0,-1,972,1114,0,0
-245,-90,0,0,0,0,0,0,0,0,0,-1,979,1114,0,0
-238,-90,0,0,0,0,0,0,0,0,0,-1,986,1114,0,0
-231,-90,0,0,0,0,0,0,0,0,0,-1,993,1114,0,0
-224,-90,0,0,0,0,0,0,0,0,0,-1,1000,1114,0,0
-217,-90,0,0,0,0,0,0,0,0,0,-1,1007,1114,0,0
-210,-90,0,0,0,0,0,0,0,0,0,-1,1014,1114,0,0
-203,-90,0,0,0,0,0,0,0,0,0,-1,1021,1114,0,0
-196,-90,0,0,0,0,0,0,0,0,0,-1,1028,1114,0,0
-189,-90,0,0,0,0,0,0,0,0,0,-1,1035,1114,0,0
-182,-90,0,0,0,0,0,0,0,0,0,-1,1042,1114,0,0
-175,-90,0,0,0,0,0,0,0,0,0,-1,1049,1114,0,0
-168,-90,0,0,0,0,0,0,0,0,0,-1,1056,1114,0,0
-161,-90,0,0,0,0,0,0,0,0,0,-1,1063,1114,0,0
-154,-90,0,0,0,0,0,0,0,0,0,-1,1070,1114,0,0
-147,-90,0,0,0,0,0,0,0,0,0,-1,1077,1114,0,0
-140,-90,0,0,0,0,0,0,0,0,0,-1,1084,1114,0,0
-133,-90,0,0,0,0,0,0,0,0,0,-1,1091,1114,0,0
-126,-90,0,0,0,0,0,0,0,0,0,-1,1098,1114,0,0
-119,-90,0,0,0,0,0,0,0,0,0,-1,1105,1114,0,0
-112,-90,0,0,0,0,0,0,0,0,0,-1,1112,1114,0,0
-105,-90,0,0,0,0,0,0,0,0,0,-1,1119,1114,0,0
-98,-90,0,0,0,0,0,0,0,0,0,-1,1126,1114,0,0
-91,-90,0,0,0,0,0,0,0,0,0,-1,1133,1114,0,0
-84,-90,0,0,0,0,0,0,0,0,0,-1,1140,1114,0,0
-77,-90,0,0,0,0,0,0,0,0,0,-1,1147,1114,0,0
-70,-90,0,0,0,0,0,0,0,0,0,-1,1154,1114,0,0
-63,-90,0,0,0,0,0,0,0,0,0,-1,1161,1114,0,0
-56,-90,0,0,0,0,0,0,0,0,0,-1,1168,1114,0,0
-49,-90,0,0,0,0,0,0,0,0,0,-1,1175,1114,0,0
-42,-90,0,0,0,0,0,0,0,0,0,-1,1182,1114,0,0
-35,-90,0,0,0,0,0,0,0,0,0,-1,1189,1114,0,0
-28,-90,0,0,0,0,0,0,0,0,0,-1,1196,1114,0,0
-21,-90,0,0,0,0,0,0,0,0,0,-1,1203,1114,0,0
-14,-90,0,0,0,0,0,0,0,0,0,-1,1210,1114,0,0
-7,-90,0,0,0,0,0,0,0,0,0,-1,1217,1114,0,0
0,-90,0,0,0,0,0,0,0,0,0,-1,1224,1114,0,0
7,-90,0,0,0,0,0,0,0,0,0,-1,1231,1114,0,0
14,-90,0,0,0,0,0,0,0,0,0,-1,1238,1114,0,0
21,-90,0,0,0,0,0,0,0,0,0,-1,1245,1114,0,0
28,-90,0,0,0,0,0,0,0,0,0,-1,1252,1114,0,0
35,-90,0,0,0,0,0,0,0,0,0,-1,1259,1114,0,0
42,-90,0,0,0,0,0,0,0,0,0,-1,1266,1114,0,0
49,-90,0,0,0,0,0,0,0,0,0,-1,1273,1114,0,0
56,-90,0,0,0,0,0,0,0,0,0,-1,1280,1114,0,0
63,-90,0,0,0,0,0,0,0,0,0,-1,1287,1114,0,0
70,-90,0,0,0,0,0,0,0,0,0,-1,1294,1114,0,0
77,-90,0,0,0,0,0,0,0,0,0,-1,1301,1114,0,0
84,-90,0,0,0,0,0,0,0,0,0,-1,1308,1114,0,0
91,-90,0,0,0,0,0,0,0,0,0,-1,1315,1114,0,0
98,-90,0,0,0,0,0,0,0,0,0,-1,1322,1114,0,0
105,-90,0,0,0,0,0,0,0,0,0,-1,1329,1114,0,0
112,-90,0,0,0,0,0,0,0,0,0,-1,1336,1114,0,0
119,-90,0,0,0,0,0,0,0,0,0,-1,1343,1114,0,0
126,-90,0,0,0,0,0,0,0,0,0,-1,1350,1114,0,0
133,-90,0,0,0,0,0,0,0,0,0,-1,1357,1114,0,0
140,-90,0,0,0,0,0,0,0,0,0,-1,1364,1114,0,0
147,-90,0,0,0,0,0,0,0,0,0,-1,1371,1114,0,0
154,-90,0,0,0,0,0,0,0,0,0,-1,1378,1114,0,0
161,-90,0,0,0,0,0,0,0,0,0,-1,1385,1114,0,0
168,-90,0,0,0,0,0,0,0,0,0,-1,1392,1114,0,0
175,-90,0,0,0,0,0,0,0,0,0,-1,1399,1114,0,0
182,-90,0,0,0,0,0,0,0,0,0,-1,1406,1114,0,0
189,-90,0,0,0,0,0,0,0,0,0,-1,1413,1114,0,0
196,-90,0,0,0,0,0,0,0,0,0,-1,1420,1114,0,0
203,-90,0,0,0,0,0,0,0,0,0,-1,1427,1114,0,0
210,-90,0,0,0,0,0,0,0,0,0,-1,1434,1114,0,0
217,-90,0,0,0,0,0,0,0,0,0,-1,1441,1114,0,0
224,-90,0,0,0,0,0,0,0,0,0,-1,1448,1114,0,0
231,-90,0,0,0,0,0,0,0,0,0,-1,1455,1114,0,0
238,-90,0,0,0,0,0,0,0,0,0,-1,1462,1114,0,0
245,-90,0,0,0,0,0,0,0,0,0,-1,1469,1114,0,0
252,-90,0,0,0,0,0,0,0,0,0,-1,1476,1114,0,0
259,-90,0,0,0,0,0,0,0,0,0,-1,1483,1114,0,0
266,-90,0,0,0,0,0,0,0,0,0,-1,1490,1114,0,0
273,-90,0,0,0,0,0,0,0,0,0,-1,1497,1114,0,0
280,-90,0,0,0,0,0,0,0,0,0,-1,1504,1114,0,0
287,-90,0,0,0,0,0,0,0,0,0,-1,1511,1114,0,0
294,-90,0,0,0,0,0,0,0,0,0,-1,1518,1114,0,0
301,-90,0,0,0,0,0,0,0,0,0,-1,1525,1114,0,0
308,-90,0,0,0,0,0,0,0,0,0,-1,1532,1114,0,0
315,-90,0,0,0,0,0,0,0,0,0,-1,1539,1114,0,0
322,-90,0,0,0,0,0,0,0,0,0,-1,1546,1114,0,0
329,-90,0,0,0,0,0,0,0,0,0,-1,1553,1114,0,0
336,-90,0,0,0,0,0,0,0,0,0,-1,1560,1114,0,0
343,-90,0,0,0,0,0,0,0,0,0,-1,1567,1114,0,0
350,-90,0,0,0,0,0,0,0,0,0,-1,1574,1114,0,0
357,-90,0,0,0,0,0,0,0,0,0,-1,1581,1114,0,0
364,-90,0,0,0,0,0,0,0,0,0,-1,1588,1114,0,0
371,-90,0,0,0,0,0,0,0,0,0,-1,1595,1114,0,0
378,-90,0,0,0,0,0,0,0,0,0,-1,1602,1114,0,0
385,-90,0,0,0,0,0,0,0,0,0,-1,1609,1114,0,0
392,-90,0,0,0,0,0,0,0,0,0,-1,1616,1114,0,0
399,-90,0,0,0,0,0,0,0,0,0,-1,1623,1114,0,0
406,-90,0,0,0,0,0,0,0,0,0,-1,1630,1114,0,0
413,-90,0,0,0,0,0,0,0,0,0,-1,1637,1114,0,0
420,-90,0,0,0,0,0,0,0,0,0,-1,1644,1114,0,0
427,-90,0,0,0,0,0,0,0,0,0,-1,1651,1114,0,0
434,-90,0,0,0,0,0,0,0,0,0,-1,1658,1114,0,0
441,-90,0,0,0,0,0,0,0,0,0,-1,1665,1114,0,0
448,-90,0,0,0,0,0,0,0,0,0,-1,1672,1114,0,0
455,-90,0,0,0,0,0,0,0,0,0,-1,1679,1114,0,0
462,-90,0,0,0,0,0,0,0,0,0,-1,1686,1114,0,0
469,-90,0,0,0,0,0,0,0,0,0,-1,1693,1114,0,0
476,-90,0,0,0,0,0,0,0,0,0,-1,1700,1114,0,0
483,-90,0,0,0,0,0,0,0,0,0,-1,1707,1114,0,0
490,-90,0,0,0,0,0,0,0,0,0,-1,1714,1114,0,0
497,-90,0,0,0,0,0,0,0,0,0,-1,1721,1114,0,0
504,-90,0,0,0,0,0,0,0,0,0,-1,1728,1114,0,0
511,-90,0,0,0,0,0,0,0,0,0,-1,1735,1114,0,0
518,-90,0,0,0,0,0,0,0,0,0,-1,1742,1114,0,0
525,-90,0,0,0,0,0,0,0,0,0,-1,1749,1114,0,0
532,-90,0,0,0,0,0,0,0,0,0,-1,1756,1114,0,0
539,-90,0,0,0,0,0,0,0,0,0,-1,1763,1114,0,0
546,-90,0,0,0,0,0,0,0,0,0,-1,1770,1114,0,0
553,-90,0,0,0,0,0,0,0,0,0,-1,1777,1114,0,0
560,-90,0,0,0,0,0,0,0,0,0,-1,1784,1114,0,0
567,-90,0,0,0,0,0,0,0,0,0,-1,1791,1114,0,0
574,-90,0,0,0,0,0,0,0,0,0,-1,1798,1114,0,0
581,-90,0,0,0,0,0,0,0,0,0,-1,1805,1114,0,0
588,-90,0,0,0,0,0,0,0,0,0,-1,1812,1114,0,0
595,-90,0,0,0,0,0,0,0,0,0,-1,1819,1114,0,0
602,-90,0,0,0,0,0,0,0,0,0,-1,1826,1114,0,0
609,-90,0,0,0,0,0,0,0,0,0,-1,1833,1114,0,0
616,-90,0,0,0,0,0,0,0,0,0,-1,1840,1114,0,0
623,-90,0,0,0,0,0,0,0,0,0,-1,1847,1114,0,0
630,-90,0,0,0,0,0,0,0,0,0,-1,1854,1114,0,0
637,-90,0,0,0,0,0,0,0,0,0,-1,1861,1114,0,0
644,-90,20.6122,2.67627,0.00361103,-0.00390653,-0.00619357,0.00709716,-0.00739267,-0.512665,0.00836629,0.0355762,1868,1114,20.6122,-2.67627
651,-90,20.5999,2.67041,0.00304759,-0.00259152,-0.00410949,0.00521179,-0.00475572,-0.484727,0.00575675,0.040559,1875,1114,20.5999,-2.67047
658,-90,20.5442,2.50781,0.00282297,-0.0018206,-0.0027111,0.00407061,-0.00306824,-0.431299,0.00413514,0.0426115,1882,1114,20.5442,-2.50776
665,-90,20.5394,2.4281,0.00249417,-0.00138951,-0.00126197,0.00286821,-0.00176355,-0.288147,0.00269938,0.0445997,1889,1114,20.5395,-2.42816
672,-90,20.597,2.5863,0.00163116,-0.00145389,0.00077929,0.00181684,-0.00163956,0.233901,0.00199643,0.0437043,1896,1114,20.5971,-2.58636
679,-90,20.613,2.74084,0.000547448,-0.00172026,0.00269343,0.00233596,-0.00350877,0.586172,0.00339702,0.0370975,1903,1114,20.6131,-2.74087
686,-90,20.6814,2.74792,-0.000522646,-0.00203177,0.0042678,0.00305678,-0.00561119,0.697901,0.00507638,0.0328306,1910,1114,20.6814,-2.74797
693,-90,20.6835,2.7356,-0.00145296,-0.00230654,0.00546357,0.00360046,-0.00735996,0.746419,0.0064509,0.033735,1917,1114,20.6835,-2.73563
700,-90,20.6958,2.76196,-0.00221743,-0.00237995,0.00628605,0.00398789,-0.00858527,0.778935,0.00741911,0.0311303,1924,1114,20.6958,-2.76195
707,-90,20.6417,2.71704,-0.00286013,-0.00246291,0.00684882,0.00419018,-0.00951322,0.799893,0.00810818,0.023797,1931,1114,20.6418,-2.71701
714,-90,20.6035,3.16833,-0.00325893,-0.00243626,0.00704608,0.00421048,-0.00990567,0.814554,0.00836814,0.0411403,1938,1114,20.6035,-3.16838
721,-90,19.8779,4.23267,0,0,0,0,0,0,0,-1,1945,1114,19.8779,-4.23261
728,-90,19.8947,4.1936,-0.00346741,-0.00205246,0.00620719,0.00348744,-0.00900731,0.842142,0.0074448,0.0184158,1952,1114,19.8947,-4.19364
735,-90,19.8737,4.10657,-0.0034314,-0.00152641,0.00549843,0.00310142,-0.00805923,0.871162,0.00665215,0.0197726,1959,1114,19.8737,-4.10661
742,-90,19.8756,4.04431,-0.0033336,-0.000950701,0.00465598,0.00266385,-0.00694815,0.910659,0.0057303,0.0164031,1966,1114,19.8757,-4.04429
749,-90,19.9138,3.97156,-0.00343875,-0.00179466,0.00328568,0.000770246,-0.00600366,0.907977,0.00428234,0.0114023,1973,1114,19.9138,-3.97152
756,-90,19.9321,3.90234,-0.00340367,-0.00234472,0.00191716,-0.000885259,-0.00486313,0.920128,0.00299099,0.0125968,1980,1114,19.9321,-3.90231
763,-90,19.9175,3.83923,-0.00344301,-0.0033111,0.000601655,-0.00277179,-0.00398231,0.839994,0.00235735,0.011158,1987,1114,19.9175,-3.8392
770,-90,19.8911,3.78369,-0.00368227,-0.00485549,-0.000997487,-0.00311169,-0.00542607,-0.519589,0.003144,0.0134554,1994,1114,19.8911,-3.78373
777,-90,19.882,3.72473,-0.00464396,-0.0075495,-0.00198455,-0.00363727,-0.00855619,-0.469444,0.00495836,0.012723,2001,1114,19.8819,-3.72473
784,-90,19.8827,3.67957,-0.00604253,-0.0109189,-0.00272682,-0.00482281,-0.0121386,-0.420611,0.00705734,0.0249217,2008,1114,19.8826,-3.67961
791,-90,19.8495,3.78088,-0.00773109,-0.0150291,-0.00345688,-0.00635364,-0.0164065,-0.379184,0.00955223,0.0401282,2015,1114,19.8495,-3.78094
798,-90,19.8059,3.86475,0,0,0,0,0,0,0,-1,2022,1114,19.8059,-3.86471
805,-90,19.8335,3.89917,-0.0111608,-0.02472,-0.00453211,-0.00978545,-0.0260954,-0.294632,0.0152223,0.0453193,2029,1114,19.8334,-3.89912
812,-90,20.2024,3.5968,-0.0122156,-0.029357,-0.00446159,-0.0111238,-0.0304487,-0.239981,0.0177909,0.0462802,2036,1114,20.2023,-3.59684
-700,-97,0,0,0,0,0,0,0,0,0,-1,524,1121,0,0
-693,-97,-9.78534,0.234253,-0.105205,0.0879024,0.00550093,0.0880589,-0.105362,1.54234,0.11182,0.0437357,531,1121,-9.78536,-0.234238
-686,-97,-10.5734,0.306274,-0.0814295,0.0775464,0.00547775,0.0777349,-0.081618,1.53639,0.0920116,0.0453407,538,1121,-10.5734,-0.306269
-679,-97,-11.2779,0.524292,-0.0618918,0.0663501,0.00497797,0.066543,-0.0620848,1.53206,0.0742781,0.0460122,545,1121,-11.2779,-0.524257
-672,-97,-11.3665,0.623779,-0.0459706,0.0552067,0.00424218,0.0553843,-0.0461481,1.52897,0.0587005,0.0432811,552,1121,-11.3665,-0.623789
-665,-97,-11.5866,2.17322,0,0,0,0,0,0,0,-1,559,1121,-11.5866,-2.17327
-658,-97,-12.3215,0.782959,-0.0233339,0.0349821,0.00260276,0.0350981,-0.0234498,1.52628,0.0340249,0.0408253,566,1121,-12.3215,-0.782914
-651,-97,-12.4003,0.992676,-0.0159003,0.0265164,0.0019021,0.0266015,-0.0159855,1.52607,0.0248409,0.0279647,573,1121,-12.4003,-0.992695
-644,-97,-12.4538,1.18469,-0.0104648,0.0193311,0.00127304,0.0193854,-0.0105191,1.52817,0.0175165,0.0108231,580,1121,-12.4538,-1.18464
-637,-97,-12.4494,1.31018,-0.00494367,0.0125986,0.000575573,0.0126174,-0.00496254,1.53803,0.0104656,0.0117462,587,1121,-12.4494,-1.31014
-630,-97,-12.4546,1.40869,-0.00232499,0.00753293,-0.00125321,0.00768975,-0.00248182,-1.44631,0.00612377,0.00984426,594,1121,-12.4546,-1.40864
-623,-97,-12.4701,1.52026,-0.00286967,0.00476615,-0.00263476,0.00558703,-0.00369056,-1.26877,0.00539359,0.0116104,601,1121,-12.4701,-1.52029
-616,-97,-12.4627,1.62842,-0.00378624,0.00240248,-0.00391858,0.00430115,-0.00568491,-1.1196,0.00578387,0.0123419,608,1121,-12.4627,-1.62844
-609,-97,-12.479,1.73669,-0.00430481,0.00046833,-0.0052089,0.00381136,-0.00764785,-1.00021,0.00673844,0.0140697,615,1121,-12.479,-1.73667
-602,-97,-12.4988,1.80884,-0.00472547,-3.51502e-05,-0.00633566,0.00437545,-0.00913608,-0.962655,0.00796065,0.0125102,622,1121,-12.4988,-1.80881
-595,-97,-12.4564,1.9165,-0.00514333,-0.000102869,-0.00729866,0.00509842,-0.0103446,-0.951639,0.00908592,0.0158457,629,1121,-12.4564,-1.91652
-588,-97,-12.6874,1.92761,0,0,0,0,0,0,0,-1,636,1121,-12.6874,-1.9276
-581,-97,-13.0186,1.2832,-0.00571177,1.63682e-05,-0.00825105,0.0058863,-0.0115817,-0.95245,0.0102623,0.0362645,643,1121,-13.0186,-1.28318
-574,-97,-13.2104,0.850708,-0.005804,0.000168426,-0.00818087,0.00589107,-0.0115266,-0.960396,0.0102301,0.0392444,650,1121,-13.2104,-0.850674
-567,-97,-13.1922,0.834473,-0.00554586,0.000416515,-0.00767426,0.00566829,-0.0107976,-0.97066,0.00965914,0.0361292,657,1121,-13.1922,-0.834439
-560,-97,-13.2152,0.984253,-0.00488371,0.000696011,-0.00657575,0.00504924,-0.00923694,-0.986022,0.00836542,0.0372546,664,1121,-13.2152,-0.984251
-553,-97,-13.1456,1.21106,-0.00381167,0.000958086,-0.00488708,0.00401115,-0.00686474,-1.0124,0.00635083,0.0429434,671,1121,-13.1456,-1.21101
-546,-97,-13.1563,1.07153,-0.00240511,0.00113689,-0.00261214,0.00252179,-0.00379001,-1.0833,0.00366856,0.0436695,678,1121,-13.1563,-1.0715
-539,-97,-13.1852,0.695435,0,0,0,0,0,0,0,-1,685,1121,-13.1852,-0.695401
-532,-97,-13.1952,0.760132,0,0,0,0,0,0,0,-1,692,1121,-13.1952,-0.760169
-525,-97,0,0,0,0,0,0,0,0,0,-1,699,1121,0,0
-518,-97,0,0,0,0,0,0,0,0,0,-1,706,1121,0,0
-511,-97,0,0,0,0,0,0,0,0,0,-1,713,1121,0,0
-504,-97,0,0,0,0,0,0,0,0,0,-1,720,1121,0,0
-497,-97,0,0,0,0,0,0,0,0,0,-1,727,1121,0,0
-490,-97,0,0,0,0,0,0,0,0,0,-1,734,1121,0,0
-483,-97,0,0,0,0,0,0,0,0,0,-1,741,1121,0,0
-476,-97,0,0,0,0,0,0,0,0,0,-1,748,1121,0,0
-469,-97,0,0,0,0,0,0,0,0,0,-1,755,1121,0,0
-462,-97,0,0,0,0,0,0,0,0,0,-1,762,1121,0,0
-455,-97,0,0,0,0,0,0,0,0,0,-1,769,1121,0,0
-448,-97,0,0,0,0,0,0,0,0,0,-1,776,1121,0,0
-441,-97,0,0,0,0,0,0,0,0,0,-1,783,1121,0,0
-434,-97,0,0,0,0,0,0,0,0,0,-1,790,1121,0,0
-427,-97,0,0,0,0,0,0,0,0,0,-1,797,1121,0,0
-420,-97,0,0,0,0,0,0,0,0,0,-1,804,1121,0,0
-413,-97,0,0,0,0,0,0,0,0,0,-1,811,1121,0,0
-406,-97,0,0,0,0,0,0,0,0,0,-1,818,1121,0,0
-399,-97,0,0,0,0,0,0,0,0,0,-1,825,1121,0,0
-392,-97,0,0,0,0,0,0,0,0,0,-1,832,1121,0,0
-385,-97,0,0,0,0,0,0,0,0,0,-1,839,1121,0,0
-378,-97,0,0,0,0,0,0,0,0,0,-1,846,1121,0,0
-371,-97,0,0,0,0,0,0,0,0,0,-1,853,1121,0,0
-364,-97,0,0,0,0,0,0,0,0,0,-1,860,1121,0,0
-357,-97,0,0,0,0,0,0,0,0,0,-1,867,1121,0,0
-350,-97,0,0,0,0,0,0,0,0,0,-1,874,1121,0,0
-343,-97,0,0,0,0,0,0,0,0,0,-1,881,1121,0,0
-336,-97,0,0,0,0,0,0,0,0,0,-1,888,1121,0,0
-329,-97,0,0,0,0,0,0,0,0,0,-1,895,1121,0,0
-322,-97,0,0,0,0,0,0,0,0,0,-1,902,1121,0,0
-315,-97,0,0,0,0,0,0,0,0,0,-1,909,1121,0,0
-308,-97,0,0,0,0,0,0,0,0,0,-1,916,1121,0,0
-301,-97,0,0,0,0,0,0,0,0,0,-1,923,1121,0,0
-294,-97,0,0,0,0,0,0,0,0,0,-1,930,1121,0,0
-287,-97,0,0,0,0,0,0,0,0,0,-1,937,1121,0,0
-280,-97,0,0,0,0,0,0,0,0,0,-1,944,1121,0,0
-273,-97,0,0,0,0,0,0,0,0,0,-1,951,1121,0,0
-266,-97,0,0,0,0,0,0,0,0,0,-1,958,1121,0,0
-259,-97,0,0,0,0,0,0,0,0,0,-1,965,1121,0,0
-252,-97,0,0,0,0,0,0,0,0,0,-1,972,1121,0,0
-245,-97,0,0,0,0,0,0,0,0,0,-1,979,1121,0,0
-238,-97,0,0,0,0,0,0,0,0,0,-1,986,1121,0,0
-231,-97,0,0,0,0,0,0,0,0,0,-1,993,1121,0,0
-224,-97,0,0,0,0,0,0,0,0,0,-1,1000,1121,0,0
-217,-97,0,0,0,0,0,0,0,0,0,-1,1007,1121,0,0
-210,-97,0,0,0,0,0,0,0,0,0,-1,1014,1121,0,0
-203,-97,0,0,0,0,0,0,0,0,0,-1,1021,1121,0,0
-196,-97,0,0,0,0,0,0,0,0,0,-1,1028,1121,0,0
-189,-97,0,0,0,0,0,0,0,0,0,-1,1035,1121,0,0
-182,-97,0,0,0,0,0,0,0,0,0,-1,1042,1121,0,0
-175,-97,0,0,0,0,0,0,0,0,0,-1,1049,1121,0,0
-168,-97,0,0,0,0,0,0,0,0,0,-1,1056,1121,0,0
-161,-97,0,0,0,0,0,0,0,0,0,-1,1063,1121,0,0
-154,-97,0,0,0,0,0,0,0,0,0,-1,1070,1121,0,0
-147,-97,0,0,0,0,0,0,0,0,0,-1,1077,1121,0,0
-140,-97,0,0,0,0,0,0,0,0,0,-1,1084,1121,0,0
-133,-97,0,0,0,0,0,0,0,0,0,-1,1091,1121,0,0
-126,-97,0,0,0,0,0,0,0,0,0,-1,1098,1121,0,0
-119,-97,0,0,0,0,0,0,0,0,0,-1,1105,1121,0,0
-112,-97,0,0,0,0,0,0,0,0,0,-1,1112,1121,0,0
-105,-97,0,0,0,0,0,0,0,0,0,-1,1119,1121,0,0
-98,-97,0,0,0,0,0,0,0,0,0,-1,1126,1121,0,0
-91,-97,0,0,0,0,0,0,0,0,0,-1,1133,1121,0,0
-84,-97,0,0,0,0,0,0,0,0,0,-1,1140,1121,0,0
-77,-97,0,0,0,0,0,0,0,0,0,-1,1147,1121,0,0
-70,-97,0,0,0,0,0,0,0,0,0,-1,1154,1121,0,0
-63,-97,0,0,0,0,0,0,0,0,0,-1,1161,1121,0,0
-56,-97,0,0,0,0,0,0,0,0,0,-1,1168,1121,0,0
-49,-97,0,0,0,0,0,0,0,0,0,-1,1175,1121,0,0
-42,-97,0,0,0,0,0,0,0,0,0,-1,1182,1121,0,0
-35,-97,0,0,0,0,0,0,0,0,0,-1,1189,1121,0,0
-28,-97,0,0,0,0,0,0,0,0,0,-1,1196,1121,0,0
-21,-97,0,0,0,0,0,0,0,0,0,-1,1203,1121,0,0
-14,-97,0,0,0,0,0,0,0,0,0,-1,1210,1121,0,0
-7,-97,0,0,0,0,0,0,0,0,0,-1,1217,1121,0,0
0,-97,0,0,0,0,0,0,0,0,0,-1,1224,1121,0,0
7,-97,0,0,0,0,0,0,0,0,0,-1,1231,1121,0,0
14,-97,0,0,0,0,0,0,0,0,0,-1,1238,1121,0,0
21,-97,0,0,0,0,0,0,0,0,0,-1,1245,1121,0,0
28,-97,0,0,0,0,0,0,0,0,0,-1,1252,1121,0,0
35,-97,0,0,0,0,0,0,0,0,0,-1,1259,1121,0,0
42,-97,0,0,0,0,0,0,0,0,0,-1,1266,1121,0,0
49,-97,0,0,0,0,0,0,0,0,0,-1,1273,1121,0,0
56,-97,0,0,0,0,0,0,0,0,0,-1,1280,1121,0,0
63,-97,0,0,0,0,0,0,0,0,0,-1,1287,1121,0,0
70,-97,0,0,0,0,0,0,0,0,0,-1,1294,1121,0,0
77,-97,0,0,0,0,0,0,0,0,0,-1,1301,1121,0,0
84,-97,0,0,0,0,0,0,0,0,0,-1,1308,1121,0,0
91,-97,0,0,0,0,0,0,0,0,0,-1,1315,1121,0,0
98,-97,0,0,0,0,0,0,0,0,0,-1,1322,1121,0,0
105,-97,0,0,0,0,0,0,0,0,0,-1,1329,1121,0,0
112,-97,0,0,0,0,0,0,0,0,0,-1,1336,1121,0,0
119,-97,0,0,0,0,0,0,0,0,0,-1,1343,1121,0,0
126,-97,0,0,0,0,0,0,0,0,0,-1,1350,1121,0,0
133,-97,0,0,0,0,0,0,0,0,0,-1,1357,1121,0,0
140,-97,0,0,0,0,0,0,0,0,0,-1,1364,1121,0,0
147,-97,0,0,0,0,0,0,0,0,0,-1,1371,1121,0,0
154,-97,0,0,0,0,0,0,0,0,0,-1,1378,1121,0,0
161,-97,0,0,0,0,0,0,0,0,0,-1,1385,1121,0,0
168,-97,0,0,0,0,0,0,0,0,0,-1,1392,1121,0,0
175,-97,0,0,0,0,0,0,0,0,0,-1,1399,1121,0,0
182,-97,0,0,0,0,0,0,0,0,0,-1,1406,1121,0,0
189,-97,0,0,0,0,0,0,0,0,0,-1,1413,1121,0,0
196,-97,0,0,0,0,0,0,0,0,0,-1,1420,1121,0,0
203,-97,0,0,0,0,0,0,0,0,0,-1,1427,1121,0,0
210,-97,0,0,0,0,0,0,0,0,0,-1,1434,1121,0,0
217,-97,0,0,0,0,0,0,0,0,0,-1,1441,1121,0,0
224,-97,0,0,0,0,0,0,0,0,0,-1,1448,1121,0,0
231,-97,0,0,0,0,0,0,0,0,0,-1,1455,1121,0,0
238,-97,0,0,0,0,0,0,0,0,0,-1,1462,1121,0,0
245,-97,0,0,0,0,0,0,0,0,0,-1,1469,1121,0,0
252,-97,0,0,0,0,0,0,0,0,0,-1,1476,1121,0,0
259,-97,0,0,0,0,0,0,0,0,0,-1,1483,1121,0,0
266,-97,0,0,0,0,0,0,0,0,0,-1,1490,1121,0,0
273,-97,0,0,0,0,0,0,0,0,0,-1,1497,1121,0,0
280,-97,0,0,0,0,0,0,0,0,0,-1,1504,1121,0,0
287,-97,0,0,0,0,0,0,0,0,0,-1,1511,1121,0,0
294,-97,0,0,0,0,0,0,0,0,0,-1,1518,1121,0,0
301,-97,0,0,0,0,0,0,0,0,0,-1,1525,1121,0,0
308,-97,0,0,0,0,0,0,0,0,0,-1,1532,1121,0,0
315,-97,0,0,0,0,0,0,0,0,0,-1,1539,1121,0,0
322,-97,0,0,0,0,0,0,0,0,0,-1,1546,1121,0,0
329,-97,0,0,0,0,0,0,0,0,0,-1,1553,1121,0,0
336,-97,0,0,0,0,0,0,0,0,0,-1,1560,1121,0,0
343,-97,0,0,0,0,0,0,0,0,0,-1,1567,1121,0,0
350,-97,0,0,0,0,0,0,0,0,0,-1,1574,1121,0,0
357,-97,0,0,0,0,0,0,0,0,0,-1,1581,1121,0,0
364,-97,0,0,0,0,0,0,0,0,0,-1,1588,1121,0,0
371,-97,0,0,0,0,0,0,0,0,0,-1,1595,1121,0,0
378,-97,0,0,0,0,0,0,0,0,0,-1,1602,1121,0,0
385,-97,0,0,0,0,0,0,0,0,0,-1,1609,1121,0,0
392,-97,0,0,0,0,0,0,0,0,0,-1,1616,1121,0,0
399,-97,0,0,0,0,0,0,0,0,0,-1,1623,1121,0,0
406,-97,0,0,0,0,0,0,0,0,0,-1,1630,1121,0,0
413,-97,0,0,0,0,0,0,0,0,0,-1,1637,1121,0,0
420,-97,0,0,0,0,0,0,0,0,0,-1,1644,1121,0,0
427,-97,0,0,0,0,0,0,0,0,0,-1,1651,1121,0,0
434,-97,0,0,0,0,0,0,0,0,0,-1,1658,1121,0,0
441,-97,0,0,0,0,0,0,0,0,0,-1,1665,1121,0,0
448,-97,0,0,0,0,0,0,0,0,0,-1,1672,1121,0,0
455,-97,0,0,0,0,0,0,0,0,0,-1,1679,1121,0,0
462,-97,0,0,0,0,0,0,0,0,0,-1,1686,1121,0,0
469,-97,0,0,0,0,0,0,0,0,0,-1,1693,1121,0,0
476,-97,0,0,0,0,0,0,0,0,0,-1,1700,1121,0,0
483,-97,0,0,0,0,0,0,0,0,0,-1,1707,1121,0,0
490,-97,0,0,0,0,0,0,0,0,0,-1,1714,1121,0,0
497,-97,0,0,0,0,0,0,0,0,0,-1,1721,1121,0,0
504,-97,0,0,0,0,0,0,0,0,0,-1,1728,1121,0,0
511,-97,0,0,0,0,0,0,0,0,0,-1,1735,1121,0,0
518,-97,0,0,0,0,0,0,0,0,0,-1,1742,1121,0,0
525,-97,0,0,0,0,0,0,0,0,0,-1,1749,1121,0,0
532,-97,0,0,0,0,0,0,0,0,0,-1,1756,1121,0,0
539,-97,0,0,0,0,0,0,0,0,0,-1,1763,1121,0,0
546,-97,0,0,0,0,0,0,0,0,0,-1,1770,1121,0,0
553,-97,0,0,0,0,0,0,0,0,0,-1,1777,1121,0,0
560,-97,0,0,0,0,0,0,0,0,0,-1,1784,1121,0,0
567,-97,0,0,0,0,0,0,0,0,0,-1,1791,1121,0,0
574,-97,0,0,0,0,0,0,0,0,0,-1,1798,1121,0,0
581,-97,0,0,0,0,0,0,0,0,0,-1,1805,1121,0,0
588,-97,0,0,0,0,0,0,0,0,0,-1,1812,1121,0,0
595,-97,0,0,0,0,0,0,0,0,0,-1,1819,1121,0,0
602,-97,0,0,0,0,0,0,0,0,0,-1,1826,1121,0,0
609,-97,0,0,0,0,0,0,0,0,0,-1,1833,1121,0,0
616,-97,0,0,0,0,0,0,0,0,0,-1,1840,1121,0,0
623,-97,0,0,0,0,0,0,0,0,0,-1,1847,1121,0,0
630,-97,0,0,0,0,0,0,0,0,0,-1,1854,1121,0,0
637,-97,0,0,0,0,0,0,0,0,0,-1,1861,1121,0,0
644,-97,20.5925,2.80383,0.00289894,-0.00412847,-0.00644121,0.00672249,-0.00795201,-0.535706,0.00848224,0.0380597,1868,1121,20.5926,-2.80381
651,-97,20.6058,2.7843,0.00251415,-0.0028799,-0.00432614,0.00491511,-0.00528086,-0.506665,0.00588791,0.0389448,1875,1121,20.6059,-2.78433
658,-97,20.6528,2.41089,0.00250458,-0.00207427,-0.00289635,0.00390708,-0.00347677,-0.450952,0.00426548,0.0379968,1882,1121,20.6529,-2.41094
665,-97,20.7015,2.32324,0.00223015,-0.00161733,-0.00132281,0.00264107,-0.00202824,-0.301186,0.00270356,0.0413687,1889,1121,20.7015,-2.32328
672,-97,20.7466,2.6947,0.00131816,-0.00163564,0.00078838,0.00151541,-0.00183289,0.245164,0.00193603,0.0433181,1896,1121,20.7466,-2.69475
679,-97,20.6576,3.02942,0.000201044,-0.00184481,0.00269622,0.00206186,-0.00370563,0.60409,0.00337464,0.0400206,1903,1121,20.6576,-3.02944
686,-97,20.5668,2.91284,-0.000903506,-0.00211444,0.00426311,0.00279692,-0.00581487,0.714857,0.00507276,0.0355462,1910,1121,20.5668,-2.91283
693,-97,20.6077,2.76514,-0.00186738,-0.00235372,0.00544206,0.00333694,-0.00755804,0.763071,0.00644567,0.0316971,1917,1121,20.6077,-2.76517
700,-97,20.6765,2.72449,-0.00267281,-0.00242,0.00627278,0.00372764,-0.00882046,0.795472,0.00744089,0.0275933,1924,1121,20.6765,-2.72452
707,-97,20.6348,2.76282,-0.0033253,-0.00249406,0.006844,0.00394693,-0.00976629,0.815725,0.0081515,0.0225101,1931,1121,20.6348,-2.76287
714,-97,20.5051,3.44006,-0.00370887,-0.00243949,0.00704275,0.00399711,-0.0101455,0.830337,0.00841849,0.043709,1938,1121,20.5052,-3.4401
721,-97,19.8314,4.24133,0,0,0,0,0,0,0,-1,1945,1121,19.8314,-4.24135
728,-97,19.8485,4.20044,-0.00388093,-0.00204453,0.00618403,0.00328909,-0.00921455,0.859099,0.00748431,0.0188689,1952,1121,19.8485,-4.20045
735,-97,19.834,4.12183,-0.00379417,-0.00153392,0.00545631,0.00290807,-0.00823616,0.887515,0.00667475,0.0182361,1959,1121,19.834,-4.12187
742,-97,19.8163,4.06372,-0.00358623,-0.0009653,0.00460643,0.00251344,-0.00706497,0.92398,0.00573444,0.014237,1966,1121,19.8163,-4.06378
749,-97,19.8154,3.97095,-0.00362115,-0.00205324,0.00323552,0.000491944,-0.00616633,0.904256,0.00428429,0.0155591,1973,1121,19.8155,-3.97097
756,-97,19.8256,3.88074,-0.00368983,-0.00287107,0.00189589,-0.00134086,-0.00522004,0.891731,0.00313031,0.0138719,1980,1121,19.8256,-3.8807
763,-97,19.8292,3.81934,-0.00402609,-0.00412252,0.000501654,-0.00357034,-0.00457827,0.737487,0.00277784,0.0114774,1987,1121,19.8292,-3.81937
770,-97,19.8231,3.76062,-0.00461093,-0.00611509,-0.00110607,-0.00402547,-0.00670055,-0.486825,0.00389466,0.00924068,1994,1121,19.8232,-3.76062
777,-97,19.8226,3.6947,-0.00621379,-0.00939295,-0.0021313,-0.00514457,-0.0104622,-0.464986,0.00604061,0.0117488,2001,1121,19.8226,-3.6947
784,-97,19.8507,3.62585,-0.00853344,-0.0134874,-0.00300858,-0.00711338,-0.0149075,-0.441003,0.00860982,0.030564,2008,1121,19.8507,-3.62587
791,-97,19.8181,3.70215,-0.0114817,-0.0184628,-0.00396707,-0.00968819,-0.0202564,-0.424603,0.0116987,0.0412726,2015,1121,19.8181,-3.70213
798,-97,19.3772,4.0387,-0.0149677,-0.0241453,-0.00494903,-0.0128074,-0.0263055,-0.411574,0.0151892,0.0460298,2022,1121,19.3772,-4.03872
805,-97,19.4399,3.99976,-0.0189181,-0.030159,-0.00586286,-0.0164168,-0.0326603,-0.403252,0.0188565,0.0467827,2029,1121,19.4398,-3.99975
812,-97,19.5234,3.96143,-0.0229882,-0.0358006,-0.00647882,-0.0202831,-0.0385056,-0.395516,0.0222418,0.0484768,2036,1121,19.5233,-3.96138
-700,-104,0,0,0,0,0,0,0,0,0,-1,524,1128,0,0
-693,-104,-9.25928,-0.460571,-0.122784,0.0981483,0.0129701,0.0989071,-0.123543,1.51236,0.128694,0.0475373,531,1128,-9.25926,0.460599
-686,-104,-10.0218,-0.130981,-0.0958053,0.0867037,0.012866,0.0876062,-0.0967079,1.50076,0.106457,0.0461588,538,1128,-10.0218,0.131024
-679,-104,-10.7286,0.133911,-0.073378,0.0742444,0.0117203,0.0751691,-0.0743027,1.49206,0.0862981,0.0454919,545,1128,-10.7286,-0.133958
-672,-104,-11.264,2.39294,0,0,0,0,0,0,0,-1,552,1128,-11.264,-2.39295
-665,-104,-11.6902,1.99902,-0.0399094,0.0499755,0.00822442,0.0507218,-0.0406557,1.4803,0.0528634,0.0480601,559,1128,-11.6902,-1.99902
-658,-104,-12.0529,1.56982,-0.0281562,0.0391489,0.00640065,0.0397522,-0.0287595,1.47682,0.0397246,0.0421994,566,1128,-12.0529,-1.56981
-651,-104,-12.3641,1.01221,-0.0192632,0.0296297,0.00476838,0.0300905,-0.0197239,1.47448,0.0289672,0.0351075,573,1128,-12.3641,-1.01219
-644,-104,-12.3557,1.16748,-0.0127345,0.0215684,0.00336044,0.0218945,-0.0130606,1.47406,0.020395,0.0145969,580,1128,-12.3557,-1.16752
-637,-104,-12.3392,1.3092,-0.00614049,0.0140938,0.00207632,0.0143046,-0.00635135,1.46959,0.0122169,0.010731,587,1128,-12.3392,-1.30917
-630,-104,-12.3503,1.39063,-0.0027959,0.00834873,-0.000212977,0.0083528,-0.00279997,-1.5517,0.00669981,0.0120571,594,1128,-12.3503,-1.39063
-623,-104,-12.353,1.51575,-0.00330524,0.00524837,-0.00205944,0.00571839,-0.00377526,-1.34641,0.0055193,0.015156,601,1128,-12.3529,-1.51575
-616,-104,-12.3854,1.64111,-0.00431422,0.00264726,-0.00378646,0.00430975,-0.00597671,-1.15708,0.00596483,0.0153841,608,1128,-12.3854,-1.6411
-609,-104,-12.4219,1.69763,-0.00494635,0.000615901,-0.00527846,0.00380108,-0.00813153,-1.02786,0.00703889,0.0176065,615,1128,-12.4219,-1.69763
-602,-104,-12.3876,1.81055,-0.0054554,8.45362e-05,-0.00656166,0.00443693,-0.00980779,-0.985123,0.0084168,0.0155396,622,1128,-12.3876,-1.8106
-595,-104,-12.3525,1.95483,-0.00594149,5.76494e-05,-0.00765072,0.0052758,-0.0111596,-0.972221,0.00968958,0.0155538,629,1128,-12.3525,-1.95481
-588,-104,-12.4069,1.94067,0,0,0,0,0,0,0,-1,636,1128,-12.4069,-1.94073
-581,-104,-12.7909,1.3042,-0.00662487,0.000260702,-0.00873406,0.00620603,-0.0125702,-0.973137,0.0110461,0.0412282,643,1128,-12.7909,-1.30421
-574,-104,-13.1245,0.78772,-0.00671354,0.000465718,-0.00869877,0.0062864,-0.0125342,-0.981084,0.0110639,0.0424066,650,1128,-13.1245,-0.787781
-567,-104,-13.1071,0.833618,-0.00641381,0.000765351,-0.00823972,0.00616344,-0.0118119,-0.990824,0.0105475,0.0357682,657,1128,-13.1071,-0.833633
-560,-104,-13.1825,1.11658,-0.00562011,0.00110016,-0.00716082,0.00565001,-0.01017,-1.00477,0.0092571,0.038959,664,1128,-13.1825,-1.11659
-553,-104,-13.2477,1.09937,-0.00430322,0.00141709,-0.00545656,0.00471766,-0.00760379,-1.0268,0.00717855,0.0467406,671,1128,-13.2477,-1.09938
-546,-104,-13.1824,0.88208,-0.00253535,0.00164424,-0.00312858,0.00331679,-0.0042079,-1.07985,0.00435452,0.0447908,678,1128,-13.1824,-0.88202
-539,-104,-13.1138,0.738892,-0.000387856,0.0016903,-0.00026065,0.00172249,-0.000420049,-1.44791,0.00131097,0.0378537,685,1128,-13.1138,-0.738837
-532,-104,-13.1818,0.739624,0.00109746,0.00151398,0.00199744,0.00331398,-0.000702546,0.837343,0.00247694,0.0384889,692,1128,-13.1817,-0.739595
-525,-104,-13.1936,0.840454,0.000123875,0.000143046,0.000418128,0.000551698,-0.000284777,0.796858,0.000491067,0.0369778,699,1128,-13.1936,-0.84045
-518,-104,0,0,0,0,0,0,0,0,0,-1,706,1128,0,0
-511,-104,0,0,0,0,0,0,0,0,0,-1,713,1128,0,0
-504,-104,0,0,0,0,0,0,0,0,0,-1,720,1128,0,0
-497,-104,0,0,0,0,0,0,0,0,0,-1,727,1128,0,0
-490,-104,0,0,0,0,0,0,0,0,0,-1,734,1128,0,0
-483,-104,0,0,0,0,0,0,0,0,0,-1,741,1128,0,0
-476,-104,0,0,0,0,0,0,0,0,0,-1,748,1128,0,0
-469,-104,0,0,0,0,0,0,0,0,0,-1,755,1128,0,0
-462,-104,0,0,0,0,0,0,0,0,0,-1,762,1128,0,0
-455,-104,0,0,0,0,0,0,0,0,0,-1,769,1128,0,0
-448,-104,0,0,0,0,0,0,0,0,0,-1,776,1128,0,0
-441,-104,0,0,0,0,0,0,0,0,0,-1,783,1128,0,0
-434,-104,0,0,0,0,0,0,0,0,0,-1,790,1128,0,0
-427,-104,0,0,0,0,0,0,0,0,0,-1,797,1128,0,0
-420,-104,0,0,0,0,0,0,0,0,0,-1,804,1128,0,0
-413,-104,0,0,0,0,0,0,0,0,0,-1,811,1128,0,0
-406,-104,0,0,0,0,0,0,0,0,0,-1,818,1128,0,0
-399,-104,0,0,0,0,0,0,0,0,0,-1,825,1128,0,0
-392,-104,0,0,0,0,0,0,0,0,0,-1,832,1128,0,0
-385,-104,0,0,0,0,0,0,0,0,0,-1,839,1128,0,0
-378,-104,0,0,0,0,0,0,0,0,0,-1,846,1128,0,0
-371,-104,0,0,0,0,0,0,0,0,0,-1,853,1128,0,0
-364,-104,0,0,0,0,0,0,0,0,0,-1,860,1128,0,0
-357,-104,0,0,0,0,0,0,0,0,0,-1,867,1128,0,0
-350,-104,0,0,0,0,0,0,0,0,0,-1,874,1128,0,0
-343,-104,0,0,0,0,0,0,0,0,0,-1,881,1128,0,0
-336,-104,0,0,0,0,0,0,0,0,0,-1,888,1128,0,0
-329,-104,0,0,0,0,0,0,0,0,0,-1,895,1128,0,0
-322,-104,0,0,0,0,0,0,0,0,0,-1,902,1128,0,0
-315,-104,0,0,0,0,0,0,0,0,0,-1,909,1128,0,0
-308,-104,0,0,0,0,0,0,0,0,0,-1,916,1128,0,0
-301,-104,0,0,0,0,0,0,0,0,0,-1,923,1128,0,0
-294,-104,0,0,0,0,0,0,0,0,0,-1,930,1128,0,0
-287,-104,0,0,0,0,0,0,0,0,0,-1,937,1128,0,0
-280,-104,0,0,0,0,0,0,0,0,0,-1,944,1128,0,0
-273,-104,0,0,0,0,0,0,0,0,0,-1,951,1128,0,0
-266,-104,0,0,0,0,0,0,0,0,0,-1,958,1128,0,0
-259,-104,0,0,0,0,0,0,0,0,0,-1,965,1128,0,0
-252,-104,0,0,0,0,0,0,0,0,0,-1,972,1128,0,0
-245,-104,0,0,0,0,0,0,0,0,0,-1,979,1128,0,0
-238,-104,0,0,0,0,0,0,0,0,0,-1,986,1128,0,0
-231,-104,0,0,0,0,0,0,0,0,0,-1,993,1128,0,0
-224,-104,0,0,0,0,0,0,0,0,0,-1,1000,1128,0,0
-217,-104,0,0,0,0,0,0,0,0,0,-1,1007,1128,0,0
-210,-104,0,0,0,0,0,0,0,0,0,-1,1014,1128,0,0
-203,-104,0,0,0,0,0,0,0,0,0,-1,1021,1128,0,0
-196,-104,0,0,0,0,0,0,0,0,0,-1,1028,1128,0,0
-189,-104,0,0,0,0,0,0,0,0,0,-1,1035,1128,0,0
-182,-104,0,0,0,0,0,0,0,0,0,-1,1042,1128,0,0
-175,-104,0,0,0,0,0,0,0,0,0,-1,1049,1128,0,0
-168,-104,0,0,0,0,0,0,0,0,0,-1,1056,1128,0,0
-161,-104,0,0,0,0,0,0,0,0,0,-1,1063,1128,0,0
-154,-104,0,0,0,0,0,0,0,0,0,-1,1070,1128,0,0
-147,-104,0,0,0,0,0,0,0,0,0,-1,1077,1128,0,0
-140,-104,0,0,0,0,0,0,0,0,0,-1,1084,1128,0,0
-133,-104,0,0,0,0,0,0,0,0,0,-1,1091,1128,0,0
-126,-104,0,0,0,0,0,0,0,0,0,-1,1098,1128,0,0
-119,-104,0,0,0,0,0,0,0,0,0,-1,1105,1128,0,0
-112,-104,0,0,0,0,0,0,0,0,0,-1,1112,1128,0,0
-105,-104,0,0,0,0,0,0,0,0,0,-1,1119,1128,0,0
-98,-104,0,0,0,0,0,0,0,0,0,-1,1126,1128,0,0
-91,-104,0,0,0,0,0,0,0,0,0,-1,1133,1128,0,0
-84,-104,0,0,0,0,0,0,0,0,0,-1,1140,1128,0,0
-77,-104,0,0,0,0,0,0,0,0,0,-1,1147,1128,0,0
-70,-104,0,0,0,0,0,0,0,0,0,-1,1154,1128,0,0
-63,-104,0,0,0,0,0,0,0,0,0,-1,1161,1128,0,0
-56,-104,0,0,0,0,0,0,0,0,0,-1,1168,1128,0,0
-49,-104,0,0,0,0,0,0,0,0,0,-1,1175,1128,0,0
-42,-104,0,0,0,0,0,0,0,0,0,-1,1182,1128,0,0
-35,-104,0,0,0,0,0,0,0,0,0,-1,1189,1128,0,0
-28,-104,0,0,0,0,0,0,0,0,0,-1,1196,1128,0,0
-21,-104,0,0,0,0,0,0,0,0,0,-1,1203,1128,0,0
-14,-104,0,0,0,0,0,0,0,0,0,-1,1210,1128,0,0
-7,-104,0,0,0,0,0,0,0,0,0,-1,1217,1128,0,0
0,-104,0,0,0,0,0,0,0,0,0,-1,1224,1128,0,0
7,-104,0,0,0,0,0,0,0,0,0,-1,1231,1128,0,0
14,-104,0,0,0,0,0,0,0,0,0,-1,1238,1128,0,0
21,-104,0,0,0,0,0,0,0,0,0,-1,1245,1128,0,0
28,-104,0,0,0,0,0,0,0,0,0,-1,1252,1128,0,0
35,-104,0,0,0,0,0,0,0,0,0,-1,1259,1128,0,0
42,-104,0,0,0,0,0,0,0,0,0,-1,1266,1128,0,0
49,-104,0,0,0,0,0,0,0,0,0,-1,1273,1128,0,0
56,-104,0,0,0,0,0,0,0,0,0,-1,1280,1128,0,0
63,-104,0,0,0,0,0,0,0,0,0,-1,1287,1128,0,0
70,-104,0,0,0,0,0,0,0,0,0,-1,1294,1128,0,0
77,-104,0,0,0,0,0,0,0,0,0,-1,1301,1128,0,0
84,-104,0,0,0,0,0,0,0,0,0,-1,1308,1128,0,0
91,-104,0,0,0,0,0,0,0,0,0,-1,1315,1128,0,0
98,-104,0,0,0,0,0,0,0,0,0,-1,1322,1128,0,0
105,-104,0,0,0,0,0,0,0,0,0,-1,1329,1128,0,0
112,-104,0,0,0,0,0,0,0,0,0,-1,1336,1128,0,0
119,-104,0,0,0,0,0,0,0,0,0,-1,1343,1128,0,0
126,-104,0,0,0,0,0,0,0,0,0,-1,1350,1128,0,0
133,-104,0,0,0,0,0,0,0,0,0,-1,1357,1128,0,0
140,-104,0,0,0,0,0,0,0,0,0,-1,1364,1128,0,0
147,-104,0,0,0,0,0,0,0,0,0,-1,1371,1128,0,0
154,-104,0,0,0,0,0,0,0,0,0,-1,1378,1128,0,0
161,-104,0,0,0,0,0,0,0,0,0,-1,1385,1128,0,0
168,-104,0,0,0,0,0,0,0,0,0,-1,1392,1128,0,0
175,-104,0,0,0,0,0,0,0,0,0,-1,1399,1128,0,0
182,-104,0,0,0,0,0,0,0,0,0,-1,1406,1128,0,0
189,-104,0,0,0,0,0,0,0,0,0,-1,1413,1128,0,0
196,-104,0,0,0,0,0,0,0,0,0,-1,1420,1128,0,0
203,-104,0,0,0,0,0,0,0,0,0,-1,1427,1128,0,0
210,-104,0,0,0,0,0,0,0,0,0,-1,1434,1128,0,0
217,-104,0,0,0,0,0,0,0,0,0,-1,1441,1128,0,0
224,-104,0,0,0,0,0,0,0,0,0,-1,1448,1128,0,0
231,-104,0,0,0,0,0,0,0,0,0,-1,1455,1128,0,0
238,-104,0,0,0,0,0,0,0,0,0,-1,1462,1128,0,0
245,-104,0,0,0,0,0,0,0,0,0,-1,1469,1128,0,0
252,-104,0,0,0,0,0,0,0,0,0,-1,1476,1128,0,0
259,-104,0,0,0,0,0,0,0,0,0,-1,1483,1128,0,0
266,-104,0,0,0,0,0,0,0,0,0,-1,1490,1128,0,0
273,-104,0,0,0,0,0,0,0,0,0,-1,1497,1128,0,0
280,-104,0,0,0,0,0,0,0,0,0,-1,1504,1128,0,0
287,-104,0,0,0,0,0,0,0,0,0,-1,1511,1128,0,0
294,-104,0,0,0,0,0,0,0,0,0,-1,1518,1128,0,0
301,-104,0,0,0,0,0,0,0,0,0,-1,1525,1128,0,0
308,-104,0,0,0,0,0,0,0,0,0,-1,1532,1128,0,0
315,-104,0,0,0,0,0,0,0,0,0,-1,1539,1128,0,0
322,-104,0,0,0,0,0,0,0,0,0,-1,1546,1128,0,0
329,-104,0,0,0,0,0,0,0,0,0,-1,1553,1128,0,0
336,-104,0,0,0,0,0,0,0,0,0,-1,1560,1128,0,0
343,-104,0,0,0,0,0,0,0,0,0,-1,1567,1128,0,0
350,-104,0,0,0,0,0,0,0,0,0,-1,1574,1128,0,0
357,-104,0,0,0,0,0,0,0,0,0,-1,1581,1128,0,0
364,-104,0,0,0,0,0,0,0,0,0,-1,1588,1128,0,0
371,-104,0,0,0,0,0,0,0,0,0,-1,1595,1128,0,0
378,-104,0,0,0,0,0,0,0,0,0,-1,1602,1128,0,0
385,-104,0,0,0,0,0,0,0,0,0,-1,1609,1128,0,0
392,-104,0,0,0,0,0,0,0,0,0,-1,1616,1128,0,0
399,-104,0,0,0,0,0,0,0,0,0,-1,1623,1128,0,0
406,-104,0,0,0,0,0,0,0,0,0,-1,1630,1128,0,0
413,-104,0,0,0,0,0,0,0,0,0,-1,1637,1128,0,0
420,-104,0,0,0,0,0,0,0,0,0,-1,1644,1128,0,0
427,-104,0,0,0,0,0,0,0,0,0,-1,1651,1128,0,0
434,-104,0,0,0,0,0,0,0,0,0,-1,1658,1128,0,0
441,-104,0,0,0,0,0,0,0,0,0,-1,1665,1128,0,0
448,-104,0,0,0,0,0,0,0,0,0,-1,1672,1128,0,0
455,-104,0,0,0,0,0,0,0,0,0,-1,1679,1128,0,0
462,-104,0,0,0,0,0,0,0,0,0,-1,1686,1128,0,0
469,-104,0,0,0,0,0,0,0,0,0,-1,1693,1128,0,0
476,-104,0,0,0,0,0,0,0,0,0,-1,1700,1128,0,0
483,-104,0,0,0,0,0,0,0,0,0,-1,1707,1128,0,0
490,-104,0,0,0,0,0,0,0,0,0,-1,1714,1128,0,0
497,-104,0,0,0,0,0,0,0,0,0,-1,1721,1128,0,0
504,-104,0,0,0,0,0,0,0,0,0,-1,1728,1128,0,0
511,-104,0,0,0,0,0,0,0,0,0,-1,1735,1128,0,0
518,-104,0,0,0,0,0,0,0,0,0,-1,1742,1128,0,0
525,-104,0,0,0,0,0,0,0,0,0,-1,1749,1128,0,0
532,-104,0,0,0,0,0,0,0,0,0,-1,1756,1128,0,0
539,-104,0,0,0,0,0,0,0,0,0,-1,1763,1128,0,0
546,-104,0,0,0,0,0,0,0,0,0,-1,1770,1128,0,0
553,-104,0,0,0,0,0,0,0,0,0,-1,1777,1128,0,0
560,-104,0,0,0,0,0,0,0,0,0,-1,1784,1128,0,0
567,-104,0,0,0,0,0,0,0,0,0,-1,1791,1128,0,0
574,-104,0,0,0,0,0,0,0,0,0,-1,1798,1128,0,0
581,-104,0,0,0,0,0,0,0,0,0,-1,1805,1128,0,0
588,-104,0,0,0,0,0,0,0,0,0,-1,1812,1128,0,0
595,-104,0,0,0,0,0,0,0,0,0,-1,1819,1128,0,0
602,-104,0,0,0,0,0,0,0,0,0,-1,1826,1128,0,0
609,-104,0,0,0,0,0,0,0,0,0,-1,1833,1128,0,0
616,-104,0,0,0,0,0,0,0,0,0,-1,1840,1128,0,0
623,-104,0,0,0,0,0,0,0,0,0,-1,1847,1128,0,0
630,-104,0,0,0,0,0,0,0,0,0,-1,1854,1128,0,0
637,-104,0,0,0,0,0,0,0,0,0,-1,1861,1128,0,0
644,-104,20.5214,3.1925,0.00252105,-0.003412,-0.00645852,0.00666176,-0.00755271,-0.57011,0.0082121,0.0368401,1868,1128,20.5213,-3.19252
651,-104,20.5908,2.92566,0.00215227,-0.00225655,-0.00438389,0.00485479,-0.00495907,-0.552439,0.00566614,0.0377017,1875,1128,20.5909,-2.92571
658,-104,20.6271,2.30176,0.00226038,-0.00146226,-0.00296422,0.00389922,-0.0031011,-0.505047,0.00405039,0.0404512,1882,1128,20.6271,-2.30179
665,-104,20.5559,2.26794,0.0019492,-0.00108114,-0.00128695,0.00242199,-0.00155393,-0.352066,0.00231366,0.0423566,1889,1128,20.5559,-2.26796
672,-104,20.6476,2.63794,0.00095416,-0.00115888,0.000834316,0.00124386,-0.00144858,0.334209,0.00155598,0.0419152,1896,1128,20.6475,-2.63795
679,-104,20.7844,3.00159,-0.000216266,-0.00142841,0.00268748,0.00193263,-0.0035773,0.674495,0.00322806,0.0418123,1903,1128,20.7845,-3.00154
686,-104,20.5854,2.90662,-0.00136952,-0.00176282,0.00420778,0.00264621,-0.00577855,0.762048,0.00497484,0.0391389,1910,1128,20.5854,-2.9066
693,-104,20.5724,2.76416,-0.00236992,-0.00205862,0.00533241,0.00312041,-0.00754896,0.799989,0.00633437,0.0334952,1917,1128,20.5723,-2.76421
700,-104,20.6593,2.71521,-0.00321119,-0.00219987,0.00615256,0.00346778,-0.00887884,0.8264,0.00735298,0.0282904,1924,1128,20.6593,-2.71523
707,-104,20.6472,2.81396,-0.00387419,-0.0023285,0.00671456,0.00365755,-0.00986024,0.842696,0.00807373,0.029257,1931,1128,20.6472,-2.81398
714,-104,20.2983,3.58337,-0.00425281,-0.00230862,0.00689377,0.00368125,-0.0102427,0.855442,0.0083312,0.0414275,1938,1128,20.2984,-3.58341
721,-104,19.8121,4.28406,-0.00437466,-0.00213034,0.00664586,0.00348743,-0.00999243,0.869034,0.00807902,0.0220072,1945,1128,19.8121,-4.28411
728,-104,19.8102,4.13708,-0.00436189,-0.00199977,0.00604444,0.00297792,-0.00933957,0.881881,0.00742094,0.0222528,1952,1128,19.8102,-4.13711
735,-104,19.7949,4.07202,-0.00419168,-0.001513,0.00529949,0.00261378,-0.00831847,0.909171,0.00659196,0.0212372,1959,1128,19.7949,-4.07201
742,-104,19.7482,4.06482,-0.00381305,-0.00094161,0.00444246,0.00229137,-0.00704603,0.941691,0.00561909,0.013982,1966,1128,19.7482,-4.0648
749,-104,19.7108,3.98328,-0.00371581,-0.00221696,0.00307943,0.000202921,-0.00613569,0.904761,0.00415975,0.0163686,1973,1128,19.7108,-3.98325
756,-104,19.7153,3.88794,-0.00384477,-0.00325065,0.00174132,-0.00178124,-0.00531419,0.869882,0.00312321,0.0157338,1980,1128,19.7153,-3.88788
763,-104,19.7375,3.81042,-0.00443718,-0.0047172,0.000228752,-0.00430899,-0.00484539,0.510781,0.00306713,0.014475,1987,1128,19.7376,-3.81046
770,-104,19.7275,3.75562,-0.00535504,-0.00709331,-0.00141231,-0.00456586,-0.00788249,-0.509565,0.00456997,0.0119135,1994,1128,19.7275,-3.75563
777,-104,19.7245,3.6875,-0.00758713,-0.0108456,-0.00258406,-0.00616158,-0.0122712,-0.504126,0.00708478,0.017531,2001,1128,19.7245,-3.68747
784,-104,19.7261,3.63782,-0.0108435,-0.0155607,-0.00376378,-0.00876036,-0.0176439,-0.505501,0.0101868,0.0360494,2008,1128,19.7261,-3.63777
791,-104,18.2697,4.40906,0,0,0,0,0,0,0,-1,2015,1128,18.2697,-4.40909
798,-104,18.9302,4.10547,0,0,0,0,0,0,0,-1,2022,1128,18.9302,-4.10548
805,-104,19.0623,4.10925,0,0,0,0,0,0,0,-1,2029,1128,19.0624,-4.10926
812,-104,19.4138,4.21606,0,0,0,0,0,0,0,-1,2036,1128,19.4138,-4.21611
-700,-111,0,0,0,0,0,0,0,0,0,-1,524,1135,0,0
-693,-111,-8.48071,-0.912964,-0.139021,0.108834,0.0204771,0.110515,-0.140701,1.48892,0.145388,0.0451692,531,1135,-8.48071,0.912907
-686,-111,-9.76776,-0.750488,-0.109581,0.0957891,0.0203704,0.0977902,-0.111582,1.47288,0.120968,0.0479279,538,1135,-9.76777,0.750471
-679,-111,-13.1337,-1.31409,0,0,0,0,0,0,0,-1,545,1135,-13.1337,1.31414
-672,-111,-12.9421,-0.271606,-0.0637652,0.0680327,0.0159625,0.0699384,-0.065671,1.45197,0.078307,0.0471652,552,1135,-12.9421,0.271653
-665,-111,-12.8062,0.499756,-0.0465676,0.054907,0.0130568,0.0565601,-0.0482207,1.44486,0.0605591,0.0451325,559,1135,-12.8062,-0.499727
-658,-111,-12.2506,1.08618,-0.0328976,0.0428864,0.0101835,0.0442309,-0.0342422,1.43952,0.0454287,0.0432377,566,1135,-12.2506,-1.08618
-651,-111,-12.0927,1.11096,-0.0224821,0.0323155,0.00759038,0.0333475,-0.023514,1.43567,0.0329922,0.0378271,573,1135,-12.0927,-1.11096
-644,-111,-12.2056,1.17786,-0.0148449,0.0234155,0.00539262,0.024161,-0.0155904,1.43342,0.0231276,0.0221402,580,1135,-12.2056,-1.17785
-637,-111,-12.2228,1.30029,-0.00715844,0.015254,0.00348946,0.0157847,-0.00768916,1.41986,0.0138187,0.00909261,587,1135,-12.2228,-1.30032
-630,-111,-12.2498,1.38513,-0.00306917,0.00875833,0.000854541,0.00881975,-0.00313059,1.49904,0.00715541,0.0144912,594,1135,-12.2498,-1.38519
-623,-111,-12.2623,1.50488,-0.00360763,0.0053719,-0.00147019,0.00560648,-0.00384221,-1.41257,0.00548681,0.0134134,601,1135,-12.2623,-1.5049
-616,-111,-12.2749,1.61047,-0.0047829,0.00263136,-0.00366504,0.00413722,-0.00628876,-1.18095,0.00606202,0.0129788,608,1135,-12.2749,-1.61041
-609,-111,-12.322,1.72144,-0.00557821,0.000550875,-0.00536575,0.00366555,-0.00869288,-1.04486,0.00732929,0.0156349,615,1135,-12.322,-1.7214
-602,-111,-12.2892,1.82861,-0.00620299,-5.52913e-05,-0.00681703,0.00434885,-0.0106071,-0.997202,0.00888326,0.0160836,622,1135,-12.2892,-1.82856
-595,-111,-12.2516,1.98401,-0.00678931,-0.000122628,-0.00802585,0.00523456,-0.0121465,-0.982222,0.0102961,0.0129799,629,1135,-12.2516,-1.98403
-588,-111,-12.1309,2.05908,0,0,0,0,0,0,0,-1,636,1135,-12.1308,-2.05912
-581,-111,-12.5764,1.3158,-0.00761884,4.39102e-05,-0.00923488,0.00621066,-0.0137856,-0.982032,0.0118177,0.0444168,643,1135,-12.5764,-1.31584
-574,-111,-13.0013,0.506958,-0.00772707,0.000275147,-0.00923075,0.00633463,-0.0137866,-0.989903,0.0118796,0.0488094,650,1135,-13.0013,-0.506901
-567,-111,-13.0486,0.820435,-0.00741674,0.000596136,-0.00879558,0.00625478,-0.0130754,-0.99911,0.0113895,0.0384831,657,1135,-13.0486,-0.820385
-560,-111,-13.0814,1.0304,-0.00653353,0.000986875,-0.00771387,0.00580821,-0.0113549,-1.01218,0.0100801,0.0401333,664,1135,-13.0814,-1.03042
-553,-111,-13.1838,0.833374,-0.00501647,0.00139429,-0.00595382,0.00495075,-0.00857293,-1.03233,0.0079007,0.0441128,671,1135,-13.1838,-0.833433
-546,-111,-13.0956,0.591064,0,0,0,0,0,0,0,-1,678,1135,-13.0957,-0.591076
-539,-111,-13.0433,0.811768,-0.000346696,0.00194097,-0.000419836,0.00201559,-0.000421311,-1.39491,0.00150396,0.0372686,685,1135,-13.0433,-0.811751
-532,-111,-13.0739,0.841675,0.00177853,0.00192103,0.00233103,0.0041819,-0.00048234,0.800676,0.00296184,0.0386231,692,1135,-13.0739,-0.841704
-525,-111,-13.1603,1.05835,0.001539,0.000747889,0.00148153,0.00267687,-0.000389982,0.654946,0.00192777,0.0360391,699,1135,-13.1603,-1.05831
-518,-111,0,0,0,0,0,0,0,0,0,-1,706,1135,0,0
-511,-111,0,0,0,0,0,0,0,0,0,-1,713,1135,0,0
-504,-111,0,0,0,0,0,0,0,0,0,-1,720,1135,0,0
-497,-111,0,0,0,0,0,0,0,0,0,-1,727,1135,0,0
-490,-111,0,0,0,0,0,0,0,0,0,-1,734,1135,0,0
-483,-111,0,0,0,0,0,0,0,0,0,-1,741,1135,0,0
-476,-111,0,0,0,0,0,0,0,0,0,-1,748,1135,0,0
-469,-111,0,0,0,0,0,0,0,0,0,-1,755,1135,0,0
-462,-111,0,0,0,0,0,0,0,0,0,-1,762,1135,0,0
-455,-111,0,0,0,0,0,0,0,0,0,-1,769,1135,0,0
-448,-111,0,0,0,0,0,0,0,0,0,-1,776,1135,0,0
-441,-111,0,0,0,0,0,0,0,0,0,-1,783,1135,0,0
-434,-111,0,0,0,0,0,0,0,0,0,-1,790,1135,0,0
-427,-111,0,0,0,0,0,0,0,0,0,-1,797,1135,0,0
-420,-111,0,0,0,0,0,0,0,0,0,-1,804,1135,0,0
-413,-111,0,0,0,0,0,0,0,0,0,-1,811,1135,0,0
-406,-111,0,0,0,0,0,0,0,0,0,-1,818,1135,0,0
-399,-111,0,0,0,0,0,0,0,0,0,-1,825,1135,0,0
-392,-111,0,0,0,0,0,0,0,0,0,-1,832,1135,0,0
-385,-111,0,0,0,0,0,0,0,0,0,-1,839,1135,0,0
-378,-111,0,0,0,0,0,0,0,0,0,-1,846,1135,0,0
-371,-111,0,0,0,0,0,0,0,0,0,-1,853,1135,0,0
-364,-111,0,0,0,0,0,0,0,0,0,-1,860,1135,0,0
-357,-111,0,0,0,0,0,0,0,0,0,-1,867,1135,0,0
-350,-111,0,0,0,0,0,0,0,0,0,-1,874,1135,0,0
-343,-111,0,0,0,0,0,0,0,0,0,-1,881,1135,0,0
-336,-111,0,0,0,0,0,0,0,0,0,-1,888,1135,0,0
-329,-111,0,0,0,0,0,0,0,0,0,-1,895,1135,0,0
-322,-111,0,0,0,0,0,0,0,0,0,-1,902,1135,0,0
-315,-111,0,0,0,0,0,0,0,0,0,-1,909,1135,0,0
-308,-111,0,0,0,0,0,0,0,0,0,-1,916,1135,0,0
-301,-111,0,0,0,0,0,0,0,0,0,-1,923,1135,0,0
-294,-111,0,0,0,0,0,0,0,0,0,-1,930,1135,0,0
-287,-111,0,0,0,0,0,0,0,0,0,-1,937,1135,0,0
-280,-111,0,0,0,0,0,0,0,0,0,-1,944,1135,0,0
-273,-111,0,0,0,0,0,0,0,0,0,-1,951,1135,0,0
-266,-111,0,0,0,0,0,0,0,0,0,-1,958,1135,0,0
-259,-111,0,0,0,0,0,0,0,0,0,-1,965,1135,0,0
-252,-111,0,0,0,0,0,0,0,0,0,-1,972,1135,0,0
-245,-111,0,0,0,0,0,0,0,0,0,-1,979,1135,0,0
-238,-111,0,0,0,0,0,0,0,0,0,-1,986,1135,0,0
-231,-111,0,0,0,0,0,0,0,0,0,-1,993,1135,0,0
-224,-111,0,0,0,0,0,0,0,0,0,-1,1000,1135,0,0
-217,-111,0,0,0,0,0,0,0,0,0,-1,1007,1135,0,0
-210,-111,0,0,0,0,0,0,0,0,0,-1,1014,1135,0,0
-203,-111,0,0,0,0,0,0,0,0,0,-1,1021,1135,0,0
-196,-111,0,0,0,0,0,0,0,0,0,-1,1028,1135,0,0
-189,-111,0,0,0,0,0,0,0,0,0,-1,1035,1135,0,0
-182,-111,0,0,0,0,0,0,0,0,0,-1,1042,1135,0,0
-175,-111,0,0,0,0,0,0,0,0,0,-1,1049,1135,0,0
-168,-111,0,0,0,0,0,0,0,0,0,-1,1056,1135,0,0
-161,-111,0,0,0,0,0,0,0,0,0,-1,1063,1135,0,0
-154,-111,0,0,0,0,0,0,0,0,0,-1,1070,1135,0,0
-147,-111,0,0,0,0,0,0,0,0,0,-1,1077,1135,0,0
-140,-111,0,0,0,0,0,0,0,0,0,-1,1084,1135,0,0
-133,-111,0,0,0,0,0,0,0,0,0,-1,1091,1135,0,0
-126,-111,0,0,0,0,0,0,0,0,0,-1,1098,1135,0,0
-119,-111,0,0,0,0,0,0,0,0,0,-1,1105,1135,0,0
-112,-111,0,0,0,0,0,0,0,0,0,-1,1112,1135,0,0
-105,-111,0,0,0,0,0,0,0,0,0,-1,1119,1135,0,0
-98,-111,0,0,0,0,0,0,0,0,0,-1,1126,1135,0,0
-91,-111,0,0,0,0,0,0,0,0,0,-1,1133,1135,0,0
-84,-111,0,0,0,0,0,0,0,0,0,-1,1140,1135,0,0
-77,-111,0,0,0,0,0,0,0,0,0,-1,1147,1135,0,0
-70,-111,0,0,0,0,0,0,0,0,0,-1,1154,1135,0,0
-63,-111,0,0,0,0,0,0,0,0,0,-1,1161,1135,0,0
-56,-111,0,0,0,0,0,0,0,0,0,-1,1168,1135,0,0
-49,-111,0,0,0,0,0,0,0,0,0,-1,1175,1135,0,0
-42,-111,0,0,0,0,0,0,0,0,0,-1,1182,1135,0,0
-35,-111,0,0,0,0,0,0,0,0,0,-1,1189,1135,0,0
-28,-111,0,0,0,0,0,0,0,0,0,-1,1196,1135,0,0
-21,-111,0,0,0,0,0,0,0,0,0,-1,1203,1135,0,0
-14,-111,0,0,0,0,0,0,0,0,0,-1,1210,1135,0,0
-7,-111,0,0,0,0,0,0,0,0,0,-1,1217,1135,0,0
0,-111,0,0,0,0,0,0,0,0,0,-1,1224,1135,0,0
7,-111,0,0,0,0,0,0,0,0,0,-1,1231,1135,0,0
14,-111,0,0,0,0,0,0,0,0,0,-1,1238,1135,0,0
21,-111,0,0,0,0,0,0,0,0,0,-1,1245,1135,0,0
28,-111,0,0,0,0,0,0,0,0,0,-1,1252,1135,0,0
35,-111,0,0,0,0,0,0,0,0,0,-1,1259,1135,0,0
42,-111,0,0,0,0,0,0,0,0,0,-1,1266,1135,0,0
49,-111,0,0,0,0,0,0,0,0,0,-1,1273,1135,0,0
56,-111,0,0,0,0,0,0,0,0,0,-1,1280,1135,0,0
63,-111,0,0,0,0,0,0,0,0,0,-1,1287,1135,0,0
70,-111,0,0,0,0,0,0,0,0,0,-1,1294,1135,0,0
77,-111,0,0,0,0,0,0,0,0,0,-1,1301,1135,0,0
84,-111,0,0,0,0,0,0,0,0,0,-1,1308,1135,0,0
91,-111,0,0,0,0,0,0,0,0,0,-1,1315,1135,0,0
98,-111,0,0,0,0,0,0,0,0,0,-1,1322,1135,0,0
105,-111,0,0,0,0,0,0,0,0,0,-1,1329,1135,0,0
112,-111,0,0,0,0,0,0,0,0,0,-1,1336,1135,0,0
119,-111,0,0,0,0,0,0,0,0,0,-1,1343,1135,0,0
126,-111,0,0,0,0,0,0,0,0,0,-1,1350,1135,0,0
133,-111,0,0,0,0,0,0,0,0,0,-1,1357,1135,0,0
140,-111,0,0,0,0,0,0,0,0,0,-1,1364,1135,0,0
147,-111,0,0,0,0,0,0,0,0,0,-1,1371,1135,0,0
154,-111,0,0,0,0,0,0,0,0,0,-1,1378,1135,0,0
161,-111,0,0,0,0,0,0,0,0,0,-1,1385,1135,0,0
168,-111,0,0,0,0,0,0,0,0,0,-1,1392,1135,0,0
175,-111,0,0,0,0,0,0,0,0,0,-1,1399,1135,0,0
182,-111,0,0,0,0,0,0,0,0,0,-1,1406,1135,0,0
189,-111,0,0,0,0,0,0,0,0,0,-1,1413,1135,0,0
196,-111,0,0,0,0,0,0,0,0,0,-1,1420,1135,0,0
203,-111,0,0,0,0,0,0,0,0,0,-1,1427,1135,0,0
210,-111,0,0,0,0,0,0,0,0,0,-1,1434,1135,0,0
217,-111,0,0,0,0,0,0,0,0,0,-1,1441,1135,0,0
224,-111,0,0,0,0,0,0,0,0,0,-1,1448,1135,0,0
231,-111,0,0,0,0,0,0,0,0,0,-1,1455,1135,0,0
238,-111,0,0,0,0,0,0,0,0,0,-1,1462,1135,0,0
245,-111,0,0,0,0,0,0,0,0,0,-1,1469,1135,0,0
252,-111,0,0,0,0,0,0,0,0,0,-1,1476,1135,0,0
259,-111,0,0,0,0,0,0,0,0,0,-1,1483,1135,0,0
266,-111,0,0,0,0,0,0,0,0,0,-1,1490,1135,0,0
273,-111,0,0,0,0,0,0,0,0,0,-1,1497,1135,0,0
280,-111,0,0,0,0,0,0,0,0,0,-1,1504,1135,0,0
287,-111,0,0,0,0,0,0,0,0,0,-1,1511,1135,0,0
294,-111,0,0,0,0,0,0,0,0,0,-1,1518,1135,0,0
301,-111,0,0,0,0,0,0,0,0,0,-1,1525,1135,0,0
308,-111,0,0,0,0,0,0,0,0,0,-1,1532,1135,0,0
315,-111,0,0,0,0,0,0,0,0,0,-1,1539,1135,0,0
322,-111,0,0,0,0,0,0,0,0,0,-1,1546,1135,0,0
329,-111,0,0,0,0,0,0,0,0,0,-1,1553,1135,0,0
336,-111,0,0,0,0,0,0,0,0,0,-1,1560,1135,0,0
343,-111,0,0,0,0,0,0,0,0,0,-1,1567,1135,0,0
350,-111,0,0,0,0,0,0,0,0,0,-1,1574,1135,0,0
357,-111,0,0,0,0,0,0,0,0,0,-1,1581,1135,0,0
364,-111,0,0,0,0,0,0,0,0,0,-1,1588,1135,0,0
371,-111,0,0,0,0,0,0,0,0,0,-1,1595,1135,0,0
378,-111,0,0,0,0,0,0,0,0,0,-1,1602,1135,0,0
385,-111,0,0,0,0,0,0,0,0,0,-1,1609,1135,0,0
392,-111,0,0,0,0,0,0,0,0,0,-1,1616,1135,0,0
399,-111,0,0,0,0,0,0,0,0,0,-1,1623,1135,0,0
406,-111,0,0,0,0,0,0,0,0,0,-1,1630,1135,0,0
413,-111,0,0,0,0,0,0,0,0,0,-1,1637,1135,0,0
420,-111,0,0,0,0,0,0,0,0,0,-1,1644,1135,0,0
427,-111,0,0,0,0,0,0,0,0,0,-1,1651,1135,0,0
434,-111,0,0,0,0,0,0,0,0,0,-1,1658,1135,0,0
441,-111,0,0,0,0,0,0,0,0,0,-1,1665,1135,0,0
448,-111,0,0,0,0,0,0,0,0,0,-1,1672,1135,0,0
455,-111,0,0,0,0,0,0,0,0,0,-1,1679,1135,0,0
462,-111,0,0,0,0,0,0,0,0,0,-1,1686,1135,0,0
469,-111,0,0,0,0,0,0,0,0,0,-1,1693,1135,0,0
476,-111,0,0,0,0,0,0,0,0,0,-1,1700,1135,0,0
483,-111,0,0,0,0,0,0,0,0,0,-1,1707,1135,0,0
490,-111,0,0,0,0,0,0,0,0,0,-1,1714,1135,0,0
497,-111,0,0,0,0,0,0,0,0,0,-1,1721,1135,0,0
504,-111,0,0,0,0,0,0,0,0,0,-1,1728,1135,0,0
511,-111,0,0,0,0,0,0,0,0,0,-1,1735,1135,0,0
518,-111,0,0,0,0,0,0,0,0,0,-1,1742,1135,0,0
525,-111,0,0,0,0,0,0,0,0,0,-1,1749,1135,0,0
532,-111,0,0,0,0,0,0,0,0,0,-1,1756,1135,0,0
539,-111,0,0,0,0,0,0,0,0,0,-1,1763,1135,0,0
546,-111,0,0,0,0,0,0,0,0,0,-1,1770,1135,0,0
553,-111,0,0,0,0,0,0,0,0,0,-1,1777,1135,0,0
560,-111,0,0,0,0,0,0,0,0,0,-1,1784,1135,0,0
567,-111,0,0,0,0,0,0,0,0,0,-1,1791,1135,0,0
574,-111,0,0,0,0,0,0,0,0,0,-1,1798,1135,0,0
581,-111,0,0,0,0,0,0,0,0,0,-1,1805,1135,0,0
588,-111,0,0,0,0,0,0,0,0,0,-1,1812,1135,0,0
595,-111,0,0,0,0,0,0,0,0,0,-1,1819,1135,0,0
602,-111,0,0,0,0,0,0,0,0,0,-1,1826,1135,0,0
609,-111,0,0,0,0,0,0,0,0,0,-1,1833,1135,0,0
616,-111,0,0,0,0,0,0,0,0,0,-1,1840,1135,0,0
623,-111,0,0,0,0,0,0,0,0,0,-1,1847,1135,0,0
630,-111,0,0,0,0,0,0,0,0,0,-1,1854,1135,0,0
637,-111,0,0,0,0,0,0,0,0,0,-1,1861,1135,0,0
644,-111,20.4165,3.41846,0.00197608,-0.00277135,-0.0060387,0.00609085,-0.00688611,-0.598133,0.00749694,0.0391419,1868,1135,20.4166,-3.41852
651,-111,20.4724,3.18237,0.00163888,-0.00179394,-0.00410542,0.00437225,-0.00452731,-0.587399,0.00513842,0.0405011,1875,1135,20.4725,-3.18236
658,-111,20.6891,2.49158,0.00183686,-0.00104911,-0.0027678,0.00351524,-0.00272749,-0.545109,0.00361379,0.0437068,1882,1135,20.689,-2.49158
665,-111,20.5657,2.45789,0.00156781,-0.000771498,-0.00108459,0.00199328,-0.00119697,-0.373842,0.00186092,0.0459671,1889,1135,20.5657,-2.45789
672,-111,20.5239,2.49036,0.000625326,-0.000913497,0.000933896,0.00106594,-0.00135411,0.440834,0.00140051,0.0460823,1896,1135,20.5239,-2.49038
679,-111,20.6434,2.73169,-0.00047246,-0.00122995,0.00265408,0.00182977,-0.00353218,0.714525,0.0031473,0.0442826,1903,1135,20.6434,-2.7317
686,-111,20.6012,2.87134,-0.00157271,-0.00160769,0.00406635,0.00247619,-0.00565659,0.783248,0.00481365,0.0406047,1910,1135,20.6012,-2.87131
693,-111,20.5596,2.82275,-0.00253451,-0.00192283,0.00509415,0.00287466,-0.00733199,0.815381,0.00607723,0.0355419,1917,1135,20.5596,-2.82278
700,-111,20.6501,2.73926,-0.00336336,-0.00212191,0.00588323,0.00317325,-0.00865852,0.837957,0.00707155,0.0281595,1924,1135,20.6502,-2.73926
707,-111,20.5822,2.9707,0,0,0,0,0,0,0,-1,1931,1135,20.5822,-2.97068
714,-111,20.0658,3.69519,-0.00438291,-0.00226496,0.00656445,0.00332539,-0.00997326,0.865369,0.00799136,0.0274221,1938,1135,20.0658,-3.69517
721,-111,19.6912,4.28564,-0.00451646,-0.00208806,0.00632273,0.003136,-0.00974052,0.880262,0.00775338,0.0131972,1945,1135,19.6912,-4.28562
728,-111,19.7122,4.17395,-0.00450589,-0.00198086,0.00573298,0.00262698,-0.00911372,0.893778,0.00711501,0.0168809,1952,1135,19.7121,-4.17391
735,-111,19.6947,4.09558,-0.0043093,-0.00149866,0.0049873,0.00227754,-0.0080855,0.922727,0.00628852,0.0171431,1959,1135,19.6947,-4.09561
742,-111,19.6669,4.05542,-0.00382556,-0.000944236,0.00412969,0.00198887,-0.00675866,0.953225,0.00529474,0.0118773,1966,1135,19.6669,-4.05538
749,-111,19.6344,4.00684,-0.0036501,-0.00240333,0.00276433,-0.000192962,-0.00586047,0.896298,0.00384427,0.0150017,1973,1135,19.6345,-4.00688
756,-111,19.6343,3.90808,-0.00393737,-0.00369915,0.0014553,-0.00235809,-0.00527843,0.826231,0.00305326,0.0156623,1980,1135,19.6342,-3.90802
763,-111,19.6664,3.802,-0.00502797,-0.00539315,-0.000198496,-0.00494086,-0.00548026,-0.413559,0.00348764,0.0137395,1987,1135,19.6664,-3.80206
770,-111,19.6346,3.76819,-0.00642375,-0.00817278,-0.0018886,-0.00521702,-0.00937952,-0.568573,0.00542666,0.0119557,1994,1135,19.6347,-3.76823
777,-111,19.603,3.69153,-0.00938573,-0.0123888,-0.00326216,-0.00729611,-0.0144784,-0.569711,0.00835919,0.0232033,2001,1135,19.603,-3.6915
784,-111,19.6074,3.58691,-0.0137052,-0.0177043,-0.00480457,-0.0105007,-0.0209088,-0.588209,0.0120717,0.0388198,2008,1135,19.6074,-3.58697
791,-111,18.3834,4.55115,0,0,0,0,0,0,0,-1,2015,1135,18.3834,-4.5511
798,-111,19.1599,4.05737,-0.0268371,-0.0313673,-0.00902684,-0.0197955,-0.0384089,-0.662471,0.0221789,0.0445186,2022,1135,19.1599,-4.05737
805,-111,19.7129,4.6759,-0.035998,-0.0389714,-0.0117149,-0.0256759,-0.0492935,-0.722283,0.0284679,0.0408269,2029,1135,19.7129,-4.67587
812,-111,18.9268,4.29382,-0.0470033,-0.0460892,-0.014671,-0.0318681,-0.0612244,-0.800971,0.0353578,0.0415376,2036,1135,18.9267,-4.29381
-700,-118,0,0,0,0,0,0,0,0,0,-1,524,1142,0,0
-693,-118,-8.61481,-1.39905,0,0,0,0,0,0,0,-1,531,1142,-8.6148,1.39902
-686,-118,-14.3214,-4.07825,0,0,0,0,0,0,0,-1,538,1142,-14.3213,4.0782
-679,-118,-13.9063,-2.56262,0,0,0,0,0,0,0,-1,545,1142,-13.9063,2.56266
-672,-118,-13.4882,-1.00293,0,0,0,0,0,0,0,-1,552,1142,-13.4882,1.00295
-665,-118,-11.7556,-0.246094,0,0,0,0,0,0,0,-1,559,1142,-11.7556,0.246044
-658,-118,-11.8901,0.335449,-0.0372558,0.0430795,0.0144696,0.0456062,-0.0397825,1.39792,0.0493374,0.0440326,566,1142,-11.8901,-0.335464
-651,-118,-11.9005,0.880737,-0.0257293,0.0326493,0.0110149,0.0346585,-0.0277385,1.39038,0.0360987,0.0368296,573,1142,-11.9005,-0.880772
-644,-118,-12.0566,1.20789,-0.0171408,0.0237707,0.00799595,0.025278,-0.0186481,1.38448,0.0254568,0.023396,580,1142,-12.0566,-1.20791
-637,-118,-12.0886,1.31128,-0.00852412,0.0155282,0.00540281,0.0166861,-0.009682,1.35968,0.0154016,0.0140571,587,1142,-12.0886,-1.31128
-630,-118,-12.134,1.39063,-0.00346624,0.00890117,0.00225867,0.00930076,-0.00386584,1.39569,0.00781463,0.0183616,594,1142,-12.1339,-1.39064
-623,-118,-12.1437,1.49487,-0.00386676,0.00541497,-0.000561837,0.00544886,-0.00390064,-1.51056,0.00542255,0.0155212,601,1142,-12.1437,-1.49491
-616,-118,-12.1469,1.59607,-0.00523956,0.00261473,-0.00331611,0.00382753,-0.00645236,-1.22018,0.00599924,0.0129911,608,1142,-12.1469,-1.59601
-609,-118,-12.1617,1.69885,-0.00624027,0.000514582,-0.00529166,0.00341479,-0.00914047,-1.06944,0.00749583,0.0144074,615,1142,-12.1617,-1.6988
-602,-118,-12.1561,1.85608,-0.00701584,-0.00017544,-0.00689167,0.00409805,-0.0112893,-1.01573,0.00920163,0.0146659,622,1142,-12.1561,-1.85605
-595,-118,-12.1882,1.96985,-0.00773583,-0.000314251,-0.00819591,0.00497179,-0.0130219,-0.997972,0.0107296,0.0130037,629,1142,-12.1882,-1.96982
-588,-118,-11.9346,2.17041,0,0,0,0,0,0,0,-1,636,1142,-11.9347,-2.1704
-581,-118,-12.4358,1.401,-0.00875707,-0.000267867,-0.00948036,0.00587473,-0.0148997,-0.995879,0.0123656,0.0482488,643,1142,-12.4358,-1.40105
-574,-118,-12.809,0.15979,-0.00891308,-6.30527e-05,-0.0094969,0.00598914,-0.0149653,-1.00341,0.0124625,0.0495618,650,1142,-12.809,-0.15979
-567,-118,-13.0847,0.848145,-0.0086384,0.000210266,-0.00907429,0.00588135,-0.0143095,-1.01222,0.0119909,0.0411219,657,1142,-13.0847,-0.84813
-560,-118,-13.0281,0.798218,-0.00770327,0.000585616,-0.00800383,0.00545437,-0.012572,-1.02429,0.0106746,0.0379562,664,1142,-13.0281,-0.798274
-553,-118,-13.013,0.776489,-0.00601116,0.00101274,-0.00622109,0.00464473,-0.00964315,-1.04236,0.00841569,0.0401246,671,1142,-13.013,-0.776538
-546,-118,-12.9644,0.86731,-0.00361785,0.00142742,-0.00370905,0.0033904,-0.00558082,-1.08403,0.00523075,0.0376983,678,1142,-12.9644,-0.867323
-539,-118,-12.9637,0.985718,-0.000582126,0.00175374,-0.000472641,0.00184575,-0.000674137,-1.37853,0.00150636,0.0387995,685,1142,-12.9637,-0.985744
-532,-118,-13.0485,1.13416,0.00224738,0.0019266,0.00269961,0.00479136,-0.000617382,0.755728,0.00341867,0.0389055,692,1142,-13.0485,-1.13415
-525,-118,-13.2448,1.0498,0.00293326,0.0010712,0.00266072,0.00482114,-0.000816678,0.617098,0.00351806,0.0408484,699,1142,-13.2447,-1.04985
-518,-118,0,0,0,0,0,0,0,0,0,-1,706,1142,0,0
-511,-118,0,0,0,0,0,0,0,0,0,-1,713,1142,0,0
-504,-118,0,0,0,0,0,0,0,0,0,-1,720,1142,0,0
-497,-118,0,0,0,0,0,0,0,0,0,-1,727,1142,0,0
-490,-118,0,0,0,0,0,0,0,0,0,-1,734,1142,0,0
-483,-118,0,0,0,0,0,0,0,0,0,-1,741,1142,0,0
-476,-118,0,0,0,0,0,0,0,0,0,-1,748,1142,0,0
-469,-118,0,0,0,0,0,0,0,0,0,-1,755,1142,0,0
-462,-118,0,0,0,0,0,0,0,0,0,-1,762,1142,0,0
-455,-118,0,0,0,0,0,0,0,0,0,-1,769,1142,0,0
-448,-118,0,0,0,0,0,0,0,0,0,-1,776,1142,0,0
-441,-118,0,0,0,0,0,0,0,0,0,-1,783,1142,0,0
-434,-118,0,0,0,0,0,0,0,0,0,-1,790,1142,0,0
-427,-118,0,0,0,0,0,0,0,0,0,-1,797,1142,0,0
-420,-118,0,0,0,0,0,0,0,0,0,-1,804,1142,0,0
-413,-118,0,0,0,0,0,0,0,0,0,-1,811,1142,0,0
-406,-118,0,0,0,0,0,0,0,0,0,-1,818,1142,0,0
-399,-118,0,0,0,0,0,0,0,0,0,-1,825,1142,0,0
-392,-118,0,0,0,0,0,0,0,0,0,-1,832,1142,0,0
-385,-118,0,0,0,0,0,0,0,0,0,-1,839,1142,0,0
-378,-118,0,0,0,0,0,0,0,0,0,-1,846,1142,0,0
-371,-118,0,0,0,0,0,0,0,0,0,-1,853,1142,0,0
-364,-118,0,0,0,0,0,0,0,0,0,-1,860,1142,0,0
-357,-118,0,0,0,0,0,0,0,0,0,-1,867,1142,0,0
-350,-118,0,0,0,0,0,0,0,0,0,-1,874,1142,0,0
-343,-118,0,0,0,0,0,0,0,0,0,-1,881,1142,0,0
-336,-118,0,0,0,0,0,0,0,0,0,-1,888,1142,0,0
-329,-118,0,0,0,0,0,0,0,0,0,-1,895,1142,0,0
-322,-118,0,0,0,0,0,0,0,0,0,-1,902,1142,0,0
-315,-118,0,0,0,0,0,0,0,0,0,-1,909,1142,0,0
-308,-118,0,0,0,0,0,0,0,0,0,-1,916,1142,0,0
-301,-118,0,0,0,0,0,0,0,0,0,-1,923,1142,0,0
-294,-118,0,0,0,0,0,0,0,0,0,-1,930,1142,0,0
-287,-118,0,0,0,0,0,0,0,0,0,-1,937,1142,0,0
-280,-118,0,0,0,0,0,0,0,0,0,-1,944,1142,0,0
-273,-118,0,0,0,0,0,0,0,0,0,-1,951,1142,0,0
-266,-118,0,0,0,0,0,0,0,0,0,-1,958,1142,0,0
-259,-118,0,0,0,0,0,0,0,0,0,-1,965,1142,0,0
-252,-118,0,0,0,0,0,0,0,0,0,-1,972,1142,0,0
-245,-118,0,0,0,0,0,0,0,0,0,-1,979,1142,0,0
-238,-118,0,0,0,0,0,0,0,0,0,-1,986,1142,0,0
-231,-118,0,0,0,0,0,0,0,0,0,-1,993,1142,0,0
-224,-118,0,0,0,0,0,0,0,0,0,-1,1000,1142,0,0
-217,-118,0,0,0,0,0,0,0,0,0,-1,1007,1142,0,0
-210,-118,0,0,0,0,0,0,0,0,0,-1,1014,1142,0,0
-203,-118,0,0,0,0,0,0,0,0,0,-1,1021,1142,0,0
-196,-118,0,0,0,0,0,0,0,0,0,-1,1028,1142,0,0
-189,-118,0,0,0,0,0,0,0,0,0,-1,1035,1142,0,0
-182,-118,0,0,0,0,0,0,0,0,0,-1,1042,1142,0,0
-175,-118,0,0,0,0,0,0,0,0,0,-1,1049,1142,0,0
-168,-118,0,0,0,0,0,0,0,0,0,-1,1056,1142,0,0
-161,-118,0,0,0,0,0,0,0,0,0,-1,1063,1142,0,0
-154,-118,0,0,0,0,0,0,0,0,0,-1,1070,1142,0,0
-147,-118,0,0,0,0,0,0,0,0,0,-1,1077,1142,0,0
-140,-118,0,0,0,0,0,0,0,0,0,-1,1084,1142,0,0
-133,-118,0,0,0,0,0,0,0,0,0,-1,1091,1142,0,0
-126,-118,0,0,0,0,0,0,0,0,0,-1,1098,1142,0,0
-119,-118,0,0,0,0,0,0,0,0,0,-1,1105,1142,0,0
-112,-118,0,0,0,0,0,0,0,0,0,-1,1112,1142,0,0
-105,-118,0,0,0,0,0,0,0,0,0,-1,1119,1142,0,0
-98,-118,0,0,0,0,0,0,0,0,0,-1,1126,1142,0,0
-91,-118,0,0,0,0,0,0,0,0,0,-1,1133,1142,0,0
-84,-118,0,0,0,0,0,0,0,0,0,-1,1140,1142,0,0
-77,-118,0,0,0,0,0,0,0,0,0,-1,1147,1142,0,0
-70,-118,0,0,0,0,0,0,0,0,0,-1,1154,1142,0,0
-63,-118,0,0,0,0,0,0,0,0,0,-1,1161,1142,0,0
-56,-118,0,0,0,0,0,0,0,0,0,-1,1168,1142,0,0
-49,-118,0,0,0,0,0,0,0,0,0,-1,1175,1142,0,0
-42,-118,0,0,0,0,0,0,0,0,0,-1,1182,1142,0,0
-35,-118,0,0,0,0,0,0,0,0,0,-1,1189,1142,0,0
-28,-118,0,0,0,0,0,0,0,0,0,-1,1196,1142,0,0
-21,-118,0,0,0,0,0,0,0,0,0,-1,1203,1142,0,0
-14,-118,0,0,0,0,0,0,0,0,0,-1,1210,1142,0,0
-7,-118,0,0,0,0,0,0,0,0,0,-1,1217,1142,0,0
0,-118,0,0,0,0,0,0,0,0,0,-1,1224,1142,0,0
7,-118,0,0,0,0,0,0,0,0,0,-1,1231,1142,0,0
14,-118,0,0,0,0,0,0,0,0,0,-1,1238,1142,0,0
21,-118,0,0,0,0,0,0,0,0,0,-1,1245,1142,0,0
28,-118,0,0,0,0,0,0,0,0,0,-1,1252,1142,0,0
35,-118,0,0,0,0,0,0,0,0,0,-1,1259,1142,0,0
42,-118,0,0,0,0,0,0,0,0,0,-1,1266,1142,0,0
49,-118,0,0,0,0,0,0,0,0,0,-1,1273,1142,0,0
56,-118,0,0,0,0,0,0,0,0,0,-1,1280,1142,0,0
63,-118,0,0,0,0,0,0,0,0,0,-1,1287,1142,0,0
70,-118,0,0,0,0,0,0,0,0,0,-1,1294,1142,0,0
77,-118,0,0,0,0,0,0,0,0,0,-1,1301,1142,0,0
84,-118,0,0,0,0,0,0,0,0,0,-1,1308,1142,0,0
91,-118,0,0,0,0,0,0,0,0,0,-1,1315,1142,0,0
98,-118,0,0,0,0,0,0,0,0,0,-1,1322,1142,0,0
105,-118,0,0,0,0,0,0,0,0,0,-1,1329,1142,0,0
112,-118,0,0,0,0,0,0,0,0,0,-1,1336,1142,0,0
119,-118,0,0,0,0,0,0,0,0,0,-1,1343,1142,0,0
126,-118,0,0,0,0,0,0,0,0,0,-1,1350,1142,0,0
133,-118,0,0,0,0,0,0,0,0,0,-1,1357,1142,0,0
140,-118,0,0,0,0,0,0,0,0,0,-1,1364,1142,0,0
147,-118,0,0,0,0,0,0,0,0,0,-1,1371,1142,0,0
154,-118,0,0,0,0,0,0,0,0,0,-1,1378,1142,0,0
161,-118,0,0,0,0,0,0,0,0,0,-1,1385,1142,0,0
168,-118,0,0,0,0,0,0,0,0,0,-1,1392,1142,0,0
175,-118,0,0,0,0,0,0,0,0,0,-1,1399,1142,0,0
182,-118,0,0,0,0,0,0,0,0,0,-1,1406,1142,0,0
189,-118,0,0,0,0,0,0,0,0,0,-1,1413,1142,0,0
196,-118,0,0,0,0,0,0,0,0,0,-1,1420,1142,0,0
203,-118,0,0,0,0,0,0,0,0,0,-1,1427,1142,0,0
210,-118,0,0,0,0,0,0,0,0,0,-1,1434,1142,0,0
217,-118,0,0,0,0,0,0,0,0,0,-1,1441,1142,0,0
224,-118,0,0,0,0,0,0,0,0,0,-1,1448,1142,0,0
231,-118,0,0,0,0,0,0,0,0,0,-1,1455,1142,0,0
238,-118,0,0,0,0,0,0,0,0,0,-1,1462,1142,0,0
245,-118,0,0,0,0,0,0,0,0,0,-1,1469,1142,0,0
252,-118,0,0,0,0,0,0,0,0,0,-1,1476,1142,0,0
259,-118,0,0,0,0,0,0,0,0,0,-1,1483,1142,0,0
266,-118,0,0,0,0,0,0,0,0,0,-1,1490,1142,0,0
273,-118,0,0,0,0,0,0,0,0,0,-1,1497,1142,0,0
280,-118,0,0,0,0,0,0,0,0,0,-1,1504,1142,0,0
287,-118,0,0,0,0,0,0,0,0,0,-1,1511,1142,0,0
294,-118,0,0,0,0,0,0,0,0,0,-1,1518,1142,0,0
301,-118,0,0,0,0,0,0,0,0,0,-1,1525,1142,0,0
308,-118,0,0,0,0,0,0,0,0,0,-1,1532,1142,0,0
315,-118,0,0,0,0,0,0,0,0,0,-1,1539,1142,0,0
322,-118,0,0,0,0,0,0,0,0,0,-1,1546,1142,0,0
329,-118,0,0,0,0,0,0,0,0,0,-1,1553,1142,0,0
336,-118,0,0,0,0,0,0,0,0,0,-1,1560,1142,0,0
343,-118,0,0,0,0,0,0,0,0,0,-1,1567,1142,0,0
350,-118,0,0,0,0,0,0,0,0,0,-1,1574,1142,0,0
357,-118,0,0,0,0,0,0,0,0,0,-1,1581,1142,0,0
364,-118,0,0,0,0,0,0,0,0,0,-1,1588,1142,0,0
371,-118,0,0,0,0,0,0,0,0,0,-1,1595,1142,0,0
378,-118,0,0,0,0,0,0,0,0,0,-1,1602,1142,0,0
385,-118,0,0,0,0,0,0,0,0,0,-1,1609,1142,0,0
392,-118,0,0,0,0,0,0,0,0,0,-1,1616,1142,0,0
399,-118,0,0,0,0,0,0,0,0,0,-1,1623,1142,0,0
406,-118,0,0,0,0,0,0,0,0,0,-1,1630,1142,0,0
413,-118,0,0,0,0,0,0,0,0,0,-1,1637,1142,0,0
420,-118,0,0,0,0,0,0,0,0,0,-1,1644,1142,0,0
427,-118,0,0,0,0,0,0,0,0,0,-1,1651,1142,0,0
434,-118,0,0,0,0,0,0,0,0,0,-1,1658,1142,0,0
441,-118,0,0,0,0,0,0,0,0,0,-1,1665,1142,0,0
448,-118,0,0,0,0,0,0,0,0,0,-1,1672,1142,0,0
455,-118,0,0,0,0,0,0,0,0,0,-1,1679,1142,0,0
462,-118,0,0,0,0,0,0,0,0,0,-1,1686,1142,0,0
469,-118,0,0,0,0,0,0,0,0,0,-1,1693,1142,0,0
476,-118,0,0,0,0,0,0,0,0,0,-1,1700,1142,0,0
483,-118,0,0,0,0,0,0,0,0,0,-1,1707,1142,0,0
490,-118,0,0,0,0,0,0,0,0,0,-1,1714,1142,0,0
497,-118,0,0,0,0,0,0,0,0,0,-1,1721,1142,0,0
504,-118,0,0,0,0,0,0,0,0,0,-1,1728,1142,0,0
511,-118,0,0,0,0,0,0,0,0,0,-1,1735,1142,0,0
518,-118,0,0,0,0,0,0,0,0,0,-1,1742,1142,0,0
525,-118,0,0,0,0,0,0,0,0,0,-1,1749,1142,0,0
532,-118,0,0,0,0,0,0,0,0,0,-1,1756,1142,0,0
539,-118,0,0,0,0,0,0,0,0,0,-1,1763,1142,0,0
546,-118,0,0,0,0,0,0,0,0,0,-1,1770,1142,0,0
553,-118,0,0,0,0,0,0,0,0,0,-1,1777,1142,0,0
560,-118,0,0,0,0,0,0,0,0,0,-1,1784,1142,0,0
567,-118,0,0,0,0,0,0,0,0,0,-1,1791,1142,0,0
574,-118,0,0,0,0,0,0,0,0,0,-1,1798,1142,0,0
581,-118,0,0,0,0,0,0,0,0,0,-1,1805,1142,0,0
588,-118,0,0,0,0,0,0,0,0,0,-1,1812,1142,0,0
595,-118,0,0,0,0,0,0,0,0,0,-1,1819,1142,0,0
602,-118,0,0,0,0,0,0,0,0,0,-1,1826,1142,0,0
609,-118,0,0,0,0,0,0,0,0,0,-1,1833,1142,0,0
616,-118,0,0,0,0,0,0,0,0,0,-1,1840,1142,0,0
623,-118,0,0,0,0,0,0,0,0,0,-1,1847,1142,0,0
630,-118,0,0,0,0,0,0,0,0,0,-1,1854,1142,0,0
637,-118,0,0,0,0,0,0,0,0,0,-1,1861,1142,0,0
644,-118,20.4915,3.24951,0.00104094,-0.00245344,-0.00544573,0.00501289,-0.0064254,-0.630167,0.00662066,0.0391858,1868,1142,20.4915,-3.24955
651,-118,20.4967,3.01563,0.00102234,-0.00163287,-0.00375651,0.00367894,-0.00428947,-0.615541,0.00460506,0.0399671,1875,1142,20.4967,-3.01563
658,-118,20.6721,2.98157,0.00134265,-0.00102734,-0.00252762,0.00294926,-0.00263395,-0.566201,0.00322518,0.0424635,1882,1142,20.6722,-2.98151
665,-118,20.7072,2.74158,0.0010398,-0.000912413,-0.000885098,0.00138133,-0.00125395,-0.36827,0.00152207,0.0470216,1889,1142,20.7072,-2.7416
672,-118,20.4343,2.35132,0,0,0,0,0,0,0,-1,1896,1142,20.4344,-2.35129
679,-118,20.4973,2.71252,-0.00102978,-0.00150493,0.00255481,0.00129848,-0.00383319,0.739036,0.00308089,0.0436036,1903,1142,20.4973,-2.71251
686,-118,20.5472,2.86426,-0.0021419,-0.00189959,0.00385099,0.00183215,-0.00587364,0.801123,0.00464843,0.035602,1910,1142,20.5473,-2.86424
693,-118,20.5814,2.79822,-0.00310534,-0.00218882,0.00478617,0.00216097,-0.00745514,0.833126,0.00582559,0.0337646,1917,1142,20.5814,-2.79818
700,-118,20.6526,2.79541,-0.00392578,-0.00241134,0.00554087,0.00242381,-0.00876093,0.853308,0.00679423,0.0220824,1924,1142,20.6525,-2.79537
707,-118,20.6162,3.2489,0,0,0,0,0,0,0,-1,1931,1142,20.6162,-3.24895
714,-118,20.054,3.81482,-0.00487802,-0.0024893,0.00614919,0.00258045,-0.00994777,0.881319,0.00763869,0.0379743,1938,1142,20.0539,-3.81478
721,-118,19.5754,4.29712,-0.00499132,-0.00225413,0.00592434,0.00245764,-0.00970309,0.898913,0.00742478,0.0108855,1945,1142,19.5754,-4.2971
728,-118,19.5909,4.22192,-0.00490675,-0.00211691,0.0053804,0.00204645,-0.00907011,0.912236,0.00683183,0.0137796,1952,1142,19.591,-4.22197
735,-118,19.5756,4.14014,-0.00464745,-0.00160116,0.004664,0.00178211,-0.00803072,0.943226,0.00603619,0.0141587,1959,1142,19.5755,-4.14016
742,-118,19.6234,4.07874,-0.00404117,-0.00103003,0.0038062,0.00155755,-0.00662875,0.973733,0.00501956,0.0211766,1966,1142,19.6234,-4.07872
749,-118,19.605,4.00098,-0.0037477,-0.00257025,0.00242693,-0.00066166,-0.00565629,0.90439,0.0035708,0.0209857,1973,1142,19.605,-4.00103
756,-118,19.5769,3.91455,-0.00398431,-0.00396536,0.0010156,-0.00295919,-0.00499047,0.790064,0.00289781,0.0176149,1980,1142,19.5769,-3.91456
763,-118,19.5902,3.80957,-0.0051627,-0.0057896,-0.0008707,-0.00455075,-0.00640155,-0.612622,0.00380394,0.0103051,1987,1142,19.5903,-3.80951
770,-118,19.5626,3.75781,-0.00674475,-0.00883058,-0.00273604,-0.00485959,-0.0107157,-0.603311,0.00619565,0.0128551,1994,1142,19.5626,-3.75782
777,-118,19.5275,3.68005,-0.00995901,-0.0133078,-0.00449813,-0.00683375,-0.0164331,-0.607221,0.00953233,0.0247118,2001,1142,19.5275,-3.68003
784,-118,19.4806,3.55896,-0.0146675,-0.0189744,-0.00665203,-0.00982904,-0.0238129,-0.628857,0.0138179,0.0408784,2008,1142,19.4805,-3.55893
791,-118,19.521,3.40247,0,0,0,0,0,0,0,-1,2015,1142,19.521,-3.40246
798,-118,19.8966,6.02698,-0.0291516,-0.033353,-0.0127834,-0.0182974,-0.0442072,-0.70396,0.0256488,0.0494511,2022,1142,19.8965,-6.02698
805,-118,18.9943,5.40601,-0.0394253,-0.0412269,-0.0168933,-0.0234088,-0.0572434,-0.758761,0.0332317,0.0488352,2029,1142,18.9942,-5.40605
812,-118,18.1978,4.53479,-0.0520029,-0.0484815,-0.0217008,-0.0284701,-0.0720143,-0.825877,0.04188,0.047268,2036,1142,18.1978,-4.53482
-700,-125,0,0,0,0,0,0,0,0,0,-1,524,1149,0,0
-693,-125,-8.81952,-2.20984,-0.15681,0.10168,0.0333627,0.105916,-0.161047,1.44449,0.155223,0.0454221,531,1149,-8.8195,2.20978
-686,-125,-10.1362,-1.94263,-0.124512,0.0884538,0.0327802,0.0933853,-0.129444,1.42148,0.129211,0.0442331,538,1149,-10.1362,1.9426
-679,-125,-14.5452,-3.30444,0,0,0,0,0,0,0,-1,545,1149,-14.5452,3.30447
-672,-125,-14.1166,-1.7085,-0.0750258,0.0628752,0.0264849,0.0677868,-0.0799375,1.38743,0.0853848,0.0440392,552,1149,-14.1166,1.70849
-665,-125,-13.6879,0.015625,0,0,0,0,0,0,0,-1,559,1149,-13.6878,-0.015648
-658,-125,-11.7565,0.060791,-0.0405738,0.0403796,0.0180698,0.0442298,-0.0444241,1.36086,0.0511844,0.042576,566,1149,-11.7566,-0.0608385
-651,-125,-11.7914,0.790039,-0.02833,0.030753,0.0139555,0.0338835,-0.0314605,1.35013,0.037735,0.0364276,573,1149,-11.7914,-0.789999
-644,-125,-11.9448,1.18225,-0.0190502,0.0224905,0.0102597,0.0248863,-0.021446,1.34139,0.0267746,0.022695,580,1149,-11.9448,-1.18225
-637,-125,-11.9728,1.28479,-0.00977411,0.0146538,0.00706225,0.0165486,-0.0116689,1.30867,0.0163724,0.0122812,587,1149,-11.9728,-1.28482
-630,-125,-11.9899,1.39587,-0.00406064,0.00843321,0.00350075,0.00934724,-0.00497467,1.3154,0.00839624,0.0141428,594,1149,-11.9899,-1.39585
-623,-125,-12.0142,1.51794,-0.00424984,0.00516431,0.000268722,0.00517197,-0.00425751,1.54228,0.00545264,0.0129043,601,1149,-12.0142,-1.51794
-616,-125,-12.0148,1.61414,-0.00564764,0.00241412,-0.00294391,0.00337469,-0.00660821,-1.2554,0.00586355,0.0126893,608,1149,-12.0148,-1.61409
-609,-125,-12.0403,1.69775,-0.00683956,0.00027912,-0.00513542,0.0029681,-0.00952853,-1.08844,0.00753906,0.0147518,615,1149,-12.0403,-1.6978
-602,-125,-12.0619,1.85522,-0.00778055,-0.00053461,-0.00686454,0.00360437,-0.0119195,-1.02821,0.00938152,0.0143587,622,1149,-12.0619,-1.85522
-595,-125,-12.0366,1.99902,-0.00863426,-0.000795139,-0.00826119,0.00442917,-0.0138586,-1.0069,0.0110163,0.0131685,629,1149,-12.0366,-1.99898
-588,-125,-11.7714,2.31836,0,0,0,0,0,0,0,-1,636,1149,-11.7714,-2.31834
-581,-125,-12.329,1.6073,-0.00981558,-0.000971639,-0.00963939,0.00521166,-0.0159989,-1.00045,0.0127629,0.0449401,643,1149,-12.329,-1.60731
-574,-125,-12.607,-0.00720215,-0.00999981,-0.000846205,-0.00968951,0.00529304,-0.0161391,-1.00604,0.0128912,0.0449677,650,1149,-12.607,0.00721519
-567,-125,-13.0702,0.861816,-0.00975633,-0.000671178,-0.00929929,0.00513573,-0.0155632,-1.0126,0.0124458,0.0383857,657,1149,-13.0702,-0.861785
-560,-125,-13.0451,0.798096,-0.00878613,-0.000346387,-0.00827511,0.0047227,-0.0138552,-1.02119,0.0111496,0.0403822,664,1149,-13.0451,-0.798148
-553,-125,-13.0146,0.86377,-0.00696447,8.51055e-05,-0.00651287,0.00396583,-0.0108452,-1.03343,0.00885328,0.0427772,671,1149,-13.0147,-0.863817
-546,-125,-13.0612,0.76355,-0.00434532,0.000576839,-0.00398185,0.00279679,-0.00656527,-1.0622,0.00554924,0.0400294,678,1149,-13.0612,-0.763569
-539,-125,-12.8839,0.757568,-0.00100626,0.00107433,-0.000659403,0.00126571,-0.00119764,-1.28832,0.0014224,0.0381612,685,1149,-12.8839,-0.757617
-532,-125,-12.913,0.87146,0.0023481,0.00151081,0.00286992,0.00482975,-0.000970843,0.712973,0.00358751,0.0368348,692,1149,-12.913,-0.871476
-525,-125,-13.1168,0.865723,0.00372003,0.0010772,0.00373737,0.00636272,-0.00156548,0.615473,0.00484862,0.0411364,699,1149,-13.1168,-0.865756
-518,-125,0,0,0,0,0,0,0,0,0,-1,706,1149,0,0
-511,-125,0,0,0,0,0,0,0,0,0,-1,713,1149,0,0
-504,-125,0,0,0,0,0,0,0,0,0,-1,720,1149,0,0
-497,-125,0,0,0,0,0,0,0,0,0,-1,727,1149,0,0
-490,-125,0,0,0,0,0,0,0,0,0,-1,734,1149,0,0
-483,-125,0,0,0,0,0,0,0,0,0,-1,741,1149,0,0
-476,-125,0,0,0,0,0,0,0,0,0,-1,748,1149,0,0
-469,-125,0,0,0,0,0,0,0,0,0,-1,755,1149,0,0
-462,-125,0,0,0,0,0,0,0,0,0,-1,762,1149,0,0
-455,-125,0,0,0,0,0,0,0,0,0,-1,769,1149,0,0
-448,-125,0,0,0,0,0,0,0,0,0,-1,776,1149,0,0
-441,-125,0,0,0,0,0,0,0,0,0,-1,783,1149,0,0
-434,-125,0,0,0,0,0,0,0,0,0,-1,790,1149,0,0
-427,-125,0,0,0,0,0,0,0,0,0,-1,797,1149,0,0
-420,-125,0,0,0,0,0,0,0,0,0,-1,804,1149,0,0
-413,-125,0,0,0,0,0,0,0,0,0,-1,811,1149,0,0
-406,-125,0,0,0,0,0,0,0,0,0,-1,818,1149,0,0
-399,-125,0,0,0,0,0,0,0,0,0,-1,825,1149,0,0
-392,-125,0,0,0,0,0,0,0,0,0,-1,832,1149,0,0
-385,-125,0,0,0,0,0,0,0,0,0,-1,839,1149,0,0
-378,-125,0,0,0,0,0,0,0,0,0,-1,846,1149,0,0
-371,-125,0,0,0,0,0,0,0,0,0,-1,853,1149,0,0
-364,-125,0,0,0,0,0,0,0,0,0,-1,860,1149,0,0
-357,-125,0,0,0,0,0,0,0,0,0,-1,867,1149,0,0
-350,-125,0,0,0,0,0,0,0,0,0,-1,874,1149,0,0
-343,-125,0,0,0,0,0,0,0,0,0,-1,881,1149,0,0
-336,-125,0,0,0,0,0,0,0,0,0,-1,888,1149,0,0
-329,-125,0,0,0,0,0,0,0,0,0,-1,895,1149,0,0
-322,-125,0,0,0,0,0,0,0,0,0,-1,902,1149,0,0
-315,-125,0,0,0,0,0,0,0,0,0,-1,909,1149,0,0
-308,-125,0,0,0,0,0,0,0,0,0,-1,916,1149,0,0
-301,-125,0,0,0,0,0,0,0,0,0,-1,923,1149,0,0
-294,-125,0,0,0,0,0,0,0,0,0,-1,930,1149,0,0
-287,-125,0,0,0,0,0,0,0,0,0,-1,937,1149,0,0
-280,-125,0,0,0,0,0,0,0,0,0,-1,944,1149,0,0
-273,-125,0,0,0,0,0,0,0,0,0,-1,951,1149,0,0
-266,-125,0,0,0,0,0,0,0,0,0,-1,958,1149,0,0
-259,-125,0,0,0,0,0,0,0,0,0,-1,965,1149,0,0
-252,-125,0,0,0,0,0,0,0,0,0,-1,972,1149,0,0
-245,-125,0,0,0,0,0,0,0,0,0,-1,979,1149,0,0
-238,-125,0,0,0,0,0,0,0,0,0,-1,986,1149,0,0
-231,-125,0,0,0,0,0,0,0,0,0,-1,993,1149,0,0
-224,-125,0,0,0,0,0,0,0,0,0,-1,1000,1149,0,0
-217,-125,0,0,0,0,0,0,0,0,0,-1,1007,1149,0,0
-210,-125,0,0,0,0,0,0,0,0,0,-1,1014,1149,0,0
-203,-125,0,0,0,0,0,0,0,0,0,-1,1021,1149,0,0
-196,-125,0,0,0,0,0,0,0,0,0,-1,1028,1149,0,0
-189,-125,0,0,0,0,0,0,0,0,0,-1,1035,1149,0,0
-182,-125,0,0,0,0,0,0,0,0,0,-1,1042,1149,0,0
-175,-125,0,0,0,0,0,0,0,0,0,-1,1049,1149,0,0
-168,-125,0,0,0,0,0,0,0,0,0,-1,1056,1149,0,0
-161,-125,0,0,0,0,0,0,0,0,0,-1,1063,1149,0,0
-154,-125,0,0,0,0,0,0,0,0,0,-1,1070,1149,0,0
-147,-125,0,0,0,0,0,0,0,0,0,-1,1077,1149,0,0
-140,-125,0,0,0,0,0,0,0,0,0,-1,1084,1149,0,0
-133,-125,0,0,0,0,0,0,0,0,0,-1,1091,1149,0,0
-126,-125,0,0,0,0,0,0,0,0,0,-1,1098,1149,0,0
-119,-125,0,0,0,0,0,0,0,0,0,-1,1105,1149,0,0
-112,-125,0,0,0,0,0,0,0,0,0,-1,1112,1149,0,0
-105,-125,0,0,0,0,0,0,0,0,0,-1,1119,1149,0,0
-98,-125,0,0,0,0,0,0,0,0,0,-1,1126,1149,0,0
-91,-125,0,0,0,0,0,0,0,0,0,-1,1133,1149,0,0
-84,-125,0,0,0,0,0,0,0,0,0,-1,1140,1149,0,0
-77,-125,0,0,0,0,0,0,0,0,0,-1,1147,1149,0,0
-70,-125,0,0,0,0,0,0,0,0,0,-1,1154,1149,0,0
-63,-125,0,0,0,0,0,0,0,0,0,-1,1161,1149,0,0
-56,-125,0,0,0,0,0,0,0,0,0,-1,1168,1149,0,0
-49,-125,0,0,0,0,0,0,0,0,0,-1,1175,1149,0,0
-42,-125,0,0,0,0,0,0,0,0,0,-1,1182,1149,0,0
-35,-125,0,0,0,0,0,0,0,0,0,-1,1189,1149,0,0
-28,-125,0,0,0,0,0,0,0,0,0,-1,1196,1149,0,0
-21,-125,0,0,0,0,0,0,0,0,0,-1,1203,1149,0,0
-14,-125,0,0,0,0,0,0,0,0,0,-1,1210,1149,0,0
-7,-125,0,0,0,0,0,0,0,0,0,-1,1217,1149,0,0
0,-125,0,0,0,0,0,0,0,0,0,-1,1224,1149,0,0
7,-125,0,0,0,0,0,0,0,0,0,-1,1231,1149,0,0
14,-125,0,0,0,0,0,0,0,0,0,-1,1238,1149,0,0
21,-125,0,0,0,0,0,0,0,0,0,-1,1245,1149,0,0
28,-125,0,0,0,0,0,0,0,0,0,-1,1252,1149,0,0
35,-125,0,0,0,0,0,0,0,0,0,-1,1259,1149,0,0
42,-125,0,0,0,0,0,0,0,0,0,-1,1266,1149,0,0
49,-125,0,0,0,0,0,0,0,0,0,-1,1273,1149,0,0
56,-125,0,0,0,0,0,0,0,0,0,-1,1280,1149,0,0
63,-125,0,0,0,0,0,0,0,0,0,-1,1287,1149,0,0
70,-125,0,0,0,0,0,0,0,0,0,-1,1294,1149,0,0
77,-125,0,0,0,0,0,0,0,0,0,-1,1301,1149,0,0
84,-125,0,0,0,0,0,0,0,0,0,-1,1308,1149,0,0
91,-125,0,0,0,0,0,0,0,0,0,-1,1315,1149,0,0
98,-125,0,0,0,0,0,0,0,0,0,-1,1322,1149,0,0
105,-125,0,0,0,0,0,0,0,0,0,-1,1329,1149,0,0
112,-125,0,0,0,0,0,0,0,0,0,-1,1336,1149,0,0
119,-125,0,0,0,0,0,0,0,0,0,-1,1343,1149,0,0
126,-125,0,0,0,0,0,0,0,0,0,-1,1350,1149,0,0
133,-125,0,0,0,0,0,0,0,0,0,-1,1357,1149,0,0
140,-125,0,0,0,0,0,0,0,0,0,-1,1364,1149,0,0
147,-125,0,0,0,0,0,0,0,0,0,-1,1371,1149,0,0
154,-125,0,0,0,0,0,0,0,0,0,-1,1378,1149,0,0
161,-125,0,0,0,0,0,0,0,0,0,-1,1385,1149,0,0
168,-125,0,0,0,0,0,0,0,0,0,-1,1392,1149,0,0
175,-125,0,0,0,0,0,0,0,0,0,-1,1399,1149,0,0
182,-125,0,0,0,0,0,0,0,0,0,-1,1406,1149,0,0
189,-125,0,0,0,0,0,0,0,0,0,-1,1413,1149,0,0
196,-125,0,0,0,0,0,0,0,0,0,-1,1420,1149,0,0
203,-125,0,0,0,0,0,0,0,0,0,-1,1427,1149,0,0
210,-125,0,0,0,0,0,0,0,0,0,-1,1434,1149,0,0
217,-125,0,0,0,0,0,0,0,0,0,-1,1441,1149,0,0
224,-125,0,0,0,0,0,0,0,0,0,-1,1448,1149,0,0
231,-125,0,0,0,0,0,0,0,0,0,-1,1455,1149,0,0
238,-125,0,0,0,0,0,0,0,0,0,-1,1462,1149,0,0
245,-125,0,0,0,0,0,0,0,0,0,-1,1469,1149,0,0
252,-125,0,0,0,0,0,0,0,0,0,-1,1476,1149,0,0
259,-125,0,0,0,0,0,0,0,0,0,-1,1483,1149,0,0
266,-125,0,0,0,0,0,0,0,0,0,-1,1490,1149,0,0
273,-125,0,0,0,0,0,0,0,0,0,-1,1497,1149,0,0
280,-125,0,0,0,0,0,0,0,0,0,-1,1504,1149,0,0
287,-125,0,0,0,0,0,0,0,0,0,-1,1511,1149,0,0
294,-125,0,0,0,0,0,0,0,0,0,-1,1518,1149,0,0
301,-125,0,0,0,0,0,0,0,0,0,-1,1525,1149,0,0
308,-125,0,0,0,0,0,0,0,0,0,-1,1532,1149,0,0
315,-125,0,0,0,0,0,0,0,0,0,-1,1539,1149,0,0
322,-125,0,0,0,0,0,0,0,0,0,-1,1546,1149,0,0
329,-125,0,0,0,0,0,0,0,0,0,-1,1553,1149,0,0
336,-125,0,0,0,0,0,0,0,0,0,-1,1560,1149,0,0
343,-125,0,0,0,0,0,0,0,0,0,-1,1567,1149,0,0
350,-125,0,0,0,0,0,0,0,0,0,-1,1574,1149,0,0
357,-125,0,0,0,0,0,0,0,0,0,-1,1581,1149,0,0
364,-125,0,0,0,0,0,0,0,0,0,-1,1588,1149,0,0
371,-125,0,0,0,0,0,0,0,0,0,-1,1595,1149,0,0
378,-125,0,0,0,0,0,0,0,0,0,-1,1602,1149,0,0
385,-125,0,0,0,0,0,0,0,0,0,-1,1609,1149,0,0
392,-125,0,0,0,0,0,0,0,0,0,-1,1616,1149,0,0
399,-125,0,0,0,0,0,0,0,0,0,-1,1623,1149,0,0
406,-125,0,0,0,0,0,0,0,0,0,-1,1630,1149,0,0
413,-125,0,0,0,0,0,0,0,0,0,-1,1637,1149,0,0
420,-125,0,0,0,0,0,0,0,0,0,-1,1644,1149,0,0
427,-125,0,0,0,0,0,0,0,0,0,-1,1651,1149,0,0
434,-125,0,0,0,0,0,0,0,0,0,-1,1658,1149,0,0
441,-125,0,0,0,0,0,0,0,0,0,-1,1665,1149,0,0
448,-125,0,0,0,0,0,0,0,0,0,-1,1672,1149,0,0
455,-125,0,0,0,0,0,0,0,0,0,-1,1679,1149,0,0
462,-125,0,0,0,0,0,0,0,0,0,-1,1686,1149,0,0
469,-125,0,0,0,0,0,0,0,0,0,-1,1693,1149,0,0
476,-125,0,0,0,0,0,0,0,0,0,-1,1700,1149,0,0
483,-125,0,0,0,0,0,0,0,0,0,-1,1707,1149,0,0
490,-125,0,0,0,0,0,0,0,0,0,-1,1714,1149,0,0
497,-125,0,0,0,0,0,0,0,0,0,-1,1721,1149,0,0
504,-125,0,0,0,0,0,0,0,0,0,-1,1728,1149,0,0
511,-125,0,0,0,0,0,0,0,0,0,-1,1735,1149,0,0
518,-125,0,0,0,0,0,0,0,0,0,-1,1742,1149,0,0
525,-125,0,0,0,0,0,0,0,0,0,-1,1749,1149,0,0
532,-125,0,0,0,0,0,0,0,0,0,-1,1756,1149,0,0
539,-125,0,0,0,0,0,0,0,0,0,-1,1763,1149,0,0
546,-125,0,0,0,0,0,0,0,0,0,-1,1770,1149,0,0
553,-125,0,0,0,0,0,0,0,0,0,-1,1777,1149,0,0
560,-125,0,0,0,0,0,0,0,0,0,-1,1784,1149,0,0
567,-125,0,0,0,0,0,0,0,0,0,-1,1791,1149,0,0
574,-125,0,0,0,0,0,0,0,0,0,-1,1798,1149,0,0
581,-125,0,0,0,0,0,0,0,0,0,-1,1805,1149,0,0
588,-125,0,0,0,0,0,0,0,0,0,-1,1812,1149,0,0
595,-125,0,0,0,0,0,0,0,0,0,-1,1819,1149,0,0
602,-125,0,0,0,0,0,0,0,0,0,-1,1826,1149,0,0
609,-125,0,0,0,0,0,0,0,0,0,-1,1833,1149,0,0
616,-125,0,0,0,0,0,0,0,0,0,-1,1840,1149,0,0
623,-125,0,0,0,0,0,0,0,0,0,-1,1847,1149,0,0
630,-125,0,0,0,0,0,0,0,0,0,-1,1854,1149,0,0
637,-125,0,0,0,0,0,0,0,0,0,-1,1861,1149,0,0
644,-125,20.7106,2.91248,0.000198662,-0.00227738,-0.00484829,0.0039645,-0.00604322,-0.660393,0.00581936,0.0404422,1868,1149,20.7105,-2.91247
651,-125,20.7987,2.64954,0.000549352,-0.00150495,-0.00342214,0.00309516,-0.00405076,-0.639601,0.00413798,0.0407023,1875,1149,20.7987,-2.64951
658,-125,20.6023,2.89661,0.000962505,-0.00102015,-0.00231678,0.00249114,-0.00254879,-0.58324,0.00290987,0.0437388,1882,1149,20.6023,-2.89656
665,-125,20.5576,2.9624,0.000588892,-0.00105435,-0.000758191,0.000885267,-0.00135073,-0.372634,0.00130024,0.0485975,1889,1149,20.5576,-2.96244
672,-125,20.3577,2.95264,-0.000415478,-0.00136262,0.0009467,0.000169493,-0.00194759,0.553481,0.00135842,0.0491911,1896,1149,20.3577,-2.95263
679,-125,20.4022,2.82935,-0.00154584,-0.00176248,0.00237914,0.000727447,-0.00403577,0.76265,0.00296291,0.0389612,1903,1149,20.4023,-2.82938
686,-125,20.5724,2.74512,-0.0026775,-0.00216904,0.00356968,0.00115545,-0.00600199,0.820947,0.00443691,0.0331411,1910,1149,20.5724,-2.74506
693,-125,20.5967,2.76758,-0.00363851,-0.0024322,0.00442818,0.00143371,-0.00750442,0.853086,0.00554301,0.031805,1917,1149,20.5967,-2.76755
700,-125,20.6591,2.85632,-0.00444559,-0.00266748,0.00516046,0.00167995,-0.00879302,0.870702,0.00649483,0.0165001,1924,1149,20.6591,-2.8563
707,-125,20.527,3.57544,0,0,0,0,0,0,0,-1,1931,1149,20.527,-3.57545
714,-125,19.9312,4.00256,-0.00532139,-0.00267792,0.00572143,0.00187246,-0.00987177,0.898914,0.00728598,0.0388908,1938,1149,19.9311,-4.00255
721,-125,19.4332,4.33704,-0.0054067,-0.00238389,0.00553643,0.00184373,-0.00963432,0.918648,0.0071175,0.0192064,1945,1149,19.4332,-4.33698
728,-125,19.4615,4.23621,-0.00524484,-0.00220552,0.00506118,0.00155922,-0.00900958,0.931245,0.00658792,0.013444,1952,1149,19.4616,-4.23617
735,-125,19.4933,4.16382,-0.00489266,-0.0016466,0.00437494,0.00139667,-0.00793592,0.96302,0.00581238,0.0161406,1959,1149,19.4933,-4.16383
742,-125,19.525,4.09705,-0.00411716,-0.00102871,0.00348109,0.0012353,-0.00638117,0.99416,0.00472007,0.0245277,1966,1149,19.525,-4.097
749,-125,19.5248,4.00977,-0.00365944,-0.00253105,0.00204655,-0.000972351,-0.00521814,0.919897,0.00320421,0.0274299,1973,1149,19.5248,-4.00976
756,-125,19.4956,3.87683,-0.00378183,-0.00386387,0.000450733,-0.00337025,-0.00427544,0.74002,0.0026016,0.019869,1980,1149,19.4956,-3.87684
763,-125,19.5018,3.80298,-0.00500345,-0.00568481,-0.00170268,-0.0036077,-0.00708056,-0.68666,0.00408821,0.0103181,1987,1149,19.5019,-3.803
770,-125,19.4891,3.70776,-0.00675679,-0.00881849,-0.00382205,-0.00382901,-0.0117463,-0.653677,0.00691728,0.0127762,1994,1149,19.4891,-3.70771
777,-125,19.4689,3.60791,-0.0101995,-0.0133536,-0.00607799,-0.00549729,-0.0180558,-0.65846,0.010687,0.0240937,2001,1149,19.4689,-3.60796
784,-125,19.4465,3.50146,-0.0152682,-0.0191362,-0.0089798,-0.0080165,-0.0263879,-0.679334,0.0156212,0.0418301,2008,1149,19.4466,-3.50151
791,-125,19.4104,3.38586,0,0,0,0,0,0,0,-1,2015,1149,19.4104,-3.38589
798,-125,19.5037,7.84546,-0.0311283,-0.0337144,-0.017347,-0.0150263,-0.0498164,-0.748198,0.0295064,0.0446109,2022,1149,19.5036,-7.8454
805,-125,18.325,6.13098,-0.0425719,-0.0415729,-0.0230494,-0.0190176,-0.0651272,-0.796232,0.0386705,0.0491037,2029,1149,18.325,-6.13093
812,-125,17.5686,4.48071,-0.05681,-0.0486641,-0.0298581,-0.0226024,-0.0828717,-0.853185,0.049466,0.0485242,2036,1149,17.5686,-4.4807
-700,-132,0,0,0,0,0,0,0,0,0,-1,524,1156,0,0
-693,-132,-9.06201,-3.00513,-0.162341,0.0946691,0.0377912,0.100111,-0.167782,1.42779,0.156304,0.0488974,531,1156,-9.06199,3.00508
-686,-132,-10.5829,-2.45801,-0.12948,0.0812199,0.0365126,0.0873679,-0.135628,1.40398,0.129748,0.0488961,538,1156,-10.5829,2.45804
-679,-132,-14.9935,-4.00806,0,0,0,0,0,0,0,-1,545,1156,-14.9935,4.0081
-672,-132,-14.7405,-2.5155,0,0,0,0,0,0,0,-1,552,1156,-14.7406,2.5155
-665,-132,-14.4876,-1.02295,0,0,0,0,0,0,0,-1,559,1156,-14.4876,1.02289
-658,-132,-11.7355,-0.00256348,-0.0437176,0.0362252,0.0201344,0.0410099,-0.0485023,1.33749,0.0517402,0.0434083,566,1156,-11.7355,0.00250989
-651,-132,-12.1556,0.723022,-0.0308617,0.0275467,0.0156419,0.0314718,-0.0347868,1.32493,0.0382704,0.0377314,573,1156,-12.1556,-0.723046
-644,-132,-11.8547,1.15747,-0.0209765,0.0201313,0.0115616,0.0231599,-0.0240051,1.3146,0.0272322,0.020368,580,1156,-11.8547,-1.1575
-637,-132,-11.8494,1.26868,-0.0112285,0.0129332,0.0080016,0.0153428,-0.0136381,1.2783,0.0167417,0.0105161,587,1156,-11.8494,-1.26863
-630,-132,-11.8633,1.38733,-0.00497318,0.00734092,0.00425068,0.00866568,-0.00629795,1.26868,0.00867523,0.00934502,594,1156,-11.8633,-1.38738
-623,-132,-11.8944,1.53125,-0.00471214,0.00459023,0.000820816,0.0046621,-0.00478402,1.48346,0.00545387,0.0148152,601,1156,-11.8944,-1.53129
-616,-132,-11.8922,1.65271,-0.00580053,0.00204832,-0.00267166,0.00287141,-0.00662362,-1.27194,0.00562283,0.0200259,608,1156,-11.8922,-1.6527
-609,-132,-11.8496,1.73352,-0.00691906,-2.28729e-05,-0.0050088,0.00260994,-0.00955187,-1.08685,0.00739308,0.0136717,615,1156,-11.8496,-1.73349
-602,-132,-11.905,1.82007,-0.00787354,-0.000908717,-0.00687372,0.0033144,-0.0120967,-1.01987,0.00936678,0.0125568,622,1156,-11.905,-1.82005
-595,-132,-11.9084,1.98901,-0.00874015,-0.00128706,-0.00839868,0.0041747,-0.0142019,-0.994202,0.0111238,0.0142346,629,1156,-11.9084,-1.98902
-588,-132,-11.8293,2.15637,-0.00943498,-0.00156285,-0.00940169,0.00469345,-0.0156913,-0.98364,0.0123269,0.0173257,636,1156,-11.8293,-2.15637
-581,-132,-12.187,1.82483,-0.00988653,-0.00164365,-0.00994465,0.00499977,-0.01653,-0.981843,0.0130108,0.0414001,643,1156,-12.187,-1.82478
-574,-132,-12.4734,-0.0441895,0,0,0,0,0,0,0,-1,650,1156,-12.4734,0.0442381
-567,-132,-13.043,0.780396,-0.00981637,-0.00150574,-0.00970863,0.00489944,-0.0162216,-0.987603,0.0127649,0.0385077,657,1156,-13.043,-0.780349
-560,-132,-13.1194,0.785034,-0.00887945,-0.00123024,-0.00874778,0.00449248,-0.0146022,-0.991481,0.0115278,0.03861,664,1156,-13.1194,-0.785068
-553,-132,-13.1703,0.884155,-0.00711043,-0.00080887,-0.00701149,0.00372725,-0.0116465,-0.996565,0.00926028,0.0406667,671,1156,-13.1703,-0.884102
-546,-132,-13.0673,0.598755,-0.00457947,-0.000278162,-0.00444771,0.00251157,-0.0073692,-1.0106,0.00593002,0.0410016,678,1156,-13.0673,-0.598759
-539,-132,-12.8746,0.549316,-0.00139725,0.000317064,-0.00100894,0.000783797,-0.00186398,-1.13752,0.00157053,0.0391066,685,1156,-12.8746,-0.549295
-532,-132,-12.7855,0.686523,0.00191058,0.000915325,0.00291243,0.00436759,-0.00154169,0.700784,0.00353937,0.0366748,692,1156,-12.7855,-0.686541
-525,-132,-12.9163,0.753174,0.0033904,0.000785435,0.00481557,0.00707653,-0.00290069,0.653322,0.00592614,0.037593,699,1156,-12.9163,-0.753148
-518,-132,0,0,0,0,0,0,0,0,0,-1,706,1156,0,0
-511,-132,0,0,0,0,0,0,0,0,0,-1,713,1156,0,0
-504,-132,0,0,0,0,0,0,0,0,0,-1,720,1156,0,0
-497,-132,0,0,0,0,0,0,0,0,0,-1,727,1156,0,0
-490,-132,0,0,0,0,0,0,0,0,0,-1,734,1156,0,0
-483,-132,0,0,0,0,0,0,0,0,0,-1,741,1156,0,0
-476,-132,0,0,0,0,0,0,0,0,0,-1,748,1156,0,0
-469,-132,0,0,0,0,0,0,0,0,0,-1,755,1156,0,0
-462,-132,0,0,0,0,0,0,0,0,0,-1,762,1156,0,0
-455,-132,0,0,0,0,0,0,0,0,0,-1,769,1156,0,0
-448,-132,0,0,0,0,0,0,0,0,0,-1,776,1156,0,0
-441,-132,0,0,0,0,0,0,0,0,0,-1,783,1156,0,0
-434,-132,0,0,0,0,0,0,0,0,0,-1,790,1156,0,0
-427,-132,0,0,0,0,0,0,0,0,0,-1,797,1156,0,0
-420,-132,0,0,0,0,0,0,0,0,0,-1,804,1156,0,0
-413,-132,0,0,0,0,0,0,0,0,0,-1,811,1156,0,0
-406,-132,0,0,0,0,0,0,0,0,0,-1,818,1156,0,0
-399,-132,0,0,0,0,0,0,0,0,0,-1,825,1156,0,0
-392,-132,0,0,0,0,0,0,0,0,0,-1,832,1156,0,0
-385,-132,0,0,0,0,0,0,0,0,0,-1,839,1156,0,0
-378,-132,0,0,0,0,0,0,0,0,0,-1,846,1156,0,0
-371,-132,0,0,0,0,0,0,0,0,0,-1,853,1156,0,0
-364,-132,0,0,0,0,0,0,0,0,0,-1,860,1156,0,0
-357,-132,0,0,0,0,0,0,0,0,0,-1,867,1156,0,0
-350,-132,0,0,0,0,0,0,0,0,0,-1,874,1156,0,0
-343,-132,0,0,0,0,0,0,0,0,0,-1,881,1156,0,0
-336,-132,0,0,0,0,0,0,0,0,0,-1,888,1156,0,0
-329,-132,0,0,0,0,0,0,0,0,0,-1,895,1156,0,0
-322,-132,0,0,0,0,0,0,0,0,0,-1,902,1156,0,0
-315,-132,0,0,0,0,0,0,0,0,0,-1,909,1156,0,0
-308,-132,0,0,0,0,0,0,0,0,0,-1,916,1156,0,0
-301,-132,0,0,0,0,0,0,0,0,0,-1,923,1156,0,0
-294,-132,0,0,0,0,0,0,0,0,0,-1,930,1156,0,0
-287,-132,0,0,0,0,0,0,0,0,0,-1,937,1156,0,0
-280,-132,0,0,0,0,0,0,0,0,0,-1,944,1156,0,0
-273,-132,0,0,0,0,0,0,0,0,0,-1,951,1156,0,0
-266,-132,0,0,0,0,0,0,0,0,0,-1,958,1156,0,0
-259,-132,0,0,0,0,0,0,0,0,0,-1,965,1156,0,0
-252,-132,0,0,0,0,0,0,0,0,0,-1,972,1156,0,0
-245,-132,0,0,0,0,0,0,0,0,0,-1,979,1156,0,0
-238,-132,0,0,0,0,0,0,0,0,0,-1,986,1156,0,0
-231,-132,0,0,0,0,0,0,0,0,0,-1,993,1156,0,0
-224,-132,0,0,0,0,0,0,0,0,0,-1,1000,1156,0,0
-217,-132,0,0,0,0,0,0,0,0,0,-1,1007,1156,0,0
-210,-132,0,0,0,0,0,0,0,0,0,-1,1014,1156,0,0
-203,-132,0,0,0,0,0,0,0,0,0,-1,1021,1156,0,0
-196,-132,0,0,0,0,0,0,0,0,0,-1,1028,1156,0,0
-189,-132,0,0,0,0,0,0,0,0,0,-1,1035,1156,0,0
-182,-132,0,0,0,0,0,0,0,0,0,-1,1042,1156,0,0
-175,-132,0,0,0,0,0,0,0,0,0,-1,1049,1156,0,0
-168,-132,0,0,0,0,0,0,0,0,0,-1,1056,1156,0,0
-161,-132,0,0,0,0,0,0,0,0,0,-1,1063,1156,0,0
-154,-132,0,0,0,0,0,0,0,0,0,-1,1070,1156,0,0
-147,-132,0,0,0,0,0,0,0,0,0,-1,1077,1156,0,0
-140,-132,0,0,0,0,0,0,0,0,0,-1,1084,1156,0,0
-133,-132,0,0,0,0,0,0,0,0,0,-1,1091,1156,0,0
-126,-132,0,0,0,0,0,0,0,0,0,-1,1098,1156,0,0
-119,-132,0,0,0,0,0,0,0,0,0,-1,1105,1156,0,0
-112,-132,0,0,0,0,0,0,0,0,0,-1,1112,1156,0,0
-105,-132,0,0,0,0,0,0,0,0,0,-1,1119,1156,0,0
-98,-132,0,0,0,0,0,0,0,0,0,-1,1126,1156,0,0
-91,-132,0,0,0,0,0,0,0,0,0,-1,1133,1156,0,0
-84,-132,0,0,0,0,0,0,0,0,0,-1,1140,1156,0,0
-77,-132,0,0,0,0,0,0,0,0,0,-1,1147,1156,0,0
-70,-132,0,0,0,0,0,0,0,0,0,-1,1154,1156,0,0
-63,-132,0,0,0,0,0,0,0,0,0,-1,1161,1156,0,0
-56,-132,0,0,0,0,0,0,0,0,0,-1,1168,1156,0,0
-49,-132,0,0,0,0,0,0,0,0,0,-1,1175,1156,0,0
-42,-132,0,0,0,0,0,0,0,0,0,-1,1182,1156,0,0
-35,-132,0,0,0,0,0,0,0,0,0,-1,1189,1156,0,0
-28,-132,0,0,0,0,0,0,0,0,0,-1,1196,1156,0,0
-21,-132,0,0,0,0,0,0,0,0,0,-1,1203,1156,0,0
-14,-132,0,0,0,0,0,0,0,0,0,-1,1210,1156,0,0
-7,-132,0,0,0,0,0,0,0,0,0,-1,1217,1156,0,0
0,-132,0,0,0,0,0,0,0,0,0,-1,1224,1156,0,0
7,-132,0,0,0,0,0,0,0,0,0,-1,1231,1156,0,0
14,-132,0,0,0,0,0,0,0,0,0,-1,1238,1156,0,0
21,-132,0,0,0,0,0,0,0,0,0,-1,1245,1156,0,0
28,-132,0,0,0,0,0,0,0,0,0,-1,1252,1156,0,0
35,-132,0,0,0,0,0,0,0,0,0,-1,1259,1156,0,0
42,-132,0,0,0,0,0,0,0,0,0,-1,1266,1156,0,0
49,-132,0,0,0,0,0,0,0,0,0,-1,1273,1156,0,0
56,-132,0,0,0,0,0,0,0,0,0,-1,1280,1156,0,0
63,-132,0,0,0,0,0,0,0,0,0,-1,1287,1156,0,0
70,-132,0,0,0,0,0,0,0,0,0,-1,1294,1156,0,0
77,-132,0,0,0,0,0,0,0,0,0,-1,1301,1156,0,0
84,-132,0,0,0,0,0,0,0,0,0,-1,1308,1156,0,0
91,-132,0,0,0,0,0,0,0,0,0,-1,1315,1156,0,0
98,-132,0,0,0,0,0,0,0,0,0,-1,1322,1156,0,0
105,-132,0,0,0,0,0,0,0,0,0,-1,1329,1156,0,0
112,-132,0,0,0,0,0,0,0,0,0,-1,1336,1156,0,0
119,-132,0,0,0,0,0,0,0,0,0,-1,1343,1156,0,0
126,-132,0,0,0,0,0,0,0,0,0,-1,1350,1156,0,0
133,-132,0,0,0,0,0,0,0,0,0,-1,1357,1156,0,0
140,-132,0,0,0,0,0,0,0,0,0,-1,1364,1156,0,0
147,-132,0,0,0,0,0,0,0,0,0,-1,1371,1156,0,0
154,-132,0,0,0,0,0,0,0,0,0,-1,1378,1156,0,0
161,-132,0,0,0,0,0,0,0,0,0,-1,1385,1156,0,0
168,-132,0,0,0,0,0,0,0,0,0,-1,1392,1156,0,0
175,-132,0,0,0,0,0,0,0,0,0,-1,1399,1156,0,0
182,-132,0,0,0,0,0,0,0,0,0,-1,1406,1156,0,0
189,-132,0,0,0,0,0,0,0,0,0,-1,1413,1156,0,0
196,-132,0,0,0,0,0,0,0,0,0,-1,1420,1156,0,0
203,-132,0,0,0,0,0,0,0,0,0,-1,1427,1156,0,0
210,-132,0,0,0,0,0,0,0,0,0,-1,1434,1156,0,0
217,-132,0,0,0,0,0,0,0,0,0,-1,1441,1156,0,0
224,-132,0,0,0,0,0,0,0,0,0,-1,1448,1156,0,0
231,-132,0,0,0,0,0,0,0,0,0,-1,1455,1156,0,0
238,-132,0,0,0,0,0,0,0,0,0,-1,1462,1156,0,0
245,-132,0,0,0,0,0,0,0,0,0,-1,1469,1156,0,0
252,-132,0,0,0,0,0,0,0,0,0,-1,1476,1156,0,0
259,-132,0,0,0,0,0,0,0,0,0,-1,1483,1156,0,0
266,-132,0,0,0,0,0,0,0,0,0,-1,1490,1156,0,0
273,-132,0,0,0,0,0,0,0,0,0,-1,1497,1156,0,0
280,-132,0,0,0,0,0,0,0,0,0,-1,1504,1156,0,0
287,-132,0,0,0,0,0,0,0,0,0,-1,1511,1156,0,0
294,-132,0,0,0,0,0,0,0,0,0,-1,1518,1156,0,0
301,-132,0,0,0,0,0,0,0,0,0,-1,1525,1156,0,0
308,-132,0,0,0,0,0,0,0,0,0,-1,1532,1156,0,0
315,-132,0,0,0,0,0,0,0,0,0,-1,1539,1156,0,0
322,-132,0,0,0,0,0,0,0,0,0,-1,1546,1156,0,0
329,-132,0,0,0,0,0,0,0,0,0,-1,1553,1156,0,0
336,-132,0,0,0,0,0,0,0,0,0,-1,1560,1156,0,0
343,-132,0,0,0,0,0,0,0,0,0,-1,1567,1156,0,0
350,-132,0,0,0,0,0,0,0,0,0,-1,1574,1156,0,0
357,-132,0,0,0,0,0,0,0,0,0,-1,1581,1156,0,0
364,-132,0,0,0,0,0,0,0,0,0,-1,1588,1156,0,0
371,-132,0,0,0,0,0,0,0,0,0,-1,1595,1156,0,0
378,-132,0,0,0,0,0,0,0,0,0,-1,1602,1156,0,0
385,-132,0,0,0,0,0,0,0,0,0,-1,1609,1156,0,0
392,-132,0,0,0,0,0,0,0,0,0,-1,1616,1156,0,0
399,-132,0,0,0,0,0,0,0,0,0,-1,1623,1156,0,0
406,-132,0,0,0,0,0,0,0,0,0,-1,1630,1156,0,0
413,-132,0,0,0,0,0,0,0,0,0,-1,1637,1156,0,0
420,-132,0,0,0,0,0,0,0,0,0,-1,1644,1156,0,0
427,-132,0,0,0,0,0,0,0,0,0,-1,1651,1156,0,0
434,-132,0,0,0,0,0,0,0,0,0,-1,1658,1156,0,0
441,-132,0,0,0,0,0,0,0,0,0,-1,1665,1156,0,0
448,-132,0,0,0,0,0,0,0,0,0,-1,1672,1156,0,0
455,-132,0,0,0,0,0,0,0,0,0,-1,1679,1156,0,0
462,-132,0,0,0,0,0,0,0,0,0,-1,1686,1156,0,0
469,-132,0,0,0,0,0,0,0,0,0,-1,1693,1156,0,0
476,-132,0,0,0,0,0,0,0,0,0,-1,1700,1156,0,0
483,-132,0,0,0,0,0,0,0,0,0,-1,1707,1156,0,0
490,-132,0,0,0,0,0,0,0,0,0,-1,1714,1156,0,0
497,-132,0,0,0,0,0,0,0,0,0,-1,1721,1156,0,0
504,-132,0,0,0,0,0,0,0,0,0,-1,1728,1156,0,0
511,-132,0,0,0,0,0,0,0,0,0,-1,1735,1156,0,0
518,-132,0,0,0,0,0,0,0,0,0,-1,1742,1156,0,0
525,-132,0,0,0,0,0,0,0,0,0,-1,1749,1156,0,0
532,-132,0,0,0,0,0,0,0,0,0,-1,1756,1156,0,0
539,-132,0,0,0,0,0,0,0,0,0,-1,1763,1156,0,0
546,-132,0,0,0,0,0,0,0,0,0,-1,1770,1156,0,0
553,-132,0,0,0,0,0,0,0,0,0,-1,1777,1156,0,0
560,-132,0,0,0,0,0,0,0,0,0,-1,1784,1156,0,0
567,-132,0,0,0,0,0,0,0,0,0,-1,1791,1156,0,0
574,-132,0,0,0,0,0,0,0,0,0,-1,1798,1156,0,0
581,-132,0,0,0,0,0,0,0,0,0,-1,1805,1156,0,0
588,-132,0,0,0,0,0,0,0,0,0,-1,1812,1156,0,0
595,-132,0,0,0,0,0,0,0,0,0,-1,1819,1156,0,0
602,-132,0,0,0,0,0,0,0,0,0,-1,1826,1156,0,0
609,-132,0,0,0,0,0,0,0,0,0,-1,1833,1156,0,0
616,-132,0,0,0,0,0,0,0,0,0,-1,1840,1156,0,0
623,-132,0,0,0,0,0,0,0,0,0,-1,1847,1156,0,0
630,-132,0,0,0,0,0,0,0,0,0,-1,1854,1156,0,0
637,-132,0,0,0,0,0,0,0,0,0,-1,1861,1156,0,0
644,-132,20.676,2.72278,-0.00031637,-0.00169192,-0.00378132,0.00283922,-0.0048475,-0.695438,0.00448813,0.0436921,1868,1156,20.676,-2.72284
651,-132,20.7244,2.61267,0.000247208,-0.00096898,-0.00273084,0.00243683,-0.00315861,-0.675847,0.00323948,0.0421945,1875,1156,20.7244,-2.61263
658,-132,20.5756,2.78455,0.000686812,-0.000579375,-0.0018349,0.00199477,-0.00188733,-0.619279,0.00224162,0.0423706,1882,1156,20.5755,-2.78452
665,-132,20.4296,2.91724,0.000247397,-0.000731006,-0.00045024,0.000423052,-0.000906661,-0.371974,0.000784453,0.0431811,1889,1156,20.4296,-2.91726
672,-132,20.3118,2.77515,-0.000754478,-0.00109993,0.00101391,0.000101316,-0.00195572,0.70103,0.00133887,0.0414935,1896,1156,20.3118,-2.7751
679,-132,20.3848,2.64893,-0.00186938,-0.00154575,0.00225208,0.000550317,-0.00396545,0.821263,0.00284487,0.038417,1903,1156,20.3848,-2.64887
686,-132,20.5737,2.70117,-0.00298118,-0.00199725,0.00328375,0.000831177,-0.00580961,0.859754,0.00417778,0.0336149,1910,1156,20.5737,-2.70121
693,-132,20.5934,2.81433,-0.00391909,-0.0022692,0.00402937,0.0010188,-0.0072071,0.886369,0.00517785,0.0292583,1917,1156,20.5934,-2.81437
700,-132,20.663,2.83069,-0.00469929,-0.00253582,0.00471192,0.00121694,-0.00845205,0.89823,0.00608107,0.0327144,1924,1156,20.663,-2.83075
707,-132,20.7701,2.83374,0,0,0,0,0,0,0,-1,1931,1156,20.7702,-2.83375
714,-132,19.29,4.5155,0,0,0,0,0,0,0,-1,1938,1156,19.29,-4.51554
721,-132,19.3304,4.37512,-0.00559406,-0.00232054,0.00505709,0.00135807,-0.00927267,0.941906,0.00668064,0.0243191,1945,1156,19.3304,-4.37508
728,-132,19.3461,4.25183,-0.00537211,-0.0021394,0.00466323,0.00117966,-0.00869117,0.952227,0.00622471,0.0141304,1952,1156,19.3461,-4.25188
735,-132,19.3804,4.17358,-0.00495467,-0.00157272,0.00401579,0.00109359,-0.00762099,0.984672,0.00548167,0.0161817,1959,1156,19.3804,-4.17362
742,-132,19.4022,4.07166,-0.0040178,-0.000954235,0.00310342,0.000974846,-0.00594688,1.01465,0.0043263,0.0205877,1966,1156,19.4022,-4.07167
749,-132,19.4121,3.97559,-0.00335668,-0.00234942,0.00165887,-0.00111941,-0.00458668,0.932776,0.00276135,0.0246804,1973,1156,19.4121,-3.97564
756,-132,19.3784,3.85217,-0.00331866,-0.00358544,-5.00491e-05,-0.00330958,-0.00359452,-0.179478,0.00230724,0.0210466,1980,1156,19.3784,-3.85221
763,-132,19.3901,3.78516,-0.00446791,-0.00532166,-0.00235369,-0.0025027,-0.00728687,-0.695691,0.00427526,0.0119662,1987,1156,19.3902,-3.78517
770,-132,19.3961,3.71851,-0.00621348,-0.00841064,-0.00463209,-0.00255148,-0.0120726,-0.668966,0.00734713,0.012126,1994,1156,19.3961,-3.71849
777,-132,19.373,3.58069,-0.00963645,-0.012844,-0.00727302,-0.00379248,-0.018688,-0.67688,0.0114066,0.021909,2001,1156,19.373,-3.58068
784,-132,19.3561,3.43384,-0.0147358,-0.0185343,-0.0107871,-0.00568206,-0.027588,-0.698257,0.016821,0.0448686,2008,1156,19.3561,-3.43384
791,-132,19.2998,3.36926,0,0,0,0,0,0,0,-1,2015,1156,19.2998,-3.36932
798,-132,18.689,7.23401,0,0,0,0,0,0,0,-1,2022,1156,18.689,-7.23402
805,-132,17.8287,5.85474,-0.0432042,-0.0403719,-0.0282692,-0.0134833,-0.0700927,-0.810425,0.0429455,0.046443,2029,1156,17.8288,-5.85476
812,-132,16.9998,4.42639,-0.0585253,-0.0469778,-0.03702,-0.0152841,-0.0902191,-0.862756,0.0557541,0.0463564,2036,1156,16.9998,-4.42641
-700,-139,0,0,0,0,0,0,0,0,0,-1,524,1163,0,0
-693,-139,-9.40485,-3.86084,-0.165059,0.0862202,0.0391103,0.0921668,-0.171006,1.41991,0.154199,0.0468097,531,1163,-9.40487,3.86089
-686,-139,-11.0491,-3.34961,-0.131732,0.0727715,0.0374668,0.0794196,-0.13838,1.39518,0.127273,0.0480762,538,1163,-11.0491,3.34965
-679,-139,-12.6645,-2.79895,0,0,0,0,0,0,0,-1,545,1163,-12.6645,2.799
-672,-139,-15.3345,-3.33093,0,0,0,0,0,0,0,-1,552,1163,-15.3345,3.33088
-665,-139,-11.5502,1.1825,0,0,0,0,0,0,0,-1,559,1163,-11.5501,-1.18255
-658,-139,-11.5226,0.874878,0,0,0,0,0,0,0,-1,566,1163,-11.5226,-0.874878
-651,-139,-11.6182,0.98645,-0.0323928,0.023526,0.0160663,0.0278133,-0.0366802,1.31002,0.0373525,0.0402925,573,1163,-11.6182,-0.986475
-644,-139,-11.7048,1.14319,-0.0222095,0.0170903,0.0119115,0.0204187,-0.0255379,1.29832,0.0265879,0.0214734,580,1163,-11.7048,-1.14323
-637,-139,-11.7047,1.25793,-0.0122383,0.0106357,0.00826599,0.0133101,-0.0149127,1.25788,0.0163032,0.011521,587,1163,-11.7047,-1.25795
-630,-139,-11.7226,1.37537,-0.00567481,0.00584526,0.00453783,0.00741802,-0.00724757,1.23716,0.00846738,0.010229,594,1163,-11.7226,-1.37539
-623,-139,-11.7401,1.49988,-0.00500501,0.00375853,0.00115187,0.0039074,-0.00515389,1.44227,0.00524801,0.0156897,601,1163,-11.7401,-1.4999
-616,-139,-11.7456,1.58972,-0.0057521,0.00161197,-0.00249686,0.00237872,-0.00651885,-1.27285,0.00531916,0.0161464,608,1163,-11.7456,-1.58973
-609,-139,-11.6824,1.73621,-0.00676595,-0.000267802,-0.00492675,0.00238476,-0.00941852,-1.0769,0.00720668,0.0192499,615,1163,-11.6824,-1.73625
-602,-139,-11.7617,1.87488,-0.00772453,-0.00112244,-0.00690609,0.00323099,-0.012078,-1.00834,0.00931761,0.0144571,622,1163,-11.7617,-1.87482
-595,-139,-11.7936,2.00671,-0.00860175,-0.00155114,-0.00852291,0.00414678,-0.0142997,-0.981497,0.0111748,0.0134986,629,1163,-11.7936,-2.00666
-588,-139,-11.7418,2.1665,-0.00926684,-0.00186817,-0.00961612,0.00473564,-0.0158706,-0.969023,0.0124626,0.0160792,636,1163,-11.7418,-2.16645
-581,-139,-11.684,2.04565,0,0,0,0,0,0,0,-1,643,1163,-11.684,-2.04565
-574,-139,-12.431,1.45801,-0.00976934,-0.00199693,-0.0103717,0.00519271,-0.016959,-0.964649,0.0133772,0.0470637,650,1163,-12.431,-1.458
-567,-139,-13.1146,0.896484,-0.00954082,-0.00195625,-0.0100768,0.00501823,-0.0165153,-0.96537,0.0130097,0.0404415,657,1163,-13.1146,-0.896502
-560,-139,-13.1578,0.96167,-0.00861174,-0.00172158,-0.00917936,0.00463789,-0.0149712,-0.964918,0.0118337,0.0369778,664,1163,-13.1579,-0.961632
-553,-139,-13.0281,0.802002,-0.00689889,-0.00133094,-0.00748209,0.00386833,-0.0120982,-0.963505,0.00961778,0.0407,671,1163,-13.0282,-0.802027
-546,-139,-12.7561,0.523682,-0.00446958,-0.0008141,-0.00492773,0.00261394,-0.00789762,-0.962988,0.00631924,0.0427211,678,1163,-12.7561,-0.523721
-539,-139,-12.853,0.67627,-0.00145607,-0.000209577,-0.00147303,0.000766634,-0.00243228,-0.98553,0.00192854,0.0400422,685,1163,-12.853,-0.676329
-532,-139,-12.9647,0.689331,0.00179079,0.000448959,0.00264292,0.00384663,-0.00160688,0.661097,0.00323589,0.0373249,692,1163,-12.9647,-0.689325
-525,-139,-12.8766,0.633789,0.00352543,0.000559537,0.00535451,0.00759856,-0.00351358,0.650308,0.00655851,0.0389032,699,1163,-12.8767,-0.633755
-518,-139,0,0,0,0,0,0,0,0,0,-1,706,1163,0,0
-511,-139,0,0,0,0,0,0,0,0,0,-1,713,1163,0,0
-504,-139,0,0,0,0,0,0,0,0,0,-1,720,1163,0,0
-497,-139,0,0,0,0,0,0,0,0,0,-1,727,1163,0,0
-490,-139,0,0,0,0,0,0,0,0,0,-1,734,1163,0,0
-483,-139,0,0,0,0,0,0,0,0,0,-1,741,1163,0,0
-476,-139,0,0,0,0,0,0,0,0,0,-1,748,1163,0,0
-469,-139,0,0,0,0,0,0,0,0,0,-1,755,1163,0,0
-462,-139,0,0,0,0,0,0,0,0,0,-1,762,1163,0,0
-455,-139,0,0,0,0,0,0,0,0,0,-1,769,1163,0,0
-448,-139,0,0,0,0,0,0,0,0,0,-1,776,1163,0,0
-441,-139,0,0,0,0,0,0,0,0,0,-1,783,1163,0,0
-434,-139,0,0,0,0,0,0,0,0,0,-1,790,1163,0,0
-427,-139,0,0,0,0,0,0,0,0,0,-1,797,1163,0,0
-420,-139,0,0,0,0,0,0,0,0,0,-1,804,1163,0,0
-413,-139,0,0,0,0,0,0,0,0,0,-1,811,1163,0,0
-406,-139,0,0,0,0,0,0,0,0,0,-1,818,1163,0,0
-399,-139,0,0,0,0,0,0,0,0,0,-1,825,1163,0,0
-392,-139,0,0,0,0,0,0,0,0,0,-1,832,1163,0,0
-385,-139,0,0,0,0,0,0,0,0,0,-1,839,1163,0,0
-378,-139,0,0,0,0,0,0,0,0,0,-1,846,1163,0,0
-371,-139,0,0,0,0,0,0,0,0,0,-1,853,1163,0,0
-364,-139,0,0,0,0,0,0,0,0,0,-1,860,1163,0,0
-357,-139,0,0,0,0,0,0,0,0,0,-1,867,1163,0,0
-350,-139,0,0,0,0,0,0,0,0,0,-1,874,1163,0,0
-343,-139,0,0,0,0,0,0,0,0,0,-1,881,1163,0,0
-336,-139,0,0,0,0,0,0,0,0,0,-1,888,1163,0,0
-329,-139,0,0,0,0,0,0,0,0,0,-1,895,1163,0,0
-322,-139,0,0,0,0,0,0,0,0,0,-1,902,1163,0,0
-315,-139,0,0,0,0,0,0,0,0,0,-1,909,1163,0,0
-308,-139,0,0,0,0,0,0,0,0,0,-1,916,1163,0,0
-301,-139,0,0,0,0,0,0,0,0,0,-1,923,1163,0,0
-294,-139,0,0,0,0,0,0,0,0,0,-1,930,1163,0,0
-287,-139,0,0,0,0,0,0,0,0,0,-1,937,1163,0,0
-280,-139,0,0,0,0,0,0,0,0,0,-1,944,1163,0,0
-273,-139,0,0,0,0,0,0,0,0,0,-1,951,1163,0,0
-266,-139,0,0,0,0,0,0,0,0,0,-1,958,1163,0,0
-259,-139,0,0,0,0,0,0,0,0,0,-1,965,1163,0,0
-252,-139,0,0,0,0,0,0,0,0,0,-1,972,1163,0,0
-245,-139,0,0,0,0,0,0,0,0,0,-1,979,1163,0,0
-238,-139,0,0,0,0,0,0,0,0,0,-1,986,1163,0,0
-231,-139,0,0,0,0,0,0,0,0,0,-1,993,1163,0,0
-224,-139,0,0,0,0,0,0,0,0,0,-1,1000,1163,0,0
-217,-139,0,0,0,0,0,0,0,0,0,-1,1007,1163,0,0
-210,-139,0,0,0,0,0,0,0,0,0,-1,1014,1163,0,0
-203,-139,0,0,0,0,0,0,0,0,0,-1,1021,1163,0,0
-196,-139,0,0,0,0,0,0,0,0,0,-1,1028,1163,0,0
-189,-139,0,0,0,0,0,0,0,0,0,-1,1035,1163,0,0
-182,-139,0,0,0,0,0,0,0,0,0,-1,1042,1163,0,0
-175,-139,0,0,0,0,0,0,0,0,0,-1,1049,1163,0,0
-168,-139,0,0,0,0,0,0,0,0,0,-1,1056,1163,0,0
-161,-139,0,0,0,0,0,0,0,0,0,-1,1063,1163,0,0
-154,-139,0,0,0,0,0,0,0,0,0,-1,1070,1163,0,0
-147,-139,0,0,0,0,0,0,0,0,0,-1,1077,1163,0,0
-140,-139,0,0,0,0,0,0,0,0,0,-1,1084,1163,0,0
-133,-139,0,0,0,0,0,0,0,0,0,-1,1091,1163,0,0
-126,-139,0,0,0,0,0,0,0,0,0,-1,1098,1163,0,0
-119,-139,0,0,0,0,0,0,0,0,0,-1,1105,1163,0,0
-112,-139,0,0,0,0,0,0,0,0,0,-1,1112,1163,0,0
-105,-139,0,0,0,0,0,0,0,0,0,-1,1119,1163,0,0
-98,-139,0,0,0,0,0,0,0,0,0,-1,1126,1163,0,0
-91,-139,0,0,0,0,0,0,0,0,0,-1,1133,1163,0,0
-84,-139,0,0,0,0,0,0,0,0,0,-1,1140,1163,0,0
-77,-139,0,0,0,0,0,0,0,0,0,-1,1147,1163,0,0
-70,-139,0,0,0,0,0,0,0,0,0,-1,1154,1163,0,0
-63,-139,0,0,0,0,0,0,0,0,0,-1,1161,1163,0,0
-56,-139,0,0,0,0,0,0,0,0,0,-1,1168,1163,0,0
-49,-139,0,0,0,0,0,0,0,0,0,-1,1175,1163,0,0
-42,-139,0,0,0,0,0,0,0,0,0,-1,1182,1163,0,0
-35,-139,0,0,0,0,0,0,0,0,0,-1,1189,1163,0,0
-28,-139,0,0,0,0,0,0,0,0,0,-1,1196,1163,0,0
-21,-139,0,0,0,0,0,0,0,0,0,-1,1203,1163,0,0
-14,-139,0,0,0,0,0,0,0,0,0,-1,1210,1163,0,0
-7,-139,0,0,0,0,0,0,0,0,0,-1,1217,1163,0,0
0,-139,0,0,0,0,0,0,0,0,0,-1,1224,1163,0,0
7,-139,0,0,0,0,0,0,0,0,0,-1,1231,1163,0,0
14,-139,0,0,0,0,0,0,0,0,0,-1,1238,1163,0,0
21,-139,0,0,0,0,0,0,0,0,0,-1,1245,1163,0,0
28,-139,0,0,0,0,0,0,0,0,0,-1,1252,1163,0,0
35,-139,0,0,0,0,0,0,0,0,0,-1,1259,1163,0,0
42,-139,0,0,0,0,0,0,0,0,0,-1,1266,1163,0,0
49,-139,0,0,0,0,0,0,0,0,0,-1,1273,1163,0,0
56,-139,0,0,0,0,0,0,0,0,0,-1,1280,1163,0,0
63,-139,0,0,0,0,0,0,0,0,0,-1,1287,1163,0,0
70,-139,0,0,0,0,0,0,0,0,0,-1,1294,1163,0,0
77,-139,0,0,0,0,0,0,0,0,0,-1,1301,1163,0,0
84,-139,0,0,0,0,0,0,0,0,0,-1,1308,1163,0,0
91,-139,0,0,0,0,0,0,0,0,0,-1,1315,1163,0,0
98,-139,0,0,0,0,0,0,0,0,0,-1,1322,1163,0,0
105,-139,0,0,0,0,0,0,0,0,0,-1,1329,1163,0,0
112,-139,0,0,0,0,0,0,0,0,0,-1,1336,1163,0,0
119,-139,0,0,0,0,0,0,0,0,0,-1,1343,1163,0,0
126,-139,0,0,0,0,0,0,0,0,0,-1,1350,1163,0,0
133,-139,0,0,0,0,0,0,0,0,0,-1,1357,1163,0,0
140,-139,0,0,0,0,0,0,0,0,0,-1,1364,1163,0,0
147,-139,0,0,0,0,0,0,0,0,0,-1,1371,1163,0,0
154,-139,0,0,0,0,0,0,0,0,0,-1,1378,1163,0,0
161,-139,0,0,0,0,0,0,0,0,0,-1,1385,1163,0,0
168,-139,0,0,0,0,0,0,0,0,0,-1,1392,1163,0,0
175,-139,0,0,0,0,0,0,0,0,0,-1,1399,1163,0,0
182,-139,0,0,0,0,0,0,0,0,0,-1,1406,1163,0,0
189,-139,0,0,0,0,0,0,0,0,0,-1,1413,1163,0,0
196,-139,0,0,0,0,0,0,0,0,0,-1,1420,1163,0,0
203,-139,0,0,0,0,0,0,0,0,0,-1,1427,1163,0,0
210,-139,0,0,0,0,0,0,0,0,0,-1,1434,1163,0,0
217,-139,0,0,0,0,0,0,0,0,0,-1,1441,1163,0,0
224,-139,0,0,0,0,0,0,0,0,0,-1,1448,1163,0,0
231,-139,0,0,0,0,0,0,0,0,0,-1,1455,1163,0,0
238,-139,0,0,0,0,0,0,0,0,0,-1,1462,1163,0,0
245,-139,0,0,0,0,0,0,0,0,0,-1,1469,1163,0,0
252,-139,0,0,0,0,0,0,0,0,0,-1,1476,1163,0,0
259,-139,0,0,0,0,0,0,0,0,0,-1,1483,1163,0,0
266,-139,0,0,0,0,0,0,0,0,0,-1,1490,1163,0,0
273,-139,0,0,0,0,0,0,0,0,0,-1,1497,1163,0,0
280,-139,0,0,0,0,0,0,0,0,0,-1,1504,1163,0,0
287,-139,0,0,0,0,0,0,0,0,0,-1,1511,1163,0,0
294,-139,0,0,0,0,0,0,0,0,0,-1,1518,1163,0,0
301,-139,0,0,0,0,0,0,0,0,0,-1,1525,1163,0,0
308,-139,0,0,0,0,0,0,0,0,0,-1,1532,1163,0,0
315,-139,0,0,0,0,0,0,0,0,0,-1,1539,1163,0,0
322,-139,0,0,0,0,0,0,0,0,0,-1,1546,1163,0,0
329,-139,0,0,0,0,0,0,0,0,0,-1,1553,1163,0,0
336,-139,0,0,0,0,0,0,0,0,0,-1,1560,1163,0,0
343,-139,0,0,0,0,0,0,0,0,0,-1,1567,1163,0,0
350,-139,0,0,0,0,0,0,0,0,0,-1,1574,1163,0,0
357,-139,0,0,0,0,0,0,0,0,0,-1,1581,1163,0,0
364,-139,0,0,0,0,0,0,0,0,0,-1,1588,1163,0,0
371,-139,0,0,0,0,0,0,0,0,0,-1,1595,1163,0,0
378,-139,0,0,0,0,0,0,0,0,0,-1,1602,1163,0,0
385,-139,0,0,0,0,0,0,0,0,0,-1,1609,1163,0,0
392,-139,0,0,0,0,0,0,0,0,0,-1,1616,1163,0,0
399,-139,0,0,0,0,0,0,0,0,0,-1,1623,1163,0,0
406,-139,0,0,0,0,0,0,0,0,0,-1,1630,1163,0,0
413,-139,0,0,0,0,0,0,0,0,0,-1,1637,1163,0,0
420,-139,0,0,0,0,0,0,0,0,0,-1,1644,1163,0,0
427,-139,0,0,0,0,0,0,0,0,0,-1,1651,1163,0,0
434,-139,0,0,0,0,0,0,0,0,0,-1,1658,1163,0,0
441,-139,0,0,0,0,0,0,0,0,0,-1,1665,1163,0,0
448,-139,0,0,0,0,0,0,0,0,0,-1,1672,1163,0,0
455,-139,0,0,0,0,0,0,0,0,0,-1,1679,1163,0,0
462,-139,0,0,0,0,0,0,0,0,0,-1,1686,1163,0,0
469,-139,0,0,0,0,0,0,0,0,0,-1,1693,1163,0,0
476,-139,0,0,0,0,0,0,0,0,0,-1,1700,1163,0,0
483,-139,0,0,0,0,0,0,0,0,0,-1,1707,1163,0,0
490,-139,0,0,0,0,0,0,0,0,0,-1,1714,1163,0,0
497,-139,0,0,0,0,0,0,0,0,0,-1,1721,1163,0,0
504,-139,0,0,0,0,0,0,0,0,0,-1,1728,1163,0,0
511,-139,0,0,0,0,0,0,0,0,0,-1,1735,1163,0,0
518,-139,0,0,0,0,0,0,0,0,0,-1,1742,1163,0,0
525,-139,0,0,0,0,0,0,0,0,0,-1,1749,1163,0,0
532,-139,0,0,0,0,0,0,0,0,0,-1,1756,1163,0,0
539,-139,0,0,0,0,0,0,0,0,0,-1,1763,1163,0,0
546,-139,0,0,0,0,0,0,0,0,0,-1,1770,1163,0,0
553,-139,0,0,0,0,0,0,0,0,0,-1,1777,1163,0,0
560,-139,0,0,0,0,0,0,0,0,0,-1,1784,1163,0,0
567,-139,0,0,0,0,0,0,0,0,0,-1,1791,1163,0,0
574,-139,0,0,0,0,0,0,0,0,0,-1,1798,1163,0,0
581,-139,0,0,0,0,0,0,0,0,0,-1,1805,1163,0,0
588,-139,0,0,0,0,0,0,0,0,0,-1,1812,1163,0,0
595,-139,0,0,0,0,0,0,0,0,0,-1,1819,1163,0,0
602,-139,0,0,0,0,0,0,0,0,0,-1,1826,1163,0,0
609,-139,0,0,0,0,0,0,0,0,0,-1,1833,1163,0,0
616,-139,0,0,0,0,0,0,0,0,0,-1,1840,1163,0,0
623,-139,0,0,0,0,0,0,0,0,0,-1,1847,1163,0,0
630,-139,0,0,0,0,0,0,0,0,0,-1,1854,1163,0,0
637,-139,0,0,0,0,0,0,0,0,0,-1,1861,1163,0,0
644,-139,20.7308,2.54968,-0.000631964,-0.000698426,-0.0028483,0.0021833,-0.00351369,-0.779565,0.00331892,0.0418871,1868,1163,20.7308,-2.54964
651,-139,20.7981,2.62427,0.000189675,-3.68655e-05,-0.00216329,0.00224265,-0.00208985,-0.759242,0.00250189,0.0417968,1875,1163,20.7982,-2.62432
658,-139,20.7426,2.79907,0.000608176,0.000172376,-0.00143276,0.00183951,-0.00105896,-0.709934,0.00169354,0.0417069,1882,1163,20.7425,-2.79903
665,-139,20.619,2.96863,7.17446e-05,-0.000156475,-0.000195232,0.000183769,-0.000268499,-0.520933,0.00026264,0.0390722,1889,1163,20.6191,-2.96867
672,-139,20.5521,2.81262,-0.000957414,-0.000649938,0.0010673,0.000274636,-0.00188199,0.856928,0.00135551,0.0384971,1896,1163,20.5522,-2.81256
679,-139,20.5502,2.66528,-0.00210512,-0.00119937,0.0021528,0.000547674,-0.00385216,0.889069,0.00276878,0.0365542,1903,1163,20.5502,-2.66523
686,-139,20.556,2.73474,-0.00323823,-0.00174466,0.00305382,0.000652366,-0.00563525,0.905316,0.0039921,0.032899,1910,1163,20.5561,-2.73478
693,-139,20.5958,2.80481,-0.00417887,-0.00206001,0.00371048,0.000739322,-0.0069782,0.92446,0.00491713,0.0234871,1917,1163,20.5958,-2.80476
700,-139,20.7382,2.75281,-0.00495501,-0.00237737,0.00434845,0.000869237,-0.00820161,0.929467,0.00577932,0.0473716,1924,1163,20.7381,-2.75275
707,-139,20.8951,2.6969,0,0,0,0,0,0,0,-1,1931,1163,20.8952,-2.69691
714,-139,19.2561,4.50183,-0.00577416,-0.00254236,0.004738,0.000847719,-0.00916424,0.949738,0.00641078,0.028457,1938,1163,19.2561,-4.50187
721,-139,19.2676,4.33289,-0.00583305,-0.00229814,0.0046351,0.000895053,-0.00902624,0.967548,0.00633695,0.0208377,1945,1163,19.2676,-4.3329
728,-139,19.2336,4.26038,-0.00553741,-0.00210374,0.00430611,0.000815165,-0.00845632,0.975089,0.00592798,0.0211063,1952,1163,19.2337,-4.2604
735,-139,19.2284,4.19299,-0.00503615,-0.00153644,0.00368839,0.000796136,-0.00736873,1.00689,0.00519822,0.0167722,1959,1163,19.2284,-4.19296
742,-139,19.2738,4.04712,-0.00390735,-0.00090184,0.00273025,0.0007119,-0.00552109,1.03698,0.00393953,0.0217347,1966,1163,19.2738,-4.04716
749,-139,19.2867,3.96057,-0.00300096,-0.00206882,0.00125797,-0.00119336,-0.00387642,0.962805,0.00229248,0.0191353,1973,1163,19.2867,-3.96055
756,-139,19.256,3.85522,-0.00269304,-0.00309139,-0.000600541,-0.00225951,-0.00352492,-0.625278,0.00206192,0.0108308,1980,1163,19.2559,-3.85517
763,-139,19.2616,3.76501,-0.00366135,-0.00469516,-0.00306007,-0.00107483,-0.00728167,-0.701728,0.00453879,0.0104234,1987,1163,19.2616,-3.76497
770,-139,19.2579,3.67883,-0.00530064,-0.00764582,-0.00553613,-0.000814281,-0.0121322,-0.681037,0.00783082,0.0110778,1994,1163,19.2579,-3.6788
777,-139,19.2531,3.54272,-0.00857777,-0.0119081,-0.00860053,-0.00148268,-0.0190032,-0.689776,0.0122046,0.02225,2001,1163,19.2531,-3.54268
784,-139,19.3169,3.29248,-0.013551,-0.0174616,-0.0127337,-0.0026233,-0.0283892,-0.709217,0.0181151,0.0436727,2008,1163,19.3169,-3.29251
791,-139,19.3694,3.0448,0,0,0,0,0,0,0,-1,2015,1163,19.3693,-3.04478
798,-139,18.0139,3.7865,0,0,0,0,0,0,0,-1,2022,1163,18.0139,-3.78645
805,-139,17.3071,5.69226,0,0,0,0,0,0,0,-1,2029,1163,17.3071,-5.69227
812,-139,0,0,0,0,0,0,0,0,0,-1,2036,1163,0,0
-700,-146,0,0,0,0,0,0,0,0,0,-1,524,1170,0,0
-693,-146,-9.75281,-4.76331,-0.163981,0.0756852,0.0391233,0.08191,-0.170206,1.41301,0.148505,0.0425694,531,1170,-9.75282,4.76328
-686,-146,-11.4655,-4.31348,-0.130747,0.0624188,0.0375078,0.0694462,-0.137774,1.38559,0.121787,0.0482928,538,1170,-11.4655,4.31349
-679,-146,-13.1109,-3.8175,0,0,0,0,0,0,0,-1,545,1170,-13.1109,3.81751
-672,-146,-23.7955,-6.12317,0,0,0,0,0,0,0,-1,552,1170,-23.7955,6.12319
-665,-146,-11.2288,0.635986,0,0,0,0,0,0,0,-1,559,1170,-11.2287,-0.635928
-658,-146,-11.3033,0.807861,0,0,0,0,0,0,0,-1,566,1170,-11.3034,-0.80792
-651,-146,-11.4368,0.958252,-0.0333206,0.0186248,0.0158835,0.0230966,-0.0377924,1.29636,0.0354939,0.0371967,573,1170,-11.4368,-0.958243
-644,-146,-11.5339,1.10559,-0.0231776,0.0133891,0.0117324,0.0168297,-0.0266183,1.28554,0.025296,0.0191925,580,1170,-11.5339,-1.10564
-637,-146,-11.5598,1.22327,-0.0133472,0.00790233,0.00806619,0.0106173,-0.0160622,1.24612,0.01551,0.0105215,587,1170,-11.5598,-1.22325
-630,-146,-11.5807,1.36267,-0.0067031,0.00410198,0.00445613,0.00570263,-0.00830374,1.22595,0.00813293,0.0104121,594,1170,-11.5807,-1.36263
-623,-146,-11.5938,1.50159,-0.00550547,0.00281071,0.00126197,0.002998,-0.00569275,1.42346,0.00509738,0.0127401,601,1170,-11.5938,-1.50158
-616,-146,-11.6114,1.61255,-0.0057445,0.0011751,-0.00242415,0.00193983,-0.00650923,-1.26521,0.00511033,0.017913,608,1170,-11.6114,-1.61261
-609,-146,-11.5574,1.77234,-0.00652009,-0.000482638,-0.00493425,0.00228306,-0.00928578,-1.05992,0.00707541,0.0173696,615,1170,-11.5574,-1.7723
-602,-146,-11.657,1.96021,-0.00732479,-0.0013055,-0.00698296,0.00328878,-0.0119191,-0.988868,0.00923952,0.0222193,622,1170,-11.657,-1.96015
-595,-146,-11.6971,2.01355,-0.00803106,-0.00177056,-0.00867219,0.00431902,-0.0141206,-0.958598,0.0111362,0.0140384,629,1170,-11.6971,-2.01356
-588,-146,-11.6191,2.17944,-0.00854297,-0.00212621,-0.00984285,0.00501797,-0.0156872,-0.942948,0.0124719,0.0152217,636,1170,-11.6191,-2.17946
-581,-146,-11.4503,2.20129,0,0,0,0,0,0,0,-1,643,1170,-11.4503,-2.20134
-574,-146,-12.3141,1.54724,-0.00878984,-0.0023788,-0.0106963,0.00558199,-0.0167506,-0.930982,0.0134205,0.0449211,650,1170,-12.3141,-1.54726
-567,-146,-13.0718,0.878418,-0.00852651,-0.0024114,-0.0104329,0.00540271,-0.0163406,-0.927942,0.0130723,0.0417339,657,1170,-13.0718,-0.878471
-560,-146,-13.1583,1.01721,-0.00760997,-0.00224497,-0.00959368,0.00503418,-0.0148891,-0.921722,0.0119626,0.0374842,664,1170,-13.1583,-1.01722
-553,-146,-13.0878,1.00525,-0.00601883,-0.00191871,-0.00793603,0.00422777,-0.0121653,-0.911797,0.00982742,0.0386584,671,1170,-13.0878,-1.0053
-546,-146,-12.925,0.695557,-0.00382071,-0.00145022,-0.00539175,0.00288503,-0.00815595,-0.89359,0.00661221,0.0416345,678,1170,-12.925,-0.695611
-539,-146,-13.0801,0.680908,-0.00116859,-0.000866202,-0.00191811,0.000906658,-0.00294145,-0.82473,0.00232294,0.0398143,685,1170,-13.0802,-0.680961
-532,-146,-13.0843,0.566528,0.00172348,-0.000182305,0.00236503,0.00332036,-0.00177919,0.593893,0.00298871,0.0386727,692,1170,-13.0843,-0.566479
-525,-146,-12.902,0.52478,0.00337209,0.000175022,0.00584446,0.00783268,-0.00428557,0.651907,0.00709568,0.0431618,699,1170,-12.902,-0.524733
-518,-146,0,0,0,0,0,0,0,0,0,-1,706,1170,0,0
-511,-146,0,0,0,0,0,0,0,0,0,-1,713,1170,0,0
-504,-146,0,0,0,0,0,0,0,0,0,-1,720,1170,0,0
-497,-146,0,0,0,0,0,0,0,0,0,-1,727,1170,0,0
-490,-146,0,0,0,0,0,0,0,0,0,-1,734,1170,0,0
-483,-146,0,0,0,0,0,0,0,0,0,-1,741,1170,0,0
-476,-146,0,0,0,0,0,0,0,0,0,-1,748,1170,0,0
-469,-146,0,0,0,0,0,0,0,0,0,-1,755,1170,0,0
-462,-146,0,0,0,0,0,0,0,0,0,-1,762,1170,0,0
-455,-146,0,0,0,0,0,0,0,0,0,-1,769,1170,0,0
-448,-146,0,0,0,0,0,0,0,0,0,-1,776,1170,0,0
-441,-146,0,0,0,0,0,0,0,0,0,-1,783,1170,0,0
-434,-146,0,0,0,0,0,0,0,0,0,-1,790,1170,0,0
-427,-146,0,0,0,0,0,0,0,0,0,-1,797,1170,0,0
-420,-146,0,0,0,0,0,0,0,0,0,-1,804,1170,0,0
-413,-146,0,0,0,0,0,0,0,0,0,-1,811,1170,0,0
-406,-146,0,0,0,0,0,0,0,0,0,-1,818,1170,0,0
-399,-146,0,0,0,0,0,0,0,0,0,-1,825,1170,0,0
-392,-146,0,0,0,0,0,0,0,0,0,-1,832,1170,0,0
-385,-146,0,0,0,0,0,0,0,0,0,-1,839,1170,0,0
-378,-146,0,0,0,0,0,0,0,0,0,-1,846,1170,0,0
-371,-146,0,0,0,0,0,0,0,0,0,-1,853,1170,0,0
-364,-146,0,0,0,0,0,0,0,0,0,-1,860,1170,0,0
-357,-146,0,0,0,0,0,0,0,0,0,-1,867,1170,0,0
-350,-146,0,0,0,0,0,0,0,0,0,-1,874,1170,0,0
-343,-146,0,0,0,0,0,0,0,0,0,-1,881,1170,0,0
-336,-146,0,0,0,0,0,0,0,0,0,-1,888,1170,0,0
-329,-146,0,0,0,0,0,0,0,0,0,-1,895,1170,0,0
-322,-146,0,0,0,0,0,0,0,0,0,-1,902,1170,0,0
-315,-146,0,0,0,0,0,0,0,0,0,-1,909,1170,0,0
-308,-146,0,0,0,0,0,0,0,0,0,-1,916,1170,0,0
-301,-146,0,0,0,0,0,0,0,0,0,-1,923,1170,0,0
-294,-146,0,0,0,0,0,0,0,0,0,-1,930,1170,0,0
-287,-146,0,0,0,0,0,0,0,0,0,-1,937,1170,0,0
-280,-146,0,0,0,0,0,0,0,0,0,-1,944,1170,0,0
-273,-146,0,0,0,0,0,0,0,0,0,-1,951,1170,0,0
-266,-146,0,0,0,0,0,0,0,0,0,-1,958,1170,0,0
-259,-146,0,0,0,0,0,0,0,0,0,-1,965,1170,0,0
-252,-146,0,0,0,0,0,0,0,0,0,-1,972,1170,0,0
-245,-146,0,0,0,0,0,0,0,0,0,-1,979,1170,0,0
-238,-146,0,0,0,0,0,0,0,0,0,-1,986,1170,0,0
-231,-146,0,0,0,0,0,0,0,0,0,-1,993,1170,0,0
-224,-146,0,0,0,0,0,0,0,0,0,-1,1000,1170,0,0
-217,-146,0,0,0,0,0,0,0,0,0,-1,1007,1170,0,0
-210,-146,0,0,0,0,0,0,0,0,0,-1,1014,1170,0,0
-203,-146,0,0,0,0,0,0,0,0,0,-1,1021,1170,0,0
-196,-146,0,0,0,0,0,0,0,0,0,-1,1028,1170,0,0
-189,-146,0,0,0,0,0,0,0,0,0,-1,1035,1170,0,0
-182,-146,0,0,0,0,0,0,0,0,0,-1,1042,1170,0,0
-175,-146,0,0,0,0,0,0,0,0,0,-1,1049,1170,0,0
-168,-146,0,0,0,0,0,0,0,0,0,-1,1056,1170,0,0
-161,-146,0,0,0,0,0,0,0,0,0,-1,1063,1170,0,0
-154,-146,0,0,0,0,0,0,0,0,0,-1,1070,1170,0,0
-147,-146,0,0,0,0,0,0,0,0,0,-1,1077,1170,0,0
-140,-146,0,0,0,0,0,0,0,0,0,-1,1084,1170,0,0
-133,-146,0,0,0,0,0,0,0,0,0,-1,1091,1170,0,0
-126,-146,0,0,0,0,0,0,0,0,0,-1,1098,1170,0,0
-119,-146,0,0,0,0,0,0,0,0,0,-1,1105,1170,0,0
-112,-146,0,0,0,0,0,0,0,0,0,-1,1112,1170,0,0
-105,-146,0,0,0,0,0,0,0,0,0,-1,1119,1170,0,0
-98,-146,0,0,0,0,0,0,0,0,0,-1,1126,1170,0,0
-91,-146,0,0,0,0,0,0,0,0,0,-1,1133,1170,0,0
-84,-146,0,0,0,0,0,0,0,0,0,-1,1140,1170,0,0
-77,-146,0,0,0,0,0,0,0,0,0,-1,1147,1170,0,0
-70,-146,0,0,0,0,0,0,0,0,0,-1,1154,1170,0,0
-63,-146,0,0,0,0,0,0,0,0,0,-1,1161,1170,0,0
-56,-146,0,0,0,0,0,0,0,0,0,-1,1168,1170,0,0
-49,-146,0,0,0,0,0,0,0,0,0,-1,1175,1170,0,0
-42,-146,0,0,0,0,0,0,0,0,0,-1,1182,1170,0,0
-35,-146,0,0,0,0,0,0,0,0,0,-1,1189,1170,0,0
-28,-146,0,0,0,0,0,0,0,0,0,-1,1196,1170,0,0
-21,-146,0,0,0,0,0,0,0,0,0,-1,1203,1170,0,0
-14,-146,0,0,0,0,0,0,0,0,0,-1,1210,1170,0,0
-7,-146,0,0,0,0,0,0,0,0,0,-1,1217,1170,0,0
0,-146,0,0,0,0,0,0,0,0,0,-1,1224,1170,0,0
7,-146,0,0,0,0,0,0,0,0,0,-1,1231,1170,0,0
14,-146,0,0,0,0,0,0,0,0,0,-1,1238,1170,0,0
21,-146,0,0,0,0,0,0,0,0,0,-1,1245,1170,0,0
28,-146,0,0,0,0,0,0,0,0,0,-1,1252,1170,0,0
35,-146,0,0,0,0,0,0,0,0,0,-1,1259,1170,0,0
42,-146,0,0,0,0,0,0,0,0,0,-1,1266,1170,0,0
49,-146,0,0,0,0,0,0,0,0,0,-1,1273,1170,0,0
56,-146,0,0,0,0,0,0,0,0,0,-1,1280,1170,0,0
63,-146,0,0,0,0,0,0,0,0,0,-1,1287,1170,0,0
70,-146,0,0,0,0,0,0,0,0,0,-1,1294,1170,0,0
77,-146,0,0,0,0,0,0,0,0,0,-1,1301,1170,0,0
84,-146,0,0,0,0,0,0,0,0,0,-1,1308,1170,0,0
91,-146,0,0,0,0,0,0,0,0,0,-1,1315,1170,0,0
98,-146,0,0,0,0,0,0,0,0,0,-1,1322,1170,0,0
105,-146,0,0,0,0,0,0,0,0,0,-1,1329,1170,0,0
112,-146,0,0,0,0,0,0,0,0,0,-1,1336,1170,0,0
119,-146,0,0,0,0,0,0,0,0,0,-1,1343,1170,0,0
126,-146,0,0,0,0,0,0,0,0,0,-1,1350,1170,0,0
133,-146,0,0,0,0,0,0,0,0,0,-1,1357,1170,0,0
140,-146,0,0,0,0,0,0,0,0,0,-1,1364,1170,0,0
147,-146,0,0,0,0,0,0,0,0,0,-1,1371,1170,0,0
154,-146,0,0,0,0,0,0,0,0,0,-1,1378,1170,0,0
161,-146,0,0,0,0,0,0,0,0,0,-1,1385,1170,0,0
168,-146,0,0,0,0,0,0,0,0,0,-1,1392,1170,0,0
175,-146,0,0,0,0,0,0,0,0,0,-1,1399,1170,0,0
182,-146,0,0,0,0,0,0,0,0,0,-1,1406,1170,0,0
189,-146,0,0,0,0,0,0,0,0,0,-1,1413,1170,0,0
196,-146,0,0,0,0,0,0,0,0,0,-1,1420,1170,0,0
203,-146,0,0,0,0,0,0,0,0,0,-1,1427,1170,0,0
210,-146,0,0,0,0,0,0,0,0,0,-1,1434,1170,0,0
217,-146,0,0,0,0,0,0,0,0,0,-1,1441,1170,0,0
224,-146,0,0,0,0,0,0,0,0,0,-1,1448,1170,0,0
231,-146,0,0,0,0,0,0,0,0,0,-1,1455,1170,0,0
238,-146,0,0,0,0,0,0,0,0,0,-1,1462,1170,0,0
245,-146,0,0,0,0,0,0,0,0,0,-1,1469,1170,0,0
252,-146,0,0,0,0,0,0,0,0,0,-1,1476,1170,0,0
259,-146,0,0,0,0,0,0,0,0,0,-1,1483,1170,0,0
266,-146,0,0,0,0,0,0,0,0,0,-1,1490,1170,0,0
273,-146,0,0,0,0,0,0,0,0,0,-1,1497,1170,0,0
280,-146,0,0,0,0,0,0,0,0,0,-1,1504,1170,0,0
287,-146,0,0,0,0,0,0,0,0,0,-1,1511,1170,0,0
294,-146,0,0,0,0,0,0,0,0,0,-1,1518,1170,0,0
301,-146,0,0,0,0,0,0,0,0,0,-1,1525,1170,0,0
308,-146,0,0,0,0,0,0,0,0,0,-1,1532,1170,0,0
315,-146,0,0,0,0,0,0,0,0,0,-1,1539,1170,0,0
322,-146,0,0,0,0,0,0,0,0,0,-1,1546,1170,0,0
329,-146,0,0,0,0,0,0,0,0,0,-1,1553,1170,0,0
336,-146,0,0,0,0,0,0,0,0,0,-1,1560,1170,0,0
343,-146,0,0,0,0,0,0,0,0,0,-1,1567,1170,0,0
350,-146,0,0,0,0,0,0,0,0,0,-1,1574,1170,0,0
357,-146,0,0,0,0,0,0,0,0,0,-1,1581,1170,0,0
364,-146,0,0,0,0,0,0,0,0,0,-1,1588,1170,0,0
371,-146,0,0,0,0,0,0,0,0,0,-1,1595,1170,0,0
378,-146,0,0,0,0,0,0,0,0,0,-1,1602,1170,0,0
385,-146,0,0,0,0,0,0,0,0,0,-1,1609,1170,0,0
392,-146,0,0,0,0,0,0,0,0,0,-1,1616,1170,0,0
399,-146,0,0,0,0,0,0,0,0,0,-1,1623,1170,0,0
406,-146,0,0,0,0,0,0,0,0,0,-1,1630,1170,0,0
413,-146,0,0,0,0,0,0,0,0,0,-1,1637,1170,0,0
420,-146,0,0,0,0,0,0,0,0,0,-1,1644,1170,0,0
427,-146,0,0,0,0,0,0,0,0,0,-1,1651,1170,0,0
434,-146,0,0,0,0,0,0,0,0,0,-1,1658,1170,0,0
441,-146,0,0,0,0,0,0,0,0,0,-1,1665,1170,0,0
448,-146,0,0,0,0,0,0,0,0,0,-1,1672,1170,0,0
455,-146,0,0,0,0,0,0,0,0,0,-1,1679,1170,0,0
462,-146,0,0,0,0,0,0,0,0,0,-1,1686,1170,0,0
469,-146,0,0,0,0,0,0,0,0,0,-1,1693,1170,0,0
476,-146,0,0,0,0,0,0,0,0,0,-1,1700,1170,0,0
483,-146,0,0,0,0,0,0,0,0,0,-1,1707,1170,0,0
490,-146,0,0,0,0,0,0,0,0,0,-1,1714,1170,0,0
497,-146,0,0,0,0,0,0,0,0,0,-1,1721,1170,0,0
504,-146,0,0,0,0,0,0,0,0,0,-1,1728,1170,0,0
511,-146,0,0,0,0,0,0,0,0,0,-1,1735,1170,0,0
518,-146,0,0,0,0,0,0,0,0,0,-1,1742,1170,0,0
525,-146,0,0,0,0,0,0,0,0,0,-1,1749,1170,0,0
532,-146,0,0,0,0,0,0,0,0,0,-1,1756,1170,0,0
539,-146,0,0,0,0,0,0,0,0,0,-1,1763,1170,0,0
546,-146,0,0,0,0,0,0,0,0,0,-1,1770,1170,0,0
553,-146,0,0,0,0,0,0,0,0,0,-1,1777,1170,0,0
560,-146,0,0,0,0,0,0,0,0,0,-1,1784,1170,0,0
567,-146,0,0,0,0,0,0,0,0,0,-1,1791,1170,0,0
574,-146,0,0,0,0,0,0,0,0,0,-1,1798,1170,0,0
581,-146,0,0,0,0,0,0,0,0,0,-1,1805,1170,0,0
588,-146,0,0,0,0,0,0,0,0,0,-1,1812,1170,0,0
595,-146,0,0,0,0,0,0,0,0,0,-1,1819,1170,0,0
602,-146,0,0,0,0,0,0,0,0,0,-1,1826,1170,0,0
609,-146,0,0,0,0,0,0,0,0,0,-1,1833,1170,0,0
616,-146,0,0,0,0,0,0,0,0,0,-1,1840,1170,0,0
623,-146,0,0,0,0,0,0,0,0,0,-1,1847,1170,0,0
630,-146,0,0,0,0,0,0,0,0,0,-1,1854,1170,0,0
637,-146,20.7855,2.64929,-0.00131784,-0.000488848,-0.00199572,0.00113497,-0.00294165,-0.887788,0.00242946,0.0417068,1861,1170,20.7855,-2.64931
644,-146,20.7273,2.70789,-0.00112009,-0.000100916,-0.00155194,0.00102296,-0.00224396,-0.944029,0.00192957,0.0385238,1868,1170,20.7273,-2.70785
651,-146,20.6842,2.76404,2.5656e-05,0.000554758,-0.00138241,0.00169771,-0.00111729,-0.87994,0.00163671,0.0369964,1875,1170,20.6842,-2.76407
658,-146,20.7098,2.84058,0.000451574,0.000614324,-0.000921396,0.00145793,-0.000392034,-0.829442,0.00112562,0.0409195,1882,1170,20.7099,-2.84058
665,-146,20.6858,3.11011,-0.000115304,0.000170088,7.68314e-05,0.000189457,-0.000134674,1.32384,0.000188026,0.041069,1889,1170,20.6858,-3.11012
672,-146,20.6464,3.01392,-0.00112203,-0.000404044,0.00110011,0.000394164,-0.00192024,0.943113,0.00142977,0.0392567,1896,1170,20.6463,-3.01393
679,-146,20.6407,2.73511,-0.00227238,-0.00101784,0.00202177,0.000471732,-0.00376196,0.935818,0.0026791,0.0313866,1903,1170,20.6408,-2.73511
686,-146,20.5698,2.76257,-0.003396,-0.00161528,0.00277852,0.000412051,-0.00542334,0.940451,0.00376044,0.0238347,1910,1170,20.5698,-2.76252
693,-146,20.6455,2.75024,-0.00431802,-0.00195282,0.00335106,0.000418196,-0.00668903,0.955027,0.00460509,0.017106,1917,1170,20.6455,-2.75029
700,-146,20.7765,2.61426,0,0,0,0,0,0,0,-1,1924,1170,20.7765,-2.61428
707,-146,19.7625,3.96436,-0.00555577,-0.00250765,0.00429723,0.000527784,-0.0085912,0.955809,0.00591126,0.0338254,1931,1170,19.7624,-3.96441
714,-146,19.2344,4.47961,-0.00587114,-0.00251352,0.00426335,0.000389654,-0.00877431,0.972963,0.00598365,0.0263152,1938,1170,19.2344,-4.47965
721,-146,19.2167,4.35779,-0.00592956,-0.00231656,0.00418083,0.00043136,-0.00867748,0.989329,0.005934,0.032547,1945,1170,19.2166,-4.35779
728,-146,19.2355,4.23376,-0.00556635,-0.00209502,0.00391417,0.000451052,-0.00811241,0.994087,0.00556472,0.0239068,1952,1170,19.2355,-4.23371
735,-146,19.1265,4.20593,-0.0049617,-0.00154068,0.00333922,0.000500644,-0.00700302,1.0221,0.0048442,0.0164922,1959,1170,19.1264,-4.20591
742,-146,19.1469,4.06177,-0.00360872,-0.000902563,0.0023384,0.000446013,-0.0049573,1.04768,0.00346313,0.0167178,1966,1170,19.1469,-4.06178
749,-146,19.1494,3.96521,-0.00239257,-0.00185155,0.000839943,-0.00123963,-0.00300449,0.941182,0.00174345,0.0157835,1973,1170,19.1495,-3.96516
756,-146,19.1393,3.85767,-0.00172542,-0.00265969,-0.00110176,-0.000995849,-0.00338926,-0.584891,0.00201148,0.0120318,1980,1170,19.1392,-3.85764
763,-146,19.1309,3.75085,-0.00237701,-0.00410569,-0.0036259,0.000486147,-0.00696885,-0.668392,0.00481614,0.0105464,1987,1170,19.1309,-3.75083
770,-146,19.1355,3.64856,-0.00370707,-0.00686052,-0.00624016,0.00115249,-0.0117201,-0.661652,0.0082245,0.0107437,1994,1170,19.1355,-3.64857
777,-146,19.1431,3.52856,-0.00657652,-0.0108735,-0.00963776,0.00114933,-0.0185993,-0.67573,0.0127999,0.0195239,2001,1170,19.143,-3.52859
784,-146,19.1542,3.28418,-0.0111313,-0.0161706,-0.0142485,0.00081857,-0.0281205,-0.697886,0.0190257,0.0409223,2008,1170,19.1541,-3.2842
791,-146,19.1477,3.05396,0,0,0,0,0,0,0,-1,2015,1170,19.1477,-3.05391
798,-146,18.6661,3.33887,0,0,0,0,0,0,0,-1,2022,1170,18.6661,-3.33891
805,-146,18.3403,4.08777,0,0,0,0,0,0,0,-1,2029,1170,18.3403,-4.08781
812,-146,0,0,0,0,0,0,0,0,0,-1,2036,1170,0,0
-700,-153,0,0,0,0,0,0,0,0,0,-1,524,1177,0,0
-693,-153,0,0,0,0,0,0,0,0,0,-1,531,1177,0,0
-686,-153,-11.6814,-5.25793,0,0,0,0,0,0,0,-1,538,1177,-11.6814,5.25795
-679,-153,-22.2706,-8.29163,0,0,0,0,0,0,0,-1,545,1177,-22.2706,8.29163
-672,-153,-22.8798,-6.10974,-0.0768265,0.0312105,0.0300925,0.0390269,-0.0846429,1.31667,0.0730019,0.0495321,552,1177,-22.8798,6.10971
-665,-153,-23.5388,-3.95117,0,0,0,0,0,0,0,-1,559,1177,-23.5388,3.95112
-658,-153,-11.0841,0.740967,0,0,0,0,0,0,0,-1,566,1177,-11.0841,-0.740963
-651,-153,-11.2321,0.864868,-0.0300577,0.013456,0.0162001,0.0188249,-0.0354266,1.25078,0.0318072,0.0456923,573,1177,-11.232,-0.864908
-644,-153,-11.3519,1.06348,-0.0205416,0.00962359,0.0120456,0.0138434,-0.0247614,1.23384,0.0225836,0.0268549,580,1177,-11.3519,-1.06342
-637,-153,-11.4059,1.21936,-0.0116,0.00537431,0.00831389,0.00876791,-0.0149936,1.18325,0.0138748,0.0113054,587,1177,-11.4059,-1.2193
-630,-153,-11.4315,1.35254,-0.00561576,0.00263455,0.00477209,0.00481731,-0.00779852,1.1418,0.00735123,0.0102417,594,1177,-11.4315,-1.3526
-623,-153,-11.4529,1.48669,-0.00450436,0.00211814,0.00169255,0.00252564,-0.00491186,1.33453,0.00436709,0.0103547,601,1177,-11.4529,-1.48664
-616,-153,-11.4651,1.61902,-0.00465228,0.000945689,-0.00199199,0.00158216,-0.00528875,-1.26153,0.00415487,0.0127511,608,1177,-11.4651,-1.61897
-609,-153,-11.4464,1.75415,-0.00548367,-0.000564418,-0.00459109,0.0021844,-0.00823249,-1.03131,0.0063431,0.0174188,615,1177,-11.4464,-1.75409
-602,-153,-11.4717,1.88257,-0.00653556,-0.00145685,-0.00674784,0.00321363,-0.011206,-0.965363,0.00874108,0.0242812,622,1177,-11.4717,-1.88251
-595,-153,-11.5469,2.01843,-0.00731266,-0.00211384,-0.0085808,0.00425264,-0.0136791,-0.932471,0.0108192,0.0204588,629,1177,-11.5469,-2.01846
-588,-153,-11.5056,2.17175,-0.00764547,-0.00256107,-0.00977255,0.00499453,-0.0152011,-0.912646,0.0121461,0.0132228,636,1177,-11.5056,-2.17172
-581,-153,-11.4337,2.29834,-0.0077528,-0.00285196,-0.0104821,0.00546228,-0.016067,-0.900223,0.0129228,0.0207515,643,1177,-11.4336,-2.29829
-574,-153,-12.0717,1.36169,-0.00760639,-0.00306438,-0.0106488,0.00555292,-0.0162237,-0.890456,0.0130662,0.0446527,650,1177,-12.0717,-1.36168
-567,-153,-12.871,0.858521,-0.00731825,-0.00323727,-0.0104032,0.00532365,-0.0158792,-0.882239,0.0127371,0.0478021,657,1177,-12.8711,-0.858462
-560,-153,-13.1143,0.944336,-0.00646364,-0.00320135,-0.00963724,0.00494181,-0.0146068,-0.869231,0.0117372,0.0375148,664,1177,-13.1143,-0.944327
-553,-153,-13.063,0.938599,-0.00504697,-0.00300304,-0.00807645,0.00411585,-0.0121659,-0.848332,0.00977573,0.0368924,671,1177,-13.063,-0.938579
-546,-153,-13.1077,0.913574,0,0,0,0,0,0,0,-1,678,1177,-13.1076,-0.913601
-539,-153,-13.2278,0.751831,-0.000876221,-0.00209396,-0.00229575,0.00089003,-0.00386021,-0.655775,0.00291578,0.0387379,685,1177,-13.2278,-0.751862
-532,-153,-13.1132,0.596802,0.00161897,-0.00138215,0.00193,0.00256312,-0.0023263,0.454965,0.00282401,0.0403585,692,1177,-13.1132,-0.596771
-525,-153,-12.9559,0.665161,0.00315003,-0.000768911,0.00584642,0.00735661,-0.00497549,0.623702,0.00716404,0.0413445,699,1177,-12.956,-0.665189
-518,-153,0,0,0,0,0,0,0,0,0,-1,706,1177,0,0
-511,-153,0,0,0,0,0,0,0,0,0,-1,713,1177,0,0
-504,-153,0,0,0,0,0,0,0,0,0,-1,720,1177,0,0
-497,-153,0,0,0,0,0,0,0,0,0,-1,727,1177,0,0
-490,-153,0,0,0,0,0,0,0,0,0,-1,734,1177,0,0
-483,-153,0,0,0,0,0,0,0,0,0,-1,741,1177,0,0
-476,-153,0,0,0,0,0,0,0,0,0,-1,748,1177,0,0
-469,-153,0,0,0,0,0,0,0,0,0,-1,755,1177,0,0
-462,-153,0,0,0,0,0,0,0,0,0,-1,762,1177,0,0
-455,-153,0,0,0,0,0,0,0,0,0,-1,769,1177,0,0
-448,-153,0,0,0,0,0,0,0,0,0,-1,776,1177,0,0
-441,-153,0,0,0,0,0,0,0,0,0,-1,783,1177,0,0
-434,-153,0,0,0,0,0,0,0,0,0,-1,790,1177,0,0
-427,-153,0,0,0,0,0,0,0,0,0,-1,797,1177,0,0
-420,-153,0,0,0,0,0,0,0,0,0,-1,804,1177,0,0
-413,-153,0,0,0,0,0,0,0,0,0,-1,811,1177,0,0
-406,-153,0,0,0,0,0,0,0,0,0,-1,818,1177,0,0
-399,-153,0,0,0,0,0,0,0,0,0,-1,825,1177,0,0
-392,-153,0,0,0,0,0,0,0,0,0,-1,832,1177,0,0
-385,-153,0,0,0,0,0,0,0,0,0,-1,839,1177,0,0
-378,-153,0,0,0,0,0,0,0,0,0,-1,846,1177,0,0
-371,-153,0,0,0,0,0,0,0,0,0,-1,853,1177,0,0
-364,-153,0,0,0,0,0,0,0,0,0,-1,860,1177,0,0
-357,-153,0,0,0,0,0,0,0,0,0,-1,867,1177,0,0
-350,-153,0,0,0,0,0,0,0,0,0,-1,874,1177,0,0
-343,-153,0,0,0,0,0,0,0,0,0,-1,881,1177,0,0
-336,-153,0,0,0,0,0,0,0,0,0,-1,888,1177,0,0
-329,-153,0,0,0,0,0,0,0,0,0,-1,895,1177,0,0
-322,-153,0,0,0,0,0,0,0,0,0,-1,902,1177,0,0
-315,-153,0,0,0,0,0,0,0,0,0,-1,909,1177,0,0
-308,-153,0,0,0,0,0,0,0,0,0,-1,916,1177,0,0
-301,-153,0,0,0,0,0,0,0,0,0,-1,923,1177,0,0
-294,-153,0,0,0,0,0,0,0,0,0,-1,930,1177,0,0
-287,-153,0,0,0,0,0,0,0,0,0,-1,937,1177,0,0
-280,-153,0,0,0,0,0,0,0,0,0,-1,944,1177,0,0
-273,-153,0,0,0,0,0,0,0,0,0,-1,951,1177,0,0
-266,-153,0,0,0,0,0,0,0,0,0,-1,958,1177,0,0
-259,-153,0,0,0,0,0,0,0,0,0,-1,965,1177,0,0
-252,-153,0,0,0,0,0,0,0,0,0,-1,972,1177,0,0
-245,-153,0,0,0,0,0,0,0,0,0,-1,979,1177,0,0
-238,-153,0,0,0,0,0,0,0,0,0,-1,986,1177,0,0
-231,-153,0,0,0,0,0,0,0,0,0,-1,993,1177,0,0
-224,-153,0,0,0,0,0,0,0,0,0,-1,1000,1177,0,0
-217,-153,0,0,0,0,0,0,0,0,0,-1,1007,1177,0,0
-210,-153,0,0,0,0,0,0,0,0,0,-1,1014,1177,0,0
-203,-153,0,0,0,0,0,0,0,0,0,-1,1021,1177,0,0
-196,-153,0,0,0,0,0,0,0,0,0,-1,1028,1177,0,0
-189,-153,0,0,0,0,0,0,0,0,0,-1,1035,1177,0,0
-182,-153,0,0,0,0,0,0,0,0,0,-1,1042,1177,0,0
-175,-153,0,0,0,0,0,0,0,0,0,-1,1049,1177,0,0
-168,-153,0,0,0,0,0,0,0,0,0,-1,1056,1177,0,0
-161,-153,0,0,0,0,0,0,0,0,0,-1,1063,1177,0,0
-154,-153,0,0,0,0,0,0,0,0,0,-1,1070,1177,0,0
-147,-153,0,0,0,0,0,0,0,0,0,-1,1077,1177,0,0
-140,-153,0,0,0,0,0,0,0,0,0,-1,1084,1177,0,0
-133,-153,0,0,0,0,0,0,0,0,0,-1,1091,1177,0,0
-126,-153,0,0,0,0,0,0,0,0,0,-1,1098,1177,0,0
-119,-153,0,0,0,0,0,0,0,0,0,-1,1105,1177,0,0
-112,-153,0,0,0,0,0,0,0,0,0,-1,1112,1177,0,0
-105,-153,0,0,0,0,0,0,0,0,0,-1,1119,1177,0,0
-98,-153,0,0,0,0,0,0,0,0,0,-1,1126,1177,0,0
-91,-153,0,0,0,0,0,0,0,0,0,-1,1133,1177,0,0
-84,-153,0,0,0,0,0,0,0,0,0,-1,1140,1177,0,0
-77,-153,0,0,0,0,0,0,0,0,0,-1,1147,1177,0,0
-70,-153,0,0,0,0,0,0,0,0,0,-1,1154,1177,0,0
-63,-153,0,0,0,0,0,0,0,0,0,-1,1161,1177,0,0
-56,-153,0,0,0,0,0,0,0,0,0,-1,1168,1177,0,0
-49,-153,0,0,0,0,0,0,0,0,0,-1,1175,1177,0,0
-42,-153,0,0,0,0,0,0,0,0,0,-1,1182,1177,0,0
-35,-153,0,0,0,0,0,0,0,0,0,-1,1189,1177,0,0
-28,-153,0,0,0,0,0,0,0,0,0,-1,1196,1177,0,0
-21,-153,0,0,0,0,0,0,0,0,0,-1,1203,1177,0,0
-14,-153,0,0,0,0,0,0,0,0,0,-1,1210,1177,0,0
-7,-153,0,0,0,0,0,0,0,0,0,-1,1217,1177,0,0
0,-153,0,0,0,0,0,0,0,0,0,-1,1224,1177,0,0
7,-153,0,0,0,0,0,0,0,0,0,-1,1231,1177,0,0
14,-153,0,0,0,0,0,0,0,0,0,-1,1238,1177,0,0
21,-153,0,0,0,0,0,0,0,0,0,-1,1245,1177,0,0
28,-153,0,0,0,0,0,0,0,0,0,-1,1252,1177,0,0
35,-153,0,0,0,0,0,0,0,0,0,-1,1259,1177,0,0
42,-153,0,0,0,0,0,0,0,0,0,-1,1266,1177,0,0
49,-153,0,0,0,0,0,0,0,0,0,-1,1273,1177,0,0
56,-153,0,0,0,0,0,0,0,0,0,-1,1280,1177,0,0
63,-153,0,0,0,0,0,0,0,0,0,-1,1287,1177,0,0
70,-153,0,0,0,0,0,0,0,0,0,-1,1294,1177,0,0
77,-153,0,0,0,0,0,0,0,0,0,-1,1301,1177,0,0
84,-153,0,0,0,0,0,0,0,0,0,-1,1308,1177,0,0
91,-153,0,0,0,0,0,0,0,0,0,-1,1315,1177,0,0
98,-153,0,0,0,0,0,0,0,0,0,-1,1322,1177,0,0
105,-153,0,0,0,0,0,0,0,0,0,-1,1329,1177,0,0
112,-153,0,0,0,0,0,0,0,0,0,-1,1336,1177,0,0
119,-153,0,0,0,0,0,0,0,0,0,-1,1343,1177,0,0
126,-153,0,0,0,0,0,0,0,0,0,-1,1350,1177,0,0
133,-153,0,0,0,0,0,0,0,0,0,-1,1357,1177,0,0
140,-153,0,0,0,0,0,0,0,0,0,-1,1364,1177,0,0
147,-153,0,0,0,0,0,0,0,0,0,-1,1371,1177,0,0
154,-153,0,0,0,0,0,0,0,0,0,-1,1378,1177,0,0
161,-153,0,0,0,0,0,0,0,0,0,-1,1385,1177,0,0
168,-153,0,0,0,0,0,0,0,0,0,-1,1392,1177,0,0
175,-153,0,0,0,0,0,0,0,0,0,-1,1399,1177,0,0
182,-153,0,0,0,0,0,0,0,0,0,-1,1406,1177,0,0
189,-153,0,0,0,0,0,0,0,0,0,-1,1413,1177,0,0
196,-153,0,0,0,0,0,0,0,0,0,-1,1420,1177,0,0
203,-153,0,0,0,0,0,0,0,0,0,-1,1427,1177,0,0
210,-153,0,0,0,0,0,0,0,0,0,-1,1434,1177,0,0
217,-153,0,0,0,0,0,0,0,0,0,-1,1441,1177,0,0
224,-153,0,0,0,0,0,0,0,0,0,-1,1448,1177,0,0
231,-153,0,0,0,0,0,0,0,0,0,-1,1455,1177,0,0
238,-153,0,0,0,0,0,0,0,0,0,-1,1462,1177,0,0
245,-153,0,0,0,0,0,0,0,0,0,-1,1469,1177,0,0
252,-153,0,0,0,0,0,0,0,0,0,-1,1476,1177,0,0
259,-153,0,0,0,0,0,0,0,0,0,-1,1483,1177,0,0
266,-153,0,0,0,0,0,0,0,0,0,-1,1490,1177,0,0
273,-153,0,0,0,0,0,0,0,0,0,-1,1497,1177,0,0
280,-153,0,0,0,0,0,0,0,0,0,-1,1504,1177,0,0
287,-153,0,0,0,0,0,0,0,0,0,-1,1511,1177,0,0
294,-153,0,0,0,0,0,0,0,0,0,-1,1518,1177,0,0
301,-153,0,0,0,0,0,0,0,0,0,-1,1525,1177,0,0
308,-153,0,0,0,0,0,0,0,0,0,-1,1532,1177,0,0
315,-153,0,0,0,0,0,0,0,0,0,-1,1539,1177,0,0
322,-153,0,0,0,0,0,0,0,0,0,-1,1546,1177,0,0
329,-153,0,0,0,0,0,0,0,0,0,-1,1553,1177,0,0
336,-153,0,0,0,0,0,0,0,0,0,-1,1560,1177,0,0
343,-153,0,0,0,0,0,0,0,0,0,-1,1567,1177,0,0
350,-153,0,0,0,0,0,0,0,0,0,-1,1574,1177,0,0
357,-153,0,0,0,0,0,0,0,0,0,-1,1581,1177,0,0
364,-153,0,0,0,0,0,0,0,0,0,-1,1588,1177,0,0
371,-153,0,0,0,0,0,0,0,0,0,-1,1595,1177,0,0
378,-153,0,0,0,0,0,0,0,0,0,-1,1602,1177,0,0
385,-153,0,0,0,0,0,0,0,0,0,-1,1609,1177,0,0
392,-153,0,0,0,0,0,0,0,0,0,-1,1616,1177,0,0
399,-153,0,0,0,0,0,0,0,0,0,-1,1623,1177,0,0
406,-153,0,0,0,0,0,0,0,0,0,-1,1630,1177,0,0
413,-153,0,0,0,0,0,0,0,0,0,-1,1637,1177,0,0
420,-153,0,0,0,0,0,0,0,0,0,-1,1644,1177,0,0
427,-153,0,0,0,0,0,0,0,0,0,-1,1651,1177,0,0
434,-153,0,0,0,0,0,0,0,0,0,-1,1658,1177,0,0
441,-153,0,0,0,0,0,0,0,0,0,-1,1665,1177,0,0
448,-153,0,0,0,0,0,0,0,0,0,-1,1672,1177,0,0
455,-153,0,0,0,0,0,0,0,0,0,-1,1679,1177,0,0
462,-153,0,0,0,0,0,0,0,0,0,-1,1686,1177,0,0
469,-153,0,0,0,0,0,0,0,0,0,-1,1693,1177,0,0
476,-153,0,0,0,0,0,0,0,0,0,-1,1700,1177,0,0
483,-153,0,0,0,0,0,0,0,0,0,-1,1707,1177,0,0
490,-153,0,0,0,0,0,0,0,0,0,-1,1714,1177,0,0
497,-153,0,0,0,0,0,0,0,0,0,-1,1721,1177,0,0
504,-153,0,0,0,0,0,0,0,0,0,-1,1728,1177,0,0
511,-153,0,0,0,0,0,0,0,0,0,-1,1735,1177,0,0
518,-153,0,0,0,0,0,0,0,0,0,-1,1742,1177,0,0
525,-153,0,0,0,0,0,0,0,0,0,-1,1749,1177,0,0
532,-153,0,0,0,0,0,0,0,0,0,-1,1756,1177,0,0
539,-153,0,0,0,0,0,0,0,0,0,-1,1763,1177,0,0
546,-153,0,0,0,0,0,0,0,0,0,-1,1770,1177,0,0
553,-153,0,0,0,0,0,0,0,0,0,-1,1777,1177,0,0
560,-153,0,0,0,0,0,0,0,0,0,-1,1784,1177,0,0
567,-153,0,0,0,0,0,0,0,0,0,-1,1791,1177,0,0
574,-153,0,0,0,0,0,0,0,0,0,-1,1798,1177,0,0
581,-153,0,0,0,0,0,0,0,0,0,-1,1805,1177,0,0
588,-153,0,0,0,0,0,0,0,0,0,-1,1812,1177,0,0
595,-153,0,0,0,0,0,0,0,0,0,-1,1819,1177,0,0
602,-153,0,0,0,0,0,0,0,0,0,-1,1826,1177,0,0
609,-153,0,0,0,0,0,0,0,0,0,-1,1833,1177,0,0
616,-153,0,0,0,0,0,0,0,0,0,-1,1840,1177,0,0
623,-153,0,0,0,0,0,0,0,0,0,-1,1847,1177,0,0
630,-153,0,0,0,0,0,0,0,0,0,-1,1854,1177,0,0
637,-153,20.6188,2.68921,-0.00197959,0.000296679,-0.000533136,0.00041536,-0.00209827,-1.35176,0.00155589,0.0428872,1861,1177,20.6187,-2.68923
644,-153,20.6545,2.75464,-0.00142547,0.000505579,-0.000610254,0.000682267,-0.00160215,-1.28897,0.00135409,0.0389738,1868,1177,20.6545,-2.75458
651,-153,20.5789,2.67969,7.09837e-06,0.00102176,-0.0008728,0.00152397,-0.000495107,-1.04866,0.00121512,0.0316747,1875,1177,20.5789,-2.67963
658,-153,20.6024,2.73035,0.000440636,0.000838506,-0.000634958,0.00130496,-2.5821e-05,-0.937207,0.000878709,0.0359195,1882,1177,20.6025,-2.73039
665,-153,20.668,2.96265,-0.00010242,0.000246137,0.000137016,0.000293548,-0.000149832,1.23766,0.000260429,0.0380048,1889,1177,20.668,-2.9626
672,-153,20.6021,2.72839,-0.00105734,-0.000423267,0.000956099,0.00026699,-0.00174759,0.94549,0.0012635,0.0363804,1896,1177,20.602,-2.7284
679,-153,20.5649,2.68152,-0.00219195,-0.0010961,0.00174554,0.000185491,-0.00347354,0.937477,0.00237994,0.0282627,1903,1177,20.5649,-2.68151
686,-153,20.5868,2.7417,-0.00329202,-0.00172474,0.00238935,6.19143e-06,-0.00502295,0.943857,0.0033507,0.0192148,1910,1177,20.5868,-2.74175
693,-153,20.681,2.69275,-0.00419233,-0.00207236,0.00289898,-4.566e-05,-0.00621903,0.960669,0.00413088,0.0313384,1917,1177,20.681,-2.6928
700,-153,20.7975,2.57568,0,0,0,0,0,0,0,-1,1924,1177,20.7975,-2.57571
707,-153,19.7382,4.09558,-0.00539321,-0.00261713,0.00379419,3.49395e-05,-0.00804528,0.960753,0.00537521,0.0451449,1931,1177,19.7381,-4.09559
714,-153,19.1714,4.42078,-0.0057204,-0.00262676,0.00375053,-0.000116593,-0.00823057,0.980985,0.0054486,0.0269287,1938,1177,19.1714,-4.42083
721,-153,19.1897,4.3158,-0.00579824,-0.00245333,0.00372265,-4.47002e-05,-0.00820687,0.99652,0.00545641,0.0214346,1945,1177,19.1897,-4.31584
728,-153,19.2075,4.23035,-0.00540896,-0.00217909,0.00353945,9.64431e-05,-0.0076845,0.999425,0.00515545,0.0261366,1952,1177,19.2075,-4.23032
735,-153,19.0344,4.18726,-0.00472097,-0.0015913,0.00304197,0.000264726,-0.00657699,1.02295,0.00447551,0.0161689,1959,1177,19.0344,-4.1872
742,-153,19.0461,4.06738,-0.00314104,-0.000939252,0.0020361,0.000274522,-0.00435481,1.03323,0.00299891,0.0141773,1966,1177,19.0461,-4.0674
749,-153,19.0497,3.96301,-0.00157982,-0.0016411,0.00054461,-0.00106499,-0.00215593,0.757294,0.00124476,0.0154935,1973,1177,19.0496,-3.96301
756,-153,19.0459,3.86194,-0.000470165,-0.00222912,-0.00139443,0.000298965,-0.00299825,-0.504051,0.00210557,0.010787,1980,1177,19.0458,-3.86193
763,-153,19.0328,3.75793,-0.000639938,-0.00349354,-0.00390054,0.00208657,-0.00622005,-0.61006,0.00498983,0.0102825,1987,1177,19.0328,-3.75788
770,-153,19.0386,3.63782,-0.00141993,-0.00600785,-0.00662753,0.00329941,-0.0107272,-0.618788,0.0084683,0.00999709,1994,1177,19.0385,-3.63782
777,-153,19.0665,3.50024,-0.00354778,-0.00973121,-0.0103421,0.00415479,-0.0174338,-0.640153,0.0132268,0.0211961,2001,1177,19.0665,-3.50024
784,-153,19.0808,3.2876,0,0,0,0,0,0,0,-1,2008,1177,19.0809,-3.28755
791,-153,19.4299,1.45166,0,0,0,0,0,0,0,-1,2015,1177,19.4299,-1.45172
798,-153,19.5514,0.267212,0,0,0,0,0,0,0,-1,2022,1177,19.5513,-0.267254
805,-153,18.7599,2.80322,0,0,0,0,0,0,0,-1,2029,1177,18.7598,-2.80317
812,-153,0,0,0,0,0,0,0,0,0,-1,2036,1177,0,0
-700,-160,0,0,0,0,0,0,0,0,0,-1,524,1184,0,0
-693,-160,0,0,0,0,0,0,0,0,0,-1,531,1184,0,0
-686,-160,-21.0641,-9.92236,0,0,0,0,0,0,0,-1,538,1184,-21.0641,9.92242
-679,-160,-21.9322,-8.67151,0,0,0,0,0,0,0,-1,545,1184,-21.9322,8.67146
-672,-160,-21.9555,-6.06519,0,0,0,0,0,0,0,-1,552,1184,-21.9555,6.06522
-665,-160,-22.5021,-3.85095,0,0,0,0,0,0,0,-1,559,1184,-22.502,3.85098
-658,-160,-14.0542,1.29346,0,0,0,0,0,0,0,-1,566,1184,-14.0542,-1.29347
-651,-160,-11.0338,0.87085,0,0,0,0,0,0,0,-1,573,1184,-11.0338,-0.870824
-644,-160,-11.1374,1.03711,-0.0192935,0.00529362,0.0119918,0.0101737,-0.0241736,1.18431,0.0203721,0.0377336,580,1184,-11.1374,-1.03713
-637,-160,-11.2415,1.20105,-0.0110503,0.00259614,0.00836078,0.00656453,-0.0150187,1.12764,0.0127758,0.0143999,587,1184,-11.2415,-1.20102
-630,-160,-11.2884,1.33215,-0.00550465,0.00107856,0.00501739,0.00378769,-0.00821378,1.0757,0.00708438,0.00876501,594,1184,-11.2884,-1.33218
-623,-160,-11.3319,1.44812,-0.00408756,0.00140669,0.00210841,0.00212253,-0.00480339,1.24349,0.00409732,0.0110979,601,1184,-11.3319,-1.44815
-616,-160,-11.329,1.57629,-0.00383359,0.000756455,-0.00148568,0.00119536,-0.0042725,-1.28354,0.00331933,0.00995156,608,1184,-11.329,-1.5763
-609,-160,-11.2994,1.75671,-0.00448804,-0.000505739,-0.00411997,0.00207901,-0.00707278,-1.01049,0.00553979,0.0120719,615,1184,-11.2994,-1.75672
-602,-160,-11.2819,1.93213,-0.00551154,-0.00152465,-0.00635508,0.00314231,-0.0101785,-0.937377,0.00804045,0.0185332,622,1184,-11.2819,-1.93214
-595,-160,-11.2908,2.10547,-0.00615935,-0.00246494,-0.0083124,0.00420303,-0.0128273,-0.894733,0.0102441,0.0220089,629,1184,-11.2908,-2.10548
-588,-160,-11.3768,2.18799,-0.00626624,-0.00305295,-0.00951077,0.00498592,-0.0143051,-0.869073,0.0115628,0.0209309,636,1184,-11.3768,-2.188
-581,-160,-11.2922,2.32178,-0.00618899,-0.00351407,-0.0102167,0.0054523,-0.0151554,-0.850483,0.0123296,0.0181284,643,1184,-11.2922,-2.32173
-574,-160,-11.7766,2.25317,-0.00591765,-0.00386392,-0.0103652,0.0055252,-0.0153068,-0.834771,0.0124615,0.0474135,650,1184,-11.7765,-2.25323
-567,-160,-12.3776,0.577148,-0.00558677,-0.00417929,-0.0101202,0.00526158,-0.0150276,-0.820111,0.0121579,0.0498095,657,1184,-12.3777,-0.577179
-560,-160,-13.0696,0.787598,-0.00480599,-0.00426913,-0.0094236,0.00488986,-0.013965,-0.799637,0.0112983,0.0378945,664,1184,-13.0697,-0.787556
-553,-160,-12.9854,0.775024,-0.00359641,-0.004182,-0.00796924,0.00408541,-0.0118638,-0.767036,0.00956636,0.0377586,671,1184,-12.9854,-0.77497
-546,-160,-13.0002,0.629395,-0.0020379,-0.00386982,-0.00568646,0.0028059,-0.00871362,-0.705546,0.00693621,0.0386193,678,1184,-13.0002,-0.629369
-539,-160,-13.0513,0.594849,-0.000280065,-0.00329942,-0.00253639,0.00116194,-0.00474142,-0.516955,0.00361112,0.0402945,685,1184,-13.0513,-0.594834
-532,-160,-12.9124,0.542847,0.00162885,-0.00243355,0.00149078,0.00211722,-0.00292191,0.316572,0.00292168,0.0407245,692,1184,-12.9124,-0.542889
-525,-160,-12.8701,0.643066,0.00275137,-0.00140779,0.00558806,0.00663427,-0.00529069,0.607264,0.00689942,0.0386866,699,1184,-12.8701,-0.643057
-518,-160,-12.9304,0.748779,0.0017466,-0.00122805,0.00718995,0.00760145,-0.00708289,0.683406,0.00847977,0.038212,706,1184,-12.9304,-0.748774
-511,-160,0,0,0,0,0,0,0,0,0,-1,713,1184,0,0
-504,-160,0,0,0,0,0,0,0,0,0,-1,720,1184,0,0
-497,-160,0,0,0,0,0,0,0,0,0,-1,727,1184,0,0
-490,-160,0,0,0,0,0,0,0,0,0,-1,734,1184,0,0
-483,-160,0,0,0,0,0,0,0,0,0,-1,741,1184,0,0
-476,-160,0,0,0,0,0,0,0,0,0,-1,748,1184,0,0
-469,-160,0,0,0,0,0,0,0,0,0,-1,755,1184,0,0
-462,-160,0,0,0,0,0,0,0,0,0,-1,762,1184,0,0
-455,-160,0,0,0,0,0,0,0,0,0,-1,769,1184,0,0
-448,-160,0,0,0,0,0,0,0,0,0,-1,776,1184,0,0
-441,-160,0,0,0,0,0,0,0,0,0,-1,783,1184,0,0
-434,-160,0,0,0,0,0,0,0,0,0,-1,790,1184,0,0
-427,-160,0,0,0,0,0,0,0,0,0,-1,797,1184,0,0
-420,-160,0,0,0,0,0,0,0,0,0,-1,804,1184,0,0
-413,-160,0,0,0,0,0,0,0,0,0,-1,811,1184,0,0
-406,-160,0,0,0,0,0,0,0,0,0,-1,818,1184,0,0
-399,-160,0,0,0,0,0,0,0,0,0,-1,825,1184,0,0
-392,-160,0,0,0,0,0,0,0,0,0,-1,832,1184,0,0
-385,-160,0,0,0,0,0,0,0,0,0,-1,839,1184,0,0
-378,-160,0,0,0,0,0,0,0,0,0,-1,846,1184,0,0
-371,-160,0,0,0,0,0,0,0,0,0,-1,853,1184,0,0
-364,-160,0,0,0,0,0,0,0,0,0,-1,860,1184,0,0
-357,-160,0,0,0,0,0,0,0,0,0,-1,867,1184,0,0
-350,-160,0,0,0,0,0,0,0,0,0,-1,874,1184,0,0
-343,-160,0,0,0,0,0,0,0,0,0,-1,881,1184,0,0
-336,-160,0,0,0,0,0,0,0,0,0,-1,888,1184,0,0
-329,-160,0,0,0,0,0,0,0,0,0,-1,895,1184,0,0
-322,-160,0,0,0,0,0,0,0,0,0,-1,902,1184,0,0
-315,-160,0,0,0,0,0,0,0,0,0,-1,909,1184,0,0
-308,-160,0,0,0,0,0,0,0,0,0,-1,916,1184,0,0
-301,-160,0,0,0,0,0,0,0,0,0,-1,923,1184,0,0
-294,-160,0,0,0,0,0,0,0,0,0,-1,930,1184,0,0
-287,-160,0,0,0,0,0,0,0,0,0,-1,937,1184,0,0
-280,-160,0,0,0,0,0,0,0,0,0,-1,944,1184,0,0
-273,-160,0,0,0,0,0,0,0,0,0,-1,951,1184,0,0
-266,-160,0,0,0,0,0,0,0,0,0,-1,958,1184,0,0
-259,-160,0,0,0,0,0,0,0,0,0,-1,965,1184,0,0
-252,-160,0,0,0,0,0,0,0,0,0,-1,972,1184,0,0
-245,-160,0,0,0,0,0,0,0,0,0,-1,979,1184,0,0
-238,-160,0,0,0,0,0,0,0,0,0,-1,986,1184,0,0
-231,-160,0,0,0,0,0,0,0,0,0,-1,993,1184,0,0
-224,-160,0,0,0,0,0,0,0,0,0,-1,1000,1184,0,0
-217,-160,0,0,0,0,0,0,0,0,0,-1,1007,1184,0,0
-210,-160,0,0,0,0,0,0,0,0,0,-1,1014,1184,0,0
-203,-160,0,0,0,0,0,0,0,0,0,-1,1021,1184,0,0
-196,-160,0,0,0,0,0,0,0,0,0,-1,1028,1184,0,0
-189,-160,0,0,0,0,0,0,0,0,0,-1,1035,1184,0,0
-182,-160,0,0,0,0,0,0,0,0,0,-1,1042,1184,0,0
-175,-160,0,0,0,0,0,0,0,0,0,-1,1049,1184,0,0
-168,-160,0,0,0,0,0,0,0,0,0,-1,1056,1184,0,0
-161,-160,0,0,0,0,0,0,0,0,0,-1,1063,1184,0,0
-154,-160,0,0,0,0,0,0,0,0,0,-1,1070,1184,0,0
-147,-160,0,0,0,0,0,0,0,0,0,-1,1077,1184,0,0
-140,-160,0,0,0,0,0,0,0,0,0,-1,1084,1184,0,0
-133,-160,0,0,0,0,0,0,0,0,0,-1,1091,1184,0,0
-126,-160,0,0,0,0,0,0,0,0,0,-1,1098,1184,0,0
-119,-160,0,0,0,0,0,0,0,0,0,-1,1105,1184,0,0
-112,-160,0,0,0,0,0,0,0,0,0,-1,1112,1184,0,0
-105,-160,0,0,0,0,0,0,0,0,0,-1,1119,1184,0,0
-98,-160,0,0,0,0,0,0,0,0,0,-1,1126,1184,0,0
-91,-160,0,0,0,0,0,0,0,0,0,-1,1133,1184,0,0
-84,-160,0,0,0,0,0,0,0,0,0,-1,1140,1184,0,0
-77,-160,0,0,0,0,0,0,0,0,0,-1,1147,1184,0,0
-70,-160,0,0,0,0,0,0,0,0,0,-1,1154,1184,0,0
-63,-160,0,0,0,0,0,0,0,0,0,-1,1161,1184,0,0
-56,-160,0,0,0,0,0,0,0,0,0,-1,1168,1184,0,0
-49,-160,0,0,0,0,0,0,0,0,0,-1,1175,1184,0,0
-42,-160,0,0,0,0,0,0,0,0,0,-1,1182,1184,0,0
-35,-160,0,0,0,0,0,0,0,0,0,-1,1189,1184,0,0
-28,-160,0,0,0,0,0,0,0,0,0,-1,1196,1184,0,0
-21,-160,0,0,0,0,0,0,0,0,0,-1,1203,1184,0,0
-14,-160,0,0,0,0,0,0,0,0,0,-1,1210,1184,0,0
-7,-160,0,0,0,0,0,0,0,0,0,-1,1217,1184,0,0
0,-160,0,0,0,0,0,0,0,0,0,-1,1224,1184,0,0
7,-160,0,0,0,0,0,0,0,0,0,-1,1231,1184,0,0
14,-160,0,0,0,0,0,0,0,0,0,-1,1238,1184,0,0
21,-160,0,0,0,0,0,0,0,0,0,-1,1245,1184,0,0
28,-160,0,0,0,0,0,0,0,0,0,-1,1252,1184,0,0
35,-160,0,0,0,0,0,0,0,0,0,-1,1259,1184,0,0
42,-160,0,0,0,0,0,0,0,0,0,-1,1266,1184,0,0
49,-160,0,0,0,0,0,0,0,0,0,-1,1273,1184,0,0
56,-160,0,0,0,0,0,0,0,0,0,-1,1280,1184,0,0
63,-160,0,0,0,0,0,0,0,0,0,-1,1287,1184,0,0
70,-160,0,0,0,0,0,0,0,0,0,-1,1294,1184,0,0
77,-160,0,0,0,0,0,0,0,0,0,-1,1301,1184,0,0
84,-160,0,0,0,0,0,0,0,0,0,-1,1308,1184,0,0
91,-160,0,0,0,0,0,0,0,0,0,-1,1315,1184,0,0
98,-160,0,0,0,0,0,0,0,0,0,-1,1322,1184,0,0
105,-160,0,0,0,0,0,0,0,0,0,-1,1329,1184,0,0
112,-160,0,0,0,0,0,0,0,0,0,-1,1336,1184,0,0
119,-160,0,0,0,0,0,0,0,0,0,-1,1343,1184,0,0
126,-160,0,0,0,0,0,0,0,0,0,-1,1350,1184,0,0
133,-160,0,0,0,0,0,0,0,0,0,-1,1357,1184,0,0
140,-160,0,0,0,0,0,0,0,0,0,-1,1364,1184,0,0
147,-160,0,0,0,0,0,0,0,0,0,-1,1371,1184,0,0
154,-160,0,0,0,0,0,0,0,0,0,-1,1378,1184,0,0
161,-160,0,0,0,0,0,0,0,0,0,-1,1385,1184,0,0
168,-160,0,0,0,0,0,0,0,0,0,-1,1392,1184,0,0
175,-160,0,0,0,0,0,0,0,0,0,-1,1399,1184,0,0
182,-160,0,0,0,0,0,0,0,0,0,-1,1406,1184,0,0
189,-160,0,0,0,0,0,0,0,0,0,-1,1413,1184,0,0
196,-160,0,0,0,0,0,0,0,0,0,-1,1420,1184,0,0
203,-160,0,0,0,0,0,0,0,0,0,-1,1427,1184,0,0
210,-160,0,0,0,0,0,0,0,0,0,-1,1434,1184,0,0
217,-160,0,0,0,0,0,0,0,0,0,-1,1441,1184,0,0
224,-160,0,0,0,0,0,0,0,0,0,-1,1448,1184,0,0
231,-160,0,0,0,0,0,0,0,0,0,-1,1455,1184,0,0
238,-160,0,0,0,0,0,0,0,0,0,-1,1462,1184,0,0
245,-160,0,0,0,0,0,0,0,0,0,-1,1469,1184,0,0
252,-160,0,0,0,0,0,0,0,0,0,-1,1476,1184,0,0
259,-160,0,0,0,0,0,0,0,0,0,-1,1483,1184,0,0
266,-160,0,0,0,0,0,0,0,0,0,-1,1490,1184,0,0
273,-160,0,0,0,0,0,0,0,0,0,-1,1497,1184,0,0
280,-160,0,0,0,0,0,0,0,0,0,-1,1504,1184,0,0
287,-160,0,0,0,0,0,0,0,0,0,-1,1511,1184,0,0
294,-160,0,0,0,0,0,0,0,0,0,-1,1518,1184,0,0
301,-160,0,0,0,0,0,0,0,0,0,-1,1525,1184,0,0
308,-160,0,0,0,0,0,0,0,0,0,-1,1532,1184,0,0
315,-160,0,0,0,0,0,0,0,0,0,-1,1539,1184,0,0
322,-160,0,0,0,0,0,0,0,0,0,-1,1546,1184,0,0
329,-160,0,0,0,0,0,0,0,0,0,-1,1553,1184,0,0
336,-160,0,0,0,0,0,0,0,0,0,-1,1560,1184,0,0
343,-160,0,0,0,0,0,0,0,0,0,-1,1567,1184,0,0
350,-160,0,0,0,0,0,0,0,0,0,-1,1574,1184,0,0
357,-160,0,0,0,0,0,0,0,0,0,-1,1581,1184,0,0
364,-160,0,0,0,0,0,0,0,0,0,-1,1588,1184,0,0
371,-160,0,0,0,0,0,0,0,0,0,-1,1595,1184,0,0
378,-160,0,0,0,0,0,0,0,0,0,-1,1602,1184,0,0
385,-160,0,0,0,0,0,0,0,0,0,-1,1609,1184,0,0
392,-160,0,0,0,0,0,0,0,0,0,-1,1616,1184,0,0
399,-160,0,0,0,0,0,0,0,0,0,-1,1623,1184,0,0
406,-160,0,0,0,0,0,0,0,0,0,-1,1630,1184,0,0
413,-160,0,0,0,0,0,0,0,0,0,-1,1637,1184,0,0
420,-160,0,0,0,0,0,0,0,0,0,-1,1644,1184,0,0
427,-160,0,0,0,0,0,0,0,0,0,-1,1651,1184,0,0
434,-160,0,0,0,0,0,0,0,0,0,-1,1658,1184,0,0
441,-160,0,0,0,0,0,0,0,0,0,-1,1665,1184,0,0
448,-160,0,0,0,0,0,0,0,0,0,-1,1672,1184,0,0
455,-160,0,0,0,0,0,0,0,0,0,-1,1679,1184,0,0
462,-160,0,0,0,0,0,0,0,0,0,-1,1686,1184,0,0
469,-160,0,0,0,0,0,0,0,0,0,-1,1693,1184,0,0
476,-160,0,0,0,0,0,0,0,0,0,-1,1700,1184,0,0
483,-160,0,0,0,0,0,0,0,0,0,-1,1707,1184,0,0
490,-160,0,0,0,0,0,0,0,0,0,-1,1714,1184,0,0
497,-160,0,0,0,0,0,0,0,0,0,-1,1721,1184,0,0
504,-160,0,0,0,0,0,0,0,0,0,-1,1728,1184,0,0
511,-160,0,0,0,0,0,0,0,0,0,-1,1735,1184,0,0
518,-160,0,0,0,0,0,0,0,0,0,-1,1742,1184,0,0
525,-160,0,0,0,0,0,0,0,0,0,-1,1749,1184,0,0
532,-160,0,0,0,0,0,0,0,0,0,-1,1756,1184,0,0
539,-160,0,0,0,0,0,0,0,0,0,-1,1763,1184,0,0
546,-160,0,0,0,0,0,0,0,0,0,-1,1770,1184,0,0
553,-160,0,0,0,0,0,0,0,0,0,-1,1777,1184,0,0
560,-160,0,0,0,0,0,0,0,0,0,-1,1784,1184,0,0
567,-160,0,0,0,0,0,0,0,0,0,-1,1791,1184,0,0
574,-160,0,0,0,0,0,0,0,0,0,-1,1798,1184,0,0
581,-160,0,0,0,0,0,0,0,0,0,-1,1805,1184,0,0
588,-160,0,0,0,0,0,0,0,0,0,-1,1812,1184,0,0
595,-160,0,0,0,0,0,0,0,0,0,-1,1819,1184,0,0
602,-160,0,0,0,0,0,0,0,0,0,-1,1826,1184,0,0
609,-160,0,0,0,0,0,0,0,0,0,-1,1833,1184,0,0
616,-160,0,0,0,0,0,0,0,0,0,-1,1840,1184,0,0
623,-160,0,0,0,0,0,0,0,0,0,-1,1847,1184,0,0
630,-160,0,0,0,0,0,0,0,0,0,-1,1854,1184,0,0
637,-160,20.5541,2.69849,-0.00245793,0.00118531,0.00076779,0.00134051,-0.00261313,1.37135,0.00232172,0.0424025,1861,1184,20.5541,-2.69854
644,-160,20.6117,2.73608,-0.00157283,0.00111371,0.000214461,0.00113073,-0.00158984,1.49164,0.00157816,0.0415194,1868,1184,20.6117,-2.73612
651,-160,20.5643,2.59241,8.06749e-05,0.00132757,-0.000434784,0.0014642,-5.59589e-05,-1.26631,0.000995314,0.0401038,1875,1184,20.5644,-2.59241
658,-160,20.4211,2.55225,0.000528521,0.000823151,-0.000399351,0.00110149,0.00025018,-0.962098,0.000666768,0.0402349,1882,1184,20.4212,-2.55221
665,-160,20.5496,2.69861,7.72419e-05,5.28627e-05,0.00014718,0.000212736,-8.26318e-05,0.744082,0.000175959,0.036137,1889,1184,20.5496,-2.69862
672,-160,20.6027,2.71729,-0.000775924,-0.000721953,0.000771657,2.31898e-05,-0.00152107,0.802877,0.00102186,0.0324299,1896,1184,20.6027,-2.71724
679,-160,20.6003,2.71851,-0.00185438,-0.00143922,0.00142842,-0.000203382,-0.00309022,0.857555,0.00199581,0.0273633,1903,1184,20.6004,-2.71854
686,-160,20.6332,2.74609,-0.00289234,-0.00207879,0.00196462,-0.000479274,-0.00449185,0.887481,0.00284828,0.0184609,1910,1184,20.6332,-2.74612
693,-160,20.6482,2.68921,-0.00374884,-0.00241438,0.00241653,-0.00057466,-0.00558857,0.920098,0.0035497,0.0492573,1917,1184,20.6482,-2.68925
700,-160,20.6704,2.62732,0,0,0,0,0,0,0,-1,1924,1184,20.6704,-2.62738
707,-160,18.9365,4.58276,-0.00490134,-0.00290288,0.00324345,-0.000508229,-0.00729599,0.934824,0.00470374,0.0477157,1931,1184,18.9366,-4.58274
714,-160,19.1156,4.54614,-0.0052568,-0.00288997,0.00320121,-0.000660438,-0.00748633,0.962447,0.00478596,0.0346571,1938,1184,19.1156,-4.54615
721,-160,19.0947,4.29724,-0.00538018,-0.00268876,0.00322825,-0.000536967,-0.00753197,0.982874,0.00485224,0.0164854,1945,1184,19.0947,-4.2972
728,-160,19.0504,4.23242,-0.00499267,-0.0023103,0.00311709,-0.000258101,-0.00704486,0.98856,0.00461295,0.0141492,1952,1184,19.0505,-4.23238
735,-160,18.9528,4.14648,-0.00426325,-0.0016143,0.00270152,6.99542e-05,-0.00594751,1.01332,0.00398853,0.0130055,1959,1184,18.9528,-4.14648
742,-160,18.9354,4.03198,-0.00247957,-0.000872163,0.0017515,0.000251227,-0.00360296,1.0005,0.00248994,0.0151458,1966,1184,18.9354,-4.03198
749,-160,18.9233,3.9325,-0.000628704,-0.00124442,0.00038207,-0.000445895,-0.00142723,0.446275,0.000843119,0.0164617,1973,1184,18.9233,-3.93254
756,-160,18.9352,3.83545,0.000940282,-0.00149982,-0.00136065,0.00154777,-0.00210731,-0.419913,0.00211849,0.0106827,1980,1184,18.9352,-3.83546
763,-160,18.9288,3.72729,0.00143627,-0.00243894,-0.00357409,0.00356418,-0.00456685,-0.537009,0.00470633,0.0110524,1987,1184,18.9288,-3.72729
770,-160,18.9078,3.60364,0.00155464,-0.00445083,-0.00607508,0.00532856,-0.00822475,-0.555871,0.00788434,0.0171771,1994,1184,18.9078,-3.60364
777,-160,18.9205,3.4281,0.000744644,-0.00752539,-0.00959339,0.00705623,-0.013837,-0.581916,0.0122726,0.0317011,2001,1184,18.9205,-3.42813
784,-160,18.713,2.76147,0,0,0,0,0,0,0,-1,2008,1184,18.713,-2.76147
791,-160,18.6614,1.70044,-0.00497084,-0.0170717,-0.0207718,0.0106138,-0.0326564,-0.643679,0.0260401,0.0426952,2015,1184,18.6614,-1.70047
798,-160,18.7728,0.481812,-0.0103557,-0.0229612,-0.028878,0.0128994,-0.0462162,-0.677956,0.0358918,0.0421418,2022,1184,18.7729,-0.481792
805,-160,18.874,-0.70105,0,0,0,0,0,0,0,-1,2029,1184,18.8741,0.701
812,-160,0,0,0,0,0,0,0,0,0,-1,2036,1184,0,0
-700,-167,0,0,0,0,0,0,0,0,0,-1,524,1191,0,0
-693,-167,0,0,0,0,0,0,0,0,0,-1,531,1191,0,0
-686,-167,-19.6486,-9.35681,-0.120551,0.0133642,0.0316935,0.0204863,-0.127673,1.34975,0.0927015,0.0490988,538,1191,-19.6486,9.35681
-679,-167,-20.5076,-7.9928,-0.0933927,0.00839971,0.0292798,0.0162209,-0.101214,1.30977,0.0734821,0.0457129,545,1191,-20.5076,7.99275
-672,-167,-20.785,-6.03906,-0.0712868,0.00480986,0.025749,0.0127037,-0.0791807,1.27332,0.0574915,0.0457675,552,1191,-20.7851,6.03903
-665,-167,-21.3715,-3.76208,-0.0530281,0.00240228,0.0218213,0.00996173,-0.0605875,1.23731,0.044089,0.0450407,559,1191,-21.3714,3.76212
-658,-167,-22.0002,-1.73474,0,0,0,0,0,0,0,-1,566,1191,-22.0002,1.73469
-651,-167,-10.8496,0.835449,0,0,0,0,0,0,0,-1,573,1191,-10.8496,-0.835473
-644,-167,-10.9523,1.00513,-0.0174679,0.000118283,0.0106409,0.00512908,-0.0224787,1.1307,0.0169561,0.0403795,580,1191,-10.9523,-1.00508
-637,-167,-11.0789,1.16565,-0.00985643,-0.000874284,0.00743874,0.00332398,-0.0140547,1.05698,0.0106521,0.0166654,587,1191,-11.0788,-1.16562
-630,-167,-11.1337,1.30444,-0.0047427,-0.00106924,0.00456393,0.00201369,-0.00782563,0.976704,0.006002,0.00838519,594,1191,-11.1337,-1.30449
-623,-167,-11.1525,1.44031,-0.0028388,0.000130723,0.00206215,0.00118702,-0.0038951,1.09741,0.00306988,0.0102392,601,1191,-11.1525,-1.44029
-616,-167,-11.1366,1.59204,-0.00223647,0.000184911,-0.00121072,0.00068642,-0.00273797,-1.17809,0.002092,0.0136109,608,1191,-11.1366,-1.59206
-609,-167,-11.1425,1.76636,-0.0028021,-0.00070561,-0.00368809,0.00208031,-0.00558802,-0.923859,0.0045791,0.013281,615,1191,-11.1425,-1.76633
-602,-167,-11.1522,1.90466,-0.00385617,-0.00169301,-0.00589028,0.00321417,-0.00876335,-0.876197,0.00715834,0.0138826,622,1191,-11.1521,-1.90469
-595,-167,-11.1654,2.0592,-0.00443321,-0.00274402,-0.00789225,0.0043487,-0.0115259,-0.838703,0.00947232,0.0193863,629,1191,-11.1654,-2.05918
-588,-167,-11.1799,2.22986,-0.00436754,-0.00341116,-0.00905749,0.00518076,-0.0129595,-0.811771,0.0107895,0.0188807,636,1191,-11.1799,-2.2299
-581,-167,-11.1602,2.31897,-0.00412231,-0.00397098,-0.00976836,0.00572201,-0.0138153,-0.789271,0.011598,0.0194784,643,1191,-11.1602,-2.31893
-574,-167,-10.8994,0.668335,0,0,0,0,0,0,0,-1,650,1191,-10.8994,-0.668294
-567,-167,-12.0582,0.821045,-0.00329533,-0.00482042,-0.00970125,0.0056733,-0.013789,-0.746177,0.0115576,0.0444039,657,1191,-12.0582,-0.821099
-560,-167,-13.08,0.675537,-0.00257388,-0.00502202,-0.00911344,0.00539733,-0.0129932,-0.71864,0.0109155,0.0401424,664,1191,-13.08,-0.675578
-553,-167,-13.0474,0.865112,-0.00159201,-0.00506389,-0.00784432,0.00470615,-0.0113621,-0.676504,0.00953859,0.0360186,671,1191,-13.0473,-0.865143
-546,-167,-13.0638,0.811279,-0.000427416,-0.0048549,-0.00581551,0.00358145,-0.00886377,-0.603536,0.00739784,0.0356007,678,1191,-13.0639,-0.811332
-539,-167,-12.9635,0.703613,0.000775425,-0.00435405,-0.00299809,0.00215612,-0.00573474,-0.431571,0.00470937,0.0392208,685,1191,-12.9635,-0.703622
-532,-167,-12.8829,0.573608,0.00199699,-0.00351716,0.000643948,0.00207119,-0.00359136,0.114724,0.00330831,0.0419995,692,1191,-12.8828,-0.573646
-525,-167,-12.8375,0.639771,0.00258077,-0.00239563,0.00463907,0.0053568,-0.00517166,0.539244,0.00607892,0.0411551,699,1191,-12.8375,-0.63976
-518,-167,-13.0066,0.809082,0.00176177,-0.00198665,0.00651726,0.00666896,-0.00689384,0.645388,0.00783085,0.0400639,706,1191,-13.0066,-0.809123
-511,-167,0,0,0,0,0,0,0,0,0,-1,713,1191,0,0
-504,-167,0,0,0,0,0,0,0,0,0,-1,720,1191,0,0
-497,-167,0,0,0,0,0,0,0,0,0,-1,727,1191,0,0
-490,-167,0,0,0,0,0,0,0,0,0,-1,734,1191,0,0
-483,-167,0,0,0,0,0,0,0,0,0,-1,741,1191,0,0
-476,-167,0,0,0,0,0,0,0,0,0,-1,748,1191,0,0
-469,-167,0,0,0,0,0,0,0,0,0,-1,755,1191,0,0
-462,-167,0,0,0,0,0,0,0,0,0,-1,762,1191,0,0
-455,-167,0,0,0,0,0,0,0,0,0,-1,769,1191,0,0
-448,-167,0,0,0,0,0,0,0,0,0,-1,776,1191,0,0
-441,-167,0,0,0,0,0,0,0,0,0,-1,783,1191,0,0
-434,-167,0,0,0,0,0,0,0,0,0,-1,790,1191,0,0
-427,-167,0,0,0,0,0,0,0,0,0,-1,797,1191,0,0
-420,-167,0,0,0,0,0,0,0,0,0,-1,804,1191,0,0
-413,-167,0,0,0,0,0,0,0,0,0,-1,811,1191,0,0
-406,-167,0,0,0,0,0,0,0,0,0,-1,818,1191,0,0
-399,-167,0,0,0,0,0,0,0,0,0,-1,825,1191,0,0
-392,-167,0,0,0,0,0,0,0,0,0,-1,832,1191,0,0
-385,-167,0,0,0,0,0,0,0,0,0,-1,839,1191,0,0
-378,-167,0,0,0,0,0,0,0,0,0,-1,846,1191,0,0
-371,-167,0,0,0,0,0,0,0,0,0,-1,853,1191,0,0
-364,-167,0,0,0,0,0,0,0,0,0,-1,860,1191,0,0
-357,-167,0,0,0,0,0,0,0,0,0,-1,867,1191,0,0
-350,-167,0,0,0,0,0,0,0,0,0,-1,874,1191,0,0
-343,-167,0,0,0,0,0,0,0,0,0,-1,881,1191,0,0
-336,-167,0,0,0,0,0,0,0,0,0,-1,888,1191,0,0
-329,-167,0,0,0,0,0,0,0,0,0,-1,895,1191,0,0
-322,-167,0,0,0,0,0,0,0,0,0,-1,902,1191,0,0
-315,-167,0,0,0,0,0,0,0,0,0,-1,909,1191,0,0
-308,-167,0,0,0,0,0,0,0,0,0,-1,916,1191,0,0
-301,-167,0,0,0,0,0,0,0,0,0,-1,923,1191,0,0
-294,-167,0,0,0,0,0,0,0,0,0,-1,930,1191,0,0
-287,-167,0,0,0,0,0,0,0,0,0,-1,937,1191,0,0
-280,-167,0,0,0,0,0,0,0,0,0,-1,944,1191,0,0
-273,-167,0,0,0,0,0,0,0,0,0,-1,951,1191,0,0
-266,-167,0,0,0,0,0,0,0,0,0,-1,958,1191,0,0
-259,-167,0,0,0,0,0,0,0,0,0,-1,965,1191,0,0
-252,-167,0,0,0,0,0,0,0,0,0,-1,972,1191,0,0
-245,-167,0,0,0,0,0,0,0,0,0,-1,979,1191,0,0
-238,-167,0,0,0,0,0,0,0,0,0,-1,986,1191,0,0
-231,-167,0,0,0,0,0,0,0,0,0,-1,993,1191,0,0
-224,-167,0,0,0,0,0,0,0,0,0,-1,1000,1191,0,0
-217,-167,0,0,0,0,0,0,0,0,0,-1,1007,1191,0,0
-210,-167,0,0,0,0,0,0,0,0,0,-1,1014,1191,0,0
-203,-167,0,0,0,0,0,0,0,0,0,-1,1021,1191,0,0
-196,-167,0,0,0,0,0,0,0,0,0,-1,1028,1191,0,0
-189,-167,0,0,0,0,0,0,0,0,0,-1,1035,1191,0,0
-182,-167,0,0,0,0,0,0,0,0,0,-1,1042,1191,0,0
-175,-167,0,0,0,0,0,0,0,0,0,-1,1049,1191,0,0
-168,-167,0,0,0,0,0,0,0,0,0,-1,1056,1191,0,0
-161,-167,0,0,0,0,0,0,0,0,0,-1,1063,1191,0,0
-154,-167,0,0,0,0,0,0,0,0,0,-1,1070,1191,0,0
-147,-167,0,0,0,0,0,0,0,0,0,-1,1077,1191,0,0
-140,-167,0,0,0,0,0,0,0,0,0,-1,1084,1191,0,0
-133,-167,0,0,0,0,0,0,0,0,0,-1,1091,1191,0,0
-126,-167,0,0,0,0,0,0,0,0,0,-1,1098,1191,0,0
-119,-167,0,0,0,0,0,0,0,0,0,-1,1105,1191,0,0
-112,-167,0,0,0,0,0,0,0,0,0,-1,1112,1191,0,0
-105,-167,0,0,0,0,0,0,0,0,0,-1,1119,1191,0,0
-98,-167,0,0,0,0,0,0,0,0,0,-1,1126,1191,0,0
-91,-167,0,0,0,0,0,0,0,0,0,-1,1133,1191,0,0
-84,-167,0,0,0,0,0,0,0,0,0,-1,1140,1191,0,0
-77,-167,0,0,0,0,0,0,0,0,0,-1,1147,1191,0,0
-70,-167,0,0,0,0,0,0,0,0,0,-1,1154,1191,0,0
-63,-167,0,0,0,0,0,0,0,0,0,-1,1161,1191,0,0
-56,-167,0,0,0,0,0,0,0,0,0,-1,1168,1191,0,0
-49,-167,0,0,0,0,0,0,0,0,0,-1,1175,1191,0,0
-42,-167,0,0,0,0,0,0,0,0,0,-1,1182,1191,0,0
-35,-167,0,0,0,0,0,0,0,0,0,-1,1189,1191,0,0
-28,-167,0,0,0,0,0,0,0,0,0,-1,1196,1191,0,0
-21,-167,0,0,0,0,0,0,0,0,0,-1,1203,1191,0,0
-14,-167,0,0,0,0,0,0,0,0,0,-1,1210,1191,0,0
-7,-167,0,0,0,0,0,0,0,0,0,-1,1217,1191,0,0
0,-167,0,0,0,0,0,0,0,0,0,-1,1224,1191,0,0
7,-167,0,0,0,0,0,0,0,0,0,-1,1231,1191,0,0
14,-167,0,0,0,0,0,0,0,0,0,-1,1238,1191,0,0
21,-167,0,0,0,0,0,0,0,0,0,-1,1245,1191,0,0
28,-167,0,0,0,0,0,0,0,0,0,-1,1252,1191,0,0
35,-167,0,0,0,0,0,0,0,0,0,-1,1259,1191,0,0
42,-167,0,0,0,0,0,0,0,0,0,-1,1266,1191,0,0
49,-167,0,0,0,0,0,0,0,0,0,-1,1273,1191,0,0
56,-167,0,0,0,0,0,0,0,0,0,-1,1280,1191,0,0
63,-167,0,0,0,0,0,0,0,0,0,-1,1287,1191,0,0
70,-167,0,0,0,0,0,0,0,0,0,-1,1294,1191,0,0
77,-167,0,0,0,0,0,0,0,0,0,-1,1301,1191,0,0
84,-167,0,0,0,0,0,0,0,0,0,-1,1308,1191,0,0
91,-167,0,0,0,0,0,0,0,0,0,-1,1315,1191,0,0
98,-167,0,0,0,0,0,0,0,0,0,-1,1322,1191,0,0
105,-167,0,0,0,0,0,0,0,0,0,-1,1329,1191,0,0
112,-167,0,0,0,0,0,0,0,0,0,-1,1336,1191,0,0
119,-167,0,0,0,0,0,0,0,0,0,-1,1343,1191,0,0
126,-167,0,0,0,0,0,0,0,0,0,-1,1350,1191,0,0
133,-167,0,0,0,0,0,0,0,0,0,-1,1357,1191,0,0
140,-167,0,0,0,0,0,0,0,0,0,-1,1364,1191,0,0
147,-167,0,0,0,0,0,0,0,0,0,-1,1371,1191,0,0
154,-167,0,0,0,0,0,0,0,0,0,-1,1378,1191,0,0
161,-167,0,0,0,0,0,0,0,0,0,-1,1385,1191,0,0
168,-167,0,0,0,0,0,0,0,0,0,-1,1392,1191,0,0
175,-167,0,0,0,0,0,0,0,0,0,-1,1399,1191,0,0
182,-167,0,0,0,0,0,0,0,0,0,-1,1406,1191,0,0
189,-167,0,0,0,0,0,0,0,0,0,-1,1413,1191,0,0
196,-167,0,0,0,0,0,0,0,0,0,-1,1420,1191,0,0
203,-167,0,0,0,0,0,0,0,0,0,-1,1427,1191,0,0
210,-167,0,0,0,0,0,0,0,0,0,-1,1434,1191,0,0
217,-167,0,0,0,0,0,0,0,0,0,-1,1441,1191,0,0
224,-167,0,0,0,0,0,0,0,0,0,-1,1448,1191,0,0
231,-167,0,0,0,0,0,0,0,0,0,-1,1455,1191,0,0
238,-167,0,0,0,0,0,0,0,0,0,-1,1462,1191,0,0
245,-167,0,0,0,0,0,0,0,0,0,-1,1469,1191,0,0
252,-167,0,0,0,0,0,0,0,0,0,-1,1476,1191,0,0
259,-167,0,0,0,0,0,0,0,0,0,-1,1483,1191,0,0
266,-167,0,0,0,0,0,0,0,0,0,-1,1490,1191,0,0
273,-167,0,0,0,0,0,0,0,0,0,-1,1497,1191,0,0
280,-167,0,0,0,0,0,0,0,0,0,-1,1504,1191,0,0
287,-167,0,0,0,0,0,0,0,0,0,-1,1511,1191,0,0
294,-167,0,0,0,0,0,0,0,0,0,-1,1518,1191,0,0
301,-167,0,0,0,0,0,0,0,0,0,-1,1525,1191,0,0
308,-167,0,0,0,0,0,0,0,0,0,-1,1532,1191,0,0
315,-167,0,0,0,0,0,0,0,0,0,-1,1539,1191,0,0
322,-167,0,0,0,0,0,0,0,0,0,-1,1546,1191,0,0
329,-167,0,0,0,0,0,0,0,0,0,-1,1553,1191,0,0
336,-167,0,0,0,0,0,0,0,0,0,-1,1560,1191,0,0
343,-167,0,0,0,0,0,0,0,0,0,-1,1567,1191,0,0
350,-167,0,0,0,0,0,0,0,0,0,-1,1574,1191,0,0
357,-167,0,0,0,0,0,0,0,0,0,-1,1581,1191,0,0
364,-167,0,0,0,0,0,0,0,0,0,-1,1588,1191,0,0
371,-167,0,0,0,0,0,0,0,0,0,-1,1595,1191,0,0
378,-167,0,0,0,0,0,0,0,0,0,-1,1602,1191,0,0
385,-167,0,0,0,0,0,0,0,0,0,-1,1609,1191,0,0
392,-167,0,0,0,0,0,0,0,0,0,-1,1616,1191,0,0
399,-167,0,0,0,0,0,0,0,0,0,-1,1623,1191,0,0
406,-167,0,0,0,0,0,0,0,0,0,-1,1630,1191,0,0
413,-167,0,0,0,0,0,0,0,0,0,-1,1637,1191,0,0
420,-167,0,0,0,0,0,0,0,0,0,-1,1644,1191,0,0
427,-167,0,0,0,0,0,0,0,0,0,-1,1651,1191,0,0
434,-167,0,0,0,0,0,0,0,0,0,-1,1658,1191,0,0
441,-167,0,0,0,0,0,0,0,0,0,-1,1665,1191,0,0
448,-167,0,0,0,0,0,0,0,0,0,-1,1672,1191,0,0
455,-167,0,0,0,0,0,0,0,0,0,-1,1679,1191,0,0
462,-167,0,0,0,0,0,0,0,0,0,-1,1686,1191,0,0
469,-167,0,0,0,0,0,0,0,0,0,-1,1693,1191,0,0
476,-167,0,0,0,0,0,0,0,0,0,-1,1700,1191,0,0
483,-167,0,0,0,0,0,0,0,0,0,-1,1707,1191,0,0
490,-167,0,0,0,0,0,0,0,0,0,-1,1714,1191,0,0
497,-167,0,0,0,0,0,0,0,0,0,-1,1721,1191,0,0
504,-167,0,0,0,0,0,0,0,0,0,-1,1728,1191,0,0
511,-167,0,0,0,0,0,0,0,0,0,-1,1735,1191,0,0
518,-167,0,0,0,0,0,0,0,0,0,-1,1742,1191,0,0
525,-167,0,0,0,0,0,0,0,0,0,-1,1749,1191,0,0
532,-167,0,0,0,0,0,0,0,0,0,-1,1756,1191,0,0
539,-167,0,0,0,0,0,0,0,0,0,-1,1763,1191,0,0
546,-167,0,0,0,0,0,0,0,0,0,-1,1770,1191,0,0
553,-167,0,0,0,0,0,0,0,0,0,-1,1777,1191,0,0
560,-167,0,0,0,0,0,0,0,0,0,-1,1784,1191,0,0
567,-167,0,0,0,0,0,0,0,0,0,-1,1791,1191,0,0
574,-167,0,0,0,0,0,0,0,0,0,-1,1798,1191,0,0
581,-167,0,0,0,0,0,0,0,0,0,-1,1805,1191,0,0
588,-167,0,0,0,0,0,0,0,0,0,-1,1812,1191,0,0
595,-167,0,0,0,0,0,0,0,0,0,-1,1819,1191,0,0
602,-167,0,0,0,0,0,0,0,0,0,-1,1826,1191,0,0
609,-167,0,0,0,0,0,0,0,0,0,-1,1833,1191,0,0
616,-167,0,0,0,0,0,0,0,0,0,-1,1840,1191,0,0
623,-167,0,0,0,0,0,0,0,0,0,-1,1847,1191,0,0
630,-167,0,0,0,0,0,0,0,0,0,-1,1854,1191,0,0
637,-167,20.5939,2.97131,-0.00246109,0.00135221,0.00174883,0.00203278,-0.00314166,1.19967,0.00301025,0.0415971,1861,1191,20.5938,-2.97126
644,-167,20.6586,2.77405,-0.00129718,0.00119637,0.000810912,0.00143688,-0.00153769,1.28246,0.0017177,0.0456344,1868,1191,20.6585,-2.77408
651,-167,20.4042,2.66211,0.000458657,0.00119862,-0.000117769,0.00121691,0.000440365,-1.41671,0.000711463,0.0441286,1875,1191,20.4041,-2.66213
658,-167,20.2009,2.70776,0.000897019,0.000509663,-0.000220847,0.000997083,0.000409599,-0.425423,0.000578712,0.0447847,1882,1191,20.2009,-2.70775
665,-167,20.4329,2.73938,0.000539316,-0.000325913,0.000149377,0.000564379,-0.000350976,0.166235,0.000533246,0.0367846,1889,1191,20.4328,-2.73943
672,-167,20.5946,2.83081,-0.000236626,-0.0011252,0.00063257,9.20914e-05,-0.00145392,0.479246,0.00100139,0.0274184,1896,1191,20.5946,-2.83086
679,-167,20.6276,2.7738,-0.00127776,-0.00181658,0.00118979,-0.000327256,-0.00276708,0.674059,0.00174589,0.0232963,1903,1191,20.6276,-2.77383
686,-167,20.6406,2.74915,-0.00227323,-0.00242052,0.0016429,-0.000702326,-0.00399142,0.763,0.00246048,0.0331312,1910,1191,20.6407,-2.74918
693,-167,20.6282,2.66492,0,0,0,0,0,0,0,-1,1917,1191,20.6281,-2.6649
700,-167,19.6545,4.25732,-0.00381684,-0.00298385,0.00254489,-0.000821595,-0.00597909,0.866508,0.00374238,0.0415575,1924,1191,19.6545,-4.25738
707,-167,18.8364,4.62646,-0.00428732,-0.0030966,0.00285028,-0.00078017,-0.00660376,0.888357,0.00416687,0.0376942,1931,1191,18.8364,-4.62647
714,-167,19.0063,4.58936,-0.00469768,-0.00306011,0.00282561,-0.000937046,-0.00682075,0.926422,0.00426923,0.0269223,1938,1191,19.0064,-4.5894
721,-167,19.0155,4.34033,-0.00488623,-0.00282496,0.00288476,-0.000792253,-0.00691894,0.956966,0.00437253,0.0221931,1945,1191,19.0155,-4.34035
728,-167,18.8885,4.27771,-0.00452306,-0.00233141,0.00281284,-0.000408477,-0.006446,0.971144,0.00416785,0.01521,1952,1191,18.8885,-4.27775
735,-167,18.829,4.18152,-0.00375327,-0.00153388,0.00246342,5.82484e-05,-0.0053454,0.99702,0.00358317,0.0137191,1959,1191,18.829,-4.18154
742,-167,18.8,4.05273,-0.00179394,-0.000721914,0.00155635,0.000388136,-0.00290399,0.951239,0.00207749,0.0141762,1966,1191,18.8001,-4.05277
749,-167,18.8021,3.93542,0.000255483,-0.000652501,0.000303411,0.000347538,-0.000744556,0.294573,0.000644259,0.0131159,1973,1191,18.8021,-3.93545
756,-167,18.8231,3.84094,0.00218322,-0.000461939,-0.00130536,0.00271891,-0.000997636,-0.389424,0.00222114,0.0105057,1980,1191,18.8231,-3.84091
763,-167,18.8073,3.70972,0.00332997,-0.000913504,-0.00331744,0.00514615,-0.00272968,-0.500894,0.00461791,0.0114177,1987,1191,18.8073,-3.70966
770,-167,18.7863,3.62097,0.00428507,-0.00218151,-0.0057302,0.00763124,-0.00552769,-0.528538,0.0076296,0.0220376,1994,1191,18.7863,-3.62096
777,-167,19.0107,3.56519,0.00466919,-0.0043069,-0.00928333,0.0104924,-0.0101302,-0.560237,0.0119071,0.0392857,2001,1191,19.0108,-3.56518
784,-167,19.2404,3.49146,0,0,0,0,0,0,0,-1,2008,1191,19.2403,-3.4915
791,-167,17.9381,1.96118,0.00227015,-0.0116196,-0.0209836,0.0174283,-0.0267778,-0.625589,0.025712,0.0469746,2015,1191,17.9381,-1.96119
798,-167,18.045,0.709961,-0.0008766,-0.0165737,-0.029749,0.0220418,-0.0394921,-0.656424,0.0359996,0.049185,2022,1191,18.045,-0.709997
805,-167,18.1296,-0.530884,0,0,0,0,0,0,0,-1,2029,1191,18.1297,0.530903
812,-167,0,0,0,0,0,0,0,0,0,-1,2036,1191,0,0
-700,-174,0,0,0,0,0,0,0,0,0,-1,524,1198,0,0
-693,-174,0,0,0,0,0,0,0,0,0,-1,531,1198,0,0
-686,-174,-18.0717,-8.93945,-0.113161,-0.00630577,0.0254647,-0.000547592,-0.11892,1.34841,0.0790978,0.0474455,538,1198,-18.0717,8.93941
-679,-174,-18.996,-7.14099,-0.0863113,-0.00700233,0.0244184,-8.71159e-05,-0.0932265,1.29483,0.062122,0.0457441,545,1198,-18.996,7.14096
-672,-174,-19.762,-5.77197,-0.0649741,-0.00707344,0.0219696,0.000318859,-0.0723664,1.24622,0.0483509,0.0459604,552,1198,-19.762,5.77201
-665,-174,-20.2426,-4.01575,-0.0475936,-0.00658948,0.0189491,0.000826247,-0.0550093,1.19777,0.0369514,0.0443856,559,1198,-20.2426,4.01579
-658,-174,-20.8175,-2.38794,0,0,0,0,0,0,0,-1,566,1198,-20.8175,2.38794
-651,-174,-10.8394,0.750488,0,0,0,0,0,0,0,-1,573,1198,-10.8394,-0.750437
-644,-174,-10.8679,0.93335,-0.0143623,-0.00330219,0.00962261,0.00226623,-0.0199307,1.0462,0.0141034,0.0445203,580,1198,-10.8679,-0.933334
-637,-174,-10.913,1.1261,-0.00765053,-0.00303432,0.00681487,0.0018527,-0.0125375,0.948678,0.00903944,0.022298,587,1198,-10.913,-1.12616
-630,-174,-10.9636,1.28931,-0.00318883,-0.0023796,0.00431534,0.00155005,-0.00711849,0.832143,0.00533789,0.0113579,594,1198,-10.9636,-1.28927
-623,-174,-10.984,1.44226,-0.00111265,-0.000689089,0.00208515,0.00119501,-0.00299675,0.836007,0.00249352,0.0123066,601,1198,-10.984,-1.44221
-616,-174,-10.9609,1.62073,-0.000331442,-0.000194774,-0.000946879,0.000686234,-0.00121245,-0.82142,0.00111015,0.0177904,608,1198,-10.9609,-1.62068
-609,-174,-10.9795,1.77002,-0.000872335,-0.000864488,-0.00329522,0.00242681,-0.00416363,-0.785993,0.00384879,0.0204588,615,1198,-10.9795,-1.77002
-602,-174,-11.0186,1.89087,-0.00196963,-0.00173625,-0.00540336,0.00355168,-0.00725756,-0.796195,0.0063618,0.01445,622,1198,-11.0186,-1.89089
-595,-174,-11.0187,2.04517,-0.00243313,-0.00282166,-0.00740898,0.00478414,-0.0100389,-0.772291,0.00873551,0.0130338,629,1198,-11.0186,-2.04513
-588,-174,-11.0668,2.1958,-0.00218421,-0.00349415,-0.00849819,0.00568422,-0.0113626,-0.746938,0.0100223,0.0153258,636,1198,-11.0668,-2.19575
-581,-174,-11.0583,2.34277,-0.00177579,-0.00404076,-0.00918899,0.00635024,-0.0121668,-0.724085,0.0108652,0.0174714,643,1198,-11.0583,-2.34283
-574,-174,-11.5003,2.4397,-0.00122217,-0.00450399,-0.00931318,0.00659355,-0.0123197,-0.698197,0.0110851,0.039698,650,1198,-11.5003,-2.43965
-567,-174,-13.0041,0.924316,0,0,0,0,0,0,0,-1,657,1198,-13.0041,-0.92426
-560,-174,-13.0444,0.954102,-0.00019132,-0.00518757,-0.00862707,0.00629203,-0.0116709,-0.644469,0.0105248,0.0469348,664,1198,-13.0444,-0.95406
-553,-174,-13.0813,0.95459,0.000506381,-0.00533636,-0.0075672,0.00569654,-0.0105265,-0.601184,0.00950376,0.0358118,671,1198,-13.0813,-0.954588
-546,-174,-13.0672,0.937378,0.00121457,-0.00524687,-0.00583632,0.00465469,-0.00868699,-0.532614,0.00781922,0.0292672,678,1198,-13.0672,-0.937329
-539,-174,-13.0427,0.877075,0.00180063,-0.00489758,-0.00341337,0.00323353,-0.00633049,-0.397451,0.00561746,0.0338322,685,1198,-13.0427,-0.877082
-532,-174,-12.9997,0.737915,0.00226519,-0.00425826,-0.000239727,0.00227399,-0.00426706,-0.0366826,0.00383447,0.0443002,692,1198,-12.9997,-0.73797
-525,-174,-12.9811,0.744019,0.00220566,-0.00335545,0.00347503,0.00387564,-0.00502544,0.447981,0.00515331,0.0426037,699,1198,-12.9812,-0.744023
-518,-174,-13.145,1.01331,0.00141838,-0.00305611,0.00562387,0.00523367,-0.0068714,0.596089,0.00701016,0.0397427,706,1198,-13.145,-1.01333
-511,-174,0,0,0,0,0,0,0,0,0,-1,713,1198,0,0
-504,-174,0,0,0,0,0,0,0,0,0,-1,720,1198,0,0
-497,-174,0,0,0,0,0,0,0,0,0,-1,727,1198,0,0
-490,-174,0,0,0,0,0,0,0,0,0,-1,734,1198,0,0
-483,-174,0,0,0,0,0,0,0,0,0,-1,741,1198,0,0
-476,-174,0,0,0,0,0,0,0,0,0,-1,748,1198,0,0
-469,-174,0,0,0,0,0,0,0,0,0,-1,755,1198,0,0
-462,-174,0,0,0,0,0,0,0,0,0,-1,762,1198,0,0
-455,-174,0,0,0,0,0,0,0,0,0,-1,769,1198,0,0
-448,-174,0,0,0,0,0,0,0,0,0,-1,776,1198,0,0
-441,-174,0,0,0,0,0,0,0,0,0,-1,783,1198,0,0
-434,-174,0,0,0,0,0,0,0,0,0,-1,790,1198,0,0
-427,-174,0,0,0,0,0,0,0,0,0,-1,797,1198,0,0
-420,-174,0,0,0,0,0,0,0,0,0,-1,804,1198,0,0
-413,-174,0,0,0,0,0,0,0,0,0,-1,811,1198,0,0
-406,-174,0,0,0,0,0,0,0,0,0,-1,818,1198,0,0
-399,-174,0,0,0,0,0,0,0,0,0,-1,825,1198,0,0
-392,-174,0,0,0,0,0,0,0,0,0,-1,832,1198,0,0
-385,-174,0,0,0,0,0,0,0,0,0,-1,839,1198,0,0
-378,-174,0,0,0,0,0,0,0,0,0,-1,846,1198,0,0
-371,-174,0,0,0,0,0,0,0,0,0,-1,853,1198,0,0
-364,-174,0,0,0,0,0,0,0,0,0,-1,860,1198,0,0
-357,-174,0,0,0,0,0,0,0,0,0,-1,867,1198,0,0
-350,-174,0,0,0,0,0,0,0,0,0,-1,874,1198,0,0
-343,-174,0,0,0,0,0,0,0,0,0,-1,881,1198,0,0
-336,-174,0,0,0,0,0,0,0,0,0,-1,888,1198,0,0
-329,-174,0,0,0,0,0,0,0,0,0,-1,895,1198,0,0
-322,-174,0,0,0,0,0,0,0,0,0,-1,902,1198,0,0
-315,-174,0,0,0,0,0,0,0,0,0,-1,909,1198,0,0
-308,-174,0,0,0,0,0,0,0,0,0,-1,916,1198,0,0
-301,-174,0,0,0,0,0,0,0,0,0,-1,923,1198,0,0
-294,-174,0,0,0,0,0,0,0,0,0,-1,930,1198,0,0
-287,-174,0,0,0,0,0,0,0,0,0,-1,937,1198,0,0
-280,-174,0,0,0,0,0,0,0,0,0,-1,944,1198,0,0
-273,-174,0,0,0,0,0,0,0,0,0,-1,951,1198,0,0
-266,-174,0,0,0,0,0,0,0,0,0,-1,958,1198,0,0
-259,-174,0,0,0,0,0,0,0,0,0,-1,965,1198,0,0
-252,-174,0,0,0,0,0,0,0,0,0,-1,972,1198,0,0
-245,-174,0,0,0,0,0,0,0,0,0,-1,979,1198,0,0
-238,-174,0,0,0,0,0,0,0,0,0,-1,986,1198,0,0
-231,-174,0,0,0,0,0,0,0,0,0,-1,993,1198,0,0
-224,-174,0,0,0,0,0,0,0,0,0,-1,1000,1198,0,0
-217,-174,0,0,0,0,0,0,0,0,0,-1,1007,1198,0,0
-210,-174,0,0,0,0,0,0,0,0,0,-1,1014,1198,0,0
-203,-174,0,0,0,0,0,0,0,0,0,-1,1021,1198,0,0
-196,-174,0,0,0,0,0,0,0,0,0,-1,1028,1198,0,0
-189,-174,0,0,0,0,0,0,0,0,0,-1,1035,1198,0,0
-182,-174,0,0,0,0,0,0,0,0,0,-1,1042,1198,0,0
-175,-174,0,0,0,0,0,0,0,0,0,-1,1049,1198,0,0
-168,-174,0,0,0,0,0,0,0,0,0,-1,1056,1198,0,0
-161,-174,0,0,0,0,0,0,0,0,0,-1,1063,1198,0,0
-154,-174,0,0,0,0,0,0,0,0,0,-1,1070,1198,0,0
-147,-174,0,0,0,0,0,0,0,0,0,-1,1077,1198,0,0
-140,-174,0,0,0,0,0,0,0,0,0,-1,1084,1198,0,0
-133,-174,0,0,0,0,0,0,0,0,0,-1,1091,1198,0,0
-126,-174,0,0,0,0,0,0,0,0,0,-1,1098,1198,0,0
-119,-174,0,0,0,0,0,0,0,0,0,-1,1105,1198,0,0
-112,-174,0,0,0,0,0,0,0,0,0,-1,1112,1198,0,0
-105,-174,0,0,0,0,0,0,0,0,0,-1,1119,1198,0,0
-98,-174,0,0,0,0,0,0,0,0,0,-1,1126,1198,0,0
-91,-174,0,0,0,0,0,0,0,0,0,-1,1133,1198,0,0
-84,-174,0,0,0,0,0,0,0,0,0,-1,1140,1198,0,0
-77,-174,0,0,0,0,0,0,0,0,0,-1,1147,1198,0,0
-70,-174,0,0,0,0,0,0,0,0,0,-1,1154,1198,0,0
-63,-174,0,0,0,0,0,0,0,0,0,-1,1161,1198,0,0
-56,-174,0,0,0,0,0,0,0,0,0,-1,1168,1198,0,0
-49,-174,0,0,0,0,0,0,0,0,0,-1,1175,1198,0,0
-42,-174,0,0,0,0,0,0,0,0,0,-1,1182,1198,0,0
-35,-174,0,0,0,0,0,0,0,0,0,-1,1189,1198,0,0
-28,-174,0,0,0,0,0,0,0,0,0,-1,1196,1198,0,0
-21,-174,0,0,0,0,0,0,0,0,0,-1,1203,1198,0,0
-14,-174,0,0,0,0,0,0,0,0,0,-1,1210,1198,0,0
-7,-174,0,0,0,0,0,0,0,0,0,-1,1217,1198,0,0
0,-174,0,0,0,0,0,0,0,0,0,-1,1224,1198,0,0
7,-174,0,0,0,0,0,0,0,0,0,-1,1231,1198,0,0
14,-174,0,0,0,0,0,0,0,0,0,-1,1238,1198,0,0
21,-174,0,0,0,0,0,0,0,0,0,-1,1245,1198,0,0
28,-174,0,0,0,0,0,0,0,0,0,-1,1252,1198,0,0
35,-174,0,0,0,0,0,0,0,0,0,-1,1259,1198,0,0
42,-174,0,0,0,0,0,0,0,0,0,-1,1266,1198,0,0
49,-174,0,0,0,0,0,0,0,0,0,-1,1273,1198,0,0
56,-174,0,0,0,0,0,0,0,0,0,-1,1280,1198,0,0
63,-174,0,0,0,0,0,0,0,0,0,-1,1287,1198,0,0
70,-174,0,0,0,0,0,0,0,0,0,-1,1294,1198,0,0
77,-174,0,0,0,0,0,0,0,0,0,-1,1301,1198,0,0
84,-174,0,0,0,0,0,0,0,0,0,-1,1308,1198,0,0
91,-174,0,0,0,0,0,0,0,0,0,-1,1315,1198,0,0
98,-174,0,0,0,0,0,0,0,0,0,-1,1322,1198,0,0
105,-174,0,0,0,0,0,0,0,0,0,-1,1329,1198,0,0
112,-174,0,0,0,0,0,0,0,0,0,-1,1336,1198,0,0
119,-174,0,0,0,0,0,0,0,0,0,-1,1343,1198,0,0
126,-174,0,0,0,0,0,0,0,0,0,-1,1350,1198,0,0
133,-174,0,0,0,0,0,0,0,0,0,-1,1357,1198,0,0
140,-174,0,0,0,0,0,0,0,0,0,-1,1364,1198,0,0
147,-174,0,0,0,0,0,0,0,0,0,-1,1371,1198,0,0
154,-174,0,0,0,0,0,0,0,0,0,-1,1378,1198,0,0
161,-174,0,0,0,0,0,0,0,0,0,-1,1385,1198,0,0
168,-174,0,0,0,0,0,0,0,0,0,-1,1392,1198,0,0
175,-174,0,0,0,0,0,0,0,0,0,-1,1399,1198,0,0
182,-174,0,0,0,0,0,0,0,0,0,-1,1406,1198,0,0
189,-174,0,0,0,0,0,0,0,0,0,-1,1413,1198,0,0
196,-174,0,0,0,0,0,0,0,0,0,-1,1420,1198,0,0
203,-174,0,0,0,0,0,0,0,0,0,-1,1427,1198,0,0
210,-174,0,0,0,0,0,0,0,0,0,-1,1434,1198,0,0
217,-174,0,0,0,0,0,0,0,0,0,-1,1441,1198,0,0
224,-174,0,0,0,0,0,0,0,0,0,-1,1448,1198,0,0
231,-174,0,0,0,0,0,0,0,0,0,-1,1455,1198,0,0
238,-174,0,0,0,0,0,0,0,0,0,-1,1462,1198,0,0
245,-174,0,0,0,0,0,0,0,0,0,-1,1469,1198,0,0
252,-174,0,0,0,0,0,0,0,0,0,-1,1476,1198,0,0
259,-174,0,0,0,0,0,0,0,0,0,-1,1483,1198,0,0
266,-174,0,0,0,0,0,0,0,0,0,-1,1490,1198,0,0
273,-174,0,0,0,0,0,0,0,0,0,-1,1497,1198,0,0
280,-174,0,0,0,0,0,0,0,0,0,-1,1504,1198,0,0
287,-174,0,0,0,0,0,0,0,0,0,-1,1511,1198,0,0
294,-174,0,0,0,0,0,0,0,0,0,-1,1518,1198,0,0
301,-174,0,0,0,0,0,0,0,0,0,-1,1525,1198,0,0
308,-174,0,0,0,0,0,0,0,0,0,-1,1532,1198,0,0
315,-174,0,0,0,0,0,0,0,0,0,-1,1539,1198,0,0
322,-174,0,0,0,0,0,0,0,0,0,-1,1546,1198,0,0
329,-174,0,0,0,0,0,0,0,0,0,-1,1553,1198,0,0
336,-174,0,0,0,0,0,0,0,0,0,-1,1560,1198,0,0
343,-174,0,0,0,0,0,0,0,0,0,-1,1567,1198,0,0
350,-174,0,0,0,0,0,0,0,0,0,-1,1574,1198,0,0
357,-174,0,0,0,0,0,0,0,0,0,-1,1581,1198,0,0
364,-174,0,0,0,0,0,0,0,0,0,-1,1588,1198,0,0
371,-174,0,0,0,0,0,0,0,0,0,-1,1595,1198,0,0
378,-174,0,0,0,0,0,0,0,0,0,-1,1602,1198,0,0
385,-174,0,0,0,0,0,0,0,0,0,-1,1609,1198,0,0
392,-174,0,0,0,0,0,0,0,0,0,-1,1616,1198,0,0
399,-174,0,0,0,0,0,0,0,0,0,-1,1623,1198,0,0
406,-174,0,0,0,0,0,0,0,0,0,-1,1630,1198,0,0
413,-174,0,0,0,0,0,0,0,0,0,-1,1637,1198,0,0
420,-174,0,0,0,0,0,0,0,0,0,-1,1644,1198,0,0
427,-174,0,0,0,0,0,0,0,0,0,-1,1651,1198,0,0
434,-174,0,0,0,0,0,0,0,0,0,-1,1658,1198,0,0
441,-174,0,0,0,0,0,0,0,0,0,-1,1665,1198,0,0
448,-174,0,0,0,0,0,0,0,0,0,-1,1672,1198,0,0
455,-174,0,0,0,0,0,0,0,0,0,-1,1679,1198,0,0
462,-174,0,0,0,0,0,0,0,0,0,-1,1686,1198,0,0
469,-174,0,0,0,0,0,0,0,0,0,-1,1693,1198,0,0
476,-174,0,0,0,0,0,0,0,0,0,-1,1700,1198,0,0
483,-174,0,0,0,0,0,0,0,0,0,-1,1707,1198,0,0
490,-174,0,0,0,0,0,0,0,0,0,-1,1714,1198,0,0
497,-174,0,0,0,0,0,0,0,0,0,-1,1721,1198,0,0
504,-174,0,0,0,0,0,0,0,0,0,-1,1728,1198,0,0
511,-174,0,0,0,0,0,0,0,0,0,-1,1735,1198,0,0
518,-174,0,0,0,0,0,0,0,0,0,-1,1742,1198,0,0
525,-174,0,0,0,0,0,0,0,0,0,-1,1749,1198,0,0
532,-174,0,0,0,0,0,0,0,0,0,-1,1756,1198,0,0
539,-174,0,0,0,0,0,0,0,0,0,-1,1763,1198,0,0
546,-174,0,0,0,0,0,0,0,0,0,-1,1770,1198,0,0
553,-174,0,0,0,0,0,0,0,0,0,-1,1777,1198,0,0
560,-174,0,0,0,0,0,0,0,0,0,-1,1784,1198,0,0
567,-174,0,0,0,0,0,0,0,0,0,-1,1791,1198,0,0
574,-174,0,0,0,0,0,0,0,0,0,-1,1798,1198,0,0
581,-174,0,0,0,0,0,0,0,0,0,-1,1805,1198,0,0
588,-174,0,0,0,0,0,0,0,0,0,-1,1812,1198,0,0
595,-174,0,0,0,0,0,0,0,0,0,-1,1819,1198,0,0
602,-174,0,0,0,0,0,0,0,0,0,-1,1826,1198,0,0
609,-174,0,0,0,0,0,0,0,0,0,-1,1833,1198,0,0
616,-174,0,0,0,0,0,0,0,0,0,-1,1840,1198,0,0
623,-174,0,0,0,0,0,0,0,0,0,-1,1847,1198,0,0
630,-174,0,0,0,0,0,0,0,0,0,-1,1854,1198,0,0
637,-174,20.5565,3.06201,-0.00206935,0.000879744,0.00202164,0.00190746,-0.00309706,1.10049,0.00291644,0.0407735,1861,1198,20.5565,-3.062
644,-174,20.5355,2.77759,-0.000699514,0.000838216,0.000902796,0.00125518,-0.00111648,1.13812,0.00137006,0.0426857,1868,1198,20.5355,-2.77757
651,-174,20.4835,2.64526,0.00102503,0.000810335,-0.000113985,0.00107426,0.000761107,-0.407684,0.000637946,0.0424894,1875,1198,20.4835,-2.64532
658,-174,20.0028,2.86743,0,0,0,0,0,0,0,-1,1882,1198,20.0028,-2.86748
665,-174,20.3508,2.92468,0.00113396,-0.000657564,1.68569e-05,0.00113412,-0.000657722,0.00940812,0.00104664,0.0345288,1889,1198,20.3509,-2.92465
672,-174,20.5354,2.8717,0.000424741,-0.00139878,0.000415659,0.000515019,-0.00148905,0.213869,0.00120174,0.0251179,1896,1198,20.5354,-2.87169
679,-174,20.6199,2.77563,-0.000564322,-0.00201597,0.000911581,-0.000124898,-0.00245539,0.449181,0.00159692,0.0232582,1903,1198,20.6199,-2.77563
686,-174,20.6514,2.7511,0,0,0,0,0,0,0,-1,1910,1198,20.6514,-2.75115
693,-174,20.0624,4.6615,0,0,0,0,0,0,0,-1,1917,1198,20.0624,-4.66152
700,-174,19.4426,4.62012,-0.00302696,-0.00303004,0.0021657,-0.000862801,-0.0051942,0.785042,0.00321404,0.0494646,1924,1198,19.4427,-4.62012
707,-174,18.8319,4.71118,-0.00353235,-0.00308964,0.00247713,-0.000823993,-0.005798,0.82996,0.00362204,0.0353097,1931,1198,18.8319,-4.71115
714,-174,18.9065,4.60083,-0.00399577,-0.00304248,0.00249942,-0.000974664,-0.00606359,0.879619,0.00375985,0.0232776,1938,1198,18.9065,-4.60086
721,-174,18.8555,4.43713,-0.00424591,-0.00279673,0.00259749,-0.000824652,-0.00621799,0.92142,0.00389961,0.0180322,1945,1198,18.8555,-4.43719
728,-174,18.7141,4.32605,-0.00392409,-0.002238,0.00255271,-0.000392728,-0.00576936,0.944888,0.00372224,0.0128596,1952,1198,18.7141,-4.32607
735,-174,18.6958,4.19019,-0.00312383,-0.00138527,0.00226339,0.000170029,-0.00467913,0.968743,0.00317761,0.0119426,1959,1198,18.6957,-4.19016
742,-174,18.6737,4.06458,-0.0010315,-0.000514826,0.00142295,0.000673043,-0.00221937,0.875196,0.00174767,0.0178981,1966,1198,18.6737,-4.06456
749,-174,18.6942,3.9552,0.00130143,-9.26368e-05,0.000321808,0.00137213,-0.000163338,0.216263,0.000973779,0.0156481,1973,1198,18.6942,-3.95516
756,-174,18.694,3.82019,0.00370986,0.000453361,-0.00104167,0.00401456,0.000148666,-0.284567,0.00262822,0.0100124,1980,1198,18.6939,-3.82025
763,-174,18.6675,3.69678,0.00571484,0.000434459,-0.00270079,0.00685154,-0.000702237,-0.398372,0.00481886,0.0116274,1987,1198,18.6675,-3.6968
770,-174,18.6681,3.60596,0.00794314,-0.000114784,-0.00481461,0.0101922,-0.0023638,-0.437002,0.00770454,0.0227556,1994,1198,18.6681,-3.60596
777,-174,18.8207,3.60205,0.01019,-0.00127028,-0.00806049,0.0143496,-0.00542982,-0.476398,0.0118004,0.0440997,2001,1198,18.8206,-3.602
784,-174,18.9581,3.59814,0,0,0,0,0,0,0,-1,2008,1198,18.9581,-3.59818
791,-174,17.2476,2.28149,0,0,0,0,0,0,0,-1,2015,1198,17.2475,-2.28148
798,-174,17.3689,1.05054,0,0,0,0,0,0,0,-1,2022,1198,17.3689,-1.05056
805,-174,18.772,4.3407,0,0,0,0,0,0,0,-1,2029,1198,18.7719,-4.34064
812,-174,0,0,0,0,0,0,0,0,0,-1,2036,1198,0,0
-700,-181,0,0,0,0,0,0,0,0,0,-1,524,1205,0,0
-693,-181,0,0,0,0,0,0,0,0,0,-1,531,1205,0,0
-686,-181,-16.4316,-7.9043,0,0,0,0,0,0,0,-1,538,1205,-16.4316,7.9043
-679,-181,-17.3412,-6.62024,-0.0797867,-0.0231324,0.0192717,-0.0171984,-0.0857207,1.2721,0.0523644,0.0456838,545,1205,-17.3412,6.62023
-672,-181,-18.2357,-5.37134,-0.0587378,-0.0195336,0.0177118,-0.012717,-0.0655544,1.2034,0.0401411,0.0446372,552,1205,-18.2357,5.37134
-665,-181,-19.2241,-4.05969,-0.0419223,-0.0160061,0.0155287,-0.00873918,-0.0491892,1.1331,0.0303028,0.0443899,559,1205,-19.2241,4.05967
-658,-181,-10.7636,0.335449,0,0,0,0,0,0,0,-1,566,1205,-10.7636,-0.335422
-651,-181,-10.7761,0.582886,-0.0183655,-0.00949657,0.0105798,-0.00245945,-0.0254026,0.983848,0.0161777,0.0447573,573,1205,-10.7761,-0.58283
-644,-181,-10.7563,0.842163,-0.0109217,-0.00676155,0.0081574,-0.000423188,-0.01726,0.910234,0.0113683,0.0400376,580,1205,-10.7563,-0.842173
-637,-181,-10.7746,1.10083,-0.00524238,-0.00511107,0.0058078,0.000631442,-0.0109849,0.79105,0.00754256,0.0217876,587,1205,-10.7746,-1.10087
-630,-181,-10.8243,1.28113,-0.00160969,-0.00357317,0.00374149,0.00127672,-0.00645958,0.657094,0.00478903,0.0115821,594,1205,-10.8244,-1.28111
-623,-181,-10.8452,1.44092,0.000526935,-0.00142055,0.00182391,0.00162076,-0.00251437,0.540208,0.00240593,0.0135577,601,1205,-10.8452,-1.44097
-616,-181,-10.8224,1.61572,0.00143066,-0.000450906,-0.000815422,0.00173486,-0.000755107,-0.357068,0.00147422,0.0135724,608,1205,-10.8224,-1.61573
-609,-181,-10.8218,1.77283,0.00085332,-0.000879401,-0.00296854,0.00307934,-0.00310542,-0.643418,0.00357078,0.0134136,615,1205,-10.8218,-1.7728
-602,-181,-10.8484,1.91602,-0.00027481,-0.00163231,-0.00492108,0.00401411,-0.00592123,-0.716867,0.00577129,0.0117904,622,1205,-10.8485,-1.91603
-595,-181,-10.8533,2.05688,-0.000604816,-0.00272011,-0.00686194,0.00528051,-0.00860543,-0.708934,0.0080933,0.0116085,629,1205,-10.8533,-2.05694
-588,-181,-10.8833,2.23279,-0.000126667,-0.00340359,-0.00783258,0.00623699,-0.00976725,-0.682292,0.00931468,0.0121107,636,1205,-10.8833,-2.23278
-581,-181,-10.8726,2.44421,0.000434686,-0.0038868,-0.00845288,0.00699862,-0.0104507,-0.660267,0.0101399,0.0140116,643,1205,-10.8726,-2.4442
-574,-181,-11.1405,2.50122,0.00107395,-0.00431505,-0.00851464,0.00731027,-0.0105514,-0.632156,0.0103689,0.0334742,650,1205,-11.1405,-2.50118
-567,-181,-9.98102,1.67432,0.00148791,-0.00467373,-0.00830543,0.00726551,-0.0104513,-0.607795,0.0102838,0.0477908,657,1205,-9.98103,-1.67428
-560,-181,-13.1335,1.2832,0,0,0,0,0,0,0,-1,664,1205,-13.1335,-1.28315
-553,-181,-13.1353,1.02661,0.00235332,-0.00510026,-0.00707487,0.00662295,-0.00936989,-0.542984,0.00927876,0.0412604,671,1205,-13.1353,-1.02663
-546,-181,-12.9856,0.834961,0.00261957,-0.00505871,-0.005653,0.00561383,-0.00805297,-0.487106,0.00793231,0.0342887,678,1205,-12.9856,-0.834917
-539,-181,-13.0001,0.88208,0.00262216,-0.00481843,-0.00364783,0.00411217,-0.00630844,-0.387782,0.00606072,0.0383764,685,1205,-13.0001,-0.882074
-532,-181,-12.9706,0.807495,0.00236765,-0.00438308,-0.000984079,0.00250818,-0.0045236,-0.141842,0.00411501,0.0458197,692,1205,-12.9707,-0.807539
-525,-181,-13.0254,0.874146,0.00164355,-0.00380793,0.00230365,0.00248663,-0.00465101,0.350835,0.00418359,0.041003,699,1205,-13.0254,-0.874161
-518,-181,-13.0424,1.08618,0.000614713,-0.00385034,0.00459625,0.00349195,-0.00672758,0.559316,0.00599802,0.0368712,706,1205,-13.0424,-1.08619
-511,-181,0,0,0,0,0,0,0,0,0,-1,713,1205,0,0
-504,-181,0,0,0,0,0,0,0,0,0,-1,720,1205,0,0
-497,-181,0,0,0,0,0,0,0,0,0,-1,727,1205,0,0
-490,-181,0,0,0,0,0,0,0,0,0,-1,734,1205,0,0
-483,-181,0,0,0,0,0,0,0,0,0,-1,741,1205,0,0
-476,-181,0,0,0,0,0,0,0,0,0,-1,748,1205,0,0
-469,-181,0,0,0,0,0,0,0,0,0,-1,755,1205,0,0
-462,-181,0,0,0,0,0,0,0,0,0,-1,762,1205,0,0
-455,-181,0,0,0,0,0,0,0,0,0,-1,769,1205,0,0
-448,-181,0,0,0,0,0,0,0,0,0,-1,776,1205,0,0
-441,-181,0,0,0,0,0,0,0,0,0,-1,783,1205,0,0
-434,-181,0,0,0,0,0,0,0,0,0,-1,790,1205,0,0
-427,-181,0,0,0,0,0,0,0,0,0,-1,797,1205,0,0
-420,-181,0,0,0,0,0,0,0,0,0,-1,804,1205,0,0
-413,-181,0,0,0,0,0,0,0,0,0,-1,811,1205,0,0
-406,-181,0,0,0,0,0,0,0,0,0,-1,818,1205,0,0
-399,-181,0,0,0,0,0,0,0,0,0,-1,825,1205,0,0
-392,-181,0,0,0,0,0,0,0,0,0,-1,832,1205,0,0
-385,-181,0,0,0,0,0,0,0,0,0,-1,839,1205,0,0
-378,-181,0,0,0,0,0,0,0,0,0,-1,846,1205,0,0
-371,-181,0,0,0,0,0,0,0,0,0,-1,853,1205,0,0
-364,-181,0,0,0,0,0,0,0,0,0,-1,860,1205,0,0
-357,-181,0,0,0,0,0,0,0,0,0,-1,867,1205,0,0
-350,-181,0,0,0,0,0,0,0,0,0,-1,874,1205,0,0
-343,-181,0,0,0,0,0,0,0,0,0,-1,881,1205,0,0
-336,-181,0,0,0,0,0,0,0,0,0,-1,888,1205,0,0
-329,-181,0,0,0,0,0,0,0,0,0,-1,895,1205,0,0
-322,-181,0,0,0,0,0,0,0,0,0,-1,902,1205,0,0
-315,-181,0,0,0,0,0,0,0,0,0,-1,909,1205,0,0
-308,-181,0,0,0,0,0,0,0,0,0,-1,916,1205,0,0
-301,-181,0,0,0,0,0,0,0,0,0,-1,923,1205,0,0
-294,-181,0,0,0,0,0,0,0,0,0,-1,930,1205,0,0
-287,-181,0,0,0,0,0,0,0,0,0,-1,937,1205,0,0
-280,-181,0,0,0,0,0,0,0,0,0,-1,944,1205,0,0
-273,-181,0,0,0,0,0,0,0,0,0,-1,951,1205,0,0
-266,-181,0,0,0,0,0,0,0,0,0,-1,958,1205,0,0
-259,-181,0,0,0,0,0,0,0,0,0,-1,965,1205,0,0
-252,-181,0,0,0,0,0,0,0,0,0,-1,972,1205,0,0
-245,-181,0,0,0,0,0,0,0,0,0,-1,979,1205,0,0
-238,-181,0,0,0,0,0,0,0,0,0,-1,986,1205,0,0
-231,-181,0,0,0,0,0,0,0,0,0,-1,993,1205,0,0
-224,-181,0,0,0,0,0,0,0,0,0,-1,1000,1205,0,0
-217,-181,0,0,0,0,0,0,0,0,0,-1,1007,1205,0,0
-210,-181,0,0,0,0,0,0,0,0,0,-1,1014,1205,0,0
-203,-181,0,0,0,0,0,0,0,0,0,-1,1021,1205,0,0
-196,-181,0,0,0,0,0,0,0,0,0,-1,1028,1205,0,0
-189,-181,0,0,0,0,0,0,0,0,0,-1,1035,1205,0,0
-182,-181,0,0,0,0,0,0,0,0,0,-1,1042,1205,0,0
-175,-181,0,0,0,0,0,0,0,0,0,-1,1049,1205,0,0
-168,-181,0,0,0,0,0,0,0,0,0,-1,1056,1205,0,0
-161,-181,0,0,0,0,0,0,0,0,0,-1,1063,1205,0,0
-154,-181,0,0,0,0,0,0,0,0,0,-1,1070,1205,0,0
-147,-181,0,0,0,0,0,0,0,0,0,-1,1077,1205,0,0
-140,-181,0,0,0,0,0,0,0,0,0,-1,1084,1205,0,0
-133,-181,0,0,0,0,0,0,0,0,0,-1,1091,1205,0,0
-126,-181,0,0,0,0,0,0,0,0,0,-1,1098,1205,0,0
-119,-181,0,0,0,0,0,0,0,0,0,-1,1105,1205,0,0
-112,-181,0,0,0,0,0,0,0,0,0,-1,1112,1205,0,0
-105,-181,0,0,0,0,0,0,0,0,0,-1,1119,1205,0,0
-98,-181,0,0,0,0,0,0,0,0,0,-1,1126,1205,0,0
-91,-181,0,0,0,0,0,0,0,0,0,-1,1133,1205,0,0
-84,-181,0,0,0,0,0,0,0,0,0,-1,1140,1205,0,0
-77,-181,0,0,0,0,0,0,0,0,0,-1,1147,1205,0,0
-70,-181,0,0,0,0,0,0,0,0,0,-1,1154,1205,0,0
-63,-181,0,0,0,0,0,0,0,0,0,-1,1161,1205,0,0
-56,-181,0,0,0,0,0,0,0,0,0,-1,1168,1205,0,0
-49,-181,0,0,0,0,0,0,0,0,0,-1,1175,1205,0,0
-42,-181,0,0,0,0,0,0,0,0,0,-1,1182,1205,0,0
-35,-181,0,0,0,0,0,0,0,0,0,-1,1189,1205,0,0
-28,-181,0,0,0,0,0,0,0,0,0,-1,1196,1205,0,0
-21,-181,0,0,0,0,0,0,0,0,0,-1,1203,1205,0,0
-14,-181,0,0,0,0,0,0,0,0,0,-1,1210,1205,0,0
-7,-181,0,0,0,0,0,0,0,0,0,-1,1217,1205,0,0
0,-181,0,0,0,0,0,0,0,0,0,-1,1224,1205,0,0
7,-181,0,0,0,0,0,0,0,0,0,-1,1231,1205,0,0
14,-181,0,0,0,0,0,0,0,0,0,-1,1238,1205,0,0
21,-181,0,0,0,0,0,0,0,0,0,-1,1245,1205,0,0
28,-181,0,0,0,0,0,0,0,0,0,-1,1252,1205,0,0
35,-181,0,0,0,0,0,0,0,0,0,-1,1259,1205,0,0
42,-181,0,0,0,0,0,0,0,0,0,-1,1266,1205,0,0
49,-181,0,0,0,0,0,0,0,0,0,-1,1273,1205,0,0
56,-181,0,0,0,0,0,0,0,0,0,-1,1280,1205,0,0
63,-181,0,0,0,0,0,0,0,0,0,-1,1287,1205,0,0
70,-181,0,0,0,0,0,0,0,0,0,-1,1294,1205,0,0
77,-181,0,0,0,0,0,0,0,0,0,-1,1301,1205,0,0
84,-181,0,0,0,0,0,0,0,0,0,-1,1308,1205,0,0
91,-181,0,0,0,0,0,0,0,0,0,-1,1315,1205,0,0
98,-181,0,0,0,0,0,0,0,0,0,-1,1322,1205,0,0
105,-181,0,0,0,0,0,0,0,0,0,-1,1329,1205,0,0
112,-181,0,0,0,0,0,0,0,0,0,-1,1336,1205,0,0
119,-181,0,0,0,0,0,0,0,0,0,-1,1343,1205,0,0
126,-181,0,0,0,0,0,0,0,0,0,-1,1350,1205,0,0
133,-181,0,0,0,0,0,0,0,0,0,-1,1357,1205,0,0
140,-181,0,0,0,0,0,0,0,0,0,-1,1364,1205,0,0
147,-181,0,0,0,0,0,0,0,0,0,-1,1371,1205,0,0
154,-181,0,0,0,0,0,0,0,0,0,-1,1378,1205,0,0
161,-181,0,0,0,0,0,0,0,0,0,-1,1385,1205,0,0
168,-181,0,0,0,0,0,0,0,0,0,-1,1392,1205,0,0
175,-181,0,0,0,0,0,0,0,0,0,-1,1399,1205,0,0
182,-181,0,0,0,0,0,0,0,0,0,-1,1406,1205,0,0
189,-181,0,0,0,0,0,0,0,0,0,-1,1413,1205,0,0
196,-181,0,0,0,0,0,0,0,0,0,-1,1420,1205,0,0
203,-181,0,0,0,0,0,0,0,0,0,-1,1427,1205,0,0
210,-181,0,0,0,0,0,0,0,0,0,-1,1434,1205,0,0
217,-181,0,0,0,0,0,0,0,0,0,-1,1441,1205,0,0
224,-181,0,0,0,0,0,0,0,0,0,-1,1448,1205,0,0
231,-181,0,0,0,0,0,0,0,0,0,-1,1455,1205,0,0
238,-181,0,0,0,0,0,0,0,0,0,-1,1462,1205,0,0
245,-181,0,0,0,0,0,0,0,0,0,-1,1469,1205,0,0
252,-181,0,0,0,0,0,0,0,0,0,-1,1476,1205,0,0
259,-181,0,0,0,0,0,0,0,0,0,-1,1483,1205,0,0
266,-181,0,0,0,0,0,0,0,0,0,-1,1490,1205,0,0
273,-181,0,0,0,0,0,0,0,0,0,-1,1497,1205,0,0
280,-181,0,0,0,0,0,0,0,0,0,-1,1504,1205,0,0
287,-181,0,0,0,0,0,0,0,0,0,-1,1511,1205,0,0
294,-181,0,0,0,0,0,0,0,0,0,-1,1518,1205,0,0
301,-181,0,0,0,0,0,0,0,0,0,-1,1525,1205,0,0
308,-181,0,0,0,0,0,0,0,0,0,-1,1532,1205,0,0
315,-181,0,0,0,0,0,0,0,0,0,-1,1539,1205,0,0
322,-181,0,0,0,0,0,0,0,0,0,-1,1546,1205,0,0
329,-181,0,0,0,0,0,0,0,0,0,-1,1553,1205,0,0
336,-181,0,0,0,0,0,0,0,0,0,-1,1560,1205,0,0
343,-181,0,0,0,0,0,0,0,0,0,-1,1567,1205,0,0
350,-181,0,0,0,0,0,0,0,0,0,-1,1574,1205,0,0
357,-181,0,0,0,0,0,0,0,0,0,-1,1581,1205,0,0
364,-181,0,0,0,0,0,0,0,0,0,-1,1588,1205,0,0
371,-181,0,0,0,0,0,0,0,0,0,-1,1595,1205,0,0
378,-181,0,0,0,0,0,0,0,0,0,-1,1602,1205,0,0
385,-181,0,0,0,0,0,0,0,0,0,-1,1609,1205,0,0
392,-181,0,0,0,0,0,0,0,0,0,-1,1616,1205,0,0
399,-181,0,0,0,0,0,0,0,0,0,-1,1623,1205,0,0
406,-181,0,0,0,0,0,0,0,0,0,-1,1630,1205,0,0
413,-181,0,0,0,0,0,0,0,0,0,-1,1637,1205,0,0
420,-181,0,0,0,0,0,0,0,0,0,-1,1644,1205,0,0
427,-181,0,0,0,0,0,0,0,0,0,-1,1651,1205,0,0
434,-181,0,0,0,0,0,0,0,0,0,-1,1658,1205,0,0
441,-181,0,0,0,0,0,0,0,0,0,-1,1665,1205,0,0
448,-181,0,0,0,0,0,0,0,0,0,-1,1672,1205,0,0
455,-181,0,0,0,0,0,0,0,0,0,-1,1679,1205,0,0
462,-181,0,0,0,0,0,0,0,0,0,-1,1686,1205,0,0
469,-181,0,0,0,0,0,0,0,0,0,-1,1693,1205,0,0
476,-181,0,0,0,0,0,0,0,0,0,-1,1700,1205,0,0
483,-181,0,0,0,0,0,0,0,0,0,-1,1707,1205,0,0
490,-181,0,0,0,0,0,0,0,0,0,-1,1714,1205,0,0
497,-181,0,0,0,0,0,0,0,0,0,-1,1721,1205,0,0
504,-181,0,0,0,0,0,0,0,0,0,-1,1728,1205,0,0
511,-181,0,0,0,0,0,0,0,0,0,-1,1735,1205,0,0
518,-181,0,0,0,0,0,0,0,0,0,-1,1742,1205,0,0
525,-181,0,0,0,0,0,0,0,0,0,-1,1749,1205,0,0
532,-181,0,0,0,0,0,0,0,0,0,-1,1756,1205,0,0
539,-181,0,0,0,0,0,0,0,0,0,-1,1763,1205,0,0
546,-181,0,0,0,0,0,0,0,0,0,-1,1770,1205,0,0
553,-181,0,0,0,0,0,0,0,0,0,-1,1777,1205,0,0
560,-181,0,0,0,0,0,0,0,0,0,-1,1784,1205,0,0
567,-181,0,0,0,0,0,0,0,0,0,-1,1791,1205,0,0
574,-181,0,0,0,0,0,0,0,0,0,-1,1798,1205,0,0
581,-181,0,0,0,0,0,0,0,0,0,-1,1805,1205,0,0
588,-181,0,0,0,0,0,0,0,0,0,-1,1812,1205,0,0
595,-181,0,0,0,0,0,0,0,0,0,-1,1819,1205,0,0
602,-181,0,0,0,0,0,0,0,0,0,-1,1826,1205,0,0
609,-181,0,0,0,0,0,0,0,0,0,-1,1833,1205,0,0
616,-181,0,0,0,0,0,0,0,0,0,-1,1840,1205,0,0
623,-181,0,0,0,0,0,0,0,0,0,-1,1847,1205,0,0
630,-181,20.5916,2.94312,-0.00274876,0.00115078,0.0029693,0.00275324,-0.00435122,1.07591,0.0041362,0.0371673,1854,1205,20.5915,-2.94314
637,-181,20.5768,3.03833,-0.00145822,0.00105358,0.00176202,0.00196147,-0.00236611,1.09502,0.00250217,0.0371638,1861,1205,20.5767,-3.03829
644,-181,20.6412,2.92627,0.000163181,0.000872564,0.000601073,0.00121579,-0.000180049,1.05195,0.00087673,0.0405186,1868,1205,20.6413,-2.92623
651,-181,20.5911,2.85071,0.001791,0.000593607,-0.000338,0.00187983,0.000504786,-0.256976,0.00112342,0.0402828,1875,1205,20.5911,-2.85075
658,-181,20.4497,2.86731,0.00213643,-0.000214027,-0.000437512,0.00221522,-0.000292824,-0.178191,0.00158347,0.0349406,1882,1205,20.4496,-2.86726
665,-181,20.4159,2.81738,0.00192815,-0.00100159,-0.000212899,0.00194354,-0.00101698,-0.0721628,0.00173694,0.0310134,1889,1205,20.4159,-2.81743
672,-181,20.5275,2.82434,0.00127507,-0.00173673,0.000141787,0.00128173,-0.00174339,0.0469389,0.00175332,0.023011,1896,1205,20.5274,-2.82436
679,-181,20.6642,2.83069,0.000329595,-0.00230202,0.000600634,0.000460201,-0.00243262,0.214113,0.00179492,0.0301983,1903,1205,20.6642,-2.83064
686,-181,20.7999,2.86963,0,0,0,0,0,0,0,-1,1910,1205,20.8,-2.86967
693,-181,20.2977,3.43311,0,0,0,0,0,0,0,-1,1917,1205,20.2977,-3.43316
700,-181,18.9183,4.81616,0,0,0,0,0,0,0,-1,1924,1205,18.9183,-4.81616
707,-181,18.7972,4.69116,-0.00265405,-0.00320099,0.00210392,-0.000805903,-0.00504914,0.720769,0.00313221,0.0272521,1931,1205,18.7973,-4.69116
714,-181,18.7716,4.55701,-0.00320414,-0.00310026,0.00218677,-0.000964806,-0.00533959,0.797272,0.00328568,0.0202866,1938,1205,18.7717,-4.55695
721,-181,18.6626,4.43579,-0.00353192,-0.00279486,0.0023299,-0.000804524,-0.00552226,0.863836,0.00344479,0.0136602,1945,1205,18.6627,-4.43579
728,-181,18.5671,4.32703,-0.00325052,-0.00213195,0.00230323,-0.000321076,-0.00506139,0.904506,0.00327249,0.0111107,1952,1205,18.5672,-4.32705
735,-181,18.578,4.198,-0.00244339,-0.00120878,0.0020612,0.000325574,-0.00397774,0.930891,0.00276674,0.0111335,1959,1205,18.5781,-4.198
742,-181,18.5703,4.07007,-0.000278813,-0.000265129,0.00131762,0.00104567,-0.00158961,0.787994,0.00153224,0.0153416,1966,1205,18.5703,-4.0701
749,-181,18.5811,3.93652,0.00222531,0.000447988,0.000404083,0.00231287,0.000360431,0.213382,0.00143692,0.0143488,1973,1205,18.5811,-3.93648
756,-181,18.5646,3.79529,0.00496636,0.00123034,-0.000609254,0.0050632,0.00113349,-0.157636,0.00306824,0.0108211,1980,1205,18.5646,-3.79528
763,-181,18.5363,3.68469,0.00770276,0.00156753,-0.00172618,0.00815509,0.0011152,-0.256274,0.00510575,0.0108528,1987,1205,18.5362,-3.68468
770,-181,18.5632,3.56958,0.0111272,0.00164155,-0.00324966,0.0121337,0.000635054,-0.300354,0.00788596,0.0222602,1994,1205,18.5632,-3.56956
777,-181,18.759,3.4928,0.0152187,0.00134535,-0.00566254,0.0172365,-0.000672397,-0.342306,0.0117216,0.0444757,2001,1205,18.759,-3.49282
784,-181,18.9532,3.40784,0,0,0,0,0,0,0,-1,2008,1205,18.9532,-3.4078
791,-181,17.2302,2.86121,0,0,0,0,0,0,0,-1,2015,1205,17.2302,-2.86116
798,-181,19.4945,4.51721,0,0,0,0,0,0,0,-1,2022,1205,19.4945,-4.51726
805,-181,0,0,0,0,0,0,0,0,0,-1,2029,1205,0,0
812,-181,0,0,0,0,0,0,0,0,0,-1,2036,1205,0,0
-700,-188,0,0,0,0,0,0,0,0,0,-1,524,1212,0,0
-693,-188,0,0,0,0,0,0,0,0,0,-1,531,1212,0,0
-686,-188,0,0,0,0,0,0,0,0,0,-1,538,1212,0,0
-679,-188,-16.0546,-6.0863,-0.0708155,-0.0380626,0.0156192,-0.0318083,-0.0770697,1.18993,0.0447216,0.0455574,545,1212,-16.0546,6.08631
-672,-188,-16.5621,-4.9585,-0.0500364,-0.0305265,0.0149593,-0.0224226,-0.0581404,1.07432,0.0338586,0.0442207,552,1212,-16.5622,4.95847
-665,-188,-17.4552,-3.70886,-0.0340898,-0.0239799,0.0134388,-0.0146768,-0.0433929,0.965285,0.0254862,0.045165,559,1212,-17.4552,3.70889
-658,-188,-11.0292,0.198364,0,0,0,0,0,0,0,-1,566,1212,-11.0292,-0.19839
-651,-188,-10.7706,0.575317,-0.0128454,-0.0135026,0.00935468,-0.00381354,-0.0225344,0.767844,0.0139269,0.0446647,573,1212,-10.7707,-0.575291
-644,-188,-10.5955,0.881226,-0.00654912,-0.00954818,0.00720601,-0.000688273,-0.015409,0.682815,0.0100511,0.0378989,580,1212,-10.5954,-0.881208
-637,-188,-10.6347,1.13599,-0.0021506,-0.00678459,0.00512985,0.00116125,-0.0100964,0.573278,0.00714954,0.019209,587,1212,-10.6347,-1.13595
-630,-188,-10.6947,1.28503,0.00047037,-0.00456037,0.00329128,0.00209741,-0.00618742,0.459118,0.00497375,0.00989556,594,1212,-10.6947,-1.28508
-623,-188,-10.6854,1.44751,0.0024105,-0.00209095,0.00152546,0.00287875,-0.0025592,0.297823,0.00314141,0.010391,601,1212,-10.6855,-1.44745
-616,-188,-10.6605,1.6145,0.00316351,-0.000793349,-0.0008845,0.00335223,-0.000982066,-0.210208,0.00262416,0.0103061,608,1212,-10.6605,-1.61448
-609,-188,-10.6473,1.77844,0.00246534,-0.000927926,-0.00281719,0.00405734,-0.00251992,-0.514364,0.00383181,0.0123799,615,1212,-10.6473,-1.7785
-602,-188,-10.6631,1.95483,0.00125918,-0.00151177,-0.0045877,0.00466605,-0.00491864,-0.638754,0.00553436,0.0150462,622,1212,-10.6631,-1.95487
-595,-188,-10.6625,2.09546,0.00104281,-0.00253266,-0.00640677,0.00590659,-0.00739645,-0.64934,0.00769655,0.011633,629,1212,-10.6625,-2.09548
-588,-188,-10.6794,2.25134,0.00172648,-0.00316282,-0.00719416,0.00688001,-0.00831634,-0.621614,0.00878667,0.0094296,636,1212,-10.6795,-2.25139
-581,-188,-10.6954,2.43726,0.00228942,-0.00348738,-0.00770761,0.00763207,-0.00883002,-0.606124,0.00951278,0.00986901,643,1212,-10.6954,-2.43723
-574,-188,-10.7236,2.49841,0.00286973,-0.00379642,-0.00767449,0.00790369,-0.00883038,-0.580535,0.00966635,0.0245636,650,1212,-10.7236,-2.49844
-567,-188,-9.91229,1.80237,0.0031596,-0.00400276,-0.0074306,0.00782698,-0.00867013,-0.560846,0.00952876,0.049949,657,1212,-9.91228,-1.80236
-560,-188,-13.2608,1.02002,0,0,0,0,0,0,0,-1,664,1212,-13.2608,-1.01997
-553,-188,-13.0623,0.914185,0.00338325,-0.00426655,-0.00638915,0.0070049,-0.0078882,-0.515683,0.00860357,0.0467858,671,1212,-13.0623,-0.914221
-546,-188,-12.9471,0.805298,0.0031518,-0.00416993,-0.00522623,0.00587179,-0.00688993,-0.479874,0.0073758,0.0419843,678,1212,-12.9471,-0.805343
-539,-188,-12.9854,0.889282,0.00256534,-0.00392838,-0.00359892,0.00416557,-0.00552862,-0.41839,0.00561535,0.037262,685,1212,-12.9854,-0.889268
-532,-188,-12.9669,0.743896,0.00165391,-0.00358646,-0.00143351,0.00202041,-0.00395296,-0.250307,0.00350838,0.0425985,692,1212,-12.9669,-0.743843
-525,-188,-13.2178,1.17664,0.000389988,-0.00324585,0.00131082,0.00081329,-0.00366915,0.312358,0.00275747,0.0414607,699,1212,-13.2178,-1.17667
-518,-188,-12.9741,1.07776,-0.000840485,-0.00356164,0.00347667,0.00153235,-0.00593448,0.598887,0.00455387,0.0393432,706,1212,-12.9741,-1.07777
-511,-188,-12.7952,0.920654,0.00157019,-0.00428147,0.00326825,0.00303092,-0.0057422,0.420312,0.00514516,0.0405593,713,1212,-12.7952,-0.920701
-504,-188,0,0,0,0,0,0,0,0,0,-1,720,1212,0,0
-497,-188,0,0,0,0,0,0,0,0,0,-1,727,1212,0,0
-490,-188,0,0,0,0,0,0,0,0,0,-1,734,1212,0,0
-483,-188,0,0,0,0,0,0,0,0,0,-1,741,1212,0,0
-476,-188,0,0,0,0,0,0,0,0,0,-1,748,1212,0,0
-469,-188,0,0,0,0,0,0,0,0,0,-1,755,1212,0,0
-462,-188,0,0,0,0,0,0,0,0,0,-1,762,1212,0,0
-455,-188,0,0,0,0,0,0,0,0,0,-1,769,1212,0,0
-448,-188,0,0,0,0,0,0,0,0,0,-1,776,1212,0,0
-441,-188,0,0,0,0,0,0,0,0,0,-1,783,1212,0,0
-434,-188,0,0,0,0,0,0,0,0,0,-1,790,1212,0,0
-427,-188,0,0,0,0,0,0,0,0,0,-1,797,1212,0,0
-420,-188,0,0,0,0,0,0,0,0,0,-1,804,1212,0,0
-413,-188,0,0,0,0,0,0,0,0,0,-1,811,1212,0,0
-406,-188,0,0,0,0,0,0,0,0,0,-1,818,1212,0,0
-399,-188,0,0,0,0,0,0,0,0,0,-1,825,1212,0,0
-392,-188,0,0,0,0,0,0,0,0,0,-1,832,1212,0,0
-385,-188,0,0,0,0,0,0,0,0,0,-1,839,1212,0,0
-378,-188,0,0,0,0,0,0,0,0,0,-1,846,1212,0,0
-371,-188,0,0,0,0,0,0,0,0,0,-1,853,1212,0,0
-364,-188,0,0,0,0,0,0,0,0,0,-1,860,1212,0,0
-357,-188,0,0,0,0,0,0,0,0,0,-1,867,1212,0,0
-350,-188,0,0,0,0,0,0,0,0,0,-1,874,1212,0,0
-343,-188,0,0,0,0,0,0,0,0,0,-1,881,1212,0,0
-336,-188,0,0,0,0,0,0,0,0,0,-1,888,1212,0,0
-329,-188,0,0,0,0,0,0,0,0,0,-1,895,1212,0,0
-322,-188,0,0,0,0,0,0,0,0,0,-1,902,1212,0,0
-315,-188,0,0,0,0,0,0,0,0,0,-1,909,1212,0,0
-308,-188,0,0,0,0,0,0,0,0,0,-1,916,1212,0,0
-301,-188,0,0,0,0,0,0,0,0,0,-1,923,1212,0,0
-294,-188,0,0,0,0,0,0,0,0,0,-1,930,1212,0,0
-287,-188,0,0,0,0,0,0,0,0,0,-1,937,1212,0,0
-280,-188,0,0,0,0,0,0,0,0,0,-1,944,1212,0,0
-273,-188,0,0,0,0,0,0,0,0,0,-1,951,1212,0,0
-266,-188,0,0,0,0,0,0,0,0,0,-1,958,1212,0,0
-259,-188,0,0,0,0,0,0,0,0,0,-1,965,1212,0,0
-252,-188,0,0,0,0,0,0,0,0,0,-1,972,1212,0,0
-245,-188,0,0,0,0,0,0,0,0,0,-1,979,1212,0,0
-238,-188,0,0,0,0,0,0,0,0,0,-1,986,1212,0,0
-231,-188,0,0,0,0,0,0,0,0,0,-1,993,1212,0,0
-224,-188,0,0,0,0,0,0,0,0,0,-1,1000,1212,0,0
-217,-188,0,0,0,0,0,0,0,0,0,-1,1007,1212,0,0
-210,-188,0,0,0,0,0,0,0,0,0,-1,1014,1212,0,0
-203,-188,0,0,0,0,0,0,0,0,0,-1,1021,1212,0,0
-196,-188,0,0,0,0,0,0,0,0,0,-1,1028,1212,0,0
-189,-188,0,0,0,0,0,0,0,0,0,-1,1035,1212,0,0
-182,-188,0,0,0,0,0,0,0,0,0,-1,1042,1212,0,0
-175,-188,0,0,0,0,0,0,0,0,0,-1,1049,1212,0,0
-168,-188,0,0,0,0,0,0,0,0,0,-1,1056,1212,0,0
-161,-188,0,0,0,0,0,0,0,0,0,-1,1063,1212,0,0
-154,-188,0,0,0,0,0,0,0,0,0,-1,1070,1212,0,0
-147,-188,0,0,0,0,0,0,0,0,0,-1,1077,1212,0,0
-140,-188,0,0,0,0,0,0,0,0,0,-1,1084,1212,0,0
-133,-188,0,0,0,0,0,0,0,0,0,-1,1091,1212,0,0
-126,-188,0,0,0,0,0,0,0,0,0,-1,1098,1212,0,0
-119,-188,0,0,0,0,0,0,0,0,0,-1,1105,1212,0,0
-112,-188,0,0,0,0,0,0,0,0,0,-1,1112,1212,0,0
-105,-188,0,0,0,0,0,0,0,0,0,-1,1119,1212,0,0
-98,-188,0,0,0,0,0,0,0,0,0,-1,1126,1212,0,0
-91,-188,0,0,0,0,0,0,0,0,0,-1,1133,1212,0,0
-84,-188,0,0,0,0,0,0,0,0,0,-1,1140,1212,0,0
-77,-188,0,0,0,0,0,0,0,0,0,-1,1147,1212,0,0
-70,-188,0,0,0,0,0,0,0,0,0,-1,1154,1212,0,0
-63,-188,0,0,0,0,0,0,0,0,0,-1,1161,1212,0,0
-56,-188,0,0,0,0,0,0,0,0,0,-1,1168,1212,0,0
-49,-188,0,0,0,0,0,0,0,0,0,-1,1175,1212,0,0
-42,-188,0,0,0,0,0,0,0,0,0,-1,1182,1212,0,0
-35,-188,0,0,0,0,0,0,0,0,0,-1,1189,1212,0,0
-28,-188,0,0,0,0,0,0,0,0,0,-1,1196,1212,0,0
-21,-188,0,0,0,0,0,0,0,0,0,-1,1203,1212,0,0
-14,-188,0,0,0,0,0,0,0,0,0,-1,1210,1212,0,0
-7,-188,0,0,0,0,0,0,0,0,0,-1,1217,1212,0,0
0,-188,0,0,0,0,0,0,0,0,0,-1,1224,1212,0,0
7,-188,0,0,0,0,0,0,0,0,0,-1,1231,1212,0,0
14,-188,0,0,0,0,0,0,0,0,0,-1,1238,1212,0,0
21,-188,0,0,0,0,0,0,0,0,0,-1,1245,1212,0,0
28,-188,0,0,0,0,0,0,0,0,0,-1,1252,1212,0,0
35,-188,0,0,0,0,0,0,0,0,0,-1,1259,1212,0,0
42,-188,0,0,0,0,0,0,0,0,0,-1,1266,1212,0,0
49,-188,0,0,0,0,0,0,0,0,0,-1,1273,1212,0,0
56,-188,0,0,0,0,0,0,0,0,0,-1,1280,1212,0,0
63,-188,0,0,0,0,0,0,0,0,0,-1,1287,1212,0,0
70,-188,0,0,0,0,0,0,0,0,0,-1,1294,1212,0,0
77,-188,0,0,0,0,0,0,0,0,0,-1,1301,1212,0,0
84,-188,0,0,0,0,0,0,0,0,0,-1,1308,1212,0,0
91,-188,0,0,0,0,0,0,0,0,0,-1,1315,1212,0,0
98,-188,0,0,0,0,0,0,0,0,0,-1,1322,1212,0,0
105,-188,0,0,0,0,0,0,0,0,0,-1,1329,1212,0,0
112,-188,0,0,0,0,0,0,0,0,0,-1,1336,1212,0,0
119,-188,0,0,0,0,0,0,0,0,0,-1,1343,1212,0,0
126,-188,0,0,0,0,0,0,0,0,0,-1,1350,1212,0,0
133,-188,0,0,0,0,0,0,0,0,0,-1,1357,1212,0,0
140,-188,0,0,0,0,0,0,0,0,0,-1,1364,1212,0,0
147,-188,0,0,0,0,0,0,0,0,0,-1,1371,1212,0,0
154,-188,0,0,0,0,0,0,0,0,0,-1,1378,1212,0,0
161,-188,0,0,0,0,0,0,0,0,0,-1,1385,1212,0,0
168,-188,0,0,0,0,0,0,0,0,0,-1,1392,1212,0,0
175,-188,0,0,0,0,0,0,0,0,0,-1,1399,1212,0,0
182,-188,0,0,0,0,0,0,0,0,0,-1,1406,1212,0,0
189,-188,0,0,0,0,0,0,0,0,0,-1,1413,1212,0,0
196,-188,0,0,0,0,0,0,0,0,0,-1,1420,1212,0,0
203,-188,0,0,0,0,0,0,0,0,0,-1,1427,1212,0,0
210,-188,0,0,0,0,0,0,0,0,0,-1,1434,1212,0,0
217,-188,0,0,0,0,0,0,0,0,0,-1,1441,1212,0,0
224,-188,0,0,0,0,0,0,0,0,0,-1,1448,1212,0,0
231,-188,0,0,0,0,0,0,0,0,0,-1,1455,1212,0,0
238,-188,0,0,0,0,0,0,0,0,0,-1,1462,1212,0,0
245,-188,0,0,0,0,0,0,0,0,0,-1,1469,1212,0,0
252,-188,0,0,0,0,0,0,0,0,0,-1,1476,1212,0,0
259,-188,0,0,0,0,0,0,0,0,0,-1,1483,1212,0,0
266,-188,0,0,0,0,0,0,0,0,0,-1,1490,1212,0,0
273,-188,0,0,0,0,0,0,0,0,0,-1,1497,1212,0,0
280,-188,0,0,0,0,0,0,0,0,0,-1,1504,1212,0,0
287,-188,0,0,0,0,0,0,0,0,0,-1,1511,1212,0,0
294,-188,0,0,0,0,0,0,0,0,0,-1,1518,1212,0,0
301,-188,0,0,0,0,0,0,0,0,0,-1,1525,1212,0,0
308,-188,0,0,0,0,0,0,0,0,0,-1,1532,1212,0,0
315,-188,0,0,0,0,0,0,0,0,0,-1,1539,1212,0,0
322,-188,0,0,0,0,0,0,0,0,0,-1,1546,1212,0,0
329,-188,0,0,0,0,0,0,0,0,0,-1,1553,1212,0,0
336,-188,0,0,0,0,0,0,0,0,0,-1,1560,1212,0,0
343,-188,0,0,0,0,0,0,0,0,0,-1,1567,1212,0,0
350,-188,0,0,0,0,0,0,0,0,0,-1,1574,1212,0,0
357,-188,0,0,0,0,0,0,0,0,0,-1,1581,1212,0,0
364,-188,0,0,0,0,0,0,0,0,0,-1,1588,1212,0,0
371,-188,0,0,0,0,0,0,0,0,0,-1,1595,1212,0,0
378,-188,0,0,0,0,0,0,0,0,0,-1,1602,1212,0,0
385,-188,0,0,0,0,0,0,0,0,0,-1,1609,1212,0,0
392,-188,0,0,0,0,0,0,0,0,0,-1,1616,1212,0,0
399,-188,0,0,0,0,0,0,0,0,0,-1,1623,1212,0,0
406,-188,0,0,0,0,0,0,0,0,0,-1,1630,1212,0,0
413,-188,0,0,0,0,0,0,0,0,0,-1,1637,1212,0,0
420,-188,0,0,0,0,0,0,0,0,0,-1,1644,1212,0,0
427,-188,0,0,0,0,0,0,0,0,0,-1,1651,1212,0,0
434,-188,0,0,0,0,0,0,0,0,0,-1,1658,1212,0,0
441,-188,0,0,0,0,0,0,0,0,0,-1,1665,1212,0,0
448,-188,0,0,0,0,0,0,0,0,0,-1,1672,1212,0,0
455,-188,0,0,0,0,0,0,0,0,0,-1,1679,1212,0,0
462,-188,0,0,0,0,0,0,0,0,0,-1,1686,1212,0,0
469,-188,0,0,0,0,0,0,0,0,0,-1,1693,1212,0,0
476,-188,0,0,0,0,0,0,0,0,0,-1,1700,1212,0,0
483,-188,0,0,0,0,0,0,0,0,0,-1,1707,1212,0,0
490,-188,0,0,0,0,0,0,0,0,0,-1,1714,1212,0,0
497,-188,0,0,0,0,0,0,0,0,0,-1,1721,1212,0,0
504,-188,0,0,0,0,0,0,0,0,0,-1,1728,1212,0,0
511,-188,0,0,0,0,0,0,0,0,0,-1,1735,1212,0,0
518,-188,0,0,0,0,0,0,0,0,0,-1,1742,1212,0,0
525,-188,0,0,0,0,0,0,0,0,0,-1,1749,1212,0,0
532,-188,0,0,0,0,0,0,0,0,0,-1,1756,1212,0,0
539,-188,0,0,0,0,0,0,0,0,0,-1,1763,1212,0,0
546,-188,0,0,0,0,0,0,0,0,0,-1,1770,1212,0,0
553,-188,0,0,0,0,0,0,0,0,0,-1,1777,1212,0,0
560,-188,0,0,0,0,0,0,0,0,0,-1,1784,1212,0,0
567,-188,0,0,0,0,0,0,0,0,0,-1,1791,1212,0,0
574,-188,0,0,0,0,0,0,0,0,0,-1,1798,1212,0,0
581,-188,0,0,0,0,0,0,0,0,0,-1,1805,1212,0,0
588,-188,0,0,0,0,0,0,0,0,0,-1,1812,1212,0,0
595,-188,0,0,0,0,0,0,0,0,0,-1,1819,1212,0,0
602,-188,0,0,0,0,0,0,0,0,0,-1,1826,1212,0,0
609,-188,0,0,0,0,0,0,0,0,0,-1,1833,1212,0,0
616,-188,0,0,0,0,0,0,0,0,0,-1,1840,1212,0,0
623,-188,0,0,0,0,0,0,0,0,0,-1,1847,1212,0,0
630,-188,20.5996,2.802,-0.00200058,0.00178413,0.00241978,0.00296364,-0.00318008,1.11724,0.00354781,0.0381822,1854,1212,20.5996,-2.80199
637,-188,20.6205,2.94519,-0.000565783,0.00154094,0.00132071,0.00217691,-0.00120175,1.12203,0.00197757,0.0399501,1861,1212,20.6205,-2.94518
644,-188,20.5961,2.98767,0.0010484,0.00116824,0.000255912,0.00137116,0.000845487,0.900402,0.000798783,0.0378731,1868,1212,20.5961,-2.98768
651,-188,20.5184,2.73401,0.00238,0.000586605,-0.000491709,0.00250596,0.000460638,-0.25079,0.00154023,0.0318169,1875,1212,20.5185,-2.73402
658,-188,20.4977,2.74182,0.0026154,-0.000340564,-0.000518766,0.0027038,-0.000428963,-0.168781,0.00196122,0.0302087,1882,1212,20.4976,-2.74184
665,-188,20.4498,2.74597,0.00240234,-0.00116995,-0.000301876,0.00242767,-0.00119528,-0.0837137,0.00213167,0.0282661,1889,1212,20.4499,-2.74593
672,-188,20.5525,2.74817,0.00176837,-0.00192417,2.78372e-05,0.00176858,-0.00192438,0.00753818,0.00213277,0.0240621,1896,1212,20.5525,-2.74815
679,-188,20.7505,2.7843,0.000876216,-0.00245901,0.00044221,0.000933852,-0.00251664,0.129605,0.00206082,0.0479502,1903,1212,20.7505,-2.7843
686,-188,21.0901,2.78455,0,0,0,0,0,0,0,-1,1910,1212,21.0901,-2.7846
693,-188,21.4213,2.76917,0,0,0,0,0,0,0,-1,1917,1212,21.4213,-2.76916
700,-188,18.7058,4.59631,-0.00141813,-0.00329706,0.00155436,-0.000541383,-0.0041738,0.513571,0.00262078,0.0440532,1924,1212,18.7059,-4.59635
707,-188,18.5347,4.69153,-0.00205551,-0.00328381,0.00187904,-0.000692802,-0.00464652,0.62745,0.00289452,0.0147991,1931,1212,18.5346,-4.69148
714,-188,18.526,4.58374,-0.00264951,-0.0031451,0.00199454,-0.000887437,-0.00490718,0.723596,0.00301943,0.0119461,1938,1212,18.526,-4.5838
721,-188,18.4681,4.46545,-0.00299914,-0.00276856,0.0021306,-0.000750136,-0.00501756,0.812428,0.00312515,0.0107453,1945,1212,18.4681,-4.46545
728,-188,18.4377,4.3396,-0.00272511,-0.00201146,0.0021123,-0.000226062,-0.00451051,0.869072,0.00293456,0.00933571,1952,1212,18.4378,-4.33956
735,-188,18.432,4.2135,-0.00189296,-0.00101418,0.00190804,0.00050441,-0.00341156,0.898567,0.00245981,0.0123637,1959,1212,18.432,-4.21351
742,-188,18.4332,4.07471,0.000338939,3.50926e-06,0.00126418,0.00144648,-0.00110403,0.71945,0.00147695,0.0132322,1966,1212,18.4332,-4.07476
749,-188,18.4476,3.9397,0.00284709,0.000798824,0.00047275,0.00295094,0.000694977,0.216233,0.00178141,0.0132605,1973,1212,18.4476,-3.93973
756,-188,18.4337,3.79944,0.00573974,0.00159063,-0.000279062,0.00575842,0.00157194,-0.0668569,0.00343696,0.0118275,1980,1212,18.4338,-3.79945
763,-188,18.4243,3.67993,0.00900979,0.00201088,-0.000999402,0.0091497,0.00187097,-0.139091,0.00558167,0.0131426,1987,1212,18.4244,-3.67995
770,-188,18.4641,3.52246,0.0133017,0.00222514,-0.00204902,0.0136686,0.00185825,-0.177178,0.00856048,0.0203471,1994,1212,18.4642,-3.52252
777,-188,18.6888,3.38672,0.0188272,0.00205485,-0.00372937,0.0196191,0.001263,-0.209221,0.0126794,0.0432658,2001,1212,18.6888,-3.38669
784,-188,18.8939,3.25061,0,0,0,0,0,0,0,-1,2008,1212,18.8939,-3.25066
791,-188,18.6945,3.01587,0,0,0,0,0,0,0,-1,2015,1212,18.6944,-3.01585
798,-188,16.9868,2.83948,0,0,0,0,0,0,0,-1,2022,1212,16.9868,-2.83949
805,-188,0,0,0,0,0,0,0,0,0,-1,2029,1212,0,0
812,-188,0,0,0,0,0,0,0,0,0,-1,2036,1212,0,0
-700,-195,0,0,0,0,0,0,0,0,0,-1,524,1219,0,0
-693,-195,0,0,0,0,0,0,0,0,0,-1,531,1219,0,0
-686,-195,0,0,0,0,0,0,0,0,0,-1,538,1219,0,0
-679,-195,-14.4478,-5.77112,-0.0625119,-0.0520374,0.0127074,-0.0435303,-0.071019,0.980863,0.04135,0.045878,545,1219,-14.4478,5.77114
-672,-195,-14.8782,-4.41443,-0.0415311,-0.0407827,0.0127529,-0.0283985,-0.0539153,0.800067,0.0311429,0.0478446,552,1219,-14.8783,4.41449
-665,-195,-14.7233,-2.70776,0,0,0,0,0,0,0,-1,559,1219,-14.7233,2.70771
-658,-195,-9.36182,0.621948,0,0,0,0,0,0,0,-1,566,1219,-9.36181,-0.621969
-651,-195,-9.66168,0.832031,-0.00710416,-0.0173704,0.00815509,-0.0026012,-0.0218734,0.504505,0.0137972,0.0434471,573,1219,-9.66166,-0.832071
-644,-195,-10.2628,1.06079,-0.00196859,-0.012316,0.00617462,0.000913328,-0.015198,0.436684,0.0104497,0.0401568,580,1219,-10.2628,-1.06083
-637,-195,-10.4025,1.1687,0.00115236,-0.00857044,0.00428212,0.00276937,-0.0101874,0.361064,0.0078787,0.020425,587,1219,-10.4025,-1.16869
-630,-195,-10.5091,1.2821,0.00273752,-0.00573439,0.00260907,0.00347656,-0.00647343,0.276027,0.00583084,0.00817256,594,1219,-10.5091,-1.28212
-623,-195,-10.5198,1.44434,0.0043639,-0.00296054,0.00100853,0.00450023,-0.00309687,0.134364,0.00441106,0.0081303,601,1219,-10.5198,-1.44435
-616,-195,-10.5056,1.61768,0.00483486,-0.00134196,-0.00112561,0.00503359,-0.00154069,-0.174751,0.00397022,0.00930969,608,1219,-10.5056,-1.61767
-609,-195,-10.5046,1.78552,0.00393094,-0.00113362,-0.00276417,0.0051474,-0.00235009,-0.414576,0.00442797,0.0162148,615,1219,-10.5047,-1.78549
-602,-195,-10.5115,1.94641,0.00261577,-0.00146566,-0.00427274,0.00531012,-0.00416,-0.562609,0.005481,0.0206539,622,1219,-10.5115,-1.94636
-595,-195,-10.514,2.1178,0.00243922,-0.00229473,-0.00587387,0.00640509,-0.0062606,-0.593867,0.0073127,0.0148623,629,1219,-10.514,-2.11776
-588,-195,-10.5157,2.26685,0.00328735,-0.0028056,-0.00640602,0.0073344,-0.00685264,-0.563444,0.00819247,0.00758894,636,1219,-10.5158,-2.2669
-581,-195,-10.5349,2.39661,0.00368886,-0.00289217,-0.00676242,0.00791884,-0.00712215,-0.558968,0.00868798,0.00945277,643,1219,-10.5349,-2.39659
-574,-195,-10.5572,2.40649,0.00400274,-0.00299562,-0.00661232,0.00798466,-0.00697755,-0.542035,0.00864496,0.0231057,650,1219,-10.5572,-2.40646
-567,-195,-9.80518,1.62439,0.00399638,-0.00300201,-0.00631408,0.00771604,-0.00672168,-0.532371,0.00834221,0.0499625,657,1219,-9.80517,-1.62441
-560,-195,-13.4918,1.31531,0,0,0,0,0,0,0,-1,664,1219,-13.4918,-1.31529
-553,-195,-13.2764,1.23572,0.00336198,-0.00302081,-0.00539835,0.00644172,-0.00610055,-0.518444,0.00724218,0.0456681,671,1219,-13.2764,-1.23567
-546,-195,-12.931,0.918091,0.00255861,-0.00282587,-0.00446208,0.00507773,-0.005345,-0.513955,0.00601823,0.0455868,678,1219,-12.931,-0.91809
-539,-195,-12.9687,0.907349,0.00136128,-0.00253555,-0.00318826,0.00314935,-0.00432362,-0.51112,0.00433224,0.0353387,685,1219,-12.9687,-0.907362
-532,-195,-13.0923,0.901611,-0.000152738,-0.00222932,-0.0015198,0.00064958,-0.00303164,-0.485725,0.00226883,0.0341015,692,1219,-13.0923,-0.901583
-525,-195,-13.1634,1.07703,-0.00186208,-0.00205247,0.000593738,-0.00135595,-0.00255859,0.70591,0.00147809,0.0394104,699,1219,-13.1634,-1.07699
-518,-195,-13.0036,1.09045,-0.00317823,-0.00258869,0.00238254,-0.000482749,-0.00528417,0.846945,0.0033734,0.0427923,706,1219,-13.0036,-1.0904
-511,-195,-12.789,0.950073,-0.000351204,-0.00398406,0.00226106,0.000732681,-0.00506794,0.447008,0.00364747,0.0446142,713,1219,-12.789,-0.95002
-504,-195,0,0,0,0,0,0,0,0,0,-1,720,1219,0,0
-497,-195,0,0,0,0,0,0,0,0,0,-1,727,1219,0,0
-490,-195,0,0,0,0,0,0,0,0,0,-1,734,1219,0,0
-483,-195,0,0,0,0,0,0,0,0,0,-1,741,1219,0,0
-476,-195,0,0,0,0,0,0,0,0,0,-1,748,1219,0,0
-469,-195,0,0,0,0,0,0,0,0,0,-1,755,1219,0,0
-462,-195,0,0,0,0,0,0,0,0,0,-1,762,1219,0,0
-455,-195,0,0,0,0,0,0,0,0,0,-1,769,1219,0,0
-448,-195,0,0,0,0,0,0,0,0,0,-1,776,1219,0,0
-441,-195,0,0,0,0,0,0,0,0,0,-1,783,1219,0,0
-434,-195,0,0,0,0,0,0,0,0,0,-1,790,1219,0,0
-427,-195,0,0,0,0,0,0,0,0,0,-1,797,1219,0,0
-420,-195,0,0,0,0,0,0,0,0,0,-1,804,1219,0,0
-413,-195,0,0,0,0,0,0,0,0,0,-1,811,1219,0,0
-406,-195,0,0,0,0,0,0,0,0,0,-1,818,1219,0,0
-399,-195,0,0,0,0,0,0,0,0,0,-1,825,1219,0,0
-392,-195,0,0,0,0,0,0,0,0,0,-1,832,1219,0,0
-385,-195,0,0,0,0,0,0,0,0,0,-1,839,1219,0,0
-378,-195,0,0,0,0,0,0,0,0,0,-1,846,1219,0,0
-371,-195,0,0,0,0,0,0,0,0,0,-1,853,1219,0,0
-364,-195,0,0,0,0,0,0,0,0,0,-1,860,1219,0,0
-357,-195,0,0,0,0,0,0,0,0,0,-1,867,1219,0,0
-350,-195,0,0,0,0,0,0,0,0,0,-1,874,1219,0,0
-343,-195,0,0,0,0,0,0,0,0,0,-1,881,1219,0,0
-336,-195,0,0,0,0,0,0,0,0,0,-1,888,1219,0,0
-329,-195,0,0,0,0,0,0,0,0,0,-1,895,1219,0,0
-322,-195,0,0,0,0,0,0,0,0,0,-1,902,1219,0,0
-315,-195,0,0,0,0,0,0,0,0,0,-1,909,1219,0,0
-308,-195,0,0,0,0,0,0,0,0,0,-1,916,1219,0,0
-301,-195,0,0,0,0,0,0,0,0,0,-1,923,1219,0,0
-294,-195,0,0,0,0,0,0,0,0,0,-1,930,1219,0,0
-287,-195,0,0,0,0,0,0,0,0,0,-1,937,1219,0,0
-280,-195,0,0,0,0,0,0,0,0,0,-1,944,1219,0,0
-273,-195,0,0,0,0,0,0,0,0,0,-1,951,1219,0,0
-266,-195,0,0,0,0,0,0,0,0,0,-1,958,1219,0,0
-259,-195,0,0,0,0,0,0,0,0,0,-1,965,1219,0,0
-252,-195,0,0,0,0,0,0,0,0,0,-1,972,1219,0,0
-245,-195,0,0,0,0,0,0,0,0,0,-1,979,1219,0,0
-238,-195,0,0,0,0,0,0,0,0,0,-1,986,1219,0,0
-231,-195,0,0,0,0,0,0,0,0,0,-1,993,1219,0,0
-224,-195,0,0,0,0,0,0,0,0,0,-1,1000,1219,0,0
-217,-195,0,0,0,0,0,0,0,0,0,-1,1007,1219,0,0
-210,-195,0,0,0,0,0,0,0,0,0,-1,1014,1219,0,0
-203,-195,0,0,0,0,0,0,0,0,0,-1,1021,1219,0,0
-196,-195,0,0,0,0,0,0,0,0,0,-1,1028,1219,0,0
-189,-195,0,0,0,0,0,0,0,0,0,-1,1035,1219,0,0
-182,-195,0,0,0,0,0,0,0,0,0,-1,1042,1219,0,0
-175,-195,0,0,0,0,0,0,0,0,0,-1,1049,1219,0,0
-168,-195,0,0,0,0,0,0,0,0,0,-1,1056,1219,0,0
-161,-195,0,0,0,0,0,0,0,0,0,-1,1063,1219,0,0
-154,-195,0,0,0,0,0,0,0,0,0,-1,1070,1219,0,0
-147,-195,0,0,0,0,0,0,0,0,0,-1,1077,1219,0,0
-140,-195,0,0,0,0,0,0,0,0,0,-1,1084,1219,0,0
-133,-195,0,0,0,0,0,0,0,0,0,-1,1091,1219,0,0
-126,-195,0,0,0,0,0,0,0,0,0,-1,1098,1219,0,0
-119,-195,0,0,0,0,0,0,0,0,0,-1,1105,1219,0,0
-112,-195,0,0,0,0,0,0,0,0,0,-1,1112,1219,0,0
-105,-195,0,0,0,0,0,0,0,0,0,-1,1119,1219,0,0
-98,-195,0,0,0,0,0,0,0,0,0,-1,1126,1219,0,0
-91,-195,0,0,0,0,0,0,0,0,0,-1,1133,1219,0,0
-84,-195,0,0,0,0,0,0,0,0,0,-1,1140,1219,0,0
-77,-195,0,0,0,0,0,0,0,0,0,-1,1147,1219,0,0
-70,-195,0,0,0,0,0,0,0,0,0,-1,1154,1219,0,0
-63,-195,0,0,0,0,0,0,0,0,0,-1,1161,1219,0,0
-56,-195,0,0,0,0,0,0,0,0,0,-1,1168,1219,0,0
-49,-195,0,0,0,0,0,0,0,0,0,-1,1175,1219,0,0
-42,-195,0,0,0,0,0,0,0,0,0,-1,1182,1219,0,0
-35,-195,0,0,0,0,0,0,0,0,0,-1,1189,1219,0,0
-28,-195,0,0,0,0,0,0,0,0,0,-1,1196,1219,0,0
-21,-195,0,0,0,0,0,0,0,0,0,-1,1203,1219,0,0
-14,-195,0,0,0,0,0,0,0,0,0,-1,1210,1219,0,0
-7,-195,0,0,0,0,0,0,0,0,0,-1,1217,1219,0,0
0,-195,0,0,0,0,0,0,0,0,0,-1,1224,1219,0,0
7,-195,0,0,0,0,0,0,0,0,0,-1,1231,1219,0,0
14,-195,0,0,0,0,0,0,0,0,0,-1,1238,1219,0,0
21,-195,0,0,0,0,0,0,0,0,0,-1,1245,1219,0,0
28,-195,0,0,0,0,0,0,0,0,0,-1,1252,1219,0,0
35,-195,0,0,0,0,0,0,0,0,0,-1,1259,1219,0,0
42,-195,0,0,0,0,0,0,0,0,0,-1,1266,1219,0,0
49,-195,0,0,0,0,0,0,0,0,0,-1,1273,1219,0,0
56,-195,0,0,0,0,0,0,0,0,0,-1,1280,1219,0,0
63,-195,0,0,0,0,0,0,0,0,0,-1,1287,1219,0,0
70,-195,0,0,0,0,0,0,0,0,0,-1,1294,1219,0,0
77,-195,0,0,0,0,0,0,0,0,0,-1,1301,1219,0,0
84,-195,0,0,0,0,0,0,0,0,0,-1,1308,1219,0,0
91,-195,0,0,0,0,0,0,0,0,0,-1,1315,1219,0,0
98,-195,0,0,0,0,0,0,0,0,0,-1,1322,1219,0,0
105,-195,0,0,0,0,0,0,0,0,0,-1,1329,1219,0,0
112,-195,0,0,0,0,0,0,0,0,0,-1,1336,1219,0,0
119,-195,0,0,0,0,0,0,0,0,0,-1,1343,1219,0,0
126,-195,0,0,0,0,0,0,0,0,0,-1,1350,1219,0,0
133,-195,0,0,0,0,0,0,0,0,0,-1,1357,1219,0,0
140,-195,0,0,0,0,0,0,0,0,0,-1,1364,1219,0,0
147,-195,0,0,0,0,0,0,0,0,0,-1,1371,1219,0,0
154,-195,0,0,0,0,0,0,0,0,0,-1,1378,1219,0,0
161,-195,0,0,0,0,0,0,0,0,0,-1,1385,1219,0,0
168,-195,0,0,0,0,0,0,0,0,0,-1,1392,1219,0,0
175,-195,0,0,0,0,0,0,0,0,0,-1,1399,1219,0,0
182,-195,0,0,0,0,0,0,0,0,0,-1,1406,1219,0,0
189,-195,0,0,0,0,0,0,0,0,0,-1,1413,1219,0,0
196,-195,0,0,0,0,0,0,0,0,0,-1,1420,1219,0,0
203,-195,0,0,0,0,0,0,0,0,0,-1,1427,1219,0,0
210,-195,0,0,0,0,0,0,0,0,0,-1,1434,1219,0,0
217,-195,0,0,0,0,0,0,0,0,0,-1,1441,1219,0,0
224,-195,0,0,0,0,0,0,0,0,0,-1,1448,1219,0,0
231,-195,0,0,0,0,0,0,0,0,0,-1,1455,1219,0,0
238,-195,0,0,0,0,0,0,0,0,0,-1,1462,1219,0,0
245,-195,0,0,0,0,0,0,0,0,0,-1,1469,1219,0,0
252,-195,0,0,0,0,0,0,0,0,0,-1,1476,1219,0,0
259,-195,0,0,0,0,0,0,0,0,0,-1,1483,1219,0,0
266,-195,0,0,0,0,0,0,0,0,0,-1,1490,1219,0,0
273,-195,0,0,0,0,0,0,0,0,0,-1,1497,1219,0,0
280,-195,0,0,0,0,0,0,0,0,0,-1,1504,1219,0,0
287,-195,0,0,0,0,0,0,0,0,0,-1,1511,1219,0,0
294,-195,0,0,0,0,0,0,0,0,0,-1,1518,1219,0,0
301,-195,0,0,0,0,0,0,0,0,0,-1,1525,1219,0,0
308,-195,0,0,0,0,0,0,0,0,0,-1,1532,1219,0,0
315,-195,0,0,0,0,0,0,0,0,0,-1,1539,1219,0,0
322,-195,0,0,0,0,0,0,0,0,0,-1,1546,1219,0,0
329,-195,0,0,0,0,0,0,0,0,0,-1,1553,1219,0,0
336,-195,0,0,0,0,0,0,0,0,0,-1,1560,1219,0,0
343,-195,0,0,0,0,0,0,0,0,0,-1,1567,1219,0,0
350,-195,0,0,0,0,0,0,0,0,0,-1,1574,1219,0,0
357,-195,0,0,0,0,0,0,0,0,0,-1,1581,1219,0,0
364,-195,0,0,0,0,0,0,0,0,0,-1,1588,1219,0,0
371,-195,0,0,0,0,0,0,0,0,0,-1,1595,1219,0,0
378,-195,0,0,0,0,0,0,0,0,0,-1,1602,1219,0,0
385,-195,0,0,0,0,0,0,0,0,0,-1,1609,1219,0,0
392,-195,0,0,0,0,0,0,0,0,0,-1,1616,1219,0,0
399,-195,0,0,0,0,0,0,0,0,0,-1,1623,1219,0,0
406,-195,0,0,0,0,0,0,0,0,0,-1,1630,1219,0,0
413,-195,0,0,0,0,0,0,0,0,0,-1,1637,1219,0,0
420,-195,0,0,0,0,0,0,0,0,0,-1,1644,1219,0,0
427,-195,0,0,0,0,0,0,0,0,0,-1,1651,1219,0,0
434,-195,0,0,0,0,0,0,0,0,0,-1,1658,1219,0,0
441,-195,0,0,0,0,0,0,0,0,0,-1,1665,1219,0,0
448,-195,0,0,0,0,0,0,0,0,0,-1,1672,1219,0,0
455,-195,0,0,0,0,0,0,0,0,0,-1,1679,1219,0,0
462,-195,0,0,0,0,0,0,0,0,0,-1,1686,1219,0,0
469,-195,0,0,0,0,0,0,0,0,0,-1,1693,1219,0,0
476,-195,0,0,0,0,0,0,0,0,0,-1,1700,1219,0,0
483,-195,0,0,0,0,0,0,0,0,0,-1,1707,1219,0,0
490,-195,0,0,0,0,0,0,0,0,0,-1,1714,1219,0,0
497,-195,0,0,0,0,0,0,0,0,0,-1,1721,1219,0,0
504,-195,0,0,0,0,0,0,0,0,0,-1,1728,1219,0,0
511,-195,0,0,0,0,0,0,0,0,0,-1,1735,1219,0,0
518,-195,0,0,0,0,0,0,0,0,0,-1,1742,1219,0,0
525,-195,0,0,0,0,0,0,0,0,0,-1,1749,1219,0,0
532,-195,0,0,0,0,0,0,0,0,0,-1,1756,1219,0,0
539,-195,0,0,0,0,0,0,0,0,0,-1,1763,1219,0,0
546,-195,0,0,0,0,0,0,0,0,0,-1,1770,1219,0,0
553,-195,0,0,0,0,0,0,0,0,0,-1,1777,1219,0,0
560,-195,0,0,0,0,0,0,0,0,0,-1,1784,1219,0,0
567,-195,0,0,0,0,0,0,0,0,0,-1,1791,1219,0,0
574,-195,0,0,0,0,0,0,0,0,0,-1,1798,1219,0,0
581,-195,0,0,0,0,0,0,0,0,0,-1,1805,1219,0,0
588,-195,0,0,0,0,0,0,0,0,0,-1,1812,1219,0,0
595,-195,0,0,0,0,0,0,0,0,0,-1,1819,1219,0,0
602,-195,0,0,0,0,0,0,0,0,0,-1,1826,1219,0,0
609,-195,0,0,0,0,0,0,0,0,0,-1,1833,1219,0,0
616,-195,0,0,0,0,0,0,0,0,0,-1,1840,1219,0,0
623,-195,0,0,0,0,0,0,0,0,0,-1,1847,1219,0,0
630,-195,20.5923,2.63245,-0.00126999,0.00229975,0.00192145,0.00313742,-0.00210766,1.15968,0.00304764,0.0382058,1854,1219,20.5923,-2.63247
637,-195,20.6012,2.91968,0.000305422,0.00197247,0.000789607,0.00228709,-9.20158e-06,1.19162,0.0015278,0.0402377,1861,1219,20.6013,-2.91972
644,-195,20.5822,2.99048,0.00191504,0.00148014,-0.000215805,0.00200395,0.00139123,-0.390804,0.00118573,0.0377931,1868,1219,20.5821,-2.99043
651,-195,20.5906,2.7738,0.00301091,0.000711349,-0.000790722,0.00325656,0.000465694,-0.301217,0.00203366,0.028173,1875,1219,20.5906,-2.77377
658,-195,20.5441,2.77319,0.00318662,-0.00024413,-0.000753551,0.00334484,-0.000402348,-0.206957,0.0023754,0.0238239,1882,1219,20.544,-2.77324
665,-195,20.531,2.73096,0.00297554,-0.00107582,-0.000510561,0.00303889,-0.00113917,-0.123451,0.00249394,0.0216256,1889,1219,20.531,-2.73102
672,-195,20.6088,2.63708,0.00237431,-0.00182162,-0.000173666,0.00238149,-0.0018288,-0.0412949,0.00243778,0.0336815,1896,1219,20.6087,-2.63705
679,-195,20.7227,2.46802,0.00154238,-0.00232922,0.000225807,0.00155551,-0.00234235,0.0580616,0.00226566,0.0485179,1903,1219,20.7227,-2.46807
686,-195,20.8867,2.30396,0,0,0,0,0,0,0,-1,1910,1219,20.8867,-2.30397
693,-195,18.4535,4.72937,0,0,0,0,0,0,0,-1,1917,1219,18.4535,-4.72939
700,-195,18.3818,4.76611,-0.000666828,-0.00317385,0.00135363,-7.5453e-05,-0.00376523,0.41189,0.00248538,0.0333474,1924,1219,18.3819,-4.76609
707,-195,18.298,4.76892,-0.00136568,-0.00316568,0.00170042,-0.00034177,-0.00418958,0.541999,0.00268639,0.0152584,1931,1219,18.298,-4.76898
714,-195,18.2955,4.6228,-0.00201088,-0.00303089,0.00186087,-0.00059139,-0.00445038,0.651648,0.00279075,0.015339,1938,1219,18.2955,-4.62285
721,-195,18.308,4.47437,-0.00238296,-0.00260706,0.00199124,-0.000500626,-0.0044894,0.757292,0.0028408,0.0112767,1945,1219,18.308,-4.47439
728,-195,18.3044,4.34192,-0.00214194,-0.00179748,0.00197042,8.21822e-06,-0.00394764,0.828992,0.0026345,0.0102895,1952,1219,18.3045,-4.34196
735,-195,18.287,4.2179,-0.00136291,-0.000767224,0.00179676,0.000756206,-0.00288634,0.867535,0.00221966,0.0126827,1959,1219,18.287,-4.21785
742,-195,18.298,4.06934,0.000805461,0.000309135,0.00126213,0.00184359,-0.000728995,0.688325,0.00153105,0.0138492,1966,1219,18.2979,-4.06928
749,-195,18.3079,3.93457,0.00319806,0.00119081,0.000620536,0.0033744,0.00101447,0.276882,0.00199917,0.013732,1973,1219,18.3078,-3.93459
756,-195,18.2939,3.80408,0.00597333,0.00206183,6.03245e-05,0.00597426,0.0020609,0.0154174,0.00350408,0.0130364,1980,1219,18.294,-3.80406
763,-195,18.3016,3.66418,0.00928568,0.00268526,-0.000441694,0.00931511,0.00265583,-0.0665239,0.00554117,0.0143751,1987,1219,18.3017,-3.6642
770,-195,18.3721,3.47095,0.0137878,0.00323158,-0.00121163,0.0139251,0.0030943,-0.112824,0.00844313,0.0269374,1994,1219,18.372,-3.47094
777,-195,18.5526,3.24719,0.0196844,0.00354983,-0.00249697,0.020062,0.00317224,-0.150083,0.0124526,0.04639,2001,1219,18.5526,-3.24719
784,-195,18.6719,3.01758,0,0,0,0,0,0,0,-1,2008,1219,18.6719,-3.01754
791,-195,18.9252,3.13513,0,0,0,0,0,0,0,-1,2015,1219,18.9252,-3.13516
798,-195,20.848,2.16467,0,0,0,0,0,0,0,-1,2022,1219,20.848,-2.16466
805,-195,0,0,0,0,0,0,0,0,0,-1,2029,1219,0,0
812,-195,0,0,0,0,0,0,0,0,0,-1,2036,1219,0,0
-700,-202,0,0,0,0,0,0,0,0,0,-1,524,1226,0,0
-693,-202,0,0,0,0,0,0,0,0,0,-1,531,1226,0,0
-686,-202,0,0,0,0,0,0,0,0,0,-1,538,1226,0,0
-679,-202,-12.9316,-4.9884,-0.0549393,-0.0642668,0.00983739,-0.0487162,-0.07049,0.564047,0.0416765,0.0445325,545,1226,-12.9316,4.98835
-672,-202,-13.3763,-3.75647,-0.0332339,-0.0500349,0.0100138,-0.0285636,-0.0547051,0.436393,0.0315943,0.046619,552,1226,-13.3763,3.75647
-665,-202,-13.6614,-2.49524,-0.0182174,-0.0384406,0.00905441,-0.014756,-0.041902,0.365146,0.0245422,0.0476157,559,1226,-13.6614,2.49528
-658,-202,-13.6537,-1.41699,-0.00786612,-0.0289799,0.00754792,-0.00544538,-0.0314007,0.310353,0.0193754,0.0452478,566,1226,-13.6537,1.41698
-651,-202,-9.85504,1.13086,-0.00111034,-0.0213377,0.00579047,0.000429999,-0.022878,0.259991,0.0153974,0.0480844,573,1226,-9.85506,-1.13084
-644,-202,-10.0643,1.24646,0.00283977,-0.0152876,0.00400994,0.00368719,-0.016135,0.208266,0.0121733,0.0438284,580,1226,-10.0643,-1.2464
-637,-202,-10.1806,1.18188,0.00467382,-0.0106421,0.00238258,0.0050359,-0.0110042,0.150816,0.00947201,0.0315674,587,1226,-10.1806,-1.18185
-630,-202,-10.2942,1.26062,0.00518511,-0.00719442,0.00100105,0.00526553,-0.00727485,0.0801689,0.00727111,0.013798,594,1226,-10.2942,-1.26066
-623,-202,-10.3302,1.41956,0.00631454,-0.00408299,-0.000280079,0.00632208,-0.00409053,-0.026911,0.00605757,0.0084507,601,1226,-10.3302,-1.41957
-616,-202,-10.339,1.5918,0.00633051,-0.0021129,-0.00195355,0.0067606,-0.00254298,-0.216698,0.00555236,0.00844115,608,1226,-10.339,-1.59177
-609,-202,-10.3208,1.75574,0.00512831,-0.00147502,-0.00309868,0.00635465,-0.00270136,-0.376848,0.00536843,0.0202182,615,1226,-10.3208,-1.75574
-602,-202,-10.339,1.92749,0.00365794,-0.00152369,-0.00418574,0.0059898,-0.00385555,-0.508275,0.00572857,0.0205422,622,1226,-10.339,-1.92749
-595,-202,-10.3607,2.10413,0.0034491,-0.00209719,-0.00541354,0.00675845,-0.00540654,-0.548694,0.0070379,0.0160221,629,1226,-10.3607,-2.10414
-588,-202,-10.3281,2.27698,0.00439799,-0.00250471,-0.00560401,0.00752818,-0.00563491,-0.509394,0.00762587,0.0081218,636,1226,-10.3281,-2.27698
-581,-202,-10.3326,2.38696,0.00472743,-0.0023597,-0.00582299,0.00800032,-0.00563259,-0.512058,0.00791044,0.0118606,643,1226,-10.3326,-2.38697
-574,-202,-10.3983,2.4292,0.00487841,-0.00222675,-0.00556982,0.00793217,-0.00528051,-0.501513,0.00767938,0.0192779,650,1226,-10.3982,-2.42925
-567,-202,-9.73297,1.61829,0,0,0,0,0,0,0,-1,657,1226,-9.73294,-1.61828
-560,-202,-9.89813,2.15198,0,0,0,0,0,0,0,-1,664,1226,-9.89814,-2.15196
-553,-202,-13.4967,1.50256,0,0,0,0,0,0,0,-1,671,1226,-13.4967,-1.50262
-546,-202,-12.8689,0.863037,0.00209527,-0.00149954,-0.00370289,0.00441394,-0.00381821,-0.559446,0.00475698,0.0476861,678,1226,-12.8689,-0.863005
-539,-202,-12.9047,0.876465,0.000402236,-0.00109927,-0.00274895,0.00250111,-0.00319814,-0.652096,0.00329866,0.0376798,685,1226,-12.9047,-0.876452
-532,-202,-13.0104,0.874756,-0.00164609,-0.000730879,-0.00151665,0.000395701,-0.00277267,-0.931915,0.00199348,0.0271462,692,1226,-13.0104,-0.874811
-525,-202,-13.0894,1.05774,-0.00388712,-0.000564447,4.9777e-05,-0.000563702,-0.00388787,1.55582,0.00242594,0.0358443,699,1226,-13.0894,-1.05773
-518,-202,-13.0327,1.06921,-0.00574577,-0.00113787,0.00148198,-0.0007024,-0.00618124,1.28499,0.0039078,0.0440454,706,1226,-13.0326,-1.06926
-511,-202,-13.0215,1.01892,-0.00358808,-0.00287765,0.00151106,-0.00168062,-0.00478511,0.90084,0.00280316,0.0440359,713,1226,-13.0215,-1.01896
-504,-202,0,0,0,0,0,0,0,0,0,-1,720,1226,0,0
-497,-202,0,0,0,0,0,0,0,0,0,-1,727,1226,0,0
-490,-202,0,0,0,0,0,0,0,0,0,-1,734,1226,0,0
-483,-202,0,0,0,0,0,0,0,0,0,-1,741,1226,0,0
-476,-202,0,0,0,0,0,0,0,0,0,-1,748,1226,0,0
-469,-202,0,0,0,0,0,0,0,0,0,-1,755,1226,0,0
-462,-202,0,0,0,0,0,0,0,0,0,-1,762,1226,0,0
-455,-202,0,0,0,0,0,0,0,0,0,-1,769,1226,0,0
-448,-202,0,0,0,0,0,0,0,0,0,-1,776,1226,0,0
-441,-202,0,0,0,0,0,0,0,0,0,-1,783,1226,0,0
-434,-202,0,0,0,0,0,0,0,0,0,-1,790,1226,0,0
-427,-202,0,0,0,0,0,0,0,0,0,-1,797,1226,0,0
-420,-202,0,0,0,0,0,0,0,0,0,-1,804,1226,0,0
-413,-202,0,0,0,0,0,0,0,0,0,-1,811,1226,0,0
-406,-202,0,0,0,0,0,0,0,0,0,-1,818,1226,0,0
-399,-202,0,0,0,0,0,0,0,0,0,-1,825,1226,0,0
-392,-202,0,0,0,0,0,0,0,0,0,-1,832,1226,0,0
-385,-202,0,0,0,0,0,0,0,0,0,-1,839,1226,0,0
-378,-202,0,0,0,0,0,0,0,0,0,-1,846,1226,0,0
-371,-202,0,0,0,0,0,0,0,0,0,-1,853,1226,0,0
-364,-202,0,0,0,0,0,0,0,0,0,-1,860,1226,0,0
-357,-202,0,0,0,0,0,0,0,0,0,-1,867,1226,0,0
-350,-202,0,0,0,0,0,0,0,0,0,-1,874,1226,0,0
-343,-202,0,0,0,0,0,0,0,0,0,-1,881,1226,0,0
-336,-202,0,0,0,0,0,0,0,0,0,-1,888,1226,0,0
-329,-202,0,0,0,0,0,0,0,0,0,-1,895,1226,0,0
-322,-202,0,0,0,0,0,0,0,0,0,-1,902,1226,0,0
-315,-202,0,0,0,0,0,0,0,0,0,-1,909,1226,0,0
-308,-202,0,0,0,0,0,0,0,0,0,-1,916,1226,0,0
-301,-202,0,0,0,0,0,0,0,0,0,-1,923,1226,0,0
-294,-202,0,0,0,0,0,0,0,0,0,-1,930,1226,0,0
-287,-202,0,0,0,0,0,0,0,0,0,-1,937,1226,0,0
-280,-202,0,0,0,0,0,0,0,0,0,-1,944,1226,0,0
-273,-202,0,0,0,0,0,0,0,0,0,-1,951,1226,0,0
-266,-202,0,0,0,0,0,0,0,0,0,-1,958,1226,0,0
-259,-202,0,0,0,0,0,0,0,0,0,-1,965,1226,0,0
-252,-202,0,0,0,0,0,0,0,0,0,-1,972,1226,0,0
-245,-202,0,0,0,0,0,0,0,0,0,-1,979,1226,0,0
-238,-202,0,0,0,0,0,0,0,0,0,-1,986,1226,0,0
-231,-202,0,0,0,0,0,0,0,0,0,-1,993,1226,0,0
-224,-202,0,0,0,0,0,0,0,0,0,-1,1000,1226,0,0
-217,-202,0,0,0,0,0,0,0,0,0,-1,1007,1226,0,0
-210,-202,0,0,0,0,0,0,0,0,0,-1,1014,1226,0,0
-203,-202,0,0,0,0,0,0,0,0,0,-1,1021,1226,0,0
-196,-202,0,0,0,0,0,0,0,0,0,-1,1028,1226,0,0
-189,-202,0,0,0,0,0,0,0,0,0,-1,1035,1226,0,0
-182,-202,0,0,0,0,0,0,0,0,0,-1,1042,1226,0,0
-175,-202,0,0,0,0,0,0,0,0,0,-1,1049,1226,0,0
-168,-202,0,0,0,0,0,0,0,0,0,-1,1056,1226,0,0
-161,-202,0,0,0,0,0,0,0,0,0,-1,1063,1226,0,0
-154,-202,0,0,0,0,0,0,0,0,0,-1,1070,1226,0,0
-147,-202,0,0,0,0,0,0,0,0,0,-1,1077,1226,0,0
-140,-202,0,0,0,0,0,0,0,0,0,-1,1084,1226,0,0
-133,-202,0,0,0,0,0,0,0,0,0,-1,1091,1226,0,0
-126,-202,0,0,0,0,0,0,0,0,0,-1,1098,1226,0,0
-119,-202,0,0,0,0,0,0,0,0,0,-1,1105,1226,0,0
-112,-202,0,0,0,0,0,0,0,0,0,-1,1112,1226,0,0
-105,-202,0,0,0,0,0,0,0,0,0,-1,1119,1226,0,0
-98,-202,0,0,0,0,0,0,0,0,0,-1,1126,1226,0,0
-91,-202,0,0,0,0,0,0,0,0,0,-1,1133,1226,0,0
-84,-202,0,0,0,0,0,0,0,0,0,-1,1140,1226,0,0
-77,-202,0,0,0,0,0,0,0,0,0,-1,1147,1226,0,0
-70,-202,0,0,0,0,0,0,0,0,0,-1,1154,1226,0,0
-63,-202,0,0,0,0,0,0,0,0,0,-1,1161,1226,0,0
-56,-202,0,0,0,0,0,0,0,0,0,-1,1168,1226,0,0
-49,-202,0,0,0,0,0,0,0,0,0,-1,1175,1226,0,0
-42,-202,0,0,0,0,0,0,0,0,0,-1,1182,1226,0,0
-35,-202,0,0,0,0,0,0,0,0,0,-1,1189,1226,0,0
-28,-202,0,0,0,0,0,0,0,0,0,-1,1196,1226,0,0
-21,-202,0,0,0,0,0,0,0,0,0,-1,1203,1226,0,0
-14,-202,0,0,0,0,0,0,0,0,0,-1,1210,1226,0,0
-7,-202,0,0,0,0,0,0,0,0,0,-1,1217,1226,0,0
0,-202,0,0,0,0,0,0,0,0,0,-1,1224,1226,0,0
7,-202,0,0,0,0,0,0,0,0,0,-1,1231,1226,0,0
14,-202,0,0,0,0,0,0,0,0,0,-1,1238,1226,0,0
21,-202,0,0,0,0,0,0,0,0,0,-1,1245,1226,0,0
28,-202,0,0,0,0,0,0,0,0,0,-1,1252,1226,0,0
35,-202,0,0,0,0,0,0,0,0,0,-1,1259,1226,0,0
42,-202,0,0,0,0,0,0,0,0,0,-1,1266,1226,0,0
49,-202,0,0,0,0,0,0,0,0,0,-1,1273,1226,0,0
56,-202,0,0,0,0,0,0,0,0,0,-1,1280,1226,0,0
63,-202,0,0,0,0,0,0,0,0,0,-1,1287,1226,0,0
70,-202,0,0,0,0,0,0,0,0,0,-1,1294,1226,0,0
77,-202,0,0,0,0,0,0,0,0,0,-1,1301,1226,0,0
84,-202,0,0,0,0,0,0,0,0,0,-1,1308,1226,0,0
91,-202,0,0,0,0,0,0,0,0,0,-1,1315,1226,0,0
98,-202,0,0,0,0,0,0,0,0,0,-1,1322,1226,0,0
105,-202,0,0,0,0,0,0,0,0,0,-1,1329,1226,0,0
112,-202,0,0,0,0,0,0,0,0,0,-1,1336,1226,0,0
119,-202,0,0,0,0,0,0,0,0,0,-1,1343,1226,0,0
126,-202,0,0,0,0,0,0,0,0,0,-1,1350,1226,0,0
133,-202,0,0,0,0,0,0,0,0,0,-1,1357,1226,0,0
140,-202,0,0,0,0,0,0,0,0,0,-1,1364,1226,0,0
147,-202,0,0,0,0,0,0,0,0,0,-1,1371,1226,0,0
154,-202,0,0,0,0,0,0,0,0,0,-1,1378,1226,0,0
161,-202,0,0,0,0,0,0,0,0,0,-1,1385,1226,0,0
168,-202,0,0,0,0,0,0,0,0,0,-1,1392,1226,0,0
175,-202,0,0,0,0,0,0,0,0,0,-1,1399,1226,0,0
182,-202,0,0,0,0,0,0,0,0,0,-1,1406,1226,0,0
189,-202,0,0,0,0,0,0,0,0,0,-1,1413,1226,0,0
196,-202,0,0,0,0,0,0,0,0,0,-1,1420,1226,0,0
203,-202,0,0,0,0,0,0,0,0,0,-1,1427,1226,0,0
210,-202,0,0,0,0,0,0,0,0,0,-1,1434,1226,0,0
217,-202,0,0,0,0,0,0,0,0,0,-1,1441,1226,0,0
224,-202,0,0,0,0,0,0,0,0,0,-1,1448,1226,0,0
231,-202,0,0,0,0,0,0,0,0,0,-1,1455,1226,0,0
238,-202,0,0,0,0,0,0,0,0,0,-1,1462,1226,0,0
245,-202,0,0,0,0,0,0,0,0,0,-1,1469,1226,0,0
252,-202,0,0,0,0,0,0,0,0,0,-1,1476,1226,0,0
259,-202,0,0,0,0,0,0,0,0,0,-1,1483,1226,0,0
266,-202,0,0,0,0,0,0,0,0,0,-1,1490,1226,0,0
273,-202,0,0,0,0,0,0,0,0,0,-1,1497,1226,0,0
280,-202,0,0,0,0,0,0,0,0,0,-1,1504,1226,0,0
287,-202,0,0,0,0,0,0,0,0,0,-1,1511,1226,0,0
294,-202,0,0,0,0,0,0,0,0,0,-1,1518,1226,0,0
301,-202,0,0,0,0,0,0,0,0,0,-1,1525,1226,0,0
308,-202,0,0,0,0,0,0,0,0,0,-1,1532,1226,0,0
315,-202,0,0,0,0,0,0,0,0,0,-1,1539,1226,0,0
322,-202,0,0,0,0,0,0,0,0,0,-1,1546,1226,0,0
329,-202,0,0,0,0,0,0,0,0,0,-1,1553,1226,0,0
336,-202,0,0,0,0,0,0,0,0,0,-1,1560,1226,0,0
343,-202,0,0,0,0,0,0,0,0,0,-1,1567,1226,0,0
350,-202,0,0,0,0,0,0,0,0,0,-1,1574,1226,0,0
357,-202,0,0,0,0,0,0,0,0,0,-1,1581,1226,0,0
364,-202,0,0,0,0,0,0,0,0,0,-1,1588,1226,0,0
371,-202,0,0,0,0,0,0,0,0,0,-1,1595,1226,0,0
378,-202,0,0,0,0,0,0,0,0,0,-1,1602,1226,0,0
385,-202,0,0,0,0,0,0,0,0,0,-1,1609,1226,0,0
392,-202,0,0,0,0,0,0,0,0,0,-1,1616,1226,0,0
399,-202,0,0,0,0,0,0,0,0,0,-1,1623,1226,0,0
406,-202,0,0,0,0,0,0,0,0,0,-1,1630,1226,0,0
413,-202,0,0,0,0,0,0,0,0,0,-1,1637,1226,0,0
420,-202,0,0,0,0,0,0,0,0,0,-1,1644,1226,0,0
427,-202,0,0,0,0,0,0,0,0,0,-1,1651,1226,0,0
434,-202,0,0,0,0,0,0,0,0,0,-1,1658,1226,0,0
441,-202,0,0,0,0,0,0,0,0,0,-1,1665,1226,0,0
448,-202,0,0,0,0,0,0,0,0,0,-1,1672,1226,0,0
455,-202,0,0,0,0,0,0,0,0,0,-1,1679,1226,0,0
462,-202,0,0,0,0,0,0,0,0,0,-1,1686,1226,0,0
469,-202,0,0,0,0,0,0,0,0,0,-1,1693,1226,0,0
476,-202,0,0,0,0,0,0,0,0,0,-1,1700,1226,0,0
483,-202,0,0,0,0,0,0,0,0,0,-1,1707,1226,0,0
490,-202,0,0,0,0,0,0,0,0,0,-1,1714,1226,0,0
497,-202,0,0,0,0,0,0,0,0,0,-1,1721,1226,0,0
504,-202,0,0,0,0,0,0,0,0,0,-1,1728,1226,0,0
511,-202,0,0,0,0,0,0,0,0,0,-1,1735,1226,0,0
518,-202,0,0,0,0,0,0,0,0,0,-1,1742,1226,0,0
525,-202,0,0,0,0,0,0,0,0,0,-1,1749,1226,0,0
532,-202,0,0,0,0,0,0,0,0,0,-1,1756,1226,0,0
539,-202,0,0,0,0,0,0,0,0,0,-1,1763,1226,0,0
546,-202,0,0,0,0,0,0,0,0,0,-1,1770,1226,0,0
553,-202,0,0,0,0,0,0,0,0,0,-1,1777,1226,0,0
560,-202,0,0,0,0,0,0,0,0,0,-1,1784,1226,0,0
567,-202,0,0,0,0,0,0,0,0,0,-1,1791,1226,0,0
574,-202,0,0,0,0,0,0,0,0,0,-1,1798,1226,0,0
581,-202,0,0,0,0,0,0,0,0,0,-1,1805,1226,0,0
588,-202,0,0,0,0,0,0,0,0,0,-1,1812,1226,0,0
595,-202,0,0,0,0,0,0,0,0,0,-1,1819,1226,0,0
602,-202,0,0,0,0,0,0,0,0,0,-1,1826,1226,0,0
609,-202,0,0,0,0,0,0,0,0,0,-1,1833,1226,0,0
616,-202,0,0,0,0,0,0,0,0,0,-1,1840,1226,0,0
623,-202,0,0,0,0,0,0,0,0,0,-1,1847,1226,0,0
630,-202,20.4802,2.77368,-0.000463753,0.00280315,0.00123526,0.00321763,-0.000878232,1.24706,0.00249,0.0367747,1854,1226,20.4803,-2.77369
637,-202,20.5389,2.74536,0.00123229,0.00239776,0.000194003,0.0024292,0.00120085,1.41011,0.00140253,0.037572,1861,1226,20.539,-2.74541
644,-202,20.5898,2.90637,0.0027475,0.00175434,-0.000638428,0.00305974,0.00144211,-0.454864,0.00176751,0.034912,1868,1226,20.5899,-2.90635
651,-202,20.6544,2.76624,0.00359274,0.000810666,-0.00100622,0.00391852,0.000484886,-0.313115,0.00246666,0.0268882,1875,1226,20.6544,-2.76619
658,-202,20.6146,2.76099,0.00373548,-0.000170413,-0.000929348,0.00394533,-0.000380262,-0.222079,0.0027657,0.0221937,1882,1226,20.6146,-2.76101
665,-202,20.5911,2.69263,0.00356611,-0.00100367,-0.000704824,0.00367235,-0.00110991,-0.149605,0.00289014,0.0209875,1889,1226,20.5911,-2.6926
672,-202,20.7029,2.73035,0.00303251,-0.00173468,-0.000397181,0.00306538,-0.00176754,-0.0825569,0.00282363,0.0414238,1896,1226,20.7029,-2.7303
679,-202,20.7988,2.422,0.00229871,-0.00221201,-4.22982e-05,0.00229911,-0.00221241,-0.00937617,0.00260488,0.0434394,1903,1226,20.7988,-2.42205
686,-202,20.9719,2.11108,0,0,0,0,0,0,0,-1,1910,1226,20.9719,-2.11106
693,-202,18.1023,5.02686,0,0,0,0,0,0,0,-1,1917,1226,18.1023,-5.02685
700,-202,18.0907,4.88916,0.000253075,-0.00306119,0.0010172,0.000540368,-0.00334848,0.275264,0.00243253,0.0251985,1924,1226,18.0907,-4.88921
707,-202,18.1079,4.72327,-0.000502191,-0.00302953,0.00135008,8.33487e-05,-0.00361507,0.409223,0.00243831,0.0211527,1931,1226,18.1079,-4.72323
714,-202,18.14,4.61523,-0.0011817,-0.00285611,0.00153761,-0.00026815,-0.00376967,0.536098,0.00242867,0.0147435,1938,1226,18.14,-4.61518
721,-202,18.1625,4.47046,-0.00157873,-0.00235486,0.00166587,-0.000256324,-0.00367727,0.670965,0.00237069,0.0116733,1945,1226,18.1625,-4.47041
728,-202,18.1566,4.32361,-0.00143224,-0.00148028,0.00166949,0.000213401,-0.00312593,0.778205,0.0021586,0.0101575,1952,1226,18.1566,-4.32364
735,-202,18.1422,4.20789,-0.000815121,-0.000424332,0.00155073,0.000943268,-0.00218272,0.848069,0.00185148,0.0107472,1959,1226,18.1422,-4.2079
742,-202,18.1542,4.06787,0.00109575,0.000685478,0.00116883,0.00207731,-0.00029608,0.69853,0.00149338,0.0101393,1966,1226,18.1542,-4.06787
749,-202,18.1599,3.92236,0.00319002,0.00163567,0.000715682,0.00346935,0.00135634,0.372115,0.00201885,0.00965127,1973,1226,18.1599,-3.92235
756,-202,18.1477,3.79102,0.00571011,0.00259086,0.000370051,0.00575341,0.00254756,0.116481,0.00332897,0.0100651,1980,1226,18.1477,-3.79103
763,-202,18.152,3.67554,0.00896798,0.00345694,7.80406e-05,0.00896909,0.00345583,0.014157,0.00522352,0.0148056,1987,1226,18.1519,-3.67558
770,-202,18.3135,3.86853,0.013614,0.00438531,-0.000435801,0.0136345,0.00436478,-0.0470829,0.00803988,0.0379482,1994,1226,18.3135,-3.86853
777,-202,18.4591,3.24646,0,0,0,0,0,0,0,-1,2001,1226,18.4591,-3.24643
784,-202,18.6082,3.9491,0,0,0,0,0,0,0,-1,2008,1226,18.6082,-3.94909
791,-202,19.5419,2.73645,0,0,0,0,0,0,0,-1,2015,1226,19.5419,-2.73642
798,-202,19.9281,1.96606,0,0,0,0,0,0,0,-1,2022,1226,19.9281,-1.96611
805,-202,0,0,0,0,0,0,0,0,0,-1,2029,1226,0,0
812,-202,0,0,0,0,0,0,0,0,0,-1,2036,1226,0,0
-700,-209,0,0,0,0,0,0,0,0,0,-1,524,1233,0,0
-693,-209,0,0,0,0,0,0,0,0,0,-1,531,1233,0,0
-686,-209,0,0,0,0,0,0,0,0,0,-1,538,1233,0,0
-679,-209,-11.6816,-4.13171,-0.051278,-0.0708928,0.00708309,-0.0489877,-0.0731831,0.312742,0.0430529,0.0449414,545,1233,-11.6816,4.13166
-672,-209,-12.7438,-2.64575,-0.02792,-0.0552213,0.0067396,-0.0263469,-0.0567944,0.229306,0.0328187,0.047782,552,1233,-12.7438,2.64575
-665,-209,-12.7206,-2.05005,-0.0124619,-0.0424594,0.00557402,-0.0114597,-0.0434616,0.177908,0.0260101,0.0444073,559,1233,-12.7207,2.05006
-658,-209,-12.7628,-1.21887,-0.00234658,-0.0320641,0.00409527,-0.00179256,-0.0326181,0.134468,0.0211732,0.0469502,566,1233,-12.7627,1.21885
-651,-209,-12.704,-0.135254,0.00378868,-0.0236796,0.00252576,0.004019,-0.0239099,0.0909356,0.0174347,0.0473643,573,1233,-12.704,0.135258
-644,-209,-12.2027,0.904907,0,0,0,0,0,0,0,-1,580,1233,-12.2027,-0.904869
-637,-209,-10.1262,1.26978,0.00791522,-0.0119289,-0.000190751,0.00791706,-0.0119307,-0.00961133,0.0115369,0.0409273,587,1233,-10.1262,-1.26974
-630,-209,-10.1013,1.21826,0.00762311,-0.0081241,-0.0011275,0.00770343,-0.00820442,-0.0711167,0.00918592,0.021994,594,1233,-10.1013,-1.21824
-623,-209,-10.1379,1.39502,0.00819641,-0.00473961,-0.00192978,0.00847815,-0.00502136,-0.144975,0.00787866,0.0113424,601,1233,-10.1379,-1.39497
-616,-209,-10.1528,1.58008,0.0076573,-0.00252344,-0.00295641,0.00845355,-0.00331968,-0.263085,0.00700938,0.0123085,608,1233,-10.1528,-1.58008
-609,-209,-10.1488,1.74255,0.00616444,-0.00157559,-0.00348493,0.00750227,-0.00291343,-0.366544,0.006205,0.013509,615,1233,-10.1488,-1.74259
-602,-209,-10.1539,1.91541,0.00454312,-0.00141496,-0.004035,0.00657965,-0.00345149,-0.467413,0.0058846,0.0147281,622,1233,-10.1539,-1.9154
-595,-209,-10.1501,2.10645,0.00424992,-0.00183419,-0.00480951,0.00689869,-0.00448296,-0.503408,0.00662035,0.0116554,629,1233,-10.1501,-2.10641
-588,-209,-10.1301,2.2782,0.00519307,-0.00221106,-0.00459293,0.00739018,-0.00440817,-0.446193,0.00688392,0.0131519,636,1233,-10.1301,-2.27822
-581,-209,-10.1063,2.44031,0.00536217,-0.00189631,-0.00462996,0.00761578,-0.00414992,-0.452987,0.00689047,0.0132578,643,1233,-10.1063,-2.44027
-574,-209,-10.2128,2.55432,0.005281,-0.00160327,-0.00433689,0.00737573,-0.00369801,-0.449958,0.0065099,0.0172311,650,1233,-10.2128,-2.55437
-567,-209,-10.3862,2.82678,0.00473245,-0.00132949,-0.00400238,0.00672202,-0.00331906,-0.461322,0.00590715,0.0367382,657,1233,-10.3862,-2.82673
-560,-209,-10.5946,3.24915,0,0,0,0,0,0,0,-1,664,1233,-10.5946,-3.24917
-553,-209,-13.4265,1.23938,0,0,0,0,0,0,0,-1,671,1233,-13.4264,-1.23934
-546,-209,-13.2593,1.15161,0.00107387,-0.000315203,-0.00288672,0.00334843,-0.00258976,-0.667343,0.00343773,0.0458163,678,1233,-13.2593,-1.15164
-539,-209,-13.0825,1.02588,-0.001091,0.000267633,-0.00224731,0.00193606,-0.00275942,-0.932171,0.00272479,0.0348885,685,1233,-13.0824,-1.02591
-532,-209,-12.9174,0.921265,-0.00362142,0.000821793,-0.00144377,0.00124972,-0.00404935,-1.28265,0.00319858,0.0280065,692,1233,-12.9174,-0.921238
-525,-209,-13.0426,1.06458,-0.0063297,0.00116755,-0.000428934,0.00119201,-0.00635416,-1.51383,0.00468428,0.0340399,699,1233,-13.0426,-1.06458
-518,-209,-13.0275,0.952881,-0.00865906,0.000829927,0.000534827,0.000859976,-0.00868911,1.51467,0.00609964,0.0462482,706,1233,-13.0275,-0.952878
-511,-209,-13.0366,0.836426,-0.00731278,-0.000809671,0.000537782,-0.000765498,-0.00735695,1.48884,0.00467043,0.0467527,713,1233,-13.0366,-0.836399
-504,-209,0,0,0,0,0,0,0,0,0,-1,720,1233,0,0
-497,-209,0,0,0,0,0,0,0,0,0,-1,727,1233,0,0
-490,-209,0,0,0,0,0,0,0,0,0,-1,734,1233,0,0
-483,-209,0,0,0,0,0,0,0,0,0,-1,741,1233,0,0
-476,-209,0,0,0,0,0,0,0,0,0,-1,748,1233,0,0
-469,-209,0,0,0,0,0,0,0,0,0,-1,755,1233,0,0
-462,-209,0,0,0,0,0,0,0,0,0,-1,762,1233,0,0
-455,-209,0,0,0,0,0,0,0,0,0,-1,769,1233,0,0
-448,-209,0,0,0,0,0,0,0,0,0,-1,776,1233,0,0
-441,-209,0,0,0,0,0,0,0,0,0,-1,783,1233,0,0
-434,-209,0,0,0,0,0,0,0,0,0,-1,790,1233,0,0
-427,-209,0,0,0,0,0,0,0,0,0,-1,797,1233,0,0
-420,-209,0,0,0,0,0,0,0,0,0,-1,804,1233,0,0
-413,-209,0,0,0,0,0,0,0,0,0,-1,811,1233,0,0
-406,-209,0,0,0,0,0,0,0,0,0,-1,818,1233,0,0
-399,-209,0,0,0,0,0,0,0,0,0,-1,825,1233,0,0
-392,-209,0,0,0,0,0,0,0,0,0,-1,832,1233,0,0
-385,-209,0,0,0,0,0,0,0,0,0,-1,839,1233,0,0
-378,-209,0,0,0,0,0,0,0,0,0,-1,846,1233,0,0
-371,-209,0,0,0,0,0,0,0,0,0,-1,853,1233,0,0
-364,-209,0,0,0,0,0,0,0,0,0,-1,860,1233,0,0
-357,-209,0,0,0,0,0,0,0,0,0,-1,867,1233,0,0
-350,-209,0,0,0,0,0,0,0,0,0,-1,874,1233,0,0
-343,-209,0,0,0,0,0,0,0,0,0,-1,881,1233,0,0
-336,-209,0,0,0,0,0,0,0,0,0,-1,888,1233,0,0
-329,-209,0,0,0,0,0,0,0,0,0,-1,895,1233,0,0
-322,-209,0,0,0,0,0,0,0,0,0,-1,902,1233,0,0
-315,-209,0,0,0,0,0,0,0,0,0,-1,909,1233,0,0
-308,-209,0,0,0,0,0,0,0,0,0,-1,916,1233,0,0
-301,-209,0,0,0,0,0,0,0,0,0,-1,923,1233,0,0
-294,-209,0,0,0,0,0,0,0,0,0,-1,930,1233,0,0
-287,-209,0,0,0,0,0,0,0,0,0,-1,937,1233,0,0
-280,-209,0,0,0,0,0,0,0,0,0,-1,944,1233,0,0
-273,-209,0,0,0,0,0,0,0,0,0,-1,951,1233,0,0
-266,-209,0,0,0,0,0,0,0,0,0,-1,958,1233,0,0
-259,-209,0,0,0,0,0,0,0,0,0,-1,965,1233,0,0
-252,-209,0,0,0,0,0,0,0,0,0,-1,972,1233,0,0
-245,-209,0,0,0,0,0,0,0,0,0,-1,979,1233,0,0
-238,-209,0,0,0,0,0,0,0,0,0,-1,986,1233,0,0
-231,-209,0,0,0,0,0,0,0,0,0,-1,993,1233,0,0
-224,-209,0,0,0,0,0,0,0,0,0,-1,1000,1233,0,0
-217,-209,0,0,0,0,0,0,0,0,0,-1,1007,1233,0,0
-210,-209,0,0,0,0,0,0,0,0,0,-1,1014,1233,0,0
-203,-209,0,0,0,0,0,0,0,0,0,-1,1021,1233,0,0
-196,-209,0,0,0,0,0,0,0,0,0,-1,1028,1233,0,0
-189,-209,0,0,0,0,0,0,0,0,0,-1,1035,1233,0,0
-182,-209,0,0,0,0,0,0,0,0,0,-1,1042,1233,0,0
-175,-209,0,0,0,0,0,0,0,0,0,-1,1049,1233,0,0
-168,-209,0,0,0,0,0,0,0,0,0,-1,1056,1233,0,0
-161,-209,0,0,0,0,0,0,0,0,0,-1,1063,1233,0,0
-154,-209,0,0,0,0,0,0,0,0,0,-1,1070,1233,0,0
-147,-209,0,0,0,0,0,0,0,0,0,-1,1077,1233,0,0
-140,-209,0,0,0,0,0,0,0,0,0,-1,1084,1233,0,0
-133,-209,0,0,0,0,0,0,0,0,0,-1,1091,1233,0,0
-126,-209,0,0,0,0,0,0,0,0,0,-1,1098,1233,0,0
-119,-209,0,0,0,0,0,0,0,0,0,-1,1105,1233,0,0
-112,-209,0,0,0,0,0,0,0,0,0,-1,1112,1233,0,0
-105,-209,0,0,0,0,0,0,0,0,0,-1,1119,1233,0,0
-98,-209,0,0,0,0,0,0,0,0,0,-1,1126,1233,0,0
-91,-209,0,0,0,0,0,0,0,0,0,-1,1133,1233,0,0
-84,-209,0,0,0,0,0,0,0,0,0,-1,1140,1233,0,0
-77,-209,0,0,0,0,0,0,0,0,0,-1,1147,1233,0,0
-70,-209,0,0,0,0,0,0,0,0,0,-1,1154,1233,0,0
-63,-209,0,0,0,0,0,0,0,0,0,-1,1161,1233,0,0
-56,-209,0,0,0,0,0,0,0,0,0,-1,1168,1233,0,0
-49,-209,0,0,0,0,0,0,0,0,0,-1,1175,1233,0,0
-42,-209,0,0,0,0,0,0,0,0,0,-1,1182,1233,0,0
-35,-209,0,0,0,0,0,0,0,0,0,-1,1189,1233,0,0
-28,-209,0,0,0,0,0,0,0,0,0,-1,1196,1233,0,0
-21,-209,0,0,0,0,0,0,0,0,0,-1,1203,1233,0,0
-14,-209,0,0,0,0,0,0,0,0,0,-1,1210,1233,0,0
-7,-209,0,0,0,0,0,0,0,0,0,-1,1217,1233,0,0
0,-209,0,0,0,0,0,0,0,0,0,-1,1224,1233,0,0
7,-209,0,0,0,0,0,0,0,0,0,-1,1231,1233,0,0
14,-209,0,0,0,0,0,0,0,0,0,-1,1238,1233,0,0
21,-209,0,0,0,0,0,0,0,0,0,-1,1245,1233,0,0
28,-209,0,0,0,0,0,0,0,0,0,-1,1252,1233,0,0
35,-209,0,0,0,0,0,0,0,0,0,-1,1259,1233,0,0
42,-209,0,0,0,0,0,0,0,0,0,-1,1266,1233,0,0
49,-209,0,0,0,0,0,0,0,0,0,-1,1273,1233,0,0
56,-209,0,0,0,0,0,0,0,0,0,-1,1280,1233,0,0
63,-209,0,0,0,0,0,0,0,0,0,-1,1287,1233,0,0
70,-209,0,0,0,0,0,0,0,0,0,-1,1294,1233,0,0
77,-209,0,0,0,0,0,0,0,0,0,-1,1301,1233,0,0
84,-209,0,0,0,0,0,0,0,0,0,-1,1308,1233,0,0
91,-209,0,0,0,0,0,0,0,0,0,-1,1315,1233,0,0
98,-209,0,0,0,0,0,0,0,0,0,-1,1322,1233,0,0
105,-209,0,0,0,0,0,0,0,0,0,-1,1329,1233,0,0
112,-209,0,0,0,0,0,0,0,0,0,-1,1336,1233,0,0
119,-209,0,0,0,0,0,0,0,0,0,-1,1343,1233,0,0
126,-209,0,0,0,0,0,0,0,0,0,-1,1350,1233,0,0
133,-209,0,0,0,0,0,0,0,0,0,-1,1357,1233,0,0
140,-209,0,0,0,0,0,0,0,0,0,-1,1364,1233,0,0
147,-209,0,0,0,0,0,0,0,0,0,-1,1371,1233,0,0
154,-209,0,0,0,0,0,0,0,0,0,-1,1378,1233,0,0
161,-209,0,0,0,0,0,0,0,0,0,-1,1385,1233,0,0
168,-209,0,0,0,0,0,0,0,0,0,-1,1392,1233,0,0
175,-209,0,0,0,0,0,0,0,0,0,-1,1399,1233,0,0
182,-209,0,0,0,0,0,0,0,0,0,-1,1406,1233,0,0
189,-209,0,0,0,0,0,0,0,0,0,-1,1413,1233,0,0
196,-209,0,0,0,0,0,0,0,0,0,-1,1420,1233,0,0
203,-209,0,0,0,0,0,0,0,0,0,-1,1427,1233,0,0
210,-209,0,0,0,0,0,0,0,0,0,-1,1434,1233,0,0
217,-209,0,0,0,0,0,0,0,0,0,-1,1441,1233,0,0
224,-209,0,0,0,0,0,0,0,0,0,-1,1448,1233,0,0
231,-209,0,0,0,0,0,0,0,0,0,-1,1455,1233,0,0
238,-209,0,0,0,0,0,0,0,0,0,-1,1462,1233,0,0
245,-209,0,0,0,0,0,0,0,0,0,-1,1469,1233,0,0
252,-209,0,0,0,0,0,0,0,0,0,-1,1476,1233,0,0
259,-209,0,0,0,0,0,0,0,0,0,-1,1483,1233,0,0
266,-209,0,0,0,0,0,0,0,0,0,-1,1490,1233,0,0
273,-209,0,0,0,0,0,0,0,0,0,-1,1497,1233,0,0
280,-209,0,0,0,0,0,0,0,0,0,-1,1504,1233,0,0
287,-209,0,0,0,0,0,0,0,0,0,-1,1511,1233,0,0
294,-209,0,0,0,0,0,0,0,0,0,-1,1518,1233,0,0
301,-209,0,0,0,0,0,0,0,0,0,-1,1525,1233,0,0
308,-209,0,0,0,0,0,0,0,0,0,-1,1532,1233,0,0
315,-209,0,0,0,0,0,0,0,0,0,-1,1539,1233,0,0
322,-209,0,0,0,0,0,0,0,0,0,-1,1546,1233,0,0
329,-209,0,0,0,0,0,0,0,0,0,-1,1553,1233,0,0
336,-209,0,0,0,0,0,0,0,0,0,-1,1560,1233,0,0
343,-209,0,0,0,0,0,0,0,0,0,-1,1567,1233,0,0
350,-209,0,0,0,0,0,0,0,0,0,-1,1574,1233,0,0
357,-209,0,0,0,0,0,0,0,0,0,-1,1581,1233,0,0
364,-209,0,0,0,0,0,0,0,0,0,-1,1588,1233,0,0
371,-209,0,0,0,0,0,0,0,0,0,-1,1595,1233,0,0
378,-209,0,0,0,0,0,0,0,0,0,-1,1602,1233,0,0
385,-209,0,0,0,0,0,0,0,0,0,-1,1609,1233,0,0
392,-209,0,0,0,0,0,0,0,0,0,-1,1616,1233,0,0
399,-209,0,0,0,0,0,0,0,0,0,-1,1623,1233,0,0
406,-209,0,0,0,0,0,0,0,0,0,-1,1630,1233,0,0
413,-209,0,0,0,0,0,0,0,0,0,-1,1637,1233,0,0
420,-209,0,0,0,0,0,0,0,0,0,-1,1644,1233,0,0
427,-209,0,0,0,0,0,0,0,0,0,-1,1651,1233,0,0
434,-209,0,0,0,0,0,0,0,0,0,-1,1658,1233,0,0
441,-209,0,0,0,0,0,0,0,0,0,-1,1665,1233,0,0
448,-209,0,0,0,0,0,0,0,0,0,-1,1672,1233,0,0
455,-209,0,0,0,0,0,0,0,0,0,-1,1679,1233,0,0
462,-209,0,0,0,0,0,0,0,0,0,-1,1686,1233,0,0
469,-209,0,0,0,0,0,0,0,0,0,-1,1693,1233,0,0
476,-209,0,0,0,0,0,0,0,0,0,-1,1700,1233,0,0
483,-209,0,0,0,0,0,0,0,0,0,-1,1707,1233,0,0
490,-209,0,0,0,0,0,0,0,0,0,-1,1714,1233,0,0
497,-209,0,0,0,0,0,0,0,0,0,-1,1721,1233,0,0
504,-209,0,0,0,0,0,0,0,0,0,-1,1728,1233,0,0
511,-209,0,0,0,0,0,0,0,0,0,-1,1735,1233,0,0
518,-209,0,0,0,0,0,0,0,0,0,-1,1742,1233,0,0
525,-209,0,0,0,0,0,0,0,0,0,-1,1749,1233,0,0
532,-209,0,0,0,0,0,0,0,0,0,-1,1756,1233,0,0
539,-209,0,0,0,0,0,0,0,0,0,-1,1763,1233,0,0
546,-209,0,0,0,0,0,0,0,0,0,-1,1770,1233,0,0
553,-209,0,0,0,0,0,0,0,0,0,-1,1777,1233,0,0
560,-209,0,0,0,0,0,0,0,0,0,-1,1784,1233,0,0
567,-209,0,0,0,0,0,0,0,0,0,-1,1791,1233,0,0
574,-209,0,0,0,0,0,0,0,0,0,-1,1798,1233,0,0
581,-209,0,0,0,0,0,0,0,0,0,-1,1805,1233,0,0
588,-209,0,0,0,0,0,0,0,0,0,-1,1812,1233,0,0
595,-209,0,0,0,0,0,0,0,0,0,-1,1819,1233,0,0
602,-209,0,0,0,0,0,0,0,0,0,-1,1826,1233,0,0
609,-209,0,0,0,0,0,0,0,0,0,-1,1833,1233,0,0
616,-209,0,0,0,0,0,0,0,0,0,-1,1840,1233,0,0
623,-209,20.5507,2.70081,-0.0002564,0.00198405,0.00107295,0.002415,-0.000687345,1.18887,0.00188144,0.0326022,1847,1233,20.5507,-2.70075
630,-209,20.6096,2.73328,0.000450451,0.00276718,0.000508206,0.00287376,0.000343872,1.36408,0.00181213,0.0359197,1854,1233,20.6096,-2.73323
637,-209,20.5681,2.66443,0.00189086,0.00276727,-8.76604e-05,0.00277595,0.00188218,-1.47208,0.00163621,0.0362567,1861,1233,20.5682,-2.66449
644,-209,20.6,2.70569,0.00299904,0.00232692,-0.000531863,0.00329212,0.00203384,-0.503639,0.00191821,0.0309969,1868,1233,20.5999,-2.70569
651,-209,20.6157,2.76978,0.00348304,0.00142765,-0.000650282,0.0036715,0.00123919,-0.282079,0.00215672,0.0244709,1875,1233,20.6157,-2.76971
658,-209,20.6166,2.77759,0.0035381,0.000483298,-0.000559114,0.00363722,0.00038418,-0.175453,0.00230744,0.0214462,1882,1233,20.6166,-2.77758
665,-209,20.6647,2.71204,0.00339832,-0.000371701,-0.000400947,0.00344049,-0.00041387,-0.10479,0.00244333,0.036281,1889,1233,20.6647,-2.71199
672,-209,20.751,2.74243,0.00296267,-0.00114723,-0.000188968,0.00297134,-0.0011559,-0.0458499,0.0024585,0.0477629,1896,1233,20.751,-2.74245
679,-209,20.8888,2.79993,0.00237541,-0.00166579,5.71451e-05,0.00237622,-0.0016666,0.0141368,0.00234608,0.0450921,1903,1233,20.8888,-2.79997
686,-209,21.2142,2.56409,0,0,0,0,0,0,0,-1,1910,1233,21.2143,-2.56404
693,-209,17.9324,5.03796,0,0,0,0,0,0,0,-1,1917,1233,17.9324,-5.03802
700,-209,17.9452,4.95776,0.000674303,-0.00272649,0.000818468,0.000861031,-0.00291322,0.224304,0.00228391,0.0209159,1924,1233,17.9451,-4.95772
707,-209,17.9839,4.74158,2.07582e-06,-0.00274218,0.00105584,0.000361288,-0.00310139,0.32793,0.00219794,0.0175628,1931,1233,17.9839,-4.74161
714,-209,18.0066,4.61633,-0.000554324,-0.00261631,0.00117919,-1.8973e-05,-0.00315166,0.426174,0.00209481,0.0128066,1938,1233,18.0066,-4.61629
721,-209,18.0221,4.47119,-0.000934836,-0.00197893,0.00125462,-9.7986e-05,-0.00281578,0.588244,0.00184539,0.0122092,1945,1233,18.0221,-4.47117
728,-209,18.0149,4.33325,-0.000860346,-0.00101459,0.00124836,0.000313274,-0.00218821,0.754548,0.00157366,0.0117539,1952,1233,18.0149,-4.3332
735,-209,18.0044,4.2135,-0.000385081,0.000105756,0.00111555,0.00100256,-0.00128189,0.893673,0.00132221,0.0120851,1959,1233,18.0044,-4.21344
742,-209,18.0059,4.07629,0.00123409,0.00130902,0.000776819,0.00204928,0.000493831,0.809495,0.00123494,0.0104545,1966,1233,18.0058,-4.07624
749,-209,18.009,3.92773,0.00299354,0.00242716,0.000363381,0.00317104,0.00224965,0.454397,0.00188358,0.00889563,1973,1233,18.009,-3.92774
756,-209,17.9987,3.78662,0.00522595,0.00362691,2.6103e-05,0.00522637,0.00362648,0.0163184,0.00309214,0.00920928,1980,1233,17.9986,-3.78663
763,-209,17.9888,3.66785,0.0083397,0.00495208,-0.000331407,0.00837182,0.00491996,-0.0966081,0.00485818,0.0162425,1987,1233,17.9888,-3.66782
770,-209,18.0522,3.67676,0.0129489,0.00653579,-0.000907163,0.0130747,0.00640994,-0.137853,0.00754917,0.0432039,1994,1233,18.0522,-3.67679
777,-209,18.1132,3.68542,0,0,0,0,0,0,0,-1,2001,1233,18.1131,-3.68539
784,-209,18.9292,3.245,0,0,0,0,0,0,0,-1,2008,1233,18.9293,-3.24501
791,-209,18.572,2.57056,0.0398966,0.0127322,-0.0050282,0.0407974,0.0118313,-0.17728,0.024237,0.0457177,2015,1233,18.572,-2.5705
798,-209,19.1245,1.75256,0,0,0,0,0,0,0,-1,2022,1233,19.1246,-1.75257
805,-209,0,0,0,0,0,0,0,0,0,-1,2029,1233,0,0
812,-209,0,0,0,0,0,0,0,0,0,-1,2036,1233,0,0
-700,-216,0,0,0,0,0,0,0,0,0,-1,524,1240,0,0
-693,-216,0,0,0,0,0,0,0,0,0,-1,531,1240,0,0
-686,-216,0,0,0,0,0,0,0,0,0,-1,538,1240,0,0
-679,-216,-10.573,-3.48401,-0.0482631,-0.0773974,0.00382311,-0.0477698,-0.0778908,0.12833,0.0453534,0.0456636,545,1240,-10.573,3.48406
-672,-216,-12.3582,-2.08691,-0.0229582,-0.0603354,0.00278461,-0.0227519,-0.0605417,0.0739561,0.0353114,0.0464519,552,1240,-12.3582,2.08694
-665,-216,-12.1324,-1.49512,-0.00692233,-0.0464439,0.00132045,-0.00687827,-0.046488,0.0333613,0.0289727,0.0478798,559,1240,-12.1324,1.49509
-658,-216,-9.74017,1.02332,0,0,0,0,0,0,0,-1,566,1240,-9.74018,-1.02326
-651,-216,-11.9647,0.109497,0.00849102,-0.026043,-0.00146526,0.00855308,-0.0261051,-0.0423279,0.0208477,0.0462211,573,1240,-11.9647,-0.109437
-644,-216,-11.4329,1.04993,0.0108034,-0.0188466,-0.00254014,0.0110194,-0.0190626,-0.084847,0.0175736,0.0443391,580,1240,-11.4328,-1.0499
-637,-216,-9.81494,0.676758,0.0109235,-0.0132947,-0.00327456,0.0113584,-0.0137296,-0.132052,0.0145061,0.0422967,587,1240,-9.81493,-0.676698
-630,-216,-9.98132,1.13892,0.00983186,-0.0091474,-0.00365505,0.0105114,-0.00982696,-0.183825,0.0117446,0.0270257,594,1240,-9.98131,-1.13896
-623,-216,-9.96643,1.39087,0.00975977,-0.00551499,-0.00388647,0.0106918,-0.00644698,-0.235361,0.00999571,0.0128384,601,1240,-9.96642,-1.39089
-616,-216,-9.98871,1.58887,0.00864237,-0.00306086,-0.00422286,0.010007,-0.00442547,-0.312557,0.00853776,0.0134167,608,1240,-9.98868,-1.58882
-609,-216,-9.98291,1.75293,0.00686488,-0.00177452,-0.00406859,0.00847926,-0.0033889,-0.377736,0.00705905,0.01229,615,1240,-9.98293,-1.75287
-602,-216,-9.96997,1.90308,0.00511134,-0.00132817,-0.0040073,0.00703213,-0.00324897,-0.446971,0.00606827,0.0117653,622,1240,-9.96998,-1.90307
-595,-216,-9.96887,2.09412,0.0047061,-0.00148467,-0.00425487,0.0068724,-0.00365097,-0.470928,0.00616984,0.0172998,629,1240,-9.96889,-2.09407
-588,-216,-9.96906,2.29956,0.00562682,-0.00174985,-0.00362043,0.00710678,-0.00322982,-0.388053,0.00610616,0.020162,636,1240,-9.96907,-2.29953
-581,-216,-9.96356,2.48389,0.00563305,-0.0012255,-0.00345089,0.00706881,-0.00266126,-0.39427,0.0058066,0.0167444,643,1240,-9.96359,-2.4839
-574,-216,-9.9809,2.69348,0.0053461,-0.000768551,-0.00312119,0.00665788,-0.00208033,-0.397867,0.00527071,0.0159775,650,1240,-9.98089,-2.69344
-567,-216,-10.0105,2.97412,0.00449168,-0.000371565,-0.00281972,0.00578345,-0.00166333,-0.429584,0.00451342,0.028046,657,1240,-10.0105,-2.97416
-560,-216,-10.0884,3.34094,0,0,0,0,0,0,0,-1,664,1240,-10.0884,-3.34096
-553,-216,-12.2567,-0.189087,0,0,0,0,0,0,0,-1,671,1240,-12.2567,0.189105
-546,-216,-13.3123,1.2478,0,0,0,0,0,0,0,-1,678,1240,-13.3123,-1.2478
-539,-216,-13.168,1.16931,-0.00288209,0.00175885,-0.00173544,0.00233602,-0.00345926,-1.24972,0.00336679,0.0377581,685,1240,-13.168,-1.16936
-532,-216,-12.9017,1.02344,-0.00585865,0.00245432,-0.00130839,0.00265538,-0.00605972,-1.41831,0.00515804,0.0357831,692,1240,-12.9018,-1.02338
-525,-216,-12.9112,0.904785,-0.00900376,0.00293492,-0.00078395,0.00298618,-0.00905502,-1.50551,0.00724033,0.0373813,699,1240,-12.9112,-0.904744
-518,-216,-13.0983,1.1123,-0.011796,0.0027906,-0.000311968,0.00279727,-0.0118027,-1.54942,0.00894784,0.0439984,706,1240,-13.0983,-1.11227
-511,-216,-13.113,1.00317,-0.0113355,0.00129796,-0.000466701,0.00131518,-0.0113527,-1.53392,0.0080428,0.0463164,713,1240,-13.1131,-1.00315
-504,-216,-12.9992,0.782104,-0.00602137,-0.00222927,0.000619259,-0.00213071,-0.00611993,1.41296,0.00358724,0.0437126,720,1240,-12.9992,-0.782096
-497,-216,0,0,0,0,0,0,0,0,0,-1,727,1240,0,0
-490,-216,0,0,0,0,0,0,0,0,0,-1,734,1240,0,0
-483,-216,0,0,0,0,0,0,0,0,0,-1,741,1240,0,0
-476,-216,0,0,0,0,0,0,0,0,0,-1,748,1240,0,0
-469,-216,0,0,0,0,0,0,0,0,0,-1,755,1240,0,0
-462,-216,0,0,0,0,0,0,0,0,0,-1,762,1240,0,0
-455,-216,0,0,0,0,0,0,0,0,0,-1,769,1240,0,0
-448,-216,0,0,0,0,0,0,0,0,0,-1,776,1240,0,0
-441,-216,0,0,0,0,0,0,0,0,0,-1,783,1240,0,0
-434,-216,0,0,0,0,0,0,0,0,0,-1,790,1240,0,0
-427,-216,0,0,0,0,0,0,0,0,0,-1,797,1240,0,0
-420,-216,0,0,0,0,0,0,0,0,0,-1,804,1240,0,0
-413,-216,0,0,0,0,0,0,0,0,0,-1,811,1240,0,0
-406,-216,0,0,0,0,0,0,0,0,0,-1,818,1240,0,0
-399,-216,0,0,0,0,0,0,0,0,0,-1,825,1240,0,0
-392,-216,0,0,0,0,0,0,0,0,0,-1,832,1240,0,0
-385,-216,0,0,0,0,0,0,0,0,0,-1,839,1240,0,0
-378,-216,0,0,0,0,0,0,0,0,0,-1,846,1240,0,0
-371,-216,0,0,0,0,0,0,0,0,0,-1,853,1240,0,0
-364,-216,0,0,0,0,0,0,0,0,0,-1,860,1240,0,0
-357,-216,0,0,0,0,0,0,0,0,0,-1,867,1240,0,0
-350,-216,0,0,0,0,0,0,0,0,0,-1,874,1240,0,0
-343,-216,0,0,0,0,0,0,0,0,0,-1,881,1240,0,0
-336,-216,0,0,0,0,0,0,0,0,0,-1,888,1240,0,0
-329,-216,0,0,0,0,0,0,0,0,0,-1,895,1240,0,0
-322,-216,0,0,0,0,0,0,0,0,0,-1,902,1240,0,0
-315,-216,0,0,0,0,0,0,0,0,0,-1,909,1240,0,0
-308,-216,0,0,0,0,0,0,0,0,0,-1,916,1240,0,0
-301,-216,0,0,0,0,0,0,0,0,0,-1,923,1240,0,0
-294,-216,0,0,0,0,0,0,0,0,0,-1,930,1240,0,0
-287,-216,0,0,0,0,0,0,0,0,0,-1,937,1240,0,0
-280,-216,0,0,0,0,0,0,0,0,0,-1,944,1240,0,0
-273,-216,0,0,0,0,0,0,0,0,0,-1,951,1240,0,0
-266,-216,0,0,0,0,0,0,0,0,0,-1,958,1240,0,0
-259,-216,0,0,0,0,0,0,0,0,0,-1,965,1240,0,0
-252,-216,0,0,0,0,0,0,0,0,0,-1,972,1240,0,0
-245,-216,0,0,0,0,0,0,0,0,0,-1,979,1240,0,0
-238,-216,0,0,0,0,0,0,0,0,0,-1,986,1240,0,0
-231,-216,0,0,0,0,0,0,0,0,0,-1,993,1240,0,0
-224,-216,0,0,0,0,0,0,0,0,0,-1,1000,1240,0,0
-217,-216,0,0,0,0,0,0,0,0,0,-1,1007,1240,0,0
-210,-216,0,0,0,0,0,0,0,0,0,-1,1014,1240,0,0
-203,-216,0,0,0,0,0,0,0,0,0,-1,1021,1240,0,0
-196,-216,0,0,0,0,0,0,0,0,0,-1,1028,1240,0,0
-189,-216,0,0,0,0,0,0,0,0,0,-1,1035,1240,0,0
-182,-216,0,0,0,0,0,0,0,0,0,-1,1042,1240,0,0
-175,-216,0,0,0,0,0,0,0,0,0,-1,1049,1240,0,0
-168,-216,0,0,0,0,0,0,0,0,0,-1,1056,1240,0,0
-161,-216,0,0,0,0,0,0,0,0,0,-1,1063,1240,0,0
-154,-216,0,0,0,0,0,0,0,0,0,-1,1070,1240,0,0
-147,-216,0,0,0,0,0,0,0,0,0,-1,1077,1240,0,0
-140,-216,0,0,0,0,0,0,0,0,0,-1,1084,1240,0,0
-133,-216,0,0,0,0,0,0,0,0,0,-1,1091,1240,0,0
-126,-216,0,0,0,0,0,0,0,0,0,-1,1098,1240,0,0
-119,-216,0,0,0,0,0,0,0,0,0,-1,1105,1240,0,0
-112,-216,0,0,0,0,0,0,0,0,0,-1,1112,1240,0,0
-105,-216,0,0,0,0,0,0,0,0,0,-1,1119,1240,0,0
-98,-216,0,0,0,0,0,0,0,0,0,-1,1126,1240,0,0
-91,-216,0,0,0,0,0,0,0,0,0,-1,1133,1240,0,0
-84,-216,0,0,0,0,0,0,0,0,0,-1,1140,1240,0,0
-77,-216,0,0,0,0,0,0,0,0,0,-1,1147,1240,0,0
-70,-216,0,0,0,0,0,0,0,0,0,-1,1154,1240,0,0
-63,-216,0,0,0,0,0,0,0,0,0,-1,1161,1240,0,0
-56,-216,0,0,0,0,0,0,0,0,0,-1,1168,1240,0,0
-49,-216,0,0,0,0,0,0,0,0,0,-1,1175,1240,0,0
-42,-216,0,0,0,0,0,0,0,0,0,-1,1182,1240,0,0
-35,-216,0,0,0,0,0,0,0,0,0,-1,1189,1240,0,0
-28,-216,0,0,0,0,0,0,0,0,0,-1,1196,1240,0,0
-21,-216,0,0,0,0,0,0,0,0,0,-1,1203,1240,0,0
-14,-216,0,0,0,0,0,0,0,0,0,-1,1210,1240,0,0
-7,-216,0,0,0,0,0,0,0,0,0,-1,1217,1240,0,0
0,-216,0,0,0,0,0,0,0,0,0,-1,1224,1240,0,0
7,-216,0,0,0,0,0,0,0,0,0,-1,1231,1240,0,0
14,-216,0,0,0,0,0,0,0,0,0,-1,1238,1240,0,0
21,-216,0,0,0,0,0,0,0,0,0,-1,1245,1240,0,0
28,-216,0,0,0,0,0,0,0,0,0,-1,1252,1240,0,0
35,-216,0,0,0,0,0,0,0,0,0,-1,1259,1240,0,0
42,-216,0,0,0,0,0,0,0,0,0,-1,1266,1240,0,0
49,-216,0,0,0,0,0,0,0,0,0,-1,1273,1240,0,0
56,-216,0,0,0,0,0,0,0,0,0,-1,1280,1240,0,0
63,-216,0,0,0,0,0,0,0,0,0,-1,1287,1240,0,0
70,-216,0,0,0,0,0,0,0,0,0,-1,1294,1240,0,0
77,-216,0,0,0,0,0,0,0,0,0,-1,1301,1240,0,0
84,-216,0,0,0,0,0,0,0,0,0,-1,1308,1240,0,0
91,-216,0,0,0,0,0,0,0,0,0,-1,1315,1240,0,0
98,-216,0,0,0,0,0,0,0,0,0,-1,1322,1240,0,0
105,-216,0,0,0,0,0,0,0,0,0,-1,1329,1240,0,0
112,-216,0,0,0,0,0,0,0,0,0,-1,1336,1240,0,0
119,-216,0,0,0,0,0,0,0,0,0,-1,1343,1240,0,0
126,-216,0,0,0,0,0,0,0,0,0,-1,1350,1240,0,0
133,-216,0,0,0,0,0,0,0,0,0,-1,1357,1240,0,0
140,-216,0,0,0,0,0,0,0,0,0,-1,1364,1240,0,0
147,-216,0,0,0,0,0,0,0,0,0,-1,1371,1240,0,0
154,-216,0,0,0,0,0,0,0,0,0,-1,1378,1240,0,0
161,-216,0,0,0,0,0,0,0,0,0,-1,1385,1240,0,0
168,-216,0,0,0,0,0,0,0,0,0,-1,1392,1240,0,0
175,-216,0,0,0,0,0,0,0,0,0,-1,1399,1240,0,0
182,-216,0,0,0,0,0,0,0,0,0,-1,1406,1240,0,0
189,-216,0,0,0,0,0,0,0,0,0,-1,1413,1240,0,0
196,-216,0,0,0,0,0,0,0,0,0,-1,1420,1240,0,0
203,-216,0,0,0,0,0,0,0,0,0,-1,1427,1240,0,0
210,-216,0,0,0,0,0,0,0,0,0,-1,1434,1240,0,0
217,-216,0,0,0,0,0,0,0,0,0,-1,1441,1240,0,0
224,-216,0,0,0,0,0,0,0,0,0,-1,1448,1240,0,0
231,-216,0,0,0,0,0,0,0,0,0,-1,1455,1240,0,0
238,-216,0,0,0,0,0,0,0,0,0,-1,1462,1240,0,0
245,-216,0,0,0,0,0,0,0,0,0,-1,1469,1240,0,0
252,-216,0,0,0,0,0,0,0,0,0,-1,1476,1240,0,0
259,-216,0,0,0,0,0,0,0,0,0,-1,1483,1240,0,0
266,-216,0,0,0,0,0,0,0,0,0,-1,1490,1240,0,0
273,-216,0,0,0,0,0,0,0,0,0,-1,1497,1240,0,0
280,-216,0,0,0,0,0,0,0,0,0,-1,1504,1240,0,0
287,-216,0,0,0,0,0,0,0,0,0,-1,1511,1240,0,0
294,-216,0,0,0,0,0,0,0,0,0,-1,1518,1240,0,0
301,-216,0,0,0,0,0,0,0,0,0,-1,1525,1240,0,0
308,-216,0,0,0,0,0,0,0,0,0,-1,1532,1240,0,0
315,-216,0,0,0,0,0,0,0,0,0,-1,1539,1240,0,0
322,-216,0,0,0,0,0,0,0,0,0,-1,1546,1240,0,0
329,-216,0,0,0,0,0,0,0,0,0,-1,1553,1240,0,0
336,-216,0,0,0,0,0,0,0,0,0,-1,1560,1240,0,0
343,-216,0,0,0,0,0,0,0,0,0,-1,1567,1240,0,0
350,-216,0,0,0,0,0,0,0,0,0,-1,1574,1240,0,0
357,-216,0,0,0,0,0,0,0,0,0,-1,1581,1240,0,0
364,-216,0,0,0,0,0,0,0,0,0,-1,1588,1240,0,0
371,-216,0,0,0,0,0,0,0,0,0,-1,1595,1240,0,0
378,-216,0,0,0,0,0,0,0,0,0,-1,1602,1240,0,0
385,-216,0,0,0,0,0,0,0,0,0,-1,1609,1240,0,0
392,-216,0,0,0,0,0,0,0,0,0,-1,1616,1240,0,0
399,-216,0,0,0,0,0,0,0,0,0,-1,1623,1240,0,0
406,-216,0,0,0,0,0,0,0,0,0,-1,1630,1240,0,0
413,-216,0,0,0,0,0,0,0,0,0,-1,1637,1240,0,0
420,-216,0,0,0,0,0,0,0,0,0,-1,1644,1240,0,0
427,-216,0,0,0,0,0,0,0,0,0,-1,1651,1240,0,0
434,-216,0,0,0,0,0,0,0,0,0,-1,1658,1240,0,0
441,-216,0,0,0,0,0,0,0,0,0,-1,1665,1240,0,0
448,-216,0,0,0,0,0,0,0,0,0,-1,1672,1240,0,0
455,-216,0,0,0,0,0,0,0,0,0,-1,1679,1240,0,0
462,-216,0,0,0,0,0,0,0,0,0,-1,1686,1240,0,0
469,-216,0,0,0,0,0,0,0,0,0,-1,1693,1240,0,0
476,-216,0,0,0,0,0,0,0,0,0,-1,1700,1240,0,0
483,-216,0,0,0,0,0,0,0,0,0,-1,1707,1240,0,0
490,-216,0,0,0,0,0,0,0,0,0,-1,1714,1240,0,0
497,-216,0,0,0,0,0,0,0,0,0,-1,1721,1240,0,0
504,-216,0,0,0,0,0,0,0,0,0,-1,1728,1240,0,0
511,-216,0,0,0,0,0,0,0,0,0,-1,1735,1240,0,0
518,-216,0,0,0,0,0,0,0,0,0,-1,1742,1240,0,0
525,-216,0,0,0,0,0,0,0,0,0,-1,1749,1240,0,0
532,-216,0,0,0,0,0,0,0,0,0,-1,1756,1240,0,0
539,-216,0,0,0,0,0,0,0,0,0,-1,1763,1240,0,0
546,-216,0,0,0,0,0,0,0,0,0,-1,1770,1240,0,0
553,-216,0,0,0,0,0,0,0,0,0,-1,1777,1240,0,0
560,-216,0,0,0,0,0,0,0,0,0,-1,1784,1240,0,0
567,-216,0,0,0,0,0,0,0,0,0,-1,1791,1240,0,0
574,-216,0,0,0,0,0,0,0,0,0,-1,1798,1240,0,0
581,-216,0,0,0,0,0,0,0,0,0,-1,1805,1240,0,0
588,-216,0,0,0,0,0,0,0,0,0,-1,1812,1240,0,0
595,-216,0,0,0,0,0,0,0,0,0,-1,1819,1240,0,0
602,-216,0,0,0,0,0,0,0,0,0,-1,1826,1240,0,0
609,-216,0,0,0,0,0,0,0,0,0,-1,1833,1240,0,0
616,-216,0,0,0,0,0,0,0,0,0,-1,1840,1240,0,0
623,-216,20.439,2.703,0.000828598,0.00119625,0.000319603,0.00138112,0.000643725,1.04638,0.000798,0.0382615,1847,1240,20.4389,-2.70301
630,-216,20.5564,2.77258,0.00115922,0.00314528,0.000168653,0.0031595,0.001145,1.48668,0.00184702,0.0377401,1854,1240,20.5564,-2.77257
637,-216,20.5662,2.77771,0.00198859,0.00397096,1.14997e-05,0.00397103,0.00198852,1.565,0.00229268,0.0328711,1861,1240,20.5662,-2.77772
644,-216,20.5476,2.7312,0.00255599,0.00396964,-9.49835e-05,0.00397599,0.00254964,-1.50401,0.00232588,0.0256591,1868,1240,20.5476,-2.73122
651,-216,20.5835,2.78442,0.00272077,0.00321346,-3.67172e-05,0.00321618,0.00271805,-1.49682,0.00199887,0.0232378,1875,1240,20.5835,-2.78446
658,-216,20.6704,2.86108,0.00267225,0.00226352,5.22167e-05,0.00267881,0.00225695,0.125078,0.00166319,0.0331078,1882,1240,20.6704,-2.86106
665,-216,20.7955,2.81519,0.0025466,0.00128767,0.000143518,0.00256275,0.00127151,0.112084,0.00147962,0.0430827,1889,1240,20.7955,-2.81524
672,-216,20.8899,2.86108,0.00222678,0.00034655,0.000259542,0.00226195,0.000311381,0.134683,0.00141563,0.041718,1896,1240,20.8899,-2.8611
679,-216,21.0609,3.0448,0.00179917,-0.00033012,0.000390504,0.00186852,-0.000399478,0.175778,0.001398,0.0488214,1903,1240,21.0609,-3.04476
686,-216,21.2604,3.13525,0,0,0,0,0,0,0,-1,1910,1240,21.2604,-3.13525
693,-216,17.8077,5.05237,0.00100936,-0.00157768,0.000598424,0.00114108,-0.0017094,0.216654,0.00165659,0.0376564,1917,1240,17.8078,-5.05237
700,-216,17.8295,4.98145,0.000530444,-0.00203165,0.00083436,0.0007782,-0.0022794,0.288649,0.00183486,0.0170772,1924,1240,17.8295,-4.98148
707,-216,17.8531,4.79773,-1.72125e-05,-0.0022146,0.000927028,0.000321629,-0.00255344,0.350429,0.00181901,0.0161846,1931,1240,17.8532,-4.79774
714,-216,17.8722,4.63574,-0.000378367,-0.00223101,0.000938171,1.37342e-05,-0.00262311,0.395877,0.00175333,0.0141958,1938,1240,17.8722,-4.63577
721,-216,17.8818,4.48682,-0.00063606,-0.00145581,0.000923384,-3.56704e-05,-0.0020562,0.57652,0.00135907,0.013156,1945,1240,17.8819,-4.48685
728,-216,17.8893,4.34009,-0.000488999,-0.000394871,0.000862642,0.00042199,-0.00130586,0.81265,0.00104017,0.0112745,1952,1240,17.8893,-4.34013
735,-216,17.8914,4.20874,3.19493e-05,0.000839832,0.000638617,0.00119154,-0.000319755,1.06739,0.000919662,0.00971502,1959,1240,17.8914,-4.2088
742,-216,17.8752,4.08984,0.00158102,0.00225575,0.000269908,0.00235043,0.00148634,1.23341,0.00137278,0.0102175,1966,1240,17.8752,-4.0899
749,-216,17.8776,3.94299,0.00327561,0.00372693,-0.000161373,0.00377869,0.00322385,-1.2604,0.00235606,0.00875556,1973,1240,17.8775,-3.94294
756,-216,17.8599,3.77954,0.005548,0.00542692,-0.000556917,0.00604765,0.00492726,-0.731258,0.00371505,0.00928879,1980,1240,17.8598,-3.77955
763,-216,17.8571,3.6084,0.00883225,0.00755949,-0.00100662,0.00938677,0.00700497,-0.50352,0.0056343,0.0151301,1987,1240,17.8571,-3.60842
770,-216,17.9186,3.42444,0.0137791,0.010313,-0.00160254,0.0144065,0.00968565,-0.373147,0.00848062,0.0378388,1994,1240,17.9186,-3.42448
777,-216,18.0883,3.32324,0,0,0,0,0,0,0,-1,2001,1240,18.0883,-3.32326
784,-216,17.8186,2.90442,0,0,0,0,0,0,0,-1,2008,1240,17.8187,-2.90442
791,-216,17.5671,2.39465,0,0,0,0,0,0,0,-1,2015,1240,17.5671,-2.39469
798,-216,0,0,0,0,0,0,0,0,0,-1,2022,1240,0,0
805,-216,0,0,0,0,0,0,0,0,0,-1,2029,1240,0,0
812,-216,0,0,0,0,0,0,0,0,0,-1,2036,1240,0,0
-700,-223,0,0,0,0,0,0,0,0,0,-1,524,1247,0,0
-693,-223,0,0,0,0,0,0,0,0,0,-1,531,1247,0,0
-686,-223,0,0,0,0,0,0,0,0,0,-1,538,1247,0,0
-679,-223,0,0,0,0,0,0,0,0,0,-1,545,1247,0,0
-672,-223,-11.9385,-1.78137,0,0,0,0,0,0,0,-1,552,1247,-11.9385,1.78135
-665,-223,-9.86639,1.20959,0,0,0,0,0,0,0,-1,559,1247,-9.86642,-1.20953
-658,-223,-9.61664,1.33362,0,0,0,0,0,0,0,-1,566,1247,-9.61663,-1.33357
-651,-223,-11.251,0.630981,0,0,0,0,0,0,0,-1,573,1247,-11.251,-0.630971
-644,-223,-10.5798,1.18896,0.0159247,-0.017881,-0.00738968,0.0174694,-0.0194258,-0.206073,0.0213114,0.0472654,580,1247,-10.5798,-1.189
-637,-223,-9.82574,1.57251,0.0148789,-0.0126552,-0.0073598,0.0167227,-0.014499,-0.245469,0.0180411,0.044057,587,1247,-9.82577,-1.5725
-630,-223,-9.94971,1.41187,0.0126693,-0.00875281,-0.0069464,0.0147245,-0.0108081,-0.28767,0.014799,0.0355651,594,1247,-9.94971,-1.41189
-623,-223,-9.80316,1.39514,0.0116514,-0.00539028,-0.00644065,0.0138117,-0.00755058,-0.323623,0.0125089,0.0210577,601,1247,-9.80315,-1.39511
-616,-223,-9.81421,1.60486,0.00976841,-0.00306907,-0.00594405,0.0120979,-0.00539858,-0.37351,0.0103455,0.0154476,608,1247,-9.81419,-1.60489
-609,-223,-9.80518,1.76038,0.00756294,-0.00170963,-0.0050326,0.00976933,-0.00391602,-0.413182,0.00813858,0.0114081,615,1247,-9.80515,-1.76035
-602,-223,-9.80164,1.90417,0.00555713,-0.00123581,-0.00433364,0.00766669,-0.00334538,-0.453023,0.00651895,0.0142305,622,1247,-9.80165,-1.90421
-595,-223,-9.79944,2.10767,0.00490842,-0.0012175,-0.00404248,0.00691728,-0.00322636,-0.461195,0.00598427,0.0201948,629,1247,-9.79946,-2.10762
-588,-223,-9.80164,2.32544,0.00568941,-0.00135814,-0.00301468,0.00680302,-0.00247174,-0.353847,0.005546,0.0225425,636,1247,-9.80166,-2.32541
-581,-223,-9.81836,2.51477,0.00555127,-0.000610329,-0.00267134,0.00654814,-0.0016072,-0.357167,0.00498822,0.0207165,643,1247,-9.81837,-2.51479
-574,-223,-9.79254,2.66077,0.00509472,4.45754e-05,-0.00232435,0.00600164,-0.000862345,-0.372015,0.00431735,0.0174863,650,1247,-9.79255,-2.66082
-567,-223,-9.58075,2.9248,0.00395249,0.000590509,-0.00205658,0.00492767,-0.000384674,-0.442776,0.00342056,0.0250454,657,1247,-9.58072,-2.92481
-560,-223,-9.3136,3.2063,0.0024436,0.0011499,-0.00194722,0.0038486,-0.000255095,-0.625037,0.00265485,0.0415667,664,1247,-9.31362,-3.20635
-553,-223,-8.76074,3.51746,0,0,0,0,0,0,0,-1,671,1247,-8.76074,-3.51741
-546,-223,-12.3258,0.0356445,0,0,0,0,0,0,0,-1,678,1247,-12.3258,-0.0356338
-539,-223,-13.1938,1.30273,0,0,0,0,0,0,0,-1,685,1247,-13.1938,-1.30271
-532,-223,-12.7033,0.934082,-0.00854127,0.00411566,-0.00112686,0.0042152,-0.00864081,-1.48269,0.0075676,0.0422356,692,1247,-12.7033,-0.934038
-525,-223,-12.7721,0.761719,-0.0122063,0.00471071,-0.00089965,0.00475842,-0.012254,-1.51782,0.0101349,0.0447751,699,1247,-12.7721,-0.761762
-518,-223,-12.9579,0.937866,-0.0155757,0.00469586,-0.000777249,0.00472561,-0.0156055,-1.53253,0.0122856,0.0426864,706,1247,-12.9579,-0.937812
-511,-223,-13.1879,1.11096,-0.0160615,0.00338438,-0.00111466,0.00344806,-0.0161252,-1.51372,0.0120649,0.0415524,713,1247,-13.188,-1.11101
-504,-223,-13.1036,0.976196,-0.0112622,-7.2437e-05,-0.000357511,-6.10268e-05,-0.0112737,-1.53889,0.00749551,0.0406648,720,1247,-13.1037,-0.976253
-497,-223,0,0,0,0,0,0,0,0,0,-1,727,1247,0,0
-490,-223,0,0,0,0,0,0,0,0,0,-1,734,1247,0,0
-483,-223,0,0,0,0,0,0,0,0,0,-1,741,1247,0,0
-476,-223,0,0,0,0,0,0,0,0,0,-1,748,1247,0,0
-469,-223,0,0,0,0,0,0,0,0,0,-1,755,1247,0,0
-462,-223,0,0,0,0,0,0,0,0,0,-1,762,1247,0,0
-455,-223,0,0,0,0,0,0,0,0,0,-1,769,1247,0,0
-448,-223,0,0,0,0,0,0,0,0,0,-1,776,1247,0,0
-441,-223,0,0,0,0,0,0,0,0,0,-1,783,1247,0,0
-434,-223,0,0,0,0,0,0,0,0,0,-1,790,1247,0,0
-427,-223,0,0,0,0,0,0,0,0,0,-1,797,1247,0,0
-420,-223,0,0,0,0,0,0,0,0,0,-1,804,1247,0,0
-413,-223,0,0,0,0,0,0,0,0,0,-1,811,1247,0,0
-406,-223,0,0,0,0,0,0,0,0,0,-1,818,1247,0,0
-399,-223,0,0,0,0,0,0,0,0,0,-1,825,1247,0,0
-392,-223,0,0,0,0,0,0,0,0,0,-1,832,1247,0,0
-385,-223,0,0,0,0,0,0,0,0,0,-1,839,1247,0,0
-378,-223,0,0,0,0,0,0,0,0,0,-1,846,1247,0,0
-371,-223,0,0,0,0,0,0,0,0,0,-1,853,1247,0,0
-364,-223,0,0,0,0,0,0,0,0,0,-1,860,1247,0,0
-357,-223,0,0,0,0,0,0,0,0,0,-1,867,1247,0,0
-350,-223,0,0,0,0,0,0,0,0,0,-1,874,1247,0,0
-343,-223,0,0,0,0,0,0,0,0,0,-1,881,1247,0,0
-336,-223,0,0,0,0,0,0,0,0,0,-1,888,1247,0,0
-329,-223,0,0,0,0,0,0,0,0,0,-1,895,1247,0,0
-322,-223,0,0,0,0,0,0,0,0,0,-1,902,1247,0,0
-315,-223,0,0,0,0,0,0,0,0,0,-1,909,1247,0,0
-308,-223,0,0,0,0,0,0,0,0,0,-1,916,1247,0,0
-301,-223,0,0,0,0,0,0,0,0,0,-1,923,1247,0,0
-294,-223,0,0,0,0,0,0,0,0,0,-1,930,1247,0,0
-287,-223,0,0,0,0,0,0,0,0,0,-1,937,1247,0,0
-280,-223,0,0,0,0,0,0,0,0,0,-1,944,1247,0,0
-273,-223,0,0,0,0,0,0,0,0,0,-1,951,1247,0,0
-266,-223,0,0,0,0,0,0,0,0,0,-1,958,1247,0,0
-259,-223,0,0,0,0,0,0,0,0,0,-1,965,1247,0,0
-252,-223,0,0,0,0,0,0,0,0,0,-1,972,1247,0,0
-245,-223,0,0,0,0,0,0,0,0,0,-1,979,1247,0,0
-238,-223,0,0,0,0,0,0,0,0,0,-1,986,1247,0,0
-231,-223,0,0,0,0,0,0,0,0,0,-1,993,1247,0,0
-224,-223,0,0,0,0,0,0,0,0,0,-1,1000,1247,0,0
-217,-223,0,0,0,0,0,0,0,0,0,-1,1007,1247,0,0
-210,-223,0,0,0,0,0,0,0,0,0,-1,1014,1247,0,0
-203,-223,0,0,0,0,0,0,0,0,0,-1,1021,1247,0,0
-196,-223,0,0,0,0,0,0,0,0,0,-1,1028,1247,0,0
-189,-223,0,0,0,0,0,0,0,0,0,-1,1035,1247,0,0
-182,-223,0,0,0,0,0,0,0,0,0,-1,1042,1247,0,0
-175,-223,0,0,0,0,0,0,0,0,0,-1,1049,1247,0,0
-168,-223,0,0,0,0,0,0,0,0,0,-1,1056,1247,0,0
-161,-223,0,0,0,0,0,0,0,0,0,-1,1063,1247,0,0
-154,-223,0,0,0,0,0,0,0,0,0,-1,1070,1247,0,0
-147,-223,0,0,0,0,0,0,0,0,0,-1,1077,1247,0,0
-140,-223,0,0,0,0,0,0,0,0,0,-1,1084,1247,0,0
-133,-223,0,0,0,0,0,0,0,0,0,-1,1091,1247,0,0
-126,-223,0,0,0,0,0,0,0,0,0,-1,1098,1247,0,0
-119,-223,0,0,0,0,0,0,0,0,0,-1,1105,1247,0,0
-112,-223,0,0,0,0,0,0,0,0,0,-1,1112,1247,0,0
-105,-223,0,0,0,0,0,0,0,0,0,-1,1119,1247,0,0
-98,-223,0,0,0,0,0,0,0,0,0,-1,1126,1247,0,0
-91,-223,0,0,0,0,0,0,0,0,0,-1,1133,1247,0,0
-84,-223,0,0,0,0,0,0,0,0,0,-1,1140,1247,0,0
-77,-223,0,0,0,0,0,0,0,0,0,-1,1147,1247,0,0
-70,-223,0,0,0,0,0,0,0,0,0,-1,1154,1247,0,0
-63,-223,0,0,0,0,0,0,0,0,0,-1,1161,1247,0,0
-56,-223,0,0,0,0,0,0,0,0,0,-1,1168,1247,0,0
-49,-223,0,0,0,0,0,0,0,0,0,-1,1175,1247,0,0
-42,-223,0,0,0,0,0,0,0,0,0,-1,1182,1247,0,0
-35,-223,0,0,0,0,0,0,0,0,0,-1,1189,1247,0,0
-28,-223,0,0,0,0,0,0,0,0,0,-1,1196,1247,0,0
-21,-223,0,0,0,0,0,0,0,0,0,-1,1203,1247,0,0
-14,-223,0,0,0,0,0,0,0,0,0,-1,1210,1247,0,0
-7,-223,0,0,0,0,0,0,0,0,0,-1,1217,1247,0,0
0,-223,0,0,0,0,0,0,0,0,0,-1,1224,1247,0,0
7,-223,0,0,0,0,0,0,0,0,0,-1,1231,1247,0,0
14,-223,0,0,0,0,0,0,0,0,0,-1,1238,1247,0,0
21,-223,0,0,0,0,0,0,0,0,0,-1,1245,1247,0,0
28,-223,0,0,0,0,0,0,0,0,0,-1,1252,1247,0,0
35,-223,0,0,0,0,0,0,0,0,0,-1,1259,1247,0,0
42,-223,0,0,0,0,0,0,0,0,0,-1,1266,1247,0,0
49,-223,0,0,0,0,0,0,0,0,0,-1,1273,1247,0,0
56,-223,0,0,0,0,0,0,0,0,0,-1,1280,1247,0,0
63,-223,0,0,0,0,0,0,0,0,0,-1,1287,1247,0,0
70,-223,0,0,0,0,0,0,0,0,0,-1,1294,1247,0,0
77,-223,0,0,0,0,0,0,0,0,0,-1,1301,1247,0,0
84,-223,0,0,0,0,0,0,0,0,0,-1,1308,1247,0,0
91,-223,0,0,0,0,0,0,0,0,0,-1,1315,1247,0,0
98,-223,0,0,0,0,0,0,0,0,0,-1,1322,1247,0,0
105,-223,0,0,0,0,0,0,0,0,0,-1,1329,1247,0,0
112,-223,0,0,0,0,0,0,0,0,0,-1,1336,1247,0,0
119,-223,0,0,0,0,0,0,0,0,0,-1,1343,1247,0,0
126,-223,0,0,0,0,0,0,0,0,0,-1,1350,1247,0,0
133,-223,0,0,0,0,0,0,0,0,0,-1,1357,1247,0,0
140,-223,0,0,0,0,0,0,0,0,0,-1,1364,1247,0,0
147,-223,0,0,0,0,0,0,0,0,0,-1,1371,1247,0,0
154,-223,0,0,0,0,0,0,0,0,0,-1,1378,1247,0,0
161,-223,0,0,0,0,0,0,0,0,0,-1,1385,1247,0,0
168,-223,0,0,0,0,0,0,0,0,0,-1,1392,1247,0,0
175,-223,0,0,0,0,0,0,0,0,0,-1,1399,1247,0,0
182,-223,0,0,0,0,0,0,0,0,0,-1,1406,1247,0,0
189,-223,0,0,0,0,0,0,0,0,0,-1,1413,1247,0,0
196,-223,0,0,0,0,0,0,0,0,0,-1,1420,1247,0,0
203,-223,0,0,0,0,0,0,0,0,0,-1,1427,1247,0,0
210,-223,0,0,0,0,0,0,0,0,0,-1,1434,1247,0,0
217,-223,0,0,0,0,0,0,0,0,0,-1,1441,1247,0,0
224,-223,0,0,0,0,0,0,0,0,0,-1,1448,1247,0,0
231,-223,0,0,0,0,0,0,0,0,0,-1,1455,1247,0,0
238,-223,0,0,0,0,0,0,0,0,0,-1,1462,1247,0,0
245,-223,0,0,0,0,0,0,0,0,0,-1,1469,1247,0,0
252,-223,0,0,0,0,0,0,0,0,0,-1,1476,1247,0,0
259,-223,0,0,0,0,0,0,0,0,0,-1,1483,1247,0,0
266,-223,0,0,0,0,0,0,0,0,0,-1,1490,1247,0,0
273,-223,0,0,0,0,0,0,0,0,0,-1,1497,1247,0,0
280,-223,0,0,0,0,0,0,0,0,0,-1,1504,1247,0,0
287,-223,0,0,0,0,0,0,0,0,0,-1,1511,1247,0,0
294,-223,0,0,0,0,0,0,0,0,0,-1,1518,1247,0,0
301,-223,0,0,0,0,0,0,0,0,0,-1,1525,1247,0,0
308,-223,0,0,0,0,0,0,0,0,0,-1,1532,1247,0,0
315,-223,0,0,0,0,0,0,0,0,0,-1,1539,1247,0,0
322,-223,0,0,0,0,0,0,0,0,0,-1,1546,1247,0,0
329,-223,0,0,0,0,0,0,0,0,0,-1,1553,1247,0,0
336,-223,0,0,0,0,0,0,0,0,0,-1,1560,1247,0,0
343,-223,0,0,0,0,0,0,0,0,0,-1,1567,1247,0,0
350,-223,0,0,0,0,0,0,0,0,0,-1,1574,1247,0,0
357,-223,0,0,0,0,0,0,0,0,0,-1,1581,1247,0,0
364,-223,0,0,0,0,0,0,0,0,0,-1,1588,1247,0,0
371,-223,0,0,0,0,0,0,0,0,0,-1,1595,1247,0,0
378,-223,0,0,0,0,0,0,0,0,0,-1,1602,1247,0,0
385,-223,0,0,0,0,0,0,0,0,0,-1,1609,1247,0,0
392,-223,0,0,0,0,0,0,0,0,0,-1,1616,1247,0,0
399,-223,0,0,0,0,0,0,0,0,0,-1,1623,1247,0,0
406,-223,0,0,0,0,0,0,0,0,0,-1,1630,1247,0,0
413,-223,0,0,0,0,0,0,0,0,0,-1,1637,1247,0,0
420,-223,0,0,0,0,0,0,0,0,0,-1,1644,1247,0,0
427,-223,0,0,0,0,0,0,0,0,0,-1,1651,1247,0,0
434,-223,0,0,0,0,0,0,0,0,0,-1,1658,1247,0,0
441,-223,0,0,0,0,0,0,0,0,0,-1,1665,1247,0,0
448,-223,0,0,0,0,0,0,0,0,0,-1,1672,1247,0,0
455,-223,0,0,0,0,0,0,0,0,0,-1,1679,1247,0,0
462,-223,0,0,0,0,0,0,0,0,0,-1,1686,1247,0,0
469,-223,0,0,0,0,0,0,0,0,0,-1,1693,1247,0,0
476,-223,0,0,0,0,0,0,0,0,0,-1,1700,1247,0,0
483,-223,0,0,0,0,0,0,0,0,0,-1,1707,1247,0,0
490,-223,0,0,0,0,0,0,0,0,0,-1,1714,1247,0,0
497,-223,0,0,0,0,0,0,0,0,0,-1,1721,1247,0,0
504,-223,0,0,0,0,0,0,0,0,0,-1,1728,1247,0,0
511,-223,0,0,0,0,0,0,0,0,0,-1,1735,1247,0,0
518,-223,0,0,0,0,0,0,0,0,0,-1,1742,1247,0,0
525,-223,0,0,0,0,0,0,0,0,0,-1,1749,1247,0,0
532,-223,0,0,0,0,0,0,0,0,0,-1,1756,1247,0,0
539,-223,0,0,0,0,0,0,0,0,0,-1,1763,1247,0,0
546,-223,0,0,0,0,0,0,0,0,0,-1,1770,1247,0,0
553,-223,0,0,0,0,0,0,0,0,0,-1,1777,1247,0,0
560,-223,0,0,0,0,0,0,0,0,0,-1,1784,1247,0,0
567,-223,0,0,0,0,0,0,0,0,0,-1,1791,1247,0,0
574,-223,0,0,0,0,0,0,0,0,0,-1,1798,1247,0,0
581,-223,0,0,0,0,0,0,0,0,0,-1,1805,1247,0,0
588,-223,0,0,0,0,0,0,0,0,0,-1,1812,1247,0,0
595,-223,0,0,0,0,0,0,0,0,0,-1,1819,1247,0,0
602,-223,0,0,0,0,0,0,0,0,0,-1,1826,1247,0,0
609,-223,0,0,0,0,0,0,0,0,0,-1,1833,1247,0,0
616,-223,0,0,0,0,0,0,0,0,0,-1,1840,1247,0,0
623,-223,20.498,2.88232,0.00161599,0.00146886,-0.00010005,0.00166661,0.00141824,-0.468391,0.00103823,0.0408626,1847,1247,20.4981,-2.88234
630,-223,20.5516,2.81689,0.00138069,0.00441434,0.000250201,0.00443483,0.0013602,1.48906,0.00262345,0.0373083,1854,1247,20.5516,-2.81694
637,-223,20.5529,2.79102,0.00147899,0.00587222,0.000556301,0.00594157,0.00140964,1.44678,0.00358477,0.0291855,1861,1247,20.5529,-2.791
644,-223,20.5289,2.71143,0.00150234,0.00611693,0.000756171,0.00623768,0.00138159,1.41245,0.00378298,0.0221065,1868,1247,20.5289,-2.7114
651,-223,20.5657,2.76318,0.00147888,0.00541268,0.000907784,0.00561206,0.0012795,1.3546,0.00339619,0.0282247,1875,1247,20.5656,-2.76322
658,-223,20.7302,2.96143,0.00145061,0.0043718,0.000966974,0.00466289,0.00115952,1.2784,0.0028032,0.0481697,1882,1247,20.7302,-2.96138
665,-223,20.8329,2.86951,0.00143121,0.00322154,0.000958543,0.00363791,0.00101484,1.16101,0.00216768,0.0445654,1889,1247,20.8329,-2.86948
672,-223,20.9111,2.87817,0,0,0,0,0,0,0,-1,1896,1247,20.9112,-2.87819
679,-223,21.1129,2.99182,0,0,0,0,0,0,0,-1,1903,1247,21.1129,-2.99177
686,-223,17.7034,5.09473,0,0,0,0,0,0,0,-1,1910,1247,17.7034,-5.09475
693,-223,17.6809,5.07043,0.000784519,-0.000513405,0.000857343,0.00121082,-0.000939705,0.461432,0.00124489,0.0246273,1917,1247,17.681,-5.07047
700,-223,17.7188,4.94849,0.000550265,-0.00123493,0.00093924,0.000953392,-0.00163806,0.405427,0.00151348,0.0110419,1924,1247,17.7187,-4.94846
707,-223,17.7223,4.79578,0.000277488,-0.00160756,0.000815361,0.000581224,-0.00191129,0.356593,0.0015058,0.0126508,1931,1247,17.7223,-4.79572
714,-223,17.7361,4.63416,6.10909e-05,-0.00174227,0.000727327,0.000317871,-0.00199905,0.339386,0.00145032,0.0116607,1938,1247,17.7361,-4.63418
721,-223,17.7369,4.48071,-0.000134608,-0.000880474,0.000619623,0.000215654,-0.00123074,0.514501,0.000901019,0.0143171,1945,1247,17.7369,-4.48076
728,-223,17.7308,4.33789,-5.06008e-05,0.000254887,0.000500226,0.000625169,-0.000420883,0.933577,0.000607766,0.0155965,1952,1247,17.7308,-4.33794
735,-223,17.7292,4.19836,0.000346096,0.00157089,0.000196393,0.00160161,0.000315375,1.41563,0.000979685,0.0127633,1959,1247,17.7292,-4.19835
742,-223,17.7054,4.0636,0.00160338,0.00313671,-0.00019659,0.00316152,0.00157857,-1.44529,0.0018253,0.0107556,1966,1247,17.7054,-4.06365
749,-223,17.708,3.91187,0.00299947,0.00488469,-0.000656451,0.00509075,0.00279341,-1.26664,0.00294379,0.00980093,1973,1247,17.708,-3.91188
756,-223,17.7166,3.76001,0.00506106,0.00701536,-0.00115105,0.00754809,0.00452833,-1.13733,0.00438681,0.011133,1980,1247,17.7165,-3.75998
763,-223,17.725,3.59216,0.00823323,0.009836,-0.00173498,0.0109457,0.0071235,-1.00175,0.00641462,0.0142924,1987,1247,17.725,-3.5922
770,-223,17.7764,3.37732,0.0131288,0.0136224,-0.0024082,0.0157964,0.0109548,-0.836471,0.00934494,0.0357391,1994,1247,17.7764,-3.37737
777,-223,17.8336,3.1604,0,0,0,0,0,0,0,-1,2001,1247,17.8336,-3.16041
784,-223,16.708,2.56384,0,0,0,0,0,0,0,-1,2008,1247,16.7081,-2.56383
791,-223,16.6023,2.13086,0,0,0,0,0,0,0,-1,2015,1247,16.6023,-2.13088
798,-223,0,0,0,0,0,0,0,0,0,-1,2022,1247,0,0
805,-223,0,0,0,0,0,0,0,0,0,-1,2029,1247,0,0
812,-223,0,0,0,0,0,0,0,0,0,-1,2036,1247,0,0
-700,-230,0,0,0,0,0,0,0,0,0,-1,524,1254,0,0
-693,-230,0,0,0,0,0,0,0,0,0,-1,531,1254,0,0
-686,-230,0,0,0,0,0,0,0,0,0,-1,538,1254,0,0
-679,-230,0,0,0,0,0,0,0,0,0,-1,545,1254,0,0
-672,-230,-11.4771,-1.53235,0,0,0,0,0,0,0,-1,552,1254,-11.4771,1.53233
-665,-230,-9.77625,1.48193,0,0,0,0,0,0,0,-1,559,1254,-9.77623,-1.48196
-658,-230,-9.47931,1.62109,0.017503,-0.026392,-0.00904578,0.0192941,-0.028183,-0.195471,0.0275706,0.0461244,566,1254,-9.47928,-1.62113
-651,-230,-9.23712,1.77966,0.0205471,-0.0190184,-0.00984333,0.0228606,-0.021332,-0.230852,0.0255197,0.0474764,573,1254,-9.2371,-1.77969
-644,-230,-9.35187,1.56079,0,0,0,0,0,0,0,-1,580,1254,-9.35187,-1.56085
-637,-230,-9.37177,1.64404,0.0179526,-0.00903736,-0.0095241,0.020975,-0.0120597,-0.307288,0.0193027,0.0479019,587,1254,-9.37178,-1.64406
-630,-230,-9.48505,1.53064,0.0146951,-0.00591904,-0.00863115,0.0178317,-0.00905565,-0.348568,0.0157966,0.0404137,594,1254,-9.48503,-1.53066
-623,-230,-9.59613,1.43506,0.0127918,-0.00327294,-0.00768452,0.0158756,-0.00635682,-0.381635,0.0132223,0.025697,601,1254,-9.59615,-1.43508
-616,-230,-9.60883,1.57642,0.0102759,-0.00152639,-0.00670355,0.0133057,-0.00455615,-0.424485,0.010717,0.0158607,608,1254,-9.60885,-1.57647
-609,-230,-9.60333,1.75146,0.00778884,-0.000500987,-0.00537353,0.0104303,-0.00314247,-0.456883,0.00820416,0.0123533,615,1254,-9.60336,-1.75149
-602,-230,-9.60925,1.92896,0.005653,-0.000373359,-0.00428254,0.00787618,-0.00259654,-0.478831,0.00629733,0.0123644,622,1254,-9.60928,-1.92894
-595,-230,-9.61829,2.11023,0.00478101,-0.000467036,-0.00362339,0.00663073,-0.00231676,-0.472009,0.00536225,0.0188749,629,1254,-9.61829,-2.11026
-588,-230,-9.61841,2.30054,0.00535388,-0.000700493,-0.0023732,0.00617324,-0.00151985,-0.332442,0.00470467,0.0249743,636,1254,-9.6184,-2.30058
-581,-230,-9.63416,2.53027,0.00510744,8.33008e-05,-0.00191581,0.00575462,-0.000563876,-0.325772,0.00403752,0.0234406,643,1254,-9.63418,-2.53023
-574,-230,-9.61902,2.68005,0.00452533,0.000791189,-0.00157236,0.00509922,0.000217302,-0.349961,0.00332941,0.0168374,650,1254,-9.61904,-2.68009
-567,-230,-9.47937,2.88123,0.00312552,0.00138167,-0.00134706,0.00385822,0.000648971,-0.498168,0.00238543,0.0212685,657,1254,-9.47939,-2.88128
-560,-230,-9.2594,3.05359,0.00128883,0.00198474,-0.00129951,0.00298207,0.000291489,-0.916208,0.00189836,0.0353268,664,1254,-9.25939,-3.05359
-553,-230,-8.83508,3.14124,0,0,0,0,0,0,0,-1,671,1254,-8.83508,-3.14128
-546,-230,-10.7707,1.62012,0,0,0,0,0,0,0,-1,678,1254,-10.7707,-1.62008
-539,-230,-12.3893,0.46582,0,0,0,0,0,0,0,-1,685,1254,-12.3893,-0.465764
-532,-230,-12.4352,0.440918,-0.0116434,0.0050637,-0.000839054,0.00510574,-0.0116855,-1.52074,0.0099394,0.0457231,692,1254,-12.4352,-0.440956
-525,-230,-12.6117,0.626221,-0.0159509,0.00563561,-0.000754338,0.00566193,-0.0159773,-1.53591,0.0129579,0.0479815,699,1254,-12.6117,-0.626281
-518,-230,-12.7755,0.734253,-0.020132,0.00563043,-0.000740156,0.00565168,-0.0201532,-1.5421,0.015663,0.0439545,706,1254,-12.7755,-0.734209
-511,-230,-12.9951,0.909424,-0.0223524,0.00443745,-0.000969737,0.00447251,-0.0223874,-1.53466,0.0166177,0.0402459,713,1254,-12.9951,-0.909483
-504,-230,-13.0991,1.02832,-0.0199363,0.0013255,-0.000204504,0.00132747,-0.0199382,-1.56118,0.013756,0.0381162,720,1254,-13.0991,-1.02833
-497,-230,0,0,0,0,0,0,0,0,0,-1,727,1254,0,0
-490,-230,0,0,0,0,0,0,0,0,0,-1,734,1254,0,0
-483,-230,0,0,0,0,0,0,0,0,0,-1,741,1254,0,0
-476,-230,0,0,0,0,0,0,0,0,0,-1,748,1254,0,0
-469,-230,0,0,0,0,0,0,0,0,0,-1,755,1254,0,0
-462,-230,0,0,0,0,0,0,0,0,0,-1,762,1254,0,0
-455,-230,0,0,0,0,0,0,0,0,0,-1,769,1254,0,0
-448,-230,0,0,0,0,0,0,0,0,0,-1,776,1254,0,0
-441,-230,0,0,0,0,0,0,0,0,0,-1,783,1254,0,0
-434,-230,0,0,0,0,0,0,0,0,0,-1,790,1254,0,0
-427,-230,0,0,0,0,0,0,0,0,0,-1,797,1254,0,0
-420,-230,0,0,0,0,0,0,0,0,0,-1,804,1254,0,0
-413,-230,0,0,0,0,0,0,0,0,0,-1,811,1254,0,0
-406,-230,0,0,0,0,0,0,0,0,0,-1,818,1254,0,0
-399,-230,0,0,0,0,0,0,0,0,0,-1,825,1254,0,0
-392,-230,0,0,0,0,0,0,0,0,0,-1,832,1254,0,0
-385,-230,0,0,0,0,0,0,0,0,0,-1,839,1254,0,0
-378,-230,0,0,0,0,0,0,0,0,0,-1,846,1254,0,0
-371,-230,0,0,0,0,0,0,0,0,0,-1,853,1254,0,0
-364,-230,0,0,0,0,0,0,0,0,0,-1,860,1254,0,0
-357,-230,0,0,0,0,0,0,0,0,0,-1,867,1254,0,0
-350,-230,0,0,0,0,0,0,0,0,0,-1,874,1254,0,0
-343,-230,0,0,0,0,0,0,0,0,0,-1,881,1254,0,0
-336,-230,0,0,0,0,0,0,0,0,0,-1,888,1254,0,0
-329,-230,0,0,0,0,0,0,0,0,0,-1,895,1254,0,0
-322,-230,0,0,0,0,0,0,0,0,0,-1,902,1254,0,0
-315,-230,0,0,0,0,0,0,0,0,0,-1,909,1254,0,0
-308,-230,0,0,0,0,0,0,0,0,0,-1,916,1254,0,0
-301,-230,0,0,0,0,0,0,0,0,0,-1,923,1254,0,0
-294,-230,0,0,0,0,0,0,0,0,0,-1,930,1254,0,0
-287,-230,0,0,0,0,0,0,0,0,0,-1,937,1254,0,0
-280,-230,0,0,0,0,0,0,0,0,0,-1,944,1254,0,0
-273,-230,0,0,0,0,0,0,0,0,0,-1,951,1254,0,0
-266,-230,0,0,0,0,0,0,0,0,0,-1,958,1254,0,0
-259,-230,0,0,0,0,0,0,0,0,0,-1,965,1254,0,0
-252,-230,0,0,0,0,0,0,0,0,0,-1,972,1254,0,0
-245,-230,0,0,0,0,0,0,0,0,0,-1,979,1254,0,0
-238,-230,0,0,0,0,0,0,0,0,0,-1,986,1254,0,0
-231,-230,0,0,0,0,0,0,0,0,0,-1,993,1254,0,0
-224,-230,0,0,0,0,0,0,0,0,0,-1,1000,1254,0,0
-217,-230,0,0,0,0,0,0,0,0,0,-1,1007,1254,0,0
-210,-230,0,0,0,0,0,0,0,0,0,-1,1014,1254,0,0
-203,-230,0,0,0,0,0,0,0,0,0,-1,1021,1254,0,0
-196,-230,0,0,0,0,0,0,0,0,0,-1,1028,1254,0,0
-189,-230,0,0,0,0,0,0,0,0,0,-1,1035,1254,0,0
-182,-230,0,0,0,0,0,0,0,0,0,-1,1042,1254,0,0
-175,-230,0,0,0,0,0,0,0,0,0,-1,1049,1254,0,0
-168,-230,0,0,0,0,0,0,0,0,0,-1,1056,1254,0,0
-161,-230,0,0,0,0,0,0,0,0,0,-1,1063,1254,0,0
-154,-230,0,0,0,0,0,0,0,0,0,-1,1070,1254,0,0
-147,-230,0,0,0,0,0,0,0,0,0,-1,1077,1254,0,0
-140,-230,0,0,0,0,0,0,0,0,0,-1,1084,1254,0,0
-133,-230,0,0,0,0,0,0,0,0,0,-1,1091,1254,0,0
-126,-230,0,0,0,0,0,0,0,0,0,-1,1098,1254,0,0
-119,-230,0,0,0,0,0,0,0,0,0,-1,1105,1254,0,0
-112,-230,0,0,0,0,0,0,0,0,0,-1,1112,1254,0,0
-105,-230,0,0,0,0,0,0,0,0,0,-1,1119,1254,0,0
-98,-230,0,0,0,0,0,0,0,0,0,-1,1126,1254,0,0
-91,-230,0,0,0,0,0,0,0,0,0,-1,1133,1254,0,0
-84,-230,0,0,0,0,0,0,0,0,0,-1,1140,1254,0,0
-77,-230,0,0,0,0,0,0,0,0,0,-1,1147,1254,0,0
-70,-230,0,0,0,0,0,0,0,0,0,-1,1154,1254,0,0
-63,-230,0,0,0,0,0,0,0,0,0,-1,1161,1254,0,0
-56,-230,0,0,0,0,0,0,0,0,0,-1,1168,1254,0,0
-49,-230,0,0,0,0,0,0,0,0,0,-1,1175,1254,0,0
-42,-230,0,0,0,0,0,0,0,0,0,-1,1182,1254,0,0
-35,-230,0,0,0,0,0,0,0,0,0,-1,1189,1254,0,0
-28,-230,0,0,0,0,0,0,0,0,0,-1,1196,1254,0,0
-21,-230,0,0,0,0,0,0,0,0,0,-1,1203,1254,0,0
-14,-230,0,0,0,0,0,0,0,0,0,-1,1210,1254,0,0
-7,-230,0,0,0,0,0,0,0,0,0,-1,1217,1254,0,0
0,-230,0,0,0,0,0,0,0,0,0,-1,1224,1254,0,0
7,-230,0,0,0,0,0,0,0,0,0,-1,1231,1254,0,0
14,-230,0,0,0,0,0,0,0,0,0,-1,1238,1254,0,0
21,-230,0,0,0,0,0,0,0,0,0,-1,1245,1254,0,0
28,-230,0,0,0,0,0,0,0,0,0,-1,1252,1254,0,0
35,-230,0,0,0,0,0,0,0,0,0,-1,1259,1254,0,0
42,-230,0,0,0,0,0,0,0,0,0,-1,1266,1254,0,0
49,-230,0,0,0,0,0,0,0,0,0,-1,1273,1254,0,0
56,-230,0,0,0,0,0,0,0,0,0,-1,1280,1254,0,0
63,-230,0,0,0,0,0,0,0,0,0,-1,1287,1254,0,0
70,-230,0,0,0,0,0,0,0,0,0,-1,1294,1254,0,0
77,-230,0,0,0,0,0,0,0,0,0,-1,1301,1254,0,0
84,-230,0,0,0,0,0,0,0,0,0,-1,1308,1254,0,0
91,-230,0,0,0,0,0,0,0,0,0,-1,1315,1254,0,0
98,-230,0,0,0,0,0,0,0,0,0,-1,1322,1254,0,0
105,-230,0,0,0,0,0,0,0,0,0,-1,1329,1254,0,0
112,-230,0,0,0,0,0,0,0,0,0,-1,1336,1254,0,0
119,-230,0,0,0,0,0,0,0,0,0,-1,1343,1254,0,0
126,-230,0,0,0,0,0,0,0,0,0,-1,1350,1254,0,0
133,-230,0,0,0,0,0,0,0,0,0,-1,1357,1254,0,0
140,-230,0,0,0,0,0,0,0,0,0,-1,1364,1254,0,0
147,-230,0,0,0,0,0,0,0,0,0,-1,1371,1254,0,0
154,-230,0,0,0,0,0,0,0,0,0,-1,1378,1254,0,0
161,-230,0,0,0,0,0,0,0,0,0,-1,1385,1254,0,0
168,-230,0,0,0,0,0,0,0,0,0,-1,1392,1254,0,0
175,-230,0,0,0,0,0,0,0,0,0,-1,1399,1254,0,0
182,-230,0,0,0,0,0,0,0,0,0,-1,1406,1254,0,0
189,-230,0,0,0,0,0,0,0,0,0,-1,1413,1254,0,0
196,-230,0,0,0,0,0,0,0,0,0,-1,1420,1254,0,0
203,-230,0,0,0,0,0,0,0,0,0,-1,1427,1254,0,0
210,-230,0,0,0,0,0,0,0,0,0,-1,1434,1254,0,0
217,-230,0,0,0,0,0,0,0,0,0,-1,1441,1254,0,0
224,-230,0,0,0,0,0,0,0,0,0,-1,1448,1254,0,0
231,-230,0,0,0,0,0,0,0,0,0,-1,1455,1254,0,0
238,-230,0,0,0,0,0,0,0,0,0,-1,1462,1254,0,0
245,-230,0,0,0,0,0,0,0,0,0,-1,1469,1254,0,0
252,-230,0,0,0,0,0,0,0,0,0,-1,1476,1254,0,0
259,-230,0,0,0,0,0,0,0,0,0,-1,1483,1254,0,0
266,-230,0,0,0,0,0,0,0,0,0,-1,1490,1254,0,0
273,-230,0,0,0,0,0,0,0,0,0,-1,1497,1254,0,0
280,-230,0,0,0,0,0,0,0,0,0,-1,1504,1254,0,0
287,-230,0,0,0,0,0,0,0,0,0,-1,1511,1254,0,0
294,-230,0,0,0,0,0,0,0,0,0,-1,1518,1254,0,0
301,-230,0,0,0,0,0,0,0,0,0,-1,1525,1254,0,0
308,-230,0,0,0,0,0,0,0,0,0,-1,1532,1254,0,0
315,-230,0,0,0,0,0,0,0,0,0,-1,1539,1254,0,0
322,-230,0,0,0,0,0,0,0,0,0,-1,1546,1254,0,0
329,-230,0,0,0,0,0,0,0,0,0,-1,1553,1254,0,0
336,-230,0,0,0,0,0,0,0,0,0,-1,1560,1254,0,0
343,-230,0,0,0,0,0,0,0,0,0,-1,1567,1254,0,0
350,-230,0,0,0,0,0,0,0,0,0,-1,1574,1254,0,0
357,-230,0,0,0,0,0,0,0,0,0,-1,1581,1254,0,0
364,-230,0,0,0,0,0,0,0,0,0,-1,1588,1254,0,0
371,-230,0,0,0,0,0,0,0,0,0,-1,1595,1254,0,0
378,-230,0,0,0,0,0,0,0,0,0,-1,1602,1254,0,0
385,-230,0,0,0,0,0,0,0,0,0,-1,1609,1254,0,0
392,-230,0,0,0,0,0,0,0,0,0,-1,1616,1254,0,0
399,-230,0,0,0,0,0,0,0,0,0,-1,1623,1254,0,0
406,-230,0,0,0,0,0,0,0,0,0,-1,1630,1254,0,0
413,-230,0,0,0,0,0,0,0,0,0,-1,1637,1254,0,0
420,-230,0,0,0,0,0,0,0,0,0,-1,1644,1254,0,0
427,-230,0,0,0,0,0,0,0,0,0,-1,1651,1254,0,0
434,-230,0,0,0,0,0,0,0,0,0,-1,1658,1254,0,0
441,-230,0,0,0,0,0,0,0,0,0,-1,1665,1254,0,0
448,-230,0,0,0,0,0,0,0,0,0,-1,1672,1254,0,0
455,-230,0,0,0,0,0,0,0,0,0,-1,1679,1254,0,0
462,-230,0,0,0,0,0,0,0,0,0,-1,1686,1254,0,0
469,-230,0,0,0,0,0,0,0,0,0,-1,1693,1254,0,0
476,-230,0,0,0,0,0,0,0,0,0,-1,1700,1254,0,0
483,-230,0,0,0,0,0,0,0,0,0,-1,1707,1254,0,0
490,-230,0,0,0,0,0,0,0,0,0,-1,1714,1254,0,0
497,-230,0,0,0,0,0,0,0,0,0,-1,1721,1254,0,0
504,-230,0,0,0,0,0,0,0,0,0,-1,1728,1254,0,0
511,-230,0,0,0,0,0,0,0,0,0,-1,1735,1254,0,0
518,-230,0,0,0,0,0,0,0,0,0,-1,1742,1254,0,0
525,-230,0,0,0,0,0,0,0,0,0,-1,1749,1254,0,0
532,-230,0,0,0,0,0,0,0,0,0,-1,1756,1254,0,0
539,-230,0,0,0,0,0,0,0,0,0,-1,1763,1254,0,0
546,-230,0,0,0,0,0,0,0,0,0,-1,1770,1254,0,0
553,-230,0,0,0,0,0,0,0,0,0,-1,1777,1254,0,0
560,-230,0,0,0,0,0,0,0,0,0,-1,1784,1254,0,0
567,-230,0,0,0,0,0,0,0,0,0,-1,1791,1254,0,0
574,-230,0,0,0,0,0,0,0,0,0,-1,1798,1254,0,0
581,-230,0,0,0,0,0,0,0,0,0,-1,1805,1254,0,0
588,-230,0,0,0,0,0,0,0,0,0,-1,1812,1254,0,0
595,-230,0,0,0,0,0,0,0,0,0,-1,1819,1254,0,0
602,-230,0,0,0,0,0,0,0,0,0,-1,1826,1254,0,0
609,-230,0,0,0,0,0,0,0,0,0,-1,1833,1254,0,0
616,-230,20.7144,2.94495,0.0035116,-0.000340232,-0.0015504,0.00405811,-0.000886743,-0.338897,0.00304435,0.0392362,1840,1254,20.7143,-2.9449
623,-230,20.7224,2.82166,0.00236637,0.00300942,-0.000494977,0.00327813,0.00209766,-1.07343,0.00191716,0.0368209,1847,1254,20.7225,-2.82167
630,-230,20.6799,2.81226,0.00127112,0.00622959,0.000616332,0.00630505,0.00119566,1.44897,0.00386693,0.0316197,1854,1254,20.68,-2.81225
637,-230,20.5734,2.79529,0.000439654,0.00779303,0.0015505,0.0081066,0.000126093,1.37126,0.00536286,0.0281982,1861,1254,20.5733,-2.79529
644,-230,20.468,2.70557,-0.000170295,0.0079919,0.00212644,0.00851266,-0.000691055,1.33063,0.00591892,0.0228691,1868,1254,20.468,-2.70552
651,-230,20.4545,2.64941,-0.000444109,0.00722809,0.00240568,0.00792001,-0.00113603,1.29074,0.00569657,0.0438696,1875,1254,20.4544,-2.64938
658,-230,20.7144,2.7312,-0.000506836,0.00607066,0.0024698,0.00689478,-0.00133096,1.24873,0.00509842,0.0488953,1882,1254,20.7144,-2.73126
665,-230,20.8679,2.83337,-0.000439332,0.00476172,0.00236666,0.00567742,-0.00135503,1.20162,0.00430825,0.0478274,1889,1254,20.8679,-2.8334
672,-230,21.0251,2.93884,0,0,0,0,0,0,0,-1,1896,1254,21.0252,-2.93883
679,-230,17.7054,5.23608,0,0,0,0,0,0,0,-1,1903,1254,17.7055,-5.23609
686,-230,17.6256,5.17163,-0.000212412,0.00133463,0.00174557,0.00247039,-0.00134817,0.993962,0.00223616,0.0465272,1910,1254,17.6256,-5.17162
693,-230,17.5216,5.0946,-0.000169703,0.000357068,0.00160134,0.00171654,-0.00152918,0.866907,0.00187496,0.0200359,1917,1254,17.5216,-5.09457
700,-230,17.5654,4.96826,-1.54263e-05,-0.000613292,0.00141421,0.0011311,-0.00175982,0.681242,0.00168218,0.0103175,1924,1254,17.5654,-4.96823
707,-230,17.5823,4.81335,0.00014279,-0.00119951,0.000978932,0.000658549,-0.00171527,0.484903,0.00141506,0.00867115,1931,1254,17.5823,-4.81337
714,-230,17.5743,4.64258,0.000146088,-0.00140722,0.000710892,0.000422316,-0.00168344,0.37061,0.00128639,0.0117471,1938,1254,17.5744,-4.6426
721,-230,17.5837,4.474,7.11647e-05,-0.000409614,0.000434599,0.000327427,-0.000665877,0.532777,0.000584476,0.0124595,1945,1254,17.5837,-4.474
728,-230,17.5787,4.34009,0.000176387,0.00084613,0.000161285,0.000882947,0.00013957,1.34637,0.000548064,0.0137963,1952,1254,17.5788,-4.34012
735,-230,17.5697,4.20044,0.000527962,0.00226161,-0.000289477,0.00230867,0.000480904,-1.40964,0.00140649,0.0141248,1959,1254,17.5697,-4.2004
742,-230,17.5413,4.047,0.00158677,0.0039675,-0.000820197,0.00422271,0.00133156,-1.26913,0.0024928,0.0105271,1966,1254,17.5413,-4.04703
749,-230,17.5455,3.88586,0.00280589,0.00595927,-0.00149237,0.00655355,0.00221161,-1.19183,0.00384975,0.00951689,1973,1254,17.5455,-3.88587
756,-230,17.5677,3.72375,0.00476068,0.00848722,-0.00232045,0.00959989,0.003648,-1.12368,0.00559545,0.0120013,1980,1254,17.5677,-3.72374
763,-230,17.5857,3.53857,0.00789355,0.0118688,-0.00338467,0.0138063,0.00595606,-1.05089,0.00799606,0.0239291,1987,1254,17.5857,-3.53861
770,-230,17.6116,3.34033,0.0127814,0.0164027,-0.0047078,0.019636,0.00954806,-0.968981,0.0113383,0.0402495,1994,1254,17.6116,-3.34037
777,-230,17.6541,3.14856,0,0,0,0,0,0,0,-1,2001,1254,17.654,-3.14862
784,-230,17.3259,3.5542,0,0,0,0,0,0,0,-1,2008,1254,17.3259,-3.55418
791,-230,15.5094,1.79382,0,0,0,0,0,0,0,-1,2015,1254,15.5094,-1.79382
798,-230,0,0,0,0,0,0,0,0,0,-1,2022,1254,0,0
805,-230,0,0,0,0,0,0,0,0,0,-1,2029,1254,0,0
812,-230,0,0,0,0,0,0,0,0,0,-1,2036,1254,0,0
-700,-237,0,0,0,0,0,0,0,0,0,-1,524,1261,0,0
-693,-237,0,0,0,0,0,0,0,0,0,-1,531,1261,0,0
-686,-237,0,0,0,0,0,0,0,0,0,-1,538,1261,0,0
-679,-237,0,0,0,0,0,0,0,0,0,-1,545,1261,0,0
-672,-237,-11.1999,-1.32507,0,0,0,0,0,0,0,-1,552,1261,-11.1999,1.32503
-665,-237,-9.77576,1.7179,0,0,0,0,0,0,0,-1,559,1261,-9.77578,-1.71795
-658,-237,-9.49115,1.84204,0.021372,-0.0160627,-0.00801774,0.0230169,-0.0177076,-0.202356,0.0235789,0.0486398,566,1261,-9.49117,-1.84201
-651,-237,-9.25079,1.98608,0.0236897,-0.0102909,-0.00933499,0.0260852,-0.0126864,-0.251203,0.022826,0.0464871,573,1261,-9.25077,-1.98612
-644,-237,-9.18439,1.81934,0.0226712,-0.00604453,-0.00972435,0.0256544,-0.00902769,-0.297658,0.0207766,0.0499682,580,1261,-9.18436,-1.81935
-637,-237,-9.02771,1.68567,0.0197998,-0.00305497,-0.0093647,0.0231468,-0.00640198,-0.343258,0.0179499,0.0488695,587,1261,-9.02772,-1.68571
-630,-237,-9.13727,1.50452,0.0161241,-0.00107352,-0.00846598,0.0195923,-0.0045417,-0.388807,0.0148094,0.0413441,594,1261,-9.13728,-1.50447
-623,-237,-9.37738,1.48389,0.013631,0.000522888,-0.00746203,0.0170086,-0.00285469,-0.425043,0.0124007,0.0264158,601,1261,-9.37735,-1.48385
-616,-237,-9.40552,1.55957,0.0106418,0.00137053,-0.00633136,0.0138531,-0.00184082,-0.469402,0.00990621,0.0130656,608,1261,-9.40552,-1.55954
-609,-237,-9.38708,1.7439,0.00790988,0.00171262,-0.00490557,0.0106135,-0.000990999,-0.503713,0.00742807,0.016077,615,1261,-9.38708,-1.74387
-602,-237,-9.40533,1.94067,0.00559038,0.0012089,-0.00365921,0.00766451,-0.000865238,-0.515669,0.00542115,0.0125466,622,1261,-9.40533,-1.94069
-595,-237,-9.44183,2.12634,0.00444037,0.000668248,-0.00281043,0.00593894,-0.000830324,-0.489868,0.00426311,0.0158653,629,1261,-9.44182,-2.12629
-588,-237,-9.43817,2.29944,0.00450318,7.06621e-05,-0.00149267,0.00495897,-0.000385131,-0.296362,0.00344155,0.0262941,636,1261,-9.43817,-2.29944
-581,-237,-9.44287,2.53333,0.00391351,0.000644987,-0.000918554,0.00415396,0.000404534,-0.256028,0.0026448,0.0237313,643,1261,-9.44285,-2.53329
-574,-237,-9.4259,2.68677,0.00312531,0.00126199,-0.000571076,0.0032864,0.0011009,-0.27495,0.00193154,0.0144317,650,1261,-9.42593,-2.68676
-567,-237,-9.38586,2.88293,0.00154069,0.00178379,-0.000403659,0.0020838,0.00124068,-0.931643,0.00121036,0.0151052,657,1261,-9.38586,-2.88292
-560,-237,-9.18549,3.13367,-0.000482187,0.00236644,-0.000469771,0.00244191,-0.000557658,-1.4115,0.00184218,0.0274664,664,1261,-9.18551,-3.13371
-553,-237,-9.16809,3.34827,0,0,0,0,0,0,0,-1,671,1261,-9.16809,-3.34827
-546,-237,-8.20917,2.62854,0,0,0,0,0,0,0,-1,678,1261,-8.20914,-2.62849
-539,-237,-11.3427,-0.56665,0,0,0,0,0,0,0,-1,685,1261,-11.3427,0.566668
-532,-237,-11.6019,-0.229126,-0.0152147,0.00537355,-0.000290506,0.00537764,-0.0152188,-1.55669,0.0123355,0.045334,692,1261,-11.6019,0.229158
-525,-237,-12.3781,0.468628,-0.0201908,0.00590023,-0.000235483,0.00590235,-0.0201929,-1.56177,0.0158012,0.0465062,699,1261,-12.378,-0.468657
-518,-237,-12.6028,0.605591,-0.0253364,0.00591787,-0.000153058,0.00591861,-0.0253371,-1.5659,0.0191713,0.0432846,706,1261,-12.6028,-0.605533
-511,-237,-12.8577,0.830444,-0.0295102,0.00495471,-4.78008e-05,0.00495478,-0.0295103,-1.56941,0.0215161,0.0416935,713,1261,-12.8577,-0.830499
-504,-237,-13.0768,1.1842,-0.0301042,0.00233144,0.000941418,0.00235874,-0.0301315,1.5418,0.0209183,0.0405098,720,1261,-13.0768,-1.18422
-497,-237,-13.3064,1.58398,0,0,0,0,0,0,0,-1,727,1261,-13.3064,-1.58394
-490,-237,0,0,0,0,0,0,0,0,0,-1,734,1261,0,0
-483,-237,0,0,0,0,0,0,0,0,0,-1,741,1261,0,0
-476,-237,0,0,0,0,0,0,0,0,0,-1,748,1261,0,0
-469,-237,0,0,0,0,0,0,0,0,0,-1,755,1261,0,0
-462,-237,0,0,0,0,0,0,0,0,0,-1,762,1261,0,0
-455,-237,0,0,0,0,0,0,0,0,0,-1,769,1261,0,0
-448,-237,0,0,0,0,0,0,0,0,0,-1,776,1261,0,0
-441,-237,0,0,0,0,0,0,0,0,0,-1,783,1261,0,0
-434,-237,0,0,0,0,0,0,0,0,0,-1,790,1261,0,0
-427,-237,0,0,0,0,0,0,0,0,0,-1,797,1261,0,0
-420,-237,0,0,0,0,0,0,0,0,0,-1,804,1261,0,0
-413,-237,0,0,0,0,0,0,0,0,0,-1,811,1261,0,0
-406,-237,0,0,0,0,0,0,0,0,0,-1,818,1261,0,0
-399,-237,0,0,0,0,0,0,0,0,0,-1,825,1261,0,0
-392,-237,0,0,0,0,0,0,0,0,0,-1,832,1261,0,0
-385,-237,0,0,0,0,0,0,0,0,0,-1,839,1261,0,0
-378,-237,0,0,0,0,0,0,0,0,0,-1,846,1261,0,0
-371,-237,0,0,0,0,0,0,0,0,0,-1,853,1261,0,0
-364,-237,0,0,0,0,0,0,0,0,0,-1,860,1261,0,0
-357,-237,0,0,0,0,0,0,0,0,0,-1,867,1261,0,0
-350,-237,0,0,0,0,0,0,0,0,0,-1,874,1261,0,0
-343,-237,0,0,0,0,0,0,0,0,0,-1,881,1261,0,0
-336,-237,0,0,0,0,0,0,0,0,0,-1,888,1261,0,0
-329,-237,0,0,0,0,0,0,0,0,0,-1,895,1261,0,0
-322,-237,0,0,0,0,0,0,0,0,0,-1,902,1261,0,0
-315,-237,0,0,0,0,0,0,0,0,0,-1,909,1261,0,0
-308,-237,0,0,0,0,0,0,0,0,0,-1,916,1261,0,0
-301,-237,0,0,0,0,0,0,0,0,0,-1,923,1261,0,0
-294,-237,0,0,0,0,0,0,0,0,0,-1,930,1261,0,0
-287,-237,0,0,0,0,0,0,0,0,0,-1,937,1261,0,0
-280,-237,0,0,0,0,0,0,0,0,0,-1,944,1261,0,0
-273,-237,0,0,0,0,0,0,0,0,0,-1,951,1261,0,0
-266,-237,0,0,0,0,0,0,0,0,0,-1,958,1261,0,0
-259,-237,0,0,0,0,0,0,0,0,0,-1,965,1261,0,0
-252,-237,0,0,0,0,0,0,0,0,0,-1,972,1261,0,0
-245,-237,0,0,0,0,0,0,0,0,0,-1,979,1261,0,0
-238,-237,0,0,0,0,0,0,0,0,0,-1,986,1261,0,0
-231,-237,0,0,0,0,0,0,0,0,0,-1,993,1261,0,0
-224,-237,0,0,0,0,0,0,0,0,0,-1,1000,1261,0,0
-217,-237,0,0,0,0,0,0,0,0,0,-1,1007,1261,0,0
-210,-237,0,0,0,0,0,0,0,0,0,-1,1014,1261,0,0
-203,-237,0,0,0,0,0,0,0,0,0,-1,1021,1261,0,0
-196,-237,0,0,0,0,0,0,0,0,0,-1,1028,1261,0,0
-189,-237,0,0,0,0,0,0,0,0,0,-1,1035,1261,0,0
-182,-237,0,0,0,0,0,0,0,0,0,-1,1042,1261,0,0
-175,-237,0,0,0,0,0,0,0,0,0,-1,1049,1261,0,0
-168,-237,0,0,0,0,0,0,0,0,0,-1,1056,1261,0,0
-161,-237,0,0,0,0,0,0,0,0,0,-1,1063,1261,0,0
-154,-237,0,0,0,0,0,0,0,0,0,-1,1070,1261,0,0
-147,-237,0,0,0,0,0,0,0,0,0,-1,1077,1261,0,0
-140,-237,0,0,0,0,0,0,0,0,0,-1,1084,1261,0,0
-133,-237,0,0,0,0,0,0,0,0,0,-1,1091,1261,0,0
-126,-237,0,0,0,0,0,0,0,0,0,-1,1098,1261,0,0
-119,-237,0,0,0,0,0,0,0,0,0,-1,1105,1261,0,0
-112,-237,0,0,0,0,0,0,0,0,0,-1,1112,1261,0,0
-105,-237,0,0,0,0,0,0,0,0,0,-1,1119,1261,0,0
-98,-237,0,0,0,0,0,0,0,0,0,-1,1126,1261,0,0
-91,-237,0,0,0,0,0,0,0,0,0,-1,1133,1261,0,0
-84,-237,0,0,0,0,0,0,0,0,0,-1,1140,1261,0,0
-77,-237,0,0,0,0,0,0,0,0,0,-1,1147,1261,0,0
-70,-237,0,0,0,0,0,0,0,0,0,-1,1154,1261,0,0
-63,-237,0,0,0,0,0,0,0,0,0,-1,1161,1261,0,0
-56,-237,0,0,0,0,0,0,0,0,0,-1,1168,1261,0,0
-49,-237,0,0,0,0,0,0,0,0,0,-1,1175,1261,0,0
-42,-237,0,0,0,0,0,0,0,0,0,-1,1182,1261,0,0
-35,-237,0,0,0,0,0,0,0,0,0,-1,1189,1261,0,0
-28,-237,0,0,0,0,0,0,0,0,0,-1,1196,1261,0,0
-21,-237,0,0,0,0,0,0,0,0,0,-1,1203,1261,0,0
-14,-237,0,0,0,0,0,0,0,0,0,-1,1210,1261,0,0
-7,-237,0,0,0,0,0,0,0,0,0,-1,1217,1261,0,0
0,-237,0,0,0,0,0,0,0,0,0,-1,1224,1261,0,0
7,-237,0,0,0,0,0,0,0,0,0,-1,1231,1261,0,0
14,-237,0,0,0,0,0,0,0,0,0,-1,1238,1261,0,0
21,-237,0,0,0,0,0,0,0,0,0,-1,1245,1261,0,0
28,-237,0,0,0,0,0,0,0,0,0,-1,1252,1261,0,0
35,-237,0,0,0,0,0,0,0,0,0,-1,1259,1261,0,0
42,-237,0,0,0,0,0,0,0,0,0,-1,1266,1261,0,0
49,-237,0,0,0,0,0,0,0,0,0,-1,1273,1261,0,0
56,-237,0,0,0,0,0,0,0,0,0,-1,1280,1261,0,0
63,-237,0,0,0,0,0,0,0,0,0,-1,1287,1261,0,0
70,-237,0,0,0,0,0,0,0,0,0,-1,1294,1261,0,0
77,-237,0,0,0,0,0,0,0,0,0,-1,1301,1261,0,0
84,-237,0,0,0,0,0,0,0,0,0,-1,1308,1261,0,0
91,-237,0,0,0,0,0,0,0,0,0,-1,1315,1261,0,0
98,-237,0,0,0,0,0,0,0,0,0,-1,1322,1261,0,0
105,-237,0,0,0,0,0,0,0,0,0,-1,1329,1261,0,0
112,-237,0,0,0,0,0,0,0,0,0,-1,1336,1261,0,0
119,-237,0,0,0,0,0,0,0,0,0,-1,1343,1261,0,0
126,-237,0,0,0,0,0,0,0,0,0,-1,1350,1261,0,0
133,-237,0,0,0,0,0,0,0,0,0,-1,1357,1261,0,0
140,-237,0,0,0,0,0,0,0,0,0,-1,1364,1261,0,0
147,-237,0,0,0,0,0,0,0,0,0,-1,1371,1261,0,0
154,-237,0,0,0,0,0,0,0,0,0,-1,1378,1261,0,0
161,-237,0,0,0,0,0,0,0,0,0,-1,1385,1261,0,0
168,-237,0,0,0,0,0,0,0,0,0,-1,1392,1261,0,0
175,-237,0,0,0,0,0,0,0,0,0,-1,1399,1261,0,0
182,-237,0,0,0,0,0,0,0,0,0,-1,1406,1261,0,0
189,-237,0,0,0,0,0,0,0,0,0,-1,1413,1261,0,0
196,-237,0,0,0,0,0,0,0,0,0,-1,1420,1261,0,0
203,-237,0,0,0,0,0,0,0,0,0,-1,1427,1261,0,0
210,-237,0,0,0,0,0,0,0,0,0,-1,1434,1261,0,0
217,-237,0,0,0,0,0,0,0,0,0,-1,1441,1261,0,0
224,-237,0,0,0,0,0,0,0,0,0,-1,1448,1261,0,0
231,-237,0,0,0,0,0,0,0,0,0,-1,1455,1261,0,0
238,-237,0,0,0,0,0,0,0,0,0,-1,1462,1261,0,0
245,-237,0,0,0,0,0,0,0,0,0,-1,1469,1261,0,0
252,-237,0,0,0,0,0,0,0,0,0,-1,1476,1261,0,0
259,-237,0,0,0,0,0,0,0,0,0,-1,1483,1261,0,0
266,-237,0,0,0,0,0,0,0,0,0,-1,1490,1261,0,0
273,-237,0,0,0,0,0,0,0,0,0,-1,1497,1261,0,0
280,-237,0,0,0,0,0,0,0,0,0,-1,1504,1261,0,0
287,-237,0,0,0,0,0,0,0,0,0,-1,1511,1261,0,0
294,-237,0,0,0,0,0,0,0,0,0,-1,1518,1261,0,0
301,-237,0,0,0,0,0,0,0,0,0,-1,1525,1261,0,0
308,-237,0,0,0,0,0,0,0,0,0,-1,1532,1261,0,0
315,-237,0,0,0,0,0,0,0,0,0,-1,1539,1261,0,0
322,-237,0,0,0,0,0,0,0,0,0,-1,1546,1261,0,0
329,-237,0,0,0,0,0,0,0,0,0,-1,1553,1261,0,0
336,-237,0,0,0,0,0,0,0,0,0,-1,1560,1261,0,0
343,-237,0,0,0,0,0,0,0,0,0,-1,1567,1261,0,0
350,-237,0,0,0,0,0,0,0,0,0,-1,1574,1261,0,0
357,-237,0,0,0,0,0,0,0,0,0,-1,1581,1261,0,0
364,-237,0,0,0,0,0,0,0,0,0,-1,1588,1261,0,0
371,-237,0,0,0,0,0,0,0,0,0,-1,1595,1261,0,0
378,-237,0,0,0,0,0,0,0,0,0,-1,1602,1261,0,0
385,-237,0,0,0,0,0,0,0,0,0,-1,1609,1261,0,0
392,-237,0,0,0,0,0,0,0,0,0,-1,1616,1261,0,0
399,-237,0,0,0,0,0,0,0,0,0,-1,1623,1261,0,0
406,-237,0,0,0,0,0,0,0,0,0,-1,1630,1261,0,0
413,-237,0,0,0,0,0,0,0,0,0,-1,1637,1261,0,0
420,-237,0,0,0,0,0,0,0,0,0,-1,1644,1261,0,0
427,-237,0,0,0,0,0,0,0,0,0,-1,1651,1261,0,0
434,-237,0,0,0,0,0,0,0,0,0,-1,1658,1261,0,0
441,-237,0,0,0,0,0,0,0,0,0,-1,1665,1261,0,0
448,-237,0,0,0,0,0,0,0,0,0,-1,1672,1261,0,0
455,-237,0,0,0,0,0,0,0,0,0,-1,1679,1261,0,0
462,-237,0,0,0,0,0,0,0,0,0,-1,1686,1261,0,0
469,-237,0,0,0,0,0,0,0,0,0,-1,1693,1261,0,0
476,-237,0,0,0,0,0,0,0,0,0,-1,1700,1261,0,0
483,-237,0,0,0,0,0,0,0,0,0,-1,1707,1261,0,0
490,-237,0,0,0,0,0,0,0,0,0,-1,1714,1261,0,0
497,-237,0,0,0,0,0,0,0,0,0,-1,1721,1261,0,0
504,-237,0,0,0,0,0,0,0,0,0,-1,1728,1261,0,0
511,-237,0,0,0,0,0,0,0,0,0,-1,1735,1261,0,0
518,-237,0,0,0,0,0,0,0,0,0,-1,1742,1261,0,0
525,-237,0,0,0,0,0,0,0,0,0,-1,1749,1261,0,0
532,-237,0,0,0,0,0,0,0,0,0,-1,1756,1261,0,0
539,-237,0,0,0,0,0,0,0,0,0,-1,1763,1261,0,0
546,-237,0,0,0,0,0,0,0,0,0,-1,1770,1261,0,0
553,-237,0,0,0,0,0,0,0,0,0,-1,1777,1261,0,0
560,-237,0,0,0,0,0,0,0,0,0,-1,1784,1261,0,0
567,-237,0,0,0,0,0,0,0,0,0,-1,1791,1261,0,0
574,-237,0,0,0,0,0,0,0,0,0,-1,1798,1261,0,0
581,-237,0,0,0,0,0,0,0,0,0,-1,1805,1261,0,0
588,-237,0,0,0,0,0,0,0,0,0,-1,1812,1261,0,0
595,-237,0,0,0,0,0,0,0,0,0,-1,1819,1261,0,0
602,-237,0,0,0,0,0,0,0,0,0,-1,1826,1261,0,0
609,-237,0,0,0,0,0,0,0,0,0,-1,1833,1261,0,0
616,-237,20.5834,2.76587,0.00426405,0.0024888,-0.00203356,0.00559527,0.00115759,-0.579618,0.00341044,0.0365084,1840,1261,20.5834,-2.76584
623,-237,20.6641,2.72168,0.0024192,0.00582052,-0.000512417,0.00589604,0.00234368,-1.42447,0.00342784,0.0318538,1847,1261,20.6641,-2.72163
630,-237,20.6097,2.76672,0.000261498,0.00871553,0.001109,0.00885859,0.000118441,1.44251,0.00586665,0.0255825,1854,1261,20.6098,-2.76668
637,-237,20.4838,2.75,-0.00150919,0.00994417,0.00242048,0.0104347,-0.00199971,1.37085,0.00770996,0.0233805,1861,1261,20.4838,-2.75005
644,-237,20.3718,2.59497,-0.00265636,0.00984318,0.00320301,0.0106161,-0.00342934,1.334,0.00845562,0.0472274,1868,1261,20.3718,-2.59494
651,-237,20.3801,2.61682,0,0,0,0,0,0,0,-1,1875,1261,20.3801,-2.6168
658,-237,20.7568,2.62512,-0.00325375,0.00753527,0.00366135,0.00866043,-0.00437892,1.27265,0.00766236,0.0479647,1882,1261,20.7568,-2.62516
665,-237,20.7686,2.79016,-0.00309715,0.00606213,0.00351633,0.00725636,-0.00429138,1.24339,0.00673995,0.0464856,1889,1261,20.7685,-2.79022
672,-237,20.6202,3.60986,0,0,0,0,0,0,0,-1,1896,1261,20.6202,-3.60988
679,-237,20.5989,4.35254,0,0,0,0,0,0,0,-1,1903,1261,20.5989,-4.35249
686,-237,17.6305,5.34851,-0.0021678,0.00208849,0.00254778,0.00328001,-0.00335932,1.13335,0.00383331,0.0316453,1910,1261,17.6305,-5.3485
693,-237,17.3735,5.14795,-0.00190861,0.00100263,0.00229796,0.0022672,-0.00317318,1.06772,0.00315549,0.0171236,1917,1261,17.3735,-5.14797
700,-237,17.3824,4.98694,-0.00119531,-0.000119386,0.00194293,0.00135868,-0.00267338,0.920455,0.0023688,0.00986018,1924,1261,17.3824,-4.98698
707,-237,17.4076,4.83057,-0.00047608,-0.000957585,0.001167,0.000474739,-0.0019084,0.683675,0.00145654,0.00872604,1931,1261,17.4076,-4.83055
714,-237,17.3934,4.6709,-0.000196391,-0.0011909,0.000690962,0.000157642,-0.00154493,0.4735,0.00108632,0.012591,1938,1261,17.3935,-4.67086
721,-237,17.3955,4.49463,-5.31161e-05,-1.99017e-05,0.000204815,0.000168978,-0.000241996,0.825852,0.000238521,0.0143038,1945,1261,17.3956,-4.49469
728,-237,17.4285,4.32043,0.000171472,0.00137597,-0.000240498,0.00142222,0.000125228,-1.38083,0.00090928,0.0133493,1952,1261,17.4284,-4.32039
735,-237,17.4108,4.16846,0.000571892,0.00292195,-0.000862588,0.00320458,0.000289269,-1.25417,0.00204679,0.0180492,1959,1261,17.4108,-4.16846
742,-237,17.405,4.03638,0.0015285,0.0048157,-0.00157816,0.0054507,0.000893507,-1.18825,0.00337561,0.0137834,1966,1261,17.4051,-4.03637
749,-237,17.3884,3.89514,0.00267254,0.00711944,-0.00252037,0.00825694,0.00153505,-1.14684,0.00507099,0.00860943,1973,1261,17.3884,-3.89508
756,-237,17.3767,3.72278,0.00458115,0.0101246,-0.00375722,0.0120218,0.00268391,-1.10319,0.00728657,0.0125528,1980,1261,17.3767,-3.72275
763,-237,17.3468,3.52942,0.00770555,0.0141739,-0.00540077,0.0172348,0.00464463,-1.05518,0.010297,0.0285522,1987,1261,17.3468,-3.52947
770,-237,17.4395,3.25281,0.012659,0.0196227,-0.00752486,0.0244322,0.00784947,-1.00208,0.0144032,0.0428689,1994,1261,17.4394,-3.25281
777,-237,17.4412,3.00842,0,0,0,0,0,0,0,-1,2001,1261,17.4411,-3.00839
784,-237,17.1869,3.23303,0,0,0,0,0,0,0,-1,2008,1261,17.1869,-3.23306
791,-237,16.6591,2.85779,0,0,0,0,0,0,0,-1,2015,1261,16.6591,-2.85781
798,-237,0,0,0,0,0,0,0,0,0,-1,2022,1261,0,0
805,-237,0,0,0,0,0,0,0,0,0,-1,2029,1261,0,0
812,-237,0,0,0,0,0,0,0,0,0,-1,2036,1261,0,0
-700,-244,0,0,0,0,0,0,0,0,0,-1,524,1268,0,0
-693,-244,0,0,0,0,0,0,0,0,0,-1,531,1268,0,0
-686,-244,0,0,0,0,0,0,0,0,0,-1,538,1268,0,0
-679,-244,0,0,0,0,0,0,0,0,0,-1,545,1268,0,0
-672,-244,-10.9185,-1.13904,0,0,0,0,0,0,0,-1,552,1268,-10.9184,1.13899
-665,-244,-10.1638,2.80078,0,0,0,0,0,0,0,-1,559,1268,-10.1638,-2.80082
-658,-244,-9.45135,2.02966,0,0,0,0,0,0,0,-1,566,1268,-9.45136,-2.02972
-651,-244,-9.25769,2.50366,0.0287391,-0.000509286,-0.0105019,0.0321193,-0.00388947,-0.311392,0.0228201,0.0452413,573,1268,-9.25767,-2.5037
-644,-244,-8.91876,1.99158,0.0263785,0.00216106,-0.0107054,0.0304323,-0.00189275,-0.361983,0.0209476,0.046326,580,1268,-8.91876,-1.99161
-637,-244,-8.94965,1.51978,0.0224981,0.00370186,-0.0100566,0.0268644,-0.000664492,-0.409617,0.0181352,0.0445042,587,1268,-8.94964,-1.51983
-630,-244,-9.07959,1.61719,0.018114,0.0043811,-0.00885365,0.0224518,4.32972e-05,-0.455572,0.0149534,0.0404436,594,1268,-9.0796,-1.61722
-623,-244,-9.22333,1.58154,0.0148638,0.00477025,-0.00757531,0.0189195,0.000714529,-0.491554,0.0123817,0.0315029,601,1268,-9.22331,-1.58155
-616,-244,-9.24347,1.59302,0.0113513,0.00456246,-0.00617385,0.0150023,0.00091141,-0.534052,0.00971201,0.0168817,608,1268,-9.24347,-1.59306
-609,-244,-9.20636,1.73889,0.00832743,0.00409742,-0.00460463,0.0112796,0.00114528,-0.570109,0.00716851,0.0144555,615,1268,-9.20634,-1.73883
-602,-244,-9.2041,1.92297,0.00580076,0.00284831,-0.00319929,0.00784798,0.000801088,-0.569242,0.00498645,0.0153686,622,1268,-9.20411,-1.92294
-595,-244,-9.18842,2.11499,0.00437162,0.00180345,-0.00219983,0.00563471,0.000540361,-0.521217,0.00358994,0.0167366,629,1268,-9.18844,-2.11497
-588,-244,-9.20209,2.31738,0.00397051,0.00077841,-0.000876886,0.00419553,0.000553387,-0.251195,0.00263202,0.021107,636,1268,-9.20207,-2.31741
-581,-244,-9.2179,2.48438,0.00312691,0.00101404,-0.000224118,0.00315042,0.000990532,-0.104523,0.00186019,0.017258,643,1268,-9.21789,-2.48434
-574,-244,-9.23914,2.68152,0.00221391,0.00145358,9.71327e-05,0.00222612,0.00144137,0.125075,0.00130376,0.0120071,650,1268,-9.23916,-2.68158
-567,-244,-9.24109,2.89124,0.000486534,0.00187715,0.000216992,0.00191022,0.000453461,1.41954,0.00115246,0.0102739,657,1268,-9.24106,-2.89128
-560,-244,-9.17914,3.08423,-0.00168661,0.00247194,4.78443e-05,0.00247249,-0.00168716,1.55929,0.0024158,0.0162731,664,1268,-9.17915,-3.08421
-553,-244,-9.01044,3.34973,-0.00464974,0.00313166,-8.68851e-05,0.00313263,-0.00465071,-1.55963,0.00452211,0.0436007,671,1268,-9.01043,-3.34976
-546,-244,-8.75879,3.59692,0,0,0,0,0,0,0,-1,678,1268,-8.75878,-3.59694
-539,-244,-10.3225,-1.01062,0,0,0,0,0,0,0,-1,685,1268,-10.3225,1.01065
-532,-244,-10.5825,-0.534058,-0.01779,0.0052676,0.000180988,0.00526902,-0.0177914,1.56295,0.0139529,0.0457897,692,1268,-10.5825,0.53409
-525,-244,-11.9858,0.461304,-0.0232118,0.00568577,0.000338737,0.00568974,-0.0232158,1.55908,0.0176816,0.0473712,699,1268,-11.9859,-0.461272
-518,-244,-12.461,0.566284,-0.0289809,0.00566352,0.000643449,0.00567547,-0.0289928,1.55223,0.0214719,0.042221,706,1268,-12.461,-0.566324
-511,-244,-12.7421,0.74939,-0.0343947,0.00486728,0.00118626,0.00490308,-0.0344305,1.54062,0.0247504,0.0440414,713,1268,-12.7421,-0.749356
-504,-244,-12.9971,1.07251,-0.0374111,0.00276365,0.00258118,0.00292881,-0.0375762,1.5069,0.026082,0.0461268,720,1268,-12.997,-1.0725
-497,-244,-13.2358,1.49365,0,0,0,0,0,0,0,-1,727,1268,-13.2358,-1.49368
-490,-244,0,0,0,0,0,0,0,0,0,-1,734,1268,0,0
-483,-244,0,0,0,0,0,0,0,0,0,-1,741,1268,0,0
-476,-244,0,0,0,0,0,0,0,0,0,-1,748,1268,0,0
-469,-244,0,0,0,0,0,0,0,0,0,-1,755,1268,0,0
-462,-244,0,0,0,0,0,0,0,0,0,-1,762,1268,0,0
-455,-244,0,0,0,0,0,0,0,0,0,-1,769,1268,0,0
-448,-244,0,0,0,0,0,0,0,0,0,-1,776,1268,0,0
-441,-244,0,0,0,0,0,0,0,0,0,-1,783,1268,0,0
-434,-244,0,0,0,0,0,0,0,0,0,-1,790,1268,0,0
-427,-244,0,0,0,0,0,0,0,0,0,-1,797,1268,0,0
-420,-244,0,0,0,0,0,0,0,0,0,-1,804,1268,0,0
-413,-244,0,0,0,0,0,0,0,0,0,-1,811,1268,0,0
-406,-244,0,0,0,0,0,0,0,0,0,-1,818,1268,0,0
-399,-244,0,0,0,0,0,0,0,0,0,-1,825,1268,0,0
-392,-244,0,0,0,0,0,0,0,0,0,-1,832,1268,0,0
-385,-244,0,0,0,0,0,0,0,0,0,-1,839,1268,0,0
-378,-244,0,0,0,0,0,0,0,0,0,-1,846,1268,0,0
-371,-244,0,0,0,0,0,0,0,0,0,-1,853,1268,0,0
-364,-244,0,0,0,0,0,0,0,0,0,-1,860,1268,0,0
-357,-244,0,0,0,0,0,0,0,0,0,-1,867,1268,0,0
-350,-244,0,0,0,0,0,0,0,0,0,-1,874,1268,0,0
-343,-244,0,0,0,0,0,0,0,0,0,-1,881,1268,0,0
-336,-244,0,0,0,0,0,0,0,0,0,-1,888,1268,0,0
-329,-244,0,0,0,0,0,0,0,0,0,-1,895,1268,0,0
-322,-244,0,0,0,0,0,0,0,0,0,-1,902,1268,0,0
-315,-244,0,0,0,0,0,0,0,0,0,-1,909,1268,0,0
-308,-244,0,0,0,0,0,0,0,0,0,-1,916,1268,0,0
-301,-244,0,0,0,0,0,0,0,0,0,-1,923,1268,0,0
-294,-244,0,0,0,0,0,0,0,0,0,-1,930,1268,0,0
-287,-244,0,0,0,0,0,0,0,0,0,-1,937,1268,0,0
-280,-244,0,0,0,0,0,0,0,0,0,-1,944,1268,0,0
-273,-244,0,0,0,0,0,0,0,0,0,-1,951,1268,0,0
-266,-244,0,0,0,0,0,0,0,0,0,-1,958,1268,0,0
-259,-244,0,0,0,0,0,0,0,0,0,-1,965,1268,0,0
-252,-244,0,0,0,0,0,0,0,0,0,-1,972,1268,0,0
-245,-244,0,0,0,0,0,0,0,0,0,-1,979,1268,0,0
-238,-244,0,0,0,0,0,0,0,0,0,-1,986,1268,0,0
-231,-244,0,0,0,0,0,0,0,0,0,-1,993,1268,0,0
-224,-244,0,0,0,0,0,0,0,0,0,-1,1000,1268,0,0
-217,-244,0,0,0,0,0,0,0,0,0,-1,1007,1268,0,0
-210,-244,0,0,0,0,0,0,0,0,0,-1,1014,1268,0,0
-203,-244,0,0,0,0,0,0,0,0,0,-1,1021,1268,0,0
-196,-244,0,0,0,0,0,0,0,0,0,-1,1028,1268,0,0
-189,-244,0,0,0,0,0,0,0,0,0,-1,1035,1268,0,0
-182,-244,0,0,0,0,0,0,0,0,0,-1,1042,1268,0,0
-175,-244,0,0,0,0,0,0,0,0,0,-1,1049,1268,0,0
-168,-244,0,0,0,0,0,0,0,0,0,-1,1056,1268,0,0
-161,-244,0,0,0,0,0,0,0,0,0,-1,1063,1268,0,0
-154,-244,0,0,0,0,0,0,0,0,0,-1,1070,1268,0,0
-147,-244,0,0,0,0,0,0,0,0,0,-1,1077,1268,0,0
-140,-244,0,0,0,0,0,0,0,0,0,-1,1084,1268,0,0
-133,-244,0,0,0,0,0,0,0,0,0,-1,1091,1268,0,0
-126,-244,0,0,0,0,0,0,0,0,0,-1,1098,1268,0,0
-119,-244,0,0,0,0,0,0,0,0,0,-1,1105,1268,0,0
-112,-244,0,0,0,0,0,0,0,0,0,-1,1112,1268,0,0
-105,-244,0,0,0,0,0,0,0,0,0,-1,1119,1268,0,0
-98,-244,0,0,0,0,0,0,0,0,0,-1,1126,1268,0,0
-91,-244,0,0,0,0,0,0,0,0,0,-1,1133,1268,0,0
-84,-244,0,0,0,0,0,0,0,0,0,-1,1140,1268,0,0
-77,-244,0,0,0,0,0,0,0,0,0,-1,1147,1268,0,0
-70,-244,0,0,0,0,0,0,0,0,0,-1,1154,1268,0,0
-63,-244,0,0,0,0,0,0,0,0,0,-1,1161,1268,0,0
-56,-244,0,0,0,0,0,0,0,0,0,-1,1168,1268,0,0
-49,-244,0,0,0,0,0,0,0,0,0,-1,1175,1268,0,0
-42,-244,0,0,0,0,0,0,0,0,0,-1,1182,1268,0,0
-35,-244,0,0,0,0,0,0,0,0,0,-1,1189,1268,0,0
-28,-244,0,0,0,0,0,0,0,0,0,-1,1196,1268,0,0
-21,-244,0,0,0,0,0,0,0,0,0,-1,1203,1268,0,0
-14,-244,0,0,0,0,0,0,0,0,0,-1,1210,1268,0,0
-7,-244,0,0,0,0,0,0,0,0,0,-1,1217,1268,0,0
0,-244,0,0,0,0,0,0,0,0,0,-1,1224,1268,0,0
7,-244,0,0,0,0,0,0,0,0,0,-1,1231,1268,0,0
14,-244,0,0,0,0,0,0,0,0,0,-1,1238,1268,0,0
21,-244,0,0,0,0,0,0,0,0,0,-1,1245,1268,0,0
28,-244,0,0,0,0,0,0,0,0,0,-1,1252,1268,0,0
35,-244,0,0,0,0,0,0,0,0,0,-1,1259,1268,0,0
42,-244,0,0,0,0,0,0,0,0,0,-1,1266,1268,0,0
49,-244,0,0,0,0,0,0,0,0,0,-1,1273,1268,0,0
56,-244,0,0,0,0,0,0,0,0,0,-1,1280,1268,0,0
63,-244,0,0,0,0,0,0,0,0,0,-1,1287,1268,0,0
70,-244,0,0,0,0,0,0,0,0,0,-1,1294,1268,0,0
77,-244,0,0,0,0,0,0,0,0,0,-1,1301,1268,0,0
84,-244,0,0,0,0,0,0,0,0,0,-1,1308,1268,0,0
91,-244,0,0,0,0,0,0,0,0,0,-1,1315,1268,0,0
98,-244,0,0,0,0,0,0,0,0,0,-1,1322,1268,0,0
105,-244,0,0,0,0,0,0,0,0,0,-1,1329,1268,0,0
112,-244,0,0,0,0,0,0,0,0,0,-1,1336,1268,0,0
119,-244,0,0,0,0,0,0,0,0,0,-1,1343,1268,0,0
126,-244,0,0,0,0,0,0,0,0,0,-1,1350,1268,0,0
133,-244,0,0,0,0,0,0,0,0,0,-1,1357,1268,0,0
140,-244,0,0,0,0,0,0,0,0,0,-1,1364,1268,0,0
147,-244,0,0,0,0,0,0,0,0,0,-1,1371,1268,0,0
154,-244,0,0,0,0,0,0,0,0,0,-1,1378,1268,0,0
161,-244,0,0,0,0,0,0,0,0,0,-1,1385,1268,0,0
168,-244,0,0,0,0,0,0,0,0,0,-1,1392,1268,0,0
175,-244,0,0,0,0,0,0,0,0,0,-1,1399,1268,0,0
182,-244,0,0,0,0,0,0,0,0,0,-1,1406,1268,0,0
189,-244,0,0,0,0,0,0,0,0,0,-1,1413,1268,0,0
196,-244,0,0,0,0,0,0,0,0,0,-1,1420,1268,0,0
203,-244,0,0,0,0,0,0,0,0,0,-1,1427,1268,0,0
210,-244,0,0,0,0,0,0,0,0,0,-1,1434,1268,0,0
217,-244,0,0,0,0,0,0,0,0,0,-1,1441,1268,0,0
224,-244,0,0,0,0,0,0,0,0,0,-1,1448,1268,0,0
231,-244,0,0,0,0,0,0,0,0,0,-1,1455,1268,0,0
238,-244,0,0,0,0,0,0,0,0,0,-1,1462,1268,0,0
245,-244,0,0,0,0,0,0,0,0,0,-1,1469,1268,0,0
252,-244,0,0,0,0,0,0,0,0,0,-1,1476,1268,0,0
259,-244,0,0,0,0,0,0,0,0,0,-1,1483,1268,0,0
266,-244,0,0,0,0,0,0,0,0,0,-1,1490,1268,0,0
273,-244,0,0,0,0,0,0,0,0,0,-1,1497,1268,0,0
280,-244,0,0,0,0,0,0,0,0,0,-1,1504,1268,0,0
287,-244,0,0,0,0,0,0,0,0,0,-1,1511,1268,0,0
294,-244,0,0,0,0,0,0,0,0,0,-1,1518,1268,0,0
301,-244,0,0,0,0,0,0,0,0,0,-1,1525,1268,0,0
308,-244,0,0,0,0,0,0,0,0,0,-1,1532,1268,0,0
315,-244,0,0,0,0,0,0,0,0,0,-1,1539,1268,0,0
322,-244,0,0,0,0,0,0,0,0,0,-1,1546,1268,0,0
329,-244,0,0,0,0,0,0,0,0,0,-1,1553,1268,0,0
336,-244,0,0,0,0,0,0,0,0,0,-1,1560,1268,0,0
343,-244,0,0,0,0,0,0,0,0,0,-1,1567,1268,0,0
350,-244,0,0,0,0,0,0,0,0,0,-1,1574,1268,0,0
357,-244,0,0,0,0,0,0,0,0,0,-1,1581,1268,0,0
364,-244,0,0,0,0,0,0,0,0,0,-1,1588,1268,0,0
371,-244,0,0,0,0,0,0,0,0,0,-1,1595,1268,0,0
378,-244,0,0,0,0,0,0,0,0,0,-1,1602,1268,0,0
385,-244,0,0,0,0,0,0,0,0,0,-1,1609,1268,0,0
392,-244,0,0,0,0,0,0,0,0,0,-1,1616,1268,0,0
399,-244,0,0,0,0,0,0,0,0,0,-1,1623,1268,0,0
406,-244,0,0,0,0,0,0,0,0,0,-1,1630,1268,0,0
413,-244,0,0,0,0,0,0,0,0,0,-1,1637,1268,0,0
420,-244,0,0,0,0,0,0,0,0,0,-1,1644,1268,0,0
427,-244,0,0,0,0,0,0,0,0,0,-1,1651,1268,0,0
434,-244,0,0,0,0,0,0,0,0,0,-1,1658,1268,0,0
441,-244,0,0,0,0,0,0,0,0,0,-1,1665,1268,0,0
448,-244,0,0,0,0,0,0,0,0,0,-1,1672,1268,0,0
455,-244,0,0,0,0,0,0,0,0,0,-1,1679,1268,0,0
462,-244,0,0,0,0,0,0,0,0,0,-1,1686,1268,0,0
469,-244,0,0,0,0,0,0,0,0,0,-1,1693,1268,0,0
476,-244,0,0,0,0,0,0,0,0,0,-1,1700,1268,0,0
483,-244,0,0,0,0,0,0,0,0,0,-1,1707,1268,0,0
490,-244,0,0,0,0,0,0,0,0,0,-1,1714,1268,0,0
497,-244,0,0,0,0,0,0,0,0,0,-1,1721,1268,0,0
504,-244,0,0,0,0,0,0,0,0,0,-1,1728,1268,0,0
511,-244,0,0,0,0,0,0,0,0,0,-1,1735,1268,0,0
518,-244,0,0,0,0,0,0,0,0,0,-1,1742,1268,0,0
525,-244,0,0,0,0,0,0,0,0,0,-1,1749,1268,0,0
532,-244,0,0,0,0,0,0,0,0,0,-1,1756,1268,0,0
539,-244,0,0,0,0,0,0,0,0,0,-1,1763,1268,0,0
546,-244,0,0,0,0,0,0,0,0,0,-1,1770,1268,0,0
553,-244,0,0,0,0,0,0,0,0,0,-1,1777,1268,0,0
560,-244,0,0,0,0,0,0,0,0,0,-1,1784,1268,0,0
567,-244,0,0,0,0,0,0,0,0,0,-1,1791,1268,0,0
574,-244,0,0,0,0,0,0,0,0,0,-1,1798,1268,0,0
581,-244,0,0,0,0,0,0,0,0,0,-1,1805,1268,0,0
588,-244,0,0,0,0,0,0,0,0,0,-1,1812,1268,0,0
595,-244,0,0,0,0,0,0,0,0,0,-1,1819,1268,0,0
602,-244,0,0,0,0,0,0,0,0,0,-1,1826,1268,0,0
609,-244,0,0,0,0,0,0,0,0,0,-1,1833,1268,0,0
616,-244,20.5663,2.69141,0.00382274,0.00685382,-0.00243428,0.00820578,0.00247078,-1.06383,0.00486095,0.0323558,1840,1268,20.5663,-2.69145
623,-244,20.5739,2.70386,0.00136749,0.00991895,1.72864e-05,0.00991898,0.00136745,1.56877,0.00620725,0.0266509,1847,1268,20.5738,-2.70383
630,-244,20.5367,2.77417,-0.00149422,0.012016,0.00234952,0.0124129,-0.00189116,1.40343,0.00897233,0.0242551,1854,1268,20.5367,-2.77421
637,-244,20.5823,2.80359,-0.00381769,0.0124666,0.00401116,0.013401,-0.00475211,1.34192,0.01087,0.0404655,1861,1268,20.5823,-2.80363
644,-244,20.6411,2.74353,-0.00524474,0.0117598,0.00488845,0.013065,-0.00654989,1.3099,0.011531,0.0492977,1868,1268,20.6412,-2.74357
651,-244,20.7026,2.74036,-0.00581535,0.010383,0.00522127,0.0119201,-0.00735248,1.28449,0.0112307,0.0480237,1875,1268,20.7027,-2.7404
658,-244,20.7832,2.49219,-0.00587453,0.00876732,0.00520798,0.0104308,-0.00753798,1.26163,0.010419,0.0485052,1882,1268,20.7832,-2.49216
665,-244,20.8838,2.55725,0,0,0,0,0,0,0,-1,1889,1268,20.8838,-2.55719
672,-244,20.7755,3.29272,0,0,0,0,0,0,0,-1,1896,1268,20.7755,-3.29271
679,-244,17.3162,5.34534,-0.00441956,0.0039479,0.00392179,0.00549863,-0.00597029,1.19425,0.00662345,0.0492311,1903,1268,17.3162,-5.34537
686,-244,17.2771,5.3446,-0.00405753,0.00252714,0.00334434,0.00392779,-0.00545817,1.17418,0.00544295,0.0252837,1910,1268,17.2772,-5.34454
693,-244,17.2095,5.19116,-0.00354857,0.00130498,0.00287097,0.00263742,-0.00488101,1.13627,0.00440472,0.0106106,1917,1268,17.2095,-5.19113
700,-244,17.2104,5.00488,-0.00231598,0.000318994,0.0023291,0.00167742,-0.0036744,1.04279,0.00316076,0.00768862,1924,1268,17.2104,-5.00491
707,-244,17.2301,4.83362,-0.0010633,-0.000674957,0.00123147,0.000377561,-0.00211582,0.863591,0.00155178,0.00910857,1931,1268,17.2301,-4.83365
714,-244,17.2362,4.68311,-0.000457402,-0.000877436,0.000539099,-8.88564e-05,-0.00124598,0.599657,0.000802676,0.0115247,1938,1268,17.2362,-4.68312
721,-244,17.2242,4.50854,-9.49359e-05,0.000451091,-0.000144246,0.000486854,-0.000130699,-1.32776,0.00037579,0.0138183,1945,1268,17.2243,-4.50852
728,-244,17.2377,4.31592,0.000243782,0.00195973,-0.000752388,0.0022429,-3.93863e-05,-1.21083,0.00150857,0.0167661,1952,1268,17.2376,-4.3159
735,-244,17.2335,4.14551,0.000703092,0.0036289,-0.001536,0.00428717,4.48199e-05,-1.16591,0.00284329,0.0208318,1959,1268,17.2335,-4.14556
742,-244,17.2656,4.03711,0.00159236,0.00570947,-0.00245392,0.00685394,0.000447892,-1.1344,0.00442755,0.0143512,1966,1268,17.2656,-4.03711
749,-244,17.2551,3.91321,0.00272307,0.0083528,-0.00370602,0.0101918,0.000884111,-1.11019,0.00651981,0.0172515,1973,1268,17.2552,-3.91327
756,-244,17.1301,3.7373,0.00468023,0.0119009,-0.00543029,0.0148115,0.00176964,-1.07877,0.00934051,0.0237935,1980,1268,17.1302,-3.73728
763,-244,17.0422,3.49475,0.00791091,0.0167297,-0.00777247,0.0212564,0.00338418,-1.04341,0.0131884,0.040307,1987,1268,17.0422,-3.4948
770,-244,17.0869,3.25134,0,0,0,0,0,0,0,-1,1994,1268,17.0869,-3.25136
777,-244,16.344,3.12988,0,0,0,0,0,0,0,-1,2001,1268,16.344,-3.12992
784,-244,17.1914,2.98694,0,0,0,0,0,0,0,-1,2008,1268,17.1914,-2.98697
791,-244,0,0,0,0,0,0,0,0,0,-1,2015,1268,0,0
798,-244,0,0,0,0,0,0,0,0,0,-1,2022,1268,0,0
805,-244,0,0,0,0,0,0,0,0,0,-1,2029,1268,0,0
812,-244,0,0,0,0,0,0,0,0,0,-1,2036,1268,0,0
-700,-251,0,0,0,0,0,0,0,0,0,-1,524,1275,0,0
-693,-251,0,0,0,0,0,0,0,0,0,-1,531,1275,0,0
-686,-251,0,0,0,0,0,0,0,0,0,-1,538,1275,0,0
-679,-251,0,0,0,0,0,0,0,0,0,-1,545,1275,0,0
-672,-251,0,0,0,0,0,0,0,0,0,-1,552,1275,0,0
-665,-251,-10.0746,3.57849,0.0302217,0.00758329,-0.00687848,0.0321478,0.0056572,-0.273024,0.0198171,0.047186,559,1275,-10.0746,-3.57845
-658,-251,-9.77283,3.47693,0,0,0,0,0,0,0,-1,566,1275,-9.7728,-3.47696
-651,-251,-9.15979,3.31873,0.0334707,0.013087,-0.0113031,0.0384984,0.0080593,-0.418526,0.0234455,0.0488595,573,1275,-9.15981,-3.31871
-644,-251,-8.68903,1.99756,0.0299105,0.0135888,-0.0111785,0.0355901,0.00790922,-0.470093,0.021579,0.0479826,580,1275,-8.68904,-1.99751
-637,-251,-8.54675,1.51709,0,0,0,0,0,0,0,-1,587,1275,-8.54675,-1.51709
-630,-251,-8.52167,2.02905,0.0201785,0.0119601,-0.00873982,0.0257269,0.00641164,-0.565648,0.0154637,0.0413645,594,1275,-8.52167,-2.02901
-623,-251,-8.78595,1.88989,0.016246,0.0106635,-0.00725575,0.0212289,0.00568065,-0.601777,0.0126902,0.0370741,601,1275,-8.78595,-1.88986
-616,-251,-9.04114,1.59802,0.0123039,0.00899468,-0.00570079,0.0165853,0.00471323,-0.644158,0.00986841,0.0211709,608,1275,-9.04112,-1.59804
-609,-251,-9.03638,1.72961,0.00904817,0.00739462,-0.00411313,0.0124168,0.004026,-0.686215,0.00731499,0.0198712,615,1275,-9.03635,-1.72959
-602,-251,-9.03009,1.90369,0.0062604,0.00513773,-0.0026654,0.00842293,0.00297519,-0.681614,0.00493233,0.0149549,622,1275,-9.0301,-1.90365
-595,-251,-8.99188,2.09448,0.0045208,0.00333173,-0.00161941,0.00565136,0.00220117,-0.609471,0.00328927,0.0136376,629,1275,-8.9919,-2.09443
-588,-251,-8.98779,2.27686,0.00360393,0.00167982,-0.000393326,0.00368123,0.00160252,-0.194051,0.00213128,0.0157038,636,1275,-8.9878,-2.27691
-581,-251,-9.02435,2.48584,0.00249394,0.00139318,0.00032201,0.00258122,0.0013059,0.264684,0.0014903,0.0134706,643,1275,-9.02437,-2.48587
-574,-251,-9.0329,2.70886,0.00147439,0.00150438,0.000655115,0.00214467,0.000834098,0.79684,0.00124837,0.0118259,650,1275,-9.03287,-2.70887
-567,-251,-9.04712,2.90515,-0.000330716,0.00176049,0.000762583,0.00200904,-0.00057926,1.25573,0.00156851,0.0112223,657,1275,-9.04715,-2.90519
-560,-251,-9.01019,3.10583,-0.00258183,0.0023442,0.000504254,0.00239528,-0.00263292,1.46983,0.00290412,0.0152934,664,1275,-9.01021,-3.10582
-553,-251,-8.86938,3.15784,-0.00578831,0.00307583,0.000256928,0.00308328,-0.00579575,1.54184,0.00520544,0.0360615,671,1275,-8.86938,-3.15788
-546,-251,-8.79004,3.14758,0,0,0,0,0,0,0,-1,678,1275,-8.79001,-3.14752
-539,-251,-9.57544,-1.15503,0,0,0,0,0,0,0,-1,685,1275,-9.57546,1.15506
-532,-251,-9.72736,-0.755859,0,0,0,0,0,0,0,-1,692,1275,-9.72737,0.755814
-525,-251,-11.7853,0.687012,0,0,0,0,0,0,0,-1,699,1275,-11.7853,-0.687018
-518,-251,-12.3838,0.778687,-0.0317911,0.00508516,0.00136117,0.00513534,-0.0318412,1.53395,0.0231301,0.0448309,706,1275,-12.3838,-0.778678
-511,-251,-12.5443,0.901123,-0.0380607,0.00443421,0.00218949,0.00454672,-0.0381732,1.51945,0.0270918,0.0437231,713,1275,-12.5443,-0.901175
-504,-251,-12.93,0.921997,0,0,0,0,0,0,0,-1,720,1275,-12.93,-0.922018
-497,-251,-12.8613,0.90918,0,0,0,0,0,0,0,-1,727,1275,-12.8613,-0.909121
-490,-251,0,0,0,0,0,0,0,0,0,-1,734,1275,0,0
-483,-251,0,0,0,0,0,0,0,0,0,-1,741,1275,0,0
-476,-251,0,0,0,0,0,0,0,0,0,-1,748,1275,0,0
-469,-251,0,0,0,0,0,0,0,0,0,-1,755,1275,0,0
-462,-251,0,0,0,0,0,0,0,0,0,-1,762,1275,0,0
-455,-251,0,0,0,0,0,0,0,0,0,-1,769,1275,0,0
-448,-251,0,0,0,0,0,0,0,0,0,-1,776,1275,0,0
-441,-251,0,0,0,0,0,0,0,0,0,-1,783,1275,0,0
-434,-251,0,0,0,0,0,0,0,0,0,-1,790,1275,0,0
-427,-251,0,0,0,0,0,0,0,0,0,-1,797,1275,0,0
-420,-251,0,0,0,0,0,0,0,0,0,-1,804,1275,0,0
-413,-251,0,0,0,0,0,0,0,0,0,-1,811,1275,0,0
-406,-251,0,0,0,0,0,0,0,0,0,-1,818,1275,0,0
-399,-251,0,0,0,0,0,0,0,0,0,-1,825,1275,0,0
-392,-251,0,0,0,0,0,0,0,0,0,-1,832,1275,0,0
-385,-251,0,0,0,0,0,0,0,0,0,-1,839,1275,0,0
-378,-251,0,0,0,0,0,0,0,0,0,-1,846,1275,0,0
-371,-251,0,0,0,0,0,0,0,0,0,-1,853,1275,0,0
-364,-251,0,0,0,0,0,0,0,0,0,-1,860,1275,0,0
-357,-251,0,0,0,0,0,0,0,0,0,-1,867,1275,0,0
-350,-251,0,0,0,0,0,0,0,0,0,-1,874,1275,0,0
-343,-251,0,0,0,0,0,0,0,0,0,-1,881,1275,0,0
-336,-251,0,0,0,0,0,0,0,0,0,-1,888,1275,0,0
-329,-251,0,0,0,0,0,0,0,0,0,-1,895,1275,0,0
-322,-251,0,0,0,0,0,0,0,0,0,-1,902,1275,0,0
-315,-251,0,0,0,0,0,0,0,0,0,-1,909,1275,0,0
-308,-251,0,0,0,0,0,0,0,0,0,-1,916,1275,0,0
-301,-251,0,0,0,0,0,0,0,0,0,-1,923,1275,0,0
-294,-251,0,0,0,0,0,0,0,0,0,-1,930,1275,0,0
-287,-251,0,0,0,0,0,0,0,0,0,-1,937,1275,0,0
-280,-251,0,0,0,0,0,0,0,0,0,-1,944,1275,0,0
-273,-251,0,0,0,0,0,0,0,0,0,-1,951,1275,0,0
-266,-251,0,0,0,0,0,0,0,0,0,-1,958,1275,0,0
-259,-251,0,0,0,0,0,0,0,0,0,-1,965,1275,0,0
-252,-251,0,0,0,0,0,0,0,0,0,-1,972,1275,0,0
-245,-251,0,0,0,0,0,0,0,0,0,-1,979,1275,0,0
-238,-251,0,0,0,0,0,0,0,0,0,-1,986,1275,0,0
-231,-251,0,0,0,0,0,0,0,0,0,-1,993,1275,0,0
-224,-251,0,0,0,0,0,0,0,0,0,-1,1000,1275,0,0
-217,-251,0,0,0,0,0,0,0,0,0,-1,1007,1275,0,0
-210,-251,0,0,0,0,0,0,0,0,0,-1,1014,1275,0,0
-203,-251,0,0,0,0,0,0,0,0,0,-1,1021,1275,0,0
-196,-251,0,0,0,0,0,0,0,0,0,-1,1028,1275,0,0
-189,-251,0,0,0,0,0,0,0,0,0,-1,1035,1275,0,0
-182,-251,0,0,0,0,0,0,0,0,0,-1,1042,1275,0,0
-175,-251,0,0,0,0,0,0,0,0,0,-1,1049,1275,0,0
-168,-251,0,0,0,0,0,0,0,0,0,-1,1056,1275,0,0
-161,-251,0,0,0,0,0,0,0,0,0,-1,1063,1275,0,0
-154,-251,0,0,0,0,0,0,0,0,0,-1,1070,1275,0,0
-147,-251,0,0,0,0,0,0,0,0,0,-1,1077,1275,0,0
-140,-251,0,0,0,0,0,0,0,0,0,-1,1084,1275,0,0
-133,-251,0,0,0,0,0,0,0,0,0,-1,1091,1275,0,0
-126,-251,0,0,0,0,0,0,0,0,0,-1,1098,1275,0,0
-119,-251,0,0,0,0,0,0,0,0,0,-1,1105,1275,0,0
-112,-251,0,0,0,0,0,0,0,0,0,-1,1112,1275,0,0
-105,-251,0,0,0,0,0,0,0,0,0,-1,1119,1275,0,0
-98,-251,0,0,0,0,0,0,0,0,0,-1,1126,1275,0,0
-91,-251,0,0,0,0,0,0,0,0,0,-1,1133,1275,0,0
-84,-251,0,0,0,0,0,0,0,0,0,-1,1140,1275,0,0
-77,-251,0,0,0,0,0,0,0,0,0,-1,1147,1275,0,0
-70,-251,0,0,0,0,0,0,0,0,0,-1,1154,1275,0,0
-63,-251,0,0,0,0,0,0,0,0,0,-1,1161,1275,0,0
-56,-251,0,0,0,0,0,0,0,0,0,-1,1168,1275,0,0
-49,-251,0,0,0,0,0,0,0,0,0,-1,1175,1275,0,0
-42,-251,0,0,0,0,0,0,0,0,0,-1,1182,1275,0,0
-35,-251,0,0,0,0,0,0,0,0,0,-1,1189,1275,0,0
-28,-251,0,0,0,0,0,0,0,0,0,-1,1196,1275,0,0
-21,-251,0,0,0,0,0,0,0,0,0,-1,1203,1275,0,0
-14,-251,0,0,0,0,0,0,0,0,0,-1,1210,1275,0,0
-7,-251,0,0,0,0,0,0,0,0,0,-1,1217,1275,0,0
0,-251,0,0,0,0,0,0,0,0,0,-1,1224,1275,0,0
7,-251,0,0,0,0,0,0,0,0,0,-1,1231,1275,0,0
14,-251,0,0,0,0,0,0,0,0,0,-1,1238,1275,0,0
21,-251,0,0,0,0,0,0,0,0,0,-1,1245,1275,0,0
28,-251,0,0,0,0,0,0,0,0,0,-1,1252,1275,0,0
35,-251,0,0,0,0,0,0,0,0,0,-1,1259,1275,0,0
42,-251,0,0,0,0,0,0,0,0,0,-1,1266,1275,0,0
49,-251,0,0,0,0,0,0,0,0,0,-1,1273,1275,0,0
56,-251,0,0,0,0,0,0,0,0,0,-1,1280,1275,0,0
63,-251,0,0,0,0,0,0,0,0,0,-1,1287,1275,0,0
70,-251,0,0,0,0,0,0,0,0,0,-1,1294,1275,0,0
77,-251,0,0,0,0,0,0,0,0,0,-1,1301,1275,0,0
84,-251,0,0,0,0,0,0,0,0,0,-1,1308,1275,0,0
91,-251,0,0,0,0,0,0,0,0,0,-1,1315,1275,0,0
98,-251,0,0,0,0,0,0,0,0,0,-1,1322,1275,0,0
105,-251,0,0,0,0,0,0,0,0,0,-1,1329,1275,0,0
112,-251,0,0,0,0,0,0,0,0,0,-1,1336,1275,0,0
119,-251,0,0,0,0,0,0,0,0,0,-1,1343,1275,0,0
126,-251,0,0,0,0,0,0,0,0,0,-1,1350,1275,0,0
133,-251,0,0,0,0,0,0,0,0,0,-1,1357,1275,0,0
140,-251,0,0,0,0,0,0,0,0,0,-1,1364,1275,0,0
147,-251,0,0,0,0,0,0,0,0,0,-1,1371,1275,0,0
154,-251,0,0,0,0,0,0,0,0,0,-1,1378,1275,0,0
161,-251,0,0,0,0,0,0,0,0,0,-1,1385,1275,0,0
168,-251,0,0,0,0,0,0,0,0,0,-1,1392,1275,0,0
175,-251,0,0,0,0,0,0,0,0,0,-1,1399,1275,0,0
182,-251,0,0,0,0,0,0,0,0,0,-1,1406,1275,0,0
189,-251,0,0,0,0,0,0,0,0,0,-1,1413,1275,0,0
196,-251,0,0,0,0,0,0,0,0,0,-1,1420,1275,0,0
203,-251,0,0,0,0,0,0,0,0,0,-1,1427,1275,0,0
210,-251,0,0,0,0,0,0,0,0,0,-1,1434,1275,0,0
217,-251,0,0,0,0,0,0,0,0,0,-1,1441,1275,0,0
224,-251,0,0,0,0,0,0,0,0,0,-1,1448,1275,0,0
231,-251,0,0,0,0,0,0,0,0,0,-1,1455,1275,0,0
238,-251,0,0,0,0,0,0,0,0,0,-1,1462,1275,0,0
245,-251,0,0,0,0,0,0,0,0,0,-1,1469,1275,0,0
252,-251,0,0,0,0,0,0,0,0,0,-1,1476,1275,0,0
259,-251,0,0,0,0,0,0,0,0,0,-1,1483,1275,0,0
266,-251,0,0,0,0,0,0,0,0,0,-1,1490,1275,0,0
273,-251,0,0,0,0,0,0,0,0,0,-1,1497,1275,0,0
280,-251,0,0,0,0,0,0,0,0,0,-1,1504,1275,0,0
287,-251,0,0,0,0,0,0,0,0,0,-1,1511,1275,0,0
294,-251,0,0,0,0,0,0,0,0,0,-1,1518,1275,0,0
301,-251,0,0,0,0,0,0,0,0,0,-1,1525,1275,0,0
308,-251,0,0,0,0,0,0,0,0,0,-1,1532,1275,0,0
315,-251,0,0,0,0,0,0,0,0,0,-1,1539,1275,0,0
322,-251,0,0,0,0,0,0,0,0,0,-1,1546,1275,0,0
329,-251,0,0,0,0,0,0,0,0,0,-1,1553,1275,0,0
336,-251,0,0,0,0,0,0,0,0,0,-1,1560,1275,0,0
343,-251,0,0,0,0,0,0,0,0,0,-1,1567,1275,0,0
350,-251,0,0,0,0,0,0,0,0,0,-1,1574,1275,0,0
357,-251,0,0,0,0,0,0,0,0,0,-1,1581,1275,0,0
364,-251,0,0,0,0,0,0,0,0,0,-1,1588,1275,0,0
371,-251,0,0,0,0,0,0,0,0,0,-1,1595,1275,0,0
378,-251,0,0,0,0,0,0,0,0,0,-1,1602,1275,0,0
385,-251,0,0,0,0,0,0,0,0,0,-1,1609,1275,0,0
392,-251,0,0,0,0,0,0,0,0,0,-1,1616,1275,0,0
399,-251,0,0,0,0,0,0,0,0,0,-1,1623,1275,0,0
406,-251,0,0,0,0,0,0,0,0,0,-1,1630,1275,0,0
413,-251,0,0,0,0,0,0,0,0,0,-1,1637,1275,0,0
420,-251,0,0,0,0,0,0,0,0,0,-1,1644,1275,0,0
427,-251,0,0,0,0,0,0,0,0,0,-1,1651,1275,0,0
434,-251,0,0,0,0,0,0,0,0,0,-1,1658,1275,0,0
441,-251,0,0,0,0,0,0,0,0,0,-1,1665,1275,0,0
448,-251,0,0,0,0,0,0,0,0,0,-1,1672,1275,0,0
455,-251,0,0,0,0,0,0,0,0,0,-1,1679,1275,0,0
462,-251,0,0,0,0,0,0,0,0,0,-1,1686,1275,0,0
469,-251,0,0,0,0,0,0,0,0,0,-1,1693,1275,0,0
476,-251,0,0,0,0,0,0,0,0,0,-1,1700,1275,0,0
483,-251,0,0,0,0,0,0,0,0,0,-1,1707,1275,0,0
490,-251,0,0,0,0,0,0,0,0,0,-1,1714,1275,0,0
497,-251,0,0,0,0,0,0,0,0,0,-1,1721,1275,0,0
504,-251,0,0,0,0,0,0,0,0,0,-1,1728,1275,0,0
511,-251,0,0,0,0,0,0,0,0,0,-1,1735,1275,0,0
518,-251,0,0,0,0,0,0,0,0,0,-1,1742,1275,0,0
525,-251,0,0,0,0,0,0,0,0,0,-1,1749,1275,0,0
532,-251,0,0,0,0,0,0,0,0,0,-1,1756,1275,0,0
539,-251,0,0,0,0,0,0,0,0,0,-1,1763,1275,0,0
546,-251,0,0,0,0,0,0,0,0,0,-1,1770,1275,0,0
553,-251,0,0,0,0,0,0,0,0,0,-1,1777,1275,0,0
560,-251,0,0,0,0,0,0,0,0,0,-1,1784,1275,0,0
567,-251,0,0,0,0,0,0,0,0,0,-1,1791,1275,0,0
574,-251,0,0,0,0,0,0,0,0,0,-1,1798,1275,0,0
581,-251,0,0,0,0,0,0,0,0,0,-1,1805,1275,0,0
588,-251,0,0,0,0,0,0,0,0,0,-1,1812,1275,0,0
595,-251,0,0,0,0,0,0,0,0,0,-1,1819,1275,0,0
602,-251,0,0,0,0,0,0,0,0,0,-1,1826,1275,0,0
609,-251,20.6514,2.80212,0.00495263,0.00726658,-0.00613152,0.0123493,-0.000130117,-0.878648,0.00827659,0.0288075,1833,1275,20.6514,-2.80218
616,-251,20.5573,2.80847,0.00280973,0.011412,-0.00227903,0.0119785,0.00224325,-1.32717,0.00735288,0.0253731,1840,1275,20.5573,-2.80853
623,-251,20.4869,2.77563,-0.00024173,0.0145887,0.001272,0.014697,-0.000350039,1.48585,0.00991677,0.0240382,1847,1275,20.4869,-2.77559
630,-251,20.4897,2.68494,-0.00361766,0.0161098,0.00422347,0.016976,-0.00448384,1.36852,0.0130709,0.037168,1854,1275,20.4897,-2.68499
637,-251,20.7976,2.87854,-0.00627874,0.0158599,0.00607102,0.0174155,-0.00783429,1.31997,0.0149237,0.0416269,1861,1275,20.7976,-2.87852
644,-251,20.8405,2.7998,-0.00784955,0.0145283,0.00690583,0.0164879,-0.00980911,1.29431,0.0153449,0.0449714,1868,1275,20.8405,-2.7998
651,-251,20.8912,2.81079,-0.00841303,0.012676,0.00713352,0.0148623,-0.0105993,1.2734,0.0147688,0.0490927,1875,1275,20.8913,-2.81077
658,-251,20.7455,2.4032,0,0,0,0,0,0,0,-1,1882,1275,20.7455,-2.40316
665,-251,20.2781,3.79688,0,0,0,0,0,0,0,-1,1889,1275,20.2781,-3.79692
672,-251,17.4193,5.13538,0,0,0,0,0,0,0,-1,1896,1275,17.4193,-5.13534
679,-251,17.1542,5.26855,-0.00644661,0.00477059,0.00500435,0.00667864,-0.00835465,1.20653,0.00869744,0.0467223,1903,1275,17.1542,-5.26853
686,-251,17.0443,5.3363,-0.00592657,0.00304473,0.00416727,0.00468175,-0.0075636,1.19649,0.00713482,0.0227151,1910,1275,17.0443,-5.33634
693,-251,17.0758,5.18811,-0.00513318,0.00171068,0.00352619,0.00320237,-0.00662487,1.17059,0.00578732,0.00898856,1917,1275,17.0758,-5.18814
700,-251,17.0687,5.00818,-0.0033496,0.000722363,0.00276894,0.00212328,-0.00475051,1.10241,0.00406406,0.00824024,1924,1275,17.0687,-5.00817
707,-251,17.0778,4.83386,-0.0015493,-0.000420788,0.00135355,0.000481405,-0.00245149,0.982881,0.00181619,0.0103412,1931,1275,17.0778,-4.8339
714,-251,17.0836,4.68066,-0.000621944,-0.000570043,0.000453629,-0.000141623,-0.00105036,0.81397,0.000658134,0.0119363,1938,1275,17.0836,-4.68063
721,-251,17.0585,4.50647,-2.26909e-05,0.000915592,-0.000435387,0.00108649,-0.000193593,-1.19675,0.000796739,0.013146,1945,1275,17.0585,-4.50645
728,-251,17.0641,4.34143,0.000463182,0.00253386,-0.00123417,0.00310946,-0.000112414,-1.1344,0.00211144,0.0140703,1952,1275,17.064,-4.34147
735,-251,17.0858,4.17725,0.00103383,0.00434902,-0.00220868,0.00545293,-7.00711e-05,-1.10731,0.00365886,0.013463,1959,1275,17.0858,-4.17719
742,-251,17.1155,4.04822,0.00195714,0.00666663,-0.00337794,0.00842957,0.000194198,-1.08978,0.00555611,0.0132404,1966,1275,17.1154,-4.04821
749,-251,17.0824,3.92041,0.00320385,0.00972762,-0.00500775,0.0124421,0.000489331,-1.07407,0.00813656,0.0222475,1973,1275,17.0824,-3.92039
756,-251,16.6499,3.74219,0.00535411,0.0139291,-0.00729833,0.0181062,0.00117708,-1.05097,0.0116982,0.0381881,1980,1275,16.6499,-3.7422
763,-251,16.3267,3.7738,0,0,0,0,0,0,0,-1,1987,1275,16.3267,-3.77375
770,-251,16.3546,3.66858,0,0,0,0,0,0,0,-1,1994,1275,16.3546,-3.66854
777,-251,16.089,3.54822,0,0,0,0,0,0,0,-1,2001,1275,16.089,-3.5482
784,-251,17.135,2.84766,0,0,0,0,0,0,0,-1,2008,1275,17.1351,-2.84771
791,-251,0,0,0,0,0,0,0,0,0,-1,2015,1275,0,0
798,-251,0,0,0,0,0,0,0,0,0,-1,2022,1275,0,0
805,-251,0,0,0,0,0,0,0,0,0,-1,2029,1275,0,0
812,-251,0,0,0,0,0,0,0,0,0,-1,2036,1275,0,0
-700,-258,0,0,0,0,0,0,0,0,0,-1,524,1282,0,0
-693,-258,0,0,0,0,0,0,0,0,0,-1,531,1282,0,0
-686,-258,0,0,0,0,0,0,0,0,0,-1,538,1282,0,0
-679,-258,0,0,0,0,0,0,0,0,0,-1,545,1282,0,0
-672,-258,0,0,0,0,0,0,0,0,0,-1,552,1282,0,0
-665,-258,-10.1145,4.15857,0,0,0,0,0,0,0,-1,559,1282,-10.1145,-4.15858
-658,-258,-9.64044,4.24353,0,0,0,0,0,0,0,-1,566,1282,-9.64042,-4.24356
-651,-258,-9.06909,4.10571,0,0,0,0,0,0,0,-1,573,1282,-9.06909,-4.10571
-644,-258,-8.4989,1.86804,0.0304804,0.0267661,-0.0124283,0.0411896,0.0160569,-0.711234,0.0239725,0.0483064,580,1282,-8.49891,-1.8681
-637,-258,-8.2229,0.720093,0.02577,0.024061,-0.0107807,0.03573,0.014101,-0.74585,0.0207808,0.044751,587,1282,-8.22292,-0.720148
-630,-258,-8.75134,1.01465,0,0,0,0,0,0,0,-1,594,1282,-8.75135,-1.01461
-623,-258,-8.80377,1.2533,0.0169538,0.017689,-0.0070064,0.0243374,0.0103053,-0.811606,0.014106,0.0481793,601,1282,-8.80376,-1.2533
-616,-258,-8.82129,1.52844,0.0130757,0.014401,-0.00525762,0.0190376,0.00843918,-0.848086,0.0110149,0.0317676,608,1282,-8.82131,-1.52848
-609,-258,-8.81799,1.72034,0.00985699,0.0115109,-0.0036526,0.014429,0.00693892,-0.896725,0.00833262,0.0166042,615,1282,-8.81796,-1.72029
-602,-258,-8.81976,1.91968,0.00715859,0.00812204,-0.00218942,0.00988211,0.00539853,-0.893685,0.00571358,0.0138254,622,1282,-8.81976,-1.91972
-595,-258,-8.81262,2.09802,0.00543518,0.00547111,-0.00113587,0.00658915,0.00431714,-0.793304,0.00386485,0.0114418,629,1282,-8.81265,-2.09807
-588,-258,-8.81555,2.28601,0.00409441,0.00308965,-0.000201229,0.00413321,0.00305085,-0.190491,0.00247488,0.0116811,636,1282,-8.81558,-2.28606
-581,-258,-8.83337,2.505,0.00277538,0.00205583,0.000446239,0.00298882,0.00184239,0.446129,0.00174112,0.013368,643,1282,-8.83335,-2.50502
-574,-258,-8.83594,2.72644,0.00172655,0.00156975,0.000701059,0.00235358,0.000942723,0.729716,0.00136777,0.0137829,650,1282,-8.83592,-2.72639
-567,-258,-8.86102,2.92139,-2.96463e-05,0.00147289,0.00075832,0.00178907,-0.00034583,1.17576,0.00132314,0.0139813,657,1282,-8.861,-2.92133
-560,-258,-8.8183,3.08691,-0.00224514,0.00191808,0.000427553,0.00196153,-0.0022886,1.46951,0.00245624,0.0218851,664,1282,-8.81831,-3.08691
-553,-258,-8.74884,3.2345,-0.00569325,0.00263875,9.18953e-05,0.00263976,-0.00569426,1.55977,0.0049182,0.0311868,671,1282,-8.74885,-3.23447
-546,-258,-8.74078,3.37732,-0.0101518,0.00310848,0.000209311,0.00311178,-0.0101551,1.55502,0.00801136,0.0478566,678,1282,-8.7408,-3.37732
-539,-258,-8.71564,3.573,0,0,0,0,0,0,0,-1,685,1282,-8.71565,-3.57295
-532,-258,-8.93127,-1.28162,0,0,0,0,0,0,0,-1,692,1282,-8.93124,1.28166
-525,-258,-11.5179,0.177368,0,0,0,0,0,0,0,-1,699,1282,-11.5179,-0.177345
-518,-258,-12.5707,1.14648,0,0,0,0,0,0,0,-1,706,1282,-12.5707,-1.14646
-511,-258,-12.4366,0.986694,-0.0409612,0.00339984,0.00301022,0.00360318,-0.0411645,1.50335,0.0287195,0.0445175,713,1282,-12.4366,-0.986648
-504,-258,-12.407,0.699219,-0.047703,0.00229538,0.00495491,0.00278169,-0.0481893,1.47296,0.0330924,0.0453808,720,1282,-12.407,-0.699276
-497,-258,-12.5027,0.52124,0,0,0,0,0,0,0,-1,727,1282,-12.5027,-0.52128
-490,-258,-12.7025,0.729126,0,0,0,0,0,0,0,-1,734,1282,-12.7025,-0.72913
-483,-258,0,0,0,0,0,0,0,0,0,-1,741,1282,0,0
-476,-258,0,0,0,0,0,0,0,0,0,-1,748,1282,0,0
-469,-258,0,0,0,0,0,0,0,0,0,-1,755,1282,0,0
-462,-258,0,0,0,0,0,0,0,0,0,-1,762,1282,0,0
-455,-258,0,0,0,0,0,0,0,0,0,-1,769,1282,0,0
-448,-258,0,0,0,0,0,0,0,0,0,-1,776,1282,0,0
-441,-258,0,0,0,0,0,0,0,0,0,-1,783,1282,0,0
-434,-258,0,0,0,0,0,0,0,0,0,-1,790,1282,0,0
-427,-258,0,0,0,0,0,0,0,0,0,-1,797,1282,0,0
-420,-258,0,0,0,0,0,0,0,0,0,-1,804,1282,0,0
-413,-258,0,0,0,0,0,0,0,0,0,-1,811,1282,0,0
-406,-258,0,0,0,0,0,0,0,0,0,-1,818,1282,0,0
-399,-258,0,0,0,0,0,0,0,0,0,-1,825,1282,0,0
-392,-258,0,0,0,0,0,0,0,0,0,-1,832,1282,0,0
-385,-258,0,0,0,0,0,0,0,0,0,-1,839,1282,0,0
-378,-258,0,0,0,0,0,0,0,0,0,-1,846,1282,0,0
-371,-258,0,0,0,0,0,0,0,0,0,-1,853,1282,0,0
-364,-258,0,0,0,0,0,0,0,0,0,-1,860,1282,0,0
-357,-258,0,0,0,0,0,0,0,0,0,-1,867,1282,0,0
-350,-258,0,0,0,0,0,0,0,0,0,-1,874,1282,0,0
-343,-258,0,0,0,0,0,0,0,0,0,-1,881,1282,0,0
-336,-258,0,0,0,0,0,0,0,0,0,-1,888,1282,0,0
-329,-258,0,0,0,0,0,0,0,0,0,-1,895,1282,0,0
-322,-258,0,0,0,0,0,0,0,0,0,-1,902,1282,0,0
-315,-258,0,0,0,0,0,0,0,0,0,-1,909,1282,0,0
-308,-258,0,0,0,0,0,0,0,0,0,-1,916,1282,0,0
-301,-258,0,0,0,0,0,0,0,0,0,-1,923,1282,0,0
-294,-258,0,0,0,0,0,0,0,0,0,-1,930,1282,0,0
-287,-258,0,0,0,0,0,0,0,0,0,-1,937,1282,0,0
-280,-258,0,0,0,0,0,0,0,0,0,-1,944,1282,0,0
-273,-258,0,0,0,0,0,0,0,0,0,-1,951,1282,0,0
-266,-258,0,0,0,0,0,0,0,0,0,-1,958,1282,0,0
-259,-258,0,0,0,0,0,0,0,0,0,-1,965,1282,0,0
-252,-258,0,0,0,0,0,0,0,0,0,-1,972,1282,0,0
-245,-258,0,0,0,0,0,0,0,0,0,-1,979,1282,0,0
-238,-258,0,0,0,0,0,0,0,0,0,-1,986,1282,0,0
-231,-258,0,0,0,0,0,0,0,0,0,-1,993,1282,0,0
-224,-258,0,0,0,0,0,0,0,0,0,-1,1000,1282,0,0
-217,-258,0,0,0,0,0,0,0,0,0,-1,1007,1282,0,0
-210,-258,0,0,0,0,0,0,0,0,0,-1,1014,1282,0,0
-203,-258,0,0,0,0,0,0,0,0,0,-1,1021,1282,0,0
-196,-258,0,0,0,0,0,0,0,0,0,-1,1028,1282,0,0
-189,-258,0,0,0,0,0,0,0,0,0,-1,1035,1282,0,0
-182,-258,0,0,0,0,0,0,0,0,0,-1,1042,1282,0,0
-175,-258,0,0,0,0,0,0,0,0,0,-1,1049,1282,0,0
-168,-258,0,0,0,0,0,0,0,0,0,-1,1056,1282,0,0
-161,-258,0,0,0,0,0,0,0,0,0,-1,1063,1282,0,0
-154,-258,0,0,0,0,0,0,0,0,0,-1,1070,1282,0,0
-147,-258,0,0,0,0,0,0,0,0,0,-1,1077,1282,0,0
-140,-258,0,0,0,0,0,0,0,0,0,-1,1084,1282,0,0
-133,-258,0,0,0,0,0,0,0,0,0,-1,1091,1282,0,0
-126,-258,0,0,0,0,0,0,0,0,0,-1,1098,1282,0,0
-119,-258,0,0,0,0,0,0,0,0,0,-1,1105,1282,0,0
-112,-258,0,0,0,0,0,0,0,0,0,-1,1112,1282,0,0
-105,-258,0,0,0,0,0,0,0,0,0,-1,1119,1282,0,0
-98,-258,0,0,0,0,0,0,0,0,0,-1,1126,1282,0,0
-91,-258,0,0,0,0,0,0,0,0,0,-1,1133,1282,0,0
-84,-258,0,0,0,0,0,0,0,0,0,-1,1140,1282,0,0
-77,-258,0,0,0,0,0,0,0,0,0,-1,1147,1282,0,0
-70,-258,0,0,0,0,0,0,0,0,0,-1,1154,1282,0,0
-63,-258,0,0,0,0,0,0,0,0,0,-1,1161,1282,0,0
-56,-258,0,0,0,0,0,0,0,0,0,-1,1168,1282,0,0
-49,-258,0,0,0,0,0,0,0,0,0,-1,1175,1282,0,0
-42,-258,0,0,0,0,0,0,0,0,0,-1,1182,1282,0,0
-35,-258,0,0,0,0,0,0,0,0,0,-1,1189,1282,0,0
-28,-258,0,0,0,0,0,0,0,0,0,-1,1196,1282,0,0
-21,-258,0,0,0,0,0,0,0,0,0,-1,1203,1282,0,0
-14,-258,0,0,0,0,0,0,0,0,0,-1,1210,1282,0,0
-7,-258,0,0,0,0,0,0,0,0,0,-1,1217,1282,0,0
0,-258,0,0,0,0,0,0,0,0,0,-1,1224,1282,0,0
7,-258,0,0,0,0,0,0,0,0,0,-1,1231,1282,0,0
14,-258,0,0,0,0,0,0,0,0,0,-1,1238,1282,0,0
21,-258,0,0,0,0,0,0,0,0,0,-1,1245,1282,0,0
28,-258,0,0,0,0,0,0,0,0,0,-1,1252,1282,0,0
35,-258,0,0,0,0,0,0,0,0,0,-1,1259,1282,0,0
42,-258,0,0,0,0,0,0,0,0,0,-1,1266,1282,0,0
49,-258,0,0,0,0,0,0,0,0,0,-1,1273,1282,0,0
56,-258,0,0,0,0,0,0,0,0,0,-1,1280,1282,0,0
63,-258,0,0,0,0,0,0,0,0,0,-1,1287,1282,0,0
70,-258,0,0,0,0,0,0,0,0,0,-1,1294,1282,0,0
77,-258,0,0,0,0,0,0,0,0,0,-1,1301,1282,0,0
84,-258,0,0,0,0,0,0,0,0,0,-1,1308,1282,0,0
91,-258,0,0,0,0,0,0,0,0,0,-1,1315,1282,0,0
98,-258,0,0,0,0,0,0,0,0,0,-1,1322,1282,0,0
105,-258,0,0,0,0,0,0,0,0,0,-1,1329,1282,0,0
112,-258,0,0,0,0,0,0,0,0,0,-1,1336,1282,0,0
119,-258,0,0,0,0,0,0,0,0,0,-1,1343,1282,0,0
126,-258,0,0,0,0,0,0,0,0,0,-1,1350,1282,0,0
133,-258,0,0,0,0,0,0,0,0,0,-1,1357,1282,0,0
140,-258,0,0,0,0,0,0,0,0,0,-1,1364,1282,0,0
147,-258,0,0,0,0,0,0,0,0,0,-1,1371,1282,0,0
154,-258,0,0,0,0,0,0,0,0,0,-1,1378,1282,0,0
161,-258,0,0,0,0,0,0,0,0,0,-1,1385,1282,0,0
168,-258,0,0,0,0,0,0,0,0,0,-1,1392,1282,0,0
175,-258,0,0,0,0,0,0,0,0,0,-1,1399,1282,0,0
182,-258,0,0,0,0,0,0,0,0,0,-1,1406,1282,0,0
189,-258,0,0,0,0,0,0,0,0,0,-1,1413,1282,0,0
196,-258,0,0,0,0,0,0,0,0,0,-1,1420,1282,0,0
203,-258,0,0,0,0,0,0,0,0,0,-1,1427,1282,0,0
210,-258,0,0,0,0,0,0,0,0,0,-1,1434,1282,0,0
217,-258,0,0,0,0,0,0,0,0,0,-1,1441,1282,0,0
224,-258,0,0,0,0,0,0,0,0,0,-1,1448,1282,0,0
231,-258,0,0,0,0,0,0,0,0,0,-1,1455,1282,0,0
238,-258,0,0,0,0,0,0,0,0,0,-1,1462,1282,0,0
245,-258,0,0,0,0,0,0,0,0,0,-1,1469,1282,0,0
252,-258,0,0,0,0,0,0,0,0,0,-1,1476,1282,0,0
259,-258,0,0,0,0,0,0,0,0,0,-1,1483,1282,0,0
266,-258,0,0,0,0,0,0,0,0,0,-1,1490,1282,0,0
273,-258,0,0,0,0,0,0,0,0,0,-1,1497,1282,0,0
280,-258,0,0,0,0,0,0,0,0,0,-1,1504,1282,0,0
287,-258,0,0,0,0,0,0,0,0,0,-1,1511,1282,0,0
294,-258,0,0,0,0,0,0,0,0,0,-1,1518,1282,0,0
301,-258,0,0,0,0,0,0,0,0,0,-1,1525,1282,0,0
308,-258,0,0,0,0,0,0,0,0,0,-1,1532,1282,0,0
315,-258,0,0,0,0,0,0,0,0,0,-1,1539,1282,0,0
322,-258,0,0,0,0,0,0,0,0,0,-1,1546,1282,0,0
329,-258,0,0,0,0,0,0,0,0,0,-1,1553,1282,0,0
336,-258,0,0,0,0,0,0,0,0,0,-1,1560,1282,0,0
343,-258,0,0,0,0,0,0,0,0,0,-1,1567,1282,0,0
350,-258,0,0,0,0,0,0,0,0,0,-1,1574,1282,0,0
357,-258,0,0,0,0,0,0,0,0,0,-1,1581,1282,0,0
364,-258,0,0,0,0,0,0,0,0,0,-1,1588,1282,0,0
371,-258,0,0,0,0,0,0,0,0,0,-1,1595,1282,0,0
378,-258,0,0,0,0,0,0,0,0,0,-1,1602,1282,0,0
385,-258,0,0,0,0,0,0,0,0,0,-1,1609,1282,0,0
392,-258,0,0,0,0,0,0,0,0,0,-1,1616,1282,0,0
399,-258,0,0,0,0,0,0,0,0,0,-1,1623,1282,0,0
406,-258,0,0,0,0,0,0,0,0,0,-1,1630,1282,0,0
413,-258,0,0,0,0,0,0,0,0,0,-1,1637,1282,0,0
420,-258,0,0,0,0,0,0,0,0,0,-1,1644,1282,0,0
427,-258,0,0,0,0,0,0,0,0,0,-1,1651,1282,0,0
434,-258,0,0,0,0,0,0,0,0,0,-1,1658,1282,0,0
441,-258,0,0,0,0,0,0,0,0,0,-1,1665,1282,0,0
448,-258,0,0,0,0,0,0,0,0,0,-1,1672,1282,0,0
455,-258,0,0,0,0,0,0,0,0,0,-1,1679,1282,0,0
462,-258,0,0,0,0,0,0,0,0,0,-1,1686,1282,0,0
469,-258,0,0,0,0,0,0,0,0,0,-1,1693,1282,0,0
476,-258,0,0,0,0,0,0,0,0,0,-1,1700,1282,0,0
483,-258,0,0,0,0,0,0,0,0,0,-1,1707,1282,0,0
490,-258,0,0,0,0,0,0,0,0,0,-1,1714,1282,0,0
497,-258,0,0,0,0,0,0,0,0,0,-1,1721,1282,0,0
504,-258,0,0,0,0,0,0,0,0,0,-1,1728,1282,0,0
511,-258,0,0,0,0,0,0,0,0,0,-1,1735,1282,0,0
518,-258,0,0,0,0,0,0,0,0,0,-1,1742,1282,0,0
525,-258,0,0,0,0,0,0,0,0,0,-1,1749,1282,0,0
532,-258,0,0,0,0,0,0,0,0,0,-1,1756,1282,0,0
539,-258,0,0,0,0,0,0,0,0,0,-1,1763,1282,0,0
546,-258,0,0,0,0,0,0,0,0,0,-1,1770,1282,0,0
553,-258,0,0,0,0,0,0,0,0,0,-1,1777,1282,0,0
560,-258,0,0,0,0,0,0,0,0,0,-1,1784,1282,0,0
567,-258,0,0,0,0,0,0,0,0,0,-1,1791,1282,0,0
574,-258,0,0,0,0,0,0,0,0,0,-1,1798,1282,0,0
581,-258,0,0,0,0,0,0,0,0,0,-1,1805,1282,0,0
588,-258,0,0,0,0,0,0,0,0,0,-1,1812,1282,0,0
595,-258,0,0,0,0,0,0,0,0,0,-1,1819,1282,0,0
602,-258,0,0,0,0,0,0,0,0,0,-1,1826,1282,0,0
609,-258,20.6034,2.81653,0.00327128,0.0125784,-0.00575732,0.0153277,0.000521992,-1.12529,0.010049,0.0257381,1833,1282,20.6034,-2.81656
616,-258,20.51,2.81946,0.000645946,0.0165691,-0.00114389,0.0166508,0.000564191,-1.49945,0.0109174,0.0242381,1840,1282,20.51,-2.81943
623,-258,20.4309,2.70728,-0.00295145,0.0190944,0.00291218,0.0194726,-0.00332965,1.44165,0.0142221,0.0355608,1847,1282,20.4308,-2.70732
630,-258,20.4364,2.52087,-0.00657487,0.0196465,0.00601921,0.0209622,-0.00789058,1.3556,0.0172186,0.0458527,1854,1282,20.4364,-2.52084
637,-258,20.5048,2.42566,-0.00927394,0.018604,0.00782833,0.0206518,-0.0113218,1.31494,0.0187201,0.0450003,1861,1282,20.5047,-2.42561
644,-258,21.0293,2.82202,-0.0107737,0.0166955,0.00855804,0.0191435,-0.0132218,1.29218,0.0187901,0.0493957,1868,1282,21.0294,-2.82202
651,-258,20.9103,2.72095,-0.0112063,0.0144389,0.0086928,0.0171077,-0.0138751,1.27292,0.0179203,0.0456315,1875,1282,20.9103,-2.72094
658,-258,20.3064,2.73413,-0.0110886,0.0121322,0.00844617,0.0148794,-0.0138357,1.25634,0.0165823,0.0483828,1882,1282,20.3064,-2.7341
665,-258,19.293,2.93506,0,0,0,0,0,0,0,-1,1889,1282,19.2929,-2.93507
672,-258,17.3958,5.31396,0,0,0,0,0,0,0,-1,1896,1282,17.3957,-5.31391
679,-258,17.0332,5.43152,-0.00845236,0.00542348,0.00599699,0.00765609,-0.010685,1.2144,0.0106372,0.040399,1903,1282,17.0332,-5.43152
686,-258,16.874,5.3772,-0.00773773,0.00347984,0.00493247,0.00534017,-0.00959806,1.21013,0.00874059,0.0235823,1910,1282,16.874,-5.37715
693,-258,16.9292,5.1748,-0.00660949,0.0020796,0.00411524,0.00371922,-0.00824911,1.19165,0.00707298,0.00967686,1917,1282,16.9291,-5.17481
700,-258,16.9221,4.98059,-0.00422618,0.0011754,0.0031559,0.00262839,-0.00567918,1.13932,0.004903,0.00881924,1924,1282,16.9221,-4.98062
707,-258,16.918,4.82422,-0.00188115,-7.00024e-05,0.00145236,0.000735973,-0.00268713,1.06417,0.00208059,0.0104512,1931,1282,16.9179,-4.82417
714,-258,16.9128,4.66785,-0.00061792,-0.000135103,0.000345671,4.51121e-05,-0.000798136,1.09022,0.000547747,0.00946628,1938,1282,16.9129,-4.6679
721,-258,16.9088,4.49927,0.000285146,0.00148247,-0.000780088,0.00186713,-9.95203e-05,-1.11268,0.00127922,0.0104334,1945,1282,16.9089,-4.49921
728,-258,16.9077,4.33679,0.00103611,0.00321465,-0.00181911,0.00424568,5.08619e-06,-1.05516,0.00282876,0.0105143,1952,1282,16.9077,-4.33674
735,-258,16.9226,4.17957,0.0018581,0.00519239,-0.00305215,0.00700303,4.7459e-05,-1.03537,0.00465295,0.0133498,1959,1282,16.9226,-4.17951
742,-258,16.9465,4.05225,0.00301594,0.00778312,-0.00457458,0.0105578,0.000241212,-1.02557,0.00695955,0.014527,1966,1282,16.9466,-4.05228
749,-258,16.9198,3.92078,0.00462798,0.0112938,-0.00671398,0.0154566,0.000465174,-1.01579,0.0101529,0.0263442,1973,1282,16.9199,-3.92073
756,-258,16.6682,3.71021,0.00724952,0.0161682,-0.00970844,0.0223925,0.00102527,-1.00069,0.0145986,0.040091,1980,1282,16.6682,-3.71023
763,-258,16.7094,3.72815,0.0113441,0.0228867,-0.0137937,0.0320678,0.00216301,-0.983532,0.0206953,0.0448676,1987,1282,16.7094,-3.72812
770,-258,16.7906,3.60498,0.017602,0.0321641,-0.0192771,0.0454894,0.00427672,-0.965967,0.029006,0.0481957,1994,1282,16.7907,-3.60497
777,-258,16.8457,3.47192,0,0,0,0,0,0,0,-1,2001,1282,16.8457,-3.47188
784,-258,17.1398,2.56299,0,0,0,0,0,0,0,-1,2008,1282,17.1397,-2.56293
791,-258,0,0,0,0,0,0,0,0,0,-1,2015,1282,0,0
798,-258,0,0,0,0,0,0,0,0,0,-1,2022,1282,0,0
805,-258,0,0,0,0,0,0,0,0,0,-1,2029,1282,0,0
812,-258,0,0,0,0,0,0,0,0,0,-1,2036,1282,0,0
-700,-265,0,0,0,0,0,0,0,0,0,-1,524,1289,0,0
-693,-265,0,0,0,0,0,0,0,0,0,-1,531,1289,0,0
-686,-265,0,0,0,0,0,0,0,0,0,-1,538,1289,0,0
-679,-265,0,0,0,0,0,0,0,0,0,-1,545,1289,0,0
-672,-265,0,0,0,0,0,0,0,0,0,-1,552,1289,0,0
-665,-265,-10.4223,4.56873,0,0,0,0,0,0,0,-1,559,1289,-10.4223,-4.56872
-658,-265,-10.3151,4.25708,0,0,0,0,0,0,0,-1,566,1289,-10.3151,-4.25705
-651,-265,-8.51324,2.10852,0,0,0,0,0,0,0,-1,573,1289,-8.51326,-2.10856
-644,-265,-8.13824,1.79187,0,0,0,0,0,0,0,-1,580,1289,-8.13823,-1.79189
-637,-265,-7.83423,0.613403,0.0293711,0.0367237,-0.00963763,0.0433624,0.0227324,-0.967607,0.0250451,0.0437852,587,1289,-7.8342,-0.613419
-630,-265,-7.38104,-0.482178,0,0,0,0,0,0,0,-1,594,1289,-7.38101,0.482215
-623,-265,-8.74371,1.25085,0.0192874,0.0258096,-0.00560994,0.0290374,0.0160596,-1.04868,0.0167962,0.0444016,601,1289,-8.74372,-1.25082
-616,-265,-8.64941,1.45996,0.0150042,0.0206708,-0.00397763,0.0227211,0.0129539,-1.09487,0.0131609,0.0353082,608,1289,-8.64943,-1.46
-609,-265,-8.60986,1.72144,0.0114589,0.0162855,-0.0026194,0.0174338,0.0103106,-1.15763,0.0101213,0.0159986,615,1289,-8.60989,-1.72146
-602,-265,-8.62067,1.922,0.00839018,0.0116535,-0.00134741,0.0121379,0.00790576,-1.22566,0.00711402,0.0136617,622,1289,-8.6207,-1.92195
-595,-265,-8.61615,2.12061,0.00643357,0.00802774,-0.000487187,0.00816483,0.00629647,-1.29649,0.00493965,0.0112495,629,1289,-8.61616,-2.12059
-588,-265,-8.62067,2.31018,0.00467914,0.0048807,7.06912e-05,0.00490302,0.00465682,1.26495,0.00318978,0.010195,636,1289,-8.62066,-2.31016
-581,-265,-8.63794,2.52417,0.0030812,0.00304995,0.000584832,0.00365061,0.00248053,0.772042,0.00215247,0.0126864,643,1289,-8.63792,-2.52421
-574,-265,-8.65137,2.74731,0.00191386,0.00185995,0.000746281,0.00263367,0.00114014,0.767345,0.00152511,0.0140747,650,1289,-8.65136,-2.74731
-567,-265,-8.6662,2.9397,0.000211365,0.00135202,0.00072319,0.00170272,-0.000139327,1.11928,0.00118432,0.019503,657,1289,-8.66619,-2.93967
-560,-265,-8.66504,3.13342,-0.00189987,0.00162186,0.000345777,0.00165549,-0.00193349,1.47385,0.00207417,0.0211806,664,1289,-8.66505,-3.13341
-553,-265,-8.58466,3.36511,-0.00551589,0.00229409,-5.84488e-05,0.00229453,-0.00551633,-1.56331,0.00463571,0.023995,671,1289,-8.58468,-3.36509
-546,-265,-8.54211,3.61621,-0.010251,0.00256361,0.000121406,0.00256476,-0.0102521,1.56132,0.00783095,0.034291,678,1289,-8.54212,-3.61625
-539,-265,-8.5296,3.8623,0,0,0,0,0,0,0,-1,685,1289,-8.52961,-3.86232
-532,-265,-8.53998,3.41467,0,0,0,0,0,0,0,-1,692,1289,-8.53996,-3.41473
-525,-265,-12.4875,0.931152,0,0,0,0,0,0,0,-1,699,1289,-12.4875,-0.931203
-518,-265,-12.3083,0.881348,0,0,0,0,0,0,0,-1,706,1289,-12.3084,-0.881293
-511,-265,-12.1776,0.822266,-0.0429566,0.00226009,0.00376431,0.00257133,-0.0432678,1.4883,0.0297394,0.0456864,713,1289,-12.1776,-0.822326
-504,-265,-12.2878,0.602905,-0.0509752,0.00136803,0.00608118,0.00206525,-0.0516724,1.45664,0.0351569,0.0480313,720,1289,-12.2878,-0.602905
-497,-265,-12.2601,0.297119,0,0,0,0,0,0,0,-1,727,1289,-12.26,-0.297109
-490,-265,-12.4933,0.593262,0,0,0,0,0,0,0,-1,734,1289,-12.4933,-0.593298
-483,-265,0,0,0,0,0,0,0,0,0,-1,741,1289,0,0
-476,-265,0,0,0,0,0,0,0,0,0,-1,748,1289,0,0
-469,-265,0,0,0,0,0,0,0,0,0,-1,755,1289,0,0
-462,-265,0,0,0,0,0,0,0,0,0,-1,762,1289,0,0
-455,-265,0,0,0,0,0,0,0,0,0,-1,769,1289,0,0
-448,-265,0,0,0,0,0,0,0,0,0,-1,776,1289,0,0
-441,-265,0,0,0,0,0,0,0,0,0,-1,783,1289,0,0
-434,-265,0,0,0,0,0,0,0,0,0,-1,790,1289,0,0
-427,-265,0,0,0,0,0,0,0,0,0,-1,797,1289,0,0
-420,-265,0,0,0,0,0,0,0,0,0,-1,804,1289,0,0
-413,-265,0,0,0,0,0,0,0,0,0,-1,811,1289,0,0
-406,-265,0,0,0,0,0,0,0,0,0,-1,818,1289,0,0
-399,-265,0,0,0,0,0,0,0,0,0,-1,825,1289,0,0
-392,-265,0,0,0,0,0,0,0,0,0,-1,832,1289,0,0
-385,-265,0,0,0,0,0,0,0,0,0,-1,839,1289,0,0
-378,-265,0,0,0,0,0,0,0,0,0,-1,846,1289,0,0
-371,-265,0,0,0,0,0,0,0,0,0,-1,853,1289,0,0
-364,-265,0,0,0,0,0,0,0,0,0,-1,860,1289,0,0
-357,-265,0,0,0,0,0,0,0,0,0,-1,867,1289,0,0
-350,-265,0,0,0,0,0,0,0,0,0,-1,874,1289,0,0
-343,-265,0,0,0,0,0,0,0,0,0,-1,881,1289,0,0
-336,-265,0,0,0,0,0,0,0,0,0,-1,888,1289,0,0
-329,-265,0,0,0,0,0,0,0,0,0,-1,895,1289,0,0
-322,-265,0,0,0,0,0,0,0,0,0,-1,902,1289,0,0
-315,-265,0,0,0,0,0,0,0,0,0,-1,909,1289,0,0
-308,-265,0,0,0,0,0,0,0,0,0,-1,916,1289,0,0
-301,-265,0,0,0,0,0,0,0,0,0,-1,923,1289,0,0
-294,-265,0,0,0,0,0,0,0,0,0,-1,930,1289,0,0
-287,-265,0,0,0,0,0,0,0,0,0,-1,937,1289,0,0
-280,-265,0,0,0,0,0,0,0,0,0,-1,944,1289,0,0
-273,-265,0,0,0,0,0,0,0,0,0,-1,951,1289,0,0
-266,-265,0,0,0,0,0,0,0,0,0,-1,958,1289,0,0
-259,-265,0,0,0,0,0,0,0,0,0,-1,965,1289,0,0
-252,-265,0,0,0,0,0,0,0,0,0,-1,972,1289,0,0
-245,-265,0,0,0,0,0,0,0,0,0,-1,979,1289,0,0
-238,-265,0,0,0,0,0,0,0,0,0,-1,986,1289,0,0
-231,-265,0,0,0,0,0,0,0,0,0,-1,993,1289,0,0
-224,-265,0,0,0,0,0,0,0,0,0,-1,1000,1289,0,0
-217,-265,0,0,0,0,0,0,0,0,0,-1,1007,1289,0,0
-210,-265,0,0,0,0,0,0,0,0,0,-1,1014,1289,0,0
-203,-265,0,0,0,0,0,0,0,0,0,-1,1021,1289,0,0
-196,-265,0,0,0,0,0,0,0,0,0,-1,1028,1289,0,0
-189,-265,0,0,0,0,0,0,0,0,0,-1,1035,1289,0,0
-182,-265,0,0,0,0,0,0,0,0,0,-1,1042,1289,0,0
-175,-265,0,0,0,0,0,0,0,0,0,-1,1049,1289,0,0
-168,-265,0,0,0,0,0,0,0,0,0,-1,1056,1289,0,0
-161,-265,0,0,0,0,0,0,0,0,0,-1,1063,1289,0,0
-154,-265,0,0,0,0,0,0,0,0,0,-1,1070,1289,0,0
-147,-265,0,0,0,0,0,0,0,0,0,-1,1077,1289,0,0
-140,-265,0,0,0,0,0,0,0,0,0,-1,1084,1289,0,0
-133,-265,0,0,0,0,0,0,0,0,0,-1,1091,1289,0,0
-126,-265,0,0,0,0,0,0,0,0,0,-1,1098,1289,0,0
-119,-265,0,0,0,0,0,0,0,0,0,-1,1105,1289,0,0
-112,-265,0,0,0,0,0,0,0,0,0,-1,1112,1289,0,0
-105,-265,0,0,0,0,0,0,0,0,0,-1,1119,1289,0,0
-98,-265,0,0,0,0,0,0,0,0,0,-1,1126,1289,0,0
-91,-265,0,0,0,0,0,0,0,0,0,-1,1133,1289,0,0
-84,-265,0,0,0,0,0,0,0,0,0,-1,1140,1289,0,0
-77,-265,0,0,0,0,0,0,0,0,0,-1,1147,1289,0,0
-70,-265,0,0,0,0,0,0,0,0,0,-1,1154,1289,0,0
-63,-265,0,0,0,0,0,0,0,0,0,-1,1161,1289,0,0
-56,-265,0,0,0,0,0,0,0,0,0,-1,1168,1289,0,0
-49,-265,0,0,0,0,0,0,0,0,0,-1,1175,1289,0,0
-42,-265,0,0,0,0,0,0,0,0,0,-1,1182,1289,0,0
-35,-265,0,0,0,0,0,0,0,0,0,-1,1189,1289,0,0
-28,-265,0,0,0,0,0,0,0,0,0,-1,1196,1289,0,0
-21,-265,0,0,0,0,0,0,0,0,0,-1,1203,1289,0,0
-14,-265,0,0,0,0,0,0,0,0,0,-1,1210,1289,0,0
-7,-265,0,0,0,0,0,0,0,0,0,-1,1217,1289,0,0
0,-265,0,0,0,0,0,0,0,0,0,-1,1224,1289,0,0
7,-265,0,0,0,0,0,0,0,0,0,-1,1231,1289,0,0
14,-265,0,0,0,0,0,0,0,0,0,-1,1238,1289,0,0
21,-265,0,0,0,0,0,0,0,0,0,-1,1245,1289,0,0
28,-265,0,0,0,0,0,0,0,0,0,-1,1252,1289,0,0
35,-265,0,0,0,0,0,0,0,0,0,-1,1259,1289,0,0
42,-265,0,0,0,0,0,0,0,0,0,-1,1266,1289,0,0
49,-265,0,0,0,0,0,0,0,0,0,-1,1273,1289,0,0
56,-265,0,0,0,0,0,0,0,0,0,-1,1280,1289,0,0
63,-265,0,0,0,0,0,0,0,0,0,-1,1287,1289,0,0
70,-265,0,0,0,0,0,0,0,0,0,-1,1294,1289,0,0
77,-265,0,0,0,0,0,0,0,0,0,-1,1301,1289,0,0
84,-265,0,0,0,0,0,0,0,0,0,-1,1308,1289,0,0
91,-265,0,0,0,0,0,0,0,0,0,-1,1315,1289,0,0
98,-265,0,0,0,0,0,0,0,0,0,-1,1322,1289,0,0
105,-265,0,0,0,0,0,0,0,0,0,-1,1329,1289,0,0
112,-265,0,0,0,0,0,0,0,0,0,-1,1336,1289,0,0
119,-265,0,0,0,0,0,0,0,0,0,-1,1343,1289,0,0
126,-265,0,0,0,0,0,0,0,0,0,-1,1350,1289,0,0
133,-265,0,0,0,0,0,0,0,0,0,-1,1357,1289,0,0
140,-265,0,0,0,0,0,0,0,0,0,-1,1364,1289,0,0
147,-265,0,0,0,0,0,0,0,0,0,-1,1371,1289,0,0
154,-265,0,0,0,0,0,0,0,0,0,-1,1378,1289,0,0
161,-265,0,0,0,0,0,0,0,0,0,-1,1385,1289,0,0
168,-265,0,0,0,0,0,0,0,0,0,-1,1392,1289,0,0
175,-265,0,0,0,0,0,0,0,0,0,-1,1399,1289,0,0
182,-265,0,0,0,0,0,0,0,0,0,-1,1406,1289,0,0
189,-265,0,0,0,0,0,0,0,0,0,-1,1413,1289,0,0
196,-265,0,0,0,0,0,0,0,0,0,-1,1420,1289,0,0
203,-265,0,0,0,0,0,0,0,0,0,-1,1427,1289,0,0
210,-265,0,0,0,0,0,0,0,0,0,-1,1434,1289,0,0
217,-265,0,0,0,0,0,0,0,0,0,-1,1441,1289,0,0
224,-265,0,0,0,0,0,0,0,0,0,-1,1448,1289,0,0
231,-265,0,0,0,0,0,0,0,0,0,-1,1455,1289,0,0
238,-265,0,0,0,0,0,0,0,0,0,-1,1462,1289,0,0
245,-265,0,0,0,0,0,0,0,0,0,-1,1469,1289,0,0
252,-265,0,0,0,0,0,0,0,0,0,-1,1476,1289,0,0
259,-265,0,0,0,0,0,0,0,0,0,-1,1483,1289,0,0
266,-265,0,0,0,0,0,0,0,0,0,-1,1490,1289,0,0
273,-265,0,0,0,0,0,0,0,0,0,-1,1497,1289,0,0
280,-265,0,0,0,0,0,0,0,0,0,-1,1504,1289,0,0
287,-265,0,0,0,0,0,0,0,0,0,-1,1511,1289,0,0
294,-265,0,0,0,0,0,0,0,0,0,-1,1518,1289,0,0
301,-265,0,0,0,0,0,0,0,0,0,-1,1525,1289,0,0
308,-265,0,0,0,0,0,0,0,0,0,-1,1532,1289,0,0
315,-265,0,0,0,0,0,0,0,0,0,-1,1539,1289,0,0
322,-265,0,0,0,0,0,0,0,0,0,-1,1546,1289,0,0
329,-265,0,0,0,0,0,0,0,0,0,-1,1553,1289,0,0
336,-265,0,0,0,0,0,0,0,0,0,-1,1560,1289,0,0
343,-265,0,0,0,0,0,0,0,0,0,-1,1567,1289,0,0
350,-265,0,0,0,0,0,0,0,0,0,-1,1574,1289,0,0
357,-265,0,0,0,0,0,0,0,0,0,-1,1581,1289,0,0
364,-265,0,0,0,0,0,0,0,0,0,-1,1588,1289,0,0
371,-265,0,0,0,0,0,0,0,0,0,-1,1595,1289,0,0
378,-265,0,0,0,0,0,0,0,0,0,-1,1602,1289,0,0
385,-265,0,0,0,0,0,0,0,0,0,-1,1609,1289,0,0
392,-265,0,0,0,0,0,0,0,0,0,-1,1616,1289,0,0
399,-265,0,0,0,0,0,0,0,0,0,-1,1623,1289,0,0
406,-265,0,0,0,0,0,0,0,0,0,-1,1630,1289,0,0
413,-265,0,0,0,0,0,0,0,0,0,-1,1637,1289,0,0
420,-265,0,0,0,0,0,0,0,0,0,-1,1644,1289,0,0
427,-265,0,0,0,0,0,0,0,0,0,-1,1651,1289,0,0
434,-265,0,0,0,0,0,0,0,0,0,-1,1658,1289,0,0
441,-265,0,0,0,0,0,0,0,0,0,-1,1665,1289,0,0
448,-265,0,0,0,0,0,0,0,0,0,-1,1672,1289,0,0
455,-265,0,0,0,0,0,0,0,0,0,-1,1679,1289,0,0
462,-265,0,0,0,0,0,0,0,0,0,-1,1686,1289,0,0
469,-265,0,0,0,0,0,0,0,0,0,-1,1693,1289,0,0
476,-265,0,0,0,0,0,0,0,0,0,-1,1700,1289,0,0
483,-265,0,0,0,0,0,0,0,0,0,-1,1707,1289,0,0
490,-265,0,0,0,0,0,0,0,0,0,-1,1714,1289,0,0
497,-265,0,0,0,0,0,0,0,0,0,-1,1721,1289,0,0
504,-265,0,0,0,0,0,0,0,0,0,-1,1728,1289,0,0
511,-265,0,0,0,0,0,0,0,0,0,-1,1735,1289,0,0
518,-265,0,0,0,0,0,0,0,0,0,-1,1742,1289,0,0
525,-265,0,0,0,0,0,0,0,0,0,-1,1749,1289,0,0
532,-265,0,0,0,0,0,0,0,0,0,-1,1756,1289,0,0
539,-265,0,0,0,0,0,0,0,0,0,-1,1763,1289,0,0
546,-265,0,0,0,0,0,0,0,0,0,-1,1770,1289,0,0
553,-265,0,0,0,0,0,0,0,0,0,-1,1777,1289,0,0
560,-265,0,0,0,0,0,0,0,0,0,-1,1784,1289,0,0
567,-265,0,0,0,0,0,0,0,0,0,-1,1791,1289,0,0
574,-265,0,0,0,0,0,0,0,0,0,-1,1798,1289,0,0
581,-265,0,0,0,0,0,0,0,0,0,-1,1805,1289,0,0
588,-265,0,0,0,0,0,0,0,0,0,-1,1812,1289,0,0
595,-265,0,0,0,0,0,0,0,0,0,-1,1819,1289,0,0
602,-265,20.5198,2.79102,0.00137595,0.0145772,-0.0110384,0.0208379,-0.00488474,-1.05486,0.0157744,0.0277023,1826,1289,20.5198,-2.79107
609,-265,20.5134,2.71826,0.00107095,0.0184115,-0.00509365,0.0197971,-0.000314563,-1.30521,0.0133041,0.0290904,1833,1289,20.5134,-2.71826
616,-265,20.5151,2.76648,-0.00206625,0.0219764,0.000243664,0.0219789,-0.00206872,1.56066,0.0153886,0.0355664,1840,1289,20.5151,-2.76645
623,-265,20.4492,2.66687,-0.00601927,0.0235248,0.00468186,0.0242489,-0.00674345,1.41733,0.0188209,0.0476238,1847,1289,20.4492,-2.66687
630,-265,20.4252,2.44055,-0.00964206,0.0229821,0.00779997,0.024751,-0.011411,1.34778,0.0213464,0.0452066,1854,1289,20.4252,-2.44055
637,-265,20.3804,2.43018,-0.0121913,0.0210951,0.00948014,0.0236057,-0.014702,1.31191,0.0223152,0.0457011,1861,1289,20.3804,-2.43018
644,-265,20.3242,2.35986,-0.013524,0.0185759,0.010057,0.0214665,-0.0164146,1.29092,0.0219354,0.0478093,1868,1289,20.3243,-2.35984
651,-265,20.1506,2.08606,-0.0137859,0.0158988,0.0100899,0.0190037,-0.0168908,1.27227,0.0207356,0.0460381,1875,1289,20.1506,-2.08604
658,-265,19.4399,1.97693,-0.0135403,0.0132962,0.00974724,0.0164628,-0.0167069,1.25668,0.0191507,0.0467584,1882,1289,19.4399,-1.97695
665,-265,18.5912,1.93408,0,0,0,0,0,0,0,-1,1889,1289,18.5912,-1.93407
672,-265,16.8068,5.57434,0,0,0,0,0,0,0,-1,1896,1289,16.8067,-5.57433
679,-265,16.7493,5.50818,-0.0102597,0.00576124,0.0067795,0.00824502,-0.0127435,1.21962,0.0122101,0.0370215,1903,1289,16.7493,-5.50821
686,-265,16.7305,5.36646,-0.0093299,0.00366562,0.00546336,0.00565722,-0.0113215,1.22123,0.00998284,0.0149112,1910,1289,16.7304,-5.36645
693,-265,16.7524,5.17847,-0.00784212,0.00226524,0.00445387,0.00394777,-0.00952465,1.2096,0.00799736,0.00981683,1917,1289,16.7525,-5.17843
700,-265,16.7437,4.99976,-0.00490404,0.00154656,0.00332476,0.00295338,-0.00631086,1.17051,0.00546454,0.0104029,1924,1289,16.7436,-4.99971
707,-265,16.7589,4.8219,-0.00209962,0.000299912,0.00140537,0.000947984,-0.0027477,1.13872,0.00221643,0.010019,1931,1289,16.7589,-4.82195
714,-265,16.7483,4.67285,-0.000545313,0.000388054,0.000134665,0.000407095,-0.000564354,1.43033,0.000563311,0.00886932,1938,1289,16.7483,-4.67287
721,-265,16.7432,4.51453,0.00062777,0.0020832,-0.0011722,0.0027352,-2.42336e-05,-1.06319,0.0018316,0.00852037,1945,1289,16.7432,-4.51455
728,-265,16.7336,4.36047,0.00159865,0.00387544,-0.00238772,0.00538226,9.18265e-05,-1.00784,0.00355796,0.0116397,1952,1289,16.7336,-4.36049
735,-265,16.7262,4.198,0.00264463,0.00594155,-0.00381642,0.00845031,0.000135873,-0.989265,0.0055888,0.0155155,1959,1289,16.7262,-4.198
742,-265,16.8008,4.04248,0.00394376,0.00866325,-0.00566072,0.0124364,0.000170636,-0.982878,0.00823463,0.0186296,1966,1289,16.8008,-4.04243
749,-265,16.8541,3.90771,0.00584668,0.012411,-0.00824404,0.0180022,0.00025545,-0.974842,0.0119172,0.0385339,1973,1289,16.8541,-3.90772
756,-265,16.8374,3.68457,0.00877709,0.0176335,-0.0118421,0.0258483,0.000562303,-0.964317,0.0170478,0.0451233,1980,1289,16.8374,-3.68452
763,-265,16.9146,3.41772,0.0131664,0.0248921,-0.0167857,0.0368093,0.0012491,-0.953413,0.024134,0.0458913,1987,1289,16.9146,-3.41767
770,-265,17.5569,3.18201,0.019655,0.0350433,-0.0235595,0.0521332,0.00256513,-0.94323,0.0339327,0.0453777,1994,1289,17.5569,-3.182
777,-265,17.9764,3.17188,0,0,0,0,0,0,0,-1,2001,1289,17.9764,-3.17185
784,-265,0,0,0,0,0,0,0,0,0,-1,2008,1289,0,0
791,-265,0,0,0,0,0,0,0,0,0,-1,2015,1289,0,0
798,-265,0,0,0,0,0,0,0,0,0,-1,2022,1289,0,0
805,-265,0,0,0,0,0,0,0,0,0,-1,2029,1289,0,0
812,-265,0,0,0,0,0,0,0,0,0,-1,2036,1289,0,0
-700,-272,0,0,0,0,0,0,0,0,0,-1,524,1296,0,0
-693,-272,0,0,0,0,0,0,0,0,0,-1,531,1296,0,0
-686,-272,0,0,0,0,0,0,0,0,0,-1,538,1296,0,0
-679,-272,0,0,0,0,0,0,0,0,0,-1,545,1296,0,0
-672,-272,0,0,0,0,0,0,0,0,0,-1,552,1296,0,0
-665,-272,0,0,0,0,0,0,0,0,0,-1,559,1296,0,0
-658,-272,-8.90723,2.21667,0.0507382,0.0749577,-0.013743,0.0811651,0.0445308,-1.14655,0.0469346,0.0454812,566,1296,-8.90723,-2.21668
-651,-272,-8.16791,1.50317,0.0441964,0.0681031,-0.0110453,0.0724249,0.0398746,-1.19783,0.0418857,0.0464461,573,1296,-8.16791,-1.50321
-644,-272,-7.62195,0.924438,0.0377557,0.0601607,-0.00845296,0.062992,0.0349244,-1.24759,0.0364402,0.0474035,580,1296,-7.62193,-0.924424
-637,-272,-7.24921,0.55542,0.0316713,0.0517653,-0.006259,0.0535554,0.0298812,-1.29223,0.0309894,0.0423008,587,1296,-7.24921,-0.555377
-630,-272,-6.96515,-0.592163,0,0,0,0,0,0,0,-1,594,1296,-6.96514,0.592174
-623,-272,-8.72504,1.39758,0.0209742,0.0353968,-0.00304802,0.0360145,0.0203565,-1.37085,0.0208519,0.0420077,601,1296,-8.72503,-1.39764
-616,-272,-8.58215,1.60938,0.0165017,0.0280365,-0.00194211,0.0283547,0.0161834,-1.40839,0.0164251,0.035567,608,1296,-8.58214,-1.60933
-609,-272,-8.41663,1.76184,0.0127547,0.0217791,-0.00111823,0.0219156,0.0126182,-1.44933,0.0127013,0.0191371,615,1296,-8.41663,-1.76183
-602,-272,-8.43073,1.91858,0.00937561,0.0156586,-0.000237938,0.0156676,0.00936662,-1.533,0.00910324,0.012661,622,1296,-8.4307,-1.91854
-595,-272,-8.42108,2.12402,0.00729738,0.0107749,0.000235581,0.0107907,0.00728149,1.50346,0.00635566,0.0101808,629,1296,-8.42111,-2.12396
-588,-272,-8.41113,2.32898,0.00522694,0.00674122,0.000344368,0.00681586,0.00515231,1.35737,0.00410337,0.0101895,636,1296,-8.41112,-2.32897
-581,-272,-8.42474,2.53357,0.00337802,0.00397208,0.000715265,0.00444954,0.00290057,0.982199,0.00260815,0.0104033,643,1296,-8.42473,-2.53358
-574,-272,-8.43036,2.75037,0.00208078,0.00195934,0.000809171,0.00283151,0.00120861,0.74795,0.00164059,0.0152329,650,1296,-8.43034,-2.75042
-567,-272,-8.43341,2.94043,0.000469941,0.000923507,0.000704217,0.00143656,-4.31086e-05,0.941172,0.000972393,0.0207513,657,1296,-8.4334,-2.9404
-560,-272,-8.46918,3.14856,-0.00143047,0.00096587,0.000306087,0.00100435,-0.00146894,1.44574,0.00143633,0.0201756,664,1296,-8.46916,-3.14855
-553,-272,-8.42188,3.35498,-0.00512747,0.00161329,-0.000139268,0.00161616,-0.00513035,-1.55015,0.00406743,0.0142473,671,1296,-8.4219,-3.35502
-546,-272,-8.34344,3.5769,-0.0100927,0.00176214,0.000117467,0.0017633,-0.0100939,1.56089,0.0073875,0.0201744,678,1296,-8.34345,-3.57693
-539,-272,-8.31512,3.82739,0,0,0,0,0,0,0,-1,685,1296,-8.31512,-3.82734
-532,-272,-8.57739,3.36902,0,0,0,0,0,0,0,-1,692,1296,-8.57736,-3.369
-525,-272,-8.6582,3.27734,0,0,0,0,0,0,0,-1,699,1296,-8.65822,-3.27733
-518,-272,-12.3764,0.734985,0,0,0,0,0,0,0,-1,706,1296,-12.3764,-0.735021
-511,-272,-12.2119,0.691895,0,0,0,0,0,0,0,-1,713,1296,-12.2119,-0.691927
-504,-272,-11.9725,0.789185,0,0,0,0,0,0,0,-1,720,1296,-11.9725,-0.789162
-497,-272,-11.2067,-0.0366211,0,0,0,0,0,0,0,-1,727,1296,-11.2067,0.0366772
-490,-272,-12.0151,0.488281,0,0,0,0,0,0,0,-1,734,1296,-12.0152,-0.48825
-483,-272,-12.8236,1.01318,0,0,0,0,0,0,0,-1,741,1296,-12.8236,-1.01318
-476,-272,0,0,0,0,0,0,0,0,0,-1,748,1296,0,0
-469,-272,0,0,0,0,0,0,0,0,0,-1,755,1296,0,0
-462,-272,0,0,0,0,0,0,0,0,0,-1,762,1296,0,0
-455,-272,0,0,0,0,0,0,0,0,0,-1,769,1296,0,0
-448,-272,0,0,0,0,0,0,0,0,0,-1,776,1296,0,0
-441,-272,0,0,0,0,0,0,0,0,0,-1,783,1296,0,0
-434,-272,0,0,0,0,0,0,0,0,0,-1,790,1296,0,0
-427,-272,0,0,0,0,0,0,0,0,0,-1,797,1296,0,0
-420,-272,0,0,0,0,0,0,0,0,0,-1,804,1296,0,0
-413,-272,0,0,0,0,0,0,0,0,0,-1,811,1296,0,0
-406,-272,0,0,0,0,0,0,0,0,0,-1,818,1296,0,0
-399,-272,0,0,0,0,0,0,0,0,0,-1,825,1296,0,0
-392,-272,0,0,0,0,0,0,0,0,0,-1,832,1296,0,0
-385,-272,0,0,0,0,0,0,0,0,0,-1,839,1296,0,0
-378,-272,0,0,0,0,0,0,0,0,0,-1,846,1296,0,0
-371,-272,0,0,0,0,0,0,0,0,0,-1,853,1296,0,0
-364,-272,0,0,0,0,0,0,0,0,0,-1,860,1296,0,0
-357,-272,0,0,0,0,0,0,0,0,0,-1,867,1296,0,0
-350,-272,0,0,0,0,0,0,0,0,0,-1,874,1296,0,0
-343,-272,0,0,0,0,0,0,0,0,0,-1,881,1296,0,0
-336,-272,0,0,0,0,0,0,0,0,0,-1,888,1296,0,0
-329,-272,0,0,0,0,0,0,0,0,0,-1,895,1296,0,0
-322,-272,0,0,0,0,0,0,0,0,0,-1,902,1296,0,0
-315,-272,0,0,0,0,0,0,0,0,0,-1,909,1296,0,0
-308,-272,0,0,0,0,0,0,0,0,0,-1,916,1296,0,0
-301,-272,0,0,0,0,0,0,0,0,0,-1,923,1296,0,0
-294,-272,0,0,0,0,0,0,0,0,0,-1,930,1296,0,0
-287,-272,0,0,0,0,0,0,0,0,0,-1,937,1296,0,0
-280,-272,0,0,0,0,0,0,0,0,0,-1,944,1296,0,0
-273,-272,0,0,0,0,0,0,0,0,0,-1,951,1296,0,0
-266,-272,0,0,0,0,0,0,0,0,0,-1,958,1296,0,0
-259,-272,0,0,0,0,0,0,0,0,0,-1,965,1296,0,0
-252,-272,0,0,0,0,0,0,0,0,0,-1,972,1296,0,0
-245,-272,0,0,0,0,0,0,0,0,0,-1,979,1296,0,0
-238,-272,0,0,0,0,0,0,0,0,0,-1,986,1296,0,0
-231,-272,0,0,0,0,0,0,0,0,0,-1,993,1296,0,0
-224,-272,0,0,0,0,0,0,0,0,0,-1,1000,1296,0,0
-217,-272,0,0,0,0,0,0,0,0,0,-1,1007,1296,0,0
-210,-272,0,0,0,0,0,0,0,0,0,-1,1014,1296,0,0
-203,-272,0,0,0,0,0,0,0,0,0,-1,1021,1296,0,0
-196,-272,0,0,0,0,0,0,0,0,0,-1,1028,1296,0,0
-189,-272,0,0,0,0,0,0,0,0,0,-1,1035,1296,0,0
-182,-272,0,0,0,0,0,0,0,0,0,-1,1042,1296,0,0
-175,-272,0,0,0,0,0,0,0,0,0,-1,1049,1296,0,0
-168,-272,0,0,0,0,0,0,0,0,0,-1,1056,1296,0,0
-161,-272,0,0,0,0,0,0,0,0,0,-1,1063,1296,0,0
-154,-272,0,0,0,0,0,0,0,0,0,-1,1070,1296,0,0
-147,-272,0,0,0,0,0,0,0,0,0,-1,1077,1296,0,0
-140,-272,0,0,0,0,0,0,0,0,0,-1,1084,1296,0,0
-133,-272,0,0,0,0,0,0,0,0,0,-1,1091,1296,0,0
-126,-272,0,0,0,0,0,0,0,0,0,-1,1098,1296,0,0
-119,-272,0,0,0,0,0,0,0,0,0,-1,1105,1296,0,0
-112,-272,0,0,0,0,0,0,0,0,0,-1,1112,1296,0,0
-105,-272,0,0,0,0,0,0,0,0,0,-1,1119,1296,0,0
-98,-272,0,0,0,0,0,0,0,0,0,-1,1126,1296,0,0
-91,-272,0,0,0,0,0,0,0,0,0,-1,1133,1296,0,0
-84,-272,0,0,0,0,0,0,0,0,0,-1,1140,1296,0,0
-77,-272,0,0,0,0,0,0,0,0,0,-1,1147,1296,0,0
-70,-272,0,0,0,0,0,0,0,0,0,-1,1154,1296,0,0
-63,-272,0,0,0,0,0,0,0,0,0,-1,1161,1296,0,0
-56,-272,0,0,0,0,0,0,0,0,0,-1,1168,1296,0,0
-49,-272,0,0,0,0,0,0,0,0,0,-1,1175,1296,0,0
-42,-272,0,0,0,0,0,0,0,0,0,-1,1182,1296,0,0
-35,-272,0,0,0,0,0,0,0,0,0,-1,1189,1296,0,0
-28,-272,0,0,0,0,0,0,0,0,0,-1,1196,1296,0,0
-21,-272,0,0,0,0,0,0,0,0,0,-1,1203,1296,0,0
-14,-272,0,0,0,0,0,0,0,0,0,-1,1210,1296,0,0
-7,-272,0,0,0,0,0,0,0,0,0,-1,1217,1296,0,0
0,-272,0,0,0,0,0,0,0,0,0,-1,1224,1296,0,0
7,-272,0,0,0,0,0,0,0,0,0,-1,1231,1296,0,0
14,-272,0,0,0,0,0,0,0,0,0,-1,1238,1296,0,0
21,-272,0,0,0,0,0,0,0,0,0,-1,1245,1296,0,0
28,-272,0,0,0,0,0,0,0,0,0,-1,1252,1296,0,0
35,-272,0,0,0,0,0,0,0,0,0,-1,1259,1296,0,0
42,-272,0,0,0,0,0,0,0,0,0,-1,1266,1296,0,0
49,-272,0,0,0,0,0,0,0,0,0,-1,1273,1296,0,0
56,-272,0,0,0,0,0,0,0,0,0,-1,1280,1296,0,0
63,-272,0,0,0,0,0,0,0,0,0,-1,1287,1296,0,0
70,-272,0,0,0,0,0,0,0,0,0,-1,1294,1296,0,0
77,-272,0,0,0,0,0,0,0,0,0,-1,1301,1296,0,0
84,-272,0,0,0,0,0,0,0,0,0,-1,1308,1296,0,0
91,-272,0,0,0,0,0,0,0,0,0,-1,1315,1296,0,0
98,-272,0,0,0,0,0,0,0,0,0,-1,1322,1296,0,0
105,-272,0,0,0,0,0,0,0,0,0,-1,1329,1296,0,0
112,-272,0,0,0,0,0,0,0,0,0,-1,1336,1296,0,0
119,-272,0,0,0,0,0,0,0,0,0,-1,1343,1296,0,0
126,-272,0,0,0,0,0,0,0,0,0,-1,1350,1296,0,0
133,-272,0,0,0,0,0,0,0,0,0,-1,1357,1296,0,0
140,-272,0,0,0,0,0,0,0,0,0,-1,1364,1296,0,0
147,-272,0,0,0,0,0,0,0,0,0,-1,1371,1296,0,0
154,-272,0,0,0,0,0,0,0,0,0,-1,1378,1296,0,0
161,-272,0,0,0,0,0,0,0,0,0,-1,1385,1296,0,0
168,-272,0,0,0,0,0,0,0,0,0,-1,1392,1296,0,0
175,-272,0,0,0,0,0,0,0,0,0,-1,1399,1296,0,0
182,-272,0,0,0,0,0,0,0,0,0,-1,1406,1296,0,0
189,-272,0,0,0,0,0,0,0,0,0,-1,1413,1296,0,0
196,-272,0,0,0,0,0,0,0,0,0,-1,1420,1296,0,0
203,-272,0,0,0,0,0,0,0,0,0,-1,1427,1296,0,0
210,-272,0,0,0,0,0,0,0,0,0,-1,1434,1296,0,0
217,-272,0,0,0,0,0,0,0,0,0,-1,1441,1296,0,0
224,-272,0,0,0,0,0,0,0,0,0,-1,1448,1296,0,0
231,-272,0,0,0,0,0,0,0,0,0,-1,1455,1296,0,0
238,-272,0,0,0,0,0,0,0,0,0,-1,1462,1296,0,0
245,-272,0,0,0,0,0,0,0,0,0,-1,1469,1296,0,0
252,-272,0,0,0,0,0,0,0,0,0,-1,1476,1296,0,0
259,-272,0,0,0,0,0,0,0,0,0,-1,1483,1296,0,0
266,-272,0,0,0,0,0,0,0,0,0,-1,1490,1296,0,0
273,-272,0,0,0,0,0,0,0,0,0,-1,1497,1296,0,0
280,-272,0,0,0,0,0,0,0,0,0,-1,1504,1296,0,0
287,-272,0,0,0,0,0,0,0,0,0,-1,1511,1296,0,0
294,-272,0,0,0,0,0,0,0,0,0,-1,1518,1296,0,0
301,-272,0,0,0,0,0,0,0,0,0,-1,1525,1296,0,0
308,-272,0,0,0,0,0,0,0,0,0,-1,1532,1296,0,0
315,-272,0,0,0,0,0,0,0,0,0,-1,1539,1296,0,0
322,-272,0,0,0,0,0,0,0,0,0,-1,1546,1296,0,0
329,-272,0,0,0,0,0,0,0,0,0,-1,1553,1296,0,0
336,-272,0,0,0,0,0,0,0,0,0,-1,1560,1296,0,0
343,-272,0,0,0,0,0,0,0,0,0,-1,1567,1296,0,0
350,-272,0,0,0,0,0,0,0,0,0,-1,1574,1296,0,0
357,-272,0,0,0,0,0,0,0,0,0,-1,1581,1296,0,0
364,-272,0,0,0,0,0,0,0,0,0,-1,1588,1296,0,0
371,-272,0,0,0,0,0,0,0,0,0,-1,1595,1296,0,0
378,-272,0,0,0,0,0,0,0,0,0,-1,1602,1296,0,0
385,-272,0,0,0,0,0,0,0,0,0,-1,1609,1296,0,0
392,-272,0,0,0,0,0,0,0,0,0,-1,1616,1296,0,0
399,-272,0,0,0,0,0,0,0,0,0,-1,1623,1296,0,0
406,-272,0,0,0,0,0,0,0,0,0,-1,1630,1296,0,0
413,-272,0,0,0,0,0,0,0,0,0,-1,1637,1296,0,0
420,-272,0,0,0,0,0,0,0,0,0,-1,1644,1296,0,0
427,-272,0,0,0,0,0,0,0,0,0,-1,1651,1296,0,0
434,-272,0,0,0,0,0,0,0,0,0,-1,1658,1296,0,0
441,-272,0,0,0,0,0,0,0,0,0,-1,1665,1296,0,0
448,-272,0,0,0,0,0,0,0,0,0,-1,1672,1296,0,0
455,-272,0,0,0,0,0,0,0,0,0,-1,1679,1296,0,0
462,-272,0,0,0,0,0,0,0,0,0,-1,1686,1296,0,0
469,-272,0,0,0,0,0,0,0,0,0,-1,1693,1296,0,0
476,-272,0,0,0,0,0,0,0,0,0,-1,1700,1296,0,0
483,-272,0,0,0,0,0,0,0,0,0,-1,1707,1296,0,0
490,-272,0,0,0,0,0,0,0,0,0,-1,1714,1296,0,0
497,-272,0,0,0,0,0,0,0,0,0,-1,1721,1296,0,0
504,-272,0,0,0,0,0,0,0,0,0,-1,1728,1296,0,0
511,-272,0,0,0,0,0,0,0,0,0,-1,1735,1296,0,0
518,-272,0,0,0,0,0,0,0,0,0,-1,1742,1296,0,0
525,-272,0,0,0,0,0,0,0,0,0,-1,1749,1296,0,0
532,-272,0,0,0,0,0,0,0,0,0,-1,1756,1296,0,0
539,-272,0,0,0,0,0,0,0,0,0,-1,1763,1296,0,0
546,-272,0,0,0,0,0,0,0,0,0,-1,1770,1296,0,0
553,-272,0,0,0,0,0,0,0,0,0,-1,1777,1296,0,0
560,-272,0,0,0,0,0,0,0,0,0,-1,1784,1296,0,0
567,-272,0,0,0,0,0,0,0,0,0,-1,1791,1296,0,0
574,-272,0,0,0,0,0,0,0,0,0,-1,1798,1296,0,0
581,-272,0,0,0,0,0,0,0,0,0,-1,1805,1296,0,0
588,-272,0,0,0,0,0,0,0,0,0,-1,1812,1296,0,0
595,-272,0,0,0,0,0,0,0,0,0,-1,1819,1296,0,0
602,-272,20.4512,2.72363,-0.00180911,0.019984,-0.0104801,0.0242058,-0.00603097,-1.18784,0.0184786,0.0322209,1826,1296,20.4512,-2.72358
609,-272,20.3894,2.60938,-0.00247519,0.024414,-0.00358525,0.0248838,-0.00294501,-1.44049,0.0176529,0.0383744,1833,1296,20.3894,-2.60938
616,-272,20.4543,2.54712,-0.00565992,0.027254,0.00222645,0.027404,-0.00580984,1.50356,0.0204824,0.044112,1840,1296,20.4544,-2.54711
623,-272,19.9979,2.81799,-0.00940399,0.0275672,0.00671149,0.0287479,-0.0105846,1.39666,0.0235019,0.0427259,1847,1296,19.9979,-2.81798
630,-272,20.0203,2.32153,-0.0126127,0.0258738,0.00959602,0.0281337,-0.0148727,1.33951,0.0252201,0.0451965,1854,1296,20.0202,-2.32159
637,-272,20.259,1.87378,-0.0147842,0.0231261,0.0110182,0.0260958,-0.0177539,1.30753,0.0254689,0.0442116,1861,1296,20.259,-1.8738
644,-272,20.5166,1.05737,-0.0158646,0.0199756,0.0113795,0.0232834,-0.0191724,1.28791,0.0245501,0.0481862,1868,1296,20.5166,-1.05734
651,-272,19.2938,1.62585,-0.0158672,0.0169049,0.0112794,0.0204118,-0.0193741,1.26936,0.022973,0.0490977,1875,1296,19.2938,-1.62589
658,-272,18.5065,1.43372,0,0,0,0,0,0,0,-1,1882,1296,18.5064,-1.43368
665,-272,17.4078,3.08142,0,0,0,0,0,0,0,-1,1889,1296,17.4079,-3.08142
672,-272,16.4594,5.47107,0,0,0,0,0,0,0,-1,1896,1296,16.4594,-5.47109
679,-272,16.5656,5.47058,-0.0117378,0.00566443,0.00727456,0.00830477,-0.0143782,1.22263,0.0132516,0.0285825,1903,1296,16.5655,-5.47053
686,-272,16.5609,5.36401,-0.0105531,0.00348855,0.00570766,0.00551589,-0.0125805,1.2295,0.01071,0.0138946,1910,1296,16.561,-5.36403
693,-272,16.5765,5.19128,-0.0086714,0.00217638,0.00451503,0.00380969,-0.0103047,1.22369,0.00843165,0.0109477,1917,1296,16.5766,-5.19124
700,-272,16.5692,5.02185,-0.00522892,0.00173887,0.00323823,0.00301141,-0.00650146,1.19636,0.00561412,0.0109032,1924,1296,16.5693,-5.0218
707,-272,16.5771,4.84155,-0.00203534,0.000614865,0.00116119,0.00105166,-0.00247213,1.21101,0.00208883,0.0106279,1931,1296,16.5771,-4.8416
714,-272,16.5704,4.672,-0.000182998,0.000931475,-0.000239795,0.000980881,-0.000232403,-1.36761,0.000743594,0.010029,1938,1296,16.5705,-4.67199
721,-272,16.5703,4.51196,0.00129773,0.00271989,-0.00169079,0.00384304,0.000174577,-0.98445,0.00250586,0.0112198,1945,1296,16.5704,-4.51201
728,-272,16.5659,4.34766,0.00255802,0.00459581,-0.00306555,0.00680736,0.000346474,-0.945839,0.00442727,0.0138652,1952,1296,16.5659,-4.34764
735,-272,16.5884,4.18677,0.00392407,0.00678946,-0.00468368,0.0102547,0.000458862,-0.933824,0.00668874,0.0135518,1959,1296,16.5883,-4.18671
742,-272,16.6145,3.98035,0.00564416,0.00970761,-0.00680328,0.0147761,0.000575707,-0.930502,0.00966452,0.02304,1966,1296,16.6144,-3.98034
749,-272,16.6594,3.78333,0.00810659,0.0137314,-0.00976377,0.0210797,0.000758246,-0.925625,0.0138074,0.0420227,1973,1296,16.6594,-3.78337
756,-272,16.7667,3.60938,0,0,0,0,0,0,0,-1,1980,1296,16.7668,-3.6094
763,-272,16.905,3.05652,0,0,0,0,0,0,0,-1,1987,1296,16.905,-3.05649
770,-272,17.5269,2.14893,0,0,0,0,0,0,0,-1,1994,1296,17.5268,-2.14887
777,-272,17.4362,2.71716,0,0,0,0,0,0,0,-1,2001,1296,17.4362,-2.71721
784,-272,0,0,0,0,0,0,0,0,0,-1,2008,1296,0,0
791,-272,0,0,0,0,0,0,0,0,0,-1,2015,1296,0,0
798,-272,0,0,0,0,0,0,0,0,0,-1,2022,1296,0,0
805,-272,0,0,0,0,0,0,0,0,0,-1,2029,1296,0,0
812,-272,0,0,0,0,0,0,0,0,0,-1,2036,1296,0,0
-700,-279,0,0,0,0,0,0,0,0,0,-1,524,1303,0,0
-693,-279,0,0,0,0,0,0,0,0,0,-1,531,1303,0,0
-686,-279,0,0,0,0,0,0,0,0,0,-1,538,1303,0,0
-679,-279,0,0,0,0,0,0,0,0,0,-1,545,1303,0,0
-672,-279,0,0,0,0,0,0,0,0,0,-1,552,1303,0,0
-665,-279,0,0,0,0,0,0,0,0,0,-1,559,1303,0,0
-658,-279,-8.70209,1.23279,0.0538411,0.0962234,-0.00658964,0.0972243,0.0528401,-1.42005,0.0562032,0.0457567,566,1303,-8.70208,-1.23281
-651,-279,-8.14343,0.778564,0.048982,0.0863321,-0.00471434,0.086918,0.0483961,-1.44716,0.0502899,0.0432996,573,1303,-8.14346,-0.778553
-644,-279,-7.51678,0.808472,0.0433219,0.0757767,-0.00297663,0.0760475,0.0430512,-1.48009,0.0440338,0.0435186,580,1303,-7.51679,-0.808428
-637,-279,-7.00934,0.568481,0.0373894,0.0649728,-0.00168481,0.0650754,0.0372869,-1.51002,0.0377044,0.0416658,587,1303,-7.00934,-0.568455
-630,-279,-9.07611,1.16882,0.0314968,0.0543465,-0.000788138,0.0543736,0.0314696,-1.53636,0.0315222,0.0453825,594,1303,-9.07609,-1.16882
-623,-279,-8.77411,1.27283,0.0258193,0.0442893,-0.000183,0.0442911,0.0258175,-1.56089,0.0256884,0.0422836,601,1303,-8.77408,-1.27279
-616,-279,-8.58978,1.41211,0.0205609,0.0350604,0.000212837,0.0350636,0.0205578,1.55612,0.0203442,0.0401763,608,1303,-8.58977,-1.41213
-609,-279,-8.32202,1.63989,0.0159131,0.0271151,0.000446274,0.0271329,0.0158954,1.53104,0.0157419,0.0290532,615,1303,-8.322,-1.63988
-602,-279,-8.22858,1.91748,0.0116628,0.0196015,0.000900249,0.0197023,0.011562,1.45928,0.0114322,0.0117013,622,1303,-8.22858,-1.91747
-595,-279,-8.22455,2.12585,0.00895682,0.0135094,0.0009654,0.0137057,0.00876056,1.37024,0.00801453,0.0094805,629,1303,-8.22457,-2.12586
-588,-279,-8.20746,2.33679,0.00621937,0.00859269,0.000638198,0.00875342,0.00605864,1.32408,0.00517668,0.0104088,636,1303,-8.20746,-2.33685
-581,-279,-8.20984,2.5144,0.00374301,0.00486834,0.000809385,0.00529142,0.00331993,1.08914,0.00308789,0.0120992,643,1303,-8.20984,-2.51446
-574,-279,-8.22778,2.7146,0.00210916,0.00198546,0.000824897,0.00287452,0.0012201,0.747981,0.00166591,0.0119065,650,1303,-8.22779,-2.71462
-567,-279,-8.22833,2.92578,0.0006161,0.000325239,0.000624813,0.00111218,-0.000170846,0.671055,0.000804475,0.0151687,657,1303,-8.22833,-2.92574
-560,-279,-8.22858,3.14221,-0.000958937,-2.56773e-05,0.000149104,-2.43442e-06,-0.00098218,1.41616,0.000653977,0.0153043,664,1303,-8.22856,-3.1422
-553,-279,-8.20288,3.35352,-0.00445826,0.000425596,-0.000348596,0.000450353,-0.00448302,-1.4999,0.00314955,0.0114824,671,1303,-8.20287,-3.35351
-546,-279,-8.18457,3.56958,-0.00936929,0.000352187,-6.78831e-05,0.000352661,-0.00936976,-1.56381,0.00636732,0.0140222,678,1303,-8.18459,-3.56954
-539,-279,-8.12463,3.82495,-0.0151218,0.000398653,0.000586156,0.000420759,-0.0151439,1.5331,0.010239,0.0459466,685,1303,-8.12466,-3.82501
-532,-279,-8.05499,4.07251,0,0,0,0,0,0,0,-1,692,1303,-8.05499,-4.07256
-525,-279,-7.66394,3.2821,0,0,0,0,0,0,0,-1,699,1303,-7.66397,-3.28215
-518,-279,-10.8155,0.201416,0,0,0,0,0,0,0,-1,706,1303,-10.8155,-0.201427
-511,-279,-12.2578,0.55481,0,0,0,0,0,0,0,-1,713,1303,-12.2578,-0.554863
-504,-279,-10.3605,-0.170898,-0.0490699,-0.0042772,0.00628545,-0.00341192,-0.0499352,1.43399,0.0322131,0.0496678,720,1303,-10.3605,0.170935
-497,-279,-11.1002,0.0767822,-0.0550806,-0.00744438,0.00959028,-0.00558612,-0.0569388,1.3794,0.036241,0.0445247,727,1303,-11.1002,-0.0768112
-490,-279,-11.8282,0.549927,-0.0580875,-0.0130364,0.014766,-0.00862801,-0.0624958,1.28067,0.0391064,0.0437986,734,1303,-11.8282,-0.549913
-483,-279,-12.6452,1.08447,0,0,0,0,0,0,0,-1,741,1303,-12.6452,-1.08448
-476,-279,0,0,0,0,0,0,0,0,0,-1,748,1303,0,0
-469,-279,0,0,0,0,0,0,0,0,0,-1,755,1303,0,0
-462,-279,0,0,0,0,0,0,0,0,0,-1,762,1303,0,0
-455,-279,0,0,0,0,0,0,0,0,0,-1,769,1303,0,0
-448,-279,0,0,0,0,0,0,0,0,0,-1,776,1303,0,0
-441,-279,0,0,0,0,0,0,0,0,0,-1,783,1303,0,0
-434,-279,0,0,0,0,0,0,0,0,0,-1,790,1303,0,0
-427,-279,0,0,0,0,0,0,0,0,0,-1,797,1303,0,0
-420,-279,0,0,0,0,0,0,0,0,0,-1,804,1303,0,0
-413,-279,0,0,0,0,0,0,0,0,0,-1,811,1303,0,0
-406,-279,0,0,0,0,0,0,0,0,0,-1,818,1303,0,0
-399,-279,0,0,0,0,0,0,0,0,0,-1,825,1303,0,0
-392,-279,0,0,0,0,0,0,0,0,0,-1,832,1303,0,0
-385,-279,0,0,0,0,0,0,0,0,0,-1,839,1303,0,0
-378,-279,0,0,0,0,0,0,0,0,0,-1,846,1303,0,0
-371,-279,0,0,0,0,0,0,0,0,0,-1,853,1303,0,0
-364,-279,0,0,0,0,0,0,0,0,0,-1,860,1303,0,0
-357,-279,0,0,0,0,0,0,0,0,0,-1,867,1303,0,0
-350,-279,0,0,0,0,0,0,0,0,0,-1,874,1303,0,0
-343,-279,0,0,0,0,0,0,0,0,0,-1,881,1303,0,0
-336,-279,0,0,0,0,0,0,0,0,0,-1,888,1303,0,0
-329,-279,0,0,0,0,0,0,0,0,0,-1,895,1303,0,0
-322,-279,0,0,0,0,0,0,0,0,0,-1,902,1303,0,0
-315,-279,0,0,0,0,0,0,0,0,0,-1,909,1303,0,0
-308,-279,0,0,0,0,0,0,0,0,0,-1,916,1303,0,0
-301,-279,0,0,0,0,0,0,0,0,0,-1,923,1303,0,0
-294,-279,0,0,0,0,0,0,0,0,0,-1,930,1303,0,0
-287,-279,0,0,0,0,0,0,0,0,0,-1,937,1303,0,0
-280,-279,0,0,0,0,0,0,0,0,0,-1,944,1303,0,0
-273,-279,0,0,0,0,0,0,0,0,0,-1,951,1303,0,0
-266,-279,0,0,0,0,0,0,0,0,0,-1,958,1303,0,0
-259,-279,0,0,0,0,0,0,0,0,0,-1,965,1303,0,0
-252,-279,0,0,0,0,0,0,0,0,0,-1,972,1303,0,0
-245,-279,0,0,0,0,0,0,0,0,0,-1,979,1303,0,0
-238,-279,0,0,0,0,0,0,0,0,0,-1,986,1303,0,0
-231,-279,0,0,0,0,0,0,0,0,0,-1,993,1303,0,0
-224,-279,0,0,0,0,0,0,0,0,0,-1,1000,1303,0,0
-217,-279,0,0,0,0,0,0,0,0,0,-1,1007,1303,0,0
-210,-279,0,0,0,0,0,0,0,0,0,-1,1014,1303,0,0
-203,-279,0,0,0,0,0,0,0,0,0,-1,1021,1303,0,0
-196,-279,0,0,0,0,0,0,0,0,0,-1,1028,1303,0,0
-189,-279,0,0,0,0,0,0,0,0,0,-1,1035,1303,0,0
-182,-279,0,0,0,0,0,0,0,0,0,-1,1042,1303,0,0
-175,-279,0,0,0,0,0,0,0,0,0,-1,1049,1303,0,0
-168,-279,0,0,0,0,0,0,0,0,0,-1,1056,1303,0,0
-161,-279,0,0,0,0,0,0,0,0,0,-1,1063,1303,0,0
-154,-279,0,0,0,0,0,0,0,0,0,-1,1070,1303,0,0
-147,-279,0,0,0,0,0,0,0,0,0,-1,1077,1303,0,0
-140,-279,0,0,0,0,0,0,0,0,0,-1,1084,1303,0,0
-133,-279,0,0,0,0,0,0,0,0,0,-1,1091,1303,0,0
-126,-279,0,0,0,0,0,0,0,0,0,-1,1098,1303,0,0
-119,-279,0,0,0,0,0,0,0,0,0,-1,1105,1303,0,0
-112,-279,0,0,0,0,0,0,0,0,0,-1,1112,1303,0,0
-105,-279,0,0,0,0,0,0,0,0,0,-1,1119,1303,0,0
-98,-279,0,0,0,0,0,0,0,0,0,-1,1126,1303,0,0
-91,-279,0,0,0,0,0,0,0,0,0,-1,1133,1303,0,0
-84,-279,0,0,0,0,0,0,0,0,0,-1,1140,1303,0,0
-77,-279,0,0,0,0,0,0,0,0,0,-1,1147,1303,0,0
-70,-279,0,0,0,0,0,0,0,0,0,-1,1154,1303,0,0
-63,-279,0,0,0,0,0,0,0,0,0,-1,1161,1303,0,0
-56,-279,0,0,0,0,0,0,0,0,0,-1,1168,1303,0,0
-49,-279,0,0,0,0,0,0,0,0,0,-1,1175,1303,0,0
-42,-279,0,0,0,0,0,0,0,0,0,-1,1182,1303,0,0
-35,-279,0,0,0,0,0,0,0,0,0,-1,1189,1303,0,0
-28,-279,0,0,0,0,0,0,0,0,0,-1,1196,1303,0,0
-21,-279,0,0,0,0,0,0,0,0,0,-1,1203,1303,0,0
-14,-279,0,0,0,0,0,0,0,0,0,-1,1210,1303,0,0
-7,-279,0,0,0,0,0,0,0,0,0,-1,1217,1303,0,0
0,-279,0,0,0,0,0,0,0,0,0,-1,1224,1303,0,0
7,-279,0,0,0,0,0,0,0,0,0,-1,1231,1303,0,0
14,-279,0,0,0,0,0,0,0,0,0,-1,1238,1303,0,0
21,-279,0,0,0,0,0,0,0,0,0,-1,1245,1303,0,0
28,-279,0,0,0,0,0,0,0,0,0,-1,1252,1303,0,0
35,-279,0,0,0,0,0,0,0,0,0,-1,1259,1303,0,0
42,-279,0,0,0,0,0,0,0,0,0,-1,1266,1303,0,0
49,-279,0,0,0,0,0,0,0,0,0,-1,1273,1303,0,0
56,-279,0,0,0,0,0,0,0,0,0,-1,1280,1303,0,0
63,-279,0,0,0,0,0,0,0,0,0,-1,1287,1303,0,0
70,-279,0,0,0,0,0,0,0,0,0,-1,1294,1303,0,0
77,-279,0,0,0,0,0,0,0,0,0,-1,1301,1303,0,0
84,-279,0,0,0,0,0,0,0,0,0,-1,1308,1303,0,0
91,-279,0,0,0,0,0,0,0,0,0,-1,1315,1303,0,0
98,-279,0,0,0,0,0,0,0,0,0,-1,1322,1303,0,0
105,-279,0,0,0,0,0,0,0,0,0,-1,1329,1303,0,0
112,-279,0,0,0,0,0,0,0,0,0,-1,1336,1303,0,0
119,-279,0,0,0,0,0,0,0,0,0,-1,1343,1303,0,0
126,-279,0,0,0,0,0,0,0,0,0,-1,1350,1303,0,0
133,-279,0,0,0,0,0,0,0,0,0,-1,1357,1303,0,0
140,-279,0,0,0,0,0,0,0,0,0,-1,1364,1303,0,0
147,-279,0,0,0,0,0,0,0,0,0,-1,1371,1303,0,0
154,-279,0,0,0,0,0,0,0,0,0,-1,1378,1303,0,0
161,-279,0,0,0,0,0,0,0,0,0,-1,1385,1303,0,0
168,-279,0,0,0,0,0,0,0,0,0,-1,1392,1303,0,0
175,-279,0,0,0,0,0,0,0,0,0,-1,1399,1303,0,0
182,-279,0,0,0,0,0,0,0,0,0,-1,1406,1303,0,0
189,-279,0,0,0,0,0,0,0,0,0,-1,1413,1303,0,0
196,-279,0,0,0,0,0,0,0,0,0,-1,1420,1303,0,0
203,-279,0,0,0,0,0,0,0,0,0,-1,1427,1303,0,0
210,-279,0,0,0,0,0,0,0,0,0,-1,1434,1303,0,0
217,-279,0,0,0,0,0,0,0,0,0,-1,1441,1303,0,0
224,-279,0,0,0,0,0,0,0,0,0,-1,1448,1303,0,0
231,-279,0,0,0,0,0,0,0,0,0,-1,1455,1303,0,0
238,-279,0,0,0,0,0,0,0,0,0,-1,1462,1303,0,0
245,-279,0,0,0,0,0,0,0,0,0,-1,1469,1303,0,0
252,-279,0,0,0,0,0,0,0,0,0,-1,1476,1303,0,0
259,-279,0,0,0,0,0,0,0,0,0,-1,1483,1303,0,0
266,-279,0,0,0,0,0,0,0,0,0,-1,1490,1303,0,0
273,-279,0,0,0,0,0,0,0,0,0,-1,1497,1303,0,0
280,-279,0,0,0,0,0,0,0,0,0,-1,1504,1303,0,0
287,-279,0,0,0,0,0,0,0,0,0,-1,1511,1303,0,0
294,-279,0,0,0,0,0,0,0,0,0,-1,1518,1303,0,0
301,-279,0,0,0,0,0,0,0,0,0,-1,1525,1303,0,0
308,-279,0,0,0,0,0,0,0,0,0,-1,1532,1303,0,0
315,-279,0,0,0,0,0,0,0,0,0,-1,1539,1303,0,0
322,-279,0,0,0,0,0,0,0,0,0,-1,1546,1303,0,0
329,-279,0,0,0,0,0,0,0,0,0,-1,1553,1303,0,0
336,-279,0,0,0,0,0,0,0,0,0,-1,1560,1303,0,0
343,-279,0,0,0,0,0,0,0,0,0,-1,1567,1303,0,0
350,-279,0,0,0,0,0,0,0,0,0,-1,1574,1303,0,0
357,-279,0,0,0,0,0,0,0,0,0,-1,1581,1303,0,0
364,-279,0,0,0,0,0,0,0,0,0,-1,1588,1303,0,0
371,-279,0,0,0,0,0,0,0,0,0,-1,1595,1303,0,0
378,-279,0,0,0,0,0,0,0,0,0,-1,1602,1303,0,0
385,-279,0,0,0,0,0,0,0,0,0,-1,1609,1303,0,0
392,-279,0,0,0,0,0,0,0,0,0,-1,1616,1303,0,0
399,-279,0,0,0,0,0,0,0,0,0,-1,1623,1303,0,0
406,-279,0,0,0,0,0,0,0,0,0,-1,1630,1303,0,0
413,-279,0,0,0,0,0,0,0,0,0,-1,1637,1303,0,0
420,-279,0,0,0,0,0,0,0,0,0,-1,1644,1303,0,0
427,-279,0,0,0,0,0,0,0,0,0,-1,1651,1303,0,0
434,-279,0,0,0,0,0,0,0,0,0,-1,1658,1303,0,0
441,-279,0,0,0,0,0,0,0,0,0,-1,1665,1303,0,0
448,-279,0,0,0,0,0,0,0,0,0,-1,1672,1303,0,0
455,-279,0,0,0,0,0,0,0,0,0,-1,1679,1303,0,0
462,-279,0,0,0,0,0,0,0,0,0,-1,1686,1303,0,0
469,-279,0,0,0,0,0,0,0,0,0,-1,1693,1303,0,0
476,-279,0,0,0,0,0,0,0,0,0,-1,1700,1303,0,0
483,-279,0,0,0,0,0,0,0,0,0,-1,1707,1303,0,0
490,-279,0,0,0,0,0,0,0,0,0,-1,1714,1303,0,0
497,-279,0,0,0,0,0,0,0,0,0,-1,1721,1303,0,0
504,-279,0,0,0,0,0,0,0,0,0,-1,1728,1303,0,0
511,-279,0,0,0,0,0,0,0,0,0,-1,1735,1303,0,0
518,-279,0,0,0,0,0,0,0,0,0,-1,1742,1303,0,0
525,-279,0,0,0,0,0,0,0,0,0,-1,1749,1303,0,0
532,-279,0,0,0,0,0,0,0,0,0,-1,1756,1303,0,0
539,-279,0,0,0,0,0,0,0,0,0,-1,1763,1303,0,0
546,-279,0,0,0,0,0,0,0,0,0,-1,1770,1303,0,0
553,-279,0,0,0,0,0,0,0,0,0,-1,1777,1303,0,0
560,-279,0,0,0,0,0,0,0,0,0,-1,1784,1303,0,0
567,-279,0,0,0,0,0,0,0,0,0,-1,1791,1303,0,0
574,-279,0,0,0,0,0,0,0,0,0,-1,1798,1303,0,0
581,-279,0,0,0,0,0,0,0,0,0,-1,1805,1303,0,0
588,-279,0,0,0,0,0,0,0,0,0,-1,1812,1303,0,0
595,-279,0,0,0,0,0,0,0,0,0,-1,1819,1303,0,0
602,-279,20.4014,2.61401,-0.00489751,0.0266779,-0.00938619,0.0292573,-0.00747695,-1.3026,0.0224168,0.0425032,1826,1303,20.4014,-2.61401
609,-279,20.3094,2.38293,-0.0059182,0.0305269,-0.00183094,0.0306187,-0.00600995,-1.52073,0.0226827,0.0474367,1833,1303,20.3094,-2.38288
616,-279,20.4177,2.31775,-0.00893052,0.0318666,0.00410442,0.0322754,-0.00933935,1.47152,0.0252134,0.0452223,1840,1303,20.4178,-2.31779
623,-279,18.9021,2.5824,0,0,0,0,0,0,0,-1,1847,1303,18.9021,-2.58235
630,-279,19.3302,2.10144,-0.0148205,0.0277137,0.0109866,0.030384,-0.0174907,1.33238,0.0279726,0.04658,1854,1303,19.3302,-2.10139
637,-279,19.8677,1.55054,-0.0165778,0.0241215,0.0121882,0.0274923,-0.0199487,1.30098,0.0275053,0.0449973,1861,1303,19.8677,-1.55052
644,-279,19.5245,1.12024,-0.0174273,0.0203791,0.0123929,0.0240794,-0.0211275,1.28065,0.0261187,0.0481487,1868,1303,19.5245,-1.12029
651,-279,18.4034,1.36133,-0.0172323,0.0169584,0.0122216,0.0208778,-0.0211517,1.26047,0.0242659,0.0481255,1875,1303,18.4034,-1.36138
658,-279,17.1133,1.62988,0,0,0,0,0,0,0,-1,1882,1303,17.1133,-1.62984
665,-279,17.2278,5.7373,0,0,0,0,0,0,0,-1,1889,1303,17.2278,-5.73736
672,-279,16.5856,5.37183,-0.0148502,0.00828756,0.0097808,0.011868,-0.0184307,1.21988,0.0176292,0.0435556,1896,1303,16.5855,-5.37178
679,-279,16.4425,5.61108,-0.0126055,0.00482783,0.00751059,0.00761722,-0.0153949,1.21519,0.0135366,0.0282619,1903,1303,16.4425,-5.61105
686,-279,16.415,5.39734,-0.0111278,0.00273544,0.00567766,0.00476391,-0.0131563,1.22766,0.0107177,0.0211357,1910,1303,16.4151,-5.39735
693,-279,16.3937,5.19214,-0.00886707,0.00169938,0.00430279,0.00322986,-0.0103975,1.22906,0.00822255,0.0158482,1917,1303,16.3937,-5.19219
700,-279,16.3965,5.03162,-0.00507939,0.00171762,0.00289151,0.00278125,-0.00614302,1.21831,0.00527288,0.010722,1924,1303,16.3965,-5.03161
707,-279,16.3749,4.85498,-0.00170717,0.000941344,0.000730953,0.00112968,-0.00189551,1.31862,0.00176515,0.00861844,1931,1303,16.3749,-4.85495
714,-279,16.3668,4.67139,0.000307423,0.00159625,-0.000773182,0.00195836,-5.46821e-05,-1.1328,0.00132417,0.01003,1938,1303,16.3668,-4.67142
721,-279,16.3843,4.495,0.00199346,0.00351382,-0.00234601,0.00521974,0.000287537,-0.942076,0.00338805,0.0123853,1945,1303,16.3843,-4.49504
728,-279,16.4003,4.32483,0.00347463,0.0054935,-0.00386859,0.00848218,0.000485946,-0.913018,0.00549997,0.0131714,1952,1303,16.4002,-4.3248
735,-279,16.4111,4.17285,0.00514747,0.00782518,-0.00567861,0.0123206,0.000652019,-0.90117,0.00800527,0.0126863,1959,1303,16.4111,-4.17285
742,-279,16.3724,3.91846,0.00731427,0.0109228,-0.00807153,0.0173893,0.000847811,-0.895358,0.0113208,0.0239636,1966,1303,16.3724,-3.91852
749,-279,16.4113,3.60193,0.0103708,0.0151654,-0.0113791,0.024397,0.0011392,-0.889218,0.0158986,0.0425143,1973,1303,16.4112,-3.60189
756,-279,16.5332,3.29993,0,0,0,0,0,0,0,-1,1980,1303,16.5332,-3.29994
763,-279,16.2246,2.79736,0,0,0,0,0,0,0,-1,1987,1303,16.2246,-2.79735
770,-279,17.2684,1.36182,0,0,0,0,0,0,0,-1,1994,1303,17.2685,-1.36176
777,-279,16.5851,2.60791,0,0,0,0,0,0,0,-1,2001,1303,16.5851,-2.60796
784,-279,0,0,0,0,0,0,0,0,0,-1,2008,1303,0,0
791,-279,0,0,0,0,0,0,0,0,0,-1,2015,1303,0,0
798,-279,0,0,0,0,0,0,0,0,0,-1,2022,1303,0,0
805,-279,0,0,0,0,0,0,0,0,0,-1,2029,1303,0,0
812,-279,0,0,0,0,0,0,0,0,0,-1,2036,1303,0,0
-700,-286,0,0,0,0,0,0,0,0,0,-1,524,1310,0,0
-693,-286,0,0,0,0,0,0,0,0,0,-1,531,1310,0,0
-686,-286,0,0,0,0,0,0,0,0,0,-1,538,1310,0,0
-679,-286,0,0,0,0,0,0,0,0,0,-1,545,1310,0,0
-672,-286,0,0,0,0,0,0,0,0,0,-1,552,1310,0,0
-665,-286,0,0,0,0,0,0,0,0,0,-1,559,1310,0,0
-658,-286,-8.32501,0.365112,0,0,0,0,0,0,0,-1,566,1310,-8.32501,-0.365143
-651,-286,-8.21771,-0.395264,0.0587125,0.101927,0.000258712,0.101928,0.0587109,1.56481,0.0590744,0.0489956,573,1310,-8.21773,0.395264
-644,-286,-10.6057,0.52417,0.0536208,0.0894044,0.00147452,0.089465,0.0535601,1.52968,0.0519868,0.0460489,580,1310,-10.6057,-0.524217
-637,-286,-9.80878,0.564453,0.0473196,0.0766725,0.0020896,0.0768206,0.0471716,1.50008,0.0447353,0.0435602,587,1310,-9.80879,-0.564418
-630,-286,-9.16718,0.497192,0.0404604,0.0641851,0.0022492,0.0643964,0.040249,1.4771,0.0375647,0.0455219,594,1310,-9.16717,-0.497198
-623,-286,-8.84741,0.639893,0.0334931,0.0523887,0.0021597,0.0526324,0.0332494,1.45843,0.0307369,0.0420494,601,1310,-8.84742,-0.639893
-616,-286,-8.52673,0.793579,0.0267949,0.0415613,0.00195311,0.0418152,0.0265409,1.44149,0.0244324,0.0423263,608,1310,-8.52676,-0.793631
-609,-286,-8.13599,1.27686,0.0206777,0.0321363,0.00169353,0.0323814,0.0204326,1.42709,0.0189081,0.034579,615,1310,-8.13597,-1.27686
-602,-286,-8.01147,1.87329,0.015107,0.0233725,0.00178737,0.0237424,0.014737,1.3667,0.0138402,0.0138793,622,1310,-8.01149,-1.87326
-595,-286,-8.01953,2.11523,0.0114122,0.0161802,0.00151314,0.0166198,0.0109726,1.28802,0.00975827,0.0104944,629,1310,-8.01955,-2.11519
-588,-286,-8.00031,2.31812,0.00773941,0.0104954,0.000847497,0.0107352,0.00749965,1.2951,0.00635886,0.0118603,636,1310,-8.00033,-2.31817
-581,-286,-7.98419,2.50623,0.00434637,0.00595809,0.000806503,0.00629235,0.00401211,1.1779,0.00367847,0.013762,643,1310,-7.98417,-2.50621
-574,-286,-8.01495,2.71277,0.0021722,0.00227423,0.000775663,0.00300055,0.00144587,0.818235,0.00173275,0.013771,650,1310,-8.01498,-2.71281
-567,-286,-8.00854,2.94568,0.000761032,1.27403e-05,0.000509595,0.00101908,-0.00024531,0.468741,0.000774223,0.0125713,657,1310,-8.00854,-2.94568
-560,-286,-7.9975,3.15918,-0.000451716,-0.000771458,-2.90088e-05,-0.000449105,-0.000774068,-0.0897492,0.00044882,0.0124794,664,1310,-7.99747,-3.15912
-553,-286,-7.98883,3.36194,-0.00354424,-0.000651684,-0.000584287,-0.000538119,-0.00365781,-1.37882,0.00228043,0.00979122,671,1310,-7.9888,-3.36194
-546,-286,-7.98474,3.59961,-0.00817858,-0.00103993,-0.000321145,-0.00102552,-0.008193,-1.52593,0.00515428,0.0120087,678,1310,-7.98472,-3.59956
-539,-286,-7.96124,3.83398,-0.0138357,-0.00121797,0.00036611,-0.00120735,-0.0138463,1.54181,0.00885591,0.0308766,685,1310,-7.96126,-3.83402
-532,-286,-7.9104,4.05725,0,0,0,0,0,0,0,-1,692,1310,-7.9104,-4.05727
-525,-286,-9.67664,0.670288,0,0,0,0,0,0,0,-1,699,1310,-9.67665,-0.670285
-518,-286,-10.1221,0.884033,0,0,0,0,0,0,0,-1,706,1310,-10.1221,-0.884068
-511,-286,-9.3808,-1.10779,0,0,0,0,0,0,0,-1,713,1310,-9.38078,1.1078
-504,-286,-9.86017,-0.325684,-0.0422869,-0.0117363,0.00392488,-0.0112402,-0.0427831,1.44505,0.0256112,0.0450873,720,1310,-9.86015,0.325705
-497,-286,-11.113,0.230957,-0.0451868,-0.0178257,0.0052474,-0.0168539,-0.0461586,1.38767,0.0269709,0.0424915,727,1310,-11.113,-0.231006
-490,-286,-11.743,0.566406,-0.0443272,-0.0272456,0.00665205,-0.0249608,-0.0466121,1.23994,0.0269341,0.0441392,734,1310,-11.743,-0.566388
-483,-286,-12.438,1.09753,0,0,0,0,0,0,0,-1,741,1310,-12.4381,-1.09753
-476,-286,-13.0179,1.65625,0,0,0,0,0,0,0,-1,748,1310,-13.0179,-1.65628
-469,-286,0,0,0,0,0,0,0,0,0,-1,755,1310,0,0
-462,-286,0,0,0,0,0,0,0,0,0,-1,762,1310,0,0
-455,-286,0,0,0,0,0,0,0,0,0,-1,769,1310,0,0
-448,-286,0,0,0,0,0,0,0,0,0,-1,776,1310,0,0
-441,-286,0,0,0,0,0,0,0,0,0,-1,783,1310,0,0
-434,-286,0,0,0,0,0,0,0,0,0,-1,790,1310,0,0
-427,-286,0,0,0,0,0,0,0,0,0,-1,797,1310,0,0
-420,-286,0,0,0,0,0,0,0,0,0,-1,804,1310,0,0
-413,-286,0,0,0,0,0,0,0,0,0,-1,811,1310,0,0
-406,-286,0,0,0,0,0,0,0,0,0,-1,818,1310,0,0
-399,-286,0,0,0,0,0,0,0,0,0,-1,825,1310,0,0
-392,-286,0,0,0,0,0,0,0,0,0,-1,832,1310,0,0
-385,-286,0,0,0,0,0,0,0,0,0,-1,839,1310,0,0
-378,-286,0,0,0,0,0,0,0,0,0,-1,846,1310,0,0
-371,-286,0,0,0,0,0,0,0,0,0,-1,853,1310,0,0
-364,-286,0,0,0,0,0,0,0,0,0,-1,860,1310,0,0
-357,-286,0,0,0,0,0,0,0,0,0,-1,867,1310,0,0
-350,-286,0,0,0,0,0,0,0,0,0,-1,874,1310,0,0
-343,-286,0,0,0,0,0,0,0,0,0,-1,881,1310,0,0
-336,-286,0,0,0,0,0,0,0,0,0,-1,888,1310,0,0
-329,-286,0,0,0,0,0,0,0,0,0,-1,895,1310,0,0
-322,-286,0,0,0,0,0,0,0,0,0,-1,902,1310,0,0
-315,-286,0,0,0,0,0,0,0,0,0,-1,909,1310,0,0
-308,-286,0,0,0,0,0,0,0,0,0,-1,916,1310,0,0
-301,-286,0,0,0,0,0,0,0,0,0,-1,923,1310,0,0
-294,-286,0,0,0,0,0,0,0,0,0,-1,930,1310,0,0
-287,-286,0,0,0,0,0,0,0,0,0,-1,937,1310,0,0
-280,-286,0,0,0,0,0,0,0,0,0,-1,944,1310,0,0
-273,-286,0,0,0,0,0,0,0,0,0,-1,951,1310,0,0
-266,-286,0,0,0,0,0,0,0,0,0,-1,958,1310,0,0
-259,-286,0,0,0,0,0,0,0,0,0,-1,965,1310,0,0
-252,-286,0,0,0,0,0,0,0,0,0,-1,972,1310,0,0
-245,-286,0,0,0,0,0,0,0,0,0,-1,979,1310,0,0
-238,-286,0,0,0,0,0,0,0,0,0,-1,986,1310,0,0
-231,-286,0,0,0,0,0,0,0,0,0,-1,993,1310,0,0
-224,-286,0,0,0,0,0,0,0,0,0,-1,1000,1310,0,0
-217,-286,0,0,0,0,0,0,0,0,0,-1,1007,1310,0,0
-210,-286,0,0,0,0,0,0,0,0,0,-1,1014,1310,0,0
-203,-286,0,0,0,0,0,0,0,0,0,-1,1021,1310,0,0
-196,-286,0,0,0,0,0,0,0,0,0,-1,1028,1310,0,0
-189,-286,0,0,0,0,0,0,0,0,0,-1,1035,1310,0,0
-182,-286,0,0,0,0,0,0,0,0,0,-1,1042,1310,0,0
-175,-286,0,0,0,0,0,0,0,0,0,-1,1049,1310,0,0
-168,-286,0,0,0,0,0,0,0,0,0,-1,1056,1310,0,0
-161,-286,0,0,0,0,0,0,0,0,0,-1,1063,1310,0,0
-154,-286,0,0,0,0,0,0,0,0,0,-1,1070,1310,0,0
-147,-286,0,0,0,0,0,0,0,0,0,-1,1077,1310,0,0
-140,-286,0,0,0,0,0,0,0,0,0,-1,1084,1310,0,0
-133,-286,0,0,0,0,0,0,0,0,0,-1,1091,1310,0,0
-126,-286,0,0,0,0,0,0,0,0,0,-1,1098,1310,0,0
-119,-286,0,0,0,0,0,0,0,0,0,-1,1105,1310,0,0
-112,-286,0,0,0,0,0,0,0,0,0,-1,1112,1310,0,0
-105,-286,0,0,0,0,0,0,0,0,0,-1,1119,1310,0,0
-98,-286,0,0,0,0,0,0,0,0,0,-1,1126,1310,0,0
-91,-286,0,0,0,0,0,0,0,0,0,-1,1133,1310,0,0
-84,-286,0,0,0,0,0,0,0,0,0,-1,1140,1310,0,0
-77,-286,0,0,0,0,0,0,0,0,0,-1,1147,1310,0,0
-70,-286,0,0,0,0,0,0,0,0,0,-1,1154,1310,0,0
-63,-286,0,0,0,0,0,0,0,0,0,-1,1161,1310,0,0
-56,-286,0,0,0,0,0,0,0,0,0,-1,1168,1310,0,0
-49,-286,0,0,0,0,0,0,0,0,0,-1,1175,1310,0,0
-42,-286,0,0,0,0,0,0,0,0,0,-1,1182,1310,0,0
-35,-286,0,0,0,0,0,0,0,0,0,-1,1189,1310,0,0
-28,-286,0,0,0,0,0,0,0,0,0,-1,1196,1310,0,0
-21,-286,0,0,0,0,0,0,0,0,0,-1,1203,1310,0,0
-14,-286,0,0,0,0,0,0,0,0,0,-1,1210,1310,0,0
-7,-286,0,0,0,0,0,0,0,0,0,-1,1217,1310,0,0
0,-286,0,0,0,0,0,0,0,0,0,-1,1224,1310,0,0
7,-286,0,0,0,0,0,0,0,0,0,-1,1231,1310,0,0
14,-286,0,0,0,0,0,0,0,0,0,-1,1238,1310,0,0
21,-286,0,0,0,0,0,0,0,0,0,-1,1245,1310,0,0
28,-286,0,0,0,0,0,0,0,0,0,-1,1252,1310,0,0
35,-286,0,0,0,0,0,0,0,0,0,-1,1259,1310,0,0
42,-286,0,0,0,0,0,0,0,0,0,-1,1266,1310,0,0
49,-286,0,0,0,0,0,0,0,0,0,-1,1273,1310,0,0
56,-286,0,0,0,0,0,0,0,0,0,-1,1280,1310,0,0
63,-286,0,0,0,0,0,0,0,0,0,-1,1287,1310,0,0
70,-286,0,0,0,0,0,0,0,0,0,-1,1294,1310,0,0
77,-286,0,0,0,0,0,0,0,0,0,-1,1301,1310,0,0
84,-286,0,0,0,0,0,0,0,0,0,-1,1308,1310,0,0
91,-286,0,0,0,0,0,0,0,0,0,-1,1315,1310,0,0
98,-286,0,0,0,0,0,0,0,0,0,-1,1322,1310,0,0
105,-286,0,0,0,0,0,0,0,0,0,-1,1329,1310,0,0
112,-286,0,0,0,0,0,0,0,0,0,-1,1336,1310,0,0
119,-286,0,0,0,0,0,0,0,0,0,-1,1343,1310,0,0
126,-286,0,0,0,0,0,0,0,0,0,-1,1350,1310,0,0
133,-286,0,0,0,0,0,0,0,0,0,-1,1357,1310,0,0
140,-286,0,0,0,0,0,0,0,0,0,-1,1364,1310,0,0
147,-286,0,0,0,0,0,0,0,0,0,-1,1371,1310,0,0
154,-286,0,0,0,0,0,0,0,0,0,-1,1378,1310,0,0
161,-286,0,0,0,0,0,0,0,0,0,-1,1385,1310,0,0
168,-286,0,0,0,0,0,0,0,0,0,-1,1392,1310,0,0
175,-286,0,0,0,0,0,0,0,0,0,-1,1399,1310,0,0
182,-286,0,0,0,0,0,0,0,0,0,-1,1406,1310,0,0
189,-286,0,0,0,0,0,0,0,0,0,-1,1413,1310,0,0
196,-286,0,0,0,0,0,0,0,0,0,-1,1420,1310,0,0
203,-286,0,0,0,0,0,0,0,0,0,-1,1427,1310,0,0
210,-286,0,0,0,0,0,0,0,0,0,-1,1434,1310,0,0
217,-286,0,0,0,0,0,0,0,0,0,-1,1441,1310,0,0
224,-286,0,0,0,0,0,0,0,0,0,-1,1448,1310,0,0
231,-286,0,0,0,0,0,0,0,0,0,-1,1455,1310,0,0
238,-286,0,0,0,0,0,0,0,0,0,-1,1462,1310,0,0
245,-286,0,0,0,0,0,0,0,0,0,-1,1469,1310,0,0
252,-286,0,0,0,0,0,0,0,0,0,-1,1476,1310,0,0
259,-286,0,0,0,0,0,0,0,0,0,-1,1483,1310,0,0
266,-286,0,0,0,0,0,0,0,0,0,-1,1490,1310,0,0
273,-286,0,0,0,0,0,0,0,0,0,-1,1497,1310,0,0
280,-286,0,0,0,0,0,0,0,0,0,-1,1504,1310,0,0
287,-286,0,0,0,0,0,0,0,0,0,-1,1511,1310,0,0
294,-286,0,0,0,0,0,0,0,0,0,-1,1518,1310,0,0
301,-286,0,0,0,0,0,0,0,0,0,-1,1525,1310,0,0
308,-286,0,0,0,0,0,0,0,0,0,-1,1532,1310,0,0
315,-286,0,0,0,0,0,0,0,0,0,-1,1539,1310,0,0
322,-286,0,0,0,0,0,0,0,0,0,-1,1546,1310,0,0
329,-286,0,0,0,0,0,0,0,0,0,-1,1553,1310,0,0
336,-286,0,0,0,0,0,0,0,0,0,-1,1560,1310,0,0
343,-286,0,0,0,0,0,0,0,0,0,-1,1567,1310,0,0
350,-286,0,0,0,0,0,0,0,0,0,-1,1574,1310,0,0
357,-286,0,0,0,0,0,0,0,0,0,-1,1581,1310,0,0
364,-286,0,0,0,0,0,0,0,0,0,-1,1588,1310,0,0
371,-286,0,0,0,0,0,0,0,0,0,-1,1595,1310,0,0
378,-286,0,0,0,0,0,0,0,0,0,-1,1602,1310,0,0
385,-286,0,0,0,0,0,0,0,0,0,-1,1609,1310,0,0
392,-286,0,0,0,0,0,0,0,0,0,-1,1616,1310,0,0
399,-286,0,0,0,0,0,0,0,0,0,-1,1623,1310,0,0
406,-286,0,0,0,0,0,0,0,0,0,-1,1630,1310,0,0
413,-286,0,0,0,0,0,0,0,0,0,-1,1637,1310,0,0
420,-286,0,0,0,0,0,0,0,0,0,-1,1644,1310,0,0
427,-286,0,0,0,0,0,0,0,0,0,-1,1651,1310,0,0
434,-286,0,0,0,0,0,0,0,0,0,-1,1658,1310,0,0
441,-286,0,0,0,0,0,0,0,0,0,-1,1665,1310,0,0
448,-286,0,0,0,0,0,0,0,0,0,-1,1672,1310,0,0
455,-286,0,0,0,0,0,0,0,0,0,-1,1679,1310,0,0
462,-286,0,0,0,0,0,0,0,0,0,-1,1686,1310,0,0
469,-286,0,0,0,0,0,0,0,0,0,-1,1693,1310,0,0
476,-286,0,0,0,0,0,0,0,0,0,-1,1700,1310,0,0
483,-286,0,0,0,0,0,0,0,0,0,-1,1707,1310,0,0
490,-286,0,0,0,0,0,0,0,0,0,-1,1714,1310,0,0
497,-286,0,0,0,0,0,0,0,0,0,-1,1721,1310,0,0
504,-286,0,0,0,0,0,0,0,0,0,-1,1728,1310,0,0
511,-286,0,0,0,0,0,0,0,0,0,-1,1735,1310,0,0
518,-286,0,0,0,0,0,0,0,0,0,-1,1742,1310,0,0
525,-286,0,0,0,0,0,0,0,0,0,-1,1749,1310,0,0
532,-286,0,0,0,0,0,0,0,0,0,-1,1756,1310,0,0
539,-286,0,0,0,0,0,0,0,0,0,-1,1763,1310,0,0
546,-286,0,0,0,0,0,0,0,0,0,-1,1770,1310,0,0
553,-286,0,0,0,0,0,0,0,0,0,-1,1777,1310,0,0
560,-286,0,0,0,0,0,0,0,0,0,-1,1784,1310,0,0
567,-286,0,0,0,0,0,0,0,0,0,-1,1791,1310,0,0
574,-286,0,0,0,0,0,0,0,0,0,-1,1798,1310,0,0
581,-286,0,0,0,0,0,0,0,0,0,-1,1805,1310,0,0
588,-286,0,0,0,0,0,0,0,0,0,-1,1812,1310,0,0
595,-286,20.475,2.70837,-0.0157656,0.0289436,-0.0155514,0.0338209,-0.0206429,-1.26689,0.03175,0.0404084,1819,1310,20.4749,-2.70836
602,-286,20.2968,2.45374,-0.00896049,0.0326787,-0.00823403,0.0342478,-0.0105296,-1.38249,0.0270342,0.0432192,1826,1310,20.2968,-2.45376
609,-286,20.2198,2.12354,-0.00979598,0.0353865,-0.000340131,0.0353891,-0.00979854,-1.56327,0.0274482,0.0453568,1833,1310,20.2198,-2.12353
616,-286,20.4618,2.12378,-0.0120735,0.0351394,0.00545601,0.0357617,-0.0126958,1.45723,0.0290142,0.0475302,1840,1310,20.4618,-2.12373
623,-286,20.5051,2.53223,-0.0143929,0.0325373,0.00943326,0.0343624,-0.0162181,1.37968,0.0298224,0.0454998,1847,1310,20.5051,-2.53219
630,-286,18.4794,1.82788,-0.0162927,0.0286877,0.0117969,0.0315939,-0.0191989,1.32926,0.0296149,0.0453157,1854,1310,18.4794,-1.8279
637,-286,20.533,3.61206,-0.0175703,0.0244251,0.0128612,0.0280509,-0.021196,1.29602,0.0285244,0.0419609,1861,1310,20.5329,-3.6121
644,-286,18.365,0.957642,-0.0181857,0.0202159,0.0129828,0.0241932,-0.022163,1.27352,0.0267723,0.0427638,1868,1310,18.365,-0.957691
651,-286,17.207,0.886841,-0.0178133,0.0165498,0.0128004,0.0207938,-0.0220574,1.25065,0.0247438,0.0438153,1875,1310,17.2071,-0.886792
658,-286,16.9707,5.77234,0,0,0,0,0,0,0,-1,1882,1310,16.9707,-5.77235
665,-286,16.7062,5.76367,-0.0170066,0.0100823,0.0116114,0.0143782,-0.0213025,1.21644,0.0207292,0.0474022,1889,1310,16.7062,-5.76369
672,-286,16.3488,5.72668,-0.0153761,0.00740397,0.0100801,0.0112238,-0.019196,1.20857,0.0177628,0.0302502,1896,1310,16.3488,-5.72672
679,-286,16.1964,5.60425,-0.0129052,0.00383139,0.00743388,0.00665644,-0.0157303,1.20763,0.0132742,0.0233031,1903,1310,16.1964,-5.60419
686,-286,16.219,5.4043,-0.0111768,0.00195558,0.0053731,0.00387378,-0.013095,1.2279,0.0102678,0.0216716,1910,1310,16.219,-5.40424
693,-286,16.2134,5.21558,-0.00862645,0.00130345,0.00383443,0.00261174,-0.00993474,1.24199,0.00764395,0.0162506,1917,1310,16.2134,-5.21563
700,-286,16.2134,5.03564,-0.00466434,0.00182235,0.00228952,0.00254904,-0.00539103,1.26345,0.00468106,0.0110545,1924,1310,16.2134,-5.03562
707,-286,16.207,4.8678,-0.0012774,0.00148469,8.62867e-05,0.00148738,-0.0012801,1.5396,0.0015993,0.00838131,1931,1310,16.207,-4.86785
714,-286,16.1957,4.68018,0.000815577,0.00249582,-0.00151938,0.00339188,-8.0483e-05,-1.03795,0.00228855,0.00895475,1938,1310,16.1957,-4.68019
721,-286,16.1982,4.49402,0.00265095,0.00454074,-0.00321292,0.00694482,0.000246866,-0.928412,0.00454983,0.0116552,1945,1310,16.1982,-4.49402
728,-286,16.2003,4.33044,0.00434643,0.00663383,-0.00489774,0.0105196,0.000460627,-0.9001,0.0068647,0.0136317,1952,1310,16.2003,-4.33043
735,-286,16.213,4.1499,0.00636195,0.00910895,-0.00691672,0.0147872,0.000683678,-0.883411,0.00963834,0.0150431,1959,1310,16.213,-4.14989
742,-286,16.2014,3.91736,0.00904431,0.012362,-0.0095725,0.0204183,0.00098797,-0.871192,0.0132951,0.0273199,1966,1310,16.2014,-3.91741
749,-286,16.2174,3.54272,0.0127923,0.0167292,-0.013191,0.0280979,0.00142365,-0.859466,0.0182759,0.0412272,1973,1310,16.2174,-3.54267
756,-286,16.3513,3.18872,0,0,0,0,0,0,0,-1,1980,1310,16.3513,-3.1887
763,-286,16.3956,2.80347,0,0,0,0,0,0,0,-1,1987,1310,16.3956,-2.80347
770,-286,16.5485,2.53015,0,0,0,0,0,0,0,-1,1994,1310,16.5484,-2.53012
777,-286,0,0,0,0,0,0,0,0,0,-1,2001,1310,0,0
784,-286,0,0,0,0,0,0,0,0,0,-1,2008,1310,0,0
791,-286,0,0,0,0,0,0,0,0,0,-1,2015,1310,0,0
798,-286,0,0,0,0,0,0,0,0,0,-1,2022,1310,0,0
805,-286,0,0,0,0,0,0,0,0,0,-1,2029,1310,0,0
812,-286,0,0,0,0,0,0,0,0,0,-1,2036,1310,0,0
-700,-293,0,0,0,0,0,0,0,0,0,-1,524,1317,0,0
-693,-293,0,0,0,0,0,0,0,0,0,-1,531,1317,0,0
-686,-293,0,0,0,0,0,0,0,0,0,-1,538,1317,0,0
-679,-293,0,0,0,0,0,0,0,0,0,-1,545,1317,0,0
-672,-293,0,0,0,0,0,0,0,0,0,-1,552,1317,0,0
-665,-293,0,0,0,0,0,0,0,0,0,-1,559,1317,0,0
-658,-293,0,0,0,0,0,0,0,0,0,-1,566,1317,0,0
-651,-293,-8.25934,-1.3197,0,0,0,0,0,0,0,-1,573,1317,-8.25931,1.31965
-644,-293,-10.1913,-0.12854,0,0,0,0,0,0,0,-1,580,1317,-10.1913,0.128483
-637,-293,-9.7265,-0.149658,0.0631216,0.0857875,0.00558478,0.0870889,0.0618203,1.34186,0.0517359,0.0437167,587,1317,-9.72649,0.149611
-630,-293,-9.29193,-0.160889,0.0543314,0.0720431,0.00497719,0.0733459,0.0530286,1.31478,0.0437276,0.0452717,594,1317,-9.29194,0.160939
-623,-293,-9.02728,-0.0177002,0.045095,0.0590475,0.00420584,0.0602172,0.0439252,1.29953,0.0359659,0.0416968,601,1317,-9.02729,0.0176675
-616,-293,-7.93927,0.577148,0,0,0,0,0,0,0,-1,608,1317,-7.9393,-0.577153
-609,-293,-7.8446,1.31885,0.0276788,0.0365073,0.00272902,0.0372828,0.0269033,1.29394,0.0222187,0.0388364,615,1317,-7.84463,-1.31888
-602,-293,-7.7666,1.83777,0.0201401,0.0267405,0.00247636,0.0275663,0.0193143,1.24893,0.016337,0.0270104,622,1317,-7.7666,-1.83782
-595,-293,-7.82019,2.09131,0.0149006,0.0186027,0.00189869,0.0194033,0.0140999,1.17175,0.0115799,0.0145199,629,1317,-7.82019,-2.09127
-588,-293,-7.797,2.28381,0.00994748,0.0122079,0.000961251,0.0125614,0.00959399,1.2184,0.00758124,0.0152271,636,1317,-7.79701,-2.28382
-581,-293,-7.78156,2.49841,0.00524441,0.00700482,0.000692271,0.00724443,0.0050048,1.23757,0.00428293,0.0185085,643,1317,-7.78156,-2.4984
-574,-293,-7.78406,2.73169,0.00224382,0.00265195,0.00064495,0.00312435,0.00177142,0.938618,0.00180923,0.0169001,650,1317,-7.78405,-2.73164
-567,-293,-7.78955,2.96936,0.000934471,-8.63927e-05,0.000334781,0.00103446,-0.000186386,0.290248,0.000759434,0.015609,657,1317,-7.78958,-2.96937
-560,-293,-7.79865,3.18567,0.000181138,-0.00117619,-0.000299941,0.000244464,-0.00123952,-0.208074,0.000918738,0.0161961,664,1317,-7.79864,-3.18566
-553,-293,-7.78601,3.38831,-0.00224575,-0.00138463,-0.000958502,-0.000764422,-0.00286596,-0.996494,0.00171364,0.0114906,671,1317,-7.786,-3.38832
-546,-293,-7.77625,3.6134,-0.00626837,-0.00205819,-0.000825296,-0.0019022,-0.00642437,-1.38398,0.00381054,0.0101046,678,1317,-7.77625,-3.61339
-539,-293,-7.76593,3.83252,-0.0115362,-0.00246632,-0.000216667,-0.00246115,-0.0115414,-1.54693,0.00701921,0.0227669,685,1317,-7.76595,-3.8325
-532,-293,-7.68658,3.73279,0,0,0,0,0,0,0,-1,692,1317,-7.68656,-3.73278
-525,-293,-7.51227,3.5929,0,0,0,0,0,0,0,-1,699,1317,-7.51226,-3.59292
-518,-293,-10.0405,1.19458,0,0,0,0,0,0,0,-1,706,1317,-10.0406,-1.1946
-511,-293,-10.4539,1.32092,0,0,0,0,0,0,0,-1,713,1317,-10.4538,-1.32096
-504,-293,-9.50061,-0.719116,0,0,0,0,0,0,0,-1,720,1317,-9.50063,0.719163
-497,-293,-11.343,0.306274,-0.0376105,-0.0256969,0.00241833,-0.0252247,-0.0380827,1.37797,0.0223702,0.0460453,727,1317,-11.3429,-0.306257
-490,-293,-11.7103,0.624146,-0.0359826,-0.0367157,0.0024778,-0.0338444,-0.0388539,0.711961,0.0244047,0.0444534,734,1317,-11.7103,-0.624093
-483,-293,-12.3591,1.34912,0,0,0,0,0,0,0,-1,741,1317,-12.3591,-1.34914
-476,-293,-11.3431,0.133301,0,0,0,0,0,0,0,-1,748,1317,-11.3431,-0.133249
-469,-293,0,0,0,0,0,0,0,0,0,-1,755,1317,0,0
-462,-293,0,0,0,0,0,0,0,0,0,-1,762,1317,0,0
-455,-293,0,0,0,0,0,0,0,0,0,-1,769,1317,0,0
-448,-293,0,0,0,0,0,0,0,0,0,-1,776,1317,0,0
-441,-293,0,0,0,0,0,0,0,0,0,-1,783,1317,0,0
-434,-293,0,0,0,0,0,0,0,0,0,-1,790,1317,0,0
-427,-293,0,0,0,0,0,0,0,0,0,-1,797,1317,0,0
-420,-293,0,0,0,0,0,0,0,0,0,-1,804,1317,0,0
-413,-293,0,0,0,0,0,0,0,0,0,-1,811,1317,0,0
-406,-293,0,0,0,0,0,0,0,0,0,-1,818,1317,0,0
-399,-293,0,0,0,0,0,0,0,0,0,-1,825,1317,0,0
-392,-293,0,0,0,0,0,0,0,0,0,-1,832,1317,0,0
-385,-293,0,0,0,0,0,0,0,0,0,-1,839,1317,0,0
-378,-293,0,0,0,0,0,0,0,0,0,-1,846,1317,0,0
-371,-293,0,0,0,0,0,0,0,0,0,-1,853,1317,0,0
-364,-293,0,0,0,0,0,0,0,0,0,-1,860,1317,0,0
-357,-293,0,0,0,0,0,0,0,0,0,-1,867,1317,0,0
-350,-293,0,0,0,0,0,0,0,0,0,-1,874,1317,0,0
-343,-293,0,0,0,0,0,0,0,0,0,-1,881,1317,0,0
-336,-293,0,0,0,0,0,0,0,0,0,-1,888,1317,0,0
-329,-293,0,0,0,0,0,0,0,0,0,-1,895,1317,0,0
-322,-293,0,0,0,0,0,0,0,0,0,-1,902,1317,0,0
-315,-293,0,0,0,0,0,0,0,0,0,-1,909,1317,0,0
-308,-293,0,0,0,0,0,0,0,0,0,-1,916,1317,0,0
-301,-293,0,0,0,0,0,0,0,0,0,-1,923,1317,0,0
-294,-293,0,0,0,0,0,0,0,0,0,-1,930,1317,0,0
-287,-293,0,0,0,0,0,0,0,0,0,-1,937,1317,0,0
-280,-293,0,0,0,0,0,0,0,0,0,-1,944,1317,0,0
-273,-293,0,0,0,0,0,0,0,0,0,-1,951,1317,0,0
-266,-293,0,0,0,0,0,0,0,0,0,-1,958,1317,0,0
-259,-293,0,0,0,0,0,0,0,0,0,-1,965,1317,0,0
-252,-293,0,0,0,0,0,0,0,0,0,-1,972,1317,0,0
-245,-293,0,0,0,0,0,0,0,0,0,-1,979,1317,0,0
-238,-293,0,0,0,0,0,0,0,0,0,-1,986,1317,0,0
-231,-293,0,0,0,0,0,0,0,0,0,-1,993,1317,0,0
-224,-293,0,0,0,0,0,0,0,0,0,-1,1000,1317,0,0
-217,-293,0,0,0,0,0,0,0,0,0,-1,1007,1317,0,0
-210,-293,0,0,0,0,0,0,0,0,0,-1,1014,1317,0,0
-203,-293,0,0,0,0,0,0,0,0,0,-1,1021,1317,0,0
-196,-293,0,0,0,0,0,0,0,0,0,-1,1028,1317,0,0
-189,-293,0,0,0,0,0,0,0,0,0,-1,1035,1317,0,0
-182,-293,0,0,0,0,0,0,0,0,0,-1,1042,1317,0,0
-175,-293,0,0,0,0,0,0,0,0,0,-1,1049,1317,0,0
-168,-293,0,0,0,0,0,0,0,0,0,-1,1056,1317,0,0
-161,-293,0,0,0,0,0,0,0,0,0,-1,1063,1317,0,0
-154,-293,0,0,0,0,0,0,0,0,0,-1,1070,1317,0,0
-147,-293,0,0,0,0,0,0,0,0,0,-1,1077,1317,0,0
-140,-293,0,0,0,0,0,0,0,0,0,-1,1084,1317,0,0
-133,-293,0,0,0,0,0,0,0,0,0,-1,1091,1317,0,0
-126,-293,0,0,0,0,0,0,0,0,0,-1,1098,1317,0,0
-119,-293,0,0,0,0,0,0,0,0,0,-1,1105,1317,0,0
-112,-293,0,0,0,0,0,0,0,0,0,-1,1112,1317,0,0
-105,-293,0,0,0,0,0,0,0,0,0,-1,1119,1317,0,0
-98,-293,0,0,0,0,0,0,0,0,0,-1,1126,1317,0,0
-91,-293,0,0,0,0,0,0,0,0,0,-1,1133,1317,0,0
-84,-293,0,0,0,0,0,0,0,0,0,-1,1140,1317,0,0
-77,-293,0,0,0,0,0,0,0,0,0,-1,1147,1317,0,0
-70,-293,0,0,0,0,0,0,0,0,0,-1,1154,1317,0,0
-63,-293,0,0,0,0,0,0,0,0,0,-1,1161,1317,0,0
-56,-293,0,0,0,0,0,0,0,0,0,-1,1168,1317,0,0
-49,-293,0,0,0,0,0,0,0,0,0,-1,1175,1317,0,0
-42,-293,0,0,0,0,0,0,0,0,0,-1,1182,1317,0,0
-35,-293,0,0,0,0,0,0,0,0,0,-1,1189,1317,0,0
-28,-293,0,0,0,0,0,0,0,0,0,-1,1196,1317,0,0
-21,-293,0,0,0,0,0,0,0,0,0,-1,1203,1317,0,0
-14,-293,0,0,0,0,0,0,0,0,0,-1,1210,1317,0,0
-7,-293,0,0,0,0,0,0,0,0,0,-1,1217,1317,0,0
0,-293,0,0,0,0,0,0,0,0,0,-1,1224,1317,0,0
7,-293,0,0,0,0,0,0,0,0,0,-1,1231,1317,0,0
14,-293,0,0,0,0,0,0,0,0,0,-1,1238,1317,0,0
21,-293,0,0,0,0,0,0,0,0,0,-1,1245,1317,0,0
28,-293,0,0,0,0,0,0,0,0,0,-1,1252,1317,0,0
35,-293,0,0,0,0,0,0,0,0,0,-1,1259,1317,0,0
42,-293,0,0,0,0,0,0,0,0,0,-1,1266,1317,0,0
49,-293,0,0,0,0,0,0,0,0,0,-1,1273,1317,0,0
56,-293,0,0,0,0,0,0,0,0,0,-1,1280,1317,0,0
63,-293,0,0,0,0,0,0,0,0,0,-1,1287,1317,0,0
70,-293,0,0,0,0,0,0,0,0,0,-1,1294,1317,0,0
77,-293,0,0,0,0,0,0,0,0,0,-1,1301,1317,0,0
84,-293,0,0,0,0,0,0,0,0,0,-1,1308,1317,0,0
91,-293,0,0,0,0,0,0,0,0,0,-1,1315,1317,0,0
98,-293,0,0,0,0,0,0,0,0,0,-1,1322,1317,0,0
105,-293,0,0,0,0,0,0,0,0,0,-1,1329,1317,0,0
112,-293,0,0,0,0,0,0,0,0,0,-1,1336,1317,0,0
119,-293,0,0,0,0,0,0,0,0,0,-1,1343,1317,0,0
126,-293,0,0,0,0,0,0,0,0,0,-1,1350,1317,0,0
133,-293,0,0,0,0,0,0,0,0,0,-1,1357,1317,0,0
140,-293,0,0,0,0,0,0,0,0,0,-1,1364,1317,0,0
147,-293,0,0,0,0,0,0,0,0,0,-1,1371,1317,0,0
154,-293,0,0,0,0,0,0,0,0,0,-1,1378,1317,0,0
161,-293,0,0,0,0,0,0,0,0,0,-1,1385,1317,0,0
168,-293,0,0,0,0,0,0,0,0,0,-1,1392,1317,0,0
175,-293,0,0,0,0,0,0,0,0,0,-1,1399,1317,0,0
182,-293,0,0,0,0,0,0,0,0,0,-1,1406,1317,0,0
189,-293,0,0,0,0,0,0,0,0,0,-1,1413,1317,0,0
196,-293,0,0,0,0,0,0,0,0,0,-1,1420,1317,0,0
203,-293,0,0,0,0,0,0,0,0,0,-1,1427,1317,0,0
210,-293,0,0,0,0,0,0,0,0,0,-1,1434,1317,0,0
217,-293,0,0,0,0,0,0,0,0,0,-1,1441,1317,0,0
224,-293,0,0,0,0,0,0,0,0,0,-1,1448,1317,0,0
231,-293,0,0,0,0,0,0,0,0,0,-1,1455,1317,0,0
238,-293,0,0,0,0,0,0,0,0,0,-1,1462,1317,0,0
245,-293,0,0,0,0,0,0,0,0,0,-1,1469,1317,0,0
252,-293,0,0,0,0,0,0,0,0,0,-1,1476,1317,0,0
259,-293,0,0,0,0,0,0,0,0,0,-1,1483,1317,0,0
266,-293,0,0,0,0,0,0,0,0,0,-1,1490,1317,0,0
273,-293,0,0,0,0,0,0,0,0,0,-1,1497,1317,0,0
280,-293,0,0,0,0,0,0,0,0,0,-1,1504,1317,0,0
287,-293,0,0,0,0,0,0,0,0,0,-1,1511,1317,0,0
294,-293,0,0,0,0,0,0,0,0,0,-1,1518,1317,0,0
301,-293,0,0,0,0,0,0,0,0,0,-1,1525,1317,0,0
308,-293,0,0,0,0,0,0,0,0,0,-1,1532,1317,0,0
315,-293,0,0,0,0,0,0,0,0,0,-1,1539,1317,0,0
322,-293,0,0,0,0,0,0,0,0,0,-1,1546,1317,0,0
329,-293,0,0,0,0,0,0,0,0,0,-1,1553,1317,0,0
336,-293,0,0,0,0,0,0,0,0,0,-1,1560,1317,0,0
343,-293,0,0,0,0,0,0,0,0,0,-1,1567,1317,0,0
350,-293,0,0,0,0,0,0,0,0,0,-1,1574,1317,0,0
357,-293,0,0,0,0,0,0,0,0,0,-1,1581,1317,0,0
364,-293,0,0,0,0,0,0,0,0,0,-1,1588,1317,0,0
371,-293,0,0,0,0,0,0,0,0,0,-1,1595,1317,0,0
378,-293,0,0,0,0,0,0,0,0,0,-1,1602,1317,0,0
385,-293,0,0,0,0,0,0,0,0,0,-1,1609,1317,0,0
392,-293,0,0,0,0,0,0,0,0,0,-1,1616,1317,0,0
399,-293,0,0,0,0,0,0,0,0,0,-1,1623,1317,0,0
406,-293,0,0,0,0,0,0,0,0,0,-1,1630,1317,0,0
413,-293,0,0,0,0,0,0,0,0,0,-1,1637,1317,0,0
420,-293,0,0,0,0,0,0,0,0,0,-1,1644,1317,0,0
427,-293,0,0,0,0,0,0,0,0,0,-1,1651,1317,0,0
434,-293,0,0,0,0,0,0,0,0,0,-1,1658,1317,0,0
441,-293,0,0,0,0,0,0,0,0,0,-1,1665,1317,0,0
448,-293,0,0,0,0,0,0,0,0,0,-1,1672,1317,0,0
455,-293,0,0,0,0,0,0,0,0,0,-1,1679,1317,0,0
462,-293,0,0,0,0,0,0,0,0,0,-1,1686,1317,0,0
469,-293,0,0,0,0,0,0,0,0,0,-1,1693,1317,0,0
476,-293,0,0,0,0,0,0,0,0,0,-1,1700,1317,0,0
483,-293,0,0,0,0,0,0,0,0,0,-1,1707,1317,0,0
490,-293,0,0,0,0,0,0,0,0,0,-1,1714,1317,0,0
497,-293,0,0,0,0,0,0,0,0,0,-1,1721,1317,0,0
504,-293,0,0,0,0,0,0,0,0,0,-1,1728,1317,0,0
511,-293,0,0,0,0,0,0,0,0,0,-1,1735,1317,0,0
518,-293,0,0,0,0,0,0,0,0,0,-1,1742,1317,0,0
525,-293,0,0,0,0,0,0,0,0,0,-1,1749,1317,0,0
532,-293,0,0,0,0,0,0,0,0,0,-1,1756,1317,0,0
539,-293,0,0,0,0,0,0,0,0,0,-1,1763,1317,0,0
546,-293,0,0,0,0,0,0,0,0,0,-1,1770,1317,0,0
553,-293,0,0,0,0,0,0,0,0,0,-1,1777,1317,0,0
560,-293,0,0,0,0,0,0,0,0,0,-1,1784,1317,0,0
567,-293,0,0,0,0,0,0,0,0,0,-1,1791,1317,0,0
574,-293,0,0,0,0,0,0,0,0,0,-1,1798,1317,0,0
581,-293,0,0,0,0,0,0,0,0,0,-1,1805,1317,0,0
588,-293,0,0,0,0,0,0,0,0,0,-1,1812,1317,0,0
595,-293,20.3689,2.40503,-0.021039,0.033792,-0.0152364,0.0377414,-0.0249884,-1.31717,0.0364657,0.0473218,1819,1317,20.3689,-2.40499
602,-293,20.1722,2.15271,-0.0144001,0.0375328,-0.00705114,0.0384732,-0.0153405,-1.43822,0.0320119,0.0481849,1826,1317,20.1723,-2.15276
609,-293,20.2985,1.83362,-0.0142565,0.0387686,0.000637235,0.0387763,-0.0142642,1.55878,0.0316942,0.0498494,1833,1317,20.2985,-1.83359
616,-293,20.4323,1.93555,0,0,0,0,0,0,0,-1,1840,1317,20.4323,-1.93551
623,-293,19.7107,1.50684,-0.0161112,0.0336318,0.00958979,0.0354166,-0.017896,1.38679,0.0313292,0.0477937,1847,1317,19.7107,-1.50678
630,-293,19.6338,2.09351,-0.017032,0.0291674,0.0117907,0.0320026,-0.0198671,1.33482,0.030219,0.044529,1854,1317,19.6338,-2.09355
637,-293,19.752,2.67639,-0.0177152,0.0244467,0.0128163,0.0280368,-0.0213054,1.29767,0.028576,0.0468576,1861,1317,19.7519,-2.67641
644,-293,19.3455,3.35413,-0.0180387,0.0198868,0.0129536,0.0238889,-0.0220407,1.27115,0.0265246,0.0475103,1868,1317,19.3454,-3.35417
651,-293,16.9865,5.7218,0,0,0,0,0,0,0,-1,1875,1317,16.9864,-5.72179
658,-293,16.5936,5.83264,-0.0172738,0.0124357,0.0123077,0.0168719,-0.02171,1.22485,0.0223336,0.0409011,1882,1317,16.5936,-5.83264
665,-293,16.2787,5.81372,-0.0167658,0.00914583,0.0116865,0.0136379,-0.0212578,1.20383,0.0203065,0.0329481,1889,1317,16.2787,-5.81378
672,-293,16.054,5.76257,-0.0149581,0.00636053,0.00994876,0.010282,-0.0188795,1.19533,0.0170786,0.0166561,1896,1317,16.054,-5.76257
679,-293,16.0334,5.56995,-0.0123387,0.00274193,0.0070208,0.00550444,-0.0151012,1.19593,0.0123192,0.0125791,1903,1317,16.0335,-5.56997
686,-293,16.037,5.39514,-0.0104322,0.00115923,0.0048129,0.00289705,-0.0121701,1.22429,0.00923184,0.0144195,1910,1317,16.037,-5.39517
693,-293,16.0522,5.21216,-0.00773922,0.000908769,0.0031718,0.00194736,-0.00877781,1.25436,0.00659749,0.0113524,1917,1317,16.0522,-5.21217
700,-293,16.0398,5.02734,-0.00384456,0.00185885,0.00155082,0.00225326,-0.00423898,1.32175,0.00380629,0.0100784,1924,1317,16.0398,-5.02729
707,-293,16.0361,4.87061,-0.000660013,0.00194978,-0.000585159,0.00207497,-0.00078521,-1.36002,0.00170637,0.0102017,1931,1317,16.0361,-4.87058
714,-293,16.0278,4.68262,0.00141232,0.00325373,-0.00224337,0.00475798,-9.19285e-05,-0.980124,0.00320307,0.00771344,1938,1317,16.0279,-4.68263
721,-293,16.0341,4.48499,0.00333185,0.00537752,-0.00401526,0.00849817,0.000211197,-0.910114,0.00559638,0.00965577,1945,1317,16.0341,-4.48498
728,-293,16.0424,4.29895,0.00523987,0.00756268,-0.00584851,0.012364,0.000438563,-0.883414,0.00810043,0.0117456,1952,1317,16.0423,-4.29893
735,-293,16.0458,4.09314,0.00762947,0.0101703,-0.00807729,0.0170765,0.000723298,-0.863401,0.011151,0.0153708,1959,1317,16.0458,-4.09313
742,-293,16.0594,3.86584,0.0108956,0.0135354,-0.0109884,0.0232829,0.00114805,-0.845172,0.0151538,0.0263908,1966,1317,16.0594,-3.8658
749,-293,16.1119,3.54919,0.0154173,0.0179407,-0.0148776,0.0316099,0.00174804,-0.8277,0.0205155,0.0386388,1973,1317,16.1119,-3.54921
756,-293,16.2588,3.14612,0,0,0,0,0,0,0,-1,1980,1317,16.2588,-3.14607
763,-293,16.7382,2.78931,0,0,0,0,0,0,0,-1,1987,1317,16.7381,-2.78933
770,-293,16.2617,5.90723,0,0,0,0,0,0,0,-1,1994,1317,16.2617,-5.90718
777,-293,0,0,0,0,0,0,0,0,0,-1,2001,1317,0,0
784,-293,0,0,0,0,0,0,0,0,0,-1,2008,1317,0,0
791,-293,0,0,0,0,0,0,0,0,0,-1,2015,1317,0,0
798,-293,0,0,0,0,0,0,0,0,0,-1,2022,1317,0,0
805,-293,0,0,0,0,0,0,0,0,0,-1,2029,1317,0,0
812,-293,0,0,0,0,0,0,0,0,0,-1,2036,1317,0,0
-700,-300,0,0,0,0,0,0,0,0,0,-1,524,1324,0,0
-693,-300,0,0,0,0,0,0,0,0,0,-1,531,1324,0,0
-686,-300,0,0,0,0,0,0,0,0,0,-1,538,1324,0,0
-679,-300,0,0,0,0,0,0,0,0,0,-1,545,1324,0,0
-672,-300,0,0,0,0,0,0,0,0,0,-1,552,1324,0,0
-665,-300,0,0,0,0,0,0,0,0,0,-1,559,1324,0,0
-658,-300,0,0,0,0,0,0,0,0,0,-1,566,1324,0,0
-651,-300,-10.5943,-0.780151,0,0,0,0,0,0,0,-1,573,1324,-10.5943,0.780184
-644,-300,-10.1345,-0.894043,0.0899478,0.107389,0.0092304,0.111367,0.08597,1.1639,0.0673933,0.043881,580,1324,-10.1345,0.894074
-637,-300,-9.6795,-0.918091,0.0807449,0.092572,0.00810031,0.0966877,0.0766293,1.1007,0.0589216,0.0460601,587,1324,-9.6795,0.918097
-630,-300,-9.2948,-0.7854,0.06933,0.0779739,0.00666911,0.081599,0.0657048,1.0729,0.0499514,0.045464,594,1324,-9.29478,0.785408
-623,-300,-9.13336,-0.561523,0.0572632,0.0641726,0.00528667,0.0670333,0.0544026,1.0748,0.0411302,0.0432478,601,1324,-9.13336,0.561487
-616,-300,-7.32251,1.41858,0,0,0,0,0,0,0,-1,608,1324,-7.32248,-1.41857
-609,-300,-7.39917,1.65686,0.0346249,0.0400038,0.00310107,0.0414192,0.0332095,1.14261,0.0253237,0.0440335,615,1324,-7.39919,-1.65689
-602,-300,-7.47015,1.86401,0.0249846,0.02951,0.00262764,0.0307149,0.0237797,1.14085,0.0186009,0.0316933,622,1324,-7.47018,-1.86402
-595,-300,-7.62048,2.06824,0.0180978,0.0205472,0.00186,0.0215495,0.0170955,1.07654,0.0131358,0.0172474,629,1324,-7.62051,-2.06826
-588,-300,-7.5907,2.2926,0.0118735,0.0135292,0.000787578,0.013844,0.0115587,1.19056,0.00856973,0.0189899,636,1324,-7.59069,-2.29257
-581,-300,-7.58063,2.53052,0.00590431,0.00782752,0.000383491,0.00790117,0.00583066,1.38106,0.0047308,0.0206552,643,1324,-7.58061,-2.53055
-574,-300,-7.56323,2.75952,0.00207783,0.00294632,0.000395283,0.00309929,0.00192486,1.20157,0.00180677,0.0164661,650,1324,-7.56323,-2.75951
-567,-300,-7.56561,2.97546,0.00092183,-0.000125649,0.000103121,0.000931886,-0.000135704,0.0972032,0.000671081,0.0160077,657,1324,-7.56559,-2.97551
-560,-300,-7.58569,3.19275,0.000699938,-0.00134418,-0.000577995,0.000852053,-0.0014963,-0.25734,0.00137272,0.0152925,664,1324,-7.58567,-3.19275
-553,-300,-7.57959,3.39612,-0.000872549,-0.0017832,-0.00130143,5.09132e-05,-0.00270666,-0.617122,0.00182165,0.0109758,671,1324,-7.5796,-3.39612
-546,-300,-7.56195,3.61548,-0.00397652,-0.00263454,-0.00133487,-0.0018115,-0.00479956,-1.01829,0.00279864,0.00900888,678,1324,-7.56198,-3.61543
-539,-300,-7.55115,3.84558,-0.00852259,-0.00321015,-0.000869728,-0.00307139,-0.00866135,-1.41258,0.00507062,0.0140726,685,1324,-7.55117,-3.84559
-532,-300,-7.61224,3.93237,0,0,0,0,0,0,0,-1,692,1324,-7.61222,-3.93238
-525,-300,-7.33746,3.89087,0,0,0,0,0,0,0,-1,699,1324,-7.33746,-3.89083
-518,-300,-7.18219,3.73206,0,0,0,0,0,0,0,-1,706,1324,-7.18216,-3.7321
-511,-300,-10.5128,1.95776,0,0,0,0,0,0,0,-1,713,1324,-10.5128,-1.95773
-504,-300,-9.77765,1.42346,0,0,0,0,0,0,0,-1,720,1324,-9.77764,-1.42345
-497,-300,-11.9119,0.533081,0,0,0,0,0,0,0,-1,727,1324,-11.9118,-0.533091
-490,-300,-11.7979,0.611328,-0.0263082,-0.044535,-0.000911259,-0.0262628,-0.0445804,-0.0498301,0.0258744,0.042158,734,1324,-11.7978,-0.611317
-483,-300,-11.8044,0.600586,0,0,0,0,0,0,0,-1,741,1324,-11.8044,-0.600619
-476,-300,-11.7051,0.537109,0,0,0,0,0,0,0,-1,748,1324,-11.7051,-0.537168
-469,-300,0,0,0,0,0,0,0,0,0,-1,755,1324,0,0
-462,-300,0,0,0,0,0,0,0,0,0,-1,762,1324,0,0
-455,-300,0,0,0,0,0,0,0,0,0,-1,769,1324,0,0
-448,-300,0,0,0,0,0,0,0,0,0,-1,776,1324,0,0
-441,-300,0,0,0,0,0,0,0,0,0,-1,783,1324,0,0
-434,-300,0,0,0,0,0,0,0,0,0,-1,790,1324,0,0
-427,-300,0,0,0,0,0,0,0,0,0,-1,797,1324,0,0
-420,-300,0,0,0,0,0,0,0,0,0,-1,804,1324,0,0
-413,-300,0,0,0,0,0,0,0,0,0,-1,811,1324,0,0
-406,-300,0,0,0,0,0,0,0,0,0,-1,818,1324,0,0
-399,-300,0,0,0,0,0,0,0,0,0,-1,825,1324,0,0
-392,-300,0,0,0,0,0,0,0,0,0,-1,832,1324,0,0
-385,-300,0,0,0,0,0,0,0,0,0,-1,839,1324,0,0
-378,-300,0,0,0,0,0,0,0,0,0,-1,846,1324,0,0
-371,-300,0,0,0,0,0,0,0,0,0,-1,853,1324,0,0
-364,-300,0,0,0,0,0,0,0,0,0,-1,860,1324,0,0
-357,-300,0,0,0,0,0,0,0,0,0,-1,867,1324,0,0
-350,-300,0,0,0,0,0,0,0,0,0,-1,874,1324,0,0
-343,-300,0,0,0,0,0,0,0,0,0,-1,881,1324,0,0
-336,-300,0,0,0,0,0,0,0,0,0,-1,888,1324,0,0
-329,-300,0,0,0,0,0,0,0,0,0,-1,895,1324,0,0
-322,-300,0,0,0,0,0,0,0,0,0,-1,902,1324,0,0
-315,-300,0,0,0,0,0,0,0,0,0,-1,909,1324,0,0
-308,-300,0,0,0,0,0,0,0,0,0,-1,916,1324,0,0
-301,-300,0,0,0,0,0,0,0,0,0,-1,923,1324,0,0
-294,-300,0,0,0,0,0,0,0,0,0,-1,930,1324,0,0
-287,-300,0,0,0,0,0,0,0,0,0,-1,937,1324,0,0
-280,-300,0,0,0,0,0,0,0,0,0,-1,944,1324,0,0
-273,-300,0,0,0,0,0,0,0,0,0,-1,951,1324,0,0
-266,-300,0,0,0,0,0,0,0,0,0,-1,958,1324,0,0
-259,-300,0,0,0,0,0,0,0,0,0,-1,965,1324,0,0
-252,-300,0,0,0,0,0,0,0,0,0,-1,972,1324,0,0
-245,-300,0,0,0,0,0,0,0,0,0,-1,979,1324,0,0
-238,-300,0,0,0,0,0,0,0,0,0,-1,986,1324,0,0
-231,-300,0,0,0,0,0,0,0,0,0,-1,993,1324,0,0
-224,-300,0,0,0,0,0,0,0,0,0,-1,1000,1324,0,0
-217,-300,0,0,0,0,0,0,0,0,0,-1,1007,1324,0,0
-210,-300,0,0,0,0,0,0,0,0,0,-1,1014,1324,0,0
-203,-300,0,0,0,0,0,0,0,0,0,-1,1021,1324,0,0
-196,-300,0,0,0,0,0,0,0,0,0,-1,1028,1324,0,0
-189,-300,0,0,0,0,0,0,0,0,0,-1,1035,1324,0,0
-182,-300,0,0,0,0,0,0,0,0,0,-1,1042,1324,0,0
-175,-300,0,0,0,0,0,0,0,0,0,-1,1049,1324,0,0
-168,-300,0,0,0,0,0,0,0,0,0,-1,1056,1324,0,0
-161,-300,0,0,0,0,0,0,0,0,0,-1,1063,1324,0,0
-154,-300,0,0,0,0,0,0,0,0,0,-1,1070,1324,0,0
-147,-300,0,0,0,0,0,0,0,0,0,-1,1077,1324,0,0
-140,-300,0,0,0,0,0,0,0,0,0,-1,1084,1324,0,0
-133,-300,0,0,0,0,0,0,0,0,0,-1,1091,1324,0,0
-126,-300,0,0,0,0,0,0,0,0,0,-1,1098,1324,0,0
-119,-300,0,0,0,0,0,0,0,0,0,-1,1105,1324,0,0
-112,-300,0,0,0,0,0,0,0,0,0,-1,1112,1324,0,0
-105,-300,0,0,0,0,0,0,0,0,0,-1,1119,1324,0,0
-98,-300,0,0,0,0,0,0,0,0,0,-1,1126,1324,0,0
-91,-300,0,0,0,0,0,0,0,0,0,-1,1133,1324,0,0
-84,-300,0,0,0,0,0,0,0,0,0,-1,1140,1324,0,0
-77,-300,0,0,0,0,0,0,0,0,0,-1,1147,1324,0,0
-70,-300,0,0,0,0,0,0,0,0,0,-1,1154,1324,0,0
-63,-300,0,0,0,0,0,0,0,0,0,-1,1161,1324,0,0
-56,-300,0,0,0,0,0,0,0,0,0,-1,1168,1324,0,0
-49,-300,0,0,0,0,0,0,0,0,0,-1,1175,1324,0,0
-42,-300,0,0,0,0,0,0,0,0,0,-1,1182,1324,0,0
-35,-300,0,0,0,0,0,0,0,0,0,-1,1189,1324,0,0
-28,-300,0,0,0,0,0,0,0,0,0,-1,1196,1324,0,0
-21,-300,0,0,0,0,0,0,0,0,0,-1,1203,1324,0,0
-14,-300,0,0,0,0,0,0,0,0,0,-1,1210,1324,0,0
-7,-300,0,0,0,0,0,0,0,0,0,-1,1217,1324,0,0
0,-300,0,0,0,0,0,0,0,0,0,-1,1224,1324,0,0
7,-300,0,0,0,0,0,0,0,0,0,-1,1231,1324,0,0
14,-300,0,0,0,0,0,0,0,0,0,-1,1238,1324,0,0
21,-300,0,0,0,0,0,0,0,0,0,-1,1245,1324,0,0
28,-300,0,0,0,0,0,0,0,0,0,-1,1252,1324,0,0
35,-300,0,0,0,0,0,0,0,0,0,-1,1259,1324,0,0
42,-300,0,0,0,0,0,0,0,0,0,-1,1266,1324,0,0
49,-300,0,0,0,0,0,0,0,0,0,-1,1273,1324,0,0
56,-300,0,0,0,0,0,0,0,0,0,-1,1280,1324,0,0
63,-300,0,0,0,0,0,0,0,0,0,-1,1287,1324,0,0
70,-300,0,0,0,0,0,0,0,0,0,-1,1294,1324,0,0
77,-300,0,0,0,0,0,0,0,0,0,-1,1301,1324,0,0
84,-300,0,0,0,0,0,0,0,0,0,-1,1308,1324,0,0
91,-300,0,0,0,0,0,0,0,0,0,-1,1315,1324,0,0
98,-300,0,0,0,0,0,0,0,0,0,-1,1322,1324,0,0
105,-300,0,0,0,0,0,0,0,0,0,-1,1329,1324,0,0
112,-300,0,0,0,0,0,0,0,0,0,-1,1336,1324,0,0
119,-300,0,0,0,0,0,0,0,0,0,-1,1343,1324,0,0
126,-300,0,0,0,0,0,0,0,0,0,-1,1350,1324,0,0
133,-300,0,0,0,0,0,0,0,0,0,-1,1357,1324,0,0
140,-300,0,0,0,0,0,0,0,0,0,-1,1364,1324,0,0
147,-300,0,0,0,0,0,0,0,0,0,-1,1371,1324,0,0
154,-300,0,0,0,0,0,0,0,0,0,-1,1378,1324,0,0
161,-300,0,0,0,0,0,0,0,0,0,-1,1385,1324,0,0
168,-300,0,0,0,0,0,0,0,0,0,-1,1392,1324,0,0
175,-300,0,0,0,0,0,0,0,0,0,-1,1399,1324,0,0
182,-300,0,0,0,0,0,0,0,0,0,-1,1406,1324,0,0
189,-300,0,0,0,0,0,0,0,0,0,-1,1413,1324,0,0
196,-300,0,0,0,0,0,0,0,0,0,-1,1420,1324,0,0
203,-300,0,0,0,0,0,0,0,0,0,-1,1427,1324,0,0
210,-300,0,0,0,0,0,0,0,0,0,-1,1434,1324,0,0
217,-300,0,0,0,0,0,0,0,0,0,-1,1441,1324,0,0
224,-300,0,0,0,0,0,0,0,0,0,-1,1448,1324,0,0
231,-300,0,0,0,0,0,0,0,0,0,-1,1455,1324,0,0
238,-300,0,0,0,0,0,0,0,0,0,-1,1462,1324,0,0
245,-300,0,0,0,0,0,0,0,0,0,-1,1469,1324,0,0
252,-300,0,0,0,0,0,0,0,0,0,-1,1476,1324,0,0
259,-300,0,0,0,0,0,0,0,0,0,-1,1483,1324,0,0
266,-300,0,0,0,0,0,0,0,0,0,-1,1490,1324,0,0
273,-300,0,0,0,0,0,0,0,0,0,-1,1497,1324,0,0
280,-300,0,0,0,0,0,0,0,0,0,-1,1504,1324,0,0
287,-300,0,0,0,0,0,0,0,0,0,-1,1511,1324,0,0
294,-300,0,0,0,0,0,0,0,0,0,-1,1518,1324,0,0
301,-300,0,0,0,0,0,0,0,0,0,-1,1525,1324,0,0
308,-300,0,0,0,0,0,0,0,0,0,-1,1532,1324,0,0
315,-300,0,0,0,0,0,0,0,0,0,-1,1539,1324,0,0
322,-300,0,0,0,0,0,0,0,0,0,-1,1546,1324,0,0
329,-300,0,0,0,0,0,0,0,0,0,-1,1553,1324,0,0
336,-300,0,0,0,0,0,0,0,0,0,-1,1560,1324,0,0
343,-300,0,0,0,0,0,0,0,0,0,-1,1567,1324,0,0
350,-300,0,0,0,0,0,0,0,0,0,-1,1574,1324,0,0
357,-300,0,0,0,0,0,0,0,0,0,-1,1581,1324,0,0
364,-300,0,0,0,0,0,0,0,0,0,-1,1588,1324,0,0
371,-300,0,0,0,0,0,0,0,0,0,-1,1595,1324,0,0
378,-300,0,0,0,0,0,0,0,0,0,-1,1602,1324,0,0
385,-300,0,0,0,0,0,0,0,0,0,-1,1609,1324,0,0
392,-300,0,0,0,0,0,0,0,0,0,-1,1616,1324,0,0
399,-300,0,0,0,0,0,0,0,0,0,-1,1623,1324,0,0
406,-300,0,0,0,0,0,0,0,0,0,-1,1630,1324,0,0
413,-300,0,0,0,0,0,0,0,0,0,-1,1637,1324,0,0
420,-300,0,0,0,0,0,0,0,0,0,-1,1644,1324,0,0
427,-300,0,0,0,0,0,0,0,0,0,-1,1651,1324,0,0
434,-300,0,0,0,0,0,0,0,0,0,-1,1658,1324,0,0
441,-300,0,0,0,0,0,0,0,0,0,-1,1665,1324,0,0
448,-300,0,0,0,0,0,0,0,0,0,-1,1672,1324,0,0
455,-300,0,0,0,0,0,0,0,0,0,-1,1679,1324,0,0
462,-300,0,0,0,0,0,0,0,0,0,-1,1686,1324,0,0
469,-300,0,0,0,0,0,0,0,0,0,-1,1693,1324,0,0
476,-300,0,0,0,0,0,0,0,0,0,-1,1700,1324,0,0
483,-300,0,0,0,0,0,0,0,0,0,-1,1707,1324,0,0
490,-300,0,0,0,0,0,0,0,0,0,-1,1714,1324,0,0
497,-300,0,0,0,0,0,0,0,0,0,-1,1721,1324,0,0
504,-300,0,0,0,0,0,0,0,0,0,-1,1728,1324,0,0
511,-300,0,0,0,0,0,0,0,0,0,-1,1735,1324,0,0
518,-300,0,0,0,0,0,0,0,0,0,-1,1742,1324,0,0
525,-300,0,0,0,0,0,0,0,0,0,-1,1749,1324,0,0
532,-300,0,0,0,0,0,0,0,0,0,-1,1756,1324,0,0
539,-300,0,0,0,0,0,0,0,0,0,-1,1763,1324,0,0
546,-300,0,0,0,0,0,0,0,0,0,-1,1770,1324,0,0
553,-300,0,0,0,0,0,0,0,0,0,-1,1777,1324,0,0
560,-300,0,0,0,0,0,0,0,0,0,-1,1784,1324,0,0
567,-300,0,0,0,0,0,0,0,0,0,-1,1791,1324,0,0
574,-300,0,0,0,0,0,0,0,0,0,-1,1798,1324,0,0
581,-300,0,0,0,0,0,0,0,0,0,-1,1805,1324,0,0
588,-300,20.7896,2.79749,0,0,0,0,0,0,0,-1,1812,1324,20.7895,-2.79751
595,-300,20.4746,2.34937,-0.0282916,0.0372345,-0.0144939,0.0402973,-0.0313544,-1.36254,0.0414754,0.0441981,1819,1324,20.4747,-2.34935
602,-300,20.1093,1.89014,-0.0204082,0.0398499,-0.0066252,0.0405697,-0.021128,-1.46257,0.0362059,0.0495225,1826,1324,20.1092,-1.89012
609,-300,20.5585,1.69055,-0.0181925,0.0395606,0.000216744,0.0395614,-0.0181933,1.56704,0.0340969,0.0490655,1833,1324,20.5584,-1.6906
616,-300,19.1179,-0.134033,0,0,0,0,0,0,0,-1,1840,1324,19.118,0.134088
623,-300,18.7517,0.0612793,-0.0167306,0.0333598,0.00849081,0.0347599,-0.0181308,1.40737,0.0310355,0.0492851,1847,1324,18.7517,-0.0612994
630,-300,18.7289,0.859009,-0.0168037,0.0287882,0.0108319,0.0312308,-0.0192463,1.349,0.0294155,0.0498594,1854,1324,18.7288,-0.858975
637,-300,18.8286,1.64929,0,0,0,0,0,0,0,-1,1861,1324,18.8286,-1.64931
644,-300,18.4546,2.50049,0,0,0,0,0,0,0,-1,1868,1324,18.4546,-2.50053
651,-300,16.624,6.19531,0,0,0,0,0,0,0,-1,1875,1324,16.624,-6.19527
658,-300,16.2064,6.1582,-0.016624,0.0116017,0.0121533,0.0161135,-0.0211358,1.21533,0.0215709,0.0425331,1882,1324,16.2064,-6.15815
665,-300,15.9185,5.95166,-0.0161767,0.00813152,0.011596,0.0127759,-0.0208211,1.18985,0.0195817,0.0267584,1889,1324,15.9184,-5.95171
672,-300,15.8457,5.7948,-0.0142359,0.00525757,0.00970051,0.00926215,-0.0182405,1.17929,0.0161582,0.00991786,1896,1324,15.8458,-5.7948
679,-300,15.8497,5.58948,-0.0115527,0.00172744,0.0065783,0.00443428,-0.0142595,1.18043,0.0112788,0.010682,1903,1324,15.8498,-5.58946
686,-300,15.8618,5.40686,-0.00950978,0.000500138,0.0042639,0.00207017,-0.0110798,1.21799,0.00816455,0.0109598,1910,1324,15.8618,-5.40688
693,-300,15.8529,5.22217,-0.00674845,0.000645629,0.00252215,0.00142401,-0.00752682,1.27145,0.00555374,0.00946164,1917,1324,15.8529,-5.22222
700,-300,15.8488,5.02539,-0.00304297,0.00195261,0.000824961,0.00208532,-0.00317568,1.4113,0.00305911,0.0113301,1924,1324,15.8487,-5.0254
707,-300,15.8533,4.8396,-9.62741e-05,0.00248168,-0.00125683,0.002993,-0.000607594,-1.18441,0.00222569,0.00819108,1931,1324,15.8533,-4.8396
714,-300,15.8572,4.66162,0.00196325,0.00405133,-0.00297733,0.00616236,-0.000147785,-0.954032,0.00415838,0.00977696,1938,1324,15.8571,-4.66163
721,-300,15.8632,4.48694,0.00397671,0.00626404,-0.00483316,0.010087,0.000153748,-0.901576,0.00667401,0.0115533,1945,1324,15.8631,-4.48694
728,-300,15.8839,4.28259,0.00614489,0.00857067,-0.00682539,0.0142901,0.000425464,-0.873331,0.00938813,0.0101506,1952,1324,15.8839,-4.28262
735,-300,15.8293,4.1366,0.00898576,0.011318,-0.0092824,0.0195073,0.000796545,-0.847885,0.0127476,0.0158382,1959,1324,15.8294,-4.13659
742,-300,15.9407,3.87402,0.0129162,0.0147552,-0.0124687,0.0263383,0.00133312,-0.822204,0.0171318,0.028156,1966,1324,15.9407,-3.87397
749,-300,16.0844,3.52234,0.018314,0.0190831,-0.0165983,0.0353012,0.00209581,-0.79698,0.0228676,0.0432796,1973,1324,16.0843,-3.52235
756,-300,16.181,3.17273,0,0,0,0,0,0,0,-1,1980,1324,16.181,-3.17277
763,-300,16.283,3.80542,0,0,0,0,0,0,0,-1,1987,1324,16.283,-3.80545
770,-300,16.4082,5.24438,0,0,0,0,0,0,0,-1,1994,1324,16.4082,-5.24439
777,-300,0,0,0,0,0,0,0,0,0,-1,2001,1324,0,0
784,-300,0,0,0,0,0,0,0,0,0,-1,2008,1324,0,0
791,-300,0,0,0,0,0,0,0,0,0,-1,2015,1324,0,0
798,-300,0,0,0,0,0,0,0,0,0,-1,2022,1324,0,0
805,-300,0,0,0,0,0,0,0,0,0,-1,2029,1324,0,0
812,-300,0,0,0,0,0,0,0,0,0,-1,2036,1324,0,0
-700,-307,0,0,0,0,0,0,0,0,0,-1,524,1331,0,0
-693,-307,0,0,0,0,0,0,0,0,0,-1,531,1331,0,0
-686,-307,0,0,0,0,0,0,0,0,0,-1,538,1331,0,0
-679,-307,0,0,0,0,0,0,0,0,0,-1,545,1331,0,0
-672,-307,0,0,0,0,0,0,0,0,0,-1,552,1331,0,0
-665,-307,0,0,0,0,0,0,0,0,0,-1,559,1331,0,0
-658,-307,0,0,0,0,0,0,0,0,0,-1,566,1331,0,0
-651,-307,-10.3376,-1.19128,0,0,0,0,0,0,0,-1,573,1331,-10.3376,1.19124
-644,-307,-9.84338,-1.57385,0,0,0,0,0,0,0,-1,580,1331,-9.8434,1.57385
-637,-307,-9.53278,-1.77747,0,0,0,0,0,0,0,-1,587,1331,-9.53276,1.77748
-630,-307,-8.7594,-1.68286,0.0881364,0.0813914,0.00761622,0.0930934,0.0764344,0.576973,0.0573219,0.0492131,594,1331,-8.75938,1.68286
-623,-307,-7.97192,-1.55432,0.0723307,0.0673346,0.00581123,0.0761581,0.0635073,0.582406,0.0471246,0.0461622,601,1331,-7.97193,1.55429
-616,-307,-7.27484,-1.41003,0,0,0,0,0,0,0,-1,608,1331,-7.27486,1.41008
-609,-307,-7.22913,1.68372,0,0,0,0,0,0,0,-1,615,1331,-7.22912,-1.68372
-602,-307,-7.26221,1.80151,0.0309243,0.0316422,0.00260021,0.0339081,0.0286584,0.853986,0.0210746,0.0368199,622,1331,-7.26219,-1.80146
-595,-307,-7.4054,2.07458,0.0219784,0.0221199,0.00168954,0.0237402,0.0203581,0.806335,0.0148286,0.0179158,629,1331,-7.40537,-2.07463
-588,-307,-7.38049,2.32678,0.0142453,0.0146478,0.000543575,0.0150262,0.0138669,0.962675,0.00965426,0.0175495,636,1331,-7.38047,-2.32676
-581,-307,-7.35992,2.53931,0.00671905,0.00860945,4.50658e-05,0.00861053,0.00671798,1.54698,0.00522503,0.0163919,643,1331,-7.35993,-2.53933
-574,-307,-7.3584,2.74243,0.00172324,0.00335142,0.000150255,0.00336517,0.00170949,1.47954,0.00194296,0.0132889,650,1331,-7.35843,-2.74249
-567,-307,-7.36707,2.96582,0.000444667,0.000109744,-3.24715e-05,0.000447786,0.000106625,-0.0957639,0.000270091,0.0125724,657,1331,-7.36707,-2.96586
-560,-307,-7.34857,3.19983,0.000306013,-0.00109571,-0.000639709,0.000554064,-0.00134376,-0.369907,0.00112688,0.0140599,664,1331,-7.34856,-3.19988
-553,-307,-7.36224,3.40051,-0.000850275,-0.00162024,-0.00127497,9.65695e-05,-0.00256709,-0.638773,0.00174447,0.0109761,671,1331,-7.36222,-3.40047
-546,-307,-7.36945,3.61572,-0.00330614,-0.00252646,-0.00141208,-0.0014514,-0.00438121,-0.92008,0.00257705,0.0100994,678,1331,-7.36946,-3.61572
-539,-307,-7.34338,3.85107,-0.00714111,-0.0031887,-0.00110864,-0.00289897,-0.00743084,-1.31517,0.00432459,0.0121973,685,1331,-7.34339,-3.85107
-532,-307,-7.31561,3.98193,-0.0119415,-0.00390961,-0.00102404,-0.0037811,-0.01207,-1.44596,0.0071288,0.0276807,692,1331,-7.31559,-3.98195
-525,-307,-7.35284,3.95276,-0.0155793,-0.00700066,-0.000979428,-0.00689025,-0.0156897,-1.45855,0.00908078,0.0468913,699,1331,-7.35286,-3.95281
-518,-307,-7.65332,4.25024,0,0,0,0,0,0,0,-1,706,1331,-7.65332,-4.25019
-511,-307,-10.4205,2.29553,0,0,0,0,0,0,0,-1,713,1331,-10.4205,-2.2955
-504,-307,-9.23065,1.50452,0,0,0,0,0,0,0,-1,720,1331,-9.23063,-1.50452
-497,-307,-12.1674,0.855957,0,0,0,0,0,0,0,-1,727,1331,-12.1674,-0.855905
-490,-307,-12.1544,0.746826,0,0,0,0,0,0,0,-1,734,1331,-12.1544,-0.746824
-483,-307,-12.1621,0.844604,0,0,0,0,0,0,0,-1,741,1331,-12.1621,-0.844565
-476,-307,-12.0628,0.968384,0,0,0,0,0,0,0,-1,748,1331,-12.0628,-0.968434
-469,-307,-11.7548,1.09668,0,0,0,0,0,0,0,-1,755,1331,-11.7548,-1.09665
-462,-307,0,0,0,0,0,0,0,0,0,-1,762,1331,0,0
-455,-307,0,0,0,0,0,0,0,0,0,-1,769,1331,0,0
-448,-307,0,0,0,0,0,0,0,0,0,-1,776,1331,0,0
-441,-307,0,0,0,0,0,0,0,0,0,-1,783,1331,0,0
-434,-307,0,0,0,0,0,0,0,0,0,-1,790,1331,0,0
-427,-307,0,0,0,0,0,0,0,0,0,-1,797,1331,0,0
-420,-307,0,0,0,0,0,0,0,0,0,-1,804,1331,0,0
-413,-307,0,0,0,0,0,0,0,0,0,-1,811,1331,0,0
-406,-307,0,0,0,0,0,0,0,0,0,-1,818,1331,0,0
-399,-307,0,0,0,0,0,0,0,0,0,-1,825,1331,0,0
-392,-307,0,0,0,0,0,0,0,0,0,-1,832,1331,0,0
-385,-307,0,0,0,0,0,0,0,0,0,-1,839,1331,0,0
-378,-307,0,0,0,0,0,0,0,0,0,-1,846,1331,0,0
-371,-307,0,0,0,0,0,0,0,0,0,-1,853,1331,0,0
-364,-307,0,0,0,0,0,0,0,0,0,-1,860,1331,0,0
-357,-307,0,0,0,0,0,0,0,0,0,-1,867,1331,0,0
-350,-307,0,0,0,0,0,0,0,0,0,-1,874,1331,0,0
-343,-307,0,0,0,0,0,0,0,0,0,-1,881,1331,0,0
-336,-307,0,0,0,0,0,0,0,0,0,-1,888,1331,0,0
-329,-307,0,0,0,0,0,0,0,0,0,-1,895,1331,0,0
-322,-307,0,0,0,0,0,0,0,0,0,-1,902,1331,0,0
-315,-307,0,0,0,0,0,0,0,0,0,-1,909,1331,0,0
-308,-307,0,0,0,0,0,0,0,0,0,-1,916,1331,0,0
-301,-307,0,0,0,0,0,0,0,0,0,-1,923,1331,0,0
-294,-307,0,0,0,0,0,0,0,0,0,-1,930,1331,0,0
-287,-307,0,0,0,0,0,0,0,0,0,-1,937,1331,0,0
-280,-307,0,0,0,0,0,0,0,0,0,-1,944,1331,0,0
-273,-307,0,0,0,0,0,0,0,0,0,-1,951,1331,0,0
-266,-307,0,0,0,0,0,0,0,0,0,-1,958,1331,0,0
-259,-307,0,0,0,0,0,0,0,0,0,-1,965,1331,0,0
-252,-307,0,0,0,0,0,0,0,0,0,-1,972,1331,0,0
-245,-307,0,0,0,0,0,0,0,0,0,-1,979,1331,0,0
-238,-307,0,0,0,0,0,0,0,0,0,-1,986,1331,0,0
-231,-307,0,0,0,0,0,0,0,0,0,-1,993,1331,0,0
-224,-307,0,0,0,0,0,0,0,0,0,-1,1000,1331,0,0
-217,-307,0,0,0,0,0,0,0,0,0,-1,1007,1331,0,0
-210,-307,0,0,0,0,0,0,0,0,0,-1,1014,1331,0,0
-203,-307,0,0,0,0,0,0,0,0,0,-1,1021,1331,0,0
-196,-307,0,0,0,0,0,0,0,0,0,-1,1028,1331,0,0
-189,-307,0,0,0,0,0,0,0,0,0,-1,1035,1331,0,0
-182,-307,0,0,0,0,0,0,0,0,0,-1,1042,1331,0,0
-175,-307,0,0,0,0,0,0,0,0,0,-1,1049,1331,0,0
-168,-307,0,0,0,0,0,0,0,0,0,-1,1056,1331,0,0
-161,-307,0,0,0,0,0,0,0,0,0,-1,1063,1331,0,0
-154,-307,0,0,0,0,0,0,0,0,0,-1,1070,1331,0,0
-147,-307,0,0,0,0,0,0,0,0,0,-1,1077,1331,0,0
-140,-307,0,0,0,0,0,0,0,0,0,-1,1084,1331,0,0
-133,-307,0,0,0,0,0,0,0,0,0,-1,1091,1331,0,0
-126,-307,0,0,0,0,0,0,0,0,0,-1,1098,1331,0,0
-119,-307,0,0,0,0,0,0,0,0,0,-1,1105,1331,0,0
-112,-307,0,0,0,0,0,0,0,0,0,-1,1112,1331,0,0
-105,-307,0,0,0,0,0,0,0,0,0,-1,1119,1331,0,0
-98,-307,0,0,0,0,0,0,0,0,0,-1,1126,1331,0,0
-91,-307,0,0,0,0,0,0,0,0,0,-1,1133,1331,0,0
-84,-307,0,0,0,0,0,0,0,0,0,-1,1140,1331,0,0
-77,-307,0,0,0,0,0,0,0,0,0,-1,1147,1331,0,0
-70,-307,0,0,0,0,0,0,0,0,0,-1,1154,1331,0,0
-63,-307,0,0,0,0,0,0,0,0,0,-1,1161,1331,0,0
-56,-307,0,0,0,0,0,0,0,0,0,-1,1168,1331,0,0
-49,-307,0,0,0,0,0,0,0,0,0,-1,1175,1331,0,0
-42,-307,0,0,0,0,0,0,0,0,0,-1,1182,1331,0,0
-35,-307,0,0,0,0,0,0,0,0,0,-1,1189,1331,0,0
-28,-307,0,0,0,0,0,0,0,0,0,-1,1196,1331,0,0
-21,-307,0,0,0,0,0,0,0,0,0,-1,1203,1331,0,0
-14,-307,0,0,0,0,0,0,0,0,0,-1,1210,1331,0,0
-7,-307,0,0,0,0,0,0,0,0,0,-1,1217,1331,0,0
0,-307,0,0,0,0,0,0,0,0,0,-1,1224,1331,0,0
7,-307,0,0,0,0,0,0,0,0,0,-1,1231,1331,0,0
14,-307,0,0,0,0,0,0,0,0,0,-1,1238,1331,0,0
21,-307,0,0,0,0,0,0,0,0,0,-1,1245,1331,0,0
28,-307,0,0,0,0,0,0,0,0,0,-1,1252,1331,0,0
35,-307,0,0,0,0,0,0,0,0,0,-1,1259,1331,0,0
42,-307,0,0,0,0,0,0,0,0,0,-1,1266,1331,0,0
49,-307,0,0,0,0,0,0,0,0,0,-1,1273,1331,0,0
56,-307,0,0,0,0,0,0,0,0,0,-1,1280,1331,0,0
63,-307,0,0,0,0,0,0,0,0,0,-1,1287,1331,0,0
70,-307,0,0,0,0,0,0,0,0,0,-1,1294,1331,0,0
77,-307,0,0,0,0,0,0,0,0,0,-1,1301,1331,0,0
84,-307,0,0,0,0,0,0,0,0,0,-1,1308,1331,0,0
91,-307,0,0,0,0,0,0,0,0,0,-1,1315,1331,0,0
98,-307,0,0,0,0,0,0,0,0,0,-1,1322,1331,0,0
105,-307,0,0,0,0,0,0,0,0,0,-1,1329,1331,0,0
112,-307,0,0,0,0,0,0,0,0,0,-1,1336,1331,0,0
119,-307,0,0,0,0,0,0,0,0,0,-1,1343,1331,0,0
126,-307,0,0,0,0,0,0,0,0,0,-1,1350,1331,0,0
133,-307,0,0,0,0,0,0,0,0,0,-1,1357,1331,0,0
140,-307,0,0,0,0,0,0,0,0,0,-1,1364,1331,0,0
147,-307,0,0,0,0,0,0,0,0,0,-1,1371,1331,0,0
154,-307,0,0,0,0,0,0,0,0,0,-1,1378,1331,0,0
161,-307,0,0,0,0,0,0,0,0,0,-1,1385,1331,0,0
168,-307,0,0,0,0,0,0,0,0,0,-1,1392,1331,0,0
175,-307,0,0,0,0,0,0,0,0,0,-1,1399,1331,0,0
182,-307,0,0,0,0,0,0,0,0,0,-1,1406,1331,0,0
189,-307,0,0,0,0,0,0,0,0,0,-1,1413,1331,0,0
196,-307,0,0,0,0,0,0,0,0,0,-1,1420,1331,0,0
203,-307,0,0,0,0,0,0,0,0,0,-1,1427,1331,0,0
210,-307,0,0,0,0,0,0,0,0,0,-1,1434,1331,0,0
217,-307,0,0,0,0,0,0,0,0,0,-1,1441,1331,0,0
224,-307,0,0,0,0,0,0,0,0,0,-1,1448,1331,0,0
231,-307,0,0,0,0,0,0,0,0,0,-1,1455,1331,0,0
238,-307,0,0,0,0,0,0,0,0,0,-1,1462,1331,0,0
245,-307,0,0,0,0,0,0,0,0,0,-1,1469,1331,0,0
252,-307,0,0,0,0,0,0,0,0,0,-1,1476,1331,0,0
259,-307,0,0,0,0,0,0,0,0,0,-1,1483,1331,0,0
266,-307,0,0,0,0,0,0,0,0,0,-1,1490,1331,0,0
273,-307,0,0,0,0,0,0,0,0,0,-1,1497,1331,0,0
280,-307,0,0,0,0,0,0,0,0,0,-1,1504,1331,0,0
287,-307,0,0,0,0,0,0,0,0,0,-1,1511,1331,0,0
294,-307,0,0,0,0,0,0,0,0,0,-1,1518,1331,0,0
301,-307,0,0,0,0,0,0,0,0,0,-1,1525,1331,0,0
308,-307,0,0,0,0,0,0,0,0,0,-1,1532,1331,0,0
315,-307,0,0,0,0,0,0,0,0,0,-1,1539,1331,0,0
322,-307,0,0,0,0,0,0,0,0,0,-1,1546,1331,0,0
329,-307,0,0,0,0,0,0,0,0,0,-1,1553,1331,0,0
336,-307,0,0,0,0,0,0,0,0,0,-1,1560,1331,0,0
343,-307,0,0,0,0,0,0,0,0,0,-1,1567,1331,0,0
350,-307,0,0,0,0,0,0,0,0,0,-1,1574,1331,0,0
357,-307,0,0,0,0,0,0,0,0,0,-1,1581,1331,0,0
364,-307,0,0,0,0,0,0,0,0,0,-1,1588,1331,0,0
371,-307,0,0,0,0,0,0,0,0,0,-1,1595,1331,0,0
378,-307,0,0,0,0,0,0,0,0,0,-1,1602,1331,0,0
385,-307,0,0,0,0,0,0,0,0,0,-1,1609,1331,0,0
392,-307,0,0,0,0,0,0,0,0,0,-1,1616,1331,0,0
399,-307,0,0,0,0,0,0,0,0,0,-1,1623,1331,0,0
406,-307,0,0,0,0,0,0,0,0,0,-1,1630,1331,0,0
413,-307,0,0,0,0,0,0,0,0,0,-1,1637,1331,0,0
420,-307,0,0,0,0,0,0,0,0,0,-1,1644,1331,0,0
427,-307,0,0,0,0,0,0,0,0,0,-1,1651,1331,0,0
434,-307,0,0,0,0,0,0,0,0,0,-1,1658,1331,0,0
441,-307,0,0,0,0,0,0,0,0,0,-1,1665,1331,0,0
448,-307,0,0,0,0,0,0,0,0,0,-1,1672,1331,0,0
455,-307,0,0,0,0,0,0,0,0,0,-1,1679,1331,0,0
462,-307,0,0,0,0,0,0,0,0,0,-1,1686,1331,0,0
469,-307,0,0,0,0,0,0,0,0,0,-1,1693,1331,0,0
476,-307,0,0,0,0,0,0,0,0,0,-1,1700,1331,0,0
483,-307,0,0,0,0,0,0,0,0,0,-1,1707,1331,0,0
490,-307,0,0,0,0,0,0,0,0,0,-1,1714,1331,0,0
497,-307,0,0,0,0,0,0,0,0,0,-1,1721,1331,0,0
504,-307,0,0,0,0,0,0,0,0,0,-1,1728,1331,0,0
511,-307,0,0,0,0,0,0,0,0,0,-1,1735,1331,0,0
518,-307,0,0,0,0,0,0,0,0,0,-1,1742,1331,0,0
525,-307,0,0,0,0,0,0,0,0,0,-1,1749,1331,0,0
532,-307,0,0,0,0,0,0,0,0,0,-1,1756,1331,0,0
539,-307,0,0,0,0,0,0,0,0,0,-1,1763,1331,0,0
546,-307,0,0,0,0,0,0,0,0,0,-1,1770,1331,0,0
553,-307,0,0,0,0,0,0,0,0,0,-1,1777,1331,0,0
560,-307,0,0,0,0,0,0,0,0,0,-1,1784,1331,0,0
567,-307,0,0,0,0,0,0,0,0,0,-1,1791,1331,0,0
574,-307,0,0,0,0,0,0,0,0,0,-1,1798,1331,0,0
581,-307,0,0,0,0,0,0,0,0,0,-1,1805,1331,0,0
588,-307,23.7361,-1.1394,0,0,0,0,0,0,0,-1,1812,1331,23.736,1.13945
595,-307,20.5699,2.33069,0,0,0,0,0,0,0,-1,1819,1331,20.57,-2.33074
602,-307,19.9893,1.73193,0,0,0,0,0,0,0,-1,1826,1331,19.9893,-1.73194
609,-307,20.7295,1.5061,-0.0174704,0.0396135,-0.00139839,0.0396477,-0.0175046,-1.54632,0.0338124,0.047856,1833,1331,20.7295,-1.50609
616,-307,20.4042,1.11877,-0.0159034,0.036696,0.0035165,0.03693,-0.0161375,1.50434,0.0314127,0.0452256,1840,1331,20.4042,-1.11883
623,-307,18.0212,-1.38684,0,0,0,0,0,0,0,-1,1847,1331,18.0212,1.38681
630,-307,17.8539,0.28125,0,0,0,0,0,0,0,-1,1854,1331,17.8538,-0.281208
637,-307,16.6766,1.98096,0,0,0,0,0,0,0,-1,1861,1331,16.6766,-1.98096
644,-307,16.6293,5.94641,0,0,0,0,0,0,0,-1,1868,1331,16.6293,-5.94645
651,-307,16.0592,6.23438,0,0,0,0,0,0,0,-1,1875,1331,16.0591,-6.23441
658,-307,15.8484,6.10388,-0.0157043,0.0103019,0.0117934,0.0148535,-0.0202559,1.20247,0.0203502,0.0465051,1882,1331,15.8484,-6.10392
665,-307,15.6899,5.96313,-0.0151254,0.00670914,0.0111257,0.0113793,-0.0197956,1.17337,0.0182161,0.0168555,1889,1331,15.69,-5.96312
672,-307,15.6749,5.78162,-0.0129927,0.00392219,0.00903453,0.00784016,-0.0169107,1.16161,0.0146063,0.00863612,1896,1331,15.6749,-5.78162
679,-307,15.6749,5.59204,-0.0102954,0.00078365,0.00581124,0.00327263,-0.0127843,1.16613,0.00979769,0.00962458,1903,1331,15.6749,-5.592
686,-307,15.6704,5.40881,-0.00816003,5.21376e-05,0.00346355,0.00131784,-0.00942574,1.22044,0.00676602,0.00950524,1910,1331,15.6704,-5.40877
693,-307,15.662,5.22498,-0.00544548,0.000651221,0.00165244,0.00107029,-0.00586454,1.32243,0.00431098,0.0109916,1917,1331,15.6619,-5.22495
700,-307,15.668,5.02698,-0.0020588,0.00222576,-0.000104249,0.00222829,-0.00206134,-1.54648,0.00247725,0.0120183,1924,1331,15.6679,-5.02701
707,-307,15.6672,4.82959,0.000586187,0.0031886,-0.0020842,0.00434443,-0.000569641,-1.06445,0.00310364,0.0137743,1931,1331,15.6672,-4.82953
714,-307,15.6788,4.65515,0.00258656,0.0049949,-0.00385095,0.00782556,-0.000244103,-0.936929,0.00530028,0.0127864,1938,1331,15.6788,-4.6551
721,-307,15.6942,4.48547,0.00467674,0.00732518,-0.00579961,0.0119498,5.20917e-05,-0.897639,0.00794925,0.0143001,1945,1331,15.6942,-4.48548
728,-307,15.6711,4.3269,0.0071107,0.00979181,-0.00795974,0.0165231,0.000379421,-0.868824,0.0108911,0.0192616,1952,1331,15.6711,-4.32686
735,-307,15.5747,4.12683,0.0104258,0.0127249,-0.0106433,0.0222805,0.000870167,-0.839193,0.0145723,0.0296824,1959,1331,15.5747,-4.12681
742,-307,15.6196,3.83899,0.0150334,0.0162487,-0.0140609,0.0297151,0.00156704,-0.806993,0.0193089,0.0381846,1966,1331,15.6197,-3.83897
749,-307,16.1558,3.32324,0.0212933,0.0204362,-0.0183252,0.0391949,0.00253454,-0.773707,0.0253274,0.0447726,1973,1331,16.1558,-3.32321
756,-307,16.1866,3.23914,0,0,0,0,0,0,0,-1,1980,1331,16.1867,-3.23914
763,-307,16.4208,3.54578,0,0,0,0,0,0,0,-1,1987,1331,16.4207,-3.54575
770,-307,0,0,0,0,0,0,0,0,0,-1,1994,1331,0,0
777,-307,0,0,0,0,0,0,0,0,0,-1,2001,1331,0,0
784,-307,0,0,0,0,0,0,0,0,0,-1,2008,1331,0,0
791,-307,0,0,0,0,0,0,0,0,0,-1,2015,1331,0,0
798,-307,0,0,0,0,0,0,0,0,0,-1,2022,1331,0,0
805,-307,0,0,0,0,0,0,0,0,0,-1,2029,1331,0,0
812,-307,0,0,0,0,0,0,0,0,0,-1,2036,1331,0,0
-700,-314,0,0,0,0,0,0,0,0,0,-1,524,1338,0,0
-693,-314,0,0,0,0,0,0,0,0,0,-1,531,1338,0,0
-686,-314,0,0,0,0,0,0,0,0,0,-1,538,1338,0,0
-679,-314,0,0,0,0,0,0,0,0,0,-1,545,1338,0,0
-672,-314,0,0,0,0,0,0,0,0,0,-1,552,1338,0,0
-665,-314,0,0,0,0,0,0,0,0,0,-1,559,1338,0,0
-658,-314,0,0,0,0,0,0,0,0,0,-1,566,1338,0,0
-651,-314,0,0,0,0,0,0,0,0,0,-1,573,1338,0,0
-644,-314,-9.54065,-2.22302,0,0,0,0,0,0,0,-1,580,1338,-9.54064,2.22297
-637,-314,-8.92621,-2.47461,0,0,0,0,0,0,0,-1,587,1338,-8.92623,2.47458
-630,-314,-8.11432,-2.39502,0.110541,0.0812651,0.00776622,0.112473,0.0793325,0.243897,0.066737,0.0482533,594,1338,-8.11431,2.39496
-623,-314,-7.46765,-2.31409,0.0897924,0.0681208,0.00575521,0.091226,0.0666872,0.244119,0.054511,0.0484728,601,1338,-7.46764,2.31411
-616,-314,-7.1792,-1.82483,0,0,0,0,0,0,0,-1,608,1338,-7.17923,1.82483
-609,-314,-6.5354,-1.35645,0,0,0,0,0,0,0,-1,615,1338,-6.53539,1.35649
-602,-314,-7.07361,1.5741,0.0373939,0.0333575,0.0022319,0.0383848,0.0323666,0.417819,0.0238384,0.0427279,622,1338,-7.07363,-1.57409
-595,-314,-7.04559,2.09448,0.0259951,0.0236408,0.00127321,0.026552,0.0230839,0.412285,0.016666,0.0341551,629,1338,-7.04562,-2.09443
-588,-314,-7.15485,2.31616,0.0164927,0.0158235,0.000103691,0.0165084,0.0158078,0.150253,0.0107797,0.0158428,636,1338,-7.15486,-2.31615
-581,-314,-7.13116,2.52649,0.00726648,0.00950963,-0.000548391,0.00963652,0.00713959,-1.34341,0.00577487,0.01331,643,1338,-7.13119,-2.52644
-574,-314,-7.16058,2.70898,0.00110971,0.00401073,-0.000294805,0.00404038,0.00108005,-1.47054,0.00241545,0.0135593,650,1338,-7.16061,-2.70902
-567,-314,-7.16254,2.9491,-0.000147161,0.000641316,-0.000298473,0.000741558,-0.000247403,-1.24679,0.000594261,0.0146806,657,1338,-7.16251,-2.94912
-560,-314,-7.13019,3.20032,-0.00016082,-0.000612461,-0.000761601,0.000407734,-0.00118102,-0.641273,0.000952794,0.0151792,664,1338,-7.13018,-3.20031
-553,-314,-7.16663,3.38879,-0.000890188,-0.00130325,-0.0012282,0.000148725,-0.00234217,-0.702099,0.00161331,0.017314,671,1338,-7.16662,-3.38877
-546,-314,-7.16888,3.60266,-0.00269077,-0.0023487,-0.001385,-0.00112422,-0.00391526,-0.846833,0.00232776,0.0169627,678,1338,-7.16891,-3.60262
-539,-314,-7.12201,3.8418,-0.0057425,-0.00318258,-0.00117575,-0.00272453,-0.00620055,-1.1993,0.00358864,0.0158048,685,1338,-7.12203,-3.84174
-532,-314,-7.01385,4.07471,-0.00973685,-0.00411033,-0.00112762,-0.00389276,-0.00995442,-1.38019,0.00579248,0.0253889,692,1338,-7.01387,-4.0747
-525,-314,-7.27722,4.21887,-0.012276,-0.00785629,-0.00123702,-0.00753362,-0.0125987,-1.31564,0.00732025,0.0441957,699,1338,-7.2772,-4.21884
-518,-314,-7.33734,4.27747,-0.0133817,-0.0136665,-0.00116484,-0.0123506,-0.0146976,-0.724569,0.00911733,0.0469481,706,1338,-7.33737,-4.27746
-511,-314,-7.47382,4.26489,0,0,0,0,0,0,0,-1,713,1338,-7.47381,-4.2649
-504,-314,-9.03497,1.86768,0,0,0,0,0,0,0,-1,720,1338,-9.03499,-1.86769
-497,-314,-8.85968,1.75073,0,0,0,0,0,0,0,-1,727,1338,-8.85967,-1.7507
-490,-314,-12.5026,0.903076,0,0,0,0,0,0,0,-1,734,1338,-12.5026,-0.903039
-483,-314,-12.4792,1.22522,0,0,0,0,0,0,0,-1,741,1338,-12.4792,-1.22516
-476,-314,-12.2401,1.52991,0,0,0,0,0,0,0,-1,748,1338,-12.2401,-1.52988
-469,-314,-12.0811,1.89783,0,0,0,0,0,0,0,-1,755,1338,-12.0811,-1.89787
-462,-314,0,0,0,0,0,0,0,0,0,-1,762,1338,0,0
-455,-314,0,0,0,0,0,0,0,0,0,-1,769,1338,0,0
-448,-314,0,0,0,0,0,0,0,0,0,-1,776,1338,0,0
-441,-314,0,0,0,0,0,0,0,0,0,-1,783,1338,0,0
-434,-314,0,0,0,0,0,0,0,0,0,-1,790,1338,0,0
-427,-314,0,0,0,0,0,0,0,0,0,-1,797,1338,0,0
-420,-314,0,0,0,0,0,0,0,0,0,-1,804,1338,0,0
-413,-314,0,0,0,0,0,0,0,0,0,-1,811,1338,0,0
-406,-314,0,0,0,0,0,0,0,0,0,-1,818,1338,0,0
-399,-314,0,0,0,0,0,0,0,0,0,-1,825,1338,0,0
-392,-314,0,0,0,0,0,0,0,0,0,-1,832,1338,0,0
-385,-314,0,0,0,0,0,0,0,0,0,-1,839,1338,0,0
-378,-314,0,0,0,0,0,0,0,0,0,-1,846,1338,0,0
-371,-314,0,0,0,0,0,0,0,0,0,-1,853,1338,0,0
-364,-314,0,0,0,0,0,0,0,0,0,-1,860,1338,0,0
-357,-314,0,0,0,0,0,0,0,0,0,-1,867,1338,0,0
-350,-314,0,0,0,0,0,0,0,0,0,-1,874,1338,0,0
-343,-314,0,0,0,0,0,0,0,0,0,-1,881,1338,0,0
-336,-314,0,0,0,0,0,0,0,0,0,-1,888,1338,0,0
-329,-314,0,0,0,0,0,0,0,0,0,-1,895,1338,0,0
-322,-314,0,0,0,0,0,0,0,0,0,-1,902,1338,0,0
-315,-314,0,0,0,0,0,0,0,0,0,-1,909,1338,0,0
-308,-314,0,0,0,0,0,0,0,0,0,-1,916,1338,0,0
-301,-314,0,0,0,0,0,0,0,0,0,-1,923,1338,0,0
-294,-314,0,0,0,0,0,0,0,0,0,-1,930,1338,0,0
-287,-314,0,0,0,0,0,0,0,0,0,-1,937,1338,0,0
-280,-314,0,0,0,0,0,0,0,0,0,-1,944,1338,0,0
-273,-314,0,0,0,0,0,0,0,0,0,-1,951,1338,0,0
-266,-314,0,0,0,0,0,0,0,0,0,-1,958,1338,0,0
-259,-314,0,0,0,0,0,0,0,0,0,-1,965,1338,0,0
-252,-314,0,0,0,0,0,0,0,0,0,-1,972,1338,0,0
-245,-314,0,0,0,0,0,0,0,0,0,-1,979,1338,0,0
-238,-314,0,0,0,0,0,0,0,0,0,-1,986,1338,0,0
-231,-314,0,0,0,0,0,0,0,0,0,-1,993,1338,0,0
-224,-314,0,0,0,0,0,0,0,0,0,-1,1000,1338,0,0
-217,-314,0,0,0,0,0,0,0,0,0,-1,1007,1338,0,0
-210,-314,0,0,0,0,0,0,0,0,0,-1,1014,1338,0,0
-203,-314,0,0,0,0,0,0,0,0,0,-1,1021,1338,0,0
-196,-314,0,0,0,0,0,0,0,0,0,-1,1028,1338,0,0
-189,-314,0,0,0,0,0,0,0,0,0,-1,1035,1338,0,0
-182,-314,0,0,0,0,0,0,0,0,0,-1,1042,1338,0,0
-175,-314,0,0,0,0,0,0,0,0,0,-1,1049,1338,0,0
-168,-314,0,0,0,0,0,0,0,0,0,-1,1056,1338,0,0
-161,-314,0,0,0,0,0,0,0,0,0,-1,1063,1338,0,0
-154,-314,0,0,0,0,0,0,0,0,0,-1,1070,1338,0,0
-147,-314,0,0,0,0,0,0,0,0,0,-1,1077,1338,0,0
-140,-314,0,0,0,0,0,0,0,0,0,-1,1084,1338,0,0
-133,-314,0,0,0,0,0,0,0,0,0,-1,1091,1338,0,0
-126,-314,0,0,0,0,0,0,0,0,0,-1,1098,1338,0,0
-119,-314,0,0,0,0,0,0,0,0,0,-1,1105,1338,0,0
-112,-314,0,0,0,0,0,0,0,0,0,-1,1112,1338,0,0
-105,-314,0,0,0,0,0,0,0,0,0,-1,1119,1338,0,0
-98,-314,0,0,0,0,0,0,0,0,0,-1,1126,1338,0,0
-91,-314,0,0,0,0,0,0,0,0,0,-1,1133,1338,0,0
-84,-314,0,0,0,0,0,0,0,0,0,-1,1140,1338,0,0
-77,-314,0,0,0,0,0,0,0,0,0,-1,1147,1338,0,0
-70,-314,0,0,0,0,0,0,0,0,0,-1,1154,1338,0,0
-63,-314,0,0,0,0,0,0,0,0,0,-1,1161,1338,0,0
-56,-314,0,0,0,0,0,0,0,0,0,-1,1168,1338,0,0
-49,-314,0,0,0,0,0,0,0,0,0,-1,1175,1338,0,0
-42,-314,0,0,0,0,0,0,0,0,0,-1,1182,1338,0,0
-35,-314,0,0,0,0,0,0,0,0,0,-1,1189,1338,0,0
-28,-314,0,0,0,0,0,0,0,0,0,-1,1196,1338,0,0
-21,-314,0,0,0,0,0,0,0,0,0,-1,1203,1338,0,0
-14,-314,0,0,0,0,0,0,0,0,0,-1,1210,1338,0,0
-7,-314,0,0,0,0,0,0,0,0,0,-1,1217,1338,0,0
0,-314,0,0,0,0,0,0,0,0,0,-1,1224,1338,0,0
7,-314,0,0,0,0,0,0,0,0,0,-1,1231,1338,0,0
14,-314,0,0,0,0,0,0,0,0,0,-1,1238,1338,0,0
21,-314,0,0,0,0,0,0,0,0,0,-1,1245,1338,0,0
28,-314,0,0,0,0,0,0,0,0,0,-1,1252,1338,0,0
35,-314,0,0,0,0,0,0,0,0,0,-1,1259,1338,0,0
42,-314,0,0,0,0,0,0,0,0,0,-1,1266,1338,0,0
49,-314,0,0,0,0,0,0,0,0,0,-1,1273,1338,0,0
56,-314,0,0,0,0,0,0,0,0,0,-1,1280,1338,0,0
63,-314,0,0,0,0,0,0,0,0,0,-1,1287,1338,0,0
70,-314,0,0,0,0,0,0,0,0,0,-1,1294,1338,0,0
77,-314,0,0,0,0,0,0,0,0,0,-1,1301,1338,0,0
84,-314,0,0,0,0,0,0,0,0,0,-1,1308,1338,0,0
91,-314,0,0,0,0,0,0,0,0,0,-1,1315,1338,0,0
98,-314,0,0,0,0,0,0,0,0,0,-1,1322,1338,0,0
105,-314,0,0,0,0,0,0,0,0,0,-1,1329,1338,0,0
112,-314,0,0,0,0,0,0,0,0,0,-1,1336,1338,0,0
119,-314,0,0,0,0,0,0,0,0,0,-1,1343,1338,0,0
126,-314,0,0,0,0,0,0,0,0,0,-1,1350,1338,0,0
133,-314,0,0,0,0,0,0,0,0,0,-1,1357,1338,0,0
140,-314,0,0,0,0,0,0,0,0,0,-1,1364,1338,0,0
147,-314,0,0,0,0,0,0,0,0,0,-1,1371,1338,0,0
154,-314,0,0,0,0,0,0,0,0,0,-1,1378,1338,0,0
161,-314,0,0,0,0,0,0,0,0,0,-1,1385,1338,0,0
168,-314,0,0,0,0,0,0,0,0,0,-1,1392,1338,0,0
175,-314,0,0,0,0,0,0,0,0,0,-1,1399,1338,0,0
182,-314,0,0,0,0,0,0,0,0,0,-1,1406,1338,0,0
189,-314,0,0,0,0,0,0,0,0,0,-1,1413,1338,0,0
196,-314,0,0,0,0,0,0,0,0,0,-1,1420,1338,0,0
203,-314,0,0,0,0,0,0,0,0,0,-1,1427,1338,0,0
210,-314,0,0,0,0,0,0,0,0,0,-1,1434,1338,0,0
217,-314,0,0,0,0,0,0,0,0,0,-1,1441,1338,0,0
224,-314,0,0,0,0,0,0,0,0,0,-1,1448,1338,0,0
231,-314,0,0,0,0,0,0,0,0,0,-1,1455,1338,0,0
238,-314,0,0,0,0,0,0,0,0,0,-1,1462,1338,0,0
245,-314,0,0,0,0,0,0,0,0,0,-1,1469,1338,0,0
252,-314,0,0,0,0,0,0,0,0,0,-1,1476,1338,0,0
259,-314,0,0,0,0,0,0,0,0,0,-1,1483,1338,0,0
266,-314,0,0,0,0,0,0,0,0,0,-1,1490,1338,0,0
273,-314,0,0,0,0,0,0,0,0,0,-1,1497,1338,0,0
280,-314,0,0,0,0,0,0,0,0,0,-1,1504,1338,0,0
287,-314,0,0,0,0,0,0,0,0,0,-1,1511,1338,0,0
294,-314,0,0,0,0,0,0,0,0,0,-1,1518,1338,0,0
301,-314,0,0,0,0,0,0,0,0,0,-1,1525,1338,0,0
308,-314,0,0,0,0,0,0,0,0,0,-1,1532,1338,0,0
315,-314,0,0,0,0,0,0,0,0,0,-1,1539,1338,0,0
322,-314,0,0,0,0,0,0,0,0,0,-1,1546,1338,0,0
329,-314,0,0,0,0,0,0,0,0,0,-1,1553,1338,0,0
336,-314,0,0,0,0,0,0,0,0,0,-1,1560,1338,0,0
343,-314,0,0,0,0,0,0,0,0,0,-1,1567,1338,0,0
350,-314,0,0,0,0,0,0,0,0,0,-1,1574,1338,0,0
357,-314,0,0,0,0,0,0,0,0,0,-1,1581,1338,0,0
364,-314,0,0,0,0,0,0,0,0,0,-1,1588,1338,0,0
371,-314,0,0,0,0,0,0,0,0,0,-1,1595,1338,0,0
378,-314,0,0,0,0,0,0,0,0,0,-1,1602,1338,0,0
385,-314,0,0,0,0,0,0,0,0,0,-1,1609,1338,0,0
392,-314,0,0,0,0,0,0,0,0,0,-1,1616,1338,0,0
399,-314,0,0,0,0,0,0,0,0,0,-1,1623,1338,0,0
406,-314,0,0,0,0,0,0,0,0,0,-1,1630,1338,0,0
413,-314,0,0,0,0,0,0,0,0,0,-1,1637,1338,0,0
420,-314,0,0,0,0,0,0,0,0,0,-1,1644,1338,0,0
427,-314,0,0,0,0,0,0,0,0,0,-1,1651,1338,0,0
434,-314,0,0,0,0,0,0,0,0,0,-1,1658,1338,0,0
441,-314,0,0,0,0,0,0,0,0,0,-1,1665,1338,0,0
448,-314,0,0,0,0,0,0,0,0,0,-1,1672,1338,0,0
455,-314,0,0,0,0,0,0,0,0,0,-1,1679,1338,0,0
462,-314,0,0,0,0,0,0,0,0,0,-1,1686,1338,0,0
469,-314,0,0,0,0,0,0,0,0,0,-1,1693,1338,0,0
476,-314,0,0,0,0,0,0,0,0,0,-1,1700,1338,0,0
483,-314,0,0,0,0,0,0,0,0,0,-1,1707,1338,0,0
490,-314,0,0,0,0,0,0,0,0,0,-1,1714,1338,0,0
497,-314,0,0,0,0,0,0,0,0,0,-1,1721,1338,0,0
504,-314,0,0,0,0,0,0,0,0,0,-1,1728,1338,0,0
511,-314,0,0,0,0,0,0,0,0,0,-1,1735,1338,0,0
518,-314,0,0,0,0,0,0,0,0,0,-1,1742,1338,0,0
525,-314,0,0,0,0,0,0,0,0,0,-1,1749,1338,0,0
532,-314,0,0,0,0,0,0,0,0,0,-1,1756,1338,0,0
539,-314,0,0,0,0,0,0,0,0,0,-1,1763,1338,0,0
546,-314,0,0,0,0,0,0,0,0,0,-1,1770,1338,0,0
553,-314,0,0,0,0,0,0,0,0,0,-1,1777,1338,0,0
560,-314,0,0,0,0,0,0,0,0,0,-1,1784,1338,0,0
567,-314,0,0,0,0,0,0,0,0,0,-1,1791,1338,0,0
574,-314,0,0,0,0,0,0,0,0,0,-1,1798,1338,0,0
581,-314,23.772,-1.43384,0,0,0,0,0,0,0,-1,1805,1338,23.772,1.43384
588,-314,23.3445,-0.81958,0,0,0,0,0,0,0,-1,1812,1338,23.3444,0.819594
595,-314,22.6187,-0.113281,0,0,0,0,0,0,0,-1,1819,1338,22.6187,0.113286
602,-314,20.8135,1.41272,0,0,0,0,0,0,0,-1,1826,1338,20.8134,-1.41269
609,-314,20.7344,1.1499,-0.0177154,0.0369235,-0.00246677,0.0370346,-0.0178265,-1.52577,0.0323148,0.0439616,1833,1338,20.7344,-1.14989
616,-314,20.2687,0.981079,-0.0155927,0.0342079,0.00276168,0.0343606,-0.0157454,1.51557,0.0295867,0.0436772,1840,1338,20.2687,-0.981053
623,-314,19.6964,0.709351,0,0,0,0,0,0,0,-1,1847,1338,19.6964,-0.709348
630,-314,16.8287,-0.0689697,0,0,0,0,0,0,0,-1,1854,1338,16.8287,0.0689977
637,-314,14.875,6.50891,0,0,0,0,0,0,0,-1,1861,1338,14.875,-6.50888
644,-314,17.0294,5.60413,0,0,0,0,0,0,0,-1,1868,1338,17.0295,-5.60408
651,-314,15.7738,5.79858,0,0,0,0,0,0,0,-1,1875,1338,15.7738,-5.79858
658,-314,15.6519,5.93896,-0.0144285,0.00808174,0.01106,0.0126064,-0.0189532,1.18247,0.0183434,0.0383188,1882,1338,15.6519,-5.93902
665,-314,15.469,6.0022,-0.0135186,0.00456732,0.0101685,0.00913218,-0.0180834,1.14884,0.0159937,0.0152415,1889,1338,15.469,-6.00215
672,-314,15.4927,5.82166,-0.01119,0.00213435,0.00793666,0.00583436,-0.0148901,1.13456,0.0123401,0.0116999,1896,1338,15.4927,-5.82164
679,-314,15.5023,5.61792,-0.00858522,-0.000308525,0.00476519,0.00186447,-0.0107582,1.14295,0.00786762,0.0101835,1903,1338,15.5023,-5.61795
686,-314,15.4865,5.40161,-0.00649807,-0.000387933,0.00246986,0.000485565,-0.00737157,1.23086,0.00508397,0.0121718,1910,1338,15.4865,-5.40167
693,-314,15.4868,5.2085,-0.00398513,0.000694217,0.000676701,0.000790112,-0.00408103,1.43002,0.00301872,0.0116931,1917,1338,15.4868,-5.20844
700,-314,15.4803,5.02173,-0.00105415,0.00251296,-0.00108333,0.00281618,-0.00135738,-1.29788,0.00245819,0.0114583,1924,1338,15.4803,-5.02174
707,-314,15.481,4.83167,0.00117743,0.00389419,-0.00295867,0.00579141,-0.00071979,-1.0006,0.00412188,0.0127329,1931,1338,15.481,-4.83172
714,-314,15.4938,4.65002,0.00304123,0.00589609,-0.0047839,0.00946098,-0.000523662,-0.930384,0.00648892,0.0120157,1938,1338,15.4938,-4.65007
721,-314,15.5096,4.47778,0.00513088,0.00830204,-0.00680269,0.0137015,-0.00026857,-0.899895,0.00922516,0.0163349,1945,1338,15.5096,-4.47783
728,-314,15.4033,4.30347,0.00775561,0.0109066,-0.00912277,0.0185889,7.33016e-05,-0.870905,0.0123683,0.0279038,1952,1338,15.4033,-4.30348
735,-314,15.3118,3.95117,0.0114868,0.0139866,-0.0119873,0.0247889,0.00068444,-0.837346,0.0163026,0.0394035,1959,1338,15.3118,-3.95119
742,-314,15.4478,3.57849,0.0167416,0.0174875,-0.0155136,0.0326326,0.00159649,-0.797417,0.0212429,0.0450682,1966,1338,15.4477,-3.57852
749,-314,15.6626,3.53137,0,0,0,0,0,0,0,-1,1973,1338,15.6625,-3.53131
756,-314,16.6072,3.32532,0.0335476,0.0253033,-0.0244718,0.054242,0.0046089,-0.701959,0.0347272,0.0445991,1980,1338,16.6072,-3.3253
763,-314,16.7125,3.28149,0,0,0,0,0,0,0,-1,1987,1338,16.7125,-3.28152
770,-314,0,0,0,0,0,0,0,0,0,-1,1994,1338,0,0
777,-314,0,0,0,0,0,0,0,0,0,-1,2001,1338,0,0
784,-314,0,0,0,0,0,0,0,0,0,-1,2008,1338,0,0
791,-314,0,0,0,0,0,0,0,0,0,-1,2015,1338,0,0
798,-314,0,0,0,0,0,0,0,0,0,-1,2022,1338,0,0
805,-314,0,0,0,0,0,0,0,0,0,-1,2029,1338,0,0
812,-314,0,0,0,0,0,0,0,0,0,-1,2036,1338,0,0
-700,-321,0,0,0,0,0,0,0,0,0,-1,524,1345,0,0
-693,-321,0,0,0,0,0,0,0,0,0,-1,531,1345,0,0
-686,-321,0,0,0,0,0,0,0,0,0,-1,538,1345,0,0
-679,-321,0,0,0,0,0,0,0,0,0,-1,545,1345,0,0
-672,-321,0,0,0,0,0,0,0,0,0,-1,552,1345,0,0
-665,-321,0,0,0,0,0,0,0,0,0,-1,559,1345,0,0
-658,-321,0,0,0,0,0,0,0,0,0,-1,566,1345,0,0
-651,-321,0,0,0,0,0,0,0,0,0,-1,573,1345,0,0
-644,-321,4.85052,-1.42529,0,0,0,0,0,0,0,-1,580,1345,4.85055,1.42532
-637,-321,-8.53326,-2.83118,0,0,0,0,0,0,0,-1,587,1345,-8.53328,2.83112
-630,-321,-7.47247,-2.90381,0,0,0,0,0,0,0,-1,594,1345,-7.4725,2.90376
-623,-321,-6.41174,-2.97644,0,0,0,0,0,0,0,-1,601,1345,-6.41172,2.9764
-616,-321,-6.99188,-3.29089,0,0,0,0,0,0,0,-1,608,1345,-6.9919,3.29088
-609,-321,-7.2146,0.772339,0,0,0,0,0,0,0,-1,615,1345,-7.21457,-0.772307
-602,-321,-6.8952,1.02832,0,0,0,0,0,0,0,-1,622,1345,-6.89521,-1.02828
-595,-321,-7.05762,2.02002,0,0,0,0,0,0,0,-1,629,1345,-7.05761,-2.02006
-588,-321,-6.94415,2.27588,0.0185988,0.0177225,0.000327449,0.0187077,0.0176137,0.320903,0.0121236,0.0191569,636,1345,-6.94413,-2.27582
-581,-321,-6.92633,2.53247,0.00769306,0.0110665,-0.000577712,0.0111626,0.00759686,-1.4058,0.00658334,0.012373,643,1345,-6.92631,-2.53242
-574,-321,-6.95135,2.72168,0.000444743,0.00526558,-0.000324393,0.00528731,0.000423013,-1.50391,0.00339267,0.0151059,650,1345,-6.95137,-2.7217
-567,-321,-6.94354,2.92004,-0.000728802,0.00160691,-0.000305512,0.00164621,-0.000768102,-1.44286,0.0014243,0.0212378,657,1345,-6.94357,-2.92005
-560,-321,-6.91486,3.16211,-0.000616908,9.33597e-05,-0.000762098,0.000579007,-0.00110256,-1.00344,0.000986411,0.0245646,664,1345,-6.91486,-3.16211
-553,-321,-6.9632,3.35999,-0.00095392,-0.000900637,-0.00118295,0.000255968,-0.00211052,-0.796657,0.00149964,0.0262975,671,1345,-6.96319,-3.35993
-546,-321,-6.93396,3.57727,-0.00210415,-0.00215972,-0.00142883,-0.000702831,-0.00356104,-0.775675,0.00217788,0.0252933,678,1345,-6.93393,-3.57724
-539,-321,-6.888,3.82068,-0.00429083,-0.00318131,-0.00136251,-0.00226495,-0.00520719,-0.978729,0.00301484,0.0229253,685,1345,-6.888,-3.82071
-532,-321,-6.86322,4.07263,-0.00728573,-0.00427459,-0.00141303,-0.00371536,-0.00784497,-1.19394,0.0045314,0.0179979,692,1345,-6.86325,-4.07263
-525,-321,-6.87756,4.41626,-0.00861993,-0.00847909,-0.00171338,-0.00683468,-0.0102643,-0.805936,0.00603383,0.0332357,699,1345,-6.87756,-4.41632
-518,-321,-7.04718,4.35645,-0.00834066,-0.0151377,-0.00190305,-0.00784412,-0.0156343,-0.255231,0.00902646,0.0498751,706,1345,-7.04718,-4.35649
-511,-321,-7.18311,4.36304,0,0,0,0,0,0,0,-1,713,1345,-7.18313,-4.36304
-504,-321,-7.35535,4.30994,0,0,0,0,0,0,0,-1,720,1345,-7.35533,-4.30988
-497,-321,-8.42938,1.99756,0,0,0,0,0,0,0,-1,727,1345,-8.42941,-1.99751
-490,-321,-8.03851,1.39819,0,0,0,0,0,0,0,-1,734,1345,-8.03849,-1.39814
-483,-321,-12.6664,1.98779,0,0,0,0,0,0,0,-1,741,1345,-12.6664,-1.98785
-476,-321,-12.3411,2.10266,0,0,0,0,0,0,0,-1,748,1345,-12.3411,-2.10266
-469,-321,-12.191,2.4989,0,0,0,0,0,0,0,-1,755,1345,-12.1911,-2.49888
-462,-321,-8.91602,1.34326,0,0,0,0,0,0,0,-1,762,1345,-8.91602,-1.34321
-455,-321,0,0,0,0,0,0,0,0,0,-1,769,1345,0,0
-448,-321,0,0,0,0,0,0,0,0,0,-1,776,1345,0,0
-441,-321,0,0,0,0,0,0,0,0,0,-1,783,1345,0,0
-434,-321,0,0,0,0,0,0,0,0,0,-1,790,1345,0,0
-427,-321,0,0,0,0,0,0,0,0,0,-1,797,1345,0,0
-420,-321,0,0,0,0,0,0,0,0,0,-1,804,1345,0,0
-413,-321,0,0,0,0,0,0,0,0,0,-1,811,1345,0,0
-406,-321,0,0,0,0,0,0,0,0,0,-1,818,1345,0,0
-399,-321,0,0,0,0,0,0,0,0,0,-1,825,1345,0,0
-392,-321,0,0,0,0,0,0,0,0,0,-1,832,1345,0,0
-385,-321,0,0,0,0,0,0,0,0,0,-1,839,1345,0,0
-378,-321,0,0,0,0,0,0,0,0,0,-1,846,1345,0,0
-371,-321,0,0,0,0,0,0,0,0,0,-1,853,1345,0,0
-364,-321,0,0,0,0,0,0,0,0,0,-1,860,1345,0,0
-357,-321,0,0,0,0,0,0,0,0,0,-1,867,1345,0,0
-350,-321,0,0,0,0,0,0,0,0,0,-1,874,1345,0,0
-343,-321,0,0,0,0,0,0,0,0,0,-1,881,1345,0,0
-336,-321,0,0,0,0,0,0,0,0,0,-1,888,1345,0,0
-329,-321,0,0,0,0,0,0,0,0,0,-1,895,1345,0,0
-322,-321,0,0,0,0,0,0,0,0,0,-1,902,1345,0,0
-315,-321,0,0,0,0,0,0,0,0,0,-1,909,1345,0,0
-308,-321,0,0,0,0,0,0,0,0,0,-1,916,1345,0,0
-301,-321,0,0,0,0,0,0,0,0,0,-1,923,1345,0,0
-294,-321,0,0,0,0,0,0,0,0,0,-1,930,1345,0,0
-287,-321,0,0,0,0,0,0,0,0,0,-1,937,1345,0,0
-280,-321,0,0,0,0,0,0,0,0,0,-1,944,1345,0,0
-273,-321,0,0,0,0,0,0,0,0,0,-1,951,1345,0,0
-266,-321,0,0,0,0,0,0,0,0,0,-1,958,1345,0,0
-259,-321,0,0,0,0,0,0,0,0,0,-1,965,1345,0,0
-252,-321,0,0,0,0,0,0,0,0,0,-1,972,1345,0,0
-245,-321,0,0,0,0,0,0,0,0,0,-1,979,1345,0,0
-238,-321,0,0,0,0,0,0,0,0,0,-1,986,1345,0,0
-231,-321,0,0,0,0,0,0,0,0,0,-1,993,1345,0,0
-224,-321,0,0,0,0,0,0,0,0,0,-1,1000,1345,0,0
-217,-321,0,0,0,0,0,0,0,0,0,-1,1007,1345,0,0
-210,-321,0,0,0,0,0,0,0,0,0,-1,1014,1345,0,0
-203,-321,0,0,0,0,0,0,0,0,0,-1,1021,1345,0,0
-196,-321,0,0,0,0,0,0,0,0,0,-1,1028,1345,0,0
-189,-321,0,0,0,0,0,0,0,0,0,-1,1035,1345,0,0
-182,-321,0,0,0,0,0,0,0,0,0,-1,1042,1345,0,0
-175,-321,0,0,0,0,0,0,0,0,0,-1,1049,1345,0,0
-168,-321,0,0,0,0,0,0,0,0,0,-1,1056,1345,0,0
-161,-321,0,0,0,0,0,0,0,0,0,-1,1063,1345,0,0
-154,-321,0,0,0,0,0,0,0,0,0,-1,1070,1345,0,0
-147,-321,0,0,0,0,0,0,0,0,0,-1,1077,1345,0,0
-140,-321,0,0,0,0,0,0,0,0,0,-1,1084,1345,0,0
-133,-321,0,0,0,0,0,0,0,0,0,-1,1091,1345,0,0
-126,-321,0,0,0,0,0,0,0,0,0,-1,1098,1345,0,0
-119,-321,0,0,0,0,0,0,0,0,0,-1,1105,1345,0,0
-112,-321,0,0,0,0,0,0,0,0,0,-1,1112,1345,0,0
-105,-321,0,0,0,0,0,0,0,0,0,-1,1119,1345,0,0
-98,-321,0,0,0,0,0,0,0,0,0,-1,1126,1345,0,0
-91,-321,0,0,0,0,0,0,0,0,0,-1,1133,1345,0,0
-84,-321,0,0,0,0,0,0,0,0,0,-1,1140,1345,0,0
-77,-321,0,0,0,0,0,0,0,0,0,-1,1147,1345,0,0
-70,-321,0,0,0,0,0,0,0,0,0,-1,1154,1345,0,0
-63,-321,0,0,0,0,0,0,0,0,0,-1,1161,1345,0,0
-56,-321,0,0,0,0,0,0,0,0,0,-1,1168,1345,0,0
-49,-321,0,0,0,0,0,0,0,0,0,-1,1175,1345,0,0
-42,-321,0,0,0,0,0,0,0,0,0,-1,1182,1345,0,0
-35,-321,0,0,0,0,0,0,0,0,0,-1,1189,1345,0,0
-28,-321,0,0,0,0,0,0,0,0,0,-1,1196,1345,0,0
-21,-321,0,0,0,0,0,0,0,0,0,-1,1203,1345,0,0
-14,-321,0,0,0,0,0,0,0,0,0,-1,1210,1345,0,0
-7,-321,0,0,0,0,0,0,0,0,0,-1,1217,1345,0,0
0,-321,0,0,0,0,0,0,0,0,0,-1,1224,1345,0,0
7,-321,0,0,0,0,0,0,0,0,0,-1,1231,1345,0,0
14,-321,0,0,0,0,0,0,0,0,0,-1,1238,1345,0,0
21,-321,0,0,0,0,0,0,0,0,0,-1,1245,1345,0,0
28,-321,0,0,0,0,0,0,0,0,0,-1,1252,1345,0,0
35,-321,0,0,0,0,0,0,0,0,0,-1,1259,1345,0,0
42,-321,0,0,0,0,0,0,0,0,0,-1,1266,1345,0,0
49,-321,0,0,0,0,0,0,0,0,0,-1,1273,1345,0,0
56,-321,0,0,0,0,0,0,0,0,0,-1,1280,1345,0,0
63,-321,0,0,0,0,0,0,0,0,0,-1,1287,1345,0,0
70,-321,0,0,0,0,0,0,0,0,0,-1,1294,1345,0,0
77,-321,0,0,0,0,0,0,0,0,0,-1,1301,1345,0,0
84,-321,0,0,0,0,0,0,0,0,0,-1,1308,1345,0,0
91,-321,0,0,0,0,0,0,0,0,0,-1,1315,1345,0,0
98,-321,0,0,0,0,0,0,0,0,0,-1,1322,1345,0,0
105,-321,0,0,0,0,0,0,0,0,0,-1,1329,1345,0,0
112,-321,0,0,0,0,0,0,0,0,0,-1,1336,1345,0,0
119,-321,0,0,0,0,0,0,0,0,0,-1,1343,1345,0,0
126,-321,0,0,0,0,0,0,0,0,0,-1,1350,1345,0,0
133,-321,0,0,0,0,0,0,0,0,0,-1,1357,1345,0,0
140,-321,0,0,0,0,0,0,0,0,0,-1,1364,1345,0,0
147,-321,0,0,0,0,0,0,0,0,0,-1,1371,1345,0,0
154,-321,0,0,0,0,0,0,0,0,0,-1,1378,1345,0,0
161,-321,0,0,0,0,0,0,0,0,0,-1,1385,1345,0,0
168,-321,0,0,0,0,0,0,0,0,0,-1,1392,1345,0,0
175,-321,0,0,0,0,0,0,0,0,0,-1,1399,1345,0,0
182,-321,0,0,0,0,0,0,0,0,0,-1,1406,1345,0,0
189,-321,0,0,0,0,0,0,0,0,0,-1,1413,1345,0,0
196,-321,0,0,0,0,0,0,0,0,0,-1,1420,1345,0,0
203,-321,0,0,0,0,0,0,0,0,0,-1,1427,1345,0,0
210,-321,0,0,0,0,0,0,0,0,0,-1,1434,1345,0,0
217,-321,0,0,0,0,0,0,0,0,0,-1,1441,1345,0,0
224,-321,0,0,0,0,0,0,0,0,0,-1,1448,1345,0,0
231,-321,0,0,0,0,0,0,0,0,0,-1,1455,1345,0,0
238,-321,0,0,0,0,0,0,0,0,0,-1,1462,1345,0,0
245,-321,0,0,0,0,0,0,0,0,0,-1,1469,1345,0,0
252,-321,0,0,0,0,0,0,0,0,0,-1,1476,1345,0,0
259,-321,0,0,0,0,0,0,0,0,0,-1,1483,1345,0,0
266,-321,0,0,0,0,0,0,0,0,0,-1,1490,1345,0,0
273,-321,0,0,0,0,0,0,0,0,0,-1,1497,1345,0,0
280,-321,0,0,0,0,0,0,0,0,0,-1,1504,1345,0,0
287,-321,0,0,0,0,0,0,0,0,0,-1,1511,1345,0,0
294,-321,0,0,0,0,0,0,0,0,0,-1,1518,1345,0,0
301,-321,0,0,0,0,0,0,0,0,0,-1,1525,1345,0,0
308,-321,0,0,0,0,0,0,0,0,0,-1,1532,1345,0,0
315,-321,0,0,0,0,0,0,0,0,0,-1,1539,1345,0,0
322,-321,0,0,0,0,0,0,0,0,0,-1,1546,1345,0,0
329,-321,0,0,0,0,0,0,0,0,0,-1,1553,1345,0,0
336,-321,0,0,0,0,0,0,0,0,0,-1,1560,1345,0,0
343,-321,0,0,0,0,0,0,0,0,0,-1,1567,1345,0,0
350,-321,0,0,0,0,0,0,0,0,0,-1,1574,1345,0,0
357,-321,0,0,0,0,0,0,0,0,0,-1,1581,1345,0,0
364,-321,0,0,0,0,0,0,0,0,0,-1,1588,1345,0,0
371,-321,0,0,0,0,0,0,0,0,0,-1,1595,1345,0,0
378,-321,0,0,0,0,0,0,0,0,0,-1,1602,1345,0,0
385,-321,0,0,0,0,0,0,0,0,0,-1,1609,1345,0,0
392,-321,0,0,0,0,0,0,0,0,0,-1,1616,1345,0,0
399,-321,0,0,0,0,0,0,0,0,0,-1,1623,1345,0,0
406,-321,0,0,0,0,0,0,0,0,0,-1,1630,1345,0,0
413,-321,0,0,0,0,0,0,0,0,0,-1,1637,1345,0,0
420,-321,0,0,0,0,0,0,0,0,0,-1,1644,1345,0,0
427,-321,0,0,0,0,0,0,0,0,0,-1,1651,1345,0,0
434,-321,0,0,0,0,0,0,0,0,0,-1,1658,1345,0,0
441,-321,0,0,0,0,0,0,0,0,0,-1,1665,1345,0,0
448,-321,0,0,0,0,0,0,0,0,0,-1,1672,1345,0,0
455,-321,0,0,0,0,0,0,0,0,0,-1,1679,1345,0,0
462,-321,0,0,0,0,0,0,0,0,0,-1,1686,1345,0,0
469,-321,0,0,0,0,0,0,0,0,0,-1,1693,1345,0,0
476,-321,0,0,0,0,0,0,0,0,0,-1,1700,1345,0,0
483,-321,0,0,0,0,0,0,0,0,0,-1,1707,1345,0,0
490,-321,0,0,0,0,0,0,0,0,0,-1,1714,1345,0,0
497,-321,0,0,0,0,0,0,0,0,0,-1,1721,1345,0,0
504,-321,0,0,0,0,0,0,0,0,0,-1,1728,1345,0,0
511,-321,0,0,0,0,0,0,0,0,0,-1,1735,1345,0,0
518,-321,0,0,0,0,0,0,0,0,0,-1,1742,1345,0,0
525,-321,0,0,0,0,0,0,0,0,0,-1,1749,1345,0,0
532,-321,0,0,0,0,0,0,0,0,0,-1,1756,1345,0,0
539,-321,0,0,0,0,0,0,0,0,0,-1,1763,1345,0,0
546,-321,0,0,0,0,0,0,0,0,0,-1,1770,1345,0,0
553,-321,0,0,0,0,0,0,0,0,0,-1,1777,1345,0,0
560,-321,0,0,0,0,0,0,0,0,0,-1,1784,1345,0,0
567,-321,0,0,0,0,0,0,0,0,0,-1,1791,1345,0,0
574,-321,0,0,0,0,0,0,0,0,0,-1,1798,1345,0,0
581,-321,24.1068,1.34534,0,0,0,0,0,0,0,-1,1805,1345,24.1068,-1.34536
588,-321,23.3114,-0.348389,0,0,0,0,0,0,0,-1,1812,1345,23.3113,0.348404
595,-321,22.4558,0.0158691,-0.0324098,0.0360337,-0.018073,0.0405129,-0.0368889,-1.32785,0.0447043,0.0489167,1819,1345,22.4558,-0.0159263
602,-321,21.5553,0.442505,0,0,0,0,0,0,0,-1,1826,1345,21.5553,-0.442466
609,-321,20.6351,0.89502,0,0,0,0,0,0,0,-1,1833,1345,20.6351,-0.894988
616,-321,19.7345,1.31274,0,0,0,0,0,0,0,-1,1840,1345,19.7345,-1.31274
623,-321,14.2845,6.43958,0,0,0,0,0,0,0,-1,1847,1345,14.2846,-6.43961
630,-321,14.8093,6.07654,0,0,0,0,0,0,0,-1,1854,1345,14.8093,-6.07652
637,-321,15.2396,5.79248,0,0,0,0,0,0,0,-1,1861,1345,15.2396,-5.79248
644,-321,16.0542,6.16577,0,0,0,0,0,0,0,-1,1868,1345,16.0541,-6.16583
651,-321,15.7047,6.02551,0,0,0,0,0,0,0,-1,1875,1345,15.7047,-6.02547
658,-321,15.4,6.12549,-0.0128379,0.00527568,0.0101935,0.00985459,-0.0174168,1.14861,0.0159457,0.0312359,1882,1345,15.4,-6.12552
665,-321,15.2881,6.01782,-0.01152,0.00209865,0.00908114,0.00663983,-0.0160612,1.1071,0.0134774,0.016328,1889,1345,15.2881,-6.01778
672,-321,15.3076,5.81226,-0.00908117,0.000299523,0.00679792,0.00386817,-0.0126498,1.08738,0.0099758,0.0123151,1896,1345,15.3076,-5.81223
679,-321,15.3125,5.60815,-0.00665305,-0.00123068,0.00380362,0.000729119,-0.00861285,1.09503,0.00599972,0.0106119,1903,1345,15.3125,-5.60814
686,-321,15.2841,5.41577,-0.00464977,-0.000617213,0.00161686,-4.89936e-05,-0.00521799,1.23285,0.00346244,0.0108088,1910,1345,15.284,-5.41583
693,-321,15.2852,5.23096,-0.0023498,0.000887525,-0.000154827,0.000894913,-0.00235719,-1.52312,0.00193984,0.0114634,1917,1345,15.2851,-5.231
700,-321,15.2914,5.0282,0.000195221,0.00287411,-0.00192318,0.00387832,-0.000808988,-1.08958,0.00289316,0.0110465,1924,1345,15.2913,-5.02817
707,-321,15.3047,4.83826,0.00217105,0.00455998,-0.00371085,0.00726387,-0.000532841,-0.941103,0.00502961,0.0127094,1931,1345,15.3047,-4.83831
714,-321,15.3118,4.64941,0.0039854,0.00668462,-0.00559691,0.0110923,-0.000422314,-0.903707,0.00753961,0.0126369,1938,1345,15.3118,-4.64947
721,-321,15.2921,4.43311,0.00602591,0.00913737,-0.00771581,0.0154527,-0.000289451,-0.884879,0.0103996,0.0194192,1945,1345,15.2922,-4.43314
728,-321,15.162,4.28003,0.00875619,0.011873,-0.0102288,0.0206615,-3.22331e-05,-0.860995,0.0137851,0.03072,1952,1345,15.162,-4.28001
735,-321,15.254,3.50513,0.012653,0.0150497,-0.0133106,0.0272158,0.000486914,-0.830292,0.0179838,0.0422197,1959,1345,15.2541,-3.50513
742,-321,15.6858,3.50635,0.018091,0.0184339,-0.0169884,0.0352517,0.00127316,-0.790445,0.0230885,0.0499548,1966,1345,15.6858,-3.50633
749,-321,16.0604,3.45532,0,0,0,0,0,0,0,-1,1973,1345,16.0604,-3.45529
756,-321,16.4266,3.43237,0,0,0,0,0,0,0,-1,1980,1345,16.4266,-3.4324
763,-321,16.7911,3.43237,0,0,0,0,0,0,0,-1,1987,1345,16.7912,-3.43236
770,-321,0,0,0,0,0,0,0,0,0,-1,1994,1345,0,0
777,-321,0,0,0,0,0,0,0,0,0,-1,2001,1345,0,0
784,-321,0,0,0,0,0,0,0,0,0,-1,2008,1345,0,0
791,-321,0,0,0,0,0,0,0,0,0,-1,2015,1345,0,0
798,-321,0,0,0,0,0,0,0,0,0,-1,2022,1345,0,0
805,-321,0,0,0,0,0,0,0,0,0,-1,2029,1345,0,0
812,-321,0,0,0,0,0,0,0,0,0,-1,2036,1345,0,0
-700,-328,0,0,0,0,0,0,0,0,0,-1,524,1352,0,0
-693,-328,0,0,0,0,0,0,0,0,0,-1,531,1352,0,0
-686,-328,0,0,0,0,0,0,0,0,0,-1,538,1352,0,0
-679,-328,0,0,0,0,0,0,0,0,0,-1,545,1352,0,0
-672,-328,0,0,0,0,0,0,0,0,0,-1,552,1352,0,0
-665,-328,0,0,0,0,0,0,0,0,0,-1,559,1352,0,0
-658,-328,0,0,0,0,0,0,0,0,0,-1,566,1352,0,0
-651,-328,0,0,0,0,0,0,0,0,0,-1,573,1352,0,0
-644,-328,0,0,0,0,0,0,0,0,0,-1,580,1352,0,0
-637,-328,-8.23505,-3.29114,0.1926,0.0869051,0.013443,0.194283,0.0852222,0.124546,0.11245,0.049673,587,1352,-8.23503,3.29113
-630,-328,-6.87506,-3.08289,0.159867,0.077534,0.0101684,0.161105,0.0762968,0.121079,0.093057,0.0457061,594,1352,-6.87506,3.08288
-623,-328,-5.25623,-3.05176,0,0,0,0,0,0,0,-1,601,1352,-5.25621,3.05172
-616,-328,-3.60748,-3.00574,0,0,0,0,0,0,0,-1,608,1352,-3.60747,3.00572
-609,-328,-7.87439,0.192871,0,0,0,0,0,0,0,-1,615,1352,-7.87441,-0.192822
-602,-328,-7.1377,0.20752,0,0,0,0,0,0,0,-1,622,1352,-7.13771,-0.207557
-595,-328,-6.474,2.14001,0,0,0,0,0,0,0,-1,629,1352,-6.47399,-2.14006
-588,-328,-6.65302,2.22473,0.0211882,0.0189097,0.000300105,0.021227,0.0188708,0.128787,0.013435,0.0359964,636,1352,-6.65303,-2.22478
-581,-328,-6.72058,2.51855,0.00825805,0.0119641,-0.000794936,0.0121274,0.00809473,-1.36817,0.0071315,0.0146005,643,1352,-6.72061,-2.5185
-574,-328,-6.71265,2.73792,-0.000195715,0.00597803,-0.000517606,0.00602113,-0.00023881,-1.48773,0.00409601,0.0142112,650,1352,-6.71262,-2.73797
-567,-328,-6.72968,2.96167,-0.00121368,0.00222915,-0.00040699,0.00227661,-0.00126113,-1.45471,0.00207037,0.0188817,657,1352,-6.72968,-2.9617
-560,-328,-6.71033,3.22314,-0.000972557,0.000639811,-0.000789217,0.00096181,-0.00129456,-1.18341,0.00130743,0.0265131,664,1352,-6.7103,-3.2232
-553,-328,-6.75696,3.4397,-0.00100044,-0.000476712,-0.00114749,0.000438413,-0.00191557,-0.89758,0.00144552,0.0283222,671,1352,-6.75697,-3.43968
-546,-328,-6.75336,3.62366,-0.0015817,-0.00178595,-0.00143518,-0.000245016,-0.00312263,-0.749878,0.00200508,0.0263575,678,1352,-6.75337,-3.62364
-539,-328,-6.71759,3.83105,-0.00294495,-0.00285886,-0.00150942,-0.00139187,-0.00441193,-0.799653,0.00260441,0.0219907,685,1352,-6.71757,-3.83101
-532,-328,-6.7124,4.06799,-0.00488783,-0.00395963,-0.00168226,-0.00267862,-0.00616883,-0.91999,0.00357183,0.0151522,692,1352,-6.71238,-4.06805
-525,-328,-6.68652,4.33228,-0.00506386,-0.00815196,-0.00219167,-0.00392696,-0.00928886,-0.478526,0.00538421,0.0124841,699,1352,-6.68652,-4.33223
-518,-328,-6.58887,4.49377,-0.0035532,-0.0150186,-0.00266895,-0.00296237,-0.0156094,-0.217861,0.00957286,0.0354926,706,1352,-6.58885,-4.49374
-511,-328,-6.87488,4.28381,-0.0015859,-0.0249829,-0.00449025,-0.00075375,-0.025815,-0.183245,0.0169643,0.0439369,713,1352,-6.87489,-4.28386
-504,-328,-7.18719,4.20313,0,0,0,0,0,0,0,-1,720,1352,-7.18719,-4.20317
-497,-328,-7.56366,4.81641,0,0,0,0,0,0,0,-1,727,1352,-7.56365,-4.8164
-490,-328,-7.66724,1.19629,0,0,0,0,0,0,0,-1,734,1352,-7.66722,-1.19628
-483,-328,-12.4907,2.71216,0,0,0,0,0,0,0,-1,741,1352,-12.4907,-2.7122
-476,-328,-11.7977,3.04004,0.0289497,-0.111614,-0.0233612,0.0327305,-0.115395,-0.160452,0.0898498,0.0444157,748,1352,-11.7977,-3.04004
-469,-328,-10.9718,3.35144,0.0365391,-0.13396,-0.0295548,0.0415169,-0.138937,-0.16686,0.109129,0.0442733,755,1352,-10.9718,-3.35148
-462,-328,-10.3092,3.63354,0,0,0,0,0,0,0,-1,762,1352,-10.3092,-3.63357
-455,-328,0,0,0,0,0,0,0,0,0,-1,769,1352,0,0
-448,-328,0,0,0,0,0,0,0,0,0,-1,776,1352,0,0
-441,-328,0,0,0,0,0,0,0,0,0,-1,783,1352,0,0
-434,-328,0,0,0,0,0,0,0,0,0,-1,790,1352,0,0
-427,-328,0,0,0,0,0,0,0,0,0,-1,797,1352,0,0
-420,-328,0,0,0,0,0,0,0,0,0,-1,804,1352,0,0
-413,-328,0,0,0,0,0,0,0,0,0,-1,811,1352,0,0
-406,-328,0,0,0,0,0,0,0,0,0,-1,818,1352,0,0
-399,-328,0,0,0,0,0,0,0,0,0,-1,825,1352,0,0
-392,-328,0,0,0,0,0,0,0,0,0,-1,832,1352,0,0
-385,-328,0,0,0,0,0,0,0,0,0,-1,839,1352,0,0
-378,-328,0,0,0,0,0,0,0,0,0,-1,846,1352,0,0
-371,-328,0,0,0,0,0,0,0,0,0,-1,853,1352,0,0
-364,-328,0,0,0,0,0,0,0,0,0,-1,860,1352,0,0
-357,-328,0,0,0,0,0,0,0,0,0,-1,867,1352,0,0
-350,-328,0,0,0,0,0,0,0,0,0,-1,874,1352,0,0
-343,-328,0,0,0,0,0,0,0,0,0,-1,881,1352,0,0
-336,-328,0,0,0,0,0,0,0,0,0,-1,888,1352,0,0
-329,-328,0,0,0,0,0,0,0,0,0,-1,895,1352,0,0
-322,-328,0,0,0,0,0,0,0,0,0,-1,902,1352,0,0
-315,-328,0,0,0,0,0,0,0,0,0,-1,909,1352,0,0
-308,-328,0,0,0,0,0,0,0,0,0,-1,916,1352,0,0
-301,-328,0,0,0,0,0,0,0,0,0,-1,923,1352,0,0
-294,-328,0,0,0,0,0,0,0,0,0,-1,930,1352,0,0
-287,-328,0,0,0,0,0,0,0,0,0,-1,937,1352,0,0
-280,-328,0,0,0,0,0,0,0,0,0,-1,944,1352,0,0
-273,-328,0,0,0,0,0,0,0,0,0,-1,951,1352,0,0
-266,-328,0,0,0,0,0,0,0,0,0,-1,958,1352,0,0
-259,-328,0,0,0,0,0,0,0,0,0,-1,965,1352,0,0
-252,-328,0,0,0,0,0,0,0,0,0,-1,972,1352,0,0
-245,-328,0,0,0,0,0,0,0,0,0,-1,979,1352,0,0
-238,-328,0,0,0,0,0,0,0,0,0,-1,986,1352,0,0
-231,-328,0,0,0,0,0,0,0,0,0,-1,993,1352,0,0
-224,-328,0,0,0,0,0,0,0,0,0,-1,1000,1352,0,0
-217,-328,0,0,0,0,0,0,0,0,0,-1,1007,1352,0,0
-210,-328,0,0,0,0,0,0,0,0,0,-1,1014,1352,0,0
-203,-328,0,0,0,0,0,0,0,0,0,-1,1021,1352,0,0
-196,-328,0,0,0,0,0,0,0,0,0,-1,1028,1352,0,0
-189,-328,0,0,0,0,0,0,0,0,0,-1,1035,1352,0,0
-182,-328,0,0,0,0,0,0,0,0,0,-1,1042,1352,0,0
-175,-328,0,0,0,0,0,0,0,0,0,-1,1049,1352,0,0
-168,-328,0,0,0,0,0,0,0,0,0,-1,1056,1352,0,0
-161,-328,0,0,0,0,0,0,0,0,0,-1,1063,1352,0,0
-154,-328,0,0,0,0,0,0,0,0,0,-1,1070,1352,0,0
-147,-328,0,0,0,0,0,0,0,0,0,-1,1077,1352,0,0
-140,-328,0,0,0,0,0,0,0,0,0,-1,1084,1352,0,0
-133,-328,0,0,0,0,0,0,0,0,0,-1,1091,1352,0,0
-126,-328,0,0,0,0,0,0,0,0,0,-1,1098,1352,0,0
-119,-328,0,0,0,0,0,0,0,0,0,-1,1105,1352,0,0
-112,-328,0,0,0,0,0,0,0,0,0,-1,1112,1352,0,0
-105,-328,0,0,0,0,0,0,0,0,0,-1,1119,1352,0,0
-98,-328,0,0,0,0,0,0,0,0,0,-1,1126,1352,0,0
-91,-328,0,0,0,0,0,0,0,0,0,-1,1133,1352,0,0
-84,-328,0,0,0,0,0,0,0,0,0,-1,1140,1352,0,0
-77,-328,0,0,0,0,0,0,0,0,0,-1,1147,1352,0,0
-70,-328,0,0,0,0,0,0,0,0,0,-1,1154,1352,0,0
-63,-328,0,0,0,0,0,0,0,0,0,-1,1161,1352,0,0
-56,-328,0,0,0,0,0,0,0,0,0,-1,1168,1352,0,0
-49,-328,0,0,0,0,0,0,0,0,0,-1,1175,1352,0,0
-42,-328,0,0,0,0,0,0,0,0,0,-1,1182,1352,0,0
-35,-328,0,0,0,0,0,0,0,0,0,-1,1189,1352,0,0
-28,-328,0,0,0,0,0,0,0,0,0,-1,1196,1352,0,0
-21,-328,0,0,0,0,0,0,0,0,0,-1,1203,1352,0,0
-14,-328,0,0,0,0,0,0,0,0,0,-1,1210,1352,0,0
-7,-328,0,0,0,0,0,0,0,0,0,-1,1217,1352,0,0
0,-328,0,0,0,0,0,0,0,0,0,-1,1224,1352,0,0
7,-328,0,0,0,0,0,0,0,0,0,-1,1231,1352,0,0
14,-328,0,0,0,0,0,0,0,0,0,-1,1238,1352,0,0
21,-328,0,0,0,0,0,0,0,0,0,-1,1245,1352,0,0
28,-328,0,0,0,0,0,0,0,0,0,-1,1252,1352,0,0
35,-328,0,0,0,0,0,0,0,0,0,-1,1259,1352,0,0
42,-328,0,0,0,0,0,0,0,0,0,-1,1266,1352,0,0
49,-328,0,0,0,0,0,0,0,0,0,-1,1273,1352,0,0
56,-328,0,0,0,0,0,0,0,0,0,-1,1280,1352,0,0
63,-328,0,0,0,0,0,0,0,0,0,-1,1287,1352,0,0
70,-328,0,0,0,0,0,0,0,0,0,-1,1294,1352,0,0
77,-328,0,0,0,0,0,0,0,0,0,-1,1301,1352,0,0
84,-328,0,0,0,0,0,0,0,0,0,-1,1308,1352,0,0
91,-328,0,0,0,0,0,0,0,0,0,-1,1315,1352,0,0
98,-328,0,0,0,0,0,0,0,0,0,-1,1322,1352,0,0
105,-328,0,0,0,0,0,0,0,0,0,-1,1329,1352,0,0
112,-328,0,0,0,0,0,0,0,0,0,-1,1336,1352,0,0
119,-328,0,0,0,0,0,0,0,0,0,-1,1343,1352,0,0
126,-328,0,0,0,0,0,0,0,0,0,-1,1350,1352,0,0
133,-328,0,0,0,0,0,0,0,0,0,-1,1357,1352,0,0
140,-328,0,0,0,0,0,0,0,0,0,-1,1364,1352,0,0
147,-328,0,0,0,0,0,0,0,0,0,-1,1371,1352,0,0
154,-328,0,0,0,0,0,0,0,0,0,-1,1378,1352,0,0
161,-328,0,0,0,0,0,0,0,0,0,-1,1385,1352,0,0
168,-328,0,0,0,0,0,0,0,0,0,-1,1392,1352,0,0
175,-328,0,0,0,0,0,0,0,0,0,-1,1399,1352,0,0
182,-328,0,0,0,0,0,0,0,0,0,-1,1406,1352,0,0
189,-328,0,0,0,0,0,0,0,0,0,-1,1413,1352,0,0
196,-328,0,0,0,0,0,0,0,0,0,-1,1420,1352,0,0
203,-328,0,0,0,0,0,0,0,0,0,-1,1427,1352,0,0
210,-328,0,0,0,0,0,0,0,0,0,-1,1434,1352,0,0
217,-328,0,0,0,0,0,0,0,0,0,-1,1441,1352,0,0
224,-328,0,0,0,0,0,0,0,0,0,-1,1448,1352,0,0
231,-328,0,0,0,0,0,0,0,0,0,-1,1455,1352,0,0
238,-328,0,0,0,0,0,0,0,0,0,-1,1462,1352,0,0
245,-328,0,0,0,0,0,0,0,0,0,-1,1469,1352,0,0
252,-328,0,0,0,0,0,0,0,0,0,-1,1476,1352,0,0
259,-328,0,0,0,0,0,0,0,0,0,-1,1483,1352,0,0
266,-328,0,0,0,0,0,0,0,0,0,-1,1490,1352,0,0
273,-328,0,0,0,0,0,0,0,0,0,-1,1497,1352,0,0
280,-328,0,0,0,0,0,0,0,0,0,-1,1504,1352,0,0
287,-328,0,0,0,0,0,0,0,0,0,-1,1511,1352,0,0
294,-328,0,0,0,0,0,0,0,0,0,-1,1518,1352,0,0
301,-328,0,0,0,0,0,0,0,0,0,-1,1525,1352,0,0
308,-328,0,0,0,0,0,0,0,0,0,-1,1532,1352,0,0
315,-328,0,0,0,0,0,0,0,0,0,-1,1539,1352,0,0
322,-328,0,0,0,0,0,0,0,0,0,-1,1546,1352,0,0
329,-328,0,0,0,0,0,0,0,0,0,-1,1553,1352,0,0
336,-328,0,0,0,0,0,0,0,0,0,-1,1560,1352,0,0
343,-328,0,0,0,0,0,0,0,0,0,-1,1567,1352,0,0
350,-328,0,0,0,0,0,0,0,0,0,-1,1574,1352,0,0
357,-328,0,0,0,0,0,0,0,0,0,-1,1581,1352,0,0
364,-328,0,0,0,0,0,0,0,0,0,-1,1588,1352,0,0
371,-328,0,0,0,0,0,0,0,0,0,-1,1595,1352,0,0
378,-328,0,0,0,0,0,0,0,0,0,-1,1602,1352,0,0
385,-328,0,0,0,0,0,0,0,0,0,-1,1609,1352,0,0
392,-328,0,0,0,0,0,0,0,0,0,-1,1616,1352,0,0
399,-328,0,0,0,0,0,0,0,0,0,-1,1623,1352,0,0
406,-328,0,0,0,0,0,0,0,0,0,-1,1630,1352,0,0
413,-328,0,0,0,0,0,0,0,0,0,-1,1637,1352,0,0
420,-328,0,0,0,0,0,0,0,0,0,-1,1644,1352,0,0
427,-328,0,0,0,0,0,0,0,0,0,-1,1651,1352,0,0
434,-328,0,0,0,0,0,0,0,0,0,-1,1658,1352,0,0
441,-328,0,0,0,0,0,0,0,0,0,-1,1665,1352,0,0
448,-328,0,0,0,0,0,0,0,0,0,-1,1672,1352,0,0
455,-328,0,0,0,0,0,0,0,0,0,-1,1679,1352,0,0
462,-328,0,0,0,0,0,0,0,0,0,-1,1686,1352,0,0
469,-328,0,0,0,0,0,0,0,0,0,-1,1693,1352,0,0
476,-328,0,0,0,0,0,0,0,0,0,-1,1700,1352,0,0
483,-328,0,0,0,0,0,0,0,0,0,-1,1707,1352,0,0
490,-328,0,0,0,0,0,0,0,0,0,-1,1714,1352,0,0
497,-328,0,0,0,0,0,0,0,0,0,-1,1721,1352,0,0
504,-328,0,0,0,0,0,0,0,0,0,-1,1728,1352,0,0
511,-328,0,0,0,0,0,0,0,0,0,-1,1735,1352,0,0
518,-328,0,0,0,0,0,0,0,0,0,-1,1742,1352,0,0
525,-328,0,0,0,0,0,0,0,0,0,-1,1749,1352,0,0
532,-328,0,0,0,0,0,0,0,0,0,-1,1756,1352,0,0
539,-328,0,0,0,0,0,0,0,0,0,-1,1763,1352,0,0
546,-328,0,0,0,0,0,0,0,0,0,-1,1770,1352,0,0
553,-328,0,0,0,0,0,0,0,0,0,-1,1777,1352,0,0
560,-328,0,0,0,0,0,0,0,0,0,-1,1784,1352,0,0
567,-328,0,0,0,0,0,0,0,0,0,-1,1791,1352,0,0
574,-328,24.7629,2.00354,0,0,0,0,0,0,0,-1,1798,1352,24.763,-2.00349
581,-328,23.9612,1.34363,0,0,0,0,0,0,0,-1,1805,1352,23.9612,-1.34361
588,-328,23.1919,0.686768,0,0,0,0,0,0,0,-1,1812,1352,23.1919,-0.686708
595,-328,22.368,-0.0577393,0,0,0,0,0,0,0,-1,1819,1352,22.3681,0.0577871
602,-328,21.3977,0.444824,0,0,0,0,0,0,0,-1,1826,1352,21.3977,-0.444844
609,-328,20.4796,0.93689,0,0,0,0,0,0,0,-1,1833,1352,20.4796,-0.936887
616,-328,18.4426,3.5094,0,0,0,0,0,0,0,-1,1840,1352,18.4426,-3.50945
623,-328,17.7267,3.05786,0,0,0,0,0,0,0,-1,1847,1352,17.7267,-3.05781
630,-328,14.5042,5.95361,0,0,0,0,0,0,0,-1,1854,1352,14.5041,-5.95363
637,-328,16.0094,6.52893,0,0,0,0,0,0,0,-1,1861,1352,16.0094,-6.52897
644,-328,15.66,6.30554,-0.0131128,0.0109838,0.0102243,0.0147373,-0.0168663,1.21895,0.0182602,0.0482537,1868,1352,15.66,-6.3055
651,-328,15.3442,6.17383,-0.0115002,0.00694034,0.00996922,0.0112994,-0.0158593,1.15859,0.0157536,0.0477464,1875,1352,15.3442,-6.1738
658,-328,15.1108,6.17834,-0.0110504,0.00290714,0.0090409,0.00734945,-0.0154927,1.11409,0.0134644,0.0221391,1882,1352,15.1109,-6.1784
665,-328,15.1042,5.9967,-0.00939554,0.00037154,0.00773986,0.00463974,-0.0136637,1.06683,0.0109873,0.0134666,1889,1352,15.1042,-5.99669
672,-328,15.1031,5.79895,-0.00702383,-0.000714686,0.00556038,0.00252364,-0.0102622,1.04342,0.0078196,0.0110725,1896,1352,15.1032,-5.79896
679,-328,15.1088,5.60144,-0.00488495,-0.00141577,0.00290831,0.000235946,-0.00653666,1.05429,0.00443851,0.0122893,1903,1352,15.1088,-5.60144
686,-328,15.0963,5.41541,-0.00302961,-0.000355954,0.000931608,-6.33642e-05,-0.0033222,1.26648,0.00219398,0.0110286,1910,1352,15.0963,-5.41535
693,-328,15.1055,5.23376,-0.000978666,0.0013021,-0.000740134,0.00152123,-0.00119779,-1.28295,0.00157353,0.00886729,1917,1352,15.1055,-5.23371
700,-328,15.1033,5.04541,0.00117411,0.00320949,-0.00242761,0.00482409,-0.000440496,-0.983878,0.0033725,0.0133768,1924,1352,15.1033,-5.04544
707,-328,15.113,4.84863,0.00294877,0.00498919,-0.00410846,0.00820222,-0.000264253,-0.907096,0.00555832,0.0151602,1931,1352,15.1131,-4.84859
714,-328,15.1387,4.65759,0.00475374,0.00717794,-0.00601721,0.0121039,-0.000172238,-0.884788,0.0081273,0.0129444,1938,1352,15.1387,-4.65759
721,-328,15.0558,4.43677,0.00689554,0.00979186,-0.00824451,0.0167144,-2.70279e-05,-0.872337,0.011152,0.026134,1945,1352,15.0558,-4.43672
728,-328,14.9984,4.00122,0.00989144,0.0127854,-0.0109754,0.0224088,0.000268062,-0.85094,0.0148507,0.0411474,1952,1352,14.9984,-4.00127
735,-328,15.0835,3.38232,0.0142008,0.0163218,-0.0143542,0.0296546,0.000867922,-0.822271,0.0194869,0.0496523,1959,1352,15.0835,-3.38237
742,-328,15.7266,3.49463,0,0,0,0,0,0,0,-1,1966,1352,15.7265,-3.49461
749,-328,15.9119,3.50098,0,0,0,0,0,0,0,-1,1973,1352,15.9119,-3.50092
756,-328,16.2542,3.53589,0,0,0,0,0,0,0,-1,1980,1352,16.2541,-3.53588
763,-328,0,0,0,0,0,0,0,0,0,-1,1987,1352,0,0
770,-328,0,0,0,0,0,0,0,0,0,-1,1994,1352,0,0
777,-328,0,0,0,0,0,0,0,0,0,-1,2001,1352,0,0
784,-328,0,0,0,0,0,0,0,0,0,-1,2008,1352,0,0
791,-328,0,0,0,0,0,0,0,0,0,-1,2015,1352,0,0
798,-328,0,0,0,0,0,0,0,0,0,-1,2022,1352,0,0
805,-328,0,0,0,0,0,0,0,0,0,-1,2029,1352,0,0
812,-328,0,0,0,0,0,0,0,0,0,-1,2036,1352,0,0
-700,-335,0,0,0,0,0,0,0,0,0,-1,524,1359,0,0
-693,-335,0,0,0,0,0,0,0,0,0,-1,531,1359,0,0
-686,-335,0,0,0,0,0,0,0,0,0,-1,538,1359,0,0
-679,-335,0,0,0,0,0,0,0,0,0,-1,545,1359,0,0
-672,-335,0,0,0,0,0,0,0,0,0,-1,552,1359,0,0
-665,-335,0,0,0,0,0,0,0,0,0,-1,559,1359,0,0
-658,-335,0,0,0,0,0,0,0,0,0,-1,566,1359,0,0
-651,-335,0,0,0,0,0,0,0,0,0,-1,573,1359,0,0
-644,-335,0,0,0,0,0,0,0,0,0,-1,580,1359,0,0
-637,-335,-8.28088,-3.46753,0.22674,0.0814475,0.0157072,0.228419,0.0797689,0.106468,0.133862,0.0460746,587,1359,-8.28086,3.46752
-630,-335,-6.73273,-3.3656,0.188209,0.0748554,0.0116819,0.189401,0.073664,0.101634,0.110246,0.0464289,594,1359,-6.73275,3.36559
-623,-335,-5.08252,-3.43701,0,0,0,0,0,0,0,-1,601,1359,-5.08249,3.437
-616,-335,-2.34357,0.0516357,0,0,0,0,0,0,0,-1,608,1359,-2.3436,-0.051622
-609,-335,-7.664,-2.79272,0,0,0,0,0,0,0,-1,615,1359,-7.66403,2.79271
-602,-335,-6.35724,1.8678,0,0,0,0,0,0,0,-1,622,1359,-6.35722,-1.86784
-595,-335,-6.34204,2.15491,0,0,0,0,0,0,0,-1,629,1359,-6.34206,-2.15488
-588,-335,-6.34644,2.40576,0.0277047,0.0194728,0.000330524,0.0277179,0.0194596,0.0400659,0.0164328,0.0364883,636,1359,-6.34646,-2.40577
-581,-335,-6.4798,2.55542,0.0123121,0.0123928,-0.000778025,0.0131315,0.0115734,-0.811288,0.00828395,0.0196951,643,1359,-6.47981,-2.55537
-574,-335,-6.47961,2.74023,0.00226815,0.00647581,-0.000514854,0.00653789,0.00220607,-1.45079,0.00384059,0.0122084,650,1359,-6.4796,-2.74025
-567,-335,-6.48157,2.97705,0.000708005,0.00283406,-0.000386518,0.00290215,0.000639917,-1.39643,0.00176066,0.0167321,657,1359,-6.48159,-2.97709
-560,-335,-6.48828,3.18469,0.000358845,0.00121911,-0.00072188,0.00162929,-5.13344e-05,-1.05408,0.0011037,0.0249382,664,1359,-6.48826,-3.18464
-553,-335,-6.54413,3.42322,1.07711e-05,-9.12514e-06,-0.00103102,0.00103189,-0.00103025,-0.780574,0.00119058,0.0261942,671,1359,-6.54412,-3.42324
-546,-335,-6.54749,3.65662,-0.000498522,-0.00135103,-0.00134872,0.000489696,-0.00233924,-0.632344,0.00174577,0.0232818,678,1359,-6.54749,-3.65666
-539,-335,-6.51636,3.84436,-0.00136801,-0.00247908,-0.00155426,-0.000272989,-0.00357411,-0.61376,0.00229716,0.0191121,685,1359,-6.51637,-3.84436
-532,-335,-6.51685,4.07251,-0.00261057,-0.00358464,-0.00189688,-0.00113921,-0.00505601,-0.659735,0.0030624,0.0138241,692,1359,-6.51687,-4.07245
-525,-335,-6.46417,4.32043,-0.0017759,-0.00763032,-0.0026414,-0.000760324,-0.0086459,-0.367059,0.00552795,0.00965082,699,1359,-6.46416,-4.32049
-518,-335,-6.42847,4.52051,0.00082352,-0.014526,-0.00343938,0.00155895,-0.0152614,-0.210654,0.0107317,0.0190231,706,1359,-6.42848,-4.52049
-511,-335,-6.49341,4.52222,0.00311974,-0.0244231,-0.00596374,0.00435559,-0.0256589,-0.204336,0.0187274,0.04393,713,1359,-6.49341,-4.52216
-504,-335,-6.79413,4.73877,0,0,0,0,0,0,0,-1,720,1359,-6.79415,-4.73881
-497,-335,-7.24689,5.09998,0,0,0,0,0,0,0,-1,727,1359,-7.24692,-5.09998
-490,-335,-7.43848,1.00488,0,0,0,0,0,0,0,-1,734,1359,-7.43845,-1.00494
-483,-335,-11.811,4.03906,0,0,0,0,0,0,0,-1,741,1359,-11.8111,-4.03909
-476,-335,-11.2946,4.23193,0.0296508,-0.108604,-0.0269914,0.0347335,-0.113686,-0.186128,0.0896406,0.0475956,748,1359,-11.2946,-4.23191
-469,-335,-10.6644,4.42603,0.0356617,-0.129683,-0.0335372,0.0422052,-0.136226,-0.19269,0.107679,0.0478232,755,1359,-10.6644,-4.42604
-462,-335,-10.4181,4.06299,0.040705,-0.153363,-0.0423073,0.049527,-0.162185,-0.205578,0.127871,0.0452553,762,1359,-10.4181,-4.06293
-455,-335,-10.342,3.89612,0.0420328,-0.184226,-0.056604,0.0554035,-0.197597,-0.231963,0.153568,0.0455703,769,1359,-10.342,-3.89611
-448,-335,0,0,0,0,0,0,0,0,0,-1,776,1359,0,0
-441,-335,0,0,0,0,0,0,0,0,0,-1,783,1359,0,0
-434,-335,0,0,0,0,0,0,0,0,0,-1,790,1359,0,0
-427,-335,0,0,0,0,0,0,0,0,0,-1,797,1359,0,0
-420,-335,0,0,0,0,0,0,0,0,0,-1,804,1359,0,0
-413,-335,0,0,0,0,0,0,0,0,0,-1,811,1359,0,0
-406,-335,0,0,0,0,0,0,0,0,0,-1,818,1359,0,0
-399,-335,0,0,0,0,0,0,0,0,0,-1,825,1359,0,0
-392,-335,0,0,0,0,0,0,0,0,0,-1,832,1359,0,0
-385,-335,0,0,0,0,0,0,0,0,0,-1,839,1359,0,0
-378,-335,0,0,0,0,0,0,0,0,0,-1,846,1359,0,0
-371,-335,0,0,0,0,0,0,0,0,0,-1,853,1359,0,0
-364,-335,0,0,0,0,0,0,0,0,0,-1,860,1359,0,0
-357,-335,0,0,0,0,0,0,0,0,0,-1,867,1359,0,0
-350,-335,0,0,0,0,0,0,0,0,0,-1,874,1359,0,0
-343,-335,0,0,0,0,0,0,0,0,0,-1,881,1359,0,0
-336,-335,0,0,0,0,0,0,0,0,0,-1,888,1359,0,0
-329,-335,0,0,0,0,0,0,0,0,0,-1,895,1359,0,0
-322,-335,0,0,0,0,0,0,0,0,0,-1,902,1359,0,0
-315,-335,0,0,0,0,0,0,0,0,0,-1,909,1359,0,0
-308,-335,0,0,0,0,0,0,0,0,0,-1,916,1359,0,0
-301,-335,0,0,0,0,0,0,0,0,0,-1,923,1359,0,0
-294,-335,0,0,0,0,0,0,0,0,0,-1,930,1359,0,0
-287,-335,0,0,0,0,0,0,0,0,0,-1,937,1359,0,0
-280,-335,0,0,0,0,0,0,0,0,0,-1,944,1359,0,0
-273,-335,0,0,0,0,0,0,0,0,0,-1,951,1359,0,0
-266,-335,0,0,0,0,0,0,0,0,0,-1,958,1359,0,0
-259,-335,0,0,0,0,0,0,0,0,0,-1,965,1359,0,0
-252,-335,0,0,0,0,0,0,0,0,0,-1,972,1359,0,0
-245,-335,0,0,0,0,0,0,0,0,0,-1,979,1359,0,0
-238,-335,0,0,0,0,0,0,0,0,0,-1,986,1359,0,0
-231,-335,0,0,0,0,0,0,0,0,0,-1,993,1359,0,0
-224,-335,0,0,0,0,0,0,0,0,0,-1,1000,1359,0,0
-217,-335,0,0,0,0,0,0,0,0,0,-1,1007,1359,0,0
-210,-335,0,0,0,0,0,0,0,0,0,-1,1014,1359,0,0
-203,-335,0,0,0,0,0,0,0,0,0,-1,1021,1359,0,0
-196,-335,0,0,0,0,0,0,0,0,0,-1,1028,1359,0,0
-189,-335,0,0,0,0,0,0,0,0,0,-1,1035,1359,0,0
-182,-335,0,0,0,0,0,0,0,0,0,-1,1042,1359,0,0
-175,-335,0,0,0,0,0,0,0,0,0,-1,1049,1359,0,0
-168,-335,0,0,0,0,0,0,0,0,0,-1,1056,1359,0,0
-161,-335,0,0,0,0,0,0,0,0,0,-1,1063,1359,0,0
-154,-335,0,0,0,0,0,0,0,0,0,-1,1070,1359,0,0
-147,-335,0,0,0,0,0,0,0,0,0,-1,1077,1359,0,0
-140,-335,0,0,0,0,0,0,0,0,0,-1,1084,1359,0,0
-133,-335,0,0,0,0,0,0,0,0,0,-1,1091,1359,0,0
-126,-335,0,0,0,0,0,0,0,0,0,-1,1098,1359,0,0
-119,-335,0,0,0,0,0,0,0,0,0,-1,1105,1359,0,0
-112,-335,0,0,0,0,0,0,0,0,0,-1,1112,1359,0,0
-105,-335,0,0,0,0,0,0,0,0,0,-1,1119,1359,0,0
-98,-335,0,0,0,0,0,0,0,0,0,-1,1126,1359,0,0
-91,-335,0,0,0,0,0,0,0,0,0,-1,1133,1359,0,0
-84,-335,0,0,0,0,0,0,0,0,0,-1,1140,1359,0,0
-77,-335,0,0,0,0,0,0,0,0,0,-1,1147,1359,0,0
-70,-335,0,0,0,0,0,0,0,0,0,-1,1154,1359,0,0
-63,-335,0,0,0,0,0,0,0,0,0,-1,1161,1359,0,0
-56,-335,0,0,0,0,0,0,0,0,0,-1,1168,1359,0,0
-49,-335,0,0,0,0,0,0,0,0,0,-1,1175,1359,0,0
-42,-335,0,0,0,0,0,0,0,0,0,-1,1182,1359,0,0
-35,-335,0,0,0,0,0,0,0,0,0,-1,1189,1359,0,0
-28,-335,0,0,0,0,0,0,0,0,0,-1,1196,1359,0,0
-21,-335,0,0,0,0,0,0,0,0,0,-1,1203,1359,0,0
-14,-335,0,0,0,0,0,0,0,0,0,-1,1210,1359,0,0
-7,-335,0,0,0,0,0,0,0,0,0,-1,1217,1359,0,0
0,-335,0,0,0,0,0,0,0,0,0,-1,1224,1359,0,0
7,-335,0,0,0,0,0,0,0,0,0,-1,1231,1359,0,0
14,-335,0,0,0,0,0,0,0,0,0,-1,1238,1359,0,0
21,-335,0,0,0,0,0,0,0,0,0,-1,1245,1359,0,0
28,-335,0,0,0,0,0,0,0,0,0,-1,1252,1359,0,0
35,-335,0,0,0,0,0,0,0,0,0,-1,1259,1359,0,0
42,-335,0,0,0,0,0,0,0,0,0,-1,1266,1359,0,0
49,-335,0,0,0,0,0,0,0,0,0,-1,1273,1359,0,0
56,-335,0,0,0,0,0,0,0,0,0,-1,1280,1359,0,0
63,-335,0,0,0,0,0,0,0,0,0,-1,1287,1359,0,0
70,-335,0,0,0,0,0,0,0,0,0,-1,1294,1359,0,0
77,-335,0,0,0,0,0,0,0,0,0,-1,1301,1359,0,0
84,-335,0,0,0,0,0,0,0,0,0,-1,1308,1359,0,0
91,-335,0,0,0,0,0,0,0,0,0,-1,1315,1359,0,0
98,-335,0,0,0,0,0,0,0,0,0,-1,1322,1359,0,0
105,-335,0,0,0,0,0,0,0,0,0,-1,1329,1359,0,0
112,-335,0,0,0,0,0,0,0,0,0,-1,1336,1359,0,0
119,-335,0,0,0,0,0,0,0,0,0,-1,1343,1359,0,0
126,-335,0,0,0,0,0,0,0,0,0,-1,1350,1359,0,0
133,-335,0,0,0,0,0,0,0,0,0,-1,1357,1359,0,0
140,-335,0,0,0,0,0,0,0,0,0,-1,1364,1359,0,0
147,-335,0,0,0,0,0,0,0,0,0,-1,1371,1359,0,0
154,-335,0,0,0,0,0,0,0,0,0,-1,1378,1359,0,0
161,-335,0,0,0,0,0,0,0,0,0,-1,1385,1359,0,0
168,-335,0,0,0,0,0,0,0,0,0,-1,1392,1359,0,0
175,-335,0,0,0,0,0,0,0,0,0,-1,1399,1359,0,0
182,-335,0,0,0,0,0,0,0,0,0,-1,1406,1359,0,0
189,-335,0,0,0,0,0,0,0,0,0,-1,1413,1359,0,0
196,-335,0,0,0,0,0,0,0,0,0,-1,1420,1359,0,0
203,-335,0,0,0,0,0,0,0,0,0,-1,1427,1359,0,0
210,-335,0,0,0,0,0,0,0,0,0,-1,1434,1359,0,0
217,-335,0,0,0,0,0,0,0,0,0,-1,1441,1359,0,0
224,-335,0,0,0,0,0,0,0,0,0,-1,1448,1359,0,0
231,-335,0,0,0,0,0,0,0,0,0,-1,1455,1359,0,0
238,-335,0,0,0,0,0,0,0,0,0,-1,1462,1359,0,0
245,-335,0,0,0,0,0,0,0,0,0,-1,1469,1359,0,0
252,-335,0,0,0,0,0,0,0,0,0,-1,1476,1359,0,0
259,-335,0,0,0,0,0,0,0,0,0,-1,1483,1359,0,0
266,-335,0,0,0,0,0,0,0,0,0,-1,1490,1359,0,0
273,-335,0,0,0,0,0,0,0,0,0,-1,1497,1359,0,0
280,-335,0,0,0,0,0,0,0,0,0,-1,1504,1359,0,0
287,-335,0,0,0,0,0,0,0,0,0,-1,1511,1359,0,0
294,-335,0,0,0,0,0,0,0,0,0,-1,1518,1359,0,0
301,-335,0,0,0,0,0,0,0,0,0,-1,1525,1359,0,0
308,-335,0,0,0,0,0,0,0,0,0,-1,1532,1359,0,0
315,-335,0,0,0,0,0,0,0,0,0,-1,1539,1359,0,0
322,-335,0,0,0,0,0,0,0,0,0,-1,1546,1359,0,0
329,-335,0,0,0,0,0,0,0,0,0,-1,1553,1359,0,0
336,-335,0,0,0,0,0,0,0,0,0,-1,1560,1359,0,0
343,-335,0,0,0,0,0,0,0,0,0,-1,1567,1359,0,0
350,-335,0,0,0,0,0,0,0,0,0,-1,1574,1359,0,0
357,-335,0,0,0,0,0,0,0,0,0,-1,1581,1359,0,0
364,-335,0,0,0,0,0,0,0,0,0,-1,1588,1359,0,0
371,-335,0,0,0,0,0,0,0,0,0,-1,1595,1359,0,0
378,-335,0,0,0,0,0,0,0,0,0,-1,1602,1359,0,0
385,-335,0,0,0,0,0,0,0,0,0,-1,1609,1359,0,0
392,-335,0,0,0,0,0,0,0,0,0,-1,1616,1359,0,0
399,-335,0,0,0,0,0,0,0,0,0,-1,1623,1359,0,0
406,-335,0,0,0,0,0,0,0,0,0,-1,1630,1359,0,0
413,-335,0,0,0,0,0,0,0,0,0,-1,1637,1359,0,0
420,-335,0,0,0,0,0,0,0,0,0,-1,1644,1359,0,0
427,-335,0,0,0,0,0,0,0,0,0,-1,1651,1359,0,0
434,-335,0,0,0,0,0,0,0,0,0,-1,1658,1359,0,0
441,-335,0,0,0,0,0,0,0,0,0,-1,1665,1359,0,0
448,-335,0,0,0,0,0,0,0,0,0,-1,1672,1359,0,0
455,-335,0,0,0,0,0,0,0,0,0,-1,1679,1359,0,0
462,-335,0,0,0,0,0,0,0,0,0,-1,1686,1359,0,0
469,-335,0,0,0,0,0,0,0,0,0,-1,1693,1359,0,0
476,-335,0,0,0,0,0,0,0,0,0,-1,1700,1359,0,0
483,-335,0,0,0,0,0,0,0,0,0,-1,1707,1359,0,0
490,-335,0,0,0,0,0,0,0,0,0,-1,1714,1359,0,0
497,-335,0,0,0,0,0,0,0,0,0,-1,1721,1359,0,0
504,-335,0,0,0,0,0,0,0,0,0,-1,1728,1359,0,0
511,-335,0,0,0,0,0,0,0,0,0,-1,1735,1359,0,0
518,-335,0,0,0,0,0,0,0,0,0,-1,1742,1359,0,0
525,-335,0,0,0,0,0,0,0,0,0,-1,1749,1359,0,0
532,-335,0,0,0,0,0,0,0,0,0,-1,1756,1359,0,0
539,-335,0,0,0,0,0,0,0,0,0,-1,1763,1359,0,0
546,-335,0,0,0,0,0,0,0,0,0,-1,1770,1359,0,0
553,-335,0,0,0,0,0,0,0,0,0,-1,1777,1359,0,0
560,-335,0,0,0,0,0,0,0,0,0,-1,1784,1359,0,0
567,-335,0,0,0,0,0,0,0,0,0,-1,1791,1359,0,0
574,-335,18.209,6.4624,0,0,0,0,0,0,0,-1,1798,1359,18.209,-6.46235
581,-335,23.6459,1.16357,0,0,0,0,0,0,0,-1,1805,1359,23.6459,-1.16362
588,-335,22.8728,0.490234,0,0,0,0,0,0,0,-1,1812,1359,22.8728,-0.490186
595,-335,22.0363,-0.237305,0,0,0,0,0,0,0,-1,1819,1359,22.0362,0.237331
602,-335,16.1987,0.633667,0,0,0,0,0,0,0,-1,1826,1359,16.1987,-0.63362
609,-335,18.8646,2.88208,0,0,0,0,0,0,0,-1,1833,1359,18.8647,-2.88214
616,-335,17.9242,3.97607,0,0,0,0,0,0,0,-1,1840,1359,17.9242,-3.97609
623,-335,14.0536,5.64783,0,0,0,0,0,0,0,-1,1847,1359,14.0536,-5.64786
630,-335,14.3407,5.88062,0,0,0,0,0,0,0,-1,1854,1359,14.3408,-5.88057
637,-335,15.5875,6.20349,0,0,0,0,0,0,0,-1,1861,1359,15.5875,-6.20348
644,-335,15.2571,6.30322,-0.0120572,0.0087923,0.00947226,0.012453,-0.0157178,1.20201,0.0163008,0.0495292,1868,1359,15.2571,-6.30325
651,-335,14.9312,6.35962,-0.00999756,0.00504294,0.00884818,0.00913495,-0.0140896,1.13762,0.01351,0.0216796,1875,1359,14.9312,-6.35964
658,-335,14.8743,6.22473,-0.00923368,0.00145959,0.00768421,0.00547424,-0.0132483,1.08935,0.0111157,0.0140577,1882,1359,14.8743,-6.22467
665,-335,14.9012,6.00256,-0.00730425,-0.000377474,0.0062425,0.00329804,-0.0109798,1.03866,0.00863182,0.0140389,1889,1359,14.9012,-6.00258
672,-335,14.9028,5.79346,-0.00506171,-0.00096338,0.00426038,0.00171503,-0.00774012,1.00956,0.00581666,0.0161188,1896,1359,14.9028,-5.79351
679,-335,14.901,5.62866,-0.00323793,-0.00111918,0.00201857,0.000101116,-0.00445823,1.02705,0.00300642,0.0130099,1903,1359,14.901,-5.62868
686,-335,14.9281,5.4292,-0.00154666,7.90807e-05,0.000300602,0.000132882,-0.00160046,1.39369,0.00111391,0.00981978,1910,1359,14.928,-5.42924
693,-335,14.9346,5.22412,0.000228737,0.00162457,-0.00122173,0.00233367,-0.000480368,-1.0449,0.00173817,0.00989228,1917,1359,14.9346,-5.22413
700,-335,14.9033,5.03601,0.00203517,0.00333366,-0.00278955,0.00554851,-0.000179692,-0.899734,0.00376034,0.0114326,1924,1359,14.9033,-5.03605
707,-335,14.9016,4.8335,0.00367113,0.00509528,-0.00438617,0.0088268,-6.03921e-05,-0.865869,0.00590477,0.0145954,1931,1359,14.9016,-4.83348
714,-335,14.938,4.59753,0.00545469,0.00729929,-0.00629963,0.0127438,1.01994e-05,-0.858085,0.00849246,0.0198051,1938,1359,14.938,-4.59757
721,-335,14.7596,4.32117,0.00771087,0.0100363,-0.00862504,0.0175766,0.000170518,-0.852397,0.0116613,0.036601,1945,1359,14.7596,-4.3212
728,-335,14.67,3.39661,0.0110127,0.0133288,-0.0116004,0.0238288,0.000512704,-0.835149,0.0157177,0.0470097,1952,1359,14.67,-3.39659
735,-335,14.8322,3.12463,0,0,0,0,0,0,0,-1,1959,1359,14.8321,-3.1246
742,-335,14.422,2.99634,0,0,0,0,0,0,0,-1,1966,1359,14.4221,-2.99631
749,-335,14.1583,1.87585,0,0,0,0,0,0,0,-1,1973,1359,14.1583,-1.87582
756,-335,14.0078,2.19214,0,0,0,0,0,0,0,-1,1980,1359,14.0078,-2.19217
763,-335,0,0,0,0,0,0,0,0,0,-1,1987,1359,0,0
770,-335,0,0,0,0,0,0,0,0,0,-1,1994,1359,0,0
777,-335,0,0,0,0,0,0,0,0,0,-1,2001,1359,0,0
784,-335,0,0,0,0,0,0,0,0,0,-1,2008,1359,0,0
791,-335,0,0,0,0,0,0,0,0,0,-1,2015,1359,0,0
798,-335,0,0,0,0,0,0,0,0,0,-1,2022,1359,0,0
805,-335,0,0,0,0,0,0,0,0,0,-1,2029,1359,0,0
812,-335,0,0,0,0,0,0,0,0,0,-1,2036,1359,0,0
-700,-342,0,0,0,0,0,0,0,0,0,-1,524,1366,0,0
-693,-342,0,0,0,0,0,0,0,0,0,-1,531,1366,0,0
-686,-342,0,0,0,0,0,0,0,0,0,-1,538,1366,0,0
-679,-342,0,0,0,0,0,0,0,0,0,-1,545,1366,0,0
-672,-342,0,0,0,0,0,0,0,0,0,-1,552,1366,0,0
-665,-342,0,0,0,0,0,0,0,0,0,-1,559,1366,0,0
-658,-342,0,0,0,0,0,0,0,0,0,-1,566,1366,0,0
-651,-342,0,0,0,0,0,0,0,0,0,-1,573,1366,0,0
-644,-342,0,0,0,0,0,0,0,0,0,-1,580,1366,0,0
-637,-342,-8.61096,-4.02783,0.265015,0.0759315,0.0182143,0.266753,0.0741929,0.0951636,0.158984,0.0421254,587,1366,-8.61093,4.02788
-630,-342,-6.78467,-3.7489,0.219341,0.0721022,0.0128039,0.220446,0.0709971,0.0860991,0.129933,0.047744,594,1366,-6.78469,3.74895
-623,-342,-5.08649,-3.78381,0,0,0,0,0,0,0,-1,601,1366,-5.08651,3.78385
-616,-342,-1.0625,0.0172119,0,0,0,0,0,0,0,-1,608,1366,-1.06251,-0.0172578
-609,-342,-5.72308,-0.100586,0,0,0,0,0,0,0,-1,615,1366,-5.72307,0.100632
-602,-342,-6.57312,1.20605,0,0,0,0,0,0,0,-1,622,1366,-6.57311,-1.20609
-595,-342,-6.19165,2.02136,0,0,0,0,0,0,0,-1,629,1366,-6.19166,-2.02138
-588,-342,-6.1311,2.28857,0.0347852,0.0195448,0.00071575,0.0348187,0.0195113,0.0468267,0.0201514,0.0436121,636,1366,-6.13111,-2.28858
-581,-342,-6.20197,2.45557,0.0174889,0.0125135,-0.000427136,0.0175253,0.0124771,-0.0850214,0.0104168,0.0336684,643,1366,-6.20194,-2.45554
-574,-342,-6.27435,2.73682,0.00625791,0.00678979,-0.000277432,0.00690816,0.00613954,-1.16752,0.00437181,0.0109482,650,1366,-6.27434,-2.73681
-567,-342,-6.24609,2.9801,0.00396354,0.00336033,-0.000189443,0.0040181,0.00330576,-0.280418,0.00247569,0.0166791,657,1366,-6.24612,-2.98006
-560,-342,-6.28229,3.1615,0.00282137,0.00172894,-0.000511373,0.00302339,0.00152692,-0.376232,0.00174559,0.0253306,664,1366,-6.28229,-3.16147
-553,-342,-6.28204,3.40479,0.00187978,0.000419361,-0.000816825,0.0022452,5.39377e-05,-0.420665,0.00147915,0.0257354,671,1366,-6.28207,-3.40483
-546,-342,-6.24847,3.63025,0.00108697,-0.000904207,-0.00117189,0.00162908,-0.00144632,-0.433279,0.00177662,0.0251361,678,1366,-6.24847,-3.63029
-539,-342,-6.28265,3.86584,0.000309856,-0.00201801,-0.00148907,0.00103591,-0.00274406,-0.453672,0.00225542,0.0212784,685,1366,-6.28266,-3.86587
-532,-342,-6.2868,4.10669,-0.000506971,-0.00307618,-0.00197895,0.000567757,-0.00415091,-0.497515,0.00297464,0.0156731,692,1366,-6.28677,-4.1067
-525,-342,-6.23828,4.33435,0.000974791,-0.00668767,-0.00288182,0.00193764,-0.00765052,-0.322451,0.00585411,0.0105737,699,1366,-6.23829,-4.3343
-518,-342,-6.2171,4.57214,0.00442335,-0.0131254,-0.00393752,0.00526634,-0.0139684,-0.210908,0.0114777,0.013975,706,1366,-6.21708,-4.57209
-511,-342,-6.22913,4.69592,0.00742152,-0.0227277,-0.00686039,0.00890918,-0.0242154,-0.213542,0.0197933,0.0380435,713,1366,-6.22915,-4.69597
-504,-342,-6.8446,5.22644,0,0,0,0,0,0,0,-1,720,1366,-6.84458,-5.22645
-497,-342,-6.69183,5.16785,0,0,0,0,0,0,0,-1,727,1366,-6.69185,-5.16783
-490,-342,-5.53406,4.00598,0,0,0,0,0,0,0,-1,734,1366,-5.53408,-4.00597
-483,-342,-4.07678,3.40454,0,0,0,0,0,0,0,-1,741,1366,-4.0768,-3.40457
-476,-342,-10.8237,5.47131,0,0,0,0,0,0,0,-1,748,1366,-10.8236,-5.47137
-469,-342,-10.3543,5.60779,0,0,0,0,0,0,0,-1,755,1366,-10.3543,-5.60774
-462,-342,-9.56256,5.11755,0.0335203,-0.144196,-0.0447562,0.0441552,-0.154831,-0.233294,0.120663,0.0464874,762,1366,-9.56255,-5.11756
-455,-342,-9.48853,5.49353,0.0215111,-0.167344,-0.0603958,0.0391738,-0.185007,-0.284514,0.138258,0.0493233,769,1366,-9.48854,-5.49352
-448,-342,-9.64563,6.00867,0,0,0,0,0,0,0,-1,776,1366,-9.64564,-6.00867
-441,-342,0,0,0,0,0,0,0,0,0,-1,783,1366,0,0
-434,-342,0,0,0,0,0,0,0,0,0,-1,790,1366,0,0
-427,-342,0,0,0,0,0,0,0,0,0,-1,797,1366,0,0
-420,-342,0,0,0,0,0,0,0,0,0,-1,804,1366,0,0
-413,-342,0,0,0,0,0,0,0,0,0,-1,811,1366,0,0
-406,-342,0,0,0,0,0,0,0,0,0,-1,818,1366,0,0
-399,-342,0,0,0,0,0,0,0,0,0,-1,825,1366,0,0
-392,-342,0,0,0,0,0,0,0,0,0,-1,832,1366,0,0
-385,-342,0,0,0,0,0,0,0,0,0,-1,839,1366,0,0
-378,-342,0,0,0,0,0,0,0,0,0,-1,846,1366,0,0
-371,-342,0,0,0,0,0,0,0,0,0,-1,853,1366,0,0
-364,-342,0,0,0,0,0,0,0,0,0,-1,860,1366,0,0
-357,-342,0,0,0,0,0,0,0,0,0,-1,867,1366,0,0
-350,-342,0,0,0,0,0,0,0,0,0,-1,874,1366,0,0
-343,-342,0,0,0,0,0,0,0,0,0,-1,881,1366,0,0
-336,-342,0,0,0,0,0,0,0,0,0,-1,888,1366,0,0
-329,-342,0,0,0,0,0,0,0,0,0,-1,895,1366,0,0
-322,-342,0,0,0,0,0,0,0,0,0,-1,902,1366,0,0
-315,-342,0,0,0,0,0,0,0,0,0,-1,909,1366,0,0
-308,-342,0,0,0,0,0,0,0,0,0,-1,916,1366,0,0
-301,-342,0,0,0,0,0,0,0,0,0,-1,923,1366,0,0
-294,-342,0,0,0,0,0,0,0,0,0,-1,930,1366,0,0
-287,-342,0,0,0,0,0,0,0,0,0,-1,937,1366,0,0
-280,-342,0,0,0,0,0,0,0,0,0,-1,944,1366,0,0
-273,-342,0,0,0,0,0,0,0,0,0,-1,951,1366,0,0
-266,-342,0,0,0,0,0,0,0,0,0,-1,958,1366,0,0
-259,-342,0,0,0,0,0,0,0,0,0,-1,965,1366,0,0
-252,-342,0,0,0,0,0,0,0,0,0,-1,972,1366,0,0
-245,-342,0,0,0,0,0,0,0,0,0,-1,979,1366,0,0
-238,-342,0,0,0,0,0,0,0,0,0,-1,986,1366,0,0
-231,-342,0,0,0,0,0,0,0,0,0,-1,993,1366,0,0
-224,-342,0,0,0,0,0,0,0,0,0,-1,1000,1366,0,0
-217,-342,0,0,0,0,0,0,0,0,0,-1,1007,1366,0,0
-210,-342,0,0,0,0,0,0,0,0,0,-1,1014,1366,0,0
-203,-342,0,0,0,0,0,0,0,0,0,-1,1021,1366,0,0
-196,-342,0,0,0,0,0,0,0,0,0,-1,1028,1366,0,0
-189,-342,0,0,0,0,0,0,0,0,0,-1,1035,1366,0,0
-182,-342,0,0,0,0,0,0,0,0,0,-1,1042,1366,0,0
-175,-342,0,0,0,0,0,0,0,0,0,-1,1049,1366,0,0
-168,-342,0,0,0,0,0,0,0,0,0,-1,1056,1366,0,0
-161,-342,0,0,0,0,0,0,0,0,0,-1,1063,1366,0,0
-154,-342,0,0,0,0,0,0,0,0,0,-1,1070,1366,0,0
-147,-342,0,0,0,0,0,0,0,0,0,-1,1077,1366,0,0
-140,-342,0,0,0,0,0,0,0,0,0,-1,1084,1366,0,0
-133,-342,0,0,0,0,0,0,0,0,0,-1,1091,1366,0,0
-126,-342,0,0,0,0,0,0,0,0,0,-1,1098,1366,0,0
-119,-342,0,0,0,0,0,0,0,0,0,-1,1105,1366,0,0
-112,-342,0,0,0,0,0,0,0,0,0,-1,1112,1366,0,0
-105,-342,0,0,0,0,0,0,0,0,0,-1,1119,1366,0,0
-98,-342,0,0,0,0,0,0,0,0,0,-1,1126,1366,0,0
-91,-342,0,0,0,0,0,0,0,0,0,-1,1133,1366,0,0
-84,-342,0,0,0,0,0,0,0,0,0,-1,1140,1366,0,0
-77,-342,0,0,0,0,0,0,0,0,0,-1,1147,1366,0,0
-70,-342,0,0,0,0,0,0,0,0,0,-1,1154,1366,0,0
-63,-342,0,0,0,0,0,0,0,0,0,-1,1161,1366,0,0
-56,-342,0,0,0,0,0,0,0,0,0,-1,1168,1366,0,0
-49,-342,0,0,0,0,0,0,0,0,0,-1,1175,1366,0,0
-42,-342,0,0,0,0,0,0,0,0,0,-1,1182,1366,0,0
-35,-342,0,0,0,0,0,0,0,0,0,-1,1189,1366,0,0
-28,-342,0,0,0,0,0,0,0,0,0,-1,1196,1366,0,0
-21,-342,0,0,0,0,0,0,0,0,0,-1,1203,1366,0,0
-14,-342,0,0,0,0,0,0,0,0,0,-1,1210,1366,0,0
-7,-342,0,0,0,0,0,0,0,0,0,-1,1217,1366,0,0
0,-342,0,0,0,0,0,0,0,0,0,-1,1224,1366,0,0
7,-342,0,0,0,0,0,0,0,0,0,-1,1231,1366,0,0
14,-342,0,0,0,0,0,0,0,0,0,-1,1238,1366,0,0
21,-342,0,0,0,0,0,0,0,0,0,-1,1245,1366,0,0
28,-342,0,0,0,0,0,0,0,0,0,-1,1252,1366,0,0
35,-342,0,0,0,0,0,0,0,0,0,-1,1259,1366,0,0
42,-342,0,0,0,0,0,0,0,0,0,-1,1266,1366,0,0
49,-342,0,0,0,0,0,0,0,0,0,-1,1273,1366,0,0
56,-342,0,0,0,0,0,0,0,0,0,-1,1280,1366,0,0
63,-342,0,0,0,0,0,0,0,0,0,-1,1287,1366,0,0
70,-342,0,0,0,0,0,0,0,0,0,-1,1294,1366,0,0
77,-342,0,0,0,0,0,0,0,0,0,-1,1301,1366,0,0
84,-342,0,0,0,0,0,0,0,0,0,-1,1308,1366,0,0
91,-342,0,0,0,0,0,0,0,0,0,-1,1315,1366,0,0
98,-342,0,0,0,0,0,0,0,0,0,-1,1322,1366,0,0
105,-342,0,0,0,0,0,0,0,0,0,-1,1329,1366,0,0
112,-342,0,0,0,0,0,0,0,0,0,-1,1336,1366,0,0
119,-342,0,0,0,0,0,0,0,0,0,-1,1343,1366,0,0
126,-342,0,0,0,0,0,0,0,0,0,-1,1350,1366,0,0
133,-342,0,0,0,0,0,0,0,0,0,-1,1357,1366,0,0
140,-342,0,0,0,0,0,0,0,0,0,-1,1364,1366,0,0
147,-342,0,0,0,0,0,0,0,0,0,-1,1371,1366,0,0
154,-342,0,0,0,0,0,0,0,0,0,-1,1378,1366,0,0
161,-342,0,0,0,0,0,0,0,0,0,-1,1385,1366,0,0
168,-342,0,0,0,0,0,0,0,0,0,-1,1392,1366,0,0
175,-342,0,0,0,0,0,0,0,0,0,-1,1399,1366,0,0
182,-342,0,0,0,0,0,0,0,0,0,-1,1406,1366,0,0
189,-342,0,0,0,0,0,0,0,0,0,-1,1413,1366,0,0
196,-342,0,0,0,0,0,0,0,0,0,-1,1420,1366,0,0
203,-342,0,0,0,0,0,0,0,0,0,-1,1427,1366,0,0
210,-342,0,0,0,0,0,0,0,0,0,-1,1434,1366,0,0
217,-342,0,0,0,0,0,0,0,0,0,-1,1441,1366,0,0
224,-342,0,0,0,0,0,0,0,0,0,-1,1448,1366,0,0
231,-342,0,0,0,0,0,0,0,0,0,-1,1455,1366,0,0
238,-342,0,0,0,0,0,0,0,0,0,-1,1462,1366,0,0
245,-342,0,0,0,0,0,0,0,0,0,-1,1469,1366,0,0
252,-342,0,0,0,0,0,0,0,0,0,-1,1476,1366,0,0
259,-342,0,0,0,0,0,0,0,0,0,-1,1483,1366,0,0
266,-342,0,0,0,0,0,0,0,0,0,-1,1490,1366,0,0
273,-342,0,0,0,0,0,0,0,0,0,-1,1497,1366,0,0
280,-342,0,0,0,0,0,0,0,0,0,-1,1504,1366,0,0
287,-342,0,0,0,0,0,0,0,0,0,-1,1511,1366,0,0
294,-342,0,0,0,0,0,0,0,0,0,-1,1518,1366,0,0
301,-342,0,0,0,0,0,0,0,0,0,-1,1525,1366,0,0
308,-342,0,0,0,0,0,0,0,0,0,-1,1532,1366,0,0
315,-342,0,0,0,0,0,0,0,0,0,-1,1539,1366,0,0
322,-342,0,0,0,0,0,0,0,0,0,-1,1546,1366,0,0
329,-342,0,0,0,0,0,0,0,0,0,-1,1553,1366,0,0
336,-342,0,0,0,0,0,0,0,0,0,-1,1560,1366,0,0
343,-342,0,0,0,0,0,0,0,0,0,-1,1567,1366,0,0
350,-342,0,0,0,0,0,0,0,0,0,-1,1574,1366,0,0
357,-342,0,0,0,0,0,0,0,0,0,-1,1581,1366,0,0
364,-342,0,0,0,0,0,0,0,0,0,-1,1588,1366,0,0
371,-342,0,0,0,0,0,0,0,0,0,-1,1595,1366,0,0
378,-342,0,0,0,0,0,0,0,0,0,-1,1602,1366,0,0
385,-342,0,0,0,0,0,0,0,0,0,-1,1609,1366,0,0
392,-342,0,0,0,0,0,0,0,0,0,-1,1616,1366,0,0
399,-342,0,0,0,0,0,0,0,0,0,-1,1623,1366,0,0
406,-342,0,0,0,0,0,0,0,0,0,-1,1630,1366,0,0
413,-342,0,0,0,0,0,0,0,0,0,-1,1637,1366,0,0
420,-342,0,0,0,0,0,0,0,0,0,-1,1644,1366,0,0
427,-342,0,0,0,0,0,0,0,0,0,-1,1651,1366,0,0
434,-342,0,0,0,0,0,0,0,0,0,-1,1658,1366,0,0
441,-342,0,0,0,0,0,0,0,0,0,-1,1665,1366,0,0
448,-342,0,0,0,0,0,0,0,0,0,-1,1672,1366,0,0
455,-342,0,0,0,0,0,0,0,0,0,-1,1679,1366,0,0
462,-342,0,0,0,0,0,0,0,0,0,-1,1686,1366,0,0
469,-342,0,0,0,0,0,0,0,0,0,-1,1693,1366,0,0
476,-342,0,0,0,0,0,0,0,0,0,-1,1700,1366,0,0
483,-342,0,0,0,0,0,0,0,0,0,-1,1707,1366,0,0
490,-342,0,0,0,0,0,0,0,0,0,-1,1714,1366,0,0
497,-342,0,0,0,0,0,0,0,0,0,-1,1721,1366,0,0
504,-342,0,0,0,0,0,0,0,0,0,-1,1728,1366,0,0
511,-342,0,0,0,0,0,0,0,0,0,-1,1735,1366,0,0
518,-342,0,0,0,0,0,0,0,0,0,-1,1742,1366,0,0
525,-342,0,0,0,0,0,0,0,0,0,-1,1749,1366,0,0
532,-342,0,0,0,0,0,0,0,0,0,-1,1756,1366,0,0
539,-342,0,0,0,0,0,0,0,0,0,-1,1763,1366,0,0
546,-342,0,0,0,0,0,0,0,0,0,-1,1770,1366,0,0
553,-342,0,0,0,0,0,0,0,0,0,-1,1777,1366,0,0
560,-342,0,0,0,0,0,0,0,0,0,-1,1784,1366,0,0
567,-342,19.0521,6.35071,0,0,0,0,0,0,0,-1,1791,1366,19.0521,-6.35065
574,-342,16.8334,6.3042,0,0,0,0,0,0,0,-1,1798,1366,16.8333,-6.30423
581,-342,17.3655,6.37537,0,0,0,0,0,0,0,-1,1805,1366,17.3654,-6.37543
588,-342,18.308,5.646,0,0,0,0,0,0,0,-1,1812,1366,18.308,-5.64597
595,-342,18.9955,5.03552,0,0,0,0,0,0,0,-1,1819,1366,18.9955,-5.03548
602,-342,14.4944,0.827515,0,0,0,0,0,0,0,-1,1826,1366,14.4944,-0.8275
609,-342,12.4988,6.34875,0,0,0,0,0,0,0,-1,1833,1366,12.4988,-6.34872
616,-342,13.7173,6.01404,0,0,0,0,0,0,0,-1,1840,1366,13.7172,-6.0141
623,-342,14.3911,5.50244,0,0,0,0,0,0,0,-1,1847,1366,14.3911,-5.50245
630,-342,14.3629,5.85767,0,0,0,0,0,0,0,-1,1854,1366,14.3629,-5.8577
637,-342,14.6653,6.44287,0,0,0,0,0,0,0,-1,1861,1366,14.6653,-6.44281
644,-342,14.6724,6.58447,0,0,0,0,0,0,0,-1,1868,1366,14.6724,-6.58443
651,-342,14.719,6.43347,-0.007855,0.00257182,0.00825973,0.00712584,-0.012409,1.06692,0.0114151,0.0203981,1875,1366,14.719,-6.43351
658,-342,14.6702,6.20947,-0.00695646,-0.000174278,0.00684645,0.00407488,-0.0112056,1.01534,0.00913679,0.0186421,1882,1366,14.6702,-6.2095
665,-342,14.7023,6.00366,-0.00499243,-0.00114923,0.00526029,0.00252946,-0.00867112,0.960519,0.00678297,0.0168466,1889,1366,14.7022,-6.00366
672,-342,14.7191,5.80542,-0.0030434,-0.00119402,0.00341728,0.00142146,-0.00565889,0.91753,0.00432499,0.0126864,1896,1366,14.7192,-5.80545
679,-342,14.7021,5.6344,-0.00162229,-0.000811326,0.00148615,0.000323663,-0.00275728,0.918577,0.00195502,0.0126054,1903,1366,14.7021,-5.63445
686,-342,14.7374,5.45862,-0.000143452,0.000405827,-4.96105e-05,0.000410271,-0.000147897,-1.48144,0.000333916,0.0110681,1910,1366,14.7374,-5.45859
693,-342,14.7352,5.24243,0.00138421,0.00182195,-0.0014511,0.0030706,0.000135561,-0.86025,0.00200341,0.0115737,1917,1366,14.7352,-5.24246
700,-342,14.7207,5.03296,0.00293326,0.00335948,-0.00290789,0.00606206,0.000230681,-0.821976,0.00396672,0.0133932,1924,1366,14.7208,-5.03294
707,-342,14.7224,4.8147,0.00452983,0.00507266,-0.00443053,0.00924008,0.000362413,-0.81599,0.00604287,0.013126,1931,1366,14.7224,-4.81472
714,-342,14.7125,4.63806,0.00634244,0.00730123,-0.00631727,0.0131573,0.000486398,-0.823269,0.00861396,0.0280615,1938,1366,14.7126,-4.63807
721,-342,14.6378,4.37793,0.00884106,0.0101568,-0.00872825,0.0182519,0.000745915,-0.823013,0.0119271,0.0403887,1945,1366,14.6378,-4.37791
728,-342,14.8053,4.00867,0,0,0,0,0,0,0,-1,1952,1366,14.8053,-4.00866
735,-342,14.2197,2.97791,0,0,0,0,0,0,0,-1,1959,1366,14.2197,-2.97792
742,-342,15.0747,1.7771,0,0,0,0,0,0,0,-1,1966,1366,15.0747,-1.77711
749,-342,14.5145,3.42102,0,0,0,0,0,0,0,-1,1973,1366,14.5146,-3.42102
756,-342,0,0,0,0,0,0,0,0,0,-1,1980,1366,0,0
763,-342,0,0,0,0,0,0,0,0,0,-1,1987,1366,0,0
770,-342,0,0,0,0,0,0,0,0,0,-1,1994,1366,0,0
777,-342,0,0,0,0,0,0,0,0,0,-1,2001,1366,0,0
784,-342,0,0,0,0,0,0,0,0,0,-1,2008,1366,0,0
791,-342,0,0,0,0,0,0,0,0,0,-1,2015,1366,0,0
798,-342,0,0,0,0,0,0,0,0,0,-1,2022,1366,0,0
805,-342,0,0,0,0,0,0,0,0,0,-1,2029,1366,0,0
812,-342,0,0,0,0,0,0,0,0,0,-1,2036,1366,0,0
-700,-349,0,0,0,0,0,0,0,0,0,-1,524,1373,0,0
-693,-349,0,0,0,0,0,0,0,0,0,-1,531,1373,0,0
-686,-349,0,0,0,0,0,0,0,0,0,-1,538,1373,0,0
-679,-349,0,0,0,0,0,0,0,0,0,-1,545,1373,0,0
-672,-349,0,0,0,0,0,0,0,0,0,-1,552,1373,0,0
-665,-349,0,0,0,0,0,0,0,0,0,-1,559,1373,0,0
-658,-349,0,0,0,0,0,0,0,0,0,-1,566,1373,0,0
-651,-349,0,0,0,0,0,0,0,0,0,-1,573,1373,0,0
-644,-349,0,0,0,0,0,0,0,0,0,-1,580,1373,0,0
-637,-349,0,0,0,0,0,0,0,0,0,-1,587,1373,0,0
-630,-349,-6.71686,-4.06128,0,0,0,0,0,0,0,-1,594,1373,-6.71686,4.06133
-623,-349,-0.144897,0.199829,0,0,0,0,0,0,0,-1,601,1373,-0.144915,-0.199789
-616,-349,-5.2066,-0.188232,0,0,0,0,0,0,0,-1,608,1373,-5.20659,0.188211
-609,-349,-6.83978,0.513672,0,0,0,0,0,0,0,-1,615,1373,-6.83978,-0.513629
-602,-349,-5.33179,2.68335,0,0,0,0,0,0,0,-1,622,1373,-5.33182,-2.68335
-595,-349,-5.60657,2.72058,0,0,0,0,0,0,0,-1,629,1373,-5.60656,-2.72056
-588,-349,-5.75568,2.64404,0.0449147,0.0200964,0.00128946,0.0449815,0.0200296,0.0517704,0.0260218,0.0441984,636,1373,-5.75565,-2.644
-581,-349,-5.84296,2.62634,0.0255994,0.0131255,-0.000114593,0.0256005,0.0131245,-0.00918558,0.014782,0.0385346,643,1373,-5.84295,-2.62634
-574,-349,-6.0105,2.70313,0.0130164,0.00752564,-0.000110272,0.0130186,0.00752343,-0.0200724,0.00754665,0.0200669,650,1373,-6.01048,-2.70315
-567,-349,-6.03296,2.99109,0.00936345,0.00412938,-7.84021e-05,0.00936462,0.00412821,-0.0149747,0.00541927,0.0168982,657,1373,-6.03298,-2.99112
-560,-349,-6.0365,3.23889,0.00688625,0.00229064,-0.000381442,0.00691769,0.0022592,-0.0822515,0.00407322,0.02051,664,1373,-6.03649,-3.23886
-553,-349,-6.00244,3.41602,0.0048106,0.000863192,-0.00063781,0.0049111,0.000762695,-0.156281,0.00305177,0.0247344,671,1373,-6.00245,-3.41601
-546,-349,-5.99261,3.62451,0.00312015,-0.000431248,-0.000939809,0.00335352,-0.000664615,-0.243391,0.002487,0.0273923,678,1373,-5.99263,-3.62454
-539,-349,-6.05261,3.88,0.00171123,-0.00149241,-0.0012422,0.00213645,-0.00191763,-0.329809,0.00234176,0.021353,685,1373,-6.05261,-3.88004
-532,-349,-6.03833,4.11194,0.000481117,-0.0024671,-0.00171529,0.00126869,-0.00325467,-0.430437,0.00269416,0.0149756,692,1373,-6.03833,-4.1119
-525,-349,-6.02203,4.34204,0.00161421,-0.00544911,-0.00257486,0.00245319,-0.00628809,-0.314988,0.00520616,0.01163,699,1373,-6.02201,-4.34201
-518,-349,-6.02557,4.58948,0.00478645,-0.010927,-0.0036667,0.00559996,-0.0117405,-0.218325,0.0102186,0.0120651,706,1373,-6.0256,-4.58943
-511,-349,-5.90302,4.83386,0.0075407,-0.0194285,-0.00662647,0.0090809,-0.0209687,-0.228376,0.0177959,0.0317413,713,1373,-5.90303,-4.8339
-504,-349,-5.78589,5.00671,0,0,0,0,0,0,0,-1,720,1373,-5.78591,-5.00671
-497,-349,-7.9339,5.58789,0,0,0,0,0,0,0,-1,727,1373,-7.93388,-5.58785
-490,-349,-6.74347,4.78418,0,0,0,0,0,0,0,-1,734,1373,-6.74346,-4.78422
-483,-349,-5.66974,3.7395,0,0,0,0,0,0,0,-1,741,1373,-5.66975,-3.73949
-476,-349,-10.0748,5.01782,0,0,0,0,0,0,0,-1,748,1373,-10.0748,-5.01778
-469,-349,-9.67529,5.65527,0,0,0,0,0,0,0,-1,755,1373,-9.67526,-5.65532
-462,-349,-8.99353,6.39392,0,0,0,0,0,0,0,-1,762,1373,-8.99356,-6.39394
-455,-349,-8.48639,6.92773,0,0,0,0,0,0,0,-1,769,1373,-8.48637,-6.9277
-448,-349,-12.627,2.69104,0,0,0,0,0,0,0,-1,776,1373,-12.627,-2.69107
-441,-349,0,0,0,0,0,0,0,0,0,-1,783,1373,0,0
-434,-349,0,0,0,0,0,0,0,0,0,-1,790,1373,0,0
-427,-349,0,0,0,0,0,0,0,0,0,-1,797,1373,0,0
-420,-349,0,0,0,0,0,0,0,0,0,-1,804,1373,0,0
-413,-349,0,0,0,0,0,0,0,0,0,-1,811,1373,0,0
-406,-349,0,0,0,0,0,0,0,0,0,-1,818,1373,0,0
-399,-349,0,0,0,0,0,0,0,0,0,-1,825,1373,0,0
-392,-349,0,0,0,0,0,0,0,0,0,-1,832,1373,0,0
-385,-349,0,0,0,0,0,0,0,0,0,-1,839,1373,0,0
-378,-349,0,0,0,0,0,0,0,0,0,-1,846,1373,0,0
-371,-349,0,0,0,0,0,0,0,0,0,-1,853,1373,0,0
-364,-349,0,0,0,0,0,0,0,0,0,-1,860,1373,0,0
-357,-349,0,0,0,0,0,0,0,0,0,-1,867,1373,0,0
-350,-349,0,0,0,0,0,0,0,0,0,-1,874,1373,0,0
-343,-349,0,0,0,0,0,0,0,0,0,-1,881,1373,0,0
-336,-349,0,0,0,0,0,0,0,0,0,-1,888,1373,0,0
-329,-349,0,0,0,0,0,0,0,0,0,-1,895,1373,0,0
-322,-349,0,0,0,0,0,0,0,0,0,-1,902,1373,0,0
-315,-349,0,0,0,0,0,0,0,0,0,-1,909,1373,0,0
-308,-349,0,0,0,0,0,0,0,0,0,-1,916,1373,0,0
-301,-349,0,0,0,0,0,0,0,0,0,-1,923,1373,0,0
-294,-349,0,0,0,0,0,0,0,0,0,-1,930,1373,0,0
-287,-349,0,0,0,0,0,0,0,0,0,-1,937,1373,0,0
-280,-349,0,0,0,0,0,0,0,0,0,-1,944,1373,0,0
-273,-349,0,0,0,0,0,0,0,0,0,-1,951,1373,0,0
-266,-349,0,0,0,0,0,0,0,0,0,-1,958,1373,0,0
-259,-349,0,0,0,0,0,0,0,0,0,-1,965,1373,0,0
-252,-349,0,0,0,0,0,0,0,0,0,-1,972,1373,0,0
-245,-349,0,0,0,0,0,0,0,0,0,-1,979,1373,0,0
-238,-349,0,0,0,0,0,0,0,0,0,-1,986,1373,0,0
-231,-349,0,0,0,0,0,0,0,0,0,-1,993,1373,0,0
-224,-349,0,0,0,0,0,0,0,0,0,-1,1000,1373,0,0
-217,-349,0,0,0,0,0,0,0,0,0,-1,1007,1373,0,0
-210,-349,0,0,0,0,0,0,0,0,0,-1,1014,1373,0,0
-203,-349,0,0,0,0,0,0,0,0,0,-1,1021,1373,0,0
-196,-349,0,0,0,0,0,0,0,0,0,-1,1028,1373,0,0
-189,-349,0,0,0,0,0,0,0,0,0,-1,1035,1373,0,0
-182,-349,0,0,0,0,0,0,0,0,0,-1,1042,1373,0,0
-175,-349,0,0,0,0,0,0,0,0,0,-1,1049,1373,0,0
-168,-349,0,0,0,0,0,0,0,0,0,-1,1056,1373,0,0
-161,-349,0,0,0,0,0,0,0,0,0,-1,1063,1373,0,0
-154,-349,0,0,0,0,0,0,0,0,0,-1,1070,1373,0,0
-147,-349,0,0,0,0,0,0,0,0,0,-1,1077,1373,0,0
-140,-349,0,0,0,0,0,0,0,0,0,-1,1084,1373,0,0
-133,-349,0,0,0,0,0,0,0,0,0,-1,1091,1373,0,0
-126,-349,0,0,0,0,0,0,0,0,0,-1,1098,1373,0,0
-119,-349,0,0,0,0,0,0,0,0,0,-1,1105,1373,0,0
-112,-349,0,0,0,0,0,0,0,0,0,-1,1112,1373,0,0
-105,-349,0,0,0,0,0,0,0,0,0,-1,1119,1373,0,0
-98,-349,0,0,0,0,0,0,0,0,0,-1,1126,1373,0,0
-91,-349,0,0,0,0,0,0,0,0,0,-1,1133,1373,0,0
-84,-349,0,0,0,0,0,0,0,0,0,-1,1140,1373,0,0
-77,-349,0,0,0,0,0,0,0,0,0,-1,1147,1373,0,0
-70,-349,0,0,0,0,0,0,0,0,0,-1,1154,1373,0,0
-63,-349,0,0,0,0,0,0,0,0,0,-1,1161,1373,0,0
-56,-349,0,0,0,0,0,0,0,0,0,-1,1168,1373,0,0
-49,-349,0,0,0,0,0,0,0,0,0,-1,1175,1373,0,0
-42,-349,0,0,0,0,0,0,0,0,0,-1,1182,1373,0,0
-35,-349,0,0,0,0,0,0,0,0,0,-1,1189,1373,0,0
-28,-349,0,0,0,0,0,0,0,0,0,-1,1196,1373,0,0
-21,-349,0,0,0,0,0,0,0,0,0,-1,1203,1373,0,0
-14,-349,0,0,0,0,0,0,0,0,0,-1,1210,1373,0,0
-7,-349,0,0,0,0,0,0,0,0,0,-1,1217,1373,0,0
0,-349,0,0,0,0,0,0,0,0,0,-1,1224,1373,0,0
7,-349,0,0,0,0,0,0,0,0,0,-1,1231,1373,0,0
14,-349,0,0,0,0,0,0,0,0,0,-1,1238,1373,0,0
21,-349,0,0,0,0,0,0,0,0,0,-1,1245,1373,0,0
28,-349,0,0,0,0,0,0,0,0,0,-1,1252,1373,0,0
35,-349,0,0,0,0,0,0,0,0,0,-1,1259,1373,0,0
42,-349,0,0,0,0,0,0,0,0,0,-1,1266,1373,0,0
49,-349,0,0,0,0,0,0,0,0,0,-1,1273,1373,0,0
56,-349,0,0,0,0,0,0,0,0,0,-1,1280,1373,0,0
63,-349,0,0,0,0,0,0,0,0,0,-1,1287,1373,0,0
70,-349,0,0,0,0,0,0,0,0,0,-1,1294,1373,0,0
77,-349,0,0,0,0,0,0,0,0,0,-1,1301,1373,0,0
84,-349,0,0,0,0,0,0,0,0,0,-1,1308,1373,0,0
91,-349,0,0,0,0,0,0,0,0,0,-1,1315,1373,0,0
98,-349,0,0,0,0,0,0,0,0,0,-1,1322,1373,0,0
105,-349,0,0,0,0,0,0,0,0,0,-1,1329,1373,0,0
112,-349,0,0,0,0,0,0,0,0,0,-1,1336,1373,0,0
119,-349,0,0,0,0,0,0,0,0,0,-1,1343,1373,0,0
126,-349,0,0,0,0,0,0,0,0,0,-1,1350,1373,0,0
133,-349,0,0,0,0,0,0,0,0,0,-1,1357,1373,0,0
140,-349,0,0,0,0,0,0,0,0,0,-1,1364,1373,0,0
147,-349,0,0,0,0,0,0,0,0,0,-1,1371,1373,0,0
154,-349,0,0,0,0,0,0,0,0,0,-1,1378,1373,0,0
161,-349,0,0,0,0,0,0,0,0,0,-1,1385,1373,0,0
168,-349,0,0,0,0,0,0,0,0,0,-1,1392,1373,0,0
175,-349,0,0,0,0,0,0,0,0,0,-1,1399,1373,0,0
182,-349,0,0,0,0,0,0,0,0,0,-1,1406,1373,0,0
189,-349,0,0,0,0,0,0,0,0,0,-1,1413,1373,0,0
196,-349,0,0,0,0,0,0,0,0,0,-1,1420,1373,0,0
203,-349,0,0,0,0,0,0,0,0,0,-1,1427,1373,0,0
210,-349,0,0,0,0,0,0,0,0,0,-1,1434,1373,0,0
217,-349,0,0,0,0,0,0,0,0,0,-1,1441,1373,0,0
224,-349,0,0,0,0,0,0,0,0,0,-1,1448,1373,0,0
231,-349,0,0,0,0,0,0,0,0,0,-1,1455,1373,0,0
238,-349,0,0,0,0,0,0,0,0,0,-1,1462,1373,0,0
245,-349,0,0,0,0,0,0,0,0,0,-1,1469,1373,0,0
252,-349,0,0,0,0,0,0,0,0,0,-1,1476,1373,0,0
259,-349,0,0,0,0,0,0,0,0,0,-1,1483,1373,0,0
266,-349,0,0,0,0,0,0,0,0,0,-1,1490,1373,0,0
273,-349,0,0,0,0,0,0,0,0,0,-1,1497,1373,0,0
280,-349,0,0,0,0,0,0,0,0,0,-1,1504,1373,0,0
287,-349,0,0,0,0,0,0,0,0,0,-1,1511,1373,0,0
294,-349,0,0,0,0,0,0,0,0,0,-1,1518,1373,0,0
301,-349,0,0,0,0,0,0,0,0,0,-1,1525,1373,0,0
308,-349,0,0,0,0,0,0,0,0,0,-1,1532,1373,0,0
315,-349,0,0,0,0,0,0,0,0,0,-1,1539,1373,0,0
322,-349,0,0,0,0,0,0,0,0,0,-1,1546,1373,0,0
329,-349,0,0,0,0,0,0,0,0,0,-1,1553,1373,0,0
336,-349,0,0,0,0,0,0,0,0,0,-1,1560,1373,0,0
343,-349,0,0,0,0,0,0,0,0,0,-1,1567,1373,0,0
350,-349,0,0,0,0,0,0,0,0,0,-1,1574,1373,0,0
357,-349,0,0,0,0,0,0,0,0,0,-1,1581,1373,0,0
364,-349,0,0,0,0,0,0,0,0,0,-1,1588,1373,0,0
371,-349,0,0,0,0,0,0,0,0,0,-1,1595,1373,0,0
378,-349,0,0,0,0,0,0,0,0,0,-1,1602,1373,0,0
385,-349,0,0,0,0,0,0,0,0,0,-1,1609,1373,0,0
392,-349,0,0,0,0,0,0,0,0,0,-1,1616,1373,0,0
399,-349,0,0,0,0,0,0,0,0,0,-1,1623,1373,0,0
406,-349,0,0,0,0,0,0,0,0,0,-1,1630,1373,0,0
413,-349,0,0,0,0,0,0,0,0,0,-1,1637,1373,0,0
420,-349,0,0,0,0,0,0,0,0,0,-1,1644,1373,0,0
427,-349,0,0,0,0,0,0,0,0,0,-1,1651,1373,0,0
434,-349,0,0,0,0,0,0,0,0,0,-1,1658,1373,0,0
441,-349,0,0,0,0,0,0,0,0,0,-1,1665,1373,0,0
448,-349,0,0,0,0,0,0,0,0,0,-1,1672,1373,0,0
455,-349,0,0,0,0,0,0,0,0,0,-1,1679,1373,0,0
462,-349,0,0,0,0,0,0,0,0,0,-1,1686,1373,0,0
469,-349,0,0,0,0,0,0,0,0,0,-1,1693,1373,0,0
476,-349,0,0,0,0,0,0,0,0,0,-1,1700,1373,0,0
483,-349,0,0,0,0,0,0,0,0,0,-1,1707,1373,0,0
490,-349,0,0,0,0,0,0,0,0,0,-1,1714,1373,0,0
497,-349,0,0,0,0,0,0,0,0,0,-1,1721,1373,0,0
504,-349,0,0,0,0,0,0,0,0,0,-1,1728,1373,0,0
511,-349,0,0,0,0,0,0,0,0,0,-1,1735,1373,0,0
518,-349,0,0,0,0,0,0,0,0,0,-1,1742,1373,0,0
525,-349,0,0,0,0,0,0,0,0,0,-1,1749,1373,0,0
532,-349,0,0,0,0,0,0,0,0,0,-1,1756,1373,0,0
539,-349,0,0,0,0,0,0,0,0,0,-1,1763,1373,0,0
546,-349,0,0,0,0,0,0,0,0,0,-1,1770,1373,0,0
553,-349,0,0,0,0,0,0,0,0,0,-1,1777,1373,0,0
560,-349,20.231,3.6106,0,0,0,0,0,0,0,-1,1784,1373,20.231,-3.61055
567,-349,20.3247,3.48193,0,0,0,0,0,0,0,-1,1791,1373,20.3247,-3.48192
574,-349,18.3553,5.01379,0,0,0,0,0,0,0,-1,1798,1373,18.3553,-5.01381
581,-349,16.1492,6.32056,0,0,0,0,0,0,0,-1,1805,1373,16.1492,-6.32053
588,-349,17.5219,4.98438,0,0,0,0,0,0,0,-1,1812,1373,17.5219,-4.98443
595,-349,18.5311,4.06519,0,0,0,0,0,0,0,-1,1819,1373,18.5312,-4.06521
602,-349,13.3639,7.17029,0,0,0,0,0,0,0,-1,1826,1373,13.3639,-7.17028
609,-349,14.1642,6.53772,0,0,0,0,0,0,0,-1,1833,1373,14.1642,-6.5377
616,-349,14.0317,5.94263,0,0,0,0,0,0,0,-1,1840,1373,14.0317,-5.94269
623,-349,14.1543,5.81433,0,0,0,0,0,0,0,-1,1847,1373,14.1543,-5.81437
630,-349,14.9891,6.33411,0,0,0,0,0,0,0,-1,1854,1373,14.9892,-6.33406
637,-349,14.6464,6.11047,0,0,0,0,0,0,0,-1,1861,1373,14.6463,-6.11044
644,-349,14.4202,6.65161,-0.00909986,0.00146859,0.00788694,0.00567788,-0.0133091,1.08055,0.0112534,0.0455363,1868,1373,14.4201,-6.65159
651,-349,14.5724,6.40076,-0.00645688,-0.000127949,0.00648464,0.00392315,-0.010508,1.0124,0.00861608,0.0226141,1875,1373,14.5724,-6.40079
658,-349,14.467,6.20203,-0.00547733,-0.00158154,0.00523431,0.00205557,-0.00911444,0.963529,0.00686485,0.0259761,1882,1373,14.467,-6.20206
665,-349,14.4795,6.01404,-0.00353302,-0.00156257,0.00383352,0.0014103,-0.0065059,0.911177,0.00487583,0.0207305,1889,1373,14.4795,-6.01405
672,-349,14.4972,5.80701,-0.00185007,-0.00116392,0.00242344,0.000940604,-0.00395459,0.855713,0.0029995,0.0137728,1896,1373,14.4972,-5.807
679,-349,14.49,5.62439,-0.000601158,-0.000421538,0.00100188,0.000494551,-0.00151725,0.830099,0.0012105,0.0126818,1903,1373,14.49,-5.62444
686,-349,14.5286,5.47461,0.000739017,0.000715324,-0.000242207,0.000969667,0.000484674,-0.760962,0.000559838,0.0121448,1910,1373,14.5286,-5.47459
693,-349,14.5231,5.2583,0.00213481,0.00190109,-0.00142087,0.00344362,0.000592278,-0.744368,0.002126,0.0143592,1917,1373,14.5231,-5.25832
700,-349,14.5251,5.04102,0.00360256,0.00325478,-0.00269489,0.00612916,0.000728181,-0.75318,0.00386631,0.0154173,1924,1373,14.5252,-5.04102
707,-349,14.5554,4.82556,0.00522524,0.00486571,-0.00409245,0.00914188,0.000949077,-0.763449,0.00580415,0.0210247,1931,1373,14.5554,-4.82557
714,-349,14.4907,4.66333,0.00718659,0.00710642,-0.0059011,0.0130477,0.00124527,-0.782002,0.00831455,0.0287209,1938,1373,14.4907,-4.66337
721,-349,14.4928,4.49597,0.0100445,0.0100527,-0.0083297,0.0183783,0.00171894,-0.785644,0.0117213,0.0410864,1945,1373,14.4928,-4.49594
728,-349,14.6989,4.27039,0,0,0,0,0,0,0,-1,1952,1373,14.6988,-4.27034
735,-349,15.3109,-0.321899,0,0,0,0,0,0,0,-1,1959,1373,15.3109,0.32184
742,-349,15.9106,1.26624,0,0,0,0,0,0,0,-1,1966,1373,15.9106,-1.26625
749,-349,15.3348,2.95923,0,0,0,0,0,0,0,-1,1973,1373,15.3348,-2.95925
756,-349,0,0,0,0,0,0,0,0,0,-1,1980,1373,0,0
763,-349,0,0,0,0,0,0,0,0,0,-1,1987,1373,0,0
770,-349,0,0,0,0,0,0,0,0,0,-1,1994,1373,0,0
777,-349,0,0,0,0,0,0,0,0,0,-1,2001,1373,0,0
784,-349,0,0,0,0,0,0,0,0,0,-1,2008,1373,0,0
791,-349,0,0,0,0,0,0,0,0,0,-1,2015,1373,0,0
798,-349,0,0,0,0,0,0,0,0,0,-1,2022,1373,0,0
805,-349,0,0,0,0,0,0,0,0,0,-1,2029,1373,0,0
812,-349,0,0,0,0,0,0,0,0,0,-1,2036,1373,0,0
-700,-356,0,0,0,0,0,0,0,0,0,-1,524,1380,0,0
-693,-356,0,0,0,0,0,0,0,0,0,-1,531,1380,0,0
-686,-356,0,0,0,0,0,0,0,0,0,-1,538,1380,0,0
-679,-356,0,0,0,0,0,0,0,0,0,-1,545,1380,0,0
-672,-356,0,0,0,0,0,0,0,0,0,-1,552,1380,0,0
-665,-356,0,0,0,0,0,0,0,0,0,-1,559,1380,0,0
-658,-356,0,0,0,0,0,0,0,0,0,-1,566,1380,0,0
-651,-356,0,0,0,0,0,0,0,0,0,-1,573,1380,0,0
-644,-356,0,0,0,0,0,0,0,0,0,-1,580,1380,0,0
-637,-356,0,0,0,0,0,0,0,0,0,-1,587,1380,0,0
-630,-356,-5.27063,-5.19885,0,0,0,0,0,0,0,-1,594,1380,-5.2706,5.19882
-623,-356,-0.263855,-0.675781,0,0,0,0,0,0,0,-1,601,1380,-0.263835,0.675841
-616,-356,-8.26532,-3.43945,0,0,0,0,0,0,0,-1,608,1380,-8.2653,3.43948
-609,-356,-4.88483,0.734497,0,0,0,0,0,0,0,-1,615,1380,-4.88485,-0.734532
-602,-356,-6.19312,1.37061,0,0,0,0,0,0,0,-1,622,1380,-6.19313,-1.37056
-595,-356,-5.86536,2.06104,0,0,0,0,0,0,0,-1,629,1380,-5.86536,-2.06108
-588,-356,-5.76459,2.42883,0.0557168,0.0209333,0.00221277,0.055857,0.0207931,0.0632755,0.032598,0.043843,636,1380,-5.76462,-2.42879
-581,-356,-5.71765,2.69141,0.0345331,0.0140164,0.000474281,0.034544,0.0140054,0.0231004,0.0200626,0.0373348,643,1380,-5.71765,-2.69137
-574,-356,-5.66748,2.81128,0.0207039,0.00850699,0.00019078,0.0207069,0.00850401,0.0156366,0.0120185,0.0266178,650,1380,-5.66745,-2.8113
-567,-356,-5.81586,2.95544,0.0155203,0.00504542,2.89309e-05,0.0155203,0.00504534,0.00276191,0.00914162,0.0166062,657,1380,-5.81583,-2.95549
-560,-356,-5.79321,3.229,0.0116035,0.00292665,-0.000295967,0.0116136,0.00291657,-0.0340572,0.00697646,0.01707,664,1380,-5.79322,-3.22898
-553,-356,-5.77332,3.41492,0.00830653,0.00132876,-0.000539186,0.00834794,0.00128734,-0.0766655,0.00518968,0.0192567,671,1380,-5.77334,-3.41486
-546,-356,-5.78711,3.60754,0.00560924,3.11399e-05,-0.000754501,0.0057095,-6.91127e-05,-0.132099,0.00382958,0.021612,678,1380,-5.7871,-3.60752
-539,-356,-5.81299,3.87183,0.00337889,-0.00099986,-0.000973675,0.00358563,-0.00120661,-0.20923,0.0028782,0.0142113,685,1380,-5.81299,-3.8718
-532,-356,-5.82495,4.099,0.0014843,-0.00192426,-0.00133807,0.00194682,-0.00238678,-0.332802,0.00250629,0.0131779,692,1380,-5.82493,-4.09895
-525,-356,-5.82495,4.32727,0.00182991,-0.00425576,-0.00196974,0.00241182,-0.00483766,-0.287251,0.00426288,0.0121147,699,1380,-5.82494,-4.32726
-518,-356,-5.81195,4.57288,0.00415676,-0.00854925,-0.00284081,0.00476298,-0.00915547,-0.210245,0.00816813,0.0118593,706,1380,-5.81194,-4.57293
-511,-356,-5.70264,4.8446,0.00598698,-0.0153544,-0.00547531,0.00730973,-0.0166772,-0.237043,0.0141965,0.0223393,713,1380,-5.70263,-4.84455
-504,-356,-5.59259,5.16467,0,0,0,0,0,0,0,-1,720,1380,-5.59261,-5.16467
-497,-356,-5.68604,4.96387,0,0,0,0,0,0,0,-1,727,1380,-5.68605,-4.96385
-490,-356,-7.95288,5.5625,0,0,0,0,0,0,0,-1,734,1380,-7.95285,-5.56246
-483,-356,-7.2627,4.07446,0,0,0,0,0,0,0,-1,741,1380,-7.2627,-4.07441
-476,-356,-5.1936,4.16016,0,0,0,0,0,0,0,-1,748,1380,-5.1936,-4.16012
-469,-356,-9.87476,6.46399,0,0,0,0,0,0,0,-1,755,1380,-9.87473,-6.46401
-462,-356,-8.45734,7.80469,0,0,0,0,0,0,0,-1,762,1380,-8.45736,-7.80465
-455,-356,-11.2014,2.23572,0,0,0,0,0,0,0,-1,769,1380,-11.2014,-2.23576
-448,-356,-11.7062,2.1864,0,0,0,0,0,0,0,-1,776,1380,-11.7062,-2.18639
-441,-356,-12.4677,2.37158,0,0,0,0,0,0,0,-1,783,1380,-12.4677,-2.37161
-434,-356,0,0,0,0,0,0,0,0,0,-1,790,1380,0,0
-427,-356,0,0,0,0,0,0,0,0,0,-1,797,1380,0,0
-420,-356,0,0,0,0,0,0,0,0,0,-1,804,1380,0,0
-413,-356,0,0,0,0,0,0,0,0,0,-1,811,1380,0,0
-406,-356,0,0,0,0,0,0,0,0,0,-1,818,1380,0,0
-399,-356,0,0,0,0,0,0,0,0,0,-1,825,1380,0,0
-392,-356,0,0,0,0,0,0,0,0,0,-1,832,1380,0,0
-385,-356,0,0,0,0,0,0,0,0,0,-1,839,1380,0,0
-378,-356,0,0,0,0,0,0,0,0,0,-1,846,1380,0,0
-371,-356,0,0,0,0,0,0,0,0,0,-1,853,1380,0,0
-364,-356,0,0,0,0,0,0,0,0,0,-1,860,1380,0,0
-357,-356,0,0,0,0,0,0,0,0,0,-1,867,1380,0,0
-350,-356,0,0,0,0,0,0,0,0,0,-1,874,1380,0,0
-343,-356,0,0,0,0,0,0,0,0,0,-1,881,1380,0,0
-336,-356,0,0,0,0,0,0,0,0,0,-1,888,1380,0,0
-329,-356,0,0,0,0,0,0,0,0,0,-1,895,1380,0,0
-322,-356,0,0,0,0,0,0,0,0,0,-1,902,1380,0,0
-315,-356,0,0,0,0,0,0,0,0,0,-1,909,1380,0,0
-308,-356,0,0,0,0,0,0,0,0,0,-1,916,1380,0,0
-301,-356,0,0,0,0,0,0,0,0,0,-1,923,1380,0,0
-294,-356,0,0,0,0,0,0,0,0,0,-1,930,1380,0,0
-287,-356,0,0,0,0,0,0,0,0,0,-1,937,1380,0,0
-280,-356,0,0,0,0,0,0,0,0,0,-1,944,1380,0,0
-273,-356,0,0,0,0,0,0,0,0,0,-1,951,1380,0,0
-266,-356,0,0,0,0,0,0,0,0,0,-1,958,1380,0,0
-259,-356,0,0,0,0,0,0,0,0,0,-1,965,1380,0,0
-252,-356,0,0,0,0,0,0,0,0,0,-1,972,1380,0,0
-245,-356,0,0,0,0,0,0,0,0,0,-1,979,1380,0,0
-238,-356,0,0,0,0,0,0,0,0,0,-1,986,1380,0,0
-231,-356,0,0,0,0,0,0,0,0,0,-1,993,1380,0,0
-224,-356,0,0,0,0,0,0,0,0,0,-1,1000,1380,0,0
-217,-356,0,0,0,0,0,0,0,0,0,-1,1007,1380,0,0
-210,-356,0,0,0,0,0,0,0,0,0,-1,1014,1380,0,0
-203,-356,0,0,0,0,0,0,0,0,0,-1,1021,1380,0,0
-196,-356,0,0,0,0,0,0,0,0,0,-1,1028,1380,0,0
-189,-356,0,0,0,0,0,0,0,0,0,-1,1035,1380,0,0
-182,-356,0,0,0,0,0,0,0,0,0,-1,1042,1380,0,0
-175,-356,0,0,0,0,0,0,0,0,0,-1,1049,1380,0,0
-168,-356,0,0,0,0,0,0,0,0,0,-1,1056,1380,0,0
-161,-356,0,0,0,0,0,0,0,0,0,-1,1063,1380,0,0
-154,-356,0,0,0,0,0,0,0,0,0,-1,1070,1380,0,0
-147,-356,0,0,0,0,0,0,0,0,0,-1,1077,1380,0,0
-140,-356,0,0,0,0,0,0,0,0,0,-1,1084,1380,0,0
-133,-356,0,0,0,0,0,0,0,0,0,-1,1091,1380,0,0
-126,-356,0,0,0,0,0,0,0,0,0,-1,1098,1380,0,0
-119,-356,0,0,0,0,0,0,0,0,0,-1,1105,1380,0,0
-112,-356,0,0,0,0,0,0,0,0,0,-1,1112,1380,0,0
-105,-356,0,0,0,0,0,0,0,0,0,-1,1119,1380,0,0
-98,-356,0,0,0,0,0,0,0,0,0,-1,1126,1380,0,0
-91,-356,0,0,0,0,0,0,0,0,0,-1,1133,1380,0,0
-84,-356,0,0,0,0,0,0,0,0,0,-1,1140,1380,0,0
-77,-356,0,0,0,0,0,0,0,0,0,-1,1147,1380,0,0
-70,-356,0,0,0,0,0,0,0,0,0,-1,1154,1380,0,0
-63,-356,0,0,0,0,0,0,0,0,0,-1,1161,1380,0,0
-56,-356,0,0,0,0,0,0,0,0,0,-1,1168,1380,0,0
-49,-356,0,0,0,0,0,0,0,0,0,-1,1175,1380,0,0
-42,-356,0,0,0,0,0,0,0,0,0,-1,1182,1380,0,0
-35,-356,0,0,0,0,0,0,0,0,0,-1,1189,1380,0,0
-28,-356,0,0,0,0,0,0,0,0,0,-1,1196,1380,0,0
-21,-356,0,0,0,0,0,0,0,0,0,-1,1203,1380,0,0
-14,-356,0,0,0,0,0,0,0,0,0,-1,1210,1380,0,0
-7,-356,0,0,0,0,0,0,0,0,0,-1,1217,1380,0,0
0,-356,0,0,0,0,0,0,0,0,0,-1,1224,1380,0,0
7,-356,0,0,0,0,0,0,0,0,0,-1,1231,1380,0,0
14,-356,0,0,0,0,0,0,0,0,0,-1,1238,1380,0,0
21,-356,0,0,0,0,0,0,0,0,0,-1,1245,1380,0,0
28,-356,0,0,0,0,0,0,0,0,0,-1,1252,1380,0,0
35,-356,0,0,0,0,0,0,0,0,0,-1,1259,1380,0,0
42,-356,0,0,0,0,0,0,0,0,0,-1,1266,1380,0,0
49,-356,0,0,0,0,0,0,0,0,0,-1,1273,1380,0,0
56,-356,0,0,0,0,0,0,0,0,0,-1,1280,1380,0,0
63,-356,0,0,0,0,0,0,0,0,0,-1,1287,1380,0,0
70,-356,0,0,0,0,0,0,0,0,0,-1,1294,1380,0,0
77,-356,0,0,0,0,0,0,0,0,0,-1,1301,1380,0,0
84,-356,0,0,0,0,0,0,0,0,0,-1,1308,1380,0,0
91,-356,0,0,0,0,0,0,0,0,0,-1,1315,1380,0,0
98,-356,0,0,0,0,0,0,0,0,0,-1,1322,1380,0,0
105,-356,0,0,0,0,0,0,0,0,0,-1,1329,1380,0,0
112,-356,0,0,0,0,0,0,0,0,0,-1,1336,1380,0,0
119,-356,0,0,0,0,0,0,0,0,0,-1,1343,1380,0,0
126,-356,0,0,0,0,0,0,0,0,0,-1,1350,1380,0,0
133,-356,0,0,0,0,0,0,0,0,0,-1,1357,1380,0,0
140,-356,0,0,0,0,0,0,0,0,0,-1,1364,1380,0,0
147,-356,0,0,0,0,0,0,0,0,0,-1,1371,1380,0,0
154,-356,0,0,0,0,0,0,0,0,0,-1,1378,1380,0,0
161,-356,0,0,0,0,0,0,0,0,0,-1,1385,1380,0,0
168,-356,0,0,0,0,0,0,0,0,0,-1,1392,1380,0,0
175,-356,0,0,0,0,0,0,0,0,0,-1,1399,1380,0,0
182,-356,0,0,0,0,0,0,0,0,0,-1,1406,1380,0,0
189,-356,0,0,0,0,0,0,0,0,0,-1,1413,1380,0,0
196,-356,0,0,0,0,0,0,0,0,0,-1,1420,1380,0,0
203,-356,0,0,0,0,0,0,0,0,0,-1,1427,1380,0,0
210,-356,0,0,0,0,0,0,0,0,0,-1,1434,1380,0,0
217,-356,0,0,0,0,0,0,0,0,0,-1,1441,1380,0,0
224,-356,0,0,0,0,0,0,0,0,0,-1,1448,1380,0,0
231,-356,0,0,0,0,0,0,0,0,0,-1,1455,1380,0,0
238,-356,0,0,0,0,0,0,0,0,0,-1,1462,1380,0,0
245,-356,0,0,0,0,0,0,0,0,0,-1,1469,1380,0,0
252,-356,0,0,0,0,0,0,0,0,0,-1,1476,1380,0,0
259,-356,0,0,0,0,0,0,0,0,0,-1,1483,1380,0,0
266,-356,0,0,0,0,0,0,0,0,0,-1,1490,1380,0,0
273,-356,0,0,0,0,0,0,0,0,0,-1,1497,1380,0,0
280,-356,0,0,0,0,0,0,0,0,0,-1,1504,1380,0,0
287,-356,0,0,0,0,0,0,0,0,0,-1,1511,1380,0,0
294,-356,0,0,0,0,0,0,0,0,0,-1,1518,1380,0,0
301,-356,0,0,0,0,0,0,0,0,0,-1,1525,1380,0,0
308,-356,0,0,0,0,0,0,0,0,0,-1,1532,1380,0,0
315,-356,0,0,0,0,0,0,0,0,0,-1,1539,1380,0,0
322,-356,0,0,0,0,0,0,0,0,0,-1,1546,1380,0,0
329,-356,0,0,0,0,0,0,0,0,0,-1,1553,1380,0,0
336,-356,0,0,0,0,0,0,0,0,0,-1,1560,1380,0,0
343,-356,0,0,0,0,0,0,0,0,0,-1,1567,1380,0,0
350,-356,0,0,0,0,0,0,0,0,0,-1,1574,1380,0,0
357,-356,0,0,0,0,0,0,0,0,0,-1,1581,1380,0,0
364,-356,0,0,0,0,0,0,0,0,0,-1,1588,1380,0,0
371,-356,0,0,0,0,0,0,0,0,0,-1,1595,1380,0,0
378,-356,0,0,0,0,0,0,0,0,0,-1,1602,1380,0,0
385,-356,0,0,0,0,0,0,0,0,0,-1,1609,1380,0,0
392,-356,0,0,0,0,0,0,0,0,0,-1,1616,1380,0,0
399,-356,0,0,0,0,0,0,0,0,0,-1,1623,1380,0,0
406,-356,0,0,0,0,0,0,0,0,0,-1,1630,1380,0,0
413,-356,0,0,0,0,0,0,0,0,0,-1,1637,1380,0,0
420,-356,0,0,0,0,0,0,0,0,0,-1,1644,1380,0,0
427,-356,0,0,0,0,0,0,0,0,0,-1,1651,1380,0,0
434,-356,0,0,0,0,0,0,0,0,0,-1,1658,1380,0,0
441,-356,0,0,0,0,0,0,0,0,0,-1,1665,1380,0,0
448,-356,0,0,0,0,0,0,0,0,0,-1,1672,1380,0,0
455,-356,0,0,0,0,0,0,0,0,0,-1,1679,1380,0,0
462,-356,0,0,0,0,0,0,0,0,0,-1,1686,1380,0,0
469,-356,0,0,0,0,0,0,0,0,0,-1,1693,1380,0,0
476,-356,0,0,0,0,0,0,0,0,0,-1,1700,1380,0,0
483,-356,0,0,0,0,0,0,0,0,0,-1,1707,1380,0,0
490,-356,0,0,0,0,0,0,0,0,0,-1,1714,1380,0,0
497,-356,0,0,0,0,0,0,0,0,0,-1,1721,1380,0,0
504,-356,0,0,0,0,0,0,0,0,0,-1,1728,1380,0,0
511,-356,0,0,0,0,0,0,0,0,0,-1,1735,1380,0,0
518,-356,0,0,0,0,0,0,0,0,0,-1,1742,1380,0,0
525,-356,0,0,0,0,0,0,0,0,0,-1,1749,1380,0,0
532,-356,0,0,0,0,0,0,0,0,0,-1,1756,1380,0,0
539,-356,0,0,0,0,0,0,0,0,0,-1,1763,1380,0,0
546,-356,0,0,0,0,0,0,0,0,0,-1,1770,1380,0,0
553,-356,0,0,0,0,0,0,0,0,0,-1,1777,1380,0,0
560,-356,20.2863,3.19324,0,0,0,0,0,0,0,-1,1784,1380,20.2863,-3.19324
567,-356,20.293,3.20374,0,0,0,0,0,0,0,-1,1791,1380,20.293,-3.20372
574,-356,14.5682,6.27368,0,0,0,0,0,0,0,-1,1798,1380,14.5682,-6.27365
581,-356,15.6521,5.05688,0,0,0,0,0,0,0,-1,1805,1380,15.6521,-5.05694
588,-356,16.7401,3.95667,0,0,0,0,0,0,0,-1,1812,1380,16.7401,-3.9566
595,-356,12.9683,6.802,0,0,0,0,0,0,0,-1,1819,1380,12.9682,-6.80198
602,-356,13.6268,6.36584,-0.0258444,0.0238926,0.00721241,0.0249174,-0.0268692,1.42966,0.0299061,0.0488458,1826,1380,13.6268,-6.36582
609,-356,14.2079,6.07581,0,0,0,0,0,0,0,-1,1833,1380,14.2079,-6.0758
616,-356,14.2294,5.83984,0,0,0,0,0,0,0,-1,1840,1380,14.2294,-5.83986
623,-356,14.2574,5.86609,0,0,0,0,0,0,0,-1,1847,1380,14.2575,-5.86608
630,-356,14.5466,6.18652,0,0,0,0,0,0,0,-1,1854,1380,14.5467,-6.18651
637,-356,14.3544,6.43457,-0.0112762,-0.0034845,0.00742584,0.0010054,-0.0157661,1.02698,0.0108614,0.042889,1861,1380,14.3544,-6.43451
644,-356,14.312,6.71094,-0.00838436,-0.00387086,0.00615203,0.000425284,-0.0126805,0.961192,0.00859893,0.0271266,1868,1380,14.312,-6.71093
651,-356,14.354,6.42029,-0.00563092,-0.00353172,0.00477561,0.000308268,-0.00947091,0.89357,0.00641916,0.015605,1875,1380,14.354,-6.42026
658,-356,14.3075,6.20093,-0.00436958,-0.00338576,0.00378668,-5.91769e-05,-0.00769617,0.849989,0.00511117,0.01493,1882,1380,14.3075,-6.20093
665,-356,14.2941,6.0304,-0.00241572,-0.00232181,0.00268918,0.000320819,-0.00505835,0.794128,0.0034841,0.0143199,1889,1380,14.294,-6.03045
672,-356,14.2834,5.8446,-0.000958673,-0.00139331,0.00167375,0.000511808,-0.0028638,0.720839,0.00210069,0.0140821,1896,1380,14.2835,-5.84461
679,-356,14.2828,5.64185,0.000189405,-0.000271094,0.00067067,0.000668249,-0.000749938,0.620046,0.000819243,0.0147632,1903,1380,14.2828,-5.64179
686,-356,14.2926,5.45801,0.00144857,0.000859021,-0.000315726,0.00158574,0.000721852,-0.409853,0.000916749,0.0143566,1910,1380,14.2926,-5.45802
693,-356,14.3239,5.24548,0.00278757,0.00188189,-0.00130204,0.00371327,0.000956191,-0.618045,0.00222631,0.0132785,1917,1380,14.3238,-5.24543
700,-356,14.3324,5.02026,0.00425529,0.00309097,-0.00236602,0.00610972,0.00123654,-0.66477,0.00372993,0.0175617,1924,1380,14.3323,-5.02029
707,-356,14.3717,4.63501,0.00598463,0.00455674,-0.0036101,0.00895071,0.00159066,-0.687776,0.00551393,0.0367239,1931,1380,14.3717,-4.63506
714,-356,14.1967,4.2146,0,0,0,0,0,0,0,-1,1938,1380,14.1967,-4.21465
721,-356,14.3434,4.21387,0,0,0,0,0,0,0,-1,1945,1380,14.3433,-4.21387
728,-356,13.2661,3.90723,0,0,0,0,0,0,0,-1,1952,1380,13.2661,-3.90722
735,-356,16.1771,-0.659912,0,0,0,0,0,0,0,-1,1959,1380,16.1771,0.659892
742,-356,15.4358,0.389893,0,0,0,0,0,0,0,-1,1966,1380,15.4358,-0.389855
749,-356,16.13,2.48547,0,0,0,0,0,0,0,-1,1973,1380,16.13,-2.48541
756,-356,0,0,0,0,0,0,0,0,0,-1,1980,1380,0,0
763,-356,0,0,0,0,0,0,0,0,0,-1,1987,1380,0,0
770,-356,0,0,0,0,0,0,0,0,0,-1,1994,1380,0,0
777,-356,0,0,0,0,0,0,0,0,0,-1,2001,1380,0,0
784,-356,0,0,0,0,0,0,0,0,0,-1,2008,1380,0,0
791,-356,0,0,0,0,0,0,0,0,0,-1,2015,1380,0,0
798,-356,0,0,0,0,0,0,0,0,0,-1,2022,1380,0,0
805,-356,0,0,0,0,0,0,0,0,0,-1,2029,1380,0,0
812,-356,0,0,0,0,0,0,0,0,0,-1,2036,1380,0,0
-700,-363,0,0,0,0,0,0,0,0,0,-1,524,1387,0,0
-693,-363,0,0,0,0,0,0,0,0,0,-1,531,1387,0,0
-686,-363,0,0,0,0,0,0,0,0,0,-1,538,1387,0,0
-679,-363,0,0,0,0,0,0,0,0,0,-1,545,1387,0,0
-672,-363,0,0,0,0,0,0,0,0,0,-1,552,1387,0,0
-665,-363,0,0,0,0,0,0,0,0,0,-1,559,1387,0,0
-658,-363,0,0,0,0,0,0,0,0,0,-1,566,1387,0,0
-651,-363,0,0,0,0,0,0,0,0,0,-1,573,1387,0,0
-644,-363,0,0,0,0,0,0,0,0,0,-1,580,1387,0,0
-637,-363,0,0,0,0,0,0,0,0,0,-1,587,1387,0,0
-630,-363,0,0,0,0,0,0,0,0,0,-1,594,1387,0,0
-623,-363,-9.67566,-5.91846,0,0,0,0,0,0,0,-1,601,1387,-9.67563,5.91847
-616,-363,-9.02985,-2.98083,0,0,0,0,0,0,0,-1,608,1387,-9.02987,2.98079
-609,-363,-4.90265,0.195679,0,0,0,0,0,0,0,-1,615,1387,-4.90263,-0.195721
-602,-363,-6.45087,2.20178,0,0,0,0,0,0,0,-1,622,1387,-6.45085,-2.2018
-595,-363,-5.41833,1.92627,0,0,0,0,0,0,0,-1,629,1387,-5.41835,-1.92629
-588,-363,-5.24158,2.22827,0.0667961,0.021224,0.00358722,0.0670767,0.0209433,0.0780745,0.0396266,0.0445803,636,1387,-5.24159,-2.22821
-581,-363,-5.19312,2.58374,0.0444131,0.0143113,0.00140232,0.0444783,0.0142461,0.0464519,0.0262266,0.0370645,643,1387,-5.1931,-2.58371
-574,-363,-5.40936,2.88782,0.0295572,0.00900557,0.000666857,0.0295788,0.00898395,0.0324025,0.0175104,0.0313597,650,1387,-5.40938,-2.88787
-567,-363,-5.57611,2.97388,0.0224945,0.00556313,0.000223513,0.0224975,0.00556018,0.013198,0.0135312,0.0198984,657,1387,-5.57611,-2.97386
-560,-363,-5.58429,3.1864,0.0167889,0.00326221,-0.000156949,0.0167907,0.00326039,-0.0116008,0.0102808,0.0127457,664,1387,-5.58426,-3.18635
-553,-363,-5.58087,3.42236,0.0120639,0.0016046,-0.000409766,0.01208,0.00158857,-0.0390972,0.00757948,0.0129572,671,1387,-5.58088,-3.42236
-546,-363,-5.57758,3.62842,0.0082362,0.000360677,-0.000571606,0.00827748,0.000319406,-0.0720766,0.00541499,0.0129632,678,1387,-5.57755,-3.62844
-539,-363,-5.54999,3.84766,0.00516615,-0.000589716,-0.000717585,0.00525426,-0.000677829,-0.122179,0.00374927,0.0139222,685,1387,-5.55001,-3.84769
-532,-363,-5.58264,4.10718,0.00260389,-0.00143568,-0.000992043,0.00283437,-0.00166615,-0.228276,0.0026274,0.0120029,692,1387,-5.58265,-4.10723
-525,-363,-5.59076,4.34021,0.00215514,-0.00317184,-0.00138252,0.00249257,-0.00350928,-0.23939,0.0034817,0.0109125,699,1387,-5.59076,-4.34019
-518,-363,-5.59271,4.56885,0.00360401,-0.0063069,-0.00200442,0.00399404,-0.00669693,-0.192184,0.00623785,0.00992989,706,1387,-5.59273,-4.56889
-511,-363,-5.56146,4.82581,0.00460242,-0.0113516,-0.00420435,0.00564258,-0.0123917,-0.24253,0.0106524,0.0154691,713,1387,-5.56149,-4.82581
-504,-363,-5.43903,5.08435,0.00631616,-0.0205478,-0.00737771,0.00820895,-0.0224406,-0.251139,0.0183204,0.0369768,720,1387,-5.43903,-5.08433
-497,-363,-5.18011,5.24878,0,0,0,0,0,0,0,-1,727,1387,-5.18013,-5.24876
-490,-363,-5.42413,4.6958,0,0,0,0,0,0,0,-1,734,1387,-5.42412,-4.69583
-483,-363,-6.28375,4.1394,0,0,0,0,0,0,0,-1,741,1387,-6.28374,-4.13944
-476,-363,-5.83807,4.31018,0,0,0,0,0,0,0,-1,748,1387,-5.8381,-4.31013
-469,-363,-4.31604,1.66943,0,0,0,0,0,0,0,-1,755,1387,-4.31606,-1.66944
-462,-363,-9.94159,2.40771,0,0,0,0,0,0,0,-1,762,1387,-9.94157,-2.4077
-455,-363,-10.5774,1.9292,0,0,0,0,0,0,0,-1,769,1387,-10.5774,-1.92915
-448,-363,-11.0799,1.61865,0,0,0,0,0,0,0,-1,776,1387,-11.0799,-1.61866
-441,-363,-11.8578,1.90332,0,0,0,0,0,0,0,-1,783,1387,-11.8578,-1.90326
-434,-363,-12.5151,2.19995,0,0,0,0,0,0,0,-1,790,1387,-12.5151,-2.19996
-427,-363,0,0,0,0,0,0,0,0,0,-1,797,1387,0,0
-420,-363,0,0,0,0,0,0,0,0,0,-1,804,1387,0,0
-413,-363,0,0,0,0,0,0,0,0,0,-1,811,1387,0,0
-406,-363,0,0,0,0,0,0,0,0,0,-1,818,1387,0,0
-399,-363,0,0,0,0,0,0,0,0,0,-1,825,1387,0,0
-392,-363,0,0,0,0,0,0,0,0,0,-1,832,1387,0,0
-385,-363,0,0,0,0,0,0,0,0,0,-1,839,1387,0,0
-378,-363,0,0,0,0,0,0,0,0,0,-1,846,1387,0,0
-371,-363,0,0,0,0,0,0,0,0,0,-1,853,1387,0,0
-364,-363,0,0,0,0,0,0,0,0,0,-1,860,1387,0,0
-357,-363,0,0,0,0,0,0,0,0,0,-1,867,1387,0,0
-350,-363,0,0,0,0,0,0,0,0,0,-1,874,1387,0,0
-343,-363,0,0,0,0,0,0,0,0,0,-1,881,1387,0,0
-336,-363,0,0,0,0,0,0,0,0,0,-1,888,1387,0,0
-329,-363,0,0,0,0,0,0,0,0,0,-1,895,1387,0,0
-322,-363,0,0,0,0,0,0,0,0,0,-1,902,1387,0,0
-315,-363,0,0,0,0,0,0,0,0,0,-1,909,1387,0,0
-308,-363,0,0,0,0,0,0,0,0,0,-1,916,1387,0,0
-301,-363,0,0,0,0,0,0,0,0,0,-1,923,1387,0,0
-294,-363,0,0,0,0,0,0,0,0,0,-1,930,1387,0,0
-287,-363,0,0,0,0,0,0,0,0,0,-1,937,1387,0,0
-280,-363,0,0,0,0,0,0,0,0,0,-1,944,1387,0,0
-273,-363,0,0,0,0,0,0,0,0,0,-1,951,1387,0,0
-266,-363,0,0,0,0,0,0,0,0,0,-1,958,1387,0,0
-259,-363,0,0,0,0,0,0,0,0,0,-1,965,1387,0,0
-252,-363,0,0,0,0,0,0,0,0,0,-1,972,1387,0,0
-245,-363,0,0,0,0,0,0,0,0,0,-1,979,1387,0,0
-238,-363,0,0,0,0,0,0,0,0,0,-1,986,1387,0,0
-231,-363,0,0,0,0,0,0,0,0,0,-1,993,1387,0,0
-224,-363,0,0,0,0,0,0,0,0,0,-1,1000,1387,0,0
-217,-363,0,0,0,0,0,0,0,0,0,-1,1007,1387,0,0
-210,-363,0,0,0,0,0,0,0,0,0,-1,1014,1387,0,0
-203,-363,0,0,0,0,0,0,0,0,0,-1,1021,1387,0,0
-196,-363,0,0,0,0,0,0,0,0,0,-1,1028,1387,0,0
-189,-363,0,0,0,0,0,0,0,0,0,-1,1035,1387,0,0
-182,-363,0,0,0,0,0,0,0,0,0,-1,1042,1387,0,0
-175,-363,0,0,0,0,0,0,0,0,0,-1,1049,1387,0,0
-168,-363,0,0,0,0,0,0,0,0,0,-1,1056,1387,0,0
-161,-363,0,0,0,0,0,0,0,0,0,-1,1063,1387,0,0
-154,-363,0,0,0,0,0,0,0,0,0,-1,1070,1387,0,0
-147,-363,0,0,0,0,0,0,0,0,0,-1,1077,1387,0,0
-140,-363,0,0,0,0,0,0,0,0,0,-1,1084,1387,0,0
-133,-363,0,0,0,0,0,0,0,0,0,-1,1091,1387,0,0
-126,-363,0,0,0,0,0,0,0,0,0,-1,1098,1387,0,0
-119,-363,0,0,0,0,0,0,0,0,0,-1,1105,1387,0,0
-112,-363,0,0,0,0,0,0,0,0,0,-1,1112,1387,0,0
-105,-363,0,0,0,0,0,0,0,0,0,-1,1119,1387,0,0
-98,-363,0,0,0,0,0,0,0,0,0,-1,1126,1387,0,0
-91,-363,0,0,0,0,0,0,0,0,0,-1,1133,1387,0,0
-84,-363,0,0,0,0,0,0,0,0,0,-1,1140,1387,0,0
-77,-363,0,0,0,0,0,0,0,0,0,-1,1147,1387,0,0
-70,-363,0,0,0,0,0,0,0,0,0,-1,1154,1387,0,0
-63,-363,0,0,0,0,0,0,0,0,0,-1,1161,1387,0,0
-56,-363,0,0,0,0,0,0,0,0,0,-1,1168,1387,0,0
-49,-363,0,0,0,0,0,0,0,0,0,-1,1175,1387,0,0
-42,-363,0,0,0,0,0,0,0,0,0,-1,1182,1387,0,0
-35,-363,0,0,0,0,0,0,0,0,0,-1,1189,1387,0,0
-28,-363,0,0,0,0,0,0,0,0,0,-1,1196,1387,0,0
-21,-363,0,0,0,0,0,0,0,0,0,-1,1203,1387,0,0
-14,-363,0,0,0,0,0,0,0,0,0,-1,1210,1387,0,0
-7,-363,0,0,0,0,0,0,0,0,0,-1,1217,1387,0,0
0,-363,0,0,0,0,0,0,0,0,0,-1,1224,1387,0,0
7,-363,0,0,0,0,0,0,0,0,0,-1,1231,1387,0,0
14,-363,0,0,0,0,0,0,0,0,0,-1,1238,1387,0,0
21,-363,0,0,0,0,0,0,0,0,0,-1,1245,1387,0,0
28,-363,0,0,0,0,0,0,0,0,0,-1,1252,1387,0,0
35,-363,0,0,0,0,0,0,0,0,0,-1,1259,1387,0,0
42,-363,0,0,0,0,0,0,0,0,0,-1,1266,1387,0,0
49,-363,0,0,0,0,0,0,0,0,0,-1,1273,1387,0,0
56,-363,0,0,0,0,0,0,0,0,0,-1,1280,1387,0,0
63,-363,0,0,0,0,0,0,0,0,0,-1,1287,1387,0,0
70,-363,0,0,0,0,0,0,0,0,0,-1,1294,1387,0,0
77,-363,0,0,0,0,0,0,0,0,0,-1,1301,1387,0,0
84,-363,0,0,0,0,0,0,0,0,0,-1,1308,1387,0,0
91,-363,0,0,0,0,0,0,0,0,0,-1,1315,1387,0,0
98,-363,0,0,0,0,0,0,0,0,0,-1,1322,1387,0,0
105,-363,0,0,0,0,0,0,0,0,0,-1,1329,1387,0,0
112,-363,0,0,0,0,0,0,0,0,0,-1,1336,1387,0,0
119,-363,0,0,0,0,0,0,0,0,0,-1,1343,1387,0,0
126,-363,0,0,0,0,0,0,0,0,0,-1,1350,1387,0,0
133,-363,0,0,0,0,0,0,0,0,0,-1,1357,1387,0,0
140,-363,0,0,0,0,0,0,0,0,0,-1,1364,1387,0,0
147,-363,0,0,0,0,0,0,0,0,0,-1,1371,1387,0,0
154,-363,0,0,0,0,0,0,0,0,0,-1,1378,1387,0,0
161,-363,0,0,0,0,0,0,0,0,0,-1,1385,1387,0,0
168,-363,0,0,0,0,0,0,0,0,0,-1,1392,1387,0,0
175,-363,0,0,0,0,0,0,0,0,0,-1,1399,1387,0,0
182,-363,0,0,0,0,0,0,0,0,0,-1,1406,1387,0,0
189,-363,0,0,0,0,0,0,0,0,0,-1,1413,1387,0,0
196,-363,0,0,0,0,0,0,0,0,0,-1,1420,1387,0,0
203,-363,0,0,0,0,0,0,0,0,0,-1,1427,1387,0,0
210,-363,0,0,0,0,0,0,0,0,0,-1,1434,1387,0,0
217,-363,0,0,0,0,0,0,0,0,0,-1,1441,1387,0,0
224,-363,0,0,0,0,0,0,0,0,0,-1,1448,1387,0,0
231,-363,0,0,0,0,0,0,0,0,0,-1,1455,1387,0,0
238,-363,0,0,0,0,0,0,0,0,0,-1,1462,1387,0,0
245,-363,0,0,0,0,0,0,0,0,0,-1,1469,1387,0,0
252,-363,0,0,0,0,0,0,0,0,0,-1,1476,1387,0,0
259,-363,0,0,0,0,0,0,0,0,0,-1,1483,1387,0,0
266,-363,0,0,0,0,0,0,0,0,0,-1,1490,1387,0,0
273,-363,0,0,0,0,0,0,0,0,0,-1,1497,1387,0,0
280,-363,0,0,0,0,0,0,0,0,0,-1,1504,1387,0,0
287,-363,0,0,0,0,0,0,0,0,0,-1,1511,1387,0,0
294,-363,0,0,0,0,0,0,0,0,0,-1,1518,1387,0,0
301,-363,0,0,0,0,0,0,0,0,0,-1,1525,1387,0,0
308,-363,0,0,0,0,0,0,0,0,0,-1,1532,1387,0,0
315,-363,0,0,0,0,0,0,0,0,0,-1,1539,1387,0,0
322,-363,0,0,0,0,0,0,0,0,0,-1,1546,1387,0,0
329,-363,0,0,0,0,0,0,0,0,0,-1,1553,1387,0,0
336,-363,0,0,0,0,0,0,0,0,0,-1,1560,1387,0,0
343,-363,0,0,0,0,0,0,0,0,0,-1,1567,1387,0,0
350,-363,0,0,0,0,0,0,0,0,0,-1,1574,1387,0,0
357,-363,0,0,0,0,0,0,0,0,0,-1,1581,1387,0,0
364,-363,0,0,0,0,0,0,0,0,0,-1,1588,1387,0,0
371,-363,0,0,0,0,0,0,0,0,0,-1,1595,1387,0,0
378,-363,0,0,0,0,0,0,0,0,0,-1,1602,1387,0,0
385,-363,0,0,0,0,0,0,0,0,0,-1,1609,1387,0,0
392,-363,0,0,0,0,0,0,0,0,0,-1,1616,1387,0,0
399,-363,0,0,0,0,0,0,0,0,0,-1,1623,1387,0,0
406,-363,0,0,0,0,0,0,0,0,0,-1,1630,1387,0,0
413,-363,0,0,0,0,0,0,0,0,0,-1,1637,1387,0,0
420,-363,0,0,0,0,0,0,0,0,0,-1,1644,1387,0,0
427,-363,0,0,0,0,0,0,0,0,0,-1,1651,1387,0,0
434,-363,0,0,0,0,0,0,0,0,0,-1,1658,1387,0,0
441,-363,0,0,0,0,0,0,0,0,0,-1,1665,1387,0,0
448,-363,0,0,0,0,0,0,0,0,0,-1,1672,1387,0,0
455,-363,0,0,0,0,0,0,0,0,0,-1,1679,1387,0,0
462,-363,0,0,0,0,0,0,0,0,0,-1,1686,1387,0,0
469,-363,0,0,0,0,0,0,0,0,0,-1,1693,1387,0,0
476,-363,0,0,0,0,0,0,0,0,0,-1,1700,1387,0,0
483,-363,0,0,0,0,0,0,0,0,0,-1,1707,1387,0,0
490,-363,0,0,0,0,0,0,0,0,0,-1,1714,1387,0,0
497,-363,0,0,0,0,0,0,0,0,0,-1,1721,1387,0,0
504,-363,0,0,0,0,0,0,0,0,0,-1,1728,1387,0,0
511,-363,0,0,0,0,0,0,0,0,0,-1,1735,1387,0,0
518,-363,0,0,0,0,0,0,0,0,0,-1,1742,1387,0,0
525,-363,0,0,0,0,0,0,0,0,0,-1,1749,1387,0,0
532,-363,0,0,0,0,0,0,0,0,0,-1,1756,1387,0,0
539,-363,0,0,0,0,0,0,0,0,0,-1,1763,1387,0,0
546,-363,0,0,0,0,0,0,0,0,0,-1,1770,1387,0,0
553,-363,20.5176,1.28699,0,0,0,0,0,0,0,-1,1777,1387,20.5176,-1.28699
560,-363,20.1282,2.86011,0,0,0,0,0,0,0,-1,1784,1387,20.1282,-2.86016
567,-363,20.1196,3.49683,0,0,0,0,0,0,0,-1,1791,1387,20.1196,-3.49686
574,-363,13.896,5.84314,0,0,0,0,0,0,0,-1,1798,1387,13.896,-5.84314
581,-363,15.1686,4.47595,0,0,0,0,0,0,0,-1,1805,1387,15.1686,-4.47596
588,-363,16.2867,3.32141,0,0,0,0,0,0,0,-1,1812,1387,16.2868,-3.32145
595,-363,13.1581,5.6853,0,0,0,0,0,0,0,-1,1819,1387,13.1581,-5.68524
602,-363,13.7032,5.60449,0,0,0,0,0,0,0,-1,1826,1387,13.7033,-5.60448
609,-363,14.2516,5.61389,0,0,0,0,0,0,0,-1,1833,1387,14.2516,-5.6139
616,-363,14.0374,5.92395,0,0,0,0,0,0,0,-1,1840,1387,14.0374,-5.924
623,-363,14.1348,6.20801,0,0,0,0,0,0,0,-1,1847,1387,14.1348,-6.20807
630,-363,14.2222,6.46729,-0.0125046,-0.00557275,0.0104551,0.0019759,-0.0200532,0.945451,0.0140738,0.0389789,1854,1387,14.2221,-6.46728
637,-363,13.9594,6.74719,-0.0093211,-0.00583239,0.00834565,0.000949259,-0.0161027,0.888422,0.0110652,0.0326725,1861,1387,13.9593,-6.74714
644,-363,14.1013,6.64136,-0.00668001,-0.00510396,0.00635207,0.000508783,-0.0122927,0.847112,0.00836991,0.0113486,1868,1387,14.1013,-6.64138
651,-363,14.1249,6.41199,-0.00425434,-0.00401006,0.00458692,0.000456342,-0.00872074,0.798709,0.00597176,0.0107993,1875,1387,14.1249,-6.41197
658,-363,14.1313,6.21375,-0.00310015,-0.00343254,0.0034093,0.000147003,-0.00667969,0.761044,0.00450293,0.0116615,1882,1387,14.1314,-6.21378
665,-363,14.1022,6.05237,-0.00142478,-0.00214889,0.00226719,0.000509081,-0.00408275,0.706221,0.00290643,0.0113527,1889,1387,14.1022,-6.05237
672,-363,14.0953,5.86438,-0.000185564,-0.00120412,0.00134774,0.000745911,-0.0021356,0.604753,0.00172693,0.0126879,1896,1387,14.0953,-5.86433
679,-363,14.1155,5.6554,0.000887724,-0.000181183,0.000526961,0.00110382,-0.000397282,0.389169,0.000898093,0.0139259,1903,1387,14.1155,-5.65535
686,-363,14.1263,5.44763,0.00210465,0.000772549,-0.000253689,0.00215133,0.000725871,-0.181961,0.00126377,0.0141846,1910,1387,14.1263,-5.44769
693,-363,14.1219,5.22192,0.00343117,0.00157748,-0.000989856,0.00386037,0.00114828,-0.409131,0.00228893,0.0132943,1917,1387,14.1219,-5.2219
700,-363,14.1892,4.99988,0.00490822,0.0025742,-0.00176194,0.00585458,0.00162784,-0.492897,0.00348939,0.0179044,1924,1387,14.1892,-4.99983
707,-363,14.15,4.72839,0.00676614,0.00380311,-0.0027489,0.00840733,0.00216191,-0.538239,0.00504122,0.038212,1931,1387,14.15,-4.72842
714,-363,14.1938,4.64417,0.00917679,0.00566234,-0.00412883,0.0119068,0.00293236,-0.58421,0.00716334,0.0494243,1938,1387,14.1939,-4.64411
721,-363,14.4045,4.51685,0,0,0,0,0,0,0,-1,1945,1387,14.4045,-4.51685
728,-363,13.8644,4.52063,0,0,0,0,0,0,0,-1,1952,1387,13.8644,-4.52064
735,-363,14.8151,4.4552,0,0,0,0,0,0,0,-1,1959,1387,14.8151,-4.45516
742,-363,16.3715,0.114868,0,0,0,0,0,0,0,-1,1966,1387,16.3715,-0.114861
749,-363,0,0,0,0,0,0,0,0,0,-1,1973,1387,0,0
756,-363,0,0,0,0,0,0,0,0,0,-1,1980,1387,0,0
763,-363,0,0,0,0,0,0,0,0,0,-1,1987,1387,0,0
770,-363,0,0,0,0,0,0,0,0,0,-1,1994,1387,0,0
777,-363,0,0,0,0,0,0,0,0,0,-1,2001,1387,0,0
784,-363,0,0,0,0,0,0,0,0,0,-1,2008,1387,0,0
791,-363,0,0,0,0,0,0,0,0,0,-1,2015,1387,0,0
798,-363,0,0,0,0,0,0,0,0,0,-1,2022,1387,0,0
805,-363,0,0,0,0,0,0,0,0,0,-1,2029,1387,0,0
812,-363,0,0,0,0,0,0,0,0,0,-1,2036,1387,0,0
-700,-370,0,0,0,0,0,0,0,0,0,-1,524,1394,0,0
-693,-370,0,0,0,0,0,0,0,0,0,-1,531,1394,0,0
-686,-370,0,0,0,0,0,0,0,0,0,-1,538,1394,0,0
-679,-370,0,0,0,0,0,0,0,0,0,-1,545,1394,0,0
-672,-370,0,0,0,0,0,0,0,0,0,-1,552,1394,0,0
-665,-370,0,0,0,0,0,0,0,0,0,-1,559,1394,0,0
-658,-370,0,0,0,0,0,0,0,0,0,-1,566,1394,0,0
-651,-370,0,0,0,0,0,0,0,0,0,-1,573,1394,0,0
-644,-370,0,0,0,0,0,0,0,0,0,-1,580,1394,0,0
-637,-370,0,0,0,0,0,0,0,0,0,-1,587,1394,0,0
-630,-370,0,0,0,0,0,0,0,0,0,-1,594,1394,0,0
-623,-370,-10.1758,-7.10486,0,0,0,0,0,0,0,-1,601,1394,-10.1758,7.10483
-616,-370,-8.85925,-1.61475,0,0,0,0,0,0,0,-1,608,1394,-8.85925,1.61476
-609,-370,-5.39325,0.0421143,0,0,0,0,0,0,0,-1,615,1394,-5.39328,-0.0421372
-602,-370,-5.4397,0.881836,0,0,0,0,0,0,0,-1,622,1394,-5.43972,-0.881813
-595,-370,-5.02423,1.15503,0.108957,0.029694,0.00747893,0.109657,0.0289945,0.0932591,0.065611,0.0465769,629,1394,-5.02426,-1.15508
-588,-370,-4.86017,1.46594,0.0808387,0.0215919,0.00466102,0.0812031,0.0212274,0.0780315,0.0486293,0.0494521,636,1394,-4.86018,-1.4659
-581,-370,-4.78033,2.22449,0.0570158,0.0146188,0.0021857,0.0571282,0.0145064,0.0513716,0.0342886,0.0448469,643,1394,-4.78036,-2.2245
-574,-370,-5.14478,2.77271,0.0404681,0.00939118,0.00108565,0.040506,0.0093533,0.0348774,0.024489,0.038054,650,1394,-5.14479,-2.77272
-567,-370,-5.26642,3.01074,0.0307668,0.00591828,0.000464109,0.0307755,0.00590962,0.0186689,0.0188583,0.0245484,657,1394,-5.2664,-3.01079
-560,-370,-5.37653,3.17249,0.0228135,0.00348589,1.35602e-05,0.0228136,0.00348589,0.000701597,0.0141905,0.0148046,664,1394,-5.37654,-3.17253
-553,-370,-5.35754,3.41785,0.0163566,0.00178577,-0.000276317,0.0163618,0.00178053,-0.0189547,0.0103655,0.0102376,671,1394,-5.35757,-3.41788
-546,-370,-5.31024,3.64331,0.0112088,0.000596104,-0.000418146,0.0112253,0.000579654,-0.0393192,0.00729798,0.0136356,678,1394,-5.31025,-3.64332
-539,-370,-5.27863,3.90503,0.00718666,-0.000303692,-0.000534769,0.00722465,-0.000341679,-0.070915,0.00493427,0.0182927,685,1394,-5.27865,-3.90498
-532,-370,-5.32007,4.14404,0.00387562,-0.00111731,-0.000775239,0.00399322,-0.00123491,-0.150547,0.00315539,0.0195664,692,1394,-5.3201,-4.14406
-525,-370,-5.32959,4.36108,0.00261127,-0.00242903,-0.000984961,0.00279692,-0.00261467,-0.18629,0.00312497,0.0140164,699,1394,-5.32958,-4.36106
-518,-370,-5.35138,4.56677,0.003259,-0.00464945,-0.00141931,0.00350601,-0.00489646,-0.172307,0.00487325,0.0104084,706,1394,-5.35139,-4.56672
-511,-370,-5.35388,4.80432,0.00361639,-0.0082237,-0.00322389,0.00443729,-0.0090446,-0.249333,0.00793383,0.0133871,713,1394,-5.35391,-4.80437
-504,-370,-5.28357,5.06934,0.0045213,-0.0151241,-0.00594228,0.00617885,-0.0167816,-0.272027,0.0137193,0.023475,720,1394,-5.28357,-5.0693
-497,-370,-5.15833,5.27905,0,0,0,0,0,0,0,-1,727,1394,-5.1583,-5.2791
-490,-370,-5.30695,4.5271,0,0,0,0,0,0,0,-1,734,1394,-5.30698,-4.52704
-483,-370,-6.02997,4.59253,0,0,0,0,0,0,0,-1,741,1394,-6.02994,-4.5925
-476,-370,-6.75293,4.65796,0,0,0,0,0,0,0,-1,748,1394,-6.7529,-4.65795
-469,-370,-6.71899,4.70483,0,0,0,0,0,0,0,-1,755,1394,-6.71897,-4.70487
-462,-370,-9.86481,2.61072,0,0,0,0,0,0,0,-1,762,1394,-9.86479,-2.61068
-455,-370,-8.96338,1.39319,0,0,0,0,0,0,0,-1,769,1394,-8.96335,-1.39315
-448,-370,-9.96106,1.12341,0,0,0,0,0,0,0,-1,776,1394,-9.96106,-1.12339
-441,-370,-11.2067,1.4259,0,0,0,0,0,0,0,-1,783,1394,-11.2067,-1.42593
-434,-370,-11.8126,1.54004,0,0,0,0,0,0,0,-1,790,1394,-11.8126,-1.5401
-427,-370,0,0,0,0,0,0,0,0,0,-1,797,1394,0,0
-420,-370,0,0,0,0,0,0,0,0,0,-1,804,1394,0,0
-413,-370,0,0,0,0,0,0,0,0,0,-1,811,1394,0,0
-406,-370,0,0,0,0,0,0,0,0,0,-1,818,1394,0,0
-399,-370,0,0,0,0,0,0,0,0,0,-1,825,1394,0,0
-392,-370,0,0,0,0,0,0,0,0,0,-1,832,1394,0,0
-385,-370,0,0,0,0,0,0,0,0,0,-1,839,1394,0,0
-378,-370,0,0,0,0,0,0,0,0,0,-1,846,1394,0,0
-371,-370,0,0,0,0,0,0,0,0,0,-1,853,1394,0,0
-364,-370,0,0,0,0,0,0,0,0,0,-1,860,1394,0,0
-357,-370,0,0,0,0,0,0,0,0,0,-1,867,1394,0,0
-350,-370,0,0,0,0,0,0,0,0,0,-1,874,1394,0,0
-343,-370,0,0,0,0,0,0,0,0,0,-1,881,1394,0,0
-336,-370,0,0,0,0,0,0,0,0,0,-1,888,1394,0,0
-329,-370,0,0,0,0,0,0,0,0,0,-1,895,1394,0,0
-322,-370,0,0,0,0,0,0,0,0,0,-1,902,1394,0,0
-315,-370,0,0,0,0,0,0,0,0,0,-1,909,1394,0,0
-308,-370,0,0,0,0,0,0,0,0,0,-1,916,1394,0,0
-301,-370,0,0,0,0,0,0,0,0,0,-1,923,1394,0,0
-294,-370,0,0,0,0,0,0,0,0,0,-1,930,1394,0,0
-287,-370,0,0,0,0,0,0,0,0,0,-1,937,1394,0,0
-280,-370,0,0,0,0,0,0,0,0,0,-1,944,1394,0,0
-273,-370,0,0,0,0,0,0,0,0,0,-1,951,1394,0,0
-266,-370,0,0,0,0,0,0,0,0,0,-1,958,1394,0,0
-259,-370,0,0,0,0,0,0,0,0,0,-1,965,1394,0,0
-252,-370,0,0,0,0,0,0,0,0,0,-1,972,1394,0,0
-245,-370,0,0,0,0,0,0,0,0,0,-1,979,1394,0,0
-238,-370,0,0,0,0,0,0,0,0,0,-1,986,1394,0,0
-231,-370,0,0,0,0,0,0,0,0,0,-1,993,1394,0,0
-224,-370,0,0,0,0,0,0,0,0,0,-1,1000,1394,0,0
-217,-370,0,0,0,0,0,0,0,0,0,-1,1007,1394,0,0
-210,-370,0,0,0,0,0,0,0,0,0,-1,1014,1394,0,0
-203,-370,0,0,0,0,0,0,0,0,0,-1,1021,1394,0,0
-196,-370,0,0,0,0,0,0,0,0,0,-1,1028,1394,0,0
-189,-370,0,0,0,0,0,0,0,0,0,-1,1035,1394,0,0
-182,-370,0,0,0,0,0,0,0,0,0,-1,1042,1394,0,0
-175,-370,0,0,0,0,0,0,0,0,0,-1,1049,1394,0,0
-168,-370,0,0,0,0,0,0,0,0,0,-1,1056,1394,0,0
-161,-370,0,0,0,0,0,0,0,0,0,-1,1063,1394,0,0
-154,-370,0,0,0,0,0,0,0,0,0,-1,1070,1394,0,0
-147,-370,0,0,0,0,0,0,0,0,0,-1,1077,1394,0,0
-140,-370,0,0,0,0,0,0,0,0,0,-1,1084,1394,0,0
-133,-370,0,0,0,0,0,0,0,0,0,-1,1091,1394,0,0
-126,-370,0,0,0,0,0,0,0,0,0,-1,1098,1394,0,0
-119,-370,0,0,0,0,0,0,0,0,0,-1,1105,1394,0,0
-112,-370,0,0,0,0,0,0,0,0,0,-1,1112,1394,0,0
-105,-370,0,0,0,0,0,0,0,0,0,-1,1119,1394,0,0
-98,-370,0,0,0,0,0,0,0,0,0,-1,1126,1394,0,0
-91,-370,0,0,0,0,0,0,0,0,0,-1,1133,1394,0,0
-84,-370,0,0,0,0,0,0,0,0,0,-1,1140,1394,0,0
-77,-370,0,0,0,0,0,0,0,0,0,-1,1147,1394,0,0
-70,-370,0,0,0,0,0,0,0,0,0,-1,1154,1394,0,0
-63,-370,0,0,0,0,0,0,0,0,0,-1,1161,1394,0,0
-56,-370,0,0,0,0,0,0,0,0,0,-1,1168,1394,0,0
-49,-370,0,0,0,0,0,0,0,0,0,-1,1175,1394,0,0
-42,-370,0,0,0,0,0,0,0,0,0,-1,1182,1394,0,0
-35,-370,0,0,0,0,0,0,0,0,0,-1,1189,1394,0,0
-28,-370,0,0,0,0,0,0,0,0,0,-1,1196,1394,0,0
-21,-370,0,0,0,0,0,0,0,0,0,-1,1203,1394,0,0
-14,-370,0,0,0,0,0,0,0,0,0,-1,1210,1394,0,0
-7,-370,0,0,0,0,0,0,0,0,0,-1,1217,1394,0,0
0,-370,0,0,0,0,0,0,0,0,0,-1,1224,1394,0,0
7,-370,0,0,0,0,0,0,0,0,0,-1,1231,1394,0,0
14,-370,0,0,0,0,0,0,0,0,0,-1,1238,1394,0,0
21,-370,0,0,0,0,0,0,0,0,0,-1,1245,1394,0,0
28,-370,0,0,0,0,0,0,0,0,0,-1,1252,1394,0,0
35,-370,0,0,0,0,0,0,0,0,0,-1,1259,1394,0,0
42,-370,0,0,0,0,0,0,0,0,0,-1,1266,1394,0,0
49,-370,0,0,0,0,0,0,0,0,0,-1,1273,1394,0,0
56,-370,0,0,0,0,0,0,0,0,0,-1,1280,1394,0,0
63,-370,0,0,0,0,0,0,0,0,0,-1,1287,1394,0,0
70,-370,0,0,0,0,0,0,0,0,0,-1,1294,1394,0,0
77,-370,0,0,0,0,0,0,0,0,0,-1,1301,1394,0,0
84,-370,0,0,0,0,0,0,0,0,0,-1,1308,1394,0,0
91,-370,0,0,0,0,0,0,0,0,0,-1,1315,1394,0,0
98,-370,0,0,0,0,0,0,0,0,0,-1,1322,1394,0,0
105,-370,0,0,0,0,0,0,0,0,0,-1,1329,1394,0,0
112,-370,0,0,0,0,0,0,0,0,0,-1,1336,1394,0,0
119,-370,0,0,0,0,0,0,0,0,0,-1,1343,1394,0,0
126,-370,0,0,0,0,0,0,0,0,0,-1,1350,1394,0,0
133,-370,0,0,0,0,0,0,0,0,0,-1,1357,1394,0,0
140,-370,0,0,0,0,0,0,0,0,0,-1,1364,1394,0,0
147,-370,0,0,0,0,0,0,0,0,0,-1,1371,1394,0,0
154,-370,0,0,0,0,0,0,0,0,0,-1,1378,1394,0,0
161,-370,0,0,0,0,0,0,0,0,0,-1,1385,1394,0,0
168,-370,0,0,0,0,0,0,0,0,0,-1,1392,1394,0,0
175,-370,0,0,0,0,0,0,0,0,0,-1,1399,1394,0,0
182,-370,0,0,0,0,0,0,0,0,0,-1,1406,1394,0,0
189,-370,0,0,0,0,0,0,0,0,0,-1,1413,1394,0,0
196,-370,0,0,0,0,0,0,0,0,0,-1,1420,1394,0,0
203,-370,0,0,0,0,0,0,0,0,0,-1,1427,1394,0,0
210,-370,0,0,0,0,0,0,0,0,0,-1,1434,1394,0,0
217,-370,0,0,0,0,0,0,0,0,0,-1,1441,1394,0,0
224,-370,0,0,0,0,0,0,0,0,0,-1,1448,1394,0,0
231,-370,0,0,0,0,0,0,0,0,0,-1,1455,1394,0,0
238,-370,0,0,0,0,0,0,0,0,0,-1,1462,1394,0,0
245,-370,0,0,0,0,0,0,0,0,0,-1,1469,1394,0,0
252,-370,0,0,0,0,0,0,0,0,0,-1,1476,1394,0,0
259,-370,0,0,0,0,0,0,0,0,0,-1,1483,1394,0,0
266,-370,0,0,0,0,0,0,0,0,0,-1,1490,1394,0,0
273,-370,0,0,0,0,0,0,0,0,0,-1,1497,1394,0,0
280,-370,0,0,0,0,0,0,0,0,0,-1,1504,1394,0,0
287,-370,0,0,0,0,0,0,0,0,0,-1,1511,1394,0,0
294,-370,0,0,0,0,0,0,0,0,0,-1,1518,1394,0,0
301,-370,0,0,0,0,0,0,0,0,0,-1,1525,1394,0,0
308,-370,0,0,0,0,0,0,0,0,0,-1,1532,1394,0,0
315,-370,0,0,0,0,0,0,0,0,0,-1,1539,1394,0,0
322,-370,0,0,0,0,0,0,0,0,0,-1,1546,1394,0,0
329,-370,0,0,0,0,0,0,0,0,0,-1,1553,1394,0,0
336,-370,0,0,0,0,0,0,0,0,0,-1,1560,1394,0,0
343,-370,0,0,0,0,0,0,0,0,0,-1,1567,1394,0,0
350,-370,0,0,0,0,0,0,0,0,0,-1,1574,1394,0,0
357,-370,0,0,0,0,0,0,0,0,0,-1,1581,1394,0,0
364,-370,0,0,0,0,0,0,0,0,0,-1,1588,1394,0,0
371,-370,0,0,0,0,0,0,0,0,0,-1,1595,1394,0,0
378,-370,0,0,0,0,0,0,0,0,0,-1,1602,1394,0,0
385,-370,0,0,0,0,0,0,0,0,0,-1,1609,1394,0,0
392,-370,0,0,0,0,0,0,0,0,0,-1,1616,1394,0,0
399,-370,0,0,0,0,0,0,0,0,0,-1,1623,1394,0,0
406,-370,0,0,0,0,0,0,0,0,0,-1,1630,1394,0,0
413,-370,0,0,0,0,0,0,0,0,0,-1,1637,1394,0,0
420,-370,0,0,0,0,0,0,0,0,0,-1,1644,1394,0,0
427,-370,0,0,0,0,0,0,0,0,0,-1,1651,1394,0,0
434,-370,0,0,0,0,0,0,0,0,0,-1,1658,1394,0,0
441,-370,0,0,0,0,0,0,0,0,0,-1,1665,1394,0,0
448,-370,0,0,0,0,0,0,0,0,0,-1,1672,1394,0,0
455,-370,0,0,0,0,0,0,0,0,0,-1,1679,1394,0,0
462,-370,0,0,0,0,0,0,0,0,0,-1,1686,1394,0,0
469,-370,0,0,0,0,0,0,0,0,0,-1,1693,1394,0,0
476,-370,0,0,0,0,0,0,0,0,0,-1,1700,1394,0,0
483,-370,0,0,0,0,0,0,0,0,0,-1,1707,1394,0,0
490,-370,0,0,0,0,0,0,0,0,0,-1,1714,1394,0,0
497,-370,0,0,0,0,0,0,0,0,0,-1,1721,1394,0,0
504,-370,0,0,0,0,0,0,0,0,0,-1,1728,1394,0,0
511,-370,0,0,0,0,0,0,0,0,0,-1,1735,1394,0,0
518,-370,0,0,0,0,0,0,0,0,0,-1,1742,1394,0,0
525,-370,0,0,0,0,0,0,0,0,0,-1,1749,1394,0,0
532,-370,0,0,0,0,0,0,0,0,0,-1,1756,1394,0,0
539,-370,0,0,0,0,0,0,0,0,0,-1,1763,1394,0,0
546,-370,21.7084,0.258667,0,0,0,0,0,0,0,-1,1770,1394,21.7084,-0.258678
553,-370,20.9537,1.46118,0,0,0,0,0,0,0,-1,1777,1394,20.9537,-1.46115
560,-370,20.2441,2.65051,0,0,0,0,0,0,0,-1,1784,1394,20.2442,-2.65048
567,-370,19.6786,3.53052,0,0,0,0,0,0,0,-1,1791,1394,19.6786,-3.53051
574,-370,13.203,4.47705,0,0,0,0,0,0,0,-1,1798,1394,13.203,-4.47703
581,-370,14.5411,3.60901,0,0,0,0,0,0,0,-1,1805,1394,14.5411,-3.60901
588,-370,15.6494,2.86951,0,0,0,0,0,0,0,-1,1812,1394,15.6494,-2.86946
595,-370,14.8816,2.97034,0,0,0,0,0,0,0,-1,1819,1394,14.8816,-2.97028
602,-370,13.8323,4.88599,0,0,0,0,0,0,0,-1,1826,1394,13.8323,-4.88596
609,-370,12.1858,4.37817,0,0,0,0,0,0,0,-1,1833,1394,12.1857,-4.37816
616,-370,12.6864,5.22473,0,0,0,0,0,0,0,-1,1840,1394,12.6863,-5.22475
623,-370,13.8381,6.45618,0,0,0,0,0,0,0,-1,1847,1394,13.8381,-6.4562
630,-370,14.0071,6.85815,-0.0102723,-0.0081566,0.0105467,0.00138512,-0.019814,0.835382,0.0136944,0.0370752,1854,1394,14.007,-6.8581
637,-370,13.7854,6.86487,-0.0074683,-0.00709154,0.00796896,0.000691271,-0.0152511,0.797216,0.0104055,0.0254886,1861,1394,13.7854,-6.86483
644,-370,13.8927,6.62402,-0.00520747,-0.00557454,0.00580615,0.000418049,-0.0112001,0.769598,0.00760988,0.011611,1868,1394,13.8927,-6.62402
651,-370,13.9314,6.41272,-0.00313942,-0.00403075,0.00403168,0.00047115,-0.00764132,0.730352,0.0052583,0.0113015,1875,1394,13.9314,-6.41271
658,-370,13.9427,6.22632,-0.00207031,-0.0031802,0.00290564,0.000332904,-0.00558341,0.691041,0.00383806,0.0112531,1882,1394,13.9428,-6.22627
665,-370,13.9044,6.04565,-0.000650196,-0.00184316,0.00192084,0.000764641,-0.00325799,0.634853,0.0024667,0.012399,1889,1394,13.9044,-6.04571
672,-370,13.8977,5.8468,0.00039525,-0.000970053,0.00121214,0.00110375,-0.00167855,0.528945,0.00161774,0.0132408,1896,1394,13.8977,-5.84677
679,-370,13.9359,5.62732,0.00139099,-0.00011453,0.000650584,0.00163317,-0.000356711,0.356359,0.00122512,0.0132408,1903,1394,13.9359,-5.62728
686,-370,13.9406,5.42346,0.00254378,0.000569155,0.000169514,0.00255823,0.000554708,0.0850172,0.00155394,0.0137605,1910,1394,13.9406,-5.42349
693,-370,13.9183,5.20044,0.00389128,0.00107115,-0.000201031,0.00390554,0.00105689,-0.070807,0.00233262,0.0122601,1917,1394,13.9183,-5.20039
700,-370,13.98,4.97803,0.00557259,0.00178194,-0.000615141,0.00566992,0.00168461,-0.156915,0.00336216,0.0189911,1924,1394,13.98,-4.97807
707,-370,13.9756,4.88147,0.0077796,0.00271985,-0.00127351,0.00808206,0.0024174,-0.233178,0.00479008,0.031015,1931,1394,13.9756,-4.88147
714,-370,14.5635,4.4668,0.010785,0.0042324,-0.00232416,0.0115256,0.00349175,-0.3085,0.00682438,0.0442689,1938,1394,14.5635,-4.46679
721,-370,15.2753,4.05359,0,0,0,0,0,0,0,-1,1945,1394,15.2753,-4.05364
728,-370,14.614,4.88318,0,0,0,0,0,0,0,-1,1952,1394,14.6141,-4.88324
735,-370,15.9586,5.35278,0,0,0,0,0,0,0,-1,1959,1394,15.9586,-5.35274
742,-370,12.6914,4.10376,0,0,0,0,0,0,0,-1,1966,1394,12.6914,-4.10374
749,-370,0,0,0,0,0,0,0,0,0,-1,1973,1394,0,0
756,-370,0,0,0,0,0,0,0,0,0,-1,1980,1394,0,0
763,-370,0,0,0,0,0,0,0,0,0,-1,1987,1394,0,0
770,-370,0,0,0,0,0,0,0,0,0,-1,1994,1394,0,0
777,-370,0,0,0,0,0,0,0,0,0,-1,2001,1394,0,0
784,-370,0,0,0,0,0,0,0,0,0,-1,2008,1394,0,0
791,-370,0,0,0,0,0,0,0,0,0,-1,2015,1394,0,0
798,-370,0,0,0,0,0,0,0,0,0,-1,2022,1394,0,0
805,-370,0,0,0,0,0,0,0,0,0,-1,2029,1394,0,0
812,-370,0,0,0,0,0,0,0,0,0,-1,2036,1394,0,0
-700,-377,0,0,0,0,0,0,0,0,0,-1,524,1401,0,0
-693,-377,0,0,0,0,0,0,0,0,0,-1,531,1401,0,0
-686,-377,0,0,0,0,0,0,0,0,0,-1,538,1401,0,0
-679,-377,0,0,0,0,0,0,0,0,0,-1,545,1401,0,0
-672,-377,0,0,0,0,0,0,0,0,0,-1,552,1401,0,0
-665,-377,0,0,0,0,0,0,0,0,0,-1,559,1401,0,0
-658,-377,0,0,0,0,0,0,0,0,0,-1,566,1401,0,0
-651,-377,0,0,0,0,0,0,0,0,0,-1,573,1401,0,0
-644,-377,0,0,0,0,0,0,0,0,0,-1,580,1401,0,0
-637,-377,0,0,0,0,0,0,0,0,0,-1,587,1401,0,0
-630,-377,0,0,0,0,0,0,0,0,0,-1,594,1401,0,0
-623,-377,0,0,0,0,0,0,0,0,0,-1,601,1401,0,0
-616,-377,-9.43915,-2.4906,0,0,0,0,0,0,0,-1,608,1401,-9.43915,2.49062
-609,-377,-7.2821,-1.35278,0,0,0,0,0,0,0,-1,615,1401,-7.28208,1.35279
-602,-377,-5.72253,0.430298,0,0,0,0,0,0,0,-1,622,1401,-5.72251,-0.430334
-595,-377,-5.17291,0.74292,0,0,0,0,0,0,0,-1,629,1401,-5.17289,-0.74293
-588,-377,-7.99805,3.62024,0,0,0,0,0,0,0,-1,636,1401,-7.99803,-3.6202
-581,-377,-7.08624,3.73718,0,0,0,0,0,0,0,-1,643,1401,-7.08624,-3.73715
-574,-377,-5.15106,2.80652,0.0535002,0.00981939,0.00147223,0.0535498,0.00976982,0.0336534,0.0329299,0.044978,650,1401,-5.15105,-2.80652
-567,-377,-5.04993,3.04797,0.0404726,0.00616481,0.000657071,0.0404852,0.00615223,0.0191429,0.0251911,0.0296223,657,1401,-5.0499,-3.04802
-560,-377,-5.15747,3.21057,0.0298014,0.0036577,0.000104217,0.0298018,0.00365728,0.00398622,0.0187679,0.0209741,664,1401,-5.15749,-3.2106
-553,-377,-5.10974,3.41138,0.021284,0.00194171,-0.00024285,0.0212871,0.00193866,-0.0125528,0.0135913,0.0120164,671,1401,-5.10972,-3.41135
-546,-377,-5.11414,3.68921,0.0145874,0.000784023,-0.000393144,0.0145986,0.000772834,-0.028451,0.00948527,0.0154846,678,1401,-5.11416,-3.68925
-539,-377,-5.0946,3.88232,0.00946466,-6.96578e-05,-0.000484786,0.00948924,-9.42447e-05,-0.0506723,0.00635781,0.0215586,685,1401,-5.09458,-3.88234
-532,-377,-5.11182,4.11035,0.00526716,-0.0008762,-0.000697578,0.00534538,-0.000954414,-0.111656,0.00392064,0.0203112,692,1401,-5.11181,-4.11036
-525,-377,-5.05078,4.36511,0.00309462,-0.00191295,-0.000743148,0.00320258,-0.00202091,-0.144264,0.0030414,0.0183802,699,1401,-5.0508,-4.3651
-518,-377,-5.10474,4.58313,0.0029425,-0.0034494,-0.00102954,0.00310423,-0.00361114,-0.155821,0.0038808,0.0121027,706,1401,-5.10472,-4.58311
-511,-377,-5.12372,4.82446,0.00280896,-0.00587756,-0.00246216,0.0034583,-0.00652691,-0.25786,0.00585501,0.0114126,713,1401,-5.12374,-4.82451
-504,-377,-5.12952,5.0636,0.00308075,-0.0108692,-0.00472627,0.00453121,-0.0123197,-0.297767,0.0100693,0.0115629,720,1401,-5.12953,-5.06363
-497,-377,-4.93915,5.28394,0.00336626,-0.0168676,-0.00756043,0.00587915,-0.0193805,-0.320887,0.0152623,0.0219186,727,1401,-4.93917,-5.2839
-490,-377,-4.67712,5.58228,0,0,0,0,0,0,0,-1,734,1401,-4.67711,-5.58223
-483,-377,-5.6524,5.07324,0,0,0,0,0,0,0,-1,741,1401,-5.6524,-5.07325
-476,-377,-6.11682,5.10535,0,0,0,0,0,0,0,-1,748,1401,-6.11681,-5.10537
-469,-377,-7.84436,5.07422,0,0,0,0,0,0,0,-1,755,1401,-7.84437,-5.07423
-462,-377,-9.59265,6.021,0,0,0,0,0,0,0,-1,762,1401,-9.59264,-6.02104
-455,-377,-10.957,7.35364,0,0,0,0,0,0,0,-1,769,1401,-10.957,-7.35362
-448,-377,-9.05334,0.877319,0,0,0,0,0,0,0,-1,776,1401,-9.05332,-0.877324
-441,-377,-10.5236,0.856934,0,0,0,0,0,0,0,-1,783,1401,-10.5236,-0.856874
-434,-377,-11.0984,0.996216,0,0,0,0,0,0,0,-1,790,1401,-11.0984,-0.996265
-427,-377,-11.1733,1.25732,0,0,0,0,0,0,0,-1,797,1401,-11.1733,-1.25732
-420,-377,0,0,0,0,0,0,0,0,0,-1,804,1401,0,0
-413,-377,0,0,0,0,0,0,0,0,0,-1,811,1401,0,0
-406,-377,0,0,0,0,0,0,0,0,0,-1,818,1401,0,0
-399,-377,0,0,0,0,0,0,0,0,0,-1,825,1401,0,0
-392,-377,0,0,0,0,0,0,0,0,0,-1,832,1401,0,0
-385,-377,0,0,0,0,0,0,0,0,0,-1,839,1401,0,0
-378,-377,0,0,0,0,0,0,0,0,0,-1,846,1401,0,0
-371,-377,0,0,0,0,0,0,0,0,0,-1,853,1401,0,0
-364,-377,0,0,0,0,0,0,0,0,0,-1,860,1401,0,0
-357,-377,0,0,0,0,0,0,0,0,0,-1,867,1401,0,0
-350,-377,0,0,0,0,0,0,0,0,0,-1,874,1401,0,0
-343,-377,0,0,0,0,0,0,0,0,0,-1,881,1401,0,0
-336,-377,0,0,0,0,0,0,0,0,0,-1,888,1401,0,0
-329,-377,0,0,0,0,0,0,0,0,0,-1,895,1401,0,0
-322,-377,0,0,0,0,0,0,0,0,0,-1,902,1401,0,0
-315,-377,0,0,0,0,0,0,0,0,0,-1,909,1401,0,0
-308,-377,0,0,0,0,0,0,0,0,0,-1,916,1401,0,0
-301,-377,0,0,0,0,0,0,0,0,0,-1,923,1401,0,0
-294,-377,0,0,0,0,0,0,0,0,0,-1,930,1401,0,0
-287,-377,0,0,0,0,0,0,0,0,0,-1,937,1401,0,0
-280,-377,0,0,0,0,0,0,0,0,0,-1,944,1401,0,0
-273,-377,0,0,0,0,0,0,0,0,0,-1,951,1401,0,0
-266,-377,0,0,0,0,0,0,0,0,0,-1,958,1401,0,0
-259,-377,0,0,0,0,0,0,0,0,0,-1,965,1401,0,0
-252,-377,0,0,0,0,0,0,0,0,0,-1,972,1401,0,0
-245,-377,0,0,0,0,0,0,0,0,0,-1,979,1401,0,0
-238,-377,0,0,0,0,0,0,0,0,0,-1,986,1401,0,0
-231,-377,0,0,0,0,0,0,0,0,0,-1,993,1401,0,0
-224,-377,0,0,0,0,0,0,0,0,0,-1,1000,1401,0,0
-217,-377,0,0,0,0,0,0,0,0,0,-1,1007,1401,0,0
-210,-377,0,0,0,0,0,0,0,0,0,-1,1014,1401,0,0
-203,-377,0,0,0,0,0,0,0,0,0,-1,1021,1401,0,0
-196,-377,0,0,0,0,0,0,0,0,0,-1,1028,1401,0,0
-189,-377,0,0,0,0,0,0,0,0,0,-1,1035,1401,0,0
-182,-377,0,0,0,0,0,0,0,0,0,-1,1042,1401,0,0
-175,-377,0,0,0,0,0,0,0,0,0,-1,1049,1401,0,0
-168,-377,0,0,0,0,0,0,0,0,0,-1,1056,1401,0,0
-161,-377,0,0,0,0,0,0,0,0,0,-1,1063,1401,0,0
-154,-377,0,0,0,0,0,0,0,0,0,-1,1070,1401,0,0
-147,-377,0,0,0,0,0,0,0,0,0,-1,1077,1401,0,0
-140,-377,0,0,0,0,0,0,0,0,0,-1,1084,1401,0,0
-133,-377,0,0,0,0,0,0,0,0,0,-1,1091,1401,0,0
-126,-377,0,0,0,0,0,0,0,0,0,-1,1098,1401,0,0
-119,-377,0,0,0,0,0,0,0,0,0,-1,1105,1401,0,0
-112,-377,0,0,0,0,0,0,0,0,0,-1,1112,1401,0,0
-105,-377,0,0,0,0,0,0,0,0,0,-1,1119,1401,0,0
-98,-377,0,0,0,0,0,0,0,0,0,-1,1126,1401,0,0
-91,-377,0,0,0,0,0,0,0,0,0,-1,1133,1401,0,0
-84,-377,0,0,0,0,0,0,0,0,0,-1,1140,1401,0,0
-77,-377,0,0,0,0,0,0,0,0,0,-1,1147,1401,0,0
-70,-377,0,0,0,0,0,0,0,0,0,-1,1154,1401,0,0
-63,-377,0,0,0,0,0,0,0,0,0,-1,1161,1401,0,0
-56,-377,0,0,0,0,0,0,0,0,0,-1,1168,1401,0,0
-49,-377,0,0,0,0,0,0,0,0,0,-1,1175,1401,0,0
-42,-377,0,0,0,0,0,0,0,0,0,-1,1182,1401,0,0
-35,-377,0,0,0,0,0,0,0,0,0,-1,1189,1401,0,0
-28,-377,0,0,0,0,0,0,0,0,0,-1,1196,1401,0,0
-21,-377,0,0,0,0,0,0,0,0,0,-1,1203,1401,0,0
-14,-377,0,0,0,0,0,0,0,0,0,-1,1210,1401,0,0
-7,-377,0,0,0,0,0,0,0,0,0,-1,1217,1401,0,0
0,-377,0,0,0,0,0,0,0,0,0,-1,1224,1401,0,0
7,-377,0,0,0,0,0,0,0,0,0,-1,1231,1401,0,0
14,-377,0,0,0,0,0,0,0,0,0,-1,1238,1401,0,0
21,-377,0,0,0,0,0,0,0,0,0,-1,1245,1401,0,0
28,-377,0,0,0,0,0,0,0,0,0,-1,1252,1401,0,0
35,-377,0,0,0,0,0,0,0,0,0,-1,1259,1401,0,0
42,-377,0,0,0,0,0,0,0,0,0,-1,1266,1401,0,0
49,-377,0,0,0,0,0,0,0,0,0,-1,1273,1401,0,0
56,-377,0,0,0,0,0,0,0,0,0,-1,1280,1401,0,0
63,-377,0,0,0,0,0,0,0,0,0,-1,1287,1401,0,0
70,-377,0,0,0,0,0,0,0,0,0,-1,1294,1401,0,0
77,-377,0,0,0,0,0,0,0,0,0,-1,1301,1401,0,0
84,-377,0,0,0,0,0,0,0,0,0,-1,1308,1401,0,0
91,-377,0,0,0,0,0,0,0,0,0,-1,1315,1401,0,0
98,-377,0,0,0,0,0,0,0,0,0,-1,1322,1401,0,0
105,-377,0,0,0,0,0,0,0,0,0,-1,1329,1401,0,0
112,-377,0,0,0,0,0,0,0,0,0,-1,1336,1401,0,0
119,-377,0,0,0,0,0,0,0,0,0,-1,1343,1401,0,0
126,-377,0,0,0,0,0,0,0,0,0,-1,1350,1401,0,0
133,-377,0,0,0,0,0,0,0,0,0,-1,1357,1401,0,0
140,-377,0,0,0,0,0,0,0,0,0,-1,1364,1401,0,0
147,-377,0,0,0,0,0,0,0,0,0,-1,1371,1401,0,0
154,-377,0,0,0,0,0,0,0,0,0,-1,1378,1401,0,0
161,-377,0,0,0,0,0,0,0,0,0,-1,1385,1401,0,0
168,-377,0,0,0,0,0,0,0,0,0,-1,1392,1401,0,0
175,-377,0,0,0,0,0,0,0,0,0,-1,1399,1401,0,0
182,-377,0,0,0,0,0,0,0,0,0,-1,1406,1401,0,0
189,-377,0,0,0,0,0,0,0,0,0,-1,1413,1401,0,0
196,-377,0,0,0,0,0,0,0,0,0,-1,1420,1401,0,0
203,-377,0,0,0,0,0,0,0,0,0,-1,1427,1401,0,0
210,-377,0,0,0,0,0,0,0,0,0,-1,1434,1401,0,0
217,-377,0,0,0,0,0,0,0,0,0,-1,1441,1401,0,0
224,-377,0,0,0,0,0,0,0,0,0,-1,1448,1401,0,0
231,-377,0,0,0,0,0,0,0,0,0,-1,1455,1401,0,0
238,-377,0,0,0,0,0,0,0,0,0,-1,1462,1401,0,0
245,-377,0,0,0,0,0,0,0,0,0,-1,1469,1401,0,0
252,-377,0,0,0,0,0,0,0,0,0,-1,1476,1401,0,0
259,-377,0,0,0,0,0,0,0,0,0,-1,1483,1401,0,0
266,-377,0,0,0,0,0,0,0,0,0,-1,1490,1401,0,0
273,-377,0,0,0,0,0,0,0,0,0,-1,1497,1401,0,0
280,-377,0,0,0,0,0,0,0,0,0,-1,1504,1401,0,0
287,-377,0,0,0,0,0,0,0,0,0,-1,1511,1401,0,0
294,-377,0,0,0,0,0,0,0,0,0,-1,1518,1401,0,0
301,-377,0,0,0,0,0,0,0,0,0,-1,1525,1401,0,0
308,-377,0,0,0,0,0,0,0,0,0,-1,1532,1401,0,0
315,-377,0,0,0,0,0,0,0,0,0,-1,1539,1401,0,0
322,-377,0,0,0,0,0,0,0,0,0,-1,1546,1401,0,0
329,-377,0,0,0,0,0,0,0,0,0,-1,1553,1401,0,0
336,-377,0,0,0,0,0,0,0,0,0,-1,1560,1401,0,0
343,-377,0,0,0,0,0,0,0,0,0,-1,1567,1401,0,0
350,-377,0,0,0,0,0,0,0,0,0,-1,1574,1401,0,0
357,-377,0,0,0,0,0,0,0,0,0,-1,1581,1401,0,0
364,-377,0,0,0,0,0,0,0,0,0,-1,1588,1401,0,0
371,-377,0,0,0,0,0,0,0,0,0,-1,1595,1401,0,0
378,-377,0,0,0,0,0,0,0,0,0,-1,1602,1401,0,0
385,-377,0,0,0,0,0,0,0,0,0,-1,1609,1401,0,0
392,-377,0,0,0,0,0,0,0,0,0,-1,1616,1401,0,0
399,-377,0,0,0,0,0,0,0,0,0,-1,1623,1401,0,0
406,-377,0,0,0,0,0,0,0,0,0,-1,1630,1401,0,0
413,-377,0,0,0,0,0,0,0,0,0,-1,1637,1401,0,0
420,-377,0,0,0,0,0,0,0,0,0,-1,1644,1401,0,0
427,-377,0,0,0,0,0,0,0,0,0,-1,1651,1401,0,0
434,-377,0,0,0,0,0,0,0,0,0,-1,1658,1401,0,0
441,-377,0,0,0,0,0,0,0,0,0,-1,1665,1401,0,0
448,-377,0,0,0,0,0,0,0,0,0,-1,1672,1401,0,0
455,-377,0,0,0,0,0,0,0,0,0,-1,1679,1401,0,0
462,-377,0,0,0,0,0,0,0,0,0,-1,1686,1401,0,0
469,-377,0,0,0,0,0,0,0,0,0,-1,1693,1401,0,0
476,-377,0,0,0,0,0,0,0,0,0,-1,1700,1401,0,0
483,-377,0,0,0,0,0,0,0,0,0,-1,1707,1401,0,0
490,-377,0,0,0,0,0,0,0,0,0,-1,1714,1401,0,0
497,-377,0,0,0,0,0,0,0,0,0,-1,1721,1401,0,0
504,-377,0,0,0,0,0,0,0,0,0,-1,1728,1401,0,0
511,-377,0,0,0,0,0,0,0,0,0,-1,1735,1401,0,0
518,-377,0,0,0,0,0,0,0,0,0,-1,1742,1401,0,0
525,-377,0,0,0,0,0,0,0,0,0,-1,1749,1401,0,0
532,-377,0,0,0,0,0,0,0,0,0,-1,1756,1401,0,0
539,-377,0,0,0,0,0,0,0,0,0,-1,1763,1401,0,0
546,-377,22.3663,0.877319,0,0,0,0,0,0,0,-1,1770,1401,22.3663,-0.877268
553,-377,21.2521,1.89001,0,0,0,0,0,0,0,-1,1777,1401,21.252,-1.89003
560,-377,20.1377,2.90283,0,0,0,0,0,0,0,-1,1784,1401,20.1378,-2.90279
567,-377,15.1582,2.81689,0,0,0,0,0,0,0,-1,1791,1401,15.1583,-2.81688
574,-377,12.252,3.49695,0,0,0,0,0,0,0,-1,1798,1401,12.2519,-3.49692
581,-377,13.7461,2.83679,0,0,0,0,0,0,0,-1,1805,1401,13.7461,-2.8368
588,-377,15.2402,2.17664,0,0,0,0,0,0,0,-1,1812,1401,15.2402,-2.17669
595,-377,13.0044,2.7074,0,0,0,0,0,0,0,-1,1819,1401,13.0044,-2.70745
602,-377,13.0537,3.23193,0,0,0,0,0,0,0,-1,1826,1401,13.0537,-3.23191
609,-377,15.0223,4.76135,0,0,0,0,0,0,0,-1,1833,1401,15.0224,-4.76129
616,-377,14.1842,5.78992,0,0,0,0,0,0,0,-1,1840,1401,14.1842,-5.78987
623,-377,13.9341,7.44946,0,0,0,0,0,0,0,-1,1847,1401,13.9341,-7.44941
630,-377,13.7382,7.12549,-0.00885657,-0.00855697,0.00943998,0.000734403,-0.0181479,0.793332,0.0123507,0.0350404,1854,1401,13.7382,-7.12552
637,-377,13.6686,6.86938,-0.00635629,-0.0068984,0.00698855,0.000366461,-0.0136212,0.766015,0.00920535,0.0134389,1861,1401,13.6686,-6.86932
644,-377,13.6957,6.65112,-0.00437949,-0.00516549,0.00504113,0.000283936,-0.00982891,0.746498,0.00664927,0.0110537,1868,1401,13.6956,-6.65109
651,-377,13.7328,6.43933,-0.00270524,-0.00355734,0.00349642,0.000390996,-0.00665357,0.72477,0.00457162,0.0124296,1875,1401,13.7328,-6.43932
658,-377,13.7424,6.23218,-0.0016308,-0.00264756,0.00253162,0.000442973,-0.00472134,0.68631,0.00330513,0.0130387,1882,1401,13.7424,-6.23217
665,-377,13.7175,6.01184,-0.000387714,-0.00145993,0.00179403,0.000948594,-0.00279624,0.640207,0.00224809,0.0150596,1889,1401,13.7175,-6.01186
672,-377,13.715,5.80933,0.000451581,-0.000732665,0.00134608,0.00133002,-0.0016111,0.578193,0.00170064,0.0153939,1896,1401,13.7149,-5.80929
679,-377,13.6895,5.63269,0.00127932,-8.69374e-05,0.00109027,0.0018828,-0.000690412,0.505534,0.00153789,0.0163879,1903,1401,13.6895,-5.63267
686,-377,13.7041,5.42395,0.00224447,0.000291774,0.000968528,0.00264337,-0.000107124,0.390689,0.00179902,0.0148301,1910,1401,13.7041,-5.42394
693,-377,13.743,5.19116,0.00346321,0.000468245,0.00102671,0.00378138,0.000150078,0.300506,0.00247241,0.0126098,1917,1401,13.743,-5.19119
700,-377,13.6855,4.96887,0.00521828,0.000850657,0.00106349,0.00546347,0.000605467,0.226593,0.0034582,0.02441,1924,1401,13.6855,-4.96883
707,-377,13.6298,4.81128,0.00762191,0.00133298,0.000955837,0.00776398,0.00119091,0.147549,0.00482822,0.043259,1931,1401,13.6298,-4.81126
714,-377,13.8386,4.52808,0.0109697,0.00232623,0.000540536,0.0110034,0.00229255,0.062214,0.00670336,0.0486466,1938,1401,13.8387,-4.5281
721,-377,14.0786,4.35669,0,0,0,0,0,0,0,-1,1945,1401,14.0786,-4.3567
728,-377,14.5396,2.79724,0,0,0,0,0,0,0,-1,1952,1401,14.5396,-2.7972
735,-377,16.2814,5.49353,0,0,0,0,0,0,0,-1,1959,1401,16.2814,-5.49358
742,-377,0,0,0,0,0,0,0,0,0,-1,1966,1401,0,0
749,-377,0,0,0,0,0,0,0,0,0,-1,1973,1401,0,0
756,-377,0,0,0,0,0,0,0,0,0,-1,1980,1401,0,0
763,-377,0,0,0,0,0,0,0,0,0,-1,1987,1401,0,0
770,-377,0,0,0,0,0,0,0,0,0,-1,1994,1401,0,0
777,-377,0,0,0,0,0,0,0,0,0,-1,2001,1401,0,0
784,-377,0,0,0,0,0,0,0,0,0,-1,2008,1401,0,0
791,-377,0,0,0,0,0,0,0,0,0,-1,2015,1401,0,0
798,-377,0,0,0,0,0,0,0,0,0,-1,2022,1401,0,0
805,-377,0,0,0,0,0,0,0,0,0,-1,2029,1401,0,0
812,-377,0,0,0,0,0,0,0,0,0,-1,2036,1401,0,0
-700,-384,0,0,0,0,0,0,0,0,0,-1,524,1408,0,0
-693,-384,0,0,0,0,0,0,0,0,0,-1,531,1408,0,0
-686,-384,0,0,0,0,0,0,0,0,0,-1,538,1408,0,0
-679,-384,0,0,0,0,0,0,0,0,0,-1,545,1408,0,0
-672,-384,0,0,0,0,0,0,0,0,0,-1,552,1408,0,0
-665,-384,0,0,0,0,0,0,0,0,0,-1,559,1408,0,0
-658,-384,0,0,0,0,0,0,0,0,0,-1,566,1408,0,0
-651,-384,0,0,0,0,0,0,0,0,0,-1,573,1408,0,0
-644,-384,0,0,0,0,0,0,0,0,0,-1,580,1408,0,0
-637,-384,0,0,0,0,0,0,0,0,0,-1,587,1408,0,0
-630,-384,0,0,0,0,0,0,0,0,0,-1,594,1408,0,0
-623,-384,0,0,0,0,0,0,0,0,0,-1,601,1408,0,0
-616,-384,-10.019,-3.36646,0,0,0,0,0,0,0,-1,608,1408,-10.019,3.36648
-609,-384,-7.72357,-2.3418,0,0,0,0,0,0,0,-1,615,1408,-7.72358,2.34182
-602,-384,-5.59833,-1.04639,0,0,0,0,0,0,0,-1,622,1408,-5.59835,1.04638
-595,-384,-9.03687,3.3645,0,0,0,0,0,0,0,-1,629,1408,-9.03685,-3.36456
-588,-384,-8.05652,3.41455,0.116785,0.0230047,0.00573045,0.117134,0.0226559,0.0608034,0.07174,0.0459332,636,1408,-8.05652,-3.41456
-581,-384,-7.10486,3.5072,0.0896658,0.0154875,0.00324136,0.0898072,0.0153461,0.0435861,0.0554683,0.0459243,643,1408,-7.10488,-3.50721
-574,-384,-5.10266,2.79785,0.067913,0.0101127,0.0018114,0.0679698,0.010056,0.031298,0.0423609,0.047733,650,1408,-5.10269,-2.79781
-567,-384,-4.75214,3.01221,0.0510888,0.00643916,0.000896683,0.0511068,0.00642117,0.0200719,0.0321453,0.0400586,657,1408,-4.75216,-3.01218
-560,-384,-4.84009,3.20117,0.0373115,0.0039439,0.000289676,0.037314,0.00394139,0.0086805,0.0236718,0.0284504,664,1408,-4.8401,-3.20113
-553,-384,-4.87836,3.40967,0.0264741,0.0022614,-7.62873e-05,0.0264744,0.00226116,-0.00315067,0.0169462,0.0190304,671,1408,-4.87836,-3.40969
-546,-384,-4.87665,3.66772,0.0180826,0.00115214,-0.000223808,0.0180855,0.00114918,-0.0132162,0.0116928,0.0141406,678,1408,-4.87667,-3.66778
-539,-384,-4.92767,3.87109,0.0117912,0.000336129,-0.000297379,0.0117989,0.000328413,-0.0259372,0.0077588,0.0159725,685,1408,-4.92769,-3.87114
-532,-384,-4.88525,4.07703,0.00666446,-0.000473857,-0.00050301,0.00669973,-0.000509128,-0.0700051,0.00464551,0.0211348,692,1408,-4.88526,-4.07701
-525,-384,-4.85889,4.34937,0.00350408,-0.00124934,-0.000423693,0.00354155,-0.00128681,-0.0882078,0.00288719,0.0199459,699,1408,-4.85889,-4.34938
-518,-384,-4.87585,4.59045,0.0024232,-0.00210256,-0.000622163,0.00250717,-0.00218653,-0.134157,0.00271201,0.0119392,706,1408,-4.87586,-4.59044
-511,-384,-4.8963,4.83032,0.00173298,-0.00351604,-0.00177287,0.00227567,-0.00405872,-0.297048,0.00370514,0.0102835,713,1408,-4.89631,-4.83034
-504,-384,-4.89221,5.06824,0.00129398,-0.00681405,-0.00366754,0.00270676,-0.00822683,-0.367694,0.00657522,0.0115489,720,1408,-4.89219,-5.06828
-497,-384,-4.87274,5.31714,0.000561014,-0.0108762,-0.0061286,0.00322466,-0.0135398,-0.409996,0.0102716,0.0144938,727,1408,-4.87272,-5.3171
-490,-384,-4.7251,5.54797,-0.00114518,-0.0167121,-0.00988401,0.00365214,-0.0215094,-0.451869,0.0156992,0.0343649,734,1408,-4.7251,-5.54795
-483,-384,-5.20892,5.56177,-0.00337538,-0.0237895,-0.0145534,0.00419353,-0.0313584,-0.479582,0.0224345,0.049878,741,1408,-5.20891,-5.56178
-476,-384,-6.02734,5.67761,0,0,0,0,0,0,0,-1,748,1408,-6.02736,-5.6776
-469,-384,-6.84015,5.88599,0,0,0,0,0,0,0,-1,755,1408,-6.84013,-5.88601
-462,-384,-7.52692,6.00439,-0.00444211,-0.0528012,-0.0260065,0.00688877,-0.0641321,-0.410893,0.0452262,0.0463693,762,1408,-7.52693,-6.00435
-455,-384,-8.48425,6.66223,0,0,0,0,0,0,0,-1,769,1408,-8.48426,-6.66229
-448,-384,-9.35529,7.19226,0,0,0,0,0,0,0,-1,776,1408,-9.35531,-7.19226
-441,-384,-10.2661,0.338989,0,0,0,0,0,0,0,-1,783,1408,-10.2661,-0.339015
-434,-384,-10.6449,0.552246,0,0,0,0,0,0,0,-1,790,1408,-10.6449,-0.552216
-427,-384,-10.968,1.10583,0,0,0,0,0,0,0,-1,797,1408,-10.968,-1.10588
-420,-384,-12.5607,4.54858,0,0,0,0,0,0,0,-1,804,1408,-12.5607,-4.54859
-413,-384,0,0,0,0,0,0,0,0,0,-1,811,1408,0,0
-406,-384,0,0,0,0,0,0,0,0,0,-1,818,1408,0,0
-399,-384,0,0,0,0,0,0,0,0,0,-1,825,1408,0,0
-392,-384,0,0,0,0,0,0,0,0,0,-1,832,1408,0,0
-385,-384,0,0,0,0,0,0,0,0,0,-1,839,1408,0,0
-378,-384,0,0,0,0,0,0,0,0,0,-1,846,1408,0,0
-371,-384,0,0,0,0,0,0,0,0,0,-1,853,1408,0,0
-364,-384,0,0,0,0,0,0,0,0,0,-1,860,1408,0,0
-357,-384,0,0,0,0,0,0,0,0,0,-1,867,1408,0,0
-350,-384,0,0,0,0,0,0,0,0,0,-1,874,1408,0,0
-343,-384,0,0,0,0,0,0,0,0,0,-1,881,1408,0,0
-336,-384,0,0,0,0,0,0,0,0,0,-1,888,1408,0,0
-329,-384,0,0,0,0,0,0,0,0,0,-1,895,1408,0,0
-322,-384,0,0,0,0,0,0,0,0,0,-1,902,1408,0,0
-315,-384,0,0,0,0,0,0,0,0,0,-1,909,1408,0,0
-308,-384,0,0,0,0,0,0,0,0,0,-1,916,1408,0,0
-301,-384,0,0,0,0,0,0,0,0,0,-1,923,1408,0,0
-294,-384,0,0,0,0,0,0,0,0,0,-1,930,1408,0,0
-287,-384,0,0,0,0,0,0,0,0,0,-1,937,1408,0,0
-280,-384,0,0,0,0,0,0,0,0,0,-1,944,1408,0,0
-273,-384,0,0,0,0,0,0,0,0,0,-1,951,1408,0,0
-266,-384,0,0,0,0,0,0,0,0,0,-1,958,1408,0,0
-259,-384,0,0,0,0,0,0,0,0,0,-1,965,1408,0,0
-252,-384,0,0,0,0,0,0,0,0,0,-1,972,1408,0,0
-245,-384,0,0,0,0,0,0,0,0,0,-1,979,1408,0,0
-238,-384,0,0,0,0,0,0,0,0,0,-1,986,1408,0,0
-231,-384,0,0,0,0,0,0,0,0,0,-1,993,1408,0,0
-224,-384,0,0,0,0,0,0,0,0,0,-1,1000,1408,0,0
-217,-384,0,0,0,0,0,0,0,0,0,-1,1007,1408,0,0
-210,-384,0,0,0,0,0,0,0,0,0,-1,1014,1408,0,0
-203,-384,0,0,0,0,0,0,0,0,0,-1,1021,1408,0,0
-196,-384,0,0,0,0,0,0,0,0,0,-1,1028,1408,0,0
-189,-384,0,0,0,0,0,0,0,0,0,-1,1035,1408,0,0
-182,-384,0,0,0,0,0,0,0,0,0,-1,1042,1408,0,0
-175,-384,0,0,0,0,0,0,0,0,0,-1,1049,1408,0,0
-168,-384,0,0,0,0,0,0,0,0,0,-1,1056,1408,0,0
-161,-384,0,0,0,0,0,0,0,0,0,-1,1063,1408,0,0
-154,-384,0,0,0,0,0,0,0,0,0,-1,1070,1408,0,0
-147,-384,0,0,0,0,0,0,0,0,0,-1,1077,1408,0,0
-140,-384,0,0,0,0,0,0,0,0,0,-1,1084,1408,0,0
-133,-384,0,0,0,0,0,0,0,0,0,-1,1091,1408,0,0
-126,-384,0,0,0,0,0,0,0,0,0,-1,1098,1408,0,0
-119,-384,0,0,0,0,0,0,0,0,0,-1,1105,1408,0,0
-112,-384,0,0,0,0,0,0,0,0,0,-1,1112,1408,0,0
-105,-384,0,0,0,0,0,0,0,0,0,-1,1119,1408,0,0
-98,-384,0,0,0,0,0,0,0,0,0,-1,1126,1408,0,0
-91,-384,0,0,0,0,0,0,0,0,0,-1,1133,1408,0,0
-84,-384,0,0,0,0,0,0,0,0,0,-1,1140,1408,0,0
-77,-384,0,0,0,0,0,0,0,0,0,-1,1147,1408,0,0
-70,-384,0,0,0,0,0,0,0,0,0,-1,1154,1408,0,0
-63,-384,0,0,0,0,0,0,0,0,0,-1,1161,1408,0,0
-56,-384,0,0,0,0,0,0,0,0,0,-1,1168,1408,0,0
-49,-384,0,0,0,0,0,0,0,0,0,-1,1175,1408,0,0
-42,-384,0,0,0,0,0,0,0,0,0,-1,1182,1408,0,0
-35,-384,0,0,0,0,0,0,0,0,0,-1,1189,1408,0,0
-28,-384,0,0,0,0,0,0,0,0,0,-1,1196,1408,0,0
-21,-384,0,0,0,0,0,0,0,0,0,-1,1203,1408,0,0
-14,-384,0,0,0,0,0,0,0,0,0,-1,1210,1408,0,0
-7,-384,0,0,0,0,0,0,0,0,0,-1,1217,1408,0,0
0,-384,0,0,0,0,0,0,0,0,0,-1,1224,1408,0,0
7,-384,0,0,0,0,0,0,0,0,0,-1,1231,1408,0,0
14,-384,0,0,0,0,0,0,0,0,0,-1,1238,1408,0,0
21,-384,0,0,0,0,0,0,0,0,0,-1,1245,1408,0,0
28,-384,0,0,0,0,0,0,0,0,0,-1,1252,1408,0,0
35,-384,0,0,0,0,0,0,0,0,0,-1,1259,1408,0,0
42,-384,0,0,0,0,0,0,0,0,0,-1,1266,1408,0,0
49,-384,0,0,0,0,0,0,0,0,0,-1,1273,1408,0,0
56,-384,0,0,0,0,0,0,0,0,0,-1,1280,1408,0,0
63,-384,0,0,0,0,0,0,0,0,0,-1,1287,1408,0,0
70,-384,0,0,0,0,0,0,0,0,0,-1,1294,1408,0,0
77,-384,0,0,0,0,0,0,0,0,0,-1,1301,1408,0,0
84,-384,0,0,0,0,0,0,0,0,0,-1,1308,1408,0,0
91,-384,0,0,0,0,0,0,0,0,0,-1,1315,1408,0,0
98,-384,0,0,0,0,0,0,0,0,0,-1,1322,1408,0,0
105,-384,0,0,0,0,0,0,0,0,0,-1,1329,1408,0,0
112,-384,0,0,0,0,0,0,0,0,0,-1,1336,1408,0,0
119,-384,0,0,0,0,0,0,0,0,0,-1,1343,1408,0,0
126,-384,0,0,0,0,0,0,0,0,0,-1,1350,1408,0,0
133,-384,0,0,0,0,0,0,0,0,0,-1,1357,1408,0,0
140,-384,0,0,0,0,0,0,0,0,0,-1,1364,1408,0,0
147,-384,0,0,0,0,0,0,0,0,0,-1,1371,1408,0,0
154,-384,0,0,0,0,0,0,0,0,0,-1,1378,1408,0,0
161,-384,0,0,0,0,0,0,0,0,0,-1,1385,1408,0,0
168,-384,0,0,0,0,0,0,0,0,0,-1,1392,1408,0,0
175,-384,0,0,0,0,0,0,0,0,0,-1,1399,1408,0,0
182,-384,0,0,0,0,0,0,0,0,0,-1,1406,1408,0,0
189,-384,0,0,0,0,0,0,0,0,0,-1,1413,1408,0,0
196,-384,0,0,0,0,0,0,0,0,0,-1,1420,1408,0,0
203,-384,0,0,0,0,0,0,0,0,0,-1,1427,1408,0,0
210,-384,0,0,0,0,0,0,0,0,0,-1,1434,1408,0,0
217,-384,0,0,0,0,0,0,0,0,0,-1,1441,1408,0,0
224,-384,0,0,0,0,0,0,0,0,0,-1,1448,1408,0,0
231,-384,0,0,0,0,0,0,0,0,0,-1,1455,1408,0,0
238,-384,0,0,0,0,0,0,0,0,0,-1,1462,1408,0,0
245,-384,0,0,0,0,0,0,0,0,0,-1,1469,1408,0,0
252,-384,0,0,0,0,0,0,0,0,0,-1,1476,1408,0,0
259,-384,0,0,0,0,0,0,0,0,0,-1,1483,1408,0,0
266,-384,0,0,0,0,0,0,0,0,0,-1,1490,1408,0,0
273,-384,0,0,0,0,0,0,0,0,0,-1,1497,1408,0,0
280,-384,0,0,0,0,0,0,0,0,0,-1,1504,1408,0,0
287,-384,0,0,0,0,0,0,0,0,0,-1,1511,1408,0,0
294,-384,0,0,0,0,0,0,0,0,0,-1,1518,1408,0,0
301,-384,0,0,0,0,0,0,0,0,0,-1,1525,1408,0,0
308,-384,0,0,0,0,0,0,0,0,0,-1,1532,1408,0,0
315,-384,0,0,0,0,0,0,0,0,0,-1,1539,1408,0,0
322,-384,0,0,0,0,0,0,0,0,0,-1,1546,1408,0,0
329,-384,0,0,0,0,0,0,0,0,0,-1,1553,1408,0,0
336,-384,0,0,0,0,0,0,0,0,0,-1,1560,1408,0,0
343,-384,0,0,0,0,0,0,0,0,0,-1,1567,1408,0,0
350,-384,0,0,0,0,0,0,0,0,0,-1,1574,1408,0,0
357,-384,0,0,0,0,0,0,0,0,0,-1,1581,1408,0,0
364,-384,0,0,0,0,0,0,0,0,0,-1,1588,1408,0,0
371,-384,0,0,0,0,0,0,0,0,0,-1,1595,1408,0,0
378,-384,0,0,0,0,0,0,0,0,0,-1,1602,1408,0,0
385,-384,0,0,0,0,0,0,0,0,0,-1,1609,1408,0,0
392,-384,0,0,0,0,0,0,0,0,0,-1,1616,1408,0,0
399,-384,0,0,0,0,0,0,0,0,0,-1,1623,1408,0,0
406,-384,0,0,0,0,0,0,0,0,0,-1,1630,1408,0,0
413,-384,0,0,0,0,0,0,0,0,0,-1,1637,1408,0,0
420,-384,0,0,0,0,0,0,0,0,0,-1,1644,1408,0,0
427,-384,0,0,0,0,0,0,0,0,0,-1,1651,1408,0,0
434,-384,0,0,0,0,0,0,0,0,0,-1,1658,1408,0,0
441,-384,0,0,0,0,0,0,0,0,0,-1,1665,1408,0,0
448,-384,0,0,0,0,0,0,0,0,0,-1,1672,1408,0,0
455,-384,0,0,0,0,0,0,0,0,0,-1,1679,1408,0,0
462,-384,0,0,0,0,0,0,0,0,0,-1,1686,1408,0,0
469,-384,0,0,0,0,0,0,0,0,0,-1,1693,1408,0,0
476,-384,0,0,0,0,0,0,0,0,0,-1,1700,1408,0,0
483,-384,0,0,0,0,0,0,0,0,0,-1,1707,1408,0,0
490,-384,0,0,0,0,0,0,0,0,0,-1,1714,1408,0,0
497,-384,0,0,0,0,0,0,0,0,0,-1,1721,1408,0,0
504,-384,0,0,0,0,0,0,0,0,0,-1,1728,1408,0,0
511,-384,0,0,0,0,0,0,0,0,0,-1,1735,1408,0,0
518,-384,0,0,0,0,0,0,0,0,0,-1,1742,1408,0,0
525,-384,0,0,0,0,0,0,0,0,0,-1,1749,1408,0,0
532,-384,0,0,0,0,0,0,0,0,0,-1,1756,1408,0,0
539,-384,23.4208,1.19556,0,0,0,0,0,0,0,-1,1763,1408,23.4207,-1.19561
546,-384,22.3715,1.52161,0,0,0,0,0,0,0,-1,1770,1408,22.3715,-1.52159
553,-384,21.0801,2.1532,0,0,0,0,0,0,0,-1,1777,1408,21.0801,-2.15317
560,-384,19.7887,2.78479,0,0,0,0,0,0,0,-1,1784,1408,19.7887,-2.78475
567,-384,19.0348,2.75549,0,0,0,0,0,0,0,-1,1791,1408,19.0348,-2.75544
574,-384,11.5477,2.34216,0,0,0,0,0,0,0,-1,1798,1408,11.5477,-2.34214
581,-384,13.024,2.0072,0,0,0,0,0,0,0,-1,1805,1408,13.024,-2.00726
588,-384,14.5002,1.67236,0,0,0,0,0,0,0,-1,1812,1408,14.5002,-1.67238
595,-384,17.2017,4.63574,0,0,0,0,0,0,0,-1,1819,1408,17.2016,-4.63576
602,-384,14.5807,4.99976,0,0,0,0,0,0,0,-1,1826,1408,14.5806,-4.99972
609,-384,14.158,5.49475,0,0,0,0,0,0,0,-1,1833,1408,14.158,-5.49474
616,-384,13.783,6.9259,0,0,0,0,0,0,0,-1,1840,1408,13.783,-6.92589
623,-384,13.4271,7.32056,0,0,0,0,0,0,0,-1,1847,1408,13.4271,-7.32053
630,-384,13.5294,7.0343,-0.00826074,-0.00839092,0.00840822,8.26446e-05,-0.0167343,0.781528,0.0111838,0.0211169,1854,1408,13.5294,-7.03434
637,-384,13.5034,6.87183,-0.00569854,-0.00640202,0.00608718,4.70546e-05,-0.0121476,0.756539,0.00811414,0.0133,1861,1408,13.5035,-6.87182
644,-384,13.4949,6.66602,-0.00379797,-0.00461435,0.00433587,0.000148888,-0.0085612,0.738465,0.00575774,0.0147372,1868,1408,13.4949,-6.66603
651,-384,13.5006,6.44043,-0.00226494,-0.00306919,0.00297994,0.000339882,-0.00567402,0.718331,0.00390091,0.0149833,1875,1408,13.5007,-6.44037
658,-384,13.519,6.23083,-0.00130927,-0.00213848,0.00219496,0.000509901,-0.00395765,0.692053,0.00282379,0.0143389,1882,1408,13.519,-6.2308
665,-384,13.5291,6.04126,-0.000353528,-0.00110747,0.00172141,0.0010317,-0.0024927,0.677605,0.00209228,0.0148422,1889,1408,13.5291,-6.04122
672,-384,13.5433,5.82312,0.000163695,-0.000534475,0.00157123,0.00142415,-0.00179493,0.676087,0.00186264,0.013472,1896,1408,13.5433,-5.82308
679,-384,13.5056,5.60413,0.000693648,-0.000131021,0.00166001,0.00199177,-0.00142914,0.663666,0.00198395,0.0148732,1903,1408,13.5056,-5.60414
686,-384,13.4922,5.40576,0.00135807,-6.54837e-05,0.00197713,0.00274764,-0.00145506,0.612619,0.00246439,0.0127538,1910,1408,13.4922,-5.40571
693,-384,13.55,5.19885,0.00240283,-0.000239842,0.00254187,0.00394629,-0.0017833,0.545706,0.00338564,0.0171869,1917,1408,13.55,-5.19881
700,-384,13.4491,5.24109,0.00428163,-0.000247655,0.00311696,0.00586978,-0.00183581,0.471234,0.0046476,0.0397567,1924,1408,13.449,-5.24108
707,-384,13.4744,5.28003,0,0,0,0,0,0,0,-1,1931,1408,13.4744,-5.28003
714,-384,13.4717,4.22754,0,0,0,0,0,0,0,-1,1938,1408,13.4717,-4.22758
721,-384,13.8843,2.8717,0,0,0,0,0,0,0,-1,1945,1408,13.8843,-2.87171
728,-384,15.4409,6.25745,0,0,0,0,0,0,0,-1,1952,1408,15.4409,-6.2574
735,-384,16.7598,6.71289,0,0,0,0,0,0,0,-1,1959,1408,16.7598,-6.71287
742,-384,0,0,0,0,0,0,0,0,0,-1,1966,1408,0,0
749,-384,0,0,0,0,0,0,0,0,0,-1,1973,1408,0,0
756,-384,0,0,0,0,0,0,0,0,0,-1,1980,1408,0,0
763,-384,0,0,0,0,0,0,0,0,0,-1,1987,1408,0,0
770,-384,0,0,0,0,0,0,0,0,0,-1,1994,1408,0,0
777,-384,0,0,0,0,0,0,0,0,0,-1,2001,1408,0,0
784,-384,0,0,0,0,0,0,0,0,0,-1,2008,1408,0,0
791,-384,0,0,0,0,0,0,0,0,0,-1,2015,1408,0,0
798,-384,0,0,0,0,0,0,0,0,0,-1,2022,1408,0,0
805,-384,0,0,0,0,0,0,0,0,0,-1,2029,1408,0,0
812,-384,0,0,0,0,0,0,0,0,0,-1,2036,1408,0,0
-700,-391,0,0,0,0,0,0,0,0,0,-1,524,1415,0,0
-693,-391,0,0,0,0,0,0,0,0,0,-1,531,1415,0,0
-686,-391,0,0,0,0,0,0,0,0,0,-1,538,1415,0,0
-679,-391,0,0,0,0,0,0,0,0,0,-1,545,1415,0,0
-672,-391,0,0,0,0,0,0,0,0,0,-1,552,1415,0,0
-665,-391,0,0,0,0,0,0,0,0,0,-1,559,1415,0,0
-658,-391,0,0,0,0,0,0,0,0,0,-1,566,1415,0,0
-651,-391,0,0,0,0,0,0,0,0,0,-1,573,1415,0,0
-644,-391,0,0,0,0,0,0,0,0,0,-1,580,1415,0,0
-637,-391,0,0,0,0,0,0,0,0,0,-1,587,1415,0,0
-630,-391,0,0,0,0,0,0,0,0,0,-1,594,1415,0,0
-623,-391,0,0,0,0,0,0,0,0,0,-1,601,1415,0,0
-616,-391,0,0,0,0,0,0,0,0,0,-1,608,1415,0,0
-609,-391,-7.71753,-3.69763,0,0,0,0,0,0,0,-1,615,1415,-7.71751,3.69759
-602,-391,-3.36749,-2.07458,0,0,0,0,0,0,0,-1,622,1415,-3.36751,2.07453
-595,-391,-9.22998,3.3446,0,0,0,0,0,0,0,-1,629,1415,-9.23001,-3.34464
-588,-391,-8.1369,3.31274,0.138174,0.0245268,0.00625116,0.138517,0.024184,0.0547847,0.0854319,0.044198,636,1415,-8.13688,-3.31277
-581,-391,-7.16345,3.28931,0.108193,0.0174948,0.00395436,0.108365,0.0173228,0.0434893,0.0672172,0.0455983,643,1415,-7.16345,-3.28928
-574,-391,-6.21442,3.32983,0.0828664,0.0125085,0.00251847,0.0829564,0.0124185,0.0357341,0.0516647,0.0465464,650,1415,-6.21441,-3.32987
-567,-391,-4.95117,3.09802,0.0621685,0.0089651,0.00155161,0.0622137,0.00891989,0.0291307,0.0388454,0.0458113,657,1415,-4.95119,-3.09806
-560,-391,-4.61249,3.4176,0.0452537,0.00641616,0.000862962,0.0452729,0.00639699,0.0222051,0.0282917,0.0351902,664,1415,-4.6125,-3.41757
-553,-391,-4.61346,3.41333,0.0320561,0.00457644,0.000406903,0.0320621,0.00457042,0.0148031,0.0200259,0.0247889,671,1415,-4.61344,-3.41329
-546,-391,-4.64679,3.64917,0.0219434,0.0032257,0.00016291,0.0219448,0.00322429,0.00870262,0.0136824,0.0118008,678,1415,-4.64677,-3.64917
-539,-391,-4.63318,3.87439,0.014441,0.0021007,-9.71546e-07,0.014441,0.0021007,-7.87297e-05,0.00900909,0.0139009,685,1415,-4.6332,-3.87434
-532,-391,-4.6507,4.09839,0.00832344,0.000970854,-0.000293907,0.00833517,0.000959124,-0.0398884,0.00526627,0.0237513,692,1415,-4.65072,-4.09838
-525,-391,-4.64716,4.33826,0.00420758,-3.97186e-05,-0.00021924,0.00421887,-5.10053e-05,-0.0514364,0.00282973,0.020792,699,1415,-4.64715,-4.33827
-518,-391,-4.64008,4.59094,0.00230795,-0.00082871,-0.000424337,0.00236434,-0.000885102,-0.13212,0.00193978,0.0126018,706,1415,-4.64007,-4.5909
-511,-391,-4.63727,4.82483,0.00118838,-0.00173291,-0.00128895,0.00167578,-0.00222031,-0.361517,0.00225672,0.0117811,713,1415,-4.6373,-4.82486
-504,-391,-4.63287,5.06531,0.000281431,-0.00366108,-0.00269858,0.00165206,-0.00503171,-0.469954,0.00401996,0.0105933,720,1415,-4.6329,-5.06535
-497,-391,-4.62762,5.29846,-0.000981995,-0.00600891,-0.00456114,0.00171237,-0.00870328,-0.53357,0.00644921,0.0091049,727,1415,-4.62763,-5.2985
-490,-391,-4.58722,5.57983,-0.00342759,-0.00941698,-0.0076737,0.00181507,-0.0146596,-0.59936,0.0104309,0.0163105,734,1415,-4.58719,-5.57984
-483,-391,-4.51849,5.65588,-0.00676542,-0.0134405,-0.0116398,0.00200589,-0.0222118,-0.645777,0.0155198,0.0417446,741,1415,-4.5185,-5.65584
-476,-391,-4.32404,5.76489,0,0,0,0,0,0,0,-1,748,1415,-4.32403,-5.7649
-469,-391,-3.88953,5.0979,0,0,0,0,0,0,0,-1,755,1415,-3.88955,-5.09794
-462,-391,-5.32281,5.88391,0,0,0,0,0,0,0,-1,762,1415,-5.32282,-5.88388
-455,-391,-6.31671,6.42883,0,0,0,0,0,0,0,-1,769,1415,-6.3167,-6.42879
-448,-391,-4.15601,2.72815,0,0,0,0,0,0,0,-1,776,1415,-4.156,-2.72814
-441,-391,-2.80511,1.66772,0,0,0,0,0,0,0,-1,783,1415,-2.80509,-1.66773
-434,-391,-9.9859,0.309448,0,0,0,0,0,0,0,-1,790,1415,-9.98591,-0.309397
-427,-391,-10.5311,2.50403,0,0,0,0,0,0,0,-1,797,1415,-10.5311,-2.504
-420,-391,-10.621,4.9751,0,0,0,0,0,0,0,-1,804,1415,-10.621,-4.97506
-413,-391,0,0,0,0,0,0,0,0,0,-1,811,1415,0,0
-406,-391,0,0,0,0,0,0,0,0,0,-1,818,1415,0,0
-399,-391,0,0,0,0,0,0,0,0,0,-1,825,1415,0,0
-392,-391,0,0,0,0,0,0,0,0,0,-1,832,1415,0,0
-385,-391,0,0,0,0,0,0,0,0,0,-1,839,1415,0,0
-378,-391,0,0,0,0,0,0,0,0,0,-1,846,1415,0,0
-371,-391,0,0,0,0,0,0,0,0,0,-1,853,1415,0,0
-364,-391,0,0,0,0,0,0,0,0,0,-1,860,1415,0,0
-357,-391,0,0,0,0,0,0,0,0,0,-1,867,1415,0,0
-350,-391,0,0,0,0,0,0,0,0,0,-1,874,1415,0,0
-343,-391,0,0,0,0,0,0,0,0,0,-1,881,1415,0,0
-336,-391,0,0,0,0,0,0,0,0,0,-1,888,1415,0,0
-329,-391,0,0,0,0,0,0,0,0,0,-1,895,1415,0,0
-322,-391,0,0,0,0,0,0,0,0,0,-1,902,1415,0,0
-315,-391,0,0,0,0,0,0,0,0,0,-1,909,1415,0,0
-308,-391,0,0,0,0,0,0,0,0,0,-1,916,1415,0,0
-301,-391,0,0,0,0,0,0,0,0,0,-1,923,1415,0,0
-294,-391,0,0,0,0,0,0,0,0,0,-1,930,1415,0,0
-287,-391,0,0,0,0,0,0,0,0,0,-1,937,1415,0,0
-280,-391,0,0,0,0,0,0,0,0,0,-1,944,1415,0,0
-273,-391,0,0,0,0,0,0,0,0,0,-1,951,1415,0,0
-266,-391,0,0,0,0,0,0,0,0,0,-1,958,1415,0,0
-259,-391,0,0,0,0,0,0,0,0,0,-1,965,1415,0,0
-252,-391,0,0,0,0,0,0,0,0,0,-1,972,1415,0,0
-245,-391,0,0,0,0,0,0,0,0,0,-1,979,1415,0,0
-238,-391,0,0,0,0,0,0,0,0,0,-1,986,1415,0,0
-231,-391,0,0,0,0,0,0,0,0,0,-1,993,1415,0,0
-224,-391,0,0,0,0,0,0,0,0,0,-1,1000,1415,0,0
-217,-391,0,0,0,0,0,0,0,0,0,-1,1007,1415,0,0
-210,-391,0,0,0,0,0,0,0,0,0,-1,1014,1415,0,0
-203,-391,0,0,0,0,0,0,0,0,0,-1,1021,1415,0,0
-196,-391,0,0,0,0,0,0,0,0,0,-1,1028,1415,0,0
-189,-391,0,0,0,0,0,0,0,0,0,-1,1035,1415,0,0
-182,-391,0,0,0,0,0,0,0,0,0,-1,1042,1415,0,0
-175,-391,0,0,0,0,0,0,0,0,0,-1,1049,1415,0,0
-168,-391,0,0,0,0,0,0,0,0,0,-1,1056,1415,0,0
-161,-391,0,0,0,0,0,0,0,0,0,-1,1063,1415,0,0
-154,-391,0,0,0,0,0,0,0,0,0,-1,1070,1415,0,0
-147,-391,0,0,0,0,0,0,0,0,0,-1,1077,1415,0,0
-140,-391,0,0,0,0,0,0,0,0,0,-1,1084,1415,0,0
-133,-391,0,0,0,0,0,0,0,0,0,-1,1091,1415,0,0
-126,-391,0,0,0,0,0,0,0,0,0,-1,1098,1415,0,0
-119,-391,0,0,0,0,0,0,0,0,0,-1,1105,1415,0,0
-112,-391,0,0,0,0,0,0,0,0,0,-1,1112,1415,0,0
-105,-391,0,0,0,0,0,0,0,0,0,-1,1119,1415,0,0
-98,-391,0,0,0,0,0,0,0,0,0,-1,1126,1415,0,0
-91,-391,0,0,0,0,0,0,0,0,0,-1,1133,1415,0,0
-84,-391,0,0,0,0,0,0,0,0,0,-1,1140,1415,0,0
-77,-391,0,0,0,0,0,0,0,0,0,-1,1147,1415,0,0
-70,-391,0,0,0,0,0,0,0,0,0,-1,1154,1415,0,0
-63,-391,0,0,0,0,0,0,0,0,0,-1,1161,1415,0,0
-56,-391,0,0,0,0,0,0,0,0,0,-1,1168,1415,0,0
-49,-391,0,0,0,0,0,0,0,0,0,-1,1175,1415,0,0
-42,-391,0,0,0,0,0,0,0,0,0,-1,1182,1415,0,0
-35,-391,0,0,0,0,0,0,0,0,0,-1,1189,1415,0,0
-28,-391,0,0,0,0,0,0,0,0,0,-1,1196,1415,0,0
-21,-391,0,0,0,0,0,0,0,0,0,-1,1203,1415,0,0
-14,-391,0,0,0,0,0,0,0,0,0,-1,1210,1415,0,0
-7,-391,0,0,0,0,0,0,0,0,0,-1,1217,1415,0,0
0,-391,0,0,0,0,0,0,0,0,0,-1,1224,1415,0,0
7,-391,0,0,0,0,0,0,0,0,0,-1,1231,1415,0,0
14,-391,0,0,0,0,0,0,0,0,0,-1,1238,1415,0,0
21,-391,0,0,0,0,0,0,0,0,0,-1,1245,1415,0,0
28,-391,0,0,0,0,0,0,0,0,0,-1,1252,1415,0,0
35,-391,0,0,0,0,0,0,0,0,0,-1,1259,1415,0,0
42,-391,0,0,0,0,0,0,0,0,0,-1,1266,1415,0,0
49,-391,0,0,0,0,0,0,0,0,0,-1,1273,1415,0,0
56,-391,0,0,0,0,0,0,0,0,0,-1,1280,1415,0,0
63,-391,0,0,0,0,0,0,0,0,0,-1,1287,1415,0,0
70,-391,0,0,0,0,0,0,0,0,0,-1,1294,1415,0,0
77,-391,0,0,0,0,0,0,0,0,0,-1,1301,1415,0,0
84,-391,0,0,0,0,0,0,0,0,0,-1,1308,1415,0,0
91,-391,0,0,0,0,0,0,0,0,0,-1,1315,1415,0,0
98,-391,0,0,0,0,0,0,0,0,0,-1,1322,1415,0,0
105,-391,0,0,0,0,0,0,0,0,0,-1,1329,1415,0,0
112,-391,0,0,0,0,0,0,0,0,0,-1,1336,1415,0,0
119,-391,0,0,0,0,0,0,0,0,0,-1,1343,1415,0,0
126,-391,0,0,0,0,0,0,0,0,0,-1,1350,1415,0,0
133,-391,0,0,0,0,0,0,0,0,0,-1,1357,1415,0,0
140,-391,0,0,0,0,0,0,0,0,0,-1,1364,1415,0,0
147,-391,0,0,0,0,0,0,0,0,0,-1,1371,1415,0,0
154,-391,0,0,0,0,0,0,0,0,0,-1,1378,1415,0,0
161,-391,0,0,0,0,0,0,0,0,0,-1,1385,1415,0,0
168,-391,0,0,0,0,0,0,0,0,0,-1,1392,1415,0,0
175,-391,0,0,0,0,0,0,0,0,0,-1,1399,1415,0,0
182,-391,0,0,0,0,0,0,0,0,0,-1,1406,1415,0,0
189,-391,0,0,0,0,0,0,0,0,0,-1,1413,1415,0,0
196,-391,0,0,0,0,0,0,0,0,0,-1,1420,1415,0,0
203,-391,0,0,0,0,0,0,0,0,0,-1,1427,1415,0,0
210,-391,0,0,0,0,0,0,0,0,0,-1,1434,1415,0,0
217,-391,0,0,0,0,0,0,0,0,0,-1,1441,1415,0,0
224,-391,0,0,0,0,0,0,0,0,0,-1,1448,1415,0,0
231,-391,0,0,0,0,0,0,0,0,0,-1,1455,1415,0,0
238,-391,0,0,0,0,0,0,0,0,0,-1,1462,1415,0,0
245,-391,0,0,0,0,0,0,0,0,0,-1,1469,1415,0,0
252,-391,0,0,0,0,0,0,0,0,0,-1,1476,1415,0,0
259,-391,0,0,0,0,0,0,0,0,0,-1,1483,1415,0,0
266,-391,0,0,0,0,0,0,0,0,0,-1,1490,1415,0,0
273,-391,0,0,0,0,0,0,0,0,0,-1,1497,1415,0,0
280,-391,0,0,0,0,0,0,0,0,0,-1,1504,1415,0,0
287,-391,0,0,0,0,0,0,0,0,0,-1,1511,1415,0,0
294,-391,0,0,0,0,0,0,0,0,0,-1,1518,1415,0,0
301,-391,0,0,0,0,0,0,0,0,0,-1,1525,1415,0,0
308,-391,0,0,0,0,0,0,0,0,0,-1,1532,1415,0,0
315,-391,0,0,0,0,0,0,0,0,0,-1,1539,1415,0,0
322,-391,0,0,0,0,0,0,0,0,0,-1,1546,1415,0,0
329,-391,0,0,0,0,0,0,0,0,0,-1,1553,1415,0,0
336,-391,0,0,0,0,0,0,0,0,0,-1,1560,1415,0,0
343,-391,0,0,0,0,0,0,0,0,0,-1,1567,1415,0,0
350,-391,0,0,0,0,0,0,0,0,0,-1,1574,1415,0,0
357,-391,0,0,0,0,0,0,0,0,0,-1,1581,1415,0,0
364,-391,0,0,0,0,0,0,0,0,0,-1,1588,1415,0,0
371,-391,0,0,0,0,0,0,0,0,0,-1,1595,1415,0,0
378,-391,0,0,0,0,0,0,0,0,0,-1,1602,1415,0,0
385,-391,0,0,0,0,0,0,0,0,0,-1,1609,1415,0,0
392,-391,0,0,0,0,0,0,0,0,0,-1,1616,1415,0,0
399,-391,0,0,0,0,0,0,0,0,0,-1,1623,1415,0,0
406,-391,0,0,0,0,0,0,0,0,0,-1,1630,1415,0,0
413,-391,0,0,0,0,0,0,0,0,0,-1,1637,1415,0,0
420,-391,0,0,0,0,0,0,0,0,0,-1,1644,1415,0,0
427,-391,0,0,0,0,0,0,0,0,0,-1,1651,1415,0,0
434,-391,0,0,0,0,0,0,0,0,0,-1,1658,1415,0,0
441,-391,0,0,0,0,0,0,0,0,0,-1,1665,1415,0,0
448,-391,0,0,0,0,0,0,0,0,0,-1,1672,1415,0,0
455,-391,0,0,0,0,0,0,0,0,0,-1,1679,1415,0,0
462,-391,0,0,0,0,0,0,0,0,0,-1,1686,1415,0,0
469,-391,0,0,0,0,0,0,0,0,0,-1,1693,1415,0,0
476,-391,0,0,0,0,0,0,0,0,0,-1,1700,1415,0,0
483,-391,0,0,0,0,0,0,0,0,0,-1,1707,1415,0,0
490,-391,0,0,0,0,0,0,0,0,0,-1,1714,1415,0,0
497,-391,0,0,0,0,0,0,0,0,0,-1,1721,1415,0,0
504,-391,0,0,0,0,0,0,0,0,0,-1,1728,1415,0,0
511,-391,0,0,0,0,0,0,0,0,0,-1,1735,1415,0,0
518,-391,0,0,0,0,0,0,0,0,0,-1,1742,1415,0,0
525,-391,0,0,0,0,0,0,0,0,0,-1,1749,1415,0,0
532,-391,23.3541,1.15771,0,0,0,0,0,0,0,-1,1756,1415,23.3541,-1.15771
539,-391,22.6211,1.52905,0,0,0,0,0,0,0,-1,1763,1415,22.6211,-1.529
546,-391,21.671,2.0199,0,0,0,0,0,0,0,-1,1770,1415,21.671,-2.01994
553,-391,20.5422,2.27222,0,0,0,0,0,0,0,-1,1777,1415,20.5423,-2.27224
560,-391,19.1654,2.27197,0,0,0,0,0,0,0,-1,1784,1415,19.1654,-2.27193
567,-391,18.4855,3.01099,0,0,0,0,0,0,0,-1,1791,1415,18.4854,-3.01096
574,-391,17.8459,3.70581,0,0,0,0,0,0,0,-1,1798,1415,17.8459,-3.70584
581,-391,12.551,1.32678,0,0,0,0,0,0,0,-1,1805,1415,12.5511,-1.32684
588,-391,16.6328,4.5874,0,0,0,0,0,0,0,-1,1812,1415,16.6328,-4.5874
595,-391,15.9152,5.18213,0,0,0,0,0,0,0,-1,1819,1415,15.9151,-5.18209
602,-391,15.1635,5.69849,0,0,0,0,0,0,0,-1,1826,1415,15.1635,-5.69847
609,-391,13.8929,7.19678,0,0,0,0,0,0,0,-1,1833,1415,13.8929,-7.19672
616,-391,13.5284,7.14746,-0.0161483,-0.013376,0.0142245,-0.000470214,-0.029054,0.833969,0.0192145,0.0432857,1840,1415,13.5284,-7.14748
623,-391,13.3292,7.21606,-0.0115824,-0.0105034,0.0104504,-0.000578593,-0.0215073,0.811188,0.0141493,0.0218604,1847,1415,13.3292,-7.21604
630,-391,13.3348,7.0271,-0.00790727,-0.00791821,0.00743628,-0.000476457,-0.015349,0.78503,0.0100776,0.0163457,1854,1415,13.3349,-7.02713
637,-391,13.3245,6.86218,-0.00535008,-0.00578654,0.00529048,-0.000273329,-0.0108633,0.764785,0.00715283,0.0136022,1861,1415,13.3245,-6.86219
644,-391,13.3015,6.64697,-0.00351324,-0.00402862,0.00374401,-1.80637e-05,-0.00752379,0.751039,0.00500985,0.014451,1868,1415,13.3015,-6.64701
651,-391,13.2955,6.42944,-0.00206699,-0.00256307,0.00256076,0.000257707,-0.00488777,0.737118,0.00334773,0.0159051,1875,1415,13.2955,-6.42948
658,-391,13.3082,6.23169,-0.00119402,-0.00162792,0.0019345,0.000535656,-0.0033576,0.729557,0.00243666,0.0145877,1882,1415,13.3082,-6.23163
665,-391,13.3201,6.05286,-0.00046912,-0.000727763,0.0016871,0.00109361,-0.0022905,0.747146,0.00199413,0.0118114,1889,1415,13.32,-6.05288
672,-391,13.321,5.82971,-0.000212539,-0.000266048,0.00181286,0.00157376,-0.00205235,0.77802,0.00209961,0.0114152,1896,1415,13.3211,-5.82968
679,-391,13.3107,5.61487,7.01529e-05,-6.25491e-05,0.00224043,0.00224521,-0.00223761,0.770595,0.00258816,0.0112109,1903,1415,13.3106,-5.6149
686,-391,13.3081,5.40906,0.000457173,-0.000237959,0.00296599,0.00309589,-0.00287667,0.727072,0.00344904,0.0131888,1910,1415,13.3081,-5.40911
693,-391,13.3286,5.29871,0.0012983,-0.000711665,0.00405532,0.00447131,-0.00388468,0.663936,0.00482829,0.027207,1917,1415,13.3286,-5.29866
700,-391,13.4186,5.20313,0,0,0,0,0,0,0,-1,1924,1415,13.4186,-5.20316
707,-391,12.9524,5.96851,0,0,0,0,0,0,0,-1,1931,1415,12.9524,-5.96849
714,-391,12.5084,7.60242,0,0,0,0,0,0,0,-1,1938,1415,12.5084,-7.60241
721,-391,14.1808,8.08435,0,0,0,0,0,0,0,-1,1945,1415,14.1808,-8.08439
728,-391,13.8102,7.28174,0,0,0,0,0,0,0,-1,1952,1415,13.8102,-7.28174
735,-391,0,0,0,0,0,0,0,0,0,-1,1959,1415,0,0
742,-391,0,0,0,0,0,0,0,0,0,-1,1966,1415,0,0
749,-391,0,0,0,0,0,0,0,0,0,-1,1973,1415,0,0
756,-391,0,0,0,0,0,0,0,0,0,-1,1980,1415,0,0
763,-391,0,0,0,0,0,0,0,0,0,-1,1987,1415,0,0
770,-391,0,0,0,0,0,0,0,0,0,-1,1994,1415,0,0
777,-391,0,0,0,0,0,0,0,0,0,-1,2001,1415,0,0
784,-391,0,0,0,0,0,0,0,0,0,-1,2008,1415,0,0
791,-391,0,0,0,0,0,0,0,0,0,-1,2015,1415,0,0
798,-391,0,0,0,0,0,0,0,0,0,-1,2022,1415,0,0
805,-391,0,0,0,0,0,0,0,0,0,-1,2029,1415,0,0
812,-391,0,0,0,0,0,0,0,0,0,-1,2036,1415,0,0
-700,-398,0,0,0,0,0,0,0,0,0,-1,524,1422,0,0
-693,-398,0,0,0,0,0,0,0,0,0,-1,531,1422,0,0
-686,-398,0,0,0,0,0,0,0,0,0,-1,538,1422,0,0
-679,-398,0,0,0,0,0,0,0,0,0,-1,545,1422,0,0
-672,-398,0,0,0,0,0,0,0,0,0,-1,552,1422,0,0
-665,-398,0,0,0,0,0,0,0,0,0,-1,559,1422,0,0
-658,-398,0,0,0,0,0,0,0,0,0,-1,566,1422,0,0
-651,-398,0,0,0,0,0,0,0,0,0,-1,573,1422,0,0
-644,-398,0,0,0,0,0,0,0,0,0,-1,580,1422,0,0
-637,-398,0,0,0,0,0,0,0,0,0,-1,587,1422,0,0
-630,-398,0,0,0,0,0,0,0,0,0,-1,594,1422,0,0
-623,-398,0,0,0,0,0,0,0,0,0,-1,601,1422,0,0
-616,-398,0,0,0,0,0,0,0,0,0,-1,608,1422,0,0
-609,-398,-7.47125,-4.05322,0,0,0,0,0,0,0,-1,615,1422,-7.47128,4.05317
-602,-398,-4.58868,-2.77026,0,0,0,0,0,0,0,-1,622,1422,-4.58869,2.77023
-595,-398,-10.0841,3.23071,0,0,0,0,0,0,0,-1,629,1422,-10.0841,-3.23069
-588,-398,-8.53967,3.29163,0.161107,0.0282317,0.00635503,0.16141,0.0279285,0.0476821,0.0996109,0.0447783,636,1422,-8.53966,-3.29158
-581,-398,-7.1604,3.15869,0.127782,0.0226172,0.00478382,0.127999,0.0224,0.0453638,0.078933,0.0445284,643,1422,-7.16038,-3.1587
-574,-398,-5.87756,3.25586,0.0986884,0.0181236,0.00361411,0.0988502,0.0179618,0.0447398,0.0608037,0.0454199,650,1422,-5.87754,-3.25588
-567,-398,-5.04749,3.38086,0.0742062,0.0145034,0.00268866,0.074327,0.0143826,0.0449129,0.0455209,0.0429346,657,1422,-5.04747,-3.38088
-560,-398,-4.58813,3.44165,0.0541947,0.0115763,0.00196092,0.0542847,0.0114862,0.0458819,0.0330336,0.0378673,664,1422,-4.58816,-3.44167
-553,-398,-4.37238,3.49194,0.038541,0.00920713,0.0014264,0.0386101,0.00913793,0.0484741,0.0232993,0.0304381,671,1422,-4.37237,-3.4919
-546,-398,-4.40674,3.66003,0.0265819,0.00723532,0.00106902,0.0266408,0.00717643,0.0550328,0.0159171,0.0147489,678,1422,-4.40673,-3.65999
-539,-398,-4.38226,3.91602,0.0177175,0.00543401,0.000776757,0.0177665,0.00538509,0.0629017,0.0105192,0.012744,685,1422,-4.38227,-3.91596
-532,-398,-4.40253,4.12634,0.0104916,0.00368141,0.000357235,0.0105103,0.00366272,0.0522644,0.00616031,0.0203042,692,1422,-4.40253,-4.12629
-525,-398,-4.38818,4.34985,0.005422,0.00199812,0.000321362,0.0054519,0.00196822,0.0927792,0.00318793,0.0184815,699,1422,-4.38817,-4.34989
-518,-398,-4.37451,4.59558,0.00275127,0.000667518,-3.85826e-05,0.00275198,0.000666804,-0.0185075,0.00165771,0.0157802,706,1422,-4.37454,-4.59556
-511,-398,-4.37354,4.82178,0.00131511,-0.000523585,-0.000900328,0.00168254,-0.000891012,-0.387472,0.00150909,0.0124506,713,1422,-4.37356,-4.82173
-504,-398,-4.37445,5.06396,0.000203688,-0.00222605,-0.00220011,0.00150206,-0.00352442,-0.533138,0.00297931,0.0124432,720,1422,-4.37445,-5.06395
-497,-398,-4.38928,5.30249,-0.0010415,-0.00419879,-0.00385578,0.00154629,-0.00678658,-0.591096,0.00511828,0.00939676,727,1422,-4.38928,-5.30245
-490,-398,-4.39081,5.55493,-0.00325707,-0.00669853,-0.00664437,0.00188577,-0.0118414,-0.658694,0.0085921,0.0101732,734,1422,-4.39081,-5.55496
-483,-398,-4.29547,5.82629,-0.00626118,-0.00939933,-0.0102135,0.00250304,-0.0181636,-0.70918,0.0130238,0.0221935,741,1422,-4.29546,-5.82631
-476,-398,-4.21265,5.69653,-0.00823147,-0.0130179,-0.0135996,0.00318388,-0.0244333,-0.698301,0.0174473,0.0442145,748,1422,-4.21266,-5.69651
-469,-398,-3.97852,5.68872,-0.00929021,-0.0169274,-0.0154012,0.00275878,-0.0289763,-0.663879,0.0202997,0.0497694,755,1422,-3.97853,-5.6887
-462,-398,-3.83954,6.08765,0,0,0,0,0,0,0,-1,762,1422,-3.83956,-6.08766
-455,-398,-4.94214,5.49463,0,0,0,0,0,0,0,-1,769,1422,-4.94212,-5.49468
-448,-398,-3.96271,3.68347,0,0,0,0,0,0,0,-1,776,1422,-3.96271,-3.68351
-441,-398,-2.95306,2.51233,0,0,0,0,0,0,0,-1,783,1422,-2.95305,-2.51227
-434,-398,-3.71259,0.368286,0,0,0,0,0,0,0,-1,790,1422,-3.7126,-0.368295
-427,-398,-8.41827,2.94934,0,0,0,0,0,0,0,-1,797,1422,-8.41827,-2.94929
-420,-398,-8.64551,5.44897,0,0,0,0,0,0,0,-1,804,1422,-8.6455,-5.44898
-413,-398,-8.87274,7.94873,0,0,0,0,0,0,0,-1,811,1422,-8.87273,-7.94867
-406,-398,0,0,0,0,0,0,0,0,0,-1,818,1422,0,0
-399,-398,0,0,0,0,0,0,0,0,0,-1,825,1422,0,0
-392,-398,0,0,0,0,0,0,0,0,0,-1,832,1422,0,0
-385,-398,0,0,0,0,0,0,0,0,0,-1,839,1422,0,0
-378,-398,0,0,0,0,0,0,0,0,0,-1,846,1422,0,0
-371,-398,0,0,0,0,0,0,0,0,0,-1,853,1422,0,0
-364,-398,0,0,0,0,0,0,0,0,0,-1,860,1422,0,0
-357,-398,0,0,0,0,0,0,0,0,0,-1,867,1422,0,0
-350,-398,0,0,0,0,0,0,0,0,0,-1,874,1422,0,0
-343,-398,0,0,0,0,0,0,0,0,0,-1,881,1422,0,0
-336,-398,0,0,0,0,0,0,0,0,0,-1,888,1422,0,0
-329,-398,0,0,0,0,0,0,0,0,0,-1,895,1422,0,0
-322,-398,0,0,0,0,0,0,0,0,0,-1,902,1422,0,0
-315,-398,0,0,0,0,0,0,0,0,0,-1,909,1422,0,0
-308,-398,0,0,0,0,0,0,0,0,0,-1,916,1422,0,0
-301,-398,0,0,0,0,0,0,0,0,0,-1,923,1422,0,0
-294,-398,0,0,0,0,0,0,0,0,0,-1,930,1422,0,0
-287,-398,0,0,0,0,0,0,0,0,0,-1,937,1422,0,0
-280,-398,0,0,0,0,0,0,0,0,0,-1,944,1422,0,0
-273,-398,0,0,0,0,0,0,0,0,0,-1,951,1422,0,0
-266,-398,0,0,0,0,0,0,0,0,0,-1,958,1422,0,0
-259,-398,0,0,0,0,0,0,0,0,0,-1,965,1422,0,0
-252,-398,0,0,0,0,0,0,0,0,0,-1,972,1422,0,0
-245,-398,0,0,0,0,0,0,0,0,0,-1,979,1422,0,0
-238,-398,0,0,0,0,0,0,0,0,0,-1,986,1422,0,0
-231,-398,0,0,0,0,0,0,0,0,0,-1,993,1422,0,0
-224,-398,0,0,0,0,0,0,0,0,0,-1,1000,1422,0,0
-217,-398,0,0,0,0,0,0,0,0,0,-1,1007,1422,0,0
-210,-398,0,0,0,0,0,0,0,0,0,-1,1014,1422,0,0
-203,-398,0,0,0,0,0,0,0,0,0,-1,1021,1422,0,0
-196,-398,0,0,0,0,0,0,0,0,0,-1,1028,1422,0,0
-189,-398,0,0,0,0,0,0,0,0,0,-1,1035,1422,0,0
-182,-398,0,0,0,0,0,0,0,0,0,-1,1042,1422,0,0
-175,-398,0,0,0,0,0,0,0,0,0,-1,1049,1422,0,0
-168,-398,0,0,0,0,0,0,0,0,0,-1,1056,1422,0,0
-161,-398,0,0,0,0,0,0,0,0,0,-1,1063,1422,0,0
-154,-398,0,0,0,0,0,0,0,0,0,-1,1070,1422,0,0
-147,-398,0,0,0,0,0,0,0,0,0,-1,1077,1422,0,0
-140,-398,0,0,0,0,0,0,0,0,0,-1,1084,1422,0,0
-133,-398,0,0,0,0,0,0,0,0,0,-1,1091,1422,0,0
-126,-398,0,0,0,0,0,0,0,0,0,-1,1098,1422,0,0
-119,-398,0,0,0,0,0,0,0,0,0,-1,1105,1422,0,0
-112,-398,0,0,0,0,0,0,0,0,0,-1,1112,1422,0,0
-105,-398,0,0,0,0,0,0,0,0,0,-1,1119,1422,0,0
-98,-398,0,0,0,0,0,0,0,0,0,-1,1126,1422,0,0
-91,-398,0,0,0,0,0,0,0,0,0,-1,1133,1422,0,0
-84,-398,0,0,0,0,0,0,0,0,0,-1,1140,1422,0,0
-77,-398,0,0,0,0,0,0,0,0,0,-1,1147,1422,0,0
-70,-398,0,0,0,0,0,0,0,0,0,-1,1154,1422,0,0
-63,-398,0,0,0,0,0,0,0,0,0,-1,1161,1422,0,0
-56,-398,0,0,0,0,0,0,0,0,0,-1,1168,1422,0,0
-49,-398,0,0,0,0,0,0,0,0,0,-1,1175,1422,0,0
-42,-398,0,0,0,0,0,0,0,0,0,-1,1182,1422,0,0
-35,-398,0,0,0,0,0,0,0,0,0,-1,1189,1422,0,0
-28,-398,0,0,0,0,0,0,0,0,0,-1,1196,1422,0,0
-21,-398,0,0,0,0,0,0,0,0,0,-1,1203,1422,0,0
-14,-398,0,0,0,0,0,0,0,0,0,-1,1210,1422,0,0
-7,-398,0,0,0,0,0,0,0,0,0,-1,1217,1422,0,0
0,-398,0,0,0,0,0,0,0,0,0,-1,1224,1422,0,0
7,-398,0,0,0,0,0,0,0,0,0,-1,1231,1422,0,0
14,-398,0,0,0,0,0,0,0,0,0,-1,1238,1422,0,0
21,-398,0,0,0,0,0,0,0,0,0,-1,1245,1422,0,0
28,-398,0,0,0,0,0,0,0,0,0,-1,1252,1422,0,0
35,-398,0,0,0,0,0,0,0,0,0,-1,1259,1422,0,0
42,-398,0,0,0,0,0,0,0,0,0,-1,1266,1422,0,0
49,-398,0,0,0,0,0,0,0,0,0,-1,1273,1422,0,0
56,-398,0,0,0,0,0,0,0,0,0,-1,1280,1422,0,0
63,-398,0,0,0,0,0,0,0,0,0,-1,1287,1422,0,0
70,-398,0,0,0,0,0,0,0,0,0,-1,1294,1422,0,0
77,-398,0,0,0,0,0,0,0,0,0,-1,1301,1422,0,0
84,-398,0,0,0,0,0,0,0,0,0,-1,1308,1422,0,0
91,-398,0,0,0,0,0,0,0,0,0,-1,1315,1422,0,0
98,-398,0,0,0,0,0,0,0,0,0,-1,1322,1422,0,0
105,-398,0,0,0,0,0,0,0,0,0,-1,1329,1422,0,0
112,-398,0,0,0,0,0,0,0,0,0,-1,1336,1422,0,0
119,-398,0,0,0,0,0,0,0,0,0,-1,1343,1422,0,0
126,-398,0,0,0,0,0,0,0,0,0,-1,1350,1422,0,0
133,-398,0,0,0,0,0,0,0,0,0,-1,1357,1422,0,0
140,-398,0,0,0,0,0,0,0,0,0,-1,1364,1422,0,0
147,-398,0,0,0,0,0,0,0,0,0,-1,1371,1422,0,0
154,-398,0,0,0,0,0,0,0,0,0,-1,1378,1422,0,0
161,-398,0,0,0,0,0,0,0,0,0,-1,1385,1422,0,0
168,-398,0,0,0,0,0,0,0,0,0,-1,1392,1422,0,0
175,-398,0,0,0,0,0,0,0,0,0,-1,1399,1422,0,0
182,-398,0,0,0,0,0,0,0,0,0,-1,1406,1422,0,0
189,-398,0,0,0,0,0,0,0,0,0,-1,1413,1422,0,0
196,-398,0,0,0,0,0,0,0,0,0,-1,1420,1422,0,0
203,-398,0,0,0,0,0,0,0,0,0,-1,1427,1422,0,0
210,-398,0,0,0,0,0,0,0,0,0,-1,1434,1422,0,0
217,-398,0,0,0,0,0,0,0,0,0,-1,1441,1422,0,0
224,-398,0,0,0,0,0,0,0,0,0,-1,1448,1422,0,0
231,-398,0,0,0,0,0,0,0,0,0,-1,1455,1422,0,0
238,-398,0,0,0,0,0,0,0,0,0,-1,1462,1422,0,0
245,-398,0,0,0,0,0,0,0,0,0,-1,1469,1422,0,0
252,-398,0,0,0,0,0,0,0,0,0,-1,1476,1422,0,0
259,-398,0,0,0,0,0,0,0,0,0,-1,1483,1422,0,0
266,-398,0,0,0,0,0,0,0,0,0,-1,1490,1422,0,0
273,-398,0,0,0,0,0,0,0,0,0,-1,1497,1422,0,0
280,-398,0,0,0,0,0,0,0,0,0,-1,1504,1422,0,0
287,-398,0,0,0,0,0,0,0,0,0,-1,1511,1422,0,0
294,-398,0,0,0,0,0,0,0,0,0,-1,1518,1422,0,0
301,-398,0,0,0,0,0,0,0,0,0,-1,1525,1422,0,0
308,-398,0,0,0,0,0,0,0,0,0,-1,1532,1422,0,0
315,-398,0,0,0,0,0,0,0,0,0,-1,1539,1422,0,0
322,-398,0,0,0,0,0,0,0,0,0,-1,1546,1422,0,0
329,-398,0,0,0,0,0,0,0,0,0,-1,1553,1422,0,0
336,-398,0,0,0,0,0,0,0,0,0,-1,1560,1422,0,0
343,-398,0,0,0,0,0,0,0,0,0,-1,1567,1422,0,0
350,-398,0,0,0,0,0,0,0,0,0,-1,1574,1422,0,0
357,-398,0,0,0,0,0,0,0,0,0,-1,1581,1422,0,0
364,-398,0,0,0,0,0,0,0,0,0,-1,1588,1422,0,0
371,-398,0,0,0,0,0,0,0,0,0,-1,1595,1422,0,0
378,-398,0,0,0,0,0,0,0,0,0,-1,1602,1422,0,0
385,-398,0,0,0,0,0,0,0,0,0,-1,1609,1422,0,0
392,-398,0,0,0,0,0,0,0,0,0,-1,1616,1422,0,0
399,-398,0,0,0,0,0,0,0,0,0,-1,1623,1422,0,0
406,-398,0,0,0,0,0,0,0,0,0,-1,1630,1422,0,0
413,-398,0,0,0,0,0,0,0,0,0,-1,1637,1422,0,0
420,-398,0,0,0,0,0,0,0,0,0,-1,1644,1422,0,0
427,-398,0,0,0,0,0,0,0,0,0,-1,1651,1422,0,0
434,-398,0,0,0,0,0,0,0,0,0,-1,1658,1422,0,0
441,-398,0,0,0,0,0,0,0,0,0,-1,1665,1422,0,0
448,-398,0,0,0,0,0,0,0,0,0,-1,1672,1422,0,0
455,-398,0,0,0,0,0,0,0,0,0,-1,1679,1422,0,0
462,-398,0,0,0,0,0,0,0,0,0,-1,1686,1422,0,0
469,-398,0,0,0,0,0,0,0,0,0,-1,1693,1422,0,0
476,-398,0,0,0,0,0,0,0,0,0,-1,1700,1422,0,0
483,-398,0,0,0,0,0,0,0,0,0,-1,1707,1422,0,0
490,-398,0,0,0,0,0,0,0,0,0,-1,1714,1422,0,0
497,-398,0,0,0,0,0,0,0,0,0,-1,1721,1422,0,0
504,-398,0,0,0,0,0,0,0,0,0,-1,1728,1422,0,0
511,-398,0,0,0,0,0,0,0,0,0,-1,1735,1422,0,0
518,-398,0,0,0,0,0,0,0,0,0,-1,1742,1422,0,0
525,-398,0,0,0,0,0,0,0,0,0,-1,1749,1422,0,0
532,-398,23.488,1.61963,0,0,0,0,0,0,0,-1,1756,1422,23.4881,-1.61959
539,-398,21.8323,1.8689,0,0,0,0,0,0,0,-1,1763,1422,21.8322,-1.86887
546,-398,20.865,2.10522,0,0,0,0,0,0,0,-1,1770,1422,20.865,-2.10518
553,-398,19.873,2.31494,0,0,0,0,0,0,0,-1,1777,1422,19.873,-2.31496
560,-398,18.7664,2.58093,0,0,0,0,0,0,0,-1,1784,1422,18.7664,-2.58089
567,-398,17.8256,3.19897,0,0,0,0,0,0,0,-1,1791,1422,17.8255,-3.199
574,-398,17.1724,3.84631,0,0,0,0,0,0,0,-1,1798,1422,17.1723,-3.84628
581,-398,16.6462,4.40747,0,0,0,0,0,0,0,-1,1805,1422,16.6463,-4.40747
588,-398,15.9379,5.04346,0,0,0,0,0,0,0,-1,1812,1422,15.9379,-5.04342
595,-398,14.5299,5.75427,0,0,0,0,0,0,0,-1,1819,1422,14.5299,-5.75426
602,-398,13.7866,6.93652,0,0,0,0,0,0,0,-1,1826,1422,13.7867,-6.93658
609,-398,13.4116,7.25574,-0.019793,-0.0161971,0.0170028,-0.000897419,-0.0350927,0.838075,0.0231018,0.0480984,1833,1422,13.4117,-7.25578
616,-398,13.1614,7.4303,-0.0156038,-0.0127035,0.0128554,-0.00121668,-0.0270906,0.841563,0.0176688,0.0193196,1840,1422,13.1614,-7.43024
623,-398,13.1167,7.25659,-0.0111151,-0.00962991,0.00936697,-0.000976136,-0.0197688,0.824954,0.0128662,0.0108468,1847,1422,13.1168,-7.25664
630,-398,13.119,7.05823,-0.00760909,-0.00712103,0.00665903,-0.000701562,-0.0140286,0.803713,0.00912751,0.0115468,1854,1422,13.119,-7.05817
637,-398,13.1327,6.8584,-0.00518432,-0.0050389,0.00472519,-0.000385863,-0.00983735,0.793091,0.00643347,0.0130422,1861,1422,13.1327,-6.85845
644,-398,13.0646,6.63013,-0.00347598,-0.00341077,0.00339105,-5.21699e-05,-0.00683458,0.790205,0.0045391,0.0182718,1868,1422,13.0645,-6.63016
651,-398,13.1074,6.43909,-0.00215299,-0.00208243,0.0023833,0.00026585,-0.00450128,0.792799,0.00309328,0.024768,1875,1422,13.1074,-6.43912
658,-398,13.1311,6.26636,-0.00140948,-0.00120581,0.0019229,0.000617955,-0.00323324,0.811854,0.00238828,0.0183749,1882,1422,13.1311,-6.26632
665,-398,13.0859,6.03943,-0.000933917,-0.000462905,0.00189117,0.00120736,-0.00260418,0.847344,0.00224932,0.0132977,1889,1422,13.0859,-6.03946
672,-398,13.0873,5.83557,-0.000942661,-0.000115329,0.0022632,0.0017717,-0.00282969,0.87579,0.00267992,0.0122282,1896,1422,13.0873,-5.83562
679,-398,13.1027,5.62048,-0.000931994,2.04685e-05,0.00293512,0.00251774,-0.00342927,0.865824,0.00344693,0.0108439,1903,1422,13.1027,-5.62045
686,-398,13.1361,5.40637,-0.000878519,-0.000258098,0.00399434,0.00343806,-0.00457468,0.824152,0.00464164,0.0179068,1910,1422,13.1361,-5.40637
693,-398,12.9617,5.32092,-0.000368578,-0.00080269,0.00549913,0.00491778,-0.00608905,0.765673,0.00636678,0.0473764,1917,1422,12.9617,-5.32097
700,-398,12.8237,5.24634,0,0,0,0,0,0,0,-1,1924,1422,12.8238,-5.24637
707,-398,10.9731,5.479,0,0,0,0,0,0,0,-1,1931,1422,10.9732,-5.47896
714,-398,11.7313,6.17346,0,0,0,0,0,0,0,-1,1938,1422,11.7313,-6.17348
721,-398,13.9371,8.05103,0,0,0,0,0,0,0,-1,1945,1422,13.9372,-8.05102
728,-398,14.786,7.0282,0,0,0,0,0,0,0,-1,1952,1422,14.786,-7.0282
735,-398,0,0,0,0,0,0,0,0,0,-1,1959,1422,0,0
742,-398,0,0,0,0,0,0,0,0,0,-1,1966,1422,0,0
749,-398,0,0,0,0,0,0,0,0,0,-1,1973,1422,0,0
756,-398,0,0,0,0,0,0,0,0,0,-1,1980,1422,0,0
763,-398,0,0,0,0,0,0,0,0,0,-1,1987,1422,0,0
770,-398,0,0,0,0,0,0,0,0,0,-1,1994,1422,0,0
777,-398,0,0,0,0,0,0,0,0,0,-1,2001,1422,0,0
784,-398,0,0,0,0,0,0,0,0,0,-1,2008,1422,0,0
791,-398,0,0,0,0,0,0,0,0,0,-1,2015,1422,0,0
798,-398,0,0,0,0,0,0,0,0,0,-1,2022,1422,0,0
805,-398,0,0,0,0,0,0,0,0,0,-1,2029,1422,0,0
812,-398,0,0,0,0,0,0,0,0,0,-1,2036,1422,0,0
-700,-405,0,0,0,0,0,0,0,0,0,-1,524,1429,0,0
-693,-405,0,0,0,0,0,0,0,0,0,-1,531,1429,0,0
-686,-405,0,0,0,0,0,0,0,0,0,-1,538,1429,0,0
-679,-405,0,0,0,0,0,0,0,0,0,-1,545,1429,0,0
-672,-405,0,0,0,0,0,0,0,0,0,-1,552,1429,0,0
-665,-405,0,0,0,0,0,0,0,0,0,-1,559,1429,0,0
-658,-405,0,0,0,0,0,0,0,0,0,-1,566,1429,0,0
-651,-405,0,0,0,0,0,0,0,0,0,-1,573,1429,0,0
-644,-405,0,0,0,0,0,0,0,0,0,-1,580,1429,0,0
-637,-405,0,0,0,0,0,0,0,0,0,-1,587,1429,0,0
-630,-405,0,0,0,0,0,0,0,0,0,-1,594,1429,0,0
-623,-405,0,0,0,0,0,0,0,0,0,-1,601,1429,0,0
-616,-405,0,0,0,0,0,0,0,0,0,-1,608,1429,0,0
-609,-405,0,0,0,0,0,0,0,0,0,-1,615,1429,0,0
-602,-405,-5.80988,-3.46594,0,0,0,0,0,0,0,-1,622,1429,-5.80987,3.46592
-595,-405,-7.80023,0.702637,0,0,0,0,0,0,0,-1,629,1429,-7.80026,-0.702685
-588,-405,-7.63116,2.34253,0,0,0,0,0,0,0,-1,636,1429,-7.63117,-2.34248
-581,-405,-6.5014,2.89929,0.147062,0.0300495,0.00633802,0.147404,0.0297072,0.0539551,0.0900159,0.0472224,643,1429,-6.50139,-2.89927
-574,-405,-5.56049,3.25,0.113326,0.0256026,0.00571435,0.113697,0.0252319,0.0647755,0.0689439,0.0496783,650,1429,-5.56051,-3.25006
-567,-405,-4.83844,3.70166,0,0,0,0,0,0,0,-1,657,1429,-4.83846,-3.70162
-560,-405,-4.4646,3.50647,0.0620752,0.0178918,0.00420784,0.0624724,0.0174947,0.0941084,0.0372137,0.0464606,664,1429,-4.4646,-3.50645
-553,-405,-4.06781,3.50024,0.0439681,0.0146945,0.00356101,0.0443951,0.0142675,0.119327,0.026171,0.0432181,671,1429,-4.0678,-3.50021
-546,-405,-4.15314,3.62354,0.0302356,0.0118973,0.00302082,0.0307204,0.0114125,0.159128,0.0179306,0.0216996,678,1429,-4.15313,-3.6235
-539,-405,-4.16699,3.88452,0.0201468,0.00929386,0.00250509,0.0206971,0.00874354,0.216247,0.0119973,0.0117607,685,1429,-4.16698,-3.88449
-532,-405,-4.15363,4.13318,0.0120054,0.0068606,0.0018607,0.0126078,0.00625819,0.313108,0.00727918,0.0150301,692,1429,-4.15363,-4.13314
-525,-405,-4.14752,4.38745,0.00623315,0.00450623,0.00158398,0.00717373,0.00356565,0.535855,0.00414178,0.0140678,699,1429,-4.14752,-4.38744
-518,-405,-4.13666,4.61157,0.0030478,0.00264253,0.000938913,0.0038057,0.00188464,0.679118,0.00219725,0.0146477,706,1429,-4.13667,-4.61155
-511,-405,-4.16736,4.84241,0.0014994,0.000944018,-9.19988e-05,0.00151424,0.000929176,-0.159961,0.000881739,0.0150564,713,1429,-4.16737,-4.84236
-504,-405,-4.17029,5.07568,0.000364517,-0.00110042,-0.00149507,0.00129691,-0.00203281,-0.557622,0.001938,0.0170732,720,1429,-4.17027,-5.07572
-497,-405,-4.1557,5.3291,-0.00081543,-0.00341849,-0.00316824,0.0013082,-0.00554212,-0.590504,0.00419929,0.0138011,727,1429,-4.15572,-5.32909
-490,-405,-4.16467,5.58118,-0.00271287,-0.00615599,-0.00575005,0.0015678,-0.0104367,-0.639945,0.00753494,0.011359,734,1429,-4.16467,-5.58117
-483,-405,-4.15173,5.80823,-0.00497665,-0.00900679,-0.00897058,0.00220239,-0.0161858,-0.674917,0.0115946,0.0111729,741,1429,-4.15175,-5.80823
-476,-405,-4.07361,5.98083,-0.00635788,-0.0125853,-0.0119124,0.00284106,-0.0217842,-0.657567,0.0155566,0.0280968,748,1429,-4.07359,-5.98088
-469,-405,-3.98187,6.04822,-0.00708075,-0.0164559,-0.013434,0.00246002,-0.0259967,-0.617536,0.0182066,0.039303,755,1429,-3.98185,-6.04819
-462,-405,-3.9743,6.17285,-0.0085137,-0.0212315,-0.0160501,0.00239132,-0.0321365,-0.59679,0.0222643,0.0432729,762,1429,-3.97429,-6.17285
-455,-405,-4.42896,5.90747,-0.00910273,-0.0265537,-0.0179882,0.00216453,-0.037821,-0.559583,0.0259656,0.0455811,769,1429,-4.42894,-5.90753
-448,-405,-4.83844,5.40015,0,0,0,0,0,0,0,-1,776,1429,-4.83844,-5.40019
-441,-405,-3.55841,2.85327,0,0,0,0,0,0,0,-1,783,1429,-3.55841,-2.85331
-434,-405,-1.48053,1.55676,0,0,0,0,0,0,0,-1,790,1429,-1.48053,-1.55682
-427,-405,-6.66235,4.89832,0,0,0,0,0,0,0,-1,797,1429,-6.66234,-4.89835
-420,-405,-6.56586,6.11548,0,0,0,0,0,0,0,-1,804,1429,-6.56587,-6.11546
-413,-405,-6.50433,8.49573,0,0,0,0,0,0,0,-1,811,1429,-6.50434,-8.49576
-406,-405,-7.57202,1.12476,0,0,0,0,0,0,0,-1,818,1429,-7.572,-1.12474
-399,-405,0,0,0,0,0,0,0,0,0,-1,825,1429,0,0
-392,-405,0,0,0,0,0,0,0,0,0,-1,832,1429,0,0
-385,-405,0,0,0,0,0,0,0,0,0,-1,839,1429,0,0
-378,-405,0,0,0,0,0,0,0,0,0,-1,846,1429,0,0
-371,-405,0,0,0,0,0,0,0,0,0,-1,853,1429,0,0
-364,-405,0,0,0,0,0,0,0,0,0,-1,860,1429,0,0
-357,-405,0,0,0,0,0,0,0,0,0,-1,867,1429,0,0
-350,-405,0,0,0,0,0,0,0,0,0,-1,874,1429,0,0
-343,-405,0,0,0,0,0,0,0,0,0,-1,881,1429,0,0
-336,-405,0,0,0,0,0,0,0,0,0,-1,888,1429,0,0
-329,-405,0,0,0,0,0,0,0,0,0,-1,895,1429,0,0
-322,-405,0,0,0,0,0,0,0,0,0,-1,902,1429,0,0
-315,-405,0,0,0,0,0,0,0,0,0,-1,909,1429,0,0
-308,-405,0,0,0,0,0,0,0,0,0,-1,916,1429,0,0
-301,-405,0,0,0,0,0,0,0,0,0,-1,923,1429,0,0
-294,-405,0,0,0,0,0,0,0,0,0,-1,930,1429,0,0
-287,-405,0,0,0,0,0,0,0,0,0,-1,937,1429,0,0
-280,-405,0,0,0,0,0,0,0,0,0,-1,944,1429,0,0
-273,-405,0,0,0,0,0,0,0,0,0,-1,951,1429,0,0
-266,-405,0,0,0,0,0,0,0,0,0,-1,958,1429,0,0
-259,-405,0,0,0,0,0,0,0,0,0,-1,965,1429,0,0
-252,-405,0,0,0,0,0,0,0,0,0,-1,972,1429,0,0
-245,-405,0,0,0,0,0,0,0,0,0,-1,979,1429,0,0
-238,-405,0,0,0,0,0,0,0,0,0,-1,986,1429,0,0
-231,-405,0,0,0,0,0,0,0,0,0,-1,993,1429,0,0
-224,-405,0,0,0,0,0,0,0,0,0,-1,1000,1429,0,0
-217,-405,0,0,0,0,0,0,0,0,0,-1,1007,1429,0,0
-210,-405,0,0,0,0,0,0,0,0,0,-1,1014,1429,0,0
-203,-405,0,0,0,0,0,0,0,0,0,-1,1021,1429,0,0
-196,-405,0,0,0,0,0,0,0,0,0,-1,1028,1429,0,0
-189,-405,0,0,0,0,0,0,0,0,0,-1,1035,1429,0,0
-182,-405,0,0,0,0,0,0,0,0,0,-1,1042,1429,0,0
-175,-405,0,0,0,0,0,0,0,0,0,-1,1049,1429,0,0
-168,-405,0,0,0,0,0,0,0,0,0,-1,1056,1429,0,0
-161,-405,0,0,0,0,0,0,0,0,0,-1,1063,1429,0,0
-154,-405,0,0,0,0,0,0,0,0,0,-1,1070,1429,0,0
-147,-405,0,0,0,0,0,0,0,0,0,-1,1077,1429,0,0
-140,-405,0,0,0,0,0,0,0,0,0,-1,1084,1429,0,0
-133,-405,0,0,0,0,0,0,0,0,0,-1,1091,1429,0,0
-126,-405,0,0,0,0,0,0,0,0,0,-1,1098,1429,0,0
-119,-405,0,0,0,0,0,0,0,0,0,-1,1105,1429,0,0
-112,-405,0,0,0,0,0,0,0,0,0,-1,1112,1429,0,0
-105,-405,0,0,0,0,0,0,0,0,0,-1,1119,1429,0,0
-98,-405,0,0,0,0,0,0,0,0,0,-1,1126,1429,0,0
-91,-405,0,0,0,0,0,0,0,0,0,-1,1133,1429,0,0
-84,-405,0,0,0,0,0,0,0,0,0,-1,1140,1429,0,0
-77,-405,0,0,0,0,0,0,0,0,0,-1,1147,1429,0,0
-70,-405,0,0,0,0,0,0,0,0,0,-1,1154,1429,0,0
-63,-405,0,0,0,0,0,0,0,0,0,-1,1161,1429,0,0
-56,-405,0,0,0,0,0,0,0,0,0,-1,1168,1429,0,0
-49,-405,0,0,0,0,0,0,0,0,0,-1,1175,1429,0,0
-42,-405,0,0,0,0,0,0,0,0,0,-1,1182,1429,0,0
-35,-405,0,0,0,0,0,0,0,0,0,-1,1189,1429,0,0
-28,-405,0,0,0,0,0,0,0,0,0,-1,1196,1429,0,0
-21,-405,0,0,0,0,0,0,0,0,0,-1,1203,1429,0,0
-14,-405,0,0,0,0,0,0,0,0,0,-1,1210,1429,0,0
-7,-405,0,0,0,0,0,0,0,0,0,-1,1217,1429,0,0
0,-405,0,0,0,0,0,0,0,0,0,-1,1224,1429,0,0
7,-405,0,0,0,0,0,0,0,0,0,-1,1231,1429,0,0
14,-405,0,0,0,0,0,0,0,0,0,-1,1238,1429,0,0
21,-405,0,0,0,0,0,0,0,0,0,-1,1245,1429,0,0
28,-405,0,0,0,0,0,0,0,0,0,-1,1252,1429,0,0
35,-405,0,0,0,0,0,0,0,0,0,-1,1259,1429,0,0
42,-405,0,0,0,0,0,0,0,0,0,-1,1266,1429,0,0
49,-405,0,0,0,0,0,0,0,0,0,-1,1273,1429,0,0
56,-405,0,0,0,0,0,0,0,0,0,-1,1280,1429,0,0
63,-405,0,0,0,0,0,0,0,0,0,-1,1287,1429,0,0
70,-405,0,0,0,0,0,0,0,0,0,-1,1294,1429,0,0
77,-405,0,0,0,0,0,0,0,0,0,-1,1301,1429,0,0
84,-405,0,0,0,0,0,0,0,0,0,-1,1308,1429,0,0
91,-405,0,0,0,0,0,0,0,0,0,-1,1315,1429,0,0
98,-405,0,0,0,0,0,0,0,0,0,-1,1322,1429,0,0
105,-405,0,0,0,0,0,0,0,0,0,-1,1329,1429,0,0
112,-405,0,0,0,0,0,0,0,0,0,-1,1336,1429,0,0
119,-405,0,0,0,0,0,0,0,0,0,-1,1343,1429,0,0
126,-405,0,0,0,0,0,0,0,0,0,-1,1350,1429,0,0
133,-405,0,0,0,0,0,0,0,0,0,-1,1357,1429,0,0
140,-405,0,0,0,0,0,0,0,0,0,-1,1364,1429,0,0
147,-405,0,0,0,0,0,0,0,0,0,-1,1371,1429,0,0
154,-405,0,0,0,0,0,0,0,0,0,-1,1378,1429,0,0
161,-405,0,0,0,0,0,0,0,0,0,-1,1385,1429,0,0
168,-405,0,0,0,0,0,0,0,0,0,-1,1392,1429,0,0
175,-405,0,0,0,0,0,0,0,0,0,-1,1399,1429,0,0
182,-405,0,0,0,0,0,0,0,0,0,-1,1406,1429,0,0
189,-405,0,0,0,0,0,0,0,0,0,-1,1413,1429,0,0
196,-405,0,0,0,0,0,0,0,0,0,-1,1420,1429,0,0
203,-405,0,0,0,0,0,0,0,0,0,-1,1427,1429,0,0
210,-405,0,0,0,0,0,0,0,0,0,-1,1434,1429,0,0
217,-405,0,0,0,0,0,0,0,0,0,-1,1441,1429,0,0
224,-405,0,0,0,0,0,0,0,0,0,-1,1448,1429,0,0
231,-405,0,0,0,0,0,0,0,0,0,-1,1455,1429,0,0
238,-405,0,0,0,0,0,0,0,0,0,-1,1462,1429,0,0
245,-405,0,0,0,0,0,0,0,0,0,-1,1469,1429,0,0
252,-405,0,0,0,0,0,0,0,0,0,-1,1476,1429,0,0
259,-405,0,0,0,0,0,0,0,0,0,-1,1483,1429,0,0
266,-405,0,0,0,0,0,0,0,0,0,-1,1490,1429,0,0
273,-405,0,0,0,0,0,0,0,0,0,-1,1497,1429,0,0
280,-405,0,0,0,0,0,0,0,0,0,-1,1504,1429,0,0
287,-405,0,0,0,0,0,0,0,0,0,-1,1511,1429,0,0
294,-405,0,0,0,0,0,0,0,0,0,-1,1518,1429,0,0
301,-405,0,0,0,0,0,0,0,0,0,-1,1525,1429,0,0
308,-405,0,0,0,0,0,0,0,0,0,-1,1532,1429,0,0
315,-405,0,0,0,0,0,0,0,0,0,-1,1539,1429,0,0
322,-405,0,0,0,0,0,0,0,0,0,-1,1546,1429,0,0
329,-405,0,0,0,0,0,0,0,0,0,-1,1553,1429,0,0
336,-405,0,0,0,0,0,0,0,0,0,-1,1560,1429,0,0
343,-405,0,0,0,0,0,0,0,0,0,-1,1567,1429,0,0
350,-405,0,0,0,0,0,0,0,0,0,-1,1574,1429,0,0
357,-405,0,0,0,0,0,0,0,0,0,-1,1581,1429,0,0
364,-405,0,0,0,0,0,0,0,0,0,-1,1588,1429,0,0
371,-405,0,0,0,0,0,0,0,0,0,-1,1595,1429,0,0
378,-405,0,0,0,0,0,0,0,0,0,-1,1602,1429,0,0
385,-405,0,0,0,0,0,0,0,0,0,-1,1609,1429,0,0
392,-405,0,0,0,0,0,0,0,0,0,-1,1616,1429,0,0
399,-405,0,0,0,0,0,0,0,0,0,-1,1623,1429,0,0
406,-405,0,0,0,0,0,0,0,0,0,-1,1630,1429,0,0
413,-405,0,0,0,0,0,0,0,0,0,-1,1637,1429,0,0
420,-405,0,0,0,0,0,0,0,0,0,-1,1644,1429,0,0
427,-405,0,0,0,0,0,0,0,0,0,-1,1651,1429,0,0
434,-405,0,0,0,0,0,0,0,0,0,-1,1658,1429,0,0
441,-405,0,0,0,0,0,0,0,0,0,-1,1665,1429,0,0
448,-405,0,0,0,0,0,0,0,0,0,-1,1672,1429,0,0
455,-405,0,0,0,0,0,0,0,0,0,-1,1679,1429,0,0
462,-405,0,0,0,0,0,0,0,0,0,-1,1686,1429,0,0
469,-405,0,0,0,0,0,0,0,0,0,-1,1693,1429,0,0
476,-405,0,0,0,0,0,0,0,0,0,-1,1700,1429,0,0
483,-405,0,0,0,0,0,0,0,0,0,-1,1707,1429,0,0
490,-405,0,0,0,0,0,0,0,0,0,-1,1714,1429,0,0
497,-405,0,0,0,0,0,0,0,0,0,-1,1721,1429,0,0
504,-405,0,0,0,0,0,0,0,0,0,-1,1728,1429,0,0
511,-405,0,0,0,0,0,0,0,0,0,-1,1735,1429,0,0
518,-405,0,0,0,0,0,0,0,0,0,-1,1742,1429,0,0
525,-405,14.6423,1.7583,0,0,0,0,0,0,0,-1,1749,1429,14.6424,-1.75824
532,-405,22.7542,1.85034,0,0,0,0,0,0,0,-1,1756,1429,22.7541,-1.85038
539,-405,21.1149,1.93384,0,0,0,0,0,0,0,-1,1763,1429,21.1149,-1.93381
546,-405,20.1537,2.11157,0,0,0,0,0,0,0,-1,1770,1429,20.1537,-2.11163
553,-405,19.1523,2.2356,0,0,0,0,0,0,0,-1,1777,1429,19.1523,-2.23566
560,-405,17.9702,2.44043,0,0,0,0,0,0,0,-1,1784,1429,17.9703,-2.44041
567,-405,16.8976,3.23425,0,0,0,0,0,0,0,-1,1791,1429,16.8976,-3.2343
574,-405,16.168,4.06287,0,0,0,0,0,0,0,-1,1798,1429,16.168,-4.06291
581,-405,15.5306,4.74963,0,0,0,0,0,0,0,-1,1805,1429,15.5306,-4.74958
588,-405,14.788,5.52637,0,0,0,0,0,0,0,-1,1812,1429,14.7879,-5.52642
595,-405,14.1871,7.37036,0,0,0,0,0,0,0,-1,1819,1429,14.1872,-7.37041
602,-405,13.5604,7.47839,-0.0205407,-0.018529,0.0193237,-0.000184936,-0.0388847,0.8114,0.0258617,0.0411648,1826,1429,13.5604,-7.47839
609,-405,12.934,7.63306,-0.0180292,-0.0147971,0.0149668,-0.00135931,-0.031467,0.839178,0.0205399,0.0183817,1833,1429,12.934,-7.63311
616,-405,12.8912,7.50476,-0.0142791,-0.0113851,0.0112962,-0.0014436,-0.0242206,0.8491,0.015688,0.00945038,1840,1429,12.8913,-7.50473
623,-405,12.8918,7.2876,-0.0102229,-0.008451,0.00822408,-0.0010653,-0.0176086,0.839055,0.0114006,0.00935802,1847,1429,12.8919,-7.28764
630,-405,12.8987,7.07471,-0.00710939,-0.00617737,0.00588068,-0.000744263,-0.0125425,0.824938,0.00812495,0.0103651,1854,1429,12.8986,-7.07473
637,-405,12.8937,6.87903,-0.0049217,-0.00423504,0.00415396,-0.000410252,-0.0087465,0.82663,0.00569917,0.0113038,1861,1429,12.8936,-6.87906
644,-405,12.8334,6.66223,-0.00340298,-0.00276388,0.00299501,-7.14187e-05,-0.00609544,0.838544,0.00404003,0.0282235,1868,1429,12.8333,-6.66223
651,-405,12.8496,6.41919,-0.00226153,-0.00157961,0.00213267,0.000239181,-0.00408032,0.864665,0.00280334,0.028973,1875,1429,12.8496,-6.41922
658,-405,12.8824,6.25134,-0.00172021,-0.000790058,0.00181142,0.000615039,-0.0031253,0.911057,0.00231593,0.0207949,1882,1429,12.8825,-6.25139
665,-405,12.8783,6.04883,-0.00154026,-0.000191801,0.00195281,0.0011999,-0.00293196,0.951622,0.0024544,0.0175012,1889,1429,12.8784,-6.04887
672,-405,12.9,5.81152,-0.00186439,6.11836e-05,0.00252929,0.00180473,-0.00360794,0.967258,0.00318229,0.0209967,1896,1429,12.9001,-5.81153
679,-405,12.9448,5.57007,-0.00218698,0.000149622,0.00341271,0.00258846,-0.00462582,0.950315,0.00422017,0.0199235,1903,1429,12.9448,-5.57006
686,-405,12.8312,5.2655,-0.00255969,-0.000189466,0.00478167,0.00355177,-0.00630092,0.906873,0.00576179,0.0339778,1910,1429,12.8312,-5.26547
693,-405,12.6527,5.03406,0,0,0,0,0,0,0,-1,1917,1429,12.6527,-5.03408
700,-405,9.1958,4.02026,0,0,0,0,0,0,0,-1,1924,1429,9.19579,-4.02025
707,-405,7.40308,3.83191,0,0,0,0,0,0,0,-1,1931,1429,7.40311,-3.83194
714,-405,7.33252,3.47388,0,0,0,0,0,0,0,-1,1938,1429,7.33255,-3.47383
721,-405,9.23523,0.993896,0,0,0,0,0,0,0,-1,1945,1429,9.23523,-0.993884
728,-405,0,0,0,0,0,0,0,0,0,-1,1952,1429,0,0
735,-405,0,0,0,0,0,0,0,0,0,-1,1959,1429,0,0
742,-405,0,0,0,0,0,0,0,0,0,-1,1966,1429,0,0
749,-405,0,0,0,0,0,0,0,0,0,-1,1973,1429,0,0
756,-405,0,0,0,0,0,0,0,0,0,-1,1980,1429,0,0
763,-405,0,0,0,0,0,0,0,0,0,-1,1987,1429,0,0
770,-405,0,0,0,0,0,0,0,0,0,-1,1994,1429,0,0
777,-405,0,0,0,0,0,0,0,0,0,-1,2001,1429,0,0
784,-405,0,0,0,0,0,0,0,0,0,-1,2008,1429,0,0
791,-405,0,0,0,0,0,0,0,0,0,-1,2015,1429,0,0
798,-405,0,0,0,0,0,0,0,0,0,-1,2022,1429,0,0
805,-405,0,0,0,0,0,0,0,0,0,-1,2029,1429,0,0
812,-405,0,0,0,0,0,0,0,0,0,-1,2036,1429,0,0
-700,-412,0,0,0,0,0,0,0,0,0,-1,524,1436,0,0
-693,-412,0,0,0,0,0,0,0,0,0,-1,531,1436,0,0
-686,-412,0,0,0,0,0,0,0,0,0,-1,538,1436,0,0
-679,-412,0,0,0,0,0,0,0,0,0,-1,545,1436,0,0
-672,-412,0,0,0,0,0,0,0,0,0,-1,552,1436,0,0
-665,-412,0,0,0,0,0,0,0,0,0,-1,559,1436,0,0
-658,-412,0,0,0,0,0,0,0,0,0,-1,566,1436,0,0
-651,-412,0,0,0,0,0,0,0,0,0,-1,573,1436,0,0
-644,-412,0,0,0,0,0,0,0,0,0,-1,580,1436,0,0
-637,-412,0,0,0,0,0,0,0,0,0,-1,587,1436,0,0
-630,-412,0,0,0,0,0,0,0,0,0,-1,594,1436,0,0
-623,-412,0,0,0,0,0,0,0,0,0,-1,601,1436,0,0
-616,-412,0,0,0,0,0,0,0,0,0,-1,608,1436,0,0
-609,-412,0,0,0,0,0,0,0,0,0,-1,615,1436,0,0
-602,-412,-3.72766,-3.50012,0,0,0,0,0,0,0,-1,622,1436,-3.72764,3.50017
-595,-412,-3.48932,-2.58386,0,0,0,0,0,0,0,-1,629,1436,-3.48931,2.58391
-588,-412,-7.80664,1.078,0,0,0,0,0,0,0,-1,636,1436,-7.80666,-1.07806
-581,-412,-6.63086,2.52368,0,0,0,0,0,0,0,-1,643,1436,-6.63083,-2.52367
-574,-412,-5.32935,3.1416,0,0,0,0,0,0,0,-1,650,1436,-5.32932,-3.14165
-567,-412,-3.57568,1.44226,0,0,0,0,0,0,0,-1,657,1436,-3.57566,-1.44225
-560,-412,-3.93713,3.37451,0,0,0,0,0,0,0,-1,664,1436,-3.93712,-3.37454
-553,-412,-3.79578,3.57031,0.0501976,0.0187183,0.00678314,0.051597,0.0173189,0.203454,0.0303212,0.0462624,671,1436,-3.79575,-3.57032
-546,-412,-3.75085,3.6908,0.0347284,0.0150633,0.00586032,0.0363424,0.0134494,0.268741,0.0212171,0.0335581,678,1436,-3.75088,-3.69077
-539,-412,-3.91119,3.85242,0.0233798,0.0117767,0.00494682,0.0252025,0.00995404,0.353023,0.0146573,0.0159125,685,1436,-3.91121,-3.85248
-532,-412,-3.91669,4.13904,0.0143042,0.00888083,0.00395066,0.0163843,0.00680076,0.484632,0.00950484,0.0130487,692,1436,-3.91668,-4.13899
-525,-412,-3.92218,4.39478,0.00781061,0.00614863,0.00331409,0.0103963,0.00356294,0.662559,0.0061005,0.0136283,699,1436,-3.92218,-4.39473
-518,-412,-3.91504,4.61914,0.00403645,0.0040322,0.00231418,0.00634851,0.00172015,0.784939,0.00379134,0.0156241,706,1436,-3.91504,-4.6191
-511,-412,-3.95221,4.84009,0.00219916,0.00211396,0.00106153,0.00321894,0.00109418,0.765343,0.00188994,0.0191256,713,1436,-3.95218,-4.84014
-504,-412,-3.97284,5.0741,0.000889871,-8.26833e-06,-0.00046096,0.00108434,-0.000202742,-0.399232,0.000799096,0.0183969,720,1436,-3.97282,-5.07404
-497,-412,-3.93793,5.33398,-0.000409145,-0.00245529,-0.00217961,0.000975557,-0.00383999,-0.565971,0.00293964,0.014108,727,1436,-3.93794,-5.33398
-490,-412,-3.92871,5.58398,-0.00216924,-0.0052465,-0.00458197,0.00112554,-0.00854128,-0.623413,0.00610406,0.012007,734,1436,-3.9287,-5.58403
-483,-412,-3.94489,5.7887,-0.0038707,-0.00810851,-0.00749902,0.00180302,-0.0137822,-0.647709,0.00984435,0.00850986,741,1436,-3.94487,-5.78868
-476,-412,-3.87567,6.06445,-0.00474317,-0.0116973,-0.0102014,0.00255743,-0.0189979,-0.621151,0.0135981,0.0163625,748,1436,-3.87566,-6.06443
-469,-412,-3.85028,6.20435,-0.0052442,-0.0154481,-0.0116825,0.00240183,-0.0230941,-0.579522,0.0162559,0.0277664,755,1436,-3.85029,-6.20429
-462,-412,-3.81232,6.32861,-0.00630917,-0.0200922,-0.0139462,0.00235533,-0.0287567,-0.55592,0.0200025,0.0360746,762,1436,-3.81229,-6.32861
-455,-412,-4.04266,6.02991,-0.00665757,-0.0253139,-0.015817,0.00237704,-0.0343486,-0.518971,0.0237311,0.0455449,769,1436,-4.04266,-6.02989
-448,-412,-4.13416,5.60339,0,0,0,0,0,0,0,-1,776,1436,-4.13414,-5.60338
-441,-412,-4.85999,5.04785,0,0,0,0,0,0,0,-1,783,1436,-4.85998,-5.0479
-434,-412,-6.49304,4.31287,0,0,0,0,0,0,0,-1,790,1436,-6.49306,-4.31283
-427,-412,-5.78693,5.48511,0.0120623,-0.0471222,-0.00460083,0.0124178,-0.0474777,-0.0771196,0.0365021,0.0498007,797,1436,-5.78693,-5.48508
-420,-412,-5.07867,6.58777,0.0248892,-0.0506431,0.00657712,0.0254577,-0.0512116,0.0862122,0.0450898,0.0479275,804,1436,-5.07867,-6.58781
-413,-412,-4.25989,7.47766,0,0,0,0,0,0,0,-1,811,1436,-4.25988,-7.47772
-406,-412,-3.6377,8.31702,0,0,0,0,0,0,0,-1,818,1436,-3.6377,-8.31701
-399,-412,-10.0757,0.442261,0,0,0,0,0,0,0,-1,825,1436,-10.0758,-0.442237
-392,-412,0,0,0,0,0,0,0,0,0,-1,832,1436,0,0
-385,-412,0,0,0,0,0,0,0,0,0,-1,839,1436,0,0
-378,-412,0,0,0,0,0,0,0,0,0,-1,846,1436,0,0
-371,-412,0,0,0,0,0,0,0,0,0,-1,853,1436,0,0
-364,-412,0,0,0,0,0,0,0,0,0,-1,860,1436,0,0
-357,-412,0,0,0,0,0,0,0,0,0,-1,867,1436,0,0
-350,-412,0,0,0,0,0,0,0,0,0,-1,874,1436,0,0
-343,-412,0,0,0,0,0,0,0,0,0,-1,881,1436,0,0
-336,-412,0,0,0,0,0,0,0,0,0,-1,888,1436,0,0
-329,-412,0,0,0,0,0,0,0,0,0,-1,895,1436,0,0
-322,-412,0,0,0,0,0,0,0,0,0,-1,902,1436,0,0
-315,-412,0,0,0,0,0,0,0,0,0,-1,909,1436,0,0
-308,-412,0,0,0,0,0,0,0,0,0,-1,916,1436,0,0
-301,-412,0,0,0,0,0,0,0,0,0,-1,923,1436,0,0
-294,-412,0,0,0,0,0,0,0,0,0,-1,930,1436,0,0
-287,-412,0,0,0,0,0,0,0,0,0,-1,937,1436,0,0
-280,-412,0,0,0,0,0,0,0,0,0,-1,944,1436,0,0
-273,-412,0,0,0,0,0,0,0,0,0,-1,951,1436,0,0
-266,-412,0,0,0,0,0,0,0,0,0,-1,958,1436,0,0
-259,-412,0,0,0,0,0,0,0,0,0,-1,965,1436,0,0
-252,-412,0,0,0,0,0,0,0,0,0,-1,972,1436,0,0
-245,-412,0,0,0,0,0,0,0,0,0,-1,979,1436,0,0
-238,-412,0,0,0,0,0,0,0,0,0,-1,986,1436,0,0
-231,-412,0,0,0,0,0,0,0,0,0,-1,993,1436,0,0
-224,-412,0,0,0,0,0,0,0,0,0,-1,1000,1436,0,0
-217,-412,0,0,0,0,0,0,0,0,0,-1,1007,1436,0,0
-210,-412,0,0,0,0,0,0,0,0,0,-1,1014,1436,0,0
-203,-412,0,0,0,0,0,0,0,0,0,-1,1021,1436,0,0
-196,-412,0,0,0,0,0,0,0,0,0,-1,1028,1436,0,0
-189,-412,0,0,0,0,0,0,0,0,0,-1,1035,1436,0,0
-182,-412,0,0,0,0,0,0,0,0,0,-1,1042,1436,0,0
-175,-412,0,0,0,0,0,0,0,0,0,-1,1049,1436,0,0
-168,-412,0,0,0,0,0,0,0,0,0,-1,1056,1436,0,0
-161,-412,0,0,0,0,0,0,0,0,0,-1,1063,1436,0,0
-154,-412,0,0,0,0,0,0,0,0,0,-1,1070,1436,0,0
-147,-412,0,0,0,0,0,0,0,0,0,-1,1077,1436,0,0
-140,-412,0,0,0,0,0,0,0,0,0,-1,1084,1436,0,0
-133,-412,0,0,0,0,0,0,0,0,0,-1,1091,1436,0,0
-126,-412,0,0,0,0,0,0,0,0,0,-1,1098,1436,0,0
-119,-412,0,0,0,0,0,0,0,0,0,-1,1105,1436,0,0
-112,-412,0,0,0,0,0,0,0,0,0,-1,1112,1436,0,0
-105,-412,0,0,0,0,0,0,0,0,0,-1,1119,1436,0,0
-98,-412,0,0,0,0,0,0,0,0,0,-1,1126,1436,0,0
-91,-412,0,0,0,0,0,0,0,0,0,-1,1133,1436,0,0
-84,-412,0,0,0,0,0,0,0,0,0,-1,1140,1436,0,0
-77,-412,0,0,0,0,0,0,0,0,0,-1,1147,1436,0,0
-70,-412,0,0,0,0,0,0,0,0,0,-1,1154,1436,0,0
-63,-412,0,0,0,0,0,0,0,0,0,-1,1161,1436,0,0
-56,-412,0,0,0,0,0,0,0,0,0,-1,1168,1436,0,0
-49,-412,0,0,0,0,0,0,0,0,0,-1,1175,1436,0,0
-42,-412,0,0,0,0,0,0,0,0,0,-1,1182,1436,0,0
-35,-412,0,0,0,0,0,0,0,0,0,-1,1189,1436,0,0
-28,-412,0,0,0,0,0,0,0,0,0,-1,1196,1436,0,0
-21,-412,0,0,0,0,0,0,0,0,0,-1,1203,1436,0,0
-14,-412,0,0,0,0,0,0,0,0,0,-1,1210,1436,0,0
-7,-412,0,0,0,0,0,0,0,0,0,-1,1217,1436,0,0
0,-412,0,0,0,0,0,0,0,0,0,-1,1224,1436,0,0
7,-412,0,0,0,0,0,0,0,0,0,-1,1231,1436,0,0
14,-412,0,0,0,0,0,0,0,0,0,-1,1238,1436,0,0
21,-412,0,0,0,0,0,0,0,0,0,-1,1245,1436,0,0
28,-412,0,0,0,0,0,0,0,0,0,-1,1252,1436,0,0
35,-412,0,0,0,0,0,0,0,0,0,-1,1259,1436,0,0
42,-412,0,0,0,0,0,0,0,0,0,-1,1266,1436,0,0
49,-412,0,0,0,0,0,0,0,0,0,-1,1273,1436,0,0
56,-412,0,0,0,0,0,0,0,0,0,-1,1280,1436,0,0
63,-412,0,0,0,0,0,0,0,0,0,-1,1287,1436,0,0
70,-412,0,0,0,0,0,0,0,0,0,-1,1294,1436,0,0
77,-412,0,0,0,0,0,0,0,0,0,-1,1301,1436,0,0
84,-412,0,0,0,0,0,0,0,0,0,-1,1308,1436,0,0
91,-412,0,0,0,0,0,0,0,0,0,-1,1315,1436,0,0
98,-412,0,0,0,0,0,0,0,0,0,-1,1322,1436,0,0
105,-412,0,0,0,0,0,0,0,0,0,-1,1329,1436,0,0
112,-412,0,0,0,0,0,0,0,0,0,-1,1336,1436,0,0
119,-412,0,0,0,0,0,0,0,0,0,-1,1343,1436,0,0
126,-412,0,0,0,0,0,0,0,0,0,-1,1350,1436,0,0
133,-412,0,0,0,0,0,0,0,0,0,-1,1357,1436,0,0
140,-412,0,0,0,0,0,0,0,0,0,-1,1364,1436,0,0
147,-412,0,0,0,0,0,0,0,0,0,-1,1371,1436,0,0
154,-412,0,0,0,0,0,0,0,0,0,-1,1378,1436,0,0
161,-412,0,0,0,0,0,0,0,0,0,-1,1385,1436,0,0
168,-412,0,0,0,0,0,0,0,0,0,-1,1392,1436,0,0
175,-412,0,0,0,0,0,0,0,0,0,-1,1399,1436,0,0
182,-412,0,0,0,0,0,0,0,0,0,-1,1406,1436,0,0
189,-412,0,0,0,0,0,0,0,0,0,-1,1413,1436,0,0
196,-412,0,0,0,0,0,0,0,0,0,-1,1420,1436,0,0
203,-412,0,0,0,0,0,0,0,0,0,-1,1427,1436,0,0
210,-412,0,0,0,0,0,0,0,0,0,-1,1434,1436,0,0
217,-412,0,0,0,0,0,0,0,0,0,-1,1441,1436,0,0
224,-412,0,0,0,0,0,0,0,0,0,-1,1448,1436,0,0
231,-412,0,0,0,0,0,0,0,0,0,-1,1455,1436,0,0
238,-412,0,0,0,0,0,0,0,0,0,-1,1462,1436,0,0
245,-412,0,0,0,0,0,0,0,0,0,-1,1469,1436,0,0
252,-412,0,0,0,0,0,0,0,0,0,-1,1476,1436,0,0
259,-412,0,0,0,0,0,0,0,0,0,-1,1483,1436,0,0
266,-412,0,0,0,0,0,0,0,0,0,-1,1490,1436,0,0
273,-412,0,0,0,0,0,0,0,0,0,-1,1497,1436,0,0
280,-412,0,0,0,0,0,0,0,0,0,-1,1504,1436,0,0
287,-412,0,0,0,0,0,0,0,0,0,-1,1511,1436,0,0
294,-412,0,0,0,0,0,0,0,0,0,-1,1518,1436,0,0
301,-412,0,0,0,0,0,0,0,0,0,-1,1525,1436,0,0
308,-412,0,0,0,0,0,0,0,0,0,-1,1532,1436,0,0
315,-412,0,0,0,0,0,0,0,0,0,-1,1539,1436,0,0
322,-412,0,0,0,0,0,0,0,0,0,-1,1546,1436,0,0
329,-412,0,0,0,0,0,0,0,0,0,-1,1553,1436,0,0
336,-412,0,0,0,0,0,0,0,0,0,-1,1560,1436,0,0
343,-412,0,0,0,0,0,0,0,0,0,-1,1567,1436,0,0
350,-412,0,0,0,0,0,0,0,0,0,-1,1574,1436,0,0
357,-412,0,0,0,0,0,0,0,0,0,-1,1581,1436,0,0
364,-412,0,0,0,0,0,0,0,0,0,-1,1588,1436,0,0
371,-412,0,0,0,0,0,0,0,0,0,-1,1595,1436,0,0
378,-412,0,0,0,0,0,0,0,0,0,-1,1602,1436,0,0
385,-412,0,0,0,0,0,0,0,0,0,-1,1609,1436,0,0
392,-412,0,0,0,0,0,0,0,0,0,-1,1616,1436,0,0
399,-412,0,0,0,0,0,0,0,0,0,-1,1623,1436,0,0
406,-412,0,0,0,0,0,0,0,0,0,-1,1630,1436,0,0
413,-412,0,0,0,0,0,0,0,0,0,-1,1637,1436,0,0
420,-412,0,0,0,0,0,0,0,0,0,-1,1644,1436,0,0
427,-412,0,0,0,0,0,0,0,0,0,-1,1651,1436,0,0
434,-412,0,0,0,0,0,0,0,0,0,-1,1658,1436,0,0
441,-412,0,0,0,0,0,0,0,0,0,-1,1665,1436,0,0
448,-412,0,0,0,0,0,0,0,0,0,-1,1672,1436,0,0
455,-412,0,0,0,0,0,0,0,0,0,-1,1679,1436,0,0
462,-412,0,0,0,0,0,0,0,0,0,-1,1686,1436,0,0
469,-412,0,0,0,0,0,0,0,0,0,-1,1693,1436,0,0
476,-412,0,0,0,0,0,0,0,0,0,-1,1700,1436,0,0
483,-412,0,0,0,0,0,0,0,0,0,-1,1707,1436,0,0
490,-412,0,0,0,0,0,0,0,0,0,-1,1714,1436,0,0
497,-412,0,0,0,0,0,0,0,0,0,-1,1721,1436,0,0
504,-412,0,0,0,0,0,0,0,0,0,-1,1728,1436,0,0
511,-412,0,0,0,0,0,0,0,0,0,-1,1735,1436,0,0
518,-412,13.5378,1.3866,0,0,0,0,0,0,0,-1,1742,1436,13.5379,-1.38663
525,-412,22.8384,2.03333,0,0,0,0,0,0,0,-1,1749,1436,22.8384,-2.03331
532,-412,21.8945,2.29199,0,0,0,0,0,0,0,-1,1756,1436,21.8946,-2.29203
539,-412,20.7961,2.47241,0,0,0,0,0,0,0,-1,1763,1436,20.7962,-2.47239
546,-412,19.4315,2.4071,0,0,0,0,0,0,0,-1,1770,1436,19.4315,-2.40706
553,-412,18.1896,2.19727,0,0,0,0,0,0,0,-1,1777,1436,18.1896,-2.19725
560,-412,16.8402,2.41418,0,0,0,0,0,0,0,-1,1784,1436,16.8402,-2.41425
567,-412,15.9099,3.43774,0,0,0,0,0,0,0,-1,1791,1436,15.9099,-3.43772
574,-412,15.1012,4.30872,0,0,0,0,0,0,0,-1,1798,1436,15.1012,-4.30869
581,-412,14.4465,5.09924,0,0,0,0,0,0,0,-1,1805,1436,14.4465,-5.09929
588,-412,14.4573,7.3374,0,0,0,0,0,0,0,-1,1812,1436,14.4572,-7.33744
595,-412,13.699,7.53296,-0.0219263,-0.0231741,0.0219067,-0.00063462,-0.0444658,0.771163,0.0294346,0.0434693,1819,1436,13.699,-7.53296
602,-412,12.9443,7.85303,-0.0190975,-0.018146,0.0170676,-0.0015475,-0.035696,0.799331,0.0232987,0.0227924,1826,1436,12.9443,-7.85298
609,-412,12.7106,7.69922,-0.0167239,-0.014074,0.0130868,-0.00224521,-0.0285527,0.835847,0.0183326,0.00881597,1833,1436,12.7105,-7.69927
616,-412,12.6528,7.50488,-0.0132367,-0.0105559,0.00978822,-0.00201672,-0.0217759,0.853447,0.0138939,0.00743531,1840,1436,12.6528,-7.50493
623,-412,12.6593,7.29333,-0.00940923,-0.00760422,0.00700714,-0.00144171,-0.0155717,0.849445,0.00993552,0.00909978,1847,1436,12.6593,-7.29338
630,-412,12.6759,7.06543,-0.00651945,-0.00541682,0.00493899,-0.000998473,-0.0109378,0.840981,0.00698288,0.011168,1854,1436,12.6759,-7.06546
637,-412,12.6766,6.86829,-0.00442738,-0.00352262,0.00335839,-0.00058628,-0.00736371,0.852346,0.00472585,0.0135054,1861,1436,12.6767,-6.86831
644,-412,12.6741,6.67139,-0.00298406,-0.00213804,0.00232125,-0.000201568,-0.00492053,0.875525,0.00321527,0.0146272,1868,1436,12.6741,-6.67138
651,-412,12.6709,6.41162,-0.00195295,-0.00105732,0.001582,0.000139024,-0.0031493,0.923324,0.00214738,0.0224893,1875,1436,12.6709,-6.41161
658,-412,12.6648,6.2356,-0.00158894,-0.000343196,0.00139596,0.000562547,-0.00249468,0.995242,0.00187892,0.0158144,1882,1436,12.6648,-6.23565
665,-412,12.6589,6.03748,-0.00170441,0.000108902,0.0017062,0.00113438,-0.00272989,1.02962,0.00229355,0.0216201,1889,1436,12.6589,-6.03742
672,-412,12.7067,5.8147,-0.00236364,0.000253919,0.00248411,0.00175293,-0.00386266,1.02785,0.00331756,0.0261838,1896,1436,12.7067,-5.8147
679,-412,12.7546,5.52637,-0.00309635,0.000289951,0.00359306,0.00256881,-0.00537521,1.00558,0.00468091,0.0345156,1903,1436,12.7546,-5.52642
686,-412,12.53,5.03137,0,0,0,0,0,0,0,-1,1910,1436,12.53,-5.03137
693,-412,10.8674,5.38049,0,0,0,0,0,0,0,-1,1917,1436,10.8674,-5.38051
700,-412,8.82764,5.8844,0,0,0,0,0,0,0,-1,1924,1436,8.82761,-5.88444
707,-412,6.59998,1.68994,0,0,0,0,0,0,0,-1,1931,1436,6.60002,-1.68995
714,-412,4.77283,-2.39832,0,0,0,0,0,0,0,-1,1938,1436,4.77288,2.39835
721,-412,0,0,0,0,0,0,0,0,0,-1,1945,1436,0,0
728,-412,0,0,0,0,0,0,0,0,0,-1,1952,1436,0,0
735,-412,0,0,0,0,0,0,0,0,0,-1,1959,1436,0,0
742,-412,0,0,0,0,0,0,0,0,0,-1,1966,1436,0,0
749,-412,0,0,0,0,0,0,0,0,0,-1,1973,1436,0,0
756,-412,0,0,0,0,0,0,0,0,0,-1,1980,1436,0,0
763,-412,0,0,0,0,0,0,0,0,0,-1,1987,1436,0,0
770,-412,0,0,0,0,0,0,0,0,0,-1,1994,1436,0,0
777,-412,0,0,0,0,0,0,0,0,0,-1,2001,1436,0,0
784,-412,0,0,0,0,0,0,0,0,0,-1,2008,1436,0,0
791,-412,0,0,0,0,0,0,0,0,0,-1,2015,1436,0,0
798,-412,0,0,0,0,0,0,0,0,0,-1,2022,1436,0,0
805,-412,0,0,0,0,0,0,0,0,0,-1,2029,1436,0,0
812,-412,0,0,0,0,0,0,0,0,0,-1,2036,1436,0,0
-700,-419,0,0,0,0,0,0,0,0,0,-1,524,1443,0,0
-693,-419,0,0,0,0,0,0,0,0,0,-1,531,1443,0,0
-686,-419,0,0,0,0,0,0,0,0,0,-1,538,1443,0,0
-679,-419,0,0,0,0,0,0,0,0,0,-1,545,1443,0,0
-672,-419,0,0,0,0,0,0,0,0,0,-1,552,1443,0,0
-665,-419,0,0,0,0,0,0,0,0,0,-1,559,1443,0,0
-658,-419,0,0,0,0,0,0,0,0,0,-1,566,1443,0,0
-651,-419,0,0,0,0,0,0,0,0,0,-1,573,1443,0,0
-644,-419,0,0,0,0,0,0,0,0,0,-1,580,1443,0,0
-637,-419,0,0,0,0,0,0,0,0,0,-1,587,1443,0,0
-630,-419,0,0,0,0,0,0,0,0,0,-1,594,1443,0,0
-623,-419,0,0,0,0,0,0,0,0,0,-1,601,1443,0,0
-616,-419,0,0,0,0,0,0,0,0,0,-1,608,1443,0,0
-609,-419,0,0,0,0,0,0,0,0,0,-1,615,1443,0,0
-602,-419,0,0,0,0,0,0,0,0,0,-1,622,1443,0,0
-595,-419,-4.27423,-0.479492,0,0,0,0,0,0,0,-1,629,1443,-4.27421,0.479525
-588,-419,-3.75415,0.426147,0,0,0,0,0,0,0,-1,636,1443,-3.75414,-0.426145
-581,-419,-3.37775,1.73169,0,0,0,0,0,0,0,-1,643,1443,-3.37775,-1.73163
-574,-419,-2.68231,0.384277,0,0,0,0,0,0,0,-1,650,1443,-2.68231,-0.384297
-567,-419,-3.76215,1.37549,0,0,0,0,0,0,0,-1,657,1443,-3.76215,-1.37547
-560,-419,-3.38745,3.5531,0,0,0,0,0,0,0,-1,664,1443,-3.38747,-3.55314
-553,-419,-3.42566,3.72437,0.0568725,0.0200241,0.0138636,0.0615058,0.0153907,0.322539,0.0369578,0.0480294,671,1443,-3.42567,-3.72438
-546,-419,-3.44073,3.85864,0.0396118,0.0158464,0.0120215,0.0446322,0.010826,0.395603,0.0268828,0.0437262,678,1443,-3.44073,-3.85859
-539,-419,-3.54492,3.90637,0.0269649,0.0122506,0.0101814,0.0321691,0.00704637,0.47253,0.0195258,0.0315813,685,1443,-3.54493,-3.90632
-532,-419,-3.68195,4.12634,0.0169779,0.00927082,0.00833052,0.022303,0.00394571,0.568765,0.0137435,0.0145194,692,1443,-3.68197,-4.12628
-525,-419,-3.68091,4.3999,0.00982478,0.00652498,0.00686124,0.0152317,0.00111806,0.667405,0.00980306,0.0118844,699,1443,-3.68091,-4.39985
-518,-419,-3.66168,4.63232,0.00550801,0.00445575,0.00509334,0.0101023,-0.00013856,0.733932,0.00678154,0.0169532,706,1443,-3.6617,-4.63235
-511,-419,-3.68085,4.85657,0.00331883,0.00259335,0.00323184,0.00620822,-0.000296044,0.729512,0.00424094,0.0203041,713,1443,-3.68085,-4.85658
-504,-419,-3.7171,5.09277,0.00176439,0.000622227,0.00128169,0.00259647,-0.000209849,0.575816,0.001805,0.0189299,720,1443,-3.71712,-5.09278
-497,-419,-3.69574,5.3219,0.000247883,-0.00176319,-0.000739494,0.000490527,-0.00200584,-0.317052,0.00152722,0.012872,727,1443,-3.69574,-5.32186
-490,-419,-3.68805,5.57593,-0.00149881,-0.00444078,-0.00317837,0.000532472,-0.00647205,-0.56867,0.0045027,0.0106587,734,1443,-3.68804,-5.57592
-483,-419,-3.68213,5.81433,-0.00285071,-0.00700561,-0.00600237,0.00142355,-0.0112799,-0.618798,0.00803657,0.00916669,741,1443,-3.6821,-5.81437
-476,-419,-3.6911,6.03796,-0.00341842,-0.0104752,-0.00857502,0.00232574,-0.0162194,-0.590219,0.0116657,0.00957832,748,1443,-3.69112,-6.038
-469,-419,-3.66455,6.29846,-0.00376807,-0.0140008,-0.0100664,0.00240753,-0.0201764,-0.550279,0.0143211,0.013978,755,1443,-3.66454,-6.29848
-462,-419,-3.58594,6.47339,-0.00454355,-0.01835,-0.0120719,0.00245949,-0.025353,-0.525668,0.0177787,0.0252367,762,1443,-3.58594,-6.47345
-455,-419,-3.67303,6.19202,-0.00470174,-0.0232541,-0.0138916,0.00272606,-0.0306819,-0.49102,0.0214212,0.0399177,769,1443,-3.67304,-6.19197
-448,-419,-3.88013,5.81616,-0.00391742,-0.0286195,-0.0148881,0.00307588,-0.0356128,-0.439135,0.0248308,0.0426421,776,1443,-3.88013,-5.81615
-441,-419,-4.57355,5.33472,-0.00166835,-0.03418,-0.0144753,0.00384247,-0.0396908,-0.363762,0.0278299,0.0452768,783,1443,-4.57354,-5.33477
-434,-419,-4.98517,4.9823,0,0,0,0,0,0,0,-1,790,1443,-4.98519,-4.98225
-427,-419,-5.02673,6.03088,0.00971058,-0.0445766,-0.00666054,0.0105158,-0.0453819,-0.120314,0.0343014,0.0482808,797,1443,-5.0267,-6.03092
-420,-419,-4.82684,7.12207,0.0196904,-0.048484,0.00232611,0.0197697,-0.0485633,0.0340671,0.0406028,0.0457412,804,1443,-4.82683,-7.12202
-413,-419,-4.31622,8.27368,0,0,0,0,0,0,0,-1,811,1443,-4.31622,-8.2737
-406,-419,-9.74231,2.40356,0,0,0,0,0,0,0,-1,818,1443,-9.74231,-2.40358
-399,-419,-10.9961,0.84082,0,0,0,0,0,0,0,-1,825,1443,-10.9961,-0.840838
-392,-419,0,0,0,0,0,0,0,0,0,-1,832,1443,0,0
-385,-419,0,0,0,0,0,0,0,0,0,-1,839,1443,0,0
-378,-419,0,0,0,0,0,0,0,0,0,-1,846,1443,0,0
-371,-419,0,0,0,0,0,0,0,0,0,-1,853,1443,0,0
-364,-419,0,0,0,0,0,0,0,0,0,-1,860,1443,0,0
-357,-419,0,0,0,0,0,0,0,0,0,-1,867,1443,0,0
-350,-419,0,0,0,0,0,0,0,0,0,-1,874,1443,0,0
-343,-419,0,0,0,0,0,0,0,0,0,-1,881,1443,0,0
-336,-419,0,0,0,0,0,0,0,0,0,-1,888,1443,0,0
-329,-419,0,0,0,0,0,0,0,0,0,-1,895,1443,0,0
-322,-419,0,0,0,0,0,0,0,0,0,-1,902,1443,0,0
-315,-419,0,0,0,0,0,0,0,0,0,-1,909,1443,0,0
-308,-419,0,0,0,0,0,0,0,0,0,-1,916,1443,0,0
-301,-419,0,0,0,0,0,0,0,0,0,-1,923,1443,0,0
-294,-419,0,0,0,0,0,0,0,0,0,-1,930,1443,0,0
-287,-419,0,0,0,0,0,0,0,0,0,-1,937,1443,0,0
-280,-419,0,0,0,0,0,0,0,0,0,-1,944,1443,0,0
-273,-419,0,0,0,0,0,0,0,0,0,-1,951,1443,0,0
-266,-419,0,0,0,0,0,0,0,0,0,-1,958,1443,0,0
-259,-419,0,0,0,0,0,0,0,0,0,-1,965,1443,0,0
-252,-419,0,0,0,0,0,0,0,0,0,-1,972,1443,0,0
-245,-419,0,0,0,0,0,0,0,0,0,-1,979,1443,0,0
-238,-419,0,0,0,0,0,0,0,0,0,-1,986,1443,0,0
-231,-419,0,0,0,0,0,0,0,0,0,-1,993,1443,0,0
-224,-419,0,0,0,0,0,0,0,0,0,-1,1000,1443,0,0
-217,-419,0,0,0,0,0,0,0,0,0,-1,1007,1443,0,0
-210,-419,0,0,0,0,0,0,0,0,0,-1,1014,1443,0,0
-203,-419,0,0,0,0,0,0,0,0,0,-1,1021,1443,0,0
-196,-419,0,0,0,0,0,0,0,0,0,-1,1028,1443,0,0
-189,-419,0,0,0,0,0,0,0,0,0,-1,1035,1443,0,0
-182,-419,0,0,0,0,0,0,0,0,0,-1,1042,1443,0,0
-175,-419,0,0,0,0,0,0,0,0,0,-1,1049,1443,0,0
-168,-419,0,0,0,0,0,0,0,0,0,-1,1056,1443,0,0
-161,-419,0,0,0,0,0,0,0,0,0,-1,1063,1443,0,0
-154,-419,0,0,0,0,0,0,0,0,0,-1,1070,1443,0,0
-147,-419,0,0,0,0,0,0,0,0,0,-1,1077,1443,0,0
-140,-419,0,0,0,0,0,0,0,0,0,-1,1084,1443,0,0
-133,-419,0,0,0,0,0,0,0,0,0,-1,1091,1443,0,0
-126,-419,0,0,0,0,0,0,0,0,0,-1,1098,1443,0,0
-119,-419,0,0,0,0,0,0,0,0,0,-1,1105,1443,0,0
-112,-419,0,0,0,0,0,0,0,0,0,-1,1112,1443,0,0
-105,-419,0,0,0,0,0,0,0,0,0,-1,1119,1443,0,0
-98,-419,0,0,0,0,0,0,0,0,0,-1,1126,1443,0,0
-91,-419,0,0,0,0,0,0,0,0,0,-1,1133,1443,0,0
-84,-419,0,0,0,0,0,0,0,0,0,-1,1140,1443,0,0
-77,-419,0,0,0,0,0,0,0,0,0,-1,1147,1443,0,0
-70,-419,0,0,0,0,0,0,0,0,0,-1,1154,1443,0,0
-63,-419,0,0,0,0,0,0,0,0,0,-1,1161,1443,0,0
-56,-419,0,0,0,0,0,0,0,0,0,-1,1168,1443,0,0
-49,-419,0,0,0,0,0,0,0,0,0,-1,1175,1443,0,0
-42,-419,0,0,0,0,0,0,0,0,0,-1,1182,1443,0,0
-35,-419,0,0,0,0,0,0,0,0,0,-1,1189,1443,0,0
-28,-419,0,0,0,0,0,0,0,0,0,-1,1196,1443,0,0
-21,-419,0,0,0,0,0,0,0,0,0,-1,1203,1443,0,0
-14,-419,0,0,0,0,0,0,0,0,0,-1,1210,1443,0,0
-7,-419,0,0,0,0,0,0,0,0,0,-1,1217,1443,0,0
0,-419,0,0,0,0,0,0,0,0,0,-1,1224,1443,0,0
7,-419,0,0,0,0,0,0,0,0,0,-1,1231,1443,0,0
14,-419,0,0,0,0,0,0,0,0,0,-1,1238,1443,0,0
21,-419,0,0,0,0,0,0,0,0,0,-1,1245,1443,0,0
28,-419,0,0,0,0,0,0,0,0,0,-1,1252,1443,0,0
35,-419,0,0,0,0,0,0,0,0,0,-1,1259,1443,0,0
42,-419,0,0,0,0,0,0,0,0,0,-1,1266,1443,0,0
49,-419,0,0,0,0,0,0,0,0,0,-1,1273,1443,0,0
56,-419,0,0,0,0,0,0,0,0,0,-1,1280,1443,0,0
63,-419,0,0,0,0,0,0,0,0,0,-1,1287,1443,0,0
70,-419,0,0,0,0,0,0,0,0,0,-1,1294,1443,0,0
77,-419,0,0,0,0,0,0,0,0,0,-1,1301,1443,0,0
84,-419,0,0,0,0,0,0,0,0,0,-1,1308,1443,0,0
91,-419,0,0,0,0,0,0,0,0,0,-1,1315,1443,0,0
98,-419,0,0,0,0,0,0,0,0,0,-1,1322,1443,0,0
105,-419,0,0,0,0,0,0,0,0,0,-1,1329,1443,0,0
112,-419,0,0,0,0,0,0,0,0,0,-1,1336,1443,0,0
119,-419,0,0,0,0,0,0,0,0,0,-1,1343,1443,0,0
126,-419,0,0,0,0,0,0,0,0,0,-1,1350,1443,0,0
133,-419,0,0,0,0,0,0,0,0,0,-1,1357,1443,0,0
140,-419,0,0,0,0,0,0,0,0,0,-1,1364,1443,0,0
147,-419,0,0,0,0,0,0,0,0,0,-1,1371,1443,0,0
154,-419,0,0,0,0,0,0,0,0,0,-1,1378,1443,0,0
161,-419,0,0,0,0,0,0,0,0,0,-1,1385,1443,0,0
168,-419,0,0,0,0,0,0,0,0,0,-1,1392,1443,0,0
175,-419,0,0,0,0,0,0,0,0,0,-1,1399,1443,0,0
182,-419,0,0,0,0,0,0,0,0,0,-1,1406,1443,0,0
189,-419,0,0,0,0,0,0,0,0,0,-1,1413,1443,0,0
196,-419,0,0,0,0,0,0,0,0,0,-1,1420,1443,0,0
203,-419,0,0,0,0,0,0,0,0,0,-1,1427,1443,0,0
210,-419,0,0,0,0,0,0,0,0,0,-1,1434,1443,0,0
217,-419,0,0,0,0,0,0,0,0,0,-1,1441,1443,0,0
224,-419,0,0,0,0,0,0,0,0,0,-1,1448,1443,0,0
231,-419,0,0,0,0,0,0,0,0,0,-1,1455,1443,0,0
238,-419,0,0,0,0,0,0,0,0,0,-1,1462,1443,0,0
245,-419,0,0,0,0,0,0,0,0,0,-1,1469,1443,0,0
252,-419,0,0,0,0,0,0,0,0,0,-1,1476,1443,0,0
259,-419,0,0,0,0,0,0,0,0,0,-1,1483,1443,0,0
266,-419,0,0,0,0,0,0,0,0,0,-1,1490,1443,0,0
273,-419,0,0,0,0,0,0,0,0,0,-1,1497,1443,0,0
280,-419,0,0,0,0,0,0,0,0,0,-1,1504,1443,0,0
287,-419,0,0,0,0,0,0,0,0,0,-1,1511,1443,0,0
294,-419,0,0,0,0,0,0,0,0,0,-1,1518,1443,0,0
301,-419,0,0,0,0,0,0,0,0,0,-1,1525,1443,0,0
308,-419,0,0,0,0,0,0,0,0,0,-1,1532,1443,0,0
315,-419,0,0,0,0,0,0,0,0,0,-1,1539,1443,0,0
322,-419,0,0,0,0,0,0,0,0,0,-1,1546,1443,0,0
329,-419,0,0,0,0,0,0,0,0,0,-1,1553,1443,0,0
336,-419,0,0,0,0,0,0,0,0,0,-1,1560,1443,0,0
343,-419,0,0,0,0,0,0,0,0,0,-1,1567,1443,0,0
350,-419,0,0,0,0,0,0,0,0,0,-1,1574,1443,0,0
357,-419,0,0,0,0,0,0,0,0,0,-1,1581,1443,0,0
364,-419,0,0,0,0,0,0,0,0,0,-1,1588,1443,0,0
371,-419,0,0,0,0,0,0,0,0,0,-1,1595,1443,0,0
378,-419,0,0,0,0,0,0,0,0,0,-1,1602,1443,0,0
385,-419,0,0,0,0,0,0,0,0,0,-1,1609,1443,0,0
392,-419,0,0,0,0,0,0,0,0,0,-1,1616,1443,0,0
399,-419,0,0,0,0,0,0,0,0,0,-1,1623,1443,0,0
406,-419,0,0,0,0,0,0,0,0,0,-1,1630,1443,0,0
413,-419,0,0,0,0,0,0,0,0,0,-1,1637,1443,0,0
420,-419,0,0,0,0,0,0,0,0,0,-1,1644,1443,0,0
427,-419,0,0,0,0,0,0,0,0,0,-1,1651,1443,0,0
434,-419,0,0,0,0,0,0,0,0,0,-1,1658,1443,0,0
441,-419,0,0,0,0,0,0,0,0,0,-1,1665,1443,0,0
448,-419,0,0,0,0,0,0,0,0,0,-1,1672,1443,0,0
455,-419,0,0,0,0,0,0,0,0,0,-1,1679,1443,0,0
462,-419,0,0,0,0,0,0,0,0,0,-1,1686,1443,0,0
469,-419,0,0,0,0,0,0,0,0,0,-1,1693,1443,0,0
476,-419,0,0,0,0,0,0,0,0,0,-1,1700,1443,0,0
483,-419,0,0,0,0,0,0,0,0,0,-1,1707,1443,0,0
490,-419,0,0,0,0,0,0,0,0,0,-1,1714,1443,0,0
497,-419,0,0,0,0,0,0,0,0,0,-1,1721,1443,0,0
504,-419,0,0,0,0,0,0,0,0,0,-1,1728,1443,0,0
511,-419,20.3005,3.7959,0,0,0,0,0,0,0,-1,1735,1443,20.3005,-3.79584
518,-419,21.3154,2.03027,0,0,0,0,0,0,0,-1,1742,1443,21.3155,-2.03029
525,-419,20.1991,2.2738,0,0,0,0,0,0,0,-1,1749,1443,20.1991,-2.2738
532,-419,21.035,2.73364,0,0,0,0,0,0,0,-1,1756,1443,21.035,-2.73368
539,-419,20.0294,2.92896,0,0,0,0,0,0,0,-1,1763,1443,20.0294,-2.929
546,-419,18.7786,2.69104,0,0,0,0,0,0,0,-1,1770,1443,18.7785,-2.69107
553,-419,17.1881,2.40491,0,0,0,0,0,0,0,-1,1777,1443,17.1881,-2.40488
560,-419,11.8199,8.26343,0,0,0,0,0,0,0,-1,1784,1443,11.82,-8.26341
567,-419,15.7008,5.70764,0,0,0,0,0,0,0,-1,1791,1443,15.7009,-5.70764
574,-419,14.9426,5.87866,0,0,0,0,0,0,0,-1,1798,1443,14.9426,-5.8786
581,-419,14.3044,6.00281,0,0,0,0,0,0,0,-1,1805,1443,14.3045,-6.00281
588,-419,13.4683,8.32544,0,0,0,0,0,0,0,-1,1812,1443,13.4682,-8.32543
595,-419,12.9979,8.13806,-0.0165694,-0.0183174,0.0175146,9.29758e-05,-0.0349798,0.760469,0.0233509,0.0358055,1819,1443,12.998,-8.13807
602,-419,12.5354,7.93237,-0.0147245,-0.0143519,0.0136894,-0.000847559,-0.0282289,0.792203,0.0185432,0.0155079,1826,1443,12.5354,-7.9324
609,-419,12.4717,7.72852,-0.0132652,-0.0110875,0.0104732,-0.00164672,-0.022706,0.837196,0.0146193,0.0107414,1833,1443,12.4716,-7.72849
616,-419,12.4395,7.547,-0.0106562,-0.00826081,0.00778014,-0.00158673,-0.0173303,0.86177,0.0110626,0.0113868,1840,1443,12.4395,-7.54703
623,-419,12.46,7.31812,-0.00755449,-0.00583473,0.00549267,-0.00113504,-0.0122542,0.863043,0.00781862,0.00953951,1847,1443,12.46,-7.31805
630,-419,12.4764,7.08472,-0.00527004,-0.00409129,0.00383962,-0.000796078,-0.00856525,0.861553,0.00546417,0.0117791,1854,1443,12.4765,-7.08475
637,-419,12.4602,6.87354,-0.00355719,-0.00250945,0.0025148,-0.000464539,-0.0056021,0.888087,0.00358992,0.0131842,1861,1443,12.4602,-6.87351
644,-419,12.4519,6.68689,-0.00241536,-0.00138626,0.00167828,-0.000145422,-0.0036562,0.934146,0.00239047,0.0114672,1868,1443,12.4519,-6.68686
651,-419,12.4451,6.47913,-0.00169368,-0.000532583,0.00113442,0.000161207,-0.00238747,1.0219,0.00164801,0.0106546,1875,1443,12.445,-6.47908
658,-419,12.4406,6.25171,-0.00168039,2.49428e-05,0.00112838,0.000586587,-0.00224203,1.10895,0.00172381,0.012817,1882,1443,12.4406,-6.25165
665,-419,12.4546,6.04419,-0.00220591,0.000311816,0.00166497,0.00114027,-0.00303436,1.10909,0.00249154,0.0207734,1889,1443,12.4546,-6.04414
672,-419,12.4939,5.78906,-0.00330803,0.000358717,0.00268932,0.00178014,-0.00472945,1.08458,0.00388476,0.0257779,1896,1443,12.494,-5.78906
679,-419,12.4775,5.81763,-0.00458347,0.000359027,0.00409991,0.00267488,-0.00689933,1.05662,0.00570421,0.0431436,1903,1443,12.4776,-5.81763
686,-419,12.4131,6.05957,0,0,0,0,0,0,0,-1,1910,1443,12.4131,-6.05954
693,-419,8.76086,5.60535,0,0,0,0,0,0,0,-1,1917,1443,8.76091,-5.6054
700,-419,11.0498,4.85156,0,0,0,0,0,0,0,-1,1924,1443,11.0498,-4.85153
707,-419,9.5752,1.80042,0,0,0,0,0,0,0,-1,1931,1443,9.57523,-1.80037
714,-419,5.77576,-1.25061,0,0,0,0,0,0,0,-1,1938,1443,5.7757,1.25056
721,-419,0,0,0,0,0,0,0,0,0,-1,1945,1443,0,0
728,-419,0,0,0,0,0,0,0,0,0,-1,1952,1443,0,0
735,-419,0,0,0,0,0,0,0,0,0,-1,1959,1443,0,0
742,-419,0,0,0,0,0,0,0,0,0,-1,1966,1443,0,0
749,-419,0,0,0,0,0,0,0,0,0,-1,1973,1443,0,0
756,-419,0,0,0,0,0,0,0,0,0,-1,1980,1443,0,0
763,-419,0,0,0,0,0,0,0,0,0,-1,1987,1443,0,0
770,-419,0,0,0,0,0,0,0,0,0,-1,1994,1443,0,0
777,-419,0,0,0,0,0,0,0,0,0,-1,2001,1443,0,0
784,-419,0,0,0,0,0,0,0,0,0,-1,2008,1443,0,0
791,-419,0,0,0,0,0,0,0,0,0,-1,2015,1443,0,0
798,-419,0,0,0,0,0,0,0,0,0,-1,2022,1443,0,0
805,-419,0,0,0,0,0,0,0,0,0,-1,2029,1443,0,0
812,-419,0,0,0,0,0,0,0,0,0,-1,2036,1443,0,0
-700,-426,0,0,0,0,0,0,0,0,0,-1,524,1450,0,0
-693,-426,0,0,0,0,0,0,0,0,0,-1,531,1450,0,0
-686,-426,0,0,0,0,0,0,0,0,0,-1,538,1450,0,0
-679,-426,0,0,0,0,0,0,0,0,0,-1,545,1450,0,0
-672,-426,0,0,0,0,0,0,0,0,0,-1,552,1450,0,0
-665,-426,0,0,0,0,0,0,0,0,0,-1,559,1450,0,0
-658,-426,0,0,0,0,0,0,0,0,0,-1,566,1450,0,0
-651,-426,0,0,0,0,0,0,0,0,0,-1,573,1450,0,0
-644,-426,0,0,0,0,0,0,0,0,0,-1,580,1450,0,0
-637,-426,0,0,0,0,0,0,0,0,0,-1,587,1450,0,0
-630,-426,0,0,0,0,0,0,0,0,0,-1,594,1450,0,0
-623,-426,0,0,0,0,0,0,0,0,0,-1,601,1450,0,0
-616,-426,0,0,0,0,0,0,0,0,0,-1,608,1450,0,0
-609,-426,0,0,0,0,0,0,0,0,0,-1,615,1450,0,0
-602,-426,0,0,0,0,0,0,0,0,0,-1,622,1450,0,0
-595,-426,0,0,0,0,0,0,0,0,0,-1,629,1450,0,0
-588,-426,-4.39026,0.156494,0,0,0,0,0,0,0,-1,636,1450,-4.39027,-0.156543
-581,-426,-4.30518,-1.34998,0,0,0,0,0,0,0,-1,643,1450,-4.30517,1.34996
-574,-426,-3.67657,0.188232,0,0,0,0,0,0,0,-1,650,1450,-3.67657,-0.188214
-567,-426,-3.04797,1.72644,0,0,0,0,0,0,0,-1,657,1450,-3.04797,-1.72639
-560,-426,-4.5058,2.93896,0,0,0,0,0,0,0,-1,664,1450,-4.5058,-2.93897
-553,-426,-4.45911,3.07031,0,0,0,0,0,0,0,-1,671,1450,-4.45913,-3.07034
-546,-426,-3.23041,4.03223,0,0,0,0,0,0,0,-1,678,1450,-3.23039,-4.03223
-539,-426,-3.24371,3.97742,0.0373037,0.0104734,0.0171656,0.0456744,0.00210267,0.453715,0.0297735,0.0401531,685,1450,-3.24371,-3.97741
-532,-426,-3.38275,4.14368,0.0254342,0.00785519,0.0141024,0.0332619,2.74032e-05,0.506724,0.0221655,0.0246989,692,1450,-3.38276,-4.14369
-525,-426,-3.4566,4.37866,0.0166875,0.00544072,0.0115057,0.0238705,-0.00174229,0.558095,0.0165251,0.0131837,699,1450,-3.4566,-4.37862
-518,-426,-3.42188,4.6355,0.0108949,0.00369124,0.0087426,0.0167486,-0.00216241,0.589999,0.0119519,0.0160204,706,1450,-3.42185,-4.63551
-511,-426,-3.42273,4.87512,0.00740232,0.00214339,0.0060799,0.011397,-0.00185129,0.581302,0.00828434,0.0161308,713,1450,-3.42275,-4.87507
-504,-426,-3.45746,5.10889,0.00478286,0.00054105,0.00355684,0.00680313,-0.00147922,0.516555,0.0051005,0.0152861,720,1450,-3.45747,-5.1089
-497,-426,-3.44904,5.34131,0.00236976,-0.00157957,0.0011185,0.00266453,-0.00187434,0.257682,0.00263372,0.0118196,727,1450,-3.44902,-5.34132
-490,-426,-3.453,5.57312,5.79425e-05,-0.00395404,-0.00146376,0.000535214,-0.00443131,-0.315189,0.00314782,0.011777,734,1450,-3.45297,-5.57318
-483,-426,-3.44025,5.82935,-0.00150788,-0.00591456,-0.00439444,0.00120466,-0.0086271,-0.553018,0.00619214,0.0114708,741,1450,-3.44027,-5.82939
-476,-426,-3.43884,6.06531,-0.00211893,-0.00903785,-0.00697284,0.00220546,-0.0133622,-0.555123,0.00972702,0.00894934,748,1450,-3.43882,-6.06535
-469,-426,-3.45972,6.28943,-0.0024243,-0.0122666,-0.00852906,0.0025015,-0.0171924,-0.523735,0.01238,0.00704849,755,1450,-3.45973,-6.28948
-462,-426,-3.37286,6.54431,-0.00297459,-0.0162633,-0.0103201,0.00265506,-0.0218929,-0.499386,0.015556,0.0148257,762,1450,-3.37287,-6.54426
-455,-426,-3.39349,6.48828,-0.00298261,-0.0207688,-0.0120826,0.00312686,-0.0268783,-0.46815,0.0190469,0.0324581,769,1450,-3.39349,-6.48823
-448,-426,-3.65851,6.23303,-0.00225286,-0.0257779,-0.0132503,0.00370259,-0.0317333,-0.422404,0.0224916,0.0419608,776,1450,-3.6585,-6.23302
-441,-426,-4.05304,5.96545,-0.000440815,-0.0310908,-0.0133753,0.00457513,-0.0361068,-0.358784,0.0257322,0.0420819,783,1450,-4.05304,-5.9654
-434,-426,-4.289,5.84143,0,0,0,0,0,0,0,-1,790,1450,-4.28903,-5.84142
-427,-426,-4.45355,6.33154,0.00833117,-0.0415213,-0.0079948,0.00958191,-0.0427721,-0.155186,0.0321877,0.049283,797,1450,-4.45357,-6.33153
-420,-426,-4.73352,6.88904,0.0160789,-0.0459552,-0.000930444,0.0160928,-0.0459692,-0.0149944,0.0371897,0.0482913,804,1450,-4.73354,-6.88909
-413,-426,-4.92395,7.37598,0,0,0,0,0,0,0,-1,811,1450,-4.92396,-7.37599
-406,-426,-10.7646,2.96973,0,0,0,0,0,0,0,-1,818,1450,-10.7647,-2.96977
-399,-426,-11.3411,1.70398,0,0,0,0,0,0,0,-1,825,1450,-11.3411,-1.70401
-392,-426,-12.4147,0.537354,0,0,0,0,0,0,0,-1,832,1450,-12.4147,-0.53731
-385,-426,0,0,0,0,0,0,0,0,0,-1,839,1450,0,0
-378,-426,0,0,0,0,0,0,0,0,0,-1,846,1450,0,0
-371,-426,0,0,0,0,0,0,0,0,0,-1,853,1450,0,0
-364,-426,0,0,0,0,0,0,0,0,0,-1,860,1450,0,0
-357,-426,0,0,0,0,0,0,0,0,0,-1,867,1450,0,0
-350,-426,0,0,0,0,0,0,0,0,0,-1,874,1450,0,0
-343,-426,0,0,0,0,0,0,0,0,0,-1,881,1450,0,0
-336,-426,0,0,0,0,0,0,0,0,0,-1,888,1450,0,0
-329,-426,0,0,0,0,0,0,0,0,0,-1,895,1450,0,0
-322,-426,0,0,0,0,0,0,0,0,0,-1,902,1450,0,0
-315,-426,0,0,0,0,0,0,0,0,0,-1,909,1450,0,0
-308,-426,0,0,0,0,0,0,0,0,0,-1,916,1450,0,0
-301,-426,0,0,0,0,0,0,0,0,0,-1,923,1450,0,0
-294,-426,0,0,0,0,0,0,0,0,0,-1,930,1450,0,0
-287,-426,0,0,0,0,0,0,0,0,0,-1,937,1450,0,0
-280,-426,0,0,0,0,0,0,0,0,0,-1,944,1450,0,0
-273,-426,0,0,0,0,0,0,0,0,0,-1,951,1450,0,0
-266,-426,0,0,0,0,0,0,0,0,0,-1,958,1450,0,0
-259,-426,0,0,0,0,0,0,0,0,0,-1,965,1450,0,0
-252,-426,0,0,0,0,0,0,0,0,0,-1,972,1450,0,0
-245,-426,0,0,0,0,0,0,0,0,0,-1,979,1450,0,0
-238,-426,0,0,0,0,0,0,0,0,0,-1,986,1450,0,0
-231,-426,0,0,0,0,0,0,0,0,0,-1,993,1450,0,0
-224,-426,0,0,0,0,0,0,0,0,0,-1,1000,1450,0,0
-217,-426,0,0,0,0,0,0,0,0,0,-1,1007,1450,0,0
-210,-426,0,0,0,0,0,0,0,0,0,-1,1014,1450,0,0
-203,-426,0,0,0,0,0,0,0,0,0,-1,1021,1450,0,0
-196,-426,0,0,0,0,0,0,0,0,0,-1,1028,1450,0,0
-189,-426,0,0,0,0,0,0,0,0,0,-1,1035,1450,0,0
-182,-426,0,0,0,0,0,0,0,0,0,-1,1042,1450,0,0
-175,-426,0,0,0,0,0,0,0,0,0,-1,1049,1450,0,0
-168,-426,0,0,0,0,0,0,0,0,0,-1,1056,1450,0,0
-161,-426,0,0,0,0,0,0,0,0,0,-1,1063,1450,0,0
-154,-426,0,0,0,0,0,0,0,0,0,-1,1070,1450,0,0
-147,-426,0,0,0,0,0,0,0,0,0,-1,1077,1450,0,0
-140,-426,0,0,0,0,0,0,0,0,0,-1,1084,1450,0,0
-133,-426,0,0,0,0,0,0,0,0,0,-1,1091,1450,0,0
-126,-426,0,0,0,0,0,0,0,0,0,-1,1098,1450,0,0
-119,-426,0,0,0,0,0,0,0,0,0,-1,1105,1450,0,0
-112,-426,0,0,0,0,0,0,0,0,0,-1,1112,1450,0,0
-105,-426,0,0,0,0,0,0,0,0,0,-1,1119,1450,0,0
-98,-426,0,0,0,0,0,0,0,0,0,-1,1126,1450,0,0
-91,-426,0,0,0,0,0,0,0,0,0,-1,1133,1450,0,0
-84,-426,0,0,0,0,0,0,0,0,0,-1,1140,1450,0,0
-77,-426,0,0,0,0,0,0,0,0,0,-1,1147,1450,0,0
-70,-426,0,0,0,0,0,0,0,0,0,-1,1154,1450,0,0
-63,-426,0,0,0,0,0,0,0,0,0,-1,1161,1450,0,0
-56,-426,0,0,0,0,0,0,0,0,0,-1,1168,1450,0,0
-49,-426,0,0,0,0,0,0,0,0,0,-1,1175,1450,0,0
-42,-426,0,0,0,0,0,0,0,0,0,-1,1182,1450,0,0
-35,-426,0,0,0,0,0,0,0,0,0,-1,1189,1450,0,0
-28,-426,0,0,0,0,0,0,0,0,0,-1,1196,1450,0,0
-21,-426,0,0,0,0,0,0,0,0,0,-1,1203,1450,0,0
-14,-426,0,0,0,0,0,0,0,0,0,-1,1210,1450,0,0
-7,-426,0,0,0,0,0,0,0,0,0,-1,1217,1450,0,0
0,-426,0,0,0,0,0,0,0,0,0,-1,1224,1450,0,0
7,-426,0,0,0,0,0,0,0,0,0,-1,1231,1450,0,0
14,-426,0,0,0,0,0,0,0,0,0,-1,1238,1450,0,0
21,-426,0,0,0,0,0,0,0,0,0,-1,1245,1450,0,0
28,-426,0,0,0,0,0,0,0,0,0,-1,1252,1450,0,0
35,-426,0,0,0,0,0,0,0,0,0,-1,1259,1450,0,0
42,-426,0,0,0,0,0,0,0,0,0,-1,1266,1450,0,0
49,-426,0,0,0,0,0,0,0,0,0,-1,1273,1450,0,0
56,-426,0,0,0,0,0,0,0,0,0,-1,1280,1450,0,0
63,-426,0,0,0,0,0,0,0,0,0,-1,1287,1450,0,0
70,-426,0,0,0,0,0,0,0,0,0,-1,1294,1450,0,0
77,-426,0,0,0,0,0,0,0,0,0,-1,1301,1450,0,0
84,-426,0,0,0,0,0,0,0,0,0,-1,1308,1450,0,0
91,-426,0,0,0,0,0,0,0,0,0,-1,1315,1450,0,0
98,-426,0,0,0,0,0,0,0,0,0,-1,1322,1450,0,0
105,-426,0,0,0,0,0,0,0,0,0,-1,1329,1450,0,0
112,-426,0,0,0,0,0,0,0,0,0,-1,1336,1450,0,0
119,-426,0,0,0,0,0,0,0,0,0,-1,1343,1450,0,0
126,-426,0,0,0,0,0,0,0,0,0,-1,1350,1450,0,0
133,-426,0,0,0,0,0,0,0,0,0,-1,1357,1450,0,0
140,-426,0,0,0,0,0,0,0,0,0,-1,1364,1450,0,0
147,-426,0,0,0,0,0,0,0,0,0,-1,1371,1450,0,0
154,-426,0,0,0,0,0,0,0,0,0,-1,1378,1450,0,0
161,-426,0,0,0,0,0,0,0,0,0,-1,1385,1450,0,0
168,-426,0,0,0,0,0,0,0,0,0,-1,1392,1450,0,0
175,-426,0,0,0,0,0,0,0,0,0,-1,1399,1450,0,0
182,-426,0,0,0,0,0,0,0,0,0,-1,1406,1450,0,0
189,-426,0,0,0,0,0,0,0,0,0,-1,1413,1450,0,0
196,-426,0,0,0,0,0,0,0,0,0,-1,1420,1450,0,0
203,-426,0,0,0,0,0,0,0,0,0,-1,1427,1450,0,0
210,-426,0,0,0,0,0,0,0,0,0,-1,1434,1450,0,0
217,-426,0,0,0,0,0,0,0,0,0,-1,1441,1450,0,0
224,-426,0,0,0,0,0,0,0,0,0,-1,1448,1450,0,0
231,-426,0,0,0,0,0,0,0,0,0,-1,1455,1450,0,0
238,-426,0,0,0,0,0,0,0,0,0,-1,1462,1450,0,0
245,-426,0,0,0,0,0,0,0,0,0,-1,1469,1450,0,0
252,-426,0,0,0,0,0,0,0,0,0,-1,1476,1450,0,0
259,-426,0,0,0,0,0,0,0,0,0,-1,1483,1450,0,0
266,-426,0,0,0,0,0,0,0,0,0,-1,1490,1450,0,0
273,-426,0,0,0,0,0,0,0,0,0,-1,1497,1450,0,0
280,-426,0,0,0,0,0,0,0,0,0,-1,1504,1450,0,0
287,-426,0,0,0,0,0,0,0,0,0,-1,1511,1450,0,0
294,-426,0,0,0,0,0,0,0,0,0,-1,1518,1450,0,0
301,-426,0,0,0,0,0,0,0,0,0,-1,1525,1450,0,0
308,-426,0,0,0,0,0,0,0,0,0,-1,1532,1450,0,0
315,-426,0,0,0,0,0,0,0,0,0,-1,1539,1450,0,0
322,-426,0,0,0,0,0,0,0,0,0,-1,1546,1450,0,0
329,-426,0,0,0,0,0,0,0,0,0,-1,1553,1450,0,0
336,-426,0,0,0,0,0,0,0,0,0,-1,1560,1450,0,0
343,-426,0,0,0,0,0,0,0,0,0,-1,1567,1450,0,0
350,-426,0,0,0,0,0,0,0,0,0,-1,1574,1450,0,0
357,-426,0,0,0,0,0,0,0,0,0,-1,1581,1450,0,0
364,-426,0,0,0,0,0,0,0,0,0,-1,1588,1450,0,0
371,-426,0,0,0,0,0,0,0,0,0,-1,1595,1450,0,0
378,-426,0,0,0,0,0,0,0,0,0,-1,1602,1450,0,0
385,-426,0,0,0,0,0,0,0,0,0,-1,1609,1450,0,0
392,-426,0,0,0,0,0,0,0,0,0,-1,1616,1450,0,0
399,-426,0,0,0,0,0,0,0,0,0,-1,1623,1450,0,0
406,-426,0,0,0,0,0,0,0,0,0,-1,1630,1450,0,0
413,-426,0,0,0,0,0,0,0,0,0,-1,1637,1450,0,0
420,-426,0,0,0,0,0,0,0,0,0,-1,1644,1450,0,0
427,-426,0,0,0,0,0,0,0,0,0,-1,1651,1450,0,0
434,-426,0,0,0,0,0,0,0,0,0,-1,1658,1450,0,0
441,-426,0,0,0,0,0,0,0,0,0,-1,1665,1450,0,0
448,-426,0,0,0,0,0,0,0,0,0,-1,1672,1450,0,0
455,-426,0,0,0,0,0,0,0,0,0,-1,1679,1450,0,0
462,-426,0,0,0,0,0,0,0,0,0,-1,1686,1450,0,0
469,-426,0,0,0,0,0,0,0,0,0,-1,1693,1450,0,0
476,-426,0,0,0,0,0,0,0,0,0,-1,1700,1450,0,0
483,-426,0,0,0,0,0,0,0,0,0,-1,1707,1450,0,0
490,-426,0,0,0,0,0,0,0,0,0,-1,1714,1450,0,0
497,-426,0,0,0,0,0,0,0,0,0,-1,1721,1450,0,0
504,-426,20.6873,3.38367,0,0,0,0,0,0,0,-1,1728,1450,20.6873,-3.38361
511,-426,19.6676,3.53748,0,0,0,0,0,0,0,-1,1735,1450,19.6676,-3.53749
518,-426,18.6853,3.32288,0,0,0,0,0,0,0,-1,1742,1450,18.6853,-3.3229
525,-426,18.9552,2.71033,0,0,0,0,0,0,0,-1,1749,1450,18.9552,-2.71034
532,-426,17.764,2.81616,0,0,0,0,0,0,0,-1,1756,1450,17.764,-2.81611
539,-426,16.9565,3.07593,0,0,0,0,0,0,0,-1,1763,1450,16.9566,-3.07593
546,-426,16.1915,3.49744,0,0,0,0,0,0,0,-1,1770,1450,16.1916,-3.4975
553,-426,11.6804,8.90308,0,0,0,0,0,0,0,-1,1777,1450,11.6805,-8.90309
560,-426,11.7726,8.02771,0,0,0,0,0,0,0,-1,1784,1450,11.7725,-8.02773
567,-426,11.1727,8.76721,0,0,0,0,0,0,0,-1,1791,1450,11.1727,-8.76724
574,-426,13.1931,8.4491,0,0,0,0,0,0,0,-1,1798,1450,13.1931,-8.44914
581,-426,12.4153,7.63342,0,0,0,0,0,0,0,-1,1805,1450,12.4153,-7.63344
588,-426,12.2866,8.39502,0,0,0,0,0,0,0,-1,1812,1450,12.2866,-8.39507
595,-426,12.2769,8.14258,-0.012126,-0.0144275,0.0139994,0.000769844,-0.0273233,0.744391,0.0184775,0.027033,1819,1450,12.2769,-8.14252
602,-426,12.2743,7.90466,-0.0109534,-0.0112615,0.0109185,-0.000187851,-0.022027,0.778344,0.0146224,0.0156704,1826,1450,12.2743,-7.90462
609,-426,12.2551,7.71619,-0.0101322,-0.00863417,0.00829487,-0.00105457,-0.0177118,0.830426,0.0114725,0.0119094,1833,1450,12.2551,-7.71614
616,-426,12.24,7.54761,-0.0082035,-0.00637717,0.00608668,-0.00113554,-0.0134451,0.859856,0.0086099,0.0139089,1840,1450,12.2399,-7.54761
623,-426,12.2603,7.31628,-0.00571968,-0.00439302,0.00420671,-0.000797667,-0.00931504,0.863596,0.00596195,0.0110524,1847,1450,12.2603,-7.31624
630,-426,12.2673,7.09875,-0.0039638,-0.00300904,0.00288728,-0.000559945,-0.00641289,0.867327,0.00410138,0.0114872,1854,1450,12.2673,-7.09873
637,-426,12.265,6.89563,-0.0025936,-0.00170386,0.00176161,-0.000331818,-0.00396564,0.90908,0.00254039,0.0125662,1861,1450,12.265,-6.89564
644,-426,12.2419,6.69409,-0.00172732,-0.000796248,0.00105864,-0.000105303,-0.00241826,0.992546,0.00157825,0.0118919,1868,1450,12.2419,-6.69408
651,-426,12.2228,6.4856,-0.00131684,-0.000130856,0.000641142,0.00014948,-0.00159718,1.1586,0.00111795,0.0115157,1875,1450,12.2228,-6.48563
658,-426,12.251,6.23828,-0.0016891,0.000305397,0.000726162,0.000541768,-0.00192547,1.25611,0.00149727,0.0119767,1882,1450,12.251,-6.23834
665,-426,12.2926,5.96448,-0.00276485,0.000508708,0.00134837,0.000992578,-0.00324872,1.22625,0.0025616,0.0188305,1889,1450,12.2926,-5.96453
672,-426,12.2457,5.72974,-0.00449458,0.000549539,0.00246846,0.00155651,-0.00550156,1.18347,0.00428191,0.0314679,1896,1450,12.2458,-5.72968
679,-426,11.8654,5.95703,-0.00671575,0.000619594,0.00403069,0.00240153,-0.00849769,1.15454,0.00661263,0.0433682,1903,1450,11.8654,-5.95703
686,-426,11.5576,6.25012,0,0,0,0,0,0,0,-1,1910,1450,11.5577,-6.25012
693,-426,11.11,6.03003,0,0,0,0,0,0,0,-1,1917,1450,11.11,-6.03006
700,-426,9.24304,2.95447,0,0,0,0,0,0,0,-1,1924,1450,9.24305,-2.95442
707,-426,8.44519,-1.21448,0,0,0,0,0,0,0,-1,1931,1450,8.44514,1.21454
714,-426,0,0,0,0,0,0,0,0,0,-1,1938,1450,0,0
721,-426,0,0,0,0,0,0,0,0,0,-1,1945,1450,0,0
728,-426,0,0,0,0,0,0,0,0,0,-1,1952,1450,0,0
735,-426,0,0,0,0,0,0,0,0,0,-1,1959,1450,0,0
742,-426,0,0,0,0,0,0,0,0,0,-1,1966,1450,0,0
749,-426,0,0,0,0,0,0,0,0,0,-1,1973,1450,0,0
756,-426,0,0,0,0,0,0,0,0,0,-1,1980,1450,0,0
763,-426,0,0,0,0,0,0,0,0,0,-1,1987,1450,0,0
770,-426,0,0,0,0,0,0,0,0,0,-1,1994,1450,0,0
777,-426,0,0,0,0,0,0,0,0,0,-1,2001,1450,0,0
784,-426,0,0,0,0,0,0,0,0,0,-1,2008,1450,0,0
791,-426,0,0,0,0,0,0,0,0,0,-1,2015,1450,0,0
798,-426,0,0,0,0,0,0,0,0,0,-1,2022,1450,0,0
805,-426,0,0,0,0,0,0,0,0,0,-1,2029,1450,0,0
812,-426,0,0,0,0,0,0,0,0,0,-1,2036,1450,0,0
-700,-433,0,0,0,0,0,0,0,0,0,-1,524,1457,0,0
-693,-433,0,0,0,0,0,0,0,0,0,-1,531,1457,0,0
-686,-433,0,0,0,0,0,0,0,0,0,-1,538,1457,0,0
-679,-433,0,0,0,0,0,0,0,0,0,-1,545,1457,0,0
-672,-433,0,0,0,0,0,0,0,0,0,-1,552,1457,0,0
-665,-433,0,0,0,0,0,0,0,0,0,-1,559,1457,0,0
-658,-433,0,0,0,0,0,0,0,0,0,-1,566,1457,0,0
-651,-433,0,0,0,0,0,0,0,0,0,-1,573,1457,0,0
-644,-433,0,0,0,0,0,0,0,0,0,-1,580,1457,0,0
-637,-433,0,0,0,0,0,0,0,0,0,-1,587,1457,0,0
-630,-433,0,0,0,0,0,0,0,0,0,-1,594,1457,0,0
-623,-433,0,0,0,0,0,0,0,0,0,-1,601,1457,0,0
-616,-433,0,0,0,0,0,0,0,0,0,-1,608,1457,0,0
-609,-433,0,0,0,0,0,0,0,0,0,-1,615,1457,0,0
-602,-433,0,0,0,0,0,0,0,0,0,-1,622,1457,0,0
-595,-433,0,0,0,0,0,0,0,0,0,-1,629,1457,0,0
-588,-433,-4.99121,-0.205688,0,0,0,0,0,0,0,-1,636,1457,-4.99119,0.205667
-581,-433,-4.98511,-1.28406,0,0,0,0,0,0,0,-1,643,1457,-4.9851,1.28405
-574,-433,-4.46533,0.146606,0,0,0,0,0,0,0,-1,650,1457,-4.46531,-0.146606
-567,-433,-3.95569,1.50366,0,0,0,0,0,0,0,-1,657,1457,-3.9557,-1.50372
-560,-433,-5.3186,1.81787,0,0,0,0,0,0,0,-1,664,1457,-5.31861,-1.81786
-553,-433,-5.26929,2.0387,0,0,0,0,0,0,0,-1,671,1457,-5.26931,-2.0387
-546,-433,-3.04828,2.77051,0,0,0,0,0,0,0,-1,678,1457,-3.04826,-2.77056
-539,-433,-3.10046,3.47241,0.0470185,0.00885191,0.0232663,0.0580266,-0.00215616,0.441925,0.0394228,0.045609,685,1457,-3.10045,-3.47242
-532,-433,-3.13177,4.1571,0.0335587,0.00629356,0.0191,0.0433923,-0.00353998,0.475452,0.0301775,0.0295927,692,1457,-3.13178,-4.15716
-525,-433,-3.18774,4.39612,0.0234734,0.00408021,0.0154856,0.0320478,-0.00449417,0.505679,0.02301,0.017433,699,1457,-3.18772,-4.39611
-518,-433,-3.19611,4.62219,0.0164058,0.00258436,0.0118673,0.0232279,-0.00423781,0.521736,0.0170741,0.0157039,706,1457,-3.19612,-4.62219
-511,-433,-3.21735,4.86731,0.0117131,0.00134981,0.00853668,0.0165177,-0.00345475,0.512628,0.0123258,0.0154559,713,1457,-3.21734,-4.86731
-504,-433,-3.19727,5.09753,0.00809835,0.000138234,0.00555102,0.0109487,-0.00271213,0.474377,0.0083513,0.0127373,720,1457,-3.19727,-5.09755
-497,-433,-3.1886,5.33447,0.00483752,-0.00165856,0.0027903,0.00587148,-0.00269252,0.354869,0.0050567,0.0131652,727,1457,-3.18857,-5.33442
-490,-433,-3.21613,5.56982,0.00197244,-0.00365472,0.000125609,0.00197524,-0.00365752,0.0223072,0.00330007,0.0148888,734,1457,-3.21614,-5.56983
-483,-433,-3.22394,5.83691,0.00010535,-0.00490382,-0.0029147,0.00144373,-0.0062422,-0.430465,0.00471695,0.0154552,741,1457,-3.22395,-5.83695
-476,-433,-3.20587,6.06982,-0.000781594,-0.00758948,-0.00546641,0.00225406,-0.0106251,-0.506926,0.00794213,0.0102676,748,1457,-3.2059,-6.06979
-469,-433,-3.20288,6.29431,-0.00125509,-0.010421,-0.00706676,0.00258469,-0.0142608,-0.49773,0.0104756,0.00981668,755,1457,-3.2029,-6.29429
-462,-433,-3.22522,6.52869,-0.00166371,-0.01402,-0.00864985,0.00278779,-0.0184715,-0.475286,0.013341,0.00949904,762,1457,-3.22524,-6.52863
-455,-433,-3.06976,6.75952,-0.00155961,-0.0181149,-0.0103065,0.00338183,-0.0230564,-0.44707,0.0166133,0.0240279,769,1457,-3.06977,-6.75949
-448,-433,-3.23248,6.47046,0,0,0,0,0,0,0,-1,776,1457,-3.23249,-6.47049
-441,-433,-3.41144,6.38538,0.000708265,-0.027726,-0.0120405,0.00512177,-0.0321395,-0.351346,0.0233218,0.0428225,783,1457,-3.41143,-6.38541
-434,-433,-3.72754,6.46704,0.00338969,-0.0329645,-0.0112512,0.00659006,-0.0361649,-0.277128,0.0265803,0.0415506,790,1457,-3.72755,-6.467
-427,-433,-3.88257,6.87183,0.00752033,-0.0381791,-0.00858131,0.00907857,-0.0397374,-0.179628,0.0299795,0.0443858,797,1457,-3.88255,-6.87187
-420,-433,-4.01385,7.20203,0,0,0,0,0,0,0,-1,804,1457,-4.01385,-7.20207
-413,-433,-9.20575,5.04602,0,0,0,0,0,0,0,-1,811,1457,-9.20575,-5.04599
-406,-433,-10.5039,3.70374,0,0,0,0,0,0,0,-1,818,1457,-10.5039,-3.70371
-399,-433,-12.055,2.83594,0,0,0,0,0,0,0,-1,825,1457,-12.055,-2.83594
-392,-433,-12.9772,1.6228,0,0,0,0,0,0,0,-1,832,1457,-12.9772,-1.62282
-385,-433,-13.7999,0.514771,0,0,0,0,0,0,0,-1,839,1457,-13.7999,-0.514788
-378,-433,0,0,0,0,0,0,0,0,0,-1,846,1457,0,0
-371,-433,0,0,0,0,0,0,0,0,0,-1,853,1457,0,0
-364,-433,0,0,0,0,0,0,0,0,0,-1,860,1457,0,0
-357,-433,0,0,0,0,0,0,0,0,0,-1,867,1457,0,0
-350,-433,0,0,0,0,0,0,0,0,0,-1,874,1457,0,0
-343,-433,0,0,0,0,0,0,0,0,0,-1,881,1457,0,0
-336,-433,0,0,0,0,0,0,0,0,0,-1,888,1457,0,0
-329,-433,0,0,0,0,0,0,0,0,0,-1,895,1457,0,0
-322,-433,0,0,0,0,0,0,0,0,0,-1,902,1457,0,0
-315,-433,0,0,0,0,0,0,0,0,0,-1,909,1457,0,0
-308,-433,0,0,0,0,0,0,0,0,0,-1,916,1457,0,0
-301,-433,0,0,0,0,0,0,0,0,0,-1,923,1457,0,0
-294,-433,0,0,0,0,0,0,0,0,0,-1,930,1457,0,0
-287,-433,0,0,0,0,0,0,0,0,0,-1,937,1457,0,0
-280,-433,0,0,0,0,0,0,0,0,0,-1,944,1457,0,0
-273,-433,0,0,0,0,0,0,0,0,0,-1,951,1457,0,0
-266,-433,0,0,0,0,0,0,0,0,0,-1,958,1457,0,0
-259,-433,0,0,0,0,0,0,0,0,0,-1,965,1457,0,0
-252,-433,0,0,0,0,0,0,0,0,0,-1,972,1457,0,0
-245,-433,0,0,0,0,0,0,0,0,0,-1,979,1457,0,0
-238,-433,0,0,0,0,0,0,0,0,0,-1,986,1457,0,0
-231,-433,0,0,0,0,0,0,0,0,0,-1,993,1457,0,0
-224,-433,0,0,0,0,0,0,0,0,0,-1,1000,1457,0,0
-217,-433,0,0,0,0,0,0,0,0,0,-1,1007,1457,0,0
-210,-433,0,0,0,0,0,0,0,0,0,-1,1014,1457,0,0
-203,-433,0,0,0,0,0,0,0,0,0,-1,1021,1457,0,0
-196,-433,0,0,0,0,0,0,0,0,0,-1,1028,1457,0,0
-189,-433,0,0,0,0,0,0,0,0,0,-1,1035,1457,0,0
-182,-433,0,0,0,0,0,0,0,0,0,-1,1042,1457,0,0
-175,-433,0,0,0,0,0,0,0,0,0,-1,1049,1457,0,0
-168,-433,0,0,0,0,0,0,0,0,0,-1,1056,1457,0,0
-161,-433,0,0,0,0,0,0,0,0,0,-1,1063,1457,0,0
-154,-433,0,0,0,0,0,0,0,0,0,-1,1070,1457,0,0
-147,-433,0,0,0,0,0,0,0,0,0,-1,1077,1457,0,0
-140,-433,0,0,0,0,0,0,0,0,0,-1,1084,1457,0,0
-133,-433,0,0,0,0,0,0,0,0,0,-1,1091,1457,0,0
-126,-433,0,0,0,0,0,0,0,0,0,-1,1098,1457,0,0
-119,-433,0,0,0,0,0,0,0,0,0,-1,1105,1457,0,0
-112,-433,0,0,0,0,0,0,0,0,0,-1,1112,1457,0,0
-105,-433,0,0,0,0,0,0,0,0,0,-1,1119,1457,0,0
-98,-433,0,0,0,0,0,0,0,0,0,-1,1126,1457,0,0
-91,-433,0,0,0,0,0,0,0,0,0,-1,1133,1457,0,0
-84,-433,0,0,0,0,0,0,0,0,0,-1,1140,1457,0,0
-77,-433,0,0,0,0,0,0,0,0,0,-1,1147,1457,0,0
-70,-433,0,0,0,0,0,0,0,0,0,-1,1154,1457,0,0
-63,-433,0,0,0,0,0,0,0,0,0,-1,1161,1457,0,0
-56,-433,0,0,0,0,0,0,0,0,0,-1,1168,1457,0,0
-49,-433,0,0,0,0,0,0,0,0,0,-1,1175,1457,0,0
-42,-433,0,0,0,0,0,0,0,0,0,-1,1182,1457,0,0
-35,-433,0,0,0,0,0,0,0,0,0,-1,1189,1457,0,0
-28,-433,0,0,0,0,0,0,0,0,0,-1,1196,1457,0,0
-21,-433,0,0,0,0,0,0,0,0,0,-1,1203,1457,0,0
-14,-433,0,0,0,0,0,0,0,0,0,-1,1210,1457,0,0
-7,-433,0,0,0,0,0,0,0,0,0,-1,1217,1457,0,0
0,-433,0,0,0,0,0,0,0,0,0,-1,1224,1457,0,0
7,-433,0,0,0,0,0,0,0,0,0,-1,1231,1457,0,0
14,-433,0,0,0,0,0,0,0,0,0,-1,1238,1457,0,0
21,-433,0,0,0,0,0,0,0,0,0,-1,1245,1457,0,0
28,-433,0,0,0,0,0,0,0,0,0,-1,1252,1457,0,0
35,-433,0,0,0,0,0,0,0,0,0,-1,1259,1457,0,0
42,-433,0,0,0,0,0,0,0,0,0,-1,1266,1457,0,0
49,-433,0,0,0,0,0,0,0,0,0,-1,1273,1457,0,0
56,-433,0,0,0,0,0,0,0,0,0,-1,1280,1457,0,0
63,-433,0,0,0,0,0,0,0,0,0,-1,1287,1457,0,0
70,-433,0,0,0,0,0,0,0,0,0,-1,1294,1457,0,0
77,-433,0,0,0,0,0,0,0,0,0,-1,1301,1457,0,0
84,-433,0,0,0,0,0,0,0,0,0,-1,1308,1457,0,0
91,-433,0,0,0,0,0,0,0,0,0,-1,1315,1457,0,0
98,-433,0,0,0,0,0,0,0,0,0,-1,1322,1457,0,0
105,-433,0,0,0,0,0,0,0,0,0,-1,1329,1457,0,0
112,-433,0,0,0,0,0,0,0,0,0,-1,1336,1457,0,0
119,-433,0,0,0,0,0,0,0,0,0,-1,1343,1457,0,0
126,-433,0,0,0,0,0,0,0,0,0,-1,1350,1457,0,0
133,-433,0,0,0,0,0,0,0,0,0,-1,1357,1457,0,0
140,-433,0,0,0,0,0,0,0,0,0,-1,1364,1457,0,0
147,-433,0,0,0,0,0,0,0,0,0,-1,1371,1457,0,0
154,-433,0,0,0,0,0,0,0,0,0,-1,1378,1457,0,0
161,-433,0,0,0,0,0,0,0,0,0,-1,1385,1457,0,0
168,-433,0,0,0,0,0,0,0,0,0,-1,1392,1457,0,0
175,-433,0,0,0,0,0,0,0,0,0,-1,1399,1457,0,0
182,-433,0,0,0,0,0,0,0,0,0,-1,1406,1457,0,0
189,-433,0,0,0,0,0,0,0,0,0,-1,1413,1457,0,0
196,-433,0,0,0,0,0,0,0,0,0,-1,1420,1457,0,0
203,-433,0,0,0,0,0,0,0,0,0,-1,1427,1457,0,0
210,-433,0,0,0,0,0,0,0,0,0,-1,1434,1457,0,0
217,-433,0,0,0,0,0,0,0,0,0,-1,1441,1457,0,0
224,-433,0,0,0,0,0,0,0,0,0,-1,1448,1457,0,0
231,-433,0,0,0,0,0,0,0,0,0,-1,1455,1457,0,0
238,-433,0,0,0,0,0,0,0,0,0,-1,1462,1457,0,0
245,-433,0,0,0,0,0,0,0,0,0,-1,1469,1457,0,0
252,-433,0,0,0,0,0,0,0,0,0,-1,1476,1457,0,0
259,-433,0,0,0,0,0,0,0,0,0,-1,1483,1457,0,0
266,-433,0,0,0,0,0,0,0,0,0,-1,1490,1457,0,0
273,-433,0,0,0,0,0,0,0,0,0,-1,1497,1457,0,0
280,-433,0,0,0,0,0,0,0,0,0,-1,1504,1457,0,0
287,-433,0,0,0,0,0,0,0,0,0,-1,1511,1457,0,0
294,-433,0,0,0,0,0,0,0,0,0,-1,1518,1457,0,0
301,-433,0,0,0,0,0,0,0,0,0,-1,1525,1457,0,0
308,-433,0,0,0,0,0,0,0,0,0,-1,1532,1457,0,0
315,-433,0,0,0,0,0,0,0,0,0,-1,1539,1457,0,0
322,-433,0,0,0,0,0,0,0,0,0,-1,1546,1457,0,0
329,-433,0,0,0,0,0,0,0,0,0,-1,1553,1457,0,0
336,-433,0,0,0,0,0,0,0,0,0,-1,1560,1457,0,0
343,-433,0,0,0,0,0,0,0,0,0,-1,1567,1457,0,0
350,-433,0,0,0,0,0,0,0,0,0,-1,1574,1457,0,0
357,-433,0,0,0,0,0,0,0,0,0,-1,1581,1457,0,0
364,-433,0,0,0,0,0,0,0,0,0,-1,1588,1457,0,0
371,-433,0,0,0,0,0,0,0,0,0,-1,1595,1457,0,0
378,-433,0,0,0,0,0,0,0,0,0,-1,1602,1457,0,0
385,-433,0,0,0,0,0,0,0,0,0,-1,1609,1457,0,0
392,-433,0,0,0,0,0,0,0,0,0,-1,1616,1457,0,0
399,-433,0,0,0,0,0,0,0,0,0,-1,1623,1457,0,0
406,-433,0,0,0,0,0,0,0,0,0,-1,1630,1457,0,0
413,-433,0,0,0,0,0,0,0,0,0,-1,1637,1457,0,0
420,-433,0,0,0,0,0,0,0,0,0,-1,1644,1457,0,0
427,-433,0,0,0,0,0,0,0,0,0,-1,1651,1457,0,0
434,-433,0,0,0,0,0,0,0,0,0,-1,1658,1457,0,0
441,-433,0,0,0,0,0,0,0,0,0,-1,1665,1457,0,0
448,-433,0,0,0,0,0,0,0,0,0,-1,1672,1457,0,0
455,-433,0,0,0,0,0,0,0,0,0,-1,1679,1457,0,0
462,-433,0,0,0,0,0,0,0,0,0,-1,1686,1457,0,0
469,-433,0,0,0,0,0,0,0,0,0,-1,1693,1457,0,0
476,-433,0,0,0,0,0,0,0,0,0,-1,1700,1457,0,0
483,-433,0,0,0,0,0,0,0,0,0,-1,1707,1457,0,0
490,-433,0,0,0,0,0,0,0,0,0,-1,1714,1457,0,0
497,-433,0,0,0,0,0,0,0,0,0,-1,1721,1457,0,0
504,-433,19.9058,3.03662,0,0,0,0,0,0,0,-1,1728,1457,19.9058,-3.03656
511,-433,19.0145,3.07837,0,0,0,0,0,0,0,-1,1735,1457,19.0146,-3.07834
518,-433,18.071,3.06433,0,0,0,0,0,0,0,-1,1742,1457,18.071,-3.06432
525,-433,17.2048,3.37085,0,0,0,0,0,0,0,-1,1749,1457,17.2049,-3.37083
532,-433,16.5637,3.36646,0,0,0,0,0,0,0,-1,1756,1457,16.5637,-3.36643
539,-433,15.9193,3.30396,0,0,0,0,0,0,0,-1,1763,1457,15.9193,-3.30394
546,-433,11.3518,8.02502,0,0,0,0,0,0,0,-1,1770,1457,11.3518,-8.025
553,-433,11.7994,8.73254,0,0,0,0,0,0,0,-1,1777,1457,11.7995,-8.73248
560,-433,12.2472,9.43994,0,0,0,0,0,0,0,-1,1784,1457,12.2472,-9.43997
567,-433,13.4974,9.18909,0,0,0,0,0,0,0,-1,1791,1457,13.4974,-9.18909
574,-433,12.215,8.23792,0,0,0,0,0,0,0,-1,1798,1457,12.2149,-8.23787
581,-433,12.2396,8.18176,-0.00678711,-0.0169888,0.0175181,0.00635771,-0.0301336,0.643728,0.0225096,0.0441469,1805,1457,12.2397,-8.18174
588,-433,12.1459,8.20886,-0.00848195,-0.0138858,0.0139771,0.003052,-0.0254197,0.689921,0.01805,0.0367,1812,1457,12.1459,-8.20884
595,-433,12.0216,8.14539,-0.00856987,-0.0113178,0.0110268,0.00116823,-0.0210559,0.723416,0.0144425,0.0227691,1819,1457,12.0216,-8.14539
602,-433,12.057,7.92822,-0.0078234,-0.00877402,0.00854168,0.000256182,-0.0168536,0.757604,0.0113221,0.0197881,1826,1457,12.0571,-7.92827
609,-433,12.0437,7.69788,-0.00740318,-0.00665875,0.00639877,-0.000621374,-0.0134406,0.814451,0.00876059,0.0156049,1833,1457,12.0436,-7.69783
616,-433,12.0284,7.51648,-0.00597458,-0.0048623,0.00458064,-0.000804164,-0.0100327,0.845808,0.00643719,0.0135276,1840,1457,12.0284,-7.51647
623,-433,12.0305,7.29309,-0.00399666,-0.00324462,0.00303337,-0.000564051,-0.00667723,0.847064,0.00427589,0.0102744,1847,1457,12.0305,-7.29309
630,-433,12.028,7.09412,-0.00267341,-0.00213772,0.00197358,-0.000413891,-0.00439724,0.852843,0.00280373,0.0124681,1854,1457,12.028,-7.09412
637,-433,12.0428,6.89648,-0.00159169,-0.00106799,0.00100266,-0.000293552,-0.00236612,0.913124,0.00148924,0.0137505,1861,1457,12.0429,-6.89643
644,-433,12.0403,6.70386,-0.000947733,-0.00032136,0.000377904,-0.000143734,-0.00112536,1.13141,0.000707214,0.0147676,1868,1457,12.0403,-6.70382
651,-433,12.0314,6.48242,-0.00080047,0.000226366,3.04006e-05,0.000227265,-0.000801369,1.54122,0.000623953,0.0119315,1875,1457,12.0313,-6.48245
658,-433,12.0466,6.22791,-0.00145021,0.000608138,0.000109988,0.000613998,-0.00145607,1.51756,0.00122767,0.0142053,1882,1457,12.0466,-6.2279
665,-433,11.994,5.95313,-0.00285481,0.000851657,0.000612705,0.000950315,-0.00295347,1.41115,0.00235068,0.0203334,1889,1457,11.994,-5.95307
672,-433,12.0332,5.81714,-0.00498234,0.00103666,0.00159482,0.00143311,-0.0053788,1.32715,0.00414695,0.0391339,1896,1457,12.0332,-5.81719
679,-433,11.6731,6.07483,-0.00788072,0.0013669,0.00299198,0.0022505,-0.00876432,1.28364,0.00671986,0.0445675,1903,1457,11.6731,-6.07478
686,-433,11.4025,6.32813,0,0,0,0,0,0,0,-1,1910,1457,11.4024,-6.32809
693,-433,8.27722,4.4519,0,0,0,0,0,0,0,-1,1917,1457,8.27728,-4.45186
700,-433,7.16809,-1.5166,0,0,0,0,0,0,0,-1,1924,1457,7.16806,1.51656
707,-433,8.68359,-2.82202,0,0,0,0,0,0,0,-1,1931,1457,8.68359,2.82197
714,-433,0,0,0,0,0,0,0,0,0,-1,1938,1457,0,0
721,-433,0,0,0,0,0,0,0,0,0,-1,1945,1457,0,0
728,-433,0,0,0,0,0,0,0,0,0,-1,1952,1457,0,0
735,-433,0,0,0,0,0,0,0,0,0,-1,1959,1457,0,0
742,-433,0,0,0,0,0,0,0,0,0,-1,1966,1457,0,0
749,-433,0,0,0,0,0,0,0,0,0,-1,1973,1457,0,0
756,-433,0,0,0,0,0,0,0,0,0,-1,1980,1457,0,0
763,-433,0,0,0,0,0,0,0,0,0,-1,1987,1457,0,0
770,-433,0,0,0,0,0,0,0,0,0,-1,1994,1457,0,0
777,-433,0,0,0,0,0,0,0,0,0,-1,2001,1457,0,0
784,-433,0,0,0,0,0,0,0,0,0,-1,2008,1457,0,0
791,-433,0,0,0,0,0,0,0,0,0,-1,2015,1457,0,0
798,-433,0,0,0,0,0,0,0,0,0,-1,2022,1457,0,0
805,-433,0,0,0,0,0,0,0,0,0,-1,2029,1457,0,0
812,-433,0,0,0,0,0,0,0,0,0,-1,2036,1457,0,0
-700,-440,0,0,0,0,0,0,0,0,0,-1,524,1464,0,0
-693,-440,0,0,0,0,0,0,0,0,0,-1,531,1464,0,0
-686,-440,0,0,0,0,0,0,0,0,0,-1,538,1464,0,0
-679,-440,0,0,0,0,0,0,0,0,0,-1,545,1464,0,0
-672,-440,0,0,0,0,0,0,0,0,0,-1,552,1464,0,0
-665,-440,0,0,0,0,0,0,0,0,0,-1,559,1464,0,0
-658,-440,0,0,0,0,0,0,0,0,0,-1,566,1464,0,0
-651,-440,0,0,0,0,0,0,0,0,0,-1,573,1464,0,0
-644,-440,0,0,0,0,0,0,0,0,0,-1,580,1464,0,0
-637,-440,0,0,0,0,0,0,0,0,0,-1,587,1464,0,0
-630,-440,0,0,0,0,0,0,0,0,0,-1,594,1464,0,0
-623,-440,0,0,0,0,0,0,0,0,0,-1,601,1464,0,0
-616,-440,0,0,0,0,0,0,0,0,0,-1,608,1464,0,0
-609,-440,0,0,0,0,0,0,0,0,0,-1,615,1464,0,0
-602,-440,0,0,0,0,0,0,0,0,0,-1,622,1464,0,0
-595,-440,0,0,0,0,0,0,0,0,0,-1,629,1464,0,0
-588,-440,0,0,0,0,0,0,0,0,0,-1,636,1464,0,0
-581,-440,-5.65979,-1.33923,0,0,0,0,0,0,0,-1,643,1464,-5.65977,1.33928
-574,-440,-5.4505,0.108032,0,0,0,0,0,0,0,-1,650,1464,-5.4505,-0.10799
-567,-440,-5.19031,1.42065,0,0,0,0,0,0,0,-1,657,1464,-5.19029,-1.42063
-560,-440,-5.97931,0.783936,0,0,0,0,0,0,0,-1,664,1464,-5.97933,-0.783921
-553,-440,-5.43896,1.0321,0.0997827,0.0141761,0.0428638,0.117555,-0.00359637,0.393052,0.079596,0.0435137,671,1464,-5.43899,-1.03205
-546,-440,-4.88263,1.29578,0.075986,0.00995478,0.0367097,0.0923428,-0.006402,0.419165,0.063803,0.0469186,678,1464,-4.88262,-1.29573
-539,-440,-2.97827,3.28943,0,0,0,0,0,0,0,-1,685,1464,-2.97829,-3.28947
-532,-440,-3.03253,4.07861,0.0426881,0.00437626,0.0247512,0.0548302,-0.00776589,0.456074,0.0393981,0.0387835,692,1464,-3.03253,-4.07856
-525,-440,-2.99371,4.41382,0.0314229,0.00261739,0.0196584,0.04139,-0.00734971,0.469245,0.0303415,0.0188508,699,1464,-2.99368,-4.41385
-518,-440,-2.98419,4.60339,0.0230489,0.00154915,0.0149003,0.0306724,-0.00607427,0.472908,0.022745,0.0135273,706,1464,-2.98422,-4.60336
-511,-440,-2.95062,4.85474,0.0169918,0.000747569,0.0107473,0.0223409,-0.0046015,0.461817,0.0166412,0.0153759,713,1464,-2.95064,-4.85476
-504,-440,-2.927,5.06799,0.0122615,-5.00388e-05,0.00724396,0.015612,-0.0034005,0.433214,0.0117073,0.0183794,720,1464,-2.927,-5.06795
-497,-440,-2.93774,5.30383,0.00810726,-0.00153861,0.00419429,0.00967595,-0.0031073,0.357897,0.00769835,0.0206556,727,1464,-2.93775,-5.30389
-490,-440,-2.96265,5.57117,0.00465176,-0.00322333,0.00150454,0.00492941,-0.00350099,0.182491,0.00489053,0.0206962,734,1464,-2.96265,-5.57116
-483,-440,-2.9837,5.81689,0.0024031,-0.00388976,-0.00157724,0.00277629,-0.00426295,-0.232336,0.00409421,0.0185717,741,1464,-2.98368,-5.81685
-476,-440,-2.96698,6.02991,0.00114456,-0.00624755,-0.00400416,0.00289773,-0.00800073,-0.412695,0.00651809,0.0130529,748,1464,-2.96695,-6.02987
-469,-440,-2.97729,6.27649,0.000435248,-0.00876905,-0.00553073,0.00302815,-0.0113619,-0.438391,0.00876024,0.0121887,755,1464,-2.97731,-6.27645
-462,-440,-2.99329,6.52686,7.55577e-05,-0.0120343,-0.0068241,0.0031437,-0.0151025,-0.422525,0.0112634,0.0127542,762,1464,-2.9933,-6.52689
-455,-440,-2.93036,6.82434,0.000271362,-0.0157567,-0.00829806,0.00379347,-0.0192788,-0.401405,0.0142859,0.0155361,769,1464,-2.93036,-6.82437
-448,-440,-2.84473,6.74512,0,0,0,0,0,0,0,-1,776,1464,-2.84472,-6.74514
-441,-440,-2.9657,6.67566,0.00249561,-0.024666,-0.0102484,0.00592855,-0.028099,-0.323226,0.0209898,0.0375983,783,1464,-2.96572,-6.67571
-434,-440,-3.00623,6.6554,0.00471843,-0.0297416,-0.0100187,0.00741947,-0.0324426,-0.26334,0.0244793,0.0416328,790,1464,-3.00624,-6.65542
-427,-440,-2.68011,6.70447,0.00804443,-0.0350716,-0.00837232,0.0096131,-0.0366403,-0.185217,0.0281831,0.0415873,797,1464,-2.68011,-6.70445
-420,-440,-2.53412,6.46912,0,0,0,0,0,0,0,-1,804,1464,-2.5341,-6.46914
-413,-440,-4.41571,5.30579,0,0,0,0,0,0,0,-1,811,1464,-4.41569,-5.30576
-406,-440,-5.2887,5.20264,0,0,0,0,0,0,0,-1,818,1464,-5.2887,-5.20261
-399,-440,-12.7318,3.94421,0,0,0,0,0,0,0,-1,825,1464,-12.7318,-3.94419
-392,-440,-13.5565,2.51855,0,0,0,0,0,0,0,-1,832,1464,-13.5565,-2.51861
-385,-440,-14.6741,1.39795,0,0,0,0,0,0,0,-1,839,1464,-14.6741,-1.39801
-378,-440,-15.8063,0.293457,0,0,0,0,0,0,0,-1,846,1464,-15.8063,-0.293412
-371,-440,0,0,0,0,0,0,0,0,0,-1,853,1464,0,0
-364,-440,0,0,0,0,0,0,0,0,0,-1,860,1464,0,0
-357,-440,0,0,0,0,0,0,0,0,0,-1,867,1464,0,0
-350,-440,0,0,0,0,0,0,0,0,0,-1,874,1464,0,0
-343,-440,0,0,0,0,0,0,0,0,0,-1,881,1464,0,0
-336,-440,0,0,0,0,0,0,0,0,0,-1,888,1464,0,0
-329,-440,0,0,0,0,0,0,0,0,0,-1,895,1464,0,0
-322,-440,0,0,0,0,0,0,0,0,0,-1,902,1464,0,0
-315,-440,0,0,0,0,0,0,0,0,0,-1,909,1464,0,0
-308,-440,0,0,0,0,0,0,0,0,0,-1,916,1464,0,0
-301,-440,0,0,0,0,0,0,0,0,0,-1,923,1464,0,0
-294,-440,0,0,0,0,0,0,0,0,0,-1,930,1464,0,0
-287,-440,0,0,0,0,0,0,0,0,0,-1,937,1464,0,0
-280,-440,0,0,0,0,0,0,0,0,0,-1,944,1464,0,0
-273,-440,0,0,0,0,0,0,0,0,0,-1,951,1464,0,0
-266,-440,0,0,0,0,0,0,0,0,0,-1,958,1464,0,0
-259,-440,0,0,0,0,0,0,0,0,0,-1,965,1464,0,0
-252,-440,0,0,0,0,0,0,0,0,0,-1,972,1464,0,0
-245,-440,0,0,0,0,0,0,0,0,0,-1,979,1464,0,0
-238,-440,0,0,0,0,0,0,0,0,0,-1,986,1464,0,0
-231,-440,0,0,0,0,0,0,0,0,0,-1,993,1464,0,0
-224,-440,0,0,0,0,0,0,0,0,0,-1,1000,1464,0,0
-217,-440,0,0,0,0,0,0,0,0,0,-1,1007,1464,0,0
-210,-440,0,0,0,0,0,0,0,0,0,-1,1014,1464,0,0
-203,-440,0,0,0,0,0,0,0,0,0,-1,1021,1464,0,0
-196,-440,0,0,0,0,0,0,0,0,0,-1,1028,1464,0,0
-189,-440,0,0,0,0,0,0,0,0,0,-1,1035,1464,0,0
-182,-440,0,0,0,0,0,0,0,0,0,-1,1042,1464,0,0
-175,-440,0,0,0,0,0,0,0,0,0,-1,1049,1464,0,0
-168,-440,0,0,0,0,0,0,0,0,0,-1,1056,1464,0,0
-161,-440,0,0,0,0,0,0,0,0,0,-1,1063,1464,0,0
-154,-440,0,0,0,0,0,0,0,0,0,-1,1070,1464,0,0
-147,-440,0,0,0,0,0,0,0,0,0,-1,1077,1464,0,0
-140,-440,0,0,0,0,0,0,0,0,0,-1,1084,1464,0,0
-133,-440,0,0,0,0,0,0,0,0,0,-1,1091,1464,0,0
-126,-440,0,0,0,0,0,0,0,0,0,-1,1098,1464,0,0
-119,-440,0,0,0,0,0,0,0,0,0,-1,1105,1464,0,0
-112,-440,0,0,0,0,0,0,0,0,0,-1,1112,1464,0,0
-105,-440,0,0,0,0,0,0,0,0,0,-1,1119,1464,0,0
-98,-440,0,0,0,0,0,0,0,0,0,-1,1126,1464,0,0
-91,-440,0,0,0,0,0,0,0,0,0,-1,1133,1464,0,0
-84,-440,0,0,0,0,0,0,0,0,0,-1,1140,1464,0,0
-77,-440,0,0,0,0,0,0,0,0,0,-1,1147,1464,0,0
-70,-440,0,0,0,0,0,0,0,0,0,-1,1154,1464,0,0
-63,-440,0,0,0,0,0,0,0,0,0,-1,1161,1464,0,0
-56,-440,0,0,0,0,0,0,0,0,0,-1,1168,1464,0,0
-49,-440,0,0,0,0,0,0,0,0,0,-1,1175,1464,0,0
-42,-440,0,0,0,0,0,0,0,0,0,-1,1182,1464,0,0
-35,-440,0,0,0,0,0,0,0,0,0,-1,1189,1464,0,0
-28,-440,0,0,0,0,0,0,0,0,0,-1,1196,1464,0,0
-21,-440,0,0,0,0,0,0,0,0,0,-1,1203,1464,0,0
-14,-440,0,0,0,0,0,0,0,0,0,-1,1210,1464,0,0
-7,-440,0,0,0,0,0,0,0,0,0,-1,1217,1464,0,0
0,-440,0,0,0,0,0,0,0,0,0,-1,1224,1464,0,0
7,-440,0,0,0,0,0,0,0,0,0,-1,1231,1464,0,0
14,-440,0,0,0,0,0,0,0,0,0,-1,1238,1464,0,0
21,-440,0,0,0,0,0,0,0,0,0,-1,1245,1464,0,0
28,-440,0,0,0,0,0,0,0,0,0,-1,1252,1464,0,0
35,-440,0,0,0,0,0,0,0,0,0,-1,1259,1464,0,0
42,-440,0,0,0,0,0,0,0,0,0,-1,1266,1464,0,0
49,-440,0,0,0,0,0,0,0,0,0,-1,1273,1464,0,0
56,-440,0,0,0,0,0,0,0,0,0,-1,1280,1464,0,0
63,-440,0,0,0,0,0,0,0,0,0,-1,1287,1464,0,0
70,-440,0,0,0,0,0,0,0,0,0,-1,1294,1464,0,0
77,-440,0,0,0,0,0,0,0,0,0,-1,1301,1464,0,0
84,-440,0,0,0,0,0,0,0,0,0,-1,1308,1464,0,0
91,-440,0,0,0,0,0,0,0,0,0,-1,1315,1464,0,0
98,-440,0,0,0,0,0,0,0,0,0,-1,1322,1464,0,0
105,-440,0,0,0,0,0,0,0,0,0,-1,1329,1464,0,0
112,-440,0,0,0,0,0,0,0,0,0,-1,1336,1464,0,0
119,-440,0,0,0,0,0,0,0,0,0,-1,1343,1464,0,0
126,-440,0,0,0,0,0,0,0,0,0,-1,1350,1464,0,0
133,-440,0,0,0,0,0,0,0,0,0,-1,1357,1464,0,0
140,-440,0,0,0,0,0,0,0,0,0,-1,1364,1464,0,0
147,-440,0,0,0,0,0,0,0,0,0,-1,1371,1464,0,0
154,-440,0,0,0,0,0,0,0,0,0,-1,1378,1464,0,0
161,-440,0,0,0,0,0,0,0,0,0,-1,1385,1464,0,0
168,-440,0,0,0,0,0,0,0,0,0,-1,1392,1464,0,0
175,-440,0,0,0,0,0,0,0,0,0,-1,1399,1464,0,0
182,-440,0,0,0,0,0,0,0,0,0,-1,1406,1464,0,0
189,-440,0,0,0,0,0,0,0,0,0,-1,1413,1464,0,0
196,-440,0,0,0,0,0,0,0,0,0,-1,1420,1464,0,0
203,-440,0,0,0,0,0,0,0,0,0,-1,1427,1464,0,0
210,-440,0,0,0,0,0,0,0,0,0,-1,1434,1464,0,0
217,-440,0,0,0,0,0,0,0,0,0,-1,1441,1464,0,0
224,-440,0,0,0,0,0,0,0,0,0,-1,1448,1464,0,0
231,-440,0,0,0,0,0,0,0,0,0,-1,1455,1464,0,0
238,-440,0,0,0,0,0,0,0,0,0,-1,1462,1464,0,0
245,-440,0,0,0,0,0,0,0,0,0,-1,1469,1464,0,0
252,-440,0,0,0,0,0,0,0,0,0,-1,1476,1464,0,0
259,-440,0,0,0,0,0,0,0,0,0,-1,1483,1464,0,0
266,-440,0,0,0,0,0,0,0,0,0,-1,1490,1464,0,0
273,-440,0,0,0,0,0,0,0,0,0,-1,1497,1464,0,0
280,-440,0,0,0,0,0,0,0,0,0,-1,1504,1464,0,0
287,-440,0,0,0,0,0,0,0,0,0,-1,1511,1464,0,0
294,-440,0,0,0,0,0,0,0,0,0,-1,1518,1464,0,0
301,-440,0,0,0,0,0,0,0,0,0,-1,1525,1464,0,0
308,-440,0,0,0,0,0,0,0,0,0,-1,1532,1464,0,0
315,-440,0,0,0,0,0,0,0,0,0,-1,1539,1464,0,0
322,-440,0,0,0,0,0,0,0,0,0,-1,1546,1464,0,0
329,-440,0,0,0,0,0,0,0,0,0,-1,1553,1464,0,0
336,-440,0,0,0,0,0,0,0,0,0,-1,1560,1464,0,0
343,-440,0,0,0,0,0,0,0,0,0,-1,1567,1464,0,0
350,-440,0,0,0,0,0,0,0,0,0,-1,1574,1464,0,0
357,-440,0,0,0,0,0,0,0,0,0,-1,1581,1464,0,0
364,-440,0,0,0,0,0,0,0,0,0,-1,1588,1464,0,0
371,-440,0,0,0,0,0,0,0,0,0,-1,1595,1464,0,0
378,-440,0,0,0,0,0,0,0,0,0,-1,1602,1464,0,0
385,-440,0,0,0,0,0,0,0,0,0,-1,1609,1464,0,0
392,-440,0,0,0,0,0,0,0,0,0,-1,1616,1464,0,0
399,-440,0,0,0,0,0,0,0,0,0,-1,1623,1464,0,0
406,-440,0,0,0,0,0,0,0,0,0,-1,1630,1464,0,0
413,-440,0,0,0,0,0,0,0,0,0,-1,1637,1464,0,0
420,-440,0,0,0,0,0,0,0,0,0,-1,1644,1464,0,0
427,-440,0,0,0,0,0,0,0,0,0,-1,1651,1464,0,0
434,-440,0,0,0,0,0,0,0,0,0,-1,1658,1464,0,0
441,-440,0,0,0,0,0,0,0,0,0,-1,1665,1464,0,0
448,-440,0,0,0,0,0,0,0,0,0,-1,1672,1464,0,0
455,-440,0,0,0,0,0,0,0,0,0,-1,1679,1464,0,0
462,-440,0,0,0,0,0,0,0,0,0,-1,1686,1464,0,0
469,-440,0,0,0,0,0,0,0,0,0,-1,1693,1464,0,0
476,-440,0,0,0,0,0,0,0,0,0,-1,1700,1464,0,0
483,-440,0,0,0,0,0,0,0,0,0,-1,1707,1464,0,0
490,-440,0,0,0,0,0,0,0,0,0,-1,1714,1464,0,0
497,-440,16.965,-0.528442,0,0,0,0,0,0,0,-1,1721,1464,16.965,0.528492
504,-440,15.8052,0.670166,0,0,0,0,0,0,0,-1,1728,1464,15.8052,-0.670145
511,-440,17.5754,2.77832,0,0,0,0,0,0,0,-1,1735,1464,17.5754,-2.77826
518,-440,16.9017,3.07861,0,0,0,0,0,0,0,-1,1742,1464,16.9018,-3.07859
525,-440,16.1831,3.62671,0,0,0,0,0,0,0,-1,1749,1464,16.1831,-3.62674
532,-440,15.4319,3.64392,0,0,0,0,0,0,0,-1,1756,1464,15.4318,-3.64391
539,-440,14.8214,3.41321,0,0,0,0,0,0,0,-1,1763,1464,14.8214,-3.4132
546,-440,11.4041,8.26465,0,0,0,0,0,0,0,-1,1770,1464,11.4041,-8.26463
553,-440,11.7632,8.50269,0.0191992,-0.0227902,0.0294159,0.0343441,-0.0379351,0.475461,0.0417476,0.0451261,1777,1464,11.7632,-8.50263
560,-440,12.4108,8.59521,0.00957102,-0.0210776,0.0250421,0.0236055,-0.0351121,0.510821,0.0341169,0.0459181,1784,1464,12.4107,-8.59527
567,-440,12.23,8.12976,0,0,0,0,0,0,0,-1,1791,1464,12.2299,-8.12982
574,-440,11.998,8.63013,0,0,0,0,0,0,0,-1,1798,1464,11.998,-8.63014
581,-440,11.9395,8.49524,-0.00424676,-0.0133862,0.0138431,0.00576138,-0.0233944,0.625975,0.0178297,0.0384357,1805,1464,11.9395,-8.49523
588,-440,11.8491,8.44141,-0.00545942,-0.010694,0.0108967,0.0031299,-0.0192833,0.667535,0.0140158,0.028005,1812,1464,11.8491,-8.44137
595,-440,11.8221,8.18494,-0.00566192,-0.00871211,0.00847642,0.00142551,-0.0157995,0.696389,0.0110389,0.0200579,1819,1464,11.8222,-8.18491
602,-440,11.8445,7.94189,-0.0052916,-0.00673641,0.00647335,0.000499521,-0.0125275,0.72983,0.00852308,0.0183797,1826,1464,11.8445,-7.94194
609,-440,11.8262,7.71521,-0.00523752,-0.00510369,0.00471472,-0.00045541,-0.0098858,0.792494,0.0064441,0.0157977,1833,1464,11.8262,-7.71526
616,-440,11.8253,7.52258,-0.00432728,-0.00374718,0.00319259,-0.000831489,-0.00724297,0.830699,0.00457673,0.0165593,1840,1464,11.8253,-7.52257
623,-440,11.8359,7.30554,-0.00293371,-0.00250954,0.00190001,-0.000809809,-0.00463344,0.84098,0.00285753,0.0128046,1847,1464,11.8359,-7.30549
630,-440,11.8295,7.06714,-0.00209904,-0.00167497,0.00101707,-0.00084807,-0.00292594,0.888162,0.00173832,0.0106215,1854,1464,11.8294,-7.06715
637,-440,11.8251,6.90088,-0.0013807,-0.000854086,0.000145671,-0.000816476,-0.00141831,1.31813,0.00082198,0.0143289,1861,1464,11.8251,-6.90083
644,-440,11.8312,6.7113,-0.000997799,-0.000253766,-0.000470026,-2.63486e-05,-0.00122522,-1.12016,0.000808171,0.0137777,1868,1464,11.8312,-6.71132
651,-440,11.8569,6.46619,-0.00109373,0.000230123,-0.000834704,0.000633503,-0.00149711,-1.12063,0.00126334,0.0123698,1875,1464,11.857,-6.46622
658,-440,11.8428,6.27551,-0.0019013,0.000658944,-0.000865465,0.000924053,-0.00216641,-1.27355,0.00183171,0.0174464,1882,1464,11.8428,-6.27557
665,-440,11.8733,6.04602,-0.00334849,0.00108589,-0.00057025,0.00115805,-0.00342065,-1.44493,0.002749,0.0301663,1889,1464,11.8733,-6.04597
672,-440,12.0194,5.76355,-0.00546675,0.0016496,0.000123701,0.00165175,-0.0054689,1.55342,0.00430351,0.044186,1896,1464,12.0194,-5.76358
679,-440,11.9219,5.8689,-0.00840752,0.00260773,0.00117626,0.00273194,-0.00853172,1.46559,0.00678436,0.0468468,1903,1464,11.9219,-5.86888
686,-440,11.5126,5.77686,0,0,0,0,0,0,0,-1,1910,1464,11.5126,-5.77685
693,-440,9.88635,2.89795,0,0,0,0,0,0,0,-1,1917,1464,9.88638,-2.89798
700,-440,7.07825,-2.62061,0,0,0,0,0,0,0,-1,1924,1464,7.07829,2.62057
707,-440,0,0,0,0,0,0,0,0,0,-1,1931,1464,0,0
714,-440,0,0,0,0,0,0,0,0,0,-1,1938,1464,0,0
721,-440,0,0,0,0,0,0,0,0,0,-1,1945,1464,0,0
728,-440,0,0,0,0,0,0,0,0,0,-1,1952,1464,0,0
735,-440,0,0,0,0,0,0,0,0,0,-1,1959,1464,0,0
742,-440,0,0,0,0,0,0,0,0,0,-1,1966,1464,0,0
749,-440,0,0,0,0,0,0,0,0,0,-1,1973,1464,0,0
756,-440,0,0,0,0,0,0,0,0,0,-1,1980,1464,0,0
763,-440,0,0,0,0,0,0,0,0,0,-1,1987,1464,0,0
770,-440,0,0,0,0,0,0,0,0,0,-1,1994,1464,0,0
777,-440,0,0,0,0,0,0,0,0,0,-1,2001,1464,0,0
784,-440,0,0,0,0,0,0,0,0,0,-1,2008,1464,0,0
791,-440,0,0,0,0,0,0,0,0,0,-1,2015,1464,0,0
798,-440,0,0,0,0,0,0,0,0,0,-1,2022,1464,0,0
805,-440,0,0,0,0,0,0,0,0,0,-1,2029,1464,0,0
812,-440,0,0,0,0,0,0,0,0,0,-1,2036,1464,0,0
-700,-447,0,0,0,0,0,0,0,0,0,-1,524,1471,0,0
-693,-447,0,0,0,0,0,0,0,0,0,-1,531,1471,0,0
-686,-447,0,0,0,0,0,0,0,0,0,-1,538,1471,0,0
-679,-447,0,0,0,0,0,0,0,0,0,-1,545,1471,0,0
-672,-447,0,0,0,0,0,0,0,0,0,-1,552,1471,0,0
-665,-447,0,0,0,0,0,0,0,0,0,-1,559,1471,0,0
-658,-447,0,0,0,0,0,0,0,0,0,-1,566,1471,0,0
-651,-447,0,0,0,0,0,0,0,0,0,-1,573,1471,0,0
-644,-447,0,0,0,0,0,0,0,0,0,-1,580,1471,0,0
-637,-447,0,0,0,0,0,0,0,0,0,-1,587,1471,0,0
-630,-447,0,0,0,0,0,0,0,0,0,-1,594,1471,0,0
-623,-447,0,0,0,0,0,0,0,0,0,-1,601,1471,0,0
-616,-447,0,0,0,0,0,0,0,0,0,-1,608,1471,0,0
-609,-447,0,0,0,0,0,0,0,0,0,-1,615,1471,0,0
-602,-447,0,0,0,0,0,0,0,0,0,-1,622,1471,0,0
-595,-447,0,0,0,0,0,0,0,0,0,-1,629,1471,0,0
-588,-447,0,0,0,0,0,0,0,0,0,-1,636,1471,0,0
-581,-447,-7.06482,-1.50476,0,0,0,0,0,0,0,-1,643,1471,-7.0648,1.50474
-574,-447,-6.88092,-0.00585938,0,0,0,0,0,0,0,-1,650,1471,-6.88095,0.00589852
-567,-447,-6.55432,1.34558,0,0,0,0,0,0,0,-1,657,1471,-6.55432,-1.34557
-560,-447,-6.91119,-0.260742,0,0,0,0,0,0,0,-1,664,1471,-6.9112,0.260786
-553,-447,-5.89764,0.0710449,0.116165,0.00952348,0.0551435,0.139551,-0.0138624,0.401101,0.0979823,0.0462363,671,1471,-5.89764,-0.071004
-546,-447,-4.87982,0.0777588,0.0912051,0.00517451,0.0468502,0.111792,-0.0154125,0.414023,0.080161,0.0463376,678,1471,-4.87984,-0.0777409
-539,-447,-2.85236,2.33655,0,0,0,0,0,0,0,-1,685,1471,-2.85236,-2.33657
-532,-447,-2.65417,3.23047,0.0551311,0.000632532,0.0305896,0.0688482,-0.0130846,0.421543,0.0508249,0.0466366,692,1471,-2.65416,-3.23041
-525,-447,-2.61163,4.41113,0.0421403,-0.000245757,0.0237322,0.0527649,-0.0108704,0.420929,0.0393044,0.0300835,699,1471,-2.61161,-4.41114
-518,-447,-2.72528,4.59814,0.0319555,-0.000509094,0.0176579,0.0397084,-0.00826201,0.41372,0.029613,0.021074,706,1471,-2.72527,-4.59819
-511,-447,-2.71136,4.84546,0.0240626,-0.000582535,0.0125821,0.0293513,-0.0058712,0.39791,0.0217899,0.0156315,713,1471,-2.71137,-4.84542
-504,-447,-2.70795,5.0824,0.0176886,-0.00073377,0.00850606,0.0210153,-0.00406049,0.37281,0.0155415,0.020089,720,1471,-2.70792,-5.08244
-497,-447,-2.71185,5.33655,0.0121643,-0.00172059,0.00514254,0.0138615,-0.00341778,0.318774,0.0105661,0.0237744,727,1471,-2.71184,-5.33654
-490,-447,-2.69653,5.61084,0.00767968,-0.0029187,0.00239837,0.00819716,-0.00343617,0.212504,0.00690145,0.0224758,734,1471,-2.69656,-5.61081
-483,-447,-2.72345,5.8197,0.00461325,-0.00283258,-0.000790816,0.00469632,-0.00291565,-0.104654,0.00443467,0.0203189,741,1471,-2.72343,-5.8197
-476,-447,-2.72943,6.02271,0.00260993,-0.00474009,-0.00308259,0.00373159,-0.00586175,-0.348977,0.00558405,0.0147042,748,1471,-2.72943,-6.02276
-469,-447,-2.74005,6.29004,0.00139513,-0.00685423,-0.00453172,0.00339821,-0.00885731,-0.416193,0.00730598,0.0130229,755,1471,-2.74007,-6.29009
-462,-447,-2.7489,6.55701,0.00082784,-0.00970958,-0.00552729,0.00319524,-0.012077,-0.404672,0.00930118,0.0118219,762,1471,-2.74893,-6.55695
-455,-447,-2.7724,6.80408,0.000996398,-0.013022,-0.00676161,0.0037262,-0.0157518,-0.38371,0.0119387,0.0118799,769,1471,-2.77237,-6.80412
-448,-447,-2.69647,7.04126,0.00187351,-0.0168211,-0.00789689,0.00476274,-0.0197104,-0.350742,0.0149823,0.0170626,776,1471,-2.69647,-7.04123
-441,-447,-2.71808,7.13391,0,0,0,0,0,0,0,-1,783,1471,-2.71807,-7.13393
-434,-447,-2.48523,7.15344,0.00524756,-0.0258847,-0.0087429,0.00753479,-0.028172,-0.255876,0.0217328,0.0380933,790,1471,-2.48523,-7.15338
-427,-447,-2.31171,6.74609,0.00807637,-0.031207,-0.00774503,0.00954822,-0.0326788,-0.187798,0.0255699,0.0437363,797,1471,-2.31169,-6.74608
-420,-447,-2.22058,6.59216,0,0,0,0,0,0,0,-1,804,1471,-2.22057,-6.59211
-413,-447,-0.865173,6.31775,0,0,0,0,0,0,0,-1,811,1471,-0.865144,-6.31778
-406,-447,-1.04279,6.18591,0,0,0,0,0,0,0,-1,818,1471,-1.04276,-6.18586
-399,-447,0.0134888,0.687622,0,0,0,0,0,0,0,-1,825,1471,0.0134841,-0.68767
-392,-447,-14.0646,3.76147,0,0,0,0,0,0,0,-1,832,1471,-14.0646,-3.7615
-385,-447,-15.1695,2.61865,0,0,0,0,0,0,0,-1,839,1471,-15.1695,-2.61871
-378,-447,-15.9424,1.49316,0,0,0,0,0,0,0,-1,846,1471,-15.9424,-1.49313
-371,-447,-17.3655,0.73291,0,0,0,0,0,0,0,-1,853,1471,-17.3655,-0.732946
-364,-447,0,0,0,0,0,0,0,0,0,-1,860,1471,0,0
-357,-447,0,0,0,0,0,0,0,0,0,-1,867,1471,0,0
-350,-447,0,0,0,0,0,0,0,0,0,-1,874,1471,0,0
-343,-447,0,0,0,0,0,0,0,0,0,-1,881,1471,0,0
-336,-447,0,0,0,0,0,0,0,0,0,-1,888,1471,0,0
-329,-447,0,0,0,0,0,0,0,0,0,-1,895,1471,0,0
-322,-447,0,0,0,0,0,0,0,0,0,-1,902,1471,0,0
-315,-447,0,0,0,0,0,0,0,0,0,-1,909,1471,0,0
-308,-447,0,0,0,0,0,0,0,0,0,-1,916,1471,0,0
-301,-447,0,0,0,0,0,0,0,0,0,-1,923,1471,0,0
-294,-447,0,0,0,0,0,0,0,0,0,-1,930,1471,0,0
-287,-447,0,0,0,0,0,0,0,0,0,-1,937,1471,0,0
-280,-447,0,0,0,0,0,0,0,0,0,-1,944,1471,0,0
-273,-447,0,0,0,0,0,0,0,0,0,-1,951,1471,0,0
-266,-447,0,0,0,0,0,0,0,0,0,-1,958,1471,0,0
-259,-447,0,0,0,0,0,0,0,0,0,-1,965,1471,0,0
-252,-447,0,0,0,0,0,0,0,0,0,-1,972,1471,0,0
-245,-447,0,0,0,0,0,0,0,0,0,-1,979,1471,0,0
-238,-447,0,0,0,0,0,0,0,0,0,-1,986,1471,0,0
-231,-447,0,0,0,0,0,0,0,0,0,-1,993,1471,0,0
-224,-447,0,0,0,0,0,0,0,0,0,-1,1000,1471,0,0
-217,-447,0,0,0,0,0,0,0,0,0,-1,1007,1471,0,0
-210,-447,0,0,0,0,0,0,0,0,0,-1,1014,1471,0,0
-203,-447,0,0,0,0,0,0,0,0,0,-1,1021,1471,0,0
-196,-447,0,0,0,0,0,0,0,0,0,-1,1028,1471,0,0
-189,-447,0,0,0,0,0,0,0,0,0,-1,1035,1471,0,0
-182,-447,0,0,0,0,0,0,0,0,0,-1,1042,1471,0,0
-175,-447,0,0,0,0,0,0,0,0,0,-1,1049,1471,0,0
-168,-447,0,0,0,0,0,0,0,0,0,-1,1056,1471,0,0
-161,-447,0,0,0,0,0,0,0,0,0,-1,1063,1471,0,0
-154,-447,0,0,0,0,0,0,0,0,0,-1,1070,1471,0,0
-147,-447,0,0,0,0,0,0,0,0,0,-1,1077,1471,0,0
-140,-447,0,0,0,0,0,0,0,0,0,-1,1084,1471,0,0
-133,-447,0,0,0,0,0,0,0,0,0,-1,1091,1471,0,0
-126,-447,0,0,0,0,0,0,0,0,0,-1,1098,1471,0,0
-119,-447,0,0,0,0,0,0,0,0,0,-1,1105,1471,0,0
-112,-447,0,0,0,0,0,0,0,0,0,-1,1112,1471,0,0
-105,-447,0,0,0,0,0,0,0,0,0,-1,1119,1471,0,0
-98,-447,0,0,0,0,0,0,0,0,0,-1,1126,1471,0,0
-91,-447,0,0,0,0,0,0,0,0,0,-1,1133,1471,0,0
-84,-447,0,0,0,0,0,0,0,0,0,-1,1140,1471,0,0
-77,-447,0,0,0,0,0,0,0,0,0,-1,1147,1471,0,0
-70,-447,0,0,0,0,0,0,0,0,0,-1,1154,1471,0,0
-63,-447,0,0,0,0,0,0,0,0,0,-1,1161,1471,0,0
-56,-447,0,0,0,0,0,0,0,0,0,-1,1168,1471,0,0
-49,-447,0,0,0,0,0,0,0,0,0,-1,1175,1471,0,0
-42,-447,0,0,0,0,0,0,0,0,0,-1,1182,1471,0,0
-35,-447,0,0,0,0,0,0,0,0,0,-1,1189,1471,0,0
-28,-447,0,0,0,0,0,0,0,0,0,-1,1196,1471,0,0
-21,-447,0,0,0,0,0,0,0,0,0,-1,1203,1471,0,0
-14,-447,0,0,0,0,0,0,0,0,0,-1,1210,1471,0,0
-7,-447,0,0,0,0,0,0,0,0,0,-1,1217,1471,0,0
0,-447,0,0,0,0,0,0,0,0,0,-1,1224,1471,0,0
7,-447,0,0,0,0,0,0,0,0,0,-1,1231,1471,0,0
14,-447,0,0,0,0,0,0,0,0,0,-1,1238,1471,0,0
21,-447,0,0,0,0,0,0,0,0,0,-1,1245,1471,0,0
28,-447,0,0,0,0,0,0,0,0,0,-1,1252,1471,0,0
35,-447,0,0,0,0,0,0,0,0,0,-1,1259,1471,0,0
42,-447,0,0,0,0,0,0,0,0,0,-1,1266,1471,0,0
49,-447,0,0,0,0,0,0,0,0,0,-1,1273,1471,0,0
56,-447,0,0,0,0,0,0,0,0,0,-1,1280,1471,0,0
63,-447,0,0,0,0,0,0,0,0,0,-1,1287,1471,0,0
70,-447,0,0,0,0,0,0,0,0,0,-1,1294,1471,0,0
77,-447,0,0,0,0,0,0,0,0,0,-1,1301,1471,0,0
84,-447,0,0,0,0,0,0,0,0,0,-1,1308,1471,0,0
91,-447,0,0,0,0,0,0,0,0,0,-1,1315,1471,0,0
98,-447,0,0,0,0,0,0,0,0,0,-1,1322,1471,0,0
105,-447,0,0,0,0,0,0,0,0,0,-1,1329,1471,0,0
112,-447,0,0,0,0,0,0,0,0,0,-1,1336,1471,0,0
119,-447,0,0,0,0,0,0,0,0,0,-1,1343,1471,0,0
126,-447,0,0,0,0,0,0,0,0,0,-1,1350,1471,0,0
133,-447,0,0,0,0,0,0,0,0,0,-1,1357,1471,0,0
140,-447,0,0,0,0,0,0,0,0,0,-1,1364,1471,0,0
147,-447,0,0,0,0,0,0,0,0,0,-1,1371,1471,0,0
154,-447,0,0,0,0,0,0,0,0,0,-1,1378,1471,0,0
161,-447,0,0,0,0,0,0,0,0,0,-1,1385,1471,0,0
168,-447,0,0,0,0,0,0,0,0,0,-1,1392,1471,0,0
175,-447,0,0,0,0,0,0,0,0,0,-1,1399,1471,0,0
182,-447,0,0,0,0,0,0,0,0,0,-1,1406,1471,0,0
189,-447,0,0,0,0,0,0,0,0,0,-1,1413,1471,0,0
196,-447,0,0,0,0,0,0,0,0,0,-1,1420,1471,0,0
203,-447,0,0,0,0,0,0,0,0,0,-1,1427,1471,0,0
210,-447,0,0,0,0,0,0,0,0,0,-1,1434,1471,0,0
217,-447,0,0,0,0,0,0,0,0,0,-1,1441,1471,0,0
224,-447,0,0,0,0,0,0,0,0,0,-1,1448,1471,0,0
231,-447,0,0,0,0,0,0,0,0,0,-1,1455,1471,0,0
238,-447,0,0,0,0,0,0,0,0,0,-1,1462,1471,0,0
245,-447,0,0,0,0,0,0,0,0,0,-1,1469,1471,0,0
252,-447,0,0,0,0,0,0,0,0,0,-1,1476,1471,0,0
259,-447,0,0,0,0,0,0,0,0,0,-1,1483,1471,0,0
266,-447,0,0,0,0,0,0,0,0,0,-1,1490,1471,0,0
273,-447,0,0,0,0,0,0,0,0,0,-1,1497,1471,0,0
280,-447,0,0,0,0,0,0,0,0,0,-1,1504,1471,0,0
287,-447,0,0,0,0,0,0,0,0,0,-1,1511,1471,0,0
294,-447,0,0,0,0,0,0,0,0,0,-1,1518,1471,0,0
301,-447,0,0,0,0,0,0,0,0,0,-1,1525,1471,0,0
308,-447,0,0,0,0,0,0,0,0,0,-1,1532,1471,0,0
315,-447,0,0,0,0,0,0,0,0,0,-1,1539,1471,0,0
322,-447,0,0,0,0,0,0,0,0,0,-1,1546,1471,0,0
329,-447,0,0,0,0,0,0,0,0,0,-1,1553,1471,0,0
336,-447,0,0,0,0,0,0,0,0,0,-1,1560,1471,0,0
343,-447,0,0,0,0,0,0,0,0,0,-1,1567,1471,0,0
350,-447,0,0,0,0,0,0,0,0,0,-1,1574,1471,0,0
357,-447,0,0,0,0,0,0,0,0,0,-1,1581,1471,0,0
364,-447,0,0,0,0,0,0,0,0,0,-1,1588,1471,0,0
371,-447,0,0,0,0,0,0,0,0,0,-1,1595,1471,0,0
378,-447,0,0,0,0,0,0,0,0,0,-1,1602,1471,0,0
385,-447,0,0,0,0,0,0,0,0,0,-1,1609,1471,0,0
392,-447,0,0,0,0,0,0,0,0,0,-1,1616,1471,0,0
399,-447,0,0,0,0,0,0,0,0,0,-1,1623,1471,0,0
406,-447,0,0,0,0,0,0,0,0,0,-1,1630,1471,0,0
413,-447,0,0,0,0,0,0,0,0,0,-1,1637,1471,0,0
420,-447,0,0,0,0,0,0,0,0,0,-1,1644,1471,0,0
427,-447,0,0,0,0,0,0,0,0,0,-1,1651,1471,0,0
434,-447,0,0,0,0,0,0,0,0,0,-1,1658,1471,0,0
441,-447,0,0,0,0,0,0,0,0,0,-1,1665,1471,0,0
448,-447,0,0,0,0,0,0,0,0,0,-1,1672,1471,0,0
455,-447,0,0,0,0,0,0,0,0,0,-1,1679,1471,0,0
462,-447,0,0,0,0,0,0,0,0,0,-1,1686,1471,0,0
469,-447,0,0,0,0,0,0,0,0,0,-1,1693,1471,0,0
476,-447,0,0,0,0,0,0,0,0,0,-1,1700,1471,0,0
483,-447,0,0,0,0,0,0,0,0,0,-1,1707,1471,0,0
490,-447,18.2214,-0.810303,0,0,0,0,0,0,0,-1,1714,1471,18.2215,0.810307
497,-447,17.0237,0.352417,0,0,0,0,0,0,0,-1,1721,1471,17.0237,-0.352442
504,-447,15.8998,1.53479,0,0,0,0,0,0,0,-1,1728,1471,15.8997,-1.53478
511,-447,14.7201,2.76111,0,0,0,0,0,0,0,-1,1735,1471,14.7201,-2.76107
518,-447,15.5737,3.55652,0,0,0,0,0,0,0,-1,1742,1471,15.5737,-3.55648
525,-447,15.2052,3.95215,0,0,0,0,0,0,0,-1,1749,1471,15.2052,-3.9522
532,-447,14.4753,3.96228,0,0,0,0,0,0,0,-1,1756,1471,14.4753,-3.96233
539,-447,12.391,7.84631,0,0,0,0,0,0,0,-1,1763,1471,12.391,-7.84629
546,-447,11.6473,8.65808,0,0,0,0,0,0,0,-1,1770,1471,11.6473,-8.65806
553,-447,11.5607,8.46667,0.0116314,-0.0205951,0.0254391,0.025631,-0.0345947,0.503087,0.0348995,0.0446742,1777,1471,11.5607,-8.46663
560,-447,12.2437,8.66772,0.00586892,-0.0181393,0.0210847,0.0181272,-0.0303976,0.526618,0.0283128,0.0459705,1784,1471,12.2437,-8.66768
567,-447,11.9629,8.57043,0.00170915,-0.0155326,0.0171886,0.0123176,-0.0261411,0.552956,0.0226772,0.0450183,1791,1471,11.9629,-8.57048
574,-447,11.7131,8.65833,-0.00104464,-0.0128893,0.013777,0.00802902,-0.021963,0.582404,0.017928,0.0305016,1798,1471,11.7132,-8.6583
581,-447,11.6155,8.63123,-0.00269245,-0.0104877,0.0108774,0.00496455,-0.0181447,0.613364,0.0140468,0.0145877,1805,1471,11.6155,-8.63124
588,-447,11.6384,8.40784,-0.00355998,-0.00817666,0.00836763,0.00281187,-0.0145485,0.650813,0.0107595,0.01313,1812,1471,11.6385,-8.40781
595,-447,11.6281,8.17554,-0.00372097,-0.00664457,0.00636534,0.00134826,-0.0117138,0.67253,0.00829522,0.0122062,1819,1471,11.6281,-8.1755
602,-447,11.6235,7.9353,-0.00351693,-0.00511851,0.00474882,0.000498147,-0.00913359,0.701869,0.00626172,0.0106945,1826,1471,11.6236,-7.93536
609,-447,11.6166,7.71448,-0.00360673,-0.00387912,0.0033027,-0.000437413,-0.00704843,0.764791,0.00456015,0.011591,1833,1471,11.6166,-7.71445
616,-447,11.6332,7.50024,-0.00299924,-0.00289695,0.00201547,-0.00093198,-0.00496421,0.798084,0.00304671,0.0131257,1840,1471,11.6332,-7.50029
623,-447,11.6392,7.31348,-0.00202468,-0.00202302,0.000932475,-0.00109138,-0.00295633,0.785843,0.0017262,0.01544,1847,1471,11.6392,-7.31346
630,-447,11.6383,7.07825,-0.00153955,-0.00145762,0.000175878,-0.001318,-0.00167917,0.899812,0.00102059,0.00900786,1854,1471,11.6383,-7.07826
637,-447,11.6443,6.87097,-0.00109353,-0.000909067,-0.000632471,-0.000362139,-0.00164046,-0.857803,0.00099514,0.0092517,1861,1471,11.6443,-6.87103
644,-447,11.6442,6.68188,-0.000913919,-0.000485079,-0.0012895,0.000607709,-0.00200671,-0.867785,0.00157983,0.00994404,1868,1471,11.6441,-6.68191
651,-447,11.6713,6.45361,-0.00121918,-0.000137888,-0.00173201,0.00113589,-0.00249296,-0.936681,0.0021434,0.0186623,1875,1471,11.6712,-6.45365
658,-447,11.5812,6.33472,-0.00215585,0.00027842,-0.0019753,0.00138146,-0.0032589,-1.06151,0.00275124,0.0263843,1882,1471,11.5812,-6.33469
665,-447,11.5566,6.12427,-0.00362773,0.000823334,-0.00202672,0.00160788,-0.00441228,-1.20146,0.00359926,0.0439357,1889,1471,11.5566,-6.12428
672,-447,11.5151,5.92139,0,0,0,0,0,0,0,-1,1896,1471,11.5151,-5.92138
679,-447,11.9594,5.54822,0,0,0,0,0,0,0,-1,1903,1471,11.9593,-5.54818
686,-447,9.81079,4.30859,0,0,0,0,0,0,0,-1,1910,1471,9.8108,-4.30864
693,-447,10.48,2.08643,0,0,0,0,0,0,0,-1,1917,1471,10.48,-2.08642
700,-447,0,0,0,0,0,0,0,0,0,-1,1924,1471,0,0
707,-447,0,0,0,0,0,0,0,0,0,-1,1931,1471,0,0
714,-447,0,0,0,0,0,0,0,0,0,-1,1938,1471,0,0
721,-447,0,0,0,0,0,0,0,0,0,-1,1945,1471,0,0
728,-447,0,0,0,0,0,0,0,0,0,-1,1952,1471,0,0
735,-447,0,0,0,0,0,0,0,0,0,-1,1959,1471,0,0
742,-447,0,0,0,0,0,0,0,0,0,-1,1966,1471,0,0
749,-447,0,0,0,0,0,0,0,0,0,-1,1973,1471,0,0
756,-447,0,0,0,0,0,0,0,0,0,-1,1980,1471,0,0
763,-447,0,0,0,0,0,0,0,0,0,-1,1987,1471,0,0
770,-447,0,0,0,0,0,0,0,0,0,-1,1994,1471,0,0
777,-447,0,0,0,0,0,0,0,0,0,-1,2001,1471,0,0
784,-447,0,0,0,0,0,0,0,0,0,-1,2008,1471,0,0
791,-447,0,0,0,0,0,0,0,0,0,-1,2015,1471,0,0
798,-447,0,0,0,0,0,0,0,0,0,-1,2022,1471,0,0
805,-447,0,0,0,0,0,0,0,0,0,-1,2029,1471,0,0
812,-447,0,0,0,0,0,0,0,0,0,-1,2036,1471,0,0
-700,-454,0,0,0,0,0,0,0,0,0,-1,524,1478,0,0
-693,-454,0,0,0,0,0,0,0,0,0,-1,531,1478,0,0
-686,-454,0,0,0,0,0,0,0,0,0,-1,538,1478,0,0
-679,-454,0,0,0,0,0,0,0,0,0,-1,545,1478,0,0
-672,-454,0,0,0,0,0,0,0,0,0,-1,552,1478,0,0
-665,-454,0,0,0,0,0,0,0,0,0,-1,559,1478,0,0
-658,-454,0,0,0,0,0,0,0,0,0,-1,566,1478,0,0
-651,-454,0,0,0,0,0,0,0,0,0,-1,573,1478,0,0
-644,-454,0,0,0,0,0,0,0,0,0,-1,580,1478,0,0
-637,-454,0,0,0,0,0,0,0,0,0,-1,587,1478,0,0
-630,-454,0,0,0,0,0,0,0,0,0,-1,594,1478,0,0
-623,-454,0,0,0,0,0,0,0,0,0,-1,601,1478,0,0
-616,-454,0,0,0,0,0,0,0,0,0,-1,608,1478,0,0
-609,-454,0,0,0,0,0,0,0,0,0,-1,615,1478,0,0
-602,-454,0,0,0,0,0,0,0,0,0,-1,622,1478,0,0
-595,-454,0,0,0,0,0,0,0,0,0,-1,629,1478,0,0
-588,-454,0,0,0,0,0,0,0,0,0,-1,636,1478,0,0
-581,-454,0,0,0,0,0,0,0,0,0,-1,643,1478,0,0
-574,-454,-8.4881,-0.465942,0,0,0,0,0,0,0,-1,650,1478,-8.4881,0.465885
-567,-454,-8.10046,0.922974,0,0,0,0,0,0,0,-1,657,1478,-8.10047,-0.923034
-560,-454,-6.84265,1.96936,0,0,0,0,0,0,0,-1,664,1478,-6.84264,-1.96934
-553,-454,-6.5509,-1.11816,0,0,0,0,0,0,0,-1,671,1478,-6.55093,1.11819
-546,-454,-5.09607,-0.754883,0,0,0,0,0,0,0,-1,678,1478,-5.09609,0.754837
-539,-454,-2.59442,1.55652,0,0,0,0,0,0,0,-1,685,1478,-2.59443,-1.55655
-532,-454,-2.22632,2.38501,0.0697686,-0.00640329,0.0378663,0.0853893,-0.0220239,0.391253,0.0655133,0.0482028,692,1478,-2.22632,-2.38507
-525,-454,-2.80341,4.17676,0.0547173,-0.00558031,0.0285638,0.0660997,-0.0169627,0.379204,0.050676,0.0405106,699,1478,-2.80342,-4.17676
-518,-454,-2.43268,4.70264,0.0421812,-0.00430735,0.0207539,0.0500981,-0.0122243,0.364428,0.0381323,0.0270925,706,1478,-2.43267,-4.70265
-511,-454,-2.50629,4.83789,0.0319616,-0.00309867,0.0145129,0.0371895,-0.00832659,0.345756,0.0279846,0.0174259,713,1478,-2.50632,-4.83788
-504,-454,-2.47717,5.0946,0.0236154,-0.00219189,0.00969845,0.0268538,-0.00543024,0.322264,0.0199604,0.0157819,720,1478,-2.47719,-5.0946
-497,-454,-2.46948,5.34802,0.0165325,-0.00238036,0.00592818,0.018237,-0.00408491,0.279981,0.0137238,0.0191638,727,1478,-2.46951,-5.348
-490,-454,-2.45313,5.63245,0.0108816,-0.00288402,0.00305149,0.0115277,-0.00353013,0.208655,0.00909321,0.0171391,734,1478,-2.45312,-5.63247
-483,-454,-2.46924,5.85559,0.00688114,-0.00194827,-0.000306579,0.00689177,-0.0019589,-0.0346669,0.00536797,0.0158988,741,1478,-2.46924,-5.85553
-476,-454,-2.48596,6.05884,0.00402875,-0.00336417,-0.00243801,0.00476035,-0.00409577,-0.291531,0.00511788,0.0139652,748,1478,-2.48595,-6.05878
-469,-454,-2.49133,6.3186,0.00226807,-0.00506126,-0.00378316,0.00387048,-0.00666367,-0.400653,0.00615275,0.0102297,755,1478,-2.49136,-6.31865
-462,-454,-2.50751,6.55396,0.00144392,-0.00754051,-0.0044922,0.00330464,-0.00940124,-0.392698,0.00761203,0.00986612,762,1478,-2.50751,-6.55401
-455,-454,-2.52423,6.77356,0.00150796,-0.0104884,-0.00541725,0.00359215,-0.0125726,-0.367275,0.00980107,0.0106533,769,1478,-2.52424,-6.77361
-448,-454,-2.51569,7.02502,0.0024079,-0.0138291,-0.00634633,0.00459406,-0.0160152,-0.331745,0.012493,0.0116725,776,1478,-2.51567,-7.02508
-441,-454,-2.38367,7.26233,0.00373754,-0.0175785,-0.00704747,0.00585686,-0.0196978,-0.292117,0.0154585,0.021095,783,1478,-2.38364,-7.26234
-434,-454,-2.1781,7.35303,0.00555269,-0.0220247,-0.00730103,0.00736634,-0.0238384,-0.243482,0.0188342,0.0306245,790,1478,-2.17807,-7.35302
-427,-454,-2.00195,7.21802,0.00790413,-0.0270065,-0.00687044,0.00920757,-0.0283099,-0.187489,0.0225772,0.0453503,797,1478,-2.00193,-7.21806
-420,-454,-1.88086,7.25769,0,0,0,0,0,0,0,-1,804,1478,-1.88089,-7.25764
-413,-454,-1.45038,6.5946,0.0145009,-0.0386535,-0.00224035,0.0145951,-0.0387478,-0.0420487,0.0318324,0.0468622,811,1478,-1.4504,-6.59459
-406,-454,-1.46069,6.73352,0,0,0,0,0,0,0,-1,818,1478,-1.46072,-6.73356
-399,-454,-1.21033,6.95447,0,0,0,0,0,0,0,-1,825,1478,-1.21035,-6.95452
-392,-454,0.0967407,0.985474,0,0,0,0,0,0,0,-1,832,1478,0.0967364,-0.985529
-385,-454,2.38629,3.297,0,0,0,0,0,0,0,-1,839,1478,2.38629,-3.29702
-378,-454,-15.9756,2.83997,0,0,0,0,0,0,0,-1,846,1478,-15.9756,-2.83994
-371,-454,-17.2753,2.01453,0,0,0,0,0,0,0,-1,853,1478,-17.2753,-2.01455
-364,-454,1.08124,0.819458,0,0,0,0,0,0,0,-1,860,1478,1.08124,-0.819513
-357,-454,0,0,0,0,0,0,0,0,0,-1,867,1478,0,0
-350,-454,0,0,0,0,0,0,0,0,0,-1,874,1478,0,0
-343,-454,0,0,0,0,0,0,0,0,0,-1,881,1478,0,0
-336,-454,0,0,0,0,0,0,0,0,0,-1,888,1478,0,0
-329,-454,0,0,0,0,0,0,0,0,0,-1,895,1478,0,0
-322,-454,0,0,0,0,0,0,0,0,0,-1,902,1478,0,0
-315,-454,0,0,0,0,0,0,0,0,0,-1,909,1478,0,0
-308,-454,0,0,0,0,0,0,0,0,0,-1,916,1478,0,0
-301,-454,0,0,0,0,0,0,0,0,0,-1,923,1478,0,0
-294,-454,0,0,0,0,0,0,0,0,0,-1,930,1478,0,0
-287,-454,0,0,0,0,0,0,0,0,0,-1,937,1478,0,0
-280,-454,0,0,0,0,0,0,0,0,0,-1,944,1478,0,0
-273,-454,0,0,0,0,0,0,0,0,0,-1,951,1478,0,0
-266,-454,0,0,0,0,0,0,0,0,0,-1,958,1478,0,0
-259,-454,0,0,0,0,0,0,0,0,0,-1,965,1478,0,0
-252,-454,0,0,0,0,0,0,0,0,0,-1,972,1478,0,0
-245,-454,0,0,0,0,0,0,0,0,0,-1,979,1478,0,0
-238,-454,0,0,0,0,0,0,0,0,0,-1,986,1478,0,0
-231,-454,0,0,0,0,0,0,0,0,0,-1,993,1478,0,0
-224,-454,0,0,0,0,0,0,0,0,0,-1,1000,1478,0,0
-217,-454,0,0,0,0,0,0,0,0,0,-1,1007,1478,0,0
-210,-454,0,0,0,0,0,0,0,0,0,-1,1014,1478,0,0
-203,-454,0,0,0,0,0,0,0,0,0,-1,1021,1478,0,0
-196,-454,0,0,0,0,0,0,0,0,0,-1,1028,1478,0,0
-189,-454,0,0,0,0,0,0,0,0,0,-1,1035,1478,0,0
-182,-454,0,0,0,0,0,0,0,0,0,-1,1042,1478,0,0
-175,-454,0,0,0,0,0,0,0,0,0,-1,1049,1478,0,0
-168,-454,0,0,0,0,0,0,0,0,0,-1,1056,1478,0,0
-161,-454,0,0,0,0,0,0,0,0,0,-1,1063,1478,0,0
-154,-454,0,0,0,0,0,0,0,0,0,-1,1070,1478,0,0
-147,-454,0,0,0,0,0,0,0,0,0,-1,1077,1478,0,0
-140,-454,0,0,0,0,0,0,0,0,0,-1,1084,1478,0,0
-133,-454,0,0,0,0,0,0,0,0,0,-1,1091,1478,0,0
-126,-454,0,0,0,0,0,0,0,0,0,-1,1098,1478,0,0
-119,-454,0,0,0,0,0,0,0,0,0,-1,1105,1478,0,0
-112,-454,0,0,0,0,0,0,0,0,0,-1,1112,1478,0,0
-105,-454,0,0,0,0,0,0,0,0,0,-1,1119,1478,0,0
-98,-454,0,0,0,0,0,0,0,0,0,-1,1126,1478,0,0
-91,-454,0,0,0,0,0,0,0,0,0,-1,1133,1478,0,0
-84,-454,0,0,0,0,0,0,0,0,0,-1,1140,1478,0,0
-77,-454,0,0,0,0,0,0,0,0,0,-1,1147,1478,0,0
-70,-454,0,0,0,0,0,0,0,0,0,-1,1154,1478,0,0
-63,-454,0,0,0,0,0,0,0,0,0,-1,1161,1478,0,0
-56,-454,0,0,0,0,0,0,0,0,0,-1,1168,1478,0,0
-49,-454,0,0,0,0,0,0,0,0,0,-1,1175,1478,0,0
-42,-454,0,0,0,0,0,0,0,0,0,-1,1182,1478,0,0
-35,-454,0,0,0,0,0,0,0,0,0,-1,1189,1478,0,0
-28,-454,0,0,0,0,0,0,0,0,0,-1,1196,1478,0,0
-21,-454,0,0,0,0,0,0,0,0,0,-1,1203,1478,0,0
-14,-454,0,0,0,0,0,0,0,0,0,-1,1210,1478,0,0
-7,-454,0,0,0,0,0,0,0,0,0,-1,1217,1478,0,0
0,-454,0,0,0,0,0,0,0,0,0,-1,1224,1478,0,0
7,-454,0,0,0,0,0,0,0,0,0,-1,1231,1478,0,0
14,-454,0,0,0,0,0,0,0,0,0,-1,1238,1478,0,0
21,-454,0,0,0,0,0,0,0,0,0,-1,1245,1478,0,0
28,-454,0,0,0,0,0,0,0,0,0,-1,1252,1478,0,0
35,-454,0,0,0,0,0,0,0,0,0,-1,1259,1478,0,0
42,-454,0,0,0,0,0,0,0,0,0,-1,1266,1478,0,0
49,-454,0,0,0,0,0,0,0,0,0,-1,1273,1478,0,0
56,-454,0,0,0,0,0,0,0,0,0,-1,1280,1478,0,0
63,-454,0,0,0,0,0,0,0,0,0,-1,1287,1478,0,0
70,-454,0,0,0,0,0,0,0,0,0,-1,1294,1478,0,0
77,-454,0,0,0,0,0,0,0,0,0,-1,1301,1478,0,0
84,-454,0,0,0,0,0,0,0,0,0,-1,1308,1478,0,0
91,-454,0,0,0,0,0,0,0,0,0,-1,1315,1478,0,0
98,-454,0,0,0,0,0,0,0,0,0,-1,1322,1478,0,0
105,-454,0,0,0,0,0,0,0,0,0,-1,1329,1478,0,0
112,-454,0,0,0,0,0,0,0,0,0,-1,1336,1478,0,0
119,-454,0,0,0,0,0,0,0,0,0,-1,1343,1478,0,0
126,-454,0,0,0,0,0,0,0,0,0,-1,1350,1478,0,0
133,-454,0,0,0,0,0,0,0,0,0,-1,1357,1478,0,0
140,-454,0,0,0,0,0,0,0,0,0,-1,1364,1478,0,0
147,-454,0,0,0,0,0,0,0,0,0,-1,1371,1478,0,0
154,-454,0,0,0,0,0,0,0,0,0,-1,1378,1478,0,0
161,-454,0,0,0,0,0,0,0,0,0,-1,1385,1478,0,0
168,-454,0,0,0,0,0,0,0,0,0,-1,1392,1478,0,0
175,-454,0,0,0,0,0,0,0,0,0,-1,1399,1478,0,0
182,-454,0,0,0,0,0,0,0,0,0,-1,1406,1478,0,0
189,-454,0,0,0,0,0,0,0,0,0,-1,1413,1478,0,0
196,-454,0,0,0,0,0,0,0,0,0,-1,1420,1478,0,0
203,-454,0,0,0,0,0,0,0,0,0,-1,1427,1478,0,0
210,-454,0,0,0,0,0,0,0,0,0,-1,1434,1478,0,0
217,-454,0,0,0,0,0,0,0,0,0,-1,1441,1478,0,0
224,-454,0,0,0,0,0,0,0,0,0,-1,1448,1478,0,0
231,-454,0,0,0,0,0,0,0,0,0,-1,1455,1478,0,0
238,-454,0,0,0,0,0,0,0,0,0,-1,1462,1478,0,0
245,-454,0,0,0,0,0,0,0,0,0,-1,1469,1478,0,0
252,-454,0,0,0,0,0,0,0,0,0,-1,1476,1478,0,0
259,-454,0,0,0,0,0,0,0,0,0,-1,1483,1478,0,0
266,-454,0,0,0,0,0,0,0,0,0,-1,1490,1478,0,0
273,-454,0,0,0,0,0,0,0,0,0,-1,1497,1478,0,0
280,-454,0,0,0,0,0,0,0,0,0,-1,1504,1478,0,0
287,-454,0,0,0,0,0,0,0,0,0,-1,1511,1478,0,0
294,-454,0,0,0,0,0,0,0,0,0,-1,1518,1478,0,0
301,-454,0,0,0,0,0,0,0,0,0,-1,1525,1478,0,0
308,-454,0,0,0,0,0,0,0,0,0,-1,1532,1478,0,0
315,-454,0,0,0,0,0,0,0,0,0,-1,1539,1478,0,0
322,-454,0,0,0,0,0,0,0,0,0,-1,1546,1478,0,0
329,-454,0,0,0,0,0,0,0,0,0,-1,1553,1478,0,0
336,-454,0,0,0,0,0,0,0,0,0,-1,1560,1478,0,0
343,-454,0,0,0,0,0,0,0,0,0,-1,1567,1478,0,0
350,-454,0,0,0,0,0,0,0,0,0,-1,1574,1478,0,0
357,-454,0,0,0,0,0,0,0,0,0,-1,1581,1478,0,0
364,-454,0,0,0,0,0,0,0,0,0,-1,1588,1478,0,0
371,-454,0,0,0,0,0,0,0,0,0,-1,1595,1478,0,0
378,-454,0,0,0,0,0,0,0,0,0,-1,1602,1478,0,0
385,-454,0,0,0,0,0,0,0,0,0,-1,1609,1478,0,0
392,-454,0,0,0,0,0,0,0,0,0,-1,1616,1478,0,0
399,-454,0,0,0,0,0,0,0,0,0,-1,1623,1478,0,0
406,-454,0,0,0,0,0,0,0,0,0,-1,1630,1478,0,0
413,-454,0,0,0,0,0,0,0,0,0,-1,1637,1478,0,0
420,-454,0,0,0,0,0,0,0,0,0,-1,1644,1478,0,0
427,-454,0,0,0,0,0,0,0,0,0,-1,1651,1478,0,0
434,-454,0,0,0,0,0,0,0,0,0,-1,1658,1478,0,0
441,-454,0,0,0,0,0,0,0,0,0,-1,1665,1478,0,0
448,-454,0,0,0,0,0,0,0,0,0,-1,1672,1478,0,0
455,-454,0,0,0,0,0,0,0,0,0,-1,1679,1478,0,0
462,-454,0,0,0,0,0,0,0,0,0,-1,1686,1478,0,0
469,-454,0,0,0,0,0,0,0,0,0,-1,1693,1478,0,0
476,-454,0,0,0,0,0,0,0,0,0,-1,1700,1478,0,0
483,-454,14.2399,3.97498,0,0,0,0,0,0,0,-1,1707,1478,14.2399,-3.97502
490,-454,18.1821,-0.175781,0,0,0,0,0,0,0,-1,1714,1478,18.1821,0.175822
497,-454,16.8854,1.01208,0,0,0,0,0,0,0,-1,1721,1478,16.8854,-1.01209
504,-454,15.587,2.05994,0,0,0,0,0,0,0,-1,1728,1478,15.5871,-2.05998
511,-454,15.3889,3.97827,0,0,0,0,0,0,0,-1,1735,1478,15.3889,-3.97821
518,-454,14.4576,4.35889,0,0,0,0,0,0,0,-1,1742,1478,14.4576,-4.35884
525,-454,13.7157,5.28003,0,0,0,0,0,0,0,-1,1749,1478,13.7158,-5.28003
532,-454,11.49,7.26526,0,0,0,0,0,0,0,-1,1756,1478,11.4899,-7.26531
539,-454,11.5723,7.73242,0,0,0,0,0,0,0,-1,1763,1478,11.5723,-7.73242
546,-454,11.7426,8.87695,0,0,0,0,0,0,0,-1,1770,1478,11.7426,-8.87693
553,-454,11.4867,8.77234,0,0,0,0,0,0,0,-1,1777,1478,11.4867,-8.77238
560,-454,11.175,9.03577,0,0,0,0,0,0,0,-1,1784,1478,11.175,-9.03583
567,-454,11.489,8.94336,0.000485701,-0.012886,0.0140853,0.00939142,-0.0217917,0.56381,0.018472,0.0265208,1791,1478,11.489,-8.94332
574,-454,11.4175,8.75977,-0.000879025,-0.0103179,0.0110141,0.00638418,-0.0175811,0.582987,0.0143309,0.0129738,1798,1478,11.4175,-8.75977
581,-454,11.4154,8.56116,-0.00177783,-0.00818888,0.00850827,0.00410873,-0.0140754,0.605244,0.0110118,0.0102098,1805,1478,11.4154,-8.56111
588,-454,11.4114,8.37195,-0.0023444,-0.0062276,0.00633373,0.00233864,-0.0109106,0.636671,0.00816572,0.0122575,1812,1478,11.4114,-8.37192
595,-454,11.397,8.16626,-0.00241918,-0.00502107,0.00466529,0.00112316,-0.00856341,0.649425,0.00611779,0.0120797,1819,1478,11.397,-8.16628
602,-454,11.4102,7.93799,-0.00230075,-0.00383428,0.00336654,0.000385241,-0.00652027,0.673427,0.00448078,0.00868907,1826,1478,11.4101,-7.93796
609,-454,11.4098,7.74011,-0.00244233,-0.00290411,0.00219179,-0.000469302,-0.00487714,0.732921,0.00310683,0.0100752,1833,1478,11.4098,-7.74015
616,-454,11.4252,7.51941,-0.00204001,-0.0022237,0.00111269,-0.00101537,-0.00324833,0.74422,0.00191884,0.0132697,1840,1478,11.4251,-7.51943
623,-454,11.4313,7.29724,-0.00141275,-0.00167266,0.000225132,-0.00128276,-0.00180265,0.523646,0.00107137,0.011207,1847,1478,11.4312,-7.29724
630,-454,11.4364,7.08472,-0.00121719,-0.00135164,-0.000420529,-0.000858548,-0.00171029,-0.70614,0.000987436,0.00944803,1854,1478,11.4364,-7.08469
637,-454,11.4329,6.88855,-0.00100426,-0.00107865,-0.00117637,0.000135502,-0.00221842,-0.769595,0.00152612,0.00873856,1861,1478,11.4329,-6.88859
644,-454,11.4673,6.68042,-0.000973007,-0.000849621,-0.00190372,0.000993407,-0.00281603,-0.801596,0.00228175,0.014627,1868,1478,11.4673,-6.68047
651,-454,11.3591,6.54114,-0.00142143,-0.000665606,-0.00249012,0.00147512,-0.00356215,-0.860705,0.00299032,0.0257801,1875,1478,11.3591,-6.54108
658,-454,11.3854,6.3009,-0.002385,-0.00029983,-0.00306606,0.00189606,-0.00458089,-0.949286,0.00384507,0.0323919,1882,1478,11.3853,-6.30093
665,-454,11.3569,6.09302,-0.00362029,0.000464498,-0.00375747,0.00269878,-0.00585457,-1.03434,0.00504908,0.0445896,1889,1478,11.3569,-6.09306
672,-454,11.2933,5.81616,0,0,0,0,0,0,0,-1,1896,1478,11.2933,-5.81621
679,-454,12.3354,3.91602,0,0,0,0,0,0,0,-1,1903,1478,12.3354,-3.91597
686,-454,10.3767,2.12842,0,0,0,0,0,0,0,-1,1910,1478,10.3767,-2.12839
693,-454,11.1857,1.48486,0,0,0,0,0,0,0,-1,1917,1478,11.1857,-1.48487
700,-454,0,0,0,0,0,0,0,0,0,-1,1924,1478,0,0
707,-454,0,0,0,0,0,0,0,0,0,-1,1931,1478,0,0
714,-454,0,0,0,0,0,0,0,0,0,-1,1938,1478,0,0
721,-454,0,0,0,0,0,0,0,0,0,-1,1945,1478,0,0
728,-454,0,0,0,0,0,0,0,0,0,-1,1952,1478,0,0
735,-454,0,0,0,0,0,0,0,0,0,-1,1959,1478,0,0
742,-454,0,0,0,0,0,0,0,0,0,-1,1966,1478,0,0
749,-454,0,0,0,0,0,0,0,0,0,-1,1973,1478,0,0
756,-454,0,0,0,0,0,0,0,0,0,-1,1980,1478,0,0
763,-454,0,0,0,0,0,0,0,0,0,-1,1987,1478,0,0
770,-454,0,0,0,0,0,0,0,0,0,-1,1994,1478,0,0
777,-454,0,0,0,0,0,0,0,0,0,-1,2001,1478,0,0
784,-454,0,0,0,0,0,0,0,0,0,-1,2008,1478,0,0
791,-454,0,0,0,0,0,0,0,0,0,-1,2015,1478,0,0
798,-454,0,0,0,0,0,0,0,0,0,-1,2022,1478,0,0
805,-454,0,0,0,0,0,0,0,0,0,-1,2029,1478,0,0
812,-454,0,0,0,0,0,0,0,0,0,-1,2036,1478,0,0
-700,-461,0,0,0,0,0,0,0,0,0,-1,524,1485,0,0
-693,-461,0,0,0,0,0,0,0,0,0,-1,531,1485,0,0
-686,-461,0,0,0,0,0,0,0,0,0,-1,538,1485,0,0
-679,-461,0,0,0,0,0,0,0,0,0,-1,545,1485,0,0
-672,-461,0,0,0,0,0,0,0,0,0,-1,552,1485,0,0
-665,-461,0,0,0,0,0,0,0,0,0,-1,559,1485,0,0
-658,-461,0,0,0,0,0,0,0,0,0,-1,566,1485,0,0
-651,-461,0,0,0,0,0,0,0,0,0,-1,573,1485,0,0
-644,-461,0,0,0,0,0,0,0,0,0,-1,580,1485,0,0
-637,-461,0,0,0,0,0,0,0,0,0,-1,587,1485,0,0
-630,-461,0,0,0,0,0,0,0,0,0,-1,594,1485,0,0
-623,-461,0,0,0,0,0,0,0,0,0,-1,601,1485,0,0
-616,-461,0,0,0,0,0,0,0,0,0,-1,608,1485,0,0
-609,-461,0,0,0,0,0,0,0,0,0,-1,615,1485,0,0
-602,-461,0,0,0,0,0,0,0,0,0,-1,622,1485,0,0
-595,-461,0,0,0,0,0,0,0,0,0,-1,629,1485,0,0
-588,-461,0,0,0,0,0,0,0,0,0,-1,636,1485,0,0
-581,-461,0,0,0,0,0,0,0,0,0,-1,643,1485,0,0
-574,-461,0,0,0,0,0,0,0,0,0,-1,650,1485,0,0
-567,-461,-9.69031,0.513306,0,0,0,0,0,0,0,-1,657,1485,-9.69032,-0.513305
-560,-461,-7.28815,1.54004,0,0,0,0,0,0,0,-1,664,1485,-7.28817,-1.54005
-553,-461,-7.26569,-0.756714,0,0,0,0,0,0,0,-1,671,1485,-7.26571,0.756668
-546,-461,-2.99579,0.484985,0,0,0,0,0,0,0,-1,678,1485,-2.99581,-0.484932
-539,-461,-2.41052,1.18054,0.108615,-0.0192961,0.0592097,0.131815,-0.0424962,0.373442,0.10495,0.0428499,685,1485,-2.41052,-1.18058
-532,-461,-1.88776,1.68286,0.0881268,-0.0162369,0.0445972,0.104588,-0.032698,0.353593,0.0828053,0.0396296,692,1485,-1.88775,-1.68281
-525,-461,-2.57715,4.34058,0,0,0,0,0,0,0,-1,699,1485,-2.57712,-4.34061
-518,-461,-2.31195,4.56287,0.0545095,-0.00895935,0.0229657,0.0619477,-0.0163976,0.313223,0.047713,0.0358975,706,1485,-2.31197,-4.56283
-511,-461,-2.23224,4.91101,0.0414284,-0.00595991,0.0156192,0.0461133,-0.0106448,0.291408,0.0348369,0.0196397,713,1485,-2.23226,-4.91103
-504,-461,-2.26874,5.11194,0.0306987,-0.00372688,0.0101234,0.033455,-0.00648314,0.265824,0.024749,0.0115715,720,1485,-2.26874,-5.1119
-497,-461,-2.24084,5.38037,0.0217972,-0.00296834,0.00604625,0.0231945,-0.00436564,0.227114,0.0171049,0.0105307,727,1485,-2.24087,-5.3804
-490,-461,-2.24493,5.62439,0.0147713,-0.00272639,0.00312926,0.0153141,-0.00326919,0.171748,0.0114557,0.0117171,734,1485,-2.24494,-5.62445
-483,-461,-2.24597,5.85242,0.00967374,-0.00101276,-0.000299133,0.00968211,-0.00102113,-0.0279624,0.00682064,0.012267,741,1485,-2.24597,-5.85243
-476,-461,-2.25269,6.08191,0.00585749,-0.00199762,-0.00214566,0.00640537,-0.0025455,-0.250002,0.00532555,0.0110067,748,1485,-2.25267,-6.08186
-469,-461,-2.26221,6.32654,0.0035006,-0.00335445,-0.00328594,0.00482127,-0.00467512,-0.382156,0.00548296,0.0131071,755,1485,-2.2622,-6.32652
-462,-461,-2.27576,6.54993,0.00235008,-0.00556239,-0.00366574,0.00378731,-0.00699961,-0.373652,0.00631921,0.0179238,762,1485,-2.27575,-6.54996
-455,-461,-2.2663,6.78992,0.00223976,-0.00824806,-0.00422191,0.00372809,-0.00973639,-0.338924,0.00802756,0.021278,769,1485,-2.2663,-6.78992
-448,-461,-2.25287,7.02893,0.00310759,-0.0112012,-0.00488656,0.00461714,-0.0127107,-0.299619,0.0103616,0.0172567,776,1485,-2.25285,-7.02893
-441,-461,-2.2597,7.27649,0.00434884,-0.0144867,-0.00541829,0.00579626,-0.0159341,-0.26104,0.0129932,0.0139452,783,1485,-2.25968,-7.2765
-434,-461,-2.08905,7.44336,0.00597116,-0.0184832,-0.00572117,0.00724346,-0.0197555,-0.218822,0.0161362,0.0203046,790,1485,-2.08902,-7.4434
-427,-461,-1.92841,7.51941,0.0079486,-0.0230463,-0.00570504,0.00896533,-0.024063,-0.176366,0.0197218,0.0279729,797,1485,-1.92842,-7.51939
-420,-461,-1.88483,7.21655,0.0102698,-0.0282657,-0.00504403,0.0109191,-0.028915,-0.12802,0.0237677,0.0486185,804,1485,-1.88485,-7.21659
-413,-461,-2.18036,6.99939,0.0128609,-0.0341331,-0.00352889,0.0131244,-0.0343966,-0.0745355,0.0283377,0.0490009,811,1485,-2.18037,-6.99938
-406,-461,-2.77783,6.73743,0,0,0,0,0,0,0,-1,818,1485,-2.77781,-6.73747
-399,-461,-0.411499,9.14136,0,0,0,0,0,0,0,-1,825,1485,-0.411481,-9.14138
-392,-461,-0.357544,5.55225,0,0,0,0,0,0,0,-1,832,1485,-0.357536,-5.55228
-385,-461,1.71509,3.35254,0,0,0,0,0,0,0,-1,839,1485,1.71511,-3.35255
-378,-461,1.95996,3.01111,0,0,0,0,0,0,0,-1,846,1485,1.95993,-3.01111
-371,-461,0.702881,2.33459,0,0,0,0,0,0,0,-1,853,1485,0.702859,-2.33459
-364,-461,-1.93097,2.56458,0,0,0,0,0,0,0,-1,860,1485,-1.93095,-2.56456
-357,-461,-2.41516,3.49487,0,0,0,0,0,0,0,-1,867,1485,-2.41517,-3.49487
-350,-461,0,0,0,0,0,0,0,0,0,-1,874,1485,0,0
-343,-461,0,0,0,0,0,0,0,0,0,-1,881,1485,0,0
-336,-461,0,0,0,0,0,0,0,0,0,-1,888,1485,0,0
-329,-461,0,0,0,0,0,0,0,0,0,-1,895,1485,0,0
-322,-461,0,0,0,0,0,0,0,0,0,-1,902,1485,0,0
-315,-461,0,0,0,0,0,0,0,0,0,-1,909,1485,0,0
-308,-461,0,0,0,0,0,0,0,0,0,-1,916,1485,0,0
-301,-461,0,0,0,0,0,0,0,0,0,-1,923,1485,0,0
-294,-461,0,0,0,0,0,0,0,0,0,-1,930,1485,0,0
-287,-461,0,0,0,0,0,0,0,0,0,-1,937,1485,0,0
-280,-461,0,0,0,0,0,0,0,0,0,-1,944,1485,0,0
-273,-461,0,0,0,0,0,0,0,0,0,-1,951,1485,0,0
-266,-461,0,0,0,0,0,0,0,0,0,-1,958,1485,0,0
-259,-461,0,0,0,0,0,0,0,0,0,-1,965,1485,0,0
-252,-461,0,0,0,0,0,0,0,0,0,-1,972,1485,0,0
-245,-461,0,0,0,0,0,0,0,0,0,-1,979,1485,0,0
-238,-461,0,0,0,0,0,0,0,0,0,-1,986,1485,0,0
-231,-461,0,0,0,0,0,0,0,0,0,-1,993,1485,0,0
-224,-461,0,0,0,0,0,0,0,0,0,-1,1000,1485,0,0
-217,-461,0,0,0,0,0,0,0,0,0,-1,1007,1485,0,0
-210,-461,0,0,0,0,0,0,0,0,0,-1,1014,1485,0,0
-203,-461,0,0,0,0,0,0,0,0,0,-1,1021,1485,0,0
-196,-461,0,0,0,0,0,0,0,0,0,-1,1028,1485,0,0
-189,-461,0,0,0,0,0,0,0,0,0,-1,1035,1485,0,0
-182,-461,0,0,0,0,0,0,0,0,0,-1,1042,1485,0,0
-175,-461,0,0,0,0,0,0,0,0,0,-1,1049,1485,0,0
-168,-461,0,0,0,0,0,0,0,0,0,-1,1056,1485,0,0
-161,-461,0,0,0,0,0,0,0,0,0,-1,1063,1485,0,0
-154,-461,0,0,0,0,0,0,0,0,0,-1,1070,1485,0,0
-147,-461,0,0,0,0,0,0,0,0,0,-1,1077,1485,0,0
-140,-461,0,0,0,0,0,0,0,0,0,-1,1084,1485,0,0
-133,-461,0,0,0,0,0,0,0,0,0,-1,1091,1485,0,0
-126,-461,0,0,0,0,0,0,0,0,0,-1,1098,1485,0,0
-119,-461,0,0,0,0,0,0,0,0,0,-1,1105,1485,0,0
-112,-461,0,0,0,0,0,0,0,0,0,-1,1112,1485,0,0
-105,-461,0,0,0,0,0,0,0,0,0,-1,1119,1485,0,0
-98,-461,0,0,0,0,0,0,0,0,0,-1,1126,1485,0,0
-91,-461,0,0,0,0,0,0,0,0,0,-1,1133,1485,0,0
-84,-461,0,0,0,0,0,0,0,0,0,-1,1140,1485,0,0
-77,-461,0,0,0,0,0,0,0,0,0,-1,1147,1485,0,0
-70,-461,0,0,0,0,0,0,0,0,0,-1,1154,1485,0,0
-63,-461,0,0,0,0,0,0,0,0,0,-1,1161,1485,0,0
-56,-461,0,0,0,0,0,0,0,0,0,-1,1168,1485,0,0
-49,-461,0,0,0,0,0,0,0,0,0,-1,1175,1485,0,0
-42,-461,0,0,0,0,0,0,0,0,0,-1,1182,1485,0,0
-35,-461,0,0,0,0,0,0,0,0,0,-1,1189,1485,0,0
-28,-461,0,0,0,0,0,0,0,0,0,-1,1196,1485,0,0
-21,-461,0,0,0,0,0,0,0,0,0,-1,1203,1485,0,0
-14,-461,0,0,0,0,0,0,0,0,0,-1,1210,1485,0,0
-7,-461,0,0,0,0,0,0,0,0,0,-1,1217,1485,0,0
0,-461,0,0,0,0,0,0,0,0,0,-1,1224,1485,0,0
7,-461,0,0,0,0,0,0,0,0,0,-1,1231,1485,0,0
14,-461,0,0,0,0,0,0,0,0,0,-1,1238,1485,0,0
21,-461,0,0,0,0,0,0,0,0,0,-1,1245,1485,0,0
28,-461,0,0,0,0,0,0,0,0,0,-1,1252,1485,0,0
35,-461,0,0,0,0,0,0,0,0,0,-1,1259,1485,0,0
42,-461,0,0,0,0,0,0,0,0,0,-1,1266,1485,0,0
49,-461,0,0,0,0,0,0,0,0,0,-1,1273,1485,0,0
56,-461,0,0,0,0,0,0,0,0,0,-1,1280,1485,0,0
63,-461,0,0,0,0,0,0,0,0,0,-1,1287,1485,0,0
70,-461,0,0,0,0,0,0,0,0,0,-1,1294,1485,0,0
77,-461,0,0,0,0,0,0,0,0,0,-1,1301,1485,0,0
84,-461,0,0,0,0,0,0,0,0,0,-1,1308,1485,0,0
91,-461,0,0,0,0,0,0,0,0,0,-1,1315,1485,0,0
98,-461,0,0,0,0,0,0,0,0,0,-1,1322,1485,0,0
105,-461,0,0,0,0,0,0,0,0,0,-1,1329,1485,0,0
112,-461,0,0,0,0,0,0,0,0,0,-1,1336,1485,0,0
119,-461,0,0,0,0,0,0,0,0,0,-1,1343,1485,0,0
126,-461,0,0,0,0,0,0,0,0,0,-1,1350,1485,0,0
133,-461,0,0,0,0,0,0,0,0,0,-1,1357,1485,0,0
140,-461,0,0,0,0,0,0,0,0,0,-1,1364,1485,0,0
147,-461,0,0,0,0,0,0,0,0,0,-1,1371,1485,0,0
154,-461,0,0,0,0,0,0,0,0,0,-1,1378,1485,0,0
161,-461,0,0,0,0,0,0,0,0,0,-1,1385,1485,0,0
168,-461,0,0,0,0,0,0,0,0,0,-1,1392,1485,0,0
175,-461,0,0,0,0,0,0,0,0,0,-1,1399,1485,0,0
182,-461,0,0,0,0,0,0,0,0,0,-1,1406,1485,0,0
189,-461,0,0,0,0,0,0,0,0,0,-1,1413,1485,0,0
196,-461,0,0,0,0,0,0,0,0,0,-1,1420,1485,0,0
203,-461,0,0,0,0,0,0,0,0,0,-1,1427,1485,0,0
210,-461,0,0,0,0,0,0,0,0,0,-1,1434,1485,0,0
217,-461,0,0,0,0,0,0,0,0,0,-1,1441,1485,0,0
224,-461,0,0,0,0,0,0,0,0,0,-1,1448,1485,0,0
231,-461,0,0,0,0,0,0,0,0,0,-1,1455,1485,0,0
238,-461,0,0,0,0,0,0,0,0,0,-1,1462,1485,0,0
245,-461,0,0,0,0,0,0,0,0,0,-1,1469,1485,0,0
252,-461,0,0,0,0,0,0,0,0,0,-1,1476,1485,0,0
259,-461,0,0,0,0,0,0,0,0,0,-1,1483,1485,0,0
266,-461,0,0,0,0,0,0,0,0,0,-1,1490,1485,0,0
273,-461,0,0,0,0,0,0,0,0,0,-1,1497,1485,0,0
280,-461,0,0,0,0,0,0,0,0,0,-1,1504,1485,0,0
287,-461,0,0,0,0,0,0,0,0,0,-1,1511,1485,0,0
294,-461,0,0,0,0,0,0,0,0,0,-1,1518,1485,0,0
301,-461,0,0,0,0,0,0,0,0,0,-1,1525,1485,0,0
308,-461,0,0,0,0,0,0,0,0,0,-1,1532,1485,0,0
315,-461,0,0,0,0,0,0,0,0,0,-1,1539,1485,0,0
322,-461,0,0,0,0,0,0,0,0,0,-1,1546,1485,0,0
329,-461,0,0,0,0,0,0,0,0,0,-1,1553,1485,0,0
336,-461,0,0,0,0,0,0,0,0,0,-1,1560,1485,0,0
343,-461,0,0,0,0,0,0,0,0,0,-1,1567,1485,0,0
350,-461,0,0,0,0,0,0,0,0,0,-1,1574,1485,0,0
357,-461,0,0,0,0,0,0,0,0,0,-1,1581,1485,0,0
364,-461,0,0,0,0,0,0,0,0,0,-1,1588,1485,0,0
371,-461,0,0,0,0,0,0,0,0,0,-1,1595,1485,0,0
378,-461,0,0,0,0,0,0,0,0,0,-1,1602,1485,0,0
385,-461,0,0,0,0,0,0,0,0,0,-1,1609,1485,0,0
392,-461,0,0,0,0,0,0,0,0,0,-1,1616,1485,0,0
399,-461,0,0,0,0,0,0,0,0,0,-1,1623,1485,0,0
406,-461,0,0,0,0,0,0,0,0,0,-1,1630,1485,0,0
413,-461,0,0,0,0,0,0,0,0,0,-1,1637,1485,0,0
420,-461,0,0,0,0,0,0,0,0,0,-1,1644,1485,0,0
427,-461,0,0,0,0,0,0,0,0,0,-1,1651,1485,0,0
434,-461,0,0,0,0,0,0,0,0,0,-1,1658,1485,0,0
441,-461,0,0,0,0,0,0,0,0,0,-1,1665,1485,0,0
448,-461,0,0,0,0,0,0,0,0,0,-1,1672,1485,0,0
455,-461,0,0,0,0,0,0,0,0,0,-1,1679,1485,0,0
462,-461,0,0,0,0,0,0,0,0,0,-1,1686,1485,0,0
469,-461,0,0,0,0,0,0,0,0,0,-1,1693,1485,0,0
476,-461,14.1906,0.690552,0,0,0,0,0,0,0,-1,1700,1485,14.1906,-0.690525
483,-461,10.6361,3.09106,0,0,0,0,0,0,0,-1,1707,1485,10.6361,-3.091
490,-461,17.9972,0.665894,0,0,0,0,0,0,0,-1,1714,1485,17.9972,-0.665876
497,-461,16.6829,1.87732,0,0,0,0,0,0,0,-1,1721,1485,16.6828,-1.87736
504,-461,15.3884,3.09216,0,0,0,0,0,0,0,-1,1728,1485,15.3885,-3.09212
511,-461,13.869,4.28735,0,0,0,0,0,0,0,-1,1735,1485,13.869,-4.28732
518,-461,13.4612,5.14038,0,0,0,0,0,0,0,-1,1742,1485,13.4612,-5.14035
525,-461,11.3566,8.0813,0,0,0,0,0,0,0,-1,1749,1485,11.3566,-8.08133
532,-461,11.1897,7.54907,0,0,0,0,0,0,0,-1,1756,1485,11.1897,-7.54913
539,-461,12.3441,9.09631,0,0,0,0,0,0,0,-1,1763,1485,12.3441,-9.09629
546,-461,11.3557,8.93494,0,0,0,0,0,0,0,-1,1770,1485,11.3557,-8.93497
553,-461,11.2876,8.94214,0.000639911,-0.0166143,0.0191807,0.0130443,-0.0290188,0.574062,0.024862,0.0425221,1777,1485,11.2875,-8.94209
560,-461,11.1139,9.05164,9.67931e-07,-0.0134715,0.0150478,0.00975144,-0.023222,0.574946,0.0195596,0.0302545,1784,1485,11.1139,-9.05163
567,-461,11.2235,8.95984,-0.000448797,-0.0107384,0.0115854,0.00708273,-0.0182699,0.576439,0.0151049,0.0129308,1791,1485,11.2235,-8.9599
574,-461,11.2234,8.76672,-0.000770157,-0.00829621,0.00883676,0.00507143,-0.0141378,0.584108,0.0114948,0.0128497,1798,1485,11.2234,-8.76676
581,-461,11.2231,8.54651,-0.00108941,-0.00638902,0.00667305,0.0034407,-0.0109191,0.5964,0.0086573,0.0128294,1805,1485,11.2232,-8.54654
588,-461,11.1962,8.34778,-0.00138039,-0.00468657,0.00471608,0.00196393,-0.0080309,0.616828,0.00611463,0.0111053,1812,1485,11.1962,-8.34772
595,-461,11.1862,8.15662,-0.00130125,-0.00362722,0.00322317,0.000962331,-0.0058908,0.612257,0.00428416,0.00899675,1819,1485,11.1862,-8.15659
602,-461,11.1991,7.95642,-0.0011521,-0.00256774,0.00205138,0.00031014,-0.00402998,0.619271,0.00279578,0.00922113,1826,1485,11.1992,-7.95639
609,-461,11.2009,7.73181,-0.00123034,-0.0017181,0.000946425,-0.000496878,-0.00245156,0.659299,0.0014965,0.0103128,1833,1485,11.2009,-7.73176
616,-461,11.2172,7.51648,-0.000901602,-0.00106354,-0.000151142,-0.000811107,-0.00115404,-0.539492,0.000684315,0.0123566,1840,1485,11.2171,-7.51645
623,-461,11.2122,7.3125,-0.000472122,-0.000506708,-0.00111886,0.000629579,-0.00160841,-0.777671,0.00133266,0.0120591,1847,1485,11.2121,-7.31244
630,-461,11.212,7.09412,-0.000408466,-7.3923e-05,-0.00195579,0.00172173,-0.00220412,-0.828058,0.00227229,0.0103,1854,1485,11.212,-7.09415
637,-461,11.2195,6.89026,-0.000287541,0.000313163,-0.00297886,0.00300678,-0.00298115,-0.835642,0.00345714,0.0115538,1861,1485,11.2195,-6.89021
644,-461,11.2358,6.7157,-0.000295635,0.000754615,-0.00409219,0.00435523,-0.00389625,-0.849211,0.00476645,0.0214249,1868,1485,11.2358,-6.71569
651,-461,11.2047,6.52063,-0.000721802,0.00123341,-0.00520317,0.00555002,-0.00503841,-0.878259,0.00611561,0.0259935,1875,1485,11.2048,-6.52064
658,-461,11.4849,6.25317,-0.001338,0.00210462,-0.0066017,0.00720573,-0.00643911,-0.912927,0.00788199,0.0392306,1882,1485,11.4849,-6.25316
665,-461,11.7191,5.97888,-0.00209865,0.00347397,-0.00828132,0.00942515,-0.00804983,-0.947678,0.0100996,0.0486315,1889,1485,11.7191,-5.97887
672,-461,11.9205,5.45056,0,0,0,0,0,0,0,-1,1896,1485,11.9206,-5.45057
679,-461,10.0535,2.16321,0,0,0,0,0,0,0,-1,1903,1485,10.0535,-2.16317
686,-461,10.8195,1.84192,0,0,0,0,0,0,0,-1,1910,1485,10.8194,-1.84195
693,-461,0,0,0,0,0,0,0,0,0,-1,1917,1485,0,0
700,-461,0,0,0,0,0,0,0,0,0,-1,1924,1485,0,0
707,-461,0,0,0,0,0,0,0,0,0,-1,1931,1485,0,0
714,-461,0,0,0,0,0,0,0,0,0,-1,1938,1485,0,0
721,-461,0,0,0,0,0,0,0,0,0,-1,1945,1485,0,0
728,-461,0,0,0,0,0,0,0,0,0,-1,1952,1485,0,0
735,-461,0,0,0,0,0,0,0,0,0,-1,1959,1485,0,0
742,-461,0,0,0,0,0,0,0,0,0,-1,1966,1485,0,0
749,-461,0,0,0,0,0,0,0,0,0,-1,1973,1485,0,0
756,-461,0,0,0,0,0,0,0,0,0,-1,1980,1485,0,0
763,-461,0,0,0,0,0,0,0,0,0,-1,1987,1485,0,0
770,-461,0,0,0,0,0,0,0,0,0,-1,1994,1485,0,0
777,-461,0,0,0,0,0,0,0,0,0,-1,2001,1485,0,0
784,-461,0,0,0,0,0,0,0,0,0,-1,2008,1485,0,0
791,-461,0,0,0,0,0,0,0,0,0,-1,2015,1485,0,0
798,-461,0,0,0,0,0,0,0,0,0,-1,2022,1485,0,0
805,-461,0,0,0,0,0,0,0,0,0,-1,2029,1485,0,0
812,-461,0,0,0,0,0,0,0,0,0,-1,2036,1485,0,0
-700,-468,0,0,0,0,0,0,0,0,0,-1,524,1492,0,0
-693,-468,0,0,0,0,0,0,0,0,0,-1,531,1492,0,0
-686,-468,0,0,0,0,0,0,0,0,0,-1,538,1492,0,0
-679,-468,0,0,0,0,0,0,0,0,0,-1,545,1492,0,0
-672,-468,0,0,0,0,0,0,0,0,0,-1,552,1492,0,0
-665,-468,0,0,0,0,0,0,0,0,0,-1,559,1492,0,0
-658,-468,0,0,0,0,0,0,0,0,0,-1,566,1492,0,0
-651,-468,0,0,0,0,0,0,0,0,0,-1,573,1492,0,0
-644,-468,0,0,0,0,0,0,0,0,0,-1,580,1492,0,0
-637,-468,0,0,0,0,0,0,0,0,0,-1,587,1492,0,0
-630,-468,0,0,0,0,0,0,0,0,0,-1,594,1492,0,0
-623,-468,0,0,0,0,0,0,0,0,0,-1,601,1492,0,0
-616,-468,0,0,0,0,0,0,0,0,0,-1,608,1492,0,0
-609,-468,0,0,0,0,0,0,0,0,0,-1,615,1492,0,0
-602,-468,0,0,0,0,0,0,0,0,0,-1,622,1492,0,0
-595,-468,0,0,0,0,0,0,0,0,0,-1,629,1492,0,0
-588,-468,0,0,0,0,0,0,0,0,0,-1,636,1492,0,0
-581,-468,0,0,0,0,0,0,0,0,0,-1,643,1492,0,0
-574,-468,0,0,0,0,0,0,0,0,0,-1,650,1492,0,0
-567,-468,-11.2603,1.8042,0,0,0,0,0,0,0,-1,657,1492,-11.2603,-1.80424
-560,-468,-8.77441,2.23694,0,0,0,0,0,0,0,-1,664,1492,-8.77443,-2.23692
-553,-468,-5.94061,9.26318,0,0,0,0,0,0,0,-1,671,1492,-5.94062,-9.26322
-546,-468,-3.47357,2.5155,0,0,0,0,0,0,0,-1,678,1492,-3.47355,-2.51545
-539,-468,-3.09076,3.13513,0.135158,-0.0359339,0.0662371,0.157804,-0.0585797,0.329432,0.129233,0.0448516,685,1492,-3.09078,-3.13518
-532,-468,-2.73322,3.77551,0.110354,-0.0277609,0.0487055,0.125802,-0.0432089,0.307134,0.101388,0.0403315,692,1492,-2.73322,-3.77546
-525,-468,-2.48651,4.23792,0.0881067,-0.0200645,0.0346423,0.0982499,-0.0302077,0.284837,0.0775556,0.0420682,699,1492,-2.48652,-4.23786
-518,-468,-2.35852,4.57227,0.0687095,-0.0135476,0.0237408,0.0750697,-0.0199078,0.261756,0.057836,0.0400306,706,1492,-2.35854,-4.57223
-511,-468,-2.07593,4.8717,0.0522615,-0.00845279,0.0155841,0.0560279,-0.0122192,0.237139,0.0420215,0.0317182,713,1492,-2.07592,-4.87167
-504,-468,-1.99567,5.10449,0.0387059,-0.00476878,0.0096746,0.0407616,-0.0068245,0.209373,0.0297117,0.0144619,720,1492,-1.99567,-5.10448
-497,-468,-2.01813,5.36658,0.0276543,-0.00304356,0.00547345,0.028601,-0.00399028,0.171272,0.0205271,0.00870411,727,1492,-2.01814,-5.36663
-490,-468,-2.00983,5.63171,0.0189865,-0.00211672,0.00265249,0.0193148,-0.002445,0.12314,0.0137641,0.0078053,734,1492,-2.00984,-5.6317
-483,-468,-2.0083,5.85608,0.0125699,0.000226432,-0.000731646,0.0126132,0.000183215,-0.0589984,0.00834837,0.0080847,741,1492,-2.00828,-5.8561
-476,-468,-2.00531,6.08105,0.00757491,-0.000415302,-0.00218154,0.00813173,-0.000972117,-0.249904,0.00577254,0.00865773,748,1492,-2.00534,-6.08101
-469,-468,-2.01788,6.32507,0.00442517,-0.00150173,-0.00307369,0.00573133,-0.00280789,-0.401828,0.00502551,0.0135643,755,1492,-2.01786,-6.32509
-462,-468,-1.98792,6.59277,0.00276199,-0.00352182,-0.00314004,0.00406209,-0.00482192,-0.39255,0.00513544,0.0224316,762,1492,-1.98789,-6.59279
-455,-468,-1.99536,6.78699,0.00227034,-0.00601335,-0.00336006,0.00346186,-0.00720488,-0.34078,0.00628356,0.0233086,769,1492,-1.99538,-6.787
-448,-468,-2.03326,7.00842,0.00289476,-0.00861557,-0.00382079,0.00404759,-0.00976839,-0.293039,0.00820143,0.0146995,776,1492,-2.03329,-7.00838
-441,-468,-2.03156,7.2561,0.0038273,-0.011435,-0.00424737,0.00492969,-0.0125373,-0.253943,0.0103985,0.0130014,783,1492,-2.03154,-7.25608
-434,-468,-2.00616,7.49524,0.00506122,-0.0148911,-0.00462582,0.00608151,-0.0159114,-0.217089,0.0131135,0.0129456,790,1492,-2.00618,-7.49519
-427,-468,-1.92676,7.69299,0.00656655,-0.0189062,-0.0050176,0.00751928,-0.019859,-0.187643,0.0163332,0.0157161,797,1492,-1.92677,-7.69294
-420,-468,-1.82135,7.81226,0.00836794,-0.0237697,-0.00517713,0.00918135,-0.0245831,-0.155842,0.0201586,0.0292847,804,1492,-1.82133,-7.81225
-413,-468,-1.40826,7.48206,0,0,0,0,0,0,0,-1,811,1492,-1.40826,-7.48201
-406,-468,-0.962952,7.53748,0,0,0,0,0,0,0,-1,818,1492,-0.962973,-7.53748
-399,-468,-0.555359,7.56531,0,0,0,0,0,0,0,-1,825,1492,-0.555343,-7.56527
-392,-468,-0.674316,6.88867,0,0,0,0,0,0,0,-1,832,1492,-0.67434,-6.88868
-385,-468,0.465759,5.35864,0,0,0,0,0,0,0,-1,839,1492,0.465732,-5.35864
-378,-468,1.99835,3.25391,0,0,0,0,0,0,0,-1,846,1492,1.99837,-3.2539
-371,-468,-0.31842,3.1532,0,0,0,0,0,0,0,-1,853,1492,-0.318441,-3.15324
-364,-468,-0.966736,2.14563,0,0,0,0,0,0,0,-1,860,1492,-0.966735,-2.14557
-357,-468,-3.06787,3.22742,0,0,0,0,0,0,0,-1,867,1492,-3.06784,-3.2274
-350,-468,-3.18658,4.12659,0,0,0,0,0,0,0,-1,874,1492,-3.18659,-4.12658
-343,-468,0,0,0,0,0,0,0,0,0,-1,881,1492,0,0
-336,-468,0,0,0,0,0,0,0,0,0,-1,888,1492,0,0
-329,-468,0,0,0,0,0,0,0,0,0,-1,895,1492,0,0
-322,-468,0,0,0,0,0,0,0,0,0,-1,902,1492,0,0
-315,-468,0,0,0,0,0,0,0,0,0,-1,909,1492,0,0
-308,-468,0,0,0,0,0,0,0,0,0,-1,916,1492,0,0
-301,-468,0,0,0,0,0,0,0,0,0,-1,923,1492,0,0
-294,-468,0,0,0,0,0,0,0,0,0,-1,930,1492,0,0
-287,-468,0,0,0,0,0,0,0,0,0,-1,937,1492,0,0
-280,-468,0,0,0,0,0,0,0,0,0,-1,944,1492,0,0
-273,-468,0,0,0,0,0,0,0,0,0,-1,951,1492,0,0
-266,-468,0,0,0,0,0,0,0,0,0,-1,958,1492,0,0
-259,-468,0,0,0,0,0,0,0,0,0,-1,965,1492,0,0
-252,-468,0,0,0,0,0,0,0,0,0,-1,972,1492,0,0
-245,-468,0,0,0,0,0,0,0,0,0,-1,979,1492,0,0
-238,-468,0,0,0,0,0,0,0,0,0,-1,986,1492,0,0
-231,-468,0,0,0,0,0,0,0,0,0,-1,993,1492,0,0
-224,-468,0,0,0,0,0,0,0,0,0,-1,1000,1492,0,0
-217,-468,0,0,0,0,0,0,0,0,0,-1,1007,1492,0,0
-210,-468,0,0,0,0,0,0,0,0,0,-1,1014,1492,0,0
-203,-468,0,0,0,0,0,0,0,0,0,-1,1021,1492,0,0
-196,-468,0,0,0,0,0,0,0,0,0,-1,1028,1492,0,0
-189,-468,0,0,0,0,0,0,0,0,0,-1,1035,1492,0,0
-182,-468,0,0,0,0,0,0,0,0,0,-1,1042,1492,0,0
-175,-468,0,0,0,0,0,0,0,0,0,-1,1049,1492,0,0
-168,-468,0,0,0,0,0,0,0,0,0,-1,1056,1492,0,0
-161,-468,0,0,0,0,0,0,0,0,0,-1,1063,1492,0,0
-154,-468,0,0,0,0,0,0,0,0,0,-1,1070,1492,0,0
-147,-468,0,0,0,0,0,0,0,0,0,-1,1077,1492,0,0
-140,-468,0,0,0,0,0,0,0,0,0,-1,1084,1492,0,0
-133,-468,0,0,0,0,0,0,0,0,0,-1,1091,1492,0,0
-126,-468,0,0,0,0,0,0,0,0,0,-1,1098,1492,0,0
-119,-468,0,0,0,0,0,0,0,0,0,-1,1105,1492,0,0
-112,-468,0,0,0,0,0,0,0,0,0,-1,1112,1492,0,0
-105,-468,0,0,0,0,0,0,0,0,0,-1,1119,1492,0,0
-98,-468,0,0,0,0,0,0,0,0,0,-1,1126,1492,0,0
-91,-468,0,0,0,0,0,0,0,0,0,-1,1133,1492,0,0
-84,-468,0,0,0,0,0,0,0,0,0,-1,1140,1492,0,0
-77,-468,0,0,0,0,0,0,0,0,0,-1,1147,1492,0,0
-70,-468,0,0,0,0,0,0,0,0,0,-1,1154,1492,0,0
-63,-468,0,0,0,0,0,0,0,0,0,-1,1161,1492,0,0
-56,-468,0,0,0,0,0,0,0,0,0,-1,1168,1492,0,0
-49,-468,0,0,0,0,0,0,0,0,0,-1,1175,1492,0,0
-42,-468,0,0,0,0,0,0,0,0,0,-1,1182,1492,0,0
-35,-468,0,0,0,0,0,0,0,0,0,-1,1189,1492,0,0
-28,-468,0,0,0,0,0,0,0,0,0,-1,1196,1492,0,0
-21,-468,0,0,0,0,0,0,0,0,0,-1,1203,1492,0,0
-14,-468,0,0,0,0,0,0,0,0,0,-1,1210,1492,0,0
-7,-468,0,0,0,0,0,0,0,0,0,-1,1217,1492,0,0
0,-468,0,0,0,0,0,0,0,0,0,-1,1224,1492,0,0
7,-468,0,0,0,0,0,0,0,0,0,-1,1231,1492,0,0
14,-468,0,0,0,0,0,0,0,0,0,-1,1238,1492,0,0
21,-468,0,0,0,0,0,0,0,0,0,-1,1245,1492,0,0
28,-468,0,0,0,0,0,0,0,0,0,-1,1252,1492,0,0
35,-468,0,0,0,0,0,0,0,0,0,-1,1259,1492,0,0
42,-468,0,0,0,0,0,0,0,0,0,-1,1266,1492,0,0
49,-468,0,0,0,0,0,0,0,0,0,-1,1273,1492,0,0
56,-468,0,0,0,0,0,0,0,0,0,-1,1280,1492,0,0
63,-468,0,0,0,0,0,0,0,0,0,-1,1287,1492,0,0
70,-468,0,0,0,0,0,0,0,0,0,-1,1294,1492,0,0
77,-468,0,0,0,0,0,0,0,0,0,-1,1301,1492,0,0
84,-468,0,0,0,0,0,0,0,0,0,-1,1308,1492,0,0
91,-468,0,0,0,0,0,0,0,0,0,-1,1315,1492,0,0
98,-468,0,0,0,0,0,0,0,0,0,-1,1322,1492,0,0
105,-468,0,0,0,0,0,0,0,0,0,-1,1329,1492,0,0
112,-468,0,0,0,0,0,0,0,0,0,-1,1336,1492,0,0
119,-468,0,0,0,0,0,0,0,0,0,-1,1343,1492,0,0
126,-468,0,0,0,0,0,0,0,0,0,-1,1350,1492,0,0
133,-468,0,0,0,0,0,0,0,0,0,-1,1357,1492,0,0
140,-468,0,0,0,0,0,0,0,0,0,-1,1364,1492,0,0
147,-468,0,0,0,0,0,0,0,0,0,-1,1371,1492,0,0
154,-468,0,0,0,0,0,0,0,0,0,-1,1378,1492,0,0
161,-468,0,0,0,0,0,0,0,0,0,-1,1385,1492,0,0
168,-468,0,0,0,0,0,0,0,0,0,-1,1392,1492,0,0
175,-468,0,0,0,0,0,0,0,0,0,-1,1399,1492,0,0
182,-468,0,0,0,0,0,0,0,0,0,-1,1406,1492,0,0
189,-468,0,0,0,0,0,0,0,0,0,-1,1413,1492,0,0
196,-468,0,0,0,0,0,0,0,0,0,-1,1420,1492,0,0
203,-468,0,0,0,0,0,0,0,0,0,-1,1427,1492,0,0
210,-468,0,0,0,0,0,0,0,0,0,-1,1434,1492,0,0
217,-468,0,0,0,0,0,0,0,0,0,-1,1441,1492,0,0
224,-468,0,0,0,0,0,0,0,0,0,-1,1448,1492,0,0
231,-468,0,0,0,0,0,0,0,0,0,-1,1455,1492,0,0
238,-468,0,0,0,0,0,0,0,0,0,-1,1462,1492,0,0
245,-468,0,0,0,0,0,0,0,0,0,-1,1469,1492,0,0
252,-468,0,0,0,0,0,0,0,0,0,-1,1476,1492,0,0
259,-468,0,0,0,0,0,0,0,0,0,-1,1483,1492,0,0
266,-468,0,0,0,0,0,0,0,0,0,-1,1490,1492,0,0
273,-468,0,0,0,0,0,0,0,0,0,-1,1497,1492,0,0
280,-468,0,0,0,0,0,0,0,0,0,-1,1504,1492,0,0
287,-468,0,0,0,0,0,0,0,0,0,-1,1511,1492,0,0
294,-468,0,0,0,0,0,0,0,0,0,-1,1518,1492,0,0
301,-468,0,0,0,0,0,0,0,0,0,-1,1525,1492,0,0
308,-468,0,0,0,0,0,0,0,0,0,-1,1532,1492,0,0
315,-468,0,0,0,0,0,0,0,0,0,-1,1539,1492,0,0
322,-468,0,0,0,0,0,0,0,0,0,-1,1546,1492,0,0
329,-468,0,0,0,0,0,0,0,0,0,-1,1553,1492,0,0
336,-468,0,0,0,0,0,0,0,0,0,-1,1560,1492,0,0
343,-468,0,0,0,0,0,0,0,0,0,-1,1567,1492,0,0
350,-468,0,0,0,0,0,0,0,0,0,-1,1574,1492,0,0
357,-468,0,0,0,0,0,0,0,0,0,-1,1581,1492,0,0
364,-468,0,0,0,0,0,0,0,0,0,-1,1588,1492,0,0
371,-468,0,0,0,0,0,0,0,0,0,-1,1595,1492,0,0
378,-468,0,0,0,0,0,0,0,0,0,-1,1602,1492,0,0
385,-468,0,0,0,0,0,0,0,0,0,-1,1609,1492,0,0
392,-468,0,0,0,0,0,0,0,0,0,-1,1616,1492,0,0
399,-468,0,0,0,0,0,0,0,0,0,-1,1623,1492,0,0
406,-468,0,0,0,0,0,0,0,0,0,-1,1630,1492,0,0
413,-468,0,0,0,0,0,0,0,0,0,-1,1637,1492,0,0
420,-468,0,0,0,0,0,0,0,0,0,-1,1644,1492,0,0
427,-468,0,0,0,0,0,0,0,0,0,-1,1651,1492,0,0
434,-468,0,0,0,0,0,0,0,0,0,-1,1658,1492,0,0
441,-468,0,0,0,0,0,0,0,0,0,-1,1665,1492,0,0
448,-468,0,0,0,0,0,0,0,0,0,-1,1672,1492,0,0
455,-468,0,0,0,0,0,0,0,0,0,-1,1679,1492,0,0
462,-468,0,0,0,0,0,0,0,0,0,-1,1686,1492,0,0
469,-468,15.6879,1.2677,0,0,0,0,0,0,0,-1,1693,1492,15.6879,-1.26772
476,-468,14.9318,1.61865,0,0,0,0,0,0,0,-1,1700,1492,14.9318,-1.61869
483,-468,11.265,4.64795,0,0,0,0,0,0,0,-1,1707,1492,11.265,-4.64798
490,-468,12.1316,3.51624,0,0,0,0,0,0,0,-1,1714,1492,12.1316,-3.51628
497,-468,16.5355,3.14587,0,0,0,0,0,0,0,-1,1721,1492,16.5356,-3.14583
504,-468,15.0642,4.10437,0,0,0,0,0,0,0,-1,1728,1492,15.0643,-4.10431
511,-468,13.5391,5.1543,0,0,0,0,0,0,0,-1,1735,1492,13.5391,-5.15436
518,-468,11.9773,6.34644,0,0,0,0,0,0,0,-1,1742,1492,11.9773,-6.34646
525,-468,11.2554,8.17615,0,0,0,0,0,0,0,-1,1749,1492,11.2554,-8.17618
532,-468,11.6583,9.7959,0,0,0,0,0,0,0,-1,1756,1492,11.6583,-9.79595
539,-468,11.655,9.46277,-0.00504677,-0.0231561,0.0265266,0.0139279,-0.0421308,0.620927,0.0337032,0.0490729,1763,1492,11.6551,-9.46274
546,-468,11.3855,9.21851,-0.00325766,-0.0184427,0.0209962,0.0114767,-0.0331771,0.611906,0.0267764,0.0493532,1770,1492,11.3855,-9.2185
553,-468,11.1908,9.10986,-0.00220799,-0.0145992,0.0163748,0.00910411,-0.0259113,0.604541,0.0209781,0.033054,1777,1492,11.1908,-9.10986
560,-468,11.048,9.16711,-0.00162794,-0.0114818,0.0126005,0.00697463,-0.0200843,0.599032,0.0162222,0.0192262,1784,1492,11.048,-9.16709
567,-468,11.0114,9.00171,-0.00107837,-0.00884027,0.00944697,0.00525376,-0.0151724,0.590501,0.0122477,0.013297,1791,1492,11.0114,-9.00167
574,-468,11.005,8.76697,-0.000633753,-0.00652073,0.00698827,0.00400564,-0.0111601,0.586073,0.00907492,0.0133529,1798,1492,11.0051,-8.76696
581,-468,11.0001,8.5481,-0.000447766,-0.00479359,0.00509437,0.00291774,-0.0081591,0.583814,0.00662957,0.0141865,1805,1492,11.0001,-8.54814
588,-468,10.9906,8.34546,-0.000491934,-0.0032295,0.00324389,0.00166013,-0.00538157,0.585753,0.00425056,0.0129814,1812,1492,10.9906,-8.34542
595,-468,10.9891,8.14648,-0.000261062,-0.00229074,0.00188518,0.000865078,-0.00341688,0.53848,0.00261443,0.0103728,1819,1492,10.9891,-8.14652
602,-468,11.0088,7.94568,-6.71201e-05,-0.0013655,0.000822311,0.000331375,-0.00176399,0.451255,0.0013006,0.00901866,1826,1492,11.0088,-7.94568
609,-468,11.0038,7.72083,-9.05409e-05,-0.000634867,-0.000202693,-2.33561e-05,-0.000702052,-0.320065,0.000460447,0.00911327,1833,1492,11.0037,-7.72083
616,-468,10.9962,7.51538,0.00014909,-6.73454e-05,-0.00128999,0.00133539,-0.00125365,-0.743551,0.00149503,0.0087831,1840,1492,10.9962,-7.51537
623,-468,11.0067,7.3114,0.000347434,0.00039926,-0.00229884,0.00267234,-0.00192564,-0.791034,0.00266629,0.0100372,1847,1492,11.0067,-7.31139
630,-468,11.0273,7.08643,0.000209769,0.00085124,-0.00329561,0.00384169,-0.00278068,-0.833906,0.00383975,0.0109092,1854,1492,11.0273,-7.08641
637,-468,11.0331,6.87024,0.000124797,0.0012743,-0.00456502,0.00530061,-0.00390152,-0.84802,0.00533328,0.0152127,1861,1492,11.033,-6.87019
644,-468,11.0068,6.72729,-3.39961e-05,0.00186346,-0.00608593,0.00707417,-0.00524471,-0.86272,0.0071384,0.0329624,1868,1492,11.0068,-6.72731
651,-468,11.2325,6.54358,0,0,0,0,0,0,0,-1,1875,1492,11.2325,-6.54363
658,-468,11.5498,6.3219,0,0,0,0,0,0,0,-1,1882,1492,11.5498,-6.32188
665,-468,11.9879,5.97681,0,0,0,0,0,0,0,-1,1889,1492,11.9879,-5.97686
672,-468,9.96814,3.61133,0,0,0,0,0,0,0,-1,1896,1492,9.96817,-3.61139
679,-468,11.2191,1.91968,0,0,0,0,0,0,0,-1,1903,1492,11.2191,-1.91965
686,-468,11.9252,1.42285,0,0,0,0,0,0,0,-1,1910,1492,11.9252,-1.42291
693,-468,0,0,0,0,0,0,0,0,0,-1,1917,1492,0,0
700,-468,0,0,0,0,0,0,0,0,0,-1,1924,1492,0,0
707,-468,0,0,0,0,0,0,0,0,0,-1,1931,1492,0,0
714,-468,0,0,0,0,0,0,0,0,0,-1,1938,1492,0,0
721,-468,0,0,0,0,0,0,0,0,0,-1,1945,1492,0,0
728,-468,0,0,0,0,0,0,0,0,0,-1,1952,1492,0,0
735,-468,0,0,0,0,0,0,0,0,0,-1,1959,1492,0,0
742,-468,0,0,0,0,0,0,0,0,0,-1,1966,1492,0,0
749,-468,0,0,0,0,0,0,0,0,0,-1,1973,1492,0,0
756,-468,0,0,0,0,0,0,0,0,0,-1,1980,1492,0,0
763,-468,0,0,0,0,0,0,0,0,0,-1,1987,1492,0,0
770,-468,0,0,0,0,0,0,0,0,0,-1,1994,1492,0,0
777,-468,0,0,0,0,0,0,0,0,0,-1,2001,1492,0,0
784,-468,0,0,0,0,0,0,0,0,0,-1,2008,1492,0,0
791,-468,0,0,0,0,0,0,0,0,0,-1,2015,1492,0,0
798,-468,0,0,0,0,0,0,0,0,0,-1,2022,1492,0,0
805,-468,0,0,0,0,0,0,0,0,0,-1,2029,1492,0,0
812,-468,0,0,0,0,0,0,0,0,0,-1,2036,1492,0,0
-700,-475,0,0,0,0,0,0,0,0,0,-1,524,1499,0,0
-693,-475,0,0,0,0,0,0,0,0,0,-1,531,1499,0,0
-686,-475,0,0,0,0,0,0,0,0,0,-1,538,1499,0,0
-679,-475,0,0,0,0,0,0,0,0,0,-1,545,1499,0,0
-672,-475,0,0,0,0,0,0,0,0,0,-1,552,1499,0,0
-665,-475,0,0,0,0,0,0,0,0,0,-1,559,1499,0,0
-658,-475,0,0,0,0,0,0,0,0,0,-1,566,1499,0,0
-651,-475,0,0,0,0,0,0,0,0,0,-1,573,1499,0,0
-644,-475,0,0,0,0,0,0,0,0,0,-1,580,1499,0,0
-637,-475,0,0,0,0,0,0,0,0,0,-1,587,1499,0,0
-630,-475,0,0,0,0,0,0,0,0,0,-1,594,1499,0,0
-623,-475,0,0,0,0,0,0,0,0,0,-1,601,1499,0,0
-616,-475,0,0,0,0,0,0,0,0,0,-1,608,1499,0,0
-609,-475,0,0,0,0,0,0,0,0,0,-1,615,1499,0,0
-602,-475,0,0,0,0,0,0,0,0,0,-1,622,1499,0,0
-595,-475,0,0,0,0,0,0,0,0,0,-1,629,1499,0,0
-588,-475,0,0,0,0,0,0,0,0,0,-1,636,1499,0,0
-581,-475,0,0,0,0,0,0,0,0,0,-1,643,1499,0,0
-574,-475,0,0,0,0,0,0,0,0,0,-1,650,1499,0,0
-567,-475,0,0,0,0,0,0,0,0,0,-1,657,1499,0,0
-560,-475,-9.42731,9.29517,0,0,0,0,0,0,0,-1,664,1499,-9.42731,-9.29519
-553,-475,-8.15131,8.78369,0,0,0,0,0,0,0,-1,671,1499,-8.15131,-8.78367
-546,-475,-8.41254,8.20654,0,0,0,0,0,0,0,-1,678,1499,-8.41251,-8.20655
-539,-475,-7.1778,7.57214,0.165177,-0.0544254,0.0699086,0.185543,-0.0747915,0.283479,0.154771,0.0442084,685,1499,-7.17779,-7.57217
-532,-475,-5.93964,6.93457,0.13517,-0.0394893,0.0499524,0.148447,-0.0527663,0.259787,0.120469,0.0395364,692,1499,-5.93965,-6.93454
-525,-475,-2.38239,4.07275,0.107962,-0.026908,0.0344999,0.116275,-0.0352207,0.236444,0.0915437,0.0423911,699,1499,-2.38238,-4.07279
-518,-475,-2.30841,4.50793,0.0841629,-0.0170242,0.0228683,0.0890911,-0.0219525,0.212258,0.0679049,0.0436634,706,1499,-2.30841,-4.50798
-511,-475,-2.02856,4.72961,0.0639314,-0.00971269,0.0143755,0.0666381,-0.0124193,0.186103,0.0490916,0.0432001,713,1499,-2.02854,-4.72966
-504,-475,-1.76941,5.14014,0.0472298,-0.00463546,0.00840176,0.0485568,-0.00596252,0.156656,0.0345308,0.0261638,720,1499,-1.7694,-5.14009
-497,-475,-1.77844,5.40051,0.0337742,-0.0020286,0.00433831,0.0342924,-0.00254678,0.11888,0.0237561,0.0137196,727,1499,-1.77843,-5.40048
-490,-475,-1.77875,5.63074,0.023275,-0.000580064,0.00178447,0.0234077,-0.000712813,0.0742539,0.0158481,0.00897899,734,1499,-1.77875,-5.63075
-483,-475,-1.76794,5.87415,0.015434,0.00215982,-0.00139206,0.0155784,0.00201541,-0.103372,0.00978325,0.00885675,741,1499,-1.76793,-5.8741
-476,-475,-1.7699,6.09277,0.00930534,0.00168512,-0.0023246,0.0099585,0.00103197,-0.273911,0.00632314,0.00963401,748,1499,-1.76991,-6.09276
-469,-475,-1.76691,6.32288,0.00550504,0.000707118,-0.00288051,0.00685472,-0.000642565,-0.438179,0.00479836,0.0115251,755,1499,-1.76692,-6.32288
-462,-475,-1.73828,6.56848,0.00343702,-0.00125753,-0.00261091,0.00460066,-0.00242118,-0.41926,0.00411864,0.015438,762,1499,-1.73826,-6.56849
-455,-475,-1.76379,6.79285,0.00274275,-0.00369494,-0.002476,0.00358489,-0.00453707,-0.327844,0.00469994,0.0151744,769,1499,-1.76382,-6.79282
-448,-475,-1.79822,7.0365,0.00335468,-0.00608134,-0.00271417,0.00407968,-0.00680634,-0.261022,0.00635042,0.0138579,776,1499,-1.79822,-7.03654
-441,-475,-1.78918,7.29871,0.00428665,-0.0085808,-0.00299625,0.00495014,-0.00924428,-0.217921,0.00831922,0.0169246,783,1499,-1.7892,-7.29868
-434,-475,-1.77838,7.48792,0.00549386,-0.0116005,-0.00334836,0.00612633,-0.012233,-0.186687,0.0107934,0.0108293,790,1499,-1.7784,-7.48788
-427,-475,-1.75793,7.74792,0.00699818,-0.0150806,-0.00389361,0.0076647,-0.0157471,-0.169539,0.0137827,0.0135612,797,1499,-1.75794,-7.74797
-420,-475,-1.65875,7.92297,0.00867717,-0.0194403,-0.00441921,0.00935538,-0.0201185,-0.15228,0.0173908,0.0212335,804,1499,-1.65878,-7.923
-413,-475,-1.41931,7.79858,0.0107198,-0.0252312,-0.00440178,0.0112509,-0.0257623,-0.120076,0.0219102,0.0393943,811,1499,-1.41932,-7.7986
-406,-475,-0.963989,7.74487,0,0,0,0,0,0,0,-1,818,1499,-0.963977,-7.74487
-399,-475,-1.67731,5.84595,0,0,0,0,0,0,0,-1,825,1499,-1.67733,-5.84596
-392,-475,0.217163,8.61389,0,0,0,0,0,0,0,-1,832,1499,0.217167,-8.6139
-385,-475,1.18372,2.73999,0,0,0,0,0,0,0,-1,839,1499,1.18372,-2.73995
-378,-475,1.31409,2.90149,0,0,0,0,0,0,0,-1,846,1499,1.31411,-2.90151
-371,-475,2.3476,3.31116,0,0,0,0,0,0,0,-1,853,1499,2.34761,-3.31121
-364,-475,1.04462,9.05823,0,0,0,0,0,0,0,-1,860,1499,1.04461,-9.05825
-357,-475,-0.262756,7.97205,0,0,0,0,0,0,0,-1,867,1499,-0.262784,-7.97205
-350,-475,-2.77173,4.35486,0,0,0,0,0,0,0,-1,874,1499,-2.77175,-4.35491
-343,-475,-6.81641,-1.95203,0,0,0,0,0,0,0,-1,881,1499,-6.81643,1.95198
-336,-475,0,0,0,0,0,0,0,0,0,-1,888,1499,0,0
-329,-475,0,0,0,0,0,0,0,0,0,-1,895,1499,0,0
-322,-475,0,0,0,0,0,0,0,0,0,-1,902,1499,0,0
-315,-475,0,0,0,0,0,0,0,0,0,-1,909,1499,0,0
-308,-475,0,0,0,0,0,0,0,0,0,-1,916,1499,0,0
-301,-475,0,0,0,0,0,0,0,0,0,-1,923,1499,0,0
-294,-475,0,0,0,0,0,0,0,0,0,-1,930,1499,0,0
-287,-475,0,0,0,0,0,0,0,0,0,-1,937,1499,0,0
-280,-475,0,0,0,0,0,0,0,0,0,-1,944,1499,0,0
-273,-475,0,0,0,0,0,0,0,0,0,-1,951,1499,0,0
-266,-475,0,0,0,0,0,0,0,0,0,-1,958,1499,0,0
-259,-475,0,0,0,0,0,0,0,0,0,-1,965,1499,0,0
-252,-475,0,0,0,0,0,0,0,0,0,-1,972,1499,0,0
-245,-475,0,0,0,0,0,0,0,0,0,-1,979,1499,0,0
-238,-475,0,0,0,0,0,0,0,0,0,-1,986,1499,0,0
-231,-475,0,0,0,0,0,0,0,0,0,-1,993,1499,0,0
-224,-475,0,0,0,0,0,0,0,0,0,-1,1000,1499,0,0
-217,-475,0,0,0,0,0,0,0,0,0,-1,1007,1499,0,0
-210,-475,0,0,0,0,0,0,0,0,0,-1,1014,1499,0,0
-203,-475,0,0,0,0,0,0,0,0,0,-1,1021,1499,0,0
-196,-475,0,0,0,0,0,0,0,0,0,-1,1028,1499,0,0
-189,-475,0,0,0,0,0,0,0,0,0,-1,1035,1499,0,0
-182,-475,0,0,0,0,0,0,0,0,0,-1,1042,1499,0,0
-175,-475,0,0,0,0,0,0,0,0,0,-1,1049,1499,0,0
-168,-475,0,0,0,0,0,0,0,0,0,-1,1056,1499,0,0
-161,-475,0,0,0,0,0,0,0,0,0,-1,1063,1499,0,0
-154,-475,0,0,0,0,0,0,0,0,0,-1,1070,1499,0,0
-147,-475,0,0,0,0,0,0,0,0,0,-1,1077,1499,0,0
-140,-475,0,0,0,0,0,0,0,0,0,-1,1084,1499,0,0
-133,-475,0,0,0,0,0,0,0,0,0,-1,1091,1499,0,0
-126,-475,0,0,0,0,0,0,0,0,0,-1,1098,1499,0,0
-119,-475,0,0,0,0,0,0,0,0,0,-1,1105,1499,0,0
-112,-475,0,0,0,0,0,0,0,0,0,-1,1112,1499,0,0
-105,-475,0,0,0,0,0,0,0,0,0,-1,1119,1499,0,0
-98,-475,0,0,0,0,0,0,0,0,0,-1,1126,1499,0,0
-91,-475,0,0,0,0,0,0,0,0,0,-1,1133,1499,0,0
-84,-475,0,0,0,0,0,0,0,0,0,-1,1140,1499,0,0
-77,-475,0,0,0,0,0,0,0,0,0,-1,1147,1499,0,0
-70,-475,0,0,0,0,0,0,0,0,0,-1,1154,1499,0,0
-63,-475,0,0,0,0,0,0,0,0,0,-1,1161,1499,0,0
-56,-475,0,0,0,0,0,0,0,0,0,-1,1168,1499,0,0
-49,-475,0,0,0,0,0,0,0,0,0,-1,1175,1499,0,0
-42,-475,0,0,0,0,0,0,0,0,0,-1,1182,1499,0,0
-35,-475,0,0,0,0,0,0,0,0,0,-1,1189,1499,0,0
-28,-475,0,0,0,0,0,0,0,0,0,-1,1196,1499,0,0
-21,-475,0,0,0,0,0,0,0,0,0,-1,1203,1499,0,0
-14,-475,0,0,0,0,0,0,0,0,0,-1,1210,1499,0,0
-7,-475,0,0,0,0,0,0,0,0,0,-1,1217,1499,0,0
0,-475,0,0,0,0,0,0,0,0,0,-1,1224,1499,0,0
7,-475,0,0,0,0,0,0,0,0,0,-1,1231,1499,0,0
14,-475,0,0,0,0,0,0,0,0,0,-1,1238,1499,0,0
21,-475,0,0,0,0,0,0,0,0,0,-1,1245,1499,0,0
28,-475,0,0,0,0,0,0,0,0,0,-1,1252,1499,0,0
35,-475,0,0,0,0,0,0,0,0,0,-1,1259,1499,0,0
42,-475,0,0,0,0,0,0,0,0,0,-1,1266,1499,0,0
49,-475,0,0,0,0,0,0,0,0,0,-1,1273,1499,0,0
56,-475,0,0,0,0,0,0,0,0,0,-1,1280,1499,0,0
63,-475,0,0,0,0,0,0,0,0,0,-1,1287,1499,0,0
70,-475,0,0,0,0,0,0,0,0,0,-1,1294,1499,0,0
77,-475,0,0,0,0,0,0,0,0,0,-1,1301,1499,0,0
84,-475,0,0,0,0,0,0,0,0,0,-1,1308,1499,0,0
91,-475,0,0,0,0,0,0,0,0,0,-1,1315,1499,0,0
98,-475,0,0,0,0,0,0,0,0,0,-1,1322,1499,0,0
105,-475,0,0,0,0,0,0,0,0,0,-1,1329,1499,0,0
112,-475,0,0,0,0,0,0,0,0,0,-1,1336,1499,0,0
119,-475,0,0,0,0,0,0,0,0,0,-1,1343,1499,0,0
126,-475,0,0,0,0,0,0,0,0,0,-1,1350,1499,0,0
133,-475,0,0,0,0,0,0,0,0,0,-1,1357,1499,0,0
140,-475,0,0,0,0,0,0,0,0,0,-1,1364,1499,0,0
147,-475,0,0,0,0,0,0,0,0,0,-1,1371,1499,0,0
154,-475,0,0,0,0,0,0,0,0,0,-1,1378,1499,0,0
161,-475,0,0,0,0,0,0,0,0,0,-1,1385,1499,0,0
168,-475,0,0,0,0,0,0,0,0,0,-1,1392,1499,0,0
175,-475,0,0,0,0,0,0,0,0,0,-1,1399,1499,0,0
182,-475,0,0,0,0,0,0,0,0,0,-1,1406,1499,0,0
189,-475,0,0,0,0,0,0,0,0,0,-1,1413,1499,0,0
196,-475,0,0,0,0,0,0,0,0,0,-1,1420,1499,0,0
203,-475,0,0,0,0,0,0,0,0,0,-1,1427,1499,0,0
210,-475,0,0,0,0,0,0,0,0,0,-1,1434,1499,0,0
217,-475,0,0,0,0,0,0,0,0,0,-1,1441,1499,0,0
224,-475,0,0,0,0,0,0,0,0,0,-1,1448,1499,0,0
231,-475,0,0,0,0,0,0,0,0,0,-1,1455,1499,0,0
238,-475,0,0,0,0,0,0,0,0,0,-1,1462,1499,0,0
245,-475,0,0,0,0,0,0,0,0,0,-1,1469,1499,0,0
252,-475,0,0,0,0,0,0,0,0,0,-1,1476,1499,0,0
259,-475,0,0,0,0,0,0,0,0,0,-1,1483,1499,0,0
266,-475,0,0,0,0,0,0,0,0,0,-1,1490,1499,0,0
273,-475,0,0,0,0,0,0,0,0,0,-1,1497,1499,0,0
280,-475,0,0,0,0,0,0,0,0,0,-1,1504,1499,0,0
287,-475,0,0,0,0,0,0,0,0,0,-1,1511,1499,0,0
294,-475,0,0,0,0,0,0,0,0,0,-1,1518,1499,0,0
301,-475,0,0,0,0,0,0,0,0,0,-1,1525,1499,0,0
308,-475,0,0,0,0,0,0,0,0,0,-1,1532,1499,0,0
315,-475,0,0,0,0,0,0,0,0,0,-1,1539,1499,0,0
322,-475,0,0,0,0,0,0,0,0,0,-1,1546,1499,0,0
329,-475,0,0,0,0,0,0,0,0,0,-1,1553,1499,0,0
336,-475,0,0,0,0,0,0,0,0,0,-1,1560,1499,0,0
343,-475,0,0,0,0,0,0,0,0,0,-1,1567,1499,0,0
350,-475,0,0,0,0,0,0,0,0,0,-1,1574,1499,0,0
357,-475,0,0,0,0,0,0,0,0,0,-1,1581,1499,0,0
364,-475,0,0,0,0,0,0,0,0,0,-1,1588,1499,0,0
371,-475,0,0,0,0,0,0,0,0,0,-1,1595,1499,0,0
378,-475,0,0,0,0,0,0,0,0,0,-1,1602,1499,0,0
385,-475,0,0,0,0,0,0,0,0,0,-1,1609,1499,0,0
392,-475,0,0,0,0,0,0,0,0,0,-1,1616,1499,0,0
399,-475,0,0,0,0,0,0,0,0,0,-1,1623,1499,0,0
406,-475,0,0,0,0,0,0,0,0,0,-1,1630,1499,0,0
413,-475,0,0,0,0,0,0,0,0,0,-1,1637,1499,0,0
420,-475,0,0,0,0,0,0,0,0,0,-1,1644,1499,0,0
427,-475,0,0,0,0,0,0,0,0,0,-1,1651,1499,0,0
434,-475,0,0,0,0,0,0,0,0,0,-1,1658,1499,0,0
441,-475,0,0,0,0,0,0,0,0,0,-1,1665,1499,0,0
448,-475,0,0,0,0,0,0,0,0,0,-1,1672,1499,0,0
455,-475,0,0,0,0,0,0,0,0,0,-1,1679,1499,0,0
462,-475,12.6372,0.275391,0,0,0,0,0,0,0,-1,1686,1499,12.6372,-0.27536
469,-475,15.6437,2.28296,0,0,0,0,0,0,0,-1,1693,1499,15.6437,-2.28293
476,-475,15.3302,2.71436,0,0,0,0,0,0,0,-1,1700,1499,15.3303,-2.7143
483,-475,10.7461,5.91479,0,0,0,0,0,0,0,-1,1707,1499,10.7461,-5.91476
490,-475,11.9305,4.4364,0,0,0,0,0,0,0,-1,1714,1499,11.9305,-4.43644
497,-475,15.3451,4.3479,0,0,0,0,0,0,0,-1,1721,1499,15.3451,-4.34789
504,-475,14.204,5.17224,0,0,0,0,0,0,0,-1,1728,1499,14.204,-5.17219
511,-475,12.9702,6.20056,0,0,0,0,0,0,0,-1,1735,1499,12.9703,-6.20053
518,-475,11.7434,7.18286,0,0,0,0,0,0,0,-1,1742,1499,11.7434,-7.18286
525,-475,11.0272,8.58057,0,0,0,0,0,0,0,-1,1749,1499,11.0272,-8.58062
532,-475,11.2218,8.82971,-0.0125285,-0.0266068,0.0290506,0.0103236,-0.0494589,0.666536,0.0368983,0.044943,1756,1499,11.2218,-8.82969
539,-475,11.3285,9.19873,-0.00863822,-0.021001,0.0230137,0.00900977,-0.038649,0.654197,0.0292357,0.0437152,1763,1499,11.3285,-9.19872
546,-475,11.0006,9.354,-0.00592904,-0.0164345,0.0180452,0.00761236,-0.0299759,0.643768,0.0229462,0.0383342,1770,1499,11.0006,-9.354
553,-475,10.9279,9.32312,-0.00407321,-0.0127614,0.0139555,0.00619865,-0.0230333,0.63451,0.0177855,0.0198255,1777,1499,10.9279,-9.32309
560,-475,10.7795,9.24023,-0.00278399,-0.00982876,0.0106037,0.00486702,-0.0174798,0.625039,0.0135697,0.0139122,1784,1499,10.7796,-9.24027
567,-475,10.8105,8.99976,-0.00158533,-0.00733175,0.00773425,0.00379216,-0.0127092,0.607552,0.00998,0.0137855,1791,1499,10.8105,-8.99971
574,-475,10.7811,8.76794,-0.00065062,-0.00515415,0.00554223,0.00307982,-0.00888459,0.592439,0.00717354,0.0143118,1798,1499,10.7811,-8.76798
581,-475,10.7817,8.57349,-0.000106957,-0.00357979,0.0038744,0.00240234,-0.00608909,0.57473,0.00505421,0.0122109,1805,1499,10.7817,-8.57345
588,-475,10.7791,8.37549,3.65281e-05,-0.00208841,0.00207042,0.00130117,-0.00335306,0.548335,0.0027728,0.0102238,1812,1499,10.7791,-8.37549
595,-475,10.7915,8.16736,0.000405437,-0.0011924,0.000776122,0.000720356,-0.00150732,0.385463,0.00131263,0.0107929,1819,1499,10.7916,-8.16732
602,-475,10.8254,7.9314,0.000669988,-0.000312393,-0.00026741,0.000738062,-0.000380467,-0.249271,0.000656692,0.0127001,1826,1499,10.8254,-7.93141
609,-475,10.819,7.72791,0.000737838,0.000401688,-0.00130778,0.0018883,-0.000748775,-0.721489,0.00156918,0.0112488,1833,1499,10.819,-7.72792
616,-475,10.7922,7.53699,0.00095838,0.00100834,-0.00249467,0.00347815,-0.00151143,-0.790404,0.00295439,0.0104664,1840,1499,10.7923,-7.53699
623,-475,10.803,7.31897,0.00102832,0.00153336,-0.00369587,0.00498533,-0.00242365,-0.819508,0.00436197,0.0109998,1847,1499,10.803,-7.31897
630,-475,10.8423,7.08508,0.00079882,0.00217817,-0.00506259,0.00659785,-0.00362085,-0.853096,0.00598264,0.0141421,1854,1499,10.8423,-7.08513
637,-475,10.8754,6.93481,0.000615786,0.00285448,-0.00682311,0.00864945,-0.00517918,-0.8667,0.00806732,0.0277003,1861,1499,10.8753,-6.93485
644,-475,10.928,6.73596,0,0,0,0,0,0,0,-1,1868,1499,10.928,-6.73599
651,-475,10.8334,6.67908,0,0,0,0,0,0,0,-1,1875,1499,10.8333,-6.67903
658,-475,11.5027,6.74133,0,0,0,0,0,0,0,-1,1882,1499,11.5026,-6.74133
665,-475,9.33435,5.43335,0,0,0,0,0,0,0,-1,1889,1499,9.33439,-5.43332
672,-475,9.38635,1.10474,0,0,0,0,0,0,0,-1,1896,1499,9.38629,-1.10475
679,-475,12.2594,1.31079,0,0,0,0,0,0,0,-1,1903,1499,12.2594,-1.31077
686,-475,0,0,0,0,0,0,0,0,0,-1,1910,1499,0,0
693,-475,0,0,0,0,0,0,0,0,0,-1,1917,1499,0,0
700,-475,0,0,0,0,0,0,0,0,0,-1,1924,1499,0,0
707,-475,0,0,0,0,0,0,0,0,0,-1,1931,1499,0,0
714,-475,0,0,0,0,0,0,0,0,0,-1,1938,1499,0,0
721,-475,0,0,0,0,0,0,0,0,0,-1,1945,1499,0,0
728,-475,0,0,0,0,0,0,0,0,0,-1,1952,1499,0,0
735,-475,0,0,0,0,0,0,0,0,0,-1,1959,1499,0,0
742,-475,0,0,0,0,0,0,0,0,0,-1,1966,1499,0,0
749,-475,0,0,0,0,0,0,0,0,0,-1,1973,1499,0,0
756,-475,0,0,0,0,0,0,0,0,0,-1,1980,1499,0,0
763,-475,0,0,0,0,0,0,0,0,0,-1,1987,1499,0,0
770,-475,0,0,0,0,0,0,0,0,0,-1,1994,1499,0,0
777,-475,0,0,0,0,0,0,0,0,0,-1,2001,1499,0,0
784,-475,0,0,0,0,0,0,0,0,0,-1,2008,1499,0,0
791,-475,0,0,0,0,0,0,0,0,0,-1,2015,1499,0,0
798,-475,0,0,0,0,0,0,0,0,0,-1,2022,1499,0,0
805,-475,0,0,0,0,0,0,0,0,0,-1,2029,1499,0,0
812,-475,0,0,0,0,0,0,0,0,0,-1,2036,1499,0,0
-700,-482,0,0,0,0,0,0,0,0,0,-1,524,1506,0,0
-693,-482,0,0,0,0,0,0,0,0,0,-1,531,1506,0,0
-686,-482,0,0,0,0,0,0,0,0,0,-1,538,1506,0,0
-679,-482,0,0,0,0,0,0,0,0,0,-1,545,1506,0,0
-672,-482,0,0,0,0,0,0,0,0,0,-1,552,1506,0,0
-665,-482,0,0,0,0,0,0,0,0,0,-1,559,1506,0,0
-658,-482,0,0,0,0,0,0,0,0,0,-1,566,1506,0,0
-651,-482,0,0,0,0,0,0,0,0,0,-1,573,1506,0,0
-644,-482,0,0,0,0,0,0,0,0,0,-1,580,1506,0,0
-637,-482,0,0,0,0,0,0,0,0,0,-1,587,1506,0,0
-630,-482,0,0,0,0,0,0,0,0,0,-1,594,1506,0,0
-623,-482,0,0,0,0,0,0,0,0,0,-1,601,1506,0,0
-616,-482,0,0,0,0,0,0,0,0,0,-1,608,1506,0,0
-609,-482,0,0,0,0,0,0,0,0,0,-1,615,1506,0,0
-602,-482,0,0,0,0,0,0,0,0,0,-1,622,1506,0,0
-595,-482,0,0,0,0,0,0,0,0,0,-1,629,1506,0,0
-588,-482,0,0,0,0,0,0,0,0,0,-1,636,1506,0,0
-581,-482,0,0,0,0,0,0,0,0,0,-1,643,1506,0,0
-574,-482,0,0,0,0,0,0,0,0,0,-1,650,1506,0,0
-567,-482,0,0,0,0,0,0,0,0,0,-1,657,1506,0,0
-560,-482,0,0,0,0,0,0,0,0,0,-1,664,1506,0,0
-553,-482,-9.06055,9.34314,0,0,0,0,0,0,0,-1,671,1506,-9.06056,-9.34312
-546,-482,-4.08624,8.34241,0,0,0,0,0,0,0,-1,678,1506,-4.08624,-8.3424
-539,-482,-5.94067,7.21851,0,0,0,0,0,0,0,-1,685,1506,-5.94069,-7.21847
-532,-482,-5.01831,6.60229,0.161149,-0.048352,0.0472581,0.171316,-0.0585188,0.211904,0.137919,0.0462312,692,1506,-5.01831,-6.60224
-525,-482,-4.10675,5.93689,0.128369,-0.0308476,0.0317189,0.134456,-0.0369339,0.189579,0.104155,0.0419651,699,1506,-4.10674,-5.93687
-518,-482,-3.10712,5.46545,0.0998768,-0.0178476,0.0203221,0.103286,-0.0212569,0.166218,0.0769284,0.0451171,706,1506,-3.1071,-5.46544
-511,-482,-1.79346,4.77795,0,0,0,0,0,0,0,-1,713,1506,-1.79347,-4.77793
-504,-482,-1.66125,5.11438,0.0558317,-0.00263364,0.00656612,0.0565601,-0.00336199,0.110474,0.0388759,0.0404116,720,1506,-1.66128,-5.11444
-497,-482,-1.49725,5.36548,0.0399377,0.000453507,0.00288742,0.0401477,0.00024347,0.0726136,0.0266844,0.0229687,727,1506,-1.49724,-5.36547
-490,-482,-1.55304,5.59314,0.027535,0.00207038,0.000742492,0.0275567,0.00204875,0.0291248,0.0177277,0.0145929,734,1506,-1.55304,-5.59314
-483,-482,-1.54144,5.85364,0.0181841,0.00485245,-0.0021164,0.018512,0.00452453,-0.153716,0.0111437,0.00894343,741,1506,-1.54144,-5.85365
-476,-482,-1.53632,6.08606,0.0109145,0.00426344,-0.00250743,0.0117538,0.00342407,-0.323027,0.00698031,0.00949607,748,1506,-1.53633,-6.08604
-469,-482,-1.54407,6.32104,0.00646246,0.00315892,-0.00271916,0.00799223,0.00162915,-0.512456,0.00487667,0.0103729,755,1506,-1.54405,-6.32108
-462,-482,-1.53802,6.56702,0.00395106,0.00106677,-0.00215412,0.00510121,-8.33806e-05,-0.490423,0.00342894,0.0115055,762,1506,-1.53804,-6.56699
-455,-482,-1.53717,6.8114,0.00303185,-0.00149559,-0.00171363,0.00360731,-0.00207105,-0.323982,0.00331815,0.0127272,769,1506,-1.5372,-6.81146
-448,-482,-1.54285,7.05383,0.00361963,-0.00382364,-0.00175725,0.00401364,-0.00421764,-0.220568,0.00475282,0.0134388,776,1506,-1.54283,-7.05382
-441,-482,-1.54956,7.28882,0.00458458,-0.00614787,-0.00188226,0.00490511,-0.00646841,-0.168676,0.00658715,0.0132096,783,1506,-1.54956,-7.28885
-434,-482,-1.54132,7.5072,0.00581247,-0.0088603,-0.00212414,0.00611379,-0.00916161,-0.140914,0.00887758,0.0151739,790,1506,-1.54135,-7.50721
-427,-482,-1.55627,7.78003,0.0074545,-0.0118673,-0.00263458,0.00780729,-0.0122201,-0.133116,0.011656,0.0167901,797,1506,-1.55629,-7.78007
-420,-482,-1.50995,8.11694,0.00931181,-0.0156703,-0.00319991,0.00971517,-0.0160737,-0.125392,0.0150393,0.0250354,804,1506,-1.50997,-8.11697
-413,-482,-1.34454,8.1156,0.0114934,-0.0208257,-0.0033182,0.0118306,-0.0211629,-0.101262,0.0193011,0.0343358,811,1506,-1.34453,-8.11555
-406,-482,-1.23193,8.04504,0,0,0,0,0,0,0,-1,818,1506,-1.23195,-8.04499
-399,-482,-0.901245,8.19458,0,0,0,0,0,0,0,-1,825,1506,-0.901255,-8.19461
-392,-482,-0.310974,8.39221,0,0,0,0,0,0,0,-1,832,1506,-0.310955,-8.39221
-385,-482,0.0647583,8.90649,0,0,0,0,0,0,0,-1,839,1506,0.0647778,-8.90644
-378,-482,0.215698,5.96948,0,0,0,0,0,0,0,-1,846,1506,0.215681,-5.9695
-371,-482,-0.10907,8.10437,0,0,0,0,0,0,0,-1,853,1506,-0.109063,-8.10433
-364,-482,-0.154968,10.5032,0,0,0,0,0,0,0,-1,860,1506,-0.154976,-10.5032
-357,-482,2.14807,4.60144,0,0,0,0,0,0,0,-1,867,1506,2.14807,-4.60144
-350,-482,-7.5813,-1.45935,0,0,0,0,0,0,0,-1,874,1506,-7.58133,1.45937
-343,-482,-7.19983,-1.26416,0,0,0,0,0,0,0,-1,881,1506,-7.19981,1.26414
-336,-482,-6.78491,-1.18127,0,0,0,0,0,0,0,-1,888,1506,-6.78488,1.18125
-329,-482,0,0,0,0,0,0,0,0,0,-1,895,1506,0,0
-322,-482,0,0,0,0,0,0,0,0,0,-1,902,1506,0,0
-315,-482,0,0,0,0,0,0,0,0,0,-1,909,1506,0,0
-308,-482,0,0,0,0,0,0,0,0,0,-1,916,1506,0,0
-301,-482,0,0,0,0,0,0,0,0,0,-1,923,1506,0,0
-294,-482,0,0,0,0,0,0,0,0,0,-1,930,1506,0,0
-287,-482,0,0,0,0,0,0,0,0,0,-1,937,1506,0,0
-280,-482,0,0,0,0,0,0,0,0,0,-1,944,1506,0,0
-273,-482,0,0,0,0,0,0,0,0,0,-1,951,1506,0,0
-266,-482,0,0,0,0,0,0,0,0,0,-1,958,1506,0,0
-259,-482,0,0,0,0,0,0,0,0,0,-1,965,1506,0,0
-252,-482,0,0,0,0,0,0,0,0,0,-1,972,1506,0,0
-245,-482,0,0,0,0,0,0,0,0,0,-1,979,1506,0,0
-238,-482,0,0,0,0,0,0,0,0,0,-1,986,1506,0,0
-231,-482,0,0,0,0,0,0,0,0,0,-1,993,1506,0,0
-224,-482,0,0,0,0,0,0,0,0,0,-1,1000,1506,0,0
-217,-482,0,0,0,0,0,0,0,0,0,-1,1007,1506,0,0
-210,-482,0,0,0,0,0,0,0,0,0,-1,1014,1506,0,0
-203,-482,0,0,0,0,0,0,0,0,0,-1,1021,1506,0,0
-196,-482,0,0,0,0,0,0,0,0,0,-1,1028,1506,0,0
-189,-482,0,0,0,0,0,0,0,0,0,-1,1035,1506,0,0
-182,-482,0,0,0,0,0,0,0,0,0,-1,1042,1506,0,0
-175,-482,0,0,0,0,0,0,0,0,0,-1,1049,1506,0,0
-168,-482,0,0,0,0,0,0,0,0,0,-1,1056,1506,0,0
-161,-482,0,0,0,0,0,0,0,0,0,-1,1063,1506,0,0
-154,-482,0,0,0,0,0,0,0,0,0,-1,1070,1506,0,0
-147,-482,0,0,0,0,0,0,0,0,0,-1,1077,1506,0,0
-140,-482,0,0,0,0,0,0,0,0,0,-1,1084,1506,0,0
-133,-482,0,0,0,0,0,0,0,0,0,-1,1091,1506,0,0
-126,-482,0,0,0,0,0,0,0,0,0,-1,1098,1506,0,0
-119,-482,0,0,0,0,0,0,0,0,0,-1,1105,1506,0,0
-112,-482,0,0,0,0,0,0,0,0,0,-1,1112,1506,0,0
-105,-482,0,0,0,0,0,0,0,0,0,-1,1119,1506,0,0
-98,-482,0,0,0,0,0,0,0,0,0,-1,1126,1506,0,0
-91,-482,0,0,0,0,0,0,0,0,0,-1,1133,1506,0,0
-84,-482,0,0,0,0,0,0,0,0,0,-1,1140,1506,0,0
-77,-482,0,0,0,0,0,0,0,0,0,-1,1147,1506,0,0
-70,-482,0,0,0,0,0,0,0,0,0,-1,1154,1506,0,0
-63,-482,0,0,0,0,0,0,0,0,0,-1,1161,1506,0,0
-56,-482,0,0,0,0,0,0,0,0,0,-1,1168,1506,0,0
-49,-482,0,0,0,0,0,0,0,0,0,-1,1175,1506,0,0
-42,-482,0,0,0,0,0,0,0,0,0,-1,1182,1506,0,0
-35,-482,0,0,0,0,0,0,0,0,0,-1,1189,1506,0,0
-28,-482,0,0,0,0,0,0,0,0,0,-1,1196,1506,0,0
-21,-482,0,0,0,0,0,0,0,0,0,-1,1203,1506,0,0
-14,-482,0,0,0,0,0,0,0,0,0,-1,1210,1506,0,0
-7,-482,0,0,0,0,0,0,0,0,0,-1,1217,1506,0,0
0,-482,0,0,0,0,0,0,0,0,0,-1,1224,1506,0,0
7,-482,0,0,0,0,0,0,0,0,0,-1,1231,1506,0,0
14,-482,0,0,0,0,0,0,0,0,0,-1,1238,1506,0,0
21,-482,0,0,0,0,0,0,0,0,0,-1,1245,1506,0,0
28,-482,0,0,0,0,0,0,0,0,0,-1,1252,1506,0,0
35,-482,0,0,0,0,0,0,0,0,0,-1,1259,1506,0,0
42,-482,0,0,0,0,0,0,0,0,0,-1,1266,1506,0,0
49,-482,0,0,0,0,0,0,0,0,0,-1,1273,1506,0,0
56,-482,0,0,0,0,0,0,0,0,0,-1,1280,1506,0,0
63,-482,0,0,0,0,0,0,0,0,0,-1,1287,1506,0,0
70,-482,0,0,0,0,0,0,0,0,0,-1,1294,1506,0,0
77,-482,0,0,0,0,0,0,0,0,0,-1,1301,1506,0,0
84,-482,0,0,0,0,0,0,0,0,0,-1,1308,1506,0,0
91,-482,0,0,0,0,0,0,0,0,0,-1,1315,1506,0,0
98,-482,0,0,0,0,0,0,0,0,0,-1,1322,1506,0,0
105,-482,0,0,0,0,0,0,0,0,0,-1,1329,1506,0,0
112,-482,0,0,0,0,0,0,0,0,0,-1,1336,1506,0,0
119,-482,0,0,0,0,0,0,0,0,0,-1,1343,1506,0,0
126,-482,0,0,0,0,0,0,0,0,0,-1,1350,1506,0,0
133,-482,0,0,0,0,0,0,0,0,0,-1,1357,1506,0,0
140,-482,0,0,0,0,0,0,0,0,0,-1,1364,1506,0,0
147,-482,0,0,0,0,0,0,0,0,0,-1,1371,1506,0,0
154,-482,0,0,0,0,0,0,0,0,0,-1,1378,1506,0,0
161,-482,0,0,0,0,0,0,0,0,0,-1,1385,1506,0,0
168,-482,0,0,0,0,0,0,0,0,0,-1,1392,1506,0,0
175,-482,0,0,0,0,0,0,0,0,0,-1,1399,1506,0,0
182,-482,0,0,0,0,0,0,0,0,0,-1,1406,1506,0,0
189,-482,0,0,0,0,0,0,0,0,0,-1,1413,1506,0,0
196,-482,0,0,0,0,0,0,0,0,0,-1,1420,1506,0,0
203,-482,0,0,0,0,0,0,0,0,0,-1,1427,1506,0,0
210,-482,0,0,0,0,0,0,0,0,0,-1,1434,1506,0,0
217,-482,0,0,0,0,0,0,0,0,0,-1,1441,1506,0,0
224,-482,0,0,0,0,0,0,0,0,0,-1,1448,1506,0,0
231,-482,0,0,0,0,0,0,0,0,0,-1,1455,1506,0,0
238,-482,0,0,0,0,0,0,0,0,0,-1,1462,1506,0,0
245,-482,0,0,0,0,0,0,0,0,0,-1,1469,1506,0,0
252,-482,0,0,0,0,0,0,0,0,0,-1,1476,1506,0,0
259,-482,0,0,0,0,0,0,0,0,0,-1,1483,1506,0,0
266,-482,0,0,0,0,0,0,0,0,0,-1,1490,1506,0,0
273,-482,0,0,0,0,0,0,0,0,0,-1,1497,1506,0,0
280,-482,0,0,0,0,0,0,0,0,0,-1,1504,1506,0,0
287,-482,0,0,0,0,0,0,0,0,0,-1,1511,1506,0,0
294,-482,0,0,0,0,0,0,0,0,0,-1,1518,1506,0,0
301,-482,0,0,0,0,0,0,0,0,0,-1,1525,1506,0,0
308,-482,0,0,0,0,0,0,0,0,0,-1,1532,1506,0,0
315,-482,0,0,0,0,0,0,0,0,0,-1,1539,1506,0,0
322,-482,0,0,0,0,0,0,0,0,0,-1,1546,1506,0,0
329,-482,0,0,0,0,0,0,0,0,0,-1,1553,1506,0,0
336,-482,0,0,0,0,0,0,0,0,0,-1,1560,1506,0,0
343,-482,0,0,0,0,0,0,0,0,0,-1,1567,1506,0,0
350,-482,0,0,0,0,0,0,0,0,0,-1,1574,1506,0,0
357,-482,0,0,0,0,0,0,0,0,0,-1,1581,1506,0,0
364,-482,0,0,0,0,0,0,0,0,0,-1,1588,1506,0,0
371,-482,0,0,0,0,0,0,0,0,0,-1,1595,1506,0,0
378,-482,0,0,0,0,0,0,0,0,0,-1,1602,1506,0,0
385,-482,0,0,0,0,0,0,0,0,0,-1,1609,1506,0,0
392,-482,0,0,0,0,0,0,0,0,0,-1,1616,1506,0,0
399,-482,0,0,0,0,0,0,0,0,0,-1,1623,1506,0,0
406,-482,0,0,0,0,0,0,0,0,0,-1,1630,1506,0,0
413,-482,0,0,0,0,0,0,0,0,0,-1,1637,1506,0,0
420,-482,0,0,0,0,0,0,0,0,0,-1,1644,1506,0,0
427,-482,0,0,0,0,0,0,0,0,0,-1,1651,1506,0,0
434,-482,0,0,0,0,0,0,0,0,0,-1,1658,1506,0,0
441,-482,0,0,0,0,0,0,0,0,0,-1,1665,1506,0,0
448,-482,4.24146,1.55383,0,0,0,0,0,0,0,-1,1672,1506,4.24149,-1.55381
455,-482,12.4122,1.09729,0,0,0,0,0,0,0,-1,1679,1506,12.4122,-1.09734
462,-482,15.0673,3.13135,0,0,0,0,0,0,0,-1,1686,1506,15.0672,-3.13134
469,-482,15.3793,3.46301,0,0,0,0,0,0,0,-1,1693,1506,15.3793,-3.46307
476,-482,8.69751,9.18738,0,0,0,0,0,0,0,-1,1700,1506,8.69753,-9.18739
483,-482,10.0902,7.17432,0,0,0,0,0,0,0,-1,1707,1506,10.0902,-7.1743
490,-482,11.6289,5.4928,0,0,0,0,0,0,0,-1,1714,1506,11.6289,-5.49283
497,-482,14.7356,5.20508,0,0,0,0,0,0,0,-1,1721,1506,14.7356,-5.20505
504,-482,13.5994,6.01233,0,0,0,0,0,0,0,-1,1728,1506,13.5994,-6.01228
511,-482,12.528,7.25598,0,0,0,0,0,0,0,-1,1735,1506,12.528,-7.25593
518,-482,11.4458,8.01953,0,0,0,0,0,0,0,-1,1742,1506,11.4458,-8.01956
525,-482,10.7,8.75378,0,0,0,0,0,0,0,-1,1749,1506,10.6999,-8.75382
532,-482,10.7659,9.06079,-0.0144076,-0.0240514,0.0250546,0.00628488,-0.0447439,0.690332,0.0321298,0.0419856,1756,1506,10.7659,-9.06074
539,-482,10.8428,9.46338,-0.0102562,-0.0185745,0.0196227,0.00564327,-0.0344739,0.680965,0.0250763,0.0305671,1763,1506,10.8427,-9.46338
546,-482,10.6449,9.5437,-0.00720248,-0.0143825,0.015244,0.00486853,-0.0264535,0.669753,0.0194626,0.0170383,1770,1506,10.6449,-9.54374
553,-482,10.6001,9.42505,-0.00501226,-0.0110096,0.0116947,0.00406212,-0.020084,0.659896,0.0149287,0.0142229,1777,1506,10.6001,-9.42503
560,-482,10.575,9.21912,-0.00338741,-0.00829563,0.00876217,0.00325784,-0.0149409,0.648857,0.0112055,0.0119235,1784,1506,10.575,-9.21906
567,-482,10.5873,9.00281,-0.00185171,-0.00596488,0.00617311,0.00259838,-0.010415,0.624604,0.00795222,0.0144064,1791,1506,10.5873,-9.00278
574,-482,10.5836,8.79956,-0.000656888,-0.00394107,0.00423543,0.00224363,-0.00684159,0.600467,0.00546468,0.0133843,1798,1506,10.5836,-8.79962
581,-482,10.5867,8.59412,0.000105559,-0.00250927,0.00277676,0.0018673,-0.00427101,0.565373,0.0036334,0.00992354,1805,1506,10.5867,-8.59414
588,-482,10.5768,8.39282,0.00037866,-0.00105075,0.00100201,0.000894738,-0.00156683,0.475609,0.00143874,0.010533,1812,1506,10.5768,-8.39281
595,-482,10.5864,8.14905,0.000868363,-0.000146874,-0.000250786,0.000926934,-0.000205445,-0.229436,0.00069661,0.0156537,1819,1506,10.5864,-8.14899
602,-482,10.6285,7.89807,0.00123072,0.000751359,-0.00131968,0.00233231,-0.000350228,-0.695567,0.0016838,0.0196666,1826,1506,10.6285,-7.89802
609,-482,10.6149,7.7251,0.00144516,0.00153636,-0.00244047,0.00393165,-0.000950136,-0.79474,0.00298859,0.0150578,1833,1506,10.6149,-7.72514
616,-482,10.5946,7.53357,0.00175414,0.002308,-0.00381299,0.0058541,-0.00179196,-0.821649,0.00461745,0.010957,1840,1506,10.5946,-7.53353
623,-482,10.5951,7.31873,0.00187188,0.00307177,-0.00533823,0.00784366,-0.00290001,-0.841357,0.00641802,0.0124608,1847,1506,10.5951,-7.31873
630,-482,10.6366,7.09619,0.00178919,0.00410959,-0.00726059,0.0103021,-0.00440331,-0.864625,0.00871488,0.024052,1854,1506,10.6367,-7.09616
637,-482,10.6736,7.02014,0,0,0,0,0,0,0,-1,1861,1506,10.6736,-7.02008
644,-482,9.80469,6.55469,0,0,0,0,0,0,0,-1,1868,1506,9.80464,-6.5547
651,-482,4.03845,7.05273,0,0,0,0,0,0,0,-1,1875,1506,4.03843,-7.05279
658,-482,10.0278,5.87903,0,0,0,0,0,0,0,-1,1882,1506,10.0279,-5.87902
665,-482,8.15198,3.22229,0,0,0,0,0,0,0,-1,1889,1506,8.15199,-3.22232
672,-482,9.87415,1.3147,0,0,0,0,0,0,0,-1,1896,1506,9.87416,-1.31473
679,-482,0,0,0,0,0,0,0,0,0,-1,1903,1506,0,0
686,-482,0,0,0,0,0,0,0,0,0,-1,1910,1506,0,0
693,-482,0,0,0,0,0,0,0,0,0,-1,1917,1506,0,0
700,-482,0,0,0,0,0,0,0,0,0,-1,1924,1506,0,0
707,-482,0,0,0,0,0,0,0,0,0,-1,1931,1506,0,0
714,-482,0,0,0,0,0,0,0,0,0,-1,1938,1506,0,0
721,-482,0,0,0,0,0,0,0,0,0,-1,1945,1506,0,0
728,-482,0,0,0,0,0,0,0,0,0,-1,1952,1506,0,0
735,-482,0,0,0,0,0,0,0,0,0,-1,1959,1506,0,0
742,-482,0,0,0,0,0,0,0,0,0,-1,1966,1506,0,0
749,-482,0,0,0,0,0,0,0,0,0,-1,1973,1506,0,0
756,-482,0,0,0,0,0,0,0,0,0,-1,1980,1506,0,0
763,-482,0,0,0,0,0,0,0,0,0,-1,1987,1506,0,0
770,-482,0,0,0,0,0,0,0,0,0,-1,1994,1506,0,0
777,-482,0,0,0,0,0,0,0,0,0,-1,2001,1506,0,0
784,-482,0,0,0,0,0,0,0,0,0,-1,2008,1506,0,0
791,-482,0,0,0,0,0,0,0,0,0,-1,2015,1506,0,0
798,-482,0,0,0,0,0,0,0,0,0,-1,2022,1506,0,0
805,-482,0,0,0,0,0,0,0,0,0,-1,2029,1506,0,0
812,-482,0,0,0,0,0,0,0,0,0,-1,2036,1506,0,0
-700,-489,0,0,0,0,0,0,0,0,0,-1,524,1513,0,0
-693,-489,0,0,0,0,0,0,0,0,0,-1,531,1513,0,0
-686,-489,0,0,0,0,0,0,0,0,0,-1,538,1513,0,0
-679,-489,0,0,0,0,0,0,0,0,0,-1,545,1513,0,0
-672,-489,0,0,0,0,0,0,0,0,0,-1,552,1513,0,0
-665,-489,0,0,0,0,0,0,0,0,0,-1,559,1513,0,0
-658,-489,0,0,0,0,0,0,0,0,0,-1,566,1513,0,0
-651,-489,0,0,0,0,0,0,0,0,0,-1,573,1513,0,0
-644,-489,0,0,0,0,0,0,0,0,0,-1,580,1513,0,0
-637,-489,0,0,0,0,0,0,0,0,0,-1,587,1513,0,0
-630,-489,0,0,0,0,0,0,0,0,0,-1,594,1513,0,0
-623,-489,0,0,0,0,0,0,0,0,0,-1,601,1513,0,0
-616,-489,0,0,0,0,0,0,0,0,0,-1,608,1513,0,0
-609,-489,0,0,0,0,0,0,0,0,0,-1,615,1513,0,0
-602,-489,0,0,0,0,0,0,0,0,0,-1,622,1513,0,0
-595,-489,0,0,0,0,0,0,0,0,0,-1,629,1513,0,0
-588,-489,0,0,0,0,0,0,0,0,0,-1,636,1513,0,0
-581,-489,0,0,0,0,0,0,0,0,0,-1,643,1513,0,0
-574,-489,0,0,0,0,0,0,0,0,0,-1,650,1513,0,0
-567,-489,0,0,0,0,0,0,0,0,0,-1,657,1513,0,0
-560,-489,0,0,0,0,0,0,0,0,0,-1,664,1513,0,0
-553,-489,-9.42206,8.5116,0,0,0,0,0,0,0,-1,671,1513,-9.42205,-8.51158
-546,-489,-7.80951,8.18506,0,0,0,0,0,0,0,-1,678,1513,-7.8095,-8.18503
-539,-489,-3.61237,7.19727,0,0,0,0,0,0,0,-1,685,1513,-3.61238,-7.19723
-532,-489,-4.50549,6.11157,0,0,0,0,0,0,0,-1,692,1513,-4.50552,-6.11158
-525,-489,-3.37402,5.43018,0,0,0,0,0,0,0,-1,699,1513,-3.37403,-5.43017
-518,-489,-2.64478,5.17969,0.115797,-0.0167331,0.0160633,0.117716,-0.0186522,0.118912,0.0853764,0.0452782,706,1513,-2.64479,-5.17974
-511,-489,-1.74908,4.92273,0.0875493,-0.00636877,0.00884094,0.0883743,-0.00719376,0.0930455,0.0614546,0.0496947,713,1513,-1.74905,-4.92271
-504,-489,-1.22278,4.84229,0.0643016,0.000178683,0.00401651,0.0645522,-7.19242e-05,0.062313,0.0430588,0.0454882,720,1513,-1.22277,-4.84229
-497,-489,-0.970459,5.11035,0.0457781,0.00342507,0.000978264,0.0458006,0.00340249,0.0230815,0.0294652,0.036091,727,1513,-0.970443,-5.11036
-490,-489,-1.2514,5.62427,0.0313811,0.00491332,-0.000620653,0.0313957,0.00489877,-0.0234322,0.0195037,0.0205137,734,1513,-1.25141,-5.62427
-483,-489,-1.31244,5.84082,0.0204711,0.00747947,-0.00302794,0.0211421,0.00680841,-0.218097,0.0124615,0.0106882,741,1513,-1.31243,-5.84083
-476,-489,-1.30634,6.08069,0.0120456,0.00659477,-0.0028382,0.0132551,0.0053853,-0.402833,0.00769749,0.00917087,748,1513,-1.30632,-6.0807
-469,-489,-1.32092,6.31396,0.00691251,0.00528134,-0.0026903,0.00890813,0.00328571,-0.638223,0.00520176,0.0100307,755,1513,-1.32095,-6.31402
-462,-489,-1.31976,6.56604,0.00391272,0.00301544,-0.00184502,0.00536286,0.00156529,-0.666132,0.0031844,0.0155632,762,1513,-1.31975,-6.56606
-455,-489,-1.31897,6.80273,0.00272643,0.000321164,-0.00113403,0.00317678,-0.000129183,-0.378023,0.0021622,0.0199038,769,1513,-1.31896,-6.80268
-448,-489,-1.32928,7.00842,0.00320722,-0.00193289,-0.00100182,0.00339557,-0.00212125,-0.185843,0.00321333,0.0176294,776,1513,-1.32929,-7.0084
-441,-489,-1.31403,7.27271,0.00410268,-0.00405674,-0.000965848,0.00421545,-0.00416952,-0.116232,0.00484109,0.0146343,783,1513,-1.31401,-7.27268
-434,-489,-1.32971,7.51062,0.00517055,-0.00645786,-0.00104624,0.00526393,-0.00655124,-0.0890197,0.00683497,0.0164844,790,1513,-1.32972,-7.51056
-427,-489,-1.35321,7.77197,0.00673377,-0.00900599,-0.00142238,0.00686128,-0.00913349,-0.0894034,0.00926559,0.0191091,797,1513,-1.35323,-7.77201
-420,-489,-1.35413,8.08826,0.00855633,-0.0122,-0.00188446,0.00872603,-0.0123697,-0.0898111,0.0122401,0.0189084,804,1513,-1.35415,-8.08822
-413,-489,-1.09784,8.22217,0.0106596,-0.0166113,-0.00191251,0.0107931,-0.0167448,-0.0696757,0.0160223,0.026647,811,1513,-1.09782,-8.22222
-406,-489,-0.956299,8.54053,0,0,0,0,0,0,0,-1,818,1513,-0.956276,-8.5405
-399,-489,-1.05585,8.1781,0.014873,-0.0275968,-0.00304949,0.0150908,-0.0278146,-0.0713162,0.0251319,0.0407319,825,1513,-1.05587,-8.17816
-392,-489,-0.529602,8.28918,0,0,0,0,0,0,0,-1,832,1513,-0.529578,-8.28913
-385,-489,-0.643188,8.33447,0,0,0,0,0,0,0,-1,839,1513,-0.643178,-8.33451
-378,-489,-1.90674,9.91614,0,0,0,0,0,0,0,-1,846,1513,-1.90676,-9.91609
-371,-489,-1.11633,10.6606,0,0,0,0,0,0,0,-1,853,1513,-1.11633,-10.6606
-364,-489,-0.503113,8.98486,0,0,0,0,0,0,0,-1,860,1513,-0.503097,-8.98482
-357,-489,-0.609924,10.9606,0,0,0,0,0,0,0,-1,867,1513,-0.609947,-10.9605
-350,-489,-7.94659,-0.358887,0,0,0,0,0,0,0,-1,874,1513,-7.94657,0.358912
-343,-489,-7.49323,-0.437866,0,0,0,0,0,0,0,-1,881,1513,-7.49322,0.437823
-336,-489,-7.02332,-0.53125,0,0,0,0,0,0,0,-1,888,1513,-7.0233,0.531295
-329,-489,-6.70221,-0.242432,0,0,0,0,0,0,0,-1,895,1513,-6.70221,0.2424
-322,-489,0,0,0,0,0,0,0,0,0,-1,902,1513,0,0
-315,-489,0,0,0,0,0,0,0,0,0,-1,909,1513,0,0
-308,-489,0,0,0,0,0,0,0,0,0,-1,916,1513,0,0
-301,-489,0,0,0,0,0,0,0,0,0,-1,923,1513,0,0
-294,-489,0,0,0,0,0,0,0,0,0,-1,930,1513,0,0
-287,-489,0,0,0,0,0,0,0,0,0,-1,937,1513,0,0
-280,-489,0,0,0,0,0,0,0,0,0,-1,944,1513,0,0
-273,-489,0,0,0,0,0,0,0,0,0,-1,951,1513,0,0
-266,-489,0,0,0,0,0,0,0,0,0,-1,958,1513,0,0
-259,-489,0,0,0,0,0,0,0,0,0,-1,965,1513,0,0
-252,-489,0,0,0,0,0,0,0,0,0,-1,972,1513,0,0
-245,-489,0,0,0,0,0,0,0,0,0,-1,979,1513,0,0
-238,-489,0,0,0,0,0,0,0,0,0,-1,986,1513,0,0
-231,-489,0,0,0,0,0,0,0,0,0,-1,993,1513,0,0
-224,-489,0,0,0,0,0,0,0,0,0,-1,1000,1513,0,0
-217,-489,0,0,0,0,0,0,0,0,0,-1,1007,1513,0,0
-210,-489,0,0,0,0,0,0,0,0,0,-1,1014,1513,0,0
-203,-489,0,0,0,0,0,0,0,0,0,-1,1021,1513,0,0
-196,-489,0,0,0,0,0,0,0,0,0,-1,1028,1513,0,0
-189,-489,0,0,0,0,0,0,0,0,0,-1,1035,1513,0,0
-182,-489,0,0,0,0,0,0,0,0,0,-1,1042,1513,0,0
-175,-489,0,0,0,0,0,0,0,0,0,-1,1049,1513,0,0
-168,-489,0,0,0,0,0,0,0,0,0,-1,1056,1513,0,0
-161,-489,0,0,0,0,0,0,0,0,0,-1,1063,1513,0,0
-154,-489,0,0,0,0,0,0,0,0,0,-1,1070,1513,0,0
-147,-489,0,0,0,0,0,0,0,0,0,-1,1077,1513,0,0
-140,-489,0,0,0,0,0,0,0,0,0,-1,1084,1513,0,0
-133,-489,0,0,0,0,0,0,0,0,0,-1,1091,1513,0,0
-126,-489,0,0,0,0,0,0,0,0,0,-1,1098,1513,0,0
-119,-489,0,0,0,0,0,0,0,0,0,-1,1105,1513,0,0
-112,-489,0,0,0,0,0,0,0,0,0,-1,1112,1513,0,0
-105,-489,0,0,0,0,0,0,0,0,0,-1,1119,1513,0,0
-98,-489,0,0,0,0,0,0,0,0,0,-1,1126,1513,0,0
-91,-489,0,0,0,0,0,0,0,0,0,-1,1133,1513,0,0
-84,-489,0,0,0,0,0,0,0,0,0,-1,1140,1513,0,0
-77,-489,0,0,0,0,0,0,0,0,0,-1,1147,1513,0,0
-70,-489,0,0,0,0,0,0,0,0,0,-1,1154,1513,0,0
-63,-489,0,0,0,0,0,0,0,0,0,-1,1161,1513,0,0
-56,-489,0,0,0,0,0,0,0,0,0,-1,1168,1513,0,0
-49,-489,0,0,0,0,0,0,0,0,0,-1,1175,1513,0,0
-42,-489,0,0,0,0,0,0,0,0,0,-1,1182,1513,0,0
-35,-489,0,0,0,0,0,0,0,0,0,-1,1189,1513,0,0
-28,-489,0,0,0,0,0,0,0,0,0,-1,1196,1513,0,0
-21,-489,0,0,0,0,0,0,0,0,0,-1,1203,1513,0,0
-14,-489,0,0,0,0,0,0,0,0,0,-1,1210,1513,0,0
-7,-489,0,0,0,0,0,0,0,0,0,-1,1217,1513,0,0
0,-489,0,0,0,0,0,0,0,0,0,-1,1224,1513,0,0
7,-489,0,0,0,0,0,0,0,0,0,-1,1231,1513,0,0
14,-489,0,0,0,0,0,0,0,0,0,-1,1238,1513,0,0
21,-489,0,0,0,0,0,0,0,0,0,-1,1245,1513,0,0
28,-489,0,0,0,0,0,0,0,0,0,-1,1252,1513,0,0
35,-489,0,0,0,0,0,0,0,0,0,-1,1259,1513,0,0
42,-489,0,0,0,0,0,0,0,0,0,-1,1266,1513,0,0
49,-489,0,0,0,0,0,0,0,0,0,-1,1273,1513,0,0
56,-489,0,0,0,0,0,0,0,0,0,-1,1280,1513,0,0
63,-489,0,0,0,0,0,0,0,0,0,-1,1287,1513,0,0
70,-489,0,0,0,0,0,0,0,0,0,-1,1294,1513,0,0
77,-489,0,0,0,0,0,0,0,0,0,-1,1301,1513,0,0
84,-489,0,0,0,0,0,0,0,0,0,-1,1308,1513,0,0
91,-489,0,0,0,0,0,0,0,0,0,-1,1315,1513,0,0
98,-489,0,0,0,0,0,0,0,0,0,-1,1322,1513,0,0
105,-489,0,0,0,0,0,0,0,0,0,-1,1329,1513,0,0
112,-489,0,0,0,0,0,0,0,0,0,-1,1336,1513,0,0
119,-489,0,0,0,0,0,0,0,0,0,-1,1343,1513,0,0
126,-489,0,0,0,0,0,0,0,0,0,-1,1350,1513,0,0
133,-489,0,0,0,0,0,0,0,0,0,-1,1357,1513,0,0
140,-489,0,0,0,0,0,0,0,0,0,-1,1364,1513,0,0
147,-489,0,0,0,0,0,0,0,0,0,-1,1371,1513,0,0
154,-489,0,0,0,0,0,0,0,0,0,-1,1378,1513,0,0
161,-489,0,0,0,0,0,0,0,0,0,-1,1385,1513,0,0
168,-489,0,0,0,0,0,0,0,0,0,-1,1392,1513,0,0
175,-489,0,0,0,0,0,0,0,0,0,-1,1399,1513,0,0
182,-489,0,0,0,0,0,0,0,0,0,-1,1406,1513,0,0
189,-489,0,0,0,0,0,0,0,0,0,-1,1413,1513,0,0
196,-489,0,0,0,0,0,0,0,0,0,-1,1420,1513,0,0
203,-489,0,0,0,0,0,0,0,0,0,-1,1427,1513,0,0
210,-489,0,0,0,0,0,0,0,0,0,-1,1434,1513,0,0
217,-489,0,0,0,0,0,0,0,0,0,-1,1441,1513,0,0
224,-489,0,0,0,0,0,0,0,0,0,-1,1448,1513,0,0
231,-489,0,0,0,0,0,0,0,0,0,-1,1455,1513,0,0
238,-489,0,0,0,0,0,0,0,0,0,-1,1462,1513,0,0
245,-489,0,0,0,0,0,0,0,0,0,-1,1469,1513,0,0
252,-489,0,0,0,0,0,0,0,0,0,-1,1476,1513,0,0
259,-489,0,0,0,0,0,0,0,0,0,-1,1483,1513,0,0
266,-489,0,0,0,0,0,0,0,0,0,-1,1490,1513,0,0
273,-489,0,0,0,0,0,0,0,0,0,-1,1497,1513,0,0
280,-489,0,0,0,0,0,0,0,0,0,-1,1504,1513,0,0
287,-489,0,0,0,0,0,0,0,0,0,-1,1511,1513,0,0
294,-489,0,0,0,0,0,0,0,0,0,-1,1518,1513,0,0
301,-489,0,0,0,0,0,0,0,0,0,-1,1525,1513,0,0
308,-489,0,0,0,0,0,0,0,0,0,-1,1532,1513,0,0
315,-489,0,0,0,0,0,0,0,0,0,-1,1539,1513,0,0
322,-489,0,0,0,0,0,0,0,0,0,-1,1546,1513,0,0
329,-489,0,0,0,0,0,0,0,0,0,-1,1553,1513,0,0
336,-489,0,0,0,0,0,0,0,0,0,-1,1560,1513,0,0
343,-489,0,0,0,0,0,0,0,0,0,-1,1567,1513,0,0
350,-489,0,0,0,0,0,0,0,0,0,-1,1574,1513,0,0
357,-489,0,0,0,0,0,0,0,0,0,-1,1581,1513,0,0
364,-489,0,0,0,0,0,0,0,0,0,-1,1588,1513,0,0
371,-489,0,0,0,0,0,0,0,0,0,-1,1595,1513,0,0
378,-489,0,0,0,0,0,0,0,0,0,-1,1602,1513,0,0
385,-489,0,0,0,0,0,0,0,0,0,-1,1609,1513,0,0
392,-489,0,0,0,0,0,0,0,0,0,-1,1616,1513,0,0
399,-489,0,0,0,0,0,0,0,0,0,-1,1623,1513,0,0
406,-489,0,0,0,0,0,0,0,0,0,-1,1630,1513,0,0
413,-489,0,0,0,0,0,0,0,0,0,-1,1637,1513,0,0
420,-489,0,0,0,0,0,0,0,0,0,-1,1644,1513,0,0
427,-489,0,0,0,0,0,0,0,0,0,-1,1651,1513,0,0
434,-489,0,0,0,0,0,0,0,0,0,-1,1658,1513,0,0
441,-489,11.4602,2.56787,0,0,0,0,0,0,0,-1,1665,1513,11.4602,-2.56786
448,-489,12.4425,1.72351,0,0,0,0,0,0,0,-1,1672,1513,12.4425,-1.72349
455,-489,12.5575,1.37463,0,0,0,0,0,0,0,-1,1679,1513,12.5575,-1.37469
462,-489,14.9784,3.84888,0,0,0,0,0,0,0,-1,1686,1513,14.9784,-3.84892
469,-489,15.1367,4.53101,0,0,0,0,0,0,0,-1,1693,1513,15.1368,-4.531
476,-489,15.5536,5.09338,0,0,0,0,0,0,0,-1,1700,1513,15.5536,-5.09339
483,-489,8.96912,8.37805,0,0,0,0,0,0,0,-1,1707,1513,8.96909,-8.37809
490,-489,10.9624,6.73401,0,0,0,0,0,0,0,-1,1714,1513,10.9624,-6.73406
497,-489,14.1656,6.16113,0,0,0,0,0,0,0,-1,1721,1513,14.1657,-6.16109
504,-489,13.0377,6.4032,0,0,0,0,0,0,0,-1,1728,1513,13.0378,-6.40321
511,-489,11.9098,6.64539,0,0,0,0,0,0,0,-1,1735,1513,11.9098,-6.64534
518,-489,10.774,9.41284,0,0,0,0,0,0,0,-1,1742,1513,10.774,-9.41281
525,-489,10.5895,9.84717,0,0,0,0,0,0,0,-1,1749,1513,10.5895,-9.84717
532,-489,10.5717,9.72974,-0.0144633,-0.0210095,0.0210322,0.0035489,-0.0390217,0.708206,0.0272745,0.0370087,1756,1513,10.5717,-9.72978
539,-489,10.4668,9.73413,-0.010399,-0.0159125,0.0163177,0.00339314,-0.0297047,0.701717,0.0210257,0.0172334,1763,1513,10.4669,-9.73412
546,-489,10.3748,9.61475,-0.00736792,-0.0121591,0.0125991,0.00306136,-0.0225883,0.691451,0.0161762,0.0112069,1770,1513,10.3747,-9.61475
553,-489,10.3809,9.42798,-0.00511036,-0.00910986,0.00956074,0.00265753,-0.0168777,0.682303,0.0122343,0.0135776,1777,1513,10.3808,-9.42795
560,-489,10.3955,9.20276,-0.00334838,-0.00661002,0.00701521,0.00222308,-0.0121815,0.671192,0.00895447,0.0128467,1784,1513,10.3955,-9.20271
567,-489,10.399,9.00293,-0.0016378,-0.00443237,0.0046799,0.00184896,-0.00791913,0.640325,0.0059916,0.014213,1791,1513,10.3991,-9.00294
574,-489,10.3547,8.83093,-0.000301948,-0.00255442,0.0029663,0.00174472,-0.00460109,0.603966,0.00378545,0.0136891,1798,1513,10.3547,-8.83094
581,-489,10.3607,8.60522,0.000617997,-0.00124405,0.0016803,0.00160797,-0.00223402,0.532413,0.00222797,0.0100452,1805,1513,10.3607,-8.60522
588,-489,10.3743,8.39343,0.0010117,0.000222318,-9.57124e-05,0.00102314,0.000210878,-0.118954,0.000623796,0.0125144,1812,1513,10.3743,-8.39346
595,-489,10.3816,8.16711,0.00162501,0.00117497,-0.00134835,0.00276698,3.29899e-05,-0.702717,0.00183376,0.0182824,1819,1513,10.3816,-8.1671
602,-489,10.3972,7.9259,0.00210943,0.00214467,-0.00250337,0.00463048,-0.000376383,-0.788917,0.00321979,0.0230152,1826,1513,10.3972,-7.92588
609,-489,10.3801,7.72632,0.00250662,0.00307758,-0.00379264,0.00659547,-0.00101127,-0.822963,0.00476994,0.0160588,1833,1513,10.3802,-7.72633
616,-489,10.3621,7.52637,0.00296658,0.0041283,-0.00546215,0.00904039,-0.00194551,-0.83837,0.00676927,0.00992347,1840,1513,10.3621,-7.52632
623,-489,10.3973,7.34583,0.00321367,0.00530534,-0.00746683,0.0117992,-0.00328021,-0.854978,0.00915752,0.0157997,1847,1513,10.3974,-7.34578
630,-489,10.3507,7.23767,0.00335311,0.00693423,-0.0101219,0.0154227,-0.00513535,-0.872943,0.0123546,0.0359808,1854,1513,10.3507,-7.23767
637,-489,9.47937,7.21777,0.00361179,0.00907693,-0.0136678,0.0202826,-0.00759391,-0.884061,0.016641,0.0477087,1861,1513,9.47942,-7.21777
644,-489,8.78601,7.17261,0,0,0,0,0,0,0,-1,1868,1513,8.78597,-7.17259
651,-489,6.13818,6.85095,0,0,0,0,0,0,0,-1,1875,1513,6.13823,-6.85097
658,-489,5.43848,7.75513,0,0,0,0,0,0,0,-1,1882,1513,5.43844,-7.75509
665,-489,5.48438,8.59912,0,0,0,0,0,0,0,-1,1889,1513,5.48434,-8.59907
672,-489,0,0,0,0,0,0,0,0,0,-1,1896,1513,0,0
679,-489,0,0,0,0,0,0,0,0,0,-1,1903,1513,0,0
686,-489,0,0,0,0,0,0,0,0,0,-1,1910,1513,0,0
693,-489,0,0,0,0,0,0,0,0,0,-1,1917,1513,0,0
700,-489,0,0,0,0,0,0,0,0,0,-1,1924,1513,0,0
707,-489,0,0,0,0,0,0,0,0,0,-1,1931,1513,0,0
714,-489,0,0,0,0,0,0,0,0,0,-1,1938,1513,0,0
721,-489,0,0,0,0,0,0,0,0,0,-1,1945,1513,0,0
728,-489,0,0,0,0,0,0,0,0,0,-1,1952,1513,0,0
735,-489,0,0,0,0,0,0,0,0,0,-1,1959,1513,0,0
742,-489,0,0,0,0,0,0,0,0,0,-1,1966,1513,0,0
749,-489,0,0,0,0,0,0,0,0,0,-1,1973,1513,0,0
756,-489,0,0,0,0,0,0,0,0,0,-1,1980,1513,0,0
763,-489,0,0,0,0,0,0,0,0,0,-1,1987,1513,0,0
770,-489,0,0,0,0,0,0,0,0,0,-1,1994,1513,0,0
777,-489,0,0,0,0,0,0,0,0,0,-1,2001,1513,0,0
784,-489,0,0,0,0,0,0,0,0,0,-1,2008,1513,0,0
791,-489,0,0,0,0,0,0,0,0,0,-1,2015,1513,0,0
798,-489,0,0,0,0,0,0,0,0,0,-1,2022,1513,0,0
805,-489,0,0,0,0,0,0,0,0,0,-1,2029,1513,0,0
812,-489,0,0,0,0,0,0,0,0,0,-1,2036,1513,0,0
-700,-496,0,0,0,0,0,0,0,0,0,-1,524,1520,0,0
-693,-496,0,0,0,0,0,0,0,0,0,-1,531,1520,0,0
-686,-496,0,0,0,0,0,0,0,0,0,-1,538,1520,0,0
-679,-496,0,0,0,0,0,0,0,0,0,-1,545,1520,0,0
-672,-496,0,0,0,0,0,0,0,0,0,-1,552,1520,0,0
-665,-496,0,0,0,0,0,0,0,0,0,-1,559,1520,0,0
-658,-496,0,0,0,0,0,0,0,0,0,-1,566,1520,0,0
-651,-496,0,0,0,0,0,0,0,0,0,-1,573,1520,0,0
-644,-496,0,0,0,0,0,0,0,0,0,-1,580,1520,0,0
-637,-496,0,0,0,0,0,0,0,0,0,-1,587,1520,0,0
-630,-496,0,0,0,0,0,0,0,0,0,-1,594,1520,0,0
-623,-496,0,0,0,0,0,0,0,0,0,-1,601,1520,0,0
-616,-496,0,0,0,0,0,0,0,0,0,-1,608,1520,0,0
-609,-496,0,0,0,0,0,0,0,0,0,-1,615,1520,0,0
-602,-496,0,0,0,0,0,0,0,0,0,-1,622,1520,0,0
-595,-496,0,0,0,0,0,0,0,0,0,-1,629,1520,0,0
-588,-496,0,0,0,0,0,0,0,0,0,-1,636,1520,0,0
-581,-496,0,0,0,0,0,0,0,0,0,-1,643,1520,0,0
-574,-496,0,0,0,0,0,0,0,0,0,-1,650,1520,0,0
-567,-496,0,0,0,0,0,0,0,0,0,-1,657,1520,0,0
-560,-496,0,0,0,0,0,0,0,0,0,-1,664,1520,0,0
-553,-496,0,0,0,0,0,0,0,0,0,-1,671,1520,0,0
-546,-496,-8.09711,7.94836,0,0,0,0,0,0,0,-1,678,1520,-8.09712,-7.94842
-539,-496,-3.05109,6.33447,0,0,0,0,0,0,0,-1,685,1520,-3.05107,-6.33446
-532,-496,-3.93634,6.00793,0,0,0,0,0,0,0,-1,692,1520,-3.93635,-6.00799
-525,-496,-2.98859,5.55469,0,0,0,0,0,0,0,-1,699,1520,-2.98857,-5.55472
-518,-496,-2.26318,4.93286,0.131394,-0.0138917,0.011446,0.132291,-0.0147879,0.0781402,0.0935137,0.0488078,706,1520,-2.26317,-4.93282
-511,-496,-1.00018,4.40259,0.0989759,-0.00257367,0.00532432,0.0992543,-0.00285207,0.0522398,0.0671404,0.0480847,713,1520,-1.00016,-4.40263
-504,-496,-0.755432,4.47424,0,0,0,0,0,0,0,-1,720,1520,-0.755459,-4.47429
-497,-496,-0.92218,5.65344,0,0,0,0,0,0,0,-1,727,1520,-0.922157,-5.65339
-490,-496,-0.976013,5.76611,0.0349733,0.00879708,-0.00175747,0.0350908,0.00867961,-0.0667406,0.0211042,0.0350391,734,1520,-0.976019,-5.76611
-483,-496,-1.04724,5.90869,0.0226798,0.0107069,-0.00367831,0.0237196,0.00966717,-0.275484,0.0137723,0.0186535,741,1520,-1.04723,-5.90868
-476,-496,-1.08374,6.0946,0.0132077,0.0093493,-0.00296105,0.0148126,0.00774443,-0.496674,0.00855501,0.0108649,748,1520,-1.08371,-6.09455
-469,-496,-1.09125,6.33594,0.00740565,0.00765041,-0.00248386,0.0100149,0.00504116,-0.810014,0.00578215,0.0105255,755,1520,-1.09128,-6.33598
-462,-496,-1.08856,6.5697,0.00387902,0.00510521,-0.00141698,0.00603604,0.00294819,-0.989577,0.00348522,0.0158959,762,1520,-1.08859,-6.56969
-455,-496,-1.09326,6.79028,0.00233564,0.00221786,-0.000529692,0.00280971,0.0017438,-0.730037,0.00163785,0.0212054,769,1520,-1.09326,-6.79027
-448,-496,-1.09192,7.02405,0.00255068,-3.70003e-05,-0.000301379,0.00258531,-7.16373e-05,-0.114427,0.00174791,0.0196915,776,1520,-1.09193,-7.02403
-441,-496,-1.07538,7.28235,0.00320533,-0.00205152,-0.000185261,0.00321185,-0.00205804,-0.0351836,0.00306679,0.0145056,783,1520,-1.07537,-7.28235
-434,-496,-1.0899,7.50854,0.00391822,-0.00427571,-0.000167721,0.00392165,-0.00427915,-0.0204575,0.00473623,0.0132462,790,1520,-1.08991,-7.50851
-427,-496,-1.08429,7.74243,0.0052195,-0.0065151,-0.000456793,0.00523725,-0.00653285,-0.0388487,0.00680918,0.0172762,797,1520,-1.08432,-7.74243
-420,-496,-1.07092,7.99963,0.00686566,-0.0092435,-0.000860666,0.00691151,-0.00928935,-0.0532252,0.00938709,0.0180934,804,1520,-1.07095,-7.99962
-413,-496,-1.02966,8.24402,0.00873132,-0.0130646,-0.000841708,0.00876378,-0.013097,-0.0385413,0.0127037,0.0164858,811,1520,-1.02966,-8.24403
-406,-496,-0.947021,8.55615,0,0,0,0,0,0,0,-1,818,1520,-0.947012,-8.55612
-399,-496,-0.880981,8.72974,0,0,0,0,0,0,0,-1,825,1520,-0.880969,-8.72978
-392,-496,-0.865356,8.50769,0,0,0,0,0,0,0,-1,832,1520,-0.86534,-8.50768
-385,-496,-0.626892,8.61536,0,0,0,0,0,0,0,-1,839,1520,-0.626864,-8.61531
-378,-496,-0.677917,8.65173,0,0,0,0,0,0,0,-1,846,1520,-0.677931,-8.65175
-371,-496,0.256165,8.99756,0,0,0,0,0,0,0,-1,853,1520,0.25617,-8.9975
-364,-496,0.0881348,10.6422,0,0,0,0,0,0,0,-1,860,1520,0.0881368,-10.6423
-357,-496,0.323792,7.56812,0,0,0,0,0,0,0,-1,867,1520,0.323782,-7.56806
-350,-496,2.1535,7.18945,0,0,0,0,0,0,0,-1,874,1520,2.15348,-7.1894
-343,-496,-7.56244,0.335327,0,0,0,0,0,0,0,-1,881,1520,-7.56242,-0.335322
-336,-496,-3.99249,6.02222,0,0,0,0,0,0,0,-1,888,1520,-3.99246,-6.0222
-329,-496,-6.93689,-0.100342,0,0,0,0,0,0,0,-1,895,1520,-6.93686,0.1003
-322,-496,-6.17505,0.494385,0,0,0,0,0,0,0,-1,902,1520,-6.17507,-0.49437
-315,-496,-5.46338,1.0459,0,0,0,0,0,0,0,-1,909,1520,-5.46338,-1.04587
-308,-496,0,0,0,0,0,0,0,0,0,-1,916,1520,0,0
-301,-496,0,0,0,0,0,0,0,0,0,-1,923,1520,0,0
-294,-496,0,0,0,0,0,0,0,0,0,-1,930,1520,0,0
-287,-496,0,0,0,0,0,0,0,0,0,-1,937,1520,0,0
-280,-496,0,0,0,0,0,0,0,0,0,-1,944,1520,0,0
-273,-496,0,0,0,0,0,0,0,0,0,-1,951,1520,0,0
-266,-496,0,0,0,0,0,0,0,0,0,-1,958,1520,0,0
-259,-496,0,0,0,0,0,0,0,0,0,-1,965,1520,0,0
-252,-496,0,0,0,0,0,0,0,0,0,-1,972,1520,0,0
-245,-496,0,0,0,0,0,0,0,0,0,-1,979,1520,0,0
-238,-496,0,0,0,0,0,0,0,0,0,-1,986,1520,0,0
-231,-496,0,0,0,0,0,0,0,0,0,-1,993,1520,0,0
-224,-496,0,0,0,0,0,0,0,0,0,-1,1000,1520,0,0
-217,-496,0,0,0,0,0,0,0,0,0,-1,1007,1520,0,0
-210,-496,0,0,0,0,0,0,0,0,0,-1,1014,1520,0,0
-203,-496,0,0,0,0,0,0,0,0,0,-1,1021,1520,0,0
-196,-496,0,0,0,0,0,0,0,0,0,-1,1028,1520,0,0
-189,-496,0,0,0,0,0,0,0,0,0,-1,1035,1520,0,0
-182,-496,0,0,0,0,0,0,0,0,0,-1,1042,1520,0,0
-175,-496,0,0,0,0,0,0,0,0,0,-1,1049,1520,0,0
-168,-496,0,0,0,0,0,0,0,0,0,-1,1056,1520,0,0
-161,-496,0,0,0,0,0,0,0,0,0,-1,1063,1520,0,0
-154,-496,0,0,0,0,0,0,0,0,0,-1,1070,1520,0,0
-147,-496,0,0,0,0,0,0,0,0,0,-1,1077,1520,0,0
-140,-496,0,0,0,0,0,0,0,0,0,-1,1084,1520,0,0
-133,-496,0,0,0,0,0,0,0,0,0,-1,1091,1520,0,0
-126,-496,0,0,0,0,0,0,0,0,0,-1,1098,1520,0,0
-119,-496,0,0,0,0,0,0,0,0,0,-1,1105,1520,0,0
-112,-496,0,0,0,0,0,0,0,0,0,-1,1112,1520,0,0
-105,-496,0,0,0,0,0,0,0,0,0,-1,1119,1520,0,0
-98,-496,0,0,0,0,0,0,0,0,0,-1,1126,1520,0,0
-91,-496,0,0,0,0,0,0,0,0,0,-1,1133,1520,0,0
-84,-496,0,0,0,0,0,0,0,0,0,-1,1140,1520,0,0
-77,-496,0,0,0,0,0,0,0,0,0,-1,1147,1520,0,0
-70,-496,0,0,0,0,0,0,0,0,0,-1,1154,1520,0,0
-63,-496,0,0,0,0,0,0,0,0,0,-1,1161,1520,0,0
-56,-496,0,0,0,0,0,0,0,0,0,-1,1168,1520,0,0
-49,-496,0,0,0,0,0,0,0,0,0,-1,1175,1520,0,0
-42,-496,0,0,0,0,0,0,0,0,0,-1,1182,1520,0,0
-35,-496,0,0,0,0,0,0,0,0,0,-1,1189,1520,0,0
-28,-496,0,0,0,0,0,0,0,0,0,-1,1196,1520,0,0
-21,-496,0,0,0,0,0,0,0,0,0,-1,1203,1520,0,0
-14,-496,0,0,0,0,0,0,0,0,0,-1,1210,1520,0,0
-7,-496,0,0,0,0,0,0,0,0,0,-1,1217,1520,0,0
0,-496,0,0,0,0,0,0,0,0,0,-1,1224,1520,0,0
7,-496,0,0,0,0,0,0,0,0,0,-1,1231,1520,0,0
14,-496,0,0,0,0,0,0,0,0,0,-1,1238,1520,0,0
21,-496,0,0,0,0,0,0,0,0,0,-1,1245,1520,0,0
28,-496,0,0,0,0,0,0,0,0,0,-1,1252,1520,0,0
35,-496,0,0,0,0,0,0,0,0,0,-1,1259,1520,0,0
42,-496,0,0,0,0,0,0,0,0,0,-1,1266,1520,0,0
49,-496,0,0,0,0,0,0,0,0,0,-1,1273,1520,0,0
56,-496,0,0,0,0,0,0,0,0,0,-1,1280,1520,0,0
63,-496,0,0,0,0,0,0,0,0,0,-1,1287,1520,0,0
70,-496,0,0,0,0,0,0,0,0,0,-1,1294,1520,0,0
77,-496,0,0,0,0,0,0,0,0,0,-1,1301,1520,0,0
84,-496,0,0,0,0,0,0,0,0,0,-1,1308,1520,0,0
91,-496,0,0,0,0,0,0,0,0,0,-1,1315,1520,0,0
98,-496,0,0,0,0,0,0,0,0,0,-1,1322,1520,0,0
105,-496,0,0,0,0,0,0,0,0,0,-1,1329,1520,0,0
112,-496,0,0,0,0,0,0,0,0,0,-1,1336,1520,0,0
119,-496,0,0,0,0,0,0,0,0,0,-1,1343,1520,0,0
126,-496,0,0,0,0,0,0,0,0,0,-1,1350,1520,0,0
133,-496,0,0,0,0,0,0,0,0,0,-1,1357,1520,0,0
140,-496,0,0,0,0,0,0,0,0,0,-1,1364,1520,0,0
147,-496,0,0,0,0,0,0,0,0,0,-1,1371,1520,0,0
154,-496,0,0,0,0,0,0,0,0,0,-1,1378,1520,0,0
161,-496,0,0,0,0,0,0,0,0,0,-1,1385,1520,0,0
168,-496,0,0,0,0,0,0,0,0,0,-1,1392,1520,0,0
175,-496,0,0,0,0,0,0,0,0,0,-1,1399,1520,0,0
182,-496,0,0,0,0,0,0,0,0,0,-1,1406,1520,0,0
189,-496,0,0,0,0,0,0,0,0,0,-1,1413,1520,0,0
196,-496,0,0,0,0,0,0,0,0,0,-1,1420,1520,0,0
203,-496,0,0,0,0,0,0,0,0,0,-1,1427,1520,0,0
210,-496,0,0,0,0,0,0,0,0,0,-1,1434,1520,0,0
217,-496,0,0,0,0,0,0,0,0,0,-1,1441,1520,0,0
224,-496,0,0,0,0,0,0,0,0,0,-1,1448,1520,0,0
231,-496,0,0,0,0,0,0,0,0,0,-1,1455,1520,0,0
238,-496,0,0,0,0,0,0,0,0,0,-1,1462,1520,0,0
245,-496,0,0,0,0,0,0,0,0,0,-1,1469,1520,0,0
252,-496,0,0,0,0,0,0,0,0,0,-1,1476,1520,0,0
259,-496,0,0,0,0,0,0,0,0,0,-1,1483,1520,0,0
266,-496,0,0,0,0,0,0,0,0,0,-1,1490,1520,0,0
273,-496,0,0,0,0,0,0,0,0,0,-1,1497,1520,0,0
280,-496,0,0,0,0,0,0,0,0,0,-1,1504,1520,0,0
287,-496,0,0,0,0,0,0,0,0,0,-1,1511,1520,0,0
294,-496,0,0,0,0,0,0,0,0,0,-1,1518,1520,0,0
301,-496,0,0,0,0,0,0,0,0,0,-1,1525,1520,0,0
308,-496,0,0,0,0,0,0,0,0,0,-1,1532,1520,0,0
315,-496,0,0,0,0,0,0,0,0,0,-1,1539,1520,0,0
322,-496,0,0,0,0,0,0,0,0,0,-1,1546,1520,0,0
329,-496,0,0,0,0,0,0,0,0,0,-1,1553,1520,0,0
336,-496,0,0,0,0,0,0,0,0,0,-1,1560,1520,0,0
343,-496,0,0,0,0,0,0,0,0,0,-1,1567,1520,0,0
350,-496,0,0,0,0,0,0,0,0,0,-1,1574,1520,0,0
357,-496,0,0,0,0,0,0,0,0,0,-1,1581,1520,0,0
364,-496,0,0,0,0,0,0,0,0,0,-1,1588,1520,0,0
371,-496,0,0,0,0,0,0,0,0,0,-1,1595,1520,0,0
378,-496,0,0,0,0,0,0,0,0,0,-1,1602,1520,0,0
385,-496,0,0,0,0,0,0,0,0,0,-1,1609,1520,0,0
392,-496,0,0,0,0,0,0,0,0,0,-1,1616,1520,0,0
399,-496,0,0,0,0,0,0,0,0,0,-1,1623,1520,0,0
406,-496,0,0,0,0,0,0,0,0,0,-1,1630,1520,0,0
413,-496,0,0,0,0,0,0,0,0,0,-1,1637,1520,0,0
420,-496,0,0,0,0,0,0,0,0,0,-1,1644,1520,0,0
427,-496,0,0,0,0,0,0,0,0,0,-1,1651,1520,0,0
434,-496,11.0457,3.37732,0,0,0,0,0,0,0,-1,1658,1520,11.0456,-3.37736
441,-496,11.788,2.75488,0,0,0,0,0,0,0,-1,1665,1520,11.7879,-2.75485
448,-496,12.2146,2.18494,0,0,0,0,0,0,0,-1,1672,1520,12.2146,-2.18489
455,-496,12.3489,1.65173,0,0,0,0,0,0,0,-1,1679,1520,12.3489,-1.65178
462,-496,12.1912,1.32361,0,0,0,0,0,0,0,-1,1686,1520,12.1911,-1.32357
469,-496,14.8138,5.77954,0,0,0,0,0,0,0,-1,1693,1520,14.8138,-5.77958
476,-496,15.2449,6.27942,0,0,0,0,0,0,0,-1,1700,1520,15.2449,-6.27936
483,-496,8.92578,2.27734,0,0,0,0,0,0,0,-1,1707,1520,8.92574,-2.27738
490,-496,12.4607,9.6521,0,0,0,0,0,0,0,-1,1714,1520,12.4607,-9.65212
497,-496,12.1858,10.3208,0,0,0,0,0,0,0,-1,1721,1520,12.1858,-10.3208
504,-496,12.4513,6.927,0,0,0,0,0,0,0,-1,1728,1520,12.4513,-6.92698
511,-496,11.5242,9.8313,0,0,0,0,0,0,0,-1,1735,1520,11.5242,-9.83128
518,-496,10.6984,9.65649,-0.0257234,-0.0314549,0.0293621,0.000912508,-0.0580908,0.736753,0.0390349,0.048765,1742,1520,10.6983,-9.65646
525,-496,10.2976,9.76001,-0.0192359,-0.0235859,0.0224013,0.00109577,-0.0439176,0.737003,0.0296504,0.0473291,1749,1520,10.2977,-9.76001
532,-496,10.1801,9.96045,-0.0143468,-0.0179948,0.0173208,0.0012458,-0.0335873,0.732938,0.0228181,0.0261826,1756,1520,10.18,-9.96045
539,-496,10.1627,9.8302,-0.0105799,-0.0134445,0.0133216,0.00138622,-0.0254106,0.731846,0.0174209,0.0128397,1763,1520,10.1628,-9.8302
546,-496,10.1421,9.61646,-0.00767424,-0.0101268,0.0101897,0.00136275,-0.0191638,0.725515,0.0132535,0.00944753,1770,1520,10.1421,-9.61643
553,-496,10.1792,9.40466,-0.00539602,-0.00738984,0.00760297,0.00127511,-0.014061,0.72021,0.00982664,0.0139775,1777,1520,10.1793,-9.40467
560,-496,10.2021,9.20422,-0.00350194,-0.00508605,0.00540351,0.00116725,-0.00975524,0.712626,0.00692545,0.0138162,1784,1520,10.2021,-9.20427
567,-496,10.1896,8.99438,-0.00160127,-0.00303959,0.00329823,0.0010553,-0.00569616,0.678056,0.0041937,0.0121682,1791,1520,10.1895,-8.99434
574,-496,10.1665,8.79907,-7.72676e-05,-0.00128282,0.00178149,0.00120066,-0.00256074,0.622266,0.00221846,0.0120467,1798,1520,10.1665,-8.79908
581,-496,10.1559,8.60095,0.00109072,-4.57338e-05,0.000632128,0.00137247,-0.000327489,0.419292,0.00104145,0.0125043,1805,1520,10.1559,-8.601
588,-496,10.1654,8.39209,0.00173186,0.00150563,-0.00117573,0.0027999,0.000437584,-0.73744,0.00173919,0.0147226,1812,1520,10.1654,-8.39212
595,-496,10.1616,8.19824,0.00260263,0.00260463,-0.00248269,0.00508632,0.000120939,-0.785599,0.00335129,0.0161391,1819,1520,10.1616,-8.19818
602,-496,10.1689,7.96948,0.00335829,0.00378324,-0.00381533,0.00739201,-0.000250477,-0.813214,0.00501358,0.0170328,1826,1520,10.169,-7.96944
609,-496,10.17,7.74414,0.00405487,0.00504884,-0.00541196,0.00998659,-0.000882871,-0.831185,0.00697068,0.0140864,1833,1520,10.17,-7.74418
616,-496,10.1735,7.51807,0.00474868,0.00661135,-0.00755652,0.0132937,-0.00193368,-0.846714,0.00957236,0.0123778,1840,1520,10.1734,-7.51804
623,-496,10.2164,7.40479,0.00525721,0.00851832,-0.010261,0.0172775,-0.00350197,-0.864193,0.0128458,0.0263233,1847,1520,10.2164,-7.4048
630,-496,10.104,7.45361,0.00565747,0.0110935,-0.013894,0.0225329,-0.00578192,-0.88199,0.0172748,0.0422871,1854,1520,10.104,-7.45363
637,-496,10.0125,7.54761,0.00619335,0.0145808,-0.0187832,0.0296327,-0.00885861,-0.895231,0.0232769,0.0460756,1861,1520,10.0124,-7.54765
644,-496,9.87634,7.60095,0,0,0,0,0,0,0,-1,1868,1520,9.87639,-7.60101
651,-496,6.02295,6.79968,0,0,0,0,0,0,0,-1,1875,1520,6.02298,-6.79971
658,-496,5.57922,7.42651,0,0,0,0,0,0,0,-1,1882,1520,5.57926,-7.42654
665,-496,5.47583,7.90625,0,0,0,0,0,0,0,-1,1889,1520,5.47581,-7.90628
672,-496,0,0,0,0,0,0,0,0,0,-1,1896,1520,0,0
679,-496,0,0,0,0,0,0,0,0,0,-1,1903,1520,0,0
686,-496,0,0,0,0,0,0,0,0,0,-1,1910,1520,0,0
693,-496,0,0,0,0,0,0,0,0,0,-1,1917,1520,0,0
700,-496,0,0,0,0,0,0,0,0,0,-1,1924,1520,0,0
707,-496,0,0,0,0,0,0,0,0,0,-1,1931,1520,0,0
714,-496,0,0,0,0,0,0,0,0,0,-1,1938,1520,0,0
721,-496,0,0,0,0,0,0,0,0,0,-1,1945,1520,0,0
728,-496,0,0,0,0,0,0,0,0,0,-1,1952,1520,0,0
735,-496,0,0,0,0,0,0,0,0,0,-1,1959,1520,0,0
742,-496,0,0,0,0,0,0,0,0,0,-1,1966,1520,0,0
749,-496,0,0,0,0,0,0,0,0,0,-1,1973,1520,0,0
756,-496,0,0,0,0,0,0,0,0,0,-1,1980,1520,0,0
763,-496,0,0,0,0,0,0,0,0,0,-1,1987,1520,0,0
770,-496,0,0,0,0,0,0,0,0,0,-1,1994,1520,0,0
777,-496,0,0,0,0,0,0,0,0,0,-1,2001,1520,0,0
784,-496,0,0,0,0,0,0,0,0,0,-1,2008,1520,0,0
791,-496,0,0,0,0,0,0,0,0,0,-1,2015,1520,0,0
798,-496,0,0,0,0,0,0,0,0,0,-1,2022,1520,0,0
805,-496,0,0,0,0,0,0,0,0,0,-1,2029,1520,0,0
812,-496,0,0,0,0,0,0,0,0,0,-1,2036,1520,0,0
-700,-503,0,0,0,0,0,0,0,0,0,-1,524,1527,0,0
-693,-503,0,0,0,0,0,0,0,0,0,-1,531,1527,0,0
-686,-503,0,0,0,0,0,0,0,0,0,-1,538,1527,0,0
-679,-503,0,0,0,0,0,0,0,0,0,-1,545,1527,0,0
-672,-503,0,0,0,0,0,0,0,0,0,-1,552,1527,0,0
-665,-503,0,0,0,0,0,0,0,0,0,-1,559,1527,0,0
-658,-503,0,0,0,0,0,0,0,0,0,-1,566,1527,0,0
-651,-503,0,0,0,0,0,0,0,0,0,-1,573,1527,0,0
-644,-503,0,0,0,0,0,0,0,0,0,-1,580,1527,0,0
-637,-503,0,0,0,0,0,0,0,0,0,-1,587,1527,0,0
-630,-503,0,0,0,0,0,0,0,0,0,-1,594,1527,0,0
-623,-503,0,0,0,0,0,0,0,0,0,-1,601,1527,0,0
-616,-503,0,0,0,0,0,0,0,0,0,-1,608,1527,0,0
-609,-503,0,0,0,0,0,0,0,0,0,-1,615,1527,0,0
-602,-503,0,0,0,0,0,0,0,0,0,-1,622,1527,0,0
-595,-503,0,0,0,0,0,0,0,0,0,-1,629,1527,0,0
-588,-503,0,0,0,0,0,0,0,0,0,-1,636,1527,0,0
-581,-503,0,0,0,0,0,0,0,0,0,-1,643,1527,0,0
-574,-503,0,0,0,0,0,0,0,0,0,-1,650,1527,0,0
-567,-503,0,0,0,0,0,0,0,0,0,-1,657,1527,0,0
-560,-503,0,0,0,0,0,0,0,0,0,-1,664,1527,0,0
-553,-503,0,0,0,0,0,0,0,0,0,-1,671,1527,0,0
-546,-503,0,0,0,0,0,0,0,0,0,-1,678,1527,0,0
-539,-503,3.50177,4.26428,0,0,0,0,0,0,0,-1,685,1527,3.50177,-4.26424
-532,-503,2.67603,4.51135,0,0,0,0,0,0,0,-1,692,1527,2.67603,-4.5114
-525,-503,-2.66571,4.99426,0,0,0,0,0,0,0,-1,699,1527,-2.66569,-4.99428
-518,-503,-1.85565,4.6665,0,0,0,0,0,0,0,-1,706,1527,-1.85563,-4.6665
-511,-503,-0.0928345,3.46008,0,0,0,0,0,0,0,-1,713,1527,-0.0928199,-3.46006
-504,-503,0.655334,3.00671,0,0,0,0,0,0,0,-1,720,1527,0.655304,-3.00668
-497,-503,-1.2218,6.34216,0,0,0,0,0,0,0,-1,727,1527,-1.22178,-6.34211
-490,-503,-1.06744,6.30579,0.0382948,0.0143474,-0.00303765,0.0386741,0.0139681,-0.124226,0.0226136,0.0458176,734,1527,-1.06742,-6.30579
-483,-503,-0.782227,6.005,0.0247029,0.0151538,-0.00430897,0.0263598,0.0134969,-0.367094,0.0152203,0.037566,741,1527,-0.782244,-6.00504
-476,-503,-0.810303,6.15161,0.0143123,0.0130309,-0.00299894,0.0167383,0.010605,-0.680159,0.00977812,0.0180604,748,1527,-0.810308,-6.15159
-469,-503,-0.845825,6.34973,0.00791247,0.0106929,-0.00215712,0.011869,0.00673639,-1.07164,0.0068734,0.0108194,755,1527,-0.845825,-6.34969
-462,-503,-0.841858,6.60522,0.00390473,0.00768965,-0.000906978,0.00789577,0.00369861,-1.34734,0.00456165,0.0122184,762,1527,-0.841862,-6.60523
-455,-503,-0.855103,6.82288,0.0020548,0.00448717,8.49545e-05,0.00449013,0.00205184,1.53593,0.00259558,0.0167363,769,1527,-0.855125,-6.82286
-448,-503,-0.846313,7.04614,0.00201475,0.00210534,0.000343236,0.00240626,0.00171383,0.850996,0.00143036,0.0156786,776,1527,-0.846335,-7.04616
-441,-503,-0.838318,7.29724,0.00244725,7.13612e-05,0.00046417,0.00253472,-1.61025e-05,0.186246,0.00169521,0.0131736,783,1527,-0.838289,-7.29722
-434,-503,-0.841858,7.52173,0.0028085,-0.00212445,0.000514259,0.00286154,-0.00217749,0.102777,0.00291821,0.0112367,790,1527,-0.841846,-7.52174
-427,-503,-0.841614,7.75623,0.00386878,-0.00419541,0.000245437,0.00387624,-0.00420288,0.0303978,0.00466575,0.0160719,797,1527,-0.841625,-7.75621
-420,-503,-0.833008,7.99451,0.00536424,-0.00656028,-0.000195232,0.00536744,-0.00656348,-0.0163664,0.00689985,0.0173556,804,1527,-0.833038,-7.99448
-413,-503,-0.844604,8.22314,0.00698775,-0.00983988,-0.000230546,0.00699091,-0.00984304,-0.013697,0.00976548,0.0153762,811,1527,-0.844622,-8.2231
-406,-503,-0.83374,8.46094,0.00831333,-0.0132546,-0.000801852,0.0083431,-0.0132844,-0.0371097,0.0125948,0.0143126,818,1527,-0.833742,-8.46096
-399,-503,-0.743042,8.74719,0.010039,-0.0173363,-0.00127562,0.0100983,-0.0173956,-0.0464634,0.0160589,0.0198676,825,1527,-0.743039,-8.74717
-392,-503,-0.627686,8.94739,0.0119135,-0.0220552,-0.00173043,0.0120014,-0.0221431,-0.050767,0.0200011,0.0360896,832,1527,-0.627681,-8.94738
-385,-503,-0.623901,8.77319,0.0138512,-0.0271062,-0.00232259,0.0139825,-0.0272375,-0.0564661,0.024205,0.040995,839,1527,-0.623876,-8.77321
-378,-503,-0.579041,8.78809,0.0158097,-0.0328313,-0.0029113,0.0159834,-0.033005,-0.0595692,0.0288469,0.0444531,846,1527,-0.579035,-8.78809
-371,-503,-0.600708,8.83691,0,0,0,0,0,0,0,-1,853,1527,-0.600721,-8.83693
-364,-503,0.085022,8.9812,0,0,0,0,0,0,0,-1,860,1527,0.0850418,-8.98121
-357,-503,0.558533,9.25452,0,0,0,0,0,0,0,-1,867,1527,0.558542,-9.25446
-350,-503,0.219971,6.84827,0,0,0,0,0,0,0,-1,874,1527,0.21996,-6.84831
-343,-503,-3.5802,4.43274,0,0,0,0,0,0,0,-1,881,1527,-3.58018,-4.43276
-336,-503,-3.2384,6.40637,0,0,0,0,0,0,0,-1,888,1527,-3.2384,-6.40643
-329,-503,-2.89661,8.38013,0,0,0,0,0,0,0,-1,895,1527,-2.89662,-8.3801
-322,-503,-3.31317,8.81519,0,0,0,0,0,0,0,-1,902,1527,-3.31315,-8.81524
-315,-503,-3.90265,7.73853,0,0,0,0,0,0,0,-1,909,1527,-3.90264,-7.73854
-308,-503,-4.07867,7.25977,0,0,0,0,0,0,0,-1,916,1527,-4.07868,-7.25973
-301,-503,0,0,0,0,0,0,0,0,0,-1,923,1527,0,0
-294,-503,0,0,0,0,0,0,0,0,0,-1,930,1527,0,0
-287,-503,0,0,0,0,0,0,0,0,0,-1,937,1527,0,0
-280,-503,0,0,0,0,0,0,0,0,0,-1,944,1527,0,0
-273,-503,0,0,0,0,0,0,0,0,0,-1,951,1527,0,0
-266,-503,0,0,0,0,0,0,0,0,0,-1,958,1527,0,0
-259,-503,0,0,0,0,0,0,0,0,0,-1,965,1527,0,0
-252,-503,0,0,0,0,0,0,0,0,0,-1,972,1527,0,0
-245,-503,0,0,0,0,0,0,0,0,0,-1,979,1527,0,0
-238,-503,0,0,0,0,0,0,0,0,0,-1,986,1527,0,0
-231,-503,0,0,0,0,0,0,0,0,0,-1,993,1527,0,0
-224,-503,0,0,0,0,0,0,0,0,0,-1,1000,1527,0,0
-217,-503,0,0,0,0,0,0,0,0,0,-1,1007,1527,0,0
-210,-503,0,0,0,0,0,0,0,0,0,-1,1014,1527,0,0
-203,-503,0,0,0,0,0,0,0,0,0,-1,1021,1527,0,0
-196,-503,0,0,0,0,0,0,0,0,0,-1,1028,1527,0,0
-189,-503,0,0,0,0,0,0,0,0,0,-1,1035,1527,0,0
-182,-503,0,0,0,0,0,0,0,0,0,-1,1042,1527,0,0
-175,-503,0,0,0,0,0,0,0,0,0,-1,1049,1527,0,0
-168,-503,0,0,0,0,0,0,0,0,0,-1,1056,1527,0,0
-161,-503,0,0,0,0,0,0,0,0,0,-1,1063,1527,0,0
-154,-503,0,0,0,0,0,0,0,0,0,-1,1070,1527,0,0
-147,-503,0,0,0,0,0,0,0,0,0,-1,1077,1527,0,0
-140,-503,0,0,0,0,0,0,0,0,0,-1,1084,1527,0,0
-133,-503,0,0,0,0,0,0,0,0,0,-1,1091,1527,0,0
-126,-503,0,0,0,0,0,0,0,0,0,-1,1098,1527,0,0
-119,-503,0,0,0,0,0,0,0,0,0,-1,1105,1527,0,0
-112,-503,0,0,0,0,0,0,0,0,0,-1,1112,1527,0,0
-105,-503,0,0,0,0,0,0,0,0,0,-1,1119,1527,0,0
-98,-503,0,0,0,0,0,0,0,0,0,-1,1126,1527,0,0
-91,-503,0,0,0,0,0,0,0,0,0,-1,1133,1527,0,0
-84,-503,0,0,0,0,0,0,0,0,0,-1,1140,1527,0,0
-77,-503,0,0,0,0,0,0,0,0,0,-1,1147,1527,0,0
-70,-503,0,0,0,0,0,0,0,0,0,-1,1154,1527,0,0
-63,-503,0,0,0,0,0,0,0,0,0,-1,1161,1527,0,0
-56,-503,0,0,0,0,0,0,0,0,0,-1,1168,1527,0,0
-49,-503,0,0,0,0,0,0,0,0,0,-1,1175,1527,0,0
-42,-503,0,0,0,0,0,0,0,0,0,-1,1182,1527,0,0
-35,-503,0,0,0,0,0,0,0,0,0,-1,1189,1527,0,0
-28,-503,0,0,0,0,0,0,0,0,0,-1,1196,1527,0,0
-21,-503,0,0,0,0,0,0,0,0,0,-1,1203,1527,0,0
-14,-503,0,0,0,0,0,0,0,0,0,-1,1210,1527,0,0
-7,-503,0,0,0,0,0,0,0,0,0,-1,1217,1527,0,0
0,-503,0,0,0,0,0,0,0,0,0,-1,1224,1527,0,0
7,-503,0,0,0,0,0,0,0,0,0,-1,1231,1527,0,0
14,-503,0,0,0,0,0,0,0,0,0,-1,1238,1527,0,0
21,-503,0,0,0,0,0,0,0,0,0,-1,1245,1527,0,0
28,-503,0,0,0,0,0,0,0,0,0,-1,1252,1527,0,0
35,-503,0,0,0,0,0,0,0,0,0,-1,1259,1527,0,0
42,-503,0,0,0,0,0,0,0,0,0,-1,1266,1527,0,0
49,-503,0,0,0,0,0,0,0,0,0,-1,1273,1527,0,0
56,-503,0,0,0,0,0,0,0,0,0,-1,1280,1527,0,0
63,-503,0,0,0,0,0,0,0,0,0,-1,1287,1527,0,0
70,-503,0,0,0,0,0,0,0,0,0,-1,1294,1527,0,0
77,-503,0,0,0,0,0,0,0,0,0,-1,1301,1527,0,0
84,-503,0,0,0,0,0,0,0,0,0,-1,1308,1527,0,0
91,-503,0,0,0,0,0,0,0,0,0,-1,1315,1527,0,0
98,-503,0,0,0,0,0,0,0,0,0,-1,1322,1527,0,0
105,-503,0,0,0,0,0,0,0,0,0,-1,1329,1527,0,0
112,-503,0,0,0,0,0,0,0,0,0,-1,1336,1527,0,0
119,-503,0,0,0,0,0,0,0,0,0,-1,1343,1527,0,0
126,-503,0,0,0,0,0,0,0,0,0,-1,1350,1527,0,0
133,-503,0,0,0,0,0,0,0,0,0,-1,1357,1527,0,0
140,-503,0,0,0,0,0,0,0,0,0,-1,1364,1527,0,0
147,-503,0,0,0,0,0,0,0,0,0,-1,1371,1527,0,0
154,-503,0,0,0,0,0,0,0,0,0,-1,1378,1527,0,0
161,-503,0,0,0,0,0,0,0,0,0,-1,1385,1527,0,0
168,-503,0,0,0,0,0,0,0,0,0,-1,1392,1527,0,0
175,-503,0,0,0,0,0,0,0,0,0,-1,1399,1527,0,0
182,-503,0,0,0,0,0,0,0,0,0,-1,1406,1527,0,0
189,-503,0,0,0,0,0,0,0,0,0,-1,1413,1527,0,0
196,-503,0,0,0,0,0,0,0,0,0,-1,1420,1527,0,0
203,-503,0,0,0,0,0,0,0,0,0,-1,1427,1527,0,0
210,-503,0,0,0,0,0,0,0,0,0,-1,1434,1527,0,0
217,-503,0,0,0,0,0,0,0,0,0,-1,1441,1527,0,0
224,-503,0,0,0,0,0,0,0,0,0,-1,1448,1527,0,0
231,-503,0,0,0,0,0,0,0,0,0,-1,1455,1527,0,0
238,-503,0,0,0,0,0,0,0,0,0,-1,1462,1527,0,0
245,-503,0,0,0,0,0,0,0,0,0,-1,1469,1527,0,0
252,-503,0,0,0,0,0,0,0,0,0,-1,1476,1527,0,0
259,-503,0,0,0,0,0,0,0,0,0,-1,1483,1527,0,0
266,-503,0,0,0,0,0,0,0,0,0,-1,1490,1527,0,0
273,-503,0,0,0,0,0,0,0,0,0,-1,1497,1527,0,0
280,-503,0,0,0,0,0,0,0,0,0,-1,1504,1527,0,0
287,-503,0,0,0,0,0,0,0,0,0,-1,1511,1527,0,0
294,-503,0,0,0,0,0,0,0,0,0,-1,1518,1527,0,0
301,-503,0,0,0,0,0,0,0,0,0,-1,1525,1527,0,0
308,-503,0,0,0,0,0,0,0,0,0,-1,1532,1527,0,0
315,-503,0,0,0,0,0,0,0,0,0,-1,1539,1527,0,0
322,-503,0,0,0,0,0,0,0,0,0,-1,1546,1527,0,0
329,-503,0,0,0,0,0,0,0,0,0,-1,1553,1527,0,0
336,-503,0,0,0,0,0,0,0,0,0,-1,1560,1527,0,0
343,-503,0,0,0,0,0,0,0,0,0,-1,1567,1527,0,0
350,-503,0,0,0,0,0,0,0,0,0,-1,1574,1527,0,0
357,-503,0,0,0,0,0,0,0,0,0,-1,1581,1527,0,0
364,-503,0,0,0,0,0,0,0,0,0,-1,1588,1527,0,0
371,-503,0,0,0,0,0,0,0,0,0,-1,1595,1527,0,0
378,-503,0,0,0,0,0,0,0,0,0,-1,1602,1527,0,0
385,-503,0,0,0,0,0,0,0,0,0,-1,1609,1527,0,0
392,-503,0,0,0,0,0,0,0,0,0,-1,1616,1527,0,0
399,-503,0,0,0,0,0,0,0,0,0,-1,1623,1527,0,0
406,-503,0,0,0,0,0,0,0,0,0,-1,1630,1527,0,0
413,-503,0,0,0,0,0,0,0,0,0,-1,1637,1527,0,0
420,-503,0,0,0,0,0,0,0,0,0,-1,1644,1527,0,0
427,-503,10.5968,4.9856,0,0,0,0,0,0,0,-1,1651,1527,10.5969,-4.98563
434,-503,11.4329,3.97217,0,0,0,0,0,0,0,-1,1658,1527,11.4328,-3.97222
441,-503,12.0957,2.96509,0,0,0,0,0,0,0,-1,1665,1527,12.0957,-2.96512
448,-503,12.3259,2.53894,0,0,0,0,0,0,0,-1,1672,1527,12.326,-2.53895
455,-503,12.1669,2.18762,0,0,0,0,0,0,0,-1,1679,1527,12.1668,-2.18767
462,-503,11.59,2.60791,0,0,0,0,0,0,0,-1,1686,1527,11.5899,-2.60794
469,-503,11.1625,1.61853,0,0,0,0,0,0,0,-1,1693,1527,11.1625,-1.61856
476,-503,8.7157,2.09912,0,0,0,0,0,0,0,-1,1700,1527,8.71572,-2.0991
483,-503,11.7648,9.51062,0,0,0,0,0,0,0,-1,1707,1527,11.7648,-9.51064
490,-503,11.0581,10.4899,0,0,0,0,0,0,0,-1,1714,1527,11.0581,-10.4899
497,-503,11.3428,10.4855,0,0,0,0,0,0,0,-1,1721,1527,11.3427,-10.4855
504,-503,11.7461,10.0139,0,0,0,0,0,0,0,-1,1728,1527,11.7461,-10.014
511,-503,11.0736,10.0681,-0.0297444,-0.0349841,0.03146,-0.000795368,-0.0639331,0.743856,0.0423595,0.0456989,1735,1527,11.0736,-10.0681
518,-503,10.4412,10.2551,-0.0228215,-0.0266947,0.0244553,-0.000226256,-0.0492899,0.745886,0.0327848,0.0411838,1742,1527,10.4412,-10.2551
525,-503,10.0809,10.1245,-0.0171276,-0.019655,0.0183519,4.11645e-06,-0.0367867,0.751024,0.0245258,0.032962,1749,1527,10.0809,-10.1245
532,-503,9.93689,10.0328,-0.0128125,-0.0147807,0.0139788,0.000216815,-0.0278101,0.750256,0.0186127,0.0127927,1756,1527,9.93686,-10.0328
539,-503,9.93408,9.84814,-0.00944465,-0.0107818,0.0105581,0.000466005,-0.0206925,0.753779,0.0139529,0.011622,1763,1527,9.93414,-9.84814
546,-503,9.93115,9.63477,-0.00680337,-0.00791365,0.00790561,0.000566567,-0.0152836,0.750345,0.0103831,0.0104129,1770,1527,9.9312,-9.63476
553,-503,9.96362,9.42932,-0.00466037,-0.0055235,0.00569658,0.000620974,-0.0108048,0.747591,0.00741889,0.0128359,1777,1527,9.96362,-9.42935
560,-503,9.97119,9.21362,-0.00279145,-0.00344981,0.00379519,0.000688813,-0.00693007,0.742139,0.00486593,0.0128888,1784,1527,9.97115,-9.21363
567,-503,9.97046,9.00085,-0.000865754,-0.00156776,0.00190047,0.000715855,-0.00314937,0.694081,0.00237444,0.0120159,1791,1527,9.97046,-9.00086
574,-503,9.96155,8.80664,0.000694753,3.37624e-05,0.000557564,0.00101241,-0.000283897,0.517863,0.000786836,0.0119934,1798,1527,9.96149,-8.8066
581,-503,9.94067,8.61047,0.00201265,0.00119895,-0.000486583,0.00224006,0.000971536,-0.437204,0.00129708,0.012883,1805,1527,9.94068,-8.61042
588,-503,9.94385,8.41833,0.00287122,0.00289508,-0.00235796,0.00524114,0.000525162,-0.787928,0.00333286,0.0161884,1812,1527,9.94387,-8.41835
595,-503,9.94507,8.18628,0.00399501,0.0042335,-0.00377424,0.00789038,0.000338135,-0.80119,0.00515124,0.0127028,1819,1527,9.94512,-8.1863
602,-503,9.95557,7.95361,0.00506925,0.00577733,-0.00538285,0.0108178,2.88128e-05,-0.818236,0.00720226,0.0132713,1826,1527,9.95559,-7.95365
609,-503,9.99487,7.72485,0.00613011,0.00760561,-0.00743432,0.0143387,-0.000602981,-0.834854,0.00976633,0.0174528,1833,1527,9.99493,-7.7249
616,-503,9.94751,7.61584,0.0072698,0.00997572,-0.0102488,0.0189605,-0.00171494,-0.851024,0.013249,0.0198595,1840,1527,9.94755,-7.61586
623,-503,9.8949,7.4563,0.00838355,0.0130878,-0.0139393,0.024872,-0.00340066,-0.868981,0.0178233,0.0371229,1847,1527,9.89484,-7.45635
630,-503,9.98315,7.31213,0.00941327,0.0172149,-0.0189048,0.0326172,-0.00598901,-0.88714,0.0239916,0.0436699,1854,1527,9.98319,-7.31216
637,-503,10.2744,7.15698,0,0,0,0,0,0,0,-1,1861,1527,10.2744,-7.15693
644,-503,8.56531,7.09143,0,0,0,0,0,0,0,-1,1868,1527,8.56526,-7.09141
651,-503,5.90771,6.74841,0,0,0,0,0,0,0,-1,1875,1527,5.90774,-6.74845
658,-503,5.73291,7.09534,0,0,0,0,0,0,0,-1,1882,1527,5.73293,-7.09529
665,-503,0,0,0,0,0,0,0,0,0,-1,1889,1527,0,0
672,-503,0,0,0,0,0,0,0,0,0,-1,1896,1527,0,0
679,-503,0,0,0,0,0,0,0,0,0,-1,1903,1527,0,0
686,-503,0,0,0,0,0,0,0,0,0,-1,1910,1527,0,0
693,-503,0,0,0,0,0,0,0,0,0,-1,1917,1527,0,0
700,-503,0,0,0,0,0,0,0,0,0,-1,1924,1527,0,0
707,-503,0,0,0,0,0,0,0,0,0,-1,1931,1527,0,0
714,-503,0,0,0,0,0,0,0,0,0,-1,1938,1527,0,0
721,-503,0,0,0,0,0,0,0,0,0,-1,1945,1527,0,0
728,-503,0,0,0,0,0,0,0,0,0,-1,1952,1527,0,0
735,-503,0,0,0,0,0,0,0,0,0,-1,1959,1527,0,0
742,-503,0,0,0,0,0,0,0,0,0,-1,1966,1527,0,0
749,-503,0,0,0,0,0,0,0,0,0,-1,1973,1527,0,0
756,-503,0,0,0,0,0,0,0,0,0,-1,1980,1527,0,0
763,-503,0,0,0,0,0,0,0,0,0,-1,1987,1527,0,0
770,-503,0,0,0,0,0,0,0,0,0,-1,1994,1527,0,0
777,-503,0,0,0,0,0,0,0,0,0,-1,2001,1527,0,0
784,-503,0,0,0,0,0,0,0,0,0,-1,2008,1527,0,0
791,-503,0,0,0,0,0,0,0,0,0,-1,2015,1527,0,0
798,-503,0,0,0,0,0,0,0,0,0,-1,2022,1527,0,0
805,-503,0,0,0,0,0,0,0,0,0,-1,2029,1527,0,0
812,-503,0,0,0,0,0,0,0,0,0,-1,2036,1527,0,0
-700,-510,0,0,0,0,0,0,0,0,0,-1,524,1534,0,0
-693,-510,0,0,0,0,0,0,0,0,0,-1,531,1534,0,0
-686,-510,0,0,0,0,0,0,0,0,0,-1,538,1534,0,0
-679,-510,0,0,0,0,0,0,0,0,0,-1,545,1534,0,0
-672,-510,0,0,0,0,0,0,0,0,0,-1,552,1534,0,0
-665,-510,0,0,0,0,0,0,0,0,0,-1,559,1534,0,0
-658,-510,0,0,0,0,0,0,0,0,0,-1,566,1534,0,0
-651,-510,0,0,0,0,0,0,0,0,0,-1,573,1534,0,0
-644,-510,0,0,0,0,0,0,0,0,0,-1,580,1534,0,0
-637,-510,0,0,0,0,0,0,0,0,0,-1,587,1534,0,0
-630,-510,0,0,0,0,0,0,0,0,0,-1,594,1534,0,0
-623,-510,0,0,0,0,0,0,0,0,0,-1,601,1534,0,0
-616,-510,0,0,0,0,0,0,0,0,0,-1,608,1534,0,0
-609,-510,0,0,0,0,0,0,0,0,0,-1,615,1534,0,0
-602,-510,0,0,0,0,0,0,0,0,0,-1,622,1534,0,0
-595,-510,0,0,0,0,0,0,0,0,0,-1,629,1534,0,0
-588,-510,0,0,0,0,0,0,0,0,0,-1,636,1534,0,0
-581,-510,0,0,0,0,0,0,0,0,0,-1,643,1534,0,0
-574,-510,0,0,0,0,0,0,0,0,0,-1,650,1534,0,0
-567,-510,0,0,0,0,0,0,0,0,0,-1,657,1534,0,0
-560,-510,0,0,0,0,0,0,0,0,0,-1,664,1534,0,0
-553,-510,0,0,0,0,0,0,0,0,0,-1,671,1534,0,0
-546,-510,0,0,0,0,0,0,0,0,0,-1,678,1534,0,0
-539,-510,0,0,0,0,0,0,0,0,0,-1,685,1534,0,0
-532,-510,2.29291,4.35352,0,0,0,0,0,0,0,-1,692,1534,2.29289,-4.35348
-525,-510,1.41785,4.60266,0,0,0,0,0,0,0,-1,699,1534,1.41786,-4.60265
-518,-510,0.438171,4.91016,0,0,0,0,0,0,0,-1,706,1534,0.438156,-4.91014
-511,-510,0.717651,2.45044,0,0,0,0,0,0,0,-1,713,1534,0.71765,-2.45039
-504,-510,-0.793945,4.39624,0,0,0,0,0,0,0,-1,720,1534,-0.793942,-4.39625
-497,-510,-1.16058,6.27673,0,0,0,0,0,0,0,-1,727,1534,-1.16059,-6.27676
-490,-510,-0.906921,6.25317,0.0427267,0.0233519,-0.00117044,0.0427972,0.0232814,-0.0601186,0.0247408,0.0454039,734,1534,-0.90691,-6.25321
-483,-510,-0.469727,6.0813,0.0279386,0.0226828,-0.00170625,0.0284439,0.0221775,-0.287936,0.0172573,0.0424777,741,1534,-0.469737,-6.08126
-476,-510,-0.470642,6.09485,0.0167078,0.019422,9.0001e-05,0.019425,0.0167048,1.53769,0.0121452,0.0280467,748,1534,-0.470623,-6.09481
-469,-510,-0.595398,6.3501,0.00977916,0.0160967,0.00108993,0.0162794,0.0095964,1.40467,0.00944898,0.0115795,755,1534,-0.595368,-6.35005
-462,-510,-0.591248,6.57764,0.00531703,0.012323,0.00218085,0.0129464,0.00469363,1.29237,0.00756816,0.0113583,762,1534,-0.591249,-6.57766
-455,-510,-0.624329,6.828,0.00307531,0.00848803,0.00280436,0.00967895,0.00188439,1.16921,0.00592524,0.0126479,769,1534,-0.624302,-6.82803
-448,-510,-0.629517,7.09009,0.00259151,0.00559068,0.00258324,0.00707805,0.00110414,1.04838,0.0043971,0.0117664,776,1534,-0.62949,-7.09007
-441,-510,-0.609802,7.32092,0.00257959,0.00312358,0.00216453,0.00503314,0.000670028,0.847901,0.00315588,0.0134492,783,1534,-0.609815,-7.32097
-434,-510,-0.615662,7.53284,0.00239995,0.000566596,0.00175469,0.00346297,-0.000496431,0.544689,0.00249067,0.0150059,790,1534,-0.615689,-7.53279
-427,-510,-0.627258,7.75269,0.00302977,-0.00170834,0.00104533,0.00325015,-0.00192871,0.207775,0.00302228,0.0215794,797,1534,-0.627238,-7.75273
-420,-510,-0.615784,7.98865,0.00420164,-0.00404413,0.00014798,0.00420429,-0.00404679,0.0179385,0.00476405,0.0211779,804,1534,-0.615777,-7.98868
-413,-510,-0.622803,8.2334,0.00545031,-0.0070546,-0.00028423,0.00545677,-0.00706106,-0.0227139,0.00724693,0.011252,811,1534,-0.622823,-8.23345
-406,-510,-0.625793,8.48181,0.00646569,-0.00993927,-0.00101434,0.00652817,-0.0100018,-0.0615192,0.00961354,0.0105779,818,1534,-0.625767,-8.48182
-399,-510,-0.614746,8.69775,0.00795158,-0.0131522,-0.00143037,0.00804809,-0.0132487,-0.0673671,0.0124173,0.0115047,825,1534,-0.614718,-8.69772
-392,-510,-0.525452,9.0022,0.0094437,-0.0168875,-0.00190085,0.00958022,-0.017024,-0.0716946,0.0155591,0.0215974,832,1534,-0.525478,-9.00214
-385,-510,-0.536743,9.1355,0.0110605,-0.0206945,-0.00239981,0.0112409,-0.0208748,-0.0750048,0.018818,0.034955,839,1534,-0.536766,-9.13545
-378,-510,-0.513184,8.90234,0.0126231,-0.025003,-0.00292895,0.0128497,-0.0252296,-0.0772237,0.0223691,0.0367504,846,1534,-0.513198,-8.9024
-371,-510,-0.183044,8.54712,0,0,0,0,0,0,0,-1,853,1534,-0.183037,-8.54715
-364,-510,0.615845,7.98181,0,0,0,0,0,0,0,-1,860,1534,0.615817,-7.98178
-357,-510,-0.94342,8.37134,0,0,0,0,0,0,0,-1,867,1534,-0.943426,-8.37128
-350,-510,0.471191,6.06458,0,0,0,0,0,0,0,-1,874,1534,0.47118,-6.06453
-343,-510,-2.94617,5.00989,0,0,0,0,0,0,0,-1,881,1534,-2.94615,-5.00992
-336,-510,-2.50793,6.76257,0,0,0,0,0,0,0,-1,888,1534,-2.50794,-6.76253
-329,-510,-2.10583,8.51733,0,0,0,0,0,0,0,-1,895,1534,-2.10582,-8.51739
-322,-510,-1.45605,10.2574,0,0,0,0,0,0,0,-1,902,1534,-1.45608,-10.2574
-315,-510,-1.73047,10.9796,0,0,0,0,0,0,0,-1,909,1534,-1.73049,-10.9796
-308,-510,-2.98779,7.09631,0,0,0,0,0,0,0,-1,916,1534,-2.98781,-7.09636
-301,-510,-3.17023,10.2111,0,0,0,0,0,0,0,-1,923,1534,-3.17023,-10.2111
-294,-510,0,0,0,0,0,0,0,0,0,-1,930,1534,0,0
-287,-510,0,0,0,0,0,0,0,0,0,-1,937,1534,0,0
-280,-510,0,0,0,0,0,0,0,0,0,-1,944,1534,0,0
-273,-510,0,0,0,0,0,0,0,0,0,-1,951,1534,0,0
-266,-510,0,0,0,0,0,0,0,0,0,-1,958,1534,0,0
-259,-510,0,0,0,0,0,0,0,0,0,-1,965,1534,0,0
-252,-510,0,0,0,0,0,0,0,0,0,-1,972,1534,0,0
-245,-510,0,0,0,0,0,0,0,0,0,-1,979,1534,0,0
-238,-510,0,0,0,0,0,0,0,0,0,-1,986,1534,0,0
-231,-510,0,0,0,0,0,0,0,0,0,-1,993,1534,0,0
-224,-510,0,0,0,0,0,0,0,0,0,-1,1000,1534,0,0
-217,-510,0,0,0,0,0,0,0,0,0,-1,1007,1534,0,0
-210,-510,0,0,0,0,0,0,0,0,0,-1,1014,1534,0,0
-203,-510,0,0,0,0,0,0,0,0,0,-1,1021,1534,0,0
-196,-510,0,0,0,0,0,0,0,0,0,-1,1028,1534,0,0
-189,-510,0,0,0,0,0,0,0,0,0,-1,1035,1534,0,0
-182,-510,0,0,0,0,0,0,0,0,0,-1,1042,1534,0,0
-175,-510,0,0,0,0,0,0,0,0,0,-1,1049,1534,0,0
-168,-510,0,0,0,0,0,0,0,0,0,-1,1056,1534,0,0
-161,-510,0,0,0,0,0,0,0,0,0,-1,1063,1534,0,0
-154,-510,0,0,0,0,0,0,0,0,0,-1,1070,1534,0,0
-147,-510,0,0,0,0,0,0,0,0,0,-1,1077,1534,0,0
-140,-510,0,0,0,0,0,0,0,0,0,-1,1084,1534,0,0
-133,-510,0,0,0,0,0,0,0,0,0,-1,1091,1534,0,0
-126,-510,0,0,0,0,0,0,0,0,0,-1,1098,1534,0,0
-119,-510,0,0,0,0,0,0,0,0,0,-1,1105,1534,0,0
-112,-510,0,0,0,0,0,0,0,0,0,-1,1112,1534,0,0
-105,-510,0,0,0,0,0,0,0,0,0,-1,1119,1534,0,0
-98,-510,0,0,0,0,0,0,0,0,0,-1,1126,1534,0,0
-91,-510,0,0,0,0,0,0,0,0,0,-1,1133,1534,0,0
-84,-510,0,0,0,0,0,0,0,0,0,-1,1140,1534,0,0
-77,-510,0,0,0,0,0,0,0,0,0,-1,1147,1534,0,0
-70,-510,0,0,0,0,0,0,0,0,0,-1,1154,1534,0,0
-63,-510,0,0,0,0,0,0,0,0,0,-1,1161,1534,0,0
-56,-510,0,0,0,0,0,0,0,0,0,-1,1168,1534,0,0
-49,-510,0,0,0,0,0,0,0,0,0,-1,1175,1534,0,0
-42,-510,0,0,0,0,0,0,0,0,0,-1,1182,1534,0,0
-35,-510,0,0,0,0,0,0,0,0,0,-1,1189,1534,0,0
-28,-510,0,0,0,0,0,0,0,0,0,-1,1196,1534,0,0
-21,-510,0,0,0,0,0,0,0,0,0,-1,1203,1534,0,0
-14,-510,0,0,0,0,0,0,0,0,0,-1,1210,1534,0,0
-7,-510,0,0,0,0,0,0,0,0,0,-1,1217,1534,0,0
0,-510,0,0,0,0,0,0,0,0,0,-1,1224,1534,0,0
7,-510,0,0,0,0,0,0,0,0,0,-1,1231,1534,0,0
14,-510,0,0,0,0,0,0,0,0,0,-1,1238,1534,0,0
21,-510,0,0,0,0,0,0,0,0,0,-1,1245,1534,0,0
28,-510,0,0,0,0,0,0,0,0,0,-1,1252,1534,0,0
35,-510,0,0,0,0,0,0,0,0,0,-1,1259,1534,0,0
42,-510,0,0,0,0,0,0,0,0,0,-1,1266,1534,0,0
49,-510,0,0,0,0,0,0,0,0,0,-1,1273,1534,0,0
56,-510,0,0,0,0,0,0,0,0,0,-1,1280,1534,0,0
63,-510,0,0,0,0,0,0,0,0,0,-1,1287,1534,0,0
70,-510,0,0,0,0,0,0,0,0,0,-1,1294,1534,0,0
77,-510,0,0,0,0,0,0,0,0,0,-1,1301,1534,0,0
84,-510,0,0,0,0,0,0,0,0,0,-1,1308,1534,0,0
91,-510,0,0,0,0,0,0,0,0,0,-1,1315,1534,0,0
98,-510,0,0,0,0,0,0,0,0,0,-1,1322,1534,0,0
105,-510,0,0,0,0,0,0,0,0,0,-1,1329,1534,0,0
112,-510,0,0,0,0,0,0,0,0,0,-1,1336,1534,0,0
119,-510,0,0,0,0,0,0,0,0,0,-1,1343,1534,0,0
126,-510,0,0,0,0,0,0,0,0,0,-1,1350,1534,0,0
133,-510,0,0,0,0,0,0,0,0,0,-1,1357,1534,0,0
140,-510,0,0,0,0,0,0,0,0,0,-1,1364,1534,0,0
147,-510,0,0,0,0,0,0,0,0,0,-1,1371,1534,0,0
154,-510,0,0,0,0,0,0,0,0,0,-1,1378,1534,0,0
161,-510,0,0,0,0,0,0,0,0,0,-1,1385,1534,0,0
168,-510,0,0,0,0,0,0,0,0,0,-1,1392,1534,0,0
175,-510,0,0,0,0,0,0,0,0,0,-1,1399,1534,0,0
182,-510,0,0,0,0,0,0,0,0,0,-1,1406,1534,0,0
189,-510,0,0,0,0,0,0,0,0,0,-1,1413,1534,0,0
196,-510,0,0,0,0,0,0,0,0,0,-1,1420,1534,0,0
203,-510,0,0,0,0,0,0,0,0,0,-1,1427,1534,0,0
210,-510,0,0,0,0,0,0,0,0,0,-1,1434,1534,0,0
217,-510,0,0,0,0,0,0,0,0,0,-1,1441,1534,0,0
224,-510,0,0,0,0,0,0,0,0,0,-1,1448,1534,0,0
231,-510,0,0,0,0,0,0,0,0,0,-1,1455,1534,0,0
238,-510,0,0,0,0,0,0,0,0,0,-1,1462,1534,0,0
245,-510,0,0,0,0,0,0,0,0,0,-1,1469,1534,0,0
252,-510,0,0,0,0,0,0,0,0,0,-1,1476,1534,0,0
259,-510,0,0,0,0,0,0,0,0,0,-1,1483,1534,0,0
266,-510,0,0,0,0,0,0,0,0,0,-1,1490,1534,0,0
273,-510,0,0,0,0,0,0,0,0,0,-1,1497,1534,0,0
280,-510,0,0,0,0,0,0,0,0,0,-1,1504,1534,0,0
287,-510,0,0,0,0,0,0,0,0,0,-1,1511,1534,0,0
294,-510,0,0,0,0,0,0,0,0,0,-1,1518,1534,0,0
301,-510,0,0,0,0,0,0,0,0,0,-1,1525,1534,0,0
308,-510,0,0,0,0,0,0,0,0,0,-1,1532,1534,0,0
315,-510,0,0,0,0,0,0,0,0,0,-1,1539,1534,0,0
322,-510,0,0,0,0,0,0,0,0,0,-1,1546,1534,0,0
329,-510,0,0,0,0,0,0,0,0,0,-1,1553,1534,0,0
336,-510,0,0,0,0,0,0,0,0,0,-1,1560,1534,0,0
343,-510,0,0,0,0,0,0,0,0,0,-1,1567,1534,0,0
350,-510,0,0,0,0,0,0,0,0,0,-1,1574,1534,0,0
357,-510,0,0,0,0,0,0,0,0,0,-1,1581,1534,0,0
364,-510,0,0,0,0,0,0,0,0,0,-1,1588,1534,0,0
371,-510,0,0,0,0,0,0,0,0,0,-1,1595,1534,0,0
378,-510,0,0,0,0,0,0,0,0,0,-1,1602,1534,0,0
385,-510,0,0,0,0,0,0,0,0,0,-1,1609,1534,0,0
392,-510,0,0,0,0,0,0,0,0,0,-1,1616,1534,0,0
399,-510,0,0,0,0,0,0,0,0,0,-1,1623,1534,0,0
406,-510,0,0,0,0,0,0,0,0,0,-1,1630,1534,0,0
413,-510,0,0,0,0,0,0,0,0,0,-1,1637,1534,0,0
420,-510,13.1918,5.99402,0,0,0,0,0,0,0,-1,1644,1534,13.1917,-5.994
427,-510,10.9799,5.12341,0,0,0,0,0,0,0,-1,1651,1534,10.9798,-5.12337
434,-510,11.8219,4.07898,0,0,0,0,0,0,0,-1,1658,1534,11.8219,-4.07895
441,-510,12.6812,3.02991,0,0,0,0,0,0,0,-1,1665,1534,12.6811,-3.0299
448,-510,13.2379,2.2804,0,0,0,0,0,0,0,-1,1672,1534,13.2379,-2.28037
455,-510,9.76892,2.20642,0,0,0,0,0,0,0,-1,1679,1534,9.76894,-2.20647
462,-510,9.84692,2.49182,0,0,0,0,0,0,0,-1,1686,1534,9.84695,-2.49185
469,-510,9.99475,2.57556,0,0,0,0,0,0,0,-1,1693,1534,9.99477,-2.57556
476,-510,8.62915,3.32227,0,0,0,0,0,0,0,-1,1700,1534,8.6291,-3.32231
483,-510,9.56104,7.37146,0,0,0,0,0,0,0,-1,1707,1534,9.56099,-7.37142
490,-510,10.3571,10.6864,0,0,0,0,0,0,0,-1,1714,1534,10.3571,-10.6864
497,-510,9.99377,9.53735,0,0,0,0,0,0,0,-1,1721,1534,9.99373,-9.53737
504,-510,10.6112,10.2399,0,0,0,0,0,0,0,-1,1728,1534,10.6112,-10.2398
511,-510,10.2926,10.3009,-0.0246969,-0.0290648,0.0258922,-0.00089672,-0.052865,0.743323,0.0349482,0.0435809,1735,1534,10.2926,-10.3009
518,-510,9.96313,10.3843,-0.0189134,-0.0219875,0.0199868,-0.000404591,-0.0404963,0.747022,0.0268637,0.0338971,1742,1534,9.96318,-10.3843
525,-510,9.77466,10.2313,-0.0140391,-0.0158431,0.0147106,-0.000202853,-0.0296793,0.754778,0.0197189,0.0184789,1749,1534,9.77468,-10.2313
532,-510,9.74829,10.0374,-0.0103465,-0.0116943,0.0109956,-4.18071e-06,-0.0220366,0.754794,0.0146897,0.0121103,1756,1534,9.74835,-10.0374
539,-510,9.73743,9.83972,-0.00745514,-0.00825299,0.00810707,0.000262814,-0.0159709,0.760815,0.010736,0.0120563,1763,1534,9.73741,-9.83971
546,-510,9.72571,9.66345,-0.00518248,-0.00583092,0.00589552,0.000397729,-0.0114111,0.757929,0.00774341,0.0111,1770,1534,9.72568,-9.66343
553,-510,9.7406,9.44458,-0.00329027,-0.00378497,0.00402644,0.000496413,-0.00757165,0.754721,0.00522111,0.0123147,1777,1534,9.74059,-9.44459
560,-510,9.74072,9.20044,-0.00156133,-0.0019245,0.00238156,0.000645557,-0.00413139,0.747348,0.00299274,0.0125567,1784,1534,9.74078,-9.20039
567,-510,9.74207,8.99805,0.000259862,-0.000186727,0.000674283,0.000746861,-0.000673727,0.625502,0.000820539,0.0116801,1791,1534,9.74212,-8.99809
574,-510,9.73779,8.802,0.00174257,0.00128469,-0.000546334,0.00210599,0.000921266,-0.586989,0.00121906,0.0125015,1798,1534,9.73783,-8.80203
581,-510,9.72375,8.61841,0.00315668,0.00243184,-0.00156168,0.00439745,0.00119108,-0.671382,0.00262624,0.0116107,1805,1534,9.72373,-8.61841
588,-510,9.73669,8.40894,0.00424905,0.00437199,-0.00357137,0.00788242,0.000738619,-0.794003,0.00502686,0.012733,1812,1534,9.73668,-8.40888
595,-510,9.77197,8.13879,0.00567604,0.00608939,-0.00520798,0.0110948,0.000670642,-0.80523,0.00718342,0.0127731,1819,1534,9.77195,-8.13883
602,-510,9.74036,7.88147,0.00717618,0.00819095,-0.00723585,0.0149372,0.000429943,-0.820401,0.00981795,0.0205788,1826,1534,9.74035,-7.88142
609,-510,9.73438,7.75024,0.00883203,0.010856,-0.00991993,0.0198154,-0.000127407,-0.836229,0.0132529,0.0278714,1833,1534,9.73435,-7.7503
616,-510,9.86548,7.6543,0.0107568,0.0143801,-0.0136164,0.0263049,-0.00116796,-0.851533,0.0179386,0.0389397,1840,1534,9.86547,-7.6543
623,-510,9.84668,7.505,0,0,0,0,0,0,0,-1,1847,1534,9.84671,-7.50499
630,-510,9.45911,7.31055,0.0148127,0.0253644,-0.0250707,0.0457084,-0.00553126,-0.889104,0.0324734,0.0466756,1854,1534,9.45916,-7.31061
637,-510,9.99341,6.3313,0.0169815,0.0334674,-0.0337265,0.0599436,-0.00949474,-0.905252,0.0434743,0.0462162,1861,1534,9.99342,-6.33133
644,-510,9.99377,5.25415,0,0,0,0,0,0,0,-1,1868,1534,9.99378,-5.25409
651,-510,9.84338,3.87903,0,0,0,0,0,0,0,-1,1875,1534,9.8434,-3.879
658,-510,0,0,0,0,0,0,0,0,0,-1,1882,1534,0,0
665,-510,0,0,0,0,0,0,0,0,0,-1,1889,1534,0,0
672,-510,0,0,0,0,0,0,0,0,0,-1,1896,1534,0,0
679,-510,0,0,0,0,0,0,0,0,0,-1,1903,1534,0,0
686,-510,0,0,0,0,0,0,0,0,0,-1,1910,1534,0,0
693,-510,0,0,0,0,0,0,0,0,0,-1,1917,1534,0,0
700,-510,0,0,0,0,0,0,0,0,0,-1,1924,1534,0,0
707,-510,0,0,0,0,0,0,0,0,0,-1,1931,1534,0,0
714,-510,0,0,0,0,0,0,0,0,0,-1,1938,1534,0,0
721,-510,0,0,0,0,0,0,0,0,0,-1,1945,1534,0,0
728,-510,0,0,0,0,0,0,0,0,0,-1,1952,1534,0,0
735,-510,0,0,0,0,0,0,0,0,0,-1,1959,1534,0,0
742,-510,0,0,0,0,0,0,0,0,0,-1,1966,1534,0,0
749,-510,0,0,0,0,0,0,0,0,0,-1,1973,1534,0,0
756,-510,0,0,0,0,0,0,0,0,0,-1,1980,1534,0,0
763,-510,0,0,0,0,0,0,0,0,0,-1,1987,1534,0,0
770,-510,0,0,0,0,0,0,0,0,0,-1,1994,1534,0,0
777,-510,0,0,0,0,0,0,0,0,0,-1,2001,1534,0,0
784,-510,0,0,0,0,0,0,0,0,0,-1,2008,1534,0,0
791,-510,0,0,0,0,0,0,0,0,0,-1,2015,1534,0,0
798,-510,0,0,0,0,0,0,0,0,0,-1,2022,1534,0,0
805,-510,0,0,0,0,0,0,0,0,0,-1,2029,1534,0,0
812,-510,0,0,0,0,0,0,0,0,0,-1,2036,1534,0,0
-700,-517,0,0,0,0,0,0,0,0,0,-1,524,1541,0,0
-693,-517,0,0,0,0,0,0,0,0,0,-1,531,1541,0,0
-686,-517,0,0,0,0,0,0,0,0,0,-1,538,1541,0,0
-679,-517,0,0,0,0,0,0,0,0,0,-1,545,1541,0,0
-672,-517,0,0,0,0,0,0,0,0,0,-1,552,1541,0,0
-665,-517,0,0,0,0,0,0,0,0,0,-1,559,1541,0,0
-658,-517,0,0,0,0,0,0,0,0,0,-1,566,1541,0,0
-651,-517,0,0,0,0,0,0,0,0,0,-1,573,1541,0,0
-644,-517,0,0,0,0,0,0,0,0,0,-1,580,1541,0,0
-637,-517,0,0,0,0,0,0,0,0,0,-1,587,1541,0,0
-630,-517,0,0,0,0,0,0,0,0,0,-1,594,1541,0,0
-623,-517,0,0,0,0,0,0,0,0,0,-1,601,1541,0,0
-616,-517,0,0,0,0,0,0,0,0,0,-1,608,1541,0,0
-609,-517,0,0,0,0,0,0,0,0,0,-1,615,1541,0,0
-602,-517,0,0,0,0,0,0,0,0,0,-1,622,1541,0,0
-595,-517,0,0,0,0,0,0,0,0,0,-1,629,1541,0,0
-588,-517,0,0,0,0,0,0,0,0,0,-1,636,1541,0,0
-581,-517,0,0,0,0,0,0,0,0,0,-1,643,1541,0,0
-574,-517,0,0,0,0,0,0,0,0,0,-1,650,1541,0,0
-567,-517,0,0,0,0,0,0,0,0,0,-1,657,1541,0,0
-560,-517,0,0,0,0,0,0,0,0,0,-1,664,1541,0,0
-553,-517,0,0,0,0,0,0,0,0,0,-1,671,1541,0,0
-546,-517,0,0,0,0,0,0,0,0,0,-1,678,1541,0,0
-539,-517,0,0,0,0,0,0,0,0,0,-1,685,1541,0,0
-532,-517,0,0,0,0,0,0,0,0,0,-1,692,1541,0,0
-525,-517,0.467896,4.35828,0,0,0,0,0,0,0,-1,699,1541,0.467905,-4.35823
-518,-517,-0.0923462,4.67297,0,0,0,0,0,0,0,-1,706,1541,-0.0923617,-4.67292
-511,-517,-0.60907,4.76563,0,0,0,0,0,0,0,-1,713,1541,-0.60905,-4.76557
-504,-517,-0.883362,4.79858,0,0,0,0,0,0,0,-1,720,1541,-0.88337,-4.79854
-497,-517,-1.04999,5.82275,0,0,0,0,0,0,0,-1,727,1541,-1.04997,-5.82276
-490,-517,-0.48877,5.80652,0.048606,0.0372647,0.00568651,0.0509661,0.0349046,0.393396,0.0300882,0.045126,734,1541,-0.488764,-5.8065
-483,-517,0.0438232,5.80603,0.0328743,0.034125,0.00598048,0.0395127,0.0274865,0.837491,0.0233875,0.0427618,741,1541,0.0438333,-5.80602
-476,-517,-0.13916,5.98706,0.0211868,0.0291538,0.00788838,0.0340074,0.0163332,1.01921,0.0196393,0.0330746,748,1541,-0.139153,-5.98712
-469,-517,-0.313538,6.34692,0.0138218,0.0244841,0.00859283,0.0292652,0.00904072,1.06305,0.0173027,0.0139171,755,1541,-0.313508,-6.34687
-462,-517,-0.366089,6.5686,0.00886563,0.0196445,0.00912308,0.0248512,0.00365901,1.05219,0.0154925,0.0146957,762,1541,-0.366118,-6.56856
-455,-517,-0.371826,6.82532,0.00611988,0.0148891,0.00889972,0.0204257,0.000583321,1.01428,0.0134269,0.0130792,769,1541,-0.371814,-6.82528
-448,-517,-0.386475,7.08362,0.00496628,0.011103,0.00768026,0.0163051,-0.000235863,0.975441,0.0109496,0.0123277,776,1541,-0.386476,-7.08364
-441,-517,-0.392761,7.31189,0.00425638,0.00779796,0.00619048,0.0124659,-0.0004116,0.924704,0.00845116,0.0115799,783,1541,-0.392761,-7.31185
-434,-517,-0.377686,7.51538,0.00332761,0.00449858,0.00485631,0.00880457,-0.000978379,0.845389,0.00622153,0.0142128,790,1541,-0.377698,-7.51538
-427,-517,-0.376648,7.75073,0.00331928,0.00164581,0.00329084,0.00587809,-0.000913005,0.660905,0.00425583,0.0141521,797,1541,-0.376642,-7.75079
-420,-517,-0.401123,8.01624,0.00398371,-0.00100478,0.0015953,0.00445025,-0.00147132,0.284512,0.0035601,0.0195274,804,1541,-0.401143,-8.01621
-413,-517,-0.409546,8.24048,0.00471073,-0.00406954,0.000492655,0.00473828,-0.0040971,0.0558756,0.00510559,0.0103847,811,1541,-0.409552,-8.24049
-406,-517,-0.398499,8.48389,0.00523522,-0.00688303,-0.000718039,0.00527761,-0.00692542,-0.0589777,0.00706681,0.0106048,818,1541,-0.398521,-8.48391
-399,-517,-0.375122,8.71558,0.00633184,-0.00966694,-0.00132175,0.0064403,-0.0097754,-0.0818761,0.00942791,0.0104748,825,1541,-0.375109,-8.71561
-392,-517,-0.368774,8.93396,0.00757037,-0.012601,-0.00162563,0.00770055,-0.0127312,-0.0799037,0.0119148,0.0112408,832,1541,-0.3688,-8.93394
-385,-517,-0.322998,9.34509,0,0,0,0,0,0,0,-1,839,1541,-0.322986,-9.34507
-378,-517,-0.349243,9.29541,0.00988516,-0.0186026,-0.00245769,0.0100956,-0.0188131,-0.0854304,0.0169415,0.0367747,846,1541,-0.349213,-9.29535
-371,-517,-0.155518,9.02942,0.0104825,-0.0219539,-0.00281772,0.0107255,-0.0221969,-0.0860105,0.0193885,0.0448055,853,1541,-0.155541,-9.02944
-364,-517,0.605408,8.70129,0.0101554,-0.0242184,-0.0029736,0.0104108,-0.0244737,-0.0856597,0.0206789,0.0470342,860,1541,0.605411,-8.70127
-357,-517,-1.22638,9.71826,0,0,0,0,0,0,0,-1,867,1541,-1.22636,-9.71825
-350,-517,-0.514282,9.26501,0,0,0,0,0,0,0,-1,874,1541,-0.514269,-9.26497
-343,-517,-2.56708,6.12415,0,0,0,0,0,0,0,-1,881,1541,-2.56708,-6.12418
-336,-517,-1.81256,7.39868,0,0,0,0,0,0,0,-1,888,1541,-1.81255,-7.39862
-329,-517,-0.370361,8.6095,0,0,0,0,0,0,0,-1,895,1541,-0.370333,-8.60947
-322,-517,-0.924377,9.64771,0,0,0,0,0,0,0,-1,902,1541,-0.924405,-9.64767
-315,-517,-0.99823,10.0765,0,0,0,0,0,0,0,-1,909,1541,-0.998229,-10.0766
-308,-517,-0.906128,10.2517,0,0,0,0,0,0,0,-1,916,1541,-0.906148,-10.2517
-301,-517,-1.26471,9.76477,0,0,0,0,0,0,0,-1,923,1541,-1.2647,-9.76474
-294,-517,-0.821411,10.1919,0,0,0,0,0,0,0,-1,930,1541,-0.821419,-10.1919
-287,-517,-0.212158,3.43335,0,0,0,0,0,0,0,-1,937,1541,-0.212159,-3.43334
-280,-517,0,0,0,0,0,0,0,0,0,-1,944,1541,0,0
-273,-517,0,0,0,0,0,0,0,0,0,-1,951,1541,0,0
-266,-517,0,0,0,0,0,0,0,0,0,-1,958,1541,0,0
-259,-517,0,0,0,0,0,0,0,0,0,-1,965,1541,0,0
-252,-517,0,0,0,0,0,0,0,0,0,-1,972,1541,0,0
-245,-517,0,0,0,0,0,0,0,0,0,-1,979,1541,0,0
-238,-517,0,0,0,0,0,0,0,0,0,-1,986,1541,0,0
-231,-517,0,0,0,0,0,0,0,0,0,-1,993,1541,0,0
-224,-517,0,0,0,0,0,0,0,0,0,-1,1000,1541,0,0
-217,-517,0,0,0,0,0,0,0,0,0,-1,1007,1541,0,0
-210,-517,0,0,0,0,0,0,0,0,0,-1,1014,1541,0,0
-203,-517,0,0,0,0,0,0,0,0,0,-1,1021,1541,0,0
-196,-517,0,0,0,0,0,0,0,0,0,-1,1028,1541,0,0
-189,-517,0,0,0,0,0,0,0,0,0,-1,1035,1541,0,0
-182,-517,0,0,0,0,0,0,0,0,0,-1,1042,1541,0,0
-175,-517,0,0,0,0,0,0,0,0,0,-1,1049,1541,0,0
-168,-517,0,0,0,0,0,0,0,0,0,-1,1056,1541,0,0
-161,-517,0,0,0,0,0,0,0,0,0,-1,1063,1541,0,0
-154,-517,0,0,0,0,0,0,0,0,0,-1,1070,1541,0,0
-147,-517,0,0,0,0,0,0,0,0,0,-1,1077,1541,0,0
-140,-517,0,0,0,0,0,0,0,0,0,-1,1084,1541,0,0
-133,-517,0,0,0,0,0,0,0,0,0,-1,1091,1541,0,0
-126,-517,0,0,0,0,0,0,0,0,0,-1,1098,1541,0,0
-119,-517,0,0,0,0,0,0,0,0,0,-1,1105,1541,0,0
-112,-517,0,0,0,0,0,0,0,0,0,-1,1112,1541,0,0
-105,-517,0,0,0,0,0,0,0,0,0,-1,1119,1541,0,0
-98,-517,0,0,0,0,0,0,0,0,0,-1,1126,1541,0,0
-91,-517,0,0,0,0,0,0,0,0,0,-1,1133,1541,0,0
-84,-517,0,0,0,0,0,0,0,0,0,-1,1140,1541,0,0
-77,-517,0,0,0,0,0,0,0,0,0,-1,1147,1541,0,0
-70,-517,0,0,0,0,0,0,0,0,0,-1,1154,1541,0,0
-63,-517,0,0,0,0,0,0,0,0,0,-1,1161,1541,0,0
-56,-517,0,0,0,0,0,0,0,0,0,-1,1168,1541,0,0
-49,-517,0,0,0,0,0,0,0,0,0,-1,1175,1541,0,0
-42,-517,0,0,0,0,0,0,0,0,0,-1,1182,1541,0,0
-35,-517,0,0,0,0,0,0,0,0,0,-1,1189,1541,0,0
-28,-517,0,0,0,0,0,0,0,0,0,-1,1196,1541,0,0
-21,-517,0,0,0,0,0,0,0,0,0,-1,1203,1541,0,0
-14,-517,0,0,0,0,0,0,0,0,0,-1,1210,1541,0,0
-7,-517,0,0,0,0,0,0,0,0,0,-1,1217,1541,0,0
0,-517,0,0,0,0,0,0,0,0,0,-1,1224,1541,0,0
7,-517,0,0,0,0,0,0,0,0,0,-1,1231,1541,0,0
14,-517,0,0,0,0,0,0,0,0,0,-1,1238,1541,0,0
21,-517,0,0,0,0,0,0,0,0,0,-1,1245,1541,0,0
28,-517,0,0,0,0,0,0,0,0,0,-1,1252,1541,0,0
35,-517,0,0,0,0,0,0,0,0,0,-1,1259,1541,0,0
42,-517,0,0,0,0,0,0,0,0,0,-1,1266,1541,0,0
49,-517,0,0,0,0,0,0,0,0,0,-1,1273,1541,0,0
56,-517,0,0,0,0,0,0,0,0,0,-1,1280,1541,0,0
63,-517,0,0,0,0,0,0,0,0,0,-1,1287,1541,0,0
70,-517,0,0,0,0,0,0,0,0,0,-1,1294,1541,0,0
77,-517,0,0,0,0,0,0,0,0,0,-1,1301,1541,0,0
84,-517,0,0,0,0,0,0,0,0,0,-1,1308,1541,0,0
91,-517,0,0,0,0,0,0,0,0,0,-1,1315,1541,0,0
98,-517,0,0,0,0,0,0,0,0,0,-1,1322,1541,0,0
105,-517,0,0,0,0,0,0,0,0,0,-1,1329,1541,0,0
112,-517,0,0,0,0,0,0,0,0,0,-1,1336,1541,0,0
119,-517,0,0,0,0,0,0,0,0,0,-1,1343,1541,0,0
126,-517,0,0,0,0,0,0,0,0,0,-1,1350,1541,0,0
133,-517,0,0,0,0,0,0,0,0,0,-1,1357,1541,0,0
140,-517,0,0,0,0,0,0,0,0,0,-1,1364,1541,0,0
147,-517,0,0,0,0,0,0,0,0,0,-1,1371,1541,0,0
154,-517,0,0,0,0,0,0,0,0,0,-1,1378,1541,0,0
161,-517,0,0,0,0,0,0,0,0,0,-1,1385,1541,0,0
168,-517,0,0,0,0,0,0,0,0,0,-1,1392,1541,0,0
175,-517,0,0,0,0,0,0,0,0,0,-1,1399,1541,0,0
182,-517,0,0,0,0,0,0,0,0,0,-1,1406,1541,0,0
189,-517,0,0,0,0,0,0,0,0,0,-1,1413,1541,0,0
196,-517,0,0,0,0,0,0,0,0,0,-1,1420,1541,0,0
203,-517,0,0,0,0,0,0,0,0,0,-1,1427,1541,0,0
210,-517,0,0,0,0,0,0,0,0,0,-1,1434,1541,0,0
217,-517,0,0,0,0,0,0,0,0,0,-1,1441,1541,0,0
224,-517,0,0,0,0,0,0,0,0,0,-1,1448,1541,0,0
231,-517,0,0,0,0,0,0,0,0,0,-1,1455,1541,0,0
238,-517,0,0,0,0,0,0,0,0,0,-1,1462,1541,0,0
245,-517,0,0,0,0,0,0,0,0,0,-1,1469,1541,0,0
252,-517,0,0,0,0,0,0,0,0,0,-1,1476,1541,0,0
259,-517,0,0,0,0,0,0,0,0,0,-1,1483,1541,0,0
266,-517,0,0,0,0,0,0,0,0,0,-1,1490,1541,0,0
273,-517,0,0,0,0,0,0,0,0,0,-1,1497,1541,0,0
280,-517,0,0,0,0,0,0,0,0,0,-1,1504,1541,0,0
287,-517,0,0,0,0,0,0,0,0,0,-1,1511,1541,0,0
294,-517,0,0,0,0,0,0,0,0,0,-1,1518,1541,0,0
301,-517,0,0,0,0,0,0,0,0,0,-1,1525,1541,0,0
308,-517,0,0,0,0,0,0,0,0,0,-1,1532,1541,0,0
315,-517,0,0,0,0,0,0,0,0,0,-1,1539,1541,0,0
322,-517,0,0,0,0,0,0,0,0,0,-1,1546,1541,0,0
329,-517,0,0,0,0,0,0,0,0,0,-1,1553,1541,0,0
336,-517,0,0,0,0,0,0,0,0,0,-1,1560,1541,0,0
343,-517,0,0,0,0,0,0,0,0,0,-1,1567,1541,0,0
350,-517,0,0,0,0,0,0,0,0,0,-1,1574,1541,0,0
357,-517,0,0,0,0,0,0,0,0,0,-1,1581,1541,0,0
364,-517,0,0,0,0,0,0,0,0,0,-1,1588,1541,0,0
371,-517,0,0,0,0,0,0,0,0,0,-1,1595,1541,0,0
378,-517,0,0,0,0,0,0,0,0,0,-1,1602,1541,0,0
385,-517,0,0,0,0,0,0,0,0,0,-1,1609,1541,0,0
392,-517,0,0,0,0,0,0,0,0,0,-1,1616,1541,0,0
399,-517,0,0,0,0,0,0,0,0,0,-1,1623,1541,0,0
406,-517,12.1469,6.22412,0,0,0,0,0,0,0,-1,1630,1541,12.1468,-6.22408
413,-517,12.2695,6.3324,0,0,0,0,0,0,0,-1,1637,1541,12.2696,-6.33243
420,-517,12.4789,6.20337,0,0,0,0,0,0,0,-1,1644,1541,12.4789,-6.20333
427,-517,11.647,4.66516,0,0,0,0,0,0,0,-1,1651,1541,11.647,-4.66519
434,-517,12.3719,3.92773,0,0,0,0,0,0,0,-1,1658,1541,12.3719,-3.92776
441,-517,13.146,3.14124,0,0,0,0,0,0,0,-1,1665,1541,13.146,-3.14121
448,-517,13.8861,2.36682,0,0,0,0,0,0,0,-1,1672,1541,13.8861,-2.36684
455,-517,13.6012,4.06335,0,0,0,0,0,0,0,-1,1679,1541,13.6012,-4.06335
462,-517,12.4916,4.39502,0,0,0,0,0,0,0,-1,1686,1541,12.4916,-4.39501
469,-517,11.5607,4.99341,0,0,0,0,0,0,0,-1,1693,1541,11.5607,-4.99337
476,-517,10.6741,5.75378,0,0,0,0,0,0,0,-1,1700,1541,10.6741,-5.75375
483,-517,11.1764,7.83276,0,0,0,0,0,0,0,-1,1707,1541,11.1764,-7.8328
490,-517,9.88818,10.0656,0,0,0,0,0,0,0,-1,1714,1541,9.88824,-10.0655
497,-517,9.76404,10.1348,0,0,0,0,0,0,0,-1,1721,1541,9.76404,-10.1348
504,-517,9.63989,10.2041,0,0,0,0,0,0,0,-1,1728,1541,9.63985,-10.2041
511,-517,9.70276,10.7412,-0.0199937,-0.0237005,0.0209515,-0.000813818,-0.0428804,0.741283,0.0283196,0.0364287,1735,1541,9.70272,-10.7412
518,-517,9.52161,10.4899,-0.0152311,-0.0177108,0.0160323,-0.000390779,-0.0325511,0.746807,0.0215716,0.0230313,1742,1541,9.52162,-10.4899
525,-517,9.50977,10.2281,-0.0111191,-0.0124026,0.0115256,-0.00021742,-0.0233042,0.757587,0.0154642,0.0118348,1749,1541,9.50976,-10.2281
532,-517,9.55664,10.0203,-0.0080049,-0.00889556,0.00839953,-3.89013e-05,-0.0168616,0.758914,0.0112281,0.0107265,1756,1541,9.5567,-10.0202
539,-517,9.55359,9.82703,-0.0055648,-0.0059605,0.005987,0.000227615,-0.0117529,0.768881,0.00791224,0.0111839,1763,1541,9.55364,-9.82704
546,-517,9.52869,9.65027,-0.00364184,-0.00392558,0.00415966,0.000378365,-0.00794579,0.768352,0.00542771,0.0121555,1770,1541,9.52869,-9.65028
553,-517,9.52112,9.42847,-0.00198652,-0.00217998,0.00257799,0.000496548,-0.00466305,0.766647,0.00328674,0.0162169,1777,1541,9.5211,-9.42847
560,-517,9.53601,9.19885,-0.000383576,-0.000494828,0.00113992,0.00070207,-0.00158047,0.761018,0.00134996,0.0149061,1784,1541,9.53599,-9.19889
567,-517,9.53101,9.00183,0.00132995,0.00112477,-0.000402707,0.00164293,0.000811789,-0.660674,0.000948567,0.0119993,1791,1541,9.53103,-9.00184
574,-517,9.52942,8.77979,0.00274293,0.00249473,-0.00154459,0.0041684,0.00106926,-0.745311,0.00249994,0.0130096,1798,1541,9.5294,-8.77984
581,-517,9.5354,8.57458,0.00429307,0.00366626,-0.00259027,0.00658883,0.0013705,-0.725195,0.00401447,0.0145691,1805,1541,9.53545,-8.57459
588,-517,9.54553,8.38843,0.00571404,0.00592826,-0.00479653,0.0106189,0.00102343,-0.796562,0.00676397,0.0149974,1812,1541,9.54554,-8.3884
595,-517,9.54614,8.16443,0.00756869,0.00814989,-0.00675291,0.0146184,0.00110013,-0.806901,0.0094004,0.0169509,1819,1541,9.5462,-8.16447
602,-517,9.50366,7.90881,0.00967406,0.0110151,-0.00934987,0.0197185,0.00097072,-0.821195,0.0128343,0.0203596,1826,1541,9.50364,-7.90886
609,-517,9.78674,7.55383,0.0121882,0.0148639,-0.0129035,0.0264988,0.000553349,-0.837055,0.0174843,0.0376567,1833,1541,9.7867,-7.55381
616,-517,10.209,7.3197,0.0151078,0.0199453,-0.0176833,0.0353746,-0.000321409,-0.853367,0.0236909,0.045426,1840,1541,10.209,-7.31971
623,-517,10.499,6.92285,0,0,0,0,0,0,0,-1,1847,1541,10.499,-6.92288
630,-517,9.21375,7.09631,0,0,0,0,0,0,0,-1,1854,1541,9.21373,-7.09628
637,-517,10.7808,4.92993,0,0,0,0,0,0,0,-1,1861,1541,10.7808,-4.92993
644,-517,11.4232,3.30579,0,0,0,0,0,0,0,-1,1868,1541,11.4232,-3.30574
651,-517,0,0,0,0,0,0,0,0,0,-1,1875,1541,0,0
658,-517,0,0,0,0,0,0,0,0,0,-1,1882,1541,0,0
665,-517,0,0,0,0,0,0,0,0,0,-1,1889,1541,0,0
672,-517,0,0,0,0,0,0,0,0,0,-1,1896,1541,0,0
679,-517,0,0,0,0,0,0,0,0,0,-1,1903,1541,0,0
686,-517,0,0,0,0,0,0,0,0,0,-1,1910,1541,0,0
693,-517,0,0,0,0,0,0,0,0,0,-1,1917,1541,0,0
700,-517,0,0,0,0,0,0,0,0,0,-1,1924,1541,0,0
707,-517,0,0,0,0,0,0,0,0,0,-1,1931,1541,0,0
714,-517,0,0,0,0,0,0,0,0,0,-1,1938,1541,0,0
721,-517,0,0,0,0,0,0,0,0,0,-1,1945,1541,0,0
728,-517,0,0,0,0,0,0,0,0,0,-1,1952,1541,0,0
735,-517,0,0,0,0,0,0,0,0,0,-1,1959,1541,0,0
742,-517,0,0,0,0,0,0,0,0,0,-1,1966,1541,0,0
749,-517,0,0,0,0,0,0,0,0,0,-1,1973,1541,0,0
756,-517,0,0,0,0,0,0,0,0,0,-1,1980,1541,0,0
763,-517,0,0,0,0,0,0,0,0,0,-1,1987,1541,0,0
770,-517,0,0,0,0,0,0,0,0,0,-1,1994,1541,0,0
777,-517,0,0,0,0,0,0,0,0,0,-1,2001,1541,0,0
784,-517,0,0,0,0,0,0,0,0,0,-1,2008,1541,0,0
791,-517,0,0,0,0,0,0,0,0,0,-1,2015,1541,0,0
798,-517,0,0,0,0,0,0,0,0,0,-1,2022,1541,0,0
805,-517,0,0,0,0,0,0,0,0,0,-1,2029,1541,0,0
812,-517,0,0,0,0,0,0,0,0,0,-1,2036,1541,0,0
-700,-524,0,0,0,0,0,0,0,0,0,-1,524,1548,0,0
-693,-524,0,0,0,0,0,0,0,0,0,-1,531,1548,0,0
-686,-524,0,0,0,0,0,0,0,0,0,-1,538,1548,0,0
-679,-524,0,0,0,0,0,0,0,0,0,-1,545,1548,0,0
-672,-524,0,0,0,0,0,0,0,0,0,-1,552,1548,0,0
-665,-524,0,0,0,0,0,0,0,0,0,-1,559,1548,0,0
-658,-524,0,0,0,0,0,0,0,0,0,-1,566,1548,0,0
-651,-524,0,0,0,0,0,0,0,0,0,-1,573,1548,0,0
-644,-524,0,0,0,0,0,0,0,0,0,-1,580,1548,0,0
-637,-524,0,0,0,0,0,0,0,0,0,-1,587,1548,0,0
-630,-524,0,0,0,0,0,0,0,0,0,-1,594,1548,0,0
-623,-524,0,0,0,0,0,0,0,0,0,-1,601,1548,0,0
-616,-524,0,0,0,0,0,0,0,0,0,-1,608,1548,0,0
-609,-524,0,0,0,0,0,0,0,0,0,-1,615,1548,0,0
-602,-524,0,0,0,0,0,0,0,0,0,-1,622,1548,0,0
-595,-524,0,0,0,0,0,0,0,0,0,-1,629,1548,0,0
-588,-524,0,0,0,0,0,0,0,0,0,-1,636,1548,0,0
-581,-524,0,0,0,0,0,0,0,0,0,-1,643,1548,0,0
-574,-524,0,0,0,0,0,0,0,0,0,-1,650,1548,0,0
-567,-524,0,0,0,0,0,0,0,0,0,-1,657,1548,0,0
-560,-524,0,0,0,0,0,0,0,0,0,-1,664,1548,0,0
-553,-524,0,0,0,0,0,0,0,0,0,-1,671,1548,0,0
-546,-524,0,0,0,0,0,0,0,0,0,-1,678,1548,0,0
-539,-524,0,0,0,0,0,0,0,0,0,-1,685,1548,0,0
-532,-524,0,0,0,0,0,0,0,0,0,-1,692,1548,0,0
-525,-524,-0.215515,3.97131,0,0,0,0,0,0,0,-1,699,1548,-0.215501,-3.97136
-518,-524,-0.806274,4.35632,0,0,0,0,0,0,0,-1,706,1548,-0.806259,-4.35633
-511,-524,-1.08301,4.29004,0,0,0,0,0,0,0,-1,713,1548,-1.08301,-4.29006
-504,-524,-1.28821,3.98145,0,0,0,0,0,0,0,-1,720,1548,-1.28822,-3.98151
-497,-524,-0.650818,5.17065,0,0,0,0,0,0,0,-1,727,1548,-0.650842,-5.1707
-490,-524,-0.048645,5.12024,0.0555737,0.0541487,0.0138369,0.0687164,0.041006,0.759675,0.0399202,0.0449208,734,1548,-0.0486601,-5.12025
-483,-524,0.417358,5.37341,0.0389855,0.0479003,0.0160662,0.060116,0.0267698,0.920715,0.0347771,0.0456952,741,1548,0.417369,-5.37347
-476,-524,0.17627,5.70032,0.0271117,0.0408061,0.0185023,0.0536875,0.0142303,0.96262,0.0321169,0.0421266,748,1548,0.176268,-5.70032
-469,-524,-0.0473633,6.27686,0.0195802,0.0346808,0.0188983,0.0474813,0.00677979,0.975446,0.0296537,0.0309418,755,1548,-0.0473571,-6.27686
-462,-524,-0.0838013,6.60437,0.0142584,0.0286085,0.0186296,0.041397,0.00146985,0.969215,0.0271213,0.0245086,762,1548,-0.0838155,-6.6044
-455,-524,-0.148987,6.84082,0.0110213,0.0228023,0.0173639,0.0352477,-0.00142404,0.948925,0.0239873,0.0172423,769,1548,-0.148995,-6.84083
-448,-524,-0.148682,7.08118,0.00908383,0.017928,0.0149395,0.0290861,-0.00207427,0.92929,0.0201179,0.0123344,776,1548,-0.148664,-7.08112
-441,-524,-0.165466,7.30676,0.007503,0.0135641,0.012172,0.0230771,-0.00201002,0.907406,0.0160966,0.0109796,783,1548,-0.165485,-7.30681
-434,-524,-0.135803,7.50964,0.00563958,0.0092968,0.00970015,0.0173392,-0.00240282,0.878562,0.012438,0.0124951,790,1548,-0.135791,-7.50959
-427,-524,-0.137024,7.74561,0.00476467,0.00563313,0.00706663,0.0122789,-0.00188106,0.816083,0.00887959,0.0132782,797,1548,-0.137005,-7.74557
-420,-524,-0.149536,8.01245,0.00467726,0.00245555,0.00439764,0.00810218,-0.000969365,0.661685,0.00575187,0.0108036,804,1548,-0.149513,-8.0124
-413,-524,-0.159424,8.24768,0.00462619,-0.000889945,0.00242782,0.00554252,-0.00180628,0.360901,0.00442184,0.0100039,811,1548,-0.159454,-8.24763
-406,-524,-0.155701,8.49011,0.00434032,-0.00402419,0.000403413,0.00435973,-0.0040436,0.0480804,0.00485281,0.0106878,818,1548,-0.155721,-8.49015
-399,-524,-0.140137,8.71716,0.00469195,-0.00680754,-0.000804951,0.00474802,-0.00686361,-0.0695468,0.00674097,0.00905888,825,1548,-0.140112,-8.71722
-392,-524,-0.143616,8.92505,0.00539256,-0.00936255,-0.00133733,0.00551279,-0.00948278,-0.0896615,0.00875825,0.00962242,832,1548,-0.143619,-8.92505
-385,-524,-0.161072,9.17517,0.00630574,-0.0114466,-0.0016412,0.00645619,-0.0115971,-0.0914171,0.010563,0.0113256,839,1548,-0.161049,-9.1752
-378,-524,-0.121643,9.50281,0.00705304,-0.0136142,-0.00193101,0.00723191,-0.0137931,-0.0923677,0.0123342,0.0212399,846,1548,-0.121645,-9.50282
-371,-524,-0.0377197,9.70215,0.00733426,-0.0158502,-0.00215952,0.00753369,-0.0160497,-0.0920892,0.0139086,0.0422702,853,1548,-0.0377166,-9.70214
-364,-524,-0.422424,9.7915,0.00671036,-0.0168049,-0.00219719,0.00691389,-0.0170084,-0.0923713,0.0142155,0.0423803,860,1548,-0.42242,-9.79154
-357,-524,-0.6026,9.72131,0.0051376,-0.0167227,-0.00225767,0.00536833,-0.0169534,-0.101845,0.0134536,0.0487291,867,1548,-0.602612,-9.72137
-350,-524,-0.436829,10.2445,0,0,0,0,0,0,0,-1,874,1548,-0.436818,-10.2445
-343,-524,-1.2887,6.94836,0,0,0,0,0,0,0,-1,881,1548,-1.28868,-6.94831
-336,-524,0.0162354,8.78796,0,0,0,0,0,0,0,-1,888,1548,0.0162217,-8.78799
-329,-524,-0.42865,10.9523,0,0,0,0,0,0,0,-1,895,1548,-0.428659,-10.9523
-322,-524,-0.502136,11.0057,0,0,0,0,0,0,0,-1,902,1548,-0.502128,-11.0057
-315,-524,-0.988525,9.54456,0,0,0,0,0,0,0,-1,909,1548,-0.988536,-9.54449
-308,-524,-1.6651,9.68347,0,0,0,0,0,0,0,-1,916,1548,-1.66512,-9.68346
-301,-524,-1.12311,9.94629,0,0,0,0,0,0,0,-1,923,1548,-1.12314,-9.94631
-294,-524,-0.753967,10.2108,0,0,0,0,0,0,0,-1,930,1548,-0.753991,-10.2108
-287,-524,-0.541138,10.4657,0,0,0,0,0,0,0,-1,937,1548,-0.541153,-10.4657
-280,-524,-1.99243,9.78064,0,0,0,0,0,0,0,-1,944,1548,-1.99241,-9.78061
-273,-524,0,0,0,0,0,0,0,0,0,-1,951,1548,0,0
-266,-524,0,0,0,0,0,0,0,0,0,-1,958,1548,0,0
-259,-524,0,0,0,0,0,0,0,0,0,-1,965,1548,0,0
-252,-524,0,0,0,0,0,0,0,0,0,-1,972,1548,0,0
-245,-524,0,0,0,0,0,0,0,0,0,-1,979,1548,0,0
-238,-524,0,0,0,0,0,0,0,0,0,-1,986,1548,0,0
-231,-524,0,0,0,0,0,0,0,0,0,-1,993,1548,0,0
-224,-524,0,0,0,0,0,0,0,0,0,-1,1000,1548,0,0
-217,-524,0,0,0,0,0,0,0,0,0,-1,1007,1548,0,0
-210,-524,0,0,0,0,0,0,0,0,0,-1,1014,1548,0,0
-203,-524,0,0,0,0,0,0,0,0,0,-1,1021,1548,0,0
-196,-524,0,0,0,0,0,0,0,0,0,-1,1028,1548,0,0
-189,-524,0,0,0,0,0,0,0,0,0,-1,1035,1548,0,0
-182,-524,0,0,0,0,0,0,0,0,0,-1,1042,1548,0,0
-175,-524,0,0,0,0,0,0,0,0,0,-1,1049,1548,0,0
-168,-524,0,0,0,0,0,0,0,0,0,-1,1056,1548,0,0
-161,-524,0,0,0,0,0,0,0,0,0,-1,1063,1548,0,0
-154,-524,0,0,0,0,0,0,0,0,0,-1,1070,1548,0,0
-147,-524,0,0,0,0,0,0,0,0,0,-1,1077,1548,0,0
-140,-524,0,0,0,0,0,0,0,0,0,-1,1084,1548,0,0
-133,-524,0,0,0,0,0,0,0,0,0,-1,1091,1548,0,0
-126,-524,0,0,0,0,0,0,0,0,0,-1,1098,1548,0,0
-119,-524,0,0,0,0,0,0,0,0,0,-1,1105,1548,0,0
-112,-524,0,0,0,0,0,0,0,0,0,-1,1112,1548,0,0
-105,-524,0,0,0,0,0,0,0,0,0,-1,1119,1548,0,0
-98,-524,0,0,0,0,0,0,0,0,0,-1,1126,1548,0,0
-91,-524,0,0,0,0,0,0,0,0,0,-1,1133,1548,0,0
-84,-524,0,0,0,0,0,0,0,0,0,-1,1140,1548,0,0
-77,-524,0,0,0,0,0,0,0,0,0,-1,1147,1548,0,0
-70,-524,0,0,0,0,0,0,0,0,0,-1,1154,1548,0,0
-63,-524,0,0,0,0,0,0,0,0,0,-1,1161,1548,0,0
-56,-524,0,0,0,0,0,0,0,0,0,-1,1168,1548,0,0
-49,-524,0,0,0,0,0,0,0,0,0,-1,1175,1548,0,0
-42,-524,0,0,0,0,0,0,0,0,0,-1,1182,1548,0,0
-35,-524,0,0,0,0,0,0,0,0,0,-1,1189,1548,0,0
-28,-524,0,0,0,0,0,0,0,0,0,-1,1196,1548,0,0
-21,-524,0,0,0,0,0,0,0,0,0,-1,1203,1548,0,0
-14,-524,0,0,0,0,0,0,0,0,0,-1,1210,1548,0,0
-7,-524,0,0,0,0,0,0,0,0,0,-1,1217,1548,0,0
0,-524,0,0,0,0,0,0,0,0,0,-1,1224,1548,0,0
7,-524,0,0,0,0,0,0,0,0,0,-1,1231,1548,0,0
14,-524,0,0,0,0,0,0,0,0,0,-1,1238,1548,0,0
21,-524,0,0,0,0,0,0,0,0,0,-1,1245,1548,0,0
28,-524,0,0,0,0,0,0,0,0,0,-1,1252,1548,0,0
35,-524,0,0,0,0,0,0,0,0,0,-1,1259,1548,0,0
42,-524,0,0,0,0,0,0,0,0,0,-1,1266,1548,0,0
49,-524,0,0,0,0,0,0,0,0,0,-1,1273,1548,0,0
56,-524,0,0,0,0,0,0,0,0,0,-1,1280,1548,0,0
63,-524,0,0,0,0,0,0,0,0,0,-1,1287,1548,0,0
70,-524,0,0,0,0,0,0,0,0,0,-1,1294,1548,0,0
77,-524,0,0,0,0,0,0,0,0,0,-1,1301,1548,0,0
84,-524,0,0,0,0,0,0,0,0,0,-1,1308,1548,0,0
91,-524,0,0,0,0,0,0,0,0,0,-1,1315,1548,0,0
98,-524,0,0,0,0,0,0,0,0,0,-1,1322,1548,0,0
105,-524,0,0,0,0,0,0,0,0,0,-1,1329,1548,0,0
112,-524,0,0,0,0,0,0,0,0,0,-1,1336,1548,0,0
119,-524,0,0,0,0,0,0,0,0,0,-1,1343,1548,0,0
126,-524,0,0,0,0,0,0,0,0,0,-1,1350,1548,0,0
133,-524,0,0,0,0,0,0,0,0,0,-1,1357,1548,0,0
140,-524,0,0,0,0,0,0,0,0,0,-1,1364,1548,0,0
147,-524,0,0,0,0,0,0,0,0,0,-1,1371,1548,0,0
154,-524,0,0,0,0,0,0,0,0,0,-1,1378,1548,0,0
161,-524,0,0,0,0,0,0,0,0,0,-1,1385,1548,0,0
168,-524,0,0,0,0,0,0,0,0,0,-1,1392,1548,0,0
175,-524,0,0,0,0,0,0,0,0,0,-1,1399,1548,0,0
182,-524,0,0,0,0,0,0,0,0,0,-1,1406,1548,0,0
189,-524,0,0,0,0,0,0,0,0,0,-1,1413,1548,0,0
196,-524,0,0,0,0,0,0,0,0,0,-1,1420,1548,0,0
203,-524,0,0,0,0,0,0,0,0,0,-1,1427,1548,0,0
210,-524,0,0,0,0,0,0,0,0,0,-1,1434,1548,0,0
217,-524,0,0,0,0,0,0,0,0,0,-1,1441,1548,0,0
224,-524,0,0,0,0,0,0,0,0,0,-1,1448,1548,0,0
231,-524,0,0,0,0,0,0,0,0,0,-1,1455,1548,0,0
238,-524,0,0,0,0,0,0,0,0,0,-1,1462,1548,0,0
245,-524,0,0,0,0,0,0,0,0,0,-1,1469,1548,0,0
252,-524,0,0,0,0,0,0,0,0,0,-1,1476,1548,0,0
259,-524,0,0,0,0,0,0,0,0,0,-1,1483,1548,0,0
266,-524,0,0,0,0,0,0,0,0,0,-1,1490,1548,0,0
273,-524,0,0,0,0,0,0,0,0,0,-1,1497,1548,0,0
280,-524,0,0,0,0,0,0,0,0,0,-1,1504,1548,0,0
287,-524,0,0,0,0,0,0,0,0,0,-1,1511,1548,0,0
294,-524,0,0,0,0,0,0,0,0,0,-1,1518,1548,0,0
301,-524,0,0,0,0,0,0,0,0,0,-1,1525,1548,0,0
308,-524,0,0,0,0,0,0,0,0,0,-1,1532,1548,0,0
315,-524,0,0,0,0,0,0,0,0,0,-1,1539,1548,0,0
322,-524,0,0,0,0,0,0,0,0,0,-1,1546,1548,0,0
329,-524,0,0,0,0,0,0,0,0,0,-1,1553,1548,0,0
336,-524,0,0,0,0,0,0,0,0,0,-1,1560,1548,0,0
343,-524,0,0,0,0,0,0,0,0,0,-1,1567,1548,0,0
350,-524,0,0,0,0,0,0,0,0,0,-1,1574,1548,0,0
357,-524,0,0,0,0,0,0,0,0,0,-1,1581,1548,0,0
364,-524,0,0,0,0,0,0,0,0,0,-1,1588,1548,0,0
371,-524,0,0,0,0,0,0,0,0,0,-1,1595,1548,0,0
378,-524,0,0,0,0,0,0,0,0,0,-1,1602,1548,0,0
385,-524,0,0,0,0,0,0,0,0,0,-1,1609,1548,0,0
392,-524,0,0,0,0,0,0,0,0,0,-1,1616,1548,0,0
399,-524,8.81848,5.05774,0,0,0,0,0,0,0,-1,1623,1548,8.81843,-5.05769
406,-524,8.64294,6.06799,0,0,0,0,0,0,0,-1,1630,1548,8.6429,-6.06805
413,-524,11.677,6.41858,0,0,0,0,0,0,0,-1,1637,1548,11.677,-6.41864
420,-524,11.4913,6.36401,0,0,0,0,0,0,0,-1,1644,1548,11.4913,-6.36402
427,-524,7.68335,6.17249,0,0,0,0,0,0,0,-1,1651,1548,7.68341,-6.17245
434,-524,10.432,11.6801,0,0,0,0,0,0,0,-1,1658,1548,10.432,-11.68
441,-524,8.78552,4.12305,0,0,0,0,0,0,0,-1,1665,1548,8.78553,-4.12301
448,-524,14.1854,4.78674,0,0,0,0,0,0,0,-1,1672,1548,14.1854,-4.78674
455,-524,13.1456,5.37646,0,0,0,0,0,0,0,-1,1679,1548,13.1457,-5.37652
462,-524,12.0439,5.96619,0,0,0,0,0,0,0,-1,1686,1548,12.044,-5.96623
469,-524,11.0704,6.60852,0,0,0,0,0,0,0,-1,1693,1548,11.0705,-6.60852
476,-524,10.0553,7.79016,0,0,0,0,0,0,0,-1,1700,1548,10.0553,-7.79013
483,-524,10.3622,9.10046,0,0,0,0,0,0,0,-1,1707,1548,10.3622,-9.10043
490,-524,9.474,10.7607,0,0,0,0,0,0,0,-1,1714,1548,9.47404,-10.7607
497,-524,9.42407,10.7572,-0.0264351,-0.0324239,0.0276563,-0.00161152,-0.0572475,0.731473,0.0376393,0.033337,1721,1548,9.42405,-10.7571
504,-524,9.33179,10.7637,-0.0204595,-0.025246,0.0216496,-0.00107127,-0.0446342,0.730349,0.0294055,0.0188571,1728,1548,9.33177,-10.7637
511,-524,9.30713,10.652,-0.0156546,-0.0192237,0.0167742,-0.00057023,-0.034308,0.732404,0.0226843,0.0168913,1735,1548,9.3071,-10.6519
518,-524,9.33313,10.423,-0.0117681,-0.0141534,0.0126924,-0.000212437,-0.0257091,0.738554,0.017069,0.015315,1742,1548,9.33319,-10.423
525,-524,9.3335,10.2289,-0.00835699,-0.00957387,0.00886228,-8.22917e-05,-0.0178486,0.751124,0.0118717,0.0142261,1749,1548,9.33346,-10.2289
532,-524,9.34851,10.033,-0.00579231,-0.00659323,0.00623764,5.77113e-05,-0.0124432,0.753342,0.0083148,0.0102199,1756,1548,9.34854,-10.033
539,-524,9.34973,9.82483,-0.00380079,-0.00407545,0.00423196,0.000296065,-0.00817231,0.769178,0.00554953,0.010286,1763,1548,9.34974,-9.82481
546,-524,9.32703,9.60364,-0.00223666,-0.00232864,0.00272548,0.000443216,-0.00500851,0.776962,0.00349613,0.0136713,1770,1548,9.32703,-9.60362
553,-524,9.33374,9.41187,-0.000841157,-0.000801337,0.00137894,0.000557836,-0.00220033,0.792617,0.00168392,0.0232525,1777,1548,9.33377,-9.41185
560,-524,9.33118,9.19385,0.000605989,0.000776662,9.97473e-05,0.000822596,0.000560055,1.13925,0.00048517,0.0291569,1784,1548,9.33115,-9.19383
567,-524,9.32751,8.99695,0.00216602,0.00232928,-0.00129546,0.00354568,0.000949622,-0.816864,0.00211939,0.0165196,1791,1548,9.32752,-8.99694
574,-524,9.32898,8.77966,0.00347495,0.00364449,-0.00239322,0.00595444,0.001165,-0.803101,0.00364391,0.0119306,1798,1548,9.32894,-8.77966
581,-524,9.34082,8.58484,0.00515861,0.00488596,-0.00352014,0.00854506,0.00149951,-0.766044,0.00526849,0.0133694,1805,1548,9.34077,-8.58485
588,-524,9.35474,8.38696,0.00696675,0.007552,-0.00598696,0.0132535,0.00126527,-0.809817,0.00844555,0.0142278,1812,1548,9.3547,-8.38695
595,-524,9.35571,8.15112,0.00939017,0.0103383,-0.00835505,0.0182327,0.00149573,-0.813737,0.0116885,0.0154729,1819,1548,9.35569,-8.15114
602,-524,9.49365,7.8064,0.0123793,0.0141585,-0.0116702,0.024973,0.00156485,-0.823437,0.0161523,0.0294325,1826,1548,9.49365,-7.80635
609,-524,9.67468,7.25403,0.0162475,0.0195254,-0.0164102,0.0343783,0.00139457,-0.83517,0.0224684,0.0418649,1833,1548,9.67464,-7.25402
616,-524,9.86072,6.75354,0,0,0,0,0,0,0,-1,1840,1548,9.8607,-6.75359
623,-524,9.38452,5.15356,0,0,0,0,0,0,0,-1,1847,1548,9.38456,-5.15359
630,-524,11.0541,3.57434,0,0,0,0,0,0,0,-1,1854,1548,11.0541,-3.57438
637,-524,11.6067,3.20728,0,0,0,0,0,0,0,-1,1861,1548,11.6067,-3.20724
644,-524,12.2134,0.727173,0,0,0,0,0,0,0,-1,1868,1548,12.2134,-0.727222
651,-524,0,0,0,0,0,0,0,0,0,-1,1875,1548,0,0
658,-524,0,0,0,0,0,0,0,0,0,-1,1882,1548,0,0
665,-524,0,0,0,0,0,0,0,0,0,-1,1889,1548,0,0
672,-524,0,0,0,0,0,0,0,0,0,-1,1896,1548,0,0
679,-524,0,0,0,0,0,0,0,0,0,-1,1903,1548,0,0
686,-524,0,0,0,0,0,0,0,0,0,-1,1910,1548,0,0
693,-524,0,0,0,0,0,0,0,0,0,-1,1917,1548,0,0
700,-524,0,0,0,0,0,0,0,0,0,-1,1924,1548,0,0
707,-524,0,0,0,0,0,0,0,0,0,-1,1931,1548,0,0
714,-524,0,0,0,0,0,0,0,0,0,-1,1938,1548,0,0
721,-524,0,0,0,0,0,0,0,0,0,-1,1945,1548,0,0
728,-524,0,0,0,0,0,0,0,0,0,-1,1952,1548,0,0
735,-524,0,0,0,0,0,0,0,0,0,-1,1959,1548,0,0
742,-524,0,0,0,0,0,0,0,0,0,-1,1966,1548,0,0
749,-524,0,0,0,0,0,0,0,0,0,-1,1973,1548,0,0
756,-524,0,0,0,0,0,0,0,0,0,-1,1980,1548,0,0
763,-524,0,0,0,0,0,0,0,0,0,-1,1987,1548,0,0
770,-524,0,0,0,0,0,0,0,0,0,-1,1994,1548,0,0
777,-524,0,0,0,0,0,0,0,0,0,-1,2001,1548,0,0
784,-524,0,0,0,0,0,0,0,0,0,-1,2008,1548,0,0
791,-524,0,0,0,0,0,0,0,0,0,-1,2015,1548,0,0
798,-524,0,0,0,0,0,0,0,0,0,-1,2022,1548,0,0
805,-524,0,0,0,0,0,0,0,0,0,-1,2029,1548,0,0
812,-524,0,0,0,0,0,0,0,0,0,-1,2036,1548,0,0
-700,-531,0,0,0,0,0,0,0,0,0,-1,524,1555,0,0
-693,-531,0,0,0,0,0,0,0,0,0,-1,531,1555,0,0
-686,-531,0,0,0,0,0,0,0,0,0,-1,538,1555,0,0
-679,-531,0,0,0,0,0,0,0,0,0,-1,545,1555,0,0
-672,-531,0,0,0,0,0,0,0,0,0,-1,552,1555,0,0
-665,-531,0,0,0,0,0,0,0,0,0,-1,559,1555,0,0
-658,-531,0,0,0,0,0,0,0,0,0,-1,566,1555,0,0
-651,-531,0,0,0,0,0,0,0,0,0,-1,573,1555,0,0
-644,-531,0,0,0,0,0,0,0,0,0,-1,580,1555,0,0
-637,-531,0,0,0,0,0,0,0,0,0,-1,587,1555,0,0
-630,-531,0,0,0,0,0,0,0,0,0,-1,594,1555,0,0
-623,-531,0,0,0,0,0,0,0,0,0,-1,601,1555,0,0
-616,-531,0,0,0,0,0,0,0,0,0,-1,608,1555,0,0
-609,-531,0,0,0,0,0,0,0,0,0,-1,615,1555,0,0
-602,-531,0,0,0,0,0,0,0,0,0,-1,622,1555,0,0
-595,-531,0,0,0,0,0,0,0,0,0,-1,629,1555,0,0
-588,-531,0,0,0,0,0,0,0,0,0,-1,636,1555,0,0
-581,-531,0,0,0,0,0,0,0,0,0,-1,643,1555,0,0
-574,-531,0,0,0,0,0,0,0,0,0,-1,650,1555,0,0
-567,-531,0,0,0,0,0,0,0,0,0,-1,657,1555,0,0
-560,-531,0,0,0,0,0,0,0,0,0,-1,664,1555,0,0
-553,-531,0,0,0,0,0,0,0,0,0,-1,671,1555,0,0
-546,-531,0,0,0,0,0,0,0,0,0,-1,678,1555,0,0
-539,-531,0,0,0,0,0,0,0,0,0,-1,685,1555,0,0
-532,-531,0,0,0,0,0,0,0,0,0,-1,692,1555,0,0
-525,-531,0,0,0,0,0,0,0,0,0,-1,699,1555,0,0
-518,-531,-1.63983,4.03821,0,0,0,0,0,0,0,-1,706,1555,-1.63982,-4.03821
-511,-531,-2.9682,8.07483,0,0,0,0,0,0,0,-1,713,1555,-2.9682,-8.07479
-504,-531,-2.95978,0.557861,0,0,0,0,0,0,0,-1,720,1555,-2.95978,-0.557917
-497,-531,-0.400818,4.74048,0,0,0,0,0,0,0,-1,727,1555,-0.400833,-4.7405
-490,-531,0.237549,4.35144,0.0611133,0.0761676,0.0274406,0.0970947,0.0401862,0.91926,0.0563341,0.0474344,734,1555,0.237577,-4.35144
-483,-531,0.819092,4.6604,0.0474171,0.0663593,0.033288,0.0914973,0.0222791,0.923996,0.0550944,0.048423,741,1555,0.819099,-4.66035
-476,-531,0.595093,5.4364,0.0375228,0.0572088,0.0361077,0.0847911,0.00994052,0.918466,0.0535225,0.045355,748,1555,0.595071,-5.43645
-469,-531,0.18396,6.09424,0.03066,0.0493008,0.0360686,0.0772338,0.00272711,0.911836,0.0506046,0.0409547,755,1555,0.183979,-6.09418
-462,-531,0.177979,6.56177,0.0250009,0.0417039,0.0346799,0.0690237,-0.0023189,0.903557,0.0468079,0.0389112,762,1555,0.177983,-6.56175
-455,-531,0.100464,6.90527,0.0210395,0.0345042,0.0318443,0.0603199,-0.00477634,0.889572,0.0418963,0.0294476,769,1555,0.100435,-6.90528
-448,-531,0.10907,7.07507,0.0179013,0.0280981,0.027579,0.051046,-0.00504663,0.876798,0.0358315,0.0134396,776,1555,0.109075,-7.07502
-441,-531,0.0626831,7.30042,0.014916,0.0221957,0.0228304,0.0416746,-0.00456286,0.864448,0.0294222,0.0115839,783,1555,0.0626537,-7.30043
-434,-531,0.0612793,7.54407,0.011578,0.0164959,0.0184883,0.032688,-0.00461418,0.851511,0.0234817,0.0116091,790,1555,0.0612633,-7.5441
-427,-531,0.0866699,7.7749,0.00922488,0.011541,0.0140556,0.0244862,-0.0037203,0.8265,0.0176951,0.0130385,797,1555,0.0866857,-7.77491
-420,-531,0.0882568,8.02637,0.00778997,0.00738364,0.0097751,0.017364,-0.00219041,0.775008,0.012371,0.0121316,804,1555,0.088278,-8.02635
-413,-531,0.0678101,8.24585,0.00641692,0.00331474,0.00633168,0.0113847,-0.00165307,0.665277,0.0081966,0.0102722,811,1555,0.067786,-8.24583
-406,-531,0.0599976,8.47327,0.00484681,-0.000595343,0.00291439,0.00611296,-0.00186149,0.409844,0.00481722,0.0110811,818,1555,0.0600021,-8.4733
-399,-531,0.0830688,8.69971,0.00409133,-0.00377908,0.000621758,0.00414014,-0.00382789,0.0783518,0.00460153,0.0128843,825,1555,0.0830925,-8.69966
-392,-531,0.0692139,8.92224,0.00386982,-0.00644053,-0.000699952,0.00391712,-0.00648783,-0.0674757,0.00606811,0.016105,832,1555,0.0691922,-8.92223
-385,-531,0.0373535,9.16077,0.00427018,-0.00815838,-0.00126648,0.00439792,-0.00828612,-0.100524,0.00743694,0.0135996,839,1555,0.0373758,-9.16082
-378,-531,0.0449219,9.36023,0.00485838,-0.00958721,-0.00141285,0.00499527,-0.00972409,-0.0965855,0.00864318,0.0107534,846,1555,0.0449431,-9.36022
-371,-531,0.104736,9.62305,0.00498916,-0.0110464,-0.0015577,0.00513907,-0.0111963,-0.0959451,0.00964493,0.0152908,853,1555,0.104724,-9.62302
-364,-531,0.128235,9.83557,0.00424171,-0.0111513,-0.0015401,0.00439428,-0.0113039,-0.0987474,0.00935142,0.0312041,860,1555,0.12822,-9.83556
-357,-531,-0.132019,9.85193,0.00269872,-0.0102787,-0.00157353,0.00288679,-0.0104668,-0.118955,0.00811314,0.0383844,867,1555,-0.132043,-9.85189
-350,-531,-0.00585938,10.1038,0.000562508,-0.00763913,-0.00166634,0.000888132,-0.00796475,-0.192981,0.00562928,0.0472484,874,1555,-0.00587705,-10.1038
-343,-531,0.111511,10.6357,0,0,0,0,0,0,0,-1,881,1555,0.111539,-10.6358
-336,-531,-0.184448,11.2681,0,0,0,0,0,0,0,-1,888,1555,-0.184449,-11.2681
-329,-531,0.0946045,11.1189,0,0,0,0,0,0,0,-1,895,1555,0.0946002,-11.1188
-322,-531,-0.253723,11.2106,0,0,0,0,0,0,0,-1,902,1555,-0.253736,-11.2106
-315,-531,-0.598206,11.3984,0,0,0,0,0,0,0,-1,909,1555,-0.598178,-11.3985
-308,-531,-1.40149,9.85437,0,0,0,0,0,0,0,-1,916,1555,-1.40151,-9.85436
-301,-531,-0.984924,10.1547,0,0,0,0,0,0,0,-1,923,1555,-0.98492,-10.1546
-294,-531,-0.430664,10.4156,0,0,0,0,0,0,0,-1,930,1555,-0.430653,-10.4157
-287,-531,-0.461792,10.8096,0,0,0,0,0,0,0,-1,937,1555,-0.46182,-10.8096
-280,-531,-1.7738,9.76196,0,0,0,0,0,0,0,-1,944,1555,-1.77378,-9.76194
-273,-531,-5.5531,14.6454,0,0,0,0,0,0,0,-1,951,1555,-5.5531,-14.6454
-266,-531,-6.7038,16.0303,0,0,0,0,0,0,0,-1,958,1555,-6.7038,-16.0303
-259,-531,0,0,0,0,0,0,0,0,0,-1,965,1555,0,0
-252,-531,0,0,0,0,0,0,0,0,0,-1,972,1555,0,0
-245,-531,0,0,0,0,0,0,0,0,0,-1,979,1555,0,0
-238,-531,0,0,0,0,0,0,0,0,0,-1,986,1555,0,0
-231,-531,0,0,0,0,0,0,0,0,0,-1,993,1555,0,0
-224,-531,0,0,0,0,0,0,0,0,0,-1,1000,1555,0,0
-217,-531,0,0,0,0,0,0,0,0,0,-1,1007,1555,0,0
-210,-531,0,0,0,0,0,0,0,0,0,-1,1014,1555,0,0
-203,-531,0,0,0,0,0,0,0,0,0,-1,1021,1555,0,0
-196,-531,0,0,0,0,0,0,0,0,0,-1,1028,1555,0,0
-189,-531,0,0,0,0,0,0,0,0,0,-1,1035,1555,0,0
-182,-531,0,0,0,0,0,0,0,0,0,-1,1042,1555,0,0
-175,-531,0,0,0,0,0,0,0,0,0,-1,1049,1555,0,0
-168,-531,0,0,0,0,0,0,0,0,0,-1,1056,1555,0,0
-161,-531,0,0,0,0,0,0,0,0,0,-1,1063,1555,0,0
-154,-531,0,0,0,0,0,0,0,0,0,-1,1070,1555,0,0
-147,-531,0,0,0,0,0,0,0,0,0,-1,1077,1555,0,0
-140,-531,0,0,0,0,0,0,0,0,0,-1,1084,1555,0,0
-133,-531,0,0,0,0,0,0,0,0,0,-1,1091,1555,0,0
-126,-531,0,0,0,0,0,0,0,0,0,-1,1098,1555,0,0
-119,-531,0,0,0,0,0,0,0,0,0,-1,1105,1555,0,0
-112,-531,0,0,0,0,0,0,0,0,0,-1,1112,1555,0,0
-105,-531,0,0,0,0,0,0,0,0,0,-1,1119,1555,0,0
-98,-531,0,0,0,0,0,0,0,0,0,-1,1126,1555,0,0
-91,-531,0,0,0,0,0,0,0,0,0,-1,1133,1555,0,0
-84,-531,0,0,0,0,0,0,0,0,0,-1,1140,1555,0,0
-77,-531,0,0,0,0,0,0,0,0,0,-1,1147,1555,0,0
-70,-531,0,0,0,0,0,0,0,0,0,-1,1154,1555,0,0
-63,-531,0,0,0,0,0,0,0,0,0,-1,1161,1555,0,0
-56,-531,0,0,0,0,0,0,0,0,0,-1,1168,1555,0,0
-49,-531,0,0,0,0,0,0,0,0,0,-1,1175,1555,0,0
-42,-531,0,0,0,0,0,0,0,0,0,-1,1182,1555,0,0
-35,-531,0,0,0,0,0,0,0,0,0,-1,1189,1555,0,0
-28,-531,0,0,0,0,0,0,0,0,0,-1,1196,1555,0,0
-21,-531,0,0,0,0,0,0,0,0,0,-1,1203,1555,0,0
-14,-531,0,0,0,0,0,0,0,0,0,-1,1210,1555,0,0
-7,-531,0,0,0,0,0,0,0,0,0,-1,1217,1555,0,0
0,-531,0,0,0,0,0,0,0,0,0,-1,1224,1555,0,0
7,-531,0,0,0,0,0,0,0,0,0,-1,1231,1555,0,0
14,-531,0,0,0,0,0,0,0,0,0,-1,1238,1555,0,0
21,-531,0,0,0,0,0,0,0,0,0,-1,1245,1555,0,0
28,-531,0,0,0,0,0,0,0,0,0,-1,1252,1555,0,0
35,-531,0,0,0,0,0,0,0,0,0,-1,1259,1555,0,0
42,-531,0,0,0,0,0,0,0,0,0,-1,1266,1555,0,0
49,-531,0,0,0,0,0,0,0,0,0,-1,1273,1555,0,0
56,-531,0,0,0,0,0,0,0,0,0,-1,1280,1555,0,0
63,-531,0,0,0,0,0,0,0,0,0,-1,1287,1555,0,0
70,-531,0,0,0,0,0,0,0,0,0,-1,1294,1555,0,0
77,-531,0,0,0,0,0,0,0,0,0,-1,1301,1555,0,0
84,-531,0,0,0,0,0,0,0,0,0,-1,1308,1555,0,0
91,-531,0,0,0,0,0,0,0,0,0,-1,1315,1555,0,0
98,-531,0,0,0,0,0,0,0,0,0,-1,1322,1555,0,0
105,-531,0,0,0,0,0,0,0,0,0,-1,1329,1555,0,0
112,-531,0,0,0,0,0,0,0,0,0,-1,1336,1555,0,0
119,-531,0,0,0,0,0,0,0,0,0,-1,1343,1555,0,0
126,-531,0,0,0,0,0,0,0,0,0,-1,1350,1555,0,0
133,-531,0,0,0,0,0,0,0,0,0,-1,1357,1555,0,0
140,-531,0,0,0,0,0,0,0,0,0,-1,1364,1555,0,0
147,-531,0,0,0,0,0,0,0,0,0,-1,1371,1555,0,0
154,-531,0,0,0,0,0,0,0,0,0,-1,1378,1555,0,0
161,-531,0,0,0,0,0,0,0,0,0,-1,1385,1555,0,0
168,-531,0,0,0,0,0,0,0,0,0,-1,1392,1555,0,0
175,-531,0,0,0,0,0,0,0,0,0,-1,1399,1555,0,0
182,-531,0,0,0,0,0,0,0,0,0,-1,1406,1555,0,0
189,-531,0,0,0,0,0,0,0,0,0,-1,1413,1555,0,0
196,-531,0,0,0,0,0,0,0,0,0,-1,1420,1555,0,0
203,-531,0,0,0,0,0,0,0,0,0,-1,1427,1555,0,0
210,-531,0,0,0,0,0,0,0,0,0,-1,1434,1555,0,0
217,-531,0,0,0,0,0,0,0,0,0,-1,1441,1555,0,0
224,-531,0,0,0,0,0,0,0,0,0,-1,1448,1555,0,0
231,-531,0,0,0,0,0,0,0,0,0,-1,1455,1555,0,0
238,-531,0,0,0,0,0,0,0,0,0,-1,1462,1555,0,0
245,-531,0,0,0,0,0,0,0,0,0,-1,1469,1555,0,0
252,-531,0,0,0,0,0,0,0,0,0,-1,1476,1555,0,0
259,-531,0,0,0,0,0,0,0,0,0,-1,1483,1555,0,0
266,-531,0,0,0,0,0,0,0,0,0,-1,1490,1555,0,0
273,-531,0,0,0,0,0,0,0,0,0,-1,1497,1555,0,0
280,-531,0,0,0,0,0,0,0,0,0,-1,1504,1555,0,0
287,-531,0,0,0,0,0,0,0,0,0,-1,1511,1555,0,0
294,-531,0,0,0,0,0,0,0,0,0,-1,1518,1555,0,0
301,-531,0,0,0,0,0,0,0,0,0,-1,1525,1555,0,0
308,-531,0,0,0,0,0,0,0,0,0,-1,1532,1555,0,0
315,-531,0,0,0,0,0,0,0,0,0,-1,1539,1555,0,0
322,-531,0,0,0,0,0,0,0,0,0,-1,1546,1555,0,0
329,-531,0,0,0,0,0,0,0,0,0,-1,1553,1555,0,0
336,-531,0,0,0,0,0,0,0,0,0,-1,1560,1555,0,0
343,-531,0,0,0,0,0,0,0,0,0,-1,1567,1555,0,0
350,-531,0,0,0,0,0,0,0,0,0,-1,1574,1555,0,0
357,-531,0,0,0,0,0,0,0,0,0,-1,1581,1555,0,0
364,-531,0,0,0,0,0,0,0,0,0,-1,1588,1555,0,0
371,-531,0,0,0,0,0,0,0,0,0,-1,1595,1555,0,0
378,-531,0,0,0,0,0,0,0,0,0,-1,1602,1555,0,0
385,-531,3.13403,1.88721,0,0,0,0,0,0,0,-1,1609,1555,3.13401,-1.88726
392,-531,8.49451,7.77673,0,0,0,0,0,0,0,-1,1616,1555,8.49447,-7.77677
399,-531,8.26306,5.29602,0,0,0,0,0,0,0,-1,1623,1555,8.26302,-5.29607
406,-531,8.26147,5.42712,0,0,0,0,0,0,0,-1,1630,1555,8.26145,-5.42716
413,-531,8.20618,5.75012,0,0,0,0,0,0,0,-1,1637,1555,8.20619,-5.75017
420,-531,7.64868,7.09558,0,0,0,0,0,0,0,-1,1644,1555,7.64867,-7.09564
427,-531,9.93054,11.8412,0,0,0,0,0,0,0,-1,1651,1555,9.93059,-11.8412
434,-531,10.244,11.7072,0,0,0,0,0,0,0,-1,1658,1555,10.244,-11.7071
441,-531,10.5957,11.3003,0,0,0,0,0,0,0,-1,1665,1555,10.5957,-11.3003
448,-531,13.5089,5.90344,0,0,0,0,0,0,0,-1,1672,1555,13.5089,-5.90346
455,-531,12.5403,6.53625,0,0,0,0,0,0,0,-1,1679,1555,12.5403,-6.53629
462,-531,11.5742,7.58801,0,0,0,0,0,0,0,-1,1686,1555,11.5742,-7.588
469,-531,10.8611,8.59631,0,0,0,0,0,0,0,-1,1693,1555,10.8611,-8.59633
476,-531,9.70972,9.90771,0,0,0,0,0,0,0,-1,1700,1555,9.70967,-9.90773
483,-531,9.72913,10.3092,-0.033721,-0.0421537,0.0346654,-0.00301648,-0.0728583,0.72488,0.0475986,0.0441543,1707,1555,9.72909,-10.3092
490,-531,9.34717,10.8955,-0.0268406,-0.0334096,0.0279673,-0.00196561,-0.0582846,0.726945,0.0382181,0.0321242,1714,1555,9.34722,-10.8955
497,-531,9.12146,10.9829,-0.021104,-0.026042,0.0220436,-0.00139161,-0.0457544,0.729629,0.0300498,0.0157857,1721,1555,9.12151,-10.983
504,-531,9.10254,10.8447,-0.0162319,-0.020192,0.0170514,-0.00104597,-0.0353779,0.727596,0.0232444,0.0108796,1728,1555,9.10253,-10.8448
511,-531,9.1156,10.6512,-0.0122553,-0.0151233,0.0129486,-0.000661495,-0.0267171,0.73025,0.017595,0.0130483,1735,1555,9.11554,-10.6513
518,-531,9.11536,10.4458,-0.00903638,-0.0108417,0.00952975,-0.00036664,-0.0195114,0.738179,0.0128872,0.0142396,1742,1555,9.11535,-10.4458
525,-531,9.12512,10.2385,-0.00615661,-0.00693099,0.00627401,-0.00025785,-0.0128298,0.754581,0.00846853,0.0140959,1749,1555,9.12517,-10.2386
532,-531,9.15503,10.0278,-0.00398516,-0.00442849,0.00407616,-0.000124649,-0.008289,0.758235,0.00548493,0.0107134,1756,1555,9.15504,-10.0279
539,-531,9.13965,9.81848,-0.0023052,-0.00232033,0.00244067,0.000127915,-0.00475345,0.783849,0.00321245,0.0118502,1763,1555,9.13965,-9.8185
546,-531,9.11243,9.58533,-0.00097663,-0.000851256,0.00124529,0.000332925,-0.00216081,0.810547,0.00156338,0.0149024,1770,1555,9.11238,-9.58531
553,-531,9.16418,9.42432,0.00025987,0.000455131,0.000150774,0.000537124,0.000177877,1.07272,0.000315947,0.0293624,1777,1555,9.16415,-9.42426
560,-531,9.14746,9.24768,0.00162773,0.00192032,-0.000941517,0.00272684,0.000821208,-0.862472,0.00161531,0.0316738,1784,1555,9.14746,-9.24768
567,-531,9.09985,9.04675,0.00307263,0.00339756,-0.00213292,0.0053742,0.001096,-0.82341,0.0032791,0.0186796,1791,1555,9.09989,-9.04676
574,-531,9.12158,8.82495,0.00431048,0.00465908,-0.00314435,0.00763395,0.0013356,-0.813087,0.00470768,0.0126018,1798,1555,9.12162,-8.825
581,-531,9.14111,8.59644,0.00616534,0.00598488,-0.00434162,0.0104177,0.00173255,-0.775008,0.00644568,0.0112392,1805,1555,9.14106,-8.59639
588,-531,9.15808,8.33997,0.00837129,0.00914375,-0.00714995,0.0159179,0.00159714,-0.812381,0.0101216,0.0146244,1812,1555,9.15804,-8.33993
595,-531,9.15137,8.0564,0.0113948,0.0126143,-0.0100222,0.0220453,0.00196379,-0.815781,0.014088,0.0323061,1819,1555,9.15136,-8.05644
602,-531,9.25366,7.71582,0,0,0,0,0,0,0,-1,1826,1555,9.25369,-7.71585
609,-531,9.4978,6.93579,0,0,0,0,0,0,0,-1,1833,1555,9.49782,-6.93585
616,-531,10.5723,7.17859,0,0,0,0,0,0,0,-1,1840,1555,10.5723,-7.17855
623,-531,10.0674,5.08984,0,0,0,0,0,0,0,-1,1847,1555,10.0674,-5.08981
630,-531,11.672,3.18909,0,0,0,0,0,0,0,-1,1854,1555,11.672,-3.18904
637,-531,13.2546,1.38965,0,0,0,0,0,0,0,-1,1861,1555,13.2547,-1.3896
644,-531,0,0,0,0,0,0,0,0,0,-1,1868,1555,0,0
651,-531,0,0,0,0,0,0,0,0,0,-1,1875,1555,0,0
658,-531,0,0,0,0,0,0,0,0,0,-1,1882,1555,0,0
665,-531,0,0,0,0,0,0,0,0,0,-1,1889,1555,0,0
672,-531,0,0,0,0,0,0,0,0,0,-1,1896,1555,0,0
679,-531,0,0,0,0,0,0,0,0,0,-1,1903,1555,0,0
686,-531,0,0,0,0,0,0,0,0,0,-1,1910,1555,0,0
693,-531,0,0,0,0,0,0,0,0,0,-1,1917,1555,0,0
700,-531,0,0,0,0,0,0,0,0,0,-1,1924,1555,0,0
707,-531,0,0,0,0,0,0,0,0,0,-1,1931,1555,0,0
714,-531,0,0,0,0,0,0,0,0,0,-1,1938,1555,0,0
721,-531,0,0,0,0,0,0,0,0,0,-1,1945,1555,0,0
728,-531,0,0,0,0,0,0,0,0,0,-1,1952,1555,0,0
735,-531,0,0,0,0,0,0,0,0,0,-1,1959,1555,0,0
742,-531,0,0,0,0,0,0,0,0,0,-1,1966,1555,0,0
749,-531,0,0,0,0,0,0,0,0,0,-1,1973,1555,0,0
756,-531,0,0,0,0,0,0,0,0,0,-1,1980,1555,0,0
763,-531,0,0,0,0,0,0,0,0,0,-1,1987,1555,0,0
770,-531,0,0,0,0,0,0,0,0,0,-1,1994,1555,0,0
777,-531,0,0,0,0,0,0,0,0,0,-1,2001,1555,0,0
784,-531,0,0,0,0,0,0,0,0,0,-1,2008,1555,0,0
791,-531,0,0,0,0,0,0,0,0,0,-1,2015,1555,0,0
798,-531,0,0,0,0,0,0,0,0,0,-1,2022,1555,0,0
805,-531,0,0,0,0,0,0,0,0,0,-1,2029,1555,0,0
812,-531,0,0,0,0,0,0,0,0,0,-1,2036,1555,0,0
-700,-538,0,0,0,0,0,0,0,0,0,-1,524,1562,0,0
-693,-538,0,0,0,0,0,0,0,0,0,-1,531,1562,0,0
-686,-538,0,0,0,0,0,0,0,0,0,-1,538,1562,0,0
-679,-538,0,0,0,0,0,0,0,0,0,-1,545,1562,0,0
-672,-538,0,0,0,0,0,0,0,0,0,-1,552,1562,0,0
-665,-538,0,0,0,0,0,0,0,0,0,-1,559,1562,0,0
-658,-538,0,0,0,0,0,0,0,0,0,-1,566,1562,0,0
-651,-538,0,0,0,0,0,0,0,0,0,-1,573,1562,0,0
-644,-538,0,0,0,0,0,0,0,0,0,-1,580,1562,0,0
-637,-538,0,0,0,0,0,0,0,0,0,-1,587,1562,0,0
-630,-538,0,0,0,0,0,0,0,0,0,-1,594,1562,0,0
-623,-538,0,0,0,0,0,0,0,0,0,-1,601,1562,0,0
-616,-538,0,0,0,0,0,0,0,0,0,-1,608,1562,0,0
-609,-538,0,0,0,0,0,0,0,0,0,-1,615,1562,0,0
-602,-538,0,0,0,0,0,0,0,0,0,-1,622,1562,0,0
-595,-538,0,0,0,0,0,0,0,0,0,-1,629,1562,0,0
-588,-538,0,0,0,0,0,0,0,0,0,-1,636,1562,0,0
-581,-538,0,0,0,0,0,0,0,0,0,-1,643,1562,0,0
-574,-538,0,0,0,0,0,0,0,0,0,-1,650,1562,0,0
-567,-538,0,0,0,0,0,0,0,0,0,-1,657,1562,0,0
-560,-538,0,0,0,0,0,0,0,0,0,-1,664,1562,0,0
-553,-538,0,0,0,0,0,0,0,0,0,-1,671,1562,0,0
-546,-538,0,0,0,0,0,0,0,0,0,-1,678,1562,0,0
-539,-538,0,0,0,0,0,0,0,0,0,-1,685,1562,0,0
-532,-538,0,0,0,0,0,0,0,0,0,-1,692,1562,0,0
-525,-538,0,0,0,0,0,0,0,0,0,-1,699,1562,0,0
-518,-538,0,0,0,0,0,0,0,0,0,-1,706,1562,0,0
-511,-538,-2.6582,-1.54321,0,0,0,0,0,0,0,-1,713,1562,-2.65821,1.54327
-504,-538,-2.66455,-0.71167,0,0,0,0,0,0,0,-1,720,1562,-2.66456,0.711667
-497,-538,-0.763855,6.77747,0,0,0,0,0,0,0,-1,727,1562,-0.76385,-6.77743
-490,-538,0.487915,3.56238,0,0,0,0,0,0,0,-1,734,1562,0.487888,-3.56243
-483,-538,0.94165,4.52466,0,0,0,0,0,0,0,-1,741,1562,0.941643,-4.52467
-476,-538,0.691223,5.45203,0.0546952,0.0790748,0.0623373,0.130403,0.00336704,0.881953,0.085835,0.0470646,748,1562,0.691238,-5.45204
-469,-538,0.301697,5.89099,0.0482575,0.0689698,0.0616165,0.121094,-0.00386713,0.868657,0.082049,0.0440244,755,1562,0.301682,-5.89096
-462,-538,0.426941,6.44995,0.0422032,0.0595799,0.0583443,0.109879,-0.0080961,0.859313,0.0760952,0.0420866,762,1562,0.426962,-6.44996
-455,-538,0.367432,6.85376,0.0370448,0.0505953,0.0531817,0.0974316,-0.00979152,0.848756,0.0684521,0.03675,769,1562,0.367404,-6.85371
-448,-538,0.36908,7.10132,0.0321305,0.0421477,0.0462147,0.0836244,-0.00934622,0.839376,0.0591118,0.0154791,776,1562,0.369077,-7.10126
-441,-538,0.328308,7.34839,0.0271134,0.0341682,0.0386321,0.0694336,-0.00815201,0.830925,0.0492319,0.0144148,783,1562,0.328283,-7.34842
-434,-538,0.298523,7.55701,0.0216858,0.0265102,0.0315694,0.0557595,-0.00756338,0.823529,0.0399336,0.0112196,790,1562,0.298525,-7.557
-427,-538,0.282837,7.81274,0.0172029,0.0197281,0.024527,0.043025,-0.00609395,0.811114,0.0309155,0.0123773,797,1562,0.282826,-7.81274
-420,-538,0.276672,8.0448,0.0138231,0.0140918,0.0179608,0.0319188,-0.00400387,0.789138,0.0227317,0.0164262,804,1562,0.276691,-8.04483
-413,-538,0.275635,8.24902,0.0105986,0.00881745,0.0124204,0.0221604,-0.00274427,0.749607,0.0157681,0.0170092,811,1562,0.275624,-8.249
-406,-538,0.289429,8.47583,0.00730611,0.00366707,0.00705132,0.0127689,-0.0017957,0.659133,0.00916995,0.0134678,818,1562,0.289441,-8.47577
-399,-538,0.316162,8.69653,0.00509172,-0.000325605,0.00321297,0.00658544,-0.00181933,0.435178,0.00510594,0.0124798,825,1562,0.316142,-8.69659
-392,-538,0.300659,8.9165,0.0035059,-0.00358124,0.000540332,0.00354686,-0.0036222,0.0756584,0.00413913,0.0131323,832,1562,0.300653,-8.91651
-385,-538,0.268494,9.16028,0.0030631,-0.00537586,-0.000705993,0.00312175,-0.00543451,-0.082891,0.00499975,0.0110867,839,1562,0.268477,-9.16028
-378,-538,0.288452,9.38147,0.00329265,-0.00648242,-0.00103133,0.00340028,-0.00659005,-0.103981,0.0058651,0.00904997,846,1562,0.288464,-9.38143
-371,-538,0.286316,9.57922,0.0033673,-0.00743722,-0.00110735,0.00347962,-0.00754954,-0.101089,0.0065106,0.01021,853,1562,0.286319,-9.5792
-364,-538,0.315002,9.83118,0.002596,-0.00706709,-0.00103683,0.002706,-0.00717709,-0.105695,0.00589743,0.0100196,860,1562,0.314975,-9.83113
-357,-538,0.312073,10.0205,0.00116176,-0.00580778,-0.00103795,0.00131305,-0.00595908,-0.144743,0.00447508,0.0193053,867,1562,0.312094,-10.0206
-350,-538,0.285828,10.1216,-0.000717439,-0.00305623,-0.00113254,-0.000258913,-0.00351475,-0.384694,0.00226181,0.0330863,874,1562,0.285805,-10.1215
-343,-538,0.345703,10.4902,-0.00317257,0.000287044,-0.00137636,0.000767803,-0.00365333,-1.23475,0.00272775,0.0419885,881,1562,0.345728,-10.4902
-336,-538,0.179199,11.0354,-0.00591566,0.00456262,-0.00166954,0.0048222,-0.00617525,-1.41655,0.00636538,0.0442614,888,1562,0.179181,-11.0354
-329,-538,0.255127,11.1003,-0.00986089,0.0110329,-0.00191287,0.0112066,-0.0100346,-1.48025,0.0122698,0.0449997,895,1562,0.255105,-11.1003
-322,-538,0.0369263,11.4423,-0.0149547,0.0187076,-0.00213186,0.0188421,-0.0150892,-1.5078,0.0196301,0.0448227,902,1562,0.0369346,-11.4422
-315,-538,-0.151611,11.7495,0,0,0,0,0,0,0,-1,909,1562,-0.15161,-11.7495
-308,-538,-0.747375,14.4913,0,0,0,0,0,0,0,-1,916,1562,-0.747373,-14.4914
-301,-538,-0.686829,10.5295,0,0,0,0,0,0,0,-1,923,1562,-0.686856,-10.5295
-294,-538,-0.0413818,10.7646,0,0,0,0,0,0,0,-1,930,1562,-0.0414001,-10.7647
-287,-538,0.768677,11.1807,0,0,0,0,0,0,0,-1,937,1562,0.768704,-11.1807
-280,-538,-4.0293,11.8911,0,0,0,0,0,0,0,-1,944,1562,-4.02932,-11.8911
-273,-538,-4.85803,13.4651,0,0,0,0,0,0,0,-1,951,1562,-4.85802,-13.4651
-266,-538,-5.69073,14.9116,0,0,0,0,0,0,0,-1,958,1562,-5.69073,-14.9116
-259,-538,-6.21277,16.2444,0,0,0,0,0,0,0,-1,965,1562,-6.21275,-16.2444
-252,-538,0,0,0,0,0,0,0,0,0,-1,972,1562,0,0
-245,-538,0,0,0,0,0,0,0,0,0,-1,979,1562,0,0
-238,-538,0,0,0,0,0,0,0,0,0,-1,986,1562,0,0
-231,-538,0,0,0,0,0,0,0,0,0,-1,993,1562,0,0
-224,-538,0,0,0,0,0,0,0,0,0,-1,1000,1562,0,0
-217,-538,0,0,0,0,0,0,0,0,0,-1,1007,1562,0,0
-210,-538,0,0,0,0,0,0,0,0,0,-1,1014,1562,0,0
-203,-538,0,0,0,0,0,0,0,0,0,-1,1021,1562,0,0
-196,-538,0,0,0,0,0,0,0,0,0,-1,1028,1562,0,0
-189,-538,0,0,0,0,0,0,0,0,0,-1,1035,1562,0,0
-182,-538,0,0,0,0,0,0,0,0,0,-1,1042,1562,0,0
-175,-538,0,0,0,0,0,0,0,0,0,-1,1049,1562,0,0
-168,-538,0,0,0,0,0,0,0,0,0,-1,1056,1562,0,0
-161,-538,0,0,0,0,0,0,0,0,0,-1,1063,1562,0,0
-154,-538,0,0,0,0,0,0,0,0,0,-1,1070,1562,0,0
-147,-538,0,0,0,0,0,0,0,0,0,-1,1077,1562,0,0
-140,-538,0,0,0,0,0,0,0,0,0,-1,1084,1562,0,0
-133,-538,0,0,0,0,0,0,0,0,0,-1,1091,1562,0,0
-126,-538,0,0,0,0,0,0,0,0,0,-1,1098,1562,0,0
-119,-538,0,0,0,0,0,0,0,0,0,-1,1105,1562,0,0
-112,-538,0,0,0,0,0,0,0,0,0,-1,1112,1562,0,0
-105,-538,0,0,0,0,0,0,0,0,0,-1,1119,1562,0,0
-98,-538,0,0,0,0,0,0,0,0,0,-1,1126,1562,0,0
-91,-538,0,0,0,0,0,0,0,0,0,-1,1133,1562,0,0
-84,-538,0,0,0,0,0,0,0,0,0,-1,1140,1562,0,0
-77,-538,0,0,0,0,0,0,0,0,0,-1,1147,1562,0,0
-70,-538,0,0,0,0,0,0,0,0,0,-1,1154,1562,0,0
-63,-538,0,0,0,0,0,0,0,0,0,-1,1161,1562,0,0
-56,-538,0,0,0,0,0,0,0,0,0,-1,1168,1562,0,0
-49,-538,0,0,0,0,0,0,0,0,0,-1,1175,1562,0,0
-42,-538,0,0,0,0,0,0,0,0,0,-1,1182,1562,0,0
-35,-538,0,0,0,0,0,0,0,0,0,-1,1189,1562,0,0
-28,-538,0,0,0,0,0,0,0,0,0,-1,1196,1562,0,0
-21,-538,0,0,0,0,0,0,0,0,0,-1,1203,1562,0,0
-14,-538,0,0,0,0,0,0,0,0,0,-1,1210,1562,0,0
-7,-538,0,0,0,0,0,0,0,0,0,-1,1217,1562,0,0
0,-538,0,0,0,0,0,0,0,0,0,-1,1224,1562,0,0
7,-538,0,0,0,0,0,0,0,0,0,-1,1231,1562,0,0
14,-538,0,0,0,0,0,0,0,0,0,-1,1238,1562,0,0
21,-538,0,0,0,0,0,0,0,0,0,-1,1245,1562,0,0
28,-538,0,0,0,0,0,0,0,0,0,-1,1252,1562,0,0
35,-538,0,0,0,0,0,0,0,0,0,-1,1259,1562,0,0
42,-538,0,0,0,0,0,0,0,0,0,-1,1266,1562,0,0
49,-538,0,0,0,0,0,0,0,0,0,-1,1273,1562,0,0
56,-538,0,0,0,0,0,0,0,0,0,-1,1280,1562,0,0
63,-538,0,0,0,0,0,0,0,0,0,-1,1287,1562,0,0
70,-538,0,0,0,0,0,0,0,0,0,-1,1294,1562,0,0
77,-538,0,0,0,0,0,0,0,0,0,-1,1301,1562,0,0
84,-538,0,0,0,0,0,0,0,0,0,-1,1308,1562,0,0
91,-538,0,0,0,0,0,0,0,0,0,-1,1315,1562,0,0
98,-538,0,0,0,0,0,0,0,0,0,-1,1322,1562,0,0
105,-538,0,0,0,0,0,0,0,0,0,-1,1329,1562,0,0
112,-538,0,0,0,0,0,0,0,0,0,-1,1336,1562,0,0
119,-538,0,0,0,0,0,0,0,0,0,-1,1343,1562,0,0
126,-538,0,0,0,0,0,0,0,0,0,-1,1350,1562,0,0
133,-538,0,0,0,0,0,0,0,0,0,-1,1357,1562,0,0
140,-538,0,0,0,0,0,0,0,0,0,-1,1364,1562,0,0
147,-538,0,0,0,0,0,0,0,0,0,-1,1371,1562,0,0
154,-538,0,0,0,0,0,0,0,0,0,-1,1378,1562,0,0
161,-538,0,0,0,0,0,0,0,0,0,-1,1385,1562,0,0
168,-538,0,0,0,0,0,0,0,0,0,-1,1392,1562,0,0
175,-538,0,0,0,0,0,0,0,0,0,-1,1399,1562,0,0
182,-538,0,0,0,0,0,0,0,0,0,-1,1406,1562,0,0
189,-538,0,0,0,0,0,0,0,0,0,-1,1413,1562,0,0
196,-538,0,0,0,0,0,0,0,0,0,-1,1420,1562,0,0
203,-538,0,0,0,0,0,0,0,0,0,-1,1427,1562,0,0
210,-538,0,0,0,0,0,0,0,0,0,-1,1434,1562,0,0
217,-538,0,0,0,0,0,0,0,0,0,-1,1441,1562,0,0
224,-538,0,0,0,0,0,0,0,0,0,-1,1448,1562,0,0
231,-538,0,0,0,0,0,0,0,0,0,-1,1455,1562,0,0
238,-538,0,0,0,0,0,0,0,0,0,-1,1462,1562,0,0
245,-538,0,0,0,0,0,0,0,0,0,-1,1469,1562,0,0
252,-538,0,0,0,0,0,0,0,0,0,-1,1476,1562,0,0
259,-538,0,0,0,0,0,0,0,0,0,-1,1483,1562,0,0
266,-538,0,0,0,0,0,0,0,0,0,-1,1490,1562,0,0
273,-538,0,0,0,0,0,0,0,0,0,-1,1497,1562,0,0
280,-538,0,0,0,0,0,0,0,0,0,-1,1504,1562,0,0
287,-538,0,0,0,0,0,0,0,0,0,-1,1511,1562,0,0
294,-538,0,0,0,0,0,0,0,0,0,-1,1518,1562,0,0
301,-538,0,0,0,0,0,0,0,0,0,-1,1525,1562,0,0
308,-538,0,0,0,0,0,0,0,0,0,-1,1532,1562,0,0
315,-538,0,0,0,0,0,0,0,0,0,-1,1539,1562,0,0
322,-538,0,0,0,0,0,0,0,0,0,-1,1546,1562,0,0
329,-538,0,0,0,0,0,0,0,0,0,-1,1553,1562,0,0
336,-538,0,0,0,0,0,0,0,0,0,-1,1560,1562,0,0
343,-538,0,0,0,0,0,0,0,0,0,-1,1567,1562,0,0
350,-538,0,0,0,0,0,0,0,0,0,-1,1574,1562,0,0
357,-538,0,0,0,0,0,0,0,0,0,-1,1581,1562,0,0
364,-538,0,0,0,0,0,0,0,0,0,-1,1588,1562,0,0
371,-538,0,0,0,0,0,0,0,0,0,-1,1595,1562,0,0
378,-538,7.65637,4.13477,0,0,0,0,0,0,0,-1,1602,1562,7.65643,-4.13477
385,-538,8.69836,7.6283,0,0,0,0,0,0,0,-1,1609,1562,8.69835,-7.62829
392,-538,8.20361,7.07214,0,0,0,0,0,0,0,-1,1616,1562,8.20362,-7.07211
399,-538,7.85425,4.70508,0,0,0,0,0,0,0,-1,1623,1562,7.85425,-4.70512
406,-538,7.77734,4.96094,0,0,0,0,0,0,0,-1,1630,1562,7.77729,-4.96097
413,-538,13.0446,13.1765,0,0,0,0,0,0,0,-1,1637,1562,13.0446,-13.1765
420,-538,9.96216,12.7653,0,0,0,0,0,0,0,-1,1644,1562,9.96221,-12.7653
427,-538,10.1469,12.3376,0,0,0,0,0,0,0,-1,1651,1562,10.1469,-12.3377
434,-538,10.3262,12.0012,0,0,0,0,0,0,0,-1,1658,1562,10.3262,-12.0013
441,-538,10.5618,11.665,0,0,0,0,0,0,0,-1,1665,1562,10.5618,-11.6651
448,-538,10.7578,11.2729,0,0,0,0,0,0,0,-1,1672,1562,10.7578,-11.273
455,-538,10.4879,11.049,0,0,0,0,0,0,0,-1,1679,1562,10.4879,-11.0489
462,-538,10.0304,10.939,0,0,0,0,0,0,0,-1,1686,1562,10.0304,-10.939
469,-538,10.4954,9.76807,-0.0398113,-0.0489927,0.0403825,-0.0037594,-0.0850446,0.728801,0.0554858,0.0474936,1693,1562,10.4953,-9.76804
476,-538,9.60205,10.7703,-0.032714,-0.0408951,0.0338099,-0.0027481,-0.0708609,0.725197,0.0463517,0.047456,1700,1562,9.60208,-10.7702
483,-538,9.08472,11.2738,-0.0263466,-0.0332163,0.027716,-0.00185345,-0.0577094,0.723747,0.0378703,0.029817,1707,1562,9.08475,-11.2739
490,-538,8.94971,11.1689,-0.0210248,-0.0262606,0.0222563,-0.00123293,-0.0460525,0.726855,0.030299,0.0128662,1714,1562,8.94976,-11.1689
497,-538,8.92749,11.0154,-0.0164891,-0.0204043,0.0174211,-0.000916025,-0.0359774,0.729448,0.0236855,0.00909089,1721,1562,8.92755,-11.0154
504,-538,8.91968,10.8273,-0.0125343,-0.0156918,0.0132734,-0.000746049,-0.02748,0.726205,0.0180764,0.0083567,1728,1562,8.91964,-10.8273
511,-538,8.92859,10.6368,-0.009238,-0.0114585,0.00981225,-0.000473389,-0.0202231,0.729063,0.0133271,0.00926638,1735,1562,8.92855,-10.6369
518,-538,8.91797,10.4572,-0.00655787,-0.00787466,0.00693916,-0.000245932,-0.0141866,0.738099,0.00937682,0.0102138,1742,1562,8.91797,-10.4571
525,-538,8.90869,10.2385,-0.00412714,-0.00460303,0.00419472,-0.000163625,-0.00856655,0.757066,0.00565728,0.0116645,1749,1562,8.90873,-10.2386
532,-538,8.9425,10.0156,-0.00227952,-0.00255284,0.00236555,-4.66879e-05,-0.00478567,0.756545,0.003175,0.0126462,1756,1562,8.94256,-10.0156
539,-538,8.9176,9.82837,-0.000855538,-0.000864578,0.00105161,0.000191567,-0.00191168,0.783249,0.00134287,0.0144919,1763,1562,8.91762,-9.82841
546,-538,8.90063,9.62341,0.000287325,0.000325052,0.000114617,0.000422347,0.00019003,0.866956,0.000244249,0.0161565,1770,1562,8.90068,-9.62343
553,-538,8.95374,9.39685,0.00140695,0.00140152,-0.000775938,0.00218018,0.000628291,-0.783648,0.00129583,0.0258372,1777,1562,8.95372,-9.39683
560,-538,8.9646,9.23645,0.00272898,0.00274222,-0.00172817,0.00446378,0.00100742,-0.787313,0.00270336,0.0264587,1784,1562,8.9646,-9.23644
567,-538,8.8949,9.03796,0.00408007,0.00413225,-0.00273712,0.0068434,0.00136892,-0.790164,0.00418133,0.0197147,1791,1562,8.89496,-9.038
574,-538,8.9093,8.82312,0.00527263,0.00534904,-0.00369166,0.0090027,0.00161898,-0.790573,0.00554154,0.0127035,1798,1562,8.90927,-8.82313
581,-538,8.95093,8.55408,0.00732541,0.00679143,-0.00499992,0.0120655,0.00205138,-0.758724,0.00745454,0.013676,1805,1562,8.95095,-8.55403
588,-538,8.96838,8.30029,0.00989817,0.010587,-0.00821909,0.0184689,0.00201627,-0.806338,0.0116986,0.0301013,1812,1562,8.96838,-8.30034
595,-538,8.92688,8.03113,0,0,0,0,0,0,0,-1,1819,1562,8.92691,-8.03113
602,-538,9.51563,7.20886,0,0,0,0,0,0,0,-1,1826,1562,9.51566,-7.20888
609,-538,10.1046,7.05713,0,0,0,0,0,0,0,-1,1833,1562,10.1046,-7.05719
616,-538,9.92249,5.43506,0,0,0,0,0,0,0,-1,1840,1562,9.92254,-5.43507
623,-538,11.1711,4.31604,0,0,0,0,0,0,0,-1,1847,1562,11.1711,-4.316
630,-538,12.6112,2.61633,0,0,0,0,0,0,0,-1,1854,1562,12.6112,-2.61637
637,-538,0,0,0,0,0,0,0,0,0,-1,1861,1562,0,0
644,-538,0,0,0,0,0,0,0,0,0,-1,1868,1562,0,0
651,-538,0,0,0,0,0,0,0,0,0,-1,1875,1562,0,0
658,-538,0,0,0,0,0,0,0,0,0,-1,1882,1562,0,0
665,-538,0,0,0,0,0,0,0,0,0,-1,1889,1562,0,0
672,-538,0,0,0,0,0,0,0,0,0,-1,1896,1562,0,0
679,-538,0,0,0,0,0,0,0,0,0,-1,1903,1562,0,0
686,-538,0,0,0,0,0,0,0,0,0,-1,1910,1562,0,0
693,-538,0,0,0,0,0,0,0,0,0,-1,1917,1562,0,0
700,-538,0,0,0,0,0,0,0,0,0,-1,1924,1562,0,0
707,-538,0,0,0,0,0,0,0,0,0,-1,1931,1562,0,0
714,-538,0,0,0,0,0,0,0,0,0,-1,1938,1562,0,0
721,-538,0,0,0,0,0,0,0,0,0,-1,1945,1562,0,0
728,-538,0,0,0,0,0,0,0,0,0,-1,1952,1562,0,0
735,-538,0,0,0,0,0,0,0,0,0,-1,1959,1562,0,0
742,-538,0,0,0,0,0,0,0,0,0,-1,1966,1562,0,0
749,-538,0,0,0,0,0,0,0,0,0,-1,1973,1562,0,0
756,-538,0,0,0,0,0,0,0,0,0,-1,1980,1562,0,0
763,-538,0,0,0,0,0,0,0,0,0,-1,1987,1562,0,0
770,-538,0,0,0,0,0,0,0,0,0,-1,1994,1562,0,0
777,-538,0,0,0,0,0,0,0,0,0,-1,2001,1562,0,0
784,-538,0,0,0,0,0,0,0,0,0,-1,2008,1562,0,0
791,-538,0,0,0,0,0,0,0,0,0,-1,2015,1562,0,0
798,-538,0,0,0,0,0,0,0,0,0,-1,2022,1562,0,0
805,-538,0,0,0,0,0,0,0,0,0,-1,2029,1562,0,0
812,-538,0,0,0,0,0,0,0,0,0,-1,2036,1562,0,0
-700,-545,0,0,0,0,0,0,0,0,0,-1,524,1569,0,0
-693,-545,0,0,0,0,0,0,0,0,0,-1,531,1569,0,0
-686,-545,0,0,0,0,0,0,0,0,0,-1,538,1569,0,0
-679,-545,0,0,0,0,0,0,0,0,0,-1,545,1569,0,0
-672,-545,0,0,0,0,0,0,0,0,0,-1,552,1569,0,0
-665,-545,0,0,0,0,0,0,0,0,0,-1,559,1569,0,0
-658,-545,0,0,0,0,0,0,0,0,0,-1,566,1569,0,0
-651,-545,0,0,0,0,0,0,0,0,0,-1,573,1569,0,0
-644,-545,0,0,0,0,0,0,0,0,0,-1,580,1569,0,0
-637,-545,0,0,0,0,0,0,0,0,0,-1,587,1569,0,0
-630,-545,0,0,0,0,0,0,0,0,0,-1,594,1569,0,0
-623,-545,0,0,0,0,0,0,0,0,0,-1,601,1569,0,0
-616,-545,0,0,0,0,0,0,0,0,0,-1,608,1569,0,0
-609,-545,0,0,0,0,0,0,0,0,0,-1,615,1569,0,0
-602,-545,0,0,0,0,0,0,0,0,0,-1,622,1569,0,0
-595,-545,0,0,0,0,0,0,0,0,0,-1,629,1569,0,0
-588,-545,0,0,0,0,0,0,0,0,0,-1,636,1569,0,0
-581,-545,0,0,0,0,0,0,0,0,0,-1,643,1569,0,0
-574,-545,0,0,0,0,0,0,0,0,0,-1,650,1569,0,0
-567,-545,0,0,0,0,0,0,0,0,0,-1,657,1569,0,0
-560,-545,0,0,0,0,0,0,0,0,0,-1,664,1569,0,0
-553,-545,0,0,0,0,0,0,0,0,0,-1,671,1569,0,0
-546,-545,0,0,0,0,0,0,0,0,0,-1,678,1569,0,0
-539,-545,0,0,0,0,0,0,0,0,0,-1,685,1569,0,0
-532,-545,0,0,0,0,0,0,0,0,0,-1,692,1569,0,0
-525,-545,0,0,0,0,0,0,0,0,0,-1,699,1569,0,0
-518,-545,0,0,0,0,0,0,0,0,0,-1,706,1569,0,0
-511,-545,0,0,0,0,0,0,0,0,0,-1,713,1569,0,0
-504,-545,-3.55237,-2.5354,0,0,0,0,0,0,0,-1,720,1569,-3.55236,2.53545
-497,-545,0.119141,5.68481,0,0,0,0,0,0,0,-1,727,1569,0.119132,-5.68483
-490,-545,2.12347,3.29236,0,0,0,0,0,0,0,-1,734,1569,2.12349,-3.29242
-483,-545,0.934875,4.8407,0,0,0,0,0,0,0,-1,741,1569,0.934854,-4.84072
-476,-545,0.66571,5.45935,0.0760173,0.104435,0.0965325,0.187799,-0.00734631,0.858471,0.127719,0.0472633,748,1569,0.665733,-5.4594
-469,-545,0.646545,6.04138,0.0698098,0.092885,0.0939723,0.176025,-0.0133305,0.846481,0.122037,0.0459392,755,1569,0.646532,-6.04143
-462,-545,0.85022,6.22827,0,0,0,0,0,0,0,-1,762,1569,0.850225,-6.2283
-455,-545,0.479431,6.73853,0.0565329,0.0702668,0.0795319,0.143228,-0.0164279,0.828463,0.101406,0.0415196,769,1569,0.479425,-6.73849
-448,-545,0.585083,7.04321,0.0494181,0.0592109,0.0690615,0.123549,-0.0149203,0.820789,0.0877635,0.0266545,776,1569,0.585076,-7.04316
-441,-545,0.583008,7.35999,0.041718,0.0484704,0.057717,0.10291,-0.0127215,0.814613,0.0732164,0.0172747,783,1569,0.582982,-7.35992
-434,-545,0.51062,7.57654,0.0336521,0.0382543,0.04711,0.0831194,-0.011213,0.809801,0.0595038,0.0142888,790,1569,0.510615,-7.57648
-427,-545,0.505432,7.81299,0.0265333,0.0291195,0.0367599,0.064609,-0.00895627,0.802979,0.0463475,0.015434,797,1569,0.50543,-7.81303
-420,-545,0.521606,8.02039,0.020828,0.0216016,0.0274233,0.0486409,-0.00621126,0.79245,0.0346836,0.021068,804,1569,0.521602,-8.02038
-413,-545,0.538635,8.22729,0.0154927,0.0148041,0.0194257,0.0345772,-0.00428043,0.776537,0.0246027,0.0209276,811,1569,0.538611,-8.22725
-406,-545,0.53595,8.45972,0.0103358,0.00815506,0.0118531,0.0211486,-0.00265774,0.739531,0.0150634,0.0155708,818,1569,0.535925,-8.45966
-399,-545,0.548035,8.68652,0.00659759,0.00316791,0.00631369,0.0114252,-0.00165968,0.652794,0.00822601,0.0105575,825,1569,0.548052,-8.68648
-392,-545,0.531616,8.90991,0.00355033,-0.000913238,0.0020877,0.00437458,-0.00173749,0.376026,0.00363664,0.0104895,832,1569,0.531638,-8.90995
-385,-545,0.514709,9.15491,0.00216695,-0.00303782,-2.62714e-05,0.00216708,-0.00303795,-0.00504739,0.00301912,0.00917631,839,1569,0.514716,-9.1549
-378,-545,0.511719,9.38782,0.00193536,-0.00410426,-0.000748941,0.00202685,-0.00419575,-0.121552,0.00366464,0.0109614,846,1569,0.511712,-9.38781
-371,-545,0.507996,9.62048,0.00204945,-0.0047335,-0.000779976,0.00213799,-0.00482204,-0.113025,0.00411677,0.0139153,853,1569,0.508007,-9.62054
-364,-545,0.5271,9.81689,0.00137675,-0.00413324,-0.00067796,0.00145895,-0.00421543,-0.120645,0.00340251,0.00935977,860,1569,0.527079,-9.81688
-357,-545,0.562561,10.0536,0.000164688,-0.00274002,-0.000644654,0.000301331,-0.00287666,-0.208872,0.0020257,0.0103231,867,1569,0.562542,-10.0536
-350,-545,0.579834,10.249,-0.00138973,-9.41258e-05,-0.000744947,0.000245288,-0.00172914,-1.14328,0.00124262,0.0148674,874,1569,0.579851,-10.2491
-343,-545,0.589966,10.4099,-0.00321586,0.00288386,-0.000996422,0.00304251,-0.00337451,-1.41291,0.00370652,0.0236365,881,1569,0.589954,-10.41
-336,-545,0.55542,10.634,-0.00534339,0.00663185,-0.00132441,0.00677657,-0.00548812,-1.46195,0.00709404,0.0322734,888,1569,0.555423,-10.6341
-329,-545,0.538696,11.0127,-0.00840621,0.01196,-0.00168399,0.0120983,-0.00854451,-1.48885,0.0119769,0.040159,895,1569,0.538708,-11.0127
-322,-545,0.461182,11.5994,-0.0122189,0.0183085,-0.00217206,0.0184623,-0.0123726,-1.50012,0.0179179,0.0472844,902,1569,0.461194,-11.5994
-315,-545,0.137268,13.2985,0,0,0,0,0,0,0,-1,909,1569,0.137282,-13.2984
-308,-545,-0.266602,13.4796,0,0,0,0,0,0,0,-1,916,1569,-0.266611,-13.4796
-301,-545,-0.678406,13.2817,0,0,0,0,0,0,0,-1,923,1569,-0.678391,-13.2818
-294,-545,0.589844,11.3713,0,0,0,0,0,0,0,-1,930,1569,0.589819,-11.3714
-287,-545,1.12524,8.00647,0,0,0,0,0,0,0,-1,937,1569,1.12522,-8.00647
-280,-545,0.226746,10.4198,0,0,0,0,0,0,0,-1,944,1569,0.226742,-10.4198
-273,-545,-4.10596,12.3789,0,0,0,0,0,0,0,-1,951,1569,-4.10598,-12.3789
-266,-545,-5.10779,14.1372,0,0,0,0,0,0,0,-1,958,1569,-5.10778,-14.1372
-259,-545,-3.98706,7.8916,0,0,0,0,0,0,0,-1,965,1569,-3.98704,-7.89159
-252,-545,0.369263,7.54053,0,0,0,0,0,0,0,-1,972,1569,0.369276,-7.54056
-245,-545,-0.236633,6.65564,0,0,0,0,0,0,0,-1,979,1569,-0.236605,-6.65566
-238,-545,0,0,0,0,0,0,0,0,0,-1,986,1569,0,0
-231,-545,0,0,0,0,0,0,0,0,0,-1,993,1569,0,0
-224,-545,0,0,0,0,0,0,0,0,0,-1,1000,1569,0,0
-217,-545,0,0,0,0,0,0,0,0,0,-1,1007,1569,0,0
-210,-545,0,0,0,0,0,0,0,0,0,-1,1014,1569,0,0
-203,-545,0,0,0,0,0,0,0,0,0,-1,1021,1569,0,0
-196,-545,0,0,0,0,0,0,0,0,0,-1,1028,1569,0,0
-189,-545,0,0,0,0,0,0,0,0,0,-1,1035,1569,0,0
-182,-545,0,0,0,0,0,0,0,0,0,-1,1042,1569,0,0
-175,-545,0,0,0,0,0,0,0,0,0,-1,1049,1569,0,0
-168,-545,0,0,0,0,0,0,0,0,0,-1,1056,1569,0,0
-161,-545,0,0,0,0,0,0,0,0,0,-1,1063,1569,0,0
-154,-545,0,0,0,0,0,0,0,0,0,-1,1070,1569,0,0
-147,-545,0,0,0,0,0,0,0,0,0,-1,1077,1569,0,0
-140,-545,0,0,0,0,0,0,0,0,0,-1,1084,1569,0,0
-133,-545,0,0,0,0,0,0,0,0,0,-1,1091,1569,0,0
-126,-545,0,0,0,0,0,0,0,0,0,-1,1098,1569,0,0
-119,-545,0,0,0,0,0,0,0,0,0,-1,1105,1569,0,0
-112,-545,0,0,0,0,0,0,0,0,0,-1,1112,1569,0,0
-105,-545,0,0,0,0,0,0,0,0,0,-1,1119,1569,0,0
-98,-545,0,0,0,0,0,0,0,0,0,-1,1126,1569,0,0
-91,-545,0,0,0,0,0,0,0,0,0,-1,1133,1569,0,0
-84,-545,0,0,0,0,0,0,0,0,0,-1,1140,1569,0,0
-77,-545,0,0,0,0,0,0,0,0,0,-1,1147,1569,0,0
-70,-545,0,0,0,0,0,0,0,0,0,-1,1154,1569,0,0
-63,-545,0,0,0,0,0,0,0,0,0,-1,1161,1569,0,0
-56,-545,0,0,0,0,0,0,0,0,0,-1,1168,1569,0,0
-49,-545,0,0,0,0,0,0,0,0,0,-1,1175,1569,0,0
-42,-545,0,0,0,0,0,0,0,0,0,-1,1182,1569,0,0
-35,-545,0,0,0,0,0,0,0,0,0,-1,1189,1569,0,0
-28,-545,0,0,0,0,0,0,0,0,0,-1,1196,1569,0,0
-21,-545,0,0,0,0,0,0,0,0,0,-1,1203,1569,0,0
-14,-545,0,0,0,0,0,0,0,0,0,-1,1210,1569,0,0
-7,-545,0,0,0,0,0,0,0,0,0,-1,1217,1569,0,0
0,-545,0,0,0,0,0,0,0,0,0,-1,1224,1569,0,0
7,-545,0,0,0,0,0,0,0,0,0,-1,1231,1569,0,0
14,-545,0,0,0,0,0,0,0,0,0,-1,1238,1569,0,0
21,-545,0,0,0,0,0,0,0,0,0,-1,1245,1569,0,0
28,-545,0,0,0,0,0,0,0,0,0,-1,1252,1569,0,0
35,-545,0,0,0,0,0,0,0,0,0,-1,1259,1569,0,0
42,-545,0,0,0,0,0,0,0,0,0,-1,1266,1569,0,0
49,-545,0,0,0,0,0,0,0,0,0,-1,1273,1569,0,0
56,-545,0,0,0,0,0,0,0,0,0,-1,1280,1569,0,0
63,-545,0,0,0,0,0,0,0,0,0,-1,1287,1569,0,0
70,-545,0,0,0,0,0,0,0,0,0,-1,1294,1569,0,0
77,-545,0,0,0,0,0,0,0,0,0,-1,1301,1569,0,0
84,-545,0,0,0,0,0,0,0,0,0,-1,1308,1569,0,0
91,-545,0,0,0,0,0,0,0,0,0,-1,1315,1569,0,0
98,-545,0,0,0,0,0,0,0,0,0,-1,1322,1569,0,0
105,-545,0,0,0,0,0,0,0,0,0,-1,1329,1569,0,0
112,-545,0,0,0,0,0,0,0,0,0,-1,1336,1569,0,0
119,-545,0,0,0,0,0,0,0,0,0,-1,1343,1569,0,0
126,-545,0,0,0,0,0,0,0,0,0,-1,1350,1569,0,0
133,-545,0,0,0,0,0,0,0,0,0,-1,1357,1569,0,0
140,-545,0,0,0,0,0,0,0,0,0,-1,1364,1569,0,0
147,-545,0,0,0,0,0,0,0,0,0,-1,1371,1569,0,0
154,-545,0,0,0,0,0,0,0,0,0,-1,1378,1569,0,0
161,-545,0,0,0,0,0,0,0,0,0,-1,1385,1569,0,0
168,-545,0,0,0,0,0,0,0,0,0,-1,1392,1569,0,0
175,-545,0,0,0,0,0,0,0,0,0,-1,1399,1569,0,0
182,-545,0,0,0,0,0,0,0,0,0,-1,1406,1569,0,0
189,-545,0,0,0,0,0,0,0,0,0,-1,1413,1569,0,0
196,-545,0,0,0,0,0,0,0,0,0,-1,1420,1569,0,0
203,-545,0,0,0,0,0,0,0,0,0,-1,1427,1569,0,0
210,-545,0,0,0,0,0,0,0,0,0,-1,1434,1569,0,0
217,-545,0,0,0,0,0,0,0,0,0,-1,1441,1569,0,0
224,-545,0,0,0,0,0,0,0,0,0,-1,1448,1569,0,0
231,-545,0,0,0,0,0,0,0,0,0,-1,1455,1569,0,0
238,-545,0,0,0,0,0,0,0,0,0,-1,1462,1569,0,0
245,-545,0,0,0,0,0,0,0,0,0,-1,1469,1569,0,0
252,-545,0,0,0,0,0,0,0,0,0,-1,1476,1569,0,0
259,-545,0,0,0,0,0,0,0,0,0,-1,1483,1569,0,0
266,-545,0,0,0,0,0,0,0,0,0,-1,1490,1569,0,0
273,-545,0,0,0,0,0,0,0,0,0,-1,1497,1569,0,0
280,-545,0,0,0,0,0,0,0,0,0,-1,1504,1569,0,0
287,-545,0,0,0,0,0,0,0,0,0,-1,1511,1569,0,0
294,-545,0,0,0,0,0,0,0,0,0,-1,1518,1569,0,0
301,-545,0,0,0,0,0,0,0,0,0,-1,1525,1569,0,0
308,-545,0,0,0,0,0,0,0,0,0,-1,1532,1569,0,0
315,-545,0,0,0,0,0,0,0,0,0,-1,1539,1569,0,0
322,-545,0,0,0,0,0,0,0,0,0,-1,1546,1569,0,0
329,-545,0,0,0,0,0,0,0,0,0,-1,1553,1569,0,0
336,-545,0,0,0,0,0,0,0,0,0,-1,1560,1569,0,0
343,-545,0,0,0,0,0,0,0,0,0,-1,1567,1569,0,0
350,-545,0,0,0,0,0,0,0,0,0,-1,1574,1569,0,0
357,-545,0,0,0,0,0,0,0,0,0,-1,1581,1569,0,0
364,-545,7.19495,4.88098,0,0,0,0,0,0,0,-1,1588,1569,7.19497,-4.88095
371,-545,7.82324,3.84302,0,0,0,0,0,0,0,-1,1595,1569,7.82324,-3.84307
378,-545,7.24146,4.54224,0,0,0,0,0,0,0,-1,1602,1569,7.24145,-4.54226
385,-545,8.58447,1.16125,0,0,0,0,0,0,0,-1,1609,1569,8.5845,-1.1612
392,-545,12.5654,3.89526,0,0,0,0,0,0,0,-1,1616,1569,12.5655,-3.89532
399,-545,11.5869,5.6333,0,0,0,0,0,0,0,-1,1623,1569,11.5869,-5.63326
406,-545,11.234,6.36414,0,0,0,0,0,0,0,-1,1630,1569,11.234,-6.3641
413,-545,12.1521,13.4817,0,0,0,0,0,0,0,-1,1637,1569,12.1521,-13.4817
420,-545,9.23816,9.77368,0,0,0,0,0,0,0,-1,1644,1569,9.2382,-9.77372
427,-545,10.3412,12.6434,0,0,0,0,0,0,0,-1,1651,1569,10.3412,-12.6435
434,-545,10.399,12.3099,0,0,0,0,0,0,0,-1,1658,1569,10.399,-12.31
441,-545,10.3516,12.2471,0,0,0,0,0,0,0,-1,1665,1569,10.3516,-12.2471
448,-545,10.2129,11.828,-0.0493302,-0.0543657,0.0467894,-0.00499089,-0.0987051,0.758519,0.0642044,0.0498458,1672,1569,10.2128,-11.828
455,-545,9.80969,11.5938,-0.0425929,-0.0496527,0.0420888,-0.00388627,-0.0883593,0.743562,0.0576545,0.0435957,1679,1569,9.80964,-11.5937
462,-545,9.41382,11.2347,-0.0363179,-0.0437067,0.0372002,-0.00262913,-0.0773955,0.735904,0.0507433,0.0435203,1686,1569,9.41381,-11.2347
469,-545,9.19226,11.0417,-0.0305094,-0.0376286,0.0319551,-0.00191627,-0.0662217,0.729931,0.0435231,0.0455835,1693,1569,9.1923,-11.0417
476,-545,8.8009,11.4296,-0.0250363,-0.0315572,0.0266715,-0.00142672,-0.0551668,0.724577,0.0363117,0.0345212,1700,1569,8.80096,-11.4296
483,-545,8.74365,11.4102,-0.0201282,-0.0256688,0.0218391,-0.000884382,-0.0449126,0.72231,0.0296514,0.01343,1707,1569,8.7436,-11.4102
490,-545,8.72461,11.2333,-0.0160043,-0.0202953,0.0174977,-0.000521094,-0.0357785,0.724395,0.0236806,0.0112941,1714,1569,8.72463,-11.2333
497,-545,8.73218,11.0466,-0.0124308,-0.015718,0.0135959,-0.000379477,-0.0277693,0.725246,0.0183877,0.015502,1721,1569,8.73222,-11.0466
504,-545,8.74194,10.8331,-0.00923769,-0.0119723,0.0101913,-0.000322328,-0.0208876,0.718715,0.0138189,0.0148992,1728,1569,8.74196,-10.8331
511,-545,8.73401,10.613,-0.00651627,-0.00847787,0.00730543,-0.000126099,-0.014868,0.718669,0.00987026,0.011803,1735,1569,8.734,-10.6131
518,-545,8.729,10.4353,-0.00429611,-0.0055111,0.00491756,5.13378e-05,-0.00985855,0.723942,0.00658954,0.013129,1742,1569,8.72896,-10.4353
525,-545,8.72351,10.2358,-0.00227851,-0.00283971,0.00265481,0.000110487,-0.00522871,0.732746,0.00352321,0.0127786,1749,1569,8.72348,-10.2359
532,-545,8.74377,10.016,-0.000734832,-0.00119187,0.00115588,0.000214905,-0.0021416,0.687807,0.0015045,0.0128374,1756,1569,8.7438,-10.016
539,-545,8.73425,9.82019,0.000445592,0.000111117,0.000112655,0.000479997,7.67126e-05,0.296402,0.00029774,0.0158048,1763,1569,8.73421,-9.82024
546,-545,8.69092,9.64294,0.00141366,0.00107135,-0.000636757,0.00190187,0.000583149,-0.654105,0.00112508,0.0179621,1770,1569,8.69093,-9.643
553,-545,8.72021,9.39478,0.00242152,0.00196661,-0.00139858,0.00361102,0.000777105,-0.704788,0.00219466,0.0259296,1777,1569,8.72025,-9.39482
560,-545,8.76038,9.09253,0.00369741,0.00322142,-0.00228994,0.00576169,0.00115715,-0.733619,0.0035194,0.0256213,1784,1569,8.7604,-9.09259
567,-545,8.65125,8.99817,0.00496234,0.00456047,-0.00318966,0.00795739,0.00156542,-0.753942,0.00486776,0.0374942,1791,1569,8.65122,-8.99819
574,-545,8.6427,8.8103,0.0061309,0.00579374,-0.00416388,0.0101296,0.00179503,-0.765166,0.00624137,0.0316464,1798,1569,8.64271,-8.81028
581,-545,8.77954,8.51453,0.00847219,0.00742076,-0.00567679,0.0136476,0.0022454,-0.739226,0.00844994,0.0419964,1805,1569,8.77951,-8.51455
588,-545,8.81897,8.2323,0,0,0,0,0,0,0,-1,1812,1569,8.81903,-8.23227
595,-545,8.32605,7.33154,0,0,0,0,0,0,0,-1,1819,1569,8.32603,-7.33152
602,-545,8.82117,6.32214,0,0,0,0,0,0,0,-1,1826,1569,8.82121,-6.32217
609,-545,10.2406,5.22351,0,0,0,0,0,0,0,-1,1833,1569,10.2406,-5.22353
616,-545,11.701,3.93188,0,0,0,0,0,0,0,-1,1840,1569,11.701,-3.93191
623,-545,13.2139,2.32043,0,0,0,0,0,0,0,-1,1847,1569,13.2139,-2.32042
630,-545,0,0,0,0,0,0,0,0,0,-1,1854,1569,0,0
637,-545,0,0,0,0,0,0,0,0,0,-1,1861,1569,0,0
644,-545,0,0,0,0,0,0,0,0,0,-1,1868,1569,0,0
651,-545,0,0,0,0,0,0,0,0,0,-1,1875,1569,0,0
658,-545,0,0,0,0,0,0,0,0,0,-1,1882,1569,0,0
665,-545,0,0,0,0,0,0,0,0,0,-1,1889,1569,0,0
672,-545,0,0,0,0,0,0,0,0,0,-1,1896,1569,0,0
679,-545,0,0,0,0,0,0,0,0,0,-1,1903,1569,0,0
686,-545,0,0,0,0,0,0,0,0,0,-1,1910,1569,0,0
693,-545,0,0,0,0,0,0,0,0,0,-1,1917,1569,0,0
700,-545,0,0,0,0,0,0,0,0,0,-1,1924,1569,0,0
707,-545,0,0,0,0,0,0,0,0,0,-1,1931,1569,0,0
714,-545,0,0,0,0,0,0,0,0,0,-1,1938,1569,0,0
721,-545,0,0,0,0,0,0,0,0,0,-1,1945,1569,0,0
728,-545,0,0,0,0,0,0,0,0,0,-1,1952,1569,0,0
735,-545,0,0,0,0,0,0,0,0,0,-1,1959,1569,0,0
742,-545,0,0,0,0,0,0,0,0,0,-1,1966,1569,0,0
749,-545,0,0,0,0,0,0,0,0,0,-1,1973,1569,0,0
756,-545,0,0,0,0,0,0,0,0,0,-1,1980,1569,0,0
763,-545,0,0,0,0,0,0,0,0,0,-1,1987,1569,0,0
770,-545,0,0,0,0,0,0,0,0,0,-1,1994,1569,0,0
777,-545,0,0,0,0,0,0,0,0,0,-1,2001,1569,0,0
784,-545,0,0,0,0,0,0,0,0,0,-1,2008,1569,0,0
791,-545,0,0,0,0,0,0,0,0,0,-1,2015,1569,0,0
798,-545,0,0,0,0,0,0,0,0,0,-1,2022,1569,0,0
805,-545,0,0,0,0,0,0,0,0,0,-1,2029,1569,0,0
812,-545,0,0,0,0,0,0,0,0,0,-1,2036,1569,0,0
-700,-552,0,0,0,0,0,0,0,0,0,-1,524,1576,0,0
-693,-552,0,0,0,0,0,0,0,0,0,-1,531,1576,0,0
-686,-552,0,0,0,0,0,0,0,0,0,-1,538,1576,0,0
-679,-552,0,0,0,0,0,0,0,0,0,-1,545,1576,0,0
-672,-552,0,0,0,0,0,0,0,0,0,-1,552,1576,0,0
-665,-552,0,0,0,0,0,0,0,0,0,-1,559,1576,0,0
-658,-552,0,0,0,0,0,0,0,0,0,-1,566,1576,0,0
-651,-552,0,0,0,0,0,0,0,0,0,-1,573,1576,0,0
-644,-552,0,0,0,0,0,0,0,0,0,-1,580,1576,0,0
-637,-552,0,0,0,0,0,0,0,0,0,-1,587,1576,0,0
-630,-552,0,0,0,0,0,0,0,0,0,-1,594,1576,0,0
-623,-552,0,0,0,0,0,0,0,0,0,-1,601,1576,0,0
-616,-552,0,0,0,0,0,0,0,0,0,-1,608,1576,0,0
-609,-552,0,0,0,0,0,0,0,0,0,-1,615,1576,0,0
-602,-552,0,0,0,0,0,0,0,0,0,-1,622,1576,0,0
-595,-552,0,0,0,0,0,0,0,0,0,-1,629,1576,0,0
-588,-552,0,0,0,0,0,0,0,0,0,-1,636,1576,0,0
-581,-552,0,0,0,0,0,0,0,0,0,-1,643,1576,0,0
-574,-552,0,0,0,0,0,0,0,0,0,-1,650,1576,0,0
-567,-552,0,0,0,0,0,0,0,0,0,-1,657,1576,0,0
-560,-552,0,0,0,0,0,0,0,0,0,-1,664,1576,0,0
-553,-552,0,0,0,0,0,0,0,0,0,-1,671,1576,0,0
-546,-552,0,0,0,0,0,0,0,0,0,-1,678,1576,0,0
-539,-552,0,0,0,0,0,0,0,0,0,-1,685,1576,0,0
-532,-552,0,0,0,0,0,0,0,0,0,-1,692,1576,0,0
-525,-552,0,0,0,0,0,0,0,0,0,-1,699,1576,0,0
-518,-552,0,0,0,0,0,0,0,0,0,-1,706,1576,0,0
-511,-552,0,0,0,0,0,0,0,0,0,-1,713,1576,0,0
-504,-552,0,0,0,0,0,0,0,0,0,-1,720,1576,0,0
-497,-552,8.25964,-2.32227,0,0,0,0,0,0,0,-1,727,1576,8.25965,2.32222
-490,-552,2.92957,2.84436,0,0,0,0,0,0,0,-1,734,1576,2.92957,-2.84439
-483,-552,2.36237,3.64746,0,0,0,0,0,0,0,-1,741,1576,2.36239,-3.64741
-476,-552,0.544983,5.17517,0,0,0,0,0,0,0,-1,748,1576,0.544963,-5.17512
-469,-552,0.593445,5.6001,0,0,0,0,0,0,0,-1,755,1576,0.593453,-5.60005
-462,-552,2.8175,4.10815,0,0,0,0,0,0,0,-1,762,1576,2.8175,-4.10818
-455,-552,0.639587,6.67761,0,0,0,0,0,0,0,-1,769,1576,0.639567,-6.67765
-448,-552,0.681824,6.59009,0.0729892,0.0810421,0.0990585,0.176156,-0.0221246,0.80571,0.125464,0.0424851,776,1576,0.681823,-6.59003
-441,-552,0.767761,7.15039,0.0616226,0.0666458,0.0827079,0.14688,-0.0186118,0.800577,0.104677,0.0368434,783,1576,0.767749,-7.15035
-434,-552,0.806885,7.57141,0.0500223,0.0530275,0.0673647,0.118906,-0.0158566,0.796549,0.0850506,0.0205029,790,1576,0.806905,-7.57136
-427,-552,0.750916,7.76196,0.0393685,0.0407019,0.0525884,0.0926278,-0.0125574,0.791737,0.066335,0.0150344,797,1576,0.750938,-7.76196
-420,-552,0.784363,8.00977,0.030553,0.0305581,0.0395539,0.0701095,-0.00899838,0.785431,0.0500097,0.0171503,804,1576,0.784371,-8.00975
-413,-552,0.802795,8.22974,0.0224698,0.0215809,0.028306,0.0503348,-0.00628415,0.777549,0.0358354,0.0159211,811,1576,0.802786,-8.22968
-406,-552,0.767029,8.4679,0.0149773,0.0129,0.0179074,0.0318762,-0.00399881,0.75643,0.0227014,0.0130596,818,1576,0.767014,-8.46794
-399,-552,0.76416,8.6897,0.00935537,0.00648956,0.0101847,0.0182074,-0.0023625,0.715511,0.0129975,0.0132006,825,1576,0.764163,-8.68964
-392,-552,0.74292,8.90491,0.00449525,0.00117284,0.00394358,0.00711323,-0.00144514,0.586056,0.00529008,0.0135693,832,1576,0.742909,-8.90496
-385,-552,0.727661,9.14026,0.00194424,-0.00158121,0.000670206,0.00206735,-0.00170432,0.181666,0.00218093,0.0124305,839,1576,0.727648,-9.1402
-378,-552,0.72113,9.36731,0.00113974,-0.00279726,-0.000608257,0.00123157,-0.0028891,-0.149844,0.00244238,0.0141799,846,1576,0.721142,-9.36733
-371,-552,0.717773,9.60217,0.00129518,-0.00317188,-0.000603548,0.00137529,-0.00325199,-0.131959,0.00274382,0.0177498,853,1576,0.717745,-9.60216
-364,-552,0.756042,9.81165,0.000725629,-0.00244922,-0.000474363,0.00079499,-0.00251858,-0.145189,0.0019975,0.0137708,860,1576,0.756068,-9.81171
-357,-552,0.773071,10.0254,-0.000289261,-0.00101302,-0.000400403,-0.000111437,-0.00119084,-0.417946,0.000759479,0.00944284,867,1576,0.773069,-10.0254
-350,-552,0.775513,10.2509,-0.00153717,0.00146079,-0.000492573,0.00153965,-0.00161603,-1.41205,0.00182211,0.00905957,874,1576,0.775486,-10.2508
-343,-552,0.758484,10.4451,-0.0029324,0.00409363,-0.000734568,0.0041696,-0.00300838,-1.46773,0.00416225,0.00949601,881,1576,0.758477,-10.445
-336,-552,0.786255,10.6019,-0.00448798,0.00725048,-0.00106133,0.00734566,-0.00458317,-1.48135,0.0069484,0.0148026,888,1576,0.786266,-10.6019
-329,-552,0.820984,10.9497,-0.00675155,0.0114923,-0.00147675,0.0116111,-0.00687031,-1.49055,0.0107866,0.0316882,895,1576,0.820982,-10.9497
-322,-552,0.912964,11.4552,0,0,0,0,0,0,0,-1,902,1576,0.912945,-11.4552
-315,-552,0.797546,12.2551,-0.0123008,0.0220227,-0.00328425,0.0223342,-0.0126122,-1.47625,0.0204349,0.0499898,909,1576,0.797559,-12.2551
-308,-552,0.0129395,12.4404,-0.0149808,0.0280666,-0.00532342,0.0287151,-0.0156294,-1.44956,0.0259712,0.0439609,916,1576,0.0129351,-12.4405
-301,-552,-0.17926,12.8596,-0.0166283,0.0329472,-0.0071196,0.0339494,-0.0176305,-1.43095,0.0302724,0.0497024,923,1576,-0.179234,-12.8596
-294,-552,-0.0730591,13.3799,0,0,0,0,0,0,0,-1,930,1576,-0.0730346,-13.3799
-287,-552,0.489014,11.6031,0,0,0,0,0,0,0,-1,937,1576,0.488988,-11.6031
-280,-552,1.70819,8.4104,0,0,0,0,0,0,0,-1,944,1576,1.70818,-8.4104
-273,-552,1.64587,10.6685,0,0,0,0,0,0,0,-1,951,1576,1.6459,-10.6685
-266,-552,-1.32678,8.05688,0,0,0,0,0,0,0,-1,958,1576,-1.32677,-8.05683
-259,-552,-5.54321,8.31213,0,0,0,0,0,0,0,-1,965,1576,-5.54324,-8.31214
-252,-552,-1.93445,7.81543,0,0,0,0,0,0,0,-1,972,1576,-1.93445,-7.81546
-245,-552,-2.53613,6.92212,0,0,0,0,0,0,0,-1,979,1576,-2.53614,-6.92216
-238,-552,-3.13782,6.02881,0,0,0,0,0,0,0,-1,986,1576,-3.13783,-6.02886
-231,-552,-3.14673,3.55884,0,0,0,0,0,0,0,-1,993,1576,-3.14675,-3.55884
-224,-552,0,0,0,0,0,0,0,0,0,-1,1000,1576,0,0
-217,-552,0,0,0,0,0,0,0,0,0,-1,1007,1576,0,0
-210,-552,0,0,0,0,0,0,0,0,0,-1,1014,1576,0,0
-203,-552,0,0,0,0,0,0,0,0,0,-1,1021,1576,0,0
-196,-552,0,0,0,0,0,0,0,0,0,-1,1028,1576,0,0
-189,-552,0,0,0,0,0,0,0,0,0,-1,1035,1576,0,0
-182,-552,0,0,0,0,0,0,0,0,0,-1,1042,1576,0,0
-175,-552,0,0,0,0,0,0,0,0,0,-1,1049,1576,0,0
-168,-552,0,0,0,0,0,0,0,0,0,-1,1056,1576,0,0
-161,-552,0,0,0,0,0,0,0,0,0,-1,1063,1576,0,0
-154,-552,0,0,0,0,0,0,0,0,0,-1,1070,1576,0,0
-147,-552,0,0,0,0,0,0,0,0,0,-1,1077,1576,0,0
-140,-552,0,0,0,0,0,0,0,0,0,-1,1084,1576,0,0
-133,-552,0,0,0,0,0,0,0,0,0,-1,1091,1576,0,0
-126,-552,0,0,0,0,0,0,0,0,0,-1,1098,1576,0,0
-119,-552,0,0,0,0,0,0,0,0,0,-1,1105,1576,0,0
-112,-552,0,0,0,0,0,0,0,0,0,-1,1112,1576,0,0
-105,-552,0,0,0,0,0,0,0,0,0,-1,1119,1576,0,0
-98,-552,0,0,0,0,0,0,0,0,0,-1,1126,1576,0,0
-91,-552,0,0,0,0,0,0,0,0,0,-1,1133,1576,0,0
-84,-552,0,0,0,0,0,0,0,0,0,-1,1140,1576,0,0
-77,-552,0,0,0,0,0,0,0,0,0,-1,1147,1576,0,0
-70,-552,0,0,0,0,0,0,0,0,0,-1,1154,1576,0,0
-63,-552,0,0,0,0,0,0,0,0,0,-1,1161,1576,0,0
-56,-552,0,0,0,0,0,0,0,0,0,-1,1168,1576,0,0
-49,-552,0,0,0,0,0,0,0,0,0,-1,1175,1576,0,0
-42,-552,0,0,0,0,0,0,0,0,0,-1,1182,1576,0,0
-35,-552,0,0,0,0,0,0,0,0,0,-1,1189,1576,0,0
-28,-552,0,0,0,0,0,0,0,0,0,-1,1196,1576,0,0
-21,-552,0,0,0,0,0,0,0,0,0,-1,1203,1576,0,0
-14,-552,0,0,0,0,0,0,0,0,0,-1,1210,1576,0,0
-7,-552,0,0,0,0,0,0,0,0,0,-1,1217,1576,0,0
0,-552,0,0,0,0,0,0,0,0,0,-1,1224,1576,0,0
7,-552,0,0,0,0,0,0,0,0,0,-1,1231,1576,0,0
14,-552,0,0,0,0,0,0,0,0,0,-1,1238,1576,0,0
21,-552,0,0,0,0,0,0,0,0,0,-1,1245,1576,0,0
28,-552,0,0,0,0,0,0,0,0,0,-1,1252,1576,0,0
35,-552,0,0,0,0,0,0,0,0,0,-1,1259,1576,0,0
42,-552,0,0,0,0,0,0,0,0,0,-1,1266,1576,0,0
49,-552,0,0,0,0,0,0,0,0,0,-1,1273,1576,0,0
56,-552,0,0,0,0,0,0,0,0,0,-1,1280,1576,0,0
63,-552,0,0,0,0,0,0,0,0,0,-1,1287,1576,0,0
70,-552,0,0,0,0,0,0,0,0,0,-1,1294,1576,0,0
77,-552,0,0,0,0,0,0,0,0,0,-1,1301,1576,0,0
84,-552,0,0,0,0,0,0,0,0,0,-1,1308,1576,0,0
91,-552,0,0,0,0,0,0,0,0,0,-1,1315,1576,0,0
98,-552,0,0,0,0,0,0,0,0,0,-1,1322,1576,0,0
105,-552,0,0,0,0,0,0,0,0,0,-1,1329,1576,0,0
112,-552,0,0,0,0,0,0,0,0,0,-1,1336,1576,0,0
119,-552,0,0,0,0,0,0,0,0,0,-1,1343,1576,0,0
126,-552,0,0,0,0,0,0,0,0,0,-1,1350,1576,0,0
133,-552,0,0,0,0,0,0,0,0,0,-1,1357,1576,0,0
140,-552,0,0,0,0,0,0,0,0,0,-1,1364,1576,0,0
147,-552,0,0,0,0,0,0,0,0,0,-1,1371,1576,0,0
154,-552,0,0,0,0,0,0,0,0,0,-1,1378,1576,0,0
161,-552,0,0,0,0,0,0,0,0,0,-1,1385,1576,0,0
168,-552,0,0,0,0,0,0,0,0,0,-1,1392,1576,0,0
175,-552,0,0,0,0,0,0,0,0,0,-1,1399,1576,0,0
182,-552,0,0,0,0,0,0,0,0,0,-1,1406,1576,0,0
189,-552,0,0,0,0,0,0,0,0,0,-1,1413,1576,0,0
196,-552,0,0,0,0,0,0,0,0,0,-1,1420,1576,0,0
203,-552,0,0,0,0,0,0,0,0,0,-1,1427,1576,0,0
210,-552,0,0,0,0,0,0,0,0,0,-1,1434,1576,0,0
217,-552,0,0,0,0,0,0,0,0,0,-1,1441,1576,0,0
224,-552,0,0,0,0,0,0,0,0,0,-1,1448,1576,0,0
231,-552,0,0,0,0,0,0,0,0,0,-1,1455,1576,0,0
238,-552,0,0,0,0,0,0,0,0,0,-1,1462,1576,0,0
245,-552,0,0,0,0,0,0,0,0,0,-1,1469,1576,0,0
252,-552,0,0,0,0,0,0,0,0,0,-1,1476,1576,0,0
259,-552,0,0,0,0,0,0,0,0,0,-1,1483,1576,0,0
266,-552,0,0,0,0,0,0,0,0,0,-1,1490,1576,0,0
273,-552,0,0,0,0,0,0,0,0,0,-1,1497,1576,0,0
280,-552,0,0,0,0,0,0,0,0,0,-1,1504,1576,0,0
287,-552,0,0,0,0,0,0,0,0,0,-1,1511,1576,0,0
294,-552,0,0,0,0,0,0,0,0,0,-1,1518,1576,0,0
301,-552,0,0,0,0,0,0,0,0,0,-1,1525,1576,0,0
308,-552,0,0,0,0,0,0,0,0,0,-1,1532,1576,0,0
315,-552,0,0,0,0,0,0,0,0,0,-1,1539,1576,0,0
322,-552,0,0,0,0,0,0,0,0,0,-1,1546,1576,0,0
329,-552,0,0,0,0,0,0,0,0,0,-1,1553,1576,0,0
336,-552,0,0,0,0,0,0,0,0,0,-1,1560,1576,0,0
343,-552,0,0,0,0,0,0,0,0,0,-1,1567,1576,0,0
350,-552,4.97876,4.09888,0,0,0,0,0,0,0,-1,1574,1576,4.97875,-4.09883
357,-552,5.18469,4.10706,0,0,0,0,0,0,0,-1,1581,1576,5.1847,-4.10702
364,-552,5.80872,5.07031,0,0,0,0,0,0,0,-1,1588,1576,5.80874,-5.07037
371,-552,7.10657,5.64783,0,0,0,0,0,0,0,-1,1595,1576,7.10651,-5.64786
378,-552,6.44446,4.91492,0,0,0,0,0,0,0,-1,1602,1576,6.44448,-4.91496
385,-552,12.8276,3.16504,0,0,0,0,0,0,0,-1,1609,1576,12.8276,-3.16503
392,-552,12.1301,4.3363,0,0,0,0,0,0,0,-1,1616,1576,12.1302,-4.33631
399,-552,11.3486,5.6012,0,0,0,0,0,0,0,-1,1623,1576,11.3486,-5.60115
406,-552,10.7863,6.42542,0,0,0,0,0,0,0,-1,1630,1576,10.7863,-6.42536
413,-552,8.39307,10.365,0,0,0,0,0,0,0,-1,1637,1576,8.3931,-10.365
420,-552,10.2306,12.7225,0,0,0,0,0,0,0,-1,1644,1576,10.2305,-12.7226
427,-552,10.2379,12.457,0,0,0,0,0,0,0,-1,1651,1576,10.2379,-12.457
434,-552,10.1692,12.5149,0,0,0,0,0,0,0,-1,1658,1576,10.1692,-12.5149
441,-552,10.234,13.0178,0,0,0,0,0,0,0,-1,1665,1576,10.234,-13.0178
448,-552,9.87964,12.5547,-0.0372297,-0.0407236,0.0373839,-0.001552,-0.0764013,0.76205,0.0504248,0.0439062,1672,1576,9.8797,-12.5547
455,-552,9.29553,12.1493,-0.0321156,-0.0370532,0.0331796,-0.00131314,-0.0678557,0.748263,0.0448058,0.0398188,1679,1576,9.29553,-12.1493
462,-552,8.88062,11.6642,-0.0273579,-0.0327589,0.0290676,-0.000865605,-0.0592512,0.739079,0.0392154,0.0398942,1686,1576,8.88067,-11.6642
469,-552,8.6676,11.6261,-0.0229287,-0.0282775,0.0249133,-0.000546683,-0.0506595,0.731929,0.0335922,0.0345683,1693,1576,8.66763,-11.6261
476,-552,8.52661,11.6155,-0.0187377,-0.0237615,0.020701,-0.000396818,-0.0421024,0.725022,0.027937,0.0165825,1700,1576,8.52664,-11.6155
483,-552,8.54321,11.4469,-0.0149777,-0.01937,0.0169105,-0.000121279,-0.0342264,0.720825,0.0227773,0.0136665,1707,1576,8.54316,-11.4469
490,-552,8.54468,11.2584,-0.0117776,-0.0152472,0.0134674,6.63372e-05,-0.0270911,0.721343,0.0180829,0.0146044,1714,1576,8.54471,-11.2584
497,-552,8.59192,11.0675,-0.00897136,-0.0116946,0.0103208,7.72411e-05,-0.0207432,0.719812,0.0138546,0.0207269,1721,1576,8.59187,-11.0675
504,-552,8.58728,10.8522,-0.00640972,-0.00873333,0.00753331,5.08465e-05,-0.0151939,0.70889,0.0101463,0.0236168,1728,1576,8.58731,-10.8521
511,-552,8.53308,10.6079,-0.00418335,-0.00588571,0.00513705,0.000172564,-0.0102416,0.703297,0.00688599,0.0194633,1735,1576,8.53305,-10.608
518,-552,8.53235,10.421,-0.00236849,-0.00347602,0.00316432,0.000290158,-0.00613466,0.698774,0.00418984,0.0161204,1742,1576,8.53238,-10.421
525,-552,8.52197,10.244,-0.000738679,-0.00138509,0.0013446,0.000321018,-0.00244479,0.667449,0.00174673,0.013113,1749,1576,8.522,-10.244
532,-552,8.54272,10.025,0.000510599,-0.000135945,0.000156745,0.000546595,-0.000171942,0.225735,0.000433237,0.0136415,1756,1576,8.54278,-10.025
539,-552,8.54761,9.79578,0.00144984,0.000767245,-0.000624217,0.00181997,0.000397112,-0.535223,0.00110499,0.01708,1763,1576,8.54766,-9.79573
546,-552,8.52722,9.62256,0.00224291,0.00147489,-0.00118631,0.00310582,0.000611989,-0.62887,0.0018997,0.0206443,1770,1576,8.52725,-9.62257
553,-552,8.56665,9.41919,0.00313769,0.00216334,-0.00180883,0.0045238,0.000777231,-0.653854,0.00279307,0.0243249,1777,1576,8.56668,-9.41923
560,-552,8.60046,8.92566,0,0,0,0,0,0,0,-1,1784,1576,8.60051,-8.92565
567,-552,8.55823,8.79846,0,0,0,0,0,0,0,-1,1791,1576,8.55819,-8.79847
574,-552,8.6217,8.71375,0,0,0,0,0,0,0,-1,1798,1576,8.62167,-8.71377
581,-552,8.75488,8.41138,0,0,0,0,0,0,0,-1,1805,1576,8.7549,-8.41137
588,-552,8.23315,7.57324,0,0,0,0,0,0,0,-1,1812,1576,8.23314,-7.57318
595,-552,5.36194,6.62744,0,0,0,0,0,0,0,-1,1819,1576,5.36193,-6.62742
602,-552,10.6863,4.31616,0,0,0,0,0,0,0,-1,1826,1576,10.6862,-4.31619
609,-552,12.146,3.18286,0,0,0,0,0,0,0,-1,1833,1576,12.1459,-3.18281
616,-552,13.8762,2.08167,0,0,0,0,0,0,0,-1,1840,1576,13.8763,-2.08167
623,-552,0,0,0,0,0,0,0,0,0,-1,1847,1576,0,0
630,-552,0,0,0,0,0,0,0,0,0,-1,1854,1576,0,0
637,-552,0,0,0,0,0,0,0,0,0,-1,1861,1576,0,0
644,-552,0,0,0,0,0,0,0,0,0,-1,1868,1576,0,0
651,-552,0,0,0,0,0,0,0,0,0,-1,1875,1576,0,0
658,-552,0,0,0,0,0,0,0,0,0,-1,1882,1576,0,0
665,-552,0,0,0,0,0,0,0,0,0,-1,1889,1576,0,0
672,-552,0,0,0,0,0,0,0,0,0,-1,1896,1576,0,0
679,-552,0,0,0,0,0,0,0,0,0,-1,1903,1576,0,0
686,-552,0,0,0,0,0,0,0,0,0,-1,1910,1576,0,0
693,-552,0,0,0,0,0,0,0,0,0,-1,1917,1576,0,0
700,-552,0,0,0,0,0,0,0,0,0,-1,1924,1576,0,0
707,-552,0,0,0,0,0,0,0,0,0,-1,1931,1576,0,0
714,-552,0,0,0,0,0,0,0,0,0,-1,1938,1576,0,0
721,-552,0,0,0,0,0,0,0,0,0,-1,1945,1576,0,0
728,-552,0,0,0,0,0,0,0,0,0,-1,1952,1576,0,0
735,-552,0,0,0,0,0,0,0,0,0,-1,1959,1576,0,0
742,-552,0,0,0,0,0,0,0,0,0,-1,1966,1576,0,0
749,-552,0,0,0,0,0,0,0,0,0,-1,1973,1576,0,0
756,-552,0,0,0,0,0,0,0,0,0,-1,1980,1576,0,0
763,-552,0,0,0,0,0,0,0,0,0,-1,1987,1576,0,0
770,-552,0,0,0,0,0,0,0,0,0,-1,1994,1576,0,0
777,-552,0,0,0,0,0,0,0,0,0,-1,2001,1576,0,0
784,-552,0,0,0,0,0,0,0,0,0,-1,2008,1576,0,0
791,-552,0,0,0,0,0,0,0,0,0,-1,2015,1576,0,0
798,-552,0,0,0,0,0,0,0,0,0,-1,2022,1576,0,0
805,-552,0,0,0,0,0,0,0,0,0,-1,2029,1576,0,0
812,-552,0,0,0,0,0,0,0,0,0,-1,2036,1576,0,0
-700,-559,0,0,0,0,0,0,0,0,0,-1,524,1583,0,0
-693,-559,0,0,0,0,0,0,0,0,0,-1,531,1583,0,0
-686,-559,0,0,0,0,0,0,0,0,0,-1,538,1583,0,0
-679,-559,0,0,0,0,0,0,0,0,0,-1,545,1583,0,0
-672,-559,0,0,0,0,0,0,0,0,0,-1,552,1583,0,0
-665,-559,0,0,0,0,0,0,0,0,0,-1,559,1583,0,0
-658,-559,0,0,0,0,0,0,0,0,0,-1,566,1583,0,0
-651,-559,0,0,0,0,0,0,0,0,0,-1,573,1583,0,0
-644,-559,0,0,0,0,0,0,0,0,0,-1,580,1583,0,0
-637,-559,0,0,0,0,0,0,0,0,0,-1,587,1583,0,0
-630,-559,0,0,0,0,0,0,0,0,0,-1,594,1583,0,0
-623,-559,0,0,0,0,0,0,0,0,0,-1,601,1583,0,0
-616,-559,0,0,0,0,0,0,0,0,0,-1,608,1583,0,0
-609,-559,0,0,0,0,0,0,0,0,0,-1,615,1583,0,0
-602,-559,0,0,0,0,0,0,0,0,0,-1,622,1583,0,0
-595,-559,0,0,0,0,0,0,0,0,0,-1,629,1583,0,0
-588,-559,0,0,0,0,0,0,0,0,0,-1,636,1583,0,0
-581,-559,0,0,0,0,0,0,0,0,0,-1,643,1583,0,0
-574,-559,0,0,0,0,0,0,0,0,0,-1,650,1583,0,0
-567,-559,0,0,0,0,0,0,0,0,0,-1,657,1583,0,0
-560,-559,0,0,0,0,0,0,0,0,0,-1,664,1583,0,0
-553,-559,0,0,0,0,0,0,0,0,0,-1,671,1583,0,0
-546,-559,0,0,0,0,0,0,0,0,0,-1,678,1583,0,0
-539,-559,0,0,0,0,0,0,0,0,0,-1,685,1583,0,0
-532,-559,0,0,0,0,0,0,0,0,0,-1,692,1583,0,0
-525,-559,0,0,0,0,0,0,0,0,0,-1,699,1583,0,0
-518,-559,0,0,0,0,0,0,0,0,0,-1,706,1583,0,0
-511,-559,0,0,0,0,0,0,0,0,0,-1,713,1583,0,0
-504,-559,0,0,0,0,0,0,0,0,0,-1,720,1583,0,0
-497,-559,0,0,0,0,0,0,0,0,0,-1,727,1583,0,0
-490,-559,3.45331,2.42639,0,0,0,0,0,0,0,-1,734,1583,3.45332,-2.42636
-483,-559,2.91504,3.2135,0,0,0,0,0,0,0,-1,741,1583,2.91503,-3.21356
-476,-559,-0.678833,-0.312988,0,0,0,0,0,0,0,-1,748,1583,-0.678854,0.313026
-469,-559,0.255676,1.23999,0,0,0,0,0,0,0,-1,755,1583,0.255656,-1.24001
-462,-559,0.973938,2.96448,0.130228,0.144216,0.175899,0.31326,-0.0388167,0.805268,0.222909,0.0433386,762,1583,0.973912,-2.96446
-455,-559,1.92621,4.00525,0.118227,0.126452,0.158006,0.280399,-0.0357205,0.798408,0.199906,0.043167,769,1583,1.92621,-4.00524
-448,-559,0.88562,6.45117,0,0,0,0,0,0,0,-1,776,1583,0.885645,-6.45113
-441,-559,0.94458,6.92249,0.0881546,0.0894334,0.11488,0.203675,-0.0260875,0.788181,0.145262,0.047872,783,1583,0.944563,-6.92251
-434,-559,1.16351,7.57288,0.0719728,0.0716532,0.0935393,0.165352,-0.0217264,0.784544,0.118145,0.0353863,790,1583,1.1635,-7.57285
-427,-559,1.06268,7.83496,0.0564278,0.0551146,0.0728595,0.128634,-0.0170913,0.780892,0.0919837,0.0217964,797,1583,1.0627,-7.83491
-420,-559,0.990906,8.03101,0.0432435,0.0414277,0.0547969,0.09714,-0.0124688,0.777114,0.0692913,0.021888,804,1583,0.9909,-8.03106
-413,-559,1.01196,8.26318,0.031418,0.0295156,0.0392327,0.069711,-0.00877736,0.773278,0.0496591,0.0127127,811,1583,1.01196,-8.26322
-406,-559,0.988586,8.4939,0.0208916,0.0182683,0.0252513,0.0448653,-0.00570543,0.759449,0.0319821,0.00978157,818,1583,0.988569,-8.49387
-399,-559,0.984619,8.70593,0.0128791,0.0100206,0.0147882,0.026307,-0.00340732,0.737223,0.0187771,0.0118312,825,1583,0.984642,-8.70587
-392,-559,0.961548,8.90698,0.00578336,0.00308438,0.00605098,0.0106335,-0.00176577,0.675684,0.00774498,0.0137572,832,1583,0.961528,-8.90696
-385,-559,0.951782,9.13696,0.00180957,-0.000581068,0.00132034,0.00239529,-0.00116679,0.417528,0.00209694,0.0141838,839,1583,0.951797,-9.13695
-378,-559,0.955566,9.36975,0.000329273,-0.0021377,-0.000660526,0.000494994,-0.00230343,-0.245819,0.00172446,0.0135418,846,1583,0.955557,-9.36973
-371,-559,0.953064,9.61584,0.00055956,-0.00234825,-0.000617538,0.000685273,-0.00247396,-0.200827,0.00191896,0.0201072,853,1583,0.953089,-9.61586
-364,-559,0.988831,9.81616,0.000156194,-0.00162184,-0.000456749,0.000266662,-0.00173231,-0.237301,0.00125325,0.0181221,860,1583,0.988832,-9.81618
-357,-559,0.982727,10.0063,-0.000610683,-0.000237633,-0.00033309,-4.23983e-05,-0.000805917,-1.04064,0.000523718,0.0116512,867,1583,0.982733,-10.0063
-350,-559,0.981567,10.2202,-0.00153705,0.00201816,-0.000382918,0.00205893,-0.00157782,-1.46471,0.0021058,0.0100856,874,1583,0.981548,-10.2202
-343,-559,0.963623,10.4347,-0.00252926,0.00431589,-0.000578549,0.00436444,-0.00257781,-1.48707,0.00405212,0.0102648,881,1583,0.963639,-10.4347
-336,-559,0.951233,10.6383,-0.00357369,0.0069354,-0.00088009,0.00700859,-0.00364689,-1.48782,0.00625317,0.0111631,888,1583,0.951245,-10.6383
-329,-559,1.00745,10.9166,-0.0051301,0.0102509,-0.00128903,0.0103581,-0.00523739,-1.48776,0.00916445,0.0159317,895,1583,1.00746,-10.9167
-322,-559,1.11389,11.2142,-0.00700682,0.0139967,-0.00197248,0.0141803,-0.00719045,-1.47797,0.0125565,0.0384722,902,1583,1.11389,-11.2142
-315,-559,1.02271,11.5992,-0.00888274,0.0180564,-0.00307246,0.0184023,-0.00922872,-1.45866,0.0162432,0.0416396,909,1583,1.0227,-11.5993
-308,-559,0.470947,12.1439,-0.0105253,0.0222242,-0.00473967,0.0228964,-0.0111974,-1.42992,0.0200666,0.040195,916,1583,0.470959,-12.1439
-301,-559,0.295288,12.4918,-0.0114355,0.02551,-0.0062732,0.0265462,-0.0124716,-1.40711,0.0230102,0.0459665,923,1583,0.295285,-12.4919
-294,-559,0.485352,11.9048,0,0,0,0,0,0,0,-1,930,1583,0.485329,-11.9048
-287,-559,0.9021,11.7222,0,0,0,0,0,0,0,-1,937,1583,0.90211,-11.7222
-280,-559,1.41132,11.9252,0,0,0,0,0,0,0,-1,944,1583,1.41134,-11.9252
-273,-559,2.12836,10.3059,0,0,0,0,0,0,0,-1,951,1583,2.12839,-10.3059
-266,-559,-0.597046,6.68933,0,0,0,0,0,0,0,-1,958,1583,-0.597031,-6.68937
-259,-559,-7.00311,8.62756,0,0,0,0,0,0,0,-1,965,1583,-7.00312,-8.6275
-252,-559,-9.4483,2.87805,0,0,0,0,0,0,0,-1,972,1583,-9.44829,-2.87805
-245,-559,-4.80804,7.1803,0,0,0,0,0,0,0,-1,979,1583,-4.80804,-7.18027
-238,-559,-6.69635,3.37744,0,0,0,0,0,0,0,-1,986,1583,-6.69632,-3.37743
-231,-559,-5.29871,3.61853,0,0,0,0,0,0,0,-1,993,1583,-5.29869,-3.61849
-224,-559,-2.28033,3.77515,0,0,0,0,0,0,0,-1,1000,1583,-2.28032,-3.7752
-217,-559,0,0,0,0,0,0,0,0,0,-1,1007,1583,0,0
-210,-559,0,0,0,0,0,0,0,0,0,-1,1014,1583,0,0
-203,-559,0,0,0,0,0,0,0,0,0,-1,1021,1583,0,0
-196,-559,0,0,0,0,0,0,0,0,0,-1,1028,1583,0,0
-189,-559,0,0,0,0,0,0,0,0,0,-1,1035,1583,0,0
-182,-559,0,0,0,0,0,0,0,0,0,-1,1042,1583,0,0
-175,-559,0,0,0,0,0,0,0,0,0,-1,1049,1583,0,0
-168,-559,0,0,0,0,0,0,0,0,0,-1,1056,1583,0,0
-161,-559,0,0,0,0,0,0,0,0,0,-1,1063,1583,0,0
-154,-559,0,0,0,0,0,0,0,0,0,-1,1070,1583,0,0
-147,-559,0,0,0,0,0,0,0,0,0,-1,1077,1583,0,0
-140,-559,0,0,0,0,0,0,0,0,0,-1,1084,1583,0,0
-133,-559,0,0,0,0,0,0,0,0,0,-1,1091,1583,0,0
-126,-559,0,0,0,0,0,0,0,0,0,-1,1098,1583,0,0
-119,-559,0,0,0,0,0,0,0,0,0,-1,1105,1583,0,0
-112,-559,0,0,0,0,0,0,0,0,0,-1,1112,1583,0,0
-105,-559,0,0,0,0,0,0,0,0,0,-1,1119,1583,0,0
-98,-559,0,0,0,0,0,0,0,0,0,-1,1126,1583,0,0
-91,-559,0,0,0,0,0,0,0,0,0,-1,1133,1583,0,0
-84,-559,0,0,0,0,0,0,0,0,0,-1,1140,1583,0,0
-77,-559,0,0,0,0,0,0,0,0,0,-1,1147,1583,0,0
-70,-559,0,0,0,0,0,0,0,0,0,-1,1154,1583,0,0
-63,-559,0,0,0,0,0,0,0,0,0,-1,1161,1583,0,0
-56,-559,0,0,0,0,0,0,0,0,0,-1,1168,1583,0,0
-49,-559,0,0,0,0,0,0,0,0,0,-1,1175,1583,0,0
-42,-559,0,0,0,0,0,0,0,0,0,-1,1182,1583,0,0
-35,-559,0,0,0,0,0,0,0,0,0,-1,1189,1583,0,0
-28,-559,0,0,0,0,0,0,0,0,0,-1,1196,1583,0,0
-21,-559,0,0,0,0,0,0,0,0,0,-1,1203,1583,0,0
-14,-559,0,0,0,0,0,0,0,0,0,-1,1210,1583,0,0
-7,-559,0,0,0,0,0,0,0,0,0,-1,1217,1583,0,0
0,-559,0,0,0,0,0,0,0,0,0,-1,1224,1583,0,0
7,-559,0,0,0,0,0,0,0,0,0,-1,1231,1583,0,0
14,-559,0,0,0,0,0,0,0,0,0,-1,1238,1583,0,0
21,-559,0,0,0,0,0,0,0,0,0,-1,1245,1583,0,0
28,-559,0,0,0,0,0,0,0,0,0,-1,1252,1583,0,0
35,-559,0,0,0,0,0,0,0,0,0,-1,1259,1583,0,0
42,-559,0,0,0,0,0,0,0,0,0,-1,1266,1583,0,0
49,-559,0,0,0,0,0,0,0,0,0,-1,1273,1583,0,0
56,-559,0,0,0,0,0,0,0,0,0,-1,1280,1583,0,0
63,-559,0,0,0,0,0,0,0,0,0,-1,1287,1583,0,0
70,-559,0,0,0,0,0,0,0,0,0,-1,1294,1583,0,0
77,-559,0,0,0,0,0,0,0,0,0,-1,1301,1583,0,0
84,-559,0,0,0,0,0,0,0,0,0,-1,1308,1583,0,0
91,-559,0,0,0,0,0,0,0,0,0,-1,1315,1583,0,0
98,-559,0,0,0,0,0,0,0,0,0,-1,1322,1583,0,0
105,-559,0,0,0,0,0,0,0,0,0,-1,1329,1583,0,0
112,-559,0,0,0,0,0,0,0,0,0,-1,1336,1583,0,0
119,-559,0,0,0,0,0,0,0,0,0,-1,1343,1583,0,0
126,-559,0,0,0,0,0,0,0,0,0,-1,1350,1583,0,0
133,-559,0,0,0,0,0,0,0,0,0,-1,1357,1583,0,0
140,-559,0,0,0,0,0,0,0,0,0,-1,1364,1583,0,0
147,-559,0,0,0,0,0,0,0,0,0,-1,1371,1583,0,0
154,-559,0,0,0,0,0,0,0,0,0,-1,1378,1583,0,0
161,-559,0,0,0,0,0,0,0,0,0,-1,1385,1583,0,0
168,-559,0,0,0,0,0,0,0,0,0,-1,1392,1583,0,0
175,-559,0,0,0,0,0,0,0,0,0,-1,1399,1583,0,0
182,-559,0,0,0,0,0,0,0,0,0,-1,1406,1583,0,0
189,-559,0,0,0,0,0,0,0,0,0,-1,1413,1583,0,0
196,-559,0,0,0,0,0,0,0,0,0,-1,1420,1583,0,0
203,-559,0,0,0,0,0,0,0,0,0,-1,1427,1583,0,0
210,-559,0,0,0,0,0,0,0,0,0,-1,1434,1583,0,0
217,-559,0,0,0,0,0,0,0,0,0,-1,1441,1583,0,0
224,-559,0,0,0,0,0,0,0,0,0,-1,1448,1583,0,0
231,-559,0,0,0,0,0,0,0,0,0,-1,1455,1583,0,0
238,-559,0,0,0,0,0,0,0,0,0,-1,1462,1583,0,0
245,-559,0,0,0,0,0,0,0,0,0,-1,1469,1583,0,0
252,-559,0,0,0,0,0,0,0,0,0,-1,1476,1583,0,0
259,-559,0,0,0,0,0,0,0,0,0,-1,1483,1583,0,0
266,-559,0,0,0,0,0,0,0,0,0,-1,1490,1583,0,0
273,-559,0,0,0,0,0,0,0,0,0,-1,1497,1583,0,0
280,-559,0,0,0,0,0,0,0,0,0,-1,1504,1583,0,0
287,-559,0,0,0,0,0,0,0,0,0,-1,1511,1583,0,0
294,-559,0,0,0,0,0,0,0,0,0,-1,1518,1583,0,0
301,-559,0,0,0,0,0,0,0,0,0,-1,1525,1583,0,0
308,-559,0,0,0,0,0,0,0,0,0,-1,1532,1583,0,0
315,-559,0,0,0,0,0,0,0,0,0,-1,1539,1583,0,0
322,-559,0,0,0,0,0,0,0,0,0,-1,1546,1583,0,0
329,-559,0,0,0,0,0,0,0,0,0,-1,1553,1583,0,0
336,-559,5.97668,3.09827,0,0,0,0,0,0,0,-1,1560,1583,5.97667,-3.09824
343,-559,5.44824,2.88696,0,0,0,0,0,0,0,-1,1567,1583,5.44819,-2.88693
350,-559,4.69775,3.27051,0,0,0,0,0,0,0,-1,1574,1583,4.69771,-3.27048
357,-559,3.88025,3.60999,0,0,0,0,0,0,0,-1,1581,1583,3.88027,-3.60998
364,-559,5.00928,5.32605,0,0,0,0,0,0,0,-1,1588,1583,5.00928,-5.32607
371,-559,1.84436,2.52441,0,0,0,0,0,0,0,-1,1595,1583,1.84441,-2.52447
378,-559,6.34753,1.53137,0,0,0,0,0,0,0,-1,1602,1583,6.34752,-1.53139
385,-559,6.95911,1.48181,0,0,0,0,0,0,0,-1,1609,1583,6.95916,-1.48175
392,-559,11.6949,4.77734,0,0,0,0,0,0,0,-1,1616,1583,11.6949,-4.77731
399,-559,11.1104,5.56909,0,0,0,0,0,0,0,-1,1623,1583,11.1103,-5.56905
406,-559,10.3385,6.48657,0,0,0,0,0,0,0,-1,1630,1583,10.3385,-6.48661
413,-559,9.76147,6.97571,0,0,0,0,0,0,0,-1,1637,1583,9.76143,-6.97574
420,-559,7.77124,10.5851,0,0,0,0,0,0,0,-1,1644,1583,7.77128,-10.585
427,-559,10.1022,12.5565,0,0,0,0,0,0,0,-1,1651,1583,10.1021,-12.5565
434,-559,9.96765,12.7504,0,0,0,0,0,0,0,-1,1658,1583,9.9676,-12.7504
441,-559,7.98767,11.262,0,0,0,0,0,0,0,-1,1665,1583,7.98772,-11.2619
448,-559,8.37952,11.5801,-0.0276711,-0.0301177,0.0293714,0.000502452,-0.0582913,0.764585,0.0390294,0.0482482,1672,1583,8.37957,-11.5801
455,-559,8.54138,11.7968,-0.0238875,-0.027332,0.025828,0.000275631,-0.0514951,0.752107,0.0344223,0.0438798,1679,1583,8.54138,-11.7967
462,-559,8.46948,11.8368,-0.0202651,-0.0242607,0.022418,0.000243917,-0.0447698,0.740957,0.0299281,0.0354179,1686,1583,8.46949,-11.8368
469,-559,8.33093,11.8014,-0.0168812,-0.0209836,0.019098,0.000275413,-0.0381402,0.731902,0.0255191,0.0179377,1693,1583,8.33092,-11.8014
476,-559,8.3009,11.6226,-0.0136527,-0.017631,0.0157237,0.000207152,-0.0314909,0.72248,0.0210633,0.00995767,1700,1583,8.30096,-11.6225
483,-559,8.32959,11.441,-0.0106972,-0.0143404,0.0127183,0.000329333,-0.0253669,0.714269,0.0170221,0.0117804,1707,1583,8.3296,-11.441
490,-559,8.3291,11.2637,-0.00814708,-0.0111713,0.00995683,0.00041182,-0.0197302,0.710042,0.0132928,0.0152258,1714,1583,8.32915,-11.2637
497,-559,8.37451,11.0699,-0.00590795,-0.00842687,0.00740358,0.000342534,-0.0146774,0.701147,0.00990106,0.0182443,1721,1583,8.37456,-11.0699
504,-559,8.36414,10.8478,-0.00385065,-0.00610894,0.00513911,0.000281902,-0.0102415,0.677258,0.00692354,0.0238182,1728,1583,8.36416,-10.8478
511,-559,8.32764,10.6294,-0.00203565,-0.00383693,0.00317634,0.000365273,-0.00623785,0.647251,0.00428551,0.0226583,1735,1583,8.32767,-10.6294
518,-559,8.35608,10.4318,-0.000574691,-0.00193067,0.00158089,0.000467462,-0.00297283,0.582828,0.00215467,0.0138095,1742,1583,8.35609,-10.4318
525,-559,8.33154,10.2482,0.000678732,-0.000384506,0.000195063,0.000713389,-0.000419163,0.175835,0.000661194,0.0114281,1749,1583,8.33155,-10.2482
532,-559,8.32715,10.0406,0.00161994,0.000512132,-0.000683326,0.00194566,0.000186408,-0.444814,0.00123965,0.012819,1756,1583,8.32712,-10.0407
539,-559,8.34131,9.83752,0.00228749,0.001062,-0.00120361,0.00302535,0.000324143,-0.549952,0.001918,0.0167556,1763,1583,8.34133,-9.83749
546,-559,8.32507,9.61658,0.00286459,0.0015609,-0.0015796,0.00392156,0.000503931,-0.58971,0.00246364,0.0154824,1770,1583,8.32512,-9.61656
553,-559,8.43274,9.36609,0.00359253,0.00208012,-0.002062,0.00503261,0.000640034,-0.609645,0.00316339,0.0256311,1777,1583,8.43277,-9.36609
560,-559,8.4364,9.06738,0,0,0,0,0,0,0,-1,1784,1583,8.43636,-9.06736
567,-559,8.19971,8.23328,0,0,0,0,0,0,0,-1,1791,1583,8.19967,-8.23324
574,-559,8.6571,7.75928,0,0,0,0,0,0,0,-1,1798,1583,8.65711,-7.75933
581,-559,5.97095,5.96179,0,0,0,0,0,0,0,-1,1805,1583,5.97093,-5.96181
588,-559,5.79102,5.89954,0,0,0,0,0,0,0,-1,1812,1583,5.79098,-5.89949
595,-559,5.79089,6.24231,0,0,0,0,0,0,0,-1,1819,1583,5.7909,-6.24227
602,-559,12.478,2.35669,0,0,0,0,0,0,0,-1,1826,1583,12.4781,-2.35675
609,-559,14.0479,1.22681,0,0,0,0,0,0,0,-1,1833,1583,14.0479,-1.22681
616,-559,0,0,0,0,0,0,0,0,0,-1,1840,1583,0,0
623,-559,0,0,0,0,0,0,0,0,0,-1,1847,1583,0,0
630,-559,0,0,0,0,0,0,0,0,0,-1,1854,1583,0,0
637,-559,0,0,0,0,0,0,0,0,0,-1,1861,1583,0,0
644,-559,0,0,0,0,0,0,0,0,0,-1,1868,1583,0,0
651,-559,0,0,0,0,0,0,0,0,0,-1,1875,1583,0,0
658,-559,0,0,0,0,0,0,0,0,0,-1,1882,1583,0,0
665,-559,0,0,0,0,0,0,0,0,0,-1,1889,1583,0,0
672,-559,0,0,0,0,0,0,0,0,0,-1,1896,1583,0,0
679,-559,0,0,0,0,0,0,0,0,0,-1,1903,1583,0,0
686,-559,0,0,0,0,0,0,0,0,0,-1,1910,1583,0,0
693,-559,0,0,0,0,0,0,0,0,0,-1,1917,1583,0,0
700,-559,0,0,0,0,0,0,0,0,0,-1,1924,1583,0,0
707,-559,0,0,0,0,0,0,0,0,0,-1,1931,1583,0,0
714,-559,0,0,0,0,0,0,0,0,0,-1,1938,1583,0,0
721,-559,0,0,0,0,0,0,0,0,0,-1,1945,1583,0,0
728,-559,0,0,0,0,0,0,0,0,0,-1,1952,1583,0,0
735,-559,0,0,0,0,0,0,0,0,0,-1,1959,1583,0,0
742,-559,0,0,0,0,0,0,0,0,0,-1,1966,1583,0,0
749,-559,0,0,0,0,0,0,0,0,0,-1,1973,1583,0,0
756,-559,0,0,0,0,0,0,0,0,0,-1,1980,1583,0,0
763,-559,0,0,0,0,0,0,0,0,0,-1,1987,1583,0,0
770,-559,0,0,0,0,0,0,0,0,0,-1,1994,1583,0,0
777,-559,0,0,0,0,0,0,0,0,0,-1,2001,1583,0,0
784,-559,0,0,0,0,0,0,0,0,0,-1,2008,1583,0,0
791,-559,0,0,0,0,0,0,0,0,0,-1,2015,1583,0,0
798,-559,0,0,0,0,0,0,0,0,0,-1,2022,1583,0,0
805,-559,0,0,0,0,0,0,0,0,0,-1,2029,1583,0,0
812,-559,0,0,0,0,0,0,0,0,0,-1,2036,1583,0,0
-700,-566,0,0,0,0,0,0,0,0,0,-1,524,1590,0,0
-693,-566,0,0,0,0,0,0,0,0,0,-1,531,1590,0,0
-686,-566,0,0,0,0,0,0,0,0,0,-1,538,1590,0,0
-679,-566,0,0,0,0,0,0,0,0,0,-1,545,1590,0,0
-672,-566,0,0,0,0,0,0,0,0,0,-1,552,1590,0,0
-665,-566,0,0,0,0,0,0,0,0,0,-1,559,1590,0,0
-658,-566,0,0,0,0,0,0,0,0,0,-1,566,1590,0,0
-651,-566,0,0,0,0,0,0,0,0,0,-1,573,1590,0,0
-644,-566,0,0,0,0,0,0,0,0,0,-1,580,1590,0,0
-637,-566,0,0,0,0,0,0,0,0,0,-1,587,1590,0,0
-630,-566,0,0,0,0,0,0,0,0,0,-1,594,1590,0,0
-623,-566,0,0,0,0,0,0,0,0,0,-1,601,1590,0,0
-616,-566,0,0,0,0,0,0,0,0,0,-1,608,1590,0,0
-609,-566,0,0,0,0,0,0,0,0,0,-1,615,1590,0,0
-602,-566,0,0,0,0,0,0,0,0,0,-1,622,1590,0,0
-595,-566,0,0,0,0,0,0,0,0,0,-1,629,1590,0,0
-588,-566,0,0,0,0,0,0,0,0,0,-1,636,1590,0,0
-581,-566,0,0,0,0,0,0,0,0,0,-1,643,1590,0,0
-574,-566,0,0,0,0,0,0,0,0,0,-1,650,1590,0,0
-567,-566,0,0,0,0,0,0,0,0,0,-1,657,1590,0,0
-560,-566,0,0,0,0,0,0,0,0,0,-1,664,1590,0,0
-553,-566,0,0,0,0,0,0,0,0,0,-1,671,1590,0,0
-546,-566,0,0,0,0,0,0,0,0,0,-1,678,1590,0,0
-539,-566,0,0,0,0,0,0,0,0,0,-1,685,1590,0,0
-532,-566,0,0,0,0,0,0,0,0,0,-1,692,1590,0,0
-525,-566,0,0,0,0,0,0,0,0,0,-1,699,1590,0,0
-518,-566,0,0,0,0,0,0,0,0,0,-1,706,1590,0,0
-511,-566,0,0,0,0,0,0,0,0,0,-1,713,1590,0,0
-504,-566,0,0,0,0,0,0,0,0,0,-1,720,1590,0,0
-497,-566,0,0,0,0,0,0,0,0,0,-1,727,1590,0,0
-490,-566,0,0,0,0,0,0,0,0,0,-1,734,1590,0,0
-483,-566,3.40796,2.52075,0,0,0,0,0,0,0,-1,741,1590,3.40797,-2.5207
-476,-566,3.27283,3.34509,0,0,0,0,0,0,0,-1,748,1590,3.27282,-3.34514
-469,-566,-2.33429,0.0192871,0,0,0,0,0,0,0,-1,755,1590,-2.33429,-0.0193244
-462,-566,-1.31311,1.62561,0.17744,0.184319,0.234385,0.415289,-0.0535302,0.792735,0.296319,0.0440842,762,1590,-1.31313,-1.6256
-455,-566,-0.33197,2.84863,0.162062,0.162881,0.210961,0.373433,-0.0484893,0.786369,0.266592,0.0446886,769,1590,-0.331965,-2.84867
-448,-566,0.873474,4.64929,0.143574,0.140394,0.18408,0.326071,-0.0421027,0.781079,0.232688,0.0447133,776,1590,0.873463,-4.64928
-441,-566,1.11426,6.73889,0,0,0,0,0,0,0,-1,783,1590,1.11424,-6.73885
-434,-566,1.50378,7.58862,0,0,0,0,0,0,0,-1,790,1590,1.50376,-7.58867
-427,-566,1.29846,7.64307,0.0781936,0.0721672,0.0977582,0.172985,-0.0226242,0.769992,0.123557,0.0418877,797,1590,1.29847,-7.64306
-420,-566,1.20093,8.0448,0.0593868,0.0539891,0.0732581,0.129996,-0.0166199,0.766986,0.0927018,0.0324239,804,1590,1.20094,-8.04475
-413,-566,1.21582,8.27197,0.0428202,0.0383902,0.0522842,0.0929362,-0.0117259,0.764228,0.0662131,0.0150395,811,1590,1.21581,-8.27194
-406,-566,1.20526,8.50317,0.0285571,0.0240276,0.0339351,0.060303,-0.00771826,0.752078,0.0430062,0.00886372,818,1590,1.20527,-8.50317
-399,-566,1.20209,8.71021,0.0176189,0.013508,0.0201249,0.0357931,-0.00466615,0.734507,0.0255598,0.00952609,825,1590,1.2021,-8.71024
-392,-566,1.18829,8.91064,0.00782472,0.00456033,0.00835617,0.0147066,-0.00232156,0.688949,0.0106628,0.0114266,832,1590,1.18831,-8.91061
-385,-566,1.20081,9.15894,0.00212576,-0.000265715,0.00184259,0.0031266,-0.00126655,0.497582,0.00261106,0.0140639,839,1590,1.20081,-9.15899
-378,-566,1.19647,9.40442,-0.000187085,-0.0022815,-0.000982657,0.000201765,-0.00267035,-0.376805,0.00185115,0.0149326,846,1590,1.19647,-9.40446
-371,-566,1.16467,9.62354,8.42824e-05,-0.00232345,-0.000877348,0.000370058,-0.00260923,-0.314889,0.00187505,0.0205407,853,1590,1.16468,-9.62358
-364,-566,1.20123,9.82422,-0.000177694,-0.00160588,-0.000659402,8.019e-05,-0.00186377,-0.372799,0.00127009,0.0203112,860,1590,1.20126,-9.82428
-357,-566,1.22064,10.0178,-0.000737867,-0.000277455,-0.000458239,5.15307e-06,-0.00102047,-1.01817,0.000682041,0.0169492,867,1590,1.22063,-10.0178
-350,-566,1.21179,10.2122,-0.00140776,0.00176859,-0.000436305,0.00182744,-0.0014666,-1.43674,0.00190561,0.0204658,874,1590,1.21177,-10.2121
-343,-566,1.17328,10.428,-0.00209301,0.00376764,-0.000559227,0.00382053,-0.00214589,-1.47651,0.00348965,0.0240802,881,1590,1.17326,-10.428
-336,-566,1.12701,10.6243,-0.0027473,0.00594033,-0.000797057,0.00601285,-0.00281982,-1.48006,0.00520943,0.020698,888,1590,1.12704,-10.6242
-329,-566,1.19324,10.8389,-0.00375722,0.008539,-0.00115114,0.00864584,-0.00386405,-1.47825,0.00739638,0.01206,895,1590,1.19322,-10.8389
-322,-566,1.25458,11.0703,-0.00493695,0.0113418,-0.00178786,0.0115358,-0.00513099,-1.46269,0.00985659,0.0151442,902,1590,1.25459,-11.0703
-315,-566,1.18713,11.2649,-0.00609721,0.0142182,-0.00276865,0.0145888,-0.00646778,-1.43775,0.0124548,0.0297348,909,1590,1.18716,-11.2649
-308,-566,0.964844,11.7063,-0.00703882,0.0169931,-0.00411347,0.0176777,-0.00772341,-1.40588,0.015036,0.0383434,916,1590,0.96485,-11.7064
-301,-566,0.823792,11.9852,-0.00746763,0.0190568,-0.00535487,0.0200971,-0.0085079,-1.37892,0.0169609,0.0439304,923,1590,0.823801,-11.9853
-294,-566,0.911011,11.8367,-0.00751972,0.0206804,-0.00658753,0.0221433,-0.00898266,-1.35226,0.0184983,0.0468683,930,1590,0.91101,-11.8367
-287,-566,1.2323,11.8915,-0.00688981,0.0214782,-0.00787674,0.0235185,-0.00893014,-1.31733,0.0193551,0.0459858,937,1590,1.23232,-11.8915
-280,-566,1.6463,12.0012,0,0,0,0,0,0,0,-1,944,1590,1.64627,-12.0013
-273,-566,0.49762,11.2427,0,0,0,0,0,0,0,-1,951,1590,0.497591,-11.2426
-266,-566,0.392151,6.90295,0,0,0,0,0,0,0,-1,958,1590,0.392151,-6.90294
-259,-566,0.343628,6.47437,0,0,0,0,0,0,0,-1,965,1590,0.34363,-6.47438
-252,-566,-7.68311,1.01343,0,0,0,0,0,0,0,-1,972,1590,-7.68308,-1.01348
-245,-566,-10.1991,3.1759,0,0,0,0,0,0,0,-1,979,1590,-10.1991,-3.17586
-238,-566,-8.82385,3.38501,0,0,0,0,0,0,0,-1,986,1590,-8.82384,-3.38504
-231,-566,-5.30676,2.69019,0,0,0,0,0,0,0,-1,993,1590,-5.30674,-2.69013
-224,-566,-3.11914,5.40015,0,0,0,0,0,0,0,-1,1000,1590,-3.11915,-5.4001
-217,-566,-2.33643,6.79932,0,0,0,0,0,0,0,-1,1007,1590,-2.33642,-6.79936
-210,-566,-2.04175,7.89893,0,0,0,0,0,0,0,-1,1014,1590,-2.04177,-7.89897
-203,-566,0,0,0,0,0,0,0,0,0,-1,1021,1590,0,0
-196,-566,0,0,0,0,0,0,0,0,0,-1,1028,1590,0,0
-189,-566,0,0,0,0,0,0,0,0,0,-1,1035,1590,0,0
-182,-566,0,0,0,0,0,0,0,0,0,-1,1042,1590,0,0
-175,-566,0,0,0,0,0,0,0,0,0,-1,1049,1590,0,0
-168,-566,0,0,0,0,0,0,0,0,0,-1,1056,1590,0,0
-161,-566,0,0,0,0,0,0,0,0,0,-1,1063,1590,0,0
-154,-566,0,0,0,0,0,0,0,0,0,-1,1070,1590,0,0
-147,-566,0,0,0,0,0,0,0,0,0,-1,1077,1590,0,0
-140,-566,0,0,0,0,0,0,0,0,0,-1,1084,1590,0,0
-133,-566,0,0,0,0,0,0,0,0,0,-1,1091,1590,0,0
-126,-566,0,0,0,0,0,0,0,0,0,-1,1098,1590,0,0
-119,-566,0,0,0,0,0,0,0,0,0,-1,1105,1590,0,0
-112,-566,0,0,0,0,0,0,0,0,0,-1,1112,1590,0,0
-105,-566,0,0,0,0,0,0,0,0,0,-1,1119,1590,0,0
-98,-566,0,0,0,0,0,0,0,0,0,-1,1126,1590,0,0
-91,-566,0,0,0,0,0,0,0,0,0,-1,1133,1590,0,0
-84,-566,0,0,0,0,0,0,0,0,0,-1,1140,1590,0,0
-77,-566,0,0,0,0,0,0,0,0,0,-1,1147,1590,0,0
-70,-566,0,0,0,0,0,0,0,0,0,-1,1154,1590,0,0
-63,-566,0,0,0,0,0,0,0,0,0,-1,1161,1590,0,0
-56,-566,0,0,0,0,0,0,0,0,0,-1,1168,1590,0,0
-49,-566,0,0,0,0,0,0,0,0,0,-1,1175,1590,0,0
-42,-566,0,0,0,0,0,0,0,0,0,-1,1182,1590,0,0
-35,-566,0,0,0,0,0,0,0,0,0,-1,1189,1590,0,0
-28,-566,0,0,0,0,0,0,0,0,0,-1,1196,1590,0,0
-21,-566,0,0,0,0,0,0,0,0,0,-1,1203,1590,0,0
-14,-566,0,0,0,0,0,0,0,0,0,-1,1210,1590,0,0
-7,-566,0,0,0,0,0,0,0,0,0,-1,1217,1590,0,0
0,-566,0,0,0,0,0,0,0,0,0,-1,1224,1590,0,0
7,-566,0,0,0,0,0,0,0,0,0,-1,1231,1590,0,0
14,-566,0,0,0,0,0,0,0,0,0,-1,1238,1590,0,0
21,-566,0,0,0,0,0,0,0,0,0,-1,1245,1590,0,0
28,-566,0,0,0,0,0,0,0,0,0,-1,1252,1590,0,0
35,-566,0,0,0,0,0,0,0,0,0,-1,1259,1590,0,0
42,-566,0,0,0,0,0,0,0,0,0,-1,1266,1590,0,0
49,-566,0,0,0,0,0,0,0,0,0,-1,1273,1590,0,0
56,-566,0,0,0,0,0,0,0,0,0,-1,1280,1590,0,0
63,-566,0,0,0,0,0,0,0,0,0,-1,1287,1590,0,0
70,-566,0,0,0,0,0,0,0,0,0,-1,1294,1590,0,0
77,-566,0,0,0,0,0,0,0,0,0,-1,1301,1590,0,0
84,-566,0,0,0,0,0,0,0,0,0,-1,1308,1590,0,0
91,-566,0,0,0,0,0,0,0,0,0,-1,1315,1590,0,0
98,-566,0,0,0,0,0,0,0,0,0,-1,1322,1590,0,0
105,-566,0,0,0,0,0,0,0,0,0,-1,1329,1590,0,0
112,-566,0,0,0,0,0,0,0,0,0,-1,1336,1590,0,0
119,-566,0,0,0,0,0,0,0,0,0,-1,1343,1590,0,0
126,-566,0,0,0,0,0,0,0,0,0,-1,1350,1590,0,0
133,-566,0,0,0,0,0,0,0,0,0,-1,1357,1590,0,0
140,-566,0,0,0,0,0,0,0,0,0,-1,1364,1590,0,0
147,-566,0,0,0,0,0,0,0,0,0,-1,1371,1590,0,0
154,-566,0,0,0,0,0,0,0,0,0,-1,1378,1590,0,0
161,-566,0,0,0,0,0,0,0,0,0,-1,1385,1590,0,0
168,-566,0,0,0,0,0,0,0,0,0,-1,1392,1590,0,0
175,-566,0,0,0,0,0,0,0,0,0,-1,1399,1590,0,0
182,-566,0,0,0,0,0,0,0,0,0,-1,1406,1590,0,0
189,-566,0,0,0,0,0,0,0,0,0,-1,1413,1590,0,0
196,-566,0,0,0,0,0,0,0,0,0,-1,1420,1590,0,0
203,-566,0,0,0,0,0,0,0,0,0,-1,1427,1590,0,0
210,-566,0,0,0,0,0,0,0,0,0,-1,1434,1590,0,0
217,-566,0,0,0,0,0,0,0,0,0,-1,1441,1590,0,0
224,-566,0,0,0,0,0,0,0,0,0,-1,1448,1590,0,0
231,-566,0,0,0,0,0,0,0,0,0,-1,1455,1590,0,0
238,-566,0,0,0,0,0,0,0,0,0,-1,1462,1590,0,0
245,-566,0,0,0,0,0,0,0,0,0,-1,1469,1590,0,0
252,-566,0,0,0,0,0,0,0,0,0,-1,1476,1590,0,0
259,-566,0,0,0,0,0,0,0,0,0,-1,1483,1590,0,0
266,-566,0,0,0,0,0,0,0,0,0,-1,1490,1590,0,0
273,-566,0,0,0,0,0,0,0,0,0,-1,1497,1590,0,0
280,-566,0,0,0,0,0,0,0,0,0,-1,1504,1590,0,0
287,-566,0,0,0,0,0,0,0,0,0,-1,1511,1590,0,0
294,-566,0,0,0,0,0,0,0,0,0,-1,1518,1590,0,0
301,-566,0,0,0,0,0,0,0,0,0,-1,1525,1590,0,0
308,-566,0,0,0,0,0,0,0,0,0,-1,1532,1590,0,0
315,-566,0,0,0,0,0,0,0,0,0,-1,1539,1590,0,0
322,-566,6.07983,4.44873,0,0,0,0,0,0,0,-1,1546,1590,6.07983,-4.44873
329,-566,5.77026,3.47534,0,0,0,0,0,0,0,-1,1553,1590,5.77026,-3.47535
336,-566,5.41138,2.62915,0,0,0,0,0,0,0,-1,1560,1590,5.41138,-2.62909
343,-566,4.81873,1.79089,0,0,0,0,0,0,0,-1,1567,1590,4.81878,-1.79095
350,-566,4.41663,2.44214,0,0,0,0,0,0,0,-1,1574,1590,4.41666,-2.44214
357,-566,6.34058,5.18579,0,0,0,0,0,0,0,-1,1581,1590,6.34059,-5.1858
364,-566,6.06262,4.20251,0,0,0,0,0,0,0,-1,1588,1590,6.06259,-4.20246
371,-566,5.78455,3.21912,0,0,0,0,0,0,0,-1,1595,1590,5.7846,-3.21912
378,-566,5.7439,0.695557,0,0,0,0,0,0,0,-1,1602,1590,5.74392,-0.695531
385,-566,5.67615,-0.573975,0,0,0,0,0,0,0,-1,1609,1590,5.67612,0.573956
392,-566,5.78638,1.82434,0,0,0,0,0,0,0,-1,1616,1590,5.78637,-1.82439
399,-566,5.36621,1.7373,0,0,0,0,0,0,0,-1,1623,1590,5.36627,-1.7373
406,-566,4.30359,5.26868,0,0,0,0,0,0,0,-1,1630,1590,4.30364,-5.26867
413,-566,4.27124,5.79492,0,0,0,0,0,0,0,-1,1637,1590,4.27123,-5.7949
420,-566,7.19812,8.25146,0,0,0,0,0,0,0,-1,1644,1590,7.19817,-8.25149
427,-566,10.455,10.6842,0,0,0,0,0,0,0,-1,1651,1590,10.455,-10.6842
434,-566,8.18823,12.053,0,0,0,0,0,0,0,-1,1658,1590,8.18822,-12.053
441,-566,8.28345,11.9941,0,0,0,0,0,0,0,-1,1665,1590,8.28344,-11.9942
448,-566,8.22717,12.0286,-0.02026,-0.0219795,0.0227101,0.00160661,-0.0438461,0.766479,0.0297807,0.0371951,1672,1590,8.22721,-12.0286
455,-566,8.14392,12.1187,-0.0174465,-0.0198272,0.0197585,0.00115743,-0.0384311,0.755312,0.0260152,0.0257335,1679,1590,8.14389,-12.1187
462,-566,8.12439,11.9834,-0.0147187,-0.0175428,0.0169524,0.000880379,-0.0331418,0.743847,0.0223938,0.0155363,1686,1590,8.12438,-11.9834
469,-566,8.10779,11.7921,-0.012168,-0.0151366,0.0142889,0.000713464,-0.0280181,0.733645,0.018921,0.0123006,1693,1590,8.10777,-11.7921
476,-566,8.11768,11.5995,-0.00970923,-0.012658,0.0115835,0.000493296,-0.0228605,0.722097,0.0154074,0.00997504,1700,1590,8.11765,-11.5995
483,-566,8.12952,11.4198,-0.00739634,-0.0102196,0.00920861,0.000508191,-0.0181242,0.709342,0.0122557,0.00966575,1707,1590,8.12955,-11.4198
490,-566,8.12292,11.2341,-0.00535754,-0.00781932,0.00699879,0.00051777,-0.0136946,0.698352,0.00930715,0.0105807,1714,1590,8.12295,-11.2341
497,-566,8.15833,11.0306,-0.00357038,-0.0057459,0.00493584,0.00039614,-0.00971242,0.676942,0.00661095,0.0141913,1721,1590,8.15831,-11.0306
504,-566,8.17078,10.8547,-0.00192845,-0.00397708,0.00312576,0.000336556,-0.00624208,0.627062,0.00427799,0.0194145,1728,1590,8.17082,-10.8548
511,-566,8.13538,10.6482,-0.000440747,-0.00223257,0.00154149,0.000446277,-0.0031196,0.522158,0.00224334,0.0196398,1735,1590,8.13539,-10.6482
518,-566,8.14722,10.4586,0.000761842,-0.000791169,0.000269831,0.000807388,-0.000836715,0.16722,0.000949274,0.0117294,1742,1590,8.14727,-10.4586
525,-566,8.12866,10.2528,0.0017449,0.000244324,-0.000724343,0.00203749,-4.82714e-05,-0.383904,0.0013747,0.0110911,1749,1590,8.12872,-10.2528
532,-566,8.12097,10.0381,0.00249543,0.000833345,-0.00132899,0.00323183,9.69542e-05,-0.505984,0.00212297,0.0128348,1756,1590,8.12096,-10.0381
539,-566,8.14844,9.82471,0.00301665,0.00109003,-0.0016261,0.00394336,0.000163327,-0.517989,0.00257619,0.0169284,1763,1590,8.1485,-9.82471
546,-566,8.1958,9.5686,0.00350015,0.00144704,-0.00184834,0.00458787,0.000359313,-0.531911,0.00294612,0.0199456,1770,1590,8.1958,-9.56863
553,-566,8.19263,9.43359,0.00413877,0.00188901,-0.00219812,0.00548312,0.000544659,-0.548898,0.00348806,0.0376029,1777,1590,8.19264,-9.43357
560,-566,7.97913,9.20947,0,0,0,0,0,0,0,-1,1784,1590,7.97908,-9.20951
567,-566,8.33594,8.56531,0,0,0,0,0,0,0,-1,1791,1590,8.33589,-8.56528
574,-566,7.99548,3.14514,0,0,0,0,0,0,0,-1,1798,1590,7.99543,-3.14511
581,-566,2.54102,5.1311,0,0,0,0,0,0,0,-1,1805,1590,2.54099,-5.13111
588,-566,-1.91321,8.39197,0,0,0,0,0,0,0,-1,1812,1590,-1.91316,-8.39199
595,-566,9.0271,4.66467,0,0,0,0,0,0,0,-1,1819,1590,9.02705,-4.66468
602,-566,9.953,3.54895,0,0,0,0,0,0,0,-1,1826,1590,9.953,-3.54898
609,-566,0,0,0,0,0,0,0,0,0,-1,1833,1590,0,0
616,-566,0,0,0,0,0,0,0,0,0,-1,1840,1590,0,0
623,-566,0,0,0,0,0,0,0,0,0,-1,1847,1590,0,0
630,-566,0,0,0,0,0,0,0,0,0,-1,1854,1590,0,0
637,-566,0,0,0,0,0,0,0,0,0,-1,1861,1590,0,0
644,-566,0,0,0,0,0,0,0,0,0,-1,1868,1590,0,0
651,-566,0,0,0,0,0,0,0,0,0,-1,1875,1590,0,0
658,-566,0,0,0,0,0,0,0,0,0,-1,1882,1590,0,0
665,-566,0,0,0,0,0,0,0,0,0,-1,1889,1590,0,0
672,-566,0,0,0,0,0,0,0,0,0,-1,1896,1590,0,0
679,-566,0,0,0,0,0,0,0,0,0,-1,1903,1590,0,0
686,-566,0,0,0,0,0,0,0,0,0,-1,1910,1590,0,0
693,-566,0,0,0,0,0,0,0,0,0,-1,1917,1590,0,0
700,-566,0,0,0,0,0,0,0,0,0,-1,1924,1590,0,0
707,-566,0,0,0,0,0,0,0,0,0,-1,1931,1590,0,0
714,-566,0,0,0,0,0,0,0,0,0,-1,1938,1590,0,0
721,-566,0,0,0,0,0,0,0,0,0,-1,1945,1590,0,0
728,-566,0,0,0,0,0,0,0,0,0,-1,1952,1590,0,0
735,-566,0,0,0,0,0,0,0,0,0,-1,1959,1590,0,0
742,-566,0,0,0,0,0,0,0,0,0,-1,1966,1590,0,0
749,-566,0,0,0,0,0,0,0,0,0,-1,1973,1590,0,0
756,-566,0,0,0,0,0,0,0,0,0,-1,1980,1590,0,0
763,-566,0,0,0,0,0,0,0,0,0,-1,1987,1590,0,0
770,-566,0,0,0,0,0,0,0,0,0,-1,1994,1590,0,0
777,-566,0,0,0,0,0,0,0,0,0,-1,2001,1590,0,0
784,-566,0,0,0,0,0,0,0,0,0,-1,2008,1590,0,0
791,-566,0,0,0,0,0,0,0,0,0,-1,2015,1590,0,0
798,-566,0,0,0,0,0,0,0,0,0,-1,2022,1590,0,0
805,-566,0,0,0,0,0,0,0,0,0,-1,2029,1590,0,0
812,-566,0,0,0,0,0,0,0,0,0,-1,2036,1590,0,0
-700,-573,0,0,0,0,0,0,0,0,0,-1,524,1597,0,0
-693,-573,0,0,0,0,0,0,0,0,0,-1,531,1597,0,0
-686,-573,0,0,0,0,0,0,0,0,0,-1,538,1597,0,0
-679,-573,0,0,0,0,0,0,0,0,0,-1,545,1597,0,0
-672,-573,0,0,0,0,0,0,0,0,0,-1,552,1597,0,0
-665,-573,0,0,0,0,0,0,0,0,0,-1,559,1597,0,0
-658,-573,0,0,0,0,0,0,0,0,0,-1,566,1597,0,0
-651,-573,0,0,0,0,0,0,0,0,0,-1,573,1597,0,0
-644,-573,0,0,0,0,0,0,0,0,0,-1,580,1597,0,0
-637,-573,0,0,0,0,0,0,0,0,0,-1,587,1597,0,0
-630,-573,0,0,0,0,0,0,0,0,0,-1,594,1597,0,0
-623,-573,0,0,0,0,0,0,0,0,0,-1,601,1597,0,0
-616,-573,0,0,0,0,0,0,0,0,0,-1,608,1597,0,0
-609,-573,0,0,0,0,0,0,0,0,0,-1,615,1597,0,0
-602,-573,0,0,0,0,0,0,0,0,0,-1,622,1597,0,0
-595,-573,0,0,0,0,0,0,0,0,0,-1,629,1597,0,0
-588,-573,0,0,0,0,0,0,0,0,0,-1,636,1597,0,0
-581,-573,0,0,0,0,0,0,0,0,0,-1,643,1597,0,0
-574,-573,0,0,0,0,0,0,0,0,0,-1,650,1597,0,0
-567,-573,0,0,0,0,0,0,0,0,0,-1,657,1597,0,0
-560,-573,0,0,0,0,0,0,0,0,0,-1,664,1597,0,0
-553,-573,0,0,0,0,0,0,0,0,0,-1,671,1597,0,0
-546,-573,0,0,0,0,0,0,0,0,0,-1,678,1597,0,0
-539,-573,0,0,0,0,0,0,0,0,0,-1,685,1597,0,0
-532,-573,0,0,0,0,0,0,0,0,0,-1,692,1597,0,0
-525,-573,0,0,0,0,0,0,0,0,0,-1,699,1597,0,0
-518,-573,0,0,0,0,0,0,0,0,0,-1,706,1597,0,0
-511,-573,0,0,0,0,0,0,0,0,0,-1,713,1597,0,0
-504,-573,0,0,0,0,0,0,0,0,0,-1,720,1597,0,0
-497,-573,0,0,0,0,0,0,0,0,0,-1,727,1597,0,0
-490,-573,0,0,0,0,0,0,0,0,0,-1,734,1597,0,0
-483,-573,0,0,0,0,0,0,0,0,0,-1,741,1597,0,0
-476,-573,2.35205,-6.3374,0,0,0,0,0,0,0,-1,748,1597,2.35206,6.33739
-469,-573,2.97308,3.573,0,0,0,0,0,0,0,-1,755,1597,2.97311,-3.57298
-462,-573,-3.60919,0.326172,0,0,0,0,0,0,0,-1,762,1597,-3.60921,-0.326168
-455,-573,-2.88293,1.2124,0,0,0,0,0,0,0,-1,769,1597,-2.88295,-1.21237
-448,-573,-1.26172,3.33252,0.191791,0.177445,0.238886,0.423611,-0.0543757,0.770389,0.302168,0.0468673,776,1597,-1.26173,-3.33248
-441,-573,0.108582,5.06726,0.163156,0.148094,0.20086,0.356626,-0.0453761,0.76666,0.25423,0.0469136,783,1597,0.108584,-5.06721
-434,-573,1.61768,7.05444,0,0,0,0,0,0,0,-1,790,1597,1.61767,-7.05446
-427,-573,1.35223,7.51892,0,0,0,0,0,0,0,-1,797,1597,1.35224,-7.51895
-420,-573,1.44928,7.79712,0.0792893,0.0683966,0.0953126,0.169311,-0.0216251,0.756858,0.12073,0.0433622,804,1597,1.44927,-7.79715
-413,-573,1.50732,8.18225,0.0570002,0.0484207,0.068079,0.120924,-0.0155036,0.753934,0.0862499,0.0332502,811,1597,1.50735,-8.18231
-406,-573,1.42261,8.46179,0.0381181,0.0304237,0.0445957,0.0790323,-0.0104905,0.74237,0.0565105,0.0171895,818,1597,1.42258,-8.46185
-399,-573,1.4101,8.71716,0.0235259,0.0171946,0.0267907,0.0473373,-0.00661686,0.72659,0.0339792,0.0107331,825,1597,1.41007,-8.71718
-392,-573,1.43555,8.93274,0.0103743,0.00585192,0.0113789,0.0197145,-0.00348828,0.687317,0.0144468,0.0110075,832,1597,1.43555,-8.93275
-385,-573,1.41199,9.16699,0.00247126,-0.000319691,0.00268331,0.00410026,-0.0019487,0.545616,0.00356525,0.0138722,839,1597,1.412,-9.16699
-378,-573,1.40009,9.39783,-0.00093785,-0.00281239,-0.00117958,-0.000368508,-0.00338173,-0.449684,0.00214224,0.0158245,846,1597,1.40009,-9.39779
-371,-573,1.41797,9.60901,-0.000702299,-0.00258501,-0.00103623,-0.000243681,-0.00304363,-0.416668,0.00195293,0.0163089,853,1597,1.41798,-9.60904
-364,-573,1.44324,9.81091,-0.000850931,-0.00181727,-0.000798313,-0.000400958,-0.00226724,-0.513267,0.00139716,0.0180787,860,1597,1.44324,-9.8109
-357,-573,1.43842,10.0007,-0.00120675,-0.000518489,-0.000561589,-0.000203979,-0.00152126,-1.06028,0.000953483,0.0211525,867,1597,1.43839,-10.0007
-350,-573,1.41595,10.2334,-0.00161993,0.00132762,-0.000501161,0.0014105,-0.00170281,-1.4069,0.00180011,0.0178595,874,1597,1.41596,-10.2334
-343,-573,1.39105,10.4408,-0.00201688,0.00305539,-0.000585269,0.00312205,-0.00208354,-1.4574,0.00302532,0.0218072,881,1597,1.39107,-10.4408
-336,-573,1.38007,10.6814,-0.00232574,0.00484432,-0.000784504,0.00492915,-0.00241057,-1.46308,0.00431995,0.0167595,888,1597,1.38009,-10.6814
-329,-573,1.4024,10.8823,-0.0028711,0.00689024,-0.00108654,0.00700972,-0.00299058,-1.46127,0.00592707,0.0164847,895,1597,1.40242,-10.8823
-322,-573,1.41876,11.0973,-0.00349092,0.00897293,-0.00162722,0.00918187,-0.00369985,-1.44309,0.00765846,0.0122766,902,1597,1.41875,-11.0973
-315,-573,1.50726,11.3297,-0.00406434,0.0108566,-0.00244702,0.0112476,-0.0044554,-1.41233,0.00934458,0.0184651,909,1597,1.50727,-11.3297
-308,-573,1.53387,11.4395,-0.00444582,0.0125015,-0.00345314,0.0131781,-0.00512241,-1.37731,0.0109017,0.0285021,916,1597,1.53387,-11.4395
-301,-573,1.47839,11.5952,-0.00457929,0.0136877,-0.00439913,0.0146919,-0.0055835,-1.34637,0.0120933,0.0302429,923,1597,1.4784,-11.5953
-294,-573,1.47778,11.7506,-0.00439497,0.0145712,-0.00518692,0.0158971,-0.00572082,-1.32054,0.0129338,0.0361378,930,1597,1.4778,-11.7506
-287,-573,1.49615,11.8588,-0.00371162,0.0148528,-0.00598753,0.0166164,-0.00547522,-1.28435,0.0132843,0.0474749,937,1597,1.49614,-11.8588
-280,-573,1.53833,11.9563,0,0,0,0,0,0,0,-1,944,1597,1.5383,-11.9563
-273,-573,-0.225037,10.6533,0,0,0,0,0,0,0,-1,951,1597,-0.225018,-10.6533
-266,-573,1.31116,7.1814,0,0,0,0,0,0,0,-1,958,1597,1.31118,-7.18142
-259,-573,1.2514,6.70959,0,0,0,0,0,0,0,-1,965,1597,1.25137,-6.70965
-252,-573,2.07874,5.27161,0,0,0,0,0,0,0,-1,972,1597,2.07875,-5.27157
-245,-573,-10.2592,1.09827,0,0,0,0,0,0,0,-1,979,1597,-10.2592,-1.09823
-238,-573,-8.75061,1.73584,0,0,0,0,0,0,0,-1,986,1597,-8.75059,-1.73585
-231,-573,-6.87231,2.16699,0,0,0,0,0,0,0,-1,993,1597,-6.8723,-2.16704
-224,-573,-4.73047,2.63538,0,0,0,0,0,0,0,-1,1000,1597,-4.73048,-2.63537
-217,-573,-3.57495,6.78931,0,0,0,0,0,0,0,-1,1007,1597,-3.57495,-6.78931
-210,-573,-2.41345,8.8949,0,0,0,0,0,0,0,-1,1014,1597,-2.41346,-8.89494
-203,-573,-2.03351,8.95862,0,0,0,0,0,0,0,-1,1021,1597,-2.03348,-8.95867
-196,-573,-1.65344,9.02246,0,0,0,0,0,0,0,-1,1028,1597,-1.65349,-9.02241
-189,-573,-6.12915,6.66882,0,0,0,0,0,0,0,-1,1035,1597,-6.12913,-6.66884
-182,-573,0,0,0,0,0,0,0,0,0,-1,1042,1597,0,0
-175,-573,0,0,0,0,0,0,0,0,0,-1,1049,1597,0,0
-168,-573,0,0,0,0,0,0,0,0,0,-1,1056,1597,0,0
-161,-573,0,0,0,0,0,0,0,0,0,-1,1063,1597,0,0
-154,-573,0,0,0,0,0,0,0,0,0,-1,1070,1597,0,0
-147,-573,0,0,0,0,0,0,0,0,0,-1,1077,1597,0,0
-140,-573,0,0,0,0,0,0,0,0,0,-1,1084,1597,0,0
-133,-573,0,0,0,0,0,0,0,0,0,-1,1091,1597,0,0
-126,-573,0,0,0,0,0,0,0,0,0,-1,1098,1597,0,0
-119,-573,0,0,0,0,0,0,0,0,0,-1,1105,1597,0,0
-112,-573,0,0,0,0,0,0,0,0,0,-1,1112,1597,0,0
-105,-573,0,0,0,0,0,0,0,0,0,-1,1119,1597,0,0
-98,-573,0,0,0,0,0,0,0,0,0,-1,1126,1597,0,0
-91,-573,0,0,0,0,0,0,0,0,0,-1,1133,1597,0,0
-84,-573,0,0,0,0,0,0,0,0,0,-1,1140,1597,0,0
-77,-573,0,0,0,0,0,0,0,0,0,-1,1147,1597,0,0
-70,-573,0,0,0,0,0,0,0,0,0,-1,1154,1597,0,0
-63,-573,0,0,0,0,0,0,0,0,0,-1,1161,1597,0,0
-56,-573,0,0,0,0,0,0,0,0,0,-1,1168,1597,0,0
-49,-573,0,0,0,0,0,0,0,0,0,-1,1175,1597,0,0
-42,-573,0,0,0,0,0,0,0,0,0,-1,1182,1597,0,0
-35,-573,0,0,0,0,0,0,0,0,0,-1,1189,1597,0,0
-28,-573,0,0,0,0,0,0,0,0,0,-1,1196,1597,0,0
-21,-573,0,0,0,0,0,0,0,0,0,-1,1203,1597,0,0
-14,-573,0,0,0,0,0,0,0,0,0,-1,1210,1597,0,0
-7,-573,0,0,0,0,0,0,0,0,0,-1,1217,1597,0,0
0,-573,0,0,0,0,0,0,0,0,0,-1,1224,1597,0,0
7,-573,0,0,0,0,0,0,0,0,0,-1,1231,1597,0,0
14,-573,0,0,0,0,0,0,0,0,0,-1,1238,1597,0,0
21,-573,0,0,0,0,0,0,0,0,0,-1,1245,1597,0,0
28,-573,0,0,0,0,0,0,0,0,0,-1,1252,1597,0,0
35,-573,0,0,0,0,0,0,0,0,0,-1,1259,1597,0,0
42,-573,0,0,0,0,0,0,0,0,0,-1,1266,1597,0,0
49,-573,0,0,0,0,0,0,0,0,0,-1,1273,1597,0,0
56,-573,0,0,0,0,0,0,0,0,0,-1,1280,1597,0,0
63,-573,0,0,0,0,0,0,0,0,0,-1,1287,1597,0,0
70,-573,0,0,0,0,0,0,0,0,0,-1,1294,1597,0,0
77,-573,0,0,0,0,0,0,0,0,0,-1,1301,1597,0,0
84,-573,0,0,0,0,0,0,0,0,0,-1,1308,1597,0,0
91,-573,0,0,0,0,0,0,0,0,0,-1,1315,1597,0,0
98,-573,0,0,0,0,0,0,0,0,0,-1,1322,1597,0,0
105,-573,0,0,0,0,0,0,0,0,0,-1,1329,1597,0,0
112,-573,0,0,0,0,0,0,0,0,0,-1,1336,1597,0,0
119,-573,0,0,0,0,0,0,0,0,0,-1,1343,1597,0,0
126,-573,0,0,0,0,0,0,0,0,0,-1,1350,1597,0,0
133,-573,0,0,0,0,0,0,0,0,0,-1,1357,1597,0,0
140,-573,0,0,0,0,0,0,0,0,0,-1,1364,1597,0,0
147,-573,0,0,0,0,0,0,0,0,0,-1,1371,1597,0,0
154,-573,0,0,0,0,0,0,0,0,0,-1,1378,1597,0,0
161,-573,0,0,0,0,0,0,0,0,0,-1,1385,1597,0,0
168,-573,0,0,0,0,0,0,0,0,0,-1,1392,1597,0,0
175,-573,0,0,0,0,0,0,0,0,0,-1,1399,1597,0,0
182,-573,0,0,0,0,0,0,0,0,0,-1,1406,1597,0,0
189,-573,0,0,0,0,0,0,0,0,0,-1,1413,1597,0,0
196,-573,0,0,0,0,0,0,0,0,0,-1,1420,1597,0,0
203,-573,0,0,0,0,0,0,0,0,0,-1,1427,1597,0,0
210,-573,0,0,0,0,0,0,0,0,0,-1,1434,1597,0,0
217,-573,0,0,0,0,0,0,0,0,0,-1,1441,1597,0,0
224,-573,0,0,0,0,0,0,0,0,0,-1,1448,1597,0,0
231,-573,0,0,0,0,0,0,0,0,0,-1,1455,1597,0,0
238,-573,0,0,0,0,0,0,0,0,0,-1,1462,1597,0,0
245,-573,0,0,0,0,0,0,0,0,0,-1,1469,1597,0,0
252,-573,0,0,0,0,0,0,0,0,0,-1,1476,1597,0,0
259,-573,0,0,0,0,0,0,0,0,0,-1,1483,1597,0,0
266,-573,0,0,0,0,0,0,0,0,0,-1,1490,1597,0,0
273,-573,0,0,0,0,0,0,0,0,0,-1,1497,1597,0,0
280,-573,0,0,0,0,0,0,0,0,0,-1,1504,1597,0,0
287,-573,0,0,0,0,0,0,0,0,0,-1,1511,1597,0,0
294,-573,0,0,0,0,0,0,0,0,0,-1,1518,1597,0,0
301,-573,0,0,0,0,0,0,0,0,0,-1,1525,1597,0,0
308,-573,5.93042,9.71143,0,0,0,0,0,0,0,-1,1532,1597,5.93046,-9.71144
315,-573,4.34204,11.719,0,0,0,0,0,0,0,-1,1539,1597,4.34205,-11.719
322,-573,10.3269,7.77563,0,0,0,0,0,0,0,-1,1546,1597,10.327,-7.77565
329,-573,4.99573,3.80273,0,0,0,0,0,0,0,-1,1553,1597,4.9957,-3.80273
336,-573,4.85693,2.53455,0,0,0,0,0,0,0,-1,1560,1597,4.8569,-2.53459
343,-573,4.11877,0.735596,0,0,0,0,0,0,0,-1,1567,1597,4.11878,-0.735585
350,-573,2.53748,1.56433,0,0,0,0,0,0,0,-1,1574,1597,2.53753,-1.5643
357,-573,7.40247,4.03613,0,0,0,0,0,0,0,-1,1581,1597,7.40244,-4.03614
364,-573,7.14551,3.02087,0,0,0,0,0,0,0,-1,1588,1597,7.14556,-3.02084
371,-573,6.88867,2.00549,0,0,0,0,0,0,0,-1,1595,1597,6.88868,-2.00553
378,-573,8.62012,6.09106,0,0,0,0,0,0,0,-1,1602,1597,8.62012,-6.09103
385,-573,6.54346,-0.951904,0,0,0,0,0,0,0,-1,1609,1597,6.54349,0.951901
392,-573,6.41833,-2.18225,0,0,0,0,0,0,0,-1,1616,1597,6.41831,2.18228
399,-573,4.26282,4.73657,0,0,0,0,0,0,0,-1,1623,1597,4.26285,-4.73652
406,-573,6.82715,10.823,0,0,0,0,0,0,0,-1,1630,1597,6.82719,-10.823
413,-573,7.51538,12.072,0,0,0,0,0,0,0,-1,1637,1597,7.51539,-12.0721
420,-573,9.5592,12.5609,0,0,0,0,0,0,0,-1,1644,1597,9.55926,-12.561
427,-573,8.11841,11.9314,0,0,0,0,0,0,0,-1,1651,1597,8.11846,-11.9314
434,-573,7.98779,12.1875,-0.0196278,-0.0209201,0.0233295,0.00306451,-0.0436125,0.771553,0.0301485,0.0450205,1658,1597,7.98785,-12.1876
441,-573,7.98083,12.3989,-0.0171542,-0.0179769,0.0199633,0.00240199,-0.0375331,0.775096,0.0258599,0.0295317,1665,1597,7.98087,-12.3989
448,-573,7.93555,12.3621,-0.0146454,-0.01585,0.0172289,0.00199178,-0.0324872,0.767927,0.0223516,0.019444,1672,1597,7.93552,-12.362
455,-573,7.93787,12.1665,-0.0125054,-0.0141576,0.0148039,0.00149543,-0.0281585,0.757526,0.0192901,0.0156469,1679,1597,7.93786,-12.1665
462,-573,7.94482,11.9548,-0.0103975,-0.0124254,0.0125404,0.00116991,-0.0239928,0.745059,0.0163991,0.0168129,1686,1597,7.94479,-11.9548
469,-573,7.94055,11.7798,-0.0084196,-0.010629,0.0104382,0.000972186,-0.0200208,0.732678,0.0136828,0.0143742,1693,1597,7.9406,-11.7798
476,-573,7.96069,11.5974,-0.00649151,-0.008773,0.00830031,0.000746083,-0.0160106,0.717109,0.0109309,0.0132172,1700,1597,7.96069,-11.5974
483,-573,7.96912,11.4137,-0.00461638,-0.00695836,0.00644936,0.00076743,-0.0123422,0.695593,0.00849548,0.0104748,1707,1597,7.96906,-11.4137
490,-573,7.96313,11.2169,-0.0029171,-0.00514008,0.00469798,0.000799087,-0.00885627,0.669239,0.00618776,0.00989526,1714,1597,7.96318,-11.2169
497,-573,7.95593,11.0111,-0.00143504,-0.00357911,0.00304403,0.000720205,-0.00573436,0.616092,0.0040842,0.0148903,1721,1597,7.95588,-11.0111
504,-573,7.96387,10.8444,-9.67169e-05,-0.00223987,0.00162322,0.000776729,-0.00311331,0.493658,0.00237713,0.0162746,1728,1597,7.9639,-10.8444
511,-573,7.95984,10.6539,0.00114536,-0.00093885,0.000351747,0.00120312,-0.000996612,0.162764,0.00127188,0.0177651,1735,1597,7.95979,-10.6539
518,-573,7.93372,10.4615,0.00215765,0.000100771,-0.000676462,0.00236018,-0.00010176,-0.290904,0.00160845,0.0137774,1742,1597,7.93368,-10.4615
525,-573,7.90784,10.2629,0.00293989,0.000685007,-0.00137626,0.00359156,3.33408e-05,-0.442227,0.00238334,0.0164143,1749,1597,7.90784,-10.2629
532,-573,7.94287,10.0404,0.00357083,0.00102061,-0.00181071,0.00451035,8.10898e-05,-0.478626,0.00298024,0.0158348,1756,1597,7.94284,-10.0403
539,-573,7.94543,9.83801,0.00403239,0.00104968,-0.00201064,0.0050444,3.76741e-05,-0.466305,0.00335045,0.0199557,1763,1597,7.94542,-9.83804
546,-573,7.97852,9.5896,0.00446968,0.0013102,-0.00221721,0.00561237,0.00016751,-0.475868,0.00368701,0.0319876,1770,1597,7.97854,-9.58955
553,-573,7.77551,9.43286,0.00495108,0.00173373,-0.00252945,0.00634006,0.000344755,-0.50217,0.00411661,0.048605,1777,1597,7.77548,-9.43281
560,-573,7.62,9.19531,0,0,0,0,0,0,0,-1,1784,1597,7.61999,-9.1953
567,-573,4.99597,2.77759,0,0,0,0,0,0,0,-1,1791,1597,4.99596,-2.7776
574,-573,0.83374,5.7041,0,0,0,0,0,0,0,-1,1798,1597,0.833718,-5.70405
581,-573,-0.224854,7.41602,0,0,0,0,0,0,0,-1,1805,1597,-0.224904,-7.41596
588,-573,-0.134033,7.67065,0,0,0,0,0,0,0,-1,1812,1597,-0.134037,-7.67063
595,-573,-0.0825195,8.35083,0,0,0,0,0,0,0,-1,1819,1597,-0.0824684,-8.35088
602,-573,0,0,0,0,0,0,0,0,0,-1,1826,1597,0,0
609,-573,0,0,0,0,0,0,0,0,0,-1,1833,1597,0,0
616,-573,0,0,0,0,0,0,0,0,0,-1,1840,1597,0,0
623,-573,0,0,0,0,0,0,0,0,0,-1,1847,1597,0,0
630,-573,0,0,0,0,0,0,0,0,0,-1,1854,1597,0,0
637,-573,0,0,0,0,0,0,0,0,0,-1,1861,1597,0,0
644,-573,0,0,0,0,0,0,0,0,0,-1,1868,1597,0,0
651,-573,0,0,0,0,0,0,0,0,0,-1,1875,1597,0,0
658,-573,0,0,0,0,0,0,0,0,0,-1,1882,1597,0,0
665,-573,0,0,0,0,0,0,0,0,0,-1,1889,1597,0,0
672,-573,0,0,0,0,0,0,0,0,0,-1,1896,1597,0,0
679,-573,0,0,0,0,0,0,0,0,0,-1,1903,1597,0,0
686,-573,0,0,0,0,0,0,0,0,0,-1,1910,1597,0,0
693,-573,0,0,0,0,0,0,0,0,0,-1,1917,1597,0,0
700,-573,0,0,0,0,0,0,0,0,0,-1,1924,1597,0,0
707,-573,0,0,0,0,0,0,0,0,0,-1,1931,1597,0,0
714,-573,0,0,0,0,0,0,0,0,0,-1,1938,1597,0,0
721,-573,0,0,0,0,0,0,0,0,0,-1,1945,1597,0,0
728,-573,0,0,0,0,0,0,0,0,0,-1,1952,1597,0,0
735,-573,0,0,0,0,0,0,0,0,0,-1,1959,1597,0,0
742,-573,0,0,0,0,0,0,0,0,0,-1,1966,1597,0,0
749,-573,0,0,0,0,0,0,0,0,0,-1,1973,1597,0,0
756,-573,0,0,0,0,0,0,0,0,0,-1,1980,1597,0,0
763,-573,0,0,0,0,0,0,0,0,0,-1,1987,1597,0,0
770,-573,0,0,0,0,0,0,0,0,0,-1,1994,1597,0,0
777,-573,0,0,0,0,0,0,0,0,0,-1,2001,1597,0,0
784,-573,0,0,0,0,0,0,0,0,0,-1,2008,1597,0,0
791,-573,0,0,0,0,0,0,0,0,0,-1,2015,1597,0,0
798,-573,0,0,0,0,0,0,0,0,0,-1,2022,1597,0,0
805,-573,0,0,0,0,0,0,0,0,0,-1,2029,1597,0,0
812,-573,0,0,0,0,0,0,0,0,0,-1,2036,1597,0,0
-700,-580,0,0,0,0,0,0,0,0,0,-1,524,1604,0,0
-693,-580,0,0,0,0,0,0,0,0,0,-1,531,1604,0,0
-686,-580,0,0,0,0,0,0,0,0,0,-1,538,1604,0,0
-679,-580,0,0,0,0,0,0,0,0,0,-1,545,1604,0,0
-672,-580,0,0,0,0,0,0,0,0,0,-1,552,1604,0,0
-665,-580,0,0,0,0,0,0,0,0,0,-1,559,1604,0,0
-658,-580,0,0,0,0,0,0,0,0,0,-1,566,1604,0,0
-651,-580,0,0,0,0,0,0,0,0,0,-1,573,1604,0,0
-644,-580,0,0,0,0,0,0,0,0,0,-1,580,1604,0,0
-637,-580,0,0,0,0,0,0,0,0,0,-1,587,1604,0,0
-630,-580,0,0,0,0,0,0,0,0,0,-1,594,1604,0,0
-623,-580,0,0,0,0,0,0,0,0,0,-1,601,1604,0,0
-616,-580,0,0,0,0,0,0,0,0,0,-1,608,1604,0,0
-609,-580,0,0,0,0,0,0,0,0,0,-1,615,1604,0,0
-602,-580,0,0,0,0,0,0,0,0,0,-1,622,1604,0,0
-595,-580,0,0,0,0,0,0,0,0,0,-1,629,1604,0,0
-588,-580,0,0,0,0,0,0,0,0,0,-1,636,1604,0,0
-581,-580,0,0,0,0,0,0,0,0,0,-1,643,1604,0,0
-574,-580,0,0,0,0,0,0,0,0,0,-1,650,1604,0,0
-567,-580,0,0,0,0,0,0,0,0,0,-1,657,1604,0,0
-560,-580,0,0,0,0,0,0,0,0,0,-1,664,1604,0,0
-553,-580,0,0,0,0,0,0,0,0,0,-1,671,1604,0,0
-546,-580,0,0,0,0,0,0,0,0,0,-1,678,1604,0,0
-539,-580,0,0,0,0,0,0,0,0,0,-1,685,1604,0,0
-532,-580,0,0,0,0,0,0,0,0,0,-1,692,1604,0,0
-525,-580,0,0,0,0,0,0,0,0,0,-1,699,1604,0,0
-518,-580,0,0,0,0,0,0,0,0,0,-1,706,1604,0,0
-511,-580,0,0,0,0,0,0,0,0,0,-1,713,1604,0,0
-504,-580,0,0,0,0,0,0,0,0,0,-1,720,1604,0,0
-497,-580,0,0,0,0,0,0,0,0,0,-1,727,1604,0,0
-490,-580,0,0,0,0,0,0,0,0,0,-1,734,1604,0,0
-483,-580,0,0,0,0,0,0,0,0,0,-1,741,1604,0,0
-476,-580,0,0,0,0,0,0,0,0,0,-1,748,1604,0,0
-469,-580,3.14844,-3.7981,0,0,0,0,0,0,0,-1,755,1604,3.14841,3.79804
-462,-580,2.25659,-2.00464,0,0,0,0,0,0,0,-1,762,1604,2.25656,2.00459
-455,-580,-5.04474,-0.151001,0,0,0,0,0,0,0,-1,769,1604,-5.04472,0.151038
-448,-580,-3.31891,2.07544,0.249097,0.218621,0.301139,0.535384,-0.0676657,0.760119,0.381483,0.0461148,776,1604,-3.3189,-2.07539
-441,-580,-1.63843,3.9469,0.212054,0.18297,0.253788,0.451716,-0.0566919,0.75678,0.321711,0.046338,783,1604,-1.63842,-3.94695
-434,-580,0.23291,5.97876,0.17439,0.148235,0.207465,0.369189,-0.0465634,0.753923,0.263025,0.0451081,790,1604,0.232901,-5.97878
-427,-580,1.62756,8.05493,0,0,0,0,0,0,0,-1,797,1604,1.62758,-8.05488
-420,-580,1.70941,7.5304,0,0,0,0,0,0,0,-1,804,1604,1.7094,-7.53039
-413,-580,1.76788,8.14294,0,0,0,0,0,0,0,-1,811,1604,1.76788,-8.14297
-406,-580,1.61572,8.56067,0.0494676,0.037376,0.0570361,0.100777,-0.0139338,0.732596,0.0722787,0.0387381,818,1604,1.61571,-8.56067
-399,-580,1.61823,8.74011,0.0306177,0.0208432,0.0344359,0.0605114,-0.00905049,0.714907,0.0436715,0.0162227,825,1604,1.61824,-8.74014
-392,-580,1.64478,8.95984,0.01365,0.00658992,0.0146788,0.0252172,-0.00497735,0.667397,0.0186928,0.0111056,832,1604,1.6448,-8.95978
-385,-580,1.64612,9.1781,0.00335066,-0.00126082,0.00337605,0.00513322,-0.00304337,0.485796,0.00477188,0.0120773,839,1604,1.64613,-9.17809
-378,-580,1.63074,9.40771,-0.00109721,-0.00438451,-0.00167551,-0.000393752,-0.00508797,-0.397498,0.00326864,0.0155247,846,1604,1.63073,-9.40773
-371,-580,1.64258,9.62903,-0.000704159,-0.00389209,-0.00143664,-0.000152281,-0.00444397,-0.366765,0.00291321,0.0141503,853,1604,1.6426,-9.62905
-364,-580,1.63403,9.8186,-0.00060931,-0.00305396,-0.00111459,-0.000177431,-0.00348584,-0.369665,0.00226707,0.0191478,860,1604,1.63406,-9.8186
-357,-580,1.62518,10.0227,-0.000716026,-0.00173922,-0.000773472,-0.000300266,-0.00215498,-0.493215,0.00134776,0.0137028,867,1604,1.62518,-10.0227
-350,-580,1.63116,10.2571,-0.00091756,-1.21033e-05,-0.000606066,0.00029166,-0.00122132,-1.10619,0.00092686,0.0106021,874,1604,1.63115,-10.2571
-343,-580,1.6333,10.473,-0.00114828,0.00157172,-0.000588777,0.0016937,-0.00127026,-1.36652,0.00171705,0.0109423,881,1604,1.6333,-10.473
-336,-580,1.60205,10.6443,-0.00129918,0.00314629,-0.000701262,0.00325428,-0.00140718,-1.41799,0.00276083,0.0186216,888,1604,1.60205,-10.6443
-329,-580,1.63232,10.8838,-0.00162481,0.00486245,-0.000910563,0.00498783,-0.0017502,-1.43396,0.00403713,0.0171602,895,1604,1.63232,-10.8838
-322,-580,1.62256,11.121,-0.00200193,0.00653827,-0.00129706,0.00673092,-0.00219458,-1.42335,0.00537041,0.0178543,902,1604,1.62257,-11.121
-315,-580,1.65625,11.2946,-0.00237023,0.00782768,-0.0019318,0.00818136,-0.0027239,-1.38972,0.00655369,0.0145969,909,1604,1.65627,-11.2946
-308,-580,1.70532,11.5239,-0.00258512,0.00880158,-0.00272345,0.00941944,-0.00320298,-1.3477,0.00757643,0.0169843,916,1604,1.70534,-11.524
-301,-580,1.73761,11.6495,-0.00258908,0.00939132,-0.00345565,0.0103166,-0.00351437,-1.30917,0.008301,0.0155058,923,1604,1.73763,-11.6495
-294,-580,1.72516,11.7861,-0.00227668,0.00981798,-0.00391983,0.0109773,-0.00343596,-1.28324,0.00869287,0.0196974,930,1604,1.72518,-11.7861
-287,-580,1.77838,11.8467,-0.00157834,0.00978504,-0.00438441,0.01128,-0.00307333,-1.24218,0.00872675,0.0427311,937,1604,1.7784,-11.8467
-280,-580,1.79572,11.8912,0,0,0,0,0,0,0,-1,944,1604,1.79573,-11.8912
-273,-580,1.56097,10.6401,0,0,0,0,0,0,0,-1,951,1604,1.56097,-10.6401
-266,-580,0.494202,8.78955,0,0,0,0,0,0,0,-1,958,1604,0.494174,-8.78958
-259,-580,1.31091,9.11536,0,0,0,0,0,0,0,-1,965,1604,1.31092,-9.11539
-252,-580,1.07629,7.74097,0,0,0,0,0,0,0,-1,972,1604,1.07627,-7.74101
-245,-580,3.80304,9.16028,0,0,0,0,0,0,0,-1,979,1604,3.80306,-9.16034
-238,-580,-10.3588,1.57556,0,0,0,0,0,0,0,-1,986,1604,-10.3588,-1.5755
-231,-580,-8.31555,2.04456,0,0,0,0,0,0,0,-1,993,1604,-8.31553,-2.04457
-224,-580,-5.93512,5.573,0,0,0,0,0,0,0,-1,1000,1604,-5.93513,-5.57301
-217,-580,-4.62665,6.6665,0,0,0,0,0,0,0,-1,1007,1604,-4.62663,-6.66649
-210,-580,-2.88062,10.3019,0,0,0,0,0,0,0,-1,1014,1604,-2.8806,-10.3019
-203,-580,-2.58307,10.3154,0,0,0,0,0,0,0,-1,1021,1604,-2.58306,-10.3154
-196,-580,-2.28552,10.3289,0,0,0,0,0,0,0,-1,1028,1604,-2.28552,-10.3288
-189,-580,-4.58252,7.59058,0,0,0,0,0,0,0,-1,1035,1604,-4.58256,-7.59057
-182,-580,-5.45874,7.65942,0,0,0,0,0,0,0,-1,1042,1604,-5.45876,-7.65939
-175,-580,-6.38977,7.55005,0,0,0,0,0,0,0,-1,1049,1604,-6.38981,-7.5501
-168,-580,0,0,0,0,0,0,0,0,0,-1,1056,1604,0,0
-161,-580,0,0,0,0,0,0,0,0,0,-1,1063,1604,0,0
-154,-580,0,0,0,0,0,0,0,0,0,-1,1070,1604,0,0
-147,-580,0,0,0,0,0,0,0,0,0,-1,1077,1604,0,0
-140,-580,0,0,0,0,0,0,0,0,0,-1,1084,1604,0,0
-133,-580,0,0,0,0,0,0,0,0,0,-1,1091,1604,0,0
-126,-580,0,0,0,0,0,0,0,0,0,-1,1098,1604,0,0
-119,-580,0,0,0,0,0,0,0,0,0,-1,1105,1604,0,0
-112,-580,0,0,0,0,0,0,0,0,0,-1,1112,1604,0,0
-105,-580,0,0,0,0,0,0,0,0,0,-1,1119,1604,0,0
-98,-580,0,0,0,0,0,0,0,0,0,-1,1126,1604,0,0
-91,-580,0,0,0,0,0,0,0,0,0,-1,1133,1604,0,0
-84,-580,0,0,0,0,0,0,0,0,0,-1,1140,1604,0,0
-77,-580,0,0,0,0,0,0,0,0,0,-1,1147,1604,0,0
-70,-580,0,0,0,0,0,0,0,0,0,-1,1154,1604,0,0
-63,-580,0,0,0,0,0,0,0,0,0,-1,1161,1604,0,0
-56,-580,0,0,0,0,0,0,0,0,0,-1,1168,1604,0,0
-49,-580,0,0,0,0,0,0,0,0,0,-1,1175,1604,0,0
-42,-580,0,0,0,0,0,0,0,0,0,-1,1182,1604,0,0
-35,-580,0,0,0,0,0,0,0,0,0,-1,1189,1604,0,0
-28,-580,0,0,0,0,0,0,0,0,0,-1,1196,1604,0,0
-21,-580,0,0,0,0,0,0,0,0,0,-1,1203,1604,0,0
-14,-580,0,0,0,0,0,0,0,0,0,-1,1210,1604,0,0
-7,-580,0,0,0,0,0,0,0,0,0,-1,1217,1604,0,0
0,-580,0,0,0,0,0,0,0,0,0,-1,1224,1604,0,0
7,-580,0,0,0,0,0,0,0,0,0,-1,1231,1604,0,0
14,-580,0,0,0,0,0,0,0,0,0,-1,1238,1604,0,0
21,-580,0,0,0,0,0,0,0,0,0,-1,1245,1604,0,0
28,-580,0,0,0,0,0,0,0,0,0,-1,1252,1604,0,0
35,-580,0,0,0,0,0,0,0,0,0,-1,1259,1604,0,0
42,-580,0,0,0,0,0,0,0,0,0,-1,1266,1604,0,0
49,-580,0,0,0,0,0,0,0,0,0,-1,1273,1604,0,0
56,-580,0,0,0,0,0,0,0,0,0,-1,1280,1604,0,0
63,-580,0,0,0,0,0,0,0,0,0,-1,1287,1604,0,0
70,-580,0,0,0,0,0,0,0,0,0,-1,1294,1604,0,0
77,-580,0,0,0,0,0,0,0,0,0,-1,1301,1604,0,0
84,-580,0,0,0,0,0,0,0,0,0,-1,1308,1604,0,0
91,-580,0,0,0,0,0,0,0,0,0,-1,1315,1604,0,0
98,-580,0,0,0,0,0,0,0,0,0,-1,1322,1604,0,0
105,-580,0,0,0,0,0,0,0,0,0,-1,1329,1604,0,0
112,-580,0,0,0,0,0,0,0,0,0,-1,1336,1604,0,0
119,-580,0,0,0,0,0,0,0,0,0,-1,1343,1604,0,0
126,-580,0,0,0,0,0,0,0,0,0,-1,1350,1604,0,0
133,-580,0,0,0,0,0,0,0,0,0,-1,1357,1604,0,0
140,-580,0,0,0,0,0,0,0,0,0,-1,1364,1604,0,0
147,-580,0,0,0,0,0,0,0,0,0,-1,1371,1604,0,0
154,-580,0,0,0,0,0,0,0,0,0,-1,1378,1604,0,0
161,-580,0,0,0,0,0,0,0,0,0,-1,1385,1604,0,0
168,-580,0,0,0,0,0,0,0,0,0,-1,1392,1604,0,0
175,-580,0,0,0,0,0,0,0,0,0,-1,1399,1604,0,0
182,-580,0,0,0,0,0,0,0,0,0,-1,1406,1604,0,0
189,-580,0,0,0,0,0,0,0,0,0,-1,1413,1604,0,0
196,-580,0,0,0,0,0,0,0,0,0,-1,1420,1604,0,0
203,-580,0,0,0,0,0,0,0,0,0,-1,1427,1604,0,0
210,-580,0,0,0,0,0,0,0,0,0,-1,1434,1604,0,0
217,-580,0,0,0,0,0,0,0,0,0,-1,1441,1604,0,0
224,-580,0,0,0,0,0,0,0,0,0,-1,1448,1604,0,0
231,-580,0,0,0,0,0,0,0,0,0,-1,1455,1604,0,0
238,-580,0,0,0,0,0,0,0,0,0,-1,1462,1604,0,0
245,-580,0,0,0,0,0,0,0,0,0,-1,1469,1604,0,0
252,-580,0,0,0,0,0,0,0,0,0,-1,1476,1604,0,0
259,-580,0,0,0,0,0,0,0,0,0,-1,1483,1604,0,0
266,-580,0,0,0,0,0,0,0,0,0,-1,1490,1604,0,0
273,-580,0,0,0,0,0,0,0,0,0,-1,1497,1604,0,0
280,-580,0,0,0,0,0,0,0,0,0,-1,1504,1604,0,0
287,-580,0,0,0,0,0,0,0,0,0,-1,1511,1604,0,0
294,-580,4.0437,0.177368,0,0,0,0,0,0,0,-1,1518,1604,4.04369,-0.177371
301,-580,7.55164,8.05798,0,0,0,0,0,0,0,-1,1525,1604,7.55158,-8.05802
308,-580,5.9126,9.99341,0,0,0,0,0,0,0,-1,1532,1604,5.91255,-9.99337
315,-580,4.27356,11.9287,0,0,0,0,0,0,0,-1,1539,1604,4.27352,-11.9287
322,-580,10.2366,7.50281,0,0,0,0,0,0,0,-1,1546,1604,10.2366,-7.50282
329,-580,10.5962,8.69641,0,0,0,0,0,0,0,-1,1553,1604,10.5962,-8.69642
336,-580,3.66431,1.58862,0,0,0,0,0,0,0,-1,1560,1604,3.6643,-1.58864
343,-580,3.32227,1.39636,0,0,0,0,0,0,0,-1,1567,1604,3.32222,-1.39633
350,-580,8.71277,4.0564,0,0,0,0,0,0,0,-1,1574,1604,8.71271,-4.05638
357,-580,8.52332,3.08154,0,0,0,0,0,0,0,-1,1581,1604,8.52332,-3.08157
364,-580,8.25818,2.07605,0,0,0,0,0,0,0,-1,1588,1604,8.25812,-2.07608
371,-580,7.42114,7.14282,0,0,0,0,0,0,0,-1,1595,1604,7.42119,-7.14281
378,-580,7.9718,6.6731,0,0,0,0,0,0,0,-1,1602,1604,7.9718,-6.67307
385,-580,8.52246,6.20337,0,0,0,0,0,0,0,-1,1609,1604,8.52241,-6.20334
392,-580,6.5498,-2.15625,0,0,0,0,0,0,0,-1,1616,1604,6.54984,2.15626
399,-580,6.52625,10.7247,0,0,0,0,0,0,0,-1,1623,1604,6.52628,-10.7248
406,-580,8.43494,12.9304,0,0,0,0,0,0,0,-1,1630,1604,8.43491,-12.9304
413,-580,8.07556,12.8781,0,0,0,0,0,0,0,-1,1637,1604,8.07557,-12.878
420,-580,8.60889,12.748,-0.0167081,-0.0223807,0.0236008,0.00422619,-0.043315,0.725596,0.0303835,0.0423516,1644,1604,8.60891,-12.748
427,-580,8.21912,12.6667,-0.0152319,-0.0188922,0.0206519,0.00367085,-0.0377949,0.741205,0.0265051,0.0371142,1651,1604,8.21907,-12.6668
434,-580,7.79858,12.5438,-0.0141035,-0.0155887,0.0179184,0.0030877,-0.0327799,0.764689,0.0229518,0.0271126,1658,1604,7.79856,-12.5438
441,-580,7.72534,12.4675,-0.0122244,-0.0130294,0.0150691,0.0024476,-0.0277014,0.772047,0.0193352,0.0119629,1665,1604,7.72534,-12.4675
448,-580,7.75061,12.3262,-0.010286,-0.0112728,0.0128223,0.00205247,-0.0236112,0.766167,0.0164676,0.0117084,1672,1604,7.75057,-12.3262
455,-580,7.78125,12.1448,-0.0086651,-0.00992983,0.0108718,0.00159268,-0.0201876,0.756348,0.0140195,0.0180795,1679,1604,7.78128,-12.1447
462,-580,7.74011,11.9595,-0.0070444,-0.00859743,0.0090762,0.00128844,-0.0169303,0.742725,0.0117399,0.0205757,1686,1604,7.74005,-11.9595
469,-580,7.71741,11.7771,-0.0055152,-0.0072287,0.00744508,0.00112226,-0.0138662,0.728112,0.00963999,0.017981,1693,1604,7.71746,-11.777
476,-580,7.75159,11.5883,-0.00400079,-0.00580765,0.00578918,0.000955034,-0.0107635,0.707995,0.00751425,0.0134048,1700,1604,7.75159,-11.5883
483,-580,7.75586,11.4064,-0.00246489,-0.0044337,0.00437437,0.00103447,-0.00793307,0.674722,0.00566511,0.0114192,1707,1604,7.75592,-11.4064
490,-580,7.74536,11.2173,-0.00101622,-0.00303742,0.00300407,0.00114268,-0.00519632,0.623139,0.00390129,0.013893,1714,1604,7.74542,-11.2173
497,-580,7.72937,11.0243,0.000257374,-0.00183841,0.00169368,0.00120112,-0.00278215,0.508368,0.00235936,0.0116838,1721,1604,7.72936,-11.0243
504,-580,7.72363,10.8282,0.00139467,-0.000808433,0.00061201,0.00155327,-0.000967029,0.253562,0.00146816,0.0166651,1728,1604,7.72367,-10.8283
511,-580,7.73584,10.6429,0.00248406,0.00015309,-0.000388812,0.0025472,8.99449e-05,-0.160998,0.00166896,0.016566,1735,1604,7.73583,-10.6429
518,-580,7.7323,10.4481,0.00339778,0.000865504,-0.00121848,0.00388885,0.000374431,-0.383109,0.00247721,0.0151009,1742,1604,7.73232,-10.4481
525,-580,7.70728,10.2428,0.0040875,0.00106645,-0.00167976,0.00483602,0.00031793,-0.419198,0.00312344,0.0171138,1749,1604,7.7073,-10.2428
532,-580,7.72449,10.0376,0.00470733,0.0011978,-0.00198835,0.0056045,0.00030064,-0.42386,0.00364026,0.0213268,1756,1604,7.72445,-10.0375
539,-580,7.76709,9.89856,0.0052314,0.0010206,-0.00213443,0.00612408,0.000127919,-0.396123,0.00404075,0.0267433,1763,1604,7.76712,-9.89857
546,-580,7.87207,9.54553,0.00570639,0.00113671,-0.00239144,0.00672904,0.000114065,-0.404095,0.00444849,0.0413706,1770,1604,7.87212,-9.54558
553,-580,7.31909,9.39417,0,0,0,0,0,0,0,-1,1777,1604,7.31909,-9.39414
560,-580,7.09021,6.49438,0,0,0,0,0,0,0,-1,1784,1604,7.09016,-6.4944
567,-580,3.87708,4.0647,0,0,0,0,0,0,0,-1,1791,1604,3.87711,-4.06471
574,-580,2.31653,5.62952,0,0,0,0,0,0,0,-1,1798,1604,2.31654,-5.62947
581,-580,1.60876,6.67664,0,0,0,0,0,0,0,-1,1805,1604,1.60873,-6.67667
588,-580,1.38684,7.14441,0,0,0,0,0,0,0,-1,1812,1604,1.38689,-7.14443
595,-580,0,0,0,0,0,0,0,0,0,-1,1819,1604,0,0
602,-580,0,0,0,0,0,0,0,0,0,-1,1826,1604,0,0
609,-580,0,0,0,0,0,0,0,0,0,-1,1833,1604,0,0
616,-580,0,0,0,0,0,0,0,0,0,-1,1840,1604,0,0
623,-580,0,0,0,0,0,0,0,0,0,-1,1847,1604,0,0
630,-580,0,0,0,0,0,0,0,0,0,-1,1854,1604,0,0
637,-580,0,0,0,0,0,0,0,0,0,-1,1861,1604,0,0
644,-580,0,0,0,0,0,0,0,0,0,-1,1868,1604,0,0
651,-580,0,0,0,0,0,0,0,0,0,-1,1875,1604,0,0
658,-580,0,0,0,0,0,0,0,0,0,-1,1882,1604,0,0
665,-580,0,0,0,0,0,0,0,0,0,-1,1889,1604,0,0
672,-580,0,0,0,0,0,0,0,0,0,-1,1896,1604,0,0
679,-580,0,0,0,0,0,0,0,0,0,-1,1903,1604,0,0
686,-580,0,0,0,0,0,0,0,0,0,-1,1910,1604,0,0
693,-580,0,0,0,0,0,0,0,0,0,-1,1917,1604,0,0
700,-580,0,0,0,0,0,0,0,0,0,-1,1924,1604,0,0
707,-580,0,0,0,0,0,0,0,0,0,-1,1931,1604,0,0
714,-580,0,0,0,0,0,0,0,0,0,-1,1938,1604,0,0
721,-580,0,0,0,0,0,0,0,0,0,-1,1945,1604,0,0
728,-580,0,0,0,0,0,0,0,0,0,-1,1952,1604,0,0
735,-580,0,0,0,0,0,0,0,0,0,-1,1959,1604,0,0
742,-580,0,0,0,0,0,0,0,0,0,-1,1966,1604,0,0
749,-580,0,0,0,0,0,0,0,0,0,-1,1973,1604,0,0
756,-580,0,0,0,0,0,0,0,0,0,-1,1980,1604,0,0
763,-580,0,0,0,0,0,0,0,0,0,-1,1987,1604,0,0
770,-580,0,0,0,0,0,0,0,0,0,-1,1994,1604,0,0
777,-580,0,0,0,0,0,0,0,0,0,-1,2001,1604,0,0
784,-580,0,0,0,0,0,0,0,0,0,-1,2008,1604,0,0
791,-580,0,0,0,0,0,0,0,0,0,-1,2015,1604,0,0
798,-580,0,0,0,0,0,0,0,0,0,-1,2022,1604,0,0
805,-580,0,0,0,0,0,0,0,0,0,-1,2029,1604,0,0
812,-580,0,0,0,0,0,0,0,0,0,-1,2036,1604,0,0
-700,-587,0,0,0,0,0,0,0,0,0,-1,524,1611,0,0
-693,-587,0,0,0,0,0,0,0,0,0,-1,531,1611,0,0
-686,-587,0,0,0,0,0,0,0,0,0,-1,538,1611,0,0
-679,-587,0,0,0,0,0,0,0,0,0,-1,545,1611,0,0
-672,-587,0,0,0,0,0,0,0,0,0,-1,552,1611,0,0
-665,-587,0,0,0,0,0,0,0,0,0,-1,559,1611,0,0
-658,-587,0,0,0,0,0,0,0,0,0,-1,566,1611,0,0
-651,-587,0,0,0,0,0,0,0,0,0,-1,573,1611,0,0
-644,-587,0,0,0,0,0,0,0,0,0,-1,580,1611,0,0
-637,-587,0,0,0,0,0,0,0,0,0,-1,587,1611,0,0
-630,-587,0,0,0,0,0,0,0,0,0,-1,594,1611,0,0
-623,-587,0,0,0,0,0,0,0,0,0,-1,601,1611,0,0
-616,-587,0,0,0,0,0,0,0,0,0,-1,608,1611,0,0
-609,-587,0,0,0,0,0,0,0,0,0,-1,615,1611,0,0
-602,-587,0,0,0,0,0,0,0,0,0,-1,622,1611,0,0
-595,-587,0,0,0,0,0,0,0,0,0,-1,629,1611,0,0
-588,-587,0,0,0,0,0,0,0,0,0,-1,636,1611,0,0
-581,-587,0,0,0,0,0,0,0,0,0,-1,643,1611,0,0
-574,-587,0,0,0,0,0,0,0,0,0,-1,650,1611,0,0
-567,-587,0,0,0,0,0,0,0,0,0,-1,657,1611,0,0
-560,-587,0,0,0,0,0,0,0,0,0,-1,664,1611,0,0
-553,-587,0,0,0,0,0,0,0,0,0,-1,671,1611,0,0
-546,-587,0,0,0,0,0,0,0,0,0,-1,678,1611,0,0
-539,-587,0,0,0,0,0,0,0,0,0,-1,685,1611,0,0
-532,-587,0,0,0,0,0,0,0,0,0,-1,692,1611,0,0
-525,-587,0,0,0,0,0,0,0,0,0,-1,699,1611,0,0
-518,-587,0,0,0,0,0,0,0,0,0,-1,706,1611,0,0
-511,-587,0,0,0,0,0,0,0,0,0,-1,713,1611,0,0
-504,-587,0,0,0,0,0,0,0,0,0,-1,720,1611,0,0
-497,-587,0,0,0,0,0,0,0,0,0,-1,727,1611,0,0
-490,-587,0,0,0,0,0,0,0,0,0,-1,734,1611,0,0
-483,-587,0,0,0,0,0,0,0,0,0,-1,741,1611,0,0
-476,-587,0,0,0,0,0,0,0,0,0,-1,748,1611,0,0
-469,-587,0,0,0,0,0,0,0,0,0,-1,755,1611,0,0
-462,-587,2.34729,-3.43372,0,0,0,0,0,0,0,-1,762,1611,2.34728,3.43377
-455,-587,-6.97766,-1.34558,0,0,0,0,0,0,0,-1,769,1611,-6.97768,1.34562
-448,-587,-5.30365,0.934937,0.3153,0.262287,0.369326,0.659069,-0.0814817,0.749574,0.468906,0.0483809,776,1611,-5.30368,-0.934917
-441,-587,-3.56555,2.72253,0.267844,0.219607,0.31153,0.556188,-0.0687368,0.746765,0.395699,0.0489033,783,1611,-3.56555,-2.72259
-434,-587,-1.77319,4.76318,0.22046,0.178343,0.255547,0.455815,-0.0570111,0.744288,0.324554,0.0456958,790,1611,-1.77318,-4.76323
-427,-587,0.0346069,6.92944,0,0,0,0,0,0,0,-1,797,1611,0.034587,-6.92941
-420,-587,-0.647156,10.1157,0,0,0,0,0,0,0,-1,804,1611,-0.647128,-10.1158
-413,-587,1.90253,6.55469,0,0,0,0,0,0,0,-1,811,1611,1.9025,-6.55475
-406,-587,1.86597,8.58765,0,0,0,0,0,0,0,-1,818,1611,1.86599,-8.58762
-399,-587,1.86963,8.75171,0.0388673,0.0246831,0.0430105,0.0753665,-0.0118161,0.703687,0.0546108,0.0353824,825,1611,1.86964,-8.75169
-392,-587,1.92188,8.90649,0.0173642,0.00707124,0.0182388,0.0311687,-0.00673326,0.647888,0.0233494,0.0252549,832,1611,1.92189,-8.90647
-385,-587,1.85736,9.15186,0.00421736,-0.00273497,0.00395798,0.00600896,-0.00452657,0.425059,0.00610273,0.0150846,839,1611,1.85739,-9.15184
-378,-587,1.82556,9.39905,-0.00147136,-0.00657578,-0.00237922,-0.000534376,-0.00751276,-0.375166,0.00484023,0.013716,846,1611,1.82557,-9.39911
-371,-587,1.82404,9.67053,-0.000971104,-0.00577807,-0.0019708,-0.000266405,-0.00648277,-0.343402,0.00423584,0.0144324,853,1611,1.82406,-9.6705
-364,-587,1.83459,9.88647,-0.000666064,-0.00481277,-0.0015059,-0.000176894,-0.00530194,-0.314084,0.00347716,0.017439,860,1611,1.83461,-9.88644
-357,-587,1.83337,10.0469,-0.000542982,-0.00341804,-0.00101885,-0.00021854,-0.00374248,-0.308287,0.00242542,0.0165967,867,1611,1.83334,-10.0469
-350,-587,1.83368,10.2603,-0.000543636,-0.00173197,-0.000712233,-0.000210275,-0.00206534,-0.437763,0.00131243,0.00921138,874,1611,1.83369,-10.2603
-343,-587,1.83557,10.4788,-0.000618109,-0.000193927,-0.000572345,0.00020436,-0.0010164,-0.962837,0.000754993,0.0115523,881,1611,1.83556,-10.4787
-336,-587,1.82269,10.6667,-0.000627052,0.00128801,-0.000588489,0.00145439,-0.000793436,-1.29526,0.00131635,0.0117539,888,1611,1.82268,-10.6667
-329,-587,1.81897,10.8707,-0.000763761,0.00281825,-0.000707203,0.00295282,-0.00089833,-1.38276,0.00232654,0.0135989,895,1611,1.81897,-10.8707
-322,-587,1.83545,11.0995,-0.000947533,0.00427782,-0.00094453,0.00444331,-0.00111302,-1.39735,0.00339459,0.0166915,902,1611,1.83546,-11.0995
-315,-587,1.8421,11.2749,-0.00114949,0.0052187,-0.00141374,0.00551844,-0.00144923,-1.36187,0.00424531,0.0139185,909,1611,1.84211,-11.2749
-308,-587,1.83569,11.4863,-0.00124062,0.00581372,-0.0020589,0.00637066,-0.00179757,-1.30661,0.00495618,0.0141808,916,1611,1.8357,-11.4864
-301,-587,1.86133,11.6836,-0.00117585,0.0060602,-0.00261532,0.00690648,-0.00202213,-1.25784,0.00540593,0.0129687,923,1611,1.86131,-11.6837
-294,-587,1.8891,11.8582,-0.00084673,0.00623642,-0.00286722,0.00725157,-0.00186188,-1.23052,0.00555991,0.013207,930,1611,1.88909,-11.8582
-287,-587,1.94452,12.0238,-0.000234883,0.00605911,-0.00308873,0.00732163,-0.0014974,-1.18277,0.00544924,0.0238823,937,1611,1.94453,-12.0238
-280,-587,1.97156,12.1754,0.000580425,0.00548363,-0.00310046,0.00698465,-0.000920592,-1.11993,0.00499167,0.0373619,944,1611,1.97155,-12.1754
-273,-587,1.98151,12.3173,0,0,0,0,0,0,0,-1,951,1611,1.98151,-12.3172
-266,-587,1.99561,12.1816,0,0,0,0,0,0,0,-1,958,1611,1.99558,-12.1817
-259,-587,1.98572,12.4113,0,0,0,0,0,0,0,-1,965,1611,1.98573,-12.4113
-252,-587,1.30188,10.3103,0,0,0,0,0,0,0,-1,972,1611,1.30188,-10.3104
-245,-587,2.8584,9.69812,0,0,0,0,0,0,0,-1,979,1611,2.85838,-9.69813
-238,-587,2.87799,9.53821,0,0,0,0,0,0,0,-1,986,1611,2.87797,-9.53823
-231,-587,2.49548,9.14465,0,0,0,0,0,0,0,-1,993,1611,2.49551,-9.14468
-224,-587,3.66693,8.11804,0,0,0,0,0,0,0,-1,1000,1611,3.66693,-8.11809
-217,-587,-5.39899,6.52637,0,0,0,0,0,0,0,-1,1007,1611,-5.39901,-6.52634
-210,-587,-3.96399,7.48633,0,0,0,0,0,0,0,-1,1014,1611,-3.96397,-7.48632
-203,-587,-3.33917,11.5876,0,0,0,0,0,0,0,-1,1021,1611,-3.33918,-11.5876
-196,-587,-2.32214,9.0835,0,0,0,0,0,0,0,-1,1028,1611,-2.32215,-9.08353
-189,-587,-3.04138,8.66638,0,0,0,0,0,0,0,-1,1035,1611,-3.04136,-8.66635
-182,-587,-3.97095,9.7146,0,0,0,0,0,0,0,-1,1042,1611,-3.97093,-9.71461
-175,-587,-4.80969,8.37878,0,0,0,0,0,0,0,-1,1049,1611,-4.80964,-8.37883
-168,-587,-5.91394,8.72546,0,0,0,0,0,0,0,-1,1056,1611,-5.91398,-8.72542
-161,-587,-7.06946,8.88501,0,0,0,0,0,0,0,-1,1063,1611,-7.06947,-8.885
-154,-587,-2.24731,6.56519,0,0,0,0,0,0,0,-1,1070,1611,-2.24728,-6.56517
-147,-587,0,0,0,0,0,0,0,0,0,-1,1077,1611,0,0
-140,-587,0,0,0,0,0,0,0,0,0,-1,1084,1611,0,0
-133,-587,0,0,0,0,0,0,0,0,0,-1,1091,1611,0,0
-126,-587,0,0,0,0,0,0,0,0,0,-1,1098,1611,0,0
-119,-587,0,0,0,0,0,0,0,0,0,-1,1105,1611,0,0
-112,-587,0,0,0,0,0,0,0,0,0,-1,1112,1611,0,0
-105,-587,0,0,0,0,0,0,0,0,0,-1,1119,1611,0,0
-98,-587,0,0,0,0,0,0,0,0,0,-1,1126,1611,0,0
-91,-587,0,0,0,0,0,0,0,0,0,-1,1133,1611,0,0
-84,-587,0,0,0,0,0,0,0,0,0,-1,1140,1611,0,0
-77,-587,0,0,0,0,0,0,0,0,0,-1,1147,1611,0,0
-70,-587,0,0,0,0,0,0,0,0,0,-1,1154,1611,0,0
-63,-587,0,0,0,0,0,0,0,0,0,-1,1161,1611,0,0
-56,-587,0,0,0,0,0,0,0,0,0,-1,1168,1611,0,0
-49,-587,0,0,0,0,0,0,0,0,0,-1,1175,1611,0,0
-42,-587,0,0,0,0,0,0,0,0,0,-1,1182,1611,0,0
-35,-587,0,0,0,0,0,0,0,0,0,-1,1189,1611,0,0
-28,-587,0,0,0,0,0,0,0,0,0,-1,1196,1611,0,0
-21,-587,0,0,0,0,0,0,0,0,0,-1,1203,1611,0,0
-14,-587,0,0,0,0,0,0,0,0,0,-1,1210,1611,0,0
-7,-587,0,0,0,0,0,0,0,0,0,-1,1217,1611,0,0
0,-587,0,0,0,0,0,0,0,0,0,-1,1224,1611,0,0
7,-587,0,0,0,0,0,0,0,0,0,-1,1231,1611,0,0
14,-587,0,0,0,0,0,0,0,0,0,-1,1238,1611,0,0
21,-587,0,0,0,0,0,0,0,0,0,-1,1245,1611,0,0
28,-587,0,0,0,0,0,0,0,0,0,-1,1252,1611,0,0
35,-587,0,0,0,0,0,0,0,0,0,-1,1259,1611,0,0
42,-587,0,0,0,0,0,0,0,0,0,-1,1266,1611,0,0
49,-587,0,0,0,0,0,0,0,0,0,-1,1273,1611,0,0
56,-587,0,0,0,0,0,0,0,0,0,-1,1280,1611,0,0
63,-587,0,0,0,0,0,0,0,0,0,-1,1287,1611,0,0
70,-587,0,0,0,0,0,0,0,0,0,-1,1294,1611,0,0
77,-587,0,0,0,0,0,0,0,0,0,-1,1301,1611,0,0
84,-587,0,0,0,0,0,0,0,0,0,-1,1308,1611,0,0
91,-587,0,0,0,0,0,0,0,0,0,-1,1315,1611,0,0
98,-587,0,0,0,0,0,0,0,0,0,-1,1322,1611,0,0
105,-587,0,0,0,0,0,0,0,0,0,-1,1329,1611,0,0
112,-587,0,0,0,0,0,0,0,0,0,-1,1336,1611,0,0
119,-587,0,0,0,0,0,0,0,0,0,-1,1343,1611,0,0
126,-587,0,0,0,0,0,0,0,0,0,-1,1350,1611,0,0
133,-587,0,0,0,0,0,0,0,0,0,-1,1357,1611,0,0
140,-587,0,0,0,0,0,0,0,0,0,-1,1364,1611,0,0
147,-587,0,0,0,0,0,0,0,0,0,-1,1371,1611,0,0
154,-587,0,0,0,0,0,0,0,0,0,-1,1378,1611,0,0
161,-587,0,0,0,0,0,0,0,0,0,-1,1385,1611,0,0
168,-587,0,0,0,0,0,0,0,0,0,-1,1392,1611,0,0
175,-587,0,0,0,0,0,0,0,0,0,-1,1399,1611,0,0
182,-587,0,0,0,0,0,0,0,0,0,-1,1406,1611,0,0
189,-587,0,0,0,0,0,0,0,0,0,-1,1413,1611,0,0
196,-587,0,0,0,0,0,0,0,0,0,-1,1420,1611,0,0
203,-587,0,0,0,0,0,0,0,0,0,-1,1427,1611,0,0
210,-587,0,0,0,0,0,0,0,0,0,-1,1434,1611,0,0
217,-587,0,0,0,0,0,0,0,0,0,-1,1441,1611,0,0
224,-587,0,0,0,0,0,0,0,0,0,-1,1448,1611,0,0
231,-587,0,0,0,0,0,0,0,0,0,-1,1455,1611,0,0
238,-587,0,0,0,0,0,0,0,0,0,-1,1462,1611,0,0
245,-587,0,0,0,0,0,0,0,0,0,-1,1469,1611,0,0
252,-587,0,0,0,0,0,0,0,0,0,-1,1476,1611,0,0
259,-587,0,0,0,0,0,0,0,0,0,-1,1483,1611,0,0
266,-587,0,0,0,0,0,0,0,0,0,-1,1490,1611,0,0
273,-587,10.2936,6.35083,0,0,0,0,0,0,0,-1,1497,1611,10.2936,-6.35087
280,-587,2.09204,1.1217,0,0,0,0,0,0,0,-1,1504,1611,2.092,-1.12176
287,-587,3.2865,0.671509,0,0,0,0,0,0,0,-1,1511,1611,3.28656,-0.671538
294,-587,4.24646,1.58765,0,0,0,0,0,0,0,-1,1518,1611,4.24648,-1.58761
301,-587,7.60474,8.37085,0,0,0,0,0,0,0,-1,1525,1611,7.60478,-8.37084
308,-587,5.99316,10.2291,0,0,0,0,0,0,0,-1,1532,1611,5.99315,-10.2291
315,-587,4.34558,12.3289,0,0,0,0,0,0,0,-1,1539,1611,4.34556,-12.3288
322,-587,10.4526,6.38245,0,0,0,0,0,0,0,-1,1546,1611,10.4526,-6.38245
329,-587,10.7738,8.42444,0,0,0,0,0,0,0,-1,1553,1611,10.7738,-8.42438
336,-587,7.5531,5.96619,0,0,0,0,0,0,0,-1,1560,1611,7.55311,-5.96617
343,-587,9.57495,4.38391,0,0,0,0,0,0,0,-1,1567,1611,9.57494,-4.38397
350,-587,9.50378,3.45093,0,0,0,0,0,0,0,-1,1574,1611,9.50376,-3.4509
357,-587,9.40027,2.50806,0,0,0,0,0,0,0,-1,1581,1611,9.40022,-2.50803
364,-587,9.26477,1.34131,0,0,0,0,0,0,0,-1,1588,1611,9.26479,-1.34126
371,-587,6.98926,7.87561,0,0,0,0,0,0,0,-1,1595,1611,6.98928,-7.87564
378,-587,6.96997,13.4526,0,0,0,0,0,0,0,-1,1602,1611,6.96999,-13.4526
385,-587,7.17224,7.03772,0,0,0,0,0,0,0,-1,1609,1611,7.1722,-7.03778
392,-587,5.3916,8.21436,0,0,0,0,0,0,0,-1,1616,1611,5.39157,-8.21437
399,-587,7.91882,12.9413,0,0,0,0,0,0,0,-1,1623,1611,7.91888,-12.9413
406,-587,7.95313,13.0592,-0.0131731,-0.0260602,0.024389,0.00560914,-0.0448425,0.65625,0.0319294,0.0425427,1630,1611,7.95313,-13.0592
413,-587,7.71777,13.0032,-0.0126146,-0.0210519,0.0209265,0.00451425,-0.0381807,0.685935,0.0270843,0.0351469,1637,1611,7.71775,-13.0032
420,-587,7.67004,12.9951,-0.0118568,-0.0175301,0.0182732,0.00379855,-0.0331855,0.708395,0.0234924,0.0327518,1644,1611,7.67003,-12.9951
427,-587,7.69434,12.8547,-0.010733,-0.0144696,0.0157638,0.00327283,-0.0284754,0.726414,0.0201633,0.0255985,1651,1611,7.69438,-12.8547
434,-587,7.52905,12.6816,-0.00996176,-0.0114392,0.0134497,0.00276942,-0.0241704,0.757962,0.0171116,0.0157329,1658,1611,7.52903,-12.6816
441,-587,7.52148,12.5044,-0.00851096,-0.00919503,0.0110709,0.00222316,-0.0199291,0.769955,0.0140858,0.0168842,1665,1611,7.52144,-12.5043
448,-587,7.5614,12.3157,-0.00694249,-0.00772852,0.00926769,0.00194051,-0.0166115,0.764207,0.0117746,0.0148117,1672,1611,7.56136,-12.3157
455,-587,7.54883,12.1451,-0.00566116,-0.00662999,0.00768457,0.00155424,-0.0138454,0.753921,0.00978956,0.0131508,1679,1611,7.54887,-12.1451
462,-587,7.53308,11.9592,-0.00435189,-0.00556674,0.00624584,0.00131599,-0.0112346,0.736924,0.00796473,0.0160742,1686,1611,7.53302,-11.9592
469,-587,7.53406,11.7852,-0.00310269,-0.00449496,0.00496489,0.00121463,-0.00881229,0.715747,0.00631877,0.0147535,1693,1611,7.53407,-11.7851
476,-587,7.55115,11.5964,-0.00185909,-0.00339543,0.00369146,0.00114328,-0.0063978,0.682815,0.00469295,0.010015,1700,1611,7.55114,-11.5965
483,-587,7.5282,11.3945,-0.000553098,-0.00237432,0.00262914,0.00131866,-0.00424608,0.618687,0.00335773,0.0127619,1707,1611,7.5282,-11.3946
490,-587,7.53198,11.1931,0.000725087,-0.00135093,0.00158684,0.00158326,-0.0022091,0.49576,0.00219944,0.0153103,1714,1611,7.53195,-11.1931
497,-587,7.52368,11.0173,0.0018532,-0.000485524,0.000597721,0.00199711,-0.000629431,0.236264,0.00158348,0.0123832,1721,1611,7.52371,-11.0174
504,-587,7.5144,10.8484,0.0028372,0.000226083,-0.000135714,0.00284423,0.000219048,-0.0517895,0.00182752,0.012259,1728,1611,7.51441,-10.8483
511,-587,7.52319,10.6692,0.00380799,0.000830974,-0.000839613,0.00402846,0.000610504,-0.256788,0.00250704,0.0137927,1735,1611,7.52323,-10.6692
518,-587,7.552,10.4517,0.00463982,0.00117495,-0.00144045,0.00516043,0.000654339,-0.346815,0.00324424,0.0137016,1742,1611,7.55199,-10.4517
525,-587,7.56165,10.2355,0.00525623,0.000941781,-0.00164982,0.00581479,0.000383215,-0.326449,0.00375531,0.0168325,1749,1611,7.56169,-10.2355
532,-587,7.61816,10.0668,0.00589479,0.000838354,-0.00183737,0.00649192,0.000241223,-0.314225,0.00424982,0.0314152,1756,1611,7.61822,-10.0668
539,-587,7.84192,9.8717,0.00662147,0.000725212,-0.00213126,0.00731116,3.55211e-05,-0.312972,0.00486231,0.0445237,1763,1611,7.84189,-9.87172
546,-587,7.93359,9.52905,0,0,0,0,0,0,0,-1,1770,1611,7.9336,-9.52903
553,-587,7.5813,8.45068,0,0,0,0,0,0,0,-1,1777,1611,7.58125,-8.45068
560,-587,4.21179,5.23547,0,0,0,0,0,0,0,-1,1784,1611,4.21185,-5.23553
567,-587,4.03711,5.46387,0,0,0,0,0,0,0,-1,1791,1611,4.03715,-5.46382
574,-587,3.83142,5.68884,0,0,0,0,0,0,0,-1,1798,1611,3.83141,-5.68881
581,-587,3.47168,6.00977,0,0,0,0,0,0,0,-1,1805,1611,3.47167,-6.00983
588,-587,0,0,0,0,0,0,0,0,0,-1,1812,1611,0,0
595,-587,0,0,0,0,0,0,0,0,0,-1,1819,1611,0,0
602,-587,0,0,0,0,0,0,0,0,0,-1,1826,1611,0,0
609,-587,0,0,0,0,0,0,0,0,0,-1,1833,1611,0,0
616,-587,0,0,0,0,0,0,0,0,0,-1,1840,1611,0,0
623,-587,0,0,0,0,0,0,0,0,0,-1,1847,1611,0,0
630,-587,0,0,0,0,0,0,0,0,0,-1,1854,1611,0,0
637,-587,0,0,0,0,0,0,0,0,0,-1,1861,1611,0,0
644,-587,0,0,0,0,0,0,0,0,0,-1,1868,1611,0,0
651,-587,0,0,0,0,0,0,0,0,0,-1,1875,1611,0,0
658,-587,0,0,0,0,0,0,0,0,0,-1,1882,1611,0,0
665,-587,0,0,0,0,0,0,0,0,0,-1,1889,1611,0,0
672,-587,0,0,0,0,0,0,0,0,0,-1,1896,1611,0,0
679,-587,0,0,0,0,0,0,0,0,0,-1,1903,1611,0,0
686,-587,0,0,0,0,0,0,0,0,0,-1,1910,1611,0,0
693,-587,0,0,0,0,0,0,0,0,0,-1,1917,1611,0,0
700,-587,0,0,0,0,0,0,0,0,0,-1,1924,1611,0,0
707,-587,0,0,0,0,0,0,0,0,0,-1,1931,1611,0,0
714,-587,0,0,0,0,0,0,0,0,0,-1,1938,1611,0,0
721,-587,0,0,0,0,0,0,0,0,0,-1,1945,1611,0,0
728,-587,0,0,0,0,0,0,0,0,0,-1,1952,1611,0,0
735,-587,0,0,0,0,0,0,0,0,0,-1,1959,1611,0,0
742,-587,0,0,0,0,0,0,0,0,0,-1,1966,1611,0,0
749,-587,0,0,0,0,0,0,0,0,0,-1,1973,1611,0,0
756,-587,0,0,0,0,0,0,0,0,0,-1,1980,1611,0,0
763,-587,0,0,0,0,0,0,0,0,0,-1,1987,1611,0,0
770,-587,0,0,0,0,0,0,0,0,0,-1,1994,1611,0,0
777,-587,0,0,0,0,0,0,0,0,0,-1,2001,1611,0,0
784,-587,0,0,0,0,0,0,0,0,0,-1,2008,1611,0,0
791,-587,0,0,0,0,0,0,0,0,0,-1,2015,1611,0,0
798,-587,0,0,0,0,0,0,0,0,0,-1,2022,1611,0,0
805,-587,0,0,0,0,0,0,0,0,0,-1,2029,1611,0,0
812,-587,0,0,0,0,0,0,0,0,0,-1,2036,1611,0,0
-700,-594,0,0,0,0,0,0,0,0,0,-1,524,1618,0,0
-693,-594,0,0,0,0,0,0,0,0,0,-1,531,1618,0,0
-686,-594,0,0,0,0,0,0,0,0,0,-1,538,1618,0,0
-679,-594,0,0,0,0,0,0,0,0,0,-1,545,1618,0,0
-672,-594,0,0,0,0,0,0,0,0,0,-1,552,1618,0,0
-665,-594,0,0,0,0,0,0,0,0,0,-1,559,1618,0,0
-658,-594,0,0,0,0,0,0,0,0,0,-1,566,1618,0,0
-651,-594,0,0,0,0,0,0,0,0,0,-1,573,1618,0,0
-644,-594,0,0,0,0,0,0,0,0,0,-1,580,1618,0,0
-637,-594,0,0,0,0,0,0,0,0,0,-1,587,1618,0,0
-630,-594,0,0,0,0,0,0,0,0,0,-1,594,1618,0,0
-623,-594,0,0,0,0,0,0,0,0,0,-1,601,1618,0,0
-616,-594,0,0,0,0,0,0,0,0,0,-1,608,1618,0,0
-609,-594,0,0,0,0,0,0,0,0,0,-1,615,1618,0,0
-602,-594,0,0,0,0,0,0,0,0,0,-1,622,1618,0,0
-595,-594,0,0,0,0,0,0,0,0,0,-1,629,1618,0,0
-588,-594,0,0,0,0,0,0,0,0,0,-1,636,1618,0,0
-581,-594,0,0,0,0,0,0,0,0,0,-1,643,1618,0,0
-574,-594,0,0,0,0,0,0,0,0,0,-1,650,1618,0,0
-567,-594,0,0,0,0,0,0,0,0,0,-1,657,1618,0,0
-560,-594,0,0,0,0,0,0,0,0,0,-1,664,1618,0,0
-553,-594,0,0,0,0,0,0,0,0,0,-1,671,1618,0,0
-546,-594,0,0,0,0,0,0,0,0,0,-1,678,1618,0,0
-539,-594,0,0,0,0,0,0,0,0,0,-1,685,1618,0,0
-532,-594,0,0,0,0,0,0,0,0,0,-1,692,1618,0,0
-525,-594,0,0,0,0,0,0,0,0,0,-1,699,1618,0,0
-518,-594,0,0,0,0,0,0,0,0,0,-1,706,1618,0,0
-511,-594,0,0,0,0,0,0,0,0,0,-1,713,1618,0,0
-504,-594,0,0,0,0,0,0,0,0,0,-1,720,1618,0,0
-497,-594,0,0,0,0,0,0,0,0,0,-1,727,1618,0,0
-490,-594,0,0,0,0,0,0,0,0,0,-1,734,1618,0,0
-483,-594,0,0,0,0,0,0,0,0,0,-1,741,1618,0,0
-476,-594,0,0,0,0,0,0,0,0,0,-1,748,1618,0,0
-469,-594,0,0,0,0,0,0,0,0,0,-1,755,1618,0,0
-462,-594,0,0,0,0,0,0,0,0,0,-1,762,1618,0,0
-455,-594,1.58447,-4.06494,0,0,0,0,0,0,0,-1,769,1618,1.58449,4.06498
-448,-594,-7.71887,-0.0559082,0,0,0,0,0,0,0,-1,776,1618,-7.71885,0.055939
-441,-594,-5.78473,1.18298,0,0,0,0,0,0,0,-1,783,1618,-5.78474,-1.18295
-434,-594,-3.93628,3.06213,0,0,0,0,0,0,0,-1,790,1618,-3.93631,-3.06208
-427,-594,-3.97693,6.77759,0,0,0,0,0,0,0,-1,797,1618,-3.97695,-6.77764
-420,-594,-2.53046,7.71606,0,0,0,0,0,0,0,-1,804,1618,-2.53047,-7.71609
-413,-594,-0.860413,8.00391,0,0,0,0,0,0,0,-1,811,1618,-0.860423,-8.00389
-406,-594,1.24292,7.23389,0,0,0,0,0,0,0,-1,818,1618,1.24291,-7.23394
-399,-594,2.30286,8.83899,0,0,0,0,0,0,0,-1,825,1618,2.30289,-8.83904
-392,-594,2.2099,9.01599,0.0216153,0.0070069,0.0220672,0.0375557,-0.00893353,0.625575,0.0284858,0.0431064,832,1618,2.20991,-9.01595
-385,-594,2.12195,9.19104,0.00520872,-0.0048129,0.00442473,0.0068827,-0.00648688,0.361682,0.00772006,0.0272598,839,1618,2.12194,-9.19098
-378,-594,2.05042,9.38647,-0.00188113,-0.00929208,-0.00330951,-0.000618367,-0.0105549,-0.364506,0.00683977,0.0120607,846,1618,2.0504,-9.3865
-371,-594,2.05573,9.63843,-0.00127675,-0.00804632,-0.00266924,-0.0003509,-0.00897217,-0.333875,0.00586798,0.0112404,853,1618,2.0557,-9.63839
-364,-594,2.06512,9.85571,-0.000736798,-0.00680907,-0.00200848,-0.000132588,-0.00741328,-0.292217,0.00489859,0.00953241,860,1618,2.06512,-9.85566
-357,-594,2.05334,10.0596,-0.00037091,-0.00522248,-0.00133707,-2.68235e-05,-0.00556657,-0.251878,0.00370214,0.00982071,867,1618,2.05335,-10.0595
-350,-594,2.04364,10.2808,-0.000178321,-0.00347998,-0.000860846,3.26483e-05,-0.00369095,-0.240335,0.00247159,0.0141307,874,1618,2.04367,-10.2807
-343,-594,2.03613,10.4934,-0.000118646,-0.00189157,-0.000579674,5.406e-05,-0.00206427,-0.289563,0.00139455,0.0160651,881,1618,2.03616,-10.4934
-336,-594,2.01575,10.6777,-2.35134e-05,-0.000400511,-0.000489776,0.000312786,-0.00073681,-0.601702,0.000622249,0.0136259,888,1618,2.01573,-10.6778
-329,-594,2.02295,10.8898,-2.92377e-05,0.0010574,-0.000515522,0.00126305,-0.00023489,-1.19122,0.000930271,0.013109,895,1618,2.02296,-10.8898
-322,-594,2.04791,11.1122,-9.28353e-05,0.00243522,-0.000610609,0.00257498,-0.000232591,-1.34579,0.0017992,0.0153827,902,1618,2.04793,-11.1122
-315,-594,2.07385,11.2909,-0.000202418,0.00318385,-0.000936155,0.00342543,-0.00044399,-1.31826,0.00244509,0.0159652,909,1618,2.07385,-11.2909
-308,-594,2.05273,11.4913,-0.000226312,0.00357365,-0.00146102,0.00407044,-0.000723102,-1.24303,0.00298401,0.0149268,916,1618,2.05275,-11.4914
-301,-594,2.0368,11.6761,-0.000151287,0.00365786,-0.00189373,0.00443911,-0.000932532,-1.17952,0.00331427,0.0123897,923,1618,2.03679,-11.6761
-294,-594,2.0647,11.8545,0.000120052,0.00372823,-0.00202248,0.00463434,-0.000786051,-1.14959,0.00338216,0.0110612,930,1618,2.0647,-11.8545
-287,-594,2.06824,12.0457,0.000623107,0.0034943,-0.00208074,0.00458663,-0.00046922,-1.08737,0.00322556,0.0122321,937,1618,2.06824,-12.0456
-280,-594,2.07855,12.2335,0.00128518,0.00297332,-0.00197951,0.00428121,-2.27105e-05,-0.986928,0.00286174,0.0165681,944,1618,2.07857,-12.2336
-273,-594,2.14142,12.3378,0.00208509,0.00235081,-0.0016591,0.00388236,0.000553541,-0.825353,0.00242488,0.0273971,951,1618,2.14139,-12.3378
-266,-594,2.1355,12.3955,0.00295607,0.00156741,-0.00101008,0.00348745,0.00103603,-0.484289,0.00206802,0.0362396,958,1618,2.13548,-12.3955
-259,-594,2.13702,12.5654,0.00438552,-0.000218673,-0.000367349,0.00441464,-0.000247798,-0.0791188,0.00302908,0.0425843,965,1618,2.13705,-12.5654
-252,-594,2.18927,12.7715,0,0,0,0,0,0,0,-1,972,1618,2.18929,-12.7715
-245,-594,2.25092,13.5819,0,0,0,0,0,0,0,-1,979,1618,2.25093,-13.5819
-238,-594,2.71313,10.6866,0,0,0,0,0,0,0,-1,986,1618,2.71314,-10.6867
-231,-594,1.93774,9.35388,0,0,0,0,0,0,0,-1,993,1618,1.93776,-9.35393
-224,-594,1.81824,8.62744,0,0,0,0,0,0,0,-1,1000,1618,1.81822,-8.62745
-217,-594,1.65802,8.02002,0,0,0,0,0,0,0,-1,1007,1618,1.65805,-8.02007
-210,-594,0.957092,11.3329,0,0,0,0,0,0,0,-1,1014,1618,0.957079,-11.3329
-203,-594,4.73303,13.4917,0,0,0,0,0,0,0,-1,1021,1618,4.73309,-13.4917
-196,-594,2.78613,10.5815,0,0,0,0,0,0,0,-1,1028,1618,2.78612,-10.5815
-189,-594,2.60913,9.48865,0,0,0,0,0,0,0,-1,1035,1618,2.6091,-9.48871
-182,-594,1.2395,9.38806,0,0,0,0,0,0,0,-1,1042,1618,1.23951,-9.38804
-175,-594,0.234863,8.73792,0,0,0,0,0,0,0,-1,1049,1618,0.234812,-8.73786
-168,-594,-0.495483,8.46289,0,0,0,0,0,0,0,-1,1056,1618,-0.495513,-8.46285
-161,-594,-1.39734,8.28699,0,0,0,0,0,0,0,-1,1063,1618,-1.39729,-8.28699
-154,-594,-0.000854492,7.68445,0,0,0,0,0,0,0,-1,1070,1618,-0.000805755,-7.6845
-147,-594,0.348267,9.3385,0,0,0,0,0,0,0,-1,1077,1618,0.348237,-9.33849
-140,-594,0.675171,11.5884,0,0,0,0,0,0,0,-1,1084,1618,0.675204,-11.5884
-133,-594,0,0,0,0,0,0,0,0,0,-1,1091,1618,0,0
-126,-594,0,0,0,0,0,0,0,0,0,-1,1098,1618,0,0
-119,-594,0,0,0,0,0,0,0,0,0,-1,1105,1618,0,0
-112,-594,0,0,0,0,0,0,0,0,0,-1,1112,1618,0,0
-105,-594,0,0,0,0,0,0,0,0,0,-1,1119,1618,0,0
-98,-594,0,0,0,0,0,0,0,0,0,-1,1126,1618,0,0
-91,-594,0,0,0,0,0,0,0,0,0,-1,1133,1618,0,0
-84,-594,0,0,0,0,0,0,0,0,0,-1,1140,1618,0,0
-77,-594,0,0,0,0,0,0,0,0,0,-1,1147,1618,0,0
-70,-594,0,0,0,0,0,0,0,0,0,-1,1154,1618,0,0
-63,-594,0,0,0,0,0,0,0,0,0,-1,1161,1618,0,0
-56,-594,0,0,0,0,0,0,0,0,0,-1,1168,1618,0,0
-49,-594,0,0,0,0,0,0,0,0,0,-1,1175,1618,0,0
-42,-594,0,0,0,0,0,0,0,0,0,-1,1182,1618,0,0
-35,-594,0,0,0,0,0,0,0,0,0,-1,1189,1618,0,0
-28,-594,0,0,0,0,0,0,0,0,0,-1,1196,1618,0,0
-21,-594,0,0,0,0,0,0,0,0,0,-1,1203,1618,0,0
-14,-594,0,0,0,0,0,0,0,0,0,-1,1210,1618,0,0
-7,-594,0,0,0,0,0,0,0,0,0,-1,1217,1618,0,0
0,-594,0,0,0,0,0,0,0,0,0,-1,1224,1618,0,0
7,-594,0,0,0,0,0,0,0,0,0,-1,1231,1618,0,0
14,-594,0,0,0,0,0,0,0,0,0,-1,1238,1618,0,0
21,-594,0,0,0,0,0,0,0,0,0,-1,1245,1618,0,0
28,-594,0,0,0,0,0,0,0,0,0,-1,1252,1618,0,0
35,-594,0,0,0,0,0,0,0,0,0,-1,1259,1618,0,0
42,-594,0,0,0,0,0,0,0,0,0,-1,1266,1618,0,0
49,-594,0,0,0,0,0,0,0,0,0,-1,1273,1618,0,0
56,-594,0,0,0,0,0,0,0,0,0,-1,1280,1618,0,0
63,-594,0,0,0,0,0,0,0,0,0,-1,1287,1618,0,0
70,-594,0,0,0,0,0,0,0,0,0,-1,1294,1618,0,0
77,-594,0,0,0,0,0,0,0,0,0,-1,1301,1618,0,0
84,-594,0,0,0,0,0,0,0,0,0,-1,1308,1618,0,0
91,-594,0,0,0,0,0,0,0,0,0,-1,1315,1618,0,0
98,-594,0,0,0,0,0,0,0,0,0,-1,1322,1618,0,0
105,-594,0,0,0,0,0,0,0,0,0,-1,1329,1618,0,0
112,-594,0,0,0,0,0,0,0,0,0,-1,1336,1618,0,0
119,-594,0,0,0,0,0,0,0,0,0,-1,1343,1618,0,0
126,-594,0,0,0,0,0,0,0,0,0,-1,1350,1618,0,0
133,-594,0,0,0,0,0,0,0,0,0,-1,1357,1618,0,0
140,-594,0,0,0,0,0,0,0,0,0,-1,1364,1618,0,0
147,-594,0,0,0,0,0,0,0,0,0,-1,1371,1618,0,0
154,-594,0,0,0,0,0,0,0,0,0,-1,1378,1618,0,0
161,-594,0,0,0,0,0,0,0,0,0,-1,1385,1618,0,0
168,-594,0,0,0,0,0,0,0,0,0,-1,1392,1618,0,0
175,-594,0,0,0,0,0,0,0,0,0,-1,1399,1618,0,0
182,-594,0,0,0,0,0,0,0,0,0,-1,1406,1618,0,0
189,-594,0,0,0,0,0,0,0,0,0,-1,1413,1618,0,0
196,-594,0,0,0,0,0,0,0,0,0,-1,1420,1618,0,0
203,-594,0,0,0,0,0,0,0,0,0,-1,1427,1618,0,0
210,-594,0,0,0,0,0,0,0,0,0,-1,1434,1618,0,0
217,-594,0,0,0,0,0,0,0,0,0,-1,1441,1618,0,0
224,-594,0,0,0,0,0,0,0,0,0,-1,1448,1618,0,0
231,-594,0,0,0,0,0,0,0,0,0,-1,1455,1618,0,0
238,-594,0,0,0,0,0,0,0,0,0,-1,1462,1618,0,0
245,-594,0,0,0,0,0,0,0,0,0,-1,1469,1618,0,0
252,-594,3.03674,1.20996,0,0,0,0,0,0,0,-1,1476,1618,3.0368,-1.20999
259,-594,4.79834,1.53113,0,0,0,0,0,0,0,-1,1483,1618,4.79837,-1.53118
266,-594,3.71606,2.68152,0,0,0,0,0,0,0,-1,1490,1618,3.71609,-2.68149
273,-594,9.7655,6.33557,0,0,0,0,0,0,0,-1,1497,1618,9.76555,-6.33554
280,-594,3.13281,0.911255,0,0,0,0,0,0,0,-1,1504,1618,3.13277,-0.911207
287,-594,4.42749,1.51563,0,0,0,0,0,0,0,-1,1511,1618,4.42747,-1.51564
294,-594,5.36475,3.34937,0,0,0,0,0,0,0,-1,1518,1618,5.36475,-3.3494
301,-594,7.97144,9.04333,0,0,0,0,0,0,0,-1,1525,1618,7.9714,-9.04328
308,-594,6.30347,10.4633,0,0,0,0,0,0,0,-1,1532,1618,6.30351,-10.4633
315,-594,4.62012,11.934,0,0,0,0,0,0,0,-1,1539,1618,4.62006,-11.934
322,-594,2.91528,13.3134,0,0,0,0,0,0,0,-1,1546,1618,2.91523,-13.3133
329,-594,4.19861,9.77258,0,0,0,0,0,0,0,-1,1553,1618,4.19865,-9.77264
336,-594,10.1353,4.66528,0,0,0,0,0,0,0,-1,1560,1618,10.1353,-4.66533
343,-594,10.5729,3.71228,0,0,0,0,0,0,0,-1,1567,1618,10.5729,-3.71232
350,-594,10.219,2.98792,0,0,0,0,0,0,0,-1,1574,1618,10.219,-2.98797
357,-594,9.83154,1.96326,0,0,0,0,0,0,0,-1,1581,1618,9.8315,-1.96321
364,-594,9.74939,0.700562,0,0,0,0,0,0,0,-1,1588,1618,9.74939,-0.700615
371,-594,6.79565,13.6544,0,0,0,0,0,0,0,-1,1595,1618,6.79566,-13.6544
378,-594,7.95117,12.1129,0,0,0,0,0,0,0,-1,1602,1618,7.95123,-12.113
385,-594,8.82471,11.8807,0,0,0,0,0,0,0,-1,1609,1618,8.8247,-11.8807
392,-594,7.64136,13.2981,0,0,0,0,0,0,0,-1,1616,1618,7.64137,-13.2981
399,-594,7.56458,13.2157,-0.00925091,-0.0261204,0.0216407,0.00554074,-0.040912,0.599573,0.0292968,0.0404477,1623,1618,7.56461,-13.2157
406,-594,7.46191,13.1625,-0.00923553,-0.020786,0.0187484,0.00460698,-0.0346285,0.635991,0.0247646,0.025489,1630,1618,7.46187,-13.1625
413,-594,7.41077,13.0664,-0.00885788,-0.0166879,0.0161116,0.00380753,-0.0293533,0.666211,0.0209537,0.0212727,1637,1618,7.41077,-13.0664
420,-594,7.4032,12.9263,-0.00815267,-0.0134246,0.0137503,0.00321211,-0.0247893,0.690697,0.0176944,0.0175475,1644,1618,7.40324,-12.9263
427,-594,7.37488,12.8412,-0.00722035,-0.0107846,0.0115999,0.00273351,-0.0207385,0.709177,0.0148211,0.0123003,1651,1618,7.37485,-12.8412
434,-594,7.34595,12.6677,-0.00665088,-0.00811591,0.00964538,0.00228976,-0.0170565,0.747499,0.0122061,0.0165525,1658,1618,7.34593,-12.6678
441,-594,7.35425,12.4998,-0.00548952,-0.00614902,0.00766093,0.00184876,-0.0134873,0.76389,0.00966689,0.015729,1665,1618,7.35431,-12.4998
448,-594,7.38184,12.3177,-0.00415499,-0.00491467,0.00620506,0.00168184,-0.0107515,0.754829,0.00778905,0.0148607,1672,1618,7.38181,-12.3178
455,-594,7.36658,12.1385,-0.00309867,-0.00400741,0.00491397,0.00138189,-0.00848797,0.739297,0.00617107,0.0109589,1679,1618,7.36656,-12.1385
462,-594,7.34314,11.9662,-0.00201042,-0.00316206,0.00377771,0.0012351,-0.00640758,0.709768,0.0047374,0.0125012,1686,1618,7.34313,-11.9662
469,-594,7.36377,11.7869,-0.000974491,-0.00234882,0.00282021,0.00124106,-0.00456437,0.665898,0.00353008,0.0115377,1693,1618,7.36383,-11.7868
476,-594,7.37585,11.5975,3.93794e-05,-0.00154884,0.00194121,0.00134263,-0.00285209,0.591244,0.00247354,0.0120739,1700,1618,7.3758,-11.5975
483,-594,7.36023,11.3831,0.0011278,-0.000873174,0.00126752,0.00174211,-0.00148749,0.451299,0.00186654,0.015089,1707,1618,7.36022,-11.3831
490,-594,7.35803,11.1908,0.00223216,-0.000234935,0.000609973,0.00237473,-0.000377508,0.229614,0.00172283,0.01264,1714,1618,7.35806,-11.1908
497,-594,7.36475,11.0155,0.00322306,0.000290613,8.71254e-06,0.00322309,0.000290587,0.00297105,0.00205871,0.00970557,1721,1618,7.3648,-11.0155
504,-594,7.36804,10.8297,0.00407573,0.000673568,-0.000309547,0.00410367,0.000645633,-0.0900005,0.00254798,0.010028,1728,1618,7.36807,-10.8297
511,-594,7.37573,10.651,0.0049559,0.000929974,-0.000657455,0.00506055,0.000825329,-0.157844,0.00313501,0.0120151,1735,1618,7.37577,-10.6511
518,-594,7.38,10.4442,0.00574686,0.000913761,-0.000966475,0.00593296,0.00072766,-0.190227,0.00373645,0.0157246,1742,1618,7.37998,-10.4442
525,-594,7.41919,10.2667,0.00655001,0.000533768,-0.00117005,0.00676955,0.000314227,-0.185478,0.00441202,0.0273123,1749,1618,7.41919,-10.2668
532,-594,7.51843,10.121,0.00752567,0.000470349,-0.00156674,0.00785795,0.000138078,-0.208981,0.00519322,0.0453369,1756,1618,7.51845,-10.1209
539,-594,7.89783,9.84546,0,0,0,0,0,0,0,-1,1763,1618,7.89784,-9.84549
546,-594,7.48645,8.54785,0,0,0,0,0,0,0,-1,1770,1618,7.48639,-8.54789
553,-594,3.69714,5.68762,0,0,0,0,0,0,0,-1,1777,1618,3.69715,-5.68764
560,-594,6.06616,4.44482,0,0,0,0,0,0,0,-1,1784,1618,6.06621,-4.44477
567,-594,5.97266,4.73303,0,0,0,0,0,0,0,-1,1791,1618,5.97271,-4.73309
574,-594,5.9906,4.96326,0,0,0,0,0,0,0,-1,1798,1618,5.99065,-4.96326
581,-594,0,0,0,0,0,0,0,0,0,-1,1805,1618,0,0
588,-594,0,0,0,0,0,0,0,0,0,-1,1812,1618,0,0
595,-594,0,0,0,0,0,0,0,0,0,-1,1819,1618,0,0
602,-594,0,0,0,0,0,0,0,0,0,-1,1826,1618,0,0
609,-594,0,0,0,0,0,0,0,0,0,-1,1833,1618,0,0
616,-594,0,0,0,0,0,0,0,0,0,-1,1840,1618,0,0
623,-594,0,0,0,0,0,0,0,0,0,-1,1847,1618,0,0
630,-594,0,0,0,0,0,0,0,0,0,-1,1854,1618,0,0
637,-594,0,0,0,0,0,0,0,0,0,-1,1861,1618,0,0
644,-594,0,0,0,0,0,0,0,0,0,-1,1868,1618,0,0
651,-594,0,0,0,0,0,0,0,0,0,-1,1875,1618,0,0
658,-594,0,0,0,0,0,0,0,0,0,-1,1882,1618,0,0
665,-594,0,0,0,0,0,0,0,0,0,-1,1889,1618,0,0
672,-594,0,0,0,0,0,0,0,0,0,-1,1896,1618,0,0
679,-594,0,0,0,0,0,0,0,0,0,-1,1903,1618,0,0
686,-594,0,0,0,0,0,0,0,0,0,-1,1910,1618,0,0
693,-594,0,0,0,0,0,0,0,0,0,-1,1917,1618,0,0
700,-594,0,0,0,0,0,0,0,0,0,-1,1924,1618,0,0
707,-594,0,0,0,0,0,0,0,0,0,-1,1931,1618,0,0
714,-594,0,0,0,0,0,0,0,0,0,-1,1938,1618,0,0
721,-594,0,0,0,0,0,0,0,0,0,-1,1945,1618,0,0
728,-594,0,0,0,0,0,0,0,0,0,-1,1952,1618,0,0
735,-594,0,0,0,0,0,0,0,0,0,-1,1959,1618,0,0
742,-594,0,0,0,0,0,0,0,0,0,-1,1966,1618,0,0
749,-594,0,0,0,0,0,0,0,0,0,-1,1973,1618,0,0
756,-594,0,0,0,0,0,0,0,0,0,-1,1980,1618,0,0
763,-594,0,0,0,0,0,0,0,0,0,-1,1987,1618,0,0
770,-594,0,0,0,0,0,0,0,0,0,-1,1994,1618,0,0
777,-594,0,0,0,0,0,0,0,0,0,-1,2001,1618,0,0
784,-594,0,0,0,0,0,0,0,0,0,-1,2008,1618,0,0
791,-594,0,0,0,0,0,0,0,0,0,-1,2015,1618,0,0
798,-594,0,0,0,0,0,0,0,0,0,-1,2022,1618,0,0
805,-594,0,0,0,0,0,0,0,0,0,-1,2029,1618,0,0
812,-594,0,0,0,0,0,0,0,0,0,-1,2036,1618,0,0
-700,-601,0,0,0,0,0,0,0,0,0,-1,524,1625,0,0
-693,-601,0,0,0,0,0,0,0,0,0,-1,531,1625,0,0
-686,-601,0,0,0,0,0,0,0,0,0,-1,538,1625,0,0
-679,-601,0,0,0,0,0,0,0,0,0,-1,545,1625,0,0
-672,-601,0,0,0,0,0,0,0,0,0,-1,552,1625,0,0
-665,-601,0,0,0,0,0,0,0,0,0,-1,559,1625,0,0
-658,-601,0,0,0,0,0,0,0,0,0,-1,566,1625,0,0
-651,-601,0,0,0,0,0,0,0,0,0,-1,573,1625,0,0
-644,-601,0,0,0,0,0,0,0,0,0,-1,580,1625,0,0
-637,-601,0,0,0,0,0,0,0,0,0,-1,587,1625,0,0
-630,-601,0,0,0,0,0,0,0,0,0,-1,594,1625,0,0
-623,-601,0,0,0,0,0,0,0,0,0,-1,601,1625,0,0
-616,-601,0,0,0,0,0,0,0,0,0,-1,608,1625,0,0
-609,-601,0,0,0,0,0,0,0,0,0,-1,615,1625,0,0
-602,-601,0,0,0,0,0,0,0,0,0,-1,622,1625,0,0
-595,-601,0,0,0,0,0,0,0,0,0,-1,629,1625,0,0
-588,-601,0,0,0,0,0,0,0,0,0,-1,636,1625,0,0
-581,-601,0,0,0,0,0,0,0,0,0,-1,643,1625,0,0
-574,-601,0,0,0,0,0,0,0,0,0,-1,650,1625,0,0
-567,-601,0,0,0,0,0,0,0,0,0,-1,657,1625,0,0
-560,-601,0,0,0,0,0,0,0,0,0,-1,664,1625,0,0
-553,-601,0,0,0,0,0,0,0,0,0,-1,671,1625,0,0
-546,-601,0,0,0,0,0,0,0,0,0,-1,678,1625,0,0
-539,-601,0,0,0,0,0,0,0,0,0,-1,685,1625,0,0
-532,-601,0,0,0,0,0,0,0,0,0,-1,692,1625,0,0
-525,-601,0,0,0,0,0,0,0,0,0,-1,699,1625,0,0
-518,-601,0,0,0,0,0,0,0,0,0,-1,706,1625,0,0
-511,-601,0,0,0,0,0,0,0,0,0,-1,713,1625,0,0
-504,-601,0,0,0,0,0,0,0,0,0,-1,720,1625,0,0
-497,-601,0,0,0,0,0,0,0,0,0,-1,727,1625,0,0
-490,-601,0,0,0,0,0,0,0,0,0,-1,734,1625,0,0
-483,-601,0,0,0,0,0,0,0,0,0,-1,741,1625,0,0
-476,-601,0,0,0,0,0,0,0,0,0,-1,748,1625,0,0
-469,-601,0,0,0,0,0,0,0,0,0,-1,755,1625,0,0
-462,-601,0,0,0,0,0,0,0,0,0,-1,762,1625,0,0
-455,-601,0,0,0,0,0,0,0,0,0,-1,769,1625,0,0
-448,-601,-7.07623,2.7616,0,0,0,0,0,0,0,-1,776,1625,-7.07626,-2.76161
-441,-601,-6.06689,3.33447,0,0,0,0,0,0,0,-1,783,1625,-6.06691,-3.33448
-434,-601,-5.02655,3.8468,0,0,0,0,0,0,0,-1,790,1625,-5.02657,-3.84674
-427,-601,-5.78601,4.2406,0,0,0,0,0,0,0,-1,797,1625,-5.786,-4.24058
-420,-601,-4.26819,5.33447,0,0,0,0,0,0,0,-1,804,1625,-4.26817,-5.33442
-413,-601,-2.75446,6.1803,0,0,0,0,0,0,0,-1,811,1625,-2.75449,-6.18033
-406,-601,-1.67493,7.20422,0,0,0,0,0,0,0,-1,818,1625,-1.67493,-7.20428
-399,-601,2.51849,8.86438,0,0,0,0,0,0,0,-1,825,1625,2.51849,-8.86434
-392,-601,2.4209,9.19604,0.0263307,0.00613633,0.0258991,0.0440314,-0.0115643,0.599528,0.0338735,0.0490816,832,1625,2.42087,-9.19603
-385,-601,2.38049,9.49683,0.00637816,-0.00774213,0.00465984,0.00777731,-0.00914128,0.291694,0.00977853,0.0431841,839,1625,2.38049,-9.49686
-378,-601,2.30316,9.46936,-0.00215686,-0.0126034,-0.0044097,-0.000544342,-0.0142159,-0.350571,0.00930114,0.0303862,846,1625,2.30313,-9.46941
-371,-601,2.25867,9.62842,-0.00141086,-0.0106846,-0.00341977,-0.000286188,-0.0118093,-0.317732,0.0077792,0.01348,853,1625,2.2587,-9.62844
-364,-601,2.2547,9.83093,-0.000629293,-0.00889834,-0.00250461,7.01649e-05,-0.0095978,-0.27233,0.00642205,0.00897944,860,1625,2.2547,-9.83092
-357,-601,2.24463,10.0553,-4.56279e-05,-0.00691138,-0.00162034,0.000317565,-0.00727457,-0.220502,0.00495896,0.00876447,867,1625,2.24461,-10.0552
-350,-601,2.26453,10.2859,0.000294721,-0.00494856,-0.000957908,0.000464243,-0.00511808,-0.175157,0.00357686,0.0190597,874,1625,2.26451,-10.2858
-343,-601,2.24298,10.5107,0.000434976,-0.00317212,-0.000536233,0.000513005,-0.00325015,-0.144499,0.00235645,0.0215701,881,1625,2.24298,-10.5107
-336,-601,2.21814,10.7117,0.000572294,-0.00155585,-0.000354129,0.000629674,-0.00161323,-0.160638,0.0013358,0.0177531,888,1625,2.21813,-10.7117
-329,-601,2.22144,10.8977,0.000618219,-7.64597e-05,-0.000310878,0.000737024,-0.000195264,-0.365031,0.000567742,0.0144344,895,1625,2.22145,-10.8977
-322,-601,2.23291,11.1047,0.000590687,0.00130273,-0.000293056,0.00140783,0.000485587,-1.22645,0.000825742,0.012162,902,1625,2.23292,-11.1047
-315,-601,2.25146,11.2933,0.000493245,0.00192712,-0.000512068,0.00209122,0.000329154,-1.26069,0.00129841,0.0124558,909,1625,2.25149,-11.2933
-308,-601,2.24353,11.4785,0.00046347,0.00216456,-0.000958774,0.00259568,3.23461e-05,-1.14822,0.00171977,0.0115828,916,1625,2.2435,-11.4785
-301,-601,2.25739,11.6799,0.000485278,0.00213119,-0.00130889,0.00285434,-0.000237874,-1.06604,0.00198694,0.0104841,923,1625,2.25738,-11.6799
-294,-601,2.25934,11.8704,0.000639159,0.00211816,-0.00137378,0.00293883,-0.000181511,-1.0323,0.00202244,0.0104982,930,1625,2.25933,-11.8703
-287,-601,2.23785,12.0504,0.000998451,0.00183198,-0.00134572,0.002824,6.43602e-06,-0.935562,0.00188052,0.00989428,937,1625,2.23787,-12.0505
-280,-601,2.24988,12.2322,0.0014998,0.00133242,-0.00119189,0.00261094,0.000221281,-0.750349,0.00167175,0.00993503,944,1625,2.24987,-12.2322
-273,-601,2.28394,12.4258,0.00213889,0.000780597,-0.000846638,0.00254512,0.00037437,-0.447368,0.00158674,0.0103616,951,1625,2.28391,-12.4258
-266,-601,2.29529,12.6056,0.00280876,6.16199e-05,-0.000250731,0.00283145,3.89231e-05,-0.0902761,0.0018748,0.0130998,958,1625,2.29527,-12.6057
-259,-601,2.33215,12.705,0.00378609,-0.00120566,0.000245465,0.00379814,-0.0012177,0.0490164,0.00302094,0.024305,965,1625,2.33218,-12.705
-252,-601,2.35388,12.7649,0.00480844,-0.00356526,0.00123252,0.00498608,-0.00374291,0.143145,0.00505669,0.0442958,972,1625,2.3539,-12.7649
-245,-601,2.36987,13.4165,0.00210638,-0.00699578,0.00481383,0.0041799,-0.0090693,0.406724,0.00782112,0.0487432,979,1625,2.36985,-13.4165
-238,-601,2.40979,13.6661,0,0,0,0,0,0,0,-1,986,1625,2.40979,-13.6662
-231,-601,2.00421,11.0231,0,0,0,0,0,0,0,-1,993,1625,2.00423,-11.0231
-224,-601,-0.0305176,9.13684,0,0,0,0,0,0,0,-1,1000,1625,-0.030498,-9.13681
-217,-601,3.39429,10.3898,0,0,0,0,0,0,0,-1,1007,1625,3.39431,-10.3898
-210,-601,4.73938,12.5475,0,0,0,0,0,0,0,-1,1014,1625,4.7394,-12.5475
-203,-601,4.14087,13.1074,0,0,0,0,0,0,0,-1,1021,1625,4.14084,-13.1074
-196,-601,3.04297,13.5553,0,0,0,0,0,0,0,-1,1028,1625,3.04293,-13.5553
-189,-601,2.38806,13.7379,0,0,0,0,0,0,0,-1,1035,1625,2.38812,-13.7379
-182,-601,1.82153,13.9752,0,0,0,0,0,0,0,-1,1042,1625,1.82155,-13.9752
-175,-601,0.544922,9.28687,0,0,0,0,0,0,0,-1,1049,1625,0.544879,-9.28685
-168,-601,-0.247559,8.97461,0,0,0,0,0,0,0,-1,1056,1625,-0.247598,-8.97466
-161,-601,-1.16833,8.80078,0,0,0,0,0,0,0,-1,1063,1625,-1.16837,-8.80081
-154,-601,1.12756,7.94861,0,0,0,0,0,0,0,-1,1070,1625,1.12762,-7.94855
-147,-601,1.35352,9.55432,0,0,0,0,0,0,0,-1,1077,1625,1.35351,-9.55429
-140,-601,1.72437,11.1498,0,0,0,0,0,0,0,-1,1084,1625,1.72432,-11.1498
-133,-601,2.13281,12.8347,0,0,0,0,0,0,0,-1,1091,1625,2.13287,-12.8348
-126,-601,3.09534,15.427,0,0,0,0,0,0,0,-1,1098,1625,3.0953,-15.4271
-119,-601,1.22485,9.43457,0,0,0,0,0,0,0,-1,1105,1625,1.22489,-9.43456
-112,-601,0,0,0,0,0,0,0,0,0,-1,1112,1625,0,0
-105,-601,0,0,0,0,0,0,0,0,0,-1,1119,1625,0,0
-98,-601,0,0,0,0,0,0,0,0,0,-1,1126,1625,0,0
-91,-601,0,0,0,0,0,0,0,0,0,-1,1133,1625,0,0
-84,-601,0,0,0,0,0,0,0,0,0,-1,1140,1625,0,0
-77,-601,0,0,0,0,0,0,0,0,0,-1,1147,1625,0,0
-70,-601,0,0,0,0,0,0,0,0,0,-1,1154,1625,0,0
-63,-601,0,0,0,0,0,0,0,0,0,-1,1161,1625,0,0
-56,-601,0,0,0,0,0,0,0,0,0,-1,1168,1625,0,0
-49,-601,0,0,0,0,0,0,0,0,0,-1,1175,1625,0,0
-42,-601,0,0,0,0,0,0,0,0,0,-1,1182,1625,0,0
-35,-601,0,0,0,0,0,0,0,0,0,-1,1189,1625,0,0
-28,-601,0,0,0,0,0,0,0,0,0,-1,1196,1625,0,0
-21,-601,0,0,0,0,0,0,0,0,0,-1,1203,1625,0,0
-14,-601,0,0,0,0,0,0,0,0,0,-1,1210,1625,0,0
-7,-601,0,0,0,0,0,0,0,0,0,-1,1217,1625,0,0
0,-601,0,0,0,0,0,0,0,0,0,-1,1224,1625,0,0
7,-601,0,0,0,0,0,0,0,0,0,-1,1231,1625,0,0
14,-601,0,0,0,0,0,0,0,0,0,-1,1238,1625,0,0
21,-601,0,0,0,0,0,0,0,0,0,-1,1245,1625,0,0
28,-601,0,0,0,0,0,0,0,0,0,-1,1252,1625,0,0
35,-601,0,0,0,0,0,0,0,0,0,-1,1259,1625,0,0
42,-601,0,0,0,0,0,0,0,0,0,-1,1266,1625,0,0
49,-601,0,0,0,0,0,0,0,0,0,-1,1273,1625,0,0
56,-601,0,0,0,0,0,0,0,0,0,-1,1280,1625,0,0
63,-601,0,0,0,0,0,0,0,0,0,-1,1287,1625,0,0
70,-601,0,0,0,0,0,0,0,0,0,-1,1294,1625,0,0
77,-601,0,0,0,0,0,0,0,0,0,-1,1301,1625,0,0
84,-601,0,0,0,0,0,0,0,0,0,-1,1308,1625,0,0
91,-601,0,0,0,0,0,0,0,0,0,-1,1315,1625,0,0
98,-601,0,0,0,0,0,0,0,0,0,-1,1322,1625,0,0
105,-601,0,0,0,0,0,0,0,0,0,-1,1329,1625,0,0
112,-601,0,0,0,0,0,0,0,0,0,-1,1336,1625,0,0
119,-601,0,0,0,0,0,0,0,0,0,-1,1343,1625,0,0
126,-601,0,0,0,0,0,0,0,0,0,-1,1350,1625,0,0
133,-601,0,0,0,0,0,0,0,0,0,-1,1357,1625,0,0
140,-601,0,0,0,0,0,0,0,0,0,-1,1364,1625,0,0
147,-601,0,0,0,0,0,0,0,0,0,-1,1371,1625,0,0
154,-601,0,0,0,0,0,0,0,0,0,-1,1378,1625,0,0
161,-601,0,0,0,0,0,0,0,0,0,-1,1385,1625,0,0
168,-601,0,0,0,0,0,0,0,0,0,-1,1392,1625,0,0
175,-601,0,0,0,0,0,0,0,0,0,-1,1399,1625,0,0
182,-601,0,0,0,0,0,0,0,0,0,-1,1406,1625,0,0
189,-601,0,0,0,0,0,0,0,0,0,-1,1413,1625,0,0
196,-601,0,0,0,0,0,0,0,0,0,-1,1420,1625,0,0
203,-601,0,0,0,0,0,0,0,0,0,-1,1427,1625,0,0
210,-601,0,0,0,0,0,0,0,0,0,-1,1434,1625,0,0
217,-601,0,0,0,0,0,0,0,0,0,-1,1441,1625,0,0
224,-601,0,0,0,0,0,0,0,0,0,-1,1448,1625,0,0
231,-601,-0.0371094,0.525879,0,0,0,0,0,0,0,-1,1455,1625,-0.0371518,-0.525824
238,-601,2.03369,-1.32861,0,0,0,0,0,0,0,-1,1462,1625,2.03364,1.32858
245,-601,2.71375,2.44983,0,0,0,0,0,0,0,-1,1469,1625,2.71371,-2.44979
252,-601,4.66943,2.28381,0,0,0,0,0,0,0,-1,1476,1625,4.66947,-2.28376
259,-601,6.42712,2.61987,0,0,0,0,0,0,0,-1,1483,1625,6.42711,-2.61985
266,-601,6.75317,1.68701,0,0,0,0,0,0,0,-1,1490,1625,6.75323,-1.687
273,-601,5.4314,2.92053,0,0,0,0,0,0,0,-1,1497,1625,5.43144,-2.92051
280,-601,4.64722,1.17786,0,0,0,0,0,0,0,-1,1504,1625,4.64722,-1.1779
287,-601,5.32532,2.6217,0,0,0,0,0,0,0,-1,1511,1625,5.32535,-2.62171
294,-601,5.97693,4.22693,0,0,0,0,0,0,0,-1,1518,1625,5.97697,-4.22694
301,-601,7.28162,9.50024,0,0,0,0,0,0,0,-1,1525,1625,7.28162,-9.50025
308,-601,6.53528,10.3927,0,0,0,0,0,0,0,-1,1532,1625,6.53529,-10.3927
315,-601,4.88013,11.7184,0,0,0,0,0,0,0,-1,1539,1625,4.88015,-11.7184
322,-601,3.38098,12.7864,0,0,0,0,0,0,0,-1,1546,1625,3.38104,-12.7864
329,-601,1.8772,13.8768,0,0,0,0,0,0,0,-1,1553,1625,1.87716,-13.8768
336,-601,4.67847,9.53308,0,0,0,0,0,0,0,-1,1560,1625,4.67848,-9.53309
343,-601,11.1404,3.14575,0,0,0,0,0,0,0,-1,1567,1625,11.1404,-3.1458
350,-601,10.9462,2.37769,0,0,0,0,0,0,0,-1,1574,1625,10.9461,-2.37764
357,-601,10.7518,1.6095,0,0,0,0,0,0,0,-1,1581,1625,10.7518,-1.60948
364,-601,5.33643,9.74426,0,0,0,0,0,0,0,-1,1588,1625,5.33637,-9.74429
371,-601,7.33154,13.1813,0,0,0,0,0,0,0,-1,1595,1625,7.33156,-13.1812
378,-601,7.46924,12.9249,-0.00353772,-0.0338995,0.0225592,0.00847285,-0.04591,0.489233,0.033787,0.0428102,1602,1625,7.4692,-12.925
385,-601,8.03235,12.7581,-0.00527704,-0.0299829,0.0206337,0.00641887,-0.0416788,0.515676,0.0301541,0.0486079,1609,1625,8.0323,-12.758
392,-601,7.29907,13.0892,-0.00601351,-0.0253248,0.0185304,0.00522595,-0.0365643,0.545217,0.0262919,0.0445886,1616,1625,7.29907,-13.0892
399,-601,7.12683,13.3378,-0.00621767,-0.020315,0.0164009,0.00458506,-0.0311177,0.582445,0.0224302,0.0214942,1623,1625,7.12679,-13.3377
406,-601,7.20007,13.26,-0.00618509,-0.0160643,0.0142331,0.00394118,-0.0261905,0.618376,0.0189115,0.014403,1630,1625,7.20005,-13.26
413,-601,7.18945,13.1249,-0.00593575,-0.0127092,0.0122564,0.00339326,-0.0220382,0.650601,0.015944,0.0124529,1637,1625,7.18941,-13.1249
420,-601,7.17163,13.0164,-0.00536758,-0.00988528,0.0103495,0.00296674,-0.0182196,0.677955,0.0132465,0.0102594,1644,1625,7.17158,-13.0164
427,-601,7.18835,12.8597,-0.00461876,-0.00766341,0.00859782,0.00259047,-0.0148726,0.697777,0.0108818,0.01487,1651,1625,7.18836,-12.8598
434,-601,7.18665,12.6663,-0.00418566,-0.00538855,0.00698607,0.0022248,-0.011799,0.742458,0.00870292,0.0158606,1658,1625,7.18659,-12.6662
441,-601,7.19739,12.4775,-0.00321748,-0.00371453,0.00535808,0.00189784,-0.00882985,0.762223,0.00661062,0.0176786,1665,1625,7.19738,-12.4775
448,-601,7.20728,12.301,-0.00202827,-0.00272932,0.00420701,0.00184279,-0.00660038,0.743835,0.00512614,0.015216,1672,1625,7.20733,-12.301
455,-601,7.2157,12.131,-0.0011175,-0.00205341,0.00316739,0.00161631,-0.00478722,0.712058,0.00384521,0.0125223,1679,1625,7.21573,-12.131
462,-601,7.21082,11.9666,-0.000176271,-0.00147188,0.00228269,0.00154876,-0.00319691,0.647138,0.00279445,0.0105514,1686,1625,7.21079,-11.9666
469,-601,7.2063,11.7916,0.000721766,-0.000958866,0.00157903,0.00167016,-0.00190726,0.540872,0.00206693,0.0105029,1693,1625,7.20634,-11.7916
476,-601,7.19019,11.6102,0.00159055,-0.000484704,0.00101783,0.00200642,-0.000900573,0.387884,0.00171836,0.012382,1700,1625,7.19024,-11.6103
483,-601,7.17017,11.4039,0.00255824,-0.000152403,0.000641959,0.00270259,-0.000296751,0.221176,0.00190835,0.0154184,1707,1625,7.1702,-11.4039
490,-601,7.17432,11.2167,0.00360123,0.000120372,0.000275799,0.00362295,9.86551e-05,0.0785797,0.0023831,0.0118684,1714,1625,7.17429,-11.2167
497,-601,7.20007,11.0294,0.00461191,0.000363269,-3.37299e-05,0.00461218,0.000363002,-0.00793832,0.00296121,0.00942971,1721,1625,7.20002,-11.0294
504,-601,7.19727,10.8068,0.00555297,0.000582983,-3.62457e-05,0.00555324,0.000582719,-0.0072924,0.00352401,0.012689,1728,1625,7.19725,-10.8067
511,-601,7.18164,10.6263,0.00653693,0.000700229,-0.000122367,0.00653949,0.000697665,-0.0209529,0.00414672,0.0235278,1735,1625,7.18168,-10.6263
518,-601,7.18457,10.4412,0.0074221,0.000544569,-0.000170659,0.00742633,0.000540337,-0.0247937,0.00478097,0.0359169,1742,1625,7.18461,-10.4412
525,-601,7.12561,10.2507,0.00854703,0.000247311,-0.000450916,0.00857146,0.000222885,-0.0541167,0.00564148,0.0450522,1749,1625,7.12564,-10.2508
532,-601,7.11755,10.1415,0,0,0,0,0,0,0,-1,1756,1625,7.11757,-10.1414
539,-601,6.34155,7.79578,0,0,0,0,0,0,0,-1,1763,1625,6.3415,-7.79583
546,-601,6.56873,3.62354,0,0,0,0,0,0,0,-1,1770,1625,6.56867,-3.62352
553,-601,7.03015,4.25049,0,0,0,0,0,0,0,-1,1777,1625,7.03011,-4.25048
560,-601,7.50745,4.83374,0,0,0,0,0,0,0,-1,1784,1625,7.50744,-4.83376
567,-601,7.82043,3.83301,0,0,0,0,0,0,0,-1,1791,1625,7.82041,-3.83303
574,-601,0,0,0,0,0,0,0,0,0,-1,1798,1625,0,0
581,-601,0,0,0,0,0,0,0,0,0,-1,1805,1625,0,0
588,-601,0,0,0,0,0,0,0,0,0,-1,1812,1625,0,0
595,-601,0,0,0,0,0,0,0,0,0,-1,1819,1625,0,0
602,-601,0,0,0,0,0,0,0,0,0,-1,1826,1625,0,0
609,-601,0,0,0,0,0,0,0,0,0,-1,1833,1625,0,0
616,-601,0,0,0,0,0,0,0,0,0,-1,1840,1625,0,0
623,-601,0,0,0,0,0,0,0,0,0,-1,1847,1625,0,0
630,-601,0,0,0,0,0,0,0,0,0,-1,1854,1625,0,0
637,-601,0,0,0,0,0,0,0,0,0,-1,1861,1625,0,0
644,-601,0,0,0,0,0,0,0,0,0,-1,1868,1625,0,0
651,-601,0,0,0,0,0,0,0,0,0,-1,1875,1625,0,0
658,-601,0,0,0,0,0,0,0,0,0,-1,1882,1625,0,0
665,-601,0,0,0,0,0,0,0,0,0,-1,1889,1625,0,0
672,-601,0,0,0,0,0,0,0,0,0,-1,1896,1625,0,0
679,-601,0,0,0,0,0,0,0,0,0,-1,1903,1625,0,0
686,-601,0,0,0,0,0,0,0,0,0,-1,1910,1625,0,0
693,-601,0,0,0,0,0,0,0,0,0,-1,1917,1625,0,0
700,-601,0,0,0,0,0,0,0,0,0,-1,1924,1625,0,0
707,-601,0,0,0,0,0,0,0,0,0,-1,1931,1625,0,0
714,-601,0,0,0,0,0,0,0,0,0,-1,1938,1625,0,0
721,-601,0,0,0,0,0,0,0,0,0,-1,1945,1625,0,0
728,-601,0,0,0,0,0,0,0,0,0,-1,1952,1625,0,0
735,-601,0,0,0,0,0,0,0,0,0,-1,1959,1625,0,0
742,-601,0,0,0,0,0,0,0,0,0,-1,1966,1625,0,0
749,-601,0,0,0,0,0,0,0,0,0,-1,1973,1625,0,0
756,-601,0,0,0,0,0,0,0,0,0,-1,1980,1625,0,0
763,-601,0,0,0,0,0,0,0,0,0,-1,1987,1625,0,0
770,-601,0,0,0,0,0,0,0,0,0,-1,1994,1625,0,0
777,-601,0,0,0,0,0,0,0,0,0,-1,2001,1625,0,0
784,-601,0,0,0,0,0,0,0,0,0,-1,2008,1625,0,0
791,-601,0,0,0,0,0,0,0,0,0,-1,2015,1625,0,0
798,-601,0,0,0,0,0,0,0,0,0,-1,2022,1625,0,0
805,-601,0,0,0,0,0,0,0,0,0,-1,2029,1625,0,0
812,-601,0,0,0,0,0,0,0,0,0,-1,2036,1625,0,0
-700,-608,0,0,0,0,0,0,0,0,0,-1,524,1632,0,0
-693,-608,0,0,0,0,0,0,0,0,0,-1,531,1632,0,0
-686,-608,0,0,0,0,0,0,0,0,0,-1,538,1632,0,0
-679,-608,0,0,0,0,0,0,0,0,0,-1,545,1632,0,0
-672,-608,0,0,0,0,0,0,0,0,0,-1,552,1632,0,0
-665,-608,0,0,0,0,0,0,0,0,0,-1,559,1632,0,0
-658,-608,0,0,0,0,0,0,0,0,0,-1,566,1632,0,0
-651,-608,0,0,0,0,0,0,0,0,0,-1,573,1632,0,0
-644,-608,0,0,0,0,0,0,0,0,0,-1,580,1632,0,0
-637,-608,0,0,0,0,0,0,0,0,0,-1,587,1632,0,0
-630,-608,0,0,0,0,0,0,0,0,0,-1,594,1632,0,0
-623,-608,0,0,0,0,0,0,0,0,0,-1,601,1632,0,0
-616,-608,0,0,0,0,0,0,0,0,0,-1,608,1632,0,0
-609,-608,0,0,0,0,0,0,0,0,0,-1,615,1632,0,0
-602,-608,0,0,0,0,0,0,0,0,0,-1,622,1632,0,0
-595,-608,0,0,0,0,0,0,0,0,0,-1,629,1632,0,0
-588,-608,0,0,0,0,0,0,0,0,0,-1,636,1632,0,0
-581,-608,0,0,0,0,0,0,0,0,0,-1,643,1632,0,0
-574,-608,0,0,0,0,0,0,0,0,0,-1,650,1632,0,0
-567,-608,0,0,0,0,0,0,0,0,0,-1,657,1632,0,0
-560,-608,0,0,0,0,0,0,0,0,0,-1,664,1632,0,0
-553,-608,0,0,0,0,0,0,0,0,0,-1,671,1632,0,0
-546,-608,0,0,0,0,0,0,0,0,0,-1,678,1632,0,0
-539,-608,0,0,0,0,0,0,0,0,0,-1,685,1632,0,0
-532,-608,0,0,0,0,0,0,0,0,0,-1,692,1632,0,0
-525,-608,0,0,0,0,0,0,0,0,0,-1,699,1632,0,0
-518,-608,0,0,0,0,0,0,0,0,0,-1,706,1632,0,0
-511,-608,0,0,0,0,0,0,0,0,0,-1,713,1632,0,0
-504,-608,0,0,0,0,0,0,0,0,0,-1,720,1632,0,0
-497,-608,0,0,0,0,0,0,0,0,0,-1,727,1632,0,0
-490,-608,0,0,0,0,0,0,0,0,0,-1,734,1632,0,0
-483,-608,0,0,0,0,0,0,0,0,0,-1,741,1632,0,0
-476,-608,0,0,0,0,0,0,0,0,0,-1,748,1632,0,0
-469,-608,0,0,0,0,0,0,0,0,0,-1,755,1632,0,0
-462,-608,0,0,0,0,0,0,0,0,0,-1,762,1632,0,0
-455,-608,0,0,0,0,0,0,0,0,0,-1,769,1632,0,0
-448,-608,0,0,0,0,0,0,0,0,0,-1,776,1632,0,0
-441,-608,-7.34601,2.78052,0,0,0,0,0,0,0,-1,783,1632,-7.346,-2.78056
-434,-608,-6.34558,3.27405,0,0,0,0,0,0,0,-1,790,1632,-6.34555,-3.27406
-427,-608,-5.05603,3.92859,0,0,0,0,0,0,0,-1,797,1632,-5.05602,-3.92857
-420,-608,-5.61499,3.51917,0,0,0,0,0,0,0,-1,804,1632,-5.61498,-3.51914
-413,-608,-4.63806,4.34399,0,0,0,0,0,0,0,-1,811,1632,-4.63808,-4.34396
-406,-608,-3.69275,5.26758,0,0,0,0,0,0,0,-1,818,1632,-3.69272,-5.26761
-399,-608,-2.60645,6.34167,0,0,0,0,0,0,0,-1,825,1632,-2.60643,-6.34169
-392,-608,2.71747,9.44324,0,0,0,0,0,0,0,-1,832,1632,2.7175,-9.44325
-385,-608,2.7066,9.75146,0,0,0,0,0,0,0,-1,839,1632,2.70658,-9.75144
-378,-608,2.76611,9.9696,-0.00214655,-0.0165909,-0.00556517,-0.000251106,-0.0184863,-0.328268,0.0122414,0.0443954,846,1632,2.76611,-9.96958
-371,-608,2.5036,9.69287,-0.00117953,-0.0136626,-0.0041055,4.96726e-05,-0.0148918,-0.29091,0.00994445,0.0351105,853,1632,2.50358,-9.69281
-364,-608,2.48083,9.78577,-0.000263641,-0.0108851,-0.00290133,0.000477202,-0.011626,-0.250004,0.00791451,0.0145781,860,1632,2.48082,-9.78574
-357,-608,2.45087,10.0206,0.000472015,-0.00829367,-0.00175838,0.000811587,-0.00863324,-0.190768,0.00604421,0.0121392,867,1632,2.45089,-10.0207
-350,-608,2.45618,10.2432,0.000935609,-0.00597507,-0.000891625,0.00104879,-0.00608826,-0.126267,0.00444983,0.0172898,874,1632,2.45616,-10.2432
-343,-608,2.44958,10.4685,0.0011686,-0.00395077,-0.000328993,0.00118965,-0.00397182,-0.0639139,0.00312095,0.022417,881,1632,2.44958,-10.4685
-336,-608,2.44336,10.7181,0.00136571,-0.00219174,-6.69312e-05,0.00136697,-0.002193,-0.0188055,0.00207371,0.0153509,888,1632,2.44337,-10.7181
-329,-608,2.43262,10.9188,0.00147573,-0.000702631,2.54774e-05,0.00147602,-0.000702929,0.0116936,0.00128414,0.0137549,895,1632,2.43264,-10.9188
-322,-608,2.40955,11.1056,0.00149236,0.00065391,0.000121778,0.00150969,0.000636581,0.141351,0.000875181,0.0142793,902,1632,2.40955,-11.1056
-315,-608,2.4458,11.2837,0.00141233,0.00114165,-3.11903e-05,0.00141588,0.00113811,-0.113253,0.000866301,0.0135422,909,1632,2.44581,-11.2837
-308,-608,2.45599,11.48,0.00137122,0.00122425,-0.00044182,0.00174562,0.000849844,-0.702991,0.00100795,0.0140011,916,1632,2.45598,-11.48
-301,-608,2.4483,11.6769,0.00132772,0.00107271,-0.000758648,0.0019695,0.000430925,-0.70214,0.00119553,0.0109882,923,1632,2.44833,-11.6769
-294,-608,2.44934,11.8625,0.00134804,0.000981886,-0.000811288,0.00199665,0.000333276,-0.674425,0.00123509,0.0107211,930,1632,2.44936,-11.8625
-287,-608,2.42535,12.0524,0.00154937,0.000644364,-0.00075555,0.00197756,0.000216177,-0.515591,0.00125255,0.010159,937,1632,2.42538,-12.0524
-280,-608,2.44183,12.2257,0.00188085,0.000150669,-0.000604956,0.00207139,-3.98697e-05,-0.305128,0.0013944,0.00815563,944,1632,2.44185,-12.2258
-273,-608,2.45789,12.424,0.00234419,-0.0003463,-0.000300943,0.00237744,-0.000379551,-0.110043,0.00172545,0.00852468,951,1632,2.4579,-12.424
-266,-608,2.46143,12.6177,0.00282717,-0.000934411,0.000172771,0.00283509,-0.000942329,0.0458018,0.00227032,0.00901314,958,1632,2.46142,-12.6177
-259,-608,2.46045,12.7621,0.00338217,-0.00171057,0.000515375,0.0034338,-0.0017622,0.0998491,0.00305122,0.0119004,965,1632,2.46046,-12.762
-252,-608,2.46588,12.889,0.00394496,-0.00343529,0.00121395,0.00413951,-0.00362984,0.15891,0.00448886,0.0253447,972,1632,2.46589,-12.889
-245,-608,2.49744,13.233,0.00175984,-0.00577425,0.00375819,0.00331394,-0.00732836,0.392111,0.00628836,0.0388764,979,1632,2.49743,-13.2331
-238,-608,2.58905,13.4456,-0.00279178,-0.00915753,0.0067948,0.00152868,-0.013478,0.566362,0.00953582,0.0446429,986,1632,2.58907,-13.4456
-231,-608,2.55829,13.4667,0,0,0,0,0,0,0,-1,993,1632,2.55826,-13.4667
-224,-608,2.3443,12.0583,0,0,0,0,0,0,0,-1,1000,1632,2.34432,-12.0584
-217,-608,1.04419,12.8451,0,0,0,0,0,0,0,-1,1007,1632,1.04418,-12.8451
-210,-608,3.71924,12.1757,0,0,0,0,0,0,0,-1,1014,1632,3.71922,-12.1757
-203,-608,3.36145,12.7722,0,0,0,0,0,0,0,-1,1021,1632,3.36149,-12.7723
-196,-608,2.88281,13.4954,-0.0466967,-0.0382052,0.0326028,-0.0095728,-0.0753291,0.850147,0.0473521,0.0458725,1028,1632,2.88286,-13.4954
-189,-608,2.28662,14.1611,-0.0566171,-0.0452669,0.0371101,-0.0134004,-0.0884836,0.861273,0.0550684,0.0467075,1035,1632,2.28661,-14.1611
-182,-608,1.19531,14.7284,0,0,0,0,0,0,0,-1,1042,1632,1.1953,-14.7284
-175,-608,0.219116,15.1643,0,0,0,0,0,0,0,-1,1049,1632,0.219173,-15.1644
-168,-608,0.000366211,9.48645,0,0,0,0,0,0,0,-1,1056,1632,0.000317105,-9.48648
-161,-608,-0.939453,9.31458,0,0,0,0,0,0,0,-1,1063,1632,-0.939447,-9.31463
-154,-608,0.503418,14.4747,0,0,0,0,0,0,0,-1,1070,1632,0.503374,-14.4748
-147,-608,2.4386,9.50317,0,0,0,0,0,0,0,-1,1077,1632,2.43858,-9.50313
-140,-608,2.60132,10.8401,0,0,0,0,0,0,0,-1,1084,1632,2.60134,-10.8401
-133,-608,3.2312,12.4738,0,0,0,0,0,0,0,-1,1091,1632,3.23116,-12.4738
-126,-608,3.76465,13.9644,0,0,0,0,0,0,0,-1,1098,1632,3.76466,-13.9644
-119,-608,4.28906,15.4196,0,0,0,0,0,0,0,-1,1105,1632,4.28911,-15.4195
-112,-608,0.745117,10.5587,0,0,0,0,0,0,0,-1,1112,1632,0.745145,-10.5587
-105,-608,-0.252319,1.42419,0,0,0,0,0,0,0,-1,1119,1632,-0.252331,-1.42418
-98,-608,-1.67896,0.994629,0,0,0,0,0,0,0,-1,1126,1632,-1.67895,-0.994599
-91,-608,-2.99451,0.744629,0,0,0,0,0,0,0,-1,1133,1632,-2.99453,-0.744605
-84,-608,0,0,0,0,0,0,0,0,0,-1,1140,1632,0,0
-77,-608,0,0,0,0,0,0,0,0,0,-1,1147,1632,0,0
-70,-608,0,0,0,0,0,0,0,0,0,-1,1154,1632,0,0
-63,-608,0,0,0,0,0,0,0,0,0,-1,1161,1632,0,0
-56,-608,0,0,0,0,0,0,0,0,0,-1,1168,1632,0,0
-49,-608,0,0,0,0,0,0,0,0,0,-1,1175,1632,0,0
-42,-608,0,0,0,0,0,0,0,0,0,-1,1182,1632,0,0
-35,-608,0,0,0,0,0,0,0,0,0,-1,1189,1632,0,0
-28,-608,0,0,0,0,0,0,0,0,0,-1,1196,1632,0,0
-21,-608,0,0,0,0,0,0,0,0,0,-1,1203,1632,0,0
-14,-608,0,0,0,0,0,0,0,0,0,-1,1210,1632,0,0
-7,-608,0,0,0,0,0,0,0,0,0,-1,1217,1632,0,0
0,-608,0,0,0,0,0,0,0,0,0,-1,1224,1632,0,0
7,-608,0,0,0,0,0,0,0,0,0,-1,1231,1632,0,0
14,-608,0,0,0,0,0,0,0,0,0,-1,1238,1632,0,0
21,-608,0,0,0,0,0,0,0,0,0,-1,1245,1632,0,0
28,-608,0,0,0,0,0,0,0,0,0,-1,1252,1632,0,0
35,-608,0,0,0,0,0,0,0,0,0,-1,1259,1632,0,0
42,-608,0,0,0,0,0,0,0,0,0,-1,1266,1632,0,0
49,-608,0,0,0,0,0,0,0,0,0,-1,1273,1632,0,0
56,-608,0,0,0,0,0,0,0,0,0,-1,1280,1632,0,0
63,-608,0,0,0,0,0,0,0,0,0,-1,1287,1632,0,0
70,-608,0,0,0,0,0,0,0,0,0,-1,1294,1632,0,0
77,-608,0,0,0,0,0,0,0,0,0,-1,1301,1632,0,0
84,-608,0,0,0,0,0,0,0,0,0,-1,1308,1632,0,0
91,-608,0,0,0,0,0,0,0,0,0,-1,1315,1632,0,0
98,-608,0,0,0,0,0,0,0,0,0,-1,1322,1632,0,0
105,-608,0,0,0,0,0,0,0,0,0,-1,1329,1632,0,0
112,-608,0,0,0,0,0,0,0,0,0,-1,1336,1632,0,0
119,-608,0,0,0,0,0,0,0,0,0,-1,1343,1632,0,0
126,-608,0,0,0,0,0,0,0,0,0,-1,1350,1632,0,0
133,-608,0,0,0,0,0,0,0,0,0,-1,1357,1632,0,0
140,-608,0,0,0,0,0,0,0,0,0,-1,1364,1632,0,0
147,-608,0,0,0,0,0,0,0,0,0,-1,1371,1632,0,0
154,-608,0,0,0,0,0,0,0,0,0,-1,1378,1632,0,0
161,-608,0,0,0,0,0,0,0,0,0,-1,1385,1632,0,0
168,-608,0,0,0,0,0,0,0,0,0,-1,1392,1632,0,0
175,-608,0,0,0,0,0,0,0,0,0,-1,1399,1632,0,0
182,-608,0,0,0,0,0,0,0,0,0,-1,1406,1632,0,0
189,-608,0,0,0,0,0,0,0,0,0,-1,1413,1632,0,0
196,-608,0,0,0,0,0,0,0,0,0,-1,1420,1632,0,0
203,-608,0,0,0,0,0,0,0,0,0,-1,1427,1632,0,0
210,-608,5.7157,-0.333008,0,0,0,0,0,0,0,-1,1434,1632,5.71566,0.333004
217,-608,4.49402,-0.831787,0,0,0,0,0,0,0,-1,1441,1632,4.49396,0.831738
224,-608,4.18018,-1.11792,0,0,0,0,0,0,0,-1,1448,1632,4.1802,1.11796
231,-608,0.361816,0.825195,0,0,0,0,0,0,0,-1,1455,1632,0.36185,-0.825226
238,-608,2.85388,-0.28833,0,0,0,0,0,0,0,-1,1462,1632,2.85391,0.288282
245,-608,3.87537,4.02173,0,0,0,0,0,0,0,-1,1469,1632,3.87538,-4.02168
252,-608,5.66956,3.5282,0,0,0,0,0,0,0,-1,1476,1632,5.6696,-3.52815
259,-608,7.47437,3.07178,0,0,0,0,0,0,0,-1,1483,1632,7.4744,-3.07172
266,-608,9.46936,2.34766,0,0,0,0,0,0,0,-1,1490,1632,9.46932,-2.34764
273,-608,6.03003,3.34241,0,0,0,0,0,0,0,-1,1497,1632,6.02997,-3.34245
280,-608,5.72461,2.0769,0,0,0,0,0,0,0,-1,1504,1632,5.72457,-2.07688
287,-608,6.20581,3.59338,0,0,0,0,0,0,0,-1,1511,1632,6.20585,-3.59341
294,-608,6.94922,5.17151,0,0,0,0,0,0,0,-1,1518,1632,6.94925,-5.17151
301,-608,7.60083,6.68018,0,0,0,0,0,0,0,-1,1525,1632,7.60086,-6.68013
308,-608,7.64746,9.93848,0,0,0,0,0,0,0,-1,1532,1632,7.64745,-9.93842
315,-608,5.30688,11.2054,0,0,0,0,0,0,0,-1,1539,1632,5.30694,-11.2054
322,-608,5.32617,13.7581,0,0,0,0,0,0,0,-1,1546,1632,5.32613,-13.758
329,-608,5.00195,13.7511,0,0,0,0,0,0,0,-1,1553,1632,5.00192,-13.7511
336,-608,5.48633,7.82446,0,0,0,0,0,0,0,-1,1560,1632,5.48634,-7.82446
343,-608,5.47192,5.61047,0,0,0,0,0,0,0,-1,1567,1632,5.47192,-5.61045
350,-608,11.6957,1.71387,0,0,0,0,0,0,0,-1,1574,1632,11.6957,-1.71388
357,-608,3.77002,5.10046,0,0,0,0,0,0,0,-1,1581,1632,3.77002,-5.10043
364,-608,5.6925,11.2163,0,0,0,0,0,0,0,-1,1588,1632,5.69255,-11.2163
371,-608,7.06543,14.2231,0,0,0,0,0,0,0,-1,1595,1632,7.06538,-14.2231
378,-608,7.10999,13.668,-0.00230936,-0.0250378,0.0167566,0.00657313,-0.0339203,0.487428,0.0250932,0.0366709,1602,1632,7.10994,-13.668
385,-608,7.146,13.6616,-0.0035638,-0.0224782,0.0153717,0.00502689,-0.0310689,0.509624,0.0225756,0.0326504,1609,1632,7.14601,-13.6617
392,-608,7.02234,13.5518,-0.00408285,-0.0192468,0.0138128,0.00409206,-0.0274217,0.534395,0.0197867,0.0213232,1616,1632,7.02235,-13.5518
399,-608,7.01892,13.4507,-0.00413151,-0.015775,0.0122021,0.00356647,-0.023473,0.562814,0.0169629,0.0103129,1623,1632,7.01896,-13.4507
406,-608,7.02222,13.3198,-0.00402326,-0.0126269,0.0105728,0.00308938,-0.0197395,0.592188,0.0143012,0.00881971,1630,1632,7.02216,-13.3198
413,-608,6.99927,13.1637,-0.0037616,-0.0100098,0.00903731,0.00267637,-0.0164477,0.618985,0.0119575,0.00934047,1637,1632,6.99931,-13.1637
420,-608,6.97717,13.0203,-0.00327213,-0.0077038,0.00751286,0.00234485,-0.0133208,0.641995,0.00975651,0.0166019,1644,1632,6.97722,-13.0203
427,-608,7.00513,12.8439,-0.0026512,-0.00591386,0.00610735,0.00203894,-0.010604,0.654891,0.00783789,0.0186961,1651,1632,7.00517,-12.8439
434,-608,7.02063,12.66,-0.0022933,-0.00402102,0.00478407,0.00170429,-0.0080186,0.696076,0.00599513,0.0148933,1658,1632,7.0206,-12.66
441,-608,7.01794,12.4917,-0.00147757,-0.0026083,0.00348144,0.00148412,-0.00556998,0.704904,0.00429438,0.0141028,1665,1632,7.01795,-12.4917
448,-608,7.03638,12.3258,-0.000407701,-0.00180264,0.00262486,0.00161078,-0.00382111,0.655541,0.00322149,0.016111,1672,1632,7.03638,-12.3259
455,-608,7.06641,12.1495,0.000380851,-0.00125317,0.00184207,0.00157896,-0.00245129,0.576668,0.00234496,0.011577,1679,1632,7.06644,-12.1496
462,-608,7.04626,11.98,0.00119959,-0.000795647,0.00122232,0.00177973,-0.00137579,0.443138,0.00182681,0.010399,1686,1632,7.04625,-11.9799
469,-608,7.01941,11.7982,0.00199798,-0.000405662,0.000779889,0.00222885,-0.000636531,0.287808,0.00173739,0.00817117,1693,1632,7.01938,-11.7982
476,-608,7.00354,11.6134,0.0027791,-6.55848e-05,0.000541738,0.00287877,-0.00016526,0.181957,0.00197657,0.00784434,1700,1632,7.00357,-11.6134
483,-608,7.00037,11.4244,0.00370039,0.00012919,0.000455566,0.00375759,7.19908e-05,0.124902,0.00248141,0.0077908,1707,1632,7.00036,-11.4245
490,-608,7.0271,11.2345,0.00476837,0.000230781,0.000370927,0.00479849,0.00020066,0.0810285,0.00313425,0.00896035,1714,1632,7.02707,-11.2344
497,-608,7.02893,11.0419,0.00591357,0.000365519,0.000347137,0.0059352,0.000343883,0.0622457,0.0038473,0.0133677,1721,1632,7.02894,-11.0418
504,-608,7.11511,10.9053,0,0,0,0,0,0,0,-1,1728,1632,7.11512,-10.9053
511,-608,7.01221,10.6455,0,0,0,0,0,0,0,-1,1735,1632,7.01225,-10.6455
518,-608,6.9928,10.4121,0,0,0,0,0,0,0,-1,1742,1632,6.99285,-10.4121
525,-608,6.85986,10.1569,0,0,0,0,0,0,0,-1,1749,1632,6.85986,-10.1569
532,-608,6.41748,7.4292,0,0,0,0,0,0,0,-1,1756,1632,6.41751,-7.42925
539,-608,9.40796,1.43457,0,0,0,0,0,0,0,-1,1763,1632,9.40801,-1.43463
546,-608,9.94031,2.1134,0,0,0,0,0,0,0,-1,1770,1632,9.94031,-2.11346
553,-608,10.363,2.81335,0,0,0,0,0,0,0,-1,1777,1632,10.3631,-2.81333
560,-608,9.23999,4.5636,0,0,0,0,0,0,0,-1,1784,1632,9.24,-4.56354
567,-608,0,0,0,0,0,0,0,0,0,-1,1791,1632,0,0
574,-608,0,0,0,0,0,0,0,0,0,-1,1798,1632,0,0
581,-608,0,0,0,0,0,0,0,0,0,-1,1805,1632,0,0
588,-608,0,0,0,0,0,0,0,0,0,-1,1812,1632,0,0
595,-608,0,0,0,0,0,0,0,0,0,-1,1819,1632,0,0
602,-608,0,0,0,0,0,0,0,0,0,-1,1826,1632,0,0
609,-608,0,0,0,0,0,0,0,0,0,-1,1833,1632,0,0
616,-608,0,0,0,0,0,0,0,0,0,-1,1840,1632,0,0
623,-608,0,0,0,0,0,0,0,0,0,-1,1847,1632,0,0
630,-608,0,0,0,0,0,0,0,0,0,-1,1854,1632,0,0
637,-608,0,0,0,0,0,0,0,0,0,-1,1861,1632,0,0
644,-608,0,0,0,0,0,0,0,0,0,-1,1868,1632,0,0
651,-608,0,0,0,0,0,0,0,0,0,-1,1875,1632,0,0
658,-608,0,0,0,0,0,0,0,0,0,-1,1882,1632,0,0
665,-608,0,0,0,0,0,0,0,0,0,-1,1889,1632,0,0
672,-608,0,0,0,0,0,0,0,0,0,-1,1896,1632,0,0
679,-608,0,0,0,0,0,0,0,0,0,-1,1903,1632,0,0
686,-608,0,0,0,0,0,0,0,0,0,-1,1910,1632,0,0
693,-608,0,0,0,0,0,0,0,0,0,-1,1917,1632,0,0
700,-608,0,0,0,0,0,0,0,0,0,-1,1924,1632,0,0
707,-608,0,0,0,0,0,0,0,0,0,-1,1931,1632,0,0
714,-608,0,0,0,0,0,0,0,0,0,-1,1938,1632,0,0
721,-608,0,0,0,0,0,0,0,0,0,-1,1945,1632,0,0
728,-608,0,0,0,0,0,0,0,0,0,-1,1952,1632,0,0
735,-608,0,0,0,0,0,0,0,0,0,-1,1959,1632,0,0
742,-608,0,0,0,0,0,0,0,0,0,-1,1966,1632,0,0
749,-608,0,0,0,0,0,0,0,0,0,-1,1973,1632,0,0
756,-608,0,0,0,0,0,0,0,0,0,-1,1980,1632,0,0
763,-608,0,0,0,0,0,0,0,0,0,-1,1987,1632,0,0
770,-608,0,0,0,0,0,0,0,0,0,-1,1994,1632,0,0
777,-608,0,0,0,0,0,0,0,0,0,-1,2001,1632,0,0
784,-608,0,0,0,0,0,0,0,0,0,-1,2008,1632,0,0
791,-608,0,0,0,0,0,0,0,0,0,-1,2015,1632,0,0
798,-608,0,0,0,0,0,0,0,0,0,-1,2022,1632,0,0
805,-608,0,0,0,0,0,0,0,0,0,-1,2029,1632,0,0
812,-608,0,0,0,0,0,0,0,0,0,-1,2036,1632,0,0
-700,-615,0,0,0,0,0,0,0,0,0,-1,524,1639,0,0
-693,-615,0,0,0,0,0,0,0,0,0,-1,531,1639,0,0
-686,-615,0,0,0,0,0,0,0,0,0,-1,538,1639,0,0
-679,-615,0,0,0,0,0,0,0,0,0,-1,545,1639,0,0
-672,-615,0,0,0,0,0,0,0,0,0,-1,552,1639,0,0
-665,-615,0,0,0,0,0,0,0,0,0,-1,559,1639,0,0
-658,-615,0,0,0,0,0,0,0,0,0,-1,566,1639,0,0
-651,-615,0,0,0,0,0,0,0,0,0,-1,573,1639,0,0
-644,-615,0,0,0,0,0,0,0,0,0,-1,580,1639,0,0
-637,-615,0,0,0,0,0,0,0,0,0,-1,587,1639,0,0
-630,-615,0,0,0,0,0,0,0,0,0,-1,594,1639,0,0
-623,-615,0,0,0,0,0,0,0,0,0,-1,601,1639,0,0
-616,-615,0,0,0,0,0,0,0,0,0,-1,608,1639,0,0
-609,-615,0,0,0,0,0,0,0,0,0,-1,615,1639,0,0
-602,-615,0,0,0,0,0,0,0,0,0,-1,622,1639,0,0
-595,-615,0,0,0,0,0,0,0,0,0,-1,629,1639,0,0
-588,-615,0,0,0,0,0,0,0,0,0,-1,636,1639,0,0
-581,-615,0,0,0,0,0,0,0,0,0,-1,643,1639,0,0
-574,-615,0,0,0,0,0,0,0,0,0,-1,650,1639,0,0
-567,-615,0,0,0,0,0,0,0,0,0,-1,657,1639,0,0
-560,-615,0,0,0,0,0,0,0,0,0,-1,664,1639,0,0
-553,-615,0,0,0,0,0,0,0,0,0,-1,671,1639,0,0
-546,-615,0,0,0,0,0,0,0,0,0,-1,678,1639,0,0
-539,-615,0,0,0,0,0,0,0,0,0,-1,685,1639,0,0
-532,-615,0,0,0,0,0,0,0,0,0,-1,692,1639,0,0
-525,-615,0,0,0,0,0,0,0,0,0,-1,699,1639,0,0
-518,-615,0,0,0,0,0,0,0,0,0,-1,706,1639,0,0
-511,-615,0,0,0,0,0,0,0,0,0,-1,713,1639,0,0
-504,-615,0,0,0,0,0,0,0,0,0,-1,720,1639,0,0
-497,-615,0,0,0,0,0,0,0,0,0,-1,727,1639,0,0
-490,-615,0,0,0,0,0,0,0,0,0,-1,734,1639,0,0
-483,-615,0,0,0,0,0,0,0,0,0,-1,741,1639,0,0
-476,-615,0,0,0,0,0,0,0,0,0,-1,748,1639,0,0
-469,-615,0,0,0,0,0,0,0,0,0,-1,755,1639,0,0
-462,-615,0,0,0,0,0,0,0,0,0,-1,762,1639,0,0
-455,-615,0,0,0,0,0,0,0,0,0,-1,769,1639,0,0
-448,-615,0,0,0,0,0,0,0,0,0,-1,776,1639,0,0
-441,-615,0,0,0,0,0,0,0,0,0,-1,783,1639,0,0
-434,-615,-7.64508,2.98596,0,0,0,0,0,0,0,-1,790,1639,-7.64505,-2.98594
-427,-615,-8.88153,0.496216,0,0,0,0,0,0,0,-1,797,1639,-8.88154,-0.49627
-420,-615,-7.74091,1.49768,0,0,0,0,0,0,0,-1,804,1639,-7.7409,-1.49771
-413,-615,-6.54474,2.53772,0,0,0,0,0,0,0,-1,811,1639,-6.54472,-2.53775
-406,-615,-5.43872,3.50488,0,0,0,0,0,0,0,-1,818,1639,-5.43874,-3.50493
-399,-615,-4.84875,3.91907,0,0,0,0,0,0,0,-1,825,1639,-4.84877,-3.91901
-392,-615,-3.4469,5.28418,0,0,0,0,0,0,0,-1,832,1639,-3.44689,-5.28422
-385,-615,2.35748,10.79,0,0,0,0,0,0,0,-1,839,1639,2.35748,-10.79
-378,-615,2.66339,10.4794,-0.00160423,-0.0213721,-0.00676144,0.000487194,-0.0234635,-0.299982,0.0158073,0.0460171,846,1639,2.6634,-10.4794
-371,-615,2.80835,9.81335,-0.000216913,-0.0169914,-0.00476294,0.00104113,-0.0182494,-0.258233,0.0125278,0.0463368,853,1639,2.80837,-9.81335
-364,-615,2.72449,9.85413,0.000922325,-0.0127756,-0.00324978,0.00165422,-0.0135075,-0.221517,0.00960398,0.0324511,860,1639,2.72446,-9.85414
-357,-615,2.68268,10.1079,0.00172889,-0.00941467,-0.00181398,0.00201674,-0.00970252,-0.157372,0.0072349,0.0286949,867,1639,2.6827,-10.1079
-350,-615,2.65741,10.3159,0.00220217,-0.00665378,-0.000791507,0.00227236,-0.00672397,-0.0884416,0.00540183,0.0262368,874,1639,2.6574,-10.3159
-343,-615,2.62421,10.4746,0.00239316,-0.0043312,-0.000136544,0.00239593,-0.00433397,-0.0202947,0.00393885,0.0182739,881,1639,2.62419,-10.4747
-336,-615,2.65063,10.7079,0.00251132,-0.00240329,0.000158574,0.00251643,-0.0024084,0.0322211,0.00284358,0.0104294,888,1639,2.65063,-10.7079
-329,-615,2.63086,10.9154,0.00252638,-0.000877727,0.000252054,0.00254494,-0.000896289,0.0735097,0.0020614,0.0108006,895,1639,2.63089,-10.9154
-322,-615,2.61975,11.1174,0.00243025,0.000481961,0.000381453,0.00250227,0.000409939,0.186613,0.00154971,0.0118663,902,1639,2.61976,-11.1175
-315,-615,2.64972,11.3159,0.00221391,0.000890208,0.000259788,0.00226307,0.000841048,0.187019,0.00132086,0.0139233,909,1639,2.64974,-11.316
-308,-615,2.63312,11.5137,0.00202691,0.000895224,-0.000130109,0.00204168,0.000880458,-0.113005,0.00118247,0.0196139,916,1639,2.63311,-11.5137
-301,-615,2.62653,11.6891,0.00180585,0.000709073,-0.000423089,0.00195009,0.000564834,-0.328563,0.00115862,0.012117,923,1639,2.62651,-11.6891
-294,-615,2.63202,11.8683,0.00161985,0.000612125,-0.000471486,0.00180604,0.000425931,-0.376109,0.00109015,0.0106264,930,1639,2.63201,-11.8683
-287,-615,2.62085,12.0612,0.00162418,0.000289274,-0.000394889,0.00173225,0.000181208,-0.267123,0.00109942,0.00802907,937,1639,2.62083,-12.0612
-280,-615,2.63171,12.2367,0.00178118,-0.000152121,-0.000253132,0.00181377,-0.000184714,-0.128057,0.00127522,0.00887801,944,1639,2.63171,-12.2366
-273,-615,2.63379,12.4286,0.00209105,-0.000580869,-1.17921e-05,0.0020911,-0.000580921,-0.00441324,0.00162275,0.0100708,951,1639,2.63381,-12.4285
-266,-615,2.62799,12.6069,0.00243761,-0.00104855,0.000365046,0.00247543,-0.00108636,0.103221,0.00210788,0.01061,958,1639,2.62797,-12.6069
-259,-615,2.6441,12.7729,0.00282021,-0.00160698,0.000603896,0.0029011,-0.00168787,0.133166,0.00268013,0.0116727,965,1639,2.64408,-12.7729
-252,-615,2.65082,12.9283,0.00319633,-0.0029472,0.00108686,0.00338294,-0.00313381,0.170039,0.00376336,0.0121262,972,1639,2.65081,-12.9283
-245,-615,2.60791,13.079,0.00155574,-0.00467144,0.00283861,0.00265548,-0.00577118,0.369616,0.00497475,0.019261,979,1639,2.60793,-13.0789
-238,-615,2.63922,13.2922,-0.00171323,-0.00736668,0.00482,0.00104778,-0.0101277,0.520197,0.00712677,0.0286552,986,1639,2.63925,-13.2922
-231,-615,2.73816,13.4794,-0.0045393,-0.0101627,0.00676256,-2.71965e-05,-0.0146748,0.588384,0.00977412,0.0366138,993,1639,2.73814,-13.4794
-224,-615,2.85822,13.6763,0,0,0,0,0,0,0,-1,1000,1639,2.85819,-13.6763
-217,-615,3.27911,13.3783,0,0,0,0,0,0,0,-1,1007,1639,3.27914,-13.3783
-210,-615,2.83447,13.3605,0,0,0,0,0,0,0,-1,1014,1639,2.8345,-13.3604
-203,-615,3.26343,12.7267,0,0,0,0,0,0,0,-1,1021,1639,3.26343,-12.7267
-196,-615,2.77588,13.636,-0.0319005,-0.0313179,0.0220858,-0.00952145,-0.0536969,0.791993,0.033084,0.0469153,1028,1639,2.7759,-13.636
-189,-615,2.22913,14.5632,-0.0386654,-0.0366079,0.0252423,-0.0123734,-0.0628999,0.805764,0.0384778,0.0466921,1035,1639,2.22915,-14.5633
-182,-615,1.62231,15.4996,0,0,0,0,0,0,0,-1,1042,1639,1.62228,-15.4996
-175,-615,-0.609985,13.8434,0,0,0,0,0,0,0,-1,1049,1639,-0.610016,-13.8434
-168,-615,2.02783,9.96631,0,0,0,0,0,0,0,-1,1056,1639,2.0278,-9.96637
-161,-615,0.378418,15.2075,0,0,0,0,0,0,0,-1,1063,1639,0.378426,-15.2076
-154,-615,0.909302,14.1709,0,0,0,0,0,0,0,-1,1070,1639,0.909305,-14.1709
-147,-615,1.44019,13.1343,0,0,0,0,0,0,0,-1,1077,1639,1.44018,-13.1343
-140,-615,3.73401,10.2349,0,0,0,0,0,0,0,-1,1084,1639,3.73402,-10.2348
-133,-615,3.88013,11.3654,0,0,0,0,0,0,0,-1,1091,1639,3.88015,-11.3654
-126,-615,4.43408,12.5017,0,0,0,0,0,0,0,-1,1098,1639,4.43403,-12.5018
-119,-615,4.82983,13.9279,0,0,0,0,0,0,0,-1,1105,1639,4.82986,-13.9278
-112,-615,3.65698,14.4874,0,0,0,0,0,0,0,-1,1112,1639,3.65695,-14.4875
-105,-615,0.958496,2.45398,0,0,0,0,0,0,0,-1,1119,1639,0.958452,-2.45398
-98,-615,-0.647705,2.12109,0,0,0,0,0,0,0,-1,1126,1639,-0.647756,-2.12105
-91,-615,-1.48572,0.604492,0,0,0,0,0,0,0,-1,1133,1639,-1.48576,-0.604443
-84,-615,-2.46509,0.703247,0,0,0,0,0,0,0,-1,1140,1639,-2.46505,-0.703273
-77,-615,-3.17859,1.23755,0,0,0,0,0,0,0,-1,1147,1639,-3.17865,-1.23752
-70,-615,-4.03943,1.43335,0,0,0,0,0,0,0,-1,1154,1639,-4.03942,-1.43339
-63,-615,-4.8877,1.45544,0,0,0,0,0,0,0,-1,1161,1639,-4.88766,-1.45549
-56,-615,0,0,0,0,0,0,0,0,0,-1,1168,1639,0,0
-49,-615,0,0,0,0,0,0,0,0,0,-1,1175,1639,0,0
-42,-615,0,0,0,0,0,0,0,0,0,-1,1182,1639,0,0
-35,-615,0,0,0,0,0,0,0,0,0,-1,1189,1639,0,0
-28,-615,0,0,0,0,0,0,0,0,0,-1,1196,1639,0,0
-21,-615,0,0,0,0,0,0,0,0,0,-1,1203,1639,0,0
-14,-615,0,0,0,0,0,0,0,0,0,-1,1210,1639,0,0
-7,-615,0,0,0,0,0,0,0,0,0,-1,1217,1639,0,0
0,-615,0,0,0,0,0,0,0,0,0,-1,1224,1639,0,0
7,-615,0,0,0,0,0,0,0,0,0,-1,1231,1639,0,0
14,-615,0,0,0,0,0,0,0,0,0,-1,1238,1639,0,0
21,-615,0,0,0,0,0,0,0,0,0,-1,1245,1639,0,0
28,-615,0,0,0,0,0,0,0,0,0,-1,1252,1639,0,0
35,-615,0,0,0,0,0,0,0,0,0,-1,1259,1639,0,0
42,-615,0,0,0,0,0,0,0,0,0,-1,1266,1639,0,0
49,-615,0,0,0,0,0,0,0,0,0,-1,1273,1639,0,0
56,-615,0,0,0,0,0,0,0,0,0,-1,1280,1639,0,0
63,-615,0,0,0,0,0,0,0,0,0,-1,1287,1639,0,0
70,-615,0,0,0,0,0,0,0,0,0,-1,1294,1639,0,0
77,-615,0,0,0,0,0,0,0,0,0,-1,1301,1639,0,0
84,-615,0,0,0,0,0,0,0,0,0,-1,1308,1639,0,0
91,-615,0,0,0,0,0,0,0,0,0,-1,1315,1639,0,0
98,-615,0,0,0,0,0,0,0,0,0,-1,1322,1639,0,0
105,-615,0,0,0,0,0,0,0,0,0,-1,1329,1639,0,0
112,-615,0,0,0,0,0,0,0,0,0,-1,1336,1639,0,0
119,-615,0,0,0,0,0,0,0,0,0,-1,1343,1639,0,0
126,-615,0,0,0,0,0,0,0,0,0,-1,1350,1639,0,0
133,-615,0,0,0,0,0,0,0,0,0,-1,1357,1639,0,0
140,-615,0,0,0,0,0,0,0,0,0,-1,1364,1639,0,0
147,-615,0,0,0,0,0,0,0,0,0,-1,1371,1639,0,0
154,-615,0,0,0,0,0,0,0,0,0,-1,1378,1639,0,0
161,-615,0,0,0,0,0,0,0,0,0,-1,1385,1639,0,0
168,-615,0,0,0,0,0,0,0,0,0,-1,1392,1639,0,0
175,-615,5.39648,-2.00879,0,0,0,0,0,0,0,-1,1399,1639,5.3965,2.00881
182,-615,5.65393,-1.51025,0,0,0,0,0,0,0,-1,1406,1639,5.65388,1.51028
189,-615,5.58972,-1.35608,0,0,0,0,0,0,0,-1,1413,1639,5.58967,1.35607
196,-615,5.49915,-0.693604,0,0,0,0,0,0,0,-1,1420,1639,5.4991,0.693602
203,-615,5.33411,-0.226685,0,0,0,0,0,0,0,-1,1427,1639,5.33414,0.226689
210,-615,5.60278,0.108276,0,0,0,0,0,0,0,-1,1434,1639,5.60284,-0.10831
217,-615,6.26331,-0.307373,0,0,0,0,0,0,0,-1,1441,1639,6.26331,0.307372
224,-615,5.45422,-0.333984,0,0,0,0,0,0,0,-1,1448,1639,5.45422,0.333992
231,-615,4.92542,1.80298,0,0,0,0,0,0,0,-1,1455,1639,4.92537,-1.80297
238,-615,4.76355,1.96729,0,0,0,0,0,0,0,-1,1462,1639,4.76357,-1.96734
245,-615,4.08643,3.15906,0,0,0,0,0,0,0,-1,1469,1639,4.08638,-3.159
252,-615,6.37805,3.73889,0,0,0,0,0,0,0,-1,1476,1639,6.37806,-3.73891
259,-615,8.35974,3.16443,0,0,0,0,0,0,0,-1,1483,1639,8.35975,-3.16444
266,-615,10.3414,2.58997,0,0,0,0,0,0,0,-1,1490,1639,10.3414,-2.58996
273,-615,6.57043,1.84766,0,0,0,0,0,0,0,-1,1497,1639,6.5704,-1.84771
280,-615,7.10449,3.23438,0,0,0,0,0,0,0,-1,1504,1639,7.10447,-3.23435
287,-615,7.35779,4.68542,0,0,0,0,0,0,0,-1,1511,1639,7.35776,-4.68546
294,-615,7.63733,6.29114,0,0,0,0,0,0,0,-1,1518,1639,7.63735,-6.29109
301,-615,8.47925,11.452,0,0,0,0,0,0,0,-1,1525,1639,8.47922,-11.452
308,-615,6.8114,10.9059,0,0,0,0,0,0,0,-1,1532,1639,6.81137,-10.9058
315,-615,5.1427,14.7251,0,0,0,0,0,0,0,-1,1539,1639,5.14269,-14.7251
322,-615,5.25964,14.4501,0,0,0,0,0,0,0,-1,1546,1639,5.25958,-14.45
329,-615,6.87927,15.2551,0,0,0,0,0,0,0,-1,1553,1639,6.87926,-15.2551
336,-615,5.4082,13.5924,0,0,0,0,0,0,0,-1,1560,1639,5.4082,-13.5925
343,-615,2.40491,6.50134,0,0,0,0,0,0,0,-1,1567,1639,2.40489,-6.50137
350,-615,6.27307,14.0443,0,0,0,0,0,0,0,-1,1574,1639,6.27305,-14.0444
357,-615,6.99194,14.3701,0,0,0,0,0,0,0,-1,1581,1639,6.99192,-14.3701
364,-615,7.03467,14.2258,0,0,0,0,0,0,0,-1,1588,1639,7.03469,-14.2259
371,-615,6.91663,14.0908,1.7877e-05,-0.0193745,0.012984,0.00652663,-0.0258832,0.46468,0.019793,0.0401869,1595,1639,6.91667,-14.0908
378,-615,6.82678,13.9637,-0.00145344,-0.0181039,0.0122341,0.00501935,-0.0245767,0.48664,0.0182886,0.0207214,1602,1639,6.82683,-13.9638
385,-615,6.81799,13.7891,-0.0023519,-0.0164786,0.0112399,0.00385979,-0.0226903,0.504872,0.0165641,0.0112368,1609,1639,6.81803,-13.7891
392,-615,6.82874,13.6431,-0.00268344,-0.0142728,0.0100756,0.00314497,-0.0201012,0.524436,0.0145628,0.00928376,1616,1639,6.8287,-13.6431
399,-615,6.84985,13.4976,-0.00275292,-0.0118302,0.00879241,0.00260318,-0.0171863,0.547137,0.0124165,0.0105644,1623,1639,6.84984,-13.4975
406,-615,6.84448,13.3149,-0.00268301,-0.00950253,0.00749785,0.00214399,-0.0143295,0.571993,0.010342,0.0106743,1630,1639,6.84447,-13.315
413,-615,6.83374,13.1649,-0.00245506,-0.00747873,0.00623744,0.00175731,-0.0116911,0.593981,0.00844103,0.0110927,1637,1639,6.83374,-13.1649
420,-615,6.83008,13.017,-0.00206795,-0.00562894,0.00498674,0.00144663,-0.00914351,0.613929,0.0066307,0.0117574,1644,1639,6.83013,-13.017
427,-615,6.85181,12.8357,-0.00157586,-0.00421391,0.00383585,0.00116142,-0.00695118,0.619797,0.00506584,0.0129183,1651,1639,6.85181,-12.8357
434,-615,6.86951,12.6595,-0.00127133,-0.00268136,0.002733,0.000846128,-0.00479882,0.659169,0.00351536,0.0122952,1658,1639,6.86945,-12.6596
441,-615,6.86914,12.4771,-0.000558999,-0.00153132,0.00171264,0.000735149,-0.00282546,0.647104,0.00217059,0.0137234,1665,1639,6.86915,-12.477
448,-615,6.86365,12.3099,0.00046573,-0.000905658,0.00113087,0.00110255,-0.00154248,0.512864,0.00153414,0.0149433,1672,1639,6.86364,-12.3099
455,-615,6.85657,12.1602,0.00124754,-0.000482531,0.000614799,0.00144376,-0.000678751,0.308943,0.00125168,0.0137462,1679,1639,6.85652,-12.1602
462,-615,6.85828,12.0122,0.00209742,-0.000142137,0.00029714,0.00213618,-0.000180891,0.129689,0.00148808,0.0145284,1686,1639,6.85829,-12.0123
469,-615,6.8396,11.8207,0.00298852,0.000149895,0.000175905,0.00299937,0.000139036,0.0616539,0.00195489,0.0119639,1693,1639,6.83962,-11.8207
476,-615,6.83411,11.6111,0.00390721,0.000391259,0.000345201,0.00394078,0.000357688,0.0969478,0.00251645,0.00968572,1700,1639,6.83416,-11.6111
483,-615,6.8446,11.4016,0.00501706,0.000505703,0.000648497,0.00510843,0.000414333,0.139973,0.00327625,0.0133846,1707,1639,6.8446,-11.4016
490,-615,6.86206,11.2167,0.00633473,0.00048091,0.000972488,0.00649206,0.00032358,0.160391,0.00422431,0.0171494,1714,1639,6.86201,-11.2167
497,-615,6.84326,11.1057,0.00786558,0.000535312,0.00138102,0.00811713,0.000283762,0.180173,0.00531936,0.0248199,1721,1639,6.84327,-11.1058
504,-615,7.17834,11.1042,0,0,0,0,0,0,0,-1,1728,1639,7.17835,-11.1042
511,-615,7.50024,11.0432,0,0,0,0,0,0,0,-1,1735,1639,7.50024,-11.0432
518,-615,6.46326,8.26929,0,0,0,0,0,0,0,-1,1742,1639,6.46326,-8.26927
525,-615,4.37524,3.90491,0,0,0,0,0,0,0,-1,1749,1639,4.37518,-3.90495
532,-615,7.3645,0.848145,0,0,0,0,0,0,0,-1,1756,1639,7.36451,-0.848093
539,-615,12.8112,-0.0476074,0,0,0,0,0,0,0,-1,1763,1639,12.8111,0.0475553
546,-615,8.33813,2.94556,0,0,0,0,0,0,0,-1,1770,1639,8.33813,-2.9455
553,-615,5.82532,-2.04199,0,0,0,0,0,0,0,-1,1777,1639,5.82534,2.04195
560,-615,0,0,0,0,0,0,0,0,0,-1,1784,1639,0,0
567,-615,0,0,0,0,0,0,0,0,0,-1,1791,1639,0,0
574,-615,0,0,0,0,0,0,0,0,0,-1,1798,1639,0,0
581,-615,0,0,0,0,0,0,0,0,0,-1,1805,1639,0,0
588,-615,0,0,0,0,0,0,0,0,0,-1,1812,1639,0,0
595,-615,0,0,0,0,0,0,0,0,0,-1,1819,1639,0,0
602,-615,0,0,0,0,0,0,0,0,0,-1,1826,1639,0,0
609,-615,0,0,0,0,0,0,0,0,0,-1,1833,1639,0,0
616,-615,0,0,0,0,0,0,0,0,0,-1,1840,1639,0,0
623,-615,0,0,0,0,0,0,0,0,0,-1,1847,1639,0,0
630,-615,0,0,0,0,0,0,0,0,0,-1,1854,1639,0,0
637,-615,0,0,0,0,0,0,0,0,0,-1,1861,1639,0,0
644,-615,0,0,0,0,0,0,0,0,0,-1,1868,1639,0,0
651,-615,0,0,0,0,0,0,0,0,0,-1,1875,1639,0,0
658,-615,0,0,0,0,0,0,0,0,0,-1,1882,1639,0,0
665,-615,0,0,0,0,0,0,0,0,0,-1,1889,1639,0,0
672,-615,0,0,0,0,0,0,0,0,0,-1,1896,1639,0,0
679,-615,0,0,0,0,0,0,0,0,0,-1,1903,1639,0,0
686,-615,0,0,0,0,0,0,0,0,0,-1,1910,1639,0,0
693,-615,0,0,0,0,0,0,0,0,0,-1,1917,1639,0,0
700,-615,0,0,0,0,0,0,0,0,0,-1,1924,1639,0,0
707,-615,0,0,0,0,0,0,0,0,0,-1,1931,1639,0,0
714,-615,0,0,0,0,0,0,0,0,0,-1,1938,1639,0,0
721,-615,0,0,0,0,0,0,0,0,0,-1,1945,1639,0,0
728,-615,0,0,0,0,0,0,0,0,0,-1,1952,1639,0,0
735,-615,0,0,0,0,0,0,0,0,0,-1,1959,1639,0,0
742,-615,0,0,0,0,0,0,0,0,0,-1,1966,1639,0,0
749,-615,0,0,0,0,0,0,0,0,0,-1,1973,1639,0,0
756,-615,0,0,0,0,0,0,0,0,0,-1,1980,1639,0,0
763,-615,0,0,0,0,0,0,0,0,0,-1,1987,1639,0,0
770,-615,0,0,0,0,0,0,0,0,0,-1,1994,1639,0,0
777,-615,0,0,0,0,0,0,0,0,0,-1,2001,1639,0,0
784,-615,0,0,0,0,0,0,0,0,0,-1,2008,1639,0,0
791,-615,0,0,0,0,0,0,0,0,0,-1,2015,1639,0,0
798,-615,0,0,0,0,0,0,0,0,0,-1,2022,1639,0,0
805,-615,0,0,0,0,0,0,0,0,0,-1,2029,1639,0,0
812,-615,0,0,0,0,0,0,0,0,0,-1,2036,1639,0,0
-700,-622,0,0,0,0,0,0,0,0,0,-1,524,1646,0,0
-693,-622,0,0,0,0,0,0,0,0,0,-1,531,1646,0,0
-686,-622,0,0,0,0,0,0,0,0,0,-1,538,1646,0,0
-679,-622,0,0,0,0,0,0,0,0,0,-1,545,1646,0,0
-672,-622,0,0,0,0,0,0,0,0,0,-1,552,1646,0,0
-665,-622,0,0,0,0,0,0,0,0,0,-1,559,1646,0,0
-658,-622,0,0,0,0,0,0,0,0,0,-1,566,1646,0,0
-651,-622,0,0,0,0,0,0,0,0,0,-1,573,1646,0,0
-644,-622,0,0,0,0,0,0,0,0,0,-1,580,1646,0,0
-637,-622,0,0,0,0,0,0,0,0,0,-1,587,1646,0,0
-630,-622,0,0,0,0,0,0,0,0,0,-1,594,1646,0,0
-623,-622,0,0,0,0,0,0,0,0,0,-1,601,1646,0,0
-616,-622,0,0,0,0,0,0,0,0,0,-1,608,1646,0,0
-609,-622,0,0,0,0,0,0,0,0,0,-1,615,1646,0,0
-602,-622,0,0,0,0,0,0,0,0,0,-1,622,1646,0,0
-595,-622,0,0,0,0,0,0,0,0,0,-1,629,1646,0,0
-588,-622,0,0,0,0,0,0,0,0,0,-1,636,1646,0,0
-581,-622,0,0,0,0,0,0,0,0,0,-1,643,1646,0,0
-574,-622,0,0,0,0,0,0,0,0,0,-1,650,1646,0,0
-567,-622,0,0,0,0,0,0,0,0,0,-1,657,1646,0,0
-560,-622,0,0,0,0,0,0,0,0,0,-1,664,1646,0,0
-553,-622,0,0,0,0,0,0,0,0,0,-1,671,1646,0,0
-546,-622,0,0,0,0,0,0,0,0,0,-1,678,1646,0,0
-539,-622,0,0,0,0,0,0,0,0,0,-1,685,1646,0,0
-532,-622,0,0,0,0,0,0,0,0,0,-1,692,1646,0,0
-525,-622,0,0,0,0,0,0,0,0,0,-1,699,1646,0,0
-518,-622,0,0,0,0,0,0,0,0,0,-1,706,1646,0,0
-511,-622,0,0,0,0,0,0,0,0,0,-1,713,1646,0,0
-504,-622,0,0,0,0,0,0,0,0,0,-1,720,1646,0,0
-497,-622,0,0,0,0,0,0,0,0,0,-1,727,1646,0,0
-490,-622,0,0,0,0,0,0,0,0,0,-1,734,1646,0,0
-483,-622,0,0,0,0,0,0,0,0,0,-1,741,1646,0,0
-476,-622,0,0,0,0,0,0,0,0,0,-1,748,1646,0,0
-469,-622,0,0,0,0,0,0,0,0,0,-1,755,1646,0,0
-462,-622,0,0,0,0,0,0,0,0,0,-1,762,1646,0,0
-455,-622,0,0,0,0,0,0,0,0,0,-1,769,1646,0,0
-448,-622,0,0,0,0,0,0,0,0,0,-1,776,1646,0,0
-441,-622,0,0,0,0,0,0,0,0,0,-1,783,1646,0,0
-434,-622,0,0,0,0,0,0,0,0,0,-1,790,1646,0,0
-427,-622,-7.62891,3.48096,0,0,0,0,0,0,0,-1,797,1646,-7.62892,-3.48092
-420,-622,-9.86938,0.0371094,0,0,0,0,0,0,0,-1,804,1646,-9.86937,-0.0371326
-413,-622,-8.5658,1.0321,0,0,0,0,0,0,0,-1,811,1646,-8.56579,-1.03216
-406,-622,-4.44318,2.16858,0,0,0,0,0,0,0,-1,818,1646,-4.44315,-2.16859
-399,-622,-7.06976,1.51001,0,0,0,0,0,0,0,-1,825,1646,-7.06976,-1.51005
-392,-622,3.89551,5.85376,0,0,0,0,0,0,0,-1,832,1646,3.8955,-5.85379
-385,-622,4.37762,7.35767,0,0,0,0,0,0,0,-1,839,1646,4.37765,-7.35761
-378,-622,2.55804,11.1315,0,0,0,0,0,0,0,-1,846,1646,2.55805,-11.1314
-371,-622,2.96613,9.94067,0,0,0,0,0,0,0,-1,853,1646,2.96614,-9.94063
-364,-622,2.83838,9.79517,0.00254856,-0.0147771,-0.00351962,0.00323626,-0.0154648,-0.192959,0.0115409,0.0479715,860,1646,2.8384,-9.7951
-357,-622,2.68481,10.2031,0.00337191,-0.0105034,-0.00167724,0.00357177,-0.0107033,-0.118604,0.00857766,0.047815,867,1646,2.68479,-10.2031
-350,-622,2.73383,10.4565,0.0037359,-0.0072495,-0.000491729,0.00375787,-0.00727146,-0.0446431,0.0064746,0.0387623,874,1646,2.73381,-10.4566
-343,-622,2.7652,10.5287,0.00376531,-0.00454108,0.000234875,0.00377194,-0.00454771,0.0282463,0.00481031,0.0249675,881,1646,2.7652,-10.5287
-336,-622,2.84601,10.6893,0.00371413,-0.00237464,0.000593554,0.00377145,-0.00243196,0.0962756,0.00360927,0.00935122,888,1646,2.84602,-10.6894
-329,-622,2.82312,10.9016,0.0035054,-0.000757726,0.000714821,0.00362206,-0.000874392,0.161783,0.00275286,0.00898977,895,1646,2.82309,-10.9016
-322,-622,2.81451,11.1045,0.00317154,0.000637939,0.000900934,0.00345924,0.000350241,0.309098,0.00219873,0.0106282,902,1646,2.81454,-11.1045
-315,-622,2.80933,11.3115,0.00271111,0.00100633,0.000817675,0.00303989,0.000677553,0.382308,0.00184274,0.0138433,909,1646,2.80935,-11.3116
-308,-622,2.8125,11.5061,0.00229442,0.000969496,0.000444976,0.00243,0.000833923,0.295739,0.00142578,0.012887,916,1646,2.81252,-11.5061
-301,-622,2.81024,11.6853,0.0018475,0.000782727,0.000156297,0.00186997,0.000760258,0.142777,0.00108589,0.012502,923,1646,2.81025,-11.6853
-294,-622,2.80249,11.8616,0.00144431,0.000693204,7.79362e-05,0.00145232,0.000685202,0.102309,0.00083894,0.0100933,930,1646,2.80247,-11.8616
-287,-622,2.81757,12.0427,0.00126848,0.000395225,0.000131514,0.00128786,0.000375848,0.146281,0.000764723,0.00771419,937,1646,2.81756,-12.0427
-280,-622,2.8186,12.2274,0.00128511,6.7506e-06,0.000218561,0.00132144,-2.95842e-05,0.164738,0.000890988,0.00869336,944,1646,2.81859,-12.2274
-273,-622,2.81525,12.3995,0.00147379,-0.000363274,0.000350848,0.00153851,-0.000427999,0.182432,0.00119419,0.0126673,951,1646,2.81524,-12.3995
-266,-622,2.80237,12.5984,0.00170974,-0.000758538,0.000613295,0.00185372,-0.000902525,0.230599,0.0016226,0.0124353,958,1646,2.80237,-12.5984
-259,-622,2.82318,12.8076,0.00199714,-0.00128853,0.000748919,0.00215979,-0.00145118,0.213862,0.00209814,0.0117283,965,1646,2.82315,-12.8076
-252,-622,2.83527,12.9681,0.00233582,-0.00237652,0.00102508,0.00254914,-0.00258985,0.205181,0.00296703,0.0116473,972,1646,2.83529,-12.9682
-245,-622,2.83374,13.1288,0.00122714,-0.00371111,0.00216811,0.00204393,-0.0045279,0.360288,0.00388354,0.00879983,979,1646,2.83377,-13.1288
-238,-622,2.85126,13.3082,-0.00100793,-0.0058319,0.00334863,0.000706949,-0.00754678,0.473292,0.00528263,0.0101645,986,1646,2.85127,-13.3082
-231,-622,2.8847,13.4861,-0.00279308,-0.00809982,0.00450907,-0.000214612,-0.0106783,0.519456,0.00704841,0.0139549,993,1646,2.88472,-13.4861
-224,-622,2.99872,13.6075,-0.00511447,-0.0108208,0.00601077,-0.00131407,-0.0146212,0.563806,0.00934031,0.0238107,1000,1646,2.9987,-13.6076
-217,-622,3.14435,13.6034,-0.00836852,-0.0140762,0.0077934,-0.00292288,-0.0195218,0.609887,0.012158,0.0365139,1007,1646,3.14438,-13.6034
-210,-622,2.91211,13.5671,-0.0122449,-0.0176416,0.00991334,-0.0046692,-0.0252172,0.652521,0.0154914,0.044402,1014,1646,2.91213,-13.5671
-203,-622,3.03552,13.3207,-0.0165803,-0.0212233,0.0122478,-0.00643586,-0.0313677,0.691737,0.0191308,0.0448636,1021,1646,3.0355,-13.3207
-196,-622,2.78735,13.9159,-0.0210148,-0.0248122,0.0144936,-0.00829608,-0.037531,0.720268,0.0227649,0.048708,1028,1646,2.78739,-13.9159
-189,-622,2.56519,14.2555,0,0,0,0,0,0,0,-1,1035,1646,2.5652,-14.2556
-182,-622,2.43262,12.2766,0,0,0,0,0,0,0,-1,1042,1646,2.4326,-12.2767
-175,-622,2.56091,11.0195,0,0,0,0,0,0,0,-1,1049,1646,2.56095,-11.0195
-168,-622,4.76489,10.7617,0,0,0,0,0,0,0,-1,1056,1646,4.76491,-10.7617
-161,-622,1.81116,14.7632,0,0,0,0,0,0,0,-1,1063,1646,1.81115,-14.7632
-154,-622,1.3241,13.7522,0,0,0,0,0,0,0,-1,1070,1646,1.32404,-13.7522
-147,-622,1.51526,12.8514,0,0,0,0,0,0,0,-1,1077,1646,1.51522,-12.8515
-140,-622,3.15784,10.7809,0,0,0,0,0,0,0,-1,1084,1646,3.15778,-10.7809
-133,-622,3.40173,10.0699,0,0,0,0,0,0,0,-1,1091,1646,3.40173,-10.0699
-126,-622,4.83423,11.7699,0,0,0,0,0,0,0,-1,1098,1646,4.83428,-11.7699
-119,-622,4.06384,13.1715,0,0,0,0,0,0,0,-1,1105,1646,4.06379,-13.1716
-112,-622,4.33276,14.6605,0,0,0,0,0,0,0,-1,1112,1646,4.33281,-14.6605
-105,-622,0.306519,4.38159,0,0,0,0,0,0,0,-1,1119,1646,0.306536,-4.38159
-98,-622,-0.510376,3.5033,0,0,0,0,0,0,0,-1,1126,1646,-0.510393,-3.50324
-91,-622,-1.146,0.975952,0,0,0,0,0,0,0,-1,1133,1646,-1.14599,-0.97597
-84,-622,-2.04895,1.31787,0,0,0,0,0,0,0,-1,1140,1646,-2.0489,-1.31781
-77,-622,-1.80627,0.332275,0,0,0,0,0,0,0,-1,1147,1646,-1.80622,-0.33223
-70,-622,-3.65588,2.28149,0,0,0,0,0,0,0,-1,1154,1646,-3.65589,-2.28155
-63,-622,-2.49683,1.27087,0,0,0,0,0,0,0,-1,1161,1646,-2.49679,-1.27093
-56,-622,-2.44238,-0.575562,0,0,0,0,0,0,0,-1,1168,1646,-2.44242,0.575508
-49,-622,-2.41089,1.38818,0,0,0,0,0,0,0,-1,1175,1646,-2.41088,-1.38815
-42,-622,-2.71497,2.85242,0,0,0,0,0,0,0,-1,1182,1646,-2.71491,-2.85247
-35,-622,-3.0177,4.25842,0,0,0,0,0,0,0,-1,1189,1646,-3.01773,-4.25838
-28,-622,-0.896606,0.678833,0,0,0,0,0,0,0,-1,1196,1646,-0.89661,-0.678835
-21,-622,6.63062,12.6195,0,0,0,0,0,0,0,-1,1203,1646,6.63065,-12.6195
-14,-622,11.2815,16.8484,0,0,0,0,0,0,0,-1,1210,1646,11.2815,-16.8484
-7,-622,3.27808,21.5393,0,0,0,0,0,0,0,-1,1217,1646,3.27808,-21.5393
0,-622,0,0,0,0,0,0,0,0,0,-1,1224,1646,0,0
7,-622,0,0,0,0,0,0,0,0,0,-1,1231,1646,0,0
14,-622,0,0,0,0,0,0,0,0,0,-1,1238,1646,0,0
21,-622,0,0,0,0,0,0,0,0,0,-1,1245,1646,0,0
28,-622,0,0,0,0,0,0,0,0,0,-1,1252,1646,0,0
35,-622,0,0,0,0,0,0,0,0,0,-1,1259,1646,0,0
42,-622,0,0,0,0,0,0,0,0,0,-1,1266,1646,0,0
49,-622,0,0,0,0,0,0,0,0,0,-1,1273,1646,0,0
56,-622,0,0,0,0,0,0,0,0,0,-1,1280,1646,0,0
63,-622,0,0,0,0,0,0,0,0,0,-1,1287,1646,0,0
70,-622,0,0,0,0,0,0,0,0,0,-1,1294,1646,0,0
77,-622,0,0,0,0,0,0,0,0,0,-1,1301,1646,0,0
84,-622,0,0,0,0,0,0,0,0,0,-1,1308,1646,0,0
91,-622,0,0,0,0,0,0,0,0,0,-1,1315,1646,0,0
98,-622,0,0,0,0,0,0,0,0,0,-1,1322,1646,0,0
105,-622,0,0,0,0,0,0,0,0,0,-1,1329,1646,0,0
112,-622,0,0,0,0,0,0,0,0,0,-1,1336,1646,0,0
119,-622,0,0,0,0,0,0,0,0,0,-1,1343,1646,0,0
126,-622,11.5967,2.46838,0,0,0,0,0,0,0,-1,1350,1646,11.5967,-2.46841
133,-622,12.8008,1.75439,0,0,0,0,0,0,0,-1,1357,1646,12.8007,-1.75445
140,-622,12.8459,1.9198,0,0,0,0,0,0,0,-1,1364,1646,12.846,-1.91975
147,-622,13.3405,1.70886,0,0,0,0,0,0,0,-1,1371,1646,13.3405,-1.7088
154,-622,17.1903,-3.24805,0,0,0,0,0,0,0,-1,1378,1646,17.1903,3.24802
161,-622,10.6884,6.46448,0,0,0,0,0,0,0,-1,1385,1646,10.6883,-6.46442
168,-622,12.2402,5.18091,0,0,0,0,0,0,0,-1,1392,1646,12.2403,-5.1809
175,-622,5.64355,-1.77075,0,0,0,0,0,0,0,-1,1399,1646,5.64351,1.77077
182,-622,5.88586,-1.32251,0,0,0,0,0,0,0,-1,1406,1646,5.88587,1.32256
189,-622,5.97986,-1.18005,0,0,0,0,0,0,0,-1,1413,1646,5.97986,1.18003
196,-622,5.85022,-0.244507,0,0,0,0,0,0,0,-1,1420,1646,5.85026,0.244478
203,-622,5.25159,0.138794,0,0,0,0,0,0,0,-1,1427,1646,5.25162,-0.138822
210,-622,6.66833,0.0397949,0,0,0,0,0,0,0,-1,1434,1646,6.6684,-0.0398278
217,-622,6.12061,0.0506592,0,0,0,0,0,0,0,-1,1441,1646,6.12058,-0.0507181
224,-622,5.57275,0.0616455,0,0,0,0,0,0,0,-1,1448,1646,5.57276,-0.0616084
231,-622,5.31348,1.3949,0,0,0,0,0,0,0,-1,1455,1646,5.31342,-1.39495
238,-622,3.76477,2.90686,0,0,0,0,0,0,0,-1,1462,1646,3.7648,-2.90686
245,-622,5.13794,2.67993,0,0,0,0,0,0,0,-1,1469,1646,5.13796,-2.67992
252,-622,6.66528,2.53992,0,0,0,0,0,0,0,-1,1476,1646,6.66522,-2.53991
259,-622,8.93787,3.31458,0,0,0,0,0,0,0,-1,1483,1646,8.93791,-3.31454
266,-622,5.72644,3.11926,0,0,0,0,0,0,0,-1,1490,1646,5.72647,-3.1192
273,-622,7.28076,3.61218,0,0,0,0,0,0,0,-1,1497,1646,7.28071,-3.61212
280,-622,8.43127,4.4447,0,0,0,0,0,0,0,-1,1504,1646,8.43123,-4.44467
287,-622,8.60315,5.94617,0,0,0,0,0,0,0,-1,1511,1646,8.60319,-5.94622
294,-622,7.62756,11.5143,0,0,0,0,0,0,0,-1,1518,1646,7.62762,-11.5143
301,-622,7.36548,11.6569,0,0,0,0,0,0,0,-1,1525,1646,7.36549,-11.6569
308,-622,7.10339,11.7994,0,0,0,0,0,0,0,-1,1532,1646,7.10335,-11.7995
315,-622,6.1366,13.5063,0,0,0,0,0,0,0,-1,1539,1646,6.13658,-13.5064
322,-622,6.44141,15.0499,0,0,0,0,0,0,0,-1,1546,1646,6.44141,-15.05
329,-622,6.59351,15.0702,0,0,0,0,0,0,0,-1,1553,1646,6.59355,-15.0702
336,-622,6.79004,14.7756,0,0,0,0,0,0,0,-1,1560,1646,6.79004,-14.7756
343,-622,6.85803,14.3622,0,0,0,0,0,0,0,-1,1567,1646,6.85804,-14.3621
350,-622,6.79382,14.4672,0,0,0,0,0,0,0,-1,1574,1646,6.79385,-14.4671
357,-622,6.7478,14.3502,0.00247016,-0.0141879,0.0100823,0.00721882,-0.0189366,0.44017,0.0155978,0.0412535,1581,1646,6.74784,-14.3502
364,-622,6.74756,14.1538,0.00131916,-0.0140832,0.00958704,0.00591512,-0.0186791,0.447026,0.0148232,0.0315509,1588,1646,6.74752,-14.1538
371,-622,6.68396,14.0681,0.000206994,-0.0135854,0.00932072,0.00490533,-0.0182838,0.466902,0.0141114,0.0191567,1595,1646,6.68395,-14.0681
378,-622,6.64941,13.9529,-0.000858248,-0.0128224,0.0087679,0.00377388,-0.0174545,0.486035,0.0130771,0.0104611,1602,1646,6.64945,-13.9529
385,-622,6.6283,13.8116,-0.00146232,-0.0117556,0.00801971,0.00292013,-0.0161381,0.500121,0.0118526,0.00908631,1609,1646,6.62831,-13.8116
392,-622,6.64197,13.672,-0.00165403,-0.0101721,0.00709992,0.00236633,-0.0141924,0.515237,0.010341,0.0103153,1616,1646,6.64197,-13.672
399,-622,6.66272,13.5063,-0.00168182,-0.0082616,0.00609159,0.00195149,-0.0118949,0.537804,0.0086541,0.0106318,1623,1646,6.66273,-13.5064
406,-622,6.65588,13.3127,-0.00159553,-0.00640146,0.00506361,0.00160636,-0.00960335,0.563855,0.0069994,0.0137106,1630,1646,6.65591,-13.3128
413,-622,6.66541,13.1567,-0.00136283,-0.00472854,0.00401344,0.00130629,-0.00739766,0.586879,0.00541993,0.014473,1637,1646,6.66535,-13.1568
420,-622,6.6637,13.0155,-0.00104185,-0.00315271,0.00298411,0.00106797,-0.00526254,0.615421,0.00391323,0.0138175,1644,1646,6.6637,-13.0154
427,-622,6.67529,12.8425,-0.000641884,-0.00197363,0.00204331,0.000841314,-0.00345683,0.627884,0.00263023,0.0112734,1651,1646,6.67529,-12.8426
434,-622,6.69922,12.6709,-0.000364411,-0.000726588,0.00112963,0.000598554,-0.00168955,0.705921,0.00137018,0.0117207,1658,1646,6.69921,-12.6709
441,-622,6.70386,12.4811,0.000265903,0.000179264,0.000353004,0.000578236,-0.000133069,0.724345,0.000436659,0.013522,1665,1646,6.70384,-12.4811
448,-622,6.68103,12.3243,0.00125285,0.000605067,-2.43029e-06,0.00125286,0.000605058,-0.00375165,0.000723478,0.0127917,1672,1646,6.68105,-12.3244
455,-622,6.65686,12.1399,0.00203787,0.000839898,-0.000305311,0.00211119,0.000766575,-0.235694,0.00123403,0.0146357,1679,1646,6.65688,-12.1399
462,-622,6.68457,11.9962,0.00293837,0.000956199,-0.000386526,0.00301108,0.000883493,-0.185929,0.00178722,0.0173836,1686,1646,6.68453,-11.9962
469,-622,6.66821,11.8157,0.00394833,0.000995792,-0.000251281,0.00396956,0.000974558,-0.0842989,0.00238874,0.0175822,1693,1646,6.66827,-11.8157
476,-622,6.68213,11.6083,0.0050489,0.00101392,0.000268259,0.00506666,0.00099616,0.0660954,0.00309955,0.0155005,1700,1646,6.68208,-11.6083
483,-622,6.66431,11.3947,0.00643509,0.000956355,0.000913388,0.00658335,0.000808092,0.160919,0.00414587,0.0222342,1707,1646,6.66433,-11.3947
490,-622,6.67566,11.2247,0.00816492,0.000646599,0.00168741,0.00852627,0.000285243,0.210961,0.00559153,0.0306181,1714,1646,6.67571,-11.2247
497,-622,7.12317,11.2195,0.0103119,0.00043369,0.00260669,0.0109576,-0.000211969,0.242806,0.00737672,0.0396731,1721,1646,7.12322,-11.2195
504,-622,7.24158,11.3032,0,0,0,0,0,0,0,-1,1728,1646,7.24157,-11.3032
511,-622,5.29004,4.14587,0,0,0,0,0,0,0,-1,1735,1646,5.29008,-4.14589
518,-622,5.6001,1.55359,0,0,0,0,0,0,0,-1,1742,1646,5.60015,-1.5536
525,-622,5.68213,1.32361,0,0,0,0,0,0,0,-1,1749,1646,5.68209,-1.32361
532,-622,5.44202,0.57373,0,0,0,0,0,0,0,-1,1756,1646,5.44196,-0.573705
539,-622,9.32129,1.06116,0,0,0,0,0,0,0,-1,1763,1646,9.32131,-1.0612
546,-622,6.50977,-3.45618,0,0,0,0,0,0,0,-1,1770,1646,6.50981,3.4562
553,-622,0,0,0,0,0,0,0,0,0,-1,1777,1646,0,0
560,-622,0,0,0,0,0,0,0,0,0,-1,1784,1646,0,0
567,-622,0,0,0,0,0,0,0,0,0,-1,1791,1646,0,0
574,-622,0,0,0,0,0,0,0,0,0,-1,1798,1646,0,0
581,-622,0,0,0,0,0,0,0,0,0,-1,1805,1646,0,0
588,-622,0,0,0,0,0,0,0,0,0,-1,1812,1646,0,0
595,-622,0,0,0,0,0,0,0,0,0,-1,1819,1646,0,0
602,-622,0,0,0,0,0,0,0,0,0,-1,1826,1646,0,0
609,-622,0,0,0,0,0,0,0,0,0,-1,1833,1646,0,0
616,-622,0,0,0,0,0,0,0,0,0,-1,1840,1646,0,0
623,-622,0,0,0,0,0,0,0,0,0,-1,1847,1646,0,0
630,-622,0,0,0,0,0,0,0,0,0,-1,1854,1646,0,0
637,-622,0,0,0,0,0,0,0,0,0,-1,1861,1646,0,0
644,-622,0,0,0,0,0,0,0,0,0,-1,1868,1646,0,0
651,-622,0,0,0,0,0,0,0,0,0,-1,1875,1646,0,0
658,-622,0,0,0,0,0,0,0,0,0,-1,1882,1646,0,0
665,-622,0,0,0,0,0,0,0,0,0,-1,1889,1646,0,0
672,-622,0,0,0,0,0,0,0,0,0,-1,1896,1646,0,0
679,-622,0,0,0,0,0,0,0,0,0,-1,1903,1646,0,0
686,-622,0,0,0,0,0,0,0,0,0,-1,1910,1646,0,0
693,-622,0,0,0,0,0,0,0,0,0,-1,1917,1646,0,0
700,-622,0,0,0,0,0,0,0,0,0,-1,1924,1646,0,0
707,-622,0,0,0,0,0,0,0,0,0,-1,1931,1646,0,0
714,-622,0,0,0,0,0,0,0,0,0,-1,1938,1646,0,0
721,-622,0,0,0,0,0,0,0,0,0,-1,1945,1646,0,0
728,-622,0,0,0,0,0,0,0,0,0,-1,1952,1646,0,0
735,-622,0,0,0,0,0,0,0,0,0,-1,1959,1646,0,0
742,-622,0,0,0,0,0,0,0,0,0,-1,1966,1646,0,0
749,-622,0,0,0,0,0,0,0,0,0,-1,1973,1646,0,0
756,-622,0,0,0,0,0,0,0,0,0,-1,1980,1646,0,0
763,-622,0,0,0,0,0,0,0,0,0,-1,1987,1646,0,0
770,-622,0,0,0,0,0,0,0,0,0,-1,1994,1646,0,0
777,-622,0,0,0,0,0,0,0,0,0,-1,2001,1646,0,0
784,-622,0,0,0,0,0,0,0,0,0,-1,2008,1646,0,0
791,-622,0,0,0,0,0,0,0,0,0,-1,2015,1646,0,0
798,-622,0,0,0,0,0,0,0,0,0,-1,2022,1646,0,0
805,-622,0,0,0,0,0,0,0,0,0,-1,2029,1646,0,0
812,-622,0,0,0,0,0,0,0,0,0,-1,2036,1646,0,0
-700,-629,0,0,0,0,0,0,0,0,0,-1,524,1653,0,0
-693,-629,0,0,0,0,0,0,0,0,0,-1,531,1653,0,0
-686,-629,0,0,0,0,0,0,0,0,0,-1,538,1653,0,0
-679,-629,0,0,0,0,0,0,0,0,0,-1,545,1653,0,0
-672,-629,0,0,0,0,0,0,0,0,0,-1,552,1653,0,0
-665,-629,0,0,0,0,0,0,0,0,0,-1,559,1653,0,0
-658,-629,0,0,0,0,0,0,0,0,0,-1,566,1653,0,0
-651,-629,0,0,0,0,0,0,0,0,0,-1,573,1653,0,0
-644,-629,0,0,0,0,0,0,0,0,0,-1,580,1653,0,0
-637,-629,0,0,0,0,0,0,0,0,0,-1,587,1653,0,0
-630,-629,0,0,0,0,0,0,0,0,0,-1,594,1653,0,0
-623,-629,0,0,0,0,0,0,0,0,0,-1,601,1653,0,0
-616,-629,0,0,0,0,0,0,0,0,0,-1,608,1653,0,0
-609,-629,0,0,0,0,0,0,0,0,0,-1,615,1653,0,0
-602,-629,0,0,0,0,0,0,0,0,0,-1,622,1653,0,0
-595,-629,0,0,0,0,0,0,0,0,0,-1,629,1653,0,0
-588,-629,0,0,0,0,0,0,0,0,0,-1,636,1653,0,0
-581,-629,0,0,0,0,0,0,0,0,0,-1,643,1653,0,0
-574,-629,0,0,0,0,0,0,0,0,0,-1,650,1653,0,0
-567,-629,0,0,0,0,0,0,0,0,0,-1,657,1653,0,0
-560,-629,0,0,0,0,0,0,0,0,0,-1,664,1653,0,0
-553,-629,0,0,0,0,0,0,0,0,0,-1,671,1653,0,0
-546,-629,0,0,0,0,0,0,0,0,0,-1,678,1653,0,0
-539,-629,0,0,0,0,0,0,0,0,0,-1,685,1653,0,0
-532,-629,0,0,0,0,0,0,0,0,0,-1,692,1653,0,0
-525,-629,0,0,0,0,0,0,0,0,0,-1,699,1653,0,0
-518,-629,0,0,0,0,0,0,0,0,0,-1,706,1653,0,0
-511,-629,0,0,0,0,0,0,0,0,0,-1,713,1653,0,0
-504,-629,0,0,0,0,0,0,0,0,0,-1,720,1653,0,0
-497,-629,0,0,0,0,0,0,0,0,0,-1,727,1653,0,0
-490,-629,0,0,0,0,0,0,0,0,0,-1,734,1653,0,0
-483,-629,0,0,0,0,0,0,0,0,0,-1,741,1653,0,0
-476,-629,0,0,0,0,0,0,0,0,0,-1,748,1653,0,0
-469,-629,0,0,0,0,0,0,0,0,0,-1,755,1653,0,0
-462,-629,0,0,0,0,0,0,0,0,0,-1,762,1653,0,0
-455,-629,0,0,0,0,0,0,0,0,0,-1,769,1653,0,0
-448,-629,0,0,0,0,0,0,0,0,0,-1,776,1653,0,0
-441,-629,0,0,0,0,0,0,0,0,0,-1,783,1653,0,0
-434,-629,0,0,0,0,0,0,0,0,0,-1,790,1653,0,0
-427,-629,0,0,0,0,0,0,0,0,0,-1,797,1653,0,0
-420,-629,-3.87103,3.37634,0,0,0,0,0,0,0,-1,804,1653,-3.87101,-3.37633
-413,-629,-5.69751,1.33582,0,0,0,0,0,0,0,-1,811,1653,-5.69754,-1.3358
-406,-629,2.85406,6.01501,0,0,0,0,0,0,0,-1,818,1653,2.85405,-6.01507
-399,-629,3.37085,6.61816,0,0,0,0,0,0,0,-1,825,1653,3.37087,-6.61822
-392,-629,3.80743,7.15393,0,0,0,0,0,0,0,-1,832,1653,3.80741,-7.15391
-385,-629,4.31525,7.66785,0,0,0,0,0,0,0,-1,839,1653,4.31525,-7.6679
-378,-629,4.29962,8.28577,0,0,0,0,0,0,0,-1,846,1653,4.29962,-8.28577
-371,-629,3.28503,9.20544,0,0,0,0,0,0,0,-1,853,1653,3.28502,-9.2054
-364,-629,2.87762,9.81152,0,0,0,0,0,0,0,-1,860,1653,2.87763,-9.81147
-357,-629,2.60779,10.2452,0,0,0,0,0,0,0,-1,867,1653,2.60781,-10.2452
-350,-629,2.57324,10.7411,0.00596129,-0.00765892,-0.000326751,0.00596912,-0.00766675,-0.0239718,0.00789299,0.047943,874,1653,2.57322,-10.7411
-343,-629,2.88995,10.7023,0.00565522,-0.00443356,0.000366843,0.00566854,-0.00444689,0.0362976,0.00585433,0.040856,881,1653,2.88995,-10.7023
-336,-629,3.00897,10.6919,0.00534227,-0.00190035,0.000718091,0.00541278,-0.00197086,0.0978782,0.00441464,0.0178162,888,1653,3.00896,-10.6919
-329,-629,3.02118,10.9033,0.00478821,-9.36042e-05,0.000800469,0.00491611,-0.000221506,0.158444,0.00335368,0.0113229,895,1653,3.0212,-10.9033
-322,-629,3.0285,11.1002,0.00410781,0.00139719,0.00098855,0.00443003,0.00107498,0.31509,0.00266821,0.011189,902,1653,3.0285,-11.1003
-315,-629,3.00134,11.3026,0.00334526,0.00177451,0.000899703,0.00375415,0.00136561,0.426571,0.00219412,0.0142377,909,1653,3.00134,-11.3026
-308,-629,3.00671,11.5082,0.00266496,0.00172038,0.000522965,0.00289733,0.00148801,0.418134,0.00167298,0.011665,916,1653,3.0067,-11.5082
-301,-629,3.02417,11.7024,0.00198774,0.00151975,0.000230884,0.00208247,0.00142502,0.389351,0.00122924,0.0106868,923,1653,3.02418,-11.7023
-294,-629,3.00836,11.871,0.00138414,0.00138079,0.000133714,0.00151619,0.00124874,0.779123,0.000934488,0.0113315,930,1653,3.00835,-11.871
-287,-629,3.01215,12.047,0.00105191,0.00103348,0.000188566,0.00123149,0.000853905,0.760974,0.000728512,0.0088927,937,1653,3.01217,-12.0471
-280,-629,3.00616,12.2345,0.00094634,0.000616322,0.000261976,0.00109094,0.00047172,0.504353,0.000631772,0.00958836,944,1653,3.00618,-12.2345
-273,-629,3.00037,12.4132,0.00101961,0.000214244,0.000334424,0.00114037,9.34836e-05,0.346529,0.00073108,0.0126661,951,1653,3.00039,-12.4132
-266,-629,2.995,12.6217,0.0011568,-0.000202562,0.0005517,0.00135253,-0.000398289,0.340918,0.0010597,0.0131575,958,1653,2.995,-12.6218
-259,-629,2.99109,12.8433,0.00137755,-0.000801262,0.000658192,0.00156094,-0.000984657,0.271742,0.0014822,0.0145409,965,1653,2.9911,-12.8433
-252,-629,3.00165,12.993,0.00168489,-0.00172548,0.000795869,0.00186148,-0.00190207,0.218342,0.00217292,0.0112151,972,1653,3.00164,-12.993
-245,-629,3.03363,13.1414,0.000981162,-0.0027742,0.00154408,0.0015345,-0.00332754,0.344106,0.00287002,0.00834246,979,1653,3.03362,-13.1414
-238,-629,3.03113,13.3102,-0.000501646,-0.00445607,0.00224681,0.00051405,-0.00547177,0.424567,0.00383071,0.0101739,986,1653,3.03114,-13.3102
-231,-629,3.01819,13.468,-0.00160988,-0.00627526,0.00292215,-0.00020354,-0.00768161,0.448553,0.00505459,0.0101697,993,1653,3.01819,-13.468
-224,-629,3.06207,13.645,-0.00306237,-0.00841213,0.00387991,-0.00102465,-0.0104499,0.483604,0.00665138,0.0103665,1000,1653,3.06209,-13.645
-217,-629,3.08441,13.7858,-0.00520212,-0.0109481,0.00499835,-0.00230991,-0.0138403,0.52456,0.00856143,0.01493,1007,1653,3.08438,-13.7857
-210,-629,3.08032,13.8649,-0.00771457,-0.0137282,0.0063347,-0.00370931,-0.0177335,0.563813,0.0108003,0.029822,1014,1653,3.08031,-13.8649
-203,-629,2.95972,13.922,-0.0104834,-0.0164107,0.0077779,-0.00512364,-0.0217704,0.603371,0.013143,0.039903,1021,1653,2.95971,-13.922
-196,-629,3.05872,13.9717,-0.0132822,-0.01906,0.00919972,-0.00652847,-0.0258138,0.633264,0.0154983,0.0398472,1028,1653,3.05869,-13.9717
-189,-629,2.72974,14.0879,-0.0160584,-0.0217966,0.0104961,-0.00804637,-0.0298087,0.651982,0.017807,0.0418937,1035,1653,2.72979,-14.0879
-182,-629,3.19946,14.2743,0,0,0,0,0,0,0,-1,1042,1653,3.19942,-14.2743
-175,-629,3.69482,14.6921,0,0,0,0,0,0,0,-1,1049,1653,3.6948,-14.6922
-168,-629,2.4762,16.0846,0,0,0,0,0,0,0,-1,1056,1653,2.4762,-16.0846
-161,-629,2.29956,14.7968,0,0,0,0,0,0,0,-1,1063,1653,2.2996,-14.7968
-154,-629,2.0813,13.5175,0,0,0,0,0,0,0,-1,1070,1653,2.08132,-13.5174
-147,-629,1.86353,12.248,0,0,0,0,0,0,0,-1,1077,1653,1.86353,-12.248
-140,-629,3.36853,13.7708,0,0,0,0,0,0,0,-1,1084,1653,3.36847,-13.7707
-133,-629,3.68933,15.5042,0,0,0,0,0,0,0,-1,1091,1653,3.68937,-15.5042
-126,-629,2.69519,10.2487,0,0,0,0,0,0,0,-1,1098,1653,2.69515,-10.2486
-119,-629,4.94177,13.5525,0,0,0,0,0,0,0,-1,1105,1653,4.94172,-13.5525
-112,-629,5.63123,15.9187,0,0,0,0,0,0,0,-1,1112,1653,5.63118,-15.9187
-105,-629,2.15881,4.38342,0,0,0,0,0,0,0,-1,1119,1653,2.15878,-4.38347
-98,-629,0.825806,4.19385,0,0,0,0,0,0,0,-1,1126,1653,0.825779,-4.1939
-91,-629,-0.452271,3.64465,0,0,0,0,0,0,0,-1,1133,1653,-0.452278,-3.6446
-84,-629,-2.6084,0.466797,0,0,0,0,0,0,0,-1,1140,1653,-2.6084,-0.466786
-77,-629,-3.50903,2.10706,0,0,0,0,0,0,0,-1,1147,1653,-3.509,-2.10707
-70,-629,-1.20886,2.52502,0,0,0,0,0,0,0,-1,1154,1653,-1.20886,-2.525
-63,-629,-0.960693,4.30212,0,0,0,0,0,0,0,-1,1161,1653,-0.960691,-4.30215
-56,-629,-1.31934,5.64343,0,0,0,0,0,0,0,-1,1168,1653,-1.31928,-5.6434
-49,-629,-2.15662,2.57458,0,0,0,0,0,0,0,-1,1175,1653,-2.15656,-2.57459
-42,-629,-2.46326,3.91467,0,0,0,0,0,0,0,-1,1182,1653,-2.4633,-3.91466
-35,-629,-2.67261,5.24292,0,0,0,0,0,0,0,-1,1189,1653,-2.67257,-5.24298
-28,-629,-0.402954,-0.866577,0,0,0,0,0,0,0,-1,1196,1653,-0.402943,0.866612
-21,-629,10.063,9.59705,0,0,0,0,0,0,0,-1,1203,1653,10.063,-9.59708
-14,-629,3.80591,22.7656,0,0,0,0,0,0,0,-1,1210,1653,3.80596,-22.7657
-7,-629,3.74707,22.1599,0,0,0,0,0,0,0,-1,1217,1653,3.74701,-22.16
0,-629,3.43176,22.7882,0,0,0,0,0,0,0,-1,1224,1653,3.43182,-22.7882
7,-629,3.92651,22.1239,0.0686725,0.229771,-0.124073,0.297148,0.00129533,-1.07331,0.197668,0.0473328,1231,1653,3.92647,-22.1239
14,-629,4.42834,21.4496,0.0708064,0.219568,-0.115287,0.282386,0.00798829,-1.07189,0.185652,0.0455017,1238,1653,4.42834,-21.4496
21,-629,4.87024,20.8788,0.0703717,0.208164,-0.106652,0.266238,0.0122978,-1.07217,0.173538,0.0479944,1245,1653,4.87024,-20.8788
28,-629,5.29773,20.1021,0,0,0,0,0,0,0,-1,1252,1653,5.29771,-20.102
35,-629,5.86169,18.9915,0.0553245,0.194392,-0.0906249,0.239086,0.0106312,-1.11263,0.155967,0.0435491,1259,1653,5.86174,-18.9914
42,-629,6.68408,18.2485,0,0,0,0,0,0,0,-1,1266,1653,6.68412,-18.2485
49,-629,7.37976,17.6533,0,0,0,0,0,0,0,-1,1273,1653,7.37981,-17.6533
56,-629,8.2522,16.7638,0,0,0,0,0,0,0,-1,1280,1653,8.25222,-16.7638
63,-629,6.32983,15.8922,0,0,0,0,0,0,0,-1,1287,1653,6.32978,-15.8923
70,-629,6.2594,15.5908,0,0,0,0,0,0,0,-1,1294,1653,6.25938,-15.5909
77,-629,2.78235,21.0398,0,0,0,0,0,0,0,-1,1301,1653,2.78233,-21.0398
84,-629,2.58557,19.5864,0,0,0,0,0,0,0,-1,1308,1653,2.58553,-19.5864
91,-629,2.38892,18.0779,0,0,0,0,0,0,0,-1,1315,1653,2.38888,-18.0778
98,-629,2.15869,16.7755,0,0,0,0,0,0,0,-1,1322,1653,2.15874,-16.7755
105,-629,14.849,-0.49231,0,0,0,0,0,0,0,-1,1329,1653,14.849,0.492305
112,-629,14.1968,-0.154419,0,0,0,0,0,0,0,-1,1336,1653,14.1968,0.154439
119,-629,11.3638,1.78699,0,0,0,0,0,0,0,-1,1343,1653,11.3637,-1.78693
126,-629,12.4465,1.27295,0,0,0,0,0,0,0,-1,1350,1653,12.4465,-1.27292
133,-629,13.5002,0.656494,0.0241479,0.316161,-0.158215,0.385445,-0.0451361,-1.15804,0.273254,0.0484557,1357,1653,13.5002,-0.656507
140,-629,13.9657,0.336548,0.0343363,0.334472,-0.1571,0.401662,-0.0328529,-1.16665,0.27937,0.0475874,1364,1653,13.9657,-0.336543
147,-629,14.495,0.170044,0,0,0,0,0,0,0,-1,1371,1653,14.495,-0.170052
154,-629,18.5643,-3.15576,0,0,0,0,0,0,0,-1,1378,1653,18.5643,3.15579
161,-629,10.5461,6.83752,0,0,0,0,0,0,0,-1,1385,1653,10.5461,-6.83758
168,-629,12.0059,5.56348,0,0,0,0,0,0,0,-1,1392,1653,12.0059,-5.56352
175,-629,5.84485,-1.78845,0,0,0,0,0,0,0,-1,1399,1653,5.84479,1.7884
182,-629,5.99036,-1.27783,0,0,0,0,0,0,0,-1,1406,1653,5.99041,1.27778
189,-629,5.97668,-0.748535,0,0,0,0,0,0,0,-1,1413,1653,5.97671,0.748544
196,-629,4.52869,9.24695,0,0,0,0,0,0,0,-1,1420,1653,4.52869,-9.2469
203,-629,3.75085,6.88037,0,0,0,0,0,0,0,-1,1427,1653,3.75087,-6.88032
210,-629,3.5907,6.52637,0,0,0,0,0,0,0,-1,1434,1653,3.59067,-6.52642
217,-629,2.4585,4.84448,0,0,0,0,0,0,0,-1,1441,1653,2.45855,-4.84448
224,-629,1.31982,3.68481,0,0,0,0,0,0,0,-1,1448,1653,1.31986,-3.68487
231,-629,3.63025,1.73499,0,0,0,0,0,0,0,-1,1455,1653,3.6303,-1.735
238,-629,4.26428,2.11255,0,0,0,0,0,0,0,-1,1462,1653,4.26429,-2.11253
245,-629,5.61816,1.95361,0,0,0,0,0,0,0,-1,1469,1653,5.61815,-1.95359
252,-629,7.27136,2.18982,0,0,0,0,0,0,0,-1,1476,1653,7.27131,-2.18985
259,-629,8.67334,2.18628,0,0,0,0,0,0,0,-1,1483,1653,8.6733,-2.18633
266,-629,6.86475,3.72058,0,0,0,0,0,0,0,-1,1490,1653,6.86479,-3.72063
273,-629,7.9021,3.8717,0,0,0,0,0,0,0,-1,1497,1653,7.90205,-3.87171
280,-629,9.70837,4.39087,0,0,0,0,0,0,0,-1,1504,1653,9.7084,-4.39082
287,-629,9.82947,7.19348,0,0,0,0,0,0,0,-1,1511,1653,9.8295,-7.19347
294,-629,6.56555,11.6359,0,0,0,0,0,0,0,-1,1518,1653,6.5656,-11.6358
301,-629,6.92834,14.6387,0,0,0,0,0,0,0,-1,1525,1653,6.9283,-14.6387
308,-629,6.08264,12.1423,0,0,0,0,0,0,0,-1,1532,1653,6.08263,-12.1423
315,-629,6.14087,14.8516,0,0,0,0,0,0,0,-1,1539,1653,6.14085,-14.8516
322,-629,6.26868,14.8688,0.00641342,-0.00745011,0.00954312,0.0112766,-0.0123133,0.471298,0.013624,0.0486016,1546,1653,6.26869,-14.8687
329,-629,6.40637,14.8701,0.00641223,-0.00815732,0.00860059,0.0103986,-0.0121437,0.434021,0.0130278,0.0396023,1553,1653,6.40631,-14.8701
336,-629,6.5481,14.7466,0.00531634,-0.00902099,0.00855424,0.00930854,-0.0130132,0.436648,0.0129465,0.0391591,1560,1653,6.54813,-14.7466
343,-629,6.5625,14.5073,0.00380072,-0.00953615,0.00814811,0.00766128,-0.0133967,0.442467,0.0123072,0.0383433,1567,1653,6.56255,-14.5073
350,-629,6.52795,14.4294,0.00276523,-0.00962661,0.00774932,0.00649108,-0.0133525,0.448167,0.0116827,0.024997,1574,1653,6.52794,-14.4295
357,-629,6.51587,14.3385,0.00200201,-0.00948327,0.00719534,0.00546539,-0.0129467,0.448606,0.0109188,0.0149413,1581,1653,6.51589,-14.3385
364,-629,6.4895,14.2098,0.00114759,-0.00955764,0.00684766,0.0044864,-0.0128965,0.453666,0.0104202,0.0129247,1588,1653,6.48947,-14.2098
371,-629,6.48254,14.0817,0.000356762,-0.00927332,0.00658299,0.00369772,-0.0126143,0.469641,0.00987561,0.0104996,1595,1653,6.4826,-14.0817
378,-629,6.47852,13.9453,-0.000404396,-0.00873545,0.00610274,0.00281892,-0.0119588,0.485933,0.00905954,0.00984463,1602,1653,6.47854,-13.9453
385,-629,6.48401,13.8168,-0.000800486,-0.00788442,0.00542902,0.00213981,-0.0108247,0.496363,0.00802541,0.0118082,1609,1653,6.48401,-13.8168
392,-629,6.48547,13.6696,-0.000893318,-0.00659475,0.00459929,0.00166707,-0.00915514,0.507966,0.00672831,0.0106122,1616,1653,6.48551,-13.6695
399,-629,6.48975,13.5072,-0.000878747,-0.00501561,0.0037227,0.00131156,-0.00720592,0.531822,0.00529555,0.0110616,1623,1653,6.48974,-13.5072
406,-629,6.49622,13.3262,-0.000756216,-0.00346313,0.00284342,0.00103943,-0.00525878,0.563268,0.00389879,0.0145596,1630,1653,6.49618,-13.3262
413,-629,6.48889,13.1697,-0.000477456,-0.00203293,0.00190581,0.000803203,-0.00331359,0.591669,0.00251983,0.0223997,1637,1653,6.48884,-13.1697
420,-629,6.47131,13.0394,-0.00017096,-0.000672783,0.00102574,0.000634115,-0.00147786,0.665446,0.00125136,0.0201283,1644,1653,6.4713,-13.0394
427,-629,6.49524,12.8602,0.000190388,0.000293233,0.000252426,0.000499421,-1.58002e-05,0.88588,0.000338337,0.0125571,1651,1653,6.49521,-12.8602
434,-629,6.50867,12.683,0.000487475,0.00124931,-0.000490737,0.00148962,0.000247167,-1.11543,0.000921804,0.00964039,1658,1653,6.50867,-12.683
441,-629,6.53479,12.5118,0.00108994,0.00188902,-0.00103277,0.00259683,0.000382118,-0.969963,0.00161895,0.0135975,1665,1653,6.53485,-12.5119
448,-629,6.51355,12.3279,0.00208628,0.00209996,-0.00115476,0.0032479,0.000938343,-0.788358,0.00193008,0.0135971,1672,1653,6.51356,-12.3278
455,-629,6.48413,12.1321,0.00292862,0.00214019,-0.00122609,0.00382231,0.0012465,-0.629857,0.00225086,0.0140019,1679,1653,6.48417,-12.1321
462,-629,6.51794,11.9902,0.00393679,0.00201678,-0.00103489,0.00438838,0.00156518,-0.411459,0.0025681,0.0185947,1686,1653,6.51797,-11.9902
469,-629,6.50928,11.7939,0.00512997,0.00172975,-0.000576967,0.0052252,0.00163451,-0.163587,0.00308644,0.0211671,1693,1653,6.50929,-11.794
476,-629,6.53992,11.6454,0.00652313,0.00157499,0.000312176,0.00654274,0.00155537,0.0627578,0.00394689,0.025621,1700,1653,6.53994,-11.6453
483,-629,6.48999,11.379,0.0083193,0.00140023,0.00135995,0.008577,0.00114253,0.187272,0.00537776,0.0357775,1707,1653,6.48999,-11.3791
490,-629,6.43201,11.1041,0.0105827,0.00100007,0.00260599,0.0112455,0.000337223,0.249074,0.00738719,0.0423389,1714,1653,6.43204,-11.1041
497,-629,6.56641,11.1517,0.0135482,0.000583742,0.00410911,0.0147409,-0.000608929,0.282488,0.0100364,0.0453926,1721,1653,6.56644,-11.1517
504,-629,6.73987,11.4387,0,0,0,0,0,0,0,-1,1728,1653,6.73986,-11.4387
511,-629,6.29138,3.40295,0,0,0,0,0,0,0,-1,1735,1653,6.29137,-3.403
518,-629,5.84387,1.41858,0,0,0,0,0,0,0,-1,1742,1653,5.84391,-1.4186
525,-629,6.4729,1.02319,0,0,0,0,0,0,0,-1,1749,1653,6.47284,-1.02316
532,-629,6.86511,0.903687,0,0,0,0,0,0,0,-1,1756,1653,6.86514,-0.903691
539,-629,6.60803,0.746704,0,0,0,0,0,0,0,-1,1763,1653,6.60809,-0.746691
546,-629,0,0,0,0,0,0,0,0,0,-1,1770,1653,0,0
553,-629,0,0,0,0,0,0,0,0,0,-1,1777,1653,0,0
560,-629,0,0,0,0,0,0,0,0,0,-1,1784,1653,0,0
567,-629,0,0,0,0,0,0,0,0,0,-1,1791,1653,0,0
574,-629,0,0,0,0,0,0,0,0,0,-1,1798,1653,0,0
581,-629,0,0,0,0,0,0,0,0,0,-1,1805,1653,0,0
588,-629,0,0,0,0,0,0,0,0,0,-1,1812,1653,0,0
595,-629,0,0,0,0,0,0,0,0,0,-1,1819,1653,0,0
602,-629,0,0,0,0,0,0,0,0,0,-1,1826,1653,0,0
609,-629,0,0,0,0,0,0,0,0,0,-1,1833,1653,0,0
616,-629,0,0,0,0,0,0,0,0,0,-1,1840,1653,0,0
623,-629,0,0,0,0,0,0,0,0,0,-1,1847,1653,0,0
630,-629,0,0,0,0,0,0,0,0,0,-1,1854,1653,0,0
637,-629,0,0,0,0,0,0,0,0,0,-1,1861,1653,0,0
644,-629,0,0,0,0,0,0,0,0,0,-1,1868,1653,0,0
651,-629,0,0,0,0,0,0,0,0,0,-1,1875,1653,0,0
658,-629,0,0,0,0,0,0,0,0,0,-1,1882,1653,0,0
665,-629,0,0,0,0,0,0,0,0,0,-1,1889,1653,0,0
672,-629,0,0,0,0,0,0,0,0,0,-1,1896,1653,0,0
679,-629,0,0,0,0,0,0,0,0,0,-1,1903,1653,0,0
686,-629,0,0,0,0,0,0,0,0,0,-1,1910,1653,0,0
693,-629,0,0,0,0,0,0,0,0,0,-1,1917,1653,0,0
700,-629,0,0,0,0,0,0,0,0,0,-1,1924,1653,0,0
707,-629,0,0,0,0,0,0,0,0,0,-1,1931,1653,0,0
714,-629,0,0,0,0,0,0,0,0,0,-1,1938,1653,0,0
721,-629,0,0,0,0,0,0,0,0,0,-1,1945,1653,0,0
728,-629,0,0,0,0,0,0,0,0,0,-1,1952,1653,0,0
735,-629,0,0,0,0,0,0,0,0,0,-1,1959,1653,0,0
742,-629,0,0,0,0,0,0,0,0,0,-1,1966,1653,0,0
749,-629,0,0,0,0,0,0,0,0,0,-1,1973,1653,0,0
756,-629,0,0,0,0,0,0,0,0,0,-1,1980,1653,0,0
763,-629,0,0,0,0,0,0,0,0,0,-1,1987,1653,0,0
770,-629,0,0,0,0,0,0,0,0,0,-1,1994,1653,0,0
777,-629,0,0,0,0,0,0,0,0,0,-1,2001,1653,0,0
784,-629,0,0,0,0,0,0,0,0,0,-1,2008,1653,0,0
791,-629,0,0,0,0,0,0,0,0,0,-1,2015,1653,0,0
798,-629,0,0,0,0,0,0,0,0,0,-1,2022,1653,0,0
805,-629,0,0,0,0,0,0,0,0,0,-1,2029,1653,0,0
812,-629,0,0,0,0,0,0,0,0,0,-1,2036,1653,0,0
-700,-636,0,0,0,0,0,0,0,0,0,-1,524,1660,0,0
-693,-636,0,0,0,0,0,0,0,0,0,-1,531,1660,0,0
-686,-636,0,0,0,0,0,0,0,0,0,-1,538,1660,0,0
-679,-636,0,0,0,0,0,0,0,0,0,-1,545,1660,0,0
-672,-636,0,0,0,0,0,0,0,0,0,-1,552,1660,0,0
-665,-636,0,0,0,0,0,0,0,0,0,-1,559,1660,0,0
-658,-636,0,0,0,0,0,0,0,0,0,-1,566,1660,0,0
-651,-636,0,0,0,0,0,0,0,0,0,-1,573,1660,0,0
-644,-636,0,0,0,0,0,0,0,0,0,-1,580,1660,0,0
-637,-636,0,0,0,0,0,0,0,0,0,-1,587,1660,0,0
-630,-636,0,0,0,0,0,0,0,0,0,-1,594,1660,0,0
-623,-636,0,0,0,0,0,0,0,0,0,-1,601,1660,0,0
-616,-636,0,0,0,0,0,0,0,0,0,-1,608,1660,0,0
-609,-636,0,0,0,0,0,0,0,0,0,-1,615,1660,0,0
-602,-636,0,0,0,0,0,0,0,0,0,-1,622,1660,0,0
-595,-636,0,0,0,0,0,0,0,0,0,-1,629,1660,0,0
-588,-636,0,0,0,0,0,0,0,0,0,-1,636,1660,0,0
-581,-636,0,0,0,0,0,0,0,0,0,-1,643,1660,0,0
-574,-636,0,0,0,0,0,0,0,0,0,-1,650,1660,0,0
-567,-636,0,0,0,0,0,0,0,0,0,-1,657,1660,0,0
-560,-636,0,0,0,0,0,0,0,0,0,-1,664,1660,0,0
-553,-636,0,0,0,0,0,0,0,0,0,-1,671,1660,0,0
-546,-636,0,0,0,0,0,0,0,0,0,-1,678,1660,0,0
-539,-636,0,0,0,0,0,0,0,0,0,-1,685,1660,0,0
-532,-636,0,0,0,0,0,0,0,0,0,-1,692,1660,0,0
-525,-636,0,0,0,0,0,0,0,0,0,-1,699,1660,0,0
-518,-636,0,0,0,0,0,0,0,0,0,-1,706,1660,0,0
-511,-636,0,0,0,0,0,0,0,0,0,-1,713,1660,0,0
-504,-636,0,0,0,0,0,0,0,0,0,-1,720,1660,0,0
-497,-636,0,0,0,0,0,0,0,0,0,-1,727,1660,0,0
-490,-636,0,0,0,0,0,0,0,0,0,-1,734,1660,0,0
-483,-636,0,0,0,0,0,0,0,0,0,-1,741,1660,0,0
-476,-636,0,0,0,0,0,0,0,0,0,-1,748,1660,0,0
-469,-636,0,0,0,0,0,0,0,0,0,-1,755,1660,0,0
-462,-636,0,0,0,0,0,0,0,0,0,-1,762,1660,0,0
-455,-636,0,0,0,0,0,0,0,0,0,-1,769,1660,0,0
-448,-636,0,0,0,0,0,0,0,0,0,-1,776,1660,0,0
-441,-636,0,0,0,0,0,0,0,0,0,-1,783,1660,0,0
-434,-636,0,0,0,0,0,0,0,0,0,-1,790,1660,0,0
-427,-636,0,0,0,0,0,0,0,0,0,-1,797,1660,0,0
-420,-636,0,0,0,0,0,0,0,0,0,-1,804,1660,0,0
-413,-636,0,0,0,0,0,0,0,0,0,-1,811,1660,0,0
-406,-636,3.46503,5.84583,0,0,0,0,0,0,0,-1,818,1660,3.46501,-5.84583
-399,-636,3.95544,6.48499,0,0,0,0,0,0,0,-1,825,1660,3.95546,-6.48502
-392,-636,4.35114,7.07495,0,0,0,0,0,0,0,-1,832,1660,4.35115,-7.07492
-385,-636,4.50122,7.78625,0,0,0,0,0,0,0,-1,839,1660,4.50125,-7.78625
-378,-636,4.69141,9.34131,0,0,0,0,0,0,0,-1,846,1660,4.69143,-9.34136
-371,-636,5.07294,9.22888,0,0,0,0,0,0,0,-1,853,1660,5.07297,-9.2289
-364,-636,0.869751,10.2457,0,0,0,0,0,0,0,-1,860,1660,0.869734,-10.2458
-357,-636,1.55328,10.0951,0,0,0,0,0,0,0,-1,867,1660,1.55329,-10.0951
-350,-636,2.56177,10.9192,0,0,0,0,0,0,0,-1,874,1660,2.56175,-10.9192
-343,-636,2.97839,10.6199,0,0,0,0,0,0,0,-1,881,1660,2.97842,-10.6199
-336,-636,3.1012,10.7816,0.00770153,-0.00110838,0.00108337,0.0078328,-0.00123965,0.120579,0.00568035,0.0346606,888,1660,3.10117,-10.7816
-329,-636,3.19934,10.9298,0.00665935,0.000901432,0.00105447,0.00684639,0.000714398,0.175547,0.00434574,0.0175519,895,1660,3.19931,-10.9298
-322,-636,3.22552,11.1045,0.00550746,0.00247861,0.00115812,0.00589953,0.00208653,0.32643,0.00345437,0.0107097,902,1660,3.22556,-11.1045
-315,-636,3.18384,11.3057,0.00431597,0.00283534,0.000969726,0.00479567,0.00235564,0.459379,0.00276892,0.0115461,909,1660,3.18383,-11.3057
-308,-636,3.18823,11.5043,0.00327469,0.00274092,0.000533476,0.00360432,0.0024113,0.553464,0.00212021,0.0112775,916,1660,3.18826,-11.5043
-301,-636,3.20032,11.6884,0.0022955,0.00248311,0.000183502,0.0025954,0.00218322,1.02168,0.00161055,0.0110446,923,1660,3.20034,-11.6883
-294,-636,3.19281,11.8944,0.0014371,0.0022349,2.15391e-05,0.00223548,0.00143652,1.54382,0.00130803,0.013922,930,1660,3.19283,-11.8945
-287,-636,3.17896,12.0626,0.000910665,0.00177812,3.29632e-05,0.00177937,0.000909414,1.53287,0.0010274,0.0119322,937,1660,3.17893,-12.0626
-280,-636,3.17413,12.2434,0.000657857,0.00127462,6.52364e-05,0.00128144,0.000651032,1.46656,0.000739872,0.0111816,944,1660,3.17411,-12.2434
-273,-636,3.18683,12.4271,0.000594212,0.000789804,6.63858e-05,0.000810207,0.000573809,1.27261,0.000481105,0.0117505,951,1660,3.18685,-12.4271
-266,-636,3.19275,12.6256,0.000613566,0.000307564,0.000255571,0.000758434,0.000162697,0.51568,0.00046106,0.0130597,958,1660,3.19274,-12.6257
-259,-636,3.17999,12.8278,0.000762375,-0.000389271,0.000380637,0.00087681,-0.000503706,0.292045,0.000806686,0.0148466,965,1660,3.18001,-12.8278
-252,-636,3.17877,12.9729,0.00104542,-0.00117812,0.000452115,0.00113384,-0.00126654,0.193118,0.00138656,0.0114407,972,1660,3.17875,-12.9729
-245,-636,3.21338,13.1626,0.000672129,-0.00197814,0.000987715,0.000999737,-0.00230575,0.320265,0.00195745,0.0106098,979,1660,3.21339,-13.1626
-238,-636,3.22479,13.3224,-0.000245567,-0.00331855,0.00143267,0.00031874,-0.00388286,0.375223,0.00270109,0.0119912,986,1660,3.22481,-13.3224
-231,-636,3.20386,13.4744,-0.000899358,-0.00477191,0.00183428,-0.000168471,-0.00550279,0.379177,0.00361368,0.0108113,993,1660,3.20389,-13.4743
-224,-636,3.21045,13.6378,-0.00174081,-0.00639703,0.00246066,-0.000681449,-0.00745638,0.406535,0.00476006,0.00829041,1000,1660,3.21045,-13.6378
-217,-636,3.21722,13.8085,-0.00306146,-0.00828536,0.00314008,-0.001589,-0.00975781,0.438479,0.00604556,0.0097654,1007,1660,3.21723,-13.8085
-210,-636,3.23981,13.9485,-0.00461803,-0.0103714,0.00394872,-0.00260925,-0.0123801,0.470597,0.00753579,0.0141413,1014,1660,3.2398,-13.9485
-203,-636,3.26794,14.0723,-0.00630139,-0.0123161,0.00480414,-0.00364094,-0.0149765,0.505743,0.0090191,0.0178959,1021,1660,3.268,-14.0723
-196,-636,3.33105,14.1788,-0.00798076,-0.014223,0.00566095,-0.00463753,-0.0175662,0.533463,0.0105117,0.0193486,1028,1660,3.33109,-14.1789
-189,-636,3.31274,14.2959,-0.00966312,-0.0161381,0.00641121,-0.00571834,-0.0200829,0.551589,0.0119477,0.0226081,1035,1660,3.31269,-14.2959
-182,-636,3.34314,14.293,-0.0111088,-0.0174881,0.00698431,-0.00662025,-0.0219766,0.571196,0.0130181,0.0408831,1042,1660,3.34314,-14.2929
-175,-636,3.63831,14.5317,-0.0116188,-0.0182855,0.00704597,-0.00715745,-0.0227468,0.564456,0.0134303,0.0491545,1049,1660,3.63835,-14.5317
-168,-636,3.71338,14.5692,0,0,0,0,0,0,0,-1,1056,1660,3.71334,-14.5692
-161,-636,3.50439,14.6477,0,0,0,0,0,0,0,-1,1063,1660,3.50444,-14.6477
-154,-636,3.2843,15.1123,0,0,0,0,0,0,0,-1,1070,1660,3.28433,-15.1124
-147,-636,3.07971,12.1926,0,0,0,0,0,0,0,-1,1077,1660,3.07977,-12.1927
-140,-636,3.1925,14.9642,0,0,0,0,0,0,0,-1,1084,1660,3.1925,-14.9642
-133,-636,3.35303,14.6368,0,0,0,0,0,0,0,-1,1091,1660,3.35299,-14.6368
-126,-636,2.91223,13.5231,0,0,0,0,0,0,0,-1,1098,1660,2.91227,-13.523
-119,-636,1.8667,13.8916,0,0,0,0,0,0,0,-1,1105,1660,1.86668,-13.8916
-112,-636,-1.24963,9.7998,0,0,0,0,0,0,0,-1,1112,1660,-1.24968,-9.79978
-105,-636,3.51624,4.72791,0,0,0,0,0,0,0,-1,1119,1660,3.51618,-4.7279
-98,-636,1.54504,5.11914,0,0,0,0,0,0,0,-1,1126,1660,1.54503,-5.11912
-91,-636,-1.87964,-2.25012,0,0,0,0,0,0,0,-1,1133,1660,-1.87966,2.25016
-84,-636,-2.84143,0.133667,0,0,0,0,0,0,0,-1,1140,1660,-2.84144,-0.133701
-77,-636,-3.57349,2.45935,0,0,0,0,0,0,0,-1,1147,1660,-3.57345,-2.45939
-70,-636,-4.23682,4.82312,0,0,0,0,0,0,0,-1,1154,1660,-4.23681,-4.82307
-63,-636,-2.21033,6.97168,0,0,0,0,0,0,0,-1,1161,1660,-2.21034,-6.97165
-56,-636,-2.51917,8.80359,0,0,0,0,0,0,0,-1,1168,1660,-2.51916,-8.80361
-49,-636,-3.13,10.4113,0,0,0,0,0,0,0,-1,1175,1660,-3.12996,-10.4112
-42,-636,-2.27771,4.90173,0,0,0,0,0,0,0,-1,1182,1660,-2.27775,-4.90173
-35,-636,-2.27698,5.89685,0,0,0,0,0,0,0,-1,1189,1660,-2.27695,-5.89686
-28,-636,-1.70654,4.83936,0,0,0,0,0,0,0,-1,1196,1660,-1.70656,-4.8393
-21,-636,4.10999,24.0377,0,0,0,0,0,0,0,-1,1203,1660,4.11004,-24.0377
-14,-636,4.21021,23.3159,0,0,0,0,0,0,0,-1,1210,1660,4.21026,-23.3159
-7,-636,4.07153,22.6296,0,0,0,0,0,0,0,-1,1217,1660,4.07159,-22.6296
0,-636,4.13318,21.9158,0.0607799,0.207512,-0.1191,0.27403,-0.00573735,-1.06145,0.184629,0.0478528,1224,1660,4.13318,-21.9157
7,-636,4.43591,20.9541,0.0650837,0.190539,-0.109753,0.254226,0.00139712,-1.04501,0.16902,0.0448859,1231,1660,4.43593,-20.9541
14,-636,4.86902,20.4371,0.0656106,0.174223,-0.100066,0.233769,0.00606459,-1.03401,0.153864,0.0438379,1238,1660,4.86907,-20.4372
21,-636,5.36145,19.6832,0.0637358,0.15881,-0.091003,0.213944,0.00860195,-1.02609,0.13985,0.0464061,1245,1660,5.36143,-19.6832
28,-636,5.73975,18.8071,0,0,0,0,0,0,0,-1,1252,1660,5.7398,-18.8071
35,-636,6.44727,16.7308,0,0,0,0,0,0,0,-1,1259,1660,6.44721,-16.7308
42,-636,7.24365,15.9734,0,0,0,0,0,0,0,-1,1266,1660,7.2437,-15.9734
49,-636,7.83276,14.8464,0,0,0,0,0,0,0,-1,1273,1660,7.83272,-14.8464
56,-636,8.66638,13.7432,0,0,0,0,0,0,0,-1,1280,1660,8.66637,-13.7431
63,-636,9.50769,12.8151,0,0,0,0,0,0,0,-1,1287,1660,9.50768,-12.815
70,-636,5.01929,14.8977,0,0,0,0,0,0,0,-1,1294,1660,5.01929,-14.8977
77,-636,4.50708,14.5031,0,0,0,0,0,0,0,-1,1301,1660,4.50712,-14.503
84,-636,7.18054,14.8625,0,0,0,0,0,0,0,-1,1308,1660,7.18053,-14.8626
91,-636,2.00061,17.8652,0,0,0,0,0,0,0,-1,1315,1660,2.00055,-17.8652
98,-636,1.74902,16.4358,0,0,0,0,0,0,0,-1,1322,1660,1.74901,-16.4358
105,-636,16.1949,-1.62842,0,0,0,0,0,0,0,-1,1329,1660,16.1949,1.62839
112,-636,15.5765,-1.27014,-0.0134003,0.231582,-0.119749,0.280391,-0.0622101,-1.18376,0.210747,0.0481601,1336,1660,15.5765,1.27017
119,-636,15.1469,-1.14392,0.00233024,0.251333,-0.123221,0.302,-0.0483366,-1.18068,0.219229,0.0463112,1343,1660,15.1468,1.14392
126,-636,13.5381,0.0760498,0,0,0,0,0,0,0,-1,1350,1660,13.5381,-0.0760421
133,-636,14.9504,-1.02576,0.0194518,0.281443,-0.12725,0.333074,-0.0321788,-1.18535,0.233516,0.0458058,1357,1660,14.9504,1.02581
140,-636,15.2052,-1.22571,0.0270556,0.299194,-0.129468,0.350946,-0.0246961,-1.19053,0.242615,0.0442397,1364,1660,15.2053,1.2257
147,-636,15.6268,-1.22351,0.0378991,0.316714,-0.130929,0.368557,-0.0139442,-1.19377,0.250482,0.0469082,1371,1660,15.6268,1.22346
154,-636,15.9662,-1.2052,0,0,0,0,0,0,0,-1,1378,1660,15.9662,1.20516
161,-636,10.2961,7.13025,0,0,0,0,0,0,0,-1,1385,1660,10.2961,-7.13021
168,-636,11.7659,5.83899,0,0,0,0,0,0,0,-1,1392,1660,11.7658,-5.83899
175,-636,5.94592,-1.72888,0,0,0,0,0,0,0,-1,1399,1660,5.94598,1.72886
182,-636,5.93994,-1.11938,0,0,0,0,0,0,0,-1,1406,1660,5.93998,1.11936
189,-636,5.32544,11.9595,0,0,0,0,0,0,0,-1,1413,1660,5.32542,-11.9595
196,-636,5.3623,9.38025,0,0,0,0,0,0,0,-1,1420,1660,5.36225,-9.38027
203,-636,5.18542,9.02429,0,0,0,0,0,0,0,-1,1427,1660,5.18547,-9.0243
210,-636,4.09167,7.17041,0,0,0,0,0,0,0,-1,1434,1660,4.09173,-7.17041
217,-636,2.94897,5.28992,0,0,0,0,0,0,0,-1,1441,1660,2.94899,-5.28991
224,-636,1.49194,3.63916,0,0,0,0,0,0,0,-1,1448,1660,1.49197,-3.63918
231,-636,0.17749,2.24854,0,0,0,0,0,0,0,-1,1455,1660,0.177501,-2.24855
238,-636,-0.764648,1.00598,0,0,0,0,0,0,0,-1,1462,1660,-0.764704,-1.00595
245,-636,6.21204,1.18005,0,0,0,0,0,0,0,-1,1469,1660,6.21206,-1.18001
252,-636,7.70251,0.865723,0,0,0,0,0,0,0,-1,1476,1660,7.7025,-0.865692
259,-636,9.03601,0.787231,0,0,0,0,0,0,0,-1,1483,1660,9.03598,-0.787243
266,-636,10.1071,3.24109,0,0,0,0,0,0,0,-1,1490,1660,10.1071,-3.24103
273,-636,8.48535,5.02466,0,0,0,0,0,0,0,-1,1497,1660,8.48533,-5.02472
280,-636,8.81384,5.66992,0,0,0,0,0,0,0,-1,1504,1660,8.81381,-5.66998
287,-636,6.08606,11.49,0,0,0,0,0,0,0,-1,1511,1660,6.08606,-11.49
294,-636,6.83472,14.7603,0,0,0,0,0,0,0,-1,1518,1660,6.83476,-14.7603
301,-636,6.67773,14.7703,0,0,0,0,0,0,0,-1,1525,1660,6.67768,-14.7703
308,-636,6.24512,15.1858,0,0,0,0,0,0,0,-1,1532,1660,6.24518,-15.1858
315,-636,6.1488,15.153,0,0,0,0,0,0,0,-1,1539,1660,6.14875,-15.153
322,-636,6.01965,14.7631,0.00501802,-0.00685725,0.00727888,0.00847387,-0.0103131,0.443267,0.010864,0.0392773,1546,1660,6.0197,-14.763
329,-636,6.23853,14.7871,0.00482366,-0.00655195,0.00653566,0.00779991,-0.00952821,0.427325,0.010021,0.0268227,1553,1660,6.23853,-14.787
336,-636,6.2915,14.7153,0.00397838,-0.00654154,0.00633134,0.00694965,-0.00951281,0.438783,0.00954293,0.0213863,1560,1660,6.29156,-14.7153
343,-636,6.30237,14.6295,0.00285713,-0.00656908,0.00595669,0.00573978,-0.00945173,0.450713,0.00885767,0.0187466,1567,1660,6.30237,-14.6295
350,-636,6.31311,14.4963,0.00211518,-0.00645942,0.00556821,0.00485539,-0.00919963,0.457322,0.00824287,0.0114545,1574,1660,6.31313,-14.4963
357,-636,6.31213,14.3668,0.00162271,-0.00623731,0.00503581,0.00408052,-0.00869513,0.454057,0.00753471,0.0101177,1581,1660,6.31211,-14.3668
364,-636,6.31763,14.2314,0.0010377,-0.00621062,0.00468032,0.003333,-0.00850591,0.455949,0.00704934,0.010378,1588,1660,6.31763,-14.2314
371,-636,6.33142,14.0881,0.000553386,-0.00595055,0.00432442,0.00271214,-0.0081093,0.463008,0.00650163,0.00937722,1595,1660,6.33136,-14.0881
378,-636,6.3363,13.9335,9.83558e-05,-0.00546287,0.00382628,0.00204767,-0.00741218,0.471183,0.00574693,0.00988318,1602,1660,6.33632,-13.9335
385,-636,6.34082,13.7859,-7.01501e-05,-0.0046601,0.00315663,0.00153759,-0.00626784,0.471078,0.00477435,0.0148387,1609,1660,6.34077,-13.7859
392,-636,6.33679,13.6483,-4.68303e-05,-0.00346864,0.00236295,0.00115958,-0.00467505,0.472054,0.00356663,0.0160202,1616,1660,6.3368,-13.6484
399,-636,6.33215,13.4987,2.78996e-05,-0.0020869,0.00157066,0.000863931,-0.00292293,0.489136,0.00229154,0.0124401,1623,1660,6.33216,-13.4987
406,-636,6.34473,13.3401,0.000197917,-0.000724618,0.000797129,0.000657618,-0.00118432,0.523108,0.00107784,0.0143594,1630,1660,6.34473,-13.3401
413,-636,6.34827,13.1527,0.000526377,0.000559029,-6.21095e-05,0.000606922,0.000478483,-0.913919,0.000369323,0.0226034,1637,1660,6.34832,-13.1527
420,-636,6.31787,13.0114,0.000802516,0.00178514,-0.00081923,0.00224909,0.000338568,-1.05551,0.00140025,0.0222767,1644,1660,6.3179,-13.0114
427,-636,6.31482,12.8634,0.00109595,0.00262037,-0.00144668,0.00349335,0.000222971,-1.02785,0.00225825,0.0126266,1651,1660,6.31479,-12.8634
434,-636,6.33118,12.6899,0.001364,0.00336291,-0.0020352,0.00463082,9.60883e-05,-1.01364,0.00305569,0.0106544,1658,1660,6.33116,-12.6899
441,-636,6.3606,12.5022,0.00187015,0.0037952,-0.00236604,0.005387,0.000278344,-0.978579,0.00350224,0.0115825,1665,1660,6.36065,-12.5022
448,-636,6.37061,12.3177,0.00278938,0.0038482,-0.00227611,0.00565566,0.00098192,-0.899663,0.00348949,0.0134246,1672,1660,6.3706,-12.3177
455,-636,6.34851,12.1232,0.00365168,0.00374165,-0.0021363,0.00583343,0.00155989,-0.795925,0.00348729,0.0157132,1679,1660,6.34856,-12.1231
462,-636,6.29297,11.9249,0.00474819,0.00342089,-0.00168922,0.00589946,0.00226963,-0.598224,0.0034361,0.0214653,1686,1660,6.29295,-11.925
469,-636,6.33215,11.7782,0.00612949,0.00284021,-0.00089905,0.00635919,0.00261051,-0.250135,0.00369103,0.031539,1693,1660,6.33211,-11.7781
476,-636,6.32935,11.8043,0.00795502,0.00256614,0.00029734,0.00797138,0.00254978,0.0549541,0.00470078,0.044508,1700,1660,6.32934,-11.8043
483,-636,6.33362,11.3601,0,0,0,0,0,0,0,-1,1707,1660,6.3336,-11.3601
490,-636,6.25171,11.0208,0,0,0,0,0,0,0,-1,1714,1660,6.25169,-11.0207
497,-636,6.13574,10.8521,0,0,0,0,0,0,0,-1,1721,1660,6.13573,-10.852
504,-636,6.81372,8.66333,0,0,0,0,0,0,0,-1,1728,1660,6.81374,-8.66332
511,-636,5.65466,9.23218,0,0,0,0,0,0,0,-1,1735,1660,5.65461,-9.23216
518,-636,6.72791,1.07605,0,0,0,0,0,0,0,-1,1742,1660,6.7279,-1.0761
525,-636,7.04309,0.93335,0,0,0,0,0,0,0,-1,1749,1660,7.04308,-0.933298
532,-636,0,0,0,0,0,0,0,0,0,-1,1756,1660,0,0
539,-636,0,0,0,0,0,0,0,0,0,-1,1763,1660,0,0
546,-636,0,0,0,0,0,0,0,0,0,-1,1770,1660,0,0
553,-636,0,0,0,0,0,0,0,0,0,-1,1777,1660,0,0
560,-636,0,0,0,0,0,0,0,0,0,-1,1784,1660,0,0
567,-636,0,0,0,0,0,0,0,0,0,-1,1791,1660,0,0
574,-636,0,0,0,0,0,0,0,0,0,-1,1798,1660,0,0
581,-636,0,0,0,0,0,0,0,0,0,-1,1805,1660,0,0
588,-636,0,0,0,0,0,0,0,0,0,-1,1812,1660,0,0
595,-636,0,0,0,0,0,0,0,0,0,-1,1819,1660,0,0
602,-636,0,0,0,0,0,0,0,0,0,-1,1826,1660,0,0
609,-636,0,0,0,0,0,0,0,0,0,-1,1833,1660,0,0
616,-636,0,0,0,0,0,0,0,0,0,-1,1840,1660,0,0
623,-636,0,0,0,0,0,0,0,0,0,-1,1847,1660,0,0
630,-636,0,0,0,0,0,0,0,0,0,-1,1854,1660,0,0
637,-636,0,0,0,0,0,0,0,0,0,-1,1861,1660,0,0
644,-636,0,0,0,0,0,0,0,0,0,-1,1868,1660,0,0
651,-636,0,0,0,0,0,0,0,0,0,-1,1875,1660,0,0
658,-636,0,0,0,0,0,0,0,0,0,-1,1882,1660,0,0
665,-636,0,0,0,0,0,0,0,0,0,-1,1889,1660,0,0
672,-636,0,0,0,0,0,0,0,0,0,-1,1896,1660,0,0
679,-636,0,0,0,0,0,0,0,0,0,-1,1903,1660,0,0
686,-636,0,0,0,0,0,0,0,0,0,-1,1910,1660,0,0
693,-636,0,0,0,0,0,0,0,0,0,-1,1917,1660,0,0
700,-636,0,0,0,0,0,0,0,0,0,-1,1924,1660,0,0
707,-636,0,0,0,0,0,0,0,0,0,-1,1931,1660,0,0
714,-636,0,0,0,0,0,0,0,0,0,-1,1938,1660,0,0
721,-636,0,0,0,0,0,0,0,0,0,-1,1945,1660,0,0
728,-636,0,0,0,0,0,0,0,0,0,-1,1952,1660,0,0
735,-636,0,0,0,0,0,0,0,0,0,-1,1959,1660,0,0
742,-636,0,0,0,0,0,0,0,0,0,-1,1966,1660,0,0
749,-636,0,0,0,0,0,0,0,0,0,-1,1973,1660,0,0
756,-636,0,0,0,0,0,0,0,0,0,-1,1980,1660,0,0
763,-636,0,0,0,0,0,0,0,0,0,-1,1987,1660,0,0
770,-636,0,0,0,0,0,0,0,0,0,-1,1994,1660,0,0
777,-636,0,0,0,0,0,0,0,0,0,-1,2001,1660,0,0
784,-636,0,0,0,0,0,0,0,0,0,-1,2008,1660,0,0
791,-636,0,0,0,0,0,0,0,0,0,-1,2015,1660,0,0
798,-636,0,0,0,0,0,0,0,0,0,-1,2022,1660,0,0
805,-636,0,0,0,0,0,0,0,0,0,-1,2029,1660,0,0
812,-636,0,0,0,0,0,0,0,0,0,-1,2036,1660,0,0
-700,-643,0,0,0,0,0,0,0,0,0,-1,524,1667,0,0
-693,-643,0,0,0,0,0,0,0,0,0,-1,531,1667,0,0
-686,-643,0,0,0,0,0,0,0,0,0,-1,538,1667,0,0
-679,-643,0,0,0,0,0,0,0,0,0,-1,545,1667,0,0
-672,-643,0,0,0,0,0,0,0,0,0,-1,552,1667,0,0
-665,-643,0,0,0,0,0,0,0,0,0,-1,559,1667,0,0
-658,-643,0,0,0,0,0,0,0,0,0,-1,566,1667,0,0
-651,-643,0,0,0,0,0,0,0,0,0,-1,573,1667,0,0
-644,-643,0,0,0,0,0,0,0,0,0,-1,580,1667,0,0
-637,-643,0,0,0,0,0,0,0,0,0,-1,587,1667,0,0
-630,-643,0,0,0,0,0,0,0,0,0,-1,594,1667,0,0
-623,-643,0,0,0,0,0,0,0,0,0,-1,601,1667,0,0
-616,-643,0,0,0,0,0,0,0,0,0,-1,608,1667,0,0
-609,-643,0,0,0,0,0,0,0,0,0,-1,615,1667,0,0
-602,-643,0,0,0,0,0,0,0,0,0,-1,622,1667,0,0
-595,-643,0,0,0,0,0,0,0,0,0,-1,629,1667,0,0
-588,-643,0,0,0,0,0,0,0,0,0,-1,636,1667,0,0
-581,-643,0,0,0,0,0,0,0,0,0,-1,643,1667,0,0
-574,-643,0,0,0,0,0,0,0,0,0,-1,650,1667,0,0
-567,-643,0,0,0,0,0,0,0,0,0,-1,657,1667,0,0
-560,-643,0,0,0,0,0,0,0,0,0,-1,664,1667,0,0
-553,-643,0,0,0,0,0,0,0,0,0,-1,671,1667,0,0
-546,-643,0,0,0,0,0,0,0,0,0,-1,678,1667,0,0
-539,-643,0,0,0,0,0,0,0,0,0,-1,685,1667,0,0
-532,-643,0,0,0,0,0,0,0,0,0,-1,692,1667,0,0
-525,-643,0,0,0,0,0,0,0,0,0,-1,699,1667,0,0
-518,-643,0,0,0,0,0,0,0,0,0,-1,706,1667,0,0
-511,-643,0,0,0,0,0,0,0,0,0,-1,713,1667,0,0
-504,-643,0,0,0,0,0,0,0,0,0,-1,720,1667,0,0
-497,-643,0,0,0,0,0,0,0,0,0,-1,727,1667,0,0
-490,-643,0,0,0,0,0,0,0,0,0,-1,734,1667,0,0
-483,-643,0,0,0,0,0,0,0,0,0,-1,741,1667,0,0
-476,-643,0,0,0,0,0,0,0,0,0,-1,748,1667,0,0
-469,-643,0,0,0,0,0,0,0,0,0,-1,755,1667,0,0
-462,-643,0,0,0,0,0,0,0,0,0,-1,762,1667,0,0
-455,-643,0,0,0,0,0,0,0,0,0,-1,769,1667,0,0
-448,-643,0,0,0,0,0,0,0,0,0,-1,776,1667,0,0
-441,-643,0,0,0,0,0,0,0,0,0,-1,783,1667,0,0
-434,-643,0,0,0,0,0,0,0,0,0,-1,790,1667,0,0
-427,-643,0,0,0,0,0,0,0,0,0,-1,797,1667,0,0
-420,-643,0,0,0,0,0,0,0,0,0,-1,804,1667,0,0
-413,-643,0,0,0,0,0,0,0,0,0,-1,811,1667,0,0
-406,-643,0,0,0,0,0,0,0,0,0,-1,818,1667,0,0
-399,-643,4.40393,6.401,0,0,0,0,0,0,0,-1,825,1667,4.40396,-6.40101
-392,-643,4.9093,7.02441,0,0,0,0,0,0,0,-1,832,1667,4.90932,-7.02443
-385,-643,4.9585,7.77661,0,0,0,0,0,0,0,-1,839,1667,4.95849,-7.77664
-378,-643,4.92444,8.92029,0,0,0,0,0,0,0,-1,846,1667,4.92446,-8.92025
-371,-643,0.5849,3.26428,0,0,0,0,0,0,0,-1,853,1667,0.584909,-3.26426
-364,-643,1.69513,9.922,0,0,0,0,0,0,0,-1,860,1667,1.69511,-9.92205
-357,-643,1.14227,10.8429,0,0,0,0,0,0,0,-1,867,1667,1.14228,-10.8429
-350,-643,2.50061,9.96948,0,0,0,0,0,0,0,-1,874,1667,2.50059,-9.96954
-343,-643,2.61505,6.17407,0,0,0,0,0,0,0,-1,881,1667,2.61504,-6.17412
-336,-643,3.19861,10.8616,0,0,0,0,0,0,0,-1,888,1667,3.1986,-10.8616
-329,-643,3.37506,10.9518,0.00913186,0.00210203,0.00134793,0.00938145,0.00185244,0.183095,0.00573739,0.036947,895,1667,3.37508,-10.9518
-322,-643,3.39801,11.1115,0.00733748,0.00371155,0.00129582,0.00775297,0.00329606,0.310279,0.00449287,0.0241343,902,1667,3.39803,-11.1114
-315,-643,3.36182,11.3234,0.00557744,0.0040118,0.000958082,0.00603184,0.00355739,0.442867,0.00350114,0.016313,909,1667,3.36179,-11.3233
-308,-643,3.36926,11.4891,0.00405602,0.00383671,0.000435728,0.00439568,0.00349705,0.662131,0.00268158,0.0121229,916,1667,3.36929,-11.4891
-301,-643,3.38092,11.6854,0.00268881,0.00347859,1.84694e-05,0.00347902,0.00268837,1.54743,0.00210587,0.0131809,923,1667,3.38093,-11.6854
-294,-643,3.38025,11.8827,0.00152792,0.00306865,-0.000210445,0.00309687,0.00149969,-1.43746,0.00178828,0.0132316,930,1667,3.38026,-11.8827
-287,-643,3.37067,12.0583,0.000776946,0.00246923,-0.000245652,0.00250417,0.000742008,-1.42952,0.00148524,0.0107203,937,1667,3.37065,-12.0584
-280,-643,3.35913,12.2494,0.000352503,0.00185851,-0.000244066,0.00189708,0.000313937,-1.41408,0.00117415,0.0131342,944,1667,3.35914,-12.2493
-273,-643,3.36975,12.4314,0.000133403,0.00129137,-0.000300827,0.00136485,5.99147e-05,-1.3312,0.000890604,0.0119772,951,1667,3.36978,-12.4313
-266,-643,3.37256,12.6132,2.59658e-05,0.000738882,-0.000116312,0.000757378,7.46935e-06,-1.41309,0.000502447,0.0116559,958,1667,3.37254,-12.6132
-259,-643,3.36444,12.7854,0.000105711,-6.77955e-05,4.83778e-05,0.000118289,-8.03727e-05,0.254348,0.000115391,0.0112497,965,1667,3.36442,-12.7854
-252,-643,3.35852,12.9601,0.000376568,-0.0007183,7.07918e-05,0.000381126,-0.000722858,0.064301,0.000647485,0.012482,972,1667,3.35849,-12.9601
-245,-643,3.37769,13.1548,0.000291848,-0.00127833,0.000478747,0.000426304,-0.00141279,0.273797,0.00111155,0.0119408,979,1667,3.37771,-13.1548
-238,-643,3.42169,13.3243,-0.00017528,-0.00234845,0.000783392,7.76759e-05,-0.00260141,0.312329,0.00176074,0.0159772,986,1667,3.42171,-13.3243
-231,-643,3.38654,13.4801,-0.000513262,-0.00350892,0.00103885,-0.000188263,-0.00383392,0.303199,0.00249556,0.0117055,993,1667,3.38651,-13.4801
-224,-643,3.38171,13.6324,-0.000934964,-0.00473101,0.00147122,-0.000431532,-0.00523444,0.329697,0.00335504,0.00912675,1000,1667,3.38168,-13.6324
-217,-643,3.38043,13.7682,-0.00169099,-0.00610819,0.00188647,-0.00099499,-0.00680418,0.353448,0.00424352,0.00812088,1007,1667,3.38041,-13.7682
-210,-643,3.38721,13.9338,-0.00260273,-0.00762301,0.00238432,-0.00165082,-0.00857492,0.379849,0.00525352,0.0101491,1014,1667,3.38719,-13.9339
-203,-643,3.39624,14.1113,-0.00357282,-0.00900452,0.00288103,-0.00232935,-0.010248,0.407451,0.00620308,0.0114669,1021,1667,3.39618,-14.1113
-196,-643,3.40039,14.2499,-0.00451668,-0.0103463,0.0033899,-0.00296075,-0.0119023,0.430304,0.00715512,0.0118956,1028,1667,3.40035,-14.2498
-189,-643,3.44946,14.3854,-0.00548216,-0.0116738,0.00379714,-0.00367876,-0.0134772,0.443396,0.00804403,0.0120996,1035,1667,3.44944,-14.3854
-182,-643,3.51074,14.5111,-0.00629908,-0.0126318,0.00401011,-0.00435596,-0.0145749,0.451215,0.00863881,0.0201365,1042,1667,3.51072,-14.5111
-175,-643,3.60278,14.5812,-0.00636917,-0.0132239,0.00382276,-0.0046623,-0.0149307,0.419941,0.0088205,0.0353014,1049,1667,3.60278,-14.5812
-168,-643,3.59045,14.6943,-0.00521002,-0.0136539,0.00379312,-0.00375635,-0.0151076,0.365974,0.00908232,0.0416085,1056,1667,3.59048,-14.6943
-161,-643,3.52832,14.7589,-0.00382092,-0.0138982,0.00358803,-0.00267394,-0.0150452,0.309401,0.00926829,0.0476976,1063,1667,3.52834,-14.7589
-154,-643,3.35645,15.0414,-0.00149494,-0.0140761,0.00331855,-0.000673269,-0.0148978,0.242719,0.00971522,0.0498679,1070,1667,3.3565,-15.0414
-147,-643,3.32874,14.9741,0,0,0,0,0,0,0,-1,1077,1667,3.32872,-14.9741
-140,-643,3.52039,15.1091,0,0,0,0,0,0,0,-1,1084,1667,3.52034,-15.1092
-133,-643,3.40076,14.1416,0,0,0,0,0,0,0,-1,1091,1667,3.40071,-14.1416
-126,-643,2.43152,14.6208,0,0,0,0,0,0,0,-1,1098,1667,2.43146,-14.6208
-119,-643,3.76282,14.1458,0,0,0,0,0,0,0,-1,1105,1667,3.76283,-14.1458
-112,-643,3.81458,16.2069,0,0,0,0,0,0,0,-1,1112,1667,3.81463,-16.2069
-105,-643,-2.23413,10.0996,0,0,0,0,0,0,0,-1,1119,1667,-2.23415,-10.0996
-98,-643,3.11035,4.68066,0,0,0,0,0,0,0,-1,1126,1667,3.11041,-4.68071
-91,-643,-1.74146,-2.5885,0,0,0,0,0,0,0,-1,1133,1667,-1.74146,2.58856
-84,-643,-3.07446,-0.199341,0,0,0,0,0,0,0,-1,1140,1667,-3.07449,0.199383
-77,-643,-3.63794,2.81165,0,0,0,0,0,0,0,-1,1147,1667,-3.63791,-2.8117
-70,-643,-3.36938,4.45203,0,0,0,0,0,0,0,-1,1154,1667,-3.36941,-4.452
-63,-643,-3.67822,6.26855,0,0,0,0,0,0,0,-1,1161,1667,-3.67823,-6.26856
-56,-643,-3.95142,8.1073,0,0,0,0,0,0,0,-1,1168,1667,-3.95139,-8.10732
-49,-643,-4.23535,9.90552,0,0,0,0,0,0,0,-1,1175,1667,-4.23537,-9.90557
-42,-643,-4.25195,10.7059,0,0,0,0,0,0,0,-1,1182,1667,-4.25192,-10.706
-35,-643,-4.10986,11.6588,0,0,0,0,0,0,0,-1,1189,1667,-4.10982,-11.6589
-28,-643,-1.38513,5.604,0,0,0,0,0,0,0,-1,1196,1667,-1.3851,-5.60403
-21,-643,3.87097,18.0372,0,0,0,0,0,0,0,-1,1203,1667,3.87098,-18.0373
-14,-643,4.66211,23.7134,0,0,0,0,0,0,0,-1,1210,1667,4.66206,-23.7134
-7,-643,4.36328,22.9337,0,0,0,0,0,0,0,-1,1217,1667,4.36328,-22.9337
0,-643,4.72913,20.976,0.0580014,0.171352,-0.101782,0.231174,-0.00182077,-1.03943,0.154727,0.0463287,1224,1667,4.72915,-20.9759
7,-643,4.80273,20.1504,0.0605775,0.152195,-0.0920385,0.209195,0.00357806,-1.01631,0.138286,0.0421413,1231,1667,4.80268,-20.1504
14,-643,5.1106,19.2505,0.0599964,0.133286,-0.0825119,0.186925,0.00635807,-0.994374,0.122552,0.0435165,1238,1667,5.11054,-19.2504
21,-643,5.38269,18.1836,0,0,0,0,0,0,0,-1,1245,1667,5.38265,-18.1836
28,-643,6.42004,14.431,0,0,0,0,0,0,0,-1,1252,1667,6.42006,-14.4311
35,-643,6.97339,13.9753,0.0405822,0.0889409,-0.0573345,0.126986,0.00253707,-0.984944,0.0838245,0.0433409,1259,1667,6.97342,-13.9753
42,-643,7.43176,13.6138,0.0278695,0.0796414,-0.0497693,0.109854,-0.0023433,-1.0252,0.0740296,0.0499946,1266,1667,7.43176,-13.6138
49,-643,7.93311,13.1019,0,0,0,0,0,0,0,-1,1273,1667,7.93314,-13.1019
56,-643,9.21497,10.8927,0,0,0,0,0,0,0,-1,1280,1667,9.21494,-10.8927
63,-643,6.77234,14.347,0,0,0,0,0,0,0,-1,1287,1667,6.77234,-14.347
70,-643,5.07556,14.9019,0,0,0,0,0,0,0,-1,1294,1667,5.07561,-14.9019
77,-643,6.15625,14.7119,0,0,0,0,0,0,0,-1,1301,1667,6.1563,-14.7119
84,-643,6.75977,14.6434,0,0,0,0,0,0,0,-1,1308,1667,6.75982,-14.6435
91,-643,1.62634,17.7672,0,0,0,0,0,0,0,-1,1315,1667,1.62638,-17.7673
98,-643,16.3135,-1.07227,0,0,0,0,0,0,0,-1,1322,1667,16.3135,1.07224
105,-643,16.4849,-1.55469,-0.0227617,0.175281,-0.0802203,0.203698,-0.0511787,-1.23035,0.155688,0.0480954,1329,1667,16.4849,1.55464
112,-643,16.6724,-2.11792,-0.0096706,0.193933,-0.0905503,0.228377,-0.0441148,-1.20731,0.168888,0.0465529,1336,1667,16.6724,2.11797
119,-643,16.8835,-2.45056,0.00251383,0.211538,-0.0950369,0.248287,-0.0342355,-1.20182,0.178037,0.0469623,1343,1667,16.8835,2.45059
126,-643,16.8923,-2.54236,0.0101181,0.225324,-0.0992053,0.264077,-0.028635,-1.19839,0.186331,0.0459073,1350,1667,16.8924,2.54234
133,-643,16.7317,-2.58862,0.0157032,0.241541,-0.104179,0.282258,-0.0250134,-1.19822,0.19704,0.0450437,1357,1667,16.7317,2.58858
140,-643,16.5769,-2.65076,0,0,0,0,0,0,0,-1,1364,1667,16.577,2.65071
147,-643,17.071,-2.94214,0.0289361,0.272907,-0.115022,0.318584,-0.0167401,-1.19278,0.218183,0.0427181,1371,1667,17.071,2.9422
154,-643,17.4407,-2.95398,0,0,0,0,0,0,0,-1,1378,1667,17.4406,2.95403
161,-643,17.8325,-2.83704,0,0,0,0,0,0,0,-1,1385,1667,17.8325,2.83699
168,-643,10.5563,10.9818,0,0,0,0,0,0,0,-1,1392,1667,10.5562,-10.9819
175,-643,5.88525,-1.1698,0,0,0,0,0,0,0,-1,1399,1667,5.88526,1.16977
182,-643,5.80945,-0.418701,0,0,0,0,0,0,0,-1,1406,1667,5.80949,0.418712
189,-643,5.42297,12.9208,0,0,0,0,0,0,0,-1,1413,1667,5.42298,-12.9208
196,-643,5.51953,11.2415,0,0,0,0,0,0,0,-1,1420,1667,5.51948,-11.2414
203,-643,5.60828,9.82153,0,0,0,0,0,0,0,-1,1427,1667,5.60833,-9.82148
210,-643,4.73218,7.58728,0,0,0,0,0,0,0,-1,1434,1667,4.73222,-7.58728
217,-643,3.8031,5.28955,0,0,0,0,0,0,0,-1,1441,1667,3.80305,-5.28955
224,-643,2.96436,2.97095,0,0,0,0,0,0,0,-1,1448,1667,2.96432,-2.97095
231,-643,2.13403,1.08472,0,0,0,0,0,0,0,-1,1455,1667,2.13403,-1.08467
238,-643,1.18152,-0.261963,0,0,0,0,0,0,0,-1,1462,1667,1.18152,0.26192
245,-643,-0.157471,-1.79016,0,0,0,0,0,0,0,-1,1469,1667,-0.157517,1.7901
252,-643,8.08789,0.0202637,0,0,0,0,0,0,0,-1,1476,1667,8.08791,-0.0203056
259,-643,9.02979,-0.46936,0,0,0,0,0,0,0,-1,1483,1667,9.02974,0.46933
266,-643,4.55066,5.17554,0,0,0,0,0,0,0,-1,1490,1667,4.55063,-5.17556
273,-643,4.34363,6.56836,0,0,0,0,0,0,0,-1,1497,1667,4.34363,-6.5684
280,-643,5.75854,14.5217,0,0,0,0,0,0,0,-1,1504,1667,5.75854,-14.5218
287,-643,5.78638,15.2355,0,0,0,0,0,0,0,-1,1511,1667,5.78636,-15.2355
294,-643,5.95532,15.2404,0,0,0,0,0,0,0,-1,1518,1667,5.95529,-15.2404
301,-643,6.31873,14.9229,0.00515854,-0.0124585,0.00783339,0.00813782,-0.0154377,0.363435,0.0138271,0.0425247,1525,1667,6.31875,-14.9228
308,-643,6.07373,15.1084,0.00484009,-0.0098532,0.00701879,0.00765398,-0.0126671,0.38129,0.0118508,0.0392387,1532,1667,6.07377,-15.1083
315,-643,6.06177,15.1138,0.00443371,-0.00772732,0.00623588,0.00706289,-0.0103565,0.399006,0.0101168,0.0304035,1539,1667,6.06171,-15.1137
322,-643,6.11023,15.0104,0.00386206,-0.00590536,0.00550618,0.00633828,-0.00838159,0.422619,0.00852577,0.0160985,1546,1667,6.11024,-15.0104
329,-643,6.13416,14.8608,0.00360632,-0.005193,0.00491984,0.0058068,-0.00739348,0.420578,0.00763951,0.0116529,1553,1667,6.13414,-14.8609
336,-643,6.1167,14.7668,0.00297504,-0.00475062,0.00465499,0.00516121,-0.00693679,0.439066,0.00700982,0.0108573,1560,1667,6.11671,-14.7669
343,-643,6.12085,14.67,0.00219441,-0.00449166,0.00427769,0.00428042,-0.00657767,0.453718,0.00631551,0.013006,1567,1667,6.12088,-14.67
350,-643,6.15686,14.5203,0.00168644,-0.00424481,0.00386799,0.00359486,-0.00615323,0.458343,0.0056923,0.0121507,1574,1667,6.15682,-14.5203
357,-643,6.15417,14.3834,0.00143236,-0.00393538,0.00329903,0.00300134,-0.00550436,0.443928,0.00498114,0.0101819,1581,1667,6.15419,-14.3834
364,-643,6.16235,14.2317,0.00109512,-0.00375397,0.00286443,0.00242335,-0.00508221,0.434189,0.00442304,0.00868772,1588,1667,6.16231,-14.2317
371,-643,6.17688,14.0863,0.000814401,-0.00343594,0.0024081,0.00190097,-0.00452252,0.423864,0.00381016,0.00779292,1595,1667,6.17684,-14.0863
378,-643,6.18225,13.9534,0.000561584,-0.00290658,0.00184949,0.00136278,-0.00370778,0.408796,0.00303005,0.00987932,1602,1667,6.1823,-13.9534
385,-643,6.172,13.7991,0.000529699,-0.00204401,0.00112733,0.000953657,-0.00246797,0.359709,0.00203894,0.0148051,1609,1667,6.17199,-13.7991
392,-643,6.18225,13.6321,0.00059717,-0.000805559,0.00032353,0.000668194,-0.000876583,0.2161,0.000894578,0.0158386,1616,1667,6.18221,-13.632
399,-643,6.18079,13.5074,0.000678404,0.000525796,-0.000430631,0.00103944,0.000164761,-0.697713,0.000645091,0.0136794,1623,1667,6.1808,-13.5075
406,-643,6.19177,13.3475,0.000851832,0.00184884,-0.00114201,0.00259641,0.000104266,-0.99119,0.00169725,0.0127496,1630,1667,6.19177,-13.3475
413,-643,6.19495,13.1594,0.00120064,0.00313556,-0.00196184,0.00435552,-1.93194e-05,-1.01447,0.00291014,0.018385,1637,1667,6.19492,-13.1594
420,-643,6.17017,13.0139,0.00143724,0.00437927,-0.00263618,0.00592709,-0.000110572,-1.03988,0.00398876,0.0171463,1644,1667,6.17014,-13.0139
427,-643,6.16089,12.8579,0.00167741,0.00524693,-0.00315626,0.0070881,-0.000163758,-1.04272,0.00478092,0.0141564,1651,1667,6.1609,-12.858
434,-643,6.1665,12.6869,0.00195352,0.0059341,-0.00361882,0.00807383,-0.000186215,-1.03681,0.00544569,0.0150832,1658,1667,6.16656,-12.6869
441,-643,6.19055,12.5011,0.00243113,0.00629278,-0.00377127,0.00859877,0.000125142,-1.02199,0.00569126,0.0143969,1665,1667,6.1905,-12.5011
448,-643,6.2157,12.3137,0.00336261,0.00630678,-0.00352625,0.00865588,0.00101351,-0.983134,0.00546417,0.0177762,1672,1667,6.21567,-12.3137
455,-643,6.18945,12.2217,0.00435963,0.0061544,-0.00321724,0.00859706,0.00191697,-0.921407,0.00521127,0.0291673,1679,1667,6.18943,-12.2217
462,-643,6.17993,11.9924,0.00571329,0.00570798,-0.00258581,0.00829645,0.00312483,-0.784885,0.0048383,0.040066,1686,1667,6.17995,-11.9924
469,-643,6.20361,11.7466,0.0074301,0.00481329,-0.00149812,0.00811073,0.00413265,-0.426447,0.00468302,0.0427633,1693,1667,6.20364,-11.7466
476,-643,6.15625,11.9291,0,0,0,0,0,0,0,-1,1700,1667,6.1562,-11.9291
483,-643,6.36401,8.95813,0,0,0,0,0,0,0,-1,1707,1667,6.36406,-8.95816
490,-643,6.39209,8.3501,0,0,0,0,0,0,0,-1,1714,1667,6.39207,-8.35006
497,-643,6.56104,8.01416,0,0,0,0,0,0,0,-1,1721,1667,6.56106,-8.01413
504,-643,6.76794,7.901,0,0,0,0,0,0,0,-1,1728,1667,6.76795,-7.90101
511,-643,6.32056,9.37439,0,0,0,0,0,0,0,-1,1735,1667,6.32061,-9.37435
518,-643,7.40564,0.922607,0,0,0,0,0,0,0,-1,1742,1667,7.4057,-0.922598
525,-643,0,0,0,0,0,0,0,0,0,-1,1749,1667,0,0
532,-643,0,0,0,0,0,0,0,0,0,-1,1756,1667,0,0
539,-643,0,0,0,0,0,0,0,0,0,-1,1763,1667,0,0
546,-643,0,0,0,0,0,0,0,0,0,-1,1770,1667,0,0
553,-643,0,0,0,0,0,0,0,0,0,-1,1777,1667,0,0
560,-643,0,0,0,0,0,0,0,0,0,-1,1784,1667,0,0
567,-643,0,0,0,0,0,0,0,0,0,-1,1791,1667,0,0
574,-643,0,0,0,0,0,0,0,0,0,-1,1798,1667,0,0
581,-643,0,0,0,0,0,0,0,0,0,-1,1805,1667,0,0
588,-643,0,0,0,0,0,0,0,0,0,-1,1812,1667,0,0
595,-643,0,0,0,0,0,0,0,0,0,-1,1819,1667,0,0
602,-643,0,0,0,0,0,0,0,0,0,-1,1826,1667,0,0
609,-643,0,0,0,0,0,0,0,0,0,-1,1833,1667,0,0
616,-643,0,0,0,0,0,0,0,0,0,-1,1840,1667,0,0
623,-643,0,0,0,0,0,0,0,0,0,-1,1847,1667,0,0
630,-643,0,0,0,0,0,0,0,0,0,-1,1854,1667,0,0
637,-643,0,0,0,0,0,0,0,0,0,-1,1861,1667,0,0
644,-643,0,0,0,0,0,0,0,0,0,-1,1868,1667,0,0
651,-643,0,0,0,0,0,0,0,0,0,-1,1875,1667,0,0
658,-643,0,0,0,0,0,0,0,0,0,-1,1882,1667,0,0
665,-643,0,0,0,0,0,0,0,0,0,-1,1889,1667,0,0
672,-643,0,0,0,0,0,0,0,0,0,-1,1896,1667,0,0
679,-643,0,0,0,0,0,0,0,0,0,-1,1903,1667,0,0
686,-643,0,0,0,0,0,0,0,0,0,-1,1910,1667,0,0
693,-643,0,0,0,0,0,0,0,0,0,-1,1917,1667,0,0
700,-643,0,0,0,0,0,0,0,0,0,-1,1924,1667,0,0
707,-643,0,0,0,0,0,0,0,0,0,-1,1931,1667,0,0
714,-643,0,0,0,0,0,0,0,0,0,-1,1938,1667,0,0
721,-643,0,0,0,0,0,0,0,0,0,-1,1945,1667,0,0
728,-643,0,0,0,0,0,0,0,0,0,-1,1952,1667,0,0
735,-643,0,0,0,0,0,0,0,0,0,-1,1959,1667,0,0
742,-643,0,0,0,0,0,0,0,0,0,-1,1966,1667,0,0
749,-643,0,0,0,0,0,0,0,0,0,-1,1973,1667,0,0
756,-643,0,0,0,0,0,0,0,0,0,-1,1980,1667,0,0
763,-643,0,0,0,0,0,0,0,0,0,-1,1987,1667,0,0
770,-643,0,0,0,0,0,0,0,0,0,-1,1994,1667,0,0
777,-643,0,0,0,0,0,0,0,0,0,-1,2001,1667,0,0
784,-643,0,0,0,0,0,0,0,0,0,-1,2008,1667,0,0
791,-643,0,0,0,0,0,0,0,0,0,-1,2015,1667,0,0
798,-643,0,0,0,0,0,0,0,0,0,-1,2022,1667,0,0
805,-643,0,0,0,0,0,0,0,0,0,-1,2029,1667,0,0
812,-643,0,0,0,0,0,0,0,0,0,-1,2036,1667,0,0
-700,-650,0,0,0,0,0,0,0,0,0,-1,524,1674,0,0
-693,-650,0,0,0,0,0,0,0,0,0,-1,531,1674,0,0
-686,-650,0,0,0,0,0,0,0,0,0,-1,538,1674,0,0
-679,-650,0,0,0,0,0,0,0,0,0,-1,545,1674,0,0
-672,-650,0,0,0,0,0,0,0,0,0,-1,552,1674,0,0
-665,-650,0,0,0,0,0,0,0,0,0,-1,559,1674,0,0
-658,-650,0,0,0,0,0,0,0,0,0,-1,566,1674,0,0
-651,-650,0,0,0,0,0,0,0,0,0,-1,573,1674,0,0
-644,-650,0,0,0,0,0,0,0,0,0,-1,580,1674,0,0
-637,-650,0,0,0,0,0,0,0,0,0,-1,587,1674,0,0
-630,-650,0,0,0,0,0,0,0,0,0,-1,594,1674,0,0
-623,-650,0,0,0,0,0,0,0,0,0,-1,601,1674,0,0
-616,-650,0,0,0,0,0,0,0,0,0,-1,608,1674,0,0
-609,-650,0,0,0,0,0,0,0,0,0,-1,615,1674,0,0
-602,-650,0,0,0,0,0,0,0,0,0,-1,622,1674,0,0
-595,-650,0,0,0,0,0,0,0,0,0,-1,629,1674,0,0
-588,-650,0,0,0,0,0,0,0,0,0,-1,636,1674,0,0
-581,-650,0,0,0,0,0,0,0,0,0,-1,643,1674,0,0
-574,-650,0,0,0,0,0,0,0,0,0,-1,650,1674,0,0
-567,-650,0,0,0,0,0,0,0,0,0,-1,657,1674,0,0
-560,-650,0,0,0,0,0,0,0,0,0,-1,664,1674,0,0
-553,-650,0,0,0,0,0,0,0,0,0,-1,671,1674,0,0
-546,-650,0,0,0,0,0,0,0,0,0,-1,678,1674,0,0
-539,-650,0,0,0,0,0,0,0,0,0,-1,685,1674,0,0
-532,-650,0,0,0,0,0,0,0,0,0,-1,692,1674,0,0
-525,-650,0,0,0,0,0,0,0,0,0,-1,699,1674,0,0
-518,-650,0,0,0,0,0,0,0,0,0,-1,706,1674,0,0
-511,-650,0,0,0,0,0,0,0,0,0,-1,713,1674,0,0
-504,-650,0,0,0,0,0,0,0,0,0,-1,720,1674,0,0
-497,-650,0,0,0,0,0,0,0,0,0,-1,727,1674,0,0
-490,-650,0,0,0,0,0,0,0,0,0,-1,734,1674,0,0
-483,-650,0,0,0,0,0,0,0,0,0,-1,741,1674,0,0
-476,-650,0,0,0,0,0,0,0,0,0,-1,748,1674,0,0
-469,-650,0,0,0,0,0,0,0,0,0,-1,755,1674,0,0
-462,-650,0,0,0,0,0,0,0,0,0,-1,762,1674,0,0
-455,-650,0,0,0,0,0,0,0,0,0,-1,769,1674,0,0
-448,-650,0,0,0,0,0,0,0,0,0,-1,776,1674,0,0
-441,-650,0,0,0,0,0,0,0,0,0,-1,783,1674,0,0
-434,-650,0,0,0,0,0,0,0,0,0,-1,790,1674,0,0
-427,-650,0,0,0,0,0,0,0,0,0,-1,797,1674,0,0
-420,-650,0,0,0,0,0,0,0,0,0,-1,804,1674,0,0
-413,-650,0,0,0,0,0,0,0,0,0,-1,811,1674,0,0
-406,-650,0,0,0,0,0,0,0,0,0,-1,818,1674,0,0
-399,-650,0,0,0,0,0,0,0,0,0,-1,825,1674,0,0
-392,-650,5.44415,6.85669,0,0,0,0,0,0,0,-1,832,1674,5.44414,-6.85674
-385,-650,8.7821,8.6189,0,0,0,0,0,0,0,-1,839,1674,8.78213,-8.61893
-378,-650,0.997986,4.11108,0,0,0,0,0,0,0,-1,846,1674,0.998006,-4.11113
-371,-650,-1.80096,3.78625,0,0,0,0,0,0,0,-1,853,1674,-1.80094,-3.78625
-364,-650,-2.95679,2.57507,0,0,0,0,0,0,0,-1,860,1674,-2.95681,-2.57506
-357,-650,1.97833,10.8362,0,0,0,0,0,0,0,-1,867,1674,1.97835,-10.8362
-350,-650,-5.30243,0.159912,0,0,0,0,0,0,0,-1,874,1674,-5.30244,-0.159866
-343,-650,-6.21338,-1.4425,0,0,0,0,0,0,0,-1,881,1674,-6.21341,1.44248
-336,-650,3.39105,10.7294,0,0,0,0,0,0,0,-1,888,1674,3.39105,-10.7293
-329,-650,3.3418,10.8441,0.0122505,0.00344047,0.0015917,0.0125293,0.00316172,0.173369,0.00752374,0.0497572,895,1674,3.34177,-10.8441
-322,-650,3.42834,11.0533,0.00962922,0.0050077,0.00131489,0.00997713,0.00465978,0.258668,0.00576447,0.0411013,902,1674,3.42838,-11.0534
-315,-650,3.58405,11.2483,0.00713997,0.00517028,0.000790523,0.007418,0.00489225,0.338188,0.00435482,0.038519,909,1674,3.58406,-11.2483
-308,-650,3.61487,11.4156,0.00500875,0.00486125,0.000183397,0.00513267,0.00473733,0.594231,0.00329791,0.0212917,916,1674,3.61485,-11.4157
-301,-650,3.57867,11.6783,0.0031604,0.00435925,-0.000290289,0.00442584,0.0030938,-1.3453,0.00262187,0.0115253,923,1674,3.5787,-11.6784
-294,-650,3.55731,11.8788,0.00164828,0.00375865,-0.000564705,0.00390025,0.00150667,-1.3251,0.00227114,0.0109553,930,1674,3.55733,-11.8788
-287,-650,3.55206,12.0563,0.000651435,0.00301224,-0.000624569,0.00316729,0.000496384,-1.32746,0.00196706,0.0142528,937,1674,3.55209,-12.0562
-280,-650,3.53809,12.2297,4.99646e-05,0.00232112,-0.000633153,0.0024857,-0.00011462,-1.31648,0.00169663,0.0139551,944,1674,3.53808,-12.2298
-273,-650,3.54028,12.4274,-0.000321971,0.00172822,-0.000722081,0.001957,-0.000550758,-1.26396,0.00152185,0.0130739,951,1674,3.54031,-12.4274
-266,-650,3.54138,12.6096,-0.000549193,0.00115796,-0.000505863,0.0012966,-0.000687831,-1.3033,0.00116354,0.0112394,958,1674,3.54137,-12.6096
-259,-650,3.53882,12.7822,-0.000526752,0.000301252,-0.000279216,0.000386609,-0.000612109,-1.27412,0.000581488,0.0139026,965,1674,3.53884,-12.7822
-252,-650,3.5351,12.9568,-0.000263494,-0.000166463,-0.000294802,8.37893e-05,-0.000513745,-0.866952,0.000373572,0.0125399,972,1674,3.5351,-12.9568
-245,-650,3.54504,13.1273,-0.000109761,-0.000462685,4.82133e-05,-0.000103293,-0.000469152,0.133356,0.000284654,0.011947,979,1674,3.54507,-13.1274
-238,-650,3.5517,13.3018,-0.000228693,-0.00130409,0.000288672,-0.000156103,-0.00137668,0.246353,0.000870428,0.0137099,986,1674,3.55168,-13.3018
-231,-650,3.53754,13.4657,-0.000360367,-0.00222193,0.000467275,-0.000249659,-0.00233264,0.232633,0.00147891,0.0183047,993,1674,3.53757,-13.4657
-224,-650,3.53687,13.6282,-0.000505304,-0.00313293,0.000789471,-0.000286351,-0.00335188,0.270541,0.00214552,0.0146613,1000,1674,3.53687,-13.6282
-217,-650,3.54242,13.7769,-0.000878592,-0.00413547,0.00104266,-0.000573394,-0.00444067,0.284756,0.00278903,0.00966738,1007,1674,3.54241,-13.7768
-210,-650,3.53973,13.9335,-0.00137854,-0.00524725,0.00136082,-0.00094782,-0.00567797,0.306536,0.00351227,0.0085664,1014,1674,3.53972,-13.9335
-203,-650,3.55652,14.0986,-0.00190453,-0.00626139,0.0016518,-0.0013491,-0.00681682,0.32438,0.00416827,0.0126866,1021,1674,3.5565,-14.0986
-196,-650,3.55884,14.2366,-0.00240272,-0.00724493,0.00196589,-0.0017051,-0.00794255,0.341002,0.0048281,0.0124846,1028,1674,3.55881,-14.2365
-189,-650,3.55811,14.3756,-0.00292229,-0.00819286,0.00218416,-0.00213482,-0.00898033,0.346033,0.00541736,0.0101596,1035,1674,3.55815,-14.3756
-182,-650,3.59827,14.5374,-0.0033471,-0.00889794,0.00221049,-0.00257439,-0.00967064,0.336287,0.00578322,0.00924364,1042,1674,3.59824,-14.5373
-175,-650,3.64258,14.6409,-0.00318167,-0.00936444,0.00191605,-0.00263603,-0.00991007,0.277427,0.00592677,0.0145509,1049,1674,3.64253,-14.6409
-168,-650,3.64294,14.764,-0.00209852,-0.00972352,0.00181983,-0.00168646,-0.0101356,0.222675,0.00627095,0.0193568,1056,1674,3.64301,-14.764
-161,-650,3.58215,14.9301,-0.00090421,-0.00993628,0.00162301,-0.000621419,-0.0102191,0.172507,0.00661531,0.0292966,1063,1674,3.5821,-14.9301
-154,-650,3.62268,15.0654,0.00100838,-0.0101135,0.0013647,0.00117339,-0.0102785,0.120327,0.00727505,0.0342363,1070,1674,3.62272,-15.0654
-147,-650,3.86047,14.8873,0,0,0,0,0,0,0,-1,1077,1674,3.86049,-14.8873
-140,-650,3.57703,15.224,0,0,0,0,0,0,0,-1,1084,1674,3.57699,-15.224
-133,-650,3.29346,15.5607,0,0,0,0,0,0,0,-1,1091,1674,3.29349,-15.5607
-126,-650,2.83032,14.9022,0,0,0,0,0,0,0,-1,1098,1674,2.83036,-14.9022
-119,-650,4.58435,15.0319,0,0,0,0,0,0,0,-1,1105,1674,4.58432,-15.0319
-112,-650,3.86292,14.4513,0,0,0,0,0,0,0,-1,1112,1674,3.8629,-14.4513
-105,-650,4.9259,12.0626,0,0,0,0,0,0,0,-1,1119,1674,4.92591,-12.0626
-98,-650,3.3761,6.78003,0,0,0,0,0,0,0,-1,1126,1674,3.37611,-6.78009
-91,-650,3.66809,7.04443,0,0,0,0,0,0,0,-1,1133,1674,3.66806,-7.04439
-84,-650,-3.82666,-1.59521,0,0,0,0,0,0,0,-1,1140,1674,-3.82661,1.59517
-77,-650,-4.70557,1.90198,0,0,0,0,0,0,0,-1,1147,1674,-4.7056,-1.90194
-70,-650,-4.88171,3.81653,0,0,0,0,0,0,0,-1,1154,1674,-4.88176,-3.81651
-63,-650,-5.14612,5.56543,0,0,0,0,0,0,0,-1,1161,1674,-5.14612,-5.56547
-56,-650,-5.38367,7.41101,0,0,0,0,0,0,0,-1,1168,1674,-5.38361,-7.41102
-49,-650,-5.11316,8.23706,0,0,0,0,0,0,0,-1,1175,1674,-5.11317,-8.23708
-42,-650,-4.99487,9.6792,0,0,0,0,0,0,0,-1,1182,1674,-4.99484,-9.67921
-35,-650,-4.77771,11.3369,0,0,0,0,0,0,0,-1,1189,1674,-4.77769,-11.3369
-28,-650,-4.1936,13.1501,0,0,0,0,0,0,0,-1,1196,1674,-4.19358,-13.1501
-21,-650,3.4165,11.1599,0,0,0,0,0,0,0,-1,1203,1674,3.41654,-11.1599
-14,-650,3.69055,22.559,0,0,0,0,0,0,0,-1,1210,1674,3.69056,-22.559
-7,-650,5.12866,21.5181,0.051702,0.150587,-0.0928341,0.206324,-0.00403505,-1.03009,0.138914,0.0476388,1217,1674,5.12869,-21.5181
0,-650,5.10352,20.3612,0.0531495,0.138674,-0.084505,0.19062,0.00120328,-1.01963,0.126681,0.0432941,1224,1674,5.1035,-20.3612
7,-650,5.20605,19.4371,0.0545892,0.120171,-0.0754425,0.16964,0.00511932,-0.990404,0.111426,0.0431757,1231,1674,5.20607,-19.4371
14,-650,5.48901,18.2365,0.0535529,0.101318,-0.0667455,0.148325,0.00654604,-0.95721,0.0967754,0.044496,1238,1674,5.48901,-18.2365
21,-650,5.39001,17.1552,0,0,0,0,0,0,0,-1,1245,1674,5.39002,-17.1552
28,-650,5.24158,16.0443,0,0,0,0,0,0,0,-1,1252,1674,5.24157,-16.0443
35,-650,7.67188,12.6049,0.0348541,0.0570441,-0.0438017,0.0911342,0.000764005,-0.909439,0.0605031,0.0425933,1259,1674,7.67189,-12.6048
42,-650,8.54553,11.4089,0.0237447,0.0467425,-0.0365565,0.073566,-0.00307876,-0.937774,0.0501018,0.0426089,1266,1674,8.54554,-11.4089
49,-650,9.52844,10.5226,0.0107156,0.0377171,-0.0297223,0.0568612,-0.00842854,-0.99858,0.0410067,0.0467409,1273,1674,9.5284,-10.5226
56,-650,8.05493,15.1219,0.00262679,0.0389166,-0.027792,0.0539625,-0.0124191,-1.0746,0.0407505,0.0475863,1280,1674,8.05497,-15.1219
63,-650,6.73889,14.735,-0.00232911,0.0405901,-0.0256645,0.0525846,-0.0143237,-1.1336,0.0406804,0.0454682,1287,1674,6.73892,-14.735
70,-650,5.67053,14.397,0,0,0,0,0,0,0,-1,1294,1674,5.67055,-14.397
77,-650,5.05676,16.587,0,0,0,0,0,0,0,-1,1301,1674,5.05681,-16.587
84,-650,6.56348,14.2129,0,0,0,0,0,0,0,-1,1308,1674,6.56345,-14.2129
91,-650,4.6886,16.8889,0,0,0,0,0,0,0,-1,1315,1674,4.68859,-16.889
98,-650,17.4622,-2.48865,0,0,0,0,0,0,0,-1,1322,1674,17.4621,2.48859
105,-650,17.5665,-2.82971,-0.0184678,0.139327,-0.0589066,0.158892,-0.0380325,-1.25013,0.120621,0.0449596,1329,1674,17.5665,2.82969
112,-650,17.7462,-3.32751,-0.00743173,0.15641,-0.0678598,0.180865,-0.0318875,-1.2249,0.132491,0.0418221,1336,1674,17.7462,3.32747
119,-650,7.00879,17.3625,0,0,0,0,0,0,0,-1,1343,1674,7.00874,-17.3626
126,-650,18.6836,-4.06323,0.00808052,0.186583,-0.078527,0.216211,-0.0215475,-1.21001,0.151834,0.0487376,1350,1674,18.6836,4.06328
133,-650,18.2714,-4.45605,0.0118934,0.202133,-0.0848388,0.234471,-0.0204443,-1.20663,0.163555,0.0465213,1357,1674,18.2714,4.45605
140,-650,17.7754,-4.92419,0,0,0,0,0,0,0,-1,1364,1674,17.7754,4.92415
147,-650,18.4685,-4.68774,0,0,0,0,0,0,0,-1,1371,1674,18.4685,4.68769
154,-650,18.8168,-4.73914,0,0,0,0,0,0,0,-1,1378,1674,18.8168,4.73914
161,-650,11.2434,8.83008,0,0,0,0,0,0,0,-1,1385,1674,11.2434,-8.83004
168,-650,11.2113,7.87231,0,0,0,0,0,0,0,-1,1392,1674,11.2113,-7.87236
175,-650,5.62537,-0.230713,0,0,0,0,0,0,0,-1,1399,1674,5.62538,0.230745
182,-650,5.56006,0.421631,0,0,0,0,0,0,0,-1,1406,1674,5.56,-0.421652
189,-650,4.81543,11.0654,0,0,0,0,0,0,0,-1,1413,1674,4.81542,-11.0654
196,-650,5.39575,11.9077,0,0,0,0,0,0,0,-1,1420,1674,5.39575,-11.9078
203,-650,3.93628,11.8215,0,0,0,0,0,0,0,-1,1427,1674,3.93624,-11.8216
210,-650,5.40955,8.08594,0,0,0,0,0,0,0,-1,1434,1674,5.40958,-8.086
217,-650,5.12451,4.69739,0,0,0,0,0,0,0,-1,1441,1674,5.12451,-4.69738
224,-650,4.79041,1.45813,0,0,0,0,0,0,0,-1,1448,1674,4.79046,-1.45816
231,-650,4.04102,-0.642212,0,0,0,0,0,0,0,-1,1455,1674,4.04101,0.642209
238,-650,3.23022,-1.43396,0,0,0,0,0,0,0,-1,1462,1674,3.23023,1.43394
245,-650,1.65894,-2.55042,0,0,0,0,0,0,0,-1,1469,1674,1.65889,2.55036
252,-650,8.75342,0.355103,0,0,0,0,0,0,0,-1,1476,1674,8.75337,-0.355147
259,-650,5.61255,3.17566,0,0,0,0,0,0,0,-1,1483,1674,5.61257,-3.17572
266,-650,4.00403,6.10229,0,0,0,0,0,0,0,-1,1490,1674,4.00401,-6.10225
273,-650,5.4093,14.3718,0,0,0,0,0,0,0,-1,1497,1674,5.40929,-14.3718
280,-650,5.44788,15.2096,0,0,0,0,0,0,0,-1,1504,1674,5.44793,-15.2096
287,-650,5.79041,15.3218,0.00449815,-0.0136444,0.00678762,0.00675647,-0.0159027,0.321191,0.0134329,0.0464705,1511,1674,5.79042,-15.3218
294,-650,5.94788,15.2699,0.00424232,-0.0120664,0.00631432,0.00640126,-0.0142254,0.329451,0.012191,0.0405511,1518,1674,5.94788,-15.2699
301,-650,5.94336,15.1803,0.00400811,-0.0101345,0.00576288,0.00605898,-0.0121854,0.341901,0.0107295,0.0319016,1525,1674,5.94341,-15.1803
308,-650,5.93738,15.1884,0.00373159,-0.00809127,0.00516499,0.00567014,-0.0100298,0.359055,0.00918013,0.0184261,1532,1674,5.93738,-15.1883
315,-650,5.97607,15.1519,0.00338757,-0.00634768,0.00457053,0.00519704,-0.00815715,0.376965,0.00777292,0.0109524,1539,1674,5.97604,-15.1519
322,-650,5.9873,15.0247,0.0029537,-0.00485828,0.00402089,0.00465345,-0.00655803,0.399946,0.00650401,0.00943351,1546,1674,5.98726,-15.0246
329,-650,6.01013,14.859,0.00273246,-0.00403963,0.00353199,0.00423929,-0.00554646,0.403246,0.00566658,0.0143896,1553,1674,6.01015,-14.859
336,-650,5.99683,14.7689,0.0022935,-0.00341337,0.00322871,0.00374897,-0.00486884,0.423511,0.00498948,0.0130517,1560,1674,5.99687,-14.7689
343,-650,5.98657,14.6593,0.00177231,-0.00302209,0.00285605,0.00310387,-0.00435364,0.436262,0.0043257,0.0130489,1567,1674,5.98656,-14.6593
350,-650,6.00708,14.5372,0.00146725,-0.00271108,0.00242421,0.00257831,-0.00382213,0.429748,0.00371848,0.0152539,1574,1674,6.00709,-14.5372
357,-650,6.01782,14.3975,0.00137036,-0.00234032,0.00184392,0.0021308,-0.00310077,0.391156,0.0030377,0.0124196,1581,1674,6.01783,-14.3974
364,-650,6.026,14.2361,0.00122299,-0.00198373,0.00133915,0.00170867,-0.00246941,0.347924,0.00242551,0.00818511,1588,1674,6.02603,-14.2361
371,-650,6.02063,14.0844,0.00112022,-0.00155903,0.00081031,0.00134622,-0.00178503,0.272,0.00181374,0.0103462,1595,1674,6.02065,-14.0844
378,-650,6.02649,13.9445,0.00104241,-0.000922674,0.000192894,0.00106116,-0.00094143,0.0969281,0.00115689,0.011737,1602,1674,6.02647,-13.9445
385,-650,6.03723,13.7942,0.00111414,0.000104011,-0.000599115,0.00139267,-0.000174525,-0.435186,0.000991755,0.0125919,1609,1674,6.03728,-13.7941
392,-650,6.04529,13.6287,0.00120093,0.00152819,-0.0014443,0.0028181,-8.89776e-05,-0.841805,0.00190909,0.01636,1616,1674,6.04527,-13.6287
399,-650,6.05249,13.4946,0.0012795,0.00296167,-0.00221047,0.00448567,-0.000244497,-0.96719,0.00307519,0.0154112,1623,1674,6.05253,-13.4946
406,-650,6.02734,13.3511,0.00145192,0.00441671,-0.00292323,0.00621193,-0.000343305,-1.02006,0.00426033,0.0142789,1630,1674,6.02735,-13.3511
413,-650,6.02991,13.1827,0.00181944,0.00588753,-0.0037754,0.00814196,-0.000434979,-1.03249,0.00557862,0.0146544,1637,1674,6.02987,-13.1827
420,-650,6.02502,13.0298,0.00201269,0.0073578,-0.00446168,0.00988612,-0.000515638,-1.05524,0.00676918,0.0149838,1644,1674,6.02503,-13.0298
427,-650,6.00989,12.8646,0.00219182,0.00846363,-0.00496171,0.0111974,-0.000541896,-1.06721,0.00765193,0.0146263,1651,1674,6.00995,-12.8646
434,-650,5.98926,12.6887,0.00249705,0.00929222,-0.00539329,0.0122689,-0.000479628,-1.06648,0.00834373,0.0169898,1658,1674,5.98926,-12.6887
441,-650,6.00061,12.4865,0.00297172,0.0097663,-0.00547659,0.0128137,-7.57216e-05,-1.06301,0.00856785,0.0265499,1665,1674,6.00064,-12.4864
448,-650,5.89441,12.433,0.00393063,0.00991052,-0.00517412,0.0128965,0.000944678,-1.04739,0.00830069,0.0400033,1672,1674,5.89436,-12.433
455,-650,5.86865,12.3359,0.00513151,0.0098694,-0.00482823,0.0128785,0.00212238,-1.01347,0.00797295,0.0440203,1679,1674,5.86868,-12.336
462,-650,6.28088,11.9834,0.00679044,0.00940522,-0.00411056,0.0124113,0.00378437,-0.939368,0.00734522,0.0482968,1686,1674,6.28082,-11.9834
469,-650,6.30444,11.8202,0,0,0,0,0,0,0,-1,1693,1674,6.30449,-11.8202
476,-650,4.55273,11.8104,0,0,0,0,0,0,0,-1,1700,1674,4.55268,-11.8104
483,-650,7.07556,8.22815,0,0,0,0,0,0,0,-1,1707,1674,7.07555,-8.22811
490,-650,7.07666,7.5697,0,0,0,0,0,0,0,-1,1714,1674,7.07668,-7.56968
497,-650,6.5741,7.32288,0,0,0,0,0,0,0,-1,1721,1674,6.57409,-7.3229
504,-650,5.51282,8.92017,0,0,0,0,0,0,0,-1,1728,1674,5.51277,-8.92012
511,-650,4.96912,8.36682,0,0,0,0,0,0,0,-1,1735,1674,4.96913,-8.36678
518,-650,0,0,0,0,0,0,0,0,0,-1,1742,1674,0,0
525,-650,0,0,0,0,0,0,0,0,0,-1,1749,1674,0,0
532,-650,0,0,0,0,0,0,0,0,0,-1,1756,1674,0,0
539,-650,0,0,0,0,0,0,0,0,0,-1,1763,1674,0,0
546,-650,0,0,0,0,0,0,0,0,0,-1,1770,1674,0,0
553,-650,0,0,0,0,0,0,0,0,0,-1,1777,1674,0,0
560,-650,0,0,0,0,0,0,0,0,0,-1,1784,1674,0,0
567,-650,0,0,0,0,0,0,0,0,0,-1,1791,1674,0,0
574,-650,0,0,0,0,0,0,0,0,0,-1,1798,1674,0,0
581,-650,0,0,0,0,0,0,0,0,0,-1,1805,1674,0,0
588,-650,0,0,0,0,0,0,0,0,0,-1,1812,1674,0,0
595,-650,0,0,0,0,0,0,0,0,0,-1,1819,1674,0,0
602,-650,0,0,0,0,0,0,0,0,0,-1,1826,1674,0,0
609,-650,0,0,0,0,0,0,0,0,0,-1,1833,1674,0,0
616,-650,0,0,0,0,0,0,0,0,0,-1,1840,1674,0,0
623,-650,0,0,0,0,0,0,0,0,0,-1,1847,1674,0,0
630,-650,0,0,0,0,0,0,0,0,0,-1,1854,1674,0,0
637,-650,0,0,0,0,0,0,0,0,0,-1,1861,1674,0,0
644,-650,0,0,0,0,0,0,0,0,0,-1,1868,1674,0,0
651,-650,0,0,0,0,0,0,0,0,0,-1,1875,1674,0,0
658,-650,0,0,0,0,0,0,0,0,0,-1,1882,1674,0,0
665,-650,0,0,0,0,0,0,0,0,0,-1,1889,1674,0,0
672,-650,0,0,0,0,0,0,0,0,0,-1,1896,1674,0,0
679,-650,0,0,0,0,0,0,0,0,0,-1,1903,1674,0,0
686,-650,0,0,0,0,0,0,0,0,0,-1,1910,1674,0,0
693,-650,0,0,0,0,0,0,0,0,0,-1,1917,1674,0,0
700,-650,0,0,0,0,0,0,0,0,0,-1,1924,1674,0,0
707,-650,0,0,0,0,0,0,0,0,0,-1,1931,1674,0,0
714,-650,0,0,0,0,0,0,0,0,0,-1,1938,1674,0,0
721,-650,0,0,0,0,0,0,0,0,0,-1,1945,1674,0,0
728,-650,0,0,0,0,0,0,0,0,0,-1,1952,1674,0,0
735,-650,0,0,0,0,0,0,0,0,0,-1,1959,1674,0,0
742,-650,0,0,0,0,0,0,0,0,0,-1,1966,1674,0,0
749,-650,0,0,0,0,0,0,0,0,0,-1,1973,1674,0,0
756,-650,0,0,0,0,0,0,0,0,0,-1,1980,1674,0,0
763,-650,0,0,0,0,0,0,0,0,0,-1,1987,1674,0,0
770,-650,0,0,0,0,0,0,0,0,0,-1,1994,1674,0,0
777,-650,0,0,0,0,0,0,0,0,0,-1,2001,1674,0,0
784,-650,0,0,0,0,0,0,0,0,0,-1,2008,1674,0,0
791,-650,0,0,0,0,0,0,0,0,0,-1,2015,1674,0,0
798,-650,0,0,0,0,0,0,0,0,0,-1,2022,1674,0,0
805,-650,0,0,0,0,0,0,0,0,0,-1,2029,1674,0,0
812,-650,0,0,0,0,0,0,0,0,0,-1,2036,1674,0,0
-700,-657,0,0,0,0,0,0,0,0,0,-1,524,1681,0,0
-693,-657,0,0,0,0,0,0,0,0,0,-1,531,1681,0,0
-686,-657,0,0,0,0,0,0,0,0,0,-1,538,1681,0,0
-679,-657,0,0,0,0,0,0,0,0,0,-1,545,1681,0,0
-672,-657,0,0,0,0,0,0,0,0,0,-1,552,1681,0,0
-665,-657,0,0,0,0,0,0,0,0,0,-1,559,1681,0,0
-658,-657,0,0,0,0,0,0,0,0,0,-1,566,1681,0,0
-651,-657,0,0,0,0,0,0,0,0,0,-1,573,1681,0,0
-644,-657,0,0,0,0,0,0,0,0,0,-1,580,1681,0,0
-637,-657,0,0,0,0,0,0,0,0,0,-1,587,1681,0,0
-630,-657,0,0,0,0,0,0,0,0,0,-1,594,1681,0,0
-623,-657,0,0,0,0,0,0,0,0,0,-1,601,1681,0,0
-616,-657,0,0,0,0,0,0,0,0,0,-1,608,1681,0,0
-609,-657,0,0,0,0,0,0,0,0,0,-1,615,1681,0,0
-602,-657,0,0,0,0,0,0,0,0,0,-1,622,1681,0,0
-595,-657,0,0,0,0,0,0,0,0,0,-1,629,1681,0,0
-588,-657,0,0,0,0,0,0,0,0,0,-1,636,1681,0,0
-581,-657,0,0,0,0,0,0,0,0,0,-1,643,1681,0,0
-574,-657,0,0,0,0,0,0,0,0,0,-1,650,1681,0,0
-567,-657,0,0,0,0,0,0,0,0,0,-1,657,1681,0,0
-560,-657,0,0,0,0,0,0,0,0,0,-1,664,1681,0,0
-553,-657,0,0,0,0,0,0,0,0,0,-1,671,1681,0,0
-546,-657,0,0,0,0,0,0,0,0,0,-1,678,1681,0,0
-539,-657,0,0,0,0,0,0,0,0,0,-1,685,1681,0,0
-532,-657,0,0,0,0,0,0,0,0,0,-1,692,1681,0,0
-525,-657,0,0,0,0,0,0,0,0,0,-1,699,1681,0,0
-518,-657,0,0,0,0,0,0,0,0,0,-1,706,1681,0,0
-511,-657,0,0,0,0,0,0,0,0,0,-1,713,1681,0,0
-504,-657,0,0,0,0,0,0,0,0,0,-1,720,1681,0,0
-497,-657,0,0,0,0,0,0,0,0,0,-1,727,1681,0,0
-490,-657,0,0,0,0,0,0,0,0,0,-1,734,1681,0,0
-483,-657,0,0,0,0,0,0,0,0,0,-1,741,1681,0,0
-476,-657,0,0,0,0,0,0,0,0,0,-1,748,1681,0,0
-469,-657,0,0,0,0,0,0,0,0,0,-1,755,1681,0,0
-462,-657,0,0,0,0,0,0,0,0,0,-1,762,1681,0,0
-455,-657,0,0,0,0,0,0,0,0,0,-1,769,1681,0,0
-448,-657,0,0,0,0,0,0,0,0,0,-1,776,1681,0,0
-441,-657,0,0,0,0,0,0,0,0,0,-1,783,1681,0,0
-434,-657,0,0,0,0,0,0,0,0,0,-1,790,1681,0,0
-427,-657,0,0,0,0,0,0,0,0,0,-1,797,1681,0,0
-420,-657,0,0,0,0,0,0,0,0,0,-1,804,1681,0,0
-413,-657,0,0,0,0,0,0,0,0,0,-1,811,1681,0,0
-406,-657,0,0,0,0,0,0,0,0,0,-1,818,1681,0,0
-399,-657,0,0,0,0,0,0,0,0,0,-1,825,1681,0,0
-392,-657,0,0,0,0,0,0,0,0,0,-1,832,1681,0,0
-385,-657,1.09814,6.18896,0,0,0,0,0,0,0,-1,839,1681,1.09814,-6.18894
-378,-657,0.31488,4.46753,0,0,0,0,0,0,0,-1,846,1681,0.31487,-4.46755
-371,-657,-0.519043,2.69421,0,0,0,0,0,0,0,-1,853,1681,-0.519064,-2.69422
-364,-657,-3.42017,4.18323,0,0,0,0,0,0,0,-1,860,1681,-3.42019,-4.18319
-357,-657,-4.41913,2.97168,0,0,0,0,0,0,0,-1,867,1681,-4.41913,-2.97165
-350,-657,-5.42291,1.70276,0,0,0,0,0,0,0,-1,874,1681,-5.42291,-1.70277
-343,-657,-6.51294,0.397339,0,0,0,0,0,0,0,-1,881,1681,-6.51295,-0.397335
-336,-657,3.52148,10.3204,0,0,0,0,0,0,0,-1,888,1681,3.52147,-10.3204
-329,-657,3.45038,10.5112,0.0161015,0.00480107,0.00176335,0.0163703,0.00453231,0.151254,0.00976005,0.0489562,895,1681,3.4504,-10.5113
-322,-657,3.50763,10.988,0.0123848,0.00621481,0.0011493,0.0125919,0.00600768,0.178309,0.00727247,0.043933,902,1681,3.50763,-10.988
-315,-657,3.86768,10.6804,0.00897587,0.00618187,0.00038805,0.00902876,0.00612898,0.135472,0.00532273,0.0417433,909,1681,3.86766,-10.6805
-308,-657,3.97467,11.1172,0.00610319,0.00569226,-0.000314901,0.00627373,0.00552172,-0.496337,0.00395572,0.0361364,916,1681,3.97469,-11.1172
-301,-657,3.78583,11.6143,0.00369213,0.00499955,-0.000826852,0.00539989,0.00329179,-1.11989,0.0031425,0.0283155,923,1681,3.78585,-11.6143
-294,-657,3.72046,11.8827,0.00177861,0.00419111,-0.0011165,0.00462851,0.0013412,-1.19741,0.00274988,0.01659,930,1681,3.72047,-11.8827
-287,-657,3.71423,12.08,0.000503009,0.0032781,-0.00119438,0.00372135,5.97589e-05,-1.21544,0.00246122,0.0115273,937,1681,3.71424,-12.0799
-280,-657,3.70129,12.2458,-0.000301986,0.00253498,-0.00121282,0.00298278,-0.000749787,-1.2171,0.00227992,0.0131967,944,1681,3.70131,-12.2458
-273,-657,3.70367,12.4253,-0.000842215,0.00191634,-0.00131178,0.00244052,-0.0013664,-1.19064,0.0022269,0.00981711,951,1681,3.7037,-12.4253
-266,-657,3.68085,12.6022,-0.0011833,0.00135694,-0.00104184,0.00172957,-0.00155594,-1.22731,0.00189777,0.014277,958,1681,3.68083,-12.6022
-259,-657,3.68719,12.7891,-0.00120149,0.000506809,-0.00074747,0.000787685,-0.00148236,-1.21135,0.00133091,0.018668,965,1681,3.68721,-12.7891
-252,-657,3.6889,12.9546,-0.000944103,0.000258211,-0.000790673,0.000650308,-0.0013362,-1.11043,0.00116948,0.0125381,972,1681,3.68891,-12.9545
-245,-657,3.70337,13.1093,-0.000596055,0.00025378,-0.000451957,0.000449201,-0.000791476,-1.16268,0.000725334,0.0143601,979,1681,3.70336,-13.1092
-238,-657,3.71545,13.2864,-0.000452055,-0.000379568,-0.000212294,-0.000200445,-0.000631177,-0.869945,0.000372408,0.0191537,986,1681,3.71545,-13.2864
-231,-657,3.70789,13.4446,-0.000455879,-0.00107792,-5.27772e-05,-0.000451433,-0.00108236,-0.0840452,0.00062776,0.0196929,993,1681,3.70788,-13.4446
-224,-657,3.70105,13.6302,-0.000418187,-0.00171125,0.000232773,-0.000377561,-0.00175188,0.172793,0.00106462,0.0152794,1000,1681,3.70108,-13.6302
-217,-657,3.70367,13.7977,-0.000528272,-0.00239232,0.000415391,-0.000439895,-0.0024807,0.209631,0.00152841,0.0100572,1007,1681,3.70366,-13.7977
-210,-657,3.70599,13.9436,-0.000762632,-0.00317105,0.000659162,-0.000594028,-0.00333965,0.250415,0.00205722,0.00991745,1014,1681,3.70602,-13.9436
-203,-657,3.71265,14.1019,-0.00101249,-0.00392445,0.000854694,-0.000780163,-0.00415678,0.265411,0.00255121,0.0119519,1021,1681,3.71267,-14.1019
-196,-657,3.71985,14.2438,-0.00123369,-0.0046747,0.00107952,-0.000923064,-0.00498533,0.280179,0.00306259,0.0126321,1028,1681,3.71982,-14.2437
-189,-657,3.71948,14.3866,-0.00147183,-0.00537283,0.00121927,-0.0011221,-0.00572256,0.279337,0.00350146,0.00933789,1035,1681,3.71943,-14.3866
-182,-657,3.72876,14.5276,-0.00166109,-0.00595022,0.00115632,-0.00136922,-0.00624209,0.247251,0.00378838,0.00795026,1042,1681,3.72875,-14.5276
-175,-657,3.75525,14.6661,-0.00138132,-0.00637638,0.000838976,-0.00124417,-0.00651353,0.162039,0.00399277,0.00988259,1049,1681,3.75525,-14.6661
-168,-657,3.74109,14.8074,-0.000432635,-0.00675588,0.00072628,-0.000350288,-0.00683823,0.1129,0.00444666,0.0114239,1056,1681,3.74114,-14.8074
-161,-657,3.73413,14.9174,0.000552322,-0.00699651,0.000554851,0.000592886,-0.00703708,0.0729789,0.00490098,0.0113639,1063,1681,3.73415,-14.9173
-154,-657,3.76233,15.0525,0.00208509,-0.00720704,0.000329109,0.00209674,-0.00721869,0.035359,0.00564275,0.0123722,1070,1681,3.76234,-15.0525
-147,-657,3.79688,15.1486,0.00394523,-0.00728471,-0.000144112,0.00394708,-0.00728656,-0.01283,0.00658058,0.0178731,1077,1681,3.79683,-15.1485
-140,-657,3.74255,15.2238,0.00689085,-0.00776849,-0.000982752,0.00695644,-0.00783408,-0.0666419,0.00854432,0.0282593,1084,1681,3.74255,-15.2237
-133,-657,3.53967,15.3063,0.0105911,-0.00832486,-0.00131931,0.0106827,-0.00841643,-0.0692987,0.0110527,0.0357861,1091,1681,3.53968,-15.3063
-126,-657,3.51489,15.3519,0.0132552,-0.00954147,-0.00109443,0.0133076,-0.00959389,-0.0478616,0.01328,0.0402899,1098,1681,3.51491,-15.3519
-119,-657,4.23035,15.394,0.0162877,-0.0108202,-0.000863651,0.0163152,-0.0108477,-0.0318168,0.015788,0.0470823,1105,1681,4.23031,-15.3941
-112,-657,4.07581,15.6265,0,0,0,0,0,0,0,-1,1112,1681,4.0758,-15.6265
-105,-657,3.82434,14.4906,0,0,0,0,0,0,0,-1,1119,1681,3.8244,-14.4906
-98,-657,3.78662,8.16785,0,0,0,0,0,0,0,-1,1126,1681,3.78663,-8.16786
-91,-657,5.07178,13.8409,0,0,0,0,0,0,0,-1,1133,1681,5.07173,-13.8409
-84,-657,4.08008,10.4579,0,0,0,0,0,0,0,-1,1140,1681,4.08006,-10.4579
-77,-657,-5.29846,0.396606,0,0,0,0,0,0,0,-1,1147,1681,-5.29842,-0.396573
-70,-657,-4.14893,2.14575,0,0,0,0,0,0,0,-1,1154,1681,-4.14893,-2.1458
-63,-657,-4.1239,3.177,0,0,0,0,0,0,0,-1,1161,1681,-4.12391,-3.17698
-56,-657,-6.40576,5.73987,0,0,0,0,0,0,0,-1,1168,1681,-6.40577,-5.7399
-49,-657,-5.98462,7.54053,0,0,0,0,0,0,0,-1,1175,1681,-5.98466,-7.5405
-42,-657,-5.71948,9.28955,0,0,0,0,0,0,0,-1,1182,1681,-5.71951,-9.2895
-35,-657,-5.44556,11.015,0,0,0,0,0,0,0,-1,1189,1681,-5.44555,-11.015
-28,-657,-1.3446,8.92847,0,0,0,0,0,0,0,-1,1196,1681,-1.34459,-8.92848
-21,-657,3.93604,22.5073,0,0,0,0,0,0,0,-1,1203,1681,3.93608,-22.5073
-14,-657,3.98938,21.6138,0.0483042,0.132518,-0.0833656,0.183807,-0.00298497,-1.01925,0.123545,0.0484239,1210,1681,3.9894,-21.6138
-7,-657,5.11646,20.5867,0.0465986,0.122305,-0.075807,0.169184,-0.000280604,-1.01696,0.112883,0.0492406,1217,1681,5.11649,-20.5867
0,-657,5.27002,19.7126,0.0473705,0.10992,-0.0685376,0.153981,0.00330928,-0.999445,0.101569,0.0455973,1224,1681,5.26998,-19.7126
7,-657,5.33508,18.8203,0.048065,0.0933423,-0.0605637,0.13536,0.00604712,-0.964257,0.0882935,0.0461089,1231,1681,5.33505,-18.8203
14,-657,5.38696,17.8964,0.0468947,0.0760331,-0.0530134,0.116443,0.00648491,-0.919498,0.0755597,0.044996,1238,1681,5.387,-17.8964
21,-657,5.44214,16.9678,0,0,0,0,0,0,0,-1,1245,1681,5.4421,-16.9677
28,-657,6.72729,14.554,0.0378518,0.0470062,-0.0392984,0.081993,0.00286497,-0.843373,0.0537325,0.0416559,1252,1681,6.72735,-14.5539
35,-657,7.31653,13.7672,0.0298621,0.0352188,-0.0329871,0.0656361,-0.00055524,-0.825907,0.0439437,0.0394136,1259,1681,7.3165,-13.7673
42,-657,8.03748,13.2163,0,0,0,0,0,0,0,-1,1266,1681,8.03744,-13.2163
49,-657,8.80444,15.1398,0.00991773,0.0161929,-0.0206941,0.033986,-0.00787533,-0.860634,0.025688,0.0453192,1273,1681,8.80441,-15.1398
56,-657,7.82996,15.2913,0.00245782,0.0147805,-0.0180218,0.0276651,-0.0104268,-0.95011,0.0227307,0.0445071,1280,1681,7.82993,-15.2912
63,-657,6.79993,15.2136,-0.00333859,0.0147222,-0.014809,0.0230369,-0.0116533,-1.05919,0.0203847,0.0498016,1287,1681,6.79994,-15.2136
70,-657,5.85925,16.755,0,0,0,0,0,0,0,-1,1294,1681,5.85931,-16.7551
77,-657,5.073,16.6831,0,0,0,0,0,0,0,-1,1301,1681,5.07294,-16.6831
84,-657,4.77734,16.514,0,0,0,0,0,0,0,-1,1308,1681,4.77735,-16.5141
91,-657,4.52734,16.933,0,0,0,0,0,0,0,-1,1315,1681,4.5274,-16.933
98,-657,4.62915,17.2015,0,0,0,0,0,0,0,-1,1322,1681,4.62919,-17.2015
105,-657,18.6404,-3.99805,0,0,0,0,0,0,0,-1,1329,1681,18.6404,3.998
112,-657,7.00208,16.0745,0,0,0,0,0,0,0,-1,1336,1681,7.00209,-16.0744
119,-657,6.68347,17.2229,0,0,0,0,0,0,0,-1,1343,1681,6.68348,-17.2229
126,-657,6.36487,18.3715,0,0,0,0,0,0,0,-1,1350,1681,6.36486,-18.3714
133,-657,19.5996,-6.19128,0,0,0,0,0,0,0,-1,1357,1681,19.5996,6.19127
140,-657,19.1201,-6.68433,0,0,0,0,0,0,0,-1,1364,1681,19.1201,6.68436
147,-657,6.41956,15.7657,0,0,0,0,0,0,0,-1,1371,1681,6.41961,-15.7658
154,-657,12.2501,7.70422,0,0,0,0,0,0,0,-1,1378,1681,12.2501,-7.70418
161,-657,12.8524,6.43372,0,0,0,0,0,0,0,-1,1385,1681,12.8524,-6.43366
168,-657,5.21643,0.70105,0,0,0,0,0,0,0,-1,1392,1681,5.21648,-0.7011
175,-657,5.52771,0.649048,0,0,0,0,0,0,0,-1,1399,1681,5.52774,-0.649019
182,-657,5.73999,1.02612,0,0,0,0,0,0,0,-1,1406,1681,5.73995,-1.02611
189,-657,5.92126,1.44116,0,0,0,0,0,0,0,-1,1413,1681,5.92126,-1.44115
196,-657,4.92834,9.59021,0,0,0,0,0,0,0,-1,1420,1681,4.9284,-9.59018
203,-657,6.26343,5.16492,0,0,0,0,0,0,0,-1,1427,1681,6.26345,-5.16488
210,-657,3.9856,5.28088,0,0,0,0,0,0,0,-1,1434,1681,3.98555,-5.28084
217,-657,3.95178,5.2843,0,0,0,0,0,0,0,-1,1441,1681,3.95174,-5.28431
224,-657,6.66736,-0.250244,0,0,0,0,0,0,0,-1,1448,1681,6.66737,0.250229
231,-657,6.85498,-1.70752,0,0,0,0,0,0,0,-1,1455,1681,6.855,1.70758
238,-657,5.34143,-2.89819,0,0,0,0,0,0,0,-1,1462,1681,5.34143,2.89813
245,-657,8.66003,-0.102783,0,0,0,0,0,0,0,-1,1469,1681,8.66,0.102824
252,-657,4.78955,0.623779,0,0,0,0,0,0,0,-1,1476,1681,4.7895,-0.623826
259,-657,2.61523,4.31909,0,0,0,0,0,0,0,-1,1483,1681,2.61523,-4.31908
266,-657,5.35437,11.4742,0,0,0,0,0,0,0,-1,1490,1681,5.35441,-11.4742
273,-657,5.54041,15.2747,0,0,0,0,0,0,0,-1,1497,1681,5.54039,-15.2746
280,-657,5.6095,15.3752,0.00373324,-0.0118247,0.00507137,0.00524035,-0.0133318,0.288867,0.0110566,0.0391729,1504,1681,5.6095,-15.3752
287,-657,5.76978,15.4449,0.0035135,-0.0105388,0.00479459,0.00499352,-0.0120188,0.299406,0.0100974,0.0313129,1511,1681,5.76976,-15.445
294,-657,5.81482,15.4546,0.00330579,-0.00935187,0.00447727,0.00472938,-0.0107755,0.307851,0.00917579,0.0242155,1518,1681,5.81476,-15.4546
301,-657,5.79053,15.3801,0.00311016,-0.00792712,0.00408014,0.00445468,-0.00927164,0.318322,0.00808591,0.0160943,1525,1681,5.79051,-15.3801
308,-657,5.82886,15.2642,0.00289169,-0.00637724,0.00364391,0.00415267,-0.00763823,0.333154,0.00690592,0.012025,1532,1681,5.82882,-15.2641
315,-657,5.87378,15.1477,0.00263882,-0.00501829,0.00319887,0.00379931,-0.00617878,0.348016,0.0058152,0.0107428,1539,1681,5.8738,-15.1477
322,-657,5.87964,14.9928,0.00232148,-0.00387192,0.00279674,0.00339746,-0.00494791,0.367272,0.00484584,0.012502,1546,1681,5.87962,-14.9928
329,-657,5.87952,14.843,0.00205468,-0.0030439,0.00239904,0.003006,-0.00399522,0.377521,0.00405558,0.0182769,1553,1681,5.87953,-14.843
336,-657,5.87256,14.7499,0.00171837,-0.00231054,0.00205877,0.00258429,-0.00317646,0.398138,0.00333182,0.0158615,1560,1681,5.87259,-14.7499
343,-657,5.87646,14.6466,0.00137848,-0.00182666,0.00167764,0.00209598,-0.00254415,0.40414,0.00268315,0.0124176,1567,1681,5.8765,-14.6466
350,-657,5.88367,14.5176,0.00117219,-0.00147373,0.0012357,0.00165952,-0.00196107,0.375654,0.00209276,0.0149592,1574,1681,5.88361,-14.5176
357,-657,5.87927,14.3838,0.00114565,-0.00104392,0.000649947,0.00132404,-0.00122232,0.267878,0.00147053,0.014324,1581,1681,5.87929,-14.3838
364,-657,5.89685,14.2476,0.00112861,-0.000495683,6.59359e-05,0.00113129,-0.000498355,0.0405047,0.000964237,0.00969699,1588,1681,5.89682,-14.2476
371,-657,5.89722,14.1082,0.00117506,6.09316e-05,-0.000545735,0.00139784,-0.000161842,-0.387562,0.000990256,0.0133734,1595,1681,5.89723,-14.1081
378,-657,5.88721,13.9521,0.00127128,0.000816201,-0.00123931,0.00230376,-0.000216288,-0.69461,0.00161278,0.0136262,1602,1681,5.8872,-13.9522
385,-657,5.89734,13.7981,0.00147031,0.00202266,-0.00212362,0.00388799,-0.000395024,-0.85006,0.0027332,0.0118127,1609,1681,5.89736,-13.798
392,-657,5.90149,13.6569,0.00161636,0.00368732,-0.00304492,0.00586801,-0.000564331,-0.949298,0.00411304,0.0126496,1616,1681,5.90155,-13.6568
399,-657,5.901,13.4888,0.00175053,0.00530978,-0.0038617,0.00778219,-0.000721877,-1.00131,0.00544473,0.0135767,1623,1681,5.90097,-13.4888
406,-657,5.89502,13.3254,0.00197943,0.00698131,-0.00463616,0.00974807,-0.000787326,-1.03275,0.00677642,0.0150824,1630,1681,5.89508,-13.3254
413,-657,5.89673,13.1528,0.00243269,0.00876279,-0.00560159,0.0120317,-0.000836181,-1.04255,0.00831386,0.01407,1637,1681,5.89675,-13.1528
420,-657,5.9126,12.9766,0.00265981,0.0106829,-0.0064359,0.0142551,-0.000912402,-1.06409,0.00982167,0.0151957,1644,1681,5.91257,-12.9765
427,-657,5.90076,12.7861,0.00277621,0.0122086,-0.00698955,0.0159243,-0.000939442,-1.08219,0.0109428,0.0187163,1651,1681,5.90078,-12.7861
434,-657,5.90625,12.6202,0.00300246,0.0134789,-0.00747444,0.0173679,-0.000886544,-1.09104,0.0118851,0.0262213,1658,1681,5.90629,-12.6203
441,-657,5.97632,12.4543,0.0034611,0.0144368,-0.00767199,0.0183817,-0.000483756,-1.09586,0.0124188,0.0436688,1665,1681,5.97636,-12.4543
448,-657,6.00549,12.3033,0,0,0,0,0,0,0,-1,1672,1681,6.00551,-12.3034
455,-657,5.55371,12.3727,0,0,0,0,0,0,0,-1,1679,1681,5.55369,-12.3726
462,-657,5.38489,12.0801,0,0,0,0,0,0,0,-1,1686,1681,5.38489,-12.08
469,-657,4.26965,11.9387,0,0,0,0,0,0,0,-1,1693,1681,4.2697,-11.9387
476,-657,8.37659,10.886,0,0,0,0,0,0,0,-1,1700,1681,8.37653,-10.886
483,-657,7.65344,7.35059,0,0,0,0,0,0,0,-1,1707,1681,7.65347,-7.3506
490,-657,7.67432,6.69788,0,0,0,0,0,0,0,-1,1714,1681,7.67437,-6.69788
497,-657,5.81604,9.67004,0,0,0,0,0,0,0,-1,1721,1681,5.81602,-9.67
504,-657,0,0,0,0,0,0,0,0,0,-1,1728,1681,0,0
511,-657,0,0,0,0,0,0,0,0,0,-1,1735,1681,0,0
518,-657,0,0,0,0,0,0,0,0,0,-1,1742,1681,0,0
525,-657,0,0,0,0,0,0,0,0,0,-1,1749,1681,0,0
532,-657,0,0,0,0,0,0,0,0,0,-1,1756,1681,0,0
539,-657,0,0,0,0,0,0,0,0,0,-1,1763,1681,0,0
546,-657,0,0,0,0,0,0,0,0,0,-1,1770,1681,0,0
553,-657,0,0,0,0,0,0,0,0,0,-1,1777,1681,0,0
560,-657,0,0,0,0,0,0,0,0,0,-1,1784,1681,0,0
567,-657,0,0,0,0,0,0,0,0,0,-1,1791,1681,0,0
574,-657,0,0,0,0,0,0,0,0,0,-1,1798,1681,0,0
581,-657,0,0,0,0,0,0,0,0,0,-1,1805,1681,0,0
588,-657,0,0,0,0,0,0,0,0,0,-1,1812,1681,0,0
595,-657,0,0,0,0,0,0,0,0,0,-1,1819,1681,0,0
602,-657,0,0,0,0,0,0,0,0,0,-1,1826,1681,0,0
609,-657,0,0,0,0,0,0,0,0,0,-1,1833,1681,0,0
616,-657,0,0,0,0,0,0,0,0,0,-1,1840,1681,0,0
623,-657,0,0,0,0,0,0,0,0,0,-1,1847,1681,0,0
630,-657,0,0,0,0,0,0,0,0,0,-1,1854,1681,0,0
637,-657,0,0,0,0,0,0,0,0,0,-1,1861,1681,0,0
644,-657,0,0,0,0,0,0,0,0,0,-1,1868,1681,0,0
651,-657,0,0,0,0,0,0,0,0,0,-1,1875,1681,0,0
658,-657,0,0,0,0,0,0,0,0,0,-1,1882,1681,0,0
665,-657,0,0,0,0,0,0,0,0,0,-1,1889,1681,0,0
672,-657,0,0,0,0,0,0,0,0,0,-1,1896,1681,0,0
679,-657,0,0,0,0,0,0,0,0,0,-1,1903,1681,0,0
686,-657,0,0,0,0,0,0,0,0,0,-1,1910,1681,0,0
693,-657,0,0,0,0,0,0,0,0,0,-1,1917,1681,0,0
700,-657,0,0,0,0,0,0,0,0,0,-1,1924,1681,0,0
707,-657,0,0,0,0,0,0,0,0,0,-1,1931,1681,0,0
714,-657,0,0,0,0,0,0,0,0,0,-1,1938,1681,0,0
721,-657,0,0,0,0,0,0,0,0,0,-1,1945,1681,0,0
728,-657,0,0,0,0,0,0,0,0,0,-1,1952,1681,0,0
735,-657,0,0,0,0,0,0,0,0,0,-1,1959,1681,0,0
742,-657,0,0,0,0,0,0,0,0,0,-1,1966,1681,0,0
749,-657,0,0,0,0,0,0,0,0,0,-1,1973,1681,0,0
756,-657,0,0,0,0,0,0,0,0,0,-1,1980,1681,0,0
763,-657,0,0,0,0,0,0,0,0,0,-1,1987,1681,0,0
770,-657,0,0,0,0,0,0,0,0,0,-1,1994,1681,0,0
777,-657,0,0,0,0,0,0,0,0,0,-1,2001,1681,0,0
784,-657,0,0,0,0,0,0,0,0,0,-1,2008,1681,0,0
791,-657,0,0,0,0,0,0,0,0,0,-1,2015,1681,0,0
798,-657,0,0,0,0,0,0,0,0,0,-1,2022,1681,0,0
805,-657,0,0,0,0,0,0,0,0,0,-1,2029,1681,0,0
812,-657,0,0,0,0,0,0,0,0,0,-1,2036,1681,0,0
-700,-664,0,0,0,0,0,0,0,0,0,-1,524,1688,0,0
-693,-664,0,0,0,0,0,0,0,0,0,-1,531,1688,0,0
-686,-664,0,0,0,0,0,0,0,0,0,-1,538,1688,0,0
-679,-664,0,0,0,0,0,0,0,0,0,-1,545,1688,0,0
-672,-664,0,0,0,0,0,0,0,0,0,-1,552,1688,0,0
-665,-664,0,0,0,0,0,0,0,0,0,-1,559,1688,0,0
-658,-664,0,0,0,0,0,0,0,0,0,-1,566,1688,0,0
-651,-664,0,0,0,0,0,0,0,0,0,-1,573,1688,0,0
-644,-664,0,0,0,0,0,0,0,0,0,-1,580,1688,0,0
-637,-664,0,0,0,0,0,0,0,0,0,-1,587,1688,0,0
-630,-664,0,0,0,0,0,0,0,0,0,-1,594,1688,0,0
-623,-664,0,0,0,0,0,0,0,0,0,-1,601,1688,0,0
-616,-664,0,0,0,0,0,0,0,0,0,-1,608,1688,0,0
-609,-664,0,0,0,0,0,0,0,0,0,-1,615,1688,0,0
-602,-664,0,0,0,0,0,0,0,0,0,-1,622,1688,0,0
-595,-664,0,0,0,0,0,0,0,0,0,-1,629,1688,0,0
-588,-664,0,0,0,0,0,0,0,0,0,-1,636,1688,0,0
-581,-664,0,0,0,0,0,0,0,0,0,-1,643,1688,0,0
-574,-664,0,0,0,0,0,0,0,0,0,-1,650,1688,0,0
-567,-664,0,0,0,0,0,0,0,0,0,-1,657,1688,0,0
-560,-664,0,0,0,0,0,0,0,0,0,-1,664,1688,0,0
-553,-664,0,0,0,0,0,0,0,0,0,-1,671,1688,0,0
-546,-664,0,0,0,0,0,0,0,0,0,-1,678,1688,0,0
-539,-664,0,0,0,0,0,0,0,0,0,-1,685,1688,0,0
-532,-664,0,0,0,0,0,0,0,0,0,-1,692,1688,0,0
-525,-664,0,0,0,0,0,0,0,0,0,-1,699,1688,0,0
-518,-664,0,0,0,0,0,0,0,0,0,-1,706,1688,0,0
-511,-664,0,0,0,0,0,0,0,0,0,-1,713,1688,0,0
-504,-664,0,0,0,0,0,0,0,0,0,-1,720,1688,0,0
-497,-664,0,0,0,0,0,0,0,0,0,-1,727,1688,0,0
-490,-664,0,0,0,0,0,0,0,0,0,-1,734,1688,0,0
-483,-664,0,0,0,0,0,0,0,0,0,-1,741,1688,0,0
-476,-664,0,0,0,0,0,0,0,0,0,-1,748,1688,0,0
-469,-664,0,0,0,0,0,0,0,0,0,-1,755,1688,0,0
-462,-664,0,0,0,0,0,0,0,0,0,-1,762,1688,0,0
-455,-664,0,0,0,0,0,0,0,0,0,-1,769,1688,0,0
-448,-664,0,0,0,0,0,0,0,0,0,-1,776,1688,0,0
-441,-664,0,0,0,0,0,0,0,0,0,-1,783,1688,0,0
-434,-664,0,0,0,0,0,0,0,0,0,-1,790,1688,0,0
-427,-664,0,0,0,0,0,0,0,0,0,-1,797,1688,0,0
-420,-664,0,0,0,0,0,0,0,0,0,-1,804,1688,0,0
-413,-664,0,0,0,0,0,0,0,0,0,-1,811,1688,0,0
-406,-664,0,0,0,0,0,0,0,0,0,-1,818,1688,0,0
-399,-664,0,0,0,0,0,0,0,0,0,-1,825,1688,0,0
-392,-664,0,0,0,0,0,0,0,0,0,-1,832,1688,0,0
-385,-664,0,0,0,0,0,0,0,0,0,-1,839,1688,0,0
-378,-664,0,0,0,0,0,0,0,0,0,-1,846,1688,0,0
-371,-664,-1.61676,5.92737,0,0,0,0,0,0,0,-1,853,1688,-1.61675,-5.92735
-364,-664,-3.901,5.87024,0,0,0,0,0,0,0,-1,860,1688,-3.90097,-5.87027
-357,-664,-4.81012,4.53479,0,0,0,0,0,0,0,-1,867,1688,-4.81012,-4.5348
-350,-664,-5.7193,3.19934,0,0,0,0,0,0,0,-1,874,1688,-5.71927,-3.19932
-343,-664,-6.37476,1.54712,0,0,0,0,0,0,0,-1,881,1688,-6.37479,-1.54714
-336,-664,3.33313,10.5156,0,0,0,0,0,0,0,-1,888,1688,3.33311,-10.5156
-329,-664,3.43506,10.6934,0.0209039,0.00589982,0.00186056,0.0211312,0.00567255,0.121551,0.0126286,0.0483681,895,1688,3.43506,-10.6934
-322,-664,3.61774,10.908,0.0156079,0.00705015,0.000705256,0.0156656,0.00699242,0.0816775,0.00906187,0.0489544,902,1688,3.61775,-10.9079
-315,-664,4.2262,10.2191,0.0110218,0.0068185,-0.000377805,0.0110555,0.00678481,-0.0889335,0.00643766,0.0473819,909,1688,4.22617,-10.2191
-308,-664,4.20264,10.9557,0.00726665,0.00615445,-0.00117306,0.00800875,0.00541235,-0.564059,0.00471816,0.0458645,916,1688,4.20262,-10.9557
-301,-664,4.29694,11.4558,0.00422181,0.00527537,-0.00170781,0.00653579,0.00296138,-0.934996,0.00377897,0.0418708,923,1688,4.29691,-11.4558
-294,-664,4.06036,11.7927,0.00188224,0.00429178,-0.00197594,0.00540127,0.000772745,-1.05917,0.0033729,0.0389838,930,1688,4.06036,-11.7927
-287,-664,3.95435,12.0767,0.0003263,0.00325711,-0.00202202,0.0042889,-0.000705488,-1.09896,0.00312112,0.0287304,937,1688,3.95435,-12.0767
-280,-664,3.86346,12.2678,-0.000682102,0.00250351,-0.0019928,0.00346184,-0.00164043,-1.12255,0.00300771,0.0193356,944,1688,3.86349,-12.2679
-273,-664,3.8642,12.4237,-0.0013863,0.00191408,-0.00204259,0.00288978,-0.002362,-1.12517,0.00303722,0.0152901,951,1688,3.86418,-12.4237
-266,-664,3.84387,12.5809,-0.0018319,0.00139212,-0.00165798,0.00209257,-0.00253235,-1.17107,0.00267422,0.0214176,958,1688,3.8439,-12.5809
-259,-664,3.85382,12.7709,-0.00187643,0.000576682,-0.00124953,0.00110106,-0.00240081,-1.17346,0.0020677,0.0183501,965,1688,3.85385,-12.7709
-252,-664,3.87683,12.9668,-0.00162076,0.000559006,-0.00128343,0.00115288,-0.00221463,-1.13741,0.00197618,0.0155432,972,1688,3.8768,-12.9668
-245,-664,3.83685,13.1389,-0.00108267,0.000877132,-0.00086849,0.00120661,-0.00141215,-1.2082,0.00151349,0.0185511,979,1688,3.83685,-13.1389
-238,-664,3.86426,13.309,-0.000688736,0.00043601,-0.00057891,0.00068073,-0.000933457,-1.17085,0.000935751,0.0206319,986,1688,3.86425,-13.3089
-231,-664,3.86115,13.4689,-0.000566286,-5.10972e-05,-0.000423307,0.000186832,-0.000804215,-1.05873,0.000608065,0.0178166,993,1688,3.86113,-13.4689
-224,-664,3.8606,13.6477,-0.000332319,-0.000415148,-0.000171379,-0.000197422,-0.000550045,-0.666845,0.000321755,0.0131485,1000,1688,3.86058,-13.6477
-217,-664,3.86987,13.7935,-0.000174038,-0.000794393,-6.03788e-05,-0.000168216,-0.000800215,-0.0961273,0.000487183,0.010452,1007,1688,3.8699,-13.7935
-210,-664,3.8678,13.932,-0.00016309,-0.00127125,0.000118528,-0.000150554,-0.00128379,0.105371,0.000810349,0.0108457,1014,1688,3.86778,-13.9321
-203,-664,3.85876,14.0878,-0.000175792,-0.00182121,0.000230215,-0.000144189,-0.00185281,0.136424,0.00119006,0.0130043,1021,1688,3.85877,-14.0878
-196,-664,3.85999,14.2312,-0.000177109,-0.00241485,0.000367668,-0.000118248,-0.00247371,0.158745,0.00161117,0.013557,1028,1688,3.85997,-14.2312
-189,-664,3.86499,14.3779,-0.000213338,-0.00297731,0.000428642,-0.00014839,-0.00304226,0.150378,0.00198056,0.00948058,1035,1688,3.86495,-14.3779
-182,-664,3.87219,14.516,-0.00024947,-0.00348087,0.00032106,-0.00021788,-0.00351246,0.0980786,0.0022725,0.00935574,1042,1688,3.87222,-14.516
-175,-664,3.88696,14.6506,5.77121e-05,-0.00392356,2.61858e-05,5.78845e-05,-0.00392373,0.00657687,0.00263533,0.0124141,1049,1688,3.88698,-14.6506
-168,-664,3.89111,14.7944,0.000824127,-0.00433652,-7.64817e-05,0.00082526,-0.00433765,-0.0148158,0.0032025,0.0136003,1056,1688,3.89108,-14.7945
-161,-664,3.88391,14.9064,0.00156296,-0.00463563,-0.000203726,0.00156965,-0.00464231,-0.0328194,0.00372986,0.00981645,1063,1688,3.8839,-14.9064
-154,-664,3.89502,15.0369,0.00271112,-0.00492123,-0.000359788,0.00272804,-0.00493816,-0.0470009,0.00448697,0.00937205,1070,1688,3.89501,-15.0368
-147,-664,3.90027,15.1479,0.00406367,-0.0051378,-0.000672499,0.00411256,-0.00518669,-0.0725721,0.00538085,0.0108319,1077,1688,3.90026,-15.1479
-140,-664,3.9126,15.2684,0.00594988,-0.00560123,-0.00106231,0.00604676,-0.00569811,-0.0909492,0.0067819,0.0115755,1084,1688,3.91259,-15.2684
-133,-664,3.91541,15.3789,0.00815994,-0.00630437,-0.00110333,0.00824361,-0.00638805,-0.0756958,0.00847021,0.0122773,1091,1688,3.91544,-15.379
-126,-664,4.01074,15.4675,0.0101036,-0.00730609,-0.000910107,0.0101511,-0.00735353,-0.0520865,0.0101492,0.0204777,1098,1688,4.01078,-15.4676
-119,-664,4.10547,15.5216,0.0122935,-0.00822129,-0.000652839,0.0123142,-0.00824204,-0.03178,0.0119455,0.0330559,1105,1688,4.10541,-15.5216
-112,-664,4.24438,15.6447,0.0147941,-0.00927568,-9.86765e-05,0.0147945,-0.00927608,-0.00409952,0.0140183,0.045347,1112,1688,4.24437,-15.6447
-105,-664,4.20654,15.6979,0,0,0,0,0,0,0,-1,1119,1688,4.20659,-15.6978
-98,-664,5.13562,14.3651,0,0,0,0,0,0,0,-1,1126,1688,5.13565,-14.3651
-91,-664,4.55774,14.2224,0,0,0,0,0,0,0,-1,1133,1688,4.55768,-14.2225
-84,-664,3.97974,14.0798,0,0,0,0,0,0,0,-1,1140,1688,3.97972,-14.0798
-77,-664,4.52014,11.2122,0,0,0,0,0,0,0,-1,1147,1688,4.5202,-11.2122
-70,-664,4.20374,8.24524,0,0,0,0,0,0,0,-1,1154,1688,4.20379,-8.24519
-63,-664,-4.677,2.40503,0,0,0,0,0,0,0,-1,1161,1688,-4.67702,-2.40498
-56,-664,-4.66504,3.32727,0,0,0,0,0,0,0,-1,1168,1688,-4.6651,-3.32724
-49,-664,-2.54297,3.31848,0,0,0,0,0,0,0,-1,1175,1688,-2.54297,-3.31852
-42,-664,-0.359253,4.38684,0,0,0,0,0,0,0,-1,1182,1688,-0.359261,-4.38685
-35,-664,-0.705566,3.55017,0,0,0,0,0,0,0,-1,1189,1688,-0.705567,-3.55023
-28,-664,-1.54236,10.2538,0,0,0,0,0,0,0,-1,1196,1688,-1.54236,-10.2538
-21,-664,4.25073,21.5817,0,0,0,0,0,0,0,-1,1203,1688,4.25078,-21.5816
-14,-664,4.27991,20.6458,0.041618,0.103852,-0.065544,0.145291,0.000179604,-1.00702,0.0968006,0.0459742,1210,1688,4.27992,-20.6458
-7,-664,4.61316,18.9537,0.0407654,0.0967766,-0.0603302,0.135284,0.00225753,-1.0027,0.0894466,0.0484385,1217,1688,4.61315,-18.9537
0,-664,4.93665,18.8379,0.04117,0.0850459,-0.0542257,0.121603,0.00461271,-0.977617,0.0795758,0.0458176,1224,1688,4.9366,-18.8378
7,-664,5.14038,18.3162,0.0414162,0.0709583,-0.0475179,0.105948,0.00642644,-0.936089,0.0685903,0.0462446,1231,1688,5.14043,-18.3162
14,-664,4.95361,17.2777,0.0402984,0.0559402,-0.0412213,0.090076,0.00616264,-0.879149,0.0581055,0.0447792,1238,1688,4.95361,-17.2777
21,-664,5.23022,16.3917,0.0373838,0.0426204,-0.0351766,0.075276,0.00472818,-0.822547,0.0486846,0.0441035,1245,1688,5.23021,-16.3918
28,-664,6.04272,15.6035,0.0321592,0.0306647,-0.0296229,0.0610443,0.00177967,-0.772788,0.0401161,0.0424543,1252,1688,6.04278,-15.6036
35,-664,6.57129,14.8125,0.0253732,0.0203056,-0.0243329,0.0473039,-0.00162509,-0.73352,0.0320913,0.0454996,1259,1688,6.5713,-14.8125
42,-664,7.08911,14.0691,0.0175436,0.011321,-0.018677,0.0333667,-0.00450215,-0.702864,0.023887,0.0462081,1266,1688,7.08913,-14.0691
49,-664,7.59412,13.3307,0,0,0,0,0,0,0,-1,1273,1688,7.59414,-13.3307
56,-664,7.47791,15.4677,0,0,0,0,0,0,0,-1,1280,1688,7.47792,-15.4677
63,-664,6.75696,16.8563,0,0,0,0,0,0,0,-1,1287,1688,6.75699,-16.8563
70,-664,5.91736,16.9452,-0.00917583,0.00134169,-0.00516235,0.00345208,-0.0112862,-1.18272,0.00890085,0.0465456,1294,1688,5.91741,-16.9452
77,-664,5.08862,16.7021,-0.0147095,0.0107001,-0.007291,0.0126436,-0.0166529,-1.3103,0.0169671,0.0437508,1301,1688,5.0886,-16.7021
84,-664,4.64539,16.6243,-0.0171759,0.028832,-0.0131895,0.0323449,-0.0206888,-1.3105,0.0308646,0.0466359,1308,1688,4.6454,-16.6243
91,-664,4.38074,16.9584,-0.0193893,0.0418628,-0.0163415,0.0459498,-0.0234764,-1.32572,0.0407772,0.0429353,1315,1688,4.38078,-16.9583
98,-664,4.45605,17.2218,0,0,0,0,0,0,0,-1,1322,1688,4.45611,-17.2218
105,-664,4.48267,17.3984,0,0,0,0,0,0,0,-1,1329,1688,4.48266,-17.3984
112,-664,6.7937,15.6654,-0.00479678,0.0900754,-0.0334791,0.1007,-0.0154213,-1.2635,0.07282,0.0407846,1336,1688,6.79365,-15.6655
119,-664,6.27417,16.9756,0.00108462,0.103387,-0.0385228,0.116271,-0.0117989,-1.24805,0.0817312,0.0468696,1343,1688,6.27422,-16.9755
126,-664,5.99243,18.0887,0,0,0,0,0,0,0,-1,1350,1688,5.99239,-18.0888
133,-664,5.90637,16.3828,0,0,0,0,0,0,0,-1,1357,1688,5.90641,-16.3828
140,-664,4.27734,16.3829,0,0,0,0,0,0,0,-1,1364,1688,4.2773,-16.383
147,-664,5.23315,15.8275,0,0,0,0,0,0,0,-1,1371,1688,5.2332,-15.8275
154,-664,13.5482,5.89453,0,0,0,0,0,0,0,-1,1378,1688,13.5482,-5.8945
161,-664,4.60132,1.56238,0,0,0,0,0,0,0,-1,1385,1688,4.60134,-1.56233
168,-664,5.172,1.25488,0,0,0,0,0,0,0,-1,1392,1688,5.17203,-1.25484
175,-664,5.58313,1.16467,0,0,0,0,0,0,0,-1,1399,1688,5.58317,-1.16466
182,-664,5.74268,1.41113,0,0,0,0,0,0,0,-1,1406,1688,5.74263,-1.41115
189,-664,5.87744,1.87061,0,0,0,0,0,0,0,-1,1413,1688,5.87745,-1.87065
196,-664,6.7594,5.97473,0,0,0,0,0,0,0,-1,1420,1688,6.75943,-5.97478
203,-664,5.38452,5.22034,0,0,0,0,0,0,0,-1,1427,1688,5.38453,-5.2203
210,-664,5.25549,6.45715,0,0,0,0,0,0,0,-1,1434,1688,5.25549,-6.45721
217,-664,5.72009,6.73975,0,0,0,0,0,0,0,-1,1441,1688,5.72014,-6.73972
224,-664,5.05725,7.42908,0,0,0,0,0,0,0,-1,1448,1688,5.05723,-7.42912
231,-664,5.13318,7.60864,0,0,0,0,0,0,0,-1,1455,1688,5.13313,-7.60862
238,-664,4.23193,6.45471,0,0,0,0,0,0,0,-1,1462,1688,4.23197,-6.45476
245,-664,4.42004,6.80896,0,0,0,0,0,0,0,-1,1469,1688,4.4201,-6.80901
252,-664,3.67346,6.85461,0,0,0,0,0,0,0,-1,1476,1688,3.6734,-6.85462
259,-664,4.55823,11.7435,0,0,0,0,0,0,0,-1,1483,1688,4.55826,-11.7435
266,-664,5.67603,15.587,0,0,0,0,0,0,0,-1,1490,1688,5.67603,-15.587
273,-664,5.67847,15.6587,0.00294454,-0.00935109,0.00359047,0.00391621,-0.0103228,0.264295,0.00849372,0.0331264,1497,1688,5.67842,-15.6587
280,-664,5.63147,15.6338,0.00297545,-0.00882608,0.00344887,0.00390943,-0.00976006,0.264464,0.00812947,0.0232713,1504,1688,5.63142,-15.6338
287,-664,5.60718,15.5527,0.00272092,-0.00790462,0.00321022,0.00361549,-0.00879919,0.271768,0.00737295,0.0206411,1511,1688,5.60721,-15.5527
294,-664,5.67212,15.4653,0.00246291,-0.00699708,0.00300306,0.0033357,-0.00786988,0.282843,0.00664374,0.0141529,1518,1688,5.67218,-15.4653
301,-664,5.70325,15.3726,0.00231271,-0.00599958,0.00275897,0.0031451,-0.00683197,0.293018,0.0058899,0.0100044,1525,1688,5.70323,-15.3726
308,-664,5.73267,15.2664,0.00214631,-0.00488466,0.00249647,0.00294255,-0.0056809,0.308748,0.00506173,0.0101929,1532,1688,5.73267,-15.2664
315,-664,5.75366,15.1439,0.0019806,-0.00393545,0.00224359,0.00273521,-0.00469005,0.324452,0.00433622,0.0108884,1539,1688,5.75371,-15.1439
322,-664,5.75818,15.0007,0.00181067,-0.00311585,0.00198087,0.00250834,-0.00381352,0.338639,0.00367577,0.014572,1546,1688,5.75822,-15.0007
329,-664,5.74573,14.881,0.0016801,-0.00245652,0.00167436,0.00227288,-0.0030493,0.340263,0.00308364,0.0170985,1553,1688,5.74577,-14.881
336,-664,5.75,14.7717,0.00151555,-0.00182813,0.00135827,0.00199776,-0.00231034,0.341141,0.00248946,0.0139605,1560,1688,5.75004,-14.7718
343,-664,5.75513,14.6686,0.00135936,-0.00140538,0.000996065,0.00168083,-0.00172685,0.312193,0.00196749,0.0109862,1567,1688,5.75515,-14.6686
350,-664,5.75806,14.5234,0.00129632,-0.00110468,0.000555419,0.00141858,-0.00122694,0.216665,0.00152872,0.0128509,1574,1688,5.75807,-14.5234
357,-664,5.74609,14.3707,0.00137769,-0.000680368,-5.28379e-05,0.00137905,-0.000681723,-0.0256511,0.00121228,0.0130881,1581,1688,5.74612,-14.3707
364,-664,5.75525,14.2288,0.00149933,4.35386e-05,-0.000751548,0.00181769,-0.000274824,-0.400692,0.00131303,0.0105365,1588,1688,5.75526,-14.2287
371,-664,5.76965,14.0973,0.00168906,0.000755229,-0.00149222,0.00278571,-0.00034142,-0.633774,0.00198078,0.0126841,1595,1688,5.76963,-14.0973
378,-664,5.75708,13.9517,0.0019337,0.00167929,-0.00232912,0.00413909,-0.0005261,-0.758118,0.00295044,0.0120382,1602,1688,5.75708,-13.9517
385,-664,5.7533,13.8004,0.00221475,0.00315779,-0.00339775,0.00611658,-0.000744046,-0.854345,0.00434702,0.012853,1609,1688,5.7533,-13.8004
392,-664,5.72522,13.6741,0.00234041,0.00525076,-0.00452418,0.00854803,-0.000956867,-0.940995,0.00604295,0.0161119,1616,1688,5.72526,-13.6741
399,-664,5.72607,13.5065,0.00241956,0.00735915,-0.00552263,0.0109391,-0.00116038,-0.995665,0.00770869,0.0144952,1623,1688,5.72607,-13.5065
406,-664,5.75427,13.3242,0.00269408,0.00948749,-0.00648654,0.0134129,-0.0012313,-1.02659,0.00937932,0.013549,1630,1688,5.75423,-13.3242
413,-664,5.78552,13.1415,0.00321942,0.0118676,-0.00770378,0.0163779,-0.00129086,-1.04113,0.0113733,0.0135391,1637,1688,5.78549,-13.1414
420,-664,5.8324,12.9425,0.00346025,0.0145901,-0.00884921,0.0194787,-0.00142838,-1.06608,0.0134872,0.0284724,1644,1688,5.83242,-12.9425
427,-664,5.79163,12.6794,0.00347502,0.0169438,-0.00961897,0.0219515,-0.00153269,-1.0908,0.015171,0.0452149,1651,1688,5.79165,-12.6794
434,-664,5.84497,12.465,0.00363835,0.0191043,-0.0103198,0.024267,-0.00152429,-1.10694,0.0167093,0.043433,1658,1688,5.84501,-12.4649
441,-664,5.91931,12.251,0.00402688,0.0209559,-0.0107749,0.0261934,-0.00121069,-1.11834,0.0178795,0.0467111,1665,1688,5.91933,-12.251
448,-664,5.75671,11.8717,0,0,0,0,0,0,0,-1,1672,1688,5.75668,-11.8717
455,-664,5.25427,12.3446,0,0,0,0,0,0,0,-1,1679,1688,5.25433,-12.3446
462,-664,4.3147,4.25439,0,0,0,0,0,0,0,-1,1686,1688,4.31467,-4.25435
469,-664,6.05469,7.49341,0,0,0,0,0,0,0,-1,1693,1688,6.05474,-7.49339
476,-664,9.76514,11.5648,0,0,0,0,0,0,0,-1,1700,1688,9.76511,-11.5648
483,-664,8.41895,10.9768,0,0,0,0,0,0,0,-1,1707,1688,8.41897,-10.9769
490,-664,6.82959,10.4489,0,0,0,0,0,0,0,-1,1714,1688,6.82961,-10.4488
497,-664,0,0,0,0,0,0,0,0,0,-1,1721,1688,0,0
504,-664,0,0,0,0,0,0,0,0,0,-1,1728,1688,0,0
511,-664,0,0,0,0,0,0,0,0,0,-1,1735,1688,0,0
518,-664,0,0,0,0,0,0,0,0,0,-1,1742,1688,0,0
525,-664,0,0,0,0,0,0,0,0,0,-1,1749,1688,0,0
532,-664,0,0,0,0,0,0,0,0,0,-1,1756,1688,0,0
539,-664,0,0,0,0,0,0,0,0,0,-1,1763,1688,0,0
546,-664,0,0,0,0,0,0,0,0,0,-1,1770,1688,0,0
553,-664,0,0,0,0,0,0,0,0,0,-1,1777,1688,0,0
560,-664,0,0,0,0,0,0,0,0,0,-1,1784,1688,0,0
567,-664,0,0,0,0,0,0,0,0,0,-1,1791,1688,0,0
574,-664,0,0,0,0,0,0,0,0,0,-1,1798,1688,0,0
581,-664,0,0,0,0,0,0,0,0,0,-1,1805,1688,0,0
588,-664,0,0,0,0,0,0,0,0,0,-1,1812,1688,0,0
595,-664,0,0,0,0,0,0,0,0,0,-1,1819,1688,0,0
602,-664,0,0,0,0,0,0,0,0,0,-1,1826,1688,0,0
609,-664,0,0,0,0,0,0,0,0,0,-1,1833,1688,0,0
616,-664,0,0,0,0,0,0,0,0,0,-1,1840,1688,0,0
623,-664,0,0,0,0,0,0,0,0,0,-1,1847,1688,0,0
630,-664,0,0,0,0,0,0,0,0,0,-1,1854,1688,0,0
637,-664,0,0,0,0,0,0,0,0,0,-1,1861,1688,0,0
644,-664,0,0,0,0,0,0,0,0,0,-1,1868,1688,0,0
651,-664,0,0,0,0,0,0,0,0,0,-1,1875,1688,0,0
658,-664,0,0,0,0,0,0,0,0,0,-1,1882,1688,0,0
665,-664,0,0,0,0,0,0,0,0,0,-1,1889,1688,0,0
672,-664,0,0,0,0,0,0,0,0,0,-1,1896,1688,0,0
679,-664,0,0,0,0,0,0,0,0,0,-1,1903,1688,0,0
686,-664,0,0,0,0,0,0,0,0,0,-1,1910,1688,0,0
693,-664,0,0,0,0,0,0,0,0,0,-1,1917,1688,0,0
700,-664,0,0,0,0,0,0,0,0,0,-1,1924,1688,0,0
707,-664,0,0,0,0,0,0,0,0,0,-1,1931,1688,0,0
714,-664,0,0,0,0,0,0,0,0,0,-1,1938,1688,0,0
721,-664,0,0,0,0,0,0,0,0,0,-1,1945,1688,0,0
728,-664,0,0,0,0,0,0,0,0,0,-1,1952,1688,0,0
735,-664,0,0,0,0,0,0,0,0,0,-1,1959,1688,0,0
742,-664,0,0,0,0,0,0,0,0,0,-1,1966,1688,0,0
749,-664,0,0,0,0,0,0,0,0,0,-1,1973,1688,0,0
756,-664,0,0,0,0,0,0,0,0,0,-1,1980,1688,0,0
763,-664,0,0,0,0,0,0,0,0,0,-1,1987,1688,0,0
770,-664,0,0,0,0,0,0,0,0,0,-1,1994,1688,0,0
777,-664,0,0,0,0,0,0,0,0,0,-1,2001,1688,0,0
784,-664,0,0,0,0,0,0,0,0,0,-1,2008,1688,0,0
791,-664,0,0,0,0,0,0,0,0,0,-1,2015,1688,0,0
798,-664,0,0,0,0,0,0,0,0,0,-1,2022,1688,0,0
805,-664,0,0,0,0,0,0,0,0,0,-1,2029,1688,0,0
812,-664,0,0,0,0,0,0,0,0,0,-1,2036,1688,0,0
-700,-671,0,0,0,0,0,0,0,0,0,-1,524,1695,0,0
-693,-671,0,0,0,0,0,0,0,0,0,-1,531,1695,0,0
-686,-671,0,0,0,0,0,0,0,0,0,-1,538,1695,0,0
-679,-671,0,0,0,0,0,0,0,0,0,-1,545,1695,0,0
-672,-671,0,0,0,0,0,0,0,0,0,-1,552,1695,0,0
-665,-671,0,0,0,0,0,0,0,0,0,-1,559,1695,0,0
-658,-671,0,0,0,0,0,0,0,0,0,-1,566,1695,0,0
-651,-671,0,0,0,0,0,0,0,0,0,-1,573,1695,0,0
-644,-671,0,0,0,0,0,0,0,0,0,-1,580,1695,0,0
-637,-671,0,0,0,0,0,0,0,0,0,-1,587,1695,0,0
-630,-671,0,0,0,0,0,0,0,0,0,-1,594,1695,0,0
-623,-671,0,0,0,0,0,0,0,0,0,-1,601,1695,0,0
-616,-671,0,0,0,0,0,0,0,0,0,-1,608,1695,0,0
-609,-671,0,0,0,0,0,0,0,0,0,-1,615,1695,0,0
-602,-671,0,0,0,0,0,0,0,0,0,-1,622,1695,0,0
-595,-671,0,0,0,0,0,0,0,0,0,-1,629,1695,0,0
-588,-671,0,0,0,0,0,0,0,0,0,-1,636,1695,0,0
-581,-671,0,0,0,0,0,0,0,0,0,-1,643,1695,0,0
-574,-671,0,0,0,0,0,0,0,0,0,-1,650,1695,0,0
-567,-671,0,0,0,0,0,0,0,0,0,-1,657,1695,0,0
-560,-671,0,0,0,0,0,0,0,0,0,-1,664,1695,0,0
-553,-671,0,0,0,0,0,0,0,0,0,-1,671,1695,0,0
-546,-671,0,0,0,0,0,0,0,0,0,-1,678,1695,0,0
-539,-671,0,0,0,0,0,0,0,0,0,-1,685,1695,0,0
-532,-671,0,0,0,0,0,0,0,0,0,-1,692,1695,0,0
-525,-671,0,0,0,0,0,0,0,0,0,-1,699,1695,0,0
-518,-671,0,0,0,0,0,0,0,0,0,-1,706,1695,0,0
-511,-671,0,0,0,0,0,0,0,0,0,-1,713,1695,0,0
-504,-671,0,0,0,0,0,0,0,0,0,-1,720,1695,0,0
-497,-671,0,0,0,0,0,0,0,0,0,-1,727,1695,0,0
-490,-671,0,0,0,0,0,0,0,0,0,-1,734,1695,0,0
-483,-671,0,0,0,0,0,0,0,0,0,-1,741,1695,0,0
-476,-671,0,0,0,0,0,0,0,0,0,-1,748,1695,0,0
-469,-671,0,0,0,0,0,0,0,0,0,-1,755,1695,0,0
-462,-671,0,0,0,0,0,0,0,0,0,-1,762,1695,0,0
-455,-671,0,0,0,0,0,0,0,0,0,-1,769,1695,0,0
-448,-671,0,0,0,0,0,0,0,0,0,-1,776,1695,0,0
-441,-671,0,0,0,0,0,0,0,0,0,-1,783,1695,0,0
-434,-671,0,0,0,0,0,0,0,0,0,-1,790,1695,0,0
-427,-671,0,0,0,0,0,0,0,0,0,-1,797,1695,0,0
-420,-671,0,0,0,0,0,0,0,0,0,-1,804,1695,0,0
-413,-671,0,0,0,0,0,0,0,0,0,-1,811,1695,0,0
-406,-671,0,0,0,0,0,0,0,0,0,-1,818,1695,0,0
-399,-671,0,0,0,0,0,0,0,0,0,-1,825,1695,0,0
-392,-671,0,0,0,0,0,0,0,0,0,-1,832,1695,0,0
-385,-671,0,0,0,0,0,0,0,0,0,-1,839,1695,0,0
-378,-671,0,0,0,0,0,0,0,0,0,-1,846,1695,0,0
-371,-671,0,0,0,0,0,0,0,0,0,-1,853,1695,0,0
-364,-671,-4.18738,7.51416,0,0,0,0,0,0,0,-1,860,1695,-4.18739,-7.51419
-357,-671,-5.02393,6.07129,0,0,0,0,0,0,0,-1,867,1695,-5.0239,-6.07135
-350,-671,-5.72333,4.58386,0,0,0,0,0,0,0,-1,874,1695,-5.72333,-4.58386
-343,-671,-6.4884,3.11353,0,0,0,0,0,0,0,-1,881,1695,-6.48839,-3.11349
-336,-671,-7.30127,1.64417,0,0,0,0,0,0,0,-1,888,1695,-7.30127,-1.64414
-329,-671,3.58337,10.6238,0,0,0,0,0,0,0,-1,895,1695,3.58338,-10.6238
-322,-671,3.75763,10.859,0,0,0,0,0,0,0,-1,902,1695,3.75766,-10.8591
-315,-671,4.52588,9.86365,0,0,0,0,0,0,0,-1,909,1695,4.52586,-9.86359
-308,-671,4.44513,11.2429,0.00841124,0.00589757,-0.00257082,0.010016,0.0042928,-0.55804,0.00580236,0.04752,916,1695,4.44516,-11.243
-301,-671,4.60742,11.9965,0.00467572,0.00492313,-0.00310756,0.00790945,0.0016894,-0.805291,0.00480977,0.0452735,923,1695,4.60744,-11.9965
-294,-671,4.30066,11.7233,0.00188924,0.00385118,-0.00331371,0.00632607,-0.000585648,-0.929305,0.00442553,0.047182,930,1695,4.30067,-11.7233
-287,-671,4.12775,11.9015,6.37457e-05,0.00279536,-0.00327635,0.00497919,-0.00212008,-0.98288,0.0042081,0.0428736,937,1695,4.12772,-11.9015
-280,-671,4.23645,12.186,-0.00112578,0.00218401,-0.0031421,0.00408038,-0.00302215,-1.02778,0.00411579,0.0371667,944,1695,4.23642,-12.1861
-273,-671,4.11743,12.4166,-0.00198716,0.00173735,-0.00306289,0.00345968,-0.0037095,-1.05854,0.00413997,0.0341376,951,1695,4.11744,-12.4166
-266,-671,4.14447,12.64,-0.0025156,0.00135186,-0.00248484,0.00256674,-0.00373048,-1.11606,0.00365634,0.0246714,958,1695,4.14449,-12.64
-259,-671,4.04242,12.7904,-0.00255986,0.000677411,-0.0019099,0.00156231,-0.00344477,-1.13692,0.00295815,0.0227195,965,1695,4.04242,-12.7904
-252,-671,4.01129,12.969,-0.00229745,0.000951426,-0.00188583,0.00181599,-0.00316202,-1.14093,0.00290887,0.0171488,972,1695,4.01128,-12.969
-245,-671,3.98749,13.1141,-0.00163394,0.00160527,-0.00129823,0.00206136,-0.00209003,-1.23295,0.00239683,0.0195531,979,1695,3.98746,-13.1142
-238,-671,4.01215,13.2976,-0.00105875,0.00131185,-0.000871249,0.00159761,-0.0013445,-1.25387,0.00170072,0.0186225,986,1695,4.01213,-13.2976
-231,-671,4.02777,13.4882,-0.000869602,0.00100109,-0.000684981,0.00122508,-0.0010936,-1.25475,0.00133941,0.0142835,993,1695,4.02779,-13.4882
-224,-671,4.00543,13.6334,-0.000527873,0.000855024,-0.000437345,0.000981727,-0.000654576,-1.28881,0.000950993,0.0119627,1000,1695,4.00541,-13.6335
-217,-671,4.01025,13.7742,-0.00021657,0.000701948,-0.000366713,0.000830394,-0.000345016,-1.23389,0.000697643,0.0111035,1007,1695,4.01024,-13.7742
-210,-671,4.02832,13.922,-7.98801e-05,0.000447579,-0.000212945,0.000522817,-0.000155118,-1.23117,0.000410148,0.0106541,1014,1695,4.02831,-13.922
-203,-671,3.99011,14.0861,3.08949e-05,3.91171e-05,-0.00015438,0.00018944,-0.000119428,-0.79871,0.000179846,0.0181234,1021,1695,3.99017,-14.0861
-196,-671,3.99744,14.2419,0.000125447,-0.000464981,-7.00385e-05,0.000133641,-0.000473175,-0.11647,0.000368173,0.0158931,1028,1695,3.99744,-14.242
-189,-671,4.01184,14.3966,0.000179647,-0.000964815,-5.17167e-05,0.000181979,-0.000967147,-0.0450662,0.000713206,0.0111891,1035,1695,4.01182,-14.3966
-182,-671,4.00732,14.5153,0.000204749,-0.0014524,-0.000164115,0.000220845,-0.0014685,-0.0977691,0.00106031,0.00941812,1042,1695,4.0073,-14.5152
-175,-671,4.00391,14.6459,0.000488525,-0.00193503,-0.000393293,0.000550751,-0.00199725,-0.156917,0.00154809,0.0131177,1049,1695,4.00392,-14.6458
-168,-671,4.005,14.7803,0.00107203,-0.00240409,-0.000468177,0.00113398,-0.00246604,-0.131561,0.00212537,0.0144215,1056,1695,4.00502,-14.7803
-161,-671,4.00952,14.9181,0.00160981,-0.00278781,-0.000546324,0.00167666,-0.00285466,-0.121766,0.00264546,0.00953305,1063,1695,4.00954,-14.9181
-154,-671,4.01416,15.0441,0.00247203,-0.00317604,-0.000630379,0.00254153,-0.00324554,-0.10981,0.0033494,0.00798462,1070,1695,4.01418,-15.044
-147,-671,4.02588,15.1735,0.00347754,-0.00352975,-0.000814777,0.00357103,-0.00362324,-0.114245,0.00415365,0.00939766,1077,1695,4.02589,-15.1735
-140,-671,4.04895,15.3057,0.00472786,-0.00405169,-0.000972129,0.00483421,-0.00415804,-0.108968,0.00519657,0.0114078,1084,1695,4.04899,-15.3057
-133,-671,4.05542,15.4276,0.00619208,-0.004793,-0.00088368,0.00626271,-0.00486364,-0.0797602,0.0064407,0.0128882,1091,1695,4.05536,-15.4276
-126,-671,4.08179,15.5098,0.00761399,-0.00564352,-0.000715604,0.0076525,-0.00568203,-0.053769,0.00772666,0.0144176,1098,1695,4.08185,-15.5097
-119,-671,4.13538,15.61,0.00915952,-0.0063294,-0.000459387,0.00917313,-0.00634301,-0.0296244,0.00900778,0.0249183,1105,1695,4.13535,-15.61
-112,-671,4.09009,15.7736,0.0107981,-0.00714115,-2.63323e-05,0.0107981,-0.00714119,-0.00146785,0.0104288,0.0345919,1112,1695,4.09007,-15.7735
-105,-671,4.33289,15.7233,0.0123326,-0.00786789,0.000653851,0.0123538,-0.00788903,0.0323229,0.0117816,0.0413833,1119,1695,4.33292,-15.7233
-98,-671,4.06409,15.6782,0,0,0,0,0,0,0,-1,1126,1695,4.06413,-15.6782
-91,-671,4.18152,15.5388,0,0,0,0,0,0,0,-1,1133,1695,4.18157,-15.5388
-84,-671,4.36658,15.5826,0,0,0,0,0,0,0,-1,1140,1695,4.36663,-15.5827
-77,-671,4.36938,15.793,0,0,0,0,0,0,0,-1,1147,1695,4.36933,-15.7929
-70,-671,3.06067,10.7737,0,0,0,0,0,0,0,-1,1154,1695,3.0607,-10.7737
-63,-671,2.94592,6.90198,0,0,0,0,0,0,0,-1,1161,1695,2.94594,-6.90198
-56,-671,-3.07678,2.87976,0,0,0,0,0,0,0,-1,1168,1695,-3.07675,-2.87979
-49,-671,-1.05957,4.76917,0,0,0,0,0,0,0,-1,1175,1695,-1.05958,-4.76921
-42,-671,0.539307,3.7865,0,0,0,0,0,0,0,-1,1182,1695,0.539266,-3.78648
-35,-671,-0.272461,0.347534,0,0,0,0,0,0,0,-1,1189,1695,-0.272434,-0.347569
-28,-671,-10.4878,17.2009,0,0,0,0,0,0,0,-1,1196,1695,-10.4878,-17.2009
-21,-671,4.7196,20.6378,0,0,0,0,0,0,0,-1,1203,1695,4.71961,-20.6378
-14,-671,4.70361,19.6428,0.0347771,0.0792953,-0.0501198,0.111877,0.00219589,-0.994374,0.0738633,0.0431749,1210,1695,4.70366,-19.6428
-7,-671,4.88147,18.7231,0.0345836,0.0742747,-0.0465752,0.105056,0.00380217,-0.986798,0.0688051,0.0463356,1217,1695,4.8815,-18.7231
0,-671,4.90881,18.3152,0.0348382,0.0638788,-0.0416627,0.093479,0.00523803,-0.953076,0.0606488,0.0431572,1224,1695,4.90883,-18.3152
7,-671,4.97388,17.7806,0.0348599,0.0524153,-0.0362601,0.080945,0.00633017,-0.904151,0.0519819,0.0441489,1231,1695,4.97387,-17.7807
14,-671,5.00928,17.1768,0,0,0,0,0,0,0,-1,1238,1695,5.00928,-17.1767
21,-671,4.28674,16.835,0.0313307,0.0289265,-0.0262568,0.0564129,0.00384436,-0.762523,0.0363949,0.0433535,1245,1695,4.28674,-16.835
28,-671,4.70203,16.3739,0.0268552,0.0188695,-0.0217086,0.0449351,0.00078959,-0.69445,0.029697,0.0469064,1252,1695,4.70199,-16.3739
35,-671,5.11755,15.8602,0,0,0,0,0,0,0,-1,1259,1695,5.11751,-15.8603
42,-671,6.41235,14.5591,0.014879,0.00241835,-0.0126798,0.0227764,-0.00547911,-0.557043,0.0173023,0.0463153,1266,1695,6.41241,-14.5591
49,-671,6.56909,13.4359,0.00823214,-0.00480919,-0.0089115,0.0127538,-0.0093309,-0.469551,0.0128016,0.0421424,1273,1695,6.56907,-13.4359
56,-671,6.68823,15.8507,0,0,0,0,0,0,0,-1,1280,1695,6.68828,-15.8507
63,-671,6.71375,16.3477,0,0,0,0,0,0,0,-1,1287,1695,6.71374,-16.3476
70,-671,5.86877,16.4338,-0.00776391,-0.00766766,-0.000604337,-0.00710954,-0.00832204,-0.825128,0.00519127,0.0437298,1294,1695,5.8688,-16.4339
77,-671,4.98462,16.5159,-0.0121948,-0.000185004,-0.00182495,8.61841e-05,-0.012466,-1.42328,0.00833955,0.0446049,1301,1695,4.98465,-16.5158
84,-671,4.52112,16.7269,-0.0143247,0.0136497,-0.00579284,0.0148018,-0.0154768,-1.37447,0.0174828,0.0466269,1308,1695,4.52116,-16.7269
91,-671,4.12244,17.3579,-0.0154975,0.0241625,-0.00785327,0.0256609,-0.016996,-1.38226,0.0247967,0.043274,1315,1695,4.12243,-17.3579
98,-671,3.88904,18.0011,0,0,0,0,0,0,0,-1,1322,1695,3.88902,-18.0011
105,-671,5.49915,16.1935,-0.00926411,0.051869,-0.0157969,0.0557097,-0.0131048,-1.3323,0.042192,0.0445802,1329,1695,5.49909,-16.1935
112,-671,5.72205,16.3245,-0.00376972,0.0625103,-0.0207679,0.0684799,-0.00973937,-1.2909,0.049222,0.0401468,1336,1695,5.72208,-16.3245
119,-671,5.94543,16.7972,0.000712762,0.0736463,-0.0250024,0.0813943,-0.00703524,-1.27029,0.0567535,0.0437239,1343,1695,5.94539,-16.7973
126,-671,5.58752,16.8018,0,0,0,0,0,0,0,-1,1350,1695,5.58758,-16.8018
133,-671,4.82947,16.2769,0,0,0,0,0,0,0,-1,1357,1695,4.82949,-16.2768
140,-671,4.37866,16.5919,0,0,0,0,0,0,0,-1,1364,1695,4.37862,-16.5919
147,-671,4.87769,16.9489,0,0,0,0,0,0,0,-1,1371,1695,4.87764,-16.9489
154,-671,10.4191,12.8273,0,0,0,0,0,0,0,-1,1378,1695,10.419,-12.8273
161,-671,4.49292,4.91272,0,0,0,0,0,0,0,-1,1385,1695,4.49297,-4.91273
168,-671,5.17639,6.1416,0,0,0,0,0,0,0,-1,1392,1695,5.1764,-6.14164
175,-671,5.6731,1.64685,0,0,0,0,0,0,0,-1,1399,1695,5.67313,-1.64691
182,-671,5.56812,1.71692,0,0,0,0,0,0,0,-1,1406,1695,5.56809,-1.71686
189,-671,6.98315,6.36169,0,0,0,0,0,0,0,-1,1413,1695,6.98312,-6.36175
196,-671,5.38123,5.69775,0,0,0,0,0,0,0,-1,1420,1695,5.38125,-5.69769
203,-671,5.95117,8.11658,0,0,0,0,0,0,0,-1,1427,1695,5.9512,-8.11662
210,-671,4.73596,8.39624,0,0,0,0,0,0,0,-1,1434,1695,4.736,-8.39618
217,-671,5.37097,11.863,0,0,0,0,0,0,0,-1,1441,1695,5.37094,-11.863
224,-671,5.08167,13.6694,0,0,0,0,0,0,0,-1,1448,1695,5.08165,-13.6695
231,-671,5.66663,15.3348,0,0,0,0,0,0,0,-1,1455,1695,5.66667,-15.3349
238,-671,5.93677,15.5438,0,0,0,0,0,0,0,-1,1462,1695,5.93682,-15.5438
245,-671,5.8208,15.3884,0,0,0,0,0,0,0,-1,1469,1695,5.82082,-15.3884
252,-671,5.51489,15.7336,0,0,0,0,0,0,0,-1,1476,1695,5.5149,-15.7336
259,-671,5.55298,15.9529,0,0,0,0,0,0,0,-1,1483,1695,5.55303,-15.9529
266,-671,5.57434,15.824,0.00209668,-0.00657904,0.00238206,0.00270768,-0.00719004,0.251089,0.00590655,0.0193033,1490,1695,5.5743,-15.824
273,-671,5.57935,15.7667,0.00226478,-0.00661326,0.00238409,0.00286449,-0.00721297,0.246433,0.00599606,0.00881338,1497,1695,5.57932,-15.7667
280,-671,5.56433,15.696,0.00223389,-0.00631258,0.00231109,0.00281881,-0.0068975,0.247888,0.00577212,0.00970795,1504,1695,5.5643,-15.696
287,-671,5.55432,15.5828,0.00202856,-0.00569445,0.00218567,0.00260421,-0.0062701,0.257528,0.00526729,0.0117442,1511,1695,5.55429,-15.5827
294,-671,5.56628,15.454,0.00186318,-0.00511376,0.00207233,0.00243229,-0.00568287,0.268017,0.00480895,0.0112258,1518,1695,5.56633,-15.454
301,-671,5.59497,15.3583,0.00175821,-0.00442604,0.00192587,0.00230891,-0.00497675,0.278518,0.00429935,0.0100698,1525,1695,5.59498,-15.3583
308,-671,5.61536,15.2719,0.00162927,-0.00364421,0.00176992,0.00216822,-0.00418316,0.295585,0.00372798,0.0108901,1532,1695,5.61532,-15.2719
315,-671,5.62219,15.1475,0.0015184,-0.00304002,0.00164405,0.00204947,-0.00357109,0.312447,0.00328443,0.0123113,1539,1695,5.62222,-15.1475
322,-671,5.63501,15.0227,0.00146231,-0.00250488,0.00145515,0.00193882,-0.00298139,0.316458,0.00286186,0.0144465,1546,1695,5.63497,-15.0227
329,-671,5.60754,14.9093,0.00143012,-0.00207308,0.00120433,0.0018042,-0.00244715,0.301163,0.00246386,0.0134828,1553,1695,5.60754,-14.9093
336,-671,5.61536,14.7734,0.00139133,-0.0016366,0.000900376,0.00163883,-0.0018841,0.268262,0.00203561,0.0105512,1560,1695,5.6154,-14.7734
343,-671,5.62988,14.6401,0.00137216,-0.00135672,0.000535909,0.00147363,-0.00145819,0.187128,0.0016927,0.00998446,1567,1695,5.62986,-14.6401
350,-671,5.63257,14.5208,0.0014232,-0.001176,7.99312e-05,0.00142566,-0.00117845,0.0307135,0.00150574,0.00990554,1574,1695,5.63257,-14.5208
357,-671,5.61597,14.3567,0.00159899,-0.000813305,-0.00056937,0.00172663,-0.000940939,-0.220522,0.00156223,0.00980004,1581,1695,5.61593,-14.3567
364,-671,5.6178,14.2072,0.00184562,5.28702e-05,-0.00140335,0.00261445,-0.000715953,-0.501189,0.00202427,0.0121413,1588,1695,5.61783,-14.2072
371,-671,5.61304,14.0928,0.00217683,0.000924294,-0.00230341,0.00393759,-0.000836463,-0.652663,0.00294376,0.0140693,1595,1695,5.61309,-14.0928
378,-671,5.61938,13.949,0.0025867,0.00206459,-0.00332986,0.00566572,-0.00101443,-0.746279,0.00415676,0.0122764,1602,1695,5.61935,-13.9489
385,-671,5.60791,13.7784,0.00297839,0.00391403,-0.00464734,0.00811704,-0.00122461,-0.835562,0.00586235,0.0145239,1609,1695,5.60786,-13.7784
392,-671,5.56763,13.6807,0.00312683,0.00659593,-0.00606346,0.0111681,-0.0014453,-0.924711,0.00797094,0.0191076,1616,1695,5.56762,-13.6807
399,-671,5.56567,13.5104,0.00321398,0.00944357,-0.00737197,0.0143318,-0.00167422,-0.985282,0.0101587,0.0151443,1623,1695,5.56565,-13.5103
406,-671,5.61646,13.2936,0.00358039,0.0123546,-0.00868432,0.017697,-0.00176207,-1.01929,0.0124271,0.0206261,1630,1695,5.61642,-13.2935
413,-671,5.62219,13.1354,0.00422405,0.015725,-0.0103312,0.0217983,-0.00184922,-1.03935,0.0151862,0.0311678,1637,1695,5.62218,-13.1354
420,-671,5.74048,12.8059,0.00451691,0.0197902,-0.0120292,0.0264021,-0.00209495,-1.06822,0.0183396,0.0468386,1644,1695,5.74049,-12.806
427,-671,5.74182,12.6169,0,0,0,0,0,0,0,-1,1651,1695,5.74176,-12.617
434,-671,5.91357,12.0918,0.00442987,0.0269297,-0.0141748,0.0337763,-0.00241677,-1.12083,0.0233648,0.0498757,1658,1695,5.91353,-12.0918
441,-671,5.76611,11.7965,0.00458184,0.0301012,-0.0149396,0.0369885,-0.00230541,-1.13883,0.0254623,0.0491373,1665,1695,5.76605,-11.7965
448,-671,5.80627,11.5557,0,0,0,0,0,0,0,-1,1672,1695,5.80628,-11.5556
455,-671,3.40137,9.28076,0,0,0,0,0,0,0,-1,1679,1695,3.40135,-9.28082
462,-671,5.86255,4.47961,0,0,0,0,0,0,0,-1,1686,1695,5.8625,-4.4796
469,-671,3.71301,3.76978,0,0,0,0,0,0,0,-1,1693,1695,3.71297,-3.76974
476,-671,3.75574,3.18848,0,0,0,0,0,0,0,-1,1700,1695,3.7558,-3.18847
483,-671,7.81824,12.1041,0,0,0,0,0,0,0,-1,1707,1695,7.81826,-12.1041
490,-671,0,0,0,0,0,0,0,0,0,-1,1714,1695,0,0
497,-671,0,0,0,0,0,0,0,0,0,-1,1721,1695,0,0
504,-671,0,0,0,0,0,0,0,0,0,-1,1728,1695,0,0
511,-671,0,0,0,0,0,0,0,0,0,-1,1735,1695,0,0
518,-671,0,0,0,0,0,0,0,0,0,-1,1742,1695,0,0
525,-671,0,0,0,0,0,0,0,0,0,-1,1749,1695,0,0
532,-671,0,0,0,0,0,0,0,0,0,-1,1756,1695,0,0
539,-671,0,0,0,0,0,0,0,0,0,-1,1763,1695,0,0
546,-671,0,0,0,0,0,0,0,0,0,-1,1770,1695,0,0
553,-671,0,0,0,0,0,0,0,0,0,-1,1777,1695,0,0
560,-671,0,0,0,0,0,0,0,0,0,-1,1784,1695,0,0
567,-671,0,0,0,0,0,0,0,0,0,-1,1791,1695,0,0
574,-671,0,0,0,0,0,0,0,0,0,-1,1798,1695,0,0
581,-671,0,0,0,0,0,0,0,0,0,-1,1805,1695,0,0
588,-671,0,0,0,0,0,0,0,0,0,-1,1812,1695,0,0
595,-671,0,0,0,0,0,0,0,0,0,-1,1819,1695,0,0
602,-671,0,0,0,0,0,0,0,0,0,-1,1826,1695,0,0
609,-671,0,0,0,0,0,0,0,0,0,-1,1833,1695,0,0
616,-671,0,0,0,0,0,0,0,0,0,-1,1840,1695,0,0
623,-671,0,0,0,0,0,0,0,0,0,-1,1847,1695,0,0
630,-671,0,0,0,0,0,0,0,0,0,-1,1854,1695,0,0
637,-671,0,0,0,0,0,0,0,0,0,-1,1861,1695,0,0
644,-671,0,0,0,0,0,0,0,0,0,-1,1868,1695,0,0
651,-671,0,0,0,0,0,0,0,0,0,-1,1875,1695,0,0
658,-671,0,0,0,0,0,0,0,0,0,-1,1882,1695,0,0
665,-671,0,0,0,0,0,0,0,0,0,-1,1889,1695,0,0
672,-671,0,0,0,0,0,0,0,0,0,-1,1896,1695,0,0
679,-671,0,0,0,0,0,0,0,0,0,-1,1903,1695,0,0
686,-671,0,0,0,0,0,0,0,0,0,-1,1910,1695,0,0
693,-671,0,0,0,0,0,0,0,0,0,-1,1917,1695,0,0
700,-671,0,0,0,0,0,0,0,0,0,-1,1924,1695,0,0
707,-671,0,0,0,0,0,0,0,0,0,-1,1931,1695,0,0
714,-671,0,0,0,0,0,0,0,0,0,-1,1938,1695,0,0
721,-671,0,0,0,0,0,0,0,0,0,-1,1945,1695,0,0
728,-671,0,0,0,0,0,0,0,0,0,-1,1952,1695,0,0
735,-671,0,0,0,0,0,0,0,0,0,-1,1959,1695,0,0
742,-671,0,0,0,0,0,0,0,0,0,-1,1966,1695,0,0
749,-671,0,0,0,0,0,0,0,0,0,-1,1973,1695,0,0
756,-671,0,0,0,0,0,0,0,0,0,-1,1980,1695,0,0
763,-671,0,0,0,0,0,0,0,0,0,-1,1987,1695,0,0
770,-671,0,0,0,0,0,0,0,0,0,-1,1994,1695,0,0
777,-671,0,0,0,0,0,0,0,0,0,-1,2001,1695,0,0
784,-671,0,0,0,0,0,0,0,0,0,-1,2008,1695,0,0
791,-671,0,0,0,0,0,0,0,0,0,-1,2015,1695,0,0
798,-671,0,0,0,0,0,0,0,0,0,-1,2022,1695,0,0
805,-671,0,0,0,0,0,0,0,0,0,-1,2029,1695,0,0
812,-671,0,0,0,0,0,0,0,0,0,-1,2036,1695,0,0
-700,-678,0,0,0,0,0,0,0,0,0,-1,524,1702,0,0
-693,-678,0,0,0,0,0,0,0,0,0,-1,531,1702,0,0
-686,-678,0,0,0,0,0,0,0,0,0,-1,538,1702,0,0
-679,-678,0,0,0,0,0,0,0,0,0,-1,545,1702,0,0
-672,-678,0,0,0,0,0,0,0,0,0,-1,552,1702,0,0
-665,-678,0,0,0,0,0,0,0,0,0,-1,559,1702,0,0
-658,-678,0,0,0,0,0,0,0,0,0,-1,566,1702,0,0
-651,-678,0,0,0,0,0,0,0,0,0,-1,573,1702,0,0
-644,-678,0,0,0,0,0,0,0,0,0,-1,580,1702,0,0
-637,-678,0,0,0,0,0,0,0,0,0,-1,587,1702,0,0
-630,-678,0,0,0,0,0,0,0,0,0,-1,594,1702,0,0
-623,-678,0,0,0,0,0,0,0,0,0,-1,601,1702,0,0
-616,-678,0,0,0,0,0,0,0,0,0,-1,608,1702,0,0
-609,-678,0,0,0,0,0,0,0,0,0,-1,615,1702,0,0
-602,-678,0,0,0,0,0,0,0,0,0,-1,622,1702,0,0
-595,-678,0,0,0,0,0,0,0,0,0,-1,629,1702,0,0
-588,-678,0,0,0,0,0,0,0,0,0,-1,636,1702,0,0
-581,-678,0,0,0,0,0,0,0,0,0,-1,643,1702,0,0
-574,-678,0,0,0,0,0,0,0,0,0,-1,650,1702,0,0
-567,-678,0,0,0,0,0,0,0,0,0,-1,657,1702,0,0
-560,-678,0,0,0,0,0,0,0,0,0,-1,664,1702,0,0
-553,-678,0,0,0,0,0,0,0,0,0,-1,671,1702,0,0
-546,-678,0,0,0,0,0,0,0,0,0,-1,678,1702,0,0
-539,-678,0,0,0,0,0,0,0,0,0,-1,685,1702,0,0
-532,-678,0,0,0,0,0,0,0,0,0,-1,692,1702,0,0
-525,-678,0,0,0,0,0,0,0,0,0,-1,699,1702,0,0
-518,-678,0,0,0,0,0,0,0,0,0,-1,706,1702,0,0
-511,-678,0,0,0,0,0,0,0,0,0,-1,713,1702,0,0
-504,-678,0,0,0,0,0,0,0,0,0,-1,720,1702,0,0
-497,-678,0,0,0,0,0,0,0,0,0,-1,727,1702,0,0
-490,-678,0,0,0,0,0,0,0,0,0,-1,734,1702,0,0
-483,-678,0,0,0,0,0,0,0,0,0,-1,741,1702,0,0
-476,-678,0,0,0,0,0,0,0,0,0,-1,748,1702,0,0
-469,-678,0,0,0,0,0,0,0,0,0,-1,755,1702,0,0
-462,-678,0,0,0,0,0,0,0,0,0,-1,762,1702,0,0
-455,-678,0,0,0,0,0,0,0,0,0,-1,769,1702,0,0
-448,-678,0,0,0,0,0,0,0,0,0,-1,776,1702,0,0
-441,-678,0,0,0,0,0,0,0,0,0,-1,783,1702,0,0
-434,-678,0,0,0,0,0,0,0,0,0,-1,790,1702,0,0
-427,-678,0,0,0,0,0,0,0,0,0,-1,797,1702,0,0
-420,-678,0,0,0,0,0,0,0,0,0,-1,804,1702,0,0
-413,-678,0,0,0,0,0,0,0,0,0,-1,811,1702,0,0
-406,-678,0,0,0,0,0,0,0,0,0,-1,818,1702,0,0
-399,-678,0,0,0,0,0,0,0,0,0,-1,825,1702,0,0
-392,-678,0,0,0,0,0,0,0,0,0,-1,832,1702,0,0
-385,-678,0,0,0,0,0,0,0,0,0,-1,839,1702,0,0
-378,-678,0,0,0,0,0,0,0,0,0,-1,846,1702,0,0
-371,-678,0,0,0,0,0,0,0,0,0,-1,853,1702,0,0
-364,-678,0,0,0,0,0,0,0,0,0,-1,860,1702,0,0
-357,-678,0,0,0,0,0,0,0,0,0,-1,867,1702,0,0
-350,-678,-5.79944,6.11865,0,0,0,0,0,0,0,-1,874,1702,-5.79942,-6.11864
-343,-678,-6.44891,4.52759,0,0,0,0,0,0,0,-1,881,1702,-6.4489,-4.52758
-336,-678,-6.91888,2.99438,0,0,0,0,0,0,0,-1,888,1702,-6.9189,-2.99435
-329,-678,-7.14575,1.29761,0,0,0,0,0,0,0,-1,895,1702,-7.14577,-1.29755
-322,-678,-7.38513,-0.420044,0,0,0,0,0,0,0,-1,902,1702,-7.38514,0.420091
-315,-678,5.38995,10.121,0,0,0,0,0,0,0,-1,909,1702,5.38998,-10.121
-308,-678,4.63892,11.5948,0,0,0,0,0,0,0,-1,916,1702,4.6389,-11.5948
-301,-678,4.53772,12.379,0.00499782,0.00347137,-0.00527107,0.00956064,-0.00109144,-0.7135,0.00676697,0.0490777,923,1702,4.53773,-12.379
-294,-678,4.29224,11.5367,0.001796,0.00250127,-0.0053406,0.00750086,-0.00320359,-0.818365,0.00634405,0.0487262,930,1702,4.29224,-11.5368
-287,-678,4.46002,11.6343,-0.000280811,0.00158985,-0.00514637,0.00588519,-0.00457615,-0.87529,0.0060556,0.0462561,937,1702,4.46,-11.6343
-280,-678,4.8219,12.0918,-0.00163063,0.00138876,-0.00483063,0.00494011,-0.00518198,-0.936852,0.00584455,0.0465808,944,1702,4.8219,-12.0918
-273,-678,4.2489,12.4783,-0.00261445,0.00125137,-0.00451848,0.00423301,-0.00559609,-0.987509,0.005693,0.0461854,951,1702,4.24889,-12.4782
-266,-678,4.24213,12.6729,-0.00322294,0.00111508,-0.00365137,0.00319308,-0.00530094,-1.05341,0.0049541,0.0361686,958,1702,4.24214,-12.6728
-259,-678,4.16327,12.8451,-0.00326393,0.000680272,-0.00287737,0.0021965,-0.00478016,-1.08582,0.00411901,0.0230031,965,1702,4.1633,-12.8451
-252,-678,4.13666,12.9381,-0.0030089,0.00126426,-0.00272762,0.00259249,-0.00433713,-1.11764,0.00404286,0.0197033,972,1702,4.13668,-12.9382
-245,-678,4.15851,13.0908,-0.00224972,0.00231836,-0.00185247,0.00297516,-0.00290651,-1.23007,0.00339586,0.0200858,979,1702,4.15849,-13.0909
-238,-678,4.17145,13.2776,-0.00154062,0.00219254,-0.00120394,0.00254713,-0.00189521,-1.28437,0.00257397,0.0159957,986,1702,4.17145,-13.2776
-231,-678,4.17462,13.453,-0.00133598,0.00207629,-0.000908137,0.00230293,-0.00156262,-1.32623,0.00224538,0.0124542,993,1702,4.17464,-13.453
-224,-678,4.1485,13.6019,-0.000932125,0.00215772,-0.00058304,0.00226407,-0.00103848,-1.39036,0.00195001,0.0124205,1000,1702,4.1485,-13.6019
-217,-678,4.14905,13.7719,-0.000527046,0.00221908,-0.000465803,0.00229594,-0.000603905,-1.40727,0.00176668,0.0131486,1007,1702,4.14907,-13.7718
-210,-678,4.16321,13.9662,-0.000333515,0.00215504,-0.000251485,0.0021802,-0.000358675,-1.47108,0.0015866,0.0133903,1014,1702,4.16321,-13.9661
-203,-678,4.15234,14.0878,-0.000198292,0.00188801,-0.000158297,0.00189995,-0.000210234,-1.4955,0.00134221,0.0172947,1021,1702,4.15236,-14.0877
-196,-678,4.14343,14.2303,-9.37794e-05,0.00144597,-4.58681e-05,0.00144733,-9.51446e-05,-1.54104,0.000998116,0.0170019,1028,1702,4.14349,-14.2303
-189,-678,4.14258,14.3901,-7.36914e-06,0.000966795,-1.71189e-05,0.000967096,-7.66988e-06,-1.55323,0.000647302,0.00955536,1035,1702,4.14261,-14.3902
-182,-678,4.15771,14.5253,3.31551e-05,0.000451374,-0.000102217,0.00047502,9.50908e-06,-1.34346,0.000313558,0.00932153,1042,1702,4.15772,-14.5253
-175,-678,4.14575,14.6604,0.000267647,-0.000105353,-0.000253683,0.000396008,-0.000233714,-0.468427,0.000367573,0.010919,1049,1702,4.14576,-14.6604
-168,-678,4.13599,14.8092,0.000696446,-0.000648344,-0.000327134,0.000771802,-0.0007237,-0.226403,0.000863577,0.0109226,1056,1702,4.13599,-14.8092
-161,-678,4.1322,14.9365,0.00107971,-0.00114349,-0.000403977,0.00115084,-0.00121462,-0.17429,0.00136586,0.00931767,1063,1702,4.13217,-14.9365
-154,-678,4.14441,15.0519,0.00174042,-0.00165759,-0.000484053,0.00180803,-0.0017252,-0.138775,0.0020401,0.00813019,1070,1702,4.14443,-15.0519
-147,-678,4.14111,15.1853,0.00253294,-0.0021622,-0.000616092,0.00261244,-0.0022417,-0.128325,0.00280526,0.00987832,1077,1702,4.14114,-15.1853
-140,-678,4.16675,15.3069,0.0034578,-0.00272692,-0.000736988,0.00354441,-0.00281352,-0.116981,0.00367883,0.011641,1084,1702,4.16671,-15.3068
-133,-678,4.18347,15.4088,0.00453321,-0.00343556,-0.000701511,0.0045945,-0.00349685,-0.0871394,0.00468585,0.0118641,1091,1702,4.18351,-15.4088
-126,-678,4.1781,15.5154,0.00560081,-0.0042022,-0.000560121,0.00563271,-0.0042341,-0.0568909,0.00571565,0.00870336,1098,1702,4.17811,-15.5154
-119,-678,4.20642,15.6667,0.00673354,-0.00476424,-0.000328896,0.00674294,-0.00477364,-0.028574,0.00668143,0.0178883,1105,1702,4.20643,-15.6667
-112,-678,4.17029,15.7887,0.00785288,-0.00541702,-1.10891e-05,0.00785289,-0.00541703,-0.000835654,0.0077043,0.0260606,1112,1702,4.17028,-15.7887
-105,-678,4.17029,15.8685,0.00884738,-0.005992,0.000476314,0.00886265,-0.00600727,0.032054,0.00863776,0.0281586,1119,1702,4.17033,-15.8685
-98,-678,4.22595,15.8118,0.00963692,-0.0064304,0.00112909,0.00971587,-0.00650936,0.0698149,0.00942842,0.0208866,1126,1702,4.22599,-15.8118
-91,-678,4.25867,15.9139,0.010032,-0.00666869,0.0018235,0.0102288,-0.00686548,0.1075,0.00993283,0.0199715,1133,1702,4.25867,-15.914
-84,-678,4.3446,15.9027,0.0104517,-0.00667033,0.00248082,0.0108039,-0.00702253,0.141028,0.010369,0.0315864,1140,1702,4.34462,-15.9027
-77,-678,4.38757,16.0729,0.0110212,-0.0063127,0.00290495,0.0114951,-0.00678658,0.161704,0.010671,0.0447268,1147,1702,4.38758,-16.0729
-70,-678,4.53674,16.3989,0,0,0,0,0,0,0,-1,1154,1702,4.53669,-16.3989
-63,-678,3.41687,11.0365,0,0,0,0,0,0,0,-1,1161,1702,3.41682,-11.0365
-56,-678,1.72388,6.13159,0,0,0,0,0,0,0,-1,1168,1702,1.72388,-6.13157
-49,-678,-0.241699,5.29895,0,0,0,0,0,0,0,-1,1175,1702,-0.241682,-5.29897
-42,-678,0.297119,3.90649,0,0,0,0,0,0,0,-1,1182,1702,0.297139,-3.90655
-35,-678,0.498413,3.64038,0,0,0,0,0,0,0,-1,1189,1702,0.498471,-3.64038
-28,-678,0.132446,3.55994,0,0,0,0,0,0,0,-1,1196,1702,0.132432,-3.55993
-21,-678,4.52539,16.5486,0,0,0,0,0,0,0,-1,1203,1702,4.52537,-16.5485
-14,-678,5.08521,18.6768,0,0,0,0,0,0,0,-1,1210,1702,5.08518,-18.6768
-7,-678,4.47729,16.5804,0,0,0,0,0,0,0,-1,1217,1702,4.47731,-16.5804
0,-678,4.646,16.8898,0,0,0,0,0,0,0,-1,1224,1702,4.64594,-16.8898
7,-678,4.88062,17.3477,0,0,0,0,0,0,0,-1,1231,1702,4.88067,-17.3477
14,-678,4.91541,16.7571,0,0,0,0,0,0,0,-1,1238,1702,4.91536,-16.7571
21,-678,3.19299,17.2092,0,0,0,0,0,0,0,-1,1245,1702,3.19297,-17.2092
28,-678,3.57654,16.7319,0,0,0,0,0,0,0,-1,1252,1702,3.57653,-16.7319
35,-678,5.68579,15.8236,0,0,0,0,0,0,0,-1,1259,1702,5.68582,-15.8237
42,-678,5.87769,15.1195,0.0123596,-0.00298138,-0.0081126,0.0158538,-0.0064756,-0.406702,0.0132655,0.0450695,1266,1702,5.87769,-15.1195
49,-678,6.39209,14.1628,0.00718607,-0.00894195,-0.00520523,0.00872011,-0.010476,-0.286599,0.0110983,0.0451334,1273,1702,6.39215,-14.1628
56,-678,6.60583,13.031,0,0,0,0,0,0,0,-1,1280,1702,6.60589,-13.031
63,-678,6.25427,16.2278,0,0,0,0,0,0,0,-1,1287,1702,6.25431,-16.2277
70,-678,5.54346,16.3361,-0.00602061,-0.0118402,0.00181656,-0.00550012,-0.0123607,0.279046,0.00715082,0.0435691,1294,1702,5.5435,-16.3361
77,-678,4.78796,16.567,-0.00940533,-0.00615493,0.00118383,-0.00576948,-0.00979078,1.25602,0.00568267,0.0421569,1301,1702,4.78792,-16.567
84,-678,4.32788,16.8383,-0.0111177,0.00375054,-0.00127878,0.00385972,-0.0112269,-1.48562,0.00904979,0.0436941,1308,1702,4.32791,-16.8383
91,-678,4.26331,16.8472,-0.0116667,0.0114447,-0.00238857,0.0116889,-0.011911,-1.46888,0.0136256,0.044888,1315,1702,4.26325,-16.8472
98,-678,4.92871,16.824,-0.0102263,0.0193569,-0.00406236,0.0199046,-0.010774,-1.43678,0.0179719,0.0425132,1322,1702,4.92877,-16.824
105,-678,5.17468,16.2361,-0.0068482,0.0317784,-0.00760899,0.0332233,-0.00829304,-1.38314,0.0253691,0.042406,1329,1702,5.17474,-16.2361
112,-678,5.38464,16.4749,-0.00276324,0.0397215,-0.0111008,0.0424471,-0.00548887,-1.33002,0.0302939,0.0413934,1336,1702,5.38459,-16.4749
119,-678,5.47998,16.7705,0.000556071,0.0483099,-0.0142538,0.0522408,-0.00337488,-1.3017,0.0360049,0.0426849,1343,1702,5.48003,-16.7705
126,-678,5.5094,16.8344,0.00284751,0.0563857,-0.0178606,0.0617971,-0.00256388,-1.27661,0.0420787,0.0459088,1350,1702,5.50944,-16.8343
133,-678,5.09875,16.5507,0,0,0,0,0,0,0,-1,1357,1702,5.09869,-16.5507
140,-678,4.97034,16.7361,0,0,0,0,0,0,0,-1,1364,1702,4.97037,-16.736
147,-678,4.88867,16.8444,0,0,0,0,0,0,0,-1,1371,1702,4.8887,-16.8443
154,-678,5.02588,16.8392,0,0,0,0,0,0,0,-1,1378,1702,5.02582,-16.8392
161,-678,3.44202,4.53992,0,0,0,0,0,0,0,-1,1385,1702,3.442,-4.53996
168,-678,4.21863,5.25781,0,0,0,0,0,0,0,-1,1392,1702,4.21865,-5.25781
175,-678,5.21899,5.9635,0,0,0,0,0,0,0,-1,1399,1702,5.21894,-5.96346
182,-678,7.31262,6.75122,0,0,0,0,0,0,0,-1,1406,1702,7.3126,-6.75123
189,-678,5.96021,6.36853,0,0,0,0,0,0,0,-1,1413,1702,5.96018,-6.36851
196,-678,5.01599,8.15771,0,0,0,0,0,0,0,-1,1420,1702,5.01596,-8.15767
203,-678,4.64771,13.0559,0,0,0,0,0,0,0,-1,1427,1702,4.64766,-13.0559
210,-678,5.55969,17.1759,0,0,0,0,0,0,0,-1,1434,1702,5.55971,-17.1759
217,-678,5.48572,16.5173,0,0,0,0,0,0,0,-1,1441,1702,5.48575,-16.5174
224,-678,5.33423,16.302,0,0,0,0,0,0,0,-1,1448,1702,5.33419,-16.302
231,-678,5.45435,16.4219,0,0,0,0,0,0,0,-1,1455,1702,5.45436,-16.4219
238,-678,5.44971,16.3335,0.00169776,3.75342e-05,0.000454508,0.00181404,-7.87489e-05,0.250471,0.00123645,0.0491394,1462,1702,5.44973,-16.3335
245,-678,5.44946,16.2255,0.00185235,-0.00141875,0.000780786,0.00202916,-0.00159556,0.222696,0.00209772,0.0394455,1469,1702,5.44951,-16.2255
252,-678,5.44629,16.0662,0.00168015,-0.00280286,0.00124461,0.00200251,-0.00312521,0.253434,0.00298405,0.0281062,1476,1702,5.44632,-16.0662
259,-678,5.44446,16.0016,0.00159492,-0.00362857,0.00143448,0.00196293,-0.00399658,0.251131,0.00350687,0.0156008,1483,1702,5.44449,-16.0016
266,-678,5.46619,15.8948,0.00157206,-0.00439695,0.00160651,0.00197697,-0.00480186,0.246902,0.00402545,0.00996453,1490,1702,5.46616,-15.8948
273,-678,5.48267,15.8022,0.00165731,-0.004481,0.00159112,0.00204524,-0.00486893,0.239139,0.00410136,0.0104788,1497,1702,5.4827,-15.8023
280,-678,5.46521,15.7125,0.0015972,-0.00427457,0.00153525,0.00197438,-0.00465175,0.240909,0.00392832,0.0118116,1504,1702,5.46516,-15.7125
287,-678,5.46851,15.5939,0.00144482,-0.00384065,0.00147565,0.0018289,-0.00422473,0.254627,0.00358514,0.0121736,1511,1702,5.46848,-15.5939
294,-678,5.47363,15.4702,0.00138049,-0.00351248,0.00141534,0.00176039,-0.00389238,0.262239,0.00334011,0.0125002,1518,1702,5.47363,-15.4703
301,-678,5.46545,15.3761,0.00132434,-0.00307241,0.0013346,0.00169774,-0.00344581,0.272806,0.00302625,0.0118727,1525,1702,5.46544,-15.3761
308,-678,5.47815,15.2629,0.00123563,-0.00259099,0.001263,0.0016149,-0.00297026,0.291726,0.00268552,0.0129116,1532,1702,5.4781,-15.2629
315,-678,5.48303,15.1367,0.00118002,-0.00232492,0.00125828,0.00158496,-0.00272986,0.311353,0.00252022,0.0139711,1539,1702,5.48301,-15.1367
322,-678,5.47888,15.0349,0.00122943,-0.002072,0.00113298,0.00158084,-0.00242341,0.300756,0.00232885,0.0168454,1546,1702,5.47886,-15.0349
329,-678,5.47229,14.917,0.00128496,-0.00189805,0.000937936,0.00154078,-0.00215387,0.266272,0.00214288,0.0146652,1553,1702,5.47235,-14.917
336,-678,5.46704,14.7679,0.00136794,-0.00169021,0.000643869,0.00149797,-0.00182024,0.199275,0.00191878,0.012237,1560,1702,5.46702,-14.7679
343,-678,5.47913,14.6334,0.00148248,-0.00159074,0.000275274,0.00150694,-0.0016152,0.0886315,0.00180293,0.0117126,1567,1702,5.47912,-14.6335
350,-678,5.49426,14.5188,0.00164164,-0.0015611,-0.000200259,0.00165411,-0.00157358,-0.0622043,0.0018637,0.0110361,1574,1702,5.49428,-14.5188
357,-678,5.50269,14.3746,0.00190714,-0.00128693,-0.00089986,0.00214321,-0.00152299,-0.256558,0.00212676,0.00886441,1581,1702,5.50264,-14.3747
364,-678,5.48938,14.2172,0.00227516,-0.000300214,-0.00188473,0.00327009,-0.00129514,-0.48571,0.0027167,0.0112601,1588,1702,5.48932,-14.2172
371,-678,5.45544,14.0919,0.00275707,0.0007399,-0.00297465,0.00488947,-0.0013925,-0.62195,0.00380961,0.0124309,1595,1702,5.45548,-14.092
378,-678,5.47021,13.9294,0.00335487,0.00213686,-0.00425161,0.00704087,-0.00154915,-0.714261,0.00528651,0.0146058,1602,1702,5.47025,-13.9295
385,-678,5.47839,13.8027,0.00389167,0.00443155,-0.005901,0.0100688,-0.00174556,-0.808255,0.00736366,0.0183261,1609,1702,5.47843,-13.8028
392,-678,5.44849,13.7205,0.00408714,0.0078737,-0.00773001,0.0139389,-0.00197807,-0.905497,0.0100173,0.029427,1616,1702,5.44845,-13.7204
399,-678,5.46313,13.5631,0.00418843,0.0117777,-0.00948996,0.0182036,-0.00223743,-0.97559,0.0129461,0.0378242,1623,1702,5.46318,-13.5631
406,-678,5.49744,13.1663,0.00471412,0.0157783,-0.0113118,0.0228383,-0.00234588,-1.01282,0.0160647,0.041724,1630,1702,5.49742,-13.1662
413,-678,5.59814,12.5327,0.00554113,0.0204699,-0.0135595,0.0284838,-0.00247278,-1.03701,0.0198648,0.0443322,1637,1702,5.59814,-12.5327
420,-678,5.71667,12.6414,0,0,0,0,0,0,0,-1,1644,1702,5.71672,-12.6413
427,-678,4.57483,10.1555,0,0,0,0,0,0,0,-1,1651,1702,4.57485,-10.1555
434,-678,5.73999,11.7773,0,0,0,0,0,0,0,-1,1658,1702,5.73994,-11.7774
441,-678,5.59717,11.4231,0,0,0,0,0,0,0,-1,1665,1702,5.59711,-11.4231
448,-678,3.25525,9.74719,0,0,0,0,0,0,0,-1,1672,1702,3.25522,-9.7472
455,-678,5.44678,5.54297,0,0,0,0,0,0,0,-1,1679,1702,5.44676,-5.54294
462,-678,3.86792,2.87402,0,0,0,0,0,0,0,-1,1686,1702,3.86796,-2.87406
469,-678,2.26587,1.98755,0,0,0,0,0,0,0,-1,1693,1702,2.26592,-1.98755
476,-678,0,0,0,0,0,0,0,0,0,-1,1700,1702,0,0
483,-678,0,0,0,0,0,0,0,0,0,-1,1707,1702,0,0
490,-678,0,0,0,0,0,0,0,0,0,-1,1714,1702,0,0
497,-678,0,0,0,0,0,0,0,0,0,-1,1721,1702,0,0
504,-678,0,0,0,0,0,0,0,0,0,-1,1728,1702,0,0
511,-678,0,0,0,0,0,0,0,0,0,-1,1735,1702,0,0
518,-678,0,0,0,0,0,0,0,0,0,-1,1742,1702,0,0
525,-678,0,0,0,0,0,0,0,0,0,-1,1749,1702,0,0
532,-678,0,0,0,0,0,0,0,0,0,-1,1756,1702,0,0
539,-678,0,0,0,0,0,0,0,0,0,-1,1763,1702,0,0
546,-678,0,0,0,0,0,0,0,0,0,-1,1770,1702,0,0
553,-678,0,0,0,0,0,0,0,0,0,-1,1777,1702,0,0
560,-678,0,0,0,0,0,0,0,0,0,-1,1784,1702,0,0
567,-678,0,0,0,0,0,0,0,0,0,-1,1791,1702,0,0
574,-678,0,0,0,0,0,0,0,0,0,-1,1798,1702,0,0
581,-678,0,0,0,0,0,0,0,0,0,-1,1805,1702,0,0
588,-678,0,0,0,0,0,0,0,0,0,-1,1812,1702,0,0
595,-678,0,0,0,0,0,0,0,0,0,-1,1819,1702,0,0
602,-678,0,0,0,0,0,0,0,0,0,-1,1826,1702,0,0
609,-678,0,0,0,0,0,0,0,0,0,-1,1833,1702,0,0
616,-678,0,0,0,0,0,0,0,0,0,-1,1840,1702,0,0
623,-678,0,0,0,0,0,0,0,0,0,-1,1847,1702,0,0
630,-678,0,0,0,0,0,0,0,0,0,-1,1854,1702,0,0
637,-678,0,0,0,0,0,0,0,0,0,-1,1861,1702,0,0
644,-678,0,0,0,0,0,0,0,0,0,-1,1868,1702,0,0
651,-678,0,0,0,0,0,0,0,0,0,-1,1875,1702,0,0
658,-678,0,0,0,0,0,0,0,0,0,-1,1882,1702,0,0
665,-678,0,0,0,0,0,0,0,0,0,-1,1889,1702,0,0
672,-678,0,0,0,0,0,0,0,0,0,-1,1896,1702,0,0
679,-678,0,0,0,0,0,0,0,0,0,-1,1903,1702,0,0
686,-678,0,0,0,0,0,0,0,0,0,-1,1910,1702,0,0
693,-678,0,0,0,0,0,0,0,0,0,-1,1917,1702,0,0
700,-678,0,0,0,0,0,0,0,0,0,-1,1924,1702,0,0
707,-678,0,0,0,0,0,0,0,0,0,-1,1931,1702,0,0
714,-678,0,0,0,0,0,0,0,0,0,-1,1938,1702,0,0
721,-678,0,0,0,0,0,0,0,0,0,-1,1945,1702,0,0
728,-678,0,0,0,0,0,0,0,0,0,-1,1952,1702,0,0
735,-678,0,0,0,0,0,0,0,0,0,-1,1959,1702,0,0
742,-678,0,0,0,0,0,0,0,0,0,-1,1966,1702,0,0
749,-678,0,0,0,0,0,0,0,0,0,-1,1973,1702,0,0
756,-678,0,0,0,0,0,0,0,0,0,-1,1980,1702,0,0
763,-678,0,0,0,0,0,0,0,0,0,-1,1987,1702,0,0
770,-678,0,0,0,0,0,0,0,0,0,-1,1994,1702,0,0
777,-678,0,0,0,0,0,0,0,0,0,-1,2001,1702,0,0
784,-678,0,0,0,0,0,0,0,0,0,-1,2008,1702,0,0
791,-678,0,0,0,0,0,0,0,0,0,-1,2015,1702,0,0
798,-678,0,0,0,0,0,0,0,0,0,-1,2022,1702,0,0
805,-678,0,0,0,0,0,0,0,0,0,-1,2029,1702,0,0
812,-678,0,0,0,0,0,0,0,0,0,-1,2036,1702,0,0
-700,-685,0,0,0,0,0,0,0,0,0,-1,524,1709,0,0
-693,-685,0,0,0,0,0,0,0,0,0,-1,531,1709,0,0
-686,-685,0,0,0,0,0,0,0,0,0,-1,538,1709,0,0
-679,-685,0,0,0,0,0,0,0,0,0,-1,545,1709,0,0
-672,-685,0,0,0,0,0,0,0,0,0,-1,552,1709,0,0
-665,-685,0,0,0,0,0,0,0,0,0,-1,559,1709,0,0
-658,-685,0,0,0,0,0,0,0,0,0,-1,566,1709,0,0
-651,-685,0,0,0,0,0,0,0,0,0,-1,573,1709,0,0
-644,-685,0,0,0,0,0,0,0,0,0,-1,580,1709,0,0
-637,-685,0,0,0,0,0,0,0,0,0,-1,587,1709,0,0
-630,-685,0,0,0,0,0,0,0,0,0,-1,594,1709,0,0
-623,-685,0,0,0,0,0,0,0,0,0,-1,601,1709,0,0
-616,-685,0,0,0,0,0,0,0,0,0,-1,608,1709,0,0
-609,-685,0,0,0,0,0,0,0,0,0,-1,615,1709,0,0
-602,-685,0,0,0,0,0,0,0,0,0,-1,622,1709,0,0
-595,-685,0,0,0,0,0,0,0,0,0,-1,629,1709,0,0
-588,-685,0,0,0,0,0,0,0,0,0,-1,636,1709,0,0
-581,-685,0,0,0,0,0,0,0,0,0,-1,643,1709,0,0
-574,-685,0,0,0,0,0,0,0,0,0,-1,650,1709,0,0
-567,-685,0,0,0,0,0,0,0,0,0,-1,657,1709,0,0
-560,-685,0,0,0,0,0,0,0,0,0,-1,664,1709,0,0
-553,-685,0,0,0,0,0,0,0,0,0,-1,671,1709,0,0
-546,-685,0,0,0,0,0,0,0,0,0,-1,678,1709,0,0
-539,-685,0,0,0,0,0,0,0,0,0,-1,685,1709,0,0
-532,-685,0,0,0,0,0,0,0,0,0,-1,692,1709,0,0
-525,-685,0,0,0,0,0,0,0,0,0,-1,699,1709,0,0
-518,-685,0,0,0,0,0,0,0,0,0,-1,706,1709,0,0
-511,-685,0,0,0,0,0,0,0,0,0,-1,713,1709,0,0
-504,-685,0,0,0,0,0,0,0,0,0,-1,720,1709,0,0
-497,-685,0,0,0,0,0,0,0,0,0,-1,727,1709,0,0
-490,-685,0,0,0,0,0,0,0,0,0,-1,734,1709,0,0
-483,-685,0,0,0,0,0,0,0,0,0,-1,741,1709,0,0
-476,-685,0,0,0,0,0,0,0,0,0,-1,748,1709,0,0
-469,-685,0,0,0,0,0,0,0,0,0,-1,755,1709,0,0
-462,-685,0,0,0,0,0,0,0,0,0,-1,762,1709,0,0
-455,-685,0,0,0,0,0,0,0,0,0,-1,769,1709,0,0
-448,-685,0,0,0,0,0,0,0,0,0,-1,776,1709,0,0
-441,-685,0,0,0,0,0,0,0,0,0,-1,783,1709,0,0
-434,-685,0,0,0,0,0,0,0,0,0,-1,790,1709,0,0
-427,-685,0,0,0,0,0,0,0,0,0,-1,797,1709,0,0
-420,-685,0,0,0,0,0,0,0,0,0,-1,804,1709,0,0
-413,-685,0,0,0,0,0,0,0,0,0,-1,811,1709,0,0
-406,-685,0,0,0,0,0,0,0,0,0,-1,818,1709,0,0
-399,-685,0,0,0,0,0,0,0,0,0,-1,825,1709,0,0
-392,-685,0,0,0,0,0,0,0,0,0,-1,832,1709,0,0
-385,-685,0,0,0,0,0,0,0,0,0,-1,839,1709,0,0
-378,-685,0,0,0,0,0,0,0,0,0,-1,846,1709,0,0
-371,-685,0,0,0,0,0,0,0,0,0,-1,853,1709,0,0
-364,-685,0,0,0,0,0,0,0,0,0,-1,860,1709,0,0
-357,-685,0,0,0,0,0,0,0,0,0,-1,867,1709,0,0
-350,-685,0,0,0,0,0,0,0,0,0,-1,874,1709,0,0
-343,-685,-5.98505,6.56335,0,0,0,0,0,0,0,-1,881,1709,-5.98505,-6.56329
-336,-685,-6.51312,5.10571,0,0,0,0,0,0,0,-1,888,1709,-6.51311,-5.10575
-329,-685,-6.81384,3.34106,0,0,0,0,0,0,0,-1,895,1709,-6.81385,-3.341
-322,-685,3.48425,16.3307,0,0,0,0,0,0,0,-1,902,1709,3.48425,-16.3307
-315,-685,3.66089,14.3413,0,0,0,0,0,0,0,-1,909,1709,3.66091,-14.3413
-308,-685,6.0274,11.0804,0,0,0,0,0,0,0,-1,916,1709,6.02742,-11.0804
-301,-685,4.46869,12.7168,0,0,0,0,0,0,0,-1,923,1709,4.46871,-12.7167
-294,-685,4.69379,11.4784,0,0,0,0,0,0,0,-1,930,1709,4.69376,-11.4785
-287,-685,4.82544,11.5287,0,0,0,0,0,0,0,-1,937,1709,4.82543,-11.5287
-280,-685,5.41193,12.0353,0,0,0,0,0,0,0,-1,944,1709,5.41193,-12.0353
-273,-685,4.22876,12.5808,0,0,0,0,0,0,0,-1,951,1709,4.22874,-12.5808
-266,-685,4.29852,12.813,-0.00401615,0.000738014,-0.00523173,0.00410737,-0.0073855,-0.998634,0.00672478,0.045443,958,1709,4.29854,-12.813
-259,-685,4.2984,12.877,-0.00404983,0.000695225,-0.00418933,0.00313719,-0.0064918,-1.04304,0.00567064,0.0384106,965,1709,4.29842,-12.877
-252,-685,4.44434,13.0078,-0.0038118,0.00161498,-0.00386589,0.00362468,-0.0058215,-1.09139,0.0055027,0.0377425,972,1709,4.44433,-13.0078
-245,-685,4.36371,13.1411,-0.00295892,0.00310171,-0.00263674,0.00408826,-0.00394547,-1.21277,0.00463852,0.0359578,979,1709,4.3637,-13.1411
-238,-685,4.30005,13.2764,-0.00213914,0.00309146,-0.00173831,0.00361646,-0.00266415,-1.27749,0.00363998,0.0258472,986,1709,4.30004,-13.2763
-231,-685,4.31042,13.4302,-0.00190313,0.0031298,-0.00129133,0.00344179,-0.00221512,-1.33374,0.00329151,0.0155254,993,1709,4.31043,-13.4302
-224,-685,4.31421,13.5972,-0.00141396,0.00339257,-0.000845648,0.00353701,-0.0015584,-1.40162,0.00301486,0.0133896,1000,1709,4.3142,-13.5972
-217,-685,4.30774,13.7881,-0.000903102,0.00360444,-0.000629543,0.00369071,-0.000989376,-1.4346,0.00284814,0.0112381,1007,1709,4.30776,-13.7881
-210,-685,4.29871,13.9855,-0.000644985,0.00366754,-0.000298892,0.00368816,-0.000665602,-1.50193,0.00270805,0.0144068,1014,1709,4.29869,-13.9855
-203,-685,4.29504,14.1284,-0.000470065,0.00348418,-0.000126517,0.00348822,-0.000474108,-1.53884,0.00249856,0.0135676,1021,1709,4.29499,-14.1284
-196,-685,4.28528,14.2332,-0.000340945,0.00305665,4.95436e-05,0.00305737,-0.000341668,1.55622,0.00216116,0.0116671,1028,1709,4.28531,-14.2331
-189,-685,4.29712,14.3668,-0.000217141,0.0025603,0.000108488,0.00256453,-0.000221372,1.53182,0.00178805,0.00822615,1035,1709,4.29711,-14.3668
-182,-685,4.28906,14.5063,-0.000170857,0.00203508,7.39218e-05,0.00203756,-0.000173331,1.53734,0.00141968,0.012725,1042,1709,4.28903,-14.5063
-175,-685,4.2843,14.649,3.45236e-06,0.00145007,2.23632e-05,0.00145042,3.10678e-06,1.55534,0.000965912,0.0128883,1049,1709,4.28424,-14.6491
-168,-685,4.26904,14.8081,0.000276746,0.000880512,-4.37997e-05,0.000883673,0.000273585,-1.49875,0.000522374,0.0102353,1056,1709,4.26908,-14.8081
-161,-685,4.26697,14.9547,0.000513167,0.000341514,-0.000119803,0.000574714,0.000279967,-0.474574,0.000331848,0.0114854,1063,1709,4.26699,-14.9547
-154,-685,4.28821,15.0732,0.000982654,-0.000219436,-0.000182264,0.00100968,-0.000246464,-0.147215,0.000768563,0.0103924,1070,1709,4.28824,-15.0733
-147,-685,4.28137,15.1868,0.0015897,-0.000754691,-0.000293521,0.00162589,-0.000790882,-0.122679,0.00142282,0.00923441,1077,1709,4.28134,-15.1868
-140,-685,4.2771,15.3033,0.00226758,-0.00131774,-0.000428538,0.00231809,-0.00136825,-0.117324,0.00215173,0.0116906,1084,1709,4.27713,-15.3033
-133,-685,4.28735,15.3981,0.00301336,-0.00198393,-0.000442283,0.0030522,-0.00202277,-0.0875971,0.00295006,0.0105326,1091,1709,4.28741,-15.3981
-126,-685,4.29028,15.5172,0.00382808,-0.00268001,-0.000326503,0.00384442,-0.00269635,-0.0500015,0.00379566,0.00901461,1098,1709,4.29034,-15.5172
-119,-685,4.30627,15.6278,0.00468403,-0.00318241,-0.000136469,0.00468639,-0.00318478,-0.0173413,0.0045719,0.0128998,1105,1709,4.3063,-15.6278
-112,-685,4.30481,15.7188,0.00548754,-0.00376082,7.86472e-05,0.00548821,-0.00376148,0.00850309,0.00537124,0.0121176,1112,1709,4.30477,-15.7187
-105,-685,4.29126,15.8042,0.00616861,-0.00427863,0.000399032,0.00618383,-0.00429385,0.0381209,0.006082,0.00984393,1119,1709,4.29131,-15.8042
-98,-685,4.35266,15.89,0.0066656,-0.00466081,0.000839425,0.00672747,-0.00472268,0.0735765,0.00664444,0.0131396,1126,1709,4.35266,-15.8901
-91,-685,4.35632,15.9812,0.00691725,-0.00484295,0.00129511,0.00705819,-0.00498389,0.108396,0.0069868,0.0153722,1133,1709,4.35628,-15.9812
-84,-685,4.35583,16.0635,0.00717338,-0.00484079,0.0017081,0.00741151,-0.00507891,0.138518,0.00725315,0.013545,1140,1709,4.35586,-16.0634
-77,-685,4.40527,16.2255,0.00752782,-0.00446752,0.00196747,0.00784228,-0.00478198,0.158489,0.00735966,0.0152194,1147,1709,4.40524,-16.2255
-70,-685,4.54004,16.4667,0.0075251,-0.00421468,0.00213276,0.00790055,-0.00459013,0.174255,0.00729543,0.0338798,1154,1709,4.54006,-16.4666
-63,-685,4.54443,16.8649,0,0,0,0,0,0,0,-1,1161,1709,4.54448,-16.8649
-56,-685,3.93909,15.8704,0,0,0,0,0,0,0,-1,1168,1709,3.93905,-15.8704
-49,-685,3.07471,9.86011,0,0,0,0,0,0,0,-1,1175,1709,3.07467,-9.86009
-42,-685,2.70618,7.54504,0,0,0,0,0,0,0,-1,1182,1709,2.7062,-7.54504
-35,-685,2.95264,7.91516,0,0,0,0,0,0,0,-1,1189,1709,2.95262,-7.91517
-28,-685,4.33667,16.7194,0,0,0,0,0,0,0,-1,1196,1709,4.33673,-16.7193
-21,-685,4.56702,16.6405,0.0210339,0.0425888,-0.0264179,0.0603431,0.00327959,-0.979073,0.0391813,0.0417478,1203,1709,4.56705,-16.6405
-14,-685,4.70508,16.5873,0.0216358,0.0406417,-0.0260601,0.0588774,0.00340009,-0.960234,0.0381687,0.0257215,1210,1709,4.7051,-16.5873
-7,-685,4.59351,16.6919,0.0222315,0.0379615,-0.0245478,0.0558735,0.00431947,-0.940429,0.0358959,0.0377182,1217,1709,4.59353,-16.6919
0,-685,4.66431,16.8939,0.0225191,0.0307496,-0.0216839,0.0487053,0.00456342,-0.879174,0.031061,0.0436473,1224,1709,4.66431,-16.8939
7,-685,4.84326,17.0764,0.0224636,0.0237126,-0.0184971,0.0415957,0.00458053,-0.802272,0.0263368,0.0390569,1231,1709,4.84323,-17.0764
14,-685,4.93213,16.9865,0,0,0,0,0,0,0,-1,1238,1709,4.93211,-16.9864
21,-685,4.91064,16.7239,0.020053,0.00884002,-0.0123953,0.0280508,0.00084222,-0.573013,0.0184262,0.038088,1245,1709,4.91069,-16.7239
28,-685,4.88245,16.7883,0.0169822,0.0023047,-0.00956819,0.021702,-0.00241505,-0.458253,0.0153365,0.0387864,1252,1709,4.88241,-16.7883
35,-685,5.03699,16.4375,0,0,0,0,0,0,0,-1,1259,1709,5.03702,-16.4375
42,-685,5.3479,15.9707,0,0,0,0,0,0,0,-1,1266,1709,5.3479,-15.9707
49,-685,6.37048,15.1008,0,0,0,0,0,0,0,-1,1273,1709,6.37045,-15.1008
56,-685,4.91418,16.7933,0.00174118,-0.0151188,-0.000306154,0.00174674,-0.0151244,-0.0181506,0.0107127,0.0473138,1280,1709,4.91416,-16.7934
63,-685,5.19299,16.838,-0.00172705,-0.0157754,0.00163442,-0.0015394,-0.0159631,0.114308,0.0101678,0.0466919,1287,1709,5.19303,-16.838
70,-685,4.7417,16.9426,0,0,0,0,0,0,0,-1,1294,1709,4.74165,-16.9426
77,-685,4.86304,17.0887,-0.00700762,-0.00944614,0.00274035,-0.00522752,-0.0112262,0.576084,0.00648656,0.0428737,1301,1709,4.8631,-17.0887
84,-685,4.4668,16.9214,-0.00832525,-0.00278315,0.0014023,-0.00244853,-0.00865986,1.33656,0.0051547,0.0440525,1308,1709,4.46681,-16.9213
91,-685,4.65039,16.7303,-0.00846092,0.00254145,0.00100793,0.00263303,-0.0085525,1.48019,0.00675268,0.044128,1315,1709,4.65041,-16.7303
98,-685,4.9917,16.973,-0.00746179,0.00778438,0.000288149,0.00778982,-0.00746723,1.55191,0.00880932,0.0395615,1322,1709,4.99173,-16.973
105,-685,4.87146,16.6405,-0.00514766,0.0159939,-0.00171209,0.0161316,-0.00528541,-1.49051,0.0128828,0.0424421,1329,1709,4.8714,-16.6405
112,-685,4.85376,16.5681,-0.00233001,0.0211924,-0.00375202,0.0217763,-0.002914,-1.41639,0.01558,0.0424821,1336,1709,4.85373,-16.5681
119,-685,5.20959,16.8168,-8.70832e-05,0.0269945,-0.00564685,0.0281248,-0.00121735,-1.37325,0.0191685,0.0393844,1343,1709,5.20965,-16.8168
126,-685,5.25378,16.8263,0.00158829,0.0324143,-0.00791808,0.0343292,-0.000326626,-1.33351,0.0229958,0.0413527,1350,1709,5.25381,-16.8263
133,-685,5.08252,16.7134,0.0025136,0.0383516,-0.0103542,0.041128,-0.000262795,-1.30882,0.0275067,0.0471074,1357,1709,5.08258,-16.7134
140,-685,4.98657,16.8525,0.00285919,0.043978,-0.0128836,0.0476813,-0.000844071,-1.2909,0.0320726,0.047018,1364,1709,4.98655,-16.8525
147,-685,4.92896,17.0095,0,0,0,0,0,0,0,-1,1371,1709,4.92896,-17.0096
154,-685,5.20923,17.011,0,0,0,0,0,0,0,-1,1378,1709,5.20925,-17.011
161,-685,5.5022,16.9163,0,0,0,0,0,0,0,-1,1385,1709,5.50217,-16.9162
168,-685,4.37524,10.8778,0,0,0,0,0,0,0,-1,1392,1709,4.37525,-10.8778
175,-685,3.97522,8.94324,0,0,0,0,0,0,0,-1,1399,1709,3.97519,-8.94328
182,-685,3.98218,9.19739,0,0,0,0,0,0,0,-1,1406,1709,3.98221,-9.1974
189,-685,4.53479,15.2343,0,0,0,0,0,0,0,-1,1413,1709,4.53474,-15.2343
196,-685,5.23511,16.8662,0,0,0,0,0,0,0,-1,1420,1709,5.23513,-16.8662
203,-685,5.22998,16.6732,0,0,0,0,0,0,0,-1,1427,1709,5.23004,-16.6732
210,-685,5.28796,16.8102,0.00163109,0.00412608,-0.000443709,0.00420264,0.00155453,-1.39993,0.00245363,0.0397403,1434,1709,5.28791,-16.8102
217,-685,5.31384,16.4926,0.00103631,0.00353635,-0.000504524,0.00363432,0.000938332,-1.37899,0.00217854,0.0241024,1441,1709,5.3138,-16.4925
224,-685,5.25513,16.3723,0.000780073,0.00265069,-0.000161821,0.00266459,0.000766178,-1.48514,0.00158402,0.0162564,1448,1709,5.25516,-16.3723
231,-685,5.30017,16.2832,0.000773092,0.00139519,5.18706e-05,0.00139949,0.000768797,1.48818,0.000809306,0.016767,1455,1709,5.30015,-16.2832
238,-685,5.31079,16.2018,0.000960816,0.000321968,0.000257651,0.00105178,0.000231007,0.33938,0.000638272,0.020126,1462,1709,5.31073,-16.2018
245,-685,5.29919,16.1422,0.00109898,-0.000654281,0.000472213,0.00121808,-0.000773375,0.247051,0.00115928,0.0213592,1469,1709,5.29925,-16.1422
252,-685,5.32397,16.0902,0.00108347,-0.00158061,0.000745504,0.00127789,-0.00177503,0.25512,0.00177038,0.0143208,1476,1709,5.32392,-16.0903
259,-685,5.33667,16.0098,0.00112035,-0.00216259,0.000861355,0.00133262,-0.00237486,0.241624,0.00216852,0.00939166,1483,1709,5.33671,-16.0097
266,-685,5.3457,15.9119,0.00115627,-0.00273877,0.000977018,0.00138761,-0.0029701,0.232492,0.00257063,0.0103915,1490,1709,5.34566,-15.9119
273,-685,5.35669,15.8141,0.00119214,-0.00279962,0.000946514,0.00140521,-0.00301268,0.221411,0.00260634,0.0128266,1497,1709,5.35666,-15.8141
280,-685,5.34668,15.7135,0.0010991,-0.00261008,0.000913469,0.00131186,-0.00282284,0.228833,0.00243973,0.0150973,1504,1709,5.3467,-15.7135
287,-685,5.36523,15.6033,0.00098494,-0.00230476,0.000934439,0.00123184,-0.00255166,0.258316,0.00222826,0.0125065,1511,1709,5.36528,-15.6033
294,-685,5.36646,15.4911,0.00101895,-0.00220268,0.000932241,0.00126926,-0.002453,0.262319,0.00218497,0.0110656,1518,1709,5.36643,-15.4911
301,-685,5.34839,15.3798,0.000997,-0.00198261,0.000912448,0.00125422,-0.00223983,0.274766,0.00204386,0.012898,1525,1709,5.34841,-15.3797
308,-685,5.36755,15.2566,0.000922944,-0.00176897,0.000926272,0.00121087,-0.0020569,0.301377,0.00190761,0.013503,1532,1709,5.36759,-15.2566
315,-685,5.36694,15.1354,0.000890307,-0.00182356,0.00106319,0.00125722,-0.00219048,0.332307,0.00201469,0.0119946,1539,1709,5.3669,-15.1354
322,-685,5.34546,15.0101,0.00105745,-0.00184606,0.00101245,0.00137562,-0.00216424,0.304489,0.00206057,0.0201896,1546,1709,5.34546,-15.0101
329,-685,5.34155,14.9053,0.00121492,-0.00194143,0.000890317,0.00144873,-0.00217524,0.256819,0.00210627,0.0189287,1553,1709,5.34155,-14.9053
336,-685,5.34802,14.7708,0.00143416,-0.00199128,0.00062316,0.00154401,-0.00210112,0.174476,0.00211269,0.0124229,1560,1709,5.34799,-14.7707
343,-685,5.35156,14.6185,0.00170035,-0.00211613,0.000271379,0.00171955,-0.00213533,0.0706334,0.00222993,0.0114944,1567,1709,5.35153,-14.6186
350,-685,5.36011,14.4957,0.0019916,-0.00228648,-0.000203986,0.00200131,-0.00229619,-0.0475377,0.00248311,0.0119601,1574,1709,5.36007,-14.4958
357,-685,5.36365,14.3688,0.00237577,-0.00215457,-0.000946057,0.0025654,-0.0023442,-0.197816,0.00283551,0.00997679,1581,1709,5.3637,-14.3688
364,-685,5.34143,14.2075,0.00288911,-0.00109364,-0.00209112,0.00378536,-0.00198989,-0.404913,0.00338763,0.00981278,1588,1709,5.34141,-14.2076
371,-685,5.3551,14.0605,0.00355359,0.000110736,-0.00340875,0.00565092,-0.00198659,-0.551577,0.00457556,0.015959,1595,1709,5.3551,-14.0605
378,-685,5.30481,13.9415,0.00436047,0.00177934,-0.0050217,0.00825479,-0.00211498,-0.659621,0.00632713,0.0235134,1602,1709,5.30486,-13.9416
385,-685,5.32849,13.7332,0.00505724,0.00456914,-0.00710912,0.0119265,-0.00230011,-0.76824,0.00881827,0.0383292,1609,1709,5.32854,-13.7331
392,-685,5.53674,13.6071,0.00529224,0.00893721,-0.00950408,0.016792,-0.00256252,-0.880127,0.0121393,0.0418173,1616,1709,5.53678,-13.6071
399,-685,5.40723,13.5859,0,0,0,0,0,0,0,-1,1623,1709,5.40724,-13.5859
406,-685,5.39758,13.0361,0,0,0,0,0,0,0,-1,1630,1709,5.39758,-13.0361
413,-685,5.30554,12.0763,0,0,0,0,0,0,0,-1,1637,1709,5.30554,-12.0762
420,-685,4.84631,10.3781,0,0,0,0,0,0,0,-1,1644,1709,4.84634,-10.378
427,-685,6.05151,9.21155,0,0,0,0,0,0,0,-1,1651,1709,6.05156,-9.21156
434,-685,4.87769,8.91418,0,0,0,0,0,0,0,-1,1658,1709,4.87768,-8.91413
441,-685,5.62,8.75549,0,0,0,0,0,0,0,-1,1665,1709,5.61996,-8.75545
448,-685,6.4043,8.58972,0,0,0,0,0,0,0,-1,1672,1709,6.40435,-8.58971
455,-685,2.31958,4.09802,0,0,0,0,0,0,0,-1,1679,1709,2.31957,-4.09803
462,-685,0,0,0,0,0,0,0,0,0,-1,1686,1709,0,0
469,-685,0,0,0,0,0,0,0,0,0,-1,1693,1709,0,0
476,-685,0,0,0,0,0,0,0,0,0,-1,1700,1709,0,0
483,-685,0,0,0,0,0,0,0,0,0,-1,1707,1709,0,0
490,-685,0,0,0,0,0,0,0,0,0,-1,1714,1709,0,0
497,-685,0,0,0,0,0,0,0,0,0,-1,1721,1709,0,0
504,-685,0,0,0,0,0,0,0,0,0,-1,1728,1709,0,0
511,-685,0,0,0,0,0,0,0,0,0,-1,1735,1709,0,0
518,-685,0,0,0,0,0,0,0,0,0,-1,1742,1709,0,0
525,-685,0,0,0,0,0,0,0,0,0,-1,1749,1709,0,0
532,-685,0,0,0,0,0,0,0,0,0,-1,1756,1709,0,0
539,-685,0,0,0,0,0,0,0,0,0,-1,1763,1709,0,0
546,-685,0,0,0,0,0,0,0,0,0,-1,1770,1709,0,0
553,-685,0,0,0,0,0,0,0,0,0,-1,1777,1709,0,0
560,-685,0,0,0,0,0,0,0,0,0,-1,1784,1709,0,0
567,-685,0,0,0,0,0,0,0,0,0,-1,1791,1709,0,0
574,-685,0,0,0,0,0,0,0,0,0,-1,1798,1709,0,0
581,-685,0,0,0,0,0,0,0,0,0,-1,1805,1709,0,0
588,-685,0,0,0,0,0,0,0,0,0,-1,1812,1709,0,0
595,-685,0,0,0,0,0,0,0,0,0,-1,1819,1709,0,0
602,-685,0,0,0,0,0,0,0,0,0,-1,1826,1709,0,0
609,-685,0,0,0,0,0,0,0,0,0,-1,1833,1709,0,0
616,-685,0,0,0,0,0,0,0,0,0,-1,1840,1709,0,0
623,-685,0,0,0,0,0,0,0,0,0,-1,1847,1709,0,0
630,-685,0,0,0,0,0,0,0,0,0,-1,1854,1709,0,0
637,-685,0,0,0,0,0,0,0,0,0,-1,1861,1709,0,0
644,-685,0,0,0,0,0,0,0,0,0,-1,1868,1709,0,0
651,-685,0,0,0,0,0,0,0,0,0,-1,1875,1709,0,0
658,-685,0,0,0,0,0,0,0,0,0,-1,1882,1709,0,0
665,-685,0,0,0,0,0,0,0,0,0,-1,1889,1709,0,0
672,-685,0,0,0,0,0,0,0,0,0,-1,1896,1709,0,0
679,-685,0,0,0,0,0,0,0,0,0,-1,1903,1709,0,0
686,-685,0,0,0,0,0,0,0,0,0,-1,1910,1709,0,0
693,-685,0,0,0,0,0,0,0,0,0,-1,1917,1709,0,0
700,-685,0,0,0,0,0,0,0,0,0,-1,1924,1709,0,0
707,-685,0,0,0,0,0,0,0,0,0,-1,1931,1709,0,0
714,-685,0,0,0,0,0,0,0,0,0,-1,1938,1709,0,0
721,-685,0,0,0,0,0,0,0,0,0,-1,1945,1709,0,0
728,-685,0,0,0,0,0,0,0,0,0,-1,1952,1709,0,0
735,-685,0,0,0,0,0,0,0,0,0,-1,1959,1709,0,0
742,-685,0,0,0,0,0,0,0,0,0,-1,1966,1709,0,0
749,-685,0,0,0,0,0,0,0,0,0,-1,1973,1709,0,0
756,-685,0,0,0,0,0,0,0,0,0,-1,1980,1709,0,0
763,-685,0,0,0,0,0,0,0,0,0,-1,1987,1709,0,0
770,-685,0,0,0,0,0,0,0,0,0,-1,1994,1709,0,0
777,-685,0,0,0,0,0,0,0,0,0,-1,2001,1709,0,0
784,-685,0,0,0,0,0,0,0,0,0,-1,2008,1709,0,0
791,-685,0,0,0,0,0,0,0,0,0,-1,2015,1709,0,0
798,-685,0,0,0,0,0,0,0,0,0,-1,2022,1709,0,0
805,-685,0,0,0,0,0,0,0,0,0,-1,2029,1709,0,0
812,-685,0,0,0,0,0,0,0,0,0,-1,2036,1709,0,0
-700,-692,0,0,0,0,0,0,0,0,0,-1,524,1716,0,0
-693,-692,0,0,0,0,0,0,0,0,0,-1,531,1716,0,0
-686,-692,0,0,0,0,0,0,0,0,0,-1,538,1716,0,0
-679,-692,0,0,0,0,0,0,0,0,0,-1,545,1716,0,0
-672,-692,0,0,0,0,0,0,0,0,0,-1,552,1716,0,0
-665,-692,0,0,0,0,0,0,0,0,0,-1,559,1716,0,0
-658,-692,0,0,0,0,0,0,0,0,0,-1,566,1716,0,0
-651,-692,0,0,0,0,0,0,0,0,0,-1,573,1716,0,0
-644,-692,0,0,0,0,0,0,0,0,0,-1,580,1716,0,0
-637,-692,0,0,0,0,0,0,0,0,0,-1,587,1716,0,0
-630,-692,0,0,0,0,0,0,0,0,0,-1,594,1716,0,0
-623,-692,0,0,0,0,0,0,0,0,0,-1,601,1716,0,0
-616,-692,0,0,0,0,0,0,0,0,0,-1,608,1716,0,0
-609,-692,0,0,0,0,0,0,0,0,0,-1,615,1716,0,0
-602,-692,0,0,0,0,0,0,0,0,0,-1,622,1716,0,0
-595,-692,0,0,0,0,0,0,0,0,0,-1,629,1716,0,0
-588,-692,0,0,0,0,0,0,0,0,0,-1,636,1716,0,0
-581,-692,0,0,0,0,0,0,0,0,0,-1,643,1716,0,0
-574,-692,0,0,0,0,0,0,0,0,0,-1,650,1716,0,0
-567,-692,0,0,0,0,0,0,0,0,0,-1,657,1716,0,0
-560,-692,0,0,0,0,0,0,0,0,0,-1,664,1716,0,0
-553,-692,0,0,0,0,0,0,0,0,0,-1,671,1716,0,0
-546,-692,0,0,0,0,0,0,0,0,0,-1,678,1716,0,0
-539,-692,0,0,0,0,0,0,0,0,0,-1,685,1716,0,0
-532,-692,0,0,0,0,0,0,0,0,0,-1,692,1716,0,0
-525,-692,0,0,0,0,0,0,0,0,0,-1,699,1716,0,0
-518,-692,0,0,0,0,0,0,0,0,0,-1,706,1716,0,0
-511,-692,0,0,0,0,0,0,0,0,0,-1,713,1716,0,0
-504,-692,0,0,0,0,0,0,0,0,0,-1,720,1716,0,0
-497,-692,0,0,0,0,0,0,0,0,0,-1,727,1716,0,0
-490,-692,0,0,0,0,0,0,0,0,0,-1,734,1716,0,0
-483,-692,0,0,0,0,0,0,0,0,0,-1,741,1716,0,0
-476,-692,0,0,0,0,0,0,0,0,0,-1,748,1716,0,0
-469,-692,0,0,0,0,0,0,0,0,0,-1,755,1716,0,0
-462,-692,0,0,0,0,0,0,0,0,0,-1,762,1716,0,0
-455,-692,0,0,0,0,0,0,0,0,0,-1,769,1716,0,0
-448,-692,0,0,0,0,0,0,0,0,0,-1,776,1716,0,0
-441,-692,0,0,0,0,0,0,0,0,0,-1,783,1716,0,0
-434,-692,0,0,0,0,0,0,0,0,0,-1,790,1716,0,0
-427,-692,0,0,0,0,0,0,0,0,0,-1,797,1716,0,0
-420,-692,0,0,0,0,0,0,0,0,0,-1,804,1716,0,0
-413,-692,0,0,0,0,0,0,0,0,0,-1,811,1716,0,0
-406,-692,0,0,0,0,0,0,0,0,0,-1,818,1716,0,0
-399,-692,0,0,0,0,0,0,0,0,0,-1,825,1716,0,0
-392,-692,0,0,0,0,0,0,0,0,0,-1,832,1716,0,0
-385,-692,0,0,0,0,0,0,0,0,0,-1,839,1716,0,0
-378,-692,0,0,0,0,0,0,0,0,0,-1,846,1716,0,0
-371,-692,0,0,0,0,0,0,0,0,0,-1,853,1716,0,0
-364,-692,0,0,0,0,0,0,0,0,0,-1,860,1716,0,0
-357,-692,0,0,0,0,0,0,0,0,0,-1,867,1716,0,0
-350,-692,0,0,0,0,0,0,0,0,0,-1,874,1716,0,0
-343,-692,0,0,0,0,0,0,0,0,0,-1,881,1716,0,0
-336,-692,0,0,0,0,0,0,0,0,0,-1,888,1716,0,0
-329,-692,3.12396,3.50745,0,0,0,0,0,0,0,-1,895,1716,3.12398,-3.50748
-322,-692,3.67346,17.0139,0,0,0,0,0,0,0,-1,902,1716,3.67349,-17.0139
-315,-692,3.98718,15.2626,0,0,0,0,0,0,0,-1,909,1716,3.98716,-15.2626
-308,-692,4.28339,13.5061,0,0,0,0,0,0,0,-1,916,1716,4.2834,-13.5061
-301,-692,1.8653,11.0195,0,0,0,0,0,0,0,-1,923,1716,1.86532,-11.0195
-294,-692,5.69696,10.3323,0,0,0,0,0,0,0,-1,930,1716,5.69695,-10.3323
-287,-692,5.33569,12.6931,0,0,0,0,0,0,0,-1,937,1716,5.3357,-12.6931
-280,-692,5.79248,12.1956,0,0,0,0,0,0,0,-1,944,1716,5.79249,-12.1956
-273,-692,5.40381,13.1017,0,0,0,0,0,0,0,-1,951,1716,5.40383,-13.1017
-266,-692,4.94934,13.061,0,0,0,0,0,0,0,-1,958,1716,4.94933,-13.061
-259,-692,4.44812,12.8733,0,0,0,0,0,0,0,-1,965,1716,4.44814,-12.8733
-252,-692,4.80597,13.1221,0,0,0,0,0,0,0,-1,972,1716,4.80596,-13.1221
-245,-692,4.59863,13.2152,-0.00368029,0.0043418,-0.0037061,0.00579185,-0.00513034,-1.19784,0.00630979,0.0471675,979,1716,4.59866,-13.2152
-238,-692,4.56964,13.3271,-0.00268264,0.00438204,-0.00249696,0.00517547,-0.00347606,-1.26313,0.00502698,0.043128,986,1716,4.56964,-13.3271
-231,-692,4.52734,13.4535,-0.00237486,0.00446805,-0.00187233,0.00494685,-0.00285366,-1.32044,0.00455736,0.0330576,993,1716,4.52736,-13.4535
-224,-692,4.45697,13.6317,-0.00176106,0.00483067,-0.00126384,0.00506468,-0.00199507,-1.38771,0.00420242,0.0162824,1000,1716,4.457,-13.6317
-217,-692,4.43896,13.7972,-0.00117874,0.00509754,-0.000926267,0.00523139,-0.00131258,-1.42729,0.00399761,0.011863,1007,1716,4.43899,-13.7972
-210,-692,4.4314,13.9584,-0.000902439,0.00519429,-0.000461719,0.00522906,-0.000937207,-1.49564,0.00383679,0.0128427,1014,1716,4.43139,-13.9584
-203,-692,4.42786,14.1073,-0.000758142,0.00504691,-0.00020407,0.00505408,-0.000765307,-1.5357,0.00365132,0.0138606,1021,1716,4.42788,-14.1073
-196,-692,4.41858,14.2452,-0.00067628,0.00458512,3.6412e-05,0.00458537,-0.000676532,1.56388,0.00330558,0.0158438,1028,1716,4.41858,-14.2452
-189,-692,4.40698,14.3524,-0.000579468,0.00404678,0.000125608,0.00405019,-0.000582876,1.54367,0.00291392,0.00869356,1035,1716,4.40702,-14.3524
-182,-692,4.40259,14.4989,-0.000631062,0.00358185,0.000172581,0.00358891,-0.00063812,1.52992,0.00263123,0.0135627,1042,1716,4.40264,-14.4989
-175,-692,4.39807,14.666,-0.000543652,0.00306382,0.00029685,0.00308808,-0.000567916,1.48924,0.00227181,0.0145701,1049,1716,4.39804,-14.6661
-168,-692,4.41333,14.8096,-0.000357551,0.00252254,0.000317488,0.00255712,-0.000392134,1.4623,0.00184937,0.0111977,1056,1716,4.41337,-14.8095
-161,-692,4.41943,14.9626,-0.000232328,0.00200631,0.000295573,0.00204468,-0.000270696,1.44171,0.00146173,0.0136251,1063,1716,4.41949,-14.9626
-154,-692,4.41248,15.092,0.000133194,0.00143956,0.000298488,0.00150453,6.82246e-05,1.35648,0.00098107,0.0142106,1070,1716,4.41249,-15.092
-147,-692,4.40417,15.1935,0.0006659,0.000922724,0.000237089,0.00106394,0.000524681,1.03359,0.000614287,0.0133845,1077,1716,4.40413,-15.1935
-140,-692,4.4021,15.3051,0.00122767,0.000353471,0.000116515,0.00124293,0.000338208,0.130254,0.000742038,0.010602,1084,1716,4.40214,-15.305
-133,-692,4.40088,15.4109,0.00180764,-0.000290381,7.63014e-05,0.00181041,-0.000293152,0.0363043,0.00131559,0.0092205,1091,1716,4.40087,-15.4108
-126,-692,4.40588,15.5214,0.002473,-0.000982091,0.000143204,0.00247892,-0.000988017,0.0413528,0.00206241,0.00722436,1098,1716,4.40583,-15.5213
-119,-692,4.41125,15.6334,0.00315353,-0.00151016,0.000255058,0.00316744,-0.00152407,0.0544736,0.00276348,0.0109782,1105,1716,4.41121,-15.6335
-112,-692,4.41406,15.7214,0.00372511,-0.00210451,0.000323754,0.00374303,-0.00212243,0.0553094,0.00342924,0.0109139,1112,1716,4.41404,-15.7215
-105,-692,4.4491,15.8136,0.00415703,-0.00265037,0.000441815,0.00418559,-0.00267893,0.0645412,0.00399492,0.0141143,1119,1716,4.44904,-15.8136
-98,-692,4.49744,15.8993,0.00441533,-0.00307873,0.000662613,0.00447347,-0.00313687,0.0875136,0.00441636,0.015391,1126,1716,4.49745,-15.8993
-91,-692,4.48145,15.9808,0.00451333,-0.00327659,0.000904147,0.00461689,-0.00338015,0.114046,0.00463546,0.0179209,1133,1716,4.48146,-15.9808
-84,-692,4.46252,16.0569,0.0046121,-0.00330638,0.00114263,0.00477369,-0.00346797,0.140482,0.00477819,0.0205646,1140,1716,4.46248,-16.0569
-77,-692,4.4729,16.2139,0.00479357,-0.00297068,0.00132125,0.00501225,-0.00318936,0.164023,0.00477403,0.0146713,1147,1716,4.47293,-16.2139
-70,-692,4.49219,16.3275,0.00491684,-0.00269714,0.00148786,0.00519725,-0.00297756,0.186286,0.00477737,0.0185575,1154,1716,4.49224,-16.3275
-63,-692,4.50098,16.3862,0.00739298,0.00240869,-0.00285528,0.00869074,0.00111092,-0.426601,0.00546131,0.0282346,1161,1716,4.50096,-16.3862
-56,-692,4.54187,16.4502,0,0,0,0,0,0,0,-1,1168,1716,4.54189,-16.4502
-49,-692,4.50818,16.5138,0,0,0,0,0,0,0,-1,1175,1716,4.50821,-16.5138
-42,-692,4.48547,16.6925,0,0,0,0,0,0,0,-1,1182,1716,4.48542,-16.6925
-35,-692,4.54443,16.71,0,0,0,0,0,0,0,-1,1189,1716,4.54443,-16.71
-28,-692,4.47522,16.7341,0.0141084,0.0275095,-0.0164011,0.038526,0.00309187,-0.979323,0.0247179,0.0409214,1196,1716,4.47522,-16.7342
-21,-692,4.63745,16.7087,0.0151123,0.0276486,-0.0168873,0.0393935,0.00336737,-0.963105,0.0252149,0.0269605,1203,1716,4.6375,-16.7087
-14,-692,4.6698,16.7109,0.0158408,0.0262592,-0.0167949,0.0386342,0.00346578,-0.935776,0.0246821,0.0149978,1210,1716,4.66981,-16.711
-7,-692,4.65259,16.804,0.016598,0.0243948,-0.0159187,0.0368855,0.00410721,-0.905482,0.023342,0.0139661,1217,1716,4.65261,-16.804
0,-692,4.64722,16.8811,0.0169763,0.0189352,-0.0139329,0.031923,0.00398849,-0.820488,0.020085,0.0168725,1224,1716,4.64718,-16.8811
7,-692,4.68555,16.8912,0.0170147,0.0137812,-0.011677,0.0271863,0.00360958,-0.716607,0.0170489,0.0211776,1231,1716,4.68554,-16.8912
14,-692,4.76489,16.9042,0.0166899,0.00794175,-0.00951083,0.0227843,0.00184738,-0.569868,0.0146127,0.0224471,1238,1716,4.76489,-16.9042
21,-692,4.81763,16.9064,0.0152477,0.00284611,-0.00726806,0.0186007,-0.000506867,-0.432236,0.0125728,0.0245429,1245,1716,4.81766,-16.9063
28,-692,4.78833,16.9364,0.0128672,-0.0019588,-0.005242,0.0145334,-0.00362496,-0.307749,0.0110964,0.0244052,1252,1716,4.78828,-16.9364
35,-692,4.8053,16.9872,0.0101694,-0.00597456,-0.00345887,0.0108793,-0.00668442,-0.202416,0.0102364,0.0227058,1259,1716,4.80524,-16.9872
42,-692,4.86304,17.0398,0.00721335,-0.00971506,-0.00129992,0.00731259,-0.00981429,-0.0761942,0.00992331,0.0212903,1266,1716,4.863,-17.0398
49,-692,4.87134,17.0225,0.0043039,-0.0129805,0.000111002,0.00430461,-0.0129813,0.0064217,0.0103906,0.0259178,1273,1716,4.87129,-17.0225
56,-692,4.77258,17.0311,0.00153579,-0.0142207,0.000979042,0.00159639,-0.0142813,0.0618189,0.0100952,0.0313823,1280,1716,4.77254,-17.0312
63,-692,4.87903,17.0751,-0.000984729,-0.0145703,0.00228788,-0.000609786,-0.0149452,0.162438,0.00976657,0.0296244,1287,1716,4.87907,-17.075
70,-692,4.95337,17.0989,-0.00298204,-0.0133058,0.00347994,-0.00191857,-0.0143693,0.296587,0.00900835,0.025529,1294,1716,4.95336,-17.0989
77,-692,4.9176,17.1241,-0.00448479,-0.0100526,0.00322558,-0.00300788,-0.0115295,0.429383,0.00690562,0.0286155,1301,1716,4.91766,-17.1241
84,-692,4.84448,17.0472,-0.00539525,-0.00615101,0.0027035,-0.00304335,-0.00850291,0.715962,0.00497479,0.0353544,1308,1716,4.84446,-17.0473
91,-692,4.92908,17.0629,-0.00540279,-0.00331579,0.00291032,-0.00126755,-0.00745102,0.957535,0.00460337,0.0320325,1315,1716,4.92902,-17.0629
98,-692,4.98145,17.0923,-0.00473911,-0.0006051,0.00301299,0.000981749,-0.00632596,1.08604,0.00457976,0.0259479,1322,1716,4.98147,-17.0923
105,-692,4.96021,17.0404,-0.00315034,0.00412652,0.00223102,0.00475607,-0.00377989,1.29577,0.00493897,0.0350042,1329,1716,4.96019,-17.0404
112,-692,4.91394,16.9349,-0.00120637,0.00679174,0.00140727,0.00703212,-0.00144675,1.40161,0.00523737,0.0374206,1336,1716,4.91397,-16.935
119,-692,4.93945,16.9749,0.000299386,0.00983722,0.000674057,0.00988462,0.000251984,1.50059,0.00650738,0.0304072,1343,1716,4.93947,-16.9749
126,-692,4.97803,16.9862,0.00156256,0.0124751,-0.000317734,0.0124844,0.00155332,-1.54171,0.00785648,0.0289158,1350,1716,4.97802,-16.9862
133,-692,5.04492,16.9468,0.0022638,0.0155412,-0.00140721,0.0156887,0.0021163,-1.46636,0.00982995,0.0218159,1357,1716,5.04494,-16.9467
140,-692,5.02954,16.9514,0.0023784,0.0183683,-0.00258635,0.0187762,0.00197047,-1.41436,0.0119151,0.0259191,1364,1716,5.02958,-16.9514
147,-692,5.07874,17.0319,0.00213548,0.0201929,-0.0035737,0.0208744,0.00145394,-1.38235,0.0134578,0.0296144,1371,1716,5.07874,-17.0318
154,-692,5.09863,16.9867,0.00177568,0.0209012,-0.00396943,0.0216923,0.000984561,-1.37407,0.0141448,0.0267614,1378,1716,5.09861,-16.9867
161,-692,5.276,16.9323,0.00149285,0.0204622,-0.00373683,0.0211718,0.000783269,-1.38314,0.0138608,0.0402432,1385,1716,5.27606,-16.9323
168,-692,5.13721,16.9222,0,0,0,0,0,0,0,-1,1392,1716,5.13719,-16.9223
175,-692,5.18738,16.8477,0,0,0,0,0,0,0,-1,1399,1716,5.18743,-16.8476
182,-692,5.16614,16.7803,0,0,0,0,0,0,0,-1,1406,1716,5.16618,-16.7803
189,-692,5.18823,16.8076,0,0,0,0,0,0,0,-1,1413,1716,5.18825,-16.8076
196,-692,5.15295,16.7014,0.00280085,0.00585043,-0.000905218,0.00609888,0.00255239,-1.30292,0.00353675,0.0263036,1420,1716,5.153,-16.7015
203,-692,5.16943,16.6412,0.00202938,0.00315982,-0.000164164,0.00318318,0.00200602,-1.42946,0.00185846,0.0175917,1427,1716,5.16944,-16.6412
210,-692,5.20044,16.5791,0.00157357,0.00299205,-0.000216562,0.00302438,0.00154124,-1.42262,0.00174623,0.0171093,1434,1716,5.20047,-16.5791
217,-692,5.18323,16.4875,0.00117359,0.00259932,-0.000318336,0.00266717,0.00110574,-1.3608,0.00154736,0.0165512,1441,1716,5.18327,-16.4875
224,-692,5.19043,16.4229,0.000985822,0.00202212,-0.000156145,0.00204513,0.000962806,-1.42445,0.00118143,0.0128896,1448,1716,5.19047,-16.4229
231,-692,5.21619,16.3335,0.000901953,0.00123566,-6.30351e-05,0.00124717,0.000890443,-1.39019,0.000741708,0.0112923,1455,1716,5.21623,-16.3335
238,-692,5.23206,16.1724,0.000924998,0.000542467,4.48353e-05,0.000930183,0.000537282,0.115128,0.000539193,0.0175821,1462,1716,5.23208,-16.1724
245,-692,5.20215,16.1055,0.00092706,-9.38826e-05,0.000158389,0.000951068,-0.000117891,0.150431,0.000676774,0.0207901,1469,1716,5.20212,-16.1055
252,-692,5.20398,16.0924,0.000851184,-0.000678797,0.000303076,0.000909033,-0.000736646,0.188606,0.000951869,0.0174985,1476,1716,5.20392,-16.0924
259,-692,5.23035,16.0043,0.000829797,-0.00104456,0.000371515,0.000900749,-0.00111551,0.188708,0.00116629,0.00927305,1483,1716,5.2303,-16.0042
266,-692,5.22913,15.9097,0.000794136,-0.00142357,0.000447471,0.000881019,-0.00151045,0.191779,0.00139657,0.00941106,1490,1716,5.2291,-15.9097
273,-692,5.23352,15.8081,0.000715244,-0.00138191,0.000441414,0.000804367,-0.00147103,0.199224,0.00133236,0.0131582,1497,1716,5.23347,-15.8082
280,-692,5.25232,15.6995,0.000566356,-0.00112028,0.000455081,0.00068131,-0.00123523,0.247424,0.00112181,0.0123709,1504,1716,5.25232,-15.6994
287,-692,5.25977,15.6008,0.000510776,-0.00087566,0.000592027,0.000729176,-0.00109406,0.353414,0.00105965,0.0105521,1511,1716,5.25971,-15.6008
294,-692,5.255,15.5034,0.000706492,-0.000989099,0.000675086,0.000942439,-0.00122505,0.336235,0.00125494,0.0105771,1518,1716,5.25499,-15.5035
301,-692,5.26001,15.3999,0.000784679,-0.000981971,0.000733145,0.00104929,-0.00124659,0.346379,0.00132716,0.0133032,1525,1716,5.25998,-15.3999
308,-692,5.25623,15.2853,0.000747123,-0.00102208,0.00085855,0.00109525,-0.00137021,0.385227,0.00142638,0.0162354,1532,1716,5.25618,-15.2852
315,-692,5.2594,15.15,0.000757332,-0.00141663,0.00116739,0.00126545,-0.00192475,0.410526,0.00185493,0.0151455,1539,1716,5.25943,-15.1501
322,-692,5.20935,14.9896,0.00106504,-0.00175624,0.00121837,0.00151836,-0.00220956,0.356198,0.00216461,0.0201953,1546,1716,5.20931,-14.9896
329,-692,5.20227,14.8726,0.00134811,-0.00218935,0.00120276,0.00171832,-0.00255956,0.298592,0.0024857,0.0176979,1553,1716,5.20232,-14.8725
336,-692,5.21912,14.7527,0.00172768,-0.00259299,0.000984655,0.0019415,-0.00280681,0.213828,0.00275657,0.0116182,1560,1716,5.21918,-14.7527
343,-692,5.25574,14.6235,0.00216752,-0.00305207,0.000667943,0.00225164,-0.00313619,0.125279,0.00312461,0.0121308,1567,1716,5.25575,-14.6235
350,-692,5.25964,14.4969,0.00261493,-0.00353096,0.000203948,0.00262169,-0.00353773,0.0331358,0.00356923,0.0128146,1574,1716,5.25965,-14.497
357,-692,5.24963,14.3779,0.00314475,-0.00364593,-0.000585694,0.00319489,-0.00369607,-0.0854092,0.00398201,0.0161975,1581,1716,5.24961,-14.3779
364,-692,5.23315,14.2146,0.00382119,-0.00259817,-0.00191488,0.004349,-0.00312597,-0.268956,0.00433489,0.023281,1588,1716,5.23316,-14.2146
371,-692,5.34558,14.0559,0.00469128,-0.00126373,-0.0035132,0.006319,-0.00289145,-0.433872,0.00543901,0.0343045,1595,1716,5.34555,-14.0558
378,-692,5.38843,13.8845,0.00568951,0.000719258,-0.00554887,0.00928434,-0.00287557,-0.574861,0.00733835,0.0434826,1602,1716,5.38839,-13.8845
385,-692,5.46484,13.5955,0.00655939,0.00405994,-0.0082004,0.0136047,-0.00298542,-0.709781,0.0102115,0.0485958,1609,1716,5.46486,-13.5955
392,-692,5.64038,13.1515,0,0,0,0,0,0,0,-1,1616,1716,5.64041,-13.1515
399,-692,5.2627,10.4279,0,0,0,0,0,0,0,-1,1623,1716,5.26267,-10.4278
406,-692,4.73633,10.6808,0,0,0,0,0,0,0,-1,1630,1716,4.73637,-10.6808
413,-692,4.25085,10.5685,0,0,0,0,0,0,0,-1,1637,1716,4.2508,-10.5685
420,-692,5.48901,10.4845,0,0,0,0,0,0,0,-1,1644,1716,5.48906,-10.4845
427,-692,3.79578,8.60339,0,0,0,0,0,0,0,-1,1651,1716,3.79577,-8.6034
434,-692,4.78516,8.64636,0,0,0,0,0,0,0,-1,1658,1716,4.78512,-8.64634
441,-692,5.8208,8.74036,0,0,0,0,0,0,0,-1,1665,1716,5.82084,-8.7404
448,-692,6.73792,8.51013,0,0,0,0,0,0,0,-1,1672,1716,6.73793,-8.5101
455,-692,0,0,0,0,0,0,0,0,0,-1,1679,1716,0,0
462,-692,0,0,0,0,0,0,0,0,0,-1,1686,1716,0,0
469,-692,0,0,0,0,0,0,0,0,0,-1,1693,1716,0,0
476,-692,0,0,0,0,0,0,0,0,0,-1,1700,1716,0,0
483,-692,0,0,0,0,0,0,0,0,0,-1,1707,1716,0,0
490,-692,0,0,0,0,0,0,0,0,0,-1,1714,1716,0,0
497,-692,0,0,0,0,0,0,0,0,0,-1,1721,1716,0,0
504,-692,0,0,0,0,0,0,0,0,0,-1,1728,1716,0,0
511,-692,0,0,0,0,0,0,0,0,0,-1,1735,1716,0,0
518,-692,0,0,0,0,0,0,0,0,0,-1,1742,1716,0,0
525,-692,0,0,0,0,0,0,0,0,0,-1,1749,1716,0,0
532,-692,0,0,0,0,0,0,0,0,0,-1,1756,1716,0,0
539,-692,0,0,0,0,0,0,0,0,0,-1,1763,1716,0,0
546,-692,0,0,0,0,0,0,0,0,0,-1,1770,1716,0,0
553,-692,0,0,0,0,0,0,0,0,0,-1,1777,1716,0,0
560,-692,0,0,0,0,0,0,0,0,0,-1,1784,1716,0,0
567,-692,0,0,0,0,0,0,0,0,0,-1,1791,1716,0,0
574,-692,0,0,0,0,0,0,0,0,0,-1,1798,1716,0,0
581,-692,0,0,0,0,0,0,0,0,0,-1,1805,1716,0,0
588,-692,0,0,0,0,0,0,0,0,0,-1,1812,1716,0,0
595,-692,0,0,0,0,0,0,0,0,0,-1,1819,1716,0,0
602,-692,0,0,0,0,0,0,0,0,0,-1,1826,1716,0,0
609,-692,0,0,0,0,0,0,0,0,0,-1,1833,1716,0,0
616,-692,0,0,0,0,0,0,0,0,0,-1,1840,1716,0,0
623,-692,0,0,0,0,0,0,0,0,0,-1,1847,1716,0,0
630,-692,0,0,0,0,0,0,0,0,0,-1,1854,1716,0,0
637,-692,0,0,0,0,0,0,0,0,0,-1,1861,1716,0,0
644,-692,0,0,0,0,0,0,0,0,0,-1,1868,1716,0,0
651,-692,0,0,0,0,0,0,0,0,0,-1,1875,1716,0,0
658,-692,0,0,0,0,0,0,0,0,0,-1,1882,1716,0,0
665,-692,0,0,0,0,0,0,0,0,0,-1,1889,1716,0,0
672,-692,0,0,0,0,0,0,0,0,0,-1,1896,1716,0,0
679,-692,0,0,0,0,0,0,0,0,0,-1,1903,1716,0,0
686,-692,0,0,0,0,0,0,0,0,0,-1,1910,1716,0,0
693,-692,0,0,0,0,0,0,0,0,0,-1,1917,1716,0,0
700,-692,0,0,0,0,0,0,0,0,0,-1,1924,1716,0,0
707,-692,0,0,0,0,0,0,0,0,0,-1,1931,1716,0,0
714,-692,0,0,0,0,0,0,0,0,0,-1,1938,1716,0,0
721,-692,0,0,0,0,0,0,0,0,0,-1,1945,1716,0,0
728,-692,0,0,0,0,0,0,0,0,0,-1,1952,1716,0,0
735,-692,0,0,0,0,0,0,0,0,0,-1,1959,1716,0,0
742,-692,0,0,0,0,0,0,0,0,0,-1,1966,1716,0,0
749,-692,0,0,0,0,0,0,0,0,0,-1,1973,1716,0,0
756,-692,0,0,0,0,0,0,0,0,0,-1,1980,1716,0,0
763,-692,0,0,0,0,0,0,0,0,0,-1,1987,1716,0,0
770,-692,0,0,0,0,0,0,0,0,0,-1,1994,1716,0,0
777,-692,0,0,0,0,0,0,0,0,0,-1,2001,1716,0,0
784,-692,0,0,0,0,0,0,0,0,0,-1,2008,1716,0,0
791,-692,0,0,0,0,0,0,0,0,0,-1,2015,1716,0,0
798,-692,0,0,0,0,0,0,0,0,0,-1,2022,1716,0,0
805,-692,0,0,0,0,0,0,0,0,0,-1,2029,1716,0,0
812,-692,0,0,0,0,0,0,0,0,0,-1,2036,1716,0,0
-700,-699,0,0,0,0,0,0,0,0,0,-1,524,1723,0,0
-693,-699,0,0,0,0,0,0,0,0,0,-1,531,1723,0,0
-686,-699,0,0,0,0,0,0,0,0,0,-1,538,1723,0,0
-679,-699,0,0,0,0,0,0,0,0,0,-1,545,1723,0,0
-672,-699,0,0,0,0,0,0,0,0,0,-1,552,1723,0,0
-665,-699,0,0,0,0,0,0,0,0,0,-1,559,1723,0,0
-658,-699,0,0,0,0,0,0,0,0,0,-1,566,1723,0,0
-651,-699,0,0,0,0,0,0,0,0,0,-1,573,1723,0,0
-644,-699,0,0,0,0,0,0,0,0,0,-1,580,1723,0,0
-637,-699,0,0,0,0,0,0,0,0,0,-1,587,1723,0,0
-630,-699,0,0,0,0,0,0,0,0,0,-1,594,1723,0,0
-623,-699,0,0,0,0,0,0,0,0,0,-1,601,1723,0,0
-616,-699,0,0,0,0,0,0,0,0,0,-1,608,1723,0,0
-609,-699,0,0,0,0,0,0,0,0,0,-1,615,1723,0,0
-602,-699,0,0,0,0,0,0,0,0,0,-1,622,1723,0,0
-595,-699,0,0,0,0,0,0,0,0,0,-1,629,1723,0,0
-588,-699,0,0,0,0,0,0,0,0,0,-1,636,1723,0,0
-581,-699,0,0,0,0,0,0,0,0,0,-1,643,1723,0,0
-574,-699,0,0,0,0,0,0,0,0,0,-1,650,1723,0,0
-567,-699,0,0,0,0,0,0,0,0,0,-1,657,1723,0,0
-560,-699,0,0,0,0,0,0,0,0,0,-1,664,1723,0,0
-553,-699,0,0,0,0,0,0,0,0,0,-1,671,1723,0,0
-546,-699,0,0,0,0,0,0,0,0,0,-1,678,1723,0,0
-539,-699,0,0,0,0,0,0,0,0,0,-1,685,1723,0,0
-532,-699,0,0,0,0,0,0,0,0,0,-1,692,1723,0,0
-525,-699,0,0,0,0,0,0,0,0,0,-1,699,1723,0,0
-518,-699,0,0,0,0,0,0,0,0,0,-1,706,1723,0,0
-511,-699,0,0,0,0,0,0,0,0,0,-1,713,1723,0,0
-504,-699,0,0,0,0,0,0,0,0,0,-1,720,1723,0,0
-497,-699,0,0,0,0,0,0,0,0,0,-1,727,1723,0,0
-490,-699,0,0,0,0,0,0,0,0,0,-1,734,1723,0,0
-483,-699,0,0,0,0,0,0,0,0,0,-1,741,1723,0,0
-476,-699,0,0,0,0,0,0,0,0,0,-1,748,1723,0,0
-469,-699,0,0,0,0,0,0,0,0,0,-1,755,1723,0,0
-462,-699,0,0,0,0,0,0,0,0,0,-1,762,1723,0,0
-455,-699,0,0,0,0,0,0,0,0,0,-1,769,1723,0,0
-448,-699,0,0,0,0,0,0,0,0,0,-1,776,1723,0,0
-441,-699,0,0,0,0,0,0,0,0,0,-1,783,1723,0,0
-434,-699,0,0,0,0,0,0,0,0,0,-1,790,1723,0,0
-427,-699,0,0,0,0,0,0,0,0,0,-1,797,1723,0,0
-420,-699,0,0,0,0,0,0,0,0,0,-1,804,1723,0,0
-413,-699,0,0,0,0,0,0,0,0,0,-1,811,1723,0,0
-406,-699,0,0,0,0,0,0,0,0,0,-1,818,1723,0,0
-399,-699,0,0,0,0,0,0,0,0,0,-1,825,1723,0,0
-392,-699,0,0,0,0,0,0,0,0,0,-1,832,1723,0,0
-385,-699,0,0,0,0,0,0,0,0,0,-1,839,1723,0,0
-378,-699,0,0,0,0,0,0,0,0,0,-1,846,1723,0,0
-371,-699,0,0,0,0,0,0,0,0,0,-1,853,1723,0,0
-364,-699,0,0,0,0,0,0,0,0,0,-1,860,1723,0,0
-357,-699,0,0,0,0,0,0,0,0,0,-1,867,1723,0,0
-350,-699,0,0,0,0,0,0,0,0,0,-1,874,1723,0,0
-343,-699,0,0,0,0,0,0,0,0,0,-1,881,1723,0,0
-336,-699,0,0,0,0,0,0,0,0,0,-1,888,1723,0,0
-329,-699,0,0,0,0,0,0,0,0,0,-1,895,1723,0,0
-322,-699,0,0,0,0,0,0,0,0,0,-1,902,1723,0,0
-315,-699,4.27734,16.1066,0,0,0,0,0,0,0,-1,909,1723,4.27737,-16.1066
-308,-699,4.55981,14.3354,0,0,0,0,0,0,0,-1,916,1723,4.55981,-14.3355
-301,-699,4.72729,12.8752,0,0,0,0,0,0,0,-1,923,1723,4.72732,-12.8752
-294,-699,6.0799,10.2083,0,0,0,0,0,0,0,-1,930,1723,6.07988,-10.2082
-287,-699,6.73071,9.86426,0,0,0,0,0,0,0,-1,937,1723,6.73071,-9.86422
-280,-699,6.18994,12.3541,0,0,0,0,0,0,0,-1,944,1723,6.18996,-12.3541
-273,-699,6.44318,11.4219,0,0,0,0,0,0,0,-1,951,1723,6.44318,-11.4219
-266,-699,5.90204,13.2173,0,0,0,0,0,0,0,-1,958,1723,5.90207,-13.2173
-259,-699,5.67737,10.8545,0,0,0,0,0,0,0,-1,965,1723,5.67736,-10.8545
-252,-699,5.83777,10.5712,0,0,0,0,0,0,0,-1,972,1723,5.83777,-10.5712
-245,-699,4.90027,13.2582,0,0,0,0,0,0,0,-1,979,1723,4.90026,-13.2582
-238,-699,4.88617,13.3701,0,0,0,0,0,0,0,-1,986,1723,4.88617,-13.3701
-231,-699,4.65546,13.4143,-0.00277592,0.00646142,-0.00251784,0.00710313,-0.00341763,-1.32124,0.00619715,0.0442204,993,1723,4.65546,-13.4143
-224,-699,4.61395,13.4487,-0.00201537,0.00682684,-0.00173924,0.00715665,-0.00234518,-1.3834,0.00571552,0.0356194,1000,1723,4.61394,-13.4487
-217,-699,4.60022,13.697,-0.00181063,0.00649394,-0.00126149,0.00668134,-0.00199802,-1.42332,0.00524857,0.0251463,1007,1723,4.60024,-13.697
-210,-699,4.59961,13.944,-0.00199773,0.00609441,-0.000653336,0.00614682,-0.00205014,-1.49075,0.00492559,0.0181802,1014,1723,4.5996,-13.9439
-203,-699,4.60925,14.0675,-0.00209421,0.00573941,-0.000309978,0.00575166,-0.00210645,-1.53131,0.00469677,0.0210584,1021,1723,4.60921,-14.0675
-196,-699,4.57898,14.2001,-0.00223227,0.00501016,-6.92482e-06,0.00501016,-0.00223228,-1.56984,0.00428272,0.0172384,1028,1723,4.57896,-14.2001
-189,-699,4.54089,14.3662,-0.00228864,0.0042592,0.000102941,0.00426082,-0.00229025,1.55508,0.00383888,0.00911145,1035,1723,4.54084,-14.3662
-182,-699,4.52881,14.5115,-0.00248318,0.00376447,0.000222287,0.00377237,-0.00249108,1.53528,0.00364134,0.0124147,1042,1723,4.52884,-14.5114
-175,-699,4.54053,14.6841,-0.00247644,0.00328862,0.000499152,0.00333152,-0.00251934,1.48506,0.00338883,0.0147345,1049,1723,4.54056,-14.6841
-168,-699,4.56189,14.8094,-0.00229132,0.00284163,0.000583809,0.00290719,-0.00235688,1.45896,0.00304475,0.016203,1056,1723,4.56194,-14.8095
-161,-699,4.55798,14.9327,-0.00210963,0.0024158,0.000551831,0.00248212,-0.00217594,1.45119,0.00269127,0.0136495,1063,1723,4.55796,-14.9327
-154,-699,4.53601,15.0801,-0.00163137,0.001968,0.000573642,0.00205721,-0.00172058,1.41651,0.002184,0.0129026,1070,1723,4.53599,-15.0801
-147,-699,4.52209,15.1885,-0.000939896,0.00165225,0.000548309,0.00176346,-0.00105111,1.37069,0.00164225,0.0143197,1077,1723,4.52213,-15.1885
-140,-699,4.52307,15.2946,-0.000253568,0.00125687,0.000438976,0.00137518,-0.000371879,1.30753,0.00106266,0.0100104,1084,1723,4.52309,-15.2945
-133,-699,4.54175,15.4185,0.00039588,0.000802383,0.000401233,0.00104891,0.000149354,1.01984,0.000655187,0.00874827,1091,1723,4.54179,-15.4185
-126,-699,4.55334,15.5168,0.00112416,0.000267519,0.000457234,0.00132236,6.93247e-05,0.409018,0.000859395,0.010308,1098,1723,4.5534,-15.5168
-119,-699,4.55493,15.6316,0.0018214,-0.000173436,0.000532487,0.00195464,-0.000306675,0.245186,0.00141643,0.0153613,1105,1723,4.55493,-15.6316
-112,-699,4.52283,15.7418,0.00240935,-0.00064812,0.000547084,0.00250429,-0.000743064,0.171833,0.00196463,0.011538,1112,1723,4.52281,-15.7419
-105,-699,4.5365,15.8433,0.00278026,-0.00115292,0.000577677,0.00286335,-0.00123601,0.142854,0.00242814,0.0118557,1119,1723,4.53651,-15.8433
-98,-699,4.57739,15.9197,0.00293913,-0.00159335,0.000700845,0.00304503,-0.00169924,0.149963,0.0027756,0.0134134,1126,1723,4.5774,-15.9197
-91,-699,4.59387,15.9977,0.00299512,-0.00176649,0.000839109,0.00313867,-0.00191003,0.169427,0.0029435,0.0185921,1133,1723,4.59383,-15.9977
-84,-699,4.57153,16.1016,0.00303576,-0.00178775,0.000996539,0.00323354,-0.00198552,0.195917,0.00304181,0.0233062,1140,1723,4.57147,-16.1015
-77,-699,4.56213,16.1956,0.00317086,-0.00159931,0.00108377,0.00340555,-0.001834,0.213251,0.00307007,0.0166263,1147,1723,4.56219,-16.1956
-70,-699,4.56506,16.2849,0.00329184,-0.00146361,0.00112424,0.00354423,-0.00171599,0.220834,0.00309753,0.0173383,1154,1723,4.56503,-16.2849
-63,-699,4.5824,16.3693,0.00468377,0.00125839,-0.0013087,0.00512654,0.000815627,-0.326238,0.00318087,0.0140321,1161,1723,4.58237,-16.3692
-56,-699,4.56836,16.4357,0.00602462,0.00561423,-0.0035485,0.00937385,0.002265,-0.756517,0.00564772,0.00988838,1168,1723,4.56833,-16.4356
-49,-699,4.58191,16.524,0.00690712,0.00921522,-0.00540225,0.0135853,0.00253703,-0.890628,0.00834082,0.021417,1175,1723,4.58186,-16.5241
-42,-699,4.57275,16.6255,0.00778828,0.0124716,-0.00705979,0.017568,0.00269194,-0.945535,0.0109258,0.0254131,1182,1723,4.57278,-16.6255
-35,-699,4.58545,16.6605,0.00865404,0.015241,-0.00872217,0.0212708,0.00262424,-0.965921,0.0133917,0.0234866,1189,1723,4.58543,-16.6605
-28,-699,4.64209,16.7234,0.00960146,0.0165863,-0.00957628,0.0232871,0.00290065,-0.960252,0.0146539,0.0175181,1196,1723,4.64211,-16.7234
-21,-699,4.65076,16.7285,0.010444,0.0166287,-0.00987196,0.0238813,0.00319138,-0.937179,0.0149709,0.0123777,1203,1723,4.65071,-16.7285
-14,-699,4.65393,16.7734,0.0111207,0.0156218,-0.0098696,0.0234942,0.00324828,-0.897496,0.0147001,0.0110673,1210,1723,4.6539,-16.7734
-7,-699,4.66821,16.8472,0.011859,0.0140803,-0.00931153,0.0223472,0.00359214,-0.844755,0.0138568,0.00819938,1217,1723,4.66822,-16.8472
0,-699,4.67932,16.9104,0.0122723,0.0100879,-0.00798402,0.0192385,0.00312175,-0.71742,0.0119221,0.0098073,1224,1723,4.67936,-16.9104
7,-699,4.68225,16.9581,0.0123857,0.00628406,-0.00642479,0.0164472,0.00222252,-0.563736,0.0103042,0.0152194,1231,1723,4.68231,-16.9582
14,-699,4.72058,16.986,0.0122337,0.00192265,-0.00488601,0.0141812,-2.48235e-05,-0.379283,0.00946239,0.0161586,1238,1723,4.72064,-16.986
21,-699,4.76367,16.9998,0.0111379,-0.00184849,-0.0032841,0.0119211,-0.00263176,-0.234129,0.00895453,0.016232,1245,1723,4.76363,-16.9998
28,-699,4.77466,17.0192,0.00931969,-0.00539627,-0.00187212,0.00955412,-0.0056307,-0.124573,0.00886397,0.0156492,1252,1723,4.77468,-17.0191
35,-699,4.79431,17.0621,0.0073245,-0.00827853,-0.000695547,0.00735544,-0.00830947,-0.0444602,0.00904973,0.013021,1259,1723,4.79427,-17.0621
42,-699,4.82666,17.0902,0.00517834,-0.0109226,0.000761034,0.00521423,-0.0109585,0.0471265,0.00953161,0.0120677,1266,1723,4.8267,-17.0902
49,-699,4.84253,17.1129,0.00309729,-0.0130786,0.0015986,0.00325376,-0.0132351,0.0975684,0.0100845,0.0149499,1273,1723,4.84251,-17.1129
56,-699,4.86316,17.1421,0.00106721,-0.0138012,0.00206231,0.00134796,-0.0140819,0.135302,0.00986802,0.0151851,1280,1723,4.86311,-17.1421
63,-699,4.8877,17.132,-0.000742225,-0.0138769,0.00289479,-0.000132536,-0.0144866,0.207583,0.00961384,0.0122416,1287,1723,4.88774,-17.1319
70,-699,4.88232,17.116,-0.00208583,-0.0128042,0.00374269,-0.000908308,-0.0139817,0.304815,0.00903363,0.0103155,1294,1723,4.88237,-17.116
77,-699,4.87231,17.134,-0.00310179,-0.0108194,0.00378579,-0.0015548,-0.0123664,0.387925,0.00777796,0.0109874,1301,1723,4.87226,-17.134
84,-699,4.86218,17.116,-0.00367889,-0.00869617,0.00375302,-0.00167328,-0.0107018,0.490786,0.00664733,0.0138551,1308,1723,4.86224,-17.116
91,-699,4.90845,17.1172,-0.00354702,-0.00715265,0.00417856,-0.000798957,-0.00990072,0.58174,0.00635093,0.0126576,1315,1723,4.90843,-17.1172
98,-699,4.94214,17.1453,-0.00308559,-0.00600808,0.00474416,0.000417269,-0.00951094,0.636004,0.00648419,0.0108973,1322,1723,4.94216,-17.1453
105,-699,4.94373,17.1394,-0.00204125,-0.00381618,0.00480968,0.00196215,-0.00781958,0.694166,0.00597547,0.0148761,1329,1723,4.94377,-17.1394
112,-699,4.93372,17.1322,-0.000720441,-0.00298862,0.00482571,0.00310265,-0.00681171,0.669987,0.00585606,0.0207572,1336,1723,4.93366,-17.1322
119,-699,4.94409,17.1052,0.000308067,-0.00195614,0.00487625,0.00418191,-0.00582998,0.671335,0.00580641,0.0162858,1343,1723,4.94415,-17.1052
126,-699,4.99817,17.0734,0.00133977,-0.00124749,0.00471648,0.00493681,-0.00484453,0.65155,0.00564734,0.0171066,1350,1723,4.99821,-17.0733
133,-699,5.04602,17.0514,0.00199039,-8.08917e-05,0.00444247,0.00551634,-0.00360683,0.670882,0.00530558,0.0140867,1357,1723,5.04597,-17.0514
140,-699,5.05237,17.0083,0.0021079,0.00107808,0.00400834,0.00563426,-0.00244828,0.721519,0.00478578,0.0153323,1364,1723,5.0524,-17.0084
147,-699,5.05542,17.0052,0.00182509,0.00190893,0.00346794,0.0053352,-0.00160118,0.791442,0.00419369,0.0139635,1371,1723,5.05546,-17.0052
154,-699,5.03894,16.975,0.0014476,0.00255011,0.003055,0.00510319,-0.00110548,0.87466,0.00382426,0.0128257,1378,1723,5.0389,-16.975
161,-699,5.06458,16.9276,0.00125759,0.00325341,0.00258668,0.005028,-0.000516998,0.969496,0.00353695,0.00952285,1385,1723,5.06463,-16.9277
168,-699,5.078,16.8936,0.0011231,0.00392205,0.00105175,0.00427321,0.00077194,1.24856,0.00262954,0.0112662,1392,1723,5.07803,-16.8936
175,-699,5.09094,16.8551,0.00108381,0.00377861,-0.000650146,0.00392726,0.000935154,-1.34601,0.00236881,0.01289,1399,1723,5.09099,-16.8551
182,-699,5.10083,16.8037,0.00140652,0.00274301,-0.00028052,0.0027995,0.00135003,-1.37207,0.00161663,0.0137471,1406,1723,5.10081,-16.8037
189,-699,5.09924,16.7418,0.00172808,0.00215326,0.000265076,0.00228046,0.00160088,1.12338,0.00135197,0.0161021,1413,1723,5.09926,-16.7418
196,-699,5.09619,16.6748,0.00165488,0.00261621,4.12125e-05,0.00261797,0.00165312,1.52803,0.0015288,0.0167572,1420,1723,5.09622,-16.6748
203,-699,5.09106,16.6349,0.00136928,0.0024781,-0.000138392,0.00249511,0.00135227,-1.44848,0.00144224,0.0140142,1427,1723,5.09109,-16.6349
210,-699,5.10986,16.5692,0.0010579,0.00237134,-0.00023301,0.00241145,0.00101779,-1.40032,0.00139788,0.0134014,1434,1723,5.10992,-16.5692
217,-699,5.11707,16.4966,0.000771728,0.00210538,-0.000350377,0.00219182,0.00068528,-1.3289,0.00129472,0.0137557,1441,1723,5.11701,-16.4965
224,-699,5.12573,16.4209,0.000656494,0.00169924,-0.000295941,0.00177738,0.000578359,-1.31266,0.00104682,0.0153734,1448,1723,5.12572,-16.4209
231,-699,5.14209,16.34,0.000587207,0.00117515,-0.000271931,0.00128163,0.00048072,-1.19756,0.000747608,0.0119443,1455,1723,5.14208,-16.3399
238,-699,5.13721,16.2324,0.00060189,0.000704382,-0.000219753,0.000878786,0.000427487,-0.89995,0.000507429,0.0108116,1462,1723,5.13726,-16.2324
245,-699,5.13037,16.1613,0.000612567,0.000289991,-0.000170763,0.00068617,0.000216388,-0.406962,0.000405064,0.0127568,1469,1723,5.13042,-16.1612
252,-699,5.12573,16.1075,0.000603276,-3.08279e-05,-0.000128337,0.000628265,-5.58174e-05,-0.192312,0.000438635,0.00999867,1476,1723,5.12579,-16.1076
259,-699,5.14038,15.9999,0.000629138,-0.000214904,-9.50731e-05,0.000639715,-0.000225481,-0.110791,0.000518253,0.0102941,1483,1723,5.1404,-15.9999
266,-699,5.13904,15.8938,0.000591201,-0.000410594,-4.58305e-05,0.000593293,-0.000412686,-0.0456214,0.000583914,0.0124109,1490,1723,5.13898,-15.8938
273,-699,5.14636,15.8013,0.000473807,-0.000252995,-9.56548e-06,0.000473933,-0.000253121,-0.013158,0.000426169,0.0117976,1497,1723,5.1464,-15.8013
280,-699,5.15906,15.6937,0.000279507,0.000131659,7.13372e-05,0.000308315,0.000102851,0.383795,0.000181262,0.0116392,1504,1723,5.15907,-15.6937
287,-699,5.1582,15.5793,0.000244314,0.000363721,0.000367419,0.000676256,-6.82211e-05,0.865942,0.000475213,0.0100855,1511,1723,5.15826,-15.5793
294,-699,5.15112,15.4777,0.000597699,1.98471e-05,0.000576484,0.000953608,-0.000336062,0.5531,0.000772521,0.0104423,1518,1723,5.15118,-15.4777
301,-699,5.1571,15.3906,0.000753532,-0.000187677,0.000755374,0.0011729,-0.000607049,0.506815,0.00104482,0.0117813,1525,1723,5.15708,-15.3906
308,-699,5.16504,15.292,0.000733254,-0.000495143,0.00104019,0.00132704,-0.00108893,0.518708,0.00139712,0.01666,1532,1723,5.16498,-15.292
315,-699,5.16467,15.1565,0.000760167,-0.00125857,0.00158089,0.00162644,-0.00212485,0.501281,0.00217217,0.0191036,1539,1723,5.16465,-15.1565
322,-699,5.1449,15.025,0.00121435,-0.00197747,0.0017834,0.00201165,-0.00277477,0.420411,0.00277512,0.0199675,1546,1723,5.14487,-15.025
329,-699,5.10742,14.8806,0.00163299,-0.00284359,0.00193221,0.00235162,-0.00356222,0.356069,0.00343812,0.0154567,1553,1723,5.10745,-14.8806
336,-699,5.13086,14.7419,0.00218717,-0.00373274,0.00180448,0.00269384,-0.00423941,0.273735,0.00403593,0.013144,1560,1723,5.13082,-14.7419
343,-699,5.17065,14.6315,0.00281122,-0.00467645,0.00155527,0.00312142,-0.00498665,0.196865,0.0047223,0.0163379,1567,1723,5.17069,-14.6314
350,-699,5.17773,14.5231,0.00342944,-0.00561291,0.00112209,0.00356661,-0.00575007,0.121635,0.005428,0.0259386,1574,1723,5.17777,-14.5231
357,-699,5.14844,14.4053,0.00416118,-0.00606044,0.00023208,0.00416644,-0.00606571,0.0226892,0.00594136,0.0381639,1581,1723,5.14849,-14.4052
364,-699,5.17114,14.2245,0.0050271,-0.0051246,-0.00132469,0.00519711,-0.00529461,-0.127642,0.00605748,0.0428056,1588,1723,5.1711,-14.2245
371,-699,5.35107,14.0431,0.0060868,-0.00371947,-0.00324142,0.00706138,-0.00469405,-0.292066,0.00683272,0.0488902,1595,1723,5.35104,-14.0431
378,-699,5.57629,13.7511,0,0,0,0,0,0,0,-1,1602,1723,5.57623,-13.7511
385,-699,5.61011,13.5387,0,0,0,0,0,0,0,-1,1609,1723,5.61009,-13.5387
392,-699,4.98376,12.5409,0,0,0,0,0,0,0,-1,1616,1723,4.98372,-12.5409
399,-699,3.91516,9.81726,0,0,0,0,0,0,0,-1,1623,1723,3.9152,-9.81721
406,-699,5.50757,21.6672,0,0,0,0,0,0,0,-1,1630,1723,5.50755,-21.6672
413,-699,4.92773,3.5918,0,0,0,0,0,0,0,-1,1637,1723,4.92777,-3.59182
420,-699,2.15076,7.65527,0,0,0,0,0,0,0,-1,1644,1723,2.15079,-7.65522
427,-699,3.36328,8.2428,0,0,0,0,0,0,0,-1,1651,1723,3.36332,-8.24283
434,-699,4.66455,8.90222,0,0,0,0,0,0,0,-1,1658,1723,4.66456,-8.90223
441,-699,0,0,0,0,0,0,0,0,0,-1,1665,1723,0,0
448,-699,0,0,0,0,0,0,0,0,0,-1,1672,1723,0,0
455,-699,0,0,0,0,0,0,0,0,0,-1,1679,1723,0,0
462,-699,0,0,0,0,0,0,0,0,0,-1,1686,1723,0,0
469,-699,0,0,0,0,0,0,0,0,0,-1,1693,1723,0,0
476,-699,0,0,0,0,0,0,0,0,0,-1,1700,1723,0,0
483,-699,0,0,0,0,0,0,0,0,0,-1,1707,1723,0,0
490,-699,0,0,0,0,0,0,0,0,0,-1,1714,1723,0,0
497,-699,0,0,0,0,0,0,0,0,0,-1,1721,1723,0,0
504,-699,0,0,0,0,0,0,0,0,0,-1,1728,1723,0,0
511,-699,0,0,0,0,0,0,0,0,0,-1,1735,1723,0,0
518,-699,0,0,0,0,0,0,0,0,0,-1,1742,1723,0,0
525,-699,0,0,0,0,0,0,0,0,0,-1,1749,1723,0,0
532,-699,0,0,0,0,0,0,0,0,0,-1,1756,1723,0,0
539,-699,0,0,0,0,0,0,0,0,0,-1,1763,1723,0,0
546,-699,0,0,0,0,0,0,0,0,0,-1,1770,1723,0,0
553,-699,0,0,0,0,0,0,0,0,0,-1,1777,1723,0,0
560,-699,0,0,0,0,0,0,0,0,0,-1,1784,1723,0,0
567,-699,0,0,0,0,0,0,0,0,0,-1,1791,1723,0,0
574,-699,0,0,0,0,0,0,0,0,0,-1,1798,1723,0,0
581,-699,0,0,0,0,0,0,0,0,0,-1,1805,1723,0,0
588,-699,0,0,0,0,0,0,0,0,0,-1,1812,1723,0,0
595,-699,0,0,0,0,0,0,0,0,0,-1,1819,1723,0,0
602,-699,0,0,0,0,0,0,0,0,0,-1,1826,1723,0,0
609,-699,0,0,0,0,0,0,0,0,0,-1,1833,1723,0,0
616,-699,0,0,0,0,0,0,0,0,0,-1,1840,1723,0,0
623,-699,0,0,0,0,0,0,0,0,0,-1,1847,1723,0,0
630,-699,0,0,0,0,0,0,0,0,0,-1,1854,1723,0,0
637,-699,0,0,0,0,0,0,0,0,0,-1,1861,1723,0,0
644,-699,0,0,0,0,0,0,0,0,0,-1,1868,1723,0,0
651,-699,0,0,0,0,0,0,0,0,0,-1,1875,1723,0,0
658,-699,0,0,0,0,0,0,0,0,0,-1,1882,1723,0,0
665,-699,0,0,0,0,0,0,0,0,0,-1,1889,1723,0,0
672,-699,0,0,0,0,0,0,0,0,0,-1,1896,1723,0,0
679,-699,0,0,0,0,0,0,0,0,0,-1,1903,1723,0,0
686,-699,0,0,0,0,0,0,0,0,0,-1,1910,1723,0,0
693,-699,0,0,0,0,0,0,0,0,0,-1,1917,1723,0,0
700,-699,0,0,0,0,0,0,0,0,0,-1,1924,1723,0,0
707,-699,0,0,0,0,0,0,0,0,0,-1,1931,1723,0,0
714,-699,0,0,0,0,0,0,0,0,0,-1,1938,1723,0,0
721,-699,0,0,0,0,0,0,0,0,0,-1,1945,1723,0,0
728,-699,0,0,0,0,0,0,0,0,0,-1,1952,1723,0,0
735,-699,0,0,0,0,0,0,0,0,0,-1,1959,1723,0,0
742,-699,0,0,0,0,0,0,0,0,0,-1,1966,1723,0,0
749,-699,0,0,0,0,0,0,0,0,0,-1,1973,1723,0,0
756,-699,0,0,0,0,0,0,0,0,0,-1,1980,1723,0,0
763,-699,0,0,0,0,0,0,0,0,0,-1,1987,1723,0,0
770,-699,0,0,0,0,0,0,0,0,0,-1,1994,1723,0,0
777,-699,0,0,0,0,0,0,0,0,0,-1,2001,1723,0,0
784,-699,0,0,0,0,0,0,0,0,0,-1,2008,1723,0,0
791,-699,0,0,0,0,0,0,0,0,0,-1,2015,1723,0,0
798,-699,0,0,0,0,0,0,0,0,0,-1,2022,1723,0,0
805,-699,0,0,0,0,0,0,0,0,0,-1,2029,1723,0,0
812,-699,0,0,0,0,0,0,0,0,0,-1,2036,1723,0,0
-700,-706,0,0,0,0,0,0,0,0,0,-1,524,1730,0,0
-693,-706,0,0,0,0,0,0,0,0,0,-1,531,1730,0,0
-686,-706,0,0,0,0,0,0,0,0,0,-1,538,1730,0,0
-679,-706,0,0,0,0,0,0,0,0,0,-1,545,1730,0,0
-672,-706,0,0,0,0,0,0,0,0,0,-1,552,1730,0,0
-665,-706,0,0,0,0,0,0,0,0,0,-1,559,1730,0,0
-658,-706,0,0,0,0,0,0,0,0,0,-1,566,1730,0,0
-651,-706,0,0,0,0,0,0,0,0,0,-1,573,1730,0,0
-644,-706,0,0,0,0,0,0,0,0,0,-1,580,1730,0,0
-637,-706,0,0,0,0,0,0,0,0,0,-1,587,1730,0,0
-630,-706,0,0,0,0,0,0,0,0,0,-1,594,1730,0,0
-623,-706,0,0,0,0,0,0,0,0,0,-1,601,1730,0,0
-616,-706,0,0,0,0,0,0,0,0,0,-1,608,1730,0,0
-609,-706,0,0,0,0,0,0,0,0,0,-1,615,1730,0,0
-602,-706,0,0,0,0,0,0,0,0,0,-1,622,1730,0,0
-595,-706,0,0,0,0,0,0,0,0,0,-1,629,1730,0,0
-588,-706,0,0,0,0,0,0,0,0,0,-1,636,1730,0,0
-581,-706,0,0,0,0,0,0,0,0,0,-1,643,1730,0,0
-574,-706,0,0,0,0,0,0,0,0,0,-1,650,1730,0,0
-567,-706,0,0,0,0,0,0,0,0,0,-1,657,1730,0,0
-560,-706,0,0,0,0,0,0,0,0,0,-1,664,1730,0,0
-553,-706,0,0,0,0,0,0,0,0,0,-1,671,1730,0,0
-546,-706,0,0,0,0,0,0,0,0,0,-1,678,1730,0,0
-539,-706,0,0,0,0,0,0,0,0,0,-1,685,1730,0,0
-532,-706,0,0,0,0,0,0,0,0,0,-1,692,1730,0,0
-525,-706,0,0,0,0,0,0,0,0,0,-1,699,1730,0,0
-518,-706,0,0,0,0,0,0,0,0,0,-1,706,1730,0,0
-511,-706,0,0,0,0,0,0,0,0,0,-1,713,1730,0,0
-504,-706,0,0,0,0,0,0,0,0,0,-1,720,1730,0,0
-497,-706,0,0,0,0,0,0,0,0,0,-1,727,1730,0,0
-490,-706,0,0,0,0,0,0,0,0,0,-1,734,1730,0,0
-483,-706,0,0,0,0,0,0,0,0,0,-1,741,1730,0,0
-476,-706,0,0,0,0,0,0,0,0,0,-1,748,1730,0,0
-469,-706,0,0,0,0,0,0,0,0,0,-1,755,1730,0,0
-462,-706,0,0,0,0,0,0,0,0,0,-1,762,1730,0,0
-455,-706,0,0,0,0,0,0,0,0,0,-1,769,1730,0,0
-448,-706,0,0,0,0,0,0,0,0,0,-1,776,1730,0,0
-441,-706,0,0,0,0,0,0,0,0,0,-1,783,1730,0,0
-434,-706,0,0,0,0,0,0,0,0,0,-1,790,1730,0,0
-427,-706,0,0,0,0,0,0,0,0,0,-1,797,1730,0,0
-420,-706,0,0,0,0,0,0,0,0,0,-1,804,1730,0,0
-413,-706,0,0,0,0,0,0,0,0,0,-1,811,1730,0,0
-406,-706,0,0,0,0,0,0,0,0,0,-1,818,1730,0,0
-399,-706,0,0,0,0,0,0,0,0,0,-1,825,1730,0,0
-392,-706,0,0,0,0,0,0,0,0,0,-1,832,1730,0,0
-385,-706,0,0,0,0,0,0,0,0,0,-1,839,1730,0,0
-378,-706,0,0,0,0,0,0,0,0,0,-1,846,1730,0,0
-371,-706,0,0,0,0,0,0,0,0,0,-1,853,1730,0,0
-364,-706,0,0,0,0,0,0,0,0,0,-1,860,1730,0,0
-357,-706,0,0,0,0,0,0,0,0,0,-1,867,1730,0,0
-350,-706,0,0,0,0,0,0,0,0,0,-1,874,1730,0,0
-343,-706,0,0,0,0,0,0,0,0,0,-1,881,1730,0,0
-336,-706,0,0,0,0,0,0,0,0,0,-1,888,1730,0,0
-329,-706,0,0,0,0,0,0,0,0,0,-1,895,1730,0,0
-322,-706,0,0,0,0,0,0,0,0,0,-1,902,1730,0,0
-315,-706,0,0,0,0,0,0,0,0,0,-1,909,1730,0,0
-308,-706,5.08191,14.6245,0,0,0,0,0,0,0,-1,916,1730,5.08188,-14.6245
-301,-706,5.28516,13.4028,0,0,0,0,0,0,0,-1,923,1730,5.28516,-13.4029
-294,-706,7.08746,11.6641,0,0,0,0,0,0,0,-1,930,1730,7.08747,-11.664
-287,-706,5.89063,11.7506,0,0,0,0,0,0,0,-1,937,1730,5.89062,-11.7507
-280,-706,7.26611,10.1569,0,0,0,0,0,0,0,-1,944,1730,7.2661,-10.1569
-273,-706,6.84436,10.9692,0,0,0,0,0,0,0,-1,951,1730,6.84435,-10.9693
-266,-706,7.45245,11.7715,0,0,0,0,0,0,0,-1,958,1730,7.45243,-11.7715
-259,-706,3.3598,9.72961,0,0,0,0,0,0,0,-1,965,1730,3.35979,-9.72962
-252,-706,3.05963,10.0499,0,0,0,0,0,0,0,-1,972,1730,3.05962,-10.05
-245,-706,2.28943,16.1493,0,0,0,0,0,0,0,-1,979,1730,2.28944,-16.1493
-238,-706,5.05334,13.2124,0,0,0,0,0,0,0,-1,986,1730,5.05333,-13.2124
-231,-706,4.89764,13.2474,-0.00305822,0.00931928,-0.00326938,0.0101298,-0.00386872,-1.32779,0.00834715,0.0441468,993,1730,4.89766,-13.2475
-224,-706,4.79877,13.2559,-0.00211575,0.00958933,-0.00230454,0.0100267,-0.00255313,-1.38323,0.00767834,0.0452856,1000,1730,4.79879,-13.2558
-217,-706,4.77386,13.5574,-0.00309758,0.00758738,-0.00182977,0.00789204,-0.00340224,-1.40581,0.0066903,0.0421136,1007,1730,4.77383,-13.5574
-210,-706,4.87805,13.7039,-0.00439606,0.00608418,-0.00121041,0.00622216,-0.00453403,-1.45729,0.00623553,0.0393707,1014,1730,4.87804,-13.7039
-203,-706,4.86292,13.9565,-0.00491511,0.005313,-0.000829622,0.00537986,-0.00498197,-1.49038,0.00598388,0.0310007,1021,1730,4.86292,-13.9565
-196,-706,4.74756,14.2219,-0.00543516,0.00413904,-0.000499047,0.00416498,-0.0054611,-1.51886,0.00557439,0.0225237,1028,1730,4.7476,-14.2219
-189,-706,4.70129,14.3645,-0.00573612,0.00307886,-0.000395263,0.00309655,-0.00575381,-1.52608,0.00518596,0.0179678,1035,1730,4.70128,-14.3645
-182,-706,4.67737,14.5299,-0.00610297,0.00258938,-0.000190974,0.00259358,-0.00610716,-1.54884,0.0051581,0.0131679,1042,1730,4.67742,-14.5299
-175,-706,4.67969,14.6722,-0.00612458,0.00224523,0.000276062,0.00225433,-0.00613367,1.53786,0.00501248,0.0145822,1049,1730,4.67967,-14.6722
-168,-706,4.70422,14.7842,-0.00580041,0.0020089,0.000486269,0.00203907,-0.00583057,1.50885,0.00471604,0.0163936,1056,1730,4.70425,-14.7842
-161,-706,4.67664,14.9149,-0.00542633,0.0017777,0.000462902,0.00180732,-0.00545595,1.50689,0.00436625,0.0137605,1063,1730,4.67669,-14.9149
-154,-706,4.6582,15.0732,-0.00466732,0.00151537,0.000534111,0.00156118,-0.00471312,1.48525,0.00377175,0.0132873,1070,1730,4.65817,-15.0733
-147,-706,4.63647,15.179,-0.00362457,0.00151721,0.000590616,0.00158418,-0.00369154,1.45789,0.00312588,0.011757,1077,1730,4.63647,-15.179
-140,-706,4.6427,15.2949,-0.00261903,0.00138619,0.000530055,0.00145515,-0.00268799,1.44142,0.00242709,0.0103111,1084,1730,4.64267,-15.2949
-133,-706,4.66516,15.4167,-0.00170342,0.001181,0.00051878,0.00127146,-0.00179389,1.39815,0.00177833,0.0083475,1091,1730,4.66514,-15.4168
-126,-706,4.66736,15.5199,-0.000713906,0.000842476,0.000576904,0.001033,-0.000904426,1.25183,0.00111939,0.0127687,1098,1730,4.6673,-15.5199
-119,-706,4.6665,15.6417,0.000193392,0.000502784,0.000610972,0.00097834,-0.000282164,0.909391,0.000763855,0.0178713,1105,1730,4.66651,-15.6417
-112,-706,4.64417,15.7725,0.00105675,0.000243078,0.00058384,0.00136152,-6.16939e-05,0.481102,0.000928927,0.0130606,1112,1730,4.6442,-15.7725
-105,-706,4.63916,15.8772,0.00159422,-0.000178994,0.000527689,0.00173937,-0.000324146,0.268433,0.00128137,0.00936012,1119,1730,4.63916,-15.8772
-98,-706,4.65186,15.939,0.00176427,-0.000673344,0.000547894,0.00188176,-0.000790829,0.211233,0.00158529,0.0110635,1126,1730,4.65185,-15.939
-91,-706,4.67102,16.025,0.00183501,-0.000825767,0.000597281,0.00196294,-0.000953691,0.210991,0.00171719,0.0139442,1133,1730,4.67098,-16.025
-84,-706,4.65759,16.1056,0.00187657,-0.000815586,0.000701214,0.00204826,-0.000987278,0.240126,0.0017879,0.016496,1140,1730,4.65757,-16.1056
-77,-706,4.64722,16.1927,0.00202451,-0.000750291,0.000725793,0.00220289,-0.000928667,0.24099,0.00185723,0.0163184,1147,1730,4.64724,-16.1928
-70,-706,4.6449,16.3059,0.00212142,-0.000726956,0.000675623,0.00227355,-0.000879086,0.221476,0.00187859,0.0178192,1154,1730,4.64492,-16.306
-63,-706,4.64429,16.3975,0.00277306,0.000553263,-0.000551679,0.00290261,0.000423716,-0.230644,0.00181044,0.0119233,1161,1730,4.64434,-16.3974
-56,-706,4.64404,16.4559,0.0035302,0.0025407,-0.00156523,0.00467701,0.00139389,-0.632323,0.00277273,0.0111995,1168,1730,4.64403,-16.4559
-49,-706,4.64966,16.525,0.0040774,0.00439492,-0.00243025,0.00667159,0.00180073,-0.818015,0.00398548,0.0131276,1175,1730,4.64961,-16.525
-42,-706,4.66125,16.604,0.0046777,0.00621173,-0.00325141,0.00878537,0.00210405,-0.901232,0.00529675,0.0180544,1182,1730,4.66125,-16.604
-35,-706,4.67249,16.6525,0.00536119,0.00781422,-0.00415885,0.0109236,0.00225177,-0.928792,0.00665996,0.016796,1189,1730,4.67253,-16.6524
-28,-706,4.68201,16.7039,0.00608263,0.00862615,-0.00466749,0.012192,0.00251674,-0.918405,0.00743253,0.011118,1196,1730,4.68196,-16.7039
-21,-706,4.69189,16.7545,0.00674193,0.00866272,-0.00484299,0.0126396,0.00276503,-0.883282,0.00767265,0.0115988,1203,1730,4.69193,-16.7545
-14,-706,4.70032,16.7908,0.00723365,0.00808799,-0.00481981,0.0124995,0.00282211,-0.829596,0.00756975,0.0108303,1210,1730,4.70037,-16.7907
-7,-706,4.72412,16.8442,0.00777416,0.00691185,-0.00437387,0.0117381,0.00294793,-0.73627,0.00705123,0.00878161,1217,1730,4.72407,-16.8442
0,-706,4.73547,16.908,0.00807898,0.00456357,-0.00357096,0.0103014,0.00234116,-0.556696,0.00623547,0.011645,1224,1730,4.73546,-16.908
7,-706,4.73132,16.9529,0.00823531,0.00211009,-0.00265769,0.00922768,0.00111772,-0.357365,0.00581513,0.013274,1231,1730,4.7313,-16.9529
14,-706,4.74902,16.9811,0.00830062,-0.000731529,-0.00165618,0.00859473,-0.00102564,-0.17575,0.00610051,0.01351,1238,1730,4.74901,-16.9811
21,-706,4.77588,17.0076,0.00753126,-0.003156,-0.000645182,0.00757007,-0.0031948,-0.0600785,0.00638392,0.0116254,1245,1730,4.77585,-17.0076
28,-706,4.78149,17.046,0.00623078,-0.00545874,0.000193228,0.00623397,-0.00546193,0.016524,0.00675753,0.0120445,1252,1730,4.78149,-17.046
35,-706,4.79456,17.0781,0.00485506,-0.00727682,0.000813663,0.00490938,-0.00733115,0.0666702,0.00711303,0.0136551,1259,1730,4.7946,-17.0781
42,-706,4.82617,17.1138,0.00341927,-0.0089081,0.00163544,0.00363255,-0.00912138,0.129679,0.00758738,0.0121092,1266,1730,4.82618,-17.1138
49,-706,4.8479,17.1387,0.00205607,-0.0100906,0.0019224,0.00235306,-0.0103876,0.153276,0.00782819,0.0137874,1273,1730,4.84788,-17.1386
56,-706,4.87097,17.1462,0.000725289,-0.0105282,0.00204548,0.00108555,-0.0108884,0.174338,0.00764654,0.0125468,1280,1730,4.87093,-17.1462
63,-706,4.87708,17.141,-0.000423595,-0.0106322,0.00251191,0.000161004,-0.0112168,0.228661,0.0075321,0.0107772,1287,1730,4.87702,-17.141
70,-706,4.85828,17.125,-0.00121403,-0.0098696,0.00299422,-0.000279203,-0.0108044,0.302621,0.00711171,0.0115804,1294,1730,4.85822,-17.125
77,-706,4.8678,17.1335,-0.00179397,-0.00888994,0.00316201,-0.000589424,-0.0100945,0.36397,0.00654204,0.0114117,1301,1730,4.86776,-17.1335
84,-706,4.88098,17.1497,-0.00207371,-0.00804482,0.00336224,-0.0005628,-0.00955573,0.422335,0.00619142,0.00971628,1308,1730,4.88096,-17.1497
91,-706,4.90161,17.1556,-0.00182638,-0.00749925,0.00381042,8.74149e-05,-0.00941304,0.465448,0.0063047,0.0106542,1315,1730,4.90159,-17.1556
98,-706,4.90649,17.1642,-0.00141556,-0.00709802,0.00439694,0.00097825,-0.00949184,0.498554,0.0066779,0.0137412,1322,1730,4.90647,-17.1642
105,-706,4.90979,17.1642,-0.000671522,-0.00649845,0.00483472,0.00205973,-0.0092297,0.514229,0.00694232,0.0141504,1329,1730,4.90983,-17.1642
112,-706,4.91809,17.1411,0.000183715,-0.00643294,0.00521622,0.00305228,-0.0093015,0.502791,0.00743042,0.0139282,1336,1730,4.91806,-17.1411
119,-706,4.94556,17.1526,0.000814272,-0.0062116,0.00544571,0.0037818,-0.00917913,0.498942,0.00769624,0.0126637,1343,1730,4.94554,-17.1525
126,-706,4.97681,17.1204,0.00165955,-0.00609067,0.00551408,0.00452399,-0.00895511,0.479108,0.00792109,0.0144632,1350,1730,4.97687,-17.1204
133,-706,5.00195,17.0706,0.0022373,-0.00547914,0.00543594,0.00504506,-0.0082869,0.476775,0.00777269,0.0124484,1357,1730,5.00198,-17.0705
140,-706,4.99719,17.0095,0.00236269,-0.00469869,0.00516297,0.00508677,-0.00742276,0.485496,0.00726423,0.0119763,1364,1730,4.99722,-17.0095
147,-706,5.03491,16.965,0.00212412,-0.00391335,0.00467918,0.00467383,-0.00646305,0.498922,0.00645748,0.0209483,1371,1730,5.03488,-16.9649
154,-706,5.04114,16.9812,0.00180482,-0.00299263,0.00413964,0.0041905,-0.00537831,0.522811,0.00553872,0.0206414,1378,1730,5.04117,-16.9811
161,-706,5.01892,16.9344,0.00164654,-0.00160765,0.00334655,0.00374058,-0.00370169,0.559124,0.00429681,0.0110305,1385,1730,5.01892,-16.9344
168,-706,5.02063,16.8744,0.00146664,-0.000305027,0.00194604,0.00271898,-0.00155736,0.571814,0.00249912,0.0102936,1392,1730,5.02062,-16.8744
175,-706,5.03113,16.8351,0.00128976,0.000192978,0.000715172,0.0016426,-0.000159854,0.458315,0.00115205,0.0100687,1399,1730,5.03109,-16.8351
182,-706,5.03345,16.7825,0.00122519,0.000753547,0.000295328,0.00136729,0.000611439,0.448486,0.000790874,0.0103342,1406,1730,5.03345,-16.7825
189,-706,5.02966,16.7063,0.00116422,0.00147233,0.000116623,0.00151149,0.00112505,1.24681,0.000906725,0.0133406,1413,1730,5.02967,-16.7063
196,-706,5.03723,16.6576,0.0010557,0.00181289,-4.6896e-05,0.00181579,0.00105281,-1.50918,0.00105279,0.0125167,1420,1730,5.03722,-16.6576
203,-706,5.03687,16.6259,0.000866101,0.00176285,-0.000209837,0.00180952,0.000819428,-1.35194,0.00104628,0.0135245,1427,1730,5.03681,-16.6258
210,-706,5.04102,16.5459,0.000680113,0.00171241,-0.000342217,0.00181556,0.000576971,-1.27806,0.00107116,0.0125671,1434,1730,5.04096,-16.5459
217,-706,5.04089,16.4791,0.000478749,0.00156174,-0.00047105,0.00173796,0.000302536,-1.21283,0.00107212,0.0134171,1441,1730,5.04093,-16.4791
224,-706,5.04138,16.4227,0.000402841,0.00130848,-0.000494519,0.00152618,0.000185142,-1.1561,0.000961696,0.0185277,1448,1730,5.04137,-16.4227
231,-706,5.05798,16.3398,0.000333669,0.00100096,-0.000522441,0.0012872,4.74247e-05,-1.06957,0.000842773,0.0138128,1455,1730,5.05794,-16.3398
238,-706,5.05688,16.2511,0.000326768,0.000743468,-0.000509522,0.00108559,-1.53569e-05,-0.979481,0.000728901,0.00925872,1462,1730,5.05695,-16.2511
245,-706,5.05371,16.1703,0.000333129,0.000554736,-0.000511166,0.00096697,-7.91053e-05,-0.89213,0.000672568,0.0113267,1469,1730,5.05374,-16.1703
252,-706,5.05884,16.0925,0.000317462,0.000453626,-0.000499736,0.000889896,-0.000118808,-0.853099,0.000636573,0.0102281,1476,1730,5.05882,-16.0926
259,-706,5.07019,15.9904,0.000347985,0.0004348,-0.000460988,0.00085442,-7.16352e-05,-0.83234,0.000594931,0.0113563,1483,1730,5.07016,-15.9903
266,-706,5.06018,15.8981,0.000301169,0.000401158,-0.000410364,0.000764561,-6.22343e-05,-0.846014,0.000531668,0.0120006,1490,1730,5.06014,-15.8981
273,-706,5.06384,15.7979,0.00015416,0.00064017,-0.000316631,0.000796297,-1.96657e-06,-1.11269,0.000531522,0.0124669,1497,1730,5.06381,-15.7978
280,-706,5.06104,15.684,-7.03202e-05,0.00112888,-0.000149797,0.00114731,-8.87488e-05,-1.44839,0.000796107,0.0104083,1504,1730,5.06104,-15.684
287,-706,5.05176,15.579,-5.36018e-05,0.00133177,0.000337094,0.00140943,-0.000131271,1.34434,0.000986296,0.0106661,1511,1730,5.05172,-15.579
294,-706,5.05896,15.4874,0.000520692,0.000727337,0.000701997,0.00133357,-8.55457e-05,0.858465,0.000918893,0.0108392,1518,1730,5.05893,-15.4874
301,-706,5.05994,15.3732,0.000819489,0.00027208,0.00102159,0.00160341,-0.000511837,0.654512,0.00127429,0.0101163,1525,1730,5.05989,-15.3731
308,-706,5.0542,15.2683,0.000843923,-0.000324011,0.00150395,0.00187331,-0.00135339,0.600214,0.00187098,0.011873,1532,1730,5.05426,-15.2683
315,-706,5.0675,15.1478,0.000904348,-0.00147959,0.0023383,0.00233696,-0.00291221,0.549686,0.00303667,0.0179149,1539,1730,5.06747,-15.1478
322,-706,5.0498,15.0115,0.00157124,-0.00263848,0.00274399,0.00292469,-0.00399193,0.458226,0.00400913,0.0186769,1546,1730,5.04976,-15.0114
329,-706,5.00488,14.8656,0.00220025,-0.00403012,0.00312715,0.00349907,-0.00532894,0.393658,0.00513322,0.0159968,1553,1730,5.00492,-14.8656
336,-706,5.00354,14.718,0.0030044,-0.00554501,0.00314707,0.00403791,-0.00657853,0.317308,0.00618763,0.0222881,1560,1730,5.00351,-14.718
343,-706,5.05872,14.6519,0.00383824,-0.00709821,0.00302269,0.00461806,-0.00787804,0.252485,0.007296,0.0317799,1567,1730,5.05874,-14.6518
350,-706,5.07031,14.5815,0.00465747,-0.0086,0.00266748,0.00517405,-0.00911659,0.191292,0.00835471,0.0391569,1574,1730,5.07031,-14.5816
357,-706,5.01929,14.4404,0.00560125,-0.0095052,0.00171647,0.00579383,-0.00969777,0.111727,0.00903825,0.0484166,1581,1730,5.01929,-14.4404
364,-706,4.75781,14.5601,0.00662865,-0.00886003,-3.59971e-05,0.00662874,-0.00886011,-0.00232407,0.00897337,0.0498987,1588,1730,4.75777,-14.56
371,-706,5.20068,13.9692,0,0,0,0,0,0,0,-1,1595,1730,5.20073,-13.9693
378,-706,2.65601,14.7705,0,0,0,0,0,0,0,-1,1602,1730,2.65603,-14.7706
385,-706,2.20056,13.7463,0,0,0,0,0,0,0,-1,1609,1730,2.20062,-13.7464
392,-706,3.42236,11.9617,0,0,0,0,0,0,0,-1,1616,1730,3.42241,-11.9617
399,-706,3.21667,13.4043,0,0,0,0,0,0,0,-1,1623,1730,3.21671,-13.4043
406,-706,3.80188,18.3816,0,0,0,0,0,0,0,-1,1630,1730,3.80184,-18.3815
413,-706,4.23645,20.028,0,0,0,0,0,0,0,-1,1637,1730,4.23649,-20.0279
420,-706,5.7926,4.15125,0,0,0,0,0,0,0,-1,1644,1730,5.79255,-4.15128
427,-706,0,0,0,0,0,0,0,0,0,-1,1651,1730,0,0
434,-706,0,0,0,0,0,0,0,0,0,-1,1658,1730,0,0
441,-706,0,0,0,0,0,0,0,0,0,-1,1665,1730,0,0
448,-706,0,0,0,0,0,0,0,0,0,-1,1672,1730,0,0
455,-706,0,0,0,0,0,0,0,0,0,-1,1679,1730,0,0
462,-706,0,0,0,0,0,0,0,0,0,-1,1686,1730,0,0
469,-706,0,0,0,0,0,0,0,0,0,-1,1693,1730,0,0
476,-706,0,0,0,0,0,0,0,0,0,-1,1700,1730,0,0
483,-706,0,0,0,0,0,0,0,0,0,-1,1707,1730,0,0
490,-706,0,0,0,0,0,0,0,0,0,-1,1714,1730,0,0
497,-706,0,0,0,0,0,0,0,0,0,-1,1721,1730,0,0
504,-706,0,0,0,0,0,0,0,0,0,-1,1728,1730,0,0
511,-706,0,0,0,0,0,0,0,0,0,-1,1735,1730,0,0
518,-706,0,0,0,0,0,0,0,0,0,-1,1742,1730,0,0
525,-706,0,0,0,0,0,0,0,0,0,-1,1749,1730,0,0
532,-706,0,0,0,0,0,0,0,0,0,-1,1756,1730,0,0
539,-706,0,0,0,0,0,0,0,0,0,-1,1763,1730,0,0
546,-706,0,0,0,0,0,0,0,0,0,-1,1770,1730,0,0
553,-706,0,0,0,0,0,0,0,0,0,-1,1777,1730,0,0
560,-706,0,0,0,0,0,0,0,0,0,-1,1784,1730,0,0
567,-706,0,0,0,0,0,0,0,0,0,-1,1791,1730,0,0
574,-706,0,0,0,0,0,0,0,0,0,-1,1798,1730,0,0
581,-706,0,0,0,0,0,0,0,0,0,-1,1805,1730,0,0
588,-706,0,0,0,0,0,0,0,0,0,-1,1812,1730,0,0
595,-706,0,0,0,0,0,0,0,0,0,-1,1819,1730,0,0
602,-706,0,0,0,0,0,0,0,0,0,-1,1826,1730,0,0
609,-706,0,0,0,0,0,0,0,0,0,-1,1833,1730,0,0
616,-706,0,0,0,0,0,0,0,0,0,-1,1840,1730,0,0
623,-706,0,0,0,0,0,0,0,0,0,-1,1847,1730,0,0
630,-706,0,0,0,0,0,0,0,0,0,-1,1854,1730,0,0
637,-706,0,0,0,0,0,0,0,0,0,-1,1861,1730,0,0
644,-706,0,0,0,0,0,0,0,0,0,-1,1868,1730,0,0
651,-706,0,0,0,0,0,0,0,0,0,-1,1875,1730,0,0
658,-706,0,0,0,0,0,0,0,0,0,-1,1882,1730,0,0
665,-706,0,0,0,0,0,0,0,0,0,-1,1889,1730,0,0
672,-706,0,0,0,0,0,0,0,0,0,-1,1896,1730,0,0
679,-706,0,0,0,0,0,0,0,0,0,-1,1903,1730,0,0
686,-706,0,0,0,0,0,0,0,0,0,-1,1910,1730,0,0
693,-706,0,0,0,0,0,0,0,0,0,-1,1917,1730,0,0
700,-706,0,0,0,0,0,0,0,0,0,-1,1924,1730,0,0
707,-706,0,0,0,0,0,0,0,0,0,-1,1931,1730,0,0
714,-706,0,0,0,0,0,0,0,0,0,-1,1938,1730,0,0
721,-706,0,0,0,0,0,0,0,0,0,-1,1945,1730,0,0
728,-706,0,0,0,0,0,0,0,0,0,-1,1952,1730,0,0
735,-706,0,0,0,0,0,0,0,0,0,-1,1959,1730,0,0
742,-706,0,0,0,0,0,0,0,0,0,-1,1966,1730,0,0
749,-706,0,0,0,0,0,0,0,0,0,-1,1973,1730,0,0
756,-706,0,0,0,0,0,0,0,0,0,-1,1980,1730,0,0
763,-706,0,0,0,0,0,0,0,0,0,-1,1987,1730,0,0
770,-706,0,0,0,0,0,0,0,0,0,-1,1994,1730,0,0
777,-706,0,0,0,0,0,0,0,0,0,-1,2001,1730,0,0
784,-706,0,0,0,0,0,0,0,0,0,-1,2008,1730,0,0
791,-706,0,0,0,0,0,0,0,0,0,-1,2015,1730,0,0
798,-706,0,0,0,0,0,0,0,0,0,-1,2022,1730,0,0
805,-706,0,0,0,0,0,0,0,0,0,-1,2029,1730,0,0
812,-706,0,0,0,0,0,0,0,0,0,-1,2036,1730,0,0
-700,-713,0,0,0,0,0,0,0,0,0,-1,524,1737,0,0
-693,-713,0,0,0,0,0,0,0,0,0,-1,531,1737,0,0
-686,-713,0,0,0,0,0,0,0,0,0,-1,538,1737,0,0
-679,-713,0,0,0,0,0,0,0,0,0,-1,545,1737,0,0
-672,-713,0,0,0,0,0,0,0,0,0,-1,552,1737,0,0
-665,-713,0,0,0,0,0,0,0,0,0,-1,559,1737,0,0
-658,-713,0,0,0,0,0,0,0,0,0,-1,566,1737,0,0
-651,-713,0,0,0,0,0,0,0,0,0,-1,573,1737,0,0
-644,-713,0,0,0,0,0,0,0,0,0,-1,580,1737,0,0
-637,-713,0,0,0,0,0,0,0,0,0,-1,587,1737,0,0
-630,-713,0,0,0,0,0,0,0,0,0,-1,594,1737,0,0
-623,-713,0,0,0,0,0,0,0,0,0,-1,601,1737,0,0
-616,-713,0,0,0,0,0,0,0,0,0,-1,608,1737,0,0
-609,-713,0,0,0,0,0,0,0,0,0,-1,615,1737,0,0
-602,-713,0,0,0,0,0,0,0,0,0,-1,622,1737,0,0
-595,-713,0,0,0,0,0,0,0,0,0,-1,629,1737,0,0
-588,-713,0,0,0,0,0,0,0,0,0,-1,636,1737,0,0
-581,-713,0,0,0,0,0,0,0,0,0,-1,643,1737,0,0
-574,-713,0,0,0,0,0,0,0,0,0,-1,650,1737,0,0
-567,-713,0,0,0,0,0,0,0,0,0,-1,657,1737,0,0
-560,-713,0,0,0,0,0,0,0,0,0,-1,664,1737,0,0
-553,-713,0,0,0,0,0,0,0,0,0,-1,671,1737,0,0
-546,-713,0,0,0,0,0,0,0,0,0,-1,678,1737,0,0
-539,-713,0,0,0,0,0,0,0,0,0,-1,685,1737,0,0
-532,-713,0,0,0,0,0,0,0,0,0,-1,692,1737,0,0
-525,-713,0,0,0,0,0,0,0,0,0,-1,699,1737,0,0
-518,-713,0,0,0,0,0,0,0,0,0,-1,706,1737,0,0
-511,-713,0,0,0,0,0,0,0,0,0,-1,713,1737,0,0
-504,-713,0,0,0,0,0,0,0,0,0,-1,720,1737,0,0
-497,-713,0,0,0,0,0,0,0,0,0,-1,727,1737,0,0
-490,-713,0,0,0,0,0,0,0,0,0,-1,734,1737,0,0
-483,-713,0,0,0,0,0,0,0,0,0,-1,741,1737,0,0
-476,-713,0,0,0,0,0,0,0,0,0,-1,748,1737,0,0
-469,-713,0,0,0,0,0,0,0,0,0,-1,755,1737,0,0
-462,-713,0,0,0,0,0,0,0,0,0,-1,762,1737,0,0
-455,-713,0,0,0,0,0,0,0,0,0,-1,769,1737,0,0
-448,-713,0,0,0,0,0,0,0,0,0,-1,776,1737,0,0
-441,-713,0,0,0,0,0,0,0,0,0,-1,783,1737,0,0
-434,-713,0,0,0,0,0,0,0,0,0,-1,790,1737,0,0
-427,-713,0,0,0,0,0,0,0,0,0,-1,797,1737,0,0
-420,-713,0,0,0,0,0,0,0,0,0,-1,804,1737,0,0
-413,-713,0,0,0,0,0,0,0,0,0,-1,811,1737,0,0
-406,-713,0,0,0,0,0,0,0,0,0,-1,818,1737,0,0
-399,-713,0,0,0,0,0,0,0,0,0,-1,825,1737,0,0
-392,-713,0,0,0,0,0,0,0,0,0,-1,832,1737,0,0
-385,-713,0,0,0,0,0,0,0,0,0,-1,839,1737,0,0
-378,-713,0,0,0,0,0,0,0,0,0,-1,846,1737,0,0
-371,-713,0,0,0,0,0,0,0,0,0,-1,853,1737,0,0
-364,-713,0,0,0,0,0,0,0,0,0,-1,860,1737,0,0
-357,-713,0,0,0,0,0,0,0,0,0,-1,867,1737,0,0
-350,-713,0,0,0,0,0,0,0,0,0,-1,874,1737,0,0
-343,-713,0,0,0,0,0,0,0,0,0,-1,881,1737,0,0
-336,-713,0,0,0,0,0,0,0,0,0,-1,888,1737,0,0
-329,-713,0,0,0,0,0,0,0,0,0,-1,895,1737,0,0
-322,-713,0,0,0,0,0,0,0,0,0,-1,902,1737,0,0
-315,-713,0,0,0,0,0,0,0,0,0,-1,909,1737,0,0
-308,-713,0,0,0,0,0,0,0,0,0,-1,916,1737,0,0
-301,-713,0,0,0,0,0,0,0,0,0,-1,923,1737,0,0
-294,-713,6.3161,13.046,0,0,0,0,0,0,0,-1,930,1737,6.31612,-13.046
-287,-713,6.46362,12.1899,0,0,0,0,0,0,0,-1,937,1737,6.46362,-12.19
-280,-713,6.69623,9.99585,0,0,0,0,0,0,0,-1,944,1737,6.69626,-9.99591
-273,-713,7.54114,10.4939,0,0,0,0,0,0,0,-1,951,1737,7.54114,-10.4939
-266,-713,8.38605,10.9919,0,0,0,0,0,0,0,-1,958,1737,8.38603,-10.9919
-259,-713,2.67322,10.5743,0,0,0,0,0,0,0,-1,965,1737,2.67324,-10.5743
-252,-713,3.55267,8.86694,0,0,0,0,0,0,0,-1,972,1737,3.55265,-8.86693
-245,-713,5.05389,17.6932,0,0,0,0,0,0,0,-1,979,1737,5.05392,-17.6932
-238,-713,4.77814,16.7565,0,0,0,0,0,0,0,-1,986,1737,4.77814,-16.7564
-231,-713,5.05255,13.3196,0,0,0,0,0,0,0,-1,993,1737,5.05257,-13.3195
-224,-713,4.81067,13.6335,0,0,0,0,0,0,0,-1,1000,1737,4.81066,-13.6336
-217,-713,5.07037,13.2689,0,0,0,0,0,0,0,-1,1007,1737,5.07039,-13.2689
-210,-713,5.14331,13.4261,0,0,0,0,0,0,0,-1,1014,1737,5.14331,-13.4262
-203,-713,4.79944,13.7853,0,0,0,0,0,0,0,-1,1021,1737,4.79939,-13.7853
-196,-713,4.76453,14.0128,-0.0124623,0.000802518,-0.00236536,0.00121169,-0.0128714,-1.39951,0.00901204,0.0405264,1028,1737,4.76448,-14.0129
-189,-713,4.83813,14.3063,-0.0130502,-0.000536906,-0.00228735,-0.000131899,-0.0134552,-1.39555,0.00892647,0.037708,1035,1737,4.83813,-14.3063
-182,-713,4.82971,14.5648,-0.0134831,-0.000878924,-0.00196912,-0.000578459,-0.0137836,-1.41938,0.00900245,0.0241886,1042,1737,4.82972,-14.5648
-175,-713,4.83411,14.6658,-0.0132671,-0.000909334,-0.00125873,-0.000782426,-0.013394,-1.47031,0.00868029,0.0224125,1049,1737,4.83413,-14.6658
-168,-713,4.90674,14.7277,-0.0123976,-0.000708798,-0.000770369,-0.000658244,-0.0124482,-1.50527,0.00808829,0.0242832,1056,1737,4.90671,-14.7276
-161,-713,4.80212,14.9092,-0.0113904,-0.000438024,-0.000587056,-0.000406648,-0.0114218,-1.5174,0.00748266,0.0129629,1063,1737,4.80214,-14.9092
-154,-713,4.76404,15.0452,-0.00985898,-0.000182493,-0.000257431,-0.000175649,-0.00986582,-1.54422,0.00651945,0.0116069,1070,1737,4.76404,-15.0452
-147,-713,4.75342,15.1876,-0.00801147,0.000419978,7.17042e-05,0.000420588,-0.00801208,1.56229,0.00548696,0.0182216,1077,1737,4.75341,-15.1876
-140,-713,4.76282,15.3309,-0.0062679,0.000800568,0.000235531,0.000808407,-0.00627574,1.53752,0.00447769,0.0164466,1084,1737,4.76287,-15.3309
-133,-713,4.75195,15.4177,-0.00471252,0.00103744,0.000392631,0.00106413,-0.0047392,1.50293,0.00356748,0.0101414,1091,1737,4.752,-15.4177
-126,-713,4.75793,15.5062,-0.00314063,0.001037,0.000559381,0.00111061,-0.00321423,1.43997,0.00259354,0.0168775,1098,1737,4.75795,-15.5062
-119,-713,4.75281,15.595,-0.00176019,0.000891801,0.000618053,0.00102877,-0.00189716,1.35271,0.0017139,0.0277387,1105,1737,4.75286,-15.595
-112,-713,4.73926,15.7745,-0.000280197,0.00100685,0.000630399,0.00126417,-0.000537521,1.18325,0.00106804,0.0142582,1112,1737,4.73929,-15.7745
-105,-713,4.76648,15.873,0.000668886,0.000683189,0.000512849,0.00118894,0.000163138,0.79237,0.000744229,0.011058,1119,1737,4.76646,-15.8731
-98,-713,4.75671,15.9366,0.000849809,2.28755e-05,0.000385867,0.00100189,-0.000129209,0.375442,0.000714901,0.0100557,1126,1737,4.75667,-15.9367
-91,-713,4.75098,16.0128,0.000923189,-0.000211139,0.000305323,0.00100015,-0.0002881,0.24692,0.000780725,0.0099275,1133,1737,4.75098,-16.0128
-84,-713,4.74084,16.1018,0.00095034,-0.000252107,0.000329901,0.0010349,-0.000336671,0.250928,0.000825374,0.00920884,1140,1737,4.7408,-16.1018
-77,-713,4.73279,16.2059,0.0011119,-0.000380244,0.000273479,0.00116045,-0.000428788,0.175675,0.000949404,0.0123496,1147,1737,4.73281,-16.2059
-70,-713,4.71814,16.3059,0.00116466,-0.000496934,0.000124105,0.00117388,-0.000506153,0.0741421,0.000995177,0.014371,1154,1737,4.71811,-16.3059
-63,-713,4.71753,16.3904,0.00115113,-0.000222822,-0.000383109,0.00125073,-0.000322426,-0.254359,0.000959527,0.0115244,1161,1737,4.71757,-16.3904
-56,-713,4.72998,16.4542,0.00136965,0.000431712,-0.000591443,0.00165549,0.000145872,-0.450193,0.00105839,0.0112566,1168,1737,4.72995,-16.4542
-49,-713,4.71997,16.5198,0.0015104,0.00116173,-0.000820849,0.00217522,0.000496907,-0.680759,0.00131616,0.0148174,1175,1737,4.72,-16.5197
-42,-713,4.73108,16.5856,0.00173748,0.00184477,-0.00114412,0.0029365,0.000645754,-0.808824,0.00178186,0.0173368,1182,1737,4.73105,-16.5856
-35,-713,4.75854,16.6289,0.0021243,0.00251084,-0.00161133,0.00394045,0.000694694,-0.845086,0.00242875,0.014267,1189,1737,4.75849,-16.6289
-28,-713,4.77625,16.7032,0.00254455,0.00288861,-0.00195157,0.00467572,0.00075744,-0.829359,0.00289786,0.013635,1196,1737,4.77623,-16.7032
-21,-713,4.74695,16.7694,0.00290805,0.00299865,-0.00212056,0.00507439,0.000832311,-0.796077,0.00314245,0.0101239,1203,1737,4.74695,-16.7694
-14,-713,4.74768,16.7975,0.00321719,0.00279086,-0.00215871,0.00517324,0.000834814,-0.736184,0.00320698,0.010811,1210,1737,4.74766,-16.7975
-7,-713,4.77979,16.8472,0.0036666,0.00223339,-0.00193237,0.00501096,0.000889026,-0.607839,0.00308727,0.00950139,1217,1737,4.77981,-16.8472
0,-713,4.7854,16.892,0.0041122,0.00125162,-0.00150466,0.0047579,0.000605924,-0.405367,0.00299049,0.0138059,1224,1737,4.78536,-16.892
7,-713,4.78821,16.9271,0.00453613,7.20009e-05,-0.00098758,0.00474485,-0.000136719,-0.208279,0.00320978,0.0159298,1231,1737,4.78823,-16.9272
14,-713,4.80652,16.9823,0.00497306,-0.00131277,-0.000386514,0.00499674,-0.00133645,-0.0611826,0.00385466,0.0116391,1238,1737,4.80656,-16.9823
21,-713,4.81091,17.0135,0.00475935,-0.00243379,0.000208908,0.00476541,-0.00243985,0.0290101,0.00423157,0.0100591,1245,1737,4.81092,-17.0136
28,-713,4.79626,17.0403,0.00415375,-0.00354831,0.000673642,0.00421222,-0.00360678,0.0865866,0.00451881,0.0103726,1252,1737,4.79623,-17.0403
35,-713,4.8042,17.072,0.00349937,-0.00442235,0.000961422,0.00361439,-0.00453736,0.119063,0.00471646,0.0110701,1259,1737,4.80416,-17.0721
42,-713,4.83435,17.1108,0.00288189,-0.00514369,0.00135609,0.00310484,-0.00536664,0.162946,0.00494878,0.0115423,1266,1737,4.83437,-17.1109
49,-713,4.85193,17.1191,0.00217828,-0.00573946,0.00139896,0.00241819,-0.00597937,0.169839,0.00499154,0.0112353,1273,1737,4.85192,-17.1191
56,-713,4.85803,17.129,0.00137327,-0.00605655,0.0013319,0.00160482,-0.00628809,0.172126,0.00481695,0.0113987,1280,1737,4.85802,-17.129
63,-713,4.85608,17.1381,0.000655097,-0.00629374,0.00152357,0.000974467,-0.00661311,0.206629,0.00476688,0.0118643,1287,1737,4.85606,-17.138
70,-713,4.85474,17.1392,0.000120533,-0.00603549,0.00177013,0.000593226,-0.00650818,0.26095,0.00454944,0.0119438,1294,1737,4.85476,-17.1392
77,-713,4.8645,17.1456,-0.000318804,-0.00570488,0.00185469,0.000258073,-0.00628175,0.301551,0.00427646,0.0125445,1301,1737,4.86449,-17.1456
84,-713,4.88672,17.1707,-0.000547377,-0.00553396,0.00196053,0.00013111,-0.00621244,0.333173,0.00418602,0.0125271,1308,1737,4.88676,-17.1707
91,-713,4.88855,17.1722,-0.00047701,-0.00551702,0.00224363,0.000377049,-0.00637108,0.363723,0.00437849,0.0124652,1315,1737,4.88853,-17.1722
98,-713,4.87915,17.1653,-0.000335769,-0.00542744,0.00263472,0.000782138,-0.00654534,0.401277,0.00464627,0.0118811,1322,1737,4.87916,-17.1653
105,-713,4.8866,17.1527,-1.96236e-05,-0.0053107,0.00294907,0.00129664,-0.00662696,0.4198,0.00490762,0.0120881,1329,1737,4.88661,-17.1527
112,-713,4.91431,17.1549,0.000402878,-0.00522384,0.00321609,0.00186248,-0.00668344,0.426047,0.00518909,0.0121777,1336,1737,4.91432,-17.1549
119,-713,4.93994,17.1693,0.000706724,-0.00499633,0.00334839,0.00225325,-0.00654286,0.432684,0.00527589,0.013306,1343,1737,4.93998,-17.1693
126,-713,4.93591,17.1555,0.00125142,-0.00475113,0.00337595,0.0027673,-0.00626701,0.422042,0.00534482,0.0133326,1350,1737,4.93587,-17.1555
133,-713,4.92456,17.0848,0.00160959,-0.00414324,0.00329661,0.00310827,-0.00564191,0.426681,0.00512202,0.0124893,1357,1737,4.92457,-17.0848
140,-713,4.9281,17.02,0.00164351,-0.00341995,0.00309425,0.00310979,-0.00488622,0.442527,0.00465432,0.0131351,1364,1737,4.92812,-17.0201
147,-713,4.94104,16.9836,0.00144377,-0.00272378,0.00274928,0.00280972,-0.00408974,0.461118,0.00400619,0.0138641,1371,1737,4.941,-16.9836
154,-713,4.94812,17.0016,0.00121579,-0.00198588,0.00235806,0.00246506,-0.00323515,0.487194,0.00330102,0.0144696,1378,1737,4.94814,-17.0016
161,-713,4.95105,16.9403,0.00108983,-0.00100118,0.00185153,0.00217064,-0.00208199,0.52838,0.00245544,0.0106468,1385,1737,4.95106,-16.9403
168,-713,4.95764,16.8599,0.000921098,-0.000172106,0.00106898,0.00157512,-0.000826129,0.549064,0.00140866,0.00968124,1392,1737,4.95761,-16.8598
175,-713,4.98328,16.8165,0.000799671,0.000181089,0.000415817,0.00100861,-2.78524e-05,0.465633,0.000681882,0.0123699,1399,1737,4.98327,-16.8165
182,-713,4.98279,16.7778,0.000784845,0.000479427,0.000115608,0.00082367,0.000440602,0.323998,0.000475933,0.0111433,1406,1737,4.98276,-16.7778
189,-713,4.97192,16.6942,0.000698376,0.000877889,-6.62051e-05,0.000899664,0.0006766,-1.25304,0.000540975,0.0106412,1413,1737,4.97187,-16.6942
196,-713,4.99243,16.6729,0.000524848,0.00113029,-0.000197106,0.00118881,0.000466334,-1.28222,0.000691647,0.0124262,1420,1737,4.99238,-16.6729
203,-713,4.99634,16.6578,0.000387276,0.00114057,-0.00034843,0.00127702,0.000250829,-1.19755,0.000781277,0.0168427,1427,1737,4.99634,-16.6578
210,-713,4.97888,16.5554,0.000314337,0.00114427,-0.000518793,0.00139364,6.49663e-05,-1.12273,0.000908212,0.0136684,1434,1737,4.97886,-16.5555
217,-713,4.97656,16.4727,0.000180946,0.00109133,-0.000658569,0.00143671,-0.000164432,-1.08779,0.00101706,0.0110893,1441,1737,4.97662,-16.4726
224,-713,4.97437,16.4138,0.000133452,0.000959744,-0.000742688,0.00139647,-0.00030327,-1.03923,0.00104681,0.012324,1448,1737,4.9744,-16.4138
231,-713,4.98389,16.3439,5.84274e-05,0.00083064,-0.00081299,0.00134455,-0.000455483,-1.00709,0.00108068,0.0115226,1455,1737,4.98384,-16.3439
238,-713,4.97644,16.2542,6.38604e-05,0.000731111,-0.00083845,0.00129987,-0.000504902,-0.974749,0.00107515,0.00845115,1462,1737,4.9765,-16.2542
245,-713,4.97632,16.1752,9.49446e-05,0.000706326,-0.000880906,0.00133307,-0.000531803,-0.952406,0.00110932,0.0101769,1469,1737,4.97632,-16.1752
252,-713,4.98999,16.0886,9.41824e-05,0.000755968,-0.000876851,0.00136228,-0.000512132,-0.965819,0.00111868,0.0104643,1476,1737,4.99005,-16.0886
259,-713,5.00183,15.9869,0.000156076,0.000851257,-0.000813803,0.00138859,-0.000381259,-0.98723,0.00107558,0.0111584,1483,1737,5.00181,-15.987
266,-713,4.98669,15.9087,0.000133675,0.000932681,-0.000743251,0.00137699,-0.000310638,-1.032,0.00103717,0.0105848,1490,1737,4.98674,-15.9087
273,-713,4.95667,15.8107,-3.37691e-06,0.00121941,-0.000571444,0.00144489,-0.000228853,-1.19498,0.00104791,0.00916101,1497,1737,4.95667,-15.8107
280,-713,4.94995,15.6864,-0.00023628,0.00180972,-0.000297788,0.00185218,-0.00027874,-1.42916,0.00133742,0.0100717,1504,1737,4.94992,-15.6864
287,-713,4.95227,15.5863,-0.000156348,0.00199923,0.00042532,0.00208011,-0.000237233,1.38287,0.0014722,0.0110369,1511,1737,4.95221,-15.5864
294,-713,4.97192,15.4961,0.000708487,0.00110583,0.000992416,0.00191926,-0.000104948,0.884187,0.00131589,0.0159781,1518,1737,4.97194,-15.496
301,-713,4.95496,15.3558,0.00121757,0.000360681,0.00148646,0.0023361,-0.00075785,0.645086,0.00186215,0.0172089,1525,1737,4.95497,-15.3559
308,-713,4.92859,15.2266,0.00127886,-0.000543172,0.00223152,0.00277816,-0.00204247,0.591599,0.00279397,0.0181651,1532,1737,4.92863,-15.2266
315,-713,4.9447,15.1315,0.00134417,-0.00210944,0.00346256,0.00348662,-0.00425189,0.554091,0.00447511,0.0253287,1539,1737,4.94465,-15.1314
322,-713,4.7655,14.9309,0.00227185,-0.00379043,0.00415941,0.00438741,-0.00590599,0.47052,0.00596441,0.0321345,1546,1737,4.7655,-14.9309
329,-713,4.78552,14.7037,0.00317775,-0.00584193,0.00489465,0.00532346,-0.00798764,0.413146,0.0077363,0.0365363,1553,1737,4.78557,-14.7038
336,-713,4.66895,14.9285,0.00424979,-0.00810024,0.00515157,0.00611651,-0.00996696,0.347643,0.00937408,0.0419861,1560,1737,4.66896,-14.9285
343,-713,5.19092,15.262,0.00533373,-0.0104934,0.00523519,0.00690867,-0.0120684,0.292224,0.0110906,0.0489169,1567,1737,5.19087,-15.2619
350,-713,5.49963,15.0912,0,0,0,0,0,0,0,-1,1574,1737,5.49969,-15.0912
357,-713,4.89734,14.5172,0,0,0,0,0,0,0,-1,1581,1737,4.89739,-14.5172
364,-713,4.16882,15.001,0,0,0,0,0,0,0,-1,1588,1737,4.16878,-15.001
371,-713,4.76038,14.5554,0,0,0,0,0,0,0,-1,1595,1737,4.76039,-14.5554
378,-713,1.35742,15.0067,0,0,0,0,0,0,0,-1,1602,1737,1.35742,-15.0068
385,-713,5.3429,14.0168,0,0,0,0,0,0,0,-1,1609,1737,5.34292,-14.0169
392,-713,4.18201,13.3433,0,0,0,0,0,0,0,-1,1616,1737,4.18198,-13.3433
399,-713,1.93323,14.2748,0,0,0,0,0,0,0,-1,1623,1737,1.93325,-14.2748
406,-713,2.13525,15.2334,0,0,0,0,0,0,0,-1,1630,1737,2.13526,-15.2334
413,-713,2.59546,16.7579,0,0,0,0,0,0,0,-1,1637,1737,2.5955,-16.7579
420,-713,0,0,0,0,0,0,0,0,0,-1,1644,1737,0,0
427,-713,0,0,0,0,0,0,0,0,0,-1,1651,1737,0,0
434,-713,0,0,0,0,0,0,0,0,0,-1,1658,1737,0,0
441,-713,0,0,0,0,0,0,0,0,0,-1,1665,1737,0,0
448,-713,0,0,0,0,0,0,0,0,0,-1,1672,1737,0,0
455,-713,0,0,0,0,0,0,0,0,0,-1,1679,1737,0,0
462,-713,0,0,0,0,0,0,0,0,0,-1,1686,1737,0,0
469,-713,0,0,0,0,0,0,0,0,0,-1,1693,1737,0,0
476,-713,0,0,0,0,0,0,0,0,0,-1,1700,1737,0,0
483,-713,0,0,0,0,0,0,0,0,0,-1,1707,1737,0,0
490,-713,0,0,0,0,0,0,0,0,0,-1,1714,1737,0,0
497,-713,0,0,0,0,0,0,0,0,0,-1,1721,1737,0,0
504,-713,0,0,0,0,0,0,0,0,0,-1,1728,1737,0,0
511,-713,0,0,0,0,0,0,0,0,0,-1,1735,1737,0,0
518,-713,0,0,0,0,0,0,0,0,0,-1,1742,1737,0,0
525,-713,0,0,0,0,0,0,0,0,0,-1,1749,1737,0,0
532,-713,0,0,0,0,0,0,0,0,0,-1,1756,1737,0,0
539,-713,0,0,0,0,0,0,0,0,0,-1,1763,1737,0,0
546,-713,0,0,0,0,0,0,0,0,0,-1,1770,1737,0,0
553,-713,0,0,0,0,0,0,0,0,0,-1,1777,1737,0,0
560,-713,0,0,0,0,0,0,0,0,0,-1,1784,1737,0,0
567,-713,0,0,0,0,0,0,0,0,0,-1,1791,1737,0,0
574,-713,0,0,0,0,0,0,0,0,0,-1,1798,1737,0,0
581,-713,0,0,0,0,0,0,0,0,0,-1,1805,1737,0,0
588,-713,0,0,0,0,0,0,0,0,0,-1,1812,1737,0,0
595,-713,0,0,0,0,0,0,0,0,0,-1,1819,1737,0,0
602,-713,0,0,0,0,0,0,0,0,0,-1,1826,1737,0,0
609,-713,0,0,0,0,0,0,0,0,0,-1,1833,1737,0,0
616,-713,0,0,0,0,0,0,0,0,0,-1,1840,1737,0,0
623,-713,0,0,0,0,0,0,0,0,0,-1,1847,1737,0,0
630,-713,0,0,0,0,0,0,0,0,0,-1,1854,1737,0,0
637,-713,0,0,0,0,0,0,0,0,0,-1,1861,1737,0,0
644,-713,0,0,0,0,0,0,0,0,0,-1,1868,1737,0,0
651,-713,0,0,0,0,0,0,0,0,0,-1,1875,1737,0,0
658,-713,0,0,0,0,0,0,0,0,0,-1,1882,1737,0,0
665,-713,0,0,0,0,0,0,0,0,0,-1,1889,1737,0,0
672,-713,0,0,0,0,0,0,0,0,0,-1,1896,1737,0,0
679,-713,0,0,0,0,0,0,0,0,0,-1,1903,1737,0,0
686,-713,0,0,0,0,0,0,0,0,0,-1,1910,1737,0,0
693,-713,0,0,0,0,0,0,0,0,0,-1,1917,1737,0,0
700,-713,0,0,0,0,0,0,0,0,0,-1,1924,1737,0,0
707,-713,0,0,0,0,0,0,0,0,0,-1,1931,1737,0,0
714,-713,0,0,0,0,0,0,0,0,0,-1,1938,1737,0,0
721,-713,0,0,0,0,0,0,0,0,0,-1,1945,1737,0,0
728,-713,0,0,0,0,0,0,0,0,0,-1,1952,1737,0,0
735,-713,0,0,0,0,0,0,0,0,0,-1,1959,1737,0,0
742,-713,0,0,0,0,0,0,0,0,0,-1,1966,1737,0,0
749,-713,0,0,0,0,0,0,0,0,0,-1,1973,1737,0,0
756,-713,0,0,0,0,0,0,0,0,0,-1,1980,1737,0,0
763,-713,0,0,0,0,0,0,0,0,0,-1,1987,1737,0,0
770,-713,0,0,0,0,0,0,0,0,0,-1,1994,1737,0,0
777,-713,0,0,0,0,0,0,0,0,0,-1,2001,1737,0,0
784,-713,0,0,0,0,0,0,0,0,0,-1,2008,1737,0,0
791,-713,0,0,0,0,0,0,0,0,0,-1,2015,1737,0,0
798,-713,0,0,0,0,0,0,0,0,0,-1,2022,1737,0,0
805,-713,0,0,0,0,0,0,0,0,0,-1,2029,1737,0,0
812,-713,0,0,0,0,0,0,0,0,0,-1,2036,1737,0,0
-700,-720,0,0,0,0,0,0,0,0,0,-1,524,1744,0,0
-693,-720,0,0,0,0,0,0,0,0,0,-1,531,1744,0,0
-686,-720,0,0,0,0,0,0,0,0,0,-1,538,1744,0,0
-679,-720,0,0,0,0,0,0,0,0,0,-1,545,1744,0,0
-672,-720,0,0,0,0,0,0,0,0,0,-1,552,1744,0,0
-665,-720,0,0,0,0,0,0,0,0,0,-1,559,1744,0,0
-658,-720,0,0,0,0,0,0,0,0,0,-1,566,1744,0,0
-651,-720,0,0,0,0,0,0,0,0,0,-1,573,1744,0,0
-644,-720,0,0,0,0,0,0,0,0,0,-1,580,1744,0,0
-637,-720,0,0,0,0,0,0,0,0,0,-1,587,1744,0,0
-630,-720,0,0,0,0,0,0,0,0,0,-1,594,1744,0,0
-623,-720,0,0,0,0,0,0,0,0,0,-1,601,1744,0,0
-616,-720,0,0,0,0,0,0,0,0,0,-1,608,1744,0,0
-609,-720,0,0,0,0,0,0,0,0,0,-1,615,1744,0,0
-602,-720,0,0,0,0,0,0,0,0,0,-1,622,1744,0,0
-595,-720,0,0,0,0,0,0,0,0,0,-1,629,1744,0,0
-588,-720,0,0,0,0,0,0,0,0,0,-1,636,1744,0,0
-581,-720,0,0,0,0,0,0,0,0,0,-1,643,1744,0,0
-574,-720,0,0,0,0,0,0,0,0,0,-1,650,1744,0,0
-567,-720,0,0,0,0,0,0,0,0,0,-1,657,1744,0,0
-560,-720,0,0,0,0,0,0,0,0,0,-1,664,1744,0,0
-553,-720,0,0,0,0,0,0,0,0,0,-1,671,1744,0,0
-546,-720,0,0,0,0,0,0,0,0,0,-1,678,1744,0,0
-539,-720,0,0,0,0,0,0,0,0,0,-1,685,1744,0,0
-532,-720,0,0,0,0,0,0,0,0,0,-1,692,1744,0,0
-525,-720,0,0,0,0,0,0,0,0,0,-1,699,1744,0,0
-518,-720,0,0,0,0,0,0,0,0,0,-1,706,1744,0,0
-511,-720,0,0,0,0,0,0,0,0,0,-1,713,1744,0,0
-504,-720,0,0,0,0,0,0,0,0,0,-1,720,1744,0,0
-497,-720,0,0,0,0,0,0,0,0,0,-1,727,1744,0,0
-490,-720,0,0,0,0,0,0,0,0,0,-1,734,1744,0,0
-483,-720,0,0,0,0,0,0,0,0,0,-1,741,1744,0,0
-476,-720,0,0,0,0,0,0,0,0,0,-1,748,1744,0,0
-469,-720,0,0,0,0,0,0,0,0,0,-1,755,1744,0,0
-462,-720,0,0,0,0,0,0,0,0,0,-1,762,1744,0,0
-455,-720,0,0,0,0,0,0,0,0,0,-1,769,1744,0,0
-448,-720,0,0,0,0,0,0,0,0,0,-1,776,1744,0,0
-441,-720,0,0,0,0,0,0,0,0,0,-1,783,1744,0,0
-434,-720,0,0,0,0,0,0,0,0,0,-1,790,1744,0,0
-427,-720,0,0,0,0,0,0,0,0,0,-1,797,1744,0,0
-420,-720,0,0,0,0,0,0,0,0,0,-1,804,1744,0,0
-413,-720,0,0,0,0,0,0,0,0,0,-1,811,1744,0,0
-406,-720,0,0,0,0,0,0,0,0,0,-1,818,1744,0,0
-399,-720,0,0,0,0,0,0,0,0,0,-1,825,1744,0,0
-392,-720,0,0,0,0,0,0,0,0,0,-1,832,1744,0,0
-385,-720,0,0,0,0,0,0,0,0,0,-1,839,1744,0,0
-378,-720,0,0,0,0,0,0,0,0,0,-1,846,1744,0,0
-371,-720,0,0,0,0,0,0,0,0,0,-1,853,1744,0,0
-364,-720,0,0,0,0,0,0,0,0,0,-1,860,1744,0,0
-357,-720,0,0,0,0,0,0,0,0,0,-1,867,1744,0,0
-350,-720,0,0,0,0,0,0,0,0,0,-1,874,1744,0,0
-343,-720,0,0,0,0,0,0,0,0,0,-1,881,1744,0,0
-336,-720,0,0,0,0,0,0,0,0,0,-1,888,1744,0,0
-329,-720,0,0,0,0,0,0,0,0,0,-1,895,1744,0,0
-322,-720,0,0,0,0,0,0,0,0,0,-1,902,1744,0,0
-315,-720,0,0,0,0,0,0,0,0,0,-1,909,1744,0,0
-308,-720,0,0,0,0,0,0,0,0,0,-1,916,1744,0,0
-301,-720,0,0,0,0,0,0,0,0,0,-1,923,1744,0,0
-294,-720,0,0,0,0,0,0,0,0,0,-1,930,1744,0,0
-287,-720,0,0,0,0,0,0,0,0,0,-1,937,1744,0,0
-280,-720,6.13525,11.8578,0,0,0,0,0,0,0,-1,944,1744,6.13524,-11.8578
-273,-720,8.56421,9.86377,0,0,0,0,0,0,0,-1,951,1744,8.56423,-9.86374
-266,-720,4.37134,7.47217,0,0,0,0,0,0,0,-1,958,1744,4.37132,-7.47215
-259,-720,2.38904,5.20947,0,0,0,0,0,0,0,-1,965,1744,2.38906,-5.20952
-252,-720,3.71014,6.78967,0,0,0,0,0,0,0,-1,972,1744,3.71016,-6.78973
-245,-720,5.77435,17.4977,0,0,0,0,0,0,0,-1,979,1744,5.77436,-17.4977
-238,-720,5.41748,16.5959,0,0,0,0,0,0,0,-1,986,1744,5.41747,-16.596
-231,-720,4.99957,15.5052,0,0,0,0,0,0,0,-1,993,1744,4.9996,-15.5052
-224,-720,5.01013,14.4376,0,0,0,0,0,0,0,-1,1000,1744,5.01011,-14.4376
-217,-720,5.15948,13.595,0,0,0,0,0,0,0,-1,1007,1744,5.15948,-13.5949
-210,-720,6.45734,12.3599,0,0,0,0,0,0,0,-1,1014,1744,6.45737,-12.3599
-203,-720,4.76208,12.6395,0,0,0,0,0,0,0,-1,1021,1744,4.76213,-12.6395
-196,-720,4.80322,13.7994,0,0,0,0,0,0,0,-1,1028,1744,4.8032,-13.7994
-189,-720,5.01685,14.2439,-0.0226887,-0.00622574,-0.00446407,-0.00509319,-0.0238213,-1.32233,0.0144847,0.0481016,1035,1744,5.01683,-14.2439
-182,-720,5.24219,14.5006,-0.0229781,-0.00618059,-0.00395752,-0.00529489,-0.0238638,-1.35062,0.0144708,0.0413534,1042,1744,5.24215,-14.5006
-175,-720,5.12756,14.6501,-0.0223395,-0.00564774,-0.00292966,-0.00514848,-0.0228387,-1.402,0.0138328,0.0482454,1049,1744,5.12758,-14.6501
-168,-720,5.03711,14.7782,-0.0207305,-0.00477108,-0.00208951,-0.00450205,-0.0209995,-1.44274,0.0127664,0.0389456,1056,1744,5.03715,-14.7782
-161,-720,4.80383,14.8936,-0.0188247,-0.00379313,-0.0016854,-0.00360647,-0.0190113,-1.4605,0.0116595,0.027828,1063,1744,4.80386,-14.8935
-154,-720,4.90906,15.0674,-0.0162281,-0.00283886,-0.00110968,-0.00274752,-0.0163194,-1.48866,0.0100893,0.022941,1070,1744,4.90901,-15.0674
-147,-720,4.89612,15.2688,-0.0132993,-0.00146429,-0.000525371,-0.00144102,-0.0133226,-1.52652,0.00844247,0.0226314,1077,1744,4.8961,-15.2688
-140,-720,4.89441,15.3887,-0.0105389,-0.000441036,-0.000161125,-0.000438466,-0.0105414,-1.55485,0.00688613,0.0172254,1084,1744,4.89435,-15.3886
-133,-720,4.85815,15.4167,-0.00807551,0.000320977,0.00012839,0.00032294,-0.00807747,1.55551,0.00549579,0.0121411,1091,1744,4.8582,-15.4168
-126,-720,4.85046,15.5187,-0.00567909,0.000696633,0.000358605,0.00071674,-0.0056992,1.51479,0.00405952,0.0129883,1098,1744,4.85044,-15.5186
-119,-720,4.823,15.6284,-0.00362975,0.000751908,0.000396504,0.000787499,-0.00366534,1.48127,0.00274399,0.0159343,1105,1744,4.82294,-15.6284
-112,-720,4.8241,15.731,-0.00133062,0.00130196,0.000428446,0.00136993,-0.0013986,1.41346,0.00159844,0.0139178,1112,1744,4.82406,-15.731
-105,-720,4.8407,15.8447,0.000181373,0.00108197,0.000254655,0.00114899,0.000114354,1.31345,0.000730864,0.0131358,1119,1744,4.84065,-15.8447
-98,-720,4.84839,15.936,0.000371137,0.000225027,-1.8565e-05,0.000373459,0.000222705,-0.124429,0.000216946,0.0101806,1126,1744,4.84834,-15.936
-91,-720,4.83679,16.0103,0.000431355,-0.000103871,-0.000208124,0.000502759,-0.000175275,-0.3305,0.000406398,0.00959111,1133,1744,4.83679,-16.0103
-84,-720,4.81958,16.1161,0.000436414,-0.000177589,-0.000225353,0.000510246,-0.000251421,-0.316605,0.000448132,0.0103084,1140,1744,4.81963,-16.116
-77,-720,4.8064,16.2056,0.000617071,-0.000484441,-0.000316702,0.000701635,-0.000569005,-0.260929,0.000734936,0.0125276,1147,1744,4.80635,-16.2055
-70,-720,4.79932,16.2874,0.000548294,-0.000715817,-0.000519399,0.000734328,-0.00090185,-0.343935,0.000946297,0.0115702,1154,1744,4.79935,-16.2873
-63,-720,4.79529,16.3643,0.000102539,-0.000867279,-0.00080984,0.000561546,-0.00132629,-0.515641,0.00111935,0.0106533,1161,1744,4.79524,-16.3643
-56,-720,4.80872,16.4503,0.000154673,-0.00060966,-0.000517371,0.00041572,-0.000870707,-0.467293,0.000758046,0.012413,1168,1744,4.80866,-16.4504
-49,-720,4.79614,16.5289,9.27358e-05,-0.00024764,-0.000386696,0.000345038,-0.000499942,-0.5781,0.000490575,0.0178896,1175,1744,4.7962,-16.5289
-42,-720,4.79895,16.5602,0.000149727,-0.000254367,-0.000435674,0.000427925,-0.000532565,-0.56828,0.000555635,0.0194121,1182,1744,4.79893,-16.5602
-35,-720,4.83118,16.6162,0.000430291,-0.000189092,-0.000654762,0.000844908,-0.000603708,-0.564497,0.000840215,0.0171845,1189,1744,4.83117,-16.6163
-28,-720,4.82666,16.7001,0.00065833,-0.000116128,-0.00089124,0.00124283,-0.000700627,-0.58046,0.00113652,0.0110132,1196,1744,4.82672,-16.7001
-21,-720,4.81982,16.7848,0.000817426,-9.74881e-05,-0.00101489,0.00147319,-0.000753257,-0.573662,0.00130765,0.00948609,1203,1744,4.81977,-16.7847
-14,-720,4.81348,16.8165,0.000955624,-0.000255535,-0.00101763,0.00153423,-0.000834142,-0.516998,0.00138715,0.0112974,1210,1744,4.81345,-16.8165
-7,-720,4.82202,16.8719,0.00118764,-0.000493621,-0.000860746,0.00155015,-0.00085613,-0.398611,0.00140839,0.0120655,1217,1744,4.82208,-16.872
0,-720,4.83057,16.9243,0.00145081,-0.000957112,-0.000599452,0.00159179,-0.00109809,-0.230983,0.0015617,0.0122384,1224,1744,4.83055,-16.9244
7,-720,4.81897,16.9537,0.0017115,-0.00151832,-0.00032042,0.00174298,-0.0015498,-0.0979346,0.00190218,0.0141892,1231,1744,4.81896,-16.9538
14,-720,4.8385,16.9998,0.00198051,-0.00216802,-1.84674e-06,0.00198051,-0.00216802,-0.000445156,0.00239597,0.0129076,1238,1744,4.83853,-16.9998
21,-720,4.83679,17.0319,0.00192901,-0.00265564,0.000312803,0.00195025,-0.00267688,0.0678096,0.00268243,0.0103202,1245,1744,4.83683,-17.0318
28,-720,4.83118,17.0533,0.00167904,-0.00311896,0.000546978,0.0017406,-0.00318053,0.112085,0.00288147,0.0101618,1252,1744,4.83116,-17.0533
35,-720,4.83618,17.0842,0.00147841,-0.00348281,0.000636984,0.00155889,-0.00356328,0.125677,0.00303182,0.010643,1259,1744,4.83621,-17.0842
42,-720,4.83191,17.1028,0.00133755,-0.00367184,0.000738136,0.00144405,-0.00377834,0.143294,0.00311393,0.0115898,1266,1744,4.83191,-17.1028
49,-720,4.84216,17.1077,0.00106926,-0.00399225,0.000682873,0.00115977,-0.00408276,0.131777,0.00317973,0.011656,1273,1744,4.8422,-17.1077
56,-720,4.84619,17.1228,0.000743847,-0.00424936,0.00056922,0.000807915,-0.00431343,0.112083,0.00317933,0.0100181,1280,1744,4.84621,-17.1228
63,-720,4.8512,17.1373,0.000481059,-0.00449863,0.000537012,0.000538312,-0.00455588,0.106214,0.00323167,0.0115283,1287,1744,4.85115,-17.1374
70,-720,4.86597,17.152,0.000357023,-0.00445942,0.000561203,0.000421549,-0.00452395,0.114475,0.00316585,0.0124986,1294,1744,4.86601,-17.1519
77,-720,4.87036,17.1672,0.000257725,-0.00442818,0.000567556,0.000325488,-0.00449594,0.118831,0.00311147,0.0144204,1301,1744,4.87034,-17.1672
84,-720,4.89832,17.1503,0.000243254,-0.00453234,0.000579089,0.000312472,-0.00460156,0.118963,0.00317699,0.0133459,1308,1744,4.89837,-17.1502
91,-720,4.91064,17.1481,0.000352121,-0.00470878,0.000699197,0.000446943,-0.0048036,0.134793,0.0033613,0.012078,1315,1744,4.91063,-17.1481
98,-720,4.88623,17.1577,0.000470314,-0.00477733,0.000894185,0.000618496,-0.00492551,0.164225,0.00350806,0.0113874,1322,1744,4.88628,-17.1578
105,-720,4.87891,17.151,0.000628371,-0.00474759,0.0010589,0.000829423,-0.00494864,0.187636,0.00360749,0.011319,1329,1744,4.87888,-17.151
112,-720,4.89905,17.1436,0.000835731,-0.0046579,0.00123493,0.00110057,-0.00492273,0.211255,0.00370359,0.0105109,1336,1744,4.89903,-17.1435
119,-720,4.90869,17.1458,0.000949993,-0.00441483,0.00132815,0.00126079,-0.00472562,0.229873,0.00364412,0.010453,1343,1744,4.90871,-17.1458
126,-720,4.90491,17.113,0.00117625,-0.00407296,0.00136678,0.0015108,-0.00440752,0.240057,0.00355075,0.010128,1350,1744,4.90487,-17.113
133,-720,4.90466,17.0824,0.00127362,-0.00347087,0.00135489,0.00163327,-0.00383053,0.259466,0.00323844,0.0117268,1357,1744,4.90471,-17.0824
140,-720,4.9115,17.072,0.00116042,-0.00274687,0.00130751,0.00155759,-0.00314404,0.294901,0.00276552,0.0188839,1364,1744,4.91144,-17.072
147,-720,4.90906,17.0348,0.00097729,-0.00206294,0.00118903,0.00138708,-0.00247274,0.331896,0.00225766,0.0188356,1371,1744,4.90901,-17.0348
154,-720,4.90149,16.9966,0.000821427,-0.00135598,0.000986551,0.00120193,-0.00173648,0.368107,0.00170582,0.0124455,1378,1744,4.90149,-16.9966
161,-720,4.9093,16.9321,0.00070354,-0.000585018,0.000746369,0.00104524,-0.000926722,0.429339,0.0011392,0.00913659,1385,1744,4.9093,-16.9321
168,-720,4.90747,16.8621,0.000509304,-3.65576e-05,0.000424519,0.000741058,-0.000268312,0.499708,0.00060369,0.00905113,1392,1744,4.90747,-16.862
175,-720,4.89893,16.8065,0.000398115,0.000172995,0.00019388,0.00050974,6.13693e-05,0.522394,0.00032133,0.0144654,1399,1744,4.89888,-16.8065
182,-720,4.92151,16.7747,0.000460987,0.00021958,-6.07999e-05,0.000475435,0.000205132,-0.233307,0.000275351,0.0147796,1406,1744,4.92151,-16.7747
189,-720,4.93701,16.7236,0.000341091,0.000348335,-0.000279856,0.000624593,6.48335e-05,-0.791869,0.000396555,0.0123726,1413,1744,4.93702,-16.7236
196,-720,4.94836,16.6803,5.95612e-05,0.000529258,-0.000402727,0.00076061,-0.00017179,-1.04937,0.000572986,0.0130511,1420,1744,4.94831,-16.6803
203,-720,4.94739,16.6339,-6.66044e-05,0.000568019,-0.000548573,0.000884442,-0.000383027,-1.0476,0.000750618,0.0152633,1427,1744,4.94733,-16.6339
210,-720,4.92444,16.5765,-3.7746e-05,0.000618123,-0.000757459,0.00111559,-0.000535212,-0.989686,0.000972526,0.0136063,1434,1744,4.92439,-16.5765
217,-720,4.90442,16.48,-0.000118589,0.000645619,-0.00090935,0.00124988,-0.000722852,-0.984295,0.00115243,0.0128095,1441,1744,4.90447,-16.48
224,-720,4.90601,16.3918,-0.000148039,0.000613621,-0.00103981,0.00134015,-0.000874569,-0.960936,0.00128805,0.0101163,1448,1744,4.90602,-16.3918
231,-720,4.91333,16.3202,-0.000212557,0.000597904,-0.00114243,0.00140484,-0.00101949,-0.955831,0.00140557,0.010056,1455,1744,4.91333,-16.3202
238,-720,4.90588,16.238,-0.000178619,0.00061069,-0.00119205,0.00147172,-0.00103965,-0.945255,0.00145708,0.00854023,1462,1744,4.90583,-16.2381
245,-720,4.89771,16.165,-0.000112009,0.000707287,-0.00126056,0.00162309,-0.00102782,-0.942502,0.00154331,0.0101845,1469,1744,4.89774,-16.1651
252,-720,4.90125,16.0807,-8.8552e-05,0.000866372,-0.00125469,0.00173138,-0.000953557,-0.967208,0.00157168,0.010381,1476,1744,4.90123,-16.0806
259,-720,4.89355,15.9901,1.00439e-05,0.00104469,-0.00116277,0.00180003,-0.000745291,-0.994703,0.00151101,0.0101499,1483,1744,4.8936,-15.9901
266,-720,4.86926,15.9126,1.16468e-05,0.0012169,-0.00106886,0.00184131,-0.000612764,-1.04209,0.00147485,0.00883119,1490,1744,4.86932,-15.9126
273,-720,4.85413,15.806,-0.000113933,0.00154412,-0.000814298,0.00187714,-0.000446959,-1.18258,0.00142399,0.0152194,1497,1744,4.85409,-15.806
280,-720,4.80566,15.6882,-0.000373152,0.00227068,-0.000430817,0.00233912,-0.000441583,-1.41327,0.00172554,0.0209491,1504,1744,4.80572,-15.6883
287,-720,4.80249,15.5391,-0.000252824,0.00250953,0.000567993,0.00262176,-0.000365055,1.37572,0.00188137,0.0315689,1511,1744,4.80255,-15.5391
294,-720,4.88464,15.4108,0.000991105,0.00131226,0.00139025,0.00255118,-0.000247815,0.842894,0.00178912,0.0362275,1518,1744,4.8847,-15.4108
301,-720,4.76404,15.3138,0.00182649,0.000211717,0.00209869,0.00326774,-0.00122954,0.60177,0.00268392,0.0349947,1525,1744,4.76404,-15.3138
308,-720,4.74451,15.2255,0.00192768,-0.00104137,0.00320992,0.00397974,-0.00309342,0.568806,0.00409436,0.0361129,1532,1744,4.74448,-15.2255
315,-720,4.78101,15.1677,0.00197859,-0.00306018,0.00501402,0.00507059,-0.00615218,0.552588,0.00648949,0.0436649,1539,1744,4.78098,-15.1678
322,-720,4.4032,14.7986,0,0,0,0,0,0,0,-1,1546,1744,4.40317,-14.7986
329,-720,4.5448,14.5153,0,0,0,0,0,0,0,-1,1553,1744,4.54474,-14.5152
336,-720,4.45605,15.161,0,0,0,0,0,0,0,-1,1560,1744,4.45605,-15.161
343,-720,5.19104,15.8707,0,0,0,0,0,0,0,-1,1567,1744,5.19098,-15.8707
350,-720,4.0741,11.1836,0,0,0,0,0,0,0,-1,1574,1744,4.07412,-11.1836
357,-720,3.94836,13.0232,0,0,0,0,0,0,0,-1,1581,1744,3.94832,-13.0232
364,-720,4.34363,15.1404,0,0,0,0,0,0,0,-1,1588,1744,4.34367,-15.1404
371,-720,4.60352,14.8754,0,0,0,0,0,0,0,-1,1595,1744,4.60355,-14.8753
378,-720,4.03125,13.9476,0,0,0,0,0,0,0,-1,1602,1744,4.03122,-13.9476
385,-720,4.19629,14.5133,0,0,0,0,0,0,0,-1,1609,1744,4.19627,-14.5133
392,-720,0.0194092,12.0704,0,0,0,0,0,0,0,-1,1616,1744,0.019362,-12.0704
399,-720,-0.525269,12.6698,0,0,0,0,0,0,0,-1,1623,1744,-0.525208,-12.6698
406,-720,0,0,0,0,0,0,0,0,0,-1,1630,1744,0,0
413,-720,0,0,0,0,0,0,0,0,0,-1,1637,1744,0,0
420,-720,0,0,0,0,0,0,0,0,0,-1,1644,1744,0,0
427,-720,0,0,0,0,0,0,0,0,0,-1,1651,1744,0,0
434,-720,0,0,0,0,0,0,0,0,0,-1,1658,1744,0,0
441,-720,0,0,0,0,0,0,0,0,0,-1,1665,1744,0,0
448,-720,0,0,0,0,0,0,0,0,0,-1,1672,1744,0,0
455,-720,0,0,0,0,0,0,0,0,0,-1,1679,1744,0,0
462,-720,0,0,0,0,0,0,0,0,0,-1,1686,1744,0,0
469,-720,0,0,0,0,0,0,0,0,0,-1,1693,1744,0,0
476,-720,0,0,0,0,0,0,0,0,0,-1,1700,1744,0,0
483,-720,0,0,0,0,0,0,0,0,0,-1,1707,1744,0,0
490,-720,0,0,0,0,0,0,0,0,0,-1,1714,1744,0,0
497,-720,0,0,0,0,0,0,0,0,0,-1,1721,1744,0,0
504,-720,0,0,0,0,0,0,0,0,0,-1,1728,1744,0,0
511,-720,0,0,0,0,0,0,0,0,0,-1,1735,1744,0,0
518,-720,0,0,0,0,0,0,0,0,0,-1,1742,1744,0,0
525,-720,0,0,0,0,0,0,0,0,0,-1,1749,1744,0,0
532,-720,0,0,0,0,0,0,0,0,0,-1,1756,1744,0,0
539,-720,0,0,0,0,0,0,0,0,0,-1,1763,1744,0,0
546,-720,0,0,0,0,0,0,0,0,0,-1,1770,1744,0,0
553,-720,0,0,0,0,0,0,0,0,0,-1,1777,1744,0,0
560,-720,0,0,0,0,0,0,0,0,0,-1,1784,1744,0,0
567,-720,0,0,0,0,0,0,0,0,0,-1,1791,1744,0,0
574,-720,0,0,0,0,0,0,0,0,0,-1,1798,1744,0,0
581,-720,0,0,0,0,0,0,0,0,0,-1,1805,1744,0,0
588,-720,0,0,0,0,0,0,0,0,0,-1,1812,1744,0,0
595,-720,0,0,0,0,0,0,0,0,0,-1,1819,1744,0,0
602,-720,0,0,0,0,0,0,0,0,0,-1,1826,1744,0,0
609,-720,0,0,0,0,0,0,0,0,0,-1,1833,1744,0,0
616,-720,0,0,0,0,0,0,0,0,0,-1,1840,1744,0,0
623,-720,0,0,0,0,0,0,0,0,0,-1,1847,1744,0,0
630,-720,0,0,0,0,0,0,0,0,0,-1,1854,1744,0,0
637,-720,0,0,0,0,0,0,0,0,0,-1,1861,1744,0,0
644,-720,0,0,0,0,0,0,0,0,0,-1,1868,1744,0,0
651,-720,0,0,0,0,0,0,0,0,0,-1,1875,1744,0,0
658,-720,0,0,0,0,0,0,0,0,0,-1,1882,1744,0,0
665,-720,0,0,0,0,0,0,0,0,0,-1,1889,1744,0,0
672,-720,0,0,0,0,0,0,0,0,0,-1,1896,1744,0,0
679,-720,0,0,0,0,0,0,0,0,0,-1,1903,1744,0,0
686,-720,0,0,0,0,0,0,0,0,0,-1,1910,1744,0,0
693,-720,0,0,0,0,0,0,0,0,0,-1,1917,1744,0,0
700,-720,0,0,0,0,0,0,0,0,0,-1,1924,1744,0,0
707,-720,0,0,0,0,0,0,0,0,0,-1,1931,1744,0,0
714,-720,0,0,0,0,0,0,0,0,0,-1,1938,1744,0,0
721,-720,0,0,0,0,0,0,0,0,0,-1,1945,1744,0,0
728,-720,0,0,0,0,0,0,0,0,0,-1,1952,1744,0,0
735,-720,0,0,0,0,0,0,0,0,0,-1,1959,1744,0,0
742,-720,0,0,0,0,0,0,0,0,0,-1,1966,1744,0,0
749,-720,0,0,0,0,0,0,0,0,0,-1,1973,1744,0,0
756,-720,0,0,0,0,0,0,0,0,0,-1,1980,1744,0,0
763,-720,0,0,0,0,0,0,0,0,0,-1,1987,1744,0,0
770,-720,0,0,0,0,0,0,0,0,0,-1,1994,1744,0,0
777,-720,0,0,0,0,0,0,0,0,0,-1,2001,1744,0,0
784,-720,0,0,0,0,0,0,0,0,0,-1,2008,1744,0,0
791,-720,0,0,0,0,0,0,0,0,0,-1,2015,1744,0,0
798,-720,0,0,0,0,0,0,0,0,0,-1,2022,1744,0,0
805,-720,0,0,0,0,0,0,0,0,0,-1,2029,1744,0,0
812,-720,0,0,0,0,0,0,0,0,0,-1,2036,1744,0,0
-700,-727,0,0,0,0,0,0,0,0,0,-1,524,1751,0,0
-693,-727,0,0,0,0,0,0,0,0,0,-1,531,1751,0,0
-686,-727,0,0,0,0,0,0,0,0,0,-1,538,1751,0,0
-679,-727,0,0,0,0,0,0,0,0,0,-1,545,1751,0,0
-672,-727,0,0,0,0,0,0,0,0,0,-1,552,1751,0,0
-665,-727,0,0,0,0,0,0,0,0,0,-1,559,1751,0,0
-658,-727,0,0,0,0,0,0,0,0,0,-1,566,1751,0,0
-651,-727,0,0,0,0,0,0,0,0,0,-1,573,1751,0,0
-644,-727,0,0,0,0,0,0,0,0,0,-1,580,1751,0,0
-637,-727,0,0,0,0,0,0,0,0,0,-1,587,1751,0,0
-630,-727,0,0,0,0,0,0,0,0,0,-1,594,1751,0,0
-623,-727,0,0,0,0,0,0,0,0,0,-1,601,1751,0,0
-616,-727,0,0,0,0,0,0,0,0,0,-1,608,1751,0,0
-609,-727,0,0,0,0,0,0,0,0,0,-1,615,1751,0,0
-602,-727,0,0,0,0,0,0,0,0,0,-1,622,1751,0,0
-595,-727,0,0,0,0,0,0,0,0,0,-1,629,1751,0,0
-588,-727,0,0,0,0,0,0,0,0,0,-1,636,1751,0,0
-581,-727,0,0,0,0,0,0,0,0,0,-1,643,1751,0,0
-574,-727,0,0,0,0,0,0,0,0,0,-1,650,1751,0,0
-567,-727,0,0,0,0,0,0,0,0,0,-1,657,1751,0,0
-560,-727,0,0,0,0,0,0,0,0,0,-1,664,1751,0,0
-553,-727,0,0,0,0,0,0,0,0,0,-1,671,1751,0,0
-546,-727,0,0,0,0,0,0,0,0,0,-1,678,1751,0,0
-539,-727,0,0,0,0,0,0,0,0,0,-1,685,1751,0,0
-532,-727,0,0,0,0,0,0,0,0,0,-1,692,1751,0,0
-525,-727,0,0,0,0,0,0,0,0,0,-1,699,1751,0,0
-518,-727,0,0,0,0,0,0,0,0,0,-1,706,1751,0,0
-511,-727,0,0,0,0,0,0,0,0,0,-1,713,1751,0,0
-504,-727,0,0,0,0,0,0,0,0,0,-1,720,1751,0,0
-497,-727,0,0,0,0,0,0,0,0,0,-1,727,1751,0,0
-490,-727,0,0,0,0,0,0,0,0,0,-1,734,1751,0,0
-483,-727,0,0,0,0,0,0,0,0,0,-1,741,1751,0,0
-476,-727,0,0,0,0,0,0,0,0,0,-1,748,1751,0,0
-469,-727,0,0,0,0,0,0,0,0,0,-1,755,1751,0,0
-462,-727,0,0,0,0,0,0,0,0,0,-1,762,1751,0,0
-455,-727,0,0,0,0,0,0,0,0,0,-1,769,1751,0,0
-448,-727,0,0,0,0,0,0,0,0,0,-1,776,1751,0,0
-441,-727,0,0,0,0,0,0,0,0,0,-1,783,1751,0,0
-434,-727,0,0,0,0,0,0,0,0,0,-1,790,1751,0,0
-427,-727,0,0,0,0,0,0,0,0,0,-1,797,1751,0,0
-420,-727,0,0,0,0,0,0,0,0,0,-1,804,1751,0,0
-413,-727,0,0,0,0,0,0,0,0,0,-1,811,1751,0,0
-406,-727,0,0,0,0,0,0,0,0,0,-1,818,1751,0,0
-399,-727,0,0,0,0,0,0,0,0,0,-1,825,1751,0,0
-392,-727,0,0,0,0,0,0,0,0,0,-1,832,1751,0,0
-385,-727,0,0,0,0,0,0,0,0,0,-1,839,1751,0,0
-378,-727,0,0,0,0,0,0,0,0,0,-1,846,1751,0,0
-371,-727,0,0,0,0,0,0,0,0,0,-1,853,1751,0,0
-364,-727,0,0,0,0,0,0,0,0,0,-1,860,1751,0,0
-357,-727,0,0,0,0,0,0,0,0,0,-1,867,1751,0,0
-350,-727,0,0,0,0,0,0,0,0,0,-1,874,1751,0,0
-343,-727,0,0,0,0,0,0,0,0,0,-1,881,1751,0,0
-336,-727,0,0,0,0,0,0,0,0,0,-1,888,1751,0,0
-329,-727,0,0,0,0,0,0,0,0,0,-1,895,1751,0,0
-322,-727,0,0,0,0,0,0,0,0,0,-1,902,1751,0,0
-315,-727,0,0,0,0,0,0,0,0,0,-1,909,1751,0,0
-308,-727,0,0,0,0,0,0,0,0,0,-1,916,1751,0,0
-301,-727,0,0,0,0,0,0,0,0,0,-1,923,1751,0,0
-294,-727,0,0,0,0,0,0,0,0,0,-1,930,1751,0,0
-287,-727,0,0,0,0,0,0,0,0,0,-1,937,1751,0,0
-280,-727,0,0,0,0,0,0,0,0,0,-1,944,1751,0,0
-273,-727,0,0,0,0,0,0,0,0,0,-1,951,1751,0,0
-266,-727,4.24805,7.61145,0,0,0,0,0,0,0,-1,958,1751,4.24802,-7.6115
-259,-727,3.65228,5.4082,0,0,0,0,0,0,0,-1,965,1751,3.65229,-5.40818
-252,-727,7.05829,12.9366,0,0,0,0,0,0,0,-1,972,1751,7.0583,-12.9366
-245,-727,5.67279,14.0586,0,0,0,0,0,0,0,-1,979,1751,5.67278,-14.0586
-238,-727,6.02545,16.3462,0,0,0,0,0,0,0,-1,986,1751,6.02544,-16.3462
-231,-727,5.24078,15.9183,0,0,0,0,0,0,0,-1,993,1751,5.2408,-15.9184
-224,-727,5.15515,15.0778,0,0,0,0,0,0,0,-1,1000,1751,5.15517,-15.0777
-217,-727,5.04993,14.24,0,0,0,0,0,0,0,-1,1007,1751,5.04995,-14.24
-210,-727,4.99561,13.3716,0,0,0,0,0,0,0,-1,1014,1751,4.9956,-13.3716
-203,-727,2.81818,11.854,0,0,0,0,0,0,0,-1,1021,1751,2.81818,-11.854
-196,-727,4.10425,13.3547,0,0,0,0,0,0,0,-1,1028,1751,4.1043,-13.3548
-189,-727,5.38013,14.2888,0,0,0,0,0,0,0,-1,1035,1751,5.38011,-14.2888
-182,-727,5.62219,14.4683,0,0,0,0,0,0,0,-1,1042,1751,5.62217,-14.4682
-175,-727,5.42041,14.6467,0,0,0,0,0,0,0,-1,1049,1751,5.42042,-14.6468
-168,-727,5.13025,14.8505,0,0,0,0,0,0,0,-1,1056,1751,5.13026,-14.8504
-161,-727,4.75623,15.0061,0,0,0,0,0,0,0,-1,1063,1751,4.75627,-15.0061
-154,-727,5.26001,14.6604,-0.0254692,-0.00774709,-0.00272138,-0.00733861,-0.0258777,-1.42181,0.0153999,0.0458359,1070,1751,5.25995,-14.6604
-147,-727,5.01648,15.1194,-0.0209499,-0.00524678,-0.00177026,-0.00504969,-0.021147,-1.45992,0.0127525,0.0395704,1077,1751,5.01653,-15.1194
-140,-727,4.96313,15.2224,-0.0166483,-0.003262,-0.00109974,-0.00317226,-0.0167381,-1.48937,0.010266,0.0267568,1084,1751,4.96313,-15.2224
-133,-727,4.99707,15.3179,-0.0127674,-0.00172063,-0.000597873,-0.00168836,-0.0127997,-1.51688,0.00802972,0.0197651,1091,1751,4.99702,-15.3179
-126,-727,4.92432,15.4874,-0.00909512,-0.000778712,-0.000254689,-0.00077092,-0.00910291,-1.54021,0.00582865,0.0138291,1098,1751,4.92434,-15.4874
-119,-727,4.92639,15.6472,-0.00601298,-0.0003926,-0.000210575,-0.000384721,-0.00602086,-1.5334,0.00389201,0.0119161,1105,1751,4.92642,-15.6472
-112,-727,4.93591,15.7208,-0.00248705,0.000812948,-9.60063e-05,0.000815739,-0.00248985,-1.54174,0.00198839,0.0130326,1112,1751,4.93596,-15.7208
-105,-727,4.90466,15.8361,-0.000109878,0.000771622,-0.000283491,0.000854921,-0.000193177,-1.28501,0.00064407,0.0131096,1119,1751,4.90463,-15.836
-98,-727,4.88611,15.9369,8.74792e-05,-0.000293001,-0.000713793,0.000635949,-0.00084147,-0.655166,0.000855735,0.0109926,1126,1751,4.88608,-15.9369
-91,-727,4.89307,16.0162,0.000130461,-0.000709862,-0.000997705,0.000792866,-0.00137227,-0.586105,0.00126487,0.0105045,1133,1751,4.89302,-16.0163
-84,-727,4.88635,16.1021,0.000116911,-0.000770655,-0.00102408,0.000789231,-0.00144297,-0.580938,0.00130706,0.0108721,1140,1751,4.88633,-16.102
-77,-727,4.88208,16.1978,0.000333715,-0.00120595,-0.00110914,0.000914004,-0.00178623,-0.482027,0.00158586,0.0116273,1147,1751,4.88213,-16.1977
-70,-727,4.88794,16.2955,0.000133543,-0.00149759,-0.00133366,0.00088124,-0.00224528,-0.510973,0.00186148,0.0124732,1154,1751,4.88792,-16.2955
-63,-727,4.88062,16.3687,-0.000524221,-0.00212713,-0.00168017,0.000535856,-0.0031872,-0.562856,0.00232411,0.0101955,1161,1751,4.88061,-16.3686
-56,-727,4.86658,16.4513,-0.000306249,-0.00194381,-0.000944836,0.000125217,-0.00237528,-0.428376,0.00162686,0.0102602,1168,1751,4.86664,-16.4513
-49,-727,4.85754,16.5266,-0.000244582,-0.00170753,-0.000465704,-0.000108914,-0.0018432,-0.283472,0.00119415,0.0125125,1175,1751,4.85758,-16.5266
-42,-727,4.86243,16.5784,-0.000202661,-0.0021614,-0.000388582,-0.000128389,-0.00223567,-0.188858,0.00144955,0.0154017,1182,1751,4.86244,-16.5784
-35,-727,4.85986,16.6287,0.000143723,-0.00255179,-0.000470414,0.00022346,-0.00263153,-0.167907,0.00183338,0.014204,1189,1751,4.85987,-16.6287
-28,-727,4.86011,16.6857,0.000351112,-0.00286459,-0.000608509,0.000462408,-0.00297589,-0.180901,0.00215466,0.00884817,1196,1751,4.86008,-16.6856
-21,-727,4.86755,16.7626,0.000418438,-0.00315426,-0.000651849,0.000533654,-0.00326947,-0.174946,0.00237758,0.0104936,1203,1751,4.8676,-16.7626
-14,-727,4.86157,16.8077,0.000440039,-0.00353247,-0.000577574,0.00052231,-0.00361474,-0.141491,0.00260147,0.0120707,1210,1751,4.86156,-16.8078
-7,-727,4.86438,16.8685,0.000486106,-0.00376654,-0.000389492,0.000521484,-0.00380192,-0.0905837,0.00272513,0.0150688,1217,1751,4.86436,-16.8685
0,-727,4.88086,16.947,0.00053236,-0.00395299,-0.000194142,0.000540748,-0.00396138,-0.0431759,0.00283839,0.0140642,1224,1751,4.88082,-16.947
7,-727,4.86584,16.9647,0.000573705,-0.00412052,-5.40238e-05,0.000574326,-0.00412114,-0.0115065,0.00295752,0.0137085,1231,1751,4.86581,-16.9647
14,-727,4.86072,16.9961,0.00060672,-0.00424473,7.35529e-05,0.000607835,-0.00424584,0.0151564,0.00305341,0.0140803,1238,1751,4.86077,-16.9961
21,-727,4.85193,17.0413,0.000527499,-0.00421226,0.000176013,0.000534026,-0.00421878,0.0370675,0.00300638,0.0122693,1245,1751,4.85196,-17.0413
28,-727,4.87158,17.0605,0.000394619,-0.00409101,0.000227617,0.000406139,-0.00410253,0.0505705,0.00287996,0.0106769,1252,1751,4.87155,-17.0606
35,-727,4.89722,17.08,0.000388168,-0.00393509,0.000153052,0.000393579,-0.0039405,0.035343,0.00276754,0.0111961,1259,1751,4.89718,-17.0799
42,-727,4.86719,17.0876,0.00030417,-0.00359173,0.000102501,0.000306865,-0.00359443,0.0262858,0.00250485,0.0118134,1266,1751,4.86718,-17.0877
49,-727,4.84692,17.098,8.00351e-05,-0.00351927,-4.03156e-05,8.04865e-05,-0.00351972,-0.0111991,0.00237376,0.0108242,1273,1751,4.84691,-17.098
56,-727,4.84106,17.1279,-0.000110341,-0.0035851,-0.000223511,-9.60223e-05,-0.00359941,-0.0639729,0.00236825,0.00939863,1280,1751,4.84106,-17.1279
63,-727,4.85974,17.145,-0.000209279,-0.0037613,-0.00034882,-0.000175348,-0.00379523,-0.0969692,0.00247377,0.0110826,1287,1751,4.85969,-17.145
70,-727,4.86829,17.1586,-0.000219141,-0.0037888,-0.000453147,-0.000162515,-0.00384543,-0.124317,0.0025112,0.0130817,1294,1751,4.86832,-17.1585
77,-727,4.88013,17.1954,-0.000190235,-0.00386938,-0.000507521,-0.000121509,-0.0039381,-0.134597,0.00258585,0.0149059,1301,1751,4.88018,-17.1955
84,-727,4.89758,17.1472,-0.000148437,-0.00405615,-0.00053189,-7.73335e-05,-0.00412726,-0.132893,0.00272609,0.0140854,1308,1751,4.89761,-17.1472
91,-727,4.91406,17.1172,-5.03897e-05,-0.00428024,-0.000510104,1.02574e-05,-0.00434089,-0.118336,0.00289735,0.0140932,1315,1751,4.91404,-17.1172
98,-727,4.8988,17.1498,8.37299e-05,-0.0044756,-0.000440857,0.000125967,-0.00451783,-0.0955143,0.00305474,0.0126037,1322,1751,4.89886,-17.1497
105,-727,4.88428,17.1462,0.000233363,-0.00462121,-0.000327383,0.000255342,-0.00464319,-0.0670335,0.00318399,0.0128003,1329,1751,4.88426,-17.1463
112,-727,4.89282,17.1373,0.000409273,-0.00459631,-0.000174767,0.000415368,-0.0046024,-0.0348579,0.00321568,0.011201,1336,1751,4.89278,-17.1373
119,-727,4.90137,17.1226,0.000542061,-0.00439695,-6.33267e-05,0.000542873,-0.00439776,-0.0128189,0.00312854,0.0084386,1343,1751,4.90135,-17.1225
126,-727,4.90015,17.0914,0.00071738,-0.00404707,3.86531e-05,0.000717694,-0.00404738,0.0081121,0.00296657,0.00894609,1350,1751,4.9001,-17.0914
133,-727,4.90552,17.0944,0.000792211,-0.00347757,0.00010931,0.000795007,-0.00348036,0.0255786,0.00262568,0.0142568,1357,1751,4.90553,-17.0944
140,-727,4.90845,17.0806,0.000714697,-0.00272717,0.000179612,0.000724044,-0.00273651,0.0519963,0.00210756,0.0238663,1364,1751,4.90843,-17.0805
147,-727,4.90125,17.0466,0.00077169,-0.00196511,0.000179116,0.000783362,-0.00197679,0.0650772,0.00164248,0.019057,1371,1751,4.90123,-17.0466
154,-727,4.89587,16.9865,0.000799475,-0.00123546,0.000102698,0.000804645,-0.00124063,0.050297,0.00118975,0.0106993,1378,1751,4.89589,-16.9864
161,-727,4.88794,16.9257,0.00068464,-0.000516155,2.41318e-05,0.000685125,-0.00051664,0.0200857,0.000696109,0.00837116,1385,1751,4.88793,-16.9256
168,-727,4.86096,16.8759,0.000416844,-6.15086e-06,-9.02362e-05,0.000435289,-2.45963e-05,-0.201635,0.000298729,0.0109404,1392,1751,4.86096,-16.8759
175,-727,4.84082,16.8303,0.00021391,8.63074e-05,-4.20436e-05,0.000226517,7.37001e-05,-0.29133,0.000133412,0.0162286,1399,1751,4.84077,-16.8304
182,-727,4.87085,16.7848,0.000251194,-4.30846e-05,-0.000224002,0.00037206,-0.00016395,-0.494804,0.000317145,0.0181214,1406,1751,4.87082,-16.7848
189,-727,4.87146,16.7306,9.71506e-05,-0.00014127,-0.000513218,0.000504821,-0.00054894,-0.671282,0.000608567,0.0116004,1413,1751,4.87146,-16.7306
196,-727,4.8728,16.6827,-0.000333067,-2.42022e-05,-0.000656261,0.000495552,-0.000852822,-0.900957,0.000787541,0.0129716,1420,1751,4.87282,-16.6828
203,-727,4.86877,16.6122,-0.000493865,-9.84192e-07,-0.000805564,0.000594992,-0.00108984,-0.933839,0.000986625,0.015426,1427,1751,4.86882,-16.6121
210,-727,4.85339,16.5618,-0.000372419,8.40511e-05,-0.00105406,0.000934298,-0.00122267,-0.892017,0.00124903,0.015525,1434,1751,4.85341,-16.5617
217,-727,4.84863,16.4871,-0.000415246,0.000166777,-0.0012194,0.00112941,-0.00137788,-0.902533,0.00144995,0.0119782,1441,1751,4.84866,-16.4871
224,-727,4.84998,16.366,-0.000442278,0.000204296,-0.00138124,0.00129958,-0.00153756,-0.900357,0.00163994,0.0126904,1448,1751,4.84998,-16.366
231,-727,4.84595,16.2926,-0.000512791,0.00027132,-0.00151046,0.00143977,-0.00168124,-0.912377,0.00180372,0.0103184,1455,1751,4.84589,-16.2926
238,-727,4.84595,16.2152,-0.000460423,0.000371936,-0.00158032,0.00158996,-0.00167845,-0.91415,0.00188725,0.00998561,1462,1751,4.84593,-16.2153
245,-727,4.83289,16.1425,-0.000357103,0.000571661,-0.00166846,0.00183915,-0.0016246,-0.921128,0.00200108,0.00907093,1469,1751,4.83293,-16.1424
252,-727,4.82324,16.0599,-0.000300509,0.000826165,-0.00165715,0.00201311,-0.00148745,-0.949242,0.00202863,0.0106915,1476,1751,4.82326,-16.0599
259,-727,4.8197,15.9644,-0.000153303,0.00107934,-0.00153589,0.00211795,-0.00119192,-0.976203,0.00193573,0.0158731,1483,1751,4.81973,-15.9643
266,-727,4.82874,15.9205,-0.000109913,0.00133438,-0.00141798,0.00220351,-0.000979046,-1.02092,0.00188224,0.0236413,1490,1751,4.82877,-15.9206
273,-727,4.86731,15.871,-0.000188055,0.00170175,-0.00107363,0.00218707,-0.00067337,-1.14625,0.00172683,0.041963,1497,1751,4.86734,-15.871
280,-727,4.62256,15.7335,0,0,0,0,0,0,0,-1,1504,1751,4.62258,-15.7335
287,-727,4.61658,15.543,0,0,0,0,0,0,0,-1,1511,1751,4.61654,-15.5429
294,-727,4.69666,15.334,0,0,0,0,0,0,0,-1,1518,1751,4.6966,-15.334
301,-727,4.5387,15.3182,0,0,0,0,0,0,0,-1,1525,1751,4.5387,-15.3182
308,-727,4.52625,15.1515,0,0,0,0,0,0,0,-1,1532,1751,4.52624,-15.1514
315,-727,4.59644,15.0317,0,0,0,0,0,0,0,-1,1539,1751,4.59641,-15.0318
322,-727,5.62537,14.6351,0,0,0,0,0,0,0,-1,1546,1751,5.62536,-14.6351
329,-727,6.61853,11.6267,0,0,0,0,0,0,0,-1,1553,1751,6.61859,-11.6267
336,-727,3.34875,7.61792,0,0,0,0,0,0,0,-1,1560,1751,3.34872,-7.61791
343,-727,2.41699,8.72095,0,0,0,0,0,0,0,-1,1567,1751,2.41702,-8.72098
350,-727,3.89783,7.50195,0,0,0,0,0,0,0,-1,1574,1751,3.89782,-7.50193
357,-727,4.48462,10.2948,0,0,0,0,0,0,0,-1,1581,1751,4.48464,-10.2948
364,-727,4.47852,11.4702,0,0,0,0,0,0,0,-1,1588,1751,4.47846,-11.4703
371,-727,3.57446,12.9564,0,0,0,0,0,0,0,-1,1595,1751,3.57443,-12.9564
378,-727,3.19482,14.0498,0,0,0,0,0,0,0,-1,1602,1751,3.19486,-14.0498
385,-727,3.19275,14.7679,0,0,0,0,0,0,0,-1,1609,1751,3.19274,-14.768
392,-727,0,0,0,0,0,0,0,0,0,-1,1616,1751,0,0
399,-727,0,0,0,0,0,0,0,0,0,-1,1623,1751,0,0
406,-727,0,0,0,0,0,0,0,0,0,-1,1630,1751,0,0
413,-727,0,0,0,0,0,0,0,0,0,-1,1637,1751,0,0
420,-727,0,0,0,0,0,0,0,0,0,-1,1644,1751,0,0
427,-727,0,0,0,0,0,0,0,0,0,-1,1651,1751,0,0
434,-727,0,0,0,0,0,0,0,0,0,-1,1658,1751,0,0
441,-727,0,0,0,0,0,0,0,0,0,-1,1665,1751,0,0
448,-727,0,0,0,0,0,0,0,0,0,-1,1672,1751,0,0
455,-727,0,0,0,0,0,0,0,0,0,-1,1679,1751,0,0
462,-727,0,0,0,0,0,0,0,0,0,-1,1686,1751,0,0
469,-727,0,0,0,0,0,0,0,0,0,-1,1693,1751,0,0
476,-727,0,0,0,0,0,0,0,0,0,-1,1700,1751,0,0
483,-727,0,0,0,0,0,0,0,0,0,-1,1707,1751,0,0
490,-727,0,0,0,0,0,0,0,0,0,-1,1714,1751,0,0
497,-727,0,0,0,0,0,0,0,0,0,-1,1721,1751,0,0
504,-727,0,0,0,0,0,0,0,0,0,-1,1728,1751,0,0
511,-727,0,0,0,0,0,0,0,0,0,-1,1735,1751,0,0
518,-727,0,0,0,0,0,0,0,0,0,-1,1742,1751,0,0
525,-727,0,0,0,0,0,0,0,0,0,-1,1749,1751,0,0
532,-727,0,0,0,0,0,0,0,0,0,-1,1756,1751,0,0
539,-727,0,0,0,0,0,0,0,0,0,-1,1763,1751,0,0
546,-727,0,0,0,0,0,0,0,0,0,-1,1770,1751,0,0
553,-727,0,0,0,0,0,0,0,0,0,-1,1777,1751,0,0
560,-727,0,0,0,0,0,0,0,0,0,-1,1784,1751,0,0
567,-727,0,0,0,0,0,0,0,0,0,-1,1791,1751,0,0
574,-727,0,0,0,0,0,0,0,0,0,-1,1798,1751,0,0
581,-727,0,0,0,0,0,0,0,0,0,-1,1805,1751,0,0
588,-727,0,0,0,0,0,0,0,0,0,-1,1812,1751,0,0
595,-727,0,0,0,0,0,0,0,0,0,-1,1819,1751,0,0
602,-727,0,0,0,0,0,0,0,0,0,-1,1826,1751,0,0
609,-727,0,0,0,0,0,0,0,0,0,-1,1833,1751,0,0
616,-727,0,0,0,0,0,0,0,0,0,-1,1840,1751,0,0
623,-727,0,0,0,0,0,0,0,0,0,-1,1847,1751,0,0
630,-727,0,0,0,0,0,0,0,0,0,-1,1854,1751,0,0
637,-727,0,0,0,0,0,0,0,0,0,-1,1861,1751,0,0
644,-727,0,0,0,0,0,0,0,0,0,-1,1868,1751,0,0
651,-727,0,0,0,0,0,0,0,0,0,-1,1875,1751,0,0
658,-727,0,0,0,0,0,0,0,0,0,-1,1882,1751,0,0
665,-727,0,0,0,0,0,0,0,0,0,-1,1889,1751,0,0
672,-727,0,0,0,0,0,0,0,0,0,-1,1896,1751,0,0
679,-727,0,0,0,0,0,0,0,0,0,-1,1903,1751,0,0
686,-727,0,0,0,0,0,0,0,0,0,-1,1910,1751,0,0
693,-727,0,0,0,0,0,0,0,0,0,-1,1917,1751,0,0
700,-727,0,0,0,0,0,0,0,0,0,-1,1924,1751,0,0
707,-727,0,0,0,0,0,0,0,0,0,-1,1931,1751,0,0
714,-727,0,0,0,0,0,0,0,0,0,-1,1938,1751,0,0
721,-727,0,0,0,0,0,0,0,0,0,-1,1945,1751,0,0
728,-727,0,0,0,0,0,0,0,0,0,-1,1952,1751,0,0
735,-727,0,0,0,0,0,0,0,0,0,-1,1959,1751,0,0
742,-727,0,0,0,0,0,0,0,0,0,-1,1966,1751,0,0
749,-727,0,0,0,0,0,0,0,0,0,-1,1973,1751,0,0
756,-727,0,0,0,0,0,0,0,0,0,-1,1980,1751,0,0
763,-727,0,0,0,0,0,0,0,0,0,-1,1987,1751,0,0
770,-727,0,0,0,0,0,0,0,0,0,-1,1994,1751,0,0
777,-727,0,0,0,0,0,0,0,0,0,-1,2001,1751,0,0
784,-727,0,0,0,0,0,0,0,0,0,-1,2008,1751,0,0
791,-727,0,0,0,0,0,0,0,0,0,-1,2015,1751,0,0
798,-727,0,0,0,0,0,0,0,0,0,-1,2022,1751,0,0
805,-727,0,0,0,0,0,0,0,0,0,-1,2029,1751,0,0
812,-727,0,0,0,0,0,0,0,0,0,-1,2036,1751,0,0
-700,-734,0,0,0,0,0,0,0,0,0,-1,524,1758,0,0
-693,-734,0,0,0,0,0,0,0,0,0,-1,531,1758,0,0
-686,-734,0,0,0,0,0,0,0,0,0,-1,538,1758,0,0
-679,-734,0,0,0,0,0,0,0,0,0,-1,545,1758,0,0
-672,-734,0,0,0,0,0,0,0,0,0,-1,552,1758,0,0
-665,-734,0,0,0,0,0,0,0,0,0,-1,559,1758,0,0
-658,-734,0,0,0,0,0,0,0,0,0,-1,566,1758,0,0
-651,-734,0,0,0,0,0,0,0,0,0,-1,573,1758,0,0
-644,-734,0,0,0,0,0,0,0,0,0,-1,580,1758,0,0
-637,-734,0,0,0,0,0,0,0,0,0,-1,587,1758,0,0
-630,-734,0,0,0,0,0,0,0,0,0,-1,594,1758,0,0
-623,-734,0,0,0,0,0,0,0,0,0,-1,601,1758,0,0
-616,-734,0,0,0,0,0,0,0,0,0,-1,608,1758,0,0
-609,-734,0,0,0,0,0,0,0,0,0,-1,615,1758,0,0
-602,-734,0,0,0,0,0,0,0,0,0,-1,622,1758,0,0
-595,-734,0,0,0,0,0,0,0,0,0,-1,629,1758,0,0
-588,-734,0,0,0,0,0,0,0,0,0,-1,636,1758,0,0
-581,-734,0,0,0,0,0,0,0,0,0,-1,643,1758,0,0
-574,-734,0,0,0,0,0,0,0,0,0,-1,650,1758,0,0
-567,-734,0,0,0,0,0,0,0,0,0,-1,657,1758,0,0
-560,-734,0,0,0,0,0,0,0,0,0,-1,664,1758,0,0
-553,-734,0,0,0,0,0,0,0,0,0,-1,671,1758,0,0
-546,-734,0,0,0,0,0,0,0,0,0,-1,678,1758,0,0
-539,-734,0,0,0,0,0,0,0,0,0,-1,685,1758,0,0
-532,-734,0,0,0,0,0,0,0,0,0,-1,692,1758,0,0
-525,-734,0,0,0,0,0,0,0,0,0,-1,699,1758,0,0
-518,-734,0,0,0,0,0,0,0,0,0,-1,706,1758,0,0
-511,-734,0,0,0,0,0,0,0,0,0,-1,713,1758,0,0
-504,-734,0,0,0,0,0,0,0,0,0,-1,720,1758,0,0
-497,-734,0,0,0,0,0,0,0,0,0,-1,727,1758,0,0
-490,-734,0,0,0,0,0,0,0,0,0,-1,734,1758,0,0
-483,-734,0,0,0,0,0,0,0,0,0,-1,741,1758,0,0
-476,-734,0,0,0,0,0,0,0,0,0,-1,748,1758,0,0
-469,-734,0,0,0,0,0,0,0,0,0,-1,755,1758,0,0
-462,-734,0,0,0,0,0,0,0,0,0,-1,762,1758,0,0
-455,-734,0,0,0,0,0,0,0,0,0,-1,769,1758,0,0
-448,-734,0,0,0,0,0,0,0,0,0,-1,776,1758,0,0
-441,-734,0,0,0,0,0,0,0,0,0,-1,783,1758,0,0
-434,-734,0,0,0,0,0,0,0,0,0,-1,790,1758,0,0
-427,-734,0,0,0,0,0,0,0,0,0,-1,797,1758,0,0
-420,-734,0,0,0,0,0,0,0,0,0,-1,804,1758,0,0
-413,-734,0,0,0,0,0,0,0,0,0,-1,811,1758,0,0
-406,-734,0,0,0,0,0,0,0,0,0,-1,818,1758,0,0
-399,-734,0,0,0,0,0,0,0,0,0,-1,825,1758,0,0
-392,-734,0,0,0,0,0,0,0,0,0,-1,832,1758,0,0
-385,-734,0,0,0,0,0,0,0,0,0,-1,839,1758,0,0
-378,-734,0,0,0,0,0,0,0,0,0,-1,846,1758,0,0
-371,-734,0,0,0,0,0,0,0,0,0,-1,853,1758,0,0
-364,-734,0,0,0,0,0,0,0,0,0,-1,860,1758,0,0
-357,-734,0,0,0,0,0,0,0,0,0,-1,867,1758,0,0
-350,-734,0,0,0,0,0,0,0,0,0,-1,874,1758,0,0
-343,-734,0,0,0,0,0,0,0,0,0,-1,881,1758,0,0
-336,-734,0,0,0,0,0,0,0,0,0,-1,888,1758,0,0
-329,-734,0,0,0,0,0,0,0,0,0,-1,895,1758,0,0
-322,-734,0,0,0,0,0,0,0,0,0,-1,902,1758,0,0
-315,-734,0,0,0,0,0,0,0,0,0,-1,909,1758,0,0
-308,-734,0,0,0,0,0,0,0,0,0,-1,916,1758,0,0
-301,-734,0,0,0,0,0,0,0,0,0,-1,923,1758,0,0
-294,-734,0,0,0,0,0,0,0,0,0,-1,930,1758,0,0
-287,-734,0,0,0,0,0,0,0,0,0,-1,937,1758,0,0
-280,-734,0,0,0,0,0,0,0,0,0,-1,944,1758,0,0
-273,-734,0,0,0,0,0,0,0,0,0,-1,951,1758,0,0
-266,-734,0,0,0,0,0,0,0,0,0,-1,958,1758,0,0
-259,-734,0,0,0,0,0,0,0,0,0,-1,965,1758,0,0
-252,-734,6.44257,12.0737,0,0,0,0,0,0,0,-1,972,1758,6.44255,-12.0737
-245,-734,5.9212,12.6437,0,0,0,0,0,0,0,-1,979,1758,5.9212,-12.6437
-238,-734,2.90552,15.4933,0,0,0,0,0,0,0,-1,986,1758,2.90554,-15.4933
-231,-734,3.7489,15.7021,0,0,0,0,0,0,0,-1,993,1758,3.74889,-15.7022
-224,-734,5.53961,15.557,0,0,0,0,0,0,0,-1,1000,1758,5.53962,-15.557
-217,-734,5.44537,14.7571,0,0,0,0,0,0,0,-1,1007,1758,5.44536,-14.757
-210,-734,5.39703,13.9022,0,0,0,0,0,0,0,-1,1014,1758,5.39705,-13.9022
-203,-734,1.61005,12.5138,0,0,0,0,0,0,0,-1,1021,1758,1.61005,-12.5138
-196,-734,1.82971,12.6195,0,0,0,0,0,0,0,-1,1028,1758,1.82974,-12.6195
-189,-734,5.8573,13.1915,0,0,0,0,0,0,0,-1,1035,1758,5.85734,-13.1915
-182,-734,5.703,14.3937,0,0,0,0,0,0,0,-1,1042,1758,5.70299,-14.3937
-175,-734,4.53308,12.047,0,0,0,0,0,0,0,-1,1049,1758,4.53303,-12.0469
-168,-734,-1.01404,9.38818,0,0,0,0,0,0,0,-1,1056,1758,-1.01403,-9.38817
-161,-734,3.51257,9.94104,0,0,0,0,0,0,0,-1,1063,1758,3.51257,-9.94101
-154,-734,5.55432,14.4001,0,0,0,0,0,0,0,-1,1070,1758,5.55433,-14.4001
-147,-734,5.11072,15.2357,0,0,0,0,0,0,0,-1,1077,1758,5.11072,-15.2357
-140,-734,5.14966,15.2469,-0.025319,-0.00822641,-0.00293605,-0.00773614,-0.0258092,-1.40534,0.0152942,0.0413888,1084,1758,5.14964,-15.247
-133,-734,5.11523,15.3199,-0.0194678,-0.00564986,-0.00212757,-0.00532969,-0.0197879,-1.42143,0.0118229,0.0386073,1091,1758,5.11518,-15.3199
-126,-734,4.97009,15.4213,-0.0139814,-0.00392522,-0.00160159,-0.00367631,-0.0142304,-1.41661,0.00852976,0.0344138,1098,1758,4.97006,-15.4212
-119,-734,4.9989,15.6041,-0.00937737,-0.00302741,-0.00151229,-0.00268564,-0.00971914,-1.34854,0.00579548,0.0356952,1105,1758,4.99893,-15.6041
-112,-734,4.99158,15.6957,-0.00406455,-0.000864306,-0.00123292,-0.00044441,-0.00448445,-1.24255,0.00285306,0.0281392,1112,1758,4.99155,-15.6956
-105,-734,4.98047,15.8103,-0.000361851,-0.000633386,-0.00138366,0.000892689,-0.00188793,-0.736494,0.00163931,0.0208093,1119,1758,4.98045,-15.8104
-98,-734,5.03186,15.8922,-0.000157377,-0.00193934,-0.00199756,0.0011389,-0.00323561,-0.575622,0.00262054,0.018161,1126,1758,5.0318,-15.8922
-91,-734,5.0238,15.9691,-0.000133928,-0.00246712,-0.00236246,0.00133427,-0.00393533,-0.556058,0.00316353,0.0210713,1133,1758,5.02379,-15.9691
-84,-734,4.96326,16.0641,-0.000148356,-0.00248411,-0.00234503,0.00130352,-0.00393598,-0.554366,0.00314973,0.0179308,1140,1758,4.96322,-16.0641
-77,-734,4.95618,16.1996,0.000150354,-0.00298306,-0.00233314,0.001394,-0.00422671,-0.489727,0.0033797,0.0150235,1147,1758,4.95614,-16.1995
-70,-734,4.9353,16.2571,-0.000163448,-0.00323657,-0.00249072,0.00122654,-0.00462656,-0.509016,0.00356428,0.0118826,1154,1758,4.93525,-16.257
-63,-734,4.94275,16.3508,-0.000938312,-0.00484107,-0.00279766,0.000521293,-0.00630067,-0.480874,0.00438455,0.011154,1161,1758,4.94273,-16.3508
-56,-734,4.94495,16.4336,-0.000386663,-0.00485697,-0.00126312,-5.4447e-05,-0.00518918,-0.257188,0.00344145,0.0114506,1168,1758,4.9449,-16.4336
-49,-734,4.92749,16.5255,-0.000114553,-0.00486674,-0.000137369,-0.000110585,-0.00487071,-0.0288744,0.00321091,0.0115611,1175,1758,4.92751,-16.5255
-42,-734,4.90491,16.6021,1.75101e-05,-0.00576984,0.000118701,1.99438e-05,-0.00577227,0.0204989,0.00385485,0.0131249,1182,1758,4.90493,-16.6021
-35,-734,4.91309,16.6278,0.00052529,-0.00645464,0.000121881,0.000527417,-0.00645677,0.0174545,0.00449065,0.0138052,1189,1758,4.91304,-16.6278
-28,-734,4.92773,16.6836,0.000795821,-0.00694206,2.00577e-05,0.000795873,-0.00694211,0.00259211,0.00491489,0.00943787,1196,1758,4.92768,-16.6836
-21,-734,4.96033,16.7507,0.000813803,-0.00734367,-3.45384e-05,0.000813949,-0.00734382,-0.00423386,0.00518852,0.0147069,1203,1758,4.9603,-16.7507
-14,-734,4.90234,16.8049,0.000729637,-0.00771944,2.83962e-05,0.000729732,-0.00771954,0.00336081,0.00540605,0.0160354,1210,1758,4.90232,-16.8049
-7,-734,4.89795,16.8448,0.00063517,-0.007889,0.000196472,0.000639697,-0.00789352,0.0230326,0.00548802,0.0183708,1217,1758,4.89799,-16.8449
0,-734,4.91809,16.9158,0.000505547,-0.00787604,0.000385763,0.000523265,-0.00789376,0.0458957,0.00544532,0.0172777,1224,1758,4.91812,-16.9157
7,-734,4.89063,16.9641,0.000325462,-0.00778041,0.000474721,0.000353169,-0.00780812,0.0582995,0.00532704,0.0128922,1231,1758,4.89062,-16.9641
14,-734,4.87695,16.9886,9.93281e-05,-0.0075738,0.000518317,0.000134182,-0.00760865,0.0671432,0.00511775,0.0138609,1238,1758,4.87699,-16.9886
21,-734,4.86523,17.0281,-0.000112649,-0.00719952,0.000346251,-9.57726e-05,-0.0072164,0.0487034,0.00477933,0.0125996,1245,1758,4.86529,-17.0281
28,-734,4.88721,17.0483,-0.000192638,-0.00687233,0.000183193,-0.000187618,-0.00687735,0.027398,0.00452366,0.0115603,1252,1758,4.8872,-17.0484
35,-734,4.90845,17.0868,-5.05241e-05,-0.00641931,-1.98388e-05,-5.04625e-05,-0.00641937,-0.00311496,0.00426286,0.01361,1259,1758,4.90844,-17.0869
42,-734,4.90942,17.099,-0.000177843,-0.00582622,-0.0002071,-0.00017026,-0.0058338,-0.0365999,0.00383371,0.0116093,1266,1758,4.90948,-17.099
49,-734,4.8728,17.1136,-0.000509578,-0.00553922,-0.000525205,-0.00045532,-0.00559348,-0.102942,0.00358686,0.0100188,1273,1758,4.87275,-17.1137
56,-734,4.85864,17.1331,-0.000705048,-0.0054179,-0.000854383,-0.000554939,-0.00556801,-0.173917,0.00354155,0.00938943,1280,1758,4.85863,-17.133
63,-734,4.87439,17.1321,-0.000714343,-0.00547518,-0.0011255,-0.000461675,-0.00572785,-0.220833,0.00367436,0.0120249,1287,1758,4.87436,-17.1321
70,-734,4.86536,17.1418,-0.000636681,-0.00541717,-0.00140605,-0.000253795,-0.00580006,-0.265866,0.00378494,0.0129331,1294,1758,4.8654,-17.1418
77,-734,4.86877,17.2098,-0.000536574,-0.00543414,-0.00158063,-7.075e-05,-0.00589997,-0.286594,0.00390994,0.0168778,1301,1758,4.86878,-17.2098
84,-734,4.88025,17.165,-0.000461165,-0.00549724,-0.00164358,2.77692e-05,-0.00598617,-0.289144,0.00400007,0.0150952,1308,1758,4.88022,-17.165
91,-734,4.86963,17.1373,-0.000341692,-0.00560489,-0.0016597,0.000137966,-0.00608454,-0.281337,0.00410313,0.0154417,1315,1758,4.86968,-17.1373
98,-734,4.87244,17.1721,-0.000189459,-0.00571248,-0.00163421,0.00025786,-0.0061598,-0.267177,0.00419513,0.0128366,1322,1758,4.87241,-17.1721
105,-734,4.87524,17.1597,-5.40087e-05,-0.00582724,-0.00155299,0.000337231,-0.00621848,-0.246791,0.00426251,0.0146323,1329,1758,4.87519,-17.1597
112,-734,4.87427,17.1399,0.000120813,-0.0057014,-0.00139075,0.000435961,-0.00601654,-0.22284,0.00416396,0.0127616,1336,1758,4.87427,-17.1399
119,-734,4.88159,17.1173,0.00031923,-0.00538997,-0.00126176,0.000585652,-0.00565639,-0.208094,0.00398053,0.0130007,1343,1758,4.88156,-17.1173
126,-734,4.88574,17.0746,0.0005457,-0.00489421,-0.0010298,0.00073412,-0.00508263,-0.180966,0.00365777,0.0145922,1350,1758,4.8857,-17.0746
133,-734,4.87463,17.0643,0.000663123,-0.00406249,-0.0009437,0.000844609,-0.00424398,-0.189994,0.00314884,0.0142207,1357,1758,4.87461,-17.0643
140,-734,4.87268,17.0442,0.000679341,-0.00321694,-0.000908613,0.000880812,-0.00341841,-0.218204,0.00262233,0.0201312,1364,1758,4.87266,-17.0441
147,-734,4.8667,16.9907,0.00102431,-0.00233277,-0.000828835,0.0012178,-0.00252625,-0.229331,0.00220519,0.014744,1371,1758,4.8667,-16.9907
154,-734,4.85425,16.9845,0.00132231,-0.0015702,-0.000769951,0.00151449,-0.00176238,-0.244606,0.0018937,0.00922524,1378,1758,4.85426,-16.9845
161,-734,4.85229,16.9462,0.00127306,-0.000794325,-0.000743601,0.00151273,-0.001034,-0.311802,0.00147899,0.00822056,1385,1758,4.85231,-16.9461
168,-734,4.80017,16.8906,0.00076826,-0.000199518,-0.000694057,0.00113046,-0.000561716,-0.48098,0.000995201,0.0135333,1392,1758,4.80022,-16.8906
175,-734,4.79504,16.8434,0.000287201,-0.000120765,-0.000321901,0.000464307,-0.000297871,-0.502989,0.000443528,0.0169657,1399,1758,4.7951,-16.8434
182,-734,4.82947,16.7726,0.000184064,-0.00031133,-0.00035995,0.000373308,-0.000500574,-0.484036,0.000506316,0.0147426,1406,1758,4.82941,-16.7726
189,-734,4.81824,16.7186,-8.11156e-06,-0.000595033,-0.000750937,0.00050467,-0.00110781,-0.599126,0.000952429,0.0107579,1413,1758,4.81826,-16.7186
196,-734,4.8053,16.6855,-0.000638175,-0.000532726,-0.000946764,0.000362781,-0.00153368,-0.813214,0.00116241,0.0115659,1420,1758,4.80528,-16.6856
203,-734,4.80579,16.611,-0.000897877,-0.00058074,-0.00110952,0.000381485,-0.0018601,-0.856376,0.00138486,0.0121119,1427,1758,4.80573,-16.611
210,-734,4.80688,16.5476,-0.000692662,-0.000470609,-0.00139624,0.000819012,-0.00198228,-0.825074,0.00166316,0.013389,1434,1758,4.80692,-16.5476
217,-734,4.7915,16.4821,-0.000709127,-0.000356371,-0.00157957,0.00105664,-0.00212214,-0.840999,0.00186932,0.011317,1441,1758,4.79152,-16.4821
224,-734,4.78918,16.3745,-0.000747559,-0.000258846,-0.00176268,0.00127633,-0.00228273,-0.854273,0.00208203,0.0124129,1448,1758,4.78917,-16.3745
231,-734,4.77136,16.3142,-0.000841033,-0.000111305,-0.00191405,0.00147234,-0.00242468,-0.87958,0.00227223,0.0136536,1455,1758,4.77132,-16.3143
238,-734,4.76001,16.2251,-0.00078584,8.44881e-05,-0.00200385,0.00169988,-0.00240123,-0.89232,0.00237929,0.0161326,1462,1758,4.75996,-16.2251
245,-734,4.74634,16.0874,-0.000650861,0.000406764,-0.00210853,0.00205178,-0.00229588,-0.908262,0.00251144,0.0211947,1469,1758,4.74632,-16.0874
252,-734,4.77466,15.9799,-0.000554333,0.000789664,-0.00208853,0.00231164,-0.00207631,-0.941046,0.0025346,0.0280133,1476,1758,4.77468,-15.9798
259,-734,5.03564,16.0043,-0.000346809,0.00116,-0.00193433,0.00248247,-0.00166928,-0.971106,0.00241229,0.0404373,1483,1758,5.0357,-16.0042
266,-734,4.74841,15.9503,0,0,0,0,0,0,0,-1,1490,1758,4.74841,-15.9504
273,-734,4.87573,16.0387,0,0,0,0,0,0,0,-1,1497,1758,4.87572,-16.0387
280,-734,16.6191,7.38013,0,0,0,0,0,0,0,-1,1504,1758,16.6192,-7.38011
287,-734,14.1356,7.42139,0,0,0,0,0,0,0,-1,1511,1758,14.1356,-7.42135
294,-734,12.1967,6.48743,0,0,0,0,0,0,0,-1,1518,1758,12.1967,-6.48738
301,-734,10.1635,5.59741,0,0,0,0,0,0,0,-1,1525,1758,10.1634,-5.59746
308,-734,5.66711,14.3765,0,0,0,0,0,0,0,-1,1532,1758,5.66712,-14.3764
315,-734,5.57239,14.6705,0,0,0,0,0,0,0,-1,1539,1758,5.57239,-14.6705
322,-734,4.17163,11.5508,0,0,0,0,0,0,0,-1,1546,1758,4.17163,-11.5508
329,-734,5.45972,12.4125,0,0,0,0,0,0,0,-1,1553,1758,5.45969,-12.4125
336,-734,5.92188,13.8751,0,0,0,0,0,0,0,-1,1560,1758,5.92183,-13.8751
343,-734,5.54968,5.14221,0,0,0,0,0,0,0,-1,1567,1758,5.54973,-5.14225
350,-734,5.07397,6.73242,0,0,0,0,0,0,0,-1,1574,1758,5.07402,-6.73243
357,-734,5.05542,7.19189,0,0,0,0,0,0,0,-1,1581,1758,5.05541,-7.19184
364,-734,4.43896,10.4904,0,0,0,0,0,0,0,-1,1588,1758,4.43893,-10.4904
371,-734,4.22766,11.9165,0,0,0,0,0,0,0,-1,1595,1758,4.22769,-11.9165
378,-734,0,0,0,0,0,0,0,0,0,-1,1602,1758,0,0
385,-734,0,0,0,0,0,0,0,0,0,-1,1609,1758,0,0
392,-734,0,0,0,0,0,0,0,0,0,-1,1616,1758,0,0
399,-734,0,0,0,0,0,0,0,0,0,-1,1623,1758,0,0
406,-734,0,0,0,0,0,0,0,0,0,-1,1630,1758,0,0
413,-734,0,0,0,0,0,0,0,0,0,-1,1637,1758,0,0
420,-734,0,0,0,0,0,0,0,0,0,-1,1644,1758,0,0
427,-734,0,0,0,0,0,0,0,0,0,-1,1651,1758,0,0
434,-734,0,0,0,0,0,0,0,0,0,-1,1658,1758,0,0
441,-734,0,0,0,0,0,0,0,0,0,-1,1665,1758,0,0
448,-734,0,0,0,0,0,0,0,0,0,-1,1672,1758,0,0
455,-734,0,0,0,0,0,0,0,0,0,-1,1679,1758,0,0
462,-734,0,0,0,0,0,0,0,0,0,-1,1686,1758,0,0
469,-734,0,0,0,0,0,0,0,0,0,-1,1693,1758,0,0
476,-734,0,0,0,0,0,0,0,0,0,-1,1700,1758,0,0
483,-734,0,0,0,0,0,0,0,0,0,-1,1707,1758,0,0
490,-734,0,0,0,0,0,0,0,0,0,-1,1714,1758,0,0
497,-734,0,0,0,0,0,0,0,0,0,-1,1721,1758,0,0
504,-734,0,0,0,0,0,0,0,0,0,-1,1728,1758,0,0
511,-734,0,0,0,0,0,0,0,0,0,-1,1735,1758,0,0
518,-734,0,0,0,0,0,0,0,0,0,-1,1742,1758,0,0
525,-734,0,0,0,0,0,0,0,0,0,-1,1749,1758,0,0
532,-734,0,0,0,0,0,0,0,0,0,-1,1756,1758,0,0
539,-734,0,0,0,0,0,0,0,0,0,-1,1763,1758,0,0
546,-734,0,0,0,0,0,0,0,0,0,-1,1770,1758,0,0
553,-734,0,0,0,0,0,0,0,0,0,-1,1777,1758,0,0
560,-734,0,0,0,0,0,0,0,0,0,-1,1784,1758,0,0
567,-734,0,0,0,0,0,0,0,0,0,-1,1791,1758,0,0
574,-734,0,0,0,0,0,0,0,0,0,-1,1798,1758,0,0
581,-734,0,0,0,0,0,0,0,0,0,-1,1805,1758,0,0
588,-734,0,0,0,0,0,0,0,0,0,-1,1812,1758,0,0
595,-734,0,0,0,0,0,0,0,0,0,-1,1819,1758,0,0
602,-734,0,0,0,0,0,0,0,0,0,-1,1826,1758,0,0
609,-734,0,0,0,0,0,0,0,0,0,-1,1833,1758,0,0
616,-734,0,0,0,0,0,0,0,0,0,-1,1840,1758,0,0
623,-734,0,0,0,0,0,0,0,0,0,-1,1847,1758,0,0
630,-734,0,0,0,0,0,0,0,0,0,-1,1854,1758,0,0
637,-734,0,0,0,0,0,0,0,0,0,-1,1861,1758,0,0
644,-734,0,0,0,0,0,0,0,0,0,-1,1868,1758,0,0
651,-734,0,0,0,0,0,0,0,0,0,-1,1875,1758,0,0
658,-734,0,0,0,0,0,0,0,0,0,-1,1882,1758,0,0
665,-734,0,0,0,0,0,0,0,0,0,-1,1889,1758,0,0
672,-734,0,0,0,0,0,0,0,0,0,-1,1896,1758,0,0
679,-734,0,0,0,0,0,0,0,0,0,-1,1903,1758,0,0
686,-734,0,0,0,0,0,0,0,0,0,-1,1910,1758,0,0
693,-734,0,0,0,0,0,0,0,0,0,-1,1917,1758,0,0
700,-734,0,0,0,0,0,0,0,0,0,-1,1924,1758,0,0
707,-734,0,0,0,0,0,0,0,0,0,-1,1931,1758,0,0
714,-734,0,0,0,0,0,0,0,0,0,-1,1938,1758,0,0
721,-734,0,0,0,0,0,0,0,0,0,-1,1945,1758,0,0
728,-734,0,0,0,0,0,0,0,0,0,-1,1952,1758,0,0
735,-734,0,0,0,0,0,0,0,0,0,-1,1959,1758,0,0
742,-734,0,0,0,0,0,0,0,0,0,-1,1966,1758,0,0
749,-734,0,0,0,0,0,0,0,0,0,-1,1973,1758,0,0
756,-734,0,0,0,0,0,0,0,0,0,-1,1980,1758,0,0
763,-734,0,0,0,0,0,0,0,0,0,-1,1987,1758,0,0
770,-734,0,0,0,0,0,0,0,0,0,-1,1994,1758,0,0
777,-734,0,0,0,0,0,0,0,0,0,-1,2001,1758,0,0
784,-734,0,0,0,0,0,0,0,0,0,-1,2008,1758,0,0
791,-734,0,0,0,0,0,0,0,0,0,-1,2015,1758,0,0
798,-734,0,0,0,0,0,0,0,0,0,-1,2022,1758,0,0
805,-734,0,0,0,0,0,0,0,0,0,-1,2029,1758,0,0
812,-734,0,0,0,0,0,0,0,0,0,-1,2036,1758,0,0
-700,-741,0,0,0,0,0,0,0,0,0,-1,524,1765,0,0
-693,-741,0,0,0,0,0,0,0,0,0,-1,531,1765,0,0
-686,-741,0,0,0,0,0,0,0,0,0,-1,538,1765,0,0
-679,-741,0,0,0,0,0,0,0,0,0,-1,545,1765,0,0
-672,-741,0,0,0,0,0,0,0,0,0,-1,552,1765,0,0
-665,-741,0,0,0,0,0,0,0,0,0,-1,559,1765,0,0
-658,-741,0,0,0,0,0,0,0,0,0,-1,566,1765,0,0
-651,-741,0,0,0,0,0,0,0,0,0,-1,573,1765,0,0
-644,-741,0,0,0,0,0,0,0,0,0,-1,580,1765,0,0
-637,-741,0,0,0,0,0,0,0,0,0,-1,587,1765,0,0
-630,-741,0,0,0,0,0,0,0,0,0,-1,594,1765,0,0
-623,-741,0,0,0,0,0,0,0,0,0,-1,601,1765,0,0
-616,-741,0,0,0,0,0,0,0,0,0,-1,608,1765,0,0
-609,-741,0,0,0,0,0,0,0,0,0,-1,615,1765,0,0
-602,-741,0,0,0,0,0,0,0,0,0,-1,622,1765,0,0
-595,-741,0,0,0,0,0,0,0,0,0,-1,629,1765,0,0
-588,-741,0,0,0,0,0,0,0,0,0,-1,636,1765,0,0
-581,-741,0,0,0,0,0,0,0,0,0,-1,643,1765,0,0
-574,-741,0,0,0,0,0,0,0,0,0,-1,650,1765,0,0
-567,-741,0,0,0,0,0,0,0,0,0,-1,657,1765,0,0
-560,-741,0,0,0,0,0,0,0,0,0,-1,664,1765,0,0
-553,-741,0,0,0,0,0,0,0,0,0,-1,671,1765,0,0
-546,-741,0,0,0,0,0,0,0,0,0,-1,678,1765,0,0
-539,-741,0,0,0,0,0,0,0,0,0,-1,685,1765,0,0
-532,-741,0,0,0,0,0,0,0,0,0,-1,692,1765,0,0
-525,-741,0,0,0,0,0,0,0,0,0,-1,699,1765,0,0
-518,-741,0,0,0,0,0,0,0,0,0,-1,706,1765,0,0
-511,-741,0,0,0,0,0,0,0,0,0,-1,713,1765,0,0
-504,-741,0,0,0,0,0,0,0,0,0,-1,720,1765,0,0
-497,-741,0,0,0,0,0,0,0,0,0,-1,727,1765,0,0
-490,-741,0,0,0,0,0,0,0,0,0,-1,734,1765,0,0
-483,-741,0,0,0,0,0,0,0,0,0,-1,741,1765,0,0
-476,-741,0,0,0,0,0,0,0,0,0,-1,748,1765,0,0
-469,-741,0,0,0,0,0,0,0,0,0,-1,755,1765,0,0
-462,-741,0,0,0,0,0,0,0,0,0,-1,762,1765,0,0
-455,-741,0,0,0,0,0,0,0,0,0,-1,769,1765,0,0
-448,-741,0,0,0,0,0,0,0,0,0,-1,776,1765,0,0
-441,-741,0,0,0,0,0,0,0,0,0,-1,783,1765,0,0
-434,-741,0,0,0,0,0,0,0,0,0,-1,790,1765,0,0
-427,-741,0,0,0,0,0,0,0,0,0,-1,797,1765,0,0
-420,-741,0,0,0,0,0,0,0,0,0,-1,804,1765,0,0
-413,-741,0,0,0,0,0,0,0,0,0,-1,811,1765,0,0
-406,-741,0,0,0,0,0,0,0,0,0,-1,818,1765,0,0
-399,-741,0,0,0,0,0,0,0,0,0,-1,825,1765,0,0
-392,-741,0,0,0,0,0,0,0,0,0,-1,832,1765,0,0
-385,-741,0,0,0,0,0,0,0,0,0,-1,839,1765,0,0
-378,-741,0,0,0,0,0,0,0,0,0,-1,846,1765,0,0
-371,-741,0,0,0,0,0,0,0,0,0,-1,853,1765,0,0
-364,-741,0,0,0,0,0,0,0,0,0,-1,860,1765,0,0
-357,-741,0,0,0,0,0,0,0,0,0,-1,867,1765,0,0
-350,-741,0,0,0,0,0,0,0,0,0,-1,874,1765,0,0
-343,-741,0,0,0,0,0,0,0,0,0,-1,881,1765,0,0
-336,-741,0,0,0,0,0,0,0,0,0,-1,888,1765,0,0
-329,-741,0,0,0,0,0,0,0,0,0,-1,895,1765,0,0
-322,-741,0,0,0,0,0,0,0,0,0,-1,902,1765,0,0
-315,-741,0,0,0,0,0,0,0,0,0,-1,909,1765,0,0
-308,-741,0,0,0,0,0,0,0,0,0,-1,916,1765,0,0
-301,-741,0,0,0,0,0,0,0,0,0,-1,923,1765,0,0
-294,-741,0,0,0,0,0,0,0,0,0,-1,930,1765,0,0
-287,-741,0,0,0,0,0,0,0,0,0,-1,937,1765,0,0
-280,-741,0,0,0,0,0,0,0,0,0,-1,944,1765,0,0
-273,-741,0,0,0,0,0,0,0,0,0,-1,951,1765,0,0
-266,-741,0,0,0,0,0,0,0,0,0,-1,958,1765,0,0
-259,-741,0,0,0,0,0,0,0,0,0,-1,965,1765,0,0
-252,-741,0,0,0,0,0,0,0,0,0,-1,972,1765,0,0
-245,-741,0,0,0,0,0,0,0,0,0,-1,979,1765,0,0
-238,-741,1.66083,15.1331,0,0,0,0,0,0,0,-1,986,1765,1.66083,-15.1331
-231,-741,2.35559,15.3511,0,0,0,0,0,0,0,-1,993,1765,2.35558,-15.351
-224,-741,5.71527,15.6881,0,0,0,0,0,0,0,-1,1000,1765,5.71528,-15.6881
-217,-741,5.78229,15.248,0,0,0,0,0,0,0,-1,1007,1765,5.78231,-15.2481
-210,-741,5.8493,14.8081,0,0,0,0,0,0,0,-1,1014,1765,5.84933,-14.8081
-203,-741,0.0250854,12.8517,0,0,0,0,0,0,0,-1,1021,1765,0.0250615,-12.8517
-196,-741,0.178589,13.0951,0,0,0,0,0,0,0,-1,1028,1765,0.178619,-13.0951
-189,-741,0.345947,13.1218,0,0,0,0,0,0,0,-1,1035,1765,0.345937,-13.1219
-182,-741,1.48218,11.8832,0,0,0,0,0,0,0,-1,1042,1765,1.48213,-11.8832
-175,-741,-0.73584,11.2106,0,0,0,0,0,0,0,-1,1049,1765,-0.735797,-11.2106
-168,-741,-1.35522,10.4541,0,0,0,0,0,0,0,-1,1056,1765,-1.35521,-10.4542
-161,-741,-2.08435,10.4089,0,0,0,0,0,0,0,-1,1063,1765,-2.08432,-10.4089
-154,-741,2.46143,9.75415,0,0,0,0,0,0,0,-1,1070,1765,2.46145,-9.75416
-147,-741,4.5166,13.2251,0,0,0,0,0,0,0,-1,1077,1765,4.51657,-13.2251
-140,-741,5.32043,15.3505,0,0,0,0,0,0,0,-1,1084,1765,5.32042,-15.3504
-133,-741,4.8811,14.8281,-0.0286363,-0.0120415,-0.00488745,-0.010709,-0.0299688,-1.30464,0.0175357,0.0458018,1091,1765,4.88116,-14.8281
-126,-741,4.57422,14.9526,-0.0208162,-0.00932281,-0.00414034,-0.00798665,-0.0221524,-1.25863,0.0129545,0.0425413,1098,1765,4.57417,-14.9526
-119,-741,5.04065,15.6411,-0.0141729,-0.0076972,-0.00395342,-0.00582493,-0.0160451,-1.12851,0.00937879,0.0454112,1105,1765,5.04069,-15.6411
-112,-741,5.03491,15.7195,0,0,0,0,0,0,0,-1,1112,1765,5.03485,-15.7194
-105,-741,5.03589,15.879,-0.000674194,-0.0034964,-0.00341494,0.0016097,-0.0057803,-0.589475,0.00448739,0.0379401,1119,1765,5.03588,-15.879
-98,-741,5.19983,15.8639,-0.000451602,-0.00503902,-0.00422377,0.00206107,-0.0075517,-0.536653,0.00584392,0.0404151,1126,1765,5.19985,-15.8639
-91,-741,5.12793,15.9171,0,0,0,0,0,0,0,-1,1133,1765,5.1279,-15.9172
-84,-741,5.04553,15.9053,0,0,0,0,0,0,0,-1,1140,1765,5.04554,-15.9053
-77,-741,5.01343,15.9692,0,0,0,0,0,0,0,-1,1147,1765,5.01343,-15.9692
-70,-741,4.94702,16.1401,0,0,0,0,0,0,0,-1,1154,1765,4.94704,-16.1401
-63,-741,4.96252,16.3044,0,0,0,0,0,0,0,-1,1161,1765,4.96252,-16.3044
-56,-741,5.0304,16.3848,0,0,0,0,0,0,0,-1,1168,1765,5.03043,-16.3847
-49,-741,4.99817,16.5227,0,0,0,0,0,0,0,-1,1175,1765,4.99822,-16.5227
-42,-741,4.95728,16.5063,0,0,0,0,0,0,0,-1,1182,1765,4.95733,-16.5063
-35,-741,4.97546,16.6324,0.00147746,-0.0125755,0.00151241,0.00163839,-0.0127365,0.106005,0.00908647,0.0201205,1189,1765,4.97542,-16.6325
-28,-741,4.99146,16.7047,0.0018024,-0.0131418,0.00144402,0.00194065,-0.0132801,0.0954505,0.0095661,0.0135139,1196,1765,4.99149,-16.7048
-21,-741,5.01086,16.7672,0.00172722,-0.0133998,0.00131013,0.00183985,-0.0135124,0.0857576,0.00968003,0.0160873,1203,1765,5.01081,-16.7673
-14,-741,4.95789,16.8186,0.00151446,-0.0134814,0.00127691,0.00162242,-0.0135894,0.0843414,0.00964599,0.0180211,1210,1765,4.95783,-16.8186
-7,-741,4.96863,16.8169,0.00127794,-0.0133414,0.00131648,0.00139554,-0.013459,0.0890953,0.00947219,0.0166903,1217,1765,4.96857,-16.8168
0,-741,4.96899,16.8867,0.00102061,-0.0130226,0.00138108,0.00115514,-0.0131571,0.0971055,0.00918073,0.0159138,1224,1765,4.969,-16.8867
7,-741,4.89832,16.9395,0.000674092,-0.0126103,0.00132156,0.000804286,-0.0127405,0.0981994,0.00877407,0.0160955,1231,1765,4.89835,-16.9395
14,-741,4.9126,16.9771,0.000251423,-0.0120824,0.00117037,0.000361499,-0.0121925,0.0937758,0.00825147,0.0153302,1238,1765,4.91263,-16.977
21,-741,4.91077,17.0129,-0.000123277,-0.0113898,0.000710778,-7.86129e-05,-0.0114345,0.062756,0.00759691,0.012755,1245,1765,4.91074,-17.013
28,-741,4.88965,17.0642,-0.000238254,-0.0109479,0.000286096,-0.000230616,-0.0109555,0.0266885,0.00722805,0.0130795,1252,1765,4.88959,-17.0642
35,-741,4.90552,17.0785,-5.04065e-05,-0.0102703,-9.70121e-05,-4.94858e-05,-0.0102712,-0.00949133,0.00683105,0.0140991,1259,1765,4.90553,-17.0784
42,-741,4.93237,17.0935,-0.000339858,-0.00947442,-0.000453908,-0.000317358,-0.00949692,-0.0495286,0.00622819,0.0141962,1266,1765,4.93239,-17.0935
49,-741,4.90222,17.1261,-0.000893968,-0.00906099,-0.000985163,-0.000776811,-0.00917815,-0.118365,0.00587697,0.00983352,1273,1765,4.90221,-17.1261
56,-741,4.87866,17.1458,-0.00119533,-0.00880918,-0.00143747,-0.000932983,-0.00907153,-0.180521,0.00576193,0.00986545,1280,1765,4.87872,-17.1458
63,-741,4.88159,17.1285,-0.00125423,-0.00873863,-0.00181909,-0.000835528,-0.00915734,-0.226234,0.00584632,0.0141547,1287,1765,4.88158,-17.1285
70,-741,4.88342,17.1433,-0.00120956,-0.00854326,-0.00223786,-0.000580622,-0.0091722,-0.273978,0.00593074,0.0167746,1294,1765,4.88337,-17.1433
77,-741,4.87573,17.193,-0.00111482,-0.00843962,-0.00248702,-0.000350205,-0.00920423,-0.298269,0.00602281,0.013558,1301,1765,4.8757,-17.193
84,-741,4.85156,17.1858,-0.000997621,-0.00837015,-0.0025342,-0.000210554,-0.00915721,-0.301134,0.00603585,0.0150859,1308,1765,4.85154,-17.1858
91,-741,4.83411,17.1787,-0.000818542,-0.00831447,-0.00255218,-3.2099e-05,-0.00910091,-0.298913,0.00605661,0.0127078,1315,1765,4.8341,-17.1788
98,-741,4.84741,17.1707,-0.000613789,-0.0082426,-0.00254407,0.000156777,-0.00901317,-0.294104,0.00606171,0.0103717,1322,1765,4.84739,-17.1706
105,-741,4.86157,17.1165,-0.000422217,-0.00820447,-0.00248418,0.000303149,-0.00892983,-0.284096,0.0060568,0.0116793,1329,1765,4.86156,-17.1165
112,-741,4.87146,17.1084,-0.000124224,-0.00792973,-0.00234557,0.000526392,-0.00858034,-0.270579,0.00590352,0.0116973,1336,1765,4.87147,-17.1084
119,-741,4.87561,17.1021,0.000237007,-0.00742807,-0.00224125,0.000844238,-0.0080353,-0.264582,0.00565931,0.0140615,1343,1765,4.87566,-17.1021
126,-741,4.87341,17.0498,0.000624667,-0.00672414,-0.00198602,0.00112705,-0.00722651,-0.247761,0.00523396,0.0190939,1350,1765,4.87341,-17.0498
133,-741,4.86328,17.0448,0.00087139,-0.00549429,-0.00191358,0.00140234,-0.00602525,-0.270657,0.00455678,0.014463,1357,1765,4.86327,-17.0448
140,-741,4.82312,17.0248,0.00100891,-0.004483,-0.00192647,0.00161729,-0.00509138,-0.305888,0.00404266,0.0107891,1364,1765,4.82311,-17.0248
147,-741,4.82007,16.9971,0.00164743,-0.00336814,-0.00178552,0.00221813,-0.00393883,-0.309364,0.0036007,0.0100889,1371,1765,4.82011,-16.9971
154,-741,4.81921,16.978,0.00224231,-0.00244495,-0.00160953,0.00274177,-0.00294441,-0.300896,0.00328362,0.00847009,1378,1765,4.81918,-16.978
161,-741,4.81934,16.9408,0.00223456,-0.00150139,-0.00148165,0.00275083,-0.00201766,-0.335285,0.00276391,0.0102692,1385,1765,4.81932,-16.9408
168,-741,4.79846,16.8998,0.0013943,-0.000658996,-0.0013002,0.00202431,-0.00128901,-0.451212,0.00192858,0.0226159,1392,1765,4.79843,-16.8998
175,-741,4.72925,16.837,0,0,0,0,0,0,0,-1,1399,1765,4.72929,-16.837
182,-741,4.78296,16.771,0,0,0,0,0,0,0,-1,1406,1765,4.7829,-16.771
189,-741,4.77234,16.7267,0,0,0,0,0,0,0,-1,1413,1765,4.77231,-16.7267
196,-741,4.7533,16.6936,0,0,0,0,0,0,0,-1,1420,1765,4.75324,-16.6936
203,-741,4.75806,16.6199,0,0,0,0,0,0,0,-1,1427,1765,4.75809,-16.6198
210,-741,4.70093,16.5079,-0.000969691,-0.00107062,-0.00196111,0.000941597,-0.00298191,-0.772534,0.00236513,0.0454717,1434,1765,4.70097,-16.508
217,-741,4.7406,16.4276,-0.000963744,-0.00096986,-0.00215883,0.00119203,-0.00312564,-0.78469,0.00257478,0.0226704,1441,1765,4.74056,-16.4276
224,-741,4.78967,16.3406,-0.0010308,-0.000829372,-0.00233682,0.0014089,-0.00326907,-0.806934,0.00277109,0.0264607,1448,1765,4.78971,-16.3405
231,-741,4.79846,16.3297,-0.00116613,-0.000606251,-0.00249699,0.00162644,-0.00339882,-0.841221,0.00296087,0.0343689,1455,1765,4.79846,-16.3298
238,-741,4.66943,16.2213,-0.00112125,-0.000313863,-0.00259899,0.0019126,-0.00334771,-0.862446,0.00307449,0.0365817,1462,1765,4.66941,-16.2213
245,-741,4.31042,15.9347,-0.000951972,0.000139696,-0.00270404,0.00235244,-0.00316472,-0.884989,0.00319682,0.0432397,1469,1765,4.31041,-15.9347
252,-741,4.72144,15.8671,0,0,0,0,0,0,0,-1,1476,1765,4.7214,-15.867
259,-741,5.24146,16.0898,0,0,0,0,0,0,0,-1,1483,1765,5.24141,-16.0899
266,-741,4.40173,15.2345,0,0,0,0,0,0,0,-1,1490,1765,4.40175,-15.2345
273,-741,17.0328,7.54468,0,0,0,0,0,0,0,-1,1497,1765,17.0328,-7.54474
280,-741,15.7959,7.14307,0,0,0,0,0,0,0,-1,1504,1765,15.7959,-7.14305
287,-741,13.988,6.99292,0,0,0,0,0,0,0,-1,1511,1765,13.988,-6.99287
294,-741,12.1141,6.63208,0,0,0,0,0,0,0,-1,1518,1765,12.1142,-6.63211
301,-741,10.2242,6.40942,0,0,0,0,0,0,0,-1,1525,1765,10.2242,-6.40947
308,-741,8.27747,6.42419,0,0,0,0,0,0,0,-1,1532,1765,8.27746,-6.42424
315,-741,7.94568,6.22974,0,0,0,0,0,0,0,-1,1539,1765,7.94567,-6.22972
322,-741,3.08521,12.3561,0,0,0,0,0,0,0,-1,1546,1765,3.08526,-12.3561
329,-741,4.46472,13.5316,0,0,0,0,0,0,0,-1,1553,1765,4.46467,-13.5316
336,-741,4.74475,14.6453,0,0,0,0,0,0,0,-1,1560,1765,4.7447,-14.6452
343,-741,5.42297,5.93701,0,0,0,0,0,0,0,-1,1567,1765,5.42296,-5.937
350,-741,4.90369,5.44666,0,0,0,0,0,0,0,-1,1574,1765,4.90368,-5.44664
357,-741,4.02063,5.16626,0,0,0,0,0,0,0,-1,1581,1765,4.02058,-5.1662
364,-741,0,0,0,0,0,0,0,0,0,-1,1588,1765,0,0
371,-741,0,0,0,0,0,0,0,0,0,-1,1595,1765,0,0
378,-741,0,0,0,0,0,0,0,0,0,-1,1602,1765,0,0
385,-741,0,0,0,0,0,0,0,0,0,-1,1609,1765,0,0
392,-741,0,0,0,0,0,0,0,0,0,-1,1616,1765,0,0
399,-741,0,0,0,0,0,0,0,0,0,-1,1623,1765,0,0
406,-741,0,0,0,0,0,0,0,0,0,-1,1630,1765,0,0
413,-741,0,0,0,0,0,0,0,0,0,-1,1637,1765,0,0
420,-741,0,0,0,0,0,0,0,0,0,-1,1644,1765,0,0
427,-741,0,0,0,0,0,0,0,0,0,-1,1651,1765,0,0
434,-741,0,0,0,0,0,0,0,0,0,-1,1658,1765,0,0
441,-741,0,0,0,0,0,0,0,0,0,-1,1665,1765,0,0
448,-741,0,0,0,0,0,0,0,0,0,-1,1672,1765,0,0
455,-741,0,0,0,0,0,0,0,0,0,-1,1679,1765,0,0
462,-741,0,0,0,0,0,0,0,0,0,-1,1686,1765,0,0
469,-741,0,0,0,0,0,0,0,0,0,-1,1693,1765,0,0
476,-741,0,0,0,0,0,0,0,0,0,-1,1700,1765,0,0
483,-741,0,0,0,0,0,0,0,0,0,-1,1707,1765,0,0
490,-741,0,0,0,0,0,0,0,0,0,-1,1714,1765,0,0
497,-741,0,0,0,0,0,0,0,0,0,-1,1721,1765,0,0
504,-741,0,0,0,0,0,0,0,0,0,-1,1728,1765,0,0
511,-741,0,0,0,0,0,0,0,0,0,-1,1735,1765,0,0
518,-741,0,0,0,0,0,0,0,0,0,-1,1742,1765,0,0
525,-741,0,0,0,0,0,0,0,0,0,-1,1749,1765,0,0
532,-741,0,0,0,0,0,0,0,0,0,-1,1756,1765,0,0
539,-741,0,0,0,0,0,0,0,0,0,-1,1763,1765,0,0
546,-741,0,0,0,0,0,0,0,0,0,-1,1770,1765,0,0
553,-741,0,0,0,0,0,0,0,0,0,-1,1777,1765,0,0
560,-741,0,0,0,0,0,0,0,0,0,-1,1784,1765,0,0
567,-741,0,0,0,0,0,0,0,0,0,-1,1791,1765,0,0
574,-741,0,0,0,0,0,0,0,0,0,-1,1798,1765,0,0
581,-741,0,0,0,0,0,0,0,0,0,-1,1805,1765,0,0
588,-741,0,0,0,0,0,0,0,0,0,-1,1812,1765,0,0
595,-741,0,0,0,0,0,0,0,0,0,-1,1819,1765,0,0
602,-741,0,0,0,0,0,0,0,0,0,-1,1826,1765,0,0
609,-741,0,0,0,0,0,0,0,0,0,-1,1833,1765,0,0
616,-741,0,0,0,0,0,0,0,0,0,-1,1840,1765,0,0
623,-741,0,0,0,0,0,0,0,0,0,-1,1847,1765,0,0
630,-741,0,0,0,0,0,0,0,0,0,-1,1854,1765,0,0
637,-741,0,0,0,0,0,0,0,0,0,-1,1861,1765,0,0
644,-741,0,0,0,0,0,0,0,0,0,-1,1868,1765,0,0
651,-741,0,0,0,0,0,0,0,0,0,-1,1875,1765,0,0
658,-741,0,0,0,0,0,0,0,0,0,-1,1882,1765,0,0
665,-741,0,0,0,0,0,0,0,0,0,-1,1889,1765,0,0
672,-741,0,0,0,0,0,0,0,0,0,-1,1896,1765,0,0
679,-741,0,0,0,0,0,0,0,0,0,-1,1903,1765,0,0
686,-741,0,0,0,0,0,0,0,0,0,-1,1910,1765,0,0
693,-741,0,0,0,0,0,0,0,0,0,-1,1917,1765,0,0
700,-741,0,0,0,0,0,0,0,0,0,-1,1924,1765,0,0
707,-741,0,0,0,0,0,0,0,0,0,-1,1931,1765,0,0
714,-741,0,0,0,0,0,0,0,0,0,-1,1938,1765,0,0
721,-741,0,0,0,0,0,0,0,0,0,-1,1945,1765,0,0
728,-741,0,0,0,0,0,0,0,0,0,-1,1952,1765,0,0
735,-741,0,0,0,0,0,0,0,0,0,-1,1959,1765,0,0
742,-741,0,0,0,0,0,0,0,0,0,-1,1966,1765,0,0
749,-741,0,0,0,0,0,0,0,0,0,-1,1973,1765,0,0
756,-741,0,0,0,0,0,0,0,0,0,-1,1980,1765,0,0
763,-741,0,0,0,0,0,0,0,0,0,-1,1987,1765,0,0
770,-741,0,0,0,0,0,0,0,0,0,-1,1994,1765,0,0
777,-741,0,0,0,0,0,0,0,0,0,-1,2001,1765,0,0
784,-741,0,0,0,0,0,0,0,0,0,-1,2008,1765,0,0
791,-741,0,0,0,0,0,0,0,0,0,-1,2015,1765,0,0
798,-741,0,0,0,0,0,0,0,0,0,-1,2022,1765,0,0
805,-741,0,0,0,0,0,0,0,0,0,-1,2029,1765,0,0
812,-741,0,0,0,0,0,0,0,0,0,-1,2036,1765,0,0
-700,-748,0,0,0,0,0,0,0,0,0,-1,524,1772,0,0
-693,-748,0,0,0,0,0,0,0,0,0,-1,531,1772,0,0
-686,-748,0,0,0,0,0,0,0,0,0,-1,538,1772,0,0
-679,-748,0,0,0,0,0,0,0,0,0,-1,545,1772,0,0
-672,-748,0,0,0,0,0,0,0,0,0,-1,552,1772,0,0
-665,-748,0,0,0,0,0,0,0,0,0,-1,559,1772,0,0
-658,-748,0,0,0,0,0,0,0,0,0,-1,566,1772,0,0
-651,-748,0,0,0,0,0,0,0,0,0,-1,573,1772,0,0
-644,-748,0,0,0,0,0,0,0,0,0,-1,580,1772,0,0
-637,-748,0,0,0,0,0,0,0,0,0,-1,587,1772,0,0
-630,-748,0,0,0,0,0,0,0,0,0,-1,594,1772,0,0
-623,-748,0,0,0,0,0,0,0,0,0,-1,601,1772,0,0
-616,-748,0,0,0,0,0,0,0,0,0,-1,608,1772,0,0
-609,-748,0,0,0,0,0,0,0,0,0,-1,615,1772,0,0
-602,-748,0,0,0,0,0,0,0,0,0,-1,622,1772,0,0
-595,-748,0,0,0,0,0,0,0,0,0,-1,629,1772,0,0
-588,-748,0,0,0,0,0,0,0,0,0,-1,636,1772,0,0
-581,-748,0,0,0,0,0,0,0,0,0,-1,643,1772,0,0
-574,-748,0,0,0,0,0,0,0,0,0,-1,650,1772,0,0
-567,-748,0,0,0,0,0,0,0,0,0,-1,657,1772,0,0
-560,-748,0,0,0,0,0,0,0,0,0,-1,664,1772,0,0
-553,-748,0,0,0,0,0,0,0,0,0,-1,671,1772,0,0
-546,-748,0,0,0,0,0,0,0,0,0,-1,678,1772,0,0
-539,-748,0,0,0,0,0,0,0,0,0,-1,685,1772,0,0
-532,-748,0,0,0,0,0,0,0,0,0,-1,692,1772,0,0
-525,-748,0,0,0,0,0,0,0,0,0,-1,699,1772,0,0
-518,-748,0,0,0,0,0,0,0,0,0,-1,706,1772,0,0
-511,-748,0,0,0,0,0,0,0,0,0,-1,713,1772,0,0
-504,-748,0,0,0,0,0,0,0,0,0,-1,720,1772,0,0
-497,-748,0,0,0,0,0,0,0,0,0,-1,727,1772,0,0
-490,-748,0,0,0,0,0,0,0,0,0,-1,734,1772,0,0
-483,-748,0,0,0,0,0,0,0,0,0,-1,741,1772,0,0
-476,-748,0,0,0,0,0,0,0,0,0,-1,748,1772,0,0
-469,-748,0,0,0,0,0,0,0,0,0,-1,755,1772,0,0
-462,-748,0,0,0,0,0,0,0,0,0,-1,762,1772,0,0
-455,-748,0,0,0,0,0,0,0,0,0,-1,769,1772,0,0
-448,-748,0,0,0,0,0,0,0,0,0,-1,776,1772,0,0
-441,-748,0,0,0,0,0,0,0,0,0,-1,783,1772,0,0
-434,-748,0,0,0,0,0,0,0,0,0,-1,790,1772,0,0
-427,-748,0,0,0,0,0,0,0,0,0,-1,797,1772,0,0
-420,-748,0,0,0,0,0,0,0,0,0,-1,804,1772,0,0
-413,-748,0,0,0,0,0,0,0,0,0,-1,811,1772,0,0
-406,-748,0,0,0,0,0,0,0,0,0,-1,818,1772,0,0
-399,-748,0,0,0,0,0,0,0,0,0,-1,825,1772,0,0
-392,-748,0,0,0,0,0,0,0,0,0,-1,832,1772,0,0
-385,-748,0,0,0,0,0,0,0,0,0,-1,839,1772,0,0
-378,-748,0,0,0,0,0,0,0,0,0,-1,846,1772,0,0
-371,-748,0,0,0,0,0,0,0,0,0,-1,853,1772,0,0
-364,-748,0,0,0,0,0,0,0,0,0,-1,860,1772,0,0
-357,-748,0,0,0,0,0,0,0,0,0,-1,867,1772,0,0
-350,-748,0,0,0,0,0,0,0,0,0,-1,874,1772,0,0
-343,-748,0,0,0,0,0,0,0,0,0,-1,881,1772,0,0
-336,-748,0,0,0,0,0,0,0,0,0,-1,888,1772,0,0
-329,-748,0,0,0,0,0,0,0,0,0,-1,895,1772,0,0
-322,-748,0,0,0,0,0,0,0,0,0,-1,902,1772,0,0
-315,-748,0,0,0,0,0,0,0,0,0,-1,909,1772,0,0
-308,-748,0,0,0,0,0,0,0,0,0,-1,916,1772,0,0
-301,-748,0,0,0,0,0,0,0,0,0,-1,923,1772,0,0
-294,-748,0,0,0,0,0,0,0,0,0,-1,930,1772,0,0
-287,-748,0,0,0,0,0,0,0,0,0,-1,937,1772,0,0
-280,-748,0,0,0,0,0,0,0,0,0,-1,944,1772,0,0
-273,-748,0,0,0,0,0,0,0,0,0,-1,951,1772,0,0
-266,-748,0,0,0,0,0,0,0,0,0,-1,958,1772,0,0
-259,-748,0,0,0,0,0,0,0,0,0,-1,965,1772,0,0
-252,-748,0,0,0,0,0,0,0,0,0,-1,972,1772,0,0
-245,-748,0,0,0,0,0,0,0,0,0,-1,979,1772,0,0
-238,-748,0,0,0,0,0,0,0,0,0,-1,986,1772,0,0
-231,-748,0,0,0,0,0,0,0,0,0,-1,993,1772,0,0
-224,-748,0,0,0,0,0,0,0,0,0,-1,1000,1772,0,0
-217,-748,6.0882,15.7745,0,0,0,0,0,0,0,-1,1007,1772,6.08817,-15.7745
-210,-748,6.56482,15.8542,0,0,0,0,0,0,0,-1,1014,1772,6.56483,-15.8542
-203,-748,7.08105,16.2065,0,0,0,0,0,0,0,-1,1021,1772,7.0811,-16.2065
-196,-748,-1.09497,13.6892,0,0,0,0,0,0,0,-1,1028,1772,-1.09499,-13.6892
-189,-748,2.37354,13.27,0,0,0,0,0,0,0,-1,1035,1772,2.37358,-13.27
-182,-748,-0.0217285,13.3839,0,0,0,0,0,0,0,-1,1042,1772,-0.0216734,-13.3839
-175,-748,-0.924438,12.27,0,0,0,0,0,0,0,-1,1049,1772,-0.924469,-12.2701
-168,-748,-1.58691,11.4213,-0.0921784,-0.0526001,-0.0194505,-0.0446416,-0.100137,-1.18241,0.0579271,0.0450911,1056,1772,-1.58695,-11.4212
-161,-748,-2.52185,11.0562,-0.0839266,-0.0457641,-0.0172914,-0.0390949,-0.0905958,-1.20268,0.0524687,0.048891,1063,1772,-2.52188,-11.0561
-154,-748,-3.38562,10.6989,0,0,0,0,0,0,0,-1,1070,1772,-3.38564,-10.6989
-147,-748,-4.87122,10.7748,0,0,0,0,0,0,0,-1,1077,1772,-4.87117,-10.7748
-140,-748,5.38965,8.78552,0,0,0,0,0,0,0,-1,1084,1772,5.38969,-8.78552
-133,-748,4.78137,14.3381,0,0,0,0,0,0,0,-1,1091,1772,4.78133,-14.3381
-126,-748,4.21948,14.6042,0,0,0,0,0,0,0,-1,1098,1772,4.21944,-14.6042
-119,-748,5.01172,15.6929,0,0,0,0,0,0,0,-1,1105,1772,5.01176,-15.6929
-112,-748,5.22339,16.1755,-0.00997894,-0.0100511,-0.00728226,-0.00273265,-0.0172974,-0.782922,0.0107372,0.0378372,1112,1772,5.22344,-16.1755
-105,-748,5.2345,16.0619,-0.0014074,-0.00874532,-0.00710834,0.002923,-0.0130757,-0.547157,0.00983732,0.0460525,1119,1772,5.23455,-16.0619
-98,-748,5.39673,15.788,0,0,0,0,0,0,0,-1,1126,1772,5.39679,-15.7879
-91,-748,4.85352,15.3033,0,0,0,0,0,0,0,-1,1133,1772,4.85351,-15.3033
-84,-748,-0.192017,7.26196,0,0,0,0,0,0,0,-1,1140,1772,-0.192047,-7.26201
-77,-748,4.42615,13.5537,0,0,0,0,0,0,0,-1,1147,1772,4.4261,-13.5538
-70,-748,4.46191,13.7446,0,0,0,0,0,0,0,-1,1154,1772,4.4619,-13.7446
-63,-748,4.49768,13.9355,0,0,0,0,0,0,0,-1,1161,1772,4.49769,-13.9355
-56,-748,3.05762,7.87817,0,0,0,0,0,0,0,-1,1168,1772,3.05768,-7.87822
-49,-748,3.04102,7.82471,0,0,0,0,0,0,0,-1,1175,1772,3.04096,-7.82468
-42,-748,0.793457,14.9474,0,0,0,0,0,0,0,-1,1182,1772,0.793413,-14.9474
-35,-748,5.05847,16.5979,0,0,0,0,0,0,0,-1,1189,1772,5.05843,-16.5979
-28,-748,5.04785,16.7419,0.00196846,-0.0219866,0.0040271,0.00262734,-0.0226455,0.162174,0.0160446,0.0482224,1196,1772,5.04788,-16.742
-21,-748,5.04358,16.8014,0.00194794,-0.0218558,0.00374892,0.0025244,-0.0224323,0.152574,0.0158634,0.0228532,1203,1772,5.04362,-16.8014
-14,-748,5.01404,16.8109,0.00214753,-0.0213109,0.00353709,0.00266925,-0.0218326,0.146445,0.0155215,0.0157532,1210,1772,5.01398,-16.8109
-7,-748,5.03418,16.8403,0.00215219,-0.0204974,0.00346812,0.00267133,-0.0210165,0.148586,0.0149811,0.0158476,1217,1772,5.03418,-16.8403
0,-748,5.01355,16.895,0.00205091,-0.0196368,0.0033548,0.002558,-0.0201439,0.150017,0.0143581,0.0155974,1224,1772,5.01356,-16.895
7,-748,4.9668,16.9351,0.00187615,-0.0187689,0.00312915,0.00234001,-0.0192328,0.147167,0.0136688,0.0140715,1231,1772,4.96683,-16.935
14,-748,4.94934,16.9739,0.00157102,-0.0178253,0.00278567,0.00196316,-0.0182175,0.139853,0.0128495,0.0154146,1238,1772,4.94932,-16.9739
21,-748,4.95703,17.0063,0.00127236,-0.0167439,0.00202106,0.0014963,-0.0169678,0.110352,0.0118422,0.0120846,1245,1772,4.95702,-17.0063
28,-748,4.91101,17.0629,0.00126636,-0.0161485,0.00130712,0.00136392,-0.0162461,0.0745013,0.0113128,0.0119111,1252,1772,4.91103,-17.0629
35,-748,4.92188,17.0786,0.00154812,-0.0152507,0.000700212,0.00157725,-0.0152799,0.0415859,0.010751,0.0114436,1259,1772,4.92193,-17.0786
42,-748,4.93945,17.094,0.0010892,-0.0143449,9.26165e-05,0.00108975,-0.0143454,0.0060005,0.00994678,0.0124552,1266,1772,4.93944,-17.094
49,-748,4.92664,17.1182,0.000183282,-0.0138861,-0.00074892,0.000223035,-0.0139259,-0.0530306,0.00935916,0.00999813,1273,1772,4.92658,-17.1181
56,-748,4.89404,17.1403,-0.000486098,-0.0135866,-0.00143178,-0.000331441,-0.0137413,-0.1076,0.00905239,0.0102424,1280,1772,4.89406,-17.1403
63,-748,4.8916,17.1348,-0.000872261,-0.0134597,-0.00204257,-0.000549108,-0.0137829,-0.156908,0.00901113,0.0120371,1287,1772,4.89158,-17.1348
70,-748,4.89771,17.1437,-0.00113747,-0.0131843,-0.00272519,-0.000549669,-0.0137721,-0.212437,0.0090038,0.0137797,1294,1772,4.89771,-17.1437
77,-748,4.89502,17.1624,-0.00132967,-0.0129822,-0.00319273,-0.000512228,-0.0137996,-0.250649,0.00903386,0.0124795,1301,1772,4.895,-17.1623
84,-748,4.85327,17.1865,-0.00140531,-0.0128029,-0.00333146,-0.000502976,-0.0137052,-0.264505,0.00897387,0.0141628,1308,1772,4.8533,-17.1865
91,-748,4.82959,17.188,-0.0015485,-0.0126387,-0.0034555,-0.00055994,-0.0136272,-0.278639,0.00890405,0.0121086,1315,1772,4.82962,-17.188
98,-748,4.82471,17.1633,-0.00139077,-0.0124325,-0.00360121,-0.000320081,-0.0135032,-0.288991,0.00889739,0.0110925,1322,1772,4.82465,-17.1633
105,-748,4.84595,17.1029,-0.00108655,-0.0121489,-0.00357715,-3.06177e-05,-0.0132048,-0.287035,0.00879302,0.0120874,1329,1772,4.84595,-17.1029
112,-748,4.86951,17.074,-0.000640461,-0.0116027,-0.00349867,0.00038099,-0.0126241,-0.284059,0.0085459,0.014658,1336,1772,4.86956,-17.074
119,-748,4.86133,17.078,-3.43847e-05,-0.0108324,-0.0034669,0.000982892,-0.0118496,-0.285414,0.00824694,0.0126848,1343,1772,4.86132,-17.078
126,-748,4.85852,17.0839,0.000638262,-0.00984428,-0.00322098,0.00154887,-0.0107549,-0.275522,0.00773806,0.014966,1350,1772,4.85847,-17.0839
133,-748,4.8009,17.0569,0.00115853,-0.00811972,-0.00321817,0.00216547,-0.00912667,-0.303243,0.00692014,0.00919336,1357,1772,4.80084,-17.0568
140,-748,4.79529,17.0414,0.00158555,-0.00687518,-0.00333538,0.00274227,-0.00803191,-0.333825,0.00646554,0.0114069,1364,1772,4.79527,-17.0414
147,-748,4.83459,17.0157,0.00279842,-0.00531558,-0.0031756,0.00389348,-0.00641064,-0.332065,0.00600796,0.0122496,1371,1772,4.83461,-17.0158
154,-748,4.78906,16.9725,0.00407919,-0.00403367,-0.00291566,0.00501833,-0.00497281,-0.311608,0.0057684,0.0116589,1378,1772,4.78906,-16.9726
161,-748,4.77222,16.9514,0.00431284,-0.00280084,-0.00268441,0.00521214,-0.00370014,-0.323256,0.00517013,0.0195796,1385,1772,4.77216,-16.9514
168,-748,4.79956,16.927,0,0,0,0,0,0,0,-1,1392,1772,4.79962,-16.927
175,-748,10.4908,15.5613,0,0,0,0,0,0,0,-1,1399,1772,10.4909,-15.5612
182,-748,7.62476,10.3058,0,0,0,0,0,0,0,-1,1406,1772,7.62476,-10.3058
189,-748,6.15857,6.95898,0,0,0,0,0,0,0,-1,1413,1772,6.15862,-6.95896
196,-748,3.9425,8.46021,0,0,0,0,0,0,0,-1,1420,1772,3.9425,-8.46026
203,-748,3.9668,12.9835,0,0,0,0,0,0,0,-1,1427,1772,3.96678,-12.9836
210,-748,4.78467,16.2499,0,0,0,0,0,0,0,-1,1434,1772,4.78467,-16.2499
217,-748,4.88232,16.4135,-0.00113051,-0.00209774,-0.002747,0.00117512,-0.00440337,-0.698266,0.00339575,0.0498391,1441,1772,4.88235,-16.4135
224,-748,4.78894,16.4779,-0.0012541,-0.00194226,-0.00291937,0.0013414,-0.00453776,-0.726738,0.00355763,0.0429018,1448,1772,4.78898,-16.4779
231,-748,4.98169,16.4792,-0.00146081,-0.00166015,-0.00308593,0.00152706,-0.00464801,-0.769255,0.00371387,0.0430303,1455,1772,4.98172,-16.4792
238,-748,5.35486,16.782,0,0,0,0,0,0,0,-1,1462,1772,5.35482,-16.7819
245,-748,3.89893,15.7579,0,0,0,0,0,0,0,-1,1469,1772,3.89896,-15.7579
252,-748,4.41907,15.2617,0,0,0,0,0,0,0,-1,1476,1772,4.41906,-15.2618
259,-748,19.3467,7.92981,0,0,0,0,0,0,0,-1,1483,1772,19.3466,-7.92977
266,-748,17.9011,7.59448,0,0,0,0,0,0,0,-1,1490,1772,17.9011,-7.59452
273,-748,16.4131,7.57129,0,0,0,0,0,0,0,-1,1497,1772,16.413,-7.57125
280,-748,15.2177,7.24829,0,0,0,0,0,0,0,-1,1504,1772,15.2176,-7.24833
287,-748,13.697,6.93396,0,0,0,0,0,0,0,-1,1511,1772,13.697,-6.93401
294,-748,11.8735,6.83142,0,0,0,0,0,0,0,-1,1518,1772,11.8735,-6.83142
301,-748,10.1475,7.08789,0,0,0,0,0,0,0,-1,1525,1772,10.1474,-7.08787
308,-748,8.37451,7.6344,0,0,0,0,0,0,0,-1,1532,1772,8.37447,-7.63443
315,-748,6.65149,8.06299,0,0,0,0,0,0,0,-1,1539,1772,6.65144,-8.063
322,-748,2.9469,13.4518,0,0,0,0,0,0,0,-1,1546,1772,2.94694,-13.4518
329,-748,3.48315,14.6533,0,0,0,0,0,0,0,-1,1553,1772,3.48316,-14.6534
336,-748,3.76001,15.8163,0,0,0,0,0,0,0,-1,1560,1772,3.75995,-15.8163
343,-748,0,0,0,0,0,0,0,0,0,-1,1567,1772,0,0
350,-748,0,0,0,0,0,0,0,0,0,-1,1574,1772,0,0
357,-748,0,0,0,0,0,0,0,0,0,-1,1581,1772,0,0
364,-748,0,0,0,0,0,0,0,0,0,-1,1588,1772,0,0
371,-748,0,0,0,0,0,0,0,0,0,-1,1595,1772,0,0
378,-748,0,0,0,0,0,0,0,0,0,-1,1602,1772,0,0
385,-748,0,0,0,0,0,0,0,0,0,-1,1609,1772,0,0
392,-748,0,0,0,0,0,0,0,0,0,-1,1616,1772,0,0
399,-748,0,0,0,0,0,0,0,0,0,-1,1623,1772,0,0
406,-748,0,0,0,0,0,0,0,0,0,-1,1630,1772,0,0
413,-748,0,0,0,0,0,0,0,0,0,-1,1637,1772,0,0
420,-748,0,0,0,0,0,0,0,0,0,-1,1644,1772,0,0
427,-748,0,0,0,0,0,0,0,0,0,-1,1651,1772,0,0
434,-748,0,0,0,0,0,0,0,0,0,-1,1658,1772,0,0
441,-748,0,0,0,0,0,0,0,0,0,-1,1665,1772,0,0
448,-748,0,0,0,0,0,0,0,0,0,-1,1672,1772,0,0
455,-748,0,0,0,0,0,0,0,0,0,-1,1679,1772,0,0
462,-748,0,0,0,0,0,0,0,0,0,-1,1686,1772,0,0
469,-748,0,0,0,0,0,0,0,0,0,-1,1693,1772,0,0
476,-748,0,0,0,0,0,0,0,0,0,-1,1700,1772,0,0
483,-748,0,0,0,0,0,0,0,0,0,-1,1707,1772,0,0
490,-748,0,0,0,0,0,0,0,0,0,-1,1714,1772,0,0
497,-748,0,0,0,0,0,0,0,0,0,-1,1721,1772,0,0
504,-748,0,0,0,0,0,0,0,0,0,-1,1728,1772,0,0
511,-748,0,0,0,0,0,0,0,0,0,-1,1735,1772,0,0
518,-748,0,0,0,0,0,0,0,0,0,-1,1742,1772,0,0
525,-748,0,0,0,0,0,0,0,0,0,-1,1749,1772,0,0
532,-748,0,0,0,0,0,0,0,0,0,-1,1756,1772,0,0
539,-748,0,0,0,0,0,0,0,0,0,-1,1763,1772,0,0
546,-748,0,0,0,0,0,0,0,0,0,-1,1770,1772,0,0
553,-748,0,0,0,0,0,0,0,0,0,-1,1777,1772,0,0
560,-748,0,0,0,0,0,0,0,0,0,-1,1784,1772,0,0
567,-748,0,0,0,0,0,0,0,0,0,-1,1791,1772,0,0
574,-748,0,0,0,0,0,0,0,0,0,-1,1798,1772,0,0
581,-748,0,0,0,0,0,0,0,0,0,-1,1805,1772,0,0
588,-748,0,0,0,0,0,0,0,0,0,-1,1812,1772,0,0
595,-748,0,0,0,0,0,0,0,0,0,-1,1819,1772,0,0
602,-748,0,0,0,0,0,0,0,0,0,-1,1826,1772,0,0
609,-748,0,0,0,0,0,0,0,0,0,-1,1833,1772,0,0
616,-748,0,0,0,0,0,0,0,0,0,-1,1840,1772,0,0
623,-748,0,0,0,0,0,0,0,0,0,-1,1847,1772,0,0
630,-748,0,0,0,0,0,0,0,0,0,-1,1854,1772,0,0
637,-748,0,0,0,0,0,0,0,0,0,-1,1861,1772,0,0
644,-748,0,0,0,0,0,0,0,0,0,-1,1868,1772,0,0
651,-748,0,0,0,0,0,0,0,0,0,-1,1875,1772,0,0
658,-748,0,0,0,0,0,0,0,0,0,-1,1882,1772,0,0
665,-748,0,0,0,0,0,0,0,0,0,-1,1889,1772,0,0
672,-748,0,0,0,0,0,0,0,0,0,-1,1896,1772,0,0
679,-748,0,0,0,0,0,0,0,0,0,-1,1903,1772,0,0
686,-748,0,0,0,0,0,0,0,0,0,-1,1910,1772,0,0
693,-748,0,0,0,0,0,0,0,0,0,-1,1917,1772,0,0
700,-748,0,0,0,0,0,0,0,0,0,-1,1924,1772,0,0
707,-748,0,0,0,0,0,0,0,0,0,-1,1931,1772,0,0
714,-748,0,0,0,0,0,0,0,0,0,-1,1938,1772,0,0
721,-748,0,0,0,0,0,0,0,0,0,-1,1945,1772,0,0
728,-748,0,0,0,0,0,0,0,0,0,-1,1952,1772,0,0
735,-748,0,0,0,0,0,0,0,0,0,-1,1959,1772,0,0
742,-748,0,0,0,0,0,0,0,0,0,-1,1966,1772,0,0
749,-748,0,0,0,0,0,0,0,0,0,-1,1973,1772,0,0
756,-748,0,0,0,0,0,0,0,0,0,-1,1980,1772,0,0
763,-748,0,0,0,0,0,0,0,0,0,-1,1987,1772,0,0
770,-748,0,0,0,0,0,0,0,0,0,-1,1994,1772,0,0
777,-748,0,0,0,0,0,0,0,0,0,-1,2001,1772,0,0
784,-748,0,0,0,0,0,0,0,0,0,-1,2008,1772,0,0
791,-748,0,0,0,0,0,0,0,0,0,-1,2015,1772,0,0
798,-748,0,0,0,0,0,0,0,0,0,-1,2022,1772,0,0
805,-748,0,0,0,0,0,0,0,0,0,-1,2029,1772,0,0
812,-748,0,0,0,0,0,0,0,0,0,-1,2036,1772,0,0
-700,-755,0,0,0,0,0,0,0,0,0,-1,524,1779,0,0
-693,-755,0,0,0,0,0,0,0,0,0,-1,531,1779,0,0
-686,-755,0,0,0,0,0,0,0,0,0,-1,538,1779,0,0
-679,-755,0,0,0,0,0,0,0,0,0,-1,545,1779,0,0
-672,-755,0,0,0,0,0,0,0,0,0,-1,552,1779,0,0
-665,-755,0,0,0,0,0,0,0,0,0,-1,559,1779,0,0
-658,-755,0,0,0,0,0,0,0,0,0,-1,566,1779,0,0
-651,-755,0,0,0,0,0,0,0,0,0,-1,573,1779,0,0
-644,-755,0,0,0,0,0,0,0,0,0,-1,580,1779,0,0
-637,-755,0,0,0,0,0,0,0,0,0,-1,587,1779,0,0
-630,-755,0,0,0,0,0,0,0,0,0,-1,594,1779,0,0
-623,-755,0,0,0,0,0,0,0,0,0,-1,601,1779,0,0
-616,-755,0,0,0,0,0,0,0,0,0,-1,608,1779,0,0
-609,-755,0,0,0,0,0,0,0,0,0,-1,615,1779,0,0
-602,-755,0,0,0,0,0,0,0,0,0,-1,622,1779,0,0
-595,-755,0,0,0,0,0,0,0,0,0,-1,629,1779,0,0
-588,-755,0,0,0,0,0,0,0,0,0,-1,636,1779,0,0
-581,-755,0,0,0,0,0,0,0,0,0,-1,643,1779,0,0
-574,-755,0,0,0,0,0,0,0,0,0,-1,650,1779,0,0
-567,-755,0,0,0,0,0,0,0,0,0,-1,657,1779,0,0
-560,-755,0,0,0,0,0,0,0,0,0,-1,664,1779,0,0
-553,-755,0,0,0,0,0,0,0,0,0,-1,671,1779,0,0
-546,-755,0,0,0,0,0,0,0,0,0,-1,678,1779,0,0
-539,-755,0,0,0,0,0,0,0,0,0,-1,685,1779,0,0
-532,-755,0,0,0,0,0,0,0,0,0,-1,692,1779,0,0
-525,-755,0,0,0,0,0,0,0,0,0,-1,699,1779,0,0
-518,-755,0,0,0,0,0,0,0,0,0,-1,706,1779,0,0
-511,-755,0,0,0,0,0,0,0,0,0,-1,713,1779,0,0
-504,-755,0,0,0,0,0,0,0,0,0,-1,720,1779,0,0
-497,-755,0,0,0,0,0,0,0,0,0,-1,727,1779,0,0
-490,-755,0,0,0,0,0,0,0,0,0,-1,734,1779,0,0
-483,-755,0,0,0,0,0,0,0,0,0,-1,741,1779,0,0
-476,-755,0,0,0,0,0,0,0,0,0,-1,748,1779,0,0
-469,-755,0,0,0,0,0,0,0,0,0,-1,755,1779,0,0
-462,-755,0,0,0,0,0,0,0,0,0,-1,762,1779,0,0
-455,-755,0,0,0,0,0,0,0,0,0,-1,769,1779,0,0
-448,-755,0,0,0,0,0,0,0,0,0,-1,776,1779,0,0
-441,-755,0,0,0,0,0,0,0,0,0,-1,783,1779,0,0
-434,-755,0,0,0,0,0,0,0,0,0,-1,790,1779,0,0
-427,-755,0,0,0,0,0,0,0,0,0,-1,797,1779,0,0
-420,-755,0,0,0,0,0,0,0,0,0,-1,804,1779,0,0
-413,-755,0,0,0,0,0,0,0,0,0,-1,811,1779,0,0
-406,-755,0,0,0,0,0,0,0,0,0,-1,818,1779,0,0
-399,-755,0,0,0,0,0,0,0,0,0,-1,825,1779,0,0
-392,-755,0,0,0,0,0,0,0,0,0,-1,832,1779,0,0
-385,-755,0,0,0,0,0,0,0,0,0,-1,839,1779,0,0
-378,-755,0,0,0,0,0,0,0,0,0,-1,846,1779,0,0
-371,-755,0,0,0,0,0,0,0,0,0,-1,853,1779,0,0
-364,-755,0,0,0,0,0,0,0,0,0,-1,860,1779,0,0
-357,-755,0,0,0,0,0,0,0,0,0,-1,867,1779,0,0
-350,-755,0,0,0,0,0,0,0,0,0,-1,874,1779,0,0
-343,-755,0,0,0,0,0,0,0,0,0,-1,881,1779,0,0
-336,-755,0,0,0,0,0,0,0,0,0,-1,888,1779,0,0
-329,-755,0,0,0,0,0,0,0,0,0,-1,895,1779,0,0
-322,-755,0,0,0,0,0,0,0,0,0,-1,902,1779,0,0
-315,-755,0,0,0,0,0,0,0,0,0,-1,909,1779,0,0
-308,-755,0,0,0,0,0,0,0,0,0,-1,916,1779,0,0
-301,-755,0,0,0,0,0,0,0,0,0,-1,923,1779,0,0
-294,-755,0,0,0,0,0,0,0,0,0,-1,930,1779,0,0
-287,-755,0,0,0,0,0,0,0,0,0,-1,937,1779,0,0
-280,-755,0,0,0,0,0,0,0,0,0,-1,944,1779,0,0
-273,-755,0,0,0,0,0,0,0,0,0,-1,951,1779,0,0
-266,-755,0,0,0,0,0,0,0,0,0,-1,958,1779,0,0
-259,-755,0,0,0,0,0,0,0,0,0,-1,965,1779,0,0
-252,-755,0,0,0,0,0,0,0,0,0,-1,972,1779,0,0
-245,-755,0,0,0,0,0,0,0,0,0,-1,979,1779,0,0
-238,-755,0,0,0,0,0,0,0,0,0,-1,986,1779,0,0
-231,-755,0,0,0,0,0,0,0,0,0,-1,993,1779,0,0
-224,-755,0,0,0,0,0,0,0,0,0,-1,1000,1779,0,0
-217,-755,0,0,0,0,0,0,0,0,0,-1,1007,1779,0,0
-210,-755,0,0,0,0,0,0,0,0,0,-1,1014,1779,0,0
-203,-755,-3.07153,13.8969,0,0,0,0,0,0,0,-1,1021,1779,-3.07152,-13.8969
-196,-755,4.91333,14.9064,0,0,0,0,0,0,0,-1,1028,1779,4.91327,-14.9063
-189,-755,4.85864,12.9271,0,0,0,0,0,0,0,-1,1035,1779,4.85866,-12.9272
-182,-755,0.733154,13.2736,0,0,0,0,0,0,0,-1,1042,1779,0.733112,-13.2735
-175,-755,-1.11841,13.101,0,0,0,0,0,0,0,-1,1049,1779,-1.11847,-13.1009
-168,-755,-1.94446,12.3301,-0.11743,-0.0713573,-0.0273061,-0.0586685,-0.130119,-1.13579,0.0752451,0.0464032,1056,1779,-1.94441,-12.3301
-161,-755,-2.85889,11.5868,-0.107731,-0.063021,-0.0247027,-0.0520598,-0.118692,-1.15317,0.0686988,0.0474454,1063,1779,-2.85887,-11.5868
-154,-755,-3.83704,10.8331,0,0,0,0,0,0,0,-1,1070,1779,-3.83702,-10.8332
-147,-755,-5.40332,10.7094,0,0,0,0,0,0,0,-1,1077,1779,-5.40328,-10.7094
-140,-755,3.29346,10.2112,0,0,0,0,0,0,0,-1,1084,1779,3.2935,-10.2112
-133,-755,6.0802,13.4475,0,0,0,0,0,0,0,-1,1091,1779,6.08021,-13.4475
-126,-755,5.32227,13.6213,0,0,0,0,0,0,0,-1,1098,1779,5.32222,-13.6214
-119,-755,5.47205,16.2683,0,0,0,0,0,0,0,-1,1105,1779,5.47209,-16.2683
-112,-755,5.80481,16.5101,-0.0155087,-0.0199987,-0.0136745,-0.0038962,-0.0316112,-0.704036,0.019903,0.0403931,1112,1779,5.80475,-16.5101
-105,-755,5.57007,16.4138,-0.00296282,-0.0180216,-0.013251,0.00474853,-0.0257329,-0.527039,0.0189376,0.0418029,1119,1779,5.57002,-16.4139
-98,-755,4.53394,15.8923,0,0,0,0,0,0,0,-1,1126,1779,4.53397,-15.8923
-91,-755,0.160522,10.7096,0,0,0,0,0,0,0,-1,1133,1779,0.160512,-10.7096
-84,-755,0.169312,8.66443,0,0,0,0,0,0,0,-1,1140,1779,0.16932,-8.66446
-77,-755,-0.0491943,6.87439,0,0,0,0,0,0,0,-1,1147,1779,-0.0491385,-6.87443
-70,-755,4.5686,13.2169,0,0,0,0,0,0,0,-1,1154,1779,4.56865,-13.2169
-63,-755,-1.36316,7.3147,0,0,0,0,0,0,0,-1,1161,1779,-1.36312,-7.31473
-56,-755,0.0483398,5.06079,0,0,0,0,0,0,0,-1,1168,1779,0.0483138,-5.06084
-49,-755,-1.32263,5.33716,0,0,0,0,0,0,0,-1,1175,1779,-1.32264,-5.33718
-42,-755,-2.03613,4.01672,0,0,0,0,0,0,0,-1,1182,1779,-2.0361,-4.01671
-35,-755,-2.72498,2.37476,0,0,0,0,0,0,0,-1,1189,1779,-2.72502,-2.37473
-28,-755,4.9906,16.8181,0,0,0,0,0,0,0,-1,1196,1779,4.99055,-16.8181
-21,-755,5.09619,16.7811,0,0,0,0,0,0,0,-1,1203,1779,5.09613,-16.7811
-14,-755,5.0874,16.8097,0.00353048,-0.0304372,0.00618305,0.00462095,-0.0315277,0.17457,0.022716,0.0309384,1210,1779,5.0874,-16.8097
-7,-755,5.0636,16.8362,0.003667,-0.0287712,0.00605384,0.00475998,-0.0298642,0.178619,0.0216711,0.0212367,1217,1779,5.06363,-16.8362
0,-755,5.04846,16.8691,0.00365687,-0.0272868,0.00581123,0.00471223,-0.0283421,0.179649,0.0206455,0.0140986,1224,1779,5.0484,-16.8692
7,-755,5.02942,16.9156,0.00353352,-0.0259104,0.00547507,0.00451864,-0.0268955,0.178024,0.0196109,0.0125706,1231,1779,5.02936,-16.9157
14,-755,5.00061,16.9652,0.00322444,-0.0245334,0.00499098,0.00409457,-0.0254036,0.172604,0.0184526,0.0108058,1238,1779,5.00066,-16.9652
21,-755,4.96716,17.0171,0.00291447,-0.023027,0.00394357,0.00350072,-0.0236132,0.147578,0.0170294,0.0159102,1245,1779,4.96715,-17.0171
28,-755,4.95959,17.0533,0.00295954,-0.0223203,0.002953,0.00329991,-0.0226607,0.114754,0.0163187,0.0183388,1252,1779,4.95964,-17.0534
35,-755,4.96362,17.1143,0.00332233,-0.0212524,0.00213494,0.00350643,-0.0214365,0.0860167,0.0155918,0.0162666,1259,1779,4.96364,-17.1143
42,-755,4.96423,17.1016,0.00270421,-0.0202844,0.00128622,0.00277595,-0.0203562,0.0557183,0.0145844,0.0127893,1266,1779,4.96426,-17.1015
49,-755,4.95105,17.1012,0.00149372,-0.019808,0.000121675,0.00149441,-0.0198087,0.00571173,0.0137311,0.00924296,1273,1779,4.95104,-17.1013
56,-755,4.92944,17.1293,0.000513742,-0.0195244,-0.000845167,0.000549326,-0.01956,-0.0420783,0.0132269,0.0089794,1280,1779,4.92945,-17.1293
63,-755,4.9104,17.1544,-0.000129365,-0.0194402,-0.00174801,2.75904e-05,-0.0195971,-0.08955,0.013074,0.0096617,1287,1779,4.91038,-17.1545
70,-755,4.91162,17.1423,-0.000642843,-0.0191604,-0.00277258,-0.000236624,-0.0195666,-0.145478,0.0129663,0.0119845,1294,1779,4.91166,-17.1424
77,-755,4.88696,17.1407,-0.00107903,-0.0189139,-0.00356366,-0.000393325,-0.0195996,-0.190093,0.0129373,0.0112038,1301,1779,4.88702,-17.1408
84,-755,4.88733,17.17,-0.00135969,-0.0186383,-0.0039246,-0.000510051,-0.019488,-0.2132,0.0128254,0.0115345,1308,1779,4.88732,-17.17
91,-755,4.86169,17.155,-0.00178501,-0.0184135,-0.00428107,-0.000747557,-0.019451,-0.237751,0.0127255,0.0116102,1315,1779,4.86165,-17.1551
98,-755,4.82593,17.1357,-0.00174567,-0.0180972,-0.00477072,-0.000455558,-0.0193873,-0.264107,0.0127757,0.0126074,1322,1779,4.82594,-17.1358
105,-755,4.83569,17.1136,-0.00139624,-0.0174699,-0.004891,-2.49539e-05,-0.0188412,-0.27335,0.0125525,0.0153043,1329,1779,4.83573,-17.1136
112,-755,4.85156,17.0811,-0.000743131,-0.0165109,-0.00495804,0.000686298,-0.0179403,-0.280693,0.0121954,0.0200105,1336,1779,4.85154,-17.0811
119,-755,4.82996,17.0928,0.000207382,-0.0152944,-0.00508964,0.00172907,-0.0168161,-0.290518,0.0118293,0.019975,1343,1779,4.82991,-17.0928
126,-755,4.76489,17.1133,0.00129566,-0.0138736,-0.00491087,0.0027467,-0.0153246,-0.2873,0.0112444,0.022157,1350,1779,4.76492,-17.1132
133,-755,4.68933,17.0669,0.00221083,-0.0113898,-0.00508122,0.00389951,-0.0130785,-0.320854,0.0102687,0.0232441,1357,1779,4.68931,-17.0668
140,-755,4.72546,17.0516,0.00308675,-0.00978025,-0.0054041,0.00505528,-0.0117488,-0.349328,0.00995508,0.0280879,1364,1779,4.72551,-17.0516
147,-755,4.79651,17.0443,0.00498366,-0.00770902,-0.00533581,0.0069287,-0.00965406,-0.349555,0.00961706,0.029371,1371,1779,4.79655,-17.0444
154,-755,4.77307,17.0295,0.00712207,-0.00609965,-0.00506054,0.00883663,-0.0078142,-0.32667,0.0096194,0.0328781,1378,1779,4.77305,-17.0295
161,-755,4.74255,17.0088,0,0,0,0,0,0,0,-1,1385,1779,4.74258,-17.0088
168,-755,3.98181,7.35901,0,0,0,0,0,0,0,-1,1392,1779,3.98184,-7.35904
175,-755,8.17065,1.34363,0,0,0,0,0,0,0,-1,1399,1779,8.1706,-1.34368
182,-755,8.09216,2.96924,0,0,0,0,0,0,0,-1,1406,1779,8.09213,-2.9693
189,-755,8.04419,4.68042,0,0,0,0,0,0,0,-1,1413,1779,8.04419,-4.68046
196,-755,7.74841,7.4541,0,0,0,0,0,0,0,-1,1420,1779,7.74842,-7.45405
203,-755,4.80554,6.88696,0,0,0,0,0,0,0,-1,1427,1779,4.80554,-6.88697
210,-755,25.1694,7.35693,0,0,0,0,0,0,0,-1,1434,1779,25.1694,-7.35688
217,-755,5.01648,16.411,0,0,0,0,0,0,0,-1,1441,1779,5.01646,-16.411
224,-755,4.80054,16.647,0,0,0,0,0,0,0,-1,1448,1779,4.80057,-16.6469
231,-755,4.9292,16.7155,0,0,0,0,0,0,0,-1,1455,1779,4.92925,-16.7155
238,-755,5.67761,16.6462,0,0,0,0,0,0,0,-1,1462,1779,5.67762,-16.6462
245,-755,20.302,9.36731,0,0,0,0,0,0,0,-1,1469,1779,20.302,-9.36729
252,-755,19.3887,8.81555,0,0,0,0,0,0,0,-1,1476,1779,19.3887,-8.81555
259,-755,18.481,8.25134,0,0,0,0,0,0,0,-1,1483,1779,18.4809,-8.25139
266,-755,17.255,7.86096,0,0,0,0,0,0,0,-1,1490,1779,17.255,-7.86092
273,-755,15.7932,7.59778,0,0,0,0,0,0,0,-1,1497,1779,15.7932,-7.59777
280,-755,14.6255,7.34802,0,0,0,0,0,0,0,-1,1504,1779,14.6254,-7.34806
287,-755,13.1736,7.34705,0,0,0,0,0,0,0,-1,1511,1779,13.1736,-7.34709
294,-755,11.4563,7.27002,0,0,0,0,0,0,0,-1,1518,1779,11.4563,-7.26998
301,-755,9.98267,7.87927,0,0,0,0,0,0,0,-1,1525,1779,9.98265,-7.87925
308,-755,8.23889,8.34631,0,0,0,0,0,0,0,-1,1532,1779,8.23889,-8.34626
315,-755,6.46362,8.76587,0,0,0,0,0,0,0,-1,1539,1779,6.46364,-8.76592
322,-755,0,0,0,0,0,0,0,0,0,-1,1546,1779,0,0
329,-755,0,0,0,0,0,0,0,0,0,-1,1553,1779,0,0
336,-755,0,0,0,0,0,0,0,0,0,-1,1560,1779,0,0
343,-755,0,0,0,0,0,0,0,0,0,-1,1567,1779,0,0
350,-755,0,0,0,0,0,0,0,0,0,-1,1574,1779,0,0
357,-755,0,0,0,0,0,0,0,0,0,-1,1581,1779,0,0
364,-755,0,0,0,0,0,0,0,0,0,-1,1588,1779,0,0
371,-755,0,0,0,0,0,0,0,0,0,-1,1595,1779,0,0
378,-755,0,0,0,0,0,0,0,0,0,-1,1602,1779,0,0
385,-755,0,0,0,0,0,0,0,0,0,-1,1609,1779,0,0
392,-755,0,0,0,0,0,0,0,0,0,-1,1616,1779,0,0
399,-755,0,0,0,0,0,0,0,0,0,-1,1623,1779,0,0
406,-755,0,0,0,0,0,0,0,0,0,-1,1630,1779,0,0
413,-755,0,0,0,0,0,0,0,0,0,-1,1637,1779,0,0
420,-755,0,0,0,0,0,0,0,0,0,-1,1644,1779,0,0
427,-755,0,0,0,0,0,0,0,0,0,-1,1651,1779,0,0
434,-755,0,0,0,0,0,0,0,0,0,-1,1658,1779,0,0
441,-755,0,0,0,0,0,0,0,0,0,-1,1665,1779,0,0
448,-755,0,0,0,0,0,0,0,0,0,-1,1672,1779,0,0
455,-755,0,0,0,0,0,0,0,0,0,-1,1679,1779,0,0
462,-755,0,0,0,0,0,0,0,0,0,-1,1686,1779,0,0
469,-755,0,0,0,0,0,0,0,0,0,-1,1693,1779,0,0
476,-755,0,0,0,0,0,0,0,0,0,-1,1700,1779,0,0
483,-755,0,0,0,0,0,0,0,0,0,-1,1707,1779,0,0
490,-755,0,0,0,0,0,0,0,0,0,-1,1714,1779,0,0
497,-755,0,0,0,0,0,0,0,0,0,-1,1721,1779,0,0
504,-755,0,0,0,0,0,0,0,0,0,-1,1728,1779,0,0
511,-755,0,0,0,0,0,0,0,0,0,-1,1735,1779,0,0
518,-755,0,0,0,0,0,0,0,0,0,-1,1742,1779,0,0
525,-755,0,0,0,0,0,0,0,0,0,-1,1749,1779,0,0
532,-755,0,0,0,0,0,0,0,0,0,-1,1756,1779,0,0
539,-755,0,0,0,0,0,0,0,0,0,-1,1763,1779,0,0
546,-755,0,0,0,0,0,0,0,0,0,-1,1770,1779,0,0
553,-755,0,0,0,0,0,0,0,0,0,-1,1777,1779,0,0
560,-755,0,0,0,0,0,0,0,0,0,-1,1784,1779,0,0
567,-755,0,0,0,0,0,0,0,0,0,-1,1791,1779,0,0
574,-755,0,0,0,0,0,0,0,0,0,-1,1798,1779,0,0
581,-755,0,0,0,0,0,0,0,0,0,-1,1805,1779,0,0
588,-755,0,0,0,0,0,0,0,0,0,-1,1812,1779,0,0
595,-755,0,0,0,0,0,0,0,0,0,-1,1819,1779,0,0
602,-755,0,0,0,0,0,0,0,0,0,-1,1826,1779,0,0
609,-755,0,0,0,0,0,0,0,0,0,-1,1833,1779,0,0
616,-755,0,0,0,0,0,0,0,0,0,-1,1840,1779,0,0
623,-755,0,0,0,0,0,0,0,0,0,-1,1847,1779,0,0
630,-755,0,0,0,0,0,0,0,0,0,-1,1854,1779,0,0
637,-755,0,0,0,0,0,0,0,0,0,-1,1861,1779,0,0
644,-755,0,0,0,0,0,0,0,0,0,-1,1868,1779,0,0
651,-755,0,0,0,0,0,0,0,0,0,-1,1875,1779,0,0
658,-755,0,0,0,0,0,0,0,0,0,-1,1882,1779,0,0
665,-755,0,0,0,0,0,0,0,0,0,-1,1889,1779,0,0
672,-755,0,0,0,0,0,0,0,0,0,-1,1896,1779,0,0
679,-755,0,0,0,0,0,0,0,0,0,-1,1903,1779,0,0
686,-755,0,0,0,0,0,0,0,0,0,-1,1910,1779,0,0
693,-755,0,0,0,0,0,0,0,0,0,-1,1917,1779,0,0
700,-755,0,0,0,0,0,0,0,0,0,-1,1924,1779,0,0
707,-755,0,0,0,0,0,0,0,0,0,-1,1931,1779,0,0
714,-755,0,0,0,0,0,0,0,0,0,-1,1938,1779,0,0
721,-755,0,0,0,0,0,0,0,0,0,-1,1945,1779,0,0
728,-755,0,0,0,0,0,0,0,0,0,-1,1952,1779,0,0
735,-755,0,0,0,0,0,0,0,0,0,-1,1959,1779,0,0
742,-755,0,0,0,0,0,0,0,0,0,-1,1966,1779,0,0
749,-755,0,0,0,0,0,0,0,0,0,-1,1973,1779,0,0
756,-755,0,0,0,0,0,0,0,0,0,-1,1980,1779,0,0
763,-755,0,0,0,0,0,0,0,0,0,-1,1987,1779,0,0
770,-755,0,0,0,0,0,0,0,0,0,-1,1994,1779,0,0
777,-755,0,0,0,0,0,0,0,0,0,-1,2001,1779,0,0
784,-755,0,0,0,0,0,0,0,0,0,-1,2008,1779,0,0
791,-755,0,0,0,0,0,0,0,0,0,-1,2015,1779,0,0
798,-755,0,0,0,0,0,0,0,0,0,-1,2022,1779,0,0
805,-755,0,0,0,0,0,0,0,0,0,-1,2029,1779,0,0
812,-755,0,0,0,0,0,0,0,0,0,-1,2036,1779,0,0
-700,-762,0,0,0,0,0,0,0,0,0,-1,524,1786,0,0
-693,-762,0,0,0,0,0,0,0,0,0,-1,531,1786,0,0
-686,-762,0,0,0,0,0,0,0,0,0,-1,538,1786,0,0
-679,-762,0,0,0,0,0,0,0,0,0,-1,545,1786,0,0
-672,-762,0,0,0,0,0,0,0,0,0,-1,552,1786,0,0
-665,-762,0,0,0,0,0,0,0,0,0,-1,559,1786,0,0
-658,-762,0,0,0,0,0,0,0,0,0,-1,566,1786,0,0
-651,-762,0,0,0,0,0,0,0,0,0,-1,573,1786,0,0
-644,-762,0,0,0,0,0,0,0,0,0,-1,580,1786,0,0
-637,-762,0,0,0,0,0,0,0,0,0,-1,587,1786,0,0
-630,-762,0,0,0,0,0,0,0,0,0,-1,594,1786,0,0
-623,-762,0,0,0,0,0,0,0,0,0,-1,601,1786,0,0
-616,-762,0,0,0,0,0,0,0,0,0,-1,608,1786,0,0
-609,-762,0,0,0,0,0,0,0,0,0,-1,615,1786,0,0
-602,-762,0,0,0,0,0,0,0,0,0,-1,622,1786,0,0
-595,-762,0,0,0,0,0,0,0,0,0,-1,629,1786,0,0
-588,-762,0,0,0,0,0,0,0,0,0,-1,636,1786,0,0
-581,-762,0,0,0,0,0,0,0,0,0,-1,643,1786,0,0
-574,-762,0,0,0,0,0,0,0,0,0,-1,650,1786,0,0
-567,-762,0,0,0,0,0,0,0,0,0,-1,657,1786,0,0
-560,-762,0,0,0,0,0,0,0,0,0,-1,664,1786,0,0
-553,-762,0,0,0,0,0,0,0,0,0,-1,671,1786,0,0
-546,-762,0,0,0,0,0,0,0,0,0,-1,678,1786,0,0
-539,-762,0,0,0,0,0,0,0,0,0,-1,685,1786,0,0
-532,-762,0,0,0,0,0,0,0,0,0,-1,692,1786,0,0
-525,-762,0,0,0,0,0,0,0,0,0,-1,699,1786,0,0
-518,-762,0,0,0,0,0,0,0,0,0,-1,706,1786,0,0
-511,-762,0,0,0,0,0,0,0,0,0,-1,713,1786,0,0
-504,-762,0,0,0,0,0,0,0,0,0,-1,720,1786,0,0
-497,-762,0,0,0,0,0,0,0,0,0,-1,727,1786,0,0
-490,-762,0,0,0,0,0,0,0,0,0,-1,734,1786,0,0
-483,-762,0,0,0,0,0,0,0,0,0,-1,741,1786,0,0
-476,-762,0,0,0,0,0,0,0,0,0,-1,748,1786,0,0
-469,-762,0,0,0,0,0,0,0,0,0,-1,755,1786,0,0
-462,-762,0,0,0,0,0,0,0,0,0,-1,762,1786,0,0
-455,-762,0,0,0,0,0,0,0,0,0,-1,769,1786,0,0
-448,-762,0,0,0,0,0,0,0,0,0,-1,776,1786,0,0
-441,-762,0,0,0,0,0,0,0,0,0,-1,783,1786,0,0
-434,-762,0,0,0,0,0,0,0,0,0,-1,790,1786,0,0
-427,-762,0,0,0,0,0,0,0,0,0,-1,797,1786,0,0
-420,-762,0,0,0,0,0,0,0,0,0,-1,804,1786,0,0
-413,-762,0,0,0,0,0,0,0,0,0,-1,811,1786,0,0
-406,-762,0,0,0,0,0,0,0,0,0,-1,818,1786,0,0
-399,-762,0,0,0,0,0,0,0,0,0,-1,825,1786,0,0
-392,-762,0,0,0,0,0,0,0,0,0,-1,832,1786,0,0
-385,-762,0,0,0,0,0,0,0,0,0,-1,839,1786,0,0
-378,-762,0,0,0,0,0,0,0,0,0,-1,846,1786,0,0
-371,-762,0,0,0,0,0,0,0,0,0,-1,853,1786,0,0
-364,-762,0,0,0,0,0,0,0,0,0,-1,860,1786,0,0
-357,-762,0,0,0,0,0,0,0,0,0,-1,867,1786,0,0
-350,-762,0,0,0,0,0,0,0,0,0,-1,874,1786,0,0
-343,-762,0,0,0,0,0,0,0,0,0,-1,881,1786,0,0
-336,-762,0,0,0,0,0,0,0,0,0,-1,888,1786,0,0
-329,-762,0,0,0,0,0,0,0,0,0,-1,895,1786,0,0
-322,-762,0,0,0,0,0,0,0,0,0,-1,902,1786,0,0
-315,-762,0,0,0,0,0,0,0,0,0,-1,909,1786,0,0
-308,-762,0,0,0,0,0,0,0,0,0,-1,916,1786,0,0
-301,-762,0,0,0,0,0,0,0,0,0,-1,923,1786,0,0
-294,-762,0,0,0,0,0,0,0,0,0,-1,930,1786,0,0
-287,-762,0,0,0,0,0,0,0,0,0,-1,937,1786,0,0
-280,-762,0,0,0,0,0,0,0,0,0,-1,944,1786,0,0
-273,-762,0,0,0,0,0,0,0,0,0,-1,951,1786,0,0
-266,-762,0,0,0,0,0,0,0,0,0,-1,958,1786,0,0
-259,-762,0,0,0,0,0,0,0,0,0,-1,965,1786,0,0
-252,-762,0,0,0,0,0,0,0,0,0,-1,972,1786,0,0
-245,-762,0,0,0,0,0,0,0,0,0,-1,979,1786,0,0
-238,-762,0,0,0,0,0,0,0,0,0,-1,986,1786,0,0
-231,-762,0,0,0,0,0,0,0,0,0,-1,993,1786,0,0
-224,-762,0,0,0,0,0,0,0,0,0,-1,1000,1786,0,0
-217,-762,0,0,0,0,0,0,0,0,0,-1,1007,1786,0,0
-210,-762,0,0,0,0,0,0,0,0,0,-1,1014,1786,0,0
-203,-762,0,0,0,0,0,0,0,0,0,-1,1021,1786,0,0
-196,-762,0,0,0,0,0,0,0,0,0,-1,1028,1786,0,0
-189,-762,0,0,0,0,0,0,0,0,0,-1,1035,1786,0,0
-182,-762,4.44226,13.2462,0,0,0,0,0,0,0,-1,1042,1786,4.44227,-13.2462
-175,-762,-1.29956,14.1766,0,0,0,0,0,0,0,-1,1049,1786,-1.29956,-14.1767
-168,-762,-2.08618,13.0768,-0.144502,-0.0917079,-0.0365376,-0.0730295,-0.163181,-1.09822,0.0943852,0.0494175,1056,1786,-2.08623,-13.0768
-161,-762,-3.29077,11.9508,-0.133274,-0.0820137,-0.0337174,-0.065291,-0.149997,-1.11038,0.0868422,0.0489414,1063,1786,-3.29076,-11.9508
-154,-762,-4.55823,11.1176,0,0,0,0,0,0,0,-1,1070,1786,-4.55828,-11.1175
-147,-762,-1.09119,4.58313,0,0,0,0,0,0,0,-1,1077,1786,-1.09124,-4.58313
-140,-762,4.99792,5.28589,0,0,0,0,0,0,0,-1,1084,1786,4.99793,-5.28587
-133,-762,3.75159,9.08374,0,0,0,0,0,0,0,-1,1091,1786,3.75161,-9.08378
-126,-762,6.12231,12.5032,0,0,0,0,0,0,0,-1,1098,1786,6.12238,-12.5032
-119,-762,4.32642,11.1714,0,0,0,0,0,0,0,-1,1105,1786,4.32644,-11.1713
-112,-762,6.35681,16.8671,0,0,0,0,0,0,0,-1,1112,1786,6.35682,-16.8671
-105,-762,5.86328,17.167,0,0,0,0,0,0,0,-1,1119,1786,5.86322,-17.1669
-98,-762,4.81543,16.9463,0,0,0,0,0,0,0,-1,1126,1786,4.81547,-16.9463
-91,-762,3.979,11.474,0,0,0,0,0,0,0,-1,1133,1786,3.97904,-11.474
-84,-762,0.415161,10.0322,0,0,0,0,0,0,0,-1,1140,1786,0.415179,-10.0322
-77,-762,0.305054,8.49365,0,0,0,0,0,0,0,-1,1147,1786,0.305008,-8.49362
-70,-762,0.183716,6.74622,0,0,0,0,0,0,0,-1,1154,1786,0.183696,-6.74621
-63,-762,-0.883057,9.08813,0,0,0,0,0,0,0,-1,1161,1786,-0.88311,-9.08808
-56,-762,-0.578979,5.10254,0,0,0,0,0,0,0,-1,1168,1786,-0.578951,-5.10249
-49,-762,-2.04541,3.66321,0,0,0,0,0,0,0,-1,1175,1786,-2.0454,-3.66319
-42,-762,-2.23462,3.474,0,0,0,0,0,0,0,-1,1182,1786,-2.23459,-3.47399
-35,-762,-3.28992,1.68164,0,0,0,0,0,0,0,-1,1189,1786,-3.28998,-1.68164
-28,-762,-3.75378,1.37769,0,0,0,0,0,0,0,-1,1196,1786,-3.75373,-1.37767
-21,-762,5.70203,17.4232,0,0,0,0,0,0,0,-1,1203,1786,5.70206,-17.4232
-14,-762,5.63379,17.465,0.00515988,-0.0414537,0.00980568,0.00713862,-0.0434324,0.199121,0.0316044,0.0450195,1210,1786,5.63385,-17.465
-7,-762,5.06824,16.8118,0.0055433,-0.0389537,0.00949248,0.00748369,-0.0408941,0.201637,0.0300694,0.0494128,1217,1786,5.06823,-16.8117
0,-762,5.09875,16.7913,0.0057009,-0.0368249,0.00905445,0.00754847,-0.0386725,0.201288,0.0286314,0.0360318,1224,1786,5.09881,-16.7913
7,-762,5.04871,16.8988,0.0057033,-0.0349178,0.00855197,0.00743033,-0.0366448,0.199265,0.0272465,0.0208909,1231,1786,5.04874,-16.8988
14,-762,5.02356,17.0208,0.00543201,-0.0330628,0.00784241,0.0069684,-0.0345992,0.193457,0.0257057,0.0330388,1238,1786,5.02351,-17.0208
21,-762,5.08398,16.9982,0.00511442,-0.0310771,0.00636881,0.00620246,-0.0321651,0.169206,0.0237821,0.0395552,1245,1786,5.08403,-16.9982
28,-762,5.03101,17.0388,0.0051957,-0.0302804,0.00493937,0.00587057,-0.0309553,0.135791,0.0228465,0.0387754,1252,1786,5.03106,-17.0389
35,-762,4.88306,17.1571,0.00563233,-0.0290123,0.00378037,0.00604004,-0.02942,0.107434,0.0219061,0.0397263,1259,1786,4.88305,-17.1571
42,-762,4.87146,17.1594,0.00476988,-0.0279858,0.00255801,0.00496844,-0.0281843,0.0774678,0.0206459,0.0374578,1266,1786,4.87147,-17.1594
49,-762,4.87231,17.1609,0.00313762,-0.0274573,0.000945633,0.00316682,-0.0274865,0.0308689,0.019466,0.0299302,1273,1786,4.8723,-17.1609
56,-762,4.99927,17.1368,0.00173073,-0.0271572,-0.000386317,0.0017359,-0.0271623,-0.0133698,0.0187137,0.0220216,1280,1786,4.99926,-17.1369
63,-762,4.96863,17.1453,0.000746849,-0.0270974,-0.001644,0.000843581,-0.0271941,-0.0587706,0.018417,0.0218843,1287,1786,4.96866,-17.1452
70,-762,4.89294,17.1425,-9.24914e-05,-0.0268079,-0.00307108,0.000256001,-0.0271564,-0.112992,0.0181902,0.0208508,1294,1786,4.89294,-17.1425
77,-762,4.91992,17.1328,-0.000834236,-0.0265081,-0.00423595,-0.000153397,-0.0271889,-0.159366,0.018075,0.0264377,1301,1786,4.9199,-17.1329
84,-762,5.03052,17.1615,-0.00135731,-0.0261257,-0.00482569,-0.000450321,-0.0270327,-0.185783,0.0178736,0.03202,1308,1786,5.03047,-17.1615
91,-762,5.14111,17.2115,-0.00214173,-0.0258462,-0.00542687,-0.00095838,-0.0270295,-0.214693,0.0177089,0.0398958,1315,1786,5.14116,-17.2115
98,-762,5.12537,17.2677,-0.00220188,-0.0253907,-0.00627241,-0.000613975,-0.0269786,-0.247948,0.0177846,0.0420395,1322,1786,5.12531,-17.2677
105,-762,4.8927,17.2477,-0.00171772,-0.0243544,-0.00657546,5.36898e-05,-0.0261258,-0.26315,0.0174351,0.0385416,1329,1786,4.89271,-17.2476
112,-762,4.74451,17.2203,-0.000750972,-0.022875,-0.0068682,0.00120778,-0.0248338,-0.277816,0.0169728,0.0418953,1336,1786,4.74453,-17.2204
119,-762,4.82776,17.2393,0.000696891,-0.0210718,-0.00726878,0.00290087,-0.0232758,-0.2944,0.016569,0.0435405,1343,1786,4.82771,-17.2392
126,-762,4.67969,17.1699,0.00240766,-0.0189996,-0.00728088,0.00464926,-0.0212412,-0.298665,0.0159382,0.0427744,1350,1786,4.67969,-17.1699
133,-762,4.56689,17.0984,0.00398219,-0.0154936,-0.00774306,0.00668542,-0.0181968,-0.335887,0.0148694,0.0436874,1357,1786,4.56694,-17.0984
140,-762,4.51746,17.0286,0.00562087,-0.0133635,-0.00839992,0.00880387,-0.0165465,-0.362213,0.0148619,0.0435765,1364,1786,4.51751,-17.0286
147,-762,4.72742,16.9462,0.00847124,-0.0106008,-0.00853795,0.0117349,-0.0138645,-0.365117,0.0147968,0.0454203,1371,1786,4.72742,-16.9461
154,-762,4.72034,17.1206,0,0,0,0,0,0,0,-1,1378,1786,4.72028,-17.1207
161,-762,7.93408,-0.126221,0,0,0,0,0,0,0,-1,1385,1786,7.93402,0.126232
168,-762,8.19287,0.880615,0,0,0,0,0,0,0,-1,1392,1786,8.19291,-0.880603
175,-762,8.33997,1.95947,0,0,0,0,0,0,0,-1,1399,1786,8.33997,-1.95942
182,-762,8.28418,3.56482,0,0,0,0,0,0,0,-1,1406,1786,8.28415,-3.56485
189,-762,8.21179,5.23389,0,0,0,0,0,0,0,-1,1413,1786,8.21183,-5.23383
196,-762,8.05969,6.95483,0,0,0,0,0,0,0,-1,1420,1786,8.05972,-6.9548
203,-762,24.0077,7.10425,0,0,0,0,0,0,0,-1,1427,1786,24.0077,-7.10426
210,-762,23.8073,7.6499,0,0,0,0,0,0,0,-1,1434,1786,23.8073,-7.64987
217,-762,23.3193,8.24426,0,0,0,0,0,0,0,-1,1441,1786,23.3194,-8.2442
224,-762,4.64465,18.4674,0,0,0,0,0,0,0,-1,1448,1786,4.64462,-18.4674
231,-762,4.95935,16.819,0,0,0,0,0,0,0,-1,1455,1786,4.95932,-16.8189
238,-762,6.01721,15.6074,0,0,0,0,0,0,0,-1,1462,1786,6.01719,-15.6075
245,-762,19.4435,8.03296,0,0,0,0,0,0,0,-1,1469,1786,19.4434,-8.03292
252,-762,18.4817,8.25159,0,0,0,0,0,0,0,-1,1476,1786,18.4816,-8.25162
259,-762,17.4619,7.89832,0,0,0,0,0,0,0,-1,1483,1786,17.462,-7.89836
266,-762,16.451,7.67773,0,0,0,0,0,0,0,-1,1490,1786,16.4511,-7.67773
273,-762,15.287,7.5304,0,0,0,0,0,0,0,-1,1497,1786,15.2869,-7.53044
280,-762,14.1501,7.38379,0,0,0,0,0,0,0,-1,1504,1786,14.1502,-7.38376
287,-762,12.6891,7.99133,0,0,0,0,0,0,0,-1,1511,1786,12.6891,-7.99135
294,-762,11.6133,8.5918,0,0,0,0,0,0,0,-1,1518,1786,11.6133,-8.59175
301,-762,9.90637,8.80591,0,0,0,0,0,0,0,-1,1525,1786,9.90636,-8.80596
308,-762,0,0,0,0,0,0,0,0,0,-1,1532,1786,0,0
315,-762,0,0,0,0,0,0,0,0,0,-1,1539,1786,0,0
322,-762,0,0,0,0,0,0,0,0,0,-1,1546,1786,0,0
329,-762,0,0,0,0,0,0,0,0,0,-1,1553,1786,0,0
336,-762,0,0,0,0,0,0,0,0,0,-1,1560,1786,0,0
343,-762,0,0,0,0,0,0,0,0,0,-1,1567,1786,0,0
350,-762,0,0,0,0,0,0,0,0,0,-1,1574,1786,0,0
357,-762,0,0,0,0,0,0,0,0,0,-1,1581,1786,0,0
364,-762,0,0,0,0,0,0,0,0,0,-1,1588,1786,0,0
371,-762,0,0,0,0,0,0,0,0,0,-1,1595,1786,0,0
378,-762,0,0,0,0,0,0,0,0,0,-1,1602,1786,0,0
385,-762,0,0,0,0,0,0,0,0,0,-1,1609,1786,0,0
392,-762,0,0,0,0,0,0,0,0,0,-1,1616,1786,0,0
399,-762,0,0,0,0,0,0,0,0,0,-1,1623,1786,0,0
406,-762,0,0,0,0,0,0,0,0,0,-1,1630,1786,0,0
413,-762,0,0,0,0,0,0,0,0,0,-1,1637,1786,0,0
420,-762,0,0,0,0,0,0,0,0,0,-1,1644,1786,0,0
427,-762,0,0,0,0,0,0,0,0,0,-1,1651,1786,0,0
434,-762,0,0,0,0,0,0,0,0,0,-1,1658,1786,0,0
441,-762,0,0,0,0,0,0,0,0,0,-1,1665,1786,0,0
448,-762,0,0,0,0,0,0,0,0,0,-1,1672,1786,0,0
455,-762,0,0,0,0,0,0,0,0,0,-1,1679,1786,0,0
462,-762,0,0,0,0,0,0,0,0,0,-1,1686,1786,0,0
469,-762,0,0,0,0,0,0,0,0,0,-1,1693,1786,0,0
476,-762,0,0,0,0,0,0,0,0,0,-1,1700,1786,0,0
483,-762,0,0,0,0,0,0,0,0,0,-1,1707,1786,0,0
490,-762,0,0,0,0,0,0,0,0,0,-1,1714,1786,0,0
497,-762,0,0,0,0,0,0,0,0,0,-1,1721,1786,0,0
504,-762,0,0,0,0,0,0,0,0,0,-1,1728,1786,0,0
511,-762,0,0,0,0,0,0,0,0,0,-1,1735,1786,0,0
518,-762,0,0,0,0,0,0,0,0,0,-1,1742,1786,0,0
525,-762,0,0,0,0,0,0,0,0,0,-1,1749,1786,0,0
532,-762,0,0,0,0,0,0,0,0,0,-1,1756,1786,0,0
539,-762,0,0,0,0,0,0,0,0,0,-1,1763,1786,0,0
546,-762,0,0,0,0,0,0,0,0,0,-1,1770,1786,0,0
553,-762,0,0,0,0,0,0,0,0,0,-1,1777,1786,0,0
560,-762,0,0,0,0,0,0,0,0,0,-1,1784,1786,0,0
567,-762,0,0,0,0,0,0,0,0,0,-1,1791,1786,0,0
574,-762,0,0,0,0,0,0,0,0,0,-1,1798,1786,0,0
581,-762,0,0,0,0,0,0,0,0,0,-1,1805,1786,0,0
588,-762,0,0,0,0,0,0,0,0,0,-1,1812,1786,0,0
595,-762,0,0,0,0,0,0,0,0,0,-1,1819,1786,0,0
602,-762,0,0,0,0,0,0,0,0,0,-1,1826,1786,0,0
609,-762,0,0,0,0,0,0,0,0,0,-1,1833,1786,0,0
616,-762,0,0,0,0,0,0,0,0,0,-1,1840,1786,0,0
623,-762,0,0,0,0,0,0,0,0,0,-1,1847,1786,0,0
630,-762,0,0,0,0,0,0,0,0,0,-1,1854,1786,0,0
637,-762,0,0,0,0,0,0,0,0,0,-1,1861,1786,0,0
644,-762,0,0,0,0,0,0,0,0,0,-1,1868,1786,0,0
651,-762,0,0,0,0,0,0,0,0,0,-1,1875,1786,0,0
658,-762,0,0,0,0,0,0,0,0,0,-1,1882,1786,0,0
665,-762,0,0,0,0,0,0,0,0,0,-1,1889,1786,0,0
672,-762,0,0,0,0,0,0,0,0,0,-1,1896,1786,0,0
679,-762,0,0,0,0,0,0,0,0,0,-1,1903,1786,0,0
686,-762,0,0,0,0,0,0,0,0,0,-1,1910,1786,0,0
693,-762,0,0,0,0,0,0,0,0,0,-1,1917,1786,0,0
700,-762,0,0,0,0,0,0,0,0,0,-1,1924,1786,0,0
707,-762,0,0,0,0,0,0,0,0,0,-1,1931,1786,0,0
714,-762,0,0,0,0,0,0,0,0,0,-1,1938,1786,0,0
721,-762,0,0,0,0,0,0,0,0,0,-1,1945,1786,0,0
728,-762,0,0,0,0,0,0,0,0,0,-1,1952,1786,0,0
735,-762,0,0,0,0,0,0,0,0,0,-1,1959,1786,0,0
742,-762,0,0,0,0,0,0,0,0,0,-1,1966,1786,0,0
749,-762,0,0,0,0,0,0,0,0,0,-1,1973,1786,0,0
756,-762,0,0,0,0,0,0,0,0,0,-1,1980,1786,0,0
763,-762,0,0,0,0,0,0,0,0,0,-1,1987,1786,0,0
770,-762,0,0,0,0,0,0,0,0,0,-1,1994,1786,0,0
777,-762,0,0,0,0,0,0,0,0,0,-1,2001,1786,0,0
784,-762,0,0,0,0,0,0,0,0,0,-1,2008,1786,0,0
791,-762,0,0,0,0,0,0,0,0,0,-1,2015,1786,0,0
798,-762,0,0,0,0,0,0,0,0,0,-1,2022,1786,0,0
805,-762,0,0,0,0,0,0,0,0,0,-1,2029,1786,0,0
812,-762,0,0,0,0,0,0,0,0,0,-1,2036,1786,0,0
-700,-769,0,0,0,0,0,0,0,0,0,-1,524,1793,0,0
-693,-769,0,0,0,0,0,0,0,0,0,-1,531,1793,0,0
-686,-769,0,0,0,0,0,0,0,0,0,-1,538,1793,0,0
-679,-769,0,0,0,0,0,0,0,0,0,-1,545,1793,0,0
-672,-769,0,0,0,0,0,0,0,0,0,-1,552,1793,0,0
-665,-769,0,0,0,0,0,0,0,0,0,-1,559,1793,0,0
-658,-769,0,0,0,0,0,0,0,0,0,-1,566,1793,0,0
-651,-769,0,0,0,0,0,0,0,0,0,-1,573,1793,0,0
-644,-769,0,0,0,0,0,0,0,0,0,-1,580,1793,0,0
-637,-769,0,0,0,0,0,0,0,0,0,-1,587,1793,0,0
-630,-769,0,0,0,0,0,0,0,0,0,-1,594,1793,0,0
-623,-769,0,0,0,0,0,0,0,0,0,-1,601,1793,0,0
-616,-769,0,0,0,0,0,0,0,0,0,-1,608,1793,0,0
-609,-769,0,0,0,0,0,0,0,0,0,-1,615,1793,0,0
-602,-769,0,0,0,0,0,0,0,0,0,-1,622,1793,0,0
-595,-769,0,0,0,0,0,0,0,0,0,-1,629,1793,0,0
-588,-769,0,0,0,0,0,0,0,0,0,-1,636,1793,0,0
-581,-769,0,0,0,0,0,0,0,0,0,-1,643,1793,0,0
-574,-769,0,0,0,0,0,0,0,0,0,-1,650,1793,0,0
-567,-769,0,0,0,0,0,0,0,0,0,-1,657,1793,0,0
-560,-769,0,0,0,0,0,0,0,0,0,-1,664,1793,0,0
-553,-769,0,0,0,0,0,0,0,0,0,-1,671,1793,0,0
-546,-769,0,0,0,0,0,0,0,0,0,-1,678,1793,0,0
-539,-769,0,0,0,0,0,0,0,0,0,-1,685,1793,0,0
-532,-769,0,0,0,0,0,0,0,0,0,-1,692,1793,0,0
-525,-769,0,0,0,0,0,0,0,0,0,-1,699,1793,0,0
-518,-769,0,0,0,0,0,0,0,0,0,-1,706,1793,0,0
-511,-769,0,0,0,0,0,0,0,0,0,-1,713,1793,0,0
-504,-769,0,0,0,0,0,0,0,0,0,-1,720,1793,0,0
-497,-769,0,0,0,0,0,0,0,0,0,-1,727,1793,0,0
-490,-769,0,0,0,0,0,0,0,0,0,-1,734,1793,0,0
-483,-769,0,0,0,0,0,0,0,0,0,-1,741,1793,0,0
-476,-769,0,0,0,0,0,0,0,0,0,-1,748,1793,0,0
-469,-769,0,0,0,0,0,0,0,0,0,-1,755,1793,0,0
-462,-769,0,0,0,0,0,0,0,0,0,-1,762,1793,0,0
-455,-769,0,0,0,0,0,0,0,0,0,-1,769,1793,0,0
-448,-769,0,0,0,0,0,0,0,0,0,-1,776,1793,0,0
-441,-769,0,0,0,0,0,0,0,0,0,-1,783,1793,0,0
-434,-769,0,0,0,0,0,0,0,0,0,-1,790,1793,0,0
-427,-769,0,0,0,0,0,0,0,0,0,-1,797,1793,0,0
-420,-769,0,0,0,0,0,0,0,0,0,-1,804,1793,0,0
-413,-769,0,0,0,0,0,0,0,0,0,-1,811,1793,0,0
-406,-769,0,0,0,0,0,0,0,0,0,-1,818,1793,0,0
-399,-769,0,0,0,0,0,0,0,0,0,-1,825,1793,0,0
-392,-769,0,0,0,0,0,0,0,0,0,-1,832,1793,0,0
-385,-769,0,0,0,0,0,0,0,0,0,-1,839,1793,0,0
-378,-769,0,0,0,0,0,0,0,0,0,-1,846,1793,0,0
-371,-769,0,0,0,0,0,0,0,0,0,-1,853,1793,0,0
-364,-769,0,0,0,0,0,0,0,0,0,-1,860,1793,0,0
-357,-769,0,0,0,0,0,0,0,0,0,-1,867,1793,0,0
-350,-769,0,0,0,0,0,0,0,0,0,-1,874,1793,0,0
-343,-769,0,0,0,0,0,0,0,0,0,-1,881,1793,0,0
-336,-769,0,0,0,0,0,0,0,0,0,-1,888,1793,0,0
-329,-769,0,0,0,0,0,0,0,0,0,-1,895,1793,0,0
-322,-769,0,0,0,0,0,0,0,0,0,-1,902,1793,0,0
-315,-769,0,0,0,0,0,0,0,0,0,-1,909,1793,0,0
-308,-769,0,0,0,0,0,0,0,0,0,-1,916,1793,0,0
-301,-769,0,0,0,0,0,0,0,0,0,-1,923,1793,0,0
-294,-769,0,0,0,0,0,0,0,0,0,-1,930,1793,0,0
-287,-769,0,0,0,0,0,0,0,0,0,-1,937,1793,0,0
-280,-769,0,0,0,0,0,0,0,0,0,-1,944,1793,0,0
-273,-769,0,0,0,0,0,0,0,0,0,-1,951,1793,0,0
-266,-769,0,0,0,0,0,0,0,0,0,-1,958,1793,0,0
-259,-769,0,0,0,0,0,0,0,0,0,-1,965,1793,0,0
-252,-769,0,0,0,0,0,0,0,0,0,-1,972,1793,0,0
-245,-769,0,0,0,0,0,0,0,0,0,-1,979,1793,0,0
-238,-769,0,0,0,0,0,0,0,0,0,-1,986,1793,0,0
-231,-769,0,0,0,0,0,0,0,0,0,-1,993,1793,0,0
-224,-769,0,0,0,0,0,0,0,0,0,-1,1000,1793,0,0
-217,-769,0,0,0,0,0,0,0,0,0,-1,1007,1793,0,0
-210,-769,0,0,0,0,0,0,0,0,0,-1,1014,1793,0,0
-203,-769,0,0,0,0,0,0,0,0,0,-1,1021,1793,0,0
-196,-769,0,0,0,0,0,0,0,0,0,-1,1028,1793,0,0
-189,-769,0,0,0,0,0,0,0,0,0,-1,1035,1793,0,0
-182,-769,0,0,0,0,0,0,0,0,0,-1,1042,1793,0,0
-175,-769,0,0,0,0,0,0,0,0,0,-1,1049,1793,0,0
-168,-769,0,0,0,0,0,0,0,0,0,-1,1056,1793,0,0
-161,-769,-3.61145,12.4761,0,0,0,0,0,0,0,-1,1063,1793,-3.6114,-12.476
-154,-769,-0.813232,5.32874,0,0,0,0,0,0,0,-1,1070,1793,-0.813269,-5.32872
-147,-769,4.26587,4.7002,0,0,0,0,0,0,0,-1,1077,1793,4.26593,-4.70022
-140,-769,4.10376,5.28589,0,0,0,0,0,0,0,-1,1084,1793,4.10371,-5.28584
-133,-769,6.422,8.21777,0,0,0,0,0,0,0,-1,1091,1793,6.42198,-8.21773
-126,-769,5.93201,12.4241,0,0,0,0,0,0,0,-1,1098,1793,5.93198,-12.424
-119,-769,7.8894,17.3041,0,0,0,0,0,0,0,-1,1105,1793,7.88941,-17.304
-112,-769,6.91418,17.4807,0,0,0,0,0,0,0,-1,1112,1793,6.91417,-17.4807
-105,-769,6.08484,17.6558,0,0,0,0,0,0,0,-1,1119,1793,6.08489,-17.6558
-98,-769,5.22229,17.7552,0,0,0,0,0,0,0,-1,1126,1793,5.2223,-17.7552
-91,-769,3.25049,12.1672,0,0,0,0,0,0,0,-1,1133,1793,3.25045,-12.1673
-84,-769,3.25684,11.7041,0,0,0,0,0,0,0,-1,1140,1793,3.25681,-11.7041
-77,-769,0.406616,9.9126,0,0,0,0,0,0,0,-1,1147,1793,0.406638,-9.91265
-70,-769,1.04944,11.9852,0,0,0,0,0,0,0,-1,1154,1793,1.04947,-11.9852
-63,-769,-2.39709,9.60339,0,0,0,0,0,0,0,-1,1161,1793,-2.39706,-9.6034
-56,-769,-5.84363,7.22156,0,0,0,0,0,0,0,-1,1168,1793,-5.84359,-7.22157
-49,-769,-2.41443,3.95471,0,0,0,0,0,0,0,-1,1175,1793,-2.41446,-3.95471
-42,-769,-3.1991,2.64941,0,0,0,0,0,0,0,-1,1182,1793,-3.19914,-2.64944
-35,-769,-3.50183,1.73389,0,0,0,0,0,0,0,-1,1189,1793,-3.50189,-1.7339
-28,-769,-3.96985,1.14075,0,0,0,0,0,0,0,-1,1196,1793,-3.96985,-1.14078
-21,-769,3.54541,10.4323,0,0,0,0,0,0,0,-1,1203,1793,3.54539,-10.4322
-14,-769,6.09143,18.0834,0,0,0,0,0,0,0,-1,1210,1793,6.09146,-18.0833
-7,-769,5.07544,16.8147,0,0,0,0,0,0,0,-1,1217,1793,5.07544,-16.8147
0,-769,5.13647,16.6954,0,0,0,0,0,0,0,-1,1224,1793,5.13649,-16.6954
7,-769,5.10388,16.8534,0.00857679,-0.0452337,0.0125957,0.0113792,-0.0480361,0.218922,0.0364146,0.0469495,1231,1793,5.10386,-16.8534
14,-769,5.50305,17.0566,0.00849757,-0.042827,0.0116376,0.011013,-0.0453425,0.212876,0.0344905,0.0425517,1238,1793,5.50304,-17.0566
21,-769,5.50037,17.1819,0.00827276,-0.040303,0.00969012,0.0101344,-0.0421647,0.189809,0.032027,0.0435148,1245,1793,5.5004,-17.1819
28,-769,5.26697,17.0605,0.00842678,-0.0394414,0.00774194,0.00964777,-0.0406624,0.156423,0.0308316,0.0430396,1252,1793,5.26698,-17.0605
35,-769,5.0177,17.333,0.00893092,-0.0380031,0.0061751,0.00972978,-0.038802,0.128653,0.0296483,0.0455517,1259,1793,5.01772,-17.333
42,-769,4.85864,17.5994,0,0,0,0,0,0,0,-1,1266,1793,4.85859,-17.5994
49,-769,4.79419,18.0009,0,0,0,0,0,0,0,-1,1273,1793,4.79424,-18.0008
56,-769,5.2887,17.1808,0.00374507,-0.0362556,0.000578012,0.00375342,-0.0362639,0.0144461,0.0255193,0.0428633,1280,1793,5.28866,-17.1808
63,-769,5.18884,17.0089,0.00231006,-0.0363052,-0.00111136,0.00234202,-0.0363372,-0.0287485,0.025042,0.0473293,1287,1793,5.18889,-17.009
70,-769,5.03271,16.7433,0.00101661,-0.0361119,-0.00302896,0.00126209,-0.0363573,-0.080868,0.0246697,0.0447526,1294,1793,5.03266,-16.7433
77,-769,5.08398,16.6068,-0.00016565,-0.0358504,-0.00467674,0.00043709,-0.0364532,-0.128174,0.0244491,0.0426552,1301,1793,5.08395,-16.6068
84,-769,5.40344,17.1909,-0.00107063,-0.0354268,-0.00559598,-0.000182126,-0.0363153,-0.157461,0.0241497,0.0447536,1308,1793,5.40345,-17.191
91,-769,6.00757,17.5737,-0.0023887,-0.0351727,-0.0065464,-0.00112983,-0.0364315,-0.18998,0.02392,0.0431646,1315,1793,6.00751,-17.5737
98,-769,4.79163,18.3165,-0.00262233,-0.0346008,-0.00790975,-0.000772843,-0.0364503,-0.229696,0.0240467,0.0444433,1322,1793,4.79158,-18.3165
105,-769,4.75867,18.0259,-0.0019795,-0.0330181,-0.00851319,0.000202138,-0.0351997,-0.250867,0.0235341,0.0429769,1329,1793,4.75862,-18.0258
112,-769,4.6615,17.7782,-0.00060784,-0.0308179,-0.00919428,0.00197036,-0.0333961,-0.273392,0.022949,0.0462297,1336,1793,4.66149,-17.7781
119,-769,4.99854,17.2415,0.00150395,-0.0281974,-0.0100535,0.00458689,-0.0312804,-0.297551,0.0225387,0.0443242,1343,1793,4.99854,-17.2415
126,-769,4.58118,17.2164,0,0,0,0,0,0,0,-1,1350,1793,4.58112,-17.2164
133,-769,4.41357,17.1373,0,0,0,0,0,0,0,-1,1357,1793,4.41354,-17.1373
140,-769,4.33752,17.0337,0,0,0,0,0,0,0,-1,1364,1793,4.33752,-17.0337
147,-769,4.69775,16.8547,0,0,0,0,0,0,0,-1,1371,1793,4.69778,-16.8548
154,-769,6.37561,1.00024,0,0,0,0,0,0,0,-1,1378,1793,6.37566,-1.00028
161,-769,6.57019,1.53223,0,0,0,0,0,0,0,-1,1385,1793,6.57019,-1.53226
168,-769,8.27637,0.756958,0,0,0,0,0,0,0,-1,1392,1793,8.27639,-0.756944
175,-769,8.47144,2.41174,0,0,0,0,0,0,0,-1,1399,1793,8.47147,-2.4118
182,-769,8.41479,4.05994,0,0,0,0,0,0,0,-1,1406,1793,8.41479,-4.05997
189,-769,8.25049,5.68433,0,0,0,0,0,0,0,-1,1413,1793,8.25054,-5.68428
196,-769,7.97729,7.42847,0,0,0,0,0,0,0,-1,1420,1793,7.9773,-7.42848
203,-769,22.0977,6.73889,0,0,0,0,0,0,0,-1,1427,1793,22.0977,-6.7389
210,-769,22.1115,7.77246,0,0,0,0,0,0,0,-1,1434,1793,22.1115,-7.77248
217,-769,22.4723,8.79102,0,0,0,0,0,0,0,-1,1441,1793,22.4723,-8.79099
224,-769,22.1348,9.35278,0,0,0,0,0,0,0,-1,1448,1793,22.1348,-9.35283
231,-769,5.99573,17.9962,0,0,0,0,0,0,0,-1,1455,1793,5.99578,-17.9962
238,-769,21.7686,9.32788,0,0,0,0,0,0,0,-1,1462,1793,21.7685,-9.3279
245,-769,18.8502,7.89856,0,0,0,0,0,0,0,-1,1469,1793,18.8502,-7.89854
252,-769,17.4956,7.51794,0,0,0,0,0,0,0,-1,1476,1793,17.4956,-7.51795
259,-769,16.4871,7.42102,0,0,0,0,0,0,0,-1,1483,1793,16.4871,-7.42104
266,-769,15.8488,7.3905,0,0,0,0,0,0,0,-1,1490,1793,15.8488,-7.39046
273,-769,14.8075,7.56152,0,0,0,0,0,0,0,-1,1497,1793,14.8075,-7.56152
280,-769,13.6519,7.43054,0,0,0,0,0,0,0,-1,1504,1793,13.6518,-7.43058
287,-769,0,0,0,0,0,0,0,0,0,-1,1511,1793,0,0
294,-769,0,0,0,0,0,0,0,0,0,-1,1518,1793,0,0
301,-769,0,0,0,0,0,0,0,0,0,-1,1525,1793,0,0
308,-769,0,0,0,0,0,0,0,0,0,-1,1532,1793,0,0
315,-769,0,0,0,0,0,0,0,0,0,-1,1539,1793,0,0
322,-769,0,0,0,0,0,0,0,0,0,-1,1546,1793,0,0
329,-769,0,0,0,0,0,0,0,0,0,-1,1553,1793,0,0
336,-769,0,0,0,0,0,0,0,0,0,-1,1560,1793,0,0
343,-769,0,0,0,0,0,0,0,0,0,-1,1567,1793,0,0
350,-769,0,0,0,0,0,0,0,0,0,-1,1574,1793,0,0
357,-769,0,0,0,0,0,0,0,0,0,-1,1581,1793,0,0
364,-769,0,0,0,0,0,0,0,0,0,-1,1588,1793,0,0
371,-769,0,0,0,0,0,0,0,0,0,-1,1595,1793,0,0
378,-769,0,0,0,0,0,0,0,0,0,-1,1602,1793,0,0
385,-769,0,0,0,0,0,0,0,0,0,-1,1609,1793,0,0
392,-769,0,0,0,0,0,0,0,0,0,-1,1616,1793,0,0
399,-769,0,0,0,0,0,0,0,0,0,-1,1623,1793,0,0
406,-769,0,0,0,0,0,0,0,0,0,-1,1630,1793,0,0
413,-769,0,0,0,0,0,0,0,0,0,-1,1637,1793,0,0
420,-769,0,0,0,0,0,0,0,0,0,-1,1644,1793,0,0
427,-769,0,0,0,0,0,0,0,0,0,-1,1651,1793,0,0
434,-769,0,0,0,0,0,0,0,0,0,-1,1658,1793,0,0
441,-769,0,0,0,0,0,0,0,0,0,-1,1665,1793,0,0
448,-769,0,0,0,0,0,0,0,0,0,-1,1672,1793,0,0
455,-769,0,0,0,0,0,0,0,0,0,-1,1679,1793,0,0
462,-769,0,0,0,0,0,0,0,0,0,-1,1686,1793,0,0
469,-769,0,0,0,0,0,0,0,0,0,-1,1693,1793,0,0
476,-769,0,0,0,0,0,0,0,0,0,-1,1700,1793,0,0
483,-769,0,0,0,0,0,0,0,0,0,-1,1707,1793,0,0
490,-769,0,0,0,0,0,0,0,0,0,-1,1714,1793,0,0
497,-769,0,0,0,0,0,0,0,0,0,-1,1721,1793,0,0
504,-769,0,0,0,0,0,0,0,0,0,-1,1728,1793,0,0
511,-769,0,0,0,0,0,0,0,0,0,-1,1735,1793,0,0
518,-769,0,0,0,0,0,0,0,0,0,-1,1742,1793,0,0
525,-769,0,0,0,0,0,0,0,0,0,-1,1749,1793,0,0
532,-769,0,0,0,0,0,0,0,0,0,-1,1756,1793,0,0
539,-769,0,0,0,0,0,0,0,0,0,-1,1763,1793,0,0
546,-769,0,0,0,0,0,0,0,0,0,-1,1770,1793,0,0
553,-769,0,0,0,0,0,0,0,0,0,-1,1777,1793,0,0
560,-769,0,0,0,0,0,0,0,0,0,-1,1784,1793,0,0
567,-769,0,0,0,0,0,0,0,0,0,-1,1791,1793,0,0
574,-769,0,0,0,0,0,0,0,0,0,-1,1798,1793,0,0
581,-769,0,0,0,0,0,0,0,0,0,-1,1805,1793,0,0
588,-769,0,0,0,0,0,0,0,0,0,-1,1812,1793,0,0
595,-769,0,0,0,0,0,0,0,0,0,-1,1819,1793,0,0
602,-769,0,0,0,0,0,0,0,0,0,-1,1826,1793,0,0
609,-769,0,0,0,0,0,0,0,0,0,-1,1833,1793,0,0
616,-769,0,0,0,0,0,0,0,0,0,-1,1840,1793,0,0
623,-769,0,0,0,0,0,0,0,0,0,-1,1847,1793,0,0
630,-769,0,0,0,0,0,0,0,0,0,-1,1854,1793,0,0
637,-769,0,0,0,0,0,0,0,0,0,-1,1861,1793,0,0
644,-769,0,0,0,0,0,0,0,0,0,-1,1868,1793,0,0
651,-769,0,0,0,0,0,0,0,0,0,-1,1875,1793,0,0
658,-769,0,0,0,0,0,0,0,0,0,-1,1882,1793,0,0
665,-769,0,0,0,0,0,0,0,0,0,-1,1889,1793,0,0
672,-769,0,0,0,0,0,0,0,0,0,-1,1896,1793,0,0
679,-769,0,0,0,0,0,0,0,0,0,-1,1903,1793,0,0
686,-769,0,0,0,0,0,0,0,0,0,-1,1910,1793,0,0
693,-769,0,0,0,0,0,0,0,0,0,-1,1917,1793,0,0
700,-769,0,0,0,0,0,0,0,0,0,-1,1924,1793,0,0
707,-769,0,0,0,0,0,0,0,0,0,-1,1931,1793,0,0
714,-769,0,0,0,0,0,0,0,0,0,-1,1938,1793,0,0
721,-769,0,0,0,0,0,0,0,0,0,-1,1945,1793,0,0
728,-769,0,0,0,0,0,0,0,0,0,-1,1952,1793,0,0
735,-769,0,0,0,0,0,0,0,0,0,-1,1959,1793,0,0
742,-769,0,0,0,0,0,0,0,0,0,-1,1966,1793,0,0
749,-769,0,0,0,0,0,0,0,0,0,-1,1973,1793,0,0
756,-769,0,0,0,0,0,0,0,0,0,-1,1980,1793,0,0
763,-769,0,0,0,0,0,0,0,0,0,-1,1987,1793,0,0
770,-769,0,0,0,0,0,0,0,0,0,-1,1994,1793,0,0
777,-769,0,0,0,0,0,0,0,0,0,-1,2001,1793,0,0
784,-769,0,0,0,0,0,0,0,0,0,-1,2008,1793,0,0
791,-769,0,0,0,0,0,0,0,0,0,-1,2015,1793,0,0
798,-769,0,0,0,0,0,0,0,0,0,-1,2022,1793,0,0
805,-769,0,0,0,0,0,0,0,0,0,-1,2029,1793,0,0
812,-769,0,0,0,0,0,0,0,0,0,-1,2036,1793,0,0
-700,-776,0,0,0,0,0,0,0,0,0,-1,524,1800,0,0
-693,-776,0,0,0,0,0,0,0,0,0,-1,531,1800,0,0
-686,-776,0,0,0,0,0,0,0,0,0,-1,538,1800,0,0
-679,-776,0,0,0,0,0,0,0,0,0,-1,545,1800,0,0
-672,-776,0,0,0,0,0,0,0,0,0,-1,552,1800,0,0
-665,-776,0,0,0,0,0,0,0,0,0,-1,559,1800,0,0
-658,-776,0,0,0,0,0,0,0,0,0,-1,566,1800,0,0
-651,-776,0,0,0,0,0,0,0,0,0,-1,573,1800,0,0
-644,-776,0,0,0,0,0,0,0,0,0,-1,580,1800,0,0
-637,-776,0,0,0,0,0,0,0,0,0,-1,587,1800,0,0
-630,-776,0,0,0,0,0,0,0,0,0,-1,594,1800,0,0
-623,-776,0,0,0,0,0,0,0,0,0,-1,601,1800,0,0
-616,-776,0,0,0,0,0,0,0,0,0,-1,608,1800,0,0
-609,-776,0,0,0,0,0,0,0,0,0,-1,615,1800,0,0
-602,-776,0,0,0,0,0,0,0,0,0,-1,622,1800,0,0
-595,-776,0,0,0,0,0,0,0,0,0,-1,629,1800,0,0
-588,-776,0,0,0,0,0,0,0,0,0,-1,636,1800,0,0
-581,-776,0,0,0,0,0,0,0,0,0,-1,643,1800,0,0
-574,-776,0,0,0,0,0,0,0,0,0,-1,650,1800,0,0
-567,-776,0,0,0,0,0,0,0,0,0,-1,657,1800,0,0
-560,-776,0,0,0,0,0,0,0,0,0,-1,664,1800,0,0
-553,-776,0,0,0,0,0,0,0,0,0,-1,671,1800,0,0
-546,-776,0,0,0,0,0,0,0,0,0,-1,678,1800,0,0
-539,-776,0,0,0,0,0,0,0,0,0,-1,685,1800,0,0
-532,-776,0,0,0,0,0,0,0,0,0,-1,692,1800,0,0
-525,-776,0,0,0,0,0,0,0,0,0,-1,699,1800,0,0
-518,-776,0,0,0,0,0,0,0,0,0,-1,706,1800,0,0
-511,-776,0,0,0,0,0,0,0,0,0,-1,713,1800,0,0
-504,-776,0,0,0,0,0,0,0,0,0,-1,720,1800,0,0
-497,-776,0,0,0,0,0,0,0,0,0,-1,727,1800,0,0
-490,-776,0,0,0,0,0,0,0,0,0,-1,734,1800,0,0
-483,-776,0,0,0,0,0,0,0,0,0,-1,741,1800,0,0
-476,-776,0,0,0,0,0,0,0,0,0,-1,748,1800,0,0
-469,-776,0,0,0,0,0,0,0,0,0,-1,755,1800,0,0
-462,-776,0,0,0,0,0,0,0,0,0,-1,762,1800,0,0
-455,-776,0,0,0,0,0,0,0,0,0,-1,769,1800,0,0
-448,-776,0,0,0,0,0,0,0,0,0,-1,776,1800,0,0
-441,-776,0,0,0,0,0,0,0,0,0,-1,783,1800,0,0
-434,-776,0,0,0,0,0,0,0,0,0,-1,790,1800,0,0
-427,-776,0,0,0,0,0,0,0,0,0,-1,797,1800,0,0
-420,-776,0,0,0,0,0,0,0,0,0,-1,804,1800,0,0
-413,-776,0,0,0,0,0,0,0,0,0,-1,811,1800,0,0
-406,-776,0,0,0,0,0,0,0,0,0,-1,818,1800,0,0
-399,-776,0,0,0,0,0,0,0,0,0,-1,825,1800,0,0
-392,-776,0,0,0,0,0,0,0,0,0,-1,832,1800,0,0
-385,-776,0,0,0,0,0,0,0,0,0,-1,839,1800,0,0
-378,-776,0,0,0,0,0,0,0,0,0,-1,846,1800,0,0
-371,-776,0,0,0,0,0,0,0,0,0,-1,853,1800,0,0
-364,-776,0,0,0,0,0,0,0,0,0,-1,860,1800,0,0
-357,-776,0,0,0,0,0,0,0,0,0,-1,867,1800,0,0
-350,-776,0,0,0,0,0,0,0,0,0,-1,874,1800,0,0
-343,-776,0,0,0,0,0,0,0,0,0,-1,881,1800,0,0
-336,-776,0,0,0,0,0,0,0,0,0,-1,888,1800,0,0
-329,-776,0,0,0,0,0,0,0,0,0,-1,895,1800,0,0
-322,-776,0,0,0,0,0,0,0,0,0,-1,902,1800,0,0
-315,-776,0,0,0,0,0,0,0,0,0,-1,909,1800,0,0
-308,-776,0,0,0,0,0,0,0,0,0,-1,916,1800,0,0
-301,-776,0,0,0,0,0,0,0,0,0,-1,923,1800,0,0
-294,-776,0,0,0,0,0,0,0,0,0,-1,930,1800,0,0
-287,-776,0,0,0,0,0,0,0,0,0,-1,937,1800,0,0
-280,-776,0,0,0,0,0,0,0,0,0,-1,944,1800,0,0
-273,-776,0,0,0,0,0,0,0,0,0,-1,951,1800,0,0
-266,-776,0,0,0,0,0,0,0,0,0,-1,958,1800,0,0
-259,-776,0,0,0,0,0,0,0,0,0,-1,965,1800,0,0
-252,-776,0,0,0,0,0,0,0,0,0,-1,972,1800,0,0
-245,-776,0,0,0,0,0,0,0,0,0,-1,979,1800,0,0
-238,-776,0,0,0,0,0,0,0,0,0,-1,986,1800,0,0
-231,-776,0,0,0,0,0,0,0,0,0,-1,993,1800,0,0
-224,-776,0,0,0,0,0,0,0,0,0,-1,1000,1800,0,0
-217,-776,0,0,0,0,0,0,0,0,0,-1,1007,1800,0,0
-210,-776,0,0,0,0,0,0,0,0,0,-1,1014,1800,0,0
-203,-776,0,0,0,0,0,0,0,0,0,-1,1021,1800,0,0
-196,-776,0,0,0,0,0,0,0,0,0,-1,1028,1800,0,0
-189,-776,0,0,0,0,0,0,0,0,0,-1,1035,1800,0,0
-182,-776,0,0,0,0,0,0,0,0,0,-1,1042,1800,0,0
-175,-776,0,0,0,0,0,0,0,0,0,-1,1049,1800,0,0
-168,-776,0,0,0,0,0,0,0,0,0,-1,1056,1800,0,0
-161,-776,0,0,0,0,0,0,0,0,0,-1,1063,1800,0,0
-154,-776,0,0,0,0,0,0,0,0,0,-1,1070,1800,0,0
-147,-776,0,0,0,0,0,0,0,0,0,-1,1077,1800,0,0
-140,-776,2.98499,5.20911,0,0,0,0,0,0,0,-1,1084,1800,2.98493,-5.2091
-133,-776,6.72363,9.35828,0,0,0,0,0,0,0,-1,1091,1800,6.72358,-9.35824
-126,-776,6.55029,13.7832,0,0,0,0,0,0,0,-1,1098,1800,6.55029,-13.7832
-119,-776,5.72107,13.7787,0,0,0,0,0,0,0,-1,1105,1800,5.72106,-13.7787
-112,-776,7.11792,18.3749,0,0,0,0,0,0,0,-1,1112,1800,7.11789,-18.3749
-105,-776,6.26868,18.3521,0,0,0,0,0,0,0,-1,1119,1800,6.26871,-18.352
-98,-776,3.68726,13.4067,0,0,0,0,0,0,0,-1,1126,1800,3.6873,-13.4068
-91,-776,3.00159,13.1172,0,0,0,0,0,0,0,-1,1133,1800,3.00159,-13.1171
-84,-776,2.27747,12.7086,0,0,0,0,0,0,0,-1,1140,1800,2.27747,-12.7087
-77,-776,0.580078,11.1272,0,0,0,0,0,0,0,-1,1147,1800,0.58002,-11.1272
-70,-776,-0.562866,12.3163,0,0,0,0,0,0,0,-1,1154,1800,-0.562897,-12.3163
-63,-776,-3.96106,9.97656,0,0,0,0,0,0,0,-1,1161,1800,-3.961,-9.97654
-56,-776,-7.35913,7.63672,0,0,0,0,0,0,0,-1,1168,1800,-7.3591,-7.63676
-49,-776,-7.62952,3.1908,0,0,0,0,0,0,0,-1,1175,1800,-7.62955,-3.19076
-42,-776,-3.41272,3.0249,0,0,0,0,0,0,0,-1,1182,1800,-3.41269,-3.02488
-35,-776,-3.71753,1.63635,0,0,0,0,0,0,0,-1,1189,1800,-3.71755,-1.63631
-28,-776,-4.03979,0.716064,0,0,0,0,0,0,0,-1,1196,1800,-4.03977,-0.716055
-21,-776,4.78442,17.8069,0,0,0,0,0,0,0,-1,1203,1800,4.78442,-17.8069
-14,-776,5.19373,17.2932,0.00797011,-0.067525,0.0199261,0.0129066,-0.0724615,0.24285,0.053135,0.0461097,1210,1800,5.19371,-17.2932
-7,-776,5.65869,17.3342,0.00982216,-0.0633497,0.0192284,0.0145673,-0.0680949,0.241946,0.0509513,0.0477518,1217,1800,5.6587,-17.3343
0,-776,5.99304,17.0751,0.0111728,-0.0597488,0.0184668,0.0156931,-0.0642691,0.240061,0.0489234,0.0475882,1224,1800,5.99305,-17.075
7,-776,5.16943,16.8064,0,0,0,0,0,0,0,-1,1231,1800,5.16942,-16.8064
14,-776,5.7301,17.1603,0.0125099,-0.0534812,0.0164629,0.0163889,-0.0573603,0.231401,0.0447158,0.042628,1238,1800,5.73007,-17.1603
21,-776,5.83765,17.4924,0.0125287,-0.0503534,0.0140311,0.0155174,-0.0533421,0.209872,0.0417075,0.042422,1245,1800,5.83764,-17.4924
28,-776,5.61682,17.8577,0.0127995,-0.0494307,0.0115083,0.0148596,-0.0514908,0.177129,0.0402063,0.0419496,1252,1800,5.61683,-17.8577
35,-776,5.36621,18.1292,0.0133465,-0.047854,0.0094737,0.0147795,-0.049287,0.150118,0.038736,0.0432722,1259,1800,5.36621,-18.1291
42,-776,5.08386,18.3933,0.0119395,-0.046979,0.00728249,0.0128263,-0.0478658,0.121173,0.0369359,0.0436049,1266,1800,5.08385,-18.3933
49,-776,4.93945,18.7863,0,0,0,0,0,0,0,-1,1273,1800,4.93942,-18.7862
56,-776,4.79248,19.1678,0,0,0,0,0,0,0,-1,1280,1800,4.79251,-19.1679
63,-776,5.39746,16.8527,0,0,0,0,0,0,0,-1,1287,1800,5.39751,-16.8526
70,-776,5.1012,16.3079,0,0,0,0,0,0,0,-1,1294,1800,5.10115,-16.3079
77,-776,5.20093,16.0403,0,0,0,0,0,0,0,-1,1301,1800,5.20098,-16.0403
84,-776,5.07739,15.9302,0,0,0,0,0,0,0,-1,1308,1800,5.07743,-15.9301
91,-776,6.12646,17.7631,-0.0025142,-0.0464041,-0.00752721,-0.00125916,-0.0476592,-0.165214,0.0313615,0.0461918,1315,1800,6.12649,-17.7631
98,-776,4.43762,18.5995,-0.00301609,-0.0457879,-0.00959689,-0.000961486,-0.0478425,-0.210907,0.0315794,0.0450965,1322,1800,4.43756,-18.5995
105,-776,4.35803,18.4138,-0.00219974,-0.0435285,-0.0106535,0.000384809,-0.0461131,-0.238004,0.0308711,0.0439641,1329,1800,4.35807,-18.4138
112,-776,4.59277,18.2445,-0.000325733,-0.0403819,-0.0119435,0.00296507,-0.0436728,-0.26886,0.0301522,0.043887,1336,1800,4.59277,-18.2445
119,-776,5.01978,17.3954,0.00264545,-0.0366667,-0.0135262,0.00684981,-0.040871,-0.301363,0.0297943,0.0430656,1343,1800,5.01972,-17.3953
126,-776,5.43054,16.4326,0.00644108,-0.0324056,-0.0147644,0.0114156,-0.0373801,-0.324979,0.0294717,0.0451649,1350,1800,5.43052,-16.4326
133,-776,5.96814,15.629,0,0,0,0,0,0,0,-1,1357,1800,5.96817,-15.629
140,-776,4.39331,10.0631,0,0,0,0,0,0,0,-1,1364,1800,4.39332,-10.0631
147,-776,6.46301,-0.617188,0,0,0,0,0,0,0,-1,1371,1800,6.46305,0.61724
154,-776,6.43774,0.344116,0,0,0,0,0,0,0,-1,1378,1800,6.43776,-0.344162
161,-776,6.50293,1.1731,0,0,0,0,0,0,0,-1,1385,1800,6.5029,-1.17313
168,-776,8.44971,1.22913,0,0,0,0,0,0,0,-1,1392,1800,8.44974,-1.22915
175,-776,8.61523,2.87061,0,0,0,0,0,0,0,-1,1399,1800,8.6152,-2.87063
182,-776,8.54065,4.60645,0,0,0,0,0,0,0,-1,1406,1800,8.5407,-4.60643
189,-776,8.35303,6.28223,0,0,0,0,0,0,0,-1,1413,1800,8.35297,-6.28225
196,-776,8.0387,8.21704,0,0,0,0,0,0,0,-1,1420,1800,8.03865,-8.217
203,-776,7.91736,9.79919,0,0,0,0,0,0,0,-1,1427,1800,7.91735,-9.79922
210,-776,20.2479,7.85718,0,0,0,0,0,0,0,-1,1434,1800,20.248,-7.85719
217,-776,21.5171,9.3418,0,0,0,0,0,0,0,-1,1441,1800,21.5171,-9.34182
224,-776,3.09253,14.9313,0,0,0,0,0,0,0,-1,1448,1800,3.09254,-14.9313
231,-776,20.8671,9.21057,0,0,0,0,0,0,0,-1,1455,1800,20.867,-9.21054
238,-776,20.7511,9.05847,0,0,0,0,0,0,0,-1,1462,1800,20.7511,-9.05848
245,-776,21.0875,9.85986,0,0,0,0,0,0,0,-1,1469,1800,21.0875,-9.8599
252,-776,16.6313,6.47168,0,0,0,0,0,0,0,-1,1476,1800,16.6313,-6.47165
259,-776,14.1882,7.69055,0,0,0,0,0,0,0,-1,1483,1800,14.1882,-7.69061
266,-776,0,0,0,0,0,0,0,0,0,-1,1490,1800,0,0
273,-776,0,0,0,0,0,0,0,0,0,-1,1497,1800,0,0
280,-776,0,0,0,0,0,0,0,0,0,-1,1504,1800,0,0
287,-776,0,0,0,0,0,0,0,0,0,-1,1511,1800,0,0
294,-776,0,0,0,0,0,0,0,0,0,-1,1518,1800,0,0
301,-776,0,0,0,0,0,0,0,0,0,-1,1525,1800,0,0
308,-776,0,0,0,0,0,0,0,0,0,-1,1532,1800,0,0
315,-776,0,0,0,0,0,0,0,0,0,-1,1539,1800,0,0
322,-776,0,0,0,0,0,0,0,0,0,-1,1546,1800,0,0
329,-776,0,0,0,0,0,0,0,0,0,-1,1553,1800,0,0
336,-776,0,0,0,0,0,0,0,0,0,-1,1560,1800,0,0
343,-776,0,0,0,0,0,0,0,0,0,-1,1567,1800,0,0
350,-776,0,0,0,0,0,0,0,0,0,-1,1574,1800,0,0
357,-776,0,0,0,0,0,0,0,0,0,-1,1581,1800,0,0
364,-776,0,0,0,0,0,0,0,0,0,-1,1588,1800,0,0
371,-776,0,0,0,0,0,0,0,0,0,-1,1595,1800,0,0
378,-776,0,0,0,0,0,0,0,0,0,-1,1602,1800,0,0
385,-776,0,0,0,0,0,0,0,0,0,-1,1609,1800,0,0
392,-776,0,0,0,0,0,0,0,0,0,-1,1616,1800,0,0
399,-776,0,0,0,0,0,0,0,0,0,-1,1623,1800,0,0
406,-776,0,0,0,0,0,0,0,0,0,-1,1630,1800,0,0
413,-776,0,0,0,0,0,0,0,0,0,-1,1637,1800,0,0
420,-776,0,0,0,0,0,0,0,0,0,-1,1644,1800,0,0
427,-776,0,0,0,0,0,0,0,0,0,-1,1651,1800,0,0
434,-776,0,0,0,0,0,0,0,0,0,-1,1658,1800,0,0
441,-776,0,0,0,0,0,0,0,0,0,-1,1665,1800,0,0
448,-776,0,0,0,0,0,0,0,0,0,-1,1672,1800,0,0
455,-776,0,0,0,0,0,0,0,0,0,-1,1679,1800,0,0
462,-776,0,0,0,0,0,0,0,0,0,-1,1686,1800,0,0
469,-776,0,0,0,0,0,0,0,0,0,-1,1693,1800,0,0
476,-776,0,0,0,0,0,0,0,0,0,-1,1700,1800,0,0
483,-776,0,0,0,0,0,0,0,0,0,-1,1707,1800,0,0
490,-776,0,0,0,0,0,0,0,0,0,-1,1714,1800,0,0
497,-776,0,0,0,0,0,0,0,0,0,-1,1721,1800,0,0
504,-776,0,0,0,0,0,0,0,0,0,-1,1728,1800,0,0
511,-776,0,0,0,0,0,0,0,0,0,-1,1735,1800,0,0
518,-776,0,0,0,0,0,0,0,0,0,-1,1742,1800,0,0
525,-776,0,0,0,0,0,0,0,0,0,-1,1749,1800,0,0
532,-776,0,0,0,0,0,0,0,0,0,-1,1756,1800,0,0
539,-776,0,0,0,0,0,0,0,0,0,-1,1763,1800,0,0
546,-776,0,0,0,0,0,0,0,0,0,-1,1770,1800,0,0
553,-776,0,0,0,0,0,0,0,0,0,-1,1777,1800,0,0
560,-776,0,0,0,0,0,0,0,0,0,-1,1784,1800,0,0
567,-776,0,0,0,0,0,0,0,0,0,-1,1791,1800,0,0
574,-776,0,0,0,0,0,0,0,0,0,-1,1798,1800,0,0
581,-776,0,0,0,0,0,0,0,0,0,-1,1805,1800,0,0
588,-776,0,0,0,0,0,0,0,0,0,-1,1812,1800,0,0
595,-776,0,0,0,0,0,0,0,0,0,-1,1819,1800,0,0
602,-776,0,0,0,0,0,0,0,0,0,-1,1826,1800,0,0
609,-776,0,0,0,0,0,0,0,0,0,-1,1833,1800,0,0
616,-776,0,0,0,0,0,0,0,0,0,-1,1840,1800,0,0
623,-776,0,0,0,0,0,0,0,0,0,-1,1847,1800,0,0
630,-776,0,0,0,0,0,0,0,0,0,-1,1854,1800,0,0
637,-776,0,0,0,0,0,0,0,0,0,-1,1861,1800,0,0
644,-776,0,0,0,0,0,0,0,0,0,-1,1868,1800,0,0
651,-776,0,0,0,0,0,0,0,0,0,-1,1875,1800,0,0
658,-776,0,0,0,0,0,0,0,0,0,-1,1882,1800,0,0
665,-776,0,0,0,0,0,0,0,0,0,-1,1889,1800,0,0
672,-776,0,0,0,0,0,0,0,0,0,-1,1896,1800,0,0
679,-776,0,0,0,0,0,0,0,0,0,-1,1903,1800,0,0
686,-776,0,0,0,0,0,0,0,0,0,-1,1910,1800,0,0
693,-776,0,0,0,0,0,0,0,0,0,-1,1917,1800,0,0
700,-776,0,0,0,0,0,0,0,0,0,-1,1924,1800,0,0
707,-776,0,0,0,0,0,0,0,0,0,-1,1931,1800,0,0
714,-776,0,0,0,0,0,0,0,0,0,-1,1938,1800,0,0
721,-776,0,0,0,0,0,0,0,0,0,-1,1945,1800,0,0
728,-776,0,0,0,0,0,0,0,0,0,-1,1952,1800,0,0
735,-776,0,0,0,0,0,0,0,0,0,-1,1959,1800,0,0
742,-776,0,0,0,0,0,0,0,0,0,-1,1966,1800,0,0
749,-776,0,0,0,0,0,0,0,0,0,-1,1973,1800,0,0
756,-776,0,0,0,0,0,0,0,0,0,-1,1980,1800,0,0
763,-776,0,0,0,0,0,0,0,0,0,-1,1987,1800,0,0
770,-776,0,0,0,0,0,0,0,0,0,-1,1994,1800,0,0
777,-776,0,0,0,0,0,0,0,0,0,-1,2001,1800,0,0
784,-776,0,0,0,0,0,0,0,0,0,-1,2008,1800,0,0
791,-776,0,0,0,0,0,0,0,0,0,-1,2015,1800,0,0
798,-776,0,0,0,0,0,0,0,0,0,-1,2022,1800,0,0
805,-776,0,0,0,0,0,0,0,0,0,-1,2029,1800,0,0
812,-776,0,0,0,0,0,0,0,0,0,-1,2036,1800,0,0
-700,-783,0,0,0,0,0,0,0,0,0,-1,524,1807,0,0
-693,-783,0,0,0,0,0,0,0,0,0,-1,531,1807,0,0
-686,-783,0,0,0,0,0,0,0,0,0,-1,538,1807,0,0
-679,-783,0,0,0,0,0,0,0,0,0,-1,545,1807,0,0
-672,-783,0,0,0,0,0,0,0,0,0,-1,552,1807,0,0
-665,-783,0,0,0,0,0,0,0,0,0,-1,559,1807,0,0
-658,-783,0,0,0,0,0,0,0,0,0,-1,566,1807,0,0
-651,-783,0,0,0,0,0,0,0,0,0,-1,573,1807,0,0
-644,-783,0,0,0,0,0,0,0,0,0,-1,580,1807,0,0
-637,-783,0,0,0,0,0,0,0,0,0,-1,587,1807,0,0
-630,-783,0,0,0,0,0,0,0,0,0,-1,594,1807,0,0
-623,-783,0,0,0,0,0,0,0,0,0,-1,601,1807,0,0
-616,-783,0,0,0,0,0,0,0,0,0,-1,608,1807,0,0
-609,-783,0,0,0,0,0,0,0,0,0,-1,615,1807,0,0
-602,-783,0,0,0,0,0,0,0,0,0,-1,622,1807,0,0
-595,-783,0,0,0,0,0,0,0,0,0,-1,629,1807,0,0
-588,-783,0,0,0,0,0,0,0,0,0,-1,636,1807,0,0
-581,-783,0,0,0,0,0,0,0,0,0,-1,643,1807,0,0
-574,-783,0,0,0,0,0,0,0,0,0,-1,650,1807,0,0
-567,-783,0,0,0,0,0,0,0,0,0,-1,657,1807,0,0
-560,-783,0,0,0,0,0,0,0,0,0,-1,664,1807,0,0
-553,-783,0,0,0,0,0,0,0,0,0,-1,671,1807,0,0
-546,-783,0,0,0,0,0,0,0,0,0,-1,678,1807,0,0
-539,-783,0,0,0,0,0,0,0,0,0,-1,685,1807,0,0
-532,-783,0,0,0,0,0,0,0,0,0,-1,692,1807,0,0
-525,-783,0,0,0,0,0,0,0,0,0,-1,699,1807,0,0
-518,-783,0,0,0,0,0,0,0,0,0,-1,706,1807,0,0
-511,-783,0,0,0,0,0,0,0,0,0,-1,713,1807,0,0
-504,-783,0,0,0,0,0,0,0,0,0,-1,720,1807,0,0
-497,-783,0,0,0,0,0,0,0,0,0,-1,727,1807,0,0
-490,-783,0,0,0,0,0,0,0,0,0,-1,734,1807,0,0
-483,-783,0,0,0,0,0,0,0,0,0,-1,741,1807,0,0
-476,-783,0,0,0,0,0,0,0,0,0,-1,748,1807,0,0
-469,-783,0,0,0,0,0,0,0,0,0,-1,755,1807,0,0
-462,-783,0,0,0,0,0,0,0,0,0,-1,762,1807,0,0
-455,-783,0,0,0,0,0,0,0,0,0,-1,769,1807,0,0
-448,-783,0,0,0,0,0,0,0,0,0,-1,776,1807,0,0
-441,-783,0,0,0,0,0,0,0,0,0,-1,783,1807,0,0
-434,-783,0,0,0,0,0,0,0,0,0,-1,790,1807,0,0
-427,-783,0,0,0,0,0,0,0,0,0,-1,797,1807,0,0
-420,-783,0,0,0,0,0,0,0,0,0,-1,804,1807,0,0
-413,-783,0,0,0,0,0,0,0,0,0,-1,811,1807,0,0
-406,-783,0,0,0,0,0,0,0,0,0,-1,818,1807,0,0
-399,-783,0,0,0,0,0,0,0,0,0,-1,825,1807,0,0
-392,-783,0,0,0,0,0,0,0,0,0,-1,832,1807,0,0
-385,-783,0,0,0,0,0,0,0,0,0,-1,839,1807,0,0
-378,-783,0,0,0,0,0,0,0,0,0,-1,846,1807,0,0
-371,-783,0,0,0,0,0,0,0,0,0,-1,853,1807,0,0
-364,-783,0,0,0,0,0,0,0,0,0,-1,860,1807,0,0
-357,-783,0,0,0,0,0,0,0,0,0,-1,867,1807,0,0
-350,-783,0,0,0,0,0,0,0,0,0,-1,874,1807,0,0
-343,-783,0,0,0,0,0,0,0,0,0,-1,881,1807,0,0
-336,-783,0,0,0,0,0,0,0,0,0,-1,888,1807,0,0
-329,-783,0,0,0,0,0,0,0,0,0,-1,895,1807,0,0
-322,-783,0,0,0,0,0,0,0,0,0,-1,902,1807,0,0
-315,-783,0,0,0,0,0,0,0,0,0,-1,909,1807,0,0
-308,-783,0,0,0,0,0,0,0,0,0,-1,916,1807,0,0
-301,-783,0,0,0,0,0,0,0,0,0,-1,923,1807,0,0
-294,-783,0,0,0,0,0,0,0,0,0,-1,930,1807,0,0
-287,-783,0,0,0,0,0,0,0,0,0,-1,937,1807,0,0
-280,-783,0,0,0,0,0,0,0,0,0,-1,944,1807,0,0
-273,-783,0,0,0,0,0,0,0,0,0,-1,951,1807,0,0
-266,-783,0,0,0,0,0,0,0,0,0,-1,958,1807,0,0
-259,-783,0,0,0,0,0,0,0,0,0,-1,965,1807,0,0
-252,-783,0,0,0,0,0,0,0,0,0,-1,972,1807,0,0
-245,-783,0,0,0,0,0,0,0,0,0,-1,979,1807,0,0
-238,-783,0,0,0,0,0,0,0,0,0,-1,986,1807,0,0
-231,-783,0,0,0,0,0,0,0,0,0,-1,993,1807,0,0
-224,-783,0,0,0,0,0,0,0,0,0,-1,1000,1807,0,0
-217,-783,0,0,0,0,0,0,0,0,0,-1,1007,1807,0,0
-210,-783,0,0,0,0,0,0,0,0,0,-1,1014,1807,0,0
-203,-783,0,0,0,0,0,0,0,0,0,-1,1021,1807,0,0
-196,-783,0,0,0,0,0,0,0,0,0,-1,1028,1807,0,0
-189,-783,0,0,0,0,0,0,0,0,0,-1,1035,1807,0,0
-182,-783,0,0,0,0,0,0,0,0,0,-1,1042,1807,0,0
-175,-783,0,0,0,0,0,0,0,0,0,-1,1049,1807,0,0
-168,-783,0,0,0,0,0,0,0,0,0,-1,1056,1807,0,0
-161,-783,0,0,0,0,0,0,0,0,0,-1,1063,1807,0,0
-154,-783,0,0,0,0,0,0,0,0,0,-1,1070,1807,0,0
-147,-783,0,0,0,0,0,0,0,0,0,-1,1077,1807,0,0
-140,-783,0,0,0,0,0,0,0,0,0,-1,1084,1807,0,0
-133,-783,0,0,0,0,0,0,0,0,0,-1,1091,1807,0,0
-126,-783,0,0,0,0,0,0,0,0,0,-1,1098,1807,0,0
-119,-783,0,0,0,0,0,0,0,0,0,-1,1105,1807,0,0
-112,-783,5.33936,14.7699,0,0,0,0,0,0,0,-1,1112,1807,5.33931,-14.7699
-105,-783,4.53088,14.7312,0,0,0,0,0,0,0,-1,1119,1807,4.53083,-14.7312
-98,-783,3.57434,14.3257,0,0,0,0,0,0,0,-1,1126,1807,3.57437,-14.3257
-91,-783,2.78186,14.2633,0,0,0,0,0,0,0,-1,1133,1807,2.78186,-14.2633
-84,-783,-0.0491943,14.5743,0,0,0,0,0,0,0,-1,1140,1807,-0.0491562,-14.5743
-77,-783,0.332764,12.7788,0,0,0,0,0,0,0,-1,1147,1807,0.332743,-12.7788
-70,-783,-1.93176,5.12817,0,0,0,0,0,0,0,-1,1154,1807,-1.93171,-5.12813
-63,-783,-5.31702,10.54,0,0,0,0,0,0,0,-1,1161,1807,-5.31703,-10.54
-56,-783,-6.26135,6.9679,0,0,0,0,0,0,0,-1,1168,1807,-6.26136,-6.96785
-49,-783,-3.17688,4.59705,0,0,0,0,0,0,0,-1,1175,1807,-3.17685,-4.5971
-42,-783,-3.72876,3.1405,0,0,0,0,0,0,0,-1,1182,1807,-3.72874,-3.14055
-35,-783,-3.97046,1.59399,0,0,0,0,0,0,0,-1,1189,1807,-3.97041,-1.59401
-28,-783,-4.12195,0.270386,0,0,0,0,0,0,0,-1,1196,1807,-4.12197,-0.270408
-21,-783,4.59619,18.3046,0,0,0,0,0,0,0,-1,1203,1807,4.59621,-18.3045
-14,-783,4.84387,18.1699,0.00837759,-0.0816321,0.0263023,0.0154999,-0.0887545,0.264447,0.0649557,0.0451363,1210,1807,4.8439,-18.17
-7,-783,5.08447,18.059,0.0117853,-0.0767809,0.0255418,0.0186234,-0.083619,0.261587,0.0628799,0.0450593,1217,1807,5.08451,-18.0589
0,-783,5.17114,17.9043,0.0144357,-0.0723415,0.0247567,0.0210017,-0.0789075,0.259253,0.0608264,0.0439512,1224,1807,5.1712,-17.9042
7,-783,5.21973,17.7994,0.0165169,-0.0682907,0.023884,0.0227806,-0.0745544,0.25648,0.0587867,0.0440057,1231,1807,5.21973,-17.7994
14,-783,5.43042,17.803,0.017569,-0.0644983,0.0224116,0.0232905,-0.0702197,0.249951,0.0562088,0.0430027,1238,1807,5.43045,-17.8029
21,-783,5.6582,18.1613,0.0180334,-0.0607089,0.0195284,0.0226104,-0.065286,0.230224,0.0527031,0.045039,1245,1807,5.65818,-18.1612
28,-783,5.78479,18.7509,0.0184654,-0.0597064,0.0164068,0.0217693,-0.0630103,0.198713,0.0508413,0.0471951,1252,1807,5.78473,-18.7509
35,-783,5.42407,18.8153,0.0190062,-0.0580336,0.0138485,0.0214199,-0.0604474,0.172563,0.0490237,0.0466234,1259,1807,5.42408,-18.8153
42,-783,5.2594,19.1249,0.0173585,-0.0573924,0.0110729,0.0189643,-0.0589981,0.144012,0.0469481,0.0457276,1266,1807,5.25942,-19.1249
49,-783,5.08459,19.5717,0,0,0,0,0,0,0,-1,1273,1807,5.08461,-19.5716
56,-783,3.72498,15.7002,0,0,0,0,0,0,0,-1,1280,1807,3.72494,-15.7002
63,-783,5.78662,19.0419,0,0,0,0,0,0,0,-1,1287,1807,5.78663,-19.0419
70,-783,5.83765,18.8439,0.00536275,-0.0588526,-0.00129718,0.00538894,-0.0588787,-0.0201895,0.0411666,0.046281,1294,1807,5.8376,-18.8438
77,-783,5.27258,15.595,0.00277158,-0.0592094,-0.00424337,0.00306075,-0.0594986,-0.0680393,0.0407243,0.0490589,1301,1807,5.27253,-15.5949
84,-783,6.01904,18.3649,0.000492871,-0.0592146,-0.00620674,0.00113125,-0.059853,-0.102493,0.0402843,0.0498601,1308,1807,6.01905,-18.3649
91,-783,5.99768,18.1228,-0.00252886,-0.0595139,-0.00822485,-0.00136548,-0.0606773,-0.140514,0.0400041,0.0462104,1315,1807,5.99769,-18.1228
98,-783,6.03699,17.9098,-0.00340694,-0.0589748,-0.0111953,-0.0012362,-0.0611455,-0.19152,0.0403579,0.0460866,1322,1807,6.03704,-17.9098
105,-783,4.34558,18.3857,-0.00241197,-0.0559352,-0.0128835,0.000527754,-0.0588749,-0.224336,0.039427,0.0473302,1329,1807,4.34561,-18.3858
112,-783,4.62952,18.1714,6.64308e-05,-0.0516151,-0.0150512,0.00413023,-0.0556789,-0.263711,0.0385698,0.0456019,1336,1807,4.62954,-18.1714
119,-783,4.93005,17.6154,0.00412396,-0.0464941,-0.0176883,0.00969247,-0.0520626,-0.304991,0.0383497,0.0440777,1343,1807,4.93005,-17.6154
126,-783,5.17065,16.6959,0.00958115,-0.0405245,-0.0202848,0.0167637,-0.047707,-0.340309,0.0386248,0.0444338,1350,1807,5.1706,-16.6959
133,-783,5.51892,15.7753,0,0,0,0,0,0,0,-1,1357,1807,5.51887,-15.7752
140,-783,2.6543,15.261,0,0,0,0,0,0,0,-1,1364,1807,2.65435,-15.261
147,-783,6.45825,-1.2334,0,0,0,0,0,0,0,-1,1371,1807,6.45822,1.23339
154,-783,6.37024,-0.145874,0,0,0,0,0,0,0,-1,1378,1807,6.37018,0.145866
161,-783,6.57568,1.16174,0,0,0,0,0,0,0,-1,1385,1807,6.57562,-1.1617
168,-783,8.62561,1.79944,0,0,0,0,0,0,0,-1,1392,1807,8.62561,-1.79946
175,-783,8.78699,3.40857,0,0,0,0,0,0,0,-1,1399,1807,8.78697,-3.40854
182,-783,8.70984,5.14661,0,0,0,0,0,0,0,-1,1406,1807,8.70989,-5.14666
189,-783,8.55762,6.79871,0,0,0,0,0,0,0,-1,1413,1807,8.55766,-6.79872
196,-783,8.25488,8.66626,0,0,0,0,0,0,0,-1,1420,1807,8.25492,-8.66628
203,-783,7.86755,10.5735,0,0,0,0,0,0,0,-1,1427,1807,7.8676,-10.5734
210,-783,5.6969,8.99231,0,0,0,0,0,0,0,-1,1434,1807,5.69693,-8.99234
217,-783,5.28503,3.80872,0,0,0,0,0,0,0,-1,1441,1807,5.285,-3.80868
224,-783,3.22571,6.62903,0,0,0,0,0,0,0,-1,1448,1807,3.2257,-6.62907
231,-783,4.27942,4.56262,0,0,0,0,0,0,0,-1,1455,1807,4.27948,-4.56267
238,-783,0,0,0,0,0,0,0,0,0,-1,1462,1807,0,0
245,-783,0,0,0,0,0,0,0,0,0,-1,1469,1807,0,0
252,-783,0,0,0,0,0,0,0,0,0,-1,1476,1807,0,0
259,-783,0,0,0,0,0,0,0,0,0,-1,1483,1807,0,0
266,-783,0,0,0,0,0,0,0,0,0,-1,1490,1807,0,0
273,-783,0,0,0,0,0,0,0,0,0,-1,1497,1807,0,0
280,-783,0,0,0,0,0,0,0,0,0,-1,1504,1807,0,0
287,-783,0,0,0,0,0,0,0,0,0,-1,1511,1807,0,0
294,-783,0,0,0,0,0,0,0,0,0,-1,1518,1807,0,0
301,-783,0,0,0,0,0,0,0,0,0,-1,1525,1807,0,0
308,-783,0,0,0,0,0,0,0,0,0,-1,1532,1807,0,0
315,-783,0,0,0,0,0,0,0,0,0,-1,1539,1807,0,0
322,-783,0,0,0,0,0,0,0,0,0,-1,1546,1807,0,0
329,-783,0,0,0,0,0,0,0,0,0,-1,1553,1807,0,0
336,-783,0,0,0,0,0,0,0,0,0,-1,1560,1807,0,0
343,-783,0,0,0,0,0,0,0,0,0,-1,1567,1807,0,0
350,-783,0,0,0,0,0,0,0,0,0,-1,1574,1807,0,0
357,-783,0,0,0,0,0,0,0,0,0,-1,1581,1807,0,0
364,-783,0,0,0,0,0,0,0,0,0,-1,1588,1807,0,0
371,-783,0,0,0,0,0,0,0,0,0,-1,1595,1807,0,0
378,-783,0,0,0,0,0,0,0,0,0,-1,1602,1807,0,0
385,-783,0,0,0,0,0,0,0,0,0,-1,1609,1807,0,0
392,-783,0,0,0,0,0,0,0,0,0,-1,1616,1807,0,0
399,-783,0,0,0,0,0,0,0,0,0,-1,1623,1807,0,0
406,-783,0,0,0,0,0,0,0,0,0,-1,1630,1807,0,0
413,-783,0,0,0,0,0,0,0,0,0,-1,1637,1807,0,0
420,-783,0,0,0,0,0,0,0,0,0,-1,1644,1807,0,0
427,-783,0,0,0,0,0,0,0,0,0,-1,1651,1807,0,0
434,-783,0,0,0,0,0,0,0,0,0,-1,1658,1807,0,0
441,-783,0,0,0,0,0,0,0,0,0,-1,1665,1807,0,0
448,-783,0,0,0,0,0,0,0,0,0,-1,1672,1807,0,0
455,-783,0,0,0,0,0,0,0,0,0,-1,1679,1807,0,0
462,-783,0,0,0,0,0,0,0,0,0,-1,1686,1807,0,0
469,-783,0,0,0,0,0,0,0,0,0,-1,1693,1807,0,0
476,-783,0,0,0,0,0,0,0,0,0,-1,1700,1807,0,0
483,-783,0,0,0,0,0,0,0,0,0,-1,1707,1807,0,0
490,-783,0,0,0,0,0,0,0,0,0,-1,1714,1807,0,0
497,-783,0,0,0,0,0,0,0,0,0,-1,1721,1807,0,0
504,-783,0,0,0,0,0,0,0,0,0,-1,1728,1807,0,0
511,-783,0,0,0,0,0,0,0,0,0,-1,1735,1807,0,0
518,-783,0,0,0,0,0,0,0,0,0,-1,1742,1807,0,0
525,-783,0,0,0,0,0,0,0,0,0,-1,1749,1807,0,0
532,-783,0,0,0,0,0,0,0,0,0,-1,1756,1807,0,0
539,-783,0,0,0,0,0,0,0,0,0,-1,1763,1807,0,0
546,-783,0,0,0,0,0,0,0,0,0,-1,1770,1807,0,0
553,-783,0,0,0,0,0,0,0,0,0,-1,1777,1807,0,0
560,-783,0,0,0,0,0,0,0,0,0,-1,1784,1807,0,0
567,-783,0,0,0,0,0,0,0,0,0,-1,1791,1807,0,0
574,-783,0,0,0,0,0,0,0,0,0,-1,1798,1807,0,0
581,-783,0,0,0,0,0,0,0,0,0,-1,1805,1807,0,0
588,-783,0,0,0,0,0,0,0,0,0,-1,1812,1807,0,0
595,-783,0,0,0,0,0,0,0,0,0,-1,1819,1807,0,0
602,-783,0,0,0,0,0,0,0,0,0,-1,1826,1807,0,0
609,-783,0,0,0,0,0,0,0,0,0,-1,1833,1807,0,0
616,-783,0,0,0,0,0,0,0,0,0,-1,1840,1807,0,0
623,-783,0,0,0,0,0,0,0,0,0,-1,1847,1807,0,0
630,-783,0,0,0,0,0,0,0,0,0,-1,1854,1807,0,0
637,-783,0,0,0,0,0,0,0,0,0,-1,1861,1807,0,0
644,-783,0,0,0,0,0,0,0,0,0,-1,1868,1807,0,0
651,-783,0,0,0,0,0,0,0,0,0,-1,1875,1807,0,0
658,-783,0,0,0,0,0,0,0,0,0,-1,1882,1807,0,0
665,-783,0,0,0,0,0,0,0,0,0,-1,1889,1807,0,0
672,-783,0,0,0,0,0,0,0,0,0,-1,1896,1807,0,0
679,-783,0,0,0,0,0,0,0,0,0,-1,1903,1807,0,0
686,-783,0,0,0,0,0,0,0,0,0,-1,1910,1807,0,0
693,-783,0,0,0,0,0,0,0,0,0,-1,1917,1807,0,0
700,-783,0,0,0,0,0,0,0,0,0,-1,1924,1807,0,0
707,-783,0,0,0,0,0,0,0,0,0,-1,1931,1807,0,0
714,-783,0,0,0,0,0,0,0,0,0,-1,1938,1807,0,0
721,-783,0,0,0,0,0,0,0,0,0,-1,1945,1807,0,0
728,-783,0,0,0,0,0,0,0,0,0,-1,1952,1807,0,0
735,-783,0,0,0,0,0,0,0,0,0,-1,1959,1807,0,0
742,-783,0,0,0,0,0,0,0,0,0,-1,1966,1807,0,0
749,-783,0,0,0,0,0,0,0,0,0,-1,1973,1807,0,0
756,-783,0,0,0,0,0,0,0,0,0,-1,1980,1807,0,0
763,-783,0,0,0,0,0,0,0,0,0,-1,1987,1807,0,0
770,-783,0,0,0,0,0,0,0,0,0,-1,1994,1807,0,0
777,-783,0,0,0,0,0,0,0,0,0,-1,2001,1807,0,0
784,-783,0,0,0,0,0,0,0,0,0,-1,2008,1807,0,0
791,-783,0,0,0,0,0,0,0,0,0,-1,2015,1807,0,0
798,-783,0,0,0,0,0,0,0,0,0,-1,2022,1807,0,0
805,-783,0,0,0,0,0,0,0,0,0,-1,2029,1807,0,0
812,-783,0,0,0,0,0,0,0,0,0,-1,2036,1807,0,0
-700,-790,0,0,0,0,0,0,0,0,0,-1,524,1814,0,0
-693,-790,0,0,0,0,0,0,0,0,0,-1,531,1814,0,0
-686,-790,0,0,0,0,0,0,0,0,0,-1,538,1814,0,0
-679,-790,0,0,0,0,0,0,0,0,0,-1,545,1814,0,0
-672,-790,0,0,0,0,0,0,0,0,0,-1,552,1814,0,0
-665,-790,0,0,0,0,0,0,0,0,0,-1,559,1814,0,0
-658,-790,0,0,0,0,0,0,0,0,0,-1,566,1814,0,0
-651,-790,0,0,0,0,0,0,0,0,0,-1,573,1814,0,0
-644,-790,0,0,0,0,0,0,0,0,0,-1,580,1814,0,0
-637,-790,0,0,0,0,0,0,0,0,0,-1,587,1814,0,0
-630,-790,0,0,0,0,0,0,0,0,0,-1,594,1814,0,0
-623,-790,0,0,0,0,0,0,0,0,0,-1,601,1814,0,0
-616,-790,0,0,0,0,0,0,0,0,0,-1,608,1814,0,0
-609,-790,0,0,0,0,0,0,0,0,0,-1,615,1814,0,0
-602,-790,0,0,0,0,0,0,0,0,0,-1,622,1814,0,0
-595,-790,0,0,0,0,0,0,0,0,0,-1,629,1814,0,0
-588,-790,0,0,0,0,0,0,0,0,0,-1,636,1814,0,0
-581,-790,0,0,0,0,0,0,0,0,0,-1,643,1814,0,0
-574,-790,0,0,0,0,0,0,0,0,0,-1,650,1814,0,0
-567,-790,0,0,0,0,0,0,0,0,0,-1,657,1814,0,0
-560,-790,0,0,0,0,0,0,0,0,0,-1,664,1814,0,0
-553,-790,0,0,0,0,0,0,0,0,0,-1,671,1814,0,0
-546,-790,0,0,0,0,0,0,0,0,0,-1,678,1814,0,0
-539,-790,0,0,0,0,0,0,0,0,0,-1,685,1814,0,0
-532,-790,0,0,0,0,0,0,0,0,0,-1,692,1814,0,0
-525,-790,0,0,0,0,0,0,0,0,0,-1,699,1814,0,0
-518,-790,0,0,0,0,0,0,0,0,0,-1,706,1814,0,0
-511,-790,0,0,0,0,0,0,0,0,0,-1,713,1814,0,0
-504,-790,0,0,0,0,0,0,0,0,0,-1,720,1814,0,0
-497,-790,0,0,0,0,0,0,0,0,0,-1,727,1814,0,0
-490,-790,0,0,0,0,0,0,0,0,0,-1,734,1814,0,0
-483,-790,0,0,0,0,0,0,0,0,0,-1,741,1814,0,0
-476,-790,0,0,0,0,0,0,0,0,0,-1,748,1814,0,0
-469,-790,0,0,0,0,0,0,0,0,0,-1,755,1814,0,0
-462,-790,0,0,0,0,0,0,0,0,0,-1,762,1814,0,0
-455,-790,0,0,0,0,0,0,0,0,0,-1,769,1814,0,0
-448,-790,0,0,0,0,0,0,0,0,0,-1,776,1814,0,0
-441,-790,0,0,0,0,0,0,0,0,0,-1,783,1814,0,0
-434,-790,0,0,0,0,0,0,0,0,0,-1,790,1814,0,0
-427,-790,0,0,0,0,0,0,0,0,0,-1,797,1814,0,0
-420,-790,0,0,0,0,0,0,0,0,0,-1,804,1814,0,0
-413,-790,0,0,0,0,0,0,0,0,0,-1,811,1814,0,0
-406,-790,0,0,0,0,0,0,0,0,0,-1,818,1814,0,0
-399,-790,0,0,0,0,0,0,0,0,0,-1,825,1814,0,0
-392,-790,0,0,0,0,0,0,0,0,0,-1,832,1814,0,0
-385,-790,0,0,0,0,0,0,0,0,0,-1,839,1814,0,0
-378,-790,0,0,0,0,0,0,0,0,0,-1,846,1814,0,0
-371,-790,0,0,0,0,0,0,0,0,0,-1,853,1814,0,0
-364,-790,0,0,0,0,0,0,0,0,0,-1,860,1814,0,0
-357,-790,0,0,0,0,0,0,0,0,0,-1,867,1814,0,0
-350,-790,0,0,0,0,0,0,0,0,0,-1,874,1814,0,0
-343,-790,0,0,0,0,0,0,0,0,0,-1,881,1814,0,0
-336,-790,0,0,0,0,0,0,0,0,0,-1,888,1814,0,0
-329,-790,0,0,0,0,0,0,0,0,0,-1,895,1814,0,0
-322,-790,0,0,0,0,0,0,0,0,0,-1,902,1814,0,0
-315,-790,0,0,0,0,0,0,0,0,0,-1,909,1814,0,0
-308,-790,0,0,0,0,0,0,0,0,0,-1,916,1814,0,0
-301,-790,0,0,0,0,0,0,0,0,0,-1,923,1814,0,0
-294,-790,0,0,0,0,0,0,0,0,0,-1,930,1814,0,0
-287,-790,0,0,0,0,0,0,0,0,0,-1,937,1814,0,0
-280,-790,0,0,0,0,0,0,0,0,0,-1,944,1814,0,0
-273,-790,0,0,0,0,0,0,0,0,0,-1,951,1814,0,0
-266,-790,0,0,0,0,0,0,0,0,0,-1,958,1814,0,0
-259,-790,0,0,0,0,0,0,0,0,0,-1,965,1814,0,0
-252,-790,0,0,0,0,0,0,0,0,0,-1,972,1814,0,0
-245,-790,0,0,0,0,0,0,0,0,0,-1,979,1814,0,0
-238,-790,0,0,0,0,0,0,0,0,0,-1,986,1814,0,0
-231,-790,0,0,0,0,0,0,0,0,0,-1,993,1814,0,0
-224,-790,0,0,0,0,0,0,0,0,0,-1,1000,1814,0,0
-217,-790,0,0,0,0,0,0,0,0,0,-1,1007,1814,0,0
-210,-790,0,0,0,0,0,0,0,0,0,-1,1014,1814,0,0
-203,-790,0,0,0,0,0,0,0,0,0,-1,1021,1814,0,0
-196,-790,0,0,0,0,0,0,0,0,0,-1,1028,1814,0,0
-189,-790,0,0,0,0,0,0,0,0,0,-1,1035,1814,0,0
-182,-790,0,0,0,0,0,0,0,0,0,-1,1042,1814,0,0
-175,-790,0,0,0,0,0,0,0,0,0,-1,1049,1814,0,0
-168,-790,0,0,0,0,0,0,0,0,0,-1,1056,1814,0,0
-161,-790,0,0,0,0,0,0,0,0,0,-1,1063,1814,0,0
-154,-790,0,0,0,0,0,0,0,0,0,-1,1070,1814,0,0
-147,-790,0,0,0,0,0,0,0,0,0,-1,1077,1814,0,0
-140,-790,0,0,0,0,0,0,0,0,0,-1,1084,1814,0,0
-133,-790,0,0,0,0,0,0,0,0,0,-1,1091,1814,0,0
-126,-790,0,0,0,0,0,0,0,0,0,-1,1098,1814,0,0
-119,-790,0,0,0,0,0,0,0,0,0,-1,1105,1814,0,0
-112,-790,0,0,0,0,0,0,0,0,0,-1,1112,1814,0,0
-105,-790,0,0,0,0,0,0,0,0,0,-1,1119,1814,0,0
-98,-790,0,0,0,0,0,0,0,0,0,-1,1126,1814,0,0
-91,-790,0,0,0,0,0,0,0,0,0,-1,1133,1814,0,0
-84,-790,0,0,0,0,0,0,0,0,0,-1,1140,1814,0,0
-77,-790,-0.969238,5.30847,0,0,0,0,0,0,0,-1,1147,1814,-0.969277,-5.3085
-70,-790,-1.23169,4.98914,0,0,0,0,0,0,0,-1,1154,1814,-1.23163,-4.98916
-63,-790,-1.69128,4.32263,0,0,0,0,0,0,0,-1,1161,1814,-1.69128,-4.32258
-56,-790,-2.24756,3.75305,0,0,0,0,0,0,0,-1,1168,1814,-2.24758,-3.75302
-49,-790,-3.11011,3.35779,0,0,0,0,0,0,0,-1,1175,1814,-3.11006,-3.35781
-42,-790,0.593262,1.19165,0,0,0,0,0,0,0,-1,1182,1814,0.593225,-1.19165
-35,-790,0.307129,-0.20105,0,0,0,0,0,0,0,-1,1189,1814,0.307178,0.201006
-28,-790,-2.78467,0.785156,0,0,0,0,0,0,0,-1,1196,1814,-2.78471,-0.785183
-21,-790,4.08203,19.006,0,0,0,0,0,0,0,-1,1203,1814,4.08198,-19.006
-14,-790,4.32996,18.8263,0.00748688,-0.0959357,0.0335298,0.017406,-0.105855,0.287626,0.0770302,0.0453535,1210,1814,4.32993,-18.8262
-7,-790,4.33716,18.5889,0.0134349,-0.0902353,0.0329647,0.023029,-0.0998294,0.283218,0.0754107,0.0456021,1217,1814,4.33711,-18.5888
0,-790,4.7417,18.4033,0,0,0,0,0,0,0,-1,1224,1814,4.74175,-18.4033
7,-790,4.89539,18.4559,0.0217167,-0.0796631,0.0313466,0.0306261,-0.0885725,0.276919,0.0714786,0.0459068,1231,1814,4.89538,-18.456
14,-790,5.06018,18.499,0.0238134,-0.0750631,0.0296018,0.0319982,-0.0832479,0.269755,0.0686954,0.0427178,1238,1814,5.06015,-18.4991
21,-790,5.37634,18.8474,0.0249705,-0.0706012,0.0263701,0.0317637,-0.0773943,0.252127,0.0648319,0.0441633,1245,1814,5.37637,-18.8474
28,-790,5.96423,19.5214,0,0,0,0,0,0,0,-1,1252,1814,5.96422,-19.5214
35,-790,5.65918,19.4606,0,0,0,0,0,0,0,-1,1259,1814,5.65916,-19.4606
42,-790,5.47021,19.8267,0,0,0,0,0,0,0,-1,1266,1814,5.47017,-19.8266
49,-790,5.34729,20.2635,0,0,0,0,0,0,0,-1,1273,1814,5.3473,-20.2636
56,-790,5.56213,19.6798,0,0,0,0,0,0,0,-1,1280,1814,5.56211,-19.6798
63,-790,5.62341,19.5493,0.0125479,-0.0702562,0.00469095,0.0128128,-0.0705211,0.0564106,0.0518157,0.0453207,1287,1814,5.62346,-19.5493
70,-790,5.66992,19.3354,0.00877151,-0.0716434,0.000781795,0.00877911,-0.071651,0.00972078,0.0509465,0.0435943,1294,1814,5.66994,-19.3354
77,-790,5.76904,19.0916,0.00512372,-0.0727635,-0.00296964,0.00523678,-0.0728766,-0.0380538,0.0504207,0.0439416,1301,1814,5.76908,-19.0916
84,-790,5.83423,18.8708,0.00172713,-0.0734499,-0.00568191,0.00215415,-0.0738769,-0.0750124,0.0499848,0.0466688,1308,1814,5.83421,-18.8709
91,-790,5.97107,18.8151,-0.00249595,-0.0744074,-0.00842994,-0.00152095,-0.0753824,-0.115147,0.0497557,0.0471172,1315,1814,5.97111,-18.8151
98,-790,5.7771,18.3218,-0.00387435,-0.0740785,-0.0124802,-0.00172174,-0.0762311,-0.170801,0.0502567,0.0473036,1322,1814,5.77709,-18.3217
105,-790,4.84875,18.3904,0,0,0,0,0,0,0,-1,1329,1814,4.84873,-18.3903
112,-790,4.6814,18.6616,0,0,0,0,0,0,0,-1,1336,1814,4.68136,-18.6617
119,-790,4.88391,17.7806,0,0,0,0,0,0,0,-1,1343,1814,4.8839,-17.7806
126,-790,5.08643,16.8995,0,0,0,0,0,0,0,-1,1350,1814,5.08644,-16.8995
133,-790,3.90674,16.7834,0,0,0,0,0,0,0,-1,1357,1814,3.90668,-16.7834
140,-790,5.39819,15.8282,0,0,0,0,0,0,0,-1,1364,1814,5.39814,-15.8282
147,-790,3.4906,13.9751,0,0,0,0,0,0,0,-1,1371,1814,3.49064,-13.9751
154,-790,6.34485,-0.540405,0,0,0,0,0,0,0,-1,1378,1814,6.34482,0.540409
161,-790,6.62683,1.1134,0,0,0,0,0,0,0,-1,1385,1814,6.62682,-1.11344
168,-790,7.04077,2.23279,0,0,0,0,0,0,0,-1,1392,1814,7.04082,-2.23275
175,-790,9.03918,3.98535,0,0,0,0,0,0,0,-1,1399,1814,9.0392,-3.98535
182,-790,8.96997,5.67896,0,0,0,0,0,0,0,-1,1406,1814,8.97001,-5.6789
189,-790,8.59729,6.86975,0,0,0,0,0,0,0,-1,1413,1814,8.59728,-6.86972
196,-790,8.21924,9.29053,0,0,0,0,0,0,0,-1,1420,1814,8.21924,-9.29048
203,-790,0,0,0,0,0,0,0,0,0,-1,1427,1814,0,0
210,-790,0,0,0,0,0,0,0,0,0,-1,1434,1814,0,0
217,-790,0,0,0,0,0,0,0,0,0,-1,1441,1814,0,0
224,-790,0,0,0,0,0,0,0,0,0,-1,1448,1814,0,0
231,-790,0,0,0,0,0,0,0,0,0,-1,1455,1814,0,0
238,-790,0,0,0,0,0,0,0,0,0,-1,1462,1814,0,0
245,-790,0,0,0,0,0,0,0,0,0,-1,1469,1814,0,0
252,-790,0,0,0,0,0,0,0,0,0,-1,1476,1814,0,0
259,-790,0,0,0,0,0,0,0,0,0,-1,1483,1814,0,0
266,-790,0,0,0,0,0,0,0,0,0,-1,1490,1814,0,0
273,-790,0,0,0,0,0,0,0,0,0,-1,1497,1814,0,0
280,-790,0,0,0,0,0,0,0,0,0,-1,1504,1814,0,0
287,-790,0,0,0,0,0,0,0,0,0,-1,1511,1814,0,0
294,-790,0,0,0,0,0,0,0,0,0,-1,1518,1814,0,0
301,-790,0,0,0,0,0,0,0,0,0,-1,1525,1814,0,0
308,-790,0,0,0,0,0,0,0,0,0,-1,1532,1814,0,0
315,-790,0,0,0,0,0,0,0,0,0,-1,1539,1814,0,0
322,-790,0,0,0,0,0,0,0,0,0,-1,1546,1814,0,0
329,-790,0,0,0,0,0,0,0,0,0,-1,1553,1814,0,0
336,-790,0,0,0,0,0,0,0,0,0,-1,1560,1814,0,0
343,-790,0,0,0,0,0,0,0,0,0,-1,1567,1814,0,0
350,-790,0,0,0,0,0,0,0,0,0,-1,1574,1814,0,0
357,-790,0,0,0,0,0,0,0,0,0,-1,1581,1814,0,0
364,-790,0,0,0,0,0,0,0,0,0,-1,1588,1814,0,0
371,-790,0,0,0,0,0,0,0,0,0,-1,1595,1814,0,0
378,-790,0,0,0,0,0,0,0,0,0,-1,1602,1814,0,0
385,-790,0,0,0,0,0,0,0,0,0,-1,1609,1814,0,0
392,-790,0,0,0,0,0,0,0,0,0,-1,1616,1814,0,0
399,-790,0,0,0,0,0,0,0,0,0,-1,1623,1814,0,0
406,-790,0,0,0,0,0,0,0,0,0,-1,1630,1814,0,0
413,-790,0,0,0,0,0,0,0,0,0,-1,1637,1814,0,0
420,-790,0,0,0,0,0,0,0,0,0,-1,1644,1814,0,0
427,-790,0,0,0,0,0,0,0,0,0,-1,1651,1814,0,0
434,-790,0,0,0,0,0,0,0,0,0,-1,1658,1814,0,0
441,-790,0,0,0,0,0,0,0,0,0,-1,1665,1814,0,0
448,-790,0,0,0,0,0,0,0,0,0,-1,1672,1814,0,0
455,-790,0,0,0,0,0,0,0,0,0,-1,1679,1814,0,0
462,-790,0,0,0,0,0,0,0,0,0,-1,1686,1814,0,0
469,-790,0,0,0,0,0,0,0,0,0,-1,1693,1814,0,0
476,-790,0,0,0,0,0,0,0,0,0,-1,1700,1814,0,0
483,-790,0,0,0,0,0,0,0,0,0,-1,1707,1814,0,0
490,-790,0,0,0,0,0,0,0,0,0,-1,1714,1814,0,0
497,-790,0,0,0,0,0,0,0,0,0,-1,1721,1814,0,0
504,-790,0,0,0,0,0,0,0,0,0,-1,1728,1814,0,0
511,-790,0,0,0,0,0,0,0,0,0,-1,1735,1814,0,0
518,-790,0,0,0,0,0,0,0,0,0,-1,1742,1814,0,0
525,-790,0,0,0,0,0,0,0,0,0,-1,1749,1814,0,0
532,-790,0,0,0,0,0,0,0,0,0,-1,1756,1814,0,0
539,-790,0,0,0,0,0,0,0,0,0,-1,1763,1814,0,0
546,-790,0,0,0,0,0,0,0,0,0,-1,1770,1814,0,0
553,-790,0,0,0,0,0,0,0,0,0,-1,1777,1814,0,0
560,-790,0,0,0,0,0,0,0,0,0,-1,1784,1814,0,0
567,-790,0,0,0,0,0,0,0,0,0,-1,1791,1814,0,0
574,-790,0,0,0,0,0,0,0,0,0,-1,1798,1814,0,0
581,-790,0,0,0,0,0,0,0,0,0,-1,1805,1814,0,0
588,-790,0,0,0,0,0,0,0,0,0,-1,1812,1814,0,0
595,-790,0,0,0,0,0,0,0,0,0,-1,1819,1814,0,0
602,-790,0,0,0,0,0,0,0,0,0,-1,1826,1814,0,0
609,-790,0,0,0,0,0,0,0,0,0,-1,1833,1814,0,0
616,-790,0,0,0,0,0,0,0,0,0,-1,1840,1814,0,0
623,-790,0,0,0,0,0,0,0,0,0,-1,1847,1814,0,0
630,-790,0,0,0,0,0,0,0,0,0,-1,1854,1814,0,0
637,-790,0,0,0,0,0,0,0,0,0,-1,1861,1814,0,0
644,-790,0,0,0,0,0,0,0,0,0,-1,1868,1814,0,0
651,-790,0,0,0,0,0,0,0,0,0,-1,1875,1814,0,0
658,-790,0,0,0,0,0,0,0,0,0,-1,1882,1814,0,0
665,-790,0,0,0,0,0,0,0,0,0,-1,1889,1814,0,0
672,-790,0,0,0,0,0,0,0,0,0,-1,1896,1814,0,0
679,-790,0,0,0,0,0,0,0,0,0,-1,1903,1814,0,0
686,-790,0,0,0,0,0,0,0,0,0,-1,1910,1814,0,0
693,-790,0,0,0,0,0,0,0,0,0,-1,1917,1814,0,0
700,-790,0,0,0,0,0,0,0,0,0,-1,1924,1814,0,0
707,-790,0,0,0,0,0,0,0,0,0,-1,1931,1814,0,0
714,-790,0,0,0,0,0,0,0,0,0,-1,1938,1814,0,0
721,-790,0,0,0,0,0,0,0,0,0,-1,1945,1814,0,0
728,-790,0,0,0,0,0,0,0,0,0,-1,1952,1814,0,0
735,-790,0,0,0,0,0,0,0,0,0,-1,1959,1814,0,0
742,-790,0,0,0,0,0,0,0,0,0,-1,1966,1814,0,0
749,-790,0,0,0,0,0,0,0,0,0,-1,1973,1814,0,0
756,-790,0,0,0,0,0,0,0,0,0,-1,1980,1814,0,0
763,-790,0,0,0,0,0,0,0,0,0,-1,1987,1814,0,0
770,-790,0,0,0,0,0,0,0,0,0,-1,1994,1814,0,0
777,-790,0,0,0,0,0,0,0,0,0,-1,2001,1814,0,0
784,-790,0,0,0,0,0,0,0,0,0,-1,2008,1814,0,0
791,-790,0,0,0,0,0,0,0,0,0,-1,2015,1814,0,0
798,-790,0,0,0,0,0,0,0,0,0,-1,2022,1814,0,0
805,-790,0,0,0,0,0,0,0,0,0,-1,2029,1814,0,0
812,-790,0,0,0,0,0,0,0,0,0,-1,2036,1814,0,0
-700,-797,0,0,0,0,0,0,0,0,0,-1,524,1821,0,0
-693,-797,0,0,0,0,0,0,0,0,0,-1,531,1821,0,0
-686,-797,0,0,0,0,0,0,0,0,0,-1,538,1821,0,0
-679,-797,0,0,0,0,0,0,0,0,0,-1,545,1821,0,0
-672,-797,0,0,0,0,0,0,0,0,0,-1,552,1821,0,0
-665,-797,0,0,0,0,0,0,0,0,0,-1,559,1821,0,0
-658,-797,0,0,0,0,0,0,0,0,0,-1,566,1821,0,0
-651,-797,0,0,0,0,0,0,0,0,0,-1,573,1821,0,0
-644,-797,0,0,0,0,0,0,0,0,0,-1,580,1821,0,0
-637,-797,0,0,0,0,0,0,0,0,0,-1,587,1821,0,0
-630,-797,0,0,0,0,0,0,0,0,0,-1,594,1821,0,0
-623,-797,0,0,0,0,0,0,0,0,0,-1,601,1821,0,0
-616,-797,0,0,0,0,0,0,0,0,0,-1,608,1821,0,0
-609,-797,0,0,0,0,0,0,0,0,0,-1,615,1821,0,0
-602,-797,0,0,0,0,0,0,0,0,0,-1,622,1821,0,0
-595,-797,0,0,0,0,0,0,0,0,0,-1,629,1821,0,0
-588,-797,0,0,0,0,0,0,0,0,0,-1,636,1821,0,0
-581,-797,0,0,0,0,0,0,0,0,0,-1,643,1821,0,0
-574,-797,0,0,0,0,0,0,0,0,0,-1,650,1821,0,0
-567,-797,0,0,0,0,0,0,0,0,0,-1,657,1821,0,0
-560,-797,0,0,0,0,0,0,0,0,0,-1,664,1821,0,0
-553,-797,0,0,0,0,0,0,0,0,0,-1,671,1821,0,0
-546,-797,0,0,0,0,0,0,0,0,0,-1,678,1821,0,0
-539,-797,0,0,0,0,0,0,0,0,0,-1,685,1821,0,0
-532,-797,0,0,0,0,0,0,0,0,0,-1,692,1821,0,0
-525,-797,0,0,0,0,0,0,0,0,0,-1,699,1821,0,0
-518,-797,0,0,0,0,0,0,0,0,0,-1,706,1821,0,0
-511,-797,0,0,0,0,0,0,0,0,0,-1,713,1821,0,0
-504,-797,0,0,0,0,0,0,0,0,0,-1,720,1821,0,0
-497,-797,0,0,0,0,0,0,0,0,0,-1,727,1821,0,0
-490,-797,0,0,0,0,0,0,0,0,0,-1,734,1821,0,0
-483,-797,0,0,0,0,0,0,0,0,0,-1,741,1821,0,0
-476,-797,0,0,0,0,0,0,0,0,0,-1,748,1821,0,0
-469,-797,0,0,0,0,0,0,0,0,0,-1,755,1821,0,0
-462,-797,0,0,0,0,0,0,0,0,0,-1,762,1821,0,0
-455,-797,0,0,0,0,0,0,0,0,0,-1,769,1821,0,0
-448,-797,0,0,0,0,0,0,0,0,0,-1,776,1821,0,0
-441,-797,0,0,0,0,0,0,0,0,0,-1,783,1821,0,0
-434,-797,0,0,0,0,0,0,0,0,0,-1,790,1821,0,0
-427,-797,0,0,0,0,0,0,0,0,0,-1,797,1821,0,0
-420,-797,0,0,0,0,0,0,0,0,0,-1,804,1821,0,0
-413,-797,0,0,0,0,0,0,0,0,0,-1,811,1821,0,0
-406,-797,0,0,0,0,0,0,0,0,0,-1,818,1821,0,0
-399,-797,0,0,0,0,0,0,0,0,0,-1,825,1821,0,0
-392,-797,0,0,0,0,0,0,0,0,0,-1,832,1821,0,0
-385,-797,0,0,0,0,0,0,0,0,0,-1,839,1821,0,0
-378,-797,0,0,0,0,0,0,0,0,0,-1,846,1821,0,0
-371,-797,0,0,0,0,0,0,0,0,0,-1,853,1821,0,0
-364,-797,0,0,0,0,0,0,0,0,0,-1,860,1821,0,0
-357,-797,0,0,0,0,0,0,0,0,0,-1,867,1821,0,0
-350,-797,0,0,0,0,0,0,0,0,0,-1,874,1821,0,0
-343,-797,0,0,0,0,0,0,0,0,0,-1,881,1821,0,0
-336,-797,0,0,0,0,0,0,0,0,0,-1,888,1821,0,0
-329,-797,0,0,0,0,0,0,0,0,0,-1,895,1821,0,0
-322,-797,0,0,0,0,0,0,0,0,0,-1,902,1821,0,0
-315,-797,0,0,0,0,0,0,0,0,0,-1,909,1821,0,0
-308,-797,0,0,0,0,0,0,0,0,0,-1,916,1821,0,0
-301,-797,0,0,0,0,0,0,0,0,0,-1,923,1821,0,0
-294,-797,0,0,0,0,0,0,0,0,0,-1,930,1821,0,0
-287,-797,0,0,0,0,0,0,0,0,0,-1,937,1821,0,0
-280,-797,0,0,0,0,0,0,0,0,0,-1,944,1821,0,0
-273,-797,0,0,0,0,0,0,0,0,0,-1,951,1821,0,0
-266,-797,0,0,0,0,0,0,0,0,0,-1,958,1821,0,0
-259,-797,0,0,0,0,0,0,0,0,0,-1,965,1821,0,0
-252,-797,0,0,0,0,0,0,0,0,0,-1,972,1821,0,0
-245,-797,0,0,0,0,0,0,0,0,0,-1,979,1821,0,0
-238,-797,0,0,0,0,0,0,0,0,0,-1,986,1821,0,0
-231,-797,0,0,0,0,0,0,0,0,0,-1,993,1821,0,0
-224,-797,0,0,0,0,0,0,0,0,0,-1,1000,1821,0,0
-217,-797,0,0,0,0,0,0,0,0,0,-1,1007,1821,0,0
-210,-797,0,0,0,0,0,0,0,0,0,-1,1014,1821,0,0
-203,-797,0,0,0,0,0,0,0,0,0,-1,1021,1821,0,0
-196,-797,0,0,0,0,0,0,0,0,0,-1,1028,1821,0,0
-189,-797,0,0,0,0,0,0,0,0,0,-1,1035,1821,0,0
-182,-797,0,0,0,0,0,0,0,0,0,-1,1042,1821,0,0
-175,-797,0,0,0,0,0,0,0,0,0,-1,1049,1821,0,0
-168,-797,0,0,0,0,0,0,0,0,0,-1,1056,1821,0,0
-161,-797,0,0,0,0,0,0,0,0,0,-1,1063,1821,0,0
-154,-797,0,0,0,0,0,0,0,0,0,-1,1070,1821,0,0
-147,-797,0,0,0,0,0,0,0,0,0,-1,1077,1821,0,0
-140,-797,0,0,0,0,0,0,0,0,0,-1,1084,1821,0,0
-133,-797,0,0,0,0,0,0,0,0,0,-1,1091,1821,0,0
-126,-797,0,0,0,0,0,0,0,0,0,-1,1098,1821,0,0
-119,-797,0,0,0,0,0,0,0,0,0,-1,1105,1821,0,0
-112,-797,0,0,0,0,0,0,0,0,0,-1,1112,1821,0,0
-105,-797,0,0,0,0,0,0,0,0,0,-1,1119,1821,0,0
-98,-797,0,0,0,0,0,0,0,0,0,-1,1126,1821,0,0
-91,-797,0,0,0,0,0,0,0,0,0,-1,1133,1821,0,0
-84,-797,0,0,0,0,0,0,0,0,0,-1,1140,1821,0,0
-77,-797,0,0,0,0,0,0,0,0,0,-1,1147,1821,0,0
-70,-797,0,0,0,0,0,0,0,0,0,-1,1154,1821,0,0
-63,-797,0,0,0,0,0,0,0,0,0,-1,1161,1821,0,0
-56,-797,0,0,0,0,0,0,0,0,0,-1,1168,1821,0,0
-49,-797,0,0,0,0,0,0,0,0,0,-1,1175,1821,0,0
-42,-797,0.579834,0.692871,0,0,0,0,0,0,0,-1,1182,1821,0.579856,-0.692816
-35,-797,-0.185425,5.55396,0,0,0,0,0,0,0,-1,1189,1821,-0.18542,-5.55396
-28,-797,-0.310181,4.71509,0,0,0,0,0,0,0,-1,1196,1821,-0.310228,-4.71503
-21,-797,3.53687,19.6055,0,0,0,0,0,0,0,-1,1203,1821,3.53689,-19.6055
-14,-797,3.79407,19.4468,0.00611162,-0.109372,0.0420289,0.0197879,-0.123048,0.314595,0.0893614,0.0498569,1210,1821,3.79409,-19.4468
-7,-797,3.31775,19.3013,0.015208,-0.102056,0.0419562,0.0286733,-0.115522,0.310554,0.0881408,0.0499902,1217,1821,3.31781,-19.3013
0,-797,4.58228,19.1669,0,0,0,0,0,0,0,-1,1224,1821,4.58226,-19.1668
7,-797,4.71313,19.1759,0.0279295,-0.0891964,0.0402025,0.0404008,-0.101668,0.300798,0.0845275,0.0491649,1231,1821,4.71314,-19.1759
14,-797,4.79712,19.1793,0.0314222,-0.0838809,0.0381763,0.0429164,-0.0953751,0.292449,0.0817351,0.0447387,1238,1821,4.79706,-19.1793
21,-797,5.10889,19.5133,0.0335788,-0.0788566,0.0348187,0.043488,-0.0887658,0.277265,0.0778341,0.0467679,1245,1821,5.10886,-19.5133
28,-797,5.1709,20.2126,0,0,0,0,0,0,0,-1,1252,1821,5.17089,-20.2126
35,-797,4.35486,20.3756,0.0346986,-0.0759191,0.0269263,0.0409047,-0.0821253,0.22653,0.0723481,0.0467858,1259,1821,4.35491,-20.3757
42,-797,6.27039,20.7618,0.032892,-0.0762,0.0228214,0.0374736,-0.0807817,0.198128,0.0697842,0.0491239,1266,1821,6.27042,-20.7618
49,-797,5.49451,20.0803,0.0288865,-0.0773251,0.0177329,0.0317689,-0.0802075,0.161138,0.0666354,0.0486617,1273,1821,5.49448,-20.0803
56,-797,5.58167,20.0938,0.0233035,-0.0794278,0.0131021,0.0249481,-0.0810725,0.124874,0.0640061,0.0452349,1280,1821,5.58168,-20.0937
63,-797,5.65186,20.0021,0.018301,-0.0819522,0.0088063,0.0190687,-0.0827199,0.0869532,0.0624804,0.0445825,1287,1821,5.65191,-20.002
70,-797,5.52588,19.8754,0.0130892,-0.0846529,0.00404669,0.0132565,-0.0848202,0.0413075,0.0614441,0.0456613,1294,1821,5.52587,-19.8753
77,-797,5.58398,19.605,0.00804918,-0.0870072,-0.000607831,0.00805306,-0.0870111,-0.00639408,0.0608696,0.0450767,1301,1821,5.584,-19.605
84,-797,5.64795,19.3522,0,0,0,0,0,0,0,-1,1308,1821,5.64796,-19.3522
91,-797,5.83728,19.703,-0.00254774,-0.0907777,-0.00786898,-0.00185142,-0.091474,-0.088259,0.060375,0.0469066,1315,1821,5.83732,-19.703
98,-797,5.40625,19.2279,-0.00456884,-0.0907397,-0.01315,-0.00260678,-0.0927017,-0.148114,0.0609508,0.0458032,1322,1821,5.4062,-19.2279
105,-797,4.84546,18.8562,0,0,0,0,0,0,0,-1,1329,1821,4.84552,-18.8562
112,-797,4.60291,18.6467,0,0,0,0,0,0,0,-1,1336,1821,4.60285,-18.6467
119,-797,4.80774,18.0802,0,0,0,0,0,0,0,-1,1343,1821,4.80776,-18.0802
126,-797,5.06116,17.15,0,0,0,0,0,0,0,-1,1350,1821,5.06114,-17.1501
133,-797,5.41943,15.9801,0,0,0,0,0,0,0,-1,1357,1821,5.4194,-15.9801
140,-797,4.93518,16.1045,0,0,0,0,0,0,0,-1,1364,1821,4.93516,-16.1045
147,-797,5.44116,15.9459,0,0,0,0,0,0,0,-1,1371,1821,5.44118,-15.9459
154,-797,14.49,10.5256,0,0,0,0,0,0,0,-1,1378,1821,14.49,-10.5256
161,-797,6.79199,1.12952,0,0,0,0,0,0,0,-1,1385,1821,6.79203,-1.12957
168,-797,0,0,0,0,0,0,0,0,0,-1,1392,1821,0,0
175,-797,0,0,0,0,0,0,0,0,0,-1,1399,1821,0,0
182,-797,0,0,0,0,0,0,0,0,0,-1,1406,1821,0,0
189,-797,0,0,0,0,0,0,0,0,0,-1,1413,1821,0,0
196,-797,0,0,0,0,0,0,0,0,0,-1,1420,1821,0,0
203,-797,0,0,0,0,0,0,0,0,0,-1,1427,1821,0,0
210,-797,0,0,0,0,0,0,0,0,0,-1,1434,1821,0,0
217,-797,0,0,0,0,0,0,0,0,0,-1,1441,1821,0,0
224,-797,0,0,0,0,0,0,0,0,0,-1,1448,1821,0,0
231,-797,0,0,0,0,0,0,0,0,0,-1,1455,1821,0,0
238,-797,0,0,0,0,0,0,0,0,0,-1,1462,1821,0,0
245,-797,0,0,0,0,0,0,0,0,0,-1,1469,1821,0,0
252,-797,0,0,0,0,0,0,0,0,0,-1,1476,1821,0,0
259,-797,0,0,0,0,0,0,0,0,0,-1,1483,1821,0,0
266,-797,0,0,0,0,0,0,0,0,0,-1,1490,1821,0,0
273,-797,0,0,0,0,0,0,0,0,0,-1,1497,1821,0,0
280,-797,0,0,0,0,0,0,0,0,0,-1,1504,1821,0,0
287,-797,0,0,0,0,0,0,0,0,0,-1,1511,1821,0,0
294,-797,0,0,0,0,0,0,0,0,0,-1,1518,1821,0,0
301,-797,0,0,0,0,0,0,0,0,0,-1,1525,1821,0,0
308,-797,0,0,0,0,0,0,0,0,0,-1,1532,1821,0,0
315,-797,0,0,0,0,0,0,0,0,0,-1,1539,1821,0,0
322,-797,0,0,0,0,0,0,0,0,0,-1,1546,1821,0,0
329,-797,0,0,0,0,0,0,0,0,0,-1,1553,1821,0,0
336,-797,0,0,0,0,0,0,0,0,0,-1,1560,1821,0,0
343,-797,0,0,0,0,0,0,0,0,0,-1,1567,1821,0,0
350,-797,0,0,0,0,0,0,0,0,0,-1,1574,1821,0,0
357,-797,0,0,0,0,0,0,0,0,0,-1,1581,1821,0,0
364,-797,0,0,0,0,0,0,0,0,0,-1,1588,1821,0,0
371,-797,0,0,0,0,0,0,0,0,0,-1,1595,1821,0,0
378,-797,0,0,0,0,0,0,0,0,0,-1,1602,1821,0,0
385,-797,0,0,0,0,0,0,0,0,0,-1,1609,1821,0,0
392,-797,0,0,0,0,0,0,0,0,0,-1,1616,1821,0,0
399,-797,0,0,0,0,0,0,0,0,0,-1,1623,1821,0,0
406,-797,0,0,0,0,0,0,0,0,0,-1,1630,1821,0,0
413,-797,0,0,0,0,0,0,0,0,0,-1,1637,1821,0,0
420,-797,0,0,0,0,0,0,0,0,0,-1,1644,1821,0,0
427,-797,0,0,0,0,0,0,0,0,0,-1,1651,1821,0,0
434,-797,0,0,0,0,0,0,0,0,0,-1,1658,1821,0,0
441,-797,0,0,0,0,0,0,0,0,0,-1,1665,1821,0,0
448,-797,0,0,0,0,0,0,0,0,0,-1,1672,1821,0,0
455,-797,0,0,0,0,0,0,0,0,0,-1,1679,1821,0,0
462,-797,0,0,0,0,0,0,0,0,0,-1,1686,1821,0,0
469,-797,0,0,0,0,0,0,0,0,0,-1,1693,1821,0,0
476,-797,0,0,0,0,0,0,0,0,0,-1,1700,1821,0,0
483,-797,0,0,0,0,0,0,0,0,0,-1,1707,1821,0,0
490,-797,0,0,0,0,0,0,0,0,0,-1,1714,1821,0,0
497,-797,0,0,0,0,0,0,0,0,0,-1,1721,1821,0,0
504,-797,0,0,0,0,0,0,0,0,0,-1,1728,1821,0,0
511,-797,0,0,0,0,0,0,0,0,0,-1,1735,1821,0,0
518,-797,0,0,0,0,0,0,0,0,0,-1,1742,1821,0,0
525,-797,0,0,0,0,0,0,0,0,0,-1,1749,1821,0,0
532,-797,0,0,0,0,0,0,0,0,0,-1,1756,1821,0,0
539,-797,0,0,0,0,0,0,0,0,0,-1,1763,1821,0,0
546,-797,0,0,0,0,0,0,0,0,0,-1,1770,1821,0,0
553,-797,0,0,0,0,0,0,0,0,0,-1,1777,1821,0,0
560,-797,0,0,0,0,0,0,0,0,0,-1,1784,1821,0,0
567,-797,0,0,0,0,0,0,0,0,0,-1,1791,1821,0,0
574,-797,0,0,0,0,0,0,0,0,0,-1,1798,1821,0,0
581,-797,0,0,0,0,0,0,0,0,0,-1,1805,1821,0,0
588,-797,0,0,0,0,0,0,0,0,0,-1,1812,1821,0,0
595,-797,0,0,0,0,0,0,0,0,0,-1,1819,1821,0,0
602,-797,0,0,0,0,0,0,0,0,0,-1,1826,1821,0,0
609,-797,0,0,0,0,0,0,0,0,0,-1,1833,1821,0,0
616,-797,0,0,0,0,0,0,0,0,0,-1,1840,1821,0,0
623,-797,0,0,0,0,0,0,0,0,0,-1,1847,1821,0,0
630,-797,0,0,0,0,0,0,0,0,0,-1,1854,1821,0,0
637,-797,0,0,0,0,0,0,0,0,0,-1,1861,1821,0,0
644,-797,0,0,0,0,0,0,0,0,0,-1,1868,1821,0,0
651,-797,0,0,0,0,0,0,0,0,0,-1,1875,1821,0,0
658,-797,0,0,0,0,0,0,0,0,0,-1,1882,1821,0,0
665,-797,0,0,0,0,0,0,0,0,0,-1,1889,1821,0,0
672,-797,0,0,0,0,0,0,0,0,0,-1,1896,1821,0,0
679,-797,0,0,0,0,0,0,0,0,0,-1,1903,1821,0,0
686,-797,0,0,0,0,0,0,0,0,0,-1,1910,1821,0,0
693,-797,0,0,0,0,0,0,0,0,0,-1,1917,1821,0,0
700,-797,0,0,0,0,0,0,0,0,0,-1,1924,1821,0,0
707,-797,0,0,0,0,0,0,0,0,0,-1,1931,1821,0,0
714,-797,0,0,0,0,0,0,0,0,0,-1,1938,1821,0,0
721,-797,0,0,0,0,0,0,0,0,0,-1,1945,1821,0,0
728,-797,0,0,0,0,0,0,0,0,0,-1,1952,1821,0,0
735,-797,0,0,0,0,0,0,0,0,0,-1,1959,1821,0,0
742,-797,0,0,0,0,0,0,0,0,0,-1,1966,1821,0,0
749,-797,0,0,0,0,0,0,0,0,0,-1,1973,1821,0,0
756,-797,0,0,0,0,0,0,0,0,0,-1,1980,1821,0,0
763,-797,0,0,0,0,0,0,0,0,0,-1,1987,1821,0,0
770,-797,0,0,0,0,0,0,0,0,0,-1,1994,1821,0,0
777,-797,0,0,0,0,0,0,0,0,0,-1,2001,1821,0,0
784,-797,0,0,0,0,0,0,0,0,0,-1,2008,1821,0,0
791,-797,0,0,0,0,0,0,0,0,0,-1,2015,1821,0,0
798,-797,0,0,0,0,0,0,0,0,0,-1,2022,1821,0,0
805,-797,0,0,0,0,0,0,0,0,0,-1,2029,1821,0,0
812,-797,0,0,0,0,0,0,0,0,0,-1,2036,1821,0,0
-700,-804,0,0,0,0,0,0,0,0,0,-1,524,1828,0,0
-693,-804,0,0,0,0,0,0,0,0,0,-1,531,1828,0,0
-686,-804,0,0,0,0,0,0,0,0,0,-1,538,1828,0,0
-679,-804,0,0,0,0,0,0,0,0,0,-1,545,1828,0,0
-672,-804,0,0,0,0,0,0,0,0,0,-1,552,1828,0,0
-665,-804,0,0,0,0,0,0,0,0,0,-1,559,1828,0,0
-658,-804,0,0,0,0,0,0,0,0,0,-1,566,1828,0,0
-651,-804,0,0,0,0,0,0,0,0,0,-1,573,1828,0,0
-644,-804,0,0,0,0,0,0,0,0,0,-1,580,1828,0,0
-637,-804,0,0,0,0,0,0,0,0,0,-1,587,1828,0,0
-630,-804,0,0,0,0,0,0,0,0,0,-1,594,1828,0,0
-623,-804,0,0,0,0,0,0,0,0,0,-1,601,1828,0,0
-616,-804,0,0,0,0,0,0,0,0,0,-1,608,1828,0,0
-609,-804,0,0,0,0,0,0,0,0,0,-1,615,1828,0,0
-602,-804,0,0,0,0,0,0,0,0,0,-1,622,1828,0,0
-595,-804,0,0,0,0,0,0,0,0,0,-1,629,1828,0,0
-588,-804,0,0,0,0,0,0,0,0,0,-1,636,1828,0,0
-581,-804,0,0,0,0,0,0,0,0,0,-1,643,1828,0,0
-574,-804,0,0,0,0,0,0,0,0,0,-1,650,1828,0,0
-567,-804,0,0,0,0,0,0,0,0,0,-1,657,1828,0,0
-560,-804,0,0,0,0,0,0,0,0,0,-1,664,1828,0,0
-553,-804,0,0,0,0,0,0,0,0,0,-1,671,1828,0,0
-546,-804,0,0,0,0,0,0,0,0,0,-1,678,1828,0,0
-539,-804,0,0,0,0,0,0,0,0,0,-1,685,1828,0,0
-532,-804,0,0,0,0,0,0,0,0,0,-1,692,1828,0,0
-525,-804,0,0,0,0,0,0,0,0,0,-1,699,1828,0,0
-518,-804,0,0,0,0,0,0,0,0,0,-1,706,1828,0,0
-511,-804,0,0,0,0,0,0,0,0,0,-1,713,1828,0,0
-504,-804,0,0,0,0,0,0,0,0,0,-1,720,1828,0,0
-497,-804,0,0,0,0,0,0,0,0,0,-1,727,1828,0,0
-490,-804,0,0,0,0,0,0,0,0,0,-1,734,1828,0,0
-483,-804,0,0,0,0,0,0,0,0,0,-1,741,1828,0,0
-476,-804,0,0,0,0,0,0,0,0,0,-1,748,1828,0,0
-469,-804,0,0,0,0,0,0,0,0,0,-1,755,1828,0,0
-462,-804,0,0,0,0,0,0,0,0,0,-1,762,1828,0,0
-455,-804,0,0,0,0,0,0,0,0,0,-1,769,1828,0,0
-448,-804,0,0,0,0,0,0,0,0,0,-1,776,1828,0,0
-441,-804,0,0,0,0,0,0,0,0,0,-1,783,1828,0,0
-434,-804,0,0,0,0,0,0,0,0,0,-1,790,1828,0,0
-427,-804,0,0,0,0,0,0,0,0,0,-1,797,1828,0,0
-420,-804,0,0,0,0,0,0,0,0,0,-1,804,1828,0,0
-413,-804,0,0,0,0,0,0,0,0,0,-1,811,1828,0,0
-406,-804,0,0,0,0,0,0,0,0,0,-1,818,1828,0,0
-399,-804,0,0,0,0,0,0,0,0,0,-1,825,1828,0,0
-392,-804,0,0,0,0,0,0,0,0,0,-1,832,1828,0,0
-385,-804,0,0,0,0,0,0,0,0,0,-1,839,1828,0,0
-378,-804,0,0,0,0,0,0,0,0,0,-1,846,1828,0,0
-371,-804,0,0,0,0,0,0,0,0,0,-1,853,1828,0,0
-364,-804,0,0,0,0,0,0,0,0,0,-1,860,1828,0,0
-357,-804,0,0,0,0,0,0,0,0,0,-1,867,1828,0,0
-350,-804,0,0,0,0,0,0,0,0,0,-1,874,1828,0,0
-343,-804,0,0,0,0,0,0,0,0,0,-1,881,1828,0,0
-336,-804,0,0,0,0,0,0,0,0,0,-1,888,1828,0,0
-329,-804,0,0,0,0,0,0,0,0,0,-1,895,1828,0,0
-322,-804,0,0,0,0,0,0,0,0,0,-1,902,1828,0,0
-315,-804,0,0,0,0,0,0,0,0,0,-1,909,1828,0,0
-308,-804,0,0,0,0,0,0,0,0,0,-1,916,1828,0,0
-301,-804,0,0,0,0,0,0,0,0,0,-1,923,1828,0,0
-294,-804,0,0,0,0,0,0,0,0,0,-1,930,1828,0,0
-287,-804,0,0,0,0,0,0,0,0,0,-1,937,1828,0,0
-280,-804,0,0,0,0,0,0,0,0,0,-1,944,1828,0,0
-273,-804,0,0,0,0,0,0,0,0,0,-1,951,1828,0,0
-266,-804,0,0,0,0,0,0,0,0,0,-1,958,1828,0,0
-259,-804,0,0,0,0,0,0,0,0,0,-1,965,1828,0,0
-252,-804,0,0,0,0,0,0,0,0,0,-1,972,1828,0,0
-245,-804,0,0,0,0,0,0,0,0,0,-1,979,1828,0,0
-238,-804,0,0,0,0,0,0,0,0,0,-1,986,1828,0,0
-231,-804,0,0,0,0,0,0,0,0,0,-1,993,1828,0,0
-224,-804,0,0,0,0,0,0,0,0,0,-1,1000,1828,0,0
-217,-804,0,0,0,0,0,0,0,0,0,-1,1007,1828,0,0
-210,-804,0,0,0,0,0,0,0,0,0,-1,1014,1828,0,0
-203,-804,0,0,0,0,0,0,0,0,0,-1,1021,1828,0,0
-196,-804,0,0,0,0,0,0,0,0,0,-1,1028,1828,0,0
-189,-804,0,0,0,0,0,0,0,0,0,-1,1035,1828,0,0
-182,-804,0,0,0,0,0,0,0,0,0,-1,1042,1828,0,0
-175,-804,0,0,0,0,0,0,0,0,0,-1,1049,1828,0,0
-168,-804,0,0,0,0,0,0,0,0,0,-1,1056,1828,0,0
-161,-804,0,0,0,0,0,0,0,0,0,-1,1063,1828,0,0
-154,-804,0,0,0,0,0,0,0,0,0,-1,1070,1828,0,0
-147,-804,0,0,0,0,0,0,0,0,0,-1,1077,1828,0,0
-140,-804,0,0,0,0,0,0,0,0,0,-1,1084,1828,0,0
-133,-804,0,0,0,0,0,0,0,0,0,-1,1091,1828,0,0
-126,-804,0,0,0,0,0,0,0,0,0,-1,1098,1828,0,0
-119,-804,0,0,0,0,0,0,0,0,0,-1,1105,1828,0,0
-112,-804,0,0,0,0,0,0,0,0,0,-1,1112,1828,0,0
-105,-804,0,0,0,0,0,0,0,0,0,-1,1119,1828,0,0
-98,-804,0,0,0,0,0,0,0,0,0,-1,1126,1828,0,0
-91,-804,0,0,0,0,0,0,0,0,0,-1,1133,1828,0,0
-84,-804,0,0,0,0,0,0,0,0,0,-1,1140,1828,0,0
-77,-804,0,0,0,0,0,0,0,0,0,-1,1147,1828,0,0
-70,-804,0,0,0,0,0,0,0,0,0,-1,1154,1828,0,0
-63,-804,0,0,0,0,0,0,0,0,0,-1,1161,1828,0,0
-56,-804,0,0,0,0,0,0,0,0,0,-1,1168,1828,0,0
-49,-804,0,0,0,0,0,0,0,0,0,-1,1175,1828,0,0
-42,-804,0,0,0,0,0,0,0,0,0,-1,1182,1828,0,0
-35,-804,0,0,0,0,0,0,0,0,0,-1,1189,1828,0,0
-28,-804,0,0,0,0,0,0,0,0,0,-1,1196,1828,0,0
-21,-804,0,0,0,0,0,0,0,0,0,-1,1203,1828,0,0
-14,-804,0,0,0,0,0,0,0,0,0,-1,1210,1828,0,0
-7,-804,0,0,0,0,0,0,0,0,0,-1,1217,1828,0,0
0,-804,0,0,0,0,0,0,0,0,0,-1,1224,1828,0,0
7,-804,0,0,0,0,0,0,0,0,0,-1,1231,1828,0,0
14,-804,0,0,0,0,0,0,0,0,0,-1,1238,1828,0,0
21,-804,0,0,0,0,0,0,0,0,0,-1,1245,1828,0,0
28,-804,0,0,0,0,0,0,0,0,0,-1,1252,1828,0,0
35,-804,4.42676,20.2924,0.045244,-0.0803162,0.0365856,0.0551265,-0.0901986,0.263822,0.084714,0.0436266,1259,1828,4.42671,-20.2923
42,-804,4.6333,20.4763,0.0437173,-0.0814266,0.0317585,0.0513155,-0.0890248,0.234835,0.0819947,0.0411695,1266,1828,4.63327,-20.4763
49,-804,5.29761,20.6731,0.0394299,-0.0838704,0.025715,0.0445779,-0.0890185,0.197585,0.0785416,0.0431687,1273,1828,5.29755,-20.6731
56,-804,5.53308,20.9563,0.032331,-0.0877627,0.019981,0.0355681,-0.0909998,0.160616,0.0753739,0.0440498,1280,1828,5.53307,-20.9562
63,-804,5.49109,20.9248,0.0255872,-0.0920213,0.0147154,0.0274004,-0.0938345,0.122604,0.0734145,0.0470316,1287,1828,5.49112,-20.9248
70,-804,5.35681,20.4005,0,0,0,0,0,0,0,-1,1294,1828,5.35682,-20.4005
77,-804,5.32886,20.14,0.011454,-0.101032,0.00336691,0.0115547,-0.101133,0.0298961,0.0715851,0.0469924,1301,1828,5.32885,-20.1401
84,-804,5.48645,19.9995,0,0,0,0,0,0,0,-1,1308,1828,5.48647,-19.9995
91,-804,0,0,0,0,0,0,0,0,0,-1,1315,1828,0,0
98,-804,0,0,0,0,0,0,0,0,0,-1,1322,1828,0,0
105,-804,0,0,0,0,0,0,0,0,0,-1,1329,1828,0,0
112,-804,0,0,0,0,0,0,0,0,0,-1,1336,1828,0,0
119,-804,0,0,0,0,0,0,0,0,0,-1,1343,1828,0,0
126,-804,0,0,0,0,0,0,0,0,0,-1,1350,1828,0,0
133,-804,0,0,0,0,0,0,0,0,0,-1,1357,1828,0,0
140,-804,0,0,0,0,0,0,0,0,0,-1,1364,1828,0,0
147,-804,0,0,0,0,0,0,0,0,0,-1,1371,1828,0,0
154,-804,0,0,0,0,0,0,0,0,0,-1,1378,1828,0,0
161,-804,0,0,0,0,0,0,0,0,0,-1,1385,1828,0,0
168,-804,0,0,0,0,0,0,0,0,0,-1,1392,1828,0,0
175,-804,0,0,0,0,0,0,0,0,0,-1,1399,1828,0,0
182,-804,0,0,0,0,0,0,0,0,0,-1,1406,1828,0,0
189,-804,0,0,0,0,0,0,0,0,0,-1,1413,1828,0,0
196,-804,0,0,0,0,0,0,0,0,0,-1,1420,1828,0,0
203,-804,0,0,0,0,0,0,0,0,0,-1,1427,1828,0,0
210,-804,0,0,0,0,0,0,0,0,0,-1,1434,1828,0,0
217,-804,0,0,0,0,0,0,0,0,0,-1,1441,1828,0,0
224,-804,0,0,0,0,0,0,0,0,0,-1,1448,1828,0,0
231,-804,0,0,0,0,0,0,0,0,0,-1,1455,1828,0,0
238,-804,0,0,0,0,0,0,0,0,0,-1,1462,1828,0,0
245,-804,0,0,0,0,0,0,0,0,0,-1,1469,1828,0,0
252,-804,0,0,0,0,0,0,0,0,0,-1,1476,1828,0,0
259,-804,0,0,0,0,0,0,0,0,0,-1,1483,1828,0,0
266,-804,0,0,0,0,0,0,0,0,0,-1,1490,1828,0,0
273,-804,0,0,0,0,0,0,0,0,0,-1,1497,1828,0,0
280,-804,0,0,0,0,0,0,0,0,0,-1,1504,1828,0,0
287,-804,0,0,0,0,0,0,0,0,0,-1,1511,1828,0,0
294,-804,0,0,0,0,0,0,0,0,0,-1,1518,1828,0,0
301,-804,0,0,0,0,0,0,0,0,0,-1,1525,1828,0,0
308,-804,0,0,0,0,0,0,0,0,0,-1,1532,1828,0,0
315,-804,0,0,0,0,0,0,0,0,0,-1,1539,1828,0,0
322,-804,0,0,0,0,0,0,0,0,0,-1,1546,1828,0,0
329,-804,0,0,0,0,0,0,0,0,0,-1,1553,1828,0,0
336,-804,0,0,0,0,0,0,0,0,0,-1,1560,1828,0,0
343,-804,0,0,0,0,0,0,0,0,0,-1,1567,1828,0,0
350,-804,0,0,0,0,0,0,0,0,0,-1,1574,1828,0,0
357,-804,0,0,0,0,0,0,0,0,0,-1,1581,1828,0,0
364,-804,0,0,0,0,0,0,0,0,0,-1,1588,1828,0,0
371,-804,0,0,0,0,0,0,0,0,0,-1,1595,1828,0,0
378,-804,0,0,0,0,0,0,0,0,0,-1,1602,1828,0,0
385,-804,0,0,0,0,0,0,0,0,0,-1,1609,1828,0,0
392,-804,0,0,0,0,0,0,0,0,0,-1,1616,1828,0,0
399,-804,0,0,0,0,0,0,0,0,0,-1,1623,1828,0,0
406,-804,0,0,0,0,0,0,0,0,0,-1,1630,1828,0,0
413,-804,0,0,0,0,0,0,0,0,0,-1,1637,1828,0,0
420,-804,0,0,0,0,0,0,0,0,0,-1,1644,1828,0,0
427,-804,0,0,0,0,0,0,0,0,0,-1,1651,1828,0,0
434,-804,0,0,0,0,0,0,0,0,0,-1,1658,1828,0,0
441,-804,0,0,0,0,0,0,0,0,0,-1,1665,1828,0,0
448,-804,0,0,0,0,0,0,0,0,0,-1,1672,1828,0,0
455,-804,0,0,0,0,0,0,0,0,0,-1,1679,1828,0,0
462,-804,0,0,0,0,0,0,0,0,0,-1,1686,1828,0,0
469,-804,0,0,0,0,0,0,0,0,0,-1,1693,1828,0,0
476,-804,0,0,0,0,0,0,0,0,0,-1,1700,1828,0,0
483,-804,0,0,0,0,0,0,0,0,0,-1,1707,1828,0,0
490,-804,0,0,0,0,0,0,0,0,0,-1,1714,1828,0,0
497,-804,0,0,0,0,0,0,0,0,0,-1,1721,1828,0,0
504,-804,0,0,0,0,0,0,0,0,0,-1,1728,1828,0,0
511,-804,0,0,0,0,0,0,0,0,0,-1,1735,1828,0,0
518,-804,0,0,0,0,0,0,0,0,0,-1,1742,1828,0,0
525,-804,0,0,0,0,0,0,0,0,0,-1,1749,1828,0,0
532,-804,0,0,0,0,0,0,0,0,0,-1,1756,1828,0,0
539,-804,0,0,0,0,0,0,0,0,0,-1,1763,1828,0,0
546,-804,0,0,0,0,0,0,0,0,0,-1,1770,1828,0,0
553,-804,0,0,0,0,0,0,0,0,0,-1,1777,1828,0,0
560,-804,0,0,0,0,0,0,0,0,0,-1,1784,1828,0,0
567,-804,0,0,0,0,0,0,0,0,0,-1,1791,1828,0,0
574,-804,0,0,0,0,0,0,0,0,0,-1,1798,1828,0,0
581,-804,0,0,0,0,0,0,0,0,0,-1,1805,1828,0,0
588,-804,0,0,0,0,0,0,0,0,0,-1,1812,1828,0,0
595,-804,0,0,0,0,0,0,0,0,0,-1,1819,1828,0,0
602,-804,0,0,0,0,0,0,0,0,0,-1,1826,1828,0,0
609,-804,0,0,0,0,0,0,0,0,0,-1,1833,1828,0,0
616,-804,0,0,0,0,0,0,0,0,0,-1,1840,1828,0,0
623,-804,0,0,0,0,0,0,0,0,0,-1,1847,1828,0,0
630,-804,0,0,0,0,0,0,0,0,0,-1,1854,1828,0,0
637,-804,0,0,0,0,0,0,0,0,0,-1,1861,1828,0,0
644,-804,0,0,0,0,0,0,0,0,0,-1,1868,1828,0,0
651,-804,0,0,0,0,0,0,0,0,0,-1,1875,1828,0,0
658,-804,0,0,0,0,0,0,0,0,0,-1,1882,1828,0,0
665,-804,0,0,0,0,0,0,0,0,0,-1,1889,1828,0,0
672,-804,0,0,0,0,0,0,0,0,0,-1,1896,1828,0,0
679,-804,0,0,0,0,0,0,0,0,0,-1,1903,1828,0,0
686,-804,0,0,0,0,0,0,0,0,0,-1,1910,1828,0,0
693,-804,0,0,0,0,0,0,0,0,0,-1,1917,1828,0,0
700,-804,0,0,0,0,0,0,0,0,0,-1,1924,1828,0,0
707,-804,0,0,0,0,0,0,0,0,0,-1,1931,1828,0,0
714,-804,0,0,0,0,0,0,0,0,0,-1,1938,1828,0,0
721,-804,0,0,0,0,0,0,0,0,0,-1,1945,1828,0,0
728,-804,0,0,0,0,0,0,0,0,0,-1,1952,1828,0,0
735,-804,0,0,0,0,0,0,0,0,0,-1,1959,1828,0,0
742,-804,0,0,0,0,0,0,0,0,0,-1,1966,1828,0,0
749,-804,0,0,0,0,0,0,0,0,0,-1,1973,1828,0,0
756,-804,0,0,0,0,0,0,0,0,0,-1,1980,1828,0,0
763,-804,0,0,0,0,0,0,0,0,0,-1,1987,1828,0,0
770,-804,0,0,0,0,0,0,0,0,0,-1,1994,1828,0,0
777,-804,0,0,0,0,0,0,0,0,0,-1,2001,1828,0,0
784,-804,0,0,0,0,0,0,0,0,0,-1,2008,1828,0,0
791,-804,0,0,0,0,0,0,0,0,0,-1,2015,1828,0,0
798,-804,0,0,0,0,0,0,0,0,0,-1,2022,1828,0,0
805,-804,0,0,0,0,0,0,0,0,0,-1,2029,1828,0,0
812,-804,0,0,0,0,0,0,0,0,0,-1,2036,1828,0,0

