 "x_c",  "y_c",  "u_c",  "v_c",  "exx",  "eyy",  "exy",  "e1",  "e2",  "gamma",  "e_vonmises",  "sigma",  "x",  "y",  "u",  "v"
-700,715,0,0,0,0,0,0,0,0,0,-1,524,309,0,0
-693,715,0,0,0,0,0,0,0,0,0,-1,531,309,0,0
-686,715,0,0,0,0,0,0,0,0,0,-1,538,309,0,0
-679,715,0,0,0,0,0,0,0,0,0,-1,545,309,0,0
-672,715,0,0,0,0,0,0,0,0,0,-1,552,309,0,0
-665,715,0,0,0,0,0,0,0,0,0,-1,559,309,0,0
-658,715,0,0,0,0,0,0,0,0,0,-1,566,309,0,0
-651,715,0,0,0,0,0,0,0,0,0,-1,573,309,0,0
-644,715,0,0,0,0,0,0,0,0,0,-1,580,309,0,0
-637,715,0,0,0,0,0,0,0,0,0,-1,587,309,0,0
-630,715,0,0,0,0,0,0,0,0,0,-1,594,309,0,0
-623,715,0,0,0,0,0,0,0,0,0,-1,601,309,0,0
-616,715,0,0,0,0,0,0,0,0,0,-1,608,309,0,0
-609,715,0,0,0,0,0,0,0,0,0,-1,615,309,0,0
-602,715,0,0,0,0,0,0,0,0,0,-1,622,309,0,0
-595,715,0,0,0,0,0,0,0,0,0,-1,629,309,0,0
-588,715,0,0,0,0,0,0,0,0,0,-1,636,309,0,0
-581,715,0,0,0,0,0,0,0,0,0,-1,643,309,0,0
-574,715,0,0,0,0,0,0,0,0,0,-1,650,309,0,0
-567,715,0,0,0,0,0,0,0,0,0,-1,657,309,0,0
-560,715,0,0,0,0,0,0,0,0,0,-1,664,309,0,0
-553,715,0,0,0,0,0,0,0,0,0,-1,671,309,0,0
-546,715,0,0,0,0,0,0,0,0,0,-1,678,309,0,0
-539,715,0,0,0,0,0,0,0,0,0,-1,685,309,0,0
-532,715,0,0,0,0,0,0,0,0,0,-1,692,309,0,0
-525,715,0,0,0,0,0,0,0,0,0,-1,699,309,0,0
-518,715,0,0,0,0,0,0,0,0,0,-1,706,309,0,0
-511,715,0,0,0,0,0,0,0,0,0,-1,713,309,0,0
-504,715,0,0,0,0,0,0,0,0,0,-1,720,309,0,0
-497,715,0,0,0,0,0,0,0,0,0,-1,727,309,0,0
-490,715,0,0,0,0,0,0,0,0,0,-1,734,309,0,0
-483,715,0,0,0,0,0,0,0,0,0,-1,741,309,0,0
-476,715,0,0,0,0,0,0,0,0,0,-1,748,309,0,0
-469,715,0,0,0,0,0,0,0,0,0,-1,755,309,0,0
-462,715,0,0,0,0,0,0,0,0,0,-1,762,309,0,0
-455,715,0,0,0,0,0,0,0,0,0,-1,769,309,0,0
-448,715,0,0,0,0,0,0,0,0,0,-1,776,309,0,0
-441,715,0,0,0,0,0,0,0,0,0,-1,783,309,0,0
-434,715,0,0,0,0,0,0,0,0,0,-1,790,309,0,0
-427,715,0,0,0,0,0,0,0,0,0,-1,797,309,0,0
-420,715,0,0,0,0,0,0,0,0,0,-1,804,309,0,0
-413,715,0,0,0,0,0,0,0,0,0,-1,811,309,0,0
-406,715,0,0,0,0,0,0,0,0,0,-1,818,309,0,0
-399,715,0,0,0,0,0,0,0,0,0,-1,825,309,0,0
-392,715,0,0,0,0,0,0,0,0,0,-1,832,309,0,0
-385,715,0,0,0,0,0,0,0,0,0,-1,839,309,0,0
-378,715,0,0,0,0,0,0,0,0,0,-1,846,309,0,0
-371,715,0,0,0,0,0,0,0,0,0,-1,853,309,0,0
-364,715,0,0,0,0,0,0,0,0,0,-1,860,309,0,0
-357,715,0,0,0,0,0,0,0,0,0,-1,867,309,0,0
-350,715,0,0,0,0,0,0,0,0,0,-1,874,309,0,0
-343,715,0,0,0,0,0,0,0,0,0,-1,881,309,0,0
-336,715,0,0,0,0,0,0,0,0,0,-1,888,309,0,0
-329,715,0,0,0,0,0,0,0,0,0,-1,895,309,0,0
-322,715,0,0,0,0,0,0,0,0,0,-1,902,309,0,0
-315,715,0,0,0,0,0,0,0,0,0,-1,909,309,0,0
-308,715,0,0,0,0,0,0,0,0,0,-1,916,309,0,0
-301,715,0,0,0,0,0,0,0,0,0,-1,923,309,0,0
-294,715,0,0,0,0,0,0,0,0,0,-1,930,309,0,0
-287,715,0,0,0,0,0,0,0,0,0,-1,937,309,0,0
-280,715,0,0,0,0,0,0,0,0,0,-1,944,309,0,0
-273,715,0,0,0,0,0,0,0,0,0,-1,951,309,0,0
-266,715,0,0,0,0,0,0,0,0,0,-1,958,309,0,0
-259,715,0,0,0,0,0,0,0,0,0,-1,965,309,0,0
-252,715,0,0,0,0,0,0,0,0,0,-1,972,309,0,0
-245,715,0,0,0,0,0,0,0,0,0,-1,979,309,0,0
-238,715,0,0,0,0,0,0,0,0,0,-1,986,309,0,0
-231,715,0,0,0,0,0,0,0,0,0,-1,993,309,0,0
-224,715,0,0,0,0,0,0,0,0,0,-1,1000,309,0,0
-217,715,0,0,0,0,0,0,0,0,0,-1,1007,309,0,0
-210,715,0,0,0,0,0,0,0,0,0,-1,1014,309,0,0
-203,715,0,0,0,0,0,0,0,0,0,-1,1021,309,0,0
-196,715,0,0,0,0,0,0,0,0,0,-1,1028,309,0,0
-189,715,0,0,0,0,0,0,0,0,0,-1,1035,309,0,0
-182,715,0,0,0,0,0,0,0,0,0,-1,1042,309,0,0
-175,715,0,0,0,0,0,0,0,0,0,-1,1049,309,0,0
-168,715,0,0,0,0,0,0,0,0,0,-1,1056,309,0,0
-161,715,0,0,0,0,0,0,0,0,0,-1,1063,309,0,0
-154,715,0,0,0,0,0,0,0,0,0,-1,1070,309,0,0
-147,715,0,0,0,0,0,0,0,0,0,-1,1077,309,0,0
-140,715,0,0,0,0,0,0,0,0,0,-1,1084,309,0,0
-133,715,0,0,0,0,0,0,0,0,0,-1,1091,309,0,0
-126,715,0,0,0,0,0,0,0,0,0,-1,1098,309,0,0
-119,715,0,0,0,0,0,0,0,0,0,-1,1105,309,0,0
-112,715,0,0,0,0,0,0,0,0,0,-1,1112,309,0,0
-105,715,0,0,0,0,0,0,0,0,0,-1,1119,309,0,0
-98,715,0,0,0,0,0,0,0,0,0,-1,1126,309,0,0
-91,715,0,0,0,0,0,0,0,0,0,-1,1133,309,0,0
-84,715,0,0,0,0,0,0,0,0,0,-1,1140,309,0,0
-77,715,0,0,0,0,0,0,0,0,0,-1,1147,309,0,0
-70,715,0,0,0,0,0,0,0,0,0,-1,1154,309,0,0
-63,715,0,0,0,0,0,0,0,0,0,-1,1161,309,0,0
-56,715,0,0,0,0,0,0,0,0,0,-1,1168,309,0,0
-49,715,0,0,0,0,0,0,0,0,0,-1,1175,309,0,0
-42,715,0,0,0,0,0,0,0,0,0,-1,1182,309,0,0
-35,715,0,0,0,0,0,0,0,0,0,-1,1189,309,0,0
-28,715,0,0,0,0,0,0,0,0,0,-1,1196,309,0,0
-21,715,0,0,0,0,0,0,0,0,0,-1,1203,309,0,0
-14,715,0,0,0,0,0,0,0,0,0,-1,1210,309,0,0
-7,715,0,0,0,0,0,0,0,0,0,-1,1217,309,0,0
0,715,0,0,0,0,0,0,0,0,0,-1,1224,309,0,0
7,715,0,0,0,0,0,0,0,0,0,-1,1231,309,0,0
14,715,0,0,0,0,0,0,0,0,0,-1,1238,309,0,0
21,715,0,0,0,0,0,0,0,0,0,-1,1245,309,0,0
28,715,0,0,0,0,0,0,0,0,0,-1,1252,309,0,0
35,715,0,0,0,0,0,0,0,0,0,-1,1259,309,0,0
42,715,0,0,0,0,0,0,0,0,0,-1,1266,309,0,0
49,715,0,0,0,0,0,0,0,0,0,-1,1273,309,0,0
56,715,0,0,0,0,0,0,0,0,0,-1,1280,309,0,0
63,715,8.69604,-8.7384,0,0,0,0,0,0,0,-1,1287,309,8.69606,8.73839
70,715,7.83606,-9.61966,0,0,0,0,0,0,0,-1,1294,309,7.83606,9.61966
77,715,0,0,0,0,0,0,0,0,0,-1,1301,309,0,0
84,715,0,0,0,0,0,0,0,0,0,-1,1308,309,0,0
91,715,0,0,0,0,0,0,0,0,0,-1,1315,309,0,0
98,715,0,0,0,0,0,0,0,0,0,-1,1322,309,0,0
105,715,0,0,0,0,0,0,0,0,0,-1,1329,309,0,0
112,715,0,0,0,0,0,0,0,0,0,-1,1336,309,0,0
119,715,0,0,0,0,0,0,0,0,0,-1,1343,309,0,0
126,715,0,0,0,0,0,0,0,0,0,-1,1350,309,0,0
133,715,0,0,0,0,0,0,0,0,0,-1,1357,309,0,0
140,715,0,0,0,0,0,0,0,0,0,-1,1364,309,0,0
147,715,0,0,0,0,0,0,0,0,0,-1,1371,309,0,0
154,715,0,0,0,0,0,0,0,0,0,-1,1378,309,0,0
161,715,0,0,0,0,0,0,0,0,0,-1,1385,309,0,0
168,715,0,0,0,0,0,0,0,0,0,-1,1392,309,0,0
175,715,0,0,0,0,0,0,0,0,0,-1,1399,309,0,0
182,715,0,0,0,0,0,0,0,0,0,-1,1406,309,0,0
189,715,0,0,0,0,0,0,0,0,0,-1,1413,309,0,0
196,715,0,0,0,0,0,0,0,0,0,-1,1420,309,0,0
203,715,0,0,0,0,0,0,0,0,0,-1,1427,309,0,0
210,715,0,0,0,0,0,0,0,0,0,-1,1434,309,0,0
217,715,0,0,0,0,0,0,0,0,0,-1,1441,309,0,0
224,715,0,0,0,0,0,0,0,0,0,-1,1448,309,0,0
231,715,0,0,0,0,0,0,0,0,0,-1,1455,309,0,0
238,715,0,0,0,0,0,0,0,0,0,-1,1462,309,0,0
245,715,0,0,0,0,0,0,0,0,0,-1,1469,309,0,0
252,715,0,0,0,0,0,0,0,0,0,-1,1476,309,0,0
259,715,0,0,0,0,0,0,0,0,0,-1,1483,309,0,0
266,715,0,0,0,0,0,0,0,0,0,-1,1490,309,0,0
273,715,0,0,0,0,0,0,0,0,0,-1,1497,309,0,0
280,715,0,0,0,0,0,0,0,0,0,-1,1504,309,0,0
287,715,0,0,0,0,0,0,0,0,0,-1,1511,309,0,0
294,715,0,0,0,0,0,0,0,0,0,-1,1518,309,0,0
301,715,0,0,0,0,0,0,0,0,0,-1,1525,309,0,0
308,715,0,0,0,0,0,0,0,0,0,-1,1532,309,0,0
315,715,0,0,0,0,0,0,0,0,0,-1,1539,309,0,0
322,715,0,0,0,0,0,0,0,0,0,-1,1546,309,0,0
329,715,0,0,0,0,0,0,0,0,0,-1,1553,309,0,0
336,715,0,0,0,0,0,0,0,0,0,-1,1560,309,0,0
343,715,0,0,0,0,0,0,0,0,0,-1,1567,309,0,0
350,715,0,0,0,0,0,0,0,0,0,-1,1574,309,0,0
357,715,0,0,0,0,0,0,0,0,0,-1,1581,309,0,0
364,715,0,0,0,0,0,0,0,0,0,-1,1588,309,0,0
371,715,0,0,0,0,0,0,0,0,0,-1,1595,309,0,0
378,715,0,0,0,0,0,0,0,0,0,-1,1602,309,0,0
385,715,0,0,0,0,0,0,0,0,0,-1,1609,309,0,0
392,715,0,0,0,0,0,0,0,0,0,-1,1616,309,0,0
399,715,0,0,0,0,0,0,0,0,0,-1,1623,309,0,0
406,715,0,0,0,0,0,0,0,0,0,-1,1630,309,0,0
413,715,0,0,0,0,0,0,0,0,0,-1,1637,309,0,0
420,715,0,0,0,0,0,0,0,0,0,-1,1644,309,0,0
427,715,0,0,0,0,0,0,0,0,0,-1,1651,309,0,0
434,715,0,0,0,0,0,0,0,0,0,-1,1658,309,0,0
441,715,0,0,0,0,0,0,0,0,0,-1,1665,309,0,0
448,715,0,0,0,0,0,0,0,0,0,-1,1672,309,0,0
455,715,0,0,0,0,0,0,0,0,0,-1,1679,309,0,0
462,715,0,0,0,0,0,0,0,0,0,-1,1686,309,0,0
469,715,0,0,0,0,0,0,0,0,0,-1,1693,309,0,0
476,715,0,0,0,0,0,0,0,0,0,-1,1700,309,0,0
483,715,0,0,0,0,0,0,0,0,0,-1,1707,309,0,0
490,715,0,0,0,0,0,0,0,0,0,-1,1714,309,0,0
497,715,0,0,0,0,0,0,0,0,0,-1,1721,309,0,0
504,715,0,0,0,0,0,0,0,0,0,-1,1728,309,0,0
511,715,0,0,0,0,0,0,0,0,0,-1,1735,309,0,0
518,715,0,0,0,0,0,0,0,0,0,-1,1742,309,0,0
525,715,0,0,0,0,0,0,0,0,0,-1,1749,309,0,0
532,715,0,0,0,0,0,0,0,0,0,-1,1756,309,0,0
539,715,0,0,0,0,0,0,0,0,0,-1,1763,309,0,0
546,715,0,0,0,0,0,0,0,0,0,-1,1770,309,0,0
553,715,0,0,0,0,0,0,0,0,0,-1,1777,309,0,0
560,715,0,0,0,0,0,0,0,0,0,-1,1784,309,0,0
567,715,0,0,0,0,0,0,0,0,0,-1,1791,309,0,0
574,715,0,0,0,0,0,0,0,0,0,-1,1798,309,0,0
581,715,0,0,0,0,0,0,0,0,0,-1,1805,309,0,0
588,715,0,0,0,0,0,0,0,0,0,-1,1812,309,0,0
595,715,0,0,0,0,0,0,0,0,0,-1,1819,309,0,0
602,715,0,0,0,0,0,0,0,0,0,-1,1826,309,0,0
609,715,0,0,0,0,0,0,0,0,0,-1,1833,309,0,0
616,715,0,0,0,0,0,0,0,0,0,-1,1840,309,0,0
623,715,0,0,0,0,0,0,0,0,0,-1,1847,309,0,0
630,715,0,0,0,0,0,0,0,0,0,-1,1854,309,0,0
637,715,0,0,0,0,0,0,0,0,0,-1,1861,309,0,0
644,715,0,0,0,0,0,0,0,0,0,-1,1868,309,0,0
651,715,0,0,0,0,0,0,0,0,0,-1,1875,309,0,0
658,715,0,0,0,0,0,0,0,0,0,-1,1882,309,0,0
665,715,0,0,0,0,0,0,0,0,0,-1,1889,309,0,0
672,715,0,0,0,0,0,0,0,0,0,-1,1896,309,0,0
679,715,0,0,0,0,0,0,0,0,0,-1,1903,309,0,0
686,715,0,0,0,0,0,0,0,0,0,-1,1910,309,0,0
693,715,0,0,0,0,0,0,0,0,0,-1,1917,309,0,0
700,715,0,0,0,0,0,0,0,0,0,-1,1924,309,0,0
707,715,0,0,0,0,0,0,0,0,0,-1,1931,309,0,0
714,715,0,0,0,0,0,0,0,0,0,-1,1938,309,0,0
721,715,0,0,0,0,0,0,0,0,0,-1,1945,309,0,0
728,715,0,0,0,0,0,0,0,0,0,-1,1952,309,0,0
735,715,0,0,0,0,0,0,0,0,0,-1,1959,309,0,0
742,715,0,0,0,0,0,0,0,0,0,-1,1966,309,0,0
749,715,0,0,0,0,0,0,0,0,0,-1,1973,309,0,0
756,715,0,0,0,0,0,0,0,0,0,-1,1980,309,0,0
763,715,0,0,0,0,0,0,0,0,0,-1,1987,309,0,0
770,715,0,0,0,0,0,0,0,0,0,-1,1994,309,0,0
777,715,0,0,0,0,0,0,0,0,0,-1,2001,309,0,0
784,715,0,0,0,0,0,0,0,0,0,-1,2008,309,0,0
791,715,0,0,0,0,0,0,0,0,0,-1,2015,309,0,0
798,715,0,0,0,0,0,0,0,0,0,-1,2022,309,0,0
805,715,0,0,0,0,0,0,0,0,0,-1,2029,309,0,0
812,715,0,0,0,0,0,0,0,0,0,-1,2036,309,0,0
-700,708,0,0,0,0,0,0,0,0,0,-1,524,316,0,0
-693,708,0,0,0,0,0,0,0,0,0,-1,531,316,0,0
-686,708,0,0,0,0,0,0,0,0,0,-1,538,316,0,0
-679,708,0,0,0,0,0,0,0,0,0,-1,545,316,0,0
-672,708,0,0,0,0,0,0,0,0,0,-1,552,316,0,0
-665,708,0,0,0,0,0,0,0,0,0,-1,559,316,0,0
-658,708,0,0,0,0,0,0,0,0,0,-1,566,316,0,0
-651,708,0,0,0,0,0,0,0,0,0,-1,573,316,0,0
-644,708,0,0,0,0,0,0,0,0,0,-1,580,316,0,0
-637,708,0,0,0,0,0,0,0,0,0,-1,587,316,0,0
-630,708,0,0,0,0,0,0,0,0,0,-1,594,316,0,0
-623,708,0,0,0,0,0,0,0,0,0,-1,601,316,0,0
-616,708,0,0,0,0,0,0,0,0,0,-1,608,316,0,0
-609,708,0,0,0,0,0,0,0,0,0,-1,615,316,0,0
-602,708,0,0,0,0,0,0,0,0,0,-1,622,316,0,0
-595,708,0,0,0,0,0,0,0,0,0,-1,629,316,0,0
-588,708,0,0,0,0,0,0,0,0,0,-1,636,316,0,0
-581,708,0,0,0,0,0,0,0,0,0,-1,643,316,0,0
-574,708,0,0,0,0,0,0,0,0,0,-1,650,316,0,0
-567,708,0,0,0,0,0,0,0,0,0,-1,657,316,0,0
-560,708,0,0,0,0,0,0,0,0,0,-1,664,316,0,0
-553,708,0,0,0,0,0,0,0,0,0,-1,671,316,0,0
-546,708,0,0,0,0,0,0,0,0,0,-1,678,316,0,0
-539,708,0,0,0,0,0,0,0,0,0,-1,685,316,0,0
-532,708,0,0,0,0,0,0,0,0,0,-1,692,316,0,0
-525,708,0,0,0,0,0,0,0,0,0,-1,699,316,0,0
-518,708,0,0,0,0,0,0,0,0,0,-1,706,316,0,0
-511,708,0,0,0,0,0,0,0,0,0,-1,713,316,0,0
-504,708,0,0,0,0,0,0,0,0,0,-1,720,316,0,0
-497,708,0,0,0,0,0,0,0,0,0,-1,727,316,0,0
-490,708,0,0,0,0,0,0,0,0,0,-1,734,316,0,0
-483,708,0,0,0,0,0,0,0,0,0,-1,741,316,0,0
-476,708,0,0,0,0,0,0,0,0,0,-1,748,316,0,0
-469,708,0,0,0,0,0,0,0,0,0,-1,755,316,0,0
-462,708,0,0,0,0,0,0,0,0,0,-1,762,316,0,0
-455,708,0,0,0,0,0,0,0,0,0,-1,769,316,0,0
-448,708,0,0,0,0,0,0,0,0,0,-1,776,316,0,0
-441,708,0,0,0,0,0,0,0,0,0,-1,783,316,0,0
-434,708,0,0,0,0,0,0,0,0,0,-1,790,316,0,0
-427,708,0,0,0,0,0,0,0,0,0,-1,797,316,0,0
-420,708,0,0,0,0,0,0,0,0,0,-1,804,316,0,0
-413,708,0,0,0,0,0,0,0,0,0,-1,811,316,0,0
-406,708,0,0,0,0,0,0,0,0,0,-1,818,316,0,0
-399,708,0,0,0,0,0,0,0,0,0,-1,825,316,0,0
-392,708,0,0,0,0,0,0,0,0,0,-1,832,316,0,0
-385,708,0,0,0,0,0,0,0,0,0,-1,839,316,0,0
-378,708,0,0,0,0,0,0,0,0,0,-1,846,316,0,0
-371,708,0,0,0,0,0,0,0,0,0,-1,853,316,0,0
-364,708,0,0,0,0,0,0,0,0,0,-1,860,316,0,0
-357,708,0,0,0,0,0,0,0,0,0,-1,867,316,0,0
-350,708,0,0,0,0,0,0,0,0,0,-1,874,316,0,0
-343,708,0,0,0,0,0,0,0,0,0,-1,881,316,0,0
-336,708,0,0,0,0,0,0,0,0,0,-1,888,316,0,0
-329,708,0,0,0,0,0,0,0,0,0,-1,895,316,0,0
-322,708,0,0,0,0,0,0,0,0,0,-1,902,316,0,0
-315,708,0,0,0,0,0,0,0,0,0,-1,909,316,0,0
-308,708,0,0,0,0,0,0,0,0,0,-1,916,316,0,0
-301,708,0,0,0,0,0,0,0,0,0,-1,923,316,0,0
-294,708,0,0,0,0,0,0,0,0,0,-1,930,316,0,0
-287,708,0,0,0,0,0,0,0,0,0,-1,937,316,0,0
-280,708,0,0,0,0,0,0,0,0,0,-1,944,316,0,0
-273,708,0,0,0,0,0,0,0,0,0,-1,951,316,0,0
-266,708,0,0,0,0,0,0,0,0,0,-1,958,316,0,0
-259,708,0,0,0,0,0,0,0,0,0,-1,965,316,0,0
-252,708,0,0,0,0,0,0,0,0,0,-1,972,316,0,0
-245,708,0,0,0,0,0,0,0,0,0,-1,979,316,0,0
-238,708,0,0,0,0,0,0,0,0,0,-1,986,316,0,0
-231,708,0,0,0,0,0,0,0,0,0,-1,993,316,0,0
-224,708,0,0,0,0,0,0,0,0,0,-1,1000,316,0,0
-217,708,0,0,0,0,0,0,0,0,0,-1,1007,316,0,0
-210,708,0,0,0,0,0,0,0,0,0,-1,1014,316,0,0
-203,708,0,0,0,0,0,0,0,0,0,-1,1021,316,0,0
-196,708,0,0,0,0,0,0,0,0,0,-1,1028,316,0,0
-189,708,0,0,0,0,0,0,0,0,0,-1,1035,316,0,0
-182,708,0,0,0,0,0,0,0,0,0,-1,1042,316,0,0
-175,708,0,0,0,0,0,0,0,0,0,-1,1049,316,0,0
-168,708,0,0,0,0,0,0,0,0,0,-1,1056,316,0,0
-161,708,0,0,0,0,0,0,0,0,0,-1,1063,316,0,0
-154,708,0,0,0,0,0,0,0,0,0,-1,1070,316,0,0
-147,708,0,0,0,0,0,0,0,0,0,-1,1077,316,0,0
-140,708,0,0,0,0,0,0,0,0,0,-1,1084,316,0,0
-133,708,0,0,0,0,0,0,0,0,0,-1,1091,316,0,0
-126,708,0,0,0,0,0,0,0,0,0,-1,1098,316,0,0
-119,708,0,0,0,0,0,0,0,0,0,-1,1105,316,0,0
-112,708,0,0,0,0,0,0,0,0,0,-1,1112,316,0,0
-105,708,0,0,0,0,0,0,0,0,0,-1,1119,316,0,0
-98,708,0,0,0,0,0,0,0,0,0,-1,1126,316,0,0
-91,708,0,0,0,0,0,0,0,0,0,-1,1133,316,0,0
-84,708,0,0,0,0,0,0,0,0,0,-1,1140,316,0,0
-77,708,0,0,0,0,0,0,0,0,0,-1,1147,316,0,0
-70,708,0,0,0,0,0,0,0,0,0,-1,1154,316,0,0
-63,708,0,0,0,0,0,0,0,0,0,-1,1161,316,0,0
-56,708,0,0,0,0,0,0,0,0,0,-1,1168,316,0,0
-49,708,0,0,0,0,0,0,0,0,0,-1,1175,316,0,0
-42,708,0,0,0,0,0,0,0,0,0,-1,1182,316,0,0
-35,708,-2.71204,-6.31558,0,0,0,0,0,0,0,-1,1189,316,-2.712,6.3156
-28,708,-2.92371,-5.53253,0,0,0,0,0,0,0,-1,1196,316,-2.92375,5.53254
-21,708,-5.32227,-7.36841,0,0,0,0,0,0,0,-1,1203,316,-5.32232,7.3684
-14,708,2.39282,-4.41992,0,0,0,0,0,0,0,-1,1210,316,2.3928,4.41993
-7,708,1.73352,-4.37497,0,0,0,0,0,0,0,-1,1217,316,1.73357,4.37498
0,708,1.71216,-4.50299,0,0,0,0,0,0,0,-1,1224,316,1.71212,4.503
7,708,1.47607,-5.00687,-0.0343039,0.169312,-0.0852243,0.200275,-0.0652666,-1.22232,0.159779,0.0442648,1231,316,1.47604,5.00686
14,708,0.113281,-5.6813,0,0,0,0,0,0,0,-1,1238,316,0.11332,5.68131
21,708,-0.905029,-6.20682,-0.0202207,0.131114,-0.0900123,0.173039,-0.0621449,-1.13491,0.140725,0.0439551,1245,316,-0.905088,6.20681
28,708,-0.367432,-7.05579,-0.0125028,0.118765,-0.0897997,0.164359,-0.0580976,-1.10098,0.13323,0.0456521,1252,316,-0.367395,7.05577
35,708,-0.549683,-6.86581,-0.00401199,0.108468,-0.0873849,0.156147,-0.0516905,-1.07133,0.124944,0.0423774,1259,316,-0.549709,6.8658
42,708,-0.562622,-6.69012,0.00465302,0.100587,-0.0821141,0.147718,-0.0424776,-1.04974,0.115277,0.0429887,1266,316,-0.562656,6.69013
49,708,-0.201416,-6.53378,0.0141178,0.0913697,-0.0750399,0.137141,-0.0316538,-1.02308,0.103603,0.0443874,1273,316,-0.201468,6.53379
56,708,-0.630249,-7.91727,0.0231419,0.086163,-0.0645031,0.126441,-0.0171359,-1.01261,0.090548,0.0463149,1280,316,-0.630234,7.91726
63,708,0.139404,-8.57477,0,0,0,0,0,0,0,-1,1287,316,0.139348,8.57476
70,708,7.38574,-9.39746,0,0,0,0,0,0,0,-1,1294,316,7.38577,9.39747
77,708,0.908813,-9.54605,0,0,0,0,0,0,0,-1,1301,316,0.908785,9.54604
84,708,1.55237,-9.56125,0,0,0,0,0,0,0,-1,1308,316,1.55238,9.56125
91,708,-0.0673828,-8.61743,0,0,0,0,0,0,0,-1,1315,316,-0.0674006,8.61744
98,708,0.111084,-8.32922,0.0694703,0.0987265,-0.032878,0.120084,0.0481131,-0.994709,0.069785,0.0452118,1322,316,0.111079,8.32924
105,708,0.549561,-7.84415,0.0702663,0.0987472,-0.0326134,0.120094,0.0489199,-0.991244,0.0697318,0.0459985,1329,316,0.549507,7.84416
112,708,1.11804,-7.48425,0,0,0,0,0,0,0,-1,1336,316,1.11808,7.48426
119,708,1.36267,-7.1528,0.0646728,0.111649,-0.0408828,0.13531,0.0410111,-1.04614,0.0801154,0.0444545,1343,316,1.36261,7.15282
126,708,1.51636,-6.66922,0.0556112,0.112747,-0.0490314,0.140926,0.0274322,-1.04918,0.0862726,0.0460485,1350,316,1.5164,6.66921
133,708,1.71545,-6.16309,0,0,0,0,0,0,0,-1,1357,316,1.71542,6.16309
140,708,3.64355,-12.0073,0.0237716,0.0967814,-0.0575714,0.128446,-0.00789299,-1.06795,0.0883792,0.0479708,1364,316,3.64351,12.0073
147,708,3.02148,-11.5863,-0.00152577,0.0741163,-0.053294,0.101646,-0.0290552,-1.09399,0.0792447,0.047481,1371,316,3.0215,11.5863
154,708,0,0,0,0,0,0,0,0,0,-1,1378,316,0,0
161,708,0,0,0,0,0,0,0,0,0,-1,1385,316,0,0
168,708,0,0,0,0,0,0,0,0,0,-1,1392,316,0,0
175,708,0,0,0,0,0,0,0,0,0,-1,1399,316,0,0
182,708,0,0,0,0,0,0,0,0,0,-1,1406,316,0,0
189,708,0,0,0,0,0,0,0,0,0,-1,1413,316,0,0
196,708,0,0,0,0,0,0,0,0,0,-1,1420,316,0,0
203,708,0,0,0,0,0,0,0,0,0,-1,1427,316,0,0
210,708,0,0,0,0,0,0,0,0,0,-1,1434,316,0,0
217,708,0,0,0,0,0,0,0,0,0,-1,1441,316,0,0
224,708,0,0,0,0,0,0,0,0,0,-1,1448,316,0,0
231,708,0,0,0,0,0,0,0,0,0,-1,1455,316,0,0
238,708,0,0,0,0,0,0,0,0,0,-1,1462,316,0,0
245,708,0,0,0,0,0,0,0,0,0,-1,1469,316,0,0
252,708,0,0,0,0,0,0,0,0,0,-1,1476,316,0,0
259,708,0,0,0,0,0,0,0,0,0,-1,1483,316,0,0
266,708,0,0,0,0,0,0,0,0,0,-1,1490,316,0,0
273,708,0,0,0,0,0,0,0,0,0,-1,1497,316,0,0
280,708,0,0,0,0,0,0,0,0,0,-1,1504,316,0,0
287,708,0,0,0,0,0,0,0,0,0,-1,1511,316,0,0
294,708,0,0,0,0,0,0,0,0,0,-1,1518,316,0,0
301,708,0,0,0,0,0,0,0,0,0,-1,1525,316,0,0
308,708,0,0,0,0,0,0,0,0,0,-1,1532,316,0,0
315,708,0,0,0,0,0,0,0,0,0,-1,1539,316,0,0
322,708,0,0,0,0,0,0,0,0,0,-1,1546,316,0,0
329,708,0,0,0,0,0,0,0,0,0,-1,1553,316,0,0
336,708,0,0,0,0,0,0,0,0,0,-1,1560,316,0,0
343,708,0,0,0,0,0,0,0,0,0,-1,1567,316,0,0
350,708,0,0,0,0,0,0,0,0,0,-1,1574,316,0,0
357,708,0,0,0,0,0,0,0,0,0,-1,1581,316,0,0
364,708,0,0,0,0,0,0,0,0,0,-1,1588,316,0,0
371,708,0,0,0,0,0,0,0,0,0,-1,1595,316,0,0
378,708,0,0,0,0,0,0,0,0,0,-1,1602,316,0,0
385,708,0,0,0,0,0,0,0,0,0,-1,1609,316,0,0
392,708,0,0,0,0,0,0,0,0,0,-1,1616,316,0,0
399,708,0,0,0,0,0,0,0,0,0,-1,1623,316,0,0
406,708,0,0,0,0,0,0,0,0,0,-1,1630,316,0,0
413,708,0,0,0,0,0,0,0,0,0,-1,1637,316,0,0
420,708,0,0,0,0,0,0,0,0,0,-1,1644,316,0,0
427,708,0,0,0,0,0,0,0,0,0,-1,1651,316,0,0
434,708,0,0,0,0,0,0,0,0,0,-1,1658,316,0,0
441,708,0,0,0,0,0,0,0,0,0,-1,1665,316,0,0
448,708,0,0,0,0,0,0,0,0,0,-1,1672,316,0,0
455,708,0,0,0,0,0,0,0,0,0,-1,1679,316,0,0
462,708,0,0,0,0,0,0,0,0,0,-1,1686,316,0,0
469,708,0,0,0,0,0,0,0,0,0,-1,1693,316,0,0
476,708,0,0,0,0,0,0,0,0,0,-1,1700,316,0,0
483,708,0,0,0,0,0,0,0,0,0,-1,1707,316,0,0
490,708,0,0,0,0,0,0,0,0,0,-1,1714,316,0,0
497,708,0,0,0,0,0,0,0,0,0,-1,1721,316,0,0
504,708,0,0,0,0,0,0,0,0,0,-1,1728,316,0,0
511,708,0,0,0,0,0,0,0,0,0,-1,1735,316,0,0
518,708,0,0,0,0,0,0,0,0,0,-1,1742,316,0,0
525,708,0,0,0,0,0,0,0,0,0,-1,1749,316,0,0
532,708,0,0,0,0,0,0,0,0,0,-1,1756,316,0,0
539,708,0,0,0,0,0,0,0,0,0,-1,1763,316,0,0
546,708,0,0,0,0,0,0,0,0,0,-1,1770,316,0,0
553,708,0,0,0,0,0,0,0,0,0,-1,1777,316,0,0
560,708,0,0,0,0,0,0,0,0,0,-1,1784,316,0,0
567,708,0,0,0,0,0,0,0,0,0,-1,1791,316,0,0
574,708,0,0,0,0,0,0,0,0,0,-1,1798,316,0,0
581,708,0,0,0,0,0,0,0,0,0,-1,1805,316,0,0
588,708,0,0,0,0,0,0,0,0,0,-1,1812,316,0,0
595,708,0,0,0,0,0,0,0,0,0,-1,1819,316,0,0
602,708,0,0,0,0,0,0,0,0,0,-1,1826,316,0,0
609,708,0,0,0,0,0,0,0,0,0,-1,1833,316,0,0
616,708,0,0,0,0,0,0,0,0,0,-1,1840,316,0,0
623,708,0,0,0,0,0,0,0,0,0,-1,1847,316,0,0
630,708,0,0,0,0,0,0,0,0,0,-1,1854,316,0,0
637,708,0,0,0,0,0,0,0,0,0,-1,1861,316,0,0
644,708,0,0,0,0,0,0,0,0,0,-1,1868,316,0,0
651,708,0,0,0,0,0,0,0,0,0,-1,1875,316,0,0
658,708,0,0,0,0,0,0,0,0,0,-1,1882,316,0,0
665,708,0,0,0,0,0,0,0,0,0,-1,1889,316,0,0
672,708,0,0,0,0,0,0,0,0,0,-1,1896,316,0,0
679,708,0,0,0,0,0,0,0,0,0,-1,1903,316,0,0
686,708,0,0,0,0,0,0,0,0,0,-1,1910,316,0,0
693,708,0,0,0,0,0,0,0,0,0,-1,1917,316,0,0
700,708,0,0,0,0,0,0,0,0,0,-1,1924,316,0,0
707,708,0,0,0,0,0,0,0,0,0,-1,1931,316,0,0
714,708,0,0,0,0,0,0,0,0,0,-1,1938,316,0,0
721,708,0,0,0,0,0,0,0,0,0,-1,1945,316,0,0
728,708,0,0,0,0,0,0,0,0,0,-1,1952,316,0,0
735,708,0,0,0,0,0,0,0,0,0,-1,1959,316,0,0
742,708,0,0,0,0,0,0,0,0,0,-1,1966,316,0,0
749,708,0,0,0,0,0,0,0,0,0,-1,1973,316,0,0
756,708,0,0,0,0,0,0,0,0,0,-1,1980,316,0,0
763,708,0,0,0,0,0,0,0,0,0,-1,1987,316,0,0
770,708,0,0,0,0,0,0,0,0,0,-1,1994,316,0,0
777,708,0,0,0,0,0,0,0,0,0,-1,2001,316,0,0
784,708,0,0,0,0,0,0,0,0,0,-1,2008,316,0,0
791,708,0,0,0,0,0,0,0,0,0,-1,2015,316,0,0
798,708,0,0,0,0,0,0,0,0,0,-1,2022,316,0,0
805,708,0,0,0,0,0,0,0,0,0,-1,2029,316,0,0
812,708,0,0,0,0,0,0,0,0,0,-1,2036,316,0,0
-700,701,0,0,0,0,0,0,0,0,0,-1,524,323,0,0
-693,701,0,0,0,0,0,0,0,0,0,-1,531,323,0,0
-686,701,0,0,0,0,0,0,0,0,0,-1,538,323,0,0
-679,701,0,0,0,0,0,0,0,0,0,-1,545,323,0,0
-672,701,0,0,0,0,0,0,0,0,0,-1,552,323,0,0
-665,701,0,0,0,0,0,0,0,0,0,-1,559,323,0,0
-658,701,0,0,0,0,0,0,0,0,0,-1,566,323,0,0
-651,701,0,0,0,0,0,0,0,0,0,-1,573,323,0,0
-644,701,0,0,0,0,0,0,0,0,0,-1,580,323,0,0
-637,701,0,0,0,0,0,0,0,0,0,-1,587,323,0,0
-630,701,0,0,0,0,0,0,0,0,0,-1,594,323,0,0
-623,701,0,0,0,0,0,0,0,0,0,-1,601,323,0,0
-616,701,0,0,0,0,0,0,0,0,0,-1,608,323,0,0
-609,701,0,0,0,0,0,0,0,0,0,-1,615,323,0,0
-602,701,0,0,0,0,0,0,0,0,0,-1,622,323,0,0
-595,701,0,0,0,0,0,0,0,0,0,-1,629,323,0,0
-588,701,0,0,0,0,0,0,0,0,0,-1,636,323,0,0
-581,701,0,0,0,0,0,0,0,0,0,-1,643,323,0,0
-574,701,0,0,0,0,0,0,0,0,0,-1,650,323,0,0
-567,701,0,0,0,0,0,0,0,0,0,-1,657,323,0,0
-560,701,0,0,0,0,0,0,0,0,0,-1,664,323,0,0
-553,701,0,0,0,0,0,0,0,0,0,-1,671,323,0,0
-546,701,0,0,0,0,0,0,0,0,0,-1,678,323,0,0
-539,701,0,0,0,0,0,0,0,0,0,-1,685,323,0,0
-532,701,0,0,0,0,0,0,0,0,0,-1,692,323,0,0
-525,701,0,0,0,0,0,0,0,0,0,-1,699,323,0,0
-518,701,0,0,0,0,0,0,0,0,0,-1,706,323,0,0
-511,701,0,0,0,0,0,0,0,0,0,-1,713,323,0,0
-504,701,0,0,0,0,0,0,0,0,0,-1,720,323,0,0
-497,701,0,0,0,0,0,0,0,0,0,-1,727,323,0,0
-490,701,0,0,0,0,0,0,0,0,0,-1,734,323,0,0
-483,701,0,0,0,0,0,0,0,0,0,-1,741,323,0,0
-476,701,0,0,0,0,0,0,0,0,0,-1,748,323,0,0
-469,701,0,0,0,0,0,0,0,0,0,-1,755,323,0,0
-462,701,0,0,0,0,0,0,0,0,0,-1,762,323,0,0
-455,701,0,0,0,0,0,0,0,0,0,-1,769,323,0,0
-448,701,0,0,0,0,0,0,0,0,0,-1,776,323,0,0
-441,701,0,0,0,0,0,0,0,0,0,-1,783,323,0,0
-434,701,0,0,0,0,0,0,0,0,0,-1,790,323,0,0
-427,701,0,0,0,0,0,0,0,0,0,-1,797,323,0,0
-420,701,0,0,0,0,0,0,0,0,0,-1,804,323,0,0
-413,701,0,0,0,0,0,0,0,0,0,-1,811,323,0,0
-406,701,0,0,0,0,0,0,0,0,0,-1,818,323,0,0
-399,701,0,0,0,0,0,0,0,0,0,-1,825,323,0,0
-392,701,0,0,0,0,0,0,0,0,0,-1,832,323,0,0
-385,701,0,0,0,0,0,0,0,0,0,-1,839,323,0,0
-378,701,0,0,0,0,0,0,0,0,0,-1,846,323,0,0
-371,701,0,0,0,0,0,0,0,0,0,-1,853,323,0,0
-364,701,0,0,0,0,0,0,0,0,0,-1,860,323,0,0
-357,701,0,0,0,0,0,0,0,0,0,-1,867,323,0,0
-350,701,0,0,0,0,0,0,0,0,0,-1,874,323,0,0
-343,701,0,0,0,0,0,0,0,0,0,-1,881,323,0,0
-336,701,0,0,0,0,0,0,0,0,0,-1,888,323,0,0
-329,701,0,0,0,0,0,0,0,0,0,-1,895,323,0,0
-322,701,0,0,0,0,0,0,0,0,0,-1,902,323,0,0
-315,701,0,0,0,0,0,0,0,0,0,-1,909,323,0,0
-308,701,0,0,0,0,0,0,0,0,0,-1,916,323,0,0
-301,701,0,0,0,0,0,0,0,0,0,-1,923,323,0,0
-294,701,0,0,0,0,0,0,0,0,0,-1,930,323,0,0
-287,701,0,0,0,0,0,0,0,0,0,-1,937,323,0,0
-280,701,0,0,0,0,0,0,0,0,0,-1,944,323,0,0
-273,701,0,0,0,0,0,0,0,0,0,-1,951,323,0,0
-266,701,0,0,0,0,0,0,0,0,0,-1,958,323,0,0
-259,701,0,0,0,0,0,0,0,0,0,-1,965,323,0,0
-252,701,0,0,0,0,0,0,0,0,0,-1,972,323,0,0
-245,701,0,0,0,0,0,0,0,0,0,-1,979,323,0,0
-238,701,0,0,0,0,0,0,0,0,0,-1,986,323,0,0
-231,701,0,0,0,0,0,0,0,0,0,-1,993,323,0,0
-224,701,0,0,0,0,0,0,0,0,0,-1,1000,323,0,0
-217,701,0,0,0,0,0,0,0,0,0,-1,1007,323,0,0
-210,701,0,0,0,0,0,0,0,0,0,-1,1014,323,0,0
-203,701,0,0,0,0,0,0,0,0,0,-1,1021,323,0,0
-196,701,0,0,0,0,0,0,0,0,0,-1,1028,323,0,0
-189,701,0,0,0,0,0,0,0,0,0,-1,1035,323,0,0
-182,701,0,0,0,0,0,0,0,0,0,-1,1042,323,0,0
-175,701,0,0,0,0,0,0,0,0,0,-1,1049,323,0,0
-168,701,0,0,0,0,0,0,0,0,0,-1,1056,323,0,0
-161,701,0,0,0,0,0,0,0,0,0,-1,1063,323,0,0
-154,701,0,0,0,0,0,0,0,0,0,-1,1070,323,0,0
-147,701,0,0,0,0,0,0,0,0,0,-1,1077,323,0,0
-140,701,0,0,0,0,0,0,0,0,0,-1,1084,323,0,0
-133,701,0,0,0,0,0,0,0,0,0,-1,1091,323,0,0
-126,701,0,0,0,0,0,0,0,0,0,-1,1098,323,0,0
-119,701,0,0,0,0,0,0,0,0,0,-1,1105,323,0,0
-112,701,0,0,0,0,0,0,0,0,0,-1,1112,323,0,0
-105,701,0,0,0,0,0,0,0,0,0,-1,1119,323,0,0
-98,701,0,0,0,0,0,0,0,0,0,-1,1126,323,0,0
-91,701,0,0,0,0,0,0,0,0,0,-1,1133,323,0,0
-84,701,0,0,0,0,0,0,0,0,0,-1,1140,323,0,0
-77,701,0,0,0,0,0,0,0,0,0,-1,1147,323,0,0
-70,701,-2.36731,-1.49271,0,0,0,0,0,0,0,-1,1154,323,-2.36729,1.4927
-63,701,-2.479,-0.295959,0,0,0,0,0,0,0,-1,1161,323,-2.47895,0.295961
-56,701,-0.420166,-0.101776,0,0,0,0,0,0,0,-1,1168,323,-0.420119,0.101777
-49,701,-1.09021,-0.155762,0,0,0,0,0,0,0,-1,1175,323,-1.09024,0.155768
-42,701,-0.210327,-0.299133,0,0,0,0,0,0,0,-1,1182,323,-0.210379,0.29914
-35,701,-2.9635,-7.98676,0,0,0,0,0,0,0,-1,1189,323,-2.9635,7.98676
-28,701,-6.64417,-5.4917,0,0,0,0,0,0,0,-1,1196,323,-6.64411,5.4917
-21,701,3.47998,-4.31433,0,0,0,0,0,0,0,-1,1203,323,3.48,4.31434
-14,701,3.14038,-4.36411,0,0,0,0,0,0,0,-1,1210,323,3.14034,4.36412
-7,701,2.57349,-4.29123,-0.0394492,0.213643,-0.0583281,0.226439,-0.0522447,-1.35485,0.171055,0.0444281,1217,323,2.5735,4.29123
0,701,2.20471,-4.53662,0,0,0,0,0,0,0,-1,1224,323,2.20473,4.53661
7,701,2.00867,-5.18063,0,0,0,0,0,0,0,-1,1231,323,2.00868,5.18063
14,701,0.893555,-6.08704,0,0,0,0,0,0,0,-1,1238,323,0.893614,6.08702
21,701,0.233521,-6.43839,-0.0166883,0.126659,-0.073463,0.15762,-0.0476496,-1.17193,0.124052,0.0458811,1245,323,0.233557,6.43838
28,701,-0.0749512,-6.96771,-0.0108846,0.114273,-0.0734379,0.148179,-0.0447901,-1.13826,0.116619,0.0460157,1252,323,-0.0749092,6.96773
35,701,-0.0930176,-7.24307,-0.00446036,0.103774,-0.0716327,0.139434,-0.0401202,-1.1089,0.108823,0.0436186,1259,323,-0.0930752,7.24308
42,701,0.146484,-7.21948,0.00218755,0.0958561,-0.0672483,0.130972,-0.032928,-1.08956,0.100112,0.0440663,1266,323,0.146491,7.21947
49,701,-0.23584,-7.92184,0.00970323,0.0839845,-0.0619692,0.119091,-0.025403,-1.05537,0.0890771,0.0461885,1273,323,-0.235858,7.92185
56,701,0.0778809,-8.42102,0.0169619,0.0788079,-0.0532117,0.109429,-0.0136595,-1.04861,0.0779063,0.0453005,1280,323,0.0778563,8.42103
63,701,0.444702,-8.88077,0.0253176,0.0730705,-0.0445028,0.0996973,-0.00130924,-1.03161,0.0669056,0.0440228,1287,323,0.444665,8.88076
70,701,0.765747,-9.81122,0,0,0,0,0,0,0,-1,1294,323,0.765759,9.81123
77,701,1.13574,-9.6076,0.0411724,0.0684923,-0.0257477,0.0839791,0.0256855,-1.02928,0.0496888,0.0467771,1301,323,1.13571,9.60759
84,701,1.77368,-9.64493,0.0531499,0.0833891,-0.0297798,0.101668,0.0348713,-1.0203,0.0596547,0.0493338,1308,323,1.77367,9.64494
91,701,2.18677,-9.42896,0,0,0,0,0,0,0,-1,1315,323,2.18679,9.42894
98,701,0.54126,-8.49911,0.058526,0.0829176,-0.0275038,0.100808,0.0406354,-0.994083,0.0585649,0.043848,1322,323,0.541307,8.4991
105,701,0.800293,-8.24741,0.0590436,0.0826618,-0.027858,0.10111,0.0405951,-0.985869,0.0587525,0.0451469,1329,323,0.800269,8.24739
112,701,0.710205,-7.46182,0,0,0,0,0,0,0,-1,1336,323,0.710196,7.46182
119,701,1.49219,-7.96219,0.0546292,0.0925608,-0.0355003,0.113844,0.0333461,-1.03073,0.0675809,0.0460206,1343,323,1.49223,7.96218
126,701,1.77258,-7.71072,0.0474375,0.0932006,-0.0419953,0.118143,0.0224947,-1.03484,0.0724378,0.0496793,1350,323,1.77259,7.71073
133,701,1.67725,-7.42801,0.0368418,0.0900751,-0.0467493,0.117254,0.00966302,-1.04419,0.0751555,0.0473046,1357,323,1.67724,7.42801
140,701,3.73071,-11.7039,0.0219082,0.0806747,-0.0488259,0.108277,-0.005694,-1.05627,0.0741555,0.0450905,1364,323,3.73071,11.7039
147,701,2.94189,-11.393,0.00275896,0.064077,-0.0461434,0.0888183,-0.0219823,-1.07862,0.0677392,0.0455215,1371,323,2.94187,11.393
154,701,2.39844,-11.4058,-0.0201772,0.0420512,-0.0390213,0.0608444,-0.0389705,-1.12196,0.0580876,0.0490732,1378,323,2.39846,11.4058
161,701,1.71387,-11.3212,0,0,0,0,0,0,0,-1,1385,323,1.71381,11.3212
168,701,6.88513,-0.0237427,0,0,0,0,0,0,0,-1,1392,323,6.88517,0.0237498
175,701,6.94556,0.0693054,0,0,0,0,0,0,0,-1,1399,323,6.94555,-0.0692958
182,701,8.80652,5.42807,0,0,0,0,0,0,0,-1,1406,323,8.8065,-5.42808
189,701,8.58081,4.24493,0,0,0,0,0,0,0,-1,1413,323,8.58082,-4.24494
196,701,0,0,0,0,0,0,0,0,0,-1,1420,323,0,0
203,701,0,0,0,0,0,0,0,0,0,-1,1427,323,0,0
210,701,0,0,0,0,0,0,0,0,0,-1,1434,323,0,0
217,701,0,0,0,0,0,0,0,0,0,-1,1441,323,0,0
224,701,0,0,0,0,0,0,0,0,0,-1,1448,323,0,0
231,701,0,0,0,0,0,0,0,0,0,-1,1455,323,0,0
238,701,0,0,0,0,0,0,0,0,0,-1,1462,323,0,0
245,701,0,0,0,0,0,0,0,0,0,-1,1469,323,0,0
252,701,0,0,0,0,0,0,0,0,0,-1,1476,323,0,0
259,701,0,0,0,0,0,0,0,0,0,-1,1483,323,0,0
266,701,0,0,0,0,0,0,0,0,0,-1,1490,323,0,0
273,701,0,0,0,0,0,0,0,0,0,-1,1497,323,0,0
280,701,0,0,0,0,0,0,0,0,0,-1,1504,323,0,0
287,701,0,0,0,0,0,0,0,0,0,-1,1511,323,0,0
294,701,0,0,0,0,0,0,0,0,0,-1,1518,323,0,0
301,701,0,0,0,0,0,0,0,0,0,-1,1525,323,0,0
308,701,0,0,0,0,0,0,0,0,0,-1,1532,323,0,0
315,701,0,0,0,0,0,0,0,0,0,-1,1539,323,0,0
322,701,0,0,0,0,0,0,0,0,0,-1,1546,323,0,0
329,701,0,0,0,0,0,0,0,0,0,-1,1553,323,0,0
336,701,0,0,0,0,0,0,0,0,0,-1,1560,323,0,0
343,701,0,0,0,0,0,0,0,0,0,-1,1567,323,0,0
350,701,0,0,0,0,0,0,0,0,0,-1,1574,323,0,0
357,701,0,0,0,0,0,0,0,0,0,-1,1581,323,0,0
364,701,0,0,0,0,0,0,0,0,0,-1,1588,323,0,0
371,701,0,0,0,0,0,0,0,0,0,-1,1595,323,0,0
378,701,0,0,0,0,0,0,0,0,0,-1,1602,323,0,0
385,701,0,0,0,0,0,0,0,0,0,-1,1609,323,0,0
392,701,0,0,0,0,0,0,0,0,0,-1,1616,323,0,0
399,701,0,0,0,0,0,0,0,0,0,-1,1623,323,0,0
406,701,0,0,0,0,0,0,0,0,0,-1,1630,323,0,0
413,701,0,0,0,0,0,0,0,0,0,-1,1637,323,0,0
420,701,0,0,0,0,0,0,0,0,0,-1,1644,323,0,0
427,701,0,0,0,0,0,0,0,0,0,-1,1651,323,0,0
434,701,0,0,0,0,0,0,0,0,0,-1,1658,323,0,0
441,701,0,0,0,0,0,0,0,0,0,-1,1665,323,0,0
448,701,0,0,0,0,0,0,0,0,0,-1,1672,323,0,0
455,701,0,0,0,0,0,0,0,0,0,-1,1679,323,0,0
462,701,0,0,0,0,0,0,0,0,0,-1,1686,323,0,0
469,701,0,0,0,0,0,0,0,0,0,-1,1693,323,0,0
476,701,0,0,0,0,0,0,0,0,0,-1,1700,323,0,0
483,701,0,0,0,0,0,0,0,0,0,-1,1707,323,0,0
490,701,0,0,0,0,0,0,0,0,0,-1,1714,323,0,0
497,701,0,0,0,0,0,0,0,0,0,-1,1721,323,0,0
504,701,0,0,0,0,0,0,0,0,0,-1,1728,323,0,0
511,701,0,0,0,0,0,0,0,0,0,-1,1735,323,0,0
518,701,0,0,0,0,0,0,0,0,0,-1,1742,323,0,0
525,701,0,0,0,0,0,0,0,0,0,-1,1749,323,0,0
532,701,0,0,0,0,0,0,0,0,0,-1,1756,323,0,0
539,701,0,0,0,0,0,0,0,0,0,-1,1763,323,0,0
546,701,0,0,0,0,0,0,0,0,0,-1,1770,323,0,0
553,701,0,0,0,0,0,0,0,0,0,-1,1777,323,0,0
560,701,0,0,0,0,0,0,0,0,0,-1,1784,323,0,0
567,701,0,0,0,0,0,0,0,0,0,-1,1791,323,0,0
574,701,0,0,0,0,0,0,0,0,0,-1,1798,323,0,0
581,701,0,0,0,0,0,0,0,0,0,-1,1805,323,0,0
588,701,0,0,0,0,0,0,0,0,0,-1,1812,323,0,0
595,701,0,0,0,0,0,0,0,0,0,-1,1819,323,0,0
602,701,0,0,0,0,0,0,0,0,0,-1,1826,323,0,0
609,701,0,0,0,0,0,0,0,0,0,-1,1833,323,0,0
616,701,0,0,0,0,0,0,0,0,0,-1,1840,323,0,0
623,701,0,0,0,0,0,0,0,0,0,-1,1847,323,0,0
630,701,0,0,0,0,0,0,0,0,0,-1,1854,323,0,0
637,701,0,0,0,0,0,0,0,0,0,-1,1861,323,0,0
644,701,0,0,0,0,0,0,0,0,0,-1,1868,323,0,0
651,701,0,0,0,0,0,0,0,0,0,-1,1875,323,0,0
658,701,0,0,0,0,0,0,0,0,0,-1,1882,323,0,0
665,701,0,0,0,0,0,0,0,0,0,-1,1889,323,0,0
672,701,0,0,0,0,0,0,0,0,0,-1,1896,323,0,0
679,701,0,0,0,0,0,0,0,0,0,-1,1903,323,0,0
686,701,0,0,0,0,0,0,0,0,0,-1,1910,323,0,0
693,701,0,0,0,0,0,0,0,0,0,-1,1917,323,0,0
700,701,0,0,0,0,0,0,0,0,0,-1,1924,323,0,0
707,701,0,0,0,0,0,0,0,0,0,-1,1931,323,0,0
714,701,0,0,0,0,0,0,0,0,0,-1,1938,323,0,0
721,701,0,0,0,0,0,0,0,0,0,-1,1945,323,0,0
728,701,0,0,0,0,0,0,0,0,0,-1,1952,323,0,0
735,701,0,0,0,0,0,0,0,0,0,-1,1959,323,0,0
742,701,0,0,0,0,0,0,0,0,0,-1,1966,323,0,0
749,701,0,0,0,0,0,0,0,0,0,-1,1973,323,0,0
756,701,0,0,0,0,0,0,0,0,0,-1,1980,323,0,0
763,701,0,0,0,0,0,0,0,0,0,-1,1987,323,0,0
770,701,0,0,0,0,0,0,0,0,0,-1,1994,323,0,0
777,701,0,0,0,0,0,0,0,0,0,-1,2001,323,0,0
784,701,0,0,0,0,0,0,0,0,0,-1,2008,323,0,0
791,701,0,0,0,0,0,0,0,0,0,-1,2015,323,0,0
798,701,0,0,0,0,0,0,0,0,0,-1,2022,323,0,0
805,701,0,0,0,0,0,0,0,0,0,-1,2029,323,0,0
812,701,0,0,0,0,0,0,0,0,0,-1,2036,323,0,0
-700,694,0,0,0,0,0,0,0,0,0,-1,524,330,0,0
-693,694,0,0,0,0,0,0,0,0,0,-1,531,330,0,0
-686,694,0,0,0,0,0,0,0,0,0,-1,538,330,0,0
-679,694,0,0,0,0,0,0,0,0,0,-1,545,330,0,0
-672,694,0,0,0,0,0,0,0,0,0,-1,552,330,0,0
-665,694,0,0,0,0,0,0,0,0,0,-1,559,330,0,0
-658,694,0,0,0,0,0,0,0,0,0,-1,566,330,0,0
-651,694,0,0,0,0,0,0,0,0,0,-1,573,330,0,0
-644,694,0,0,0,0,0,0,0,0,0,-1,580,330,0,0
-637,694,0,0,0,0,0,0,0,0,0,-1,587,330,0,0
-630,694,0,0,0,0,0,0,0,0,0,-1,594,330,0,0
-623,694,0,0,0,0,0,0,0,0,0,-1,601,330,0,0
-616,694,0,0,0,0,0,0,0,0,0,-1,608,330,0,0
-609,694,0,0,0,0,0,0,0,0,0,-1,615,330,0,0
-602,694,0,0,0,0,0,0,0,0,0,-1,622,330,0,0
-595,694,0,0,0,0,0,0,0,0,0,-1,629,330,0,0
-588,694,0,0,0,0,0,0,0,0,0,-1,636,330,0,0
-581,694,0,0,0,0,0,0,0,0,0,-1,643,330,0,0
-574,694,0,0,0,0,0,0,0,0,0,-1,650,330,0,0
-567,694,0,0,0,0,0,0,0,0,0,-1,657,330,0,0
-560,694,0,0,0,0,0,0,0,0,0,-1,664,330,0,0
-553,694,0,0,0,0,0,0,0,0,0,-1,671,330,0,0
-546,694,0,0,0,0,0,0,0,0,0,-1,678,330,0,0
-539,694,0,0,0,0,0,0,0,0,0,-1,685,330,0,0
-532,694,0,0,0,0,0,0,0,0,0,-1,692,330,0,0
-525,694,0,0,0,0,0,0,0,0,0,-1,699,330,0,0
-518,694,0,0,0,0,0,0,0,0,0,-1,706,330,0,0
-511,694,0,0,0,0,0,0,0,0,0,-1,713,330,0,0
-504,694,0,0,0,0,0,0,0,0,0,-1,720,330,0,0
-497,694,0,0,0,0,0,0,0,0,0,-1,727,330,0,0
-490,694,0,0,0,0,0,0,0,0,0,-1,734,330,0,0
-483,694,0,0,0,0,0,0,0,0,0,-1,741,330,0,0
-476,694,0,0,0,0,0,0,0,0,0,-1,748,330,0,0
-469,694,0,0,0,0,0,0,0,0,0,-1,755,330,0,0
-462,694,0,0,0,0,0,0,0,0,0,-1,762,330,0,0
-455,694,0,0,0,0,0,0,0,0,0,-1,769,330,0,0
-448,694,0,0,0,0,0,0,0,0,0,-1,776,330,0,0
-441,694,0,0,0,0,0,0,0,0,0,-1,783,330,0,0
-434,694,0,0,0,0,0,0,0,0,0,-1,790,330,0,0
-427,694,0,0,0,0,0,0,0,0,0,-1,797,330,0,0
-420,694,0,0,0,0,0,0,0,0,0,-1,804,330,0,0
-413,694,0,0,0,0,0,0,0,0,0,-1,811,330,0,0
-406,694,0,0,0,0,0,0,0,0,0,-1,818,330,0,0
-399,694,0,0,0,0,0,0,0,0,0,-1,825,330,0,0
-392,694,0,0,0,0,0,0,0,0,0,-1,832,330,0,0
-385,694,0,0,0,0,0,0,0,0,0,-1,839,330,0,0
-378,694,0,0,0,0,0,0,0,0,0,-1,846,330,0,0
-371,694,0,0,0,0,0,0,0,0,0,-1,853,330,0,0
-364,694,0,0,0,0,0,0,0,0,0,-1,860,330,0,0
-357,694,0,0,0,0,0,0,0,0,0,-1,867,330,0,0
-350,694,0,0,0,0,0,0,0,0,0,-1,874,330,0,0
-343,694,0,0,0,0,0,0,0,0,0,-1,881,330,0,0
-336,694,0,0,0,0,0,0,0,0,0,-1,888,330,0,0
-329,694,0,0,0,0,0,0,0,0,0,-1,895,330,0,0
-322,694,0,0,0,0,0,0,0,0,0,-1,902,330,0,0
-315,694,0,0,0,0,0,0,0,0,0,-1,909,330,0,0
-308,694,0,0,0,0,0,0,0,0,0,-1,916,330,0,0
-301,694,0,0,0,0,0,0,0,0,0,-1,923,330,0,0
-294,694,0,0,0,0,0,0,0,0,0,-1,930,330,0,0
-287,694,0,0,0,0,0,0,0,0,0,-1,937,330,0,0
-280,694,0,0,0,0,0,0,0,0,0,-1,944,330,0,0
-273,694,0,0,0,0,0,0,0,0,0,-1,951,330,0,0
-266,694,0,0,0,0,0,0,0,0,0,-1,958,330,0,0
-259,694,0,0,0,0,0,0,0,0,0,-1,965,330,0,0
-252,694,0,0,0,0,0,0,0,0,0,-1,972,330,0,0
-245,694,0,0,0,0,0,0,0,0,0,-1,979,330,0,0
-238,694,0,0,0,0,0,0,0,0,0,-1,986,330,0,0
-231,694,0,0,0,0,0,0,0,0,0,-1,993,330,0,0
-224,694,0,0,0,0,0,0,0,0,0,-1,1000,330,0,0
-217,694,0,0,0,0,0,0,0,0,0,-1,1007,330,0,0
-210,694,0,0,0,0,0,0,0,0,0,-1,1014,330,0,0
-203,694,0,0,0,0,0,0,0,0,0,-1,1021,330,0,0
-196,694,0,0,0,0,0,0,0,0,0,-1,1028,330,0,0
-189,694,0,0,0,0,0,0,0,0,0,-1,1035,330,0,0
-182,694,0,0,0,0,0,0,0,0,0,-1,1042,330,0,0
-175,694,0,0,0,0,0,0,0,0,0,-1,1049,330,0,0
-168,694,0,0,0,0,0,0,0,0,0,-1,1056,330,0,0
-161,694,0,0,0,0,0,0,0,0,0,-1,1063,330,0,0
-154,694,0,0,0,0,0,0,0,0,0,-1,1070,330,0,0
-147,694,0,0,0,0,0,0,0,0,0,-1,1077,330,0,0
-140,694,0,0,0,0,0,0,0,0,0,-1,1084,330,0,0
-133,694,0,0,0,0,0,0,0,0,0,-1,1091,330,0,0
-126,694,0,0,0,0,0,0,0,0,0,-1,1098,330,0,0
-119,694,0,0,0,0,0,0,0,0,0,-1,1105,330,0,0
-112,694,0,0,0,0,0,0,0,0,0,-1,1112,330,0,0
-105,694,-1.35962,-7.57141,0,0,0,0,0,0,0,-1,1119,330,-1.3596,7.57142
-98,694,1.34875,-10.1051,0,0,0,0,0,0,0,-1,1126,330,1.34874,10.1051
-91,694,1.35474,-9.22229,0,0,0,0,0,0,0,-1,1133,330,1.35476,9.22229
-84,694,-4.39136,-4.62332,0,0,0,0,0,0,0,-1,1140,330,-4.3914,4.62331
-77,694,-3.93665,-2.81979,0,0,0,0,0,0,0,-1,1147,330,-3.93667,2.81979
-70,694,-3.48193,-1.01627,0,0,0,0,0,0,0,-1,1154,330,-3.48194,1.01627
-63,694,-5.80835,-4.75275,0,0,0,0,0,0,0,-1,1161,330,-5.80834,4.75274
-56,694,-6.50623,-0.649139,0,0,0,0,0,0,0,-1,1168,330,-6.5062,0.649126
-49,694,-1.11426,0.0341797,0,0,0,0,0,0,0,-1,1175,330,-1.11424,-0.0341846
-42,694,-0.346313,-0.709595,0,0,0,0,0,0,0,-1,1182,330,-0.346298,0.709581
-35,694,-0.459106,-1.24713,0,0,0,0,0,0,0,-1,1189,330,-0.459142,1.24714
-28,694,-6.48413,-3.95972,0,0,0,0,0,0,0,-1,1196,330,-6.48414,3.9597
-21,694,-5.01636,-4.28162,0,0,0,0,0,0,0,-1,1203,330,-5.01641,4.28162
-14,694,3.66418,-4.08008,0,0,0,0,0,0,0,-1,1210,330,3.66414,4.08007
-7,694,3.30115,-4.2431,0,0,0,0,0,0,0,-1,1217,330,3.30119,4.24309
0,694,2.73572,-4.58762,0,0,0,0,0,0,0,-1,1224,330,2.73569,4.58762
7,694,2.33032,-5.43347,0,0,0,0,0,0,0,-1,1231,330,2.33029,5.43347
14,694,1.61938,-6.37045,-0.0168029,0.127751,-0.0566256,0.147291,-0.0363433,-1.23851,0.112286,0.0458725,1238,330,1.61933,6.37047
21,694,1.19031,-6.79373,-0.0133915,0.114516,-0.0583076,0.137106,-0.0359817,-1.20117,0.105464,0.0493584,1245,330,1.19032,6.79373
28,694,0.928833,-7.20056,-0.00911366,0.103256,-0.0584216,0.128126,-0.0339832,-1.16834,0.0987145,0.046242,1252,330,0.928811,7.20056
35,694,0.724976,-7.75897,-0.00436919,0.0935796,-0.0571431,0.119864,-0.0306532,-1.13968,0.0918479,0.0435937,1259,330,0.725025,7.75898
42,694,0.766602,-8.08701,0.00063225,0.0863123,-0.0536331,0.112115,-0.0251701,-1.12239,0.0843937,0.0457839,1266,330,0.766614,8.08702
49,694,0.502197,-8.40189,0.00643858,0.073898,-0.0497984,0.100315,-0.019978,-1.08307,0.0744348,0.0470873,1273,330,0.502136,8.40188
56,694,0.409546,-8.69193,0.0120647,0.0691554,-0.0428222,0.0920744,-0.0108543,-1.07938,0.0653024,0.0438703,1280,330,0.409581,8.69194
63,694,0.810059,-9.24493,0.018494,0.0638388,-0.0358501,0.0835841,-0.0012514,-1.06736,0.0561445,0.0412381,1287,330,0.810053,9.24493
70,694,1.10144,-9.85364,0,0,0,0,0,0,0,-1,1294,330,1.10142,9.85364
77,694,1.45618,-9.67319,0.0320473,0.0578506,-0.0206028,0.069258,0.02064,-1.06513,0.0410593,0.0466906,1301,330,1.4562,9.67318
84,694,1.82581,-9.51697,0.0420875,0.0684694,-0.0237508,0.0824465,0.0281104,-1.03888,0.0483966,0.0475102,1308,330,1.8258,9.51697
91,694,2.29163,-9.40793,0.0471305,0.0681242,-0.0234371,0.0833077,0.031947,-0.99594,0.0485311,0.0468311,1315,330,2.29164,9.40794
98,694,0.688965,-8.89185,0,0,0,0,0,0,0,-1,1322,330,0.688935,8.89185
105,694,0.816528,-8.48856,0.0478956,0.067075,-0.0227799,0.0822014,0.0327692,-0.984625,0.0477829,0.0453761,1329,330,0.816566,8.48856
112,694,0.987549,-7.99768,0,0,0,0,0,0,0,-1,1336,330,0.987588,7.99768
119,694,1.53589,-10.0124,0,0,0,0,0,0,0,-1,1343,330,1.53587,10.0124
126,694,1.86938,-8.49228,0.0390811,0.0749043,-0.0342548,0.0956478,0.0183377,-1.0263,0.0586167,0.0481525,1350,330,1.86943,8.49227
133,694,5.16626,-10.8506,0.0308149,0.0725201,-0.0380094,0.0950212,0.00831373,-1.03629,0.0607661,0.0455497,1357,330,5.16632,10.8506
140,694,3.8866,-11.148,0.0193748,0.06565,-0.0396692,0.0884362,-0.00341145,-1.04941,0.0601269,0.0464517,1364,330,3.88664,11.148
147,694,2.81396,-11.1743,0.00522717,0.0538193,-0.0382816,0.0748639,-0.0158175,-1.06816,0.0559323,0.0465018,1371,330,2.81391,11.1743
154,694,2.09924,-10.9047,-0.0106633,0.0393707,-0.0338793,0.0564685,-0.0277612,-1.10342,0.0495625,0.0481614,1378,330,2.09929,10.9047
161,694,1.6925,-10.4743,0,0,0,0,0,0,0,-1,1385,330,1.69248,10.4743
168,694,6.77161,1.01288,0,0,0,0,0,0,0,-1,1392,330,6.77156,-1.01287
175,694,6.72839,0.473175,0,0,0,0,0,0,0,-1,1399,330,6.72838,-0.473182
182,694,8.29028,5.75238,0,0,0,0,0,0,0,-1,1406,330,8.29034,-5.75237
189,694,7.9801,4.46118,0,0,0,0,0,0,0,-1,1413,330,7.9801,-4.46118
196,694,7.39331,3.32632,0,0,0,0,0,0,0,-1,1420,330,7.39329,-3.32633
203,694,7.04492,2.20529,0,0,0,0,0,0,0,-1,1427,330,7.04496,-2.20529
210,694,6.44714,0.646912,0,0,0,0,0,0,0,-1,1434,330,6.44717,-0.646903
217,694,7.12061,-0.644958,0,0,0,0,0,0,0,-1,1441,330,7.12059,0.644961
224,694,6.74011,-1.70544,0,0,0,0,0,0,0,-1,1448,330,6.74013,1.70546
231,694,0,0,0,0,0,0,0,0,0,-1,1455,330,0,0
238,694,0,0,0,0,0,0,0,0,0,-1,1462,330,0,0
245,694,0,0,0,0,0,0,0,0,0,-1,1469,330,0,0
252,694,0,0,0,0,0,0,0,0,0,-1,1476,330,0,0
259,694,0,0,0,0,0,0,0,0,0,-1,1483,330,0,0
266,694,0,0,0,0,0,0,0,0,0,-1,1490,330,0,0
273,694,0,0,0,0,0,0,0,0,0,-1,1497,330,0,0
280,694,0,0,0,0,0,0,0,0,0,-1,1504,330,0,0
287,694,0,0,0,0,0,0,0,0,0,-1,1511,330,0,0
294,694,0,0,0,0,0,0,0,0,0,-1,1518,330,0,0
301,694,0,0,0,0,0,0,0,0,0,-1,1525,330,0,0
308,694,0,0,0,0,0,0,0,0,0,-1,1532,330,0,0
315,694,0,0,0,0,0,0,0,0,0,-1,1539,330,0,0
322,694,0,0,0,0,0,0,0,0,0,-1,1546,330,0,0
329,694,0,0,0,0,0,0,0,0,0,-1,1553,330,0,0
336,694,0,0,0,0,0,0,0,0,0,-1,1560,330,0,0
343,694,0,0,0,0,0,0,0,0,0,-1,1567,330,0,0
350,694,0,0,0,0,0,0,0,0,0,-1,1574,330,0,0
357,694,0,0,0,0,0,0,0,0,0,-1,1581,330,0,0
364,694,0,0,0,0,0,0,0,0,0,-1,1588,330,0,0
371,694,0,0,0,0,0,0,0,0,0,-1,1595,330,0,0
378,694,0,0,0,0,0,0,0,0,0,-1,1602,330,0,0
385,694,0,0,0,0,0,0,0,0,0,-1,1609,330,0,0
392,694,0,0,0,0,0,0,0,0,0,-1,1616,330,0,0
399,694,0,0,0,0,0,0,0,0,0,-1,1623,330,0,0
406,694,0,0,0,0,0,0,0,0,0,-1,1630,330,0,0
413,694,0,0,0,0,0,0,0,0,0,-1,1637,330,0,0
420,694,0,0,0,0,0,0,0,0,0,-1,1644,330,0,0
427,694,0,0,0,0,0,0,0,0,0,-1,1651,330,0,0
434,694,0,0,0,0,0,0,0,0,0,-1,1658,330,0,0
441,694,0,0,0,0,0,0,0,0,0,-1,1665,330,0,0
448,694,0,0,0,0,0,0,0,0,0,-1,1672,330,0,0
455,694,0,0,0,0,0,0,0,0,0,-1,1679,330,0,0
462,694,0,0,0,0,0,0,0,0,0,-1,1686,330,0,0
469,694,0,0,0,0,0,0,0,0,0,-1,1693,330,0,0
476,694,0,0,0,0,0,0,0,0,0,-1,1700,330,0,0
483,694,0,0,0,0,0,0,0,0,0,-1,1707,330,0,0
490,694,0,0,0,0,0,0,0,0,0,-1,1714,330,0,0
497,694,0,0,0,0,0,0,0,0,0,-1,1721,330,0,0
504,694,0,0,0,0,0,0,0,0,0,-1,1728,330,0,0
511,694,0,0,0,0,0,0,0,0,0,-1,1735,330,0,0
518,694,0,0,0,0,0,0,0,0,0,-1,1742,330,0,0
525,694,0,0,0,0,0,0,0,0,0,-1,1749,330,0,0
532,694,0,0,0,0,0,0,0,0,0,-1,1756,330,0,0
539,694,0,0,0,0,0,0,0,0,0,-1,1763,330,0,0
546,694,0,0,0,0,0,0,0,0,0,-1,1770,330,0,0
553,694,0,0,0,0,0,0,0,0,0,-1,1777,330,0,0
560,694,0,0,0,0,0,0,0,0,0,-1,1784,330,0,0
567,694,0,0,0,0,0,0,0,0,0,-1,1791,330,0,0
574,694,0,0,0,0,0,0,0,0,0,-1,1798,330,0,0
581,694,0,0,0,0,0,0,0,0,0,-1,1805,330,0,0
588,694,0,0,0,0,0,0,0,0,0,-1,1812,330,0,0
595,694,0,0,0,0,0,0,0,0,0,-1,1819,330,0,0
602,694,0,0,0,0,0,0,0,0,0,-1,1826,330,0,0
609,694,0,0,0,0,0,0,0,0,0,-1,1833,330,0,0
616,694,0,0,0,0,0,0,0,0,0,-1,1840,330,0,0
623,694,0,0,0,0,0,0,0,0,0,-1,1847,330,0,0
630,694,0,0,0,0,0,0,0,0,0,-1,1854,330,0,0
637,694,0,0,0,0,0,0,0,0,0,-1,1861,330,0,0
644,694,0,0,0,0,0,0,0,0,0,-1,1868,330,0,0
651,694,0,0,0,0,0,0,0,0,0,-1,1875,330,0,0
658,694,0,0,0,0,0,0,0,0,0,-1,1882,330,0,0
665,694,0,0,0,0,0,0,0,0,0,-1,1889,330,0,0
672,694,0,0,0,0,0,0,0,0,0,-1,1896,330,0,0
679,694,0,0,0,0,0,0,0,0,0,-1,1903,330,0,0
686,694,0,0,0,0,0,0,0,0,0,-1,1910,330,0,0
693,694,0,0,0,0,0,0,0,0,0,-1,1917,330,0,0
700,694,0,0,0,0,0,0,0,0,0,-1,1924,330,0,0
707,694,0,0,0,0,0,0,0,0,0,-1,1931,330,0,0
714,694,0,0,0,0,0,0,0,0,0,-1,1938,330,0,0
721,694,0,0,0,0,0,0,0,0,0,-1,1945,330,0,0
728,694,0,0,0,0,0,0,0,0,0,-1,1952,330,0,0
735,694,0,0,0,0,0,0,0,0,0,-1,1959,330,0,0
742,694,0,0,0,0,0,0,0,0,0,-1,1966,330,0,0
749,694,0,0,0,0,0,0,0,0,0,-1,1973,330,0,0
756,694,0,0,0,0,0,0,0,0,0,-1,1980,330,0,0
763,694,0,0,0,0,0,0,0,0,0,-1,1987,330,0,0
770,694,0,0,0,0,0,0,0,0,0,-1,1994,330,0,0
777,694,0,0,0,0,0,0,0,0,0,-1,2001,330,0,0
784,694,0,0,0,0,0,0,0,0,0,-1,2008,330,0,0
791,694,0,0,0,0,0,0,0,0,0,-1,2015,330,0,0
798,694,0,0,0,0,0,0,0,0,0,-1,2022,330,0,0
805,694,0,0,0,0,0,0,0,0,0,-1,2029,330,0,0
812,694,0,0,0,0,0,0,0,0,0,-1,2036,330,0,0
-700,687,0,0,0,0,0,0,0,0,0,-1,524,337,0,0
-693,687,0,0,0,0,0,0,0,0,0,-1,531,337,0,0
-686,687,0,0,0,0,0,0,0,0,0,-1,538,337,0,0
-679,687,0,0,0,0,0,0,0,0,0,-1,545,337,0,0
-672,687,0,0,0,0,0,0,0,0,0,-1,552,337,0,0
-665,687,0,0,0,0,0,0,0,0,0,-1,559,337,0,0
-658,687,0,0,0,0,0,0,0,0,0,-1,566,337,0,0
-651,687,0,0,0,0,0,0,0,0,0,-1,573,337,0,0
-644,687,0,0,0,0,0,0,0,0,0,-1,580,337,0,0
-637,687,0,0,0,0,0,0,0,0,0,-1,587,337,0,0
-630,687,0,0,0,0,0,0,0,0,0,-1,594,337,0,0
-623,687,0,0,0,0,0,0,0,0,0,-1,601,337,0,0
-616,687,0,0,0,0,0,0,0,0,0,-1,608,337,0,0
-609,687,0,0,0,0,0,0,0,0,0,-1,615,337,0,0
-602,687,0,0,0,0,0,0,0,0,0,-1,622,337,0,0
-595,687,0,0,0,0,0,0,0,0,0,-1,629,337,0,0
-588,687,0,0,0,0,0,0,0,0,0,-1,636,337,0,0
-581,687,0,0,0,0,0,0,0,0,0,-1,643,337,0,0
-574,687,0,0,0,0,0,0,0,0,0,-1,650,337,0,0
-567,687,0,0,0,0,0,0,0,0,0,-1,657,337,0,0
-560,687,0,0,0,0,0,0,0,0,0,-1,664,337,0,0
-553,687,0,0,0,0,0,0,0,0,0,-1,671,337,0,0
-546,687,0,0,0,0,0,0,0,0,0,-1,678,337,0,0
-539,687,0,0,0,0,0,0,0,0,0,-1,685,337,0,0
-532,687,0,0,0,0,0,0,0,0,0,-1,692,337,0,0
-525,687,0,0,0,0,0,0,0,0,0,-1,699,337,0,0
-518,687,0,0,0,0,0,0,0,0,0,-1,706,337,0,0
-511,687,0,0,0,0,0,0,0,0,0,-1,713,337,0,0
-504,687,0,0,0,0,0,0,0,0,0,-1,720,337,0,0
-497,687,0,0,0,0,0,0,0,0,0,-1,727,337,0,0
-490,687,0,0,0,0,0,0,0,0,0,-1,734,337,0,0
-483,687,0,0,0,0,0,0,0,0,0,-1,741,337,0,0
-476,687,0,0,0,0,0,0,0,0,0,-1,748,337,0,0
-469,687,0,0,0,0,0,0,0,0,0,-1,755,337,0,0
-462,687,0,0,0,0,0,0,0,0,0,-1,762,337,0,0
-455,687,0,0,0,0,0,0,0,0,0,-1,769,337,0,0
-448,687,0,0,0,0,0,0,0,0,0,-1,776,337,0,0
-441,687,0,0,0,0,0,0,0,0,0,-1,783,337,0,0
-434,687,0,0,0,0,0,0,0,0,0,-1,790,337,0,0
-427,687,0,0,0,0,0,0,0,0,0,-1,797,337,0,0
-420,687,0,0,0,0,0,0,0,0,0,-1,804,337,0,0
-413,687,0,0,0,0,0,0,0,0,0,-1,811,337,0,0
-406,687,0,0,0,0,0,0,0,0,0,-1,818,337,0,0
-399,687,0,0,0,0,0,0,0,0,0,-1,825,337,0,0
-392,687,0,0,0,0,0,0,0,0,0,-1,832,337,0,0
-385,687,0,0,0,0,0,0,0,0,0,-1,839,337,0,0
-378,687,0,0,0,0,0,0,0,0,0,-1,846,337,0,0
-371,687,0,0,0,0,0,0,0,0,0,-1,853,337,0,0
-364,687,0,0,0,0,0,0,0,0,0,-1,860,337,0,0
-357,687,0,0,0,0,0,0,0,0,0,-1,867,337,0,0
-350,687,0,0,0,0,0,0,0,0,0,-1,874,337,0,0
-343,687,0,0,0,0,0,0,0,0,0,-1,881,337,0,0
-336,687,0,0,0,0,0,0,0,0,0,-1,888,337,0,0
-329,687,0,0,0,0,0,0,0,0,0,-1,895,337,0,0
-322,687,0,0,0,0,0,0,0,0,0,-1,902,337,0,0
-315,687,0,0,0,0,0,0,0,0,0,-1,909,337,0,0
-308,687,0,0,0,0,0,0,0,0,0,-1,916,337,0,0
-301,687,0,0,0,0,0,0,0,0,0,-1,923,337,0,0
-294,687,0,0,0,0,0,0,0,0,0,-1,930,337,0,0
-287,687,0,0,0,0,0,0,0,0,0,-1,937,337,0,0
-280,687,0,0,0,0,0,0,0,0,0,-1,944,337,0,0
-273,687,0,0,0,0,0,0,0,0,0,-1,951,337,0,0
-266,687,0,0,0,0,0,0,0,0,0,-1,958,337,0,0
-259,687,0,0,0,0,0,0,0,0,0,-1,965,337,0,0
-252,687,0,0,0,0,0,0,0,0,0,-1,972,337,0,0
-245,687,0,0,0,0,0,0,0,0,0,-1,979,337,0,0
-238,687,0,0,0,0,0,0,0,0,0,-1,986,337,0,0
-231,687,0,0,0,0,0,0,0,0,0,-1,993,337,0,0
-224,687,0,0,0,0,0,0,0,0,0,-1,1000,337,0,0
-217,687,0,0,0,0,0,0,0,0,0,-1,1007,337,0,0
-210,687,0,0,0,0,0,0,0,0,0,-1,1014,337,0,0
-203,687,0,0,0,0,0,0,0,0,0,-1,1021,337,0,0
-196,687,0,0,0,0,0,0,0,0,0,-1,1028,337,0,0
-189,687,0,0,0,0,0,0,0,0,0,-1,1035,337,0,0
-182,687,0,0,0,0,0,0,0,0,0,-1,1042,337,0,0
-175,687,0,0,0,0,0,0,0,0,0,-1,1049,337,0,0
-168,687,0,0,0,0,0,0,0,0,0,-1,1056,337,0,0
-161,687,0,0,0,0,0,0,0,0,0,-1,1063,337,0,0
-154,687,0,0,0,0,0,0,0,0,0,-1,1070,337,0,0
-147,687,0,0,0,0,0,0,0,0,0,-1,1077,337,0,0
-140,687,0,0,0,0,0,0,0,0,0,-1,1084,337,0,0
-133,687,1.63049,-10.3847,0,0,0,0,0,0,0,-1,1091,337,1.63044,10.3847
-126,687,0.941284,-10.8708,0,0,0,0,0,0,0,-1,1098,337,0.941263,10.8708
-119,687,0.577881,-11.4252,0,0,0,0,0,0,0,-1,1105,337,0.57784,11.4252
-112,687,0.14917,-11.9645,0,0,0,0,0,0,0,-1,1112,337,0.149153,11.9645
-105,687,-0.227173,-12.5151,0,0,0,0,0,0,0,-1,1119,337,-0.227166,12.5151
-98,687,-1.97437,-6.83603,0,0,0,0,0,0,0,-1,1126,337,-1.97434,6.83603
-91,687,2.28162,-7.72437,0,0,0,0,0,0,0,-1,1133,337,2.28167,7.72437
-84,687,-1.72876,-5.14783,0,0,0,0,0,0,0,-1,1140,337,-1.7288,5.14782
-77,687,-1.29443,-3.39886,0,0,0,0,0,0,0,-1,1147,337,-1.29447,3.39887
-70,687,-4.80481,-12.8398,0,0,0,0,0,0,0,-1,1154,337,-4.8048,12.8398
-63,687,-6.23987,-9.08102,0,0,0,0,0,0,0,-1,1161,337,-6.23981,9.08103
-56,687,-7.86511,-5.93417,0,0,0,0,0,0,0,-1,1168,337,-7.86511,5.93419
-49,687,-7.44934,-0.550262,0,0,0,0,0,0,0,-1,1175,337,-7.44938,0.550261
-42,687,-4.2019,-0.405609,0,0,0,0,0,0,0,-1,1182,337,-4.20192,0.405614
-35,687,-4.42273,-0.688171,0,0,0,0,0,0,0,-1,1189,337,-4.42276,0.688178
-28,687,-1.14038,-1.39072,0,0,0,0,0,0,0,-1,1196,337,-1.14035,1.3907
-21,687,1.70532,-9.20108,0,0,0,0,0,0,0,-1,1203,337,1.70537,9.20109
-14,687,1.56458,-10.4593,0,0,0,0,0,0,0,-1,1210,337,1.56459,10.4593
-7,687,3.97229,-4.29111,-0.0202084,0.153555,-0.0339699,0.15996,-0.0266133,-1.38444,0.116529,0.0467365,1217,337,3.97223,4.29111
0,687,3.58179,-4.60251,0,0,0,0,0,0,0,-1,1224,337,3.58183,4.60252
7,687,1.93835,-5.97839,0,0,0,0,0,0,0,-1,1231,337,1.93839,5.97839
14,687,2.32239,-6.31516,-0.0127814,0.109363,-0.0433993,0.123213,-0.0266312,-1.26189,0.0923086,0.0432211,1238,337,2.32245,6.31514
21,687,2.46765,-7.9816,-0.0104967,0.0985916,-0.0449455,0.114724,-0.026629,-1.22619,0.0867325,0.0476234,1245,337,2.46767,7.98161
28,687,2.46667,-8.50549,-0.00741515,0.0890412,-0.0451727,0.106893,-0.0252667,-1.19445,0.0810084,0.0469821,1252,337,2.46665,8.5055
35,687,1.50928,-8.59161,-0.00400163,0.0807229,-0.0443426,0.0996862,-0.022965,-1.16668,0.0752892,0.0470416,1259,337,1.50929,8.59162
42,687,1.19238,-8.62491,-0.000318379,0.0744663,-0.0416442,0.0930421,-0.0188941,-1.15123,0.0691914,0.0447223,1266,337,1.19237,8.6249
49,687,0.796143,-8.83713,0.00404818,0.0627653,-0.0389545,0.0821856,-0.0153722,-1.10832,0.0605682,0.0470908,1273,337,0.796189,8.83712
56,687,0.824219,-9.15982,0.00826086,0.0586581,-0.033615,0.0754707,-0.00855166,-1.10703,0.0533931,0.0450923,1280,337,0.824164,9.15981
63,687,1.12463,-9.63773,0.0130648,0.0539894,-0.0282445,0.0684048,-0.0013506,-1.09888,0.04606,0.0409197,1287,337,1.12459,9.63771
70,687,1.3573,-9.89679,0.0168041,0.0502573,-0.0218018,0.0610097,0.00605166,-1.11261,0.0388135,0.0386697,1294,337,1.3573,9.89679
77,687,1.69556,-9.73279,0.0240865,0.0476503,-0.0162503,0.0559404,0.0157964,-1.09906,0.0333013,0.0431278,1301,337,1.6955,9.73279
84,687,1.88953,-9.71313,0,0,0,0,0,0,0,-1,1308,337,1.88948,9.71314
91,687,0.854858,-9.81522,0.0365416,0.0541519,-0.0182784,0.0656354,0.0250581,-1.00986,0.0382461,0.0498873,1315,337,0.854874,9.81521
98,687,0.974854,-9.35284,0.0371555,0.0534403,-0.0173845,0.0644947,0.0261011,-1.00441,0.0374608,0.0472433,1322,337,0.974894,9.35286
105,687,1.09924,-8.91827,0.0375227,0.0527502,-0.0179063,0.0645942,0.0256788,-0.986418,0.0375536,0.0461206,1329,337,1.09927,8.91827
112,687,1.25317,-8.47235,0,0,0,0,0,0,0,-1,1336,337,1.25316,8.47236
119,687,1.57971,-10.0319,0,0,0,0,0,0,0,-1,1343,337,1.57975,10.0319
126,687,1.65466,-9.98215,0,0,0,0,0,0,0,-1,1350,337,1.6547,9.98213
133,687,2.13989,-10.2384,0,0,0,0,0,0,0,-1,1357,337,2.13986,10.2384
140,687,3.75208,-10.7667,0,0,0,0,0,0,0,-1,1364,337,3.75209,10.7667
147,687,2.81067,-10.7908,0,0,0,0,0,0,0,-1,1371,337,2.81065,10.7908
154,687,1.86926,-10.8149,0,0,0,0,0,0,0,-1,1378,337,1.8692,10.8149
161,687,6.5564,1.68158,0,0,0,0,0,0,0,-1,1385,337,6.55636,-1.68157
168,687,6.66968,1.37039,0,0,0,0,0,0,0,-1,1392,337,6.6697,-1.37039
175,687,6.64075,0.771606,0,0,0,0,0,0,0,-1,1399,337,6.64073,-0.771595
182,687,6.67249,0.289917,0,0,0,0,0,0,0,-1,1406,337,6.67247,-0.289916
189,687,7.76062,4.53635,0,0,0,0,0,0,0,-1,1413,337,7.76064,-4.53636
196,687,6.99048,3.2966,0,0,0,0,0,0,0,-1,1420,337,6.99046,-3.2966
203,687,6.36499,2.1445,0,0,0,0,0,0,0,-1,1427,337,6.36499,-2.14451
210,687,6.68066,0.674652,0,0,0,0,0,0,0,-1,1434,337,6.68062,-0.674655
217,687,5.99683,-0.630493,0,0,0,0,0,0,0,-1,1441,337,5.99684,0.630497
224,687,5.52917,0.524902,0,0,0,0,0,0,0,-1,1448,337,5.5292,-0.524915
231,687,5.85583,-1.73651,0,0,0,0,0,0,0,-1,1455,337,5.85577,1.73651
238,687,5.96582,-2.96774,0,0,0,0,0,0,0,-1,1462,337,5.96577,2.96773
245,687,1.28259,2.32211,0,0,0,0,0,0,0,-1,1469,337,1.28258,-2.32211
252,687,1.97278,3.88422,0,0,0,0,0,0,0,-1,1476,337,1.97281,-3.88421
259,687,0,0,0,0,0,0,0,0,0,-1,1483,337,0,0
266,687,0,0,0,0,0,0,0,0,0,-1,1490,337,0,0
273,687,0,0,0,0,0,0,0,0,0,-1,1497,337,0,0
280,687,0,0,0,0,0,0,0,0,0,-1,1504,337,0,0
287,687,0,0,0,0,0,0,0,0,0,-1,1511,337,0,0
294,687,0,0,0,0,0,0,0,0,0,-1,1518,337,0,0
301,687,0,0,0,0,0,0,0,0,0,-1,1525,337,0,0
308,687,0,0,0,0,0,0,0,0,0,-1,1532,337,0,0
315,687,0,0,0,0,0,0,0,0,0,-1,1539,337,0,0
322,687,0,0,0,0,0,0,0,0,0,-1,1546,337,0,0
329,687,0,0,0,0,0,0,0,0,0,-1,1553,337,0,0
336,687,0,0,0,0,0,0,0,0,0,-1,1560,337,0,0
343,687,0,0,0,0,0,0,0,0,0,-1,1567,337,0,0
350,687,0,0,0,0,0,0,0,0,0,-1,1574,337,0,0
357,687,0,0,0,0,0,0,0,0,0,-1,1581,337,0,0
364,687,0,0,0,0,0,0,0,0,0,-1,1588,337,0,0
371,687,0,0,0,0,0,0,0,0,0,-1,1595,337,0,0
378,687,0,0,0,0,0,0,0,0,0,-1,1602,337,0,0
385,687,0,0,0,0,0,0,0,0,0,-1,1609,337,0,0
392,687,0,0,0,0,0,0,0,0,0,-1,1616,337,0,0
399,687,0,0,0,0,0,0,0,0,0,-1,1623,337,0,0
406,687,0,0,0,0,0,0,0,0,0,-1,1630,337,0,0
413,687,0,0,0,0,0,0,0,0,0,-1,1637,337,0,0
420,687,0,0,0,0,0,0,0,0,0,-1,1644,337,0,0
427,687,0,0,0,0,0,0,0,0,0,-1,1651,337,0,0
434,687,0,0,0,0,0,0,0,0,0,-1,1658,337,0,0
441,687,0,0,0,0,0,0,0,0,0,-1,1665,337,0,0
448,687,0,0,0,0,0,0,0,0,0,-1,1672,337,0,0
455,687,0,0,0,0,0,0,0,0,0,-1,1679,337,0,0
462,687,0,0,0,0,0,0,0,0,0,-1,1686,337,0,0
469,687,0,0,0,0,0,0,0,0,0,-1,1693,337,0,0
476,687,0,0,0,0,0,0,0,0,0,-1,1700,337,0,0
483,687,0,0,0,0,0,0,0,0,0,-1,1707,337,0,0
490,687,0,0,0,0,0,0,0,0,0,-1,1714,337,0,0
497,687,0,0,0,0,0,0,0,0,0,-1,1721,337,0,0
504,687,0,0,0,0,0,0,0,0,0,-1,1728,337,0,0
511,687,0,0,0,0,0,0,0,0,0,-1,1735,337,0,0
518,687,0,0,0,0,0,0,0,0,0,-1,1742,337,0,0
525,687,0,0,0,0,0,0,0,0,0,-1,1749,337,0,0
532,687,0,0,0,0,0,0,0,0,0,-1,1756,337,0,0
539,687,0,0,0,0,0,0,0,0,0,-1,1763,337,0,0
546,687,0,0,0,0,0,0,0,0,0,-1,1770,337,0,0
553,687,0,0,0,0,0,0,0,0,0,-1,1777,337,0,0
560,687,0,0,0,0,0,0,0,0,0,-1,1784,337,0,0
567,687,0,0,0,0,0,0,0,0,0,-1,1791,337,0,0
574,687,0,0,0,0,0,0,0,0,0,-1,1798,337,0,0
581,687,0,0,0,0,0,0,0,0,0,-1,1805,337,0,0
588,687,0,0,0,0,0,0,0,0,0,-1,1812,337,0,0
595,687,0,0,0,0,0,0,0,0,0,-1,1819,337,0,0
602,687,0,0,0,0,0,0,0,0,0,-1,1826,337,0,0
609,687,0,0,0,0,0,0,0,0,0,-1,1833,337,0,0
616,687,0,0,0,0,0,0,0,0,0,-1,1840,337,0,0
623,687,0,0,0,0,0,0,0,0,0,-1,1847,337,0,0
630,687,0,0,0,0,0,0,0,0,0,-1,1854,337,0,0
637,687,0,0,0,0,0,0,0,0,0,-1,1861,337,0,0
644,687,0,0,0,0,0,0,0,0,0,-1,1868,337,0,0
651,687,0,0,0,0,0,0,0,0,0,-1,1875,337,0,0
658,687,0,0,0,0,0,0,0,0,0,-1,1882,337,0,0
665,687,0,0,0,0,0,0,0,0,0,-1,1889,337,0,0
672,687,0,0,0,0,0,0,0,0,0,-1,1896,337,0,0
679,687,0,0,0,0,0,0,0,0,0,-1,1903,337,0,0
686,687,0,0,0,0,0,0,0,0,0,-1,1910,337,0,0
693,687,0,0,0,0,0,0,0,0,0,-1,1917,337,0,0
700,687,0,0,0,0,0,0,0,0,0,-1,1924,337,0,0
707,687,0,0,0,0,0,0,0,0,0,-1,1931,337,0,0
714,687,0,0,0,0,0,0,0,0,0,-1,1938,337,0,0
721,687,0,0,0,0,0,0,0,0,0,-1,1945,337,0,0
728,687,0,0,0,0,0,0,0,0,0,-1,1952,337,0,0
735,687,0,0,0,0,0,0,0,0,0,-1,1959,337,0,0
742,687,0,0,0,0,0,0,0,0,0,-1,1966,337,0,0
749,687,0,0,0,0,0,0,0,0,0,-1,1973,337,0,0
756,687,0,0,0,0,0,0,0,0,0,-1,1980,337,0,0
763,687,0,0,0,0,0,0,0,0,0,-1,1987,337,0,0
770,687,0,0,0,0,0,0,0,0,0,-1,1994,337,0,0
777,687,0,0,0,0,0,0,0,0,0,-1,2001,337,0,0
784,687,0,0,0,0,0,0,0,0,0,-1,2008,337,0,0
791,687,0,0,0,0,0,0,0,0,0,-1,2015,337,0,0
798,687,0,0,0,0,0,0,0,0,0,-1,2022,337,0,0
805,687,0,0,0,0,0,0,0,0,0,-1,2029,337,0,0
812,687,0,0,0,0,0,0,0,0,0,-1,2036,337,0,0
-700,680,0,0,0,0,0,0,0,0,0,-1,524,344,0,0
-693,680,0,0,0,0,0,0,0,0,0,-1,531,344,0,0
-686,680,0,0,0,0,0,0,0,0,0,-1,538,344,0,0
-679,680,0,0,0,0,0,0,0,0,0,-1,545,344,0,0
-672,680,0,0,0,0,0,0,0,0,0,-1,552,344,0,0
-665,680,0,0,0,0,0,0,0,0,0,-1,559,344,0,0
-658,680,0,0,0,0,0,0,0,0,0,-1,566,344,0,0
-651,680,0,0,0,0,0,0,0,0,0,-1,573,344,0,0
-644,680,0,0,0,0,0,0,0,0,0,-1,580,344,0,0
-637,680,0,0,0,0,0,0,0,0,0,-1,587,344,0,0
-630,680,0,0,0,0,0,0,0,0,0,-1,594,344,0,0
-623,680,0,0,0,0,0,0,0,0,0,-1,601,344,0,0
-616,680,0,0,0,0,0,0,0,0,0,-1,608,344,0,0
-609,680,0,0,0,0,0,0,0,0,0,-1,615,344,0,0
-602,680,0,0,0,0,0,0,0,0,0,-1,622,344,0,0
-595,680,0,0,0,0,0,0,0,0,0,-1,629,344,0,0
-588,680,0,0,0,0,0,0,0,0,0,-1,636,344,0,0
-581,680,0,0,0,0,0,0,0,0,0,-1,643,344,0,0
-574,680,0,0,0,0,0,0,0,0,0,-1,650,344,0,0
-567,680,0,0,0,0,0,0,0,0,0,-1,657,344,0,0
-560,680,0,0,0,0,0,0,0,0,0,-1,664,344,0,0
-553,680,0,0,0,0,0,0,0,0,0,-1,671,344,0,0
-546,680,0,0,0,0,0,0,0,0,0,-1,678,344,0,0
-539,680,0,0,0,0,0,0,0,0,0,-1,685,344,0,0
-532,680,0,0,0,0,0,0,0,0,0,-1,692,344,0,0
-525,680,0,0,0,0,0,0,0,0,0,-1,699,344,0,0
-518,680,0,0,0,0,0,0,0,0,0,-1,706,344,0,0
-511,680,0,0,0,0,0,0,0,0,0,-1,713,344,0,0
-504,680,0,0,0,0,0,0,0,0,0,-1,720,344,0,0
-497,680,0,0,0,0,0,0,0,0,0,-1,727,344,0,0
-490,680,0,0,0,0,0,0,0,0,0,-1,734,344,0,0
-483,680,0,0,0,0,0,0,0,0,0,-1,741,344,0,0
-476,680,0,0,0,0,0,0,0,0,0,-1,748,344,0,0
-469,680,0,0,0,0,0,0,0,0,0,-1,755,344,0,0
-462,680,0,0,0,0,0,0,0,0,0,-1,762,344,0,0
-455,680,0,0,0,0,0,0,0,0,0,-1,769,344,0,0
-448,680,0,0,0,0,0,0,0,0,0,-1,776,344,0,0
-441,680,0,0,0,0,0,0,0,0,0,-1,783,344,0,0
-434,680,0,0,0,0,0,0,0,0,0,-1,790,344,0,0
-427,680,0,0,0,0,0,0,0,0,0,-1,797,344,0,0
-420,680,0,0,0,0,0,0,0,0,0,-1,804,344,0,0
-413,680,0,0,0,0,0,0,0,0,0,-1,811,344,0,0
-406,680,0,0,0,0,0,0,0,0,0,-1,818,344,0,0
-399,680,0,0,0,0,0,0,0,0,0,-1,825,344,0,0
-392,680,0,0,0,0,0,0,0,0,0,-1,832,344,0,0
-385,680,0,0,0,0,0,0,0,0,0,-1,839,344,0,0
-378,680,0,0,0,0,0,0,0,0,0,-1,846,344,0,0
-371,680,0,0,0,0,0,0,0,0,0,-1,853,344,0,0
-364,680,0,0,0,0,0,0,0,0,0,-1,860,344,0,0
-357,680,0,0,0,0,0,0,0,0,0,-1,867,344,0,0
-350,680,0,0,0,0,0,0,0,0,0,-1,874,344,0,0
-343,680,0,0,0,0,0,0,0,0,0,-1,881,344,0,0
-336,680,0,0,0,0,0,0,0,0,0,-1,888,344,0,0
-329,680,0,0,0,0,0,0,0,0,0,-1,895,344,0,0
-322,680,0,0,0,0,0,0,0,0,0,-1,902,344,0,0
-315,680,0,0,0,0,0,0,0,0,0,-1,909,344,0,0
-308,680,0,0,0,0,0,0,0,0,0,-1,916,344,0,0
-301,680,0,0,0,0,0,0,0,0,0,-1,923,344,0,0
-294,680,0,0,0,0,0,0,0,0,0,-1,930,344,0,0
-287,680,0,0,0,0,0,0,0,0,0,-1,937,344,0,0
-280,680,0,0,0,0,0,0,0,0,0,-1,944,344,0,0
-273,680,0,0,0,0,0,0,0,0,0,-1,951,344,0,0
-266,680,0,0,0,0,0,0,0,0,0,-1,958,344,0,0
-259,680,0,0,0,0,0,0,0,0,0,-1,965,344,0,0
-252,680,0,0,0,0,0,0,0,0,0,-1,972,344,0,0
-245,680,0,0,0,0,0,0,0,0,0,-1,979,344,0,0
-238,680,0,0,0,0,0,0,0,0,0,-1,986,344,0,0
-231,680,0,0,0,0,0,0,0,0,0,-1,993,344,0,0
-224,680,0,0,0,0,0,0,0,0,0,-1,1000,344,0,0
-217,680,0,0,0,0,0,0,0,0,0,-1,1007,344,0,0
-210,680,0,0,0,0,0,0,0,0,0,-1,1014,344,0,0
-203,680,0,0,0,0,0,0,0,0,0,-1,1021,344,0,0
-196,680,0,0,0,0,0,0,0,0,0,-1,1028,344,0,0
-189,680,0,0,0,0,0,0,0,0,0,-1,1035,344,0,0
-182,680,0,0,0,0,0,0,0,0,0,-1,1042,344,0,0
-175,680,0,0,0,0,0,0,0,0,0,-1,1049,344,0,0
-168,680,0,0,0,0,0,0,0,0,0,-1,1056,344,0,0
-161,680,0,0,0,0,0,0,0,0,0,-1,1063,344,0,0
-154,680,-1.22534,-3.19229,0,0,0,0,0,0,0,-1,1070,344,-1.22529,3.1923
-147,680,2.94312,-15.6088,0,0,0,0,0,0,0,-1,1077,344,2.94309,15.6088
-140,680,2.14502,-11.7579,0,0,0,0,0,0,0,-1,1084,344,2.145,11.7579
-133,680,3.11047,-11.7595,0,0,0,0,0,0,0,-1,1091,344,3.11044,11.7595
-126,680,1.31165,-10.1951,0,0,0,0,0,0,0,-1,1098,344,1.31166,10.1951
-119,680,1.04834,-10.3552,0,0,0,0,0,0,0,-1,1105,344,1.04835,10.3552
-112,680,0.719482,-10.732,0,0,0,0,0,0,0,-1,1112,344,0.719423,10.732
-105,680,3.65027,-10.3892,0,0,0,0,0,0,0,-1,1119,344,3.65033,10.3892
-98,680,2.23914,-7.96515,0,0,0,0,0,0,0,-1,1126,344,2.23908,7.96514
-91,680,2.84448,-8.00763,0,0,0,0,0,0,0,-1,1133,344,2.84447,8.00764
-84,680,2.71631,-7.27869,0,0,0,0,0,0,0,-1,1140,344,2.71634,7.2787
-77,680,1.31738,-3.86298,0,0,0,0,0,0,0,-1,1147,344,1.31733,3.86296
-70,680,1.79248,-2.08197,0,0,0,0,0,0,0,-1,1154,344,1.79242,2.08198
-63,680,-5.41333,-13.0013,0,0,0,0,0,0,0,-1,1161,344,-5.41332,13.0013
-56,680,-6.96912,-8.83356,0,0,0,0,0,0,0,-1,1168,344,-6.96907,8.83354
-49,680,-6.7677,-2.24063,0,0,0,0,0,0,0,-1,1175,344,-6.76772,2.24063
-42,680,-1.02368,0.618805,0,0,0,0,0,0,0,-1,1182,344,-1.0237,-0.618797
-35,680,-0.947876,-0.942719,0,0,0,0,0,0,0,-1,1189,344,-0.947842,0.942731
-28,680,-1.46118,-1.10574,0,0,0,0,0,0,0,-1,1196,344,-1.4612,1.10575
-21,680,1.65747,-10.2833,0,0,0,0,0,0,0,-1,1203,344,1.65749,10.2833
-14,680,1.73315,-10.4303,-0.0155582,0.133004,-0.0209825,0.13591,-0.0184649,-1.43315,0.0973474,0.0465738,1210,344,1.73316,10.4303
-7,680,1.61047,-10.5041,-0.0139428,0.121288,-0.0243117,0.125526,-0.0181807,-1.39821,0.0903559,0.0460932,1217,344,1.61043,10.5041
0,680,2.10449,-10.2222,0,0,0,0,0,0,0,-1,1224,344,2.10448,10.2222
7,680,2.76721,-10.2296,0,0,0,0,0,0,0,-1,1231,344,2.76722,10.2296
14,680,2.70178,-10.0718,0,0,0,0,0,0,0,-1,1238,344,2.70181,10.0718
21,680,3.61865,-9.28592,0,0,0,0,0,0,0,-1,1245,344,3.61871,9.28591
28,680,1.61853,-10.4634,-0.0058764,0.0736763,-0.0338592,0.086136,-0.0183361,-1.21819,0.064412,0.0442502,1252,344,1.61859,10.4634
35,680,1.54578,-9.466,-0.00349108,0.0669449,-0.0333909,0.080258,-0.0168041,-1.19141,0.0598976,0.0452294,1259,344,1.54574,9.46601
42,680,2.26135,-10.2943,-0.000842848,0.0618518,-0.0314036,0.0748761,-0.0138672,-1.17765,0.0551243,0.0409849,1266,344,2.26135,10.2943
49,680,1.45129,-9.61288,0.00234581,0.0515844,-0.0295963,0.0654625,-0.0115323,-1.13233,0.0479503,0.0406547,1273,344,1.45124,9.61288
56,680,1.13538,-9.54224,0,0,0,0,0,0,0,-1,1280,344,1.13541,9.54224
63,680,1.51953,-9.92258,0.00887373,0.0442761,-0.0217018,0.0545802,-0.00143044,-1.12751,0.0368729,0.0355586,1287,344,1.51951,9.92258
70,680,1.74622,-10.0696,0.0117677,0.0409737,-0.0168275,0.048651,0.00409037,-1.14277,0.0311602,0.0352422,1294,344,1.74616,10.0696
77,680,1.77783,-9.96884,0.0174445,0.0382543,-0.0125731,0.0441695,0.0115294,-1.13106,0.0264543,0.0401681,1301,344,1.77787,9.96884
84,680,1.68604,-9.94791,0.0236622,0.0426961,-0.0141733,0.0502512,0.0161071,-1.08106,0.029629,0.0448802,1308,344,1.68603,9.94791
91,680,1.52625,-9.82199,0,0,0,0,0,0,0,-1,1315,344,1.52629,9.82201
98,680,1.29028,-9.78873,0,0,0,0,0,0,0,-1,1322,344,1.29024,9.78873
105,680,1.31152,-10.3359,0,0,0,0,0,0,0,-1,1329,344,1.31157,10.3359
112,680,1.48047,-10.1535,0.0283369,0.042312,-0.0148885,0.0517711,0.0188778,-1.0048,0.030253,0.0465671,1336,344,1.48052,10.1535
119,680,1.66418,-10.095,0.0266739,0.0437017,-0.0171836,0.0543649,0.0160107,-1.01541,0.0322591,0.0450655,1343,344,1.66416,10.095
126,680,1.74316,-10.0374,0,0,0,0,0,0,0,-1,1350,344,1.7431,10.0374
133,680,2.06018,-10.1861,0,0,0,0,0,0,0,-1,1357,344,2.06013,10.1861
140,680,2.08081,-10.2328,0,0,0,0,0,0,0,-1,1364,344,2.0808,10.2328
147,680,2.67297,-10.4236,0.00586893,0.0333359,-0.0228628,0.0462729,-0.00706807,-1.05586,0.0334545,0.0467506,1371,344,2.67295,10.4236
154,680,1.76428,-10.2816,-0.00177536,0.0268967,-0.0211767,0.0381336,-0.0130123,-1.08295,0.0306934,0.0487838,1378,344,1.76429,10.2816
161,680,0.93103,-10.072,0,0,0,0,0,0,0,-1,1385,344,0.931006,10.072
168,680,6.85046,1.69257,0,0,0,0,0,0,0,-1,1392,344,6.85045,-1.69257
175,680,6.66541,0.942078,0,0,0,0,0,0,0,-1,1399,344,6.66538,-0.942088
182,680,6.52917,0.532379,0,0,0,0,0,0,0,-1,1406,344,6.52922,-0.532385
189,680,7.55884,4.77695,0,0,0,0,0,0,0,-1,1413,344,7.55886,-4.77694
196,680,6.55627,3.35254,0,0,0,0,0,0,0,-1,1420,344,6.55622,-3.35255
203,680,5.7334,1.90753,0,0,0,0,0,0,0,-1,1427,344,5.73341,-1.90754
210,680,5.27515,0.493622,0,0,0,0,0,0,0,-1,1434,344,5.27514,-0.493632
217,680,3.96936,1.3656,0,0,0,0,0,0,0,-1,1441,344,3.96942,-1.36559
224,680,3.9491,-0.640228,0,0,0,0,0,0,0,-1,1448,344,3.94908,0.64024
231,680,4.24866,-1.96881,0,0,0,0,0,0,0,-1,1455,344,4.2486,1.96882
238,680,4.29333,-3.23984,0,0,0,0,0,0,0,-1,1462,344,4.29332,3.23984
245,680,2.44397,0.985382,0,0,0,0,0,0,0,-1,1469,344,2.44402,-0.985394
252,680,3.07349,2.18951,0,0,0,0,0,0,0,-1,1476,344,3.0735,-2.18952
259,680,2.82971,1.30682,0,0,0,0,0,0,0,-1,1483,344,2.82972,-1.30684
266,680,2.67554,1.44067,0,0,0,0,0,0,0,-1,1490,344,2.67551,-1.44066
273,680,2.46411,1.54666,0,0,0,0,0,0,0,-1,1497,344,2.46407,-1.54666
280,680,0,0,0,0,0,0,0,0,0,-1,1504,344,0,0
287,680,0,0,0,0,0,0,0,0,0,-1,1511,344,0,0
294,680,0,0,0,0,0,0,0,0,0,-1,1518,344,0,0
301,680,0,0,0,0,0,0,0,0,0,-1,1525,344,0,0
308,680,0,0,0,0,0,0,0,0,0,-1,1532,344,0,0
315,680,0,0,0,0,0,0,0,0,0,-1,1539,344,0,0
322,680,0,0,0,0,0,0,0,0,0,-1,1546,344,0,0
329,680,0,0,0,0,0,0,0,0,0,-1,1553,344,0,0
336,680,0,0,0,0,0,0,0,0,0,-1,1560,344,0,0
343,680,0,0,0,0,0,0,0,0,0,-1,1567,344,0,0
350,680,0,0,0,0,0,0,0,0,0,-1,1574,344,0,0
357,680,0,0,0,0,0,0,0,0,0,-1,1581,344,0,0
364,680,0,0,0,0,0,0,0,0,0,-1,1588,344,0,0
371,680,0,0,0,0,0,0,0,0,0,-1,1595,344,0,0
378,680,0,0,0,0,0,0,0,0,0,-1,1602,344,0,0
385,680,0,0,0,0,0,0,0,0,0,-1,1609,344,0,0
392,680,0,0,0,0,0,0,0,0,0,-1,1616,344,0,0
399,680,0,0,0,0,0,0,0,0,0,-1,1623,344,0,0
406,680,0,0,0,0,0,0,0,0,0,-1,1630,344,0,0
413,680,0,0,0,0,0,0,0,0,0,-1,1637,344,0,0
420,680,0,0,0,0,0,0,0,0,0,-1,1644,344,0,0
427,680,0,0,0,0,0,0,0,0,0,-1,1651,344,0,0
434,680,0,0,0,0,0,0,0,0,0,-1,1658,344,0,0
441,680,0,0,0,0,0,0,0,0,0,-1,1665,344,0,0
448,680,0,0,0,0,0,0,0,0,0,-1,1672,344,0,0
455,680,0,0,0,0,0,0,0,0,0,-1,1679,344,0,0
462,680,0,0,0,0,0,0,0,0,0,-1,1686,344,0,0
469,680,0,0,0,0,0,0,0,0,0,-1,1693,344,0,0
476,680,0,0,0,0,0,0,0,0,0,-1,1700,344,0,0
483,680,0,0,0,0,0,0,0,0,0,-1,1707,344,0,0
490,680,0,0,0,0,0,0,0,0,0,-1,1714,344,0,0
497,680,0,0,0,0,0,0,0,0,0,-1,1721,344,0,0
504,680,0,0,0,0,0,0,0,0,0,-1,1728,344,0,0
511,680,0,0,0,0,0,0,0,0,0,-1,1735,344,0,0
518,680,0,0,0,0,0,0,0,0,0,-1,1742,344,0,0
525,680,0,0,0,0,0,0,0,0,0,-1,1749,344,0,0
532,680,0,0,0,0,0,0,0,0,0,-1,1756,344,0,0
539,680,0,0,0,0,0,0,0,0,0,-1,1763,344,0,0
546,680,0,0,0,0,0,0,0,0,0,-1,1770,344,0,0
553,680,0,0,0,0,0,0,0,0,0,-1,1777,344,0,0
560,680,0,0,0,0,0,0,0,0,0,-1,1784,344,0,0
567,680,0,0,0,0,0,0,0,0,0,-1,1791,344,0,0
574,680,0,0,0,0,0,0,0,0,0,-1,1798,344,0,0
581,680,0,0,0,0,0,0,0,0,0,-1,1805,344,0,0
588,680,0,0,0,0,0,0,0,0,0,-1,1812,344,0,0
595,680,0,0,0,0,0,0,0,0,0,-1,1819,344,0,0
602,680,0,0,0,0,0,0,0,0,0,-1,1826,344,0,0
609,680,0,0,0,0,0,0,0,0,0,-1,1833,344,0,0
616,680,0,0,0,0,0,0,0,0,0,-1,1840,344,0,0
623,680,0,0,0,0,0,0,0,0,0,-1,1847,344,0,0
630,680,0,0,0,0,0,0,0,0,0,-1,1854,344,0,0
637,680,0,0,0,0,0,0,0,0,0,-1,1861,344,0,0
644,680,0,0,0,0,0,0,0,0,0,-1,1868,344,0,0
651,680,0,0,0,0,0,0,0,0,0,-1,1875,344,0,0
658,680,0,0,0,0,0,0,0,0,0,-1,1882,344,0,0
665,680,0,0,0,0,0,0,0,0,0,-1,1889,344,0,0
672,680,0,0,0,0,0,0,0,0,0,-1,1896,344,0,0
679,680,0,0,0,0,0,0,0,0,0,-1,1903,344,0,0
686,680,0,0,0,0,0,0,0,0,0,-1,1910,344,0,0
693,680,0,0,0,0,0,0,0,0,0,-1,1917,344,0,0
700,680,0,0,0,0,0,0,0,0,0,-1,1924,344,0,0
707,680,0,0,0,0,0,0,0,0,0,-1,1931,344,0,0
714,680,0,0,0,0,0,0,0,0,0,-1,1938,344,0,0
721,680,0,0,0,0,0,0,0,0,0,-1,1945,344,0,0
728,680,0,0,0,0,0,0,0,0,0,-1,1952,344,0,0
735,680,0,0,0,0,0,0,0,0,0,-1,1959,344,0,0
742,680,0,0,0,0,0,0,0,0,0,-1,1966,344,0,0
749,680,0,0,0,0,0,0,0,0,0,-1,1973,344,0,0
756,680,0,0,0,0,0,0,0,0,0,-1,1980,344,0,0
763,680,0,0,0,0,0,0,0,0,0,-1,1987,344,0,0
770,680,0,0,0,0,0,0,0,0,0,-1,1994,344,0,0
777,680,0,0,0,0,0,0,0,0,0,-1,2001,344,0,0
784,680,0,0,0,0,0,0,0,0,0,-1,2008,344,0,0
791,680,0,0,0,0,0,0,0,0,0,-1,2015,344,0,0
798,680,0,0,0,0,0,0,0,0,0,-1,2022,344,0,0
805,680,0,0,0,0,0,0,0,0,0,-1,2029,344,0,0
812,680,0,0,0,0,0,0,0,0,0,-1,2036,344,0,0
-700,673,0,0,0,0,0,0,0,0,0,-1,524,351,0,0
-693,673,0,0,0,0,0,0,0,0,0,-1,531,351,0,0
-686,673,0,0,0,0,0,0,0,0,0,-1,538,351,0,0
-679,673,0,0,0,0,0,0,0,0,0,-1,545,351,0,0
-672,673,0,0,0,0,0,0,0,0,0,-1,552,351,0,0
-665,673,0,0,0,0,0,0,0,0,0,-1,559,351,0,0
-658,673,0,0,0,0,0,0,0,0,0,-1,566,351,0,0
-651,673,0,0,0,0,0,0,0,0,0,-1,573,351,0,0
-644,673,0,0,0,0,0,0,0,0,0,-1,580,351,0,0
-637,673,0,0,0,0,0,0,0,0,0,-1,587,351,0,0
-630,673,0,0,0,0,0,0,0,0,0,-1,594,351,0,0
-623,673,0,0,0,0,0,0,0,0,0,-1,601,351,0,0
-616,673,0,0,0,0,0,0,0,0,0,-1,608,351,0,0
-609,673,0,0,0,0,0,0,0,0,0,-1,615,351,0,0
-602,673,0,0,0,0,0,0,0,0,0,-1,622,351,0,0
-595,673,0,0,0,0,0,0,0,0,0,-1,629,351,0,0
-588,673,0,0,0,0,0,0,0,0,0,-1,636,351,0,0
-581,673,0,0,0,0,0,0,0,0,0,-1,643,351,0,0
-574,673,0,0,0,0,0,0,0,0,0,-1,650,351,0,0
-567,673,0,0,0,0,0,0,0,0,0,-1,657,351,0,0
-560,673,0,0,0,0,0,0,0,0,0,-1,664,351,0,0
-553,673,0,0,0,0,0,0,0,0,0,-1,671,351,0,0
-546,673,0,0,0,0,0,0,0,0,0,-1,678,351,0,0
-539,673,0,0,0,0,0,0,0,0,0,-1,685,351,0,0
-532,673,0,0,0,0,0,0,0,0,0,-1,692,351,0,0
-525,673,0,0,0,0,0,0,0,0,0,-1,699,351,0,0
-518,673,0,0,0,0,0,0,0,0,0,-1,706,351,0,0
-511,673,0,0,0,0,0,0,0,0,0,-1,713,351,0,0
-504,673,0,0,0,0,0,0,0,0,0,-1,720,351,0,0
-497,673,0,0,0,0,0,0,0,0,0,-1,727,351,0,0
-490,673,0,0,0,0,0,0,0,0,0,-1,734,351,0,0
-483,673,0,0,0,0,0,0,0,0,0,-1,741,351,0,0
-476,673,0,0,0,0,0,0,0,0,0,-1,748,351,0,0
-469,673,0,0,0,0,0,0,0,0,0,-1,755,351,0,0
-462,673,0,0,0,0,0,0,0,0,0,-1,762,351,0,0
-455,673,0,0,0,0,0,0,0,0,0,-1,769,351,0,0
-448,673,0,0,0,0,0,0,0,0,0,-1,776,351,0,0
-441,673,0,0,0,0,0,0,0,0,0,-1,783,351,0,0
-434,673,0,0,0,0,0,0,0,0,0,-1,790,351,0,0
-427,673,0,0,0,0,0,0,0,0,0,-1,797,351,0,0
-420,673,0,0,0,0,0,0,0,0,0,-1,804,351,0,0
-413,673,0,0,0,0,0,0,0,0,0,-1,811,351,0,0
-406,673,0,0,0,0,0,0,0,0,0,-1,818,351,0,0
-399,673,0,0,0,0,0,0,0,0,0,-1,825,351,0,0
-392,673,0,0,0,0,0,0,0,0,0,-1,832,351,0,0
-385,673,0,0,0,0,0,0,0,0,0,-1,839,351,0,0
-378,673,0,0,0,0,0,0,0,0,0,-1,846,351,0,0
-371,673,0,0,0,0,0,0,0,0,0,-1,853,351,0,0
-364,673,0,0,0,0,0,0,0,0,0,-1,860,351,0,0
-357,673,0,0,0,0,0,0,0,0,0,-1,867,351,0,0
-350,673,0,0,0,0,0,0,0,0,0,-1,874,351,0,0
-343,673,0,0,0,0,0,0,0,0,0,-1,881,351,0,0
-336,673,0,0,0,0,0,0,0,0,0,-1,888,351,0,0
-329,673,0,0,0,0,0,0,0,0,0,-1,895,351,0,0
-322,673,0,0,0,0,0,0,0,0,0,-1,902,351,0,0
-315,673,0,0,0,0,0,0,0,0,0,-1,909,351,0,0
-308,673,0,0,0,0,0,0,0,0,0,-1,916,351,0,0
-301,673,0,0,0,0,0,0,0,0,0,-1,923,351,0,0
-294,673,0,0,0,0,0,0,0,0,0,-1,930,351,0,0
-287,673,0,0,0,0,0,0,0,0,0,-1,937,351,0,0
-280,673,0,0,0,0,0,0,0,0,0,-1,944,351,0,0
-273,673,0,0,0,0,0,0,0,0,0,-1,951,351,0,0
-266,673,0,0,0,0,0,0,0,0,0,-1,958,351,0,0
-259,673,0,0,0,0,0,0,0,0,0,-1,965,351,0,0
-252,673,0,0,0,0,0,0,0,0,0,-1,972,351,0,0
-245,673,0,0,0,0,0,0,0,0,0,-1,979,351,0,0
-238,673,0,0,0,0,0,0,0,0,0,-1,986,351,0,0
-231,673,0,0,0,0,0,0,0,0,0,-1,993,351,0,0
-224,673,0,0,0,0,0,0,0,0,0,-1,1000,351,0,0
-217,673,0,0,0,0,0,0,0,0,0,-1,1007,351,0,0
-210,673,0,0,0,0,0,0,0,0,0,-1,1014,351,0,0
-203,673,0,0,0,0,0,0,0,0,0,-1,1021,351,0,0
-196,673,0,0,0,0,0,0,0,0,0,-1,1028,351,0,0
-189,673,0,0,0,0,0,0,0,0,0,-1,1035,351,0,0
-182,673,0,0,0,0,0,0,0,0,0,-1,1042,351,0,0
-175,673,0.35144,-5.74207,0,0,0,0,0,0,0,-1,1049,351,0.35139,5.74208
-168,673,0.501221,-5.83353,0,0,0,0,0,0,0,-1,1056,351,0.501161,5.83354
-161,673,3.87073,-11.1271,0,0,0,0,0,0,0,-1,1063,351,3.87074,11.1271
-154,673,2.62036,-14.0723,0,0,0,0,0,0,0,-1,1070,351,2.62035,14.0723
-147,673,3.1095,-14.4338,0,0,0,0,0,0,0,-1,1077,351,3.10944,14.4338
-140,673,4.25342,-14.4467,0,0,0,0,0,0,0,-1,1084,351,4.25338,14.4467
-133,673,2.93616,-10.9825,0,0,0,0,0,0,0,-1,1091,351,2.93615,10.9825
-126,673,1.7196,-9.62213,0,0,0,0,0,0,0,-1,1098,351,1.71964,9.62213
-119,673,1.62122,-9.49423,0,0,0,0,0,0,0,-1,1105,351,1.62124,9.49424
-112,673,2.24219,-9.00363,0,0,0,0,0,0,0,-1,1112,351,2.24223,9.00364
-105,673,0.872803,-9.08981,0,0,0,0,0,0,0,-1,1119,351,0.872819,9.08982
-98,673,1.05566,-9.10062,0,0,0,0,0,0,0,-1,1126,351,1.05563,9.10061
-91,673,2.552,-9.40833,0,0,0,0,0,0,0,-1,1133,351,2.55205,9.40833
-84,673,2.79688,-9.28421,0,0,0,0,0,0,0,-1,1140,351,2.79693,9.2842
-77,673,2.36157,-7.52881,0,0,0,0,0,0,0,-1,1147,351,2.36159,7.5288
-70,673,1.88684,-4.7381,0,0,0,0,0,0,0,-1,1154,351,1.88682,4.73809
-63,673,1.11719,-2.95016,0,0,0,0,0,0,0,-1,1161,351,1.11724,2.95016
-56,673,-6.18872,-9.52338,0,0,0,0,0,0,0,-1,1168,351,-6.18874,9.52336
-49,673,-0.926758,-0.115448,0,0,0,0,0,0,0,-1,1175,351,-0.926732,0.115444
-42,673,-1.15015,0.289917,0,0,0,0,0,0,0,-1,1182,351,-1.15017,-0.289932
-35,673,-0.919556,-1.00711,0,0,0,0,0,0,0,-1,1189,351,-0.919514,1.00711
-28,673,1.03564,-2.58228,0,0,0,0,0,0,0,-1,1196,351,1.0356,2.58229
-21,673,1.922,-10.2617,0,0,0,0,0,0,0,-1,1203,351,1.92195,10.2617
-14,673,1.91443,-10.364,-0.0101282,0.0983869,-0.0139198,0.100144,-0.0118853,-1.44523,0.0710565,0.044118,1210,351,1.91446,10.364
-7,673,1.90735,-10.4187,-0.00933268,0.0914355,-0.0165758,0.0940921,-0.0119893,-1.41188,0.0670826,0.0394034,1217,351,1.90734,10.4187
0,673,2.08606,-10.2386,-0.00880971,0.0847746,-0.0189421,0.0884632,-0.0124983,-1.37847,0.0635525,0.0383663,1224,351,2.08601,10.2386
7,673,2.41833,-10.2107,-0.00801949,0.0772428,-0.0212366,0.0822394,-0.0130161,-1.33971,0.0596403,0.0393962,1231,351,2.41829,10.2107
14,673,2.3562,-10.1975,-0.00692056,0.0702608,-0.0229734,0.0765813,-0.0132411,-1.30231,0.0559922,0.0366329,1238,351,2.35618,10.1975
21,673,2.08667,-10.2918,-0.00600063,0.0643236,-0.0241501,0.0718183,-0.0134953,-1.26988,0.0529536,0.0238658,1245,351,2.08672,10.2918
28,673,2.01831,-10.302,-0.00453225,0.0585972,-0.0245189,0.0670013,-0.0129364,-1.24059,0.0495458,0.0165221,1252,351,2.01837,10.302
35,673,2.01233,-10.2959,-0.00292173,0.0534563,-0.0243218,0.0624986,-0.011964,-1.21485,0.0461734,0.023581,1259,351,2.01227,10.2959
42,673,2.02844,-10.3265,-0.00106762,0.0495253,-0.0229259,0.0583684,-0.00991071,-1.20266,0.0426018,0.0257774,1266,351,2.02842,10.3265
49,673,1.99524,-10.3459,0.00119027,0.0410296,-0.021774,0.0506209,-0.00840106,-1.15587,0.0368681,0.015629,1273,351,1.99527,10.3459
56,673,1.98535,-10.313,0.00330927,0.0383641,-0.0190278,0.0467069,-0.00503352,-1.15759,0.0329442,0.0119406,1280,351,1.98539,10.313
63,673,1.9967,-10.2786,0.00576087,0.0352038,-0.0162071,0.0423774,-0.00141265,-1.1541,0.028734,0.0140509,1287,351,1.99665,10.2786
70,673,1.96082,-10.2462,0.00791778,0.0324265,-0.0126461,0.0377816,0.0025627,-1.17023,0.0243784,0.0233153,1294,351,1.96086,10.2462
77,673,1.91541,-10.1917,0.0121472,0.0298853,-0.00949363,0.0340081,0.00802441,-1.1611,0.0205269,0.0344198,1301,351,1.91535,10.1916
84,673,1.7594,-10.2047,0.016735,0.0323639,-0.0105328,0.0376646,0.0114344,-1.10455,0.0222979,0.0385191,1308,351,1.75936,10.2046
91,673,1.65149,-10.2172,0.0195097,0.0313356,-0.0101823,0.0371973,0.013648,-1.04845,0.021728,0.0422597,1315,351,1.65147,10.2172
98,673,1.80823,-10.2428,0.0201795,0.0303843,-0.00955057,0.03611,0.0144538,-1.03073,0.0209859,0.0473185,1322,351,1.80828,10.2428
105,673,1.53809,-10.2762,0.0204826,0.029471,-0.00976675,0.0357279,0.0142256,-1.00103,0.0207697,0.0419192,1329,351,1.53807,10.2762
112,673,1.48767,-10.2727,0.0205222,0.0308082,-0.0106914,0.0375293,0.0138011,-1.00958,0.0219187,0.0400598,1336,351,1.48769,10.2727
119,673,1.75366,-10.1278,0.0193666,0.0315893,-0.0121929,0.0391167,0.0118392,-1.01771,0.0231629,0.0397273,1343,351,1.75361,10.1278
126,673,1.79871,-10.0894,0.0173448,0.0315267,-0.013981,0.0401122,0.00875935,-1.02009,0.0243526,0.0386213,1350,351,1.79865,10.0894
133,673,1.93982,-10.0872,0.0141379,0.0305327,-0.015397,0.0397784,0.00489208,-1.03001,0.025048,0.0399897,1357,351,1.93984,10.0872
140,673,2.22559,-10.1151,0.00989641,0.0281733,-0.0160015,0.0374619,0.000607744,-1.04485,0.0247745,0.0429482,1364,351,2.22554,10.1151
147,673,2.2583,-10.1082,0.00489078,0.024181,-0.016172,0.0333657,-0.00429389,-1.05429,0.0238045,0.0415556,1371,351,2.25824,10.1082
154,673,2.10046,-9.94989,-0.000318743,0.0197655,-0.0150489,0.0278152,-0.00836842,-1.07962,0.0218732,0.0397488,1378,351,2.1005,9.9499
161,673,2.08276,-9.79211,0,0,0,0,0,0,0,-1,1385,351,2.08272,9.79212
168,673,6.87061,1.83954,0,0,0,0,0,0,0,-1,1392,351,6.87063,-1.83953
175,673,6.6228,1.1459,0,0,0,0,0,0,0,-1,1399,351,6.62276,-1.14591
182,673,6.37244,0.796112,0,0,0,0,0,0,0,-1,1406,351,6.3724,-0.796102
189,673,6.12097,0.265472,0,0,0,0,0,0,0,-1,1413,351,6.121,-0.265482
196,673,6.02173,3.12717,0,0,0,0,0,0,0,-1,1420,351,6.02176,-3.12717
203,673,5.04456,1.6351,0,0,0,0,0,0,0,-1,1427,351,5.04455,-1.63509
210,673,4.79224,0.447479,0,0,0,0,0,0,0,-1,1434,351,4.79229,-0.447469
217,673,2.01648,0.972687,0,0,0,0,0,0,0,-1,1441,351,2.01644,-0.972691
224,673,2.3689,-1.80539,0,0,0,0,0,0,0,-1,1448,351,2.36896,1.80539
231,673,2.65857,-2.18497,0,0,0,0,0,0,0,-1,1455,351,2.65852,2.18496
238,673,3.24146,-1.01593,0,0,0,0,0,0,0,-1,1462,351,3.24142,1.01593
245,673,3.5376,-0.190399,0,0,0,0,0,0,0,-1,1469,351,3.53759,0.1904
252,673,3.80518,0.55603,0,0,0,0,0,0,0,-1,1476,351,3.80519,-0.556022
259,673,3.88562,1.29617,0,0,0,0,0,0,0,-1,1483,351,3.88562,-1.29618
266,673,4.22424,2.04834,0,0,0,0,0,0,0,-1,1490,351,4.22429,-2.04834
273,673,6.07886,0.385895,0,0,0,0,0,0,0,-1,1497,351,6.0789,-0.385906
280,673,6.97534,-0.0820007,0,0,0,0,0,0,0,-1,1504,351,6.97536,0.0820122
287,673,7.66968,-0.348541,0,0,0,0,0,0,0,-1,1511,351,7.66969,0.348534
294,673,8.20996,0.28537,0,0,0,0,0,0,0,-1,1518,351,8.20993,-0.28536
301,673,0,0,0,0,0,0,0,0,0,-1,1525,351,0,0
308,673,0,0,0,0,0,0,0,0,0,-1,1532,351,0,0
315,673,0,0,0,0,0,0,0,0,0,-1,1539,351,0,0
322,673,0,0,0,0,0,0,0,0,0,-1,1546,351,0,0
329,673,0,0,0,0,0,0,0,0,0,-1,1553,351,0,0
336,673,0,0,0,0,0,0,0,0,0,-1,1560,351,0,0
343,673,0,0,0,0,0,0,0,0,0,-1,1567,351,0,0
350,673,0,0,0,0,0,0,0,0,0,-1,1574,351,0,0
357,673,0,0,0,0,0,0,0,0,0,-1,1581,351,0,0
364,673,0,0,0,0,0,0,0,0,0,-1,1588,351,0,0
371,673,0,0,0,0,0,0,0,0,0,-1,1595,351,0,0
378,673,0,0,0,0,0,0,0,0,0,-1,1602,351,0,0
385,673,0,0,0,0,0,0,0,0,0,-1,1609,351,0,0
392,673,0,0,0,0,0,0,0,0,0,-1,1616,351,0,0
399,673,0,0,0,0,0,0,0,0,0,-1,1623,351,0,0
406,673,0,0,0,0,0,0,0,0,0,-1,1630,351,0,0
413,673,0,0,0,0,0,0,0,0,0,-1,1637,351,0,0
420,673,0,0,0,0,0,0,0,0,0,-1,1644,351,0,0
427,673,0,0,0,0,0,0,0,0,0,-1,1651,351,0,0
434,673,0,0,0,0,0,0,0,0,0,-1,1658,351,0,0
441,673,0,0,0,0,0,0,0,0,0,-1,1665,351,0,0
448,673,0,0,0,0,0,0,0,0,0,-1,1672,351,0,0
455,673,0,0,0,0,0,0,0,0,0,-1,1679,351,0,0
462,673,0,0,0,0,0,0,0,0,0,-1,1686,351,0,0
469,673,0,0,0,0,0,0,0,0,0,-1,1693,351,0,0
476,673,0,0,0,0,0,0,0,0,0,-1,1700,351,0,0
483,673,0,0,0,0,0,0,0,0,0,-1,1707,351,0,0
490,673,0,0,0,0,0,0,0,0,0,-1,1714,351,0,0
497,673,0,0,0,0,0,0,0,0,0,-1,1721,351,0,0
504,673,0,0,0,0,0,0,0,0,0,-1,1728,351,0,0
511,673,0,0,0,0,0,0,0,0,0,-1,1735,351,0,0
518,673,0,0,0,0,0,0,0,0,0,-1,1742,351,0,0
525,673,0,0,0,0,0,0,0,0,0,-1,1749,351,0,0
532,673,0,0,0,0,0,0,0,0,0,-1,1756,351,0,0
539,673,0,0,0,0,0,0,0,0,0,-1,1763,351,0,0
546,673,0,0,0,0,0,0,0,0,0,-1,1770,351,0,0
553,673,0,0,0,0,0,0,0,0,0,-1,1777,351,0,0
560,673,0,0,0,0,0,0,0,0,0,-1,1784,351,0,0
567,673,0,0,0,0,0,0,0,0,0,-1,1791,351,0,0
574,673,0,0,0,0,0,0,0,0,0,-1,1798,351,0,0
581,673,0,0,0,0,0,0,0,0,0,-1,1805,351,0,0
588,673,0,0,0,0,0,0,0,0,0,-1,1812,351,0,0
595,673,0,0,0,0,0,0,0,0,0,-1,1819,351,0,0
602,673,0,0,0,0,0,0,0,0,0,-1,1826,351,0,0
609,673,0,0,0,0,0,0,0,0,0,-1,1833,351,0,0
616,673,0,0,0,0,0,0,0,0,0,-1,1840,351,0,0
623,673,0,0,0,0,0,0,0,0,0,-1,1847,351,0,0
630,673,0,0,0,0,0,0,0,0,0,-1,1854,351,0,0
637,673,0,0,0,0,0,0,0,0,0,-1,1861,351,0,0
644,673,0,0,0,0,0,0,0,0,0,-1,1868,351,0,0
651,673,0,0,0,0,0,0,0,0,0,-1,1875,351,0,0
658,673,0,0,0,0,0,0,0,0,0,-1,1882,351,0,0
665,673,0,0,0,0,0,0,0,0,0,-1,1889,351,0,0
672,673,0,0,0,0,0,0,0,0,0,-1,1896,351,0,0
679,673,0,0,0,0,0,0,0,0,0,-1,1903,351,0,0
686,673,0,0,0,0,0,0,0,0,0,-1,1910,351,0,0
693,673,0,0,0,0,0,0,0,0,0,-1,1917,351,0,0
700,673,0,0,0,0,0,0,0,0,0,-1,1924,351,0,0
707,673,0,0,0,0,0,0,0,0,0,-1,1931,351,0,0
714,673,0,0,0,0,0,0,0,0,0,-1,1938,351,0,0
721,673,0,0,0,0,0,0,0,0,0,-1,1945,351,0,0
728,673,0,0,0,0,0,0,0,0,0,-1,1952,351,0,0
735,673,0,0,0,0,0,0,0,0,0,-1,1959,351,0,0
742,673,0,0,0,0,0,0,0,0,0,-1,1966,351,0,0
749,673,0,0,0,0,0,0,0,0,0,-1,1973,351,0,0
756,673,0,0,0,0,0,0,0,0,0,-1,1980,351,0,0
763,673,0,0,0,0,0,0,0,0,0,-1,1987,351,0,0
770,673,0,0,0,0,0,0,0,0,0,-1,1994,351,0,0
777,673,0,0,0,0,0,0,0,0,0,-1,2001,351,0,0
784,673,0,0,0,0,0,0,0,0,0,-1,2008,351,0,0
791,673,0,0,0,0,0,0,0,0,0,-1,2015,351,0,0
798,673,0,0,0,0,0,0,0,0,0,-1,2022,351,0,0
805,673,0,0,0,0,0,0,0,0,0,-1,2029,351,0,0
812,673,0,0,0,0,0,0,0,0,0,-1,2036,351,0,0
-700,666,0,0,0,0,0,0,0,0,0,-1,524,358,0,0
-693,666,0,0,0,0,0,0,0,0,0,-1,531,358,0,0
-686,666,0,0,0,0,0,0,0,0,0,-1,538,358,0,0
-679,666,0,0,0,0,0,0,0,0,0,-1,545,358,0,0
-672,666,0,0,0,0,0,0,0,0,0,-1,552,358,0,0
-665,666,0,0,0,0,0,0,0,0,0,-1,559,358,0,0
-658,666,0,0,0,0,0,0,0,0,0,-1,566,358,0,0
-651,666,0,0,0,0,0,0,0,0,0,-1,573,358,0,0
-644,666,0,0,0,0,0,0,0,0,0,-1,580,358,0,0
-637,666,0,0,0,0,0,0,0,0,0,-1,587,358,0,0
-630,666,0,0,0,0,0,0,0,0,0,-1,594,358,0,0
-623,666,0,0,0,0,0,0,0,0,0,-1,601,358,0,0
-616,666,0,0,0,0,0,0,0,0,0,-1,608,358,0,0
-609,666,0,0,0,0,0,0,0,0,0,-1,615,358,0,0
-602,666,0,0,0,0,0,0,0,0,0,-1,622,358,0,0
-595,666,0,0,0,0,0,0,0,0,0,-1,629,358,0,0
-588,666,0,0,0,0,0,0,0,0,0,-1,636,358,0,0
-581,666,0,0,0,0,0,0,0,0,0,-1,643,358,0,0
-574,666,0,0,0,0,0,0,0,0,0,-1,650,358,0,0
-567,666,0,0,0,0,0,0,0,0,0,-1,657,358,0,0
-560,666,0,0,0,0,0,0,0,0,0,-1,664,358,0,0
-553,666,0,0,0,0,0,0,0,0,0,-1,671,358,0,0
-546,666,0,0,0,0,0,0,0,0,0,-1,678,358,0,0
-539,666,0,0,0,0,0,0,0,0,0,-1,685,358,0,0
-532,666,0,0,0,0,0,0,0,0,0,-1,692,358,0,0
-525,666,0,0,0,0,0,0,0,0,0,-1,699,358,0,0
-518,666,0,0,0,0,0,0,0,0,0,-1,706,358,0,0
-511,666,0,0,0,0,0,0,0,0,0,-1,713,358,0,0
-504,666,0,0,0,0,0,0,0,0,0,-1,720,358,0,0
-497,666,0,0,0,0,0,0,0,0,0,-1,727,358,0,0
-490,666,0,0,0,0,0,0,0,0,0,-1,734,358,0,0
-483,666,0,0,0,0,0,0,0,0,0,-1,741,358,0,0
-476,666,0,0,0,0,0,0,0,0,0,-1,748,358,0,0
-469,666,0,0,0,0,0,0,0,0,0,-1,755,358,0,0
-462,666,0,0,0,0,0,0,0,0,0,-1,762,358,0,0
-455,666,0,0,0,0,0,0,0,0,0,-1,769,358,0,0
-448,666,0,0,0,0,0,0,0,0,0,-1,776,358,0,0
-441,666,0,0,0,0,0,0,0,0,0,-1,783,358,0,0
-434,666,0,0,0,0,0,0,0,0,0,-1,790,358,0,0
-427,666,0,0,0,0,0,0,0,0,0,-1,797,358,0,0
-420,666,0,0,0,0,0,0,0,0,0,-1,804,358,0,0
-413,666,0,0,0,0,0,0,0,0,0,-1,811,358,0,0
-406,666,0,0,0,0,0,0,0,0,0,-1,818,358,0,0
-399,666,0,0,0,0,0,0,0,0,0,-1,825,358,0,0
-392,666,0,0,0,0,0,0,0,0,0,-1,832,358,0,0
-385,666,0,0,0,0,0,0,0,0,0,-1,839,358,0,0
-378,666,0,0,0,0,0,0,0,0,0,-1,846,358,0,0
-371,666,0,0,0,0,0,0,0,0,0,-1,853,358,0,0
-364,666,0,0,0,0,0,0,0,0,0,-1,860,358,0,0
-357,666,0,0,0,0,0,0,0,0,0,-1,867,358,0,0
-350,666,0,0,0,0,0,0,0,0,0,-1,874,358,0,0
-343,666,0,0,0,0,0,0,0,0,0,-1,881,358,0,0
-336,666,0,0,0,0,0,0,0,0,0,-1,888,358,0,0
-329,666,0,0,0,0,0,0,0,0,0,-1,895,358,0,0
-322,666,0,0,0,0,0,0,0,0,0,-1,902,358,0,0
-315,666,0,0,0,0,0,0,0,0,0,-1,909,358,0,0
-308,666,0,0,0,0,0,0,0,0,0,-1,916,358,0,0
-301,666,0,0,0,0,0,0,0,0,0,-1,923,358,0,0
-294,666,0,0,0,0,0,0,0,0,0,-1,930,358,0,0
-287,666,0,0,0,0,0,0,0,0,0,-1,937,358,0,0
-280,666,0,0,0,0,0,0,0,0,0,-1,944,358,0,0
-273,666,0,0,0,0,0,0,0,0,0,-1,951,358,0,0
-266,666,0,0,0,0,0,0,0,0,0,-1,958,358,0,0
-259,666,0,0,0,0,0,0,0,0,0,-1,965,358,0,0
-252,666,0,0,0,0,0,0,0,0,0,-1,972,358,0,0
-245,666,0,0,0,0,0,0,0,0,0,-1,979,358,0,0
-238,666,0,0,0,0,0,0,0,0,0,-1,986,358,0,0
-231,666,0,0,0,0,0,0,0,0,0,-1,993,358,0,0
-224,666,0,0,0,0,0,0,0,0,0,-1,1000,358,0,0
-217,666,0,0,0,0,0,0,0,0,0,-1,1007,358,0,0
-210,666,0,0,0,0,0,0,0,0,0,-1,1014,358,0,0
-203,666,0,0,0,0,0,0,0,0,0,-1,1021,358,0,0
-196,666,1.68958,-9.41406,0,0,0,0,0,0,0,-1,1028,358,1.68961,9.41406
-189,666,1.67078,-11.9919,0,0,0,0,0,0,0,-1,1035,358,1.67079,11.9919
-182,666,7.30676,-6.88602,0,0,0,0,0,0,0,-1,1042,358,7.30672,6.88601
-175,666,0.79187,-6.52982,0,0,0,0,0,0,0,-1,1049,358,0.791903,6.52981
-168,666,2.62659,-11.4366,0,0,0,0,0,0,0,-1,1056,358,2.6266,11.4366
-161,666,2.34302,-12.1108,0,0,0,0,0,0,0,-1,1063,358,2.34296,12.1108
-154,666,2.68201,-12.9164,0.0420107,-0.123749,-0.0142062,0.0432194,-0.124958,-0.0848787,0.100848,0.0451678,1070,358,2.68206,12.9163
-147,666,3.27344,-13.1083,0.0396519,-0.104449,-0.0150954,0.0412163,-0.106014,-0.103262,0.0877044,0.0446148,1077,358,3.27341,13.1083
-140,666,3.91931,-12.9698,0,0,0,0,0,0,0,-1,1084,358,3.91937,12.9699
-133,666,2.38757,-9.25732,0,0,0,0,0,0,0,-1,1091,358,2.38757,9.25731
-126,666,2.30334,-8.78662,0,0,0,0,0,0,0,-1,1098,358,2.3033,8.78661
-119,666,2.34509,-9.14749,0,0,0,0,0,0,0,-1,1105,358,2.34503,9.14748
-112,666,1.06787,-9.39847,0,0,0,0,0,0,0,-1,1112,358,1.06782,9.39847
-105,666,1.21655,-9.37408,0.0239252,0.000333568,-0.0146619,0.0309472,-0.00668847,-0.446652,0.0231848,0.0433585,1119,358,1.2166,9.3741
-98,666,1.39148,-9.32449,0.021119,0.0108603,-0.0135953,0.0305204,0.00145886,-0.605011,0.0198785,0.0461439,1126,358,1.39147,9.32449
-91,666,2.37573,-9.51257,0.0190101,0.0169442,-0.0122959,0.0303164,0.00563787,-0.743493,0.0186184,0.0459938,1133,358,2.37578,9.51259
-84,666,2.47095,-9.43518,0.018484,0.0148634,-0.00994775,0.0267848,0.00656256,-0.695391,0.0161206,0.044368,1140,358,2.4709,9.43517
-77,666,2.44141,-9.0556,0,0,0,0,0,0,0,-1,1147,358,2.44141,9.0556
-70,666,2.05957,-6.51086,0,0,0,0,0,0,0,-1,1154,358,2.05959,6.51088
-63,666,1.47485,-3.79593,0,0,0,0,0,0,0,-1,1161,358,1.47481,3.79593
-56,666,0.424683,-2.04132,0,0,0,0,0,0,0,-1,1168,358,0.424665,2.04132
-49,666,0.754395,-2.23169,0,0,0,0,0,0,0,-1,1175,358,0.754383,2.23169
-42,666,1.34473,-3.53897,0,0,0,0,0,0,0,-1,1182,358,1.34476,3.53896
-35,666,1.86047,-10.3866,0,0,0,0,0,0,0,-1,1189,358,1.86043,10.3866
-28,666,2.11475,-10.2958,0,0,0,0,0,0,0,-1,1196,358,2.11471,10.2958
-21,666,2.03979,-10.2254,-0.00669773,0.0716541,-0.0067505,0.0722314,-0.00727508,-1.48548,0.0507534,0.0335442,1203,358,2.03984,10.2254
-14,666,2.05493,-10.2668,-0.006391,0.0693126,-0.00870286,0.0703002,-0.0073786,-1.4578,0.04951,0.0246392,1210,358,2.05493,10.2668
-7,666,2.06372,-10.2713,-0.00606413,0.0657735,-0.0107157,0.0673378,-0.00762846,-1.42583,0.0476387,0.0159711,1217,358,2.06368,10.2713
0,666,2.07117,-10.2628,-0.00598022,0.0620982,-0.0125451,0.0643363,-0.00821837,-1.39425,0.0458764,0.0106423,1224,358,2.07118,10.2628
7,666,2.03784,-10.2959,-0.00557432,0.0574131,-0.014322,0.0605167,-0.00867793,-1.35739,0.0435264,0.0146125,1231,358,2.03779,10.2959
14,666,2.047,-10.3037,-0.00489297,0.052853,-0.015738,0.0568636,-0.00890363,-1.32127,0.0411989,0.0154247,1238,358,2.04694,10.3037
21,666,2.02856,-10.3237,-0.00434804,0.0488504,-0.0167134,0.0536655,-0.00916306,-1.2903,0.03919,0.0107875,1245,358,2.02859,10.3237
28,666,2.0083,-10.3434,-0.00338416,0.0448019,-0.017105,0.0502564,-0.00883861,-1.26211,0.0368059,0.0103271,1252,358,2.00832,10.3434
35,666,2.00171,-10.3215,-0.002334,0.0410903,-0.0170975,0.047014,-0.00825774,-1.23727,0.034427,0.00935143,1259,358,2.00174,10.3215
42,666,1.98755,-10.3246,-0.00107094,0.0382066,-0.0161726,0.0440086,-0.00687299,-1.22634,0.031878,0.0106686,1266,358,1.9875,10.3246
49,666,1.95886,-10.3436,0.000477513,0.0315342,-0.0154879,0.0379377,-0.00592597,-1.17875,0.027481,0.00935204,1273,358,1.95885,10.3436
56,666,1.95618,-10.3356,0.00189747,0.0295303,-0.0136593,0.0351425,-0.00371466,-1.18096,0.0247596,0.0103015,1280,358,1.9562,10.3356
63,666,1.92834,-10.3294,0.00356908,0.0270817,-0.011747,0.0319447,-0.00129394,-1.1783,0.0217406,0.0114717,1287,358,1.92836,10.3294
70,666,1.92566,-10.312,0.00511977,0.0248467,-0.00923827,0.0284974,0.00146903,-1.19446,0.018528,0.0120452,1294,358,1.9257,10.312
77,666,1.92896,-10.2976,0.00813394,0.0226504,-0.00698272,0.0254639,0.0053204,-1.18777,0.0155097,0.0158505,1301,358,1.92894,10.2976
84,666,1.8811,-10.281,0.0113697,0.0238056,-0.00761167,0.0274162,0.00775912,-1.12788,0.016318,0.0215662,1308,358,1.88109,10.2811
91,666,1.85693,-10.2664,0.0133821,0.0227263,-0.00724848,0.0266779,0.00943044,-1.07167,0.0156214,0.0205591,1315,358,1.8569,10.2664
98,666,1.86206,-10.2435,0.0139301,0.0217499,-0.00668905,0.025588,0.0100921,-1.04988,0.0148826,0.0176828,1322,358,1.86206,10.2435
105,666,1.83057,-10.1998,0.0141729,0.0208253,-0.00674952,0.0250237,0.00997449,-1.01434,0.0145461,0.0185898,1329,358,1.83055,10.1998
112,666,1.8075,-10.162,0.0141941,0.0215303,-0.00728492,0.0260185,0.00970592,-1.01863,0.0151824,0.022117,1336,358,1.80753,10.162
119,666,1.81946,-10.1139,0.0134003,0.0218445,-0.00816091,0.0268108,0.00843404,-1.02411,0.0158301,0.0240861,1343,358,1.81949,10.1139
126,666,1.83325,-10.0609,0.0120374,0.0216456,-0.00925306,0.0272674,0.00641564,-1.02484,0.0164618,0.0241268,1350,358,1.83324,10.0608
133,666,1.82043,-9.99408,0.00984675,0.0208373,-0.0101197,0.0268575,0.00382658,-1.03414,0.0167756,0.0228648,1357,358,1.82046,9.99409
140,666,1.76208,-10.0171,0.00699805,0.0191719,-0.0104337,0.0251644,0.00100553,-1.04946,0.0164513,0.0218543,1364,358,1.76203,10.0171
147,666,1.73608,-9.96756,0.00363422,0.016408,-0.010609,0.0224043,-0.00236204,-1.05635,0.0157825,0.01898,1371,358,1.73606,9.96757
154,666,1.76392,-9.83243,0.000168088,0.0133406,-0.00979957,0.0185616,-0.00505286,-1.08127,0.0143582,0.0166369,1378,358,1.76387,9.83243
161,666,1.84033,-9.79874,-0.00316741,0.00998981,-0.00892286,0.014497,-0.00767463,-1.10305,0.0130012,0.0245249,1385,358,1.84036,9.79874
168,666,1.88733,-9.8002,0,0,0,0,0,0,0,-1,1392,358,1.88728,9.8002
175,666,2.05042,-9.96878,0,0,0,0,0,0,0,-1,1399,358,2.05038,9.9688
182,666,2.60876,-5.17068,0,0,0,0,0,0,0,-1,1406,358,2.6088,5.17068
189,666,2.46973,-5.49979,0,0,0,0,0,0,0,-1,1413,358,2.46975,5.49979
196,666,2.32458,-5.23651,0,0,0,0,0,0,0,-1,1420,358,2.32461,5.23653
203,666,2.28064,-3.88004,0,0,0,0,0,0,0,-1,1427,358,2.28059,3.88003
210,666,3.02576,-5.83548,0,0,0,0,0,0,0,-1,1434,358,3.02581,5.83547
217,666,2.30444,-5.36011,0,0,0,0,0,0,0,-1,1441,358,2.30447,5.3601
224,666,1.82324,-6.03101,0,0,0,0,0,0,0,-1,1448,358,1.82322,6.031
231,666,2.21924,-8.24487,0,0,0,0,0,0,0,-1,1455,358,2.21923,8.24487
238,666,2.52429,-6.10568,0,0,0,0,0,0,0,-1,1462,358,2.52423,6.10567
245,666,4.53345,-1.38205,0,0,0,0,0,0,0,-1,1469,358,4.53349,1.38204
252,666,4.77405,-0.246979,0,0,0,0,0,0,0,-1,1476,358,4.77405,0.246993
259,666,4.83655,1.14087,0,0,0,0,0,0,0,-1,1483,358,4.83652,-1.14087
266,666,6.14148,0.749512,0,0,0,0,0,0,0,-1,1490,358,6.14144,-0.749519
273,666,2.61304,-1.53772,0,0,0,0,0,0,0,-1,1497,358,2.613,1.53773
280,666,8.70898,-0.836975,0,0,0,0,0,0,0,-1,1504,358,8.70894,0.836988
287,666,2.27039,-4.09058,0,0,0,0,0,0,0,-1,1511,358,2.27042,4.09059
294,666,9.87,-1.10745,0,0,0,0,0,0,0,-1,1518,358,9.87,1.10745
301,666,2.8064,-3.51654,0,0,0,0,0,0,0,-1,1525,358,2.80635,3.51654
308,666,1.08496,-1.87576,0,0,0,0,0,0,0,-1,1532,358,1.08491,1.87575
315,666,1.76294,-0.284027,0,0,0,0,0,0,0,-1,1539,358,1.76291,0.284016
322,666,0,0,0,0,0,0,0,0,0,-1,1546,358,0,0
329,666,0,0,0,0,0,0,0,0,0,-1,1553,358,0,0
336,666,0,0,0,0,0,0,0,0,0,-1,1560,358,0,0
343,666,0,0,0,0,0,0,0,0,0,-1,1567,358,0,0
350,666,0,0,0,0,0,0,0,0,0,-1,1574,358,0,0
357,666,0,0,0,0,0,0,0,0,0,-1,1581,358,0,0
364,666,0,0,0,0,0,0,0,0,0,-1,1588,358,0,0
371,666,0,0,0,0,0,0,0,0,0,-1,1595,358,0,0
378,666,0,0,0,0,0,0,0,0,0,-1,1602,358,0,0
385,666,0,0,0,0,0,0,0,0,0,-1,1609,358,0,0
392,666,0,0,0,0,0,0,0,0,0,-1,1616,358,0,0
399,666,0,0,0,0,0,0,0,0,0,-1,1623,358,0,0
406,666,0,0,0,0,0,0,0,0,0,-1,1630,358,0,0
413,666,0,0,0,0,0,0,0,0,0,-1,1637,358,0,0
420,666,0,0,0,0,0,0,0,0,0,-1,1644,358,0,0
427,666,0,0,0,0,0,0,0,0,0,-1,1651,358,0,0
434,666,0,0,0,0,0,0,0,0,0,-1,1658,358,0,0
441,666,0,0,0,0,0,0,0,0,0,-1,1665,358,0,0
448,666,0,0,0,0,0,0,0,0,0,-1,1672,358,0,0
455,666,0,0,0,0,0,0,0,0,0,-1,1679,358,0,0
462,666,0,0,0,0,0,0,0,0,0,-1,1686,358,0,0
469,666,0,0,0,0,0,0,0,0,0,-1,1693,358,0,0
476,666,0,0,0,0,0,0,0,0,0,-1,1700,358,0,0
483,666,0,0,0,0,0,0,0,0,0,-1,1707,358,0,0
490,666,0,0,0,0,0,0,0,0,0,-1,1714,358,0,0
497,666,0,0,0,0,0,0,0,0,0,-1,1721,358,0,0
504,666,0,0,0,0,0,0,0,0,0,-1,1728,358,0,0
511,666,0,0,0,0,0,0,0,0,0,-1,1735,358,0,0
518,666,0,0,0,0,0,0,0,0,0,-1,1742,358,0,0
525,666,0,0,0,0,0,0,0,0,0,-1,1749,358,0,0
532,666,0,0,0,0,0,0,0,0,0,-1,1756,358,0,0
539,666,0,0,0,0,0,0,0,0,0,-1,1763,358,0,0
546,666,0,0,0,0,0,0,0,0,0,-1,1770,358,0,0
553,666,0,0,0,0,0,0,0,0,0,-1,1777,358,0,0
560,666,0,0,0,0,0,0,0,0,0,-1,1784,358,0,0
567,666,0,0,0,0,0,0,0,0,0,-1,1791,358,0,0
574,666,0,0,0,0,0,0,0,0,0,-1,1798,358,0,0
581,666,0,0,0,0,0,0,0,0,0,-1,1805,358,0,0
588,666,0,0,0,0,0,0,0,0,0,-1,1812,358,0,0
595,666,0,0,0,0,0,0,0,0,0,-1,1819,358,0,0
602,666,0,0,0,0,0,0,0,0,0,-1,1826,358,0,0
609,666,0,0,0,0,0,0,0,0,0,-1,1833,358,0,0
616,666,0,0,0,0,0,0,0,0,0,-1,1840,358,0,0
623,666,0,0,0,0,0,0,0,0,0,-1,1847,358,0,0
630,666,0,0,0,0,0,0,0,0,0,-1,1854,358,0,0
637,666,0,0,0,0,0,0,0,0,0,-1,1861,358,0,0
644,666,0,0,0,0,0,0,0,0,0,-1,1868,358,0,0
651,666,0,0,0,0,0,0,0,0,0,-1,1875,358,0,0
658,666,0,0,0,0,0,0,0,0,0,-1,1882,358,0,0
665,666,0,0,0,0,0,0,0,0,0,-1,1889,358,0,0
672,666,0,0,0,0,0,0,0,0,0,-1,1896,358,0,0
679,666,0,0,0,0,0,0,0,0,0,-1,1903,358,0,0
686,666,0,0,0,0,0,0,0,0,0,-1,1910,358,0,0
693,666,0,0,0,0,0,0,0,0,0,-1,1917,358,0,0
700,666,0,0,0,0,0,0,0,0,0,-1,1924,358,0,0
707,666,0,0,0,0,0,0,0,0,0,-1,1931,358,0,0
714,666,0,0,0,0,0,0,0,0,0,-1,1938,358,0,0
721,666,0,0,0,0,0,0,0,0,0,-1,1945,358,0,0
728,666,0,0,0,0,0,0,0,0,0,-1,1952,358,0,0
735,666,0,0,0,0,0,0,0,0,0,-1,1959,358,0,0
742,666,0,0,0,0,0,0,0,0,0,-1,1966,358,0,0
749,666,0,0,0,0,0,0,0,0,0,-1,1973,358,0,0
756,666,0,0,0,0,0,0,0,0,0,-1,1980,358,0,0
763,666,0,0,0,0,0,0,0,0,0,-1,1987,358,0,0
770,666,0,0,0,0,0,0,0,0,0,-1,1994,358,0,0
777,666,0,0,0,0,0,0,0,0,0,-1,2001,358,0,0
784,666,0,0,0,0,0,0,0,0,0,-1,2008,358,0,0
791,666,0,0,0,0,0,0,0,0,0,-1,2015,358,0,0
798,666,0,0,0,0,0,0,0,0,0,-1,2022,358,0,0
805,666,0,0,0,0,0,0,0,0,0,-1,2029,358,0,0
812,666,0,0,0,0,0,0,0,0,0,-1,2036,358,0,0
-700,659,0,0,0,0,0,0,0,0,0,-1,524,365,0,0
-693,659,0,0,0,0,0,0,0,0,0,-1,531,365,0,0
-686,659,0,0,0,0,0,0,0,0,0,-1,538,365,0,0
-679,659,0,0,0,0,0,0,0,0,0,-1,545,365,0,0
-672,659,0,0,0,0,0,0,0,0,0,-1,552,365,0,0
-665,659,0,0,0,0,0,0,0,0,0,-1,559,365,0,0
-658,659,0,0,0,0,0,0,0,0,0,-1,566,365,0,0
-651,659,0,0,0,0,0,0,0,0,0,-1,573,365,0,0
-644,659,0,0,0,0,0,0,0,0,0,-1,580,365,0,0
-637,659,0,0,0,0,0,0,0,0,0,-1,587,365,0,0
-630,659,0,0,0,0,0,0,0,0,0,-1,594,365,0,0
-623,659,0,0,0,0,0,0,0,0,0,-1,601,365,0,0
-616,659,0,0,0,0,0,0,0,0,0,-1,608,365,0,0
-609,659,0,0,0,0,0,0,0,0,0,-1,615,365,0,0
-602,659,0,0,0,0,0,0,0,0,0,-1,622,365,0,0
-595,659,0,0,0,0,0,0,0,0,0,-1,629,365,0,0
-588,659,0,0,0,0,0,0,0,0,0,-1,636,365,0,0
-581,659,0,0,0,0,0,0,0,0,0,-1,643,365,0,0
-574,659,0,0,0,0,0,0,0,0,0,-1,650,365,0,0
-567,659,0,0,0,0,0,0,0,0,0,-1,657,365,0,0
-560,659,0,0,0,0,0,0,0,0,0,-1,664,365,0,0
-553,659,0,0,0,0,0,0,0,0,0,-1,671,365,0,0
-546,659,0,0,0,0,0,0,0,0,0,-1,678,365,0,0
-539,659,0,0,0,0,0,0,0,0,0,-1,685,365,0,0
-532,659,0,0,0,0,0,0,0,0,0,-1,692,365,0,0
-525,659,0,0,0,0,0,0,0,0,0,-1,699,365,0,0
-518,659,0,0,0,0,0,0,0,0,0,-1,706,365,0,0
-511,659,0,0,0,0,0,0,0,0,0,-1,713,365,0,0
-504,659,0,0,0,0,0,0,0,0,0,-1,720,365,0,0
-497,659,0,0,0,0,0,0,0,0,0,-1,727,365,0,0
-490,659,0,0,0,0,0,0,0,0,0,-1,734,365,0,0
-483,659,0,0,0,0,0,0,0,0,0,-1,741,365,0,0
-476,659,0,0,0,0,0,0,0,0,0,-1,748,365,0,0
-469,659,0,0,0,0,0,0,0,0,0,-1,755,365,0,0
-462,659,0,0,0,0,0,0,0,0,0,-1,762,365,0,0
-455,659,0,0,0,0,0,0,0,0,0,-1,769,365,0,0
-448,659,0,0,0,0,0,0,0,0,0,-1,776,365,0,0
-441,659,0,0,0,0,0,0,0,0,0,-1,783,365,0,0
-434,659,0,0,0,0,0,0,0,0,0,-1,790,365,0,0
-427,659,0,0,0,0,0,0,0,0,0,-1,797,365,0,0
-420,659,0,0,0,0,0,0,0,0,0,-1,804,365,0,0
-413,659,0,0,0,0,0,0,0,0,0,-1,811,365,0,0
-406,659,0,0,0,0,0,0,0,0,0,-1,818,365,0,0
-399,659,0,0,0,0,0,0,0,0,0,-1,825,365,0,0
-392,659,0,0,0,0,0,0,0,0,0,-1,832,365,0,0
-385,659,0,0,0,0,0,0,0,0,0,-1,839,365,0,0
-378,659,0,0,0,0,0,0,0,0,0,-1,846,365,0,0
-371,659,0,0,0,0,0,0,0,0,0,-1,853,365,0,0
-364,659,0,0,0,0,0,0,0,0,0,-1,860,365,0,0
-357,659,0,0,0,0,0,0,0,0,0,-1,867,365,0,0
-350,659,0,0,0,0,0,0,0,0,0,-1,874,365,0,0
-343,659,0,0,0,0,0,0,0,0,0,-1,881,365,0,0
-336,659,0,0,0,0,0,0,0,0,0,-1,888,365,0,0
-329,659,0,0,0,0,0,0,0,0,0,-1,895,365,0,0
-322,659,0,0,0,0,0,0,0,0,0,-1,902,365,0,0
-315,659,0,0,0,0,0,0,0,0,0,-1,909,365,0,0
-308,659,0,0,0,0,0,0,0,0,0,-1,916,365,0,0
-301,659,0,0,0,0,0,0,0,0,0,-1,923,365,0,0
-294,659,0,0,0,0,0,0,0,0,0,-1,930,365,0,0
-287,659,0,0,0,0,0,0,0,0,0,-1,937,365,0,0
-280,659,0,0,0,0,0,0,0,0,0,-1,944,365,0,0
-273,659,0,0,0,0,0,0,0,0,0,-1,951,365,0,0
-266,659,0,0,0,0,0,0,0,0,0,-1,958,365,0,0
-259,659,0,0,0,0,0,0,0,0,0,-1,965,365,0,0
-252,659,0,0,0,0,0,0,0,0,0,-1,972,365,0,0
-245,659,0,0,0,0,0,0,0,0,0,-1,979,365,0,0
-238,659,0,0,0,0,0,0,0,0,0,-1,986,365,0,0
-231,659,0,0,0,0,0,0,0,0,0,-1,993,365,0,0
-224,659,0,0,0,0,0,0,0,0,0,-1,1000,365,0,0
-217,659,1.62122,-1.10727,0,0,0,0,0,0,0,-1,1007,365,1.62123,1.10728
-210,659,0.368042,-7.90527,0,0,0,0,0,0,0,-1,1014,365,0.368058,7.90528
-203,659,2.09253,-9.38916,0,0,0,0,0,0,0,-1,1021,365,2.09255,9.38917
-196,659,2.74927,-10.1771,0,0,0,0,0,0,0,-1,1028,365,2.74931,10.1771
-189,659,1.65295,-11.0335,0,0,0,0,0,0,0,-1,1035,365,1.65292,11.0335
-182,659,2.13037,-11.0247,0,0,0,0,0,0,0,-1,1042,365,2.1304,11.0248
-175,659,2.59998,-10.4136,0,0,0,0,0,0,0,-1,1049,365,2.59993,10.4136
-168,659,2.50317,-10.8242,0.0345705,-0.116919,-0.0110769,0.0353762,-0.117725,-0.072605,0.092557,0.0434533,1056,365,2.50313,10.8242
-161,659,2.35388,-11.253,0.033295,-0.108534,-0.0101125,0.0340124,-0.109252,-0.0708232,0.0864321,0.045656,1063,365,2.35384,11.253
-154,659,2.65515,-11.7267,0.0309617,-0.096181,-0.0101757,0.031771,-0.0969903,-0.0793605,0.0774539,0.0459285,1070,365,2.65516,11.7267
-147,659,3.12146,-11.9488,0.0289746,-0.08132,-0.0108331,0.0300285,-0.0823739,-0.0969852,0.0672003,0.0432514,1077,365,3.12147,11.9488
-140,659,3.59448,-11.8786,0,0,0,0,0,0,0,-1,1084,365,3.59447,11.8786
-133,659,2.14063,-8.7933,0,0,0,0,0,0,0,-1,1091,365,2.14063,8.79331
-126,659,2.13159,-8.99045,0.0214277,-0.0347745,-0.0111474,0.023558,-0.0369048,-0.188825,0.0351905,0.0465086,1098,365,2.13159,8.99044
-119,659,2.18982,-9.27802,0.0191252,-0.021324,-0.0114364,0.0221347,-0.0243336,-0.257321,0.0268385,0.0447212,1105,365,2.18985,9.27801
-112,659,1.66699,-9.15393,0.0177504,-0.00912234,-0.0113275,0.0218881,-0.01326,-0.350222,0.0204956,0.0402447,1112,365,1.66702,9.15393
-105,659,1.83594,-9.26956,0.0161029,0.000386688,-0.0106195,0.0214555,-0.0049659,-0.466871,0.0162145,0.038994,1119,365,1.83596,9.26955
-98,659,1.81384,-9.47675,0.0138605,0.00848093,-0.0098852,0.0214153,0.000926096,-0.652563,0.0139784,0.0412868,1126,365,1.81389,9.47674
-91,659,2.29736,-9.60663,0.0121363,0.0131817,-0.0089943,0.0216684,0.0036495,-0.814421,0.0133959,0.040651,1133,365,2.29735,9.60663
-84,659,2.31982,-9.62213,0.0117452,0.0115254,-0.0072867,0.0189228,0.00434776,-0.777859,0.0114446,0.0388224,1140,365,2.31982,9.62214
-77,659,2.19812,-9.64093,0,0,0,0,0,0,0,-1,1147,365,2.19813,9.64092
-70,659,2.17981,-9.60895,0,0,0,0,0,0,0,-1,1154,365,2.17977,9.60895
-63,659,2.07349,-9.12732,0,0,0,0,0,0,0,-1,1161,365,2.07352,9.12733
-56,659,2.11182,-9.91541,0,0,0,0,0,0,0,-1,1168,365,2.11178,9.91541
-49,659,2.06226,-10.048,0,0,0,0,0,0,0,-1,1175,365,2.06225,10.048
-42,659,1.82788,-10.3875,0,0,0,0,0,0,0,-1,1182,365,1.82792,10.3875
-35,659,2.03784,-10.2451,-0.003744,0.0429899,0.000730386,0.0430013,-0.00375541,1.55517,0.0299978,0.0432448,1189,365,2.03787,10.245
-28,659,2.09009,-10.2214,-0.00398303,0.0458012,-0.00240098,0.0459167,-0.00409856,-1.52272,0.0320648,0.0167694,1196,365,2.09013,10.2214
-21,659,2.06995,-10.2189,-0.00404082,0.046904,-0.00373021,0.0471757,-0.0043125,-1.49809,0.0329821,0.0112862,1203,365,2.06998,10.2189
-14,659,2.04895,-10.2643,-0.00392305,0.0465692,-0.00510063,0.0470793,-0.00443315,-1.47112,0.0329634,0.00863334,1210,365,2.04898,10.2643
-7,659,2.04285,-10.275,-0.0038158,0.0451762,-0.00653777,0.0460336,-0.00467323,-1.44039,0.0323595,0.00826053,1217,365,2.04279,10.275
0,659,2.03918,-10.2844,-0.00391401,0.0434858,-0.00789218,0.0447653,-0.00519354,-1.41007,0.0317168,0.0075306,1224,365,2.03923,10.2844
7,659,2.03284,-10.2937,-0.00372336,0.0408317,-0.00921138,0.0426609,-0.00555263,-1.37476,0.0304607,0.00755107,1231,365,2.03285,10.2937
14,659,2.03101,-10.3202,-0.00331807,0.03807,-0.0103251,0.0405028,-0.00575088,-1.3394,0.0291088,0.0105808,1238,365,2.03106,10.3202
21,659,2.02747,-10.3346,-0.00301009,0.0355405,-0.0111086,0.0385124,-0.005982,-1.30939,0.0278837,0.0107146,1245,365,2.02745,10.3346
28,659,2.01978,-10.3389,-0.00239612,0.0328424,-0.0114952,0.0362606,-0.00581438,-1.28176,0.0263268,0.00960099,1252,365,2.01979,10.3389
35,659,2.00134,-10.3457,-0.00173513,0.0302948,-0.011613,0.0340621,-0.00550249,-1.2571,0.024747,0.00969598,1259,365,2.00132,10.3457
42,659,1.97668,-10.3557,-0.000901126,0.0282609,-0.0110504,0.0319752,-0.00461541,-1.24654,0.0230101,0.010228,1266,365,1.97663,10.3558
49,659,1.96033,-10.3499,0.000123393,0.0232596,-0.0106906,0.0274431,-0.00406002,-1.1978,0.019788,0.0105272,1273,365,1.96028,10.3499
56,659,1.95654,-10.34,0.00103398,0.0218104,-0.00954912,0.0255325,-0.00268811,-1.19913,0.0179848,0.0137778,1280,365,1.95656,10.34
63,659,1.95544,-10.3531,0.00213534,0.0199856,-0.00832586,0.0232661,-0.00114519,-1.19546,0.0159062,0.0156596,1287,365,1.95548,10.3531
70,659,1.94214,-10.3296,0.0032085,0.0182664,-0.00663366,0.0207719,0.000702986,-1.20966,0.0136197,0.0168157,1294,365,1.9422,10.3296
77,659,1.91638,-10.2964,0.00526359,0.0164968,-0.00508192,0.0184546,0.00330574,-1.20306,0.0113626,0.0174414,1301,365,1.91636,10.2964
84,659,1.91162,-10.2939,0.00744104,0.016861,-0.00543366,0.0193419,0.00496015,-1.14249,0.0116002,0.0126339,1308,365,1.9116,10.2939
91,659,1.89746,-10.2658,0.00880549,0.0158478,-0.00508621,0.0185128,0.00614052,-1.08817,0.0108883,0.0107815,1315,365,1.8975,10.2658
98,659,1.90308,-10.2477,0.00919548,0.0149377,-0.00459512,0.0174849,0.00664825,-1.06463,0.010191,0.00750127,1322,365,1.90306,10.2477
105,659,1.9032,-10.2069,0.00936643,0.014085,-0.0045343,0.0168371,0.00661434,-1.02528,0.00979502,0.00866205,1329,365,1.90317,10.2069
112,659,1.89075,-10.1709,0.00936226,0.0143767,-0.00476665,0.0172553,0.00648367,-1.02751,0.0100644,0.0105082,1336,365,1.89073,10.1709
119,659,1.88379,-10.129,0.00882112,0.014389,-0.00518032,0.0174861,0.00572407,-1.03196,0.0102942,0.0117168,1343,365,1.88373,10.129
126,659,1.86877,-10.0928,0.00792399,0.0141055,-0.00575663,0.0175486,0.00448086,-1.03176,0.0105282,0.0125706,1350,365,1.86878,10.0928
133,659,1.83447,-10.0568,0.00647707,0.0134304,-0.00620111,0.017063,0.00284452,-1.04089,0.0105557,0.0116436,1357,365,1.83453,10.0568
140,659,1.81433,-10.0099,0.00463484,0.0122383,-0.0062856,0.0157825,0.0010907,-1.05738,0.0101776,0.00903409,1364,365,1.81439,10.0099
147,659,1.81555,-9.95319,0.0024444,0.0103251,-0.00638181,0.013885,-0.00111551,-1.06197,0.00965002,0.00786585,1371,365,1.81552,9.95318
154,659,1.80969,-9.87714,0.000213826,0.00819208,-0.0057701,0.0112177,-0.00281183,-1.08784,0.00857092,0.00843738,1378,365,1.80965,9.87715
161,659,1.8252,-9.83218,-0.00193401,0.00586097,-0.00507533,0.00836265,-0.00443569,-1.11284,0.00750417,0.00973232,1385,365,1.82521,9.83219
168,659,1.85193,-9.81131,-0.00372569,0.00396223,-0.00401561,0.00567715,-0.00544061,-1.16718,0.00641933,0.0184767,1392,365,1.85199,9.81131
175,659,1.8623,-9.78314,-0.00528647,0.00192672,-0.00304753,0.00304188,-0.00640163,-1.22001,0.00556605,0.0424655,1399,365,1.86231,9.78314
182,659,1.74316,-9.6853,0,0,0,0,0,0,0,-1,1406,365,1.74322,9.6853
189,659,1.79944,-9.55063,0,0,0,0,0,0,0,-1,1413,365,1.79947,9.55064
196,659,1.77747,-9.25302,0,0,0,0,0,0,0,-1,1420,365,1.77752,9.25304
203,659,1.75964,-9.3588,0,0,0,0,0,0,0,-1,1427,365,1.75961,9.35879
210,659,1.73535,-9.43826,0,0,0,0,0,0,0,-1,1434,365,1.7353,9.43827
217,659,1.83472,-9.15436,0,0,0,0,0,0,0,-1,1441,365,1.8347,9.15436
224,659,1.80713,-9.20975,0,0,0,0,0,0,0,-1,1448,365,1.80718,9.20974
231,659,1.90979,-9.14536,0,0,0,0,0,0,0,-1,1455,365,1.90983,9.14536
238,659,2.20813,-9.0777,0,0,0,0,0,0,0,-1,1462,365,2.20817,9.0777
245,659,1.95728,-9.17645,0,0,0,0,0,0,0,-1,1469,365,1.9573,9.17645
252,659,1.3894,-9.6232,0,0,0,0,0,0,0,-1,1476,365,1.38937,9.6232
259,659,2.33069,-3.36703,0,0,0,0,0,0,0,-1,1483,365,2.33073,3.36702
266,659,1.6156,-8.58194,0,0,0,0,0,0,0,-1,1490,365,1.61561,8.58193
273,659,1.71765,-8.33908,0,0,0,0,0,0,0,-1,1497,365,1.71761,8.33908
280,659,1.5481,-7.45435,0,0,0,0,0,0,0,-1,1504,365,1.54807,7.45436
287,659,1.5365,-6.8165,0,0,0,0,0,0,0,-1,1511,365,1.53655,6.81648
294,659,3.33215,-4.4032,0,0,0,0,0,0,0,-1,1518,365,3.33215,4.40321
301,659,3.15308,-3.47482,0,0,0,0,0,0,0,-1,1525,365,3.15309,3.47482
308,659,2.84375,-1.98047,0,0,0,0,0,0,0,-1,1532,365,2.84371,1.98048
315,659,2.89124,-1.09567,0,0,0,0,0,0,0,-1,1539,365,2.89121,1.09566
322,659,2.88672,-0.266174,0,0,0,0,0,0,0,-1,1546,365,2.88671,0.266163
329,659,5.20154,-4.3071,0,0,0,0,0,0,0,-1,1553,365,5.20158,4.3071
336,659,2.09851,-1.17941,0,0,0,0,0,0,0,-1,1560,365,2.09857,1.17942
343,659,0,0,0,0,0,0,0,0,0,-1,1567,365,0,0
350,659,0,0,0,0,0,0,0,0,0,-1,1574,365,0,0
357,659,0,0,0,0,0,0,0,0,0,-1,1581,365,0,0
364,659,0,0,0,0,0,0,0,0,0,-1,1588,365,0,0
371,659,0,0,0,0,0,0,0,0,0,-1,1595,365,0,0
378,659,0,0,0,0,0,0,0,0,0,-1,1602,365,0,0
385,659,0,0,0,0,0,0,0,0,0,-1,1609,365,0,0
392,659,0,0,0,0,0,0,0,0,0,-1,1616,365,0,0
399,659,0,0,0,0,0,0,0,0,0,-1,1623,365,0,0
406,659,0,0,0,0,0,0,0,0,0,-1,1630,365,0,0
413,659,0,0,0,0,0,0,0,0,0,-1,1637,365,0,0
420,659,0,0,0,0,0,0,0,0,0,-1,1644,365,0,0
427,659,0,0,0,0,0,0,0,0,0,-1,1651,365,0,0
434,659,0,0,0,0,0,0,0,0,0,-1,1658,365,0,0
441,659,0,0,0,0,0,0,0,0,0,-1,1665,365,0,0
448,659,0,0,0,0,0,0,0,0,0,-1,1672,365,0,0
455,659,0,0,0,0,0,0,0,0,0,-1,1679,365,0,0
462,659,0,0,0,0,0,0,0,0,0,-1,1686,365,0,0
469,659,0,0,0,0,0,0,0,0,0,-1,1693,365,0,0
476,659,0,0,0,0,0,0,0,0,0,-1,1700,365,0,0
483,659,0,0,0,0,0,0,0,0,0,-1,1707,365,0,0
490,659,0,0,0,0,0,0,0,0,0,-1,1714,365,0,0
497,659,0,0,0,0,0,0,0,0,0,-1,1721,365,0,0
504,659,0,0,0,0,0,0,0,0,0,-1,1728,365,0,0
511,659,0,0,0,0,0,0,0,0,0,-1,1735,365,0,0
518,659,0,0,0,0,0,0,0,0,0,-1,1742,365,0,0
525,659,0,0,0,0,0,0,0,0,0,-1,1749,365,0,0
532,659,0,0,0,0,0,0,0,0,0,-1,1756,365,0,0
539,659,0,0,0,0,0,0,0,0,0,-1,1763,365,0,0
546,659,0,0,0,0,0,0,0,0,0,-1,1770,365,0,0
553,659,0,0,0,0,0,0,0,0,0,-1,1777,365,0,0
560,659,0,0,0,0,0,0,0,0,0,-1,1784,365,0,0
567,659,0,0,0,0,0,0,0,0,0,-1,1791,365,0,0
574,659,0,0,0,0,0,0,0,0,0,-1,1798,365,0,0
581,659,0,0,0,0,0,0,0,0,0,-1,1805,365,0,0
588,659,0,0,0,0,0,0,0,0,0,-1,1812,365,0,0
595,659,0,0,0,0,0,0,0,0,0,-1,1819,365,0,0
602,659,0,0,0,0,0,0,0,0,0,-1,1826,365,0,0
609,659,0,0,0,0,0,0,0,0,0,-1,1833,365,0,0
616,659,0,0,0,0,0,0,0,0,0,-1,1840,365,0,0
623,659,0,0,0,0,0,0,0,0,0,-1,1847,365,0,0
630,659,0,0,0,0,0,0,0,0,0,-1,1854,365,0,0
637,659,0,0,0,0,0,0,0,0,0,-1,1861,365,0,0
644,659,0,0,0,0,0,0,0,0,0,-1,1868,365,0,0
651,659,0,0,0,0,0,0,0,0,0,-1,1875,365,0,0
658,659,0,0,0,0,0,0,0,0,0,-1,1882,365,0,0
665,659,0,0,0,0,0,0,0,0,0,-1,1889,365,0,0
672,659,0,0,0,0,0,0,0,0,0,-1,1896,365,0,0
679,659,0,0,0,0,0,0,0,0,0,-1,1903,365,0,0
686,659,0,0,0,0,0,0,0,0,0,-1,1910,365,0,0
693,659,0,0,0,0,0,0,0,0,0,-1,1917,365,0,0
700,659,0,0,0,0,0,0,0,0,0,-1,1924,365,0,0
707,659,0,0,0,0,0,0,0,0,0,-1,1931,365,0,0
714,659,0,0,0,0,0,0,0,0,0,-1,1938,365,0,0
721,659,0,0,0,0,0,0,0,0,0,-1,1945,365,0,0
728,659,0,0,0,0,0,0,0,0,0,-1,1952,365,0,0
735,659,0,0,0,0,0,0,0,0,0,-1,1959,365,0,0
742,659,0,0,0,0,0,0,0,0,0,-1,1966,365,0,0
749,659,0,0,0,0,0,0,0,0,0,-1,1973,365,0,0
756,659,0,0,0,0,0,0,0,0,0,-1,1980,365,0,0
763,659,0,0,0,0,0,0,0,0,0,-1,1987,365,0,0
770,659,0,0,0,0,0,0,0,0,0,-1,1994,365,0,0
777,659,0,0,0,0,0,0,0,0,0,-1,2001,365,0,0
784,659,0,0,0,0,0,0,0,0,0,-1,2008,365,0,0
791,659,0,0,0,0,0,0,0,0,0,-1,2015,365,0,0
798,659,0,0,0,0,0,0,0,0,0,-1,2022,365,0,0
805,659,0,0,0,0,0,0,0,0,0,-1,2029,365,0,0
812,659,0,0,0,0,0,0,0,0,0,-1,2036,365,0,0
-700,652,0,0,0,0,0,0,0,0,0,-1,524,372,0,0
-693,652,0,0,0,0,0,0,0,0,0,-1,531,372,0,0
-686,652,0,0,0,0,0,0,0,0,0,-1,538,372,0,0
-679,652,0,0,0,0,0,0,0,0,0,-1,545,372,0,0
-672,652,0,0,0,0,0,0,0,0,0,-1,552,372,0,0
-665,652,0,0,0,0,0,0,0,0,0,-1,559,372,0,0
-658,652,0,0,0,0,0,0,0,0,0,-1,566,372,0,0
-651,652,0,0,0,0,0,0,0,0,0,-1,573,372,0,0
-644,652,0,0,0,0,0,0,0,0,0,-1,580,372,0,0
-637,652,0,0,0,0,0,0,0,0,0,-1,587,372,0,0
-630,652,0,0,0,0,0,0,0,0,0,-1,594,372,0,0
-623,652,0,0,0,0,0,0,0,0,0,-1,601,372,0,0
-616,652,0,0,0,0,0,0,0,0,0,-1,608,372,0,0
-609,652,0,0,0,0,0,0,0,0,0,-1,615,372,0,0
-602,652,0,0,0,0,0,0,0,0,0,-1,622,372,0,0
-595,652,0,0,0,0,0,0,0,0,0,-1,629,372,0,0
-588,652,0,0,0,0,0,0,0,0,0,-1,636,372,0,0
-581,652,0,0,0,0,0,0,0,0,0,-1,643,372,0,0
-574,652,0,0,0,0,0,0,0,0,0,-1,650,372,0,0
-567,652,0,0,0,0,0,0,0,0,0,-1,657,372,0,0
-560,652,0,0,0,0,0,0,0,0,0,-1,664,372,0,0
-553,652,0,0,0,0,0,0,0,0,0,-1,671,372,0,0
-546,652,0,0,0,0,0,0,0,0,0,-1,678,372,0,0
-539,652,0,0,0,0,0,0,0,0,0,-1,685,372,0,0
-532,652,0,0,0,0,0,0,0,0,0,-1,692,372,0,0
-525,652,0,0,0,0,0,0,0,0,0,-1,699,372,0,0
-518,652,0,0,0,0,0,0,0,0,0,-1,706,372,0,0
-511,652,0,0,0,0,0,0,0,0,0,-1,713,372,0,0
-504,652,0,0,0,0,0,0,0,0,0,-1,720,372,0,0
-497,652,0,0,0,0,0,0,0,0,0,-1,727,372,0,0
-490,652,0,0,0,0,0,0,0,0,0,-1,734,372,0,0
-483,652,0,0,0,0,0,0,0,0,0,-1,741,372,0,0
-476,652,0,0,0,0,0,0,0,0,0,-1,748,372,0,0
-469,652,0,0,0,0,0,0,0,0,0,-1,755,372,0,0
-462,652,0,0,0,0,0,0,0,0,0,-1,762,372,0,0
-455,652,0,0,0,0,0,0,0,0,0,-1,769,372,0,0
-448,652,0,0,0,0,0,0,0,0,0,-1,776,372,0,0
-441,652,0,0,0,0,0,0,0,0,0,-1,783,372,0,0
-434,652,0,0,0,0,0,0,0,0,0,-1,790,372,0,0
-427,652,0,0,0,0,0,0,0,0,0,-1,797,372,0,0
-420,652,0,0,0,0,0,0,0,0,0,-1,804,372,0,0
-413,652,0,0,0,0,0,0,0,0,0,-1,811,372,0,0
-406,652,0,0,0,0,0,0,0,0,0,-1,818,372,0,0
-399,652,0,0,0,0,0,0,0,0,0,-1,825,372,0,0
-392,652,0,0,0,0,0,0,0,0,0,-1,832,372,0,0
-385,652,0,0,0,0,0,0,0,0,0,-1,839,372,0,0
-378,652,0,0,0,0,0,0,0,0,0,-1,846,372,0,0
-371,652,0,0,0,0,0,0,0,0,0,-1,853,372,0,0
-364,652,0,0,0,0,0,0,0,0,0,-1,860,372,0,0
-357,652,0,0,0,0,0,0,0,0,0,-1,867,372,0,0
-350,652,0,0,0,0,0,0,0,0,0,-1,874,372,0,0
-343,652,0,0,0,0,0,0,0,0,0,-1,881,372,0,0
-336,652,0,0,0,0,0,0,0,0,0,-1,888,372,0,0
-329,652,0,0,0,0,0,0,0,0,0,-1,895,372,0,0
-322,652,0,0,0,0,0,0,0,0,0,-1,902,372,0,0
-315,652,0,0,0,0,0,0,0,0,0,-1,909,372,0,0
-308,652,0,0,0,0,0,0,0,0,0,-1,916,372,0,0
-301,652,0,0,0,0,0,0,0,0,0,-1,923,372,0,0
-294,652,0,0,0,0,0,0,0,0,0,-1,930,372,0,0
-287,652,0,0,0,0,0,0,0,0,0,-1,937,372,0,0
-280,652,0,0,0,0,0,0,0,0,0,-1,944,372,0,0
-273,652,0,0,0,0,0,0,0,0,0,-1,951,372,0,0
-266,652,0,0,0,0,0,0,0,0,0,-1,958,372,0,0
-259,652,0,0,0,0,0,0,0,0,0,-1,965,372,0,0
-252,652,0,0,0,0,0,0,0,0,0,-1,972,372,0,0
-245,652,0,0,0,0,0,0,0,0,0,-1,979,372,0,0
-238,652,0,0,0,0,0,0,0,0,0,-1,986,372,0,0
-231,652,-3.17596,-5.87796,0,0,0,0,0,0,0,-1,993,372,-3.17597,5.87796
-224,652,-3.74396,-5.71695,0,0,0,0,0,0,0,-1,1000,372,-3.74397,5.71694
-217,652,-4.52545,-5.19208,0,0,0,0,0,0,0,-1,1007,372,-4.52543,5.19207
-210,652,2.33746,-9.61121,0,0,0,0,0,0,0,-1,1014,372,2.33747,9.61121
-203,652,2.37573,-9.60385,0,0,0,0,0,0,0,-1,1021,372,2.37575,9.60386
-196,652,2.40076,-9.9259,0,0,0,0,0,0,0,-1,1028,372,2.40074,9.92589
-189,652,1.66223,-10.1159,0,0,0,0,0,0,0,-1,1035,372,1.66229,10.1159
-182,652,1.48743,-9.48428,0,0,0,0,0,0,0,-1,1042,372,1.48746,9.48427
-175,652,2.28943,-9.67737,0,0,0,0,0,0,0,-1,1049,372,2.28948,9.67736
-168,652,2.39233,-10.0222,0.0252649,-0.0884129,-0.00770196,0.0257843,-0.0889323,-0.0673424,0.0694961,0.0417055,1056,372,2.39228,10.0222
-161,652,2.44995,-10.4059,0.0241914,-0.0822802,-0.00709495,0.0246621,-0.0827509,-0.0662466,0.0649675,0.0454681,1063,372,2.45001,10.4059
-154,652,2.78491,-10.8083,0.022408,-0.0730391,-0.00717643,0.0229446,-0.0735757,-0.0746283,0.0582256,0.0460963,1070,372,2.78491,10.8083
-147,652,3.15723,-11.0304,0.0208395,-0.0619247,-0.00768374,0.0215468,-0.062632,-0.0917936,0.0504933,0.0416733,1077,372,3.15718,11.0304
-140,652,3.69263,-11.0696,0,0,0,0,0,0,0,-1,1084,372,3.6926,11.0696
-133,652,2.31287,-9.35883,0.0170579,-0.0379846,-0.00766736,0.018106,-0.0390327,-0.135854,0.0337184,0.0409204,1091,372,2.31291,9.35884
-126,652,2.20117,-9.17227,0.0149841,-0.0266199,-0.00786745,0.0164222,-0.028058,-0.180789,0.0259719,0.038972,1098,372,2.20117,9.17228
-119,652,2.18799,-9.34949,0.013173,-0.0163042,-0.00812963,0.0152664,-0.0183976,-0.252031,0.019464,0.0341093,1105,372,2.18799,9.34949
-112,652,2.16943,-9.48001,0.0120362,-0.00693198,-0.00808563,0.0150151,-0.00991085,-0.352985,0.0144912,0.0249239,1112,372,2.16947,9.48002
-105,652,2.15991,-9.53897,0.0107325,0.000337763,-0.00758727,0.0147318,-0.00366157,-0.485101,0.0112423,0.0218891,1119,372,2.15996,9.53896
-98,652,2.17102,-9.6286,0.00900197,0.00649058,-0.00710089,0.0149573,0.000535217,-0.697885,0.00979802,0.0235047,1126,372,2.17101,9.6286
-91,652,2.18982,-9.6763,0.00765392,0.0100912,-0.0065054,0.0154911,0.002254,-0.877989,0.0096641,0.0211882,1133,372,2.18987,9.67632
-84,652,2.18188,-9.74286,0.00739576,0.00882322,-0.00527758,0.0134351,0.00278386,-0.85261,0.00818809,0.0182597,1140,372,2.18185,9.74287
-77,652,2.12695,-9.81567,0.00676545,0.00755181,-0.00418021,0.0113573,0.00295996,-0.832289,0.00680302,0.01697,1147,372,2.127,9.81566
-70,652,2.1084,-9.86954,0.00573086,0.00588843,-0.00302593,0.0088366,0.00278269,-0.798414,0.00521704,0.0224818,1154,372,2.10836,9.86955
-63,652,2.10461,-9.96957,0,0,0,0,0,0,0,-1,1161,372,2.10465,9.96958
-56,652,2.17761,-10.1251,0.00272724,0.0171758,-0.000645233,0.0172045,0.00269848,-1.52626,0.0106844,0.044951,1168,372,2.17755,10.1251
-49,652,2.07825,-10.0781,0.00138464,0.0204243,0.000727288,0.020452,0.0013569,1.53267,0.0132056,0.0245254,1175,372,2.07821,10.0781
-42,652,2.05554,-10.1112,-0.000379306,0.0235137,0.00192472,0.0236677,-0.000533359,1.49093,0.0159592,0.0101387,1182,372,2.05554,10.1112
-35,652,2.05017,-10.145,-0.00169038,0.0258616,0.000998029,0.0258977,-0.00172648,1.53464,0.0178684,0.00898351,1189,372,2.05021,10.1449
-28,652,2.04468,-10.186,-0.00191048,0.0282062,-0.000581869,0.0282174,-0.00192172,-1.55149,0.0194838,0.00770811,1196,372,2.04462,10.186
-21,652,2.02881,-10.2251,-0.0020073,0.0298609,-0.0012791,0.0299122,-0.00205855,-1.53075,0.0206619,0.00763926,1203,372,2.02884,10.2251
-14,652,2.02917,-10.262,-0.00195988,0.0304887,-0.00216256,0.0306322,-0.00210337,-1.50454,0.0211574,0.00924971,1210,372,2.02919,10.262
-7,652,2.03101,-10.2987,-0.00199716,0.0302975,-0.0031489,0.0306016,-0.00230133,-1.4745,0.0212099,0.0115866,1217,372,2.03102,10.2987
0,652,2.00671,-10.3145,-0.0022234,0.0297316,-0.00415117,0.0302621,-0.00275385,-1.4437,0.0211525,0.0111256,1224,372,2.00671,10.3145
7,652,1.99377,-10.2941,-0.00220045,0.0283642,-0.00508917,0.0291893,-0.00302555,-1.41007,0.0205424,0.0123913,1231,372,1.99378,10.2941
14,652,2.00464,-10.3164,-0.00202844,0.0267386,-0.00599952,0.0279397,-0.00322952,-1.37321,0.019791,0.0107287,1238,372,2.00458,10.3164
21,652,2.01746,-10.3386,-0.00191306,0.0251215,-0.0066496,0.0266685,-0.00346011,-1.34221,0.0190375,0.00940356,1245,372,2.01744,10.3386
28,652,2.00891,-10.3543,-0.00154399,0.0232862,-0.00704107,0.0251438,-0.00340164,-1.31284,0.0180039,0.00897272,1252,372,2.00891,10.3543
35,652,1.97534,-10.3687,-0.00114078,0.0215802,-0.00730636,0.0237268,-0.00328746,-1.28503,0.0170199,0.0100293,1259,372,1.97537,10.3687
42,652,1.95166,-10.375,-0.000597563,0.0202935,-0.00712269,0.0224909,-0.00279489,-1.27156,0.0160071,0.0111211,1266,372,1.95164,10.375
49,652,1.96667,-10.3663,4.62371e-05,0.0166426,-0.00709419,0.0192617,-0.00257288,-1.21713,0.0137791,0.012923,1273,372,1.96669,10.3663
56,652,1.95496,-10.3521,0.000577436,0.015767,-0.00656766,0.0182128,-0.00186845,-1.2143,0.0128102,0.0146851,1280,372,1.95495,10.3521
63,652,1.9574,-10.3503,0.00122136,0.0145795,-0.00598496,0.0168687,-0.00106784,-1.20547,0.0116181,0.0195802,1287,372,1.95736,10.3502
70,652,1.9635,-10.3143,0.0019321,0.0133961,-0.00502999,0.0152902,3.80557e-05,-1.21067,0.0101808,0.0174349,1294,372,1.96355,10.3143
77,652,1.94788,-10.2975,0.00330322,0.0120451,-0.00416232,0.0137099,0.00163842,-1.19032,0.00864566,0.016765,1301,372,1.94793,10.2975
84,652,1.93372,-10.3051,0.00469863,0.0120294,-0.00445914,0.0141363,0.00259176,-1.1294,0.00869007,0.0141652,1308,372,1.93375,10.3051
91,652,1.92444,-10.2978,0.00559395,0.0111661,-0.00423833,0.0134521,0.00330799,-1.07616,0.00809396,0.0164169,1315,372,1.92449,10.2978
98,652,1.94019,-10.2357,0.00589999,0.010361,-0.00389664,0.0126204,0.00364062,-1.04534,0.00750057,0.0124079,1322,372,1.94021,10.2357
105,652,1.93396,-10.1876,0.00602897,0.00960313,-0.0038033,0.0120183,0.00361382,-1.00503,0.00712014,0.0103115,1329,372,1.93396,10.1876
112,652,1.927,-10.1823,0.00604938,0.00955005,-0.00389162,0.0120668,0.00353259,-0.996729,0.00716351,0.00898957,1336,372,1.92704,10.1824
119,652,1.91284,-10.1361,0.00578296,0.00926813,-0.00396776,0.0118591,0.00319199,-0.992311,0.00708592,0.00945662,1343,372,1.91284,10.1361
126,652,1.88892,-10.0944,0.0053107,0.0088421,-0.00416752,0.0116025,0.00255026,-0.985775,0.00704062,0.0118053,1350,372,1.88894,10.0944
133,652,1.85938,-10.0601,0.00447959,0.00818475,-0.00429555,0.0110102,0.00165415,-0.988986,0.00685559,0.0124134,1357,372,1.85941,10.0601
140,652,1.85339,-10.0145,0.00341669,0.00724824,-0.00417774,0.00992852,0.000736412,-1.00038,0.00638771,0.00937045,1364,372,1.85341,10.0145
147,652,1.85254,-9.96701,0.00209262,0.00592103,-0.0041779,0.00860237,-0.000588715,-1.00021,0.00594088,0.00887543,1371,372,1.85253,9.96702
154,652,1.85522,-9.90527,0.00076448,0.00446898,-0.00367715,0.00673404,-0.00150058,-1.01871,0.00506421,0.00934153,1378,372,1.85524,9.90527
161,652,1.85193,-9.84778,-0.000524971,0.00292902,-0.0030801,0.00473325,-0.0023292,-1.04091,0.00415551,0.0104732,1385,372,1.85189,9.84776
168,652,1.83875,-9.79575,-0.00170944,0.00173148,-0.00226168,0.00285271,-0.00283067,-1.11056,0.00328131,0.010921,1392,372,1.8388,9.79575
175,652,1.82825,-9.71741,-0.00271203,0.000598084,-0.0014377,0.00113533,-0.00324928,-1.21318,0.0026277,0.011455,1399,372,1.82821,9.7174
182,652,1.80713,-9.66321,-0.00471675,-0.000605874,-4.40545e-05,-0.000605402,-0.00471723,-1.56008,0.0029637,0.0166397,1406,372,1.80707,9.66321
189,652,1.83594,-9.58667,-0.00594221,-0.00487964,0.00338918,-0.00198035,-0.00884149,0.863145,0.00535763,0.0207055,1413,372,1.83592,9.58667
196,652,1.81934,-9.55063,-0.00560173,-0.00359831,0.00390178,-0.000571707,-0.00862833,0.91105,0.00557144,0.0311911,1420,372,1.81928,9.55062
203,652,1.82751,-9.57492,-0.0036001,-0.00271705,0.00299064,-0.00013552,-0.00618163,0.858686,0.00407666,0.0358287,1427,372,1.82754,9.57493
210,652,1.79822,-9.43848,-0.00148095,-0.000885148,0.00279393,0.00162671,-0.00399282,0.83851,0.00333893,0.0260743,1434,372,1.79823,9.43848
217,652,1.84167,-9.19513,-0.00190713,-0.000934557,0.002895,0.00151471,-0.0043564,0.868609,0.00351955,0.0249957,1441,372,1.84162,9.19514
224,652,1.83044,-9.07462,-0.00201278,-0.000670471,0.0030091,0.00174141,-0.00442466,0.895123,0.00367062,0.0259405,1448,372,1.83049,9.07461
231,652,1.86389,-8.99994,-0.00203733,-0.000609195,0.00292168,0.00168441,-0.00433094,0.90525,0.00358325,0.0323344,1455,372,1.8639,8.99992
238,652,1.9801,-8.92807,-0.00206347,-0.000654956,0.00281284,0.00154046,-0.00425888,0.908062,0.0034687,0.0359808,1462,372,1.98007,8.92808
245,652,1.86792,-8.91632,-0.00191494,-0.00076683,0.00261856,0.00133986,-0.00402163,0.893303,0.00322195,0.0376508,1469,372,1.86786,8.91633
252,652,1.57581,-9.02594,-0.00139977,-0.000836566,0.00242761,0.00132572,-0.00356206,0.84314,0.00291876,0.0453564,1476,372,1.57576,9.02594
259,652,1.59338,-8.54941,0,0,0,0,0,0,0,-1,1483,372,1.59338,8.54942
266,652,1.68848,-8.51962,0.00211995,7.23456e-05,0.00337845,0.00462631,-0.00243402,0.638277,0.00414127,0.0495411,1490,372,1.68843,8.51964
273,652,1.79004,-8.38986,0.00443444,0.000664478,0.00522422,0.00810334,-0.00300442,0.612259,0.00663447,0.0494791,1497,372,1.79001,8.38988
280,652,1.81055,-8.52176,0,0,0,0,0,0,0,-1,1504,372,1.81057,8.52176
287,652,1.93042,-9.05264,0,0,0,0,0,0,0,-1,1511,372,1.93039,9.05265
294,652,1.20898,-6.96671,0,0,0,0,0,0,0,-1,1518,372,1.20898,6.96671
301,652,3.30896,-2.21671,0,0,0,0,0,0,0,-1,1525,372,3.30899,2.2167
308,652,3.34094,-1.39105,0,0,0,0,0,0,0,-1,1532,372,3.34089,1.39106
315,652,3.3938,-0.522888,0,0,0,0,0,0,0,-1,1539,372,3.39376,0.522896
322,652,3.37,0.279205,0,0,0,0,0,0,0,-1,1546,372,3.36996,-0.279207
329,652,0.233154,-6.18842,0,0,0,0,0,0,0,-1,1553,372,0.233206,6.18842
336,652,4.32825,-3.46991,0,0,0,0,0,0,0,-1,1560,372,4.3282,3.46991
343,652,4.18225,-6.7092,0,0,0,0,0,0,0,-1,1567,372,4.18231,6.70921
350,652,4.64563,-7.2074,0,0,0,0,0,0,0,-1,1574,372,4.6456,7.2074
357,652,0,0,0,0,0,0,0,0,0,-1,1581,372,0,0
364,652,0,0,0,0,0,0,0,0,0,-1,1588,372,0,0
371,652,0,0,0,0,0,0,0,0,0,-1,1595,372,0,0
378,652,0,0,0,0,0,0,0,0,0,-1,1602,372,0,0
385,652,0,0,0,0,0,0,0,0,0,-1,1609,372,0,0
392,652,0,0,0,0,0,0,0,0,0,-1,1616,372,0,0
399,652,0,0,0,0,0,0,0,0,0,-1,1623,372,0,0
406,652,0,0,0,0,0,0,0,0,0,-1,1630,372,0,0
413,652,0,0,0,0,0,0,0,0,0,-1,1637,372,0,0
420,652,0,0,0,0,0,0,0,0,0,-1,1644,372,0,0
427,652,0,0,0,0,0,0,0,0,0,-1,1651,372,0,0
434,652,0,0,0,0,0,0,0,0,0,-1,1658,372,0,0
441,652,0,0,0,0,0,0,0,0,0,-1,1665,372,0,0
448,652,0,0,0,0,0,0,0,0,0,-1,1672,372,0,0
455,652,0,0,0,0,0,0,0,0,0,-1,1679,372,0,0
462,652,0,0,0,0,0,0,0,0,0,-1,1686,372,0,0
469,652,0,0,0,0,0,0,0,0,0,-1,1693,372,0,0
476,652,0,0,0,0,0,0,0,0,0,-1,1700,372,0,0
483,652,0,0,0,0,0,0,0,0,0,-1,1707,372,0,0
490,652,0,0,0,0,0,0,0,0,0,-1,1714,372,0,0
497,652,0,0,0,0,0,0,0,0,0,-1,1721,372,0,0
504,652,0,0,0,0,0,0,0,0,0,-1,1728,372,0,0
511,652,0,0,0,0,0,0,0,0,0,-1,1735,372,0,0
518,652,0,0,0,0,0,0,0,0,0,-1,1742,372,0,0
525,652,0,0,0,0,0,0,0,0,0,-1,1749,372,0,0
532,652,0,0,0,0,0,0,0,0,0,-1,1756,372,0,0
539,652,0,0,0,0,0,0,0,0,0,-1,1763,372,0,0
546,652,0,0,0,0,0,0,0,0,0,-1,1770,372,0,0
553,652,0,0,0,0,0,0,0,0,0,-1,1777,372,0,0
560,652,0,0,0,0,0,0,0,0,0,-1,1784,372,0,0
567,652,0,0,0,0,0,0,0,0,0,-1,1791,372,0,0
574,652,0,0,0,0,0,0,0,0,0,-1,1798,372,0,0
581,652,0,0,0,0,0,0,0,0,0,-1,1805,372,0,0
588,652,0,0,0,0,0,0,0,0,0,-1,1812,372,0,0
595,652,0,0,0,0,0,0,0,0,0,-1,1819,372,0,0
602,652,0,0,0,0,0,0,0,0,0,-1,1826,372,0,0
609,652,0,0,0,0,0,0,0,0,0,-1,1833,372,0,0
616,652,0,0,0,0,0,0,0,0,0,-1,1840,372,0,0
623,652,0,0,0,0,0,0,0,0,0,-1,1847,372,0,0
630,652,0,0,0,0,0,0,0,0,0,-1,1854,372,0,0
637,652,0,0,0,0,0,0,0,0,0,-1,1861,372,0,0
644,652,0,0,0,0,0,0,0,0,0,-1,1868,372,0,0
651,652,0,0,0,0,0,0,0,0,0,-1,1875,372,0,0
658,652,0,0,0,0,0,0,0,0,0,-1,1882,372,0,0
665,652,0,0,0,0,0,0,0,0,0,-1,1889,372,0,0
672,652,0,0,0,0,0,0,0,0,0,-1,1896,372,0,0
679,652,0,0,0,0,0,0,0,0,0,-1,1903,372,0,0
686,652,0,0,0,0,0,0,0,0,0,-1,1910,372,0,0
693,652,0,0,0,0,0,0,0,0,0,-1,1917,372,0,0
700,652,0,0,0,0,0,0,0,0,0,-1,1924,372,0,0
707,652,0,0,0,0,0,0,0,0,0,-1,1931,372,0,0
714,652,0,0,0,0,0,0,0,0,0,-1,1938,372,0,0
721,652,0,0,0,0,0,0,0,0,0,-1,1945,372,0,0
728,652,0,0,0,0,0,0,0,0,0,-1,1952,372,0,0
735,652,0,0,0,0,0,0,0,0,0,-1,1959,372,0,0
742,652,0,0,0,0,0,0,0,0,0,-1,1966,372,0,0
749,652,0,0,0,0,0,0,0,0,0,-1,1973,372,0,0
756,652,0,0,0,0,0,0,0,0,0,-1,1980,372,0,0
763,652,0,0,0,0,0,0,0,0,0,-1,1987,372,0,0
770,652,0,0,0,0,0,0,0,0,0,-1,1994,372,0,0
777,652,0,0,0,0,0,0,0,0,0,-1,2001,372,0,0
784,652,0,0,0,0,0,0,0,0,0,-1,2008,372,0,0
791,652,0,0,0,0,0,0,0,0,0,-1,2015,372,0,0
798,652,0,0,0,0,0,0,0,0,0,-1,2022,372,0,0
805,652,0,0,0,0,0,0,0,0,0,-1,2029,372,0,0
812,652,0,0,0,0,0,0,0,0,0,-1,2036,372,0,0
-700,645,0,0,0,0,0,0,0,0,0,-1,524,379,0,0
-693,645,0,0,0,0,0,0,0,0,0,-1,531,379,0,0
-686,645,0,0,0,0,0,0,0,0,0,-1,538,379,0,0
-679,645,0,0,0,0,0,0,0,0,0,-1,545,379,0,0
-672,645,0,0,0,0,0,0,0,0,0,-1,552,379,0,0
-665,645,0,0,0,0,0,0,0,0,0,-1,559,379,0,0
-658,645,0,0,0,0,0,0,0,0,0,-1,566,379,0,0
-651,645,0,0,0,0,0,0,0,0,0,-1,573,379,0,0
-644,645,0,0,0,0,0,0,0,0,0,-1,580,379,0,0
-637,645,0,0,0,0,0,0,0,0,0,-1,587,379,0,0
-630,645,0,0,0,0,0,0,0,0,0,-1,594,379,0,0
-623,645,0,0,0,0,0,0,0,0,0,-1,601,379,0,0
-616,645,0,0,0,0,0,0,0,0,0,-1,608,379,0,0
-609,645,0,0,0,0,0,0,0,0,0,-1,615,379,0,0
-602,645,0,0,0,0,0,0,0,0,0,-1,622,379,0,0
-595,645,0,0,0,0,0,0,0,0,0,-1,629,379,0,0
-588,645,0,0,0,0,0,0,0,0,0,-1,636,379,0,0
-581,645,0,0,0,0,0,0,0,0,0,-1,643,379,0,0
-574,645,0,0,0,0,0,0,0,0,0,-1,650,379,0,0
-567,645,0,0,0,0,0,0,0,0,0,-1,657,379,0,0
-560,645,0,0,0,0,0,0,0,0,0,-1,664,379,0,0
-553,645,0,0,0,0,0,0,0,0,0,-1,671,379,0,0
-546,645,0,0,0,0,0,0,0,0,0,-1,678,379,0,0
-539,645,0,0,0,0,0,0,0,0,0,-1,685,379,0,0
-532,645,0,0,0,0,0,0,0,0,0,-1,692,379,0,0
-525,645,0,0,0,0,0,0,0,0,0,-1,699,379,0,0
-518,645,0,0,0,0,0,0,0,0,0,-1,706,379,0,0
-511,645,0,0,0,0,0,0,0,0,0,-1,713,379,0,0
-504,645,0,0,0,0,0,0,0,0,0,-1,720,379,0,0
-497,645,0,0,0,0,0,0,0,0,0,-1,727,379,0,0
-490,645,0,0,0,0,0,0,0,0,0,-1,734,379,0,0
-483,645,0,0,0,0,0,0,0,0,0,-1,741,379,0,0
-476,645,0,0,0,0,0,0,0,0,0,-1,748,379,0,0
-469,645,0,0,0,0,0,0,0,0,0,-1,755,379,0,0
-462,645,0,0,0,0,0,0,0,0,0,-1,762,379,0,0
-455,645,0,0,0,0,0,0,0,0,0,-1,769,379,0,0
-448,645,0,0,0,0,0,0,0,0,0,-1,776,379,0,0
-441,645,0,0,0,0,0,0,0,0,0,-1,783,379,0,0
-434,645,0,0,0,0,0,0,0,0,0,-1,790,379,0,0
-427,645,0,0,0,0,0,0,0,0,0,-1,797,379,0,0
-420,645,0,0,0,0,0,0,0,0,0,-1,804,379,0,0
-413,645,0,0,0,0,0,0,0,0,0,-1,811,379,0,0
-406,645,0,0,0,0,0,0,0,0,0,-1,818,379,0,0
-399,645,0,0,0,0,0,0,0,0,0,-1,825,379,0,0
-392,645,0,0,0,0,0,0,0,0,0,-1,832,379,0,0
-385,645,0,0,0,0,0,0,0,0,0,-1,839,379,0,0
-378,645,0,0,0,0,0,0,0,0,0,-1,846,379,0,0
-371,645,0,0,0,0,0,0,0,0,0,-1,853,379,0,0
-364,645,0,0,0,0,0,0,0,0,0,-1,860,379,0,0
-357,645,0,0,0,0,0,0,0,0,0,-1,867,379,0,0
-350,645,0,0,0,0,0,0,0,0,0,-1,874,379,0,0
-343,645,0,0,0,0,0,0,0,0,0,-1,881,379,0,0
-336,645,0,0,0,0,0,0,0,0,0,-1,888,379,0,0
-329,645,0,0,0,0,0,0,0,0,0,-1,895,379,0,0
-322,645,0,0,0,0,0,0,0,0,0,-1,902,379,0,0
-315,645,0,0,0,0,0,0,0,0,0,-1,909,379,0,0
-308,645,0,0,0,0,0,0,0,0,0,-1,916,379,0,0
-301,645,0,0,0,0,0,0,0,0,0,-1,923,379,0,0
-294,645,0,0,0,0,0,0,0,0,0,-1,930,379,0,0
-287,645,0,0,0,0,0,0,0,0,0,-1,937,379,0,0
-280,645,0,0,0,0,0,0,0,0,0,-1,944,379,0,0
-273,645,0,0,0,0,0,0,0,0,0,-1,951,379,0,0
-266,645,0,0,0,0,0,0,0,0,0,-1,958,379,0,0
-259,645,0,0,0,0,0,0,0,0,0,-1,965,379,0,0
-252,645,0.0778198,-6.9191,0,0,0,0,0,0,0,-1,972,379,0.0778175,6.9191
-245,645,0.52948,-6.83511,0,0,0,0,0,0,0,-1,979,379,0.529504,6.83511
-238,645,0.53125,-7.3454,0,0,0,0,0,0,0,-1,986,379,0.531259,7.34541
-231,645,1.97729,-7.08783,0,0,0,0,0,0,0,-1,993,379,1.97729,7.08784
-224,645,-2.62988,-5.69568,0,0,0,0,0,0,0,-1,1000,379,-2.62987,5.69567
-217,645,-3.33527,-5.9166,0,0,0,0,0,0,0,-1,1007,379,-3.33529,5.91658
-210,645,2.6474,-10.0573,0,0,0,0,0,0,0,-1,1014,379,2.6474,10.0572
-203,645,2.67316,-9.8866,0,0,0,0,0,0,0,-1,1021,379,2.67317,9.88661
-196,645,2.23718,-9.66687,0,0,0,0,0,0,0,-1,1028,379,2.23715,9.66687
-189,645,1.85193,-9.51505,0,0,0,0,0,0,0,-1,1035,379,1.85192,9.51505
-182,645,1.71667,-8.88516,0,0,0,0,0,0,0,-1,1042,379,1.71668,8.88515
-175,645,2.13501,-8.95129,0,0,0,0,0,0,0,-1,1049,379,2.13506,8.95131
-168,645,2.28662,-9.33401,0.0179887,-0.0650421,-0.00521252,0.0183147,-0.0653681,-0.0624513,0.0507964,0.0436046,1056,379,2.28667,9.33401
-161,645,2.3772,-9.77393,0.0171634,-0.0607848,-0.00485158,0.0174642,-0.0610856,-0.0619226,0.0476247,0.043934,1063,379,2.37717,9.77393
-154,645,2.51807,-9.93628,0.015857,-0.0540829,-0.00495054,0.0162057,-0.0544315,-0.0703155,0.0427266,0.0405381,1070,379,2.51806,9.93629
-147,645,2.64001,-9.98441,0.0146811,-0.0460338,-0.00535103,0.0151491,-0.0465018,-0.0872376,0.0370967,0.0366212,1077,379,2.64006,9.9844
-140,645,2.60449,-10.022,0,0,0,0,0,0,0,-1,1084,379,2.60448,10.022
-133,645,2.16833,-9.31357,0.0118966,-0.0284619,-0.00531723,0.0125854,-0.0291507,-0.128821,0.024721,0.0275766,1091,379,2.16831,9.31357
-126,645,2.19653,-9.33951,0.0103476,-0.0200158,-0.00544091,0.0112931,-0.0209614,-0.172063,0.0188989,0.0223736,1098,379,2.19654,9.33949
-119,645,2.15027,-9.422,0.00897861,-0.0122601,-0.0056761,0.0104004,-0.0136818,-0.245435,0.0139468,0.0159551,1105,379,2.15023,9.422
-112,645,2.125,-9.53497,0.0080731,-0.0051877,-0.00567333,0.010169,-0.00728363,-0.353884,0.0101221,0.012149,1112,379,2.12505,9.53496
-105,645,2.10681,-9.60251,0.00706179,0.00031614,-0.00532818,0.00999495,-0.00261702,-0.503227,0.00768562,0.0120847,1119,379,2.10683,9.6025
-98,645,2.08411,-9.66446,0.00575843,0.00492015,-0.00501021,0.010367,0.000311577,-0.743667,0.00680985,0.0123063,1126,379,2.08416,9.66445
-91,645,2.08362,-9.72586,0.00473676,0.00759543,-0.00460441,0.0109873,0.00134493,-0.935896,0.00692023,0.0119986,1133,379,2.08367,9.72585
-84,645,2.07104,-9.78876,0.00456746,0.00665131,-0.0037247,0.00947707,0.0017417,-0.921779,0.00582493,0.0117677,1140,379,2.071,9.78875
-77,645,2.03613,-9.85962,0.00416614,0.00572428,-0.00295694,0.00800306,0.00188736,-0.914207,0.00483076,0.0105828,1147,379,2.03615,9.85961
-70,645,2.03955,-9.91556,0.00351035,0.00447128,-0.00210259,0.0061476,0.00183403,-0.897726,0.00364428,0.00914691,1154,379,2.03959,9.91556
-63,645,2.04883,-9.97351,0.00280771,0.00320357,-0.00165821,0.00467562,0.00133566,-0.844799,0.00278092,0.0102411,1161,379,2.04879,9.97351
-56,645,2.04199,-10.0161,0.00184264,0.00994516,-0.000330386,0.00995861,0.00182919,-1.53011,0.00612114,0.0121181,1168,379,2.04199,10.0161
-49,645,2.03662,-10.0604,0.00097654,0.0116699,0.000638305,0.0117078,0.000938572,1.51139,0.00751194,0.0099015,1175,379,2.03664,10.0604
-42,645,2.03882,-10.1045,-8.9686e-05,0.0133674,0.00148175,0.0135287,-0.00025091,1.46242,0.0091039,0.0091482,1182,379,2.03876,10.1045
-35,645,2.01831,-10.154,-0.000829989,0.0148218,0.00101745,0.0148876,-0.000895853,1.50615,0.0102368,0.00974936,1189,379,2.01825,10.154
-28,645,2.00586,-10.2056,-0.000819727,0.0163099,0.000247961,0.0163134,-0.000823316,1.55632,0.0111602,0.00815611,1196,379,2.00585,10.2056
-21,645,1.99268,-10.2303,-0.000769834,0.0176173,-7.56725e-05,0.0176176,-0.000770147,-1.56668,0.01201,0.0094687,1203,379,1.99263,10.2303
-14,645,1.99731,-10.2575,-0.000689909,0.018364,-0.000605523,0.0183832,-0.000709132,-1.53906,0.0124985,0.0092997,1210,379,1.99737,10.2575
-7,645,2.02515,-10.3117,-0.000683091,0.0185711,-0.00123807,0.0186504,-0.000762375,-1.50685,0.0126953,0.0125209,1217,379,2.02521,10.3117
0,645,1.99951,-10.3002,-0.000851909,0.0185421,-0.00192049,0.0187304,-0.00104025,-1.47304,0.0128478,0.0220585,1224,379,1.99953,10.3002
7,645,1.9967,-10.3254,-0.000912589,0.0179152,-0.00255626,0.0182561,-0.00125348,-1.43822,0.0126094,0.0161479,1231,379,1.99667,10.3254
14,645,1.99731,-10.3392,-0.00090135,0.0170458,-0.00321272,0.0176036,-0.00145912,-1.3989,0.0122511,0.0151131,1238,379,1.99734,10.3392
21,645,1.98792,-10.3568,-0.00090453,0.0160863,-0.00369152,0.0168537,-0.00167191,-1.36584,0.0118326,0.00989677,1245,379,1.98797,10.3568
28,645,1.97168,-10.3619,-0.000765072,0.0149679,-0.00400886,0.0159305,-0.00172766,-1.33514,0.0112405,0.00903858,1252,379,1.97164,10.3619
35,645,1.95154,-10.3748,-0.000542748,0.0141372,-0.00440115,0.0153556,-0.00176112,-1.30073,0.0108717,0.00914227,1259,379,1.95149,10.3748
42,645,1.94873,-10.3849,-0.000157841,0.0137521,-0.00459886,0.0151351,-0.0015408,-1.27868,0.0106409,0.00893798,1266,379,1.94873,10.3849
49,645,1.96729,-10.3792,0.000208201,0.011485,-0.00483482,0.013274,-0.00158085,-1.21639,0.00942063,0.011458,1273,379,1.96724,10.3791
56,645,1.96606,-10.3699,0.000552678,0.0113276,-0.00477657,0.0131402,-0.00125989,-1.20811,0.00920884,0.0115776,1280,379,1.96612,10.3699
63,645,1.97437,-10.3466,0.00103728,0.0109392,-0.00471253,0.0128234,-0.000846963,-1.19043,0.0088448,0.0121824,1287,379,1.97437,10.3467
70,645,1.97827,-10.3232,0.00151574,0.0104525,-0.00437375,0.0122368,-0.000268572,-1.18345,0.00824885,0.0158456,1294,379,1.97832,10.3232
77,645,1.95935,-10.317,0.00235648,0.00971018,-0.00404989,0.0115033,0.000563341,-1.15398,0.00748817,0.0191318,1301,379,1.95936,10.317
84,645,1.96704,-10.3051,0.00307664,0.00930821,-0.00405799,0.0113086,0.00107623,-1.1128,0.00720716,0.0143445,1308,379,1.96709,10.3052
91,645,1.95691,-10.2935,0.00341329,0.0085268,-0.00366174,0.0104361,0.00150402,-1.09017,0.00651417,0.0151067,1315,379,1.95691,10.2935
98,645,1.96448,-10.2414,0.00344112,0.00766111,-0.00313592,0.00933081,0.00177142,-1.08153,0.0057222,0.0124902,1322,379,1.96452,10.2414
105,645,1.9585,-10.1972,0.0033929,0.00677751,-0.00269795,0.00826999,0.00190042,-1.06551,0.00500168,0.00958548,1329,379,1.95849,10.1972
112,645,1.93896,-10.1843,0.00323621,0.00625244,-0.00226465,0.00746518,0.00202347,-1.07915,0.00445809,0.00791802,1336,379,1.93902,10.1842
119,645,1.93091,-10.141,0.00287958,0.00550648,-0.00175393,0.00638424,0.00200181,-1.10678,0.0037704,0.00780063,1343,379,1.93096,10.141
126,645,1.92444,-10.0853,0.00242148,0.00470552,-0.00136311,0.00534178,0.00178522,-1.13408,0.00314009,0.0107315,1350,379,1.92442,10.0853
133,645,1.9231,-10.0481,0.00179491,0.00380238,-0.00100392,0.00421827,0.00137902,-1.17805,0.00248358,0.0119076,1357,379,1.92314,10.0481
140,645,1.9126,-10.0099,0.00108391,0.00277877,-0.000547142,0.00294006,0.00092263,-1.28414,0.00173623,0.0117209,1364,379,1.91259,10.0099
147,645,1.8905,-9.97513,0.000264429,0.0016764,-0.000380487,0.0017724,0.000168426,-1.32364,0.00112965,0.0119645,1371,379,1.89053,9.97514
154,645,1.90845,-9.91632,-0.000429386,0.000692997,-0.00010546,0.00070282,-0.000439209,-1.47792,0.00066518,0.0113735,1378,379,1.90843,9.91632
161,645,1.91101,-9.84564,-0.00106313,-0.000299523,0.000179291,-0.000259522,-0.00110313,1.35128,0.000665989,0.0137798,1385,379,1.91107,9.84564
168,645,1.90295,-9.78955,-0.00166838,-0.000991115,0.000515613,-0.000712879,-0.00194662,1.07595,0.00113721,0.015582,1392,379,1.90299,9.78954
175,645,1.92371,-9.73987,-0.00211926,-0.00146269,0.000823758,-0.000904214,-0.00267774,0.975015,0.00157292,0.0140464,1399,379,1.92371,9.73986
182,645,1.91052,-9.65378,-0.00311017,-0.00183298,0.00145035,-0.000886858,-0.00405629,0.992778,0.0024624,0.010469,1406,379,1.91046,9.65377
189,645,1.90735,-9.5741,-0.00322249,-0.00290704,0.00252996,-0.0005299,-0.00559964,0.816529,0.00356959,0.0106746,1413,379,1.90732,9.57409
196,645,1.88403,-9.50391,-0.00261927,-0.00212055,0.00254027,0.000182569,-0.00492239,0.834323,0.00334411,0.0103322,1420,379,1.88404,9.50392
203,645,1.87366,-9.41235,-0.00188217,-0.00157006,0.00204246,0.000322301,-0.00377453,0.823527,0.00263038,0.0104631,1427,379,1.87371,9.41237
210,645,1.89819,-9.35043,-0.0011688,-0.000597885,0.00204176,0.00117828,-0.00294496,0.854852,0.00245231,0.0130343,1434,379,1.89818,9.35044
217,645,1.86975,-9.27643,-0.00149318,-0.000470857,0.00213532,0.00121363,-0.00317767,0.902879,0.00261848,0.0123922,1441,379,1.86973,9.27643
224,645,1.82178,-9.15381,-0.00157533,-0.000217412,0.00224973,0.00145358,-0.00324632,0.93195,0.00277851,0.0115498,1448,379,1.82172,9.15381
231,645,1.82739,-9.0394,-0.00156263,-0.000124461,0.00223392,0.00150326,-0.00319035,0.941107,0.00276759,0.0124192,1455,379,1.82735,9.0394
238,645,1.82373,-8.9494,-0.00155421,-9.83662e-05,0.00220662,0.00149729,-0.00314987,0.944718,0.00273901,0.0106231,1462,379,1.82371,8.94941
245,645,1.83093,-8.86777,-0.00142388,-0.000110981,0.00211731,0.00144931,-0.00298417,0.935719,0.0026103,0.0121503,1469,379,1.83092,8.86776
252,645,1.83679,-8.70328,-0.00103053,-8.87751e-05,0.00203056,0.00152479,-0.00264409,0.899332,0.00243565,0.0189413,1476,379,1.83675,8.70329
259,645,1.77515,-8.56174,0.000176663,0.000124151,0.00223571,0.00238627,-0.00208546,0.779526,0.0025837,0.0285403,1483,379,1.7751,8.56173
266,645,1.7572,-8.46463,0.00164826,0.000725374,0.00297899,0.00420134,-0.0018277,0.708559,0.00356966,0.0249104,1490,379,1.75726,8.46462
273,645,1.79907,-8.41464,0.00338173,0.00120052,0.00454193,0.00696217,-0.00237991,0.667569,0.00560575,0.0244412,1497,379,1.79913,8.41466
280,645,1.90051,-8.37256,0.00538249,0.00184938,0.00613719,0.0100023,-0.00277045,0.645264,0.00775837,0.0430798,1504,379,1.90051,8.37256
287,645,2.0387,-8.65518,0,0,0,0,0,0,0,-1,1511,379,2.03875,8.6552
294,645,2.15015,-8.83295,0,0,0,0,0,0,0,-1,1518,379,2.15011,8.83295
301,645,1.4292,-7.12039,0,0,0,0,0,0,0,-1,1525,379,1.42926,7.12039
308,645,2.14819,-7.83475,0,0,0,0,0,0,0,-1,1532,379,2.14816,7.83474
315,645,2.31042,-7.17621,0,0,0,0,0,0,0,-1,1539,379,2.31041,7.17619
322,645,2.81897,-7.53894,0,0,0,0,0,0,0,-1,1546,379,2.81902,7.53894
329,645,1.11108,-5.34497,0,0,0,0,0,0,0,-1,1553,379,1.11112,5.34498
336,645,0.984131,-4.83829,0,0,0,0,0,0,0,-1,1560,379,0.984172,4.83828
343,645,3.48962,-5.22675,0,0,0,0,0,0,0,-1,1567,379,3.48959,5.22675
350,645,3.93213,-5.72198,0,0,0,0,0,0,0,-1,1574,379,3.9321,5.72198
357,645,1.63928,-6.465,0,0,0,0,0,0,0,-1,1581,379,1.63926,6.46499
364,645,-0.0794678,-3.22021,0,0,0,0,0,0,0,-1,1588,379,-0.0794987,3.22021
371,645,0,0,0,0,0,0,0,0,0,-1,1595,379,0,0
378,645,0,0,0,0,0,0,0,0,0,-1,1602,379,0,0
385,645,0,0,0,0,0,0,0,0,0,-1,1609,379,0,0
392,645,0,0,0,0,0,0,0,0,0,-1,1616,379,0,0
399,645,0,0,0,0,0,0,0,0,0,-1,1623,379,0,0
406,645,0,0,0,0,0,0,0,0,0,-1,1630,379,0,0
413,645,0,0,0,0,0,0,0,0,0,-1,1637,379,0,0
420,645,0,0,0,0,0,0,0,0,0,-1,1644,379,0,0
427,645,0,0,0,0,0,0,0,0,0,-1,1651,379,0,0
434,645,0,0,0,0,0,0,0,0,0,-1,1658,379,0,0
441,645,0,0,0,0,0,0,0,0,0,-1,1665,379,0,0
448,645,0,0,0,0,0,0,0,0,0,-1,1672,379,0,0
455,645,0,0,0,0,0,0,0,0,0,-1,1679,379,0,0
462,645,0,0,0,0,0,0,0,0,0,-1,1686,379,0,0
469,645,0,0,0,0,0,0,0,0,0,-1,1693,379,0,0
476,645,0,0,0,0,0,0,0,0,0,-1,1700,379,0,0
483,645,0,0,0,0,0,0,0,0,0,-1,1707,379,0,0
490,645,0,0,0,0,0,0,0,0,0,-1,1714,379,0,0
497,645,0,0,0,0,0,0,0,0,0,-1,1721,379,0,0
504,645,0,0,0,0,0,0,0,0,0,-1,1728,379,0,0
511,645,0,0,0,0,0,0,0,0,0,-1,1735,379,0,0
518,645,0,0,0,0,0,0,0,0,0,-1,1742,379,0,0
525,645,0,0,0,0,0,0,0,0,0,-1,1749,379,0,0
532,645,0,0,0,0,0,0,0,0,0,-1,1756,379,0,0
539,645,0,0,0,0,0,0,0,0,0,-1,1763,379,0,0
546,645,0,0,0,0,0,0,0,0,0,-1,1770,379,0,0
553,645,0,0,0,0,0,0,0,0,0,-1,1777,379,0,0
560,645,0,0,0,0,0,0,0,0,0,-1,1784,379,0,0
567,645,0,0,0,0,0,0,0,0,0,-1,1791,379,0,0
574,645,0,0,0,0,0,0,0,0,0,-1,1798,379,0,0
581,645,0,0,0,0,0,0,0,0,0,-1,1805,379,0,0
588,645,0,0,0,0,0,0,0,0,0,-1,1812,379,0,0
595,645,0,0,0,0,0,0,0,0,0,-1,1819,379,0,0
602,645,0,0,0,0,0,0,0,0,0,-1,1826,379,0,0
609,645,0,0,0,0,0,0,0,0,0,-1,1833,379,0,0
616,645,0,0,0,0,0,0,0,0,0,-1,1840,379,0,0
623,645,0,0,0,0,0,0,0,0,0,-1,1847,379,0,0
630,645,0,0,0,0,0,0,0,0,0,-1,1854,379,0,0
637,645,0,0,0,0,0,0,0,0,0,-1,1861,379,0,0
644,645,0,0,0,0,0,0,0,0,0,-1,1868,379,0,0
651,645,0,0,0,0,0,0,0,0,0,-1,1875,379,0,0
658,645,0,0,0,0,0,0,0,0,0,-1,1882,379,0,0
665,645,0,0,0,0,0,0,0,0,0,-1,1889,379,0,0
672,645,0,0,0,0,0,0,0,0,0,-1,1896,379,0,0
679,645,0,0,0,0,0,0,0,0,0,-1,1903,379,0,0
686,645,0,0,0,0,0,0,0,0,0,-1,1910,379,0,0
693,645,0,0,0,0,0,0,0,0,0,-1,1917,379,0,0
700,645,0,0,0,0,0,0,0,0,0,-1,1924,379,0,0
707,645,0,0,0,0,0,0,0,0,0,-1,1931,379,0,0
714,645,0,0,0,0,0,0,0,0,0,-1,1938,379,0,0
721,645,0,0,0,0,0,0,0,0,0,-1,1945,379,0,0
728,645,0,0,0,0,0,0,0,0,0,-1,1952,379,0,0
735,645,0,0,0,0,0,0,0,0,0,-1,1959,379,0,0
742,645,0,0,0,0,0,0,0,0,0,-1,1966,379,0,0
749,645,0,0,0,0,0,0,0,0,0,-1,1973,379,0,0
756,645,0,0,0,0,0,0,0,0,0,-1,1980,379,0,0
763,645,0,0,0,0,0,0,0,0,0,-1,1987,379,0,0
770,645,0,0,0,0,0,0,0,0,0,-1,1994,379,0,0
777,645,0,0,0,0,0,0,0,0,0,-1,2001,379,0,0
784,645,0,0,0,0,0,0,0,0,0,-1,2008,379,0,0
791,645,0,0,0,0,0,0,0,0,0,-1,2015,379,0,0
798,645,0,0,0,0,0,0,0,0,0,-1,2022,379,0,0
805,645,0,0,0,0,0,0,0,0,0,-1,2029,379,0,0
812,645,0,0,0,0,0,0,0,0,0,-1,2036,379,0,0
-700,638,0,0,0,0,0,0,0,0,0,-1,524,386,0,0
-693,638,0,0,0,0,0,0,0,0,0,-1,531,386,0,0
-686,638,0,0,0,0,0,0,0,0,0,-1,538,386,0,0
-679,638,0,0,0,0,0,0,0,0,0,-1,545,386,0,0
-672,638,0,0,0,0,0,0,0,0,0,-1,552,386,0,0
-665,638,0,0,0,0,0,0,0,0,0,-1,559,386,0,0
-658,638,0,0,0,0,0,0,0,0,0,-1,566,386,0,0
-651,638,0,0,0,0,0,0,0,0,0,-1,573,386,0,0
-644,638,0,0,0,0,0,0,0,0,0,-1,580,386,0,0
-637,638,0,0,0,0,0,0,0,0,0,-1,587,386,0,0
-630,638,0,0,0,0,0,0,0,0,0,-1,594,386,0,0
-623,638,0,0,0,0,0,0,0,0,0,-1,601,386,0,0
-616,638,0,0,0,0,0,0,0,0,0,-1,608,386,0,0
-609,638,0,0,0,0,0,0,0,0,0,-1,615,386,0,0
-602,638,0,0,0,0,0,0,0,0,0,-1,622,386,0,0
-595,638,0,0,0,0,0,0,0,0,0,-1,629,386,0,0
-588,638,0,0,0,0,0,0,0,0,0,-1,636,386,0,0
-581,638,0,0,0,0,0,0,0,0,0,-1,643,386,0,0
-574,638,0,0,0,0,0,0,0,0,0,-1,650,386,0,0
-567,638,0,0,0,0,0,0,0,0,0,-1,657,386,0,0
-560,638,0,0,0,0,0,0,0,0,0,-1,664,386,0,0
-553,638,0,0,0,0,0,0,0,0,0,-1,671,386,0,0
-546,638,0,0,0,0,0,0,0,0,0,-1,678,386,0,0
-539,638,0,0,0,0,0,0,0,0,0,-1,685,386,0,0
-532,638,0,0,0,0,0,0,0,0,0,-1,692,386,0,0
-525,638,0,0,0,0,0,0,0,0,0,-1,699,386,0,0
-518,638,0,0,0,0,0,0,0,0,0,-1,706,386,0,0
-511,638,0,0,0,0,0,0,0,0,0,-1,713,386,0,0
-504,638,0,0,0,0,0,0,0,0,0,-1,720,386,0,0
-497,638,0,0,0,0,0,0,0,0,0,-1,727,386,0,0
-490,638,0,0,0,0,0,0,0,0,0,-1,734,386,0,0
-483,638,0,0,0,0,0,0,0,0,0,-1,741,386,0,0
-476,638,0,0,0,0,0,0,0,0,0,-1,748,386,0,0
-469,638,0,0,0,0,0,0,0,0,0,-1,755,386,0,0
-462,638,0,0,0,0,0,0,0,0,0,-1,762,386,0,0
-455,638,0,0,0,0,0,0,0,0,0,-1,769,386,0,0
-448,638,0,0,0,0,0,0,0,0,0,-1,776,386,0,0
-441,638,0,0,0,0,0,0,0,0,0,-1,783,386,0,0
-434,638,0,0,0,0,0,0,0,0,0,-1,790,386,0,0
-427,638,0,0,0,0,0,0,0,0,0,-1,797,386,0,0
-420,638,0,0,0,0,0,0,0,0,0,-1,804,386,0,0
-413,638,0,0,0,0,0,0,0,0,0,-1,811,386,0,0
-406,638,0,0,0,0,0,0,0,0,0,-1,818,386,0,0
-399,638,0,0,0,0,0,0,0,0,0,-1,825,386,0,0
-392,638,0,0,0,0,0,0,0,0,0,-1,832,386,0,0
-385,638,0,0,0,0,0,0,0,0,0,-1,839,386,0,0
-378,638,0,0,0,0,0,0,0,0,0,-1,846,386,0,0
-371,638,0,0,0,0,0,0,0,0,0,-1,853,386,0,0
-364,638,0,0,0,0,0,0,0,0,0,-1,860,386,0,0
-357,638,0,0,0,0,0,0,0,0,0,-1,867,386,0,0
-350,638,0,0,0,0,0,0,0,0,0,-1,874,386,0,0
-343,638,0,0,0,0,0,0,0,0,0,-1,881,386,0,0
-336,638,0,0,0,0,0,0,0,0,0,-1,888,386,0,0
-329,638,0,0,0,0,0,0,0,0,0,-1,895,386,0,0
-322,638,0,0,0,0,0,0,0,0,0,-1,902,386,0,0
-315,638,0,0,0,0,0,0,0,0,0,-1,909,386,0,0
-308,638,0,0,0,0,0,0,0,0,0,-1,916,386,0,0
-301,638,0,0,0,0,0,0,0,0,0,-1,923,386,0,0
-294,638,0,0,0,0,0,0,0,0,0,-1,930,386,0,0
-287,638,0,0,0,0,0,0,0,0,0,-1,937,386,0,0
-280,638,0,0,0,0,0,0,0,0,0,-1,944,386,0,0
-273,638,0,0,0,0,0,0,0,0,0,-1,951,386,0,0
-266,638,0.603821,-10.3962,0,0,0,0,0,0,0,-1,958,386,0.603829,10.3962
-259,638,0.491272,-10.2385,0,0,0,0,0,0,0,-1,965,386,0.491282,10.2385
-252,638,0.300537,-6.37717,0,0,0,0,0,0,0,-1,972,386,0.300563,6.37716
-245,638,1.41455,-7.90482,0,0,0,0,0,0,0,-1,979,386,1.41455,7.90482
-238,638,0.552917,-6.91696,0,0,0,0,0,0,0,-1,986,386,0.552911,6.91695
-231,638,0.577515,-7.05582,0,0,0,0,0,0,0,-1,993,386,0.577542,7.05582
-224,638,3.45862,-6.89499,0,0,0,0,0,0,0,-1,1000,386,3.45865,6.89498
-217,638,3.35602,-8.43051,0,0,0,0,0,0,0,-1,1007,386,3.35604,8.43051
-210,638,3.63702,-10.4718,0,0,0,0,0,0,0,-1,1014,386,3.637,10.4718
-203,638,2.94855,-9.70029,0,0,0,0,0,0,0,-1,1021,386,2.94855,9.7003
-196,638,2.58167,-7.84561,0,0,0,0,0,0,0,-1,1028,386,2.58161,7.84561
-189,638,2.10071,-8.11615,0,0,0,0,0,0,0,-1,1035,386,2.10072,8.11616
-182,638,1.73804,-9.50015,0,0,0,0,0,0,0,-1,1042,386,1.73808,9.50015
-175,638,1.98987,-9.10974,0.0127391,-0.0470082,-0.00381933,0.0129823,-0.0472514,-0.0635798,0.036604,0.0405949,1049,386,1.98987,9.10975
-168,638,2.06201,-8.78842,0.0124313,-0.046408,-0.00344225,0.012632,-0.0466087,-0.0582377,0.036029,0.0320351,1056,386,2.06204,8.78843
-161,638,2.11853,-8.84564,0.0118493,-0.0436358,-0.00323597,0.0120374,-0.0438239,-0.058059,0.0339474,0.0277559,1063,386,2.11851,8.84564
-154,638,2.12646,-8.94427,0.0109372,-0.0389399,-0.00333637,0.0111594,-0.039162,-0.0664971,0.0305157,0.0213399,1070,386,2.12649,8.94428
-147,638,2.18359,-9.13422,0,0,0,0,0,0,0,-1,1077,386,2.18358,9.13422
-140,638,2.0874,-9.17529,0.00926197,-0.0271264,-0.00373284,0.00964095,-0.0275054,-0.101179,0.0222578,0.0137584,1084,386,2.08743,9.17528
-133,638,2.08435,-9.29974,0.00816626,-0.020839,-0.0036235,0.00861207,-0.0212848,-0.122419,0.0177703,0.0109356,1091,386,2.08437,9.29974
-126,638,2.08862,-9.35922,0.00706209,-0.0147152,-0.00370175,0.00767412,-0.0153273,-0.163853,0.0135227,0.012549,1098,386,2.08867,9.35921
-119,638,2.07678,-9.45169,0.00605646,-0.00895749,-0.00390824,0.00701288,-0.00991391,-0.240002,0.00982041,0.0147086,1105,386,2.07678,9.45168
-112,638,2.06274,-9.53879,0.00535343,-0.0036997,-0.00393109,0.00682213,-0.0051684,-0.357554,0.00694465,0.0143667,1112,386,2.06276,9.5388
-105,638,2.05518,-9.60883,0.00459192,0.000392352,-0.0037004,0.00674678,-0.00176251,-0.527328,0.00518617,0.0161946,1119,386,2.05514,9.60882
-98,638,2.0564,-9.68356,0.00364183,0.00373451,-0.00349661,0.00718509,0.00019125,-0.792024,0.0047276,0.015293,1126,386,2.05635,9.68357
-91,638,2.01526,-9.76508,0.00289612,0.00561479,-0.00321288,0.00774407,0.000766845,-0.985524,0.00492703,0.0123326,1133,386,2.01525,9.76507
-84,638,1.98547,-9.81046,0.00277011,0.00491986,-0.00258317,0.00664286,0.00104711,-0.982555,0.00412409,0.0138922,1140,386,1.98542,9.81044
-77,638,1.98743,-9.8602,0.00249395,0.00424682,-0.00203898,0.00558975,0.00115101,-0.98838,0.00340824,0.0108051,1147,386,1.98742,9.86019
-70,638,2.00171,-9.9234,0.00208309,0.00332609,-0.00141285,0.0042481,0.00116109,-0.992606,0.00253527,0.00954359,1154,386,2.0017,9.92342
-63,638,2.00452,-9.98468,0.00172045,0.00242788,-0.00103538,0.0031683,0.000980039,-0.949996,0.00187303,0.0102877,1161,386,2.00447,9.98468
-56,638,1.99902,-10.0389,0.00124783,0.00547689,-0.00025342,0.00549202,0.00123269,-1.51116,0.00332745,0.0135122,1168,386,1.99899,10.0389
-49,638,1.99207,-10.0784,0.000773525,0.00611899,0.000317678,0.0061378,0.000754712,1.51164,0.00386494,0.0116339,1175,386,1.99206,10.0784
-42,638,1.9917,-10.1045,0.000170034,0.00676371,0.00080469,0.00686049,7.32508e-05,1.4511,0.00454944,0.0107318,1182,386,1.99167,10.1045
-35,638,1.98645,-10.1504,-0.000181427,0.00740402,0.000627343,0.00745556,-0.00023296,1.48883,0.00504982,0.00979042,1189,386,1.98648,10.1504
-28,638,1.98792,-10.1914,-6.95544e-05,0.00797864,0.000283726,0.00798863,-7.95438e-05,1.5356,0.00535246,0.00941479,1196,386,1.98792,10.1914
-21,638,1.96313,-10.2141,5.21613e-05,0.00859746,0.000151734,0.00860015,4.94681e-05,1.55305,0.00571702,0.010803,1203,386,1.96316,10.2142
-14,638,1.95703,-10.2426,0.000146701,0.00900418,-0.000137884,0.00900633,0.000144555,-1.55523,0.00595662,0.0112637,1210,386,1.95707,10.2427
-7,638,1.96899,-10.3404,0.000190448,0.0091649,-0.00052827,0.00919589,0.000159459,-1.5122,0.00607814,0.0169684,1217,386,1.96895,10.3404
0,638,1.99963,-10.3634,0.000114249,0.00930015,-0.000953249,0.00939803,1.63703e-05,-1.46848,0.0062599,0.0298545,1224,386,1.99959,10.3634
7,638,1.99719,-10.3666,7.11629e-05,0.00906523,-0.0013034,0.00925031,-0.000113913,-1.42974,0.00620519,0.0225217,1231,386,1.99723,10.3666
14,638,1.97327,-10.3524,4.52627e-05,0.00869162,-0.00165465,0.00899746,-0.00026057,-1.38803,0.00608702,0.0118834,1238,386,1.97329,10.3524
21,638,1.96851,-10.36,2.7926e-05,0.0082314,-0.00192068,0.00865882,-0.000399496,-1.35183,0.00591021,0.0103938,1245,386,1.96855,10.36
28,638,1.95068,-10.3561,0.000218885,0.00772778,-0.00214358,0.00829662,-0.000349956,-1.31141,0.00565135,0.00897884,1252,386,1.95063,10.3561
35,638,1.95081,-10.3651,0.000582933,0.00773139,-0.00260873,0.00858216,-0.000267834,-1.25555,0.00581277,0.0104957,1259,386,1.95076,10.3651
42,638,1.96655,-10.3821,0.0010977,0.00823741,-0.00317781,0.00944692,-0.000111811,-1.20712,0.00633555,0.00923488,1266,386,1.96654,10.3821
49,638,1.96753,-10.3636,0.00141369,0.00731191,-0.00340957,0.00887084,-0.000145239,-1.14195,0.0059629,0.00777079,1273,386,1.96754,10.3637
56,638,1.96802,-10.3463,0.00167199,0.00784739,-0.00355654,0.00946956,4.9815e-05,-1.14287,0.0062965,0.0103037,1280,386,1.96802,10.3463
63,638,1.99475,-10.3488,0.00214812,0.00818294,-0.00374784,0.00997708,0.000353979,-1.12432,0.00653659,0.0123143,1287,386,1.99477,10.3488
70,638,1.99072,-10.3289,0.00253287,0.00844717,-0.00375947,0.0102732,0.000706888,-1.11865,0.00662572,0.0171562,1294,386,1.99074,10.3289
77,638,1.98206,-10.3112,0.0026951,0.00836184,-0.00363834,0.0101399,0.000917014,-1.11622,0.00647595,0.0187005,1301,386,1.98206,10.3113
84,638,2.0011,-10.282,0.0027533,0.00806061,-0.00344404,0.00975475,0.00105916,-1.11365,0.00618044,0.0130424,1308,386,2.00108,10.282
91,638,1.99036,-10.2679,0.00262351,0.00764508,-0.00295443,0.0090115,0.00125709,-1.1376,0.00563557,0.0127499,1315,386,1.99041,10.2679
98,638,1.98999,-10.2483,0.00225458,0.00704337,-0.00225193,0.00793597,0.00136198,-1.19342,0.00490016,0.0117381,1322,386,1.99001,10.2483
105,638,1.97388,-10.2195,0.00188818,0.00633064,-0.00155263,0.00681949,0.00139933,-1.26577,0.0041591,0.00943382,1329,386,1.97384,10.2195
112,638,1.96399,-10.1914,0.00149918,0.00582565,-0.000836133,0.00598162,0.00134321,-1.38638,0.00362396,0.00884977,1336,386,1.96404,10.1914
119,638,1.97253,-10.1626,0.00105139,0.00508139,-6.59514e-05,0.00508247,0.00105031,-1.55444,0.00309814,0.0104232,1343,386,1.9725,10.1626
126,638,1.98413,-10.1046,0.000650715,0.00428088,0.000579987,0.00437129,0.000560303,1.41615,0.00274654,0.014415,1350,386,1.9841,10.1047
133,638,1.98218,-10.0296,0.000233229,0.00346555,0.00108978,0.00379864,-9.98658e-05,1.27416,0.00256637,0.0152131,1357,386,1.98222,10.0296
140,638,1.95764,-9.99542,-0.000104831,0.00247992,0.00157899,0.003228,-0.000852907,1.12835,0.00248557,0.0158387,1364,386,1.9576,9.99543
147,638,1.93469,-9.96979,-0.000378753,0.00149333,0.00176848,0.00255822,-0.00144364,1.0288,0.00234015,0.0163744,1371,386,1.93464,9.96978
154,638,1.94067,-9.93396,-0.000461715,0.000740263,0.0016132,0.00186079,-0.00158224,0.963706,0.00199,0.0143899,1378,386,1.94062,9.93395
161,638,1.96252,-9.85199,-0.000577122,-5.85501e-05,0.00151578,0.00121996,-0.00185564,0.870107,0.0017883,0.0169337,1385,386,1.9625,9.85199
168,638,1.98767,-9.77051,-0.000818951,-0.000713987,0.00145884,0.000693315,-0.00222625,0.803378,0.00176136,0.021752,1392,386,1.98773,9.77051
175,638,1.99194,-9.73865,-0.0010014,-0.00120311,0.00139656,0.000297941,-0.00250245,0.749353,0.00177596,0.0191655,1399,386,1.99195,9.73865
182,638,1.97705,-9.66159,-0.000987154,-0.00143743,0.0013728,0.000178844,-0.00260343,0.704121,0.0017982,0.0129451,1406,386,1.97711,9.66161
189,638,1.96875,-9.59348,-0.000926545,-0.00137945,0.00145115,0.000315713,-0.00262171,0.707996,0.00186199,0.0112584,1413,386,1.96877,9.59347
196,638,1.9668,-9.51035,-0.000941167,-0.0011157,0.00147435,0.000448501,-0.00250537,0.755838,0.00183808,0.0139965,1420,386,1.96674,9.51035
203,638,1.95532,-9.42456,-0.000882569,-0.00089933,0.00127562,0.000384701,-0.0021666,0.782113,0.00158824,0.0191443,1427,386,1.95529,9.42456
210,638,1.96631,-9.35181,-0.000820862,-0.000405729,0.00141268,0.000814547,-0.00204114,0.858342,0.00169867,0.0149437,1434,386,1.96636,9.35182
217,638,1.93042,-9.28903,-0.00106245,-0.000240823,0.00151847,0.000921426,-0.00222469,0.917507,0.00186764,0.010883,1441,386,1.9304,9.28903
224,638,1.90796,-9.1918,-0.00113733,-2.31285e-05,0.001645,0.00115654,-0.002317,0.948668,0.00204242,0.0102059,1448,386,1.90794,9.1918
231,638,1.90063,-9.06842,-0.0011183,7.63676e-05,0.00168949,0.00127102,-0.00231295,0.955318,0.00209815,0.0111411,1455,386,1.90065,9.06842
238,638,1.88293,-8.99405,-0.00110257,0.000133937,0.00172119,0.00134455,-0.00231318,0.957822,0.00213633,0.011729,1462,386,1.88299,8.99403
245,638,1.88733,-8.905,-0.00100178,0.00016691,0.00169944,0.00137966,-0.00221453,0.950989,0.00209369,0.0131559,1469,386,1.88728,8.905
252,638,1.87976,-8.79239,-0.00071475,0.000220873,0.00167552,0.00149266,-0.00198654,0.921533,0.00201545,0.0151362,1476,386,1.87974,8.79238
259,638,1.87805,-8.66443,0.000190884,0.000402386,0.00189391,0.0021935,-0.00160023,0.813288,0.00219922,0.0144823,1483,386,1.87804,8.66444
266,638,1.86169,-8.56445,0.0012655,0.000864795,0.00253554,0.00360859,-0.00147829,0.745971,0.00302154,0.0111236,1490,386,1.8617,8.56446
273,638,1.85974,-8.47412,0.0025391,0.00122518,0.00381722,0.00575548,-0.00199121,0.700181,0.00464523,0.0106845,1497,386,1.8597,8.47413
280,638,1.901,-8.29095,0.00396826,0.00169514,0.00507419,0.00803161,-0.00236822,0.675223,0.00629412,0.0213921,1504,386,1.901,8.29096
287,638,2.14709,-8.25775,0,0,0,0,0,0,0,-1,1511,386,2.1471,8.25774
294,638,2.09155,-8.32504,0,0,0,0,0,0,0,-1,1518,386,2.09151,8.32504
301,638,1.96875,-8.1463,0,0,0,0,0,0,0,-1,1525,386,1.96872,8.14629
308,638,2.21143,-7.79831,0.0114587,0.00596356,0.0144899,0.0234593,-0.006037,0.691701,0.0179927,0.0471351,1532,386,2.21141,7.7983
315,638,2.53967,-7.58405,0.0126198,0.00666132,0.0173712,0.0272654,-0.00798426,0.700472,0.0213421,0.0440089,1539,386,2.5397,7.58406
322,638,2.60486,-7.51633,0.0135935,0.00762909,0.02037,0.0311984,-0.00997582,0.712713,0.0248022,0.0474174,1546,386,2.60482,7.51632
329,638,2.91479,-6.66599,0,0,0,0,0,0,0,-1,1553,386,2.91481,6.66599
336,638,2.75012,-8.26135,0,0,0,0,0,0,0,-1,1560,386,2.75016,8.26134
343,638,1.04028,-10.3387,0,0,0,0,0,0,0,-1,1567,386,1.04031,10.3387
350,638,2.3783,-11.33,0,0,0,0,0,0,0,-1,1574,386,2.37831,11.33
357,638,0.130371,-3.02618,0,0,0,0,0,0,0,-1,1581,386,0.130345,3.0262
364,638,3.78149,-6.45215,0,0,0,0,0,0,0,-1,1588,386,3.78155,6.45216
371,638,4.18604,-6.71164,0,0,0,0,0,0,0,-1,1595,386,4.18598,6.71164
378,638,4.59045,-6.97113,0,0,0,0,0,0,0,-1,1602,386,4.5904,6.97112
385,638,0,0,0,0,0,0,0,0,0,-1,1609,386,0,0
392,638,0,0,0,0,0,0,0,0,0,-1,1616,386,0,0
399,638,0,0,0,0,0,0,0,0,0,-1,1623,386,0,0
406,638,0,0,0,0,0,0,0,0,0,-1,1630,386,0,0
413,638,0,0,0,0,0,0,0,0,0,-1,1637,386,0,0
420,638,0,0,0,0,0,0,0,0,0,-1,1644,386,0,0
427,638,0,0,0,0,0,0,0,0,0,-1,1651,386,0,0
434,638,0,0,0,0,0,0,0,0,0,-1,1658,386,0,0
441,638,0,0,0,0,0,0,0,0,0,-1,1665,386,0,0
448,638,0,0,0,0,0,0,0,0,0,-1,1672,386,0,0
455,638,0,0,0,0,0,0,0,0,0,-1,1679,386,0,0
462,638,0,0,0,0,0,0,0,0,0,-1,1686,386,0,0
469,638,0,0,0,0,0,0,0,0,0,-1,1693,386,0,0
476,638,0,0,0,0,0,0,0,0,0,-1,1700,386,0,0
483,638,0,0,0,0,0,0,0,0,0,-1,1707,386,0,0
490,638,0,0,0,0,0,0,0,0,0,-1,1714,386,0,0
497,638,0,0,0,0,0,0,0,0,0,-1,1721,386,0,0
504,638,0,0,0,0,0,0,0,0,0,-1,1728,386,0,0
511,638,0,0,0,0,0,0,0,0,0,-1,1735,386,0,0
518,638,0,0,0,0,0,0,0,0,0,-1,1742,386,0,0
525,638,0,0,0,0,0,0,0,0,0,-1,1749,386,0,0
532,638,0,0,0,0,0,0,0,0,0,-1,1756,386,0,0
539,638,0,0,0,0,0,0,0,0,0,-1,1763,386,0,0
546,638,0,0,0,0,0,0,0,0,0,-1,1770,386,0,0
553,638,0,0,0,0,0,0,0,0,0,-1,1777,386,0,0
560,638,0,0,0,0,0,0,0,0,0,-1,1784,386,0,0
567,638,0,0,0,0,0,0,0,0,0,-1,1791,386,0,0
574,638,0,0,0,0,0,0,0,0,0,-1,1798,386,0,0
581,638,0,0,0,0,0,0,0,0,0,-1,1805,386,0,0
588,638,0,0,0,0,0,0,0,0,0,-1,1812,386,0,0
595,638,0,0,0,0,0,0,0,0,0,-1,1819,386,0,0
602,638,0,0,0,0,0,0,0,0,0,-1,1826,386,0,0
609,638,0,0,0,0,0,0,0,0,0,-1,1833,386,0,0
616,638,0,0,0,0,0,0,0,0,0,-1,1840,386,0,0
623,638,0,0,0,0,0,0,0,0,0,-1,1847,386,0,0
630,638,0,0,0,0,0,0,0,0,0,-1,1854,386,0,0
637,638,0,0,0,0,0,0,0,0,0,-1,1861,386,0,0
644,638,0,0,0,0,0,0,0,0,0,-1,1868,386,0,0
651,638,0,0,0,0,0,0,0,0,0,-1,1875,386,0,0
658,638,0,0,0,0,0,0,0,0,0,-1,1882,386,0,0
665,638,0,0,0,0,0,0,0,0,0,-1,1889,386,0,0
672,638,0,0,0,0,0,0,0,0,0,-1,1896,386,0,0
679,638,0,0,0,0,0,0,0,0,0,-1,1903,386,0,0
686,638,0,0,0,0,0,0,0,0,0,-1,1910,386,0,0
693,638,0,0,0,0,0,0,0,0,0,-1,1917,386,0,0
700,638,0,0,0,0,0,0,0,0,0,-1,1924,386,0,0
707,638,0,0,0,0,0,0,0,0,0,-1,1931,386,0,0
714,638,0,0,0,0,0,0,0,0,0,-1,1938,386,0,0
721,638,0,0,0,0,0,0,0,0,0,-1,1945,386,0,0
728,638,0,0,0,0,0,0,0,0,0,-1,1952,386,0,0
735,638,0,0,0,0,0,0,0,0,0,-1,1959,386,0,0
742,638,0,0,0,0,0,0,0,0,0,-1,1966,386,0,0
749,638,0,0,0,0,0,0,0,0,0,-1,1973,386,0,0
756,638,0,0,0,0,0,0,0,0,0,-1,1980,386,0,0
763,638,0,0,0,0,0,0,0,0,0,-1,1987,386,0,0
770,638,0,0,0,0,0,0,0,0,0,-1,1994,386,0,0
777,638,0,0,0,0,0,0,0,0,0,-1,2001,386,0,0
784,638,0,0,0,0,0,0,0,0,0,-1,2008,386,0,0
791,638,0,0,0,0,0,0,0,0,0,-1,2015,386,0,0
798,638,0,0,0,0,0,0,0,0,0,-1,2022,386,0,0
805,638,0,0,0,0,0,0,0,0,0,-1,2029,386,0,0
812,638,0,0,0,0,0,0,0,0,0,-1,2036,386,0,0
-700,631,0,0,0,0,0,0,0,0,0,-1,524,393,0,0
-693,631,0,0,0,0,0,0,0,0,0,-1,531,393,0,0
-686,631,0,0,0,0,0,0,0,0,0,-1,538,393,0,0
-679,631,0,0,0,0,0,0,0,0,0,-1,545,393,0,0
-672,631,0,0,0,0,0,0,0,0,0,-1,552,393,0,0
-665,631,0,0,0,0,0,0,0,0,0,-1,559,393,0,0
-658,631,0,0,0,0,0,0,0,0,0,-1,566,393,0,0
-651,631,0,0,0,0,0,0,0,0,0,-1,573,393,0,0
-644,631,0,0,0,0,0,0,0,0,0,-1,580,393,0,0
-637,631,0,0,0,0,0,0,0,0,0,-1,587,393,0,0
-630,631,0,0,0,0,0,0,0,0,0,-1,594,393,0,0
-623,631,0,0,0,0,0,0,0,0,0,-1,601,393,0,0
-616,631,0,0,0,0,0,0,0,0,0,-1,608,393,0,0
-609,631,0,0,0,0,0,0,0,0,0,-1,615,393,0,0
-602,631,0,0,0,0,0,0,0,0,0,-1,622,393,0,0
-595,631,0,0,0,0,0,0,0,0,0,-1,629,393,0,0
-588,631,0,0,0,0,0,0,0,0,0,-1,636,393,0,0
-581,631,0,0,0,0,0,0,0,0,0,-1,643,393,0,0
-574,631,0,0,0,0,0,0,0,0,0,-1,650,393,0,0
-567,631,0,0,0,0,0,0,0,0,0,-1,657,393,0,0
-560,631,0,0,0,0,0,0,0,0,0,-1,664,393,0,0
-553,631,0,0,0,0,0,0,0,0,0,-1,671,393,0,0
-546,631,0,0,0,0,0,0,0,0,0,-1,678,393,0,0
-539,631,0,0,0,0,0,0,0,0,0,-1,685,393,0,0
-532,631,0,0,0,0,0,0,0,0,0,-1,692,393,0,0
-525,631,0,0,0,0,0,0,0,0,0,-1,699,393,0,0
-518,631,0,0,0,0,0,0,0,0,0,-1,706,393,0,0
-511,631,0,0,0,0,0,0,0,0,0,-1,713,393,0,0
-504,631,0,0,0,0,0,0,0,0,0,-1,720,393,0,0
-497,631,0,0,0,0,0,0,0,0,0,-1,727,393,0,0
-490,631,0,0,0,0,0,0,0,0,0,-1,734,393,0,0
-483,631,0,0,0,0,0,0,0,0,0,-1,741,393,0,0
-476,631,0,0,0,0,0,0,0,0,0,-1,748,393,0,0
-469,631,0,0,0,0,0,0,0,0,0,-1,755,393,0,0
-462,631,0,0,0,0,0,0,0,0,0,-1,762,393,0,0
-455,631,0,0,0,0,0,0,0,0,0,-1,769,393,0,0
-448,631,0,0,0,0,0,0,0,0,0,-1,776,393,0,0
-441,631,0,0,0,0,0,0,0,0,0,-1,783,393,0,0
-434,631,0,0,0,0,0,0,0,0,0,-1,790,393,0,0
-427,631,0,0,0,0,0,0,0,0,0,-1,797,393,0,0
-420,631,0,0,0,0,0,0,0,0,0,-1,804,393,0,0
-413,631,0,0,0,0,0,0,0,0,0,-1,811,393,0,0
-406,631,0,0,0,0,0,0,0,0,0,-1,818,393,0,0
-399,631,0,0,0,0,0,0,0,0,0,-1,825,393,0,0
-392,631,0,0,0,0,0,0,0,0,0,-1,832,393,0,0
-385,631,0,0,0,0,0,0,0,0,0,-1,839,393,0,0
-378,631,0,0,0,0,0,0,0,0,0,-1,846,393,0,0
-371,631,0,0,0,0,0,0,0,0,0,-1,853,393,0,0
-364,631,0,0,0,0,0,0,0,0,0,-1,860,393,0,0
-357,631,0,0,0,0,0,0,0,0,0,-1,867,393,0,0
-350,631,0,0,0,0,0,0,0,0,0,-1,874,393,0,0
-343,631,0,0,0,0,0,0,0,0,0,-1,881,393,0,0
-336,631,0,0,0,0,0,0,0,0,0,-1,888,393,0,0
-329,631,0,0,0,0,0,0,0,0,0,-1,895,393,0,0
-322,631,0,0,0,0,0,0,0,0,0,-1,902,393,0,0
-315,631,0,0,0,0,0,0,0,0,0,-1,909,393,0,0
-308,631,0,0,0,0,0,0,0,0,0,-1,916,393,0,0
-301,631,0,0,0,0,0,0,0,0,0,-1,923,393,0,0
-294,631,0,0,0,0,0,0,0,0,0,-1,930,393,0,0
-287,631,0,0,0,0,0,0,0,0,0,-1,937,393,0,0
-280,631,1.12305,-12.4633,0,0,0,0,0,0,0,-1,944,393,1.12305,12.4633
-273,631,1.05743,-9.98688,0,0,0,0,0,0,0,-1,951,393,1.05741,9.98687
-266,631,0.616394,-9.4404,-0.0666022,-0.0978086,0.033017,-0.0456871,-0.118724,0.564662,0.0691487,0.0489809,958,393,0.616411,9.4404
-259,631,0.155945,-9.05249,-0.0600973,-0.0864002,0.027383,-0.0428713,-0.103626,0.561525,0.0601249,0.0482801,965,393,0.155941,9.0525
-252,631,-0.192444,-8.91171,0,0,0,0,0,0,0,-1,972,393,-0.192446,8.91173
-245,631,1.41357,-7.72195,0,0,0,0,0,0,0,-1,979,393,1.41358,7.72195
-238,631,1.61615,-7.987,0,0,0,0,0,0,0,-1,986,393,1.61616,7.98699
-231,631,0.917847,-6.79459,0,0,0,0,0,0,0,-1,993,393,0.917823,6.79459
-224,631,2.19391,-7.561,0,0,0,0,0,0,0,-1,1000,393,2.19391,7.561
-217,631,2.77722,-7.90506,0,0,0,0,0,0,0,-1,1007,393,2.77721,7.90506
-210,631,1.90002,-9.13345,0,0,0,0,0,0,0,-1,1014,393,1.90003,9.13345
-203,631,2.28766,-8.55527,0,0,0,0,0,0,0,-1,1021,393,2.28766,8.55527
-196,631,2.4657,-8.11981,0,0,0,0,0,0,0,-1,1028,393,2.46565,8.11981
-189,631,2.00549,-8.10507,0.00881642,-0.0279267,-0.00363469,0.00917252,-0.0282828,-0.0976605,0.0225435,0.0464882,1035,393,2.00551,8.10508
-182,631,1.95032,-8.40881,0.00860204,-0.0308229,-0.00276136,0.00879451,-0.0310153,-0.0695881,0.0241482,0.0448124,1042,393,1.95027,8.40883
-175,631,1.83679,-8.68466,0.00853539,-0.0320091,-0.00247878,0.00868638,-0.0321601,-0.0608354,0.0248469,0.0337146,1049,393,1.8368,8.68467
-168,631,2.00806,-8.83957,0.00832718,-0.0320098,-0.00222794,0.00844986,-0.0321325,-0.0550102,0.0247244,0.01753,1056,393,2.008,8.83957
-161,631,2.02063,-8.90509,0.00795056,-0.0303559,-0.00210863,0.00806628,-0.0304716,-0.0548254,0.0234699,0.00926773,1063,393,2.02062,8.90508
-154,631,2.01416,-9.00552,0.00734939,-0.0271973,-0.00219179,0.00748789,-0.0273358,-0.0631072,0.021166,0.00903472,1070,393,2.01418,9.00553
-147,631,2.01501,-9.11093,0.00679305,-0.0234281,-0.00243894,0.00698861,-0.0236236,-0.080013,0.0185234,0.00998859,1077,393,2.01499,9.11094
-140,631,2.0094,-9.22101,0.00625287,-0.0192192,-0.00250999,0.00649785,-0.0194642,-0.0972922,0.0155999,0.00926658,1084,393,2.00941,9.22099
-133,631,1.99426,-9.29932,0.00554566,-0.0148689,-0.0024198,0.00582857,-0.0151518,-0.116384,0.0125054,0.00787239,1091,393,1.99423,9.29931
-126,631,2.01184,-9.35355,0.0047924,-0.0105038,-0.0024655,0.00517998,-0.0108914,-0.155924,0.00947211,0.0116735,1098,393,2.01185,9.35354
-119,631,2.01428,-9.44815,0.00408132,-0.00627643,-0.0026374,0.00471421,-0.00690932,-0.235515,0.00675062,0.0146235,1105,393,2.01424,9.44814
-112,631,1.98779,-9.5383,0.00355902,-0.00243154,-0.0026707,0.00457676,-0.00344928,-0.364087,0.00464905,0.0130928,1112,393,1.98779,9.5383
-105,631,2.0105,-9.61032,0.00301443,0.000539989,-0.00252052,0.00458501,-0.00103059,-0.557244,0.00345187,0.0173364,1119,393,2.01051,9.61033
-98,631,2.0022,-9.69604,0.0023597,0.0028646,-0.00239032,0.00501576,0.000208534,-0.838009,0.00327654,0.0160438,1126,393,2.00216,9.69605
-91,631,1.9541,-9.79703,0.00184983,0.00408333,-0.00218528,0.00542067,0.000512493,-1.02162,0.00345564,0.0173179,1133,393,1.95411,9.79704
-84,631,1.94836,-9.85071,0.00174386,0.00358156,-0.00173719,0.00462794,0.00069749,-1.02866,0.00288108,0.0161503,1140,393,1.94831,9.85071
-77,631,1.93652,-9.88007,0.00153435,0.00309484,-0.0013462,0.00387056,0.000758629,-1.04804,0.00236835,0.010052,1147,393,1.93654,9.88006
-70,631,1.94727,-9.92163,0.00127796,0.00243961,-0.000892931,0.002924,0.00079357,-1.07375,0.001746,0.010061,1154,393,1.94732,9.92164
-63,631,1.95715,-9.97958,0.00108433,0.00187819,-0.000588078,0.00219076,0.000771762,-1.08226,0.00128311,0.00957263,1161,393,1.95713,9.97959
-56,631,1.96191,-10.0425,0.000916894,0.00199233,-0.00024468,0.00204538,0.000863842,-1.35728,0.00118564,0.0108585,1168,393,1.96186,10.0425
-49,631,1.95093,-10.0986,0.000624658,0.00168069,1.59909e-05,0.00168093,0.000624416,1.55566,0.000981117,0.00992614,1175,393,1.95098,10.0986
-42,631,1.94299,-10.1349,0.000167084,0.00136758,0.000246062,0.00141606,0.000118607,1.37628,0.00090709,0.00825748,1182,393,1.943,10.1349
-35,631,1.95496,-10.1481,-0.000205503,0.00105087,0.000165109,0.0010722,-0.000226838,1.44229,0.000801191,0.00917325,1189,393,1.95494,10.1481
-28,631,1.95276,-10.1754,-0.000286,0.000716855,2.33906e-05,0.0007174,-0.000286545,1.54749,0.000597156,0.0119222,1196,393,1.95278,10.1754
-21,631,1.93677,-10.2101,-0.000323909,0.000547044,-9.05096e-05,0.000556351,-0.000333215,-1.46833,0.000518949,0.0111045,1203,393,1.93678,10.2102
-14,631,1.92053,-10.2556,-0.000374788,0.000415359,-0.000253025,0.000489439,-0.000448868,-1.28598,0.0005419,0.0137063,1210,393,1.92057,10.2556
-7,631,1.92615,-10.3562,-0.000392638,0.000323113,-0.000483546,0.000566812,-0.000636336,-1.10397,0.000695024,0.0210461,1217,393,1.9262,10.3562
0,631,1.93848,-10.3814,-0.000403825,0.000422926,-0.000714397,0.000834924,-0.000815823,-1.04768,0.000953081,0.0216087,1224,393,1.93854,10.3814
7,631,1.95569,-10.3653,-0.000330825,0.000451739,-0.000849131,0.000995404,-0.00087449,-1.0013,0.00108034,0.0166951,1231,393,1.95573,10.3653
14,631,1.95483,-10.355,-0.000188064,0.000581085,-0.000982389,0.00125149,-0.000858471,-0.971963,0.00122521,0.00900762,1238,393,1.95484,10.355
21,631,1.9624,-10.3597,-2.45745e-05,0.000717481,-0.00108675,0.0014948,-0.000801888,-0.949899,0.00134596,0.0114177,1245,393,1.96243,10.3597
28,631,1.95459,-10.3696,0.000435111,0.000914468,-0.00124316,0.00194085,-0.000591269,-0.880628,0.00152957,0.0140216,1252,393,1.95463,10.3696
35,631,1.95825,-10.3599,0.00116502,0.00182471,-0.00182206,0.00334654,-0.000356808,-0.874943,0.00235897,0.0131029,1259,393,1.95825,10.3599
42,631,1.98022,-10.3675,0.00172246,0.00325629,-0.00264417,0.00524252,-0.000263772,-0.926545,0.00358617,0.010692,1266,393,1.98028,10.3675
49,631,1.97095,-10.3592,0.00187162,0.00395554,-0.00274263,0.00584747,-2.031e-05,-0.966933,0.0039051,0.00950683,1273,393,1.97096,10.3592
56,631,1.979,-10.3453,0.00196767,0.00510981,-0.00292141,0.00685581,0.000221681,-1.0321,0.00449846,0.0114663,1280,393,1.97901,10.3453
63,631,1.99011,-10.3527,0.00233621,0.00604506,-0.00316093,0.00785538,0.00052589,-1.05068,0.00507072,0.0133691,1287,393,1.99009,10.3527
70,631,1.99414,-10.3481,0.00255076,0.00688251,-0.00326956,0.0086385,0.000794768,-1.07793,0.00551321,0.0138824,1294,393,1.99408,10.3481
77,631,2.00037,-10.3328,0.0024625,0.00721942,-0.00311903,0.00876338,0.000918534,-1.11114,0.00556142,0.014745,1301,393,2.00043,10.3328
84,631,2.00427,-10.3056,0.00227672,0.00744372,-0.00282125,0.00868565,0.00103479,-1.15612,0.00547818,0.0123798,1308,393,2.00427,10.3056
91,631,1.99207,-10.2781,0.00197456,0.00756523,-0.00223627,0.00834967,0.00119012,-1.23343,0.00521521,0.0145305,1315,393,1.99202,10.2781
98,631,1.98291,-10.2639,0.0015709,0.00749178,-0.00140207,0.00780701,0.00125567,-1.34964,0.00484071,0.0122351,1322,393,1.98288,10.2639
105,631,1.98352,-10.2379,0.00129665,0.00717207,-0.000579681,0.00722872,0.00124,-1.47339,0.0044636,0.0106537,1329,393,1.98347,10.2379
112,631,2.01013,-10.2107,0.0011084,0.00702249,0.000215464,0.00703033,0.00110056,1.53443,0.00436651,0.0107516,1336,393,2.01011,10.2107
119,631,2.02698,-10.1737,0.000916183,0.00667599,0.00101925,0.00685104,0.000741139,1.40072,0.00434145,0.0113669,1343,393,2.027,10.1737
126,631,2.0448,-10.107,0.000801042,0.00632219,0.00163734,0.00677123,0.000351999,1.30313,0.00440151,0.0164807,1350,393,2.04481,10.107
133,631,2.03455,-10.0393,0.000603571,0.00599071,0.00208063,0.00670072,-0.000106437,1.24194,0.00450305,0.0171106,1357,393,2.03449,10.0393
140,631,1.99292,-10.0149,0.000391993,0.00529091,0.00250251,0.00634323,-0.00066032,1.17274,0.00446523,0.0186598,1364,393,1.9929,10.0149
147,631,1.95667,-9.95059,0.000431327,0.00452531,0.0026288,0.0058101,-0.000853463,1.1162,0.00418698,0.020873,1371,393,1.95664,9.95059
154,631,1.97363,-9.90256,0.000633547,0.00407152,0.00199952,0.00498938,-0.000284318,1.14045,0.00342496,0.0191391,1378,393,1.97367,9.90255
161,631,2.0011,-9.83548,0.000633919,0.00337592,0.00158379,0.00409968,-8.98442e-05,1.14215,0.00276356,0.0210718,1385,393,2.00113,9.83547
168,631,2.03503,-9.72836,0.000329381,0.00256965,0.00129262,0.00315994,-0.000260912,1.14241,0.00219876,0.024745,1392,393,2.03502,9.72837
175,631,2.02747,-9.70248,9.27744e-05,0.00175308,0.00108854,0.00229189,-0.000446038,1.11117,0.00169627,0.0202151,1399,393,2.02741,9.70249
182,631,2.02197,-9.66183,1.43994e-05,0.00108923,0.000890726,0.0015921,-0.000488478,1.05684,0.00125629,0.0117561,1406,393,2.022,9.66182
189,631,2.02686,-9.59406,-5.94503e-05,0.000479983,0.000843509,0.00109585,-0.000675315,0.940139,0.00103214,0.0110934,1413,393,2.02688,9.59406
196,631,2.03735,-9.52023,-0.000148089,6.65891e-05,0.000818953,0.000785207,-0.000866707,0.850561,0.00095412,0.0117061,1420,393,2.03732,9.52024
203,631,2.0564,-9.44025,-0.000237876,-0.00020277,0.000713807,0.0004937,-0.000934346,0.797691,0.000837464,0.0129704,1427,393,2.05639,9.44026
210,631,2.01611,-9.35626,-0.000372013,-8.10462e-05,0.000856178,0.000641921,-0.00109498,0.869555,0.00101411,0.0142118,1434,393,2.01608,9.35627
217,631,1.98474,-9.27222,-0.000614925,-5.27571e-05,0.000996914,0.000701942,-0.00136962,0.922808,0.00121655,0.0161468,1441,393,1.98478,9.27221
224,631,1.98975,-9.1879,-0.000692946,0.000153655,0.00114499,0.000951089,-0.00149038,0.962455,0.001421,0.013502,1448,393,1.9898,9.1879
231,631,1.99182,-9.07281,-0.000684168,0.000277928,0.00124349,0.00113017,-0.00153641,0.969959,0.0015455,0.0108376,1455,393,1.99177,9.07282
238,631,1.979,-8.98608,-0.000672523,0.000365411,0.00132153,0.00126622,-0.00157333,0.972498,0.00164261,0.0158212,1462,393,1.97898,8.98608
245,631,1.99524,-8.90677,-0.000601174,0.000431424,0.00134529,0.00135608,-0.00152583,0.968623,0.00166484,0.0174618,1469,393,1.99518,8.90677
252,631,1.98975,-8.81302,-0.000402466,0.000500648,0.00135878,0.00148094,-0.00138276,0.94582,0.00165368,0.0174903,1476,393,1.98973,8.81302
259,631,1.9646,-8.69098,0.000255117,0.000645782,0.00156436,0.00202695,-0.00112605,0.847509,0.00184499,0.0126265,1483,393,1.96454,8.69099
266,631,1.97449,-8.57153,0.00102371,0.000984577,0.00209701,0.00310124,-0.00109296,0.780733,0.00251235,0.0111341,1490,393,1.97448,8.57153
273,631,1.97144,-8.45139,0.00193459,0.00124826,0.00311929,0.00472953,-0.00154669,0.730612,0.0037757,0.0133551,1497,393,1.97144,8.45138
280,631,1.93835,-8.35272,0.00292896,0.0015764,0.00409099,0.00639919,-0.00189383,0.703484,0.00501798,0.0127061,1504,393,1.93837,8.35272
287,631,1.96851,-8.21454,0.0040093,0.00209523,0.00536472,0.00850168,-0.00239715,0.697129,0.00661328,0.0146219,1511,393,1.96852,8.21454
294,631,1.98486,-8.07419,0.00522116,0.00278123,0.00689653,0.0110048,-0.00300241,0.697856,0.00851563,0.0183773,1518,393,1.98482,8.0742
301,631,1.97913,-7.95197,0.00661419,0.00356504,0.00872381,0.0139456,-0.00376641,0.698891,0.0107743,0.0262699,1525,393,1.97918,7.95198
308,631,2.13464,-7.83453,0.0079792,0.00436315,0.01092,0.0172398,-0.00489745,0.703357,0.0134268,0.0312106,1532,393,2.13461,7.83454
315,631,2.27783,-7.82312,0.00869831,0.00480719,0.0129631,0.019861,-0.00635555,0.710912,0.0157914,0.0354356,1539,393,2.2778,7.82312
322,631,2.24719,-7.60339,0.00926222,0.00537252,0.0149906,0.0224336,-0.00779885,0.720889,0.0181236,0.042301,1546,393,2.24717,7.60338
329,631,2.48547,-6.81705,0,0,0,0,0,0,0,-1,1553,393,2.48553,6.81704
336,631,2.62097,-5.95889,0,0,0,0,0,0,0,-1,1560,393,2.62091,5.95889
343,631,2.39612,-6.96481,0,0,0,0,0,0,0,-1,1567,393,2.39608,6.96482
350,631,2.1344,-9.23401,0,0,0,0,0,0,0,-1,1574,393,2.13439,9.23401
357,631,2.6449,-9.60303,0,0,0,0,0,0,0,-1,1581,393,2.64491,9.60304
364,631,3.39136,-5.7594,0,0,0,0,0,0,0,-1,1588,393,3.39137,5.75939
371,631,3.72839,-6.0574,0,0,0,0,0,0,0,-1,1595,393,3.72845,6.05742
378,631,4.06555,-6.35544,0,0,0,0,0,0,0,-1,1602,393,4.06553,6.35544
385,631,3.90442,-3.58298,0,0,0,0,0,0,0,-1,1609,393,3.90437,3.58299
392,631,0.352295,-2.21301,0,0,0,0,0,0,0,-1,1616,393,0.352345,2.213
399,631,0,0,0,0,0,0,0,0,0,-1,1623,393,0,0
406,631,0,0,0,0,0,0,0,0,0,-1,1630,393,0,0
413,631,0,0,0,0,0,0,0,0,0,-1,1637,393,0,0
420,631,0,0,0,0,0,0,0,0,0,-1,1644,393,0,0
427,631,0,0,0,0,0,0,0,0,0,-1,1651,393,0,0
434,631,0,0,0,0,0,0,0,0,0,-1,1658,393,0,0
441,631,0,0,0,0,0,0,0,0,0,-1,1665,393,0,0
448,631,0,0,0,0,0,0,0,0,0,-1,1672,393,0,0
455,631,0,0,0,0,0,0,0,0,0,-1,1679,393,0,0
462,631,0,0,0,0,0,0,0,0,0,-1,1686,393,0,0
469,631,0,0,0,0,0,0,0,0,0,-1,1693,393,0,0
476,631,0,0,0,0,0,0,0,0,0,-1,1700,393,0,0
483,631,0,0,0,0,0,0,0,0,0,-1,1707,393,0,0
490,631,0,0,0,0,0,0,0,0,0,-1,1714,393,0,0
497,631,0,0,0,0,0,0,0,0,0,-1,1721,393,0,0
504,631,0,0,0,0,0,0,0,0,0,-1,1728,393,0,0
511,631,0,0,0,0,0,0,0,0,0,-1,1735,393,0,0
518,631,0,0,0,0,0,0,0,0,0,-1,1742,393,0,0
525,631,0,0,0,0,0,0,0,0,0,-1,1749,393,0,0
532,631,0,0,0,0,0,0,0,0,0,-1,1756,393,0,0
539,631,0,0,0,0,0,0,0,0,0,-1,1763,393,0,0
546,631,0,0,0,0,0,0,0,0,0,-1,1770,393,0,0
553,631,0,0,0,0,0,0,0,0,0,-1,1777,393,0,0
560,631,0,0,0,0,0,0,0,0,0,-1,1784,393,0,0
567,631,0,0,0,0,0,0,0,0,0,-1,1791,393,0,0
574,631,0,0,0,0,0,0,0,0,0,-1,1798,393,0,0
581,631,0,0,0,0,0,0,0,0,0,-1,1805,393,0,0
588,631,0,0,0,0,0,0,0,0,0,-1,1812,393,0,0
595,631,0,0,0,0,0,0,0,0,0,-1,1819,393,0,0
602,631,0,0,0,0,0,0,0,0,0,-1,1826,393,0,0
609,631,0,0,0,0,0,0,0,0,0,-1,1833,393,0,0
616,631,0,0,0,0,0,0,0,0,0,-1,1840,393,0,0
623,631,0,0,0,0,0,0,0,0,0,-1,1847,393,0,0
630,631,0,0,0,0,0,0,0,0,0,-1,1854,393,0,0
637,631,0,0,0,0,0,0,0,0,0,-1,1861,393,0,0
644,631,0,0,0,0,0,0,0,0,0,-1,1868,393,0,0
651,631,0,0,0,0,0,0,0,0,0,-1,1875,393,0,0
658,631,0,0,0,0,0,0,0,0,0,-1,1882,393,0,0
665,631,0,0,0,0,0,0,0,0,0,-1,1889,393,0,0
672,631,0,0,0,0,0,0,0,0,0,-1,1896,393,0,0
679,631,0,0,0,0,0,0,0,0,0,-1,1903,393,0,0
686,631,0,0,0,0,0,0,0,0,0,-1,1910,393,0,0
693,631,0,0,0,0,0,0,0,0,0,-1,1917,393,0,0
700,631,0,0,0,0,0,0,0,0,0,-1,1924,393,0,0
707,631,0,0,0,0,0,0,0,0,0,-1,1931,393,0,0
714,631,0,0,0,0,0,0,0,0,0,-1,1938,393,0,0
721,631,0,0,0,0,0,0,0,0,0,-1,1945,393,0,0
728,631,0,0,0,0,0,0,0,0,0,-1,1952,393,0,0
735,631,0,0,0,0,0,0,0,0,0,-1,1959,393,0,0
742,631,0,0,0,0,0,0,0,0,0,-1,1966,393,0,0
749,631,0,0,0,0,0,0,0,0,0,-1,1973,393,0,0
756,631,0,0,0,0,0,0,0,0,0,-1,1980,393,0,0
763,631,0,0,0,0,0,0,0,0,0,-1,1987,393,0,0
770,631,0,0,0,0,0,0,0,0,0,-1,1994,393,0,0
777,631,0,0,0,0,0,0,0,0,0,-1,2001,393,0,0
784,631,0,0,0,0,0,0,0,0,0,-1,2008,393,0,0
791,631,0,0,0,0,0,0,0,0,0,-1,2015,393,0,0
798,631,0,0,0,0,0,0,0,0,0,-1,2022,393,0,0
805,631,0,0,0,0,0,0,0,0,0,-1,2029,393,0,0
812,631,0,0,0,0,0,0,0,0,0,-1,2036,393,0,0
-700,624,0,0,0,0,0,0,0,0,0,-1,524,400,0,0
-693,624,0,0,0,0,0,0,0,0,0,-1,531,400,0,0
-686,624,0,0,0,0,0,0,0,0,0,-1,538,400,0,0
-679,624,0,0,0,0,0,0,0,0,0,-1,545,400,0,0
-672,624,0,0,0,0,0,0,0,0,0,-1,552,400,0,0
-665,624,0,0,0,0,0,0,0,0,0,-1,559,400,0,0
-658,624,0,0,0,0,0,0,0,0,0,-1,566,400,0,0
-651,624,0,0,0,0,0,0,0,0,0,-1,573,400,0,0
-644,624,0,0,0,0,0,0,0,0,0,-1,580,400,0,0
-637,624,0,0,0,0,0,0,0,0,0,-1,587,400,0,0
-630,624,0,0,0,0,0,0,0,0,0,-1,594,400,0,0
-623,624,0,0,0,0,0,0,0,0,0,-1,601,400,0,0
-616,624,0,0,0,0,0,0,0,0,0,-1,608,400,0,0
-609,624,0,0,0,0,0,0,0,0,0,-1,615,400,0,0
-602,624,0,0,0,0,0,0,0,0,0,-1,622,400,0,0
-595,624,0,0,0,0,0,0,0,0,0,-1,629,400,0,0
-588,624,0,0,0,0,0,0,0,0,0,-1,636,400,0,0
-581,624,0,0,0,0,0,0,0,0,0,-1,643,400,0,0
-574,624,0,0,0,0,0,0,0,0,0,-1,650,400,0,0
-567,624,0,0,0,0,0,0,0,0,0,-1,657,400,0,0
-560,624,0,0,0,0,0,0,0,0,0,-1,664,400,0,0
-553,624,0,0,0,0,0,0,0,0,0,-1,671,400,0,0
-546,624,0,0,0,0,0,0,0,0,0,-1,678,400,0,0
-539,624,0,0,0,0,0,0,0,0,0,-1,685,400,0,0
-532,624,0,0,0,0,0,0,0,0,0,-1,692,400,0,0
-525,624,0,0,0,0,0,0,0,0,0,-1,699,400,0,0
-518,624,0,0,0,0,0,0,0,0,0,-1,706,400,0,0
-511,624,0,0,0,0,0,0,0,0,0,-1,713,400,0,0
-504,624,0,0,0,0,0,0,0,0,0,-1,720,400,0,0
-497,624,0,0,0,0,0,0,0,0,0,-1,727,400,0,0
-490,624,0,0,0,0,0,0,0,0,0,-1,734,400,0,0
-483,624,0,0,0,0,0,0,0,0,0,-1,741,400,0,0
-476,624,0,0,0,0,0,0,0,0,0,-1,748,400,0,0
-469,624,0,0,0,0,0,0,0,0,0,-1,755,400,0,0
-462,624,0,0,0,0,0,0,0,0,0,-1,762,400,0,0
-455,624,0,0,0,0,0,0,0,0,0,-1,769,400,0,0
-448,624,0,0,0,0,0,0,0,0,0,-1,776,400,0,0
-441,624,0,0,0,0,0,0,0,0,0,-1,783,400,0,0
-434,624,0,0,0,0,0,0,0,0,0,-1,790,400,0,0
-427,624,0,0,0,0,0,0,0,0,0,-1,797,400,0,0
-420,624,0,0,0,0,0,0,0,0,0,-1,804,400,0,0
-413,624,0,0,0,0,0,0,0,0,0,-1,811,400,0,0
-406,624,0,0,0,0,0,0,0,0,0,-1,818,400,0,0
-399,624,0,0,0,0,0,0,0,0,0,-1,825,400,0,0
-392,624,0,0,0,0,0,0,0,0,0,-1,832,400,0,0
-385,624,0,0,0,0,0,0,0,0,0,-1,839,400,0,0
-378,624,0,0,0,0,0,0,0,0,0,-1,846,400,0,0
-371,624,0,0,0,0,0,0,0,0,0,-1,853,400,0,0
-364,624,0,0,0,0,0,0,0,0,0,-1,860,400,0,0
-357,624,0,0,0,0,0,0,0,0,0,-1,867,400,0,0
-350,624,0,0,0,0,0,0,0,0,0,-1,874,400,0,0
-343,624,0,0,0,0,0,0,0,0,0,-1,881,400,0,0
-336,624,0,0,0,0,0,0,0,0,0,-1,888,400,0,0
-329,624,0,0,0,0,0,0,0,0,0,-1,895,400,0,0
-322,624,0,0,0,0,0,0,0,0,0,-1,902,400,0,0
-315,624,0,0,0,0,0,0,0,0,0,-1,909,400,0,0
-308,624,0,0,0,0,0,0,0,0,0,-1,916,400,0,0
-301,624,0,0,0,0,0,0,0,0,0,-1,923,400,0,0
-294,624,1.59058,-11.9451,0,0,0,0,0,0,0,-1,930,400,1.59057,11.9451
-287,624,1.05115,-11.63,0,0,0,0,0,0,0,-1,937,400,1.05116,11.63
-280,624,1.66888,-10.3219,0,0,0,0,0,0,0,-1,944,400,1.66888,10.3219
-273,624,1.08618,-9.31528,-0.0493206,-0.0850759,0.0297583,-0.0324828,-0.101914,0.514908,0.0601151,0.0473704,951,400,1.0862,9.31527
-266,624,0.629333,-8.73184,-0.0503751,-0.0742301,0.0248085,-0.0347758,-0.0898294,0.56132,0.0523017,0.0467485,958,400,0.629325,8.73185
-259,624,0.114319,-8.10623,-0.0466254,-0.064305,0.019799,-0.0337824,-0.0771479,0.575438,0.0446558,0.0474402,965,400,0.114318,8.10624
-252,624,-0.439392,-7.77905,0,0,0,0,0,0,0,-1,972,400,-0.439416,7.77906
-245,624,-0.974976,-7.46066,0,0,0,0,0,0,0,-1,979,400,-0.97495,7.46065
-238,624,1.52185,-7.13922,0,0,0,0,0,0,0,-1,986,400,1.52183,7.13922
-231,624,1.80646,-7.19147,0,0,0,0,0,0,0,-1,993,400,1.80646,7.19147
-224,624,2.06061,-7.26733,0,0,0,0,0,0,0,-1,1000,400,2.06063,7.26734
-217,624,2.14105,-7.70892,0,0,0,0,0,0,0,-1,1007,400,2.14104,7.70892
-210,624,1.87299,-8.66479,0.00155079,-0.00702114,-0.00232811,0.00214228,-0.00761263,-0.248802,0.00591983,0.0447104,1014,400,1.87296,8.66479
-203,624,2.10095,-8.41522,0.00490135,-0.00844518,-0.00312949,0.00559872,-0.00914255,-0.219254,0.00859246,0.0380698,1021,400,2.10098,8.41521
-196,624,2.1803,-8.25537,0.00551575,-0.0137209,-0.00258124,0.00585609,-0.0140612,-0.131095,0.01182,0.0341349,1028,400,2.18027,8.25537
-189,624,1.99097,-8.30084,0.00571285,-0.0172033,-0.00251807,0.00598628,-0.0174767,-0.108162,0.0140774,0.0345747,1035,400,1.99099,8.30084
-182,624,1.91504,-8.53247,0.00555721,-0.0196873,-0.00180957,0.00568626,-0.0198163,-0.0711967,0.0154589,0.0294022,1042,400,1.91509,8.53246
-175,624,1.96704,-8.73227,0.00553672,-0.0209444,-0.00158212,0.00563091,-0.0210386,-0.0594632,0.0162316,0.0178377,1049,400,1.96702,8.73227
-168,624,1.96497,-8.83127,0.00541502,-0.0213262,-0.00141115,0.00548929,-0.0214005,-0.052576,0.0164058,0.0112154,1056,400,1.96494,8.83126
-161,624,1.95605,-8.92841,0.00519029,-0.02048,-0.0013434,0.00526041,-0.0205501,-0.052143,0.0157491,0.00994506,1063,400,1.95608,8.9284
-154,624,1.93579,-9.03769,0.004822,-0.0184609,-0.00140921,0.00490699,-0.0185459,-0.0602325,0.0142834,0.00986932,1070,400,1.93578,9.03768
-147,624,1.92615,-9.12524,0.00447533,-0.0160544,-0.00159281,0.00459817,-0.0161772,-0.0769718,0.0126004,0.010482,1077,400,1.92611,9.12525
-140,624,1.92383,-9.22287,0.00413751,-0.0133051,-0.00165879,0.00429386,-0.0134615,-0.0939771,0.0106968,0.00927713,1084,400,1.92386,9.22287
-133,624,1.91394,-9.30212,0.00369124,-0.0103771,-0.00158994,0.00386869,-0.0105546,-0.111147,0.00862035,0.0103204,1091,400,1.91389,9.30212
-126,624,1.92615,-9.3631,0.00317821,-0.00731328,-0.00161589,0.00342145,-0.00755652,-0.149407,0.00648628,0.0120766,1098,400,1.92611,9.36309
-119,624,1.92334,-9.44284,0.00267332,-0.00423587,-0.00175251,0.00309242,-0.00465497,-0.234735,0.00450318,0.0137757,1105,400,1.92328,9.44283
-112,624,1.89868,-9.52621,0.00228742,-0.00145566,-0.00178352,0.00300114,-0.00216938,-0.38066,0.00299805,0.014762,1112,400,1.89871,9.52623
-105,624,1.89404,-9.61087,0.00190838,0.000667357,-0.00168415,0.00308269,-0.000506955,-0.608894,0.00224329,0.0112519,1119,400,1.89405,9.61088
-98,624,1.89905,-9.69354,0.00148381,0.00221984,-0.00159098,0.00348482,0.000218829,-0.899056,0.00225381,0.0125114,1126,400,1.89909,9.69354
-91,624,1.89929,-9.77332,0.00117055,0.00293806,-0.00142552,0.00373154,0.000377061,-1.06288,0.00237202,0.018165,1133,400,1.89935,9.7733
-84,624,1.90723,-9.84058,0.00108107,0.00260163,-0.00109883,0.00317756,0.00050514,-1.08803,0.00197168,0.0166381,1140,400,1.90725,9.84058
-77,624,1.89795,-9.88879,0.000921672,0.00227594,-0.000797291,0.00264484,0.000552774,-1.13744,0.0016109,0.011938,1147,400,1.898,9.88879
-70,624,1.89124,-9.92935,0.000794502,0.00183535,-0.000467648,0.0020146,0.000615258,-1.20478,0.00119213,0.0120155,1154,400,1.89126,9.92937
-63,624,1.90808,-9.97986,0.000549108,0.00173832,-0.000166133,0.00176109,0.000526335,-1.43457,0.00104383,0.010592,1161,400,1.90809,9.97987
-56,624,1.90747,-10.0394,0.000252964,0.00149318,6.21837e-05,0.00149629,0.000249853,1.52082,0.000925551,0.00940726,1168,400,1.90751,10.0394
-49,624,1.90894,-10.0859,-0.000326023,0.000990991,0.000217464,0.00102597,-0.000361002,1.41132,0.000830879,0.00955189,1175,400,1.90892,10.0859
-42,624,1.91406,-10.1265,-0.00115416,0.000421816,0.000380927,0.00050906,-0.00124141,1.34565,0.0010397,0.00921049,1182,400,1.91411,10.1265
-35,624,1.93298,-10.1595,-0.00194078,-0.000349424,0.000308639,-0.000291661,-0.00199854,1.38578,0.00124657,0.0141008,1189,400,1.933,10.1595
-28,624,1.90491,-10.1902,-0.00239459,-0.00106338,0.000199493,-0.00103412,-0.00242384,1.4252,0.00140442,0.0180684,1196,400,1.90491,10.1903
-21,624,1.89868,-10.2295,-0.00272858,-0.00173462,-1.22727e-05,-0.00173447,-0.00272873,-1.55845,0.00159464,0.0134546,1203,400,1.89863,10.2295
-14,624,1.94238,-10.2476,-0.00291568,-0.00239968,-0.000249708,-0.00229863,-0.00301673,-1.18626,0.00181965,0.0151201,1210,400,1.9424,10.2476
-7,624,1.92688,-10.2726,-0.0029179,-0.00293406,-0.000607012,-0.00231891,-0.00353304,-0.778742,0.00207278,0.0186202,1217,400,1.92694,10.2727
0,624,1.93445,-10.3246,-0.00269807,-0.00318731,-0.00101444,-0.00189917,-0.00398621,-0.66709,0.00230229,0.0186951,1224,400,1.93444,10.3246
7,624,1.92859,-10.3495,-0.00224072,-0.00328318,-0.00133638,-0.00132751,-0.00419638,-0.599457,0.00247666,0.0137202,1231,400,1.92861,10.3495
14,624,1.94507,-10.3606,-0.00157803,-0.00311606,-0.00161783,-0.000555748,-0.00413834,-0.563535,0.00259357,0.011227,1238,400,1.94512,10.3606
21,624,1.93835,-10.3566,-0.000824091,-0.00281034,-0.00184868,0.000281334,-0.00391577,-0.538914,0.00270916,0.0113884,1245,400,1.93834,10.3566
28,624,1.93665,-10.3729,0.000359087,-0.00229488,-0.00215197,0.00156032,-0.00349611,-0.509117,0.00298979,0.0115086,1252,400,1.93664,10.3729
35,624,1.9386,-10.3705,0.00186344,-0.000857862,-0.00295228,0.00375353,-0.00274795,-0.569465,0.00376857,0.0150342,1259,400,1.93856,10.3705
42,624,1.94629,-10.3671,0.00292963,0.00120692,-0.00396771,0.0061284,-0.00199186,-0.678511,0.0048868,0.0149617,1266,400,1.94631,10.3671
49,624,1.97791,-10.36,0.00325739,0.00280587,-0.00390161,0.00693976,-0.0008765,-0.756499,0.00494464,0.015737,1273,400,1.97789,10.36
56,624,1.99133,-10.3536,0.00342672,0.00452265,-0.0038921,0.00790517,4.41982e-05,-0.855333,0.00525545,0.0165582,1280,400,1.99133,10.3536
63,624,2.00256,-10.3635,0.00376482,0.00592411,-0.00391154,0.00890227,0.000786657,-0.920053,0.00569078,0.0136423,1287,400,2.00252,10.3635
70,624,1.98926,-10.3687,0.00375375,0.00708916,-0.00364942,0.00943387,0.00140903,-0.999719,0.00587616,0.0118502,1294,400,1.98928,10.3687
77,624,1.9884,-10.3387,0.00322061,0.00746631,-0.00304711,0.00905714,0.00162979,-1.08964,0.00557481,0.0122605,1301,400,1.98835,10.3387
84,624,2.00464,-10.3145,0.00259415,0.00788959,-0.00229026,0.00874268,0.00174105,-1.21423,0.0053435,0.0115535,1308,400,2.00469,10.3145
91,624,2.01135,-10.2866,0.00179602,0.0083375,-0.00124872,0.00856777,0.00156575,-1.38844,0.00526807,0.0119851,1315,400,2.01133,10.2866
98,624,2.01294,-10.2758,0.00102568,0.00863122,4.09999e-05,0.00863144,0.00102546,1.56541,0.00544476,0.0119759,1322,400,2.01295,10.2758
105,624,2.0199,-10.2623,0.000476486,0.00866186,0.00132144,0.00886991,0.000268441,1.41464,0.00582585,0.0136674,1329,400,2.01991,10.2623
112,624,2.04639,-10.2393,0.000186475,0.00879082,0.00243533,0.00943228,-0.000454986,1.31325,0.00644521,0.0141943,1336,400,2.04643,10.2393
119,624,2.06274,-10.1917,-7.03055e-06,0.00885602,0.00346486,0.0100498,-0.00120078,1.239,0.00713387,0.0148954,1343,400,2.06271,10.1918
126,624,2.07678,-10.081,-2.21899e-06,0.00903885,0.00416741,0.0106667,-0.00163006,1.19841,0.00771212,0.0179186,1350,400,2.07683,10.081
133,624,2.09241,-10.0387,-6.92072e-05,0.00932668,0.00461292,0.0112128,-0.00195531,1.18266,0.00820499,0.0171693,1357,400,2.0924,10.0387
140,624,2.04614,-10.0097,-0.000150127,0.00916686,0.00497538,0.0113242,-0.00230749,1.16166,0.00842465,0.0173002,1364,400,2.04611,10.0097
147,624,2.01526,-9.93893,0.000234112,0.00877166,0.00490699,0.0110068,-0.00200103,1.14338,0.00808782,0.0205497,1371,400,2.0153,9.93893
154,624,2.04883,-9.90283,0.000845794,0.00875776,0.00378423,0.0102763,-0.000672731,1.18919,0.00708576,0.0217596,1378,400,2.04884,9.90284
161,624,2.06604,-9.84875,0.0010541,0.00826145,0.00296853,0.00932667,-1.11256e-05,1.22627,0.0062215,0.020275,1385,400,2.06601,9.84876
168,624,2.09045,-9.75919,0.00078827,0.00738737,0.00231646,0.00811932,5.63189e-05,1.26475,0.00539421,0.0194969,1392,400,2.09051,9.75917
175,624,2.10034,-9.71848,0.000592081,0.00630903,0.00174469,0.00679941,0.000101702,1.2968,0.00449942,0.0161152,1399,400,2.10035,9.71846
182,624,2.09143,-9.66824,0.000556097,0.00521316,0.00112843,0.00547218,0.000297078,1.34517,0.00355323,0.0106579,1406,400,2.09148,9.66824
189,624,2.08875,-9.59677,0.000450177,0.00360522,0.000819154,0.00380522,0.000250176,1.33133,0.00245767,0.0101376,1413,400,2.08878,9.59676
196,624,2.09106,-9.53558,0.000438427,0.00198175,0.000524767,0.00214328,0.000276899,1.27219,0.00134608,0.0109644,1420,400,2.09112,9.53557
203,624,2.11743,-9.46262,0.000344176,0.000737366,0.000279995,0.000882892,0.00019865,1.09148,0.000534821,0.0137179,1427,400,2.11739,9.46263
210,624,2.09119,-9.37756,0.000103055,0.000259677,0.000347124,0.000537214,-0.000174482,0.89634,0.000428318,0.0165205,1434,400,2.09124,9.37758
217,624,2.05872,-9.26059,-0.00018162,7.72741e-05,0.000526595,0.000490099,-0.000594445,0.905918,0.000627127,0.0197585,1441,400,2.0587,9.26058
224,624,2.07703,-9.17157,-0.000270362,0.000289626,0.000698748,0.00076239,-0.000743126,0.975956,0.000869234,0.0162219,1448,400,2.07707,9.17157
231,624,2.08655,-9.09445,-0.000282579,0.000443824,0.000842354,0.000997942,-0.000836697,0.988943,0.00106059,0.0116378,1455,400,2.08653,9.09444
238,624,2.08606,-9.01358,-0.000283361,0.00055772,0.000955685,0.0011813,-0.000906941,0.992669,0.00120911,0.017531,1462,400,2.08601,9.01359
245,624,2.10449,-8.94351,-0.000240723,0.000647958,0.00100919,0.00130629,-0.00089906,0.992775,0.00128048,0.0185876,1469,400,2.10448,8.9435
252,624,2.11572,-8.81625,-0.000117354,0.000724952,0.00104391,0.00142946,-0.000821864,0.977131,0.00131549,0.0135797,1476,400,2.11571,8.81624
259,624,2.08325,-8.69501,0.000332379,0.000836161,0.0012235,0.00183343,-0.000664888,0.886918,0.00149407,0.00931699,1483,400,2.0833,8.695
266,624,2.07715,-8.56384,0.000864078,0.00107007,0.00165094,0.00262122,-0.000687073,0.816551,0.00201592,0.0128103,1490,400,2.07719,8.56383
273,624,2.08008,-8.44843,0.00150031,0.00125962,0.00244802,0.00383095,-0.00107101,0.760838,0.00297592,0.0157501,1497,400,2.08011,8.44843
280,624,2.06396,-8.36945,0.00218029,0.0014775,0.00319368,0.00504185,-0.00138406,0.730605,0.00390521,0.0141798,1504,400,2.06399,8.36945
287,624,2.05579,-8.26312,0.00291986,0.00182989,0.00416282,0.00657321,-0.00182347,0.72031,0.00509981,0.0106311,1511,400,2.05583,8.26313
294,624,2.0365,-8.12146,0.00373192,0.00230067,0.00529846,0.00836286,-0.00233028,0.718273,0.00649292,0.00857337,1518,400,2.0365,8.12145
301,624,2.04016,-7.99149,0.00464704,0.00279396,0.00658795,0.0103733,-0.00293228,0.715536,0.00807247,0.0101335,1525,400,2.04014,7.9915
308,624,2.06409,-7.8414,0.00551831,0.00323535,0.00811652,0.0125732,-0.00381956,0.715538,0.00990396,0.013674,1532,400,2.06409,7.84139
315,624,2.05249,-7.71201,0.00593544,0.00349675,0.00952868,0.0143225,-0.00489029,0.721761,0.0115295,0.0155064,1539,400,2.05251,7.712
322,624,2.03296,-7.58212,0.00622291,0.00381259,0.0108678,0.0159522,-0.00591669,0.730178,0.0130616,0.0229111,1546,400,2.03294,7.58213
329,624,2.05627,-6.96811,0,0,0,0,0,0,0,-1,1553,400,2.05626,6.9681
336,624,2.47546,-7.49918,0,0,0,0,0,0,0,-1,1560,400,2.47544,7.49918
343,624,2.58496,-7.04837,0,0,0,0,0,0,0,-1,1567,400,2.58501,7.04837
350,624,1.99194,-7.29742,0,0,0,0,0,0,0,-1,1574,400,1.99198,7.29741
357,624,2.64075,-3.13092,0,0,0,0,0,0,0,-1,1581,400,2.64076,3.13091
364,624,3.16565,-4.9458,0,0,0,0,0,0,0,-1,1588,400,3.16564,4.94579
371,624,3.37561,-5.23529,0,0,0,0,0,0,0,-1,1595,400,3.37563,5.23529
378,624,1.50439,-5.22165,0,0,0,0,0,0,0,-1,1602,400,1.50438,5.22164
385,624,0.724731,-2.43875,0,0,0,0,0,0,0,-1,1609,400,0.724746,2.43875
392,624,4.26819,-5.14236,0,0,0,0,0,0,0,-1,1616,400,4.26818,5.14236
399,624,3.86841,-2.36917,0,0,0,0,0,0,0,-1,1623,400,3.86838,2.36916
406,624,4.35376,-2.6962,0,0,0,0,0,0,0,-1,1630,400,4.35373,2.69619
413,624,0,0,0,0,0,0,0,0,0,-1,1637,400,0,0
420,624,0,0,0,0,0,0,0,0,0,-1,1644,400,0,0
427,624,0,0,0,0,0,0,0,0,0,-1,1651,400,0,0
434,624,0,0,0,0,0,0,0,0,0,-1,1658,400,0,0
441,624,0,0,0,0,0,0,0,0,0,-1,1665,400,0,0
448,624,0,0,0,0,0,0,0,0,0,-1,1672,400,0,0
455,624,0,0,0,0,0,0,0,0,0,-1,1679,400,0,0
462,624,0,0,0,0,0,0,0,0,0,-1,1686,400,0,0
469,624,0,0,0,0,0,0,0,0,0,-1,1693,400,0,0
476,624,0,0,0,0,0,0,0,0,0,-1,1700,400,0,0
483,624,0,0,0,0,0,0,0,0,0,-1,1707,400,0,0
490,624,0,0,0,0,0,0,0,0,0,-1,1714,400,0,0
497,624,0,0,0,0,0,0,0,0,0,-1,1721,400,0,0
504,624,0,0,0,0,0,0,0,0,0,-1,1728,400,0,0
511,624,0,0,0,0,0,0,0,0,0,-1,1735,400,0,0
518,624,0,0,0,0,0,0,0,0,0,-1,1742,400,0,0
525,624,0,0,0,0,0,0,0,0,0,-1,1749,400,0,0
532,624,0,0,0,0,0,0,0,0,0,-1,1756,400,0,0
539,624,0,0,0,0,0,0,0,0,0,-1,1763,400,0,0
546,624,0,0,0,0,0,0,0,0,0,-1,1770,400,0,0
553,624,0,0,0,0,0,0,0,0,0,-1,1777,400,0,0
560,624,0,0,0,0,0,0,0,0,0,-1,1784,400,0,0
567,624,0,0,0,0,0,0,0,0,0,-1,1791,400,0,0
574,624,0,0,0,0,0,0,0,0,0,-1,1798,400,0,0
581,624,0,0,0,0,0,0,0,0,0,-1,1805,400,0,0
588,624,0,0,0,0,0,0,0,0,0,-1,1812,400,0,0
595,624,0,0,0,0,0,0,0,0,0,-1,1819,400,0,0
602,624,0,0,0,0,0,0,0,0,0,-1,1826,400,0,0
609,624,0,0,0,0,0,0,0,0,0,-1,1833,400,0,0
616,624,0,0,0,0,0,0,0,0,0,-1,1840,400,0,0
623,624,0,0,0,0,0,0,0,0,0,-1,1847,400,0,0
630,624,0,0,0,0,0,0,0,0,0,-1,1854,400,0,0
637,624,0,0,0,0,0,0,0,0,0,-1,1861,400,0,0
644,624,0,0,0,0,0,0,0,0,0,-1,1868,400,0,0
651,624,0,0,0,0,0,0,0,0,0,-1,1875,400,0,0
658,624,0,0,0,0,0,0,0,0,0,-1,1882,400,0,0
665,624,0,0,0,0,0,0,0,0,0,-1,1889,400,0,0
672,624,0,0,0,0,0,0,0,0,0,-1,1896,400,0,0
679,624,0,0,0,0,0,0,0,0,0,-1,1903,400,0,0
686,624,0,0,0,0,0,0,0,0,0,-1,1910,400,0,0
693,624,0,0,0,0,0,0,0,0,0,-1,1917,400,0,0
700,624,0,0,0,0,0,0,0,0,0,-1,1924,400,0,0
707,624,0,0,0,0,0,0,0,0,0,-1,1931,400,0,0
714,624,0,0,0,0,0,0,0,0,0,-1,1938,400,0,0
721,624,0,0,0,0,0,0,0,0,0,-1,1945,400,0,0
728,624,0,0,0,0,0,0,0,0,0,-1,1952,400,0,0
735,624,0,0,0,0,0,0,0,0,0,-1,1959,400,0,0
742,624,0,0,0,0,0,0,0,0,0,-1,1966,400,0,0
749,624,0,0,0,0,0,0,0,0,0,-1,1973,400,0,0
756,624,0,0,0,0,0,0,0,0,0,-1,1980,400,0,0
763,624,0,0,0,0,0,0,0,0,0,-1,1987,400,0,0
770,624,0,0,0,0,0,0,0,0,0,-1,1994,400,0,0
777,624,0,0,0,0,0,0,0,0,0,-1,2001,400,0,0
784,624,0,0,0,0,0,0,0,0,0,-1,2008,400,0,0
791,624,0,0,0,0,0,0,0,0,0,-1,2015,400,0,0
798,624,0,0,0,0,0,0,0,0,0,-1,2022,400,0,0
805,624,0,0,0,0,0,0,0,0,0,-1,2029,400,0,0
812,624,0,0,0,0,0,0,0,0,0,-1,2036,400,0,0
-700,617,0,0,0,0,0,0,0,0,0,-1,524,407,0,0
-693,617,0,0,0,0,0,0,0,0,0,-1,531,407,0,0
-686,617,0,0,0,0,0,0,0,0,0,-1,538,407,0,0
-679,617,0,0,0,0,0,0,0,0,0,-1,545,407,0,0
-672,617,0,0,0,0,0,0,0,0,0,-1,552,407,0,0
-665,617,0,0,0,0,0,0,0,0,0,-1,559,407,0,0
-658,617,0,0,0,0,0,0,0,0,0,-1,566,407,0,0
-651,617,0,0,0,0,0,0,0,0,0,-1,573,407,0,0
-644,617,0,0,0,0,0,0,0,0,0,-1,580,407,0,0
-637,617,0,0,0,0,0,0,0,0,0,-1,587,407,0,0
-630,617,0,0,0,0,0,0,0,0,0,-1,594,407,0,0
-623,617,0,0,0,0,0,0,0,0,0,-1,601,407,0,0
-616,617,0,0,0,0,0,0,0,0,0,-1,608,407,0,0
-609,617,0,0,0,0,0,0,0,0,0,-1,615,407,0,0
-602,617,0,0,0,0,0,0,0,0,0,-1,622,407,0,0
-595,617,0,0,0,0,0,0,0,0,0,-1,629,407,0,0
-588,617,0,0,0,0,0,0,0,0,0,-1,636,407,0,0
-581,617,0,0,0,0,0,0,0,0,0,-1,643,407,0,0
-574,617,0,0,0,0,0,0,0,0,0,-1,650,407,0,0
-567,617,0,0,0,0,0,0,0,0,0,-1,657,407,0,0
-560,617,0,0,0,0,0,0,0,0,0,-1,664,407,0,0
-553,617,0,0,0,0,0,0,0,0,0,-1,671,407,0,0
-546,617,0,0,0,0,0,0,0,0,0,-1,678,407,0,0
-539,617,0,0,0,0,0,0,0,0,0,-1,685,407,0,0
-532,617,0,0,0,0,0,0,0,0,0,-1,692,407,0,0
-525,617,0,0,0,0,0,0,0,0,0,-1,699,407,0,0
-518,617,0,0,0,0,0,0,0,0,0,-1,706,407,0,0
-511,617,0,0,0,0,0,0,0,0,0,-1,713,407,0,0
-504,617,0,0,0,0,0,0,0,0,0,-1,720,407,0,0
-497,617,0,0,0,0,0,0,0,0,0,-1,727,407,0,0
-490,617,0,0,0,0,0,0,0,0,0,-1,734,407,0,0
-483,617,0,0,0,0,0,0,0,0,0,-1,741,407,0,0
-476,617,0,0,0,0,0,0,0,0,0,-1,748,407,0,0
-469,617,0,0,0,0,0,0,0,0,0,-1,755,407,0,0
-462,617,0,0,0,0,0,0,0,0,0,-1,762,407,0,0
-455,617,0,0,0,0,0,0,0,0,0,-1,769,407,0,0
-448,617,0,0,0,0,0,0,0,0,0,-1,776,407,0,0
-441,617,0,0,0,0,0,0,0,0,0,-1,783,407,0,0
-434,617,0,0,0,0,0,0,0,0,0,-1,790,407,0,0
-427,617,0,0,0,0,0,0,0,0,0,-1,797,407,0,0
-420,617,0,0,0,0,0,0,0,0,0,-1,804,407,0,0
-413,617,0,0,0,0,0,0,0,0,0,-1,811,407,0,0
-406,617,0,0,0,0,0,0,0,0,0,-1,818,407,0,0
-399,617,0,0,0,0,0,0,0,0,0,-1,825,407,0,0
-392,617,0,0,0,0,0,0,0,0,0,-1,832,407,0,0
-385,617,0,0,0,0,0,0,0,0,0,-1,839,407,0,0
-378,617,0,0,0,0,0,0,0,0,0,-1,846,407,0,0
-371,617,0,0,0,0,0,0,0,0,0,-1,853,407,0,0
-364,617,0,0,0,0,0,0,0,0,0,-1,860,407,0,0
-357,617,0,0,0,0,0,0,0,0,0,-1,867,407,0,0
-350,617,0,0,0,0,0,0,0,0,0,-1,874,407,0,0
-343,617,0,0,0,0,0,0,0,0,0,-1,881,407,0,0
-336,617,0,0,0,0,0,0,0,0,0,-1,888,407,0,0
-329,617,0,0,0,0,0,0,0,0,0,-1,895,407,0,0
-322,617,0,0,0,0,0,0,0,0,0,-1,902,407,0,0
-315,617,0,0,0,0,0,0,0,0,0,-1,909,407,0,0
-308,617,0,0,0,0,0,0,0,0,0,-1,916,407,0,0
-301,617,6.7511,-7.32471,0,0,0,0,0,0,0,-1,923,407,6.75112,7.3247
-294,617,0.739624,-10.7959,0,0,0,0,0,0,0,-1,930,407,0.739635,10.7959
-287,617,0.250366,-10.4579,0,0,0,0,0,0,0,-1,937,407,0.250386,10.4578
-280,617,1.40863,-9.25067,0,0,0,0,0,0,0,-1,944,407,1.40864,9.25066
-273,617,1.00061,-8.57419,-0.0346983,-0.0640403,0.0218619,-0.023041,-0.0756977,0.489873,0.0448051,0.0439322,951,407,1.00064,8.57419
-266,617,0.424316,-8.065,-0.0364457,-0.0546639,0.017712,-0.0256376,-0.0654719,0.547891,0.0380953,0.0436001,958,407,0.424321,8.065
-259,617,-0.122192,-8.38406,0,0,0,0,0,0,0,-1,965,407,-0.122171,8.38407
-252,617,-0.271545,-6.82788,0,0,0,0,0,0,0,-1,972,407,-0.271539,6.82789
-245,617,1.20038,-7.08047,0,0,0,0,0,0,0,-1,979,407,1.2004,7.08046
-238,617,1.4776,-7.32196,-0.0170463,-0.0201839,0.00616759,-0.0122511,-0.0249791,0.660857,0.0144226,0.0481094,986,407,1.47759,7.32196
-231,617,1.7627,-7.4176,-0.0120745,-0.0128465,0.0038261,-0.00861496,-0.016306,0.735122,0.00941931,0.0428823,993,407,1.76269,7.4176
-224,617,1.89478,-7.55051,-0.0077853,-0.00788149,0.00227206,-0.00556082,-0.010106,0.774816,0.00584449,0.0414505,1000,407,1.8948,7.55049
-217,617,1.97784,-7.86185,-0.00304973,-0.00424886,-8.8325e-06,-0.00304966,-0.00424893,-0.00736522,0.00252947,0.0375467,1007,407,1.97787,7.86186
-210,617,1.90289,-8.15982,0.00110419,-0.00237911,-0.00186828,0.00191671,-0.00319163,-0.410231,0.00297976,0.0246908,1014,407,1.90292,8.15982
-203,617,1.90704,-8.30078,0.0030776,-0.00351791,-0.00223429,0.00376322,-0.00420353,-0.297739,0.00460194,0.017699,1021,407,1.90703,8.30078
-196,617,1.90649,-8.38855,0.00342305,-0.00728824,-0.00180831,0.00372009,-0.00758529,-0.162814,0.00665311,0.0145187,1028,407,1.90644,8.38855
-189,617,1.8905,-8.48972,0.00358273,-0.00997437,-0.00176952,0.00380988,-0.0102015,-0.127674,0.00836535,0.0128596,1035,407,1.89056,8.48972
-182,617,1.89111,-8.60739,0.00347297,-0.0119822,-0.00121079,0.00356725,-0.0120765,-0.0777099,0.00946683,0.0138027,1042,407,1.89115,8.60738
-175,617,1.89307,-8.71466,0.00350963,-0.0131755,-0.0010073,0.00357022,-0.0132361,-0.06008,0.0102241,0.0111961,1049,407,1.89311,8.71465
-168,617,1.88477,-8.82913,0.00348064,-0.0137488,-0.000871981,0.00352466,-0.0137928,-0.0504381,0.0105679,0.00917136,1056,407,1.88474,8.82913
-161,617,1.86389,-8.94217,0.00338962,-0.0134107,-0.00082142,0.00342968,-0.0134508,-0.0487381,0.0103025,0.0104131,1063,407,1.86384,8.94216
-154,617,1.83337,-9.04285,0.00320782,-0.0121479,-0.000852344,0.00325499,-0.012195,-0.0552804,0.00940468,0.0106752,1070,407,1.83336,9.04283
-147,617,1.82239,-9.11697,0.00302904,-0.010642,-0.00095719,0.00309573,-0.0107087,-0.0695634,0.00836425,0.014215,1077,407,1.82235,9.11699
-140,617,1.84314,-9.20917,0.00284863,-0.00889271,-0.0010034,0.00293376,-0.00897784,-0.0846411,0.0071662,0.0107103,1084,407,1.8432,9.20916
-133,617,1.84009,-9.30777,0.00259154,-0.00696223,-0.000950223,0.00268513,-0.00705582,-0.098179,0.00580958,0.0126944,1091,407,1.84013,9.30778
-126,617,1.82727,-9.38245,0.0022565,-0.00485416,-0.000963866,0.00238484,-0.0049825,-0.132371,0.00434077,0.0129937,1098,407,1.82732,9.38246
-119,617,1.81885,-9.46143,0.00190803,-0.00266888,-0.00106921,0.00214549,-0.00290634,-0.218541,0.00292768,0.0131304,1105,407,1.81885,9.46141
-112,617,1.80676,-9.54626,0.00162704,-0.000734681,-0.0011017,0.00206116,-0.0011688,-0.375365,0.00188839,0.01449,1112,407,1.80673,9.54627
-105,617,1.80115,-9.62787,0.00136651,0.000713788,-0.00105016,0.00213985,-5.95548e-05,-0.634743,0.00144683,0.0151432,1119,407,1.80117,9.62786
-98,617,1.83801,-9.69745,0.00110097,0.0016709,-0.000993175,0.00241918,0.000352689,-0.925106,0.00150903,0.0124973,1126,407,1.83798,9.69745
-91,617,1.84534,-9.75977,0.000930523,0.0020249,-0.000861316,0.00249814,0.00045728,-1.06838,0.00153586,0.0177447,1133,407,1.84529,9.75977
-84,617,1.86292,-9.82462,0.000825182,0.00184653,-0.00063993,0.00215457,0.000517138,-1.12216,0.00129878,0.0177313,1140,407,1.86288,9.82463
-77,617,1.86023,-9.89249,0.000652184,0.00171917,-0.000404031,0.0018549,0.000516457,-1.24671,0.00110542,0.0129959,1147,407,1.86017,9.89248
-70,617,1.86853,-9.95682,0.000634011,0.00144985,-0.000153247,0.00147769,0.000606175,-1.39111,0.000857718,0.0126122,1154,407,1.86849,9.95681
-63,617,1.87354,-10.0145,0.000206151,0.00183372,0.000158509,0.00184902,0.000190858,1.47461,0.00117424,0.0121022,1161,407,1.87357,10.0145
-56,617,1.87146,-10.0545,-0.00040038,0.00192552,0.000370909,0.00198323,-0.000458096,1.41643,0.00149838,0.00958692,1168,407,1.87144,10.0545
-49,617,1.8623,-10.0726,-0.00149215,0.00135038,0.000479378,0.00142905,-0.00157081,1.40814,0.00173262,0.0092301,1175,407,1.8623,10.0726
-42,617,1.86487,-10.1296,-0.00307135,0.000562039,0.000629047,0.000667863,-0.00317718,1.40413,0.00237229,0.0121197,1182,407,1.86482,10.1296
-35,617,1.89551,-10.166,-0.0045794,-0.00062316,0.000565982,-0.000543783,-0.00465877,1.43146,0.00294139,0.0166518,1189,407,1.89551,10.166
-28,617,1.88867,-10.1901,-0.00564247,-0.0017481,0.000477568,-0.00169039,-0.00570018,1.45054,0.0033806,0.0173091,1196,407,1.88873,10.1901
-21,617,1.8949,-10.223,-0.00630822,-0.00277971,0.000191355,-0.00276936,-0.00631857,1.51678,0.00365728,0.0127371,1203,407,1.89488,10.223
-14,617,1.89148,-10.2253,-0.00653812,-0.0038152,-0.000161268,-0.00380568,-0.00654764,-1.51185,0.00379687,0.015121,1210,407,1.89149,10.2253
-7,617,1.89978,-10.229,-0.00637265,-0.00466905,-0.000685372,-0.00442756,-0.00661415,-1.23202,0.00389105,0.017578,1217,407,1.89978,10.229
0,617,1.8938,-10.2791,-0.00581067,-0.0051581,-0.00127326,-0.00416998,-0.00679879,-0.910829,0.00395876,0.0152896,1224,407,1.89374,10.279
7,617,1.92212,-10.3426,-0.00485561,-0.00531451,-0.00179617,-0.0032743,-0.00689582,-0.72187,0.00398299,0.0107756,1231,407,1.92215,10.3426
14,617,1.91663,-10.3513,-0.00352961,-0.00504851,-0.00225757,-0.00190717,-0.00667095,-0.623144,0.00396743,0.0124738,1238,407,1.91662,10.3513
21,617,1.91711,-10.3537,-0.00202863,-0.00452478,-0.00266193,-0.000336709,-0.0062167,-0.566184,0.00403691,0.0115491,1245,407,1.91706,10.3537
28,617,1.92468,-10.3812,-6.19045e-06,-0.00352963,-0.00317506,0.00186316,-0.00539898,-0.532114,0.00435531,0.010879,1252,407,1.92464,10.3812
35,617,1.92163,-10.388,0.00230328,-0.0013901,-0.00426725,0.00510629,-0.00419311,-0.581186,0.00537763,0.0133082,1259,407,1.92167,10.388
42,617,1.94934,-10.3718,0.00385949,0.00146451,-0.00552051,0.0083109,-0.0029869,-0.678594,0.00675989,0.0176093,1266,407,1.94931,10.3718
49,617,1.98254,-10.3673,0.00437028,0.0038221,-0.00533837,0.0094416,-0.00124921,-0.759749,0.00674945,0.0172306,1273,407,1.98259,10.3673
56,617,2.00476,-10.357,0.00460578,0.00625176,-0.00514936,0.0106435,0.000214055,-0.86464,0.00702539,0.0127216,1280,407,2.00472,10.357
63,617,1.98621,-10.3683,0.00496968,0.00817594,-0.00494512,0.0117713,0.00137433,-0.942145,0.0074319,0.00933447,1287,407,1.98622,10.3683
70,617,1.99036,-10.3702,0.00478556,0.00976688,-0.00437581,0.0123112,0.00224124,-1.04413,0.00757178,0.0137842,1294,407,1.99034,10.3702
77,617,2.01904,-10.3199,0.00386194,0.0102583,-0.00334366,0.011687,0.00243319,-1.16698,0.00712023,0.012467,1301,407,2.01898,10.3199
84,617,2.02673,-10.304,0.00270693,0.0106548,-0.00212486,0.0111873,0.00217452,-1.32529,0.00684937,0.00946862,1308,407,2.02673,10.304
91,617,2.04993,-10.3003,0.00129634,0.0112066,-0.000556991,0.0112378,0.00126513,-1.51483,0.0071078,0.00901235,1315,407,2.04998,10.3003
98,617,2.07727,-10.268,-3.00092e-05,0.0116523,0.00130223,0.0117957,-0.000173408,1.46112,0.00792224,0.0104349,1322,407,2.0773,10.268
105,617,2.07141,-10.245,-0.00101058,0.0118459,0.00311117,0.0125592,-0.00172389,1.34542,0.00900262,0.0120743,1329,407,2.0714,10.245
112,617,2.07275,-10.2108,-0.00155001,0.0121228,0.00466382,0.0135621,-0.00298933,1.27146,0.0101852,0.0153495,1336,407,2.07278,10.2108
119,617,2.09033,-10.14,-0.00195787,0.0124661,0.00606021,0.0146742,-0.00416602,1.22138,0.0114275,0.0189676,1343,407,2.09035,10.14
126,617,2.11353,-10.0769,-0.00204744,0.0130966,0.00698889,0.0158289,-0.0047798,1.19811,0.0124554,0.0206042,1350,407,2.11349,10.0769
133,617,2.09973,-10.0494,-0.00216839,0.0139325,0.00758651,0.0169439,-0.00517981,1.19293,0.0133615,0.0172477,1357,407,2.0997,10.0494
140,617,2.10706,-10.0067,-0.00225023,0.0143586,0.00804337,0.0176153,-0.00550693,1.18608,0.0139464,0.0150872,1364,407,2.107,10.0067
147,617,2.10767,-9.96829,-0.00161287,0.0145257,0.00790679,0.0177538,-0.00484097,1.18318,0.0137368,0.0178279,1371,407,2.10768,9.96829
154,617,2.10742,-9.9353,-0.000650265,0.0151281,0.0063577,0.0173711,-0.00289319,1.23164,0.0126558,0.0202961,1378,407,2.1074,9.93529
161,617,2.11487,-9.87106,-0.000247807,0.0149925,0.00522023,0.0166091,-0.0018644,1.27048,0.0117436,0.0211784,1385,407,2.11487,9.87107
168,617,2.16797,-9.7934,-0.000448677,0.0141206,0.00424007,0.0152647,-0.00159281,1.30724,0.0107468,0.019525,1392,407,2.16802,9.79339
175,617,2.17749,-9.73172,-0.000522956,0.0126683,0.00329992,0.0134478,-0.0013024,1.33885,0.00942935,0.0165083,1399,407,2.17749,9.73173
182,617,2.17407,-9.66888,-0.000314821,0.0110476,0.002165,0.0114461,-0.000713362,1.38875,0.0078793,0.0109097,1406,407,2.17403,9.66889
189,617,2.15942,-9.58624,-0.000204743,0.00818191,0.00148279,0.00843636,-0.000459186,1.40085,0.00578338,0.0101993,1413,407,2.15944,9.58624
196,617,2.16833,-9.51926,0.000250734,0.00490215,0.000730429,0.00501416,0.000138729,1.41864,0.0032975,0.0133757,1420,407,2.1683,9.51924
203,617,2.17859,-9.46442,0.000613976,0.00210124,4.12625e-05,0.00210239,0.000612832,1.54308,0.0012485,0.0144085,1427,407,2.1786,9.46443
210,617,2.18823,-9.39658,0.000610327,0.000661582,-0.000119812,0.000758476,0.000513432,-0.890758,0.000446952,0.0140517,1434,407,2.18823,9.39657
217,617,2.17859,-9.30359,0.00024285,0.000174442,0.0001037,0.000317841,9.9451e-05,0.6261,0.000187739,0.0187258,1441,407,2.17856,9.30359
224,617,2.17932,-9.21582,0.000139991,0.000405798,0.00030047,0.000601446,-5.56564e-05,0.993622,0.000420745,0.0190763,1448,407,2.17928,9.21583
231,617,2.17615,-9.12527,0.000102662,0.000593208,0.000481096,0.000887946,-0.000192076,1.02114,0.000665297,0.0147274,1455,407,2.17609,9.12527
238,617,2.1969,-9.03595,8.7793e-05,0.000723972,0.00061806,0.00110099,-0.000289228,1.02305,0.000847029,0.0158234,1462,407,2.1969,9.03596
245,617,2.21741,-8.95279,0.000102947,0.000823275,0.000683796,0.00123596,-0.000309738,1.02779,0.000944306,0.0130892,1469,407,2.21745,8.95279
252,617,2.20605,-8.79523,0.000155507,0.000893236,0.000720941,0.0013342,-0.000285453,1.02186,0.000998313,0.013525,1476,407,2.206,8.79523
259,617,2.17542,-8.67996,0.000416916,0.000957165,0.000857522,0.0015861,-0.000212021,0.937981,0.0011347,0.0114722,1483,407,2.17536,8.67996
266,617,2.15674,-8.55603,0.000745804,0.00108221,0.00117057,0.0020966,-0.000268584,0.856757,0.00149532,0.0142269,1490,407,2.15669,8.55604
273,617,2.17603,-8.43881,0.00115697,0.00119473,0.00175315,0.0029291,-0.000577407,0.790782,0.00217095,0.0144685,1497,407,2.17604,8.43881
280,617,2.17297,-8.36337,0.00159847,0.00131109,0.00230805,0.0037673,-0.00085774,0.75431,0.00284094,0.0126767,1504,407,2.173,8.36338
287,617,2.15881,-8.24872,0.00209157,0.00152786,0.00303976,0.00486252,-0.00124309,0.739169,0.00372582,0.0121042,1511,407,2.15883,8.24873
294,617,2.15735,-8.12076,0.00262844,0.00183608,0.00388209,0.00613451,-0.00166999,0.734548,0.00474532,0.0092726,1518,407,2.15732,8.12076
301,617,2.15356,-8.00366,0.0032251,0.00212539,0.00479811,0.00750476,-0.00215426,0.728348,0.00585489,0.00734674,1525,407,2.15358,8.00366
308,617,2.14307,-7.8786,0.00378108,0.00235346,0.00588464,0.00899504,-0.0028605,0.725043,0.00714372,0.00763257,1532,407,2.14306,7.87861
315,617,2.13611,-7.73965,0.00401754,0.00250753,0.0068841,0.0101879,-0.00366285,0.730779,0.00828725,0.00837841,1539,407,2.13617,7.73966
322,617,2.14612,-7.604,0.00414413,0.00268614,0.00778241,0.0112316,-0.00440134,0.738699,0.00930842,0.011099,1546,407,2.14609,7.60399
329,617,2.14563,-7.47388,0.00408129,0.0027277,0.00853227,0.0119636,-0.00515458,0.74582,0.0101404,0.0123056,1553,407,2.14559,7.47386
336,617,2.16113,-7.28845,0.00380644,0.0026662,0.0090643,0.0123185,-0.0058459,0.753991,0.0107069,0.0262825,1560,407,2.16119,7.28844
343,617,2.24927,-6.96756,0,0,0,0,0,0,0,-1,1567,407,2.24926,6.96755
350,617,2.13635,-7.0817,0,0,0,0,0,0,0,-1,1574,407,2.13639,7.0817
357,617,2.32422,-7.00394,0,0,0,0,0,0,0,-1,1581,407,2.32422,7.00394
364,617,2.15588,-6.35468,0,0,0,0,0,0,0,-1,1588,407,2.15592,6.35469
371,617,2.60266,-6.20667,0,0,0,0,0,0,0,-1,1595,407,2.60261,6.20668
378,617,2.34021,-6.40222,0,0,0,0,0,0,0,-1,1602,407,2.34024,6.40221
385,617,1.37012,-5.41284,0,0,0,0,0,0,0,-1,1609,407,1.37016,5.41286
392,617,3.40723,-2.54929,0,0,0,0,0,0,0,-1,1616,407,3.40725,2.54929
399,617,3.25,-2.14835,0,0,0,0,0,0,0,-1,1623,407,3.25006,2.14836
406,617,3.02429,-3.19577,0,0,0,0,0,0,0,-1,1630,407,3.02431,3.19577
413,617,2.92786,-3.80649,0,0,0,0,0,0,0,-1,1637,407,2.92788,3.8065
420,617,3.42737,-4.47391,0,0,0,0,0,0,0,-1,1644,407,3.42737,4.47391
427,617,0,0,0,0,0,0,0,0,0,-1,1651,407,0,0
434,617,0,0,0,0,0,0,0,0,0,-1,1658,407,0,0
441,617,0,0,0,0,0,0,0,0,0,-1,1665,407,0,0
448,617,0,0,0,0,0,0,0,0,0,-1,1672,407,0,0
455,617,0,0,0,0,0,0,0,0,0,-1,1679,407,0,0
462,617,0,0,0,0,0,0,0,0,0,-1,1686,407,0,0
469,617,0,0,0,0,0,0,0,0,0,-1,1693,407,0,0
476,617,0,0,0,0,0,0,0,0,0,-1,1700,407,0,0
483,617,0,0,0,0,0,0,0,0,0,-1,1707,407,0,0
490,617,0,0,0,0,0,0,0,0,0,-1,1714,407,0,0
497,617,0,0,0,0,0,0,0,0,0,-1,1721,407,0,0
504,617,0,0,0,0,0,0,0,0,0,-1,1728,407,0,0
511,617,0,0,0,0,0,0,0,0,0,-1,1735,407,0,0
518,617,0,0,0,0,0,0,0,0,0,-1,1742,407,0,0
525,617,0,0,0,0,0,0,0,0,0,-1,1749,407,0,0
532,617,0,0,0,0,0,0,0,0,0,-1,1756,407,0,0
539,617,0,0,0,0,0,0,0,0,0,-1,1763,407,0,0
546,617,0,0,0,0,0,0,0,0,0,-1,1770,407,0,0
553,617,0,0,0,0,0,0,0,0,0,-1,1777,407,0,0
560,617,0,0,0,0,0,0,0,0,0,-1,1784,407,0,0
567,617,0,0,0,0,0,0,0,0,0,-1,1791,407,0,0
574,617,0,0,0,0,0,0,0,0,0,-1,1798,407,0,0
581,617,0,0,0,0,0,0,0,0,0,-1,1805,407,0,0
588,617,0,0,0,0,0,0,0,0,0,-1,1812,407,0,0
595,617,0,0,0,0,0,0,0,0,0,-1,1819,407,0,0
602,617,0,0,0,0,0,0,0,0,0,-1,1826,407,0,0
609,617,0,0,0,0,0,0,0,0,0,-1,1833,407,0,0
616,617,0,0,0,0,0,0,0,0,0,-1,1840,407,0,0
623,617,0,0,0,0,0,0,0,0,0,-1,1847,407,0,0
630,617,0,0,0,0,0,0,0,0,0,-1,1854,407,0,0
637,617,0,0,0,0,0,0,0,0,0,-1,1861,407,0,0
644,617,0,0,0,0,0,0,0,0,0,-1,1868,407,0,0
651,617,0,0,0,0,0,0,0,0,0,-1,1875,407,0,0
658,617,0,0,0,0,0,0,0,0,0,-1,1882,407,0,0
665,617,0,0,0,0,0,0,0,0,0,-1,1889,407,0,0
672,617,0,0,0,0,0,0,0,0,0,-1,1896,407,0,0
679,617,0,0,0,0,0,0,0,0,0,-1,1903,407,0,0
686,617,0,0,0,0,0,0,0,0,0,-1,1910,407,0,0
693,617,0,0,0,0,0,0,0,0,0,-1,1917,407,0,0
700,617,0,0,0,0,0,0,0,0,0,-1,1924,407,0,0
707,617,0,0,0,0,0,0,0,0,0,-1,1931,407,0,0
714,617,0,0,0,0,0,0,0,0,0,-1,1938,407,0,0
721,617,0,0,0,0,0,0,0,0,0,-1,1945,407,0,0
728,617,0,0,0,0,0,0,0,0,0,-1,1952,407,0,0
735,617,0,0,0,0,0,0,0,0,0,-1,1959,407,0,0
742,617,0,0,0,0,0,0,0,0,0,-1,1966,407,0,0
749,617,0,0,0,0,0,0,0,0,0,-1,1973,407,0,0
756,617,0,0,0,0,0,0,0,0,0,-1,1980,407,0,0
763,617,0,0,0,0,0,0,0,0,0,-1,1987,407,0,0
770,617,0,0,0,0,0,0,0,0,0,-1,1994,407,0,0
777,617,0,0,0,0,0,0,0,0,0,-1,2001,407,0,0
784,617,0,0,0,0,0,0,0,0,0,-1,2008,407,0,0
791,617,0,0,0,0,0,0,0,0,0,-1,2015,407,0,0
798,617,0,0,0,0,0,0,0,0,0,-1,2022,407,0,0
805,617,0,0,0,0,0,0,0,0,0,-1,2029,407,0,0
812,617,0,0,0,0,0,0,0,0,0,-1,2036,407,0,0
-700,610,0,0,0,0,0,0,0,0,0,-1,524,414,0,0
-693,610,0,0,0,0,0,0,0,0,0,-1,531,414,0,0
-686,610,0,0,0,0,0,0,0,0,0,-1,538,414,0,0
-679,610,0,0,0,0,0,0,0,0,0,-1,545,414,0,0
-672,610,0,0,0,0,0,0,0,0,0,-1,552,414,0,0
-665,610,0,0,0,0,0,0,0,0,0,-1,559,414,0,0
-658,610,0,0,0,0,0,0,0,0,0,-1,566,414,0,0
-651,610,0,0,0,0,0,0,0,0,0,-1,573,414,0,0
-644,610,0,0,0,0,0,0,0,0,0,-1,580,414,0,0
-637,610,0,0,0,0,0,0,0,0,0,-1,587,414,0,0
-630,610,0,0,0,0,0,0,0,0,0,-1,594,414,0,0
-623,610,0,0,0,0,0,0,0,0,0,-1,601,414,0,0
-616,610,0,0,0,0,0,0,0,0,0,-1,608,414,0,0
-609,610,0,0,0,0,0,0,0,0,0,-1,615,414,0,0
-602,610,0,0,0,0,0,0,0,0,0,-1,622,414,0,0
-595,610,0,0,0,0,0,0,0,0,0,-1,629,414,0,0
-588,610,0,0,0,0,0,0,0,0,0,-1,636,414,0,0
-581,610,0,0,0,0,0,0,0,0,0,-1,643,414,0,0
-574,610,0,0,0,0,0,0,0,0,0,-1,650,414,0,0
-567,610,0,0,0,0,0,0,0,0,0,-1,657,414,0,0
-560,610,0,0,0,0,0,0,0,0,0,-1,664,414,0,0
-553,610,0,0,0,0,0,0,0,0,0,-1,671,414,0,0
-546,610,0,0,0,0,0,0,0,0,0,-1,678,414,0,0
-539,610,0,0,0,0,0,0,0,0,0,-1,685,414,0,0
-532,610,0,0,0,0,0,0,0,0,0,-1,692,414,0,0
-525,610,0,0,0,0,0,0,0,0,0,-1,699,414,0,0
-518,610,0,0,0,0,0,0,0,0,0,-1,706,414,0,0
-511,610,0,0,0,0,0,0,0,0,0,-1,713,414,0,0
-504,610,0,0,0,0,0,0,0,0,0,-1,720,414,0,0
-497,610,0,0,0,0,0,0,0,0,0,-1,727,414,0,0
-490,610,0,0,0,0,0,0,0,0,0,-1,734,414,0,0
-483,610,0,0,0,0,0,0,0,0,0,-1,741,414,0,0
-476,610,0,0,0,0,0,0,0,0,0,-1,748,414,0,0
-469,610,0,0,0,0,0,0,0,0,0,-1,755,414,0,0
-462,610,0,0,0,0,0,0,0,0,0,-1,762,414,0,0
-455,610,0,0,0,0,0,0,0,0,0,-1,769,414,0,0
-448,610,0,0,0,0,0,0,0,0,0,-1,776,414,0,0
-441,610,0,0,0,0,0,0,0,0,0,-1,783,414,0,0
-434,610,0,0,0,0,0,0,0,0,0,-1,790,414,0,0
-427,610,0,0,0,0,0,0,0,0,0,-1,797,414,0,0
-420,610,0,0,0,0,0,0,0,0,0,-1,804,414,0,0
-413,610,0,0,0,0,0,0,0,0,0,-1,811,414,0,0
-406,610,0,0,0,0,0,0,0,0,0,-1,818,414,0,0
-399,610,0,0,0,0,0,0,0,0,0,-1,825,414,0,0
-392,610,0,0,0,0,0,0,0,0,0,-1,832,414,0,0
-385,610,0,0,0,0,0,0,0,0,0,-1,839,414,0,0
-378,610,0,0,0,0,0,0,0,0,0,-1,846,414,0,0
-371,610,0,0,0,0,0,0,0,0,0,-1,853,414,0,0
-364,610,0,0,0,0,0,0,0,0,0,-1,860,414,0,0
-357,610,0,0,0,0,0,0,0,0,0,-1,867,414,0,0
-350,610,0,0,0,0,0,0,0,0,0,-1,874,414,0,0
-343,610,0,0,0,0,0,0,0,0,0,-1,881,414,0,0
-336,610,0,0,0,0,0,0,0,0,0,-1,888,414,0,0
-329,610,0,0,0,0,0,0,0,0,0,-1,895,414,0,0
-322,610,0,0,0,0,0,0,0,0,0,-1,902,414,0,0
-315,610,1.71619,-9.00854,0,0,0,0,0,0,0,-1,909,414,1.7162,9.00855
-308,610,4.86316,-7.87192,0,0,0,0,0,0,0,-1,916,414,4.86317,7.87193
-301,610,4.92957,-7.07779,0,0,0,0,0,0,0,-1,923,414,4.92957,7.07778
-294,610,5.0918,-6.28671,0,0,0,0,0,0,0,-1,930,414,5.09183,6.28671
-287,610,1.91785,-9.43823,0,0,0,0,0,0,0,-1,937,414,1.91787,9.43822
-280,610,1.5116,-8.75854,0,0,0,0,0,0,0,-1,944,414,1.51158,8.75853
-273,610,1.0993,-8.06165,-0.0230924,-0.0469501,0.0152626,-0.01565,-0.0543925,0.453696,0.0323332,0.0424248,951,414,1.09932,8.06164
-266,610,0.521606,-7.53842,-0.025166,-0.0389728,0.0119248,-0.0182905,-0.0458483,0.523012,0.0266502,0.0420061,958,414,0.521627,7.53843
-259,610,-0.0211182,-7.25919,0,0,0,0,0,0,0,-1,965,414,-0.0211192,7.2592
-252,610,2.43524,-7.15292,0,0,0,0,0,0,0,-1,972,414,2.43522,7.15292
-245,610,2.18707,-7.35568,-0.0162552,-0.0189377,0.00529763,-0.0121317,-0.0230613,0.661414,0.0133205,0.0462802,979,414,2.18708,7.3557
-238,610,1.96204,-7.53976,-0.012156,-0.012693,0.00361041,-0.00880413,-0.0160449,0.748279,0.00927817,0.041198,986,414,1.96204,7.53978
-231,610,1.85303,-7.68246,-0.00854047,-0.00754301,0.00211405,-0.00586966,-0.0102138,0.901236,0.00591883,0.0322906,993,414,1.853,7.68246
-224,610,1.79816,-7.89191,-0.00549799,-0.00407422,0.00114636,-0.00343669,-0.00613552,1.06326,0.00355087,0.0236695,1000,414,1.79818,7.8919
-217,610,1.8172,-8.01849,-0.00205943,-0.00123266,-0.000355916,-0.00110055,-0.00219154,-1.21538,0.00126529,0.0156974,1007,414,1.8172,8.01849
-210,610,1.81171,-8.16431,0.000796042,4.62375e-06,-0.00148156,0.00193383,-0.00113316,-0.654899,0.00179073,0.0105576,1014,414,1.8117,8.16431
-203,610,1.79877,-8.28989,0.00183465,-0.000624727,-0.00159062,0.00261549,-0.00140556,-0.456341,0.00235633,0.0122802,1021,414,1.79877,8.28988
-196,610,1.80688,-8.41232,0.00189962,-0.00300612,-0.00127337,0.00221045,-0.00331695,-0.239419,0.00321249,0.0133776,1028,414,1.80684,8.41233
-189,610,1.79187,-8.52344,0.0019887,-0.00491516,-0.00123848,0.00220415,-0.00513061,-0.172238,0.00434563,0.011135,1035,414,1.79191,8.52344
-182,610,1.79309,-8.62585,0.00189703,-0.0064409,-0.000794996,0.00197215,-0.00651602,-0.0942158,0.00512937,0.0112631,1042,414,1.7931,8.62586
-175,610,1.78882,-8.71866,0.00191561,-0.00741229,-0.000603868,0.00195454,-0.00745122,-0.0643796,0.00573119,0.0103509,1049,414,1.78886,8.71867
-168,610,1.77124,-8.82663,0.00189452,-0.00797234,-0.00048135,0.00191795,-0.00799577,-0.0486306,0.00607166,0.00999434,1056,414,1.77122,8.82664
-161,610,1.76111,-8.94556,0.0018494,-0.00788218,-0.00043398,0.00186871,-0.00790149,-0.0444774,0.00598855,0.0103542,1063,414,1.76108,8.94557
-154,610,1.74561,-9.03058,0.00176827,-0.00710966,-0.000412019,0.00178735,-0.00712874,-0.0462768,0.00544692,0.012583,1070,414,1.74563,9.03058
-147,610,1.73352,-9.10736,0.00167084,-0.00623393,-0.000418204,0.00169291,-0.006256,-0.0527091,0.00483479,0.0138583,1077,414,1.73355,9.10737
-140,610,1.75427,-9.20227,0.00157698,-0.00524458,-0.000434466,0.00160454,-0.00527214,-0.0633491,0.00415421,0.0109698,1084,414,1.75423,9.20228
-133,610,1.76343,-9.28967,0.00145827,-0.00410894,-0.000397556,0.00148652,-0.00413719,-0.0709307,0.00336492,0.0126592,1091,414,1.76344,9.28968
-126,610,1.74963,-9.37128,0.00127578,-0.0027949,-0.0004048,0.00131564,-0.00283477,-0.098162,0.00244916,0.0112163,1098,414,1.74962,9.37128
-119,610,1.7417,-9.4603,0.00108545,-0.0013827,-0.000488585,0.00117864,-0.0014759,-0.188489,0.0015358,0.00939915,1105,414,1.74174,9.4603
-112,610,1.74915,-9.55307,0.000946585,-0.000168209,-0.000533772,0.00116094,-0.000382566,-0.381876,0.000928147,0.016834,1112,414,1.74917,9.55306
-105,610,1.7605,-9.62805,0.000852154,0.00072144,-0.000549067,0.00133974,0.000233854,-0.72616,0.000826314,0.0177282,1119,414,1.76045,9.62804
-98,610,1.77429,-9.70505,0.000790192,0.00125686,-0.000554349,0.00162498,0.000422071,-0.984601,0.000973618,0.0121713,1126,414,1.77433,9.70506
-91,610,1.77527,-9.74835,0.000831188,0.00141019,-0.000479207,0.00168055,0.000560823,-1.05712,0.000987992,0.0129107,1133,414,1.77523,9.74834
-84,610,1.78589,-9.81012,0.000840191,0.00139845,-0.000360357,0.00157514,0.000663502,-1.11492,0.000913159,0.0140531,1140,414,1.78594,9.81011
-77,610,1.79932,-9.89951,0.000773091,0.00148113,-0.000174704,0.00152189,0.00073233,-1.34158,0.000878869,0.0110274,1147,414,1.79933,9.8995
-70,610,1.82471,-9.97446,0.000933082,0.00135909,3.89325e-05,0.00136262,0.000929553,1.48041,0.000803929,0.0122372,1154,414,1.82474,9.97446
-63,610,1.82153,-10.0313,7.51729e-05,0.002388,0.000431683,0.00246595,-2.77266e-06,1.39216,0.00164489,0.0110521,1161,414,1.82155,10.0313
-56,610,1.83191,-10.0614,-0.00123021,0.00280529,0.000706468,0.00292539,-0.00135031,1.4024,0.00252379,0.00863156,1168,414,1.83195,10.0614
-49,610,1.81934,-10.0838,-0.00332187,0.00202284,0.000875135,0.00216249,-0.00346152,1.41256,0.00327576,0.00967369,1175,414,1.81929,10.0838
-42,610,1.80518,-10.1316,-0.00630646,0.000815065,0.00113928,0.000992883,-0.00648428,1.41597,0.00468899,0.0155253,1182,414,1.8052,10.1316
-35,610,1.82544,-10.1638,-0.00896852,-0.000972297,0.00119036,-0.000798856,-0.00914196,1.42611,0.00584657,0.0147633,1189,414,1.82542,10.1639
-28,610,1.84875,-10.2114,-0.0109095,-0.0026922,0.00123917,-0.0025094,-0.0110923,1.42433,0.00671651,0.011433,1196,414,1.8487,10.2114
-21,610,1.85986,-10.2414,-0.0120136,-0.00415842,0.000948006,-0.00404563,-0.0121263,1.45238,0.00712918,0.0100319,1203,414,1.85984,10.2414
-14,610,1.84827,-10.2425,-0.0121575,-0.0056037,0.000493071,-0.00556681,-0.0121944,1.49612,0.00704931,0.0116302,1210,414,1.84828,10.2425
-7,610,1.86365,-10.244,-0.0116789,-0.00678055,-0.000195012,-0.0067728,-0.0116867,-1.53107,0.0067757,0.013126,1217,414,1.86365,10.244
0,610,1.88855,-10.2714,-0.0104716,-0.00745893,-0.000983439,-0.00716632,-0.0107642,-1.2816,0.00632753,0.00977817,1224,414,1.88851,10.2714
7,610,1.90063,-10.3078,-0.00862188,-0.00759936,-0.00177918,-0.00625944,-0.0099618,-0.925307,0.00581426,0.0103253,1231,414,1.90061,10.3078
14,610,1.90527,-10.331,-0.00626817,-0.00673153,-0.00271627,-0.00377372,-0.00922598,-0.742854,0.00535593,0.012542,1238,414,1.9053,10.331
21,610,1.93262,-10.3336,-0.00352994,-0.00548676,-0.00365279,-0.000726797,-0.0082899,-0.654543,0.00530097,0.0112621,1245,414,1.9326,10.3337
28,610,1.94934,-10.3645,-0.000266509,-0.00354313,-0.00468096,0.00305457,-0.0068642,-0.617063,0.00586571,0.01136,1252,414,1.94933,10.3645
35,610,1.97302,-10.3854,0.00302192,-0.000253829,-0.00625244,0.00784745,-0.00507936,-0.657298,0.00752012,0.0153842,1259,414,1.973,10.3854
42,610,1.98206,-10.3683,0.00518224,0.00360932,-0.00788959,0.0123245,-0.00353291,-0.735721,0.00961284,0.0140911,1266,414,1.98203,10.3683
49,610,1.99219,-10.3799,0.00592747,0.00699862,-0.00779025,0.0142717,-0.00134559,-0.819719,0.00999323,0.0138693,1273,414,1.9922,10.3799
56,610,2.02649,-10.3682,0.00625,0.0103428,-0.00760732,0.0161741,0.000418632,-0.916789,0.010646,0.0124032,1280,414,2.02651,10.3682
63,610,2.02698,-10.3492,0.00656886,0.0128063,-0.00724961,0.0175796,0.00179562,-0.988529,0.0111694,0.0143346,1287,414,2.02696,10.3492
70,610,2.04114,-10.3242,0.00605508,0.0146987,-0.00630706,0.0180226,0.00273116,-1.08577,0.0112161,0.0214629,1294,414,2.04113,10.3242
77,610,2.11194,-10.3059,0.00451824,0.0150893,-0.00470175,0.0168779,0.00272964,-1.20729,0.0104614,0.0284444,1301,414,2.11192,10.3059
84,610,2.14038,-10.2813,0.00254974,0.0150778,-0.00276527,0.015661,0.00196652,-1.36293,0.00985081,0.0286909,1308,414,2.14039,10.2812
91,610,2.08289,-10.302,0.000339176,0.0153027,-0.000377571,0.0153122,0.000329654,-1.54558,0.0101001,0.0244651,1315,414,2.08291,10.302
98,610,2.11743,-10.2774,-0.00171141,0.0155782,0.00239483,0.0159038,-0.00203699,1.43567,0.0113426,0.0224671,1322,414,2.11738,10.2774
105,610,2.10474,-10.2388,-0.00332459,0.0156092,0.00507809,0.0168852,-0.00460056,1.32462,0.0130632,0.0171193,1329,414,2.1047,10.2388
112,610,2.09839,-10.194,-0.0042686,0.0158123,0.00740279,0.0182463,-0.0067026,1.25314,0.0149094,0.0115823,1336,414,2.09843,10.194
119,610,2.11279,-10.142,-0.00493625,0.0160983,0.00961061,0.019828,-0.00866597,1.2006,0.0168665,0.0166903,1343,414,2.11276,10.142
126,610,2.13647,-10.1167,-0.00517933,0.0172006,0.0111114,0.0217802,-0.00975892,1.17986,0.0186448,0.0231186,1350,414,2.13652,10.1167
133,610,2.17383,-10.0677,-0.00531648,0.0188391,0.0120461,0.0238194,-0.0102968,1.17875,0.0202062,0.0183793,1357,414,2.17381,10.0677
140,610,2.17834,-10.0135,-0.0052535,0.020233,0.0126495,0.0254453,-0.0104658,1.17994,0.021326,0.0147423,1364,414,2.17833,10.0135
147,610,2.15698,-9.96136,-0.00432505,0.02154,0.0124847,0.026583,-0.00936798,1.18691,0.0215349,0.0161907,1371,414,2.15695,9.96135
154,610,2.14917,-9.90967,-0.00306671,0.0231623,0.0106379,0.0269343,-0.00683875,1.23004,0.0206174,0.0211915,1378,414,2.14922,9.90967
161,610,2.19092,-9.84592,-0.00259524,0.023628,0.00923545,0.0265541,-0.00552133,1.26397,0.0198014,0.0257491,1385,414,2.19098,9.84592
168,610,2.23682,-9.76669,-0.00272153,0.0229623,0.00786793,0.0251809,-0.00494013,1.29595,0.0186533,0.0262833,1392,414,2.23684,9.76671
175,610,2.24036,-9.70462,-0.00261436,0.0212735,0.00639382,0.0228772,-0.00421806,1.32505,0.0168346,0.0219103,1399,414,2.24031,9.70463
182,610,2.25085,-9.66479,-0.00207926,0.0190593,0.00453412,0.0199908,-0.00301076,1.36817,0.0144358,0.0152348,1406,414,2.2508,9.66479
189,610,2.25232,-9.58282,-0.00162955,0.0146559,0.00328415,0.0152932,-0.00226689,1.37911,0.011029,0.012568,1413,414,2.25236,9.58281
196,610,2.22839,-9.50742,-0.000558925,0.00933748,0.00182414,0.00966301,-0.00088445,1.3942,0.00675615,0.0123861,1420,414,2.2284,9.50743
203,610,2.22314,-9.45111,0.000611135,0.00415629,0.000191654,0.00416662,0.000600804,1.51694,0.00260071,0.0137837,1427,414,2.2231,9.4511
210,610,2.25659,-9.38794,0.00115442,0.00118463,-0.000546333,0.00171606,0.000622981,-0.799219,0.00100309,0.010942,1434,414,2.25654,9.38794
217,610,2.28418,-9.31964,0.000657043,0.00027582,-0.000275499,0.000801443,0.00013142,-0.482771,0.000496323,0.0163104,1441,414,2.2842,9.31963
224,610,2.27405,-9.24042,0.000537772,0.000539942,-5.49522e-05,0.00059382,0.000483894,-0.79527,0.000364801,0.0201164,1448,414,2.27408,9.24042
231,610,2.25586,-9.13379,0.000474312,0.000762467,0.000154209,0.000829431,0.000407347,1.16112,0.000478898,0.0158564,1455,414,2.25582,9.13378
238,610,2.28064,-9.022,0.000444663,0.00090663,0.000304777,0.00105806,0.00029323,1.10966,0.000630776,0.0112153,1462,414,2.28065,9.02202
245,610,2.2998,-8.92014,0.000431498,0.000996781,0.000359907,0.00117176,0.000256516,1.11826,0.00071126,0.012212,1469,414,2.29977,8.92013
252,610,2.28918,-8.79501,0.000413057,0.00104836,0.000378519,0.00122485,0.000236563,1.13449,0.00075025,0.013324,1476,414,2.2892,8.795
259,610,2.271,-8.67923,0.000499226,0.00105305,0.000458863,0.00131208,0.000240194,1.05688,0.000806664,0.0115902,1483,414,2.271,8.67924
266,610,2.26147,-8.56497,0.0006513,0.00106878,0.000653193,0.00154578,0.000174304,0.940054,0.000977609,0.0127993,1490,414,2.26145,8.56499
273,610,2.28198,-8.4595,0.000874874,0.00109516,0.00103369,0.00202456,-5.45218e-05,0.838475,0.00136824,0.0102787,1497,414,2.28202,8.45951
280,610,2.27124,-8.34232,0.0011341,0.00111117,0.0014277,0.00255038,-0.000305109,0.781384,0.00181054,0.00958295,1504,414,2.27118,8.34231
287,610,2.24829,-8.22083,0.00144788,0.00120906,0.00197321,0.00330529,-0.00064835,0.755176,0.00244843,0.0128841,1511,414,2.24827,8.22083
294,610,2.27112,-8.10498,0.00179589,0.001385,0.00259791,0.00419647,-0.00101558,0.74594,0.00319051,0.0108037,1518,414,2.27113,8.10497
301,610,2.28564,-8.01373,0.00218361,0.00152245,0.00325526,0.00512504,-0.00141897,0.734795,0.00397502,0.00980015,1525,414,2.2857,8.01374
308,610,2.28809,-7.89548,0.0025499,0.00163267,0.00405184,0.006169,-0.00198643,0.729044,0.00491061,0.0116453,1532,414,2.28807,7.89547
315,610,2.27563,-7.7572,0.00269734,0.0017264,0.00478527,0.0070217,-0.00259797,0.734846,0.00574634,0.0121433,1539,414,2.27559,7.75719
322,610,2.271,-7.61023,0.00275725,0.00184162,0.00542111,0.00773984,-0.00314097,0.743273,0.00646638,0.0123293,1546,414,2.271,7.61022
329,610,2.25745,-7.47168,0.00267112,0.0018538,0.00593503,0.00821155,-0.00368662,0.751025,0.00703305,0.0112084,1553,414,2.2575,7.47167
336,610,2.26611,-7.30298,0.00243456,0.00179599,0.00628215,0.00840553,-0.00417498,0.760008,0.00739899,0.0118076,1560,414,2.26616,7.30298
343,610,2.2655,-7.14737,0.00212436,0.00160706,0.00642183,0.00829275,-0.00456132,0.76527,0.00752481,0.0233958,1567,414,2.26552,7.14736
350,610,2.22449,-7.11984,0.00168586,0.00142361,0.00646453,0.0080206,-0.00491113,0.775257,0.00753774,0.0387969,1574,414,2.22447,7.11984
357,610,2.31091,-7.02533,0.00103288,0.00131187,0.00640314,0.00757703,-0.00523229,0.796289,0.00743665,0.0452118,1581,414,2.3109,7.02532
364,610,2.22632,-6.63812,-3.196e-05,0.00116775,0.00606431,0.0066618,-0.00552601,0.834696,0.00704681,0.0426323,1588,414,2.2263,6.63812
371,610,2.3147,-6.45813,0,0,0,0,0,0,0,-1,1595,414,2.31472,6.45812
378,610,2.33362,-6.51346,0,0,0,0,0,0,0,-1,1602,414,2.33357,6.51346
385,610,2.26196,-6.30865,0,0,0,0,0,0,0,-1,1609,414,2.26199,6.30865
392,610,2.54626,0.0437622,0,0,0,0,0,0,0,-1,1616,414,2.54632,-0.0437683
399,610,3.03833,-2.82547,0,0,0,0,0,0,0,-1,1623,414,3.03827,2.82546
406,610,2.91687,-2.9166,0,0,0,0,0,0,0,-1,1630,414,2.91688,2.91659
413,610,3.01929,-3.20306,0,0,0,0,0,0,0,-1,1637,414,3.01929,3.20306
420,610,4.78149,-3.64041,0,0,0,0,0,0,0,-1,1644,414,4.78152,3.64042
427,610,5.20764,-4.67545,0,0,0,0,0,0,0,-1,1651,414,5.20759,4.67545
434,610,5.39233,-5.45441,0,0,0,0,0,0,0,-1,1658,414,5.39228,5.4544
441,610,0,0,0,0,0,0,0,0,0,-1,1665,414,0,0
448,610,0,0,0,0,0,0,0,0,0,-1,1672,414,0,0
455,610,0,0,0,0,0,0,0,0,0,-1,1679,414,0,0
462,610,0,0,0,0,0,0,0,0,0,-1,1686,414,0,0
469,610,0,0,0,0,0,0,0,0,0,-1,1693,414,0,0
476,610,0,0,0,0,0,0,0,0,0,-1,1700,414,0,0
483,610,0,0,0,0,0,0,0,0,0,-1,1707,414,0,0
490,610,0,0,0,0,0,0,0,0,0,-1,1714,414,0,0
497,610,0,0,0,0,0,0,0,0,0,-1,1721,414,0,0
504,610,0,0,0,0,0,0,0,0,0,-1,1728,414,0,0
511,610,0,0,0,0,0,0,0,0,0,-1,1735,414,0,0
518,610,0,0,0,0,0,0,0,0,0,-1,1742,414,0,0
525,610,0,0,0,0,0,0,0,0,0,-1,1749,414,0,0
532,610,0,0,0,0,0,0,0,0,0,-1,1756,414,0,0
539,610,0,0,0,0,0,0,0,0,0,-1,1763,414,0,0
546,610,0,0,0,0,0,0,0,0,0,-1,1770,414,0,0
553,610,0,0,0,0,0,0,0,0,0,-1,1777,414,0,0
560,610,0,0,0,0,0,0,0,0,0,-1,1784,414,0,0
567,610,0,0,0,0,0,0,0,0,0,-1,1791,414,0,0
574,610,0,0,0,0,0,0,0,0,0,-1,1798,414,0,0
581,610,0,0,0,0,0,0,0,0,0,-1,1805,414,0,0
588,610,0,0,0,0,0,0,0,0,0,-1,1812,414,0,0
595,610,0,0,0,0,0,0,0,0,0,-1,1819,414,0,0
602,610,0,0,0,0,0,0,0,0,0,-1,1826,414,0,0
609,610,0,0,0,0,0,0,0,0,0,-1,1833,414,0,0
616,610,0,0,0,0,0,0,0,0,0,-1,1840,414,0,0
623,610,0,0,0,0,0,0,0,0,0,-1,1847,414,0,0
630,610,0,0,0,0,0,0,0,0,0,-1,1854,414,0,0
637,610,0,0,0,0,0,0,0,0,0,-1,1861,414,0,0
644,610,0,0,0,0,0,0,0,0,0,-1,1868,414,0,0
651,610,0,0,0,0,0,0,0,0,0,-1,1875,414,0,0
658,610,0,0,0,0,0,0,0,0,0,-1,1882,414,0,0
665,610,0,0,0,0,0,0,0,0,0,-1,1889,414,0,0
672,610,0,0,0,0,0,0,0,0,0,-1,1896,414,0,0
679,610,0,0,0,0,0,0,0,0,0,-1,1903,414,0,0
686,610,0,0,0,0,0,0,0,0,0,-1,1910,414,0,0
693,610,0,0,0,0,0,0,0,0,0,-1,1917,414,0,0
700,610,0,0,0,0,0,0,0,0,0,-1,1924,414,0,0
707,610,0,0,0,0,0,0,0,0,0,-1,1931,414,0,0
714,610,0,0,0,0,0,0,0,0,0,-1,1938,414,0,0
721,610,0,0,0,0,0,0,0,0,0,-1,1945,414,0,0
728,610,0,0,0,0,0,0,0,0,0,-1,1952,414,0,0
735,610,0,0,0,0,0,0,0,0,0,-1,1959,414,0,0
742,610,0,0,0,0,0,0,0,0,0,-1,1966,414,0,0
749,610,0,0,0,0,0,0,0,0,0,-1,1973,414,0,0
756,610,0,0,0,0,0,0,0,0,0,-1,1980,414,0,0
763,610,0,0,0,0,0,0,0,0,0,-1,1987,414,0,0
770,610,0,0,0,0,0,0,0,0,0,-1,1994,414,0,0
777,610,0,0,0,0,0,0,0,0,0,-1,2001,414,0,0
784,610,0,0,0,0,0,0,0,0,0,-1,2008,414,0,0
791,610,0,0,0,0,0,0,0,0,0,-1,2015,414,0,0
798,610,0,0,0,0,0,0,0,0,0,-1,2022,414,0,0
805,610,0,0,0,0,0,0,0,0,0,-1,2029,414,0,0
812,610,0,0,0,0,0,0,0,0,0,-1,2036,414,0,0
-700,603,0,0,0,0,0,0,0,0,0,-1,524,421,0,0
-693,603,0,0,0,0,0,0,0,0,0,-1,531,421,0,0
-686,603,0,0,0,0,0,0,0,0,0,-1,538,421,0,0
-679,603,0,0,0,0,0,0,0,0,0,-1,545,421,0,0
-672,603,0,0,0,0,0,0,0,0,0,-1,552,421,0,0
-665,603,0,0,0,0,0,0,0,0,0,-1,559,421,0,0
-658,603,0,0,0,0,0,0,0,0,0,-1,566,421,0,0
-651,603,0,0,0,0,0,0,0,0,0,-1,573,421,0,0
-644,603,0,0,0,0,0,0,0,0,0,-1,580,421,0,0
-637,603,0,0,0,0,0,0,0,0,0,-1,587,421,0,0
-630,603,0,0,0,0,0,0,0,0,0,-1,594,421,0,0
-623,603,0,0,0,0,0,0,0,0,0,-1,601,421,0,0
-616,603,0,0,0,0,0,0,0,0,0,-1,608,421,0,0
-609,603,0,0,0,0,0,0,0,0,0,-1,615,421,0,0
-602,603,0,0,0,0,0,0,0,0,0,-1,622,421,0,0
-595,603,0,0,0,0,0,0,0,0,0,-1,629,421,0,0
-588,603,0,0,0,0,0,0,0,0,0,-1,636,421,0,0
-581,603,0,0,0,0,0,0,0,0,0,-1,643,421,0,0
-574,603,0,0,0,0,0,0,0,0,0,-1,650,421,0,0
-567,603,0,0,0,0,0,0,0,0,0,-1,657,421,0,0
-560,603,0,0,0,0,0,0,0,0,0,-1,664,421,0,0
-553,603,0,0,0,0,0,0,0,0,0,-1,671,421,0,0
-546,603,0,0,0,0,0,0,0,0,0,-1,678,421,0,0
-539,603,0,0,0,0,0,0,0,0,0,-1,685,421,0,0
-532,603,0,0,0,0,0,0,0,0,0,-1,692,421,0,0
-525,603,0,0,0,0,0,0,0,0,0,-1,699,421,0,0
-518,603,0,0,0,0,0,0,0,0,0,-1,706,421,0,0
-511,603,0,0,0,0,0,0,0,0,0,-1,713,421,0,0
-504,603,0,0,0,0,0,0,0,0,0,-1,720,421,0,0
-497,603,0,0,0,0,0,0,0,0,0,-1,727,421,0,0
-490,603,0,0,0,0,0,0,0,0,0,-1,734,421,0,0
-483,603,0,0,0,0,0,0,0,0,0,-1,741,421,0,0
-476,603,0,0,0,0,0,0,0,0,0,-1,748,421,0,0
-469,603,0,0,0,0,0,0,0,0,0,-1,755,421,0,0
-462,603,0,0,0,0,0,0,0,0,0,-1,762,421,0,0
-455,603,0,0,0,0,0,0,0,0,0,-1,769,421,0,0
-448,603,0,0,0,0,0,0,0,0,0,-1,776,421,0,0
-441,603,0,0,0,0,0,0,0,0,0,-1,783,421,0,0
-434,603,0,0,0,0,0,0,0,0,0,-1,790,421,0,0
-427,603,0,0,0,0,0,0,0,0,0,-1,797,421,0,0
-420,603,0,0,0,0,0,0,0,0,0,-1,804,421,0,0
-413,603,0,0,0,0,0,0,0,0,0,-1,811,421,0,0
-406,603,0,0,0,0,0,0,0,0,0,-1,818,421,0,0
-399,603,0,0,0,0,0,0,0,0,0,-1,825,421,0,0
-392,603,0,0,0,0,0,0,0,0,0,-1,832,421,0,0
-385,603,0,0,0,0,0,0,0,0,0,-1,839,421,0,0
-378,603,0,0,0,0,0,0,0,0,0,-1,846,421,0,0
-371,603,0,0,0,0,0,0,0,0,0,-1,853,421,0,0
-364,603,0,0,0,0,0,0,0,0,0,-1,860,421,0,0
-357,603,0,0,0,0,0,0,0,0,0,-1,867,421,0,0
-350,603,0,0,0,0,0,0,0,0,0,-1,874,421,0,0
-343,603,0,0,0,0,0,0,0,0,0,-1,881,421,0,0
-336,603,0,0,0,0,0,0,0,0,0,-1,888,421,0,0
-329,603,-0.281372,-9.72894,0.0683344,-0.0703738,0.000734928,0.0683383,-0.0703777,0.00529818,0.0800906,0.0436001,895,421,-0.281389,9.72894
-322,603,0.665283,-8.96497,0.0544415,-0.0690288,0.0051436,0.0546554,-0.0692427,0.0415626,0.0716977,0.0467324,902,421,0.665294,8.96495
-315,603,1.43542,-8.43634,0.0387335,-0.0659247,0.00833905,0.0393938,-0.066585,0.0790145,0.0618545,0.0477791,909,421,1.43541,8.43633
-308,603,2.03656,-7.96387,0,0,0,0,0,0,0,-1,916,421,2.03658,7.96388
-301,603,3.22705,-7.12155,0,0,0,0,0,0,0,-1,923,421,3.22707,7.12155
-294,603,1.17767,-6.57507,0,0,0,0,0,0,0,-1,930,421,1.17764,6.57509
-287,603,1.26135,-6.57831,0,0,0,0,0,0,0,-1,937,421,1.26137,6.57831
-280,603,1.39453,-6.99353,0,0,0,0,0,0,0,-1,944,421,1.39455,6.99353
-273,603,1.30939,-7.65399,0,0,0,0,0,0,0,-1,951,421,1.30938,7.65398
-266,603,1.19824,-6.40109,0,0,0,0,0,0,0,-1,958,421,1.19824,6.40108
-259,603,1.62164,-7.38367,0,0,0,0,0,0,0,-1,965,421,1.62167,7.38365
-252,603,1.6889,-7.56342,-0.0143548,-0.0165169,0.00395764,-0.0113332,-0.0195385,0.652067,0.0113286,0.0408001,972,421,1.68893,7.56341
-245,603,1.69983,-7.65118,-0.0113108,-0.0118903,0.00288707,-0.00869902,-0.0145022,0.735385,0.00842829,0.0315575,979,421,1.69982,7.6512
-238,603,1.74414,-7.66232,-0.00840883,-0.00755173,0.00186931,-0.00606248,-0.00989809,0.898079,0.00576267,0.0186926,986,421,1.74412,7.66233
-231,603,1.72559,-7.79449,-0.005873,-0.00408183,0.000988911,-0.00364324,-0.00631159,1.15336,0.00365846,0.0119226,993,421,1.7256,7.79451
-224,603,1.67767,-7.93362,-0.00378542,-0.00176034,0.000439438,-0.0016691,-0.00387666,1.36606,0.00224538,0.0122492,1000,421,1.67765,7.93361
-217,603,1.68732,-8.04108,-0.00133154,0.000478505,-0.000507751,0.000611209,-0.00146424,-1.31516,0.00123154,0.0117939,1007,421,1.6873,8.04108
-210,603,1.68927,-8.17294,0.000605289,0.00140325,-0.00112557,0.00219846,-0.00018992,-0.955724,0.00153287,0.0101468,1014,421,1.68928,8.17293
-203,603,1.68579,-8.30719,0.00118387,0.00108823,-0.00106166,0.00219878,7.3313e-05,-0.762892,0.00144204,0.0156861,1021,421,1.68579,8.3072
-196,603,1.72205,-8.45395,0.00116572,-0.00031682,-0.000783895,0.00150333,-0.000654425,-0.406669,0.00127751,0.0161299,1028,421,1.72205,8.45396
-189,603,1.72009,-8.55023,0.00125366,-0.00158137,-0.000702584,0.00141823,-0.00174593,-0.230079,0.00183009,0.0135276,1035,421,1.72011,8.55022
-182,603,1.6825,-8.64658,0.00123523,-0.00268163,-0.000309043,0.00125946,-0.00270586,-0.0782555,0.0023396,0.0102143,1042,421,1.68246,8.64656
-175,603,1.67358,-8.73965,0.00130186,-0.00343865,-0.000114176,0.00130461,-0.0034414,-0.0240666,0.00283117,0.0100582,1049,421,1.6736,8.73965
-168,603,1.65527,-8.7973,0.00138047,-0.0039209,-5.5216e-05,0.00138104,-0.00392147,-0.0104139,0.00317637,0.012299,1056,421,1.65524,8.79731
-161,603,1.65198,-8.91531,0.00144577,-0.00401161,-6.29566e-05,0.00144649,-0.00401233,-0.011534,0.00326564,0.0120582,1063,421,1.65195,8.91533
-154,603,1.65198,-9.04208,0.0015086,-0.00358917,-0.000108175,0.00151089,-0.00359147,-0.0212073,0.00302639,0.0114045,1070,421,1.65192,9.04208
-147,603,1.64697,-9.11728,0.00156243,-0.00311824,-0.0001721,0.00156875,-0.00312456,-0.0367023,0.00275886,0.0123183,1077,421,1.64697,9.11729
-140,603,1.67285,-9.20975,0.00162007,-0.00262078,-0.0003414,0.00164738,-0.00264809,-0.0798178,0.00250232,0.0108157,1084,421,1.67289,9.20975
-133,603,1.672,-9.30078,0.00165821,-0.00196848,-0.000493364,0.00172413,-0.0020344,-0.132822,0.00217245,0.0116052,1091,421,1.67198,9.30078
-126,603,1.66931,-9.35803,0.00163302,-0.00113594,-0.000684317,0.00179291,-0.00129583,-0.229529,0.00179097,0.00988791,1098,421,1.66926,9.35803
-119,603,1.67517,-9.43546,0.00157824,-0.000179175,-0.000927417,0.00197712,-0.000578055,-0.40618,0.00154719,0.00980225,1105,421,1.67516,9.43546
-112,603,1.66479,-9.53226,0.00154212,0.000643342,-0.00111886,0.00229847,-0.000113009,-0.594436,0.00157134,0.0152942,1112,421,1.66477,9.53225
-105,603,1.68274,-9.63409,0.00151649,0.00128177,-0.00131749,0.00272184,7.64185e-05,-0.740975,0.00178963,0.0159328,1119,421,1.68272,9.63408
-98,603,1.69055,-9.68625,0.0014902,0.00172521,-0.00143689,0.0030494,0.000166016,-0.826196,0.00197991,0.0125008,1126,421,1.69053,9.68626
-91,603,1.69104,-9.74734,0.0015683,0.00191521,-0.00138593,0.0031385,0.000345014,-0.847652,0.00198734,0.00862465,1133,421,1.69104,9.74734
-84,603,1.71033,-9.82556,0.00155794,0.00207108,-0.00128287,0.00312278,0.000506232,-0.884094,0.00193531,0.00864949,1140,421,1.71037,9.82557
-77,603,1.72876,-9.90329,0.00144713,0.00233901,-0.00102243,0.00300852,0.000777627,-0.991039,0.00180326,0.00999283,1147,421,1.72876,9.90329
-70,603,1.78735,-10.0289,0.00156718,0.00211847,-0.000399368,0.00232808,0.00135756,-1.08746,0.0013503,0.0197979,1154,421,1.78735,10.0289
-63,603,1.75671,-10.0541,-0.000248748,0.00365781,0.000627041,0.00375599,-0.000346927,1.41548,0.00262728,0.036427,1161,421,1.75671,10.0541
-56,603,1.72534,-10.1451,0,0,0,0,0,0,0,-1,1168,421,1.7253,10.1451
-49,603,1.78015,-10.0913,0,0,0,0,0,0,0,-1,1175,421,1.78011,10.0913
-42,603,1.75305,-10.1081,0,0,0,0,0,0,0,-1,1182,421,1.75305,10.1081
-35,603,1.71399,-10.1412,-0.0152349,-0.00209325,0.00313159,-0.00138516,-0.015943,1.34842,0.0101983,0.0378988,1189,421,1.71399,10.1412
-28,603,1.72327,-10.1892,-0.018178,-0.00461147,0.00351543,-0.00375465,-0.0190348,1.33173,0.0116419,0.0226828,1196,421,1.72321,10.1892
-21,603,1.75073,-10.2333,-0.0197018,-0.00657682,0.00333975,-0.00577588,-0.0205027,1.33542,0.0122075,0.0191745,1203,421,1.75076,10.2333
-14,603,1.81921,-10.2326,-0.0196186,-0.00843916,0.00275747,-0.00779601,-0.0202617,1.34166,0.0118012,0.018912,1210,421,1.81916,10.2326
-7,603,1.86987,-10.2574,-0.0185779,-0.00989206,0.00178956,-0.0095378,-0.0189321,1.37536,0.0109306,0.0214213,1217,421,1.86981,10.2574
0,603,1.92529,-10.2986,-0.0164307,-0.010653,0.000599964,-0.0105914,-0.0164923,1.46841,0.00964935,0.0240353,1224,421,1.92532,10.2986
7,603,1.9093,-10.2895,-0.012752,-0.0106599,-0.000786554,-0.0103972,-0.0130148,-1.24844,0.00794896,0.0303184,1231,421,1.90927,10.2895
14,603,1.90247,-10.2675,-0.00839526,-0.00846437,-0.00292807,-0.00550154,-0.0113581,-0.779498,0.00655867,0.0282557,1238,421,1.90248,10.2675
21,603,1.94275,-10.2533,-0.00395092,-0.00582859,-0.00483654,3.70638e-05,-0.00981657,-0.689534,0.00655677,0.0201985,1245,421,1.94275,10.2533
28,603,2.0155,-10.2791,0.000952036,-0.00247312,-0.00672304,0.00617719,-0.00769828,-0.660684,0.00802703,0.0223614,1252,421,2.01556,10.2791
35,603,2.07104,-10.2929,0.00555079,0.00229222,-0.00905205,0.013119,-0.005276,-0.696356,0.0109374,0.0318906,1259,421,2.07105,10.2929
42,603,2.02026,-10.3311,0.00850291,0.0073814,-0.011256,0.0192121,-0.00332782,-0.76051,0.0140494,0.0290454,1266,421,2.02031,10.3311
49,603,2.01672,-10.3531,0.00954093,0.0119878,-0.011425,0.0222546,-0.000725915,-0.838737,0.0150842,0.0160658,1273,421,2.01678,10.3531
56,603,2.03491,-10.3186,0.00989633,0.01641,-0.0114121,0.0250209,0.0012854,-0.924394,0.0162691,0.0283447,1280,421,2.03492,10.3186
63,603,2.07104,-10.2621,0.00987715,0.0193441,-0.0108904,0.0264852,0.00273602,-0.990404,0.0168191,0.0371063,1287,421,2.07101,10.2621
70,603,2.05371,-10.2327,0.00864229,0.0213673,-0.00944828,0.0263956,0.00361394,-1.08172,0.0165247,0.0432722,1294,421,2.05372,10.2327
77,603,2.21558,-10.3065,0.00601164,0.0213186,-0.00710145,0.0241057,0.00322451,-1.1968,0.0151108,0.0476379,1301,421,2.21552,10.3065
84,603,2.54114,-10.0875,0.00263689,0.0204148,-0.00417183,0.0213451,0.0017066,-1.35139,0.0136967,0.0476174,1308,421,2.54109,10.0875
91,603,2.39063,-9.8905,-0.000851439,0.0198553,-0.000734143,0.0198813,-0.000877435,-1.5354,0.0135561,0.0481935,1315,421,2.39067,9.8905
98,603,2.34827,-10.2281,-0.00396716,0.0195462,0.00312862,0.0199554,-0.00437633,1.44075,0.014977,0.0478231,1322,421,2.34822,10.2281
105,603,2.14819,-10.2691,-0.00646368,0.0190573,0.00685654,0.0207827,-0.00818912,1.32427,0.0172456,0.04047,1329,421,2.14821,10.2691
112,603,2.18994,-10.219,-0.00831699,0.0189459,0.0101417,0.0223048,-0.0116759,1.25097,0.0199361,0.0320082,1336,421,2.18991,10.219
119,603,2.21777,-10.1801,-0.00945594,0.018708,0.0135191,0.024147,-0.014895,1.18829,0.0227509,0.0320242,1343,421,2.21774,10.1802
126,603,2.22546,-10.1582,-0.00947864,0.0203092,0.0155751,0.0269655,-0.016135,1.16692,0.0251446,0.0383987,1350,421,2.22544,10.1582
133,603,2.27954,-10.1097,-0.00937965,0.0231392,0.0167815,0.0302462,-0.0164866,1.1702,0.0273682,0.0342565,1357,421,2.27954,10.1097
140,603,2.31689,-9.97937,-0.00904362,0.026038,0.0174864,0.0332651,-0.0162708,1.17887,0.0291552,0.021572,1364,421,2.31684,9.97936
147,603,2.24036,-9.92352,-0.00780034,0.0290629,0.0172763,0.0358938,-0.0146313,1.19427,0.0300194,0.0167651,1371,421,2.24037,9.92352
154,603,2.23877,-9.88617,-0.00633819,0.0321373,0.0153505,0.0375111,-0.011712,1.23405,0.0296916,0.0256095,1378,421,2.23877,9.88618
161,603,2.27637,-9.84488,-0.00589915,0.0334929,0.0137888,0.0378398,-0.0102461,1.26541,0.0292464,0.0301299,1385,421,2.27633,9.84489
168,603,2.32959,-9.77255,-0.0058811,0.033322,0.0121235,0.0367682,-0.00932731,1.29384,0.0281413,0.0288559,1392,421,2.32954,9.77255
175,603,2.40161,-9.685,-0.00553797,0.03163,0.0101643,0.0342281,-0.00813601,1.32055,0.0259592,0.0300323,1399,421,2.4016,9.685
182,603,2.46558,-9.64746,-0.00459477,0.0291538,0.00767574,0.0308176,-0.00625851,1.35734,0.0229179,0.0337466,1406,421,2.46552,9.64747
189,603,2.42554,-9.54041,-0.00366553,0.0229001,0.00576316,0.0240965,-0.00486191,1.36611,0.0179063,0.0283676,1413,421,2.42551,9.54042
196,603,2.33765,-9.45514,-0.0017535,0.0151324,0.00345143,0.0158106,-0.00243172,1.37676,0.0114375,0.0208274,1420,421,2.33762,9.45514
203,603,2.30945,-9.41431,0.000449618,0.00693891,0.00060893,0.00699556,0.000392973,1.47804,0.00453839,0.0117385,1427,421,2.30948,9.4143
210,603,2.33643,-9.366,0.00175115,0.00189529,-0.00093036,0.00275637,0.000890072,-0.824055,0.00162432,0.0104077,1434,421,2.33648,9.36599
217,603,2.36279,-9.27582,0.00106047,0.000417725,-0.000614074,0.00143218,4.60121e-05,-0.544325,0.000939825,0.0124013,1441,421,2.36284,9.27583
224,603,2.35303,-9.17407,0.000922403,0.000728866,-0.000373014,0.001211,0.000440273,-0.658484,0.000707792,0.015969,1448,421,2.35304,9.17408
231,603,2.33923,-9.08405,0.00083381,0.000985661,-0.0001447,0.00107315,0.000746326,-1.02701,0.000635165,0.0140157,1455,421,2.33919,9.08405
238,603,2.36572,-9.00079,0.000790381,0.00113429,7.96064e-06,0.00113447,0.000790196,1.54767,0.000671642,0.0104763,1462,421,2.36574,9.0008
245,603,2.38989,-8.91147,0.000752131,0.00120155,4.02034e-05,0.00120512,0.000748563,1.48228,0.000702552,0.0113217,1469,421,2.38991,8.91148
252,603,2.40051,-8.81732,0.000670351,0.00122146,2.94864e-05,0.00122303,0.000668778,1.5175,0.000707149,0.0100125,1476,421,2.40046,8.81731
259,603,2.38989,-8.69589,0.000605654,0.00115669,4.86483e-05,0.00116095,0.000601392,1.48341,0.000670419,0.00985657,1483,421,2.38987,8.6959
266,603,2.3772,-8.57892,0.000609539,0.00106331,0.000129371,0.0010976,0.000575246,1.31169,0.000633947,0.0114498,1490,421,2.37718,8.57891
273,603,2.38989,-8.46463,0.000666061,0.000980377,0.000318611,0.00117848,0.000467956,1.01452,0.000685184,0.0110392,1497,421,2.38993,8.46464
280,603,2.39526,-8.34061,0.000774258,0.000880029,0.000571128,0.00140071,0.000253572,0.831566,0.000861811,0.0124555,1504,421,2.39531,8.34062
287,603,2.38098,-8.21954,0.000945716,0.000859639,0.000961506,0.00186515,-5.97914e-05,0.763032,0.00126383,0.0115177,1511,421,2.381,8.21954
294,603,2.38574,-8.10809,0.00115356,0.000917512,0.00141598,0.00245642,-0.000385349,0.743818,0.00178002,0.0101355,1518,421,2.38574,8.1081
301,603,2.38818,-7.99936,0.00139441,0.000934477,0.00188747,0.00306588,-0.000736986,0.724777,0.00232878,0.0118857,1525,421,2.38821,7.99936
308,603,2.38831,-7.87839,0.00164291,0.000992262,0.00249423,0.00383295,-0.00119777,0.720549,0.00303441,0.0163254,1532,421,2.38835,7.87839
315,603,2.39099,-7.75906,0.00175272,0.00105829,0.00306391,0.00448902,-0.00167802,0.728977,0.00368177,0.0151925,1539,421,2.39098,7.75908
322,603,2.40295,-7.604,0.00179741,0.00116136,0.0035656,0.00505914,-0.00210037,0.740919,0.00424957,0.0155638,1546,421,2.40301,7.60399
329,603,2.38525,-7.46072,0.00173298,0.00118961,0.00397461,0.00544518,-0.00252258,0.751274,0.00470221,0.0113157,1553,421,2.38523,7.46072
336,603,2.36804,-7.33368,0.00155777,0.00117593,0.00425907,0.0056302,-0.0028965,0.763,0.00500652,0.00917106,1560,421,2.36801,7.33368
343,603,2.3739,-7.18964,0.00132253,0.0010771,0.00439748,0.00559901,-0.00319938,0.771449,0.00514234,0.0110067,1567,421,2.37386,7.18963
350,603,2.37683,-7.04068,0.000983964,0.0010001,0.0044669,0.00545894,-0.00347488,0.786301,0.00520017,0.0171171,1574,421,2.3768,7.04069
357,603,2.38464,-6.85434,0.000487158,0.000990047,0.00445405,0.00519975,-0.00372254,0.813595,0.00517477,0.0188997,1581,421,2.38465,6.85434
364,603,2.36133,-6.68182,-0.00022364,0.000976264,0.00423569,0.00465428,-0.00390166,0.855751,0.00494614,0.017291,1588,421,2.36129,6.68181
371,603,2.38843,-6.52972,-0.000734071,0.000531865,0.00380291,0.00375412,-0.00395633,0.867864,0.00445214,0.0196584,1595,421,2.38838,6.52972
378,603,2.40295,-6.42477,-0.00123385,0.000127894,0.00319209,0.00271092,-0.00381688,0.890473,0.00378681,0.0305451,1602,421,2.40295,6.42477
385,603,2.37891,-6.28207,-0.00146328,-0.000128992,0.00316574,0.00243914,-0.00403141,0.889248,0.00377329,0.0465213,1609,421,2.37886,6.28208
392,603,2.35828,-6.14233,0,0,0,0,0,0,0,-1,1616,421,2.35828,6.14232
399,603,2.38013,-5.37076,0,0,0,0,0,0,0,-1,1623,421,2.38016,5.37075
406,603,3.01917,-2.37219,0,0,0,0,0,0,0,-1,1630,421,3.01915,2.37219
413,603,2.38928,-2.41275,0,0,0,0,0,0,0,-1,1637,421,2.38926,2.41274
420,603,2.74866,-2.30066,0,0,0,0,0,0,0,-1,1644,421,2.74867,2.30065
427,603,7.11548,-3.35352,0,0,0,0,0,0,0,-1,1651,421,7.11549,3.35351
434,603,7.32153,-4.50525,0,0,0,0,0,0,0,-1,1658,421,7.32149,4.50525
441,603,3.18213,-0.250946,0,0,0,0,0,0,0,-1,1665,421,3.18212,0.250944
448,603,2.95667,-0.066925,0,0,0,0,0,0,0,-1,1672,421,2.95662,0.0669226
455,603,0,0,0,0,0,0,0,0,0,-1,1679,421,0,0
462,603,0,0,0,0,0,0,0,0,0,-1,1686,421,0,0
469,603,0,0,0,0,0,0,0,0,0,-1,1693,421,0,0
476,603,0,0,0,0,0,0,0,0,0,-1,1700,421,0,0
483,603,0,0,0,0,0,0,0,0,0,-1,1707,421,0,0
490,603,0,0,0,0,0,0,0,0,0,-1,1714,421,0,0
497,603,0,0,0,0,0,0,0,0,0,-1,1721,421,0,0
504,603,0,0,0,0,0,0,0,0,0,-1,1728,421,0,0
511,603,0,0,0,0,0,0,0,0,0,-1,1735,421,0,0
518,603,0,0,0,0,0,0,0,0,0,-1,1742,421,0,0
525,603,0,0,0,0,0,0,0,0,0,-1,1749,421,0,0
532,603,0,0,0,0,0,0,0,0,0,-1,1756,421,0,0
539,603,0,0,0,0,0,0,0,0,0,-1,1763,421,0,0
546,603,0,0,0,0,0,0,0,0,0,-1,1770,421,0,0
553,603,0,0,0,0,0,0,0,0,0,-1,1777,421,0,0
560,603,0,0,0,0,0,0,0,0,0,-1,1784,421,0,0
567,603,0,0,0,0,0,0,0,0,0,-1,1791,421,0,0
574,603,0,0,0,0,0,0,0,0,0,-1,1798,421,0,0
581,603,0,0,0,0,0,0,0,0,0,-1,1805,421,0,0
588,603,0,0,0,0,0,0,0,0,0,-1,1812,421,0,0
595,603,0,0,0,0,0,0,0,0,0,-1,1819,421,0,0
602,603,0,0,0,0,0,0,0,0,0,-1,1826,421,0,0
609,603,0,0,0,0,0,0,0,0,0,-1,1833,421,0,0
616,603,0,0,0,0,0,0,0,0,0,-1,1840,421,0,0
623,603,0,0,0,0,0,0,0,0,0,-1,1847,421,0,0
630,603,0,0,0,0,0,0,0,0,0,-1,1854,421,0,0
637,603,0,0,0,0,0,0,0,0,0,-1,1861,421,0,0
644,603,0,0,0,0,0,0,0,0,0,-1,1868,421,0,0
651,603,0,0,0,0,0,0,0,0,0,-1,1875,421,0,0
658,603,0,0,0,0,0,0,0,0,0,-1,1882,421,0,0
665,603,0,0,0,0,0,0,0,0,0,-1,1889,421,0,0
672,603,0,0,0,0,0,0,0,0,0,-1,1896,421,0,0
679,603,0,0,0,0,0,0,0,0,0,-1,1903,421,0,0
686,603,0,0,0,0,0,0,0,0,0,-1,1910,421,0,0
693,603,0,0,0,0,0,0,0,0,0,-1,1917,421,0,0
700,603,0,0,0,0,0,0,0,0,0,-1,1924,421,0,0
707,603,0,0,0,0,0,0,0,0,0,-1,1931,421,0,0
714,603,0,0,0,0,0,0,0,0,0,-1,1938,421,0,0
721,603,0,0,0,0,0,0,0,0,0,-1,1945,421,0,0
728,603,0,0,0,0,0,0,0,0,0,-1,1952,421,0,0
735,603,0,0,0,0,0,0,0,0,0,-1,1959,421,0,0
742,603,0,0,0,0,0,0,0,0,0,-1,1966,421,0,0
749,603,0,0,0,0,0,0,0,0,0,-1,1973,421,0,0
756,603,0,0,0,0,0,0,0,0,0,-1,1980,421,0,0
763,603,0,0,0,0,0,0,0,0,0,-1,1987,421,0,0
770,603,0,0,0,0,0,0,0,0,0,-1,1994,421,0,0
777,603,0,0,0,0,0,0,0,0,0,-1,2001,421,0,0
784,603,0,0,0,0,0,0,0,0,0,-1,2008,421,0,0
791,603,0,0,0,0,0,0,0,0,0,-1,2015,421,0,0
798,603,0,0,0,0,0,0,0,0,0,-1,2022,421,0,0
805,603,0,0,0,0,0,0,0,0,0,-1,2029,421,0,0
812,603,0,0,0,0,0,0,0,0,0,-1,2036,421,0,0
-700,596,0,0,0,0,0,0,0,0,0,-1,524,428,0,0
-693,596,0,0,0,0,0,0,0,0,0,-1,531,428,0,0
-686,596,0,0,0,0,0,0,0,0,0,-1,538,428,0,0
-679,596,0,0,0,0,0,0,0,0,0,-1,545,428,0,0
-672,596,0,0,0,0,0,0,0,0,0,-1,552,428,0,0
-665,596,0,0,0,0,0,0,0,0,0,-1,559,428,0,0
-658,596,0,0,0,0,0,0,0,0,0,-1,566,428,0,0
-651,596,0,0,0,0,0,0,0,0,0,-1,573,428,0,0
-644,596,0,0,0,0,0,0,0,0,0,-1,580,428,0,0
-637,596,0,0,0,0,0,0,0,0,0,-1,587,428,0,0
-630,596,0,0,0,0,0,0,0,0,0,-1,594,428,0,0
-623,596,0,0,0,0,0,0,0,0,0,-1,601,428,0,0
-616,596,0,0,0,0,0,0,0,0,0,-1,608,428,0,0
-609,596,0,0,0,0,0,0,0,0,0,-1,615,428,0,0
-602,596,0,0,0,0,0,0,0,0,0,-1,622,428,0,0
-595,596,0,0,0,0,0,0,0,0,0,-1,629,428,0,0
-588,596,0,0,0,0,0,0,0,0,0,-1,636,428,0,0
-581,596,0,0,0,0,0,0,0,0,0,-1,643,428,0,0
-574,596,0,0,0,0,0,0,0,0,0,-1,650,428,0,0
-567,596,0,0,0,0,0,0,0,0,0,-1,657,428,0,0
-560,596,0,0,0,0,0,0,0,0,0,-1,664,428,0,0
-553,596,0,0,0,0,0,0,0,0,0,-1,671,428,0,0
-546,596,0,0,0,0,0,0,0,0,0,-1,678,428,0,0
-539,596,0,0,0,0,0,0,0,0,0,-1,685,428,0,0
-532,596,0,0,0,0,0,0,0,0,0,-1,692,428,0,0
-525,596,0,0,0,0,0,0,0,0,0,-1,699,428,0,0
-518,596,0,0,0,0,0,0,0,0,0,-1,706,428,0,0
-511,596,0,0,0,0,0,0,0,0,0,-1,713,428,0,0
-504,596,0,0,0,0,0,0,0,0,0,-1,720,428,0,0
-497,596,0,0,0,0,0,0,0,0,0,-1,727,428,0,0
-490,596,0,0,0,0,0,0,0,0,0,-1,734,428,0,0
-483,596,0,0,0,0,0,0,0,0,0,-1,741,428,0,0
-476,596,0,0,0,0,0,0,0,0,0,-1,748,428,0,0
-469,596,0,0,0,0,0,0,0,0,0,-1,755,428,0,0
-462,596,0,0,0,0,0,0,0,0,0,-1,762,428,0,0
-455,596,0,0,0,0,0,0,0,0,0,-1,769,428,0,0
-448,596,0,0,0,0,0,0,0,0,0,-1,776,428,0,0
-441,596,0,0,0,0,0,0,0,0,0,-1,783,428,0,0
-434,596,0,0,0,0,0,0,0,0,0,-1,790,428,0,0
-427,596,0,0,0,0,0,0,0,0,0,-1,797,428,0,0
-420,596,0,0,0,0,0,0,0,0,0,-1,804,428,0,0
-413,596,0,0,0,0,0,0,0,0,0,-1,811,428,0,0
-406,596,0,0,0,0,0,0,0,0,0,-1,818,428,0,0
-399,596,0,0,0,0,0,0,0,0,0,-1,825,428,0,0
-392,596,0,0,0,0,0,0,0,0,0,-1,832,428,0,0
-385,596,0,0,0,0,0,0,0,0,0,-1,839,428,0,0
-378,596,0,0,0,0,0,0,0,0,0,-1,846,428,0,0
-371,596,0,0,0,0,0,0,0,0,0,-1,853,428,0,0
-364,596,0,0,0,0,0,0,0,0,0,-1,860,428,0,0
-357,596,0,0,0,0,0,0,0,0,0,-1,867,428,0,0
-350,596,0,0,0,0,0,0,0,0,0,-1,874,428,0,0
-343,596,0,0,0,0,0,0,0,0,0,-1,881,428,0,0
-336,596,1.89813,-9.66019,0,0,0,0,0,0,0,-1,888,428,1.89813,9.6602
-329,596,1.54865,-9.16202,0.0554282,-0.0584699,-0.00121717,0.0554412,-0.0584829,-0.0106849,0.0657819,0.0421982,895,428,1.54866,9.16203
-322,596,1.10236,-8.44147,0.0453176,-0.0575206,0.00206296,0.0453589,-0.057562,0.0200495,0.0595605,0.0438698,902,428,1.10236,8.44147
-315,596,0.975098,-8.08691,0.0338408,-0.0540489,0.0044156,0.0340621,-0.0542701,0.0500722,0.0514416,0.04873,909,428,0.975098,8.0869
-308,596,1.19055,-7.75293,0,0,0,0,0,0,0,-1,916,428,1.19055,7.75294
-301,596,1.45056,-6.5459,0,0,0,0,0,0,0,-1,923,428,1.45057,6.5459
-294,596,1.38324,-6.62073,0.00639138,-0.0390281,0.00677397,0.00738014,-0.0400169,0.144941,0.0294479,0.0427346,930,428,1.38327,6.62074
-287,596,1.35211,-6.61136,0.000167374,-0.0337203,0.00622933,0.00127619,-0.0348291,0.176154,0.0236563,0.0467052,937,428,1.35209,6.61134
-280,596,1.37555,-6.84113,-0.00444221,-0.0284843,0.00554929,-0.00322316,-0.0297034,0.216242,0.0188201,0.0495747,944,428,1.37557,6.84112
-273,596,1.63947,-7.21603,-0.00787121,-0.0231991,0.00613492,-0.00571816,-0.0253521,0.33752,0.0153545,0.0457015,951,428,1.63947,7.21604
-266,596,1.33936,-6.77377,-0.00991961,-0.0178176,0.00424315,-0.00807214,-0.019665,0.410646,0.0114141,0.0419315,958,428,1.33933,6.77379
-259,596,1.44965,-7.18954,-0.0109359,-0.0135549,0.00251312,-0.00941156,-0.0150792,0.545218,0.00879498,0.0336013,965,428,1.44965,7.18955
-252,596,1.60394,-7.4346,-0.00954957,-0.010186,0.00192912,-0.00791259,-0.011823,0.703659,0.00695514,0.0168716,972,428,1.60396,7.4346
-245,596,1.59094,-7.56433,-0.00758231,-0.00709229,0.00129035,-0.00602389,-0.0086507,0.879221,0.00512124,0.0121951,979,428,1.59097,7.56432
-238,596,1.59076,-7.67279,-0.00559158,-0.00421778,0.000729104,-0.00390297,-0.00590639,1.1632,0.00346834,0.0107374,986,428,1.59077,7.67279
-231,596,1.58813,-7.79984,-0.0038589,-0.00198204,0.000255849,-0.00194779,-0.00389315,1.43771,0.00224771,0.0115885,993,428,1.58815,7.79982
-224,596,1.57343,-7.93802,-0.00243581,-0.000481365,-2.60734e-05,-0.000481017,-0.00243616,-1.55746,0.00148988,0.0128295,1000,428,1.57344,7.93801
-217,596,1.58167,-8.0593,-0.000736109,0.00115882,-0.000620484,0.00134391,-0.000921203,-1.28089,0.00131534,0.0142237,1007,428,1.58165,8.05929
-210,596,1.58356,-8.18787,0.000571587,0.00178649,-0.000916322,0.00227842,7.9655e-05,-1.0781,0.0014931,0.0116118,1014,428,1.58355,8.18787
-203,596,1.56866,-8.30118,0.000927952,0.00165994,-0.000754726,0.00213273,0.000455158,-1.01116,0.001297,0.0139734,1021,428,1.56864,8.30116
-196,596,1.59253,-8.4339,0.00091266,0.000935598,-0.00052036,0.00144462,0.000403642,-0.796417,0.00086068,0.0138145,1028,428,1.59256,8.43389
-189,596,1.58142,-8.53568,0.00102735,0.000167306,-0.000411665,0.00119263,2.02388e-06,-0.381796,0.000794413,0.0116758,1035,428,1.58148,8.53567
-182,596,1.5686,-8.64169,0.00112872,-0.000596311,-0.000123522,0.00113752,-0.000605111,-0.0711221,0.00102164,0.0113865,1042,428,1.56857,8.6417
-175,596,1.57166,-8.7421,0.00132771,-0.00111726,-8.44894e-05,0.00133062,-0.00112017,-0.0345016,0.00141671,0.0125899,1049,428,1.57161,8.7421
-168,596,1.5719,-8.80286,0.00157692,-0.00140732,-0.000306389,0.00160805,-0.00143845,-0.101262,0.0017598,0.0142126,1056,428,1.57192,8.80285
-161,596,1.56409,-8.91452,0.00179532,-0.0015449,-0.000550055,0.00188357,-0.00163315,-0.159082,0.00203209,0.0131133,1063,428,1.5641,8.91453
-154,596,1.55676,-9.05243,0.00206053,-0.00130975,-0.000881598,0.00227721,-0.00152643,-0.241002,0.00221025,0.011625,1070,428,1.55682,9.05243
-147,596,1.58142,-9.13467,0.00234772,-0.00102174,-0.00123189,0.00275006,-0.00142408,-0.315683,0.00245014,0.0119106,1077,428,1.58136,9.13466
-140,596,1.58667,-9.20847,0.00264965,-0.000755578,-0.0017769,0.00340799,-0.00151392,-0.403373,0.00291095,0.0122225,1084,428,1.58664,9.20848
-133,596,1.56653,-9.31268,0.00289835,-0.000299949,-0.00232739,0.00412303,-0.00152463,-0.484391,0.00337375,0.0133714,1091,428,1.56654,9.31269
-126,596,1.58179,-9.36777,0.00311152,0.000351042,-0.00289768,0.00494089,-0.00147833,-0.563133,0.0038817,0.0101646,1098,428,1.58182,9.36777
-119,596,1.60229,-9.44528,0.00325376,0.00114611,-0.00345201,0.00580922,-0.00140935,-0.637252,0.00441817,0.0131006,1105,428,1.6023,9.44529
-112,596,1.58716,-9.53024,0.00335513,0.00190381,-0.00388154,0.00657826,-0.00131932,-0.69299,0.00488503,0.0150049,1112,428,1.58719,9.53025
-105,596,1.59961,-9.60999,0.00338461,0.00260323,-0.00428349,0.0072952,-0.00130735,-0.73992,0.00535273,0.0154884,1119,428,1.59964,9.60999
-98,596,1.62622,-9.66034,0.00333353,0.00319824,-0.00453684,0.00780322,-0.00127146,-0.777943,0.00567366,0.0107334,1126,428,1.62618,9.66033
-91,596,1.64087,-9.73657,0.00329344,0.00364143,-0.00438095,0.00785184,-0.000916974,-0.805246,0.00556546,0.0102996,1133,428,1.64091,9.73658
-84,596,1.6825,-9.86276,0.00310497,0.004051,-0.00405632,0.00766179,-0.000505824,-0.843441,0.00528454,0.0152985,1140,428,1.6825,9.86277
-77,596,1.6814,-9.97391,0.00266959,0.00448477,-0.00336248,0.00705999,9.43674e-05,-0.917215,0.00467552,0.0239458,1147,428,1.68139,9.97392
-70,596,1.71179,-10.1346,0,0,0,0,0,0,0,-1,1154,428,1.71174,10.1347
-63,596,1.70862,-10.1381,0,0,0,0,0,0,0,-1,1161,428,1.70864,10.1381
-56,596,1.63562,-9.85507,0,0,0,0,0,0,0,-1,1168,428,1.63559,9.85508
-49,596,1.59473,-10.0393,0,0,0,0,0,0,0,-1,1175,428,1.59472,10.0393
-42,596,1.99585,-6.6246,0,0,0,0,0,0,0,-1,1182,428,1.99586,6.62459
-35,596,1.46179,-10.0389,0,0,0,0,0,0,0,-1,1189,428,1.46177,10.0389
-28,596,1.58911,-10.1484,0,0,0,0,0,0,0,-1,1196,428,1.58914,10.1484
-21,596,1.59546,-10.152,-0.0301194,-0.00864198,0.00619426,-0.00698356,-0.0317778,1.3092,0.0192836,0.0484501,1203,428,1.59543,10.152
-14,596,1.66772,-10.1907,-0.0295596,-0.0109598,0.00536664,-0.00952239,-0.0309969,1.3091,0.0183342,0.0434142,1210,428,1.66771,10.1907
-7,596,2.07458,-10.3425,-0.0277339,-0.0128221,0.00402968,-0.0118028,-0.0287532,1.32305,0.0166891,0.047251,1217,428,2.07463,10.3425
0,596,2.47559,-10.1054,-0.0243898,-0.0138561,0.00236537,-0.0133494,-0.0248966,1.35974,0.0143866,0.0482665,1224,428,2.47561,10.1054
7,596,2.29956,-10.0358,-0.018843,-0.013839,0.000343363,-0.0138155,-0.0188664,1.5026,0.0112775,0.0439222,1231,428,2.29952,10.0358
14,596,1.9198,-9.96542,-0.0123991,-0.0105793,-0.00287505,-0.0084736,-0.0145048,-0.938655,0.00841384,0.0444635,1238,428,1.91983,9.96541
21,596,1.96594,-10.0681,-0.00593396,-0.00668699,-0.00574624,-0.000551918,-0.012069,-0.752683,0.0078685,0.0432379,1245,428,1.96589,10.0681
28,596,2.08936,-10.1439,0.000880964,-0.00189822,-0.00851034,0.00811441,-0.00913167,-0.704471,0.0099628,0.043755,1252,428,2.0893,10.1439
35,596,2.19861,-10.1929,0,0,0,0,0,0,0,-1,1259,428,2.19858,10.1929
42,596,2.17285,-10.4962,0.0108274,0.0106049,-0.0142705,0.0249871,-0.00355479,-0.781499,0.0179606,0.043313,1266,428,2.17289,10.4963
49,596,2.25549,-10.542,0.0122469,0.0164649,-0.0146383,0.0291453,-0.000433547,-0.856943,0.0195763,0.0437873,1273,428,2.25555,10.542
56,596,2.22131,-10.2549,0.0126946,0.0220254,-0.0147147,0.0327965,0.0019234,-0.938914,0.0212523,0.0441017,1280,428,2.22134,10.2549
63,596,2.33984,-10.1389,0.0124382,0.0255109,-0.013986,0.0344126,0.0035365,-1.00399,0.0218585,0.0463193,1287,428,2.33986,10.1389
70,596,2.03784,-10.135,0,0,0,0,0,0,0,-1,1294,428,2.03786,10.135
77,596,2.25452,-10.2747,0,0,0,0,0,0,0,-1,1301,428,2.25451,10.2747
84,596,5.6311,-11.6793,0.00224956,0.0252949,-0.00481544,0.0262607,0.00128382,-1.37287,0.0170953,0.0461862,1308,428,5.63107,11.6793
91,596,6.63831,-12.0684,-0.00244703,0.0239856,-0.000302238,0.023989,-0.00245049,-1.55936,0.016869,0.0454897,1315,428,6.63833,12.0684
98,596,2.53076,-10.1798,0,0,0,0,0,0,0,-1,1322,428,2.53081,10.1798
105,596,2.22815,-10.3389,-0.00983482,0.0222701,0.00943544,0.0248378,-0.0124025,1.3051,0.0218966,0.0483861,1329,428,2.22809,10.3389
112,596,2.28223,-10.1674,-0.0123591,0.021898,0.0136653,0.0266812,-0.0171423,1.23409,0.0255006,0.0420474,1336,428,2.28217,10.1674
119,596,2.39063,-10.0793,-0.0138256,0.0214117,0.0180842,0.0290409,-0.0214548,1.17158,0.0292632,0.044001,1343,428,2.39063,10.0793
126,596,2.10938,-10.2675,-0.0137722,0.0237596,0.0207229,0.0329508,-0.0229634,1.15334,0.0324533,0.0481422,1350,428,2.10932,10.2676
133,596,2.11133,-10.43,-0.0135198,0.0280209,0.0222267,0.0376715,-0.0231704,1.16117,0.0354581,0.0480721,1357,428,2.11129,10.43
140,596,2.49316,-9.92123,-0.0129632,0.0328653,0.022971,0.0423968,-0.0224948,1.17748,0.038048,0.0438352,1364,428,2.49322,9.92124
147,596,2.30835,-9.79208,-0.0116176,0.0381452,0.0226268,0.046895,-0.0203674,1.20181,0.0398279,0.038171,1371,428,2.30836,9.79209
154,596,2.29846,-9.83734,-0.0103894,0.0429881,0.02084,0.0501608,-0.017562,1.23932,0.0405816,0.0441757,1378,428,2.29845,9.83734
161,596,2.32446,-9.77057,-0.0103241,0.0454145,0.019302,0.051446,-0.0163556,1.26793,0.0408555,0.0472698,1385,428,2.32441,9.77058
168,596,2.45056,-9.74484,0,0,0,0,0,0,0,-1,1392,428,2.45056,9.74483
175,596,2.60742,-9.5921,0,0,0,0,0,0,0,-1,1399,428,2.60737,9.59211
182,596,2.65906,-9.58597,0,0,0,0,0,0,0,-1,1406,428,2.6591,9.58597
189,596,2.55017,-9.49527,0,0,0,0,0,0,0,-1,1413,428,2.55017,9.49528
196,596,2.50732,-9.29718,0,0,0,0,0,0,0,-1,1420,428,2.50733,9.29716
203,596,2.44458,-9.38928,0,0,0,0,0,0,0,-1,1427,428,2.44457,9.3893
210,596,2.41528,-9.39471,0.00239124,0.00282719,-0.00123468,0.00386299,0.00135544,-0.872771,0.00226312,0.0230475,1434,428,2.41534,9.39472
217,596,2.42712,-9.27032,0.00139537,0.00048901,-0.000879483,0.00193156,-4.7185e-05,-0.5475,0.00130372,0.0113647,1441,428,2.42715,9.27032
224,596,2.42786,-9.15973,0.00123979,0.000883519,-0.000633298,0.00171953,0.000403778,-0.648301,0.00103827,0.0109984,1448,428,2.4279,9.15974
231,596,2.44885,-9.07413,0.00112413,0.0011924,-0.00041196,0.00157164,0.000744894,-0.826734,0.000907796,0.0111776,1455,428,2.44885,9.07412
238,596,2.47375,-8.9949,0.00107723,0.00134748,-0.000281627,0.00152472,0.000899987,-1.00908,0.000885066,0.0141501,1462,428,2.47381,8.99491
245,596,2.4895,-8.90469,0.00102875,0.00138596,-0.000299281,0.00155588,0.000858833,-1.05442,0.000899903,0.0127966,1469,428,2.48945,8.9047
252,596,2.50342,-8.79733,0.000900802,0.00137907,-0.000356486,0.0015692,0.000710673,-1.08083,0.000907319,0.00971718,1476,428,2.50344,8.79733
259,596,2.51294,-8.68625,0.000716265,0.00124982,-0.000401495,0.00146509,0.000500996,-1.07863,0.000859838,0.00820378,1483,428,2.5129,8.68624
266,596,2.49121,-8.577,0.000607919,0.00106425,-0.000422965,0.00131666,0.000355501,-1.03275,0.000786528,0.00955111,1490,428,2.49115,8.57699
273,596,2.49719,-8.47623,0.000537699,0.00089249,-0.000392059,0.00114542,0.000284769,-0.997852,0.000688605,0.0121868,1497,428,2.49723,8.47623
280,596,2.51526,-8.36029,0.000551199,0.00067243,-0.00025462,0.00087355,0.000350079,-0.902255,0.000507645,0.0129593,1504,428,2.5152,8.36028
287,596,2.51062,-8.24606,0.000626093,0.000542533,8.75693e-06,0.000627001,0.000541625,0.103304,0.000392648,0.0118423,1511,428,2.51063,8.24605
294,596,2.49683,-8.12314,0.000733322,0.000497744,0.000334384,0.000970056,0.00026101,0.616057,0.000579632,0.00995378,1518,428,2.49678,8.12315
301,596,2.48889,-7.99951,0.000859458,0.000390799,0.000661526,0.00132693,-7.66744e-05,0.615181,0.000911255,0.0109531,1525,428,2.48889,7.99951
308,596,2.50745,-7.85959,0.00101694,0.000398665,0.00112412,0.00187366,-0.000458055,0.651214,0.00142652,0.0158911,1532,428,2.5074,7.8596
315,596,2.51147,-7.73032,0.00111481,0.000433969,0.00158696,0.00239745,-0.000848677,0.679745,0.00194396,0.0161236,1539,428,2.5115,7.73031
322,596,2.52075,-7.58633,0.00116321,0.000525157,0.00201886,0.0028881,-0.00119973,0.707034,0.00242628,0.013156,1546,428,2.52072,7.58635
329,596,2.49683,-7.46191,0.00112588,0.000574896,0.00238828,0.00325451,-0.00155373,0.727976,0.00283333,0.0100611,1553,428,2.49678,7.46192
336,596,2.47998,-7.34372,0.000996568,0.000618741,0.00267516,0.00348948,-0.00187417,0.750148,0.00314317,0.00943994,1560,428,2.48,7.34373
343,596,2.49365,-7.20587,0.000813765,0.000610626,0.00286025,0.00357425,-0.00214986,0.76765,0.00333875,0.0112846,1567,428,2.49364,7.20588
350,596,2.51611,-7.0578,0.00055024,0.000640368,0.00300206,0.00359771,-0.0024071,0.792903,0.00348952,0.0111087,1574,428,2.51616,7.0578
357,596,2.51001,-6.90625,0.000175009,0.000730004,0.00307704,0.00354203,-0.00263702,0.830368,0.00358021,0.0089603,1581,428,2.50997,6.90626
364,596,2.49377,-6.74472,-0.000301883,0.000835698,0.00299422,0.00331467,-0.00278085,0.879261,0.00352375,0.00826361,1588,428,2.49376,6.74471
371,596,2.49231,-6.58441,-0.000652306,0.000594749,0.0027789,0.00281921,-0.00287677,0.89576,0.00328864,0.00861331,1595,428,2.49234,6.58441
378,596,2.48901,-6.41949,-0.000990256,0.000352322,0.00250273,0.00227223,-0.00291016,0.916425,0.0029996,0.0127371,1602,428,2.48904,6.41948
385,596,2.49805,-6.24994,-0.00113809,9.54612e-05,0.00243737,0.00199288,-0.00303551,0.909321,0.00292387,0.0228288,1609,428,2.49808,6.24993
392,596,2.48474,-6.12262,-0.000937914,-0.000229804,0.00232883,0.00177173,-0.00293945,0.860836,0.00274771,0.0370662,1616,428,2.48477,6.12263
399,596,2.41321,-5.90707,0,0,0,0,0,0,0,-1,1623,428,2.41317,5.90707
406,596,2.33643,-5.69037,0,0,0,0,0,0,0,-1,1630,428,2.33645,5.69037
413,596,3.39124,-2.63528,0,0,0,0,0,0,0,-1,1637,428,3.39122,2.6353
420,596,2.6344,-3.06308,0,0,0,0,0,0,0,-1,1644,428,2.63439,3.06308
427,596,2.99329,-1.90512,0,0,0,0,0,0,0,-1,1651,428,2.99327,1.90512
434,596,3.80896,-0.253998,0,0,0,0,0,0,0,-1,1658,428,3.80902,0.254004
441,596,3.86401,-0.131622,0,0,0,0,0,0,0,-1,1665,428,3.86406,0.131613
448,596,1.0769,0.0083313,0,0,0,0,0,0,0,-1,1672,428,1.07684,-0.00832231
455,596,2.00769,-1.43329,0,0,0,0,0,0,0,-1,1679,428,2.00765,1.4333
462,596,0,0,0,0,0,0,0,0,0,-1,1686,428,0,0
469,596,0,0,0,0,0,0,0,0,0,-1,1693,428,0,0
476,596,0,0,0,0,0,0,0,0,0,-1,1700,428,0,0
483,596,0,0,0,0,0,0,0,0,0,-1,1707,428,0,0
490,596,0,0,0,0,0,0,0,0,0,-1,1714,428,0,0
497,596,0,0,0,0,0,0,0,0,0,-1,1721,428,0,0
504,596,0,0,0,0,0,0,0,0,0,-1,1728,428,0,0
511,596,0,0,0,0,0,0,0,0,0,-1,1735,428,0,0
518,596,0,0,0,0,0,0,0,0,0,-1,1742,428,0,0
525,596,0,0,0,0,0,0,0,0,0,-1,1749,428,0,0
532,596,0,0,0,0,0,0,0,0,0,-1,1756,428,0,0
539,596,0,0,0,0,0,0,0,0,0,-1,1763,428,0,0
546,596,0,0,0,0,0,0,0,0,0,-1,1770,428,0,0
553,596,0,0,0,0,0,0,0,0,0,-1,1777,428,0,0
560,596,0,0,0,0,0,0,0,0,0,-1,1784,428,0,0
567,596,0,0,0,0,0,0,0,0,0,-1,1791,428,0,0
574,596,0,0,0,0,0,0,0,0,0,-1,1798,428,0,0
581,596,0,0,0,0,0,0,0,0,0,-1,1805,428,0,0
588,596,0,0,0,0,0,0,0,0,0,-1,1812,428,0,0
595,596,0,0,0,0,0,0,0,0,0,-1,1819,428,0,0
602,596,0,0,0,0,0,0,0,0,0,-1,1826,428,0,0
609,596,0,0,0,0,0,0,0,0,0,-1,1833,428,0,0
616,596,0,0,0,0,0,0,0,0,0,-1,1840,428,0,0
623,596,0,0,0,0,0,0,0,0,0,-1,1847,428,0,0
630,596,0,0,0,0,0,0,0,0,0,-1,1854,428,0,0
637,596,0,0,0,0,0,0,0,0,0,-1,1861,428,0,0
644,596,0,0,0,0,0,0,0,0,0,-1,1868,428,0,0
651,596,0,0,0,0,0,0,0,0,0,-1,1875,428,0,0
658,596,0,0,0,0,0,0,0,0,0,-1,1882,428,0,0
665,596,0,0,0,0,0,0,0,0,0,-1,1889,428,0,0
672,596,0,0,0,0,0,0,0,0,0,-1,1896,428,0,0
679,596,0,0,0,0,0,0,0,0,0,-1,1903,428,0,0
686,596,0,0,0,0,0,0,0,0,0,-1,1910,428,0,0
693,596,0,0,0,0,0,0,0,0,0,-1,1917,428,0,0
700,596,0,0,0,0,0,0,0,0,0,-1,1924,428,0,0
707,596,0,0,0,0,0,0,0,0,0,-1,1931,428,0,0
714,596,0,0,0,0,0,0,0,0,0,-1,1938,428,0,0
721,596,0,0,0,0,0,0,0,0,0,-1,1945,428,0,0
728,596,0,0,0,0,0,0,0,0,0,-1,1952,428,0,0
735,596,0,0,0,0,0,0,0,0,0,-1,1959,428,0,0
742,596,0,0,0,0,0,0,0,0,0,-1,1966,428,0,0
749,596,0,0,0,0,0,0,0,0,0,-1,1973,428,0,0
756,596,0,0,0,0,0,0,0,0,0,-1,1980,428,0,0
763,596,0,0,0,0,0,0,0,0,0,-1,1987,428,0,0
770,596,0,0,0,0,0,0,0,0,0,-1,1994,428,0,0
777,596,0,0,0,0,0,0,0,0,0,-1,2001,428,0,0
784,596,0,0,0,0,0,0,0,0,0,-1,2008,428,0,0
791,596,0,0,0,0,0,0,0,0,0,-1,2015,428,0,0
798,596,0,0,0,0,0,0,0,0,0,-1,2022,428,0,0
805,596,0,0,0,0,0,0,0,0,0,-1,2029,428,0,0
812,596,0,0,0,0,0,0,0,0,0,-1,2036,428,0,0
-700,589,0,0,0,0,0,0,0,0,0,-1,524,435,0,0
-693,589,0,0,0,0,0,0,0,0,0,-1,531,435,0,0
-686,589,0,0,0,0,0,0,0,0,0,-1,538,435,0,0
-679,589,0,0,0,0,0,0,0,0,0,-1,545,435,0,0
-672,589,0,0,0,0,0,0,0,0,0,-1,552,435,0,0
-665,589,0,0,0,0,0,0,0,0,0,-1,559,435,0,0
-658,589,0,0,0,0,0,0,0,0,0,-1,566,435,0,0
-651,589,0,0,0,0,0,0,0,0,0,-1,573,435,0,0
-644,589,0,0,0,0,0,0,0,0,0,-1,580,435,0,0
-637,589,0,0,0,0,0,0,0,0,0,-1,587,435,0,0
-630,589,0,0,0,0,0,0,0,0,0,-1,594,435,0,0
-623,589,0,0,0,0,0,0,0,0,0,-1,601,435,0,0
-616,589,0,0,0,0,0,0,0,0,0,-1,608,435,0,0
-609,589,0,0,0,0,0,0,0,0,0,-1,615,435,0,0
-602,589,0,0,0,0,0,0,0,0,0,-1,622,435,0,0
-595,589,0,0,0,0,0,0,0,0,0,-1,629,435,0,0
-588,589,0,0,0,0,0,0,0,0,0,-1,636,435,0,0
-581,589,0,0,0,0,0,0,0,0,0,-1,643,435,0,0
-574,589,0,0,0,0,0,0,0,0,0,-1,650,435,0,0
-567,589,0,0,0,0,0,0,0,0,0,-1,657,435,0,0
-560,589,0,0,0,0,0,0,0,0,0,-1,664,435,0,0
-553,589,0,0,0,0,0,0,0,0,0,-1,671,435,0,0
-546,589,0,0,0,0,0,0,0,0,0,-1,678,435,0,0
-539,589,0,0,0,0,0,0,0,0,0,-1,685,435,0,0
-532,589,0,0,0,0,0,0,0,0,0,-1,692,435,0,0
-525,589,0,0,0,0,0,0,0,0,0,-1,699,435,0,0
-518,589,0,0,0,0,0,0,0,0,0,-1,706,435,0,0
-511,589,0,0,0,0,0,0,0,0,0,-1,713,435,0,0
-504,589,0,0,0,0,0,0,0,0,0,-1,720,435,0,0
-497,589,0,0,0,0,0,0,0,0,0,-1,727,435,0,0
-490,589,0,0,0,0,0,0,0,0,0,-1,734,435,0,0
-483,589,0,0,0,0,0,0,0,0,0,-1,741,435,0,0
-476,589,0,0,0,0,0,0,0,0,0,-1,748,435,0,0
-469,589,0,0,0,0,0,0,0,0,0,-1,755,435,0,0
-462,589,0,0,0,0,0,0,0,0,0,-1,762,435,0,0
-455,589,0,0,0,0,0,0,0,0,0,-1,769,435,0,0
-448,589,0,0,0,0,0,0,0,0,0,-1,776,435,0,0
-441,589,0,0,0,0,0,0,0,0,0,-1,783,435,0,0
-434,589,0,0,0,0,0,0,0,0,0,-1,790,435,0,0
-427,589,0,0,0,0,0,0,0,0,0,-1,797,435,0,0
-420,589,0,0,0,0,0,0,0,0,0,-1,804,435,0,0
-413,589,0,0,0,0,0,0,0,0,0,-1,811,435,0,0
-406,589,0,0,0,0,0,0,0,0,0,-1,818,435,0,0
-399,589,0,0,0,0,0,0,0,0,0,-1,825,435,0,0
-392,589,0,0,0,0,0,0,0,0,0,-1,832,435,0,0
-385,589,0,0,0,0,0,0,0,0,0,-1,839,435,0,0
-378,589,0,0,0,0,0,0,0,0,0,-1,846,435,0,0
-371,589,0,0,0,0,0,0,0,0,0,-1,853,435,0,0
-364,589,0,0,0,0,0,0,0,0,0,-1,860,435,0,0
-357,589,0,0,0,0,0,0,0,0,0,-1,867,435,0,0
-350,589,-0.262695,-13.5742,0,0,0,0,0,0,0,-1,874,435,-0.262715,13.5742
-343,589,0.187195,-13.2853,0,0,0,0,0,0,0,-1,881,435,0.187181,13.2853
-336,589,0.677856,-12.7685,0,0,0,0,0,0,0,-1,888,435,0.677838,12.7685
-329,589,-0.00494385,-7.86029,0,0,0,0,0,0,0,-1,895,435,-0.00491452,7.86029
-322,589,0.172058,-7.71149,0.0367185,-0.0465306,-0.000254509,0.0367192,-0.0465314,-0.00305716,0.0481759,0.044882,902,435,0.172085,7.71148
-315,589,0.397644,-7.47495,0.0282577,-0.0433074,0.0014844,0.0282885,-0.0433381,0.0207301,0.0416568,0.0482537,909,435,0.397614,7.47493
-308,589,0.874634,-7.10126,0,0,0,0,0,0,0,-1,916,435,0.874652,7.10125
-301,589,1.50531,-6.33145,0,0,0,0,0,0,0,-1,923,435,1.50532,6.33144
-294,589,1.47919,-6.4556,0.00777691,-0.0290056,0.00342068,0.00809232,-0.029321,0.0919468,0.0227301,0.0444485,930,435,1.47919,6.45561
-287,589,1.42291,-6.59183,0.00291335,-0.0244667,0.00314342,0.0032696,-0.0248229,0.112851,0.0177392,0.0409232,937,435,1.42294,6.59183
-280,589,1.47803,-6.77176,-0.000803624,-0.0200891,0.00275937,-0.000416578,-0.0204761,0.139356,0.013514,0.0321613,944,435,1.47805,6.77176
-273,589,1.52484,-6.9837,-0.00359677,-0.0156694,0.00337003,-0.00271975,-0.0165464,0.254593,0.0102454,0.0200112,951,435,1.52481,6.98369
-266,589,1.48761,-7.1438,-0.00542596,-0.01142,0.00205523,-0.00478895,-0.012057,0.300553,0.00700997,0.0175238,958,435,1.48761,7.14381
-259,589,1.46503,-7.26959,-0.00665042,-0.00817324,0.000904047,-0.00622986,-0.0085938,0.435417,0.00512624,0.01555,965,435,1.46504,7.26958
-252,589,1.48401,-7.41531,-0.00604672,-0.00591691,0.000641909,-0.00533664,-0.006627,0.835783,0.00405687,0.0102587,972,435,1.484,7.41532
-245,589,1.48749,-7.54062,-0.00482271,-0.00393977,0.000283512,-0.00385657,-0.00490591,1.28536,0.002983,0.0100393,979,435,1.48748,7.54063
-238,589,1.47852,-7.68475,-0.00343403,-0.0020941,-4.38946e-06,-0.00209409,-0.00343405,-1.56752,0.00199852,0.0132016,986,435,1.47853,7.68476
-231,589,1.47339,-7.80167,-0.00222846,-0.000678752,-0.000244605,-0.00064106,-0.00226615,-1.41791,0.00134885,0.0141731,993,435,1.4734,7.80166
-224,589,1.46326,-7.94409,-0.00121986,0.00029737,-0.000388937,0.000391262,-0.00131375,-1.33392,0.0010313,0.0143026,1000,435,1.46326,7.94408
-217,589,1.47144,-8.08685,-2.22189e-05,0.00147334,-0.000776895,0.00180386,-0.000352744,-1.16855,0.00133577,0.0153957,1007,435,1.47143,8.08685
-210,589,1.46838,-8.18863,0.00090197,0.00191546,-0.000899658,0.00244127,0.000376157,-1.04188,0.00151775,0.0137434,1014,435,1.46841,8.18864
-203,589,1.44983,-8.28415,0.00119047,0.00194388,-0.000707193,0.00236844,0.000765909,-1.03012,0.00139557,0.010165,1021,435,1.44985,8.28414
-196,589,1.45105,-8.39984,0.00123897,0.00168058,-0.000533745,0.00203739,0.000882162,-0.981525,0.00117981,0.0126197,1028,435,1.45108,8.39984
-189,589,1.45068,-8.55225,0.00142809,0.00125243,-0.000446539,0.00179536,0.000885165,-0.688288,0.00103658,0.0160344,1035,435,1.45064,8.55223
-182,589,1.45337,-8.62399,0.00168826,0.000706071,-0.000312789,0.00177941,0.000614919,-0.283564,0.00104355,0.0126023,1042,435,1.45339,8.624
-175,589,1.46143,-8.71661,0.00205082,0.000354792,-0.000480234,0.00217736,0.000228254,-0.257637,0.00138179,0.0152972,1049,435,1.46137,8.71662
-168,589,1.48218,-8.83093,0.00249342,0.000223362,-0.00102375,0.0028869,-0.000170121,-0.366947,0.00198374,0.0124508,1056,435,1.48221,8.83094
-161,589,1.47046,-8.9382,0.00287157,3.40735e-05,-0.00153334,0.00354183,-0.000636189,-0.412097,0.00259937,0.0114985,1063,435,1.47043,8.93819
-154,589,1.46948,-9.04166,0.00332473,0.000127963,-0.0021729,0.00442381,-0.000971124,-0.468289,0.00332059,0.011991,1070,435,1.46943,9.04166
-147,589,1.49341,-9.1257,0.00380892,0.00029689,-0.00282364,0.00537804,-0.00127223,-0.507216,0.00407616,0.011625,1077,435,1.49344,9.1257
-140,589,1.50464,-9.19882,0.00431873,0.000419152,-0.00374561,0.00659165,-0.00185377,-0.545421,0.00512535,0.012025,1084,435,1.50464,9.19882
-133,589,1.50037,-9.29001,0.0047471,0.000776635,-0.0047201,0.00788247,-0.00235873,-0.586333,0.00619281,0.0128774,1091,435,1.50035,9.29
-126,589,1.50598,-9.3786,0.00514909,0.0013805,-0.00568753,0.00925633,-0.00272675,-0.625437,0.00725272,0.0103094,1098,435,1.50593,9.37859
-119,589,1.52917,-9.46259,0.00543563,0.00214861,-0.00657574,0.0105701,-0.0029859,-0.662939,0.00822475,0.0162763,1105,435,1.52914,9.46257
-112,589,1.50171,-9.55042,0.00561759,0.00301074,-0.00725797,0.0116882,-0.00305991,-0.696553,0.00898747,0.0168167,1112,435,1.50177,9.55042
-105,589,1.5011,-9.63763,0.00563957,0.00394611,-0.00788936,0.0127275,-0.00314183,-0.73194,0.00970334,0.0163679,1119,435,1.50105,9.63764
-98,589,1.58557,-9.6745,0.00552452,0.00491666,-0.00833259,0.0135587,-0.00311754,-0.767169,0.0102378,0.0177242,1126,435,1.58563,9.6745
-91,589,1.67004,-9.71664,0.00534284,0.0058289,-0.00811889,0.0137084,-0.00253666,-0.800361,0.0100913,0.0231595,1133,435,1.67,9.71665
-84,589,1.68713,-9.89294,0.00490174,0.00663668,-0.00754988,0.0133688,-0.00183034,-0.842597,0.00958108,0.0320722,1140,435,1.68707,9.89293
-77,589,1.64685,-10.017,0,0,0,0,0,0,0,-1,1147,435,1.64684,10.017
-70,589,1.48267,-9.90961,0,0,0,0,0,0,0,-1,1154,435,1.48264,9.9096
-63,589,0.880127,-5.50586,0,0,0,0,0,0,0,-1,1161,435,0.880186,5.50587
-56,589,-2.78052,-7.28082,0,0,0,0,0,0,0,-1,1168,435,-2.78053,7.28082
-49,589,-0.525757,-2.76703,0,0,0,0,0,0,0,-1,1175,435,-0.525771,2.76702
-42,589,-2.7738,-2.87921,0,0,0,0,0,0,0,-1,1182,435,-2.77383,2.87922
-35,589,-2.55225,-3.27551,0,0,0,0,0,0,0,-1,1189,435,-2.55223,3.27552
-28,589,-0.0632324,-3.42938,0,0,0,0,0,0,0,-1,1196,435,-0.063241,3.42938
-21,589,1.45349,-10.0402,0,0,0,0,0,0,0,-1,1203,435,1.45354,10.0402
-14,589,1.42126,-10.1379,0,0,0,0,0,0,0,-1,1210,435,1.42132,10.1379
-7,589,2.20007,-10.4045,0,0,0,0,0,0,0,-1,1217,435,2.20011,10.4045
0,589,2.92578,-9.96768,0,0,0,0,0,0,0,-1,1224,435,2.92578,9.96768
7,589,2.65881,-9.88251,0,0,0,0,0,0,0,-1,1231,435,2.65876,9.88251
14,589,2.44629,-9.2886,-0.0174205,-0.0129746,-0.00234471,-0.0119666,-0.0184286,-1.16477,0.0107968,0.0467991,1238,435,2.44627,9.2886
21,589,1.99268,-9.90411,-0.0084074,-0.00744506,-0.00649681,-0.00141163,-0.0144408,-0.822362,0.00919288,0.0472914,1245,435,1.99263,9.90413
28,589,2.20789,-10.1125,0.000749345,-0.000836917,-0.0104163,0.0104026,-0.0104902,-0.7474,0.0120625,0.0471124,1252,435,2.20794,10.1125
35,589,2.70435,-10.4962,0,0,0,0,0,0,0,-1,1259,435,2.70434,10.4962
42,589,2.45349,-10.4089,0,0,0,0,0,0,0,-1,1266,435,2.45351,10.4089
49,589,2.46118,-10.7496,0,0,0,0,0,0,0,-1,1273,435,2.4612,10.7496
56,589,2.40735,-10.3127,0.0160845,0.0289859,-0.0187646,0.0423776,0.00269275,-0.950955,0.0273983,0.0453085,1280,435,2.40729,10.3127
63,589,2.49976,-9.75034,0.0154843,0.0330604,-0.0178624,0.0441795,0.00436521,-1.01401,0.0281111,0.0433715,1287,435,2.49971,9.75034
70,589,2.71216,-8.83618,0,0,0,0,0,0,0,-1,1294,435,2.71214,8.83617
77,589,4.25769,-11.1061,0.00789852,0.0341843,-0.0111093,0.0382504,0.00383236,-1.21993,0.0243237,0.0435857,1301,435,4.2577,11.1061
84,589,5.29407,-12.0727,0.00127295,0.0309591,-0.00574131,0.0320307,0.000201264,-1.38626,0.0212871,0.0407054,1308,435,5.29405,12.0727
91,589,6.45581,-12.645,-0.00500232,0.0285487,7.63762e-05,0.0285489,-0.00500249,1.56852,0.0209006,0.0409666,1315,435,6.45582,12.645
98,589,7.33228,-13.0943,-0.0103737,0.0270196,0.0063651,0.0280734,-0.0114274,1.40673,0.0234711,0.044201,1322,435,7.33229,13.0943
105,589,2.00916,-10.5382,-0.0147356,0.0255343,0.0123908,0.0290414,-0.0182427,1.29497,0.0275358,0.0445385,1329,435,2.00916,10.5382
112,589,2.65466,-10.2488,-0.0182276,0.0247755,0.0177998,0.0311872,-0.0246393,1.22505,0.0323053,0.0433514,1336,435,2.65463,10.2488
119,589,2.70935,-10.2799,-0.0201795,0.0239133,0.0235512,0.0341268,-0.030393,1.1616,0.0372714,0.0447483,1343,435,2.70936,10.2799
126,589,2.76416,-10.2817,0,0,0,0,0,0,0,-1,1350,435,2.7641,10.2817
133,589,1.75684,-11.0425,-0.0196157,0.0333517,0.0287755,0.0459758,-0.0322397,1.15737,0.0453893,0.0480418,1357,435,1.75683,11.0425
140,589,1.89966,-11.1882,-0.0187619,0.0408576,0.0295449,0.0530183,-0.0309226,1.18033,0.0490198,0.0469805,1364,435,1.89968,11.1882
147,589,2.09229,-10.9803,-0.0174399,0.0492587,0.0290461,0.0601344,-0.0283157,1.21253,0.0521565,0.0454643,1371,435,2.09224,10.9804
154,589,2.20679,-10.6994,-0.016809,0.0564416,0.0276964,0.0657348,-0.0261021,1.24706,0.0546431,0.045195,1378,435,2.20677,10.6994
161,589,2.55896,-10.6073,-0.0174141,0.0602167,0.026355,0.0683185,-0.0255159,1.27256,0.0560226,0.0456745,1385,435,2.55895,10.6073
168,589,3.20996,-10.5303,0,0,0,0,0,0,0,-1,1392,435,3.20993,10.5303
175,589,8.66992,-7.65527,0,0,0,0,0,0,0,-1,1399,435,8.66994,7.65528
182,589,3.8136,-2.45389,0,0,0,0,0,0,0,-1,1406,435,3.81363,2.4539
189,589,3.69983,-3.68149,0,0,0,0,0,0,0,-1,1413,435,3.69987,3.68147
196,589,3.31055,-5.31677,0,0,0,0,0,0,0,-1,1420,435,3.31059,5.31678
203,589,2.72559,-8.84338,0,0,0,0,0,0,0,-1,1427,435,2.72558,8.84338
210,589,2.46277,-9.38638,0,0,0,0,0,0,0,-1,1434,435,2.46281,9.38637
217,589,2.5022,-9.27438,0.00176238,0.000872429,-0.000993513,0.00240601,0.000228794,-0.574854,0.00153344,0.0279168,1441,435,2.50225,9.27437
224,589,2.53699,-9.17957,0.00160368,0.00135634,-0.000758093,0.00224813,0.000711898,-0.704543,0.00132672,0.0230123,1448,435,2.53699,9.17956
231,589,2.54968,-9.12433,0.00149505,0.00165662,-0.000592377,0.0021737,0.000977977,-0.853166,0.00125708,0.0188714,1455,435,2.54972,9.12434
238,589,2.5675,-9.04938,0.00144028,0.00175553,-0.000524319,0.0021454,0.0010504,-0.931414,0.00123874,0.0216558,1462,435,2.56751,9.04939
245,589,2.5531,-8.8725,0.00136267,0.00167913,-0.000647246,0.00218721,0.000854593,-0.905281,0.0012728,0.0191897,1469,435,2.55313,8.8725
252,589,2.57922,-8.76602,0.00116151,0.00157905,-0.000793627,0.0021909,0.00054965,-0.914014,0.00131621,0.0126924,1476,435,2.57923,8.76603
259,589,2.60522,-8.6814,0.000839844,0.00132722,-0.000927796,0.0020428,0.000124266,-0.913824,0.00132239,0.00892304,1483,435,2.60525,8.6814
266,589,2.61389,-8.56888,0.000617468,0.00101298,-0.00105869,0.00189223,-0.00026178,-0.877731,0.00135719,0.00904115,1490,435,2.61385,8.56888
273,589,2.62146,-8.47604,0.000425099,0.000710389,-0.00117409,0.00175046,-0.000614976,-0.845849,0.00141717,0.0117055,1497,435,2.62143,8.47606
280,589,2.62476,-8.36874,0.000360616,0.000355594,-0.00111736,0.00147547,-0.000759255,-0.784274,0.00131212,0.0125475,1504,435,2.62475,8.36874
287,589,2.63354,-8.26465,0.000359069,0.000126924,-0.000934285,0.00118446,-0.000698471,-0.723596,0.00109912,0.0114828,1511,435,2.63353,8.26465
294,589,2.63477,-8.13037,0.000397441,3.53536e-06,-0.000686779,0.00091495,-0.000513974,-0.645757,0.000835747,0.0104474,1518,435,2.63479,8.13037
301,589,2.62842,-7.99597,0.000432761,-0.000228629,-0.000469951,0.000676708,-0.000472576,-0.478802,0.000667019,0.0104202,1525,435,2.62836,7.99598
308,589,2.63171,-7.86649,0.000521833,-0.00023217,-0.00011145,0.000537961,-0.000248299,-0.143718,0.000464102,0.00994145,1532,435,2.63167,7.8665
315,589,2.63672,-7.74231,0.00059321,-0.000230596,0.000258009,0.000667345,-0.000304731,0.279797,0.000574097,0.0105809,1539,435,2.63669,7.74232
322,589,2.64978,-7.62009,0.000640489,-0.000144941,0.00064313,0.00100133,-0.000505778,0.511298,0.000885668,0.0110189,1546,435,2.64983,7.62008
329,589,2.64478,-7.48077,0.000636448,-7.93382e-05,0.000990557,0.00133178,-0.000774674,0.612043,0.00123026,0.00967456,1553,435,2.64473,7.48076
336,589,2.6366,-7.34247,0.000574645,1.33899e-05,0.00129037,0.00161455,-0.00102652,0.678326,0.00153737,0.00926704,1560,435,2.63664,7.34247
343,589,2.63611,-7.20905,0.00046273,9.15344e-05,0.00153614,0.00182444,-0.00127017,0.725279,0.0017962,0.0105525,1567,435,2.63608,7.20904
350,589,2.64075,-7.08212,0.000299234,0.000221922,0.00176693,0.00202793,-0.00150678,0.774461,0.00204815,0.0160091,1574,435,2.64073,7.08212
357,589,2.63232,-6.91257,6.48584e-05,0.000405302,0.00195119,0.00219369,-0.00172352,0.828908,0.00226703,0.0131845,1581,435,2.63231,6.91257
364,589,2.63416,-6.74005,-0.000209442,0.000622227,0.00201725,0.00226605,-0.00185327,0.887044,0.00238227,0.0106724,1588,435,2.63421,6.74004
371,589,2.65381,-6.57996,-0.000412742,0.000542356,0.00199649,0.00211762,-0.00198801,0.902789,0.00237078,0.0109619,1595,435,2.6538,6.57997
378,589,2.63928,-6.43185,-0.000611365,0.000439122,0.00196155,0.00194453,-0.00211678,0.916214,0.0023455,0.0119738,1602,435,2.63924,6.43185
385,589,2.62891,-6.27679,-0.000697683,0.000266865,0.00194865,0.00179203,-0.00222285,0.906706,0.00232244,0.0148381,1609,435,2.62887,6.27679
392,589,2.62305,-6.10852,-0.000476996,1.01617e-05,0.00190026,0.00168239,-0.00214922,0.849142,0.00221765,0.0162165,1616,435,2.62306,6.10851
399,589,2.5957,-5.91907,0.000180419,-0.000342808,0.00216505,0.0020996,-0.00226199,0.725272,0.00251875,0.0217281,1623,435,2.59564,5.91908
406,589,2.5282,-5.70908,0.00078877,-0.000883466,0.00234643,0.0024436,-0.00253829,0.614244,0.00287647,0.0489743,1630,435,2.52818,5.70907
413,589,2.50354,-5.45001,0,0,0,0,0,0,0,-1,1637,435,2.50354,5.45001
420,589,2.74084,-5.74466,0,0,0,0,0,0,0,-1,1644,435,2.74081,5.74467
427,589,2.90198,-5.30594,0,0,0,0,0,0,0,-1,1651,435,2.90193,5.30593
434,589,2.52734,-2.73029,0,0,0,0,0,0,0,-1,1658,435,2.52736,2.73029
441,589,3.17639,-2.02435,0,0,0,0,0,0,0,-1,1665,435,3.17643,2.02435
448,589,0.453735,-3.2868,0,0,0,0,0,0,0,-1,1672,435,0.453701,3.28681
455,589,0.664307,-3.46848,0,0,0,0,0,0,0,-1,1679,435,0.66425,3.46846
462,589,2.39038,-3.22766,0,0,0,0,0,0,0,-1,1686,435,2.39041,3.22766
469,589,2.34412,-4.82892,0,0,0,0,0,0,0,-1,1693,435,2.34413,4.82892
476,589,0,0,0,0,0,0,0,0,0,-1,1700,435,0,0
483,589,0,0,0,0,0,0,0,0,0,-1,1707,435,0,0
490,589,0,0,0,0,0,0,0,0,0,-1,1714,435,0,0
497,589,0,0,0,0,0,0,0,0,0,-1,1721,435,0,0
504,589,0,0,0,0,0,0,0,0,0,-1,1728,435,0,0
511,589,0,0,0,0,0,0,0,0,0,-1,1735,435,0,0
518,589,0,0,0,0,0,0,0,0,0,-1,1742,435,0,0
525,589,0,0,0,0,0,0,0,0,0,-1,1749,435,0,0
532,589,0,0,0,0,0,0,0,0,0,-1,1756,435,0,0
539,589,0,0,0,0,0,0,0,0,0,-1,1763,435,0,0
546,589,0,0,0,0,0,0,0,0,0,-1,1770,435,0,0
553,589,0,0,0,0,0,0,0,0,0,-1,1777,435,0,0
560,589,0,0,0,0,0,0,0,0,0,-1,1784,435,0,0
567,589,0,0,0,0,0,0,0,0,0,-1,1791,435,0,0
574,589,0,0,0,0,0,0,0,0,0,-1,1798,435,0,0
581,589,0,0,0,0,0,0,0,0,0,-1,1805,435,0,0
588,589,0,0,0,0,0,0,0,0,0,-1,1812,435,0,0
595,589,0,0,0,0,0,0,0,0,0,-1,1819,435,0,0
602,589,0,0,0,0,0,0,0,0,0,-1,1826,435,0,0
609,589,0,0,0,0,0,0,0,0,0,-1,1833,435,0,0
616,589,0,0,0,0,0,0,0,0,0,-1,1840,435,0,0
623,589,0,0,0,0,0,0,0,0,0,-1,1847,435,0,0
630,589,0,0,0,0,0,0,0,0,0,-1,1854,435,0,0
637,589,0,0,0,0,0,0,0,0,0,-1,1861,435,0,0
644,589,0,0,0,0,0,0,0,0,0,-1,1868,435,0,0
651,589,0,0,0,0,0,0,0,0,0,-1,1875,435,0,0
658,589,0,0,0,0,0,0,0,0,0,-1,1882,435,0,0
665,589,0,0,0,0,0,0,0,0,0,-1,1889,435,0,0
672,589,0,0,0,0,0,0,0,0,0,-1,1896,435,0,0
679,589,0,0,0,0,0,0,0,0,0,-1,1903,435,0,0
686,589,0,0,0,0,0,0,0,0,0,-1,1910,435,0,0
693,589,0,0,0,0,0,0,0,0,0,-1,1917,435,0,0
700,589,0,0,0,0,0,0,0,0,0,-1,1924,435,0,0
707,589,0,0,0,0,0,0,0,0,0,-1,1931,435,0,0
714,589,0,0,0,0,0,0,0,0,0,-1,1938,435,0,0
721,589,0,0,0,0,0,0,0,0,0,-1,1945,435,0,0
728,589,0,0,0,0,0,0,0,0,0,-1,1952,435,0,0
735,589,0,0,0,0,0,0,0,0,0,-1,1959,435,0,0
742,589,0,0,0,0,0,0,0,0,0,-1,1966,435,0,0
749,589,0,0,0,0,0,0,0,0,0,-1,1973,435,0,0
756,589,0,0,0,0,0,0,0,0,0,-1,1980,435,0,0
763,589,0,0,0,0,0,0,0,0,0,-1,1987,435,0,0
770,589,0,0,0,0,0,0,0,0,0,-1,1994,435,0,0
777,589,0,0,0,0,0,0,0,0,0,-1,2001,435,0,0
784,589,0,0,0,0,0,0,0,0,0,-1,2008,435,0,0
791,589,0,0,0,0,0,0,0,0,0,-1,2015,435,0,0
798,589,0,0,0,0,0,0,0,0,0,-1,2022,435,0,0
805,589,0,0,0,0,0,0,0,0,0,-1,2029,435,0,0
812,589,0,0,0,0,0,0,0,0,0,-1,2036,435,0,0
-700,582,0,0,0,0,0,0,0,0,0,-1,524,442,0,0
-693,582,0,0,0,0,0,0,0,0,0,-1,531,442,0,0
-686,582,0,0,0,0,0,0,0,0,0,-1,538,442,0,0
-679,582,0,0,0,0,0,0,0,0,0,-1,545,442,0,0
-672,582,0,0,0,0,0,0,0,0,0,-1,552,442,0,0
-665,582,0,0,0,0,0,0,0,0,0,-1,559,442,0,0
-658,582,0,0,0,0,0,0,0,0,0,-1,566,442,0,0
-651,582,0,0,0,0,0,0,0,0,0,-1,573,442,0,0
-644,582,0,0,0,0,0,0,0,0,0,-1,580,442,0,0
-637,582,0,0,0,0,0,0,0,0,0,-1,587,442,0,0
-630,582,0,0,0,0,0,0,0,0,0,-1,594,442,0,0
-623,582,0,0,0,0,0,0,0,0,0,-1,601,442,0,0
-616,582,0,0,0,0,0,0,0,0,0,-1,608,442,0,0
-609,582,0,0,0,0,0,0,0,0,0,-1,615,442,0,0
-602,582,0,0,0,0,0,0,0,0,0,-1,622,442,0,0
-595,582,0,0,0,0,0,0,0,0,0,-1,629,442,0,0
-588,582,0,0,0,0,0,0,0,0,0,-1,636,442,0,0
-581,582,0,0,0,0,0,0,0,0,0,-1,643,442,0,0
-574,582,0,0,0,0,0,0,0,0,0,-1,650,442,0,0
-567,582,0,0,0,0,0,0,0,0,0,-1,657,442,0,0
-560,582,0,0,0,0,0,0,0,0,0,-1,664,442,0,0
-553,582,0,0,0,0,0,0,0,0,0,-1,671,442,0,0
-546,582,0,0,0,0,0,0,0,0,0,-1,678,442,0,0
-539,582,0,0,0,0,0,0,0,0,0,-1,685,442,0,0
-532,582,0,0,0,0,0,0,0,0,0,-1,692,442,0,0
-525,582,0,0,0,0,0,0,0,0,0,-1,699,442,0,0
-518,582,0,0,0,0,0,0,0,0,0,-1,706,442,0,0
-511,582,0,0,0,0,0,0,0,0,0,-1,713,442,0,0
-504,582,0,0,0,0,0,0,0,0,0,-1,720,442,0,0
-497,582,0,0,0,0,0,0,0,0,0,-1,727,442,0,0
-490,582,0,0,0,0,0,0,0,0,0,-1,734,442,0,0
-483,582,0,0,0,0,0,0,0,0,0,-1,741,442,0,0
-476,582,0,0,0,0,0,0,0,0,0,-1,748,442,0,0
-469,582,0,0,0,0,0,0,0,0,0,-1,755,442,0,0
-462,582,0,0,0,0,0,0,0,0,0,-1,762,442,0,0
-455,582,0,0,0,0,0,0,0,0,0,-1,769,442,0,0
-448,582,0,0,0,0,0,0,0,0,0,-1,776,442,0,0
-441,582,0,0,0,0,0,0,0,0,0,-1,783,442,0,0
-434,582,0,0,0,0,0,0,0,0,0,-1,790,442,0,0
-427,582,0,0,0,0,0,0,0,0,0,-1,797,442,0,0
-420,582,0,0,0,0,0,0,0,0,0,-1,804,442,0,0
-413,582,0,0,0,0,0,0,0,0,0,-1,811,442,0,0
-406,582,0,0,0,0,0,0,0,0,0,-1,818,442,0,0
-399,582,0,0,0,0,0,0,0,0,0,-1,825,442,0,0
-392,582,0,0,0,0,0,0,0,0,0,-1,832,442,0,0
-385,582,0,0,0,0,0,0,0,0,0,-1,839,442,0,0
-378,582,0,0,0,0,0,0,0,0,0,-1,846,442,0,0
-371,582,0,0,0,0,0,0,0,0,0,-1,853,442,0,0
-364,582,0,0,0,0,0,0,0,0,0,-1,860,442,0,0
-357,582,6.4043,-4.18127,0,0,0,0,0,0,0,-1,867,442,6.40427,4.18126
-350,582,-1.12933,-15.713,0,0,0,0,0,0,0,-1,874,442,-1.12935,15.713
-343,582,-0.551086,-15.4312,0,0,0,0,0,0,0,-1,881,442,-0.5511,15.4311
-336,582,0.0556641,-4.78558,0,0,0,0,0,0,0,-1,888,442,0.0556634,4.78559
-329,582,0.043396,-7.00452,0,0,0,0,0,0,0,-1,895,442,0.0433981,7.00451
-322,582,-0.781799,-6.76062,0,0,0,0,0,0,0,-1,902,442,-0.78177,6.76063
-315,582,-0.0427856,-6.69257,0.0227099,-0.0337534,-0.000551746,0.0227153,-0.0337588,-0.00977052,0.0328125,0.0456653,909,442,-0.0427683,6.69257
-308,582,0.764404,-6.62332,0.0171087,-0.0300207,0.000326953,0.017111,-0.030023,0.00693689,0.0275511,0.045457,916,442,0.764383,6.62331
-301,582,1.41205,-6.35788,0.0122956,-0.0255717,0.000823165,0.0123135,-0.0255896,0.0217244,0.0223264,0.0427026,923,442,1.41202,6.35789
-294,582,1.32513,-6.43237,0.00776254,-0.0211981,0.00115495,0.00780852,-0.021244,0.0397958,0.0173611,0.039779,930,442,1.32514,6.43237
-287,582,1.3653,-6.64966,0.00410009,-0.017496,0.00109743,0.00415571,-0.0175516,0.0506423,0.0133045,0.0324409,937,442,1.3653,6.64964
-280,582,1.39978,-6.8205,0.00122009,-0.0139629,0.000946207,0.00127883,-0.0140216,0.0620006,0.00980186,0.0156101,944,442,1.39977,6.82048
-273,582,1.38855,-6.94644,-0.000964944,-0.0103662,0.00154013,-0.000719068,-0.010612,0.158311,0.0068476,0.0107272,951,442,1.38853,6.94643
-266,582,1.36969,-7.10431,-0.00249743,-0.00707916,0.000674242,-0.00240027,-0.00717632,0.143118,0.00421825,0.0101661,958,442,1.36967,7.10431
-259,582,1.35614,-7.2709,-0.00370062,-0.00464654,-5.9331e-05,-0.00369691,-0.00465024,-0.0623973,0.0028363,0.00895052,965,442,1.35613,7.2709
-252,582,1.35193,-7.42062,-0.00355518,-0.00315453,-0.00015966,-0.00309869,-0.00361102,-1.23434,0.00225605,0.00820545,972,442,1.35193,7.42063
-245,582,1.3783,-7.55365,-0.00280034,-0.00191543,-0.00038513,-0.00177129,-0.00294448,-1.21268,0.00171165,0.0113126,979,442,1.37829,7.55365
-238,582,1.37421,-7.66995,-0.0017918,-0.000739877,-0.000550937,-0.000504151,-0.00202752,-1.1665,0.00121889,0.0155384,986,442,1.37421,7.66994
-231,582,1.35364,-7.80252,-0.000924518,0.000153956,-0.000691931,0.000491956,-0.00126252,-1.1164,0.001045,0.0128934,993,442,1.35366,7.80252
-224,582,1.34692,-7.94284,-0.000182164,0.000832111,-0.000809836,0.0012805,-0.000630548,-1.06514,0.00112441,0.0107347,1000,442,1.34694,7.94283
-217,582,1.36395,-8.07758,0.000671557,0.00164836,-0.00110526,0.00236833,-4.8404e-05,-0.993442,0.00159526,0.0125367,1007,442,1.36395,8.07757
-210,582,1.35645,-8.16959,0.00134648,0.00194591,-0.0011311,0.00281633,0.000476054,-0.914911,0.00174071,0.0124553,1014,442,1.35643,8.16958
-203,582,1.34998,-8.28662,0.00162925,0.00202222,-0.000895883,0.00274291,0.000908558,-0.893347,0.00161341,0.0102208,1021,442,1.35,8.28662
-196,582,1.34253,-8.4191,0.00189162,0.00188533,-0.000787691,0.00267617,0.00110078,-0.783401,0.00155317,0.0158476,1028,442,1.34253,8.4191
-189,582,1.33972,-8.54697,0.00239589,0.00155453,-0.000801347,0.00288027,0.00107015,-0.543688,0.00168112,0.0219587,1035,442,1.33974,8.54697
-182,582,1.34082,-8.64825,0.00301385,0.00101197,-0.000857437,0.0033309,0.000694926,-0.354165,0.00202902,0.0153952,1042,442,1.34083,8.64826
-175,582,1.35144,-8.7128,0.00380883,0.000685552,-0.00132762,0.0042969,0.000197483,-0.35229,0.00280109,0.0135767,1049,442,1.35141,8.7128
-168,582,1.36389,-8.82559,0.00474721,0.000649236,-0.00235538,0.00582011,-0.000423665,-0.427427,0.00402873,0.0109024,1056,442,1.36388,8.82559
-161,582,1.36804,-8.93048,0.00558959,0.000359587,-0.00327847,0.00716823,-0.00121905,-0.448752,0.00523272,0.0119463,1063,442,1.36809,8.93048
-154,582,1.37268,-9.02277,0.00649643,0.000370072,-0.004406,0.00879943,-0.00193293,-0.48164,0.00660555,0.0117769,1070,442,1.37263,9.02276
-147,582,1.39099,-9.12082,0.00740069,0.000543421,-0.00555222,0.0104976,-0.00255349,-0.508795,0.0079868,0.0109871,1077,442,1.39096,9.12082
-140,582,1.41272,-9.21039,0.0083023,0.000722448,-0.00705928,0.0125247,-0.00349993,-0.539044,0.00972859,0.011725,1084,442,1.41271,9.21038
-133,582,1.43457,-9.30438,0.00902523,0.00123079,-0.00865795,0.0146227,-0.00436664,-0.573916,0.0114841,0.0146676,1091,442,1.43459,9.30437
-126,582,1.44727,-9.36075,0.00964925,0.00207574,-0.0102183,0.0167599,-0.00503491,-0.607951,0.0131762,0.0128796,1098,442,1.4473,9.36076
-119,582,1.43982,-9.42059,0.0100357,0.00317365,-0.0116447,0.0187443,-0.00553495,-0.642131,0.0146929,0.0164113,1105,442,1.43977,9.4206
-112,582,1.3728,-9.5524,0.0102121,0.00447727,-0.0127832,0.0204456,-0.0057562,-0.675069,0.0159003,0.023434,1112,442,1.37286,9.5524
-105,582,1.35828,-9.66061,0.0101332,0.0059728,-0.0138377,0.0220462,-0.00594015,-0.710792,0.0170265,0.0311301,1119,442,1.35825,9.6606
-98,582,1.50903,-9.79068,0.00988992,0.00759193,-0.0146809,0.0234667,-0.00598484,-0.746345,0.0179747,0.034737,1126,442,1.50907,9.79067
-91,582,1.07922,-10.6771,0,0,0,0,0,0,0,-1,1133,442,1.07923,10.677
-84,582,0.682617,-11.5266,0,0,0,0,0,0,0,-1,1140,442,0.682597,11.5267
-77,582,1.75818,-9.67789,0,0,0,0,0,0,0,-1,1147,442,1.75816,9.67789
-70,582,1.49255,-6.36548,0,0,0,0,0,0,0,-1,1154,442,1.49251,6.36549
-63,582,-4.62915,-4.0347,0,0,0,0,0,0,0,-1,1161,442,-4.6292,4.03471
-56,582,-5.81714,-5.24149,0,0,0,0,0,0,0,-1,1168,442,-5.81718,5.24149
-49,582,-3.88672,-10.1064,0,0,0,0,0,0,0,-1,1175,442,-3.88678,10.1064
-42,582,-0.948975,1.13968,0,0,0,0,0,0,0,-1,1182,442,-0.949003,-1.13969
-35,582,-2.58435,-3.86911,0,0,0,0,0,0,0,-1,1189,442,-2.58437,3.86912
-28,582,-0.825317,-3.45941,0,0,0,0,0,0,0,-1,1196,442,-0.825377,3.45942
-21,582,1.73914,-10.1727,0,0,0,0,0,0,0,-1,1203,442,1.73913,10.1727
-14,582,1.27051,-10.3067,-0.0568968,-0.0167566,0.014859,-0.0118547,-0.0617987,1.25215,0.0378711,0.0467938,1210,442,1.27049,10.3067
-7,582,0.662598,-10.4739,-0.0532525,-0.019989,0.012328,-0.0159182,-0.0573233,1.25186,0.0341687,0.048586,1217,442,0.662642,10.4739
0,582,-0.313843,-10.6824,-0.0466785,-0.0219393,0.00919164,-0.0188981,-0.0497197,1.25127,0.0289795,0.0481623,1224,442,-0.313845,10.6824
7,582,-0.990234,-10.761,-0.0358573,-0.0219567,0.00527356,-0.0201825,-0.0376315,1.24626,0.0217456,0.0482579,1231,442,-0.990192,10.7611
14,582,1.9718,-9.76541,0,0,0,0,0,0,0,-1,1238,442,1.9718,9.76541
21,582,2.01221,-9.84238,0,0,0,0,0,0,0,-1,1245,442,2.01224,9.84238
28,582,2.05273,-9.91934,0,0,0,0,0,0,0,-1,1252,442,2.05268,9.91935
35,582,2.27051,-10.106,0.0105784,0.0109262,-0.0175332,0.0282864,-0.00678177,-0.790357,0.0214781,0.0449728,1259,442,2.27055,10.106
42,582,2.45117,-10.3174,0.0168619,0.0200353,-0.0216155,0.0401222,-0.00322509,-0.822036,0.0278854,0.0467282,1266,442,2.45113,10.3175
49,582,2.53638,-10.4041,0.0194789,0.0290557,-0.0230149,0.047775,0.000759568,-0.887964,0.0315999,0.0459428,1273,442,2.53644,10.4041
56,582,2.52576,-10.5156,0.0202635,0.0375467,-0.0237837,0.0542101,0.00360007,-0.959653,0.0350018,0.0445371,1280,442,2.52582,10.5156
63,582,2.59351,-10.5576,0.0191839,0.0422529,-0.0227802,0.0562523,0.00518443,-1.01975,0.0358984,0.042742,1287,442,2.59356,10.5576
70,582,2.61462,-10.5619,0,0,0,0,0,0,0,-1,1294,442,2.61464,10.5619
77,582,4.30615,-11.0035,0,0,0,0,0,0,0,-1,1301,442,4.30617,11.0035
84,582,4.31506,-11.0312,0,0,0,0,0,0,0,-1,1308,442,4.31506,11.0311
91,582,6.92224,-13.0554,-0.00824386,0.0334126,-5.10913e-05,0.0334127,-0.00824392,-1.56957,0.0254717,0.0461952,1315,442,6.92221,13.0554
98,582,2.22351,-11.3698,-0.015099,0.0308115,0.00767864,0.0320618,-0.0163492,1.40939,0.0284366,0.0427351,1322,442,2.22346,11.3698
105,582,1.77759,-10.3853,-0.0206954,0.0284916,0.015057,0.0327348,-0.0249385,1.29611,0.033399,0.0435082,1329,442,1.77754,10.3852
112,582,1.38684,-9.54483,-0.0253624,0.0271062,0.0217748,0.0349656,-0.0332218,1.22441,0.0393723,0.0436207,1336,442,1.38686,9.54482
119,582,2.76086,-10.3161,-0.0278378,0.025655,0.0290242,0.0383773,-0.04056,1.15769,0.0455803,0.0469447,1343,442,2.76087,10.3161
126,582,2.99146,-10.6057,-0.0275928,0.0299796,0.0331436,0.0450927,-0.0427058,1.14297,0.0506967,0.0470495,1350,442,2.99142,10.6057
133,582,1.47375,-11.655,0,0,0,0,0,0,0,-1,1357,442,1.47376,11.655
140,582,1.81567,-12.3939,-0.0256486,0.0492762,0.036095,0.0638357,-0.0402081,1.18739,0.0605838,0.0472819,1364,442,1.81571,12.3939
147,582,1.60925,-11.9464,-0.0246573,0.0616863,0.0354742,0.0743913,-0.0373624,1.22688,0.065691,0.0471075,1371,442,1.60921,11.9463
154,582,1.92651,-11.5319,0,0,0,0,0,0,0,-1,1378,442,1.92653,11.5319
161,582,2.5575,-11.2174,0,0,0,0,0,0,0,-1,1385,442,2.55754,11.2174
168,582,11.0089,-7.98538,0,0,0,0,0,0,0,-1,1392,442,11.0089,7.98537
175,582,6.50549,-2.00424,0,0,0,0,0,0,0,-1,1399,442,6.50546,2.00425
182,582,5.18958,-2.18652,0,0,0,0,0,0,0,-1,1406,442,5.1896,2.18652
189,582,6.19751,-0.880951,0,0,0,0,0,0,0,-1,1413,442,6.19754,0.88096
196,582,4.87354,-2.22327,0,0,0,0,0,0,0,-1,1420,442,4.87348,2.22325
203,582,3.11401,-4.48257,0,0,0,0,0,0,0,-1,1427,442,3.11404,4.48259
210,582,2.53308,-9.30539,0,0,0,0,0,0,0,-1,1434,442,2.53314,9.30539
217,582,2.56677,-9.25024,0.00205574,0.00183489,-0.00117464,0.00312513,0.000765505,-0.738532,0.00188092,0.0456198,1441,442,2.56674,9.25023
224,582,2.56665,-9.22418,0.00189865,0.00239623,-0.000935849,0.0031158,0.00117909,-0.915315,0.00181655,0.0477693,1448,442,2.56662,9.22419
231,582,2.64294,-9.32486,0,0,0,0,0,0,0,-1,1455,442,2.6429,9.32485
238,582,2.57312,-9.3479,0,0,0,0,0,0,0,-1,1462,442,2.57315,9.34789
245,582,2.7002,-9.0809,0.00166542,0.00228577,-0.00102256,0.00304416,0.000907019,-0.932654,0.00180475,0.0359351,1469,442,2.70016,9.08092
252,582,2.75146,-8.86255,0.00138825,0.00200526,-0.00127056,0.00300423,0.000389274,-0.904499,0.0018865,0.0217852,1476,442,2.75145,8.86254
259,582,2.69849,-8.75064,0.00102463,0.00155514,-0.00146315,0.00277688,-0.000197118,-0.87507,0.00192034,0.0170995,1483,442,2.69846,8.75064
266,582,2.70691,-8.62708,0.000758958,0.00110458,-0.00166306,0.00260378,-0.000740248,-0.837168,0.00202815,0.0129941,1490,442,2.70688,8.62708
273,582,2.73828,-8.4939,0.000481854,0.000620916,-0.00188812,0.00244079,-0.00133802,-0.803803,0.00221245,0.0119343,1497,442,2.73824,8.49388
280,582,2.7356,-8.38721,0.000373012,6.844e-05,-0.00190965,0.00213643,-0.00169498,-0.74561,0.00221696,0.0109282,1504,442,2.73565,8.38721
287,582,2.7627,-8.2684,0.000301362,-0.000294318,-0.00181589,0.00184367,-0.00183663,-0.704112,0.00212482,0.0100541,1511,442,2.76266,8.26839
294,582,2.76746,-8.1344,0.000260989,-0.000515152,-0.00164992,0.00156786,-0.00182202,-0.669895,0.00195898,0.00873784,1518,442,2.76745,8.13439
301,582,2.77234,-7.99344,0.00018866,-0.00088379,-0.00154166,0.00128469,-0.00197982,-0.618031,0.00189896,0.00946505,1525,442,2.77236,7.99343
308,582,2.77258,-7.87411,0.000121813,-0.000902627,-0.00131528,0.00102109,-0.00180191,-0.599714,0.00165051,0.0119643,1532,442,2.7726,7.87411
315,582,2.78076,-7.74435,7.44522e-05,-0.000955017,-0.0010559,0.000734403,-0.00161497,-0.558607,0.0013878,0.0129333,1539,442,2.78082,7.74434
322,582,2.78784,-7.61719,4.40526e-05,-0.000891688,-0.000723053,0.000437407,-0.00128504,-0.49824,0.00103382,0.00993456,1546,442,2.78781,7.6172
329,582,2.79016,-7.48877,1.51959e-05,-0.000826488,-0.000398928,0.000174226,-0.000985518,-0.379337,0.000722128,0.00980849,1553,442,2.79015,7.48875
336,582,2.77625,-7.33765,-3.09232e-05,-0.00069146,-8.23714e-05,-2.08061e-05,-0.000701577,-0.12221,0.000460939,0.0103034,1560,442,2.77624,7.33764
343,582,2.78796,-7.18472,-0.000100565,-0.000549859,0.000208577,-1.86658e-05,-0.000631759,0.374161,0.00041509,0.012379,1567,442,2.78791,7.18471
350,582,2.79382,-7.07281,-0.00017814,-0.000348357,0.000515789,0.000259515,-0.000786012,0.703631,0.00062863,0.0152769,1574,442,2.79378,7.07281
357,582,2.77478,-6.9064,-0.000275834,-0.000104323,0.00080026,0.000614763,-0.00099492,0.838774,0.00093795,0.0130832,1581,442,2.77478,6.90641
364,582,2.77991,-6.73767,-0.000342561,0.000191339,0.00100946,0.000968553,-0.00111977,0.914663,0.00120675,0.0104594,1588,442,2.77987,6.73766
371,582,2.79358,-6.58304,-0.000381548,0.000255744,0.00116723,0.00114704,-0.00127284,0.918648,0.00139775,0.0148144,1595,442,2.79363,6.58304
378,582,2.78223,-6.43704,-0.000432739,0.000274257,0.00132626,0.00129332,-0.0014518,0.915639,0.00158578,0.0167583,1602,442,2.78226,6.43705
385,582,2.77319,-6.27719,-0.000430293,0.000188474,0.00139021,0.00130331,-0.00154513,0.894886,0.00164652,0.0120871,1609,442,2.77315,6.27718
392,582,2.75745,-6.11154,-0.000166305,3.94462e-06,0.0014235,0.00134487,-0.00150723,0.815262,0.00164754,0.00965622,1616,442,2.75747,6.11153
399,582,2.74854,-5.95215,0.000467596,-0.000268457,0.00172585,0.00186422,-0.00166509,0.68035,0.00203873,0.0117787,1623,442,2.74848,5.95215
406,582,2.72351,-5.75101,0.00102777,-0.000669388,0.00195743,0.00231264,-0.00195426,0.580867,0.00246639,0.0171521,1630,442,2.72352,5.75102
413,582,2.71887,-5.56616,0.00137998,-0.00079515,0.00193599,0.00251297,-0.00192814,0.529483,0.00257147,0.0359953,1637,442,2.71892,5.56617
420,582,2.77148,-5.6488,0.00188442,-0.00107141,0.00209946,0.00297399,-0.00216097,0.478712,0.00297703,0.0475809,1644,442,2.77147,5.64881
427,582,2.80798,-5.40247,0.00392982,-0.00145607,0.003388,0.00556475,-0.003091,0.449602,0.00506498,0.0471882,1651,442,2.80796,5.40248
434,582,2.43286,-5.1048,0,0,0,0,0,0,0,-1,1658,442,2.43291,5.10478
441,582,2.55591,-4.95078,0,0,0,0,0,0,0,-1,1665,442,2.55596,4.95078
448,582,1.52722,-2.85928,0,0,0,0,0,0,0,-1,1672,442,1.52724,2.85927
455,582,2.15161,-2.53387,0,0,0,0,0,0,0,-1,1679,442,2.1516,2.53388
462,582,2.35364,-3.22681,0,0,0,0,0,0,0,-1,1686,442,2.35365,3.22681
469,582,2.45764,-4.08325,0,0,0,0,0,0,0,-1,1693,442,2.45766,4.08326
476,582,2.84106,-4.00989,0,0,0,0,0,0,0,-1,1700,442,2.84107,4.00988
483,582,0,0,0,0,0,0,0,0,0,-1,1707,442,0,0
490,582,0,0,0,0,0,0,0,0,0,-1,1714,442,0,0
497,582,0,0,0,0,0,0,0,0,0,-1,1721,442,0,0
504,582,0,0,0,0,0,0,0,0,0,-1,1728,442,0,0
511,582,0,0,0,0,0,0,0,0,0,-1,1735,442,0,0
518,582,0,0,0,0,0,0,0,0,0,-1,1742,442,0,0
525,582,0,0,0,0,0,0,0,0,0,-1,1749,442,0,0
532,582,0,0,0,0,0,0,0,0,0,-1,1756,442,0,0
539,582,0,0,0,0,0,0,0,0,0,-1,1763,442,0,0
546,582,0,0,0,0,0,0,0,0,0,-1,1770,442,0,0
553,582,0,0,0,0,0,0,0,0,0,-1,1777,442,0,0
560,582,0,0,0,0,0,0,0,0,0,-1,1784,442,0,0
567,582,0,0,0,0,0,0,0,0,0,-1,1791,442,0,0
574,582,0,0,0,0,0,0,0,0,0,-1,1798,442,0,0
581,582,0,0,0,0,0,0,0,0,0,-1,1805,442,0,0
588,582,0,0,0,0,0,0,0,0,0,-1,1812,442,0,0
595,582,0,0,0,0,0,0,0,0,0,-1,1819,442,0,0
602,582,0,0,0,0,0,0,0,0,0,-1,1826,442,0,0
609,582,0,0,0,0,0,0,0,0,0,-1,1833,442,0,0
616,582,0,0,0,0,0,0,0,0,0,-1,1840,442,0,0
623,582,0,0,0,0,0,0,0,0,0,-1,1847,442,0,0
630,582,0,0,0,0,0,0,0,0,0,-1,1854,442,0,0
637,582,0,0,0,0,0,0,0,0,0,-1,1861,442,0,0
644,582,0,0,0,0,0,0,0,0,0,-1,1868,442,0,0
651,582,0,0,0,0,0,0,0,0,0,-1,1875,442,0,0
658,582,0,0,0,0,0,0,0,0,0,-1,1882,442,0,0
665,582,0,0,0,0,0,0,0,0,0,-1,1889,442,0,0
672,582,0,0,0,0,0,0,0,0,0,-1,1896,442,0,0
679,582,0,0,0,0,0,0,0,0,0,-1,1903,442,0,0
686,582,0,0,0,0,0,0,0,0,0,-1,1910,442,0,0
693,582,0,0,0,0,0,0,0,0,0,-1,1917,442,0,0
700,582,0,0,0,0,0,0,0,0,0,-1,1924,442,0,0
707,582,0,0,0,0,0,0,0,0,0,-1,1931,442,0,0
714,582,0,0,0,0,0,0,0,0,0,-1,1938,442,0,0
721,582,0,0,0,0,0,0,0,0,0,-1,1945,442,0,0
728,582,0,0,0,0,0,0,0,0,0,-1,1952,442,0,0
735,582,0,0,0,0,0,0,0,0,0,-1,1959,442,0,0
742,582,0,0,0,0,0,0,0,0,0,-1,1966,442,0,0
749,582,0,0,0,0,0,0,0,0,0,-1,1973,442,0,0
756,582,0,0,0,0,0,0,0,0,0,-1,1980,442,0,0
763,582,0,0,0,0,0,0,0,0,0,-1,1987,442,0,0
770,582,0,0,0,0,0,0,0,0,0,-1,1994,442,0,0
777,582,0,0,0,0,0,0,0,0,0,-1,2001,442,0,0
784,582,0,0,0,0,0,0,0,0,0,-1,2008,442,0,0
791,582,0,0,0,0,0,0,0,0,0,-1,2015,442,0,0
798,582,0,0,0,0,0,0,0,0,0,-1,2022,442,0,0
805,582,0,0,0,0,0,0,0,0,0,-1,2029,442,0,0
812,582,0,0,0,0,0,0,0,0,0,-1,2036,442,0,0
-700,575,0,0,0,0,0,0,0,0,0,-1,524,449,0,0
-693,575,0,0,0,0,0,0,0,0,0,-1,531,449,0,0
-686,575,0,0,0,0,0,0,0,0,0,-1,538,449,0,0
-679,575,0,0,0,0,0,0,0,0,0,-1,545,449,0,0
-672,575,0,0,0,0,0,0,0,0,0,-1,552,449,0,0
-665,575,0,0,0,0,0,0,0,0,0,-1,559,449,0,0
-658,575,0,0,0,0,0,0,0,0,0,-1,566,449,0,0
-651,575,0,0,0,0,0,0,0,0,0,-1,573,449,0,0
-644,575,0,0,0,0,0,0,0,0,0,-1,580,449,0,0
-637,575,0,0,0,0,0,0,0,0,0,-1,587,449,0,0
-630,575,0,0,0,0,0,0,0,0,0,-1,594,449,0,0
-623,575,0,0,0,0,0,0,0,0,0,-1,601,449,0,0
-616,575,0,0,0,0,0,0,0,0,0,-1,608,449,0,0
-609,575,0,0,0,0,0,0,0,0,0,-1,615,449,0,0
-602,575,0,0,0,0,0,0,0,0,0,-1,622,449,0,0
-595,575,0,0,0,0,0,0,0,0,0,-1,629,449,0,0
-588,575,0,0,0,0,0,0,0,0,0,-1,636,449,0,0
-581,575,0,0,0,0,0,0,0,0,0,-1,643,449,0,0
-574,575,0,0,0,0,0,0,0,0,0,-1,650,449,0,0
-567,575,0,0,0,0,0,0,0,0,0,-1,657,449,0,0
-560,575,0,0,0,0,0,0,0,0,0,-1,664,449,0,0
-553,575,0,0,0,0,0,0,0,0,0,-1,671,449,0,0
-546,575,0,0,0,0,0,0,0,0,0,-1,678,449,0,0
-539,575,0,0,0,0,0,0,0,0,0,-1,685,449,0,0
-532,575,0,0,0,0,0,0,0,0,0,-1,692,449,0,0
-525,575,0,0,0,0,0,0,0,0,0,-1,699,449,0,0
-518,575,0,0,0,0,0,0,0,0,0,-1,706,449,0,0
-511,575,0,0,0,0,0,0,0,0,0,-1,713,449,0,0
-504,575,0,0,0,0,0,0,0,0,0,-1,720,449,0,0
-497,575,0,0,0,0,0,0,0,0,0,-1,727,449,0,0
-490,575,0,0,0,0,0,0,0,0,0,-1,734,449,0,0
-483,575,0,0,0,0,0,0,0,0,0,-1,741,449,0,0
-476,575,0,0,0,0,0,0,0,0,0,-1,748,449,0,0
-469,575,0,0,0,0,0,0,0,0,0,-1,755,449,0,0
-462,575,0,0,0,0,0,0,0,0,0,-1,762,449,0,0
-455,575,0,0,0,0,0,0,0,0,0,-1,769,449,0,0
-448,575,0,0,0,0,0,0,0,0,0,-1,776,449,0,0
-441,575,0,0,0,0,0,0,0,0,0,-1,783,449,0,0
-434,575,0,0,0,0,0,0,0,0,0,-1,790,449,0,0
-427,575,0,0,0,0,0,0,0,0,0,-1,797,449,0,0
-420,575,0,0,0,0,0,0,0,0,0,-1,804,449,0,0
-413,575,0,0,0,0,0,0,0,0,0,-1,811,449,0,0
-406,575,0,0,0,0,0,0,0,0,0,-1,818,449,0,0
-399,575,0,0,0,0,0,0,0,0,0,-1,825,449,0,0
-392,575,0,0,0,0,0,0,0,0,0,-1,832,449,0,0
-385,575,0,0,0,0,0,0,0,0,0,-1,839,449,0,0
-378,575,0,0,0,0,0,0,0,0,0,-1,846,449,0,0
-371,575,0.56897,-3.52304,0,0,0,0,0,0,0,-1,853,449,0.568955,3.52306
-364,575,1.49805,-4.67191,0,0,0,0,0,0,0,-1,860,449,1.49803,4.6719
-357,575,7.00562,-3.99518,0,0,0,0,0,0,0,-1,867,449,7.0056,3.99517
-350,575,-1.09674,-6.20343,0,0,0,0,0,0,0,-1,874,449,-1.09671,6.20344
-343,575,0.29834,-5.3349,0,0,0,0,0,0,0,-1,881,449,0.298367,5.33489
-336,575,0.418152,-6.85492,0,0,0,0,0,0,0,-1,888,449,0.418122,6.85492
-329,575,0.502075,-6.73755,0.0272525,-0.0269064,-0.00444091,0.0276143,-0.0272681,-0.0812742,0.0316866,0.0497835,895,449,0.502096,6.73756
-322,575,0.561279,-6.59476,0.0224525,-0.0275009,-0.00282789,0.0226121,-0.0276604,-0.0563705,0.0290736,0.0454407,902,449,0.561261,6.59477
-315,575,0.534546,-6.4917,0.0177667,-0.025458,-0.00183554,0.0178446,-0.0255358,-0.0423634,0.0251765,0.0441286,909,449,0.534548,6.4917
-308,575,0.814392,-6.45245,0.0137353,-0.0223153,-0.00110505,0.0137691,-0.0223491,-0.0306144,0.0210481,0.0413909,916,449,0.814389,6.45244
-301,575,1.33203,-6.40924,0.0104237,-0.0185455,-0.000649605,0.0104383,-0.0185601,-0.0224089,0.0169597,0.0291712,923,449,1.33205,6.40923
-294,575,1.30469,-6.52567,0.00725322,-0.0148656,-0.000321496,0.0072579,-0.0148703,-0.0145309,0.0130252,0.0217396,930,449,1.3047,6.52566
-287,575,1.29657,-6.70352,0.00462414,-0.0119087,-0.000244222,0.00462774,-0.0119123,-0.0147677,0.00985326,0.0158572,937,449,1.29657,6.70351
-280,575,1.27899,-6.86279,0.00251512,-0.00909997,-0.000266706,0.00252124,-0.00910609,-0.0229459,0.00706277,0.0123188,944,449,1.27899,6.86279
-273,575,1.27325,-6.98438,0.000899017,-0.0061898,0.000264854,0.000908899,-0.00619969,0.0372928,0.00446702,0.0111696,951,449,1.27326,6.98439
-266,575,1.27118,-7.11624,-0.00028749,-0.00364936,-0.000295438,-0.000261724,-0.00367512,-0.0869905,0.00236767,0.0123194,958,449,1.2712,7.11625
-259,575,1.25305,-7.26749,-0.00130946,-0.00185519,-0.00075233,-0.000782043,-0.00238261,-0.611429,0.0014024,0.0123069,965,449,1.25305,7.26749
-252,575,1.20514,-7.40771,-0.00134812,-0.000932068,-0.000774499,-0.000338144,-0.00194204,-0.916599,0.001198,0.0111607,972,449,1.20511,7.40773
-245,575,1.21021,-7.53955,-0.000830725,-0.000243619,-0.000935704,0.000443499,-0.00151784,-0.937398,0.00118766,0.0140681,979,449,1.21018,7.53954
-238,575,1.22235,-7.68076,-2.60037e-05,0.000408899,-0.00104161,0.00125552,-0.000872621,-0.888302,0.00123529,0.0141144,986,449,1.22234,7.68077
-231,575,1.23639,-7.80258,0.000647646,0.000877786,-0.00113361,0.00190216,-0.000376723,-0.835979,0.00141055,0.0121109,993,449,1.23639,7.80257
-224,575,1.2337,-7.93967,0.00123836,0.00125994,-0.00122493,0.00247412,2.41752e-05,-0.789801,0.00164142,0.0118033,1000,449,1.23369,7.93968
-217,575,1.24408,-8.0575,0.00184968,0.00174447,-0.00143637,0.00323441,0.000359747,-0.767095,0.00204692,0.0111844,1007,449,1.24406,8.0575
-210,575,1.25403,-8.17975,0.00233592,0.00187787,-0.00136112,0.00348715,0.000726641,-0.702048,0.00212439,0.0102012,1014,449,1.25402,8.17976
-203,575,1.24561,-8.3049,0.00260988,0.00193197,-0.00103775,0.00336263,0.00117923,-0.627548,0.00197006,0.0120347,1021,449,1.24563,8.3049
-196,575,1.22717,-8.42825,0.00322379,0.00178024,-0.001064,0.00378773,0.0012163,-0.487372,0.00223301,0.0143855,1028,449,1.22719,8.42824
-189,575,1.23389,-8.54108,0.00425613,0.00139001,-0.00134274,0.00478689,0.000859244,-0.376435,0.0029469,0.0157811,1035,449,1.23383,8.54109
-182,575,1.22925,-8.64917,0.00535124,0.000751891,-0.00173243,0.00593077,0.000172361,-0.322817,0.00389766,0.0144796,1042,449,1.22926,8.64915
-175,575,1.24915,-8.73169,0.00673634,0.000401389,-0.0026996,0.00773069,-0.000592956,-0.35291,0.00536238,0.0118801,1049,449,1.24914,8.73168
-168,575,1.25647,-8.82605,0.00840428,0.000458738,-0.00447283,0.0104139,-0.00155089,-0.422269,0.00751312,0.0100937,1056,449,1.25651,8.82605
-161,575,1.26538,-8.92834,0.00996289,6.59838e-05,-0.00606799,0.0128444,-0.00281548,-0.443337,0.00963945,0.0138711,1063,449,1.2654,8.92836
-154,575,1.27588,-9.02673,0.0115533,2.39559e-05,-0.0079531,0.0156112,-0.00403395,-0.471798,0.0119807,0.015032,1070,449,1.2759,9.02674
-147,575,1.29675,-9.09512,0.0130847,0.000248754,-0.00988222,0.0184501,-0.00511669,-0.497406,0.0143138,0.0146337,1077,449,1.29675,9.09513
-140,575,1.28564,-9.14713,0.0145646,0.000585195,-0.0122635,0.0216904,-0.00654069,-0.52638,0.0170636,0.0249894,1084,449,1.28565,9.14713
-133,575,1.40991,-9.2442,0.0157408,0.00137289,-0.0147625,0.0249745,-0.00786087,-0.558949,0.0197972,0.0336429,1091,449,1.40985,9.24419
-126,575,1.37317,-9.24634,0.0166936,0.0026512,-0.0171721,0.0282245,-0.00887967,-0.591333,0.0223715,0.0388998,1098,449,1.37318,9.24635
-119,575,1.31836,-9.24796,0.017253,0.0043379,-0.0193867,0.0312293,-0.00963848,-0.624632,0.0246683,0.0390204,1105,449,1.31835,9.24796
-112,575,1.27429,-9.51712,0.0174679,0.00634291,-0.0212362,0.033858,-0.0100472,-0.657309,0.0265622,0.0400443,1112,449,1.27424,9.51713
-105,575,1.20691,-9.77902,0.0173416,0.00864046,-0.0229437,0.0363435,-0.0103615,-0.691701,0.0283218,0.0437172,1119,449,1.20695,9.77902
-98,575,1.0105,-9.92932,0.0170534,0.0110954,-0.0244207,0.0386762,-0.0105273,-0.724705,0.0299171,0.0479698,1126,449,1.01045,9.92933
-91,575,0.824707,-10.0616,0,0,0,0,0,0,0,-1,1133,449,0.824702,10.0616
-84,575,0.572144,-10.6613,0,0,0,0,0,0,0,-1,1140,449,0.572195,10.6613
-77,575,0.205078,-11.2584,0,0,0,0,0,0,0,-1,1147,449,0.205117,11.2584
-70,575,-4.2467,-1.78738,0,0,0,0,0,0,0,-1,1154,449,-4.24674,1.78739
-63,575,-4.52209,-3.48798,0,0,0,0,0,0,0,-1,1161,449,-4.5221,3.48796
-56,575,-5.5968,-5.4928,0,0,0,0,0,0,0,-1,1168,449,-5.59683,5.49281
-49,575,-5.96863,-7.17612,0,0,0,0,0,0,0,-1,1175,449,-5.96868,7.1761
-42,575,-0.830322,0.773499,0,0,0,0,0,0,0,-1,1182,449,-0.83038,-0.77351
-35,575,-0.62085,0.205139,0,0,0,0,0,0,0,-1,1189,449,-0.620855,-0.205126
-28,575,0.49292,-3.87988,0,0,0,0,0,0,0,-1,1196,449,0.492941,3.87989
-21,575,1.49268,-10.9491,0,0,0,0,0,0,0,-1,1203,449,1.49267,10.9491
-14,575,1.26062,-10.7478,-0.0734497,-0.0198963,0.0223769,-0.0117772,-0.0815688,1.22273,0.0509096,0.0492349,1210,449,1.2606,10.7478
-7,575,0.376221,-10.4679,-0.0692455,-0.0243446,0.0189532,-0.017414,-0.0761761,1.22023,0.0460893,0.0463208,1217,449,0.376192,10.4679
0,575,-0.87793,-10.2574,-0.0608683,-0.0270657,0.0147545,-0.0215316,-0.0664024,1.21195,0.0391189,0.0446802,1224,449,-0.877872,10.2574
7,575,-1.73376,-10.6122,-0.0466709,-0.0271374,0.00951574,-0.0232682,-0.0505401,1.18461,0.0292098,0.0443733,1231,449,-1.7338,10.6123
14,575,-2.4967,-11.0386,-0.0301798,-0.018952,0.000810951,-0.0188937,-0.0302381,1.49907,0.0176384,0.0455721,1238,449,-2.49674,11.0386
21,575,2.03333,-9.73157,0,0,0,0,0,0,0,-1,1245,449,2.0333,9.73158
28,575,1.76257,-9.51462,0,0,0,0,0,0,0,-1,1252,449,1.76262,9.51461
35,575,1.64783,-9.86429,0.0130722,0.0157071,-0.0210039,0.0354348,-0.00665554,-0.816718,0.0261259,0.0402472,1259,449,1.64783,9.8643
42,575,2.43018,-10.187,0.0209858,0.0266813,-0.0261276,0.0501159,-0.00244877,-0.839681,0.0342561,0.0442088,1266,449,2.4302,10.1871
49,575,2.56519,-10.2788,0.0244748,0.0377112,-0.0285389,0.0603892,0.00179673,-0.899335,0.0396741,0.0445034,1273,449,2.56516,10.2788
56,575,2.9375,-10.6123,0.0255254,0.0481103,-0.0300802,0.0689479,0.00468778,-0.964963,0.0444851,0.0427464,1280,449,2.93744,10.6123
63,575,3.19666,-10.8647,0.0237858,0.0534971,-0.0290981,0.0713123,0.00597054,-1.02142,0.0456816,0.0409793,1287,449,3.19665,10.8646
70,575,3.73071,-10.7922,0.0187042,0.0555858,-0.0251117,0.0683004,0.00598954,-1.1021,0.0436742,0.0392876,1294,449,3.73077,10.7922
77,575,4.13025,-10.7267,0.010278,0.0525112,-0.0188967,0.0597318,0.00305748,-1.20581,0.0388422,0.0433526,1301,449,4.1303,10.7267
84,575,4.26501,-10.7054,-0.00166498,0.0448568,-0.010045,0.0469331,-0.00374123,-1.36697,0.0326074,0.0455808,1308,449,4.26502,10.7054
91,575,4.29163,-10.8491,-0.0120305,0.0386544,-0.00117243,0.0386815,-0.0120576,-1.54768,0.030609,0.0445773,1315,449,4.29166,10.8491
98,575,2.26257,-10.8582,-0.0205498,0.034513,0.00806777,0.0356707,-0.0217076,1.42827,0.0334527,0.0412477,1322,449,2.26255,10.8582
105,575,1.68091,-10.1473,-0.0275032,0.0310094,0.01684,0.0355098,-0.0320037,1.30965,0.0389964,0.041321,1329,449,1.68092,10.1474
112,575,1.2749,-9.48779,-0.0335271,0.0286599,0.0249538,0.0374349,-0.0423021,1.23265,0.0460647,0.0442471,1336,449,1.27487,9.48778
119,575,1.00525,-8.84265,-0.0364972,0.02633,0.0338138,0.0410703,-0.0512376,1.15971,0.0534017,0.0462127,1343,449,1.00523,8.84267
126,575,0.743896,-8.23126,-0.0359716,0.0317104,0.0386426,0.0492354,-0.0534966,1.14502,0.0593293,0.0495936,1350,449,0.743951,8.23127
133,575,0.440308,-7.57486,0,0,0,0,0,0,0,-1,1357,449,0.440265,7.57485
140,575,1.48132,-13.8238,-0.0332134,0.0576436,0.0418307,0.0739691,-0.0495389,1.1987,0.0717709,0.0464301,1364,449,1.48138,13.8238
147,575,0.940674,-13.2253,-0.0329917,0.074991,0.0411814,0.0889038,-0.0469045,1.24499,0.079649,0.0464665,1371,449,0.940641,13.2253
154,575,0.257446,-12.8643,-0.0356743,0.0886654,0.0421886,0.101629,-0.0486374,1.27269,0.088536,0.0482144,1378,449,0.257406,12.8643
161,575,-0.352905,-12.5416,0,0,0,0,0,0,0,-1,1385,449,-0.352951,12.5416
168,575,9.2522,-0.307129,0,0,0,0,0,0,0,-1,1392,449,9.25225,0.307127
175,575,4.32617,1.93634,0,0,0,0,0,0,0,-1,1399,449,4.32612,-1.93634
182,575,6.3147,-2.88345,0,0,0,0,0,0,0,-1,1406,449,6.31466,2.88346
189,575,6.10449,-1.30817,0,0,0,0,0,0,0,-1,1413,449,6.10455,1.30817
196,575,5.79895,0.818359,0,0,0,0,0,0,0,-1,1420,449,5.79895,-0.81837
203,575,3.29724,-1.46378,0,0,0,0,0,0,0,-1,1427,449,3.29722,1.46377
210,575,2.32739,-7.74503,0,0,0,0,0,0,0,-1,1434,449,2.32741,7.74502
217,575,2.63379,-9.22699,0,0,0,0,0,0,0,-1,1441,449,2.6338,9.22698
224,575,2.63977,-9.33936,0,0,0,0,0,0,0,-1,1448,449,2.63974,9.33936
231,575,2.10706,-9.39813,0,0,0,0,0,0,0,-1,1455,449,2.10707,9.39813
238,575,2.8429,-8.78824,0,0,0,0,0,0,0,-1,1462,449,2.84288,8.78824
245,575,2.99182,-9.3999,0,0,0,0,0,0,0,-1,1469,449,2.99177,9.39991
252,575,3.11328,-8.56506,0,0,0,0,0,0,0,-1,1476,449,3.11324,8.56507
259,575,2.83569,-8.93787,0,0,0,0,0,0,0,-1,1483,449,2.83568,8.93786
266,575,2.90564,-8.58179,0.000900166,0.00127036,-0.00238371,0.00347615,-0.00130563,-0.824145,0.00285399,0.0463996,1490,449,2.90566,8.5818
273,575,2.8811,-8.52161,0.000582946,0.000556723,-0.00258355,0.00315342,-0.00201375,-0.782861,0.00300735,0.0312653,1497,449,2.88109,8.5216
280,575,2.901,-8.34192,0.00048319,-0.000251253,-0.002628,0.0027695,-0.00253756,-0.71598,0.00306501,0.019597,1504,449,2.90105,8.34192
287,575,2.86694,-8.28482,0.000386991,-0.000760695,-0.0025803,0.00245649,-0.00283019,-0.675982,0.00305481,0.0131299,1511,449,2.8669,8.28481
294,575,2.87988,-8.13019,0.000308862,-0.00106677,-0.00244925,0.00216504,-0.00292295,-0.64851,0.00294839,0.0100525,1518,449,2.87985,8.13018
301,575,2.89319,-8.00479,0.000150759,-0.00158297,-0.00243631,0.00186983,-0.00330204,-0.614477,0.0030239,0.00947719,1525,449,2.89316,8.0048
308,575,2.90601,-7.8877,-5.18708e-05,-0.00160541,-0.00233775,0.00163478,-0.00329206,-0.625,0.00289766,0.00989732,1532,449,2.906,7.88768
315,575,2.91064,-7.75757,-0.000203374,-0.00169815,-0.00218492,0.00135845,-0.00325997,-0.620604,0.00274074,0.010384,1539,449,2.91058,7.75757
322,575,2.92615,-7.61249,-0.000306348,-0.00164305,-0.00190834,0.0010473,-0.0029967,-0.61696,0.00242354,0.00931362,1546,449,2.92615,7.6125
329,575,2.92212,-7.47406,-0.000377264,-0.00156531,-0.00162495,0.000758833,-0.00270141,-0.610161,0.00210009,0.0098131,1553,449,2.92211,7.47405
336,575,2.90881,-7.32217,-0.000444589,-0.00137933,-0.00131877,0.000487179,-0.00231109,-0.615105,0.00172619,0.011935,1560,449,2.9088,7.32218
343,575,2.92822,-7.17349,-0.000522552,-0.00117619,-0.00100788,0.000210167,-0.00190891,-0.628614,0.00134814,0.0111314,1567,449,2.92822,7.1735
350,575,2.92859,-7.04373,-0.000572942,-0.000915166,-0.000645874,-7.5898e-05,-0.00141221,-0.655908,0.000917222,0.00997751,1574,449,2.92856,7.04372
357,575,2.92871,-6.90985,-0.000600703,-0.000626581,-0.000283588,-0.000329759,-0.000897525,-0.7626,0.000524225,0.0102559,1581,449,2.92865,6.90986
364,575,2.92749,-6.75558,-0.000584447,-0.000277144,3.13267e-05,-0.000273983,-0.000587608,1.47023,0.000339513,0.0102056,1588,449,2.92755,6.75558
371,575,2.90295,-6.60681,-0.000554077,-0.000121832,0.000320903,4.894e-05,-0.00072485,1.08175,0.000500345,0.0190906,1595,449,2.90301,6.60682
378,575,2.93457,-6.44019,-0.000516081,1.26509e-06,0.000627256,0.000421092,-0.000935907,0.980968,0.000802037,0.02003,1602,449,2.93457,6.44019
385,575,2.92334,-6.26501,-0.000466838,7.96312e-06,0.000772675,0.000578885,-0.00103776,0.934443,0.00094582,0.0125002,1609,449,2.92334,6.26503
392,575,2.9071,-6.11035,-0.000191343,-0.000107257,0.000887297,0.000738993,-0.00103759,0.809072,0.00103053,0.0091648,1616,449,2.90711,6.11035
399,575,2.90625,-5.96506,0.00040772,-0.000308587,0.00122274,0.00132369,-0.00122455,0.642929,0.0014716,0.00933175,1623,449,2.90623,5.96504
406,575,2.88245,-5.78772,0.000929931,-0.000588059,0.00150723,0.00185848,-0.00151661,0.552148,0.00195194,0.0103131,1630,449,2.88249,5.78772
413,575,2.86194,-5.62125,0.00124346,-0.000672149,0.00158083,0.00213401,-0.0015627,0.51303,0.00214278,0.0115225,1637,449,2.86192,5.62126
420,575,2.8606,-5.47354,0.00163924,-0.000827044,0.00179038,0.00258006,-0.00176786,0.483828,0.00252483,0.0132618,1644,449,2.86065,5.47353
427,575,2.84094,-5.34531,0.00315836,-0.00102407,0.00284535,0.00459832,-0.00246403,0.468495,0.00413905,0.0192402,1651,449,2.84099,5.3453
434,575,2.77832,-5.19131,0.00585216,-0.00181442,0.00456466,0.00797959,-0.00394185,0.436134,0.00701321,0.0275087,1658,449,2.77833,5.19132
441,575,2.89233,-5.00079,0.00830973,-0.00215734,0.00616897,0.0111661,-0.00501368,0.433626,0.00956385,0.0444802,1665,449,2.89231,5.00079
448,575,3.58191,-4.7063,0,0,0,0,0,0,0,-1,1672,449,3.58187,4.70631
455,575,2.25085,-2.58069,0,0,0,0,0,0,0,-1,1679,449,2.25082,2.58068
462,575,2.52063,-3.99002,0,0,0,0,0,0,0,-1,1686,449,2.52067,3.99001
469,575,2.69141,-4.01306,0,0,0,0,0,0,0,-1,1693,449,2.6914,4.01307
476,575,2.92346,-3.90613,0.0272977,-0.00520254,0.0199032,0.036742,-0.0146469,0.443051,0.0305699,0.0459528,1700,449,2.92341,3.90614
483,575,3.35229,-3.44138,0.0325242,-0.00688148,0.0230676,0.043158,-0.0175153,0.431953,0.0360575,0.0483106,1707,449,3.35233,3.44136
490,575,3.63599,-2.99475,0,0,0,0,0,0,0,-1,1714,449,3.63595,2.99475
497,575,0,0,0,0,0,0,0,0,0,-1,1721,449,0,0
504,575,0,0,0,0,0,0,0,0,0,-1,1728,449,0,0
511,575,0,0,0,0,0,0,0,0,0,-1,1735,449,0,0
518,575,0,0,0,0,0,0,0,0,0,-1,1742,449,0,0
525,575,0,0,0,0,0,0,0,0,0,-1,1749,449,0,0
532,575,0,0,0,0,0,0,0,0,0,-1,1756,449,0,0
539,575,0,0,0,0,0,0,0,0,0,-1,1763,449,0,0
546,575,0,0,0,0,0,0,0,0,0,-1,1770,449,0,0
553,575,0,0,0,0,0,0,0,0,0,-1,1777,449,0,0
560,575,0,0,0,0,0,0,0,0,0,-1,1784,449,0,0
567,575,0,0,0,0,0,0,0,0,0,-1,1791,449,0,0
574,575,0,0,0,0,0,0,0,0,0,-1,1798,449,0,0
581,575,0,0,0,0,0,0,0,0,0,-1,1805,449,0,0
588,575,0,0,0,0,0,0,0,0,0,-1,1812,449,0,0
595,575,0,0,0,0,0,0,0,0,0,-1,1819,449,0,0
602,575,0,0,0,0,0,0,0,0,0,-1,1826,449,0,0
609,575,0,0,0,0,0,0,0,0,0,-1,1833,449,0,0
616,575,0,0,0,0,0,0,0,0,0,-1,1840,449,0,0
623,575,0,0,0,0,0,0,0,0,0,-1,1847,449,0,0
630,575,0,0,0,0,0,0,0,0,0,-1,1854,449,0,0
637,575,0,0,0,0,0,0,0,0,0,-1,1861,449,0,0
644,575,0,0,0,0,0,0,0,0,0,-1,1868,449,0,0
651,575,0,0,0,0,0,0,0,0,0,-1,1875,449,0,0
658,575,0,0,0,0,0,0,0,0,0,-1,1882,449,0,0
665,575,0,0,0,0,0,0,0,0,0,-1,1889,449,0,0
672,575,0,0,0,0,0,0,0,0,0,-1,1896,449,0,0
679,575,0,0,0,0,0,0,0,0,0,-1,1903,449,0,0
686,575,0,0,0,0,0,0,0,0,0,-1,1910,449,0,0
693,575,0,0,0,0,0,0,0,0,0,-1,1917,449,0,0
700,575,0,0,0,0,0,0,0,0,0,-1,1924,449,0,0
707,575,0,0,0,0,0,0,0,0,0,-1,1931,449,0,0
714,575,0,0,0,0,0,0,0,0,0,-1,1938,449,0,0
721,575,0,0,0,0,0,0,0,0,0,-1,1945,449,0,0
728,575,0,0,0,0,0,0,0,0,0,-1,1952,449,0,0
735,575,0,0,0,0,0,0,0,0,0,-1,1959,449,0,0
742,575,0,0,0,0,0,0,0,0,0,-1,1966,449,0,0
749,575,0,0,0,0,0,0,0,0,0,-1,1973,449,0,0
756,575,0,0,0,0,0,0,0,0,0,-1,1980,449,0,0
763,575,0,0,0,0,0,0,0,0,0,-1,1987,449,0,0
770,575,0,0,0,0,0,0,0,0,0,-1,1994,449,0,0
777,575,0,0,0,0,0,0,0,0,0,-1,2001,449,0,0
784,575,0,0,0,0,0,0,0,0,0,-1,2008,449,0,0
791,575,0,0,0,0,0,0,0,0,0,-1,2015,449,0,0
798,575,0,0,0,0,0,0,0,0,0,-1,2022,449,0,0
805,575,0,0,0,0,0,0,0,0,0,-1,2029,449,0,0
812,575,0,0,0,0,0,0,0,0,0,-1,2036,449,0,0
-700,568,0,0,0,0,0,0,0,0,0,-1,524,456,0,0
-693,568,0,0,0,0,0,0,0,0,0,-1,531,456,0,0
-686,568,0,0,0,0,0,0,0,0,0,-1,538,456,0,0
-679,568,0,0,0,0,0,0,0,0,0,-1,545,456,0,0
-672,568,0,0,0,0,0,0,0,0,0,-1,552,456,0,0
-665,568,0,0,0,0,0,0,0,0,0,-1,559,456,0,0
-658,568,0,0,0,0,0,0,0,0,0,-1,566,456,0,0
-651,568,0,0,0,0,0,0,0,0,0,-1,573,456,0,0
-644,568,0,0,0,0,0,0,0,0,0,-1,580,456,0,0
-637,568,0,0,0,0,0,0,0,0,0,-1,587,456,0,0
-630,568,0,0,0,0,0,0,0,0,0,-1,594,456,0,0
-623,568,0,0,0,0,0,0,0,0,0,-1,601,456,0,0
-616,568,0,0,0,0,0,0,0,0,0,-1,608,456,0,0
-609,568,0,0,0,0,0,0,0,0,0,-1,615,456,0,0
-602,568,0,0,0,0,0,0,0,0,0,-1,622,456,0,0
-595,568,0,0,0,0,0,0,0,0,0,-1,629,456,0,0
-588,568,0,0,0,0,0,0,0,0,0,-1,636,456,0,0
-581,568,0,0,0,0,0,0,0,0,0,-1,643,456,0,0
-574,568,0,0,0,0,0,0,0,0,0,-1,650,456,0,0
-567,568,0,0,0,0,0,0,0,0,0,-1,657,456,0,0
-560,568,0,0,0,0,0,0,0,0,0,-1,664,456,0,0
-553,568,0,0,0,0,0,0,0,0,0,-1,671,456,0,0
-546,568,0,0,0,0,0,0,0,0,0,-1,678,456,0,0
-539,568,0,0,0,0,0,0,0,0,0,-1,685,456,0,0
-532,568,0,0,0,0,0,0,0,0,0,-1,692,456,0,0
-525,568,0,0,0,0,0,0,0,0,0,-1,699,456,0,0
-518,568,0,0,0,0,0,0,0,0,0,-1,706,456,0,0
-511,568,0,0,0,0,0,0,0,0,0,-1,713,456,0,0
-504,568,0,0,0,0,0,0,0,0,0,-1,720,456,0,0
-497,568,0,0,0,0,0,0,0,0,0,-1,727,456,0,0
-490,568,0,0,0,0,0,0,0,0,0,-1,734,456,0,0
-483,568,0,0,0,0,0,0,0,0,0,-1,741,456,0,0
-476,568,0,0,0,0,0,0,0,0,0,-1,748,456,0,0
-469,568,0,0,0,0,0,0,0,0,0,-1,755,456,0,0
-462,568,0,0,0,0,0,0,0,0,0,-1,762,456,0,0
-455,568,0,0,0,0,0,0,0,0,0,-1,769,456,0,0
-448,568,0,0,0,0,0,0,0,0,0,-1,776,456,0,0
-441,568,0,0,0,0,0,0,0,0,0,-1,783,456,0,0
-434,568,0,0,0,0,0,0,0,0,0,-1,790,456,0,0
-427,568,0,0,0,0,0,0,0,0,0,-1,797,456,0,0
-420,568,0,0,0,0,0,0,0,0,0,-1,804,456,0,0
-413,568,0,0,0,0,0,0,0,0,0,-1,811,456,0,0
-406,568,0,0,0,0,0,0,0,0,0,-1,818,456,0,0
-399,568,0,0,0,0,0,0,0,0,0,-1,825,456,0,0
-392,568,0,0,0,0,0,0,0,0,0,-1,832,456,0,0
-385,568,0,0,0,0,0,0,0,0,0,-1,839,456,0,0
-378,568,0.0559082,-3.97311,0,0,0,0,0,0,0,-1,846,456,0.0559355,3.97311
-371,568,0.428345,-4.25775,0,0,0,0,0,0,0,-1,853,456,0.428339,4.25776
-364,568,1.06445,-4.49878,0,0,0,0,0,0,0,-1,860,456,1.06443,4.49877
-357,568,1.77771,-4.88425,0,0,0,0,0,0,0,-1,867,456,1.7777,4.88425
-350,568,0.575623,-5.33902,0,0,0,0,0,0,0,-1,874,456,0.575638,5.33903
-343,568,1.33234,-4.94647,0,0,0,0,0,0,0,-1,881,456,1.33233,4.94648
-336,568,1.20422,-5.64276,0,0,0,0,0,0,0,-1,888,456,1.20421,5.64275
-329,568,1.26538,-5.86649,0.0207709,-0.0191516,-0.00459837,0.0212937,-0.0196744,-0.113207,0.0236591,0.045372,895,456,1.26537,5.8665
-322,568,1.16248,-6.16479,0.0170671,-0.0199498,-0.00332351,0.0173631,-0.0202459,-0.0888368,0.0217348,0.0389168,902,456,1.16247,6.1648
-315,568,1.224,-6.17154,0.0135686,-0.0184786,-0.00257552,0.0137742,-0.0186843,-0.0796849,0.0188113,0.0376142,909,456,1.22398,6.17155
-308,568,1.21643,-6.26831,0.0106521,-0.016016,-0.00196265,0.0107958,-0.0161596,-0.0730705,0.0156651,0.0269288,916,456,1.21646,6.26832
-301,568,1.18384,-6.39603,0.00846946,-0.0129997,-0.00155882,0.00858205,-0.0131122,-0.0721036,0.0126159,0.0138965,923,456,1.18382,6.39602
-294,568,1.15448,-6.53864,0.0063608,-0.0100252,-0.001261,0.00645727,-0.0101217,-0.0763565,0.00964948,0.0103018,930,456,1.15447,6.53863
-287,568,1.14453,-6.69754,0.0045831,-0.00774638,-0.00111969,0.00468396,-0.00784724,-0.0898348,0.00731132,0.00973567,937,456,1.14452,6.69755
-280,568,1.13525,-6.86615,0.00314193,-0.00558345,-0.00108844,0.00327566,-0.00571717,-0.122248,0.00525541,0.0103747,944,456,1.13525,6.86615
-273,568,1.13379,-7.01404,0.00201543,-0.00328655,-0.000647331,0.00209332,-0.00336444,-0.119749,0.0031794,0.0111124,951,456,1.13381,7.01405
-266,568,1.1347,-7.13733,0.0011637,-0.0013701,-0.000987172,0.0015029,-0.00170929,-0.330965,0.00185583,0.0107883,958,456,1.13473,7.13733
-259,568,1.11548,-7.26898,0.000370603,-6.65008e-05,-0.00125191,0.0014229,-0.0011188,-0.698982,0.00147094,0.0118729,965,456,1.11547,7.26899
-252,568,1.07904,-7.39801,0.000264082,0.000483859,-0.00125463,0.0016334,-0.000885462,-0.82908,0.00147548,0.0119541,972,456,1.07903,7.39801
-245,568,1.08441,-7.52612,0.000651916,0.000827966,-0.00140741,0.0021501,-0.000670217,-0.81663,0.00170139,0.0139173,979,456,1.0844,7.52613
-238,568,1.10175,-7.66672,0.00134503,0.00117157,-0.00152843,0.00278919,-0.000272587,-0.757056,0.00195666,0.0128579,986,456,1.10173,7.66673
-231,568,1.09711,-7.80203,0.00190488,0.00140663,-0.00164444,0.00331896,-7.44639e-06,-0.710222,0.00221513,0.0106091,993,456,1.0971,7.80203
-224,568,1.09845,-7.94315,0.00243294,0.0016268,-0.00177345,0.00384854,0.000211193,-0.673656,0.00249827,0.0114067,1000,456,1.09844,7.94313
-217,568,1.1178,-8.06378,0.0029238,0.00192637,-0.00196382,0.00445125,0.00039893,-0.661051,0.00284386,0.0114092,1007,456,1.11778,8.06378
-210,568,1.12811,-8.16632,0.00337251,0.00207256,-0.00184825,0.00468174,0.000763325,-0.616317,0.0029004,0.0124677,1014,456,1.12812,8.16632
-203,568,1.13068,-8.29495,0.00373493,0.00221511,-0.00145031,0.00461236,0.00133768,-0.544081,0.0027401,0.0102564,1021,456,1.13067,8.29495
-196,568,1.12549,-8.38885,0.00480822,0.00200553,-0.00161658,0.00554629,0.00126746,-0.428299,0.0033558,0.0119514,1028,456,1.12543,8.38884
-189,568,1.12415,-8.50488,0.00649701,0.00149677,-0.00220928,0.00733329,0.000660501,-0.36186,0.00468424,0.0123972,1035,456,1.12415,8.50487
-182,568,1.11975,-8.63126,0.00817906,0.000739226,-0.00299574,0.00923536,-0.000317072,-0.338989,0.00626527,0.0139574,1042,456,1.11981,8.63126
-175,568,1.14233,-8.74292,0.0102837,0.00036343,-0.00457103,0.0120688,-0.00142159,-0.372297,0.00855914,0.0114835,1049,456,1.14232,8.74291
-168,568,1.15234,-8.832,0.0127915,0.000576019,-0.007253,0.0161658,-0.00279836,-0.435454,0.0118209,0.0147031,1056,456,1.15233,8.832
-161,568,1.13806,-8.9082,0.0151696,8.21078e-05,-0.00964988,0.0198744,-0.00462275,-0.453643,0.0150294,0.0244783,1063,456,1.13809,8.90821
-154,568,1.25391,-9.07919,0.0175154,3.80446e-05,-0.0124542,0.0239909,-0.00643747,-0.479477,0.0185166,0.0328116,1070,456,1.25392,9.0792
-147,568,1.32471,-9.10019,0.0197466,0.000357086,-0.0153759,0.0282289,-0.00812522,-0.50412,0.0220328,0.0389074,1077,456,1.32476,9.1002
-140,568,1.24109,-9.16772,0.0218715,0.000920206,-0.0188603,0.0329701,-0.0101784,-0.531895,0.0260445,0.0444488,1084,456,1.2411,9.16773
-133,568,1.57104,-8.84445,0.0235859,0.00208578,-0.0225318,0.0378007,-0.012129,-0.562815,0.0300702,0.0478027,1091,456,1.57106,8.84445
-126,568,1.26074,-9.01581,0,0,0,0,0,0,0,-1,1098,456,1.26071,9.01581
-119,568,1.14966,-8.97498,0,0,0,0,0,0,0,-1,1105,456,1.14963,8.97499
-112,568,1.20679,-9.42416,0,0,0,0,0,0,0,-1,1112,456,1.20677,9.42416
-105,568,1.12415,-9.77277,0,0,0,0,0,0,0,-1,1119,456,1.1242,9.77275
-98,568,0.83374,-9.75699,0,0,0,0,0,0,0,-1,1126,456,0.833725,9.75699
-91,568,0.57019,-9.44623,0,0,0,0,0,0,0,-1,1133,456,0.570172,9.44623
-84,568,0.461792,-9.7959,0,0,0,0,0,0,0,-1,1140,456,0.461793,9.7959
-77,568,-1.13806,-8.57822,0,0,0,0,0,0,0,-1,1147,456,-1.13807,8.57821
-70,568,-4.09766,-1.42911,0,0,0,0,0,0,0,-1,1154,456,-4.09767,1.4291
-63,568,-5.92273,-3.70752,0,0,0,0,0,0,0,-1,1161,456,-5.92272,3.70751
-56,568,-5.24158,-6.01385,0,0,0,0,0,0,0,-1,1168,456,-5.24161,6.01386
-49,568,-5.24365,-8.33557,0,0,0,0,0,0,0,-1,1175,456,-5.24371,8.33557
-42,568,-0.664795,0.521973,0,0,0,0,0,0,0,-1,1182,456,-0.664829,-0.521984
-35,568,-0.153076,-1.67731,0,0,0,0,0,0,0,-1,1189,456,-0.153068,1.67731
-28,568,1.25439,-4.48798,0,0,0,0,0,0,0,-1,1196,456,1.2544,4.48797
-21,568,0.67749,-12.1535,0,0,0,0,0,0,0,-1,1203,456,0.677509,12.1535
-14,568,0.554199,-11.7061,0,0,0,0,0,0,0,-1,1210,456,0.554181,11.7061
-7,568,0.430908,-11.2586,0,0,0,0,0,0,0,-1,1217,456,0.430853,11.2586
0,568,-1.32825,-9.85458,0,0,0,0,0,0,0,-1,1224,456,-1.32819,9.8546
7,568,-2.46106,-9.92191,-0.0586924,-0.0333243,0.0152796,-0.0261501,-0.0658666,1.13182,0.038296,0.0424035,1231,456,-2.46101,9.92189
14,568,-3.18115,-10.649,-0.0373167,-0.0227364,0.00377574,-0.0218167,-0.0382365,1.33185,0.022149,0.0399049,1238,456,-3.18112,10.649
21,568,-4.20703,-11.0522,-0.0174011,-0.00926766,-0.00673753,-0.00546465,-0.0212041,-1.05693,0.0127123,0.0395734,1245,456,-4.20702,11.0522
28,568,1.9425,-10.0018,0,0,0,0,0,0,0,-1,1252,456,1.9425,10.0018
35,568,2.15369,-10.0822,0.0164892,0.0218366,-0.0248918,0.0441978,-0.00587209,-0.838899,0.031605,0.0451223,1259,456,2.15369,10.0822
42,568,2.40576,-10.1357,0.0263717,0.035165,-0.0314302,0.0625046,-0.000967873,-0.854891,0.0419961,0.0460909,1266,456,2.40572,10.1357
49,568,3.33533,-10.555,0.0309357,0.0486001,-0.0353433,0.076198,0.00333775,-0.907839,0.0497234,0.0445232,1273,456,3.33533,10.555
56,568,3.40356,-10.8864,0.0323213,0.0613137,-0.0381047,0.0875865,0.00604852,-0.96716,0.0564829,0.0438507,1280,456,3.40356,10.8864
63,568,3.69666,-11.1918,0.0296594,0.0674153,-0.0373257,0.0903654,0.00670933,-1.01952,0.0581364,0.0426784,1287,456,3.69667,11.1918
70,568,4.09399,-11.1438,0.0228825,0.0690672,-0.0326914,0.0859996,0.00595007,-1.09289,0.0554562,0.0424576,1294,456,4.09402,11.1438
77,568,4.63,-11.1893,0.01231,0.06458,-0.0254795,0.0749449,0.00194504,-1.18445,0.0493277,0.0454864,1301,456,4.63006,11.1893
84,568,4.21692,-10.3785,-0.00315824,0.0536474,-0.0145552,0.0571597,-0.00667052,-1.33402,0.0405134,0.0438523,1308,456,4.21688,10.3786
91,568,3.44446,-12.08,-0.0160382,0.044414,-0.00398895,0.0446761,-0.0163003,-1.50519,0.0364532,0.041716,1315,456,3.44442,12.08
98,568,2.37268,-11.0412,-0.0263614,0.0380815,0.00677209,0.0387855,-0.0270653,1.46722,0.0382192,0.043836,1322,456,2.3727,11.0412
105,568,1.83594,-9.94788,-0.0347334,0.0329016,0.0169149,0.036896,-0.0387278,1.3389,0.0436657,0.0471812,1329,456,1.83592,9.94788
112,568,1.59363,-8.93848,-0.042257,0.0291077,0.0264608,0.0378484,-0.0509976,1.25176,0.0514822,0.0475044,1336,456,1.59363,8.93846
119,568,1.43359,-7.99768,0,0,0,0,0,0,0,-1,1343,456,1.43355,7.99768
126,568,0.947021,-7.56744,0,0,0,0,0,0,0,-1,1350,456,0.947003,7.56743
133,568,2.05408,-14.3701,0,0,0,0,0,0,0,-1,1357,456,2.05406,14.3701
140,568,1.19104,-14.431,-0.0407585,0.0652387,0.0457065,0.0822254,-0.0577452,1.21497,0.081223,0.0486334,1364,456,1.1911,14.431
147,568,0.350952,-14.3606,-0.0418804,0.0885012,0.0452153,0.102647,-0.056026,1.26759,0.0929185,0.0488479,1371,456,0.350901,14.3606
154,568,-0.328003,-13.9509,-0.0476956,0.1067,0.0482981,0.120564,-0.0615594,1.29127,0.106973,0.047853,1378,456,-0.328033,13.9509
161,568,-0.972534,-13.5216,0,0,0,0,0,0,0,-1,1385,456,-0.972561,13.5216
168,568,9.09583,-0.563782,0,0,0,0,0,0,0,-1,1392,456,9.09586,0.563788
175,568,10.5151,0.747498,0,0,0,0,0,0,0,-1,1399,456,10.5152,-0.747501
182,568,6.35095,-3.63361,0,0,0,0,0,0,0,-1,1406,456,6.35093,3.63359
189,568,6.17493,-1.70911,0,0,0,0,0,0,0,-1,1413,456,6.17497,1.70911
196,568,6.04724,0.200836,0,0,0,0,0,0,0,-1,1420,456,6.04724,-0.200835
203,568,5.9281,2.08649,0,0,0,0,0,0,0,-1,1427,456,5.92812,-2.08648
210,568,1.46216,-2.50446,0,0,0,0,0,0,0,-1,1434,456,1.46219,2.50446
217,568,2.62366,-7.86703,0,0,0,0,0,0,0,-1,1441,456,2.62365,7.86704
224,568,1.89819,-7.62418,0,0,0,0,0,0,0,-1,1448,456,1.89817,7.62418
231,568,4.38245,-9.3205,0,0,0,0,0,0,0,-1,1455,456,4.38244,9.32048
238,568,3.88123,-9.43616,0,0,0,0,0,0,0,-1,1462,456,3.88117,9.43617
245,568,3.33423,-8.26453,0,0,0,0,0,0,0,-1,1469,456,3.33419,8.26453
252,568,3.4176,-8.34637,0,0,0,0,0,0,0,-1,1476,456,3.41754,8.34637
259,568,2.94116,-7.55008,0,0,0,0,0,0,0,-1,1483,456,2.94116,7.55009
266,568,3.13147,-8.52509,0,0,0,0,0,0,0,-1,1490,456,3.13152,8.5251
273,568,2.92175,-8.61804,0,0,0,0,0,0,0,-1,1497,456,2.92176,8.61804
280,568,2.92053,-8.43799,0,0,0,0,0,0,0,-1,1504,456,2.92053,8.43798
287,568,3.04651,-8.24185,0.00026011,-0.00151904,-0.00351105,0.00299253,-0.00425146,-0.661327,0.00420332,0.0336322,1511,456,3.04646,8.24186
294,568,3.07446,-8.11472,0.000212346,-0.00186458,-0.00335644,0.0026873,-0.00433953,-0.635372,0.00409416,0.0247357,1518,456,3.07447,8.1147
301,568,3.04956,-7.99591,1.65075e-05,-0.0025286,-0.00341391,0.00238733,-0.00489942,-0.606998,0.00428953,0.0187157,1525,456,3.04954,7.9959
308,568,3.03638,-7.85773,-0.000320035,-0.002528,-0.00343305,0.00218217,-0.00503021,-0.629833,0.00427092,0.0112122,1532,456,3.03641,7.85772
315,568,3.03979,-7.73749,-0.000568579,-0.00262916,-0.00335204,0.00190794,-0.00510567,-0.6363,0.00418725,0.00732455,1539,456,3.03979,7.73749
322,568,3.05603,-7.61444,-0.000730297,-0.00255833,-0.00309551,0.00158332,-0.00487194,-0.641841,0.00388482,0.00929275,1546,456,3.056,7.61443
329,568,3.06396,-7.4559,-0.000832228,-0.0024442,-0.00282278,0.00129737,-0.0045738,-0.646334,0.00356132,0.0102963,1553,456,3.06396,7.45591
336,568,3.08228,-7.30115,-0.000938404,-0.00228453,-0.00248238,0.000960536,-0.00418347,-0.653013,0.00315823,0.0113513,1560,456,3.08226,7.30115
343,568,3.09839,-7.16577,-0.00105901,-0.00210198,-0.00214271,0.000624757,-0.00378575,-0.666031,0.00275579,0.0106105,1567,456,3.09844,7.16577
350,568,3.07166,-7.05054,-0.00111145,-0.0018475,-0.00173548,0.000294599,-0.00325354,-0.680916,0.0022736,0.00929747,1574,456,3.07169,7.05053
357,568,3.07153,-6.91071,-0.00109352,-0.00156524,-0.00130176,-6.42391e-06,-0.00265234,-0.695777,0.00176609,0.00918944,1581,456,3.07152,6.91069
364,568,3.09204,-6.75934,-0.00102029,-0.00119204,-0.000890542,-0.000211494,-0.00200084,-0.737332,0.00126928,0.0115236,1588,456,3.09204,6.75933
371,568,3.06763,-6.61047,-0.000921498,-0.000952825,-0.000496507,-0.000440407,-0.00143391,-0.769629,0.000848152,0.0208846,1595,456,3.06766,6.61047
378,568,3.13562,-6.44574,-0.0007957,-0.000696509,-0.000100008,-0.000634475,-0.000857735,-1.01559,0.000513834,0.020453,1602,456,3.13557,6.44573
385,568,3.08386,-6.27225,-0.000671766,-0.000527277,0.000145412,-0.000437151,-0.000761892,1.01595,0.000441471,0.00983,1609,456,3.08387,6.27226
392,568,3.05359,-6.12051,-0.000350294,-0.000474253,0.000356839,-5.00922e-05,-0.000774455,0.699411,0.000500442,0.0100989,1616,456,3.05358,6.12051
399,568,3.03284,-5.99408,0.000252036,-0.000483752,0.000733255,0.000704513,-0.00093623,0.552884,0.000950427,0.0156789,1623,456,3.03282,5.99409
406,568,3.04651,-5.81805,0.000786093,-0.000500232,0.0010875,0.00140639,-0.00112053,0.518358,0.00146202,0.0142118,1630,456,3.04651,5.81807
413,568,3.04382,-5.62692,0.00112961,-0.000409265,0.0012672,0.00184269,-0.00112234,0.512552,0.00172862,0.0109635,1637,456,3.04379,5.62691
420,568,3.04614,-5.44696,0.00148491,-0.000384646,0.00151627,0.0023314,-0.00123113,0.509167,0.00208927,0.00972767,1644,456,3.04612,5.44696
427,568,3.04553,-5.27457,0.00258789,-0.000419373,0.00236756,0.00388893,-0.00172042,0.502484,0.00331825,0.0120098,1651,456,3.04558,5.27458
434,568,3.05127,-5.1149,0.00449854,-0.000949368,0.0036831,0.00635554,-0.00280637,0.466998,0.00542031,0.0151954,1658,456,3.05125,5.11491
441,568,3.03137,-5.00613,0.00620064,-0.00122701,0.00494788,0.00867342,-0.00369978,0.463459,0.00733352,0.0223373,1665,456,3.03142,5.00612
448,568,3.42847,-4.78317,0.00819336,-0.00151083,0.00651217,0.0114623,-0.00477977,0.465225,0.00963829,0.041579,1672,456,3.42849,4.78318
455,568,3.47449,-4.46906,0,0,0,0,0,0,0,-1,1679,456,3.47454,4.46905
462,568,3.03381,-4.20386,0.0133872,-0.00207081,0.0104477,0.018654,-0.00733768,0.466935,0.0154731,0.0446237,1686,456,3.03382,4.20387
469,568,2.9303,-4.07153,0.0163475,-0.00271194,0.0127836,0.0227626,-0.00912699,0.465102,0.0189642,0.0392461,1693,456,2.93029,4.07152
476,568,3.00574,-3.82507,0.0198124,-0.00333674,0.015227,0.0273646,-0.0108889,0.46042,0.0227582,0.0448986,1700,456,3.00579,3.82508
483,568,3.32544,-3.24133,0.0238048,-0.0047167,0.0175968,0.032194,-0.0131058,0.444868,0.0269167,0.0494327,1707,456,3.32549,3.24133
490,568,3.37524,-2.62216,0,0,0,0,0,0,0,-1,1714,456,3.37522,2.62216
497,568,5.04871,-3.51193,0,0,0,0,0,0,0,-1,1721,456,5.04872,3.51193
504,568,0,0,0,0,0,0,0,0,0,-1,1728,456,0,0
511,568,0,0,0,0,0,0,0,0,0,-1,1735,456,0,0
518,568,0,0,0,0,0,0,0,0,0,-1,1742,456,0,0
525,568,0,0,0,0,0,0,0,0,0,-1,1749,456,0,0
532,568,0,0,0,0,0,0,0,0,0,-1,1756,456,0,0
539,568,0,0,0,0,0,0,0,0,0,-1,1763,456,0,0
546,568,0,0,0,0,0,0,0,0,0,-1,1770,456,0,0
553,568,0,0,0,0,0,0,0,0,0,-1,1777,456,0,0
560,568,0,0,0,0,0,0,0,0,0,-1,1784,456,0,0
567,568,0,0,0,0,0,0,0,0,0,-1,1791,456,0,0
574,568,0,0,0,0,0,0,0,0,0,-1,1798,456,0,0
581,568,0,0,0,0,0,0,0,0,0,-1,1805,456,0,0
588,568,0,0,0,0,0,0,0,0,0,-1,1812,456,0,0
595,568,0,0,0,0,0,0,0,0,0,-1,1819,456,0,0
602,568,0,0,0,0,0,0,0,0,0,-1,1826,456,0,0
609,568,0,0,0,0,0,0,0,0,0,-1,1833,456,0,0
616,568,0,0,0,0,0,0,0,0,0,-1,1840,456,0,0
623,568,0,0,0,0,0,0,0,0,0,-1,1847,456,0,0
630,568,0,0,0,0,0,0,0,0,0,-1,1854,456,0,0
637,568,0,0,0,0,0,0,0,0,0,-1,1861,456,0,0
644,568,0,0,0,0,0,0,0,0,0,-1,1868,456,0,0
651,568,0,0,0,0,0,0,0,0,0,-1,1875,456,0,0
658,568,0,0,0,0,0,0,0,0,0,-1,1882,456,0,0
665,568,0,0,0,0,0,0,0,0,0,-1,1889,456,0,0
672,568,0,0,0,0,0,0,0,0,0,-1,1896,456,0,0
679,568,0,0,0,0,0,0,0,0,0,-1,1903,456,0,0
686,568,0,0,0,0,0,0,0,0,0,-1,1910,456,0,0
693,568,0,0,0,0,0,0,0,0,0,-1,1917,456,0,0
700,568,0,0,0,0,0,0,0,0,0,-1,1924,456,0,0
707,568,0,0,0,0,0,0,0,0,0,-1,1931,456,0,0
714,568,0,0,0,0,0,0,0,0,0,-1,1938,456,0,0
721,568,0,0,0,0,0,0,0,0,0,-1,1945,456,0,0
728,568,0,0,0,0,0,0,0,0,0,-1,1952,456,0,0
735,568,0,0,0,0,0,0,0,0,0,-1,1959,456,0,0
742,568,0,0,0,0,0,0,0,0,0,-1,1966,456,0,0
749,568,0,0,0,0,0,0,0,0,0,-1,1973,456,0,0
756,568,0,0,0,0,0,0,0,0,0,-1,1980,456,0,0
763,568,0,0,0,0,0,0,0,0,0,-1,1987,456,0,0
770,568,0,0,0,0,0,0,0,0,0,-1,1994,456,0,0
777,568,0,0,0,0,0,0,0,0,0,-1,2001,456,0,0
784,568,0,0,0,0,0,0,0,0,0,-1,2008,456,0,0
791,568,0,0,0,0,0,0,0,0,0,-1,2015,456,0,0
798,568,0,0,0,0,0,0,0,0,0,-1,2022,456,0,0
805,568,0,0,0,0,0,0,0,0,0,-1,2029,456,0,0
812,568,0,0,0,0,0,0,0,0,0,-1,2036,456,0,0
-700,561,0,0,0,0,0,0,0,0,0,-1,524,463,0,0
-693,561,0,0,0,0,0,0,0,0,0,-1,531,463,0,0
-686,561,0,0,0,0,0,0,0,0,0,-1,538,463,0,0
-679,561,0,0,0,0,0,0,0,0,0,-1,545,463,0,0
-672,561,0,0,0,0,0,0,0,0,0,-1,552,463,0,0
-665,561,0,0,0,0,0,0,0,0,0,-1,559,463,0,0
-658,561,0,0,0,0,0,0,0,0,0,-1,566,463,0,0
-651,561,0,0,0,0,0,0,0,0,0,-1,573,463,0,0
-644,561,0,0,0,0,0,0,0,0,0,-1,580,463,0,0
-637,561,0,0,0,0,0,0,0,0,0,-1,587,463,0,0
-630,561,0,0,0,0,0,0,0,0,0,-1,594,463,0,0
-623,561,0,0,0,0,0,0,0,0,0,-1,601,463,0,0
-616,561,0,0,0,0,0,0,0,0,0,-1,608,463,0,0
-609,561,0,0,0,0,0,0,0,0,0,-1,615,463,0,0
-602,561,0,0,0,0,0,0,0,0,0,-1,622,463,0,0
-595,561,0,0,0,0,0,0,0,0,0,-1,629,463,0,0
-588,561,0,0,0,0,0,0,0,0,0,-1,636,463,0,0
-581,561,0,0,0,0,0,0,0,0,0,-1,643,463,0,0
-574,561,0,0,0,0,0,0,0,0,0,-1,650,463,0,0
-567,561,0,0,0,0,0,0,0,0,0,-1,657,463,0,0
-560,561,0,0,0,0,0,0,0,0,0,-1,664,463,0,0
-553,561,0,0,0,0,0,0,0,0,0,-1,671,463,0,0
-546,561,0,0,0,0,0,0,0,0,0,-1,678,463,0,0
-539,561,0,0,0,0,0,0,0,0,0,-1,685,463,0,0
-532,561,0,0,0,0,0,0,0,0,0,-1,692,463,0,0
-525,561,0,0,0,0,0,0,0,0,0,-1,699,463,0,0
-518,561,0,0,0,0,0,0,0,0,0,-1,706,463,0,0
-511,561,0,0,0,0,0,0,0,0,0,-1,713,463,0,0
-504,561,0,0,0,0,0,0,0,0,0,-1,720,463,0,0
-497,561,0,0,0,0,0,0,0,0,0,-1,727,463,0,0
-490,561,0,0,0,0,0,0,0,0,0,-1,734,463,0,0
-483,561,0,0,0,0,0,0,0,0,0,-1,741,463,0,0
-476,561,0,0,0,0,0,0,0,0,0,-1,748,463,0,0
-469,561,0,0,0,0,0,0,0,0,0,-1,755,463,0,0
-462,561,0,0,0,0,0,0,0,0,0,-1,762,463,0,0
-455,561,0,0,0,0,0,0,0,0,0,-1,769,463,0,0
-448,561,0,0,0,0,0,0,0,0,0,-1,776,463,0,0
-441,561,0,0,0,0,0,0,0,0,0,-1,783,463,0,0
-434,561,0,0,0,0,0,0,0,0,0,-1,790,463,0,0
-427,561,0,0,0,0,0,0,0,0,0,-1,797,463,0,0
-420,561,0,0,0,0,0,0,0,0,0,-1,804,463,0,0
-413,561,0,0,0,0,0,0,0,0,0,-1,811,463,0,0
-406,561,0,0,0,0,0,0,0,0,0,-1,818,463,0,0
-399,561,0,0,0,0,0,0,0,0,0,-1,825,463,0,0
-392,561,-0.498413,-4.28265,0,0,0,0,0,0,0,-1,832,463,-0.49843,4.28265
-385,561,-0.50647,-4.17508,0.0545502,0.0283817,-0.0122057,0.0593594,0.0235725,-0.375337,0.0345122,0.049858,839,463,-0.506441,4.17507
-378,561,-0.194885,-3.97186,0.0489804,0.0217537,-0.0138366,0.0547777,0.0159564,-0.396765,0.0325313,0.0471233,846,463,-0.194871,3.97187
-371,561,0.185974,-4.26169,0.0426017,0.0135391,-0.0121043,0.0469826,0.00915817,-0.347265,0.0287592,0.0465308,853,463,0.185967,4.2617
-364,561,0.57135,-4.56784,0.0374484,0.00582267,-0.0100445,0.0403689,0.00290218,-0.282954,0.0259992,0.0448875,860,463,0.571359,4.56785
-357,561,0.988342,-4.86755,0,0,0,0,0,0,0,-1,867,463,0.988358,4.86755
-350,561,0.78186,-4.81131,0,0,0,0,0,0,0,-1,874,463,0.781847,4.81132
-343,561,1.0993,-5.05075,0.0227782,-0.00945576,-0.00653947,0.0240544,-0.0107319,-0.192727,0.020569,0.0466547,881,463,1.09929,5.05076
-336,561,1.12933,-5.48026,0.0189389,-0.0120027,-0.00542274,0.0198618,-0.0129255,-0.168567,0.0190704,0.045031,888,463,1.12936,5.48027
-329,561,1.05835,-5.81598,0.0155762,-0.0130138,-0.00438843,0.0162346,-0.0136722,-0.148929,0.0172878,0.0333931,895,463,1.05835,5.81598
-322,561,1.0899,-5.9454,0.0126892,-0.0139211,-0.0033594,0.0131067,-0.0143387,-0.12366,0.0158509,0.0263282,902,463,1.08989,5.94541
-315,561,1.0744,-6.06714,0.010058,-0.0129694,-0.00275122,0.0103822,-0.0132936,-0.117277,0.0137036,0.0197442,909,463,1.07442,6.06715
-308,561,1.01819,-6.21289,0.00785204,-0.0112693,-0.00217229,0.00809572,-0.011513,-0.111709,0.0113783,0.0147525,916,463,1.01819,6.21289
-301,561,1.01501,-6.40204,0.00643184,-0.00902451,-0.00178534,0.00663538,-0.00922805,-0.113517,0.00919944,0.0113775,923,463,1.01501,6.40205
-294,561,0.988281,-6.54758,0.00507439,-0.00676458,-0.00149505,0.00526027,-0.00695047,-0.123696,0.00707235,0.00968492,930,463,0.988254,6.54756
-287,561,0.97821,-6.68774,0.00391739,-0.00515056,-0.00128509,0.00409599,-0.00532916,-0.138096,0.00545712,0.00874451,937,463,0.978186,6.68773
-280,561,0.976318,-6.84753,0.00299397,-0.00362448,-0.00122223,0.00321247,-0.00384298,-0.1769,0.00407888,0.0111318,944,463,0.976342,6.84755
-273,561,0.979492,-7.00162,0.00225189,-0.00195359,-0.000876104,0.0024271,-0.0021288,-0.197388,0.00263223,0.0130772,951,463,0.979481,7.00161
-266,561,0.985962,-7.14224,0.00170523,-0.00059992,-0.00106609,0.00212268,-0.00101737,-0.373217,0.00184997,0.00901869,958,463,0.985947,7.14225
-259,561,0.967834,-7.25983,0.00122742,0.000263924,-0.00121125,0.00204921,-0.000557862,-0.596125,0.00158516,0.00976703,965,463,0.967854,7.25982
-252,561,0.953918,-7.39395,0.00123165,0.000600708,-0.00125264,0.00220793,-0.000375574,-0.662041,0.0016118,0.0130242,972,463,0.953916,7.39396
-245,561,0.961975,-7.534,0.00166112,0.000821389,-0.00146203,0.00276238,-0.000279869,-0.645571,0.00194161,0.015716,979,463,0.961963,7.53398
-238,561,0.975403,-7.67361,0.00240281,0.00108845,-0.00168426,0.00355356,-6.2307e-05,-0.599388,0.00239008,0.0130173,986,463,0.975419,7.67362
-231,561,0.965027,-7.81064,0.00302121,0.00132787,-0.00192475,0.00427728,7.18033e-05,-0.578192,0.00282789,0.010233,993,463,0.965016,7.81063
-224,561,0.96228,-7.94699,0.00365541,0.00162127,-0.002199,0.00506116,0.000215524,-0.568792,0.00330461,0.00963655,1000,463,0.962265,7.947
-217,561,0.999023,-8.0672,0.00422961,0.00202384,-0.00250818,0.00586668,0.000386776,-0.578264,0.00378878,0.00968661,1007,463,0.999035,8.06719
-210,561,1.01526,-8.177,0.00481851,0.00243385,-0.00246435,0.00636382,0.000888546,-0.560083,0.00397957,0.0122416,1014,463,1.01528,8.17701
-203,561,1.00299,-8.29861,0.0053335,0.00282812,-0.00203754,0.00647263,0.00168899,-0.509781,0.00387674,0.0138837,1021,463,1.00296,8.29861
-196,561,1.01636,-8.3952,0.00712174,0.00252484,-0.00250379,0.00822209,0.00142449,-0.414066,0.00507367,0.0128708,1028,463,1.01632,8.39522
-189,561,1.00623,-8.49789,0.00980619,0.00177806,-0.00366256,0.011226,0.000358243,-0.369821,0.00736749,0.0150739,1035,463,1.0062,8.4979
-182,561,1.03137,-8.63882,0.0122804,0.000821519,-0.00505463,0.0141914,-0.00108944,-0.361452,0.0098442,0.017238,1042,463,1.0314,8.63881
-175,561,1.07581,-8.76999,0.0153464,0.00035415,-0.00746721,0.018431,-0.00273041,-0.391732,0.0132913,0.0246143,1049,463,1.07579,8.76998
-168,561,1.03345,-8.92618,0.0189497,0.000668432,-0.011305,0.0243471,-0.00472895,-0.445432,0.0180158,0.0360797,1056,463,1.03346,8.92618
-161,561,0.91748,-9.01111,0.0223992,-3.28365e-05,-0.0147031,0.0296758,-0.0073095,-0.459566,0.0226176,0.0422328,1063,463,0.917474,9.01111
-154,561,0.953247,-9.08408,0.0256856,-0.000119231,-0.0186053,0.0354246,-0.00985816,-0.48223,0.0274979,0.0474128,1070,463,0.953279,9.08408
-147,561,1.06909,-9.13211,0,0,0,0,0,0,0,-1,1077,463,1.06904,9.1321
-140,561,1.27783,-9.12436,0,0,0,0,0,0,0,-1,1084,463,1.27788,9.12437
-133,561,1.75488,-8.44315,0,0,0,0,0,0,0,-1,1091,463,1.75489,8.44314
-126,561,0.151367,-9.30923,0,0,0,0,0,0,0,-1,1098,463,0.151417,9.30923
-119,561,0.657349,-10.061,0,0,0,0,0,0,0,-1,1105,463,0.657294,10.061
-112,561,1.6554,-7.92682,0,0,0,0,0,0,0,-1,1112,463,1.65536,7.92683
-105,561,0.954102,-8.35388,0,0,0,0,0,0,0,-1,1119,463,0.954082,8.35388
-98,561,2.0647,-7.44724,0,0,0,0,0,0,0,-1,1126,463,2.06467,7.44724
-91,561,-0.767456,-6.61673,0,0,0,0,0,0,0,-1,1133,463,-0.76745,6.61672
-84,561,-2.70227,-8.30252,0,0,0,0,0,0,0,-1,1140,463,-2.70232,8.30253
-77,561,-2.36023,1.00204,0,0,0,0,0,0,0,-1,1147,463,-2.3602,-1.00205
-70,561,-3.90015,-1.41541,0,0,0,0,0,0,0,-1,1154,463,-3.90009,1.4154
-63,561,-6.41077,-3.87982,0,0,0,0,0,0,0,-1,1161,463,-6.41074,3.87982
-56,561,-5.37988,-6.66855,0,0,0,0,0,0,0,-1,1168,463,-5.37988,6.66854
-49,561,-5.7439,-9.11029,0,0,0,0,0,0,0,-1,1175,463,-5.74387,9.1103
-42,561,-1.72644,-5.63065,0,0,0,0,0,0,0,-1,1182,463,-1.72648,5.63064
-35,561,-1.65674,-4.87994,0,0,0,0,0,0,0,-1,1189,463,-1.6567,4.87993
-28,561,-1.91418,-3.86896,0,0,0,0,0,0,0,-1,1196,463,-1.91414,3.86895
-21,561,-0.554443,-12.6676,0,0,0,0,0,0,0,-1,1203,463,-0.554392,12.6676
-14,561,-0.569946,-12.357,0,0,0,0,0,0,0,-1,1210,463,-0.569943,12.357
-7,561,-0.585449,-12.0464,0,0,0,0,0,0,0,-1,1217,463,-0.585495,12.0464
0,561,-2.43335,-9.62042,0,0,0,0,0,0,0,-1,1224,463,-2.4334,9.62043
7,561,-3.15503,-9.8689,-0.0711978,-0.0407307,0.0228608,-0.0284929,-0.0834356,1.07929,0.0489717,0.0418556,1231,463,-3.15501,9.8689
14,561,-3.84436,-10.2178,-0.043924,-0.0270453,0.00781907,-0.0239798,-0.0469895,1.19716,0.0271313,0.0381168,1238,463,-3.8444,10.2178
21,561,-4.5697,-10.2157,-0.0193436,-0.00940864,-0.00595072,-0.00662455,-0.0221277,-1.13319,0.0131138,0.0391278,1245,463,-4.5697,10.2157
28,561,1.90857,-9.88998,0,0,0,0,0,0,0,-1,1252,463,1.90851,9.88999
35,561,2.10339,-9.99329,0.0215286,0.0298663,-0.0294173,0.0554086,-0.0040138,-0.855787,0.0383471,0.0467058,1259,463,2.10338,9.9933
42,561,2.14941,-10.2066,0.0337523,0.0462282,-0.0378968,0.078397,0.00158349,-0.866969,0.0517449,0.0483968,1266,463,2.14941,10.2066
49,561,2.21228,-10.3894,0.0395968,0.0625471,-0.0439832,0.0965274,0.0056165,-0.913003,0.0625635,0.046682,1273,463,2.21234,10.3894
56,561,3.5614,-11.0913,0.0413811,0.0780694,-0.0486006,0.111673,0.00777791,-0.965855,0.0719959,0.0412866,1280,463,3.56142,11.0914
63,561,4.11121,-11.5308,0.0373913,0.0848483,-0.0482757,0.114912,0.00732768,-1.01382,0.0742859,0.0425791,1287,463,4.11115,11.5308
70,561,4.71997,-11.9809,0.0285105,0.0855976,-0.0430559,0.108712,0.00539609,-1.07811,0.0707446,0.0434353,1294,463,4.71998,11.9809
77,561,6.57532,-13.1234,0.0156378,0.079284,-0.035056,0.0948068,0.000115048,-1.15395,0.0631662,0.0435942,1301,463,6.57534,13.1234
84,561,5.073,-12.4085,-0.00393386,0.0641895,-0.0219113,0.0706285,-0.0103728,-1.28498,0.0508969,0.0428433,1308,463,5.07294,12.4085
91,561,3.70007,-11.9011,-0.0196329,0.0508267,-0.00957071,0.0521035,-0.0209098,-1.43816,0.0434177,0.040611,1315,463,3.70003,11.9011
98,561,2.66211,-11.3307,-0.0318484,0.0413962,0.00265505,0.0414923,-0.0319446,1.53461,0.0425181,0.0431084,1322,463,2.66216,11.3307
105,561,1.96411,-9.77609,0,0,0,0,0,0,0,-1,1329,463,1.96406,9.77608
112,561,1.9585,-8.20609,-0.0507538,0.027942,0.0250389,0.0352331,-0.0580449,1.28744,0.0543883,0.0469156,1336,463,1.95852,8.20607
119,561,1.53845,-7.01129,-0.0542518,0.0224847,0.0371946,0.0375539,-0.069321,1.18586,0.0626063,0.0430032,1343,463,1.5385,7.01129
126,561,1.22546,-6.05966,0,0,0,0,0,0,0,-1,1350,463,1.22541,6.05968
133,561,-4.52307,-13.7372,0,0,0,0,0,0,0,-1,1357,463,-4.52306,13.7372
140,561,0.559082,-15.8365,0,0,0,0,0,0,0,-1,1364,463,0.559043,15.8366
147,561,-0.243286,-15.4048,-0.0504226,0.101231,0.0462635,0.11423,-0.0634215,1.29688,0.103956,0.0487964,1371,463,-0.243314,15.4048
154,561,-0.869019,-14.7416,-0.0607475,0.125418,0.0522264,0.139068,-0.0743981,1.31514,0.125116,0.0478864,1378,463,-0.86896,14.7417
161,561,-1.07043,-14.1052,0,0,0,0,0,0,0,-1,1385,463,-1.07039,14.1052
168,561,-6.27832,-17.6375,0,0,0,0,0,0,0,-1,1392,463,-6.27827,17.6375
175,561,10.4185,0.276398,0,0,0,0,0,0,0,-1,1399,463,10.4185,-0.276394
182,561,6.45703,-4.02127,0,0,0,0,0,0,0,-1,1406,463,6.45704,4.02127
189,561,6.50854,-2.08685,0,0,0,0,0,0,0,-1,1413,463,6.50851,2.08686
196,561,6.44775,-0.27182,0,0,0,0,0,0,0,-1,1420,463,6.44773,0.271814
203,561,6.18591,1.1301,0,0,0,0,0,0,0,-1,1427,463,6.18592,-1.13009
210,561,5.68713,2.68427,0,0,0,0,0,0,0,-1,1434,463,5.6871,-2.68425
217,561,3.61743,-7.33582,0,0,0,0,0,0,0,-1,1441,463,3.61738,7.33581
224,561,4.27466,-8.59171,0,0,0,0,0,0,0,-1,1448,463,4.27466,8.59171
231,561,4.93188,-9.8476,0,0,0,0,0,0,0,-1,1455,463,4.93193,9.84761
238,561,2.18018,-5.18359,0,0,0,0,0,0,0,-1,1462,463,2.18023,5.18359
245,561,3.07568,-3.50238,0,0,0,0,0,0,0,-1,1469,463,3.0757,3.50238
252,561,3.47412,-3.71109,0,0,0,0,0,0,0,-1,1476,463,3.47413,3.71109
259,561,3.42212,-3.2334,0,0,0,0,0,0,0,-1,1483,463,3.42214,3.2334
266,561,4.44373,-5.90027,0,0,0,0,0,0,0,-1,1490,463,4.44372,5.90026
273,561,2.59485,-3.65268,0,0,0,0,0,0,0,-1,1497,463,2.5948,3.65268
280,561,3.10767,-6.38235,0,0,0,0,0,0,0,-1,1504,463,3.10766,6.38235
287,561,3.16577,-8.2265,0,0,0,0,0,0,0,-1,1511,463,3.16579,8.2265
294,561,3.29395,-8.06927,3.5438e-05,-0.0029859,-0.00463423,0.00339901,-0.00634947,-0.627839,0.00571357,0.0464608,1518,463,3.29392,8.06927
301,561,3.28516,-8.01282,-0.000204885,-0.00381516,-0.00474519,0.00306692,-0.00708696,-0.603644,0.00601355,0.0404517,1525,463,3.28518,8.01283
308,561,3.21021,-7.82968,-0.000765748,-0.00376402,-0.00488612,0.00284604,-0.00737581,-0.636549,0.00609168,0.0288935,1532,463,3.21025,7.82967
315,561,3.1781,-7.72986,-0.00116881,-0.00384207,-0.0048367,0.00251255,-0.00752343,-0.650587,0.00603022,0.0183403,1539,463,3.17816,7.72986
322,561,3.19165,-7.62592,-0.00141434,-0.00373279,-0.00455336,0.00212504,-0.00727217,-0.660753,0.0056903,0.0186465,1546,463,3.1916,7.6259
329,561,3.19275,-7.46204,-0.00155574,-0.00355558,-0.0042468,0.00180727,-0.00691859,-0.669778,0.00531818,0.0133055,1553,463,3.19269,7.46205
336,561,3.2334,-7.30777,-0.00164771,-0.00351587,-0.00379931,0.00133066,-0.00649424,-0.664862,0.00483448,0.0112067,1560,463,3.23339,7.30777
343,561,3.23669,-7.17892,-0.00177035,-0.00343644,-0.00340641,0.000903406,-0.00611019,-0.665476,0.00440558,0.00977416,1567,463,3.23673,7.17892
350,561,3.21057,-7.04047,-0.0018102,-0.00326808,-0.00296249,0.000511706,-0.00558999,-0.664766,0.00390841,0.00904911,1574,463,3.21058,7.04046
357,561,3.21765,-6.89801,-0.00174306,-0.00308187,-0.00245872,0.000135754,-0.00496068,-0.65249,0.00335329,0.00952277,1581,463,3.21759,6.89802
364,561,3.22827,-6.75568,-0.00159602,-0.00273688,-0.00196093,-0.000124238,-0.00420866,-0.643855,0.00276529,0.00940297,1588,463,3.22825,6.75568
371,561,3.20313,-6.60669,-0.00140896,-0.00243849,-0.0014682,-0.000367903,-0.00347955,-0.616788,0.00220731,0.0165686,1595,463,3.20317,6.60668
378,561,3.2135,-6.43179,-0.00118881,-0.00207346,-0.000983095,-0.000553111,-0.00270915,-0.574,0.00165287,0.0125879,1602,463,3.21347,6.4318
385,561,3.22595,-6.26608,-0.000999303,-0.00175188,-0.000625439,-0.000645682,-0.0021055,-0.514587,0.00124553,0.010273,1609,463,3.22601,6.26607
392,561,3.22913,-6.10309,-0.000646641,-0.00151847,-0.000303177,-0.000551577,-0.00161353,-0.303849,0.00094698,0.0132014,1616,463,3.22916,6.10309
399,561,3.22498,-5.95486,-6.04869e-05,-0.00130293,0.000127506,-4.75366e-05,-0.00131588,0.10122,0.000861844,0.0190389,1623,463,3.22492,5.95486
406,561,3.22974,-5.79953,0.000475295,-0.00101526,0.000571617,0.000669264,-0.00120923,0.327141,0.00109938,0.0168445,1630,463,3.22978,5.79955
413,561,3.22632,-5.6355,0.000859071,-0.000690835,0.000874484,0.00125257,-0.00108433,0.422834,0.00135037,0.0148092,1637,463,3.22626,5.63551
420,561,3.20813,-5.45392,0.00120169,-0.000437242,0.00118148,0.00182008,-0.00105563,0.482192,0.00167973,0.0120448,1644,463,3.2081,5.45392
427,561,3.21143,-5.26135,0.00200978,-0.000261026,0.00189448,0.00308304,-0.00133429,0.515438,0.00261612,0.0100216,1651,463,3.21141,5.26134
434,561,3.21631,-5.08545,0.00335906,-0.000509501,0.00291699,0.00492482,-0.00207526,0.492631,0.00415161,0.0115579,1658,463,3.21634,5.08546
441,561,3.2002,-4.95233,0.00455795,-0.000616564,0.00391195,0.00666081,-0.00271943,0.493234,0.00557277,0.0137772,1665,463,3.20018,4.95232
448,561,3.21375,-4.80035,0.005933,-0.000777789,0.00510479,0.00868642,-0.0035312,0.494652,0.00726014,0.0192103,1672,463,3.21377,4.80036
455,561,3.37463,-4.54849,0.00757562,-0.000822744,0.00639735,0.0110288,-0.00427596,0.494969,0.00911843,0.0363327,1679,463,3.37458,4.54851
462,561,3.30847,-4.29388,0.00951792,-0.00108139,0.00797018,0.0137896,-0.00535306,0.491997,0.0114042,0.0334453,1686,463,3.30851,4.29389
469,561,3.15039,-4.12357,0.011581,-0.00166004,0.00959868,0.016621,-0.00669995,0.483496,0.0138645,0.0232933,1693,463,3.15042,4.12356
476,561,3.04333,-3.77292,0.0140234,-0.00217836,0.0113255,0.019847,-0.00800196,0.474945,0.0165563,0.0410477,1700,463,3.04335,3.77291
483,561,2.94189,-3.38211,0,0,0,0,0,0,0,-1,1707,463,2.94189,3.38213
490,561,6.13806,-3.71606,0,0,0,0,0,0,0,-1,1714,463,6.13809,3.71606
497,561,6.27173,-3.02441,0,0,0,0,0,0,0,-1,1721,463,6.2717,3.02441
504,561,6.45044,-2.35263,0,0,0,0,0,0,0,-1,1728,463,6.4504,2.35263
511,561,0,0,0,0,0,0,0,0,0,-1,1735,463,0,0
518,561,0,0,0,0,0,0,0,0,0,-1,1742,463,0,0
525,561,0,0,0,0,0,0,0,0,0,-1,1749,463,0,0
532,561,0,0,0,0,0,0,0,0,0,-1,1756,463,0,0
539,561,0,0,0,0,0,0,0,0,0,-1,1763,463,0,0
546,561,0,0,0,0,0,0,0,0,0,-1,1770,463,0,0
553,561,0,0,0,0,0,0,0,0,0,-1,1777,463,0,0
560,561,0,0,0,0,0,0,0,0,0,-1,1784,463,0,0
567,561,0,0,0,0,0,0,0,0,0,-1,1791,463,0,0
574,561,0,0,0,0,0,0,0,0,0,-1,1798,463,0,0
581,561,0,0,0,0,0,0,0,0,0,-1,1805,463,0,0
588,561,0,0,0,0,0,0,0,0,0,-1,1812,463,0,0
595,561,0,0,0,0,0,0,0,0,0,-1,1819,463,0,0
602,561,0,0,0,0,0,0,0,0,0,-1,1826,463,0,0
609,561,0,0,0,0,0,0,0,0,0,-1,1833,463,0,0
616,561,0,0,0,0,0,0,0,0,0,-1,1840,463,0,0
623,561,0,0,0,0,0,0,0,0,0,-1,1847,463,0,0
630,561,0,0,0,0,0,0,0,0,0,-1,1854,463,0,0
637,561,0,0,0,0,0,0,0,0,0,-1,1861,463,0,0
644,561,0,0,0,0,0,0,0,0,0,-1,1868,463,0,0
651,561,0,0,0,0,0,0,0,0,0,-1,1875,463,0,0
658,561,0,0,0,0,0,0,0,0,0,-1,1882,463,0,0
665,561,0,0,0,0,0,0,0,0,0,-1,1889,463,0,0
672,561,0,0,0,0,0,0,0,0,0,-1,1896,463,0,0
679,561,0,0,0,0,0,0,0,0,0,-1,1903,463,0,0
686,561,0,0,0,0,0,0,0,0,0,-1,1910,463,0,0
693,561,0,0,0,0,0,0,0,0,0,-1,1917,463,0,0
700,561,0,0,0,0,0,0,0,0,0,-1,1924,463,0,0
707,561,0,0,0,0,0,0,0,0,0,-1,1931,463,0,0
714,561,0,0,0,0,0,0,0,0,0,-1,1938,463,0,0
721,561,0,0,0,0,0,0,0,0,0,-1,1945,463,0,0
728,561,0,0,0,0,0,0,0,0,0,-1,1952,463,0,0
735,561,0,0,0,0,0,0,0,0,0,-1,1959,463,0,0
742,561,0,0,0,0,0,0,0,0,0,-1,1966,463,0,0
749,561,0,0,0,0,0,0,0,0,0,-1,1973,463,0,0
756,561,0,0,0,0,0,0,0,0,0,-1,1980,463,0,0
763,561,0,0,0,0,0,0,0,0,0,-1,1987,463,0,0
770,561,0,0,0,0,0,0,0,0,0,-1,1994,463,0,0
777,561,0,0,0,0,0,0,0,0,0,-1,2001,463,0,0
784,561,0,0,0,0,0,0,0,0,0,-1,2008,463,0,0
791,561,0,0,0,0,0,0,0,0,0,-1,2015,463,0,0
798,561,0,0,0,0,0,0,0,0,0,-1,2022,463,0,0
805,561,0,0,0,0,0,0,0,0,0,-1,2029,463,0,0
812,561,0,0,0,0,0,0,0,0,0,-1,2036,463,0,0
-700,554,0,0,0,0,0,0,0,0,0,-1,524,470,0,0
-693,554,0,0,0,0,0,0,0,0,0,-1,531,470,0,0
-686,554,0,0,0,0,0,0,0,0,0,-1,538,470,0,0
-679,554,0,0,0,0,0,0,0,0,0,-1,545,470,0,0
-672,554,0,0,0,0,0,0,0,0,0,-1,552,470,0,0
-665,554,0,0,0,0,0,0,0,0,0,-1,559,470,0,0
-658,554,0,0,0,0,0,0,0,0,0,-1,566,470,0,0
-651,554,0,0,0,0,0,0,0,0,0,-1,573,470,0,0
-644,554,0,0,0,0,0,0,0,0,0,-1,580,470,0,0
-637,554,0,0,0,0,0,0,0,0,0,-1,587,470,0,0
-630,554,0,0,0,0,0,0,0,0,0,-1,594,470,0,0
-623,554,0,0,0,0,0,0,0,0,0,-1,601,470,0,0
-616,554,0,0,0,0,0,0,0,0,0,-1,608,470,0,0
-609,554,0,0,0,0,0,0,0,0,0,-1,615,470,0,0
-602,554,0,0,0,0,0,0,0,0,0,-1,622,470,0,0
-595,554,0,0,0,0,0,0,0,0,0,-1,629,470,0,0
-588,554,0,0,0,0,0,0,0,0,0,-1,636,470,0,0
-581,554,0,0,0,0,0,0,0,0,0,-1,643,470,0,0
-574,554,0,0,0,0,0,0,0,0,0,-1,650,470,0,0
-567,554,0,0,0,0,0,0,0,0,0,-1,657,470,0,0
-560,554,0,0,0,0,0,0,0,0,0,-1,664,470,0,0
-553,554,0,0,0,0,0,0,0,0,0,-1,671,470,0,0
-546,554,0,0,0,0,0,0,0,0,0,-1,678,470,0,0
-539,554,0,0,0,0,0,0,0,0,0,-1,685,470,0,0
-532,554,0,0,0,0,0,0,0,0,0,-1,692,470,0,0
-525,554,0,0,0,0,0,0,0,0,0,-1,699,470,0,0
-518,554,0,0,0,0,0,0,0,0,0,-1,706,470,0,0
-511,554,0,0,0,0,0,0,0,0,0,-1,713,470,0,0
-504,554,0,0,0,0,0,0,0,0,0,-1,720,470,0,0
-497,554,0,0,0,0,0,0,0,0,0,-1,727,470,0,0
-490,554,0,0,0,0,0,0,0,0,0,-1,734,470,0,0
-483,554,0,0,0,0,0,0,0,0,0,-1,741,470,0,0
-476,554,0,0,0,0,0,0,0,0,0,-1,748,470,0,0
-469,554,0,0,0,0,0,0,0,0,0,-1,755,470,0,0
-462,554,0,0,0,0,0,0,0,0,0,-1,762,470,0,0
-455,554,0,0,0,0,0,0,0,0,0,-1,769,470,0,0
-448,554,0,0,0,0,0,0,0,0,0,-1,776,470,0,0
-441,554,0,0,0,0,0,0,0,0,0,-1,783,470,0,0
-434,554,0,0,0,0,0,0,0,0,0,-1,790,470,0,0
-427,554,0,0,0,0,0,0,0,0,0,-1,797,470,0,0
-420,554,0,0,0,0,0,0,0,0,0,-1,804,470,0,0
-413,554,0,0,0,0,0,0,0,0,0,-1,811,470,0,0
-406,554,0,0,0,0,0,0,0,0,0,-1,818,470,0,0
-399,554,1.22241,-4.88776,0,0,0,0,0,0,0,-1,825,470,1.2224,4.88775
-392,554,-0.667969,-3.71759,0,0,0,0,0,0,0,-1,832,470,-0.667998,3.71759
-385,554,-0.377991,-4.06265,0.0458224,0.0258925,-0.0109205,0.0506412,0.0210737,-0.415559,0.0293745,0.0481198,839,470,-0.37801,4.06266
-378,554,-0.0618286,-4.44217,0.0408926,0.0204485,-0.0114681,0.0460331,0.0153079,-0.421392,0.0270695,0.0455867,846,470,-0.0618537,4.44217
-371,554,0.0684204,-4.48541,0.0353513,0.0139481,-0.0101792,0.0394193,0.00988011,-0.380192,0.0236834,0.0465976,853,470,0.0684178,4.4854
-364,554,0.372986,-4.60822,0.030503,0.00767209,-0.00866799,0.033421,0.00475413,-0.324719,0.0208772,0.0465713,860,470,0.372991,4.60821
-357,554,0.78064,-4.93436,0,0,0,0,0,0,0,-1,867,470,0.780651,4.93436
-350,554,0.939148,-5.25082,0,0,0,0,0,0,0,-1,874,470,0.93915,5.25082
-343,554,0.938965,-5.39322,0.0176104,-0.00510497,-0.00576412,0.0189894,-0.00648392,-0.234818,0.0152864,0.0433395,881,470,0.938979,5.39323
-336,554,0.925537,-5.60034,0.014388,-0.0074487,-0.00482103,0.015405,-0.0084657,-0.207904,0.0139745,0.0315914,888,470,0.925514,5.60033
-329,554,0.856445,-5.78595,0.011545,-0.0084387,-0.00392021,0.0122865,-0.00918021,-0.186943,0.012437,0.016104,895,470,0.856461,5.78594
-322,554,0.864258,-5.93585,0.00926451,-0.00934313,-0.00307613,0.00975986,-0.00983847,-0.159658,0.0113151,0.0101349,902,470,0.864241,5.93586
-315,554,0.871338,-6.0864,0.00723549,-0.00876269,-0.00255634,0.00763403,-0.00916124,-0.15466,0.00971011,0.0108034,909,470,0.871345,6.08641
-308,554,0.858887,-6.24649,0.00552502,-0.00762116,-0.00201541,0.00582706,-0.00792319,-0.148757,0.0079694,0.0129174,916,470,0.858889,6.24648
-301,554,0.871155,-6.41522,0.00460084,-0.00599524,-0.00165794,0.00485419,-0.0062486,-0.15164,0.00642703,0.0131907,923,470,0.871136,6.41522
-294,554,0.840271,-6.55582,0.00378886,-0.00435441,-0.00139818,0.00402223,-0.00458779,-0.165389,0.00497457,0.0109378,930,470,0.840255,6.55583
-287,554,0.82428,-6.7012,0.00315818,-0.00326628,-0.00118794,0.00337081,-0.0034789,-0.17711,0.00395485,0.0102434,937,470,0.824307,6.70119
-280,554,0.828003,-6.83594,0.00272878,-0.0022748,-0.00115998,0.00298461,-0.00253063,-0.217078,0.00318782,0.0100897,944,470,0.82798,6.83593
-273,554,0.828003,-7.00195,0.00237807,-0.00114128,-0.000948977,0.00261765,-0.00138086,-0.247292,0.00234506,0.0136216,951,470,0.827979,7.00197
-266,554,0.827026,-7.14514,0.00217935,-0.000229558,-0.00108755,0.00259769,-0.000647902,-0.367219,0.00198336,0.01135,958,470,0.827027,7.14515
-259,554,0.8349,-7.26614,0.00208268,0.000280907,-0.00121727,0.00269617,-0.000332583,-0.466834,0.00191795,0.0107623,965,470,0.834904,7.26613
-252,554,0.808228,-7.39005,0.00231045,0.000511519,-0.00136211,0.00304328,-0.000221313,-0.493592,0.0021065,0.0123928,972,470,0.808215,7.39003
-245,554,0.800049,-7.51489,0.0028794,0.000738382,-0.00168455,0.00380481,-0.000187027,-0.502346,0.00260112,0.0146296,979,470,0.800072,7.51488
-238,554,0.832825,-7.67239,0.00374315,0.00107338,-0.00206219,0.00486479,-4.82637e-05,-0.498155,0.0032594,0.0114598,986,470,0.832794,7.67238
-231,554,0.83905,-7.82251,0.00447327,0.00144487,-0.00247832,0.00586335,5.47834e-05,-0.511172,0.00389077,0.00984236,993,470,0.839036,7.82252
-224,554,0.846313,-7.94232,0.00524705,0.00192846,-0.00293944,0.00696319,0.000212323,-0.528447,0.004573,0.00974583,1000,470,0.846332,7.94231
-217,554,0.858765,-8.05313,0.00595945,0.00258355,-0.00341324,0.00807931,0.000463691,-0.555767,0.00523849,0.00938836,1007,470,0.858773,8.05313
-210,554,0.882996,-8.18787,0.0067278,0.00338699,-0.00346831,0.00890699,0.00120779,-0.56098,0.00557915,0.012986,1014,470,0.883021,8.18786
-203,554,0.907043,-8.3302,0.00738124,0.00409567,-0.00298166,0.00914272,0.00233419,-0.533607,0.00548521,0.0191551,1021,470,0.907048,8.3302
-196,554,0.936035,-8.39847,0.010271,0.00351695,-0.00393077,0.0120762,0.00171177,-0.430513,0.00754522,0.0233995,1028,470,0.936014,8.39847
-189,554,1.03235,-8.4689,0.0144722,0.00224621,-0.00599476,0.0169211,-0.000202689,-0.387817,0.0113489,0.0297366,1035,470,1.03232,8.46889
-182,554,1.0061,-8.64722,0.0180452,0.000940849,-0.00824184,0.0213702,-0.00238416,-0.38346,0.0151044,0.0374465,1042,470,1.00614,8.64721
-175,554,1.0249,-8.76227,0,0,0,0,0,0,0,-1,1049,470,1.0249,8.76226
-168,554,0.924194,-9.03549,0,0,0,0,0,0,0,-1,1056,470,0.924221,9.03549
-161,554,0.609253,-9.06699,0.0321219,-0.000516159,-0.0214412,0.0427479,-0.0111421,-0.460112,0.0328487,0.0450487,1063,470,0.609209,9.06699
-154,554,0.753662,-8.79425,0.0364892,-0.000750012,-0.0265405,0.0502901,-0.0145509,-0.479514,0.0392858,0.0444628,1070,470,0.753637,8.79424
-147,554,0.865356,-8.49319,0,0,0,0,0,0,0,-1,1077,470,0.86537,8.49321
-140,554,0.0633545,-9.05896,0,0,0,0,0,0,0,-1,1084,470,0.0633789,9.05896
-133,554,-0.0616455,-8.79828,0,0,0,0,0,0,0,-1,1091,470,-0.0616165,8.79827
-126,554,0.447144,-9.54794,0.0493365,0.00641289,-0.0514766,0.0836461,-0.0278967,-0.587893,0.0670269,0.0489134,1098,470,0.447187,9.54795
-119,554,0.724609,-10.6022,0.0508864,0.0112965,-0.0582551,0.0926178,-0.0304349,-0.62162,0.0740065,0.04827,1105,470,0.72465,10.6022
-112,554,1.07483,-11.514,0,0,0,0,0,0,0,-1,1112,470,1.07488,11.514
-105,554,2.49744,-7.02872,0,0,0,0,0,0,0,-1,1119,470,2.49741,7.02871
-98,554,-0.573242,-8.06555,0,0,0,0,0,0,0,-1,1126,470,-0.573201,8.06555
-91,554,-0.60437,-5.328,0,0,0,0,0,0,0,-1,1133,470,-0.604344,5.32801
-84,554,-1.47241,3.85419,0,0,0,0,0,0,0,-1,1140,470,-1.47239,-3.8542
-77,554,-2.56958,1.33258,0,0,0,0,0,0,0,-1,1147,470,-2.56959,-1.33257
-70,554,-3.68164,-1.18332,0,0,0,0,0,0,0,-1,1154,470,-3.68158,1.18331
-63,554,-4.86853,-3.88708,0,0,0,0,0,0,0,-1,1161,470,-4.86853,3.88708
-56,554,-5.69958,-6.45422,0,0,0,0,0,0,0,-1,1168,470,-5.69955,6.45422
-49,554,-6.23645,-8.8569,0,0,0,0,0,0,0,-1,1175,470,-6.23643,8.85689
-42,554,-6.62524,-11.5382,0,0,0,0,0,0,0,-1,1182,470,-6.62522,11.5382
-35,554,-2.40173,-4.59482,0,0,0,0,0,0,0,-1,1189,470,-2.40169,4.59481
-28,554,-0.760132,-1.65555,0,0,0,0,0,0,0,-1,1196,470,-0.760095,1.65556
-21,554,6.67249,-10.1976,0,0,0,0,0,0,0,-1,1203,470,6.67249,10.1976
-14,554,-1.6366,-13.1124,0,0,0,0,0,0,0,-1,1210,470,-1.63664,13.1124
-7,554,-3.35938,-10.5908,0,0,0,0,0,0,0,-1,1217,470,-3.35932,10.5908
0,554,-3.58655,-9.99918,-0.110512,-0.0501886,0.0441765,-0.0268593,-0.133842,1.08493,0.0817588,0.0477026,1224,470,-3.58654,9.99916
7,554,-3.83447,-9.44989,-0.0822565,-0.0497195,0.0326691,-0.0294923,-0.102484,1.01641,0.0609197,0.0452378,1231,470,-3.83444,9.4499
14,554,-4.20276,-9.6257,-0.0478532,-0.0316763,0.0129139,-0.0245269,-0.0550026,1.06518,0.0318176,0.0430561,1238,470,-4.20277,9.62569
21,554,-4.77942,-9.59109,-0.0183574,-0.00862358,-0.00494625,-0.00655131,-0.0204297,-1.17405,0.0120453,0.0426689,1245,470,-4.7794,9.59109
28,554,-5.7229,-9.42209,0,0,0,0,0,0,0,-1,1252,470,-5.72296,9.42209
35,554,2.06433,-9.94135,0,0,0,0,0,0,0,-1,1259,470,2.06439,9.94133
42,554,2.11011,-10.3983,0.0444707,0.0608064,-0.0462748,0.0996286,0.00564844,-0.872752,0.0646186,0.0473928,1266,470,2.11005,10.3983
49,554,2.32385,-10.8449,0.051754,0.0805065,-0.0555396,0.1235,0.00876023,-0.912042,0.0795744,0.0454239,1273,470,2.32386,10.8449
56,554,3.47412,-11.2939,0.0539613,0.0993847,-0.0629786,0.143622,0.00972433,-0.958453,0.0926766,0.0423534,1280,470,3.47414,11.2939
63,554,8.94934,-14.5329,0.0479459,0.106611,-0.0634843,0.147212,0.00734535,-1.00181,0.0957867,0.043538,1287,470,8.94938,14.5329
70,554,7.62256,-13.7574,0.0364452,0.105612,-0.0577967,0.138382,0.00367534,-1.05501,0.0910543,0.046155,1294,470,7.62253,13.7574
77,554,6.27649,-13.0412,0.0213461,0.0969429,-0.0494631,0.121397,-0.00310751,-1.11165,0.0819865,0.0452078,1301,470,6.27649,13.0412
84,554,4.93335,-12.3216,-0.00283734,0.0766842,-0.0340577,0.0892766,-0.0154297,-1.21665,0.0652717,0.0448755,1308,470,4.93336,12.3216
91,554,3.84741,-11.5824,-0.0216547,0.0577298,-0.0198704,0.0624256,-0.0263506,-1.33873,0.0526467,0.0418954,1315,470,3.84738,11.5824
98,554,2.97485,-11.3298,-0.0357844,0.0439292,-0.00632546,0.044428,-0.0362832,-1.4921,0.0466776,0.0447059,1322,470,2.97491,11.3298
105,554,2.21008,-11.0891,0,0,0,0,0,0,0,-1,1329,470,2.21006,11.0891
112,554,2.5647,-7.65005,-0.0576803,0.0241017,0.0184931,0.0280891,-0.0616677,1.35843,0.0530161,0.0421964,1336,470,2.56467,7.65005
119,554,2.1228,-6.65692,-0.0609697,0.015977,0.0321666,0.0276524,-0.072645,1.22262,0.0598174,0.0392745,1343,470,2.12283,6.65692
126,554,2.02344,-6.25665,-0.057564,0.023357,0.0380439,0.0384338,-0.0726407,1.19348,0.0651347,0.0393775,1350,470,2.02338,6.25666
133,554,1.91602,-5.88281,0,0,0,0,0,0,0,-1,1357,470,1.916,5.88282
140,554,0.127441,-17.2998,0,0,0,0,0,0,0,-1,1364,470,0.12739,17.2998
147,554,-0.865356,-16.7149,0,0,0,0,0,0,0,-1,1371,470,-0.865342,16.7149
154,554,-1.42322,-15.757,0,0,0,0,0,0,0,-1,1378,470,-1.42316,15.757
161,554,-5.32324,-16.9128,0,0,0,0,0,0,0,-1,1385,470,-5.32321,16.9128
168,554,-5.56848,-17.5877,0,0,0,0,0,0,0,-1,1392,470,-5.56852,17.5877
175,554,10.663,0.286957,0,0,0,0,0,0,0,-1,1399,470,10.663,-0.286966
182,554,6.71106,-4.50217,0,0,0,0,0,0,0,-1,1406,470,6.71107,4.50215
189,554,6.90479,-2.50348,0,0,0,0,0,0,0,-1,1413,470,6.90477,2.50348
196,554,6.96216,-0.740906,0,0,0,0,0,0,0,-1,1420,470,6.96214,0.740912
203,554,6.43518,0.414154,0,0,0,0,0,0,0,-1,1427,470,6.43523,-0.414141
210,554,6.21167,1.96707,0,0,0,0,0,0,0,-1,1434,470,6.21165,-1.96706
217,554,5.64551,3.4989,0,0,0,0,0,0,0,-1,1441,470,5.64555,-3.49891
224,554,4.85144,-8.85172,0,0,0,0,0,0,0,-1,1448,470,4.85146,8.85173
231,554,3.25073,-5.29642,0,0,0,0,0,0,0,-1,1455,470,3.25078,5.29642
238,554,4.28625,-3.25253,0,0,0,0,0,0,0,-1,1462,470,4.28622,3.25252
245,554,4.0752,-2.90033,0,0,0,0,0,0,0,-1,1469,470,4.07515,2.90032
252,554,3.52112,-0.934998,0,0,0,0,0,0,0,-1,1476,470,3.52113,0.934996
259,554,3.96448,-2.16425,0,0,0,0,0,0,0,-1,1483,470,3.96446,2.16424
266,554,3.0592,-2.71716,0,0,0,0,0,0,0,-1,1490,470,3.05923,2.71718
273,554,2.58521,-3.06876,0,0,0,0,0,0,0,-1,1497,470,2.58524,3.06874
280,554,2.83301,-0.991699,0,0,0,0,0,0,0,-1,1504,470,2.83303,0.991704
287,554,3.54126,-4.12277,0,0,0,0,0,0,0,-1,1511,470,3.54123,4.12277
294,554,3.5686,-7.89658,0,0,0,0,0,0,0,-1,1518,470,3.56866,7.89656
301,554,3.50464,-7.95682,0,0,0,0,0,0,0,-1,1525,470,3.50468,7.95683
308,554,3.41174,-7.87271,0,0,0,0,0,0,0,-1,1532,470,3.4118,7.87273
315,554,3.32446,-7.73865,0,0,0,0,0,0,0,-1,1539,470,3.32441,7.73864
322,554,3.39734,-7.45645,-0.00257611,-0.00545142,-0.00647592,0.00261982,-0.0106473,-0.676169,0.00811373,0.0416971,1546,470,3.39734,7.45644
329,554,3.3252,-7.4136,-0.00275303,-0.00513392,-0.00607736,0.00224938,-0.0101363,-0.688682,0.00761884,0.0210686,1553,470,3.3252,7.41361
336,554,3.34253,-7.31644,-0.00280118,-0.00518805,-0.00543245,0.00156738,-0.00955661,-0.677273,0.00695268,0.0104993,1560,470,3.34256,7.31643
343,554,3.3468,-7.18665,-0.00289633,-0.0051638,-0.00492525,0.00102398,-0.00908412,-0.672275,0.00642466,0.00880628,1567,470,3.34677,7.18665
350,554,3.37048,-7.03809,-0.00287438,-0.00501365,-0.00438867,0.00057312,-0.00846115,-0.665865,0.00584119,0.00879418,1574,470,3.37049,7.0381
357,554,3.39001,-6.90237,-0.00263642,-0.00495714,-0.00381683,0.000192536,-0.00778609,-0.637831,0.00525608,0.0101462,1581,470,3.39007,6.90237
364,554,3.38232,-6.75262,-0.00233497,-0.00461581,-0.00326007,-2.16039e-05,-0.00692917,-0.617144,0.00461226,0.00855079,1588,470,3.38236,6.75263
371,554,3.36145,-6.59207,-0.00200825,-0.00423174,-0.0026707,-0.00022714,-0.00601284,-0.588169,0.00393504,0.00869645,1595,470,3.36145,6.59208
378,554,3.36426,-6.41409,-0.00164583,-0.00375322,-0.00210233,-0.000347917,-0.00505113,-0.553093,0.00325765,0.0103601,1602,470,3.36421,6.4141
385,554,3.39111,-6.26022,-0.0013578,-0.00329984,-0.00164305,-0.000420287,-0.00423736,-0.518515,0.00269575,0.00958245,1609,470,3.39114,6.26023
392,554,3.40869,-6.10706,-0.000955587,-0.00292164,-0.00121985,-0.000371966,-0.00350526,-0.446248,0.00222325,0.0124041,1616,470,3.40875,6.10705
399,554,3.40613,-5.94058,-0.00038276,-0.00252733,-0.000744411,-0.000149694,-0.00276039,-0.303421,0.00179245,0.0166857,1623,470,3.40609,5.94057
406,554,3.39441,-5.79803,0.000153596,-0.00199813,-0.000216759,0.000175214,-0.00201975,-0.0994065,0.00140854,0.0150717,1630,470,3.39441,5.79803
413,554,3.38965,-5.62534,0.000573662,-0.00149061,0.000215576,0.000595934,-0.00151288,0.102952,0.0012553,0.0139095,1637,470,3.3896,5.62534
420,554,3.39124,-5.43527,0.000894038,-0.00102946,0.000604207,0.00106808,-0.0012035,0.280462,0.00131228,0.0149444,1644,470,3.39122,5.43527
427,554,3.37769,-5.26859,0.00147578,-0.000636978,0.00124658,0.00205339,-0.00121458,0.433901,0.00190737,0.0110324,1651,470,3.37772,5.2686
434,554,3.36951,-5.10214,0.00241148,-0.000603004,0.00209308,0.00348353,-0.00167505,0.473351,0.0030387,0.00991252,1658,470,3.36956,5.10215
441,554,3.3772,-4.9364,0.00323771,-0.000466319,0.00291422,0.00483861,-0.00206722,0.502338,0.00409271,0.0103127,1665,470,3.3772,4.9364
448,554,3.37439,-4.76419,0.00417575,-0.000438505,0.00387689,0.00638006,-0.00264282,0.516995,0.00535624,0.0114796,1672,470,3.37436,4.76418
455,554,3.38562,-4.56375,0.00532147,-0.000328643,0.00486524,0.00812239,-0.00312956,0.522359,0.00670611,0.0136787,1679,470,3.38564,4.56376
462,554,3.38037,-4.37561,0.00670676,-0.000504938,0.00600152,0.0101024,-0.00390055,0.514886,0.00834471,0.0164964,1686,470,3.38036,4.37561
469,554,3.34534,-4.16895,0.0080982,-0.00106109,0.00706264,0.011936,-0.00489893,0.497762,0.00999872,0.0231754,1693,470,3.34528,4.16895
476,554,3.31555,-3.83633,0.00970791,-0.00149473,0.00823324,0.0140646,-0.00585137,0.486697,0.0118199,0.0441503,1700,470,3.31554,3.83633
483,554,3.28088,-3.50476,0,0,0,0,0,0,0,-1,1707,470,3.28085,3.50477
490,554,7.31543,-3.51794,0,0,0,0,0,0,0,-1,1714,470,7.3154,3.51794
497,554,7.9751,-2.43454,0,0,0,0,0,0,0,-1,1721,470,7.97505,2.43453
504,554,2.13257,-3.81628,0,0,0,0,0,0,0,-1,1728,470,2.1326,3.8163
511,554,1.31396,-4.02713,0,0,0,0,0,0,0,-1,1735,470,1.31398,4.02712
518,554,-1.15686,-2.436,0,0,0,0,0,0,0,-1,1742,470,-1.15691,2.43599
525,554,0,0,0,0,0,0,0,0,0,-1,1749,470,0,0
532,554,0,0,0,0,0,0,0,0,0,-1,1756,470,0,0
539,554,0,0,0,0,0,0,0,0,0,-1,1763,470,0,0
546,554,0,0,0,0,0,0,0,0,0,-1,1770,470,0,0
553,554,0,0,0,0,0,0,0,0,0,-1,1777,470,0,0
560,554,0,0,0,0,0,0,0,0,0,-1,1784,470,0,0
567,554,0,0,0,0,0,0,0,0,0,-1,1791,470,0,0
574,554,0,0,0,0,0,0,0,0,0,-1,1798,470,0,0
581,554,0,0,0,0,0,0,0,0,0,-1,1805,470,0,0
588,554,0,0,0,0,0,0,0,0,0,-1,1812,470,0,0
595,554,0,0,0,0,0,0,0,0,0,-1,1819,470,0,0
602,554,0,0,0,0,0,0,0,0,0,-1,1826,470,0,0
609,554,0,0,0,0,0,0,0,0,0,-1,1833,470,0,0
616,554,0,0,0,0,0,0,0,0,0,-1,1840,470,0,0
623,554,0,0,0,0,0,0,0,0,0,-1,1847,470,0,0
630,554,0,0,0,0,0,0,0,0,0,-1,1854,470,0,0
637,554,0,0,0,0,0,0,0,0,0,-1,1861,470,0,0
644,554,0,0,0,0,0,0,0,0,0,-1,1868,470,0,0
651,554,0,0,0,0,0,0,0,0,0,-1,1875,470,0,0
658,554,0,0,0,0,0,0,0,0,0,-1,1882,470,0,0
665,554,0,0,0,0,0,0,0,0,0,-1,1889,470,0,0
672,554,0,0,0,0,0,0,0,0,0,-1,1896,470,0,0
679,554,0,0,0,0,0,0,0,0,0,-1,1903,470,0,0
686,554,0,0,0,0,0,0,0,0,0,-1,1910,470,0,0
693,554,0,0,0,0,0,0,0,0,0,-1,1917,470,0,0
700,554,0,0,0,0,0,0,0,0,0,-1,1924,470,0,0
707,554,0,0,0,0,0,0,0,0,0,-1,1931,470,0,0
714,554,0,0,0,0,0,0,0,0,0,-1,1938,470,0,0
721,554,0,0,0,0,0,0,0,0,0,-1,1945,470,0,0
728,554,0,0,0,0,0,0,0,0,0,-1,1952,470,0,0
735,554,0,0,0,0,0,0,0,0,0,-1,1959,470,0,0
742,554,0,0,0,0,0,0,0,0,0,-1,1966,470,0,0
749,554,0,0,0,0,0,0,0,0,0,-1,1973,470,0,0
756,554,0,0,0,0,0,0,0,0,0,-1,1980,470,0,0
763,554,0,0,0,0,0,0,0,0,0,-1,1987,470,0,0
770,554,0,0,0,0,0,0,0,0,0,-1,1994,470,0,0
777,554,0,0,0,0,0,0,0,0,0,-1,2001,470,0,0
784,554,0,0,0,0,0,0,0,0,0,-1,2008,470,0,0
791,554,0,0,0,0,0,0,0,0,0,-1,2015,470,0,0
798,554,0,0,0,0,0,0,0,0,0,-1,2022,470,0,0
805,554,0,0,0,0,0,0,0,0,0,-1,2029,470,0,0
812,554,0,0,0,0,0,0,0,0,0,-1,2036,470,0,0
-700,547,0,0,0,0,0,0,0,0,0,-1,524,477,0,0
-693,547,0,0,0,0,0,0,0,0,0,-1,531,477,0,0
-686,547,0,0,0,0,0,0,0,0,0,-1,538,477,0,0
-679,547,0,0,0,0,0,0,0,0,0,-1,545,477,0,0
-672,547,0,0,0,0,0,0,0,0,0,-1,552,477,0,0
-665,547,0,0,0,0,0,0,0,0,0,-1,559,477,0,0
-658,547,0,0,0,0,0,0,0,0,0,-1,566,477,0,0
-651,547,0,0,0,0,0,0,0,0,0,-1,573,477,0,0
-644,547,0,0,0,0,0,0,0,0,0,-1,580,477,0,0
-637,547,0,0,0,0,0,0,0,0,0,-1,587,477,0,0
-630,547,0,0,0,0,0,0,0,0,0,-1,594,477,0,0
-623,547,0,0,0,0,0,0,0,0,0,-1,601,477,0,0
-616,547,0,0,0,0,0,0,0,0,0,-1,608,477,0,0
-609,547,0,0,0,0,0,0,0,0,0,-1,615,477,0,0
-602,547,0,0,0,0,0,0,0,0,0,-1,622,477,0,0
-595,547,0,0,0,0,0,0,0,0,0,-1,629,477,0,0
-588,547,0,0,0,0,0,0,0,0,0,-1,636,477,0,0
-581,547,0,0,0,0,0,0,0,0,0,-1,643,477,0,0
-574,547,0,0,0,0,0,0,0,0,0,-1,650,477,0,0
-567,547,0,0,0,0,0,0,0,0,0,-1,657,477,0,0
-560,547,0,0,0,0,0,0,0,0,0,-1,664,477,0,0
-553,547,0,0,0,0,0,0,0,0,0,-1,671,477,0,0
-546,547,0,0,0,0,0,0,0,0,0,-1,678,477,0,0
-539,547,0,0,0,0,0,0,0,0,0,-1,685,477,0,0
-532,547,0,0,0,0,0,0,0,0,0,-1,692,477,0,0
-525,547,0,0,0,0,0,0,0,0,0,-1,699,477,0,0
-518,547,0,0,0,0,0,0,0,0,0,-1,706,477,0,0
-511,547,0,0,0,0,0,0,0,0,0,-1,713,477,0,0
-504,547,0,0,0,0,0,0,0,0,0,-1,720,477,0,0
-497,547,0,0,0,0,0,0,0,0,0,-1,727,477,0,0
-490,547,0,0,0,0,0,0,0,0,0,-1,734,477,0,0
-483,547,0,0,0,0,0,0,0,0,0,-1,741,477,0,0
-476,547,0,0,0,0,0,0,0,0,0,-1,748,477,0,0
-469,547,0,0,0,0,0,0,0,0,0,-1,755,477,0,0
-462,547,0,0,0,0,0,0,0,0,0,-1,762,477,0,0
-455,547,0,0,0,0,0,0,0,0,0,-1,769,477,0,0
-448,547,0,0,0,0,0,0,0,0,0,-1,776,477,0,0
-441,547,0,0,0,0,0,0,0,0,0,-1,783,477,0,0
-434,547,0,0,0,0,0,0,0,0,0,-1,790,477,0,0
-427,547,0,0,0,0,0,0,0,0,0,-1,797,477,0,0
-420,547,0,0,0,0,0,0,0,0,0,-1,804,477,0,0
-413,547,0,0,0,0,0,0,0,0,0,-1,811,477,0,0
-406,547,1.45746,-2.21689,0,0,0,0,0,0,0,-1,818,477,1.45743,2.21688
-399,547,1.0351,-3.86713,0,0,0,0,0,0,0,-1,825,477,1.03508,3.86714
-392,547,0.480042,-4.20746,0,0,0,0,0,0,0,-1,832,477,0.48003,4.20747
-385,547,-0.308533,-4.51331,0,0,0,0,0,0,0,-1,839,477,-0.308519,4.51331
-378,547,-0.17926,-4.71603,0,0,0,0,0,0,0,-1,846,477,-0.179287,4.71602
-371,547,-0.116943,-4.61679,0.0278355,0.0134499,-0.00813953,0.0315049,0.00978043,-0.423534,0.01862,0.0471373,853,477,-0.116958,4.61679
-364,547,0.271729,-4.58582,0.0233233,0.00854708,-0.00713782,0.0262081,0.00566229,-0.384084,0.0159238,0.0486595,860,477,0.271753,4.5858
-357,547,0.75531,-5.18655,0,0,0,0,0,0,0,-1,867,477,0.755294,5.18654
-350,547,0.599792,-5.51157,0.0155192,0.00101911,-0.00550011,0.0173694,-0.000831087,-0.324501,0.0118663,0.0485563,874,477,0.599768,5.51157
-343,547,0.729614,-5.44806,0.0120446,-0.00180574,-0.00477799,0.0135329,-0.00329408,-0.301974,0.0102971,0.0332725,881,477,0.729618,5.44806
-336,547,0.75238,-5.63168,0.00943591,-0.00390721,-0.00401661,0.0105517,-0.005023,-0.270962,0.00917896,0.015186,888,477,0.752366,5.63169
-329,547,0.722534,-5.77179,0.00715288,-0.0048219,-0.00327723,0.00799111,-0.00566013,-0.250406,0.00791975,0.00930909,895,477,0.722556,5.77178
-322,547,0.707092,-5.93158,0.00543248,-0.00569159,-0.0026054,0.00601246,-0.00627157,-0.219035,0.00709271,0.0108424,902,477,0.707119,5.93157
-315,547,0.703735,-6.08661,0.00395834,-0.00541886,-0.00216888,0.00443569,-0.00589621,-0.216636,0.00598495,0.0106749,909,477,0.703717,6.08662
-308,547,0.703247,-6.24426,0.00278022,-0.00473482,-0.00168477,0.00314064,-0.00509524,-0.21075,0.00479942,0.011764,916,477,0.703251,6.24427
-301,547,0.707703,-6.41315,0.00237241,-0.00365414,-0.00137074,0.00266954,-0.00395126,-0.213461,0.00384632,0.011155,923,477,0.707706,6.41315
-294,547,0.693115,-6.5593,0.00206329,-0.00253871,-0.00113522,0.00232808,-0.00280351,-0.229161,0.00296696,0.00939761,930,477,0.693089,6.5593
-287,547,0.678955,-6.69281,0.00191481,-0.00187663,-0.000947031,0.0021382,-0.00210002,-0.231649,0.00244697,0.0100924,937,477,0.678964,6.69282
-280,547,0.683167,-6.83087,0.00196059,-0.0013321,-0.000979517,0.00222994,-0.00160146,-0.268355,0.00222196,0.011645,944,477,0.683172,6.83089
-273,547,0.685486,-6.9895,0.00201651,-0.000660154,-0.000920675,0.00230261,-0.000946253,-0.301289,0.00192945,0.0118565,951,477,0.685468,6.9895
-266,547,0.681519,-7.13516,0.00219709,-8.5436e-05,-0.0010572,0.00261151,-0.000499857,-0.37359,0.00192933,0.0111998,958,477,0.681509,7.13517
-259,547,0.689819,-7.27969,0.0025345,0.00018103,-0.00122902,0.00305929,-0.000343766,-0.403565,0.00216324,0.010051,965,477,0.689845,7.27971
-252,547,0.691345,-7.41129,0.00309861,0.000400745,-0.00151205,0.00377598,-0.000276626,-0.421175,0.00261441,0.0102437,972,477,0.691374,7.41128
-245,547,0.692871,-7.54849,0.00395091,0.000726085,-0.0019922,0.00490145,-0.000224461,-0.445187,0.00334497,0.0116662,979,477,0.692875,7.5485
-238,547,0.704285,-7.68237,0.00507905,0.00123105,-0.00256942,0.00636499,-5.48824e-05,-0.46403,0.00426174,0.00868992,986,477,0.704257,7.68236
-231,547,0.706116,-7.82486,0.00607874,0.00181863,-0.00320883,0.00780015,9.72243e-05,-0.492387,0.00516799,0.00828481,993,477,0.706096,7.82486
-224,547,0.705139,-7.92557,0.007148,0.00256306,-0.00390348,0.00938241,0.000328661,-0.519888,0.00614831,0.0103438,1000,477,0.705132,7.92556
-217,547,0.728027,-8.0412,0.00815841,0.00354219,-0.0045954,0.0109928,0.000707826,-0.552669,0.00710434,0.0130197,1007,477,0.728024,8.0412
-210,547,0.777649,-8.18832,0.00923911,0.00480245,-0.00478976,0.0122993,0.00174226,-0.568535,0.0076849,0.0215682,1014,477,0.777668,8.18832
-203,547,0.900879,-8.19052,0.0100943,0.00590432,-0.00423543,0.0127245,0.00327406,-0.555727,0.00762954,0.0346107,1021,477,0.90085,8.19052
-196,547,0.830811,-8.28717,0.0146953,0.00476174,-0.00599479,0.0175135,0.0019435,-0.439454,0.0110848,0.0404643,1028,477,0.830822,8.28716
-189,547,1.20325,-8.29639,0.0210335,0.00264938,-0.00945741,0.02503,-0.00134705,-0.399812,0.0171533,0.0455835,1035,477,1.20321,8.29639
-182,547,0.998047,-8.71619,0,0,0,0,0,0,0,-1,1042,477,0.997992,8.71618
-175,547,-0.13501,-8.37143,0,0,0,0,0,0,0,-1,1049,477,-0.134964,8.37142
-168,547,1.12463,-8.66785,0,0,0,0,0,0,0,-1,1056,477,1.12461,8.66786
-161,547,0.477539,-9.19757,0,0,0,0,0,0,0,-1,1063,477,0.477546,9.19757
-154,547,0.660767,-9.00882,0.0503505,-0.0022018,-0.0362831,0.0688728,-0.0207241,-0.472007,0.0541614,0.0480866,1070,477,0.660805,9.00881
-147,547,0.612183,-8.66397,0,0,0,0,0,0,0,-1,1077,477,0.612198,8.66396
-140,547,0.273438,-8.50629,0.05971,-0.000783321,-0.0505082,0.0883356,-0.0294089,-0.515612,0.0707606,0.0449919,1084,477,0.273377,8.50629
-133,547,0.376709,-8.79092,0.0631961,0.00204459,-0.0588572,0.0989456,-0.0337049,-0.545839,0.0796136,0.0479671,1091,477,0.376746,8.79092
-126,547,0.784302,-9.76431,0.0657553,0.00702656,-0.0676485,0.110138,-0.0373558,-0.580633,0.0885439,0.0464112,1098,477,0.78428,9.76432
-119,547,1.1709,-11.2859,0.0676282,0.0137525,-0.0768688,0.122143,-0.0407619,-0.616865,0.0978868,0.0455392,1105,477,1.1709,11.2859
-112,547,1.68726,-12.6606,0,0,0,0,0,0,0,-1,1112,477,1.68721,12.6606
-105,547,-0.50647,-7.05853,0,0,0,0,0,0,0,-1,1119,477,-0.506446,7.05853
-98,547,0.289429,-4.92862,0,0,0,0,0,0,0,-1,1126,477,0.289474,4.92861
-91,547,-0.491089,-4.73654,0,0,0,0,0,0,0,-1,1133,477,-0.491051,4.73654
-84,547,-0.648071,3.42496,0,0,0,0,0,0,0,-1,1140,477,-0.648118,-3.42494
-77,547,-2.28357,1.8588,0,0,0,0,0,0,0,-1,1147,477,-2.28356,-1.85879
-70,547,-3.70178,-0.874908,0,0,0,0,0,0,0,-1,1154,477,-3.70182,0.874918
-63,547,-5.12012,-3.60861,0,0,0,0,0,0,0,-1,1161,477,-5.12009,3.60862
-56,547,-6.01917,-6.2399,0,0,0,0,0,0,0,-1,1168,477,-6.01921,6.23991
-49,547,-6.729,-8.60349,0,0,0,0,0,0,0,-1,1175,477,-6.72899,8.60348
-42,547,-2.41736,-5.53012,0,0,0,0,0,0,0,-1,1182,477,-2.41734,5.53011
-35,547,-2.96838,-4.45734,0,0,0,0,0,0,0,-1,1189,477,-2.96839,4.45734
-28,547,-0.869141,-1.29901,0,0,0,0,0,0,0,-1,1196,477,-0.869135,1.29901
-21,547,7.02197,-10.6903,0,0,0,0,0,0,0,-1,1203,477,7.02195,10.6903
-14,547,6.62952,-10.9412,0,0,0,0,0,0,0,-1,1210,477,6.62958,10.9412
-7,547,-4.18823,-9.9166,0,0,0,0,0,0,0,-1,1217,477,-4.18822,9.9166
0,547,-4.43884,-9.35181,0,0,0,0,0,0,0,-1,1224,477,-4.43882,9.35181
7,547,-4.43811,-8.85892,0,0,0,0,0,0,0,-1,1231,477,-4.43815,8.85892
14,547,0,0,0,0,0,0,0,0,0,-1,1238,477,0,0
21,547,0,0,0,0,0,0,0,0,0,-1,1245,477,0,0
28,547,0,0,0,0,0,0,0,0,0,-1,1252,477,0,0
35,547,0,0,0,0,0,0,0,0,0,-1,1259,477,0,0
42,547,0,0,0,0,0,0,0,0,0,-1,1266,477,0,0
49,547,0,0,0,0,0,0,0,0,0,-1,1273,477,0,0
56,547,0,0,0,0,0,0,0,0,0,-1,1280,477,0,0
63,547,0,0,0,0,0,0,0,0,0,-1,1287,477,0,0
70,547,0,0,0,0,0,0,0,0,0,-1,1294,477,0,0
77,547,0,0,0,0,0,0,0,0,0,-1,1301,477,0,0
84,547,0,0,0,0,0,0,0,0,0,-1,1308,477,0,0
91,547,0,0,0,0,0,0,0,0,0,-1,1315,477,0,0
98,547,0,0,0,0,0,0,0,0,0,-1,1322,477,0,0
105,547,0.15979,-8.12494,0,0,0,0,0,0,0,-1,1329,477,0.159828,8.12495
112,547,3.15796,-7.24442,0,0,0,0,0,0,0,-1,1336,477,3.15798,7.24441
119,547,2.84436,-6.70239,-0.0630762,0.00900714,0.0149852,0.0119982,-0.0660673,1.37378,0.0485411,0.03993,1343,477,2.84432,6.7024
126,547,3.24182,-5.97952,-0.0574921,0.0150862,0.0208155,0.0206324,-0.0630382,1.3104,0.0503328,0.0418963,1350,477,3.24184,5.97953
133,547,3.46509,-5.28964,0,0,0,0,0,0,0,-1,1357,477,3.46508,5.28963
140,547,-0.440308,-18.9044,0,0,0,0,0,0,0,-1,1364,477,-0.44027,18.9044
147,547,-1.40405,-18.2494,0,0,0,0,0,0,0,-1,1371,477,-1.40407,18.2494
154,547,-2.36792,-17.5944,0,0,0,0,0,0,0,-1,1378,477,-2.36787,17.5944
161,547,-6.06335,-15.8329,0,0,0,0,0,0,0,-1,1385,477,-6.06336,15.8329
168,547,-6.75854,-16.465,0,0,0,0,0,0,0,-1,1392,477,-6.75852,16.465
175,547,3.35034,-0.26532,0,0,0,0,0,0,0,-1,1399,477,3.3503,0.265306
182,547,4.26038,3.72672,0,0,0,0,0,0,0,-1,1406,477,4.26039,-3.7267
189,547,3.40454,1.28671,0,0,0,0,0,0,0,-1,1413,477,3.40457,-1.28673
196,547,3.53931,1.87793,0,0,0,0,0,0,0,-1,1420,477,3.53928,-1.87794
203,547,6.49414,-0.425842,0,0,0,0,0,0,0,-1,1427,477,6.4941,0.425844
210,547,4.82092,0.53595,0,0,0,0,0,0,0,-1,1434,477,4.82096,-0.535942
217,547,4.68579,0.480072,0,0,0,0,0,0,0,-1,1441,477,4.68577,-0.480069
224,547,4.55615,0.739807,0,0,0,0,0,0,0,-1,1448,477,4.55613,-0.73981
231,547,5.90869,-3.57721,0,0,0,0,0,0,0,-1,1455,477,5.90871,3.57722
238,547,5.50049,-3.15356,0,0,0,0,0,0,0,-1,1462,477,5.50045,3.15356
245,547,5.13708,-2.65213,0,0,0,0,0,0,0,-1,1469,477,5.13708,2.65212
252,547,3.73511,-0.645233,0,0,0,0,0,0,0,-1,1476,477,3.73515,0.645237
259,547,5.86816,-3.20816,0,0,0,0,0,0,0,-1,1483,477,5.86815,3.20816
266,547,5.40222,-2.45731,0,0,0,0,0,0,0,-1,1490,477,5.40221,2.45732
273,547,3.05737,0.495789,0,0,0,0,0,0,0,-1,1497,477,3.05742,-0.49578
280,547,2.0885,1.47797,0,0,0,0,0,0,0,-1,1504,477,2.08848,-1.47795
287,547,2.31177,-2.21716,0,0,0,0,0,0,0,-1,1511,477,2.31174,2.21717
294,547,2.4823,-3.03659,0,0,0,0,0,0,0,-1,1518,477,2.48229,3.0366
301,547,4.72119,-3.93454,0,0,0,0,0,0,0,-1,1525,477,4.72119,3.93453
308,547,4.07471,-5.42175,0,0,0,0,0,0,0,-1,1532,477,4.07468,5.42174
315,547,3.58496,-6.62112,0,0,0,0,0,0,0,-1,1539,477,3.58497,6.62113
322,547,3.34131,-7.44269,0,0,0,0,0,0,0,-1,1546,477,3.34128,7.44267
329,547,3.4541,-7.27872,-0.0045989,-0.00717465,-0.00855428,0.0027639,-0.0145375,-0.710683,0.0107322,0.0439277,1553,477,3.45407,7.2787
336,547,3.55054,-7.29453,-0.00452995,-0.00749647,-0.00755799,0.00168895,-0.0137154,-0.688504,0.00975543,0.0281251,1560,477,3.55059,7.29453
343,547,3.53149,-7.23398,-0.00453349,-0.00761457,-0.00684825,0.000945354,-0.0130934,-0.674763,0.00906052,0.021763,1567,477,3.53145,7.23397
350,547,3.55664,-7.09247,-0.00439258,-0.00751777,-0.0061567,0.000396729,-0.0123071,-0.66112,0.0083401,0.0175137,1574,477,3.55663,7.09245
357,547,3.53479,-6.93393,-0.00392356,-0.00758152,-0.00543251,-2.04085e-05,-0.0114847,-0.623021,0.00764965,0.01324,1581,477,3.53479,6.93393
364,547,3.52246,-6.75098,-0.00340723,-0.00720034,-0.00473512,-0.000202972,-0.0104046,-0.594917,0.00686974,0.00950883,1588,477,3.52244,6.75098
371,547,3.52271,-6.58835,-0.00287868,-0.00667435,-0.00398425,-0.000363348,-0.00918968,-0.56313,0.006009,0.00886495,1595,477,3.52277,6.58834
378,547,3.52698,-6.4332,-0.00232972,-0.0059862,-0.00328073,-0.000402203,-0.00791371,-0.531196,0.00514698,0.0101545,1602,477,3.52696,6.4332
385,547,3.54004,-6.26703,-0.00191605,-0.00531543,-0.00268997,-0.000433775,-0.0067977,-0.503639,0.00439435,0.0103837,1609,477,3.53998,6.26704
392,547,3.54871,-6.10419,-0.00143631,-0.00470766,-0.00215333,-0.000367867,-0.0057761,-0.460588,0.00373416,0.0106552,1616,477,3.54874,6.10418
399,547,3.53613,-5.9545,-0.000846532,-0.00406616,-0.00163506,-0.000161801,-0.00475089,-0.39659,0.00311473,0.0126576,1623,477,3.53616,5.95449
406,547,3.54407,-5.79623,-0.000282646,-0.00324433,-0.00104028,4.62314e-05,-0.00357321,-0.306199,0.0023977,0.0127048,1630,477,3.54412,5.79623
413,547,3.5481,-5.60666,0.000207241,-0.00250636,-0.000516931,0.000302379,-0.0026015,-0.182007,0.00184341,0.0124828,1637,477,3.54812,5.60667
420,547,3.55591,-5.44672,0.000549523,-0.00182611,-9.02815e-05,0.00055295,-0.00182953,-0.0379302,0.00143984,0.0142862,1644,477,3.5559,5.44671
427,547,3.54736,-5.28052,0.000979737,-0.00121313,0.000489639,0.0010841,-0.0013175,0.210001,0.00138874,0.0141684,1651,477,3.54734,5.28051
434,547,3.51697,-5.11526,0.00162271,-0.000917757,0.00120565,0.00210379,-0.00139883,0.37966,0.00203585,0.00962683,1658,477,3.51697,5.11526
441,547,3.53943,-4.93552,0.00220289,-0.0005584,0.00189729,0.00316871,-0.00152422,0.470863,0.00276436,0.00952571,1665,477,3.53942,4.93552
448,547,3.54138,-4.76465,0.00286348,-0.000372602,0.00270511,0.00439753,-0.00190665,0.515872,0.00373322,0.0097468,1672,477,3.54133,4.76465
455,547,3.55005,-4.57758,0.00369338,-0.000162782,0.00349467,0.00575657,-0.00222597,0.533317,0.00475661,0.0103782,1679,477,3.55001,4.57757
462,547,3.53699,-4.39996,0.00467959,-0.000221223,0.00435464,0.00722592,-0.00276755,0.529123,0.00595805,0.0110158,1686,477,3.53701,4.39997
469,547,3.52808,-4.23242,0.00558636,-0.000754223,0.00506131,0.00838831,-0.00355617,0.505604,0.00708175,0.0193741,1693,477,3.52803,4.23241
476,547,3.54968,-3.96115,0.00657943,-0.00114207,0.00581361,0.00969747,-0.0042601,0.49229,0.00825971,0.0387406,1700,477,3.54966,3.96115
483,547,3.59851,-3.63705,0,0,0,0,0,0,0,-1,1707,477,3.59852,3.63704
490,547,3.65271,-3.71707,0,0,0,0,0,0,0,-1,1714,477,3.65277,3.71708
497,547,2.55481,-3.81421,0,0,0,0,0,0,0,-1,1721,477,2.55476,3.8142
504,547,4.01953,-2.22714,0,0,0,0,0,0,0,-1,1728,477,4.0195,2.22713
511,547,3.96277,-2.31235,0,0,0,0,0,0,0,-1,1735,477,3.96282,2.31235
518,547,1.12366,-2.80795,0,0,0,0,0,0,0,-1,1742,477,1.12368,2.80796
525,547,0.781616,-3.76355,0,0,0,0,0,0,0,-1,1749,477,0.781645,3.76354
532,547,0,0,0,0,0,0,0,0,0,-1,1756,477,0,0
539,547,0,0,0,0,0,0,0,0,0,-1,1763,477,0,0
546,547,0,0,0,0,0,0,0,0,0,-1,1770,477,0,0
553,547,0,0,0,0,0,0,0,0,0,-1,1777,477,0,0
560,547,0,0,0,0,0,0,0,0,0,-1,1784,477,0,0
567,547,0,0,0,0,0,0,0,0,0,-1,1791,477,0,0
574,547,0,0,0,0,0,0,0,0,0,-1,1798,477,0,0
581,547,0,0,0,0,0,0,0,0,0,-1,1805,477,0,0
588,547,0,0,0,0,0,0,0,0,0,-1,1812,477,0,0
595,547,0,0,0,0,0,0,0,0,0,-1,1819,477,0,0
602,547,0,0,0,0,0,0,0,0,0,-1,1826,477,0,0
609,547,0,0,0,0,0,0,0,0,0,-1,1833,477,0,0
616,547,0,0,0,0,0,0,0,0,0,-1,1840,477,0,0
623,547,0,0,0,0,0,0,0,0,0,-1,1847,477,0,0
630,547,0,0,0,0,0,0,0,0,0,-1,1854,477,0,0
637,547,0,0,0,0,0,0,0,0,0,-1,1861,477,0,0
644,547,0,0,0,0,0,0,0,0,0,-1,1868,477,0,0
651,547,0,0,0,0,0,0,0,0,0,-1,1875,477,0,0
658,547,0,0,0,0,0,0,0,0,0,-1,1882,477,0,0
665,547,0,0,0,0,0,0,0,0,0,-1,1889,477,0,0
672,547,0,0,0,0,0,0,0,0,0,-1,1896,477,0,0
679,547,0,0,0,0,0,0,0,0,0,-1,1903,477,0,0
686,547,0,0,0,0,0,0,0,0,0,-1,1910,477,0,0
693,547,0,0,0,0,0,0,0,0,0,-1,1917,477,0,0
700,547,0,0,0,0,0,0,0,0,0,-1,1924,477,0,0
707,547,0,0,0,0,0,0,0,0,0,-1,1931,477,0,0
714,547,0,0,0,0,0,0,0,0,0,-1,1938,477,0,0
721,547,0,0,0,0,0,0,0,0,0,-1,1945,477,0,0
728,547,0,0,0,0,0,0,0,0,0,-1,1952,477,0,0
735,547,0,0,0,0,0,0,0,0,0,-1,1959,477,0,0
742,547,0,0,0,0,0,0,0,0,0,-1,1966,477,0,0
749,547,0,0,0,0,0,0,0,0,0,-1,1973,477,0,0
756,547,0,0,0,0,0,0,0,0,0,-1,1980,477,0,0
763,547,0,0,0,0,0,0,0,0,0,-1,1987,477,0,0
770,547,0,0,0,0,0,0,0,0,0,-1,1994,477,0,0
777,547,0,0,0,0,0,0,0,0,0,-1,2001,477,0,0
784,547,0,0,0,0,0,0,0,0,0,-1,2008,477,0,0
791,547,0,0,0,0,0,0,0,0,0,-1,2015,477,0,0
798,547,0,0,0,0,0,0,0,0,0,-1,2022,477,0,0
805,547,0,0,0,0,0,0,0,0,0,-1,2029,477,0,0
812,547,0,0,0,0,0,0,0,0,0,-1,2036,477,0,0
-700,540,0,0,0,0,0,0,0,0,0,-1,524,484,0,0
-693,540,0,0,0,0,0,0,0,0,0,-1,531,484,0,0
-686,540,0,0,0,0,0,0,0,0,0,-1,538,484,0,0
-679,540,0,0,0,0,0,0,0,0,0,-1,545,484,0,0
-672,540,0,0,0,0,0,0,0,0,0,-1,552,484,0,0
-665,540,0,0,0,0,0,0,0,0,0,-1,559,484,0,0
-658,540,0,0,0,0,0,0,0,0,0,-1,566,484,0,0
-651,540,0,0,0,0,0,0,0,0,0,-1,573,484,0,0
-644,540,0,0,0,0,0,0,0,0,0,-1,580,484,0,0
-637,540,0,0,0,0,0,0,0,0,0,-1,587,484,0,0
-630,540,0,0,0,0,0,0,0,0,0,-1,594,484,0,0
-623,540,0,0,0,0,0,0,0,0,0,-1,601,484,0,0
-616,540,0,0,0,0,0,0,0,0,0,-1,608,484,0,0
-609,540,0,0,0,0,0,0,0,0,0,-1,615,484,0,0
-602,540,0,0,0,0,0,0,0,0,0,-1,622,484,0,0
-595,540,0,0,0,0,0,0,0,0,0,-1,629,484,0,0
-588,540,0,0,0,0,0,0,0,0,0,-1,636,484,0,0
-581,540,0,0,0,0,0,0,0,0,0,-1,643,484,0,0
-574,540,0,0,0,0,0,0,0,0,0,-1,650,484,0,0
-567,540,0,0,0,0,0,0,0,0,0,-1,657,484,0,0
-560,540,0,0,0,0,0,0,0,0,0,-1,664,484,0,0
-553,540,0,0,0,0,0,0,0,0,0,-1,671,484,0,0
-546,540,0,0,0,0,0,0,0,0,0,-1,678,484,0,0
-539,540,0,0,0,0,0,0,0,0,0,-1,685,484,0,0
-532,540,0,0,0,0,0,0,0,0,0,-1,692,484,0,0
-525,540,0,0,0,0,0,0,0,0,0,-1,699,484,0,0
-518,540,0,0,0,0,0,0,0,0,0,-1,706,484,0,0
-511,540,0,0,0,0,0,0,0,0,0,-1,713,484,0,0
-504,540,0,0,0,0,0,0,0,0,0,-1,720,484,0,0
-497,540,0,0,0,0,0,0,0,0,0,-1,727,484,0,0
-490,540,0,0,0,0,0,0,0,0,0,-1,734,484,0,0
-483,540,0,0,0,0,0,0,0,0,0,-1,741,484,0,0
-476,540,0,0,0,0,0,0,0,0,0,-1,748,484,0,0
-469,540,0,0,0,0,0,0,0,0,0,-1,755,484,0,0
-462,540,0,0,0,0,0,0,0,0,0,-1,762,484,0,0
-455,540,0,0,0,0,0,0,0,0,0,-1,769,484,0,0
-448,540,0,0,0,0,0,0,0,0,0,-1,776,484,0,0
-441,540,0,0,0,0,0,0,0,0,0,-1,783,484,0,0
-434,540,0,0,0,0,0,0,0,0,0,-1,790,484,0,0
-427,540,0,0,0,0,0,0,0,0,0,-1,797,484,0,0
-420,540,3.71643,-1.39877,0,0,0,0,0,0,0,-1,804,484,3.71643,1.39876
-413,540,1.55273,-2.38461,0,0,0,0,0,0,0,-1,811,484,1.55274,2.38461
-406,540,1.4538,-2.68854,0,0,0,0,0,0,0,-1,818,484,1.45378,2.68853
-399,540,1.21448,-3.32211,0,0,0,0,0,0,0,-1,825,484,1.21446,3.32211
-392,540,0.615295,-3.98294,0,0,0,0,0,0,0,-1,832,484,0.61527,3.98293
-385,540,0.122314,-4.62384,0,0,0,0,0,0,0,-1,839,484,0.122298,4.62383
-378,540,-3.828,-3.2016,0,0,0,0,0,0,0,-1,846,484,-3.82798,3.20159
-371,540,-0.0177002,-4.21246,0,0,0,0,0,0,0,-1,853,484,-0.0176722,4.21247
-364,540,0.307312,-4.57254,0.0187293,0.00849149,-0.00594269,0.0214538,0.00576701,-0.429866,0.0128201,0.0497971,860,484,0.307322,4.57254
-357,540,0.623108,-5.09,0.0156115,0.00526548,-0.00527366,0.0178257,0.00305123,-0.397516,0.0110086,0.0474116,867,484,0.6231,5.09001
-350,540,0.566956,-5.27603,0.0125698,0.00261766,-0.00463186,0.0143919,0.000795539,-0.374795,0.00934072,0.0292763,874,484,0.566931,5.27604
-343,540,0.574341,-5.43744,0.00980418,0.000311294,-0.00407901,0.0113161,-0.00120062,-0.354958,0.00797446,0.012844,881,484,0.574351,5.43745
-336,540,0.572205,-5.6145,0.0077425,-0.00151979,-0.00344175,0.00888138,-0.00265867,-0.319559,0.00697806,0.0115153,888,484,0.572196,5.6145
-329,540,0.550293,-5.76538,0.00586917,-0.00231091,-0.00279937,0.00673542,-0.00317716,-0.300102,0.00584465,0.0104654,895,484,0.550297,5.76538
-322,540,0.539063,-5.92581,0.00442971,-0.00305121,-0.00224134,0.00504983,-0.00367133,-0.269922,0.00505609,0.0143949,902,484,0.539076,5.92581
-315,540,0.531006,-6.0838,0.00317477,-0.00298957,-0.00182967,0.00367693,-0.00349173,-0.267862,0.00413929,0.0131387,909,484,0.530976,6.0838
-308,540,0.53772,-6.22614,0.00216003,-0.00262741,-0.00136193,0.00252036,-0.00298773,-0.258642,0.00318391,0.0121797,916,484,0.537704,6.22614
-301,540,0.533691,-6.38654,0.00179797,-0.00196517,-0.0010568,0.00207444,-0.00224164,-0.255876,0.00249251,0.0115545,923,484,0.533711,6.38655
-294,540,0.551758,-6.55112,0.00157938,-0.00124719,-0.000813457,0.00179676,-0.00146458,-0.261134,0.00188619,0.0105863,930,484,0.551749,6.55111
-287,540,0.557922,-6.6955,0.00158235,-0.000878844,-0.000635197,0.00173661,-0.00103311,-0.23825,0.0016162,0.0074307,937,484,0.557936,6.69549
-280,540,0.552063,-6.8421,0.00183737,-0.000674767,-0.000736857,0.00203756,-0.000874949,-0.265268,0.00172561,0.00850213,944,484,0.552055,6.84209
-273,540,0.553162,-6.99664,0.00206533,-0.000370532,-0.00079778,0.00230336,-0.000608557,-0.289951,0.00177357,0.0112581,951,484,0.553172,6.99666
-266,540,0.549316,-7.13333,0.00249887,-3.47459e-05,-0.00100189,0.00284717,-0.000383051,-0.334578,0.00203783,0.0124485,958,484,0.549339,7.13332
-259,540,0.550903,-7.2778,0.00320098,5.95605e-05,-0.00131284,0.00367738,-0.000416843,-0.348103,0.00260169,0.0113781,965,484,0.550906,7.27779
-252,540,0.561096,-7.41696,0.00413295,0.000273766,-0.00176843,0.00482074,-0.00041402,-0.370922,0.00336035,0.0115514,972,484,0.561072,7.41696
-245,540,0.565735,-7.55884,0.00535845,0.000720957,-0.00247136,0.00642854,-0.000349136,-0.408624,0.00440668,0.0120401,979,484,0.565748,7.55884
-238,540,0.57373,-7.6795,0.00684387,0.00146023,-0.00331578,0.00842292,-0.000118812,-0.444444,0.0056553,0.00903137,986,484,0.57375,7.67951
-231,540,0.573425,-7.80035,0.00821523,0.00232734,-0.00425767,0.0104476,9.49404e-05,-0.482918,0.00693366,0.011363,993,484,0.573401,7.80035
-224,540,0.592468,-7.91714,0.00965878,0.003416,-0.00525191,0.0126469,0.000427919,-0.517277,0.00829228,0.016362,1000,484,0.592467,7.91714
-217,540,0.656311,-8.09778,0.011082,0.00486103,-0.00627737,0.0149772,0.000965762,-0.555375,0.00967897,0.0257345,1007,484,0.656289,8.09779
-210,540,0.739685,-8.21548,0.0126156,0.00661374,-0.00667754,0.0169355,0.0022938,-0.574218,0.0106087,0.0407034,1014,484,0.739708,8.2155
-203,540,0.918518,-8.37692,0.0136641,0.00822192,-0.00600733,0.0175379,0.00434814,-0.572742,0.0105457,0.0464152,1021,484,0.918534,8.37692
-196,540,1.10999,-8.52805,0.0208354,0.00605093,-0.00906138,0.0251373,0.00174899,-0.443249,0.0162067,0.0487941,1028,484,1.11005,8.52804
-189,540,1.24927,-8.57312,0.0300857,0.00274604,-0.014494,0.0363392,-0.00350747,-0.407326,0.0254759,0.0498307,1035,484,1.24926,8.57311
-182,540,1.46814,-8.66245,0,0,0,0,0,0,0,-1,1042,484,1.46811,8.66243
-175,540,1.20837,-6.45352,0,0,0,0,0,0,0,-1,1049,484,1.20834,6.45351
-168,540,1.96252,-6.69171,0,0,0,0,0,0,0,-1,1056,484,1.96253,6.69171
-161,540,-1.31653,-9.93869,0,0,0,0,0,0,0,-1,1063,484,-1.31651,9.93868
-154,540,0.542358,-9.20294,0,0,0,0,0,0,0,-1,1070,484,0.542405,9.20294
-147,540,0.459106,-8.25421,0,0,0,0,0,0,0,-1,1077,484,0.459078,8.25422
-140,540,0.466797,-8.22092,0.0786513,-0.00369315,-0.0644237,0.113935,-0.0389772,-0.501066,0.0917518,0.0434289,1084,484,0.466834,8.22091
-133,540,0.733276,-8.80582,0.082526,-1.34411e-05,-0.0746077,0.126518,-0.0440051,-0.532767,0.102221,0.0464114,1091,484,0.733219,8.80582
-126,540,1.06201,-9.57385,0,0,0,0,0,0,0,-1,1098,484,1.06204,9.57385
-119,540,1.95288,-11.9641,0,0,0,0,0,0,0,-1,1105,484,1.95286,11.9641
-112,540,2.54956,-13.5836,0,0,0,0,0,0,0,-1,1112,484,2.5495,13.5836
-105,540,1.73462,-4.61615,0,0,0,0,0,0,0,-1,1119,484,1.73465,4.61616
-98,540,0.73877,-3.08093,0,0,0,0,0,0,0,-1,1126,484,0.738754,3.08092
-91,540,0.586914,4.62909,0,0,0,0,0,0,0,-1,1133,484,0.586932,-4.6291
-84,540,-0.945923,4.43073,0,0,0,0,0,0,0,-1,1140,484,-0.945891,-4.43074
-77,540,-2.28894,2.14368,0,0,0,0,0,0,0,-1,1147,484,-2.28894,-2.14368
-70,540,-3.75244,-0.452576,0,0,0,0,0,0,0,-1,1154,484,-3.75244,0.452576
-63,540,-5.26257,-3.04767,0,0,0,0,0,0,0,-1,1161,484,-5.26262,3.04766
-56,540,-5.19055,-6.12595,0,0,0,0,0,0,0,-1,1168,484,-5.19057,6.12595
-49,540,-5.63867,-8.52298,0,0,0,0,0,0,0,-1,1175,484,-5.63871,8.52298
-42,540,0,0,0,0,0,0,0,0,0,-1,1182,484,0,0
-35,540,0,0,0,0,0,0,0,0,0,-1,1189,484,0,0
-28,540,0,0,0,0,0,0,0,0,0,-1,1196,484,0,0
-21,540,0,0,0,0,0,0,0,0,0,-1,1203,484,0,0
-14,540,0,0,0,0,0,0,0,0,0,-1,1210,484,0,0
-7,540,0,0,0,0,0,0,0,0,0,-1,1217,484,0,0
0,540,0,0,0,0,0,0,0,0,0,-1,1224,484,0,0
7,540,0,0,0,0,0,0,0,0,0,-1,1231,484,0,0
14,540,0,0,0,0,0,0,0,0,0,-1,1238,484,0,0
21,540,0,0,0,0,0,0,0,0,0,-1,1245,484,0,0
28,540,0,0,0,0,0,0,0,0,0,-1,1252,484,0,0
35,540,0,0,0,0,0,0,0,0,0,-1,1259,484,0,0
42,540,0,0,0,0,0,0,0,0,0,-1,1266,484,0,0
49,540,0,0,0,0,0,0,0,0,0,-1,1273,484,0,0
56,540,0,0,0,0,0,0,0,0,0,-1,1280,484,0,0
63,540,0,0,0,0,0,0,0,0,0,-1,1287,484,0,0
70,540,0,0,0,0,0,0,0,0,0,-1,1294,484,0,0
77,540,0,0,0,0,0,0,0,0,0,-1,1301,484,0,0
84,540,0,0,0,0,0,0,0,0,0,-1,1308,484,0,0
91,540,0,0,0,0,0,0,0,0,0,-1,1315,484,0,0
98,540,0,0,0,0,0,0,0,0,0,-1,1322,484,0,0
105,540,0,0,0,0,0,0,0,0,0,-1,1329,484,0,0
112,540,0,0,0,0,0,0,0,0,0,-1,1336,484,0,0
119,540,0,0,0,0,0,0,0,0,0,-1,1343,484,0,0
126,540,0,0,0,0,0,0,0,0,0,-1,1350,484,0,0
133,540,0,0,0,0,0,0,0,0,0,-1,1357,484,0,0
140,540,0,0,0,0,0,0,0,0,0,-1,1364,484,0,0
147,540,0,0,0,0,0,0,0,0,0,-1,1371,484,0,0
154,540,0,0,0,0,0,0,0,0,0,-1,1378,484,0,0
161,540,0,0,0,0,0,0,0,0,0,-1,1385,484,0,0
168,540,3.05078,-0.0010376,0,0,0,0,0,0,0,-1,1392,484,3.05084,0.00102554
175,540,3.37708,0.617035,0,0,0,0,0,0,0,-1,1399,484,3.37707,-0.617046
182,540,3.32678,1.23267,0,0,0,0,0,0,0,-1,1406,484,3.32678,-1.23266
189,540,3.5813,2.15619,0,0,0,0,0,0,0,-1,1413,484,3.58129,-2.1562
196,540,1.84448,-0.801483,0,0,0,0,0,0,0,-1,1420,484,1.84446,0.80148
203,540,4.14648,0.702087,0,0,0,0,0,0,0,-1,1427,484,4.14645,-0.702089
210,540,4.50671,-0.56076,0,0,0,0,0,0,0,-1,1434,484,4.50667,0.560771
217,540,5.00452,-0.278717,0,0,0,0,0,0,0,-1,1441,484,5.00452,0.278709
224,540,6.44458,-2.83527,0,0,0,0,0,0,0,-1,1448,484,6.44457,2.83525
231,540,6.9231,-3.10504,0,0,0,0,0,0,0,-1,1455,484,6.92307,3.10505
238,540,6.4823,-2.58365,0,0,0,0,0,0,0,-1,1462,484,6.48225,2.58363
245,540,6.02087,-1.97916,0,0,0,0,0,0,0,-1,1469,484,6.02088,1.97915
252,540,6.50647,-3.56006,0,0,0,0,0,0,0,-1,1476,484,6.50649,3.56006
259,540,6.01941,-2.798,0,0,0,0,0,0,0,-1,1483,484,6.01941,2.79801
266,540,5.5332,-2.02853,0,0,0,0,0,0,0,-1,1490,484,5.53323,2.02855
273,540,5.06787,-1.28137,0,0,0,0,0,0,0,-1,1497,484,5.06786,1.28136
280,540,1.62903,-2.14609,0,0,0,0,0,0,0,-1,1504,484,1.62906,2.1461
287,540,1.97156,-2.45053,0,0,0,0,0,0,0,-1,1511,484,1.97159,2.45053
294,540,2.44165,-2.6185,0,0,0,0,0,0,0,-1,1518,484,2.44167,2.6185
301,540,4.36169,-2.54272,0,0,0,0,0,0,0,-1,1525,484,4.36165,2.54272
308,540,4.2019,-4.30469,0,0,0,0,0,0,0,-1,1532,484,4.20193,4.3047
315,540,4.45923,-5.32101,0,0,0,0,0,0,0,-1,1539,484,4.45923,5.32103
322,540,4.71655,-6.33737,0,0,0,0,0,0,0,-1,1546,484,4.71653,6.33736
329,540,3.62415,-7.18555,0,0,0,0,0,0,0,-1,1553,484,3.62411,7.18555
336,540,3.79309,-7.35007,0,0,0,0,0,0,0,-1,1560,484,3.79303,7.35008
343,540,3.72253,-7.34436,0,0,0,0,0,0,0,-1,1567,484,3.72252,7.34435
350,540,3.99414,-6.81802,-0.00649662,-0.0110574,-0.00836622,-0.000105593,-0.0174485,-0.652343,0.0115973,0.0426641,1574,484,3.9941,6.81803
357,540,3.83459,-6.80945,-0.00564145,-0.0113051,-0.00742925,-0.000522608,-0.0164239,-0.603314,0.0107793,0.0322796,1581,484,3.83459,6.80944
364,540,3.66675,-6.71869,-0.00479748,-0.0108328,-0.00655238,-0.000601284,-0.015029,-0.569603,0.00982506,0.0177022,1588,484,3.66671,6.71868
371,540,3.66626,-6.59286,-0.00398082,-0.0100832,-0.00559084,-0.000662759,-0.0134012,-0.535612,0.00872164,0.0125238,1595,484,3.66628,6.59286
378,540,3.68677,-6.43658,-0.00317606,-0.00909916,-0.00471432,-0.000570246,-0.011705,-0.504948,0.00762035,0.0116339,1602,484,3.68672,6.43659
385,540,3.70093,-6.26965,-0.00262003,-0.00808503,-0.00396881,-0.000534026,-0.010171,-0.483917,0.00660987,0.0133843,1609,484,3.70089,6.26964
392,540,3.69275,-6.10248,-0.00204764,-0.00711508,-0.00329383,-0.00042576,-0.00873696,-0.45755,0.00568804,0.0118952,1616,484,3.69274,6.10248
399,540,3.6853,-5.96542,-0.0014277,-0.00610542,-0.0027071,-0.000189043,-0.00734408,-0.429123,0.00483427,0.0162319,1623,484,3.6853,5.96543
406,540,3.68542,-5.80316,-0.000827984,-0.0048873,-0.00202596,1.01146e-05,-0.0057254,-0.392243,0.00382031,0.0177998,1630,484,3.68543,5.80316
413,540,3.69934,-5.61572,-0.000261429,-0.00381669,-0.00139241,0.000218988,-0.00429711,-0.332236,0.00294046,0.013232,1637,484,3.69929,5.61571
420,540,3.72192,-5.43839,0.00010962,-0.0028342,-0.000899143,0.000362522,-0.0030871,-0.274186,0.00218894,0.0114095,1644,484,3.72192,5.4384
427,540,3.70471,-5.27579,0.000435513,-0.00194326,-0.000332939,0.000481234,-0.00198898,-0.136469,0.00151214,0.0124,1651,484,3.7047,5.27577
434,540,3.69507,-5.11707,0.000878421,-0.00135504,0.000319685,0.000923277,-0.0013999,0.139406,0.00135066,0.0153196,1658,484,3.69504,5.11706
441,540,3.69727,-4.9249,0.00131024,-0.000743579,0.00094063,0.00167593,-0.00110927,0.370787,0.00161909,0.0177675,1665,484,3.69732,4.92488
448,540,3.70972,-4.74866,0.0018079,-0.000395577,0.00166373,0.00270161,-0.00128929,0.492944,0.00235175,0.0107759,1672,484,3.7097,4.74865
455,540,3.71167,-4.56052,0.00245468,-0.000110509,0.00234056,0.00384103,-0.00149686,0.53475,0.00317935,0.0101948,1679,484,3.71164,4.56053
462,540,3.69922,-4.37497,0.0031937,-7.44179e-05,0.00302435,0.00499721,-0.00187793,0.537715,0.00410328,0.0112053,1686,484,3.69921,4.37496
469,540,3.6886,-4.22415,0.00379277,-0.000589986,0.00350305,0.0057334,-0.00253062,0.505896,0.00488921,0.014284,1693,484,3.68856,4.22415
476,540,3.68262,-4.11044,0.00438424,-0.000958579,0.00397075,0.00649857,-0.00307291,0.489289,0.00564284,0.0195826,1700,484,3.68262,4.11045
483,540,3.64661,-3.92233,0.00506702,-0.00140538,0.0044056,0.00729728,-0.00363565,0.468623,0.00642906,0.0312182,1707,484,3.64667,3.92234
490,540,3.71094,-3.81821,0,0,0,0,0,0,0,-1,1714,484,3.71094,3.8182
497,540,4.27393,-2.67752,0,0,0,0,0,0,0,-1,1721,484,4.27395,2.67751
504,540,4.36279,-2.58548,0.00651416,-0.0039689,0.00522156,0.00867116,-0.00612591,0.391745,0.00858512,0.0480506,1728,484,4.36276,2.58549
511,540,4.427,-2.56085,0,0,0,0,0,0,0,-1,1735,484,4.42706,2.56086
518,540,4.60767,-2.57031,0,0,0,0,0,0,0,-1,1742,484,4.60772,2.57031
525,540,1.4408,-2.13428,0,0,0,0,0,0,0,-1,1749,484,1.44076,2.13427
532,540,2.84265,-1.07925,0,0,0,0,0,0,0,-1,1756,484,2.84269,1.07927
539,540,0,0,0,0,0,0,0,0,0,-1,1763,484,0,0
546,540,0,0,0,0,0,0,0,0,0,-1,1770,484,0,0
553,540,0,0,0,0,0,0,0,0,0,-1,1777,484,0,0
560,540,0,0,0,0,0,0,0,0,0,-1,1784,484,0,0
567,540,0,0,0,0,0,0,0,0,0,-1,1791,484,0,0
574,540,0,0,0,0,0,0,0,0,0,-1,1798,484,0,0
581,540,0,0,0,0,0,0,0,0,0,-1,1805,484,0,0
588,540,0,0,0,0,0,0,0,0,0,-1,1812,484,0,0
595,540,0,0,0,0,0,0,0,0,0,-1,1819,484,0,0
602,540,0,0,0,0,0,0,0,0,0,-1,1826,484,0,0
609,540,0,0,0,0,0,0,0,0,0,-1,1833,484,0,0
616,540,0,0,0,0,0,0,0,0,0,-1,1840,484,0,0
623,540,0,0,0,0,0,0,0,0,0,-1,1847,484,0,0
630,540,0,0,0,0,0,0,0,0,0,-1,1854,484,0,0
637,540,0,0,0,0,0,0,0,0,0,-1,1861,484,0,0
644,540,0,0,0,0,0,0,0,0,0,-1,1868,484,0,0
651,540,0,0,0,0,0,0,0,0,0,-1,1875,484,0,0
658,540,0,0,0,0,0,0,0,0,0,-1,1882,484,0,0
665,540,0,0,0,0,0,0,0,0,0,-1,1889,484,0,0
672,540,0,0,0,0,0,0,0,0,0,-1,1896,484,0,0
679,540,0,0,0,0,0,0,0,0,0,-1,1903,484,0,0
686,540,0,0,0,0,0,0,0,0,0,-1,1910,484,0,0
693,540,0,0,0,0,0,0,0,0,0,-1,1917,484,0,0
700,540,0,0,0,0,0,0,0,0,0,-1,1924,484,0,0
707,540,0,0,0,0,0,0,0,0,0,-1,1931,484,0,0
714,540,0,0,0,0,0,0,0,0,0,-1,1938,484,0,0
721,540,0,0,0,0,0,0,0,0,0,-1,1945,484,0,0
728,540,0,0,0,0,0,0,0,0,0,-1,1952,484,0,0
735,540,0,0,0,0,0,0,0,0,0,-1,1959,484,0,0
742,540,0,0,0,0,0,0,0,0,0,-1,1966,484,0,0
749,540,0,0,0,0,0,0,0,0,0,-1,1973,484,0,0
756,540,0,0,0,0,0,0,0,0,0,-1,1980,484,0,0
763,540,0,0,0,0,0,0,0,0,0,-1,1987,484,0,0
770,540,0,0,0,0,0,0,0,0,0,-1,1994,484,0,0
777,540,0,0,0,0,0,0,0,0,0,-1,2001,484,0,0
784,540,0,0,0,0,0,0,0,0,0,-1,2008,484,0,0
791,540,0,0,0,0,0,0,0,0,0,-1,2015,484,0,0
798,540,0,0,0,0,0,0,0,0,0,-1,2022,484,0,0
805,540,0,0,0,0,0,0,0,0,0,-1,2029,484,0,0
812,540,0,0,0,0,0,0,0,0,0,-1,2036,484,0,0
-700,533,0,0,0,0,0,0,0,0,0,-1,524,491,0,0
-693,533,0,0,0,0,0,0,0,0,0,-1,531,491,0,0
-686,533,0,0,0,0,0,0,0,0,0,-1,538,491,0,0
-679,533,0,0,0,0,0,0,0,0,0,-1,545,491,0,0
-672,533,0,0,0,0,0,0,0,0,0,-1,552,491,0,0
-665,533,0,0,0,0,0,0,0,0,0,-1,559,491,0,0
-658,533,0,0,0,0,0,0,0,0,0,-1,566,491,0,0
-651,533,0,0,0,0,0,0,0,0,0,-1,573,491,0,0
-644,533,0,0,0,0,0,0,0,0,0,-1,580,491,0,0
-637,533,0,0,0,0,0,0,0,0,0,-1,587,491,0,0
-630,533,0,0,0,0,0,0,0,0,0,-1,594,491,0,0
-623,533,0,0,0,0,0,0,0,0,0,-1,601,491,0,0
-616,533,0,0,0,0,0,0,0,0,0,-1,608,491,0,0
-609,533,0,0,0,0,0,0,0,0,0,-1,615,491,0,0
-602,533,0,0,0,0,0,0,0,0,0,-1,622,491,0,0
-595,533,0,0,0,0,0,0,0,0,0,-1,629,491,0,0
-588,533,0,0,0,0,0,0,0,0,0,-1,636,491,0,0
-581,533,0,0,0,0,0,0,0,0,0,-1,643,491,0,0
-574,533,0,0,0,0,0,0,0,0,0,-1,650,491,0,0
-567,533,0,0,0,0,0,0,0,0,0,-1,657,491,0,0
-560,533,0,0,0,0,0,0,0,0,0,-1,664,491,0,0
-553,533,0,0,0,0,0,0,0,0,0,-1,671,491,0,0
-546,533,0,0,0,0,0,0,0,0,0,-1,678,491,0,0
-539,533,0,0,0,0,0,0,0,0,0,-1,685,491,0,0
-532,533,0,0,0,0,0,0,0,0,0,-1,692,491,0,0
-525,533,0,0,0,0,0,0,0,0,0,-1,699,491,0,0
-518,533,0,0,0,0,0,0,0,0,0,-1,706,491,0,0
-511,533,0,0,0,0,0,0,0,0,0,-1,713,491,0,0
-504,533,0,0,0,0,0,0,0,0,0,-1,720,491,0,0
-497,533,0,0,0,0,0,0,0,0,0,-1,727,491,0,0
-490,533,0,0,0,0,0,0,0,0,0,-1,734,491,0,0
-483,533,0,0,0,0,0,0,0,0,0,-1,741,491,0,0
-476,533,0,0,0,0,0,0,0,0,0,-1,748,491,0,0
-469,533,0,0,0,0,0,0,0,0,0,-1,755,491,0,0
-462,533,0,0,0,0,0,0,0,0,0,-1,762,491,0,0
-455,533,0,0,0,0,0,0,0,0,0,-1,769,491,0,0
-448,533,0,0,0,0,0,0,0,0,0,-1,776,491,0,0
-441,533,0,0,0,0,0,0,0,0,0,-1,783,491,0,0
-434,533,0,0,0,0,0,0,0,0,0,-1,790,491,0,0
-427,533,3.10034,-2.32062,0,0,0,0,0,0,0,-1,797,491,3.10034,2.32062
-420,533,3.06226,-2.05475,0,0,0,0,0,0,0,-1,804,491,3.06228,2.05476
-413,533,1.28101,-2.74377,0,0,0,0,0,0,0,-1,811,491,1.28103,2.74378
-406,533,1.25336,-2.94385,0,0,0,0,0,0,0,-1,818,491,1.25338,2.94386
-399,533,1.08795,-3.16263,0,0,0,0,0,0,0,-1,825,491,1.08794,3.16262
-392,533,0.588989,-3.75467,0,0,0,0,0,0,0,-1,832,491,0.588997,3.75466
-385,533,0.109924,-4.41916,0,0,0,0,0,0,0,-1,839,491,0.109918,4.41915
-378,533,-0.761414,-5.15549,0,0,0,0,0,0,0,-1,846,491,-0.761387,5.15549
-371,533,0.108398,-4.38669,0,0,0,0,0,0,0,-1,853,491,0.1084,4.38668
-364,533,0.293762,-4.77902,0.013913,0.00768057,-0.00497844,0.0166701,0.00492349,-0.505759,0.00988957,0.0407964,860,491,0.29375,4.77901
-357,533,0.465149,-5.09955,0.0115473,0.00520509,-0.0044793,0.0138644,0.00288803,-0.477378,0.00844646,0.0250675,867,491,0.465128,5.09956
-350,533,0.429565,-5.22931,0.00920881,0.00319602,-0.00402278,0.0112245,0.00118035,-0.464499,0.00712222,0.011768,874,491,0.429574,5.2293
-343,533,0.45343,-5.45224,0.00709055,0.00136216,-0.00361979,0.00884225,-0.000389537,-0.450704,0.00602887,0.0102698,881,491,0.453414,5.45223
-336,533,0.414001,-5.62238,0.00556672,-0.000161523,-0.00308294,0.00691065,-0.00150545,-0.411088,0.00518233,0.0145829,888,491,0.414009,5.62238
-329,533,0.399658,-5.76221,0.00416252,-0.000777926,-0.00252219,0.00522266,-0.00183806,-0.397903,0.00422975,0.0140578,895,491,0.399641,5.7622
-322,533,0.388611,-5.92017,0.00309328,-0.00132492,-0.00202089,0.00387819,-0.00210983,-0.370467,0.00350708,0.0114797,902,491,0.388623,5.92015
-315,533,0.38092,-6.0834,0.0021669,-0.00133705,-0.00159185,0.00278208,-0.00195222,-0.368773,0.00274731,0.0127983,909,491,0.380936,6.08339
-308,533,0.381531,-6.22888,0.00146152,-0.0011621,-0.00112499,0.00187785,-0.00157843,-0.354441,0.00199798,0.0121709,916,491,0.381525,6.22888
-301,533,0.38092,-6.38602,0.00125375,-0.000801788,-0.00080224,0.00152979,-0.00107782,-0.331388,0.00151302,0.012208,923,491,0.380891,6.38601
-294,533,0.404114,-6.54724,0.00119998,-0.000391595,-0.000534341,0.00136273,-0.000554347,-0.295658,0.00113915,0.0109487,930,491,0.40409,6.54724
-287,533,0.412476,-6.70264,0.00140709,-0.000216319,-0.000363498,0.00148477,-0.000293994,-0.21052,0.00110101,0.00871156,937,491,0.412462,6.70265
-280,533,0.407043,-6.85516,0.00190989,-0.000277031,-0.000551577,0.00204113,-0.000408271,-0.233594,0.00151529,0.00784414,944,491,0.407053,6.85516
-273,533,0.396851,-6.99753,0.00234383,-0.00029152,-0.000734069,0.0025345,-0.000482197,-0.254137,0.00187123,0.0111558,951,491,0.396847,6.99753
-266,533,0.407227,-7.1402,0.00302614,-0.000103347,-0.0010934,0.00337031,-0.000447513,-0.30495,0.00240993,0.0112237,958,491,0.407231,7.1402
-259,533,0.433838,-7.28412,0.00409958,-0.000109169,-0.001616,0.00464847,-0.000658065,-0.327437,0.00334002,0.0112102,965,491,0.433847,7.28412
-252,533,0.437988,-7.4162,0.00545549,0.000101628,-0.00227312,0.0062904,-0.000733281,-0.352,0.00445817,0.0130021,972,491,0.437961,7.41619
-245,533,0.467957,-7.54916,0.00713881,0.000676945,-0.00323744,0.00848171,-0.000665955,-0.393202,0.00588902,0.0182221,979,491,0.467964,7.54918
-238,533,0.482971,-7.61716,0.0090681,0.00171344,-0.00438572,0.0111142,-0.00033263,-0.436515,0.00752278,0.0200073,986,491,0.482952,7.61715
-231,533,0.573914,-7.70889,0.0109066,0.00292458,-0.0056795,0.0138572,-2.59392e-05,-0.479128,0.00924676,0.0288942,993,491,0.573923,7.70888
-224,533,0.472473,-7.97757,0.0128244,0.00444818,-0.00703622,0.0168246,0.000447962,-0.51695,0.0110701,0.0357097,1000,491,0.472472,7.97757
-217,533,0.46759,-8.34601,0.0148007,0.00652945,-0.00848271,0.0201022,0.00122792,-0.558586,0.0130115,0.0395878,1007,491,0.467576,8.34601
-210,533,0.701477,-8.22528,0,0,0,0,0,0,0,-1,1014,491,0.701448,8.2253
-203,533,0.878967,-8.56039,0,0,0,0,0,0,0,-1,1021,491,0.878985,8.5604
-196,533,1.07166,-8.87299,0,0,0,0,0,0,0,-1,1028,491,1.07166,8.873
-189,533,1.2157,-8.94122,0,0,0,0,0,0,0,-1,1035,491,1.21571,8.94121
-182,533,1.59631,-3.88702,0,0,0,0,0,0,0,-1,1042,491,1.59636,3.88702
-175,533,1.17761,-6.07086,0,0,0,0,0,0,0,-1,1049,491,1.17759,6.07086
-168,533,2.64807,-2.7543,0,0,0,0,0,0,0,-1,1056,491,2.64812,2.7543
-161,533,1.91833,-1.76553,0,0,0,0,0,0,0,-1,1063,491,1.91836,1.76554
-154,533,-1.24805,-5.92294,0,0,0,0,0,0,0,-1,1070,491,-1.24806,5.92295
-147,533,-0.449951,-7.10913,0.0962965,-0.0104864,-0.0696222,0.130643,-0.0448326,-0.458292,0.105271,0.0461647,1077,491,-0.449921,7.10912
-140,533,0.481812,-8.27359,0.101736,-0.00907304,-0.0793779,0.143133,-0.0504699,-0.480712,0.115966,0.0470061,1084,491,0.481827,8.2736
-133,533,1.23474,-8.92532,0,0,0,0,0,0,0,-1,1091,491,1.2347,8.92532
-126,533,2.89612,-2.59003,0,0,0,0,0,0,0,-1,1098,491,2.89608,2.59003
-119,533,3.00842,-12.8239,0,0,0,0,0,0,0,-1,1105,491,3.00841,12.8239
-112,533,1.69788,-3.8486,0,0,0,0,0,0,0,-1,1112,491,1.69793,3.84862
-105,533,3.84839,1.12769,0,0,0,0,0,0,0,-1,1119,491,3.84843,-1.12769
-98,533,-1.39392,-5.16367,0,0,0,0,0,0,0,-1,1126,491,-1.39394,5.16367
-91,533,0.367432,4.49753,0,0,0,0,0,0,0,-1,1133,491,0.367468,-4.49754
-84,533,-0.88623,3.03604,0,0,0,0,0,0,0,-1,1140,491,-0.886288,-3.03605
-77,533,0,0,0,0,0,0,0,0,0,-1,1147,491,0,0
-70,533,0,0,0,0,0,0,0,0,0,-1,1154,491,0,0
-63,533,0,0,0,0,0,0,0,0,0,-1,1161,491,0,0
-56,533,0,0,0,0,0,0,0,0,0,-1,1168,491,0,0
-49,533,0,0,0,0,0,0,0,0,0,-1,1175,491,0,0
-42,533,0,0,0,0,0,0,0,0,0,-1,1182,491,0,0
-35,533,0,0,0,0,0,0,0,0,0,-1,1189,491,0,0
-28,533,0,0,0,0,0,0,0,0,0,-1,1196,491,0,0
-21,533,0,0,0,0,0,0,0,0,0,-1,1203,491,0,0
-14,533,0,0,0,0,0,0,0,0,0,-1,1210,491,0,0
-7,533,0,0,0,0,0,0,0,0,0,-1,1217,491,0,0
0,533,0,0,0,0,0,0,0,0,0,-1,1224,491,0,0
7,533,0,0,0,0,0,0,0,0,0,-1,1231,491,0,0
14,533,0,0,0,0,0,0,0,0,0,-1,1238,491,0,0
21,533,0,0,0,0,0,0,0,0,0,-1,1245,491,0,0
28,533,0,0,0,0,0,0,0,0,0,-1,1252,491,0,0
35,533,0,0,0,0,0,0,0,0,0,-1,1259,491,0,0
42,533,0,0,0,0,0,0,0,0,0,-1,1266,491,0,0
49,533,0,0,0,0,0,0,0,0,0,-1,1273,491,0,0
56,533,0,0,0,0,0,0,0,0,0,-1,1280,491,0,0
63,533,0,0,0,0,0,0,0,0,0,-1,1287,491,0,0
70,533,0,0,0,0,0,0,0,0,0,-1,1294,491,0,0
77,533,0,0,0,0,0,0,0,0,0,-1,1301,491,0,0
84,533,0,0,0,0,0,0,0,0,0,-1,1308,491,0,0
91,533,0,0,0,0,0,0,0,0,0,-1,1315,491,0,0
98,533,0,0,0,0,0,0,0,0,0,-1,1322,491,0,0
105,533,0,0,0,0,0,0,0,0,0,-1,1329,491,0,0
112,533,0,0,0,0,0,0,0,0,0,-1,1336,491,0,0
119,533,0,0,0,0,0,0,0,0,0,-1,1343,491,0,0
126,533,0,0,0,0,0,0,0,0,0,-1,1350,491,0,0
133,533,0,0,0,0,0,0,0,0,0,-1,1357,491,0,0
140,533,0,0,0,0,0,0,0,0,0,-1,1364,491,0,0
147,533,0,0,0,0,0,0,0,0,0,-1,1371,491,0,0
154,533,0,0,0,0,0,0,0,0,0,-1,1378,491,0,0
161,533,0,0,0,0,0,0,0,0,0,-1,1385,491,0,0
168,533,0,0,0,0,0,0,0,0,0,-1,1392,491,0,0
175,533,0,0,0,0,0,0,0,0,0,-1,1399,491,0,0
182,533,0,0,0,0,0,0,0,0,0,-1,1406,491,0,0
189,533,0,0,0,0,0,0,0,0,0,-1,1413,491,0,0
196,533,0,0,0,0,0,0,0,0,0,-1,1420,491,0,0
203,533,3.7887,1.16193,0,0,0,0,0,0,0,-1,1427,491,3.78872,-1.16193
210,533,5.09558,-0.216034,0,0,0,0,0,0,0,-1,1434,491,5.09559,0.216028
217,533,6.91614,-2.46814,0,0,0,0,0,0,0,-1,1441,491,6.91618,2.46814
224,533,7.23621,-2.1857,0,0,0,0,0,0,0,-1,1448,491,7.23621,2.1857
231,533,7.23474,-1.92282,0,0,0,0,0,0,0,-1,1455,491,7.2347,1.92282
238,533,7.23535,-1.67258,0,0,0,0,0,0,0,-1,1462,491,7.23539,1.67258
245,533,6.86682,-1.2301,0,0,0,0,0,0,0,-1,1469,491,6.86686,1.23011
252,533,6.63354,-3.07825,0,0,0,0,0,0,0,-1,1476,491,6.6335,3.07824
259,533,6.16431,-2.35037,0,0,0,0,0,0,0,-1,1483,491,6.1643,2.35037
266,533,5.68884,-1.6214,0,0,0,0,0,0,0,-1,1490,491,5.68885,1.6214
273,533,5.21399,-0.864227,0,0,0,0,0,0,0,-1,1497,491,5.21403,0.864227
280,533,1.41089,-1.97946,0,0,0,0,0,0,0,-1,1504,491,1.41087,1.97946
287,533,1.6814,-2.44443,0,0,0,0,0,0,0,-1,1511,491,1.6814,2.44444
294,533,2.2384,-2.57626,0,0,0,0,0,0,0,-1,1518,491,2.23839,2.57625
301,533,3.39941,-4.0817,0,0,0,0,0,0,0,-1,1525,491,3.3994,4.08171
308,533,4.13733,-4.14752,0,0,0,0,0,0,0,-1,1532,491,4.13727,4.14752
315,533,4.80762,-5.29349,0,0,0,0,0,0,0,-1,1539,491,4.80762,5.29347
322,533,5.47803,-6.43942,0,0,0,0,0,0,0,-1,1546,491,5.47798,6.43943
329,533,3.88477,-3.86301,0,0,0,0,0,0,0,-1,1553,491,3.88475,3.86299
336,533,3.53687,-5.68427,0,0,0,0,0,0,0,-1,1560,491,3.53689,5.68425
343,533,5.87952,-6.38858,0,0,0,0,0,0,0,-1,1567,491,5.87953,6.38857
350,533,4.32141,-6.44855,0,0,0,0,0,0,0,-1,1574,491,4.32136,6.44854
357,533,4.36011,-6.73087,-0.00794757,-0.0167161,-0.00993558,-0.00147195,-0.0231918,-0.577612,0.0149946,0.0455238,1581,491,4.36015,6.73087
364,533,4.00964,-6.68051,-0.00661934,-0.0159833,-0.00883223,-0.00130485,-0.0212978,-0.54168,0.0137842,0.0350942,1588,491,4.00967,6.6805
371,533,3.78979,-6.58218,-0.00539543,-0.0148254,-0.00759219,-0.00117327,-0.0190475,-0.507529,0.0123259,0.028374,1595,491,3.78979,6.58217
378,533,3.79956,-6.41388,-0.00423863,-0.0133418,-0.0064852,-0.000867167,-0.0167133,-0.479417,0.0108647,0.0213847,1602,491,3.79958,6.41388
385,533,3.88135,-6.25055,-0.00346367,-0.0118076,-0.00554298,-0.000698067,-0.0145732,-0.462797,0.00949136,0.0196599,1609,491,3.88131,6.25054
392,533,3.85974,-6.11713,-0.00273811,-0.0103096,-0.00469983,-0.000488929,-0.0125587,-0.446354,0.00821437,0.0126553,1616,491,3.85979,6.11712
399,533,3.86292,-5.97543,-0.00204289,-0.0087578,-0.00400416,-0.000174851,-0.0106258,-0.436511,0.00702634,0.011539,1623,491,3.86289,5.97543
406,533,3.86426,-5.80972,-0.00137245,-0.00700634,-0.00321214,8.29659e-05,-0.00846175,-0.425427,0.00566902,0.015109,1630,491,3.86431,5.80972
413,533,3.87549,-5.61938,-0.000703771,-0.00547886,-0.00243891,0.000321698,-0.00650433,-0.39802,0.00444733,0.0130293,1637,491,3.87544,5.61939
420,533,3.88171,-5.42352,-0.00028717,-0.00408932,-0.00184185,0.000458732,-0.00483522,-0.384788,0.00338677,0.0116283,1644,491,3.88175,5.42352
427,533,3.89404,-5.24048,-2.49318e-05,-0.00284153,-0.00123764,0.000441615,-0.00330808,-0.360493,0.00236637,0.012903,1651,491,3.89399,5.24047
434,533,3.87683,-5.0929,0.00028037,-0.00191132,-0.000586365,0.000427385,-0.00205834,-0.245658,0.00153465,0.0133207,1658,491,3.87687,5.09289
441,533,3.87769,-4.91757,0.000615551,-0.00100241,1.83259e-05,0.000615758,-0.00100262,0.0113246,0.000943227,0.0148748,1665,491,3.87771,4.91756
448,533,3.88672,-4.75125,0.0010152,-0.000468442,0.000725808,0.00131121,-0.000764453,0.387243,0.00121217,0.0165116,1672,491,3.88668,4.75124
455,533,3.88123,-4.56262,0.00153933,-0.000108976,0.00136439,0.00230916,-0.000878808,0.513704,0.00190133,0.0169289,1679,491,3.88126,4.56262
462,533,3.8689,-4.35645,0.00210199,1.93583e-05,0.00195561,0.00327625,-0.0011549,0.540753,0.00265425,0.0161904,1686,491,3.86892,4.35644
469,533,3.87439,-4.20374,0.00249809,-0.000478134,0.00231336,0.00376064,-0.00174068,0.499584,0.00324677,0.0102878,1693,491,3.87434,4.20372
476,533,3.89685,-4.04053,0.00281946,-0.000853766,0.00260822,0.00417283,-0.00220713,0.478641,0.0037413,0.0106598,1700,491,3.89682,4.04052
483,533,3.89478,-3.82147,0.00317674,-0.00124496,0.00287091,0.00458942,-0.00265764,0.457281,0.00423335,0.0165035,1707,491,3.89472,3.82148
490,533,3.91675,-3.72,0.00336419,-0.00190405,0.00303574,0.00474931,-0.00328918,0.428058,0.00466647,0.0365456,1714,491,3.91677,3.72
497,533,3.96729,-3.65509,0,0,0,0,0,0,0,-1,1721,491,3.9673,3.65509
504,533,4.42371,-2.87314,0,0,0,0,0,0,0,-1,1728,491,4.42368,2.87313
511,533,4.61829,-2.92776,0,0,0,0,0,0,0,-1,1735,491,4.61828,2.92776
518,533,4.33435,-3.55533,0,0,0,0,0,0,0,-1,1742,491,4.33436,3.55533
525,533,3.63171,-2.09952,0,0,0,0,0,0,0,-1,1749,491,3.63166,2.09952
532,533,3.24243,0.0737,0,0,0,0,0,0,0,-1,1756,491,3.24239,-0.0737072
539,533,3.61609,1.62427,0,0,0,0,0,0,0,-1,1763,491,3.61606,-1.62426
546,533,3.59607,1.65799,0,0,0,0,0,0,0,-1,1770,491,3.59605,-1.658
553,533,0,0,0,0,0,0,0,0,0,-1,1777,491,0,0
560,533,0,0,0,0,0,0,0,0,0,-1,1784,491,0,0
567,533,0,0,0,0,0,0,0,0,0,-1,1791,491,0,0
574,533,0,0,0,0,0,0,0,0,0,-1,1798,491,0,0
581,533,0,0,0,0,0,0,0,0,0,-1,1805,491,0,0
588,533,0,0,0,0,0,0,0,0,0,-1,1812,491,0,0
595,533,0,0,0,0,0,0,0,0,0,-1,1819,491,0,0
602,533,0,0,0,0,0,0,0,0,0,-1,1826,491,0,0
609,533,0,0,0,0,0,0,0,0,0,-1,1833,491,0,0
616,533,0,0,0,0,0,0,0,0,0,-1,1840,491,0,0
623,533,0,0,0,0,0,0,0,0,0,-1,1847,491,0,0
630,533,0,0,0,0,0,0,0,0,0,-1,1854,491,0,0
637,533,0,0,0,0,0,0,0,0,0,-1,1861,491,0,0
644,533,0,0,0,0,0,0,0,0,0,-1,1868,491,0,0
651,533,0,0,0,0,0,0,0,0,0,-1,1875,491,0,0
658,533,0,0,0,0,0,0,0,0,0,-1,1882,491,0,0
665,533,0,0,0,0,0,0,0,0,0,-1,1889,491,0,0
672,533,0,0,0,0,0,0,0,0,0,-1,1896,491,0,0
679,533,0,0,0,0,0,0,0,0,0,-1,1903,491,0,0
686,533,0,0,0,0,0,0,0,0,0,-1,1910,491,0,0
693,533,0,0,0,0,0,0,0,0,0,-1,1917,491,0,0
700,533,0,0,0,0,0,0,0,0,0,-1,1924,491,0,0
707,533,0,0,0,0,0,0,0,0,0,-1,1931,491,0,0
714,533,0,0,0,0,0,0,0,0,0,-1,1938,491,0,0
721,533,0,0,0,0,0,0,0,0,0,-1,1945,491,0,0
728,533,0,0,0,0,0,0,0,0,0,-1,1952,491,0,0
735,533,0,0,0,0,0,0,0,0,0,-1,1959,491,0,0
742,533,0,0,0,0,0,0,0,0,0,-1,1966,491,0,0
749,533,0,0,0,0,0,0,0,0,0,-1,1973,491,0,0
756,533,0,0,0,0,0,0,0,0,0,-1,1980,491,0,0
763,533,0,0,0,0,0,0,0,0,0,-1,1987,491,0,0
770,533,0,0,0,0,0,0,0,0,0,-1,1994,491,0,0
777,533,0,0,0,0,0,0,0,0,0,-1,2001,491,0,0
784,533,0,0,0,0,0,0,0,0,0,-1,2008,491,0,0
791,533,0,0,0,0,0,0,0,0,0,-1,2015,491,0,0
798,533,0,0,0,0,0,0,0,0,0,-1,2022,491,0,0
805,533,0,0,0,0,0,0,0,0,0,-1,2029,491,0,0
812,533,0,0,0,0,0,0,0,0,0,-1,2036,491,0,0
-700,526,0,0,0,0,0,0,0,0,0,-1,524,498,0,0
-693,526,0,0,0,0,0,0,0,0,0,-1,531,498,0,0
-686,526,0,0,0,0,0,0,0,0,0,-1,538,498,0,0
-679,526,0,0,0,0,0,0,0,0,0,-1,545,498,0,0
-672,526,0,0,0,0,0,0,0,0,0,-1,552,498,0,0
-665,526,0,0,0,0,0,0,0,0,0,-1,559,498,0,0
-658,526,0,0,0,0,0,0,0,0,0,-1,566,498,0,0
-651,526,0,0,0,0,0,0,0,0,0,-1,573,498,0,0
-644,526,0,0,0,0,0,0,0,0,0,-1,580,498,0,0
-637,526,0,0,0,0,0,0,0,0,0,-1,587,498,0,0
-630,526,0,0,0,0,0,0,0,0,0,-1,594,498,0,0
-623,526,0,0,0,0,0,0,0,0,0,-1,601,498,0,0
-616,526,0,0,0,0,0,0,0,0,0,-1,608,498,0,0
-609,526,0,0,0,0,0,0,0,0,0,-1,615,498,0,0
-602,526,0,0,0,0,0,0,0,0,0,-1,622,498,0,0
-595,526,0,0,0,0,0,0,0,0,0,-1,629,498,0,0
-588,526,0,0,0,0,0,0,0,0,0,-1,636,498,0,0
-581,526,0,0,0,0,0,0,0,0,0,-1,643,498,0,0
-574,526,0,0,0,0,0,0,0,0,0,-1,650,498,0,0
-567,526,0,0,0,0,0,0,0,0,0,-1,657,498,0,0
-560,526,0,0,0,0,0,0,0,0,0,-1,664,498,0,0
-553,526,0,0,0,0,0,0,0,0,0,-1,671,498,0,0
-546,526,0,0,0,0,0,0,0,0,0,-1,678,498,0,0
-539,526,0,0,0,0,0,0,0,0,0,-1,685,498,0,0
-532,526,0,0,0,0,0,0,0,0,0,-1,692,498,0,0
-525,526,0,0,0,0,0,0,0,0,0,-1,699,498,0,0
-518,526,0,0,0,0,0,0,0,0,0,-1,706,498,0,0
-511,526,0,0,0,0,0,0,0,0,0,-1,713,498,0,0
-504,526,0,0,0,0,0,0,0,0,0,-1,720,498,0,0
-497,526,0,0,0,0,0,0,0,0,0,-1,727,498,0,0
-490,526,0,0,0,0,0,0,0,0,0,-1,734,498,0,0
-483,526,0,0,0,0,0,0,0,0,0,-1,741,498,0,0
-476,526,0,0,0,0,0,0,0,0,0,-1,748,498,0,0
-469,526,0,0,0,0,0,0,0,0,0,-1,755,498,0,0
-462,526,0,0,0,0,0,0,0,0,0,-1,762,498,0,0
-455,526,0,0,0,0,0,0,0,0,0,-1,769,498,0,0
-448,526,0,0,0,0,0,0,0,0,0,-1,776,498,0,0
-441,526,0,0,0,0,0,0,0,0,0,-1,783,498,0,0
-434,526,3.10223,-3.88477,0,0,0,0,0,0,0,-1,790,498,3.10224,3.88476
-427,526,2.6554,-3.021,0,0,0,0,0,0,0,-1,797,498,2.65539,3.021
-420,526,2.04388,-5.36987,0,0,0,0,0,0,0,-1,804,498,2.04388,5.36987
-413,526,0.903076,-3.13574,0,0,0,0,0,0,0,-1,811,498,0.903084,3.13575
-406,526,0.888611,-3.30124,0,0,0,0,0,0,0,-1,818,498,0.888635,3.30124
-399,526,0.874207,-3.46674,0,0,0,0,0,0,0,-1,825,498,0.874185,3.46673
-392,526,1.18097,-3.03659,0,0,0,0,0,0,0,-1,832,498,1.181,3.0366
-385,526,0.599548,-4.01074,0,0,0,0,0,0,0,-1,839,498,0.599575,4.01074
-378,526,-0.0852661,-4.6019,0,0,0,0,0,0,0,-1,846,498,-0.0852487,4.60189
-371,526,0.0400391,-4.77274,0.0120985,0.00857244,-0.00423393,0.0149218,0.00574914,-0.588113,0.00869036,0.0416966,853,498,0.0400212,4.77273
-364,526,0.276001,-4.97745,0.00991242,0.00643442,-0.00380159,0.0123539,0.00399296,-0.570887,0.0072796,0.0225778,860,498,0.275986,4.97744
-357,526,0.243469,-5.08932,0.00810629,0.00453566,-0.00342168,0.0101804,0.00246154,-0.544944,0.00613335,0.0148074,867,498,0.243472,5.08932
-350,526,0.26416,-5.26694,0.00630704,0.00299943,-0.00309525,0.0081626,0.00114387,-0.540042,0.00510336,0.0112508,874,498,0.264168,5.26693
-343,526,0.275818,-5.46091,0.00467475,0.00152658,-0.00279886,0.0063118,-0.000110467,-0.529241,0.00424517,0.0147053,881,498,0.275797,5.46091
-336,526,0.246765,-5.61896,0.00353644,0.000274964,-0.00235667,0.00477157,-0.000960166,-0.482741,0.00354472,0.0146007,888,498,0.246781,5.61895
-329,526,0.235474,-5.75772,0.00249517,-0.000180316,-0.00189956,0.00348077,-0.00116591,-0.478616,0.00279152,0.0147029,895,498,0.235469,5.75771
-322,526,0.23645,-5.91852,0.00173354,-0.000534488,-0.00149589,0.00247667,-0.00127762,-0.461069,0.00220408,0.00976665,902,498,0.236472,5.91851
-315,526,0.246033,-6.08783,0.00112653,-0.000527606,-0.00112451,0.00169537,-0.00109645,-0.468322,0.00162418,0.00892827,909,498,0.246009,6.08782
-308,526,0.246338,-6.24609,0.000783028,-0.000405357,-0.000743063,0.00114026,-0.000762588,-0.448134,0.0011058,0.00871637,916,498,0.246317,6.24608
-301,526,0.241455,-6.39899,0.000806181,-0.000190298,-0.000486522,0.00100432,-0.000388439,-0.38675,0.000829905,0.00940991,923,498,0.241435,6.399
-294,526,0.256531,-6.5419,0.00100391,4.78024e-05,-0.000262088,0.00107104,-1.93281e-05,-0.250746,0.000720553,0.0088258,930,498,0.256512,6.54189
-287,526,0.255615,-6.68661,0.00150607,0.000161713,-0.000140891,0.00152067,0.000147106,-0.103307,0.000968478,0.00913062,937,498,0.255593,6.68663
-280,526,0.231018,-6.84579,0.0023323,-5.80133e-05,-0.000445065,0.00241248,-0.000138193,-0.17824,0.00165631,0.012029,944,498,0.23099,6.84579
-273,526,0.238831,-6.98996,0.00307123,-0.000307201,-0.000771978,0.00323927,-0.000475241,-0.214332,0.00233411,0.0102222,951,498,0.238814,6.98997
-266,526,0.263672,-7.14139,0.00413048,-0.000262939,-0.0012967,0.00448465,-0.000617106,-0.266626,0.00321527,0.00984605,958,498,0.263676,7.14139
-259,526,0.294739,-7.27502,0.00548446,-0.000312901,-0.00203734,0.00612882,-0.000957255,-0.306318,0.0044395,0.0170836,965,498,0.294712,7.27502
-252,526,0.297913,-7.37643,0.00715928,-0.000100148,-0.00291026,0.00818192,-0.00112279,-0.337915,0.00586481,0.0319776,972,498,0.297893,7.37644
-245,526,0.339417,-7.58167,0.00933986,0.000557432,-0.00419614,0.0110224,-0.0011251,-0.381343,0.00775056,0.0402352,979,498,0.339392,7.58166
-238,526,0.564941,-7.65112,0.011841,0.0019045,-0.00570577,0.0144384,-0.000692918,-0.427192,0.0098647,0.0377871,986,498,0.564924,7.65111
-231,526,1.0451,-7.56305,0.0142875,0.00350901,-0.00742593,0.0180736,-0.000277175,-0.471505,0.0121425,0.040577,993,498,1.04512,7.56306
-224,526,1.46783,-7.54672,0,0,0,0,0,0,0,-1,1000,498,1.46786,7.54674
-217,526,0.0426025,-8.51749,0,0,0,0,0,0,0,-1,1007,498,0.0426175,8.51748
-210,526,0.736877,-8.60431,0,0,0,0,0,0,0,-1,1014,498,0.736865,8.60429
-203,526,0.621277,-6.82285,0,0,0,0,0,0,0,-1,1021,498,0.621281,6.82286
-196,526,0.375732,-6.21689,0,0,0,0,0,0,0,-1,1028,498,0.375732,6.2169
-189,526,0.401245,-5.96826,0,0,0,0,0,0,0,-1,1035,498,0.401197,5.96826
-182,526,1.7323,-2.99405,0,0,0,0,0,0,0,-1,1042,498,1.73226,2.99404
-175,526,2.27637,-2.07983,0,0,0,0,0,0,0,-1,1049,498,2.27639,2.07984
-168,526,2.12036,-1.66049,0,0,0,0,0,0,0,-1,1056,498,2.12035,1.66048
-161,526,2.09082,-1.20572,0,0,0,0,0,0,0,-1,1063,498,2.09086,1.2057
-154,526,-1.3446,-5.37799,0,0,0,0,0,0,0,-1,1070,498,-1.34457,5.37799
-147,526,-0.472656,-6.64996,0.124513,-0.0201797,-0.0840471,0.163063,-0.0587293,-0.430037,0.13269,0.0489332,1077,498,-0.472659,6.64997
-140,526,0.422852,-8.03339,0.130412,-0.0191932,-0.0942923,0.175969,-0.0647503,-0.450075,0.143839,0.0474751,1084,498,0.422844,8.0334
-133,526,1.09583,-9.2215,0,0,0,0,0,0,0,-1,1091,498,1.09581,9.2215
-126,526,3.42529,-2.36053,0,0,0,0,0,0,0,-1,1098,498,3.42523,2.36052
-119,526,2.7771,-0.764099,0,0,0,0,0,0,0,-1,1105,498,2.7771,0.764107
-112,526,2.57715,-1.1893,0,0,0,0,0,0,0,-1,1112,498,2.57718,1.1893
-105,526,0,0,0,0,0,0,0,0,0,-1,1119,498,0,0
-98,526,0,0,0,0,0,0,0,0,0,-1,1126,498,0,0
-91,526,0,0,0,0,0,0,0,0,0,-1,1133,498,0,0
-84,526,0,0,0,0,0,0,0,0,0,-1,1140,498,0,0
-77,526,0,0,0,0,0,0,0,0,0,-1,1147,498,0,0
-70,526,0,0,0,0,0,0,0,0,0,-1,1154,498,0,0
-63,526,0,0,0,0,0,0,0,0,0,-1,1161,498,0,0
-56,526,0,0,0,0,0,0,0,0,0,-1,1168,498,0,0
-49,526,0,0,0,0,0,0,0,0,0,-1,1175,498,0,0
-42,526,0,0,0,0,0,0,0,0,0,-1,1182,498,0,0
-35,526,0,0,0,0,0,0,0,0,0,-1,1189,498,0,0
-28,526,0,0,0,0,0,0,0,0,0,-1,1196,498,0,0
-21,526,0,0,0,0,0,0,0,0,0,-1,1203,498,0,0
-14,526,0,0,0,0,0,0,0,0,0,-1,1210,498,0,0
-7,526,0,0,0,0,0,0,0,0,0,-1,1217,498,0,0
0,526,0,0,0,0,0,0,0,0,0,-1,1224,498,0,0
7,526,0,0,0,0,0,0,0,0,0,-1,1231,498,0,0
14,526,0,0,0,0,0,0,0,0,0,-1,1238,498,0,0
21,526,0,0,0,0,0,0,0,0,0,-1,1245,498,0,0
28,526,0,0,0,0,0,0,0,0,0,-1,1252,498,0,0
35,526,0,0,0,0,0,0,0,0,0,-1,1259,498,0,0
42,526,0,0,0,0,0,0,0,0,0,-1,1266,498,0,0
49,526,0,0,0,0,0,0,0,0,0,-1,1273,498,0,0
56,526,0,0,0,0,0,0,0,0,0,-1,1280,498,0,0
63,526,0,0,0,0,0,0,0,0,0,-1,1287,498,0,0
70,526,0,0,0,0,0,0,0,0,0,-1,1294,498,0,0
77,526,0,0,0,0,0,0,0,0,0,-1,1301,498,0,0
84,526,0,0,0,0,0,0,0,0,0,-1,1308,498,0,0
91,526,0,0,0,0,0,0,0,0,0,-1,1315,498,0,0
98,526,0,0,0,0,0,0,0,0,0,-1,1322,498,0,0
105,526,0,0,0,0,0,0,0,0,0,-1,1329,498,0,0
112,526,0,0,0,0,0,0,0,0,0,-1,1336,498,0,0
119,526,0,0,0,0,0,0,0,0,0,-1,1343,498,0,0
126,526,0,0,0,0,0,0,0,0,0,-1,1350,498,0,0
133,526,0,0,0,0,0,0,0,0,0,-1,1357,498,0,0
140,526,0,0,0,0,0,0,0,0,0,-1,1364,498,0,0
147,526,0,0,0,0,0,0,0,0,0,-1,1371,498,0,0
154,526,0,0,0,0,0,0,0,0,0,-1,1378,498,0,0
161,526,0,0,0,0,0,0,0,0,0,-1,1385,498,0,0
168,526,0,0,0,0,0,0,0,0,0,-1,1392,498,0,0
175,526,0,0,0,0,0,0,0,0,0,-1,1399,498,0,0
182,526,0,0,0,0,0,0,0,0,0,-1,1406,498,0,0
189,526,0,0,0,0,0,0,0,0,0,-1,1413,498,0,0
196,526,0,0,0,0,0,0,0,0,0,-1,1420,498,0,0
203,526,0,0,0,0,0,0,0,0,0,-1,1427,498,0,0
210,526,0,0,0,0,0,0,0,0,0,-1,1434,498,0,0
217,526,0,0,0,0,0,0,0,0,0,-1,1441,498,0,0
224,526,0,0,0,0,0,0,0,0,0,-1,1448,498,0,0
231,526,7.93237,-1.30618,0,0,0,0,0,0,0,-1,1455,498,7.93238,1.30618
238,526,7.97717,-1.08197,0,0,0,0,0,0,0,-1,1462,498,7.97723,1.08196
245,526,7.2793,-0.792938,0,0,0,0,0,0,0,-1,1469,498,7.27931,0.792926
252,526,6.73523,-2.23608,0,0,0,0,0,0,0,-1,1476,498,6.73525,2.23608
259,526,6.22949,-1.84967,0,0,0,0,0,0,0,-1,1483,498,6.22953,1.84968
266,526,5.72375,-1.46329,0,0,0,0,0,0,0,-1,1490,498,5.72381,1.46328
273,526,4.33984,0.49173,0,0,0,0,0,0,0,-1,1497,498,4.33979,-0.491727
280,526,1.4585,-1.59897,0,0,0,0,0,0,0,-1,1504,498,1.45846,1.59895
287,526,1.46411,-2.40134,0,0,0,0,0,0,0,-1,1511,498,1.46406,2.40133
294,526,5.57471,-4.59085,0,0,0,0,0,0,0,-1,1518,498,5.57466,4.59084
301,526,4.42786,-3.99677,0,0,0,0,0,0,0,-1,1525,498,4.42788,3.99676
308,526,5.79529,-4.19366,0,0,0,0,0,0,0,-1,1532,498,5.79528,4.19368
315,526,5.09851,-5.20068,0,0,0,0,0,0,0,-1,1539,498,5.09851,5.20068
322,526,5.50708,-4.72348,0,0,0,0,0,0,0,-1,1546,498,5.50713,4.72347
329,526,3.88672,-4.345,0,0,0,0,0,0,0,-1,1553,498,3.88674,4.34501
336,526,4.97876,-2.23828,0,0,0,0,0,0,0,-1,1560,498,4.97877,2.23828
343,526,3.31665,-2.69696,0,0,0,0,0,0,0,-1,1567,498,3.31667,2.69696
350,526,6.06287,-6.12015,0,0,0,0,0,0,0,-1,1574,498,6.06286,6.12014
357,526,4.79016,-6.79047,0,0,0,0,0,0,0,-1,1581,498,4.79019,6.79047
364,526,4.31409,-6.83429,0,0,0,0,0,0,0,-1,1588,498,4.31406,6.8343
371,526,4.04602,-6.46088,0,0,0,0,0,0,0,-1,1595,498,4.04607,6.46089
378,526,4.66382,-6.64792,0,0,0,0,0,0,0,-1,1602,498,4.66376,6.64791
385,526,4.53247,-6.47412,0,0,0,0,0,0,0,-1,1609,498,4.53241,6.47414
392,526,4.21936,-6.16937,0,0,0,0,0,0,0,-1,1616,498,4.21942,6.16939
399,526,4.01062,-5.9841,-0.0027344,-0.0122017,-0.00560495,-0.00013165,-0.0148045,-0.434737,0.00982608,0.0149855,1623,498,4.01067,5.98409
406,526,4.04443,-5.79678,-0.00201801,-0.00965568,-0.00466108,0.000188861,-0.0118625,-0.442198,0.00797206,0.0120555,1630,498,4.04438,5.79679
413,526,4.04773,-5.6156,-0.00127028,-0.00745119,-0.00369705,0.000457879,-0.00917935,-0.437265,0.00627776,0.0126969,1637,498,4.04776,5.61559
420,526,4.04871,-5.4436,-0.000818951,-0.00549186,-0.00294696,0.000605392,-0.00691621,-0.45022,0.00482528,0.012758,1644,498,4.04874,5.44361
427,526,4.06995,-5.24854,-0.00059469,-0.00378016,-0.00224662,0.000566502,-0.00494136,-0.477045,0.00349839,0.0135326,1651,498,4.06992,5.24854
434,526,4.06787,-5.06299,-0.00037181,-0.00245422,-0.00153706,0.000443501,-0.00326953,-0.487699,0.00234157,0.012885,1658,498,4.06791,5.063
441,526,4.04968,-4.89978,-8.466e-05,-0.00120923,-0.000901885,0.000415862,-0.00170976,-0.506654,0.00130081,0.0108869,1665,498,4.04966,4.89978
448,526,4.0531,-4.74435,0.000283015,-0.000469557,-0.000155878,0.000314024,-0.000500566,-0.196367,0.000474396,0.0106912,1672,498,4.05306,4.74437
455,526,4.05554,-4.59183,0.00076076,-3.69695e-05,0.000504496,0.00100502,-0.000281229,0.4509,0.000780824,0.0143774,1679,498,4.0555,4.59184
462,526,4.05945,-4.38379,0.00123889,0.000178362,0.00107269,0.00190522,-0.000487969,0.555847,0.00146024,0.0107329,1686,498,4.05946,4.38379
469,526,4.05579,-4.19757,0.0015466,-0.000294516,0.0013901,0.00229332,-0.00104123,0.492938,0.00196993,0.00760162,1693,498,4.05584,4.19757
476,526,4.05859,-4.02393,0.00173997,-0.000709347,0.00159469,0.00252599,-0.00149537,0.45795,0.00234701,0.00909203,1700,498,4.05857,4.02394
483,526,4.07751,-3.80991,0.00193251,-0.00109085,0.00177584,0.00275295,-0.00191129,0.432789,0.00270747,0.010648,1707,498,4.07756,3.80991
490,526,4.13062,-3.59088,0.00195449,-0.0016964,0.00185243,0.00272976,-0.00247168,0.396367,0.00300428,0.0176742,1714,498,4.1306,3.59087
497,526,4.06006,-3.48041,0.00183718,-0.00231611,0.00188776,0.00256697,-0.0030459,0.368894,0.00324452,0.023615,1721,498,4.0601,3.48042
504,526,4.07971,-3.28061,0.00183479,-0.00264193,0.00213342,0.00268864,-0.00349578,0.3807,0.0035807,0.0292632,1728,498,4.07969,3.2806
511,526,4.41956,-3.05215,0.00203749,-0.00259714,0.00257755,0.00318625,-0.00374591,0.419257,0.00400663,0.0372718,1735,498,4.4196,3.05215
518,526,4.32544,-3.35388,0.00294167,-0.00232343,0.003635,0.00479727,-0.00417903,0.471999,0.00518657,0.0452876,1742,498,4.32539,3.35387
525,526,4.41711,-3.37436,0,0,0,0,0,0,0,-1,1749,498,4.41712,3.37436
532,526,3.54285,-2.81274,0,0,0,0,0,0,0,-1,1756,498,3.54284,2.81273
539,526,3.29407,0.932312,0,0,0,0,0,0,0,-1,1763,498,3.2941,-0.93232
546,526,3.36731,1.07721,0,0,0,0,0,0,0,-1,1770,498,3.36735,-1.07719
553,526,3.40796,1.37137,0,0,0,0,0,0,0,-1,1777,498,3.40792,-1.37138
560,526,0,0,0,0,0,0,0,0,0,-1,1784,498,0,0
567,526,0,0,0,0,0,0,0,0,0,-1,1791,498,0,0
574,526,0,0,0,0,0,0,0,0,0,-1,1798,498,0,0
581,526,0,0,0,0,0,0,0,0,0,-1,1805,498,0,0
588,526,0,0,0,0,0,0,0,0,0,-1,1812,498,0,0
595,526,0,0,0,0,0,0,0,0,0,-1,1819,498,0,0
602,526,0,0,0,0,0,0,0,0,0,-1,1826,498,0,0
609,526,0,0,0,0,0,0,0,0,0,-1,1833,498,0,0
616,526,0,0,0,0,0,0,0,0,0,-1,1840,498,0,0
623,526,0,0,0,0,0,0,0,0,0,-1,1847,498,0,0
630,526,0,0,0,0,0,0,0,0,0,-1,1854,498,0,0
637,526,0,0,0,0,0,0,0,0,0,-1,1861,498,0,0
644,526,0,0,0,0,0,0,0,0,0,-1,1868,498,0,0
651,526,0,0,0,0,0,0,0,0,0,-1,1875,498,0,0
658,526,0,0,0,0,0,0,0,0,0,-1,1882,498,0,0
665,526,0,0,0,0,0,0,0,0,0,-1,1889,498,0,0
672,526,0,0,0,0,0,0,0,0,0,-1,1896,498,0,0
679,526,0,0,0,0,0,0,0,0,0,-1,1903,498,0,0
686,526,0,0,0,0,0,0,0,0,0,-1,1910,498,0,0
693,526,0,0,0,0,0,0,0,0,0,-1,1917,498,0,0
700,526,0,0,0,0,0,0,0,0,0,-1,1924,498,0,0
707,526,0,0,0,0,0,0,0,0,0,-1,1931,498,0,0
714,526,0,0,0,0,0,0,0,0,0,-1,1938,498,0,0
721,526,0,0,0,0,0,0,0,0,0,-1,1945,498,0,0
728,526,0,0,0,0,0,0,0,0,0,-1,1952,498,0,0
735,526,0,0,0,0,0,0,0,0,0,-1,1959,498,0,0
742,526,0,0,0,0,0,0,0,0,0,-1,1966,498,0,0
749,526,0,0,0,0,0,0,0,0,0,-1,1973,498,0,0
756,526,0,0,0,0,0,0,0,0,0,-1,1980,498,0,0
763,526,0,0,0,0,0,0,0,0,0,-1,1987,498,0,0
770,526,0,0,0,0,0,0,0,0,0,-1,1994,498,0,0
777,526,0,0,0,0,0,0,0,0,0,-1,2001,498,0,0
784,526,0,0,0,0,0,0,0,0,0,-1,2008,498,0,0
791,526,0,0,0,0,0,0,0,0,0,-1,2015,498,0,0
798,526,0,0,0,0,0,0,0,0,0,-1,2022,498,0,0
805,526,0,0,0,0,0,0,0,0,0,-1,2029,498,0,0
812,526,0,0,0,0,0,0,0,0,0,-1,2036,498,0,0
-700,519,0,0,0,0,0,0,0,0,0,-1,524,505,0,0
-693,519,0,0,0,0,0,0,0,0,0,-1,531,505,0,0
-686,519,0,0,0,0,0,0,0,0,0,-1,538,505,0,0
-679,519,0,0,0,0,0,0,0,0,0,-1,545,505,0,0
-672,519,0,0,0,0,0,0,0,0,0,-1,552,505,0,0
-665,519,0,0,0,0,0,0,0,0,0,-1,559,505,0,0
-658,519,0,0,0,0,0,0,0,0,0,-1,566,505,0,0
-651,519,0,0,0,0,0,0,0,0,0,-1,573,505,0,0
-644,519,0,0,0,0,0,0,0,0,0,-1,580,505,0,0
-637,519,0,0,0,0,0,0,0,0,0,-1,587,505,0,0
-630,519,0,0,0,0,0,0,0,0,0,-1,594,505,0,0
-623,519,0,0,0,0,0,0,0,0,0,-1,601,505,0,0
-616,519,0,0,0,0,0,0,0,0,0,-1,608,505,0,0
-609,519,0,0,0,0,0,0,0,0,0,-1,615,505,0,0
-602,519,0,0,0,0,0,0,0,0,0,-1,622,505,0,0
-595,519,0,0,0,0,0,0,0,0,0,-1,629,505,0,0
-588,519,0,0,0,0,0,0,0,0,0,-1,636,505,0,0
-581,519,0,0,0,0,0,0,0,0,0,-1,643,505,0,0
-574,519,0,0,0,0,0,0,0,0,0,-1,650,505,0,0
-567,519,0,0,0,0,0,0,0,0,0,-1,657,505,0,0
-560,519,0,0,0,0,0,0,0,0,0,-1,664,505,0,0
-553,519,0,0,0,0,0,0,0,0,0,-1,671,505,0,0
-546,519,0,0,0,0,0,0,0,0,0,-1,678,505,0,0
-539,519,0,0,0,0,0,0,0,0,0,-1,685,505,0,0
-532,519,0,0,0,0,0,0,0,0,0,-1,692,505,0,0
-525,519,0,0,0,0,0,0,0,0,0,-1,699,505,0,0
-518,519,0,0,0,0,0,0,0,0,0,-1,706,505,0,0
-511,519,0,0,0,0,0,0,0,0,0,-1,713,505,0,0
-504,519,0,0,0,0,0,0,0,0,0,-1,720,505,0,0
-497,519,0,0,0,0,0,0,0,0,0,-1,727,505,0,0
-490,519,0,0,0,0,0,0,0,0,0,-1,734,505,0,0
-483,519,0,0,0,0,0,0,0,0,0,-1,741,505,0,0
-476,519,0,0,0,0,0,0,0,0,0,-1,748,505,0,0
-469,519,0,0,0,0,0,0,0,0,0,-1,755,505,0,0
-462,519,0,0,0,0,0,0,0,0,0,-1,762,505,0,0
-455,519,0,0,0,0,0,0,0,0,0,-1,769,505,0,0
-448,519,0,0,0,0,0,0,0,0,0,-1,776,505,0,0
-441,519,3.11029,-4.43204,0,0,0,0,0,0,0,-1,783,505,3.11027,4.43204
-434,519,2.73761,-4.07739,0,0,0,0,0,0,0,-1,790,505,2.73758,4.0774
-427,519,2.11298,-2.61298,0,0,0,0,0,0,0,-1,797,505,2.113,2.61296
-420,519,1.61176,-3.0419,0,0,0,0,0,0,0,-1,804,505,1.61173,3.04189
-413,519,-0.144775,-3.78531,0,0,0,0,0,0,0,-1,811,505,-0.144787,3.78531
-406,519,-0.143677,-4.03763,0,0,0,0,0,0,0,-1,818,505,-0.143662,4.03762
-399,519,0.559509,-3.46796,0,0,0,0,0,0,0,-1,825,505,0.55954,3.46797
-392,519,0.584717,-3.51947,0.0131639,0.0137262,-0.00483606,0.0182893,0.00860082,-0.814435,0.0105655,0.0469178,832,505,0.584724,3.51948
-385,519,0.302979,-4.18628,0.0115687,0.0111226,-0.00396081,0.0153127,0.00737856,-0.757274,0.00884275,0.0471029,839,505,0.302974,4.18628
-378,519,0.204712,-4.48074,0.00995027,0.00904205,-0.00346242,0.0129882,0.00600408,-0.720193,0.00750587,0.0338961,846,505,0.204706,4.48074
-371,519,0.115784,-4.71851,0.00842105,0.00704743,-0.0030629,0.0108732,0.00459528,-0.675105,0.00630265,0.019071,853,505,0.115787,4.71849
-364,519,0.0948486,-4.90201,0.00688471,0.00544996,-0.00270134,0.00896231,0.00337236,-0.655612,0.00522692,0.0119654,860,505,0.094862,4.902
-357,519,0.108582,-5.08633,0.00568524,0.00405166,-0.00244567,0.00744691,0.00228999,-0.624235,0.0044044,0.00943849,867,505,0.108559,5.08633
-350,519,0.101013,-5.26859,0.00446949,0.00292861,-0.00226021,0.00608696,0.00131114,-0.621139,0.00369921,0.011316,874,505,0.10102,5.26859
-343,519,0.104553,-5.45258,0.00338304,0.00177765,-0.00210655,0.00483465,0.000326044,-0.603368,0.0031201,0.0141358,881,505,0.104524,5.45259
-336,519,0.0799561,-5.60977,0.00269108,0.000775312,-0.00182229,0.0037919,-0.000325509,-0.54342,0.00264313,0.0133999,888,505,0.0799417,5.60978
-329,519,0.0741577,-5.76297,0.00206522,0.00043449,-0.00154253,0.00299462,-0.000494915,-0.54227,0.00218019,0.0116267,895,505,0.0741427,5.76296
-322,519,0.0927734,-5.92963,0.00163748,0.000181298,-0.00131744,0.00241464,-0.000595857,-0.532958,0.00184081,0.00981284,902,505,0.0927924,5.92964
-315,519,0.112549,-6.09171,0.00134287,0.000139968,-0.00110289,0.00199765,-0.000514814,-0.53577,0.00153247,0.00872648,909,505,0.112568,6.09171
-308,519,0.111755,-6.25577,0.00133503,0.000172613,-0.000904047,0.00182858,-0.000320935,-0.499715,0.00133892,0.00766492,916,505,0.111729,6.25576
-301,519,0.0895996,-6.40305,0.00151438,0.000214805,-0.000789694,0.00188726,-0.00015807,-0.441142,0.00131404,0.0112268,923,505,0.0895984,6.40304
-294,519,0.103149,-6.52011,0.00184667,0.000251105,-0.000658544,0.00208336,1.44128e-05,-0.34504,0.00138413,0.0133796,930,505,0.103169,6.52011
-287,519,0.0967407,-6.68225,0.00252434,0.000309849,-0.000602134,0.00267747,0.000156714,-0.249041,0.0017351,0.00967917,937,505,0.0967477,6.68225
-280,519,0.0727539,-6.8602,0.00356,-3.08026e-05,-0.00100928,0.00382423,-0.000295038,-0.25606,0.00265331,0.0135576,944,505,0.0727474,6.8602
-273,519,0.116333,-7.02588,0.00439333,-0.000366674,-0.00133134,0.0047404,-0.000713738,-0.255011,0.00342307,0.0188845,951,505,0.116335,7.02588
-266,519,0.109985,-7.19318,0.00556023,-0.000499957,-0.00171247,0.00601065,-0.000950384,-0.257202,0.00435857,0.0266049,958,505,0.109994,7.19321
-259,519,0.172363,-7.27582,0.00722388,-0.000574914,-0.00260208,0.00801235,-0.00136338,-0.294221,0.00584924,0.0455327,965,505,0.172372,7.27585
-252,519,0.150574,-7.45288,0,0,0,0,0,0,0,-1,972,505,0.150603,7.45288
-245,519,0.175659,-7.66461,0,0,0,0,0,0,0,-1,979,505,0.175688,7.66464
-238,519,0.606689,-7.69836,0,0,0,0,0,0,0,-1,986,505,0.60671,7.69837
-231,519,1.26117,-7.46716,0,0,0,0,0,0,0,-1,993,505,1.26117,7.46716
-224,519,-0.0494995,-7.97394,0,0,0,0,0,0,0,-1,1000,505,-0.0495123,7.97392
-217,519,-2.97125,-4.84393,0,0,0,0,0,0,0,-1,1007,505,-2.97128,4.84393
-210,519,-2.14398,-4.74774,0,0,0,0,0,0,0,-1,1014,505,-2.14397,4.74775
-203,519,-0.513611,-5.39017,0,0,0,0,0,0,0,-1,1021,505,-0.513585,5.39017
-196,519,-0.374023,-5.41635,0,0,0,0,0,0,0,-1,1028,505,-0.374047,5.41635
-189,519,-0.234497,-5.44254,0,0,0,0,0,0,0,-1,1035,505,-0.234508,5.44253
-182,519,2.76697,-1.19659,0,0,0,0,0,0,0,-1,1042,505,2.76696,1.19661
-175,519,2.31323,-0.960938,0,0,0,0,0,0,0,-1,1049,505,2.31319,0.960941
-168,519,2.07849,-0.696259,0,0,0,0,0,0,0,-1,1056,505,2.07853,0.696256
-161,519,2.32056,-0.522339,0,0,0,0,0,0,0,-1,1063,505,2.32057,0.522328
-154,519,2.55566,0.116669,0,0,0,0,0,0,0,-1,1070,505,2.55563,-0.116661
-147,519,-0.55127,-6.14001,0,0,0,0,0,0,0,-1,1077,505,-0.551252,6.14001
-140,519,0.240601,-7.53503,0,0,0,0,0,0,0,-1,1084,505,0.240653,7.53501
-133,519,2.70911,-4.4516,0,0,0,0,0,0,0,-1,1091,505,2.70915,4.45161
-126,519,0,0,0,0,0,0,0,0,0,-1,1098,505,0,0
-119,519,0,0,0,0,0,0,0,0,0,-1,1105,505,0,0
-112,519,0,0,0,0,0,0,0,0,0,-1,1112,505,0,0
-105,519,0,0,0,0,0,0,0,0,0,-1,1119,505,0,0
-98,519,0,0,0,0,0,0,0,0,0,-1,1126,505,0,0
-91,519,0,0,0,0,0,0,0,0,0,-1,1133,505,0,0
-84,519,0,0,0,0,0,0,0,0,0,-1,1140,505,0,0
-77,519,0,0,0,0,0,0,0,0,0,-1,1147,505,0,0
-70,519,0,0,0,0,0,0,0,0,0,-1,1154,505,0,0
-63,519,0,0,0,0,0,0,0,0,0,-1,1161,505,0,0
-56,519,0,0,0,0,0,0,0,0,0,-1,1168,505,0,0
-49,519,0,0,0,0,0,0,0,0,0,-1,1175,505,0,0
-42,519,0,0,0,0,0,0,0,0,0,-1,1182,505,0,0
-35,519,0,0,0,0,0,0,0,0,0,-1,1189,505,0,0
-28,519,0,0,0,0,0,0,0,0,0,-1,1196,505,0,0
-21,519,0,0,0,0,0,0,0,0,0,-1,1203,505,0,0
-14,519,0,0,0,0,0,0,0,0,0,-1,1210,505,0,0
-7,519,0,0,0,0,0,0,0,0,0,-1,1217,505,0,0
0,519,0,0,0,0,0,0,0,0,0,-1,1224,505,0,0
7,519,0,0,0,0,0,0,0,0,0,-1,1231,505,0,0
14,519,0,0,0,0,0,0,0,0,0,-1,1238,505,0,0
21,519,0,0,0,0,0,0,0,0,0,-1,1245,505,0,0
28,519,0,0,0,0,0,0,0,0,0,-1,1252,505,0,0
35,519,0,0,0,0,0,0,0,0,0,-1,1259,505,0,0
42,519,0,0,0,0,0,0,0,0,0,-1,1266,505,0,0
49,519,0,0,0,0,0,0,0,0,0,-1,1273,505,0,0
56,519,0,0,0,0,0,0,0,0,0,-1,1280,505,0,0
63,519,0,0,0,0,0,0,0,0,0,-1,1287,505,0,0
70,519,0,0,0,0,0,0,0,0,0,-1,1294,505,0,0
77,519,0,0,0,0,0,0,0,0,0,-1,1301,505,0,0
84,519,0,0,0,0,0,0,0,0,0,-1,1308,505,0,0
91,519,0,0,0,0,0,0,0,0,0,-1,1315,505,0,0
98,519,0,0,0,0,0,0,0,0,0,-1,1322,505,0,0
105,519,0,0,0,0,0,0,0,0,0,-1,1329,505,0,0
112,519,0,0,0,0,0,0,0,0,0,-1,1336,505,0,0
119,519,0,0,0,0,0,0,0,0,0,-1,1343,505,0,0
126,519,0,0,0,0,0,0,0,0,0,-1,1350,505,0,0
133,519,0,0,0,0,0,0,0,0,0,-1,1357,505,0,0
140,519,0,0,0,0,0,0,0,0,0,-1,1364,505,0,0
147,519,0,0,0,0,0,0,0,0,0,-1,1371,505,0,0
154,519,0,0,0,0,0,0,0,0,0,-1,1378,505,0,0
161,519,0,0,0,0,0,0,0,0,0,-1,1385,505,0,0
168,519,0,0,0,0,0,0,0,0,0,-1,1392,505,0,0
175,519,0,0,0,0,0,0,0,0,0,-1,1399,505,0,0
182,519,0,0,0,0,0,0,0,0,0,-1,1406,505,0,0
189,519,0,0,0,0,0,0,0,0,0,-1,1413,505,0,0
196,519,0,0,0,0,0,0,0,0,0,-1,1420,505,0,0
203,519,0,0,0,0,0,0,0,0,0,-1,1427,505,0,0
210,519,0,0,0,0,0,0,0,0,0,-1,1434,505,0,0
217,519,0,0,0,0,0,0,0,0,0,-1,1441,505,0,0
224,519,0,0,0,0,0,0,0,0,0,-1,1448,505,0,0
231,519,0,0,0,0,0,0,0,0,0,-1,1455,505,0,0
238,519,0,0,0,0,0,0,0,0,0,-1,1462,505,0,0
245,519,0,0,0,0,0,0,0,0,0,-1,1469,505,0,0
252,519,5.26208,0.0938416,0,0,0,0,0,0,0,-1,1476,505,5.26207,-0.0938493
259,519,6.14246,-1.36441,0,0,0,0,0,0,0,-1,1483,505,6.14241,1.36441
266,519,5.31909,-0.400787,0,0,0,0,0,0,0,-1,1490,505,5.31912,0.400773
273,519,4.02393,0.325531,0,0,0,0,0,0,0,-1,1497,505,4.0239,-0.325522
280,519,4.68848,0.53006,0,0,0,0,0,0,0,-1,1504,505,4.68842,-0.530073
287,519,7.9519,-3.80801,0,0,0,0,0,0,0,-1,1511,505,7.95193,3.808
294,519,6.92273,-3.38889,0,0,0,0,0,0,0,-1,1518,505,6.92268,3.38888
301,519,5.35669,-2.92661,0,0,0,0,0,0,0,-1,1525,505,5.35675,2.9266
308,519,7.37549,-5.64529,0,0,0,0,0,0,0,-1,1532,505,7.3755,5.64529
315,519,6.30029,-4.53754,0,0,0,0,0,0,0,-1,1539,505,6.30024,4.53753
322,519,5.84302,-5.45117,0,0,0,0,0,0,0,-1,1546,505,5.84303,5.45116
329,519,4.92407,0.62384,0,0,0,0,0,0,0,-1,1553,505,4.92403,-0.623832
336,519,3.10095,-0.329285,0,0,0,0,0,0,0,-1,1560,505,3.1009,0.329283
343,519,2.49146,-2.31119,0,0,0,0,0,0,0,-1,1567,505,2.49145,2.31119
350,519,3.47729,-2.22516,0,0,0,0,0,0,0,-1,1574,505,3.47726,2.22515
357,519,4.51917,-4.51691,0,0,0,0,0,0,0,-1,1581,505,4.51914,4.51691
364,519,3.54626,-7.20673,0,0,0,0,0,0,0,-1,1588,505,3.54622,7.20675
371,519,4.80103,-6.8822,0,0,0,0,0,0,0,-1,1595,505,4.80097,6.88221
378,519,4.65442,-6.70544,0,0,0,0,0,0,0,-1,1602,505,4.65446,6.70544
385,519,4.49109,-6.30548,-0.0055388,-0.0237771,-0.0101471,-0.00101529,-0.0283006,-0.419351,0.0185379,0.0433507,1609,505,4.49112,6.30547
392,519,4.37817,-5.98792,-0.00441168,-0.0202326,-0.00877466,-0.000508172,-0.0241362,-0.418572,0.0159241,0.0389317,1616,505,4.37815,5.98792
399,519,4.23352,-5.91089,-0.00352389,-0.0166506,-0.00764073,-1.46022e-05,-0.0201599,-0.430551,0.0134351,0.0292936,1623,505,4.23357,5.91088
406,519,4.23669,-5.80606,-0.00273579,-0.0130163,-0.0064618,0.000380903,-0.016133,-0.449408,0.0108845,0.0180701,1630,505,4.23671,5.80607
413,519,4.25085,-5.62378,-0.00189239,-0.00989781,-0.00522516,0.000687,-0.0124772,-0.458552,0.00855633,0.0134759,1637,505,4.25085,5.62377
420,519,4.24731,-5.44794,-0.00142878,-0.00717491,-0.00423957,0.000819534,-0.00942322,-0.487605,0.00657238,0.0147573,1644,505,4.24726,5.44793
427,519,4.27087,-5.28229,-0.00120999,-0.0048853,-0.00334724,0.000770859,-0.00686615,-0.534358,0.00485483,0.0132956,1651,505,4.27091,5.28228
434,519,4.24719,-5.08618,-0.0010355,-0.00308432,-0.00249998,0.000641816,-0.00476164,-0.590949,0.00340857,0.0122349,1658,505,4.24714,5.08617
441,519,4.20996,-4.89957,-0.000801642,-0.00144004,-0.00178951,0.000696912,-0.00293859,-0.69714,0.002228,0.0113011,1665,505,4.20999,4.89958
448,519,4.21765,-4.73926,-0.000483339,-0.000446832,-0.000972255,0.000507341,-0.00143751,-0.794784,0.00116488,0.00919527,1672,505,4.21766,4.73925
455,519,4.23389,-4.59021,-8.06508e-05,9.96991e-05,-0.000269592,0.000293798,-0.00027475,-0.946792,0.000328313,0.0106382,1679,505,4.23393,4.59022
462,519,4.24121,-4.40021,0.000282031,0.000441208,0.000291781,0.00066406,5.91789e-05,0.918543,0.000424358,0.0101589,1686,505,4.24127,4.4002
469,519,4.2583,-4.19614,0.000487854,3.81994e-05,0.000591075,0.000895417,-0.000369364,0.603663,0.00075098,0.0103876,1693,505,4.25827,4.19614
476,519,4.24927,-4.00159,0.000552582,-0.000364182,0.000719017,0.000946901,-0.000758501,0.501625,0.000986615,0.0122275,1700,505,4.24926,4.00159
483,519,4.24207,-3.8009,0.00059626,-0.000714338,0.000818131,0.000989177,-0.00110725,0.447732,0.00121101,0.0133257,1707,505,4.2421,3.80089
490,519,4.25464,-3.58652,0.000496294,-0.00126286,0.000817583,0.00081759,-0.00158416,0.374443,0.00141,0.0112582,1714,505,4.25466,3.58653
497,519,4.25037,-3.41571,0.000285205,-0.0017881,0.000798801,0.000557266,-0.00206016,0.328264,0.00159205,0.0135604,1721,505,4.2504,3.41571
504,519,4.22107,-3.24939,0.000213232,-0.00195551,0.00105805,0.000643893,-0.00238617,0.386556,0.00184329,0.0136246,1728,505,4.22106,3.24939
511,519,4.25134,-3.08878,0.00037835,-0.0016994,0.00152935,0.0011883,-0.00250935,0.487051,0.00217978,0.0183649,1735,505,4.25139,3.08878
518,519,4.23767,-3.03787,0.00122842,-0.00112662,0.00264808,0.00294898,-0.00284718,0.576192,0.00334659,0.0387328,1742,505,4.23762,3.03788
525,519,3.90173,-2.83112,0,0,0,0,0,0,0,-1,1749,505,3.90177,2.8311
532,519,3.5155,-2.86511,0,0,0,0,0,0,0,-1,1756,505,3.51554,2.8651
539,519,3.30005,0.0229797,0,0,0,0,0,0,0,-1,1763,505,3.30008,-0.0229869
546,519,4.62024,-2.89774,0,0,0,0,0,0,0,-1,1770,505,4.62023,2.89775
553,519,4.14136,0.0667419,0,0,0,0,0,0,0,-1,1777,505,4.14141,-0.0667503
560,519,3.77856,0.279724,0,0,0,0,0,0,0,-1,1784,505,3.77861,-0.279731
567,519,0,0,0,0,0,0,0,0,0,-1,1791,505,0,0
574,519,0,0,0,0,0,0,0,0,0,-1,1798,505,0,0
581,519,0,0,0,0,0,0,0,0,0,-1,1805,505,0,0
588,519,0,0,0,0,0,0,0,0,0,-1,1812,505,0,0
595,519,0,0,0,0,0,0,0,0,0,-1,1819,505,0,0
602,519,0,0,0,0,0,0,0,0,0,-1,1826,505,0,0
609,519,0,0,0,0,0,0,0,0,0,-1,1833,505,0,0
616,519,0,0,0,0,0,0,0,0,0,-1,1840,505,0,0
623,519,0,0,0,0,0,0,0,0,0,-1,1847,505,0,0
630,519,0,0,0,0,0,0,0,0,0,-1,1854,505,0,0
637,519,0,0,0,0,0,0,0,0,0,-1,1861,505,0,0
644,519,0,0,0,0,0,0,0,0,0,-1,1868,505,0,0
651,519,0,0,0,0,0,0,0,0,0,-1,1875,505,0,0
658,519,0,0,0,0,0,0,0,0,0,-1,1882,505,0,0
665,519,0,0,0,0,0,0,0,0,0,-1,1889,505,0,0
672,519,0,0,0,0,0,0,0,0,0,-1,1896,505,0,0
679,519,0,0,0,0,0,0,0,0,0,-1,1903,505,0,0
686,519,0,0,0,0,0,0,0,0,0,-1,1910,505,0,0
693,519,0,0,0,0,0,0,0,0,0,-1,1917,505,0,0
700,519,0,0,0,0,0,0,0,0,0,-1,1924,505,0,0
707,519,0,0,0,0,0,0,0,0,0,-1,1931,505,0,0
714,519,0,0,0,0,0,0,0,0,0,-1,1938,505,0,0
721,519,0,0,0,0,0,0,0,0,0,-1,1945,505,0,0
728,519,0,0,0,0,0,0,0,0,0,-1,1952,505,0,0
735,519,0,0,0,0,0,0,0,0,0,-1,1959,505,0,0
742,519,0,0,0,0,0,0,0,0,0,-1,1966,505,0,0
749,519,0,0,0,0,0,0,0,0,0,-1,1973,505,0,0
756,519,0,0,0,0,0,0,0,0,0,-1,1980,505,0,0
763,519,0,0,0,0,0,0,0,0,0,-1,1987,505,0,0
770,519,0,0,0,0,0,0,0,0,0,-1,1994,505,0,0
777,519,0,0,0,0,0,0,0,0,0,-1,2001,505,0,0
784,519,0,0,0,0,0,0,0,0,0,-1,2008,505,0,0
791,519,0,0,0,0,0,0,0,0,0,-1,2015,505,0,0
798,519,0,0,0,0,0,0,0,0,0,-1,2022,505,0,0
805,519,0,0,0,0,0,0,0,0,0,-1,2029,505,0,0
812,519,0,0,0,0,0,0,0,0,0,-1,2036,505,0,0
-700,512,0,0,0,0,0,0,0,0,0,-1,524,512,0,0
-693,512,0,0,0,0,0,0,0,0,0,-1,531,512,0,0
-686,512,0,0,0,0,0,0,0,0,0,-1,538,512,0,0
-679,512,0,0,0,0,0,0,0,0,0,-1,545,512,0,0
-672,512,0,0,0,0,0,0,0,0,0,-1,552,512,0,0
-665,512,0,0,0,0,0,0,0,0,0,-1,559,512,0,0
-658,512,0,0,0,0,0,0,0,0,0,-1,566,512,0,0
-651,512,0,0,0,0,0,0,0,0,0,-1,573,512,0,0
-644,512,0,0,0,0,0,0,0,0,0,-1,580,512,0,0
-637,512,0,0,0,0,0,0,0,0,0,-1,587,512,0,0
-630,512,0,0,0,0,0,0,0,0,0,-1,594,512,0,0
-623,512,0,0,0,0,0,0,0,0,0,-1,601,512,0,0
-616,512,0,0,0,0,0,0,0,0,0,-1,608,512,0,0
-609,512,0,0,0,0,0,0,0,0,0,-1,615,512,0,0
-602,512,0,0,0,0,0,0,0,0,0,-1,622,512,0,0
-595,512,0,0,0,0,0,0,0,0,0,-1,629,512,0,0
-588,512,0,0,0,0,0,0,0,0,0,-1,636,512,0,0
-581,512,0,0,0,0,0,0,0,0,0,-1,643,512,0,0
-574,512,0,0,0,0,0,0,0,0,0,-1,650,512,0,0
-567,512,0,0,0,0,0,0,0,0,0,-1,657,512,0,0
-560,512,0,0,0,0,0,0,0,0,0,-1,664,512,0,0
-553,512,0,0,0,0,0,0,0,0,0,-1,671,512,0,0
-546,512,0,0,0,0,0,0,0,0,0,-1,678,512,0,0
-539,512,0,0,0,0,0,0,0,0,0,-1,685,512,0,0
-532,512,0,0,0,0,0,0,0,0,0,-1,692,512,0,0
-525,512,0,0,0,0,0,0,0,0,0,-1,699,512,0,0
-518,512,0,0,0,0,0,0,0,0,0,-1,706,512,0,0
-511,512,0,0,0,0,0,0,0,0,0,-1,713,512,0,0
-504,512,0,0,0,0,0,0,0,0,0,-1,720,512,0,0
-497,512,0,0,0,0,0,0,0,0,0,-1,727,512,0,0
-490,512,0,0,0,0,0,0,0,0,0,-1,734,512,0,0
-483,512,0,0,0,0,0,0,0,0,0,-1,741,512,0,0
-476,512,0,0,0,0,0,0,0,0,0,-1,748,512,0,0
-469,512,0,0,0,0,0,0,0,0,0,-1,755,512,0,0
-462,512,0,0,0,0,0,0,0,0,0,-1,762,512,0,0
-455,512,0,0,0,0,0,0,0,0,0,-1,769,512,0,0
-448,512,-2.04749,3.66714,0,0,0,0,0,0,0,-1,776,512,-2.04746,-3.66714
-441,512,2.80768,-3.99408,0,0,0,0,0,0,0,-1,783,512,2.80769,3.99407
-434,512,1.40381,-2.05713,0,0,0,0,0,0,0,-1,790,512,1.40383,2.0571
-427,512,1.30121,-2.61523,0,0,0,0,0,0,0,-1,797,512,1.30122,2.61525
-420,512,-0.21814,-3.63116,0,0,0,0,0,0,0,-1,804,512,-0.218153,3.63116
-413,512,-0.246887,-3.82611,0.0126956,0.0188619,-0.00821499,0.0245533,0.00700427,-0.964918,0.0146051,0.0480785,811,512,-0.246902,3.8261
-406,512,-0.270203,-4.01044,0.0114354,0.0157476,-0.00610902,0.0200698,0.00711314,-0.955045,0.0117499,0.0484428,818,512,-0.27018,4.01045
-399,512,0.205566,-3.85333,0.0101757,0.0130435,-0.00468788,0.0165119,0.00670731,-0.933821,0.00958888,0.0420614,825,512,0.205548,3.85334
-392,512,0.0718994,-4.13092,0.00892475,0.0110025,-0.00378609,0.0138897,0.0060376,-0.919301,0.00804198,0.031475,832,512,0.0718919,4.13091
-385,512,0.0113525,-4.375,0.00780152,0.00867976,-0.00297066,0.0112436,0.0052377,-0.858777,0.00649653,0.017672,839,512,0.011376,4.37499
-378,512,-0.0317383,-4.54779,0.00672911,0.00708405,-0.00253031,0.00944311,0.00437005,-0.82041,0.00545702,0.014694,846,512,-0.0317179,4.5478
-371,512,-0.055481,-4.73071,0.00577887,0.00552327,-0.00224165,0.00789636,0.00340579,-0.756923,0.00457328,0.0110417,853,512,-0.0554871,4.73072
-364,512,-0.0455322,-4.93695,0.00479907,0.00427097,-0.00197854,0.0065311,0.00253894,-0.719061,0.00380172,0.0085121,860,512,-0.0455422,4.93696
-357,512,-0.0388794,-5.08533,0.00415709,0.00316748,-0.00184649,0.00557392,0.00175065,-0.65449,0.00329143,0.00958729,867,512,-0.0389062,5.08531
-350,512,-0.0409546,-5.25781,0.00348814,0.0022684,-0.00178338,0.00476304,0.000993495,-0.620644,0.00290146,0.0105898,874,512,-0.040959,5.25783
-343,512,-0.0626221,-5.45007,0.0029148,0.00129766,-0.00175279,0.00403653,0.000175937,-0.569291,0.00263433,0.0112127,881,512,-0.0626088,5.45009
-336,512,-0.0758057,-5.60913,0.00263325,0.000457824,-0.00160833,0.00348715,-0.000396073,-0.488077,0.00246741,0.0106074,888,512,-0.0758056,5.60915
-329,512,-0.0752563,-5.76544,0.00238595,0.000170932,-0.00148735,0.00313284,-0.000575952,-0.465373,0.00230466,0.0111477,895,512,-0.0752484,5.76544
-322,512,-0.0742798,-5.93732,0.00224602,-2.23153e-05,-0.00141657,0.00292652,-0.000702815,-0.447832,0.00222264,0.00961253,902,512,-0.0742607,5.9373
-315,512,-0.053894,-6.09485,0.00220329,-0.000105713,-0.00135915,0.00283209,-0.000734512,-0.433317,0.00217465,0.0095078,909,512,-0.0538676,6.09483
-308,512,-0.0512695,-6.24994,0.00246188,-0.000117007,-0.00135115,0.00304013,-0.000695259,-0.404383,0.0022939,0.0101196,916,512,-0.0512454,6.24995
-301,512,-0.0626221,-6.41089,0.00271272,-0.00018347,-0.00137052,0.00325845,-0.000729193,-0.378942,0.00245178,0.0140983,923,512,-0.0626157,6.41089
-294,512,-0.0530396,-6.53491,0.00307116,-0.000281229,-0.00133438,0.00353744,-0.000747509,-0.336172,0.00264294,0.0136142,930,512,-0.053039,6.53492
-287,512,-0.109497,-6.6452,0.00380317,-0.000187889,-0.00136288,0.00422416,-0.00060888,-0.2996,0.00303947,0.0182348,937,512,-0.109524,6.64522
-280,512,-0.0369263,-6.87512,0.00489525,-0.000492496,-0.00186407,0.00547731,-0.00107455,-0.302657,0.00405744,0.023566,944,512,-0.0368985,6.8751
-273,512,0.0477905,-6.9137,0.00563504,-0.00065726,-0.00210165,0.00627244,-0.00129465,-0.294465,0.00467334,0.0410866,951,512,0.0477718,6.91372
-266,512,-0.0500488,-7.09619,0.00696762,-0.00096697,-0.00224006,0.00755634,-0.00155569,-0.257003,0.00562825,0.0443898,958,512,-0.050063,7.09621
-259,512,0.00543213,-7.44196,0,0,0,0,0,0,0,-1,965,512,0.00540872,7.44197
-252,512,1.45941,-3.43475,0,0,0,0,0,0,0,-1,972,512,1.45938,3.43475
-245,512,4.12927,-11.272,0,0,0,0,0,0,0,-1,979,512,4.1293,11.272
-238,512,0.636536,-7.69952,0,0,0,0,0,0,0,-1,986,512,0.636509,7.69954
-231,512,-2.54437,-10.169,0,0,0,0,0,0,0,-1,993,512,-2.54439,10.169
-224,512,-4.84601,-7.52783,0,0,0,0,0,0,0,-1,1000,512,-4.84602,7.52786
-217,512,-7.37274,-3.89563,0,0,0,0,0,0,0,-1,1007,512,-7.37274,3.89561
-210,512,-3.76642,-1.94702,0,0,0,0,0,0,0,-1,1014,512,-3.76641,1.94702
-203,512,-2.48328,-5.19061,0,0,0,0,0,0,0,-1,1021,512,-2.48328,5.19059
-196,512,-1.14929,-4.63202,0,0,0,0,0,0,0,-1,1028,512,-1.14934,4.632
-189,512,0.197998,4.55505,0,0,0,0,0,0,0,-1,1035,512,0.197996,-4.55506
-182,512,2.73938,0.0778503,0,0,0,0,0,0,0,-1,1042,512,2.73944,-0.077852
-175,512,2.29565,0.209808,0,0,0,0,0,0,0,-1,1049,512,2.29565,-0.209813
-168,512,2.09399,-0.302856,0,0,0,0,0,0,0,-1,1056,512,2.09403,0.302826
-161,512,2.76636,0.0921021,0,0,0,0,0,0,0,-1,1063,512,2.76633,-0.0921104
-154,512,3.41382,0.466187,0,0,0,0,0,0,0,-1,1070,512,3.41382,-0.466178
-147,512,0,0,0,0,0,0,0,0,0,-1,1077,512,0,0
-140,512,0,0,0,0,0,0,0,0,0,-1,1084,512,0,0
-133,512,0,0,0,0,0,0,0,0,0,-1,1091,512,0,0
-126,512,0,0,0,0,0,0,0,0,0,-1,1098,512,0,0
-119,512,0,0,0,0,0,0,0,0,0,-1,1105,512,0,0
-112,512,0,0,0,0,0,0,0,0,0,-1,1112,512,0,0
-105,512,0,0,0,0,0,0,0,0,0,-1,1119,512,0,0
-98,512,0,0,0,0,0,0,0,0,0,-1,1126,512,0,0
-91,512,0,0,0,0,0,0,0,0,0,-1,1133,512,0,0
-84,512,0,0,0,0,0,0,0,0,0,-1,1140,512,0,0
-77,512,0,0,0,0,0,0,0,0,0,-1,1147,512,0,0
-70,512,0,0,0,0,0,0,0,0,0,-1,1154,512,0,0
-63,512,0,0,0,0,0,0,0,0,0,-1,1161,512,0,0
-56,512,0,0,0,0,0,0,0,0,0,-1,1168,512,0,0
-49,512,0,0,0,0,0,0,0,0,0,-1,1175,512,0,0
-42,512,0,0,0,0,0,0,0,0,0,-1,1182,512,0,0
-35,512,0,0,0,0,0,0,0,0,0,-1,1189,512,0,0
-28,512,0,0,0,0,0,0,0,0,0,-1,1196,512,0,0
-21,512,0,0,0,0,0,0,0,0,0,-1,1203,512,0,0
-14,512,0,0,0,0,0,0,0,0,0,-1,1210,512,0,0
-7,512,0,0,0,0,0,0,0,0,0,-1,1217,512,0,0
0,512,0,0,0,0,0,0,0,0,0,-1,1224,512,0,0
7,512,0,0,0,0,0,0,0,0,0,-1,1231,512,0,0
14,512,0,0,0,0,0,0,0,0,0,-1,1238,512,0,0
21,512,0,0,0,0,0,0,0,0,0,-1,1245,512,0,0
28,512,0,0,0,0,0,0,0,0,0,-1,1252,512,0,0
35,512,0,0,0,0,0,0,0,0,0,-1,1259,512,0,0
42,512,0,0,0,0,0,0,0,0,0,-1,1266,512,0,0
49,512,0,0,0,0,0,0,0,0,0,-1,1273,512,0,0
56,512,0,0,0,0,0,0,0,0,0,-1,1280,512,0,0
63,512,0,0,0,0,0,0,0,0,0,-1,1287,512,0,0
70,512,0,0,0,0,0,0,0,0,0,-1,1294,512,0,0
77,512,0,0,0,0,0,0,0,0,0,-1,1301,512,0,0
84,512,0,0,0,0,0,0,0,0,0,-1,1308,512,0,0
91,512,0,0,0,0,0,0,0,0,0,-1,1315,512,0,0
98,512,0,0,0,0,0,0,0,0,0,-1,1322,512,0,0
105,512,0,0,0,0,0,0,0,0,0,-1,1329,512,0,0
112,512,0,0,0,0,0,0,0,0,0,-1,1336,512,0,0
119,512,0,0,0,0,0,0,0,0,0,-1,1343,512,0,0
126,512,0,0,0,0,0,0,0,0,0,-1,1350,512,0,0
133,512,0,0,0,0,0,0,0,0,0,-1,1357,512,0,0
140,512,0,0,0,0,0,0,0,0,0,-1,1364,512,0,0
147,512,0,0,0,0,0,0,0,0,0,-1,1371,512,0,0
154,512,0,0,0,0,0,0,0,0,0,-1,1378,512,0,0
161,512,0,0,0,0,0,0,0,0,0,-1,1385,512,0,0
168,512,0,0,0,0,0,0,0,0,0,-1,1392,512,0,0
175,512,0,0,0,0,0,0,0,0,0,-1,1399,512,0,0
182,512,0,0,0,0,0,0,0,0,0,-1,1406,512,0,0
189,512,0,0,0,0,0,0,0,0,0,-1,1413,512,0,0
196,512,0,0,0,0,0,0,0,0,0,-1,1420,512,0,0
203,512,0,0,0,0,0,0,0,0,0,-1,1427,512,0,0
210,512,0,0,0,0,0,0,0,0,0,-1,1434,512,0,0
217,512,0,0,0,0,0,0,0,0,0,-1,1441,512,0,0
224,512,0,0,0,0,0,0,0,0,0,-1,1448,512,0,0
231,512,0,0,0,0,0,0,0,0,0,-1,1455,512,0,0
238,512,0,0,0,0,0,0,0,0,0,-1,1462,512,0,0
245,512,0,0,0,0,0,0,0,0,0,-1,1469,512,0,0
252,512,0,0,0,0,0,0,0,0,0,-1,1476,512,0,0
259,512,0,0,0,0,0,0,0,0,0,-1,1483,512,0,0
266,512,0,0,0,0,0,0,0,0,0,-1,1490,512,0,0
273,512,4.00745,0.618622,0,0,0,0,0,0,0,-1,1497,512,4.00747,-0.618611
280,512,4.49609,0.649841,0,0,0,0,0,0,0,-1,1504,512,4.49612,-0.649834
287,512,4.77234,0.458069,0,0,0,0,0,0,0,-1,1511,512,4.77233,-0.458083
294,512,8.54956,-2.36273,0,0,0,0,0,0,0,-1,1518,512,8.54952,2.36274
301,512,6.302,-1.69092,0,0,0,0,0,0,0,-1,1525,512,6.30196,1.69093
308,512,8.2439,-6.22754,0,0,0,0,0,0,0,-1,1532,512,8.24394,6.22757
315,512,7.53687,-6.04211,0,0,0,0,0,0,0,-1,1539,512,7.53691,6.04211
322,512,6.82983,-5.85663,0,0,0,0,0,0,0,-1,1546,512,6.82988,5.85666
329,512,4.38147,-0.329651,0,0,0,0,0,0,0,-1,1553,512,4.38144,0.329662
336,512,4.41467,-0.741455,0,0,0,0,0,0,0,-1,1560,512,4.41467,0.741442
343,512,4.44727,-1.21667,0,0,0,0,0,0,0,-1,1567,512,4.44732,1.21666
350,512,4.55469,-1.65082,0,0,0,0,0,0,0,-1,1574,512,4.5547,1.65083
357,512,5.79993,-2.67456,0,0,0,0,0,0,0,-1,1581,512,5.79991,2.67454
364,512,5.18298,-6.80133,0,0,0,0,0,0,0,-1,1588,512,5.18296,6.80132
371,512,3.0448,-6.77563,0,0,0,0,0,0,0,-1,1595,512,3.04475,6.77563
378,512,4.63916,-6.22614,0,0,0,0,0,0,0,-1,1602,512,4.63921,6.22612
385,512,4.61951,-5.8241,-0.00668773,-0.0327369,-0.0134508,-0.000988975,-0.0384356,-0.400748,0.0253005,0.0450942,1609,512,4.61945,5.82408
392,512,4.72498,-5.57001,-0.0052823,-0.0274804,-0.0117216,-0.00023875,-0.032524,-0.406335,0.0216035,0.0472887,1616,512,4.72499,5.57001
399,512,4.66626,-5.5614,-0.00415299,-0.0222454,-0.010132,0.000383543,-0.0267819,-0.420976,0.0179838,0.0442609,1623,512,4.66629,5.56141
406,512,4.46204,-5.6582,-0.00333281,-0.0170981,-0.00861983,0.000815056,-0.021246,-0.448495,0.0144434,0.0321241,1630,512,4.46204,5.65819
413,512,4.37097,-5.63867,-0.00246762,-0.0127692,-0.00704873,0.00111173,-0.0163485,-0.469869,0.0112879,0.0258227,1637,512,4.37097,5.6387
420,512,4.44482,-5.45361,-0.00203376,-0.00908271,-0.00575546,0.00119064,-0.0123071,-0.510665,0.00862904,0.0159821,1644,512,4.44477,5.45359
427,512,4.46265,-5.28217,-0.00182135,-0.00609496,-0.00458607,0.00110129,-0.0090176,-0.567386,0.00641044,0.01342,1651,512,4.46264,5.28218
434,512,4.42981,-5.09943,-0.00162723,-0.00374183,-0.00348905,0.0009612,-0.00633026,-0.638279,0.00457436,0.0109379,1658,512,4.42986,5.09944
441,512,4.39661,-4.91016,-0.00139968,-0.00165571,-0.00263653,0.00111194,-0.00416733,-0.761141,0.00321364,0.0128246,1665,512,4.39666,4.91013
448,512,4.39331,-4.7467,-0.00106504,-0.000399753,-0.0016873,0.000987381,-0.00245218,-0.882723,0.00204497,0.00907874,1672,512,4.3933,4.74668
455,512,4.39746,-4.57104,-0.000659967,0.000250016,-0.000886459,0.000791431,-0.00120138,-1.0225,0.00115864,0.00856861,1679,512,4.39749,4.57103
462,512,4.40991,-4.38373,-0.000317141,0.000702479,-0.000273587,0.00077125,-0.000385913,-1.32453,0.000680324,0.00950671,1686,512,4.4099,4.38375
469,512,4.41833,-4.19568,-9.24454e-05,0.000362739,6.9403e-05,0.000373086,-0.000102792,1.4228,0.000289144,0.0113146,1693,512,4.41835,4.19567
476,512,4.4137,-4.00397,-2.09412e-05,-3.69063e-05,0.000177551,0.000148807,-0.000206654,0.762934,0.00020613,0.0137913,1700,512,4.41371,4.00396
483,512,4.41895,-3.79761,6.65546e-06,-0.000385134,0.000244356,0.000123945,-0.000502423,0.447516,0.000383008,0.0125006,1707,512,4.419,3.7976
490,512,4.42908,-3.59503,-9.2054e-05,-0.00090585,0.000219681,-3.6539e-05,-0.000961365,0.247525,0.000629084,0.00995001,1714,512,4.42902,3.59502
497,512,4.44617,-3.40912,-0.000289845,-0.0013839,0.000176761,-0.000261995,-0.00141175,0.15627,0.000867129,0.0111787,1721,512,4.44617,3.40915
504,512,4.42737,-3.20313,-0.000316604,-0.00145371,0.000470972,-0.00014687,-0.00162344,0.345901,0.00103681,0.012099,1728,512,4.42742,3.20315
511,512,4.40784,-3.01221,-0.000136639,-0.00106774,0.000965331,0.000469539,-0.00167391,0.560717,0.00130101,0.0124115,1735,512,4.40783,3.01221
518,512,4.42407,-2.88446,0.000690395,-0.00030988,0.00205928,0.0023094,-0.00192888,0.66627,0.00245026,0.0198873,1742,512,4.42408,2.88448
525,512,4.19971,-2.73022,0.00174011,0.0010206,0.00350763,0.00490639,-0.00214568,0.734295,0.00417421,0.0449952,1749,512,4.19967,2.73021
532,512,4.22705,-2.02203,0,0,0,0,0,0,0,-1,1756,512,4.2271,2.02204
539,512,4.39929,-3.11737,0,0,0,0,0,0,0,-1,1763,512,4.3993,3.11735
546,512,2.77551,-0.66449,0,0,0,0,0,0,0,-1,1770,512,2.77548,0.664503
553,512,3.927,-0.448853,0,0,0,0,0,0,0,-1,1777,512,3.92704,0.448843
560,512,3.55762,-0.201233,0,0,0,0,0,0,0,-1,1784,512,3.55768,0.201259
567,512,3.09045,0.191193,0,0,0,0,0,0,0,-1,1791,512,3.09045,-0.191203
574,512,0,0,0,0,0,0,0,0,0,-1,1798,512,0,0
581,512,0,0,0,0,0,0,0,0,0,-1,1805,512,0,0
588,512,0,0,0,0,0,0,0,0,0,-1,1812,512,0,0
595,512,0,0,0,0,0,0,0,0,0,-1,1819,512,0,0
602,512,0,0,0,0,0,0,0,0,0,-1,1826,512,0,0
609,512,0,0,0,0,0,0,0,0,0,-1,1833,512,0,0
616,512,0,0,0,0,0,0,0,0,0,-1,1840,512,0,0
623,512,0,0,0,0,0,0,0,0,0,-1,1847,512,0,0
630,512,0,0,0,0,0,0,0,0,0,-1,1854,512,0,0
637,512,0,0,0,0,0,0,0,0,0,-1,1861,512,0,0
644,512,0,0,0,0,0,0,0,0,0,-1,1868,512,0,0
651,512,0,0,0,0,0,0,0,0,0,-1,1875,512,0,0
658,512,0,0,0,0,0,0,0,0,0,-1,1882,512,0,0
665,512,0,0,0,0,0,0,0,0,0,-1,1889,512,0,0
672,512,0,0,0,0,0,0,0,0,0,-1,1896,512,0,0
679,512,0,0,0,0,0,0,0,0,0,-1,1903,512,0,0
686,512,0,0,0,0,0,0,0,0,0,-1,1910,512,0,0
693,512,0,0,0,0,0,0,0,0,0,-1,1917,512,0,0
700,512,0,0,0,0,0,0,0,0,0,-1,1924,512,0,0
707,512,0,0,0,0,0,0,0,0,0,-1,1931,512,0,0
714,512,0,0,0,0,0,0,0,0,0,-1,1938,512,0,0
721,512,0,0,0,0,0,0,0,0,0,-1,1945,512,0,0
728,512,0,0,0,0,0,0,0,0,0,-1,1952,512,0,0
735,512,0,0,0,0,0,0,0,0,0,-1,1959,512,0,0
742,512,0,0,0,0,0,0,0,0,0,-1,1966,512,0,0
749,512,0,0,0,0,0,0,0,0,0,-1,1973,512,0,0
756,512,0,0,0,0,0,0,0,0,0,-1,1980,512,0,0
763,512,0,0,0,0,0,0,0,0,0,-1,1987,512,0,0
770,512,0,0,0,0,0,0,0,0,0,-1,1994,512,0,0
777,512,0,0,0,0,0,0,0,0,0,-1,2001,512,0,0
784,512,0,0,0,0,0,0,0,0,0,-1,2008,512,0,0
791,512,0,0,0,0,0,0,0,0,0,-1,2015,512,0,0
798,512,0,0,0,0,0,0,0,0,0,-1,2022,512,0,0
805,512,0,0,0,0,0,0,0,0,0,-1,2029,512,0,0
812,512,0,0,0,0,0,0,0,0,0,-1,2036,512,0,0
-700,505,0,0,0,0,0,0,0,0,0,-1,524,519,0,0
-693,505,0,0,0,0,0,0,0,0,0,-1,531,519,0,0
-686,505,0,0,0,0,0,0,0,0,0,-1,538,519,0,0
-679,505,0,0,0,0,0,0,0,0,0,-1,545,519,0,0
-672,505,0,0,0,0,0,0,0,0,0,-1,552,519,0,0
-665,505,0,0,0,0,0,0,0,0,0,-1,559,519,0,0
-658,505,0,0,0,0,0,0,0,0,0,-1,566,519,0,0
-651,505,0,0,0,0,0,0,0,0,0,-1,573,519,0,0
-644,505,0,0,0,0,0,0,0,0,0,-1,580,519,0,0
-637,505,0,0,0,0,0,0,0,0,0,-1,587,519,0,0
-630,505,0,0,0,0,0,0,0,0,0,-1,594,519,0,0
-623,505,0,0,0,0,0,0,0,0,0,-1,601,519,0,0
-616,505,0,0,0,0,0,0,0,0,0,-1,608,519,0,0
-609,505,0,0,0,0,0,0,0,0,0,-1,615,519,0,0
-602,505,0,0,0,0,0,0,0,0,0,-1,622,519,0,0
-595,505,0,0,0,0,0,0,0,0,0,-1,629,519,0,0
-588,505,0,0,0,0,0,0,0,0,0,-1,636,519,0,0
-581,505,0,0,0,0,0,0,0,0,0,-1,643,519,0,0
-574,505,0,0,0,0,0,0,0,0,0,-1,650,519,0,0
-567,505,0,0,0,0,0,0,0,0,0,-1,657,519,0,0
-560,505,0,0,0,0,0,0,0,0,0,-1,664,519,0,0
-553,505,0,0,0,0,0,0,0,0,0,-1,671,519,0,0
-546,505,0,0,0,0,0,0,0,0,0,-1,678,519,0,0
-539,505,0,0,0,0,0,0,0,0,0,-1,685,519,0,0
-532,505,0,0,0,0,0,0,0,0,0,-1,692,519,0,0
-525,505,0,0,0,0,0,0,0,0,0,-1,699,519,0,0
-518,505,0,0,0,0,0,0,0,0,0,-1,706,519,0,0
-511,505,0,0,0,0,0,0,0,0,0,-1,713,519,0,0
-504,505,0,0,0,0,0,0,0,0,0,-1,720,519,0,0
-497,505,0,0,0,0,0,0,0,0,0,-1,727,519,0,0
-490,505,0,0,0,0,0,0,0,0,0,-1,734,519,0,0
-483,505,0,0,0,0,0,0,0,0,0,-1,741,519,0,0
-476,505,0,0,0,0,0,0,0,0,0,-1,748,519,0,0
-469,505,0,0,0,0,0,0,0,0,0,-1,755,519,0,0
-462,505,0,0,0,0,0,0,0,0,0,-1,762,519,0,0
-455,505,-2.77515,3.99298,0,0,0,0,0,0,0,-1,769,519,-2.77516,-3.99298
-448,505,-2.01489,2.76764,0,0,0,0,0,0,0,-1,776,519,-2.01488,-2.76765
-441,505,-1.25525,1.12067,0,0,0,0,0,0,0,-1,783,519,-1.25523,-1.12066
-434,505,0.584778,-2.03345,0,0,0,0,0,0,0,-1,790,519,0.58477,2.03344
-427,505,-0.50061,-3.3551,0,0,0,0,0,0,0,-1,797,519,-0.500591,3.35513
-420,505,-0.471741,-3.50281,0.00823639,0.0198358,-0.00991188,0.0255201,0.00255212,-1.0501,0.0162297,0.0446212,804,519,-0.47176,3.50284
-413,505,-0.137329,-4.03595,0.00777402,0.015788,-0.00710297,0.0199363,0.00362576,-1.04221,0.0122623,0.043699,811,519,-0.137323,4.03593
-406,505,-0.371277,-3.93707,0.00688353,0.0128057,-0.00512848,0.0157666,0.00392269,-1.04721,0.00947805,0.0446267,818,519,-0.371295,3.93706
-399,505,-0.234436,-4.18079,0.00598014,0.0103861,-0.0038089,0.0125833,0.00378303,-1.04758,0.00745495,0.0397484,825,519,-0.234434,4.18076
-392,505,-0.164978,-4.17731,0.00516791,0.00854427,-0.00297453,0.0102763,0.00343589,-1.04351,0.00604058,0.0198654,832,519,-0.164962,4.17729
-385,505,-0.207886,-4.37677,0.00453519,0.00642133,-0.0021977,0.00786976,0.00308676,-0.988075,0.00457865,0.00914524,839,519,-0.207905,4.37678
-378,505,-0.232422,-4.53735,0.00396449,0.00508979,-0.00182464,0.00643656,0.00261772,-0.934954,0.00373765,0.0110123,846,519,-0.232434,4.53737
-371,505,-0.219055,-4.73602,0.00348552,0.00374505,-0.0016055,0.00522603,0.00200455,-0.825724,0.00304439,0.0132075,853,519,-0.219049,4.73604
-364,505,-0.234497,-4.94379,0.00297026,0.00263091,-0.00139573,0.00420659,0.00139458,-0.72491,0.00247421,0.0138705,860,519,-0.234488,4.94381
-357,505,-0.198303,-5.08295,0.0027865,0.00161752,-0.00133196,0.00365657,0.000747449,-0.57864,0.00223071,0.011188,867,519,-0.198275,5.08293
-350,505,-0.20459,-5.24426,0.00257719,0.000751712,-0.00132728,0.00327527,5.36254e-05,-0.484195,0.00216586,0.0107913,874,519,-0.204615,5.24427
-343,505,-0.236267,-5.43414,0.00245382,-0.000200538,-0.00135732,0.00302499,-0.000771705,-0.398312,0.00231713,0.00892321,881,519,-0.236279,5.43416
-336,505,-0.248413,-5.59479,0.00253505,-0.000993066,-0.00129712,0.00296061,-0.00141862,-0.317014,0.00258007,0.00985453,888,519,-0.248414,5.59481
-329,505,-0.246887,-5.74835,0.00262504,-0.00129026,-0.00127808,0.00300532,-0.00167053,-0.289194,0.00273602,0.0123528,895,519,-0.246893,5.74838
-322,505,-0.264648,-5.93323,0.00273684,-0.00146665,-0.00129713,0.00310489,-0.0018347,-0.276475,0.00288313,0.0132156,902,519,-0.264678,5.93324
-315,505,-0.24585,-6.091,0.00290813,-0.00158452,-0.00134268,0.00327882,-0.00195521,-0.269373,0.00305391,0.0122333,909,519,-0.245872,6.09097
-308,505,-0.223206,-6.24292,0.00339594,-0.00158397,-0.00146195,0.0037934,-0.00198143,-0.265454,0.00338837,0.0123182,916,519,-0.223229,6.24292
-301,505,-0.210327,-6.42688,0.0037481,-0.00166897,-0.00155683,0.00416364,-0.00208452,-0.260837,0.00367335,0.0165903,923,519,-0.210326,6.42688
-294,505,-0.208862,-6.55511,0,0,0,0,0,0,0,-1,930,519,-0.20884,6.55512
-287,505,-0.294495,-6.63934,0,0,0,0,0,0,0,-1,937,519,-0.294482,6.63931
-280,505,-0.351196,-6.85382,0,0,0,0,0,0,0,-1,944,519,-0.351172,6.85379
-273,505,-0.32251,-6.9212,0,0,0,0,0,0,0,-1,951,519,-0.322529,6.92118
-266,505,-0.0449829,-7.09222,0,0,0,0,0,0,0,-1,958,519,-0.0450026,7.09221
-259,505,0.10321,-6.69824,0,0,0,0,0,0,0,-1,965,519,0.103235,6.69826
-252,505,6.82312,-15.6972,0,0,0,0,0,0,0,-1,972,519,6.82314,15.6972
-245,505,4.26727,-12.9861,0,0,0,0,0,0,0,-1,979,519,4.2673,12.9861
-238,505,1.67432,-11.2307,0,0,0,0,0,0,0,-1,986,519,1.67429,11.2307
-231,505,-0.958435,-8.3075,0,0,0,0,0,0,0,-1,993,519,-0.958421,8.30751
-224,505,-3.69653,-5.12732,0,0,0,0,0,0,0,-1,1000,519,-3.69653,5.12733
-217,505,-6.34302,-1.65533,0,0,0,0,0,0,0,-1,1007,519,-6.34299,1.65535
-210,505,-3.06128,-0.396301,0,0,0,0,0,0,0,-1,1014,519,-3.06129,0.396294
-203,505,-4.26465,2.03607,0,0,0,0,0,0,0,-1,1021,519,-4.26462,-2.03606
-196,505,-5.47595,4.27295,0,0,0,0,0,0,0,-1,1028,519,-5.47597,-4.27292
-189,505,1.51526,5.56207,0,0,0,0,0,0,0,-1,1035,519,1.51523,-5.56209
-182,505,2.97815,7.5097,0,0,0,0,0,0,0,-1,1042,519,2.97812,-7.5097
-175,505,-2.38416,-2.17548,0,0,0,0,0,0,0,-1,1049,519,-2.38411,2.1755
-168,505,0,0,0,0,0,0,0,0,0,-1,1056,519,0,0
-161,505,0,0,0,0,0,0,0,0,0,-1,1063,519,0,0
-154,505,0,0,0,0,0,0,0,0,0,-1,1070,519,0,0
-147,505,0,0,0,0,0,0,0,0,0,-1,1077,519,0,0
-140,505,0,0,0,0,0,0,0,0,0,-1,1084,519,0,0
-133,505,0,0,0,0,0,0,0,0,0,-1,1091,519,0,0
-126,505,0,0,0,0,0,0,0,0,0,-1,1098,519,0,0
-119,505,0,0,0,0,0,0,0,0,0,-1,1105,519,0,0
-112,505,0,0,0,0,0,0,0,0,0,-1,1112,519,0,0
-105,505,0,0,0,0,0,0,0,0,0,-1,1119,519,0,0
-98,505,0,0,0,0,0,0,0,0,0,-1,1126,519,0,0
-91,505,0,0,0,0,0,0,0,0,0,-1,1133,519,0,0
-84,505,0,0,0,0,0,0,0,0,0,-1,1140,519,0,0
-77,505,0,0,0,0,0,0,0,0,0,-1,1147,519,0,0
-70,505,0,0,0,0,0,0,0,0,0,-1,1154,519,0,0
-63,505,0,0,0,0,0,0,0,0,0,-1,1161,519,0,0
-56,505,0,0,0,0,0,0,0,0,0,-1,1168,519,0,0
-49,505,0,0,0,0,0,0,0,0,0,-1,1175,519,0,0
-42,505,0,0,0,0,0,0,0,0,0,-1,1182,519,0,0
-35,505,0,0,0,0,0,0,0,0,0,-1,1189,519,0,0
-28,505,0,0,0,0,0,0,0,0,0,-1,1196,519,0,0
-21,505,0,0,0,0,0,0,0,0,0,-1,1203,519,0,0
-14,505,0,0,0,0,0,0,0,0,0,-1,1210,519,0,0
-7,505,0,0,0,0,0,0,0,0,0,-1,1217,519,0,0
0,505,0,0,0,0,0,0,0,0,0,-1,1224,519,0,0
7,505,0,0,0,0,0,0,0,0,0,-1,1231,519,0,0
14,505,0,0,0,0,0,0,0,0,0,-1,1238,519,0,0
21,505,0,0,0,0,0,0,0,0,0,-1,1245,519,0,0
28,505,0,0,0,0,0,0,0,0,0,-1,1252,519,0,0
35,505,0,0,0,0,0,0,0,0,0,-1,1259,519,0,0
42,505,0,0,0,0,0,0,0,0,0,-1,1266,519,0,0
49,505,0,0,0,0,0,0,0,0,0,-1,1273,519,0,0
56,505,0,0,0,0,0,0,0,0,0,-1,1280,519,0,0
63,505,0,0,0,0,0,0,0,0,0,-1,1287,519,0,0
70,505,0,0,0,0,0,0,0,0,0,-1,1294,519,0,0
77,505,0,0,0,0,0,0,0,0,0,-1,1301,519,0,0
84,505,0,0,0,0,0,0,0,0,0,-1,1308,519,0,0
91,505,0,0,0,0,0,0,0,0,0,-1,1315,519,0,0
98,505,0,0,0,0,0,0,0,0,0,-1,1322,519,0,0
105,505,0,0,0,0,0,0,0,0,0,-1,1329,519,0,0
112,505,0,0,0,0,0,0,0,0,0,-1,1336,519,0,0
119,505,0,0,0,0,0,0,0,0,0,-1,1343,519,0,0
126,505,0,0,0,0,0,0,0,0,0,-1,1350,519,0,0
133,505,0,0,0,0,0,0,0,0,0,-1,1357,519,0,0
140,505,0,0,0,0,0,0,0,0,0,-1,1364,519,0,0
147,505,0,0,0,0,0,0,0,0,0,-1,1371,519,0,0
154,505,0,0,0,0,0,0,0,0,0,-1,1378,519,0,0
161,505,0,0,0,0,0,0,0,0,0,-1,1385,519,0,0
168,505,0,0,0,0,0,0,0,0,0,-1,1392,519,0,0
175,505,0,0,0,0,0,0,0,0,0,-1,1399,519,0,0
182,505,0,0,0,0,0,0,0,0,0,-1,1406,519,0,0
189,505,0,0,0,0,0,0,0,0,0,-1,1413,519,0,0
196,505,0,0,0,0,0,0,0,0,0,-1,1420,519,0,0
203,505,0,0,0,0,0,0,0,0,0,-1,1427,519,0,0
210,505,0,0,0,0,0,0,0,0,0,-1,1434,519,0,0
217,505,0,0,0,0,0,0,0,0,0,-1,1441,519,0,0
224,505,0,0,0,0,0,0,0,0,0,-1,1448,519,0,0
231,505,0,0,0,0,0,0,0,0,0,-1,1455,519,0,0
238,505,0,0,0,0,0,0,0,0,0,-1,1462,519,0,0
245,505,0,0,0,0,0,0,0,0,0,-1,1469,519,0,0
252,505,0,0,0,0,0,0,0,0,0,-1,1476,519,0,0
259,505,0,0,0,0,0,0,0,0,0,-1,1483,519,0,0
266,505,0,0,0,0,0,0,0,0,0,-1,1490,519,0,0
273,505,0,0,0,0,0,0,0,0,0,-1,1497,519,0,0
280,505,0,0,0,0,0,0,0,0,0,-1,1504,519,0,0
287,505,4.39478,0.499512,0,0,0,0,0,0,0,-1,1511,519,4.39476,-0.499506
294,505,4.88867,0.0822754,0,0,0,0,0,0,0,-1,1518,519,4.88871,-0.0822748
301,505,4.82153,-0.0704346,0,0,0,0,0,0,0,-1,1525,519,4.82156,0.0704312
308,505,4.67761,-0.29187,0,0,0,0,0,0,0,-1,1532,519,4.67762,0.291845
315,505,8.44055,-6.54352,0,0,0,0,0,0,0,-1,1539,519,8.44059,6.54349
322,505,4.78955,-0.594116,0,0,0,0,0,0,0,-1,1546,519,4.78957,0.594096
329,505,5.16321,0.434631,0,0,0,0,0,0,0,-1,1553,519,5.16316,-0.434614
336,505,4.94495,-0.920471,0,0,0,0,0,0,0,-1,1560,519,4.945,0.920495
343,505,5.01855,-1.4823,0,0,0,0,0,0,0,-1,1567,519,5.01851,1.48227
350,505,5.33154,-1.77838,0,0,0,0,0,0,0,-1,1574,519,5.33152,1.77838
357,505,5.56567,-1.9425,0,0,0,0,0,0,0,-1,1581,519,5.56562,1.94248
364,505,5.85205,-2.6579,0,0,0,0,0,0,0,-1,1588,519,5.85211,2.65788
371,505,5.88477,-7.00922,0,0,0,0,0,0,0,-1,1595,519,5.88473,7.00924
378,505,4.65857,-5.534,0,0,0,0,0,0,0,-1,1602,519,4.65861,5.53401
385,505,4.59424,-5.10028,0,0,0,0,0,0,0,-1,1609,519,4.59428,5.10026
392,505,4.99866,-5.06219,0,0,0,0,0,0,0,-1,1616,519,4.99862,5.06218
399,505,5.04285,-5.17188,0,0,0,0,0,0,0,-1,1623,519,5.04285,5.17187
406,505,4.62048,-5.11273,-0.00417297,-0.0219681,-0.0111962,0.00123055,-0.0273716,-0.449649,0.0186715,0.0416555,1630,519,4.62044,5.11276
413,505,4.80225,-5.50909,-0.00331696,-0.0160514,-0.00916179,0.00147287,-0.0208413,-0.481725,0.0144102,0.0450888,1637,519,4.80222,5.50907
420,505,4.66772,-5.47388,-0.00293373,-0.0111544,-0.00745889,0.00147237,-0.0155605,-0.533567,0.0108977,0.0294048,1644,519,4.66777,5.47386
427,505,4.63098,-5.25909,-0.00270293,-0.00731384,-0.00592353,0.00134798,-0.0113647,-0.599816,0.00806347,0.0136463,1651,519,4.63103,5.25907
434,505,4.60876,-5.10052,-0.00240816,-0.00430955,-0.00452108,0.00126109,-0.00797881,-0.681767,0.00578557,0.00984601,1658,519,4.60882,5.1005
441,505,4.59436,-4.91455,-0.00209195,-0.0017474,-0.00348247,0.00156705,-0.00540641,-0.810113,0.00422464,0.0099623,1665,519,4.59435,4.91457
448,505,4.59448,-4.73462,-0.00163296,-0.000226654,-0.00235382,0.00152679,-0.00338641,-0.930544,0.00290358,0.0103415,1672,519,4.59446,4.73464
455,505,4.59351,-4.55493,-0.00111893,0.000504288,-0.0014121,0.0013214,-0.00193604,-1.04622,0.00189181,0.0106807,1679,519,4.5935,4.55496
462,505,4.57483,-4.37152,-0.000694031,0.00104272,-0.000703127,0.00129169,-0.000943002,-1.23048,0.00129542,0.0108147,1686,519,4.5748,4.37152
469,505,4.56885,-4.19397,-0.000334301,0.000757653,-0.000258717,0.000815849,-0.000392498,-1.34954,0.000711768,0.0105756,1693,519,4.56881,4.19396
476,505,4.59521,-4.00964,-0.000134842,0.000343041,-0.00010172,0.000363792,-0.000155592,-1.36956,0.000307792,0.0107831,1700,519,4.59517,4.00963
483,505,4.60156,-3.80957,-1.70646e-05,-2.49934e-05,6.12453e-06,-1.37334e-05,-2.83246e-05,0.498162,1.63557e-05,0.0119052,1707,519,4.6016,3.80958
490,505,4.60693,-3.61023,-1.57321e-05,-0.000524816,3.7814e-05,-1.29387e-05,-0.000527609,0.0737393,0.000347507,0.0115749,1714,519,4.60695,3.61026
497,505,4.61987,-3.42609,-0.000144367,-0.000970259,3.4824e-05,-0.000142902,-0.000971725,0.0420658,0.000605827,0.0116597,1721,519,4.61992,3.42606
504,505,4.60645,-3.20959,-0.000119863,-0.000979439,0.00037633,2.16126e-05,-0.00112092,0.35959,0.000754584,0.0122312,1728,519,4.60646,3.2096
511,505,4.60181,-3.01917,0.000148817,-0.000502769,0.000941453,0.000819255,-0.00117321,0.618821,0.00115638,0.0133893,1735,519,4.60177,3.01918
518,505,4.66064,-2.8728,0.00102367,0.000352066,0.00205074,0.00276592,-0.00139018,0.704245,0.00244295,0.0255121,1742,519,4.66061,2.87283
525,505,4.45459,-2.70752,0.00205549,0.00171804,0.00341814,0.00530907,-0.00153553,0.760737,0.00414709,0.0323358,1749,519,4.45459,2.70753
532,505,4.45972,-2.35046,0.00412245,0.00403224,0.00571476,0.00979228,-0.00163759,0.781452,0.00713695,0.0422071,1756,519,4.45967,2.35046
539,505,4.47107,-2.07605,0,0,0,0,0,0,0,-1,1763,519,4.47102,2.07603
546,505,4.69727,-1.47705,0,0,0,0,0,0,0,-1,1770,519,4.69723,1.47703
553,505,2.82837,0.162659,0,0,0,0,0,0,0,-1,1777,519,2.82841,-0.162672
560,505,3.66223,-0.479797,0,0,0,0,0,0,0,-1,1784,519,3.66219,0.47982
567,505,4.65271,-0.950256,0,0,0,0,0,0,0,-1,1791,519,4.65274,0.95028
574,505,5.54443,-1.19977,0,0,0,0,0,0,0,-1,1798,519,5.54443,1.19974
581,505,0,0,0,0,0,0,0,0,0,-1,1805,519,0,0
588,505,0,0,0,0,0,0,0,0,0,-1,1812,519,0,0
595,505,0,0,0,0,0,0,0,0,0,-1,1819,519,0,0
602,505,0,0,0,0,0,0,0,0,0,-1,1826,519,0,0
609,505,0,0,0,0,0,0,0,0,0,-1,1833,519,0,0
616,505,0,0,0,0,0,0,0,0,0,-1,1840,519,0,0
623,505,0,0,0,0,0,0,0,0,0,-1,1847,519,0,0
630,505,0,0,0,0,0,0,0,0,0,-1,1854,519,0,0
637,505,0,0,0,0,0,0,0,0,0,-1,1861,519,0,0
644,505,0,0,0,0,0,0,0,0,0,-1,1868,519,0,0
651,505,0,0,0,0,0,0,0,0,0,-1,1875,519,0,0
658,505,0,0,0,0,0,0,0,0,0,-1,1882,519,0,0
665,505,0,0,0,0,0,0,0,0,0,-1,1889,519,0,0
672,505,0,0,0,0,0,0,0,0,0,-1,1896,519,0,0
679,505,0,0,0,0,0,0,0,0,0,-1,1903,519,0,0
686,505,0,0,0,0,0,0,0,0,0,-1,1910,519,0,0
693,505,0,0,0,0,0,0,0,0,0,-1,1917,519,0,0
700,505,0,0,0,0,0,0,0,0,0,-1,1924,519,0,0
707,505,0,0,0,0,0,0,0,0,0,-1,1931,519,0,0
714,505,0,0,0,0,0,0,0,0,0,-1,1938,519,0,0
721,505,0,0,0,0,0,0,0,0,0,-1,1945,519,0,0
728,505,0,0,0,0,0,0,0,0,0,-1,1952,519,0,0
735,505,0,0,0,0,0,0,0,0,0,-1,1959,519,0,0
742,505,0,0,0,0,0,0,0,0,0,-1,1966,519,0,0
749,505,0,0,0,0,0,0,0,0,0,-1,1973,519,0,0
756,505,0,0,0,0,0,0,0,0,0,-1,1980,519,0,0
763,505,0,0,0,0,0,0,0,0,0,-1,1987,519,0,0
770,505,0,0,0,0,0,0,0,0,0,-1,1994,519,0,0
777,505,0,0,0,0,0,0,0,0,0,-1,2001,519,0,0
784,505,0,0,0,0,0,0,0,0,0,-1,2008,519,0,0
791,505,0,0,0,0,0,0,0,0,0,-1,2015,519,0,0
798,505,0,0,0,0,0,0,0,0,0,-1,2022,519,0,0
805,505,0,0,0,0,0,0,0,0,0,-1,2029,519,0,0
812,505,0,0,0,0,0,0,0,0,0,-1,2036,519,0,0
-700,498,0,0,0,0,0,0,0,0,0,-1,524,526,0,0
-693,498,0,0,0,0,0,0,0,0,0,-1,531,526,0,0
-686,498,0,0,0,0,0,0,0,0,0,-1,538,526,0,0
-679,498,0,0,0,0,0,0,0,0,0,-1,545,526,0,0
-672,498,0,0,0,0,0,0,0,0,0,-1,552,526,0,0
-665,498,0,0,0,0,0,0,0,0,0,-1,559,526,0,0
-658,498,0,0,0,0,0,0,0,0,0,-1,566,526,0,0
-651,498,0,0,0,0,0,0,0,0,0,-1,573,526,0,0
-644,498,0,0,0,0,0,0,0,0,0,-1,580,526,0,0
-637,498,0,0,0,0,0,0,0,0,0,-1,587,526,0,0
-630,498,0,0,0,0,0,0,0,0,0,-1,594,526,0,0
-623,498,0,0,0,0,0,0,0,0,0,-1,601,526,0,0
-616,498,0,0,0,0,0,0,0,0,0,-1,608,526,0,0
-609,498,0,0,0,0,0,0,0,0,0,-1,615,526,0,0
-602,498,0,0,0,0,0,0,0,0,0,-1,622,526,0,0
-595,498,0,0,0,0,0,0,0,0,0,-1,629,526,0,0
-588,498,0,0,0,0,0,0,0,0,0,-1,636,526,0,0
-581,498,0,0,0,0,0,0,0,0,0,-1,643,526,0,0
-574,498,0,0,0,0,0,0,0,0,0,-1,650,526,0,0
-567,498,0,0,0,0,0,0,0,0,0,-1,657,526,0,0
-560,498,0,0,0,0,0,0,0,0,0,-1,664,526,0,0
-553,498,0,0,0,0,0,0,0,0,0,-1,671,526,0,0
-546,498,0,0,0,0,0,0,0,0,0,-1,678,526,0,0
-539,498,0,0,0,0,0,0,0,0,0,-1,685,526,0,0
-532,498,0,0,0,0,0,0,0,0,0,-1,692,526,0,0
-525,498,0,0,0,0,0,0,0,0,0,-1,699,526,0,0
-518,498,0,0,0,0,0,0,0,0,0,-1,706,526,0,0
-511,498,0,0,0,0,0,0,0,0,0,-1,713,526,0,0
-504,498,0,0,0,0,0,0,0,0,0,-1,720,526,0,0
-497,498,0,0,0,0,0,0,0,0,0,-1,727,526,0,0
-490,498,0,0,0,0,0,0,0,0,0,-1,734,526,0,0
-483,498,0,0,0,0,0,0,0,0,0,-1,741,526,0,0
-476,498,0,0,0,0,0,0,0,0,0,-1,748,526,0,0
-469,498,0,0,0,0,0,0,0,0,0,-1,755,526,0,0
-462,498,-3.86688,0.246216,0,0,0,0,0,0,0,-1,762,526,-3.86689,-0.246232
-455,498,-2.72784,3.01898,0,0,0,0,0,0,0,-1,769,526,-2.72783,-3.01901
-448,498,-1.98224,1.82361,0,0,0,0,0,0,0,-1,776,526,-1.98224,-1.82364
-441,498,-1.41852,0.453857,0,0,0,0,0,0,0,-1,783,526,-1.4185,-0.453878
-434,498,-0.178162,-2.14569,0,0,0,0,0,0,0,-1,790,526,-0.178161,2.14571
-427,498,-0.646606,-3.46765,0,0,0,0,0,0,0,-1,797,526,-0.646598,3.46765
-420,498,-0.611145,-3.62738,0.00499281,0.0168136,-0.00838549,0.0211623,0.000644096,-1.09238,0.0138985,0.0461092,804,526,-0.611165,3.6274
-413,498,-0.553223,-3.71191,0.00469133,0.0129835,-0.00586498,0.0160199,0.00165495,-1.09308,0.0101733,0.0421748,811,526,-0.553235,3.71188
-406,498,-0.479553,-3.88654,0.00409092,0.0101819,-0.00406071,0.0122123,0.00206055,-1.10715,0.007549,0.0374601,818,526,-0.479556,3.88652
-399,498,-0.373901,-4.02826,0.00348805,0.00807713,-0.00289363,0.00947556,0.00208962,-1.12062,0.00574853,0.0237554,825,526,-0.373926,4.02823
-392,498,-0.365356,-4.19849,0.00301113,0.00646611,-0.00217351,0.00751501,0.00196223,-1.12118,0.00450084,0.0118661,832,526,-0.365379,4.19846
-385,498,-0.385498,-4.36993,0.00272151,0.00450139,-0.00146585,0.0053263,0.00189661,-1.05822,0.00311731,0.00885184,839,526,-0.38548,4.36992
-378,498,-0.396057,-4.52173,0.00248758,0.00334371,-0.00116378,0.00415565,0.00167564,-0.961631,0.0024142,0.0100902,846,526,-0.396045,4.52176
-371,498,-0.38208,-4.7135,0.00231364,0.00220225,-0.00106062,0.00332003,0.00119586,-0.759168,0.00194163,0.0151956,853,526,-0.38207,4.7135
-364,498,-0.394958,-4.93658,0.0021089,0.00120707,-0.000939033,0.00269967,0.000616297,-0.561559,0.00163357,0.0155344,860,526,-0.394982,4.9366
-357,498,-0.383301,-5.09351,0.00223172,0.000263709,-0.000970535,0.00262981,-0.000134388,-0.389254,0.00179968,0.0104279,867,526,-0.38333,5.09349
-350,498,-0.389893,-5.24469,0.00234875,-0.000590673,-0.00104747,0.00268382,-0.000925742,-0.3096,0.00216481,0.0106345,874,526,-0.389898,5.24467
-343,498,-0.401001,-5.41968,0.00256499,-0.00153282,-0.00115426,0.00286775,-0.00183558,-0.256518,0.00273718,0.0119165,881,526,-0.401014,5.41968
-336,498,-0.403442,-5.59528,0.00292029,-0.00228369,-0.0011977,0.0031827,-0.0025461,-0.215693,0.00331433,0.0145775,888,526,-0.403467,5.59529
-329,498,-0.38501,-5.75317,0.00327385,-0.00261059,-0.00128718,0.0035431,-0.00287983,-0.2062,0.00371487,0.0172863,895,526,-0.38502,5.75318
-322,498,-0.40155,-5.92834,0.00360137,-0.00283363,-0.00138433,0.00388654,-0.00311879,-0.203154,0.00405262,0.0164016,902,526,-0.401555,5.92834
-315,498,-0.411987,-6.08264,0.00397604,-0.00302827,-0.00154644,0.00430227,-0.00335451,-0.20791,0.00443192,0.0164556,909,526,-0.411991,6.08265
-308,498,-0.385376,-6.24396,0.00467603,-0.00305434,-0.00180369,0.00507616,-0.00345447,-0.218307,0.00495474,0.0168677,916,526,-0.385382,6.24394
-301,498,-0.315308,-6.49207,0.00516806,-0.00322797,-0.00197857,0.00561095,-0.00367086,-0.220217,0.00539774,0.0260473,923,526,-0.315298,6.49207
-294,498,-0.390198,-6.50922,0,0,0,0,0,0,0,-1,930,526,-0.390169,6.50922
-287,498,-0.524414,-6.86072,0,0,0,0,0,0,0,-1,937,526,-0.524388,6.86074
-280,498,-0.626038,-7.21796,0,0,0,0,0,0,0,-1,944,526,-0.626049,7.21795
-273,498,-0.719116,-6.9881,0,0,0,0,0,0,0,-1,951,526,-0.719129,6.98811
-266,498,0.362488,-6.33545,0,0,0,0,0,0,0,-1,958,526,0.362478,6.33547
-259,498,10.9454,-17.3615,0,0,0,0,0,0,0,-1,965,526,10.9454,17.3614
-252,498,8.56586,-14.6886,0,0,0,0,0,0,0,-1,972,526,8.56584,14.6886
-245,498,5.97382,-11.928,0,0,0,0,0,0,0,-1,979,526,5.97381,11.928
-238,498,3.31403,-9.40442,0,0,0,0,0,0,0,-1,986,526,3.31405,9.40443
-231,498,0.675598,-6.60547,0,0,0,0,0,0,0,-1,993,526,0.675587,6.60545
-224,498,-2.11243,-4.76312,0,0,0,0,0,0,0,-1,1000,526,-2.11245,4.76314
-217,498,-3.82239,-1.42841,0,0,0,0,0,0,0,-1,1007,526,-3.82241,1.42843
-210,498,-1.80591,-0.358215,0,0,0,0,0,0,0,-1,1014,526,-1.8059,0.3582
-203,498,-3.17316,1.06641,0,0,0,0,0,0,0,-1,1021,526,-3.17313,-1.0664
-196,498,-0.103271,5.40527,0,0,0,0,0,0,0,-1,1028,526,-0.103285,-5.40528
-189,498,3.00256,6.47137,0,0,0,0,0,0,0,-1,1035,526,3.00256,-6.47139
-182,498,0,0,0,0,0,0,0,0,0,-1,1042,526,0,0
-175,498,0,0,0,0,0,0,0,0,0,-1,1049,526,0,0
-168,498,0,0,0,0,0,0,0,0,0,-1,1056,526,0,0
-161,498,0,0,0,0,0,0,0,0,0,-1,1063,526,0,0
-154,498,0,0,0,0,0,0,0,0,0,-1,1070,526,0,0
-147,498,0,0,0,0,0,0,0,0,0,-1,1077,526,0,0
-140,498,0,0,0,0,0,0,0,0,0,-1,1084,526,0,0
-133,498,0,0,0,0,0,0,0,0,0,-1,1091,526,0,0
-126,498,0,0,0,0,0,0,0,0,0,-1,1098,526,0,0
-119,498,0,0,0,0,0,0,0,0,0,-1,1105,526,0,0
-112,498,0,0,0,0,0,0,0,0,0,-1,1112,526,0,0
-105,498,0,0,0,0,0,0,0,0,0,-1,1119,526,0,0
-98,498,0,0,0,0,0,0,0,0,0,-1,1126,526,0,0
-91,498,0,0,0,0,0,0,0,0,0,-1,1133,526,0,0
-84,498,0,0,0,0,0,0,0,0,0,-1,1140,526,0,0
-77,498,0,0,0,0,0,0,0,0,0,-1,1147,526,0,0
-70,498,0,0,0,0,0,0,0,0,0,-1,1154,526,0,0
-63,498,0,0,0,0,0,0,0,0,0,-1,1161,526,0,0
-56,498,0,0,0,0,0,0,0,0,0,-1,1168,526,0,0
-49,498,0,0,0,0,0,0,0,0,0,-1,1175,526,0,0
-42,498,0,0,0,0,0,0,0,0,0,-1,1182,526,0,0
-35,498,0,0,0,0,0,0,0,0,0,-1,1189,526,0,0
-28,498,0,0,0,0,0,0,0,0,0,-1,1196,526,0,0
-21,498,0,0,0,0,0,0,0,0,0,-1,1203,526,0,0
-14,498,0,0,0,0,0,0,0,0,0,-1,1210,526,0,0
-7,498,0,0,0,0,0,0,0,0,0,-1,1217,526,0,0
0,498,0,0,0,0,0,0,0,0,0,-1,1224,526,0,0
7,498,0,0,0,0,0,0,0,0,0,-1,1231,526,0,0
14,498,0,0,0,0,0,0,0,0,0,-1,1238,526,0,0
21,498,0,0,0,0,0,0,0,0,0,-1,1245,526,0,0
28,498,0,0,0,0,0,0,0,0,0,-1,1252,526,0,0
35,498,0,0,0,0,0,0,0,0,0,-1,1259,526,0,0
42,498,0,0,0,0,0,0,0,0,0,-1,1266,526,0,0
49,498,0,0,0,0,0,0,0,0,0,-1,1273,526,0,0
56,498,0,0,0,0,0,0,0,0,0,-1,1280,526,0,0
63,498,0,0,0,0,0,0,0,0,0,-1,1287,526,0,0
70,498,0,0,0,0,0,0,0,0,0,-1,1294,526,0,0
77,498,0,0,0,0,0,0,0,0,0,-1,1301,526,0,0
84,498,0,0,0,0,0,0,0,0,0,-1,1308,526,0,0
91,498,0,0,0,0,0,0,0,0,0,-1,1315,526,0,0
98,498,0,0,0,0,0,0,0,0,0,-1,1322,526,0,0
105,498,0,0,0,0,0,0,0,0,0,-1,1329,526,0,0
112,498,0,0,0,0,0,0,0,0,0,-1,1336,526,0,0
119,498,0,0,0,0,0,0,0,0,0,-1,1343,526,0,0
126,498,0,0,0,0,0,0,0,0,0,-1,1350,526,0,0
133,498,0,0,0,0,0,0,0,0,0,-1,1357,526,0,0
140,498,0,0,0,0,0,0,0,0,0,-1,1364,526,0,0
147,498,0,0,0,0,0,0,0,0,0,-1,1371,526,0,0
154,498,0,0,0,0,0,0,0,0,0,-1,1378,526,0,0
161,498,0,0,0,0,0,0,0,0,0,-1,1385,526,0,0
168,498,0,0,0,0,0,0,0,0,0,-1,1392,526,0,0
175,498,0,0,0,0,0,0,0,0,0,-1,1399,526,0,0
182,498,0,0,0,0,0,0,0,0,0,-1,1406,526,0,0
189,498,0,0,0,0,0,0,0,0,0,-1,1413,526,0,0
196,498,0,0,0,0,0,0,0,0,0,-1,1420,526,0,0
203,498,0,0,0,0,0,0,0,0,0,-1,1427,526,0,0
210,498,0,0,0,0,0,0,0,0,0,-1,1434,526,0,0
217,498,0,0,0,0,0,0,0,0,0,-1,1441,526,0,0
224,498,0,0,0,0,0,0,0,0,0,-1,1448,526,0,0
231,498,0,0,0,0,0,0,0,0,0,-1,1455,526,0,0
238,498,0,0,0,0,0,0,0,0,0,-1,1462,526,0,0
245,498,0,0,0,0,0,0,0,0,0,-1,1469,526,0,0
252,498,0,0,0,0,0,0,0,0,0,-1,1476,526,0,0
259,498,0,0,0,0,0,0,0,0,0,-1,1483,526,0,0
266,498,0,0,0,0,0,0,0,0,0,-1,1490,526,0,0
273,498,0,0,0,0,0,0,0,0,0,-1,1497,526,0,0
280,498,0,0,0,0,0,0,0,0,0,-1,1504,526,0,0
287,498,0,0,0,0,0,0,0,0,0,-1,1511,526,0,0
294,498,0,0,0,0,0,0,0,0,0,-1,1518,526,0,0
301,498,0,0,0,0,0,0,0,0,0,-1,1525,526,0,0
308,498,4.77942,-0.293884,0,0,0,0,0,0,0,-1,1532,526,4.77939,0.293899
315,498,4.56091,-0.564148,0,0,0,0,0,0,0,-1,1539,526,4.56097,0.564142
322,498,4.52344,-0.447266,0,0,0,0,0,0,0,-1,1546,526,4.52341,0.447295
329,498,4.63232,-0.156982,0,0,0,0,0,0,0,-1,1553,526,4.63238,0.156991
336,498,5.22644,0.0925903,0,0,0,0,0,0,0,-1,1560,526,5.22648,-0.0926188
343,498,6.22607,-1.67615,0,0,0,0,0,0,0,-1,1567,526,6.22605,1.67617
350,498,6.19373,-1.59906,0,0,0,0,0,0,0,-1,1574,526,6.19367,1.59906
357,498,6.21472,-1.58929,0,0,0,0,0,0,0,-1,1581,526,6.21476,1.58927
364,498,5.73547,-1.2019,0,0,0,0,0,0,0,-1,1588,526,5.73547,1.20192
371,498,3.27087,-4.55334,0,0,0,0,0,0,0,-1,1595,526,3.27089,4.55332
378,498,8.42944,-4.70624,0,0,0,0,0,0,0,-1,1602,526,8.42942,4.70624
385,498,4.7793,-5.15314,0,0,0,0,0,0,0,-1,1609,526,4.77935,5.15311
392,498,3.44421,-4.27454,0,0,0,0,0,0,0,-1,1616,526,3.44416,4.27456
399,498,6.10608,-5.52478,0,0,0,0,0,0,0,-1,1623,526,6.10608,5.5248
406,498,4.65576,-4.62604,0,0,0,0,0,0,0,-1,1630,526,4.65574,4.62602
413,498,5.39783,-5.39551,0,0,0,0,0,0,0,-1,1637,526,5.39782,5.39548
420,498,4.91895,-5.50891,0,0,0,0,0,0,0,-1,1644,526,4.91891,5.50892
427,498,4.92334,-5.32001,-0.00388354,-0.00838614,-0.00743275,0.00163138,-0.0139011,-0.638346,0.00985627,0.0342985,1651,526,4.92336,5.32001
434,498,4.86584,-5.09186,-0.00344196,-0.00462636,-0.00562357,0.00162051,-0.00968883,-0.732938,0.00706164,0.0176265,1658,526,4.86589,5.09185
441,498,4.78918,-4.90546,-0.00300957,-0.00156013,-0.00433057,0.00210594,-0.00667564,-0.868305,0.00529392,0.00941392,1665,526,4.78922,4.90547
448,498,4.79663,-4.72961,-0.00240431,0.000216508,-0.00297371,0.00215573,-0.00434354,-0.99293,0.00382257,0.00923931,1672,526,4.79663,4.7296
455,498,4.78564,-4.55322,-0.00175363,0.00100623,-0.00185441,0.0019378,-0.0026852,-1.10527,0.00268069,0.013424,1679,526,4.78565,4.55325
462,498,4.76086,-4.37146,-0.00122954,0.00159932,-0.00102189,0.00192984,-0.00156007,-1.25797,0.00201867,0.0153345,1686,526,4.76083,4.37145
469,498,4.75183,-4.18658,-0.000709858,0.00135504,-0.000459984,0.00145287,-0.000807691,-1.36123,0.00132274,0.0130365,1693,526,4.75183,4.18656
476,498,4.78943,-3.99524,-0.000361065,0.00091078,-0.000239355,0.000954334,-0.000404619,-1.3908,0.000805705,0.00961469,1700,526,4.78943,3.99527
483,498,4.8009,-3.79816,-0.000142318,0.000500356,-8.68666e-05,0.00051189,-0.000153852,-1.43879,0.000402469,0.00803432,1707,526,4.80091,3.79816
490,498,4.78967,-3.6275,-3.04132e-05,8.38792e-06,-5.87533e-08,8.38801e-06,-3.04133e-05,-1.56928,2.35743e-05,0.0101308,1714,526,4.78972,3.62752
497,498,4.802,-3.43329,-8.25762e-05,-0.000423078,2.86348e-05,-8.0185e-05,-0.000425469,0.0833161,0.000261056,0.0119225,1721,526,4.80203,3.43329
504,498,4.78735,-3.22156,-2.25031e-05,-0.000420659,0.000370564,0.000199073,-0.000642235,0.538905,0.000507695,0.0138738,1728,526,4.7873,3.22158
511,498,4.78748,-3.02094,0.000309705,7.05608e-05,0.000953667,0.00115127,-0.000771001,0.723033,0.00111704,0.0152216,1735,526,4.78748,3.02091
518,498,4.82654,-2.82214,0.00121168,0.000924621,0.00203547,0.00310867,-0.000972369,0.750199,0.00246145,0.0175835,1742,526,4.82655,2.82214
525,498,4.755,-2.63885,0.00221728,0.00221978,0.00329074,0.00550927,-0.00107221,0.785588,0.00407751,0.0264912,1749,526,4.755,2.63885
532,498,4.62952,-2.50708,0.00411459,0.00436248,0.00532401,0.00956399,-0.00108692,0.797036,0.00676746,0.0358118,1756,526,4.62952,2.5071
539,498,4.70898,-2.10699,0,0,0,0,0,0,0,-1,1763,526,4.70897,2.10702
546,498,4.87769,-1.73651,0,0,0,0,0,0,0,-1,1770,526,4.87767,1.73648
553,498,5.29749,-1.07715,0,0,0,0,0,0,0,-1,1777,526,5.29752,1.07715
560,498,3.69385,-0.615112,0,0,0,0,0,0,0,-1,1784,526,3.69381,0.615118
567,498,5.12695,-0.581604,0,0,0,0,0,0,0,-1,1791,526,5.12699,0.58159
574,498,3.88,0.0286255,0,0,0,0,0,0,0,-1,1798,526,3.87999,-0.0286535
581,498,10.8722,2.58551,0,0,0,0,0,0,0,-1,1805,526,10.8723,-2.58551
588,498,0,0,0,0,0,0,0,0,0,-1,1812,526,0,0
595,498,0,0,0,0,0,0,0,0,0,-1,1819,526,0,0
602,498,0,0,0,0,0,0,0,0,0,-1,1826,526,0,0
609,498,0,0,0,0,0,0,0,0,0,-1,1833,526,0,0
616,498,0,0,0,0,0,0,0,0,0,-1,1840,526,0,0
623,498,0,0,0,0,0,0,0,0,0,-1,1847,526,0,0
630,498,0,0,0,0,0,0,0,0,0,-1,1854,526,0,0
637,498,0,0,0,0,0,0,0,0,0,-1,1861,526,0,0
644,498,0,0,0,0,0,0,0,0,0,-1,1868,526,0,0
651,498,0,0,0,0,0,0,0,0,0,-1,1875,526,0,0
658,498,0,0,0,0,0,0,0,0,0,-1,1882,526,0,0
665,498,0,0,0,0,0,0,0,0,0,-1,1889,526,0,0
672,498,0,0,0,0,0,0,0,0,0,-1,1896,526,0,0
679,498,0,0,0,0,0,0,0,0,0,-1,1903,526,0,0
686,498,0,0,0,0,0,0,0,0,0,-1,1910,526,0,0
693,498,0,0,0,0,0,0,0,0,0,-1,1917,526,0,0
700,498,0,0,0,0,0,0,0,0,0,-1,1924,526,0,0
707,498,0,0,0,0,0,0,0,0,0,-1,1931,526,0,0
714,498,0,0,0,0,0,0,0,0,0,-1,1938,526,0,0
721,498,0,0,0,0,0,0,0,0,0,-1,1945,526,0,0
728,498,0,0,0,0,0,0,0,0,0,-1,1952,526,0,0
735,498,0,0,0,0,0,0,0,0,0,-1,1959,526,0,0
742,498,0,0,0,0,0,0,0,0,0,-1,1966,526,0,0
749,498,0,0,0,0,0,0,0,0,0,-1,1973,526,0,0
756,498,0,0,0,0,0,0,0,0,0,-1,1980,526,0,0
763,498,0,0,0,0,0,0,0,0,0,-1,1987,526,0,0
770,498,0,0,0,0,0,0,0,0,0,-1,1994,526,0,0
777,498,0,0,0,0,0,0,0,0,0,-1,2001,526,0,0
784,498,0,0,0,0,0,0,0,0,0,-1,2008,526,0,0
791,498,0,0,0,0,0,0,0,0,0,-1,2015,526,0,0
798,498,0,0,0,0,0,0,0,0,0,-1,2022,526,0,0
805,498,0,0,0,0,0,0,0,0,0,-1,2029,526,0,0
812,498,0,0,0,0,0,0,0,0,0,-1,2036,526,0,0
-700,491,0,0,0,0,0,0,0,0,0,-1,524,533,0,0
-693,491,0,0,0,0,0,0,0,0,0,-1,531,533,0,0
-686,491,0,0,0,0,0,0,0,0,0,-1,538,533,0,0
-679,491,0,0,0,0,0,0,0,0,0,-1,545,533,0,0
-672,491,0,0,0,0,0,0,0,0,0,-1,552,533,0,0
-665,491,0,0,0,0,0,0,0,0,0,-1,559,533,0,0
-658,491,0,0,0,0,0,0,0,0,0,-1,566,533,0,0
-651,491,0,0,0,0,0,0,0,0,0,-1,573,533,0,0
-644,491,0,0,0,0,0,0,0,0,0,-1,580,533,0,0
-637,491,0,0,0,0,0,0,0,0,0,-1,587,533,0,0
-630,491,0,0,0,0,0,0,0,0,0,-1,594,533,0,0
-623,491,0,0,0,0,0,0,0,0,0,-1,601,533,0,0
-616,491,0,0,0,0,0,0,0,0,0,-1,608,533,0,0
-609,491,0,0,0,0,0,0,0,0,0,-1,615,533,0,0
-602,491,0,0,0,0,0,0,0,0,0,-1,622,533,0,0
-595,491,0,0,0,0,0,0,0,0,0,-1,629,533,0,0
-588,491,0,0,0,0,0,0,0,0,0,-1,636,533,0,0
-581,491,0,0,0,0,0,0,0,0,0,-1,643,533,0,0
-574,491,0,0,0,0,0,0,0,0,0,-1,650,533,0,0
-567,491,0,0,0,0,0,0,0,0,0,-1,657,533,0,0
-560,491,0,0,0,0,0,0,0,0,0,-1,664,533,0,0
-553,491,0,0,0,0,0,0,0,0,0,-1,671,533,0,0
-546,491,0,0,0,0,0,0,0,0,0,-1,678,533,0,0
-539,491,0,0,0,0,0,0,0,0,0,-1,685,533,0,0
-532,491,0,0,0,0,0,0,0,0,0,-1,692,533,0,0
-525,491,0,0,0,0,0,0,0,0,0,-1,699,533,0,0
-518,491,0,0,0,0,0,0,0,0,0,-1,706,533,0,0
-511,491,0,0,0,0,0,0,0,0,0,-1,713,533,0,0
-504,491,0,0,0,0,0,0,0,0,0,-1,720,533,0,0
-497,491,0,0,0,0,0,0,0,0,0,-1,727,533,0,0
-490,491,0,0,0,0,0,0,0,0,0,-1,734,533,0,0
-483,491,0,0,0,0,0,0,0,0,0,-1,741,533,0,0
-476,491,0,0,0,0,0,0,0,0,0,-1,748,533,0,0
-469,491,-4.83313,2.3125,0,0,0,0,0,0,0,-1,755,533,-4.83312,-2.3125
-462,491,-3.90533,0.759277,0,0,0,0,0,0,0,-1,762,533,-3.90533,-0.759296
-455,491,-3.05151,0.449829,0,0,0,0,0,0,0,-1,769,533,-3.05154,-0.449842
-448,491,-2.41095,0.844238,0,0,0,0,0,0,0,-1,776,533,-2.41097,-0.84423
-441,491,-1.60773,-0.22113,0,0,0,0,0,0,0,-1,783,533,-1.6077,0.221126
-434,491,-0.92334,-1.02521,0,0,0,0,0,0,0,-1,790,533,-0.923332,1.02522
-427,491,-0.645935,-3.27917,0,0,0,0,0,0,0,-1,797,533,-0.645962,3.27919
-420,491,-0.743958,-3.62274,0.0029418,0.0142664,-0.0073551,0.0178863,-0.000678089,-1.11344,0.0121565,0.0494601,804,533,-0.743981,3.62272
-413,491,-0.680542,-3.74585,0.00278636,0.0107866,-0.00513254,0.0132937,0.000279252,-1.11641,0.00877085,0.0371931,811,533,-0.680513,3.74583
-406,491,-0.58313,-3.88263,0.00243473,0.00818073,-0.00352923,0.00985851,0.000756947,-1.12703,0.00633512,0.0200457,818,533,-0.583145,3.88263
-399,491,-0.547729,-4.03778,0.00211398,0.00635323,-0.0025299,0.00753409,0.00093312,-1.13409,0.00474239,0.0109831,825,533,-0.54772,4.0378
-392,491,-0.558289,-4.20477,0.00189652,0.00491512,-0.00190779,0.00583844,0.000973203,-1.12005,0.00361187,0.00916624,832,533,-0.55826,4.20475
-385,491,-0.563354,-4.3728,0.00187518,0.00306787,-0.00126772,0.00387251,0.00107055,-1.00525,0.00230908,0.00914759,839,533,-0.563369,4.37282
-378,491,-0.563354,-4.54163,0.00190806,0.00198599,-0.00101052,0.0029583,0.000935756,-0.804668,0.00174597,0.0131036,846,533,-0.563336,4.54163
-371,491,-0.554321,-4.72388,0.00197835,0.000983383,-0.00100319,0.00260064,0.000361095,-0.555217,0.00162681,0.0136886,853,533,-0.554351,4.72387
-364,491,-0.555664,-4.92365,0.0020381,3.03412e-05,-0.000945802,0.00241346,-0.000345025,-0.37781,0.00173545,0.012695,860,533,-0.555687,4.92364
-357,491,-0.568176,-5.08447,0.0024231,-0.000929829,-0.00103398,0.00271631,-0.00122305,-0.276327,0.00232822,0.0110904,867,533,-0.568179,5.08446
-350,491,-0.57135,-5.23761,0.0028353,-0.00187501,-0.00114362,0.00309828,-0.00213799,-0.226024,0.00304006,0.0140693,874,533,-0.571371,5.23764
-343,491,-0.574402,-5.41663,0.00337307,-0.00291888,-0.00126762,0.00361885,-0.00316467,-0.191517,0.00391939,0.0232914,881,533,-0.574412,5.41661
-336,491,-0.561157,-5.59473,0.00400414,-0.00376565,-0.00135729,0.00423442,-0.00399593,-0.16806,0.00475246,0.023268,888,533,-0.561178,5.59473
-329,491,-0.543579,-5.76862,0.00464637,-0.00429368,-0.00150167,0.00489186,-0.00453918,-0.162048,0.00544628,0.0221178,895,533,-0.543596,5.76864
-322,491,-0.561218,-5.92841,0.00525315,-0.00472862,-0.00164538,0.00551738,-0.00499285,-0.159228,0.0060706,0.0201238,902,533,-0.561218,5.92843
-315,491,-0.594666,-6.04846,0.00583802,-0.00515967,-0.00190985,0.00616024,-0.0054819,-0.167142,0.00672539,0.0174826,909,533,-0.594678,6.04848
-308,491,-0.42804,-6.26215,0.00669587,-0.00534505,-0.00225376,0.00710389,-0.00575307,-0.179101,0.00743661,0.0367721,916,533,-0.428027,6.26216
-301,491,-0.482788,-6.82562,0,0,0,0,0,0,0,-1,923,533,-0.482794,6.82561
-294,491,-0.693909,-6.81995,0,0,0,0,0,0,0,-1,930,533,-0.693885,6.81993
-287,491,-0.696594,-7.26581,0,0,0,0,0,0,0,-1,937,533,-0.696582,7.26579
-280,491,0.2948,-5.99219,0,0,0,0,0,0,0,-1,944,533,0.294811,5.99221
-273,491,0.369995,-5.33691,0,0,0,0,0,0,0,-1,951,533,0.369985,5.33693
-266,491,1.1167,-5.0321,0,0,0,0,0,0,0,-1,958,533,1.11668,5.0321
-259,491,12.0862,-16.9615,0,0,0,0,0,0,0,-1,965,533,12.0862,16.9615
-252,491,9.72443,-13.8417,0,0,0,0,0,0,0,-1,972,533,9.72444,13.8418
-245,491,7.36926,-10.7169,0,0,0,0,0,0,0,-1,979,533,7.36924,10.7169
-238,491,4.84167,-7.53986,0,0,0,0,0,0,0,-1,986,533,4.84169,7.53984
-231,491,2.15582,-5.05225,0,0,0,0,0,0,0,-1,993,533,2.1558,5.05223
-224,491,-0.429749,-3.09216,0,0,0,0,0,0,0,-1,1000,533,-0.429743,3.09215
-217,491,-2.92743,-1.0766,0,0,0,0,0,0,0,-1,1007,533,-2.92743,1.07659
-210,491,-0.92395,0.374512,0,0,0,0,0,0,0,-1,1014,533,-0.923959,-0.374531
-203,491,0.417419,4.77161,0,0,0,0,0,0,0,-1,1021,533,0.417446,-4.77162
-196,491,0,0,0,0,0,0,0,0,0,-1,1028,533,0,0
-189,491,0,0,0,0,0,0,0,0,0,-1,1035,533,0,0
-182,491,0,0,0,0,0,0,0,0,0,-1,1042,533,0,0
-175,491,0,0,0,0,0,0,0,0,0,-1,1049,533,0,0
-168,491,0,0,0,0,0,0,0,0,0,-1,1056,533,0,0
-161,491,0,0,0,0,0,0,0,0,0,-1,1063,533,0,0
-154,491,0,0,0,0,0,0,0,0,0,-1,1070,533,0,0
-147,491,0,0,0,0,0,0,0,0,0,-1,1077,533,0,0
-140,491,0,0,0,0,0,0,0,0,0,-1,1084,533,0,0
-133,491,0,0,0,0,0,0,0,0,0,-1,1091,533,0,0
-126,491,0,0,0,0,0,0,0,0,0,-1,1098,533,0,0
-119,491,0,0,0,0,0,0,0,0,0,-1,1105,533,0,0
-112,491,0,0,0,0,0,0,0,0,0,-1,1112,533,0,0
-105,491,0,0,0,0,0,0,0,0,0,-1,1119,533,0,0
-98,491,0,0,0,0,0,0,0,0,0,-1,1126,533,0,0
-91,491,0,0,0,0,0,0,0,0,0,-1,1133,533,0,0
-84,491,0,0,0,0,0,0,0,0,0,-1,1140,533,0,0
-77,491,0,0,0,0,0,0,0,0,0,-1,1147,533,0,0
-70,491,0,0,0,0,0,0,0,0,0,-1,1154,533,0,0
-63,491,0,0,0,0,0,0,0,0,0,-1,1161,533,0,0
-56,491,0,0,0,0,0,0,0,0,0,-1,1168,533,0,0
-49,491,0,0,0,0,0,0,0,0,0,-1,1175,533,0,0
-42,491,0,0,0,0,0,0,0,0,0,-1,1182,533,0,0
-35,491,0,0,0,0,0,0,0,0,0,-1,1189,533,0,0
-28,491,0,0,0,0,0,0,0,0,0,-1,1196,533,0,0
-21,491,0,0,0,0,0,0,0,0,0,-1,1203,533,0,0
-14,491,0,0,0,0,0,0,0,0,0,-1,1210,533,0,0
-7,491,0,0,0,0,0,0,0,0,0,-1,1217,533,0,0
0,491,0,0,0,0,0,0,0,0,0,-1,1224,533,0,0
7,491,0,0,0,0,0,0,0,0,0,-1,1231,533,0,0
14,491,0,0,0,0,0,0,0,0,0,-1,1238,533,0,0
21,491,0,0,0,0,0,0,0,0,0,-1,1245,533,0,0
28,491,0,0,0,0,0,0,0,0,0,-1,1252,533,0,0
35,491,0,0,0,0,0,0,0,0,0,-1,1259,533,0,0
42,491,0,0,0,0,0,0,0,0,0,-1,1266,533,0,0
49,491,0,0,0,0,0,0,0,0,0,-1,1273,533,0,0
56,491,0,0,0,0,0,0,0,0,0,-1,1280,533,0,0
63,491,0,0,0,0,0,0,0,0,0,-1,1287,533,0,0
70,491,0,0,0,0,0,0,0,0,0,-1,1294,533,0,0
77,491,0,0,0,0,0,0,0,0,0,-1,1301,533,0,0
84,491,0,0,0,0,0,0,0,0,0,-1,1308,533,0,0
91,491,0,0,0,0,0,0,0,0,0,-1,1315,533,0,0
98,491,0,0,0,0,0,0,0,0,0,-1,1322,533,0,0
105,491,0,0,0,0,0,0,0,0,0,-1,1329,533,0,0
112,491,0,0,0,0,0,0,0,0,0,-1,1336,533,0,0
119,491,0,0,0,0,0,0,0,0,0,-1,1343,533,0,0
126,491,0,0,0,0,0,0,0,0,0,-1,1350,533,0,0
133,491,0,0,0,0,0,0,0,0,0,-1,1357,533,0,0
140,491,0,0,0,0,0,0,0,0,0,-1,1364,533,0,0
147,491,0,0,0,0,0,0,0,0,0,-1,1371,533,0,0
154,491,0,0,0,0,0,0,0,0,0,-1,1378,533,0,0
161,491,0,0,0,0,0,0,0,0,0,-1,1385,533,0,0
168,491,0,0,0,0,0,0,0,0,0,-1,1392,533,0,0
175,491,0,0,0,0,0,0,0,0,0,-1,1399,533,0,0
182,491,0,0,0,0,0,0,0,0,0,-1,1406,533,0,0
189,491,0,0,0,0,0,0,0,0,0,-1,1413,533,0,0
196,491,0,0,0,0,0,0,0,0,0,-1,1420,533,0,0
203,491,0,0,0,0,0,0,0,0,0,-1,1427,533,0,0
210,491,0,0,0,0,0,0,0,0,0,-1,1434,533,0,0
217,491,0,0,0,0,0,0,0,0,0,-1,1441,533,0,0
224,491,0,0,0,0,0,0,0,0,0,-1,1448,533,0,0
231,491,0,0,0,0,0,0,0,0,0,-1,1455,533,0,0
238,491,0,0,0,0,0,0,0,0,0,-1,1462,533,0,0
245,491,0,0,0,0,0,0,0,0,0,-1,1469,533,0,0
252,491,0,0,0,0,0,0,0,0,0,-1,1476,533,0,0
259,491,0,0,0,0,0,0,0,0,0,-1,1483,533,0,0
266,491,0,0,0,0,0,0,0,0,0,-1,1490,533,0,0
273,491,0,0,0,0,0,0,0,0,0,-1,1497,533,0,0
280,491,0,0,0,0,0,0,0,0,0,-1,1504,533,0,0
287,491,0,0,0,0,0,0,0,0,0,-1,1511,533,0,0
294,491,0,0,0,0,0,0,0,0,0,-1,1518,533,0,0
301,491,0,0,0,0,0,0,0,0,0,-1,1525,533,0,0
308,491,0,0,0,0,0,0,0,0,0,-1,1532,533,0,0
315,491,0,0,0,0,0,0,0,0,0,-1,1539,533,0,0
322,491,4.26331,-0.734314,0,0,0,0,0,0,0,-1,1546,533,4.26326,0.734324
329,491,4.25354,-0.783752,0,0,0,0,0,0,0,-1,1553,533,4.25359,0.783734
336,491,4.81604,-0.722107,0,0,0,0,0,0,0,-1,1560,533,4.81605,0.722115
343,491,6.14478,-1.44281,0,0,0,0,0,0,0,-1,1567,533,6.14474,1.44281
350,491,6.36353,-1.30792,0,0,0,0,0,0,0,-1,1574,533,6.36352,1.3079
357,491,6.69482,-1.06018,0,0,0,0,0,0,0,-1,1581,533,6.69489,1.06018
364,491,8.01086,-1.69604,0,0,0,0,0,0,0,-1,1588,533,8.01087,1.69607
371,491,8.2135,-0.539307,0,0,0,0,0,0,0,-1,1595,533,8.21348,0.53929
378,491,13.3868,1.12128,0,0,0,0,0,0,0,-1,1602,533,13.3869,-1.12126
385,491,8.08228,-4.95471,0,0,0,0,0,0,0,-1,1609,533,8.08227,4.95474
392,491,2.88721,-4.30988,0,0,0,0,0,0,0,-1,1616,533,2.88716,4.30986
399,491,7.08691,-4.86603,0,0,0,0,0,0,0,-1,1623,533,7.08696,4.86606
406,491,5.62842,-4.76996,0,0,0,0,0,0,0,-1,1630,533,5.62843,4.76998
413,491,5.31848,-3.7124,0,0,0,0,0,0,0,-1,1637,533,5.31849,3.7124
420,491,4.86389,-3.95892,0,0,0,0,0,0,0,-1,1644,533,4.86387,3.95893
427,491,5.30615,-5.2951,0,0,0,0,0,0,0,-1,1651,533,5.30616,5.29508
434,491,5.17139,-5.11475,-0.00474708,-0.00458613,-0.00681696,0.00215083,-0.011484,-0.7913,0.00846455,0.038031,1658,533,5.17144,5.11476
441,491,4.99695,-4.95502,-0.00415414,-0.00101367,-0.00520708,0.00285478,-0.00802259,-0.93184,0.00651203,0.0245056,1665,533,4.99696,4.95502
448,491,4.98193,-4.71722,-0.00336511,0.000995767,-0.00358042,0.00300743,-0.00537677,-1.0589,0.00490462,0.0127943,1672,533,4.98188,4.71724
455,491,4.96655,-4.53619,-0.00254379,0.00181017,-0.00225935,0.00277069,-0.00350431,-1.16882,0.00363112,0.0114323,1679,533,4.96656,4.53617
462,491,4.95581,-4.37079,-0.00186018,0.00239028,-0.0012724,0.00274207,-0.00221196,-1.30106,0.00286566,0.01477,1686,533,4.95581,4.37082
469,491,4.95508,-4.18591,-0.0011287,0.00215735,-0.000580783,0.00225697,-0.00122833,-1.40091,0.00204124,0.0140434,1693,533,4.95508,4.18593
476,491,4.98743,-3.9917,-0.000588358,0.00165619,-0.000281562,0.00169097,-0.000623139,-1.44789,0.00138265,0.0100121,1700,533,4.98747,3.99171
483,491,4.98853,-3.79163,-0.000237467,0.00116533,-7.92451e-05,0.00116979,-0.000241929,-1.51454,0.000871768,0.0111638,1707,533,4.9885,3.79165
490,491,4.99158,-3.63831,4.41357e-06,0.000649215,5.71117e-05,0.000654234,-6.05854e-07,1.48313,0.000436358,0.00998466,1714,533,4.99163,3.63831
497,491,4.99744,-3.45319,3.67908e-05,0.000190325,0.00010487,0.000243522,-1.64068e-05,1.10135,0.000168084,0.0113181,1721,533,4.99748,3.45321
504,491,4.99146,-3.23938,0.000120177,0.000135989,0.000408075,0.000536234,-0.000280069,0.795084,0.000478966,0.0125521,1728,533,4.99143,3.23941
511,491,4.99634,-3.02844,0.000478535,0.000549963,0.000955643,0.00147056,-0.000442061,0.804075,0.00115625,0.0115973,1735,533,4.99634,3.02846
518,491,4.98633,-2.85333,0.00134005,0.00131439,0.00194214,0.0032694,-0.000614967,0.782094,0.00241088,0.00949991,1742,533,4.98632,2.85334
525,491,4.9978,-2.65369,0.00226758,0.00246595,0.00303677,0.00540515,-0.000671618,0.801723,0.0038469,0.00918046,1749,533,4.99775,2.65369
532,491,4.98657,-2.44763,0.0039358,0.00436604,0.00476708,0.00892285,-0.000621004,0.807946,0.006166,0.0151959,1756,533,4.98651,2.44762
539,491,4.92065,-2.2854,0.00666369,0.00725586,0.00731533,0.0142811,-0.000361546,0.805624,0.0096435,0.0238336,1763,533,4.9206,2.28543
546,491,4.8927,-1.94666,0.0108302,0.0110351,0.0107237,0.0216568,0.000208471,0.790176,0.0143689,0.0371387,1770,533,4.89272,1.94666
553,491,5.23865,-1.34796,0.0171252,0.0158915,0.0155997,0.0321202,0.000896472,0.765638,0.021121,0.0465944,1777,533,5.23869,1.34797
560,491,5.54077,-0.664551,0,0,0,0,0,0,0,-1,1784,533,5.54078,0.664569
567,491,5.67651,-1.3562,0,0,0,0,0,0,0,-1,1791,533,5.67649,1.3562
574,491,8.0719,1.58325,0,0,0,0,0,0,0,-1,1798,533,8.07195,-1.58326
581,491,9.44812,1.60931,0,0,0,0,0,0,0,-1,1805,533,9.44808,-1.60933
588,491,11.0497,1.54962,0,0,0,0,0,0,0,-1,1812,533,11.0496,-1.54963
595,491,0,0,0,0,0,0,0,0,0,-1,1819,533,0,0
602,491,0,0,0,0,0,0,0,0,0,-1,1826,533,0,0
609,491,0,0,0,0,0,0,0,0,0,-1,1833,533,0,0
616,491,0,0,0,0,0,0,0,0,0,-1,1840,533,0,0
623,491,0,0,0,0,0,0,0,0,0,-1,1847,533,0,0
630,491,0,0,0,0,0,0,0,0,0,-1,1854,533,0,0
637,491,0,0,0,0,0,0,0,0,0,-1,1861,533,0,0
644,491,0,0,0,0,0,0,0,0,0,-1,1868,533,0,0
651,491,0,0,0,0,0,0,0,0,0,-1,1875,533,0,0
658,491,0,0,0,0,0,0,0,0,0,-1,1882,533,0,0
665,491,0,0,0,0,0,0,0,0,0,-1,1889,533,0,0
672,491,0,0,0,0,0,0,0,0,0,-1,1896,533,0,0
679,491,0,0,0,0,0,0,0,0,0,-1,1903,533,0,0
686,491,0,0,0,0,0,0,0,0,0,-1,1910,533,0,0
693,491,0,0,0,0,0,0,0,0,0,-1,1917,533,0,0
700,491,0,0,0,0,0,0,0,0,0,-1,1924,533,0,0
707,491,0,0,0,0,0,0,0,0,0,-1,1931,533,0,0
714,491,0,0,0,0,0,0,0,0,0,-1,1938,533,0,0
721,491,0,0,0,0,0,0,0,0,0,-1,1945,533,0,0
728,491,0,0,0,0,0,0,0,0,0,-1,1952,533,0,0
735,491,0,0,0,0,0,0,0,0,0,-1,1959,533,0,0
742,491,0,0,0,0,0,0,0,0,0,-1,1966,533,0,0
749,491,0,0,0,0,0,0,0,0,0,-1,1973,533,0,0
756,491,0,0,0,0,0,0,0,0,0,-1,1980,533,0,0
763,491,0,0,0,0,0,0,0,0,0,-1,1987,533,0,0
770,491,0,0,0,0,0,0,0,0,0,-1,1994,533,0,0
777,491,0,0,0,0,0,0,0,0,0,-1,2001,533,0,0
784,491,0,0,0,0,0,0,0,0,0,-1,2008,533,0,0
791,491,0,0,0,0,0,0,0,0,0,-1,2015,533,0,0
798,491,0,0,0,0,0,0,0,0,0,-1,2022,533,0,0
805,491,0,0,0,0,0,0,0,0,0,-1,2029,533,0,0
812,491,0,0,0,0,0,0,0,0,0,-1,2036,533,0,0
-700,484,0,0,0,0,0,0,0,0,0,-1,524,540,0,0
-693,484,0,0,0,0,0,0,0,0,0,-1,531,540,0,0
-686,484,0,0,0,0,0,0,0,0,0,-1,538,540,0,0
-679,484,0,0,0,0,0,0,0,0,0,-1,545,540,0,0
-672,484,0,0,0,0,0,0,0,0,0,-1,552,540,0,0
-665,484,0,0,0,0,0,0,0,0,0,-1,559,540,0,0
-658,484,0,0,0,0,0,0,0,0,0,-1,566,540,0,0
-651,484,0,0,0,0,0,0,0,0,0,-1,573,540,0,0
-644,484,0,0,0,0,0,0,0,0,0,-1,580,540,0,0
-637,484,0,0,0,0,0,0,0,0,0,-1,587,540,0,0
-630,484,0,0,0,0,0,0,0,0,0,-1,594,540,0,0
-623,484,0,0,0,0,0,0,0,0,0,-1,601,540,0,0
-616,484,0,0,0,0,0,0,0,0,0,-1,608,540,0,0
-609,484,0,0,0,0,0,0,0,0,0,-1,615,540,0,0
-602,484,0,0,0,0,0,0,0,0,0,-1,622,540,0,0
-595,484,0,0,0,0,0,0,0,0,0,-1,629,540,0,0
-588,484,0,0,0,0,0,0,0,0,0,-1,636,540,0,0
-581,484,0,0,0,0,0,0,0,0,0,-1,643,540,0,0
-574,484,0,0,0,0,0,0,0,0,0,-1,650,540,0,0
-567,484,0,0,0,0,0,0,0,0,0,-1,657,540,0,0
-560,484,0,0,0,0,0,0,0,0,0,-1,664,540,0,0
-553,484,0,0,0,0,0,0,0,0,0,-1,671,540,0,0
-546,484,0,0,0,0,0,0,0,0,0,-1,678,540,0,0
-539,484,0,0,0,0,0,0,0,0,0,-1,685,540,0,0
-532,484,0,0,0,0,0,0,0,0,0,-1,692,540,0,0
-525,484,0,0,0,0,0,0,0,0,0,-1,699,540,0,0
-518,484,0,0,0,0,0,0,0,0,0,-1,706,540,0,0
-511,484,0,0,0,0,0,0,0,0,0,-1,713,540,0,0
-504,484,0,0,0,0,0,0,0,0,0,-1,720,540,0,0
-497,484,0,0,0,0,0,0,0,0,0,-1,727,540,0,0
-490,484,0,0,0,0,0,0,0,0,0,-1,734,540,0,0
-483,484,0,0,0,0,0,0,0,0,0,-1,741,540,0,0
-476,484,-6.51776,4.0459,0,0,0,0,0,0,0,-1,748,540,-6.51775,-4.04591
-469,484,-5.76086,2.32959,0,0,0,0,0,0,0,-1,755,540,-5.76085,-2.32958
-462,484,-5.14319,0.793091,0,0,0,0,0,0,0,-1,762,540,-5.14318,-0.79308
-455,484,-3.80945,-0.918396,0,0,0,0,0,0,0,-1,769,540,-3.80946,0.918394
-448,484,-2.80865,-2.6153,0,0,0,0,0,0,0,-1,776,540,-2.80863,2.61532
-441,484,-0.410156,-0.296021,0,0,0,0,0,0,0,-1,783,540,-0.410177,0.296041
-434,484,-0.791992,-2.76593,0,0,0,0,0,0,0,-1,790,540,-0.791988,2.76594
-427,484,-0.766479,-3.04468,0.0014262,0.0163925,-0.00893474,0.0205638,-0.00274514,-1.134,0.0147099,0.043645,797,540,-0.766491,3.04469
-420,484,-0.71759,-3.47748,0.00150138,0.0119515,-0.00628801,0.014902,-0.00144915,-1.13206,0.0104513,0.0324942,804,540,-0.717574,3.47748
-413,484,-0.732483,-3.65912,0.00151636,0.00891807,-0.00434782,0.0109268,-0.00049241,-1.13799,0.00745412,0.019381,811,540,-0.732482,3.6591
-406,484,-0.714172,-3.85205,0.00152528,0.00658122,-0.00298253,0.00796299,0.000143501,-1.13695,0.00526148,0.0123889,818,540,-0.714193,3.85206
-399,484,-0.710999,-4.02631,0.00152461,0.00489959,-0.0021015,0.00590727,0.000516933,-1.12368,0.00377768,0.0155509,825,540,-0.710998,4.02632
-392,484,-0.728333,-4.19122,0.00158679,0.00351281,-0.00151996,0.00434915,0.000750444,-1.06777,0.00268448,0.0167245,832,540,-0.728357,4.19121
-385,484,-0.726746,-4.3689,0.00182905,0.00167679,-0.000910771,0.00266687,0.00083897,-0.7437,0.00157461,0.0122931,839,540,-0.726731,4.36891
-378,484,-0.737915,-4.55249,0.00210936,0.000515048,-0.000649971,0.00234075,0.000283651,-0.34202,0.00147507,0.014114,846,540,-0.737917,4.5525
-371,484,-0.729309,-4.72711,0.00239625,-0.000483874,-0.000702898,0.00255863,-0.000646261,-0.227043,0.00195707,0.0156045,853,540,-0.729339,4.72711
-364,484,-0.740417,-4.89008,0.00268289,-0.00152652,-0.000690842,0.00279337,-0.001637,-0.158579,0.00258675,0.0113325,860,540,-0.740408,4.89005
-357,484,-0.74762,-5.0614,0.0032747,-0.00263165,-0.000830588,0.00338928,-0.00274623,-0.137085,0.00354882,0.0118598,867,540,-0.74761,5.06138
-350,484,-0.747559,-5.23901,0.00391576,-0.00378898,-0.000993038,0.00404169,-0.00391491,-0.126141,0.00459394,0.014126,874,540,-0.747531,5.23903
-343,484,-0.765076,-5.41992,0.00470177,-0.00504655,-0.0011745,0.00484128,-0.00518606,-0.118228,0.00579043,0.021463,881,540,-0.765098,5.41994
-336,484,-0.706787,-5.57495,0.00554931,-0.00611011,-0.00136894,0.00570789,-0.00626868,-0.115321,0.0069172,0.025151,888,540,-0.706792,5.57492
-329,484,-0.725952,-5.74084,0.00643915,-0.00696664,-0.00164269,0.00663751,-0.00716499,-0.120168,0.00797082,0.0289367,895,540,-0.725954,5.74086
-322,484,-0.628357,-5.98053,0.00730743,-0.0077385,-0.00192148,0.00754894,-0.00798001,-0.125034,0.0089668,0.0331121,902,540,-0.628348,5.98051
-315,484,-0.541321,-6.16864,0,0,0,0,0,0,0,-1,909,540,-0.541315,6.16862
-308,484,-0.25061,-6.229,0,0,0,0,0,0,0,-1,916,540,-0.250628,6.22898
-301,484,-0.413025,-4.94653,0,0,0,0,0,0,0,-1,923,540,-0.413034,4.94656
-294,484,-0.860168,-6.3125,0,0,0,0,0,0,0,-1,930,540,-0.86019,6.31251
-287,484,-0.715759,-5.62103,0,0,0,0,0,0,0,-1,937,540,-0.715772,5.62105
-280,484,2.66742,-1.6795,0,0,0,0,0,0,0,-1,944,540,2.6674,1.67949
-273,484,2.53125,-2.22296,0,0,0,0,0,0,0,-1,951,540,2.53128,2.22295
-266,484,2.6778,-2.72058,0,0,0,0,0,0,0,-1,958,540,2.6778,2.72061
-259,484,2.41718,-2.59894,0,0,0,0,0,0,0,-1,965,540,2.41717,2.59892
-252,484,10.6069,-11.696,0,0,0,0,0,0,0,-1,972,540,10.6069,11.696
-245,484,8.0415,-9.22931,0,0,0,0,0,0,0,-1,979,540,8.0415,9.2293
-238,484,5.56836,-6.82672,0,0,0,0,0,0,0,-1,986,540,5.56834,6.82672
-231,484,3.39185,-3.8576,0,0,0,0,0,0,0,-1,993,540,3.39183,3.85763
-224,484,1.14313,-1.21228,0,0,0,0,0,0,0,-1,1000,540,1.14312,1.21226
-217,484,-0.745056,1.17358,0,0,0,0,0,0,0,-1,1007,540,-0.745043,-1.17359
-210,484,0,0,0,0,0,0,0,0,0,-1,1014,540,0,0
-203,484,0,0,0,0,0,0,0,0,0,-1,1021,540,0,0
-196,484,0,0,0,0,0,0,0,0,0,-1,1028,540,0,0
-189,484,0,0,0,0,0,0,0,0,0,-1,1035,540,0,0
-182,484,0,0,0,0,0,0,0,0,0,-1,1042,540,0,0
-175,484,0,0,0,0,0,0,0,0,0,-1,1049,540,0,0
-168,484,0,0,0,0,0,0,0,0,0,-1,1056,540,0,0
-161,484,0,0,0,0,0,0,0,0,0,-1,1063,540,0,0
-154,484,0,0,0,0,0,0,0,0,0,-1,1070,540,0,0
-147,484,0,0,0,0,0,0,0,0,0,-1,1077,540,0,0
-140,484,0,0,0,0,0,0,0,0,0,-1,1084,540,0,0
-133,484,0,0,0,0,0,0,0,0,0,-1,1091,540,0,0
-126,484,0,0,0,0,0,0,0,0,0,-1,1098,540,0,0
-119,484,0,0,0,0,0,0,0,0,0,-1,1105,540,0,0
-112,484,0,0,0,0,0,0,0,0,0,-1,1112,540,0,0
-105,484,0,0,0,0,0,0,0,0,0,-1,1119,540,0,0
-98,484,0,0,0,0,0,0,0,0,0,-1,1126,540,0,0
-91,484,0,0,0,0,0,0,0,0,0,-1,1133,540,0,0
-84,484,0,0,0,0,0,0,0,0,0,-1,1140,540,0,0
-77,484,0,0,0,0,0,0,0,0,0,-1,1147,540,0,0
-70,484,0,0,0,0,0,0,0,0,0,-1,1154,540,0,0
-63,484,0,0,0,0,0,0,0,0,0,-1,1161,540,0,0
-56,484,0,0,0,0,0,0,0,0,0,-1,1168,540,0,0
-49,484,0,0,0,0,0,0,0,0,0,-1,1175,540,0,0
-42,484,0,0,0,0,0,0,0,0,0,-1,1182,540,0,0
-35,484,0,0,0,0,0,0,0,0,0,-1,1189,540,0,0
-28,484,0,0,0,0,0,0,0,0,0,-1,1196,540,0,0
-21,484,0,0,0,0,0,0,0,0,0,-1,1203,540,0,0
-14,484,0,0,0,0,0,0,0,0,0,-1,1210,540,0,0
-7,484,0,0,0,0,0,0,0,0,0,-1,1217,540,0,0
0,484,0,0,0,0,0,0,0,0,0,-1,1224,540,0,0
7,484,0,0,0,0,0,0,0,0,0,-1,1231,540,0,0
14,484,0,0,0,0,0,0,0,0,0,-1,1238,540,0,0
21,484,0,0,0,0,0,0,0,0,0,-1,1245,540,0,0
28,484,0,0,0,0,0,0,0,0,0,-1,1252,540,0,0
35,484,0,0,0,0,0,0,0,0,0,-1,1259,540,0,0
42,484,0,0,0,0,0,0,0,0,0,-1,1266,540,0,0
49,484,0,0,0,0,0,0,0,0,0,-1,1273,540,0,0
56,484,0,0,0,0,0,0,0,0,0,-1,1280,540,0,0
63,484,0,0,0,0,0,0,0,0,0,-1,1287,540,0,0
70,484,0,0,0,0,0,0,0,0,0,-1,1294,540,0,0
77,484,0,0,0,0,0,0,0,0,0,-1,1301,540,0,0
84,484,0,0,0,0,0,0,0,0,0,-1,1308,540,0,0
91,484,0,0,0,0,0,0,0,0,0,-1,1315,540,0,0
98,484,0,0,0,0,0,0,0,0,0,-1,1322,540,0,0
105,484,0,0,0,0,0,0,0,0,0,-1,1329,540,0,0
112,484,0,0,0,0,0,0,0,0,0,-1,1336,540,0,0
119,484,0,0,0,0,0,0,0,0,0,-1,1343,540,0,0
126,484,0,0,0,0,0,0,0,0,0,-1,1350,540,0,0
133,484,0,0,0,0,0,0,0,0,0,-1,1357,540,0,0
140,484,0,0,0,0,0,0,0,0,0,-1,1364,540,0,0
147,484,0,0,0,0,0,0,0,0,0,-1,1371,540,0,0
154,484,0,0,0,0,0,0,0,0,0,-1,1378,540,0,0
161,484,0,0,0,0,0,0,0,0,0,-1,1385,540,0,0
168,484,0,0,0,0,0,0,0,0,0,-1,1392,540,0,0
175,484,0,0,0,0,0,0,0,0,0,-1,1399,540,0,0
182,484,0,0,0,0,0,0,0,0,0,-1,1406,540,0,0
189,484,0,0,0,0,0,0,0,0,0,-1,1413,540,0,0
196,484,0,0,0,0,0,0,0,0,0,-1,1420,540,0,0
203,484,0,0,0,0,0,0,0,0,0,-1,1427,540,0,0
210,484,0,0,0,0,0,0,0,0,0,-1,1434,540,0,0
217,484,0,0,0,0,0,0,0,0,0,-1,1441,540,0,0
224,484,0,0,0,0,0,0,0,0,0,-1,1448,540,0,0
231,484,0,0,0,0,0,0,0,0,0,-1,1455,540,0,0
238,484,0,0,0,0,0,0,0,0,0,-1,1462,540,0,0
245,484,0,0,0,0,0,0,0,0,0,-1,1469,540,0,0
252,484,0,0,0,0,0,0,0,0,0,-1,1476,540,0,0
259,484,0,0,0,0,0,0,0,0,0,-1,1483,540,0,0
266,484,0,0,0,0,0,0,0,0,0,-1,1490,540,0,0
273,484,0,0,0,0,0,0,0,0,0,-1,1497,540,0,0
280,484,0,0,0,0,0,0,0,0,0,-1,1504,540,0,0
287,484,0,0,0,0,0,0,0,0,0,-1,1511,540,0,0
294,484,0,0,0,0,0,0,0,0,0,-1,1518,540,0,0
301,484,0,0,0,0,0,0,0,0,0,-1,1525,540,0,0
308,484,0,0,0,0,0,0,0,0,0,-1,1532,540,0,0
315,484,0,0,0,0,0,0,0,0,0,-1,1539,540,0,0
322,484,0,0,0,0,0,0,0,0,0,-1,1546,540,0,0
329,484,0,0,0,0,0,0,0,0,0,-1,1553,540,0,0
336,484,4.38708,-1.64136,0,0,0,0,0,0,0,-1,1560,540,4.38704,1.64138
343,484,7.57996,-1.05457,0,0,0,0,0,0,0,-1,1567,540,7.57995,1.05454
350,484,8.10425,-1.18878,0,0,0,0,0,0,0,-1,1574,540,8.1043,1.18877
357,484,7.74902,-3.80286,0,0,0,0,0,0,0,-1,1581,540,7.74901,3.80287
364,484,6.31262,-3.87213,0,0,0,0,0,0,0,-1,1588,540,6.31263,3.87215
371,484,8.71362,0.452087,0,0,0,0,0,0,0,-1,1595,540,8.71363,-0.452062
378,484,11.5304,1.16388,0,0,0,0,0,0,0,-1,1602,540,11.5304,-1.16387
385,484,14.3472,1.87567,0,0,0,0,0,0,0,-1,1609,540,14.3471,-1.87567
392,484,7.39453,-4.95026,0,0,0,0,0,0,0,-1,1616,540,7.39448,4.95023
399,484,7.14417,-2.5639,0,0,0,0,0,0,0,-1,1623,540,7.14417,2.56391
406,484,7.88953,-2.47321,0,0,0,0,0,0,0,-1,1630,540,7.88954,2.47323
413,484,4.4895,-1.08673,0,0,0,0,0,0,0,-1,1637,540,4.48952,1.08674
420,484,4.50012,-2.11255,0,0,0,0,0,0,0,-1,1644,540,4.50012,2.11256
427,484,5.28601,-3.54053,0,0,0,0,0,0,0,-1,1651,540,5.28599,3.54051
434,484,5.55383,-5.09418,0,0,0,0,0,0,0,-1,1658,540,5.55389,5.0942
441,484,5.25244,-5.01532,0,0,0,0,0,0,0,-1,1665,540,5.25248,5.01533
448,484,5.14124,-4.72485,-0.00465016,0.0019843,-0.00426859,0.00407308,-0.00673893,-1.11572,0.00630525,0.0410596,1672,540,5.14119,4.72486
455,484,5.13159,-4.54712,-0.00356217,0.00290246,-0.00271742,0.00389296,-0.00455267,-1.22126,0.00488105,0.020175,1679,540,5.13158,4.54712
462,484,5.15039,-4.36896,-0.00254009,0.00337566,-0.00153739,0.00375134,-0.00291577,-1.33113,0.00385932,0.0146105,1686,540,5.15043,4.36895
469,484,5.17285,-4.18579,-0.00147168,0.00312298,-0.000697554,0.00322655,-0.00157524,-1.4234,0.00282643,0.0160835,1693,540,5.17286,4.1858
476,484,5.17151,-3.98248,-0.000661379,0.00253358,-0.000288814,0.00255948,-0.000687276,-1.48137,0.00197567,0.0146349,1700,540,5.17149,3.98251
483,484,5.1731,-3.80389,-0.000127187,0.00190882,-1.99149e-05,0.00190901,-0.000127382,-1.56102,0.00131719,0.0112648,1707,540,5.17309,3.80388
490,484,5.18262,-3.63599,0.0002625,0.00132052,0.000170225,0.00134723,0.000235787,1.41514,0.000830786,0.0113979,1714,540,5.18258,3.63601
497,484,5.18506,-3.44049,0.000366736,0.000771133,0.000232857,0.000877328,0.000260541,1.14292,0.000520259,0.013015,1721,540,5.1851,3.44051
504,484,5.19238,-3.22577,0.000432725,0.000572867,0.000470028,0.000978018,2.75739e-05,0.859393,0.000643018,0.0153191,1728,540,5.19239,3.22578
511,484,5.20264,-3.03381,0.000743708,0.000811859,0.00094818,0.00172658,-0.000171008,0.803359,0.00121208,0.0170519,1735,540,5.20263,3.0338
518,484,5.18835,-2.85803,0.00146455,0.00140659,0.00179538,0.00323119,-0.000360047,0.777327,0.00228362,0.0140371,1742,540,5.18831,2.858
525,484,5.18884,-2.651,0.0022279,0.00234829,0.00270694,0.0049957,-0.000419511,0.796515,0.00347875,0.0122102,1749,540,5.18888,2.65097
532,484,5.18066,-2.42664,0.00357385,0.00393401,0.00411921,0.00787708,-0.000369215,0.807243,0.00537868,0.0143198,1756,540,5.1807,2.42662
539,484,5.16809,-2.20654,0.00573103,0.00622959,0.00614452,0.0121299,-0.000169265,0.805672,0.0081436,0.0187651,1763,540,5.16815,2.20653
546,484,5.11755,-2.02606,0.00907659,0.00917577,0.00880491,0.0179312,0.000321133,0.788214,0.0118486,0.0208462,1770,540,5.11756,2.02605
553,484,5.16675,-1.74652,0.0141503,0.0127788,0.0127247,0.0262076,0.000721398,0.758479,0.0172363,0.0333856,1777,540,5.16675,1.74653
560,484,5.41211,-0.978333,0.0205176,0.0171428,0.0174251,0.0363369,0.0013236,0.73713,0.0237957,0.0443631,1784,540,5.41211,0.978356
567,484,6.80115,-0.903748,0,0,0,0,0,0,0,-1,1791,540,6.80112,0.903775
574,484,5.74463,1.50922,0,0,0,0,0,0,0,-1,1798,540,5.74463,-1.50924
581,484,10.34,2.9491,0,0,0,0,0,0,0,-1,1805,540,10.34,-2.94912
588,484,10.6669,2.88568,0,0,0,0,0,0,0,-1,1812,540,10.6669,-2.88567
595,484,10.7233,1.04767,0,0,0,0,0,0,0,-1,1819,540,10.7233,-1.04766
602,484,0,0,0,0,0,0,0,0,0,-1,1826,540,0,0
609,484,0,0,0,0,0,0,0,0,0,-1,1833,540,0,0
616,484,0,0,0,0,0,0,0,0,0,-1,1840,540,0,0
623,484,0,0,0,0,0,0,0,0,0,-1,1847,540,0,0
630,484,0,0,0,0,0,0,0,0,0,-1,1854,540,0,0
637,484,0,0,0,0,0,0,0,0,0,-1,1861,540,0,0
644,484,0,0,0,0,0,0,0,0,0,-1,1868,540,0,0
651,484,0,0,0,0,0,0,0,0,0,-1,1875,540,0,0
658,484,0,0,0,0,0,0,0,0,0,-1,1882,540,0,0
665,484,0,0,0,0,0,0,0,0,0,-1,1889,540,0,0
672,484,0,0,0,0,0,0,0,0,0,-1,1896,540,0,0
679,484,0,0,0,0,0,0,0,0,0,-1,1903,540,0,0
686,484,0,0,0,0,0,0,0,0,0,-1,1910,540,0,0
693,484,0,0,0,0,0,0,0,0,0,-1,1917,540,0,0
700,484,0,0,0,0,0,0,0,0,0,-1,1924,540,0,0
707,484,0,0,0,0,0,0,0,0,0,-1,1931,540,0,0
714,484,0,0,0,0,0,0,0,0,0,-1,1938,540,0,0
721,484,0,0,0,0,0,0,0,0,0,-1,1945,540,0,0
728,484,0,0,0,0,0,0,0,0,0,-1,1952,540,0,0
735,484,0,0,0,0,0,0,0,0,0,-1,1959,540,0,0
742,484,0,0,0,0,0,0,0,0,0,-1,1966,540,0,0
749,484,0,0,0,0,0,0,0,0,0,-1,1973,540,0,0
756,484,0,0,0,0,0,0,0,0,0,-1,1980,540,0,0
763,484,0,0,0,0,0,0,0,0,0,-1,1987,540,0,0
770,484,0,0,0,0,0,0,0,0,0,-1,1994,540,0,0
777,484,0,0,0,0,0,0,0,0,0,-1,2001,540,0,0
784,484,0,0,0,0,0,0,0,0,0,-1,2008,540,0,0
791,484,0,0,0,0,0,0,0,0,0,-1,2015,540,0,0
798,484,0,0,0,0,0,0,0,0,0,-1,2022,540,0,0
805,484,0,0,0,0,0,0,0,0,0,-1,2029,540,0,0
812,484,0,0,0,0,0,0,0,0,0,-1,2036,540,0,0
-700,477,0,0,0,0,0,0,0,0,0,-1,524,547,0,0
-693,477,0,0,0,0,0,0,0,0,0,-1,531,547,0,0
-686,477,0,0,0,0,0,0,0,0,0,-1,538,547,0,0
-679,477,0,0,0,0,0,0,0,0,0,-1,545,547,0,0
-672,477,0,0,0,0,0,0,0,0,0,-1,552,547,0,0
-665,477,0,0,0,0,0,0,0,0,0,-1,559,547,0,0
-658,477,0,0,0,0,0,0,0,0,0,-1,566,547,0,0
-651,477,0,0,0,0,0,0,0,0,0,-1,573,547,0,0
-644,477,0,0,0,0,0,0,0,0,0,-1,580,547,0,0
-637,477,0,0,0,0,0,0,0,0,0,-1,587,547,0,0
-630,477,0,0,0,0,0,0,0,0,0,-1,594,547,0,0
-623,477,0,0,0,0,0,0,0,0,0,-1,601,547,0,0
-616,477,0,0,0,0,0,0,0,0,0,-1,608,547,0,0
-609,477,0,0,0,0,0,0,0,0,0,-1,615,547,0,0
-602,477,0,0,0,0,0,0,0,0,0,-1,622,547,0,0
-595,477,0,0,0,0,0,0,0,0,0,-1,629,547,0,0
-588,477,0,0,0,0,0,0,0,0,0,-1,636,547,0,0
-581,477,0,0,0,0,0,0,0,0,0,-1,643,547,0,0
-574,477,0,0,0,0,0,0,0,0,0,-1,650,547,0,0
-567,477,0,0,0,0,0,0,0,0,0,-1,657,547,0,0
-560,477,0,0,0,0,0,0,0,0,0,-1,664,547,0,0
-553,477,0,0,0,0,0,0,0,0,0,-1,671,547,0,0
-546,477,0,0,0,0,0,0,0,0,0,-1,678,547,0,0
-539,477,0,0,0,0,0,0,0,0,0,-1,685,547,0,0
-532,477,0,0,0,0,0,0,0,0,0,-1,692,547,0,0
-525,477,0,0,0,0,0,0,0,0,0,-1,699,547,0,0
-518,477,0,0,0,0,0,0,0,0,0,-1,706,547,0,0
-511,477,0,0,0,0,0,0,0,0,0,-1,713,547,0,0
-504,477,0,0,0,0,0,0,0,0,0,-1,720,547,0,0
-497,477,0,0,0,0,0,0,0,0,0,-1,727,547,0,0
-490,477,0,0,0,0,0,0,0,0,0,-1,734,547,0,0
-483,477,-8.76355,6.08942,0,0,0,0,0,0,0,-1,741,547,-8.76358,-6.08941
-476,477,-7.86566,4.09344,0,0,0,0,0,0,0,-1,748,547,-7.86566,-4.09347
-469,477,-7.16235,2.12115,0,0,0,0,0,0,0,-1,755,547,-7.16236,-2.12115
-462,477,-5.98352,0.0916748,0,0,0,0,0,0,0,-1,762,547,-5.98351,-0.0916873
-455,477,-4.73602,-2.01068,0,0,0,0,0,0,0,-1,769,547,-4.736,2.01071
-448,477,-0.333435,-1.112,0,0,0,0,0,0,0,-1,776,547,-0.33345,1.112
-441,477,-0.575623,-1.67853,0.000155954,0.025071,-0.0135447,0.0310159,-0.0057889,-1.1572,0.0228526,0.0499381,783,547,-0.575623,1.67851
-434,477,-0.79303,-2.91913,0.000280938,0.0185519,-0.0100767,0.0230177,-0.00418494,-1.15362,0.0169136,0.0416038,790,547,-0.793031,2.91913
-427,477,-0.85022,-3.29822,0.000509513,0.0136041,-0.00736815,0.0169136,-0.00280001,-1.14864,0.0123156,0.0212916,797,547,-0.850197,3.29823
-420,477,-0.903076,-3.42346,0.000584089,0.0098305,-0.00520807,0.0121713,-0.00175676,-1.14839,0.00875874,0.017659,804,547,-0.9031,3.42348
-413,477,-0.903503,-3.62775,0.00079202,0.00720381,-0.00361869,0.00883245,-0.000836619,-1.14789,0.00618606,0.0151057,811,547,-0.903481,3.62774
-406,477,-0.911499,-3.81366,0.00108723,0.00517487,-0.00250446,0.00636362,-0.000101525,-1.12763,0.00427666,0.01074,818,547,-0.911483,3.81364
-399,477,-0.892395,-4.02118,0.00133533,0.00363077,-0.00175359,0.00457884,0.000387253,-1.07516,0.00293201,0.0172984,825,547,-0.892414,4.02116
-392,477,-0.915161,-4.20575,0.00162766,0.00228638,-0.0012188,0.00321954,0.000694502,-0.917363,0.00195639,0.0171065,832,547,-0.915149,4.20574
-385,477,-0.893372,-4.35175,0.0020961,0.000468675,-0.000652316,0.00232529,0.000239486,-0.337874,0.00147685,0.0142801,839,547,-0.893389,4.35176
-378,477,-0.886047,-4.5387,0.00259882,-0.000826573,-0.000378935,0.00264024,-0.000867992,-0.108872,0.00210987,0.0132629,846,547,-0.886021,4.53873
-371,477,-0.902039,-4.70483,0.00309682,-0.00188616,-0.000470282,0.00314082,-0.00193016,-0.09328,0.00295541,0.0135652,853,547,-0.902018,4.70486
-364,477,-0.914368,-4.88391,0.00361291,-0.00310121,-0.000477633,0.00364672,-0.00313502,-0.0706643,0.00391915,0.0135796,860,547,-0.914341,4.88391
-357,477,-0.919617,-5.06897,0.00441177,-0.0044538,-0.000628432,0.00445609,-0.00449813,-0.0704153,0.00516974,0.0105365,867,547,-0.919588,5.06894
-350,477,-0.916077,-5.24255,0.00528113,-0.00594406,-0.00079858,0.00533766,-0.00600059,-0.0706674,0.00654987,0.00977043,874,547,-0.916077,5.24257
-343,477,-0.900513,-5.42804,0.00631271,-0.00756187,-0.000985514,0.00638236,-0.00763152,-0.0705581,0.00810162,0.0181746,881,547,-0.900516,5.42803
-336,477,-0.827271,-5.59979,0.00738547,-0.00902015,-0.00122697,0.00747672,-0.00911141,-0.0742393,0.00959265,0.0256241,888,547,-0.82729,5.59979
-329,477,-0.76532,-5.87689,0.00854124,-0.0104008,-0.00158516,0.00867298,-0.0105325,-0.0829162,0.0111056,0.0446841,895,547,-0.765342,5.87687
-322,477,-0.994934,-5.8548,0.00970388,-0.0117167,-0.0019822,0.00988577,-0.0118985,-0.0915021,0.0125951,0.0485946,902,547,-0.994923,5.85481
-315,477,-1.26794,-5.80408,0,0,0,0,0,0,0,-1,909,547,-1.26795,5.80405
-308,477,-1.20197,-5.65668,0,0,0,0,0,0,0,-1,916,547,-1.20199,5.65668
-301,477,-1.21185,-6.28351,0,0,0,0,0,0,0,-1,923,547,-1.21184,6.28352
-294,477,-0.352905,3.27142,0,0,0,0,0,0,0,-1,930,547,-0.35292,-3.27144
-287,477,3.54364,2.15399,0,0,0,0,0,0,0,-1,937,547,3.54362,-2.15396
-280,477,1.97308,-0.954163,0,0,0,0,0,0,0,-1,944,547,1.9731,0.954178
-273,477,2.11621,-3.76709,0,0,0,0,0,0,0,-1,951,547,2.11619,3.76706
-266,477,2.04669,-3.42389,0,0,0,0,0,0,0,-1,958,547,2.04671,3.42391
-259,477,-1.33478,-3.41205,0,0,0,0,0,0,0,-1,965,547,-1.3348,3.41206
-252,477,0.597168,-5.32922,0,0,0,0,0,0,0,-1,972,547,0.597144,5.32924
-245,477,2.27161,-7.02875,0,0,0,0,0,0,0,-1,979,547,2.27158,7.02873
-238,477,7.29095,-4.50336,0,0,0,0,0,0,0,-1,986,547,7.29093,4.50335
-231,477,4.88141,-2.23413,0,0,0,0,0,0,0,-1,993,547,4.88143,2.23413
-224,477,0,0,0,0,0,0,0,0,0,-1,1000,547,0,0
-217,477,0,0,0,0,0,0,0,0,0,-1,1007,547,0,0
-210,477,0,0,0,0,0,0,0,0,0,-1,1014,547,0,0
-203,477,0,0,0,0,0,0,0,0,0,-1,1021,547,0,0
-196,477,0,0,0,0,0,0,0,0,0,-1,1028,547,0,0
-189,477,0,0,0,0,0,0,0,0,0,-1,1035,547,0,0
-182,477,0,0,0,0,0,0,0,0,0,-1,1042,547,0,0
-175,477,0,0,0,0,0,0,0,0,0,-1,1049,547,0,0
-168,477,0,0,0,0,0,0,0,0,0,-1,1056,547,0,0
-161,477,0,0,0,0,0,0,0,0,0,-1,1063,547,0,0
-154,477,0,0,0,0,0,0,0,0,0,-1,1070,547,0,0
-147,477,0,0,0,0,0,0,0,0,0,-1,1077,547,0,0
-140,477,0,0,0,0,0,0,0,0,0,-1,1084,547,0,0
-133,477,0,0,0,0,0,0,0,0,0,-1,1091,547,0,0
-126,477,0,0,0,0,0,0,0,0,0,-1,1098,547,0,0
-119,477,0,0,0,0,0,0,0,0,0,-1,1105,547,0,0
-112,477,0,0,0,0,0,0,0,0,0,-1,1112,547,0,0
-105,477,0,0,0,0,0,0,0,0,0,-1,1119,547,0,0
-98,477,0,0,0,0,0,0,0,0,0,-1,1126,547,0,0
-91,477,0,0,0,0,0,0,0,0,0,-1,1133,547,0,0
-84,477,0,0,0,0,0,0,0,0,0,-1,1140,547,0,0
-77,477,0,0,0,0,0,0,0,0,0,-1,1147,547,0,0
-70,477,0,0,0,0,0,0,0,0,0,-1,1154,547,0,0
-63,477,0,0,0,0,0,0,0,0,0,-1,1161,547,0,0
-56,477,0,0,0,0,0,0,0,0,0,-1,1168,547,0,0
-49,477,0,0,0,0,0,0,0,0,0,-1,1175,547,0,0
-42,477,0,0,0,0,0,0,0,0,0,-1,1182,547,0,0
-35,477,0,0,0,0,0,0,0,0,0,-1,1189,547,0,0
-28,477,0,0,0,0,0,0,0,0,0,-1,1196,547,0,0
-21,477,0,0,0,0,0,0,0,0,0,-1,1203,547,0,0
-14,477,0,0,0,0,0,0,0,0,0,-1,1210,547,0,0
-7,477,0,0,0,0,0,0,0,0,0,-1,1217,547,0,0
0,477,0,0,0,0,0,0,0,0,0,-1,1224,547,0,0
7,477,0,0,0,0,0,0,0,0,0,-1,1231,547,0,0
14,477,0,0,0,0,0,0,0,0,0,-1,1238,547,0,0
21,477,0,0,0,0,0,0,0,0,0,-1,1245,547,0,0
28,477,0,0,0,0,0,0,0,0,0,-1,1252,547,0,0
35,477,0,0,0,0,0,0,0,0,0,-1,1259,547,0,0
42,477,0,0,0,0,0,0,0,0,0,-1,1266,547,0,0
49,477,0,0,0,0,0,0,0,0,0,-1,1273,547,0,0
56,477,0,0,0,0,0,0,0,0,0,-1,1280,547,0,0
63,477,0,0,0,0,0,0,0,0,0,-1,1287,547,0,0
70,477,0,0,0,0,0,0,0,0,0,-1,1294,547,0,0
77,477,0,0,0,0,0,0,0,0,0,-1,1301,547,0,0
84,477,0,0,0,0,0,0,0,0,0,-1,1308,547,0,0
91,477,0,0,0,0,0,0,0,0,0,-1,1315,547,0,0
98,477,0,0,0,0,0,0,0,0,0,-1,1322,547,0,0
105,477,0,0,0,0,0,0,0,0,0,-1,1329,547,0,0
112,477,0,0,0,0,0,0,0,0,0,-1,1336,547,0,0
119,477,0,0,0,0,0,0,0,0,0,-1,1343,547,0,0
126,477,0,0,0,0,0,0,0,0,0,-1,1350,547,0,0
133,477,0,0,0,0,0,0,0,0,0,-1,1357,547,0,0
140,477,0,0,0,0,0,0,0,0,0,-1,1364,547,0,0
147,477,0,0,0,0,0,0,0,0,0,-1,1371,547,0,0
154,477,0,0,0,0,0,0,0,0,0,-1,1378,547,0,0
161,477,0,0,0,0,0,0,0,0,0,-1,1385,547,0,0
168,477,0,0,0,0,0,0,0,0,0,-1,1392,547,0,0
175,477,0,0,0,0,0,0,0,0,0,-1,1399,547,0,0
182,477,0,0,0,0,0,0,0,0,0,-1,1406,547,0,0
189,477,0,0,0,0,0,0,0,0,0,-1,1413,547,0,0
196,477,0,0,0,0,0,0,0,0,0,-1,1420,547,0,0
203,477,0,0,0,0,0,0,0,0,0,-1,1427,547,0,0
210,477,0,0,0,0,0,0,0,0,0,-1,1434,547,0,0
217,477,0,0,0,0,0,0,0,0,0,-1,1441,547,0,0
224,477,0,0,0,0,0,0,0,0,0,-1,1448,547,0,0
231,477,0,0,0,0,0,0,0,0,0,-1,1455,547,0,0
238,477,0,0,0,0,0,0,0,0,0,-1,1462,547,0,0
245,477,0,0,0,0,0,0,0,0,0,-1,1469,547,0,0
252,477,0,0,0,0,0,0,0,0,0,-1,1476,547,0,0
259,477,0,0,0,0,0,0,0,0,0,-1,1483,547,0,0
266,477,0,0,0,0,0,0,0,0,0,-1,1490,547,0,0
273,477,0,0,0,0,0,0,0,0,0,-1,1497,547,0,0
280,477,0,0,0,0,0,0,0,0,0,-1,1504,547,0,0
287,477,0,0,0,0,0,0,0,0,0,-1,1511,547,0,0
294,477,0,0,0,0,0,0,0,0,0,-1,1518,547,0,0
301,477,0,0,0,0,0,0,0,0,0,-1,1525,547,0,0
308,477,0,0,0,0,0,0,0,0,0,-1,1532,547,0,0
315,477,0,0,0,0,0,0,0,0,0,-1,1539,547,0,0
322,477,0,0,0,0,0,0,0,0,0,-1,1546,547,0,0
329,477,0,0,0,0,0,0,0,0,0,-1,1553,547,0,0
336,477,0,0,0,0,0,0,0,0,0,-1,1560,547,0,0
343,477,0,0,0,0,0,0,0,0,0,-1,1567,547,0,0
350,477,1.7699,-3.32275,0,0,0,0,0,0,0,-1,1574,547,1.7699,3.32272
357,477,3.073,-4.83313,0,0,0,0,0,0,0,-1,1581,547,3.07303,4.83316
364,477,4.30127,-4.22864,0,0,0,0,0,0,0,-1,1588,547,4.30125,4.22865
371,477,6.76746,0.428284,0,0,0,0,0,0,0,-1,1595,547,6.76748,-0.428313
378,477,9.70935,0.88385,0,0,0,0,0,0,0,-1,1602,547,9.7093,-0.883864
385,477,12.6511,1.33942,0,0,0,0,0,0,0,-1,1609,547,12.6511,-1.33941
392,477,11.9564,1.24927,0,0,0,0,0,0,0,-1,1616,547,11.9564,-1.24924
399,477,8.00037,-2.29523,0,0,0,0,0,0,0,-1,1623,547,8.00031,2.2952
406,477,4.82495,2.7475,0,0,0,0,0,0,0,-1,1630,547,4.825,-2.74752
413,477,4.88171,-0.336426,0,0,0,0,0,0,0,-1,1637,547,4.88169,0.336398
420,477,3.34875,0.102722,0,0,0,0,0,0,0,-1,1644,547,3.34871,-0.1027
427,477,1.66772,-0.373108,0,0,0,0,0,0,0,-1,1651,547,1.66768,0.373104
434,477,3.76978,-2.30798,0,0,0,0,0,0,0,-1,1658,547,3.76974,2.30801
441,477,4.05444,-2.80402,0,0,0,0,0,0,0,-1,1665,547,4.05444,2.804
448,477,5.60071,-4.70233,0,0,0,0,0,0,0,-1,1672,547,5.60068,4.70234
455,477,5.49915,-4.61578,-0.00472529,0.00408781,-0.00320073,0.00512758,-0.00576505,-1.2567,0.00629245,0.0489172,1679,547,5.49916,4.61581
462,477,5.38708,-4.46277,-0.00327664,0.00436173,-0.00179391,0.00476206,-0.00367697,-1.35123,0.00488568,0.0349313,1686,547,5.38705,4.46277
469,477,5.3772,-4.17932,-0.00182847,0.00407887,-0.000795429,0.0041841,-0.0019337,-1.43927,0.00361089,0.0207583,1693,547,5.37726,4.17933
476,477,5.36023,-4.00171,-0.000712457,0.00343326,-0.000236133,0.00344666,-0.000725863,-1.51408,0.00257407,0.0155822,1700,547,5.36028,4.00169
483,477,5.36108,-3.815,2.69524e-05,0.00270408,0.000119675,0.00270942,2.16133e-05,1.52621,0.00179912,0.0105325,1707,547,5.36113,3.815
490,477,5.3656,-3.61749,0.000570733,0.00208643,0.000366349,0.00217033,0.00048683,1.34565,0.001315,0.0107499,1714,547,5.36561,3.61748
497,477,5.36633,-3.40326,0.000746135,0.00147688,0.000440956,0.00168417,0.000538848,1.13136,0.000993147,0.0128191,1721,547,5.36637,3.40324
504,477,5.37683,-3.20807,0.000786422,0.00112869,0.000584035,0.00156615,0.000348965,0.92792,0.000949402,0.018262,1728,547,5.37683,3.2081
511,477,5.41577,-3.04834,0.00102773,0.00115653,0.000953325,0.00204763,0.000136635,0.819123,0.0013219,0.0217741,1735,547,5.41577,3.04835
518,477,5.41284,-2.85358,0.00157809,0.00154516,0.00160774,0.00316945,-4.61965e-05,0.780277,0.00212853,0.0181625,1742,547,5.41287,2.85356
525,477,5.38928,-2.63184,0.00218668,0.00224621,0.00231699,0.00453363,-0.00010074,0.79182,0.00305655,0.0156381,1749,547,5.38934,2.63185
532,477,5.36682,-2.42877,0.00323121,0.00347811,0.00340386,0.00676075,-5.14349e-05,0.803524,0.00452441,0.0183222,1756,547,5.36678,2.4288
539,477,5.36169,-2.19653,0.00488084,0.00520854,0.00494144,0.00998885,0.000100533,0.801971,0.00662597,0.0157783,1763,547,5.36172,2.19655
546,477,5.37476,-2.02728,0.00754309,0.00740475,0.00694318,0.0144174,0.000530392,0.780417,0.0094398,0.0179339,1770,547,5.3747,2.0273
553,477,5.36267,-1.80127,0.0116793,0.009992,0.010029,0.0209,0.000771233,0.743437,0.0136835,0.0173856,1777,547,5.36261,1.80126
560,477,5.35498,-1.49689,0.016677,0.0130356,0.0135587,0.0285367,0.00117587,0.718656,0.0186448,0.0333557,1784,547,5.355,1.4969
567,477,6.21814,-1.12201,0.0238665,0.0163012,0.0181519,0.0386257,0.00154202,0.682674,0.0252521,0.0469537,1791,547,6.21817,1.12202
574,477,6.51013,-0.639221,0,0,0,0,0,0,0,-1,1798,547,6.51008,0.639219
581,477,9.29321,-0.557007,0,0,0,0,0,0,0,-1,1805,547,9.29324,0.55703
588,477,9.75195,0.422729,0,0,0,0,0,0,0,-1,1812,547,9.75198,-0.42273
595,477,9.89172,1.21326,0,0,0,0,0,0,0,-1,1819,547,9.89174,-1.21328
602,477,6.5271,-0.964417,0,0,0,0,0,0,0,-1,1826,547,6.52706,0.964427
609,477,0,0,0,0,0,0,0,0,0,-1,1833,547,0,0
616,477,0,0,0,0,0,0,0,0,0,-1,1840,547,0,0
623,477,0,0,0,0,0,0,0,0,0,-1,1847,547,0,0
630,477,0,0,0,0,0,0,0,0,0,-1,1854,547,0,0
637,477,0,0,0,0,0,0,0,0,0,-1,1861,547,0,0
644,477,0,0,0,0,0,0,0,0,0,-1,1868,547,0,0
651,477,0,0,0,0,0,0,0,0,0,-1,1875,547,0,0
658,477,0,0,0,0,0,0,0,0,0,-1,1882,547,0,0
665,477,0,0,0,0,0,0,0,0,0,-1,1889,547,0,0
672,477,0,0,0,0,0,0,0,0,0,-1,1896,547,0,0
679,477,0,0,0,0,0,0,0,0,0,-1,1903,547,0,0
686,477,0,0,0,0,0,0,0,0,0,-1,1910,547,0,0
693,477,0,0,0,0,0,0,0,0,0,-1,1917,547,0,0
700,477,0,0,0,0,0,0,0,0,0,-1,1924,547,0,0
707,477,0,0,0,0,0,0,0,0,0,-1,1931,547,0,0
714,477,0,0,0,0,0,0,0,0,0,-1,1938,547,0,0
721,477,0,0,0,0,0,0,0,0,0,-1,1945,547,0,0
728,477,0,0,0,0,0,0,0,0,0,-1,1952,547,0,0
735,477,0,0,0,0,0,0,0,0,0,-1,1959,547,0,0
742,477,0,0,0,0,0,0,0,0,0,-1,1966,547,0,0
749,477,0,0,0,0,0,0,0,0,0,-1,1973,547,0,0
756,477,0,0,0,0,0,0,0,0,0,-1,1980,547,0,0
763,477,0,0,0,0,0,0,0,0,0,-1,1987,547,0,0
770,477,0,0,0,0,0,0,0,0,0,-1,1994,547,0,0
777,477,0,0,0,0,0,0,0,0,0,-1,2001,547,0,0
784,477,0,0,0,0,0,0,0,0,0,-1,2008,547,0,0
791,477,0,0,0,0,0,0,0,0,0,-1,2015,547,0,0
798,477,0,0,0,0,0,0,0,0,0,-1,2022,547,0,0
805,477,0,0,0,0,0,0,0,0,0,-1,2029,547,0,0
812,477,0,0,0,0,0,0,0,0,0,-1,2036,547,0,0
-700,470,0,0,0,0,0,0,0,0,0,-1,524,554,0,0
-693,470,0,0,0,0,0,0,0,0,0,-1,531,554,0,0
-686,470,0,0,0,0,0,0,0,0,0,-1,538,554,0,0
-679,470,0,0,0,0,0,0,0,0,0,-1,545,554,0,0
-672,470,0,0,0,0,0,0,0,0,0,-1,552,554,0,0
-665,470,0,0,0,0,0,0,0,0,0,-1,559,554,0,0
-658,470,0,0,0,0,0,0,0,0,0,-1,566,554,0,0
-651,470,0,0,0,0,0,0,0,0,0,-1,573,554,0,0
-644,470,0,0,0,0,0,0,0,0,0,-1,580,554,0,0
-637,470,0,0,0,0,0,0,0,0,0,-1,587,554,0,0
-630,470,0,0,0,0,0,0,0,0,0,-1,594,554,0,0
-623,470,0,0,0,0,0,0,0,0,0,-1,601,554,0,0
-616,470,0,0,0,0,0,0,0,0,0,-1,608,554,0,0
-609,470,0,0,0,0,0,0,0,0,0,-1,615,554,0,0
-602,470,0,0,0,0,0,0,0,0,0,-1,622,554,0,0
-595,470,0,0,0,0,0,0,0,0,0,-1,629,554,0,0
-588,470,0,0,0,0,0,0,0,0,0,-1,636,554,0,0
-581,470,0,0,0,0,0,0,0,0,0,-1,643,554,0,0
-574,470,0,0,0,0,0,0,0,0,0,-1,650,554,0,0
-567,470,0,0,0,0,0,0,0,0,0,-1,657,554,0,0
-560,470,0,0,0,0,0,0,0,0,0,-1,664,554,0,0
-553,470,0,0,0,0,0,0,0,0,0,-1,671,554,0,0
-546,470,0,0,0,0,0,0,0,0,0,-1,678,554,0,0
-539,470,0,0,0,0,0,0,0,0,0,-1,685,554,0,0
-532,470,0,0,0,0,0,0,0,0,0,-1,692,554,0,0
-525,470,0,0,0,0,0,0,0,0,0,-1,699,554,0,0
-518,470,0,0,0,0,0,0,0,0,0,-1,706,554,0,0
-511,470,0,0,0,0,0,0,0,0,0,-1,713,554,0,0
-504,470,0,0,0,0,0,0,0,0,0,-1,720,554,0,0
-497,470,0,0,0,0,0,0,0,0,0,-1,727,554,0,0
-490,470,-10.6171,7.71643,0,0,0,0,0,0,0,-1,734,554,-10.6171,-7.71643
-483,470,-9.90387,5.77734,0,0,0,0,0,0,0,-1,741,554,-9.9039,-5.77735
-476,470,-8.96185,3.76733,0,0,0,0,0,0,0,-1,748,554,-8.96183,-3.76731
-469,470,-7.83228,1.96271,0,0,0,0,0,0,0,-1,755,554,-7.83227,-1.96272
-462,470,-6.82385,-0.60968,0,0,0,0,0,0,0,-1,762,554,-6.82385,0.609705
-455,470,-5.36963,-3.09192,0,0,0,0,0,0,0,-1,769,554,-5.36963,3.0919
-448,470,-0.655579,-2.40509,0,0,0,0,0,0,0,-1,776,554,-0.655591,2.40507
-441,470,-0.775513,-2.73212,-1.18376e-05,0.0199372,-0.0104481,0.0244076,-0.00448217,-1.16651,0.0179533,0.0432457,783,554,-0.775513,2.73213
-434,470,-0.967529,-3.1192,-6.96934e-05,0.0150091,-0.00792552,0.0184085,-0.00346905,-1.16562,0.0135772,0.0232403,790,554,-0.967522,3.11918
-427,470,-1.06989,-3.27881,5.18469e-05,0.0110679,-0.00587692,0.0136145,-0.00249473,-1.1619,0.010012,0.011959,797,554,-1.06986,3.27883
-420,470,-1.05157,-3.4538,8.9049e-05,0.00795928,-0.00412037,0.00972176,-0.00167343,-1.1666,0.00710498,0.0123308,804,554,-1.0516,3.45382
-413,470,-1.05914,-3.63599,0.000397162,0.0057328,-0.00286541,0.00698006,-0.000850094,-1.16025,0.00496108,0.012789,811,554,-1.05913,3.63596
-406,470,-1.09918,-3.80505,0.00088032,0.00400389,-0.00199601,0.00497651,-9.23073e-05,-1.11737,0.00334887,0.00932943,818,554,-1.09919,3.80503
-399,470,-1.09271,-4.01392,0.00129638,0.00258069,-0.00138228,0.00346269,0.00041438,-1.00285,0.00218348,0.0120782,825,554,-1.09274,4.01392
-392,470,-1.08313,-4.20966,0.00176089,0.00125407,-0.000909646,0.00245176,0.000563192,-0.649552,0.00148287,0.0145934,832,554,-1.08316,4.20964
-385,470,-1.052,-4.34564,0.00241638,-0.00054625,-0.000412406,0.00247272,-0.000602587,-0.135765,0.00188178,0.0112126,839,554,-1.05198,4.34562
-378,470,-1.04883,-4.53717,0.00312705,-0.00203227,-0.000138633,0.00313078,-0.00203599,-0.0268445,0.00300527,0.0150324,846,554,-1.04884,4.53718
-371,470,-1.05792,-4.70337,0.00385402,-0.00323619,-0.000265075,0.00386392,-0.00324608,-0.0373166,0.00411012,0.0130034,853,554,-1.05791,4.70338
-364,470,-1.06317,-4.8811,0.0046371,-0.00473453,-0.000283188,0.00464565,-0.00474308,-0.0301809,0.00542068,0.0132731,860,554,-1.06318,4.8811
-357,470,-1.07867,-5.06604,0.00569203,-0.00647752,-0.000419517,0.00570648,-0.00649196,-0.0344182,0.00704764,0.0125784,867,554,-1.07867,5.06601
-350,470,-1.08289,-5.25421,0.00684696,-0.00848162,-0.000560788,0.00686744,-0.00850211,-0.0365194,0.00889033,0.00938324,874,554,-1.08287,5.25422
-343,470,-1.01587,-5.43915,0.00818819,-0.0106899,-0.000704456,0.00821445,-0.0107162,-0.037247,0.0109614,0.0200268,881,554,-1.01589,5.43916
-336,470,-1.0611,-5.56836,0.00957203,-0.0128357,-0.000923378,0.00961002,-0.0128737,-0.0411151,0.0130265,0.0298206,888,554,-1.06111,5.56837
-329,470,-0.991821,-5.60004,0.0110827,-0.0150716,-0.00128437,0.0111456,-0.0151345,-0.0489505,0.015231,0.0412332,895,554,-0.991822,5.60006
-322,470,-0.538391,-6.07819,0.0126367,-0.0173519,-0.00174577,0.012738,-0.0174532,-0.0579535,0.0175016,0.0454079,902,554,-0.538366,6.07817
-315,470,-0.0822144,-6.26031,0,0,0,0,0,0,0,-1,909,554,-0.082221,6.26033
-308,470,-1.39368,-6.68152,0,0,0,0,0,0,0,-1,916,554,-1.39369,6.68149
-301,470,-0.0340576,3.34888,0,0,0,0,0,0,0,-1,923,554,-0.0340496,-3.3489
-294,470,-1.18378,3.22266,0,0,0,0,0,0,0,-1,930,554,-1.18376,-3.22268
-287,470,-2.15454,3.2204,0,0,0,0,0,0,0,-1,937,554,-2.15452,-3.22037
-280,470,-3.00537,3.099,0,0,0,0,0,0,0,-1,944,554,-3.00536,-3.09898
-273,470,1.05981,-2.39728,0,0,0,0,0,0,0,-1,951,554,1.05983,2.39727
-266,470,-3.55084,-1.16742,0,0,0,0,0,0,0,-1,958,554,-3.55086,1.16744
-259,470,-2.06311,-2.73199,0,0,0,0,0,0,0,-1,965,554,-2.0631,2.732
-252,470,-0.369019,-4.24976,0,0,0,0,0,0,0,-1,972,554,-0.36901,4.24977
-245,470,1.21405,-5.86768,0,0,0,0,0,0,0,-1,979,554,1.21405,5.86766
-238,470,0,0,0,0,0,0,0,0,0,-1,986,554,0,0
-231,470,0,0,0,0,0,0,0,0,0,-1,993,554,0,0
-224,470,0,0,0,0,0,0,0,0,0,-1,1000,554,0,0
-217,470,0,0,0,0,0,0,0,0,0,-1,1007,554,0,0
-210,470,0,0,0,0,0,0,0,0,0,-1,1014,554,0,0
-203,470,0,0,0,0,0,0,0,0,0,-1,1021,554,0,0
-196,470,0,0,0,0,0,0,0,0,0,-1,1028,554,0,0
-189,470,0,0,0,0,0,0,0,0,0,-1,1035,554,0,0
-182,470,0,0,0,0,0,0,0,0,0,-1,1042,554,0,0
-175,470,0,0,0,0,0,0,0,0,0,-1,1049,554,0,0
-168,470,0,0,0,0,0,0,0,0,0,-1,1056,554,0,0
-161,470,0,0,0,0,0,0,0,0,0,-1,1063,554,0,0
-154,470,0,0,0,0,0,0,0,0,0,-1,1070,554,0,0
-147,470,0,0,0,0,0,0,0,0,0,-1,1077,554,0,0
-140,470,0,0,0,0,0,0,0,0,0,-1,1084,554,0,0
-133,470,0,0,0,0,0,0,0,0,0,-1,1091,554,0,0
-126,470,0,0,0,0,0,0,0,0,0,-1,1098,554,0,0
-119,470,0,0,0,0,0,0,0,0,0,-1,1105,554,0,0
-112,470,0,0,0,0,0,0,0,0,0,-1,1112,554,0,0
-105,470,0,0,0,0,0,0,0,0,0,-1,1119,554,0,0
-98,470,0,0,0,0,0,0,0,0,0,-1,1126,554,0,0
-91,470,0,0,0,0,0,0,0,0,0,-1,1133,554,0,0
-84,470,0,0,0,0,0,0,0,0,0,-1,1140,554,0,0
-77,470,0,0,0,0,0,0,0,0,0,-1,1147,554,0,0
-70,470,0,0,0,0,0,0,0,0,0,-1,1154,554,0,0
-63,470,0,0,0,0,0,0,0,0,0,-1,1161,554,0,0
-56,470,0,0,0,0,0,0,0,0,0,-1,1168,554,0,0
-49,470,0,0,0,0,0,0,0,0,0,-1,1175,554,0,0
-42,470,0,0,0,0,0,0,0,0,0,-1,1182,554,0,0
-35,470,0,0,0,0,0,0,0,0,0,-1,1189,554,0,0
-28,470,0,0,0,0,0,0,0,0,0,-1,1196,554,0,0
-21,470,0,0,0,0,0,0,0,0,0,-1,1203,554,0,0
-14,470,0,0,0,0,0,0,0,0,0,-1,1210,554,0,0
-7,470,0,0,0,0,0,0,0,0,0,-1,1217,554,0,0
0,470,0,0,0,0,0,0,0,0,0,-1,1224,554,0,0
7,470,0,0,0,0,0,0,0,0,0,-1,1231,554,0,0
14,470,0,0,0,0,0,0,0,0,0,-1,1238,554,0,0
21,470,0,0,0,0,0,0,0,0,0,-1,1245,554,0,0
28,470,0,0,0,0,0,0,0,0,0,-1,1252,554,0,0
35,470,0,0,0,0,0,0,0,0,0,-1,1259,554,0,0
42,470,0,0,0,0,0,0,0,0,0,-1,1266,554,0,0
49,470,0,0,0,0,0,0,0,0,0,-1,1273,554,0,0
56,470,0,0,0,0,0,0,0,0,0,-1,1280,554,0,0
63,470,0,0,0,0,0,0,0,0,0,-1,1287,554,0,0
70,470,0,0,0,0,0,0,0,0,0,-1,1294,554,0,0
77,470,0,0,0,0,0,0,0,0,0,-1,1301,554,0,0
84,470,0,0,0,0,0,0,0,0,0,-1,1308,554,0,0
91,470,0,0,0,0,0,0,0,0,0,-1,1315,554,0,0
98,470,0,0,0,0,0,0,0,0,0,-1,1322,554,0,0
105,470,0,0,0,0,0,0,0,0,0,-1,1329,554,0,0
112,470,0,0,0,0,0,0,0,0,0,-1,1336,554,0,0
119,470,0,0,0,0,0,0,0,0,0,-1,1343,554,0,0
126,470,0,0,0,0,0,0,0,0,0,-1,1350,554,0,0
133,470,0,0,0,0,0,0,0,0,0,-1,1357,554,0,0
140,470,0,0,0,0,0,0,0,0,0,-1,1364,554,0,0
147,470,0,0,0,0,0,0,0,0,0,-1,1371,554,0,0
154,470,0,0,0,0,0,0,0,0,0,-1,1378,554,0,0
161,470,0,0,0,0,0,0,0,0,0,-1,1385,554,0,0
168,470,0,0,0,0,0,0,0,0,0,-1,1392,554,0,0
175,470,0,0,0,0,0,0,0,0,0,-1,1399,554,0,0
182,470,0,0,0,0,0,0,0,0,0,-1,1406,554,0,0
189,470,0,0,0,0,0,0,0,0,0,-1,1413,554,0,0
196,470,0,0,0,0,0,0,0,0,0,-1,1420,554,0,0
203,470,0,0,0,0,0,0,0,0,0,-1,1427,554,0,0
210,470,0,0,0,0,0,0,0,0,0,-1,1434,554,0,0
217,470,0,0,0,0,0,0,0,0,0,-1,1441,554,0,0
224,470,0,0,0,0,0,0,0,0,0,-1,1448,554,0,0
231,470,0,0,0,0,0,0,0,0,0,-1,1455,554,0,0
238,470,0,0,0,0,0,0,0,0,0,-1,1462,554,0,0
245,470,0,0,0,0,0,0,0,0,0,-1,1469,554,0,0
252,470,0,0,0,0,0,0,0,0,0,-1,1476,554,0,0
259,470,0,0,0,0,0,0,0,0,0,-1,1483,554,0,0
266,470,0,0,0,0,0,0,0,0,0,-1,1490,554,0,0
273,470,0,0,0,0,0,0,0,0,0,-1,1497,554,0,0
280,470,0,0,0,0,0,0,0,0,0,-1,1504,554,0,0
287,470,0,0,0,0,0,0,0,0,0,-1,1511,554,0,0
294,470,0,0,0,0,0,0,0,0,0,-1,1518,554,0,0
301,470,0,0,0,0,0,0,0,0,0,-1,1525,554,0,0
308,470,0,0,0,0,0,0,0,0,0,-1,1532,554,0,0
315,470,0,0,0,0,0,0,0,0,0,-1,1539,554,0,0
322,470,0,0,0,0,0,0,0,0,0,-1,1546,554,0,0
329,470,0,0,0,0,0,0,0,0,0,-1,1553,554,0,0
336,470,0,0,0,0,0,0,0,0,0,-1,1560,554,0,0
343,470,0,0,0,0,0,0,0,0,0,-1,1567,554,0,0
350,470,0,0,0,0,0,0,0,0,0,-1,1574,554,0,0
357,470,0,0,0,0,0,0,0,0,0,-1,1581,554,0,0
364,470,1.33423,0.293335,0,0,0,0,0,0,0,-1,1588,554,1.33422,-0.293348
371,470,4.3595,0.741394,0,0,0,0,0,0,0,-1,1595,554,4.35956,-0.741385
378,470,7.41846,0.960266,0,0,0,0,0,0,0,-1,1602,554,7.4184,-0.960263
385,470,10.7914,1.98749,0,0,0,0,0,0,0,-1,1609,554,10.7914,-1.98748
392,470,12.5139,3.7251,0,0,0,0,0,0,0,-1,1616,554,12.5139,-3.72509
399,470,12.9828,1.44592,0,0,0,0,0,0,0,-1,1623,554,12.9828,-1.44594
406,470,15.1896,1.36676,0,0,0,0,0,0,0,-1,1630,554,15.1896,-1.36679
413,470,6.55383,1.99207,0,0,0,0,0,0,0,-1,1637,554,6.5538,-1.99208
420,470,4.47095,0.845703,0,0,0,0,0,0,0,-1,1644,554,4.47098,-0.845718
427,470,3.51038,1.19684,0,0,0,0,0,0,0,-1,1651,554,3.51039,-1.19684
434,470,3.31775,-1.37427,0,0,0,0,0,0,0,-1,1658,554,3.31781,1.37426
441,470,2.55457,-2.05902,0,0,0,0,0,0,0,-1,1665,554,2.55461,2.05904
448,470,3.27258,-2.64032,0,0,0,0,0,0,0,-1,1672,554,3.27257,2.64029
455,470,5.94751,-4.77417,0,0,0,0,0,0,0,-1,1679,554,5.94755,4.77417
462,470,5.63354,-4.54108,0,0,0,0,0,0,0,-1,1686,554,5.63351,4.54107
469,470,5.70947,-4.20587,-0.00198409,0.00504012,-0.000774999,0.00512461,-0.00206859,-1.4622,0.0042761,0.0481224,1693,554,5.70947,4.20587
476,470,5.51794,-4.01117,-0.000503498,0.00426541,-7.58031e-05,0.00426661,-0.000504702,-1.55491,0.0030267,0.0266713,1700,554,5.51796,4.01119
483,470,5.56396,-3.81781,0.00047399,0.0033849,0.000350651,0.00342654,0.000432346,1.45259,0.00215475,0.0137806,1707,554,5.56399,3.81781
490,470,5.56433,-3.62219,0.00114603,0.00272746,0.000627067,0.00294592,0.000927569,1.23556,0.00173926,0.0116759,1714,554,5.56435,3.62219
497,470,5.5813,-3.42499,0.00132646,0.00204533,0.000685065,0.00245953,0.00091226,1.02699,0.0014357,0.0116259,1721,554,5.5813,3.42499
504,470,5.58984,-3.23529,0.00126665,0.00154063,0.000698578,0.00211553,0.00069176,0.882218,0.00124553,0.0199322,1728,554,5.58986,3.23531
511,470,5.63989,-3.0528,0.00135934,0.00135939,0.000937128,0.0022965,0.000422239,0.78541,0.00141146,0.0268882,1735,554,5.63984,3.0528
518,470,5.67761,-2.83636,0.00167299,0.00156995,0.00138865,0.00301108,0.000231863,0.766857,0.00193474,0.0243787,1742,554,5.67763,2.83639
525,470,5.62671,-2.5957,0.00210401,0.0020832,0.00193033,0.00402396,0.00016325,0.782703,0.00262992,0.0148752,1749,554,5.62673,2.59568
532,470,5.57996,-2.39905,0.00284812,0.00302629,0.00274419,0.00568284,0.000191572,0.801624,0.00372635,0.0131325,1756,554,5.57993,2.39907
539,470,5.56946,-2.21021,0.00403666,0.00429523,0.00388208,0.00805018,0.000281709,0.802044,0.00527539,0.0146131,1763,554,5.56952,2.21021
546,470,5.57715,-2.01141,0.00610082,0.00590032,0.00536169,0.0113632,0.000637951,0.77605,0.00737202,0.0134835,1770,554,5.57717,2.01141
553,470,5.58374,-1.8161,0.00944765,0.00769497,0.00778608,0.0164065,0.000736068,0.729358,0.0107008,0.0106355,1777,554,5.58378,1.8161
560,470,5.59021,-1.6131,0.0133114,0.00972141,0.0103955,0.0220657,0.000967111,0.699905,0.0143989,0.0132852,1784,554,5.59027,1.61308
567,470,5.60962,-1.4093,0.0188252,0.0117461,0.0137663,0.0294998,0.00107156,0.659566,0.0193192,0.0179139,1791,554,5.60956,1.40931
574,470,5.49158,-1.29095,0,0,0,0,0,0,0,-1,1798,554,5.49154,1.29097
581,470,8.24646,-4.06317,0,0,0,0,0,0,0,-1,1805,554,8.24648,4.06318
588,470,8.83704,-2.04022,0,0,0,0,0,0,0,-1,1812,554,8.83707,2.04021
595,470,4.72192,3.44116,0,0,0,0,0,0,0,-1,1819,554,4.72191,-3.44116
602,470,14.4307,2.76141,0,0,0,0,0,0,0,-1,1826,554,14.4306,-2.76139
609,470,16.2076,2.45117,0,0,0,0,0,0,0,-1,1833,554,16.2077,-2.45116
616,470,0,0,0,0,0,0,0,0,0,-1,1840,554,0,0
623,470,0,0,0,0,0,0,0,0,0,-1,1847,554,0,0
630,470,0,0,0,0,0,0,0,0,0,-1,1854,554,0,0
637,470,0,0,0,0,0,0,0,0,0,-1,1861,554,0,0
644,470,0,0,0,0,0,0,0,0,0,-1,1868,554,0,0
651,470,0,0,0,0,0,0,0,0,0,-1,1875,554,0,0
658,470,0,0,0,0,0,0,0,0,0,-1,1882,554,0,0
665,470,0,0,0,0,0,0,0,0,0,-1,1889,554,0,0
672,470,0,0,0,0,0,0,0,0,0,-1,1896,554,0,0
679,470,0,0,0,0,0,0,0,0,0,-1,1903,554,0,0
686,470,0,0,0,0,0,0,0,0,0,-1,1910,554,0,0
693,470,0,0,0,0,0,0,0,0,0,-1,1917,554,0,0
700,470,0,0,0,0,0,0,0,0,0,-1,1924,554,0,0
707,470,0,0,0,0,0,0,0,0,0,-1,1931,554,0,0
714,470,0,0,0,0,0,0,0,0,0,-1,1938,554,0,0
721,470,0,0,0,0,0,0,0,0,0,-1,1945,554,0,0
728,470,0,0,0,0,0,0,0,0,0,-1,1952,554,0,0
735,470,0,0,0,0,0,0,0,0,0,-1,1959,554,0,0
742,470,0,0,0,0,0,0,0,0,0,-1,1966,554,0,0
749,470,0,0,0,0,0,0,0,0,0,-1,1973,554,0,0
756,470,0,0,0,0,0,0,0,0,0,-1,1980,554,0,0
763,470,0,0,0,0,0,0,0,0,0,-1,1987,554,0,0
770,470,0,0,0,0,0,0,0,0,0,-1,1994,554,0,0
777,470,0,0,0,0,0,0,0,0,0,-1,2001,554,0,0
784,470,0,0,0,0,0,0,0,0,0,-1,2008,554,0,0
791,470,0,0,0,0,0,0,0,0,0,-1,2015,554,0,0
798,470,0,0,0,0,0,0,0,0,0,-1,2022,554,0,0
805,470,0,0,0,0,0,0,0,0,0,-1,2029,554,0,0
812,470,0,0,0,0,0,0,0,0,0,-1,2036,554,0,0
-700,463,0,0,0,0,0,0,0,0,0,-1,524,561,0,0
-693,463,0,0,0,0,0,0,0,0,0,-1,531,561,0,0
-686,463,0,0,0,0,0,0,0,0,0,-1,538,561,0,0
-679,463,0,0,0,0,0,0,0,0,0,-1,545,561,0,0
-672,463,0,0,0,0,0,0,0,0,0,-1,552,561,0,0
-665,463,0,0,0,0,0,0,0,0,0,-1,559,561,0,0
-658,463,0,0,0,0,0,0,0,0,0,-1,566,561,0,0
-651,463,0,0,0,0,0,0,0,0,0,-1,573,561,0,0
-644,463,0,0,0,0,0,0,0,0,0,-1,580,561,0,0
-637,463,0,0,0,0,0,0,0,0,0,-1,587,561,0,0
-630,463,0,0,0,0,0,0,0,0,0,-1,594,561,0,0
-623,463,0,0,0,0,0,0,0,0,0,-1,601,561,0,0
-616,463,0,0,0,0,0,0,0,0,0,-1,608,561,0,0
-609,463,0,0,0,0,0,0,0,0,0,-1,615,561,0,0
-602,463,0,0,0,0,0,0,0,0,0,-1,622,561,0,0
-595,463,0,0,0,0,0,0,0,0,0,-1,629,561,0,0
-588,463,0,0,0,0,0,0,0,0,0,-1,636,561,0,0
-581,463,0,0,0,0,0,0,0,0,0,-1,643,561,0,0
-574,463,0,0,0,0,0,0,0,0,0,-1,650,561,0,0
-567,463,0,0,0,0,0,0,0,0,0,-1,657,561,0,0
-560,463,0,0,0,0,0,0,0,0,0,-1,664,561,0,0
-553,463,0,0,0,0,0,0,0,0,0,-1,671,561,0,0
-546,463,0,0,0,0,0,0,0,0,0,-1,678,561,0,0
-539,463,0,0,0,0,0,0,0,0,0,-1,685,561,0,0
-532,463,0,0,0,0,0,0,0,0,0,-1,692,561,0,0
-525,463,0,0,0,0,0,0,0,0,0,-1,699,561,0,0
-518,463,0,0,0,0,0,0,0,0,0,-1,706,561,0,0
-511,463,0,0,0,0,0,0,0,0,0,-1,713,561,0,0
-504,463,0,0,0,0,0,0,0,0,0,-1,720,561,0,0
-497,463,-4.27014,3.24841,0,0,0,0,0,0,0,-1,727,561,-4.27015,-3.24842
-490,463,-3.59601,2.38934,0,0,0,0,0,0,0,-1,734,561,-3.59599,-2.38932
-483,463,-10.9605,5.51794,0,0,0,0,0,0,0,-1,741,561,-10.9605,-5.51794
-476,463,-9.86005,3.40265,0,0,0,0,0,0,0,-1,748,561,-9.86004,-3.40263
-469,463,-1.92133,-0.684265,0,0,0,0,0,0,0,-1,755,561,-1.92133,0.684277
-462,463,-1.36017,-1.14777,0,0,0,0,0,0,0,-1,762,561,-1.36016,1.14774
-455,463,-1.0246,-2.48022,0,0,0,0,0,0,0,-1,769,561,-1.02459,2.4802
-448,463,-1.05994,-2.61377,0.000788096,0.0201252,-0.0103308,0.0246061,-0.00369279,-1.16155,0.0177634,0.0435383,776,561,-1.05993,2.61379
-441,463,-1.0993,-2.86029,0.000148819,0.0155387,-0.0079221,0.0188879,-0.00320031,-1.17083,0.0137831,0.0304649,783,561,-1.09931,2.86031
-434,463,-1.22839,-3.08374,-6.39845e-05,0.0118119,-0.00607206,0.0143668,-0.00261892,-1.17251,0.0105597,0.0124045,790,561,-1.22842,3.08373
-427,463,-1.24298,-3.27454,-1.26318e-05,0.00866251,-0.00451995,0.0105895,-0.0019396,-1.1678,0.00778712,0.00931776,797,561,-1.24297,3.27455
-420,463,-1.22717,-3.45209,2.74687e-05,0.00604279,-0.00308814,0.00734589,-0.00127563,-1.1715,0.00537318,0.0100765,804,561,-1.22717,3.45208
-413,463,-1.24414,-3.64075,0.000440121,0.00409205,-0.00210839,0.00505525,-0.000523086,-1.14227,0.00355737,0.00886293,811,561,-1.24415,3.64072
-406,463,-1.28314,-3.83484,0.00109864,0.00258311,-0.00144773,0.00346778,0.000213967,-1.02227,0.00224394,0.00831522,818,561,-1.28317,3.83484
-399,463,-1.27386,-4.0282,0.00167421,0.00123324,-0.000956126,0.00243494,0.000472505,-0.672079,0.00149096,0.00979809,825,561,-1.27384,4.02823
-392,463,-1.25659,-4.20398,0.0022954,-9.77641e-05,-0.000544018,0.00241326,-0.000215627,-0.213354,0.00168532,0.00982663,832,561,-1.25662,4.20399
-385,463,-1.2486,-4.3717,0.00311461,-0.00185611,-0.000128789,0.00311795,-0.00185945,-0.0258864,0.00290416,0.0105328,839,561,-1.24858,4.37168
-378,463,-1.24469,-4.55353,0.00400298,-0.00352297,0.000137045,0.00400548,-0.00352547,0.0182017,0.00435094,0.0109638,846,561,-1.24468,4.55353
-371,463,-1.23431,-4.72668,0.00493675,-0.00487938,-2.14684e-05,0.0049368,-0.00487943,-0.00218704,0.00566743,0.0106264,853,561,-1.23429,4.72666
-364,463,-1.21362,-4.88214,0.0059648,-0.00668794,-4.66908e-05,0.00596497,-0.00668811,-0.00369011,0.00730924,0.0134333,860,561,-1.21365,4.88216
-357,463,-1.22821,-5.0575,0.00724503,-0.00888565,-0.000151422,0.00724645,-0.00888707,-0.00938608,0.00933073,0.0153477,867,561,-1.22819,5.05751
-350,463,-1.23273,-5.29224,0.00865252,-0.0115238,-0.000237668,0.00865532,-0.0115266,-0.0117774,0.0116913,0.0162979,874,561,-1.23274,5.29224
-343,463,-1.13153,-5.38208,0.0102725,-0.0145247,-0.000292465,0.0102759,-0.0145282,-0.0117921,0.0143906,0.0298379,881,561,-1.13151,5.3821
-336,463,-0.994873,-5.44116,0.0119644,-0.0177755,-0.000388647,0.0119695,-0.0177806,-0.0130652,0.0172851,0.0400882,888,561,-0.994888,5.44117
-329,463,-0.608765,-5.76971,0.0138158,-0.0212987,-0.000615912,0.0138266,-0.0213095,-0.0175329,0.0204386,0.0480804,895,561,-0.608771,5.76971
-322,463,-0.169495,-6.09198,0,0,0,0,0,0,0,-1,902,561,-0.169504,6.09201
-315,463,-0.944763,-5.96234,0,0,0,0,0,0,0,-1,909,561,-0.94479,5.96237
-308,463,-1.1535,-3.17889,0,0,0,0,0,0,0,-1,916,561,-1.15352,3.17889
-301,463,-1.50366,-3.15338,0,0,0,0,0,0,0,-1,923,561,-1.50364,3.15341
-294,463,-2.35889,-3.93463,0,0,0,0,0,0,0,-1,930,561,-2.35886,3.93465
-287,463,-2.80322,2.73999,0,0,0,0,0,0,0,-1,937,561,-2.80322,-2.74
-280,463,-3.29858,2.24219,0,0,0,0,0,0,0,-1,944,561,-3.29859,-2.24221
-273,463,-5.54578,0.486755,0,0,0,0,0,0,0,-1,951,561,-5.54576,-0.486736
-266,463,-3.96259,-0.93335,0,0,0,0,0,0,0,-1,958,561,-3.96258,0.933349
-259,463,-2.54156,-2.28058,0,0,0,0,0,0,0,-1,965,561,-2.54159,2.28059
-252,463,0,0,0,0,0,0,0,0,0,-1,972,561,0,0
-245,463,0,0,0,0,0,0,0,0,0,-1,979,561,0,0
-238,463,0,0,0,0,0,0,0,0,0,-1,986,561,0,0
-231,463,0,0,0,0,0,0,0,0,0,-1,993,561,0,0
-224,463,0,0,0,0,0,0,0,0,0,-1,1000,561,0,0
-217,463,0,0,0,0,0,0,0,0,0,-1,1007,561,0,0
-210,463,0,0,0,0,0,0,0,0,0,-1,1014,561,0,0
-203,463,0,0,0,0,0,0,0,0,0,-1,1021,561,0,0
-196,463,0,0,0,0,0,0,0,0,0,-1,1028,561,0,0
-189,463,0,0,0,0,0,0,0,0,0,-1,1035,561,0,0
-182,463,0,0,0,0,0,0,0,0,0,-1,1042,561,0,0
-175,463,0,0,0,0,0,0,0,0,0,-1,1049,561,0,0
-168,463,0,0,0,0,0,0,0,0,0,-1,1056,561,0,0
-161,463,0,0,0,0,0,0,0,0,0,-1,1063,561,0,0
-154,463,0,0,0,0,0,0,0,0,0,-1,1070,561,0,0
-147,463,0,0,0,0,0,0,0,0,0,-1,1077,561,0,0
-140,463,0,0,0,0,0,0,0,0,0,-1,1084,561,0,0
-133,463,0,0,0,0,0,0,0,0,0,-1,1091,561,0,0
-126,463,0,0,0,0,0,0,0,0,0,-1,1098,561,0,0
-119,463,0,0,0,0,0,0,0,0,0,-1,1105,561,0,0
-112,463,0,0,0,0,0,0,0,0,0,-1,1112,561,0,0
-105,463,0,0,0,0,0,0,0,0,0,-1,1119,561,0,0
-98,463,0,0,0,0,0,0,0,0,0,-1,1126,561,0,0
-91,463,0,0,0,0,0,0,0,0,0,-1,1133,561,0,0
-84,463,0,0,0,0,0,0,0,0,0,-1,1140,561,0,0
-77,463,0,0,0,0,0,0,0,0,0,-1,1147,561,0,0
-70,463,0,0,0,0,0,0,0,0,0,-1,1154,561,0,0
-63,463,0,0,0,0,0,0,0,0,0,-1,1161,561,0,0
-56,463,0,0,0,0,0,0,0,0,0,-1,1168,561,0,0
-49,463,0,0,0,0,0,0,0,0,0,-1,1175,561,0,0
-42,463,0,0,0,0,0,0,0,0,0,-1,1182,561,0,0
-35,463,0,0,0,0,0,0,0,0,0,-1,1189,561,0,0
-28,463,0,0,0,0,0,0,0,0,0,-1,1196,561,0,0
-21,463,0,0,0,0,0,0,0,0,0,-1,1203,561,0,0
-14,463,0,0,0,0,0,0,0,0,0,-1,1210,561,0,0
-7,463,0,0,0,0,0,0,0,0,0,-1,1217,561,0,0
0,463,0,0,0,0,0,0,0,0,0,-1,1224,561,0,0
7,463,0,0,0,0,0,0,0,0,0,-1,1231,561,0,0
14,463,0,0,0,0,0,0,0,0,0,-1,1238,561,0,0
21,463,0,0,0,0,0,0,0,0,0,-1,1245,561,0,0
28,463,0,0,0,0,0,0,0,0,0,-1,1252,561,0,0
35,463,0,0,0,0,0,0,0,0,0,-1,1259,561,0,0
42,463,0,0,0,0,0,0,0,0,0,-1,1266,561,0,0
49,463,0,0,0,0,0,0,0,0,0,-1,1273,561,0,0
56,463,0,0,0,0,0,0,0,0,0,-1,1280,561,0,0
63,463,0,0,0,0,0,0,0,0,0,-1,1287,561,0,0
70,463,0,0,0,0,0,0,0,0,0,-1,1294,561,0,0
77,463,0,0,0,0,0,0,0,0,0,-1,1301,561,0,0
84,463,0,0,0,0,0,0,0,0,0,-1,1308,561,0,0
91,463,0,0,0,0,0,0,0,0,0,-1,1315,561,0,0
98,463,0,0,0,0,0,0,0,0,0,-1,1322,561,0,0
105,463,0,0,0,0,0,0,0,0,0,-1,1329,561,0,0
112,463,0,0,0,0,0,0,0,0,0,-1,1336,561,0,0
119,463,0,0,0,0,0,0,0,0,0,-1,1343,561,0,0
126,463,0,0,0,0,0,0,0,0,0,-1,1350,561,0,0
133,463,0,0,0,0,0,0,0,0,0,-1,1357,561,0,0
140,463,0,0,0,0,0,0,0,0,0,-1,1364,561,0,0
147,463,0,0,0,0,0,0,0,0,0,-1,1371,561,0,0
154,463,0,0,0,0,0,0,0,0,0,-1,1378,561,0,0
161,463,0,0,0,0,0,0,0,0,0,-1,1385,561,0,0
168,463,0,0,0,0,0,0,0,0,0,-1,1392,561,0,0
175,463,0,0,0,0,0,0,0,0,0,-1,1399,561,0,0
182,463,0,0,0,0,0,0,0,0,0,-1,1406,561,0,0
189,463,0,0,0,0,0,0,0,0,0,-1,1413,561,0,0
196,463,0,0,0,0,0,0,0,0,0,-1,1420,561,0,0
203,463,0,0,0,0,0,0,0,0,0,-1,1427,561,0,0
210,463,0,0,0,0,0,0,0,0,0,-1,1434,561,0,0
217,463,0,0,0,0,0,0,0,0,0,-1,1441,561,0,0
224,463,0,0,0,0,0,0,0,0,0,-1,1448,561,0,0
231,463,0,0,0,0,0,0,0,0,0,-1,1455,561,0,0
238,463,0,0,0,0,0,0,0,0,0,-1,1462,561,0,0
245,463,0,0,0,0,0,0,0,0,0,-1,1469,561,0,0
252,463,0,0,0,0,0,0,0,0,0,-1,1476,561,0,0
259,463,0,0,0,0,0,0,0,0,0,-1,1483,561,0,0
266,463,0,0,0,0,0,0,0,0,0,-1,1490,561,0,0
273,463,0,0,0,0,0,0,0,0,0,-1,1497,561,0,0
280,463,0,0,0,0,0,0,0,0,0,-1,1504,561,0,0
287,463,0,0,0,0,0,0,0,0,0,-1,1511,561,0,0
294,463,0,0,0,0,0,0,0,0,0,-1,1518,561,0,0
301,463,0,0,0,0,0,0,0,0,0,-1,1525,561,0,0
308,463,0,0,0,0,0,0,0,0,0,-1,1532,561,0,0
315,463,0,0,0,0,0,0,0,0,0,-1,1539,561,0,0
322,463,0,0,0,0,0,0,0,0,0,-1,1546,561,0,0
329,463,0,0,0,0,0,0,0,0,0,-1,1553,561,0,0
336,463,0,0,0,0,0,0,0,0,0,-1,1560,561,0,0
343,463,0,0,0,0,0,0,0,0,0,-1,1567,561,0,0
350,463,0,0,0,0,0,0,0,0,0,-1,1574,561,0,0
357,463,0,0,0,0,0,0,0,0,0,-1,1581,561,0,0
364,463,0,0,0,0,0,0,0,0,0,-1,1588,561,0,0
371,463,1.75842,0.152588,0,0,0,0,0,0,0,-1,1595,561,1.75844,-0.152558
378,463,4.18835,0.841614,0,0,0,0,0,0,0,-1,1602,561,4.18833,-0.841636
385,463,8.22717,1.32404,0,0,0,0,0,0,0,-1,1609,561,8.22714,-1.32405
392,463,12.1678,1.70648,0,0,0,0,0,0,0,-1,1616,561,12.1679,-1.70647
399,463,13.1924,2.06775,0,0,0,0,0,0,0,-1,1623,561,13.1924,-2.06776
406,463,7.28088,1.38538,0,0,0,0,0,0,0,-1,1630,561,7.28091,-1.38537
413,463,8.05847,1.82239,0,0,0,0,0,0,0,-1,1637,561,8.05851,-1.82241
420,463,8.849,2.26611,0,0,0,0,0,0,0,-1,1644,561,8.84899,-2.26613
427,463,5.12207,1.69183,0,0,0,0,0,0,0,-1,1651,561,5.12206,-1.69184
434,463,4.59814,1.81995,0,0,0,0,0,0,0,-1,1658,561,4.59812,-1.81994
441,463,1.76392,-5.99225,0,0,0,0,0,0,0,-1,1665,561,1.7639,5.99225
448,463,2.49939,-4.30536,0,0,0,0,0,0,0,-1,1672,561,2.49941,4.30536
455,463,4.40295,-3.02557,0,0,0,0,0,0,0,-1,1679,561,4.40299,3.02558
462,463,5.38293,-4.06445,0,0,0,0,0,0,0,-1,1686,561,5.38289,4.06444
469,463,5.82312,-4.41693,0,0,0,0,0,0,0,-1,1693,561,5.82307,4.41692
476,463,5.63635,-4.23047,0,0,0,0,0,0,0,-1,1700,561,5.63641,4.23046
483,463,5.68848,-3.97601,0.00107634,0.0039929,0.000757868,0.00417807,0.000891164,1.33115,0.00254096,0.0333363,1707,561,5.68851,3.97602
490,463,5.77588,-3.65503,0.00189368,0.0032896,0.00104491,0.00384822,0.00133506,1.07985,0.00225621,0.0180486,1714,561,5.77589,3.65503
497,463,5.76953,-3.42188,0.00208161,0.00250457,0.00105637,0.00337042,0.00121576,0.88419,0.00197092,0.0119323,1721,561,5.76952,3.42188
504,463,5.7644,-3.20844,0.00191115,0.00180907,0.000897117,0.00275868,0.000961542,0.756985,0.00161689,0.0162256,1728,561,5.76438,3.20846
511,463,5.76074,-2.98926,0.00182233,0.00137917,0.000967367,0.00259317,0.000608327,0.672813,0.0015659,0.0230868,1735,561,5.7607,2.98927
518,463,5.84082,-2.77557,0.00186408,0.00139824,0.00118164,0.00283554,0.000426777,0.688089,0.00176538,0.0223588,1742,561,5.84083,2.77559
525,463,5.8219,-2.5993,0.00211375,0.00174184,0.00156179,0.00350062,0.000354971,0.726144,0.00222488,0.0169979,1749,561,5.82194,2.59932
532,463,5.80017,-2.41821,0.00256237,0.00242763,0.00211958,0.00461565,0.000374354,0.769511,0.00296022,0.0146503,1756,561,5.8002,2.41819
539,463,5.78394,-2.19696,0.00332587,0.00330848,0.00290324,0.00622043,0.000413923,0.7839,0.0040161,0.0140161,1763,561,5.78398,2.19696
546,463,5.78748,-1.99292,0.00486085,0.00444416,0.00394721,0.00860521,0.0006998,0.759031,0.00551835,0.0114467,1770,561,5.78744,1.9929
553,463,5.77368,-1.79883,0.00753365,0.0056373,0.00583222,0.0124943,0.000676682,0.704815,0.00811336,0.0103741,1777,561,5.77364,1.79885
560,463,5.77393,-1.57758,0.010497,0.00692954,0.00772775,0.0166442,0.000782315,0.671975,0.0108448,0.0111497,1784,561,5.77392,1.5776
567,463,5.72937,-1.39172,0.0147315,0.00800284,0.0101497,0.02206,0.00067437,0.625362,0.0144871,0.0161623,1791,561,5.72943,1.3917
574,463,5.67432,-1.2901,0.0202942,0.00901129,0.0131323,0.0289455,0.000359959,0.582524,0.0191782,0.0433758,1798,561,5.67436,1.29011
581,463,5.7522,-1.14691,0,0,0,0,0,0,0,-1,1805,561,5.75216,1.14693
588,463,1.97424,2.16016,0,0,0,0,0,0,0,-1,1812,561,1.97422,-2.16013
595,463,9.77637,3.00854,0,0,0,0,0,0,0,-1,1819,561,9.77636,-3.00857
602,463,12.1405,2.82471,0,0,0,0,0,0,0,-1,1826,561,12.1405,-2.82468
609,463,15.4412,2.81427,0,0,0,0,0,0,0,-1,1833,561,15.4411,-2.81429
616,463,16.8923,2.79462,0,0,0,0,0,0,0,-1,1840,561,16.8923,-2.79464
623,463,0,0,0,0,0,0,0,0,0,-1,1847,561,0,0
630,463,0,0,0,0,0,0,0,0,0,-1,1854,561,0,0
637,463,0,0,0,0,0,0,0,0,0,-1,1861,561,0,0
644,463,0,0,0,0,0,0,0,0,0,-1,1868,561,0,0
651,463,0,0,0,0,0,0,0,0,0,-1,1875,561,0,0
658,463,0,0,0,0,0,0,0,0,0,-1,1882,561,0,0
665,463,0,0,0,0,0,0,0,0,0,-1,1889,561,0,0
672,463,0,0,0,0,0,0,0,0,0,-1,1896,561,0,0
679,463,0,0,0,0,0,0,0,0,0,-1,1903,561,0,0
686,463,0,0,0,0,0,0,0,0,0,-1,1910,561,0,0
693,463,0,0,0,0,0,0,0,0,0,-1,1917,561,0,0
700,463,0,0,0,0,0,0,0,0,0,-1,1924,561,0,0
707,463,0,0,0,0,0,0,0,0,0,-1,1931,561,0,0
714,463,0,0,0,0,0,0,0,0,0,-1,1938,561,0,0
721,463,0,0,0,0,0,0,0,0,0,-1,1945,561,0,0
728,463,0,0,0,0,0,0,0,0,0,-1,1952,561,0,0
735,463,0,0,0,0,0,0,0,0,0,-1,1959,561,0,0
742,463,0,0,0,0,0,0,0,0,0,-1,1966,561,0,0
749,463,0,0,0,0,0,0,0,0,0,-1,1973,561,0,0
756,463,0,0,0,0,0,0,0,0,0,-1,1980,561,0,0
763,463,0,0,0,0,0,0,0,0,0,-1,1987,561,0,0
770,463,0,0,0,0,0,0,0,0,0,-1,1994,561,0,0
777,463,0,0,0,0,0,0,0,0,0,-1,2001,561,0,0
784,463,0,0,0,0,0,0,0,0,0,-1,2008,561,0,0
791,463,0,0,0,0,0,0,0,0,0,-1,2015,561,0,0
798,463,0,0,0,0,0,0,0,0,0,-1,2022,561,0,0
805,463,0,0,0,0,0,0,0,0,0,-1,2029,561,0,0
812,463,0,0,0,0,0,0,0,0,0,-1,2036,561,0,0
-700,456,0,0,0,0,0,0,0,0,0,-1,524,568,0,0
-693,456,0,0,0,0,0,0,0,0,0,-1,531,568,0,0
-686,456,0,0,0,0,0,0,0,0,0,-1,538,568,0,0
-679,456,0,0,0,0,0,0,0,0,0,-1,545,568,0,0
-672,456,0,0,0,0,0,0,0,0,0,-1,552,568,0,0
-665,456,0,0,0,0,0,0,0,0,0,-1,559,568,0,0
-658,456,0,0,0,0,0,0,0,0,0,-1,566,568,0,0
-651,456,0,0,0,0,0,0,0,0,0,-1,573,568,0,0
-644,456,0,0,0,0,0,0,0,0,0,-1,580,568,0,0
-637,456,0,0,0,0,0,0,0,0,0,-1,587,568,0,0
-630,456,0,0,0,0,0,0,0,0,0,-1,594,568,0,0
-623,456,0,0,0,0,0,0,0,0,0,-1,601,568,0,0
-616,456,0,0,0,0,0,0,0,0,0,-1,608,568,0,0
-609,456,0,0,0,0,0,0,0,0,0,-1,615,568,0,0
-602,456,0,0,0,0,0,0,0,0,0,-1,622,568,0,0
-595,456,0,0,0,0,0,0,0,0,0,-1,629,568,0,0
-588,456,0,0,0,0,0,0,0,0,0,-1,636,568,0,0
-581,456,0,0,0,0,0,0,0,0,0,-1,643,568,0,0
-574,456,0,0,0,0,0,0,0,0,0,-1,650,568,0,0
-567,456,0,0,0,0,0,0,0,0,0,-1,657,568,0,0
-560,456,0,0,0,0,0,0,0,0,0,-1,664,568,0,0
-553,456,0,0,0,0,0,0,0,0,0,-1,671,568,0,0
-546,456,0,0,0,0,0,0,0,0,0,-1,678,568,0,0
-539,456,0,0,0,0,0,0,0,0,0,-1,685,568,0,0
-532,456,0,0,0,0,0,0,0,0,0,-1,692,568,0,0
-525,456,0,0,0,0,0,0,0,0,0,-1,699,568,0,0
-518,456,0,0,0,0,0,0,0,0,0,-1,706,568,0,0
-511,456,0,0,0,0,0,0,0,0,0,-1,713,568,0,0
-504,456,-1.43451,-1.86499,0,0,0,0,0,0,0,-1,720,568,-1.43452,1.86499
-497,456,-3.59912,3.37024,0,0,0,0,0,0,0,-1,727,568,-3.59911,-3.37021
-490,456,-2.81476,2.5285,0,0,0,0,0,0,0,-1,734,568,-2.81477,-2.52848
-483,456,-2.06812,1.72504,0,0,0,0,0,0,0,-1,741,568,-2.06814,-1.72502
-476,456,-1.96539,-1.17493,0,0,0,0,0,0,0,-1,748,568,-1.9654,1.17492
-469,456,-2.81238,-3.51501,0,0,0,0,0,0,0,-1,755,568,-2.81237,3.51501
-462,456,-1.4986,-2.60352,0,0,0,0,0,0,0,-1,762,568,-1.49862,2.6035
-455,456,-1.30298,-2.40424,0,0,0,0,0,0,0,-1,769,568,-1.30299,2.40423
-448,456,-1.31879,-2.65857,0.00082791,0.0152129,-0.00770276,0.0185591,-0.00251832,-1.16097,0.0132919,0.03422,776,568,-1.31876,2.65858
-441,456,-1.39032,-2.89716,0.000206978,0.0119341,-0.00600593,0.0144642,-0.00232306,-1.1721,0.0105031,0.0151659,783,568,-1.39031,2.89716
-434,456,-1.42932,-3.09869,-6.80277e-05,0.00909906,-0.00466752,0.0110573,-0.00202624,-1.17356,0.00813152,0.00929699,790,568,-1.4293,3.09869
-427,456,-1.44238,-3.28674,-9.29866e-05,0.00655825,-0.00348117,0.00804701,-0.00158175,-1.16667,0.00596228,0.00913085,797,568,-1.44239,3.28673
-420,456,-1.43524,-3.46826,-7.99027e-05,0.00430441,-0.00230185,0.00529094,-0.00106643,-1.1659,0.00393129,0.00973167,804,568,-1.43526,3.46826
-413,456,-1.43768,-3.64899,0.000388391,0.00254464,-0.0015441,0.00334976,-0.000416731,-1.09016,0.00238425,0.00839662,811,568,-1.43766,3.64901
-406,456,-1.45923,-3.83435,0.00117194,0.00119527,-0.00105249,0.00223617,0.000131048,-0.790939,0.00144907,0.00881862,818,568,-1.45923,3.83437
-399,456,-1.44073,-4.02148,0.00188052,-0.000122588,-0.000651578,0.00207382,-0.000315882,-0.288386,0.00149897,0.0107646,825,568,-1.44075,4.02147
-392,456,-1.41687,-4.19611,0.00265395,-0.00149103,-0.000272858,0.00267184,-0.00150891,-0.0654522,0.00244469,0.00934389,832,568,-1.41686,4.19613
-385,456,-1.42548,-4.36975,0.00365092,-0.00322364,8.82309e-05,0.00365205,-0.00322477,0.0128316,0.00397289,0.00915962,839,568,-1.42548,4.36973
-378,456,-1.43512,-4.55981,0.00475134,-0.00510426,0.00038397,0.00476628,-0.0051192,0.038881,0.0057086,0.0102672,846,568,-1.4351,4.5598
-371,456,-1.42743,-4.73395,0.00596314,-0.00668621,0.000253668,0.00596822,-0.0066913,0.0200431,0.00731295,0.0111625,853,568,-1.42745,4.73397
-364,456,-1.4079,-4.88831,0.00733106,-0.00890821,0.000290194,0.00733624,-0.0089134,0.0178623,0.00939645,0.0146898,860,568,-1.4079,4.88832
-357,456,-1.37518,-5.08087,0.00893829,-0.0117104,0.000315007,0.0089431,-0.0117152,0.0152508,0.0119628,0.0161631,867,568,-1.37515,5.08089
-350,456,-1.21997,-5.14197,0.0106539,-0.0151382,0.00036955,0.0106592,-0.0151435,0.0143241,0.014972,0.0279373,874,568,-1.21995,5.14196
-343,456,-1.21088,-5.1264,0.0125818,-0.0192381,0.000487665,0.0125893,-0.0192456,0.015321,0.0185133,0.0373238,881,568,-1.21088,5.12642
-336,456,-1.17938,-4.96851,0.0146556,-0.023935,0.000647734,0.0146665,-0.0239458,0.0167785,0.0225064,0.0454903,888,568,-1.17941,4.9685
-329,456,-1.3479,-4.82043,0.016898,-0.0292629,0.000692666,0.0169083,-0.0292733,0.015001,0.0269797,0.0482025,895,568,-1.3479,4.82041
-322,456,-1.53802,-4.8894,0,0,0,0,0,0,0,-1,902,568,-1.53801,4.8894
-315,456,-0.675476,-3.38397,0,0,0,0,0,0,0,-1,909,568,-0.675473,3.38399
-308,456,-1.1618,-3.15314,0,0,0,0,0,0,0,-1,916,568,-1.16178,3.15314
-301,456,-1.83551,-3.26447,0,0,0,0,0,0,0,-1,923,568,-1.8355,3.26449
-294,456,-2.93414,-3.35449,0,0,0,0,0,0,0,-1,930,568,-2.93413,3.35451
-287,456,-3.7569,-3.53101,0,0,0,0,0,0,0,-1,937,568,-3.75692,3.53101
-280,456,-3.58478,1.37744,0,0,0,0,0,0,0,-1,944,568,-3.58476,-1.37746
-273,456,-5.48199,0.679199,0,0,0,0,0,0,0,-1,951,568,-5.482,-0.679176
-266,456,-3.95667,-0.68927,0,0,0,0,0,0,0,-1,958,568,-3.95667,0.689273
-259,456,0,0,0,0,0,0,0,0,0,-1,965,568,0,0
-252,456,0,0,0,0,0,0,0,0,0,-1,972,568,0,0
-245,456,0,0,0,0,0,0,0,0,0,-1,979,568,0,0
-238,456,0,0,0,0,0,0,0,0,0,-1,986,568,0,0
-231,456,0,0,0,0,0,0,0,0,0,-1,993,568,0,0
-224,456,0,0,0,0,0,0,0,0,0,-1,1000,568,0,0
-217,456,0,0,0,0,0,0,0,0,0,-1,1007,568,0,0
-210,456,0,0,0,0,0,0,0,0,0,-1,1014,568,0,0
-203,456,0,0,0,0,0,0,0,0,0,-1,1021,568,0,0
-196,456,0,0,0,0,0,0,0,0,0,-1,1028,568,0,0
-189,456,0,0,0,0,0,0,0,0,0,-1,1035,568,0,0
-182,456,0,0,0,0,0,0,0,0,0,-1,1042,568,0,0
-175,456,0,0,0,0,0,0,0,0,0,-1,1049,568,0,0
-168,456,0,0,0,0,0,0,0,0,0,-1,1056,568,0,0
-161,456,0,0,0,0,0,0,0,0,0,-1,1063,568,0,0
-154,456,0,0,0,0,0,0,0,0,0,-1,1070,568,0,0
-147,456,0,0,0,0,0,0,0,0,0,-1,1077,568,0,0
-140,456,0,0,0,0,0,0,0,0,0,-1,1084,568,0,0
-133,456,0,0,0,0,0,0,0,0,0,-1,1091,568,0,0
-126,456,0,0,0,0,0,0,0,0,0,-1,1098,568,0,0
-119,456,0,0,0,0,0,0,0,0,0,-1,1105,568,0,0
-112,456,0,0,0,0,0,0,0,0,0,-1,1112,568,0,0
-105,456,0,0,0,0,0,0,0,0,0,-1,1119,568,0,0
-98,456,0,0,0,0,0,0,0,0,0,-1,1126,568,0,0
-91,456,0,0,0,0,0,0,0,0,0,-1,1133,568,0,0
-84,456,0,0,0,0,0,0,0,0,0,-1,1140,568,0,0
-77,456,0,0,0,0,0,0,0,0,0,-1,1147,568,0,0
-70,456,0,0,0,0,0,0,0,0,0,-1,1154,568,0,0
-63,456,0,0,0,0,0,0,0,0,0,-1,1161,568,0,0
-56,456,0,0,0,0,0,0,0,0,0,-1,1168,568,0,0
-49,456,0,0,0,0,0,0,0,0,0,-1,1175,568,0,0
-42,456,0,0,0,0,0,0,0,0,0,-1,1182,568,0,0
-35,456,0,0,0,0,0,0,0,0,0,-1,1189,568,0,0
-28,456,0,0,0,0,0,0,0,0,0,-1,1196,568,0,0
-21,456,0,0,0,0,0,0,0,0,0,-1,1203,568,0,0
-14,456,0,0,0,0,0,0,0,0,0,-1,1210,568,0,0
-7,456,0,0,0,0,0,0,0,0,0,-1,1217,568,0,0
0,456,0,0,0,0,0,0,0,0,0,-1,1224,568,0,0
7,456,0,0,0,0,0,0,0,0,0,-1,1231,568,0,0
14,456,0,0,0,0,0,0,0,0,0,-1,1238,568,0,0
21,456,0,0,0,0,0,0,0,0,0,-1,1245,568,0,0
28,456,0,0,0,0,0,0,0,0,0,-1,1252,568,0,0
35,456,0,0,0,0,0,0,0,0,0,-1,1259,568,0,0
42,456,0,0,0,0,0,0,0,0,0,-1,1266,568,0,0
49,456,0,0,0,0,0,0,0,0,0,-1,1273,568,0,0
56,456,0,0,0,0,0,0,0,0,0,-1,1280,568,0,0
63,456,0,0,0,0,0,0,0,0,0,-1,1287,568,0,0
70,456,0,0,0,0,0,0,0,0,0,-1,1294,568,0,0
77,456,0,0,0,0,0,0,0,0,0,-1,1301,568,0,0
84,456,0,0,0,0,0,0,0,0,0,-1,1308,568,0,0
91,456,0,0,0,0,0,0,0,0,0,-1,1315,568,0,0
98,456,0,0,0,0,0,0,0,0,0,-1,1322,568,0,0
105,456,0,0,0,0,0,0,0,0,0,-1,1329,568,0,0
112,456,0,0,0,0,0,0,0,0,0,-1,1336,568,0,0
119,456,0,0,0,0,0,0,0,0,0,-1,1343,568,0,0
126,456,0,0,0,0,0,0,0,0,0,-1,1350,568,0,0
133,456,0,0,0,0,0,0,0,0,0,-1,1357,568,0,0
140,456,0,0,0,0,0,0,0,0,0,-1,1364,568,0,0
147,456,0,0,0,0,0,0,0,0,0,-1,1371,568,0,0
154,456,0,0,0,0,0,0,0,0,0,-1,1378,568,0,0
161,456,0,0,0,0,0,0,0,0,0,-1,1385,568,0,0
168,456,0,0,0,0,0,0,0,0,0,-1,1392,568,0,0
175,456,0,0,0,0,0,0,0,0,0,-1,1399,568,0,0
182,456,0,0,0,0,0,0,0,0,0,-1,1406,568,0,0
189,456,0,0,0,0,0,0,0,0,0,-1,1413,568,0,0
196,456,0,0,0,0,0,0,0,0,0,-1,1420,568,0,0
203,456,0,0,0,0,0,0,0,0,0,-1,1427,568,0,0
210,456,0,0,0,0,0,0,0,0,0,-1,1434,568,0,0
217,456,0,0,0,0,0,0,0,0,0,-1,1441,568,0,0
224,456,0,0,0,0,0,0,0,0,0,-1,1448,568,0,0
231,456,0,0,0,0,0,0,0,0,0,-1,1455,568,0,0
238,456,0,0,0,0,0,0,0,0,0,-1,1462,568,0,0
245,456,0,0,0,0,0,0,0,0,0,-1,1469,568,0,0
252,456,0,0,0,0,0,0,0,0,0,-1,1476,568,0,0
259,456,0,0,0,0,0,0,0,0,0,-1,1483,568,0,0
266,456,0,0,0,0,0,0,0,0,0,-1,1490,568,0,0
273,456,0,0,0,0,0,0,0,0,0,-1,1497,568,0,0
280,456,0,0,0,0,0,0,0,0,0,-1,1504,568,0,0
287,456,0,0,0,0,0,0,0,0,0,-1,1511,568,0,0
294,456,0,0,0,0,0,0,0,0,0,-1,1518,568,0,0
301,456,0,0,0,0,0,0,0,0,0,-1,1525,568,0,0
308,456,0,0,0,0,0,0,0,0,0,-1,1532,568,0,0
315,456,0,0,0,0,0,0,0,0,0,-1,1539,568,0,0
322,456,0,0,0,0,0,0,0,0,0,-1,1546,568,0,0
329,456,0,0,0,0,0,0,0,0,0,-1,1553,568,0,0
336,456,0,0,0,0,0,0,0,0,0,-1,1560,568,0,0
343,456,0,0,0,0,0,0,0,0,0,-1,1567,568,0,0
350,456,0,0,0,0,0,0,0,0,0,-1,1574,568,0,0
357,456,0,0,0,0,0,0,0,0,0,-1,1581,568,0,0
364,456,0,0,0,0,0,0,0,0,0,-1,1588,568,0,0
371,456,0,0,0,0,0,0,0,0,0,-1,1595,568,0,0
378,456,0,0,0,0,0,0,0,0,0,-1,1602,568,0,0
385,456,5.66284,0.660645,0,0,0,0,0,0,0,-1,1609,568,5.66285,-0.660615
392,456,9.61865,2.70856,0,0,0,0,0,0,0,-1,1616,568,9.61862,-2.70856
399,456,11.889,2.58441,0,0,0,0,0,0,0,-1,1623,568,11.889,-2.58444
406,456,15.1853,2.43683,0,0,0,0,0,0,0,-1,1630,568,15.1853,-2.4368
413,456,9.55115,1.49933,0,0,0,0,0,0,0,-1,1637,568,9.55119,-1.49933
420,456,6.33875,1.88824,0,0,0,0,0,0,0,-1,1644,568,6.33876,-1.88827
427,456,6.21375,2.02905,0,0,0,0,0,0,0,-1,1651,568,6.21372,-2.02904
434,456,3.0719,-4.86285,0,0,0,0,0,0,0,-1,1658,568,3.07184,4.86287
441,456,2.90344,-4.70459,0,0,0,0,0,0,0,-1,1665,568,2.90346,4.7046
448,456,3.06995,-4.93689,0,0,0,0,0,0,0,-1,1672,568,3.06991,4.93687
455,456,3.46582,-3.43701,0,0,0,0,0,0,0,-1,1679,568,3.46585,3.43698
462,456,4.68445,-4.45831,0,0,0,0,0,0,0,-1,1686,568,4.68439,4.45833
469,456,4.93201,-2.289,0,0,0,0,0,0,0,-1,1693,568,4.93197,2.28903
476,456,4.8363,-2.79364,0,0,0,0,0,0,0,-1,1700,568,4.83636,2.79363
483,456,5.73083,-4.30878,0,0,0,0,0,0,0,-1,1707,568,5.73081,4.30876
490,456,5.90918,-3.78058,0,0,0,0,0,0,0,-1,1714,568,5.90918,3.78056
497,456,5.9906,-3.48938,0.00287323,0.0029539,0.00144641,0.00436054,0.00146659,0.799339,0.00256212,0.0286619,1721,568,5.99056,3.48936
504,456,5.94995,-3.21399,0.00258675,0.00201754,0.00110699,0.00344514,0.00115915,0.659575,0.0020242,0.0104414,1728,568,5.94991,3.21396
511,456,5.94373,-2.98944,0.00230872,0.00130211,0.00100982,0.00293371,0.000677113,0.554211,0.00177372,0.0132678,1735,568,5.94374,2.98944
518,456,5.97827,-2.79297,0.00208814,0.00112531,0.000992943,0.00271021,0.000503229,0.559677,0.00166462,0.0156748,1742,568,5.97831,2.79298
525,456,5.99146,-2.62939,0.00219533,0.00133103,0.00125449,0.00309002,0.000436339,0.619523,0.00193107,0.0156373,1749,568,5.99144,2.62941
532,456,5.98242,-2.42334,0.00239924,0.00180749,0.00161044,0.00374075,0.000465971,0.694549,0.00235393,0.0145555,1756,568,5.98244,2.42335
539,456,5.99353,-2.17694,0.00281498,0.00238949,0.00211725,0.00473014,0.000474322,0.735325,0.00300781,0.0158394,1763,568,5.99359,2.17695
546,456,5.98352,-1.98737,0.00389996,0.00317779,0.00282888,0.00639071,0.000687048,0.72192,0.00405092,0.0181872,1770,568,5.98356,1.98736
553,456,5.96533,-1.79303,0.00599161,0.0039498,0.00428895,0.00937949,0.000561925,0.668557,0.00607435,0.0132022,1777,568,5.96527,1.79306
560,456,5.96509,-1.59937,0.00824292,0.00474626,0.0056811,0.0124386,0.000550557,0.636125,0.00811513,0.0101958,1784,568,5.96508,1.59939
567,456,5.9801,-1.38403,0.0114933,0.00524443,0.00746787,0.016464,0.000273715,0.587273,0.0108859,0.0126359,1791,568,5.98014,1.38402
574,456,5.93823,-1.28461,0.0158322,0.00563791,0.00970456,0.0216968,-0.000226668,0.543584,0.0145407,0.0319833,1798,568,5.93829,1.28459
581,456,6.02991,-1.14282,0,0,0,0,0,0,0,-1,1805,568,6.02991,1.14282
588,456,5.23901,-0.0901489,0,0,0,0,0,0,0,-1,1812,568,5.23906,0.0901656
595,456,6.90063,3.14886,0,0,0,0,0,0,0,-1,1819,568,6.90066,-3.14887
602,456,9.85046,2.88794,0,0,0,0,0,0,0,-1,1826,568,9.85047,-2.88796
609,456,13.1351,2.96027,0,0,0,0,0,0,0,-1,1833,568,13.1351,-2.96027
616,456,16.0509,2.8313,0,0,0,0,0,0,0,-1,1840,568,16.0509,-2.8313
623,456,11.7659,2.72815,0,0,0,0,0,0,0,-1,1847,568,11.7658,-2.72815
630,456,0,0,0,0,0,0,0,0,0,-1,1854,568,0,0
637,456,0,0,0,0,0,0,0,0,0,-1,1861,568,0,0
644,456,0,0,0,0,0,0,0,0,0,-1,1868,568,0,0
651,456,0,0,0,0,0,0,0,0,0,-1,1875,568,0,0
658,456,0,0,0,0,0,0,0,0,0,-1,1882,568,0,0
665,456,0,0,0,0,0,0,0,0,0,-1,1889,568,0,0
672,456,0,0,0,0,0,0,0,0,0,-1,1896,568,0,0
679,456,0,0,0,0,0,0,0,0,0,-1,1903,568,0,0
686,456,0,0,0,0,0,0,0,0,0,-1,1910,568,0,0
693,456,0,0,0,0,0,0,0,0,0,-1,1917,568,0,0
700,456,0,0,0,0,0,0,0,0,0,-1,1924,568,0,0
707,456,0,0,0,0,0,0,0,0,0,-1,1931,568,0,0
714,456,0,0,0,0,0,0,0,0,0,-1,1938,568,0,0
721,456,0,0,0,0,0,0,0,0,0,-1,1945,568,0,0
728,456,0,0,0,0,0,0,0,0,0,-1,1952,568,0,0
735,456,0,0,0,0,0,0,0,0,0,-1,1959,568,0,0
742,456,0,0,0,0,0,0,0,0,0,-1,1966,568,0,0
749,456,0,0,0,0,0,0,0,0,0,-1,1973,568,0,0
756,456,0,0,0,0,0,0,0,0,0,-1,1980,568,0,0
763,456,0,0,0,0,0,0,0,0,0,-1,1987,568,0,0
770,456,0,0,0,0,0,0,0,0,0,-1,1994,568,0,0
777,456,0,0,0,0,0,0,0,0,0,-1,2001,568,0,0
784,456,0,0,0,0,0,0,0,0,0,-1,2008,568,0,0
791,456,0,0,0,0,0,0,0,0,0,-1,2015,568,0,0
798,456,0,0,0,0,0,0,0,0,0,-1,2022,568,0,0
805,456,0,0,0,0,0,0,0,0,0,-1,2029,568,0,0
812,456,0,0,0,0,0,0,0,0,0,-1,2036,568,0,0
-700,449,0,0,0,0,0,0,0,0,0,-1,524,575,0,0
-693,449,0,0,0,0,0,0,0,0,0,-1,531,575,0,0
-686,449,0,0,0,0,0,0,0,0,0,-1,538,575,0,0
-679,449,0,0,0,0,0,0,0,0,0,-1,545,575,0,0
-672,449,0,0,0,0,0,0,0,0,0,-1,552,575,0,0
-665,449,0,0,0,0,0,0,0,0,0,-1,559,575,0,0
-658,449,0,0,0,0,0,0,0,0,0,-1,566,575,0,0
-651,449,0,0,0,0,0,0,0,0,0,-1,573,575,0,0
-644,449,0,0,0,0,0,0,0,0,0,-1,580,575,0,0
-637,449,0,0,0,0,0,0,0,0,0,-1,587,575,0,0
-630,449,0,0,0,0,0,0,0,0,0,-1,594,575,0,0
-623,449,0,0,0,0,0,0,0,0,0,-1,601,575,0,0
-616,449,0,0,0,0,0,0,0,0,0,-1,608,575,0,0
-609,449,0,0,0,0,0,0,0,0,0,-1,615,575,0,0
-602,449,0,0,0,0,0,0,0,0,0,-1,622,575,0,0
-595,449,0,0,0,0,0,0,0,0,0,-1,629,575,0,0
-588,449,0,0,0,0,0,0,0,0,0,-1,636,575,0,0
-581,449,0,0,0,0,0,0,0,0,0,-1,643,575,0,0
-574,449,0,0,0,0,0,0,0,0,0,-1,650,575,0,0
-567,449,0,0,0,0,0,0,0,0,0,-1,657,575,0,0
-560,449,0,0,0,0,0,0,0,0,0,-1,664,575,0,0
-553,449,0,0,0,0,0,0,0,0,0,-1,671,575,0,0
-546,449,0,0,0,0,0,0,0,0,0,-1,678,575,0,0
-539,449,0,0,0,0,0,0,0,0,0,-1,685,575,0,0
-532,449,0,0,0,0,0,0,0,0,0,-1,692,575,0,0
-525,449,0,0,0,0,0,0,0,0,0,-1,699,575,0,0
-518,449,0,0,0,0,0,0,0,0,0,-1,706,575,0,0
-511,449,-0.941345,-4.4519,0,0,0,0,0,0,0,-1,713,575,-0.941356,4.45191
-504,449,-0.813354,-1.30457,0,0,0,0,0,0,0,-1,720,575,-0.813353,1.30454
-497,449,-1.06378,-0.79657,0,0,0,0,0,0,0,-1,727,575,-1.06381,0.796591
-490,449,-2.24689,2.591,0,0,0,0,0,0,0,-1,734,575,-2.24688,-2.59099
-483,449,-3.13385,-1.05109,0,0,0,0,0,0,0,-1,741,575,-3.13382,1.05107
-476,449,-2.12018,-1.27478,0,0,0,0,0,0,0,-1,748,575,-2.12021,1.27481
-469,449,-2.38306,-2.15222,0,0,0,0,0,0,0,-1,755,575,-2.38308,2.15225
-462,449,-1.72449,-2.63098,0,0,0,0,0,0,0,-1,762,575,-1.72451,2.63096
-455,449,-1.70575,-2.55054,0.0018279,0.0137839,-0.00696991,0.0169883,-0.00137649,-1.13987,0.0118111,0.0442767,769,575,-1.70573,2.55055
-448,449,-1.60492,-2.67981,0.000719879,0.0114144,-0.00563102,0.0138326,-0.00169826,-1.16518,0.00983679,0.0220207,776,575,-1.60489,2.67982
-441,449,-1.61102,-2.92444,0.000193781,0.00910228,-0.00445315,0.0109465,-0.00165045,-1.17816,0.00790546,0.0132112,783,575,-1.61105,2.92444
-434,449,-1.64484,-3.12793,-6.22587e-05,0.00693784,-0.00343865,0.00834439,-0.0014688,-1.18252,0.00611165,0.0115511,790,575,-1.64481,3.12792
-427,449,-1.64526,-3.29382,-7.37534e-05,0.00488888,-0.00247147,0.00590972,-0.00109459,-1.17909,0.00435082,0.0127646,797,575,-1.64529,3.29381
-420,449,-1.62781,-3.46637,-8.35552e-06,0.00294489,-0.00144895,0.00353705,-0.00060052,-1.18283,0.0025816,0.0131185,804,575,-1.62784,3.46639
-413,449,-1.62573,-3.6524,0.000572324,0.00133814,-0.000842569,0.00188073,2.97385e-05,-0.998675,0.00124403,0.0100397,811,575,-1.62576,3.65239
-406,449,-1.64587,-3.83862,0.00151917,0.000110546,-0.000472637,0.00166306,-3.33404e-05,-0.29552,0.00111998,0.00943807,818,575,-1.6459,3.83862
-399,449,-1.64246,-4.01862,0.00240143,-0.0012144,-0.000138841,0.00240675,-0.00121972,-0.0383227,0.00213081,0.00970025,825,575,-1.64247,4.01861
-392,449,-1.62292,-4.19824,0.00335998,-0.00267423,0.00021315,0.0033675,-0.00268175,0.0352649,0.00350001,0.0095337,832,575,-1.62291,4.19821
-385,449,-1.61115,-4.36414,0.00455946,-0.00444269,0.000511865,0.00458847,-0.0044717,0.0566171,0.00523104,0.00982158,839,575,-1.61117,4.36414
-378,449,-1.61761,-4.54578,0.00589184,-0.00664457,0.000830126,0.00594657,-0.0066993,0.0658341,0.00730541,0.00917855,846,575,-1.61759,4.54576
-371,449,-1.6131,-4.73828,0.00741628,-0.00861024,0.000736896,0.00745009,-0.00864405,0.0458508,0.00930048,0.0104658,853,575,-1.6131,4.73829
-364,449,-1.59753,-4.93353,0.00911968,-0.0114438,0.000866886,0.00915616,-0.0114802,0.0420572,0.0119396,0.0201682,860,575,-1.59756,4.93351
-357,449,-1.42163,-5.04016,0.011075,-0.0150403,0.00103617,0.011116,-0.0150814,0.0395939,0.0151827,0.0307605,867,575,-1.42165,5.04019
-350,449,-1.30615,-4.92456,0.013126,-0.0195355,0.001259,0.0131744,-0.019584,0.0384707,0.0190334,0.0442502,874,575,-1.30617,4.92454
-343,449,-1.44794,-4.82916,0.015237,-0.0250163,0.00167603,0.0153067,-0.0250859,0.0415414,0.0235474,0.0452956,881,575,-1.44795,4.82916
-336,449,-1.27881,-4.69873,0,0,0,0,0,0,0,-1,888,575,-1.27879,4.69872
-329,449,-1.5423,-4.95538,0,0,0,0,0,0,0,-1,895,575,-1.54229,4.95537
-322,449,-0.628845,-3.16669,0,0,0,0,0,0,0,-1,902,575,-0.628861,3.16667
-315,449,-0.540344,-3.21918,0,0,0,0,0,0,0,-1,909,575,-0.540336,3.21917
-308,449,-1.04413,-2.99341,0,0,0,0,0,0,0,-1,916,575,-1.04415,2.99338
-301,449,-1.58691,-2.80725,0,0,0,0,0,0,0,-1,923,575,-1.58692,2.80728
-294,449,-3.71118,-2.76086,0,0,0,0,0,0,0,-1,930,575,-3.71119,2.76087
-287,449,-4.4082,-2.69525,0,0,0,0,0,0,0,-1,937,575,-4.40822,2.69526
-280,449,-5.09955,-2.96295,0,0,0,0,0,0,0,-1,944,575,-5.09953,2.96297
-273,449,0,0,0,0,0,0,0,0,0,-1,951,575,0,0
-266,449,0,0,0,0,0,0,0,0,0,-1,958,575,0,0
-259,449,0,0,0,0,0,0,0,0,0,-1,965,575,0,0
-252,449,0,0,0,0,0,0,0,0,0,-1,972,575,0,0
-245,449,0,0,0,0,0,0,0,0,0,-1,979,575,0,0
-238,449,0,0,0,0,0,0,0,0,0,-1,986,575,0,0
-231,449,0,0,0,0,0,0,0,0,0,-1,993,575,0,0
-224,449,0,0,0,0,0,0,0,0,0,-1,1000,575,0,0
-217,449,0,0,0,0,0,0,0,0,0,-1,1007,575,0,0
-210,449,0,0,0,0,0,0,0,0,0,-1,1014,575,0,0
-203,449,0,0,0,0,0,0,0,0,0,-1,1021,575,0,0
-196,449,0,0,0,0,0,0,0,0,0,-1,1028,575,0,0
-189,449,0,0,0,0,0,0,0,0,0,-1,1035,575,0,0
-182,449,0,0,0,0,0,0,0,0,0,-1,1042,575,0,0
-175,449,0,0,0,0,0,0,0,0,0,-1,1049,575,0,0
-168,449,0,0,0,0,0,0,0,0,0,-1,1056,575,0,0
-161,449,0,0,0,0,0,0,0,0,0,-1,1063,575,0,0
-154,449,0,0,0,0,0,0,0,0,0,-1,1070,575,0,0
-147,449,0,0,0,0,0,0,0,0,0,-1,1077,575,0,0
-140,449,0,0,0,0,0,0,0,0,0,-1,1084,575,0,0
-133,449,0,0,0,0,0,0,0,0,0,-1,1091,575,0,0
-126,449,0,0,0,0,0,0,0,0,0,-1,1098,575,0,0
-119,449,0,0,0,0,0,0,0,0,0,-1,1105,575,0,0
-112,449,0,0,0,0,0,0,0,0,0,-1,1112,575,0,0
-105,449,0,0,0,0,0,0,0,0,0,-1,1119,575,0,0
-98,449,0,0,0,0,0,0,0,0,0,-1,1126,575,0,0
-91,449,0,0,0,0,0,0,0,0,0,-1,1133,575,0,0
-84,449,0,0,0,0,0,0,0,0,0,-1,1140,575,0,0
-77,449,0,0,0,0,0,0,0,0,0,-1,1147,575,0,0
-70,449,0,0,0,0,0,0,0,0,0,-1,1154,575,0,0
-63,449,0,0,0,0,0,0,0,0,0,-1,1161,575,0,0
-56,449,0,0,0,0,0,0,0,0,0,-1,1168,575,0,0
-49,449,0,0,0,0,0,0,0,0,0,-1,1175,575,0,0
-42,449,0,0,0,0,0,0,0,0,0,-1,1182,575,0,0
-35,449,0,0,0,0,0,0,0,0,0,-1,1189,575,0,0
-28,449,0,0,0,0,0,0,0,0,0,-1,1196,575,0,0
-21,449,0,0,0,0,0,0,0,0,0,-1,1203,575,0,0
-14,449,0,0,0,0,0,0,0,0,0,-1,1210,575,0,0
-7,449,0,0,0,0,0,0,0,0,0,-1,1217,575,0,0
0,449,0,0,0,0,0,0,0,0,0,-1,1224,575,0,0
7,449,0,0,0,0,0,0,0,0,0,-1,1231,575,0,0
14,449,0,0,0,0,0,0,0,0,0,-1,1238,575,0,0
21,449,0,0,0,0,0,0,0,0,0,-1,1245,575,0,0
28,449,0,0,0,0,0,0,0,0,0,-1,1252,575,0,0
35,449,0,0,0,0,0,0,0,0,0,-1,1259,575,0,0
42,449,0,0,0,0,0,0,0,0,0,-1,1266,575,0,0
49,449,0,0,0,0,0,0,0,0,0,-1,1273,575,0,0
56,449,0,0,0,0,0,0,0,0,0,-1,1280,575,0,0
63,449,0,0,0,0,0,0,0,0,0,-1,1287,575,0,0
70,449,0,0,0,0,0,0,0,0,0,-1,1294,575,0,0
77,449,0,0,0,0,0,0,0,0,0,-1,1301,575,0,0
84,449,0,0,0,0,0,0,0,0,0,-1,1308,575,0,0
91,449,0,0,0,0,0,0,0,0,0,-1,1315,575,0,0
98,449,0,0,0,0,0,0,0,0,0,-1,1322,575,0,0
105,449,0,0,0,0,0,0,0,0,0,-1,1329,575,0,0
112,449,0,0,0,0,0,0,0,0,0,-1,1336,575,0,0
119,449,0,0,0,0,0,0,0,0,0,-1,1343,575,0,0
126,449,0,0,0,0,0,0,0,0,0,-1,1350,575,0,0
133,449,0,0,0,0,0,0,0,0,0,-1,1357,575,0,0
140,449,0,0,0,0,0,0,0,0,0,-1,1364,575,0,0
147,449,0,0,0,0,0,0,0,0,0,-1,1371,575,0,0
154,449,0,0,0,0,0,0,0,0,0,-1,1378,575,0,0
161,449,0,0,0,0,0,0,0,0,0,-1,1385,575,0,0
168,449,0,0,0,0,0,0,0,0,0,-1,1392,575,0,0
175,449,0,0,0,0,0,0,0,0,0,-1,1399,575,0,0
182,449,0,0,0,0,0,0,0,0,0,-1,1406,575,0,0
189,449,0,0,0,0,0,0,0,0,0,-1,1413,575,0,0
196,449,0,0,0,0,0,0,0,0,0,-1,1420,575,0,0
203,449,0,0,0,0,0,0,0,0,0,-1,1427,575,0,0
210,449,0,0,0,0,0,0,0,0,0,-1,1434,575,0,0
217,449,0,0,0,0,0,0,0,0,0,-1,1441,575,0,0
224,449,0,0,0,0,0,0,0,0,0,-1,1448,575,0,0
231,449,0,0,0,0,0,0,0,0,0,-1,1455,575,0,0
238,449,0,0,0,0,0,0,0,0,0,-1,1462,575,0,0
245,449,0,0,0,0,0,0,0,0,0,-1,1469,575,0,0
252,449,0,0,0,0,0,0,0,0,0,-1,1476,575,0,0
259,449,0,0,0,0,0,0,0,0,0,-1,1483,575,0,0
266,449,0,0,0,0,0,0,0,0,0,-1,1490,575,0,0
273,449,0,0,0,0,0,0,0,0,0,-1,1497,575,0,0
280,449,0,0,0,0,0,0,0,0,0,-1,1504,575,0,0
287,449,0,0,0,0,0,0,0,0,0,-1,1511,575,0,0
294,449,0,0,0,0,0,0,0,0,0,-1,1518,575,0,0
301,449,0,0,0,0,0,0,0,0,0,-1,1525,575,0,0
308,449,0,0,0,0,0,0,0,0,0,-1,1532,575,0,0
315,449,0,0,0,0,0,0,0,0,0,-1,1539,575,0,0
322,449,0,0,0,0,0,0,0,0,0,-1,1546,575,0,0
329,449,0,0,0,0,0,0,0,0,0,-1,1553,575,0,0
336,449,0,0,0,0,0,0,0,0,0,-1,1560,575,0,0
343,449,0,0,0,0,0,0,0,0,0,-1,1567,575,0,0
350,449,0,0,0,0,0,0,0,0,0,-1,1574,575,0,0
357,449,0,0,0,0,0,0,0,0,0,-1,1581,575,0,0
364,449,0,0,0,0,0,0,0,0,0,-1,1588,575,0,0
371,449,0,0,0,0,0,0,0,0,0,-1,1595,575,0,0
378,449,0,0,0,0,0,0,0,0,0,-1,1602,575,0,0
385,449,0,0,0,0,0,0,0,0,0,-1,1609,575,0,0
392,449,7.95471,3.66217,0,0,0,0,0,0,0,-1,1616,575,7.95471,-3.66218
399,449,13.2654,3.99298,0,0,0,0,0,0,0,-1,1623,575,13.2653,-3.99298
406,449,13.342,2.82446,0,0,0,0,0,0,0,-1,1630,575,13.342,-2.82445
413,449,13.4187,1.65594,0,0,0,0,0,0,0,-1,1637,575,13.4187,-1.65591
420,449,4.70264,2.21893,0,0,0,0,0,0,0,-1,1644,575,4.70263,-2.21894
427,449,8.96924,-4.53351,0,0,0,0,0,0,0,-1,1651,575,8.96925,4.53353
434,449,4.12927,-7.06952,0,0,0,0,0,0,0,-1,1658,575,4.12932,7.06952
441,449,3.89856,-6.06458,0,0,0,0,0,0,0,-1,1665,575,3.89855,6.06459
448,449,4.03198,-5.18207,0,0,0,0,0,0,0,-1,1672,575,4.03197,5.18207
455,449,4.21948,-4.09467,0,0,0,0,0,0,0,-1,1679,575,4.21952,4.09465
462,449,4.23181,-2.96924,0,0,0,0,0,0,0,-1,1686,575,4.23185,2.96926
469,449,4.51672,-2.95135,0,0,0,0,0,0,0,-1,1693,575,4.51672,2.95135
476,449,4.71838,-1.86688,0,0,0,0,0,0,0,-1,1700,575,4.71842,1.86689
483,449,4.87878,-1.73126,0,0,0,0,0,0,0,-1,1707,575,4.87875,1.73128
490,449,5.73279,-2.74573,0,0,0,0,0,0,0,-1,1714,575,5.73282,2.74575
497,449,6.11084,-3.5434,0,0,0,0,0,0,0,-1,1721,575,6.1109,3.54338
504,449,6.13721,-3.23761,0.00342961,0.00228438,0.00142878,0.00439625,0.00131774,0.594813,0.00260515,0.0305086,1728,575,6.13726,3.23761
511,449,6.17273,-3.0116,0.00285597,0.00124334,0.00112074,0.00343031,0.000669007,0.473568,0.0020997,0.0105103,1735,575,6.17273,3.01162
518,449,6.19568,-2.81415,0.00230838,0.00084915,0.000844653,0.00269491,0.000462621,0.429171,0.00166398,0.0129313,1742,575,6.19568,2.81417
525,449,6.18091,-2.63251,0.00224787,0.00092771,0.000996224,0.00278285,0.00039273,0.492813,0.00173917,0.0129228,1749,575,6.18089,2.63248
532,449,6.16309,-2.4212,0.00221709,0.00122309,0.00117692,0.00299765,0.000442536,0.585611,0.00186847,0.0106579,1756,575,6.16303,2.42121
539,449,6.15125,-2.2196,0.00233772,0.00157548,0.00145976,0.00346529,0.000447902,0.657707,0.00217631,0.0116389,1763,575,6.15118,2.21959
546,449,6.16943,-2.03064,0.00302988,0.0021096,0.00191288,0.00453719,0.000602296,0.667367,0.00284536,0.0191986,1770,575,6.16949,2.03063
553,449,6.16663,-1.82813,0.00460358,0.0025922,0.00301069,0.00677211,0.000423675,0.624205,0.00438035,0.015293,1777,575,6.16666,1.8281
560,449,6.18213,-1.62677,0.00629149,0.0030642,0.00402679,0.00901592,0.000339774,0.594832,0.00590062,0.0131869,1784,575,6.18208,1.62676
567,449,6.17175,-1.4093,0.00877133,0.0032467,0.00534854,0.0120288,-1.07228e-05,0.547033,0.00802275,0.00944041,1791,575,6.17178,1.40932
574,449,6.17273,-1.17822,0.0121832,0.003327,0.00706581,0.0160938,-0.00058358,0.505489,0.0109289,0.0168193,1798,575,6.17273,1.17823
581,449,6.14734,-0.96637,0.0166149,0.0031473,0.0093438,0.0213985,-0.00163631,0.473167,0.0148412,0.0385245,1805,575,6.14733,0.966363
588,449,6.19641,-0.822327,0,0,0,0,0,0,0,-1,1812,575,6.19646,0.822318
595,449,6.55066,-0.568481,0,0,0,0,0,0,0,-1,1819,575,6.55068,0.568472
602,449,8.14661,-0.394287,0,0,0,0,0,0,0,-1,1826,575,8.14662,0.394303
609,449,10.9318,3.04095,0,0,0,0,0,0,0,-1,1833,575,10.9318,-3.04097
616,449,8.89563,1.21643,0,0,0,0,0,0,0,-1,1840,575,8.89568,-1.21645
623,449,9.83789,-0.0820313,0,0,0,0,0,0,0,-1,1847,575,9.83794,0.0820443
630,449,8.90686,4.99329,0,0,0,0,0,0,0,-1,1854,575,8.90685,-4.99327
637,449,0,0,0,0,0,0,0,0,0,-1,1861,575,0,0
644,449,0,0,0,0,0,0,0,0,0,-1,1868,575,0,0
651,449,0,0,0,0,0,0,0,0,0,-1,1875,575,0,0
658,449,0,0,0,0,0,0,0,0,0,-1,1882,575,0,0
665,449,0,0,0,0,0,0,0,0,0,-1,1889,575,0,0
672,449,0,0,0,0,0,0,0,0,0,-1,1896,575,0,0
679,449,0,0,0,0,0,0,0,0,0,-1,1903,575,0,0
686,449,0,0,0,0,0,0,0,0,0,-1,1910,575,0,0
693,449,0,0,0,0,0,0,0,0,0,-1,1917,575,0,0
700,449,0,0,0,0,0,0,0,0,0,-1,1924,575,0,0
707,449,0,0,0,0,0,0,0,0,0,-1,1931,575,0,0
714,449,0,0,0,0,0,0,0,0,0,-1,1938,575,0,0
721,449,0,0,0,0,0,0,0,0,0,-1,1945,575,0,0
728,449,0,0,0,0,0,0,0,0,0,-1,1952,575,0,0
735,449,0,0,0,0,0,0,0,0,0,-1,1959,575,0,0
742,449,0,0,0,0,0,0,0,0,0,-1,1966,575,0,0
749,449,0,0,0,0,0,0,0,0,0,-1,1973,575,0,0
756,449,0,0,0,0,0,0,0,0,0,-1,1980,575,0,0
763,449,0,0,0,0,0,0,0,0,0,-1,1987,575,0,0
770,449,0,0,0,0,0,0,0,0,0,-1,1994,575,0,0
777,449,0,0,0,0,0,0,0,0,0,-1,2001,575,0,0
784,449,0,0,0,0,0,0,0,0,0,-1,2008,575,0,0
791,449,0,0,0,0,0,0,0,0,0,-1,2015,575,0,0
798,449,0,0,0,0,0,0,0,0,0,-1,2022,575,0,0
805,449,0,0,0,0,0,0,0,0,0,-1,2029,575,0,0
812,449,0,0,0,0,0,0,0,0,0,-1,2036,575,0,0
-700,442,0,0,0,0,0,0,0,0,0,-1,524,582,0,0
-693,442,0,0,0,0,0,0,0,0,0,-1,531,582,0,0
-686,442,0,0,0,0,0,0,0,0,0,-1,538,582,0,0
-679,442,0,0,0,0,0,0,0,0,0,-1,545,582,0,0
-672,442,0,0,0,0,0,0,0,0,0,-1,552,582,0,0
-665,442,0,0,0,0,0,0,0,0,0,-1,559,582,0,0
-658,442,0,0,0,0,0,0,0,0,0,-1,566,582,0,0
-651,442,0,0,0,0,0,0,0,0,0,-1,573,582,0,0
-644,442,0,0,0,0,0,0,0,0,0,-1,580,582,0,0
-637,442,0,0,0,0,0,0,0,0,0,-1,587,582,0,0
-630,442,0,0,0,0,0,0,0,0,0,-1,594,582,0,0
-623,442,0,0,0,0,0,0,0,0,0,-1,601,582,0,0
-616,442,0,0,0,0,0,0,0,0,0,-1,608,582,0,0
-609,442,0,0,0,0,0,0,0,0,0,-1,615,582,0,0
-602,442,0,0,0,0,0,0,0,0,0,-1,622,582,0,0
-595,442,0,0,0,0,0,0,0,0,0,-1,629,582,0,0
-588,442,0,0,0,0,0,0,0,0,0,-1,636,582,0,0
-581,442,0,0,0,0,0,0,0,0,0,-1,643,582,0,0
-574,442,0,0,0,0,0,0,0,0,0,-1,650,582,0,0
-567,442,0,0,0,0,0,0,0,0,0,-1,657,582,0,0
-560,442,0,0,0,0,0,0,0,0,0,-1,664,582,0,0
-553,442,0,0,0,0,0,0,0,0,0,-1,671,582,0,0
-546,442,0,0,0,0,0,0,0,0,0,-1,678,582,0,0
-539,442,0,0,0,0,0,0,0,0,0,-1,685,582,0,0
-532,442,0,0,0,0,0,0,0,0,0,-1,692,582,0,0
-525,442,0,0,0,0,0,0,0,0,0,-1,699,582,0,0
-518,442,-3.98541,-5.81055,0,0,0,0,0,0,0,-1,706,582,-3.98541,5.81057
-511,442,-2.64435,-5.87549,0,0,0,0,0,0,0,-1,713,582,-2.64437,5.87549
-504,442,-2.36841,-6.06586,0,0,0,0,0,0,0,-1,720,582,-2.36838,6.06589
-497,442,-4.27875,-4.42181,0,0,0,0,0,0,0,-1,727,582,-4.27876,4.42182
-490,442,-3.77386,0.204468,0,0,0,0,0,0,0,-1,734,582,-3.77388,-0.204476
-483,442,-2.79395,-1.12451,0,0,0,0,0,0,0,-1,741,582,-2.79395,1.1245
-476,442,-2.14783,-1.12506,0,0,0,0,0,0,0,-1,748,582,-2.14783,1.12503
-469,442,-2.25244,-2.1098,0,0,0,0,0,0,0,-1,755,582,-2.25243,2.10981
-462,442,-2.0686,-2.4668,0,0,0,0,0,0,0,-1,762,582,-2.06859,2.46682
-455,442,-1.86096,-2.60681,0.00194087,0.00981302,-0.00506745,0.0122935,-0.000539574,-1.1156,0.00838129,0.0238647,769,582,-1.86098,2.6068
-448,442,-1.78931,-2.71765,0.00109136,0.00844812,-0.00417643,0.0103351,-0.0007956,-1.14644,0.00716998,0.0126565,776,582,-1.78932,2.71767
-441,442,-1.80322,-2.91699,0.000584455,0.00676489,-0.00331012,0.00820306,-0.000853719,-1.16093,0.00577436,0.0129155,783,582,-1.80324,2.91698
-434,442,-1.81671,-3.12628,0.000241779,0.00504741,-0.00250149,0.00611317,-0.000823977,-1.16804,0.00437604,0.0125288,790,582,-1.81671,3.12628
-427,442,-1.83881,-3.29401,0.000140127,0.00334239,-0.00166,0.0040476,-0.000565083,-1.16907,0.00290514,0.0131313,797,582,-1.83881,3.294
-420,442,-1.81421,-3.47394,0.000161823,0.00161705,-0.00072693,0.00191796,-0.000139081,-1.17833,0.00132743,0.0137354,804,582,-1.81419,3.47391
-413,442,-1.8067,-3.6521,0.00074889,8.75894e-05,-0.000200626,0.000804996,3.14835e-05,-0.272688,0.000526483,0.0111007,811,582,-1.80668,3.65208
-406,442,-1.81824,-3.84027,0.0017563,-0.00108991,0.00011494,0.00176093,-0.00109455,0.040296,0.00166351,0.00907579,818,582,-1.81822,3.84024
-399,442,-1.81531,-4.02533,0.00274453,-0.00247677,0.000433755,0.00278032,-0.00251256,0.0823222,0.00305715,0.00837093,825,582,-1.81529,4.02535
-392,442,-1.80804,-4.19531,0.00385313,-0.00408004,0.000798663,0.00393273,-0.00415964,0.0993457,0.00467275,0.00984452,832,582,-1.80806,4.19532
-385,442,-1.79297,-4.36084,0.00524315,-0.00593952,0.0010668,0.00534401,-0.00604038,0.0942645,0.00657688,0.011692,839,582,-1.79294,4.36083
-378,442,-1.79547,-4.53967,0.00681782,-0.00853044,0.00143177,0.00695024,-0.00866286,0.0922252,0.00903229,0.0118139,846,582,-1.79544,4.5397
-371,442,-1.7962,-4.73022,0.00870419,-0.010989,0.00141387,0.00880518,-0.01109,0.0713074,0.0115117,0.0222091,853,582,-1.79622,4.73021
-364,442,-1.75604,-4.95166,0.0108429,-0.0145239,0.00163612,0.010948,-0.014629,0.0641442,0.0148178,0.0390333,860,582,-1.75607,4.95165
-357,442,-1.29962,-5.23615,0.0132562,-0.0190032,0.00195619,0.0133744,-0.0191214,0.0603446,0.018859,0.0470146,867,582,-1.29962,5.23618
-350,442,-1.47595,-4.79059,0,0,0,0,0,0,0,-1,874,582,-1.47597,4.7906
-343,442,-1.67657,-4.6413,0,0,0,0,0,0,0,-1,881,582,-1.67657,4.64131
-336,442,-0.935913,-3.07611,0,0,0,0,0,0,0,-1,888,582,-0.935899,3.07609
-329,442,-0.952576,-2.76923,0,0,0,0,0,0,0,-1,895,582,-0.952571,2.7692
-322,442,-0.972534,-2.63208,0,0,0,0,0,0,0,-1,902,582,-0.972512,2.6321
-315,442,-0.445557,-2.89764,0,0,0,0,0,0,0,-1,909,582,-0.445582,2.89765
-308,442,-0.654175,-3.07831,0,0,0,0,0,0,0,-1,916,582,-0.654145,3.07832
-301,442,-1.37427,-2.41455,0,0,0,0,0,0,0,-1,923,582,-1.37425,2.41453
-294,442,-1.67377,-2.23328,0,0,0,0,0,0,0,-1,930,582,-1.67378,2.23326
-287,442,-5.00836,-2.38507,0,0,0,0,0,0,0,-1,937,582,-5.00839,2.38506
-280,442,0,0,0,0,0,0,0,0,0,-1,944,582,0,0
-273,442,0,0,0,0,0,0,0,0,0,-1,951,582,0,0
-266,442,0,0,0,0,0,0,0,0,0,-1,958,582,0,0
-259,442,0,0,0,0,0,0,0,0,0,-1,965,582,0,0
-252,442,0,0,0,0,0,0,0,0,0,-1,972,582,0,0
-245,442,0,0,0,0,0,0,0,0,0,-1,979,582,0,0
-238,442,0,0,0,0,0,0,0,0,0,-1,986,582,0,0
-231,442,0,0,0,0,0,0,0,0,0,-1,993,582,0,0
-224,442,0,0,0,0,0,0,0,0,0,-1,1000,582,0,0
-217,442,0,0,0,0,0,0,0,0,0,-1,1007,582,0,0
-210,442,0,0,0,0,0,0,0,0,0,-1,1014,582,0,0
-203,442,0,0,0,0,0,0,0,0,0,-1,1021,582,0,0
-196,442,0,0,0,0,0,0,0,0,0,-1,1028,582,0,0
-189,442,0,0,0,0,0,0,0,0,0,-1,1035,582,0,0
-182,442,0,0,0,0,0,0,0,0,0,-1,1042,582,0,0
-175,442,0,0,0,0,0,0,0,0,0,-1,1049,582,0,0
-168,442,0,0,0,0,0,0,0,0,0,-1,1056,582,0,0
-161,442,0,0,0,0,0,0,0,0,0,-1,1063,582,0,0
-154,442,0,0,0,0,0,0,0,0,0,-1,1070,582,0,0
-147,442,0,0,0,0,0,0,0,0,0,-1,1077,582,0,0
-140,442,0,0,0,0,0,0,0,0,0,-1,1084,582,0,0
-133,442,0,0,0,0,0,0,0,0,0,-1,1091,582,0,0
-126,442,0,0,0,0,0,0,0,0,0,-1,1098,582,0,0
-119,442,0,0,0,0,0,0,0,0,0,-1,1105,582,0,0
-112,442,0,0,0,0,0,0,0,0,0,-1,1112,582,0,0
-105,442,0,0,0,0,0,0,0,0,0,-1,1119,582,0,0
-98,442,0,0,0,0,0,0,0,0,0,-1,1126,582,0,0
-91,442,0,0,0,0,0,0,0,0,0,-1,1133,582,0,0
-84,442,0,0,0,0,0,0,0,0,0,-1,1140,582,0,0
-77,442,0,0,0,0,0,0,0,0,0,-1,1147,582,0,0
-70,442,0,0,0,0,0,0,0,0,0,-1,1154,582,0,0
-63,442,0,0,0,0,0,0,0,0,0,-1,1161,582,0,0
-56,442,0,0,0,0,0,0,0,0,0,-1,1168,582,0,0
-49,442,0,0,0,0,0,0,0,0,0,-1,1175,582,0,0
-42,442,0,0,0,0,0,0,0,0,0,-1,1182,582,0,0
-35,442,0,0,0,0,0,0,0,0,0,-1,1189,582,0,0
-28,442,0,0,0,0,0,0,0,0,0,-1,1196,582,0,0
-21,442,0,0,0,0,0,0,0,0,0,-1,1203,582,0,0
-14,442,0,0,0,0,0,0,0,0,0,-1,1210,582,0,0
-7,442,0,0,0,0,0,0,0,0,0,-1,1217,582,0,0
0,442,0,0,0,0,0,0,0,0,0,-1,1224,582,0,0
7,442,0,0,0,0,0,0,0,0,0,-1,1231,582,0,0
14,442,0,0,0,0,0,0,0,0,0,-1,1238,582,0,0
21,442,0,0,0,0,0,0,0,0,0,-1,1245,582,0,0
28,442,0,0,0,0,0,0,0,0,0,-1,1252,582,0,0
35,442,0,0,0,0,0,0,0,0,0,-1,1259,582,0,0
42,442,0,0,0,0,0,0,0,0,0,-1,1266,582,0,0
49,442,0,0,0,0,0,0,0,0,0,-1,1273,582,0,0
56,442,0,0,0,0,0,0,0,0,0,-1,1280,582,0,0
63,442,0,0,0,0,0,0,0,0,0,-1,1287,582,0,0
70,442,0,0,0,0,0,0,0,0,0,-1,1294,582,0,0
77,442,0,0,0,0,0,0,0,0,0,-1,1301,582,0,0
84,442,0,0,0,0,0,0,0,0,0,-1,1308,582,0,0
91,442,0,0,0,0,0,0,0,0,0,-1,1315,582,0,0
98,442,0,0,0,0,0,0,0,0,0,-1,1322,582,0,0
105,442,0,0,0,0,0,0,0,0,0,-1,1329,582,0,0
112,442,0,0,0,0,0,0,0,0,0,-1,1336,582,0,0
119,442,0,0,0,0,0,0,0,0,0,-1,1343,582,0,0
126,442,0,0,0,0,0,0,0,0,0,-1,1350,582,0,0
133,442,0,0,0,0,0,0,0,0,0,-1,1357,582,0,0
140,442,0,0,0,0,0,0,0,0,0,-1,1364,582,0,0
147,442,0,0,0,0,0,0,0,0,0,-1,1371,582,0,0
154,442,0,0,0,0,0,0,0,0,0,-1,1378,582,0,0
161,442,0,0,0,0,0,0,0,0,0,-1,1385,582,0,0
168,442,0,0,0,0,0,0,0,0,0,-1,1392,582,0,0
175,442,0,0,0,0,0,0,0,0,0,-1,1399,582,0,0
182,442,0,0,0,0,0,0,0,0,0,-1,1406,582,0,0
189,442,0,0,0,0,0,0,0,0,0,-1,1413,582,0,0
196,442,0,0,0,0,0,0,0,0,0,-1,1420,582,0,0
203,442,0,0,0,0,0,0,0,0,0,-1,1427,582,0,0
210,442,0,0,0,0,0,0,0,0,0,-1,1434,582,0,0
217,442,0,0,0,0,0,0,0,0,0,-1,1441,582,0,0
224,442,0,0,0,0,0,0,0,0,0,-1,1448,582,0,0
231,442,0,0,0,0,0,0,0,0,0,-1,1455,582,0,0
238,442,0,0,0,0,0,0,0,0,0,-1,1462,582,0,0
245,442,0,0,0,0,0,0,0,0,0,-1,1469,582,0,0
252,442,0,0,0,0,0,0,0,0,0,-1,1476,582,0,0
259,442,0,0,0,0,0,0,0,0,0,-1,1483,582,0,0
266,442,0,0,0,0,0,0,0,0,0,-1,1490,582,0,0
273,442,0,0,0,0,0,0,0,0,0,-1,1497,582,0,0
280,442,0,0,0,0,0,0,0,0,0,-1,1504,582,0,0
287,442,0,0,0,0,0,0,0,0,0,-1,1511,582,0,0
294,442,0,0,0,0,0,0,0,0,0,-1,1518,582,0,0
301,442,0,0,0,0,0,0,0,0,0,-1,1525,582,0,0
308,442,0,0,0,0,0,0,0,0,0,-1,1532,582,0,0
315,442,0,0,0,0,0,0,0,0,0,-1,1539,582,0,0
322,442,0,0,0,0,0,0,0,0,0,-1,1546,582,0,0
329,442,0,0,0,0,0,0,0,0,0,-1,1553,582,0,0
336,442,0,0,0,0,0,0,0,0,0,-1,1560,582,0,0
343,442,0,0,0,0,0,0,0,0,0,-1,1567,582,0,0
350,442,0,0,0,0,0,0,0,0,0,-1,1574,582,0,0
357,442,0,0,0,0,0,0,0,0,0,-1,1581,582,0,0
364,442,0,0,0,0,0,0,0,0,0,-1,1588,582,0,0
371,442,0,0,0,0,0,0,0,0,0,-1,1595,582,0,0
378,442,0,0,0,0,0,0,0,0,0,-1,1602,582,0,0
385,442,0,0,0,0,0,0,0,0,0,-1,1609,582,0,0
392,442,0,0,0,0,0,0,0,0,0,-1,1616,582,0,0
399,442,0,0,0,0,0,0,0,0,0,-1,1623,582,0,0
406,442,11.4988,3.2121,0,0,0,0,0,0,0,-1,1630,582,11.4988,-3.21209
413,442,3.66699,2.87408,0,0,0,0,0,0,0,-1,1637,582,3.66703,-2.87408
420,442,4.69055,3.09448,0,0,0,0,0,0,0,-1,1644,582,4.69054,-3.0945
427,442,2.44519,-1.35358,0,0,0,0,0,0,0,-1,1651,582,2.44514,1.35361
434,442,8.45898,-3.86719,0,0,0,0,0,0,0,-1,1658,582,8.45904,3.86719
441,442,4.89368,-7.42456,0,0,0,0,0,0,0,-1,1665,582,4.89365,7.42457
448,442,4.7749,-5.88562,0,0,0,0,0,0,0,-1,1672,582,4.7749,5.8856
455,442,4.87024,-4.60687,0,0,0,0,0,0,0,-1,1679,582,4.87019,4.60686
462,442,5.02307,-3.72821,0,0,0,0,0,0,0,-1,1686,582,5.02311,3.7282
469,442,5.12976,-2.98834,0,0,0,0,0,0,0,-1,1693,582,5.12971,2.98834
476,442,5.4624,1.76947,0,0,0,0,0,0,0,-1,1700,582,5.46234,-1.76944
483,442,5.98486,1.87042,0,0,0,0,0,0,0,-1,1707,582,5.98492,-1.87045
490,442,5.04407,-2.35834,0,0,0,0,0,0,0,-1,1714,582,5.04411,2.35837
497,442,6.20984,-3.07831,0,0,0,0,0,0,0,-1,1721,582,6.2098,3.07833
504,442,6.24182,-3.24457,0,0,0,0,0,0,0,-1,1728,582,6.24184,3.24456
511,442,6.3064,-3.021,0.00321053,0.00100288,0.000990075,0.0035895,0.000623915,0.365564,0.00221452,0.0194251,1735,582,6.30634,3.02098
518,442,6.39832,-2.81891,0.00235918,0.000436894,0.000530094,0.00249567,0.000300405,0.252007,0.00157323,0.0106614,1742,582,6.39835,2.81891
525,442,6.37378,-2.62683,0.00216536,0.000445401,0.000643698,0.00237959,0.000231177,0.321271,0.00151522,0.0103173,1749,582,6.3738,2.62686
532,442,6.3822,-2.41138,0.00195893,0.000623505,0.00072914,0.00227989,0.000302538,0.414673,0.00142979,0.0106961,1756,582,6.38225,2.41135
539,442,6.3634,-2.21289,0.00186768,0.000838087,0.000880956,0.00237323,0.000332541,0.520977,0.00148378,0.0105138,1763,582,6.36343,2.2129
546,442,6.36548,-2.04144,0.00223998,0.00122028,0.0011754,0.00301134,0.000448914,0.580761,0.00187592,0.0128538,1770,582,6.36546,2.04145
553,442,6.35815,-1.82239,0.00336944,0.00153736,0.00198494,0.00463952,0.000267278,0.569213,0.00300788,0.0145442,1777,582,6.35817,1.82241
560,442,6.37158,-1.60382,0.00464258,0.00183023,0.0027502,0.00632524,0.00014757,0.549075,0.00416851,0.0136567,1784,582,6.37164,1.60383
567,442,6.37036,-1.39777,0.00653911,0.00186671,0.00375433,0.00862477,-0.000218947,0.507081,0.0058242,0.00966702,1791,582,6.37041,1.39775
574,442,6.37341,-1.18933,0.00924386,0.00182333,0.00511189,0.01185,-0.000782848,0.471478,0.00817349,0.011441,1798,582,6.37336,1.1893
581,442,6.40234,-0.964783,0.0127263,0.00158692,0.00685933,0.0159924,-0.00167922,0.444394,0.0112632,0.0158616,1805,582,6.4023,0.964762
588,442,6.37793,-0.844299,0.0172432,0.00108666,0.00913231,0.0213574,-0.00302759,0.423283,0.0153474,0.0221186,1812,582,6.37791,0.844324
595,442,6.50122,-0.643738,0.0230158,0.000366568,0.0120579,0.0282333,-0.00485087,0.408374,0.0206301,0.0377055,1819,582,6.50117,0.643741
602,442,7.73352,-0.556641,0.0305468,-0.00108009,0.0158171,0.0370995,-0.00763279,0.392757,0.0276309,0.0488128,1826,582,7.73356,0.55666
609,442,8.64087,-0.567139,0,0,0,0,0,0,0,-1,1833,582,8.64084,0.567151
616,442,7.16003,-1.18372,0,0,0,0,0,0,0,-1,1840,582,7.16,1.18373
623,442,9.23828,0.326721,0,0,0,0,0,0,0,-1,1847,582,9.23829,-0.326727
630,442,7.74304,2.3924,0,0,0,0,0,0,0,-1,1854,582,7.7431,-2.39238
637,442,5.87805,1.84027,0,0,0,0,0,0,0,-1,1861,582,5.87807,-1.84025
644,442,0,0,0,0,0,0,0,0,0,-1,1868,582,0,0
651,442,0,0,0,0,0,0,0,0,0,-1,1875,582,0,0
658,442,0,0,0,0,0,0,0,0,0,-1,1882,582,0,0
665,442,0,0,0,0,0,0,0,0,0,-1,1889,582,0,0
672,442,0,0,0,0,0,0,0,0,0,-1,1896,582,0,0
679,442,0,0,0,0,0,0,0,0,0,-1,1903,582,0,0
686,442,0,0,0,0,0,0,0,0,0,-1,1910,582,0,0
693,442,0,0,0,0,0,0,0,0,0,-1,1917,582,0,0
700,442,0,0,0,0,0,0,0,0,0,-1,1924,582,0,0
707,442,0,0,0,0,0,0,0,0,0,-1,1931,582,0,0
714,442,0,0,0,0,0,0,0,0,0,-1,1938,582,0,0
721,442,0,0,0,0,0,0,0,0,0,-1,1945,582,0,0
728,442,0,0,0,0,0,0,0,0,0,-1,1952,582,0,0
735,442,0,0,0,0,0,0,0,0,0,-1,1959,582,0,0
742,442,0,0,0,0,0,0,0,0,0,-1,1966,582,0,0
749,442,0,0,0,0,0,0,0,0,0,-1,1973,582,0,0
756,442,0,0,0,0,0,0,0,0,0,-1,1980,582,0,0
763,442,0,0,0,0,0,0,0,0,0,-1,1987,582,0,0
770,442,0,0,0,0,0,0,0,0,0,-1,1994,582,0,0
777,442,0,0,0,0,0,0,0,0,0,-1,2001,582,0,0
784,442,0,0,0,0,0,0,0,0,0,-1,2008,582,0,0
791,442,0,0,0,0,0,0,0,0,0,-1,2015,582,0,0
798,442,0,0,0,0,0,0,0,0,0,-1,2022,582,0,0
805,442,0,0,0,0,0,0,0,0,0,-1,2029,582,0,0
812,442,0,0,0,0,0,0,0,0,0,-1,2036,582,0,0
-700,435,0,0,0,0,0,0,0,0,0,-1,524,589,0,0
-693,435,0,0,0,0,0,0,0,0,0,-1,531,589,0,0
-686,435,0,0,0,0,0,0,0,0,0,-1,538,589,0,0
-679,435,0,0,0,0,0,0,0,0,0,-1,545,589,0,0
-672,435,0,0,0,0,0,0,0,0,0,-1,552,589,0,0
-665,435,0,0,0,0,0,0,0,0,0,-1,559,589,0,0
-658,435,0,0,0,0,0,0,0,0,0,-1,566,589,0,0
-651,435,0,0,0,0,0,0,0,0,0,-1,573,589,0,0
-644,435,0,0,0,0,0,0,0,0,0,-1,580,589,0,0
-637,435,0,0,0,0,0,0,0,0,0,-1,587,589,0,0
-630,435,0,0,0,0,0,0,0,0,0,-1,594,589,0,0
-623,435,0,0,0,0,0,0,0,0,0,-1,601,589,0,0
-616,435,0,0,0,0,0,0,0,0,0,-1,608,589,0,0
-609,435,0,0,0,0,0,0,0,0,0,-1,615,589,0,0
-602,435,0,0,0,0,0,0,0,0,0,-1,622,589,0,0
-595,435,0,0,0,0,0,0,0,0,0,-1,629,589,0,0
-588,435,0,0,0,0,0,0,0,0,0,-1,636,589,0,0
-581,435,0,0,0,0,0,0,0,0,0,-1,643,589,0,0
-574,435,0,0,0,0,0,0,0,0,0,-1,650,589,0,0
-567,435,0,0,0,0,0,0,0,0,0,-1,657,589,0,0
-560,435,0,0,0,0,0,0,0,0,0,-1,664,589,0,0
-553,435,0,0,0,0,0,0,0,0,0,-1,671,589,0,0
-546,435,0,0,0,0,0,0,0,0,0,-1,678,589,0,0
-539,435,0,0,0,0,0,0,0,0,0,-1,685,589,0,0
-532,435,0,0,0,0,0,0,0,0,0,-1,692,589,0,0
-525,435,-3.5592,-5.55487,0,0,0,0,0,0,0,-1,699,589,-3.55923,5.55486
-518,435,-3.13428,-5.49969,0,0,0,0,0,0,0,-1,706,589,-3.13427,5.49972
-511,435,-2.49548,-5.25159,0,0,0,0,0,0,0,-1,713,589,-2.49548,5.25157
-504,435,-1.96234,-5.20099,0,0,0,0,0,0,0,-1,720,589,-1.96233,5.20099
-497,435,-2.12518,-2.07733,0,0,0,0,0,0,0,-1,727,589,-2.12521,2.07732
-490,435,-3.00134,-0.44873,0,0,0,0,0,0,0,-1,734,589,-3.00137,0.448712
-483,435,-2.61743,-0.871277,0,0,0,0,0,0,0,-1,741,589,-2.6174,0.87129
-476,435,-2.31158,-1.37622,0.00465442,0.00935855,-0.00491407,0.0124544,0.00155852,-1.0086,0.0078353,0.0441978,748,589,-2.31159,1.37621
-469,435,-1.98224,-2.06085,0.0036764,0.00898744,-0.0046627,0.0116978,0.000966051,-1.04425,0.00749729,0.0283725,755,589,-1.98221,2.06082
-462,435,-1.95496,-2.37933,0.00279308,0.00813144,-0.00414492,0.0103923,0.000532258,-1.07146,0.00675775,0.0151365,762,589,-1.95495,2.37934
-455,435,-1.99414,-2.54108,0.00190435,0.00691832,-0.00354067,0.00874968,7.29817e-05,-1.09345,0.00580895,0.013332,769,589,-1.99414,2.5411
-448,435,-1.97729,-2.73096,0.00127903,0.00606318,-0.00294795,0.00746747,-0.000125262,-1.12624,0.00502059,0.0120972,776,589,-1.97729,2.73095
-441,435,-1.98511,-2.92511,0.000824444,0.00471867,-0.00228375,0.00577268,-0.000229568,-1.1384,0.00392721,0.0105297,783,589,-1.98508,2.92514
-434,435,-1.99994,-3.10474,0.000456294,0.00322683,-0.00159889,0.00395708,-0.000273954,-1.14237,0.00273395,0.0115378,790,589,-1.99992,3.10475
-427,435,-2.00562,-3.29016,0.000318474,0.00170008,-0.000824443,0.00208488,-6.63219e-05,-1.13411,0.00141255,0.00956842,797,589,-2.00561,3.29016
-420,435,-1.98962,-3.46515,0.000347584,8.32505e-05,5.00626e-05,0.000356748,7.40867e-05,0.181042,0.000217386,0.00998412,804,589,-1.98963,3.46515
-413,435,-1.99005,-3.64642,0.000961935,-0.00145747,0.000531496,0.00107355,-0.00156908,0.206986,0.00153464,0.00984413,811,589,-1.99004,3.64644
-406,435,-1.98438,-3.83148,0.00202652,-0.00266568,0.000825388,0.00216747,-0.00280664,0.169145,0.0028797,0.00948546,818,589,-1.98438,3.83146
-399,435,-1.97937,-4.00964,0.00312768,-0.00416418,0.00114864,0.00330434,-0.00434084,0.152602,0.00442745,0.00843758,825,589,-1.9794,4.00964
-392,435,-1.98804,-4.18304,0.0043955,-0.00594654,0.00153738,0.0046192,-0.00617024,0.144493,0.0062507,0.00980083,832,589,-1.98806,4.18304
-385,435,-1.96381,-4.3703,0.0059824,-0.0079423,0.00179199,0.00620932,-0.00816922,0.125958,0.00832712,0.0122042,839,589,-1.96383,4.37029
-378,435,-1.93408,-4.53113,0.00780582,-0.0109556,0.00221714,0.00806428,-0.011214,0.116046,0.0111797,0.0188927,846,589,-1.93406,4.53113
-371,435,-1.76184,-4.50964,0.0100958,-0.0139622,0.00228761,0.0103114,-0.0141778,0.0939652,0.0141975,0.0361483,853,589,-1.76182,4.50967
-364,435,-1.45624,-4.40747,0.01271,-0.0181747,0.00262778,0.012932,-0.0183967,0.0842765,0.0181791,0.042661,860,589,-1.45623,4.40749
-357,435,-1.16614,-4.59723,0,0,0,0,0,0,0,-1,867,589,-1.16614,4.59723
-350,435,-0.86676,-3.69836,0,0,0,0,0,0,0,-1,874,589,-0.866784,3.69834
-343,435,-1.60706,-2.36835,0,0,0,0,0,0,0,-1,881,589,-1.60706,2.36838
-336,435,-2.07263,-1.94012,0,0,0,0,0,0,0,-1,888,589,-2.07265,1.94014
-329,435,-2.55963,-1.5517,0,0,0,0,0,0,0,-1,895,589,-2.5596,1.55168
-322,435,-3.08545,-1.55255,0,0,0,0,0,0,0,-1,902,589,-3.08544,1.55254
-315,435,-0.404297,-2.63763,0,0,0,0,0,0,0,-1,909,589,-0.404276,2.63761
-308,435,-1.70056,-1.90369,0,0,0,0,0,0,0,-1,916,589,-1.70056,1.90367
-301,435,-1.25232,-2.05511,0,0,0,0,0,0,0,-1,923,589,-1.25234,2.05514
-294,435,-1.79974,-1.97321,0,0,0,0,0,0,0,-1,930,589,-1.79973,1.97322
-287,435,0,0,0,0,0,0,0,0,0,-1,937,589,0,0
-280,435,0,0,0,0,0,0,0,0,0,-1,944,589,0,0
-273,435,0,0,0,0,0,0,0,0,0,-1,951,589,0,0
-266,435,0,0,0,0,0,0,0,0,0,-1,958,589,0,0
-259,435,0,0,0,0,0,0,0,0,0,-1,965,589,0,0
-252,435,0,0,0,0,0,0,0,0,0,-1,972,589,0,0
-245,435,0,0,0,0,0,0,0,0,0,-1,979,589,0,0
-238,435,0,0,0,0,0,0,0,0,0,-1,986,589,0,0
-231,435,0,0,0,0,0,0,0,0,0,-1,993,589,0,0
-224,435,0,0,0,0,0,0,0,0,0,-1,1000,589,0,0
-217,435,0,0,0,0,0,0,0,0,0,-1,1007,589,0,0
-210,435,0,0,0,0,0,0,0,0,0,-1,1014,589,0,0
-203,435,0,0,0,0,0,0,0,0,0,-1,1021,589,0,0
-196,435,0,0,0,0,0,0,0,0,0,-1,1028,589,0,0
-189,435,0,0,0,0,0,0,0,0,0,-1,1035,589,0,0
-182,435,0,0,0,0,0,0,0,0,0,-1,1042,589,0,0
-175,435,0,0,0,0,0,0,0,0,0,-1,1049,589,0,0
-168,435,0,0,0,0,0,0,0,0,0,-1,1056,589,0,0
-161,435,0,0,0,0,0,0,0,0,0,-1,1063,589,0,0
-154,435,0,0,0,0,0,0,0,0,0,-1,1070,589,0,0
-147,435,0,0,0,0,0,0,0,0,0,-1,1077,589,0,0
-140,435,0,0,0,0,0,0,0,0,0,-1,1084,589,0,0
-133,435,0,0,0,0,0,0,0,0,0,-1,1091,589,0,0
-126,435,0,0,0,0,0,0,0,0,0,-1,1098,589,0,0
-119,435,0,0,0,0,0,0,0,0,0,-1,1105,589,0,0
-112,435,0,0,0,0,0,0,0,0,0,-1,1112,589,0,0
-105,435,0,0,0,0,0,0,0,0,0,-1,1119,589,0,0
-98,435,0,0,0,0,0,0,0,0,0,-1,1126,589,0,0
-91,435,0,0,0,0,0,0,0,0,0,-1,1133,589,0,0
-84,435,0,0,0,0,0,0,0,0,0,-1,1140,589,0,0
-77,435,0,0,0,0,0,0,0,0,0,-1,1147,589,0,0
-70,435,0,0,0,0,0,0,0,0,0,-1,1154,589,0,0
-63,435,0,0,0,0,0,0,0,0,0,-1,1161,589,0,0
-56,435,0,0,0,0,0,0,0,0,0,-1,1168,589,0,0
-49,435,0,0,0,0,0,0,0,0,0,-1,1175,589,0,0
-42,435,0,0,0,0,0,0,0,0,0,-1,1182,589,0,0
-35,435,0,0,0,0,0,0,0,0,0,-1,1189,589,0,0
-28,435,0,0,0,0,0,0,0,0,0,-1,1196,589,0,0
-21,435,0,0,0,0,0,0,0,0,0,-1,1203,589,0,0
-14,435,0,0,0,0,0,0,0,0,0,-1,1210,589,0,0
-7,435,0,0,0,0,0,0,0,0,0,-1,1217,589,0,0
0,435,0,0,0,0,0,0,0,0,0,-1,1224,589,0,0
7,435,0,0,0,0,0,0,0,0,0,-1,1231,589,0,0
14,435,0,0,0,0,0,0,0,0,0,-1,1238,589,0,0
21,435,0,0,0,0,0,0,0,0,0,-1,1245,589,0,0
28,435,0,0,0,0,0,0,0,0,0,-1,1252,589,0,0
35,435,0,0,0,0,0,0,0,0,0,-1,1259,589,0,0
42,435,0,0,0,0,0,0,0,0,0,-1,1266,589,0,0
49,435,0,0,0,0,0,0,0,0,0,-1,1273,589,0,0
56,435,0,0,0,0,0,0,0,0,0,-1,1280,589,0,0
63,435,0,0,0,0,0,0,0,0,0,-1,1287,589,0,0
70,435,0,0,0,0,0,0,0,0,0,-1,1294,589,0,0
77,435,0,0,0,0,0,0,0,0,0,-1,1301,589,0,0
84,435,0,0,0,0,0,0,0,0,0,-1,1308,589,0,0
91,435,0,0,0,0,0,0,0,0,0,-1,1315,589,0,0
98,435,0,0,0,0,0,0,0,0,0,-1,1322,589,0,0
105,435,0,0,0,0,0,0,0,0,0,-1,1329,589,0,0
112,435,0,0,0,0,0,0,0,0,0,-1,1336,589,0,0
119,435,0,0,0,0,0,0,0,0,0,-1,1343,589,0,0
126,435,0,0,0,0,0,0,0,0,0,-1,1350,589,0,0
133,435,0,0,0,0,0,0,0,0,0,-1,1357,589,0,0
140,435,0,0,0,0,0,0,0,0,0,-1,1364,589,0,0
147,435,0,0,0,0,0,0,0,0,0,-1,1371,589,0,0
154,435,0,0,0,0,0,0,0,0,0,-1,1378,589,0,0
161,435,0,0,0,0,0,0,0,0,0,-1,1385,589,0,0
168,435,0,0,0,0,0,0,0,0,0,-1,1392,589,0,0
175,435,0,0,0,0,0,0,0,0,0,-1,1399,589,0,0
182,435,0,0,0,0,0,0,0,0,0,-1,1406,589,0,0
189,435,0,0,0,0,0,0,0,0,0,-1,1413,589,0,0
196,435,0,0,0,0,0,0,0,0,0,-1,1420,589,0,0
203,435,0,0,0,0,0,0,0,0,0,-1,1427,589,0,0
210,435,0,0,0,0,0,0,0,0,0,-1,1434,589,0,0
217,435,0,0,0,0,0,0,0,0,0,-1,1441,589,0,0
224,435,0,0,0,0,0,0,0,0,0,-1,1448,589,0,0
231,435,0,0,0,0,0,0,0,0,0,-1,1455,589,0,0
238,435,0,0,0,0,0,0,0,0,0,-1,1462,589,0,0
245,435,0,0,0,0,0,0,0,0,0,-1,1469,589,0,0
252,435,0,0,0,0,0,0,0,0,0,-1,1476,589,0,0
259,435,0,0,0,0,0,0,0,0,0,-1,1483,589,0,0
266,435,0,0,0,0,0,0,0,0,0,-1,1490,589,0,0
273,435,0,0,0,0,0,0,0,0,0,-1,1497,589,0,0
280,435,0,0,0,0,0,0,0,0,0,-1,1504,589,0,0
287,435,0,0,0,0,0,0,0,0,0,-1,1511,589,0,0
294,435,0,0,0,0,0,0,0,0,0,-1,1518,589,0,0
301,435,0,0,0,0,0,0,0,0,0,-1,1525,589,0,0
308,435,0,0,0,0,0,0,0,0,0,-1,1532,589,0,0
315,435,0,0,0,0,0,0,0,0,0,-1,1539,589,0,0
322,435,0,0,0,0,0,0,0,0,0,-1,1546,589,0,0
329,435,0,0,0,0,0,0,0,0,0,-1,1553,589,0,0
336,435,0,0,0,0,0,0,0,0,0,-1,1560,589,0,0
343,435,0,0,0,0,0,0,0,0,0,-1,1567,589,0,0
350,435,0,0,0,0,0,0,0,0,0,-1,1574,589,0,0
357,435,0,0,0,0,0,0,0,0,0,-1,1581,589,0,0
364,435,0,0,0,0,0,0,0,0,0,-1,1588,589,0,0
371,435,0,0,0,0,0,0,0,0,0,-1,1595,589,0,0
378,435,0,0,0,0,0,0,0,0,0,-1,1602,589,0,0
385,435,0,0,0,0,0,0,0,0,0,-1,1609,589,0,0
392,435,0,0,0,0,0,0,0,0,0,-1,1616,589,0,0
399,435,0,0,0,0,0,0,0,0,0,-1,1623,589,0,0
406,435,0,0,0,0,0,0,0,0,0,-1,1630,589,0,0
413,435,3.62073,3.42682,0,0,0,0,0,0,0,-1,1637,589,3.62069,-3.4268
420,435,3.6062,3.71564,0,0,0,0,0,0,0,-1,1644,589,3.60616,-3.71562
427,435,3.11963,0.640198,0,0,0,0,0,0,0,-1,1651,589,3.11967,-0.640192
434,435,2.72107,-1.34802,0,0,0,0,0,0,0,-1,1658,589,2.7211,1.34803
441,435,7.33191,-1.57452,0,0,0,0,0,0,0,-1,1665,589,7.33193,1.57452
448,435,7.4585,-0.00292969,0,0,0,0,0,0,0,-1,1672,589,7.45848,0.00294131
455,435,5.49915,-5.047,0,0,0,0,0,0,0,-1,1679,589,5.49914,5.04703
462,435,5.60669,-4.71466,0,0,0,0,0,0,0,-1,1686,589,5.60675,4.71469
469,435,5.87708,1.22351,0,0,0,0,0,0,0,-1,1693,589,5.87703,-1.22351
476,435,6.14136,1.37714,0,0,0,0,0,0,0,-1,1700,589,6.14138,-1.37712
483,435,6.49243,1.36169,0,0,0,0,0,0,0,-1,1707,589,6.49242,-1.36171
490,435,4.38391,-1.36218,0,0,0,0,0,0,0,-1,1714,589,4.38389,1.3622
497,435,7.23499,-3.64551,0,0,0,0,0,0,0,-1,1721,589,7.23495,3.64551
504,435,6.04614,-2.94873,0,0,0,0,0,0,0,-1,1728,589,6.04612,2.94871
511,435,6.38159,-2.91638,0.00409917,0.000946378,0.00121741,0.00451453,0.000531015,0.328802,0.00284922,0.0400539,1735,589,6.38159,2.91635
518,435,6.59937,-2.84088,0.00275423,0.000194773,0.00050539,0.00285041,9.8593e-05,0.18806,0.00186827,0.0148926,1742,589,6.59942,2.84087
525,435,6.58362,-2.62,0.00229177,0.000135848,0.000520524,0.00241087,1.67522e-05,0.224928,0.00160169,0.0112265,1749,589,6.58367,2.61998
532,435,6.58984,-2.40131,0.00181178,0.00018892,0.000459584,0.00193289,6.78076e-05,0.257669,0.0012666,0.0132627,1756,589,6.58979,2.40129
539,435,6.58911,-2.19617,0.00145099,0.000271913,0.000445892,0.00160062,0.000122279,0.323774,0.00102875,0.0142467,1763,589,6.5891,2.19616
546,435,6.5708,-2.00519,0.00146002,0.000510004,0.000561595,0.00172056,0.00024947,0.434366,0.00107359,0.0132187,1770,589,6.57084,2.00516
553,435,6.56628,-1.80493,0.00214037,0.000687055,0.00105974,0.00269866,0.000128765,0.484869,0.00175776,0.0101691,1777,589,6.56624,1.80492
560,435,6.56531,-1.58722,0.00306981,0.000842153,0.00160729,0.00391148,4.76139e-07,0.482397,0.0026075,0.00890325,1784,589,6.56533,1.58723
567,435,6.57617,-1.38556,0.00450474,0.00079199,0.00235844,0.00564976,-0.000353028,0.451979,0.00388953,0.00837432,1791,589,6.57615,1.38553
574,435,6.57861,-1.1853,0.00667058,0.000683561,0.00343261,0.00823162,-0.000877478,0.426811,0.0058024,0.00936284,1798,589,6.57863,1.18531
581,435,6.5741,-0.996399,0.00943805,0.000443189,0.00478349,0.0115063,-0.0016251,0.408105,0.00826601,0.0156492,1805,589,6.57412,0.996387
588,435,6.57446,-0.800842,0.0128831,1.11328e-05,0.00649886,0.0155936,-0.0026993,0.395129,0.0114025,0.0194197,1812,589,6.57445,0.800823
595,435,6.55225,-0.602417,0.0171289,-0.000626035,0.00861739,0.0206235,-0.00412067,0.385267,0.0153085,0.0218393,1819,589,6.55229,0.602411
602,435,6.54163,-0.435486,0.0224223,-0.00145995,0.0110891,0.0267772,-0.00581482,0.37421,0.0200725,0.0416755,1826,589,6.54161,0.435475
609,435,6.54382,-0.298584,0,0,0,0,0,0,0,-1,1833,589,6.54377,0.298565
616,435,5.05151,-2.75269,0,0,0,0,0,0,0,-1,1840,589,5.05157,2.7527
623,435,8.69324,2.36554,0,0,0,0,0,0,0,-1,1847,589,8.69318,-2.36556
630,435,4.72742,-0.87561,0,0,0,0,0,0,0,-1,1854,589,4.7274,0.875636
637,435,5.05286,1.48792,0,0,0,0,0,0,0,-1,1861,589,5.05291,-1.48792
644,435,0,0,0,0,0,0,0,0,0,-1,1868,589,0,0
651,435,0,0,0,0,0,0,0,0,0,-1,1875,589,0,0
658,435,0,0,0,0,0,0,0,0,0,-1,1882,589,0,0
665,435,0,0,0,0,0,0,0,0,0,-1,1889,589,0,0
672,435,0,0,0,0,0,0,0,0,0,-1,1896,589,0,0
679,435,0,0,0,0,0,0,0,0,0,-1,1903,589,0,0
686,435,0,0,0,0,0,0,0,0,0,-1,1910,589,0,0
693,435,0,0,0,0,0,0,0,0,0,-1,1917,589,0,0
700,435,0,0,0,0,0,0,0,0,0,-1,1924,589,0,0
707,435,0,0,0,0,0,0,0,0,0,-1,1931,589,0,0
714,435,0,0,0,0,0,0,0,0,0,-1,1938,589,0,0
721,435,0,0,0,0,0,0,0,0,0,-1,1945,589,0,0
728,435,0,0,0,0,0,0,0,0,0,-1,1952,589,0,0
735,435,0,0,0,0,0,0,0,0,0,-1,1959,589,0,0
742,435,0,0,0,0,0,0,0,0,0,-1,1966,589,0,0
749,435,0,0,0,0,0,0,0,0,0,-1,1973,589,0,0
756,435,0,0,0,0,0,0,0,0,0,-1,1980,589,0,0
763,435,0,0,0,0,0,0,0,0,0,-1,1987,589,0,0
770,435,0,0,0,0,0,0,0,0,0,-1,1994,589,0,0
777,435,0,0,0,0,0,0,0,0,0,-1,2001,589,0,0
784,435,0,0,0,0,0,0,0,0,0,-1,2008,589,0,0
791,435,0,0,0,0,0,0,0,0,0,-1,2015,589,0,0
798,435,0,0,0,0,0,0,0,0,0,-1,2022,589,0,0
805,435,0,0,0,0,0,0,0,0,0,-1,2029,589,0,0
812,435,0,0,0,0,0,0,0,0,0,-1,2036,589,0,0
-700,428,0,0,0,0,0,0,0,0,0,-1,524,596,0,0
-693,428,0,0,0,0,0,0,0,0,0,-1,531,596,0,0
-686,428,0,0,0,0,0,0,0,0,0,-1,538,596,0,0
-679,428,0,0,0,0,0,0,0,0,0,-1,545,596,0,0
-672,428,0,0,0,0,0,0,0,0,0,-1,552,596,0,0
-665,428,0,0,0,0,0,0,0,0,0,-1,559,596,0,0
-658,428,0,0,0,0,0,0,0,0,0,-1,566,596,0,0
-651,428,0,0,0,0,0,0,0,0,0,-1,573,596,0,0
-644,428,0,0,0,0,0,0,0,0,0,-1,580,596,0,0
-637,428,0,0,0,0,0,0,0,0,0,-1,587,596,0,0
-630,428,0,0,0,0,0,0,0,0,0,-1,594,596,0,0
-623,428,0,0,0,0,0,0,0,0,0,-1,601,596,0,0
-616,428,0,0,0,0,0,0,0,0,0,-1,608,596,0,0
-609,428,0,0,0,0,0,0,0,0,0,-1,615,596,0,0
-602,428,0,0,0,0,0,0,0,0,0,-1,622,596,0,0
-595,428,0,0,0,0,0,0,0,0,0,-1,629,596,0,0
-588,428,0,0,0,0,0,0,0,0,0,-1,636,596,0,0
-581,428,0,0,0,0,0,0,0,0,0,-1,643,596,0,0
-574,428,0,0,0,0,0,0,0,0,0,-1,650,596,0,0
-567,428,0,0,0,0,0,0,0,0,0,-1,657,596,0,0
-560,428,0,0,0,0,0,0,0,0,0,-1,664,596,0,0
-553,428,0,0,0,0,0,0,0,0,0,-1,671,596,0,0
-546,428,0,0,0,0,0,0,0,0,0,-1,678,596,0,0
-539,428,0,0,0,0,0,0,0,0,0,-1,685,596,0,0
-532,428,0,0,0,0,0,0,0,0,0,-1,692,596,0,0
-525,428,-9.94873,5.86664,0,0,0,0,0,0,0,-1,699,596,-9.94875,-5.86666
-518,428,-2.68677,-4.75885,0,0,0,0,0,0,0,-1,706,596,-2.68679,4.75885
-511,428,-2.21271,-4.64166,0,0,0,0,0,0,0,-1,713,596,-2.21272,4.64167
-504,428,-1.73865,-4.52448,0,0,0,0,0,0,0,-1,720,596,-1.73866,4.5245
-497,428,-2.06531,-2.35187,0,0,0,0,0,0,0,-1,727,596,-2.06533,2.35189
-490,428,-2.54266,-1.16962,0,0,0,0,0,0,0,-1,734,596,-2.54264,1.16964
-483,428,-2.50739,-1.38678,0,0,0,0,0,0,0,-1,741,596,-2.50736,1.38675
-476,428,-2.32391,-1.74286,0.00315103,0.0054772,-0.00316732,0.00768823,0.000939997,-0.961362,0.00484266,0.0344397,748,596,-2.3239,1.74286
-469,428,-2.1344,-2.13599,0.00278399,0.00572149,-0.00301815,0.00760929,0.000896191,-1.01185,0.00480209,0.0187825,755,596,-2.13438,2.13599
-462,428,-2.16278,-2.34082,0.0022765,0.00536754,-0.00269608,0.00692966,0.000714378,-1.04566,0.00440102,0.0169251,762,596,-2.1628,2.3408
-455,428,-2.18353,-2.53589,0.00166498,0.00452852,-0.00228578,0.00579393,0.00039957,-1.06519,0.00373656,0.0123913,769,596,-2.18354,2.5359
-448,428,-2.16888,-2.71161,0.00128208,0.00396956,-0.00185074,0.00491292,0.00033871,-1.0994,0.00316842,0.0112193,776,596,-2.1689,2.71162
-441,428,-2.17786,-2.91913,0.000916855,0.00279509,-0.00128463,0.00344727,0.000264677,-1.10103,0.00221523,0.0131581,783,596,-2.17783,2.91914
-434,428,-2.18262,-3.11786,0.000570142,0.00139003,-0.000641616,0.00174148,0.000218689,-1.06967,0.00109539,0.00958507,790,596,-2.1826,3.11787
-427,428,-2.1604,-3.2868,0.000435626,-6.5623e-05,0.000120717,0.000463184,-9.31804e-05,0.224436,0.000344081,0.00952351,797,596,-2.16042,3.28679
-420,428,-2.15662,-3.45398,0.000508104,-0.00164644,0.000964011,0.000876457,-0.0020148,0.364984,0.00171185,0.0103843,804,596,-2.15664,3.45401
-413,428,-2.16089,-3.6228,0.00115861,-0.00326489,0.00143259,0.00158203,-0.00368832,0.287384,0.00312279,0.0121859,811,596,-2.16091,3.62279
-406,428,-2.16315,-3.81812,0.00226494,-0.00458275,0.00173294,0.00267852,-0.00499633,0.234273,0.00449792,0.0149546,818,596,-2.16314,3.81812
-399,428,-2.15485,-3.99713,0.0034724,-0.00625433,0.00207408,0.0038962,-0.00667813,0.201558,0.00617511,0.014168,825,596,-2.15482,3.99716
-392,428,-2.14526,-4.1781,0.00489259,-0.00827689,0.00249198,0.00534836,-0.00873266,0.180895,0.00820757,0.0122637,832,596,-2.14528,4.17808
-385,428,-2.13995,-4.38165,0.00666417,-0.0105123,0.00274888,0.00709337,-0.0109415,0.154885,0.0104912,0.0182081,839,596,-2.13998,4.38167
-378,428,-2.10864,-4.48004,0.00874666,-0.0140319,0.00322642,0.00919484,-0.0144801,0.138026,0.0137818,0.0346374,846,596,-2.10867,4.48005
-371,428,-1.96344,-4.46136,0.0114123,-0.0176936,0.00342158,0.0118091,-0.0180904,0.11546,0.017389,0.0471426,853,596,-1.96343,4.46133
-364,428,-1.34912,-3.94623,0,0,0,0,0,0,0,-1,860,596,-1.34913,3.9462
-357,428,-2.28003,-4.41528,0,0,0,0,0,0,0,-1,867,596,-2.28004,4.41526
-350,428,-1.62793,-3.94055,0,0,0,0,0,0,0,-1,874,596,-1.62794,3.94055
-343,428,-0.0567017,-4.80994,0,0,0,0,0,0,0,-1,881,596,-0.0567096,4.80996
-336,428,-3.29175,-1.39569,0,0,0,0,0,0,0,-1,888,596,-3.29172,1.39568
-329,428,-3.71564,-0.791321,0,0,0,0,0,0,0,-1,895,596,-3.71564,0.791299
-322,428,-5.52863,-3.59827,0,0,0,0,0,0,0,-1,902,596,-5.52865,3.59829
-315,428,-4.57172,-1.22052,0,0,0,0,0,0,0,-1,909,596,-4.57171,1.22052
-308,428,-5.26538,-1.1521,0,0,0,0,0,0,0,-1,916,596,-5.26539,1.15209
-301,428,0,0,0,0,0,0,0,0,0,-1,923,596,0,0
-294,428,0,0,0,0,0,0,0,0,0,-1,930,596,0,0
-287,428,0,0,0,0,0,0,0,0,0,-1,937,596,0,0
-280,428,0,0,0,0,0,0,0,0,0,-1,944,596,0,0
-273,428,0,0,0,0,0,0,0,0,0,-1,951,596,0,0
-266,428,0,0,0,0,0,0,0,0,0,-1,958,596,0,0
-259,428,0,0,0,0,0,0,0,0,0,-1,965,596,0,0
-252,428,0,0,0,0,0,0,0,0,0,-1,972,596,0,0
-245,428,0,0,0,0,0,0,0,0,0,-1,979,596,0,0
-238,428,0,0,0,0,0,0,0,0,0,-1,986,596,0,0
-231,428,0,0,0,0,0,0,0,0,0,-1,993,596,0,0
-224,428,0,0,0,0,0,0,0,0,0,-1,1000,596,0,0
-217,428,0,0,0,0,0,0,0,0,0,-1,1007,596,0,0
-210,428,0,0,0,0,0,0,0,0,0,-1,1014,596,0,0
-203,428,0,0,0,0,0,0,0,0,0,-1,1021,596,0,0
-196,428,0,0,0,0,0,0,0,0,0,-1,1028,596,0,0
-189,428,0,0,0,0,0,0,0,0,0,-1,1035,596,0,0
-182,428,0,0,0,0,0,0,0,0,0,-1,1042,596,0,0
-175,428,0,0,0,0,0,0,0,0,0,-1,1049,596,0,0
-168,428,0,0,0,0,0,0,0,0,0,-1,1056,596,0,0
-161,428,0,0,0,0,0,0,0,0,0,-1,1063,596,0,0
-154,428,0,0,0,0,0,0,0,0,0,-1,1070,596,0,0
-147,428,0,0,0,0,0,0,0,0,0,-1,1077,596,0,0
-140,428,0,0,0,0,0,0,0,0,0,-1,1084,596,0,0
-133,428,0,0,0,0,0,0,0,0,0,-1,1091,596,0,0
-126,428,0,0,0,0,0,0,0,0,0,-1,1098,596,0,0
-119,428,0,0,0,0,0,0,0,0,0,-1,1105,596,0,0
-112,428,0,0,0,0,0,0,0,0,0,-1,1112,596,0,0
-105,428,0,0,0,0,0,0,0,0,0,-1,1119,596,0,0
-98,428,0,0,0,0,0,0,0,0,0,-1,1126,596,0,0
-91,428,0,0,0,0,0,0,0,0,0,-1,1133,596,0,0
-84,428,0,0,0,0,0,0,0,0,0,-1,1140,596,0,0
-77,428,0,0,0,0,0,0,0,0,0,-1,1147,596,0,0
-70,428,0,0,0,0,0,0,0,0,0,-1,1154,596,0,0
-63,428,0,0,0,0,0,0,0,0,0,-1,1161,596,0,0
-56,428,0,0,0,0,0,0,0,0,0,-1,1168,596,0,0
-49,428,0,0,0,0,0,0,0,0,0,-1,1175,596,0,0
-42,428,0,0,0,0,0,0,0,0,0,-1,1182,596,0,0
-35,428,0,0,0,0,0,0,0,0,0,-1,1189,596,0,0
-28,428,0,0,0,0,0,0,0,0,0,-1,1196,596,0,0
-21,428,0,0,0,0,0,0,0,0,0,-1,1203,596,0,0
-14,428,0,0,0,0,0,0,0,0,0,-1,1210,596,0,0
-7,428,0,0,0,0,0,0,0,0,0,-1,1217,596,0,0
0,428,0,0,0,0,0,0,0,0,0,-1,1224,596,0,0
7,428,0,0,0,0,0,0,0,0,0,-1,1231,596,0,0
14,428,0,0,0,0,0,0,0,0,0,-1,1238,596,0,0
21,428,0,0,0,0,0,0,0,0,0,-1,1245,596,0,0
28,428,0,0,0,0,0,0,0,0,0,-1,1252,596,0,0
35,428,0,0,0,0,0,0,0,0,0,-1,1259,596,0,0
42,428,0,0,0,0,0,0,0,0,0,-1,1266,596,0,0
49,428,0,0,0,0,0,0,0,0,0,-1,1273,596,0,0
56,428,0,0,0,0,0,0,0,0,0,-1,1280,596,0,0
63,428,0,0,0,0,0,0,0,0,0,-1,1287,596,0,0
70,428,0,0,0,0,0,0,0,0,0,-1,1294,596,0,0
77,428,0,0,0,0,0,0,0,0,0,-1,1301,596,0,0
84,428,0,0,0,0,0,0,0,0,0,-1,1308,596,0,0
91,428,0,0,0,0,0,0,0,0,0,-1,1315,596,0,0
98,428,0,0,0,0,0,0,0,0,0,-1,1322,596,0,0
105,428,0,0,0,0,0,0,0,0,0,-1,1329,596,0,0
112,428,0,0,0,0,0,0,0,0,0,-1,1336,596,0,0
119,428,0,0,0,0,0,0,0,0,0,-1,1343,596,0,0
126,428,0,0,0,0,0,0,0,0,0,-1,1350,596,0,0
133,428,0,0,0,0,0,0,0,0,0,-1,1357,596,0,0
140,428,0,0,0,0,0,0,0,0,0,-1,1364,596,0,0
147,428,0,0,0,0,0,0,0,0,0,-1,1371,596,0,0
154,428,0,0,0,0,0,0,0,0,0,-1,1378,596,0,0
161,428,0,0,0,0,0,0,0,0,0,-1,1385,596,0,0
168,428,0,0,0,0,0,0,0,0,0,-1,1392,596,0,0
175,428,0,0,0,0,0,0,0,0,0,-1,1399,596,0,0
182,428,0,0,0,0,0,0,0,0,0,-1,1406,596,0,0
189,428,0,0,0,0,0,0,0,0,0,-1,1413,596,0,0
196,428,0,0,0,0,0,0,0,0,0,-1,1420,596,0,0
203,428,0,0,0,0,0,0,0,0,0,-1,1427,596,0,0
210,428,0,0,0,0,0,0,0,0,0,-1,1434,596,0,0
217,428,0,0,0,0,0,0,0,0,0,-1,1441,596,0,0
224,428,0,0,0,0,0,0,0,0,0,-1,1448,596,0,0
231,428,0,0,0,0,0,0,0,0,0,-1,1455,596,0,0
238,428,0,0,0,0,0,0,0,0,0,-1,1462,596,0,0
245,428,0,0,0,0,0,0,0,0,0,-1,1469,596,0,0
252,428,0,0,0,0,0,0,0,0,0,-1,1476,596,0,0
259,428,0,0,0,0,0,0,0,0,0,-1,1483,596,0,0
266,428,0,0,0,0,0,0,0,0,0,-1,1490,596,0,0
273,428,0,0,0,0,0,0,0,0,0,-1,1497,596,0,0
280,428,0,0,0,0,0,0,0,0,0,-1,1504,596,0,0
287,428,0,0,0,0,0,0,0,0,0,-1,1511,596,0,0
294,428,0,0,0,0,0,0,0,0,0,-1,1518,596,0,0
301,428,0,0,0,0,0,0,0,0,0,-1,1525,596,0,0
308,428,0,0,0,0,0,0,0,0,0,-1,1532,596,0,0
315,428,0,0,0,0,0,0,0,0,0,-1,1539,596,0,0
322,428,0,0,0,0,0,0,0,0,0,-1,1546,596,0,0
329,428,0,0,0,0,0,0,0,0,0,-1,1553,596,0,0
336,428,0,0,0,0,0,0,0,0,0,-1,1560,596,0,0
343,428,0,0,0,0,0,0,0,0,0,-1,1567,596,0,0
350,428,0,0,0,0,0,0,0,0,0,-1,1574,596,0,0
357,428,0,0,0,0,0,0,0,0,0,-1,1581,596,0,0
364,428,0,0,0,0,0,0,0,0,0,-1,1588,596,0,0
371,428,0,0,0,0,0,0,0,0,0,-1,1595,596,0,0
378,428,0,0,0,0,0,0,0,0,0,-1,1602,596,0,0
385,428,0,0,0,0,0,0,0,0,0,-1,1609,596,0,0
392,428,0,0,0,0,0,0,0,0,0,-1,1616,596,0,0
399,428,0,0,0,0,0,0,0,0,0,-1,1623,596,0,0
406,428,0,0,0,0,0,0,0,0,0,-1,1630,596,0,0
413,428,0,0,0,0,0,0,0,0,0,-1,1637,596,0,0
420,428,2.95886,0.551819,0,0,0,0,0,0,0,-1,1644,596,2.9589,-0.551797
427,428,3.19385,0.384705,0,0,0,0,0,0,0,-1,1651,596,3.19383,-0.384692
434,428,8.18152,1.80432,0,0,0,0,0,0,0,-1,1658,596,8.18148,-1.80434
441,428,8.17993,0.607483,0,0,0,0,0,0,0,-1,1665,596,8.17997,-0.607513
448,428,7.84338,-0.385986,0,0,0,0,0,0,0,-1,1672,596,7.84336,0.385978
455,428,6.64038,2.1123,0,0,0,0,0,0,0,-1,1679,596,6.64037,-2.11229
462,428,4.84106,4.12341,0,0,0,0,0,0,0,-1,1686,596,4.84107,-4.12339
469,428,7.83789,3.10083,0,0,0,0,0,0,0,-1,1693,596,7.83785,-3.10086
476,428,7.61255,1.73956,0,0,0,0,0,0,0,-1,1700,596,7.61252,-1.73958
483,428,7.22766,1.05121,0,0,0,0,0,0,0,-1,1707,596,7.2277,-1.05121
490,428,5.4071,-3.2793,0,0,0,0,0,0,0,-1,1714,596,5.40707,3.27929
497,428,7.84106,-3.65491,0,0,0,0,0,0,0,-1,1721,596,7.84107,3.65491
504,428,6.92139,-2.83356,0,0,0,0,0,0,0,-1,1728,596,6.92137,2.83353
511,428,6.54065,-2.98718,0,0,0,0,0,0,0,-1,1735,596,6.54068,2.98717
518,428,6.78198,-2.92432,0,0,0,0,0,0,0,-1,1742,596,6.78193,2.92431
525,428,6.71887,-2.69141,0.00228314,0.000408929,0.000676249,0.00250166,0.000190405,0.31255,0.00160807,0.0293346,1749,596,6.71881,2.69138
532,428,6.75793,-2.39752,0.00156213,0.000309975,0.000452407,0.00170848,0.000163625,0.312868,0.00108855,0.0175363,1756,596,6.75796,2.39754
539,428,6.7959,-2.20673,0.000989089,0.000231976,0.000265982,0.00107319,0.000147876,0.306241,0.000671616,0.0200224,1763,596,6.79585,2.20671
546,428,6.79016,-2.01263,0.000691176,0.0002839,0.000196431,0.000770475,0.000204601,0.383692,0.000460846,0.0153042,1770,596,6.79015,2.01264
553,428,6.78259,-1.79205,0.000993587,0.000282757,0.000361861,0.00114538,0.000130961,0.397192,0.000723895,0.0106948,1777,596,6.78254,1.79203
560,428,6.78125,-1.59735,0.00169098,0.000265836,0.000712117,0.00198581,-2.89995e-05,0.39254,0.00133365,0.0115442,1784,596,6.7813,1.59733
567,428,6.79993,-1.39996,0.00280145,9.91064e-05,0.00124551,0.00328793,-0.000387369,0.372364,0.00233182,0.0109218,1791,596,6.79994,1.39996
574,428,6.80371,-1.18982,0.0045802,-0.000112796,0.00207857,0.00536843,-0.000901023,0.362462,0.00391402,0.0126996,1798,596,6.80371,1.1898
581,428,6.78748,-0.988525,0.00682646,-0.000403884,0.00311361,0.00798245,-0.00155988,0.355498,0.00591061,0.0109707,1805,596,6.78742,0.988511
588,428,6.77319,-0.776917,0.0095136,-0.000816117,0.00441706,0.0111448,-0.0024473,0.353757,0.00836581,0.0157092,1812,596,6.77319,0.776908
595,428,6.7605,-0.56958,0.0127556,-0.00140402,0.00592898,0.0149104,-0.00355874,0.34858,0.0113146,0.0102811,1819,596,6.76049,0.569579
602,428,6.76331,-0.379272,0.0167994,-0.0019889,0.00745673,0.0193992,-0.00458861,0.335463,0.014703,0.0203948,1826,596,6.76331,0.379245
609,428,6.76294,-0.167786,0,0,0,0,0,0,0,-1,1833,596,6.76289,0.16778
616,428,5.88977,-0.239319,0,0,0,0,0,0,0,-1,1840,596,5.88983,0.239293
623,428,6.41541,0.466675,0,0,0,0,0,0,0,-1,1847,596,6.41543,-0.466696
630,428,4.94434,0.773193,0,0,0,0,0,0,0,-1,1854,596,4.9443,-0.773171
637,428,3.95435,1.90857,0,0,0,0,0,0,0,-1,1861,596,3.95439,-1.90858
644,428,5.75476,0.888977,0,0,0,0,0,0,0,-1,1868,596,5.75472,-0.888955
651,428,0,0,0,0,0,0,0,0,0,-1,1875,596,0,0
658,428,0,0,0,0,0,0,0,0,0,-1,1882,596,0,0
665,428,0,0,0,0,0,0,0,0,0,-1,1889,596,0,0
672,428,0,0,0,0,0,0,0,0,0,-1,1896,596,0,0
679,428,0,0,0,0,0,0,0,0,0,-1,1903,596,0,0
686,428,0,0,0,0,0,0,0,0,0,-1,1910,596,0,0
693,428,0,0,0,0,0,0,0,0,0,-1,1917,596,0,0
700,428,0,0,0,0,0,0,0,0,0,-1,1924,596,0,0
707,428,0,0,0,0,0,0,0,0,0,-1,1931,596,0,0
714,428,0,0,0,0,0,0,0,0,0,-1,1938,596,0,0
721,428,0,0,0,0,0,0,0,0,0,-1,1945,596,0,0
728,428,0,0,0,0,0,0,0,0,0,-1,1952,596,0,0
735,428,0,0,0,0,0,0,0,0,0,-1,1959,596,0,0
742,428,0,0,0,0,0,0,0,0,0,-1,1966,596,0,0
749,428,0,0,0,0,0,0,0,0,0,-1,1973,596,0,0
756,428,0,0,0,0,0,0,0,0,0,-1,1980,596,0,0
763,428,0,0,0,0,0,0,0,0,0,-1,1987,596,0,0
770,428,0,0,0,0,0,0,0,0,0,-1,1994,596,0,0
777,428,0,0,0,0,0,0,0,0,0,-1,2001,596,0,0
784,428,0,0,0,0,0,0,0,0,0,-1,2008,596,0,0
791,428,0,0,0,0,0,0,0,0,0,-1,2015,596,0,0
798,428,0,0,0,0,0,0,0,0,0,-1,2022,596,0,0
805,428,0,0,0,0,0,0,0,0,0,-1,2029,596,0,0
812,428,0,0,0,0,0,0,0,0,0,-1,2036,596,0,0
-700,421,0,0,0,0,0,0,0,0,0,-1,524,603,0,0
-693,421,0,0,0,0,0,0,0,0,0,-1,531,603,0,0
-686,421,0,0,0,0,0,0,0,0,0,-1,538,603,0,0
-679,421,0,0,0,0,0,0,0,0,0,-1,545,603,0,0
-672,421,0,0,0,0,0,0,0,0,0,-1,552,603,0,0
-665,421,0,0,0,0,0,0,0,0,0,-1,559,603,0,0
-658,421,0,0,0,0,0,0,0,0,0,-1,566,603,0,0
-651,421,0,0,0,0,0,0,0,0,0,-1,573,603,0,0
-644,421,0,0,0,0,0,0,0,0,0,-1,580,603,0,0
-637,421,0,0,0,0,0,0,0,0,0,-1,587,603,0,0
-630,421,0,0,0,0,0,0,0,0,0,-1,594,603,0,0
-623,421,0,0,0,0,0,0,0,0,0,-1,601,603,0,0
-616,421,0,0,0,0,0,0,0,0,0,-1,608,603,0,0
-609,421,0,0,0,0,0,0,0,0,0,-1,615,603,0,0
-602,421,0,0,0,0,0,0,0,0,0,-1,622,603,0,0
-595,421,0,0,0,0,0,0,0,0,0,-1,629,603,0,0
-588,421,0,0,0,0,0,0,0,0,0,-1,636,603,0,0
-581,421,0,0,0,0,0,0,0,0,0,-1,643,603,0,0
-574,421,0,0,0,0,0,0,0,0,0,-1,650,603,0,0
-567,421,0,0,0,0,0,0,0,0,0,-1,657,603,0,0
-560,421,0,0,0,0,0,0,0,0,0,-1,664,603,0,0
-553,421,0,0,0,0,0,0,0,0,0,-1,671,603,0,0
-546,421,0,0,0,0,0,0,0,0,0,-1,678,603,0,0
-539,421,0,0,0,0,0,0,0,0,0,-1,685,603,0,0
-532,421,-9.85718,5.32794,0,0,0,0,0,0,0,-1,692,603,-9.85718,-5.32797
-525,421,-10.3297,5.08777,0,0,0,0,0,0,0,-1,699,603,-10.3297,-5.08777
-518,421,-1.92688,-3.7323,0,0,0,0,0,0,0,-1,706,603,-1.92685,3.73228
-511,421,-1.95917,-3.88098,0,0,0,0,0,0,0,-1,713,603,-1.95916,3.88096
-504,421,-1.99146,-4.0296,0,0,0,0,0,0,0,-1,720,603,-1.99146,4.02963
-497,421,-2.42206,-1.89105,0,0,0,0,0,0,0,-1,727,603,-2.42208,1.89102
-490,421,-2.43121,-1.67633,0.0130099,0.000160529,-0.00380003,0.0140496,-0.000879158,-0.267063,0.00967276,0.0456873,734,603,-2.43122,1.67635
-483,421,-2.42169,-1.65216,0.00149109,0.00108482,-0.00120024,0.00250526,7.06482e-05,-0.70157,0.00164713,0.035196,741,603,-2.42169,1.65216
-476,421,-2.34729,-1.99237,0.00181114,0.00229095,-0.00154036,0.00360997,0.000492121,-0.862651,0.00226053,0.0200729,748,603,-2.3473,1.99237
-469,421,-2.35883,-2.1601,0.00193542,0.00265813,-0.0014232,0.00376513,0.000828425,-0.909723,0.00228458,0.016822,755,603,-2.35884,2.16008
-462,421,-2.35907,-2.37372,0.00176556,0.00258806,-0.00121522,0.00345973,0.000893892,-0.948558,0.00207377,0.0178244,762,603,-2.35905,2.37372
-455,421,-2.35602,-2.53613,0.00142642,0.00202314,-0.000932139,0.0027035,0.000746052,-0.940287,0.00161225,0.0173732,769,603,-2.35601,2.53611
-448,421,-2.35138,-2.70874,0.00128623,0.00168795,-0.000625813,0.00214435,0.000829831,-0.940686,0.00124854,0.0176964,776,603,-2.3514,2.70877
-441,421,-2.35803,-2.9375,0.00102726,0.000657949,-0.0001556,0.00108408,0.000601132,-0.350108,0.00062713,0.0143165,783,603,-2.358,2.9375
-434,421,-2.36469,-3.11981,0.000723427,-0.000661626,0.00043179,0.00084701,-0.00078521,0.27876,0.000942588,0.0101791,790,603,-2.36467,3.11984
-427,421,-2.34479,-3.28552,0.00060172,-0.00202668,0.00115333,0.00103603,-0.00246099,0.360148,0.00207413,0.00933689,797,603,-2.34477,3.2855
-420,421,-2.34265,-3.46075,0.000717945,-0.0035382,0.00193101,0.00146346,-0.00428371,0.368443,0.00344873,0.0112634,804,603,-2.34262,3.46077
-413,421,-2.34607,-3.6394,0.00137672,-0.00520753,0.00237494,0.00214396,-0.00597477,0.312473,0.00485817,0.0132415,811,603,-2.34606,3.63943
-406,421,-2.35571,-3.84564,0.00247584,-0.00664288,0.00268585,0.00320813,-0.00737517,0.266177,0.00626616,0.0183132,818,603,-2.35574,3.84562
-399,421,-2.33179,-4.05615,0.00374967,-0.00850705,0.00305693,0.00446979,-0.00922717,0.23135,0.00806537,0.0168743,825,603,-2.33177,4.05614
-392,421,-2.34351,-4.17871,0.00528425,-0.0108162,0.00353384,0.00602573,-0.0115577,0.206824,0.0103179,0.0173094,832,603,-2.34349,4.17872
-385,421,-2.43744,-4.37946,0.0072293,-0.0135736,0.00393528,0.00794885,-0.0142931,0.180848,0.0130144,0.0355045,839,603,-2.43747,4.37944
-378,421,-2.4165,-4.47937,0.00958745,-0.0176877,0.00456905,0.0103325,-0.0184327,0.16164,0.0168257,0.0474909,846,603,-2.41648,4.47938
-371,421,-2.26221,-4.56073,0,0,0,0,0,0,0,-1,853,603,-2.26218,4.56076
-364,421,-3.82251,-4.23065,0,0,0,0,0,0,0,-1,860,603,-3.8225,4.23065
-357,421,-3.68719,-3.85345,0,0,0,0,0,0,0,-1,867,603,-3.68721,3.85347
-350,421,-3.00177,-3.40668,0,0,0,0,0,0,0,-1,874,603,-3.00175,3.40665
-343,421,-2.70099,-2.13391,0,0,0,0,0,0,0,-1,881,603,-2.70101,2.13393
-336,421,-4.78381,-1.46234,0,0,0,0,0,0,0,-1,888,603,-4.78379,1.46232
-329,421,-4.50134,-1.49469,0,0,0,0,0,0,0,-1,895,603,-4.50137,1.49468
-322,421,-6.30377,-0.285339,0,0,0,0,0,0,0,-1,902,603,-6.30379,0.285355
-315,421,-4.47821,-1.26733,0,0,0,0,0,0,0,-1,909,603,-4.47824,1.26732
-308,421,0,0,0,0,0,0,0,0,0,-1,916,603,0,0
-301,421,0,0,0,0,0,0,0,0,0,-1,923,603,0,0
-294,421,0,0,0,0,0,0,0,0,0,-1,930,603,0,0
-287,421,0,0,0,0,0,0,0,0,0,-1,937,603,0,0
-280,421,0,0,0,0,0,0,0,0,0,-1,944,603,0,0
-273,421,0,0,0,0,0,0,0,0,0,-1,951,603,0,0
-266,421,0,0,0,0,0,0,0,0,0,-1,958,603,0,0
-259,421,0,0,0,0,0,0,0,0,0,-1,965,603,0,0
-252,421,0,0,0,0,0,0,0,0,0,-1,972,603,0,0
-245,421,0,0,0,0,0,0,0,0,0,-1,979,603,0,0
-238,421,0,0,0,0,0,0,0,0,0,-1,986,603,0,0
-231,421,0,0,0,0,0,0,0,0,0,-1,993,603,0,0
-224,421,0,0,0,0,0,0,0,0,0,-1,1000,603,0,0
-217,421,0,0,0,0,0,0,0,0,0,-1,1007,603,0,0
-210,421,0,0,0,0,0,0,0,0,0,-1,1014,603,0,0
-203,421,0,0,0,0,0,0,0,0,0,-1,1021,603,0,0
-196,421,0,0,0,0,0,0,0,0,0,-1,1028,603,0,0
-189,421,0,0,0,0,0,0,0,0,0,-1,1035,603,0,0
-182,421,0,0,0,0,0,0,0,0,0,-1,1042,603,0,0
-175,421,0,0,0,0,0,0,0,0,0,-1,1049,603,0,0
-168,421,0,0,0,0,0,0,0,0,0,-1,1056,603,0,0
-161,421,0,0,0,0,0,0,0,0,0,-1,1063,603,0,0
-154,421,0,0,0,0,0,0,0,0,0,-1,1070,603,0,0
-147,421,0,0,0,0,0,0,0,0,0,-1,1077,603,0,0
-140,421,0,0,0,0,0,0,0,0,0,-1,1084,603,0,0
-133,421,0,0,0,0,0,0,0,0,0,-1,1091,603,0,0
-126,421,0,0,0,0,0,0,0,0,0,-1,1098,603,0,0
-119,421,0,0,0,0,0,0,0,0,0,-1,1105,603,0,0
-112,421,0,0,0,0,0,0,0,0,0,-1,1112,603,0,0
-105,421,0,0,0,0,0,0,0,0,0,-1,1119,603,0,0
-98,421,0,0,0,0,0,0,0,0,0,-1,1126,603,0,0
-91,421,0,0,0,0,0,0,0,0,0,-1,1133,603,0,0
-84,421,0,0,0,0,0,0,0,0,0,-1,1140,603,0,0
-77,421,0,0,0,0,0,0,0,0,0,-1,1147,603,0,0
-70,421,0,0,0,0,0,0,0,0,0,-1,1154,603,0,0
-63,421,0,0,0,0,0,0,0,0,0,-1,1161,603,0,0
-56,421,0,0,0,0,0,0,0,0,0,-1,1168,603,0,0
-49,421,0,0,0,0,0,0,0,0,0,-1,1175,603,0,0
-42,421,0,0,0,0,0,0,0,0,0,-1,1182,603,0,0
-35,421,0,0,0,0,0,0,0,0,0,-1,1189,603,0,0
-28,421,0,0,0,0,0,0,0,0,0,-1,1196,603,0,0
-21,421,0,0,0,0,0,0,0,0,0,-1,1203,603,0,0
-14,421,0,0,0,0,0,0,0,0,0,-1,1210,603,0,0
-7,421,0,0,0,0,0,0,0,0,0,-1,1217,603,0,0
0,421,0,0,0,0,0,0,0,0,0,-1,1224,603,0,0
7,421,0,0,0,0,0,0,0,0,0,-1,1231,603,0,0
14,421,0,0,0,0,0,0,0,0,0,-1,1238,603,0,0
21,421,0,0,0,0,0,0,0,0,0,-1,1245,603,0,0
28,421,0,0,0,0,0,0,0,0,0,-1,1252,603,0,0
35,421,0,0,0,0,0,0,0,0,0,-1,1259,603,0,0
42,421,0,0,0,0,0,0,0,0,0,-1,1266,603,0,0
49,421,0,0,0,0,0,0,0,0,0,-1,1273,603,0,0
56,421,0,0,0,0,0,0,0,0,0,-1,1280,603,0,0
63,421,0,0,0,0,0,0,0,0,0,-1,1287,603,0,0
70,421,0,0,0,0,0,0,0,0,0,-1,1294,603,0,0
77,421,0,0,0,0,0,0,0,0,0,-1,1301,603,0,0
84,421,0,0,0,0,0,0,0,0,0,-1,1308,603,0,0
91,421,0,0,0,0,0,0,0,0,0,-1,1315,603,0,0
98,421,0,0,0,0,0,0,0,0,0,-1,1322,603,0,0
105,421,0,0,0,0,0,0,0,0,0,-1,1329,603,0,0
112,421,0,0,0,0,0,0,0,0,0,-1,1336,603,0,0
119,421,0,0,0,0,0,0,0,0,0,-1,1343,603,0,0
126,421,0,0,0,0,0,0,0,0,0,-1,1350,603,0,0
133,421,0,0,0,0,0,0,0,0,0,-1,1357,603,0,0
140,421,0,0,0,0,0,0,0,0,0,-1,1364,603,0,0
147,421,0,0,0,0,0,0,0,0,0,-1,1371,603,0,0
154,421,0,0,0,0,0,0,0,0,0,-1,1378,603,0,0
161,421,0,0,0,0,0,0,0,0,0,-1,1385,603,0,0
168,421,0,0,0,0,0,0,0,0,0,-1,1392,603,0,0
175,421,0,0,0,0,0,0,0,0,0,-1,1399,603,0,0
182,421,0,0,0,0,0,0,0,0,0,-1,1406,603,0,0
189,421,0,0,0,0,0,0,0,0,0,-1,1413,603,0,0
196,421,0,0,0,0,0,0,0,0,0,-1,1420,603,0,0
203,421,0,0,0,0,0,0,0,0,0,-1,1427,603,0,0
210,421,0,0,0,0,0,0,0,0,0,-1,1434,603,0,0
217,421,0,0,0,0,0,0,0,0,0,-1,1441,603,0,0
224,421,0,0,0,0,0,0,0,0,0,-1,1448,603,0,0
231,421,0,0,0,0,0,0,0,0,0,-1,1455,603,0,0
238,421,0,0,0,0,0,0,0,0,0,-1,1462,603,0,0
245,421,0,0,0,0,0,0,0,0,0,-1,1469,603,0,0
252,421,0,0,0,0,0,0,0,0,0,-1,1476,603,0,0
259,421,0,0,0,0,0,0,0,0,0,-1,1483,603,0,0
266,421,0,0,0,0,0,0,0,0,0,-1,1490,603,0,0
273,421,0,0,0,0,0,0,0,0,0,-1,1497,603,0,0
280,421,0,0,0,0,0,0,0,0,0,-1,1504,603,0,0
287,421,0,0,0,0,0,0,0,0,0,-1,1511,603,0,0
294,421,0,0,0,0,0,0,0,0,0,-1,1518,603,0,0
301,421,0,0,0,0,0,0,0,0,0,-1,1525,603,0,0
308,421,0,0,0,0,0,0,0,0,0,-1,1532,603,0,0
315,421,0,0,0,0,0,0,0,0,0,-1,1539,603,0,0
322,421,0,0,0,0,0,0,0,0,0,-1,1546,603,0,0
329,421,0,0,0,0,0,0,0,0,0,-1,1553,603,0,0
336,421,0,0,0,0,0,0,0,0,0,-1,1560,603,0,0
343,421,0,0,0,0,0,0,0,0,0,-1,1567,603,0,0
350,421,0,0,0,0,0,0,0,0,0,-1,1574,603,0,0
357,421,0,0,0,0,0,0,0,0,0,-1,1581,603,0,0
364,421,0,0,0,0,0,0,0,0,0,-1,1588,603,0,0
371,421,0,0,0,0,0,0,0,0,0,-1,1595,603,0,0
378,421,0,0,0,0,0,0,0,0,0,-1,1602,603,0,0
385,421,0,0,0,0,0,0,0,0,0,-1,1609,603,0,0
392,421,0,0,0,0,0,0,0,0,0,-1,1616,603,0,0
399,421,0,0,0,0,0,0,0,0,0,-1,1623,603,0,0
406,421,0,0,0,0,0,0,0,0,0,-1,1630,603,0,0
413,421,0,0,0,0,0,0,0,0,0,-1,1637,603,0,0
420,421,0,0,0,0,0,0,0,0,0,-1,1644,603,0,0
427,421,0,0,0,0,0,0,0,0,0,-1,1651,603,0,0
434,421,3.68176,-0.0327759,0,0,0,0,0,0,0,-1,1658,603,3.6818,0.0328037
441,421,8.06689,0.527832,0,0,0,0,0,0,0,-1,1665,603,8.06693,-0.527851
448,421,6.93921,0.802246,0,0,0,0,0,0,0,-1,1672,603,6.93923,-0.802251
455,421,7.29456,2.14825,0,0,0,0,0,0,0,-1,1679,603,7.29461,-2.14827
462,421,7.86902,3.53174,0,0,0,0,0,0,0,-1,1686,603,7.869,-3.53173
469,421,8.06604,2.81213,0,0,0,0,0,0,0,-1,1693,603,8.06606,-2.81212
476,421,8.26306,2.09253,0,0,0,0,0,0,0,-1,1700,603,8.26312,-2.09251
483,421,8.05322,0.798096,0,0,0,0,0,0,0,-1,1707,603,8.05323,-0.7981
490,421,7.51233,0.213074,0,0,0,0,0,0,0,-1,1714,603,7.51235,-0.213043
497,421,7.49634,-2.86688,0,0,0,0,0,0,0,-1,1721,603,7.4963,2.86688
504,421,6.90491,-2.18671,0,0,0,0,0,0,0,-1,1728,603,6.90491,2.18669
511,421,6.31348,-1.50653,0,0,0,0,0,0,0,-1,1735,603,6.31353,1.5065
518,421,6.27588,-2.49878,0,0,0,0,0,0,0,-1,1742,603,6.2759,2.4988
525,421,6.83777,-2.83875,0,0,0,0,0,0,0,-1,1749,603,6.83773,2.83872
532,421,6.91663,-2.45239,0.00190315,0.00131572,0.000811453,0.00247241,0.00074646,0.611753,0.00146431,0.0317026,1756,603,6.91659,2.4524
539,421,7.00439,-2.21814,0.000977345,0.00110386,0.000469952,0.00151479,0.00056641,0.852296,0.000883784,0.021179,1763,603,7.0044,2.21814
546,421,7.00244,-2.00116,0.000238753,0.000969792,0.000216796,0.00102925,0.000179296,1.30312,0.000634896,0.0127836,1770,603,7.00238,2.00115
553,421,6.99097,-1.79034,6.3157e-05,0.00076871,4.15928e-05,0.000771154,6.07136e-05,1.51212,0.000495107,0.0109518,1777,603,6.99098,1.79035
560,421,6.98914,-1.5899,0.000451976,0.000541954,0.000200079,0.000702039,0.000291891,0.895987,0.000407235,0.0136738,1784,603,6.98908,1.58991
567,421,7.01526,-1.38348,0.00119051,0.000201794,0.000522756,0.00141564,-2.33365e-05,0.406655,0.000951637,0.0161993,1791,603,7.01527,1.38346
574,421,7.00781,-1.18616,0.00255526,-0.000194363,0.00111918,0.0029532,-0.000592306,0.341627,0.00219306,0.0176213,1798,603,7.00784,1.18613
581,421,7.00049,-0.969788,0.00430531,-0.000631417,0.00186562,0.00493103,-0.00125714,0.323606,0.0037768,0.0150435,1805,603,7.00053,0.969808
588,421,6.96997,-0.776428,0.00635273,-0.00113786,0.0028181,0.00729454,-0.00207967,0.322529,0.0056845,0.0110244,1812,603,6.96994,0.776449
595,421,6.99463,-0.559814,0.00880158,-0.00177221,0.00388009,0.0100726,-0.00304324,0.316561,0.00792667,0.0140254,1819,603,6.99459,0.559845
602,421,6.97253,-0.37323,0.0118212,-0.00230361,0.00480896,0.013303,-0.00378542,0.298904,0.0103635,0.0145964,1826,603,6.97249,0.373214
609,421,6.89868,-0.20105,0.0156254,-0.0032717,0.00616014,0.0174562,-0.00510244,0.288878,0.0136597,0.031903,1833,603,6.89864,0.201073
616,421,7.08606,0.045166,0,0,0,0,0,0,0,-1,1840,603,7.08609,-0.0451928
623,421,6.19885,0.376648,0,0,0,0,0,0,0,-1,1847,603,6.19881,-0.376624
630,421,6.54993,0.778748,0,0,0,0,0,0,0,-1,1854,603,6.54991,-0.778744
637,421,3.74512,1.65405,0,0,0,0,0,0,0,-1,1861,603,3.74517,-1.65407
644,421,3.58081,0.354675,0,0,0,0,0,0,0,-1,1868,603,3.58082,-0.354704
651,421,3.28687,3.66351,0,0,0,0,0,0,0,-1,1875,603,3.28688,-3.66353
658,421,0,0,0,0,0,0,0,0,0,-1,1882,603,0,0
665,421,0,0,0,0,0,0,0,0,0,-1,1889,603,0,0
672,421,0,0,0,0,0,0,0,0,0,-1,1896,603,0,0
679,421,0,0,0,0,0,0,0,0,0,-1,1903,603,0,0
686,421,0,0,0,0,0,0,0,0,0,-1,1910,603,0,0
693,421,0,0,0,0,0,0,0,0,0,-1,1917,603,0,0
700,421,0,0,0,0,0,0,0,0,0,-1,1924,603,0,0
707,421,0,0,0,0,0,0,0,0,0,-1,1931,603,0,0
714,421,0,0,0,0,0,0,0,0,0,-1,1938,603,0,0
721,421,0,0,0,0,0,0,0,0,0,-1,1945,603,0,0
728,421,0,0,0,0,0,0,0,0,0,-1,1952,603,0,0
735,421,0,0,0,0,0,0,0,0,0,-1,1959,603,0,0
742,421,0,0,0,0,0,0,0,0,0,-1,1966,603,0,0
749,421,0,0,0,0,0,0,0,0,0,-1,1973,603,0,0
756,421,0,0,0,0,0,0,0,0,0,-1,1980,603,0,0
763,421,0,0,0,0,0,0,0,0,0,-1,1987,603,0,0
770,421,0,0,0,0,0,0,0,0,0,-1,1994,603,0,0
777,421,0,0,0,0,0,0,0,0,0,-1,2001,603,0,0
784,421,0,0,0,0,0,0,0,0,0,-1,2008,603,0,0
791,421,0,0,0,0,0,0,0,0,0,-1,2015,603,0,0
798,421,0,0,0,0,0,0,0,0,0,-1,2022,603,0,0
805,421,0,0,0,0,0,0,0,0,0,-1,2029,603,0,0
812,421,0,0,0,0,0,0,0,0,0,-1,2036,603,0,0
-700,414,0,0,0,0,0,0,0,0,0,-1,524,610,0,0
-693,414,0,0,0,0,0,0,0,0,0,-1,531,610,0,0
-686,414,0,0,0,0,0,0,0,0,0,-1,538,610,0,0
-679,414,0,0,0,0,0,0,0,0,0,-1,545,610,0,0
-672,414,0,0,0,0,0,0,0,0,0,-1,552,610,0,0
-665,414,0,0,0,0,0,0,0,0,0,-1,559,610,0,0
-658,414,0,0,0,0,0,0,0,0,0,-1,566,610,0,0
-651,414,0,0,0,0,0,0,0,0,0,-1,573,610,0,0
-644,414,0,0,0,0,0,0,0,0,0,-1,580,610,0,0
-637,414,0,0,0,0,0,0,0,0,0,-1,587,610,0,0
-630,414,0,0,0,0,0,0,0,0,0,-1,594,610,0,0
-623,414,0,0,0,0,0,0,0,0,0,-1,601,610,0,0
-616,414,0,0,0,0,0,0,0,0,0,-1,608,610,0,0
-609,414,0,0,0,0,0,0,0,0,0,-1,615,610,0,0
-602,414,0,0,0,0,0,0,0,0,0,-1,622,610,0,0
-595,414,0,0,0,0,0,0,0,0,0,-1,629,610,0,0
-588,414,0,0,0,0,0,0,0,0,0,-1,636,610,0,0
-581,414,0,0,0,0,0,0,0,0,0,-1,643,610,0,0
-574,414,0,0,0,0,0,0,0,0,0,-1,650,610,0,0
-567,414,0,0,0,0,0,0,0,0,0,-1,657,610,0,0
-560,414,0,0,0,0,0,0,0,0,0,-1,664,610,0,0
-553,414,0,0,0,0,0,0,0,0,0,-1,671,610,0,0
-546,414,0,0,0,0,0,0,0,0,0,-1,678,610,0,0
-539,414,-6.50098,-0.528992,0,0,0,0,0,0,0,-1,685,610,-6.501,0.528994
-532,414,-3.95496,-0.877441,0,0,0,0,0,0,0,-1,692,610,-3.95493,0.877472
-525,414,-9.23834,3.88635,0,0,0,0,0,0,0,-1,699,610,-9.23831,-3.88637
-518,414,-1.50458,-1.36444,0,0,0,0,0,0,0,-1,706,610,-1.50459,1.36443
-511,414,-2.05591,-3.11963,0,0,0,0,0,0,0,-1,713,610,-2.05588,3.1196
-504,414,-2.26416,-2.87775,0,0,0,0,0,0,0,-1,720,610,-2.26415,2.87776
-497,414,-2.67828,-1.61908,0,0,0,0,0,0,0,-1,727,610,-2.67826,1.61911
-490,414,-2.62787,-1.70203,0.00915566,-0.00173954,-0.00261472,0.00975067,-0.00233454,-0.223751,0.00740237,0.0377775,734,610,-2.62784,1.702
-483,414,-2.55438,-1.81287,-8.18424e-05,-0.000564235,-0.000353869,0.000105212,-0.000751289,-0.486264,0.000539362,0.0159588,741,610,-2.55438,1.81284
-476,414,-2.53845,-1.98535,0.000673608,0.000596556,-0.000734891,0.00137098,-0.000100819,-0.75921,0.00094938,0.0105883,748,610,-2.53845,1.98535
-469,414,-2.54816,-2.15015,0.0011257,0.000899665,-0.000652127,0.00167453,0.000350836,-0.699596,0.00101973,0.0116249,755,610,-2.54816,2.15015
-462,414,-2.5495,-2.34766,0.00123155,0.000942381,-0.000524096,0.00163064,0.000543291,-0.65081,0.000958758,0.021114,762,610,-2.54948,2.34764
-455,414,-2.54242,-2.5415,0.00114637,0.000495712,-0.000303471,0.00126594,0.000376145,-0.375324,0.000750678,0.0233755,769,610,-2.54241,2.54152
-448,414,-2.55377,-2.72638,0.0012416,0.000216492,-4.31206e-05,0.00124341,0.000214681,-0.0419657,0.000767454,0.02266,776,610,-2.55378,2.72641
-441,414,-2.54059,-2.92584,0.00109512,-0.000819072,0.000426128,0.0011857,-0.000909648,0.20944,0.00121324,0.0164749,783,610,-2.54057,2.92584
-434,414,-2.5412,-3.10999,0.000846994,-0.00220293,0.00106059,0.00117955,-0.00253548,0.303845,0.00219198,0.00922762,790,610,-2.54121,3.10996
-427,414,-2.52881,-3.28564,0.000743517,-0.00363554,0.00185377,0.00142287,-0.0043149,0.351274,0.00345012,0.0100018,797,610,-2.5288,3.28563
-420,414,-2.53467,-3.46545,0.000900069,-0.00522941,0.00268109,0.00190729,-0.00623663,0.359363,0.00491837,0.0105081,804,610,-2.53464,3.46545
-413,414,-2.54187,-3.66199,0.00154139,-0.00710916,0.00324199,0.00262153,-0.0081893,0.321605,0.00651172,0.0104716,811,610,-2.54185,3.66199
-406,414,-2.52606,-3.9021,0.00259027,-0.00884134,0.00371087,0.00368922,-0.0099403,0.287917,0.00814021,0.0155934,818,610,-2.52608,3.90211
-399,414,-2.54388,-4.02954,0.00388447,-0.011073,0.0042559,0.00501063,-0.0121992,0.258681,0.0102209,0.0210344,825,610,-2.54391,4.02952
-392,414,-2.55658,-4.08966,0.00550905,-0.0138361,0.00493069,0.00669328,-0.0150204,0.235712,0.01284,0.0259727,832,610,-2.55661,4.08968
-385,414,-2.47626,-4.10986,0.00762376,-0.0172722,0.00549078,0.00878096,-0.0184294,0.207713,0.0160357,0.0421729,839,610,-2.47624,4.10987
-378,414,-2.82703,-4.40533,0,0,0,0,0,0,0,-1,846,610,-2.82702,4.40534
-371,414,-2.58429,-5.2002,0,0,0,0,0,0,0,-1,853,610,-2.5843,5.20019
-364,414,-2.6181,-5.12628,0,0,0,0,0,0,0,-1,860,610,-2.61809,5.12627
-357,414,-5.09802,-3.25964,0,0,0,0,0,0,0,-1,867,610,-5.09801,3.25961
-350,414,-0.729858,-6.09155,0,0,0,0,0,0,0,-1,874,610,-0.729829,6.09153
-343,414,-0.68158,-7.48419,0,0,0,0,0,0,0,-1,881,610,-0.681581,7.4842
-336,414,-3.09222,-1.78766,0,0,0,0,0,0,0,-1,888,610,-3.09222,1.78763
-329,414,-4.73792,-1.55701,0,0,0,0,0,0,0,-1,895,610,-4.73793,1.557
-322,414,-4.42236,-1.29163,0,0,0,0,0,0,0,-1,902,610,-4.42238,1.2916
-315,414,0,0,0,0,0,0,0,0,0,-1,909,610,0,0
-308,414,0,0,0,0,0,0,0,0,0,-1,916,610,0,0
-301,414,0,0,0,0,0,0,0,0,0,-1,923,610,0,0
-294,414,0,0,0,0,0,0,0,0,0,-1,930,610,0,0
-287,414,0,0,0,0,0,0,0,0,0,-1,937,610,0,0
-280,414,0,0,0,0,0,0,0,0,0,-1,944,610,0,0
-273,414,0,0,0,0,0,0,0,0,0,-1,951,610,0,0
-266,414,0,0,0,0,0,0,0,0,0,-1,958,610,0,0
-259,414,0,0,0,0,0,0,0,0,0,-1,965,610,0,0
-252,414,0,0,0,0,0,0,0,0,0,-1,972,610,0,0
-245,414,0,0,0,0,0,0,0,0,0,-1,979,610,0,0
-238,414,0,0,0,0,0,0,0,0,0,-1,986,610,0,0
-231,414,0,0,0,0,0,0,0,0,0,-1,993,610,0,0
-224,414,0,0,0,0,0,0,0,0,0,-1,1000,610,0,0
-217,414,0,0,0,0,0,0,0,0,0,-1,1007,610,0,0
-210,414,0,0,0,0,0,0,0,0,0,-1,1014,610,0,0
-203,414,0,0,0,0,0,0,0,0,0,-1,1021,610,0,0
-196,414,0,0,0,0,0,0,0,0,0,-1,1028,610,0,0
-189,414,0,0,0,0,0,0,0,0,0,-1,1035,610,0,0
-182,414,0,0,0,0,0,0,0,0,0,-1,1042,610,0,0
-175,414,0,0,0,0,0,0,0,0,0,-1,1049,610,0,0
-168,414,0,0,0,0,0,0,0,0,0,-1,1056,610,0,0
-161,414,0,0,0,0,0,0,0,0,0,-1,1063,610,0,0
-154,414,0,0,0,0,0,0,0,0,0,-1,1070,610,0,0
-147,414,0,0,0,0,0,0,0,0,0,-1,1077,610,0,0
-140,414,0,0,0,0,0,0,0,0,0,-1,1084,610,0,0
-133,414,0,0,0,0,0,0,0,0,0,-1,1091,610,0,0
-126,414,0,0,0,0,0,0,0,0,0,-1,1098,610,0,0
-119,414,0,0,0,0,0,0,0,0,0,-1,1105,610,0,0
-112,414,0,0,0,0,0,0,0,0,0,-1,1112,610,0,0
-105,414,0,0,0,0,0,0,0,0,0,-1,1119,610,0,0
-98,414,0,0,0,0,0,0,0,0,0,-1,1126,610,0,0
-91,414,0,0,0,0,0,0,0,0,0,-1,1133,610,0,0
-84,414,0,0,0,0,0,0,0,0,0,-1,1140,610,0,0
-77,414,0,0,0,0,0,0,0,0,0,-1,1147,610,0,0
-70,414,0,0,0,0,0,0,0,0,0,-1,1154,610,0,0
-63,414,0,0,0,0,0,0,0,0,0,-1,1161,610,0,0
-56,414,0,0,0,0,0,0,0,0,0,-1,1168,610,0,0
-49,414,0,0,0,0,0,0,0,0,0,-1,1175,610,0,0
-42,414,0,0,0,0,0,0,0,0,0,-1,1182,610,0,0
-35,414,0,0,0,0,0,0,0,0,0,-1,1189,610,0,0
-28,414,0,0,0,0,0,0,0,0,0,-1,1196,610,0,0
-21,414,0,0,0,0,0,0,0,0,0,-1,1203,610,0,0
-14,414,0,0,0,0,0,0,0,0,0,-1,1210,610,0,0
-7,414,0,0,0,0,0,0,0,0,0,-1,1217,610,0,0
0,414,0,0,0,0,0,0,0,0,0,-1,1224,610,0,0
7,414,0,0,0,0,0,0,0,0,0,-1,1231,610,0,0
14,414,0,0,0,0,0,0,0,0,0,-1,1238,610,0,0
21,414,0,0,0,0,0,0,0,0,0,-1,1245,610,0,0
28,414,0,0,0,0,0,0,0,0,0,-1,1252,610,0,0
35,414,0,0,0,0,0,0,0,0,0,-1,1259,610,0,0
42,414,0,0,0,0,0,0,0,0,0,-1,1266,610,0,0
49,414,0,0,0,0,0,0,0,0,0,-1,1273,610,0,0
56,414,0,0,0,0,0,0,0,0,0,-1,1280,610,0,0
63,414,0,0,0,0,0,0,0,0,0,-1,1287,610,0,0
70,414,0,0,0,0,0,0,0,0,0,-1,1294,610,0,0
77,414,0,0,0,0,0,0,0,0,0,-1,1301,610,0,0
84,414,0,0,0,0,0,0,0,0,0,-1,1308,610,0,0
91,414,0,0,0,0,0,0,0,0,0,-1,1315,610,0,0
98,414,0,0,0,0,0,0,0,0,0,-1,1322,610,0,0
105,414,0,0,0,0,0,0,0,0,0,-1,1329,610,0,0
112,414,0,0,0,0,0,0,0,0,0,-1,1336,610,0,0
119,414,0,0,0,0,0,0,0,0,0,-1,1343,610,0,0
126,414,0,0,0,0,0,0,0,0,0,-1,1350,610,0,0
133,414,0,0,0,0,0,0,0,0,0,-1,1357,610,0,0
140,414,0,0,0,0,0,0,0,0,0,-1,1364,610,0,0
147,414,0,0,0,0,0,0,0,0,0,-1,1371,610,0,0
154,414,0,0,0,0,0,0,0,0,0,-1,1378,610,0,0
161,414,0,0,0,0,0,0,0,0,0,-1,1385,610,0,0
168,414,0,0,0,0,0,0,0,0,0,-1,1392,610,0,0
175,414,0,0,0,0,0,0,0,0,0,-1,1399,610,0,0
182,414,0,0,0,0,0,0,0,0,0,-1,1406,610,0,0
189,414,0,0,0,0,0,0,0,0,0,-1,1413,610,0,0
196,414,0,0,0,0,0,0,0,0,0,-1,1420,610,0,0
203,414,0,0,0,0,0,0,0,0,0,-1,1427,610,0,0
210,414,0,0,0,0,0,0,0,0,0,-1,1434,610,0,0
217,414,0,0,0,0,0,0,0,0,0,-1,1441,610,0,0
224,414,0,0,0,0,0,0,0,0,0,-1,1448,610,0,0
231,414,0,0,0,0,0,0,0,0,0,-1,1455,610,0,0
238,414,0,0,0,0,0,0,0,0,0,-1,1462,610,0,0
245,414,0,0,0,0,0,0,0,0,0,-1,1469,610,0,0
252,414,0,0,0,0,0,0,0,0,0,-1,1476,610,0,0
259,414,0,0,0,0,0,0,0,0,0,-1,1483,610,0,0
266,414,0,0,0,0,0,0,0,0,0,-1,1490,610,0,0
273,414,0,0,0,0,0,0,0,0,0,-1,1497,610,0,0
280,414,0,0,0,0,0,0,0,0,0,-1,1504,610,0,0
287,414,0,0,0,0,0,0,0,0,0,-1,1511,610,0,0
294,414,0,0,0,0,0,0,0,0,0,-1,1518,610,0,0
301,414,0,0,0,0,0,0,0,0,0,-1,1525,610,0,0
308,414,0,0,0,0,0,0,0,0,0,-1,1532,610,0,0
315,414,0,0,0,0,0,0,0,0,0,-1,1539,610,0,0
322,414,0,0,0,0,0,0,0,0,0,-1,1546,610,0,0
329,414,0,0,0,0,0,0,0,0,0,-1,1553,610,0,0
336,414,0,0,0,0,0,0,0,0,0,-1,1560,610,0,0
343,414,0,0,0,0,0,0,0,0,0,-1,1567,610,0,0
350,414,0,0,0,0,0,0,0,0,0,-1,1574,610,0,0
357,414,0,0,0,0,0,0,0,0,0,-1,1581,610,0,0
364,414,0,0,0,0,0,0,0,0,0,-1,1588,610,0,0
371,414,0,0,0,0,0,0,0,0,0,-1,1595,610,0,0
378,414,0,0,0,0,0,0,0,0,0,-1,1602,610,0,0
385,414,0,0,0,0,0,0,0,0,0,-1,1609,610,0,0
392,414,0,0,0,0,0,0,0,0,0,-1,1616,610,0,0
399,414,0,0,0,0,0,0,0,0,0,-1,1623,610,0,0
406,414,0,0,0,0,0,0,0,0,0,-1,1630,610,0,0
413,414,0,0,0,0,0,0,0,0,0,-1,1637,610,0,0
420,414,0,0,0,0,0,0,0,0,0,-1,1644,610,0,0
427,414,0,0,0,0,0,0,0,0,0,-1,1651,610,0,0
434,414,0,0,0,0,0,0,0,0,0,-1,1658,610,0,0
441,414,7.84375,0.584412,0,0,0,0,0,0,0,-1,1665,610,7.84379,-0.584394
448,414,7.40808,1.25446,0,0,0,0,0,0,0,-1,1672,610,7.40807,-1.25446
455,414,6.3512,1.73846,0,0,0,0,0,0,0,-1,1679,610,6.3512,-1.73847
462,414,8.18103,3.22113,0,0,0,0,0,0,0,-1,1686,610,8.18108,-3.22112
469,414,8.38513,2.49579,0,0,0,0,0,0,0,-1,1693,610,8.38516,-2.49576
476,414,8.64099,1.71161,0,0,0,0,0,0,0,-1,1700,610,8.64097,-1.71164
483,414,8.62744,0.687622,0,0,0,0,0,0,0,-1,1707,610,8.62749,-0.687615
490,414,8.38831,-0.0302734,0,0,0,0,0,0,0,-1,1714,610,8.38835,0.0302913
497,414,4.71094,-0.110046,0,0,0,0,0,0,0,-1,1721,610,4.71089,0.110024
504,414,7.19568,-1.43835,0,0,0,0,0,0,0,-1,1728,610,7.19563,1.43836
511,414,5.94153,-1.28772,0,0,0,0,0,0,0,-1,1735,610,5.94151,1.28769
518,414,4.53381,-0.0996704,0,0,0,0,0,0,0,-1,1742,610,4.53378,0.0996819
525,414,6.18811,-1.64056,0,0,0,0,0,0,0,-1,1749,610,6.18814,1.64055
532,414,7.06897,-2.64441,0,0,0,0,0,0,0,-1,1756,610,7.06897,2.64444
539,414,7.1665,-2.28534,-0.000627023,0.00224594,0.000314141,0.00227989,-0.000660971,1.46315,0.0017816,0.0334733,1763,610,7.16655,2.28535
546,414,7.18835,-1.99664,-0.00139697,0.00201688,2.43928e-05,0.00201705,-0.00139715,1.56365,0.00198199,0.0127338,1770,610,7.18832,1.99666
553,414,7.19495,-1.80359,-0.0016152,0.00169422,-0.000326735,0.00172617,-0.00164715,-1.47332,0.00194777,0.011087,1777,610,7.19499,1.80357
560,414,7.18799,-1.5885,-0.00113259,0.00133354,-0.000203851,0.00135028,-0.00114933,-1.48888,0.0014447,0.0136598,1784,610,7.18804,1.58849
567,414,7.21021,-1.35986,-0.0003717,0.000889409,5.56132e-05,0.000891857,-0.000374148,1.52681,0.000751024,0.0227579,1791,610,7.21016,1.35984
574,414,7.19434,-1.15442,0.000958597,0.00036171,0.000546012,0.00128241,3.79017e-05,0.535288,0.000842587,0.0207254,1798,610,7.19429,1.15442
581,414,7.19678,-0.955078,0.00259432,-0.000177896,0.00113723,0.00300114,-0.000584718,0.343544,0.00222147,0.0156243,1805,610,7.19678,0.955094
588,414,7.19873,-0.787659,0.00440272,-0.000755216,0.00187116,0.00501003,-0.00136252,0.313833,0.00387488,0.014811,1812,610,7.19879,0.787674
595,414,7.20984,-0.559875,0.00649224,-0.00142417,0.0026308,0.00728677,-0.0022187,0.293301,0.00574212,0.019895,1819,610,7.20978,0.559851
602,414,7.19836,-0.349548,0.00897768,-0.00186345,0.0031638,0.00983343,-0.0027192,0.264161,0.00762538,0.0221053,1826,610,7.19833,0.349561
609,414,7.12183,-0.171204,0.0119165,-0.00276994,0.00400504,0.0129376,-0.00379113,0.249655,0.0101281,0.0217818,1833,610,7.12177,0.171221
616,414,7.24512,-0.136047,0.0151625,-0.0031397,0.00490522,0.0163943,-0.00437146,0.246025,0.0126412,0.0412895,1840,610,7.2451,0.136022
623,414,7.60901,0.260132,0,0,0,0,0,0,0,-1,1847,610,7.60901,-0.260152
630,414,5.47144,0.499329,0,0,0,0,0,0,0,-1,1854,610,5.47142,-0.499303
637,414,6.57898,2.38019,0,0,0,0,0,0,0,-1,1861,610,6.579,-2.38019
644,414,5.87073,1.51422,0,0,0,0,0,0,0,-1,1868,610,5.87076,-1.51424
651,414,3.6377,0.820557,0,0,0,0,0,0,0,-1,1875,610,3.6377,-0.820543
658,414,2.29761,3.87323,0,0,0,0,0,0,0,-1,1882,610,2.29758,-3.87325
665,414,0,0,0,0,0,0,0,0,0,-1,1889,610,0,0
672,414,0,0,0,0,0,0,0,0,0,-1,1896,610,0,0
679,414,0,0,0,0,0,0,0,0,0,-1,1903,610,0,0
686,414,0,0,0,0,0,0,0,0,0,-1,1910,610,0,0
693,414,0,0,0,0,0,0,0,0,0,-1,1917,610,0,0
700,414,0,0,0,0,0,0,0,0,0,-1,1924,610,0,0
707,414,0,0,0,0,0,0,0,0,0,-1,1931,610,0,0
714,414,0,0,0,0,0,0,0,0,0,-1,1938,610,0,0
721,414,0,0,0,0,0,0,0,0,0,-1,1945,610,0,0
728,414,0,0,0,0,0,0,0,0,0,-1,1952,610,0,0
735,414,0,0,0,0,0,0,0,0,0,-1,1959,610,0,0
742,414,0,0,0,0,0,0,0,0,0,-1,1966,610,0,0
749,414,0,0,0,0,0,0,0,0,0,-1,1973,610,0,0
756,414,0,0,0,0,0,0,0,0,0,-1,1980,610,0,0
763,414,0,0,0,0,0,0,0,0,0,-1,1987,610,0,0
770,414,0,0,0,0,0,0,0,0,0,-1,1994,610,0,0
777,414,0,0,0,0,0,0,0,0,0,-1,2001,610,0,0
784,414,0,0,0,0,0,0,0,0,0,-1,2008,610,0,0
791,414,0,0,0,0,0,0,0,0,0,-1,2015,610,0,0
798,414,0,0,0,0,0,0,0,0,0,-1,2022,610,0,0
805,414,0,0,0,0,0,0,0,0,0,-1,2029,610,0,0
812,414,0,0,0,0,0,0,0,0,0,-1,2036,610,0,0
-700,407,0,0,0,0,0,0,0,0,0,-1,524,617,0,0
-693,407,0,0,0,0,0,0,0,0,0,-1,531,617,0,0
-686,407,0,0,0,0,0,0,0,0,0,-1,538,617,0,0
-679,407,0,0,0,0,0,0,0,0,0,-1,545,617,0,0
-672,407,0,0,0,0,0,0,0,0,0,-1,552,617,0,0
-665,407,0,0,0,0,0,0,0,0,0,-1,559,617,0,0
-658,407,0,0,0,0,0,0,0,0,0,-1,566,617,0,0
-651,407,0,0,0,0,0,0,0,0,0,-1,573,617,0,0
-644,407,0,0,0,0,0,0,0,0,0,-1,580,617,0,0
-637,407,0,0,0,0,0,0,0,0,0,-1,587,617,0,0
-630,407,0,0,0,0,0,0,0,0,0,-1,594,617,0,0
-623,407,0,0,0,0,0,0,0,0,0,-1,601,617,0,0
-616,407,0,0,0,0,0,0,0,0,0,-1,608,617,0,0
-609,407,0,0,0,0,0,0,0,0,0,-1,615,617,0,0
-602,407,0,0,0,0,0,0,0,0,0,-1,622,617,0,0
-595,407,0,0,0,0,0,0,0,0,0,-1,629,617,0,0
-588,407,0,0,0,0,0,0,0,0,0,-1,636,617,0,0
-581,407,0,0,0,0,0,0,0,0,0,-1,643,617,0,0
-574,407,0,0,0,0,0,0,0,0,0,-1,650,617,0,0
-567,407,0,0,0,0,0,0,0,0,0,-1,657,617,0,0
-560,407,0,0,0,0,0,0,0,0,0,-1,664,617,0,0
-553,407,0,0,0,0,0,0,0,0,0,-1,671,617,0,0
-546,407,-8.54517,-0.658142,0,0,0,0,0,0,0,-1,678,617,-8.54515,0.658112
-539,407,-6.09442,-1.01154,0,0,0,0,0,0,0,-1,685,617,-6.09441,1.01155
-532,407,-3.51044,-1.34229,0,0,0,0,0,0,0,-1,692,617,-3.51045,1.34226
-525,407,-1.84094,0.627808,0,0,0,0,0,0,0,-1,699,617,-1.84093,-0.627793
-518,407,-1.79602,-0.880981,0,0,0,0,0,0,0,-1,706,617,-1.796,0.880991
-511,407,-1.7511,-2.38977,0,0,0,0,0,0,0,-1,713,617,-1.75107,2.38978
-504,407,-2.60101,-1.83875,0,0,0,0,0,0,0,-1,720,617,-2.60103,1.83877
-497,407,-2.62421,-1.77002,0.0139432,-0.00406462,-0.00797467,0.016967,-0.00708842,-0.362426,0.0142734,0.0409138,727,617,-2.62418,1.77001
-490,407,-2.72943,-1.64825,0.00613322,-0.0026193,-0.00187979,0.00651987,-0.00300594,-0.202856,0.00562308,0.0209388,734,617,-2.72943,1.64823
-483,407,-2.72247,-1.79803,-0.00108028,-0.00134966,9.25686e-05,-0.00105154,-0.0013784,0.301068,0.000831673,0.0112906,741,617,-2.72249,1.79805
-476,407,-2.71204,-1.96735,-0.000159358,-0.000326821,-0.000234733,6.12999e-06,-0.000492309,-0.614078,0.000330268,0.00957064,748,617,-2.71202,1.96734
-469,407,-2.71375,-2.13513,0.000477912,-0.000140355,-0.000128725,0.000503642,-0.000166086,-0.197285,0.000402706,0.0120663,755,617,-2.71372,2.13511
-462,407,-2.74109,-2.32538,0.000759098,-7.90436e-05,-2.69898e-05,0.000759966,-7.99118e-05,-0.0321575,0.000535273,0.0194002,762,617,-2.74109,2.32541
-455,407,-2.75122,-2.53424,0.000848336,-0.000503535,0.000179768,0.000871833,-0.000527031,0.129969,0.000815772,0.0208607,769,617,-2.75119,2.53427
-448,407,-2.73798,-2.72815,0.00111441,-0.000847729,0.000444687,0.00121049,-0.000943805,0.212783,0.00124696,0.0173798,776,617,-2.73797,2.72813
-441,407,-2.73126,-2.88605,0.00104673,-0.00199495,0.000963663,0.00132633,-0.00227455,0.282394,0.00210286,0.0131687,783,617,-2.73128,2.88607
-434,407,-2.716,-3.07861,0.000841653,-0.00355352,0.00169484,0.00141929,-0.00413116,0.328475,0.00332961,0.00930715,790,617,-2.71602,3.07859
-427,407,-2.703,-3.27502,0.000750135,-0.00518639,0.00260975,0.00173426,-0.00617052,0.360607,0.00479742,0.0100173,797,617,-2.70303,3.275
-420,407,-2.70746,-3.45331,0.000939275,-0.00700745,0.00354071,0.00228796,-0.00835613,0.363941,0.0064697,0.0105392,804,617,-2.70746,3.45329
-413,407,-2.69586,-3.64478,0.00154731,-0.00925499,0.00429185,0.00304489,-0.0107526,0.335726,0.00837004,0.0106287,811,617,-2.69584,3.64475
-406,407,-2.7193,-3.79529,0.00252006,-0.011475,0.00500465,0.00412555,-0.0130805,0.310428,0.0103727,0.0202045,818,617,-2.71929,3.79531
-399,407,-2.64258,-3.82257,0.00379681,-0.0142715,0.00582572,0.0055123,-0.015987,0.286375,0.0128943,0.0352804,825,617,-2.64255,3.82259
-392,407,-2.57428,-3.82306,0.00543334,-0.017645,0.00679909,0.00728746,-0.0194991,0.266227,0.0159919,0.0447572,832,617,-2.57425,3.82306
-385,407,-2.62701,-3.87494,0.00762216,-0.0216952,0.00756168,0.0094576,-0.0235307,0.238123,0.019615,0.0496795,839,617,-2.62704,3.87494
-378,407,-2.60767,-3.89081,0,0,0,0,0,0,0,-1,846,617,-2.60767,3.8908
-371,407,-2.8996,-4.97571,0,0,0,0,0,0,0,-1,853,617,-2.89963,4.97573
-364,407,-3.09723,-5.1662,0,0,0,0,0,0,0,-1,860,617,-3.09725,5.16619
-357,407,-2.9917,-3.28107,0,0,0,0,0,0,0,-1,867,617,-2.99171,3.28106
-350,407,-1.05005,-4.43396,0,0,0,0,0,0,0,-1,874,617,-1.05007,4.43393
-343,407,-0.408447,-6.80444,0,0,0,0,0,0,0,-1,881,617,-0.408437,6.80447
-336,407,-0.174316,-8.50122,0,0,0,0,0,0,0,-1,888,617,-0.17432,8.50119
-329,407,-0.549561,-0.736267,0,0,0,0,0,0,0,-1,895,617,-0.549544,0.736255
-322,407,0,0,0,0,0,0,0,0,0,-1,902,617,0,0
-315,407,0,0,0,0,0,0,0,0,0,-1,909,617,0,0
-308,407,0,0,0,0,0,0,0,0,0,-1,916,617,0,0
-301,407,0,0,0,0,0,0,0,0,0,-1,923,617,0,0
-294,407,0,0,0,0,0,0,0,0,0,-1,930,617,0,0
-287,407,0,0,0,0,0,0,0,0,0,-1,937,617,0,0
-280,407,0,0,0,0,0,0,0,0,0,-1,944,617,0,0
-273,407,0,0,0,0,0,0,0,0,0,-1,951,617,0,0
-266,407,0,0,0,0,0,0,0,0,0,-1,958,617,0,0
-259,407,0,0,0,0,0,0,0,0,0,-1,965,617,0,0
-252,407,0,0,0,0,0,0,0,0,0,-1,972,617,0,0
-245,407,0,0,0,0,0,0,0,0,0,-1,979,617,0,0
-238,407,0,0,0,0,0,0,0,0,0,-1,986,617,0,0
-231,407,0,0,0,0,0,0,0,0,0,-1,993,617,0,0
-224,407,0,0,0,0,0,0,0,0,0,-1,1000,617,0,0
-217,407,0,0,0,0,0,0,0,0,0,-1,1007,617,0,0
-210,407,0,0,0,0,0,0,0,0,0,-1,1014,617,0,0
-203,407,0,0,0,0,0,0,0,0,0,-1,1021,617,0,0
-196,407,0,0,0,0,0,0,0,0,0,-1,1028,617,0,0
-189,407,0,0,0,0,0,0,0,0,0,-1,1035,617,0,0
-182,407,0,0,0,0,0,0,0,0,0,-1,1042,617,0,0
-175,407,0,0,0,0,0,0,0,0,0,-1,1049,617,0,0
-168,407,0,0,0,0,0,0,0,0,0,-1,1056,617,0,0
-161,407,0,0,0,0,0,0,0,0,0,-1,1063,617,0,0
-154,407,0,0,0,0,0,0,0,0,0,-1,1070,617,0,0
-147,407,0,0,0,0,0,0,0,0,0,-1,1077,617,0,0
-140,407,0,0,0,0,0,0,0,0,0,-1,1084,617,0,0
-133,407,0,0,0,0,0,0,0,0,0,-1,1091,617,0,0
-126,407,0,0,0,0,0,0,0,0,0,-1,1098,617,0,0
-119,407,0,0,0,0,0,0,0,0,0,-1,1105,617,0,0
-112,407,0,0,0,0,0,0,0,0,0,-1,1112,617,0,0
-105,407,0,0,0,0,0,0,0,0,0,-1,1119,617,0,0
-98,407,0,0,0,0,0,0,0,0,0,-1,1126,617,0,0
-91,407,0,0,0,0,0,0,0,0,0,-1,1133,617,0,0
-84,407,0,0,0,0,0,0,0,0,0,-1,1140,617,0,0
-77,407,0,0,0,0,0,0,0,0,0,-1,1147,617,0,0
-70,407,0,0,0,0,0,0,0,0,0,-1,1154,617,0,0
-63,407,0,0,0,0,0,0,0,0,0,-1,1161,617,0,0
-56,407,0,0,0,0,0,0,0,0,0,-1,1168,617,0,0
-49,407,0,0,0,0,0,0,0,0,0,-1,1175,617,0,0
-42,407,0,0,0,0,0,0,0,0,0,-1,1182,617,0,0
-35,407,0,0,0,0,0,0,0,0,0,-1,1189,617,0,0
-28,407,0,0,0,0,0,0,0,0,0,-1,1196,617,0,0
-21,407,0,0,0,0,0,0,0,0,0,-1,1203,617,0,0
-14,407,0,0,0,0,0,0,0,0,0,-1,1210,617,0,0
-7,407,0,0,0,0,0,0,0,0,0,-1,1217,617,0,0
0,407,0,0,0,0,0,0,0,0,0,-1,1224,617,0,0
7,407,0,0,0,0,0,0,0,0,0,-1,1231,617,0,0
14,407,0,0,0,0,0,0,0,0,0,-1,1238,617,0,0
21,407,0,0,0,0,0,0,0,0,0,-1,1245,617,0,0
28,407,0,0,0,0,0,0,0,0,0,-1,1252,617,0,0
35,407,0,0,0,0,0,0,0,0,0,-1,1259,617,0,0
42,407,0,0,0,0,0,0,0,0,0,-1,1266,617,0,0
49,407,0,0,0,0,0,0,0,0,0,-1,1273,617,0,0
56,407,0,0,0,0,0,0,0,0,0,-1,1280,617,0,0
63,407,0,0,0,0,0,0,0,0,0,-1,1287,617,0,0
70,407,0,0,0,0,0,0,0,0,0,-1,1294,617,0,0
77,407,0,0,0,0,0,0,0,0,0,-1,1301,617,0,0
84,407,0,0,0,0,0,0,0,0,0,-1,1308,617,0,0
91,407,0,0,0,0,0,0,0,0,0,-1,1315,617,0,0
98,407,0,0,0,0,0,0,0,0,0,-1,1322,617,0,0
105,407,0,0,0,0,0,0,0,0,0,-1,1329,617,0,0
112,407,0,0,0,0,0,0,0,0,0,-1,1336,617,0,0
119,407,0,0,0,0,0,0,0,0,0,-1,1343,617,0,0
126,407,0,0,0,0,0,0,0,0,0,-1,1350,617,0,0
133,407,0,0,0,0,0,0,0,0,0,-1,1357,617,0,0
140,407,0,0,0,0,0,0,0,0,0,-1,1364,617,0,0
147,407,0,0,0,0,0,0,0,0,0,-1,1371,617,0,0
154,407,0,0,0,0,0,0,0,0,0,-1,1378,617,0,0
161,407,0,0,0,0,0,0,0,0,0,-1,1385,617,0,0
168,407,0,0,0,0,0,0,0,0,0,-1,1392,617,0,0
175,407,0,0,0,0,0,0,0,0,0,-1,1399,617,0,0
182,407,0,0,0,0,0,0,0,0,0,-1,1406,617,0,0
189,407,0,0,0,0,0,0,0,0,0,-1,1413,617,0,0
196,407,0,0,0,0,0,0,0,0,0,-1,1420,617,0,0
203,407,0,0,0,0,0,0,0,0,0,-1,1427,617,0,0
210,407,0,0,0,0,0,0,0,0,0,-1,1434,617,0,0
217,407,0,0,0,0,0,0,0,0,0,-1,1441,617,0,0
224,407,0,0,0,0,0,0,0,0,0,-1,1448,617,0,0
231,407,0,0,0,0,0,0,0,0,0,-1,1455,617,0,0
238,407,0,0,0,0,0,0,0,0,0,-1,1462,617,0,0
245,407,0,0,0,0,0,0,0,0,0,-1,1469,617,0,0
252,407,0,0,0,0,0,0,0,0,0,-1,1476,617,0,0
259,407,0,0,0,0,0,0,0,0,0,-1,1483,617,0,0
266,407,0,0,0,0,0,0,0,0,0,-1,1490,617,0,0
273,407,0,0,0,0,0,0,0,0,0,-1,1497,617,0,0
280,407,0,0,0,0,0,0,0,0,0,-1,1504,617,0,0
287,407,0,0,0,0,0,0,0,0,0,-1,1511,617,0,0
294,407,0,0,0,0,0,0,0,0,0,-1,1518,617,0,0
301,407,0,0,0,0,0,0,0,0,0,-1,1525,617,0,0
308,407,0,0,0,0,0,0,0,0,0,-1,1532,617,0,0
315,407,0,0,0,0,0,0,0,0,0,-1,1539,617,0,0
322,407,0,0,0,0,0,0,0,0,0,-1,1546,617,0,0
329,407,0,0,0,0,0,0,0,0,0,-1,1553,617,0,0
336,407,0,0,0,0,0,0,0,0,0,-1,1560,617,0,0
343,407,0,0,0,0,0,0,0,0,0,-1,1567,617,0,0
350,407,0,0,0,0,0,0,0,0,0,-1,1574,617,0,0
357,407,0,0,0,0,0,0,0,0,0,-1,1581,617,0,0
364,407,0,0,0,0,0,0,0,0,0,-1,1588,617,0,0
371,407,0,0,0,0,0,0,0,0,0,-1,1595,617,0,0
378,407,0,0,0,0,0,0,0,0,0,-1,1602,617,0,0
385,407,0,0,0,0,0,0,0,0,0,-1,1609,617,0,0
392,407,0,0,0,0,0,0,0,0,0,-1,1616,617,0,0
399,407,0,0,0,0,0,0,0,0,0,-1,1623,617,0,0
406,407,0,0,0,0,0,0,0,0,0,-1,1630,617,0,0
413,407,0,0,0,0,0,0,0,0,0,-1,1637,617,0,0
420,407,0,0,0,0,0,0,0,0,0,-1,1644,617,0,0
427,407,0,0,0,0,0,0,0,0,0,-1,1651,617,0,0
434,407,0,0,0,0,0,0,0,0,0,-1,1658,617,0,0
441,407,0,0,0,0,0,0,0,0,0,-1,1665,617,0,0
448,407,7.02893,2.13843,0,0,0,0,0,0,0,-1,1672,617,7.02899,-2.13844
455,407,7.55237,2.29242,0,0,0,0,0,0,0,-1,1679,617,7.55236,-2.29244
462,407,8.2926,2.46173,0,0,0,0,0,0,0,-1,1686,617,8.29261,-2.46174
469,407,8.71509,2.22681,0,0,0,0,0,0,0,-1,1693,617,8.71511,-2.22681
476,407,8.89917,1.47766,0,0,0,0,0,0,0,-1,1700,617,8.89914,-1.47768
483,407,9.02612,0.682983,0,0,0,0,0,0,0,-1,1707,617,9.02608,-0.683004
490,407,9.12659,0.000671387,0,0,0,0,0,0,0,-1,1714,617,9.12653,-0.000675931
497,407,7.76819,0.855835,0,0,0,0,0,0,0,-1,1721,617,7.7682,-0.855865
504,407,4.69336,0.160706,0,0,0,0,0,0,0,-1,1728,617,4.69337,-0.1607
511,407,4.07104,-0.00140381,0,0,0,0,0,0,0,-1,1735,617,4.07109,0.00141425
518,407,6.09534,1.9411,0,0,0,0,0,0,0,-1,1742,617,6.09532,-1.94113
525,407,5.72534,-1.35986,0,0,0,0,0,0,0,-1,1749,617,5.72529,1.35988
532,407,7.31763,-2.34937,0,0,0,0,0,0,0,-1,1756,617,7.31766,2.34937
539,407,7.34766,-2.20996,0,0,0,0,0,0,0,-1,1763,617,7.34766,2.20993
546,407,7.396,-1.99951,-0.00366756,0.00264662,-0.000633692,0.00270959,-0.00373053,-1.47175,0.00373374,0.0131533,1770,617,7.39597,1.9995
553,407,7.38733,-1.80292,-0.00376498,0.00225341,-0.00103289,0.00242574,-0.00393732,-1.40547,0.0037081,0.0136541,1777,617,7.38737,1.80294
560,407,7.39551,-1.56787,-0.00308955,0.00182482,-0.000845919,0.00196635,-0.00323109,-1.40502,0.00303021,0.015822,1784,617,7.39551,1.56785
567,407,7.38733,-1.39496,-0.00221724,0.00136664,-0.000552527,0.00144989,-0.00230049,-1.42125,0.00218377,0.0290355,1791,617,7.38727,1.39499
574,407,7.39551,-1.19293,-0.000840212,0.000808365,-7.13703e-05,0.000811449,-0.000843296,-1.52761,0.000955427,0.0255657,1798,617,7.39554,1.19291
581,407,7.39856,-0.959839,0.000784083,0.00028273,0.000481128,0.00107592,-9.10868e-06,0.545238,0.000720336,0.0163349,1805,617,7.39857,0.959868
588,407,7.40515,-0.783813,0.00249479,-0.000241491,0.00113325,0.00290318,-0.000649882,0.345885,0.00218454,0.0112656,1812,617,7.40519,0.783819
595,407,7.41968,-0.567078,0.00440339,-0.000822974,0.00175458,0.00493779,-0.00135737,0.295648,0.00382545,0.0214901,1819,617,7.41971,0.567104
602,407,7.40637,-0.354797,0.00659512,-0.0010828,0.00211821,0.00714072,-0.0016284,0.252099,0.00538597,0.0175989,1826,617,7.40632,0.354812
609,407,7.37231,-0.140686,0.00903272,-0.00184744,0.00271159,0.00967106,-0.00248578,0.231202,0.00741616,0.0142415,1833,617,7.37229,0.140698
616,407,7.42468,0.18927,0.0115027,-0.00217466,0.00317735,0.0122048,-0.00287675,0.217471,0.00924583,0.0220517,1840,617,7.42472,-0.189273
623,407,7.59082,0.417419,0.0141847,-0.00217313,0.00326914,0.0148138,-0.00280227,0.190126,0.0109304,0.0488251,1847,617,7.59083,-0.417448
630,407,7.84229,0.515625,0,0,0,0,0,0,0,-1,1854,617,7.84228,-0.515645
637,407,6.27808,1.17114,0,0,0,0,0,0,0,-1,1861,617,6.27803,-1.17116
644,407,5.09766,2.27747,0,0,0,0,0,0,0,-1,1868,617,5.09764,-2.27746
651,407,8.39294,0.114197,0,0,0,0,0,0,0,-1,1875,617,8.39292,-0.114212
658,407,3.76685,0.594177,0,0,0,0,0,0,0,-1,1882,617,3.76683,-0.594184
665,407,5.76123,0.375061,0,0,0,0,0,0,0,-1,1889,617,5.76118,-0.37509
672,407,0,0,0,0,0,0,0,0,0,-1,1896,617,0,0
679,407,0,0,0,0,0,0,0,0,0,-1,1903,617,0,0
686,407,0,0,0,0,0,0,0,0,0,-1,1910,617,0,0
693,407,0,0,0,0,0,0,0,0,0,-1,1917,617,0,0
700,407,0,0,0,0,0,0,0,0,0,-1,1924,617,0,0
707,407,0,0,0,0,0,0,0,0,0,-1,1931,617,0,0
714,407,0,0,0,0,0,0,0,0,0,-1,1938,617,0,0
721,407,0,0,0,0,0,0,0,0,0,-1,1945,617,0,0
728,407,0,0,0,0,0,0,0,0,0,-1,1952,617,0,0
735,407,0,0,0,0,0,0,0,0,0,-1,1959,617,0,0
742,407,0,0,0,0,0,0,0,0,0,-1,1966,617,0,0
749,407,0,0,0,0,0,0,0,0,0,-1,1973,617,0,0
756,407,0,0,0,0,0,0,0,0,0,-1,1980,617,0,0
763,407,0,0,0,0,0,0,0,0,0,-1,1987,617,0,0
770,407,0,0,0,0,0,0,0,0,0,-1,1994,617,0,0
777,407,0,0,0,0,0,0,0,0,0,-1,2001,617,0,0
784,407,0,0,0,0,0,0,0,0,0,-1,2008,617,0,0
791,407,0,0,0,0,0,0,0,0,0,-1,2015,617,0,0
798,407,0,0,0,0,0,0,0,0,0,-1,2022,617,0,0
805,407,0,0,0,0,0,0,0,0,0,-1,2029,617,0,0
812,407,0,0,0,0,0,0,0,0,0,-1,2036,617,0,0
-700,400,0,0,0,0,0,0,0,0,0,-1,524,624,0,0
-693,400,0,0,0,0,0,0,0,0,0,-1,531,624,0,0
-686,400,0,0,0,0,0,0,0,0,0,-1,538,624,0,0
-679,400,0,0,0,0,0,0,0,0,0,-1,545,624,0,0
-672,400,0,0,0,0,0,0,0,0,0,-1,552,624,0,0
-665,400,0,0,0,0,0,0,0,0,0,-1,559,624,0,0
-658,400,0,0,0,0,0,0,0,0,0,-1,566,624,0,0
-651,400,0,0,0,0,0,0,0,0,0,-1,573,624,0,0
-644,400,0,0,0,0,0,0,0,0,0,-1,580,624,0,0
-637,400,0,0,0,0,0,0,0,0,0,-1,587,624,0,0
-630,400,0,0,0,0,0,0,0,0,0,-1,594,624,0,0
-623,400,0,0,0,0,0,0,0,0,0,-1,601,624,0,0
-616,400,0,0,0,0,0,0,0,0,0,-1,608,624,0,0
-609,400,0,0,0,0,0,0,0,0,0,-1,615,624,0,0
-602,400,0,0,0,0,0,0,0,0,0,-1,622,624,0,0
-595,400,0,0,0,0,0,0,0,0,0,-1,629,624,0,0
-588,400,0,0,0,0,0,0,0,0,0,-1,636,624,0,0
-581,400,0,0,0,0,0,0,0,0,0,-1,643,624,0,0
-574,400,0,0,0,0,0,0,0,0,0,-1,650,624,0,0
-567,400,0,0,0,0,0,0,0,0,0,-1,657,624,0,0
-560,400,0,0,0,0,0,0,0,0,0,-1,664,624,0,0
-553,400,0,0,0,0,0,0,0,0,0,-1,671,624,0,0
-546,400,-8.41174,-1.4599,0,0,0,0,0,0,0,-1,678,624,-8.41173,1.45989
-539,400,-5.69104,-1.7337,0.160704,-0.0165206,-0.0706702,0.185434,-0.0412503,-0.336613,0.139422,0.0490066,685,624,-5.69103,1.7337
-532,400,-3.03632,-2.03912,0,0,0,0,0,0,0,-1,692,624,-3.03632,2.03909
-525,400,-0.330627,-2.44366,0,0,0,0,0,0,0,-1,699,624,-0.330601,2.44365
-518,400,-2.08643,-0.387634,0,0,0,0,0,0,0,-1,706,624,-2.08644,0.387635
-511,400,-2.46613,-2.91168,0,0,0,0,0,0,0,-1,713,624,-2.46611,2.91168
-504,400,-2.5625,-2.18378,0.019656,-0.00578602,-0.0116517,0.0241857,-0.0103157,-0.370777,0.0204489,0.0486122,720,624,-2.5625,2.1838
-497,400,-2.80316,-1.51306,0.00967779,-0.00410767,-0.00677897,0.0124527,-0.00688262,-0.388539,0.0113166,0.0311875,727,624,-2.80313,1.51309
-490,400,-2.86511,-1.57764,0.00382215,-0.00281789,-0.00149553,0.00414344,-0.00313918,-0.211617,0.00421793,0.0156041,734,624,-2.86511,1.57762
-483,400,-2.90765,-1.78253,-0.00161899,-0.0016141,0.000253933,-0.0013626,-0.00187049,0.790213,0.00111688,0.0143655,741,624,-2.90768,1.78254
-476,400,-2.89691,-1.96014,-0.000642666,-0.000844364,5.22714e-05,-0.000629924,-0.000857106,0.239094,0.000512737,0.0132393,748,624,-2.8969,1.96017
-469,400,-2.9032,-2.14313,7.78838e-05,-0.000874006,0.000246073,0.000137733,-0.000933855,0.238585,0.000673194,0.0143169,755,624,-2.90322,2.14311
-462,400,-2.90466,-2.33868,0.00044757,-0.000905739,0.000386161,0.000550006,-0.00100817,0.259295,0.000912487,0.0184938,762,624,-2.90466,2.33868
-455,400,-2.91376,-2.526,0.000641322,-0.00139533,0.000632127,0.000821566,-0.00157558,0.277769,0.00140663,0.0184458,769,624,-2.91376,2.52598
-448,400,-2.92249,-2.72552,0.00101082,-0.00191181,0.000960595,0.00129827,-0.00219926,0.290763,0.00204151,0.013598,776,624,-2.9225,2.72553
-441,400,-2.91833,-2.88794,0.000987012,-0.00324307,0.00158131,0.00151279,-0.00376886,0.320998,0.00314072,0.0128266,783,624,-2.91831,2.88792
-434,400,-2.90454,-3.06317,0.000812522,-0.00503522,0.00245265,0.001705,-0.00592769,0.348988,0.00462607,0.0101445,790,624,-2.90456,3.06315
-427,400,-2.89191,-3.25555,0.000728163,-0.00693511,0.00352891,0.00210562,-0.00831256,0.372146,0.00636083,0.00929933,797,624,-2.8919,3.25555
-420,400,-2.86432,-3.46613,0.000938575,-0.00906533,0.00461014,0.00273904,-0.0108658,0.372329,0.00830876,0.0110092,804,624,-2.86434,3.46612
-413,400,-2.85864,-3.64099,0.00148552,-0.0117786,0.00561364,0.00354237,-0.0138354,0.351212,0.0106035,0.0215986,811,624,-2.85863,3.64097
-406,400,-3.06219,-3.72827,0.00232762,-0.0146211,0.00664939,0.00462494,-0.0169184,0.332655,0.0130957,0.0327522,818,624,-3.0622,3.7283
-399,400,-2.65814,-3.66187,0.00351788,-0.0181068,0.00783791,0.00605992,-0.0206489,0.313622,0.016169,0.0441066,825,624,-2.65815,3.66188
-392,400,-2.39581,-3.71625,0,0,0,0,0,0,0,-1,832,624,-2.39581,3.71627
-385,400,-2.72638,-3.72791,0,0,0,0,0,0,0,-1,839,624,-2.72636,3.7279
-378,400,-2.26953,-2.26978,0,0,0,0,0,0,0,-1,846,624,-2.26952,2.26975
-371,400,-2.23303,-1.85944,0,0,0,0,0,0,0,-1,853,624,-2.23305,1.85946
-364,400,-3.69025,-3.5376,0,0,0,0,0,0,0,-1,860,624,-3.69024,3.53759
-357,400,-1.43842,-3.62018,0,0,0,0,0,0,0,-1,867,624,-1.43842,3.62018
-350,400,-0.496826,-4.11804,0,0,0,0,0,0,0,-1,874,624,-0.496807,4.11803
-343,400,-0.111755,-5.8924,0,0,0,0,0,0,0,-1,881,624,-0.111774,5.89237
-336,400,0,0,0,0,0,0,0,0,0,-1,888,624,0,0
-329,400,0,0,0,0,0,0,0,0,0,-1,895,624,0,0
-322,400,0,0,0,0,0,0,0,0,0,-1,902,624,0,0
-315,400,0,0,0,0,0,0,0,0,0,-1,909,624,0,0
-308,400,0,0,0,0,0,0,0,0,0,-1,916,624,0,0
-301,400,0,0,0,0,0,0,0,0,0,-1,923,624,0,0
-294,400,0,0,0,0,0,0,0,0,0,-1,930,624,0,0
-287,400,0,0,0,0,0,0,0,0,0,-1,937,624,0,0
-280,400,0,0,0,0,0,0,0,0,0,-1,944,624,0,0
-273,400,0,0,0,0,0,0,0,0,0,-1,951,624,0,0
-266,400,0,0,0,0,0,0,0,0,0,-1,958,624,0,0
-259,400,0,0,0,0,0,0,0,0,0,-1,965,624,0,0
-252,400,0,0,0,0,0,0,0,0,0,-1,972,624,0,0
-245,400,0,0,0,0,0,0,0,0,0,-1,979,624,0,0
-238,400,0,0,0,0,0,0,0,0,0,-1,986,624,0,0
-231,400,0,0,0,0,0,0,0,0,0,-1,993,624,0,0
-224,400,0,0,0,0,0,0,0,0,0,-1,1000,624,0,0
-217,400,0,0,0,0,0,0,0,0,0,-1,1007,624,0,0
-210,400,0,0,0,0,0,0,0,0,0,-1,1014,624,0,0
-203,400,0,0,0,0,0,0,0,0,0,-1,1021,624,0,0
-196,400,0,0,0,0,0,0,0,0,0,-1,1028,624,0,0
-189,400,0,0,0,0,0,0,0,0,0,-1,1035,624,0,0
-182,400,0,0,0,0,0,0,0,0,0,-1,1042,624,0,0
-175,400,0,0,0,0,0,0,0,0,0,-1,1049,624,0,0
-168,400,0,0,0,0,0,0,0,0,0,-1,1056,624,0,0
-161,400,0,0,0,0,0,0,0,0,0,-1,1063,624,0,0
-154,400,0,0,0,0,0,0,0,0,0,-1,1070,624,0,0
-147,400,0,0,0,0,0,0,0,0,0,-1,1077,624,0,0
-140,400,0,0,0,0,0,0,0,0,0,-1,1084,624,0,0
-133,400,0,0,0,0,0,0,0,0,0,-1,1091,624,0,0
-126,400,0,0,0,0,0,0,0,0,0,-1,1098,624,0,0
-119,400,0,0,0,0,0,0,0,0,0,-1,1105,624,0,0
-112,400,0,0,0,0,0,0,0,0,0,-1,1112,624,0,0
-105,400,0,0,0,0,0,0,0,0,0,-1,1119,624,0,0
-98,400,0,0,0,0,0,0,0,0,0,-1,1126,624,0,0
-91,400,0,0,0,0,0,0,0,0,0,-1,1133,624,0,0
-84,400,0,0,0,0,0,0,0,0,0,-1,1140,624,0,0
-77,400,0,0,0,0,0,0,0,0,0,-1,1147,624,0,0
-70,400,0,0,0,0,0,0,0,0,0,-1,1154,624,0,0
-63,400,0,0,0,0,0,0,0,0,0,-1,1161,624,0,0
-56,400,0,0,0,0,0,0,0,0,0,-1,1168,624,0,0
-49,400,0,0,0,0,0,0,0,0,0,-1,1175,624,0,0
-42,400,0,0,0,0,0,0,0,0,0,-1,1182,624,0,0
-35,400,0,0,0,0,0,0,0,0,0,-1,1189,624,0,0
-28,400,0,0,0,0,0,0,0,0,0,-1,1196,624,0,0
-21,400,0,0,0,0,0,0,0,0,0,-1,1203,624,0,0
-14,400,0,0,0,0,0,0,0,0,0,-1,1210,624,0,0
-7,400,0,0,0,0,0,0,0,0,0,-1,1217,624,0,0
0,400,0,0,0,0,0,0,0,0,0,-1,1224,624,0,0
7,400,0,0,0,0,0,0,0,0,0,-1,1231,624,0,0
14,400,0,0,0,0,0,0,0,0,0,-1,1238,624,0,0
21,400,0,0,0,0,0,0,0,0,0,-1,1245,624,0,0
28,400,0,0,0,0,0,0,0,0,0,-1,1252,624,0,0
35,400,0,0,0,0,0,0,0,0,0,-1,1259,624,0,0
42,400,0,0,0,0,0,0,0,0,0,-1,1266,624,0,0
49,400,0,0,0,0,0,0,0,0,0,-1,1273,624,0,0
56,400,0,0,0,0,0,0,0,0,0,-1,1280,624,0,0
63,400,0,0,0,0,0,0,0,0,0,-1,1287,624,0,0
70,400,0,0,0,0,0,0,0,0,0,-1,1294,624,0,0
77,400,0,0,0,0,0,0,0,0,0,-1,1301,624,0,0
84,400,0,0,0,0,0,0,0,0,0,-1,1308,624,0,0
91,400,0,0,0,0,0,0,0,0,0,-1,1315,624,0,0
98,400,0,0,0,0,0,0,0,0,0,-1,1322,624,0,0
105,400,0,0,0,0,0,0,0,0,0,-1,1329,624,0,0
112,400,0,0,0,0,0,0,0,0,0,-1,1336,624,0,0
119,400,0,0,0,0,0,0,0,0,0,-1,1343,624,0,0
126,400,0,0,0,0,0,0,0,0,0,-1,1350,624,0,0
133,400,0,0,0,0,0,0,0,0,0,-1,1357,624,0,0
140,400,0,0,0,0,0,0,0,0,0,-1,1364,624,0,0
147,400,0,0,0,0,0,0,0,0,0,-1,1371,624,0,0
154,400,0,0,0,0,0,0,0,0,0,-1,1378,624,0,0
161,400,0,0,0,0,0,0,0,0,0,-1,1385,624,0,0
168,400,0,0,0,0,0,0,0,0,0,-1,1392,624,0,0
175,400,0,0,0,0,0,0,0,0,0,-1,1399,624,0,0
182,400,0,0,0,0,0,0,0,0,0,-1,1406,624,0,0
189,400,0,0,0,0,0,0,0,0,0,-1,1413,624,0,0
196,400,0,0,0,0,0,0,0,0,0,-1,1420,624,0,0
203,400,0,0,0,0,0,0,0,0,0,-1,1427,624,0,0
210,400,0,0,0,0,0,0,0,0,0,-1,1434,624,0,0
217,400,0,0,0,0,0,0,0,0,0,-1,1441,624,0,0
224,400,0,0,0,0,0,0,0,0,0,-1,1448,624,0,0
231,400,0,0,0,0,0,0,0,0,0,-1,1455,624,0,0
238,400,0,0,0,0,0,0,0,0,0,-1,1462,624,0,0
245,400,0,0,0,0,0,0,0,0,0,-1,1469,624,0,0
252,400,0,0,0,0,0,0,0,0,0,-1,1476,624,0,0
259,400,0,0,0,0,0,0,0,0,0,-1,1483,624,0,0
266,400,0,0,0,0,0,0,0,0,0,-1,1490,624,0,0
273,400,0,0,0,0,0,0,0,0,0,-1,1497,624,0,0
280,400,0,0,0,0,0,0,0,0,0,-1,1504,624,0,0
287,400,0,0,0,0,0,0,0,0,0,-1,1511,624,0,0
294,400,0,0,0,0,0,0,0,0,0,-1,1518,624,0,0
301,400,0,0,0,0,0,0,0,0,0,-1,1525,624,0,0
308,400,0,0,0,0,0,0,0,0,0,-1,1532,624,0,0
315,400,0,0,0,0,0,0,0,0,0,-1,1539,624,0,0
322,400,0,0,0,0,0,0,0,0,0,-1,1546,624,0,0
329,400,0,0,0,0,0,0,0,0,0,-1,1553,624,0,0
336,400,0,0,0,0,0,0,0,0,0,-1,1560,624,0,0
343,400,0,0,0,0,0,0,0,0,0,-1,1567,624,0,0
350,400,0,0,0,0,0,0,0,0,0,-1,1574,624,0,0
357,400,0,0,0,0,0,0,0,0,0,-1,1581,624,0,0
364,400,0,0,0,0,0,0,0,0,0,-1,1588,624,0,0
371,400,0,0,0,0,0,0,0,0,0,-1,1595,624,0,0
378,400,0,0,0,0,0,0,0,0,0,-1,1602,624,0,0
385,400,0,0,0,0,0,0,0,0,0,-1,1609,624,0,0
392,400,0,0,0,0,0,0,0,0,0,-1,1616,624,0,0
399,400,0,0,0,0,0,0,0,0,0,-1,1623,624,0,0
406,400,0,0,0,0,0,0,0,0,0,-1,1630,624,0,0
413,400,0,0,0,0,0,0,0,0,0,-1,1637,624,0,0
420,400,0,0,0,0,0,0,0,0,0,-1,1644,624,0,0
427,400,0,0,0,0,0,0,0,0,0,-1,1651,624,0,0
434,400,0,0,0,0,0,0,0,0,0,-1,1658,624,0,0
441,400,0,0,0,0,0,0,0,0,0,-1,1665,624,0,0
448,400,0,0,0,0,0,0,0,0,0,-1,1672,624,0,0
455,400,8.91309,2.75885,0,0,0,0,0,0,0,-1,1679,624,8.91312,-2.75885
462,400,8.90356,2.37878,0,0,0,0,0,0,0,-1,1686,624,8.90353,-2.37878
469,400,9.14429,1.76849,0,0,0,0,0,0,0,-1,1693,624,9.14432,-1.76847
476,400,9.23254,1.25995,0,0,0,0,0,0,0,-1,1700,624,9.23252,-1.25994
483,400,9.59766,0.562439,0,0,0,0,0,0,0,-1,1707,624,9.59771,-0.56242
490,400,9.92578,-0.213745,0,0,0,0,0,0,0,-1,1714,624,9.92579,0.21376
497,400,9.19141,0.175232,0,0,0,0,0,0,0,-1,1721,624,9.19138,-0.175209
504,400,9.23438,0.00823975,0,0,0,0,0,0,0,-1,1728,624,9.23436,-0.00823766
511,400,6.16687,3.3501,0,0,0,0,0,0,0,-1,1735,624,6.16682,-3.35007
518,400,6.55237,1.74994,0,0,0,0,0,0,0,-1,1742,624,6.55236,-1.74993
525,400,6.99731,1.08783,0,0,0,0,0,0,0,-1,1749,624,6.99736,-1.08785
532,400,6.96582,-1.74982,0,0,0,0,0,0,0,-1,1756,624,6.96585,1.74983
539,400,7.64368,-2.20776,0,0,0,0,0,0,0,-1,1763,624,7.64363,2.20777
546,400,7.64722,-2.03345,-0.00655614,0.00352012,-0.00149667,0.00373773,-0.00677375,-1.42641,0.0061526,0.0187842,1770,624,7.64726,2.03343
553,400,7.59619,-1.79779,-0.00640046,0.00298261,-0.0018968,0.00335154,-0.00676939,-1.37869,0.00595335,0.0129378,1777,624,7.59617,1.79779
560,400,7.5957,-1.56201,-0.00545695,0.00241657,-0.00164265,0.00274553,-0.00578592,-1.37315,0.00502881,0.0134679,1784,624,7.59574,1.56201
567,400,7.60803,-1.39056,-0.00440904,0.00188659,-0.00131536,0.00215036,-0.00467281,-1.37289,0.00402809,0.0177913,1791,624,7.60798,1.39057
574,400,7.60608,-1.19586,-0.00292477,0.00124019,-0.000837091,0.00140213,-0.00308672,-1.3797,0.00265177,0.0193823,1798,624,7.60613,1.19585
581,400,7.58508,-0.968384,-0.00122774,0.000678699,-0.000293071,0.000722735,-0.00127178,-1.42166,0.00116598,0.017476,1805,624,7.58513,0.9684
588,400,7.6051,-0.774536,0.000496505,0.000170937,0.000328901,0.000700701,-3.32591e-05,0.555605,0.000478605,0.0140264,1812,624,7.6051,0.774509
595,400,7.61206,-0.585083,0.00234793,-0.000345736,0.000891074,0.00261602,-0.000613825,0.292246,0.00198059,0.0133763,1819,624,7.61212,0.585103
602,400,7.60754,-0.377136,0.00439252,-0.000479483,0.00119544,0.00467003,-0.000756999,0.228106,0.00339395,0.0126106,1826,624,7.60751,0.377115
609,400,7.54871,-0.148071,0.00653003,-0.00111503,0.00167985,0.00688286,-0.00146786,0.207027,0.0051481,0.0128683,1833,624,7.54876,0.148101
616,400,7.54785,0.0975342,0.00857429,-0.00143268,0.00192984,0.00893356,-0.00179195,0.184059,0.00663419,0.0160587,1840,624,7.54785,-0.0975444
623,400,7.7345,0.394836,0.0107477,-0.00140149,0.00185888,0.0110258,-0.00167954,0.148481,0.00796956,0.0339571,1847,624,7.73447,-0.394848
630,400,7.9801,0.64209,0,0,0,0,0,0,0,-1,1854,624,7.98007,-0.642088
637,400,6.42859,1.06445,0,0,0,0,0,0,0,-1,1861,624,6.42854,-1.06448
644,400,7.60754,1.09528,0,0,0,0,0,0,0,-1,1868,624,7.60754,-1.09525
651,400,8.12268,0.343323,0,0,0,0,0,0,0,-1,1875,624,8.12273,-0.343307
658,400,9.40002,0.30603,0,0,0,0,0,0,0,-1,1882,624,9.39999,-0.306017
665,400,5.98438,0.522522,0,0,0,0,0,0,0,-1,1889,624,5.98442,-0.522552
672,400,0,0,0,0,0,0,0,0,0,-1,1896,624,0,0
679,400,0,0,0,0,0,0,0,0,0,-1,1903,624,0,0
686,400,0,0,0,0,0,0,0,0,0,-1,1910,624,0,0
693,400,0,0,0,0,0,0,0,0,0,-1,1917,624,0,0
700,400,0,0,0,0,0,0,0,0,0,-1,1924,624,0,0
707,400,0,0,0,0,0,0,0,0,0,-1,1931,624,0,0
714,400,0,0,0,0,0,0,0,0,0,-1,1938,624,0,0
721,400,0,0,0,0,0,0,0,0,0,-1,1945,624,0,0
728,400,0,0,0,0,0,0,0,0,0,-1,1952,624,0,0
735,400,0,0,0,0,0,0,0,0,0,-1,1959,624,0,0
742,400,0,0,0,0,0,0,0,0,0,-1,1966,624,0,0
749,400,0,0,0,0,0,0,0,0,0,-1,1973,624,0,0
756,400,0,0,0,0,0,0,0,0,0,-1,1980,624,0,0
763,400,0,0,0,0,0,0,0,0,0,-1,1987,624,0,0
770,400,0,0,0,0,0,0,0,0,0,-1,1994,624,0,0
777,400,0,0,0,0,0,0,0,0,0,-1,2001,624,0,0
784,400,0,0,0,0,0,0,0,0,0,-1,2008,624,0,0
791,400,0,0,0,0,0,0,0,0,0,-1,2015,624,0,0
798,400,0,0,0,0,0,0,0,0,0,-1,2022,624,0,0
805,400,0,0,0,0,0,0,0,0,0,-1,2029,624,0,0
812,400,0,0,0,0,0,0,0,0,0,-1,2036,624,0,0
-700,393,0,0,0,0,0,0,0,0,0,-1,524,631,0,0
-693,393,0,0,0,0,0,0,0,0,0,-1,531,631,0,0
-686,393,0,0,0,0,0,0,0,0,0,-1,538,631,0,0
-679,393,0,0,0,0,0,0,0,0,0,-1,545,631,0,0
-672,393,0,0,0,0,0,0,0,0,0,-1,552,631,0,0
-665,393,0,0,0,0,0,0,0,0,0,-1,559,631,0,0
-658,393,0,0,0,0,0,0,0,0,0,-1,566,631,0,0
-651,393,0,0,0,0,0,0,0,0,0,-1,573,631,0,0
-644,393,0,0,0,0,0,0,0,0,0,-1,580,631,0,0
-637,393,0,0,0,0,0,0,0,0,0,-1,587,631,0,0
-630,393,0,0,0,0,0,0,0,0,0,-1,594,631,0,0
-623,393,0,0,0,0,0,0,0,0,0,-1,601,631,0,0
-616,393,0,0,0,0,0,0,0,0,0,-1,608,631,0,0
-609,393,0,0,0,0,0,0,0,0,0,-1,615,631,0,0
-602,393,0,0,0,0,0,0,0,0,0,-1,622,631,0,0
-595,393,0,0,0,0,0,0,0,0,0,-1,629,631,0,0
-588,393,0,0,0,0,0,0,0,0,0,-1,636,631,0,0
-581,393,0,0,0,0,0,0,0,0,0,-1,643,631,0,0
-574,393,0,0,0,0,0,0,0,0,0,-1,650,631,0,0
-567,393,0,0,0,0,0,0,0,0,0,-1,657,631,0,0
-560,393,0,0,0,0,0,0,0,0,0,-1,664,631,0,0
-553,393,-8.83954,-2.02435,0,0,0,0,0,0,0,-1,671,631,-8.83956,2.02438
-546,393,-7.19971,-1.82294,0,0,0,0,0,0,0,-1,678,631,-7.1997,1.82297
-539,393,-5.01807,-1.91962,0,0,0,0,0,0,0,-1,685,631,-5.01806,1.91961
-532,393,-2.83643,-2.01624,0,0,0,0,0,0,0,-1,692,631,-2.83642,2.01626
-525,393,-2.5993,0.53241,0,0,0,0,0,0,0,-1,699,631,-2.59933,-0.532408
-518,393,-2.35974,-0.185608,0,0,0,0,0,0,0,-1,706,631,-2.35976,0.185613
-511,393,-2.66949,-0.641663,0,0,0,0,0,0,0,-1,713,631,-2.66947,0.641688
-504,393,-2.63525,-1.17444,0.0139373,-0.00526631,-0.00967171,0.017964,-0.00929303,-0.394513,0.0160001,0.0434948,720,631,-2.63526,1.17446
-497,393,-3.06458,-1.32153,0.00642911,-0.00371828,-0.00575668,0.00902887,-0.00631803,-0.424188,0.00890649,0.0218137,727,631,-3.06458,1.32151
-490,393,-3.06885,-1.57935,0.00212149,-0.00260648,-0.00129542,0.00245315,-0.00293815,-0.250646,0.00311686,0.014181,734,631,-3.06883,1.57937
-483,393,-3.07867,-1.77148,-0.00179348,-0.0015326,0.000240618,-0.00138934,-0.00193674,1.03378,0.00115286,0.0189752,741,631,-3.07867,1.77151
-476,393,-3.07867,-1.94165,-0.000863013,-0.00107776,0.000202226,-0.000741423,-0.00119935,0.541344,0.000698865,0.0159999,748,631,-3.07867,1.94166
-469,393,-3.09967,-2.13336,-0.000143254,-0.0013767,0.000525507,5.02731e-05,-0.00157022,0.352855,0.00106397,0.0127041,755,631,-3.09966,2.13335
-462,393,-3.10803,-2.34686,0.000258347,-0.00157582,0.000756502,0.000530103,-0.00184757,0.344871,0.00144129,0.0153743,762,631,-3.10803,2.34684
-455,393,-3.10114,-2.53735,0.000513984,-0.00219548,0.00109052,0.000898367,-0.00257987,0.338881,0.00208491,0.0138415,769,631,-3.10113,2.53733
-448,393,-3.11523,-2.73926,0.000937167,-0.00297827,0.00154327,0.00147231,-0.00351341,0.333783,0.00295782,0.0132149,776,631,-3.11525,2.73928
-441,393,-3.12195,-2.90955,0.000946425,-0.00456025,0.00232045,0.00179383,-0.00540765,0.350143,0.00432876,0.0119226,783,631,-3.12197,2.90954
-434,393,-3.10071,-3.06116,0.000819441,-0.00664775,0.00337633,0.00211966,-0.00794797,0.367595,0.00612863,0.0107072,790,631,-3.10069,3.06114
-427,393,-3.06989,-3.27722,0.000769158,-0.00889584,0.00466098,0.00265066,-0.0107773,0.383667,0.0082123,0.014013,797,631,-3.06986,3.27724
-420,393,-3.05963,-3.47723,0.00102214,-0.0114477,0.00596045,0.00341283,-0.0138384,0.381448,0.0105488,0.0248649,804,631,-3.05963,3.47724
-413,393,-3.24768,-3.43451,0.00150776,-0.0147706,0.00729596,0.00429916,-0.0175619,0.365412,0.0133734,0.038289,811,631,-3.24767,3.43453
-406,393,-3.46063,-3.69672,0.00220342,-0.0184454,0.00873801,0.00540477,-0.0216467,0.351184,0.01653,0.0483175,818,631,-3.46061,3.69674
-399,393,-3.64276,-4.02972,0,0,0,0,0,0,0,-1,825,631,-3.64275,4.02972
-392,393,-2.08063,-3.02386,0,0,0,0,0,0,0,-1,832,631,-2.08063,3.02384
-385,393,-3.16931,-0.624756,0,0,0,0,0,0,0,-1,839,631,-3.16928,0.624764
-378,393,-2.34045,-1.48468,0,0,0,0,0,0,0,-1,846,631,-2.34048,1.48471
-371,393,-1.4248,-2.56482,0,0,0,0,0,0,0,-1,853,631,-1.4248,2.56481
-364,393,-1.349,-3.17017,0,0,0,0,0,0,0,-1,860,631,-1.349,3.17014
-357,393,-1.84821,-4.28015,0,0,0,0,0,0,0,-1,867,631,-1.84823,4.28018
-350,393,-7.6015,0.331421,0,0,0,0,0,0,0,-1,874,631,-7.60151,-0.331426
-343,393,0,0,0,0,0,0,0,0,0,-1,881,631,0,0
-336,393,0,0,0,0,0,0,0,0,0,-1,888,631,0,0
-329,393,0,0,0,0,0,0,0,0,0,-1,895,631,0,0
-322,393,0,0,0,0,0,0,0,0,0,-1,902,631,0,0
-315,393,0,0,0,0,0,0,0,0,0,-1,909,631,0,0
-308,393,0,0,0,0,0,0,0,0,0,-1,916,631,0,0
-301,393,0,0,0,0,0,0,0,0,0,-1,923,631,0,0
-294,393,0,0,0,0,0,0,0,0,0,-1,930,631,0,0
-287,393,0,0,0,0,0,0,0,0,0,-1,937,631,0,0
-280,393,0,0,0,0,0,0,0,0,0,-1,944,631,0,0
-273,393,0,0,0,0,0,0,0,0,0,-1,951,631,0,0
-266,393,0,0,0,0,0,0,0,0,0,-1,958,631,0,0
-259,393,0,0,0,0,0,0,0,0,0,-1,965,631,0,0
-252,393,0,0,0,0,0,0,0,0,0,-1,972,631,0,0
-245,393,0,0,0,0,0,0,0,0,0,-1,979,631,0,0
-238,393,0,0,0,0,0,0,0,0,0,-1,986,631,0,0
-231,393,0,0,0,0,0,0,0,0,0,-1,993,631,0,0
-224,393,0,0,0,0,0,0,0,0,0,-1,1000,631,0,0
-217,393,0,0,0,0,0,0,0,0,0,-1,1007,631,0,0
-210,393,0,0,0,0,0,0,0,0,0,-1,1014,631,0,0
-203,393,0,0,0,0,0,0,0,0,0,-1,1021,631,0,0
-196,393,0,0,0,0,0,0,0,0,0,-1,1028,631,0,0
-189,393,0,0,0,0,0,0,0,0,0,-1,1035,631,0,0
-182,393,0,0,0,0,0,0,0,0,0,-1,1042,631,0,0
-175,393,0,0,0,0,0,0,0,0,0,-1,1049,631,0,0
-168,393,0,0,0,0,0,0,0,0,0,-1,1056,631,0,0
-161,393,0,0,0,0,0,0,0,0,0,-1,1063,631,0,0
-154,393,0,0,0,0,0,0,0,0,0,-1,1070,631,0,0
-147,393,0,0,0,0,0,0,0,0,0,-1,1077,631,0,0
-140,393,0,0,0,0,0,0,0,0,0,-1,1084,631,0,0
-133,393,0,0,0,0,0,0,0,0,0,-1,1091,631,0,0
-126,393,0,0,0,0,0,0,0,0,0,-1,1098,631,0,0
-119,393,0,0,0,0,0,0,0,0,0,-1,1105,631,0,0
-112,393,0,0,0,0,0,0,0,0,0,-1,1112,631,0,0
-105,393,0,0,0,0,0,0,0,0,0,-1,1119,631,0,0
-98,393,0,0,0,0,0,0,0,0,0,-1,1126,631,0,0
-91,393,0,0,0,0,0,0,0,0,0,-1,1133,631,0,0
-84,393,0,0,0,0,0,0,0,0,0,-1,1140,631,0,0
-77,393,0,0,0,0,0,0,0,0,0,-1,1147,631,0,0
-70,393,0,0,0,0,0,0,0,0,0,-1,1154,631,0,0
-63,393,0,0,0,0,0,0,0,0,0,-1,1161,631,0,0
-56,393,0,0,0,0,0,0,0,0,0,-1,1168,631,0,0
-49,393,0,0,0,0,0,0,0,0,0,-1,1175,631,0,0
-42,393,0,0,0,0,0,0,0,0,0,-1,1182,631,0,0
-35,393,0,0,0,0,0,0,0,0,0,-1,1189,631,0,0
-28,393,0,0,0,0,0,0,0,0,0,-1,1196,631,0,0
-21,393,0,0,0,0,0,0,0,0,0,-1,1203,631,0,0
-14,393,0,0,0,0,0,0,0,0,0,-1,1210,631,0,0
-7,393,0,0,0,0,0,0,0,0,0,-1,1217,631,0,0
0,393,0,0,0,0,0,0,0,0,0,-1,1224,631,0,0
7,393,0,0,0,0,0,0,0,0,0,-1,1231,631,0,0
14,393,0,0,0,0,0,0,0,0,0,-1,1238,631,0,0
21,393,0,0,0,0,0,0,0,0,0,-1,1245,631,0,0
28,393,0,0,0,0,0,0,0,0,0,-1,1252,631,0,0
35,393,0,0,0,0,0,0,0,0,0,-1,1259,631,0,0
42,393,0,0,0,0,0,0,0,0,0,-1,1266,631,0,0
49,393,0,0,0,0,0,0,0,0,0,-1,1273,631,0,0
56,393,0,0,0,0,0,0,0,0,0,-1,1280,631,0,0
63,393,0,0,0,0,0,0,0,0,0,-1,1287,631,0,0
70,393,0,0,0,0,0,0,0,0,0,-1,1294,631,0,0
77,393,0,0,0,0,0,0,0,0,0,-1,1301,631,0,0
84,393,0,0,0,0,0,0,0,0,0,-1,1308,631,0,0
91,393,0,0,0,0,0,0,0,0,0,-1,1315,631,0,0
98,393,0,0,0,0,0,0,0,0,0,-1,1322,631,0,0
105,393,0,0,0,0,0,0,0,0,0,-1,1329,631,0,0
112,393,0,0,0,0,0,0,0,0,0,-1,1336,631,0,0
119,393,0,0,0,0,0,0,0,0,0,-1,1343,631,0,0
126,393,0,0,0,0,0,0,0,0,0,-1,1350,631,0,0
133,393,0,0,0,0,0,0,0,0,0,-1,1357,631,0,0
140,393,0,0,0,0,0,0,0,0,0,-1,1364,631,0,0
147,393,0,0,0,0,0,0,0,0,0,-1,1371,631,0,0
154,393,0,0,0,0,0,0,0,0,0,-1,1378,631,0,0
161,393,0,0,0,0,0,0,0,0,0,-1,1385,631,0,0
168,393,0,0,0,0,0,0,0,0,0,-1,1392,631,0,0
175,393,0,0,0,0,0,0,0,0,0,-1,1399,631,0,0
182,393,0,0,0,0,0,0,0,0,0,-1,1406,631,0,0
189,393,0,0,0,0,0,0,0,0,0,-1,1413,631,0,0
196,393,0,0,0,0,0,0,0,0,0,-1,1420,631,0,0
203,393,0,0,0,0,0,0,0,0,0,-1,1427,631,0,0
210,393,0,0,0,0,0,0,0,0,0,-1,1434,631,0,0
217,393,0,0,0,0,0,0,0,0,0,-1,1441,631,0,0
224,393,0,0,0,0,0,0,0,0,0,-1,1448,631,0,0
231,393,0,0,0,0,0,0,0,0,0,-1,1455,631,0,0
238,393,0,0,0,0,0,0,0,0,0,-1,1462,631,0,0
245,393,0,0,0,0,0,0,0,0,0,-1,1469,631,0,0
252,393,0,0,0,0,0,0,0,0,0,-1,1476,631,0,0
259,393,0,0,0,0,0,0,0,0,0,-1,1483,631,0,0
266,393,0,0,0,0,0,0,0,0,0,-1,1490,631,0,0
273,393,0,0,0,0,0,0,0,0,0,-1,1497,631,0,0
280,393,0,0,0,0,0,0,0,0,0,-1,1504,631,0,0
287,393,0,0,0,0,0,0,0,0,0,-1,1511,631,0,0
294,393,0,0,0,0,0,0,0,0,0,-1,1518,631,0,0
301,393,0,0,0,0,0,0,0,0,0,-1,1525,631,0,0
308,393,0,0,0,0,0,0,0,0,0,-1,1532,631,0,0
315,393,0,0,0,0,0,0,0,0,0,-1,1539,631,0,0
322,393,0,0,0,0,0,0,0,0,0,-1,1546,631,0,0
329,393,0,0,0,0,0,0,0,0,0,-1,1553,631,0,0
336,393,0,0,0,0,0,0,0,0,0,-1,1560,631,0,0
343,393,0,0,0,0,0,0,0,0,0,-1,1567,631,0,0
350,393,0,0,0,0,0,0,0,0,0,-1,1574,631,0,0
357,393,0,0,0,0,0,0,0,0,0,-1,1581,631,0,0
364,393,0,0,0,0,0,0,0,0,0,-1,1588,631,0,0
371,393,0,0,0,0,0,0,0,0,0,-1,1595,631,0,0
378,393,0,0,0,0,0,0,0,0,0,-1,1602,631,0,0
385,393,0,0,0,0,0,0,0,0,0,-1,1609,631,0,0
392,393,0,0,0,0,0,0,0,0,0,-1,1616,631,0,0
399,393,0,0,0,0,0,0,0,0,0,-1,1623,631,0,0
406,393,0,0,0,0,0,0,0,0,0,-1,1630,631,0,0
413,393,0,0,0,0,0,0,0,0,0,-1,1637,631,0,0
420,393,0,0,0,0,0,0,0,0,0,-1,1644,631,0,0
427,393,0,0,0,0,0,0,0,0,0,-1,1651,631,0,0
434,393,0,0,0,0,0,0,0,0,0,-1,1658,631,0,0
441,393,0,0,0,0,0,0,0,0,0,-1,1665,631,0,0
448,393,0,0,0,0,0,0,0,0,0,-1,1672,631,0,0
455,393,0,0,0,0,0,0,0,0,0,-1,1679,631,0,0
462,393,8.51099,1.89502,0,0,0,0,0,0,0,-1,1686,631,8.51103,-1.89504
469,393,9.39465,1.51703,0,0,0,0,0,0,0,-1,1693,631,9.39465,-1.51703
476,393,9.95569,1.185,0,0,0,0,0,0,0,-1,1700,631,9.95575,-1.18497
483,393,10.5267,0.887329,0,0,0,0,0,0,0,-1,1707,631,10.5267,-0.887321
490,393,10.9303,0.761414,0,0,0,0,0,0,0,-1,1714,631,10.9303,-0.761386
497,393,8.32153,1.88104,0,0,0,0,0,0,0,-1,1721,631,8.32148,-1.88103
504,393,9.46985,1.78711,0,0,0,0,0,0,0,-1,1728,631,9.46986,-1.78713
511,393,9.66565,-0.375977,0,0,0,0,0,0,0,-1,1735,631,9.66571,0.375949
518,393,7.01599,1.62482,0,0,0,0,0,0,0,-1,1742,631,7.01597,-1.62483
525,393,7.88245,-1.13422,0,0,0,0,0,0,0,-1,1749,631,7.88246,1.13423
532,393,7.06335,-1.18103,0,0,0,0,0,0,0,-1,1756,631,7.06332,1.18101
539,393,8.15381,-1.90564,0,0,0,0,0,0,0,-1,1763,631,8.15379,1.90565
546,393,8.02136,-1.83368,-0.0102923,0.00511512,-0.0023529,0.00546642,-0.0106436,-1.42258,0.00945985,0.03886,1770,631,8.02136,1.83368
553,393,7.84998,-1.80994,-0.00961098,0.004264,-0.00274631,0.0047878,-0.0101348,-1.38233,0.00879799,0.017525,1777,631,7.84992,1.80991
560,393,7.82935,-1.58746,-0.0082294,0.00343126,-0.00243601,0.00391971,-0.00871784,-1.37291,0.00746953,0.0130074,1784,631,7.82937,1.58748
567,393,7.80505,-1.36053,-0.00687471,0.00271071,-0.00207597,0.00314099,-0.007305,-1.36642,0.00618866,0.013283,1791,631,7.80505,1.36055
574,393,7.79456,-1.16589,-0.00517865,0.00186454,-0.00160243,0.00221197,-0.00552608,-1.35728,0.00460212,0.0145385,1798,631,7.79456,1.16588
581,393,7.79565,-0.970947,-0.00330605,0.00116513,-0.001056,0.00140199,-0.00354291,-1.35015,0.00294278,0.0138995,1805,631,7.79571,0.970925
588,393,7.81531,-0.773682,-0.00146238,0.000584618,-0.000445902,0.000677533,-0.00155529,-1.36536,0.00132191,0.0155809,1812,631,7.81535,0.773652
595,393,7.8186,-0.578308,0.000426308,5.45582e-05,9.07453e-05,0.000447276,3.35897e-05,0.227084,0.000287642,0.0133978,1819,631,7.81857,0.578317
602,393,7.8114,-0.372253,0.00240888,-5.90205e-05,0.000382015,0.00246667,-0.000116801,0.150114,0.00168473,0.0150072,1826,631,7.81141,0.372284
609,393,7.776,-0.14563,0.004352,-0.00064112,0.000799847,0.004477,-0.000766119,0.155024,0.00327009,0.0151026,1833,631,7.77594,0.145629
616,393,7.76221,0.0592041,0.006122,-0.00102257,0.000895174,0.00623245,-0.00113302,0.122766,0.0045796,0.0157216,1840,631,7.76226,-0.0591959
623,393,7.80054,0.297302,0.00797527,-0.00105854,0.000737639,0.0080351,-0.00111838,0.0809387,0.0057658,0.0197907,1847,631,7.80059,-0.297312
630,393,7.90796,0.550842,0.010019,-0.00150342,0.000137127,0.0100206,-0.00150505,0.0118986,0.00723449,0.0341491,1854,631,7.90801,-0.550854
637,393,7.81433,0.805298,0,0,0,0,0,0,0,-1,1861,631,7.81438,-0.805295
644,393,7.59998,0.853638,0,0,0,0,0,0,0,-1,1868,631,7.60002,-0.853626
651,393,7.83728,0.989563,0,0,0,0,0,0,0,-1,1875,631,7.83729,-0.989541
658,393,8.17371,0.618835,0,0,0,0,0,0,0,-1,1882,631,8.17366,-0.618853
665,393,4.66687,1.0874,0,0,0,0,0,0,0,-1,1889,631,4.66689,-1.08738
672,393,5.56921,1.91486,0,0,0,0,0,0,0,-1,1896,631,5.56927,-1.91486
679,393,0,0,0,0,0,0,0,0,0,-1,1903,631,0,0
686,393,0,0,0,0,0,0,0,0,0,-1,1910,631,0,0
693,393,0,0,0,0,0,0,0,0,0,-1,1917,631,0,0
700,393,0,0,0,0,0,0,0,0,0,-1,1924,631,0,0
707,393,0,0,0,0,0,0,0,0,0,-1,1931,631,0,0
714,393,0,0,0,0,0,0,0,0,0,-1,1938,631,0,0
721,393,0,0,0,0,0,0,0,0,0,-1,1945,631,0,0
728,393,0,0,0,0,0,0,0,0,0,-1,1952,631,0,0
735,393,0,0,0,0,0,0,0,0,0,-1,1959,631,0,0
742,393,0,0,0,0,0,0,0,0,0,-1,1966,631,0,0
749,393,0,0,0,0,0,0,0,0,0,-1,1973,631,0,0
756,393,0,0,0,0,0,0,0,0,0,-1,1980,631,0,0
763,393,0,0,0,0,0,0,0,0,0,-1,1987,631,0,0
770,393,0,0,0,0,0,0,0,0,0,-1,1994,631,0,0
777,393,0,0,0,0,0,0,0,0,0,-1,2001,631,0,0
784,393,0,0,0,0,0,0,0,0,0,-1,2008,631,0,0
791,393,0,0,0,0,0,0,0,0,0,-1,2015,631,0,0
798,393,0,0,0,0,0,0,0,0,0,-1,2022,631,0,0
805,393,0,0,0,0,0,0,0,0,0,-1,2029,631,0,0
812,393,0,0,0,0,0,0,0,0,0,-1,2036,631,0,0
-700,386,0,0,0,0,0,0,0,0,0,-1,524,638,0,0
-693,386,0,0,0,0,0,0,0,0,0,-1,531,638,0,0
-686,386,0,0,0,0,0,0,0,0,0,-1,538,638,0,0
-679,386,0,0,0,0,0,0,0,0,0,-1,545,638,0,0
-672,386,0,0,0,0,0,0,0,0,0,-1,552,638,0,0
-665,386,0,0,0,0,0,0,0,0,0,-1,559,638,0,0
-658,386,0,0,0,0,0,0,0,0,0,-1,566,638,0,0
-651,386,0,0,0,0,0,0,0,0,0,-1,573,638,0,0
-644,386,0,0,0,0,0,0,0,0,0,-1,580,638,0,0
-637,386,0,0,0,0,0,0,0,0,0,-1,587,638,0,0
-630,386,0,0,0,0,0,0,0,0,0,-1,594,638,0,0
-623,386,0,0,0,0,0,0,0,0,0,-1,601,638,0,0
-616,386,0,0,0,0,0,0,0,0,0,-1,608,638,0,0
-609,386,0,0,0,0,0,0,0,0,0,-1,615,638,0,0
-602,386,0,0,0,0,0,0,0,0,0,-1,622,638,0,0
-595,386,0,0,0,0,0,0,0,0,0,-1,629,638,0,0
-588,386,0,0,0,0,0,0,0,0,0,-1,636,638,0,0
-581,386,0,0,0,0,0,0,0,0,0,-1,643,638,0,0
-574,386,0,0,0,0,0,0,0,0,0,-1,650,638,0,0
-567,386,0,0,0,0,0,0,0,0,0,-1,657,638,0,0
-560,386,-10.2253,-1.93317,0,0,0,0,0,0,0,-1,664,638,-10.2253,1.93315
-553,386,-8.2019,-1.9751,0,0,0,0,0,0,0,-1,671,638,-8.20189,1.97511
-546,386,-6.20306,-2.06024,0.11447,-0.0162116,-0.0513745,0.132248,-0.0339898,-0.333152,0.101412,0.0490748,678,638,-6.20306,2.06022
-539,386,-4.55408,-1.92218,0.0879518,-0.0147901,-0.0411113,0.102377,-0.0292152,-0.337457,0.0797928,0.0457444,685,638,-4.55405,1.92218
-532,386,-2.4386,-2.05896,0,0,0,0,0,0,0,-1,692,638,-2.43861,2.05898
-525,386,-3.15399,0.39563,0,0,0,0,0,0,0,-1,699,638,-3.15401,-0.39564
-518,386,-3.20441,-0.682312,0,0,0,0,0,0,0,-1,706,638,-3.20442,0.682282
-511,386,-3.08679,-0.910706,0.018519,-0.00593468,-0.0126207,0.0238643,-0.0112799,-0.400624,0.0207196,0.0447314,713,638,-3.08678,0.910725
-504,386,-3.21497,-1.1759,0.00972743,-0.00453217,-0.00786413,0.0132126,-0.00801738,-0.417167,0.0123789,0.0246647,720,638,-3.21497,1.17589
-497,386,-3.30164,-1.39612,0.00410887,-0.0031155,-0.00479498,0.00649999,-0.00550662,-0.462585,0.00693993,0.0111854,727,638,-3.30164,1.3961
-490,386,-3.28552,-1.60425,0.00101609,-0.00217882,-0.00114393,0.00138344,-0.00254616,-0.310723,0.00230162,0.012881,734,638,-3.2855,1.60427
-483,386,-3.25806,-1.79895,-0.00160396,-0.00127293,0.000156315,-0.00121078,-0.00166611,1.19239,0.000994342,0.0167965,741,638,-3.25808,1.79893
-476,386,-3.25269,-1.96259,-0.000739236,-0.00113933,0.000246147,-0.000622097,-0.00125647,0.444176,0.000725434,0.015341,748,638,-3.2527,1.96257
-469,386,-3.28345,-2.14258,-4.42107e-05,-0.00170778,0.000661986,0.000187062,-0.00193906,0.336106,0.00135935,0.0117029,755,638,-3.28346,2.1426
-462,386,-3.28436,-2.34778,0.000375039,-0.0021104,0.000972124,0.000710096,-0.00244545,0.331914,0.00191148,0.0113526,762,638,-3.28435,2.34778
-455,386,-3.28033,-2.52649,0.000671214,-0.00289684,0.00140277,0.00115666,-0.00338229,0.333163,0.00272355,0.0119976,769,638,-3.28034,2.52652
-448,386,-3.29327,-2.72186,0.00110245,-0.00402239,0.00201357,0.00179894,-0.00471887,0.333014,0.0038869,0.0118112,776,638,-3.29326,2.72187
-441,386,-3.30042,-2.9021,0.00112577,-0.00591044,0.00298378,0.00222069,-0.00700536,0.351701,0.00556031,0.0120267,783,638,-3.30043,2.90211
-434,386,-3.26245,-3.09839,0.00104765,-0.00835668,0.0042623,0.00269194,-0.010001,0.368185,0.00772264,0.0179209,790,638,-3.26245,3.09837
-427,386,-3.18652,-3.27997,0.00103145,-0.0110482,0.00580998,0.00337228,-0.013389,0.383002,0.010237,0.0379716,797,638,-3.18655,3.27998
-420,386,-3.3526,-3.21014,0.00130868,-0.0141506,0.00742374,0.00429628,-0.0171382,0.382607,0.0130946,0.0389946,804,638,-3.35261,3.21013
-413,386,-3.45178,-3.27771,0.00167208,-0.0181857,0.00924731,0.00531137,-0.021825,0.374935,0.0166061,0.0482133,811,638,-3.45176,3.27768
-406,386,-3.68243,-3.5155,0,0,0,0,0,0,0,-1,818,638,-3.68242,3.51551
-399,386,-3.57117,-3.42126,0,0,0,0,0,0,0,-1,825,638,-3.57116,3.42129
-392,386,-4.00977,0.403625,0,0,0,0,0,0,0,-1,832,638,-4.0098,-0.403616
-385,386,-3.2406,-0.118469,0,0,0,0,0,0,0,-1,839,638,-3.24058,0.118485
-378,386,-2.55243,-1.22748,0,0,0,0,0,0,0,-1,846,638,-2.55243,1.22748
-371,386,-1.46411,-2.6026,0,0,0,0,0,0,0,-1,853,638,-1.46413,2.60261
-364,386,-3.06403,0.651733,0,0,0,0,0,0,0,-1,860,638,-3.064,-0.651763
-357,386,-2.5058,-4.91699,0,0,0,0,0,0,0,-1,867,638,-2.50581,4.91698
-350,386,0,0,0,0,0,0,0,0,0,-1,874,638,0,0
-343,386,0,0,0,0,0,0,0,0,0,-1,881,638,0,0
-336,386,0,0,0,0,0,0,0,0,0,-1,888,638,0,0
-329,386,0,0,0,0,0,0,0,0,0,-1,895,638,0,0
-322,386,0,0,0,0,0,0,0,0,0,-1,902,638,0,0
-315,386,0,0,0,0,0,0,0,0,0,-1,909,638,0,0
-308,386,0,0,0,0,0,0,0,0,0,-1,916,638,0,0
-301,386,0,0,0,0,0,0,0,0,0,-1,923,638,0,0
-294,386,0,0,0,0,0,0,0,0,0,-1,930,638,0,0
-287,386,0,0,0,0,0,0,0,0,0,-1,937,638,0,0
-280,386,0,0,0,0,0,0,0,0,0,-1,944,638,0,0
-273,386,0,0,0,0,0,0,0,0,0,-1,951,638,0,0
-266,386,0,0,0,0,0,0,0,0,0,-1,958,638,0,0
-259,386,0,0,0,0,0,0,0,0,0,-1,965,638,0,0
-252,386,0,0,0,0,0,0,0,0,0,-1,972,638,0,0
-245,386,0,0,0,0,0,0,0,0,0,-1,979,638,0,0
-238,386,0,0,0,0,0,0,0,0,0,-1,986,638,0,0
-231,386,0,0,0,0,0,0,0,0,0,-1,993,638,0,0
-224,386,0,0,0,0,0,0,0,0,0,-1,1000,638,0,0
-217,386,0,0,0,0,0,0,0,0,0,-1,1007,638,0,0
-210,386,0,0,0,0,0,0,0,0,0,-1,1014,638,0,0
-203,386,0,0,0,0,0,0,0,0,0,-1,1021,638,0,0
-196,386,0,0,0,0,0,0,0,0,0,-1,1028,638,0,0
-189,386,0,0,0,0,0,0,0,0,0,-1,1035,638,0,0
-182,386,0,0,0,0,0,0,0,0,0,-1,1042,638,0,0
-175,386,0,0,0,0,0,0,0,0,0,-1,1049,638,0,0
-168,386,0,0,0,0,0,0,0,0,0,-1,1056,638,0,0
-161,386,0,0,0,0,0,0,0,0,0,-1,1063,638,0,0
-154,386,0,0,0,0,0,0,0,0,0,-1,1070,638,0,0
-147,386,0,0,0,0,0,0,0,0,0,-1,1077,638,0,0
-140,386,0,0,0,0,0,0,0,0,0,-1,1084,638,0,0
-133,386,0,0,0,0,0,0,0,0,0,-1,1091,638,0,0
-126,386,0,0,0,0,0,0,0,0,0,-1,1098,638,0,0
-119,386,0,0,0,0,0,0,0,0,0,-1,1105,638,0,0
-112,386,0,0,0,0,0,0,0,0,0,-1,1112,638,0,0
-105,386,0,0,0,0,0,0,0,0,0,-1,1119,638,0,0
-98,386,0,0,0,0,0,0,0,0,0,-1,1126,638,0,0
-91,386,0,0,0,0,0,0,0,0,0,-1,1133,638,0,0
-84,386,0,0,0,0,0,0,0,0,0,-1,1140,638,0,0
-77,386,0,0,0,0,0,0,0,0,0,-1,1147,638,0,0
-70,386,0,0,0,0,0,0,0,0,0,-1,1154,638,0,0
-63,386,0,0,0,0,0,0,0,0,0,-1,1161,638,0,0
-56,386,0,0,0,0,0,0,0,0,0,-1,1168,638,0,0
-49,386,0,0,0,0,0,0,0,0,0,-1,1175,638,0,0
-42,386,0,0,0,0,0,0,0,0,0,-1,1182,638,0,0
-35,386,0,0,0,0,0,0,0,0,0,-1,1189,638,0,0
-28,386,0,0,0,0,0,0,0,0,0,-1,1196,638,0,0
-21,386,0,0,0,0,0,0,0,0,0,-1,1203,638,0,0
-14,386,0,0,0,0,0,0,0,0,0,-1,1210,638,0,0
-7,386,0,0,0,0,0,0,0,0,0,-1,1217,638,0,0
0,386,0,0,0,0,0,0,0,0,0,-1,1224,638,0,0
7,386,0,0,0,0,0,0,0,0,0,-1,1231,638,0,0
14,386,0,0,0,0,0,0,0,0,0,-1,1238,638,0,0
21,386,0,0,0,0,0,0,0,0,0,-1,1245,638,0,0
28,386,0,0,0,0,0,0,0,0,0,-1,1252,638,0,0
35,386,0,0,0,0,0,0,0,0,0,-1,1259,638,0,0
42,386,0,0,0,0,0,0,0,0,0,-1,1266,638,0,0
49,386,0,0,0,0,0,0,0,0,0,-1,1273,638,0,0
56,386,0,0,0,0,0,0,0,0,0,-1,1280,638,0,0
63,386,0,0,0,0,0,0,0,0,0,-1,1287,638,0,0
70,386,0,0,0,0,0,0,0,0,0,-1,1294,638,0,0
77,386,0,0,0,0,0,0,0,0,0,-1,1301,638,0,0
84,386,0,0,0,0,0,0,0,0,0,-1,1308,638,0,0
91,386,0,0,0,0,0,0,0,0,0,-1,1315,638,0,0
98,386,0,0,0,0,0,0,0,0,0,-1,1322,638,0,0
105,386,0,0,0,0,0,0,0,0,0,-1,1329,638,0,0
112,386,0,0,0,0,0,0,0,0,0,-1,1336,638,0,0
119,386,0,0,0,0,0,0,0,0,0,-1,1343,638,0,0
126,386,0,0,0,0,0,0,0,0,0,-1,1350,638,0,0
133,386,0,0,0,0,0,0,0,0,0,-1,1357,638,0,0
140,386,0,0,0,0,0,0,0,0,0,-1,1364,638,0,0
147,386,0,0,0,0,0,0,0,0,0,-1,1371,638,0,0
154,386,0,0,0,0,0,0,0,0,0,-1,1378,638,0,0
161,386,0,0,0,0,0,0,0,0,0,-1,1385,638,0,0
168,386,0,0,0,0,0,0,0,0,0,-1,1392,638,0,0
175,386,0,0,0,0,0,0,0,0,0,-1,1399,638,0,0
182,386,0,0,0,0,0,0,0,0,0,-1,1406,638,0,0
189,386,0,0,0,0,0,0,0,0,0,-1,1413,638,0,0
196,386,0,0,0,0,0,0,0,0,0,-1,1420,638,0,0
203,386,0,0,0,0,0,0,0,0,0,-1,1427,638,0,0
210,386,0,0,0,0,0,0,0,0,0,-1,1434,638,0,0
217,386,0,0,0,0,0,0,0,0,0,-1,1441,638,0,0
224,386,0,0,0,0,0,0,0,0,0,-1,1448,638,0,0
231,386,0,0,0,0,0,0,0,0,0,-1,1455,638,0,0
238,386,0,0,0,0,0,0,0,0,0,-1,1462,638,0,0
245,386,0,0,0,0,0,0,0,0,0,-1,1469,638,0,0
252,386,0,0,0,0,0,0,0,0,0,-1,1476,638,0,0
259,386,0,0,0,0,0,0,0,0,0,-1,1483,638,0,0
266,386,0,0,0,0,0,0,0,0,0,-1,1490,638,0,0
273,386,0,0,0,0,0,0,0,0,0,-1,1497,638,0,0
280,386,0,0,0,0,0,0,0,0,0,-1,1504,638,0,0
287,386,0,0,0,0,0,0,0,0,0,-1,1511,638,0,0
294,386,0,0,0,0,0,0,0,0,0,-1,1518,638,0,0
301,386,0,0,0,0,0,0,0,0,0,-1,1525,638,0,0
308,386,0,0,0,0,0,0,0,0,0,-1,1532,638,0,0
315,386,0,0,0,0,0,0,0,0,0,-1,1539,638,0,0
322,386,0,0,0,0,0,0,0,0,0,-1,1546,638,0,0
329,386,0,0,0,0,0,0,0,0,0,-1,1553,638,0,0
336,386,0,0,0,0,0,0,0,0,0,-1,1560,638,0,0
343,386,0,0,0,0,0,0,0,0,0,-1,1567,638,0,0
350,386,0,0,0,0,0,0,0,0,0,-1,1574,638,0,0
357,386,0,0,0,0,0,0,0,0,0,-1,1581,638,0,0
364,386,0,0,0,0,0,0,0,0,0,-1,1588,638,0,0
371,386,0,0,0,0,0,0,0,0,0,-1,1595,638,0,0
378,386,0,0,0,0,0,0,0,0,0,-1,1602,638,0,0
385,386,0,0,0,0,0,0,0,0,0,-1,1609,638,0,0
392,386,0,0,0,0,0,0,0,0,0,-1,1616,638,0,0
399,386,0,0,0,0,0,0,0,0,0,-1,1623,638,0,0
406,386,0,0,0,0,0,0,0,0,0,-1,1630,638,0,0
413,386,0,0,0,0,0,0,0,0,0,-1,1637,638,0,0
420,386,0,0,0,0,0,0,0,0,0,-1,1644,638,0,0
427,386,0,0,0,0,0,0,0,0,0,-1,1651,638,0,0
434,386,0,0,0,0,0,0,0,0,0,-1,1658,638,0,0
441,386,0,0,0,0,0,0,0,0,0,-1,1665,638,0,0
448,386,0,0,0,0,0,0,0,0,0,-1,1672,638,0,0
455,386,0,0,0,0,0,0,0,0,0,-1,1679,638,0,0
462,386,0,0,0,0,0,0,0,0,0,-1,1686,638,0,0
469,386,9.84692,1.55804,0,0,0,0,0,0,0,-1,1693,638,9.84691,-1.55807
476,386,10.6145,0.986511,0,0,0,0,0,0,0,-1,1700,638,10.6145,-0.986529
483,386,11.4113,0.732971,0,0,0,0,0,0,0,-1,1707,638,11.4112,-0.732958
490,386,7.79785,1.79572,0,0,0,0,0,0,0,-1,1714,638,7.79788,-1.7957
497,386,8.96362,1.77081,0,0,0,0,0,0,0,-1,1721,638,8.96357,-1.77081
504,386,10.0555,1.69427,0,0,0,0,0,0,0,-1,1728,638,10.0555,-1.69426
511,386,11.2172,1.534,0,0,0,0,0,0,0,-1,1735,638,11.2172,-1.53398
518,386,7.41553,1.75238,0,0,0,0,0,0,0,-1,1742,638,7.41547,-1.75238
525,386,8.82422,-1.1449,0,0,0,0,0,0,0,-1,1749,638,8.82426,1.14492
532,386,10.6432,0.617371,0,0,0,0,0,0,0,-1,1756,638,10.6432,-0.617359
539,386,9.62061,-0.393616,0,0,0,0,0,0,0,-1,1763,638,9.62059,0.393634
546,386,8.1355,-1.83594,0,0,0,0,0,0,0,-1,1770,638,8.13553,1.83595
553,386,8.17444,-1.68481,-0.0129321,0.0061435,-0.00347117,0.00675551,-0.0135441,-1.39628,0.0119365,0.0394412,1777,638,8.17445,1.68481
560,386,8.07129,-1.49908,-0.011108,0.00482718,-0.00314287,0.00542465,-0.0117055,-1.38294,0.0101092,0.0280632,1784,638,8.07124,1.49907
567,386,7.98804,-1.31793,-0.00947607,0.00375097,-0.00278591,0.00431379,-0.0100389,-1.37145,0.00850344,0.0179941,1791,638,7.98801,1.31794
574,386,7.99915,-1.14166,-0.00764244,0.00259634,-0.00235942,0.00311388,-0.00815998,-1.35486,0.00672279,0.0132632,1798,638,7.9992,1.14166
581,386,7.99255,-0.969482,-0.00568177,0.00168584,-0.00184897,0.00212382,-0.00611975,-1.33821,0.0049423,0.0132613,1805,638,7.99252,0.969484
588,386,8.01465,-0.780579,-0.00380589,0.000987392,-0.00128624,0.00131073,-0.00412923,-1.32452,0.00327827,0.0120806,1812,638,8.01464,0.780599
595,386,8.00232,-0.58075,-0.0019692,0.000414589,-0.000801146,0.000658816,-0.00221343,-1.2749,0.00173737,0.0131558,1819,638,8.00238,0.580746
602,386,7.99438,-0.360413,-0.000124486,0.000271756,-0.000541043,0.000649812,-0.000502542,-0.960907,0.000667121,0.0152531,1826,638,7.99441,0.360441
609,386,8.01331,-0.154785,0.0015903,-0.000282354,-0.000213618,0.00161436,-0.000306413,-0.112153,0.00119158,0.0150446,1833,638,8.01336,0.154769
616,386,8.00037,0.0379639,0.00310437,-0.000756165,-0.000263766,0.00312231,-0.000774103,-0.0679031,0.00238188,0.0122734,1840,638,8.0004,-0.0379821
623,386,7.99438,0.266479,0.00469324,-0.000921172,-0.000474847,0.00473312,-0.000961049,-0.0837833,0.00351977,0.0108186,1847,638,7.99439,-0.266476
630,386,8.08215,0.432861,0.0063923,-0.00128287,-0.0010705,0.00653881,-0.00142938,-0.136018,0.00490558,0.0180404,1854,638,8.0822,-0.43287
637,386,8.02441,0.626038,0.00809302,-0.0021502,-0.00206277,0.00849282,-0.00254999,-0.191441,0.00667623,0.0318156,1861,638,8.02438,-0.626055
644,386,7.8623,0.738098,0.0104246,-0.00306046,-0.0031778,0.0111359,-0.00377179,-0.220215,0.00895018,0.0398332,1868,638,7.86226,-0.738096
651,386,7.94336,1.04028,0.0137881,-0.00421138,-0.00455657,0.0148758,-0.00529914,-0.234338,0.0120775,0.0438545,1875,638,7.94334,-1.04026
658,386,8.06079,1.35248,0,0,0,0,0,0,0,-1,1882,638,8.06083,-1.35248
665,386,7.48633,0.081665,0,0,0,0,0,0,0,-1,1889,638,7.4863,-0.0816793
672,386,7.51563,2.42877,0,0,0,0,0,0,0,-1,1896,638,7.51562,-2.42878
679,386,9.11768,2.104,0,0,0,0,0,0,0,-1,1903,638,9.11765,-2.10402
686,386,0,0,0,0,0,0,0,0,0,-1,1910,638,0,0
693,386,0,0,0,0,0,0,0,0,0,-1,1917,638,0,0
700,386,0,0,0,0,0,0,0,0,0,-1,1924,638,0,0
707,386,0,0,0,0,0,0,0,0,0,-1,1931,638,0,0
714,386,0,0,0,0,0,0,0,0,0,-1,1938,638,0,0
721,386,0,0,0,0,0,0,0,0,0,-1,1945,638,0,0
728,386,0,0,0,0,0,0,0,0,0,-1,1952,638,0,0
735,386,0,0,0,0,0,0,0,0,0,-1,1959,638,0,0
742,386,0,0,0,0,0,0,0,0,0,-1,1966,638,0,0
749,386,0,0,0,0,0,0,0,0,0,-1,1973,638,0,0
756,386,0,0,0,0,0,0,0,0,0,-1,1980,638,0,0
763,386,0,0,0,0,0,0,0,0,0,-1,1987,638,0,0
770,386,0,0,0,0,0,0,0,0,0,-1,1994,638,0,0
777,386,0,0,0,0,0,0,0,0,0,-1,2001,638,0,0
784,386,0,0,0,0,0,0,0,0,0,-1,2008,638,0,0
791,386,0,0,0,0,0,0,0,0,0,-1,2015,638,0,0
798,386,0,0,0,0,0,0,0,0,0,-1,2022,638,0,0
805,386,0,0,0,0,0,0,0,0,0,-1,2029,638,0,0
812,386,0,0,0,0,0,0,0,0,0,-1,2036,638,0,0
-700,379,0,0,0,0,0,0,0,0,0,-1,524,645,0,0
-693,379,0,0,0,0,0,0,0,0,0,-1,531,645,0,0
-686,379,0,0,0,0,0,0,0,0,0,-1,538,645,0,0
-679,379,0,0,0,0,0,0,0,0,0,-1,545,645,0,0
-672,379,0,0,0,0,0,0,0,0,0,-1,552,645,0,0
-665,379,0,0,0,0,0,0,0,0,0,-1,559,645,0,0
-658,379,0,0,0,0,0,0,0,0,0,-1,566,645,0,0
-651,379,0,0,0,0,0,0,0,0,0,-1,573,645,0,0
-644,379,0,0,0,0,0,0,0,0,0,-1,580,645,0,0
-637,379,0,0,0,0,0,0,0,0,0,-1,587,645,0,0
-630,379,0,0,0,0,0,0,0,0,0,-1,594,645,0,0
-623,379,0,0,0,0,0,0,0,0,0,-1,601,645,0,0
-616,379,0,0,0,0,0,0,0,0,0,-1,608,645,0,0
-609,379,0,0,0,0,0,0,0,0,0,-1,615,645,0,0
-602,379,0,0,0,0,0,0,0,0,0,-1,622,645,0,0
-595,379,0,0,0,0,0,0,0,0,0,-1,629,645,0,0
-588,379,0,0,0,0,0,0,0,0,0,-1,636,645,0,0
-581,379,0,0,0,0,0,0,0,0,0,-1,643,645,0,0
-574,379,0,0,0,0,0,0,0,0,0,-1,650,645,0,0
-567,379,-7.35699,-1.21899,0,0,0,0,0,0,0,-1,657,645,-7.357,1.21901
-560,379,-5.89734,-1.27557,0,0,0,0,0,0,0,-1,664,645,-5.89735,1.27558
-553,379,-4.21802,-1.53235,0,0,0,0,0,0,0,-1,671,645,-4.21804,1.53235
-546,379,-3.03107,-0.732483,0.0852893,-0.018116,-0.0351608,0.0961123,-0.0289389,-0.298608,0.0755907,0.0460817,678,645,-3.03105,0.732484
-539,379,-4.17548,-1.83258,0.0656482,-0.0151254,-0.0294431,0.0752412,-0.0247184,-0.314972,0.0601187,0.0450713,685,645,-4.17549,1.83255
-532,379,-3.20929,0.978088,0,0,0,0,0,0,0,-1,692,645,-3.20929,-0.978063
-525,379,-3.29944,0.22644,0.0342153,-0.00953026,-0.0186143,0.0410638,-0.0163787,-0.352545,0.03417,0.0454083,699,645,-3.29945,-0.226425
-518,379,-3.50262,-0.871155,0.0222485,-0.00707941,-0.0141167,0.0279392,-0.0127701,-0.383193,0.0240413,0.0420682,706,645,-3.50262,0.871181
-511,379,-3.38361,-1.11664,0.0131061,-0.00520953,-0.00977461,0.0173427,-0.00944606,-0.408982,0.0156889,0.0277766,713,645,-3.38358,1.11665
-504,379,-3.4317,-1.26154,0.00654366,-0.00389987,-0.00605177,0.00931506,-0.00667128,-0.429445,0.00927169,0.0143376,720,645,-3.43168,1.26151
-497,379,-3.46436,-1.40887,0.00237543,-0.00265971,-0.00368251,0.00431869,-0.00460298,-0.485562,0.0051518,0.00937149,727,645,-3.46434,1.40888
-490,379,-3.46417,-1.60223,0.000187373,-0.00197734,-0.000795066,0.000448008,-0.00223798,-0.316776,0.00166158,0.0111793,734,645,-3.46417,1.60224
-483,379,-3.44659,-1.79968,-0.00147836,-0.00136887,0.000256375,-0.00116146,-0.00168577,0.89059,0.000996182,0.0123617,741,645,-3.44659,1.79967
-476,379,-3.4328,-1.95496,-0.000764137,-0.00166123,0.000389974,-0.000618315,-0.00180705,0.357829,0.00106049,0.012242,748,645,-3.43281,1.95493
-469,379,-3.45197,-2.13245,-0.000182066,-0.00258953,0.000785369,5.14828e-05,-0.00282307,0.289047,0.00189944,0.0116542,755,645,-3.45195,2.13244
-462,379,-3.46796,-2.34155,0.000166712,-0.00333256,0.00105421,0.000459769,-0.00362561,0.27114,0.002584,0.00911295,762,645,-3.46797,2.34155
-455,379,-3.47424,-2.50848,0.000406389,-0.00442801,0.00145866,0.000812406,-0.00483403,0.271477,0.00352483,0.00882189,769,645,-3.47422,2.50851
-448,379,-3.46082,-2.69153,0.00072967,-0.00604905,0.00210873,0.00133212,-0.0066515,0.278278,0.00493862,0.0107071,776,645,-3.46084,2.69153
-441,379,-3.44452,-2.90826,0.000665847,-0.00840112,0.00315536,0.00165584,-0.00939111,0.304022,0.00687943,0.0138811,783,645,-3.44449,2.90826
-434,379,-3.34259,-3.13336,0.000541564,-0.0113807,0.00454743,0.00207805,-0.0129172,0.325836,0.00938118,0.0374686,790,645,-3.34261,3.13334
-427,379,-3.56213,-2.97699,0.000462271,-0.0147145,0.00627255,0.00271912,-0.0169713,0.345376,0.012321,0.0468787,797,645,-3.56212,2.977
-420,379,-3.55835,-2.79352,0.000484869,-0.0186783,0.00821909,0.00352708,-0.0217205,0.354503,0.0157879,0.0433656,804,645,-3.55832,2.7935
-413,379,-3.6767,-2.91382,0,0,0,0,0,0,0,-1,811,645,-3.67673,2.91381
-406,379,-4.64063,-4.38489,0,0,0,0,0,0,0,-1,818,645,-4.64065,4.3849
-399,379,-2.93536,-1.40118,0,0,0,0,0,0,0,-1,825,645,-2.93534,1.40119
-392,379,-4.16711,-0.466003,0,0,0,0,0,0,0,-1,832,645,-4.16714,0.465992
-385,379,-3.51862,0.441101,0,0,0,0,0,0,0,-1,839,645,-3.51859,-0.441072
-378,379,-5.3504,0.212219,0,0,0,0,0,0,0,-1,846,645,-5.35038,-0.212241
-371,379,-4.32092,-0.186707,0,0,0,0,0,0,0,-1,853,645,-4.3209,0.186707
-364,379,-3.40887,-0.549805,0,0,0,0,0,0,0,-1,860,645,-3.4089,0.549802
-357,379,0,0,0,0,0,0,0,0,0,-1,867,645,0,0
-350,379,0,0,0,0,0,0,0,0,0,-1,874,645,0,0
-343,379,0,0,0,0,0,0,0,0,0,-1,881,645,0,0
-336,379,0,0,0,0,0,0,0,0,0,-1,888,645,0,0
-329,379,0,0,0,0,0,0,0,0,0,-1,895,645,0,0
-322,379,0,0,0,0,0,0,0,0,0,-1,902,645,0,0
-315,379,0,0,0,0,0,0,0,0,0,-1,909,645,0,0
-308,379,0,0,0,0,0,0,0,0,0,-1,916,645,0,0
-301,379,0,0,0,0,0,0,0,0,0,-1,923,645,0,0
-294,379,0,0,0,0,0,0,0,0,0,-1,930,645,0,0
-287,379,0,0,0,0,0,0,0,0,0,-1,937,645,0,0
-280,379,0,0,0,0,0,0,0,0,0,-1,944,645,0,0
-273,379,0,0,0,0,0,0,0,0,0,-1,951,645,0,0
-266,379,0,0,0,0,0,0,0,0,0,-1,958,645,0,0
-259,379,0,0,0,0,0,0,0,0,0,-1,965,645,0,0
-252,379,0,0,0,0,0,0,0,0,0,-1,972,645,0,0
-245,379,0,0,0,0,0,0,0,0,0,-1,979,645,0,0
-238,379,0,0,0,0,0,0,0,0,0,-1,986,645,0,0
-231,379,0,0,0,0,0,0,0,0,0,-1,993,645,0,0
-224,379,0,0,0,0,0,0,0,0,0,-1,1000,645,0,0
-217,379,0,0,0,0,0,0,0,0,0,-1,1007,645,0,0
-210,379,0,0,0,0,0,0,0,0,0,-1,1014,645,0,0
-203,379,0,0,0,0,0,0,0,0,0,-1,1021,645,0,0
-196,379,0,0,0,0,0,0,0,0,0,-1,1028,645,0,0
-189,379,0,0,0,0,0,0,0,0,0,-1,1035,645,0,0
-182,379,0,0,0,0,0,0,0,0,0,-1,1042,645,0,0
-175,379,0,0,0,0,0,0,0,0,0,-1,1049,645,0,0
-168,379,0,0,0,0,0,0,0,0,0,-1,1056,645,0,0
-161,379,0,0,0,0,0,0,0,0,0,-1,1063,645,0,0
-154,379,0,0,0,0,0,0,0,0,0,-1,1070,645,0,0
-147,379,0,0,0,0,0,0,0,0,0,-1,1077,645,0,0
-140,379,0,0,0,0,0,0,0,0,0,-1,1084,645,0,0
-133,379,0,0,0,0,0,0,0,0,0,-1,1091,645,0,0
-126,379,0,0,0,0,0,0,0,0,0,-1,1098,645,0,0
-119,379,0,0,0,0,0,0,0,0,0,-1,1105,645,0,0
-112,379,0,0,0,0,0,0,0,0,0,-1,1112,645,0,0
-105,379,0,0,0,0,0,0,0,0,0,-1,1119,645,0,0
-98,379,0,0,0,0,0,0,0,0,0,-1,1126,645,0,0
-91,379,0,0,0,0,0,0,0,0,0,-1,1133,645,0,0
-84,379,0,0,0,0,0,0,0,0,0,-1,1140,645,0,0
-77,379,0,0,0,0,0,0,0,0,0,-1,1147,645,0,0
-70,379,0,0,0,0,0,0,0,0,0,-1,1154,645,0,0
-63,379,0,0,0,0,0,0,0,0,0,-1,1161,645,0,0
-56,379,0,0,0,0,0,0,0,0,0,-1,1168,645,0,0
-49,379,0,0,0,0,0,0,0,0,0,-1,1175,645,0,0
-42,379,0,0,0,0,0,0,0,0,0,-1,1182,645,0,0
-35,379,0,0,0,0,0,0,0,0,0,-1,1189,645,0,0
-28,379,0,0,0,0,0,0,0,0,0,-1,1196,645,0,0
-21,379,0,0,0,0,0,0,0,0,0,-1,1203,645,0,0
-14,379,0,0,0,0,0,0,0,0,0,-1,1210,645,0,0
-7,379,0,0,0,0,0,0,0,0,0,-1,1217,645,0,0
0,379,0,0,0,0,0,0,0,0,0,-1,1224,645,0,0
7,379,0,0,0,0,0,0,0,0,0,-1,1231,645,0,0
14,379,0,0,0,0,0,0,0,0,0,-1,1238,645,0,0
21,379,0,0,0,0,0,0,0,0,0,-1,1245,645,0,0
28,379,0,0,0,0,0,0,0,0,0,-1,1252,645,0,0
35,379,0,0,0,0,0,0,0,0,0,-1,1259,645,0,0
42,379,0,0,0,0,0,0,0,0,0,-1,1266,645,0,0
49,379,0,0,0,0,0,0,0,0,0,-1,1273,645,0,0
56,379,0,0,0,0,0,0,0,0,0,-1,1280,645,0,0
63,379,0,0,0,0,0,0,0,0,0,-1,1287,645,0,0
70,379,0,0,0,0,0,0,0,0,0,-1,1294,645,0,0
77,379,0,0,0,0,0,0,0,0,0,-1,1301,645,0,0
84,379,0,0,0,0,0,0,0,0,0,-1,1308,645,0,0
91,379,0,0,0,0,0,0,0,0,0,-1,1315,645,0,0
98,379,0,0,0,0,0,0,0,0,0,-1,1322,645,0,0
105,379,0,0,0,0,0,0,0,0,0,-1,1329,645,0,0
112,379,0,0,0,0,0,0,0,0,0,-1,1336,645,0,0
119,379,0,0,0,0,0,0,0,0,0,-1,1343,645,0,0
126,379,0,0,0,0,0,0,0,0,0,-1,1350,645,0,0
133,379,0,0,0,0,0,0,0,0,0,-1,1357,645,0,0
140,379,0,0,0,0,0,0,0,0,0,-1,1364,645,0,0
147,379,0,0,0,0,0,0,0,0,0,-1,1371,645,0,0
154,379,0,0,0,0,0,0,0,0,0,-1,1378,645,0,0
161,379,0,0,0,0,0,0,0,0,0,-1,1385,645,0,0
168,379,0,0,0,0,0,0,0,0,0,-1,1392,645,0,0
175,379,0,0,0,0,0,0,0,0,0,-1,1399,645,0,0
182,379,0,0,0,0,0,0,0,0,0,-1,1406,645,0,0
189,379,0,0,0,0,0,0,0,0,0,-1,1413,645,0,0
196,379,0,0,0,0,0,0,0,0,0,-1,1420,645,0,0
203,379,0,0,0,0,0,0,0,0,0,-1,1427,645,0,0
210,379,0,0,0,0,0,0,0,0,0,-1,1434,645,0,0
217,379,0,0,0,0,0,0,0,0,0,-1,1441,645,0,0
224,379,0,0,0,0,0,0,0,0,0,-1,1448,645,0,0
231,379,0,0,0,0,0,0,0,0,0,-1,1455,645,0,0
238,379,0,0,0,0,0,0,0,0,0,-1,1462,645,0,0
245,379,0,0,0,0,0,0,0,0,0,-1,1469,645,0,0
252,379,0,0,0,0,0,0,0,0,0,-1,1476,645,0,0
259,379,0,0,0,0,0,0,0,0,0,-1,1483,645,0,0
266,379,0,0,0,0,0,0,0,0,0,-1,1490,645,0,0
273,379,0,0,0,0,0,0,0,0,0,-1,1497,645,0,0
280,379,0,0,0,0,0,0,0,0,0,-1,1504,645,0,0
287,379,0,0,0,0,0,0,0,0,0,-1,1511,645,0,0
294,379,0,0,0,0,0,0,0,0,0,-1,1518,645,0,0
301,379,0,0,0,0,0,0,0,0,0,-1,1525,645,0,0
308,379,0,0,0,0,0,0,0,0,0,-1,1532,645,0,0
315,379,0,0,0,0,0,0,0,0,0,-1,1539,645,0,0
322,379,0,0,0,0,0,0,0,0,0,-1,1546,645,0,0
329,379,0,0,0,0,0,0,0,0,0,-1,1553,645,0,0
336,379,0,0,0,0,0,0,0,0,0,-1,1560,645,0,0
343,379,0,0,0,0,0,0,0,0,0,-1,1567,645,0,0
350,379,0,0,0,0,0,0,0,0,0,-1,1574,645,0,0
357,379,0,0,0,0,0,0,0,0,0,-1,1581,645,0,0
364,379,0,0,0,0,0,0,0,0,0,-1,1588,645,0,0
371,379,0,0,0,0,0,0,0,0,0,-1,1595,645,0,0
378,379,0,0,0,0,0,0,0,0,0,-1,1602,645,0,0
385,379,0,0,0,0,0,0,0,0,0,-1,1609,645,0,0
392,379,0,0,0,0,0,0,0,0,0,-1,1616,645,0,0
399,379,0,0,0,0,0,0,0,0,0,-1,1623,645,0,0
406,379,0,0,0,0,0,0,0,0,0,-1,1630,645,0,0
413,379,0,0,0,0,0,0,0,0,0,-1,1637,645,0,0
420,379,0,0,0,0,0,0,0,0,0,-1,1644,645,0,0
427,379,0,0,0,0,0,0,0,0,0,-1,1651,645,0,0
434,379,0,0,0,0,0,0,0,0,0,-1,1658,645,0,0
441,379,0,0,0,0,0,0,0,0,0,-1,1665,645,0,0
448,379,0,0,0,0,0,0,0,0,0,-1,1672,645,0,0
455,379,0,0,0,0,0,0,0,0,0,-1,1679,645,0,0
462,379,0,0,0,0,0,0,0,0,0,-1,1686,645,0,0
469,379,0,0,0,0,0,0,0,0,0,-1,1693,645,0,0
476,379,11.1787,0.830383,0,0,0,0,0,0,0,-1,1700,645,11.1787,-0.830365
483,379,7.4231,1.54321,0,0,0,0,0,0,0,-1,1707,645,7.42314,-1.54324
490,379,8.52881,1.56677,0,0,0,0,0,0,0,-1,1714,645,8.52878,-1.56677
497,379,9.63599,1.49573,0,0,0,0,0,0,0,-1,1721,645,9.63604,-1.4957
504,379,10.0833,1.35229,0,0,0,0,0,0,0,-1,1728,645,10.0832,-1.35227
511,379,8.14343,1.59912,0,0,0,0,0,0,0,-1,1735,645,8.14347,-1.59912
518,379,12.7955,-0.324097,0,0,0,0,0,0,0,-1,1742,645,12.7955,0.324101
525,379,6.03711,1.10352,0,0,0,0,0,0,0,-1,1749,645,6.03711,-1.10351
532,379,8.70947,0.887817,0,0,0,0,0,0,0,-1,1756,645,8.70953,-0.887808
539,379,9.87097,0.111389,0,0,0,0,0,0,0,-1,1763,645,9.87095,-0.111395
546,379,8.42383,-0.730652,0,0,0,0,0,0,0,-1,1770,645,8.42378,0.730638
553,379,8.42114,-1.59143,0,0,0,0,0,0,0,-1,1777,645,8.42112,1.5914
560,379,8.38794,-1.52576,-0.015746,0.00649403,-0.00417476,0.00725187,-0.0165038,-1.39122,0.0140578,0.0349421,1784,645,8.38792,1.52574
567,379,8.11499,-1.29645,-0.0131405,0.004854,-0.00373732,0.00559934,-0.0138858,-1.37395,0.0115839,0.0210216,1791,645,8.11495,1.29643
574,379,8.20422,-1.14978,-0.0105926,0.00328137,-0.00324699,0.00400367,-0.0113149,-1.35191,0.00917381,0.0125072,1798,645,8.20418,1.14976
581,379,8.20886,-0.972961,-0.0080362,0.00209919,-0.00264741,0.00274904,-0.00868605,-1.33009,0.00689228,0.0145639,1805,645,8.20891,0.972992
588,379,8.2085,-0.761108,-0.00565634,0.00125253,-0.00200427,0.00179187,-0.00619568,-1.30793,0.00483961,0.0166575,1812,645,8.20846,0.761083
595,379,8.19348,-0.57196,-0.0034618,0.000629915,-0.00143685,0.00108407,-0.00391596,-1.26466,0.00303719,0.0140925,1819,645,8.19345,0.571956
602,379,8.20227,-0.369385,-0.00142335,0.000432732,-0.00107695,0.000926341,-0.00191696,-1.14103,0.00167446,0.0145226,1826,645,8.20229,0.369402
609,379,8.20789,-0.171753,0.000338339,-8.46359e-05,-0.000735251,0.000891914,-0.000638211,-0.645359,0.000887456,0.015077,1833,645,8.20789,0.171771
616,379,8.1936,0.0383301,0.00182735,-0.00064055,-0.000812275,0.00207071,-0.000883903,-0.291084,0.00175112,0.0120198,1840,645,8.19359,-0.0383236
623,379,8.21228,0.288513,0.0033294,-0.000929206,-0.000972557,0.003541,-0.0011408,-0.214226,0.00281896,0.0115379,1847,645,8.21233,-0.288529
630,379,8.24231,0.46228,0.00487904,-0.00119043,-0.00148617,0.0052234,-0.00153479,-0.227695,0.00409098,0.0126784,1854,645,8.24226,-0.462278
637,379,8.25232,0.648804,0.00637603,-0.00187295,-0.00231497,0.00698128,-0.00247821,-0.255729,0.00566395,0.0151652,1861,645,8.25235,-0.648803
644,379,8.23657,0.897278,0.00820587,-0.00269242,-0.00334691,0.00915165,-0.00363819,-0.275401,0.00760949,0.0252429,1868,645,8.23658,-0.897284
651,379,8.51501,0.679321,0.0108106,-0.00369457,-0.00461018,0.0121519,-0.00503581,-0.283114,0.0102029,0.0468534,1875,645,8.51502,-0.679338
658,379,9.17346,0.527832,0.0143324,-0.00473771,-0.00600285,0.0160646,-0.00646993,-0.280934,0.0133977,0.048507,1882,645,9.17341,-0.527807
665,379,9.6123,0.683533,0,0,0,0,0,0,0,-1,1889,645,9.61227,-0.683557
672,379,7.43872,2.6579,0,0,0,0,0,0,0,-1,1896,645,7.43874,-2.65788
679,379,8.79382,2.41998,0,0,0,0,0,0,0,-1,1903,645,8.79376,-2.41999
686,379,0,0,0,0,0,0,0,0,0,-1,1910,645,0,0
693,379,0,0,0,0,0,0,0,0,0,-1,1917,645,0,0
700,379,0,0,0,0,0,0,0,0,0,-1,1924,645,0,0
707,379,0,0,0,0,0,0,0,0,0,-1,1931,645,0,0
714,379,0,0,0,0,0,0,0,0,0,-1,1938,645,0,0
721,379,0,0,0,0,0,0,0,0,0,-1,1945,645,0,0
728,379,0,0,0,0,0,0,0,0,0,-1,1952,645,0,0
735,379,0,0,0,0,0,0,0,0,0,-1,1959,645,0,0
742,379,0,0,0,0,0,0,0,0,0,-1,1966,645,0,0
749,379,0,0,0,0,0,0,0,0,0,-1,1973,645,0,0
756,379,0,0,0,0,0,0,0,0,0,-1,1980,645,0,0
763,379,0,0,0,0,0,0,0,0,0,-1,1987,645,0,0
770,379,0,0,0,0,0,0,0,0,0,-1,1994,645,0,0
777,379,0,0,0,0,0,0,0,0,0,-1,2001,645,0,0
784,379,0,0,0,0,0,0,0,0,0,-1,2008,645,0,0
791,379,0,0,0,0,0,0,0,0,0,-1,2015,645,0,0
798,379,0,0,0,0,0,0,0,0,0,-1,2022,645,0,0
805,379,0,0,0,0,0,0,0,0,0,-1,2029,645,0,0
812,379,0,0,0,0,0,0,0,0,0,-1,2036,645,0,0
-700,372,0,0,0,0,0,0,0,0,0,-1,524,652,0,0
-693,372,0,0,0,0,0,0,0,0,0,-1,531,652,0,0
-686,372,0,0,0,0,0,0,0,0,0,-1,538,652,0,0
-679,372,0,0,0,0,0,0,0,0,0,-1,545,652,0,0
-672,372,0,0,0,0,0,0,0,0,0,-1,552,652,0,0
-665,372,0,0,0,0,0,0,0,0,0,-1,559,652,0,0
-658,372,0,0,0,0,0,0,0,0,0,-1,566,652,0,0
-651,372,0,0,0,0,0,0,0,0,0,-1,573,652,0,0
-644,372,0,0,0,0,0,0,0,0,0,-1,580,652,0,0
-637,372,0,0,0,0,0,0,0,0,0,-1,587,652,0,0
-630,372,0,0,0,0,0,0,0,0,0,-1,594,652,0,0
-623,372,0,0,0,0,0,0,0,0,0,-1,601,652,0,0
-616,372,0,0,0,0,0,0,0,0,0,-1,608,652,0,0
-609,372,0,0,0,0,0,0,0,0,0,-1,615,652,0,0
-602,372,0,0,0,0,0,0,0,0,0,-1,622,652,0,0
-595,372,0,0,0,0,0,0,0,0,0,-1,629,652,0,0
-588,372,0,0,0,0,0,0,0,0,0,-1,636,652,0,0
-581,372,0,0,0,0,0,0,0,0,0,-1,643,652,0,0
-574,372,0,0,0,0,0,0,0,0,0,-1,650,652,0,0
-567,372,-6.53186,-1.66302,0,0,0,0,0,0,0,-1,657,652,-6.53184,1.663
-560,372,-5.47003,-1.51563,0.0999079,-0.0304883,-0.0218797,0.103481,-0.0340617,-0.161889,0.0827132,0.0444049,664,652,-5.47004,1.51564
-553,372,-4.41229,-1.48999,0.0817267,-0.0244306,-0.0238916,0.0868559,-0.0295598,-0.211475,0.0698735,0.0489662,671,652,-4.41228,1.49
-546,372,-2.88904,-1.63812,0.0647881,-0.0194634,-0.0229302,0.0706246,-0.0252999,-0.249239,0.0574058,0.0454196,678,652,-2.88907,1.63814
-539,372,-4.14484,-1.659,0.0496154,-0.015407,-0.0201776,0.0553679,-0.0211596,-0.277727,0.0456309,0.046088,685,652,-4.14486,1.65902
-532,372,-3.35712,0.74115,0,0,0,0,0,0,0,-1,692,652,-3.35712,-0.741124
-525,372,-3.45605,0.0126953,0.0254109,-0.0089191,-0.0135797,0.030133,-0.0136412,-0.334653,0.025864,0.0420153,699,652,-3.45606,-0.0126787
-518,372,-3.55359,-0.755798,0.016251,-0.0063812,-0.0105643,0.0204158,-0.010546,-0.375527,0.0181761,0.0268142,706,652,-3.55358,0.75578
-511,372,-3.63336,-1.08661,0.00935551,-0.00455251,-0.00742046,0.0125711,-0.00776814,-0.408918,0.0118515,0.0152361,713,652,-3.63333,1.08659
-504,372,-3.64624,-1.23486,0.00447849,-0.00335606,-0.0045891,0.00659487,-0.00547244,-0.432107,0.0069771,0.0104769,720,652,-3.64627,1.23484
-497,372,-3.62463,-1.41644,0.00140567,-0.00235003,-0.00285426,0.00294441,-0.00388878,-0.49444,0.00395768,0.0104548,727,652,-3.62466,1.41647
-490,372,-3.6394,-1.58673,-6.84917e-05,-0.00193806,-0.000671901,0.00014793,-0.00215448,-0.311609,0.00148808,0.0117506,734,652,-3.63939,1.58671
-483,372,-3.63812,-1.76642,-0.000966111,-0.00168955,0.000141717,-0.00093934,-0.00171632,0.186704,0.000992394,0.0113317,741,652,-3.63813,1.76639
-476,372,-3.63202,-1.93396,-0.000333659,-0.00244597,0.000312409,-0.000288423,-0.00249121,0.143799,0.0015735,0.0123985,748,652,-3.63203,1.93399
-469,372,-3.64447,-2.12,0.000196557,-0.00378603,0.000682454,0.000310256,-0.00389973,0.165087,0.00270917,0.0106357,755,652,-3.64446,2.11997
-462,372,-3.64514,-2.32819,0.000527815,-0.00499829,0.000923459,0.000678049,-0.00514852,0.161273,0.00367925,0.00932958,762,652,-3.64512,2.3282
-455,372,-3.65747,-2.50153,0.000749824,-0.00655939,0.00132181,0.000981518,-0.00679108,0.173523,0.00488752,0.00985416,769,652,-3.65745,2.50153
-448,372,-3.6452,-2.69885,0.000986455,-0.00885237,0.00202186,0.00138574,-0.00925166,0.194975,0.00667778,0.0106069,776,652,-3.6452,2.69887
-441,372,-3.55365,-3.0166,0.000857237,-0.0118715,0.00313754,0.0015886,-0.0126029,0.22901,0.00897843,0.0255196,783,652,-3.55363,3.01659
-434,372,-3.75037,-2.99127,0.000694165,-0.0156261,0.00460756,0.00190512,-0.0168371,0.257008,0.0119106,0.0414631,790,652,-3.75039,2.99129
-427,372,-3.57452,-2.70703,0.000527907,-0.0199051,0.00645946,0.00239865,-0.0217758,0.281901,0.0153792,0.04401,797,652,-3.57452,2.70704
-420,372,-3.8125,-2.37628,0,0,0,0,0,0,0,-1,804,652,-3.81249,2.37628
-413,372,-4.74762,-3.29541,0,0,0,0,0,0,0,-1,811,652,-4.74763,3.29542
-406,372,-0.885437,-0.583923,0,0,0,0,0,0,0,-1,818,652,-0.885437,0.5839
-399,372,-3.97357,-0.825012,0,0,0,0,0,0,0,-1,825,652,-3.97359,0.825037
-392,372,-7.64337,0.173035,0,0,0,0,0,0,0,-1,832,652,-7.64337,-0.173019
-385,372,-6.48871,-0.0271606,0,0,0,0,0,0,0,-1,839,652,-6.48874,0.0271353
-378,372,-5.33044,-0.242432,0,0,0,0,0,0,0,-1,846,652,-5.33042,0.242457
-371,372,-4.40802,-0.495667,0,0,0,0,0,0,0,-1,853,652,-4.40802,0.495661
-364,372,0,0,0,0,0,0,0,0,0,-1,860,652,0,0
-357,372,0,0,0,0,0,0,0,0,0,-1,867,652,0,0
-350,372,0,0,0,0,0,0,0,0,0,-1,874,652,0,0
-343,372,0,0,0,0,0,0,0,0,0,-1,881,652,0,0
-336,372,0,0,0,0,0,0,0,0,0,-1,888,652,0,0
-329,372,0,0,0,0,0,0,0,0,0,-1,895,652,0,0
-322,372,0,0,0,0,0,0,0,0,0,-1,902,652,0,0
-315,372,0,0,0,0,0,0,0,0,0,-1,909,652,0,0
-308,372,0,0,0,0,0,0,0,0,0,-1,916,652,0,0
-301,372,0,0,0,0,0,0,0,0,0,-1,923,652,0,0
-294,372,0,0,0,0,0,0,0,0,0,-1,930,652,0,0
-287,372,0,0,0,0,0,0,0,0,0,-1,937,652,0,0
-280,372,0,0,0,0,0,0,0,0,0,-1,944,652,0,0
-273,372,0,0,0,0,0,0,0,0,0,-1,951,652,0,0
-266,372,0,0,0,0,0,0,0,0,0,-1,958,652,0,0
-259,372,0,0,0,0,0,0,0,0,0,-1,965,652,0,0
-252,372,0,0,0,0,0,0,0,0,0,-1,972,652,0,0
-245,372,0,0,0,0,0,0,0,0,0,-1,979,652,0,0
-238,372,0,0,0,0,0,0,0,0,0,-1,986,652,0,0
-231,372,0,0,0,0,0,0,0,0,0,-1,993,652,0,0
-224,372,0,0,0,0,0,0,0,0,0,-1,1000,652,0,0
-217,372,0,0,0,0,0,0,0,0,0,-1,1007,652,0,0
-210,372,0,0,0,0,0,0,0,0,0,-1,1014,652,0,0
-203,372,0,0,0,0,0,0,0,0,0,-1,1021,652,0,0
-196,372,0,0,0,0,0,0,0,0,0,-1,1028,652,0,0
-189,372,0,0,0,0,0,0,0,0,0,-1,1035,652,0,0
-182,372,0,0,0,0,0,0,0,0,0,-1,1042,652,0,0
-175,372,0,0,0,0,0,0,0,0,0,-1,1049,652,0,0
-168,372,0,0,0,0,0,0,0,0,0,-1,1056,652,0,0
-161,372,0,0,0,0,0,0,0,0,0,-1,1063,652,0,0
-154,372,0,0,0,0,0,0,0,0,0,-1,1070,652,0,0
-147,372,0,0,0,0,0,0,0,0,0,-1,1077,652,0,0
-140,372,0,0,0,0,0,0,0,0,0,-1,1084,652,0,0
-133,372,0,0,0,0,0,0,0,0,0,-1,1091,652,0,0
-126,372,0,0,0,0,0,0,0,0,0,-1,1098,652,0,0
-119,372,0,0,0,0,0,0,0,0,0,-1,1105,652,0,0
-112,372,0,0,0,0,0,0,0,0,0,-1,1112,652,0,0
-105,372,0,0,0,0,0,0,0,0,0,-1,1119,652,0,0
-98,372,0,0,0,0,0,0,0,0,0,-1,1126,652,0,0
-91,372,0,0,0,0,0,0,0,0,0,-1,1133,652,0,0
-84,372,0,0,0,0,0,0,0,0,0,-1,1140,652,0,0
-77,372,0,0,0,0,0,0,0,0,0,-1,1147,652,0,0
-70,372,0,0,0,0,0,0,0,0,0,-1,1154,652,0,0
-63,372,0,0,0,0,0,0,0,0,0,-1,1161,652,0,0
-56,372,0,0,0,0,0,0,0,0,0,-1,1168,652,0,0
-49,372,0,0,0,0,0,0,0,0,0,-1,1175,652,0,0
-42,372,0,0,0,0,0,0,0,0,0,-1,1182,652,0,0
-35,372,0,0,0,0,0,0,0,0,0,-1,1189,652,0,0
-28,372,0,0,0,0,0,0,0,0,0,-1,1196,652,0,0
-21,372,0,0,0,0,0,0,0,0,0,-1,1203,652,0,0
-14,372,0,0,0,0,0,0,0,0,0,-1,1210,652,0,0
-7,372,0,0,0,0,0,0,0,0,0,-1,1217,652,0,0
0,372,0,0,0,0,0,0,0,0,0,-1,1224,652,0,0
7,372,0,0,0,0,0,0,0,0,0,-1,1231,652,0,0
14,372,0,0,0,0,0,0,0,0,0,-1,1238,652,0,0
21,372,0,0,0,0,0,0,0,0,0,-1,1245,652,0,0
28,372,0,0,0,0,0,0,0,0,0,-1,1252,652,0,0
35,372,0,0,0,0,0,0,0,0,0,-1,1259,652,0,0
42,372,0,0,0,0,0,0,0,0,0,-1,1266,652,0,0
49,372,0,0,0,0,0,0,0,0,0,-1,1273,652,0,0
56,372,0,0,0,0,0,0,0,0,0,-1,1280,652,0,0
63,372,0,0,0,0,0,0,0,0,0,-1,1287,652,0,0
70,372,0,0,0,0,0,0,0,0,0,-1,1294,652,0,0
77,372,0,0,0,0,0,0,0,0,0,-1,1301,652,0,0
84,372,0,0,0,0,0,0,0,0,0,-1,1308,652,0,0
91,372,0,0,0,0,0,0,0,0,0,-1,1315,652,0,0
98,372,0,0,0,0,0,0,0,0,0,-1,1322,652,0,0
105,372,0,0,0,0,0,0,0,0,0,-1,1329,652,0,0
112,372,0,0,0,0,0,0,0,0,0,-1,1336,652,0,0
119,372,0,0,0,0,0,0,0,0,0,-1,1343,652,0,0
126,372,0,0,0,0,0,0,0,0,0,-1,1350,652,0,0
133,372,0,0,0,0,0,0,0,0,0,-1,1357,652,0,0
140,372,0,0,0,0,0,0,0,0,0,-1,1364,652,0,0
147,372,0,0,0,0,0,0,0,0,0,-1,1371,652,0,0
154,372,0,0,0,0,0,0,0,0,0,-1,1378,652,0,0
161,372,0,0,0,0,0,0,0,0,0,-1,1385,652,0,0
168,372,0,0,0,0,0,0,0,0,0,-1,1392,652,0,0
175,372,0,0,0,0,0,0,0,0,0,-1,1399,652,0,0
182,372,0,0,0,0,0,0,0,0,0,-1,1406,652,0,0
189,372,0,0,0,0,0,0,0,0,0,-1,1413,652,0,0
196,372,0,0,0,0,0,0,0,0,0,-1,1420,652,0,0
203,372,0,0,0,0,0,0,0,0,0,-1,1427,652,0,0
210,372,0,0,0,0,0,0,0,0,0,-1,1434,652,0,0
217,372,0,0,0,0,0,0,0,0,0,-1,1441,652,0,0
224,372,0,0,0,0,0,0,0,0,0,-1,1448,652,0,0
231,372,0,0,0,0,0,0,0,0,0,-1,1455,652,0,0
238,372,0,0,0,0,0,0,0,0,0,-1,1462,652,0,0
245,372,0,0,0,0,0,0,0,0,0,-1,1469,652,0,0
252,372,0,0,0,0,0,0,0,0,0,-1,1476,652,0,0
259,372,0,0,0,0,0,0,0,0,0,-1,1483,652,0,0
266,372,0,0,0,0,0,0,0,0,0,-1,1490,652,0,0
273,372,0,0,0,0,0,0,0,0,0,-1,1497,652,0,0
280,372,0,0,0,0,0,0,0,0,0,-1,1504,652,0,0
287,372,0,0,0,0,0,0,0,0,0,-1,1511,652,0,0
294,372,0,0,0,0,0,0,0,0,0,-1,1518,652,0,0
301,372,0,0,0,0,0,0,0,0,0,-1,1525,652,0,0
308,372,0,0,0,0,0,0,0,0,0,-1,1532,652,0,0
315,372,0,0,0,0,0,0,0,0,0,-1,1539,652,0,0
322,372,0,0,0,0,0,0,0,0,0,-1,1546,652,0,0
329,372,0,0,0,0,0,0,0,0,0,-1,1553,652,0,0
336,372,0,0,0,0,0,0,0,0,0,-1,1560,652,0,0
343,372,0,0,0,0,0,0,0,0,0,-1,1567,652,0,0
350,372,0,0,0,0,0,0,0,0,0,-1,1574,652,0,0
357,372,0,0,0,0,0,0,0,0,0,-1,1581,652,0,0
364,372,0,0,0,0,0,0,0,0,0,-1,1588,652,0,0
371,372,0,0,0,0,0,0,0,0,0,-1,1595,652,0,0
378,372,0,0,0,0,0,0,0,0,0,-1,1602,652,0,0
385,372,0,0,0,0,0,0,0,0,0,-1,1609,652,0,0
392,372,0,0,0,0,0,0,0,0,0,-1,1616,652,0,0
399,372,0,0,0,0,0,0,0,0,0,-1,1623,652,0,0
406,372,0,0,0,0,0,0,0,0,0,-1,1630,652,0,0
413,372,0,0,0,0,0,0,0,0,0,-1,1637,652,0,0
420,372,0,0,0,0,0,0,0,0,0,-1,1644,652,0,0
427,372,0,0,0,0,0,0,0,0,0,-1,1651,652,0,0
434,372,0,0,0,0,0,0,0,0,0,-1,1658,652,0,0
441,372,0,0,0,0,0,0,0,0,0,-1,1665,652,0,0
448,372,0,0,0,0,0,0,0,0,0,-1,1672,652,0,0
455,372,0,0,0,0,0,0,0,0,0,-1,1679,652,0,0
462,372,0,0,0,0,0,0,0,0,0,-1,1686,652,0,0
469,372,0,0,0,0,0,0,0,0,0,-1,1693,652,0,0
476,372,0,0,0,0,0,0,0,0,0,-1,1700,652,0,0
483,372,8.74182,1.53125,0,0,0,0,0,0,0,-1,1707,652,8.74186,-1.53126
490,372,9.78455,1.67096,0,0,0,0,0,0,0,-1,1714,652,9.7846,-1.67093
497,372,9.97644,1.46069,0,0,0,0,0,0,0,-1,1721,652,9.97647,-1.46071
504,372,10.1216,1.28375,0,0,0,0,0,0,0,-1,1728,652,10.1216,-1.28376
511,372,11.7367,-0.0272217,0,0,0,0,0,0,0,-1,1735,652,11.7367,0.0272326
518,372,12.0657,-0.0995483,0,0,0,0,0,0,0,-1,1742,652,12.0657,0.0995285
525,372,12.3947,-0.171814,0,0,0,0,0,0,0,-1,1749,652,12.3946,0.171824
532,372,9.36597,1.72034,0,0,0,0,0,0,0,-1,1756,652,9.36597,-1.72036
539,372,7.82886,-0.0865479,0,0,0,0,0,0,0,-1,1763,652,7.82882,0.0865771
546,372,10.953,-0.187195,0,0,0,0,0,0,0,-1,1770,652,10.953,0.187181
553,372,8.30579,-2.68207,0,0,0,0,0,0,0,-1,1777,652,8.30576,2.68209
560,372,8.3938,-2.00665,-0.0213458,0.00818664,-0.0058268,0.0092947,-0.0224539,-1.38287,0.0188476,0.0411382,1784,652,8.39382,2.00663
567,372,8.37366,-1.36426,-0.0174956,0.00585734,-0.00514403,0.00694023,-0.0185784,-1.36331,0.0152354,0.022922,1791,652,8.3737,1.36425
574,372,8.44019,-1.14557,-0.0139983,0.00377292,-0.00443849,0.00481979,-0.0150451,-1.33917,0.0119648,0.0160048,1798,652,8.44015,1.1456
581,372,8.43176,-0.96991,-0.0106571,0.00227587,-0.00361808,0.00321924,-0.0116005,-1.31574,0.00900073,0.0154019,1805,652,8.43181,0.969902
588,372,8.41406,-0.752136,-0.00764529,0.00127111,-0.00278476,0.00206937,-0.00844355,-1.29163,0.00643079,0.0155956,1812,652,8.41407,0.752127
595,372,8.41052,-0.55542,-0.00501813,0.000604413,-0.00203367,0.00126288,-0.0056766,-1.25767,0.0042681,0.0136286,1819,652,8.41053,0.555425
602,372,8.42664,-0.371094,-0.00274544,0.00035074,-0.00148129,0.000945264,-0.00333997,-1.18912,0.00259966,0.0134184,1826,652,8.42657,0.371075
609,372,8.39612,-0.173035,-0.000901699,-9.58559e-05,-0.00106309,0.000638104,-0.00163566,-0.966539,0.00135422,0.0136791,1833,652,8.39608,0.173042
616,372,8.40662,0.0563965,0.000589932,-0.000687246,-0.00109672,0.00122043,-0.00131775,-0.521757,0.00146578,0.0133541,1840,652,8.40667,-0.0564119
623,372,8.41602,0.285889,0.00203324,-0.00105434,-0.00116359,0.00242264,-0.00144374,-0.322939,0.00225598,0.0121803,1847,652,8.41601,-0.285915
630,372,8.42188,0.475525,0.00345233,-0.00118826,-0.0015754,0.00393662,-0.00167254,-0.298235,0.00332522,0.0172055,1854,652,8.42189,-0.475535
637,372,8.44556,0.651611,0.00473072,-0.00168354,-0.00226715,0.00545114,-0.00240396,-0.307674,0.0046475,0.0197081,1861,652,8.44559,-0.651599
644,372,8.47424,0.90332,0.00611937,-0.00238438,-0.00323803,0.00721196,-0.00347697,-0.325427,0.00629559,0.0190345,1868,652,8.47423,-0.903304
651,372,8.49756,1.10797,0.00808213,-0.00321481,-0.00443214,0.00961343,-0.0047461,-0.332659,0.00844774,0.0420949,1875,652,8.49754,-1.10795
658,372,8.47156,0.838501,0.0107861,-0.00403267,-0.00576607,0.0127653,-0.00601193,-0.330657,0.0110723,0.0448461,1882,652,8.4715,-0.838476
665,372,8.31018,0.958252,0,0,0,0,0,0,0,-1,1889,652,8.31017,-0.958281
672,372,7.22559,3.03308,0,0,0,0,0,0,0,-1,1896,652,7.22561,-3.03306
679,372,8.4137,2.41138,0,0,0,0,0,0,0,-1,1903,652,8.41365,-2.41136
686,372,9.61511,1.97632,0,0,0,0,0,0,0,-1,1910,652,9.61512,-1.97632
693,372,0,0,0,0,0,0,0,0,0,-1,1917,652,0,0
700,372,0,0,0,0,0,0,0,0,0,-1,1924,652,0,0
707,372,0,0,0,0,0,0,0,0,0,-1,1931,652,0,0
714,372,0,0,0,0,0,0,0,0,0,-1,1938,652,0,0
721,372,0,0,0,0,0,0,0,0,0,-1,1945,652,0,0
728,372,0,0,0,0,0,0,0,0,0,-1,1952,652,0,0
735,372,0,0,0,0,0,0,0,0,0,-1,1959,652,0,0
742,372,0,0,0,0,0,0,0,0,0,-1,1966,652,0,0
749,372,0,0,0,0,0,0,0,0,0,-1,1973,652,0,0
756,372,0,0,0,0,0,0,0,0,0,-1,1980,652,0,0
763,372,0,0,0,0,0,0,0,0,0,-1,1987,652,0,0
770,372,0,0,0,0,0,0,0,0,0,-1,1994,652,0,0
777,372,0,0,0,0,0,0,0,0,0,-1,2001,652,0,0
784,372,0,0,0,0,0,0,0,0,0,-1,2008,652,0,0
791,372,0,0,0,0,0,0,0,0,0,-1,2015,652,0,0
798,372,0,0,0,0,0,0,0,0,0,-1,2022,652,0,0
805,372,0,0,0,0,0,0,0,0,0,-1,2029,652,0,0
812,372,0,0,0,0,0,0,0,0,0,-1,2036,652,0,0
-700,365,0,0,0,0,0,0,0,0,0,-1,524,659,0,0
-693,365,0,0,0,0,0,0,0,0,0,-1,531,659,0,0
-686,365,0,0,0,0,0,0,0,0,0,-1,538,659,0,0
-679,365,0,0,0,0,0,0,0,0,0,-1,545,659,0,0
-672,365,0,0,0,0,0,0,0,0,0,-1,552,659,0,0
-665,365,0,0,0,0,0,0,0,0,0,-1,559,659,0,0
-658,365,0,0,0,0,0,0,0,0,0,-1,566,659,0,0
-651,365,0,0,0,0,0,0,0,0,0,-1,573,659,0,0
-644,365,0,0,0,0,0,0,0,0,0,-1,580,659,0,0
-637,365,0,0,0,0,0,0,0,0,0,-1,587,659,0,0
-630,365,0,0,0,0,0,0,0,0,0,-1,594,659,0,0
-623,365,0,0,0,0,0,0,0,0,0,-1,601,659,0,0
-616,365,0,0,0,0,0,0,0,0,0,-1,608,659,0,0
-609,365,0,0,0,0,0,0,0,0,0,-1,615,659,0,0
-602,365,0,0,0,0,0,0,0,0,0,-1,622,659,0,0
-595,365,0,0,0,0,0,0,0,0,0,-1,629,659,0,0
-588,365,0,0,0,0,0,0,0,0,0,-1,636,659,0,0
-581,365,0,0,0,0,0,0,0,0,0,-1,643,659,0,0
-574,365,-6.71564,-1.6037,0.112971,-0.0523352,0.00700749,0.113267,-0.0526317,0.0422899,0.0978911,0.0421825,650,659,-6.71564,1.60367
-567,365,-6.06378,-1.51318,0.0956179,-0.0420625,-0.00317314,0.095691,-0.0421356,-0.0230308,0.0815521,0.0446957,657,659,-6.0638,1.51321
-560,365,-5.11487,-1.57642,0.0794224,-0.0329603,-0.0101044,0.0803237,-0.0338616,-0.08896,0.0677196,0.0471908,664,659,-5.11488,1.57644
-553,365,-4.64325,-1.41705,0.0640746,-0.0258631,-0.013406,0.0660304,-0.0278188,-0.144865,0.0556608,0.0479253,671,659,-4.64326,1.41706
-546,365,-4.50769,-1.35187,0.0501527,-0.0201055,-0.0141151,0.0528824,-0.0228352,-0.191031,0.0448483,0.0484362,678,659,-4.5077,1.35189
-539,365,-4.48193,-1.35834,0.0380303,-0.015423,-0.0132463,0.0411328,-0.0185255,-0.230069,0.0352585,0.0463356,685,659,-4.48193,1.35833
-532,365,-4.37207,-1.32257,0,0,0,0,0,0,0,-1,692,659,-4.37208,1.32255
-525,365,-3.85223,-0.594971,0.0190866,-0.00837812,-0.00967584,0.022153,-0.0114446,-0.306904,0.0197232,0.0389483,699,659,-3.85226,0.59494
-518,365,-3.74713,-0.911438,0.0119689,-0.00579399,-0.00775384,0.0148773,-0.00870246,-0.358859,0.0137685,0.0229387,706,659,-3.74716,0.911468
-511,365,-3.84399,-1.06085,0.00676724,-0.00405881,-0.00553603,0.00909685,-0.00638842,-0.398316,0.00898589,0.0169744,713,659,-3.84399,1.06087
-504,365,-3.83325,-1.23553,0.00316183,-0.00301109,-0.00341191,0.00467617,-0.00452543,-0.417719,0.00531278,0.0116025,720,659,-3.83327,1.23551
-497,365,-3.8125,-1.41974,0.000894161,-0.00224451,-0.00220542,0.00203161,-0.00338195,-0.47617,0.00315777,0.0123234,727,659,-3.81247,1.41971
-490,365,-3.82068,-1.59613,-7.68072e-05,-0.00205655,-0.000633956,0.000108798,-0.00224216,-0.284813,0.00153232,0.0131678,734,659,-3.82069,1.59616
-483,365,-3.83057,-1.77155,-0.000445552,-0.00214328,-4.18533e-05,-0.00044452,-0.00214431,-0.0246326,0.00130682,0.0119402,741,659,-3.83058,1.77153
-476,365,-3.81244,-1.95355,7.81515e-05,-0.00328246,0.00014498,8.43945e-05,-0.0032887,0.0430344,0.00222113,0.0119201,748,659,-3.81246,1.95356
-469,365,-3.80664,-2.13647,0.00051039,-0.00497562,0.000468535,0.000550118,-0.00501534,0.0845891,0.00354121,0.0118864,755,659,-3.80665,2.13645
-462,365,-3.80927,-2.31433,0.000763894,-0.00667716,0.000678188,0.0008252,-0.00673847,0.0901516,0.00479112,0.013151,762,659,-3.80929,2.31431
-455,365,-3.82733,-2.492,0.000893488,-0.00877099,0.00108426,0.00101364,-0.00889114,0.110362,0.00629258,0.0145746,769,659,-3.82733,2.49201
-448,365,-3.78308,-2.74463,0.000952217,-0.0118603,0.00185253,0.00121469,-0.0121228,0.140747,0.0085157,0.0177614,776,659,-3.78309,2.74465
-441,365,-3.87079,-2.9845,0.000678319,-0.0157216,0.00305098,0.00122752,-0.0162708,0.178101,0.0112787,0.0393991,783,659,-3.87079,2.98449
-434,365,-3.61542,-2.91089,0.000400423,-0.0204218,0.00458857,0.00136676,-0.0213881,0.207563,0.0147355,0.0431756,790,659,-3.61543,2.91088
-427,365,-3.35455,-3.1012,0,0,0,0,0,0,0,-1,797,659,-3.35455,3.10117
-420,365,-4.58813,-3.16376,0,0,0,0,0,0,0,-1,804,659,-4.58816,3.16374
-413,365,0.141357,0.672729,0,0,0,0,0,0,0,-1,811,659,0.141365,-0.672714
-406,365,-1.75067,-0.934448,0,0,0,0,0,0,0,-1,818,659,-1.7507,0.934424
-399,365,-4.10242,-1.25439,0,0,0,0,0,0,0,-1,825,659,-4.10244,1.25438
-392,365,-7.46545,-0.779724,0,0,0,0,0,0,0,-1,832,659,-7.46543,0.779744
-385,365,-6.27875,-0.887573,0,0,0,0,0,0,0,-1,839,659,-6.27874,0.887545
-378,365,-5.34503,-0.263306,0,0,0,0,0,0,0,-1,846,659,-5.34504,0.263275
-371,365,0,0,0,0,0,0,0,0,0,-1,853,659,0,0
-364,365,0,0,0,0,0,0,0,0,0,-1,860,659,0,0
-357,365,0,0,0,0,0,0,0,0,0,-1,867,659,0,0
-350,365,0,0,0,0,0,0,0,0,0,-1,874,659,0,0
-343,365,0,0,0,0,0,0,0,0,0,-1,881,659,0,0
-336,365,0,0,0,0,0,0,0,0,0,-1,888,659,0,0
-329,365,0,0,0,0,0,0,0,0,0,-1,895,659,0,0
-322,365,0,0,0,0,0,0,0,0,0,-1,902,659,0,0
-315,365,0,0,0,0,0,0,0,0,0,-1,909,659,0,0
-308,365,0,0,0,0,0,0,0,0,0,-1,916,659,0,0
-301,365,0,0,0,0,0,0,0,0,0,-1,923,659,0,0
-294,365,0,0,0,0,0,0,0,0,0,-1,930,659,0,0
-287,365,0,0,0,0,0,0,0,0,0,-1,937,659,0,0
-280,365,0,0,0,0,0,0,0,0,0,-1,944,659,0,0
-273,365,0,0,0,0,0,0,0,0,0,-1,951,659,0,0
-266,365,0,0,0,0,0,0,0,0,0,-1,958,659,0,0
-259,365,0,0,0,0,0,0,0,0,0,-1,965,659,0,0
-252,365,0,0,0,0,0,0,0,0,0,-1,972,659,0,0
-245,365,0,0,0,0,0,0,0,0,0,-1,979,659,0,0
-238,365,0,0,0,0,0,0,0,0,0,-1,986,659,0,0
-231,365,0,0,0,0,0,0,0,0,0,-1,993,659,0,0
-224,365,0,0,0,0,0,0,0,0,0,-1,1000,659,0,0
-217,365,0,0,0,0,0,0,0,0,0,-1,1007,659,0,0
-210,365,0,0,0,0,0,0,0,0,0,-1,1014,659,0,0
-203,365,0,0,0,0,0,0,0,0,0,-1,1021,659,0,0
-196,365,0,0,0,0,0,0,0,0,0,-1,1028,659,0,0
-189,365,0,0,0,0,0,0,0,0,0,-1,1035,659,0,0
-182,365,0,0,0,0,0,0,0,0,0,-1,1042,659,0,0
-175,365,0,0,0,0,0,0,0,0,0,-1,1049,659,0,0
-168,365,0,0,0,0,0,0,0,0,0,-1,1056,659,0,0
-161,365,0,0,0,0,0,0,0,0,0,-1,1063,659,0,0
-154,365,0,0,0,0,0,0,0,0,0,-1,1070,659,0,0
-147,365,0,0,0,0,0,0,0,0,0,-1,1077,659,0,0
-140,365,0,0,0,0,0,0,0,0,0,-1,1084,659,0,0
-133,365,0,0,0,0,0,0,0,0,0,-1,1091,659,0,0
-126,365,0,0,0,0,0,0,0,0,0,-1,1098,659,0,0
-119,365,0,0,0,0,0,0,0,0,0,-1,1105,659,0,0
-112,365,0,0,0,0,0,0,0,0,0,-1,1112,659,0,0
-105,365,0,0,0,0,0,0,0,0,0,-1,1119,659,0,0
-98,365,0,0,0,0,0,0,0,0,0,-1,1126,659,0,0
-91,365,0,0,0,0,0,0,0,0,0,-1,1133,659,0,0
-84,365,0,0,0,0,0,0,0,0,0,-1,1140,659,0,0
-77,365,0,0,0,0,0,0,0,0,0,-1,1147,659,0,0
-70,365,0,0,0,0,0,0,0,0,0,-1,1154,659,0,0
-63,365,0,0,0,0,0,0,0,0,0,-1,1161,659,0,0
-56,365,0,0,0,0,0,0,0,0,0,-1,1168,659,0,0
-49,365,0,0,0,0,0,0,0,0,0,-1,1175,659,0,0
-42,365,0,0,0,0,0,0,0,0,0,-1,1182,659,0,0
-35,365,0,0,0,0,0,0,0,0,0,-1,1189,659,0,0
-28,365,0,0,0,0,0,0,0,0,0,-1,1196,659,0,0
-21,365,0,0,0,0,0,0,0,0,0,-1,1203,659,0,0
-14,365,0,0,0,0,0,0,0,0,0,-1,1210,659,0,0
-7,365,0,0,0,0,0,0,0,0,0,-1,1217,659,0,0
0,365,0,0,0,0,0,0,0,0,0,-1,1224,659,0,0
7,365,0,0,0,0,0,0,0,0,0,-1,1231,659,0,0
14,365,0,0,0,0,0,0,0,0,0,-1,1238,659,0,0
21,365,0,0,0,0,0,0,0,0,0,-1,1245,659,0,0
28,365,0,0,0,0,0,0,0,0,0,-1,1252,659,0,0
35,365,0,0,0,0,0,0,0,0,0,-1,1259,659,0,0
42,365,0,0,0,0,0,0,0,0,0,-1,1266,659,0,0
49,365,0,0,0,0,0,0,0,0,0,-1,1273,659,0,0
56,365,0,0,0,0,0,0,0,0,0,-1,1280,659,0,0
63,365,0,0,0,0,0,0,0,0,0,-1,1287,659,0,0
70,365,0,0,0,0,0,0,0,0,0,-1,1294,659,0,0
77,365,0,0,0,0,0,0,0,0,0,-1,1301,659,0,0
84,365,0,0,0,0,0,0,0,0,0,-1,1308,659,0,0
91,365,0,0,0,0,0,0,0,0,0,-1,1315,659,0,0
98,365,0,0,0,0,0,0,0,0,0,-1,1322,659,0,0
105,365,0,0,0,0,0,0,0,0,0,-1,1329,659,0,0
112,365,0,0,0,0,0,0,0,0,0,-1,1336,659,0,0
119,365,0,0,0,0,0,0,0,0,0,-1,1343,659,0,0
126,365,0,0,0,0,0,0,0,0,0,-1,1350,659,0,0
133,365,0,0,0,0,0,0,0,0,0,-1,1357,659,0,0
140,365,0,0,0,0,0,0,0,0,0,-1,1364,659,0,0
147,365,0,0,0,0,0,0,0,0,0,-1,1371,659,0,0
154,365,0,0,0,0,0,0,0,0,0,-1,1378,659,0,0
161,365,0,0,0,0,0,0,0,0,0,-1,1385,659,0,0
168,365,0,0,0,0,0,0,0,0,0,-1,1392,659,0,0
175,365,0,0,0,0,0,0,0,0,0,-1,1399,659,0,0
182,365,0,0,0,0,0,0,0,0,0,-1,1406,659,0,0
189,365,0,0,0,0,0,0,0,0,0,-1,1413,659,0,0
196,365,0,0,0,0,0,0,0,0,0,-1,1420,659,0,0
203,365,0,0,0,0,0,0,0,0,0,-1,1427,659,0,0
210,365,0,0,0,0,0,0,0,0,0,-1,1434,659,0,0
217,365,0,0,0,0,0,0,0,0,0,-1,1441,659,0,0
224,365,0,0,0,0,0,0,0,0,0,-1,1448,659,0,0
231,365,0,0,0,0,0,0,0,0,0,-1,1455,659,0,0
238,365,0,0,0,0,0,0,0,0,0,-1,1462,659,0,0
245,365,0,0,0,0,0,0,0,0,0,-1,1469,659,0,0
252,365,0,0,0,0,0,0,0,0,0,-1,1476,659,0,0
259,365,0,0,0,0,0,0,0,0,0,-1,1483,659,0,0
266,365,0,0,0,0,0,0,0,0,0,-1,1490,659,0,0
273,365,0,0,0,0,0,0,0,0,0,-1,1497,659,0,0
280,365,0,0,0,0,0,0,0,0,0,-1,1504,659,0,0
287,365,0,0,0,0,0,0,0,0,0,-1,1511,659,0,0
294,365,0,0,0,0,0,0,0,0,0,-1,1518,659,0,0
301,365,0,0,0,0,0,0,0,0,0,-1,1525,659,0,0
308,365,0,0,0,0,0,0,0,0,0,-1,1532,659,0,0
315,365,0,0,0,0,0,0,0,0,0,-1,1539,659,0,0
322,365,0,0,0,0,0,0,0,0,0,-1,1546,659,0,0
329,365,0,0,0,0,0,0,0,0,0,-1,1553,659,0,0
336,365,0,0,0,0,0,0,0,0,0,-1,1560,659,0,0
343,365,0,0,0,0,0,0,0,0,0,-1,1567,659,0,0
350,365,0,0,0,0,0,0,0,0,0,-1,1574,659,0,0
357,365,0,0,0,0,0,0,0,0,0,-1,1581,659,0,0
364,365,0,0,0,0,0,0,0,0,0,-1,1588,659,0,0
371,365,0,0,0,0,0,0,0,0,0,-1,1595,659,0,0
378,365,0,0,0,0,0,0,0,0,0,-1,1602,659,0,0
385,365,0,0,0,0,0,0,0,0,0,-1,1609,659,0,0
392,365,0,0,0,0,0,0,0,0,0,-1,1616,659,0,0
399,365,0,0,0,0,0,0,0,0,0,-1,1623,659,0,0
406,365,0,0,0,0,0,0,0,0,0,-1,1630,659,0,0
413,365,0,0,0,0,0,0,0,0,0,-1,1637,659,0,0
420,365,0,0,0,0,0,0,0,0,0,-1,1644,659,0,0
427,365,0,0,0,0,0,0,0,0,0,-1,1651,659,0,0
434,365,0,0,0,0,0,0,0,0,0,-1,1658,659,0,0
441,365,0,0,0,0,0,0,0,0,0,-1,1665,659,0,0
448,365,0,0,0,0,0,0,0,0,0,-1,1672,659,0,0
455,365,0,0,0,0,0,0,0,0,0,-1,1679,659,0,0
462,365,0,0,0,0,0,0,0,0,0,-1,1686,659,0,0
469,365,0,0,0,0,0,0,0,0,0,-1,1693,659,0,0
476,365,0,0,0,0,0,0,0,0,0,-1,1700,659,0,0
483,365,0,0,0,0,0,0,0,0,0,-1,1707,659,0,0
490,365,8.39551,0.471252,0,0,0,0,0,0,0,-1,1714,659,8.39551,-0.471241
497,365,9.89233,1.35394,0,0,0,0,0,0,0,-1,1721,659,9.89237,-1.35396
504,365,10.1414,1.18005,0,0,0,0,0,0,0,-1,1728,659,10.1413,-1.18004
511,365,10.5151,0.993896,0,0,0,0,0,0,0,-1,1735,659,10.5152,-0.993894
518,365,11.2029,0.398132,0,0,0,0,0,0,0,-1,1742,659,11.2029,-0.398136
525,365,11.3424,0.597229,0,0,0,0,0,0,0,-1,1749,659,11.3424,-0.597203
532,365,11.2446,1.00629,0,0,0,0,0,0,0,-1,1756,659,11.2446,-1.00631
539,365,12.6301,1.03204,0,0,0,0,0,0,0,-1,1763,659,12.6302,-1.03204
546,365,11.647,0.84198,0,0,0,0,0,0,0,-1,1770,659,11.6469,-0.841955
553,365,12.028,-0.558899,0,0,0,0,0,0,0,-1,1777,659,12.028,0.558873
560,365,8.70642,-2.69946,0,0,0,0,0,0,0,-1,1784,659,8.70638,2.69948
567,365,9.51819,-1.97821,-0.0228505,0.00670891,-0.00694371,0.00825877,-0.0244003,-1.35119,0.0196084,0.0481046,1791,659,9.51818,1.97823
574,365,8.80151,-1.20428,-0.0180334,0.00404841,-0.0059116,0.00553142,-0.0195164,-1.325,0.0151941,0.0322741,1798,659,8.80156,1.20426
581,365,8.6449,-0.993469,-0.0136798,0.00222412,-0.00479066,0.0035557,-0.0150113,-1.29969,0.0113795,0.0172781,1805,659,8.64493,0.993456
588,365,8.60022,-0.777527,-0.00984676,0.00108422,-0.0036861,0.00221107,-0.0109736,-1.27412,0.00815332,0.0123368,1812,659,8.60018,0.777552
595,365,8.62549,-0.546387,-0.00666647,0.00040252,-0.00268313,0.00130558,-0.00756953,-1.24614,0.00553313,0.0131712,1819,659,8.62549,0.546366
602,365,8.62793,-0.349243,-0.00407044,0.000110565,-0.00188708,0.000836312,-0.00479619,-1.20365,0.0035096,0.014042,1826,659,8.62791,0.349265
609,365,8.59509,-0.149597,-0.00205573,-0.00022332,-0.00136292,0.000502725,-0.00278178,-1.08132,0.00204282,0.0142294,1833,659,8.59507,0.149611
616,365,8.61084,0.0760498,-0.000486864,-0.000799839,-0.00131393,0.000679863,-0.00196657,-0.726128,0.00158697,0.01532,1840,659,8.61083,-0.076072
623,365,8.62952,0.271912,0.000960209,-0.00120601,-0.00127762,0.00155204,-0.00179785,-0.433803,0.00193579,0.0112873,1847,659,8.62947,-0.271918
630,365,8.62256,0.469116,0.00231517,-0.00121921,-0.00157993,0.00291845,-0.0018225,-0.364755,0.00276146,0.0157848,1854,659,8.62251,-0.469091
637,365,8.63513,0.657166,0.00346871,-0.00155314,-0.00213512,0.00425377,-0.0023382,-0.352343,0.00385906,0.019915,1861,659,8.63513,-0.657188
644,365,8.63599,0.851563,0.00455104,-0.00218504,-0.00301694,0.00570468,-0.00333869,-0.365232,0.00528042,0.0136809,1868,659,8.63594,-0.851548
651,365,8.71057,1.05835,0.00606256,-0.00290221,-0.00410682,0.00765946,-0.00449911,-0.37085,0.00709836,0.0259854,1875,659,8.71058,-1.05836
658,365,8.31934,0.88092,0.00819454,-0.00360646,-0.00532277,0.0102406,-0.00565251,-0.366984,0.00930247,0.0413761,1882,659,8.31935,-0.880891
665,365,8.04578,0.854614,0,0,0,0,0,0,0,-1,1889,659,8.04572,-0.854586
672,365,9.05249,0.789734,0,0,0,0,0,0,0,-1,1896,659,9.05252,-0.789742
679,365,8.89185,2.15875,0,0,0,0,0,0,0,-1,1903,659,8.8919,-2.15874
686,365,9.25122,2.93066,0,0,0,0,0,0,0,-1,1910,659,9.25117,-2.93068
693,365,9.40967,1.14368,0,0,0,0,0,0,0,-1,1917,659,9.40962,-1.14368
700,365,0,0,0,0,0,0,0,0,0,-1,1924,659,0,0
707,365,0,0,0,0,0,0,0,0,0,-1,1931,659,0,0
714,365,0,0,0,0,0,0,0,0,0,-1,1938,659,0,0
721,365,0,0,0,0,0,0,0,0,0,-1,1945,659,0,0
728,365,0,0,0,0,0,0,0,0,0,-1,1952,659,0,0
735,365,0,0,0,0,0,0,0,0,0,-1,1959,659,0,0
742,365,0,0,0,0,0,0,0,0,0,-1,1966,659,0,0
749,365,0,0,0,0,0,0,0,0,0,-1,1973,659,0,0
756,365,0,0,0,0,0,0,0,0,0,-1,1980,659,0,0
763,365,0,0,0,0,0,0,0,0,0,-1,1987,659,0,0
770,365,0,0,0,0,0,0,0,0,0,-1,1994,659,0,0
777,365,0,0,0,0,0,0,0,0,0,-1,2001,659,0,0
784,365,0,0,0,0,0,0,0,0,0,-1,2008,659,0,0
791,365,0,0,0,0,0,0,0,0,0,-1,2015,659,0,0
798,365,0,0,0,0,0,0,0,0,0,-1,2022,659,0,0
805,365,0,0,0,0,0,0,0,0,0,-1,2029,659,0,0
812,365,0,0,0,0,0,0,0,0,0,-1,2036,659,0,0
-700,358,0,0,0,0,0,0,0,0,0,-1,524,666,0,0
-693,358,0,0,0,0,0,0,0,0,0,-1,531,666,0,0
-686,358,0,0,0,0,0,0,0,0,0,-1,538,666,0,0
-679,358,0,0,0,0,0,0,0,0,0,-1,545,666,0,0
-672,358,0,0,0,0,0,0,0,0,0,-1,552,666,0,0
-665,358,0,0,0,0,0,0,0,0,0,-1,559,666,0,0
-658,358,0,0,0,0,0,0,0,0,0,-1,566,666,0,0
-651,358,0,0,0,0,0,0,0,0,0,-1,573,666,0,0
-644,358,0,0,0,0,0,0,0,0,0,-1,580,666,0,0
-637,358,0,0,0,0,0,0,0,0,0,-1,587,666,0,0
-630,358,0,0,0,0,0,0,0,0,0,-1,594,666,0,0
-623,358,0,0,0,0,0,0,0,0,0,-1,601,666,0,0
-616,358,0,0,0,0,0,0,0,0,0,-1,608,666,0,0
-609,358,0,0,0,0,0,0,0,0,0,-1,615,666,0,0
-602,358,0,0,0,0,0,0,0,0,0,-1,622,666,0,0
-595,358,0,0,0,0,0,0,0,0,0,-1,629,666,0,0
-588,358,0,0,0,0,0,0,0,0,0,-1,636,666,0,0
-581,358,-7.63898,-1.4104,0.111602,-0.0587177,0.0246229,0.11509,-0.062206,0.140731,0.103869,0.0452264,643,666,-7.63895,1.41043
-574,358,-7.01819,-1.17084,0.0945987,-0.0508696,0.0125512,0.0956737,-0.0519446,0.0854401,0.086465,0.0437323,650,666,-7.01822,1.17082
-567,358,-6.27094,-1.14539,0.0785019,-0.0411897,0.00339686,0.0785982,-0.041286,0.0283496,0.0703238,0.0482269,657,666,-6.27095,1.14541
-560,358,-4.38214,-0.932617,0,0,0,0,0,0,0,-1,664,666,-4.38214,0.9326
-553,358,-4.63818,-1.08771,0.0506965,-0.0254736,-0.00664678,0.0512722,-0.0260492,-0.0863922,0.0454264,0.0469575,671,666,-4.63816,1.08768
-546,358,-4.50641,-1.00653,0.0390547,-0.0196123,-0.00808627,0.0401489,-0.0207065,-0.134493,0.0357276,0.0488551,678,666,-4.50638,1.0065
-539,358,-4.39612,-0.7771,0.0291768,-0.0148128,-0.00816896,0.0306448,-0.0162808,-0.177807,0.0275124,0.0448471,685,666,-4.39614,0.777092
-532,358,-4.19519,-0.563538,0.0210385,-0.0109709,-0.00739282,0.0226634,-0.0125959,-0.216359,0.0206317,0.0381318,692,666,-4.19519,0.563516
-525,358,-3.9942,-0.749634,0.0141856,-0.00765685,-0.00648496,0.0159659,-0.00943711,-0.267922,0.014827,0.0262401,699,666,-3.99421,0.749605
-518,358,-3.95813,-0.837463,0.008674,-0.00512571,-0.00532966,0.0104927,-0.00694442,-0.328851,0.0101366,0.0209397,706,666,-3.95814,0.83745
-511,358,-4.00378,-1.04742,0.00485233,-0.00357506,-0.00381628,0.00632364,-0.00504636,-0.367974,0.00657826,0.0133086,713,666,-4.00377,1.04743
-504,358,-4.00458,-1.23029,0.00227572,-0.00271737,-0.00227692,0.0031581,-0.00359974,-0.369711,0.00390442,0.0105431,720,666,-4.00457,1.23031
-497,358,-3.99365,-1.41705,0.000651896,-0.00224904,-0.00152748,0.00130786,-0.002905,-0.405627,0.00248988,0.0110334,727,666,-3.99368,1.41706
-490,358,-3.98718,-1.59045,6.23309e-05,-0.00233848,-0.000494272,0.000160108,-0.00243626,-0.195299,0.00168009,0.0103087,734,666,-3.98717,1.59047
-483,358,-4.00659,-1.77039,4.8967e-05,-0.00285377,-0.000118942,5.38327e-05,-0.00285864,-0.0408844,0.00192395,0.00951106,741,666,-4.00658,1.77042
-476,358,-3.98907,-1.94482,0.000466036,-0.00444003,3.81419e-05,0.000466333,-0.00444033,0.00777381,0.00312728,0.0105249,748,666,-3.98909,1.94481
-469,358,-3.97668,-2.10931,0.000783195,-0.00657746,0.00025581,0.000792074,-0.00658634,0.0346979,0.00467732,0.0127667,755,666,-3.97666,2.10932
-462,358,-3.99115,-2.29694,0.000918487,-0.00893933,0.000375776,0.000932791,-0.00895364,0.0380459,0.00630307,0.0164509,762,666,-3.99115,2.29694
-455,358,-3.97156,-2.50494,0.00089434,-0.0117871,0.000724348,0.000935579,-0.0118283,0.0568722,0.0082152,0.0193084,769,666,-3.97157,2.50497
-448,358,-3.83344,-2.77441,0.000706191,-0.0159086,0.00147299,0.000835767,-0.0160381,0.0877433,0.0109813,0.0421165,776,666,-3.83346,2.77443
-441,358,-3.7049,-2.94012,0,0,0,0,0,0,0,-1,783,666,-3.7049,2.94012
-434,358,-3.46747,-2.94647,0,0,0,0,0,0,0,-1,790,666,-3.46745,2.94647
-427,358,-3.56189,-3.15729,0,0,0,0,0,0,0,-1,797,666,-3.56192,3.15729
-420,358,0.200195,1.08234,0,0,0,0,0,0,0,-1,804,666,0.200174,-1.08231
-413,358,0.0325317,0.161072,0,0,0,0,0,0,0,-1,811,666,0.0325501,-0.161098
-406,358,-0.505615,0.0419312,0,0,0,0,0,0,0,-1,818,666,-0.50561,-0.0419371
-399,358,-1.31213,0.190735,0,0,0,0,0,0,0,-1,825,666,-1.31215,-0.190763
-392,358,-3.73914,-0.832214,0,0,0,0,0,0,0,-1,832,666,-3.73915,0.832202
-385,358,-5.95178,-1.69141,0,0,0,0,0,0,0,-1,839,666,-5.9518,1.69143
-378,358,0,0,0,0,0,0,0,0,0,-1,846,666,0,0
-371,358,0,0,0,0,0,0,0,0,0,-1,853,666,0,0
-364,358,0,0,0,0,0,0,0,0,0,-1,860,666,0,0
-357,358,0,0,0,0,0,0,0,0,0,-1,867,666,0,0
-350,358,0,0,0,0,0,0,0,0,0,-1,874,666,0,0
-343,358,0,0,0,0,0,0,0,0,0,-1,881,666,0,0
-336,358,0,0,0,0,0,0,0,0,0,-1,888,666,0,0
-329,358,0,0,0,0,0,0,0,0,0,-1,895,666,0,0
-322,358,0,0,0,0,0,0,0,0,0,-1,902,666,0,0
-315,358,0,0,0,0,0,0,0,0,0,-1,909,666,0,0
-308,358,0,0,0,0,0,0,0,0,0,-1,916,666,0,0
-301,358,0,0,0,0,0,0,0,0,0,-1,923,666,0,0
-294,358,0,0,0,0,0,0,0,0,0,-1,930,666,0,0
-287,358,0,0,0,0,0,0,0,0,0,-1,937,666,0,0
-280,358,0,0,0,0,0,0,0,0,0,-1,944,666,0,0
-273,358,0,0,0,0,0,0,0,0,0,-1,951,666,0,0
-266,358,0,0,0,0,0,0,0,0,0,-1,958,666,0,0
-259,358,0,0,0,0,0,0,0,0,0,-1,965,666,0,0
-252,358,0,0,0,0,0,0,0,0,0,-1,972,666,0,0
-245,358,0,0,0,0,0,0,0,0,0,-1,979,666,0,0
-238,358,0,0,0,0,0,0,0,0,0,-1,986,666,0,0
-231,358,0,0,0,0,0,0,0,0,0,-1,993,666,0,0
-224,358,0,0,0,0,0,0,0,0,0,-1,1000,666,0,0
-217,358,0,0,0,0,0,0,0,0,0,-1,1007,666,0,0
-210,358,0,0,0,0,0,0,0,0,0,-1,1014,666,0,0
-203,358,0,0,0,0,0,0,0,0,0,-1,1021,666,0,0
-196,358,0,0,0,0,0,0,0,0,0,-1,1028,666,0,0
-189,358,0,0,0,0,0,0,0,0,0,-1,1035,666,0,0
-182,358,0,0,0,0,0,0,0,0,0,-1,1042,666,0,0
-175,358,0,0,0,0,0,0,0,0,0,-1,1049,666,0,0
-168,358,0,0,0,0,0,0,0,0,0,-1,1056,666,0,0
-161,358,0,0,0,0,0,0,0,0,0,-1,1063,666,0,0
-154,358,0,0,0,0,0,0,0,0,0,-1,1070,666,0,0
-147,358,0,0,0,0,0,0,0,0,0,-1,1077,666,0,0
-140,358,0,0,0,0,0,0,0,0,0,-1,1084,666,0,0
-133,358,0,0,0,0,0,0,0,0,0,-1,1091,666,0,0
-126,358,0,0,0,0,0,0,0,0,0,-1,1098,666,0,0
-119,358,0,0,0,0,0,0,0,0,0,-1,1105,666,0,0
-112,358,0,0,0,0,0,0,0,0,0,-1,1112,666,0,0
-105,358,0,0,0,0,0,0,0,0,0,-1,1119,666,0,0
-98,358,0,0,0,0,0,0,0,0,0,-1,1126,666,0,0
-91,358,0,0,0,0,0,0,0,0,0,-1,1133,666,0,0
-84,358,0,0,0,0,0,0,0,0,0,-1,1140,666,0,0
-77,358,0,0,0,0,0,0,0,0,0,-1,1147,666,0,0
-70,358,0,0,0,0,0,0,0,0,0,-1,1154,666,0,0
-63,358,0,0,0,0,0,0,0,0,0,-1,1161,666,0,0
-56,358,0,0,0,0,0,0,0,0,0,-1,1168,666,0,0
-49,358,0,0,0,0,0,0,0,0,0,-1,1175,666,0,0
-42,358,0,0,0,0,0,0,0,0,0,-1,1182,666,0,0
-35,358,0,0,0,0,0,0,0,0,0,-1,1189,666,0,0
-28,358,0,0,0,0,0,0,0,0,0,-1,1196,666,0,0
-21,358,0,0,0,0,0,0,0,0,0,-1,1203,666,0,0
-14,358,0,0,0,0,0,0,0,0,0,-1,1210,666,0,0
-7,358,0,0,0,0,0,0,0,0,0,-1,1217,666,0,0
0,358,0,0,0,0,0,0,0,0,0,-1,1224,666,0,0
7,358,0,0,0,0,0,0,0,0,0,-1,1231,666,0,0
14,358,0,0,0,0,0,0,0,0,0,-1,1238,666,0,0
21,358,0,0,0,0,0,0,0,0,0,-1,1245,666,0,0
28,358,0,0,0,0,0,0,0,0,0,-1,1252,666,0,0
35,358,0,0,0,0,0,0,0,0,0,-1,1259,666,0,0
42,358,0,0,0,0,0,0,0,0,0,-1,1266,666,0,0
49,358,0,0,0,0,0,0,0,0,0,-1,1273,666,0,0
56,358,0,0,0,0,0,0,0,0,0,-1,1280,666,0,0
63,358,0,0,0,0,0,0,0,0,0,-1,1287,666,0,0
70,358,0,0,0,0,0,0,0,0,0,-1,1294,666,0,0
77,358,0,0,0,0,0,0,0,0,0,-1,1301,666,0,0
84,358,0,0,0,0,0,0,0,0,0,-1,1308,666,0,0
91,358,0,0,0,0,0,0,0,0,0,-1,1315,666,0,0
98,358,0,0,0,0,0,0,0,0,0,-1,1322,666,0,0
105,358,0,0,0,0,0,0,0,0,0,-1,1329,666,0,0
112,358,0,0,0,0,0,0,0,0,0,-1,1336,666,0,0
119,358,0,0,0,0,0,0,0,0,0,-1,1343,666,0,0
126,358,0,0,0,0,0,0,0,0,0,-1,1350,666,0,0
133,358,0,0,0,0,0,0,0,0,0,-1,1357,666,0,0
140,358,0,0,0,0,0,0,0,0,0,-1,1364,666,0,0
147,358,0,0,0,0,0,0,0,0,0,-1,1371,666,0,0
154,358,0,0,0,0,0,0,0,0,0,-1,1378,666,0,0
161,358,0,0,0,0,0,0,0,0,0,-1,1385,666,0,0
168,358,0,0,0,0,0,0,0,0,0,-1,1392,666,0,0
175,358,0,0,0,0,0,0,0,0,0,-1,1399,666,0,0
182,358,0,0,0,0,0,0,0,0,0,-1,1406,666,0,0
189,358,0,0,0,0,0,0,0,0,0,-1,1413,666,0,0
196,358,0,0,0,0,0,0,0,0,0,-1,1420,666,0,0
203,358,0,0,0,0,0,0,0,0,0,-1,1427,666,0,0
210,358,0,0,0,0,0,0,0,0,0,-1,1434,666,0,0
217,358,0,0,0,0,0,0,0,0,0,-1,1441,666,0,0
224,358,0,0,0,0,0,0,0,0,0,-1,1448,666,0,0
231,358,0,0,0,0,0,0,0,0,0,-1,1455,666,0,0
238,358,0,0,0,0,0,0,0,0,0,-1,1462,666,0,0
245,358,0,0,0,0,0,0,0,0,0,-1,1469,666,0,0
252,358,0,0,0,0,0,0,0,0,0,-1,1476,666,0,0
259,358,0,0,0,0,0,0,0,0,0,-1,1483,666,0,0
266,358,0,0,0,0,0,0,0,0,0,-1,1490,666,0,0
273,358,0,0,0,0,0,0,0,0,0,-1,1497,666,0,0
280,358,0,0,0,0,0,0,0,0,0,-1,1504,666,0,0
287,358,0,0,0,0,0,0,0,0,0,-1,1511,666,0,0
294,358,0,0,0,0,0,0,0,0,0,-1,1518,666,0,0
301,358,0,0,0,0,0,0,0,0,0,-1,1525,666,0,0
308,358,0,0,0,0,0,0,0,0,0,-1,1532,666,0,0
315,358,0,0,0,0,0,0,0,0,0,-1,1539,666,0,0
322,358,0,0,0,0,0,0,0,0,0,-1,1546,666,0,0
329,358,0,0,0,0,0,0,0,0,0,-1,1553,666,0,0
336,358,0,0,0,0,0,0,0,0,0,-1,1560,666,0,0
343,358,0,0,0,0,0,0,0,0,0,-1,1567,666,0,0
350,358,0,0,0,0,0,0,0,0,0,-1,1574,666,0,0
357,358,0,0,0,0,0,0,0,0,0,-1,1581,666,0,0
364,358,0,0,0,0,0,0,0,0,0,-1,1588,666,0,0
371,358,0,0,0,0,0,0,0,0,0,-1,1595,666,0,0
378,358,0,0,0,0,0,0,0,0,0,-1,1602,666,0,0
385,358,0,0,0,0,0,0,0,0,0,-1,1609,666,0,0
392,358,0,0,0,0,0,0,0,0,0,-1,1616,666,0,0
399,358,0,0,0,0,0,0,0,0,0,-1,1623,666,0,0
406,358,0,0,0,0,0,0,0,0,0,-1,1630,666,0,0
413,358,0,0,0,0,0,0,0,0,0,-1,1637,666,0,0
420,358,0,0,0,0,0,0,0,0,0,-1,1644,666,0,0
427,358,0,0,0,0,0,0,0,0,0,-1,1651,666,0,0
434,358,0,0,0,0,0,0,0,0,0,-1,1658,666,0,0
441,358,0,0,0,0,0,0,0,0,0,-1,1665,666,0,0
448,358,0,0,0,0,0,0,0,0,0,-1,1672,666,0,0
455,358,0,0,0,0,0,0,0,0,0,-1,1679,666,0,0
462,358,0,0,0,0,0,0,0,0,0,-1,1686,666,0,0
469,358,0,0,0,0,0,0,0,0,0,-1,1693,666,0,0
476,358,0,0,0,0,0,0,0,0,0,-1,1700,666,0,0
483,358,0,0,0,0,0,0,0,0,0,-1,1707,666,0,0
490,358,0,0,0,0,0,0,0,0,0,-1,1714,666,0,0
497,358,8.57239,1.1322,0,0,0,0,0,0,0,-1,1721,666,8.57234,-1.13219
504,358,10.5972,0.832947,0,0,0,0,0,0,0,-1,1728,666,10.5972,-0.832968
511,358,10.6873,0.868469,0,0,0,0,0,0,0,-1,1735,666,10.6872,-0.868484
518,358,10.7079,0.866211,0,0,0,0,0,0,0,-1,1742,666,10.7079,-0.8662
525,358,10.797,0.692993,0,0,0,0,0,0,0,-1,1749,666,10.797,-0.693009
532,358,13.5295,1.88013,0,0,0,0,0,0,0,-1,1756,666,13.5296,-1.88011
539,358,12.9438,1.70734,0,0,0,0,0,0,0,-1,1763,666,12.9438,-1.70732
546,358,12.3792,1.53558,0,0,0,0,0,0,0,-1,1770,666,12.3792,-1.5356
553,358,11.6584,1.26172,0,0,0,0,0,0,0,-1,1777,666,11.6585,-1.26175
560,358,10.8234,1.43042,0,0,0,0,0,0,0,-1,1784,666,10.8233,-1.43041
567,358,9.93311,-0.866089,0,0,0,0,0,0,0,-1,1791,666,9.93315,0.866086
574,358,9.46741,-0.901672,-0.0222582,0.00378696,-0.00774069,0.00591383,-0.0243851,-1.30265,0.018545,0.0486506,1798,666,9.46746,0.9017
581,358,8.93774,-0.93396,-0.0167119,0.00171919,-0.00617629,0.00359746,-0.0185902,-1.27557,0.0137504,0.0252245,1805,666,8.93778,0.933966
588,358,8.78418,-0.775513,-0.0119903,0.000547563,-0.0047064,0.00211762,-0.0135603,-1.24881,0.00982247,0.0145179,1812,666,8.78413,0.775535
595,358,8.828,-0.541077,-0.00821559,-4.27408e-05,-0.00337004,0.00116763,-0.00942596,-1.22599,0.00670715,0.0120283,1819,666,8.82798,0.5411
602,358,8.82141,-0.332397,-0.00527195,-0.000277695,-0.00227884,0.00060582,-0.00615546,-1.20093,0.00431977,0.0123585,1826,666,8.82138,0.332371
609,358,8.802,-0.143982,-0.00305413,-0.000405729,-0.00161237,0.000356513,-0.00381637,-1.12919,0.00267103,0.0151573,1833,666,8.80199,0.14397
616,358,8.81287,0.0776367,-0.00139705,-0.0008737,-0.0014381,0.000326343,-0.00259709,-0.875392,0.00184979,0.0140911,1840,666,8.81287,-0.0776479
623,358,8.81946,0.266663,4.78574e-05,-0.00124592,-0.00128694,0.000841341,-0.0020394,-0.552513,0.00171047,0.0129038,1847,666,8.81941,-0.266685
630,358,8.79675,0.446838,0.00134796,-0.00113216,-0.00147445,0.00203449,-0.00181869,-0.435767,0.0022258,0.0168318,1854,666,8.79681,-0.446852
637,358,8.79492,0.642334,0.00241943,-0.00129817,-0.001892,0.00321295,-0.00209169,-0.397125,0.00308536,0.023271,1861,666,8.79492,-0.642325
644,358,8.8147,0.830444,0.00326067,-0.00183246,-0.00266486,0.00440009,-0.00297188,-0.404047,0.00428275,0.0187943,1868,666,8.81472,-0.830417
651,358,8.87439,1.07452,0.00443408,-0.00242414,-0.00362467,0.00599466,-0.00398472,-0.406557,0.00580042,0.019978,1875,666,8.87445,-1.07454
658,358,8.65747,1.21448,0.00613044,-0.00300368,-0.00469016,0.0081098,-0.00498305,-0.399348,0.00763067,0.0321141,1882,666,8.65747,-1.21447
665,358,8.40015,1.17743,0.00870034,-0.00356261,-0.00583946,0.0110361,-0.00589838,-0.380505,0.00992599,0.0441992,1889,666,8.40009,-1.17745
672,358,8.24475,1.25226,0,0,0,0,0,0,0,-1,1896,666,8.24475,-1.25228
679,358,9.11047,2.03192,0,0,0,0,0,0,0,-1,1903,666,9.11047,-2.03195
686,358,9.50525,2.09021,0,0,0,0,0,0,0,-1,1910,666,9.50523,-2.09018
693,358,10.5232,3.14716,0,0,0,0,0,0,0,-1,1917,666,10.5232,-3.14715
700,358,0,0,0,0,0,0,0,0,0,-1,1924,666,0,0
707,358,0,0,0,0,0,0,0,0,0,-1,1931,666,0,0
714,358,0,0,0,0,0,0,0,0,0,-1,1938,666,0,0
721,358,0,0,0,0,0,0,0,0,0,-1,1945,666,0,0
728,358,0,0,0,0,0,0,0,0,0,-1,1952,666,0,0
735,358,0,0,0,0,0,0,0,0,0,-1,1959,666,0,0
742,358,0,0,0,0,0,0,0,0,0,-1,1966,666,0,0
749,358,0,0,0,0,0,0,0,0,0,-1,1973,666,0,0
756,358,0,0,0,0,0,0,0,0,0,-1,1980,666,0,0
763,358,0,0,0,0,0,0,0,0,0,-1,1987,666,0,0
770,358,0,0,0,0,0,0,0,0,0,-1,1994,666,0,0
777,358,0,0,0,0,0,0,0,0,0,-1,2001,666,0,0
784,358,0,0,0,0,0,0,0,0,0,-1,2008,666,0,0
791,358,0,0,0,0,0,0,0,0,0,-1,2015,666,0,0
798,358,0,0,0,0,0,0,0,0,0,-1,2022,666,0,0
805,358,0,0,0,0,0,0,0,0,0,-1,2029,666,0,0
812,358,0,0,0,0,0,0,0,0,0,-1,2036,666,0,0
-700,351,0,0,0,0,0,0,0,0,0,-1,524,673,0,0
-693,351,0,0,0,0,0,0,0,0,0,-1,531,673,0,0
-686,351,0,0,0,0,0,0,0,0,0,-1,538,673,0,0
-679,351,0,0,0,0,0,0,0,0,0,-1,545,673,0,0
-672,351,0,0,0,0,0,0,0,0,0,-1,552,673,0,0
-665,351,0,0,0,0,0,0,0,0,0,-1,559,673,0,0
-658,351,0,0,0,0,0,0,0,0,0,-1,566,673,0,0
-651,351,0,0,0,0,0,0,0,0,0,-1,573,673,0,0
-644,351,0,0,0,0,0,0,0,0,0,-1,580,673,0,0
-637,351,0,0,0,0,0,0,0,0,0,-1,587,673,0,0
-630,351,0,0,0,0,0,0,0,0,0,-1,594,673,0,0
-623,351,0,0,0,0,0,0,0,0,0,-1,601,673,0,0
-616,351,0,0,0,0,0,0,0,0,0,-1,608,673,0,0
-609,351,0,0,0,0,0,0,0,0,0,-1,615,673,0,0
-602,351,0,0,0,0,0,0,0,0,0,-1,622,673,0,0
-595,351,0,0,0,0,0,0,0,0,0,-1,629,673,0,0
-588,351,0,0,0,0,0,0,0,0,0,-1,636,673,0,0
-581,351,-7.97516,-0.949097,0.0934654,-0.0564719,0.0258337,0.0977916,-0.0607981,0.165925,0.0923885,0.0431445,643,673,-7.97516,0.949095
-574,351,-7.31219,-0.779846,0.0777347,-0.0486703,0.015134,0.0795214,-0.050457,0.117513,0.0756659,0.049609,650,673,-7.31219,0.779835
-567,351,-4.6026,-0.729797,0,0,0,0,0,0,0,-1,657,673,-4.6026,0.729824
-560,351,-4.49518,-0.737122,0.0505928,-0.0312741,0.00131823,0.050614,-0.0312953,0.0160966,0.0477268,0.0466871,664,673,-4.49517,0.737103
-553,351,-4.3609,-0.770569,0.0394519,-0.0243282,-0.00215462,0.0395246,-0.0244009,-0.0337307,0.0372501,0.0426471,671,673,-4.36089,0.770571
-546,351,-4.35339,-0.638794,0.0299258,-0.0186126,-0.00389362,0.0302361,-0.018923,-0.0795395,0.0286314,0.0440921,678,673,-4.3534,0.638811
-539,351,-4.24078,-0.590637,0.0220558,-0.0139265,-0.00449349,0.0226084,-0.0144791,-0.122377,0.0215833,0.0409929,685,673,-4.24078,0.590626
-532,351,-4.12872,-0.540894,0.0157114,-0.0101637,-0.00434536,0.0164216,-0.0108739,-0.162017,0.0158672,0.0281055,692,673,-4.12874,0.540881
-525,351,-4.16254,-0.721436,0.0104121,-0.00693861,-0.00403041,0.0113026,-0.00782913,-0.217457,0.0111062,0.0176855,699,673,-4.16255,0.72145
-518,351,-4.17578,-0.83606,0.00627648,-0.00448746,-0.0034361,0.00727984,-0.00549082,-0.284105,0.00739722,0.0108703,706,673,-4.17581,0.83608
-511,351,-4.17609,-1.03137,0.00359339,-0.00316133,-0.00245174,0.00438947,-0.00395741,-0.31396,0.00482123,0.0104567,713,673,-4.17612,1.0314
-504,351,-4.19324,-1.23059,0.00183848,-0.00252984,-0.00137058,0.00223289,-0.00292425,-0.2802,0.00298638,0.00978727,720,673,-4.19324,1.23059
-497,351,-4.18787,-1.39819,0.00070702,-0.00243731,-0.00097862,0.000986719,-0.00271701,-0.278388,0.00221477,0.0100274,727,673,-4.18785,1.39821
-490,351,-4.17853,-1.57703,0.000383415,-0.00288575,-0.000369293,0.000424612,-0.00292695,-0.111097,0.00210715,0.00927648,734,673,-4.17854,1.57703
-483,351,-4.18048,-1.76581,0.000549372,-0.00394562,-0.000173934,0.000556092,-0.00395234,-0.0386181,0.00283847,0.0111751,741,673,-4.18046,1.76579
-476,351,-4.20477,-1.94293,0.00083601,-0.00607892,-6.50247e-05,0.000836622,-0.00607953,-0.00940241,0.00435874,0.0111692,748,673,-4.20477,1.94293
-469,351,-4.19238,-2.08893,0.0009846,-0.0088066,1.58273e-05,0.000984625,-0.00880662,0.00161647,0.0062253,0.0131198,755,673,-4.19239,2.08893
-462,351,-4.17627,-2.29602,0.000915377,-0.0120517,1.14943e-08,0.000915376,-0.0120517,8.86424e-07,0.0083563,0.0164023,762,673,-4.17627,2.29601
-455,351,-4.12793,-2.55371,0.000611163,-0.0159476,0.000207732,0.00061377,-0.0159502,0.0125425,0.0108439,0.0264236,769,673,-4.12791,2.55372
-448,351,-3.93781,-2.77002,0,0,0,0,0,0,0,-1,776,673,-3.93782,2.77001
-441,351,-3.82776,-2.22369,0,0,0,0,0,0,0,-1,783,673,-3.82774,2.22367
-434,351,-3.81708,-2.28003,0,0,0,0,0,0,0,-1,790,673,-3.81706,2.28006
-427,351,-2.05157,-2.7785,0,0,0,0,0,0,0,-1,797,673,-2.05157,2.77848
-420,351,-1.06989,-2.43665,0,0,0,0,0,0,0,-1,804,673,-1.06991,2.43663
-413,351,-0.392334,-2.06671,0,0,0,0,0,0,0,-1,811,673,-0.392363,2.06672
-406,351,-1.86316,-2.58105,0,0,0,0,0,0,0,-1,818,673,-1.86313,2.58106
-399,351,1.00952,-1.53455,0,0,0,0,0,0,0,-1,825,673,1.00954,1.53457
-392,351,-1.02197,0.877136,0,0,0,0,0,0,0,-1,832,673,-1.02195,-0.877143
-385,351,-1.47205,1.04437,0,0,0,0,0,0,0,-1,839,673,-1.47207,-1.04435
-378,351,0,0,0,0,0,0,0,0,0,-1,846,673,0,0
-371,351,0,0,0,0,0,0,0,0,0,-1,853,673,0,0
-364,351,0,0,0,0,0,0,0,0,0,-1,860,673,0,0
-357,351,0,0,0,0,0,0,0,0,0,-1,867,673,0,0
-350,351,0,0,0,0,0,0,0,0,0,-1,874,673,0,0
-343,351,0,0,0,0,0,0,0,0,0,-1,881,673,0,0
-336,351,0,0,0,0,0,0,0,0,0,-1,888,673,0,0
-329,351,0,0,0,0,0,0,0,0,0,-1,895,673,0,0
-322,351,0,0,0,0,0,0,0,0,0,-1,902,673,0,0
-315,351,0,0,0,0,0,0,0,0,0,-1,909,673,0,0
-308,351,0,0,0,0,0,0,0,0,0,-1,916,673,0,0
-301,351,0,0,0,0,0,0,0,0,0,-1,923,673,0,0
-294,351,0,0,0,0,0,0,0,0,0,-1,930,673,0,0
-287,351,0,0,0,0,0,0,0,0,0,-1,937,673,0,0
-280,351,0,0,0,0,0,0,0,0,0,-1,944,673,0,0
-273,351,0,0,0,0,0,0,0,0,0,-1,951,673,0,0
-266,351,0,0,0,0,0,0,0,0,0,-1,958,673,0,0
-259,351,0,0,0,0,0,0,0,0,0,-1,965,673,0,0
-252,351,0,0,0,0,0,0,0,0,0,-1,972,673,0,0
-245,351,0,0,0,0,0,0,0,0,0,-1,979,673,0,0
-238,351,0,0,0,0,0,0,0,0,0,-1,986,673,0,0
-231,351,0,0,0,0,0,0,0,0,0,-1,993,673,0,0
-224,351,0,0,0,0,0,0,0,0,0,-1,1000,673,0,0
-217,351,0,0,0,0,0,0,0,0,0,-1,1007,673,0,0
-210,351,0,0,0,0,0,0,0,0,0,-1,1014,673,0,0
-203,351,0,0,0,0,0,0,0,0,0,-1,1021,673,0,0
-196,351,0,0,0,0,0,0,0,0,0,-1,1028,673,0,0
-189,351,0,0,0,0,0,0,0,0,0,-1,1035,673,0,0
-182,351,0,0,0,0,0,0,0,0,0,-1,1042,673,0,0
-175,351,0,0,0,0,0,0,0,0,0,-1,1049,673,0,0
-168,351,0,0,0,0,0,0,0,0,0,-1,1056,673,0,0
-161,351,0,0,0,0,0,0,0,0,0,-1,1063,673,0,0
-154,351,0,0,0,0,0,0,0,0,0,-1,1070,673,0,0
-147,351,0,0,0,0,0,0,0,0,0,-1,1077,673,0,0
-140,351,0,0,0,0,0,0,0,0,0,-1,1084,673,0,0
-133,351,0,0,0,0,0,0,0,0,0,-1,1091,673,0,0
-126,351,0,0,0,0,0,0,0,0,0,-1,1098,673,0,0
-119,351,0,0,0,0,0,0,0,0,0,-1,1105,673,0,0
-112,351,0,0,0,0,0,0,0,0,0,-1,1112,673,0,0
-105,351,0,0,0,0,0,0,0,0,0,-1,1119,673,0,0
-98,351,0,0,0,0,0,0,0,0,0,-1,1126,673,0,0
-91,351,0,0,0,0,0,0,0,0,0,-1,1133,673,0,0
-84,351,0,0,0,0,0,0,0,0,0,-1,1140,673,0,0
-77,351,0,0,0,0,0,0,0,0,0,-1,1147,673,0,0
-70,351,0,0,0,0,0,0,0,0,0,-1,1154,673,0,0
-63,351,0,0,0,0,0,0,0,0,0,-1,1161,673,0,0
-56,351,0,0,0,0,0,0,0,0,0,-1,1168,673,0,0
-49,351,0,0,0,0,0,0,0,0,0,-1,1175,673,0,0
-42,351,0,0,0,0,0,0,0,0,0,-1,1182,673,0,0
-35,351,0,0,0,0,0,0,0,0,0,-1,1189,673,0,0
-28,351,0,0,0,0,0,0,0,0,0,-1,1196,673,0,0
-21,351,0,0,0,0,0,0,0,0,0,-1,1203,673,0,0
-14,351,0,0,0,0,0,0,0,0,0,-1,1210,673,0,0
-7,351,0,0,0,0,0,0,0,0,0,-1,1217,673,0,0
0,351,0,0,0,0,0,0,0,0,0,-1,1224,673,0,0
7,351,0,0,0,0,0,0,0,0,0,-1,1231,673,0,0
14,351,0,0,0,0,0,0,0,0,0,-1,1238,673,0,0
21,351,0,0,0,0,0,0,0,0,0,-1,1245,673,0,0
28,351,0,0,0,0,0,0,0,0,0,-1,1252,673,0,0
35,351,0,0,0,0,0,0,0,0,0,-1,1259,673,0,0
42,351,0,0,0,0,0,0,0,0,0,-1,1266,673,0,0
49,351,0,0,0,0,0,0,0,0,0,-1,1273,673,0,0
56,351,0,0,0,0,0,0,0,0,0,-1,1280,673,0,0
63,351,0,0,0,0,0,0,0,0,0,-1,1287,673,0,0
70,351,0,0,0,0,0,0,0,0,0,-1,1294,673,0,0
77,351,0,0,0,0,0,0,0,0,0,-1,1301,673,0,0
84,351,0,0,0,0,0,0,0,0,0,-1,1308,673,0,0
91,351,0,0,0,0,0,0,0,0,0,-1,1315,673,0,0
98,351,0,0,0,0,0,0,0,0,0,-1,1322,673,0,0
105,351,0,0,0,0,0,0,0,0,0,-1,1329,673,0,0
112,351,0,0,0,0,0,0,0,0,0,-1,1336,673,0,0
119,351,0,0,0,0,0,0,0,0,0,-1,1343,673,0,0
126,351,0,0,0,0,0,0,0,0,0,-1,1350,673,0,0
133,351,0,0,0,0,0,0,0,0,0,-1,1357,673,0,0
140,351,0,0,0,0,0,0,0,0,0,-1,1364,673,0,0
147,351,0,0,0,0,0,0,0,0,0,-1,1371,673,0,0
154,351,0,0,0,0,0,0,0,0,0,-1,1378,673,0,0
161,351,0,0,0,0,0,0,0,0,0,-1,1385,673,0,0
168,351,0,0,0,0,0,0,0,0,0,-1,1392,673,0,0
175,351,0,0,0,0,0,0,0,0,0,-1,1399,673,0,0
182,351,0,0,0,0,0,0,0,0,0,-1,1406,673,0,0
189,351,0,0,0,0,0,0,0,0,0,-1,1413,673,0,0
196,351,0,0,0,0,0,0,0,0,0,-1,1420,673,0,0
203,351,0,0,0,0,0,0,0,0,0,-1,1427,673,0,0
210,351,0,0,0,0,0,0,0,0,0,-1,1434,673,0,0
217,351,0,0,0,0,0,0,0,0,0,-1,1441,673,0,0
224,351,0,0,0,0,0,0,0,0,0,-1,1448,673,0,0
231,351,0,0,0,0,0,0,0,0,0,-1,1455,673,0,0
238,351,0,0,0,0,0,0,0,0,0,-1,1462,673,0,0
245,351,0,0,0,0,0,0,0,0,0,-1,1469,673,0,0
252,351,0,0,0,0,0,0,0,0,0,-1,1476,673,0,0
259,351,0,0,0,0,0,0,0,0,0,-1,1483,673,0,0
266,351,0,0,0,0,0,0,0,0,0,-1,1490,673,0,0
273,351,0,0,0,0,0,0,0,0,0,-1,1497,673,0,0
280,351,0,0,0,0,0,0,0,0,0,-1,1504,673,0,0
287,351,0,0,0,0,0,0,0,0,0,-1,1511,673,0,0
294,351,0,0,0,0,0,0,0,0,0,-1,1518,673,0,0
301,351,0,0,0,0,0,0,0,0,0,-1,1525,673,0,0
308,351,0,0,0,0,0,0,0,0,0,-1,1532,673,0,0
315,351,0,0,0,0,0,0,0,0,0,-1,1539,673,0,0
322,351,0,0,0,0,0,0,0,0,0,-1,1546,673,0,0
329,351,0,0,0,0,0,0,0,0,0,-1,1553,673,0,0
336,351,0,0,0,0,0,0,0,0,0,-1,1560,673,0,0
343,351,0,0,0,0,0,0,0,0,0,-1,1567,673,0,0
350,351,0,0,0,0,0,0,0,0,0,-1,1574,673,0,0
357,351,0,0,0,0,0,0,0,0,0,-1,1581,673,0,0
364,351,0,0,0,0,0,0,0,0,0,-1,1588,673,0,0
371,351,0,0,0,0,0,0,0,0,0,-1,1595,673,0,0
378,351,0,0,0,0,0,0,0,0,0,-1,1602,673,0,0
385,351,0,0,0,0,0,0,0,0,0,-1,1609,673,0,0
392,351,0,0,0,0,0,0,0,0,0,-1,1616,673,0,0
399,351,0,0,0,0,0,0,0,0,0,-1,1623,673,0,0
406,351,0,0,0,0,0,0,0,0,0,-1,1630,673,0,0
413,351,0,0,0,0,0,0,0,0,0,-1,1637,673,0,0
420,351,0,0,0,0,0,0,0,0,0,-1,1644,673,0,0
427,351,0,0,0,0,0,0,0,0,0,-1,1651,673,0,0
434,351,0,0,0,0,0,0,0,0,0,-1,1658,673,0,0
441,351,0,0,0,0,0,0,0,0,0,-1,1665,673,0,0
448,351,0,0,0,0,0,0,0,0,0,-1,1672,673,0,0
455,351,0,0,0,0,0,0,0,0,0,-1,1679,673,0,0
462,351,0,0,0,0,0,0,0,0,0,-1,1686,673,0,0
469,351,0,0,0,0,0,0,0,0,0,-1,1693,673,0,0
476,351,0,0,0,0,0,0,0,0,0,-1,1700,673,0,0
483,351,0,0,0,0,0,0,0,0,0,-1,1707,673,0,0
490,351,0,0,0,0,0,0,0,0,0,-1,1714,673,0,0
497,351,0,0,0,0,0,0,0,0,0,-1,1721,673,0,0
504,351,10.8842,1.61615,0,0,0,0,0,0,0,-1,1728,673,10.8842,-1.61618
511,351,15.4548,0.0236816,0,0,0,0,0,0,0,-1,1735,673,15.4549,-0.0236664
518,351,15.4282,0.152954,0,0,0,0,0,0,0,-1,1742,673,15.4282,-0.152972
525,351,15.4595,0.39502,0,0,0,0,0,0,0,-1,1749,673,15.4595,-0.395007
532,351,13.8259,2.63629,0,0,0,0,0,0,0,-1,1756,673,13.8259,-2.63632
539,351,13.2594,2.43634,0,0,0,0,0,0,0,-1,1763,673,13.2594,-2.43634
546,351,12.6396,2.22565,0,0,0,0,0,0,0,-1,1770,673,12.6396,-2.22564
553,351,12.0682,2.02832,0,0,0,0,0,0,0,-1,1777,673,12.0683,-2.02831
560,351,12.0173,0.55304,0,0,0,0,0,0,0,-1,1784,673,12.0174,-0.553028
567,351,10.7827,0.130188,0,0,0,0,0,0,0,-1,1791,673,10.7827,-0.130183
574,351,9.89417,-0.435852,0,0,0,0,0,0,0,-1,1798,673,9.89422,0.435826
581,351,9.38452,-0.539429,-0.0195131,0.00106072,-0.0073817,0.00343517,-0.0218875,-1.25958,0.0158612,0.0426886,1805,673,9.38457,0.539436
588,351,8.96924,-0.720459,-0.0138427,-0.000113716,-0.00555209,0.00185055,-0.0158069,-1.23075,0.0112059,0.0281547,1812,673,8.96929,0.720481
595,351,9.01038,-0.585022,-0.00948492,-0.000608621,-0.00393163,0.000882383,-0.0109759,-1.20832,0.00762844,0.0165481,1819,673,9.01037,0.585012
602,351,9.01099,-0.355713,-0.0061871,-0.000776549,-0.00259515,0.000266948,-0.0072306,-1.18848,0.0049118,0.0167123,1826,673,9.01094,0.355686
609,351,9.02991,-0.161621,-0.00375073,-0.000699692,-0.00181464,0.000145473,-0.0045959,-1.13492,0.00311356,0.015847,1833,673,9.02987,0.161604
616,351,9.03687,0.0669556,-0.00201399,-0.0010457,-0.00152957,7.45184e-05,-0.0031342,-0.938671,0.00211475,0.014077,1840,673,9.03682,-0.0669736
623,351,8.99988,0.268616,-0.000598788,-0.00137287,-0.00129441,0.000365211,-0.00233687,-0.640125,0.00169283,0.0141789,1847,673,8.99982,-0.268621
630,351,9.00073,0.433716,0.000624217,-0.00116439,-0.0013891,0.001382,-0.00192217,-0.499396,0.00191614,0.0224338,1854,673,9.00074,-0.433724
637,351,9.0022,0.632813,0.00162289,-0.00118624,-0.00168943,0.00241537,-0.00197871,-0.438605,0.00254109,0.0269231,1861,673,9.00214,-0.632821
644,351,9.01184,0.84259,0.00230699,-0.0016034,-0.00235352,0.00341151,-0.00270791,-0.438791,0.00354083,0.0211235,1868,673,9.01182,-0.842606
651,351,9.02197,1.05603,0.00327811,-0.00199968,-0.00315369,0.00475134,-0.00347291,-0.437019,0.00476736,0.0156469,1875,673,9.02199,-1.05602
658,351,8.98413,1.27087,0.00470057,-0.00239101,-0.00404245,0.00653195,-0.0042224,-0.425378,0.00625657,0.0208778,1882,673,8.98415,-1.27089
665,351,8.80676,1.37012,0.007051,-0.00253627,-0.00514773,0.00929143,-0.0047767,-0.4105,0.00826048,0.0270867,1889,673,8.80681,-1.37009
672,351,8.90503,1.71375,0.010417,-0.00241497,-0.00632921,0.0130135,-0.0050114,-0.389294,0.0107431,0.0369528,1896,673,8.90504,-1.71374
679,351,9.22644,1.77924,0.0152572,-0.00169631,-0.007653,0.0182008,-0.00463988,-0.367186,0.0139403,0.0421791,1903,673,9.22644,-1.77924
686,351,9.71948,1.74689,0,0,0,0,0,0,0,-1,1910,673,9.71951,-1.7469
693,351,10.3339,1.91626,0,0,0,0,0,0,0,-1,1917,673,10.3338,-1.91627
700,351,10.7412,0.567078,0,0,0,0,0,0,0,-1,1924,673,10.7412,-0.567079
707,351,0,0,0,0,0,0,0,0,0,-1,1931,673,0,0
714,351,0,0,0,0,0,0,0,0,0,-1,1938,673,0,0
721,351,0,0,0,0,0,0,0,0,0,-1,1945,673,0,0
728,351,0,0,0,0,0,0,0,0,0,-1,1952,673,0,0
735,351,0,0,0,0,0,0,0,0,0,-1,1959,673,0,0
742,351,0,0,0,0,0,0,0,0,0,-1,1966,673,0,0
749,351,0,0,0,0,0,0,0,0,0,-1,1973,673,0,0
756,351,0,0,0,0,0,0,0,0,0,-1,1980,673,0,0
763,351,0,0,0,0,0,0,0,0,0,-1,1987,673,0,0
770,351,0,0,0,0,0,0,0,0,0,-1,1994,673,0,0
777,351,0,0,0,0,0,0,0,0,0,-1,2001,673,0,0
784,351,0,0,0,0,0,0,0,0,0,-1,2008,673,0,0
791,351,0,0,0,0,0,0,0,0,0,-1,2015,673,0,0
798,351,0,0,0,0,0,0,0,0,0,-1,2022,673,0,0
805,351,0,0,0,0,0,0,0,0,0,-1,2029,673,0,0
812,351,0,0,0,0,0,0,0,0,0,-1,2036,673,0,0
-700,344,0,0,0,0,0,0,0,0,0,-1,524,680,0,0
-693,344,0,0,0,0,0,0,0,0,0,-1,531,680,0,0
-686,344,0,0,0,0,0,0,0,0,0,-1,538,680,0,0
-679,344,0,0,0,0,0,0,0,0,0,-1,545,680,0,0
-672,344,0,0,0,0,0,0,0,0,0,-1,552,680,0,0
-665,344,0,0,0,0,0,0,0,0,0,-1,559,680,0,0
-658,344,0,0,0,0,0,0,0,0,0,-1,566,680,0,0
-651,344,0,0,0,0,0,0,0,0,0,-1,573,680,0,0
-644,344,0,0,0,0,0,0,0,0,0,-1,580,680,0,0
-637,344,0,0,0,0,0,0,0,0,0,-1,587,680,0,0
-630,344,0,0,0,0,0,0,0,0,0,-1,594,680,0,0
-623,344,0,0,0,0,0,0,0,0,0,-1,601,680,0,0
-616,344,0,0,0,0,0,0,0,0,0,-1,608,680,0,0
-609,344,0,0,0,0,0,0,0,0,0,-1,615,680,0,0
-602,344,0,0,0,0,0,0,0,0,0,-1,622,680,0,0
-595,344,0,0,0,0,0,0,0,0,0,-1,629,680,0,0
-588,344,-8.7923,-1.1908,0,0,0,0,0,0,0,-1,636,680,-8.79228,1.19078
-581,344,-8.20551,-0.296204,0,0,0,0,0,0,0,-1,643,680,-8.20552,0.296182
-574,344,-7.59851,-0.407227,0,0,0,0,0,0,0,-1,650,680,-7.59849,0.407236
-567,344,-4.24866,0.214722,0,0,0,0,0,0,0,-1,657,680,-4.24864,-0.21473
-560,344,-4.45422,-0.104126,0.0380451,-0.0292882,0.00385703,0.0382654,-0.0295085,0.0570339,0.039238,0.0441762,664,680,-4.4542,0.104139
-553,344,-4.51282,-0.613831,0.0286258,-0.0227417,0.000793182,0.0286381,-0.0227539,0.0154364,0.0297359,0.0426461,671,680,-4.51282,0.613819
-546,344,-4.42633,-0.578674,0.0209625,-0.017292,-0.00095953,0.0209866,-0.017316,-0.0250618,0.0221478,0.0400156,678,680,-4.42634,0.57868
-539,344,-4.35211,-0.503723,0.0149432,-0.0128205,-0.00181749,0.0150617,-0.0129389,-0.0650926,0.0161816,0.034256,685,680,-4.35212,0.503706
-532,344,-4.2973,-0.517822,0.0103024,-0.00921149,-0.00206643,0.0105189,-0.00942791,-0.104353,0.011522,0.0187786,692,680,-4.29731,0.517853
-525,344,-4.36517,-0.656372,0.00652338,-0.00613351,-0.00215129,0.00687904,-0.00648917,-0.163842,0.00771923,0.0165343,699,680,-4.36517,0.656366
-518,344,-4.38086,-0.856812,0.00377508,-0.00380338,-0.00195989,0.00425193,-0.00428023,-0.238667,0.00492605,0.0202302,706,680,-4.38085,0.856791
-511,344,-4.40698,-1.03412,0.00225945,-0.00272044,-0.0013658,0.00260944,-0.00307043,-0.250854,0.00328287,0.0177391,713,680,-4.40701,1.0341
-504,344,-4.40765,-1.23059,0.00135181,-0.00238434,-0.000625671,0.0014538,-0.00248633,-0.161593,0.00230072,0.0174442,720,680,-4.40765,1.23061
-497,344,-4.38165,-1.409,0.00076064,-0.00277574,-0.000493922,0.00082833,-0.00284343,-0.136197,0.00222376,0.014533,727,680,-4.38167,1.40902
-490,344,-4.37769,-1.58368,0.000758114,-0.00372656,-0.000179584,0.000765294,-0.00373374,-0.0399586,0.0027796,0.0125212,734,680,-4.37767,1.58366
-483,344,-4.36426,-1.76031,0.00104001,-0.00551575,-9.71302e-05,0.00104145,-0.00551719,-0.0148117,0.00406994,0.0127136,741,680,-4.36428,1.7603
-476,344,-4.37506,-1.9411,0.00117969,-0.00837833,-1.64432e-05,0.00117972,-0.00837836,-0.00172034,0.00601748,0.0138676,748,680,-4.37508,1.94113
-469,344,-4.38788,-2.12476,0.00110836,-0.0119345,-7.21029e-05,0.00110876,-0.0119349,-0.00552794,0.00835074,0.0120728,755,680,-4.38789,2.12478
-462,344,-4.35651,-2.33356,0.000754999,-0.0163518,-0.000269242,0.000759236,-0.0163561,-0.0157337,0.0111657,0.0185828,762,680,-4.35654,2.33354
-455,344,-4.40253,-2.26404,2.18468e-05,-0.0216935,-0.00031737,2.6484e-05,-0.0216981,-0.0146108,0.0144742,0.0397118,769,680,-4.40252,2.26402
-448,344,-4.37439,-2.12579,0,0,0,0,0,0,0,-1,776,680,-4.37439,2.12581
-441,344,-4.00037,-1.71344,0,0,0,0,0,0,0,-1,783,680,-4.00034,1.71347
-434,344,-3.80713,-1.53107,0,0,0,0,0,0,0,-1,790,680,-3.80712,1.5311
-427,344,-3.06506,-1.45404,0,0,0,0,0,0,0,-1,797,680,-3.06505,1.45402
-420,344,-1.96582,-1.57574,0,0,0,0,0,0,0,-1,804,680,-1.96579,1.57574
-413,344,-0.817993,-1.4751,0,0,0,0,0,0,0,-1,811,680,-0.818017,1.47511
-406,344,-0.00714111,-1.25189,0,0,0,0,0,0,0,-1,818,680,-0.00714956,1.25191
-399,344,0.240051,-1.75769,0,0,0,0,0,0,0,-1,825,680,0.240079,1.75767
-392,344,1.11353,-2.05615,0,0,0,0,0,0,0,-1,832,680,1.11351,2.05616
-385,344,0,0,0,0,0,0,0,0,0,-1,839,680,0,0
-378,344,0,0,0,0,0,0,0,0,0,-1,846,680,0,0
-371,344,0,0,0,0,0,0,0,0,0,-1,853,680,0,0
-364,344,0,0,0,0,0,0,0,0,0,-1,860,680,0,0
-357,344,0,0,0,0,0,0,0,0,0,-1,867,680,0,0
-350,344,0,0,0,0,0,0,0,0,0,-1,874,680,0,0
-343,344,0,0,0,0,0,0,0,0,0,-1,881,680,0,0
-336,344,0,0,0,0,0,0,0,0,0,-1,888,680,0,0
-329,344,0,0,0,0,0,0,0,0,0,-1,895,680,0,0
-322,344,0,0,0,0,0,0,0,0,0,-1,902,680,0,0
-315,344,0,0,0,0,0,0,0,0,0,-1,909,680,0,0
-308,344,0,0,0,0,0,0,0,0,0,-1,916,680,0,0
-301,344,0,0,0,0,0,0,0,0,0,-1,923,680,0,0
-294,344,0,0,0,0,0,0,0,0,0,-1,930,680,0,0
-287,344,0,0,0,0,0,0,0,0,0,-1,937,680,0,0
-280,344,0,0,0,0,0,0,0,0,0,-1,944,680,0,0
-273,344,0,0,0,0,0,0,0,0,0,-1,951,680,0,0
-266,344,0,0,0,0,0,0,0,0,0,-1,958,680,0,0
-259,344,0,0,0,0,0,0,0,0,0,-1,965,680,0,0
-252,344,0,0,0,0,0,0,0,0,0,-1,972,680,0,0
-245,344,0,0,0,0,0,0,0,0,0,-1,979,680,0,0
-238,344,0,0,0,0,0,0,0,0,0,-1,986,680,0,0
-231,344,0,0,0,0,0,0,0,0,0,-1,993,680,0,0
-224,344,0,0,0,0,0,0,0,0,0,-1,1000,680,0,0
-217,344,0,0,0,0,0,0,0,0,0,-1,1007,680,0,0
-210,344,0,0,0,0,0,0,0,0,0,-1,1014,680,0,0
-203,344,0,0,0,0,0,0,0,0,0,-1,1021,680,0,0
-196,344,0,0,0,0,0,0,0,0,0,-1,1028,680,0,0
-189,344,0,0,0,0,0,0,0,0,0,-1,1035,680,0,0
-182,344,0,0,0,0,0,0,0,0,0,-1,1042,680,0,0
-175,344,0,0,0,0,0,0,0,0,0,-1,1049,680,0,0
-168,344,0,0,0,0,0,0,0,0,0,-1,1056,680,0,0
-161,344,0,0,0,0,0,0,0,0,0,-1,1063,680,0,0
-154,344,0,0,0,0,0,0,0,0,0,-1,1070,680,0,0
-147,344,0,0,0,0,0,0,0,0,0,-1,1077,680,0,0
-140,344,0,0,0,0,0,0,0,0,0,-1,1084,680,0,0
-133,344,0,0,0,0,0,0,0,0,0,-1,1091,680,0,0
-126,344,0,0,0,0,0,0,0,0,0,-1,1098,680,0,0
-119,344,0,0,0,0,0,0,0,0,0,-1,1105,680,0,0
-112,344,0,0,0,0,0,0,0,0,0,-1,1112,680,0,0
-105,344,0,0,0,0,0,0,0,0,0,-1,1119,680,0,0
-98,344,0,0,0,0,0,0,0,0,0,-1,1126,680,0,0
-91,344,0,0,0,0,0,0,0,0,0,-1,1133,680,0,0
-84,344,0,0,0,0,0,0,0,0,0,-1,1140,680,0,0
-77,344,0,0,0,0,0,0,0,0,0,-1,1147,680,0,0
-70,344,0,0,0,0,0,0,0,0,0,-1,1154,680,0,0
-63,344,0,0,0,0,0,0,0,0,0,-1,1161,680,0,0
-56,344,0,0,0,0,0,0,0,0,0,-1,1168,680,0,0
-49,344,0,0,0,0,0,0,0,0,0,-1,1175,680,0,0
-42,344,0,0,0,0,0,0,0,0,0,-1,1182,680,0,0
-35,344,0,0,0,0,0,0,0,0,0,-1,1189,680,0,0
-28,344,0,0,0,0,0,0,0,0,0,-1,1196,680,0,0
-21,344,0,0,0,0,0,0,0,0,0,-1,1203,680,0,0
-14,344,0,0,0,0,0,0,0,0,0,-1,1210,680,0,0
-7,344,0,0,0,0,0,0,0,0,0,-1,1217,680,0,0
0,344,0,0,0,0,0,0,0,0,0,-1,1224,680,0,0
7,344,0,0,0,0,0,0,0,0,0,-1,1231,680,0,0
14,344,0,0,0,0,0,0,0,0,0,-1,1238,680,0,0
21,344,0,0,0,0,0,0,0,0,0,-1,1245,680,0,0
28,344,0,0,0,0,0,0,0,0,0,-1,1252,680,0,0
35,344,0,0,0,0,0,0,0,0,0,-1,1259,680,0,0
42,344,0,0,0,0,0,0,0,0,0,-1,1266,680,0,0
49,344,0,0,0,0,0,0,0,0,0,-1,1273,680,0,0
56,344,0,0,0,0,0,0,0,0,0,-1,1280,680,0,0
63,344,0,0,0,0,0,0,0,0,0,-1,1287,680,0,0
70,344,0,0,0,0,0,0,0,0,0,-1,1294,680,0,0
77,344,0,0,0,0,0,0,0,0,0,-1,1301,680,0,0
84,344,0,0,0,0,0,0,0,0,0,-1,1308,680,0,0
91,344,0,0,0,0,0,0,0,0,0,-1,1315,680,0,0
98,344,0,0,0,0,0,0,0,0,0,-1,1322,680,0,0
105,344,0,0,0,0,0,0,0,0,0,-1,1329,680,0,0
112,344,0,0,0,0,0,0,0,0,0,-1,1336,680,0,0
119,344,0,0,0,0,0,0,0,0,0,-1,1343,680,0,0
126,344,0,0,0,0,0,0,0,0,0,-1,1350,680,0,0
133,344,0,0,0,0,0,0,0,0,0,-1,1357,680,0,0
140,344,0,0,0,0,0,0,0,0,0,-1,1364,680,0,0
147,344,0,0,0,0,0,0,0,0,0,-1,1371,680,0,0
154,344,0,0,0,0,0,0,0,0,0,-1,1378,680,0,0
161,344,0,0,0,0,0,0,0,0,0,-1,1385,680,0,0
168,344,0,0,0,0,0,0,0,0,0,-1,1392,680,0,0
175,344,0,0,0,0,0,0,0,0,0,-1,1399,680,0,0
182,344,0,0,0,0,0,0,0,0,0,-1,1406,680,0,0
189,344,0,0,0,0,0,0,0,0,0,-1,1413,680,0,0
196,344,0,0,0,0,0,0,0,0,0,-1,1420,680,0,0
203,344,0,0,0,0,0,0,0,0,0,-1,1427,680,0,0
210,344,0,0,0,0,0,0,0,0,0,-1,1434,680,0,0
217,344,0,0,0,0,0,0,0,0,0,-1,1441,680,0,0
224,344,0,0,0,0,0,0,0,0,0,-1,1448,680,0,0
231,344,0,0,0,0,0,0,0,0,0,-1,1455,680,0,0
238,344,0,0,0,0,0,0,0,0,0,-1,1462,680,0,0
245,344,0,0,0,0,0,0,0,0,0,-1,1469,680,0,0
252,344,0,0,0,0,0,0,0,0,0,-1,1476,680,0,0
259,344,0,0,0,0,0,0,0,0,0,-1,1483,680,0,0
266,344,0,0,0,0,0,0,0,0,0,-1,1490,680,0,0
273,344,0,0,0,0,0,0,0,0,0,-1,1497,680,0,0
280,344,0,0,0,0,0,0,0,0,0,-1,1504,680,0,0
287,344,0,0,0,0,0,0,0,0,0,-1,1511,680,0,0
294,344,0,0,0,0,0,0,0,0,0,-1,1518,680,0,0
301,344,0,0,0,0,0,0,0,0,0,-1,1525,680,0,0
308,344,0,0,0,0,0,0,0,0,0,-1,1532,680,0,0
315,344,0,0,0,0,0,0,0,0,0,-1,1539,680,0,0
322,344,0,0,0,0,0,0,0,0,0,-1,1546,680,0,0
329,344,0,0,0,0,0,0,0,0,0,-1,1553,680,0,0
336,344,0,0,0,0,0,0,0,0,0,-1,1560,680,0,0
343,344,0,0,0,0,0,0,0,0,0,-1,1567,680,0,0
350,344,0,0,0,0,0,0,0,0,0,-1,1574,680,0,0
357,344,0,0,0,0,0,0,0,0,0,-1,1581,680,0,0
364,344,0,0,0,0,0,0,0,0,0,-1,1588,680,0,0
371,344,0,0,0,0,0,0,0,0,0,-1,1595,680,0,0
378,344,0,0,0,0,0,0,0,0,0,-1,1602,680,0,0
385,344,0,0,0,0,0,0,0,0,0,-1,1609,680,0,0
392,344,0,0,0,0,0,0,0,0,0,-1,1616,680,0,0
399,344,0,0,0,0,0,0,0,0,0,-1,1623,680,0,0
406,344,0,0,0,0,0,0,0,0,0,-1,1630,680,0,0
413,344,0,0,0,0,0,0,0,0,0,-1,1637,680,0,0
420,344,0,0,0,0,0,0,0,0,0,-1,1644,680,0,0
427,344,0,0,0,0,0,0,0,0,0,-1,1651,680,0,0
434,344,0,0,0,0,0,0,0,0,0,-1,1658,680,0,0
441,344,0,0,0,0,0,0,0,0,0,-1,1665,680,0,0
448,344,0,0,0,0,0,0,0,0,0,-1,1672,680,0,0
455,344,0,0,0,0,0,0,0,0,0,-1,1679,680,0,0
462,344,0,0,0,0,0,0,0,0,0,-1,1686,680,0,0
469,344,0,0,0,0,0,0,0,0,0,-1,1693,680,0,0
476,344,0,0,0,0,0,0,0,0,0,-1,1700,680,0,0
483,344,0,0,0,0,0,0,0,0,0,-1,1707,680,0,0
490,344,0,0,0,0,0,0,0,0,0,-1,1714,680,0,0
497,344,0,0,0,0,0,0,0,0,0,-1,1721,680,0,0
504,344,0,0,0,0,0,0,0,0,0,-1,1728,680,0,0
511,344,15.4819,0.452637,0,0,0,0,0,0,0,-1,1735,680,15.4819,-0.452656
518,344,15.4491,0.723633,0,0,0,0,0,0,0,-1,1742,680,15.4491,-0.723644
525,344,15.4259,1.00104,0,0,0,0,0,0,0,-1,1749,680,15.4259,-1.00101
532,344,15.295,1.44165,0,0,0,0,0,0,0,-1,1756,680,15.2951,-1.44162
539,344,14.3729,1.48114,0,0,0,0,0,0,0,-1,1763,680,14.373,-1.48117
546,344,13.3718,1.66003,0,0,0,0,0,0,0,-1,1770,680,13.3718,-1.66001
553,344,12.5339,2.20245,0,0,0,0,0,0,0,-1,1777,680,12.5339,-2.20245
560,344,11.9363,2.14185,0,0,0,0,0,0,0,-1,1784,680,11.9362,-2.14182
567,344,11.397,0.925842,0,0,0,0,0,0,0,-1,1791,680,11.397,-0.92583
574,344,10.0004,0.504639,0,0,0,0,0,0,0,-1,1798,680,10.0004,-0.504645
581,344,9.8158,-0.216797,0,0,0,0,0,0,0,-1,1805,680,9.81584,0.216826
588,344,9.14001,-0.748413,0,0,0,0,0,0,0,-1,1812,680,9.14001,0.748423
595,344,9.29724,-0.511047,-0.0105219,-0.00137784,-0.00443165,0.000417465,-0.0123172,-1.18589,0.0083541,0.0337299,1819,680,9.29722,0.511076
602,344,9.30261,-0.320862,-0.00684665,-0.00147589,-0.00286554,-0.000234105,-0.00808843,-1.16187,0.00531597,0.0251421,1826,680,9.30255,0.320862
609,344,9.24927,-0.142639,-0.00416556,-0.00118536,-0.00195997,-0.000213376,-0.00513755,-1.11042,0.00335617,0.0154688,1833,680,9.24922,0.142642
616,344,9.22864,0.0858765,-0.0023412,-0.001377,-0.00154863,-0.000237168,-0.00348103,-0.936297,0.00224581,0.0222461,1840,680,9.22862,-0.0858777
623,344,9.17957,0.286865,-0.000968299,-0.00162747,-0.00123138,-2.31628e-05,-0.00257261,-0.654635,0.0017074,0.0184965,1847,680,9.17953,-0.286868
630,344,9.20508,0.434631,0.000154196,-0.00132406,-0.00123829,0.000857179,-0.00202704,-0.516333,0.00171026,0.0219885,1854,680,9.20503,-0.434651
637,344,9.24512,0.624146,0.00107862,-0.00120236,-0.00144002,0.00177507,-0.00189882,-0.450476,0.00212152,0.0216123,1861,680,9.24511,-0.624169
644,344,9.24512,0.847656,0.00164733,-0.00148543,-0.00199989,0.00262125,-0.00245935,-0.453182,0.00293378,0.0159637,1868,680,9.24507,-0.847665
651,344,9.22363,1.06976,0.00247002,-0.00169637,-0.00265479,0.00376138,-0.00298773,-0.452729,0.00390513,0.0115814,1875,680,9.2236,-1.06974
658,344,9.21606,1.30768,0.00370254,-0.00190328,-0.00336743,0.00528094,-0.00348168,-0.438316,0.00509453,0.016527,1882,680,9.21607,-1.30769
665,344,9.16516,1.47638,0.00578583,-0.00173136,-0.00431007,0.00774595,-0.00369148,-0.42682,0.00674029,0.0228208,1889,680,9.16516,-1.47636
672,344,9.20984,1.60114,0.00865609,-0.00135393,-0.00526381,0.0109145,-0.00361238,-0.405298,0.00873318,0.017384,1896,680,9.20987,-1.60115
679,344,9.41614,1.5379,0.0127319,-0.000503828,-0.00637118,0.0153003,-0.00307226,-0.383204,0.0113636,0.0349931,1903,680,9.41619,-1.53791
686,344,9.68616,1.47302,0,0,0,0,0,0,0,-1,1910,680,9.68621,-1.47304
693,344,10.2205,1.52527,0,0,0,0,0,0,0,-1,1917,680,10.2205,-1.5253
700,344,11.443,-0.242126,0,0,0,0,0,0,0,-1,1924,680,11.4431,0.242126
707,344,12.6698,-0.227661,0,0,0,0,0,0,0,-1,1931,680,12.6699,0.227646
714,344,0,0,0,0,0,0,0,0,0,-1,1938,680,0,0
721,344,0,0,0,0,0,0,0,0,0,-1,1945,680,0,0
728,344,0,0,0,0,0,0,0,0,0,-1,1952,680,0,0
735,344,0,0,0,0,0,0,0,0,0,-1,1959,680,0,0
742,344,0,0,0,0,0,0,0,0,0,-1,1966,680,0,0
749,344,0,0,0,0,0,0,0,0,0,-1,1973,680,0,0
756,344,0,0,0,0,0,0,0,0,0,-1,1980,680,0,0
763,344,0,0,0,0,0,0,0,0,0,-1,1987,680,0,0
770,344,0,0,0,0,0,0,0,0,0,-1,1994,680,0,0
777,344,0,0,0,0,0,0,0,0,0,-1,2001,680,0,0
784,344,0,0,0,0,0,0,0,0,0,-1,2008,680,0,0
791,344,0,0,0,0,0,0,0,0,0,-1,2015,680,0,0
798,344,0,0,0,0,0,0,0,0,0,-1,2022,680,0,0
805,344,0,0,0,0,0,0,0,0,0,-1,2029,680,0,0
812,344,0,0,0,0,0,0,0,0,0,-1,2036,680,0,0
-700,337,0,0,0,0,0,0,0,0,0,-1,524,687,0,0
-693,337,0,0,0,0,0,0,0,0,0,-1,531,687,0,0
-686,337,0,0,0,0,0,0,0,0,0,-1,538,687,0,0
-679,337,0,0,0,0,0,0,0,0,0,-1,545,687,0,0
-672,337,0,0,0,0,0,0,0,0,0,-1,552,687,0,0
-665,337,0,0,0,0,0,0,0,0,0,-1,559,687,0,0
-658,337,0,0,0,0,0,0,0,0,0,-1,566,687,0,0
-651,337,0,0,0,0,0,0,0,0,0,-1,573,687,0,0
-644,337,0,0,0,0,0,0,0,0,0,-1,580,687,0,0
-637,337,0,0,0,0,0,0,0,0,0,-1,587,687,0,0
-630,337,0,0,0,0,0,0,0,0,0,-1,594,687,0,0
-623,337,0,0,0,0,0,0,0,0,0,-1,601,687,0,0
-616,337,0,0,0,0,0,0,0,0,0,-1,608,687,0,0
-609,337,0,0,0,0,0,0,0,0,0,-1,615,687,0,0
-602,337,0,0,0,0,0,0,0,0,0,-1,622,687,0,0
-595,337,0,0,0,0,0,0,0,0,0,-1,629,687,0,0
-588,337,-9.06604,-0.400452,0,0,0,0,0,0,0,-1,636,687,-9.06606,0.400475
-581,337,-8.4223,0.281006,0,0,0,0,0,0,0,-1,643,687,-8.42232,-0.281009
-574,337,-4.65662,0.702637,0,0,0,0,0,0,0,-1,650,687,-4.65661,-0.702635
-567,337,-4.77704,0.28717,0,0,0,0,0,0,0,-1,657,687,-4.77704,-0.287144
-560,337,-4.7702,0.11084,0.0281741,-0.0260725,0.00500644,0.0286322,-0.0265306,0.0912634,0.031856,0.0477934,664,687,-4.77018,-0.110811
-553,337,-4.6911,-0.0883179,0.0208368,-0.0201321,0.00232341,0.0209681,-0.0202635,0.0564702,0.0238062,0.0455868,671,687,-4.69109,0.088339
-546,337,-4.59735,-0.274475,0.0150836,-0.0152161,0.000684064,0.015099,-0.0152315,0.0225613,0.0175114,0.0361526,678,687,-4.59735,0.274459
-539,337,-4.49115,-0.361511,0.0107233,-0.011233,-0.000212079,0.0107254,-0.011235,-0.00965791,0.01268,0.0219444,685,687,-4.49114,0.361508
-532,337,-4.53815,-0.500732,0.00742322,-0.00800783,-0.000598767,0.00744642,-0.00803103,-0.0387251,0.00893803,0.0127166,692,687,-4.53812,0.500762
-525,337,-4.55194,-0.667053,0.0047523,-0.00526698,-0.000823127,0.00481947,-0.00533416,-0.0814267,0.00586471,0.0145024,699,687,-4.55193,0.667059
-518,337,-4.57153,-0.876892,0.00292735,-0.00319653,-0.000793652,0.00302854,-0.00329772,-0.126809,0.00365357,0.0237916,706,687,-4.57152,0.876863
-511,337,-4.61346,-1.04572,0.00208375,-0.00240685,-0.000369119,0.00211389,-0.00243699,-0.0814693,0.00262966,0.0242568,713,687,-4.61344,1.04571
-504,337,-4.60889,-1.23444,0.00160952,-0.00237643,0.000202832,0.00161982,-0.00238672,0.0507122,0.00232726,0.0231578,720,687,-4.60887,1.23444
-497,337,-4.56616,-1.4223,0.00123026,-0.00323894,0.000210647,0.00124017,-0.00324884,0.0469942,0.00267682,0.0154994,727,687,-4.56613,1.42229
-490,337,-4.57916,-1.59485,0.00128902,-0.00465946,0.000378709,0.00131303,-0.00468347,0.063324,0.00363981,0.0126838,734,687,-4.57913,1.59487
-483,337,-4.56769,-1.7782,0.00143953,-0.00713683,0.000410454,0.00145912,-0.00715643,0.0477134,0.0053244,0.0133505,741,687,-4.56771,1.77819
-476,337,-4.5434,-1.96991,0.00141089,-0.0107018,0.000428332,0.00142602,-0.0107169,0.0353035,0.0076643,0.0124006,748,687,-4.54338,1.96992
-469,337,-4.53638,-2.1842,0.00108929,-0.0151404,0.000166702,0.001091,-0.0151422,0.0102699,0.0104774,0.0169571,755,687,-4.53638,2.18422
-462,337,-4.52411,-2.30249,0.000394946,-0.0208792,-0.000330358,0.000400075,-0.0208844,-0.0155236,0.0140582,0.0366449,762,687,-4.52408,2.3025
-455,337,-4.57623,-2.06567,0,0,0,0,0,0,0,-1,769,687,-4.57623,2.06565
-448,337,-5.68652,-2.51666,0,0,0,0,0,0,0,-1,776,687,-5.68653,2.51668
-441,337,-4.33765,-1.35303,0,0,0,0,0,0,0,-1,783,687,-4.33766,1.35305
-434,337,-5.17072,-2.59528,0,0,0,0,0,0,0,-1,790,687,-5.17071,2.59529
-427,337,-2.94312,-1.42773,0,0,0,0,0,0,0,-1,797,687,-2.94314,1.42773
-420,337,-2.95996,-1.76697,0,0,0,0,0,0,0,-1,804,687,-2.95998,1.76696
-413,337,-1.29169,-1.99487,0,0,0,0,0,0,0,-1,811,687,-1.29171,1.9949
-406,337,-1.02356,-1.89563,0,0,0,0,0,0,0,-1,818,687,-1.02357,1.89564
-399,337,-0.472839,-2.21338,0,0,0,0,0,0,0,-1,825,687,-0.472837,2.2134
-392,337,0,0,0,0,0,0,0,0,0,-1,832,687,0,0
-385,337,0,0,0,0,0,0,0,0,0,-1,839,687,0,0
-378,337,0,0,0,0,0,0,0,0,0,-1,846,687,0,0
-371,337,0,0,0,0,0,0,0,0,0,-1,853,687,0,0
-364,337,0,0,0,0,0,0,0,0,0,-1,860,687,0,0
-357,337,0,0,0,0,0,0,0,0,0,-1,867,687,0,0
-350,337,0,0,0,0,0,0,0,0,0,-1,874,687,0,0
-343,337,0,0,0,0,0,0,0,0,0,-1,881,687,0,0
-336,337,0,0,0,0,0,0,0,0,0,-1,888,687,0,0
-329,337,0,0,0,0,0,0,0,0,0,-1,895,687,0,0
-322,337,0,0,0,0,0,0,0,0,0,-1,902,687,0,0
-315,337,0,0,0,0,0,0,0,0,0,-1,909,687,0,0
-308,337,0,0,0,0,0,0,0,0,0,-1,916,687,0,0
-301,337,0,0,0,0,0,0,0,0,0,-1,923,687,0,0
-294,337,0,0,0,0,0,0,0,0,0,-1,930,687,0,0
-287,337,0,0,0,0,0,0,0,0,0,-1,937,687,0,0
-280,337,0,0,0,0,0,0,0,0,0,-1,944,687,0,0
-273,337,0,0,0,0,0,0,0,0,0,-1,951,687,0,0
-266,337,0,0,0,0,0,0,0,0,0,-1,958,687,0,0
-259,337,0,0,0,0,0,0,0,0,0,-1,965,687,0,0
-252,337,0,0,0,0,0,0,0,0,0,-1,972,687,0,0
-245,337,0,0,0,0,0,0,0,0,0,-1,979,687,0,0
-238,337,0,0,0,0,0,0,0,0,0,-1,986,687,0,0
-231,337,0,0,0,0,0,0,0,0,0,-1,993,687,0,0
-224,337,0,0,0,0,0,0,0,0,0,-1,1000,687,0,0
-217,337,0,0,0,0,0,0,0,0,0,-1,1007,687,0,0
-210,337,0,0,0,0,0,0,0,0,0,-1,1014,687,0,0
-203,337,0,0,0,0,0,0,0,0,0,-1,1021,687,0,0
-196,337,0,0,0,0,0,0,0,0,0,-1,1028,687,0,0
-189,337,0,0,0,0,0,0,0,0,0,-1,1035,687,0,0
-182,337,0,0,0,0,0,0,0,0,0,-1,1042,687,0,0
-175,337,0,0,0,0,0,0,0,0,0,-1,1049,687,0,0
-168,337,0,0,0,0,0,0,0,0,0,-1,1056,687,0,0
-161,337,0,0,0,0,0,0,0,0,0,-1,1063,687,0,0
-154,337,0,0,0,0,0,0,0,0,0,-1,1070,687,0,0
-147,337,0,0,0,0,0,0,0,0,0,-1,1077,687,0,0
-140,337,0,0,0,0,0,0,0,0,0,-1,1084,687,0,0
-133,337,0,0,0,0,0,0,0,0,0,-1,1091,687,0,0
-126,337,0,0,0,0,0,0,0,0,0,-1,1098,687,0,0
-119,337,0,0,0,0,0,0,0,0,0,-1,1105,687,0,0
-112,337,0,0,0,0,0,0,0,0,0,-1,1112,687,0,0
-105,337,0,0,0,0,0,0,0,0,0,-1,1119,687,0,0
-98,337,0,0,0,0,0,0,0,0,0,-1,1126,687,0,0
-91,337,0,0,0,0,0,0,0,0,0,-1,1133,687,0,0
-84,337,0,0,0,0,0,0,0,0,0,-1,1140,687,0,0
-77,337,0,0,0,0,0,0,0,0,0,-1,1147,687,0,0
-70,337,0,0,0,0,0,0,0,0,0,-1,1154,687,0,0
-63,337,0,0,0,0,0,0,0,0,0,-1,1161,687,0,0
-56,337,0,0,0,0,0,0,0,0,0,-1,1168,687,0,0
-49,337,0,0,0,0,0,0,0,0,0,-1,1175,687,0,0
-42,337,0,0,0,0,0,0,0,0,0,-1,1182,687,0,0
-35,337,0,0,0,0,0,0,0,0,0,-1,1189,687,0,0
-28,337,0,0,0,0,0,0,0,0,0,-1,1196,687,0,0
-21,337,0,0,0,0,0,0,0,0,0,-1,1203,687,0,0
-14,337,0,0,0,0,0,0,0,0,0,-1,1210,687,0,0
-7,337,0,0,0,0,0,0,0,0,0,-1,1217,687,0,0
0,337,0,0,0,0,0,0,0,0,0,-1,1224,687,0,0
7,337,0,0,0,0,0,0,0,0,0,-1,1231,687,0,0
14,337,0,0,0,0,0,0,0,0,0,-1,1238,687,0,0
21,337,0,0,0,0,0,0,0,0,0,-1,1245,687,0,0
28,337,0,0,0,0,0,0,0,0,0,-1,1252,687,0,0
35,337,0,0,0,0,0,0,0,0,0,-1,1259,687,0,0
42,337,0,0,0,0,0,0,0,0,0,-1,1266,687,0,0
49,337,0,0,0,0,0,0,0,0,0,-1,1273,687,0,0
56,337,0,0,0,0,0,0,0,0,0,-1,1280,687,0,0
63,337,0,0,0,0,0,0,0,0,0,-1,1287,687,0,0
70,337,0,0,0,0,0,0,0,0,0,-1,1294,687,0,0
77,337,0,0,0,0,0,0,0,0,0,-1,1301,687,0,0
84,337,0,0,0,0,0,0,0,0,0,-1,1308,687,0,0
91,337,0,0,0,0,0,0,0,0,0,-1,1315,687,0,0
98,337,0,0,0,0,0,0,0,0,0,-1,1322,687,0,0
105,337,0,0,0,0,0,0,0,0,0,-1,1329,687,0,0
112,337,0,0,0,0,0,0,0,0,0,-1,1336,687,0,0
119,337,0,0,0,0,0,0,0,0,0,-1,1343,687,0,0
126,337,0,0,0,0,0,0,0,0,0,-1,1350,687,0,0
133,337,0,0,0,0,0,0,0,0,0,-1,1357,687,0,0
140,337,0,0,0,0,0,0,0,0,0,-1,1364,687,0,0
147,337,0,0,0,0,0,0,0,0,0,-1,1371,687,0,0
154,337,0,0,0,0,0,0,0,0,0,-1,1378,687,0,0
161,337,0,0,0,0,0,0,0,0,0,-1,1385,687,0,0
168,337,0,0,0,0,0,0,0,0,0,-1,1392,687,0,0
175,337,0,0,0,0,0,0,0,0,0,-1,1399,687,0,0
182,337,0,0,0,0,0,0,0,0,0,-1,1406,687,0,0
189,337,0,0,0,0,0,0,0,0,0,-1,1413,687,0,0
196,337,0,0,0,0,0,0,0,0,0,-1,1420,687,0,0
203,337,0,0,0,0,0,0,0,0,0,-1,1427,687,0,0
210,337,0,0,0,0,0,0,0,0,0,-1,1434,687,0,0
217,337,0,0,0,0,0,0,0,0,0,-1,1441,687,0,0
224,337,0,0,0,0,0,0,0,0,0,-1,1448,687,0,0
231,337,0,0,0,0,0,0,0,0,0,-1,1455,687,0,0
238,337,0,0,0,0,0,0,0,0,0,-1,1462,687,0,0
245,337,0,0,0,0,0,0,0,0,0,-1,1469,687,0,0
252,337,0,0,0,0,0,0,0,0,0,-1,1476,687,0,0
259,337,0,0,0,0,0,0,0,0,0,-1,1483,687,0,0
266,337,0,0,0,0,0,0,0,0,0,-1,1490,687,0,0
273,337,0,0,0,0,0,0,0,0,0,-1,1497,687,0,0
280,337,0,0,0,0,0,0,0,0,0,-1,1504,687,0,0
287,337,0,0,0,0,0,0,0,0,0,-1,1511,687,0,0
294,337,0,0,0,0,0,0,0,0,0,-1,1518,687,0,0
301,337,0,0,0,0,0,0,0,0,0,-1,1525,687,0,0
308,337,0,0,0,0,0,0,0,0,0,-1,1532,687,0,0
315,337,0,0,0,0,0,0,0,0,0,-1,1539,687,0,0
322,337,0,0,0,0,0,0,0,0,0,-1,1546,687,0,0
329,337,0,0,0,0,0,0,0,0,0,-1,1553,687,0,0
336,337,0,0,0,0,0,0,0,0,0,-1,1560,687,0,0
343,337,0,0,0,0,0,0,0,0,0,-1,1567,687,0,0
350,337,0,0,0,0,0,0,0,0,0,-1,1574,687,0,0
357,337,0,0,0,0,0,0,0,0,0,-1,1581,687,0,0
364,337,0,0,0,0,0,0,0,0,0,-1,1588,687,0,0
371,337,0,0,0,0,0,0,0,0,0,-1,1595,687,0,0
378,337,0,0,0,0,0,0,0,0,0,-1,1602,687,0,0
385,337,0,0,0,0,0,0,0,0,0,-1,1609,687,0,0
392,337,0,0,0,0,0,0,0,0,0,-1,1616,687,0,0
399,337,0,0,0,0,0,0,0,0,0,-1,1623,687,0,0
406,337,0,0,0,0,0,0,0,0,0,-1,1630,687,0,0
413,337,0,0,0,0,0,0,0,0,0,-1,1637,687,0,0
420,337,0,0,0,0,0,0,0,0,0,-1,1644,687,0,0
427,337,0,0,0,0,0,0,0,0,0,-1,1651,687,0,0
434,337,0,0,0,0,0,0,0,0,0,-1,1658,687,0,0
441,337,0,0,0,0,0,0,0,0,0,-1,1665,687,0,0
448,337,0,0,0,0,0,0,0,0,0,-1,1672,687,0,0
455,337,0,0,0,0,0,0,0,0,0,-1,1679,687,0,0
462,337,0,0,0,0,0,0,0,0,0,-1,1686,687,0,0
469,337,0,0,0,0,0,0,0,0,0,-1,1693,687,0,0
476,337,0,0,0,0,0,0,0,0,0,-1,1700,687,0,0
483,337,0,0,0,0,0,0,0,0,0,-1,1707,687,0,0
490,337,0,0,0,0,0,0,0,0,0,-1,1714,687,0,0
497,337,0,0,0,0,0,0,0,0,0,-1,1721,687,0,0
504,337,0,0,0,0,0,0,0,0,0,-1,1728,687,0,0
511,337,0,0,0,0,0,0,0,0,0,-1,1735,687,0,0
518,337,15.9426,1.1582,0,0,0,0,0,0,0,-1,1742,687,15.9426,-1.15822
525,337,15.8589,-0.270874,0,0,0,0,0,0,0,-1,1749,687,15.8589,0.270882
532,337,16.3881,-0.09021,0,0,0,0,0,0,0,-1,1756,687,16.3881,0.0901834
539,337,16.9097,0.0394287,0,0,0,0,0,0,0,-1,1763,687,16.9096,-0.0394486
546,337,17.3765,0.241821,0,0,0,0,0,0,0,-1,1770,687,17.3764,-0.241813
553,337,17.7928,0.383362,0,0,0,0,0,0,0,-1,1777,687,17.7929,-0.38339
560,337,12.347,2.23297,0,0,0,0,0,0,0,-1,1784,687,12.3471,-2.23299
567,337,11.9288,1.38776,0,0,0,0,0,0,0,-1,1791,687,11.9288,-1.38777
574,337,10.704,1.19476,0,0,0,0,0,0,0,-1,1798,687,10.704,-1.19478
581,337,8.50427,0.561768,0,0,0,0,0,0,0,-1,1805,687,8.5043,-0.561754
588,337,8.5885,-0.0536499,0,0,0,0,0,0,0,-1,1812,687,8.58844,0.0536788
595,337,9.25403,-0.704651,0,0,0,0,0,0,0,-1,1819,687,9.25408,0.704676
602,337,9.4386,-0.33905,-0.00433312,-0.00462997,-0.00154829,-0.00292615,-0.00603693,-0.737613,0.00348597,0.0326018,1826,687,9.43863,0.339045
609,337,9.44263,-0.0961304,-0.00265666,-0.00332677,-0.0012193,-0.00172722,-0.00425621,-0.651311,0.00247181,0.0196298,1833,687,9.44263,0.0961201
616,337,9.41992,0.0892334,-0.00150964,-0.0027735,-0.00110005,-0.000872934,-0.0034102,-0.524685,0.00204555,0.0163301,1840,687,9.41989,-0.0892549
623,337,9.41187,0.278687,-0.000649091,-0.00252546,-0.000958327,-0.000246165,-0.00292839,-0.398009,0.0018756,0.01434,1847,687,9.41188,-0.278678
630,337,9.41052,0.450195,9.38637e-05,-0.00188555,-0.00102252,0.000527206,-0.00231889,-0.400852,0.00174836,0.0177987,1854,687,9.41057,-0.450214
637,337,9.44763,0.637146,0.000726079,-0.0014452,-0.00124014,0.00128864,-0.00200776,-0.425865,0.00191821,0.0160641,1861,687,9.44769,-0.637155
644,337,9.44092,0.864319,0.00113831,-0.00147613,-0.00170736,0.00198141,-0.00231923,-0.458682,0.00248553,0.0107894,1868,687,9.44089,-0.8643
651,337,9.41467,1.07031,0.00186573,-0.00151685,-0.00218787,0.0029398,-0.00259092,-0.456359,0.00319528,0.00976771,1875,687,9.41465,-1.07028
658,337,9.43494,1.26947,0.00296731,-0.00155516,-0.00271059,0.00423602,-0.00282387,-0.437767,0.00410312,0.0113587,1882,687,9.43491,-1.26948
665,337,9.45752,1.44556,0.00487084,-0.00113082,-0.00348439,0.00646849,-0.00272846,-0.429912,0.00545425,0.0136637,1889,687,9.45751,-1.44553
672,337,9.4353,1.60944,0.00735893,-0.000586442,-0.00422056,0.00918239,-0.0024099,-0.407821,0.00706329,0.0151961,1896,687,9.43525,-1.60944
679,337,9.37537,1.67615,0.0108137,0.000268843,-0.0051866,0.0129371,-0.00185463,-0.388597,0.00930479,0.032983,1903,687,9.37536,-1.67616
686,337,9.36243,1.74908,0,0,0,0,0,0,0,-1,1910,687,9.36238,-1.74911
693,337,10.549,1.37445,0,0,0,0,0,0,0,-1,1917,687,10.549,-1.37444
700,337,11.7327,-0.938293,0,0,0,0,0,0,0,-1,1924,687,11.7326,0.938306
707,337,13.0155,-0.905396,0,0,0,0,0,0,0,-1,1931,687,13.0154,0.905383
714,337,0,0,0,0,0,0,0,0,0,-1,1938,687,0,0
721,337,0,0,0,0,0,0,0,0,0,-1,1945,687,0,0
728,337,0,0,0,0,0,0,0,0,0,-1,1952,687,0,0
735,337,0,0,0,0,0,0,0,0,0,-1,1959,687,0,0
742,337,0,0,0,0,0,0,0,0,0,-1,1966,687,0,0
749,337,0,0,0,0,0,0,0,0,0,-1,1973,687,0,0
756,337,0,0,0,0,0,0,0,0,0,-1,1980,687,0,0
763,337,0,0,0,0,0,0,0,0,0,-1,1987,687,0,0
770,337,0,0,0,0,0,0,0,0,0,-1,1994,687,0,0
777,337,0,0,0,0,0,0,0,0,0,-1,2001,687,0,0
784,337,0,0,0,0,0,0,0,0,0,-1,2008,687,0,0
791,337,0,0,0,0,0,0,0,0,0,-1,2015,687,0,0
798,337,0,0,0,0,0,0,0,0,0,-1,2022,687,0,0
805,337,0,0,0,0,0,0,0,0,0,-1,2029,687,0,0
812,337,0,0,0,0,0,0,0,0,0,-1,2036,687,0,0
-700,330,0,0,0,0,0,0,0,0,0,-1,524,694,0,0
-693,330,0,0,0,0,0,0,0,0,0,-1,531,694,0,0
-686,330,0,0,0,0,0,0,0,0,0,-1,538,694,0,0
-679,330,0,0,0,0,0,0,0,0,0,-1,545,694,0,0
-672,330,0,0,0,0,0,0,0,0,0,-1,552,694,0,0
-665,330,0,0,0,0,0,0,0,0,0,-1,559,694,0,0
-658,330,0,0,0,0,0,0,0,0,0,-1,566,694,0,0
-651,330,0,0,0,0,0,0,0,0,0,-1,573,694,0,0
-644,330,0,0,0,0,0,0,0,0,0,-1,580,694,0,0
-637,330,0,0,0,0,0,0,0,0,0,-1,587,694,0,0
-630,330,0,0,0,0,0,0,0,0,0,-1,594,694,0,0
-623,330,0,0,0,0,0,0,0,0,0,-1,601,694,0,0
-616,330,0,0,0,0,0,0,0,0,0,-1,608,694,0,0
-609,330,0,0,0,0,0,0,0,0,0,-1,615,694,0,0
-602,330,0,0,0,0,0,0,0,0,0,-1,622,694,0,0
-595,330,-4.67883,1.65515,0,0,0,0,0,0,0,-1,629,694,-4.67881,-1.65515
-588,330,-4.70923,1.38007,0,0,0,0,0,0,0,-1,636,694,-4.70922,-1.38007
-581,330,-5.1795,0.640747,0,0,0,0,0,0,0,-1,643,694,-5.17952,-0.640773
-574,330,-5.69409,0.137146,0,0,0,0,0,0,0,-1,650,694,-5.69408,-0.137135
-567,330,-4.81677,0.313782,0,0,0,0,0,0,0,-1,657,694,-4.81679,-0.313778
-560,330,-4.84717,0.186218,0.0182269,-0.0221968,0.00621676,0.0191613,-0.0231312,0.149198,0.0244535,0.0455322,664,694,-4.84718,-0.186196
-553,330,-4.72522,-0.00726318,0.0126517,-0.0170229,0.00400804,0.0131835,-0.0175547,0.131918,0.0178064,0.0389608,671,694,-4.72525,0.00725582
-546,330,-4.66864,-0.186829,0.00858573,-0.0128158,0.00250309,0.00887459,-0.0131047,0.114893,0.0127679,0.0228121,678,694,-4.66864,0.186825
-539,330,-4.6933,-0.339355,0.00575727,-0.00945952,0.0015486,0.00591327,-0.00961552,0.100398,0.00905008,0.0101398,685,694,-4.69329,0.339365
-532,330,-4.74896,-0.506897,0.00378464,-0.00673366,0.000967475,0.00387289,-0.00682191,0.0909632,0.0062524,0.00945946,692,694,-4.74894,0.50688
-525,330,-4.75531,-0.694458,0.00227133,-0.00442184,0.000540006,0.00231462,-0.00446513,0.0799906,0.00397939,0.0109506,699,694,-4.75534,0.694473
-518,330,-4.73901,-0.855957,0.0014675,-0.00264436,0.000320371,0.00149231,-0.00266917,0.0772923,0.00243445,0.0150516,706,694,-4.73904,0.855938
-511,330,-4.75439,-1.04791,0.00141794,-0.00211406,0.000503346,0.00148827,-0.00218439,0.138829,0.00213307,0.0199532,713,694,-4.7544,1.04789
-504,330,-4.74988,-1.2337,0.00149134,-0.00232337,0.00086166,0.00167694,-0.00250897,0.212157,0.0024326,0.0174068,720,694,-4.7499,1.23368
-497,330,-4.75635,-1.40405,0.00145535,-0.00356568,0.000719309,0.00155636,-0.00366669,0.139522,0.00309649,0.0121783,727,694,-4.75635,1.40408
-490,330,-4.76129,-1.60394,0.00167983,-0.0053454,0.00081346,0.00177279,-0.00543836,0.113785,0.00433895,0.0123727,734,694,-4.76131,1.60394
-483,330,-4.74683,-1.79578,0.00168557,-0.00836487,0.000844909,0.0017561,-0.00843541,0.0832879,0.00629121,0.0128126,741,694,-4.74683,1.79576
-476,330,-4.73236,-1.97705,0.00154261,-0.0125368,0.000800711,0.001588,-0.0125822,0.0566278,0.00896445,0.0179321,748,694,-4.73236,1.97702
-469,330,-4.60156,-2.02368,0.0010192,-0.0178302,0.000341698,0.00102539,-0.0178364,0.0181199,0.0122471,0.0315344,755,694,-4.60157,2.02365
-462,330,-4.63452,-1.94818,-3.21495e-05,-0.0249935,-0.000483946,-2.27699e-05,-0.0250029,-0.0193781,0.016661,0.0481518,762,694,-4.63451,1.94818
-455,330,-4.65894,-1.82495,-0.00171707,-0.0340311,-0.00147552,-0.00164983,-0.0340984,-0.0455355,0.0222028,0.0440311,769,694,-4.65894,1.82493
-448,330,-5.19647,-1.82001,-0.0039459,-0.0451645,-0.00277197,-0.00376032,-0.0453501,-0.0668493,0.0290612,0.0468834,776,694,-5.19649,1.82002
-441,330,-5.56836,-2.0293,0,0,0,0,0,0,0,-1,783,694,-5.56834,2.0293
-434,330,-6.79187,-4.20587,0,0,0,0,0,0,0,-1,790,694,-6.79187,4.20589
-427,330,-2.84381,-2.25128,0,0,0,0,0,0,0,-1,797,694,-2.84381,2.25129
-420,330,-1.97321,-2.073,0,0,0,0,0,0,0,-1,804,694,-1.97319,2.07303
-413,330,-1.32983,-3.20068,0,0,0,0,0,0,0,-1,811,694,-1.32981,3.2007
-406,330,-1.65375,-1.74371,0,0,0,0,0,0,0,-1,818,694,-1.65375,1.74371
-399,330,0,0,0,0,0,0,0,0,0,-1,825,694,0,0
-392,330,0,0,0,0,0,0,0,0,0,-1,832,694,0,0
-385,330,0,0,0,0,0,0,0,0,0,-1,839,694,0,0
-378,330,0,0,0,0,0,0,0,0,0,-1,846,694,0,0
-371,330,0,0,0,0,0,0,0,0,0,-1,853,694,0,0
-364,330,0,0,0,0,0,0,0,0,0,-1,860,694,0,0
-357,330,0,0,0,0,0,0,0,0,0,-1,867,694,0,0
-350,330,0,0,0,0,0,0,0,0,0,-1,874,694,0,0
-343,330,0,0,0,0,0,0,0,0,0,-1,881,694,0,0
-336,330,0,0,0,0,0,0,0,0,0,-1,888,694,0,0
-329,330,0,0,0,0,0,0,0,0,0,-1,895,694,0,0
-322,330,0,0,0,0,0,0,0,0,0,-1,902,694,0,0
-315,330,0,0,0,0,0,0,0,0,0,-1,909,694,0,0
-308,330,0,0,0,0,0,0,0,0,0,-1,916,694,0,0
-301,330,0,0,0,0,0,0,0,0,0,-1,923,694,0,0
-294,330,0,0,0,0,0,0,0,0,0,-1,930,694,0,0
-287,330,0,0,0,0,0,0,0,0,0,-1,937,694,0,0
-280,330,0,0,0,0,0,0,0,0,0,-1,944,694,0,0
-273,330,0,0,0,0,0,0,0,0,0,-1,951,694,0,0
-266,330,0,0,0,0,0,0,0,0,0,-1,958,694,0,0
-259,330,0,0,0,0,0,0,0,0,0,-1,965,694,0,0
-252,330,0,0,0,0,0,0,0,0,0,-1,972,694,0,0
-245,330,0,0,0,0,0,0,0,0,0,-1,979,694,0,0
-238,330,0,0,0,0,0,0,0,0,0,-1,986,694,0,0
-231,330,0,0,0,0,0,0,0,0,0,-1,993,694,0,0
-224,330,0,0,0,0,0,0,0,0,0,-1,1000,694,0,0
-217,330,0,0,0,0,0,0,0,0,0,-1,1007,694,0,0
-210,330,0,0,0,0,0,0,0,0,0,-1,1014,694,0,0
-203,330,0,0,0,0,0,0,0,0,0,-1,1021,694,0,0
-196,330,0,0,0,0,0,0,0,0,0,-1,1028,694,0,0
-189,330,0,0,0,0,0,0,0,0,0,-1,1035,694,0,0
-182,330,0,0,0,0,0,0,0,0,0,-1,1042,694,0,0
-175,330,0,0,0,0,0,0,0,0,0,-1,1049,694,0,0
-168,330,0,0,0,0,0,0,0,0,0,-1,1056,694,0,0
-161,330,0,0,0,0,0,0,0,0,0,-1,1063,694,0,0
-154,330,0,0,0,0,0,0,0,0,0,-1,1070,694,0,0
-147,330,0,0,0,0,0,0,0,0,0,-1,1077,694,0,0
-140,330,0,0,0,0,0,0,0,0,0,-1,1084,694,0,0
-133,330,0,0,0,0,0,0,0,0,0,-1,1091,694,0,0
-126,330,0,0,0,0,0,0,0,0,0,-1,1098,694,0,0
-119,330,0,0,0,0,0,0,0,0,0,-1,1105,694,0,0
-112,330,0,0,0,0,0,0,0,0,0,-1,1112,694,0,0
-105,330,0,0,0,0,0,0,0,0,0,-1,1119,694,0,0
-98,330,0,0,0,0,0,0,0,0,0,-1,1126,694,0,0
-91,330,0,0,0,0,0,0,0,0,0,-1,1133,694,0,0
-84,330,0,0,0,0,0,0,0,0,0,-1,1140,694,0,0
-77,330,0,0,0,0,0,0,0,0,0,-1,1147,694,0,0
-70,330,0,0,0,0,0,0,0,0,0,-1,1154,694,0,0
-63,330,0,0,0,0,0,0,0,0,0,-1,1161,694,0,0
-56,330,0,0,0,0,0,0,0,0,0,-1,1168,694,0,0
-49,330,0,0,0,0,0,0,0,0,0,-1,1175,694,0,0
-42,330,0,0,0,0,0,0,0,0,0,-1,1182,694,0,0
-35,330,0,0,0,0,0,0,0,0,0,-1,1189,694,0,0
-28,330,0,0,0,0,0,0,0,0,0,-1,1196,694,0,0
-21,330,0,0,0,0,0,0,0,0,0,-1,1203,694,0,0
-14,330,0,0,0,0,0,0,0,0,0,-1,1210,694,0,0
-7,330,0,0,0,0,0,0,0,0,0,-1,1217,694,0,0
0,330,0,0,0,0,0,0,0,0,0,-1,1224,694,0,0
7,330,0,0,0,0,0,0,0,0,0,-1,1231,694,0,0
14,330,0,0,0,0,0,0,0,0,0,-1,1238,694,0,0
21,330,0,0,0,0,0,0,0,0,0,-1,1245,694,0,0
28,330,0,0,0,0,0,0,0,0,0,-1,1252,694,0,0
35,330,0,0,0,0,0,0,0,0,0,-1,1259,694,0,0
42,330,0,0,0,0,0,0,0,0,0,-1,1266,694,0,0
49,330,0,0,0,0,0,0,0,0,0,-1,1273,694,0,0
56,330,0,0,0,0,0,0,0,0,0,-1,1280,694,0,0
63,330,0,0,0,0,0,0,0,0,0,-1,1287,694,0,0
70,330,0,0,0,0,0,0,0,0,0,-1,1294,694,0,0
77,330,0,0,0,0,0,0,0,0,0,-1,1301,694,0,0
84,330,0,0,0,0,0,0,0,0,0,-1,1308,694,0,0
91,330,0,0,0,0,0,0,0,0,0,-1,1315,694,0,0
98,330,0,0,0,0,0,0,0,0,0,-1,1322,694,0,0
105,330,0,0,0,0,0,0,0,0,0,-1,1329,694,0,0
112,330,0,0,0,0,0,0,0,0,0,-1,1336,694,0,0
119,330,0,0,0,0,0,0,0,0,0,-1,1343,694,0,0
126,330,0,0,0,0,0,0,0,0,0,-1,1350,694,0,0
133,330,0,0,0,0,0,0,0,0,0,-1,1357,694,0,0
140,330,0,0,0,0,0,0,0,0,0,-1,1364,694,0,0
147,330,0,0,0,0,0,0,0,0,0,-1,1371,694,0,0
154,330,0,0,0,0,0,0,0,0,0,-1,1378,694,0,0
161,330,0,0,0,0,0,0,0,0,0,-1,1385,694,0,0
168,330,0,0,0,0,0,0,0,0,0,-1,1392,694,0,0
175,330,0,0,0,0,0,0,0,0,0,-1,1399,694,0,0
182,330,0,0,0,0,0,0,0,0,0,-1,1406,694,0,0
189,330,0,0,0,0,0,0,0,0,0,-1,1413,694,0,0
196,330,0,0,0,0,0,0,0,0,0,-1,1420,694,0,0
203,330,0,0,0,0,0,0,0,0,0,-1,1427,694,0,0
210,330,0,0,0,0,0,0,0,0,0,-1,1434,694,0,0
217,330,0,0,0,0,0,0,0,0,0,-1,1441,694,0,0
224,330,0,0,0,0,0,0,0,0,0,-1,1448,694,0,0
231,330,0,0,0,0,0,0,0,0,0,-1,1455,694,0,0
238,330,0,0,0,0,0,0,0,0,0,-1,1462,694,0,0
245,330,0,0,0,0,0,0,0,0,0,-1,1469,694,0,0
252,330,0,0,0,0,0,0,0,0,0,-1,1476,694,0,0
259,330,0,0,0,0,0,0,0,0,0,-1,1483,694,0,0
266,330,0,0,0,0,0,0,0,0,0,-1,1490,694,0,0
273,330,0,0,0,0,0,0,0,0,0,-1,1497,694,0,0
280,330,0,0,0,0,0,0,0,0,0,-1,1504,694,0,0
287,330,0,0,0,0,0,0,0,0,0,-1,1511,694,0,0
294,330,0,0,0,0,0,0,0,0,0,-1,1518,694,0,0
301,330,0,0,0,0,0,0,0,0,0,-1,1525,694,0,0
308,330,0,0,0,0,0,0,0,0,0,-1,1532,694,0,0
315,330,0,0,0,0,0,0,0,0,0,-1,1539,694,0,0
322,330,0,0,0,0,0,0,0,0,0,-1,1546,694,0,0
329,330,0,0,0,0,0,0,0,0,0,-1,1553,694,0,0
336,330,0,0,0,0,0,0,0,0,0,-1,1560,694,0,0
343,330,0,0,0,0,0,0,0,0,0,-1,1567,694,0,0
350,330,0,0,0,0,0,0,0,0,0,-1,1574,694,0,0
357,330,0,0,0,0,0,0,0,0,0,-1,1581,694,0,0
364,330,0,0,0,0,0,0,0,0,0,-1,1588,694,0,0
371,330,0,0,0,0,0,0,0,0,0,-1,1595,694,0,0
378,330,0,0,0,0,0,0,0,0,0,-1,1602,694,0,0
385,330,0,0,0,0,0,0,0,0,0,-1,1609,694,0,0
392,330,0,0,0,0,0,0,0,0,0,-1,1616,694,0,0
399,330,0,0,0,0,0,0,0,0,0,-1,1623,694,0,0
406,330,0,0,0,0,0,0,0,0,0,-1,1630,694,0,0
413,330,0,0,0,0,0,0,0,0,0,-1,1637,694,0,0
420,330,0,0,0,0,0,0,0,0,0,-1,1644,694,0,0
427,330,0,0,0,0,0,0,0,0,0,-1,1651,694,0,0
434,330,0,0,0,0,0,0,0,0,0,-1,1658,694,0,0
441,330,0,0,0,0,0,0,0,0,0,-1,1665,694,0,0
448,330,0,0,0,0,0,0,0,0,0,-1,1672,694,0,0
455,330,0,0,0,0,0,0,0,0,0,-1,1679,694,0,0
462,330,0,0,0,0,0,0,0,0,0,-1,1686,694,0,0
469,330,0,0,0,0,0,0,0,0,0,-1,1693,694,0,0
476,330,0,0,0,0,0,0,0,0,0,-1,1700,694,0,0
483,330,0,0,0,0,0,0,0,0,0,-1,1707,694,0,0
490,330,0,0,0,0,0,0,0,0,0,-1,1714,694,0,0
497,330,0,0,0,0,0,0,0,0,0,-1,1721,694,0,0
504,330,0,0,0,0,0,0,0,0,0,-1,1728,694,0,0
511,330,0,0,0,0,0,0,0,0,0,-1,1735,694,0,0
518,330,0,0,0,0,0,0,0,0,0,-1,1742,694,0,0
525,330,15.708,-0.528625,0,0,0,0,0,0,0,-1,1749,694,15.708,0.528656
532,330,15.96,-0.338989,0,0,0,0,0,0,0,-1,1756,694,15.9599,0.339013
539,330,16.4696,-0.0952759,0,0,0,0,0,0,0,-1,1763,694,16.4696,0.0952908
546,330,16.9929,0.15564,0,0,0,0,0,0,0,-1,1770,694,16.9929,-0.155624
553,330,17.512,0.393494,0,0,0,0,0,0,0,-1,1777,694,17.5119,-0.393486
560,330,17.9788,0.673767,0,0,0,0,0,0,0,-1,1784,694,17.9788,-0.67375
567,330,12.5887,1.99567,0,0,0,0,0,0,0,-1,1791,694,12.5887,-1.99565
574,330,12.0454,2.1662,0,0,0,0,0,0,0,-1,1798,694,12.0455,-2.16618
581,330,12.7212,1.9704,0,0,0,0,0,0,0,-1,1805,694,12.7212,-1.97041
588,330,6.45667,-0.0630493,0,0,0,0,0,0,0,-1,1812,694,6.45661,0.0630695
595,330,8.23193,-0.258484,0,0,0,0,0,0,0,-1,1819,694,8.23188,0.258459
602,330,9.42493,-0.441956,0,0,0,0,0,0,0,-1,1826,694,9.42494,0.441975
609,330,9.56335,-0.148376,0.000506512,-0.00606706,0.00111926,0.000691858,-0.00625241,0.164108,0.00441699,0.0257749,1833,694,9.56334,0.148388
616,330,9.61609,0.0564575,0.000416028,-0.00447584,0.000375916,0.000444747,-0.00450456,0.0762485,0.00316173,0.0106135,1840,694,9.61603,-0.0564801
623,330,9.63269,0.252075,0.00040606,-0.00353055,-3.31489e-05,0.000406339,-0.00353083,-0.00841988,0.00250036,0.0122687,1847,694,9.6327,-0.252068
630,330,9.64246,0.467529,0.000541355,-0.00247348,-0.000395152,0.000592287,-0.00252441,-0.128185,0.00191121,0.013201,1854,694,9.64249,-0.467526
637,330,9.63513,0.67041,0.000676999,-0.00168796,-0.000844384,0.000947531,-0.00195849,-0.310057,0.0017113,0.012649,1861,694,9.63509,-0.670405
644,330,9.62012,0.865417,0.000839496,-0.00147029,-0.00133689,0.00145126,-0.00208205,-0.429155,0.00205076,0.00805061,1868,694,9.62012,-0.865438
651,330,9.60986,1.0614,0.00146579,-0.00143531,-0.00168846,0.00224122,-0.00221075,-0.430523,0.00257037,0.0108163,1875,694,9.60987,-1.06142
658,330,9.61584,1.25653,0.00241632,-0.00141502,-0.00209122,0.00333667,-0.00233537,-0.414591,0.00329172,0.0118649,1882,694,9.61581,-1.25652
665,330,9.61865,1.4472,0.00410088,-0.000911401,-0.00277768,0.00533589,-0.00214642,-0.418372,0.00444882,0.0108269,1889,694,9.61871,-1.44721
672,330,9.61096,1.65015,0.00619556,-0.000361456,-0.00340358,0.00764283,-0.00180872,-0.402056,0.00579302,0.0127103,1896,694,9.61101,-1.65012
679,330,9.51245,1.77142,0.00906261,0.000448075,-0.00425847,0.0108123,-0.00130165,-0.389851,0.00767897,0.0250032,1903,694,9.51248,-1.77142
686,330,10.0981,1.88672,0.0131244,0.00211711,-0.00528778,0.015253,-1.14609e-05,-0.382698,0.0101725,0.0421631,1910,694,10.0982,-1.88672
693,330,10.6409,1.84918,0,0,0,0,0,0,0,-1,1917,694,10.6409,-1.8492
700,330,12.6141,-1.77289,0,0,0,0,0,0,0,-1,1924,694,12.6141,1.77291
707,330,13.6041,-1.52026,0,0,0,0,0,0,0,-1,1931,694,13.6041,1.52028
714,330,10.045,7.15454,0,0,0,0,0,0,0,-1,1938,694,10.045,-7.15454
721,330,0,0,0,0,0,0,0,0,0,-1,1945,694,0,0
728,330,0,0,0,0,0,0,0,0,0,-1,1952,694,0,0
735,330,0,0,0,0,0,0,0,0,0,-1,1959,694,0,0
742,330,0,0,0,0,0,0,0,0,0,-1,1966,694,0,0
749,330,0,0,0,0,0,0,0,0,0,-1,1973,694,0,0
756,330,0,0,0,0,0,0,0,0,0,-1,1980,694,0,0
763,330,0,0,0,0,0,0,0,0,0,-1,1987,694,0,0
770,330,0,0,0,0,0,0,0,0,0,-1,1994,694,0,0
777,330,0,0,0,0,0,0,0,0,0,-1,2001,694,0,0
784,330,0,0,0,0,0,0,0,0,0,-1,2008,694,0,0
791,330,0,0,0,0,0,0,0,0,0,-1,2015,694,0,0
798,330,0,0,0,0,0,0,0,0,0,-1,2022,694,0,0
805,330,0,0,0,0,0,0,0,0,0,-1,2029,694,0,0
812,330,0,0,0,0,0,0,0,0,0,-1,2036,694,0,0
-700,323,0,0,0,0,0,0,0,0,0,-1,524,701,0,0
-693,323,0,0,0,0,0,0,0,0,0,-1,531,701,0,0
-686,323,0,0,0,0,0,0,0,0,0,-1,538,701,0,0
-679,323,0,0,0,0,0,0,0,0,0,-1,545,701,0,0
-672,323,0,0,0,0,0,0,0,0,0,-1,552,701,0,0
-665,323,0,0,0,0,0,0,0,0,0,-1,559,701,0,0
-658,323,0,0,0,0,0,0,0,0,0,-1,566,701,0,0
-651,323,0,0,0,0,0,0,0,0,0,-1,573,701,0,0
-644,323,0,0,0,0,0,0,0,0,0,-1,580,701,0,0
-637,323,0,0,0,0,0,0,0,0,0,-1,587,701,0,0
-630,323,0,0,0,0,0,0,0,0,0,-1,594,701,0,0
-623,323,0,0,0,0,0,0,0,0,0,-1,601,701,0,0
-616,323,0,0,0,0,0,0,0,0,0,-1,608,701,0,0
-609,323,0,0,0,0,0,0,0,0,0,-1,615,701,0,0
-602,323,-4.15833,2.12256,0,0,0,0,0,0,0,-1,622,701,-4.1583,-2.12257
-595,323,-4.052,1.79156,0,0,0,0,0,0,0,-1,629,701,-4.05198,-1.79158
-588,323,-4.07019,1.94543,0,0,0,0,0,0,0,-1,636,701,-4.07019,-1.94542
-581,323,-5.87714,0.479675,0,0,0,0,0,0,0,-1,643,701,-5.87711,-0.479651
-574,323,-5.53925,0.430237,0,0,0,0,0,0,0,-1,650,701,-5.53922,-0.430232
-567,323,-5.22864,0.421387,0,0,0,0,0,0,0,-1,657,701,-5.22866,-0.421406
-560,323,-4.99969,0.192688,0.0117234,-0.0188449,0.00671926,0.0131352,-0.0202566,0.207095,0.0194244,0.0468182,664,701,-4.99968,-0.192698
-553,323,-4.91779,-0.0765381,0.00819099,-0.0144025,0.00491464,0.00921375,-0.0154253,0.205176,0.0143752,0.0288095,671,701,-4.91777,0.0765406
-546,323,-4.92255,-0.202393,0.00568903,-0.0108405,0.00359462,0.00643691,-0.0115884,0.205127,0.0105476,0.0105912,678,701,-4.92254,0.202382
-539,323,-4.91925,-0.328247,0.00399991,-0.00802312,0.00271259,0.00458358,-0.00860679,0.211939,0.00773264,0.0104953,685,701,-4.91923,0.328248
-532,323,-4.93103,-0.509094,0.00281426,-0.00568927,0.00211593,0.00331167,-0.00618668,0.230887,0.00556698,0.0100104,692,701,-4.93106,0.509107
-525,323,-4.94745,-0.695374,0.00187075,-0.00365488,0.00169919,0.00235145,-0.00413558,0.275695,0.00379221,0.00799185,699,701,-4.94745,0.695388
-518,323,-4.92999,-0.851868,0.00143085,-0.00201058,0.00142638,0.00194518,-0.00252491,0.346072,0.00258803,0.0102637,706,701,-4.93,0.851841
-511,323,-4.92645,-1.03491,0.00153127,-0.00151837,0.00156056,0.00218829,-0.00217539,0.398491,0.00251938,0.013878,713,701,-4.92648,1.0349
-504,323,-4.9425,-1.20496,0.00163376,-0.00171156,0.00189747,0.00249056,-0.00256836,0.424143,0.00292089,0.0139048,720,701,-4.94248,1.20497
-497,323,-4.94495,-1.38989,0.00152889,-0.00299441,0.00182028,0.00217042,-0.00363594,0.338845,0.00338771,0.0114499,727,701,-4.94495,1.38992
-490,323,-4.95221,-1.59082,0.00165453,-0.00476488,0.00212917,0.00229652,-0.00540687,0.292853,0.0045668,0.0125382,734,701,-4.95218,1.59083
-483,323,-4.93939,-1.77698,0.00160014,-0.00781609,0.00243935,0.00219455,-0.0084105,0.239017,0.00646391,0.0149124,741,701,-4.93937,1.77698
-476,323,-4.84027,-1.98907,0.00133829,-0.0120776,0.00260624,0.0018268,-0.0125662,0.185289,0.00904805,0.0288006,748,701,-4.84028,1.98907
-469,323,-4.5611,-2.27094,0,0,0,0,0,0,0,-1,755,701,-4.56109,2.27092
-462,323,-4.69611,-1.58759,-0.000769783,-0.025411,0.00166189,-0.000658205,-0.0255226,0.0670388,0.0167999,0.04904,762,701,-4.69612,1.5876
-455,323,-4.49353,-1.42065,-0.00301626,-0.0355688,0.000351997,-0.00301245,-0.0355726,0.0108115,0.0227774,0.0452712,769,701,-4.49353,1.42064
-448,323,-4.53809,-1.1239,-0.00597187,-0.0483948,-0.0017808,-0.00589725,-0.0484694,-0.0418792,0.0305376,0.044892,776,701,-4.53811,1.12388
-441,323,-5.02423,-1.58228,0,0,0,0,0,0,0,-1,783,701,-5.0242,1.58225
-434,323,-4.8299,-2.69525,0,0,0,0,0,0,0,-1,790,701,-4.82992,2.69526
-427,323,-4.67896,-3.3103,0,0,0,0,0,0,0,-1,797,701,-4.67899,3.3103
-420,323,-2.38629,-2.42578,0,0,0,0,0,0,0,-1,804,701,-2.38628,2.4258
-413,323,-1.97827,-2.94897,0,0,0,0,0,0,0,-1,811,701,-1.97826,2.94897
-406,323,0,0,0,0,0,0,0,0,0,-1,818,701,0,0
-399,323,0,0,0,0,0,0,0,0,0,-1,825,701,0,0
-392,323,0,0,0,0,0,0,0,0,0,-1,832,701,0,0
-385,323,0,0,0,0,0,0,0,0,0,-1,839,701,0,0
-378,323,0,0,0,0,0,0,0,0,0,-1,846,701,0,0
-371,323,0,0,0,0,0,0,0,0,0,-1,853,701,0,0
-364,323,0,0,0,0,0,0,0,0,0,-1,860,701,0,0
-357,323,0,0,0,0,0,0,0,0,0,-1,867,701,0,0
-350,323,0,0,0,0,0,0,0,0,0,-1,874,701,0,0
-343,323,0,0,0,0,0,0,0,0,0,-1,881,701,0,0
-336,323,0,0,0,0,0,0,0,0,0,-1,888,701,0,0
-329,323,0,0,0,0,0,0,0,0,0,-1,895,701,0,0
-322,323,0,0,0,0,0,0,0,0,0,-1,902,701,0,0
-315,323,0,0,0,0,0,0,0,0,0,-1,909,701,0,0
-308,323,0,0,0,0,0,0,0,0,0,-1,916,701,0,0
-301,323,0,0,0,0,0,0,0,0,0,-1,923,701,0,0
-294,323,0,0,0,0,0,0,0,0,0,-1,930,701,0,0
-287,323,0,0,0,0,0,0,0,0,0,-1,937,701,0,0
-280,323,0,0,0,0,0,0,0,0,0,-1,944,701,0,0
-273,323,0,0,0,0,0,0,0,0,0,-1,951,701,0,0
-266,323,0,0,0,0,0,0,0,0,0,-1,958,701,0,0
-259,323,0,0,0,0,0,0,0,0,0,-1,965,701,0,0
-252,323,0,0,0,0,0,0,0,0,0,-1,972,701,0,0
-245,323,0,0,0,0,0,0,0,0,0,-1,979,701,0,0
-238,323,0,0,0,0,0,0,0,0,0,-1,986,701,0,0
-231,323,0,0,0,0,0,0,0,0,0,-1,993,701,0,0
-224,323,0,0,0,0,0,0,0,0,0,-1,1000,701,0,0
-217,323,0,0,0,0,0,0,0,0,0,-1,1007,701,0,0
-210,323,0,0,0,0,0,0,0,0,0,-1,1014,701,0,0
-203,323,0,0,0,0,0,0,0,0,0,-1,1021,701,0,0
-196,323,0,0,0,0,0,0,0,0,0,-1,1028,701,0,0
-189,323,0,0,0,0,0,0,0,0,0,-1,1035,701,0,0
-182,323,0,0,0,0,0,0,0,0,0,-1,1042,701,0,0
-175,323,0,0,0,0,0,0,0,0,0,-1,1049,701,0,0
-168,323,0,0,0,0,0,0,0,0,0,-1,1056,701,0,0
-161,323,0,0,0,0,0,0,0,0,0,-1,1063,701,0,0
-154,323,0,0,0,0,0,0,0,0,0,-1,1070,701,0,0
-147,323,0,0,0,0,0,0,0,0,0,-1,1077,701,0,0
-140,323,0,0,0,0,0,0,0,0,0,-1,1084,701,0,0
-133,323,0,0,0,0,0,0,0,0,0,-1,1091,701,0,0
-126,323,0,0,0,0,0,0,0,0,0,-1,1098,701,0,0
-119,323,0,0,0,0,0,0,0,0,0,-1,1105,701,0,0
-112,323,0,0,0,0,0,0,0,0,0,-1,1112,701,0,0
-105,323,0,0,0,0,0,0,0,0,0,-1,1119,701,0,0
-98,323,0,0,0,0,0,0,0,0,0,-1,1126,701,0,0
-91,323,0,0,0,0,0,0,0,0,0,-1,1133,701,0,0
-84,323,0,0,0,0,0,0,0,0,0,-1,1140,701,0,0
-77,323,0,0,0,0,0,0,0,0,0,-1,1147,701,0,0
-70,323,0,0,0,0,0,0,0,0,0,-1,1154,701,0,0
-63,323,0,0,0,0,0,0,0,0,0,-1,1161,701,0,0
-56,323,0,0,0,0,0,0,0,0,0,-1,1168,701,0,0
-49,323,0,0,0,0,0,0,0,0,0,-1,1175,701,0,0
-42,323,0,0,0,0,0,0,0,0,0,-1,1182,701,0,0
-35,323,0,0,0,0,0,0,0,0,0,-1,1189,701,0,0
-28,323,0,0,0,0,0,0,0,0,0,-1,1196,701,0,0
-21,323,0,0,0,0,0,0,0,0,0,-1,1203,701,0,0
-14,323,0,0,0,0,0,0,0,0,0,-1,1210,701,0,0
-7,323,0,0,0,0,0,0,0,0,0,-1,1217,701,0,0
0,323,0,0,0,0,0,0,0,0,0,-1,1224,701,0,0
7,323,0,0,0,0,0,0,0,0,0,-1,1231,701,0,0
14,323,0,0,0,0,0,0,0,0,0,-1,1238,701,0,0
21,323,0,0,0,0,0,0,0,0,0,-1,1245,701,0,0
28,323,0,0,0,0,0,0,0,0,0,-1,1252,701,0,0
35,323,0,0,0,0,0,0,0,0,0,-1,1259,701,0,0
42,323,0,0,0,0,0,0,0,0,0,-1,1266,701,0,0
49,323,0,0,0,0,0,0,0,0,0,-1,1273,701,0,0
56,323,0,0,0,0,0,0,0,0,0,-1,1280,701,0,0
63,323,0,0,0,0,0,0,0,0,0,-1,1287,701,0,0
70,323,0,0,0,0,0,0,0,0,0,-1,1294,701,0,0
77,323,0,0,0,0,0,0,0,0,0,-1,1301,701,0,0
84,323,0,0,0,0,0,0,0,0,0,-1,1308,701,0,0
91,323,0,0,0,0,0,0,0,0,0,-1,1315,701,0,0
98,323,0,0,0,0,0,0,0,0,0,-1,1322,701,0,0
105,323,0,0,0,0,0,0,0,0,0,-1,1329,701,0,0
112,323,0,0,0,0,0,0,0,0,0,-1,1336,701,0,0
119,323,0,0,0,0,0,0,0,0,0,-1,1343,701,0,0
126,323,0,0,0,0,0,0,0,0,0,-1,1350,701,0,0
133,323,0,0,0,0,0,0,0,0,0,-1,1357,701,0,0
140,323,0,0,0,0,0,0,0,0,0,-1,1364,701,0,0
147,323,0,0,0,0,0,0,0,0,0,-1,1371,701,0,0
154,323,0,0,0,0,0,0,0,0,0,-1,1378,701,0,0
161,323,0,0,0,0,0,0,0,0,0,-1,1385,701,0,0
168,323,0,0,0,0,0,0,0,0,0,-1,1392,701,0,0
175,323,0,0,0,0,0,0,0,0,0,-1,1399,701,0,0
182,323,0,0,0,0,0,0,0,0,0,-1,1406,701,0,0
189,323,0,0,0,0,0,0,0,0,0,-1,1413,701,0,0
196,323,0,0,0,0,0,0,0,0,0,-1,1420,701,0,0
203,323,0,0,0,0,0,0,0,0,0,-1,1427,701,0,0
210,323,0,0,0,0,0,0,0,0,0,-1,1434,701,0,0
217,323,0,0,0,0,0,0,0,0,0,-1,1441,701,0,0
224,323,0,0,0,0,0,0,0,0,0,-1,1448,701,0,0
231,323,0,0,0,0,0,0,0,0,0,-1,1455,701,0,0
238,323,0,0,0,0,0,0,0,0,0,-1,1462,701,0,0
245,323,0,0,0,0,0,0,0,0,0,-1,1469,701,0,0
252,323,0,0,0,0,0,0,0,0,0,-1,1476,701,0,0
259,323,0,0,0,0,0,0,0,0,0,-1,1483,701,0,0
266,323,0,0,0,0,0,0,0,0,0,-1,1490,701,0,0
273,323,0,0,0,0,0,0,0,0,0,-1,1497,701,0,0
280,323,0,0,0,0,0,0,0,0,0,-1,1504,701,0,0
287,323,0,0,0,0,0,0,0,0,0,-1,1511,701,0,0
294,323,0,0,0,0,0,0,0,0,0,-1,1518,701,0,0
301,323,0,0,0,0,0,0,0,0,0,-1,1525,701,0,0
308,323,0,0,0,0,0,0,0,0,0,-1,1532,701,0,0
315,323,0,0,0,0,0,0,0,0,0,-1,1539,701,0,0
322,323,0,0,0,0,0,0,0,0,0,-1,1546,701,0,0
329,323,0,0,0,0,0,0,0,0,0,-1,1553,701,0,0
336,323,0,0,0,0,0,0,0,0,0,-1,1560,701,0,0
343,323,0,0,0,0,0,0,0,0,0,-1,1567,701,0,0
350,323,0,0,0,0,0,0,0,0,0,-1,1574,701,0,0
357,323,0,0,0,0,0,0,0,0,0,-1,1581,701,0,0
364,323,0,0,0,0,0,0,0,0,0,-1,1588,701,0,0
371,323,0,0,0,0,0,0,0,0,0,-1,1595,701,0,0
378,323,0,0,0,0,0,0,0,0,0,-1,1602,701,0,0
385,323,0,0,0,0,0,0,0,0,0,-1,1609,701,0,0
392,323,0,0,0,0,0,0,0,0,0,-1,1616,701,0,0
399,323,0,0,0,0,0,0,0,0,0,-1,1623,701,0,0
406,323,0,0,0,0,0,0,0,0,0,-1,1630,701,0,0
413,323,0,0,0,0,0,0,0,0,0,-1,1637,701,0,0
420,323,0,0,0,0,0,0,0,0,0,-1,1644,701,0,0
427,323,0,0,0,0,0,0,0,0,0,-1,1651,701,0,0
434,323,0,0,0,0,0,0,0,0,0,-1,1658,701,0,0
441,323,0,0,0,0,0,0,0,0,0,-1,1665,701,0,0
448,323,0,0,0,0,0,0,0,0,0,-1,1672,701,0,0
455,323,0,0,0,0,0,0,0,0,0,-1,1679,701,0,0
462,323,0,0,0,0,0,0,0,0,0,-1,1686,701,0,0
469,323,0,0,0,0,0,0,0,0,0,-1,1693,701,0,0
476,323,0,0,0,0,0,0,0,0,0,-1,1700,701,0,0
483,323,0,0,0,0,0,0,0,0,0,-1,1707,701,0,0
490,323,0,0,0,0,0,0,0,0,0,-1,1714,701,0,0
497,323,0,0,0,0,0,0,0,0,0,-1,1721,701,0,0
504,323,0,0,0,0,0,0,0,0,0,-1,1728,701,0,0
511,323,0,0,0,0,0,0,0,0,0,-1,1735,701,0,0
518,323,0,0,0,0,0,0,0,0,0,-1,1742,701,0,0
525,323,0,0,0,0,0,0,0,0,0,-1,1749,701,0,0
532,323,16.2736,-0.905212,0,0,0,0,0,0,0,-1,1756,701,16.2736,0.905193
539,323,16.5522,-0.611023,0,0,0,0,0,0,0,-1,1763,701,16.5522,0.611012
546,323,17.0182,-0.187866,0,0,0,0,0,0,0,-1,1770,701,17.0182,0.18787
553,323,17.2208,0.388916,0,0,0,0,0,0,0,-1,1777,701,17.2209,-0.388892
560,323,18.3231,0.271545,0,0,0,0,0,0,0,-1,1784,701,18.3231,-0.271574
567,323,18.9622,0.036499,0,0,0,0,0,0,0,-1,1791,701,18.9622,-0.0365009
574,323,19.6163,-0.393677,0,0,0,0,0,0,0,-1,1798,701,19.6164,0.393661
581,323,12.8182,1.75861,0,0,0,0,0,0,0,-1,1805,701,12.8182,-1.75861
588,323,13.5166,1.58954,0,0,0,0,0,0,0,-1,1812,701,13.5166,-1.58954
595,323,6.67847,0.06604,0,0,0,0,0,0,0,-1,1819,701,6.67841,-0.0660418
602,323,9.50806,-0.147217,0,0,0,0,0,0,0,-1,1826,701,9.50805,0.147247
609,323,9.7196,-0.0615234,0.00196027,-0.00845088,0.00610745,0.00477959,-0.0112702,0.432475,0.00951558,0.0420203,1833,701,9.71955,0.061541
616,323,9.82166,0.0570068,0.00119609,-0.00599111,0.00376943,0.00281042,-0.00760545,0.404637,0.00622239,0.0137007,1840,701,9.82162,-0.0570031
623,323,9.84851,0.259277,0.000692078,-0.00441367,0.00215667,0.00148112,-0.00520271,0.350734,0.00405341,0.0130386,1847,701,9.84846,-0.259305
630,323,9.83582,0.481689,0.000442387,-0.00295906,0.000990763,0.00070993,-0.0032266,0.263746,0.00242264,0.0140974,1854,701,9.83583,-0.481675
637,323,9.84045,0.69104,0.000192762,-0.0018339,-2.89904e-05,0.000193177,-0.00183431,-0.0143006,0.00129209,0.0108767,1861,701,9.84051,-0.691023
644,323,9.84399,0.874451,0.000140686,-0.00128432,-0.000865317,0.000549092,-0.00169272,-0.440975,0.00134928,0.00744766,1868,701,9.84401,-0.874425
651,323,9.81641,1.0722,0.000650019,-0.00113133,-0.00130167,0.00133657,-0.00181788,-0.485358,0.00182828,0.00897156,1875,701,9.81645,-1.07222
658,323,9.78784,1.27234,0.00140905,-0.00101276,-0.00167899,0.00226824,-0.00187195,-0.472988,0.00239399,0.0115456,1882,701,9.78788,-1.27235
665,323,9.7865,1.45752,0.00283079,-0.000430733,-0.00230874,0.00402663,-0.00162657,-0.477913,0.00336049,0.0106747,1889,701,9.78648,-1.45751
672,323,9.79932,1.66705,0.00453308,6.45544e-05,-0.00288374,0.00594681,-0.00134918,-0.455812,0.00448247,0.0094076,1896,701,9.79935,-1.66703
679,323,9.78137,1.84711,0.00686983,0.000781492,-0.00366546,0.00859039,-0.00093906,-0.438866,0.00606423,0.0186102,1903,701,9.78143,-1.84709
686,323,9.85181,1.69397,0.0101555,0.00214238,-0.00464553,0.0122835,1.43242e-05,-0.429558,0.00818426,0.04048,1910,701,9.85181,-1.694
693,323,9.97559,1.55872,0,0,0,0,0,0,0,-1,1917,701,9.97557,-1.55869
700,323,13.0956,-2.76294,0,0,0,0,0,0,0,-1,1924,701,13.0956,2.76296
707,323,10.2098,6.94135,0,0,0,0,0,0,0,-1,1931,701,10.2098,-6.94132
714,323,10.3798,6.47998,0,0,0,0,0,0,0,-1,1938,701,10.3797,-6.48001
721,323,0,0,0,0,0,0,0,0,0,-1,1945,701,0,0
728,323,0,0,0,0,0,0,0,0,0,-1,1952,701,0,0
735,323,0,0,0,0,0,0,0,0,0,-1,1959,701,0,0
742,323,0,0,0,0,0,0,0,0,0,-1,1966,701,0,0
749,323,0,0,0,0,0,0,0,0,0,-1,1973,701,0,0
756,323,0,0,0,0,0,0,0,0,0,-1,1980,701,0,0
763,323,0,0,0,0,0,0,0,0,0,-1,1987,701,0,0
770,323,0,0,0,0,0,0,0,0,0,-1,1994,701,0,0
777,323,0,0,0,0,0,0,0,0,0,-1,2001,701,0,0
784,323,0,0,0,0,0,0,0,0,0,-1,2008,701,0,0
791,323,0,0,0,0,0,0,0,0,0,-1,2015,701,0,0
798,323,0,0,0,0,0,0,0,0,0,-1,2022,701,0,0
805,323,0,0,0,0,0,0,0,0,0,-1,2029,701,0,0
812,323,0,0,0,0,0,0,0,0,0,-1,2036,701,0,0
-700,316,0,0,0,0,0,0,0,0,0,-1,524,708,0,0
-693,316,0,0,0,0,0,0,0,0,0,-1,531,708,0,0
-686,316,0,0,0,0,0,0,0,0,0,-1,538,708,0,0
-679,316,0,0,0,0,0,0,0,0,0,-1,545,708,0,0
-672,316,0,0,0,0,0,0,0,0,0,-1,552,708,0,0
-665,316,0,0,0,0,0,0,0,0,0,-1,559,708,0,0
-658,316,0,0,0,0,0,0,0,0,0,-1,566,708,0,0
-651,316,0,0,0,0,0,0,0,0,0,-1,573,708,0,0
-644,316,0,0,0,0,0,0,0,0,0,-1,580,708,0,0
-637,316,0,0,0,0,0,0,0,0,0,-1,587,708,0,0
-630,316,0,0,0,0,0,0,0,0,0,-1,594,708,0,0
-623,316,0,0,0,0,0,0,0,0,0,-1,601,708,0,0
-616,316,0,0,0,0,0,0,0,0,0,-1,608,708,0,0
-609,316,0,0,0,0,0,0,0,0,0,-1,615,708,0,0
-602,316,-0.451782,-0.0494995,0,0,0,0,0,0,0,-1,622,708,-0.451768,0.0495022
-595,316,-3.3761,2.17188,0,0,0,0,0,0,0,-1,629,708,-3.37609,-2.17189
-588,316,-2.69147,-0.97699,0,0,0,0,0,0,0,-1,636,708,-2.69147,0.977016
-581,316,-3.94653,0.393433,0,0,0,0,0,0,0,-1,643,708,-3.94655,-0.39342
-574,316,-5.3844,0.723328,0,0,0,0,0,0,0,-1,650,708,-5.38437,-0.723329
-567,316,-4.24219,1.14465,0,0,0,0,0,0,0,-1,657,708,-4.24222,-1.14467
-560,316,-4.85828,0.311096,0.00414484,-0.0160327,0.00619752,0.00589637,-0.0177842,0.275434,0.0142347,0.0410526,664,708,-4.8583,-0.311123
-553,316,-5.0097,-0.0314331,0.00256578,-0.0122068,0.00457733,0.0038691,-0.0135101,0.277392,0.010536,0.0278322,671,708,-5.00969,0.0314349
-546,316,-5.12317,-0.138794,0.00161637,-0.00917375,0.00338023,0.00258784,-0.0101452,0.279854,0.00777107,0.015985,678,708,-5.12318,0.138776
-539,316,-5.10315,-0.328735,0.00111167,-0.00679005,0.00261921,0.00190102,-0.00757939,0.292712,0.00579155,0.0125845,685,708,-5.10314,0.328762
-532,316,-5.12012,-0.50769,0.00080403,-0.00475987,0.00215039,0.00153824,-0.00549408,0.329023,0.00426887,0.0109168,692,708,-5.12014,0.507698
-525,316,-5.10864,-0.670532,0.000480574,-0.00293192,0.00194706,0.00136321,-0.00381455,0.425609,0.00309905,0.00920666,699,708,-5.10863,0.670503
-518,316,-5.08771,-0.846436,0.000441079,-0.00136344,0.0018634,0.00160917,-0.00253153,0.559934,0.00241032,0.00969887,706,708,-5.08771,0.846459
-511,316,-5.08575,-1.02838,0.000659549,-0.000818322,0.00220694,0.00224798,-0.00240675,0.623853,0.00268793,0.0108892,713,708,-5.08574,1.02836
-504,316,-5.11499,-1.20673,0.000671821,-0.000879808,0.00276952,0.00277214,-0.00298013,0.648836,0.0033218,0.0136912,720,708,-5.11496,1.2067
-497,316,-5.11548,-1.39166,0.000242913,-0.00203628,0.0030085,0.00232042,-0.00411378,0.604353,0.00376258,0.0121166,727,708,-5.11551,1.39165
-490,316,-5.12006,-1.58575,-0.000114254,-0.00361158,0.0036944,0.00222443,-0.00595026,0.564357,0.00488033,0.0128112,734,708,-5.12005,1.58578
-483,316,-5.07373,-2.16931,0,0,0,0,0,0,0,-1,741,708,-5.07372,2.16934
-476,316,-4.91675,-2.07892,0,0,0,0,0,0,0,-1,748,708,-4.91674,2.07891
-469,316,-4.4389,-1.61902,0,0,0,0,0,0,0,-1,755,708,-4.43889,1.619
-462,316,-4.7793,-1.16791,0,0,0,0,0,0,0,-1,762,708,-4.77929,1.16792
-455,316,-4.53516,-1.01025,0,0,0,0,0,0,0,-1,769,708,-4.53515,1.01026
-448,316,-3.74243,-0.448303,0,0,0,0,0,0,0,-1,776,708,-3.74244,0.448333
-441,316,-4.56396,-2.57007,0,0,0,0,0,0,0,-1,783,708,-4.56395,2.57004
-434,316,-4.64746,-3.56024,0,0,0,0,0,0,0,-1,790,708,-4.64747,3.56025
-427,316,-4.7749,-4.72852,0,0,0,0,0,0,0,-1,797,708,-4.77488,4.72854
-420,316,-4.79297,-5.93024,0,0,0,0,0,0,0,-1,804,708,-4.79298,5.93023
-413,316,0,0,0,0,0,0,0,0,0,-1,811,708,0,0
-406,316,0,0,0,0,0,0,0,0,0,-1,818,708,0,0
-399,316,0,0,0,0,0,0,0,0,0,-1,825,708,0,0
-392,316,0,0,0,0,0,0,0,0,0,-1,832,708,0,0
-385,316,0,0,0,0,0,0,0,0,0,-1,839,708,0,0
-378,316,0,0,0,0,0,0,0,0,0,-1,846,708,0,0
-371,316,0,0,0,0,0,0,0,0,0,-1,853,708,0,0
-364,316,0,0,0,0,0,0,0,0,0,-1,860,708,0,0
-357,316,0,0,0,0,0,0,0,0,0,-1,867,708,0,0
-350,316,0,0,0,0,0,0,0,0,0,-1,874,708,0,0
-343,316,0,0,0,0,0,0,0,0,0,-1,881,708,0,0
-336,316,0,0,0,0,0,0,0,0,0,-1,888,708,0,0
-329,316,0,0,0,0,0,0,0,0,0,-1,895,708,0,0
-322,316,0,0,0,0,0,0,0,0,0,-1,902,708,0,0
-315,316,0,0,0,0,0,0,0,0,0,-1,909,708,0,0
-308,316,0,0,0,0,0,0,0,0,0,-1,916,708,0,0
-301,316,0,0,0,0,0,0,0,0,0,-1,923,708,0,0
-294,316,0,0,0,0,0,0,0,0,0,-1,930,708,0,0
-287,316,0,0,0,0,0,0,0,0,0,-1,937,708,0,0
-280,316,0,0,0,0,0,0,0,0,0,-1,944,708,0,0
-273,316,0,0,0,0,0,0,0,0,0,-1,951,708,0,0
-266,316,0,0,0,0,0,0,0,0,0,-1,958,708,0,0
-259,316,0,0,0,0,0,0,0,0,0,-1,965,708,0,0
-252,316,0,0,0,0,0,0,0,0,0,-1,972,708,0,0
-245,316,0,0,0,0,0,0,0,0,0,-1,979,708,0,0
-238,316,0,0,0,0,0,0,0,0,0,-1,986,708,0,0
-231,316,0,0,0,0,0,0,0,0,0,-1,993,708,0,0
-224,316,0,0,0,0,0,0,0,0,0,-1,1000,708,0,0
-217,316,0,0,0,0,0,0,0,0,0,-1,1007,708,0,0
-210,316,0,0,0,0,0,0,0,0,0,-1,1014,708,0,0
-203,316,0,0,0,0,0,0,0,0,0,-1,1021,708,0,0
-196,316,0,0,0,0,0,0,0,0,0,-1,1028,708,0,0
-189,316,0,0,0,0,0,0,0,0,0,-1,1035,708,0,0
-182,316,0,0,0,0,0,0,0,0,0,-1,1042,708,0,0
-175,316,0,0,0,0,0,0,0,0,0,-1,1049,708,0,0
-168,316,0,0,0,0,0,0,0,0,0,-1,1056,708,0,0
-161,316,0,0,0,0,0,0,0,0,0,-1,1063,708,0,0
-154,316,0,0,0,0,0,0,0,0,0,-1,1070,708,0,0
-147,316,0,0,0,0,0,0,0,0,0,-1,1077,708,0,0
-140,316,0,0,0,0,0,0,0,0,0,-1,1084,708,0,0
-133,316,0,0,0,0,0,0,0,0,0,-1,1091,708,0,0
-126,316,0,0,0,0,0,0,0,0,0,-1,1098,708,0,0
-119,316,0,0,0,0,0,0,0,0,0,-1,1105,708,0,0
-112,316,0,0,0,0,0,0,0,0,0,-1,1112,708,0,0
-105,316,0,0,0,0,0,0,0,0,0,-1,1119,708,0,0
-98,316,0,0,0,0,0,0,0,0,0,-1,1126,708,0,0
-91,316,0,0,0,0,0,0,0,0,0,-1,1133,708,0,0
-84,316,0,0,0,0,0,0,0,0,0,-1,1140,708,0,0
-77,316,0,0,0,0,0,0,0,0,0,-1,1147,708,0,0
-70,316,0,0,0,0,0,0,0,0,0,-1,1154,708,0,0
-63,316,0,0,0,0,0,0,0,0,0,-1,1161,708,0,0
-56,316,0,0,0,0,0,0,0,0,0,-1,1168,708,0,0
-49,316,0,0,0,0,0,0,0,0,0,-1,1175,708,0,0
-42,316,0,0,0,0,0,0,0,0,0,-1,1182,708,0,0
-35,316,0,0,0,0,0,0,0,0,0,-1,1189,708,0,0
-28,316,0,0,0,0,0,0,0,0,0,-1,1196,708,0,0
-21,316,0,0,0,0,0,0,0,0,0,-1,1203,708,0,0
-14,316,0,0,0,0,0,0,0,0,0,-1,1210,708,0,0
-7,316,0,0,0,0,0,0,0,0,0,-1,1217,708,0,0
0,316,0,0,0,0,0,0,0,0,0,-1,1224,708,0,0
7,316,0,0,0,0,0,0,0,0,0,-1,1231,708,0,0
14,316,0,0,0,0,0,0,0,0,0,-1,1238,708,0,0
21,316,0,0,0,0,0,0,0,0,0,-1,1245,708,0,0
28,316,0,0,0,0,0,0,0,0,0,-1,1252,708,0,0
35,316,0,0,0,0,0,0,0,0,0,-1,1259,708,0,0
42,316,0,0,0,0,0,0,0,0,0,-1,1266,708,0,0
49,316,0,0,0,0,0,0,0,0,0,-1,1273,708,0,0
56,316,0,0,0,0,0,0,0,0,0,-1,1280,708,0,0
63,316,0,0,0,0,0,0,0,0,0,-1,1287,708,0,0
70,316,0,0,0,0,0,0,0,0,0,-1,1294,708,0,0
77,316,0,0,0,0,0,0,0,0,0,-1,1301,708,0,0
84,316,0,0,0,0,0,0,0,0,0,-1,1308,708,0,0
91,316,0,0,0,0,0,0,0,0,0,-1,1315,708,0,0
98,316,0,0,0,0,0,0,0,0,0,-1,1322,708,0,0
105,316,0,0,0,0,0,0,0,0,0,-1,1329,708,0,0
112,316,0,0,0,0,0,0,0,0,0,-1,1336,708,0,0
119,316,0,0,0,0,0,0,0,0,0,-1,1343,708,0,0
126,316,0,0,0,0,0,0,0,0,0,-1,1350,708,0,0
133,316,0,0,0,0,0,0,0,0,0,-1,1357,708,0,0
140,316,0,0,0,0,0,0,0,0,0,-1,1364,708,0,0
147,316,0,0,0,0,0,0,0,0,0,-1,1371,708,0,0
154,316,0,0,0,0,0,0,0,0,0,-1,1378,708,0,0
161,316,0,0,0,0,0,0,0,0,0,-1,1385,708,0,0
168,316,0,0,0,0,0,0,0,0,0,-1,1392,708,0,0
175,316,0,0,0,0,0,0,0,0,0,-1,1399,708,0,0
182,316,0,0,0,0,0,0,0,0,0,-1,1406,708,0,0
189,316,0,0,0,0,0,0,0,0,0,-1,1413,708,0,0
196,316,0,0,0,0,0,0,0,0,0,-1,1420,708,0,0
203,316,0,0,0,0,0,0,0,0,0,-1,1427,708,0,0
210,316,0,0,0,0,0,0,0,0,0,-1,1434,708,0,0
217,316,0,0,0,0,0,0,0,0,0,-1,1441,708,0,0
224,316,0,0,0,0,0,0,0,0,0,-1,1448,708,0,0
231,316,0,0,0,0,0,0,0,0,0,-1,1455,708,0,0
238,316,0,0,0,0,0,0,0,0,0,-1,1462,708,0,0
245,316,0,0,0,0,0,0,0,0,0,-1,1469,708,0,0
252,316,0,0,0,0,0,0,0,0,0,-1,1476,708,0,0
259,316,0,0,0,0,0,0,0,0,0,-1,1483,708,0,0
266,316,0,0,0,0,0,0,0,0,0,-1,1490,708,0,0
273,316,0,0,0,0,0,0,0,0,0,-1,1497,708,0,0
280,316,0,0,0,0,0,0,0,0,0,-1,1504,708,0,0
287,316,0,0,0,0,0,0,0,0,0,-1,1511,708,0,0
294,316,0,0,0,0,0,0,0,0,0,-1,1518,708,0,0
301,316,0,0,0,0,0,0,0,0,0,-1,1525,708,0,0
308,316,0,0,0,0,0,0,0,0,0,-1,1532,708,0,0
315,316,0,0,0,0,0,0,0,0,0,-1,1539,708,0,0
322,316,0,0,0,0,0,0,0,0,0,-1,1546,708,0,0
329,316,0,0,0,0,0,0,0,0,0,-1,1553,708,0,0
336,316,0,0,0,0,0,0,0,0,0,-1,1560,708,0,0
343,316,0,0,0,0,0,0,0,0,0,-1,1567,708,0,0
350,316,0,0,0,0,0,0,0,0,0,-1,1574,708,0,0
357,316,0,0,0,0,0,0,0,0,0,-1,1581,708,0,0
364,316,0,0,0,0,0,0,0,0,0,-1,1588,708,0,0
371,316,0,0,0,0,0,0,0,0,0,-1,1595,708,0,0
378,316,0,0,0,0,0,0,0,0,0,-1,1602,708,0,0
385,316,0,0,0,0,0,0,0,0,0,-1,1609,708,0,0
392,316,0,0,0,0,0,0,0,0,0,-1,1616,708,0,0
399,316,0,0,0,0,0,0,0,0,0,-1,1623,708,0,0
406,316,0,0,0,0,0,0,0,0,0,-1,1630,708,0,0
413,316,0,0,0,0,0,0,0,0,0,-1,1637,708,0,0
420,316,0,0,0,0,0,0,0,0,0,-1,1644,708,0,0
427,316,0,0,0,0,0,0,0,0,0,-1,1651,708,0,0
434,316,0,0,0,0,0,0,0,0,0,-1,1658,708,0,0
441,316,0,0,0,0,0,0,0,0,0,-1,1665,708,0,0
448,316,0,0,0,0,0,0,0,0,0,-1,1672,708,0,0
455,316,0,0,0,0,0,0,0,0,0,-1,1679,708,0,0
462,316,0,0,0,0,0,0,0,0,0,-1,1686,708,0,0
469,316,0,0,0,0,0,0,0,0,0,-1,1693,708,0,0
476,316,0,0,0,0,0,0,0,0,0,-1,1700,708,0,0
483,316,0,0,0,0,0,0,0,0,0,-1,1707,708,0,0
490,316,0,0,0,0,0,0,0,0,0,-1,1714,708,0,0
497,316,0,0,0,0,0,0,0,0,0,-1,1721,708,0,0
504,316,0,0,0,0,0,0,0,0,0,-1,1728,708,0,0
511,316,0,0,0,0,0,0,0,0,0,-1,1735,708,0,0
518,316,0,0,0,0,0,0,0,0,0,-1,1742,708,0,0
525,316,0,0,0,0,0,0,0,0,0,-1,1749,708,0,0
532,316,15.9724,-0.933899,0,0,0,0,0,0,0,-1,1756,708,15.9725,0.93387
539,316,16.2589,-0.605042,0,0,0,0,0,0,0,-1,1763,708,16.2589,0.605025
546,316,16.5508,0.050354,0,0,0,0,0,0,0,-1,1770,708,16.5508,-0.0503387
553,316,18.7069,-0.00286865,0,0,0,0,0,0,0,-1,1777,708,18.7069,0.00289625
560,316,17.9144,0.336975,0,0,0,0,0,0,0,-1,1784,708,17.9145,-0.33695
567,316,18.556,0.104065,0,0,0,0,0,0,0,-1,1791,708,18.5561,-0.104055
574,316,18.429,1.56982,0,0,0,0,0,0,0,-1,1798,708,18.4289,-1.56983
581,316,19.3909,-0.446838,0,0,0,0,0,0,0,-1,1805,708,19.3909,0.446856
588,316,14.1801,1.7594,0,0,0,0,0,0,0,-1,1812,708,14.1801,-1.75939
595,316,12.5363,1.50702,0,0,0,0,0,0,0,-1,1819,708,12.5363,-1.50701
602,316,7.79919,0.0422363,0,0,0,0,0,0,0,-1,1826,708,7.79923,-0.0422066
609,316,9.98547,-0.162903,0,0,0,0,0,0,0,-1,1833,708,9.98546,0.162889
616,316,10.0326,0.0789795,0.00110928,-0.0077741,0.00813292,0.00593436,-0.0125992,0.535462,0.0109285,0.0163449,1840,708,10.0326,-0.0789734
623,316,10.0365,0.275574,0.000564103,-0.00548743,0.00501463,0.00339511,-0.00831843,0.513945,0.00695909,0.0112346,1847,708,10.0366,-0.275548
630,316,10.0118,0.468872,0.000293588,-0.00362931,0.00278739,0.00174048,-0.00507621,0.4788,0.00408968,0.0130225,1854,708,10.0118,-0.46888
637,316,10.0239,0.706909,-8.97377e-05,-0.00215301,0.0010075,0.00032061,-0.00256336,0.38678,0.00182519,0.0121363,1861,708,10.0239,-0.706933
644,316,10.0438,0.908997,-9.62576e-05,-0.00122885,-0.000347852,2.04548e-06,-0.00132715,-0.275419,0.00088545,0.0111938,1868,708,10.0438,-0.908997
651,316,10.0145,1.08844,0.000510991,-0.000978979,-0.000958834,0.00098024,-0.00144823,-0.455128,0.00141073,0.0118566,1875,708,10.0145,-1.08843
658,316,9.98315,1.27258,0.00123758,-0.000775484,-0.00135909,0.00192227,-0.00146018,-0.466672,0.00195892,0.0180335,1882,708,9.98315,-1.27258
665,316,9.97144,1.47711,0.00250928,-0.000117872,-0.00189745,0.00350347,-0.00111206,-0.482633,0.00278145,0.0153086,1889,708,9.97145,-1.4771
672,316,10.0066,1.67493,0.00395904,0.000364804,-0.00236282,0.00513051,-0.00080667,-0.460278,0.00371851,0.0120776,1896,708,10.0066,-1.67495
679,316,10.0177,1.88275,0.00592338,0.00106617,-0.00300609,0.00735932,-0.000369765,-0.44563,0.005034,0.0174859,1903,708,10.0178,-1.88277
686,316,9.94995,1.95428,0.00866293,0.00222175,-0.00385355,0.0104645,0.000420184,-0.437318,0.00684058,0.0302419,1910,708,9.95,-1.95428
693,316,9.92603,2.11707,0.012563,0.00409705,-0.0049778,0.0148643,0.00179577,-0.433044,0.00936849,0.0461276,1917,708,9.92608,-2.11706
700,316,9.755,2.62115,0,0,0,0,0,0,0,-1,1924,708,9.75501,-2.62112
707,316,10.5203,6.3385,0,0,0,0,0,0,0,-1,1931,708,10.5203,-6.33852
714,316,10.7048,5.8642,0,0,0,0,0,0,0,-1,1938,708,10.7048,-5.86419
721,316,11.964,1.98126,0,0,0,0,0,0,0,-1,1945,708,11.964,-1.98124
728,316,0,0,0,0,0,0,0,0,0,-1,1952,708,0,0
735,316,0,0,0,0,0,0,0,0,0,-1,1959,708,0,0
742,316,0,0,0,0,0,0,0,0,0,-1,1966,708,0,0
749,316,0,0,0,0,0,0,0,0,0,-1,1973,708,0,0
756,316,0,0,0,0,0,0,0,0,0,-1,1980,708,0,0
763,316,0,0,0,0,0,0,0,0,0,-1,1987,708,0,0
770,316,0,0,0,0,0,0,0,0,0,-1,1994,708,0,0
777,316,0,0,0,0,0,0,0,0,0,-1,2001,708,0,0
784,316,0,0,0,0,0,0,0,0,0,-1,2008,708,0,0
791,316,0,0,0,0,0,0,0,0,0,-1,2015,708,0,0
798,316,0,0,0,0,0,0,0,0,0,-1,2022,708,0,0
805,316,0,0,0,0,0,0,0,0,0,-1,2029,708,0,0
812,316,0,0,0,0,0,0,0,0,0,-1,2036,708,0,0
-700,309,0,0,0,0,0,0,0,0,0,-1,524,715,0,0
-693,309,0,0,0,0,0,0,0,0,0,-1,531,715,0,0
-686,309,0,0,0,0,0,0,0,0,0,-1,538,715,0,0
-679,309,0,0,0,0,0,0,0,0,0,-1,545,715,0,0
-672,309,0,0,0,0,0,0,0,0,0,-1,552,715,0,0
-665,309,0,0,0,0,0,0,0,0,0,-1,559,715,0,0
-658,309,0,0,0,0,0,0,0,0,0,-1,566,715,0,0
-651,309,0,0,0,0,0,0,0,0,0,-1,573,715,0,0
-644,309,0,0,0,0,0,0,0,0,0,-1,580,715,0,0
-637,309,0,0,0,0,0,0,0,0,0,-1,587,715,0,0
-630,309,0,0,0,0,0,0,0,0,0,-1,594,715,0,0
-623,309,0,0,0,0,0,0,0,0,0,-1,601,715,0,0
-616,309,0,0,0,0,0,0,0,0,0,-1,608,715,0,0
-609,309,-0.667847,-1.23444,0,0,0,0,0,0,0,-1,615,715,-0.667826,1.23447
-602,309,-1.32562,-1.13629,0,0,0,0,0,0,0,-1,622,715,-1.32561,1.13629
-595,309,-2.8678,0.401001,0,0,0,0,0,0,0,-1,629,715,-2.86783,-0.40098
-588,309,-3.16827,-0.128235,0,0,0,0,0,0,0,-1,636,715,-3.16825,0.128233
-581,309,-3.46973,-0.594055,0,0,0,0,0,0,0,-1,643,715,-3.46975,0.594071
-574,309,-4.35376,0.272766,0,0,0,0,0,0,0,-1,650,715,-4.35375,-0.27279
-567,309,-4.71387,0.0290527,-0.00171728,-0.016509,0.00735937,0.00132042,-0.0195467,0.391462,0.0134928,0.0449651,657,715,-4.71386,-0.0290753
-560,309,-4.94238,-0.160583,-0.00216399,-0.0124951,0.00548086,0.000201906,-0.014861,0.407503,0.00997531,0.0419756,664,715,-4.94236,0.160602
-553,309,-5.2229,-0.0211182,-0.00203683,-0.00937839,0.00404373,-0.00024626,-0.011169,0.416852,0.00736526,0.0279612,671,715,-5.22291,0.0211222
-546,309,-5.28241,-0.137451,-0.00173516,-0.00697072,0.0029738,-0.000391085,-0.00831479,0.424492,0.00541754,0.0161181,678,715,-5.2824,0.137437
-539,309,-5.28088,-0.329163,-0.00135385,-0.00511421,0.00233137,-0.000238973,-0.00622908,0.446062,0.0040754,0.0139073,685,715,-5.28091,0.329161
-532,309,-5.28967,-0.504272,-0.00102954,-0.00349698,0.00198386,7.29277e-05,-0.00459945,0.507223,0.00309089,0.0115558,692,715,-5.2897,0.504298
-525,309,-5.26886,-0.690186,-0.00091599,-0.00198447,0.00197771,0.000598363,-0.00349882,0.653481,0.00255546,0.0146437,699,715,-5.26886,0.690161
-518,309,-5.26837,-0.86377,-0.000669741,-0.000621056,0.00209279,0.00144753,-0.00273833,0.791214,0.00245471,0.0149,706,715,-5.26839,0.863798
-511,309,-5.26422,-1.02765,-0.000404551,-0.000107057,0.00265979,0.00240814,-0.00291975,0.813331,0.00308078,0.0121309,713,715,-5.26424,1.02765
-504,309,-5.27631,-1.19788,-0.000526869,-8.61032e-05,0.00349071,0.00319117,-0.00380415,0.816923,0.00404391,0.00973471,720,715,-5.27633,1.19785
-497,309,-5.27039,-1.38251,-0.00120222,-0.00112142,0.00410365,0.00294203,-0.00526567,0.790321,0.0048016,0.013612,727,715,-5.27037,1.3825
-490,309,-5.24139,-1.56146,-0.00190998,-0.00247147,0.00519439,0.00301124,-0.00739269,0.758401,0.00618172,0.0210004,734,715,-5.2414,1.56145
-483,309,-5.12219,-1.47522,0,0,0,0,0,0,0,-1,741,715,-5.1222,1.47523
-476,309,-5.06549,-1.34631,0,0,0,0,0,0,0,-1,748,715,-5.06551,1.34633
-469,309,-4.22717,-0.592896,0,0,0,0,0,0,0,-1,755,715,-4.2272,0.592905
-462,309,-8.03296,0.179443,0,0,0,0,0,0,0,-1,762,715,-8.03297,-0.17946
-455,309,-8.75903,0.439575,0,0,0,0,0,0,0,-1,769,715,-8.75902,-0.439584
-448,309,-4.27319,-2.10785,0,0,0,0,0,0,0,-1,776,715,-4.2732,2.10786
-441,309,-4.40973,-3.24542,0,0,0,0,0,0,0,-1,783,715,-4.40974,3.24541
-434,309,-4.46503,-4.42523,0,0,0,0,0,0,0,-1,790,715,-4.46502,4.42524
-427,309,-4.87079,-6.14679,0,0,0,0,0,0,0,-1,797,715,-4.87077,6.14678
-420,309,-3.81921,-3.49042,0,0,0,0,0,0,0,-1,804,715,-3.81922,3.4904
-413,309,0,0,0,0,0,0,0,0,0,-1,811,715,0,0
-406,309,0,0,0,0,0,0,0,0,0,-1,818,715,0,0
-399,309,0,0,0,0,0,0,0,0,0,-1,825,715,0,0
-392,309,0,0,0,0,0,0,0,0,0,-1,832,715,0,0
-385,309,0,0,0,0,0,0,0,0,0,-1,839,715,0,0
-378,309,0,0,0,0,0,0,0,0,0,-1,846,715,0,0
-371,309,0,0,0,0,0,0,0,0,0,-1,853,715,0,0
-364,309,0,0,0,0,0,0,0,0,0,-1,860,715,0,0
-357,309,0,0,0,0,0,0,0,0,0,-1,867,715,0,0
-350,309,0,0,0,0,0,0,0,0,0,-1,874,715,0,0
-343,309,0,0,0,0,0,0,0,0,0,-1,881,715,0,0
-336,309,0,0,0,0,0,0,0,0,0,-1,888,715,0,0
-329,309,0,0,0,0,0,0,0,0,0,-1,895,715,0,0
-322,309,0,0,0,0,0,0,0,0,0,-1,902,715,0,0
-315,309,0,0,0,0,0,0,0,0,0,-1,909,715,0,0
-308,309,0,0,0,0,0,0,0,0,0,-1,916,715,0,0
-301,309,0,0,0,0,0,0,0,0,0,-1,923,715,0,0
-294,309,0,0,0,0,0,0,0,0,0,-1,930,715,0,0
-287,309,0,0,0,0,0,0,0,0,0,-1,937,715,0,0
-280,309,0,0,0,0,0,0,0,0,0,-1,944,715,0,0
-273,309,0,0,0,0,0,0,0,0,0,-1,951,715,0,0
-266,309,0,0,0,0,0,0,0,0,0,-1,958,715,0,0
-259,309,0,0,0,0,0,0,0,0,0,-1,965,715,0,0
-252,309,0,0,0,0,0,0,0,0,0,-1,972,715,0,0
-245,309,0,0,0,0,0,0,0,0,0,-1,979,715,0,0
-238,309,0,0,0,0,0,0,0,0,0,-1,986,715,0,0
-231,309,0,0,0,0,0,0,0,0,0,-1,993,715,0,0
-224,309,0,0,0,0,0,0,0,0,0,-1,1000,715,0,0
-217,309,0,0,0,0,0,0,0,0,0,-1,1007,715,0,0
-210,309,0,0,0,0,0,0,0,0,0,-1,1014,715,0,0
-203,309,0,0,0,0,0,0,0,0,0,-1,1021,715,0,0
-196,309,0,0,0,0,0,0,0,0,0,-1,1028,715,0,0
-189,309,0,0,0,0,0,0,0,0,0,-1,1035,715,0,0
-182,309,0,0,0,0,0,0,0,0,0,-1,1042,715,0,0
-175,309,0,0,0,0,0,0,0,0,0,-1,1049,715,0,0
-168,309,0,0,0,0,0,0,0,0,0,-1,1056,715,0,0
-161,309,0,0,0,0,0,0,0,0,0,-1,1063,715,0,0
-154,309,0,0,0,0,0,0,0,0,0,-1,1070,715,0,0
-147,309,0,0,0,0,0,0,0,0,0,-1,1077,715,0,0
-140,309,0,0,0,0,0,0,0,0,0,-1,1084,715,0,0
-133,309,0,0,0,0,0,0,0,0,0,-1,1091,715,0,0
-126,309,0,0,0,0,0,0,0,0,0,-1,1098,715,0,0
-119,309,0,0,0,0,0,0,0,0,0,-1,1105,715,0,0
-112,309,0,0,0,0,0,0,0,0,0,-1,1112,715,0,0
-105,309,0,0,0,0,0,0,0,0,0,-1,1119,715,0,0
-98,309,0,0,0,0,0,0,0,0,0,-1,1126,715,0,0
-91,309,0,0,0,0,0,0,0,0,0,-1,1133,715,0,0
-84,309,0,0,0,0,0,0,0,0,0,-1,1140,715,0,0
-77,309,0,0,0,0,0,0,0,0,0,-1,1147,715,0,0
-70,309,0,0,0,0,0,0,0,0,0,-1,1154,715,0,0
-63,309,0,0,0,0,0,0,0,0,0,-1,1161,715,0,0
-56,309,0,0,0,0,0,0,0,0,0,-1,1168,715,0,0
-49,309,0,0,0,0,0,0,0,0,0,-1,1175,715,0,0
-42,309,0,0,0,0,0,0,0,0,0,-1,1182,715,0,0
-35,309,0,0,0,0,0,0,0,0,0,-1,1189,715,0,0
-28,309,0,0,0,0,0,0,0,0,0,-1,1196,715,0,0
-21,309,0,0,0,0,0,0,0,0,0,-1,1203,715,0,0
-14,309,0,0,0,0,0,0,0,0,0,-1,1210,715,0,0
-7,309,0,0,0,0,0,0,0,0,0,-1,1217,715,0,0
0,309,0,0,0,0,0,0,0,0,0,-1,1224,715,0,0
7,309,0,0,0,0,0,0,0,0,0,-1,1231,715,0,0
14,309,0,0,0,0,0,0,0,0,0,-1,1238,715,0,0
21,309,0,0,0,0,0,0,0,0,0,-1,1245,715,0,0
28,309,0,0,0,0,0,0,0,0,0,-1,1252,715,0,0
35,309,0,0,0,0,0,0,0,0,0,-1,1259,715,0,0
42,309,0,0,0,0,0,0,0,0,0,-1,1266,715,0,0
49,309,0,0,0,0,0,0,0,0,0,-1,1273,715,0,0
56,309,0,0,0,0,0,0,0,0,0,-1,1280,715,0,0
63,309,0,0,0,0,0,0,0,0,0,-1,1287,715,0,0
70,309,0,0,0,0,0,0,0,0,0,-1,1294,715,0,0
77,309,0,0,0,0,0,0,0,0,0,-1,1301,715,0,0
84,309,0,0,0,0,0,0,0,0,0,-1,1308,715,0,0
91,309,0,0,0,0,0,0,0,0,0,-1,1315,715,0,0
98,309,0,0,0,0,0,0,0,0,0,-1,1322,715,0,0
105,309,0,0,0,0,0,0,0,0,0,-1,1329,715,0,0
112,309,0,0,0,0,0,0,0,0,0,-1,1336,715,0,0
119,309,0,0,0,0,0,0,0,0,0,-1,1343,715,0,0
126,309,0,0,0,0,0,0,0,0,0,-1,1350,715,0,0
133,309,0,0,0,0,0,0,0,0,0,-1,1357,715,0,0
140,309,0,0,0,0,0,0,0,0,0,-1,1364,715,0,0
147,309,0,0,0,0,0,0,0,0,0,-1,1371,715,0,0
154,309,0,0,0,0,0,0,0,0,0,-1,1378,715,0,0
161,309,0,0,0,0,0,0,0,0,0,-1,1385,715,0,0
168,309,0,0,0,0,0,0,0,0,0,-1,1392,715,0,0
175,309,0,0,0,0,0,0,0,0,0,-1,1399,715,0,0
182,309,0,0,0,0,0,0,0,0,0,-1,1406,715,0,0
189,309,0,0,0,0,0,0,0,0,0,-1,1413,715,0,0
196,309,0,0,0,0,0,0,0,0,0,-1,1420,715,0,0
203,309,0,0,0,0,0,0,0,0,0,-1,1427,715,0,0
210,309,0,0,0,0,0,0,0,0,0,-1,1434,715,0,0
217,309,0,0,0,0,0,0,0,0,0,-1,1441,715,0,0
224,309,0,0,0,0,0,0,0,0,0,-1,1448,715,0,0
231,309,0,0,0,0,0,0,0,0,0,-1,1455,715,0,0
238,309,0,0,0,0,0,0,0,0,0,-1,1462,715,0,0
245,309,0,0,0,0,0,0,0,0,0,-1,1469,715,0,0
252,309,0,0,0,0,0,0,0,0,0,-1,1476,715,0,0
259,309,0,0,0,0,0,0,0,0,0,-1,1483,715,0,0
266,309,0,0,0,0,0,0,0,0,0,-1,1490,715,0,0
273,309,0,0,0,0,0,0,0,0,0,-1,1497,715,0,0
280,309,0,0,0,0,0,0,0,0,0,-1,1504,715,0,0
287,309,0,0,0,0,0,0,0,0,0,-1,1511,715,0,0
294,309,0,0,0,0,0,0,0,0,0,-1,1518,715,0,0
301,309,0,0,0,0,0,0,0,0,0,-1,1525,715,0,0
308,309,0,0,0,0,0,0,0,0,0,-1,1532,715,0,0
315,309,0,0,0,0,0,0,0,0,0,-1,1539,715,0,0
322,309,0,0,0,0,0,0,0,0,0,-1,1546,715,0,0
329,309,0,0,0,0,0,0,0,0,0,-1,1553,715,0,0
336,309,0,0,0,0,0,0,0,0,0,-1,1560,715,0,0
343,309,0,0,0,0,0,0,0,0,0,-1,1567,715,0,0
350,309,0,0,0,0,0,0,0,0,0,-1,1574,715,0,0
357,309,0,0,0,0,0,0,0,0,0,-1,1581,715,0,0
364,309,0,0,0,0,0,0,0,0,0,-1,1588,715,0,0
371,309,0,0,0,0,0,0,0,0,0,-1,1595,715,0,0
378,309,0,0,0,0,0,0,0,0,0,-1,1602,715,0,0
385,309,0,0,0,0,0,0,0,0,0,-1,1609,715,0,0
392,309,0,0,0,0,0,0,0,0,0,-1,1616,715,0,0
399,309,0,0,0,0,0,0,0,0,0,-1,1623,715,0,0
406,309,0,0,0,0,0,0,0,0,0,-1,1630,715,0,0
413,309,0,0,0,0,0,0,0,0,0,-1,1637,715,0,0
420,309,0,0,0,0,0,0,0,0,0,-1,1644,715,0,0
427,309,0,0,0,0,0,0,0,0,0,-1,1651,715,0,0
434,309,0,0,0,0,0,0,0,0,0,-1,1658,715,0,0
441,309,0,0,0,0,0,0,0,0,0,-1,1665,715,0,0
448,309,0,0,0,0,0,0,0,0,0,-1,1672,715,0,0
455,309,0,0,0,0,0,0,0,0,0,-1,1679,715,0,0
462,309,0,0,0,0,0,0,0,0,0,-1,1686,715,0,0
469,309,0,0,0,0,0,0,0,0,0,-1,1693,715,0,0
476,309,0,0,0,0,0,0,0,0,0,-1,1700,715,0,0
483,309,0,0,0,0,0,0,0,0,0,-1,1707,715,0,0
490,309,0,0,0,0,0,0,0,0,0,-1,1714,715,0,0
497,309,0,0,0,0,0,0,0,0,0,-1,1721,715,0,0
504,309,0,0,0,0,0,0,0,0,0,-1,1728,715,0,0
511,309,0,0,0,0,0,0,0,0,0,-1,1735,715,0,0
518,309,0,0,0,0,0,0,0,0,0,-1,1742,715,0,0
525,309,0,0,0,0,0,0,0,0,0,-1,1749,715,0,0
532,309,0,0,0,0,0,0,0,0,0,-1,1756,715,0,0
539,309,15.9861,-0.584656,0,0,0,0,0,0,0,-1,1763,715,15.9861,0.584626
546,309,17.4579,1.02875,0,0,0,0,0,0,0,-1,1770,715,17.4579,-1.02877
553,309,17.7799,0.581116,0,0,0,0,0,0,0,-1,1777,715,17.7799,-0.58109
560,309,18.1018,0.133423,0,0,0,0,0,0,0,-1,1784,715,18.1018,-0.133405
567,309,18.5533,2.41266,0,0,0,0,0,0,0,-1,1791,715,18.5534,-2.41267
574,309,17.7037,2.1557,0,0,0,0,0,0,0,-1,1798,715,17.7037,-2.15571
581,309,17.3782,2.15906,0,0,0,0,0,0,0,-1,1805,715,17.3782,-2.15905
588,309,17.2549,2.64154,0,0,0,0,0,0,0,-1,1812,715,17.2549,-2.64154
595,309,16.0269,1.74188,0,0,0,0,0,0,0,-1,1819,715,16.0269,-1.74191
602,309,9.59094,1.75812,0,0,0,0,0,0,0,-1,1826,715,9.59096,-1.75812
609,309,10.2556,-0.100403,0,0,0,0,0,0,0,-1,1833,715,10.2557,0.100425
616,309,10.2428,0.104736,0.00232304,-0.0100745,0.0122677,0.00986914,-0.0176206,0.551462,0.0160802,0.0239395,1840,715,10.2428,-0.104707
623,309,10.2305,0.283813,0.00112576,-0.00697849,0.00783046,0.00589042,-0.0117432,0.546631,0.010366,0.0111884,1847,715,10.2305,-0.283811
630,309,10.2,0.484436,0.000532299,-0.00469179,0.0046147,0.00322291,-0.00738241,0.527866,0.006278,0.0104727,1854,715,10.2,-0.484433
637,309,10.1847,0.70343,-0.000147499,-0.00281244,0.00208455,0.000994061,-0.003954,0.501021,0.00302234,0.0133823,1861,715,10.1847,-0.703437
644,309,10.1978,0.913086,-0.000224101,-0.00142985,0.000174541,-0.000199344,-0.00145461,0.140905,0.000910593,0.0145501,1868,715,10.1978,-0.913056
651,309,10.201,1.10449,0.000467628,-0.00107588,-0.000615334,0.00068291,-0.00129116,-0.336553,0.00115762,0.013411,1875,715,10.201,-1.10451
658,309,10.1958,1.27191,0.00119389,-0.000784613,-0.00103524,0.00163654,-0.00122726,-0.404055,0.00165903,0.018301,1882,715,10.1958,-1.2719
665,309,10.2114,1.45502,0.00233256,-6.22268e-05,-0.00146606,0.00302807,-0.000757737,-0.442965,0.00231304,0.0167716,1889,715,10.2115,-1.45504
672,309,10.2186,1.66571,0.00357032,0.000441899,-0.00182979,0.00441337,-0.000401151,-0.431745,0.00308467,0.0138329,1896,715,10.2186,-1.6657
679,309,10.2161,1.89581,0.00522844,0.00116929,-0.00234397,0.00629941,9.83216e-05,-0.42858,0.00416722,0.0141815,1903,715,10.2161,-1.89583
686,309,10.2148,2.07019,0.00747361,0.00218639,-0.0030663,0.00887856,0.000781438,-0.429646,0.00567652,0.02024,1910,715,10.2148,-2.07016
693,309,10.0076,2.34302,0.0106448,0.00371133,-0.00405836,0.0125155,0.00184059,-0.43193,0.00780284,0.0340637,1917,715,10.0075,-2.34299
700,309,9.84106,2.75983,0,0,0,0,0,0,0,-1,1924,715,9.84105,-2.75982
707,309,10.1073,2.60327,0,0,0,0,0,0,0,-1,1931,715,10.1073,-2.60329
714,309,10.5116,3.4762,0,0,0,0,0,0,0,-1,1938,715,10.5116,-3.47619
721,309,11.6339,2.14545,0,0,0,0,0,0,0,-1,1945,715,11.634,-2.14542
728,309,0,0,0,0,0,0,0,0,0,-1,1952,715,0,0
735,309,0,0,0,0,0,0,0,0,0,-1,1959,715,0,0
742,309,0,0,0,0,0,0,0,0,0,-1,1966,715,0,0
749,309,0,0,0,0,0,0,0,0,0,-1,1973,715,0,0
756,309,0,0,0,0,0,0,0,0,0,-1,1980,715,0,0
763,309,0,0,0,0,0,0,0,0,0,-1,1987,715,0,0
770,309,0,0,0,0,0,0,0,0,0,-1,1994,715,0,0
777,309,0,0,0,0,0,0,0,0,0,-1,2001,715,0,0
784,309,0,0,0,0,0,0,0,0,0,-1,2008,715,0,0
791,309,0,0,0,0,0,0,0,0,0,-1,2015,715,0,0
798,309,0,0,0,0,0,0,0,0,0,-1,2022,715,0,0
805,309,0,0,0,0,0,0,0,0,0,-1,2029,715,0,0
812,309,0,0,0,0,0,0,0,0,0,-1,2036,715,0,0
-700,302,0,0,0,0,0,0,0,0,0,-1,524,722,0,0
-693,302,0,0,0,0,0,0,0,0,0,-1,531,722,0,0
-686,302,0,0,0,0,0,0,0,0,0,-1,538,722,0,0
-679,302,0,0,0,0,0,0,0,0,0,-1,545,722,0,0
-672,302,0,0,0,0,0,0,0,0,0,-1,552,722,0,0
-665,302,0,0,0,0,0,0,0,0,0,-1,559,722,0,0
-658,302,0,0,0,0,0,0,0,0,0,-1,566,722,0,0
-651,302,0,0,0,0,0,0,0,0,0,-1,573,722,0,0
-644,302,0,0,0,0,0,0,0,0,0,-1,580,722,0,0
-637,302,0,0,0,0,0,0,0,0,0,-1,587,722,0,0
-630,302,0,0,0,0,0,0,0,0,0,-1,594,722,0,0
-623,302,0,0,0,0,0,0,0,0,0,-1,601,722,0,0
-616,302,0,0,0,0,0,0,0,0,0,-1,608,722,0,0
-609,302,-1.39709,-2.28119,0,0,0,0,0,0,0,-1,615,722,-1.39707,2.28118
-602,302,-2.14374,-2.12939,0,0,0,0,0,0,0,-1,622,722,-2.14375,2.12936
-595,302,-3.64441,1.07843,0,0,0,0,0,0,0,-1,629,722,-3.64442,-1.07843
-588,302,-3.84149,0.617554,0,0,0,0,0,0,0,-1,636,722,-3.84149,-0.617536
-581,302,-4.04999,0.113586,0,0,0,0,0,0,0,-1,643,722,-4.04996,-0.113571
-574,302,-4.5589,-0.340942,-0.00460477,-0.01056,0.0109118,0.00372842,-0.0188932,0.6522,0.0140047,0.0478252,650,722,-4.55891,0.340967
-567,302,-4.88306,-0.35907,-0.00566568,-0.00917508,0.00778112,0.000556139,-0.0153969,0.6745,0.0104549,0.0433152,657,722,-4.88305,0.359087
-560,302,-5.26428,-0.0803223,-0.00538084,-0.00748405,0.00559727,-0.000737242,-0.0121276,0.692541,0.00785089,0.0345348,664,722,-5.2643,0.0803386
-553,302,-5.44525,0.0223999,-0.00472892,-0.00598063,0.00395951,-0.0013461,-0.00936345,0.707015,0.00584549,0.0157189,671,722,-5.44526,-0.0223847
-546,302,-5.44965,-0.150269,-0.00387632,-0.00481357,0.00275865,-0.00154677,-0.00714312,0.701264,0.00433938,0.0155088,678,722,-5.44966,0.150267
-539,302,-5.47321,-0.299988,-0.0029276,-0.00346524,0.0022128,-0.000967355,-0.00542548,0.724952,0.00334154,0.0146592,685,722,-5.47321,0.299992
-532,302,-5.47882,-0.488342,-0.0022624,-0.00221213,0.00193391,-0.000303192,-0.00417134,0.791896,0.00268554,0.0130837,692,722,-5.47884,0.488351
-525,302,-5.45947,-0.702881,-0.00190293,-0.000987302,0.00208148,0.000686112,-0.00357634,0.893648,0.00264279,0.0181151,699,722,-5.45947,0.70287
-518,302,-5.47101,-0.866211,-0.00155784,0.000207122,0.00233168,0.00181773,-0.00316845,0.966305,0.00291377,0.018476,706,722,-5.47099,0.866209
-511,302,-5.46222,-1.01599,-0.00136554,0.000701944,0.0030437,0.00288266,-0.00354626,0.949103,0.00371832,0.0100367,713,722,-5.4622,1.01597
-504,302,-5.45868,-1.1781,-0.00167621,0.000856554,0.0041042,0.00388531,-0.00470496,0.935043,0.00496712,0.00967142,720,722,-5.45867,1.17809
-497,302,-5.46118,-1.35553,-0.00260185,6.80831e-05,0.00507714,0.00398283,-0.0065166,0.913957,0.0061204,0.0139016,727,722,-5.46116,1.35553
-490,302,-5.35669,-1.51654,-0.00363334,-0.000912992,0.00656971,0.00443587,-0.00898221,0.887475,0.00789377,0.0280426,734,722,-5.35669,1.51657
-483,302,-5.01276,-1.53314,0,0,0,0,0,0,0,-1,741,722,-5.01277,1.53316
-476,302,-4.29749,-0.203491,0,0,0,0,0,0,0,-1,748,722,-4.29751,0.203464
-469,302,-6.328,1.84778,0,0,0,0,0,0,0,-1,755,722,-6.32803,-1.84777
-462,302,-8.64081,-0.368835,0,0,0,0,0,0,0,-1,762,722,-8.64079,0.368829
-455,302,-9.33875,-0.479675,0,0,0,0,0,0,0,-1,769,722,-9.33876,0.479658
-448,302,-9.91321,-0.486145,0,0,0,0,0,0,0,-1,776,722,-9.91322,0.486163
-441,302,-10.6113,-0.475098,0,0,0,0,0,0,0,-1,783,722,-10.6113,0.475116
-434,302,-3.84656,2.89349,0,0,0,0,0,0,0,-1,790,722,-3.84654,-2.8935
-427,302,-9.85724,0.342041,0,0,0,0,0,0,0,-1,797,722,-9.85723,-0.342042
-420,302,0,0,0,0,0,0,0,0,0,-1,804,722,0,0
-413,302,0,0,0,0,0,0,0,0,0,-1,811,722,0,0
-406,302,0,0,0,0,0,0,0,0,0,-1,818,722,0,0
-399,302,0,0,0,0,0,0,0,0,0,-1,825,722,0,0
-392,302,0,0,0,0,0,0,0,0,0,-1,832,722,0,0
-385,302,0,0,0,0,0,0,0,0,0,-1,839,722,0,0
-378,302,0,0,0,0,0,0,0,0,0,-1,846,722,0,0
-371,302,0,0,0,0,0,0,0,0,0,-1,853,722,0,0
-364,302,0,0,0,0,0,0,0,0,0,-1,860,722,0,0
-357,302,0,0,0,0,0,0,0,0,0,-1,867,722,0,0
-350,302,0,0,0,0,0,0,0,0,0,-1,874,722,0,0
-343,302,0,0,0,0,0,0,0,0,0,-1,881,722,0,0
-336,302,0,0,0,0,0,0,0,0,0,-1,888,722,0,0
-329,302,0,0,0,0,0,0,0,0,0,-1,895,722,0,0
-322,302,0,0,0,0,0,0,0,0,0,-1,902,722,0,0
-315,302,0,0,0,0,0,0,0,0,0,-1,909,722,0,0
-308,302,0,0,0,0,0,0,0,0,0,-1,916,722,0,0
-301,302,0,0,0,0,0,0,0,0,0,-1,923,722,0,0
-294,302,0,0,0,0,0,0,0,0,0,-1,930,722,0,0
-287,302,0,0,0,0,0,0,0,0,0,-1,937,722,0,0
-280,302,0,0,0,0,0,0,0,0,0,-1,944,722,0,0
-273,302,0,0,0,0,0,0,0,0,0,-1,951,722,0,0
-266,302,0,0,0,0,0,0,0,0,0,-1,958,722,0,0
-259,302,0,0,0,0,0,0,0,0,0,-1,965,722,0,0
-252,302,0,0,0,0,0,0,0,0,0,-1,972,722,0,0
-245,302,0,0,0,0,0,0,0,0,0,-1,979,722,0,0
-238,302,0,0,0,0,0,0,0,0,0,-1,986,722,0,0
-231,302,0,0,0,0,0,0,0,0,0,-1,993,722,0,0
-224,302,0,0,0,0,0,0,0,0,0,-1,1000,722,0,0
-217,302,0,0,0,0,0,0,0,0,0,-1,1007,722,0,0
-210,302,0,0,0,0,0,0,0,0,0,-1,1014,722,0,0
-203,302,0,0,0,0,0,0,0,0,0,-1,1021,722,0,0
-196,302,0,0,0,0,0,0,0,0,0,-1,1028,722,0,0
-189,302,0,0,0,0,0,0,0,0,0,-1,1035,722,0,0
-182,302,0,0,0,0,0,0,0,0,0,-1,1042,722,0,0
-175,302,0,0,0,0,0,0,0,0,0,-1,1049,722,0,0
-168,302,0,0,0,0,0,0,0,0,0,-1,1056,722,0,0
-161,302,0,0,0,0,0,0,0,0,0,-1,1063,722,0,0
-154,302,0,0,0,0,0,0,0,0,0,-1,1070,722,0,0
-147,302,0,0,0,0,0,0,0,0,0,-1,1077,722,0,0
-140,302,0,0,0,0,0,0,0,0,0,-1,1084,722,0,0
-133,302,0,0,0,0,0,0,0,0,0,-1,1091,722,0,0
-126,302,0,0,0,0,0,0,0,0,0,-1,1098,722,0,0
-119,302,0,0,0,0,0,0,0,0,0,-1,1105,722,0,0
-112,302,0,0,0,0,0,0,0,0,0,-1,1112,722,0,0
-105,302,0,0,0,0,0,0,0,0,0,-1,1119,722,0,0
-98,302,0,0,0,0,0,0,0,0,0,-1,1126,722,0,0
-91,302,0,0,0,0,0,0,0,0,0,-1,1133,722,0,0
-84,302,0,0,0,0,0,0,0,0,0,-1,1140,722,0,0
-77,302,0,0,0,0,0,0,0,0,0,-1,1147,722,0,0
-70,302,0,0,0,0,0,0,0,0,0,-1,1154,722,0,0
-63,302,0,0,0,0,0,0,0,0,0,-1,1161,722,0,0
-56,302,0,0,0,0,0,0,0,0,0,-1,1168,722,0,0
-49,302,0,0,0,0,0,0,0,0,0,-1,1175,722,0,0
-42,302,0,0,0,0,0,0,0,0,0,-1,1182,722,0,0
-35,302,0,0,0,0,0,0,0,0,0,-1,1189,722,0,0
-28,302,0,0,0,0,0,0,0,0,0,-1,1196,722,0,0
-21,302,0,0,0,0,0,0,0,0,0,-1,1203,722,0,0
-14,302,0,0,0,0,0,0,0,0,0,-1,1210,722,0,0
-7,302,0,0,0,0,0,0,0,0,0,-1,1217,722,0,0
0,302,0,0,0,0,0,0,0,0,0,-1,1224,722,0,0
7,302,0,0,0,0,0,0,0,0,0,-1,1231,722,0,0
14,302,0,0,0,0,0,0,0,0,0,-1,1238,722,0,0
21,302,0,0,0,0,0,0,0,0,0,-1,1245,722,0,0
28,302,0,0,0,0,0,0,0,0,0,-1,1252,722,0,0
35,302,0,0,0,0,0,0,0,0,0,-1,1259,722,0,0
42,302,0,0,0,0,0,0,0,0,0,-1,1266,722,0,0
49,302,0,0,0,0,0,0,0,0,0,-1,1273,722,0,0
56,302,0,0,0,0,0,0,0,0,0,-1,1280,722,0,0
63,302,0,0,0,0,0,0,0,0,0,-1,1287,722,0,0
70,302,0,0,0,0,0,0,0,0,0,-1,1294,722,0,0
77,302,0,0,0,0,0,0,0,0,0,-1,1301,722,0,0
84,302,0,0,0,0,0,0,0,0,0,-1,1308,722,0,0
91,302,0,0,0,0,0,0,0,0,0,-1,1315,722,0,0
98,302,0,0,0,0,0,0,0,0,0,-1,1322,722,0,0
105,302,0,0,0,0,0,0,0,0,0,-1,1329,722,0,0
112,302,0,0,0,0,0,0,0,0,0,-1,1336,722,0,0
119,302,0,0,0,0,0,0,0,0,0,-1,1343,722,0,0
126,302,0,0,0,0,0,0,0,0,0,-1,1350,722,0,0
133,302,0,0,0,0,0,0,0,0,0,-1,1357,722,0,0
140,302,0,0,0,0,0,0,0,0,0,-1,1364,722,0,0
147,302,0,0,0,0,0,0,0,0,0,-1,1371,722,0,0
154,302,0,0,0,0,0,0,0,0,0,-1,1378,722,0,0
161,302,0,0,0,0,0,0,0,0,0,-1,1385,722,0,0
168,302,0,0,0,0,0,0,0,0,0,-1,1392,722,0,0
175,302,0,0,0,0,0,0,0,0,0,-1,1399,722,0,0
182,302,0,0,0,0,0,0,0,0,0,-1,1406,722,0,0
189,302,0,0,0,0,0,0,0,0,0,-1,1413,722,0,0
196,302,0,0,0,0,0,0,0,0,0,-1,1420,722,0,0
203,302,0,0,0,0,0,0,0,0,0,-1,1427,722,0,0
210,302,0,0,0,0,0,0,0,0,0,-1,1434,722,0,0
217,302,0,0,0,0,0,0,0,0,0,-1,1441,722,0,0
224,302,0,0,0,0,0,0,0,0,0,-1,1448,722,0,0
231,302,0,0,0,0,0,0,0,0,0,-1,1455,722,0,0
238,302,0,0,0,0,0,0,0,0,0,-1,1462,722,0,0
245,302,0,0,0,0,0,0,0,0,0,-1,1469,722,0,0
252,302,0,0,0,0,0,0,0,0,0,-1,1476,722,0,0
259,302,0,0,0,0,0,0,0,0,0,-1,1483,722,0,0
266,302,0,0,0,0,0,0,0,0,0,-1,1490,722,0,0
273,302,0,0,0,0,0,0,0,0,0,-1,1497,722,0,0
280,302,0,0,0,0,0,0,0,0,0,-1,1504,722,0,0
287,302,0,0,0,0,0,0,0,0,0,-1,1511,722,0,0
294,302,0,0,0,0,0,0,0,0,0,-1,1518,722,0,0
301,302,0,0,0,0,0,0,0,0,0,-1,1525,722,0,0
308,302,0,0,0,0,0,0,0,0,0,-1,1532,722,0,0
315,302,0,0,0,0,0,0,0,0,0,-1,1539,722,0,0
322,302,0,0,0,0,0,0,0,0,0,-1,1546,722,0,0
329,302,0,0,0,0,0,0,0,0,0,-1,1553,722,0,0
336,302,0,0,0,0,0,0,0,0,0,-1,1560,722,0,0
343,302,0,0,0,0,0,0,0,0,0,-1,1567,722,0,0
350,302,0,0,0,0,0,0,0,0,0,-1,1574,722,0,0
357,302,0,0,0,0,0,0,0,0,0,-1,1581,722,0,0
364,302,0,0,0,0,0,0,0,0,0,-1,1588,722,0,0
371,302,0,0,0,0,0,0,0,0,0,-1,1595,722,0,0
378,302,0,0,0,0,0,0,0,0,0,-1,1602,722,0,0
385,302,0,0,0,0,0,0,0,0,0,-1,1609,722,0,0
392,302,0,0,0,0,0,0,0,0,0,-1,1616,722,0,0
399,302,0,0,0,0,0,0,0,0,0,-1,1623,722,0,0
406,302,0,0,0,0,0,0,0,0,0,-1,1630,722,0,0
413,302,0,0,0,0,0,0,0,0,0,-1,1637,722,0,0
420,302,0,0,0,0,0,0,0,0,0,-1,1644,722,0,0
427,302,0,0,0,0,0,0,0,0,0,-1,1651,722,0,0
434,302,0,0,0,0,0,0,0,0,0,-1,1658,722,0,0
441,302,0,0,0,0,0,0,0,0,0,-1,1665,722,0,0
448,302,0,0,0,0,0,0,0,0,0,-1,1672,722,0,0
455,302,0,0,0,0,0,0,0,0,0,-1,1679,722,0,0
462,302,0,0,0,0,0,0,0,0,0,-1,1686,722,0,0
469,302,0,0,0,0,0,0,0,0,0,-1,1693,722,0,0
476,302,0,0,0,0,0,0,0,0,0,-1,1700,722,0,0
483,302,0,0,0,0,0,0,0,0,0,-1,1707,722,0,0
490,302,0,0,0,0,0,0,0,0,0,-1,1714,722,0,0
497,302,0,0,0,0,0,0,0,0,0,-1,1721,722,0,0
504,302,0,0,0,0,0,0,0,0,0,-1,1728,722,0,0
511,302,0,0,0,0,0,0,0,0,0,-1,1735,722,0,0
518,302,0,0,0,0,0,0,0,0,0,-1,1742,722,0,0
525,302,0,0,0,0,0,0,0,0,0,-1,1749,722,0,0
532,302,0,0,0,0,0,0,0,0,0,-1,1756,722,0,0
539,302,0,0,0,0,0,0,0,0,0,-1,1763,722,0,0
546,302,16.7094,1.58856,0,0,0,0,0,0,0,-1,1770,722,16.7094,-1.58856
553,302,17.0873,1.24792,0,0,0,0,0,0,0,-1,1777,722,17.0873,-1.24792
560,302,17.1541,1.66272,0,0,0,0,0,0,0,-1,1784,722,17.1541,-1.66272
567,302,17.368,2.15222,0,0,0,0,0,0,0,-1,1791,722,17.368,-2.15223
574,302,17.3093,2.68506,0,0,0,0,0,0,0,-1,1798,722,17.3093,-2.68504
581,302,16.7684,1.44183,0,0,0,0,0,0,0,-1,1805,722,16.7684,-1.44181
588,302,16.8214,2.21588,0,0,0,0,0,0,0,-1,1812,722,16.8214,-2.21587
595,302,16.9962,1.91083,0,0,0,0,0,0,0,-1,1819,722,16.9962,-1.91082
602,302,13.8851,2.21979,0,0,0,0,0,0,0,-1,1826,722,13.8851,-2.21981
609,302,10.479,-0.111633,0,0,0,0,0,0,0,-1,1833,722,10.479,0.111624
616,302,10.4417,0.0911255,0.00225722,-0.0118727,0.0161719,0.0128401,-0.0224556,0.579459,0.0206285,0.0475542,1840,722,10.4417,-0.0911066
623,302,10.4191,0.29248,0.00080532,-0.00859776,0.0105876,0.00768836,-0.0154808,0.576447,0.0136266,0.0149066,1847,722,10.419,-0.292502
630,302,10.3911,0.490662,5.85338e-05,-0.00607348,0.00634349,0.00403811,-0.0100531,0.560286,0.00837896,0.0106177,1854,722,10.3911,-0.490666
637,302,10.3658,0.705627,-0.000786278,-0.00387574,0.00304126,0.00108007,-0.00574209,0.550415,0.00423425,0.0138844,1861,722,10.3658,-0.70562
644,302,10.4014,0.906372,-0.000841967,-0.0020168,0.000529761,-0.000638368,-0.0022204,0.366919,0.00131997,0.0153277,1868,722,10.4013,-0.906395
651,302,10.4149,1.10809,8.22017e-05,-0.00148642,-0.000495609,0.000225669,-0.00162989,-0.281774,0.0011691,0.0148094,1875,722,10.4149,-1.1081
658,302,10.41,1.28491,0.00094556,-0.00102926,-0.000942313,0.00132304,-0.00140674,-0.381017,0.00157629,0.0150072,1882,722,10.41,-1.2849
665,302,10.4054,1.45886,0.0020113,-0.00017437,-0.00120458,0.0025449,-0.00070797,-0.416999,0.00197534,0.0144352,1889,722,10.4054,-1.45887
672,302,10.4042,1.64825,0.00312934,0.000425185,-0.00142649,0.00374271,-0.000188185,-0.406086,0.00256017,0.0108855,1896,722,10.4041,-1.64828
679,302,10.4019,1.86676,0.0045956,0.00122914,-0.00178124,0.0053631,0.000461636,-0.40684,0.00343188,0.00860414,1903,722,10.4018,-1.86678
686,302,10.4301,2.05396,0.00649927,0.0021669,-0.00235403,0.00753212,0.00113405,-0.413466,0.00468933,0.0122874,1910,722,10.43,-2.05398
693,302,10.3104,2.20038,0.00907384,0.00338085,-0.00323356,0.0105353,0.00191939,-0.424487,0.0064792,0.0259907,1917,722,10.3105,-2.20038
700,302,10.4607,2.52112,0.012555,0.00515568,-0.00441823,0.014618,0.00309267,-0.436844,0.00889546,0.0494652,1924,722,10.4607,-2.52113
707,302,10.5947,2.87463,0,0,0,0,0,0,0,-1,1931,722,10.5947,-2.87464
714,302,10.741,3.10303,0.0230609,0.0111598,-0.00829597,0.0273198,0.00690095,-0.474283,0.0164041,0.0475559,1938,722,10.741,-3.10305
721,302,11.2629,2.39075,0,0,0,0,0,0,0,-1,1945,722,11.2629,-2.39077
728,302,11.7919,1.5639,0,0,0,0,0,0,0,-1,1952,722,11.7918,-1.56387
735,302,0,0,0,0,0,0,0,0,0,-1,1959,722,0,0
742,302,0,0,0,0,0,0,0,0,0,-1,1966,722,0,0
749,302,0,0,0,0,0,0,0,0,0,-1,1973,722,0,0
756,302,0,0,0,0,0,0,0,0,0,-1,1980,722,0,0
763,302,0,0,0,0,0,0,0,0,0,-1,1987,722,0,0
770,302,0,0,0,0,0,0,0,0,0,-1,1994,722,0,0
777,302,0,0,0,0,0,0,0,0,0,-1,2001,722,0,0
784,302,0,0,0,0,0,0,0,0,0,-1,2008,722,0,0
791,302,0,0,0,0,0,0,0,0,0,-1,2015,722,0,0
798,302,0,0,0,0,0,0,0,0,0,-1,2022,722,0,0
805,302,0,0,0,0,0,0,0,0,0,-1,2029,722,0,0
812,302,0,0,0,0,0,0,0,0,0,-1,2036,722,0,0
-700,295,0,0,0,0,0,0,0,0,0,-1,524,729,0,0
-693,295,0,0,0,0,0,0,0,0,0,-1,531,729,0,0
-686,295,0,0,0,0,0,0,0,0,0,-1,538,729,0,0
-679,295,0,0,0,0,0,0,0,0,0,-1,545,729,0,0
-672,295,0,0,0,0,0,0,0,0,0,-1,552,729,0,0
-665,295,0,0,0,0,0,0,0,0,0,-1,559,729,0,0
-658,295,0,0,0,0,0,0,0,0,0,-1,566,729,0,0
-651,295,0,0,0,0,0,0,0,0,0,-1,573,729,0,0
-644,295,0,0,0,0,0,0,0,0,0,-1,580,729,0,0
-637,295,0,0,0,0,0,0,0,0,0,-1,587,729,0,0
-630,295,0,0,0,0,0,0,0,0,0,-1,594,729,0,0
-623,295,0,0,0,0,0,0,0,0,0,-1,601,729,0,0
-616,295,-4.55151,2.53369,0,0,0,0,0,0,0,-1,608,729,-4.55153,-2.53366
-609,295,-4.34985,1.65686,0,0,0,0,0,0,0,-1,615,729,-4.34987,-1.65683
-602,295,-2.90662,-3.08502,0,0,0,0,0,0,0,-1,622,729,-2.90659,3.08502
-595,295,-3.59741,-3.16162,0,0,0,0,0,0,0,-1,629,729,-3.59741,3.16159
-588,295,-4.45154,1.31915,0,0,0,0,0,0,0,-1,636,729,-4.45156,-1.31916
-581,295,-4.78729,0.789429,0,0,0,0,0,0,0,-1,643,729,-4.78726,-0.789446
-574,295,-5.11517,0.387573,-0.00599386,-0.00152814,0.00954168,0.00603846,-0.0135605,0.900336,0.0115899,0.0461923,650,729,-5.11514,-0.387603
-567,295,-5.26807,0.0333862,-0.007655,-0.00283309,0.00737182,0.00251201,-0.0130001,0.943441,0.00961409,0.0402557,657,729,-5.26809,-0.0334146
-560,295,-5.61115,0.12384,-0.00672674,-0.00323114,0.00534912,0.000648489,-0.0106064,0.943303,0.00729669,0.0204077,664,729,-5.61113,-0.123849
-553,295,-5.60675,-0.003479,-0.00574925,-0.0032009,0.00383224,-0.000436561,-0.00851359,0.945893,0.00553595,0.0152117,671,729,-5.60672,0.00348588
-546,295,-5.63214,-0.144104,-0.00468807,-0.00325568,0.00257585,-0.00129831,-0.00664544,0.920995,0.00406719,0.0207703,678,729,-5.63217,0.14413
-539,295,-5.65479,-0.274658,-0.00355669,-0.00228792,0.00211553,-0.0007137,-0.00513091,0.931067,0.00320927,0.019017,685,729,-5.6548,0.274659
-532,295,-5.66754,-0.464294,-0.00282944,-0.00132024,0.00188817,-4.14676e-05,-0.00410821,0.975499,0.00272509,0.0148032,692,729,-5.66755,0.464267
-525,295,-5.65881,-0.671692,-0.00246537,-0.000279169,0.00216266,0.00105095,-0.00379548,1.01939,0.00294385,0.0142737,699,729,-5.6588,0.671711
-518,295,-5.64203,-0.847351,-0.00222186,0.000849577,0.00252157,0.00226627,-0.00363856,1.05892,0.00343971,0.0105844,706,729,-5.64204,0.847364
-511,295,-5.62286,-1.01434,-0.00226376,0.00146223,0.00332782,0.00341305,-0.00421457,1.04058,0.0044119,0.00911907,713,729,-5.62286,1.01435
-504,295,-5.63513,-1.18262,-0.00284033,0.00196502,0.00456725,0.00472302,-0.00559833,1.02754,0.00596617,0.0109772,720,729,-5.63511,1.1826
-497,295,-5.65601,-1.34747,-0.00401422,0.00177228,0.00578566,0.00534779,-0.00758972,1.01725,0.00750677,0.0150082,727,729,-5.65603,1.34745
-490,295,-5.48529,-1.29321,-0.00531944,0.00157033,0.00745615,0.00633893,-0.010088,1.0018,0.0095661,0.0436292,734,729,-5.4853,1.29321
-483,295,-5.18939,-0.953857,0,0,0,0,0,0,0,-1,741,729,-5.18937,0.953869
-476,295,-6.51385,1.5943,0,0,0,0,0,0,0,-1,748,729,-6.51386,-1.59427
-469,295,-6.47876,1.93091,0,0,0,0,0,0,0,-1,755,729,-6.47876,-1.93092
-462,295,-12.1482,-1.06091,0,0,0,0,0,0,0,-1,762,729,-12.1482,1.06094
-455,295,-5.97644,2.75354,0,0,0,0,0,0,0,-1,769,729,-5.97645,-2.75355
-448,295,-6.4715,3.06488,0,0,0,0,0,0,0,-1,776,729,-6.47149,-3.06488
-441,295,-6.94537,3.29065,0,0,0,0,0,0,0,-1,783,729,-6.9454,-3.29062
-434,295,-0.990417,3.5564,0,0,0,0,0,0,0,-1,790,729,-0.990417,-3.55639
-427,295,0,0,0,0,0,0,0,0,0,-1,797,729,0,0
-420,295,0,0,0,0,0,0,0,0,0,-1,804,729,0,0
-413,295,0,0,0,0,0,0,0,0,0,-1,811,729,0,0
-406,295,0,0,0,0,0,0,0,0,0,-1,818,729,0,0
-399,295,0,0,0,0,0,0,0,0,0,-1,825,729,0,0
-392,295,0,0,0,0,0,0,0,0,0,-1,832,729,0,0
-385,295,0,0,0,0,0,0,0,0,0,-1,839,729,0,0
-378,295,0,0,0,0,0,0,0,0,0,-1,846,729,0,0
-371,295,0,0,0,0,0,0,0,0,0,-1,853,729,0,0
-364,295,0,0,0,0,0,0,0,0,0,-1,860,729,0,0
-357,295,0,0,0,0,0,0,0,0,0,-1,867,729,0,0
-350,295,0,0,0,0,0,0,0,0,0,-1,874,729,0,0
-343,295,0,0,0,0,0,0,0,0,0,-1,881,729,0,0
-336,295,0,0,0,0,0,0,0,0,0,-1,888,729,0,0
-329,295,0,0,0,0,0,0,0,0,0,-1,895,729,0,0
-322,295,0,0,0,0,0,0,0,0,0,-1,902,729,0,0
-315,295,0,0,0,0,0,0,0,0,0,-1,909,729,0,0
-308,295,0,0,0,0,0,0,0,0,0,-1,916,729,0,0
-301,295,0,0,0,0,0,0,0,0,0,-1,923,729,0,0
-294,295,0,0,0,0,0,0,0,0,0,-1,930,729,0,0
-287,295,0,0,0,0,0,0,0,0,0,-1,937,729,0,0
-280,295,0,0,0,0,0,0,0,0,0,-1,944,729,0,0
-273,295,0,0,0,0,0,0,0,0,0,-1,951,729,0,0
-266,295,0,0,0,0,0,0,0,0,0,-1,958,729,0,0
-259,295,0,0,0,0,0,0,0,0,0,-1,965,729,0,0
-252,295,0,0,0,0,0,0,0,0,0,-1,972,729,0,0
-245,295,0,0,0,0,0,0,0,0,0,-1,979,729,0,0
-238,295,0,0,0,0,0,0,0,0,0,-1,986,729,0,0
-231,295,0,0,0,0,0,0,0,0,0,-1,993,729,0,0
-224,295,0,0,0,0,0,0,0,0,0,-1,1000,729,0,0
-217,295,0,0,0,0,0,0,0,0,0,-1,1007,729,0,0
-210,295,0,0,0,0,0,0,0,0,0,-1,1014,729,0,0
-203,295,0,0,0,0,0,0,0,0,0,-1,1021,729,0,0
-196,295,0,0,0,0,0,0,0,0,0,-1,1028,729,0,0
-189,295,0,0,0,0,0,0,0,0,0,-1,1035,729,0,0
-182,295,0,0,0,0,0,0,0,0,0,-1,1042,729,0,0
-175,295,0,0,0,0,0,0,0,0,0,-1,1049,729,0,0
-168,295,0,0,0,0,0,0,0,0,0,-1,1056,729,0,0
-161,295,0,0,0,0,0,0,0,0,0,-1,1063,729,0,0
-154,295,0,0,0,0,0,0,0,0,0,-1,1070,729,0,0
-147,295,0,0,0,0,0,0,0,0,0,-1,1077,729,0,0
-140,295,0,0,0,0,0,0,0,0,0,-1,1084,729,0,0
-133,295,0,0,0,0,0,0,0,0,0,-1,1091,729,0,0
-126,295,0,0,0,0,0,0,0,0,0,-1,1098,729,0,0
-119,295,0,0,0,0,0,0,0,0,0,-1,1105,729,0,0
-112,295,0,0,0,0,0,0,0,0,0,-1,1112,729,0,0
-105,295,0,0,0,0,0,0,0,0,0,-1,1119,729,0,0
-98,295,0,0,0,0,0,0,0,0,0,-1,1126,729,0,0
-91,295,0,0,0,0,0,0,0,0,0,-1,1133,729,0,0
-84,295,0,0,0,0,0,0,0,0,0,-1,1140,729,0,0
-77,295,0,0,0,0,0,0,0,0,0,-1,1147,729,0,0
-70,295,0,0,0,0,0,0,0,0,0,-1,1154,729,0,0
-63,295,0,0,0,0,0,0,0,0,0,-1,1161,729,0,0
-56,295,0,0,0,0,0,0,0,0,0,-1,1168,729,0,0
-49,295,0,0,0,0,0,0,0,0,0,-1,1175,729,0,0
-42,295,0,0,0,0,0,0,0,0,0,-1,1182,729,0,0
-35,295,0,0,0,0,0,0,0,0,0,-1,1189,729,0,0
-28,295,0,0,0,0,0,0,0,0,0,-1,1196,729,0,0
-21,295,0,0,0,0,0,0,0,0,0,-1,1203,729,0,0
-14,295,0,0,0,0,0,0,0,0,0,-1,1210,729,0,0
-7,295,0,0,0,0,0,0,0,0,0,-1,1217,729,0,0
0,295,0,0,0,0,0,0,0,0,0,-1,1224,729,0,0
7,295,0,0,0,0,0,0,0,0,0,-1,1231,729,0,0
14,295,0,0,0,0,0,0,0,0,0,-1,1238,729,0,0
21,295,0,0,0,0,0,0,0,0,0,-1,1245,729,0,0
28,295,0,0,0,0,0,0,0,0,0,-1,1252,729,0,0
35,295,0,0,0,0,0,0,0,0,0,-1,1259,729,0,0
42,295,0,0,0,0,0,0,0,0,0,-1,1266,729,0,0
49,295,0,0,0,0,0,0,0,0,0,-1,1273,729,0,0
56,295,0,0,0,0,0,0,0,0,0,-1,1280,729,0,0
63,295,0,0,0,0,0,0,0,0,0,-1,1287,729,0,0
70,295,0,0,0,0,0,0,0,0,0,-1,1294,729,0,0
77,295,0,0,0,0,0,0,0,0,0,-1,1301,729,0,0
84,295,0,0,0,0,0,0,0,0,0,-1,1308,729,0,0
91,295,0,0,0,0,0,0,0,0,0,-1,1315,729,0,0
98,295,0,0,0,0,0,0,0,0,0,-1,1322,729,0,0
105,295,0,0,0,0,0,0,0,0,0,-1,1329,729,0,0
112,295,0,0,0,0,0,0,0,0,0,-1,1336,729,0,0
119,295,0,0,0,0,0,0,0,0,0,-1,1343,729,0,0
126,295,0,0,0,0,0,0,0,0,0,-1,1350,729,0,0
133,295,0,0,0,0,0,0,0,0,0,-1,1357,729,0,0
140,295,0,0,0,0,0,0,0,0,0,-1,1364,729,0,0
147,295,0,0,0,0,0,0,0,0,0,-1,1371,729,0,0
154,295,0,0,0,0,0,0,0,0,0,-1,1378,729,0,0
161,295,0,0,0,0,0,0,0,0,0,-1,1385,729,0,0
168,295,0,0,0,0,0,0,0,0,0,-1,1392,729,0,0
175,295,0,0,0,0,0,0,0,0,0,-1,1399,729,0,0
182,295,0,0,0,0,0,0,0,0,0,-1,1406,729,0,0
189,295,0,0,0,0,0,0,0,0,0,-1,1413,729,0,0
196,295,0,0,0,0,0,0,0,0,0,-1,1420,729,0,0
203,295,0,0,0,0,0,0,0,0,0,-1,1427,729,0,0
210,295,0,0,0,0,0,0,0,0,0,-1,1434,729,0,0
217,295,0,0,0,0,0,0,0,0,0,-1,1441,729,0,0
224,295,0,0,0,0,0,0,0,0,0,-1,1448,729,0,0
231,295,0,0,0,0,0,0,0,0,0,-1,1455,729,0,0
238,295,0,0,0,0,0,0,0,0,0,-1,1462,729,0,0
245,295,0,0,0,0,0,0,0,0,0,-1,1469,729,0,0
252,295,0,0,0,0,0,0,0,0,0,-1,1476,729,0,0
259,295,0,0,0,0,0,0,0,0,0,-1,1483,729,0,0
266,295,0,0,0,0,0,0,0,0,0,-1,1490,729,0,0
273,295,0,0,0,0,0,0,0,0,0,-1,1497,729,0,0
280,295,0,0,0,0,0,0,0,0,0,-1,1504,729,0,0
287,295,0,0,0,0,0,0,0,0,0,-1,1511,729,0,0
294,295,0,0,0,0,0,0,0,0,0,-1,1518,729,0,0
301,295,0,0,0,0,0,0,0,0,0,-1,1525,729,0,0
308,295,0,0,0,0,0,0,0,0,0,-1,1532,729,0,0
315,295,0,0,0,0,0,0,0,0,0,-1,1539,729,0,0
322,295,0,0,0,0,0,0,0,0,0,-1,1546,729,0,0
329,295,0,0,0,0,0,0,0,0,0,-1,1553,729,0,0
336,295,0,0,0,0,0,0,0,0,0,-1,1560,729,0,0
343,295,0,0,0,0,0,0,0,0,0,-1,1567,729,0,0
350,295,0,0,0,0,0,0,0,0,0,-1,1574,729,0,0
357,295,0,0,0,0,0,0,0,0,0,-1,1581,729,0,0
364,295,0,0,0,0,0,0,0,0,0,-1,1588,729,0,0
371,295,0,0,0,0,0,0,0,0,0,-1,1595,729,0,0
378,295,0,0,0,0,0,0,0,0,0,-1,1602,729,0,0
385,295,0,0,0,0,0,0,0,0,0,-1,1609,729,0,0
392,295,0,0,0,0,0,0,0,0,0,-1,1616,729,0,0
399,295,0,0,0,0,0,0,0,0,0,-1,1623,729,0,0
406,295,0,0,0,0,0,0,0,0,0,-1,1630,729,0,0
413,295,0,0,0,0,0,0,0,0,0,-1,1637,729,0,0
420,295,0,0,0,0,0,0,0,0,0,-1,1644,729,0,0
427,295,0,0,0,0,0,0,0,0,0,-1,1651,729,0,0
434,295,0,0,0,0,0,0,0,0,0,-1,1658,729,0,0
441,295,0,0,0,0,0,0,0,0,0,-1,1665,729,0,0
448,295,0,0,0,0,0,0,0,0,0,-1,1672,729,0,0
455,295,0,0,0,0,0,0,0,0,0,-1,1679,729,0,0
462,295,0,0,0,0,0,0,0,0,0,-1,1686,729,0,0
469,295,0,0,0,0,0,0,0,0,0,-1,1693,729,0,0
476,295,0,0,0,0,0,0,0,0,0,-1,1700,729,0,0
483,295,0,0,0,0,0,0,0,0,0,-1,1707,729,0,0
490,295,0,0,0,0,0,0,0,0,0,-1,1714,729,0,0
497,295,0,0,0,0,0,0,0,0,0,-1,1721,729,0,0
504,295,0,0,0,0,0,0,0,0,0,-1,1728,729,0,0
511,295,0,0,0,0,0,0,0,0,0,-1,1735,729,0,0
518,295,0,0,0,0,0,0,0,0,0,-1,1742,729,0,0
525,295,0,0,0,0,0,0,0,0,0,-1,1749,729,0,0
532,295,0,0,0,0,0,0,0,0,0,-1,1756,729,0,0
539,295,0,0,0,0,0,0,0,0,0,-1,1763,729,0,0
546,295,15.9093,2.12421,0,0,0,0,0,0,0,-1,1770,729,15.9093,-2.1242
553,295,16.0067,1.63196,0,0,0,0,0,0,0,-1,1777,729,16.0067,-1.63195
560,295,16.0426,1.89343,0,0,0,0,0,0,0,-1,1784,729,16.0425,-1.89343
567,295,16.3573,1.78735,0,0,0,0,0,0,0,-1,1791,729,16.3573,-1.78733
574,295,16.1506,1.59796,0,0,0,0,0,0,0,-1,1798,729,16.1507,-1.59799
581,295,18.985,-1.05603,0,0,0,0,0,0,0,-1,1805,729,18.985,1.05604
588,295,19.2269,-0.67627,0,0,0,0,0,0,0,-1,1812,729,19.227,0.676241
595,295,16.736,1.99719,0,0,0,0,0,0,0,-1,1819,729,16.7359,-1.99718
602,295,17.0894,2.23926,0,0,0,0,0,0,0,-1,1826,729,17.0893,-2.23925
609,295,11.7737,2.19989,0,0,0,0,0,0,0,-1,1833,729,11.7736,-2.19988
616,295,10.7028,0.177673,0,0,0,0,0,0,0,-1,1840,729,10.7028,-0.177661
623,295,10.6296,0.338989,2.2126e-05,-0.00978691,0.010924,0.0070921,-0.0168569,0.574401,0.0142049,0.0281315,1847,729,10.6296,-0.339009
630,295,10.5729,0.516602,-0.00083428,-0.00720984,0.00601577,0.00278613,-0.0108303,0.541756,0.00830613,0.011476,1854,729,10.5729,-0.516586
637,295,10.5778,0.721802,-0.00190312,-0.0049072,0.00225041,-0.000699525,-0.0061108,0.491126,0.00386187,0.0125517,1861,729,10.5778,-0.721827
644,295,10.6068,0.917542,-0.00198439,-0.00274501,-0.000612524,-0.00164371,-0.00308568,-0.507581,0.00178279,0.0126158,1868,729,10.6068,-0.917567
651,295,10.6123,1.11176,-0.000836221,-0.00215606,-0.0015206,0.000161482,-0.00315377,-0.580669,0.00215835,0.0131939,1875,729,10.6123,-1.11174
658,295,10.5964,1.29016,0.000175899,-0.00160651,-0.00166222,0.00117075,-0.00260136,-0.539322,0.00222943,0.012029,1882,729,10.5965,-1.29018
665,295,10.5856,1.45984,0.00119569,-0.000670809,-0.00148451,0.00201593,-0.00149105,-0.504786,0.0020323,0.0108908,1889,729,10.5856,-1.45986
672,295,10.5785,1.64941,0.00222982,-1.6054e-06,-0.00136581,0.0028777,-0.000649481,-0.442921,0.00216764,0.012072,1896,729,10.5785,-1.64939
679,295,10.5846,1.85992,0.00355388,0.000869888,-0.00142681,0.00417064,0.000253127,-0.40801,0.00270001,0.00912838,1903,729,10.5846,-1.85995
686,295,10.611,2.03583,0.00517694,0.00174872,-0.00181867,0.00596198,0.000963684,-0.407494,0.00369555,0.00851449,1910,729,10.611,-2.03583
693,295,10.6257,2.16699,0.00729485,0.00275321,-0.0025099,0.00840873,0.00163933,-0.417683,0.00514714,0.0189791,1917,729,10.6257,-2.16702
700,295,10.6548,2.27728,0.0100253,0.00422519,-0.00349269,0.011665,0.00258551,-0.43892,0.00707409,0.0348981,1924,729,10.6548,-2.27728
707,295,10.7703,2.56488,0.0135109,0.00653427,-0.00469737,0.0158735,0.00417164,-0.46602,0.00950213,0.043093,1931,729,10.7702,-2.56487
714,295,10.924,2.69153,0.0179922,0.00964752,-0.00634136,0.0214107,0.00622899,-0.494424,0.0127166,0.0456492,1938,729,10.9239,-2.69153
721,295,11.3392,2.5708,0,0,0,0,0,0,0,-1,1945,729,11.3393,-2.57081
728,295,11.3572,1.74512,0,0,0,0,0,0,0,-1,1952,729,11.3572,-1.7451
735,295,0,0,0,0,0,0,0,0,0,-1,1959,729,0,0
742,295,0,0,0,0,0,0,0,0,0,-1,1966,729,0,0
749,295,0,0,0,0,0,0,0,0,0,-1,1973,729,0,0
756,295,0,0,0,0,0,0,0,0,0,-1,1980,729,0,0
763,295,0,0,0,0,0,0,0,0,0,-1,1987,729,0,0
770,295,0,0,0,0,0,0,0,0,0,-1,1994,729,0,0
777,295,0,0,0,0,0,0,0,0,0,-1,2001,729,0,0
784,295,0,0,0,0,0,0,0,0,0,-1,2008,729,0,0
791,295,0,0,0,0,0,0,0,0,0,-1,2015,729,0,0
798,295,0,0,0,0,0,0,0,0,0,-1,2022,729,0,0
805,295,0,0,0,0,0,0,0,0,0,-1,2029,729,0,0
812,295,0,0,0,0,0,0,0,0,0,-1,2036,729,0,0
-700,288,0,0,0,0,0,0,0,0,0,-1,524,736,0,0
-693,288,0,0,0,0,0,0,0,0,0,-1,531,736,0,0
-686,288,0,0,0,0,0,0,0,0,0,-1,538,736,0,0
-679,288,0,0,0,0,0,0,0,0,0,-1,545,736,0,0
-672,288,0,0,0,0,0,0,0,0,0,-1,552,736,0,0
-665,288,0,0,0,0,0,0,0,0,0,-1,559,736,0,0
-658,288,0,0,0,0,0,0,0,0,0,-1,566,736,0,0
-651,288,0,0,0,0,0,0,0,0,0,-1,573,736,0,0
-644,288,0,0,0,0,0,0,0,0,0,-1,580,736,0,0
-637,288,0,0,0,0,0,0,0,0,0,-1,587,736,0,0
-630,288,0,0,0,0,0,0,0,0,0,-1,594,736,0,0
-623,288,0,0,0,0,0,0,0,0,0,-1,601,736,0,0
-616,288,-4.48444,2.45593,0,0,0,0,0,0,0,-1,608,736,-4.48443,-2.45591
-609,288,-3.82788,3.69659,0,0,0,0,0,0,0,-1,615,736,-3.82789,-3.6966
-602,288,-4.77832,3.04047,0,0,0,0,0,0,0,-1,622,736,-4.7783,-3.04046
-595,288,-5.7287,2.38434,0,0,0,0,0,0,0,-1,629,736,-5.72871,-2.38432
-588,288,-5.80566,0.657715,0,0,0,0,0,0,0,-1,636,736,-5.80564,-0.657744
-581,288,-5.54413,0.706726,0,0,0,0,0,0,0,-1,643,736,-5.54411,-0.706731
-574,288,-5.60101,0.495239,-0.00280656,0.00163734,0.00906816,0.0087518,-0.00992102,0.905545,0.0107878,0.036838,650,736,-5.60102,-0.495234
-567,288,-5.71124,0.295593,-0.00606422,-9.79262e-05,0.00735818,0.00485883,-0.011021,0.977983,0.00939549,0.0227184,657,736,-5.71122,-0.295605
-560,288,-5.82086,0.145691,-0.00565185,-0.00123344,0.00528679,0.00228716,-0.00917246,0.983307,0.00700298,0.0120178,664,736,-5.82085,-0.145689
-553,288,-5.78552,-0.00115967,-0.00510351,-0.00181959,0.00371701,0.000601973,-0.00752508,0.993381,0.00522894,0.0170007,671,736,-5.78551,0.0011355
-546,288,-5.79865,-0.155457,-0.00451561,-0.00244784,0.00250686,-0.000770035,-0.00619342,0.980983,0.0038977,0.0191049,678,736,-5.79867,0.155454
-539,288,-5.81647,-0.303894,-0.00375443,-0.00162786,0.00224554,-0.000206586,-0.00517571,1.00651,0.00338371,0.0159471,685,736,-5.81648,0.303879
-532,288,-5.80182,-0.487854,-0.00348413,-0.000730742,0.00221907,0.000503992,-0.00471887,1.06304,0.00332666,0.0117701,692,736,-5.80182,0.487859
-525,288,-5.80298,-0.674561,-0.00360942,0.000345373,0.00275966,0.00176295,-0.005027,1.09627,0.00406836,0.0119665,699,736,-5.803,0.674578
-518,288,-5.81274,-0.856567,-0.00389464,0.00159721,0.00339042,0.0032142,-0.00551163,1.12577,0.00509574,0.011954,706,736,-5.81274,0.856592
-511,288,-5.80499,-1.03601,-0.00448186,0.00252365,0.00441842,0.00465931,-0.00661752,1.12055,0.00654332,0.0092015,713,736,-5.80498,1.03598
-504,288,-5.80127,-1.20178,-0.00557851,0.00362158,0.0059043,0.00650627,-0.0084632,1.11633,0.00866721,0.010412,720,736,-5.80128,1.20178
-497,288,-5.79205,-1.33112,-0.00713269,0.00431394,0.00738276,0.00793201,-0.0107508,1.11512,0.0108273,0.0188674,727,736,-5.79203,1.33109
-490,288,-5.71271,-0.858887,-0.00867256,0.00515923,0.0091121,0.00968274,-0.0131961,1.11001,0.0132609,0.0478181,734,736,-5.7127,0.858868
-483,288,-5.73804,-0.30835,0,0,0,0,0,0,0,-1,741,736,-5.73803,0.308334
-476,288,-10.3301,-1.9516,0,0,0,0,0,0,0,-1,748,736,-10.3301,1.95158
-469,288,-11.4283,-1.16522,0,0,0,0,0,0,0,-1,755,736,-11.4283,1.16522
-462,288,-11.8644,-0.677063,0,0,0,0,0,0,0,-1,762,736,-11.8645,0.677077
-455,288,-12.3007,-0.188904,0,0,0,0,0,0,0,-1,769,736,-12.3007,0.188929
-448,288,-7.1665,2.63208,0,0,0,0,0,0,0,-1,776,736,-7.1665,-2.63207
-441,288,-7.62317,2.90613,0,0,0,0,0,0,0,-1,783,736,-7.62318,-2.90612
-434,288,-8.06256,3.15631,0,0,0,0,0,0,0,-1,790,736,-8.06255,-3.1563
-427,288,0,0,0,0,0,0,0,0,0,-1,797,736,0,0
-420,288,0,0,0,0,0,0,0,0,0,-1,804,736,0,0
-413,288,0,0,0,0,0,0,0,0,0,-1,811,736,0,0
-406,288,0,0,0,0,0,0,0,0,0,-1,818,736,0,0
-399,288,0,0,0,0,0,0,0,0,0,-1,825,736,0,0
-392,288,0,0,0,0,0,0,0,0,0,-1,832,736,0,0
-385,288,0,0,0,0,0,0,0,0,0,-1,839,736,0,0
-378,288,0,0,0,0,0,0,0,0,0,-1,846,736,0,0
-371,288,0,0,0,0,0,0,0,0,0,-1,853,736,0,0
-364,288,0,0,0,0,0,0,0,0,0,-1,860,736,0,0
-357,288,0,0,0,0,0,0,0,0,0,-1,867,736,0,0
-350,288,0,0,0,0,0,0,0,0,0,-1,874,736,0,0
-343,288,0,0,0,0,0,0,0,0,0,-1,881,736,0,0
-336,288,0,0,0,0,0,0,0,0,0,-1,888,736,0,0
-329,288,0,0,0,0,0,0,0,0,0,-1,895,736,0,0
-322,288,0,0,0,0,0,0,0,0,0,-1,902,736,0,0
-315,288,0,0,0,0,0,0,0,0,0,-1,909,736,0,0
-308,288,0,0,0,0,0,0,0,0,0,-1,916,736,0,0
-301,288,0,0,0,0,0,0,0,0,0,-1,923,736,0,0
-294,288,0,0,0,0,0,0,0,0,0,-1,930,736,0,0
-287,288,0,0,0,0,0,0,0,0,0,-1,937,736,0,0
-280,288,0,0,0,0,0,0,0,0,0,-1,944,736,0,0
-273,288,0,0,0,0,0,0,0,0,0,-1,951,736,0,0
-266,288,0,0,0,0,0,0,0,0,0,-1,958,736,0,0
-259,288,0,0,0,0,0,0,0,0,0,-1,965,736,0,0
-252,288,0,0,0,0,0,0,0,0,0,-1,972,736,0,0
-245,288,0,0,0,0,0,0,0,0,0,-1,979,736,0,0
-238,288,0,0,0,0,0,0,0,0,0,-1,986,736,0,0
-231,288,0,0,0,0,0,0,0,0,0,-1,993,736,0,0
-224,288,0,0,0,0,0,0,0,0,0,-1,1000,736,0,0
-217,288,0,0,0,0,0,0,0,0,0,-1,1007,736,0,0
-210,288,0,0,0,0,0,0,0,0,0,-1,1014,736,0,0
-203,288,0,0,0,0,0,0,0,0,0,-1,1021,736,0,0
-196,288,0,0,0,0,0,0,0,0,0,-1,1028,736,0,0
-189,288,0,0,0,0,0,0,0,0,0,-1,1035,736,0,0
-182,288,0,0,0,0,0,0,0,0,0,-1,1042,736,0,0
-175,288,0,0,0,0,0,0,0,0,0,-1,1049,736,0,0
-168,288,0,0,0,0,0,0,0,0,0,-1,1056,736,0,0
-161,288,0,0,0,0,0,0,0,0,0,-1,1063,736,0,0
-154,288,0,0,0,0,0,0,0,0,0,-1,1070,736,0,0
-147,288,0,0,0,0,0,0,0,0,0,-1,1077,736,0,0
-140,288,0,0,0,0,0,0,0,0,0,-1,1084,736,0,0
-133,288,0,0,0,0,0,0,0,0,0,-1,1091,736,0,0
-126,288,0,0,0,0,0,0,0,0,0,-1,1098,736,0,0
-119,288,0,0,0,0,0,0,0,0,0,-1,1105,736,0,0
-112,288,0,0,0,0,0,0,0,0,0,-1,1112,736,0,0
-105,288,0,0,0,0,0,0,0,0,0,-1,1119,736,0,0
-98,288,0,0,0,0,0,0,0,0,0,-1,1126,736,0,0
-91,288,0,0,0,0,0,0,0,0,0,-1,1133,736,0,0
-84,288,0,0,0,0,0,0,0,0,0,-1,1140,736,0,0
-77,288,0,0,0,0,0,0,0,0,0,-1,1147,736,0,0
-70,288,0,0,0,0,0,0,0,0,0,-1,1154,736,0,0
-63,288,0,0,0,0,0,0,0,0,0,-1,1161,736,0,0
-56,288,0,0,0,0,0,0,0,0,0,-1,1168,736,0,0
-49,288,0,0,0,0,0,0,0,0,0,-1,1175,736,0,0
-42,288,0,0,0,0,0,0,0,0,0,-1,1182,736,0,0
-35,288,0,0,0,0,0,0,0,0,0,-1,1189,736,0,0
-28,288,0,0,0,0,0,0,0,0,0,-1,1196,736,0,0
-21,288,0,0,0,0,0,0,0,0,0,-1,1203,736,0,0
-14,288,0,0,0,0,0,0,0,0,0,-1,1210,736,0,0
-7,288,0,0,0,0,0,0,0,0,0,-1,1217,736,0,0
0,288,0,0,0,0,0,0,0,0,0,-1,1224,736,0,0
7,288,0,0,0,0,0,0,0,0,0,-1,1231,736,0,0
14,288,0,0,0,0,0,0,0,0,0,-1,1238,736,0,0
21,288,0,0,0,0,0,0,0,0,0,-1,1245,736,0,0
28,288,0,0,0,0,0,0,0,0,0,-1,1252,736,0,0
35,288,0,0,0,0,0,0,0,0,0,-1,1259,736,0,0
42,288,0,0,0,0,0,0,0,0,0,-1,1266,736,0,0
49,288,0,0,0,0,0,0,0,0,0,-1,1273,736,0,0
56,288,0,0,0,0,0,0,0,0,0,-1,1280,736,0,0
63,288,0,0,0,0,0,0,0,0,0,-1,1287,736,0,0
70,288,0,0,0,0,0,0,0,0,0,-1,1294,736,0,0
77,288,0,0,0,0,0,0,0,0,0,-1,1301,736,0,0
84,288,0,0,0,0,0,0,0,0,0,-1,1308,736,0,0
91,288,0,0,0,0,0,0,0,0,0,-1,1315,736,0,0
98,288,0,0,0,0,0,0,0,0,0,-1,1322,736,0,0
105,288,0,0,0,0,0,0,0,0,0,-1,1329,736,0,0
112,288,0,0,0,0,0,0,0,0,0,-1,1336,736,0,0
119,288,0,0,0,0,0,0,0,0,0,-1,1343,736,0,0
126,288,0,0,0,0,0,0,0,0,0,-1,1350,736,0,0
133,288,0,0,0,0,0,0,0,0,0,-1,1357,736,0,0
140,288,0,0,0,0,0,0,0,0,0,-1,1364,736,0,0
147,288,0,0,0,0,0,0,0,0,0,-1,1371,736,0,0
154,288,0,0,0,0,0,0,0,0,0,-1,1378,736,0,0
161,288,0,0,0,0,0,0,0,0,0,-1,1385,736,0,0
168,288,0,0,0,0,0,0,0,0,0,-1,1392,736,0,0
175,288,0,0,0,0,0,0,0,0,0,-1,1399,736,0,0
182,288,0,0,0,0,0,0,0,0,0,-1,1406,736,0,0
189,288,0,0,0,0,0,0,0,0,0,-1,1413,736,0,0
196,288,0,0,0,0,0,0,0,0,0,-1,1420,736,0,0
203,288,0,0,0,0,0,0,0,0,0,-1,1427,736,0,0
210,288,0,0,0,0,0,0,0,0,0,-1,1434,736,0,0
217,288,0,0,0,0,0,0,0,0,0,-1,1441,736,0,0
224,288,0,0,0,0,0,0,0,0,0,-1,1448,736,0,0
231,288,0,0,0,0,0,0,0,0,0,-1,1455,736,0,0
238,288,0,0,0,0,0,0,0,0,0,-1,1462,736,0,0
245,288,0,0,0,0,0,0,0,0,0,-1,1469,736,0,0
252,288,0,0,0,0,0,0,0,0,0,-1,1476,736,0,0
259,288,0,0,0,0,0,0,0,0,0,-1,1483,736,0,0
266,288,0,0,0,0,0,0,0,0,0,-1,1490,736,0,0
273,288,0,0,0,0,0,0,0,0,0,-1,1497,736,0,0
280,288,0,0,0,0,0,0,0,0,0,-1,1504,736,0,0
287,288,0,0,0,0,0,0,0,0,0,-1,1511,736,0,0
294,288,0,0,0,0,0,0,0,0,0,-1,1518,736,0,0
301,288,0,0,0,0,0,0,0,0,0,-1,1525,736,0,0
308,288,0,0,0,0,0,0,0,0,0,-1,1532,736,0,0
315,288,0,0,0,0,0,0,0,0,0,-1,1539,736,0,0
322,288,0,0,0,0,0,0,0,0,0,-1,1546,736,0,0
329,288,0,0,0,0,0,0,0,0,0,-1,1553,736,0,0
336,288,0,0,0,0,0,0,0,0,0,-1,1560,736,0,0
343,288,0,0,0,0,0,0,0,0,0,-1,1567,736,0,0
350,288,0,0,0,0,0,0,0,0,0,-1,1574,736,0,0
357,288,0,0,0,0,0,0,0,0,0,-1,1581,736,0,0
364,288,0,0,0,0,0,0,0,0,0,-1,1588,736,0,0
371,288,0,0,0,0,0,0,0,0,0,-1,1595,736,0,0
378,288,0,0,0,0,0,0,0,0,0,-1,1602,736,0,0
385,288,0,0,0,0,0,0,0,0,0,-1,1609,736,0,0
392,288,0,0,0,0,0,0,0,0,0,-1,1616,736,0,0
399,288,0,0,0,0,0,0,0,0,0,-1,1623,736,0,0
406,288,0,0,0,0,0,0,0,0,0,-1,1630,736,0,0
413,288,0,0,0,0,0,0,0,0,0,-1,1637,736,0,0
420,288,0,0,0,0,0,0,0,0,0,-1,1644,736,0,0
427,288,0,0,0,0,0,0,0,0,0,-1,1651,736,0,0
434,288,0,0,0,0,0,0,0,0,0,-1,1658,736,0,0
441,288,0,0,0,0,0,0,0,0,0,-1,1665,736,0,0
448,288,0,0,0,0,0,0,0,0,0,-1,1672,736,0,0
455,288,0,0,0,0,0,0,0,0,0,-1,1679,736,0,0
462,288,0,0,0,0,0,0,0,0,0,-1,1686,736,0,0
469,288,0,0,0,0,0,0,0,0,0,-1,1693,736,0,0
476,288,0,0,0,0,0,0,0,0,0,-1,1700,736,0,0
483,288,0,0,0,0,0,0,0,0,0,-1,1707,736,0,0
490,288,0,0,0,0,0,0,0,0,0,-1,1714,736,0,0
497,288,0,0,0,0,0,0,0,0,0,-1,1721,736,0,0
504,288,0,0,0,0,0,0,0,0,0,-1,1728,736,0,0
511,288,0,0,0,0,0,0,0,0,0,-1,1735,736,0,0
518,288,0,0,0,0,0,0,0,0,0,-1,1742,736,0,0
525,288,0,0,0,0,0,0,0,0,0,-1,1749,736,0,0
532,288,0,0,0,0,0,0,0,0,0,-1,1756,736,0,0
539,288,0,0,0,0,0,0,0,0,0,-1,1763,736,0,0
546,288,0,0,0,0,0,0,0,0,0,-1,1770,736,0,0
553,288,15.132,2.09979,0,0,0,0,0,0,0,-1,1777,736,15.1319,-2.09978
560,288,15.4464,1.65552,0,0,0,0,0,0,0,-1,1784,736,15.4464,-1.6555
567,288,15.6144,1.41058,0,0,0,0,0,0,0,-1,1791,736,15.6144,-1.41058
574,288,18.1517,-1.07874,0,0,0,0,0,0,0,-1,1798,736,18.1518,1.07875
581,288,18.5658,-0.546326,0.054341,-0.0551874,0.079571,0.0961722,-0.0970185,0.484002,0.111539,0.0495354,1805,736,18.5657,0.546297
588,288,19.1427,0.0471191,0.0308279,-0.0387328,0.0634607,0.0684142,-0.0763191,0.534721,0.0836033,0.047715,1812,736,19.1427,-0.0471456
595,288,19.813,0.852173,0,0,0,0,0,0,0,-1,1819,736,19.813,-0.852175
602,288,19.2268,3.53925,0,0,0,0,0,0,0,-1,1826,736,19.2268,-3.53927
609,288,17.6804,2.49548,0,0,0,0,0,0,0,-1,1833,736,17.6805,-2.49546
616,288,11.1782,0.761963,0,0,0,0,0,0,0,-1,1840,736,11.1783,-0.761948
623,288,10.9473,0.714966,-0.00354118,-0.00948057,0.00982748,0.0037555,-0.0167773,0.638669,0.0126243,0.0485738,1847,736,10.9472,-0.714944
630,288,10.7668,0.548035,-0.00429897,-0.00710918,0.0045837,-0.000909849,-0.0104983,0.636673,0.00671616,0.0190396,1854,736,10.7668,-0.548049
637,288,10.7744,0.726807,-0.00515276,-0.00493722,0.000647573,-0.00438851,-0.00570147,0.867852,0.00344769,0.00951244,1861,736,10.7744,-0.726819
644,288,10.8065,0.906616,-0.00493324,-0.0027682,-0.00246139,-0.0011618,-0.00653964,-0.992568,0.00402872,0.00968704,1868,736,10.8065,-0.906639
651,288,10.8029,1.10065,-0.00307927,-0.00234302,-0.00323101,0.000540773,-0.00596306,-0.842121,0.00416734,0.0113633,1875,736,10.8029,-1.10064
658,288,10.7882,1.30829,-0.00137466,-0.00190834,-0.00298887,0.00135925,-0.00464226,-0.740877,0.00363368,0.0155304,1882,736,10.7882,-1.30829
665,288,10.7848,1.48688,3.78678e-05,-0.00104577,-0.00224211,0.0018027,-0.00281059,-0.666843,0.00268459,0.015519,1889,736,10.7848,-1.48685
672,288,10.7781,1.64783,0.00133345,-0.000373213,-0.00167561,0.0023605,-0.00140027,-0.549881,0.00219475,0.0137137,1896,736,10.778,-1.64782
679,288,10.7947,1.85773,0.00282137,0.000504158,-0.00131147,0.00341271,-8.71825e-05,-0.423602,0.00230475,0.0114043,1903,736,10.7947,-1.85774
686,288,10.7972,2.01379,0.00432667,0.00133796,-0.00144051,0.00490792,0.000756703,-0.383527,0.00305116,0.00881232,1910,736,10.7973,-2.01378
693,288,10.8112,2.18085,0.00612349,0.00224991,-0.00194589,0.00693218,0.00144122,-0.393871,0.00422382,0.0109865,1917,736,10.8112,-2.18086
700,288,10.8008,2.33026,0.00833532,0.00360645,-0.00268101,0.00954556,0.0023962,-0.42403,0.00573436,0.0223884,1924,736,10.8008,-2.33027
707,288,10.8824,2.50177,0.0111072,0.00574307,-0.00355088,0.0128751,0.00397516,-0.461949,0.00761254,0.0365896,1931,736,10.8825,-2.50178
714,288,11.1255,2.54315,0.0146165,0.00855758,-0.00470793,0.0171854,0.00598862,-0.49951,0.0100728,0.0459197,1938,736,11.1255,-2.54314
721,288,11.556,2.59509,0,0,0,0,0,0,0,-1,1945,736,11.556,-2.59507
728,288,13.4325,2.74835,0,0,0,0,0,0,0,-1,1952,736,13.4325,-2.74833
735,288,14.1078,2.97913,0,0,0,0,0,0,0,-1,1959,736,14.1078,-2.97914
742,288,0,0,0,0,0,0,0,0,0,-1,1966,736,0,0
749,288,0,0,0,0,0,0,0,0,0,-1,1973,736,0,0
756,288,0,0,0,0,0,0,0,0,0,-1,1980,736,0,0
763,288,0,0,0,0,0,0,0,0,0,-1,1987,736,0,0
770,288,0,0,0,0,0,0,0,0,0,-1,1994,736,0,0
777,288,0,0,0,0,0,0,0,0,0,-1,2001,736,0,0
784,288,0,0,0,0,0,0,0,0,0,-1,2008,736,0,0
791,288,0,0,0,0,0,0,0,0,0,-1,2015,736,0,0
798,288,0,0,0,0,0,0,0,0,0,-1,2022,736,0,0
805,288,0,0,0,0,0,0,0,0,0,-1,2029,736,0,0
812,288,0,0,0,0,0,0,0,0,0,-1,2036,736,0,0
-700,281,0,0,0,0,0,0,0,0,0,-1,524,743,0,0
-693,281,0,0,0,0,0,0,0,0,0,-1,531,743,0,0
-686,281,0,0,0,0,0,0,0,0,0,-1,538,743,0,0
-679,281,0,0,0,0,0,0,0,0,0,-1,545,743,0,0
-672,281,0,0,0,0,0,0,0,0,0,-1,552,743,0,0
-665,281,0,0,0,0,0,0,0,0,0,-1,559,743,0,0
-658,281,0,0,0,0,0,0,0,0,0,-1,566,743,0,0
-651,281,0,0,0,0,0,0,0,0,0,-1,573,743,0,0
-644,281,0,0,0,0,0,0,0,0,0,-1,580,743,0,0
-637,281,0,0,0,0,0,0,0,0,0,-1,587,743,0,0
-630,281,0,0,0,0,0,0,0,0,0,-1,594,743,0,0
-623,281,-4.61847,3.21552,0,0,0,0,0,0,0,-1,601,743,-4.61847,-3.2155
-616,281,-4.62433,2.7666,0,0,0,0,0,0,0,-1,608,743,-4.62433,-2.76663
-609,281,-3.60101,3.0896,0,0,0,0,0,0,0,-1,615,743,-3.60104,-3.08957
-602,281,-4.45801,2.70404,0,0,0,0,0,0,0,-1,622,743,-4.45801,-2.70403
-595,281,-5.39661,1.9082,0,0,0,0,0,0,0,-1,629,743,-5.3966,-1.9082
-588,281,-6.00165,0.832703,0,0,0,0,0,0,0,-1,636,743,-6.00162,-0.832727
-581,281,-5.93329,0.639465,0.0106965,0.00695337,0.00763107,0.0166821,0.000967694,0.665145,0.0108133,0.0476044,643,743,-5.93326,-0.639445
-574,281,-5.84338,0.462769,-0.000237574,0.00426357,0.00848463,0.010791,-0.00676505,0.915039,0.0102245,0.0263788,650,743,-5.84336,-0.462777
-567,281,-5.96613,0.303772,-0.00434667,0.0019792,0.00697517,0.00647506,-0.00884253,0.998261,0.00887875,0.0125117,657,743,-5.9661,-0.303746
-560,281,-5.9892,0.154297,-0.00434749,0.000234686,0.00496167,0.00340869,-0.0075215,1.00169,0.00645774,0.0080034,664,743,-5.98917,-0.154287
-553,281,-5.953,0.003479,-0.00440207,-0.000879718,0.00351867,0.00129392,-0.00657571,1.01743,0.00487272,0.0124825,671,743,-5.95302,-0.0035032
-546,281,-5.95844,-0.148315,-0.00444913,-0.0019925,0.00246758,-0.000464416,-0.00597721,1.01633,0.00383937,0.014599,678,743,-5.95841,0.148314
-539,281,-5.97235,-0.325134,-0.00418114,-0.00128954,0.00248517,0.000139798,-0.00561047,1.04885,0.00378777,0.0124967,685,743,-5.97234,0.325119
-532,281,-5.9682,-0.481445,-0.00447403,-0.000422157,0.00272458,0.000947163,-0.00584335,1.10509,0.00424664,0.010806,692,743,-5.96818,0.481476
-525,281,-5.9845,-0.659424,-0.00514283,0.000712516,0.00353696,0.00237629,-0.0068066,1.13111,0.00550358,0.012718,699,743,-5.98453,0.659394
-518,281,-5.98322,-0.854004,-0.0059555,0.00209862,0.00439339,0.00403135,-0.00788823,1.15636,0.00700083,0.0120625,706,743,-5.98324,0.854031
-511,281,-5.97754,-1.0484,-0.00699474,0.00335817,0.00555566,0.00577521,-0.00941177,1.16044,0.0088516,0.01098,713,743,-5.97753,1.0484
-504,281,-5.97784,-1.21716,-0.00844088,0.00498458,0.00714716,0.00807708,-0.0115334,1.16243,0.0113806,0.0129344,720,743,-5.97785,1.21714
-497,281,-5.90442,-1.41827,-0.0100894,0.00650945,0.00867892,0.0102185,-0.0137985,1.16692,0.0139175,0.0337885,727,743,-5.90443,1.41828
-490,281,-5.94824,-1.54218,-0.0114639,0.00831544,0.0102505,0.0126693,-0.0158177,1.16914,0.0164804,0.0435106,734,743,-5.94823,1.54219
-483,281,-5.84875,-1.51819,0,0,0,0,0,0,0,-1,741,743,-5.84875,1.51818
-476,281,-5.94421,-1.15125,0,0,0,0,0,0,0,-1,748,743,-5.9442,1.15124
-469,281,-11.29,-0.279236,0,0,0,0,0,0,0,-1,755,743,-11.29,0.279228
-462,281,-11.3031,-0.23175,0,0,0,0,0,0,0,-1,762,743,-11.3031,0.23178
-455,281,-10.8685,0.485229,0,0,0,0,0,0,0,-1,769,743,-10.8686,-0.4852
-448,281,-10.5355,0.613098,0,0,0,0,0,0,0,-1,776,743,-10.5355,-0.613079
-441,281,-8.638,1.8432,0,0,0,0,0,0,0,-1,783,743,-8.63798,-1.84317
-434,281,0,0,0,0,0,0,0,0,0,-1,790,743,0,0
-427,281,0,0,0,0,0,0,0,0,0,-1,797,743,0,0
-420,281,0,0,0,0,0,0,0,0,0,-1,804,743,0,0
-413,281,0,0,0,0,0,0,0,0,0,-1,811,743,0,0
-406,281,0,0,0,0,0,0,0,0,0,-1,818,743,0,0
-399,281,0,0,0,0,0,0,0,0,0,-1,825,743,0,0
-392,281,0,0,0,0,0,0,0,0,0,-1,832,743,0,0
-385,281,0,0,0,0,0,0,0,0,0,-1,839,743,0,0
-378,281,0,0,0,0,0,0,0,0,0,-1,846,743,0,0
-371,281,0,0,0,0,0,0,0,0,0,-1,853,743,0,0
-364,281,0,0,0,0,0,0,0,0,0,-1,860,743,0,0
-357,281,0,0,0,0,0,0,0,0,0,-1,867,743,0,0
-350,281,0,0,0,0,0,0,0,0,0,-1,874,743,0,0
-343,281,0,0,0,0,0,0,0,0,0,-1,881,743,0,0
-336,281,0,0,0,0,0,0,0,0,0,-1,888,743,0,0
-329,281,0,0,0,0,0,0,0,0,0,-1,895,743,0,0
-322,281,0,0,0,0,0,0,0,0,0,-1,902,743,0,0
-315,281,0,0,0,0,0,0,0,0,0,-1,909,743,0,0
-308,281,0,0,0,0,0,0,0,0,0,-1,916,743,0,0
-301,281,0,0,0,0,0,0,0,0,0,-1,923,743,0,0
-294,281,0,0,0,0,0,0,0,0,0,-1,930,743,0,0
-287,281,0,0,0,0,0,0,0,0,0,-1,937,743,0,0
-280,281,0,0,0,0,0,0,0,0,0,-1,944,743,0,0
-273,281,0,0,0,0,0,0,0,0,0,-1,951,743,0,0
-266,281,0,0,0,0,0,0,0,0,0,-1,958,743,0,0
-259,281,0,0,0,0,0,0,0,0,0,-1,965,743,0,0
-252,281,0,0,0,0,0,0,0,0,0,-1,972,743,0,0
-245,281,0,0,0,0,0,0,0,0,0,-1,979,743,0,0
-238,281,0,0,0,0,0,0,0,0,0,-1,986,743,0,0
-231,281,0,0,0,0,0,0,0,0,0,-1,993,743,0,0
-224,281,0,0,0,0,0,0,0,0,0,-1,1000,743,0,0
-217,281,0,0,0,0,0,0,0,0,0,-1,1007,743,0,0
-210,281,0,0,0,0,0,0,0,0,0,-1,1014,743,0,0
-203,281,0,0,0,0,0,0,0,0,0,-1,1021,743,0,0
-196,281,0,0,0,0,0,0,0,0,0,-1,1028,743,0,0
-189,281,0,0,0,0,0,0,0,0,0,-1,1035,743,0,0
-182,281,0,0,0,0,0,0,0,0,0,-1,1042,743,0,0
-175,281,0,0,0,0,0,0,0,0,0,-1,1049,743,0,0
-168,281,0,0,0,0,0,0,0,0,0,-1,1056,743,0,0
-161,281,0,0,0,0,0,0,0,0,0,-1,1063,743,0,0
-154,281,0,0,0,0,0,0,0,0,0,-1,1070,743,0,0
-147,281,0,0,0,0,0,0,0,0,0,-1,1077,743,0,0
-140,281,0,0,0,0,0,0,0,0,0,-1,1084,743,0,0
-133,281,0,0,0,0,0,0,0,0,0,-1,1091,743,0,0
-126,281,0,0,0,0,0,0,0,0,0,-1,1098,743,0,0
-119,281,0,0,0,0,0,0,0,0,0,-1,1105,743,0,0
-112,281,0,0,0,0,0,0,0,0,0,-1,1112,743,0,0
-105,281,0,0,0,0,0,0,0,0,0,-1,1119,743,0,0
-98,281,0,0,0,0,0,0,0,0,0,-1,1126,743,0,0
-91,281,0,0,0,0,0,0,0,0,0,-1,1133,743,0,0
-84,281,0,0,0,0,0,0,0,0,0,-1,1140,743,0,0
-77,281,0,0,0,0,0,0,0,0,0,-1,1147,743,0,0
-70,281,0,0,0,0,0,0,0,0,0,-1,1154,743,0,0
-63,281,0,0,0,0,0,0,0,0,0,-1,1161,743,0,0
-56,281,0,0,0,0,0,0,0,0,0,-1,1168,743,0,0
-49,281,0,0,0,0,0,0,0,0,0,-1,1175,743,0,0
-42,281,0,0,0,0,0,0,0,0,0,-1,1182,743,0,0
-35,281,0,0,0,0,0,0,0,0,0,-1,1189,743,0,0
-28,281,0,0,0,0,0,0,0,0,0,-1,1196,743,0,0
-21,281,0,0,0,0,0,0,0,0,0,-1,1203,743,0,0
-14,281,0,0,0,0,0,0,0,0,0,-1,1210,743,0,0
-7,281,0,0,0,0,0,0,0,0,0,-1,1217,743,0,0
0,281,0,0,0,0,0,0,0,0,0,-1,1224,743,0,0
7,281,0,0,0,0,0,0,0,0,0,-1,1231,743,0,0
14,281,0,0,0,0,0,0,0,0,0,-1,1238,743,0,0
21,281,0,0,0,0,0,0,0,0,0,-1,1245,743,0,0
28,281,0,0,0,0,0,0,0,0,0,-1,1252,743,0,0
35,281,0,0,0,0,0,0,0,0,0,-1,1259,743,0,0
42,281,0,0,0,0,0,0,0,0,0,-1,1266,743,0,0
49,281,0,0,0,0,0,0,0,0,0,-1,1273,743,0,0
56,281,0,0,0,0,0,0,0,0,0,-1,1280,743,0,0
63,281,0,0,0,0,0,0,0,0,0,-1,1287,743,0,0
70,281,0,0,0,0,0,0,0,0,0,-1,1294,743,0,0
77,281,0,0,0,0,0,0,0,0,0,-1,1301,743,0,0
84,281,0,0,0,0,0,0,0,0,0,-1,1308,743,0,0
91,281,0,0,0,0,0,0,0,0,0,-1,1315,743,0,0
98,281,0,0,0,0,0,0,0,0,0,-1,1322,743,0,0
105,281,0,0,0,0,0,0,0,0,0,-1,1329,743,0,0
112,281,0,0,0,0,0,0,0,0,0,-1,1336,743,0,0
119,281,0,0,0,0,0,0,0,0,0,-1,1343,743,0,0
126,281,0,0,0,0,0,0,0,0,0,-1,1350,743,0,0
133,281,0,0,0,0,0,0,0,0,0,-1,1357,743,0,0
140,281,0,0,0,0,0,0,0,0,0,-1,1364,743,0,0
147,281,0,0,0,0,0,0,0,0,0,-1,1371,743,0,0
154,281,0,0,0,0,0,0,0,0,0,-1,1378,743,0,0
161,281,0,0,0,0,0,0,0,0,0,-1,1385,743,0,0
168,281,0,0,0,0,0,0,0,0,0,-1,1392,743,0,0
175,281,0,0,0,0,0,0,0,0,0,-1,1399,743,0,0
182,281,0,0,0,0,0,0,0,0,0,-1,1406,743,0,0
189,281,0,0,0,0,0,0,0,0,0,-1,1413,743,0,0
196,281,0,0,0,0,0,0,0,0,0,-1,1420,743,0,0
203,281,0,0,0,0,0,0,0,0,0,-1,1427,743,0,0
210,281,0,0,0,0,0,0,0,0,0,-1,1434,743,0,0
217,281,0,0,0,0,0,0,0,0,0,-1,1441,743,0,0
224,281,0,0,0,0,0,0,0,0,0,-1,1448,743,0,0
231,281,0,0,0,0,0,0,0,0,0,-1,1455,743,0,0
238,281,0,0,0,0,0,0,0,0,0,-1,1462,743,0,0
245,281,0,0,0,0,0,0,0,0,0,-1,1469,743,0,0
252,281,0,0,0,0,0,0,0,0,0,-1,1476,743,0,0
259,281,0,0,0,0,0,0,0,0,0,-1,1483,743,0,0
266,281,0,0,0,0,0,0,0,0,0,-1,1490,743,0,0
273,281,0,0,0,0,0,0,0,0,0,-1,1497,743,0,0
280,281,0,0,0,0,0,0,0,0,0,-1,1504,743,0,0
287,281,0,0,0,0,0,0,0,0,0,-1,1511,743,0,0
294,281,0,0,0,0,0,0,0,0,0,-1,1518,743,0,0
301,281,0,0,0,0,0,0,0,0,0,-1,1525,743,0,0
308,281,0,0,0,0,0,0,0,0,0,-1,1532,743,0,0
315,281,0,0,0,0,0,0,0,0,0,-1,1539,743,0,0
322,281,0,0,0,0,0,0,0,0,0,-1,1546,743,0,0
329,281,0,0,0,0,0,0,0,0,0,-1,1553,743,0,0
336,281,0,0,0,0,0,0,0,0,0,-1,1560,743,0,0
343,281,0,0,0,0,0,0,0,0,0,-1,1567,743,0,0
350,281,0,0,0,0,0,0,0,0,0,-1,1574,743,0,0
357,281,0,0,0,0,0,0,0,0,0,-1,1581,743,0,0
364,281,0,0,0,0,0,0,0,0,0,-1,1588,743,0,0
371,281,0,0,0,0,0,0,0,0,0,-1,1595,743,0,0
378,281,0,0,0,0,0,0,0,0,0,-1,1602,743,0,0
385,281,0,0,0,0,0,0,0,0,0,-1,1609,743,0,0
392,281,0,0,0,0,0,0,0,0,0,-1,1616,743,0,0
399,281,0,0,0,0,0,0,0,0,0,-1,1623,743,0,0
406,281,0,0,0,0,0,0,0,0,0,-1,1630,743,0,0
413,281,0,0,0,0,0,0,0,0,0,-1,1637,743,0,0
420,281,0,0,0,0,0,0,0,0,0,-1,1644,743,0,0
427,281,0,0,0,0,0,0,0,0,0,-1,1651,743,0,0
434,281,0,0,0,0,0,0,0,0,0,-1,1658,743,0,0
441,281,0,0,0,0,0,0,0,0,0,-1,1665,743,0,0
448,281,0,0,0,0,0,0,0,0,0,-1,1672,743,0,0
455,281,0,0,0,0,0,0,0,0,0,-1,1679,743,0,0
462,281,0,0,0,0,0,0,0,0,0,-1,1686,743,0,0
469,281,0,0,0,0,0,0,0,0,0,-1,1693,743,0,0
476,281,0,0,0,0,0,0,0,0,0,-1,1700,743,0,0
483,281,0,0,0,0,0,0,0,0,0,-1,1707,743,0,0
490,281,0,0,0,0,0,0,0,0,0,-1,1714,743,0,0
497,281,0,0,0,0,0,0,0,0,0,-1,1721,743,0,0
504,281,0,0,0,0,0,0,0,0,0,-1,1728,743,0,0
511,281,0,0,0,0,0,0,0,0,0,-1,1735,743,0,0
518,281,0,0,0,0,0,0,0,0,0,-1,1742,743,0,0
525,281,0,0,0,0,0,0,0,0,0,-1,1749,743,0,0
532,281,0,0,0,0,0,0,0,0,0,-1,1756,743,0,0
539,281,0,0,0,0,0,0,0,0,0,-1,1763,743,0,0
546,281,0,0,0,0,0,0,0,0,0,-1,1770,743,0,0
553,281,0,0,0,0,0,0,0,0,0,-1,1777,743,0,0
560,281,15.4872,2.0921,0,0,0,0,0,0,0,-1,1784,743,15.4872,-2.09213
567,281,15.3754,1.93683,0,0,0,0,0,0,0,-1,1791,743,15.3754,-1.93686
574,281,17.9099,-1.01776,0,0,0,0,0,0,0,-1,1798,743,17.9099,1.01778
581,281,18.3562,-0.143799,0.0460634,-0.0544399,0.0813552,0.0914355,-0.099812,0.508738,0.110452,0.0469106,1805,743,18.3562,0.143797
588,281,18.8887,0.835754,0.026356,-0.0386126,0.0652373,0.0667492,-0.0790058,0.554399,0.0842508,0.0448641,1812,743,18.8887,-0.835736
595,281,19.0945,1.9964,0,0,0,0,0,0,0,-1,1819,743,19.0945,-1.99638
602,281,18.6074,2.89508,0,0,0,0,0,0,0,-1,1826,743,18.6074,-2.8951
609,281,18.2616,4.33942,0,0,0,0,0,0,0,-1,1833,743,18.2615,-4.33944
616,281,12.7539,0.661926,0,0,0,0,0,0,0,-1,1840,743,12.7539,-0.661949
623,281,11.095,1.00378,0,0,0,0,0,0,0,-1,1847,743,11.095,-1.00377
630,281,10.9407,0.525574,-0.00551463,-0.00677905,0.00258183,-0.00348873,-0.00880495,0.665327,0.00511991,0.0339189,1854,743,10.9406,-0.525586
637,281,10.9633,0.714844,-0.00624539,-0.0048209,-0.00147652,-0.00389381,-0.00717248,-1.01013,0.00414611,0.0121024,1861,743,10.9633,-0.714837
644,281,10.9922,0.906189,-0.00600558,-0.00277819,-0.00478083,0.000653943,-0.00943771,-0.948161,0.00652073,0.00984329,1868,743,10.9922,-0.906218
651,281,10.9894,1.09851,-0.00397249,-0.00253953,-0.00547183,0.00226253,-0.00877455,-0.850498,0.00673183,0.0108907,1875,743,10.9894,-1.09853
658,281,10.9713,1.29803,-0.00201959,-0.00225632,-0.00488003,0.00274351,-0.00701942,-0.773273,0.00581404,0.0179698,1882,743,10.9713,-1.29801
665,281,10.9656,1.47516,-0.000526333,-0.00149168,-0.00355182,0.00257546,-0.00459347,-0.717865,0.00419329,0.0196046,1889,743,10.9655,-1.47517
672,281,10.9694,1.66473,0.000821672,-0.000810377,-0.00249204,0.00262789,-0.00261659,-0.627174,0.00302791,0.0120194,1896,743,10.9694,-1.66471
679,281,10.9689,1.84229,0.00238127,5.06097e-05,-0.0016102,0.00320359,-0.000771706,-0.472164,0.00243409,0.0172405,1903,743,10.9689,-1.84228
686,281,10.9623,1.9975,0.00380784,0.000867206,-0.00135671,0.00433815,0.000336895,-0.372618,0.0027866,0.0123964,1910,743,10.9623,-1.99749
693,281,10.9719,2.17328,0.00537477,0.00175644,-0.00153478,0.00593808,0.00119314,-0.351763,0.00362702,0.00977919,1917,743,10.9719,-2.17329
700,281,10.9734,2.34338,0.00721769,0.00301384,-0.00198285,0.00800537,0.00222616,-0.378128,0.00477123,0.0170551,1924,743,10.9734,-2.34341
707,281,10.9792,2.38611,0.00947067,0.00494168,-0.00265969,0.0106993,0.00371305,-0.432742,0.00627286,0.0327766,1931,743,10.9792,-2.38612
714,281,11.0448,2.27051,0.012243,0.00764195,-0.00370364,0.0143025,0.00558251,-0.507483,0.0083235,0.0457845,1938,743,11.0449,-2.27048
721,281,10.7284,2.83173,0,0,0,0,0,0,0,-1,1945,743,10.7284,-2.83172
728,281,11.5485,2.55444,0,0,0,0,0,0,0,-1,1952,743,11.5484,-2.55445
735,281,14.3514,2.78046,0,0,0,0,0,0,0,-1,1959,743,14.3514,-2.78045
742,281,0,0,0,0,0,0,0,0,0,-1,1966,743,0,0
749,281,0,0,0,0,0,0,0,0,0,-1,1973,743,0,0
756,281,0,0,0,0,0,0,0,0,0,-1,1980,743,0,0
763,281,0,0,0,0,0,0,0,0,0,-1,1987,743,0,0
770,281,0,0,0,0,0,0,0,0,0,-1,1994,743,0,0
777,281,0,0,0,0,0,0,0,0,0,-1,2001,743,0,0
784,281,0,0,0,0,0,0,0,0,0,-1,2008,743,0,0
791,281,0,0,0,0,0,0,0,0,0,-1,2015,743,0,0
798,281,0,0,0,0,0,0,0,0,0,-1,2022,743,0,0
805,281,0,0,0,0,0,0,0,0,0,-1,2029,743,0,0
812,281,0,0,0,0,0,0,0,0,0,-1,2036,743,0,0
-700,274,0,0,0,0,0,0,0,0,0,-1,524,750,0,0
-693,274,0,0,0,0,0,0,0,0,0,-1,531,750,0,0
-686,274,0,0,0,0,0,0,0,0,0,-1,538,750,0,0
-679,274,0,0,0,0,0,0,0,0,0,-1,545,750,0,0
-672,274,0,0,0,0,0,0,0,0,0,-1,552,750,0,0
-665,274,0,0,0,0,0,0,0,0,0,-1,559,750,0,0
-658,274,0,0,0,0,0,0,0,0,0,-1,566,750,0,0
-651,274,0,0,0,0,0,0,0,0,0,-1,573,750,0,0
-644,274,0,0,0,0,0,0,0,0,0,-1,580,750,0,0
-637,274,0,0,0,0,0,0,0,0,0,-1,587,750,0,0
-630,274,0,0,0,0,0,0,0,0,0,-1,594,750,0,0
-623,274,-4.73297,3.43164,0,0,0,0,0,0,0,-1,601,750,-4.73296,-3.43163
-616,274,-3.19873,1.93188,0,0,0,0,0,0,0,-1,608,750,-3.19874,-1.93187
-609,274,-3.62555,2.20398,0,0,0,0,0,0,0,-1,615,750,-3.62557,-2.20398
-602,274,-4.08777,2.19226,0,0,0,0,0,0,0,-1,622,750,-4.08779,-2.19225
-595,274,-4.42059,1.68805,0,0,0,0,0,0,0,-1,629,750,-4.4206,-1.68806
-588,274,-5.92657,0.792969,0,0,0,0,0,0,0,-1,636,750,-5.92656,-0.792947
-581,274,-5.99384,0.620605,0.0141504,0.00868424,0.00662505,0.0185839,0.00425064,0.589766,0.0112435,0.0391264,643,750,-5.99387,-0.620581
-574,274,-6.06085,0.453369,0.00254605,0.00591675,0.00781606,0.0122271,-0.0037643,0.891586,0.00965397,0.0184673,650,750,-6.06086,-0.453374
-567,274,-6.14819,0.315491,-0.00230996,0.00330226,0.00650307,0.00757881,-0.00658652,0.989082,0.00818504,0.0158966,657,750,-6.14821,-0.315461
-560,274,-6.13013,0.158386,-0.00288855,0.00110598,0.00463179,0.00415277,-0.00593534,0.988957,0.00585461,0.0137284,664,750,-6.13013,-0.158404
-553,274,-6.12689,0.00445557,-0.00356514,-0.000400338,0.00339966,0.00176715,-0.00573263,1.00322,0.00452726,0.00893866,671,750,-6.12691,-0.00443993
-546,274,-6.14319,-0.165344,-0.00420642,-0.00187471,0.00248889,-0.000292148,-0.00578898,1.00443,0.00376572,0.0105011,678,750,-6.14318,0.165346
-539,274,-6.14435,-0.330505,-0.00435842,-0.00125515,0.00273849,0.000340738,-0.00595431,1.04315,0.00408785,0.0107824,685,750,-6.14438,0.330508
-532,274,-6.13098,-0.485107,-0.00506907,-0.000390034,0.00319098,0.00122718,-0.00668628,1.10172,0.00491789,0.0108959,692,750,-6.13098,0.485117
-525,274,-6.12811,-0.655518,-0.0060945,0.000796979,0.00417004,0.00276071,-0.00805823,1.13069,0.00649112,0.0111945,699,750,-6.12812,0.65549
-518,274,-6.13062,-0.841858,-0.00720415,0.00227788,0.00509794,0.00449864,-0.00942491,1.15997,0.00820476,0.0118113,706,750,-6.1306,0.841881
-511,274,-6.12909,-1.03101,-0.00846722,0.0038177,0.00621086,0.00641049,-0.01106,1.17533,0.010205,0.0110265,713,750,-6.12911,1.03099
-504,274,-6.13147,-1.19867,-0.00996226,0.00597089,0.00770441,0.00908692,-0.0130783,1.18646,0.0128661,0.019003,720,750,-6.13144,1.19867
-497,274,-6.14441,-1.32117,-0.0112957,0.00849027,0.00917502,0.01209,-0.0148954,1.19692,0.015608,0.0437637,727,750,-6.14441,1.32116
-490,274,-6.46967,-1.6618,-0.0121067,0.0114994,0.0105307,0.0155144,-0.0161216,1.20655,0.0182662,0.046554,734,750,-6.46965,1.66178
-483,274,-6.41327,-1.52826,-0.0120423,0.0144242,0.011444,0.0186862,-0.0163043,1.21429,0.0202174,0.0470253,741,750,-6.41327,1.52825
-476,274,-6.4223,-1.3465,-0.0107769,0.0165494,0.0115755,0.0207936,-0.0150211,1.21936,0.020767,0.047556,748,750,-6.42232,1.34651
-469,274,-6.31622,-1.16724,0,0,0,0,0,0,0,-1,755,750,-6.3162,1.16721
-462,274,-10.9125,0.409851,0,0,0,0,0,0,0,-1,762,750,-10.9125,-0.40984
-455,274,-10.5793,0.594116,0,0,0,0,0,0,0,-1,769,750,-10.5793,-0.594093
-448,274,-10.2581,0.727844,0,0,0,0,0,0,0,-1,776,750,-10.2581,-0.727859
-441,274,0,0,0,0,0,0,0,0,0,-1,783,750,0,0
-434,274,0,0,0,0,0,0,0,0,0,-1,790,750,0,0
-427,274,0,0,0,0,0,0,0,0,0,-1,797,750,0,0
-420,274,0,0,0,0,0,0,0,0,0,-1,804,750,0,0
-413,274,0,0,0,0,0,0,0,0,0,-1,811,750,0,0
-406,274,0,0,0,0,0,0,0,0,0,-1,818,750,0,0
-399,274,0,0,0,0,0,0,0,0,0,-1,825,750,0,0
-392,274,0,0,0,0,0,0,0,0,0,-1,832,750,0,0
-385,274,0,0,0,0,0,0,0,0,0,-1,839,750,0,0
-378,274,0,0,0,0,0,0,0,0,0,-1,846,750,0,0
-371,274,0,0,0,0,0,0,0,0,0,-1,853,750,0,0
-364,274,0,0,0,0,0,0,0,0,0,-1,860,750,0,0
-357,274,0,0,0,0,0,0,0,0,0,-1,867,750,0,0
-350,274,0,0,0,0,0,0,0,0,0,-1,874,750,0,0
-343,274,0,0,0,0,0,0,0,0,0,-1,881,750,0,0
-336,274,0,0,0,0,0,0,0,0,0,-1,888,750,0,0
-329,274,0,0,0,0,0,0,0,0,0,-1,895,750,0,0
-322,274,0,0,0,0,0,0,0,0,0,-1,902,750,0,0
-315,274,0,0,0,0,0,0,0,0,0,-1,909,750,0,0
-308,274,0,0,0,0,0,0,0,0,0,-1,916,750,0,0
-301,274,0,0,0,0,0,0,0,0,0,-1,923,750,0,0
-294,274,0,0,0,0,0,0,0,0,0,-1,930,750,0,0
-287,274,0,0,0,0,0,0,0,0,0,-1,937,750,0,0
-280,274,0,0,0,0,0,0,0,0,0,-1,944,750,0,0
-273,274,0,0,0,0,0,0,0,0,0,-1,951,750,0,0
-266,274,0,0,0,0,0,0,0,0,0,-1,958,750,0,0
-259,274,0,0,0,0,0,0,0,0,0,-1,965,750,0,0
-252,274,0,0,0,0,0,0,0,0,0,-1,972,750,0,0
-245,274,0,0,0,0,0,0,0,0,0,-1,979,750,0,0
-238,274,0,0,0,0,0,0,0,0,0,-1,986,750,0,0
-231,274,0,0,0,0,0,0,0,0,0,-1,993,750,0,0
-224,274,0,0,0,0,0,0,0,0,0,-1,1000,750,0,0
-217,274,0,0,0,0,0,0,0,0,0,-1,1007,750,0,0
-210,274,0,0,0,0,0,0,0,0,0,-1,1014,750,0,0
-203,274,0,0,0,0,0,0,0,0,0,-1,1021,750,0,0
-196,274,0,0,0,0,0,0,0,0,0,-1,1028,750,0,0
-189,274,0,0,0,0,0,0,0,0,0,-1,1035,750,0,0
-182,274,0,0,0,0,0,0,0,0,0,-1,1042,750,0,0
-175,274,0,0,0,0,0,0,0,0,0,-1,1049,750,0,0
-168,274,0,0,0,0,0,0,0,0,0,-1,1056,750,0,0
-161,274,0,0,0,0,0,0,0,0,0,-1,1063,750,0,0
-154,274,0,0,0,0,0,0,0,0,0,-1,1070,750,0,0
-147,274,0,0,0,0,0,0,0,0,0,-1,1077,750,0,0
-140,274,0,0,0,0,0,0,0,0,0,-1,1084,750,0,0
-133,274,0,0,0,0,0,0,0,0,0,-1,1091,750,0,0
-126,274,0,0,0,0,0,0,0,0,0,-1,1098,750,0,0
-119,274,0,0,0,0,0,0,0,0,0,-1,1105,750,0,0
-112,274,0,0,0,0,0,0,0,0,0,-1,1112,750,0,0
-105,274,0,0,0,0,0,0,0,0,0,-1,1119,750,0,0
-98,274,0,0,0,0,0,0,0,0,0,-1,1126,750,0,0
-91,274,0,0,0,0,0,0,0,0,0,-1,1133,750,0,0
-84,274,0,0,0,0,0,0,0,0,0,-1,1140,750,0,0
-77,274,0,0,0,0,0,0,0,0,0,-1,1147,750,0,0
-70,274,0,0,0,0,0,0,0,0,0,-1,1154,750,0,0
-63,274,0,0,0,0,0,0,0,0,0,-1,1161,750,0,0
-56,274,0,0,0,0,0,0,0,0,0,-1,1168,750,0,0
-49,274,0,0,0,0,0,0,0,0,0,-1,1175,750,0,0
-42,274,0,0,0,0,0,0,0,0,0,-1,1182,750,0,0
-35,274,0,0,0,0,0,0,0,0,0,-1,1189,750,0,0
-28,274,0,0,0,0,0,0,0,0,0,-1,1196,750,0,0
-21,274,0,0,0,0,0,0,0,0,0,-1,1203,750,0,0
-14,274,0,0,0,0,0,0,0,0,0,-1,1210,750,0,0
-7,274,0,0,0,0,0,0,0,0,0,-1,1217,750,0,0
0,274,0,0,0,0,0,0,0,0,0,-1,1224,750,0,0
7,274,0,0,0,0,0,0,0,0,0,-1,1231,750,0,0
14,274,0,0,0,0,0,0,0,0,0,-1,1238,750,0,0
21,274,0,0,0,0,0,0,0,0,0,-1,1245,750,0,0
28,274,0,0,0,0,0,0,0,0,0,-1,1252,750,0,0
35,274,0,0,0,0,0,0,0,0,0,-1,1259,750,0,0
42,274,0,0,0,0,0,0,0,0,0,-1,1266,750,0,0
49,274,0,0,0,0,0,0,0,0,0,-1,1273,750,0,0
56,274,0,0,0,0,0,0,0,0,0,-1,1280,750,0,0
63,274,0,0,0,0,0,0,0,0,0,-1,1287,750,0,0
70,274,0,0,0,0,0,0,0,0,0,-1,1294,750,0,0
77,274,0,0,0,0,0,0,0,0,0,-1,1301,750,0,0
84,274,0,0,0,0,0,0,0,0,0,-1,1308,750,0,0
91,274,0,0,0,0,0,0,0,0,0,-1,1315,750,0,0
98,274,0,0,0,0,0,0,0,0,0,-1,1322,750,0,0
105,274,0,0,0,0,0,0,0,0,0,-1,1329,750,0,0
112,274,0,0,0,0,0,0,0,0,0,-1,1336,750,0,0
119,274,0,0,0,0,0,0,0,0,0,-1,1343,750,0,0
126,274,0,0,0,0,0,0,0,0,0,-1,1350,750,0,0
133,274,0,0,0,0,0,0,0,0,0,-1,1357,750,0,0
140,274,0,0,0,0,0,0,0,0,0,-1,1364,750,0,0
147,274,0,0,0,0,0,0,0,0,0,-1,1371,750,0,0
154,274,0,0,0,0,0,0,0,0,0,-1,1378,750,0,0
161,274,0,0,0,0,0,0,0,0,0,-1,1385,750,0,0
168,274,0,0,0,0,0,0,0,0,0,-1,1392,750,0,0
175,274,0,0,0,0,0,0,0,0,0,-1,1399,750,0,0
182,274,0,0,0,0,0,0,0,0,0,-1,1406,750,0,0
189,274,0,0,0,0,0,0,0,0,0,-1,1413,750,0,0
196,274,0,0,0,0,0,0,0,0,0,-1,1420,750,0,0
203,274,0,0,0,0,0,0,0,0,0,-1,1427,750,0,0
210,274,0,0,0,0,0,0,0,0,0,-1,1434,750,0,0
217,274,0,0,0,0,0,0,0,0,0,-1,1441,750,0,0
224,274,0,0,0,0,0,0,0,0,0,-1,1448,750,0,0
231,274,0,0,0,0,0,0,0,0,0,-1,1455,750,0,0
238,274,0,0,0,0,0,0,0,0,0,-1,1462,750,0,0
245,274,0,0,0,0,0,0,0,0,0,-1,1469,750,0,0
252,274,0,0,0,0,0,0,0,0,0,-1,1476,750,0,0
259,274,0,0,0,0,0,0,0,0,0,-1,1483,750,0,0
266,274,0,0,0,0,0,0,0,0,0,-1,1490,750,0,0
273,274,0,0,0,0,0,0,0,0,0,-1,1497,750,0,0
280,274,0,0,0,0,0,0,0,0,0,-1,1504,750,0,0
287,274,0,0,0,0,0,0,0,0,0,-1,1511,750,0,0
294,274,0,0,0,0,0,0,0,0,0,-1,1518,750,0,0
301,274,0,0,0,0,0,0,0,0,0,-1,1525,750,0,0
308,274,0,0,0,0,0,0,0,0,0,-1,1532,750,0,0
315,274,0,0,0,0,0,0,0,0,0,-1,1539,750,0,0
322,274,0,0,0,0,0,0,0,0,0,-1,1546,750,0,0
329,274,0,0,0,0,0,0,0,0,0,-1,1553,750,0,0
336,274,0,0,0,0,0,0,0,0,0,-1,1560,750,0,0
343,274,0,0,0,0,0,0,0,0,0,-1,1567,750,0,0
350,274,0,0,0,0,0,0,0,0,0,-1,1574,750,0,0
357,274,0,0,0,0,0,0,0,0,0,-1,1581,750,0,0
364,274,0,0,0,0,0,0,0,0,0,-1,1588,750,0,0
371,274,0,0,0,0,0,0,0,0,0,-1,1595,750,0,0
378,274,0,0,0,0,0,0,0,0,0,-1,1602,750,0,0
385,274,0,0,0,0,0,0,0,0,0,-1,1609,750,0,0
392,274,0,0,0,0,0,0,0,0,0,-1,1616,750,0,0
399,274,0,0,0,0,0,0,0,0,0,-1,1623,750,0,0
406,274,0,0,0,0,0,0,0,0,0,-1,1630,750,0,0
413,274,0,0,0,0,0,0,0,0,0,-1,1637,750,0,0
420,274,0,0,0,0,0,0,0,0,0,-1,1644,750,0,0
427,274,0,0,0,0,0,0,0,0,0,-1,1651,750,0,0
434,274,0,0,0,0,0,0,0,0,0,-1,1658,750,0,0
441,274,0,0,0,0,0,0,0,0,0,-1,1665,750,0,0
448,274,0,0,0,0,0,0,0,0,0,-1,1672,750,0,0
455,274,0,0,0,0,0,0,0,0,0,-1,1679,750,0,0
462,274,0,0,0,0,0,0,0,0,0,-1,1686,750,0,0
469,274,0,0,0,0,0,0,0,0,0,-1,1693,750,0,0
476,274,0,0,0,0,0,0,0,0,0,-1,1700,750,0,0
483,274,0,0,0,0,0,0,0,0,0,-1,1707,750,0,0
490,274,0,0,0,0,0,0,0,0,0,-1,1714,750,0,0
497,274,0,0,0,0,0,0,0,0,0,-1,1721,750,0,0
504,274,0,0,0,0,0,0,0,0,0,-1,1728,750,0,0
511,274,0,0,0,0,0,0,0,0,0,-1,1735,750,0,0
518,274,0,0,0,0,0,0,0,0,0,-1,1742,750,0,0
525,274,0,0,0,0,0,0,0,0,0,-1,1749,750,0,0
532,274,0,0,0,0,0,0,0,0,0,-1,1756,750,0,0
539,274,0,0,0,0,0,0,0,0,0,-1,1763,750,0,0
546,274,0,0,0,0,0,0,0,0,0,-1,1770,750,0,0
553,274,0,0,0,0,0,0,0,0,0,-1,1777,750,0,0
560,274,15.5377,2.67523,0,0,0,0,0,0,0,-1,1784,750,15.5378,-2.67521
567,274,15.4598,2.74457,0,0,0,0,0,0,0,-1,1791,750,15.4599,-2.74455
574,274,15.6049,2.46844,0,0,0,0,0,0,0,-1,1798,750,15.6048,-2.46845
581,274,18.2848,0.30426,0,0,0,0,0,0,0,-1,1805,750,18.2848,-0.30428
588,274,18.5647,1.25525,0.0201106,-0.035304,0.0613219,0.0596942,-0.0748877,0.573209,0.0778658,0.0453942,1812,750,18.5647,-1.25524
595,274,18.4183,1.92633,0.010381,-0.0263905,0.0468593,0.0423324,-0.058342,0.598446,0.0583689,0.0481908,1819,750,18.4184,-1.92633
602,274,18.0323,2.56982,0.00321691,-0.0195927,0.0339195,0.0275976,-0.0439734,0.62322,0.0416806,0.0472401,1826,750,18.0323,-2.56981
609,274,17.5719,3.23657,0,0,0,0,0,0,0,-1,1833,750,17.572,-3.23656
616,274,12.6271,1.15271,0,0,0,0,0,0,0,-1,1840,750,12.6271,-1.15273
623,274,11.1792,0.269409,0,0,0,0,0,0,0,-1,1847,750,11.1792,-0.269415
630,274,11.1692,0.479919,-0.00692738,-0.0063991,0.000812904,-0.0058085,-0.00751798,0.942484,0.00455048,0.0384607,1854,750,11.1692,-0.479937
637,274,11.1482,0.706726,-0.00750911,-0.00468515,-0.00314487,-0.00264982,-0.00954444,-0.9964,0.00568924,0.0123122,1861,750,11.1483,-0.706711
644,274,11.1597,0.899048,-0.00728248,-0.00282556,-0.00648327,0.00180155,-0.0119096,-0.950935,0.00860335,0.0115307,1868,750,11.1596,-0.899046
651,274,11.1456,1.09656,-0.00518911,-0.00274563,-0.00721244,0.00334781,-0.0112826,-0.869298,0.00885126,0.0128388,1875,750,11.1456,-1.09657
658,274,11.1542,1.28455,-0.00305511,-0.00261437,-0.00648698,0.00365598,-0.00932546,-0.802377,0.00772942,0.0153735,1882,750,11.1541,-1.28457
665,274,11.1707,1.48315,-0.00146909,-0.00197244,-0.00479738,0.00308321,-0.00652474,-0.759192,0.00566453,0.0164686,1889,750,11.1706,-1.48314
672,274,11.1628,1.6756,-5.64814e-05,-0.0013185,-0.00339236,0.00276305,-0.00413803,-0.693444,0.00401062,0.0139826,1896,750,11.1628,-1.67561
679,274,11.1556,1.85773,0.00161209,-0.000534393,-0.00208583,0.0028846,-0.0018069,-0.547792,0.00273235,0.0142883,1903,750,11.1557,-1.8577
686,274,11.16,2.02234,0.00303172,0.000240552,-0.00151241,0.00369406,-0.000421788,-0.412776,0.00261467,0.0135767,1910,750,11.1601,-2.02235
693,274,11.1688,2.19946,0.00456622,0.00108337,-0.00134158,0.00502307,0.000626527,-0.328212,0.00316064,0.0115348,1917,750,11.1688,-2.19949
700,274,11.1824,2.38,0.00626322,0.00228097,-0.00154758,0.00679391,0.00175027,-0.330354,0.00407319,0.0137097,1924,750,11.1824,-2.38002
707,274,11.158,2.5473,0.00821731,0.00413916,-0.00216354,0.00915123,0.00320523,-0.407502,0.00536187,0.0201652,1931,750,11.1579,-2.54729
714,274,11.1147,2.68982,0.0105839,0.00645733,-0.00306321,0.0122139,0.00482733,-0.489013,0.00710313,0.0388705,1938,750,11.1147,-2.68983
721,274,11.1322,2.78833,0.0130283,0.00992054,-0.00417013,0.0159247,0.0070242,-0.607056,0.00921535,0.049559,1945,750,11.1322,-2.78833
728,274,11.2268,2.93872,0,0,0,0,0,0,0,-1,1952,750,11.2268,-2.93873
735,274,11.4948,2.76038,0,0,0,0,0,0,0,-1,1959,750,11.4948,-2.76039
742,274,11.7815,-0.740234,0,0,0,0,0,0,0,-1,1966,750,11.7815,0.740253
749,274,0,0,0,0,0,0,0,0,0,-1,1973,750,0,0
756,274,0,0,0,0,0,0,0,0,0,-1,1980,750,0,0
763,274,0,0,0,0,0,0,0,0,0,-1,1987,750,0,0
770,274,0,0,0,0,0,0,0,0,0,-1,1994,750,0,0
777,274,0,0,0,0,0,0,0,0,0,-1,2001,750,0,0
784,274,0,0,0,0,0,0,0,0,0,-1,2008,750,0,0
791,274,0,0,0,0,0,0,0,0,0,-1,2015,750,0,0
798,274,0,0,0,0,0,0,0,0,0,-1,2022,750,0,0
805,274,0,0,0,0,0,0,0,0,0,-1,2029,750,0,0
812,274,0,0,0,0,0,0,0,0,0,-1,2036,750,0,0
-700,267,0,0,0,0,0,0,0,0,0,-1,524,757,0,0
-693,267,0,0,0,0,0,0,0,0,0,-1,531,757,0,0
-686,267,0,0,0,0,0,0,0,0,0,-1,538,757,0,0
-679,267,0,0,0,0,0,0,0,0,0,-1,545,757,0,0
-672,267,0,0,0,0,0,0,0,0,0,-1,552,757,0,0
-665,267,0,0,0,0,0,0,0,0,0,-1,559,757,0,0
-658,267,0,0,0,0,0,0,0,0,0,-1,566,757,0,0
-651,267,0,0,0,0,0,0,0,0,0,-1,573,757,0,0
-644,267,0,0,0,0,0,0,0,0,0,-1,580,757,0,0
-637,267,0,0,0,0,0,0,0,0,0,-1,587,757,0,0
-630,267,-5.67786,2.58307,0,0,0,0,0,0,0,-1,594,757,-5.67783,-2.58304
-623,267,-5.90967,1.59277,0,0,0,0,0,0,0,-1,601,757,-5.90965,-1.59277
-616,267,-6.10858,0.628296,0,0,0,0,0,0,0,-1,608,757,-6.10858,-0.628325
-609,267,-3.54639,2.13812,0,0,0,0,0,0,0,-1,615,757,-3.54639,-2.13811
-602,267,-4.03052,1.84241,0,0,0,0,0,0,0,-1,622,757,-4.03051,-1.8424
-595,267,-6.22345,1.20575,0,0,0,0,0,0,0,-1,629,757,-6.22346,-1.20573
-588,267,-6.19653,0.97229,0,0,0,0,0,0,0,-1,636,757,-6.19651,-0.972297
-581,267,-6.17383,0.692139,0.0168259,0.00975463,0.00548064,0.0198124,0.00676814,0.498933,0.0116284,0.0271629,643,757,-6.1738,-0.692162
-574,267,-6.27655,0.485901,0.00492288,0.00703293,0.00700467,0.0130616,-0.00110578,0.860145,0.00909874,0.0143,650,757,-6.27657,-0.485892
-567,267,-6.30963,0.346313,-0.000482189,0.00424409,0.00594747,0.0082807,-0.0045188,0.974502,0.00749543,0.0209617,657,757,-6.30963,-0.346322
-560,267,-6.30591,0.190552,-0.00162011,0.00174321,0.00428805,0.00466756,-0.00454447,0.972269,0.00531873,0.020772,664,757,-6.30589,-0.190549
-553,267,-6.31262,0.0327148,-0.00293386,-5.78054e-05,0.003351,0.00215069,-0.00514235,0.988082,0.00432712,0.0171994,671,757,-6.31263,-0.0327166
-546,267,-6.30945,-0.158508,-0.00420821,-0.00177358,0.00263146,-9.15055e-05,-0.00589028,1.00204,0.00389671,0.011463,678,757,-6.30944,0.158505
-539,267,-6.30444,-0.332092,-0.00488345,-0.00123134,0.00312161,0.00055909,-0.00667387,1.05005,0.00464684,0.0101302,685,757,-6.30442,0.332072
-532,267,-6.28552,-0.496582,-0.00607721,-0.00037741,0.00377703,0.00150427,-0.0079589,1.1086,0.00587194,0.00999114,692,757,-6.28555,0.496564
-525,267,-6.29047,-0.661377,-0.00747597,0.000833236,0.00487475,0.00308362,-0.00972636,1.1383,0.0077202,0.00978888,699,757,-6.29045,0.661395
-518,267,-6.30042,-0.824951,-0.00889159,0.00235791,0.00583731,0.00483945,-0.0113731,1.16883,0.00961037,0.0100106,706,757,-6.30041,0.824977
-511,267,-6.28986,-1.00348,-0.0103842,0.00407787,0.00683812,0.00679912,-0.0131054,1.19206,0.0116826,0.0131845,713,757,-6.28985,1.00345
-504,267,-6.33972,-1.17963,-0.0120107,0.00659459,0.00811822,0.0096388,-0.0150549,1.21204,0.0143707,0.0239001,720,757,-6.3397,1.17963
-497,267,-6.8905,-1.49719,-0.013327,0.00988357,0.00933859,0.0131743,-0.0166177,1.232,0.0172387,0.0432464,727,757,-6.89052,1.49716
-490,267,-6.69965,-1.82764,0,0,0,0,0,0,0,-1,734,757,-6.69968,1.82762
-483,267,-6.75281,-1.89966,-0.013724,0.0186085,0.0109009,0.0219404,-0.0170559,1.27416,0.0225733,0.04726,741,757,-6.75283,1.89966
-476,267,-7.27692,-1.7981,-0.0121689,0.0236888,0.0109383,0.0267621,-0.0152422,1.29689,0.0245533,0.0435641,748,757,-7.2769,1.7981
-469,267,-7.90851,-1.47754,0,0,0,0,0,0,0,-1,755,757,-7.9085,1.47754
-462,267,-8.5412,-1.198,0,0,0,0,0,0,0,-1,762,757,-8.5412,1.19798
-455,267,-10.8613,0.330627,0,0,0,0,0,0,0,-1,769,757,-10.8614,-0.33064
-448,267,-10.0237,0.725891,0,0,0,0,0,0,0,-1,776,757,-10.0237,-0.725862
-441,267,0,0,0,0,0,0,0,0,0,-1,783,757,0,0
-434,267,0,0,0,0,0,0,0,0,0,-1,790,757,0,0
-427,267,0,0,0,0,0,0,0,0,0,-1,797,757,0,0
-420,267,0,0,0,0,0,0,0,0,0,-1,804,757,0,0
-413,267,0,0,0,0,0,0,0,0,0,-1,811,757,0,0
-406,267,0,0,0,0,0,0,0,0,0,-1,818,757,0,0
-399,267,0,0,0,0,0,0,0,0,0,-1,825,757,0,0
-392,267,0,0,0,0,0,0,0,0,0,-1,832,757,0,0
-385,267,0,0,0,0,0,0,0,0,0,-1,839,757,0,0
-378,267,0,0,0,0,0,0,0,0,0,-1,846,757,0,0
-371,267,0,0,0,0,0,0,0,0,0,-1,853,757,0,0
-364,267,0,0,0,0,0,0,0,0,0,-1,860,757,0,0
-357,267,0,0,0,0,0,0,0,0,0,-1,867,757,0,0
-350,267,0,0,0,0,0,0,0,0,0,-1,874,757,0,0
-343,267,0,0,0,0,0,0,0,0,0,-1,881,757,0,0
-336,267,0,0,0,0,0,0,0,0,0,-1,888,757,0,0
-329,267,0,0,0,0,0,0,0,0,0,-1,895,757,0,0
-322,267,0,0,0,0,0,0,0,0,0,-1,902,757,0,0
-315,267,0,0,0,0,0,0,0,0,0,-1,909,757,0,0
-308,267,0,0,0,0,0,0,0,0,0,-1,916,757,0,0
-301,267,0,0,0,0,0,0,0,0,0,-1,923,757,0,0
-294,267,0,0,0,0,0,0,0,0,0,-1,930,757,0,0
-287,267,0,0,0,0,0,0,0,0,0,-1,937,757,0,0
-280,267,0,0,0,0,0,0,0,0,0,-1,944,757,0,0
-273,267,0,0,0,0,0,0,0,0,0,-1,951,757,0,0
-266,267,0,0,0,0,0,0,0,0,0,-1,958,757,0,0
-259,267,0,0,0,0,0,0,0,0,0,-1,965,757,0,0
-252,267,0,0,0,0,0,0,0,0,0,-1,972,757,0,0
-245,267,0,0,0,0,0,0,0,0,0,-1,979,757,0,0
-238,267,0,0,0,0,0,0,0,0,0,-1,986,757,0,0
-231,267,0,0,0,0,0,0,0,0,0,-1,993,757,0,0
-224,267,0,0,0,0,0,0,0,0,0,-1,1000,757,0,0
-217,267,0,0,0,0,0,0,0,0,0,-1,1007,757,0,0
-210,267,0,0,0,0,0,0,0,0,0,-1,1014,757,0,0
-203,267,0,0,0,0,0,0,0,0,0,-1,1021,757,0,0
-196,267,0,0,0,0,0,0,0,0,0,-1,1028,757,0,0
-189,267,0,0,0,0,0,0,0,0,0,-1,1035,757,0,0
-182,267,0,0,0,0,0,0,0,0,0,-1,1042,757,0,0
-175,267,0,0,0,0,0,0,0,0,0,-1,1049,757,0,0
-168,267,0,0,0,0,0,0,0,0,0,-1,1056,757,0,0
-161,267,0,0,0,0,0,0,0,0,0,-1,1063,757,0,0
-154,267,0,0,0,0,0,0,0,0,0,-1,1070,757,0,0
-147,267,0,0,0,0,0,0,0,0,0,-1,1077,757,0,0
-140,267,0,0,0,0,0,0,0,0,0,-1,1084,757,0,0
-133,267,0,0,0,0,0,0,0,0,0,-1,1091,757,0,0
-126,267,0,0,0,0,0,0,0,0,0,-1,1098,757,0,0
-119,267,0,0,0,0,0,0,0,0,0,-1,1105,757,0,0
-112,267,0,0,0,0,0,0,0,0,0,-1,1112,757,0,0
-105,267,0,0,0,0,0,0,0,0,0,-1,1119,757,0,0
-98,267,0,0,0,0,0,0,0,0,0,-1,1126,757,0,0
-91,267,0,0,0,0,0,0,0,0,0,-1,1133,757,0,0
-84,267,0,0,0,0,0,0,0,0,0,-1,1140,757,0,0
-77,267,0,0,0,0,0,0,0,0,0,-1,1147,757,0,0
-70,267,0,0,0,0,0,0,0,0,0,-1,1154,757,0,0
-63,267,0,0,0,0,0,0,0,0,0,-1,1161,757,0,0
-56,267,0,0,0,0,0,0,0,0,0,-1,1168,757,0,0
-49,267,0,0,0,0,0,0,0,0,0,-1,1175,757,0,0
-42,267,0,0,0,0,0,0,0,0,0,-1,1182,757,0,0
-35,267,0,0,0,0,0,0,0,0,0,-1,1189,757,0,0
-28,267,0,0,0,0,0,0,0,0,0,-1,1196,757,0,0
-21,267,0,0,0,0,0,0,0,0,0,-1,1203,757,0,0
-14,267,0,0,0,0,0,0,0,0,0,-1,1210,757,0,0
-7,267,0,0,0,0,0,0,0,0,0,-1,1217,757,0,0
0,267,0,0,0,0,0,0,0,0,0,-1,1224,757,0,0
7,267,0,0,0,0,0,0,0,0,0,-1,1231,757,0,0
14,267,0,0,0,0,0,0,0,0,0,-1,1238,757,0,0
21,267,0,0,0,0,0,0,0,0,0,-1,1245,757,0,0
28,267,0,0,0,0,0,0,0,0,0,-1,1252,757,0,0
35,267,0,0,0,0,0,0,0,0,0,-1,1259,757,0,0
42,267,0,0,0,0,0,0,0,0,0,-1,1266,757,0,0
49,267,0,0,0,0,0,0,0,0,0,-1,1273,757,0,0
56,267,0,0,0,0,0,0,0,0,0,-1,1280,757,0,0
63,267,0,0,0,0,0,0,0,0,0,-1,1287,757,0,0
70,267,0,0,0,0,0,0,0,0,0,-1,1294,757,0,0
77,267,0,0,0,0,0,0,0,0,0,-1,1301,757,0,0
84,267,0,0,0,0,0,0,0,0,0,-1,1308,757,0,0
91,267,0,0,0,0,0,0,0,0,0,-1,1315,757,0,0
98,267,0,0,0,0,0,0,0,0,0,-1,1322,757,0,0
105,267,0,0,0,0,0,0,0,0,0,-1,1329,757,0,0
112,267,0,0,0,0,0,0,0,0,0,-1,1336,757,0,0
119,267,0,0,0,0,0,0,0,0,0,-1,1343,757,0,0
126,267,0,0,0,0,0,0,0,0,0,-1,1350,757,0,0
133,267,0,0,0,0,0,0,0,0,0,-1,1357,757,0,0
140,267,0,0,0,0,0,0,0,0,0,-1,1364,757,0,0
147,267,0,0,0,0,0,0,0,0,0,-1,1371,757,0,0
154,267,0,0,0,0,0,0,0,0,0,-1,1378,757,0,0
161,267,0,0,0,0,0,0,0,0,0,-1,1385,757,0,0
168,267,0,0,0,0,0,0,0,0,0,-1,1392,757,0,0
175,267,0,0,0,0,0,0,0,0,0,-1,1399,757,0,0
182,267,0,0,0,0,0,0,0,0,0,-1,1406,757,0,0
189,267,0,0,0,0,0,0,0,0,0,-1,1413,757,0,0
196,267,0,0,0,0,0,0,0,0,0,-1,1420,757,0,0
203,267,0,0,0,0,0,0,0,0,0,-1,1427,757,0,0
210,267,0,0,0,0,0,0,0,0,0,-1,1434,757,0,0
217,267,0,0,0,0,0,0,0,0,0,-1,1441,757,0,0
224,267,0,0,0,0,0,0,0,0,0,-1,1448,757,0,0
231,267,0,0,0,0,0,0,0,0,0,-1,1455,757,0,0
238,267,0,0,0,0,0,0,0,0,0,-1,1462,757,0,0
245,267,0,0,0,0,0,0,0,0,0,-1,1469,757,0,0
252,267,0,0,0,0,0,0,0,0,0,-1,1476,757,0,0
259,267,0,0,0,0,0,0,0,0,0,-1,1483,757,0,0
266,267,0,0,0,0,0,0,0,0,0,-1,1490,757,0,0
273,267,0,0,0,0,0,0,0,0,0,-1,1497,757,0,0
280,267,0,0,0,0,0,0,0,0,0,-1,1504,757,0,0
287,267,0,0,0,0,0,0,0,0,0,-1,1511,757,0,0
294,267,0,0,0,0,0,0,0,0,0,-1,1518,757,0,0
301,267,0,0,0,0,0,0,0,0,0,-1,1525,757,0,0
308,267,0,0,0,0,0,0,0,0,0,-1,1532,757,0,0
315,267,0,0,0,0,0,0,0,0,0,-1,1539,757,0,0
322,267,0,0,0,0,0,0,0,0,0,-1,1546,757,0,0
329,267,0,0,0,0,0,0,0,0,0,-1,1553,757,0,0
336,267,0,0,0,0,0,0,0,0,0,-1,1560,757,0,0
343,267,0,0,0,0,0,0,0,0,0,-1,1567,757,0,0
350,267,0,0,0,0,0,0,0,0,0,-1,1574,757,0,0
357,267,0,0,0,0,0,0,0,0,0,-1,1581,757,0,0
364,267,0,0,0,0,0,0,0,0,0,-1,1588,757,0,0
371,267,0,0,0,0,0,0,0,0,0,-1,1595,757,0,0
378,267,0,0,0,0,0,0,0,0,0,-1,1602,757,0,0
385,267,0,0,0,0,0,0,0,0,0,-1,1609,757,0,0
392,267,0,0,0,0,0,0,0,0,0,-1,1616,757,0,0
399,267,0,0,0,0,0,0,0,0,0,-1,1623,757,0,0
406,267,0,0,0,0,0,0,0,0,0,-1,1630,757,0,0
413,267,0,0,0,0,0,0,0,0,0,-1,1637,757,0,0
420,267,0,0,0,0,0,0,0,0,0,-1,1644,757,0,0
427,267,0,0,0,0,0,0,0,0,0,-1,1651,757,0,0
434,267,0,0,0,0,0,0,0,0,0,-1,1658,757,0,0
441,267,0,0,0,0,0,0,0,0,0,-1,1665,757,0,0
448,267,0,0,0,0,0,0,0,0,0,-1,1672,757,0,0
455,267,0,0,0,0,0,0,0,0,0,-1,1679,757,0,0
462,267,0,0,0,0,0,0,0,0,0,-1,1686,757,0,0
469,267,0,0,0,0,0,0,0,0,0,-1,1693,757,0,0
476,267,0,0,0,0,0,0,0,0,0,-1,1700,757,0,0
483,267,0,0,0,0,0,0,0,0,0,-1,1707,757,0,0
490,267,0,0,0,0,0,0,0,0,0,-1,1714,757,0,0
497,267,0,0,0,0,0,0,0,0,0,-1,1721,757,0,0
504,267,0,0,0,0,0,0,0,0,0,-1,1728,757,0,0
511,267,0,0,0,0,0,0,0,0,0,-1,1735,757,0,0
518,267,0,0,0,0,0,0,0,0,0,-1,1742,757,0,0
525,267,0,0,0,0,0,0,0,0,0,-1,1749,757,0,0
532,267,0,0,0,0,0,0,0,0,0,-1,1756,757,0,0
539,267,0,0,0,0,0,0,0,0,0,-1,1763,757,0,0
546,267,0,0,0,0,0,0,0,0,0,-1,1770,757,0,0
553,267,0,0,0,0,0,0,0,0,0,-1,1777,757,0,0
560,267,0,0,0,0,0,0,0,0,0,-1,1784,757,0,0
567,267,15.663,2.60754,0,0,0,0,0,0,0,-1,1791,757,15.6629,-2.60754
574,267,15.8251,2.58423,0,0,0,0,0,0,0,-1,1798,757,15.825,-2.58421
581,267,18.2701,0.820068,0,0,0,0,0,0,0,-1,1805,757,18.2702,-0.820088
588,267,18.1073,1.45386,0.0143412,-0.031021,0.0553705,0.0514959,-0.0681757,0.59101,0.0693157,0.0478621,1812,757,18.1074,-1.45385
595,267,17.6836,1.92603,0.00611921,-0.0233973,0.0422146,0.0360809,-0.0533591,0.617238,0.0519584,0.0483955,1819,757,17.6836,-1.92604
602,267,17.2968,2.50598,9.98262e-05,-0.0174673,0.030297,0.0228608,-0.0402283,0.644308,0.0368817,0.0474679,1826,757,17.2967,-2.50597
609,267,16.7943,2.99408,0,0,0,0,0,0,0,-1,1833,757,16.7944,-2.99409
616,267,12.5265,1.72156,0,0,0,0,0,0,0,-1,1840,757,12.5265,-1.72156
623,267,11.1968,0.456543,0,0,0,0,0,0,0,-1,1847,757,11.1967,-0.456546
630,267,11.2305,0.592102,-0.00830468,-0.00579151,-0.00134702,-0.00520596,-0.00889023,-1.16074,0.00515778,0.0378881,1854,757,11.2305,-0.592121
637,267,11.3254,0.657837,-0.00864386,-0.00433634,-0.00509004,-0.000963149,-0.012017,-0.985542,0.0077104,0.0228161,1861,757,11.3255,-0.657855
644,267,11.3348,0.889282,-0.00833165,-0.00270687,-0.00830418,0.00324823,-0.0142867,-0.948672,0.0107718,0.0122175,1868,757,11.3349,-0.889289
651,267,11.3199,1.10199,-0.00623801,-0.00278545,-0.00904202,0.0046936,-0.0137171,-0.879722,0.0110468,0.0146537,1875,757,11.32,-1.10202
658,267,11.3527,1.27203,-0.00395831,-0.0028137,-0.00819645,0.0048304,-0.0116024,-0.820253,0.00975233,0.0154579,1882,757,11.3526,-1.27203
665,267,11.377,1.47205,-0.00222456,-0.00232608,-0.00618401,0.0039089,-0.00845953,-0.781294,0.00730025,0.016356,1889,757,11.3769,-1.47205
672,267,11.3571,1.66498,-0.000670192,-0.00172105,-0.00441464,0.00325018,-0.00564142,-0.726167,0.00519508,0.0139447,1896,757,11.357,-1.66496
679,267,11.342,1.85254,0.00120319,-0.0010342,-0.00263943,0.00295121,-0.00278223,-0.584955,0.00331068,0.0130583,1903,757,11.3421,-1.85255
686,267,11.358,2.03607,0.00270337,-0.000289476,-0.00168259,0.0034587,-0.00104481,-0.421947,0.00272176,0.0123164,1910,757,11.3581,-2.03606
693,267,11.3595,2.1972,0.00425919,0.000539189,-0.00110797,0.00456419,0.000234195,-0.26862,0.00296781,0.0121383,1917,757,11.3595,-2.19722
700,267,11.369,2.3656,0.0058744,0.00173258,-0.00106277,0.00613118,0.0014758,-0.237072,0.0036951,0.0142946,1924,757,11.369,-2.36562
707,267,11.3644,2.52289,0.00710516,0.00365288,-0.00138169,0.00759004,0.003168,-0.337509,0.00440201,0.0143156,1931,757,11.3644,-2.52287
714,267,11.3583,2.68439,0.00814075,0.00569502,-0.00176625,0.00906615,0.00476962,-0.482611,0.00523672,0.0273233,1938,757,11.3583,-2.68437
721,267,11.4647,3.04657,0.00912185,0.00876924,-0.00233671,0.0112889,0.00660219,-0.747744,0.00654885,0.046364,1945,757,11.4647,-3.04654
728,267,11.4777,3.43762,0,0,0,0,0,0,0,-1,1952,757,11.4777,-3.43765
735,267,11.6313,3.42743,0,0,0,0,0,0,0,-1,1959,757,11.6314,-3.4274
742,267,12.3191,3.23969,0,0,0,0,0,0,0,-1,1966,757,12.319,-3.23968
749,267,0,0,0,0,0,0,0,0,0,-1,1973,757,0,0
756,267,0,0,0,0,0,0,0,0,0,-1,1980,757,0,0
763,267,0,0,0,0,0,0,0,0,0,-1,1987,757,0,0
770,267,0,0,0,0,0,0,0,0,0,-1,1994,757,0,0
777,267,0,0,0,0,0,0,0,0,0,-1,2001,757,0,0
784,267,0,0,0,0,0,0,0,0,0,-1,2008,757,0,0
791,267,0,0,0,0,0,0,0,0,0,-1,2015,757,0,0
798,267,0,0,0,0,0,0,0,0,0,-1,2022,757,0,0
805,267,0,0,0,0,0,0,0,0,0,-1,2029,757,0,0
812,267,0,0,0,0,0,0,0,0,0,-1,2036,757,0,0
-700,260,0,0,0,0,0,0,0,0,0,-1,524,764,0,0
-693,260,0,0,0,0,0,0,0,0,0,-1,531,764,0,0
-686,260,0,0,0,0,0,0,0,0,0,-1,538,764,0,0
-679,260,0,0,0,0,0,0,0,0,0,-1,545,764,0,0
-672,260,0,0,0,0,0,0,0,0,0,-1,552,764,0,0
-665,260,0,0,0,0,0,0,0,0,0,-1,559,764,0,0
-658,260,0,0,0,0,0,0,0,0,0,-1,566,764,0,0
-651,260,0,0,0,0,0,0,0,0,0,-1,573,764,0,0
-644,260,0,0,0,0,0,0,0,0,0,-1,580,764,0,0
-637,260,0,0,0,0,0,0,0,0,0,-1,587,764,0,0
-630,260,-10.632,-2.7641,0,0,0,0,0,0,0,-1,594,764,-10.632,2.76413
-623,260,-6.14716,1.61786,0,0,0,0,0,0,0,-1,601,764,-6.14717,-1.61787
-616,260,-7.26715,1.20966,0,0,0,0,0,0,0,-1,608,764,-7.26716,-1.20963
-609,260,-6.5238,2.04376,0,0,0,0,0,0,0,-1,615,764,-6.5238,-2.04376
-602,260,-5.58887,2.67676,0,0,0,0,0,0,0,-1,622,764,-5.58888,-2.67674
-595,260,-6.09821,0.979614,0,0,0,0,0,0,0,-1,629,764,-6.0982,-0.979607
-588,260,-6.38983,0.757324,0,0,0,0,0,0,0,-1,636,764,-6.38981,-0.757333
-581,260,-6.40814,0.633484,0.0187494,0.00948232,0.00421072,0.0203768,0.00785488,0.368813,0.011867,0.0228338,643,764,-6.40814,-0.633504
-574,260,-6.46808,0.482117,0.00694814,0.00709696,0.00603269,0.0130557,0.0009894,0.791565,0.00839346,0.0159061,650,764,-6.46807,-0.482123
-567,260,-6.47845,0.351135,0.00119216,0.00447915,0.00531759,0.00840143,-0.00273011,0.935276,0.00669907,0.0169651,657,764,-6.47848,-0.351124
-560,260,-6.47131,0.19165,-0.000524908,0.00198743,0.00398269,0.00490735,-0.00344483,0.938164,0.00484672,0.017854,664,764,-6.47129,-0.191629
-553,260,-6.46796,0.019043,-0.00245456,8.81727e-05,0.00337582,0.0024241,-0.00479049,0.965489,0.00423937,0.0165895,671,764,-6.46795,-0.0190419
-546,260,-6.46033,-0.154297,-0.00429036,-0.00171274,0.00285114,0.000127354,-0.00613045,0.99767,0.00413007,0.0115965,678,764,-6.46031,0.154304
-539,260,-6.46075,-0.322205,-0.00545346,-0.00123534,0.00354983,0.000784693,-0.0074735,1.05344,0.00526343,0.0112348,685,764,-6.46075,0.32223
-532,260,-6.44952,-0.473267,-0.00703809,-0.000406916,0.00435964,0.00175468,-0.00919969,1.1105,0.00679398,0.0128061,692,764,-6.44949,0.47326
-525,260,-6.46173,-0.640381,-0.00867814,0.000767257,0.00549184,0.00328778,-0.0111987,1.14052,0.00876959,0.0119324,699,764,-6.46175,0.640407
-518,260,-6.47894,-0.81543,-0.0102724,0.0022629,0.00643154,0.00497569,-0.0129851,1.17164,0.0107079,0.0121785,706,764,-6.47897,0.81545
-511,260,-6.46649,-0.994751,-0.0118213,0.00396147,0.00729212,0.0068148,-0.0146746,1.19782,0.0126805,0.0199615,713,764,-6.46652,0.994753
-504,260,-6.52039,-1.22742,-0.0133798,0.00643758,0.00829486,0.00945123,-0.0163935,1.22231,0.0150998,0.035984,720,764,-6.5204,1.2274
-497,260,-7.21613,-1.3197,-0.0145033,0.00962529,0.00908548,0.0126638,-0.0175417,1.24806,0.0175148,0.0483365,727,764,-7.21614,1.31969
-490,260,-7.77368,-1.48853,0,0,0,0,0,0,0,-1,734,764,-7.77365,1.48851
-483,260,-6.90662,-2.07843,0,0,0,0,0,0,0,-1,741,764,-6.90659,2.07844
-476,260,-7.72156,-1.91711,0,0,0,0,0,0,0,-1,748,764,-7.72153,1.91709
-469,260,-8.25439,-1.67261,0,0,0,0,0,0,0,-1,755,764,-8.25437,1.67258
-462,260,-10.5607,0.467346,0,0,0,0,0,0,0,-1,762,764,-10.5607,-0.467334
-455,260,-10.65,0.464172,0,0,0,0,0,0,0,-1,769,764,-10.65,-0.464158
-448,260,0,0,0,0,0,0,0,0,0,-1,776,764,0,0
-441,260,0,0,0,0,0,0,0,0,0,-1,783,764,0,0
-434,260,0,0,0,0,0,0,0,0,0,-1,790,764,0,0
-427,260,0,0,0,0,0,0,0,0,0,-1,797,764,0,0
-420,260,0,0,0,0,0,0,0,0,0,-1,804,764,0,0
-413,260,0,0,0,0,0,0,0,0,0,-1,811,764,0,0
-406,260,0,0,0,0,0,0,0,0,0,-1,818,764,0,0
-399,260,0,0,0,0,0,0,0,0,0,-1,825,764,0,0
-392,260,0,0,0,0,0,0,0,0,0,-1,832,764,0,0
-385,260,0,0,0,0,0,0,0,0,0,-1,839,764,0,0
-378,260,0,0,0,0,0,0,0,0,0,-1,846,764,0,0
-371,260,0,0,0,0,0,0,0,0,0,-1,853,764,0,0
-364,260,0,0,0,0,0,0,0,0,0,-1,860,764,0,0
-357,260,0,0,0,0,0,0,0,0,0,-1,867,764,0,0
-350,260,0,0,0,0,0,0,0,0,0,-1,874,764,0,0
-343,260,0,0,0,0,0,0,0,0,0,-1,881,764,0,0
-336,260,0,0,0,0,0,0,0,0,0,-1,888,764,0,0
-329,260,0,0,0,0,0,0,0,0,0,-1,895,764,0,0
-322,260,0,0,0,0,0,0,0,0,0,-1,902,764,0,0
-315,260,0,0,0,0,0,0,0,0,0,-1,909,764,0,0
-308,260,0,0,0,0,0,0,0,0,0,-1,916,764,0,0
-301,260,0,0,0,0,0,0,0,0,0,-1,923,764,0,0
-294,260,0,0,0,0,0,0,0,0,0,-1,930,764,0,0
-287,260,0,0,0,0,0,0,0,0,0,-1,937,764,0,0
-280,260,0,0,0,0,0,0,0,0,0,-1,944,764,0,0
-273,260,0,0,0,0,0,0,0,0,0,-1,951,764,0,0
-266,260,0,0,0,0,0,0,0,0,0,-1,958,764,0,0
-259,260,0,0,0,0,0,0,0,0,0,-1,965,764,0,0
-252,260,0,0,0,0,0,0,0,0,0,-1,972,764,0,0
-245,260,0,0,0,0,0,0,0,0,0,-1,979,764,0,0
-238,260,0,0,0,0,0,0,0,0,0,-1,986,764,0,0
-231,260,0,0,0,0,0,0,0,0,0,-1,993,764,0,0
-224,260,0,0,0,0,0,0,0,0,0,-1,1000,764,0,0
-217,260,0,0,0,0,0,0,0,0,0,-1,1007,764,0,0
-210,260,0,0,0,0,0,0,0,0,0,-1,1014,764,0,0
-203,260,0,0,0,0,0,0,0,0,0,-1,1021,764,0,0
-196,260,0,0,0,0,0,0,0,0,0,-1,1028,764,0,0
-189,260,0,0,0,0,0,0,0,0,0,-1,1035,764,0,0
-182,260,0,0,0,0,0,0,0,0,0,-1,1042,764,0,0
-175,260,0,0,0,0,0,0,0,0,0,-1,1049,764,0,0
-168,260,0,0,0,0,0,0,0,0,0,-1,1056,764,0,0
-161,260,0,0,0,0,0,0,0,0,0,-1,1063,764,0,0
-154,260,0,0,0,0,0,0,0,0,0,-1,1070,764,0,0
-147,260,0,0,0,0,0,0,0,0,0,-1,1077,764,0,0
-140,260,0,0,0,0,0,0,0,0,0,-1,1084,764,0,0
-133,260,0,0,0,0,0,0,0,0,0,-1,1091,764,0,0
-126,260,0,0,0,0,0,0,0,0,0,-1,1098,764,0,0
-119,260,0,0,0,0,0,0,0,0,0,-1,1105,764,0,0
-112,260,0,0,0,0,0,0,0,0,0,-1,1112,764,0,0
-105,260,0,0,0,0,0,0,0,0,0,-1,1119,764,0,0
-98,260,0,0,0,0,0,0,0,0,0,-1,1126,764,0,0
-91,260,0,0,0,0,0,0,0,0,0,-1,1133,764,0,0
-84,260,0,0,0,0,0,0,0,0,0,-1,1140,764,0,0
-77,260,0,0,0,0,0,0,0,0,0,-1,1147,764,0,0
-70,260,0,0,0,0,0,0,0,0,0,-1,1154,764,0,0
-63,260,0,0,0,0,0,0,0,0,0,-1,1161,764,0,0
-56,260,0,0,0,0,0,0,0,0,0,-1,1168,764,0,0
-49,260,0,0,0,0,0,0,0,0,0,-1,1175,764,0,0
-42,260,0,0,0,0,0,0,0,0,0,-1,1182,764,0,0
-35,260,0,0,0,0,0,0,0,0,0,-1,1189,764,0,0
-28,260,0,0,0,0,0,0,0,0,0,-1,1196,764,0,0
-21,260,0,0,0,0,0,0,0,0,0,-1,1203,764,0,0
-14,260,0,0,0,0,0,0,0,0,0,-1,1210,764,0,0
-7,260,0,0,0,0,0,0,0,0,0,-1,1217,764,0,0
0,260,0,0,0,0,0,0,0,0,0,-1,1224,764,0,0
7,260,0,0,0,0,0,0,0,0,0,-1,1231,764,0,0
14,260,0,0,0,0,0,0,0,0,0,-1,1238,764,0,0
21,260,0,0,0,0,0,0,0,0,0,-1,1245,764,0,0
28,260,0,0,0,0,0,0,0,0,0,-1,1252,764,0,0
35,260,0,0,0,0,0,0,0,0,0,-1,1259,764,0,0
42,260,0,0,0,0,0,0,0,0,0,-1,1266,764,0,0
49,260,0,0,0,0,0,0,0,0,0,-1,1273,764,0,0
56,260,0,0,0,0,0,0,0,0,0,-1,1280,764,0,0
63,260,0,0,0,0,0,0,0,0,0,-1,1287,764,0,0
70,260,0,0,0,0,0,0,0,0,0,-1,1294,764,0,0
77,260,0,0,0,0,0,0,0,0,0,-1,1301,764,0,0
84,260,0,0,0,0,0,0,0,0,0,-1,1308,764,0,0
91,260,0,0,0,0,0,0,0,0,0,-1,1315,764,0,0
98,260,0,0,0,0,0,0,0,0,0,-1,1322,764,0,0
105,260,0,0,0,0,0,0,0,0,0,-1,1329,764,0,0
112,260,0,0,0,0,0,0,0,0,0,-1,1336,764,0,0
119,260,0,0,0,0,0,0,0,0,0,-1,1343,764,0,0
126,260,0,0,0,0,0,0,0,0,0,-1,1350,764,0,0
133,260,0,0,0,0,0,0,0,0,0,-1,1357,764,0,0
140,260,0,0,0,0,0,0,0,0,0,-1,1364,764,0,0
147,260,0,0,0,0,0,0,0,0,0,-1,1371,764,0,0
154,260,0,0,0,0,0,0,0,0,0,-1,1378,764,0,0
161,260,0,0,0,0,0,0,0,0,0,-1,1385,764,0,0
168,260,0,0,0,0,0,0,0,0,0,-1,1392,764,0,0
175,260,0,0,0,0,0,0,0,0,0,-1,1399,764,0,0
182,260,0,0,0,0,0,0,0,0,0,-1,1406,764,0,0
189,260,0,0,0,0,0,0,0,0,0,-1,1413,764,0,0
196,260,0,0,0,0,0,0,0,0,0,-1,1420,764,0,0
203,260,0,0,0,0,0,0,0,0,0,-1,1427,764,0,0
210,260,0,0,0,0,0,0,0,0,0,-1,1434,764,0,0
217,260,0,0,0,0,0,0,0,0,0,-1,1441,764,0,0
224,260,0,0,0,0,0,0,0,0,0,-1,1448,764,0,0
231,260,0,0,0,0,0,0,0,0,0,-1,1455,764,0,0
238,260,0,0,0,0,0,0,0,0,0,-1,1462,764,0,0
245,260,0,0,0,0,0,0,0,0,0,-1,1469,764,0,0
252,260,0,0,0,0,0,0,0,0,0,-1,1476,764,0,0
259,260,0,0,0,0,0,0,0,0,0,-1,1483,764,0,0
266,260,0,0,0,0,0,0,0,0,0,-1,1490,764,0,0
273,260,0,0,0,0,0,0,0,0,0,-1,1497,764,0,0
280,260,0,0,0,0,0,0,0,0,0,-1,1504,764,0,0
287,260,0,0,0,0,0,0,0,0,0,-1,1511,764,0,0
294,260,0,0,0,0,0,0,0,0,0,-1,1518,764,0,0
301,260,0,0,0,0,0,0,0,0,0,-1,1525,764,0,0
308,260,0,0,0,0,0,0,0,0,0,-1,1532,764,0,0
315,260,0,0,0,0,0,0,0,0,0,-1,1539,764,0,0
322,260,0,0,0,0,0,0,0,0,0,-1,1546,764,0,0
329,260,0,0,0,0,0,0,0,0,0,-1,1553,764,0,0
336,260,0,0,0,0,0,0,0,0,0,-1,1560,764,0,0
343,260,0,0,0,0,0,0,0,0,0,-1,1567,764,0,0
350,260,0,0,0,0,0,0,0,0,0,-1,1574,764,0,0
357,260,0,0,0,0,0,0,0,0,0,-1,1581,764,0,0
364,260,0,0,0,0,0,0,0,0,0,-1,1588,764,0,0
371,260,0,0,0,0,0,0,0,0,0,-1,1595,764,0,0
378,260,0,0,0,0,0,0,0,0,0,-1,1602,764,0,0
385,260,0,0,0,0,0,0,0,0,0,-1,1609,764,0,0
392,260,0,0,0,0,0,0,0,0,0,-1,1616,764,0,0
399,260,0,0,0,0,0,0,0,0,0,-1,1623,764,0,0
406,260,0,0,0,0,0,0,0,0,0,-1,1630,764,0,0
413,260,0,0,0,0,0,0,0,0,0,-1,1637,764,0,0
420,260,0,0,0,0,0,0,0,0,0,-1,1644,764,0,0
427,260,0,0,0,0,0,0,0,0,0,-1,1651,764,0,0
434,260,0,0,0,0,0,0,0,0,0,-1,1658,764,0,0
441,260,0,0,0,0,0,0,0,0,0,-1,1665,764,0,0
448,260,0,0,0,0,0,0,0,0,0,-1,1672,764,0,0
455,260,0,0,0,0,0,0,0,0,0,-1,1679,764,0,0
462,260,0,0,0,0,0,0,0,0,0,-1,1686,764,0,0
469,260,0,0,0,0,0,0,0,0,0,-1,1693,764,0,0
476,260,0,0,0,0,0,0,0,0,0,-1,1700,764,0,0
483,260,0,0,0,0,0,0,0,0,0,-1,1707,764,0,0
490,260,0,0,0,0,0,0,0,0,0,-1,1714,764,0,0
497,260,0,0,0,0,0,0,0,0,0,-1,1721,764,0,0
504,260,0,0,0,0,0,0,0,0,0,-1,1728,764,0,0
511,260,0,0,0,0,0,0,0,0,0,-1,1735,764,0,0
518,260,0,0,0,0,0,0,0,0,0,-1,1742,764,0,0
525,260,0,0,0,0,0,0,0,0,0,-1,1749,764,0,0
532,260,0,0,0,0,0,0,0,0,0,-1,1756,764,0,0
539,260,0,0,0,0,0,0,0,0,0,-1,1763,764,0,0
546,260,0,0,0,0,0,0,0,0,0,-1,1770,764,0,0
553,260,0,0,0,0,0,0,0,0,0,-1,1777,764,0,0
560,260,0,0,0,0,0,0,0,0,0,-1,1784,764,0,0
567,260,0,0,0,0,0,0,0,0,0,-1,1791,764,0,0
574,260,15.7296,2.47632,0,0,0,0,0,0,0,-1,1798,764,15.7296,-2.47635
581,260,16.8048,2.05554,0,0,0,0,0,0,0,-1,1805,764,16.8048,-2.05556
588,260,17.1189,1.89893,0.010232,-0.0261964,0.0476379,0.0430191,-0.0589834,0.6028,0.0591311,0.0436164,1812,764,17.1189,-1.89895
595,260,17.1833,2.01373,0.00279379,-0.0197325,0.0358061,0.0290665,-0.0460051,0.633018,0.0437088,0.0463693,1819,764,17.1833,-2.01375
602,260,16.4235,2.48517,0,0,0,0,0,0,0,-1,1826,764,16.4235,-2.48518
609,260,12.8916,2.1665,0,0,0,0,0,0,0,-1,1833,764,12.8916,-2.1665
616,260,12.6296,3.39764,0,0,0,0,0,0,0,-1,1840,764,12.6296,-3.39762
623,260,12.2094,2.67041,0,0,0,0,0,0,0,-1,1847,764,12.2094,-2.67039
630,260,11.452,0.468689,0,0,0,0,0,0,0,-1,1854,764,11.452,-0.468708
637,260,11.4871,0.679504,-0.00961848,-0.00380377,-0.00725853,0.00110801,-0.0145303,-0.975886,0.0100765,0.0426154,1861,764,11.4871,-0.679482
644,260,11.5294,0.893677,-0.0092463,-0.00243962,-0.0101055,0.00482026,-0.0165062,-0.947823,0.0129143,0.0239216,1868,764,11.5294,-0.893686
651,260,11.5642,1.09692,-0.00730669,-0.00263366,-0.0107561,0.00603682,-0.0159772,-0.89235,0.0131346,0.0133577,1875,764,11.5642,-1.0969
658,260,11.5575,1.27661,-0.00503134,-0.00278868,-0.00980817,0.00596204,-0.0137821,-0.842314,0.0116935,0.0155743,1882,764,11.5575,-1.27663
665,260,11.5511,1.4693,-0.00321132,-0.00245972,-0.00758315,0.00475694,-0.010428,-0.810157,0.0089685,0.0160659,1889,764,11.5511,-1.4693
672,260,11.5382,1.65839,-0.00150629,-0.00192453,-0.00552184,0.00381039,-0.00724121,-0.766471,0.00648232,0.0139058,1896,764,11.5383,-1.65838
679,260,11.5114,1.84094,0.000616684,-0.00135185,-0.00334322,0.00311751,-0.00385268,-0.642239,0.0040317,0.0127623,1903,764,11.5113,-1.84091
686,260,11.5294,2.03119,0.00227495,-0.000644485,-0.0020277,0.00331371,-0.00168324,-0.473424,0.00293573,0.0130956,1910,764,11.5294,-2.03117
693,260,11.5293,2.19196,0.00391384,0.000169101,-0.00107647,0.00420123,-0.000118286,-0.260888,0.00284107,0.0127721,1917,764,11.5293,-2.19196
700,260,11.5198,2.35968,0.00548691,0.00132921,-0.000830277,0.00564658,0.00116954,-0.189992,0.00344143,0.0127904,1924,764,11.5197,-2.35971
707,260,11.5106,2.5174,0.00643338,0.00325659,-0.00099136,0.00671736,0.00297261,-0.278986,0.0038868,0.0140636,1931,764,11.5107,-2.5174
714,260,11.5239,2.72333,0.00699587,0.00513304,-0.00115467,0.00754796,0.00458095,-0.446007,0.0043909,0.0246768,1938,764,11.5239,-2.72333
721,260,11.5358,2.97125,0.00748081,0.00790778,-0.00153592,0.00924498,0.00614361,-0.854454,0.00543307,0.0421303,1945,764,11.5357,-2.97128
728,260,11.608,3.1925,0.00690753,0.0120352,-0.00206867,0.0127657,0.00617703,-1.23134,0.00737155,0.047958,1952,764,11.6081,-3.19252
735,260,11.7073,3.32263,0.00473281,0.0179066,-0.00291073,0.018521,0.00411835,-1.36275,0.0112292,0.0476917,1959,764,11.7073,-3.32262
742,260,11.767,3.43396,0,0,0,0,0,0,0,-1,1966,764,11.7669,-3.43395
749,260,12.6324,2.9726,0,0,0,0,0,0,0,-1,1973,764,12.6325,-2.97259
756,260,0,0,0,0,0,0,0,0,0,-1,1980,764,0,0
763,260,0,0,0,0,0,0,0,0,0,-1,1987,764,0,0
770,260,0,0,0,0,0,0,0,0,0,-1,1994,764,0,0
777,260,0,0,0,0,0,0,0,0,0,-1,2001,764,0,0
784,260,0,0,0,0,0,0,0,0,0,-1,2008,764,0,0
791,260,0,0,0,0,0,0,0,0,0,-1,2015,764,0,0
798,260,0,0,0,0,0,0,0,0,0,-1,2022,764,0,0
805,260,0,0,0,0,0,0,0,0,0,-1,2029,764,0,0
812,260,0,0,0,0,0,0,0,0,0,-1,2036,764,0,0
-700,253,0,0,0,0,0,0,0,0,0,-1,524,771,0,0
-693,253,0,0,0,0,0,0,0,0,0,-1,531,771,0,0
-686,253,0,0,0,0,0,0,0,0,0,-1,538,771,0,0
-679,253,0,0,0,0,0,0,0,0,0,-1,545,771,0,0
-672,253,0,0,0,0,0,0,0,0,0,-1,552,771,0,0
-665,253,0,0,0,0,0,0,0,0,0,-1,559,771,0,0
-658,253,0,0,0,0,0,0,0,0,0,-1,566,771,0,0
-651,253,0,0,0,0,0,0,0,0,0,-1,573,771,0,0
-644,253,0,0,0,0,0,0,0,0,0,-1,580,771,0,0
-637,253,-11.971,-0.873413,0,0,0,0,0,0,0,-1,587,771,-11.971,0.873408
-630,253,-10.3992,-2.48969,0,0,0,0,0,0,0,-1,594,771,-10.3992,2.48966
-623,253,-8.59906,0.235352,0,0,0,0,0,0,0,-1,601,771,-8.59908,-0.235324
-616,253,-7.63361,0.90918,0,0,0,0,0,0,0,-1,608,771,-7.63358,-0.909172
-609,253,-6.86908,1.78021,0.118726,0.0111697,-0.03109,0.127067,0.0028296,-0.262085,0.0837838,0.0445514,615,771,-6.86909,-1.78019
-602,253,-5.93439,2.43591,0.0864119,0.012303,-0.0181758,0.0906296,0.00808526,-0.228016,0.0579131,0.0480576,622,771,-5.93438,-2.43594
-595,253,-6.92688,0.207275,0,0,0,0,0,0,0,-1,629,771,-6.92689,-0.207255
-588,253,-6.7807,0.398193,0.0374244,0.00934373,-0.00227931,0.0376083,0.00915993,-0.0804681,0.0226451,0.0385778,636,771,-6.78069,-0.398182
-581,253,-6.59589,0.606079,0.0191475,0.00866946,0.00345066,0.0201818,0.00763518,0.291215,0.0117664,0.0234375,643,771,-6.59588,-0.606075
-574,253,-6.64856,0.469482,0.00787199,0.0065735,0.00503589,0.0123003,0.00214518,0.72129,0.00758692,0.019855,650,771,-6.64855,-0.469498
-567,253,-6.63916,0.316711,0.00217649,0.00421174,0.0045912,0.00789674,-0.00150851,0.894458,0.00583272,0.0156977,657,771,-6.63915,-0.316713
-560,253,-6.62103,0.176453,0.000164185,0.00184475,0.00355907,0.00466138,-0.00265245,0.901323,0.00427541,0.0116215,664,771,-6.62104,-0.176478
-553,253,-6.62921,0.0153198,-0.00218645,-2.55138e-05,0.00331771,0.00238324,-0.0045952,0.942815,0.00409591,0.0109129,671,771,-6.62923,-0.0153273
-546,253,-6.63599,-0.138062,-0.00443845,-0.00176513,0.00303161,0.000211413,-0.00641499,0.993032,0.00434884,0.0104875,678,771,-6.63597,0.138057
-539,253,-6.63702,-0.311707,-0.00599583,-0.00134756,0.00393823,0.000901185,-0.00824458,1.05197,0.00582008,0.0114305,685,771,-6.63703,0.311717
-532,253,-6.63153,-0.466125,-0.00783059,-0.000553568,0.00489171,0.00190444,-0.0102886,1.10516,0.00757411,0.0144497,692,771,-6.63154,0.466141
-525,253,-6.62384,-0.634583,-0.0096171,0.000559914,0.00603965,0.00336889,-0.0124261,1.13547,0.009606,0.011906,699,771,-6.62381,0.634601
-518,253,-6.65424,-0.814514,-0.0113004,0.00198753,0.00694753,0.00495659,-0.0142695,1.16693,0.0115261,0.0146836,706,771,-6.65421,0.814529
-511,253,-6.69446,-1.00232,-0.0128542,0.00363295,0.00768215,0.00665756,-0.0158788,1.19572,0.0133695,0.0337831,713,771,-6.69443,1.00234
-504,253,-6.74347,-1.17261,-0.0142974,0.00601128,0.00843004,0.00905453,-0.0173406,1.22436,0.0154875,0.0480443,720,771,-6.74349,1.17261
-497,253,-6.8103,-1.29926,-0.0152187,0.00905487,0.0088218,0.0119223,-0.0180861,1.25653,0.0174468,0.0498192,727,771,-6.81032,1.29928
-490,253,-7.99573,-1.08502,0,0,0,0,0,0,0,-1,734,771,-7.9957,1.08504
-483,253,-7.57727,-2.41272,0,0,0,0,0,0,0,-1,741,771,-7.57728,2.41269
-476,253,-8.27496,-1.62646,0,0,0,0,0,0,0,-1,748,771,-8.27499,1.62644
-469,253,-8.98492,-0.830933,0,0,0,0,0,0,0,-1,755,771,-8.98494,0.830923
-462,253,-10.4719,0.5849,-0.00711789,0.0285124,0.000395678,0.0285168,-0.00712229,1.55969,0.0217771,0.0446924,762,771,-10.4718,-0.584917
-455,253,-10.4761,0.601624,0,0,0,0,0,0,0,-1,769,771,-10.4761,-0.601639
-448,253,0,0,0,0,0,0,0,0,0,-1,776,771,0,0
-441,253,0,0,0,0,0,0,0,0,0,-1,783,771,0,0
-434,253,0,0,0,0,0,0,0,0,0,-1,790,771,0,0
-427,253,0,0,0,0,0,0,0,0,0,-1,797,771,0,0
-420,253,0,0,0,0,0,0,0,0,0,-1,804,771,0,0
-413,253,0,0,0,0,0,0,0,0,0,-1,811,771,0,0
-406,253,0,0,0,0,0,0,0,0,0,-1,818,771,0,0
-399,253,0,0,0,0,0,0,0,0,0,-1,825,771,0,0
-392,253,0,0,0,0,0,0,0,0,0,-1,832,771,0,0
-385,253,0,0,0,0,0,0,0,0,0,-1,839,771,0,0
-378,253,0,0,0,0,0,0,0,0,0,-1,846,771,0,0
-371,253,0,0,0,0,0,0,0,0,0,-1,853,771,0,0
-364,253,0,0,0,0,0,0,0,0,0,-1,860,771,0,0
-357,253,0,0,0,0,0,0,0,0,0,-1,867,771,0,0
-350,253,0,0,0,0,0,0,0,0,0,-1,874,771,0,0
-343,253,0,0,0,0,0,0,0,0,0,-1,881,771,0,0
-336,253,0,0,0,0,0,0,0,0,0,-1,888,771,0,0
-329,253,0,0,0,0,0,0,0,0,0,-1,895,771,0,0
-322,253,0,0,0,0,0,0,0,0,0,-1,902,771,0,0
-315,253,0,0,0,0,0,0,0,0,0,-1,909,771,0,0
-308,253,0,0,0,0,0,0,0,0,0,-1,916,771,0,0
-301,253,0,0,0,0,0,0,0,0,0,-1,923,771,0,0
-294,253,0,0,0,0,0,0,0,0,0,-1,930,771,0,0
-287,253,0,0,0,0,0,0,0,0,0,-1,937,771,0,0
-280,253,0,0,0,0,0,0,0,0,0,-1,944,771,0,0
-273,253,0,0,0,0,0,0,0,0,0,-1,951,771,0,0
-266,253,0,0,0,0,0,0,0,0,0,-1,958,771,0,0
-259,253,0,0,0,0,0,0,0,0,0,-1,965,771,0,0
-252,253,0,0,0,0,0,0,0,0,0,-1,972,771,0,0
-245,253,0,0,0,0,0,0,0,0,0,-1,979,771,0,0
-238,253,0,0,0,0,0,0,0,0,0,-1,986,771,0,0
-231,253,0,0,0,0,0,0,0,0,0,-1,993,771,0,0
-224,253,0,0,0,0,0,0,0,0,0,-1,1000,771,0,0
-217,253,0,0,0,0,0,0,0,0,0,-1,1007,771,0,0
-210,253,0,0,0,0,0,0,0,0,0,-1,1014,771,0,0
-203,253,0,0,0,0,0,0,0,0,0,-1,1021,771,0,0
-196,253,0,0,0,0,0,0,0,0,0,-1,1028,771,0,0
-189,253,0,0,0,0,0,0,0,0,0,-1,1035,771,0,0
-182,253,0,0,0,0,0,0,0,0,0,-1,1042,771,0,0
-175,253,0,0,0,0,0,0,0,0,0,-1,1049,771,0,0
-168,253,0,0,0,0,0,0,0,0,0,-1,1056,771,0,0
-161,253,0,0,0,0,0,0,0,0,0,-1,1063,771,0,0
-154,253,0,0,0,0,0,0,0,0,0,-1,1070,771,0,0
-147,253,0,0,0,0,0,0,0,0,0,-1,1077,771,0,0
-140,253,0,0,0,0,0,0,0,0,0,-1,1084,771,0,0
-133,253,0,0,0,0,0,0,0,0,0,-1,1091,771,0,0
-126,253,0,0,0,0,0,0,0,0,0,-1,1098,771,0,0
-119,253,0,0,0,0,0,0,0,0,0,-1,1105,771,0,0
-112,253,0,0,0,0,0,0,0,0,0,-1,1112,771,0,0
-105,253,0,0,0,0,0,0,0,0,0,-1,1119,771,0,0
-98,253,0,0,0,0,0,0,0,0,0,-1,1126,771,0,0
-91,253,0,0,0,0,0,0,0,0,0,-1,1133,771,0,0
-84,253,0,0,0,0,0,0,0,0,0,-1,1140,771,0,0
-77,253,0,0,0,0,0,0,0,0,0,-1,1147,771,0,0
-70,253,0,0,0,0,0,0,0,0,0,-1,1154,771,0,0
-63,253,0,0,0,0,0,0,0,0,0,-1,1161,771,0,0
-56,253,0,0,0,0,0,0,0,0,0,-1,1168,771,0,0
-49,253,0,0,0,0,0,0,0,0,0,-1,1175,771,0,0
-42,253,0,0,0,0,0,0,0,0,0,-1,1182,771,0,0
-35,253,0,0,0,0,0,0,0,0,0,-1,1189,771,0,0
-28,253,0,0,0,0,0,0,0,0,0,-1,1196,771,0,0
-21,253,0,0,0,0,0,0,0,0,0,-1,1203,771,0,0
-14,253,0,0,0,0,0,0,0,0,0,-1,1210,771,0,0
-7,253,0,0,0,0,0,0,0,0,0,-1,1217,771,0,0
0,253,0,0,0,0,0,0,0,0,0,-1,1224,771,0,0
7,253,0,0,0,0,0,0,0,0,0,-1,1231,771,0,0
14,253,0,0,0,0,0,0,0,0,0,-1,1238,771,0,0
21,253,0,0,0,0,0,0,0,0,0,-1,1245,771,0,0
28,253,0,0,0,0,0,0,0,0,0,-1,1252,771,0,0
35,253,0,0,0,0,0,0,0,0,0,-1,1259,771,0,0
42,253,0,0,0,0,0,0,0,0,0,-1,1266,771,0,0
49,253,0,0,0,0,0,0,0,0,0,-1,1273,771,0,0
56,253,0,0,0,0,0,0,0,0,0,-1,1280,771,0,0
63,253,0,0,0,0,0,0,0,0,0,-1,1287,771,0,0
70,253,0,0,0,0,0,0,0,0,0,-1,1294,771,0,0
77,253,0,0,0,0,0,0,0,0,0,-1,1301,771,0,0
84,253,0,0,0,0,0,0,0,0,0,-1,1308,771,0,0
91,253,0,0,0,0,0,0,0,0,0,-1,1315,771,0,0
98,253,0,0,0,0,0,0,0,0,0,-1,1322,771,0,0
105,253,0,0,0,0,0,0,0,0,0,-1,1329,771,0,0
112,253,0,0,0,0,0,0,0,0,0,-1,1336,771,0,0
119,253,0,0,0,0,0,0,0,0,0,-1,1343,771,0,0
126,253,0,0,0,0,0,0,0,0,0,-1,1350,771,0,0
133,253,0,0,0,0,0,0,0,0,0,-1,1357,771,0,0
140,253,0,0,0,0,0,0,0,0,0,-1,1364,771,0,0
147,253,0,0,0,0,0,0,0,0,0,-1,1371,771,0,0
154,253,0,0,0,0,0,0,0,0,0,-1,1378,771,0,0
161,253,0,0,0,0,0,0,0,0,0,-1,1385,771,0,0
168,253,0,0,0,0,0,0,0,0,0,-1,1392,771,0,0
175,253,0,0,0,0,0,0,0,0,0,-1,1399,771,0,0
182,253,0,0,0,0,0,0,0,0,0,-1,1406,771,0,0
189,253,0,0,0,0,0,0,0,0,0,-1,1413,771,0,0
196,253,0,0,0,0,0,0,0,0,0,-1,1420,771,0,0
203,253,0,0,0,0,0,0,0,0,0,-1,1427,771,0,0
210,253,0,0,0,0,0,0,0,0,0,-1,1434,771,0,0
217,253,0,0,0,0,0,0,0,0,0,-1,1441,771,0,0
224,253,0,0,0,0,0,0,0,0,0,-1,1448,771,0,0
231,253,0,0,0,0,0,0,0,0,0,-1,1455,771,0,0
238,253,0,0,0,0,0,0,0,0,0,-1,1462,771,0,0
245,253,0,0,0,0,0,0,0,0,0,-1,1469,771,0,0
252,253,0,0,0,0,0,0,0,0,0,-1,1476,771,0,0
259,253,0,0,0,0,0,0,0,0,0,-1,1483,771,0,0
266,253,0,0,0,0,0,0,0,0,0,-1,1490,771,0,0
273,253,0,0,0,0,0,0,0,0,0,-1,1497,771,0,0
280,253,0,0,0,0,0,0,0,0,0,-1,1504,771,0,0
287,253,0,0,0,0,0,0,0,0,0,-1,1511,771,0,0
294,253,0,0,0,0,0,0,0,0,0,-1,1518,771,0,0
301,253,0,0,0,0,0,0,0,0,0,-1,1525,771,0,0
308,253,0,0,0,0,0,0,0,0,0,-1,1532,771,0,0
315,253,0,0,0,0,0,0,0,0,0,-1,1539,771,0,0
322,253,0,0,0,0,0,0,0,0,0,-1,1546,771,0,0
329,253,0,0,0,0,0,0,0,0,0,-1,1553,771,0,0
336,253,0,0,0,0,0,0,0,0,0,-1,1560,771,0,0
343,253,0,0,0,0,0,0,0,0,0,-1,1567,771,0,0
350,253,0,0,0,0,0,0,0,0,0,-1,1574,771,0,0
357,253,0,0,0,0,0,0,0,0,0,-1,1581,771,0,0
364,253,0,0,0,0,0,0,0,0,0,-1,1588,771,0,0
371,253,0,0,0,0,0,0,0,0,0,-1,1595,771,0,0
378,253,0,0,0,0,0,0,0,0,0,-1,1602,771,0,0
385,253,0,0,0,0,0,0,0,0,0,-1,1609,771,0,0
392,253,0,0,0,0,0,0,0,0,0,-1,1616,771,0,0
399,253,0,0,0,0,0,0,0,0,0,-1,1623,771,0,0
406,253,0,0,0,0,0,0,0,0,0,-1,1630,771,0,0
413,253,0,0,0,0,0,0,0,0,0,-1,1637,771,0,0
420,253,0,0,0,0,0,0,0,0,0,-1,1644,771,0,0
427,253,0,0,0,0,0,0,0,0,0,-1,1651,771,0,0
434,253,0,0,0,0,0,0,0,0,0,-1,1658,771,0,0
441,253,0,0,0,0,0,0,0,0,0,-1,1665,771,0,0
448,253,0,0,0,0,0,0,0,0,0,-1,1672,771,0,0
455,253,0,0,0,0,0,0,0,0,0,-1,1679,771,0,0
462,253,0,0,0,0,0,0,0,0,0,-1,1686,771,0,0
469,253,0,0,0,0,0,0,0,0,0,-1,1693,771,0,0
476,253,0,0,0,0,0,0,0,0,0,-1,1700,771,0,0
483,253,0,0,0,0,0,0,0,0,0,-1,1707,771,0,0
490,253,0,0,0,0,0,0,0,0,0,-1,1714,771,0,0
497,253,0,0,0,0,0,0,0,0,0,-1,1721,771,0,0
504,253,0,0,0,0,0,0,0,0,0,-1,1728,771,0,0
511,253,0,0,0,0,0,0,0,0,0,-1,1735,771,0,0
518,253,0,0,0,0,0,0,0,0,0,-1,1742,771,0,0
525,253,0,0,0,0,0,0,0,0,0,-1,1749,771,0,0
532,253,0,0,0,0,0,0,0,0,0,-1,1756,771,0,0
539,253,0,0,0,0,0,0,0,0,0,-1,1763,771,0,0
546,253,0,0,0,0,0,0,0,0,0,-1,1770,771,0,0
553,253,0,0,0,0,0,0,0,0,0,-1,1777,771,0,0
560,253,0,0,0,0,0,0,0,0,0,-1,1784,771,0,0
567,253,0,0,0,0,0,0,0,0,0,-1,1791,771,0,0
574,253,15.6003,2.48096,0,0,0,0,0,0,0,-1,1798,771,15.6003,-2.48098
581,253,16.2939,2.32269,0,0,0,0,0,0,0,-1,1805,771,16.2939,-2.32271
588,253,16.6851,2.14337,0.00797073,-0.0214194,0.0396426,0.0355543,-0.049003,0.607905,0.0490246,0.0404946,1812,771,16.685,-2.14337
595,253,16.8126,2.13971,0.000701126,-0.0158918,0.0290635,0.0226292,-0.0378198,0.646366,0.0352657,0.0444514,1819,771,16.8126,-2.13968
602,253,16.364,2.46106,-0.00434292,-0.0117242,0.0193547,0.0116699,-0.027737,0.691187,0.0233734,0.045743,1826,771,16.364,-2.46105
609,253,15.9213,2.75232,0,0,0,0,0,0,0,-1,1833,771,15.9213,-2.75232
616,253,12.6292,3.05377,0,0,0,0,0,0,0,-1,1840,771,12.6292,-3.05377
623,253,12.3062,2.52484,0,0,0,0,0,0,0,-1,1847,771,12.3062,-2.52483
630,253,11.9482,0.860168,0,0,0,0,0,0,0,-1,1854,771,11.9482,-0.860185
637,253,11.9926,1.16992,-0.0103201,-0.00324854,-0.00933397,0.0031969,-0.0167656,-0.966451,0.012381,0.0491163,1861,771,11.9925,-1.16993
644,253,11.7346,0.919922,-0.00982626,-0.00221751,-0.0116526,0.00623602,-0.0182798,-0.943185,0.0147125,0.0410751,1868,771,11.7346,-0.919916
651,253,11.713,1.1228,-0.00800826,-0.00252274,-0.0120662,0.00710847,-0.0176395,-0.897154,0.0147131,0.0223273,1875,771,11.713,-1.12278
658,253,11.725,1.3028,-0.00581764,-0.00280189,-0.0110266,0.00681942,-0.0154389,-0.853351,0.0131681,0.0179752,1882,771,11.725,-1.30278
665,253,11.6675,1.48065,-0.00397668,-0.00265011,-0.00872328,0.00543507,-0.0120619,-0.823343,0.0103405,0.0200205,1889,771,11.6675,-1.48066
672,253,11.6624,1.67053,-0.00218449,-0.0022015,-0.00650079,0.0043078,-0.00869379,-0.784744,0.00764752,0.0161442,1896,771,11.6623,-1.67053
679,253,11.7054,1.87604,0.000122872,-0.00175401,-0.00404396,0.00333585,-0.00496698,-0.671386,0.00482438,0.0134191,1903,771,11.7055,-1.87602
686,253,11.7113,2.04352,0.00190008,-0.0010988,-0.00244136,0.00326569,-0.00246442,-0.510007,0.00331904,0.0171118,1910,771,11.7113,-2.04352
693,253,11.7072,2.20709,0.00360945,-0.000311089,-0.00117829,0.00393633,-0.000637962,-0.270608,0.00286068,0.0168467,1917,771,11.7072,-2.20707
700,253,11.7134,2.37408,0.00511922,0.000801536,-0.000778483,0.00525529,0.000665463,-0.173044,0.00330412,0.0152773,1924,771,11.7134,-2.37408
707,253,11.6971,2.53137,0.00566716,0.00272644,-0.000849351,0.00589484,0.00249876,-0.261911,0.00341651,0.0150879,1931,771,11.6971,-2.53137
714,253,11.6836,2.711,0.0056374,0.00441012,-0.000859247,0.00607963,0.00396789,-0.475315,0.00356419,0.0207097,1938,771,11.6836,-2.711
721,253,11.7019,2.95148,0.00555846,0.00687866,-0.00113831,0.00753441,0.00490271,-1.04815,0.00441537,0.0330751,1945,771,11.702,-2.95145
728,253,11.7775,3.16394,0.00427112,0.0105177,-0.00160125,0.0109042,0.00388457,-1.33393,0.00638171,0.0415646,1952,771,11.7775,-3.16391
735,253,11.8922,3.31403,0.00129896,0.0156622,-0.00230409,0.0160228,0.0009384,-1.41557,0.0103832,0.0461202,1959,771,11.8922,-3.31405
742,253,11.9833,3.46417,0,0,0,0,0,0,0,-1,1966,771,11.9832,-3.46416
749,253,12.6532,4.47052,0,0,0,0,0,0,0,-1,1973,771,12.6532,-4.47049
756,253,0,0,0,0,0,0,0,0,0,-1,1980,771,0,0
763,253,0,0,0,0,0,0,0,0,0,-1,1987,771,0,0
770,253,0,0,0,0,0,0,0,0,0,-1,1994,771,0,0
777,253,0,0,0,0,0,0,0,0,0,-1,2001,771,0,0
784,253,0,0,0,0,0,0,0,0,0,-1,2008,771,0,0
791,253,0,0,0,0,0,0,0,0,0,-1,2015,771,0,0
798,253,0,0,0,0,0,0,0,0,0,-1,2022,771,0,0
805,253,0,0,0,0,0,0,0,0,0,-1,2029,771,0,0
812,253,0,0,0,0,0,0,0,0,0,-1,2036,771,0,0
-700,246,0,0,0,0,0,0,0,0,0,-1,524,778,0,0
-693,246,0,0,0,0,0,0,0,0,0,-1,531,778,0,0
-686,246,0,0,0,0,0,0,0,0,0,-1,538,778,0,0
-679,246,0,0,0,0,0,0,0,0,0,-1,545,778,0,0
-672,246,0,0,0,0,0,0,0,0,0,-1,552,778,0,0
-665,246,0,0,0,0,0,0,0,0,0,-1,559,778,0,0
-658,246,0,0,0,0,0,0,0,0,0,-1,566,778,0,0
-651,246,0,0,0,0,0,0,0,0,0,-1,573,778,0,0
-644,246,0,0,0,0,0,0,0,0,0,-1,580,778,0,0
-637,246,-12.0083,-0.968933,0.258705,-0.011873,-0.106878,0.295828,-0.0489962,-0.334305,0.215416,0.0491304,587,778,-12.0083,0.96894
-630,246,-10.209,-2.19598,0.216348,-0.00316628,-0.0819908,0.243592,-0.0304096,-0.320795,0.173422,0.045341,594,778,-10.209,2.19599
-623,246,-8.60944,-3.84967,0.175377,0.00252495,-0.060573,0.19449,-0.0165883,-0.305653,0.135528,0.047262,601,778,-8.60941,3.84969
-616,246,-7.52954,0.90741,0,0,0,0,0,0,0,-1,608,778,-7.52954,-0.90741
-609,246,-7.146,1.26172,0.105773,0.00944349,-0.0280657,0.113353,0.00186302,-0.263802,0.0749556,0.0454604,615,778,-7.14597,-1.26174
-602,246,-7.1272,0.593811,0.0775397,0.0105286,-0.0166665,0.081456,0.00661237,-0.230792,0.0522396,0.0466816,622,778,-7.12722,-0.593821
-595,246,-6.99823,0.592041,0.0537592,0.0104056,-0.00832744,0.0553037,0.00886109,-0.18339,0.0342991,0.042895,629,778,-6.99823,-0.592013
-588,246,-6.83057,0.621643,0.0345642,0.00854356,-0.0026212,0.0348256,0.00828214,-0.0994049,0.0210078,0.0303003,636,778,-6.83056,-0.621659
-581,246,-6.79657,0.623291,0.0183781,0.0082405,0.00256998,0.0189924,0.00762621,0.234623,0.0110359,0.0170924,643,778,-6.7966,-0.623267
-574,246,-6.78864,0.431763,0.00825637,0.00646579,0.00402905,0.0114884,0.00323375,0.676071,0.00684072,0.0180569,650,778,-6.78862,-0.431764
-567,246,-6.78369,0.276062,0.00274843,0.00431449,0.00381992,0.00743081,-0.000367883,0.886491,0.00508094,0.0148644,657,778,-6.78368,-0.276058
-560,246,-6.80109,0.142456,0.000445249,0.00206014,0.00308445,0.00444108,-0.00193569,0.913415,0.00377516,0.0123866,664,778,-6.80108,-0.142435
-553,246,-6.79718,0.0134888,-0.00226745,0.000226993,0.00321781,0.00243084,-0.0044713,0.970284,0.00404258,0.0118738,671,778,-6.79721,-0.0135066
-546,246,-6.79211,-0.139099,-0.00483017,-0.00142052,0.00319624,0.000497142,-0.00674783,1.0304,0.00467309,0.0101623,678,778,-6.7921,0.13909
-539,246,-6.79974,-0.31427,-0.00668028,-0.00112965,0.00427975,0.00119588,-0.00900581,1.07305,0.00643962,0.0101934,685,778,-6.79976,0.314291
-532,246,-6.81079,-0.476563,-0.00861445,-0.000435713,0.00533138,0.00219404,-0.0112442,1.11256,0.00832442,0.011432,692,778,-6.81081,0.476588
-525,246,-6.79724,-0.625244,-0.0104203,0.00054052,0.00645812,0.00353018,-0.01341,1.13724,0.01032,0.0126584,699,778,-6.79722,0.625242
-518,246,-6.82623,-0.788391,-0.0120801,0.00180027,0.00733349,0.00495692,-0.0152368,1.16432,0.012152,0.0194741,706,778,-6.82621,0.788368
-511,246,-6.92725,-0.935486,-0.0135242,0.00329779,0.00796864,0.00647317,-0.0166996,1.1916,0.0138062,0.0399915,713,778,-6.92726,0.935468
-504,246,-6.74713,-1.20105,-0.0147369,0.00546748,0.00850138,0.00856861,-0.0178381,1.22102,0.0155559,0.0469373,720,778,-6.74711,1.20103
-497,246,-6.86011,-1.37158,0,0,0,0,0,0,0,-1,727,778,-6.86011,1.37156
-490,246,-10.5029,2.09772,0,0,0,0,0,0,0,-1,734,778,-10.5029,-2.09774
-483,246,-10.1479,1.36169,0,0,0,0,0,0,0,-1,741,778,-10.1479,-1.36169
-476,246,-10.1981,1.15167,-0.0121942,0.0193763,0.00422217,0.0199312,-0.0127491,1.44012,0.0190193,0.0465915,748,778,-10.1981,-1.15167
-469,246,-10.2422,0.945618,-0.00946026,0.0230045,0.000774304,0.0230229,-0.00947871,1.54696,0.0193003,0.0415073,755,778,-10.2422,-0.945628
-462,246,-10.3409,0.721375,-0.0057074,0.0253786,-0.00374385,0.0258232,-0.00615193,-1.45261,0.0195907,0.0451289,762,778,-10.3409,-0.721357
-455,246,0,0,0,0,0,0,0,0,0,-1,769,778,0,0
-448,246,0,0,0,0,0,0,0,0,0,-1,776,778,0,0
-441,246,0,0,0,0,0,0,0,0,0,-1,783,778,0,0
-434,246,0,0,0,0,0,0,0,0,0,-1,790,778,0,0
-427,246,0,0,0,0,0,0,0,0,0,-1,797,778,0,0
-420,246,0,0,0,0,0,0,0,0,0,-1,804,778,0,0
-413,246,0,0,0,0,0,0,0,0,0,-1,811,778,0,0
-406,246,0,0,0,0,0,0,0,0,0,-1,818,778,0,0
-399,246,0,0,0,0,0,0,0,0,0,-1,825,778,0,0
-392,246,0,0,0,0,0,0,0,0,0,-1,832,778,0,0
-385,246,0,0,0,0,0,0,0,0,0,-1,839,778,0,0
-378,246,0,0,0,0,0,0,0,0,0,-1,846,778,0,0
-371,246,0,0,0,0,0,0,0,0,0,-1,853,778,0,0
-364,246,0,0,0,0,0,0,0,0,0,-1,860,778,0,0
-357,246,0,0,0,0,0,0,0,0,0,-1,867,778,0,0
-350,246,0,0,0,0,0,0,0,0,0,-1,874,778,0,0
-343,246,0,0,0,0,0,0,0,0,0,-1,881,778,0,0
-336,246,0,0,0,0,0,0,0,0,0,-1,888,778,0,0
-329,246,0,0,0,0,0,0,0,0,0,-1,895,778,0,0
-322,246,0,0,0,0,0,0,0,0,0,-1,902,778,0,0
-315,246,0,0,0,0,0,0,0,0,0,-1,909,778,0,0
-308,246,0,0,0,0,0,0,0,0,0,-1,916,778,0,0
-301,246,0,0,0,0,0,0,0,0,0,-1,923,778,0,0
-294,246,0,0,0,0,0,0,0,0,0,-1,930,778,0,0
-287,246,0,0,0,0,0,0,0,0,0,-1,937,778,0,0
-280,246,0,0,0,0,0,0,0,0,0,-1,944,778,0,0
-273,246,0,0,0,0,0,0,0,0,0,-1,951,778,0,0
-266,246,0,0,0,0,0,0,0,0,0,-1,958,778,0,0
-259,246,0,0,0,0,0,0,0,0,0,-1,965,778,0,0
-252,246,0,0,0,0,0,0,0,0,0,-1,972,778,0,0
-245,246,0,0,0,0,0,0,0,0,0,-1,979,778,0,0
-238,246,0,0,0,0,0,0,0,0,0,-1,986,778,0,0
-231,246,0,0,0,0,0,0,0,0,0,-1,993,778,0,0
-224,246,0,0,0,0,0,0,0,0,0,-1,1000,778,0,0
-217,246,0,0,0,0,0,0,0,0,0,-1,1007,778,0,0
-210,246,0,0,0,0,0,0,0,0,0,-1,1014,778,0,0
-203,246,0,0,0,0,0,0,0,0,0,-1,1021,778,0,0
-196,246,0,0,0,0,0,0,0,0,0,-1,1028,778,0,0
-189,246,0,0,0,0,0,0,0,0,0,-1,1035,778,0,0
-182,246,0,0,0,0,0,0,0,0,0,-1,1042,778,0,0
-175,246,0,0,0,0,0,0,0,0,0,-1,1049,778,0,0
-168,246,0,0,0,0,0,0,0,0,0,-1,1056,778,0,0
-161,246,0,0,0,0,0,0,0,0,0,-1,1063,778,0,0
-154,246,0,0,0,0,0,0,0,0,0,-1,1070,778,0,0
-147,246,0,0,0,0,0,0,0,0,0,-1,1077,778,0,0
-140,246,0,0,0,0,0,0,0,0,0,-1,1084,778,0,0
-133,246,0,0,0,0,0,0,0,0,0,-1,1091,778,0,0
-126,246,0,0,0,0,0,0,0,0,0,-1,1098,778,0,0
-119,246,0,0,0,0,0,0,0,0,0,-1,1105,778,0,0
-112,246,0,0,0,0,0,0,0,0,0,-1,1112,778,0,0
-105,246,0,0,0,0,0,0,0,0,0,-1,1119,778,0,0
-98,246,0,0,0,0,0,0,0,0,0,-1,1126,778,0,0
-91,246,0,0,0,0,0,0,0,0,0,-1,1133,778,0,0
-84,246,0,0,0,0,0,0,0,0,0,-1,1140,778,0,0
-77,246,0,0,0,0,0,0,0,0,0,-1,1147,778,0,0
-70,246,0,0,0,0,0,0,0,0,0,-1,1154,778,0,0
-63,246,0,0,0,0,0,0,0,0,0,-1,1161,778,0,0
-56,246,0,0,0,0,0,0,0,0,0,-1,1168,778,0,0
-49,246,0,0,0,0,0,0,0,0,0,-1,1175,778,0,0
-42,246,0,0,0,0,0,0,0,0,0,-1,1182,778,0,0
-35,246,0,0,0,0,0,0,0,0,0,-1,1189,778,0,0
-28,246,0,0,0,0,0,0,0,0,0,-1,1196,778,0,0
-21,246,0,0,0,0,0,0,0,0,0,-1,1203,778,0,0
-14,246,0,0,0,0,0,0,0,0,0,-1,1210,778,0,0
-7,246,0,0,0,0,0,0,0,0,0,-1,1217,778,0,0
0,246,0,0,0,0,0,0,0,0,0,-1,1224,778,0,0
7,246,0,0,0,0,0,0,0,0,0,-1,1231,778,0,0
14,246,0,0,0,0,0,0,0,0,0,-1,1238,778,0,0
21,246,0,0,0,0,0,0,0,0,0,-1,1245,778,0,0
28,246,0,0,0,0,0,0,0,0,0,-1,1252,778,0,0
35,246,0,0,0,0,0,0,0,0,0,-1,1259,778,0,0
42,246,0,0,0,0,0,0,0,0,0,-1,1266,778,0,0
49,246,0,0,0,0,0,0,0,0,0,-1,1273,778,0,0
56,246,0,0,0,0,0,0,0,0,0,-1,1280,778,0,0
63,246,0,0,0,0,0,0,0,0,0,-1,1287,778,0,0
70,246,0,0,0,0,0,0,0,0,0,-1,1294,778,0,0
77,246,0,0,0,0,0,0,0,0,0,-1,1301,778,0,0
84,246,0,0,0,0,0,0,0,0,0,-1,1308,778,0,0
91,246,0,0,0,0,0,0,0,0,0,-1,1315,778,0,0
98,246,0,0,0,0,0,0,0,0,0,-1,1322,778,0,0
105,246,0,0,0,0,0,0,0,0,0,-1,1329,778,0,0
112,246,0,0,0,0,0,0,0,0,0,-1,1336,778,0,0
119,246,0,0,0,0,0,0,0,0,0,-1,1343,778,0,0
126,246,0,0,0,0,0,0,0,0,0,-1,1350,778,0,0
133,246,0,0,0,0,0,0,0,0,0,-1,1357,778,0,0
140,246,0,0,0,0,0,0,0,0,0,-1,1364,778,0,0
147,246,0,0,0,0,0,0,0,0,0,-1,1371,778,0,0
154,246,0,0,0,0,0,0,0,0,0,-1,1378,778,0,0
161,246,0,0,0,0,0,0,0,0,0,-1,1385,778,0,0
168,246,0,0,0,0,0,0,0,0,0,-1,1392,778,0,0
175,246,0,0,0,0,0,0,0,0,0,-1,1399,778,0,0
182,246,0,0,0,0,0,0,0,0,0,-1,1406,778,0,0
189,246,0,0,0,0,0,0,0,0,0,-1,1413,778,0,0
196,246,0,0,0,0,0,0,0,0,0,-1,1420,778,0,0
203,246,0,0,0,0,0,0,0,0,0,-1,1427,778,0,0
210,246,0,0,0,0,0,0,0,0,0,-1,1434,778,0,0
217,246,0,0,0,0,0,0,0,0,0,-1,1441,778,0,0
224,246,0,0,0,0,0,0,0,0,0,-1,1448,778,0,0
231,246,0,0,0,0,0,0,0,0,0,-1,1455,778,0,0
238,246,0,0,0,0,0,0,0,0,0,-1,1462,778,0,0
245,246,0,0,0,0,0,0,0,0,0,-1,1469,778,0,0
252,246,0,0,0,0,0,0,0,0,0,-1,1476,778,0,0
259,246,0,0,0,0,0,0,0,0,0,-1,1483,778,0,0
266,246,0,0,0,0,0,0,0,0,0,-1,1490,778,0,0
273,246,0,0,0,0,0,0,0,0,0,-1,1497,778,0,0
280,246,0,0,0,0,0,0,0,0,0,-1,1504,778,0,0
287,246,0,0,0,0,0,0,0,0,0,-1,1511,778,0,0
294,246,0,0,0,0,0,0,0,0,0,-1,1518,778,0,0
301,246,0,0,0,0,0,0,0,0,0,-1,1525,778,0,0
308,246,0,0,0,0,0,0,0,0,0,-1,1532,778,0,0
315,246,0,0,0,0,0,0,0,0,0,-1,1539,778,0,0
322,246,0,0,0,0,0,0,0,0,0,-1,1546,778,0,0
329,246,0,0,0,0,0,0,0,0,0,-1,1553,778,0,0
336,246,0,0,0,0,0,0,0,0,0,-1,1560,778,0,0
343,246,0,0,0,0,0,0,0,0,0,-1,1567,778,0,0
350,246,0,0,0,0,0,0,0,0,0,-1,1574,778,0,0
357,246,0,0,0,0,0,0,0,0,0,-1,1581,778,0,0
364,246,0,0,0,0,0,0,0,0,0,-1,1588,778,0,0
371,246,0,0,0,0,0,0,0,0,0,-1,1595,778,0,0
378,246,0,0,0,0,0,0,0,0,0,-1,1602,778,0,0
385,246,0,0,0,0,0,0,0,0,0,-1,1609,778,0,0
392,246,0,0,0,0,0,0,0,0,0,-1,1616,778,0,0
399,246,0,0,0,0,0,0,0,0,0,-1,1623,778,0,0
406,246,0,0,0,0,0,0,0,0,0,-1,1630,778,0,0
413,246,0,0,0,0,0,0,0,0,0,-1,1637,778,0,0
420,246,0,0,0,0,0,0,0,0,0,-1,1644,778,0,0
427,246,0,0,0,0,0,0,0,0,0,-1,1651,778,0,0
434,246,0,0,0,0,0,0,0,0,0,-1,1658,778,0,0
441,246,0,0,0,0,0,0,0,0,0,-1,1665,778,0,0
448,246,0,0,0,0,0,0,0,0,0,-1,1672,778,0,0
455,246,0,0,0,0,0,0,0,0,0,-1,1679,778,0,0
462,246,0,0,0,0,0,0,0,0,0,-1,1686,778,0,0
469,246,0,0,0,0,0,0,0,0,0,-1,1693,778,0,0
476,246,0,0,0,0,0,0,0,0,0,-1,1700,778,0,0
483,246,0,0,0,0,0,0,0,0,0,-1,1707,778,0,0
490,246,0,0,0,0,0,0,0,0,0,-1,1714,778,0,0
497,246,0,0,0,0,0,0,0,0,0,-1,1721,778,0,0
504,246,0,0,0,0,0,0,0,0,0,-1,1728,778,0,0
511,246,0,0,0,0,0,0,0,0,0,-1,1735,778,0,0
518,246,0,0,0,0,0,0,0,0,0,-1,1742,778,0,0
525,246,0,0,0,0,0,0,0,0,0,-1,1749,778,0,0
532,246,0,0,0,0,0,0,0,0,0,-1,1756,778,0,0
539,246,0,0,0,0,0,0,0,0,0,-1,1763,778,0,0
546,246,0,0,0,0,0,0,0,0,0,-1,1770,778,0,0
553,246,0,0,0,0,0,0,0,0,0,-1,1777,778,0,0
560,246,0,0,0,0,0,0,0,0,0,-1,1784,778,0,0
567,246,0,0,0,0,0,0,0,0,0,-1,1791,778,0,0
574,246,0,0,0,0,0,0,0,0,0,-1,1798,778,0,0
581,246,16.2786,2.48785,0.0206949,-0.0250195,0.0379131,0.042108,-0.0464326,0.51413,0.0511392,0.0363015,1805,778,16.2785,-2.48783
588,246,16.3345,2.401,0.00767458,-0.0169583,0.0322341,0.0298652,-0.0391488,0.602911,0.0399652,0.0408477,1812,778,16.3344,-2.40102
595,246,16.7202,2.21259,0,0,0,0,0,0,0,-1,1819,778,16.7202,-2.21261
602,246,16.3407,2.48175,0,0,0,0,0,0,0,-1,1826,778,16.3407,-2.48178
609,246,16.2109,2.76056,0,0,0,0,0,0,0,-1,1833,778,16.2109,-2.76058
616,246,13.2297,2.74829,0,0,0,0,0,0,0,-1,1840,778,13.2297,-2.74832
623,246,12.8632,2.50134,-0.0110953,-0.00364485,-0.00542359,-0.000790356,-0.0139498,-1.08632,0.00904791,0.0440379,1847,778,12.8632,-2.50135
630,246,12.5203,2.19299,-0.0109953,-0.00309297,-0.0089166,0.00270869,-0.0167969,-0.993958,0.0122015,0.0423437,1854,778,12.5202,-2.19301
637,246,12.488,1.78912,-0.0106796,-0.00259446,-0.0110578,0.00513661,-0.0184106,-0.960642,0.0142969,0.048013,1861,778,12.488,-1.78915
644,246,12.1516,1.37512,-0.0101033,-0.0019285,-0.0127636,0.00738623,-0.0194181,-0.940358,0.0159867,0.0469557,1868,778,12.1516,-1.37514
651,246,11.8557,1.17725,-0.00847136,-0.00235331,-0.0128775,0.00782348,-0.0186481,-0.902011,0.0157035,0.0303616,1875,778,11.8558,-1.17723
658,246,11.8817,1.32214,-0.00649122,-0.00273563,-0.0117558,0.00729142,-0.0165183,-0.864596,0.0140864,0.0202467,1882,778,11.8817,-1.32217
665,246,11.8358,1.49371,-0.0047754,-0.00278751,-0.00947268,0.00574323,-0.0133061,-0.837671,0.0112834,0.0203397,1889,778,11.8358,-1.49373
672,246,11.8282,1.71198,-0.00301538,-0.00246723,-0.00721551,0.00447941,-0.00996202,-0.804381,0.0085357,0.0201474,1896,778,11.8283,-1.712
679,246,11.8724,1.86719,-0.000647565,-0.00217605,-0.00459723,0.00324851,-0.00607213,-0.703031,0.00546297,0.0204892,1903,778,11.8724,-1.86717
686,246,11.8904,2.05023,0.00117049,-0.00161853,-0.00276299,0.00287094,-0.00331897,-0.551693,0.00357687,0.0209764,1910,778,11.8904,-2.05022
693,246,11.8949,2.20618,0.00290048,-0.000920184,-0.0012373,0.00326617,-0.00128587,-0.287374,0.00270975,0.0163752,1917,778,11.8949,-2.20618
700,246,11.9008,2.36664,0.00437627,0.000109727,-0.00068631,0.00448395,2.04565e-06,-0.15563,0.00298862,0.0136605,1924,778,11.9007,-2.36661
707,246,11.8927,2.53711,0.00457448,0.00201568,-0.000649699,0.00472999,0.00186017,-0.23494,0.00275152,0.0130912,1931,778,11.8927,-2.53709
714,246,11.8524,2.71191,0.00417562,0.0035093,-0.000500567,0.00444376,0.00324116,-0.491781,0.00265407,0.0131616,1938,778,11.8524,-2.7119
721,246,11.8761,2.88135,0.00399067,0.00567177,-0.000685169,0.00591565,0.00374679,-1.22884,0.00345566,0.0177888,1945,778,11.8761,-2.88134
728,246,11.9967,3.23792,0.00243965,0.00882313,-0.00108137,0.00900134,0.00226144,-1.40746,0.00540708,0.0337524,1952,778,11.9967,-3.23794
735,246,12.4327,3.20801,0,0,0,0,0,0,0,-1,1959,778,12.4327,-3.20803
742,246,12.626,3.64697,0,0,0,0,0,0,0,-1,1966,778,12.626,-3.64696
749,246,12.7096,4.0257,-0.014028,0.0268818,-0.00389389,0.0272491,-0.0143953,-1.47674,0.0244222,0.0496448,1973,778,12.7095,-4.02567
756,246,12.655,4.04968,-0.0248658,0.0366069,-0.00561749,0.037116,-0.0253749,-1.48041,0.0362908,0.0472056,1980,778,12.655,-4.04967
763,246,0,0,0,0,0,0,0,0,0,-1,1987,778,0,0
770,246,0,0,0,0,0,0,0,0,0,-1,1994,778,0,0
777,246,0,0,0,0,0,0,0,0,0,-1,2001,778,0,0
784,246,0,0,0,0,0,0,0,0,0,-1,2008,778,0,0
791,246,0,0,0,0,0,0,0,0,0,-1,2015,778,0,0
798,246,0,0,0,0,0,0,0,0,0,-1,2022,778,0,0
805,246,0,0,0,0,0,0,0,0,0,-1,2029,778,0,0
812,246,0,0,0,0,0,0,0,0,0,-1,2036,778,0,0
-700,239,0,0,0,0,0,0,0,0,0,-1,524,785,0,0
-693,239,0,0,0,0,0,0,0,0,0,-1,531,785,0,0
-686,239,0,0,0,0,0,0,0,0,0,-1,538,785,0,0
-679,239,0,0,0,0,0,0,0,0,0,-1,545,785,0,0
-672,239,0,0,0,0,0,0,0,0,0,-1,552,785,0,0
-665,239,0,0,0,0,0,0,0,0,0,-1,559,785,0,0
-658,239,0,0,0,0,0,0,0,0,0,-1,566,785,0,0
-651,239,0,0,0,0,0,0,0,0,0,-1,573,785,0,0
-644,239,0,0,0,0,0,0,0,0,0,-1,580,785,0,0
-637,239,-11.4847,-0.408997,0.220083,-0.011965,-0.0894154,0.25054,-0.042422,-0.328298,0.182815,0.0436621,587,785,-11.4847,0.409023
-630,239,-9.9303,-1.89636,0.18495,-0.00556806,-0.0691771,0.207419,-0.0280364,-0.314047,0.148509,0.0419026,594,785,-9.93029,1.89635
-623,239,-8.89862,-3.35858,0.150786,-0.000406253,-0.0513683,0.166587,-0.0162075,-0.298421,0.116836,0.0432971,601,785,-8.89865,3.35861
-616,239,-7.42065,0.428833,0,0,0,0,0,0,0,-1,608,785,-7.42068,-0.42883
-609,239,-7.26837,0.845215,0,0,0,0,0,0,0,-1,615,785,-7.26838,-0.845234
-602,239,-6.81824,1.10675,0,0,0,0,0,0,0,-1,622,785,-6.81821,-1.10674
-595,239,-6.85474,0.938293,0.046958,0.00788752,-0.00721985,0.0482495,0.00659605,-0.177005,0.0302087,0.041597,629,785,-6.85471,-0.938314
-588,239,-6.89343,0.770386,0.0304444,0.00674162,-0.00235251,0.0306757,0.00651039,-0.0979767,0.0186627,0.0185056,636,785,-6.89346,-0.770384
-581,239,-6.93286,0.606262,0.016454,0.00691673,0.00215265,0.0169174,0.00645337,0.212016,0.00985832,0.0114799,643,785,-6.93287,-0.606278
-574,239,-6.93561,0.424866,0.00757462,0.00564161,0.00346992,0.0102101,0.0030061,0.649572,0.00605863,0.012168,650,785,-6.93561,-0.424859
-567,239,-6.95172,0.266418,0.00240371,0.00385874,0.00345935,0.00666625,-0.000403794,0.88904,0.0045847,0.0120177,657,785,-6.95174,-0.26644
-560,239,-6.95605,0.138,-0.00012887,0.00190676,0.00301908,0.00407497,-0.00229709,0.947979,0.00372634,0.0123073,664,785,-6.95604,-0.137978
-553,239,-6.95007,0.00646973,-0.00311744,0.000271048,0.00349318,0.00245917,-0.00530556,1.01119,0.00458228,0.01347,671,785,-6.95007,-0.00644587
-546,239,-6.97211,-0.143494,-0.0058597,-0.00112918,0.0037094,0.000904889,-0.00789377,1.06922,0.00558862,0.0138341,678,785,-6.97213,0.143522
-539,239,-6.97931,-0.302673,-0.00785087,-0.000890383,0.00487827,0.00162183,-0.0103631,1.09524,0.00750796,0.0152647,685,785,-6.97932,0.302657
-532,239,-6.95398,-0.4599,-0.0097566,-0.000253922,0.00595735,0.00261479,-0.0126253,1.12202,0.00941036,0.0125155,692,785,-6.95398,0.459873
-525,239,-6.93719,-0.587952,-0.0114498,0.000610035,0.0070039,0.00382212,-0.0146619,1.1408,0.0112668,0.0142187,699,785,-6.93719,0.58795
-518,239,-6.99823,-0.707886,-0.012932,0.00173036,0.00778498,0.00509274,-0.0162944,1.16309,0.0129,0.0344161,706,785,-6.9982,0.707905
-511,239,-7.0545,-0.844299,-0.0141119,0.0030663,0.00827887,0.00640669,-0.0174522,1.18729,0.0142585,0.0404759,713,785,-7.0545,0.844302
-504,239,-6.77173,-0.841675,-0.0149222,0.00499998,0.00855136,0.00816706,-0.0180893,1.2161,0.0155157,0.0445678,720,785,-6.77172,0.841669
-497,239,-10.6376,1.23523,-0.015045,0.00746532,0.00824872,0.0101644,-0.017744,1.25457,0.0163098,0.0442591,727,785,-10.6376,-1.23523
-490,239,-10.4274,1.28168,0,0,0,0,0,0,0,-1,734,785,-10.4274,-1.2817
-483,239,-10.215,1.13654,-0.0127203,0.0137043,0.00520287,0.0146918,-0.0137078,1.38323,0.0163998,0.0449902,741,785,-10.215,-1.13653
-476,239,-10.3201,0.877625,-0.0101753,0.0169924,0.00218498,0.017167,-0.0103499,1.49105,0.0160486,0.0418548,748,785,-10.3201,-0.87763
-469,239,-10.3463,0.729736,-0.00668557,0.0197788,-0.00210276,0.0199449,-0.0068516,-1.492,0.0160748,0.0436982,755,785,-10.3463,-0.729718
-462,239,-10.4524,0.596252,-0.00200557,0.021389,-0.00766009,0.023674,-0.00429053,-1.2809,0.0173902,0.0465026,762,785,-10.4524,-0.596268
-455,239,0,0,0,0,0,0,0,0,0,-1,769,785,0,0
-448,239,0,0,0,0,0,0,0,0,0,-1,776,785,0,0
-441,239,0,0,0,0,0,0,0,0,0,-1,783,785,0,0
-434,239,0,0,0,0,0,0,0,0,0,-1,790,785,0,0
-427,239,0,0,0,0,0,0,0,0,0,-1,797,785,0,0
-420,239,0,0,0,0,0,0,0,0,0,-1,804,785,0,0
-413,239,0,0,0,0,0,0,0,0,0,-1,811,785,0,0
-406,239,0,0,0,0,0,0,0,0,0,-1,818,785,0,0
-399,239,0,0,0,0,0,0,0,0,0,-1,825,785,0,0
-392,239,0,0,0,0,0,0,0,0,0,-1,832,785,0,0
-385,239,0,0,0,0,0,0,0,0,0,-1,839,785,0,0
-378,239,0,0,0,0,0,0,0,0,0,-1,846,785,0,0
-371,239,0,0,0,0,0,0,0,0,0,-1,853,785,0,0
-364,239,0,0,0,0,0,0,0,0,0,-1,860,785,0,0
-357,239,0,0,0,0,0,0,0,0,0,-1,867,785,0,0
-350,239,0,0,0,0,0,0,0,0,0,-1,874,785,0,0
-343,239,0,0,0,0,0,0,0,0,0,-1,881,785,0,0
-336,239,0,0,0,0,0,0,0,0,0,-1,888,785,0,0
-329,239,0,0,0,0,0,0,0,0,0,-1,895,785,0,0
-322,239,0,0,0,0,0,0,0,0,0,-1,902,785,0,0
-315,239,0,0,0,0,0,0,0,0,0,-1,909,785,0,0
-308,239,0,0,0,0,0,0,0,0,0,-1,916,785,0,0
-301,239,0,0,0,0,0,0,0,0,0,-1,923,785,0,0
-294,239,0,0,0,0,0,0,0,0,0,-1,930,785,0,0
-287,239,0,0,0,0,0,0,0,0,0,-1,937,785,0,0
-280,239,0,0,0,0,0,0,0,0,0,-1,944,785,0,0
-273,239,0,0,0,0,0,0,0,0,0,-1,951,785,0,0
-266,239,0,0,0,0,0,0,0,0,0,-1,958,785,0,0
-259,239,0,0,0,0,0,0,0,0,0,-1,965,785,0,0
-252,239,0,0,0,0,0,0,0,0,0,-1,972,785,0,0
-245,239,0,0,0,0,0,0,0,0,0,-1,979,785,0,0
-238,239,0,0,0,0,0,0,0,0,0,-1,986,785,0,0
-231,239,0,0,0,0,0,0,0,0,0,-1,993,785,0,0
-224,239,0,0,0,0,0,0,0,0,0,-1,1000,785,0,0
-217,239,0,0,0,0,0,0,0,0,0,-1,1007,785,0,0
-210,239,0,0,0,0,0,0,0,0,0,-1,1014,785,0,0
-203,239,0,0,0,0,0,0,0,0,0,-1,1021,785,0,0
-196,239,0,0,0,0,0,0,0,0,0,-1,1028,785,0,0
-189,239,0,0,0,0,0,0,0,0,0,-1,1035,785,0,0
-182,239,0,0,0,0,0,0,0,0,0,-1,1042,785,0,0
-175,239,0,0,0,0,0,0,0,0,0,-1,1049,785,0,0
-168,239,0,0,0,0,0,0,0,0,0,-1,1056,785,0,0
-161,239,0,0,0,0,0,0,0,0,0,-1,1063,785,0,0
-154,239,0,0,0,0,0,0,0,0,0,-1,1070,785,0,0
-147,239,0,0,0,0,0,0,0,0,0,-1,1077,785,0,0
-140,239,0,0,0,0,0,0,0,0,0,-1,1084,785,0,0
-133,239,0,0,0,0,0,0,0,0,0,-1,1091,785,0,0
-126,239,0,0,0,0,0,0,0,0,0,-1,1098,785,0,0
-119,239,0,0,0,0,0,0,0,0,0,-1,1105,785,0,0
-112,239,0,0,0,0,0,0,0,0,0,-1,1112,785,0,0
-105,239,0,0,0,0,0,0,0,0,0,-1,1119,785,0,0
-98,239,0,0,0,0,0,0,0,0,0,-1,1126,785,0,0
-91,239,0,0,0,0,0,0,0,0,0,-1,1133,785,0,0
-84,239,0,0,0,0,0,0,0,0,0,-1,1140,785,0,0
-77,239,0,0,0,0,0,0,0,0,0,-1,1147,785,0,0
-70,239,0,0,0,0,0,0,0,0,0,-1,1154,785,0,0
-63,239,0,0,0,0,0,0,0,0,0,-1,1161,785,0,0
-56,239,0,0,0,0,0,0,0,0,0,-1,1168,785,0,0
-49,239,0,0,0,0,0,0,0,0,0,-1,1175,785,0,0
-42,239,0,0,0,0,0,0,0,0,0,-1,1182,785,0,0
-35,239,0,0,0,0,0,0,0,0,0,-1,1189,785,0,0
-28,239,0,0,0,0,0,0,0,0,0,-1,1196,785,0,0
-21,239,0,0,0,0,0,0,0,0,0,-1,1203,785,0,0
-14,239,0,0,0,0,0,0,0,0,0,-1,1210,785,0,0
-7,239,0,0,0,0,0,0,0,0,0,-1,1217,785,0,0
0,239,0,0,0,0,0,0,0,0,0,-1,1224,785,0,0
7,239,0,0,0,0,0,0,0,0,0,-1,1231,785,0,0
14,239,0,0,0,0,0,0,0,0,0,-1,1238,785,0,0
21,239,0,0,0,0,0,0,0,0,0,-1,1245,785,0,0
28,239,0,0,0,0,0,0,0,0,0,-1,1252,785,0,0
35,239,0,0,0,0,0,0,0,0,0,-1,1259,785,0,0
42,239,0,0,0,0,0,0,0,0,0,-1,1266,785,0,0
49,239,0,0,0,0,0,0,0,0,0,-1,1273,785,0,0
56,239,0,0,0,0,0,0,0,0,0,-1,1280,785,0,0
63,239,0,0,0,0,0,0,0,0,0,-1,1287,785,0,0
70,239,0,0,0,0,0,0,0,0,0,-1,1294,785,0,0
77,239,0,0,0,0,0,0,0,0,0,-1,1301,785,0,0
84,239,0,0,0,0,0,0,0,0,0,-1,1308,785,0,0
91,239,0,0,0,0,0,0,0,0,0,-1,1315,785,0,0
98,239,0,0,0,0,0,0,0,0,0,-1,1322,785,0,0
105,239,0,0,0,0,0,0,0,0,0,-1,1329,785,0,0
112,239,0,0,0,0,0,0,0,0,0,-1,1336,785,0,0
119,239,0,0,0,0,0,0,0,0,0,-1,1343,785,0,0
126,239,0,0,0,0,0,0,0,0,0,-1,1350,785,0,0
133,239,0,0,0,0,0,0,0,0,0,-1,1357,785,0,0
140,239,0,0,0,0,0,0,0,0,0,-1,1364,785,0,0
147,239,0,0,0,0,0,0,0,0,0,-1,1371,785,0,0
154,239,0,0,0,0,0,0,0,0,0,-1,1378,785,0,0
161,239,0,0,0,0,0,0,0,0,0,-1,1385,785,0,0
168,239,0,0,0,0,0,0,0,0,0,-1,1392,785,0,0
175,239,0,0,0,0,0,0,0,0,0,-1,1399,785,0,0
182,239,0,0,0,0,0,0,0,0,0,-1,1406,785,0,0
189,239,0,0,0,0,0,0,0,0,0,-1,1413,785,0,0
196,239,0,0,0,0,0,0,0,0,0,-1,1420,785,0,0
203,239,0,0,0,0,0,0,0,0,0,-1,1427,785,0,0
210,239,0,0,0,0,0,0,0,0,0,-1,1434,785,0,0
217,239,0,0,0,0,0,0,0,0,0,-1,1441,785,0,0
224,239,0,0,0,0,0,0,0,0,0,-1,1448,785,0,0
231,239,0,0,0,0,0,0,0,0,0,-1,1455,785,0,0
238,239,0,0,0,0,0,0,0,0,0,-1,1462,785,0,0
245,239,0,0,0,0,0,0,0,0,0,-1,1469,785,0,0
252,239,0,0,0,0,0,0,0,0,0,-1,1476,785,0,0
259,239,0,0,0,0,0,0,0,0,0,-1,1483,785,0,0
266,239,0,0,0,0,0,0,0,0,0,-1,1490,785,0,0
273,239,0,0,0,0,0,0,0,0,0,-1,1497,785,0,0
280,239,0,0,0,0,0,0,0,0,0,-1,1504,785,0,0
287,239,0,0,0,0,0,0,0,0,0,-1,1511,785,0,0
294,239,0,0,0,0,0,0,0,0,0,-1,1518,785,0,0
301,239,0,0,0,0,0,0,0,0,0,-1,1525,785,0,0
308,239,0,0,0,0,0,0,0,0,0,-1,1532,785,0,0
315,239,0,0,0,0,0,0,0,0,0,-1,1539,785,0,0
322,239,0,0,0,0,0,0,0,0,0,-1,1546,785,0,0
329,239,0,0,0,0,0,0,0,0,0,-1,1553,785,0,0
336,239,0,0,0,0,0,0,0,0,0,-1,1560,785,0,0
343,239,0,0,0,0,0,0,0,0,0,-1,1567,785,0,0
350,239,0,0,0,0,0,0,0,0,0,-1,1574,785,0,0
357,239,0,0,0,0,0,0,0,0,0,-1,1581,785,0,0
364,239,0,0,0,0,0,0,0,0,0,-1,1588,785,0,0
371,239,0,0,0,0,0,0,0,0,0,-1,1595,785,0,0
378,239,0,0,0,0,0,0,0,0,0,-1,1602,785,0,0
385,239,0,0,0,0,0,0,0,0,0,-1,1609,785,0,0
392,239,0,0,0,0,0,0,0,0,0,-1,1616,785,0,0
399,239,0,0,0,0,0,0,0,0,0,-1,1623,785,0,0
406,239,0,0,0,0,0,0,0,0,0,-1,1630,785,0,0
413,239,0,0,0,0,0,0,0,0,0,-1,1637,785,0,0
420,239,0,0,0,0,0,0,0,0,0,-1,1644,785,0,0
427,239,0,0,0,0,0,0,0,0,0,-1,1651,785,0,0
434,239,0,0,0,0,0,0,0,0,0,-1,1658,785,0,0
441,239,0,0,0,0,0,0,0,0,0,-1,1665,785,0,0
448,239,0,0,0,0,0,0,0,0,0,-1,1672,785,0,0
455,239,0,0,0,0,0,0,0,0,0,-1,1679,785,0,0
462,239,0,0,0,0,0,0,0,0,0,-1,1686,785,0,0
469,239,0,0,0,0,0,0,0,0,0,-1,1693,785,0,0
476,239,0,0,0,0,0,0,0,0,0,-1,1700,785,0,0
483,239,0,0,0,0,0,0,0,0,0,-1,1707,785,0,0
490,239,0,0,0,0,0,0,0,0,0,-1,1714,785,0,0
497,239,0,0,0,0,0,0,0,0,0,-1,1721,785,0,0
504,239,0,0,0,0,0,0,0,0,0,-1,1728,785,0,0
511,239,0,0,0,0,0,0,0,0,0,-1,1735,785,0,0
518,239,0,0,0,0,0,0,0,0,0,-1,1742,785,0,0
525,239,0,0,0,0,0,0,0,0,0,-1,1749,785,0,0
532,239,0,0,0,0,0,0,0,0,0,-1,1756,785,0,0
539,239,0,0,0,0,0,0,0,0,0,-1,1763,785,0,0
546,239,0,0,0,0,0,0,0,0,0,-1,1770,785,0,0
553,239,0,0,0,0,0,0,0,0,0,-1,1777,785,0,0
560,239,0,0,0,0,0,0,0,0,0,-1,1784,785,0,0
567,239,0,0,0,0,0,0,0,0,0,-1,1791,785,0,0
574,239,0,0,0,0,0,0,0,0,0,-1,1798,785,0,0
581,239,16.283,2.65057,0.0223447,-0.021363,0.0300615,0.0376565,-0.0366748,0.471099,0.0429164,0.0357608,1805,785,16.2829,-2.6506
588,239,16.2045,2.51587,0.00879466,-0.0134831,0.0260758,0.026011,-0.0306995,0.583543,0.0327791,0.0363219,1812,785,16.2045,-2.51586
595,239,16.3748,2.31213,0.00078188,-0.00894947,0.0174485,0.0140304,-0.022198,0.649423,0.0210929,0.033985,1819,785,16.3747,-2.31214
602,239,16.3431,2.42773,-0.0048843,-0.00586193,0.00941181,0.00405138,-0.0147976,0.759453,0.0114569,0.0377729,1826,785,16.3432,-2.42772
609,239,16.3754,2.52295,-0.00837548,-0.00400166,0.00232634,-0.0029957,-0.00938144,1.16265,0.005533,0.0469048,1833,785,16.3754,-2.52292
616,239,16.5011,2.40991,0,0,0,0,0,0,0,-1,1840,785,16.5011,-2.40988
623,239,15.9338,2.68939,-0.0112579,-0.00225332,-0.00788908,0.00232779,-0.015839,-1.0447,0.0114147,0.0417454,1847,785,15.9338,-2.68942
630,239,12.9921,2.41632,-0.0111501,-0.00206031,-0.0107159,0.00503462,-0.0182451,-0.985965,0.0141435,0.0415075,1854,785,12.9921,-2.41629
637,239,12.5193,1.96698,-0.0107151,-0.00189016,-0.0122568,0.00672425,-0.0193295,-0.958177,0.015618,0.0460417,1861,785,12.5193,-1.96698
644,239,11.656,1.2995,0,0,0,0,0,0,0,-1,1868,785,11.656,-1.29951
651,239,11.8578,1.32208,-0.00863721,-0.00206261,-0.0131494,0.00820418,-0.018904,-0.907886,0.0160522,0.0392818,1875,785,11.8578,-1.32206
658,239,12.046,1.34863,-0.00690113,-0.00248014,-0.0119747,0.00748638,-0.0168676,-0.876669,0.0144043,0.0186994,1882,785,12.046,-1.34866
665,239,12.0299,1.52728,-0.00530859,-0.00264614,-0.00986068,0.00597276,-0.0139275,-0.852494,0.0117914,0.0134805,1889,785,12.0299,-1.5273
672,239,12.0078,1.71173,-0.00360524,-0.00243559,-0.00772764,0.00472932,-0.0107702,-0.823166,0.00917238,0.0193659,1896,785,12.0078,-1.71173
679,239,12.0536,1.86139,-0.00124085,-0.00228313,-0.00509328,0.00335788,-0.00688186,-0.734416,0.00602748,0.0199143,1903,785,12.0535,-1.86139
686,239,12.0604,2.03186,0.000589625,-0.00181834,-0.00315024,0.00275811,-0.00398683,-0.602869,0.00391568,0.0203384,1910,785,12.0605,-2.03188
693,239,12.058,2.20306,0.00234618,-0.00120883,-0.00149328,0.00289018,-0.00175283,-0.349359,0.00270732,0.0135213,1917,785,12.0579,-2.20305
700,239,12.0641,2.37012,0.00380162,-0.000260908,-0.000895117,0.00399011,-0.000449389,-0.207534,0.00282182,0.010759,1924,785,12.0641,-2.37014
707,239,12.069,2.53772,0.00375499,0.00162652,-0.00083464,0.00404325,0.00133827,-0.332535,0.00237841,0.0105481,1931,785,12.0689,-2.53771
714,239,12.053,2.69025,0.00309536,0.00297009,-0.000582614,0.00361869,0.00244675,-0.73185,0.00213203,0.0104587,1938,785,12.053,-2.69027
721,239,12.0463,2.83252,0.00273376,0.00487658,-0.000742761,0.00510886,0.00250148,-1.2677,0.00294982,0.0184173,1945,785,12.0462,-2.8325
728,239,12.2123,3.01404,0.000905931,0.00758582,-0.00112885,0.00777143,0.000720321,-1.40783,0.00495832,0.0324427,1952,785,12.2122,-3.01401
735,239,12.62,3.14288,-0.00259825,0.0113157,-0.00171549,0.0115241,-0.00280664,-1.44991,0.00876927,0.0441807,1959,785,12.6199,-3.1429
742,239,12.876,3.37958,0,0,0,0,0,0,0,-1,1966,785,12.876,-3.3796
749,239,12.7528,3.57251,-0.0166171,0.0226383,-0.00372146,0.022988,-0.0169668,-1.47711,0.023155,0.0473769,1973,785,12.7528,-3.57252
756,239,12.6509,3.52393,-0.027978,0.0304821,-0.00520166,0.0309413,-0.0284372,-1.48274,0.0342924,0.0486772,1980,785,12.6508,-3.52394
763,239,0,0,0,0,0,0,0,0,0,-1,1987,785,0,0
770,239,0,0,0,0,0,0,0,0,0,-1,1994,785,0,0
777,239,0,0,0,0,0,0,0,0,0,-1,2001,785,0,0
784,239,0,0,0,0,0,0,0,0,0,-1,2008,785,0,0
791,239,0,0,0,0,0,0,0,0,0,-1,2015,785,0,0
798,239,0,0,0,0,0,0,0,0,0,-1,2022,785,0,0
805,239,0,0,0,0,0,0,0,0,0,-1,2029,785,0,0
812,239,0,0,0,0,0,0,0,0,0,-1,2036,785,0,0
-700,232,0,0,0,0,0,0,0,0,0,-1,524,792,0,0
-693,232,0,0,0,0,0,0,0,0,0,-1,531,792,0,0
-686,232,0,0,0,0,0,0,0,0,0,-1,538,792,0,0
-679,232,0,0,0,0,0,0,0,0,0,-1,545,792,0,0
-672,232,0,0,0,0,0,0,0,0,0,-1,552,792,0,0
-665,232,0,0,0,0,0,0,0,0,0,-1,559,792,0,0
-658,232,0,0,0,0,0,0,0,0,0,-1,566,792,0,0
-651,232,0,0,0,0,0,0,0,0,0,-1,573,792,0,0
-644,232,-11.8315,0.831604,0.209839,-0.0174824,-0.0892712,0.240705,-0.048349,-0.332894,0.178779,0.0455879,580,792,-11.8315,-0.831617
-637,232,-10.5996,-0.135315,0.183381,-0.0128215,-0.0719532,0.20694,-0.0363801,-0.316415,0.151549,0.0430799,587,792,-10.5996,0.135335
-630,232,-9.62756,-1.44415,0.154166,-0.00819602,-0.0556958,0.171435,-0.0254649,-0.300658,0.123655,0.0442056,594,792,-9.62758,1.44417
-623,232,-7.95935,-0.0671997,0,0,0,0,0,0,0,-1,601,792,-7.95936,0.0672157
-616,232,-7.72791,0.315063,0,0,0,0,0,0,0,-1,608,792,-7.72791,-0.315079
-609,232,-7.52588,0.677551,0,0,0,0,0,0,0,-1,615,792,-7.5259,-0.677575
-602,232,-6.99048,1.28217,0,0,0,0,0,0,0,-1,622,792,-6.99047,-1.28219
-595,232,-7.03461,1.02527,0.039497,0.00475169,-0.0055687,0.0403676,0.003881,-0.155098,0.0257159,0.0364952,629,792,-7.03463,-1.02526
-588,232,-7.0697,0.773438,0.0256853,0.00432182,-0.0016603,0.0258135,0.00419356,-0.0770998,0.0159955,0.0120355,636,792,-7.0697,-0.773447
-581,232,-7.08453,0.614014,0.0139115,0.00495053,0.00204028,0.0143542,0.00450786,0.213655,0.0084763,0.00840785,643,792,-7.08455,-0.613996
-574,232,-7.07813,0.458191,0.0063385,0.00418937,0.00309792,0.00854293,0.00198494,0.618458,0.00516244,0.00884183,650,792,-7.07813,-0.458192
-567,232,-7.09723,0.2948,0.00161451,0.00291014,0.00324036,0.0055668,-0.00104216,0.884058,0.00410295,0.00972141,657,792,-7.09721,-0.294783
-560,232,-7.10724,0.145691,-0.00108678,0.00135951,0.00307697,0.00344753,-0.0031748,0.974579,0.00382449,0.0111362,664,792,-7.10722,-0.145667
-553,232,-7.10895,0,-0.00422639,5.08431e-05,0.00381648,0.00228706,-0.00646261,1.04078,0.00523986,0.0121331,671,792,-7.10896,-1.19062e-05
-546,232,-7.13031,-0.14978,-0.00698892,-0.00100045,0.00420066,0.0011639,-0.00915327,1.09503,0.00652484,0.0200234,678,792,-7.13031,0.1498
-539,232,-7.12982,-0.296265,-0.00897089,-0.000792686,0.00534155,0.00184524,-0.0116088,1.11208,0.00842195,0.0250083,685,792,-7.12981,0.296257
-532,232,-7.09656,-0.447388,-0.0107419,-0.000202339,0.00637311,0.00279753,-0.0137417,1.13086,0.0102221,0.0151685,692,792,-7.09656,0.447371
-525,232,-7.05164,-0.568481,-0.0122457,0.00054893,0.00729391,0.00385351,-0.0155503,1.1454,0.0118619,0.0226673,699,792,-7.05162,0.568461
-518,232,-7.1601,-0.616211,-0.0134671,0.00153216,0.00794525,0.00495825,-0.0168932,1.16367,0.0132283,0.0456231,706,792,-7.1601,0.616209
-511,232,-7.25214,-0.554077,-0.014283,0.00269458,0.00827834,0.00606288,-0.0176513,1.18437,0.0142259,0.0445874,713,792,-7.25217,0.554102
-504,232,-10.8268,0.431396,-0.0145754,0.00434583,0.00828794,0.0074627,-0.0176923,1.21109,0.0149182,0.0440386,720,792,-10.8268,-0.431385
-497,232,-10.3383,0.537231,-0.0140709,0.00642702,0.00765211,0.00896852,-0.0166124,1.25013,0.0149873,0.0442824,727,792,-10.3383,-0.537237
-490,232,-10.1949,1.14209,0,0,0,0,0,0,0,-1,734,792,-10.1949,-1.14209
-483,232,-10.3264,0.889587,-0.0101266,0.011575,0.00367447,0.0121803,-0.0107319,1.40754,0.0132372,0.0416662,741,792,-10.3263,-0.889599
-476,232,-10.4141,0.628784,-0.00670875,0.014153,0.000118078,0.0141536,-0.00670941,1.56514,0.0122982,0.0361941,748,792,-10.4141,-0.628761
-469,232,-10.524,0.461792,-0.00220232,0.016121,-0.00483505,0.0173186,-0.00339989,-1.328,0.0128301,0.0335584,755,792,-10.5241,-0.461807
-462,232,0,0,0,0,0,0,0,0,0,-1,762,792,0,0
-455,232,0,0,0,0,0,0,0,0,0,-1,769,792,0,0
-448,232,0,0,0,0,0,0,0,0,0,-1,776,792,0,0
-441,232,0,0,0,0,0,0,0,0,0,-1,783,792,0,0
-434,232,0,0,0,0,0,0,0,0,0,-1,790,792,0,0
-427,232,0,0,0,0,0,0,0,0,0,-1,797,792,0,0
-420,232,0,0,0,0,0,0,0,0,0,-1,804,792,0,0
-413,232,0,0,0,0,0,0,0,0,0,-1,811,792,0,0
-406,232,0,0,0,0,0,0,0,0,0,-1,818,792,0,0
-399,232,0,0,0,0,0,0,0,0,0,-1,825,792,0,0
-392,232,0,0,0,0,0,0,0,0,0,-1,832,792,0,0
-385,232,0,0,0,0,0,0,0,0,0,-1,839,792,0,0
-378,232,0,0,0,0,0,0,0,0,0,-1,846,792,0,0
-371,232,0,0,0,0,0,0,0,0,0,-1,853,792,0,0
-364,232,0,0,0,0,0,0,0,0,0,-1,860,792,0,0
-357,232,0,0,0,0,0,0,0,0,0,-1,867,792,0,0
-350,232,0,0,0,0,0,0,0,0,0,-1,874,792,0,0
-343,232,0,0,0,0,0,0,0,0,0,-1,881,792,0,0
-336,232,0,0,0,0,0,0,0,0,0,-1,888,792,0,0
-329,232,0,0,0,0,0,0,0,0,0,-1,895,792,0,0
-322,232,0,0,0,0,0,0,0,0,0,-1,902,792,0,0
-315,232,0,0,0,0,0,0,0,0,0,-1,909,792,0,0
-308,232,0,0,0,0,0,0,0,0,0,-1,916,792,0,0
-301,232,0,0,0,0,0,0,0,0,0,-1,923,792,0,0
-294,232,0,0,0,0,0,0,0,0,0,-1,930,792,0,0
-287,232,0,0,0,0,0,0,0,0,0,-1,937,792,0,0
-280,232,0,0,0,0,0,0,0,0,0,-1,944,792,0,0
-273,232,0,0,0,0,0,0,0,0,0,-1,951,792,0,0
-266,232,0,0,0,0,0,0,0,0,0,-1,958,792,0,0
-259,232,0,0,0,0,0,0,0,0,0,-1,965,792,0,0
-252,232,0,0,0,0,0,0,0,0,0,-1,972,792,0,0
-245,232,0,0,0,0,0,0,0,0,0,-1,979,792,0,0
-238,232,0,0,0,0,0,0,0,0,0,-1,986,792,0,0
-231,232,0,0,0,0,0,0,0,0,0,-1,993,792,0,0
-224,232,0,0,0,0,0,0,0,0,0,-1,1000,792,0,0
-217,232,0,0,0,0,0,0,0,0,0,-1,1007,792,0,0
-210,232,0,0,0,0,0,0,0,0,0,-1,1014,792,0,0
-203,232,0,0,0,0,0,0,0,0,0,-1,1021,792,0,0
-196,232,0,0,0,0,0,0,0,0,0,-1,1028,792,0,0
-189,232,0,0,0,0,0,0,0,0,0,-1,1035,792,0,0
-182,232,0,0,0,0,0,0,0,0,0,-1,1042,792,0,0
-175,232,0,0,0,0,0,0,0,0,0,-1,1049,792,0,0
-168,232,0,0,0,0,0,0,0,0,0,-1,1056,792,0,0
-161,232,0,0,0,0,0,0,0,0,0,-1,1063,792,0,0
-154,232,0,0,0,0,0,0,0,0,0,-1,1070,792,0,0
-147,232,0,0,0,0,0,0,0,0,0,-1,1077,792,0,0
-140,232,0,0,0,0,0,0,0,0,0,-1,1084,792,0,0
-133,232,0,0,0,0,0,0,0,0,0,-1,1091,792,0,0
-126,232,0,0,0,0,0,0,0,0,0,-1,1098,792,0,0
-119,232,0,0,0,0,0,0,0,0,0,-1,1105,792,0,0
-112,232,0,0,0,0,0,0,0,0,0,-1,1112,792,0,0
-105,232,0,0,0,0,0,0,0,0,0,-1,1119,792,0,0
-98,232,0,0,0,0,0,0,0,0,0,-1,1126,792,0,0
-91,232,0,0,0,0,0,0,0,0,0,-1,1133,792,0,0
-84,232,0,0,0,0,0,0,0,0,0,-1,1140,792,0,0
-77,232,0,0,0,0,0,0,0,0,0,-1,1147,792,0,0
-70,232,0,0,0,0,0,0,0,0,0,-1,1154,792,0,0
-63,232,0,0,0,0,0,0,0,0,0,-1,1161,792,0,0
-56,232,0,0,0,0,0,0,0,0,0,-1,1168,792,0,0
-49,232,0,0,0,0,0,0,0,0,0,-1,1175,792,0,0
-42,232,0,0,0,0,0,0,0,0,0,-1,1182,792,0,0
-35,232,0,0,0,0,0,0,0,0,0,-1,1189,792,0,0
-28,232,0,0,0,0,0,0,0,0,0,-1,1196,792,0,0
-21,232,0,0,0,0,0,0,0,0,0,-1,1203,792,0,0
-14,232,0,0,0,0,0,0,0,0,0,-1,1210,792,0,0
-7,232,0,0,0,0,0,0,0,0,0,-1,1217,792,0,0
0,232,0,0,0,0,0,0,0,0,0,-1,1224,792,0,0
7,232,0,0,0,0,0,0,0,0,0,-1,1231,792,0,0
14,232,0,0,0,0,0,0,0,0,0,-1,1238,792,0,0
21,232,0,0,0,0,0,0,0,0,0,-1,1245,792,0,0
28,232,0,0,0,0,0,0,0,0,0,-1,1252,792,0,0
35,232,0,0,0,0,0,0,0,0,0,-1,1259,792,0,0
42,232,0,0,0,0,0,0,0,0,0,-1,1266,792,0,0
49,232,0,0,0,0,0,0,0,0,0,-1,1273,792,0,0
56,232,0,0,0,0,0,0,0,0,0,-1,1280,792,0,0
63,232,0,0,0,0,0,0,0,0,0,-1,1287,792,0,0
70,232,0,0,0,0,0,0,0,0,0,-1,1294,792,0,0
77,232,0,0,0,0,0,0,0,0,0,-1,1301,792,0,0
84,232,0,0,0,0,0,0,0,0,0,-1,1308,792,0,0
91,232,0,0,0,0,0,0,0,0,0,-1,1315,792,0,0
98,232,0,0,0,0,0,0,0,0,0,-1,1322,792,0,0
105,232,0,0,0,0,0,0,0,0,0,-1,1329,792,0,0
112,232,0,0,0,0,0,0,0,0,0,-1,1336,792,0,0
119,232,0,0,0,0,0,0,0,0,0,-1,1343,792,0,0
126,232,0,0,0,0,0,0,0,0,0,-1,1350,792,0,0
133,232,0,0,0,0,0,0,0,0,0,-1,1357,792,0,0
140,232,0,0,0,0,0,0,0,0,0,-1,1364,792,0,0
147,232,0,0,0,0,0,0,0,0,0,-1,1371,792,0,0
154,232,0,0,0,0,0,0,0,0,0,-1,1378,792,0,0
161,232,0,0,0,0,0,0,0,0,0,-1,1385,792,0,0
168,232,0,0,0,0,0,0,0,0,0,-1,1392,792,0,0
175,232,0,0,0,0,0,0,0,0,0,-1,1399,792,0,0
182,232,0,0,0,0,0,0,0,0,0,-1,1406,792,0,0
189,232,0,0,0,0,0,0,0,0,0,-1,1413,792,0,0
196,232,0,0,0,0,0,0,0,0,0,-1,1420,792,0,0
203,232,0,0,0,0,0,0,0,0,0,-1,1427,792,0,0
210,232,0,0,0,0,0,0,0,0,0,-1,1434,792,0,0
217,232,0,0,0,0,0,0,0,0,0,-1,1441,792,0,0
224,232,0,0,0,0,0,0,0,0,0,-1,1448,792,0,0
231,232,0,0,0,0,0,0,0,0,0,-1,1455,792,0,0
238,232,0,0,0,0,0,0,0,0,0,-1,1462,792,0,0
245,232,0,0,0,0,0,0,0,0,0,-1,1469,792,0,0
252,232,0,0,0,0,0,0,0,0,0,-1,1476,792,0,0
259,232,0,0,0,0,0,0,0,0,0,-1,1483,792,0,0
266,232,0,0,0,0,0,0,0,0,0,-1,1490,792,0,0
273,232,0,0,0,0,0,0,0,0,0,-1,1497,792,0,0
280,232,0,0,0,0,0,0,0,0,0,-1,1504,792,0,0
287,232,0,0,0,0,0,0,0,0,0,-1,1511,792,0,0
294,232,0,0,0,0,0,0,0,0,0,-1,1518,792,0,0
301,232,0,0,0,0,0,0,0,0,0,-1,1525,792,0,0
308,232,0,0,0,0,0,0,0,0,0,-1,1532,792,0,0
315,232,0,0,0,0,0,0,0,0,0,-1,1539,792,0,0
322,232,0,0,0,0,0,0,0,0,0,-1,1546,792,0,0
329,232,0,0,0,0,0,0,0,0,0,-1,1553,792,0,0
336,232,0,0,0,0,0,0,0,0,0,-1,1560,792,0,0
343,232,0,0,0,0,0,0,0,0,0,-1,1567,792,0,0
350,232,0,0,0,0,0,0,0,0,0,-1,1574,792,0,0
357,232,0,0,0,0,0,0,0,0,0,-1,1581,792,0,0
364,232,0,0,0,0,0,0,0,0,0,-1,1588,792,0,0
371,232,0,0,0,0,0,0,0,0,0,-1,1595,792,0,0
378,232,0,0,0,0,0,0,0,0,0,-1,1602,792,0,0
385,232,0,0,0,0,0,0,0,0,0,-1,1609,792,0,0
392,232,0,0,0,0,0,0,0,0,0,-1,1616,792,0,0
399,232,0,0,0,0,0,0,0,0,0,-1,1623,792,0,0
406,232,0,0,0,0,0,0,0,0,0,-1,1630,792,0,0
413,232,0,0,0,0,0,0,0,0,0,-1,1637,792,0,0
420,232,0,0,0,0,0,0,0,0,0,-1,1644,792,0,0
427,232,0,0,0,0,0,0,0,0,0,-1,1651,792,0,0
434,232,0,0,0,0,0,0,0,0,0,-1,1658,792,0,0
441,232,0,0,0,0,0,0,0,0,0,-1,1665,792,0,0
448,232,0,0,0,0,0,0,0,0,0,-1,1672,792,0,0
455,232,0,0,0,0,0,0,0,0,0,-1,1679,792,0,0
462,232,0,0,0,0,0,0,0,0,0,-1,1686,792,0,0
469,232,0,0,0,0,0,0,0,0,0,-1,1693,792,0,0
476,232,0,0,0,0,0,0,0,0,0,-1,1700,792,0,0
483,232,0,0,0,0,0,0,0,0,0,-1,1707,792,0,0
490,232,0,0,0,0,0,0,0,0,0,-1,1714,792,0,0
497,232,0,0,0,0,0,0,0,0,0,-1,1721,792,0,0
504,232,0,0,0,0,0,0,0,0,0,-1,1728,792,0,0
511,232,0,0,0,0,0,0,0,0,0,-1,1735,792,0,0
518,232,0,0,0,0,0,0,0,0,0,-1,1742,792,0,0
525,232,0,0,0,0,0,0,0,0,0,-1,1749,792,0,0
532,232,0,0,0,0,0,0,0,0,0,-1,1756,792,0,0
539,232,0,0,0,0,0,0,0,0,0,-1,1763,792,0,0
546,232,0,0,0,0,0,0,0,0,0,-1,1770,792,0,0
553,232,0,0,0,0,0,0,0,0,0,-1,1777,792,0,0
560,232,0,0,0,0,0,0,0,0,0,-1,1784,792,0,0
567,232,0,0,0,0,0,0,0,0,0,-1,1791,792,0,0
574,232,0,0,0,0,0,0,0,0,0,-1,1798,792,0,0
581,232,0,0,0,0,0,0,0,0,0,-1,1805,792,0,0
588,232,16.1224,2.5282,0.00948897,-0.0101594,0.0211945,0.0230255,-0.0236959,0.568376,0.0269755,0.0344671,1812,792,16.1224,-2.52818
595,232,16.207,2.35828,0.00140071,-0.00576394,0.0133638,0.011654,-0.0160173,0.654446,0.0160421,0.0336662,1819,792,16.207,-2.35829
602,232,16.3317,2.31433,-0.00448894,-0.00290915,0.00608355,0.00243558,-0.00983366,0.849958,0.00750062,0.0343848,1826,792,16.3317,-2.31431
609,232,16.4441,2.33203,-0.00806908,-0.00148948,-0.000323832,-0.00147358,-0.00808498,-1.52174,0.00497212,0.0388547,1833,792,16.4441,-2.33203
616,232,16.4161,2.39343,-0.0101031,-0.000836322,-0.00557872,0.00178222,-0.0127216,-1.13194,0.0091333,0.0427253,1840,792,16.4162,-2.39343
623,232,16.1083,2.48297,-0.0109392,-0.000684938,-0.00935251,0.00485362,-0.0164778,-1.03613,0.0129108,0.0418753,1847,792,16.1082,-2.48297
630,232,16.1165,2.35406,-0.0108126,-0.000879994,-0.011619,0.00678959,-0.0184821,-0.987361,0.0151022,0.0440448,1854,792,16.1165,-2.35404
637,232,16.3645,2.50464,-0.0102475,-0.00107692,-0.0126382,0.00778211,-0.0191065,-0.959418,0.0159765,0.0455823,1861,792,16.3645,-2.50464
644,232,16.335,2.72046,0,0,0,0,0,0,0,-1,1868,792,16.3349,-2.72049
651,232,11.9561,1.84772,-0.00836373,-0.00166955,-0.0127896,0.0082037,-0.018237,-0.91338,0.0156276,0.0409243,1875,792,11.9561,-1.84771
658,232,12.2107,1.45422,-0.00693107,-0.00209532,-0.0116397,0.00737496,-0.0164014,-0.887805,0.0140531,0.0228729,1882,792,12.2107,-1.45419
665,232,12.2168,1.52405,-0.00554813,-0.00233204,-0.00980568,0.00599657,-0.0138767,-0.86667,0.0117707,0.0112618,1889,792,12.2168,-1.52407
672,232,12.1791,1.70996,-0.00401019,-0.00221402,-0.00791525,0.00485393,-0.0110781,-0.841888,0.00942947,0.0170205,1896,792,12.1791,-1.70996
679,232,12.2134,1.87164,-0.00179797,-0.00219214,-0.00543391,0.00344242,-0.00743253,-0.767272,0.00641799,0.0177573,1903,792,12.2134,-1.87164
686,232,12.2363,2.03339,-3.22661e-05,-0.00182346,-0.00349419,0.00267928,-0.004535,-0.659944,0.00421085,0.0170412,1910,792,12.2363,-2.0334
693,232,12.2152,2.18738,0.00170905,-0.00131721,-0.00179972,0.00254721,-0.00215537,-0.435846,0.00271818,0.010107,1917,792,12.2153,-2.18738
700,232,12.2415,2.35144,0.0031272,-0.000486944,-0.00118693,0.00348215,-0.000841887,-0.290579,0.00264707,0.0128257,1924,792,12.2415,-2.35145
707,232,12.2566,2.53552,0.00288804,0.00129426,-0.00108954,0.00344101,0.000741289,-0.469653,0.00209118,0.0129476,1931,792,12.2567,-2.53554
714,232,12.2372,2.69342,0.00204021,0.00246271,-0.000744149,0.00302501,0.00147791,-0.923701,0.00174664,0.0130104,1938,792,12.2372,-2.69342
721,232,12.2339,2.82007,0.00175587,0.00407538,-0.000882306,0.00437284,0.0014584,-1.24562,0.00257089,0.0160918,1945,792,12.2339,-2.82009
728,232,12.2571,2.91632,0.000153249,0.0063016,-0.00121955,0.00653467,-7.98192e-05,-1.38196,0.00438329,0.0278028,1952,792,12.2571,-2.91632
735,232,12.6022,3.16461,-0.00310388,0.00932992,-0.001771,0.00957725,-0.00335121,-1.43204,0.00774739,0.0418371,1959,792,12.6022,-3.16462
742,232,13.6439,2.79333,0,0,0,0,0,0,0,-1,1966,792,13.644,-2.79336
749,232,12.8059,3.13055,0,0,0,0,0,0,0,-1,1973,792,12.8059,-3.13058
756,232,12.6583,3.03094,-0.0252113,0.0244382,-0.00469363,0.024878,-0.0256512,-1.47736,0.0291742,0.0493562,1980,792,12.6583,-3.03093
763,232,12.6239,2.62347,-0.0374538,0.0316199,-0.0060351,0.0321432,-0.0379771,-1.4843,0.0405307,0.048624,1987,792,12.6239,-2.62349
770,232,0,0,0,0,0,0,0,0,0,-1,1994,792,0,0
777,232,0,0,0,0,0,0,0,0,0,-1,2001,792,0,0
784,232,0,0,0,0,0,0,0,0,0,-1,2008,792,0,0
791,232,0,0,0,0,0,0,0,0,0,-1,2015,792,0,0
798,232,0,0,0,0,0,0,0,0,0,-1,2022,792,0,0
805,232,0,0,0,0,0,0,0,0,0,-1,2029,792,0,0
812,232,0,0,0,0,0,0,0,0,0,-1,2036,792,0,0
-700,225,0,0,0,0,0,0,0,0,0,-1,524,799,0,0
-693,225,0,0,0,0,0,0,0,0,0,-1,531,799,0,0
-686,225,0,0,0,0,0,0,0,0,0,-1,538,799,0,0
-679,225,0,0,0,0,0,0,0,0,0,-1,545,799,0,0
-672,225,0,0,0,0,0,0,0,0,0,-1,552,799,0,0
-665,225,0,0,0,0,0,0,0,0,0,-1,559,799,0,0
-658,225,0,0,0,0,0,0,0,0,0,-1,566,799,0,0
-651,225,0,0,0,0,0,0,0,0,0,-1,573,799,0,0
-644,225,-11.9415,0.067749,0,0,0,0,0,0,0,-1,580,799,-11.9415,-0.0677607
-637,225,-10.5674,-0.207031,0,0,0,0,0,0,0,-1,587,799,-10.5674,0.207005
-630,225,-9.86523,-0.695557,0,0,0,0,0,0,0,-1,594,799,-9.86525,0.695575
-623,225,-9.13153,-1.11176,0,0,0,0,0,0,0,-1,601,799,-9.13154,1.11178
-616,225,-8.09595,0.208313,0,0,0,0,0,0,0,-1,608,799,-8.09595,-0.20832
-609,225,-7.88617,0.498291,0,0,0,0,0,0,0,-1,615,799,-7.88616,-0.498261
-602,225,-7.56256,0.714966,0.0454684,0.000371567,-0.00777035,0.0467697,-0.000929741,-0.165931,0.0314943,0.0487241,622,799,-7.56255,-0.714995
-595,225,-7.27521,0.934082,0.031987,0.00185161,-0.00357141,0.0324044,0.00143414,-0.116365,0.0211411,0.0295872,629,799,-7.27519,-0.934073
-588,225,-7.25848,0.758118,0.0207087,0.00201168,-0.000635663,0.0207303,0.0019901,-0.0339458,0.0132069,0.0120048,636,799,-7.25847,-0.758117
-581,225,-7.23669,0.612244,0.0110445,0.00299947,0.00222295,0.0116179,0.0024261,0.252429,0.00707655,0.0103001,643,799,-7.23671,-0.61227
-574,225,-7.23035,0.460327,0.0047648,0.00266168,0.00296073,0.00685517,0.000571311,0.614762,0.00439208,0.00855917,650,799,-7.23034,-0.460319
-567,225,-7.24091,0.289978,0.000533105,0.00185144,0.00318057,0.00444043,-0.00205588,0.887576,0.00383394,0.00992934,657,799,-7.24092,-0.289993
-560,225,-7.25659,0.149109,-0.00223414,0.000700485,0.00319419,0.00274826,-0.00428192,1.00071,0.00409094,0.00974608,664,799,-7.25658,-0.14913
-553,225,-7.2583,-0.00146484,-0.00537891,-0.000250572,0.00405948,0.00198675,-0.00761623,1.06708,0.00585323,0.0101039,671,799,-7.25831,0.00145581
-546,225,-7.26471,-0.16925,-0.00799154,-0.000923771,0.0045316,0.00128897,-0.0102043,1.11656,0.0072707,0.0192851,678,799,-7.26469,0.169226
-539,225,-7.23804,-0.305054,-0.00976373,-0.000722467,0.00556818,0.00192912,-0.0124153,1.12637,0.00898918,0.0233621,685,799,-7.23804,0.305029
-532,225,-7.24396,-0.443604,-0.0112774,-0.000151639,0.00649704,0.00283868,-0.0142677,1.13944,0.0105857,0.0154535,692,799,-7.24397,0.443602
-525,225,-7.28442,-0.56311,-0.012497,0.000527982,0.00727235,0.00377764,-0.0157467,1.15056,0.0119576,0.0326456,699,799,-7.2844,0.563106
-518,225,-7.47174,-0.474182,-0.0133685,0.00141933,0.00779519,0.00476949,-0.0167186,1.16489,0.0130299,0.042072,706,799,-7.47174,0.474173
-511,225,-7.50519,-0.234497,0,0,0,0,0,0,0,-1,713,799,-7.50521,0.234492
-504,225,-10.872,0.601929,-0.0134376,0.00388234,0.00782322,0.00689275,-0.016448,1.20346,0.0138471,0.0497781,720,799,-10.872,-0.601934
-497,225,-10.6057,0.536987,-0.0122258,0.00563138,0.00696554,0.00802703,-0.0146215,1.23954,0.0132596,0.0410329,727,799,-10.6057,-0.536997
-490,225,-10.452,0.625977,-0.00990992,0.00766446,0.00519083,0.00908312,-0.0113286,1.30401,0.0118085,0.0356772,734,799,-10.452,-0.625982
-483,225,-10.432,0.651306,-0.00640412,0.00979683,0.00231223,0.0101204,-0.00672766,1.43177,0.00979274,0.0324398,741,799,-10.432,-0.651321
-476,225,-10.3823,0.601013,-0.00183503,0.0117183,-0.0017123,0.0119313,-0.00204801,-1.44705,0.00871742,0.0323423,748,799,-10.3823,-0.601025
-469,225,-10.3208,0.570679,0.00402771,0.0129355,-0.0073007,0.0170336,-7.04285e-05,-1.05929,0.0113793,0.0344733,755,799,-10.3208,-0.5707
-462,225,0,0,0,0,0,0,0,0,0,-1,762,799,0,0
-455,225,0,0,0,0,0,0,0,0,0,-1,769,799,0,0
-448,225,0,0,0,0,0,0,0,0,0,-1,776,799,0,0
-441,225,0,0,0,0,0,0,0,0,0,-1,783,799,0,0
-434,225,0,0,0,0,0,0,0,0,0,-1,790,799,0,0
-427,225,0,0,0,0,0,0,0,0,0,-1,797,799,0,0
-420,225,0,0,0,0,0,0,0,0,0,-1,804,799,0,0
-413,225,0,0,0,0,0,0,0,0,0,-1,811,799,0,0
-406,225,0,0,0,0,0,0,0,0,0,-1,818,799,0,0
-399,225,0,0,0,0,0,0,0,0,0,-1,825,799,0,0
-392,225,0,0,0,0,0,0,0,0,0,-1,832,799,0,0
-385,225,0,0,0,0,0,0,0,0,0,-1,839,799,0,0
-378,225,0,0,0,0,0,0,0,0,0,-1,846,799,0,0
-371,225,0,0,0,0,0,0,0,0,0,-1,853,799,0,0
-364,225,0,0,0,0,0,0,0,0,0,-1,860,799,0,0
-357,225,0,0,0,0,0,0,0,0,0,-1,867,799,0,0
-350,225,0,0,0,0,0,0,0,0,0,-1,874,799,0,0
-343,225,0,0,0,0,0,0,0,0,0,-1,881,799,0,0
-336,225,0,0,0,0,0,0,0,0,0,-1,888,799,0,0
-329,225,0,0,0,0,0,0,0,0,0,-1,895,799,0,0
-322,225,0,0,0,0,0,0,0,0,0,-1,902,799,0,0
-315,225,0,0,0,0,0,0,0,0,0,-1,909,799,0,0
-308,225,0,0,0,0,0,0,0,0,0,-1,916,799,0,0
-301,225,0,0,0,0,0,0,0,0,0,-1,923,799,0,0
-294,225,0,0,0,0,0,0,0,0,0,-1,930,799,0,0
-287,225,0,0,0,0,0,0,0,0,0,-1,937,799,0,0
-280,225,0,0,0,0,0,0,0,0,0,-1,944,799,0,0
-273,225,0,0,0,0,0,0,0,0,0,-1,951,799,0,0
-266,225,0,0,0,0,0,0,0,0,0,-1,958,799,0,0
-259,225,0,0,0,0,0,0,0,0,0,-1,965,799,0,0
-252,225,0,0,0,0,0,0,0,0,0,-1,972,799,0,0
-245,225,0,0,0,0,0,0,0,0,0,-1,979,799,0,0
-238,225,0,0,0,0,0,0,0,0,0,-1,986,799,0,0
-231,225,0,0,0,0,0,0,0,0,0,-1,993,799,0,0
-224,225,0,0,0,0,0,0,0,0,0,-1,1000,799,0,0
-217,225,0,0,0,0,0,0,0,0,0,-1,1007,799,0,0
-210,225,0,0,0,0,0,0,0,0,0,-1,1014,799,0,0
-203,225,0,0,0,0,0,0,0,0,0,-1,1021,799,0,0
-196,225,0,0,0,0,0,0,0,0,0,-1,1028,799,0,0
-189,225,0,0,0,0,0,0,0,0,0,-1,1035,799,0,0
-182,225,0,0,0,0,0,0,0,0,0,-1,1042,799,0,0
-175,225,0,0,0,0,0,0,0,0,0,-1,1049,799,0,0
-168,225,0,0,0,0,0,0,0,0,0,-1,1056,799,0,0
-161,225,0,0,0,0,0,0,0,0,0,-1,1063,799,0,0
-154,225,0,0,0,0,0,0,0,0,0,-1,1070,799,0,0
-147,225,0,0,0,0,0,0,0,0,0,-1,1077,799,0,0
-140,225,0,0,0,0,0,0,0,0,0,-1,1084,799,0,0
-133,225,0,0,0,0,0,0,0,0,0,-1,1091,799,0,0
-126,225,0,0,0,0,0,0,0,0,0,-1,1098,799,0,0
-119,225,0,0,0,0,0,0,0,0,0,-1,1105,799,0,0
-112,225,0,0,0,0,0,0,0,0,0,-1,1112,799,0,0
-105,225,0,0,0,0,0,0,0,0,0,-1,1119,799,0,0
-98,225,0,0,0,0,0,0,0,0,0,-1,1126,799,0,0
-91,225,0,0,0,0,0,0,0,0,0,-1,1133,799,0,0
-84,225,0,0,0,0,0,0,0,0,0,-1,1140,799,0,0
-77,225,0,0,0,0,0,0,0,0,0,-1,1147,799,0,0
-70,225,0,0,0,0,0,0,0,0,0,-1,1154,799,0,0
-63,225,0,0,0,0,0,0,0,0,0,-1,1161,799,0,0
-56,225,0,0,0,0,0,0,0,0,0,-1,1168,799,0,0
-49,225,0,0,0,0,0,0,0,0,0,-1,1175,799,0,0
-42,225,0,0,0,0,0,0,0,0,0,-1,1182,799,0,0
-35,225,0,0,0,0,0,0,0,0,0,-1,1189,799,0,0
-28,225,0,0,0,0,0,0,0,0,0,-1,1196,799,0,0
-21,225,0,0,0,0,0,0,0,0,0,-1,1203,799,0,0
-14,225,0,0,0,0,0,0,0,0,0,-1,1210,799,0,0
-7,225,0,0,0,0,0,0,0,0,0,-1,1217,799,0,0
0,225,0,0,0,0,0,0,0,0,0,-1,1224,799,0,0
7,225,0,0,0,0,0,0,0,0,0,-1,1231,799,0,0
14,225,0,0,0,0,0,0,0,0,0,-1,1238,799,0,0
21,225,0,0,0,0,0,0,0,0,0,-1,1245,799,0,0
28,225,0,0,0,0,0,0,0,0,0,-1,1252,799,0,0
35,225,0,0,0,0,0,0,0,0,0,-1,1259,799,0,0
42,225,0,0,0,0,0,0,0,0,0,-1,1266,799,0,0
49,225,0,0,0,0,0,0,0,0,0,-1,1273,799,0,0
56,225,0,0,0,0,0,0,0,0,0,-1,1280,799,0,0
63,225,0,0,0,0,0,0,0,0,0,-1,1287,799,0,0
70,225,0,0,0,0,0,0,0,0,0,-1,1294,799,0,0
77,225,0,0,0,0,0,0,0,0,0,-1,1301,799,0,0
84,225,0,0,0,0,0,0,0,0,0,-1,1308,799,0,0
91,225,0,0,0,0,0,0,0,0,0,-1,1315,799,0,0
98,225,0,0,0,0,0,0,0,0,0,-1,1322,799,0,0
105,225,0,0,0,0,0,0,0,0,0,-1,1329,799,0,0
112,225,0,0,0,0,0,0,0,0,0,-1,1336,799,0,0
119,225,0,0,0,0,0,0,0,0,0,-1,1343,799,0,0
126,225,0,0,0,0,0,0,0,0,0,-1,1350,799,0,0
133,225,0,0,0,0,0,0,0,0,0,-1,1357,799,0,0
140,225,0,0,0,0,0,0,0,0,0,-1,1364,799,0,0
147,225,0,0,0,0,0,0,0,0,0,-1,1371,799,0,0
154,225,0,0,0,0,0,0,0,0,0,-1,1378,799,0,0
161,225,0,0,0,0,0,0,0,0,0,-1,1385,799,0,0
168,225,0,0,0,0,0,0,0,0,0,-1,1392,799,0,0
175,225,0,0,0,0,0,0,0,0,0,-1,1399,799,0,0
182,225,0,0,0,0,0,0,0,0,0,-1,1406,799,0,0
189,225,0,0,0,0,0,0,0,0,0,-1,1413,799,0,0
196,225,0,0,0,0,0,0,0,0,0,-1,1420,799,0,0
203,225,0,0,0,0,0,0,0,0,0,-1,1427,799,0,0
210,225,0,0,0,0,0,0,0,0,0,-1,1434,799,0,0
217,225,0,0,0,0,0,0,0,0,0,-1,1441,799,0,0
224,225,0,0,0,0,0,0,0,0,0,-1,1448,799,0,0
231,225,0,0,0,0,0,0,0,0,0,-1,1455,799,0,0
238,225,0,0,0,0,0,0,0,0,0,-1,1462,799,0,0
245,225,0,0,0,0,0,0,0,0,0,-1,1469,799,0,0
252,225,0,0,0,0,0,0,0,0,0,-1,1476,799,0,0
259,225,0,0,0,0,0,0,0,0,0,-1,1483,799,0,0
266,225,0,0,0,0,0,0,0,0,0,-1,1490,799,0,0
273,225,0,0,0,0,0,0,0,0,0,-1,1497,799,0,0
280,225,0,0,0,0,0,0,0,0,0,-1,1504,799,0,0
287,225,0,0,0,0,0,0,0,0,0,-1,1511,799,0,0
294,225,0,0,0,0,0,0,0,0,0,-1,1518,799,0,0
301,225,0,0,0,0,0,0,0,0,0,-1,1525,799,0,0
308,225,0,0,0,0,0,0,0,0,0,-1,1532,799,0,0
315,225,0,0,0,0,0,0,0,0,0,-1,1539,799,0,0
322,225,0,0,0,0,0,0,0,0,0,-1,1546,799,0,0
329,225,0,0,0,0,0,0,0,0,0,-1,1553,799,0,0
336,225,0,0,0,0,0,0,0,0,0,-1,1560,799,0,0
343,225,0,0,0,0,0,0,0,0,0,-1,1567,799,0,0
350,225,0,0,0,0,0,0,0,0,0,-1,1574,799,0,0
357,225,0,0,0,0,0,0,0,0,0,-1,1581,799,0,0
364,225,0,0,0,0,0,0,0,0,0,-1,1588,799,0,0
371,225,0,0,0,0,0,0,0,0,0,-1,1595,799,0,0
378,225,0,0,0,0,0,0,0,0,0,-1,1602,799,0,0
385,225,0,0,0,0,0,0,0,0,0,-1,1609,799,0,0
392,225,0,0,0,0,0,0,0,0,0,-1,1616,799,0,0
399,225,0,0,0,0,0,0,0,0,0,-1,1623,799,0,0
406,225,0,0,0,0,0,0,0,0,0,-1,1630,799,0,0
413,225,0,0,0,0,0,0,0,0,0,-1,1637,799,0,0
420,225,0,0,0,0,0,0,0,0,0,-1,1644,799,0,0
427,225,0,0,0,0,0,0,0,0,0,-1,1651,799,0,0
434,225,0,0,0,0,0,0,0,0,0,-1,1658,799,0,0
441,225,0,0,0,0,0,0,0,0,0,-1,1665,799,0,0
448,225,0,0,0,0,0,0,0,0,0,-1,1672,799,0,0
455,225,0,0,0,0,0,0,0,0,0,-1,1679,799,0,0
462,225,0,0,0,0,0,0,0,0,0,-1,1686,799,0,0
469,225,0,0,0,0,0,0,0,0,0,-1,1693,799,0,0
476,225,0,0,0,0,0,0,0,0,0,-1,1700,799,0,0
483,225,0,0,0,0,0,0,0,0,0,-1,1707,799,0,0
490,225,0,0,0,0,0,0,0,0,0,-1,1714,799,0,0
497,225,0,0,0,0,0,0,0,0,0,-1,1721,799,0,0
504,225,0,0,0,0,0,0,0,0,0,-1,1728,799,0,0
511,225,0,0,0,0,0,0,0,0,0,-1,1735,799,0,0
518,225,0,0,0,0,0,0,0,0,0,-1,1742,799,0,0
525,225,0,0,0,0,0,0,0,0,0,-1,1749,799,0,0
532,225,0,0,0,0,0,0,0,0,0,-1,1756,799,0,0
539,225,0,0,0,0,0,0,0,0,0,-1,1763,799,0,0
546,225,0,0,0,0,0,0,0,0,0,-1,1770,799,0,0
553,225,0,0,0,0,0,0,0,0,0,-1,1777,799,0,0
560,225,0,0,0,0,0,0,0,0,0,-1,1784,799,0,0
567,225,0,0,0,0,0,0,0,0,0,-1,1791,799,0,0
574,225,0,0,0,0,0,0,0,0,0,-1,1798,799,0,0
581,225,0,0,0,0,0,0,0,0,0,-1,1805,799,0,0
588,225,16.1365,2.53967,0.0111539,-0.00745338,0.0174994,0.0216691,-0.0179686,0.541074,0.0229181,0.035514,1812,799,16.1364,-2.53969
595,225,16.2666,2.36139,0.00317805,-0.00334908,0.0103495,0.0107664,-0.0109374,0.632666,0.0125308,0.0345208,1819,799,16.2666,-2.36136
602,225,16.3326,2.30432,-0.00295521,-0.000670583,0.00384124,0.0021946,-0.00582039,0.929924,0.00478268,0.0332909,1826,799,16.3326,-2.30433
609,225,16.3672,2.32391,-0.00675299,0.000416563,-0.00184605,0.000863974,-0.0072004,-1.33302,0.00511265,0.0310932,1833,799,16.3672,-2.3239
616,225,16.3226,2.41534,-0.0089525,0.000707433,-0.00651737,0.00398948,-0.0122345,-1.10429,0.00976181,0.0368061,1840,799,16.3226,-2.41534
623,225,16.2957,2.41064,-0.00993789,0.000536634,-0.00977005,0.00638462,-0.0157859,-1.03143,0.0131782,0.0407452,1847,799,16.2956,-2.41064
630,225,16.2139,2.27991,-0.00995224,8.49484e-05,-0.0115748,0.00768229,-0.0175496,-0.989956,0.0149343,0.0416144,1854,799,16.2139,-2.27992
637,225,16.3011,2.5354,-0.00943887,-0.000355761,-0.0121955,0.00811639,-0.017911,-0.963641,0.0153775,0.0447653,1861,799,16.3011,-2.5354
644,225,16.3148,2.64996,-0.00882015,-0.000662594,-0.0123452,0.00826023,-0.017743,-0.944949,0.0153421,0.0473618,1868,799,16.3148,-2.64998
651,225,16.187,2.6944,0,0,0,0,0,0,0,-1,1875,799,16.187,-2.69437
658,225,12.4772,1.70483,-0.00673583,-0.00161378,-0.0107823,0.00690743,-0.015257,-0.901998,0.0130958,0.0343067,1882,799,12.4772,-1.70485
665,225,12.4188,1.50891,-0.00556906,-0.00189582,-0.00927013,0.00571788,-0.0131828,-0.883193,0.0111924,0.0129368,1889,799,12.4188,-1.50888
672,225,12.3892,1.69904,-0.00423047,-0.00185682,-0.00768798,0.0047354,-0.0108227,-0.861981,0.0092088,0.0160702,1896,799,12.3892,-1.69903
679,225,12.4005,1.89709,-0.0022521,-0.00191588,-0.0054705,0.0033891,-0.00755708,-0.800759,0.00647069,0.0168585,1903,799,12.4006,-1.89712
686,225,12.4147,2.04749,-0.000600391,-0.00163867,-0.0036397,0.00255701,-0.00479607,-0.71456,0.00431041,0.0106117,1910,799,12.4146,-2.04746
693,225,12.3853,2.20105,0.00109057,-0.00124384,-0.00201435,0.00225145,-0.00240472,-0.522814,0.00268873,0.00976596,1917,799,12.3852,-2.20104
700,225,12.4001,2.36871,0.00244517,-0.000555197,-0.00142215,0.00301212,-0.00112215,-0.379351,0.00246866,0.0115216,1924,799,12.4002,-2.3687
707,225,12.4071,2.54065,0.00205936,0.00104689,-0.00128927,0.00293822,0.00016803,-0.598319,0.00190527,0.0120031,1931,799,12.4071,-2.54067
714,225,12.3986,2.70404,0.00109803,0.00202503,-0.000878998,0.00255524,0.000567812,-1.02803,0.00154931,0.0127108,1938,799,12.3986,-2.70403
721,225,12.4247,2.8407,0.000937379,0.00333831,-0.00100706,0.00370478,0.00057091,-1.22179,0.00230326,0.0130412,1945,799,12.4247,-2.84067
728,225,12.4347,2.96167,-0.00037458,0.00509956,-0.001308,0.00539604,-0.000671057,-1.3479,0.00384064,0.0208143,1952,799,12.4347,-2.96167
735,225,12.5491,3.0863,-0.00327439,0.00745402,-0.00184739,0.00776322,-0.00358359,-1.40496,0.0066976,0.0402362,1959,799,12.5491,-3.08633
742,225,13.4,2.87207,-0.00766285,0.0105111,-0.0025541,0.0108633,-0.00801497,-1.43379,0.0109406,0.0483493,1966,799,13.4,-2.87209
749,225,13.6053,3.12805,0,0,0,0,0,0,0,-1,1973,799,13.6053,-3.12804
756,225,13.0612,3.02179,-0.0212188,0.0189632,-0.00441313,0.0194422,-0.0216978,-1.46268,0.0237641,0.0496784,1980,799,13.0611,-3.0218
763,225,12.9255,2.01984,-0.0299941,0.0243892,-0.00541614,0.0249233,-0.0305282,-1.47249,0.0320694,0.0458007,1987,799,12.9256,-2.01981
770,225,0,0,0,0,0,0,0,0,0,-1,1994,799,0,0
777,225,0,0,0,0,0,0,0,0,0,-1,2001,799,0,0
784,225,0,0,0,0,0,0,0,0,0,-1,2008,799,0,0
791,225,0,0,0,0,0,0,0,0,0,-1,2015,799,0,0
798,225,0,0,0,0,0,0,0,0,0,-1,2022,799,0,0
805,225,0,0,0,0,0,0,0,0,0,-1,2029,799,0,0
812,225,0,0,0,0,0,0,0,0,0,-1,2036,799,0,0
-700,218,0,0,0,0,0,0,0,0,0,-1,524,806,0,0
-693,218,0,0,0,0,0,0,0,0,0,-1,531,806,0,0
-686,218,0,0,0,0,0,0,0,0,0,-1,538,806,0,0
-679,218,0,0,0,0,0,0,0,0,0,-1,545,806,0,0
-672,218,0,0,0,0,0,0,0,0,0,-1,552,806,0,0
-665,218,0,0,0,0,0,0,0,0,0,-1,559,806,0,0
-658,218,0,0,0,0,0,0,0,0,0,-1,566,806,0,0
-651,218,-11.5021,1.68427,0,0,0,0,0,0,0,-1,573,806,-11.5021,-1.68428
-644,218,-11.0811,1.06763,0,0,0,0,0,0,0,-1,580,806,-11.081,-1.06763
-637,218,-10.4041,0.403931,0,0,0,0,0,0,0,-1,587,806,-10.4041,-0.403928
-630,218,-9.71179,-0.0460205,0,0,0,0,0,0,0,-1,594,806,-9.71178,0.04599
-623,218,-9.00214,-0.479126,0,0,0,0,0,0,0,-1,601,806,-9.00214,0.479103
-616,218,-8.77545,-0.0635986,0,0,0,0,0,0,0,-1,608,806,-8.77544,0.0635952
-609,218,-7.71844,0.697693,0,0,0,0,0,0,0,-1,615,806,-7.71845,-0.697677
-602,218,-7.59985,0.768311,0.035288,-0.00265499,-0.00441967,0.035796,-0.00316299,-0.114441,0.0249852,0.0396244,622,806,-7.59983,-0.768312
-595,218,-7.44562,0.875305,0.0247691,-0.000751401,-0.00153683,0.0248613,-0.000843616,-0.0599309,0.0168624,0.0166142,629,806,-7.44559,-0.875285
-588,218,-7.41351,0.7547,0.0158254,-2.00139e-05,0.000459631,0.0158387,-3.33358e-05,0.0289748,0.0105702,0.0105801,636,806,-7.4135,-0.754704
-581,218,-7.40283,0.616638,0.00811993,0.00133204,0.00250529,0.00894443,0.000507537,0.317942,0.00580118,0.00978677,643,806,-7.40281,-0.616661
-574,218,-7.39484,0.464539,0.00304773,0.00137132,0.00295332,0.00527949,-0.000860432,0.647125,0.00383875,0.00896201,650,806,-7.39481,-0.464564
-567,218,-7.37653,0.302063,-0.000711136,0.00099956,0.00324103,0.00349621,-0.00320778,0.914413,0.00387175,0.0147438,657,806,-7.3765,-0.302079
-560,218,-7.40503,0.191284,-0.00349141,0.000226824,0.00338055,0.00222574,-0.00549033,1.0368,0.00458585,0.0153594,664,806,-7.405,-0.191288
-553,218,-7.40881,0.0343018,-0.00655628,-0.00037217,0.00426132,0.00180072,-0.00872917,1.09925,0.00650333,0.0160261,671,806,-7.40882,-0.0342927
-546,218,-7.39978,-0.140442,-0.00894141,-0.000679887,0.00473094,0.00146987,-0.0110912,1.14429,0.00792961,0.0139772,678,806,-7.3998,0.140462
-539,218,-7.38947,-0.296021,-0.0104767,-0.000431455,0.00559942,0.00206791,-0.012976,1.15097,0.00941599,0.0170719,685,806,-7.38945,0.296005
-532,218,-7.44049,-0.408936,-0.0117309,0.000125576,0.00635356,0.00288709,-0.0144924,1.16079,0.0107539,0.0185358,692,806,-7.4405,0.408951
-525,218,-7.84766,-0.422119,-0.012673,0.00073713,0.00689412,0.00364907,-0.0155849,1.17115,0.011796,0.0434372,699,806,-7.84764,0.422128
-518,218,-8.19012,-0.507996,-0.0131853,0.00156749,0.00719884,0.0044981,-0.0161159,1.18419,0.0125157,0.044212,706,806,-8.1901,0.507982
-511,218,-8.53717,-0.605469,0,0,0,0,0,0,0,-1,713,806,-8.53719,0.605498
-504,218,-10.3321,0.74585,0,0,0,0,0,0,0,-1,720,806,-10.3321,-0.74583
-497,218,-10.3757,0.703308,-0.0101997,0.00516193,0.00553698,0.00694964,-0.0119874,1.25849,0.0110615,0.0437338,727,806,-10.3757,-0.703304
-490,218,-10.4253,0.589172,-0.00695966,0.00676328,0.00339556,0.0075575,-0.00775388,1.34103,0.00884027,0.0351469,734,806,-10.4253,-0.589143
-483,218,-10.4006,0.639954,-0.00235846,0.00834326,0.000126585,0.00834475,-0.00235996,1.55897,0.00649436,0.0326525,741,806,-10.4006,-0.639947
-476,218,-10.3433,0.625977,0.00343816,0.00964445,-0.00424276,0.0117978,0.00128484,-1.10114,0.00747381,0.0359802,748,806,-10.3433,-0.625999
-469,218,0,0,0,0,0,0,0,0,0,-1,755,806,0,0
-462,218,0,0,0,0,0,0,0,0,0,-1,762,806,0,0
-455,218,0,0,0,0,0,0,0,0,0,-1,769,806,0,0
-448,218,0,0,0,0,0,0,0,0,0,-1,776,806,0,0
-441,218,0,0,0,0,0,0,0,0,0,-1,783,806,0,0
-434,218,0,0,0,0,0,0,0,0,0,-1,790,806,0,0
-427,218,0,0,0,0,0,0,0,0,0,-1,797,806,0,0
-420,218,0,0,0,0,0,0,0,0,0,-1,804,806,0,0
-413,218,0,0,0,0,0,0,0,0,0,-1,811,806,0,0
-406,218,0,0,0,0,0,0,0,0,0,-1,818,806,0,0
-399,218,0,0,0,0,0,0,0,0,0,-1,825,806,0,0
-392,218,0,0,0,0,0,0,0,0,0,-1,832,806,0,0
-385,218,0,0,0,0,0,0,0,0,0,-1,839,806,0,0
-378,218,0,0,0,0,0,0,0,0,0,-1,846,806,0,0
-371,218,0,0,0,0,0,0,0,0,0,-1,853,806,0,0
-364,218,0,0,0,0,0,0,0,0,0,-1,860,806,0,0
-357,218,0,0,0,0,0,0,0,0,0,-1,867,806,0,0
-350,218,0,0,0,0,0,0,0,0,0,-1,874,806,0,0
-343,218,0,0,0,0,0,0,0,0,0,-1,881,806,0,0
-336,218,0,0,0,0,0,0,0,0,0,-1,888,806,0,0
-329,218,0,0,0,0,0,0,0,0,0,-1,895,806,0,0
-322,218,0,0,0,0,0,0,0,0,0,-1,902,806,0,0
-315,218,0,0,0,0,0,0,0,0,0,-1,909,806,0,0
-308,218,0,0,0,0,0,0,0,0,0,-1,916,806,0,0
-301,218,0,0,0,0,0,0,0,0,0,-1,923,806,0,0
-294,218,0,0,0,0,0,0,0,0,0,-1,930,806,0,0
-287,218,0,0,0,0,0,0,0,0,0,-1,937,806,0,0
-280,218,0,0,0,0,0,0,0,0,0,-1,944,806,0,0
-273,218,0,0,0,0,0,0,0,0,0,-1,951,806,0,0
-266,218,0,0,0,0,0,0,0,0,0,-1,958,806,0,0
-259,218,0,0,0,0,0,0,0,0,0,-1,965,806,0,0
-252,218,0,0,0,0,0,0,0,0,0,-1,972,806,0,0
-245,218,0,0,0,0,0,0,0,0,0,-1,979,806,0,0
-238,218,0,0,0,0,0,0,0,0,0,-1,986,806,0,0
-231,218,0,0,0,0,0,0,0,0,0,-1,993,806,0,0
-224,218,0,0,0,0,0,0,0,0,0,-1,1000,806,0,0
-217,218,0,0,0,0,0,0,0,0,0,-1,1007,806,0,0
-210,218,0,0,0,0,0,0,0,0,0,-1,1014,806,0,0
-203,218,0,0,0,0,0,0,0,0,0,-1,1021,806,0,0
-196,218,0,0,0,0,0,0,0,0,0,-1,1028,806,0,0
-189,218,0,0,0,0,0,0,0,0,0,-1,1035,806,0,0
-182,218,0,0,0,0,0,0,0,0,0,-1,1042,806,0,0
-175,218,0,0,0,0,0,0,0,0,0,-1,1049,806,0,0
-168,218,0,0,0,0,0,0,0,0,0,-1,1056,806,0,0
-161,218,0,0,0,0,0,0,0,0,0,-1,1063,806,0,0
-154,218,0,0,0,0,0,0,0,0,0,-1,1070,806,0,0
-147,218,0,0,0,0,0,0,0,0,0,-1,1077,806,0,0
-140,218,0,0,0,0,0,0,0,0,0,-1,1084,806,0,0
-133,218,0,0,0,0,0,0,0,0,0,-1,1091,806,0,0
-126,218,0,0,0,0,0,0,0,0,0,-1,1098,806,0,0
-119,218,0,0,0,0,0,0,0,0,0,-1,1105,806,0,0
-112,218,0,0,0,0,0,0,0,0,0,-1,1112,806,0,0
-105,218,0,0,0,0,0,0,0,0,0,-1,1119,806,0,0
-98,218,0,0,0,0,0,0,0,0,0,-1,1126,806,0,0
-91,218,0,0,0,0,0,0,0,0,0,-1,1133,806,0,0
-84,218,0,0,0,0,0,0,0,0,0,-1,1140,806,0,0
-77,218,0,0,0,0,0,0,0,0,0,-1,1147,806,0,0
-70,218,0,0,0,0,0,0,0,0,0,-1,1154,806,0,0
-63,218,0,0,0,0,0,0,0,0,0,-1,1161,806,0,0
-56,218,0,0,0,0,0,0,0,0,0,-1,1168,806,0,0
-49,218,0,0,0,0,0,0,0,0,0,-1,1175,806,0,0
-42,218,0,0,0,0,0,0,0,0,0,-1,1182,806,0,0
-35,218,0,0,0,0,0,0,0,0,0,-1,1189,806,0,0
-28,218,0,0,0,0,0,0,0,0,0,-1,1196,806,0,0
-21,218,0,0,0,0,0,0,0,0,0,-1,1203,806,0,0
-14,218,0,0,0,0,0,0,0,0,0,-1,1210,806,0,0
-7,218,0,0,0,0,0,0,0,0,0,-1,1217,806,0,0
0,218,0,0,0,0,0,0,0,0,0,-1,1224,806,0,0
7,218,0,0,0,0,0,0,0,0,0,-1,1231,806,0,0
14,218,0,0,0,0,0,0,0,0,0,-1,1238,806,0,0
21,218,0,0,0,0,0,0,0,0,0,-1,1245,806,0,0
28,218,0,0,0,0,0,0,0,0,0,-1,1252,806,0,0
35,218,0,0,0,0,0,0,0,0,0,-1,1259,806,0,0
42,218,0,0,0,0,0,0,0,0,0,-1,1266,806,0,0
49,218,0,0,0,0,0,0,0,0,0,-1,1273,806,0,0
56,218,0,0,0,0,0,0,0,0,0,-1,1280,806,0,0
63,218,0,0,0,0,0,0,0,0,0,-1,1287,806,0,0
70,218,0,0,0,0,0,0,0,0,0,-1,1294,806,0,0
77,218,0,0,0,0,0,0,0,0,0,-1,1301,806,0,0
84,218,0,0,0,0,0,0,0,0,0,-1,1308,806,0,0
91,218,0,0,0,0,0,0,0,0,0,-1,1315,806,0,0
98,218,0,0,0,0,0,0,0,0,0,-1,1322,806,0,0
105,218,0,0,0,0,0,0,0,0,0,-1,1329,806,0,0
112,218,0,0,0,0,0,0,0,0,0,-1,1336,806,0,0
119,218,0,0,0,0,0,0,0,0,0,-1,1343,806,0,0
126,218,0,0,0,0,0,0,0,0,0,-1,1350,806,0,0
133,218,0,0,0,0,0,0,0,0,0,-1,1357,806,0,0
140,218,0,0,0,0,0,0,0,0,0,-1,1364,806,0,0
147,218,0,0,0,0,0,0,0,0,0,-1,1371,806,0,0
154,218,0,0,0,0,0,0,0,0,0,-1,1378,806,0,0
161,218,0,0,0,0,0,0,0,0,0,-1,1385,806,0,0
168,218,0,0,0,0,0,0,0,0,0,-1,1392,806,0,0
175,218,0,0,0,0,0,0,0,0,0,-1,1399,806,0,0
182,218,0,0,0,0,0,0,0,0,0,-1,1406,806,0,0
189,218,0,0,0,0,0,0,0,0,0,-1,1413,806,0,0
196,218,0,0,0,0,0,0,0,0,0,-1,1420,806,0,0
203,218,0,0,0,0,0,0,0,0,0,-1,1427,806,0,0
210,218,0,0,0,0,0,0,0,0,0,-1,1434,806,0,0
217,218,0,0,0,0,0,0,0,0,0,-1,1441,806,0,0
224,218,0,0,0,0,0,0,0,0,0,-1,1448,806,0,0
231,218,0,0,0,0,0,0,0,0,0,-1,1455,806,0,0
238,218,0,0,0,0,0,0,0,0,0,-1,1462,806,0,0
245,218,0,0,0,0,0,0,0,0,0,-1,1469,806,0,0
252,218,0,0,0,0,0,0,0,0,0,-1,1476,806,0,0
259,218,0,0,0,0,0,0,0,0,0,-1,1483,806,0,0
266,218,0,0,0,0,0,0,0,0,0,-1,1490,806,0,0
273,218,0,0,0,0,0,0,0,0,0,-1,1497,806,0,0
280,218,0,0,0,0,0,0,0,0,0,-1,1504,806,0,0
287,218,0,0,0,0,0,0,0,0,0,-1,1511,806,0,0
294,218,0,0,0,0,0,0,0,0,0,-1,1518,806,0,0
301,218,0,0,0,0,0,0,0,0,0,-1,1525,806,0,0
308,218,0,0,0,0,0,0,0,0,0,-1,1532,806,0,0
315,218,0,0,0,0,0,0,0,0,0,-1,1539,806,0,0
322,218,0,0,0,0,0,0,0,0,0,-1,1546,806,0,0
329,218,0,0,0,0,0,0,0,0,0,-1,1553,806,0,0
336,218,0,0,0,0,0,0,0,0,0,-1,1560,806,0,0
343,218,0,0,0,0,0,0,0,0,0,-1,1567,806,0,0
350,218,0,0,0,0,0,0,0,0,0,-1,1574,806,0,0
357,218,0,0,0,0,0,0,0,0,0,-1,1581,806,0,0
364,218,0,0,0,0,0,0,0,0,0,-1,1588,806,0,0
371,218,0,0,0,0,0,0,0,0,0,-1,1595,806,0,0
378,218,0,0,0,0,0,0,0,0,0,-1,1602,806,0,0
385,218,0,0,0,0,0,0,0,0,0,-1,1609,806,0,0
392,218,0,0,0,0,0,0,0,0,0,-1,1616,806,0,0
399,218,0,0,0,0,0,0,0,0,0,-1,1623,806,0,0
406,218,0,0,0,0,0,0,0,0,0,-1,1630,806,0,0
413,218,0,0,0,0,0,0,0,0,0,-1,1637,806,0,0
420,218,0,0,0,0,0,0,0,0,0,-1,1644,806,0,0
427,218,0,0,0,0,0,0,0,0,0,-1,1651,806,0,0
434,218,0,0,0,0,0,0,0,0,0,-1,1658,806,0,0
441,218,0,0,0,0,0,0,0,0,0,-1,1665,806,0,0
448,218,0,0,0,0,0,0,0,0,0,-1,1672,806,0,0
455,218,0,0,0,0,0,0,0,0,0,-1,1679,806,0,0
462,218,0,0,0,0,0,0,0,0,0,-1,1686,806,0,0
469,218,0,0,0,0,0,0,0,0,0,-1,1693,806,0,0
476,218,0,0,0,0,0,0,0,0,0,-1,1700,806,0,0
483,218,0,0,0,0,0,0,0,0,0,-1,1707,806,0,0
490,218,0,0,0,0,0,0,0,0,0,-1,1714,806,0,0
497,218,0,0,0,0,0,0,0,0,0,-1,1721,806,0,0
504,218,0,0,0,0,0,0,0,0,0,-1,1728,806,0,0
511,218,0,0,0,0,0,0,0,0,0,-1,1735,806,0,0
518,218,0,0,0,0,0,0,0,0,0,-1,1742,806,0,0
525,218,0,0,0,0,0,0,0,0,0,-1,1749,806,0,0
532,218,0,0,0,0,0,0,0,0,0,-1,1756,806,0,0
539,218,0,0,0,0,0,0,0,0,0,-1,1763,806,0,0
546,218,0,0,0,0,0,0,0,0,0,-1,1770,806,0,0
553,218,0,0,0,0,0,0,0,0,0,-1,1777,806,0,0
560,218,0,0,0,0,0,0,0,0,0,-1,1784,806,0,0
567,218,0,0,0,0,0,0,0,0,0,-1,1791,806,0,0
574,218,0,0,0,0,0,0,0,0,0,-1,1798,806,0,0
581,218,0,0,0,0,0,0,0,0,0,-1,1805,806,0,0
588,218,0,0,0,0,0,0,0,0,0,-1,1812,806,0,0
595,218,16.1901,2.28467,0.00673837,-0.00246569,0.00861119,0.0119001,-0.00762743,0.539995,0.0113638,0.0375742,1819,806,16.19,-2.28469
602,218,16.2806,2.32703,0.00030146,0.000236758,0.00266206,0.00293136,-0.00239314,0.779322,0.00307934,0.0338306,1826,806,16.2807,-2.32704
609,218,16.3362,2.42383,-0.00391441,0.0012518,-0.00237324,0.0021765,-0.00483911,-1.19926,0.00414656,0.0290904,1833,806,16.3362,-2.42384
616,218,16.2474,2.45972,-0.00655882,0.00143549,-0.00651863,0.00508489,-0.0102082,-1.06043,0.00899312,0.0316705,1840,806,16.2475,-2.45972
623,218,16.2693,2.4082,-0.00798882,0.0011569,-0.00932373,0.00696878,-0.0138007,-1.01339,0.0122056,0.0367751,1847,806,16.2693,-2.40821
630,218,16.3478,2.29346,-0.00840295,0.000619788,-0.0107721,0.00778705,-0.0155702,-0.983703,0.0137326,0.0398206,1854,806,16.3478,-2.29344
637,218,16.413,2.49097,-0.0082138,9.65235e-05,-0.011168,0.00785734,-0.0159746,-0.963493,0.0140229,0.0440851,1861,806,16.413,-2.49094
644,218,16.303,2.5473,-0.00782793,-0.000333995,-0.0110636,0.00759995,-0.0157619,-0.948673,0.0137596,0.044933,1868,806,16.303,-2.54733
651,218,16.1219,2.57275,0,0,0,0,0,0,0,-1,1875,806,16.122,-2.57275
658,218,12.6791,1.9054,-0.00629488,-0.00124058,-0.00948525,0.0060484,-0.0135839,-0.915588,0.0116097,0.0434101,1882,806,12.679,-1.90542
665,218,12.6477,1.57306,-0.00532713,-0.00152308,-0.00829767,0.00508776,-0.011938,-0.898064,0.0100915,0.0279575,1889,806,12.6477,-1.57308
672,218,12.5735,1.69763,-0.00421049,-0.00153204,-0.00705222,0.00430699,-0.0100495,-0.879231,0.00850689,0.0111898,1896,806,12.5734,-1.6976
679,218,12.5881,1.88013,-0.00253761,-0.00163411,-0.00519227,0.00312603,-0.00729775,-0.828791,0.00617674,0.011186,1903,806,12.5881,-1.88013
686,218,12.5966,2.0451,-0.00105819,-0.00142809,-0.00357629,0.00233793,-0.00482421,-0.759563,0.00421729,0.0109833,1910,806,12.5966,-2.04511
693,218,12.58,2.21198,0.000538168,-0.00112501,-0.00212442,0.00198796,-0.0025748,-0.598844,0.00264157,0.0102941,1917,806,12.58,-2.21201
700,218,12.5697,2.37317,0.00179212,-0.000570931,-0.00159978,0.00259939,-0.0013782,-0.46733,0.00233226,0.0089133,1924,806,12.5697,-2.37318
707,218,12.551,2.52039,0.00129372,0.000838537,-0.00146423,0.00254794,-0.000415685,-0.708298,0.0018528,0.00781337,1931,806,12.5511,-2.52037
714,218,12.5673,2.68976,0.000274236,0.00165482,-0.00104285,0.00221515,-0.000286089,-1.07776,0.00158078,0.00955269,1938,806,12.5673,-2.68977
721,218,12.6062,2.82153,0.000285273,0.00272565,-0.00119763,0.00321519,-0.000204267,-1.18276,0.00221469,0.0123096,1945,806,12.6062,-2.82152
728,218,12.632,2.9502,-0.00063661,0.00412523,-0.00150832,0.00456278,-0.00107417,-1.28845,0.00345601,0.0181803,1952,806,12.632,-2.9502
735,218,12.6689,3.05408,-0.00285868,0.00604124,-0.00215407,0.00653518,-0.00335262,-1.34539,0.00580646,0.0340399,1959,806,12.669,-3.0541
742,218,13.0469,2.98486,-0.00614174,0.00844029,-0.00293875,0.00901027,-0.00671171,-1.37922,0.00910937,0.0499528,1966,806,13.0469,-2.98485
749,218,13.2451,3.11169,0,0,0,0,0,0,0,-1,1973,806,13.2451,-3.11172
756,218,13.3444,2.62024,-0.0149908,0.0152196,-0.00500195,0.0160262,-0.0157975,-1.41091,0.0183736,0.0450443,1980,806,13.3444,-2.62023
763,218,10.4158,3.82898,-0.0194715,0.0197962,-0.00617083,0.0207431,-0.0204184,-1.41854,0.0237648,0.0448057,1987,806,10.4158,-3.82897
770,218,0,0,0,0,0,0,0,0,0,-1,1994,806,0,0
777,218,0,0,0,0,0,0,0,0,0,-1,2001,806,0,0
784,218,0,0,0,0,0,0,0,0,0,-1,2008,806,0,0
791,218,0,0,0,0,0,0,0,0,0,-1,2015,806,0,0
798,218,0,0,0,0,0,0,0,0,0,-1,2022,806,0,0
805,218,0,0,0,0,0,0,0,0,0,-1,2029,806,0,0
812,218,0,0,0,0,0,0,0,0,0,-1,2036,806,0,0
-700,211,0,0,0,0,0,0,0,0,0,-1,524,813,0,0
-693,211,0,0,0,0,0,0,0,0,0,-1,531,813,0,0
-686,211,0,0,0,0,0,0,0,0,0,-1,538,813,0,0
-679,211,0,0,0,0,0,0,0,0,0,-1,545,813,0,0
-672,211,0,0,0,0,0,0,0,0,0,-1,552,813,0,0
-665,211,0,0,0,0,0,0,0,0,0,-1,559,813,0,0
-658,211,0,0,0,0,0,0,0,0,0,-1,566,813,0,0
-651,211,-7.17657,3.89716,0,0,0,0,0,0,0,-1,573,813,-7.17659,-3.89715
-644,211,-10.3547,1.99585,0,0,0,0,0,0,0,-1,580,813,-10.3548,-1.99586
-637,211,-8.30621,-1.41034,0,0,0,0,0,0,0,-1,587,813,-8.30621,1.41034
-630,211,-7.81659,-0.843201,0,0,0,0,0,0,0,-1,594,813,-7.81657,0.843179
-623,211,-8.86847,0.371277,0,0,0,0,0,0,0,-1,601,813,-8.86847,-0.371282
-616,211,-8.37622,0.415222,0.0471239,-0.0099129,-0.00759605,0.0481182,-0.0109072,-0.130156,0.0362654,0.0460234,608,813,-8.37624,-0.415249
-609,211,-7.84052,0.60968,0.0355633,-0.00706816,-0.0038993,0.035917,-0.00742188,-0.090465,0.0267639,0.0381309,615,813,-7.84049,-0.609655
-602,211,-7.56171,0.921326,0.0260371,-0.00528554,-0.00127461,0.0260889,-0.00533732,-0.0406035,0.0194178,0.0198861,622,813,-7.56172,-0.921339
-595,211,-7.56818,0.86853,0.0181029,-0.00298843,0.00041391,0.0181111,-0.00299655,0.0196146,0.0131869,0.0099209,629,813,-7.56818,-0.868519
-588,211,-7.5603,0.748779,0.0112186,-0.00172274,0.00151124,0.0113927,-0.00189688,0.11472,0.00830001,0.0101743,636,813,-7.56029,-0.748793
-581,211,-7.55432,0.60791,0.00522067,-2.81067e-05,0.00278888,0.00642581,-0.00123324,0.407887,0.00474863,0.0104265,643,813,-7.55432,-0.607938
-574,211,-7.54767,0.446045,0.00116654,0.00032417,0.00300885,0.00378354,-0.00229283,0.715859,0.00354321,0.0116044,650,813,-7.54767,-0.446074
-567,211,-7.54523,0.308044,-0.00220656,0.000318336,0.00332522,0.00261269,-0.00450092,0.966823,0.004155,0.0177072,657,813,-7.54524,-0.308074
-560,211,-7.56293,0.190002,-0.00499734,-0.000149686,0.00354786,0.00172326,-0.00687028,1.08507,0.00524975,0.0199318,664,813,-7.56292,-0.190023
-553,211,-7.56262,0.0323486,-0.00794755,-0.000450214,0.00439506,0.00157772,-0.00997548,1.13849,0.00723381,0.0163805,671,813,-7.56263,-0.0323683
-546,211,-7.58875,-0.0554199,-0.010077,-0.000466056,0.0048541,0.0015589,-0.012102,1.17558,0.00863467,0.0187533,678,813,-7.58872,0.0554418
-539,211,-7.56097,-0.221619,-0.0113302,-0.000166451,0.00556703,0.00213515,-0.0136318,1.17876,0.00987681,0.0141585,685,813,-7.56099,0.221593
-532,211,-7.71655,-0.391357,-0.0122364,0.000386356,0.00616533,0.00289794,-0.014748,1.18395,0.0109268,0.040315,692,813,-7.71655,0.39136
-525,211,-7.97308,-0.516663,-0.0127565,0.000983771,0.00650671,0.00357598,-0.0153487,1.19168,0.0116095,0.0477066,699,813,-7.97306,0.516686
-518,211,-8.21277,-0.666077,0,0,0,0,0,0,0,-1,706,813,-8.2128,0.666057
-511,211,-10.1328,0.635742,-0.0119698,0.00271496,0.00636046,0.00508679,-0.0143417,1.21387,0.0116335,0.0463032,713,813,-10.1328,-0.635715
-504,211,-10.3312,0.684204,-0.0101817,0.00379912,0.00565229,0.00579839,-0.0121809,1.23082,0.0105962,0.0449112,720,813,-10.3312,-0.684191
-497,211,-10.4256,0.560242,-0.00713308,0.00501676,0.00419396,0.00632384,-0.00844016,1.26868,0.00855314,0.0437474,727,813,-10.4256,-0.560233
-490,211,-10.3857,0.606323,-0.00265389,0.00630972,0.00173045,0.00663219,-0.00297636,1.38656,0.00567977,0.0342303,734,813,-10.3857,-0.606316
-483,211,-10.3265,0.737549,0.00323903,0.00746364,-0.00186744,0.00817076,0.00253191,-1.20882,0.00482974,0.0329301,741,813,-10.3265,-0.73755
-476,211,-10.2882,0.748352,0.0101528,0.00827395,-0.00647151,0.0157527,0.00267403,-0.71332,0.00973367,0.0379204,748,813,-10.2882,-0.748366
-469,211,0,0,0,0,0,0,0,0,0,-1,755,813,0,0
-462,211,0,0,0,0,0,0,0,0,0,-1,762,813,0,0
-455,211,0,0,0,0,0,0,0,0,0,-1,769,813,0,0
-448,211,0,0,0,0,0,0,0,0,0,-1,776,813,0,0
-441,211,0,0,0,0,0,0,0,0,0,-1,783,813,0,0
-434,211,0,0,0,0,0,0,0,0,0,-1,790,813,0,0
-427,211,0,0,0,0,0,0,0,0,0,-1,797,813,0,0
-420,211,0,0,0,0,0,0,0,0,0,-1,804,813,0,0
-413,211,0,0,0,0,0,0,0,0,0,-1,811,813,0,0
-406,211,0,0,0,0,0,0,0,0,0,-1,818,813,0,0
-399,211,0,0,0,0,0,0,0,0,0,-1,825,813,0,0
-392,211,0,0,0,0,0,0,0,0,0,-1,832,813,0,0
-385,211,0,0,0,0,0,0,0,0,0,-1,839,813,0,0
-378,211,0,0,0,0,0,0,0,0,0,-1,846,813,0,0
-371,211,0,0,0,0,0,0,0,0,0,-1,853,813,0,0
-364,211,0,0,0,0,0,0,0,0,0,-1,860,813,0,0
-357,211,0,0,0,0,0,0,0,0,0,-1,867,813,0,0
-350,211,0,0,0,0,0,0,0,0,0,-1,874,813,0,0
-343,211,0,0,0,0,0,0,0,0,0,-1,881,813,0,0
-336,211,0,0,0,0,0,0,0,0,0,-1,888,813,0,0
-329,211,0,0,0,0,0,0,0,0,0,-1,895,813,0,0
-322,211,0,0,0,0,0,0,0,0,0,-1,902,813,0,0
-315,211,0,0,0,0,0,0,0,0,0,-1,909,813,0,0
-308,211,0,0,0,0,0,0,0,0,0,-1,916,813,0,0
-301,211,0,0,0,0,0,0,0,0,0,-1,923,813,0,0
-294,211,0,0,0,0,0,0,0,0,0,-1,930,813,0,0
-287,211,0,0,0,0,0,0,0,0,0,-1,937,813,0,0
-280,211,0,0,0,0,0,0,0,0,0,-1,944,813,0,0
-273,211,0,0,0,0,0,0,0,0,0,-1,951,813,0,0
-266,211,0,0,0,0,0,0,0,0,0,-1,958,813,0,0
-259,211,0,0,0,0,0,0,0,0,0,-1,965,813,0,0
-252,211,0,0,0,0,0,0,0,0,0,-1,972,813,0,0
-245,211,0,0,0,0,0,0,0,0,0,-1,979,813,0,0
-238,211,0,0,0,0,0,0,0,0,0,-1,986,813,0,0
-231,211,0,0,0,0,0,0,0,0,0,-1,993,813,0,0
-224,211,0,0,0,0,0,0,0,0,0,-1,1000,813,0,0
-217,211,0,0,0,0,0,0,0,0,0,-1,1007,813,0,0
-210,211,0,0,0,0,0,0,0,0,0,-1,1014,813,0,0
-203,211,0,0,0,0,0,0,0,0,0,-1,1021,813,0,0
-196,211,0,0,0,0,0,0,0,0,0,-1,1028,813,0,0
-189,211,0,0,0,0,0,0,0,0,0,-1,1035,813,0,0
-182,211,0,0,0,0,0,0,0,0,0,-1,1042,813,0,0
-175,211,0,0,0,0,0,0,0,0,0,-1,1049,813,0,0
-168,211,0,0,0,0,0,0,0,0,0,-1,1056,813,0,0
-161,211,0,0,0,0,0,0,0,0,0,-1,1063,813,0,0
-154,211,0,0,0,0,0,0,0,0,0,-1,1070,813,0,0
-147,211,0,0,0,0,0,0,0,0,0,-1,1077,813,0,0
-140,211,0,0,0,0,0,0,0,0,0,-1,1084,813,0,0
-133,211,0,0,0,0,0,0,0,0,0,-1,1091,813,0,0
-126,211,0,0,0,0,0,0,0,0,0,-1,1098,813,0,0
-119,211,0,0,0,0,0,0,0,0,0,-1,1105,813,0,0
-112,211,0,0,0,0,0,0,0,0,0,-1,1112,813,0,0
-105,211,0,0,0,0,0,0,0,0,0,-1,1119,813,0,0
-98,211,0,0,0,0,0,0,0,0,0,-1,1126,813,0,0
-91,211,0,0,0,0,0,0,0,0,0,-1,1133,813,0,0
-84,211,0,0,0,0,0,0,0,0,0,-1,1140,813,0,0
-77,211,0,0,0,0,0,0,0,0,0,-1,1147,813,0,0
-70,211,0,0,0,0,0,0,0,0,0,-1,1154,813,0,0
-63,211,0,0,0,0,0,0,0,0,0,-1,1161,813,0,0
-56,211,0,0,0,0,0,0,0,0,0,-1,1168,813,0,0
-49,211,0,0,0,0,0,0,0,0,0,-1,1175,813,0,0
-42,211,0,0,0,0,0,0,0,0,0,-1,1182,813,0,0
-35,211,0,0,0,0,0,0,0,0,0,-1,1189,813,0,0
-28,211,0,0,0,0,0,0,0,0,0,-1,1196,813,0,0
-21,211,0,0,0,0,0,0,0,0,0,-1,1203,813,0,0
-14,211,0,0,0,0,0,0,0,0,0,-1,1210,813,0,0
-7,211,0,0,0,0,0,0,0,0,0,-1,1217,813,0,0
0,211,0,0,0,0,0,0,0,0,0,-1,1224,813,0,0
7,211,0,0,0,0,0,0,0,0,0,-1,1231,813,0,0
14,211,0,0,0,0,0,0,0,0,0,-1,1238,813,0,0
21,211,0,0,0,0,0,0,0,0,0,-1,1245,813,0,0
28,211,0,0,0,0,0,0,0,0,0,-1,1252,813,0,0
35,211,0,0,0,0,0,0,0,0,0,-1,1259,813,0,0
42,211,0,0,0,0,0,0,0,0,0,-1,1266,813,0,0
49,211,0,0,0,0,0,0,0,0,0,-1,1273,813,0,0
56,211,0,0,0,0,0,0,0,0,0,-1,1280,813,0,0
63,211,0,0,0,0,0,0,0,0,0,-1,1287,813,0,0
70,211,0,0,0,0,0,0,0,0,0,-1,1294,813,0,0
77,211,0,0,0,0,0,0,0,0,0,-1,1301,813,0,0
84,211,0,0,0,0,0,0,0,0,0,-1,1308,813,0,0
91,211,0,0,0,0,0,0,0,0,0,-1,1315,813,0,0
98,211,0,0,0,0,0,0,0,0,0,-1,1322,813,0,0
105,211,0,0,0,0,0,0,0,0,0,-1,1329,813,0,0
112,211,0,0,0,0,0,0,0,0,0,-1,1336,813,0,0
119,211,0,0,0,0,0,0,0,0,0,-1,1343,813,0,0
126,211,0,0,0,0,0,0,0,0,0,-1,1350,813,0,0
133,211,0,0,0,0,0,0,0,0,0,-1,1357,813,0,0
140,211,0,0,0,0,0,0,0,0,0,-1,1364,813,0,0
147,211,0,0,0,0,0,0,0,0,0,-1,1371,813,0,0
154,211,0,0,0,0,0,0,0,0,0,-1,1378,813,0,0
161,211,0,0,0,0,0,0,0,0,0,-1,1385,813,0,0
168,211,0,0,0,0,0,0,0,0,0,-1,1392,813,0,0
175,211,0,0,0,0,0,0,0,0,0,-1,1399,813,0,0
182,211,0,0,0,0,0,0,0,0,0,-1,1406,813,0,0
189,211,0,0,0,0,0,0,0,0,0,-1,1413,813,0,0
196,211,0,0,0,0,0,0,0,0,0,-1,1420,813,0,0
203,211,0,0,0,0,0,0,0,0,0,-1,1427,813,0,0
210,211,0,0,0,0,0,0,0,0,0,-1,1434,813,0,0
217,211,0,0,0,0,0,0,0,0,0,-1,1441,813,0,0
224,211,0,0,0,0,0,0,0,0,0,-1,1448,813,0,0
231,211,0,0,0,0,0,0,0,0,0,-1,1455,813,0,0
238,211,0,0,0,0,0,0,0,0,0,-1,1462,813,0,0
245,211,0,0,0,0,0,0,0,0,0,-1,1469,813,0,0
252,211,0,0,0,0,0,0,0,0,0,-1,1476,813,0,0
259,211,0,0,0,0,0,0,0,0,0,-1,1483,813,0,0
266,211,0,0,0,0,0,0,0,0,0,-1,1490,813,0,0
273,211,0,0,0,0,0,0,0,0,0,-1,1497,813,0,0
280,211,0,0,0,0,0,0,0,0,0,-1,1504,813,0,0
287,211,0,0,0,0,0,0,0,0,0,-1,1511,813,0,0
294,211,0,0,0,0,0,0,0,0,0,-1,1518,813,0,0
301,211,0,0,0,0,0,0,0,0,0,-1,1525,813,0,0
308,211,0,0,0,0,0,0,0,0,0,-1,1532,813,0,0
315,211,0,0,0,0,0,0,0,0,0,-1,1539,813,0,0
322,211,0,0,0,0,0,0,0,0,0,-1,1546,813,0,0
329,211,0,0,0,0,0,0,0,0,0,-1,1553,813,0,0
336,211,0,0,0,0,0,0,0,0,0,-1,1560,813,0,0
343,211,0,0,0,0,0,0,0,0,0,-1,1567,813,0,0
350,211,0,0,0,0,0,0,0,0,0,-1,1574,813,0,0
357,211,0,0,0,0,0,0,0,0,0,-1,1581,813,0,0
364,211,0,0,0,0,0,0,0,0,0,-1,1588,813,0,0
371,211,0,0,0,0,0,0,0,0,0,-1,1595,813,0,0
378,211,0,0,0,0,0,0,0,0,0,-1,1602,813,0,0
385,211,0,0,0,0,0,0,0,0,0,-1,1609,813,0,0
392,211,0,0,0,0,0,0,0,0,0,-1,1616,813,0,0
399,211,0,0,0,0,0,0,0,0,0,-1,1623,813,0,0
406,211,0,0,0,0,0,0,0,0,0,-1,1630,813,0,0
413,211,0,0,0,0,0,0,0,0,0,-1,1637,813,0,0
420,211,0,0,0,0,0,0,0,0,0,-1,1644,813,0,0
427,211,0,0,0,0,0,0,0,0,0,-1,1651,813,0,0
434,211,0,0,0,0,0,0,0,0,0,-1,1658,813,0,0
441,211,0,0,0,0,0,0,0,0,0,-1,1665,813,0,0
448,211,0,0,0,0,0,0,0,0,0,-1,1672,813,0,0
455,211,0,0,0,0,0,0,0,0,0,-1,1679,813,0,0
462,211,0,0,0,0,0,0,0,0,0,-1,1686,813,0,0
469,211,0,0,0,0,0,0,0,0,0,-1,1693,813,0,0
476,211,0,0,0,0,0,0,0,0,0,-1,1700,813,0,0
483,211,0,0,0,0,0,0,0,0,0,-1,1707,813,0,0
490,211,0,0,0,0,0,0,0,0,0,-1,1714,813,0,0
497,211,0,0,0,0,0,0,0,0,0,-1,1721,813,0,0
504,211,0,0,0,0,0,0,0,0,0,-1,1728,813,0,0
511,211,0,0,0,0,0,0,0,0,0,-1,1735,813,0,0
518,211,0,0,0,0,0,0,0,0,0,-1,1742,813,0,0
525,211,0,0,0,0,0,0,0,0,0,-1,1749,813,0,0
532,211,0,0,0,0,0,0,0,0,0,-1,1756,813,0,0
539,211,0,0,0,0,0,0,0,0,0,-1,1763,813,0,0
546,211,0,0,0,0,0,0,0,0,0,-1,1770,813,0,0
553,211,0,0,0,0,0,0,0,0,0,-1,1777,813,0,0
560,211,0,0,0,0,0,0,0,0,0,-1,1784,813,0,0
567,211,0,0,0,0,0,0,0,0,0,-1,1791,813,0,0
574,211,0,0,0,0,0,0,0,0,0,-1,1798,813,0,0
581,211,0,0,0,0,0,0,0,0,0,-1,1805,813,0,0
588,211,0,0,0,0,0,0,0,0,0,-1,1812,813,0,0
595,211,16.171,2.19232,0.00970416,-0.00209463,0.0077783,0.0135672,-0.00595765,0.460957,0.0115545,0.039105,1819,813,16.171,-2.19233
602,211,16.2562,2.37494,0.00325918,0.000672827,0.00250809,0.00478785,-0.000855841,0.547372,0.00351211,0.0383205,1826,813,16.2562,-2.37495
609,211,16.2932,2.46545,-0.00116183,0.00169179,-0.00178755,0.00255215,-0.00202219,-1.12222,0.0026469,0.0363854,1833,813,16.2932,-2.46546
616,211,16.2632,2.45721,-0.00415664,0.00185913,-0.00544199,0.00506917,-0.00736668,-1.03786,0.00722057,0.0301995,1840,813,16.2632,-2.45724
623,211,16.307,2.38623,-0.00601206,0.00155187,-0.00791617,0.0065431,-0.0110033,-1.00824,0.0102389,0.0314766,1847,813,16.307,-2.38621
630,211,16.3766,2.32562,-0.00683674,0.00100043,-0.00917063,0.00705459,-0.0128909,-0.987306,0.0116787,0.0360569,1854,813,16.3765,-2.32564
637,211,16.3633,2.3714,-0.00698496,0.00044705,-0.00950195,0.00693377,-0.0134717,-0.971794,0.011981,0.0413301,1861,813,16.3632,-2.37137
644,211,16.2466,2.40466,-0.00685537,-4.30044e-05,-0.00932225,0.00647585,-0.0133742,-0.960554,0.0116889,0.0400383,1868,813,16.2465,-2.40465
651,211,16.0161,2.42456,0,0,0,0,0,0,0,-1,1875,813,16.0161,-2.42457
658,211,13.35,1.81219,-0.00581371,-0.000899037,-0.00797052,0.00498436,-0.0116971,-0.934926,0.00988756,0.0473895,1882,813,13.35,-1.8122
665,211,12.9327,1.78754,-0.00503154,-0.00118557,-0.00710231,0.00424948,-0.0104666,-0.917606,0.00874541,0.0430456,1889,813,12.9327,-1.78753
672,211,12.7083,1.72705,-0.00414014,-0.00124606,-0.00619765,0.00367124,-0.00905743,-0.900085,0.00756504,0.0159976,1896,813,12.7082,-1.72707
679,211,12.7394,1.87024,-0.00280243,-0.00138724,-0.00473177,0.00268956,-0.00687922,-0.859619,0.00569832,0.012095,1903,813,12.7394,-1.87023
686,211,12.7487,2.05505,-0.0015239,-0.00127672,-0.00340645,0.00200838,-0.00480901,-0.803531,0.00404521,0.0106941,1910,813,12.7486,-2.05504
693,211,12.7391,2.21014,-6.46421e-05,-0.00109758,-0.002203,0.00168162,-0.00284384,-0.670258,0.00264134,0.0101459,1917,813,12.7392,-2.21012
700,211,12.6721,2.3551,0.00105657,-0.000719615,-0.00178164,0.0021592,-0.00182224,-0.554187,0.00230142,0.012342,1924,813,12.6721,-2.35508
707,211,12.6907,2.53046,0.000520769,0.000430898,-0.00167452,0.00215096,-0.00119929,-0.771984,0.00196011,0.0198605,1931,813,12.6907,-2.53044
714,211,12.7097,2.71063,-0.000420331,0.00106486,-0.00130589,0.00182453,-0.00118,-1.04392,0.00174792,0.020558,1938,813,12.7097,-2.7106
721,211,12.7424,2.8241,-0.00012173,0.00188961,-0.00151703,0.00270404,-0.000936161,-1.0781,0.00218272,0.0156366,1945,813,12.7424,-2.82412
728,211,12.7777,2.93976,-0.000416956,0.00299114,-0.00188917,0.00383126,-0.00125707,-1.15236,0.00306049,0.0149034,1952,813,12.7778,-2.93974
735,211,12.7773,3.08197,-0.00157782,0.00454356,-0.00271946,0.00557717,-0.00261143,-1.20758,0.00482994,0.0247466,1959,813,12.7774,-3.08198
742,211,12.9427,3.1601,-0.00334079,0.00642181,-0.0036704,0.0076478,-0.00456677,-1.24843,0.00712648,0.0475547,1966,813,12.9428,-3.1601
749,211,12.6595,3.18597,-0.0052022,0.00884109,-0.0048466,0.0103513,-0.00671244,-1.26872,0.00992616,0.0472766,1973,813,12.6596,-3.18595
756,211,12.542,2.91559,0,0,0,0,0,0,0,-1,1980,813,12.542,-2.91557
763,211,10.8367,3.6355,0,0,0,0,0,0,0,-1,1987,813,10.8366,-3.63548
770,211,10.66,3.55426,0,0,0,0,0,0,0,-1,1994,813,10.6601,-3.55425
777,211,0,0,0,0,0,0,0,0,0,-1,2001,813,0,0
784,211,0,0,0,0,0,0,0,0,0,-1,2008,813,0,0
791,211,0,0,0,0,0,0,0,0,0,-1,2015,813,0,0
798,211,0,0,0,0,0,0,0,0,0,-1,2022,813,0,0
805,211,0,0,0,0,0,0,0,0,0,-1,2029,813,0,0
812,211,0,0,0,0,0,0,0,0,0,-1,2036,813,0,0
-700,204,0,0,0,0,0,0,0,0,0,-1,524,820,0,0
-693,204,0,0,0,0,0,0,0,0,0,-1,531,820,0,0
-686,204,0,0,0,0,0,0,0,0,0,-1,538,820,0,0
-679,204,0,0,0,0,0,0,0,0,0,-1,545,820,0,0
-672,204,0,0,0,0,0,0,0,0,0,-1,552,820,0,0
-665,204,0,0,0,0,0,0,0,0,0,-1,559,820,0,0
-658,204,0,0,0,0,0,0,0,0,0,-1,566,820,0,0
-651,204,-9.30396,-1.45428,0,0,0,0,0,0,0,-1,573,820,-9.30395,1.45431
-644,204,-8.79626,-1.50562,0,0,0,0,0,0,0,-1,580,820,-8.79625,1.50561
-637,204,-8.30365,-1.12927,0.0663962,-0.0202525,-0.0123295,0.0681165,-0.0219727,-0.138628,0.0542396,0.0463727,587,820,-8.30368,1.1293
-630,204,-7.74457,-0.674133,0.0550751,-0.0182546,-0.00842451,0.0560305,-0.01921,-0.112925,0.0451407,0.0448365,594,820,-7.74458,0.674122
-623,204,-7.17664,-0.184875,0,0,0,0,0,0,0,-1,601,820,-7.17662,0.184879
-616,204,-7.49048,0.696411,0.034399,-0.0122656,-0.00232746,0.0345148,-0.0123814,-0.049712,0.0280627,0.0448778,608,820,-7.4905,-0.696441
-609,204,-7.61884,0.901489,0.0258274,-0.00922617,-0.000296564,0.02583,-0.00922868,-0.0084595,0.0209839,0.0329282,615,820,-7.61885,-0.901502
-602,204,-7.68414,0.975159,0.0187858,-0.00720515,0.00105136,0.0188282,-0.00724761,0.0403632,0.0155419,0.0141594,622,820,-7.68416,-0.975186
-595,204,-7.70166,0.875977,0.012777,-0.00464276,0.00183586,0.0129684,-0.00483414,0.103869,0.0106299,0.0137852,629,820,-7.70166,-0.875988
-588,204,-7.71509,0.726807,0.00740987,-0.00300547,0.00228135,0.00788766,-0.00348325,0.206447,0.00672716,0.0125594,636,820,-7.7151,-0.726782
-581,204,-7.69733,0.590698,0.00256821,-0.00112346,0.00302582,0.00426676,-0.00282201,0.511518,0.00412094,0.0122805,643,820,-7.69732,-0.590709
-574,204,-7.70435,0.450073,-0.000758842,-0.000567054,0.00311841,0.00245694,-0.00378283,0.800769,0.00362954,0.013113,650,820,-7.70432,-0.450097
-567,204,-7.68976,0.306763,-0.00379126,-0.000338982,0.0034539,0.00179609,-0.00592633,1.01713,0.00466627,0.0128872,657,820,-7.68977,-0.306778
-560,204,-7.68164,0.161133,-0.00650256,-0.000615283,0.00371412,0.00118024,-0.00829809,1.12049,0.00596452,0.0121224,664,820,-7.68161,-0.161144
-553,204,-7.67566,0.0352173,-0.00923995,-0.000704557,0.00444772,0.00119179,-0.0111363,1.16777,0.00785167,0.00871321,671,820,-7.67568,-0.0352098
-546,204,-7.68213,-0.0532227,-0.0110764,-0.000512965,0.00486059,0.00138318,-0.0129726,1.19885,0.00914439,0.0121986,678,820,-7.6821,0.0532299
-539,204,-7.7287,-0.224976,-0.0120294,-0.000173389,0.00539712,0.00191547,-0.0141183,1.20152,0.0101113,0.0227796,685,820,-7.72867,0.224986
-532,204,-7.71741,-0.456482,0,0,0,0,0,0,0,-1,692,820,-7.71741,0.456505
-525,204,-8.19336,-0.516968,0,0,0,0,0,0,0,-1,699,820,-8.19336,0.51697
-518,204,-10.0361,1.22583,0,0,0,0,0,0,0,-1,706,820,-10.0361,-1.22581
-511,204,-10.2573,0.666748,-0.0109385,0.00288117,0.00540291,0.00474273,-0.0128,1.23899,0.0104784,0.0473232,713,820,-10.2573,-0.666761
-504,204,-10.3106,0.650269,-0.00838676,0.00397995,0.00444504,0.00541186,-0.00981867,1.25916,0.0089152,0.0457988,720,820,-10.3106,-0.65025
-497,204,-10.4951,0.474731,-0.00436255,0.0051622,0.0027088,0.00587868,-0.00507903,1.31222,0.00633205,0.038901,727,820,-10.4951,-0.474727
-490,204,-10.4415,0.606934,0.00123836,0.00632611,-4.91052e-05,0.00632658,0.00123789,-1.56115,0.00387163,0.03375,734,820,-10.4415,-0.606938
-483,204,-10.2546,0.749817,0.00830401,0.00716736,-0.00392853,0.0117051,0.00376626,-0.713563,0.0068996,0.037937,741,820,-10.2546,-0.749818
-476,204,0,0,0,0,0,0,0,0,0,-1,748,820,0,0
-469,204,0,0,0,0,0,0,0,0,0,-1,755,820,0,0
-462,204,0,0,0,0,0,0,0,0,0,-1,762,820,0,0
-455,204,0,0,0,0,0,0,0,0,0,-1,769,820,0,0
-448,204,0,0,0,0,0,0,0,0,0,-1,776,820,0,0
-441,204,0,0,0,0,0,0,0,0,0,-1,783,820,0,0
-434,204,0,0,0,0,0,0,0,0,0,-1,790,820,0,0
-427,204,0,0,0,0,0,0,0,0,0,-1,797,820,0,0
-420,204,0,0,0,0,0,0,0,0,0,-1,804,820,0,0
-413,204,0,0,0,0,0,0,0,0,0,-1,811,820,0,0
-406,204,0,0,0,0,0,0,0,0,0,-1,818,820,0,0
-399,204,0,0,0,0,0,0,0,0,0,-1,825,820,0,0
-392,204,0,0,0,0,0,0,0,0,0,-1,832,820,0,0
-385,204,0,0,0,0,0,0,0,0,0,-1,839,820,0,0
-378,204,0,0,0,0,0,0,0,0,0,-1,846,820,0,0
-371,204,0,0,0,0,0,0,0,0,0,-1,853,820,0,0
-364,204,0,0,0,0,0,0,0,0,0,-1,860,820,0,0
-357,204,0,0,0,0,0,0,0,0,0,-1,867,820,0,0
-350,204,0,0,0,0,0,0,0,0,0,-1,874,820,0,0
-343,204,0,0,0,0,0,0,0,0,0,-1,881,820,0,0
-336,204,0,0,0,0,0,0,0,0,0,-1,888,820,0,0
-329,204,0,0,0,0,0,0,0,0,0,-1,895,820,0,0
-322,204,0,0,0,0,0,0,0,0,0,-1,902,820,0,0
-315,204,0,0,0,0,0,0,0,0,0,-1,909,820,0,0
-308,204,0,0,0,0,0,0,0,0,0,-1,916,820,0,0
-301,204,0,0,0,0,0,0,0,0,0,-1,923,820,0,0
-294,204,0,0,0,0,0,0,0,0,0,-1,930,820,0,0
-287,204,0,0,0,0,0,0,0,0,0,-1,937,820,0,0
-280,204,0,0,0,0,0,0,0,0,0,-1,944,820,0,0
-273,204,0,0,0,0,0,0,0,0,0,-1,951,820,0,0
-266,204,0,0,0,0,0,0,0,0,0,-1,958,820,0,0
-259,204,0,0,0,0,0,0,0,0,0,-1,965,820,0,0
-252,204,0,0,0,0,0,0,0,0,0,-1,972,820,0,0
-245,204,0,0,0,0,0,0,0,0,0,-1,979,820,0,0
-238,204,0,0,0,0,0,0,0,0,0,-1,986,820,0,0
-231,204,0,0,0,0,0,0,0,0,0,-1,993,820,0,0
-224,204,0,0,0,0,0,0,0,0,0,-1,1000,820,0,0
-217,204,0,0,0,0,0,0,0,0,0,-1,1007,820,0,0
-210,204,0,0,0,0,0,0,0,0,0,-1,1014,820,0,0
-203,204,0,0,0,0,0,0,0,0,0,-1,1021,820,0,0
-196,204,0,0,0,0,0,0,0,0,0,-1,1028,820,0,0
-189,204,0,0,0,0,0,0,0,0,0,-1,1035,820,0,0
-182,204,0,0,0,0,0,0,0,0,0,-1,1042,820,0,0
-175,204,0,0,0,0,0,0,0,0,0,-1,1049,820,0,0
-168,204,0,0,0,0,0,0,0,0,0,-1,1056,820,0,0
-161,204,0,0,0,0,0,0,0,0,0,-1,1063,820,0,0
-154,204,0,0,0,0,0,0,0,0,0,-1,1070,820,0,0
-147,204,0,0,0,0,0,0,0,0,0,-1,1077,820,0,0
-140,204,0,0,0,0,0,0,0,0,0,-1,1084,820,0,0
-133,204,0,0,0,0,0,0,0,0,0,-1,1091,820,0,0
-126,204,0,0,0,0,0,0,0,0,0,-1,1098,820,0,0
-119,204,0,0,0,0,0,0,0,0,0,-1,1105,820,0,0
-112,204,0,0,0,0,0,0,0,0,0,-1,1112,820,0,0
-105,204,0,0,0,0,0,0,0,0,0,-1,1119,820,0,0
-98,204,0,0,0,0,0,0,0,0,0,-1,1126,820,0,0
-91,204,0,0,0,0,0,0,0,0,0,-1,1133,820,0,0
-84,204,0,0,0,0,0,0,0,0,0,-1,1140,820,0,0
-77,204,0,0,0,0,0,0,0,0,0,-1,1147,820,0,0
-70,204,0,0,0,0,0,0,0,0,0,-1,1154,820,0,0
-63,204,0,0,0,0,0,0,0,0,0,-1,1161,820,0,0
-56,204,0,0,0,0,0,0,0,0,0,-1,1168,820,0,0
-49,204,0,0,0,0,0,0,0,0,0,-1,1175,820,0,0
-42,204,0,0,0,0,0,0,0,0,0,-1,1182,820,0,0
-35,204,0,0,0,0,0,0,0,0,0,-1,1189,820,0,0
-28,204,0,0,0,0,0,0,0,0,0,-1,1196,820,0,0
-21,204,0,0,0,0,0,0,0,0,0,-1,1203,820,0,0
-14,204,0,0,0,0,0,0,0,0,0,-1,1210,820,0,0
-7,204,0,0,0,0,0,0,0,0,0,-1,1217,820,0,0
0,204,0,0,0,0,0,0,0,0,0,-1,1224,820,0,0
7,204,0,0,0,0,0,0,0,0,0,-1,1231,820,0,0
14,204,0,0,0,0,0,0,0,0,0,-1,1238,820,0,0
21,204,0,0,0,0,0,0,0,0,0,-1,1245,820,0,0
28,204,0,0,0,0,0,0,0,0,0,-1,1252,820,0,0
35,204,0,0,0,0,0,0,0,0,0,-1,1259,820,0,0
42,204,0,0,0,0,0,0,0,0,0,-1,1266,820,0,0
49,204,0,0,0,0,0,0,0,0,0,-1,1273,820,0,0
56,204,0,0,0,0,0,0,0,0,0,-1,1280,820,0,0
63,204,0,0,0,0,0,0,0,0,0,-1,1287,820,0,0
70,204,0,0,0,0,0,0,0,0,0,-1,1294,820,0,0
77,204,0,0,0,0,0,0,0,0,0,-1,1301,820,0,0
84,204,0,0,0,0,0,0,0,0,0,-1,1308,820,0,0
91,204,0,0,0,0,0,0,0,0,0,-1,1315,820,0,0
98,204,0,0,0,0,0,0,0,0,0,-1,1322,820,0,0
105,204,0,0,0,0,0,0,0,0,0,-1,1329,820,0,0
112,204,0,0,0,0,0,0,0,0,0,-1,1336,820,0,0
119,204,0,0,0,0,0,0,0,0,0,-1,1343,820,0,0
126,204,0,0,0,0,0,0,0,0,0,-1,1350,820,0,0
133,204,0,0,0,0,0,0,0,0,0,-1,1357,820,0,0
140,204,0,0,0,0,0,0,0,0,0,-1,1364,820,0,0
147,204,0,0,0,0,0,0,0,0,0,-1,1371,820,0,0
154,204,0,0,0,0,0,0,0,0,0,-1,1378,820,0,0
161,204,0,0,0,0,0,0,0,0,0,-1,1385,820,0,0
168,204,0,0,0,0,0,0,0,0,0,-1,1392,820,0,0
175,204,0,0,0,0,0,0,0,0,0,-1,1399,820,0,0
182,204,0,0,0,0,0,0,0,0,0,-1,1406,820,0,0
189,204,0,0,0,0,0,0,0,0,0,-1,1413,820,0,0
196,204,0,0,0,0,0,0,0,0,0,-1,1420,820,0,0
203,204,0,0,0,0,0,0,0,0,0,-1,1427,820,0,0
210,204,0,0,0,0,0,0,0,0,0,-1,1434,820,0,0
217,204,0,0,0,0,0,0,0,0,0,-1,1441,820,0,0
224,204,0,0,0,0,0,0,0,0,0,-1,1448,820,0,0
231,204,0,0,0,0,0,0,0,0,0,-1,1455,820,0,0
238,204,0,0,0,0,0,0,0,0,0,-1,1462,820,0,0
245,204,0,0,0,0,0,0,0,0,0,-1,1469,820,0,0
252,204,0,0,0,0,0,0,0,0,0,-1,1476,820,0,0
259,204,0,0,0,0,0,0,0,0,0,-1,1483,820,0,0
266,204,0,0,0,0,0,0,0,0,0,-1,1490,820,0,0
273,204,0,0,0,0,0,0,0,0,0,-1,1497,820,0,0
280,204,0,0,0,0,0,0,0,0,0,-1,1504,820,0,0
287,204,0,0,0,0,0,0,0,0,0,-1,1511,820,0,0
294,204,0,0,0,0,0,0,0,0,0,-1,1518,820,0,0
301,204,0,0,0,0,0,0,0,0,0,-1,1525,820,0,0
308,204,0,0,0,0,0,0,0,0,0,-1,1532,820,0,0
315,204,0,0,0,0,0,0,0,0,0,-1,1539,820,0,0
322,204,0,0,0,0,0,0,0,0,0,-1,1546,820,0,0
329,204,0,0,0,0,0,0,0,0,0,-1,1553,820,0,0
336,204,0,0,0,0,0,0,0,0,0,-1,1560,820,0,0
343,204,0,0,0,0,0,0,0,0,0,-1,1567,820,0,0
350,204,0,0,0,0,0,0,0,0,0,-1,1574,820,0,0
357,204,0,0,0,0,0,0,0,0,0,-1,1581,820,0,0
364,204,0,0,0,0,0,0,0,0,0,-1,1588,820,0,0
371,204,0,0,0,0,0,0,0,0,0,-1,1595,820,0,0
378,204,0,0,0,0,0,0,0,0,0,-1,1602,820,0,0
385,204,0,0,0,0,0,0,0,0,0,-1,1609,820,0,0
392,204,0,0,0,0,0,0,0,0,0,-1,1616,820,0,0
399,204,0,0,0,0,0,0,0,0,0,-1,1623,820,0,0
406,204,0,0,0,0,0,0,0,0,0,-1,1630,820,0,0
413,204,0,0,0,0,0,0,0,0,0,-1,1637,820,0,0
420,204,0,0,0,0,0,0,0,0,0,-1,1644,820,0,0
427,204,0,0,0,0,0,0,0,0,0,-1,1651,820,0,0
434,204,0,0,0,0,0,0,0,0,0,-1,1658,820,0,0
441,204,0,0,0,0,0,0,0,0,0,-1,1665,820,0,0
448,204,0,0,0,0,0,0,0,0,0,-1,1672,820,0,0
455,204,0,0,0,0,0,0,0,0,0,-1,1679,820,0,0
462,204,0,0,0,0,0,0,0,0,0,-1,1686,820,0,0
469,204,0,0,0,0,0,0,0,0,0,-1,1693,820,0,0
476,204,0,0,0,0,0,0,0,0,0,-1,1700,820,0,0
483,204,0,0,0,0,0,0,0,0,0,-1,1707,820,0,0
490,204,0,0,0,0,0,0,0,0,0,-1,1714,820,0,0
497,204,0,0,0,0,0,0,0,0,0,-1,1721,820,0,0
504,204,0,0,0,0,0,0,0,0,0,-1,1728,820,0,0
511,204,0,0,0,0,0,0,0,0,0,-1,1735,820,0,0
518,204,0,0,0,0,0,0,0,0,0,-1,1742,820,0,0
525,204,0,0,0,0,0,0,0,0,0,-1,1749,820,0,0
532,204,0,0,0,0,0,0,0,0,0,-1,1756,820,0,0
539,204,0,0,0,0,0,0,0,0,0,-1,1763,820,0,0
546,204,0,0,0,0,0,0,0,0,0,-1,1770,820,0,0
553,204,0,0,0,0,0,0,0,0,0,-1,1777,820,0,0
560,204,0,0,0,0,0,0,0,0,0,-1,1784,820,0,0
567,204,0,0,0,0,0,0,0,0,0,-1,1791,820,0,0
574,204,0,0,0,0,0,0,0,0,0,-1,1798,820,0,0
581,204,0,0,0,0,0,0,0,0,0,-1,1805,820,0,0
588,204,0,0,0,0,0,0,0,0,0,-1,1812,820,0,0
595,204,0,0,0,0,0,0,0,0,0,-1,1819,820,0,0
602,204,16.2561,2.3952,0.00435955,0.000736658,0.00280286,0.00588537,-0.000789161,0.498518,0.00421135,0.0403748,1826,820,16.2561,-2.39523
609,204,16.2849,2.37018,0.000277675,0.00179185,-0.000494324,0.00193894,0.000130584,-1.28158,0.00125137,0.0405339,1833,820,16.2849,-2.3702
616,204,16.2848,2.40668,-0.0026111,0.00202233,-0.00360371,0.00398976,-0.00457853,-1.07107,0.00495079,0.0361479,1840,820,16.2847,-2.40668
623,204,16.2969,2.39838,-0.00455469,0.00177069,-0.00583057,0.00524111,-0.00802511,-1.03391,0.00771527,0.0271082,1847,820,16.2969,-2.39839
630,204,16.3522,2.33069,-0.00557092,0.00128072,-0.0070464,0.00568995,-0.00998014,-1.01166,0.00915946,0.0249079,1854,820,16.3522,-2.33068
637,204,16.3496,2.36041,-0.00591041,0.00075964,-0.00744956,0.00558662,-0.0107374,-0.99586,0.00957978,0.0326925,1861,820,16.3496,-2.36043
644,204,16.2202,2.38531,-0.00591083,0.000267071,-0.00735315,0.00515373,-0.0107975,-0.984248,0.00939962,0.0396422,1868,820,16.2202,-2.38531
651,204,16.064,2.42706,-0.00562718,-0.000223559,-0.00700075,0.00457865,-0.0104294,-0.969558,0.00888166,0.0448199,1875,820,16.0639,-2.42708
658,204,15.9346,2.53168,0,0,0,0,0,0,0,-1,1882,820,15.9346,-2.53166
665,204,12.9551,1.71198,-0.00455032,-0.000810058,-0.00582213,0.00343493,-0.0087953,-0.940798,0.00728369,0.0488211,1889,820,12.955,-1.71199
672,204,12.8914,1.68231,-0.00385157,-0.000918576,-0.00520639,0.00302391,-0.00779406,-0.922677,0.00644498,0.0286921,1896,820,12.8913,-1.68233
679,204,12.8942,1.83752,-0.00283049,-0.0010725,-0.00411371,0.00225507,-0.00615807,-0.890653,0.00502854,0.0166505,1903,820,12.8942,-1.83755
686,204,12.8986,2.05328,-0.00177116,-0.00104639,-0.00310298,0.00171529,-0.00453284,-0.843529,0.00372762,0.0103561,1910,820,12.8985,-2.05327
693,204,12.8506,2.21973,-0.000489391,-0.00100913,-0.00217348,0.0014397,-0.00293822,-0.725899,0.00257648,0.0149347,1917,820,12.8506,-2.21973
700,204,12.8937,2.37646,0.000465796,-0.000803413,-0.00186621,0.00180235,-0.00213997,-0.621507,0.00227888,0.0159165,1924,820,12.8937,-2.37647
707,204,12.8829,2.55536,-7.64878e-05,7.16594e-05,-0.00179949,0.0017986,-0.00180343,-0.805968,0.00207963,0.0144352,1931,820,12.8829,-2.55535
714,204,12.8929,2.72211,-0.000897212,0.000548277,-0.00150422,0.00149437,-0.00184331,-1.00935,0.00193052,0.0224394,1938,820,12.8929,-2.72213
721,204,12.8857,2.83435,-0.000249581,0.00117234,-0.00177193,0.00237062,-0.00144786,-0.976184,0.00222596,0.0203319,1945,820,12.8857,-2.83433
728,204,12.8925,2.9455,0.000219922,0.00204089,-0.00215573,0.00347053,-0.00120972,-0.985212,0.00280526,0.012868,1952,820,12.8925,-2.94548
735,204,12.8898,3.09521,0.000258915,0.00342605,-0.00300542,0.00523958,-0.00155461,-1.02787,0.00411045,0.0150888,1959,820,12.8897,-3.0952
742,204,12.9041,3.24377,0.000137446,0.00499302,-0.00396857,0.00721751,-0.00208705,-1.05991,0.00563763,0.0293007,1966,820,12.904,-3.24379
749,204,12.8855,3.41986,0.000648678,0.00706346,-0.00513346,0.00990915,-0.00219701,-1.06463,0.00744726,0.0433793,1973,820,12.8854,-3.41988
756,204,12.0524,3.47058,0.00247009,0.00978568,-0.00649463,0.0135817,-0.00132595,-1.04186,0.00952727,0.0472887,1980,820,12.0524,-3.47056
763,204,11.4393,3.53149,0.00655002,0.0133512,-0.00802169,0.0186633,0.00123789,-0.985878,0.0120508,0.0465264,1987,820,11.4393,-3.53149
770,204,12.8445,3.69757,0,0,0,0,0,0,0,-1,1994,820,12.8444,-3.6976
777,204,0,0,0,0,0,0,0,0,0,-1,2001,820,0,0
784,204,0,0,0,0,0,0,0,0,0,-1,2008,820,0,0
791,204,0,0,0,0,0,0,0,0,0,-1,2015,820,0,0
798,204,0,0,0,0,0,0,0,0,0,-1,2022,820,0,0
805,204,0,0,0,0,0,0,0,0,0,-1,2029,820,0,0
812,204,0,0,0,0,0,0,0,0,0,-1,2036,820,0,0
-700,197,0,0,0,0,0,0,0,0,0,-1,524,827,0,0
-693,197,0,0,0,0,0,0,0,0,0,-1,531,827,0,0
-686,197,0,0,0,0,0,0,0,0,0,-1,538,827,0,0
-679,197,0,0,0,0,0,0,0,0,0,-1,545,827,0,0
-672,197,0,0,0,0,0,0,0,0,0,-1,552,827,0,0
-665,197,0,0,0,0,0,0,0,0,0,-1,559,827,0,0
-658,197,-9.34308,-0.733215,0.0690558,-0.0106781,-0.00603145,0.0695094,-0.0111318,-0.0750754,0.0504612,0.0417027,566,827,-9.34311,0.733236
-651,197,-9.1424,-1.01404,0.0638015,-0.0207122,-0.0065752,0.06431,-0.0212207,-0.0771815,0.0514276,0.0421565,573,827,-9.14238,1.01401
-644,197,-8.77625,-0.86853,0.0563868,-0.0237363,-0.00548281,0.0567603,-0.0241097,-0.0680073,0.047942,0.0425119,580,827,-8.77622,0.868542
-637,197,-8.29871,-0.850037,0.0478637,-0.023487,-0.00386538,0.0480725,-0.0236958,-0.0539638,0.0422247,0.0452609,587,827,-8.29871,0.850058
-630,197,-9.81158,-0.903442,0.0392628,-0.0214662,-0.00222744,0.0393444,-0.0215478,-0.0366128,0.0356531,0.0402242,594,827,-9.81157,0.903467
-623,197,-7.60217,0.172485,0,0,0,0,0,0,0,-1,601,827,-7.60218,-0.172468
-616,197,-7.72601,0.498901,0.0238247,-0.0152258,0.000415163,0.0238291,-0.0152302,0.0106298,0.0227324,0.0437785,608,827,-7.72601,-0.498918
-609,197,-7.79071,0.901245,0.0175734,-0.0119414,0.00124842,0.0176261,-0.0119941,0.0421975,0.017204,0.030509,615,827,-7.7907,-0.901263
-602,197,-7.82837,0.959961,0.0124374,-0.00960781,0.00176276,0.0125775,-0.00974787,0.0792899,0.012924,0.0155382,622,827,-7.82837,-0.959974
-595,197,-7.84137,0.874146,0.00789639,-0.00673719,0.00204864,0.00817778,-0.00701858,0.1365,0.00878213,0.0164083,629,827,-7.84138,-0.874134
-588,197,-7.85095,0.728699,0.00379992,-0.00466603,0.00216486,0.00432138,-0.0051875,0.236374,0.00549754,0.0184651,636,827,-7.85098,-0.728669
-581,197,-7.84985,0.583008,-3.85383e-05,-0.00252844,0.00270119,0.00169079,-0.00425777,0.569461,0.00353939,0.0110692,643,827,-7.84985,-0.58303
-574,197,-7.8562,0.462158,-0.00267004,-0.00165433,0.00285072,0.00073342,-0.0050578,0.873548,0.00364104,0.0122217,650,827,-7.85621,-0.462164
-567,197,-7.85321,0.309204,-0.00524056,-0.00111478,0.00328034,0.000697404,-0.00705274,1.06608,0.00495069,0.0133817,657,827,-7.8532,-0.30921
-560,197,-7.84888,0.182739,-0.00767258,-0.00113947,0.0035984,0.0004539,-0.00926595,1.15395,0.00633402,0.0122805,664,827,-7.8489,-0.182756
-553,197,-7.81921,0.0699463,-0.0100454,-0.000949292,0.00425084,0.000727962,-0.0117227,1.19498,0.00806872,0.0117188,671,827,-7.81921,-0.0699406
-546,197,-7.8056,-0.0964355,-0.0115747,-0.000471577,0.00467398,0.00123399,-0.0132803,1.2209,0.00929218,0.0193218,678,827,-7.80563,0.096437
-539,197,-8.03192,-0.160217,-0.0122719,-6.74756e-05,0.00505929,0.00175707,-0.0140964,1.22468,0.0100347,0.0413855,685,827,-8.03191,0.160203
-532,197,-8.4751,-0.281921,0,0,0,0,0,0,0,-1,692,827,-8.47508,0.281913
-525,197,-10.1298,1.10986,0,0,0,0,0,0,0,-1,699,827,-10.1298,-1.10988
-518,197,-10.1434,0.977478,-0.0115878,0.00222397,0.00504258,0.00386904,-0.0132328,1.25545,0.0103554,0.0469138,706,827,-10.1434,-0.977472
-511,197,-10.308,0.652466,-0.00965878,0.00330762,0.00437534,0.0046459,-0.0109971,1.27397,0.00927627,0.0425098,713,827,-10.308,-0.652475
-504,197,-10.3823,0.65686,-0.00637167,0.00448512,0.00316967,0.00534277,-0.00722931,1.30655,0.00728568,0.0386582,720,827,-10.3822,-0.656837
-497,197,-10.4816,0.638062,-0.00132457,0.00570347,0.0011323,0.00588139,-0.00150249,1.41494,0.00450605,0.0387771,727,827,-10.4816,-0.638031
-490,197,-10.4404,0.665039,0.00545634,0.00682045,-0.00193355,0.00818871,0.00408807,-0.954958,0.00472776,0.036028,734,827,-10.4405,-0.665023
-483,197,-10.2676,0.745972,0.0139111,0.00747762,-0.00610165,0.017592,0.00379672,-0.542815,0.0106896,0.0381377,741,827,-10.2676,-0.745956
-476,197,0,0,0,0,0,0,0,0,0,-1,748,827,0,0
-469,197,0,0,0,0,0,0,0,0,0,-1,755,827,0,0
-462,197,0,0,0,0,0,0,0,0,0,-1,762,827,0,0
-455,197,0,0,0,0,0,0,0,0,0,-1,769,827,0,0
-448,197,0,0,0,0,0,0,0,0,0,-1,776,827,0,0
-441,197,0,0,0,0,0,0,0,0,0,-1,783,827,0,0
-434,197,0,0,0,0,0,0,0,0,0,-1,790,827,0,0
-427,197,0,0,0,0,0,0,0,0,0,-1,797,827,0,0
-420,197,0,0,0,0,0,0,0,0,0,-1,804,827,0,0
-413,197,0,0,0,0,0,0,0,0,0,-1,811,827,0,0
-406,197,0,0,0,0,0,0,0,0,0,-1,818,827,0,0
-399,197,0,0,0,0,0,0,0,0,0,-1,825,827,0,0
-392,197,0,0,0,0,0,0,0,0,0,-1,832,827,0,0
-385,197,0,0,0,0,0,0,0,0,0,-1,839,827,0,0
-378,197,0,0,0,0,0,0,0,0,0,-1,846,827,0,0
-371,197,0,0,0,0,0,0,0,0,0,-1,853,827,0,0
-364,197,0,0,0,0,0,0,0,0,0,-1,860,827,0,0
-357,197,0,0,0,0,0,0,0,0,0,-1,867,827,0,0
-350,197,0,0,0,0,0,0,0,0,0,-1,874,827,0,0
-343,197,0,0,0,0,0,0,0,0,0,-1,881,827,0,0
-336,197,0,0,0,0,0,0,0,0,0,-1,888,827,0,0
-329,197,0,0,0,0,0,0,0,0,0,-1,895,827,0,0
-322,197,0,0,0,0,0,0,0,0,0,-1,902,827,0,0
-315,197,0,0,0,0,0,0,0,0,0,-1,909,827,0,0
-308,197,0,0,0,0,0,0,0,0,0,-1,916,827,0,0
-301,197,0,0,0,0,0,0,0,0,0,-1,923,827,0,0
-294,197,0,0,0,0,0,0,0,0,0,-1,930,827,0,0
-287,197,0,0,0,0,0,0,0,0,0,-1,937,827,0,0
-280,197,0,0,0,0,0,0,0,0,0,-1,944,827,0,0
-273,197,0,0,0,0,0,0,0,0,0,-1,951,827,0,0
-266,197,0,0,0,0,0,0,0,0,0,-1,958,827,0,0
-259,197,0,0,0,0,0,0,0,0,0,-1,965,827,0,0
-252,197,0,0,0,0,0,0,0,0,0,-1,972,827,0,0
-245,197,0,0,0,0,0,0,0,0,0,-1,979,827,0,0
-238,197,0,0,0,0,0,0,0,0,0,-1,986,827,0,0
-231,197,0,0,0,0,0,0,0,0,0,-1,993,827,0,0
-224,197,0,0,0,0,0,0,0,0,0,-1,1000,827,0,0
-217,197,0,0,0,0,0,0,0,0,0,-1,1007,827,0,0
-210,197,0,0,0,0,0,0,0,0,0,-1,1014,827,0,0
-203,197,0,0,0,0,0,0,0,0,0,-1,1021,827,0,0
-196,197,0,0,0,0,0,0,0,0,0,-1,1028,827,0,0
-189,197,0,0,0,0,0,0,0,0,0,-1,1035,827,0,0
-182,197,0,0,0,0,0,0,0,0,0,-1,1042,827,0,0
-175,197,0,0,0,0,0,0,0,0,0,-1,1049,827,0,0
-168,197,0,0,0,0,0,0,0,0,0,-1,1056,827,0,0
-161,197,0,0,0,0,0,0,0,0,0,-1,1063,827,0,0
-154,197,0,0,0,0,0,0,0,0,0,-1,1070,827,0,0
-147,197,0,0,0,0,0,0,0,0,0,-1,1077,827,0,0
-140,197,0,0,0,0,0,0,0,0,0,-1,1084,827,0,0
-133,197,0,0,0,0,0,0,0,0,0,-1,1091,827,0,0
-126,197,0,0,0,0,0,0,0,0,0,-1,1098,827,0,0
-119,197,0,0,0,0,0,0,0,0,0,-1,1105,827,0,0
-112,197,0,0,0,0,0,0,0,0,0,-1,1112,827,0,0
-105,197,0,0,0,0,0,0,0,0,0,-1,1119,827,0,0
-98,197,0,0,0,0,0,0,0,0,0,-1,1126,827,0,0
-91,197,0,0,0,0,0,0,0,0,0,-1,1133,827,0,0
-84,197,0,0,0,0,0,0,0,0,0,-1,1140,827,0,0
-77,197,0,0,0,0,0,0,0,0,0,-1,1147,827,0,0
-70,197,0,0,0,0,0,0,0,0,0,-1,1154,827,0,0
-63,197,0,0,0,0,0,0,0,0,0,-1,1161,827,0,0
-56,197,0,0,0,0,0,0,0,0,0,-1,1168,827,0,0
-49,197,0,0,0,0,0,0,0,0,0,-1,1175,827,0,0
-42,197,0,0,0,0,0,0,0,0,0,-1,1182,827,0,0
-35,197,0,0,0,0,0,0,0,0,0,-1,1189,827,0,0
-28,197,0,0,0,0,0,0,0,0,0,-1,1196,827,0,0
-21,197,0,0,0,0,0,0,0,0,0,-1,1203,827,0,0
-14,197,0,0,0,0,0,0,0,0,0,-1,1210,827,0,0
-7,197,0,0,0,0,0,0,0,0,0,-1,1217,827,0,0
0,197,0,0,0,0,0,0,0,0,0,-1,1224,827,0,0
7,197,0,0,0,0,0,0,0,0,0,-1,1231,827,0,0
14,197,0,0,0,0,0,0,0,0,0,-1,1238,827,0,0
21,197,0,0,0,0,0,0,0,0,0,-1,1245,827,0,0
28,197,0,0,0,0,0,0,0,0,0,-1,1252,827,0,0
35,197,0,0,0,0,0,0,0,0,0,-1,1259,827,0,0
42,197,0,0,0,0,0,0,0,0,0,-1,1266,827,0,0
49,197,0,0,0,0,0,0,0,0,0,-1,1273,827,0,0
56,197,0,0,0,0,0,0,0,0,0,-1,1280,827,0,0
63,197,0,0,0,0,0,0,0,0,0,-1,1287,827,0,0
70,197,0,0,0,0,0,0,0,0,0,-1,1294,827,0,0
77,197,0,0,0,0,0,0,0,0,0,-1,1301,827,0,0
84,197,0,0,0,0,0,0,0,0,0,-1,1308,827,0,0
91,197,0,0,0,0,0,0,0,0,0,-1,1315,827,0,0
98,197,0,0,0,0,0,0,0,0,0,-1,1322,827,0,0
105,197,0,0,0,0,0,0,0,0,0,-1,1329,827,0,0
112,197,0,0,0,0,0,0,0,0,0,-1,1336,827,0,0
119,197,0,0,0,0,0,0,0,0,0,-1,1343,827,0,0
126,197,0,0,0,0,0,0,0,0,0,-1,1350,827,0,0
133,197,0,0,0,0,0,0,0,0,0,-1,1357,827,0,0
140,197,0,0,0,0,0,0,0,0,0,-1,1364,827,0,0
147,197,0,0,0,0,0,0,0,0,0,-1,1371,827,0,0
154,197,0,0,0,0,0,0,0,0,0,-1,1378,827,0,0
161,197,0,0,0,0,0,0,0,0,0,-1,1385,827,0,0
168,197,0,0,0,0,0,0,0,0,0,-1,1392,827,0,0
175,197,0,0,0,0,0,0,0,0,0,-1,1399,827,0,0
182,197,0,0,0,0,0,0,0,0,0,-1,1406,827,0,0
189,197,0,0,0,0,0,0,0,0,0,-1,1413,827,0,0
196,197,0,0,0,0,0,0,0,0,0,-1,1420,827,0,0
203,197,0,0,0,0,0,0,0,0,0,-1,1427,827,0,0
210,197,0,0,0,0,0,0,0,0,0,-1,1434,827,0,0
217,197,0,0,0,0,0,0,0,0,0,-1,1441,827,0,0
224,197,0,0,0,0,0,0,0,0,0,-1,1448,827,0,0
231,197,0,0,0,0,0,0,0,0,0,-1,1455,827,0,0
238,197,0,0,0,0,0,0,0,0,0,-1,1462,827,0,0
245,197,0,0,0,0,0,0,0,0,0,-1,1469,827,0,0
252,197,0,0,0,0,0,0,0,0,0,-1,1476,827,0,0
259,197,0,0,0,0,0,0,0,0,0,-1,1483,827,0,0
266,197,0,0,0,0,0,0,0,0,0,-1,1490,827,0,0
273,197,0,0,0,0,0,0,0,0,0,-1,1497,827,0,0
280,197,0,0,0,0,0,0,0,0,0,-1,1504,827,0,0
287,197,0,0,0,0,0,0,0,0,0,-1,1511,827,0,0
294,197,0,0,0,0,0,0,0,0,0,-1,1518,827,0,0
301,197,0,0,0,0,0,0,0,0,0,-1,1525,827,0,0
308,197,0,0,0,0,0,0,0,0,0,-1,1532,827,0,0
315,197,0,0,0,0,0,0,0,0,0,-1,1539,827,0,0
322,197,0,0,0,0,0,0,0,0,0,-1,1546,827,0,0
329,197,0,0,0,0,0,0,0,0,0,-1,1553,827,0,0
336,197,0,0,0,0,0,0,0,0,0,-1,1560,827,0,0
343,197,0,0,0,0,0,0,0,0,0,-1,1567,827,0,0
350,197,0,0,0,0,0,0,0,0,0,-1,1574,827,0,0
357,197,0,0,0,0,0,0,0,0,0,-1,1581,827,0,0
364,197,0,0,0,0,0,0,0,0,0,-1,1588,827,0,0
371,197,0,0,0,0,0,0,0,0,0,-1,1595,827,0,0
378,197,0,0,0,0,0,0,0,0,0,-1,1602,827,0,0
385,197,0,0,0,0,0,0,0,0,0,-1,1609,827,0,0
392,197,0,0,0,0,0,0,0,0,0,-1,1616,827,0,0
399,197,0,0,0,0,0,0,0,0,0,-1,1623,827,0,0
406,197,0,0,0,0,0,0,0,0,0,-1,1630,827,0,0
413,197,0,0,0,0,0,0,0,0,0,-1,1637,827,0,0
420,197,0,0,0,0,0,0,0,0,0,-1,1644,827,0,0
427,197,0,0,0,0,0,0,0,0,0,-1,1651,827,0,0
434,197,0,0,0,0,0,0,0,0,0,-1,1658,827,0,0
441,197,0,0,0,0,0,0,0,0,0,-1,1665,827,0,0
448,197,0,0,0,0,0,0,0,0,0,-1,1672,827,0,0
455,197,0,0,0,0,0,0,0,0,0,-1,1679,827,0,0
462,197,0,0,0,0,0,0,0,0,0,-1,1686,827,0,0
469,197,0,0,0,0,0,0,0,0,0,-1,1693,827,0,0
476,197,0,0,0,0,0,0,0,0,0,-1,1700,827,0,0
483,197,0,0,0,0,0,0,0,0,0,-1,1707,827,0,0
490,197,0,0,0,0,0,0,0,0,0,-1,1714,827,0,0
497,197,0,0,0,0,0,0,0,0,0,-1,1721,827,0,0
504,197,0,0,0,0,0,0,0,0,0,-1,1728,827,0,0
511,197,0,0,0,0,0,0,0,0,0,-1,1735,827,0,0
518,197,0,0,0,0,0,0,0,0,0,-1,1742,827,0,0
525,197,0,0,0,0,0,0,0,0,0,-1,1749,827,0,0
532,197,0,0,0,0,0,0,0,0,0,-1,1756,827,0,0
539,197,0,0,0,0,0,0,0,0,0,-1,1763,827,0,0
546,197,0,0,0,0,0,0,0,0,0,-1,1770,827,0,0
553,197,0,0,0,0,0,0,0,0,0,-1,1777,827,0,0
560,197,0,0,0,0,0,0,0,0,0,-1,1784,827,0,0
567,197,0,0,0,0,0,0,0,0,0,-1,1791,827,0,0
574,197,0,0,0,0,0,0,0,0,0,-1,1798,827,0,0
581,197,0,0,0,0,0,0,0,0,0,-1,1805,827,0,0
588,197,0,0,0,0,0,0,0,0,0,-1,1812,827,0,0
595,197,0,0,0,0,0,0,0,0,0,-1,1819,827,0,0
602,197,16.2626,2.31744,0.00441323,0.000426053,0.00213463,0.00534044,-0.000501154,0.409775,0.00373856,0.0413485,1826,827,16.2626,-2.31743
609,197,16.2743,2.09875,0.00101655,0.00157137,1.01714e-05,0.00157155,0.00101636,1.55247,0.000920266,0.0417488,1833,827,16.2743,-2.09876
616,197,16.2849,2.30463,-0.00149118,0.00195845,-0.00235404,0.00315194,-0.00268467,-1.10157,0.00337337,0.0394328,1840,827,16.2849,-2.30462
623,197,16.2285,2.40393,-0.00332512,0.00184778,-0.00415815,0.00415826,-0.00563561,-1.06362,0.0056759,0.0360718,1847,827,16.2286,-2.40392
630,197,16.2732,2.39447,-0.00443162,0.00147969,-0.00522866,0.00453027,-0.0074822,-1.04265,0.00700485,0.0287313,1854,827,16.2732,-2.39448
637,197,16.2928,2.36914,-0.00490346,0.001021,-0.00563505,0.00442497,-0.00830743,-1.02739,0.00746411,0.0266487,1861,827,16.2928,-2.36916
644,197,16.2311,2.42505,-0.00499974,0.000529895,-0.00561283,0.00402192,-0.00849177,-1.01425,0.00737682,0.0327349,1868,827,16.2311,-2.42506
651,197,16.1816,2.58496,-0.00483595,5.25585e-05,-0.00538941,0.00352608,-0.00830947,-0.998291,0.00701682,0.0436189,1875,827,16.1817,-2.58494
658,197,16.1459,2.81506,0,0,0,0,0,0,0,-1,1882,827,16.1459,-2.81507
665,197,13.6364,1.57373,0,0,0,0,0,0,0,-1,1889,827,13.6363,-1.57376
672,197,13.3203,1.70752,-0.0034563,-0.000711328,-0.00417171,0.00230787,-0.0064755,-0.94432,0.00525792,0.0472731,1896,827,13.3203,-1.70753
679,197,13.0887,1.91144,-0.0026719,-0.000874921,-0.00336818,0.00171255,-0.00525937,-0.915742,0.00419527,0.0202819,1903,827,13.0887,-1.91141
686,197,13.0365,2.06744,-0.0018121,-0.000906955,-0.00262246,0.0013017,-0.00402075,-0.870844,0.0032038,0.0127404,1910,827,13.0365,-2.06746
693,197,13.0205,2.25183,-0.000740736,-0.000975416,-0.00196574,0.00111117,-0.00282732,-0.755587,0.00234474,0.0154522,1917,827,13.0205,-2.2518
700,197,13.0422,2.41034,2.48108e-05,-0.000886627,-0.00178372,0.00141011,-0.00227192,-0.66033,0.00214514,0.020236,1924,827,13.0423,-2.41035
707,197,13.0942,2.54797,-0.000500231,-0.000227184,-0.00178245,0.00142396,-0.00215138,-0.82362,0.00207841,0.00863015,1931,827,13.0942,-2.54798
714,197,13.0654,2.68158,-0.00114718,0.000155373,-0.00159727,0.00122904,-0.00222085,-0.978981,0.00201904,0.0108532,1938,827,13.0655,-2.68156
721,197,13.0616,2.81201,-0.000186669,0.000662239,-0.00192142,0.00220553,-0.00172996,-0.894105,0.00227768,0.0112983,1945,827,13.0617,-2.81204
728,197,13.056,2.95911,0.000966231,0.00140093,-0.00233551,0.00352919,-0.00116203,-0.831796,0.00282107,0.0104206,1952,827,13.056,-2.95913
735,197,13.0441,3.11322,0.00207528,0.00270815,-0.00327652,0.00568348,-0.000900044,-0.833538,0.00412189,0.0111491,1959,827,13.044,-3.11322
742,197,13.0511,3.25983,0.00335393,0.00410355,-0.00430926,0.00805426,-0.000596789,-0.828778,0.00557909,0.018405,1966,827,13.0512,-3.25984
749,197,13.1256,3.47241,0,0,0,0,0,0,0,-1,1973,827,13.1256,-3.47238
756,197,12.6564,3.5047,0.010064,0.0084804,-0.00704453,0.0163611,0.00218332,-0.729433,0.0102574,0.0430344,1980,827,12.6564,-3.5047
763,197,12.1049,3.54321,0.017069,0.0118434,-0.00874326,0.0235815,0.00533087,-0.640203,0.0142797,0.045322,1987,827,12.1048,-3.54318
770,197,13.1416,3.66302,0.0279065,0.0163987,-0.0106397,0.0342485,0.0100567,-0.537525,0.020327,0.0470312,1994,827,13.1416,-3.663
777,197,0,0,0,0,0,0,0,0,0,-1,2001,827,0,0
784,197,0,0,0,0,0,0,0,0,0,-1,2008,827,0,0
791,197,0,0,0,0,0,0,0,0,0,-1,2015,827,0,0
798,197,0,0,0,0,0,0,0,0,0,-1,2022,827,0,0
805,197,0,0,0,0,0,0,0,0,0,-1,2029,827,0,0
812,197,0,0,0,0,0,0,0,0,0,-1,2036,827,0,0
-700,190,0,0,0,0,0,0,0,0,0,-1,524,834,0,0
-693,190,0,0,0,0,0,0,0,0,0,-1,531,834,0,0
-686,190,0,0,0,0,0,0,0,0,0,-1,538,834,0,0
-679,190,0,0,0,0,0,0,0,0,0,-1,545,834,0,0
-672,190,0,0,0,0,0,0,0,0,0,-1,552,834,0,0
-665,190,0,0,0,0,0,0,0,0,0,-1,559,834,0,0
-658,190,-9.26685,-1.1955,0.0510496,-0.015105,0.00596245,0.0515827,-0.0156381,0.0891714,0.0406174,0.0471183,566,834,-9.26685,1.19548
-651,190,-8.95526,-0.80896,0.0444736,-0.0229231,0.0049001,0.044828,-0.0232775,0.0721993,0.0399715,0.0454027,573,834,-8.95526,0.808984
-644,190,-8.60907,-0.556213,0.0376741,-0.025413,0.00472723,0.0380264,-0.0257652,0.0743783,0.0370562,0.0452678,580,834,-8.60908,0.556201
-637,190,-8.36591,-0.247009,0.0309294,-0.0248797,0.00478341,0.0313364,-0.0252867,0.0848853,0.0327535,0.0496549,587,834,-8.36589,0.247001
-630,190,-8.77612,-0.278809,0.0246354,-0.0227262,0.00479934,0.0251169,-0.0232076,0.0999797,0.0279074,0.0455382,594,834,-8.7761,0.278805
-623,190,-8.1618,0.0548706,0,0,0,0,0,0,0,-1,601,834,-8.16181,-0.0548717
-616,190,-7.73535,0.61792,0.0142072,-0.016345,0.0044801,0.0148506,-0.0169884,0.142638,0.0183961,0.0439131,608,834,-7.73534,-0.617928
-609,190,-7.97522,1.01843,0.0102473,-0.0129935,0.00411057,0.0109529,-0.0136991,0.17,0.0142623,0.0231859,615,834,-7.97519,-1.0184
-602,190,-7.97351,0.949768,0.00693669,-0.0105513,0.00371156,0.0076918,-0.0113064,0.200711,0.0110346,0.0146643,622,834,-7.97352,-0.949788
-595,190,-7.98004,0.862244,0.00375062,-0.0076249,0.00335827,0.00466806,-0.00854234,0.26668,0.00773559,0.0167549,629,834,-7.98004,-0.862229
-588,190,-7.99567,0.730957,0.000814683,-0.00539716,0.0029598,0.00199912,-0.0065816,0.380657,0.00518422,0.0145439,636,834,-7.99569,-0.730928
-581,190,-7.99304,0.598877,-0.00208429,-0.00325496,0.00308488,0.000470294,-0.00580954,0.691641,0.00403893,0.010425,643,834,-7.99306,-0.598878
-574,190,-7.97974,0.470337,-0.00415423,-0.00232269,0.00313923,3.16207e-05,-0.00650854,0.927318,0.0043496,0.0100784,650,834,-7.97973,-0.470356
-567,190,-7.97266,0.316223,-0.00635747,-0.00168139,0.00348072,0.000173638,-0.0082125,1.08114,0.00553379,0.0115662,657,834,-7.97268,-0.316214
-560,190,-7.99152,0.17926,-0.0086163,-0.00156956,0.00373449,4.13228e-05,-0.0102272,1.16356,0.00683194,0.0158848,664,834,-7.9915,-0.179252
-553,190,-7.97937,0.052124,-0.0107475,-0.00116645,0.00421362,0.000422962,-0.012337,1.21009,0.00836919,0.0147074,671,834,-7.97936,-0.0521165
-546,190,-8.0097,-0.115356,-0.0120537,-0.00047049,0.00453729,0.00109519,-0.0136194,1.23852,0.00946581,0.0287183,678,834,-8.00972,0.115339
-539,190,-8.41748,-0.0895996,-0.0125225,1.19708e-05,0.00475476,0.00161151,-0.014122,1.24628,0.00999524,0.0403305,685,834,-8.41746,0.0896299
-532,190,-9.03131,0.0925293,-0.0126332,0.000731216,0.0048715,0.00231843,-0.0142204,1.25583,0.0103401,0.0418998,692,834,-9.0313,-0.0925005
-525,190,-9.66492,0.287354,0,0,0,0,0,0,0,-1,699,834,-9.66494,-0.287325
-518,190,-10.2719,0.686646,-0.0108835,0.00262625,0.00420862,0.00383007,-0.0120874,1.2922,0.00959327,0.0466879,706,834,-10.2719,-0.686655
-511,190,-10.3601,0.565491,-0.00835278,0.00385274,0.00334387,0.00470879,-0.00920884,1.32017,0.00817416,0.0419111,713,834,-10.3601,-0.565508
-504,190,-10.6605,0.656372,-0.00422102,0.00514119,0.00189765,0.0055112,-0.00459104,1.37823,0.00584059,0.0421415,720,834,-10.6605,-0.656391
-497,190,-10.759,0.713623,0.00195993,0.00639643,-0.000380317,0.0064288,0.00192756,-1.4859,0.00380952,0.0419606,727,834,-10.759,-0.713638
-490,190,-10.5309,0.725098,0.00990385,0.00737575,-0.00354751,0.0124058,0.00487382,-0.614251,0.00721708,0.0388897,734,834,-10.5309,-0.725116
-483,190,0,0,0,0,0,0,0,0,0,-1,741,834,0,0
-476,190,0,0,0,0,0,0,0,0,0,-1,748,834,0,0
-469,190,0,0,0,0,0,0,0,0,0,-1,755,834,0,0
-462,190,0,0,0,0,0,0,0,0,0,-1,762,834,0,0
-455,190,0,0,0,0,0,0,0,0,0,-1,769,834,0,0
-448,190,0,0,0,0,0,0,0,0,0,-1,776,834,0,0
-441,190,0,0,0,0,0,0,0,0,0,-1,783,834,0,0
-434,190,0,0,0,0,0,0,0,0,0,-1,790,834,0,0
-427,190,0,0,0,0,0,0,0,0,0,-1,797,834,0,0
-420,190,0,0,0,0,0,0,0,0,0,-1,804,834,0,0
-413,190,0,0,0,0,0,0,0,0,0,-1,811,834,0,0
-406,190,0,0,0,0,0,0,0,0,0,-1,818,834,0,0
-399,190,0,0,0,0,0,0,0,0,0,-1,825,834,0,0
-392,190,0,0,0,0,0,0,0,0,0,-1,832,834,0,0
-385,190,0,0,0,0,0,0,0,0,0,-1,839,834,0,0
-378,190,0,0,0,0,0,0,0,0,0,-1,846,834,0,0
-371,190,0,0,0,0,0,0,0,0,0,-1,853,834,0,0
-364,190,0,0,0,0,0,0,0,0,0,-1,860,834,0,0
-357,190,0,0,0,0,0,0,0,0,0,-1,867,834,0,0
-350,190,0,0,0,0,0,0,0,0,0,-1,874,834,0,0
-343,190,0,0,0,0,0,0,0,0,0,-1,881,834,0,0
-336,190,0,0,0,0,0,0,0,0,0,-1,888,834,0,0
-329,190,0,0,0,0,0,0,0,0,0,-1,895,834,0,0
-322,190,0,0,0,0,0,0,0,0,0,-1,902,834,0,0
-315,190,0,0,0,0,0,0,0,0,0,-1,909,834,0,0
-308,190,0,0,0,0,0,0,0,0,0,-1,916,834,0,0
-301,190,0,0,0,0,0,0,0,0,0,-1,923,834,0,0
-294,190,0,0,0,0,0,0,0,0,0,-1,930,834,0,0
-287,190,0,0,0,0,0,0,0,0,0,-1,937,834,0,0
-280,190,0,0,0,0,0,0,0,0,0,-1,944,834,0,0
-273,190,0,0,0,0,0,0,0,0,0,-1,951,834,0,0
-266,190,0,0,0,0,0,0,0,0,0,-1,958,834,0,0
-259,190,0,0,0,0,0,0,0,0,0,-1,965,834,0,0
-252,190,0,0,0,0,0,0,0,0,0,-1,972,834,0,0
-245,190,0,0,0,0,0,0,0,0,0,-1,979,834,0,0
-238,190,0,0,0,0,0,0,0,0,0,-1,986,834,0,0
-231,190,0,0,0,0,0,0,0,0,0,-1,993,834,0,0
-224,190,0,0,0,0,0,0,0,0,0,-1,1000,834,0,0
-217,190,0,0,0,0,0,0,0,0,0,-1,1007,834,0,0
-210,190,0,0,0,0,0,0,0,0,0,-1,1014,834,0,0
-203,190,0,0,0,0,0,0,0,0,0,-1,1021,834,0,0
-196,190,0,0,0,0,0,0,0,0,0,-1,1028,834,0,0
-189,190,0,0,0,0,0,0,0,0,0,-1,1035,834,0,0
-182,190,0,0,0,0,0,0,0,0,0,-1,1042,834,0,0
-175,190,0,0,0,0,0,0,0,0,0,-1,1049,834,0,0
-168,190,0,0,0,0,0,0,0,0,0,-1,1056,834,0,0
-161,190,0,0,0,0,0,0,0,0,0,-1,1063,834,0,0
-154,190,0,0,0,0,0,0,0,0,0,-1,1070,834,0,0
-147,190,0,0,0,0,0,0,0,0,0,-1,1077,834,0,0
-140,190,0,0,0,0,0,0,0,0,0,-1,1084,834,0,0
-133,190,0,0,0,0,0,0,0,0,0,-1,1091,834,0,0
-126,190,0,0,0,0,0,0,0,0,0,-1,1098,834,0,0
-119,190,0,0,0,0,0,0,0,0,0,-1,1105,834,0,0
-112,190,0,0,0,0,0,0,0,0,0,-1,1112,834,0,0
-105,190,0,0,0,0,0,0,0,0,0,-1,1119,834,0,0
-98,190,0,0,0,0,0,0,0,0,0,-1,1126,834,0,0
-91,190,0,0,0,0,0,0,0,0,0,-1,1133,834,0,0
-84,190,0,0,0,0,0,0,0,0,0,-1,1140,834,0,0
-77,190,0,0,0,0,0,0,0,0,0,-1,1147,834,0,0
-70,190,0,0,0,0,0,0,0,0,0,-1,1154,834,0,0
-63,190,0,0,0,0,0,0,0,0,0,-1,1161,834,0,0
-56,190,0,0,0,0,0,0,0,0,0,-1,1168,834,0,0
-49,190,0,0,0,0,0,0,0,0,0,-1,1175,834,0,0
-42,190,0,0,0,0,0,0,0,0,0,-1,1182,834,0,0
-35,190,0,0,0,0,0,0,0,0,0,-1,1189,834,0,0
-28,190,0,0,0,0,0,0,0,0,0,-1,1196,834,0,0
-21,190,0,0,0,0,0,0,0,0,0,-1,1203,834,0,0
-14,190,0,0,0,0,0,0,0,0,0,-1,1210,834,0,0
-7,190,0,0,0,0,0,0,0,0,0,-1,1217,834,0,0
0,190,0,0,0,0,0,0,0,0,0,-1,1224,834,0,0
7,190,0,0,0,0,0,0,0,0,0,-1,1231,834,0,0
14,190,0,0,0,0,0,0,0,0,0,-1,1238,834,0,0
21,190,0,0,0,0,0,0,0,0,0,-1,1245,834,0,0
28,190,0,0,0,0,0,0,0,0,0,-1,1252,834,0,0
35,190,0,0,0,0,0,0,0,0,0,-1,1259,834,0,0
42,190,0,0,0,0,0,0,0,0,0,-1,1266,834,0,0
49,190,0,0,0,0,0,0,0,0,0,-1,1273,834,0,0
56,190,0,0,0,0,0,0,0,0,0,-1,1280,834,0,0
63,190,0,0,0,0,0,0,0,0,0,-1,1287,834,0,0
70,190,0,0,0,0,0,0,0,0,0,-1,1294,834,0,0
77,190,0,0,0,0,0,0,0,0,0,-1,1301,834,0,0
84,190,0,0,0,0,0,0,0,0,0,-1,1308,834,0,0
91,190,0,0,0,0,0,0,0,0,0,-1,1315,834,0,0
98,190,0,0,0,0,0,0,0,0,0,-1,1322,834,0,0
105,190,0,0,0,0,0,0,0,0,0,-1,1329,834,0,0
112,190,0,0,0,0,0,0,0,0,0,-1,1336,834,0,0
119,190,0,0,0,0,0,0,0,0,0,-1,1343,834,0,0
126,190,0,0,0,0,0,0,0,0,0,-1,1350,834,0,0
133,190,0,0,0,0,0,0,0,0,0,-1,1357,834,0,0
140,190,0,0,0,0,0,0,0,0,0,-1,1364,834,0,0
147,190,0,0,0,0,0,0,0,0,0,-1,1371,834,0,0
154,190,0,0,0,0,0,0,0,0,0,-1,1378,834,0,0
161,190,0,0,0,0,0,0,0,0,0,-1,1385,834,0,0
168,190,0,0,0,0,0,0,0,0,0,-1,1392,834,0,0
175,190,0,0,0,0,0,0,0,0,0,-1,1399,834,0,0
182,190,0,0,0,0,0,0,0,0,0,-1,1406,834,0,0
189,190,0,0,0,0,0,0,0,0,0,-1,1413,834,0,0
196,190,0,0,0,0,0,0,0,0,0,-1,1420,834,0,0
203,190,0,0,0,0,0,0,0,0,0,-1,1427,834,0,0
210,190,0,0,0,0,0,0,0,0,0,-1,1434,834,0,0
217,190,0,0,0,0,0,0,0,0,0,-1,1441,834,0,0
224,190,0,0,0,0,0,0,0,0,0,-1,1448,834,0,0
231,190,0,0,0,0,0,0,0,0,0,-1,1455,834,0,0
238,190,0,0,0,0,0,0,0,0,0,-1,1462,834,0,0
245,190,0,0,0,0,0,0,0,0,0,-1,1469,834,0,0
252,190,0,0,0,0,0,0,0,0,0,-1,1476,834,0,0
259,190,0,0,0,0,0,0,0,0,0,-1,1483,834,0,0
266,190,0,0,0,0,0,0,0,0,0,-1,1490,834,0,0
273,190,0,0,0,0,0,0,0,0,0,-1,1497,834,0,0
280,190,0,0,0,0,0,0,0,0,0,-1,1504,834,0,0
287,190,0,0,0,0,0,0,0,0,0,-1,1511,834,0,0
294,190,0,0,0,0,0,0,0,0,0,-1,1518,834,0,0
301,190,0,0,0,0,0,0,0,0,0,-1,1525,834,0,0
308,190,0,0,0,0,0,0,0,0,0,-1,1532,834,0,0
315,190,0,0,0,0,0,0,0,0,0,-1,1539,834,0,0
322,190,0,0,0,0,0,0,0,0,0,-1,1546,834,0,0
329,190,0,0,0,0,0,0,0,0,0,-1,1553,834,0,0
336,190,0,0,0,0,0,0,0,0,0,-1,1560,834,0,0
343,190,0,0,0,0,0,0,0,0,0,-1,1567,834,0,0
350,190,0,0,0,0,0,0,0,0,0,-1,1574,834,0,0
357,190,0,0,0,0,0,0,0,0,0,-1,1581,834,0,0
364,190,0,0,0,0,0,0,0,0,0,-1,1588,834,0,0
371,190,0,0,0,0,0,0,0,0,0,-1,1595,834,0,0
378,190,0,0,0,0,0,0,0,0,0,-1,1602,834,0,0
385,190,0,0,0,0,0,0,0,0,0,-1,1609,834,0,0
392,190,0,0,0,0,0,0,0,0,0,-1,1616,834,0,0
399,190,0,0,0,0,0,0,0,0,0,-1,1623,834,0,0
406,190,0,0,0,0,0,0,0,0,0,-1,1630,834,0,0
413,190,0,0,0,0,0,0,0,0,0,-1,1637,834,0,0
420,190,0,0,0,0,0,0,0,0,0,-1,1644,834,0,0
427,190,0,0,0,0,0,0,0,0,0,-1,1651,834,0,0
434,190,0,0,0,0,0,0,0,0,0,-1,1658,834,0,0
441,190,0,0,0,0,0,0,0,0,0,-1,1665,834,0,0
448,190,0,0,0,0,0,0,0,0,0,-1,1672,834,0,0
455,190,0,0,0,0,0,0,0,0,0,-1,1679,834,0,0
462,190,0,0,0,0,0,0,0,0,0,-1,1686,834,0,0
469,190,0,0,0,0,0,0,0,0,0,-1,1693,834,0,0
476,190,0,0,0,0,0,0,0,0,0,-1,1700,834,0,0
483,190,0,0,0,0,0,0,0,0,0,-1,1707,834,0,0
490,190,0,0,0,0,0,0,0,0,0,-1,1714,834,0,0
497,190,0,0,0,0,0,0,0,0,0,-1,1721,834,0,0
504,190,0,0,0,0,0,0,0,0,0,-1,1728,834,0,0
511,190,0,0,0,0,0,0,0,0,0,-1,1735,834,0,0
518,190,0,0,0,0,0,0,0,0,0,-1,1742,834,0,0
525,190,0,0,0,0,0,0,0,0,0,-1,1749,834,0,0
532,190,0,0,0,0,0,0,0,0,0,-1,1756,834,0,0
539,190,0,0,0,0,0,0,0,0,0,-1,1763,834,0,0
546,190,0,0,0,0,0,0,0,0,0,-1,1770,834,0,0
553,190,0,0,0,0,0,0,0,0,0,-1,1777,834,0,0
560,190,0,0,0,0,0,0,0,0,0,-1,1784,834,0,0
567,190,0,0,0,0,0,0,0,0,0,-1,1791,834,0,0
574,190,0,0,0,0,0,0,0,0,0,-1,1798,834,0,0
581,190,0,0,0,0,0,0,0,0,0,-1,1805,834,0,0
588,190,0,0,0,0,0,0,0,0,0,-1,1812,834,0,0
595,190,0,0,0,0,0,0,0,0,0,-1,1819,834,0,0
602,190,16.3459,2.39563,0.003339,0.000219946,0.000267954,0.00336185,0.000197094,0.0850781,0.00217851,0.0437992,1826,834,16.3459,-2.39563
609,190,16.2971,2.11835,0.000842466,0.00118379,-9.51567e-05,0.00120852,0.00081773,-1.31648,0.000712107,0.0418449,1833,834,16.2971,-2.11834
616,190,16.0378,2.24548,-0.00101729,0.00158082,-0.00127451,0.00210164,-0.00153811,-1.18287,0.00210978,0.0408486,1840,834,16.0379,-2.2455
623,190,16.2379,2.47223,0,0,0,0,0,0,0,-1,1847,834,16.2379,-2.47225
630,190,16.3425,2.37421,-0.00348464,0.00132687,-0.00317538,0.00290492,-0.00506269,-1.10958,0.00465599,0.0399408,1854,834,16.3425,-2.37422
637,190,16.3359,2.27673,-0.00397538,0.000951,-0.00357732,0.00283114,-0.00585552,-1.0869,0.00511556,0.0326973,1861,834,16.336,-2.27672
644,190,16.218,2.43134,-0.00413006,0.000519449,-0.00371777,0.00257947,-0.00619008,-1.06481,0.00520418,0.0267508,1868,834,16.218,-2.43133
651,190,16.2411,2.51611,-0.0040562,0.000104927,-0.00371214,0.0022798,-0.00623107,-1.04082,0.0050872,0.0383076,1875,834,16.2411,-2.51613
658,190,16.4857,2.67389,0,0,0,0,0,0,0,-1,1882,834,16.4857,-2.67387
665,190,14.91,1.85571,0,0,0,0,0,0,0,-1,1889,834,14.91,-1.85569
672,190,13.3597,1.89001,0,0,0,0,0,0,0,-1,1896,834,13.3597,-1.89002
679,190,13.2505,2.0058,-0.00247659,-0.000732638,-0.00272827,0.00125962,-0.00446885,-0.940072,0.00347603,0.0265054,1903,834,13.2505,-2.00579
686,190,13.1766,2.09576,-0.00180002,-0.000796011,-0.00224263,0.00100011,-0.00359614,-0.895506,0.00279118,0.0119547,1910,834,13.1766,-2.09575
693,190,13.1808,2.24225,-0.000910418,-0.000892114,-0.00182099,0.00091975,-0.00272228,-0.787911,0.00218689,0.0126938,1917,834,13.1808,-2.24227
700,190,13.1945,2.40186,-0.000316842,-0.000894647,-0.00175373,0.00117162,-0.00238311,-0.703763,0.00209168,0.0112449,1924,834,13.1945,-2.40186
707,190,13.2244,2.53448,-0.000791785,-0.00044908,-0.00181283,0.00120048,-0.00244135,-0.832519,0.00214291,0.012487,1931,834,13.2243,-2.53447
714,190,13.2432,2.66193,-0.00122207,-0.000200282,-0.00172616,0.001089,-0.00251135,-0.929277,0.00213205,0.0115127,1938,834,13.2432,-2.66193
721,190,13.2332,2.80048,5.76417e-05,0.000118002,-0.00208432,0.00217236,-0.00199672,-0.792637,0.00240773,0.0103585,1945,834,13.2331,-2.8005
728,190,13.2078,2.94995,0.00187599,0.000705279,-0.00251948,0.00387722,-0.00129596,-0.671258,0.0031082,0.0119133,1952,834,13.2077,-2.94997
735,190,13.1938,3.10583,0.00396017,0.0017464,-0.00350116,0.00652525,-0.000818683,-0.632296,0.00464716,0.0113013,1959,834,13.1939,-3.10581
742,190,13.2062,3.27875,0.00645548,0.00284446,-0.00456839,0.0095622,-0.000262262,-0.59721,0.006464,0.0148759,1966,834,13.2061,-3.27877
749,190,13.2355,3.41656,0.0104518,0.0043448,-0.00588203,0.0140257,0.00077093,-0.545983,0.00910437,0.0350999,1973,834,13.2355,-3.41659
756,190,13.0449,3.245,0.0166006,0.00642059,-0.00743933,0.0205245,0.00249661,-0.485377,0.0129314,0.0433236,1980,834,13.0449,-3.24499
763,190,13.097,3.15759,0,0,0,0,0,0,0,-1,1987,834,13.0971,-3.15758
770,190,13.3932,3.5777,0,0,0,0,0,0,0,-1,1994,834,13.3932,-3.57769
777,190,14.4425,3.92719,0,0,0,0,0,0,0,-1,2001,834,14.4425,-3.92721
784,190,0,0,0,0,0,0,0,0,0,-1,2008,834,0,0
791,190,0,0,0,0,0,0,0,0,0,-1,2015,834,0,0
798,190,0,0,0,0,0,0,0,0,0,-1,2022,834,0,0
805,190,0,0,0,0,0,0,0,0,0,-1,2029,834,0,0
812,190,0,0,0,0,0,0,0,0,0,-1,2036,834,0,0
-700,183,0,0,0,0,0,0,0,0,0,-1,524,841,0,0
-693,183,0,0,0,0,0,0,0,0,0,-1,531,841,0,0
-686,183,0,0,0,0,0,0,0,0,0,-1,538,841,0,0
-679,183,0,0,0,0,0,0,0,0,0,-1,545,841,0,0
-672,183,0,0,0,0,0,0,0,0,0,-1,552,841,0,0
-665,183,0,0,0,0,0,0,0,0,0,-1,559,841,0,0
-658,183,-8.88361,-0.952881,0,0,0,0,0,0,0,-1,566,841,-8.8836,0.952894
-651,183,-8.70654,-0.621826,0.035916,-0.0257193,0.0109723,0.037811,-0.0276143,0.171022,0.037926,0.0467145,573,841,-8.70655,0.621851
-644,183,-8.5448,-0.30249,0.0282234,-0.0268916,0.0105779,0.0301838,-0.028852,0.183252,0.0340872,0.0442602,580,841,-8.5448,0.302478
-637,183,-8.29846,0.081665,0.0218229,-0.0254127,0.00992585,0.0238239,-0.0274137,0.198929,0.0296062,0.046564,587,841,-8.29846,-0.0816532
-630,183,-8.26355,0.257507,0.0164955,-0.0226098,0.00903025,0.01848,-0.0245943,0.21633,0.0249524,0.0458162,594,841,-8.26352,-0.257526
-623,183,-8.23419,0.395264,0.0121571,-0.0191789,0.0079907,0.0140771,-0.0210989,0.235808,0.0204433,0.0479908,601,841,-8.23418,-0.395285
-616,183,-8.18085,0.56543,0,0,0,0,0,0,0,-1,608,841,-8.18083,-0.565436
-609,183,-8.10333,1.04242,0.00604746,-0.0121868,0.00576327,0.00771631,-0.0138556,0.281858,0.0126216,0.0162683,615,841,-8.10336,-1.04244
-602,183,-8.11078,0.961853,0.00375313,-0.00970921,0.0047995,0.005289,-0.0112451,0.309708,0.00975022,0.0111502,622,841,-8.11076,-0.96187
-595,183,-8.12354,0.84375,0.0012525,-0.00696703,0.00409119,0.0029417,-0.00865623,0.391566,0.00696173,0.0103486,629,841,-8.12355,-0.843756
-588,183,-8.13916,0.720032,-0.00102036,-0.00487541,0.00338542,0.000947805,-0.00684357,0.526605,0.00490891,0.00965409,636,841,-8.13915,-0.720004
-581,183,-8.13818,0.593811,-0.00344368,-0.00299789,0.00328366,7.0435e-05,-0.006512,0.819286,0.004365,0.0107473,643,841,-8.13819,-0.593819
-574,183,-8.11212,0.468994,-0.00522411,-0.0022703,0.00332242,-0.000111312,-0.0073831,0.994545,0.00488538,0.0112555,650,841,-8.11214,-0.468968
-567,183,-8.0799,0.341553,-0.00713706,-0.00174839,0.00357535,3.41665e-05,-0.00891961,1.10829,0.00595783,0.0143803,657,841,-8.07987,-0.341546
-560,183,-8.14673,0.234314,-0.00916511,-0.00166075,0.00371797,-0.000130686,-0.0106952,1.18039,0.00708696,0.016261,664,841,-8.14672,-0.234317
-553,183,-8.10248,0.041687,-0.0109408,-0.00122516,0.00391269,0.000154619,-0.0123206,1.23177,0.00826572,0.0135691,671,841,-8.10247,-0.0416683
-546,183,-8.05859,-0.0736694,-0.0119222,-0.000574668,0.00402722,0.000709299,-0.0132062,1.26216,0.00904984,0.0340953,678,841,-8.05861,0.0736778
-539,183,-7.89221,-0.188416,0,0,0,0,0,0,0,-1,685,841,-7.89221,0.188429
-532,183,-9.54333,0.142334,-0.0119152,0.000667541,0.00388773,0.00177183,-0.0130195,1.29404,0.00932654,0.0391756,692,841,-9.54336,-0.142339
-525,183,-10.3889,0.485229,-0.0110538,0.00154734,0.00345408,0.00243202,-0.0119385,1.32006,0.00888139,0.0476598,699,841,-10.3888,-0.485225
-518,183,-10.4587,0.348877,-0.00921705,0.00264775,0.00268427,0.00322677,-0.00979608,1.35834,0.00783113,0.046549,706,841,-10.4587,-0.348863
-511,183,-10.4547,0.443237,-0.00597776,0.003933,0.00154522,0.00416833,-0.00621309,1.41966,0.00603235,0.0402389,713,841,-10.4546,-0.443262
-504,183,-10.7055,0.581787,-0.000982029,0.00528189,-0.000125016,0.00528439,-0.000984523,-1.55085,0.00389282,0.0410257,720,841,-10.7055,-0.581812
-497,183,-10.5073,0.648438,0.00614423,0.0065934,-0.00246685,0.00884587,0.00389176,-0.830793,0.00511943,0.0430265,727,841,-10.5073,-0.648422
-490,183,-10.3759,0.705322,0.0144741,0.0074848,-0.00514717,0.0172008,0.00475804,-0.487171,0.010256,0.0401555,734,841,-10.3759,-0.705339
-483,183,0,0,0,0,0,0,0,0,0,-1,741,841,0,0
-476,183,0,0,0,0,0,0,0,0,0,-1,748,841,0,0
-469,183,0,0,0,0,0,0,0,0,0,-1,755,841,0,0
-462,183,0,0,0,0,0,0,0,0,0,-1,762,841,0,0
-455,183,0,0,0,0,0,0,0,0,0,-1,769,841,0,0
-448,183,0,0,0,0,0,0,0,0,0,-1,776,841,0,0
-441,183,0,0,0,0,0,0,0,0,0,-1,783,841,0,0
-434,183,0,0,0,0,0,0,0,0,0,-1,790,841,0,0
-427,183,0,0,0,0,0,0,0,0,0,-1,797,841,0,0
-420,183,0,0,0,0,0,0,0,0,0,-1,804,841,0,0
-413,183,0,0,0,0,0,0,0,0,0,-1,811,841,0,0
-406,183,0,0,0,0,0,0,0,0,0,-1,818,841,0,0
-399,183,0,0,0,0,0,0,0,0,0,-1,825,841,0,0
-392,183,0,0,0,0,0,0,0,0,0,-1,832,841,0,0
-385,183,0,0,0,0,0,0,0,0,0,-1,839,841,0,0
-378,183,0,0,0,0,0,0,0,0,0,-1,846,841,0,0
-371,183,0,0,0,0,0,0,0,0,0,-1,853,841,0,0
-364,183,0,0,0,0,0,0,0,0,0,-1,860,841,0,0
-357,183,0,0,0,0,0,0,0,0,0,-1,867,841,0,0
-350,183,0,0,0,0,0,0,0,0,0,-1,874,841,0,0
-343,183,0,0,0,0,0,0,0,0,0,-1,881,841,0,0
-336,183,0,0,0,0,0,0,0,0,0,-1,888,841,0,0
-329,183,0,0,0,0,0,0,0,0,0,-1,895,841,0,0
-322,183,0,0,0,0,0,0,0,0,0,-1,902,841,0,0
-315,183,0,0,0,0,0,0,0,0,0,-1,909,841,0,0
-308,183,0,0,0,0,0,0,0,0,0,-1,916,841,0,0
-301,183,0,0,0,0,0,0,0,0,0,-1,923,841,0,0
-294,183,0,0,0,0,0,0,0,0,0,-1,930,841,0,0
-287,183,0,0,0,0,0,0,0,0,0,-1,937,841,0,0
-280,183,0,0,0,0,0,0,0,0,0,-1,944,841,0,0
-273,183,0,0,0,0,0,0,0,0,0,-1,951,841,0,0
-266,183,0,0,0,0,0,0,0,0,0,-1,958,841,0,0
-259,183,0,0,0,0,0,0,0,0,0,-1,965,841,0,0
-252,183,0,0,0,0,0,0,0,0,0,-1,972,841,0,0
-245,183,0,0,0,0,0,0,0,0,0,-1,979,841,0,0
-238,183,0,0,0,0,0,0,0,0,0,-1,986,841,0,0
-231,183,0,0,0,0,0,0,0,0,0,-1,993,841,0,0
-224,183,0,0,0,0,0,0,0,0,0,-1,1000,841,0,0
-217,183,0,0,0,0,0,0,0,0,0,-1,1007,841,0,0
-210,183,0,0,0,0,0,0,0,0,0,-1,1014,841,0,0
-203,183,0,0,0,0,0,0,0,0,0,-1,1021,841,0,0
-196,183,0,0,0,0,0,0,0,0,0,-1,1028,841,0,0
-189,183,0,0,0,0,0,0,0,0,0,-1,1035,841,0,0
-182,183,0,0,0,0,0,0,0,0,0,-1,1042,841,0,0
-175,183,0,0,0,0,0,0,0,0,0,-1,1049,841,0,0
-168,183,0,0,0,0,0,0,0,0,0,-1,1056,841,0,0
-161,183,0,0,0,0,0,0,0,0,0,-1,1063,841,0,0
-154,183,0,0,0,0,0,0,0,0,0,-1,1070,841,0,0
-147,183,0,0,0,0,0,0,0,0,0,-1,1077,841,0,0
-140,183,0,0,0,0,0,0,0,0,0,-1,1084,841,0,0
-133,183,0,0,0,0,0,0,0,0,0,-1,1091,841,0,0
-126,183,0,0,0,0,0,0,0,0,0,-1,1098,841,0,0
-119,183,0,0,0,0,0,0,0,0,0,-1,1105,841,0,0
-112,183,0,0,0,0,0,0,0,0,0,-1,1112,841,0,0
-105,183,0,0,0,0,0,0,0,0,0,-1,1119,841,0,0
-98,183,0,0,0,0,0,0,0,0,0,-1,1126,841,0,0
-91,183,0,0,0,0,0,0,0,0,0,-1,1133,841,0,0
-84,183,0,0,0,0,0,0,0,0,0,-1,1140,841,0,0
-77,183,0,0,0,0,0,0,0,0,0,-1,1147,841,0,0
-70,183,0,0,0,0,0,0,0,0,0,-1,1154,841,0,0
-63,183,0,0,0,0,0,0,0,0,0,-1,1161,841,0,0
-56,183,0,0,0,0,0,0,0,0,0,-1,1168,841,0,0
-49,183,0,0,0,0,0,0,0,0,0,-1,1175,841,0,0
-42,183,0,0,0,0,0,0,0,0,0,-1,1182,841,0,0
-35,183,0,0,0,0,0,0,0,0,0,-1,1189,841,0,0
-28,183,0,0,0,0,0,0,0,0,0,-1,1196,841,0,0
-21,183,0,0,0,0,0,0,0,0,0,-1,1203,841,0,0
-14,183,0,0,0,0,0,0,0,0,0,-1,1210,841,0,0
-7,183,0,0,0,0,0,0,0,0,0,-1,1217,841,0,0
0,183,0,0,0,0,0,0,0,0,0,-1,1224,841,0,0
7,183,0,0,0,0,0,0,0,0,0,-1,1231,841,0,0
14,183,0,0,0,0,0,0,0,0,0,-1,1238,841,0,0
21,183,0,0,0,0,0,0,0,0,0,-1,1245,841,0,0
28,183,0,0,0,0,0,0,0,0,0,-1,1252,841,0,0
35,183,0,0,0,0,0,0,0,0,0,-1,1259,841,0,0
42,183,0,0,0,0,0,0,0,0,0,-1,1266,841,0,0
49,183,0,0,0,0,0,0,0,0,0,-1,1273,841,0,0
56,183,0,0,0,0,0,0,0,0,0,-1,1280,841,0,0
63,183,0,0,0,0,0,0,0,0,0,-1,1287,841,0,0
70,183,0,0,0,0,0,0,0,0,0,-1,1294,841,0,0
77,183,0,0,0,0,0,0,0,0,0,-1,1301,841,0,0
84,183,0,0,0,0,0,0,0,0,0,-1,1308,841,0,0
91,183,0,0,0,0,0,0,0,0,0,-1,1315,841,0,0
98,183,0,0,0,0,0,0,0,0,0,-1,1322,841,0,0
105,183,0,0,0,0,0,0,0,0,0,-1,1329,841,0,0
112,183,0,0,0,0,0,0,0,0,0,-1,1336,841,0,0
119,183,0,0,0,0,0,0,0,0,0,-1,1343,841,0,0
126,183,0,0,0,0,0,0,0,0,0,-1,1350,841,0,0
133,183,0,0,0,0,0,0,0,0,0,-1,1357,841,0,0
140,183,0,0,0,0,0,0,0,0,0,-1,1364,841,0,0
147,183,0,0,0,0,0,0,0,0,0,-1,1371,841,0,0
154,183,0,0,0,0,0,0,0,0,0,-1,1378,841,0,0
161,183,0,0,0,0,0,0,0,0,0,-1,1385,841,0,0
168,183,0,0,0,0,0,0,0,0,0,-1,1392,841,0,0
175,183,0,0,0,0,0,0,0,0,0,-1,1399,841,0,0
182,183,0,0,0,0,0,0,0,0,0,-1,1406,841,0,0
189,183,0,0,0,0,0,0,0,0,0,-1,1413,841,0,0
196,183,0,0,0,0,0,0,0,0,0,-1,1420,841,0,0
203,183,0,0,0,0,0,0,0,0,0,-1,1427,841,0,0
210,183,0,0,0,0,0,0,0,0,0,-1,1434,841,0,0
217,183,0,0,0,0,0,0,0,0,0,-1,1441,841,0,0
224,183,0,0,0,0,0,0,0,0,0,-1,1448,841,0,0
231,183,0,0,0,0,0,0,0,0,0,-1,1455,841,0,0
238,183,0,0,0,0,0,0,0,0,0,-1,1462,841,0,0
245,183,0,0,0,0,0,0,0,0,0,-1,1469,841,0,0
252,183,0,0,0,0,0,0,0,0,0,-1,1476,841,0,0
259,183,0,0,0,0,0,0,0,0,0,-1,1483,841,0,0
266,183,0,0,0,0,0,0,0,0,0,-1,1490,841,0,0
273,183,0,0,0,0,0,0,0,0,0,-1,1497,841,0,0
280,183,0,0,0,0,0,0,0,0,0,-1,1504,841,0,0
287,183,0,0,0,0,0,0,0,0,0,-1,1511,841,0,0
294,183,0,0,0,0,0,0,0,0,0,-1,1518,841,0,0
301,183,0,0,0,0,0,0,0,0,0,-1,1525,841,0,0
308,183,0,0,0,0,0,0,0,0,0,-1,1532,841,0,0
315,183,0,0,0,0,0,0,0,0,0,-1,1539,841,0,0
322,183,0,0,0,0,0,0,0,0,0,-1,1546,841,0,0
329,183,0,0,0,0,0,0,0,0,0,-1,1553,841,0,0
336,183,0,0,0,0,0,0,0,0,0,-1,1560,841,0,0
343,183,0,0,0,0,0,0,0,0,0,-1,1567,841,0,0
350,183,0,0,0,0,0,0,0,0,0,-1,1574,841,0,0
357,183,0,0,0,0,0,0,0,0,0,-1,1581,841,0,0
364,183,0,0,0,0,0,0,0,0,0,-1,1588,841,0,0
371,183,0,0,0,0,0,0,0,0,0,-1,1595,841,0,0
378,183,0,0,0,0,0,0,0,0,0,-1,1602,841,0,0
385,183,0,0,0,0,0,0,0,0,0,-1,1609,841,0,0
392,183,0,0,0,0,0,0,0,0,0,-1,1616,841,0,0
399,183,0,0,0,0,0,0,0,0,0,-1,1623,841,0,0
406,183,0,0,0,0,0,0,0,0,0,-1,1630,841,0,0
413,183,0,0,0,0,0,0,0,0,0,-1,1637,841,0,0
420,183,0,0,0,0,0,0,0,0,0,-1,1644,841,0,0
427,183,0,0,0,0,0,0,0,0,0,-1,1651,841,0,0
434,183,0,0,0,0,0,0,0,0,0,-1,1658,841,0,0
441,183,0,0,0,0,0,0,0,0,0,-1,1665,841,0,0
448,183,0,0,0,0,0,0,0,0,0,-1,1672,841,0,0
455,183,0,0,0,0,0,0,0,0,0,-1,1679,841,0,0
462,183,0,0,0,0,0,0,0,0,0,-1,1686,841,0,0
469,183,0,0,0,0,0,0,0,0,0,-1,1693,841,0,0
476,183,0,0,0,0,0,0,0,0,0,-1,1700,841,0,0
483,183,0,0,0,0,0,0,0,0,0,-1,1707,841,0,0
490,183,0,0,0,0,0,0,0,0,0,-1,1714,841,0,0
497,183,0,0,0,0,0,0,0,0,0,-1,1721,841,0,0
504,183,0,0,0,0,0,0,0,0,0,-1,1728,841,0,0
511,183,0,0,0,0,0,0,0,0,0,-1,1735,841,0,0
518,183,0,0,0,0,0,0,0,0,0,-1,1742,841,0,0
525,183,0,0,0,0,0,0,0,0,0,-1,1749,841,0,0
532,183,0,0,0,0,0,0,0,0,0,-1,1756,841,0,0
539,183,0,0,0,0,0,0,0,0,0,-1,1763,841,0,0
546,183,0,0,0,0,0,0,0,0,0,-1,1770,841,0,0
553,183,0,0,0,0,0,0,0,0,0,-1,1777,841,0,0
560,183,0,0,0,0,0,0,0,0,0,-1,1784,841,0,0
567,183,0,0,0,0,0,0,0,0,0,-1,1791,841,0,0
574,183,0,0,0,0,0,0,0,0,0,-1,1798,841,0,0
581,183,0,0,0,0,0,0,0,0,0,-1,1805,841,0,0
588,183,0,0,0,0,0,0,0,0,0,-1,1812,841,0,0
595,183,0,0,0,0,0,0,0,0,0,-1,1819,841,0,0
602,183,0,0,0,0,0,0,0,0,0,-1,1826,841,0,0
609,183,16.2626,2.57202,-0.00052955,0.000797593,-0.00130954,0.00160209,-0.00133405,-1.0199,0.00169754,0.0400321,1833,841,16.2625,-2.572
616,183,16.101,2.43878,-0.000929946,0.000842993,-0.00127599,0.00151022,-0.00159717,-1.08899,0.00179429,0.0387199,1840,841,16.101,-2.43876
623,183,16.2278,2.41858,-0.0014796,0.000693957,-0.00147185,0.00143678,-0.00222242,-1.10341,0.00212881,0.0418718,1847,841,16.2278,-2.41856
630,183,16.4314,2.3576,-0.00211575,0.000500939,-0.00180338,0.00142058,-0.0030354,-1.09922,0.00262837,0.0420561,1854,841,16.4314,-2.35761
637,183,16.3604,2.3537,-0.0026005,0.000225174,-0.00204112,0.00129473,-0.00367006,-1.08813,0.00297376,0.0349355,1861,841,16.3603,-2.35371
644,183,16.2079,2.45807,-0.00294776,-5.77339e-05,-0.0022375,0.0011608,-0.0041663,-1.07211,0.00323465,0.0291918,1868,841,16.2078,-2.45807
651,183,16.265,2.37958,-0.00312169,-0.000323377,-0.0023555,0.00101718,-0.00446224,-1.05339,0.00336552,0.0264506,1875,841,16.2651,-2.37958
658,183,15.9153,2.18597,0,0,0,0,0,0,0,-1,1882,841,15.9153,-2.18599
665,183,15.1101,2.37122,0,0,0,0,0,0,0,-1,1889,841,15.1101,-2.37121
672,183,14.0258,2.31104,0,0,0,0,0,0,0,-1,1896,841,14.0258,-2.31106
679,183,13.3916,2.00934,-0.00261599,-0.000752432,-0.00210128,0.000614396,-0.00398282,-0.994088,0.00288193,0.0349455,1903,841,13.3916,-2.00936
686,183,13.3818,2.09027,-0.00222434,-0.000736973,-0.00189464,0.000554709,-0.00351602,-0.972419,0.00254912,0.0148395,1910,841,13.3819,-2.09027
693,183,13.3779,2.24847,-0.00153302,-0.000764928,-0.00172324,0.000616542,-0.00291449,-0.895038,0.00217779,0.0121368,1917,841,13.3779,-2.2485
700,183,13.3623,2.40222,-0.00104702,-0.000781511,-0.00170449,0.000795384,-0.00262392,-0.824262,0.00206609,0.0144222,1924,841,13.3623,-2.40221
707,183,13.3571,2.54059,-0.00140386,-0.000516413,-0.00179705,0.000890888,-0.00281116,-0.906436,0.00223117,0.0119152,1931,841,13.357,-2.54059
714,183,13.3807,2.6618,-0.00156857,-0.000370707,-0.00178271,0.000910996,-0.00285027,-0.947457,0.00226574,0.0156894,1938,841,13.3807,-2.66179
721,183,13.3724,2.79266,3.66027e-05,-0.0001832,-0.00214801,0.00207752,-0.00222412,-0.759838,0.00248404,0.0139553,1945,841,13.3725,-2.79264
728,183,13.3394,2.93774,0.00246856,0.000285071,-0.00258448,0.00418243,-0.00142879,-0.585555,0.00336716,0.011833,1952,841,13.3393,-2.93774
735,183,13.3455,3.09045,0.00544198,0.00120335,-0.00358343,0.0074859,-0.000840565,-0.518355,0.00529308,0.0110842,1959,841,13.3454,-3.09048
742,183,13.354,3.25665,0.00902198,0.00215694,-0.00466532,0.0113815,-0.000202549,-0.468238,0.00765606,0.0105532,1966,841,13.354,-3.25664
749,183,13.3386,3.33734,0.0143563,0.00349878,-0.00601397,0.0170294,0.000825737,-0.418248,0.0110879,0.030782,1973,841,13.3386,-3.33735
756,183,13.375,3.02594,0.0220911,0.0054015,-0.0076471,0.0250651,0.00242756,-0.370898,0.0159625,0.0460223,1980,841,13.3749,-3.02595
763,183,13.2473,3.09393,0,0,0,0,0,0,0,-1,1987,841,13.2473,-3.09393
770,183,13.6658,3.47852,0.0479768,0.0118366,-0.0117227,0.0514462,0.0083672,-0.287742,0.0318766,0.0468005,1994,841,13.6658,-3.47854
777,183,14.752,3.83594,0.0680609,0.0169951,-0.0141517,0.0717205,0.0133355,-0.253052,0.0440466,0.0447938,2001,841,14.7519,-3.83593
784,183,0,0,0,0,0,0,0,0,0,-1,2008,841,0,0
791,183,0,0,0,0,0,0,0,0,0,-1,2015,841,0,0
798,183,0,0,0,0,0,0,0,0,0,-1,2022,841,0,0
805,183,0,0,0,0,0,0,0,0,0,-1,2029,841,0,0
812,183,0,0,0,0,0,0,0,0,0,-1,2036,841,0,0
-700,176,0,0,0,0,0,0,0,0,0,-1,524,848,0,0
-693,176,0,0,0,0,0,0,0,0,0,-1,531,848,0,0
-686,176,0,0,0,0,0,0,0,0,0,-1,538,848,0,0
-679,176,0,0,0,0,0,0,0,0,0,-1,545,848,0,0
-672,176,0,0,0,0,0,0,0,0,0,-1,552,848,0,0
-665,176,-9.3551,0.260498,0,0,0,0,0,0,0,-1,559,848,-9.35512,-0.260479
-658,176,-8.99945,-0.583496,0,0,0,0,0,0,0,-1,566,848,-8.99946,0.58347
-651,176,-8.7879,-0.288208,0.0356133,-0.0271,0.0118159,0.0377657,-0.0292524,0.180184,0.0387969,0.0458286,573,848,-8.78792,0.288206
-644,176,-8.54791,-0.0743408,0.0259007,-0.027922,0.0120134,0.0284604,-0.0304817,0.209931,0.0340369,0.040658,580,848,-8.54789,0.074359
-637,176,-8.31213,0.365479,0.0187675,-0.025994,0.0113371,0.0214752,-0.0287016,0.234439,0.0290695,0.0409357,587,848,-8.31214,-0.365474
-630,176,-8.28021,0.692444,0.0133938,-0.0227454,0.0101538,0.0160512,-0.0254028,0.255978,0.0241357,0.0415596,594,848,-8.28021,-0.692453
-623,176,-8.31848,0.743896,0.00937316,-0.0189589,0.00875613,0.0118609,-0.0214466,0.276814,0.0194937,0.0398399,601,848,-8.31851,-0.743886
-616,176,-8.24304,1.04596,0.00641347,-0.0151493,0.00731339,0.0086599,-0.0173957,0.298018,0.0153225,0.0279197,608,848,-8.24302,-1.04598
-609,176,-8.22528,1.07288,0.00414248,-0.0116927,0.00596359,0.00613713,-0.0136874,0.322775,0.0117191,0.0117716,615,848,-8.22526,-1.07287
-602,176,-8.25116,0.952087,0.00227238,-0.00910244,0.00479994,0.00402714,-0.0108572,0.350488,0.00888995,0.0121728,622,848,-8.25117,-0.95206
-595,176,-8.27002,0.829712,-2.05732e-05,-0.00651097,0.00404005,0.00191624,-0.00844779,0.447036,0.00636746,0.0111981,629,848,-8.27,-0.829719
-588,176,-8.25867,0.70697,-0.00196129,-0.00449846,0.00326227,0.000270371,-0.00673012,0.599962,0.00457953,0.0109736,636,848,-8.25866,-0.706997
-581,176,-8.25867,0.604492,-0.00427048,-0.00287342,0.00316789,-0.000327961,-0.00681594,0.893913,0.00443868,0.0106039,643,848,-8.25866,-0.60451
-574,176,-8.24756,0.475403,-0.00595049,-0.00230799,0.0032988,-0.00036108,-0.0078974,1.03762,0.0051488,0.0123941,650,848,-8.24754,-0.475432
-567,176,-8.20886,0.382263,-0.00760566,-0.00187797,0.00351419,-0.000208477,-0.00927515,1.12729,0.00611512,0.0177911,657,848,-8.20884,-0.382256
-560,176,-8.2937,0.256287,-0.00915821,-0.0018164,0.00353096,-0.000393851,-0.0105808,1.18781,0.00692628,0.0148372,664,848,-8.29369,-0.256281
-553,176,-8.20929,0.0761108,-0.0105158,-0.00138701,0.00352238,-0.000185922,-0.0117169,1.24217,0.00775004,0.0246134,671,848,-8.20926,-0.0760966
-546,176,-8.15967,-0.140869,-0.0112516,-0.000754055,0.00350416,0.000308175,-0.0123138,1.27647,0.00831385,0.0422028,678,848,-8.15967,0.140842
-539,176,-9.22888,0.0770874,0,0,0,0,0,0,0,-1,685,848,-9.22886,-0.0770729
-532,176,-9.98901,0.179443,0,0,0,0,0,0,0,-1,692,848,-9.98899,-0.179428
-525,176,-10.3434,0.515869,-0.00932912,0.00148998,0.0023461,0.00197682,-0.00981596,1.36619,0.00729278,0.0475341,699,848,-10.3434,-0.515844
-518,176,-10.3248,0.488586,-0.00696413,0.00268495,0.00136151,0.00287338,-0.00715256,1.43327,0.00596163,0.0417052,706,848,-10.3248,-0.488582
-511,176,-10.4431,0.614502,-0.00308368,0.00409281,1.18879e-05,0.00409283,-0.0030837,1.56914,0.00415701,0.0378952,713,848,-10.443,-0.614494
-504,176,-10.5071,0.376282,0.00266108,0.00557646,-0.00179364,0.00643005,0.00180749,-1.12662,0.00382914,0.0405393,720,848,-10.5071,-0.376283
-497,176,-10.4487,0.548157,0.010446,0.00705052,-0.00404745,0.0131373,0.00435915,-0.586815,0.00772656,0.0418594,727,848,-10.4487,-0.548162
-490,176,-10.1621,0.630066,0.0184703,0.00792287,-0.00588817,0.0211012,0.005292,-0.420196,0.0126772,0.0388962,734,848,-10.1621,-0.630065
-483,176,0,0,0,0,0,0,0,0,0,-1,741,848,0,0
-476,176,0,0,0,0,0,0,0,0,0,-1,748,848,0,0
-469,176,0,0,0,0,0,0,0,0,0,-1,755,848,0,0
-462,176,0,0,0,0,0,0,0,0,0,-1,762,848,0,0
-455,176,0,0,0,0,0,0,0,0,0,-1,769,848,0,0
-448,176,0,0,0,0,0,0,0,0,0,-1,776,848,0,0
-441,176,0,0,0,0,0,0,0,0,0,-1,783,848,0,0
-434,176,0,0,0,0,0,0,0,0,0,-1,790,848,0,0
-427,176,0,0,0,0,0,0,0,0,0,-1,797,848,0,0
-420,176,0,0,0,0,0,0,0,0,0,-1,804,848,0,0
-413,176,0,0,0,0,0,0,0,0,0,-1,811,848,0,0
-406,176,0,0,0,0,0,0,0,0,0,-1,818,848,0,0
-399,176,0,0,0,0,0,0,0,0,0,-1,825,848,0,0
-392,176,0,0,0,0,0,0,0,0,0,-1,832,848,0,0
-385,176,0,0,0,0,0,0,0,0,0,-1,839,848,0,0
-378,176,0,0,0,0,0,0,0,0,0,-1,846,848,0,0
-371,176,0,0,0,0,0,0,0,0,0,-1,853,848,0,0
-364,176,0,0,0,0,0,0,0,0,0,-1,860,848,0,0
-357,176,0,0,0,0,0,0,0,0,0,-1,867,848,0,0
-350,176,0,0,0,0,0,0,0,0,0,-1,874,848,0,0
-343,176,0,0,0,0,0,0,0,0,0,-1,881,848,0,0
-336,176,0,0,0,0,0,0,0,0,0,-1,888,848,0,0
-329,176,0,0,0,0,0,0,0,0,0,-1,895,848,0,0
-322,176,0,0,0,0,0,0,0,0,0,-1,902,848,0,0
-315,176,0,0,0,0,0,0,0,0,0,-1,909,848,0,0
-308,176,0,0,0,0,0,0,0,0,0,-1,916,848,0,0
-301,176,0,0,0,0,0,0,0,0,0,-1,923,848,0,0
-294,176,0,0,0,0,0,0,0,0,0,-1,930,848,0,0
-287,176,0,0,0,0,0,0,0,0,0,-1,937,848,0,0
-280,176,0,0,0,0,0,0,0,0,0,-1,944,848,0,0
-273,176,0,0,0,0,0,0,0,0,0,-1,951,848,0,0
-266,176,0,0,0,0,0,0,0,0,0,-1,958,848,0,0
-259,176,0,0,0,0,0,0,0,0,0,-1,965,848,0,0
-252,176,0,0,0,0,0,0,0,0,0,-1,972,848,0,0
-245,176,0,0,0,0,0,0,0,0,0,-1,979,848,0,0
-238,176,0,0,0,0,0,0,0,0,0,-1,986,848,0,0
-231,176,0,0,0,0,0,0,0,0,0,-1,993,848,0,0
-224,176,0,0,0,0,0,0,0,0,0,-1,1000,848,0,0
-217,176,0,0,0,0,0,0,0,0,0,-1,1007,848,0,0
-210,176,0,0,0,0,0,0,0,0,0,-1,1014,848,0,0
-203,176,0,0,0,0,0,0,0,0,0,-1,1021,848,0,0
-196,176,0,0,0,0,0,0,0,0,0,-1,1028,848,0,0
-189,176,0,0,0,0,0,0,0,0,0,-1,1035,848,0,0
-182,176,0,0,0,0,0,0,0,0,0,-1,1042,848,0,0
-175,176,0,0,0,0,0,0,0,0,0,-1,1049,848,0,0
-168,176,0,0,0,0,0,0,0,0,0,-1,1056,848,0,0
-161,176,0,0,0,0,0,0,0,0,0,-1,1063,848,0,0
-154,176,0,0,0,0,0,0,0,0,0,-1,1070,848,0,0
-147,176,0,0,0,0,0,0,0,0,0,-1,1077,848,0,0
-140,176,0,0,0,0,0,0,0,0,0,-1,1084,848,0,0
-133,176,0,0,0,0,0,0,0,0,0,-1,1091,848,0,0
-126,176,0,0,0,0,0,0,0,0,0,-1,1098,848,0,0
-119,176,0,0,0,0,0,0,0,0,0,-1,1105,848,0,0
-112,176,0,0,0,0,0,0,0,0,0,-1,1112,848,0,0
-105,176,0,0,0,0,0,0,0,0,0,-1,1119,848,0,0
-98,176,0,0,0,0,0,0,0,0,0,-1,1126,848,0,0
-91,176,0,0,0,0,0,0,0,0,0,-1,1133,848,0,0
-84,176,0,0,0,0,0,0,0,0,0,-1,1140,848,0,0
-77,176,0,0,0,0,0,0,0,0,0,-1,1147,848,0,0
-70,176,0,0,0,0,0,0,0,0,0,-1,1154,848,0,0
-63,176,0,0,0,0,0,0,0,0,0,-1,1161,848,0,0
-56,176,0,0,0,0,0,0,0,0,0,-1,1168,848,0,0
-49,176,0,0,0,0,0,0,0,0,0,-1,1175,848,0,0
-42,176,0,0,0,0,0,0,0,0,0,-1,1182,848,0,0
-35,176,0,0,0,0,0,0,0,0,0,-1,1189,848,0,0
-28,176,0,0,0,0,0,0,0,0,0,-1,1196,848,0,0
-21,176,0,0,0,0,0,0,0,0,0,-1,1203,848,0,0
-14,176,0,0,0,0,0,0,0,0,0,-1,1210,848,0,0
-7,176,0,0,0,0,0,0,0,0,0,-1,1217,848,0,0
0,176,0,0,0,0,0,0,0,0,0,-1,1224,848,0,0
7,176,0,0,0,0,0,0,0,0,0,-1,1231,848,0,0
14,176,0,0,0,0,0,0,0,0,0,-1,1238,848,0,0
21,176,0,0,0,0,0,0,0,0,0,-1,1245,848,0,0
28,176,0,0,0,0,0,0,0,0,0,-1,1252,848,0,0
35,176,0,0,0,0,0,0,0,0,0,-1,1259,848,0,0
42,176,0,0,0,0,0,0,0,0,0,-1,1266,848,0,0
49,176,0,0,0,0,0,0,0,0,0,-1,1273,848,0,0
56,176,0,0,0,0,0,0,0,0,0,-1,1280,848,0,0
63,176,0,0,0,0,0,0,0,0,0,-1,1287,848,0,0
70,176,0,0,0,0,0,0,0,0,0,-1,1294,848,0,0
77,176,0,0,0,0,0,0,0,0,0,-1,1301,848,0,0
84,176,0,0,0,0,0,0,0,0,0,-1,1308,848,0,0
91,176,0,0,0,0,0,0,0,0,0,-1,1315,848,0,0
98,176,0,0,0,0,0,0,0,0,0,-1,1322,848,0,0
105,176,0,0,0,0,0,0,0,0,0,-1,1329,848,0,0
112,176,0,0,0,0,0,0,0,0,0,-1,1336,848,0,0
119,176,0,0,0,0,0,0,0,0,0,-1,1343,848,0,0
126,176,0,0,0,0,0,0,0,0,0,-1,1350,848,0,0
133,176,0,0,0,0,0,0,0,0,0,-1,1357,848,0,0
140,176,0,0,0,0,0,0,0,0,0,-1,1364,848,0,0
147,176,0,0,0,0,0,0,0,0,0,-1,1371,848,0,0
154,176,0,0,0,0,0,0,0,0,0,-1,1378,848,0,0
161,176,0,0,0,0,0,0,0,0,0,-1,1385,848,0,0
168,176,0,0,0,0,0,0,0,0,0,-1,1392,848,0,0
175,176,0,0,0,0,0,0,0,0,0,-1,1399,848,0,0
182,176,0,0,0,0,0,0,0,0,0,-1,1406,848,0,0
189,176,0,0,0,0,0,0,0,0,0,-1,1413,848,0,0
196,176,0,0,0,0,0,0,0,0,0,-1,1420,848,0,0
203,176,0,0,0,0,0,0,0,0,0,-1,1427,848,0,0
210,176,0,0,0,0,0,0,0,0,0,-1,1434,848,0,0
217,176,0,0,0,0,0,0,0,0,0,-1,1441,848,0,0
224,176,0,0,0,0,0,0,0,0,0,-1,1448,848,0,0
231,176,0,0,0,0,0,0,0,0,0,-1,1455,848,0,0
238,176,0,0,0,0,0,0,0,0,0,-1,1462,848,0,0
245,176,0,0,0,0,0,0,0,0,0,-1,1469,848,0,0
252,176,0,0,0,0,0,0,0,0,0,-1,1476,848,0,0
259,176,0,0,0,0,0,0,0,0,0,-1,1483,848,0,0
266,176,0,0,0,0,0,0,0,0,0,-1,1490,848,0,0
273,176,0,0,0,0,0,0,0,0,0,-1,1497,848,0,0
280,176,0,0,0,0,0,0,0,0,0,-1,1504,848,0,0
287,176,0,0,0,0,0,0,0,0,0,-1,1511,848,0,0
294,176,0,0,0,0,0,0,0,0,0,-1,1518,848,0,0
301,176,0,0,0,0,0,0,0,0,0,-1,1525,848,0,0
308,176,0,0,0,0,0,0,0,0,0,-1,1532,848,0,0
315,176,0,0,0,0,0,0,0,0,0,-1,1539,848,0,0
322,176,0,0,0,0,0,0,0,0,0,-1,1546,848,0,0
329,176,0,0,0,0,0,0,0,0,0,-1,1553,848,0,0
336,176,0,0,0,0,0,0,0,0,0,-1,1560,848,0,0
343,176,0,0,0,0,0,0,0,0,0,-1,1567,848,0,0
350,176,0,0,0,0,0,0,0,0,0,-1,1574,848,0,0
357,176,0,0,0,0,0,0,0,0,0,-1,1581,848,0,0
364,176,0,0,0,0,0,0,0,0,0,-1,1588,848,0,0
371,176,0,0,0,0,0,0,0,0,0,-1,1595,848,0,0
378,176,0,0,0,0,0,0,0,0,0,-1,1602,848,0,0
385,176,0,0,0,0,0,0,0,0,0,-1,1609,848,0,0
392,176,0,0,0,0,0,0,0,0,0,-1,1616,848,0,0
399,176,0,0,0,0,0,0,0,0,0,-1,1623,848,0,0
406,176,0,0,0,0,0,0,0,0,0,-1,1630,848,0,0
413,176,0,0,0,0,0,0,0,0,0,-1,1637,848,0,0
420,176,0,0,0,0,0,0,0,0,0,-1,1644,848,0,0
427,176,0,0,0,0,0,0,0,0,0,-1,1651,848,0,0
434,176,0,0,0,0,0,0,0,0,0,-1,1658,848,0,0
441,176,0,0,0,0,0,0,0,0,0,-1,1665,848,0,0
448,176,0,0,0,0,0,0,0,0,0,-1,1672,848,0,0
455,176,0,0,0,0,0,0,0,0,0,-1,1679,848,0,0
462,176,0,0,0,0,0,0,0,0,0,-1,1686,848,0,0
469,176,0,0,0,0,0,0,0,0,0,-1,1693,848,0,0
476,176,0,0,0,0,0,0,0,0,0,-1,1700,848,0,0
483,176,0,0,0,0,0,0,0,0,0,-1,1707,848,0,0
490,176,0,0,0,0,0,0,0,0,0,-1,1714,848,0,0
497,176,0,0,0,0,0,0,0,0,0,-1,1721,848,0,0
504,176,0,0,0,0,0,0,0,0,0,-1,1728,848,0,0
511,176,0,0,0,0,0,0,0,0,0,-1,1735,848,0,0
518,176,0,0,0,0,0,0,0,0,0,-1,1742,848,0,0
525,176,0,0,0,0,0,0,0,0,0,-1,1749,848,0,0
532,176,0,0,0,0,0,0,0,0,0,-1,1756,848,0,0
539,176,0,0,0,0,0,0,0,0,0,-1,1763,848,0,0
546,176,0,0,0,0,0,0,0,0,0,-1,1770,848,0,0
553,176,0,0,0,0,0,0,0,0,0,-1,1777,848,0,0
560,176,0,0,0,0,0,0,0,0,0,-1,1784,848,0,0
567,176,0,0,0,0,0,0,0,0,0,-1,1791,848,0,0
574,176,0,0,0,0,0,0,0,0,0,-1,1798,848,0,0
581,176,0,0,0,0,0,0,0,0,0,-1,1805,848,0,0
588,176,0,0,0,0,0,0,0,0,0,-1,1812,848,0,0
595,176,0,0,0,0,0,0,0,0,0,-1,1819,848,0,0
602,176,0,0,0,0,0,0,0,0,0,-1,1826,848,0,0
609,176,16.2919,2.3338,-0.00105983,0.000228851,-0.00274224,0.00240144,-0.00323241,-0.900789,0.00326448,0.0369933,1833,848,16.2919,-2.33383
616,176,16.2552,2.39099,-0.00132079,9.57056e-05,-0.00181048,0.00133153,-0.00255662,-0.971845,0.00228167,0.0383238,1840,848,16.2553,-2.39101
623,176,16.3688,2.37079,-0.00172734,-9.44465e-05,-0.00123874,0.0005727,-0.00239449,-1.07677,0.00181756,0.043642,1847,848,16.3688,-2.37082
630,176,16.4822,2.33551,-0.00226982,-0.000202296,-0.00106034,0.000244813,-0.00271692,-1.17175,0.00189816,0.0420008,1854,848,16.4822,-2.33552
637,176,16.3521,2.36401,-0.002706,-0.000331357,-0.00104599,6.36701e-05,-0.00310103,-1.2097,0.0020889,0.0328861,1861,848,16.3521,-2.36403
644,176,16.2252,2.40814,-0.00312117,-0.000469323,-0.00120726,-2.04868e-06,-0.00358845,-1.2015,0.00239161,0.0321527,1868,848,16.2252,-2.40812
651,176,16.2356,2.37427,-0.00338039,-0.000600192,-0.00138378,-2.88587e-05,-0.00395172,-1.17924,0.00262491,0.0329198,1875,848,16.2356,-2.37427
658,176,16.321,2.35431,-0.00343609,-0.000639016,-0.0014482,-2.42991e-05,-0.0040508,-1.16937,0.00269247,0.0370038,1882,848,16.321,-2.35433
665,176,15.5902,2.47821,0,0,0,0,0,0,0,-1,1889,848,15.5902,-2.47823
672,176,13.686,1.80878,0,0,0,0,0,0,0,-1,1896,848,13.686,-1.80876
679,176,13.6091,1.94812,-0.00312847,-0.000761341,-0.00161773,5.95551e-05,-0.00394937,-1.10122,0.00265299,0.047093,1903,848,13.6091,-1.94813
686,176,13.5758,2.10889,-0.00285067,-0.000688025,-0.00164042,0.0001954,-0.00373409,-1.0768,0.00255702,0.0201259,1910,848,13.5758,-2.10886
693,176,13.5536,2.27148,-0.00229637,-0.000667281,-0.00165908,0.000366424,-0.00333007,-1.01359,0.00235172,0.0111153,1917,848,13.5536,-2.27148
700,176,13.5294,2.39825,-0.00190658,-0.000672947,-0.00169313,0.000512217,-0.00309175,-0.96008,0.00225141,0.0151194,1924,848,13.5294,-2.39827
707,176,13.5234,2.54144,-0.00212071,-0.000523151,-0.00181919,0.000664899,-0.00330875,-0.992268,0.00245764,0.0142328,1931,848,13.5235,-2.54141
714,176,13.5223,2.68396,-0.0019878,-0.000432881,-0.00184502,0.000791795,-0.00321247,-0.984799,0.00244863,0.0121634,1938,848,13.5223,-2.68396
721,176,13.5112,2.8067,-8.03071e-05,-0.000277446,-0.00217106,0.00199442,-0.00235217,-0.762713,0.00251234,0.0113341,1945,848,13.5112,-2.80673
728,176,13.4873,2.94489,0.00287913,0.000170109,-0.00255272,0.00441444,-0.00136521,-0.541479,0.00348825,0.0133705,1952,848,13.4873,-2.94491
735,176,13.4865,3.08466,0.00662073,0.00104496,-0.00348674,0.00829711,-0.000631419,-0.448159,0.00575344,0.0125676,1959,848,13.4864,-3.08467
742,176,13.4965,3.23676,0.0111071,0.00195394,-0.00449363,0.0129444,0.000116637,-0.388128,0.00859096,0.0154216,1966,848,13.4965,-3.23674
749,176,13.4755,3.28815,0.0174779,0.0032255,-0.00575769,0.0195132,0.00119016,-0.339789,0.0126308,0.0263938,1973,848,13.4755,-3.28814
756,176,13.3264,3.36353,0.0263465,0.00502489,-0.00734042,0.0286292,0.00274218,-0.301498,0.0182409,0.0443422,1980,848,13.3264,-3.36351
763,176,13.1991,3.48468,0,0,0,0,0,0,0,-1,1987,848,13.1991,-3.48467
770,176,13.993,3.47571,0.054719,0.011093,-0.0113706,0.0575047,0.00830733,-0.240261,0.0358893,0.0448276,1994,848,13.993,-3.47569
777,176,14.7681,3.75195,0.0758615,0.0159487,-0.01384,0.0789041,0.0129061,-0.216397,0.0488721,0.0469266,2001,848,14.7681,-3.75193
784,176,0,0,0,0,0,0,0,0,0,-1,2008,848,0,0
791,176,0,0,0,0,0,0,0,0,0,-1,2015,848,0,0
798,176,0,0,0,0,0,0,0,0,0,-1,2022,848,0,0
805,176,0,0,0,0,0,0,0,0,0,-1,2029,848,0,0
812,176,0,0,0,0,0,0,0,0,0,-1,2036,848,0,0
-700,169,0,0,0,0,0,0,0,0,0,-1,524,855,0,0
-693,169,0,0,0,0,0,0,0,0,0,-1,531,855,0,0
-686,169,0,0,0,0,0,0,0,0,0,-1,538,855,0,0
-679,169,0,0,0,0,0,0,0,0,0,-1,545,855,0,0
-672,169,0,0,0,0,0,0,0,0,0,-1,552,855,0,0
-665,169,-9.06177,-0.361023,0,0,0,0,0,0,0,-1,559,855,-9.0618,0.361048
-658,169,-8.78613,0.253235,0,0,0,0,0,0,0,-1,566,855,-8.78614,-0.253213
-651,169,-8.81274,0.0630493,0,0,0,0,0,0,0,-1,573,855,-8.81276,-0.0630504
-644,169,-8.33685,-0.0957031,0.0294128,-0.0254346,0.00919763,0.0309141,-0.0269359,0.1618,0.033426,0.0432547,580,855,-8.33686,0.0957112
-637,169,-8.23505,0.588684,0.0208719,-0.0239326,0.00895235,0.0225944,-0.0256551,0.190089,0.0278756,0.0420239,587,855,-8.23502,-0.588713
-630,169,-8.19958,0.871155,0.0145397,-0.0209587,0.00810177,0.0163013,-0.0227203,0.214106,0.0226305,0.0443439,594,855,-8.19956,-0.871183
-623,169,-8.26752,1.04187,0.00972275,-0.0175254,0.00709586,0.0114599,-0.0192625,0.240087,0.0179273,0.037067,601,855,-8.26754,-1.04186
-616,169,-8.35919,1.19702,0.00646442,-0.0138742,0.00587461,0.00803929,-0.0154491,0.261923,0.0137841,0.022428,608,855,-8.35919,-1.197
-609,169,-8.36316,1.0791,0.00394386,-0.0106437,0.00477609,0.00536847,-0.0120683,0.289877,0.0103118,0.0134213,615,855,-8.36314,-1.07911
-602,169,-8.37433,0.947388,0.00195029,-0.00815792,0.00382136,0.00323233,-0.00943996,0.323694,0.00760333,0.0128961,622,855,-8.37432,-0.947361
-595,169,-8.38586,0.829407,-0.000502342,-0.00586762,0.003311,0.00107639,-0.00744635,0.444928,0.00535919,0.0115824,629,855,-8.38588,-0.82939
-588,169,-8.37238,0.719971,-0.00247673,-0.00412012,0.0027472,-0.000430973,-0.00616588,0.640082,0.00397472,0.0095425,636,855,-8.3724,-0.719974
-581,169,-8.3822,0.609924,-0.00478792,-0.00275551,0.00282903,-0.000765706,-0.00677772,0.957824,0.00428611,0.00981483,643,855,-8.3822,-0.609915
-574,169,-8.41626,0.487061,-0.00639395,-0.00230681,0.00309414,-0.000642294,-0.00805847,1.07725,0.00517152,0.0118068,650,855,-8.41628,-0.487082
-567,169,-8.35376,0.400391,-0.0077232,-0.00197464,0.00327983,-0.000487865,-0.00920997,1.1452,0.00598399,0.0167319,657,855,-8.35375,-0.400411
-560,169,-8.40363,0.291626,-0.00888092,-0.0019559,0.00324162,-0.000675298,-0.0101615,1.19457,0.00656084,0.0168664,664,855,-8.4036,-0.291617
-553,169,-8.35608,0.104492,-0.00999223,-0.00155738,0.00320253,-0.000479246,-0.0110704,1.24606,0.00722579,0.0249542,671,855,-8.35606,-0.104497
-546,169,-8.96484,0.218018,-0.010526,-0.000932414,0.00314895,8.83359e-06,-0.0114673,1.28034,0.00764779,0.0339196,678,855,-8.96483,-0.218032
-539,169,-9.73859,0.327698,0,0,0,0,0,0,0,-1,685,855,-9.73859,-0.327678
-532,169,-10.3438,0.560547,-0.0095203,0.000437288,0.00248134,0.00102136,-0.0101044,1.33962,0.00710123,0.0332594,692,855,-10.3438,-0.560565
-525,169,-10.2608,0.619568,-0.00794825,0.00149046,0.00173427,0.00179903,-0.00825682,1.39472,0.00619196,0.0417016,699,855,-10.2608,-0.619548
-518,169,-10.1403,0.645081,-0.00517772,0.00286075,0.000640333,0.00291144,-0.00522841,1.4918,0.00476258,0.0410013,706,855,-10.1403,-0.645058
-511,169,-10.1428,0.581482,-0.000682525,0.0044964,-0.000846388,0.00463122,-0.00081734,-1.41284,0.0033929,0.0394812,713,855,-10.1428,-0.581464
-504,169,-10.3362,0.0330811,0.00594234,0.00626237,-0.00277907,0.00888602,0.00331868,-0.814155,0.00518481,0.0411137,720,855,-10.3362,-0.0330589
-497,169,-10.3655,0.110718,0.0146694,0.00811569,-0.00501414,0.0173825,0.0054026,-0.495975,0.0102725,0.0415446,727,855,-10.3655,-0.110708
-490,169,0,0,0,0,0,0,0,0,0,-1,734,855,0,0
-483,169,0,0,0,0,0,0,0,0,0,-1,741,855,0,0
-476,169,0,0,0,0,0,0,0,0,0,-1,748,855,0,0
-469,169,0,0,0,0,0,0,0,0,0,-1,755,855,0,0
-462,169,0,0,0,0,0,0,0,0,0,-1,762,855,0,0
-455,169,0,0,0,0,0,0,0,0,0,-1,769,855,0,0
-448,169,0,0,0,0,0,0,0,0,0,-1,776,855,0,0
-441,169,0,0,0,0,0,0,0,0,0,-1,783,855,0,0
-434,169,0,0,0,0,0,0,0,0,0,-1,790,855,0,0
-427,169,0,0,0,0,0,0,0,0,0,-1,797,855,0,0
-420,169,0,0,0,0,0,0,0,0,0,-1,804,855,0,0
-413,169,0,0,0,0,0,0,0,0,0,-1,811,855,0,0
-406,169,0,0,0,0,0,0,0,0,0,-1,818,855,0,0
-399,169,0,0,0,0,0,0,0,0,0,-1,825,855,0,0
-392,169,0,0,0,0,0,0,0,0,0,-1,832,855,0,0
-385,169,0,0,0,0,0,0,0,0,0,-1,839,855,0,0
-378,169,0,0,0,0,0,0,0,0,0,-1,846,855,0,0
-371,169,0,0,0,0,0,0,0,0,0,-1,853,855,0,0
-364,169,0,0,0,0,0,0,0,0,0,-1,860,855,0,0
-357,169,0,0,0,0,0,0,0,0,0,-1,867,855,0,0
-350,169,0,0,0,0,0,0,0,0,0,-1,874,855,0,0
-343,169,0,0,0,0,0,0,0,0,0,-1,881,855,0,0
-336,169,0,0,0,0,0,0,0,0,0,-1,888,855,0,0
-329,169,0,0,0,0,0,0,0,0,0,-1,895,855,0,0
-322,169,0,0,0,0,0,0,0,0,0,-1,902,855,0,0
-315,169,0,0,0,0,0,0,0,0,0,-1,909,855,0,0
-308,169,0,0,0,0,0,0,0,0,0,-1,916,855,0,0
-301,169,0,0,0,0,0,0,0,0,0,-1,923,855,0,0
-294,169,0,0,0,0,0,0,0,0,0,-1,930,855,0,0
-287,169,0,0,0,0,0,0,0,0,0,-1,937,855,0,0
-280,169,0,0,0,0,0,0,0,0,0,-1,944,855,0,0
-273,169,0,0,0,0,0,0,0,0,0,-1,951,855,0,0
-266,169,0,0,0,0,0,0,0,0,0,-1,958,855,0,0
-259,169,0,0,0,0,0,0,0,0,0,-1,965,855,0,0
-252,169,0,0,0,0,0,0,0,0,0,-1,972,855,0,0
-245,169,0,0,0,0,0,0,0,0,0,-1,979,855,0,0
-238,169,0,0,0,0,0,0,0,0,0,-1,986,855,0,0
-231,169,0,0,0,0,0,0,0,0,0,-1,993,855,0,0
-224,169,0,0,0,0,0,0,0,0,0,-1,1000,855,0,0
-217,169,0,0,0,0,0,0,0,0,0,-1,1007,855,0,0
-210,169,0,0,0,0,0,0,0,0,0,-1,1014,855,0,0
-203,169,0,0,0,0,0,0,0,0,0,-1,1021,855,0,0
-196,169,0,0,0,0,0,0,0,0,0,-1,1028,855,0,0
-189,169,0,0,0,0,0,0,0,0,0,-1,1035,855,0,0
-182,169,0,0,0,0,0,0,0,0,0,-1,1042,855,0,0
-175,169,0,0,0,0,0,0,0,0,0,-1,1049,855,0,0
-168,169,0,0,0,0,0,0,0,0,0,-1,1056,855,0,0
-161,169,0,0,0,0,0,0,0,0,0,-1,1063,855,0,0
-154,169,0,0,0,0,0,0,0,0,0,-1,1070,855,0,0
-147,169,0,0,0,0,0,0,0,0,0,-1,1077,855,0,0
-140,169,0,0,0,0,0,0,0,0,0,-1,1084,855,0,0
-133,169,0,0,0,0,0,0,0,0,0,-1,1091,855,0,0
-126,169,0,0,0,0,0,0,0,0,0,-1,1098,855,0,0
-119,169,0,0,0,0,0,0,0,0,0,-1,1105,855,0,0
-112,169,0,0,0,0,0,0,0,0,0,-1,1112,855,0,0
-105,169,0,0,0,0,0,0,0,0,0,-1,1119,855,0,0
-98,169,0,0,0,0,0,0,0,0,0,-1,1126,855,0,0
-91,169,0,0,0,0,0,0,0,0,0,-1,1133,855,0,0
-84,169,0,0,0,0,0,0,0,0,0,-1,1140,855,0,0
-77,169,0,0,0,0,0,0,0,0,0,-1,1147,855,0,0
-70,169,0,0,0,0,0,0,0,0,0,-1,1154,855,0,0
-63,169,0,0,0,0,0,0,0,0,0,-1,1161,855,0,0
-56,169,0,0,0,0,0,0,0,0,0,-1,1168,855,0,0
-49,169,0,0,0,0,0,0,0,0,0,-1,1175,855,0,0
-42,169,0,0,0,0,0,0,0,0,0,-1,1182,855,0,0
-35,169,0,0,0,0,0,0,0,0,0,-1,1189,855,0,0
-28,169,0,0,0,0,0,0,0,0,0,-1,1196,855,0,0
-21,169,0,0,0,0,0,0,0,0,0,-1,1203,855,0,0
-14,169,0,0,0,0,0,0,0,0,0,-1,1210,855,0,0
-7,169,0,0,0,0,0,0,0,0,0,-1,1217,855,0,0
0,169,0,0,0,0,0,0,0,0,0,-1,1224,855,0,0
7,169,0,0,0,0,0,0,0,0,0,-1,1231,855,0,0
14,169,0,0,0,0,0,0,0,0,0,-1,1238,855,0,0
21,169,0,0,0,0,0,0,0,0,0,-1,1245,855,0,0
28,169,0,0,0,0,0,0,0,0,0,-1,1252,855,0,0
35,169,0,0,0,0,0,0,0,0,0,-1,1259,855,0,0
42,169,0,0,0,0,0,0,0,0,0,-1,1266,855,0,0
49,169,0,0,0,0,0,0,0,0,0,-1,1273,855,0,0
56,169,0,0,0,0,0,0,0,0,0,-1,1280,855,0,0
63,169,0,0,0,0,0,0,0,0,0,-1,1287,855,0,0
70,169,0,0,0,0,0,0,0,0,0,-1,1294,855,0,0
77,169,0,0,0,0,0,0,0,0,0,-1,1301,855,0,0
84,169,0,0,0,0,0,0,0,0,0,-1,1308,855,0,0
91,169,0,0,0,0,0,0,0,0,0,-1,1315,855,0,0
98,169,0,0,0,0,0,0,0,0,0,-1,1322,855,0,0
105,169,0,0,0,0,0,0,0,0,0,-1,1329,855,0,0
112,169,0,0,0,0,0,0,0,0,0,-1,1336,855,0,0
119,169,0,0,0,0,0,0,0,0,0,-1,1343,855,0,0
126,169,0,0,0,0,0,0,0,0,0,-1,1350,855,0,0
133,169,0,0,0,0,0,0,0,0,0,-1,1357,855,0,0
140,169,0,0,0,0,0,0,0,0,0,-1,1364,855,0,0
147,169,0,0,0,0,0,0,0,0,0,-1,1371,855,0,0
154,169,0,0,0,0,0,0,0,0,0,-1,1378,855,0,0
161,169,0,0,0,0,0,0,0,0,0,-1,1385,855,0,0
168,169,0,0,0,0,0,0,0,0,0,-1,1392,855,0,0
175,169,0,0,0,0,0,0,0,0,0,-1,1399,855,0,0
182,169,0,0,0,0,0,0,0,0,0,-1,1406,855,0,0
189,169,0,0,0,0,0,0,0,0,0,-1,1413,855,0,0
196,169,0,0,0,0,0,0,0,0,0,-1,1420,855,0,0
203,169,0,0,0,0,0,0,0,0,0,-1,1427,855,0,0
210,169,0,0,0,0,0,0,0,0,0,-1,1434,855,0,0
217,169,0,0,0,0,0,0,0,0,0,-1,1441,855,0,0
224,169,0,0,0,0,0,0,0,0,0,-1,1448,855,0,0
231,169,0,0,0,0,0,0,0,0,0,-1,1455,855,0,0
238,169,0,0,0,0,0,0,0,0,0,-1,1462,855,0,0
245,169,0,0,0,0,0,0,0,0,0,-1,1469,855,0,0
252,169,0,0,0,0,0,0,0,0,0,-1,1476,855,0,0
259,169,0,0,0,0,0,0,0,0,0,-1,1483,855,0,0
266,169,0,0,0,0,0,0,0,0,0,-1,1490,855,0,0
273,169,0,0,0,0,0,0,0,0,0,-1,1497,855,0,0
280,169,0,0,0,0,0,0,0,0,0,-1,1504,855,0,0
287,169,0,0,0,0,0,0,0,0,0,-1,1511,855,0,0
294,169,0,0,0,0,0,0,0,0,0,-1,1518,855,0,0
301,169,0,0,0,0,0,0,0,0,0,-1,1525,855,0,0
308,169,0,0,0,0,0,0,0,0,0,-1,1532,855,0,0
315,169,0,0,0,0,0,0,0,0,0,-1,1539,855,0,0
322,169,0,0,0,0,0,0,0,0,0,-1,1546,855,0,0
329,169,0,0,0,0,0,0,0,0,0,-1,1553,855,0,0
336,169,0,0,0,0,0,0,0,0,0,-1,1560,855,0,0
343,169,0,0,0,0,0,0,0,0,0,-1,1567,855,0,0
350,169,0,0,0,0,0,0,0,0,0,-1,1574,855,0,0
357,169,0,0,0,0,0,0,0,0,0,-1,1581,855,0,0
364,169,0,0,0,0,0,0,0,0,0,-1,1588,855,0,0
371,169,0,0,0,0,0,0,0,0,0,-1,1595,855,0,0
378,169,0,0,0,0,0,0,0,0,0,-1,1602,855,0,0
385,169,0,0,0,0,0,0,0,0,0,-1,1609,855,0,0
392,169,0,0,0,0,0,0,0,0,0,-1,1616,855,0,0
399,169,0,0,0,0,0,0,0,0,0,-1,1623,855,0,0
406,169,0,0,0,0,0,0,0,0,0,-1,1630,855,0,0
413,169,0,0,0,0,0,0,0,0,0,-1,1637,855,0,0
420,169,0,0,0,0,0,0,0,0,0,-1,1644,855,0,0
427,169,0,0,0,0,0,0,0,0,0,-1,1651,855,0,0
434,169,0,0,0,0,0,0,0,0,0,-1,1658,855,0,0
441,169,0,0,0,0,0,0,0,0,0,-1,1665,855,0,0
448,169,0,0,0,0,0,0,0,0,0,-1,1672,855,0,0
455,169,0,0,0,0,0,0,0,0,0,-1,1679,855,0,0
462,169,0,0,0,0,0,0,0,0,0,-1,1686,855,0,0
469,169,0,0,0,0,0,0,0,0,0,-1,1693,855,0,0
476,169,0,0,0,0,0,0,0,0,0,-1,1700,855,0,0
483,169,0,0,0,0,0,0,0,0,0,-1,1707,855,0,0
490,169,0,0,0,0,0,0,0,0,0,-1,1714,855,0,0
497,169,0,0,0,0,0,0,0,0,0,-1,1721,855,0,0
504,169,0,0,0,0,0,0,0,0,0,-1,1728,855,0,0
511,169,0,0,0,0,0,0,0,0,0,-1,1735,855,0,0
518,169,0,0,0,0,0,0,0,0,0,-1,1742,855,0,0
525,169,0,0,0,0,0,0,0,0,0,-1,1749,855,0,0
532,169,0,0,0,0,0,0,0,0,0,-1,1756,855,0,0
539,169,0,0,0,0,0,0,0,0,0,-1,1763,855,0,0
546,169,0,0,0,0,0,0,0,0,0,-1,1770,855,0,0
553,169,0,0,0,0,0,0,0,0,0,-1,1777,855,0,0
560,169,0,0,0,0,0,0,0,0,0,-1,1784,855,0,0
567,169,0,0,0,0,0,0,0,0,0,-1,1791,855,0,0
574,169,0,0,0,0,0,0,0,0,0,-1,1798,855,0,0
581,169,0,0,0,0,0,0,0,0,0,-1,1805,855,0,0
588,169,0,0,0,0,0,0,0,0,0,-1,1812,855,0,0
595,169,0,0,0,0,0,0,0,0,0,-1,1819,855,0,0
602,169,0,0,0,0,0,0,0,0,0,-1,1826,855,0,0
609,169,0,0,0,0,0,0,0,0,0,-1,1833,855,0,0
616,169,16.3002,2.24384,-0.00184369,-0.000211982,-0.00230535,0.00141762,-0.00347329,-0.955469,0.00290572,0.0425202,1840,855,16.3002,-2.24382
623,169,16.4119,2.22552,-0.00196777,-0.000446805,-0.00158049,0.00054665,-0.00296123,-1.00963,0.00217934,0.0448218,1847,855,16.4118,-2.2255
630,169,16.5201,2.31989,-0.00227216,-0.000537107,-0.00123673,0.000106031,-0.0029153,-1.09125,0.00197982,0.043663,1854,855,16.5201,-2.31991
637,169,16.4133,2.38123,-0.00256606,-0.000593729,-0.00108528,-0.000113485,-0.0030463,-1.15419,0.00199412,0.0368859,1861,855,16.4134,-2.38121
644,169,16.269,2.39825,-0.00302293,-0.000665821,-0.0011959,-0.000165341,-0.00352341,-1.17445,0.00229581,0.0339749,1868,855,16.2691,-2.39827
651,169,16.2522,2.35712,-0.00342333,-0.0007343,-0.00135708,-0.000168478,-0.00398915,-1.17577,0.00260509,0.0353271,1875,855,16.2522,-2.35715
658,169,16.3146,2.3092,-0.00360939,-0.000740394,-0.00142427,-0.000153426,-0.00419636,-1.17989,0.00274786,0.0362959,1882,855,16.3146,-2.30918
665,169,16.3391,2.38342,-0.00361233,-0.000796367,-0.00154739,-0.000112263,-0.00429644,-1.15453,0.00282761,0.0484235,1889,855,16.3391,-2.3834
672,169,16.359,2.48578,0,0,0,0,0,0,0,-1,1896,855,16.3591,-2.4858
679,169,13.5336,1.91705,0,0,0,0,0,0,0,-1,1903,855,13.5336,-1.91706
686,169,13.6235,2.11298,-0.0036056,-0.000725506,-0.00171189,7.14769e-05,-0.00440258,-1.13508,0.00295917,0.021605,1910,855,13.6236,-2.11295
693,169,13.6912,2.28857,-0.00331951,-0.000671662,-0.00176491,0.000210694,-0.00420186,-1.10719,0.00287405,0.0117176,1917,855,13.6912,-2.28859
700,169,13.6992,2.4281,-0.00306622,-0.000645292,-0.00180141,0.000314565,-0.00402608,-1.08123,0.00279482,0.0123778,1924,855,13.6992,-2.4281
707,169,13.6678,2.55615,-0.00319464,-0.000545998,-0.00189024,0.000437675,-0.00417832,-1.09097,0.00294231,0.0148027,1931,855,13.6679,-2.55614
714,169,13.6597,2.67999,-0.00283324,-0.00043553,-0.00194123,0.000647196,-0.00391597,-1.06202,0.00285097,0.0142798,1938,855,13.6596,-2.68002
721,169,13.6653,2.80701,-0.00073644,-0.000263147,-0.00219305,0.00170598,-0.00270557,-0.839144,0.00256871,0.015328,1945,855,13.6653,-2.80703
728,169,13.6595,2.94824,0.00258017,0.000249647,-0.00250074,0.00417381,-0.001344,-0.567373,0.00332242,0.0126065,1952,855,13.6595,-2.94821
735,169,13.6449,3.07037,0.00686838,0.00116493,-0.00334687,0.00841368,-0.000380374,-0.432554,0.00574011,0.0179386,1959,855,13.6449,-3.07035
742,169,13.6431,3.22784,0.0118077,0.00210983,-0.00422135,0.0133877,0.000529769,-0.358159,0.00875391,0.0135539,1966,855,13.643,-3.22785
749,169,13.6726,3.30981,0.0184204,0.00337503,-0.00528766,0.0200929,0.0017026,-0.306333,0.0128653,0.0221065,1973,855,13.6727,-3.30982
756,169,13.5326,3.45599,0.0273945,0.00513703,-0.00671842,0.0292652,0.00326631,-0.271568,0.0185177,0.0451245,1980,855,13.5326,-3.45601
763,169,13.8741,3.60272,0,0,0,0,0,0,0,-1,1987,855,13.8741,-3.60274
770,169,14.2849,3.53198,0.054466,0.0107765,-0.0102556,0.0567536,0.00848887,-0.219466,0.0353475,0.0447981,1994,855,14.285,-3.53198
777,169,14.8979,3.62622,0.0733432,0.0150543,-0.0122744,0.0758225,0.0125751,-0.199306,0.0469217,0.0453013,2001,855,14.898,-3.62621
784,169,15.4565,3.60419,0.0961085,0.0206686,-0.014365,0.0987512,0.0180258,-0.181938,0.060724,0.0474011,2008,855,15.4566,-3.60417
791,169,0,0,0,0,0,0,0,0,0,-1,2015,855,0,0
798,169,0,0,0,0,0,0,0,0,0,-1,2022,855,0,0
805,169,0,0,0,0,0,0,0,0,0,-1,2029,855,0,0
812,169,0,0,0,0,0,0,0,0,0,-1,2036,855,0,0
-700,162,0,0,0,0,0,0,0,0,0,-1,524,862,0,0
-693,162,0,0,0,0,0,0,0,0,0,-1,531,862,0,0
-686,162,0,0,0,0,0,0,0,0,0,-1,538,862,0,0
-679,162,0,0,0,0,0,0,0,0,0,-1,545,862,0,0
-672,162,0,0,0,0,0,0,0,0,0,-1,552,862,0,0
-665,162,-9.41693,-0.27887,0,0,0,0,0,0,0,-1,559,862,-9.41694,0.278846
-658,162,-9.46796,0.413696,0,0,0,0,0,0,0,-1,566,862,-9.46796,-0.413712
-651,162,-8.35815,-0.196228,0,0,0,0,0,0,0,-1,573,862,-8.35818,0.196217
-644,162,-8.02954,0.26416,0.0339731,-0.0240239,0.00557855,0.0345048,-0.0245556,0.0950259,0.0342595,0.0472554,580,862,-8.02955,-0.26417
-637,162,-8.36804,1.66248,0.0240201,-0.0221945,0.00596479,0.0247775,-0.0229519,0.12631,0.0275633,0.0449724,587,862,-8.36806,-1.66246
-630,162,-8.38922,1.37305,0.0166043,-0.0191415,0.00564922,0.0174759,-0.0200131,0.15307,0.0216608,0.0451302,594,862,-8.38923,-1.37302
-623,162,-8.41528,1.29852,0.0109349,-0.0158548,0.0051392,0.011887,-0.0168068,0.183175,0.0166473,0.03427,601,862,-8.41529,-1.29854
-616,162,-8.47363,1.19196,0.0071548,-0.0123759,0.00428994,0.00805555,-0.0132767,0.206961,0.0124385,0.0192711,608,862,-8.47364,-1.19196
-609,162,-8.49365,1.06323,0.00419789,-0.00940962,0.0035376,0.00506262,-0.0102744,0.239739,0.00902361,0.0129324,615,862,-8.49368,-1.06324
-602,162,-8.50397,0.927673,0.00194806,-0.0071051,0.00285456,0.00277297,-0.00793001,0.281316,0.00641402,0.0113023,622,862,-8.50396,-0.927659
-595,162,-8.50531,0.836426,-0.000765951,-0.00512538,0.00263937,0.000477412,-0.00636874,0.440247,0.00441358,0.0105112,629,862,-8.50534,-0.836432
-588,162,-8.50366,0.729248,-0.00282614,-0.00366492,0.00229405,-0.000913461,-0.0055776,0.694988,0.00345441,0.0107187,636,862,-8.50364,-0.729265
-581,162,-8.54498,0.577393,-0.00508498,-0.00258249,0.00249511,-0.00104247,-0.006625,1.01781,0.00411345,0.0117662,643,862,-8.54499,-0.577388
-574,162,-8.604,0.44519,-0.00658138,-0.00226107,0.0028435,-0.000850264,-0.00799219,1.11023,0.00506853,0.0159441,650,862,-8.60403,-0.445217
-567,162,-8.54999,0.385925,-0.00759768,-0.00200038,0.00299852,-0.000697379,-0.00890069,1.16087,0.00571553,0.0220842,657,862,-8.54996,-0.385936
-560,162,-8.5271,0.210449,-0.00838249,-0.00198437,0.00293565,-0.000841533,-0.00952532,1.19955,0.00608912,0.0192343,664,862,-8.52709,-0.210459
-553,162,-8.50385,0.0282593,-0.00919571,-0.00161812,0.00288231,-0.000646386,-0.0101674,1.24562,0.00657344,0.0270818,671,862,-8.50387,-0.0282409
-546,162,-9.37512,0.161316,-0.00947734,-0.00101351,0.00281447,-0.000163071,-0.0103278,1.27735,0.00683148,0.0371638,678,862,-9.37514,-0.161301
-539,162,-10.1742,0.283325,0,0,0,0,0,0,0,-1,685,862,-10.1742,-0.28333
-532,162,-10.2707,0.580505,-0.00800705,0.000442495,0.002072,0.000923239,-0.00848779,1.34281,0.00599004,0.0363234,692,862,-10.2707,-0.580534
-525,162,-10.2556,0.638794,-0.0061279,0.00160908,0.00127864,0.00181492,-0.00633373,1.41118,0.00493988,0.0358605,699,862,-10.2556,-0.638816
-518,162,-10.2747,0.438049,-0.0029458,0.00314145,0.000122388,0.00314391,-0.00294826,1.5507,0.00351792,0.039945,706,862,-10.2747,-0.438031
-511,162,-10.3508,0.319458,0,0,0,0,0,0,0,-1,713,862,-10.3508,-0.319467
-504,162,-10.3685,0.0822754,0,0,0,0,0,0,0,-1,720,862,-10.3685,-0.0822589
-497,162,-10.3905,-0.0983887,0,0,0,0,0,0,0,-1,727,862,-10.3905,0.0984076
-490,162,0,0,0,0,0,0,0,0,0,-1,734,862,0,0
-483,162,0,0,0,0,0,0,0,0,0,-1,741,862,0,0
-476,162,0,0,0,0,0,0,0,0,0,-1,748,862,0,0
-469,162,0,0,0,0,0,0,0,0,0,-1,755,862,0,0
-462,162,0,0,0,0,0,0,0,0,0,-1,762,862,0,0
-455,162,0,0,0,0,0,0,0,0,0,-1,769,862,0,0
-448,162,0,0,0,0,0,0,0,0,0,-1,776,862,0,0
-441,162,0,0,0,0,0,0,0,0,0,-1,783,862,0,0
-434,162,0,0,0,0,0,0,0,0,0,-1,790,862,0,0
-427,162,0,0,0,0,0,0,0,0,0,-1,797,862,0,0
-420,162,0,0,0,0,0,0,0,0,0,-1,804,862,0,0
-413,162,0,0,0,0,0,0,0,0,0,-1,811,862,0,0
-406,162,0,0,0,0,0,0,0,0,0,-1,818,862,0,0
-399,162,0,0,0,0,0,0,0,0,0,-1,825,862,0,0
-392,162,0,0,0,0,0,0,0,0,0,-1,832,862,0,0
-385,162,0,0,0,0,0,0,0,0,0,-1,839,862,0,0
-378,162,0,0,0,0,0,0,0,0,0,-1,846,862,0,0
-371,162,0,0,0,0,0,0,0,0,0,-1,853,862,0,0
-364,162,0,0,0,0,0,0,0,0,0,-1,860,862,0,0
-357,162,0,0,0,0,0,0,0,0,0,-1,867,862,0,0
-350,162,0,0,0,0,0,0,0,0,0,-1,874,862,0,0
-343,162,0,0,0,0,0,0,0,0,0,-1,881,862,0,0
-336,162,0,0,0,0,0,0,0,0,0,-1,888,862,0,0
-329,162,0,0,0,0,0,0,0,0,0,-1,895,862,0,0
-322,162,0,0,0,0,0,0,0,0,0,-1,902,862,0,0
-315,162,0,0,0,0,0,0,0,0,0,-1,909,862,0,0
-308,162,0,0,0,0,0,0,0,0,0,-1,916,862,0,0
-301,162,0,0,0,0,0,0,0,0,0,-1,923,862,0,0
-294,162,0,0,0,0,0,0,0,0,0,-1,930,862,0,0
-287,162,0,0,0,0,0,0,0,0,0,-1,937,862,0,0
-280,162,0,0,0,0,0,0,0,0,0,-1,944,862,0,0
-273,162,0,0,0,0,0,0,0,0,0,-1,951,862,0,0
-266,162,0,0,0,0,0,0,0,0,0,-1,958,862,0,0
-259,162,0,0,0,0,0,0,0,0,0,-1,965,862,0,0
-252,162,0,0,0,0,0,0,0,0,0,-1,972,862,0,0
-245,162,0,0,0,0,0,0,0,0,0,-1,979,862,0,0
-238,162,0,0,0,0,0,0,0,0,0,-1,986,862,0,0
-231,162,0,0,0,0,0,0,0,0,0,-1,993,862,0,0
-224,162,0,0,0,0,0,0,0,0,0,-1,1000,862,0,0
-217,162,0,0,0,0,0,0,0,0,0,-1,1007,862,0,0
-210,162,0,0,0,0,0,0,0,0,0,-1,1014,862,0,0
-203,162,0,0,0,0,0,0,0,0,0,-1,1021,862,0,0
-196,162,0,0,0,0,0,0,0,0,0,-1,1028,862,0,0
-189,162,0,0,0,0,0,0,0,0,0,-1,1035,862,0,0
-182,162,0,0,0,0,0,0,0,0,0,-1,1042,862,0,0
-175,162,0,0,0,0,0,0,0,0,0,-1,1049,862,0,0
-168,162,0,0,0,0,0,0,0,0,0,-1,1056,862,0,0
-161,162,0,0,0,0,0,0,0,0,0,-1,1063,862,0,0
-154,162,0,0,0,0,0,0,0,0,0,-1,1070,862,0,0
-147,162,0,0,0,0,0,0,0,0,0,-1,1077,862,0,0
-140,162,0,0,0,0,0,0,0,0,0,-1,1084,862,0,0
-133,162,0,0,0,0,0,0,0,0,0,-1,1091,862,0,0
-126,162,0,0,0,0,0,0,0,0,0,-1,1098,862,0,0
-119,162,0,0,0,0,0,0,0,0,0,-1,1105,862,0,0
-112,162,0,0,0,0,0,0,0,0,0,-1,1112,862,0,0
-105,162,0,0,0,0,0,0,0,0,0,-1,1119,862,0,0
-98,162,0,0,0,0,0,0,0,0,0,-1,1126,862,0,0
-91,162,0,0,0,0,0,0,0,0,0,-1,1133,862,0,0
-84,162,0,0,0,0,0,0,0,0,0,-1,1140,862,0,0
-77,162,0,0,0,0,0,0,0,0,0,-1,1147,862,0,0
-70,162,0,0,0,0,0,0,0,0,0,-1,1154,862,0,0
-63,162,0,0,0,0,0,0,0,0,0,-1,1161,862,0,0
-56,162,0,0,0,0,0,0,0,0,0,-1,1168,862,0,0
-49,162,0,0,0,0,0,0,0,0,0,-1,1175,862,0,0
-42,162,0,0,0,0,0,0,0,0,0,-1,1182,862,0,0
-35,162,0,0,0,0,0,0,0,0,0,-1,1189,862,0,0
-28,162,0,0,0,0,0,0,0,0,0,-1,1196,862,0,0
-21,162,0,0,0,0,0,0,0,0,0,-1,1203,862,0,0
-14,162,0,0,0,0,0,0,0,0,0,-1,1210,862,0,0
-7,162,0,0,0,0,0,0,0,0,0,-1,1217,862,0,0
0,162,0,0,0,0,0,0,0,0,0,-1,1224,862,0,0
7,162,0,0,0,0,0,0,0,0,0,-1,1231,862,0,0
14,162,0,0,0,0,0,0,0,0,0,-1,1238,862,0,0
21,162,0,0,0,0,0,0,0,0,0,-1,1245,862,0,0
28,162,0,0,0,0,0,0,0,0,0,-1,1252,862,0,0
35,162,0,0,0,0,0,0,0,0,0,-1,1259,862,0,0
42,162,0,0,0,0,0,0,0,0,0,-1,1266,862,0,0
49,162,0,0,0,0,0,0,0,0,0,-1,1273,862,0,0
56,162,0,0,0,0,0,0,0,0,0,-1,1280,862,0,0
63,162,0,0,0,0,0,0,0,0,0,-1,1287,862,0,0
70,162,0,0,0,0,0,0,0,0,0,-1,1294,862,0,0
77,162,0,0,0,0,0,0,0,0,0,-1,1301,862,0,0
84,162,0,0,0,0,0,0,0,0,0,-1,1308,862,0,0
91,162,0,0,0,0,0,0,0,0,0,-1,1315,862,0,0
98,162,0,0,0,0,0,0,0,0,0,-1,1322,862,0,0
105,162,0,0,0,0,0,0,0,0,0,-1,1329,862,0,0
112,162,0,0,0,0,0,0,0,0,0,-1,1336,862,0,0
119,162,0,0,0,0,0,0,0,0,0,-1,1343,862,0,0
126,162,0,0,0,0,0,0,0,0,0,-1,1350,862,0,0
133,162,0,0,0,0,0,0,0,0,0,-1,1357,862,0,0
140,162,0,0,0,0,0,0,0,0,0,-1,1364,862,0,0
147,162,0,0,0,0,0,0,0,0,0,-1,1371,862,0,0
154,162,0,0,0,0,0,0,0,0,0,-1,1378,862,0,0
161,162,0,0,0,0,0,0,0,0,0,-1,1385,862,0,0
168,162,0,0,0,0,0,0,0,0,0,-1,1392,862,0,0
175,162,0,0,0,0,0,0,0,0,0,-1,1399,862,0,0
182,162,0,0,0,0,0,0,0,0,0,-1,1406,862,0,0
189,162,0,0,0,0,0,0,0,0,0,-1,1413,862,0,0
196,162,0,0,0,0,0,0,0,0,0,-1,1420,862,0,0
203,162,0,0,0,0,0,0,0,0,0,-1,1427,862,0,0
210,162,0,0,0,0,0,0,0,0,0,-1,1434,862,0,0
217,162,0,0,0,0,0,0,0,0,0,-1,1441,862,0,0
224,162,0,0,0,0,0,0,0,0,0,-1,1448,862,0,0
231,162,0,0,0,0,0,0,0,0,0,-1,1455,862,0,0
238,162,0,0,0,0,0,0,0,0,0,-1,1462,862,0,0
245,162,0,0,0,0,0,0,0,0,0,-1,1469,862,0,0
252,162,0,0,0,0,0,0,0,0,0,-1,1476,862,0,0
259,162,0,0,0,0,0,0,0,0,0,-1,1483,862,0,0
266,162,0,0,0,0,0,0,0,0,0,-1,1490,862,0,0
273,162,0,0,0,0,0,0,0,0,0,-1,1497,862,0,0
280,162,0,0,0,0,0,0,0,0,0,-1,1504,862,0,0
287,162,0,0,0,0,0,0,0,0,0,-1,1511,862,0,0
294,162,0,0,0,0,0,0,0,0,0,-1,1518,862,0,0
301,162,0,0,0,0,0,0,0,0,0,-1,1525,862,0,0
308,162,0,0,0,0,0,0,0,0,0,-1,1532,862,0,0
315,162,0,0,0,0,0,0,0,0,0,-1,1539,862,0,0
322,162,0,0,0,0,0,0,0,0,0,-1,1546,862,0,0
329,162,0,0,0,0,0,0,0,0,0,-1,1553,862,0,0
336,162,0,0,0,0,0,0,0,0,0,-1,1560,862,0,0
343,162,0,0,0,0,0,0,0,0,0,-1,1567,862,0,0
350,162,0,0,0,0,0,0,0,0,0,-1,1574,862,0,0
357,162,0,0,0,0,0,0,0,0,0,-1,1581,862,0,0
364,162,0,0,0,0,0,0,0,0,0,-1,1588,862,0,0
371,162,0,0,0,0,0,0,0,0,0,-1,1595,862,0,0
378,162,0,0,0,0,0,0,0,0,0,-1,1602,862,0,0
385,162,0,0,0,0,0,0,0,0,0,-1,1609,862,0,0
392,162,0,0,0,0,0,0,0,0,0,-1,1616,862,0,0
399,162,0,0,0,0,0,0,0,0,0,-1,1623,862,0,0
406,162,0,0,0,0,0,0,0,0,0,-1,1630,862,0,0
413,162,0,0,0,0,0,0,0,0,0,-1,1637,862,0,0
420,162,0,0,0,0,0,0,0,0,0,-1,1644,862,0,0
427,162,0,0,0,0,0,0,0,0,0,-1,1651,862,0,0
434,162,0,0,0,0,0,0,0,0,0,-1,1658,862,0,0
441,162,0,0,0,0,0,0,0,0,0,-1,1665,862,0,0
448,162,0,0,0,0,0,0,0,0,0,-1,1672,862,0,0
455,162,0,0,0,0,0,0,0,0,0,-1,1679,862,0,0
462,162,0,0,0,0,0,0,0,0,0,-1,1686,862,0,0
469,162,0,0,0,0,0,0,0,0,0,-1,1693,862,0,0
476,162,0,0,0,0,0,0,0,0,0,-1,1700,862,0,0
483,162,0,0,0,0,0,0,0,0,0,-1,1707,862,0,0
490,162,0,0,0,0,0,0,0,0,0,-1,1714,862,0,0
497,162,0,0,0,0,0,0,0,0,0,-1,1721,862,0,0
504,162,0,0,0,0,0,0,0,0,0,-1,1728,862,0,0
511,162,0,0,0,0,0,0,0,0,0,-1,1735,862,0,0
518,162,0,0,0,0,0,0,0,0,0,-1,1742,862,0,0
525,162,0,0,0,0,0,0,0,0,0,-1,1749,862,0,0
532,162,0,0,0,0,0,0,0,0,0,-1,1756,862,0,0
539,162,0,0,0,0,0,0,0,0,0,-1,1763,862,0,0
546,162,0,0,0,0,0,0,0,0,0,-1,1770,862,0,0
553,162,0,0,0,0,0,0,0,0,0,-1,1777,862,0,0
560,162,0,0,0,0,0,0,0,0,0,-1,1784,862,0,0
567,162,0,0,0,0,0,0,0,0,0,-1,1791,862,0,0
574,162,0,0,0,0,0,0,0,0,0,-1,1798,862,0,0
581,162,0,0,0,0,0,0,0,0,0,-1,1805,862,0,0
588,162,0,0,0,0,0,0,0,0,0,-1,1812,862,0,0
595,162,0,0,0,0,0,0,0,0,0,-1,1819,862,0,0
602,162,0,0,0,0,0,0,0,0,0,-1,1826,862,0,0
609,162,0,0,0,0,0,0,0,0,0,-1,1833,862,0,0
616,162,16.2924,2.33948,-0.00206173,-0.000280048,-0.00309936,0.00205395,-0.00439574,-0.92534,0.00380467,0.0440936,1840,862,16.2924,-2.33946
623,162,16.3513,2.37897,-0.00198827,-0.00064443,-0.00216813,0.00095351,-0.00358621,-0.935659,0.00276402,0.0447847,1847,862,16.3513,-2.37899
630,162,16.4297,2.43207,-0.00209031,-0.000802412,-0.00159767,0.000276207,-0.00316892,-0.976966,0.00221045,0.0433083,1854,862,16.4297,-2.43208
637,162,16.3629,2.45001,-0.00226216,-0.000842971,-0.00125433,-0.00011143,-0.00299371,-1.04281,0.00195972,0.0416146,1861,862,16.3629,-2.45003
644,162,16.3091,2.38684,-0.00272829,-0.000881492,-0.00124631,-0.000253774,-0.00335601,-1.10423,0.00215773,0.0374485,1868,862,16.309,-2.38684
651,162,16.2842,2.3515,-0.00330721,-0.000917205,-0.00136744,-0.000296188,-0.00392823,-1.1445,0.00252589,0.0349133,1875,862,16.2842,-2.35153
658,162,16.2661,2.35706,-0.00368063,-0.000901456,-0.00143157,-0.000295965,-0.00428612,-1.17066,0.00276405,0.0358406,1882,862,16.2662,-2.35708
665,162,16.2349,2.44012,-0.0038613,-0.000932599,-0.00155815,-0.000258693,-0.00453521,-1.16259,0.00294104,0.0421324,1889,862,16.2349,-2.4401
672,162,15.579,2.78461,0,0,0,0,0,0,0,-1,1896,862,15.579,-2.78459
679,162,14.7152,2.48511,0,0,0,0,0,0,0,-1,1903,862,14.7152,-2.4851
686,162,13.7911,2.17639,-0.0043068,-0.00081295,-0.00181644,-3.9719e-05,-0.00508003,-1.16834,0.00337353,0.0275595,1910,862,13.7912,-2.17637
693,162,13.8002,2.31091,-0.00426297,-0.00071701,-0.00190873,0.000115139,-0.00509512,-1.15967,0.00343577,0.015225,1917,862,13.8002,-2.31094
700,162,13.8309,2.43628,-0.00413658,-0.000649122,-0.00193522,0.00021208,-0.00499778,-1.1521,0.00340475,0.0150729,1924,862,13.8309,-2.4363
707,162,13.8108,2.54639,-0.00404338,-0.000588672,-0.00204707,0.000362452,-0.0049945,-1.13585,0.00345682,0.0113548,1931,862,13.8108,-2.54638
714,162,13.8156,2.65216,-0.00325622,-0.000429813,-0.00220785,0.000778381,-0.00446442,-1.07008,0.0032668,0.015515,1938,862,13.8156,-2.65214
721,162,13.7554,2.85425,-0.000863287,-0.000255056,-0.00247604,0.00193547,-0.00305381,-0.846504,0.00290459,0.0273924,1945,862,13.7554,-2.85424
728,162,13.7527,3.00012,0.00289539,0.000299694,-0.00281996,0.00470183,-0.00150674,-0.569731,0.00373939,0.021945,1952,862,13.7527,-3.00014
735,162,13.8058,3.07684,0.00782258,0.00120568,-0.00369522,0.00947402,-0.000445757,-0.420283,0.00646972,0.0108907,1959,862,13.8058,-3.07683
742,162,13.8077,3.2182,0.0133028,0.00213617,-0.00459002,0.0149473,0.000491638,-0.344036,0.00980509,0.0117556,1966,862,13.8078,-3.21819
749,162,13.8009,3.34143,0.0201071,0.00332726,-0.0056223,0.0218167,0.00161763,-0.295197,0.0140364,0.0158171,1973,862,13.8009,-3.34141
756,162,13.8147,3.45673,0.0289994,0.00495928,-0.00705457,0.0309167,0.00304203,-0.265365,0.0196757,0.0360796,1980,862,13.8147,-3.45674
763,162,14.0511,3.54315,0.0400782,0.00711929,-0.00866102,0.0422156,0.00498193,-0.241945,0.0266388,0.0482072,1987,862,14.0511,-3.54313
770,162,14.5786,3.43256,0.0535297,0.00992042,-0.010328,0.055852,0.00759811,-0.221178,0.0349781,0.0448881,1994,862,14.5786,-3.43258
777,162,15.231,3.44379,0.0690787,0.0134776,-0.0119143,0.0715242,0.0110321,-0.202442,0.044464,0.0445132,2001,862,15.231,-3.44378
784,162,16.1488,3.06818,0.0860999,0.0179043,-0.0132141,0.0885708,0.0154334,-0.184858,0.0546343,0.042629,2008,862,16.1489,-3.06816
791,162,0,0,0,0,0,0,0,0,0,-1,2015,862,0,0
798,162,0,0,0,0,0,0,0,0,0,-1,2022,862,0,0
805,162,0,0,0,0,0,0,0,0,0,-1,2029,862,0,0
812,162,0,0,0,0,0,0,0,0,0,-1,2036,862,0,0
-700,155,0,0,0,0,0,0,0,0,0,-1,524,869,0,0
-693,155,0,0,0,0,0,0,0,0,0,-1,531,869,0,0
-686,155,0,0,0,0,0,0,0,0,0,-1,538,869,0,0
-679,155,0,0,0,0,0,0,0,0,0,-1,545,869,0,0
-672,155,0,0,0,0,0,0,0,0,0,-1,552,869,0,0
-665,155,-9.51917,-0.0960693,0,0,0,0,0,0,0,-1,559,869,-9.51914,0.096091
-658,155,-9.95575,0.410156,0,0,0,0,0,0,0,-1,566,869,-9.95573,-0.410176
-651,155,-10.2132,3.33478,0,0,0,0,0,0,0,-1,573,869,-10.2132,-3.33479
-644,155,-9.93512,2.94714,0,0,0,0,0,0,0,-1,580,869,-9.93511,-2.94716
-637,155,-9.71954,2.52014,0.0291952,-0.0201908,0.00142793,0.0292364,-0.0202321,0.0288816,0.0287179,0.0463326,587,869,-9.71956,-2.52013
-630,155,-8.54291,1.57477,0.0196723,-0.0169662,0.0023018,0.0198164,-0.0171102,0.0624971,0.0213386,0.0426258,594,869,-8.5429,-1.57479
-623,155,-8.54938,1.34924,0.0125199,-0.0139654,0.00278728,0.0128101,-0.0142555,0.103725,0.0156338,0.0254301,601,869,-8.54936,-1.34923
-616,155,-8.59149,1.18494,0.00746599,-0.0103862,0.00272705,0.00787327,-0.0107935,0.148254,0.0108211,0.0140616,608,869,-8.59148,-1.18491
-609,155,-8.60565,1.0528,0.00392826,-0.00793675,0.00228848,0.00435435,-0.00836284,0.184082,0.00746287,0.012637,615,869,-8.60563,-1.05282
-602,155,-8.62445,0.924622,0.00159932,-0.00598487,0.00205664,0.00212113,-0.00650668,0.248475,0.00519134,0.011035,622,869,-8.62448,-0.924592
-595,155,-8.62952,0.820129,-0.00126411,-0.00429328,0.00210028,-0.000189268,-0.00536813,0.473014,0.00351736,0.0101331,629,869,-8.62953,-0.820158
-588,155,-8.60101,0.725891,-0.00331309,-0.00308185,0.00193571,-0.00125832,-0.00513663,0.815228,0.00309155,0.0113594,636,869,-8.601,-0.725873
-581,155,-8.65753,0.604492,-0.00542514,-0.00223974,0.00220252,-0.00111439,-0.00655048,1.09844,0.004047,0.0152884,643,869,-8.65753,-0.604486
-574,155,-8.71155,0.507263,-0.00678069,-0.00202654,0.00258359,-0.000892861,-0.00791438,1.15729,0.00500525,0.0203507,650,869,-8.71156,-0.507263
-567,155,-8.67065,0.378967,-0.00754094,-0.00182149,0.00271262,-0.000739598,-0.00862283,1.19129,0.00551856,0.0221473,657,869,-8.67063,-0.378955
-560,155,-8.65656,0.200012,-0.00798061,-0.00181401,0.0026156,-0.000854033,-0.00894059,1.21904,0.00569709,0.0229307,664,869,-8.65653,-0.199995
-553,155,-8.70496,0.115601,-0.00850907,-0.00148992,0.00256887,-0.000650214,-0.00934877,1.25487,0.00602748,0.039318,671,869,-8.70498,-0.115621
-546,155,-9.49579,0.411926,-0.00855234,-0.000918619,0.00249006,-0.000178194,-0.00929276,1.28177,0.00613664,0.0429479,678,869,-9.49577,-0.411907
-539,155,-10.1716,0.553772,0,0,0,0,0,0,0,-1,685,869,-10.1716,-0.553762
-532,155,-10.2962,0.598267,-0.00659553,0.000573068,0.00168518,0.000949456,-0.00697192,1.35105,0.0049946,0.0367205,692,869,-10.2962,-0.598257
-525,155,-10.2374,0.703308,-0.00437307,0.00180694,0.000839759,0.00191902,-0.00448514,1.43812,0.0037951,0.0362289,699,869,-10.2374,-0.703333
-518,155,-10.2457,0.570984,-0.000730699,0.00345289,-0.000409955,0.00349269,-0.000770493,-1.47403,0.00262328,0.0420352,706,869,-10.2457,-0.570982
-511,155,-10.087,0.557678,0.0047552,0.00552404,-0.00209808,0.00727263,0.00300661,-0.876006,0.00421979,0.0434706,713,869,-10.087,-0.557706
-504,155,-10.1849,0.564697,0.0123572,0.00790678,-0.00419889,0.0148841,0.00537991,-0.541739,0.00870258,0.0412569,720,869,-10.1849,-0.564702
-497,155,0,0,0,0,0,0,0,0,0,-1,727,869,0,0
-490,155,0,0,0,0,0,0,0,0,0,-1,734,869,0,0
-483,155,0,0,0,0,0,0,0,0,0,-1,741,869,0,0
-476,155,0,0,0,0,0,0,0,0,0,-1,748,869,0,0
-469,155,0,0,0,0,0,0,0,0,0,-1,755,869,0,0
-462,155,0,0,0,0,0,0,0,0,0,-1,762,869,0,0
-455,155,0,0,0,0,0,0,0,0,0,-1,769,869,0,0
-448,155,0,0,0,0,0,0,0,0,0,-1,776,869,0,0
-441,155,0,0,0,0,0,0,0,0,0,-1,783,869,0,0
-434,155,0,0,0,0,0,0,0,0,0,-1,790,869,0,0
-427,155,0,0,0,0,0,0,0,0,0,-1,797,869,0,0
-420,155,0,0,0,0,0,0,0,0,0,-1,804,869,0,0
-413,155,0,0,0,0,0,0,0,0,0,-1,811,869,0,0
-406,155,0,0,0,0,0,0,0,0,0,-1,818,869,0,0
-399,155,0,0,0,0,0,0,0,0,0,-1,825,869,0,0
-392,155,0,0,0,0,0,0,0,0,0,-1,832,869,0,0
-385,155,0,0,0,0,0,0,0,0,0,-1,839,869,0,0
-378,155,0,0,0,0,0,0,0,0,0,-1,846,869,0,0
-371,155,0,0,0,0,0,0,0,0,0,-1,853,869,0,0
-364,155,0,0,0,0,0,0,0,0,0,-1,860,869,0,0
-357,155,0,0,0,0,0,0,0,0,0,-1,867,869,0,0
-350,155,0,0,0,0,0,0,0,0,0,-1,874,869,0,0
-343,155,0,0,0,0,0,0,0,0,0,-1,881,869,0,0
-336,155,0,0,0,0,0,0,0,0,0,-1,888,869,0,0
-329,155,0,0,0,0,0,0,0,0,0,-1,895,869,0,0
-322,155,0,0,0,0,0,0,0,0,0,-1,902,869,0,0
-315,155,0,0,0,0,0,0,0,0,0,-1,909,869,0,0
-308,155,0,0,0,0,0,0,0,0,0,-1,916,869,0,0
-301,155,0,0,0,0,0,0,0,0,0,-1,923,869,0,0
-294,155,0,0,0,0,0,0,0,0,0,-1,930,869,0,0
-287,155,0,0,0,0,0,0,0,0,0,-1,937,869,0,0
-280,155,0,0,0,0,0,0,0,0,0,-1,944,869,0,0
-273,155,0,0,0,0,0,0,0,0,0,-1,951,869,0,0
-266,155,0,0,0,0,0,0,0,0,0,-1,958,869,0,0
-259,155,0,0,0,0,0,0,0,0,0,-1,965,869,0,0
-252,155,0,0,0,0,0,0,0,0,0,-1,972,869,0,0
-245,155,0,0,0,0,0,0,0,0,0,-1,979,869,0,0
-238,155,0,0,0,0,0,0,0,0,0,-1,986,869,0,0
-231,155,0,0,0,0,0,0,0,0,0,-1,993,869,0,0
-224,155,0,0,0,0,0,0,0,0,0,-1,1000,869,0,0
-217,155,0,0,0,0,0,0,0,0,0,-1,1007,869,0,0
-210,155,0,0,0,0,0,0,0,0,0,-1,1014,869,0,0
-203,155,0,0,0,0,0,0,0,0,0,-1,1021,869,0,0
-196,155,0,0,0,0,0,0,0,0,0,-1,1028,869,0,0
-189,155,0,0,0,0,0,0,0,0,0,-1,1035,869,0,0
-182,155,0,0,0,0,0,0,0,0,0,-1,1042,869,0,0
-175,155,0,0,0,0,0,0,0,0,0,-1,1049,869,0,0
-168,155,0,0,0,0,0,0,0,0,0,-1,1056,869,0,0
-161,155,0,0,0,0,0,0,0,0,0,-1,1063,869,0,0
-154,155,0,0,0,0,0,0,0,0,0,-1,1070,869,0,0
-147,155,0,0,0,0,0,0,0,0,0,-1,1077,869,0,0
-140,155,0,0,0,0,0,0,0,0,0,-1,1084,869,0,0
-133,155,0,0,0,0,0,0,0,0,0,-1,1091,869,0,0
-126,155,0,0,0,0,0,0,0,0,0,-1,1098,869,0,0
-119,155,0,0,0,0,0,0,0,0,0,-1,1105,869,0,0
-112,155,0,0,0,0,0,0,0,0,0,-1,1112,869,0,0
-105,155,0,0,0,0,0,0,0,0,0,-1,1119,869,0,0
-98,155,0,0,0,0,0,0,0,0,0,-1,1126,869,0,0
-91,155,0,0,0,0,0,0,0,0,0,-1,1133,869,0,0
-84,155,0,0,0,0,0,0,0,0,0,-1,1140,869,0,0
-77,155,0,0,0,0,0,0,0,0,0,-1,1147,869,0,0
-70,155,0,0,0,0,0,0,0,0,0,-1,1154,869,0,0
-63,155,0,0,0,0,0,0,0,0,0,-1,1161,869,0,0
-56,155,0,0,0,0,0,0,0,0,0,-1,1168,869,0,0
-49,155,0,0,0,0,0,0,0,0,0,-1,1175,869,0,0
-42,155,0,0,0,0,0,0,0,0,0,-1,1182,869,0,0
-35,155,0,0,0,0,0,0,0,0,0,-1,1189,869,0,0
-28,155,0,0,0,0,0,0,0,0,0,-1,1196,869,0,0
-21,155,0,0,0,0,0,0,0,0,0,-1,1203,869,0,0
-14,155,0,0,0,0,0,0,0,0,0,-1,1210,869,0,0
-7,155,0,0,0,0,0,0,0,0,0,-1,1217,869,0,0
0,155,0,0,0,0,0,0,0,0,0,-1,1224,869,0,0
7,155,0,0,0,0,0,0,0,0,0,-1,1231,869,0,0
14,155,0,0,0,0,0,0,0,0,0,-1,1238,869,0,0
21,155,0,0,0,0,0,0,0,0,0,-1,1245,869,0,0
28,155,0,0,0,0,0,0,0,0,0,-1,1252,869,0,0
35,155,0,0,0,0,0,0,0,0,0,-1,1259,869,0,0
42,155,0,0,0,0,0,0,0,0,0,-1,1266,869,0,0
49,155,0,0,0,0,0,0,0,0,0,-1,1273,869,0,0
56,155,0,0,0,0,0,0,0,0,0,-1,1280,869,0,0
63,155,0,0,0,0,0,0,0,0,0,-1,1287,869,0,0
70,155,0,0,0,0,0,0,0,0,0,-1,1294,869,0,0
77,155,0,0,0,0,0,0,0,0,0,-1,1301,869,0,0
84,155,0,0,0,0,0,0,0,0,0,-1,1308,869,0,0
91,155,0,0,0,0,0,0,0,0,0,-1,1315,869,0,0
98,155,0,0,0,0,0,0,0,0,0,-1,1322,869,0,0
105,155,0,0,0,0,0,0,0,0,0,-1,1329,869,0,0
112,155,0,0,0,0,0,0,0,0,0,-1,1336,869,0,0
119,155,0,0,0,0,0,0,0,0,0,-1,1343,869,0,0
126,155,0,0,0,0,0,0,0,0,0,-1,1350,869,0,0
133,155,0,0,0,0,0,0,0,0,0,-1,1357,869,0,0
140,155,0,0,0,0,0,0,0,0,0,-1,1364,869,0,0
147,155,0,0,0,0,0,0,0,0,0,-1,1371,869,0,0
154,155,0,0,0,0,0,0,0,0,0,-1,1378,869,0,0
161,155,0,0,0,0,0,0,0,0,0,-1,1385,869,0,0
168,155,0,0,0,0,0,0,0,0,0,-1,1392,869,0,0
175,155,0,0,0,0,0,0,0,0,0,-1,1399,869,0,0
182,155,0,0,0,0,0,0,0,0,0,-1,1406,869,0,0
189,155,0,0,0,0,0,0,0,0,0,-1,1413,869,0,0
196,155,0,0,0,0,0,0,0,0,0,-1,1420,869,0,0
203,155,0,0,0,0,0,0,0,0,0,-1,1427,869,0,0
210,155,0,0,0,0,0,0,0,0,0,-1,1434,869,0,0
217,155,0,0,0,0,0,0,0,0,0,-1,1441,869,0,0
224,155,0,0,0,0,0,0,0,0,0,-1,1448,869,0,0
231,155,0,0,0,0,0,0,0,0,0,-1,1455,869,0,0
238,155,0,0,0,0,0,0,0,0,0,-1,1462,869,0,0
245,155,0,0,0,0,0,0,0,0,0,-1,1469,869,0,0
252,155,0,0,0,0,0,0,0,0,0,-1,1476,869,0,0
259,155,0,0,0,0,0,0,0,0,0,-1,1483,869,0,0
266,155,0,0,0,0,0,0,0,0,0,-1,1490,869,0,0
273,155,0,0,0,0,0,0,0,0,0,-1,1497,869,0,0
280,155,0,0,0,0,0,0,0,0,0,-1,1504,869,0,0
287,155,0,0,0,0,0,0,0,0,0,-1,1511,869,0,0
294,155,0,0,0,0,0,0,0,0,0,-1,1518,869,0,0
301,155,0,0,0,0,0,0,0,0,0,-1,1525,869,0,0
308,155,0,0,0,0,0,0,0,0,0,-1,1532,869,0,0
315,155,0,0,0,0,0,0,0,0,0,-1,1539,869,0,0
322,155,0,0,0,0,0,0,0,0,0,-1,1546,869,0,0
329,155,0,0,0,0,0,0,0,0,0,-1,1553,869,0,0
336,155,0,0,0,0,0,0,0,0,0,-1,1560,869,0,0
343,155,0,0,0,0,0,0,0,0,0,-1,1567,869,0,0
350,155,0,0,0,0,0,0,0,0,0,-1,1574,869,0,0
357,155,0,0,0,0,0,0,0,0,0,-1,1581,869,0,0
364,155,0,0,0,0,0,0,0,0,0,-1,1588,869,0,0
371,155,0,0,0,0,0,0,0,0,0,-1,1595,869,0,0
378,155,0,0,0,0,0,0,0,0,0,-1,1602,869,0,0
385,155,0,0,0,0,0,0,0,0,0,-1,1609,869,0,0
392,155,0,0,0,0,0,0,0,0,0,-1,1616,869,0,0
399,155,0,0,0,0,0,0,0,0,0,-1,1623,869,0,0
406,155,0,0,0,0,0,0,0,0,0,-1,1630,869,0,0
413,155,0,0,0,0,0,0,0,0,0,-1,1637,869,0,0
420,155,0,0,0,0,0,0,0,0,0,-1,1644,869,0,0
427,155,0,0,0,0,0,0,0,0,0,-1,1651,869,0,0
434,155,0,0,0,0,0,0,0,0,0,-1,1658,869,0,0
441,155,0,0,0,0,0,0,0,0,0,-1,1665,869,0,0
448,155,0,0,0,0,0,0,0,0,0,-1,1672,869,0,0
455,155,0,0,0,0,0,0,0,0,0,-1,1679,869,0,0
462,155,0,0,0,0,0,0,0,0,0,-1,1686,869,0,0
469,155,0,0,0,0,0,0,0,0,0,-1,1693,869,0,0
476,155,0,0,0,0,0,0,0,0,0,-1,1700,869,0,0
483,155,0,0,0,0,0,0,0,0,0,-1,1707,869,0,0
490,155,0,0,0,0,0,0,0,0,0,-1,1714,869,0,0
497,155,0,0,0,0,0,0,0,0,0,-1,1721,869,0,0
504,155,0,0,0,0,0,0,0,0,0,-1,1728,869,0,0
511,155,0,0,0,0,0,0,0,0,0,-1,1735,869,0,0
518,155,0,0,0,0,0,0,0,0,0,-1,1742,869,0,0
525,155,0,0,0,0,0,0,0,0,0,-1,1749,869,0,0
532,155,0,0,0,0,0,0,0,0,0,-1,1756,869,0,0
539,155,0,0,0,0,0,0,0,0,0,-1,1763,869,0,0
546,155,0,0,0,0,0,0,0,0,0,-1,1770,869,0,0
553,155,0,0,0,0,0,0,0,0,0,-1,1777,869,0,0
560,155,0,0,0,0,0,0,0,0,0,-1,1784,869,0,0
567,155,0,0,0,0,0,0,0,0,0,-1,1791,869,0,0
574,155,0,0,0,0,0,0,0,0,0,-1,1798,869,0,0
581,155,0,0,0,0,0,0,0,0,0,-1,1805,869,0,0
588,155,0,0,0,0,0,0,0,0,0,-1,1812,869,0,0
595,155,0,0,0,0,0,0,0,0,0,-1,1819,869,0,0
602,155,0,0,0,0,0,0,0,0,0,-1,1826,869,0,0
609,155,0,0,0,0,0,0,0,0,0,-1,1833,869,0,0
616,155,16.4435,2.32764,-0.0030159,7.83429e-05,-0.00365747,0.00250245,-0.00544001,-0.985487,0.00468896,0.0441175,1840,869,16.4434,-2.32763
623,155,16.433,2.42151,-0.00264454,-0.000525901,-0.00257511,0.00119926,-0.0043697,-0.980533,0.00338447,0.0440659,1847,869,16.433,-2.42153
630,155,16.1991,2.38873,-0.00238061,-0.000887235,-0.00183679,0.000348839,-0.00361668,-0.978454,0.00253541,0.0443982,1854,869,16.1991,-2.38874
637,155,16.2502,2.39813,-0.00227857,-0.00102433,-0.00134664,-0.000165941,-0.00313696,-1.00331,0.00203824,0.0416686,1861,869,16.2502,-2.39811
644,155,16.3387,2.33777,-0.00261509,-0.00110552,-0.00122879,-0.000418218,-0.0033024,-1.06081,0.00207628,0.0379971,1868,869,16.3387,-2.3378
651,155,16.3406,2.3147,-0.00327276,-0.00115077,-0.00132287,-0.000515978,-0.00390755,-1.12339,0.00245121,0.0339499,1875,869,16.3405,-2.31468
658,155,16.2814,2.31714,-0.00379776,-0.00112907,-0.00140713,-0.000524219,-0.00440261,-1.16483,0.00277688,0.028443,1882,869,16.2813,-2.31717
665,155,16.2692,2.34833,-0.00414102,-0.00113082,-0.00155294,-0.00047329,-0.00479855,-1.17028,0.00305352,0.0329753,1889,869,16.2691,-2.34835
672,155,16.2861,2.37891,-0.00450991,-0.00109575,-0.00168707,-0.00040276,-0.0052029,-1.18105,0.00334244,0.0386953,1896,869,16.2861,-2.37892
679,155,14.8854,2.87628,0,0,0,0,0,0,0,-1,1903,869,14.8853,-2.87628
686,155,13.9125,2.25073,0,0,0,0,0,0,0,-1,1910,869,13.9124,-2.25075
693,155,13.9297,2.32275,-0.00510462,-0.000794078,-0.00202682,9.23174e-06,-0.00590793,-1.19345,0.0039417,0.0186207,1917,869,13.9297,-2.32276
700,155,13.9738,2.44556,-0.00502938,-0.00064626,-0.00204222,0.000157774,-0.00583342,-1.19573,0.00394259,0.0152636,1924,869,13.9737,-2.44554
707,155,14.0126,2.61432,-0.00484199,-0.000553027,-0.00214248,0.000333833,-0.00572885,-1.17833,0.00393523,0.0111861,1931,869,14.0126,-2.61433
714,155,13.972,2.67194,-0.0039513,-0.000318699,-0.00229394,0.000790941,-0.00506094,-1.12025,0.00366616,0.0200309,1938,869,13.972,-2.67194
721,155,13.905,2.83435,-0.00159555,-0.000124768,-0.00248255,0.00172902,-0.00344933,-0.929393,0.00304422,0.0248787,1945,869,13.905,-2.83433
728,155,13.9115,2.98749,0.00207392,0.000472789,-0.00274625,0.00413392,-0.00158721,-0.643573,0.00341043,0.0184761,1952,869,13.9116,-2.98749
735,155,13.9244,3.07672,0.00687779,0.00139079,-0.00349094,0.00857428,-0.000305692,-0.452359,0.00582076,0.0146522,1959,869,13.9244,-3.07674
742,155,13.9481,3.21674,0.011973,0.00236879,-0.00422151,0.0135648,0.000777041,-0.360572,0.0087956,0.0155794,1966,869,13.9481,-3.21673
749,155,13.9312,3.35925,0.0179005,0.00365169,-0.00506721,0.0195187,0.00203345,-0.309117,0.0123904,0.0127997,1973,869,13.9311,-3.35923
756,155,13.9393,3.4751,0.0254253,0.00531936,-0.0063187,0.0272462,0.00349849,-0.28057,0.0171176,0.0229529,1980,869,13.9394,-3.4751
763,155,14.2427,3.54688,0.0342846,0.00749615,-0.00774217,0.0363612,0.00541955,-0.262052,0.0226514,0.0420952,1987,869,14.2426,-3.54686
770,155,14.543,3.67584,0.0445113,0.0102951,-0.00920373,0.0468299,0.00797652,-0.246782,0.02893,0.0471071,1994,869,14.543,-3.67586
777,155,15.7228,3.31049,0.0555998,0.0138258,-0.0105716,0.0581228,0.0113028,-0.234271,0.0355844,0.0450145,2001,869,15.7227,-3.31051
784,155,16.6648,3.19543,0.0666206,0.0181942,-0.0116669,0.0692848,0.01553,-0.224508,0.0419819,0.0416441,2008,869,16.6648,-3.19544
791,155,0,0,0,0,0,0,0,0,0,-1,2015,869,0,0
798,155,0,0,0,0,0,0,0,0,0,-1,2022,869,0,0
805,155,0,0,0,0,0,0,0,0,0,-1,2029,869,0,0
812,155,0,0,0,0,0,0,0,0,0,-1,2036,869,0,0
-700,148,0,0,0,0,0,0,0,0,0,-1,524,876,0,0
-693,148,0,0,0,0,0,0,0,0,0,-1,531,876,0,0
-686,148,0,0,0,0,0,0,0,0,0,-1,538,876,0,0
-679,148,0,0,0,0,0,0,0,0,0,-1,545,876,0,0
-672,148,-8.90826,-0.2099,0,0,0,0,0,0,0,-1,552,876,-8.90825,0.209877
-665,148,-9.22717,-0.00292969,0,0,0,0,0,0,0,-1,559,876,-9.22718,0.00290192
-658,148,-10.3447,3.80347,0,0,0,0,0,0,0,-1,566,876,-10.3446,-3.80345
-651,148,-10.0395,3.33459,0,0,0,0,0,0,0,-1,573,876,-10.0395,-3.33462
-644,148,-9.76416,2.88165,0,0,0,0,0,0,0,-1,580,876,-9.76413,-2.88166
-637,148,-9.41425,2.33777,0.0339269,-0.0184024,-0.0027035,0.0340662,-0.0185417,-0.0514805,0.0308109,0.0471145,587,876,-9.41422,-2.33777
-630,148,-8.99445,1.77399,0.0224461,-0.0150273,-0.00116236,0.0224821,-0.0150633,-0.0309787,0.0218175,0.0418418,594,876,-8.99442,-1.774
-623,148,-8.64343,1.3186,0.0133871,-0.0123406,-0.000238178,0.0133893,-0.0123428,-0.00925658,0.0148605,0.0215149,601,876,-8.64342,-1.31862
-616,148,-8.70294,1.17316,0.00744394,-0.00851945,0.000684491,0.00747324,-0.00854874,0.0427742,0.00925724,0.0118814,608,876,-8.70294,-1.17315
-609,148,-8.71283,1.04523,0.00364904,-0.00664606,0.000740786,0.00370207,-0.0066991,0.0714645,0.00608764,0.0106761,615,876,-8.71283,-1.04521
-602,148,-8.73932,0.920776,0.0013354,-0.00505271,0.00105557,0.0015053,-0.00522261,0.15959,0.00407721,0.0107484,622,876,-8.73931,-0.920804
-595,148,-8.75012,0.817139,-0.0015607,-0.00362518,0.00137062,-0.000877093,-0.00430879,0.462652,0.00262938,0.00958873,629,876,-8.75015,-0.817154
-588,148,-8.73962,0.702759,-0.00358104,-0.00263381,0.00140267,-0.00162695,-0.0045879,0.948215,0.00268589,0.0131081,636,876,-8.73965,-0.702746
-581,148,-8.78577,0.598816,-0.0055141,-0.00199892,0.00174779,-0.00127783,-0.0062352,1.1795,0.0038031,0.0193168,643,876,-8.78575,-0.598814
-574,148,-8.71747,0.524902,-0.00674307,-0.00184296,0.00220428,-0.00099732,-0.00758871,1.20448,0.00476165,0.0234375,650,876,-8.71744,-0.524918
-567,148,-8.74054,0.390625,-0.00732336,-0.00170868,0.00231777,-0.000875521,-0.00815652,1.22571,0.00517061,0.0282214,657,876,-8.74052,-0.390643
-560,148,-8.71265,0.214294,-0.00752283,-0.0017011,0.00222421,-0.000948603,-0.00827533,1.24456,0.00522945,0.0281684,664,876,-8.71263,-0.214276
-553,148,-8.88483,0.16394,0,0,0,0,0,0,0,-1,671,876,-8.88482,-0.16396
-546,148,-9.71228,0.556458,0,0,0,0,0,0,0,-1,678,876,-9.7123,-0.556438
-539,148,-10.2693,0.575562,-0.00677425,-0.000308453,0.00181362,0.000165517,-0.00724821,1.31518,0.00488825,0.0371681,685,876,-10.2694,-0.575585
-532,148,-10.2766,0.521179,-0.00522901,0.000550037,0.00131289,0.000834318,-0.00551329,1.35756,0.00398287,0.0367229,692,876,-10.2766,-0.521173
-525,148,-10.2093,0.638794,-0.00267428,0.00176047,0.00046597,0.0018089,-0.00272271,1.46723,0.002634,0.0371004,699,876,-10.2093,-0.638803
-518,148,-10.1406,0.706055,0.00138093,0.0034191,-0.000813151,0.00370376,0.00109627,-1.23406,0.0021969,0.0432488,706,876,-10.1406,-0.706069
-511,148,-10.0428,0.714355,0.00717225,0.00550665,-0.00254501,0.00901725,0.00366165,-0.627275,0.00523664,0.0416453,713,876,-10.0428,-0.71433
-504,148,-10.011,0.674377,0.0148242,0.00789609,-0.00465827,0.0171652,0.00555504,-0.465692,0.0101138,0.042658,720,876,-10.0111,-0.674354
-497,148,0,0,0,0,0,0,0,0,0,-1,727,876,0,0
-490,148,0,0,0,0,0,0,0,0,0,-1,734,876,0,0
-483,148,0,0,0,0,0,0,0,0,0,-1,741,876,0,0
-476,148,0,0,0,0,0,0,0,0,0,-1,748,876,0,0
-469,148,0,0,0,0,0,0,0,0,0,-1,755,876,0,0
-462,148,0,0,0,0,0,0,0,0,0,-1,762,876,0,0
-455,148,0,0,0,0,0,0,0,0,0,-1,769,876,0,0
-448,148,0,0,0,0,0,0,0,0,0,-1,776,876,0,0
-441,148,0,0,0,0,0,0,0,0,0,-1,783,876,0,0
-434,148,0,0,0,0,0,0,0,0,0,-1,790,876,0,0
-427,148,0,0,0,0,0,0,0,0,0,-1,797,876,0,0
-420,148,0,0,0,0,0,0,0,0,0,-1,804,876,0,0
-413,148,0,0,0,0,0,0,0,0,0,-1,811,876,0,0
-406,148,0,0,0,0,0,0,0,0,0,-1,818,876,0,0
-399,148,0,0,0,0,0,0,0,0,0,-1,825,876,0,0
-392,148,0,0,0,0,0,0,0,0,0,-1,832,876,0,0
-385,148,0,0,0,0,0,0,0,0,0,-1,839,876,0,0
-378,148,0,0,0,0,0,0,0,0,0,-1,846,876,0,0
-371,148,0,0,0,0,0,0,0,0,0,-1,853,876,0,0
-364,148,0,0,0,0,0,0,0,0,0,-1,860,876,0,0
-357,148,0,0,0,0,0,0,0,0,0,-1,867,876,0,0
-350,148,0,0,0,0,0,0,0,0,0,-1,874,876,0,0
-343,148,0,0,0,0,0,0,0,0,0,-1,881,876,0,0
-336,148,0,0,0,0,0,0,0,0,0,-1,888,876,0,0
-329,148,0,0,0,0,0,0,0,0,0,-1,895,876,0,0
-322,148,0,0,0,0,0,0,0,0,0,-1,902,876,0,0
-315,148,0,0,0,0,0,0,0,0,0,-1,909,876,0,0
-308,148,0,0,0,0,0,0,0,0,0,-1,916,876,0,0
-301,148,0,0,0,0,0,0,0,0,0,-1,923,876,0,0
-294,148,0,0,0,0,0,0,0,0,0,-1,930,876,0,0
-287,148,0,0,0,0,0,0,0,0,0,-1,937,876,0,0
-280,148,0,0,0,0,0,0,0,0,0,-1,944,876,0,0
-273,148,0,0,0,0,0,0,0,0,0,-1,951,876,0,0
-266,148,0,0,0,0,0,0,0,0,0,-1,958,876,0,0
-259,148,0,0,0,0,0,0,0,0,0,-1,965,876,0,0
-252,148,0,0,0,0,0,0,0,0,0,-1,972,876,0,0
-245,148,0,0,0,0,0,0,0,0,0,-1,979,876,0,0
-238,148,0,0,0,0,0,0,0,0,0,-1,986,876,0,0
-231,148,0,0,0,0,0,0,0,0,0,-1,993,876,0,0
-224,148,0,0,0,0,0,0,0,0,0,-1,1000,876,0,0
-217,148,0,0,0,0,0,0,0,0,0,-1,1007,876,0,0
-210,148,0,0,0,0,0,0,0,0,0,-1,1014,876,0,0
-203,148,0,0,0,0,0,0,0,0,0,-1,1021,876,0,0
-196,148,0,0,0,0,0,0,0,0,0,-1,1028,876,0,0
-189,148,0,0,0,0,0,0,0,0,0,-1,1035,876,0,0
-182,148,0,0,0,0,0,0,0,0,0,-1,1042,876,0,0
-175,148,0,0,0,0,0,0,0,0,0,-1,1049,876,0,0
-168,148,0,0,0,0,0,0,0,0,0,-1,1056,876,0,0
-161,148,0,0,0,0,0,0,0,0,0,-1,1063,876,0,0
-154,148,0,0,0,0,0,0,0,0,0,-1,1070,876,0,0
-147,148,0,0,0,0,0,0,0,0,0,-1,1077,876,0,0
-140,148,0,0,0,0,0,0,0,0,0,-1,1084,876,0,0
-133,148,0,0,0,0,0,0,0,0,0,-1,1091,876,0,0
-126,148,0,0,0,0,0,0,0,0,0,-1,1098,876,0,0
-119,148,0,0,0,0,0,0,0,0,0,-1,1105,876,0,0
-112,148,0,0,0,0,0,0,0,0,0,-1,1112,876,0,0
-105,148,0,0,0,0,0,0,0,0,0,-1,1119,876,0,0
-98,148,0,0,0,0,0,0,0,0,0,-1,1126,876,0,0
-91,148,0,0,0,0,0,0,0,0,0,-1,1133,876,0,0
-84,148,0,0,0,0,0,0,0,0,0,-1,1140,876,0,0
-77,148,0,0,0,0,0,0,0,0,0,-1,1147,876,0,0
-70,148,0,0,0,0,0,0,0,0,0,-1,1154,876,0,0
-63,148,0,0,0,0,0,0,0,0,0,-1,1161,876,0,0
-56,148,0,0,0,0,0,0,0,0,0,-1,1168,876,0,0
-49,148,0,0,0,0,0,0,0,0,0,-1,1175,876,0,0
-42,148,0,0,0,0,0,0,0,0,0,-1,1182,876,0,0
-35,148,0,0,0,0,0,0,0,0,0,-1,1189,876,0,0
-28,148,0,0,0,0,0,0,0,0,0,-1,1196,876,0,0
-21,148,0,0,0,0,0,0,0,0,0,-1,1203,876,0,0
-14,148,0,0,0,0,0,0,0,0,0,-1,1210,876,0,0
-7,148,0,0,0,0,0,0,0,0,0,-1,1217,876,0,0
0,148,0,0,0,0,0,0,0,0,0,-1,1224,876,0,0
7,148,0,0,0,0,0,0,0,0,0,-1,1231,876,0,0
14,148,0,0,0,0,0,0,0,0,0,-1,1238,876,0,0
21,148,0,0,0,0,0,0,0,0,0,-1,1245,876,0,0
28,148,0,0,0,0,0,0,0,0,0,-1,1252,876,0,0
35,148,0,0,0,0,0,0,0,0,0,-1,1259,876,0,0
42,148,0,0,0,0,0,0,0,0,0,-1,1266,876,0,0
49,148,0,0,0,0,0,0,0,0,0,-1,1273,876,0,0
56,148,0,0,0,0,0,0,0,0,0,-1,1280,876,0,0
63,148,0,0,0,0,0,0,0,0,0,-1,1287,876,0,0
70,148,0,0,0,0,0,0,0,0,0,-1,1294,876,0,0
77,148,0,0,0,0,0,0,0,0,0,-1,1301,876,0,0
84,148,0,0,0,0,0,0,0,0,0,-1,1308,876,0,0
91,148,0,0,0,0,0,0,0,0,0,-1,1315,876,0,0
98,148,0,0,0,0,0,0,0,0,0,-1,1322,876,0,0
105,148,0,0,0,0,0,0,0,0,0,-1,1329,876,0,0
112,148,0,0,0,0,0,0,0,0,0,-1,1336,876,0,0
119,148,0,0,0,0,0,0,0,0,0,-1,1343,876,0,0
126,148,0,0,0,0,0,0,0,0,0,-1,1350,876,0,0
133,148,0,0,0,0,0,0,0,0,0,-1,1357,876,0,0
140,148,0,0,0,0,0,0,0,0,0,-1,1364,876,0,0
147,148,0,0,0,0,0,0,0,0,0,-1,1371,876,0,0
154,148,0,0,0,0,0,0,0,0,0,-1,1378,876,0,0
161,148,0,0,0,0,0,0,0,0,0,-1,1385,876,0,0
168,148,0,0,0,0,0,0,0,0,0,-1,1392,876,0,0
175,148,0,0,0,0,0,0,0,0,0,-1,1399,876,0,0
182,148,0,0,0,0,0,0,0,0,0,-1,1406,876,0,0
189,148,0,0,0,0,0,0,0,0,0,-1,1413,876,0,0
196,148,0,0,0,0,0,0,0,0,0,-1,1420,876,0,0
203,148,0,0,0,0,0,0,0,0,0,-1,1427,876,0,0
210,148,0,0,0,0,0,0,0,0,0,-1,1434,876,0,0
217,148,0,0,0,0,0,0,0,0,0,-1,1441,876,0,0
224,148,0,0,0,0,0,0,0,0,0,-1,1448,876,0,0
231,148,0,0,0,0,0,0,0,0,0,-1,1455,876,0,0
238,148,0,0,0,0,0,0,0,0,0,-1,1462,876,0,0
245,148,0,0,0,0,0,0,0,0,0,-1,1469,876,0,0
252,148,0,0,0,0,0,0,0,0,0,-1,1476,876,0,0
259,148,0,0,0,0,0,0,0,0,0,-1,1483,876,0,0
266,148,0,0,0,0,0,0,0,0,0,-1,1490,876,0,0
273,148,0,0,0,0,0,0,0,0,0,-1,1497,876,0,0
280,148,0,0,0,0,0,0,0,0,0,-1,1504,876,0,0
287,148,0,0,0,0,0,0,0,0,0,-1,1511,876,0,0
294,148,0,0,0,0,0,0,0,0,0,-1,1518,876,0,0
301,148,0,0,0,0,0,0,0,0,0,-1,1525,876,0,0
308,148,0,0,0,0,0,0,0,0,0,-1,1532,876,0,0
315,148,0,0,0,0,0,0,0,0,0,-1,1539,876,0,0
322,148,0,0,0,0,0,0,0,0,0,-1,1546,876,0,0
329,148,0,0,0,0,0,0,0,0,0,-1,1553,876,0,0
336,148,0,0,0,0,0,0,0,0,0,-1,1560,876,0,0
343,148,0,0,0,0,0,0,0,0,0,-1,1567,876,0,0
350,148,0,0,0,0,0,0,0,0,0,-1,1574,876,0,0
357,148,0,0,0,0,0,0,0,0,0,-1,1581,876,0,0
364,148,0,0,0,0,0,0,0,0,0,-1,1588,876,0,0
371,148,0,0,0,0,0,0,0,0,0,-1,1595,876,0,0
378,148,0,0,0,0,0,0,0,0,0,-1,1602,876,0,0
385,148,0,0,0,0,0,0,0,0,0,-1,1609,876,0,0
392,148,0,0,0,0,0,0,0,0,0,-1,1616,876,0,0
399,148,0,0,0,0,0,0,0,0,0,-1,1623,876,0,0
406,148,0,0,0,0,0,0,0,0,0,-1,1630,876,0,0
413,148,0,0,0,0,0,0,0,0,0,-1,1637,876,0,0
420,148,0,0,0,0,0,0,0,0,0,-1,1644,876,0,0
427,148,0,0,0,0,0,0,0,0,0,-1,1651,876,0,0
434,148,0,0,0,0,0,0,0,0,0,-1,1658,876,0,0
441,148,0,0,0,0,0,0,0,0,0,-1,1665,876,0,0
448,148,0,0,0,0,0,0,0,0,0,-1,1672,876,0,0
455,148,0,0,0,0,0,0,0,0,0,-1,1679,876,0,0
462,148,0,0,0,0,0,0,0,0,0,-1,1686,876,0,0
469,148,0,0,0,0,0,0,0,0,0,-1,1693,876,0,0
476,148,0,0,0,0,0,0,0,0,0,-1,1700,876,0,0
483,148,0,0,0,0,0,0,0,0,0,-1,1707,876,0,0
490,148,0,0,0,0,0,0,0,0,0,-1,1714,876,0,0
497,148,0,0,0,0,0,0,0,0,0,-1,1721,876,0,0
504,148,0,0,0,0,0,0,0,0,0,-1,1728,876,0,0
511,148,0,0,0,0,0,0,0,0,0,-1,1735,876,0,0
518,148,0,0,0,0,0,0,0,0,0,-1,1742,876,0,0
525,148,0,0,0,0,0,0,0,0,0,-1,1749,876,0,0
532,148,0,0,0,0,0,0,0,0,0,-1,1756,876,0,0
539,148,0,0,0,0,0,0,0,0,0,-1,1763,876,0,0
546,148,0,0,0,0,0,0,0,0,0,-1,1770,876,0,0
553,148,0,0,0,0,0,0,0,0,0,-1,1777,876,0,0
560,148,0,0,0,0,0,0,0,0,0,-1,1784,876,0,0
567,148,0,0,0,0,0,0,0,0,0,-1,1791,876,0,0
574,148,0,0,0,0,0,0,0,0,0,-1,1798,876,0,0
581,148,0,0,0,0,0,0,0,0,0,-1,1805,876,0,0
588,148,0,0,0,0,0,0,0,0,0,-1,1812,876,0,0
595,148,0,0,0,0,0,0,0,0,0,-1,1819,876,0,0
602,148,0,0,0,0,0,0,0,0,0,-1,1826,876,0,0
609,148,0,0,0,0,0,0,0,0,0,-1,1833,876,0,0
616,148,0,0,0,0,0,0,0,0,0,-1,1840,876,0,0
623,148,16.5336,2.74463,-0.00240825,5.58051e-06,-0.00251742,0.00159045,-0.00399312,-1.00892,0.00332167,0.0407825,1847,876,16.5336,-2.74466
630,148,16.1384,2.50183,-0.00214223,-0.000529258,-0.00181982,0.000654778,-0.00332627,-0.993977,0.00246493,0.0425331,1854,876,16.1385,-2.50182
637,148,16.2206,2.36536,-0.00205821,-0.000780757,-0.00133903,6.40815e-05,-0.00290305,-1.00794,0.00195707,0.0373107,1861,876,16.2206,-2.36535
644,148,16.2482,2.31573,-0.00241472,-0.000951495,-0.00118756,-0.000288274,-0.00307794,-1.06147,0.00196294,0.0355571,1868,876,16.2482,-2.31572
651,148,16.2432,2.19861,-0.00329756,-0.00106607,-0.00131927,-0.000453998,-0.00390964,-1.1364,0.00246905,0.0381176,1875,876,16.2432,-2.19859
658,148,16.2897,2.41028,-0.00411232,-0.00108747,-0.00146429,-0.000494771,-0.00470503,-1.18618,0.00298546,0.0320721,1882,876,16.2897,-2.41029
665,148,16.2434,2.41284,-0.00471091,-0.00110918,-0.00164311,-0.000472232,-0.00534785,-1.20098,0.00341871,0.0238059,1889,876,16.2434,-2.41283
672,148,16.2931,2.33826,-0.00526395,-0.00109075,-0.00179875,-0.000422467,-0.00593224,-1.21507,0.0038218,0.0299832,1896,876,16.2931,-2.33824
679,148,16.2323,2.41864,-0.00557456,-0.00104812,-0.00188008,-0.000369088,-0.0062536,-1.2242,0.00405164,0.0497958,1903,876,16.2323,-2.41864
686,148,14.1212,2.33038,0,0,0,0,0,0,0,-1,1910,876,14.1212,-2.33036
693,148,14.0609,2.37189,-0.00626176,-0.000856729,-0.00216589,-9.5912e-05,-0.00702258,-1.23299,0.00465008,0.0268584,1917,876,14.0609,-2.3719
700,148,14.1196,2.49011,-0.00620113,-0.000681299,-0.0021692,6.91337e-05,-0.00695156,-1.23773,0.00465759,0.0145015,1924,876,14.1196,-2.49012
707,148,14.1602,2.65747,-0.00584539,-0.000581117,-0.0022376,0.000241456,-0.00666796,-1.21852,0.00452794,0.0123099,1931,876,14.1602,-2.65744
714,148,14.1427,2.72186,-0.00473917,-0.000307712,-0.00232224,0.00068627,-0.00573315,-1.16636,0.00407019,0.0128398,1938,876,14.1428,-2.72188
721,148,14.0636,2.82123,-0.00236689,-8.63841e-05,-0.00241934,0.00144794,-0.00390122,-1.00561,0.00319477,0.017188,1945,876,14.0636,-2.82121
728,148,14.0533,2.94385,0.0012465,0.000552458,-0.00261583,0.00353823,-0.00173927,-0.719453,0.00310541,0.0196683,1952,876,14.0533,-2.94382
735,148,14.0559,3.07813,0.00595864,0.00150534,-0.00326169,0.00768125,-0.000217264,-0.485899,0.00519477,0.0174341,1959,876,14.0559,-3.07814
742,148,14.068,3.24329,0.0107726,0.00255413,-0.00386905,0.0123074,0.00101931,-0.377652,0.00788716,0.0182897,1966,876,14.068,-3.24327
749,148,14.0647,3.36346,0.0160419,0.00411226,-0.00470879,0.0176765,0.00247762,-0.334131,0.0110514,0.0149688,1973,876,14.0646,-3.36346
756,148,14.0724,3.46588,0.0224747,0.00598961,-0.00595374,0.0244001,0.00406424,-0.312775,0.0150954,0.0194901,1980,876,14.0724,-3.46588
763,148,14.3857,3.43921,0.0295197,0.00845369,-0.00745657,0.0318919,0.00608148,-0.308012,0.019552,0.0407439,1987,876,14.3857,-3.43923
770,148,14.7386,3.49585,0.0371605,0.0116542,-0.00909875,0.0400735,0.00874113,-0.309848,0.0243311,0.0448512,1994,876,14.7387,-3.49583
777,148,14.6215,3.56433,0.0448304,0.0157391,-0.0107984,0.0484005,0.012169,-0.319302,0.0290724,0.0445316,2001,876,14.6215,-3.56436
784,148,15.0076,2.14447,0.0515184,0.0208617,-0.0124376,0.0559296,0.0164504,-0.340829,0.0331908,0.0428045,2008,876,15.0076,-2.14446
791,148,15.0614,2.54675,0,0,0,0,0,0,0,-1,2015,876,15.0614,-2.54676
798,148,0,0,0,0,0,0,0,0,0,-1,2022,876,0,0
805,148,0,0,0,0,0,0,0,0,0,-1,2029,876,0,0
812,148,0,0,0,0,0,0,0,0,0,-1,2036,876,0,0
-700,141,0,0,0,0,0,0,0,0,0,-1,524,883,0,0
-693,141,0,0,0,0,0,0,0,0,0,-1,531,883,0,0
-686,141,0,0,0,0,0,0,0,0,0,-1,538,883,0,0
-679,141,0,0,0,0,0,0,0,0,0,-1,545,883,0,0
-672,141,-8.57751,0.126892,0,0,0,0,0,0,0,-1,552,883,-8.57754,-0.126886
-665,141,-8.58441,-0.0913696,0,0,0,0,0,0,0,-1,559,883,-8.58444,0.0913995
-658,141,-8.58307,-0.263977,0,0,0,0,0,0,0,-1,566,883,-8.58308,0.263974
-651,141,-9.86578,3.33447,0,0,0,0,0,0,0,-1,573,883,-9.86578,-3.33446
-644,141,-9.59314,2.81616,0,0,0,0,0,0,0,-1,580,883,-9.59316,-2.81616
-637,141,-9.28137,2.2832,0,0,0,0,0,0,0,-1,587,883,-9.28138,-2.2832
-630,141,-8.90082,1.94489,0.0243744,-0.0126145,-0.00280619,0.0245861,-0.0128262,-0.0752915,0.0219528,0.0370475,594,883,-8.90081,-1.9449
-623,141,-8.73566,1.27576,0.0144609,-0.0102572,-0.00171046,0.0145787,-0.010375,-0.0687619,0.014475,0.0203661,601,883,-8.73563,-1.27578
-616,141,-8.81927,1.13971,0.00787428,-0.00650536,-0.000382102,0.00788443,-0.0065155,-0.0265475,0.00832632,0.0112759,608,883,-8.81925,-1.13974
-609,141,-8.81519,1.02557,0.00373077,-0.00524198,-0.000161776,0.00373368,-0.0052449,-0.0180219,0.00520821,0.0120165,615,883,-8.81516,-1.02556
-602,141,-8.84021,0.924011,0.00129716,-0.00402302,0.000430333,0.00133174,-0.0040576,0.0801923,0.00324149,0.0115133,622,883,-8.84021,-0.924009
-595,141,-8.85034,0.828735,-0.00167714,-0.00293093,0.000873621,-0.00122876,-0.0033793,0.474184,0.00197509,0.0104457,629,883,-8.85032,-0.828755
-588,141,-8.9422,0.726868,-0.00367276,-0.00220925,0.00100616,-0.00169688,-0.00418512,1.0998,0.00243064,0.0155339,636,883,-8.94222,-0.726854
-581,141,-8.94226,0.636169,-0.00548968,-0.00178798,0.00136541,-0.00133883,-0.00593883,1.253,0.00359698,0.0198429,643,883,-8.94225,-0.636142
-574,141,-8.81091,0.579285,-0.00667382,-0.00171235,0.00181476,-0.00111943,-0.00726675,1.25501,0.00451782,0.0217707,650,883,-8.81094,-0.579261
-567,141,-8.80103,0.521912,-0.00709271,-0.0016494,0.00194188,-0.00102766,-0.00771445,1.26093,0.00483694,0.0255848,657,883,-8.801,-0.521899
-560,141,-8.89319,0.521179,-0.0070681,-0.00164129,0.00189694,-0.00104396,-0.00766542,1.26574,0.00480028,0.0319434,664,883,-8.8932,-0.521196
-553,141,-9.54224,0.760986,0,0,0,0,0,0,0,-1,671,883,-9.54224,-0.760987
-546,141,-10.2283,0.718079,0,0,0,0,0,0,0,-1,678,883,-10.2283,-0.718077
-539,141,-10.2162,0.566772,-0.00567875,-0.000332956,0.00155349,8.56998e-05,-0.00609741,1.30756,0.0040938,0.0301881,685,883,-10.2163,-0.566792
-532,141,-10.2661,0.497559,-0.00387645,0.000504075,0.00108301,0.000757205,-0.00412958,1.34119,0.00303709,0.0298327,692,883,-10.2661,-0.497586
-525,141,-10.251,0.533997,-0.00101648,0.00170064,0.000269988,0.00172721,-0.00104305,1.47271,0.00161559,0.037036,699,883,-10.251,-0.534004
-518,141,-10.2114,0.554382,0.00335979,0.00338884,-0.000991704,0.00436612,0.0023825,-0.79272,0.00252429,0.0415375,706,883,-10.2114,-0.554389
-511,141,-10.3011,0.579285,0.00917516,0.00551049,-0.00269648,0.010603,0.00408269,-0.486971,0.00617531,0.0401124,713,883,-10.3012,-0.579274
-504,141,-10.2925,0.520874,0.0164476,0.00797853,-0.00475652,0.0185814,0.00584473,-0.421693,0.0109712,0.0424451,720,883,-10.2925,-0.520868
-497,141,0,0,0,0,0,0,0,0,0,-1,727,883,0,0
-490,141,0,0,0,0,0,0,0,0,0,-1,734,883,0,0
-483,141,0,0,0,0,0,0,0,0,0,-1,741,883,0,0
-476,141,0,0,0,0,0,0,0,0,0,-1,748,883,0,0
-469,141,0,0,0,0,0,0,0,0,0,-1,755,883,0,0
-462,141,0,0,0,0,0,0,0,0,0,-1,762,883,0,0
-455,141,0,0,0,0,0,0,0,0,0,-1,769,883,0,0
-448,141,0,0,0,0,0,0,0,0,0,-1,776,883,0,0
-441,141,0,0,0,0,0,0,0,0,0,-1,783,883,0,0
-434,141,0,0,0,0,0,0,0,0,0,-1,790,883,0,0
-427,141,0,0,0,0,0,0,0,0,0,-1,797,883,0,0
-420,141,0,0,0,0,0,0,0,0,0,-1,804,883,0,0
-413,141,0,0,0,0,0,0,0,0,0,-1,811,883,0,0
-406,141,0,0,0,0,0,0,0,0,0,-1,818,883,0,0
-399,141,0,0,0,0,0,0,0,0,0,-1,825,883,0,0
-392,141,0,0,0,0,0,0,0,0,0,-1,832,883,0,0
-385,141,0,0,0,0,0,0,0,0,0,-1,839,883,0,0
-378,141,0,0,0,0,0,0,0,0,0,-1,846,883,0,0
-371,141,0,0,0,0,0,0,0,0,0,-1,853,883,0,0
-364,141,0,0,0,0,0,0,0,0,0,-1,860,883,0,0
-357,141,0,0,0,0,0,0,0,0,0,-1,867,883,0,0
-350,141,0,0,0,0,0,0,0,0,0,-1,874,883,0,0
-343,141,0,0,0,0,0,0,0,0,0,-1,881,883,0,0
-336,141,0,0,0,0,0,0,0,0,0,-1,888,883,0,0
-329,141,0,0,0,0,0,0,0,0,0,-1,895,883,0,0
-322,141,0,0,0,0,0,0,0,0,0,-1,902,883,0,0
-315,141,0,0,0,0,0,0,0,0,0,-1,909,883,0,0
-308,141,0,0,0,0,0,0,0,0,0,-1,916,883,0,0
-301,141,0,0,0,0,0,0,0,0,0,-1,923,883,0,0
-294,141,0,0,0,0,0,0,0,0,0,-1,930,883,0,0
-287,141,0,0,0,0,0,0,0,0,0,-1,937,883,0,0
-280,141,0,0,0,0,0,0,0,0,0,-1,944,883,0,0
-273,141,0,0,0,0,0,0,0,0,0,-1,951,883,0,0
-266,141,0,0,0,0,0,0,0,0,0,-1,958,883,0,0
-259,141,0,0,0,0,0,0,0,0,0,-1,965,883,0,0
-252,141,0,0,0,0,0,0,0,0,0,-1,972,883,0,0
-245,141,0,0,0,0,0,0,0,0,0,-1,979,883,0,0
-238,141,0,0,0,0,0,0,0,0,0,-1,986,883,0,0
-231,141,0,0,0,0,0,0,0,0,0,-1,993,883,0,0
-224,141,0,0,0,0,0,0,0,0,0,-1,1000,883,0,0
-217,141,0,0,0,0,0,0,0,0,0,-1,1007,883,0,0
-210,141,0,0,0,0,0,0,0,0,0,-1,1014,883,0,0
-203,141,0,0,0,0,0,0,0,0,0,-1,1021,883,0,0
-196,141,0,0,0,0,0,0,0,0,0,-1,1028,883,0,0
-189,141,0,0,0,0,0,0,0,0,0,-1,1035,883,0,0
-182,141,0,0,0,0,0,0,0,0,0,-1,1042,883,0,0
-175,141,0,0,0,0,0,0,0,0,0,-1,1049,883,0,0
-168,141,0,0,0,0,0,0,0,0,0,-1,1056,883,0,0
-161,141,0,0,0,0,0,0,0,0,0,-1,1063,883,0,0
-154,141,0,0,0,0,0,0,0,0,0,-1,1070,883,0,0
-147,141,0,0,0,0,0,0,0,0,0,-1,1077,883,0,0
-140,141,0,0,0,0,0,0,0,0,0,-1,1084,883,0,0
-133,141,0,0,0,0,0,0,0,0,0,-1,1091,883,0,0
-126,141,0,0,0,0,0,0,0,0,0,-1,1098,883,0,0
-119,141,0,0,0,0,0,0,0,0,0,-1,1105,883,0,0
-112,141,0,0,0,0,0,0,0,0,0,-1,1112,883,0,0
-105,141,0,0,0,0,0,0,0,0,0,-1,1119,883,0,0
-98,141,0,0,0,0,0,0,0,0,0,-1,1126,883,0,0
-91,141,0,0,0,0,0,0,0,0,0,-1,1133,883,0,0
-84,141,0,0,0,0,0,0,0,0,0,-1,1140,883,0,0
-77,141,0,0,0,0,0,0,0,0,0,-1,1147,883,0,0
-70,141,0,0,0,0,0,0,0,0,0,-1,1154,883,0,0
-63,141,0,0,0,0,0,0,0,0,0,-1,1161,883,0,0
-56,141,0,0,0,0,0,0,0,0,0,-1,1168,883,0,0
-49,141,0,0,0,0,0,0,0,0,0,-1,1175,883,0,0
-42,141,0,0,0,0,0,0,0,0,0,-1,1182,883,0,0
-35,141,0,0,0,0,0,0,0,0,0,-1,1189,883,0,0
-28,141,0,0,0,0,0,0,0,0,0,-1,1196,883,0,0
-21,141,0,0,0,0,0,0,0,0,0,-1,1203,883,0,0
-14,141,0,0,0,0,0,0,0,0,0,-1,1210,883,0,0
-7,141,0,0,0,0,0,0,0,0,0,-1,1217,883,0,0
0,141,0,0,0,0,0,0,0,0,0,-1,1224,883,0,0
7,141,0,0,0,0,0,0,0,0,0,-1,1231,883,0,0
14,141,0,0,0,0,0,0,0,0,0,-1,1238,883,0,0
21,141,0,0,0,0,0,0,0,0,0,-1,1245,883,0,0
28,141,0,0,0,0,0,0,0,0,0,-1,1252,883,0,0
35,141,0,0,0,0,0,0,0,0,0,-1,1259,883,0,0
42,141,0,0,0,0,0,0,0,0,0,-1,1266,883,0,0
49,141,0,0,0,0,0,0,0,0,0,-1,1273,883,0,0
56,141,0,0,0,0,0,0,0,0,0,-1,1280,883,0,0
63,141,0,0,0,0,0,0,0,0,0,-1,1287,883,0,0
70,141,0,0,0,0,0,0,0,0,0,-1,1294,883,0,0
77,141,0,0,0,0,0,0,0,0,0,-1,1301,883,0,0
84,141,0,0,0,0,0,0,0,0,0,-1,1308,883,0,0
91,141,0,0,0,0,0,0,0,0,0,-1,1315,883,0,0
98,141,0,0,0,0,0,0,0,0,0,-1,1322,883,0,0
105,141,0,0,0,0,0,0,0,0,0,-1,1329,883,0,0
112,141,0,0,0,0,0,0,0,0,0,-1,1336,883,0,0
119,141,0,0,0,0,0,0,0,0,0,-1,1343,883,0,0
126,141,0,0,0,0,0,0,0,0,0,-1,1350,883,0,0
133,141,0,0,0,0,0,0,0,0,0,-1,1357,883,0,0
140,141,0,0,0,0,0,0,0,0,0,-1,1364,883,0,0
147,141,0,0,0,0,0,0,0,0,0,-1,1371,883,0,0
154,141,0,0,0,0,0,0,0,0,0,-1,1378,883,0,0
161,141,0,0,0,0,0,0,0,0,0,-1,1385,883,0,0
168,141,0,0,0,0,0,0,0,0,0,-1,1392,883,0,0
175,141,0,0,0,0,0,0,0,0,0,-1,1399,883,0,0
182,141,0,0,0,0,0,0,0,0,0,-1,1406,883,0,0
189,141,0,0,0,0,0,0,0,0,0,-1,1413,883,0,0
196,141,0,0,0,0,0,0,0,0,0,-1,1420,883,0,0
203,141,0,0,0,0,0,0,0,0,0,-1,1427,883,0,0
210,141,0,0,0,0,0,0,0,0,0,-1,1434,883,0,0
217,141,0,0,0,0,0,0,0,0,0,-1,1441,883,0,0
224,141,0,0,0,0,0,0,0,0,0,-1,1448,883,0,0
231,141,0,0,0,0,0,0,0,0,0,-1,1455,883,0,0
238,141,0,0,0,0,0,0,0,0,0,-1,1462,883,0,0
245,141,0,0,0,0,0,0,0,0,0,-1,1469,883,0,0
252,141,0,0,0,0,0,0,0,0,0,-1,1476,883,0,0
259,141,0,0,0,0,0,0,0,0,0,-1,1483,883,0,0
266,141,0,0,0,0,0,0,0,0,0,-1,1490,883,0,0
273,141,0,0,0,0,0,0,0,0,0,-1,1497,883,0,0
280,141,0,0,0,0,0,0,0,0,0,-1,1504,883,0,0
287,141,0,0,0,0,0,0,0,0,0,-1,1511,883,0,0
294,141,0,0,0,0,0,0,0,0,0,-1,1518,883,0,0
301,141,0,0,0,0,0,0,0,0,0,-1,1525,883,0,0
308,141,0,0,0,0,0,0,0,0,0,-1,1532,883,0,0
315,141,0,0,0,0,0,0,0,0,0,-1,1539,883,0,0
322,141,0,0,0,0,0,0,0,0,0,-1,1546,883,0,0
329,141,0,0,0,0,0,0,0,0,0,-1,1553,883,0,0
336,141,0,0,0,0,0,0,0,0,0,-1,1560,883,0,0
343,141,0,0,0,0,0,0,0,0,0,-1,1567,883,0,0
350,141,0,0,0,0,0,0,0,0,0,-1,1574,883,0,0
357,141,0,0,0,0,0,0,0,0,0,-1,1581,883,0,0
364,141,0,0,0,0,0,0,0,0,0,-1,1588,883,0,0
371,141,0,0,0,0,0,0,0,0,0,-1,1595,883,0,0
378,141,0,0,0,0,0,0,0,0,0,-1,1602,883,0,0
385,141,0,0,0,0,0,0,0,0,0,-1,1609,883,0,0
392,141,0,0,0,0,0,0,0,0,0,-1,1616,883,0,0
399,141,0,0,0,0,0,0,0,0,0,-1,1623,883,0,0
406,141,0,0,0,0,0,0,0,0,0,-1,1630,883,0,0
413,141,0,0,0,0,0,0,0,0,0,-1,1637,883,0,0
420,141,0,0,0,0,0,0,0,0,0,-1,1644,883,0,0
427,141,0,0,0,0,0,0,0,0,0,-1,1651,883,0,0
434,141,0,0,0,0,0,0,0,0,0,-1,1658,883,0,0
441,141,0,0,0,0,0,0,0,0,0,-1,1665,883,0,0
448,141,0,0,0,0,0,0,0,0,0,-1,1672,883,0,0
455,141,0,0,0,0,0,0,0,0,0,-1,1679,883,0,0
462,141,0,0,0,0,0,0,0,0,0,-1,1686,883,0,0
469,141,0,0,0,0,0,0,0,0,0,-1,1693,883,0,0
476,141,0,0,0,0,0,0,0,0,0,-1,1700,883,0,0
483,141,0,0,0,0,0,0,0,0,0,-1,1707,883,0,0
490,141,0,0,0,0,0,0,0,0,0,-1,1714,883,0,0
497,141,0,0,0,0,0,0,0,0,0,-1,1721,883,0,0
504,141,0,0,0,0,0,0,0,0,0,-1,1728,883,0,0
511,141,0,0,0,0,0,0,0,0,0,-1,1735,883,0,0
518,141,0,0,0,0,0,0,0,0,0,-1,1742,883,0,0
525,141,0,0,0,0,0,0,0,0,0,-1,1749,883,0,0
532,141,0,0,0,0,0,0,0,0,0,-1,1756,883,0,0
539,141,0,0,0,0,0,0,0,0,0,-1,1763,883,0,0
546,141,0,0,0,0,0,0,0,0,0,-1,1770,883,0,0
553,141,0,0,0,0,0,0,0,0,0,-1,1777,883,0,0
560,141,0,0,0,0,0,0,0,0,0,-1,1784,883,0,0
567,141,0,0,0,0,0,0,0,0,0,-1,1791,883,0,0
574,141,0,0,0,0,0,0,0,0,0,-1,1798,883,0,0
581,141,0,0,0,0,0,0,0,0,0,-1,1805,883,0,0
588,141,0,0,0,0,0,0,0,0,0,-1,1812,883,0,0
595,141,0,0,0,0,0,0,0,0,0,-1,1819,883,0,0
602,141,0,0,0,0,0,0,0,0,0,-1,1826,883,0,0
609,141,0,0,0,0,0,0,0,0,0,-1,1833,883,0,0
616,141,0,0,0,0,0,0,0,0,0,-1,1840,883,0,0
623,141,16.3884,2.44043,-0.00160759,0.000993978,-0.00188028,0.00197957,-0.00259318,-1.088,0.00264799,0.0446445,1847,883,16.3884,-2.44042
630,141,16.3219,2.32776,-0.00159339,0.000211374,-0.00135084,0.000933514,-0.00231553,-1.07987,0.00193157,0.0456668,1854,883,16.3219,-2.32776
637,141,16.3368,2.3103,-0.00167227,-0.000220324,-0.00099929,0.000288863,-0.00218145,-1.09954,0.00155953,0.0416172,1861,883,16.3368,-2.31028
644,141,16.2899,2.34442,-0.00204978,-0.000544256,-0.000884266,-0.000135735,-0.0024583,-1.13802,0.00159555,0.0373112,1868,883,16.2899,-2.34442
651,141,16.2008,2.45898,-0.00316784,-0.000768714,-0.00111552,-0.000330187,-0.00360637,-1.19624,0.00230209,0.0394495,1875,883,16.2008,-2.45898
658,141,16.2799,2.54578,-0.00434433,-0.000869865,-0.00138122,-0.000387698,-0.0048265,-1.23493,0.00309653,0.0350143,1882,883,16.2799,-2.5458
665,141,16.2303,2.43121,-0.00525761,-0.000949424,-0.00162937,-0.000402598,-0.00580444,-1.247,0.00374265,0.0249321,1889,883,16.2303,-2.43119
672,141,16.2286,2.40491,-0.00603184,-0.000973999,-0.00183158,-0.000380401,-0.00662544,-1.25739,0.00429578,0.0221263,1896,883,16.2287,-2.40493
679,141,16.1971,2.41425,-0.00648864,-0.000973904,-0.00194651,-0.000356073,-0.00710647,-1.26345,0.00462353,0.0270721,1903,883,16.1972,-2.41426
686,141,14.5236,2.74146,0,0,0,0,0,0,0,-1,1910,883,14.5236,-2.74147
693,141,14.2775,2.59851,-0.00745336,-0.000875755,-0.00225812,-0.000175156,-0.00815396,-1.26996,0.00537854,0.0447013,1917,883,14.2775,-2.59851
700,141,14.2257,2.48199,-0.00743364,-0.000718704,-0.00226199,-2.78139e-05,-0.00812453,-1.27436,0.0054071,0.0156364,1924,883,14.2257,-2.48196
707,141,14.2211,2.58789,-0.00695388,-0.000637189,-0.00230438,0.000114106,-0.00770517,-1.25563,0.00517524,0.013084,1931,883,14.221,-2.5879
714,141,14.189,2.67719,-0.00578458,-0.000378451,-0.00233714,0.000491826,-0.00665486,-1.21433,0.00460927,0.0138564,1938,883,14.1889,-2.67716
721,141,14.2104,2.79932,-0.00356866,-0.000189527,-0.00235705,0.00102096,-0.00477915,-1.09636,0.00357534,0.0127181,1945,883,14.2105,-2.79931
728,141,14.2079,2.91016,-0.000178403,0.000432973,-0.00250217,0.00264806,-0.00239349,-0.846182,0.00291197,0.0145485,1952,883,14.2078,-2.91017
735,141,14.1979,3.09308,0.00419876,0.00135171,-0.00304536,0.00613688,-0.000586413,-0.566767,0.00430007,0.0145744,1959,883,14.1978,-3.09307
742,141,14.1831,3.23132,0.00844484,0.00238384,-0.00352183,0.0100606,0.000768138,-0.430122,0.00646621,0.0150997,1966,883,14.1831,-3.23133
749,141,14.1906,3.33551,0.0128136,0.0040193,-0.00427491,0.0145491,0.00228377,-0.385652,0.00903489,0.0126431,1973,883,14.1905,-3.33553
756,141,14.1906,3.45703,0.0179566,0.00593691,-0.0054358,0.0200502,0.00384329,-0.367643,0.0122877,0.0184055,1980,883,14.1905,-3.457
763,141,14.3876,3.35229,0.0230387,0.00845248,-0.00687579,0.0257689,0.00572232,-0.377977,0.0156251,0.0392669,1987,883,14.3876,-3.35231
770,141,14.5964,3.24249,0.0280066,0.0117261,-0.00845926,0.0316061,0.00812654,-0.402307,0.0189519,0.0437189,1994,883,14.5964,-3.24249
777,141,14.6229,3.11151,0.0322676,0.0159024,-0.0101071,0.0370891,0.0110808,-0.445119,0.0219839,0.0446842,2001,883,14.623,-3.11148
784,141,14.9137,2.99817,0.0347123,0.02112,-0.011695,0.0414424,0.0143898,-0.522188,0.0242962,0.0471974,2008,883,14.9137,-2.99819
791,141,15.054,2.98071,0,0,0,0,0,0,0,-1,2015,883,15.054,-2.98073
798,141,0,0,0,0,0,0,0,0,0,-1,2022,883,0,0
805,141,0,0,0,0,0,0,0,0,0,-1,2029,883,0,0
812,141,0,0,0,0,0,0,0,0,0,-1,2036,883,0,0
-700,134,0,0,0,0,0,0,0,0,0,-1,524,890,0,0
-693,134,0,0,0,0,0,0,0,0,0,-1,531,890,0,0
-686,134,0,0,0,0,0,0,0,0,0,-1,538,890,0,0
-679,134,0,0,0,0,0,0,0,0,0,-1,545,890,0,0
-672,134,-7.76239,-0.414856,0,0,0,0,0,0,0,-1,552,890,-7.76237,0.414865
-665,134,-13.56,0.424255,0,0,0,0,0,0,0,-1,559,890,-13.56,-0.424241
-658,134,-12.0123,0.760193,0,0,0,0,0,0,0,-1,566,890,-12.0123,-0.760213
-651,134,-11.3529,0.912292,0,0,0,0,0,0,0,-1,573,890,-11.3529,-0.91229
-644,134,-10.765,1.04871,0,0,0,0,0,0,0,-1,580,890,-10.7649,-1.04868
-637,134,-8.74957,1.24097,0,0,0,0,0,0,0,-1,587,890,-8.74958,-1.24094
-630,134,-8.77502,1.39276,0.025197,-0.00949593,-0.00416751,0.0256906,-0.00998953,-0.117891,0.0212544,0.0381184,594,890,-8.77504,-1.39274
-623,134,-8.8537,1.24713,0.0146582,-0.0077619,-0.0028234,0.0150083,-0.00811199,-0.123366,0.013545,0.0191033,601,890,-8.85371,-1.24711
-616,134,-8.94073,1.12579,0.0075816,-0.00424462,-0.00108951,0.00768114,-0.00434415,-0.0911049,0.00703134,0.010385,608,890,-8.94074,-1.1258
-609,134,-8.94336,1.02881,0.00324882,-0.00369633,-0.000762755,0.00333161,-0.00377912,-0.108109,0.00410809,0.0107093,615,890,-8.94337,-1.02883
-602,134,-8.94659,0.919861,0.00084266,-0.00295148,8.05371e-05,0.000844368,-0.00295319,0.021214,0.00230245,0.0119699,622,890,-8.94658,-0.919836
-595,134,-8.94568,0.84375,-0.00205233,-0.0022035,0.000587628,-0.00153545,-0.00272038,0.721438,0.00157495,0.0114297,629,890,-8.94567,-0.843725
-588,134,-9.0675,0.775391,-0.00389361,-0.0017394,0.000751843,-0.00150295,-0.00413006,1.2661,0.00241376,0.0197939,636,890,-9.06752,-0.775385
-581,134,-9.02277,0.618713,-0.00544582,-0.00152487,0.00104873,-0.00126199,-0.00570869,1.32519,0.00346266,0.0242423,643,890,-9.02276,-0.618712
-574,134,-8.99548,0.516907,-0.00646309,-0.00154597,0.00141152,-0.00116959,-0.00683947,1.31021,0.00422411,0.0241877,650,890,-8.99547,-0.5169
-567,134,-8.63629,0.360107,0,0,0,0,0,0,0,-1,657,890,-8.63631,-0.360109
-560,134,-9.17871,0.664001,0,0,0,0,0,0,0,-1,664,890,-9.17873,-0.66402
-553,134,-9.72113,0.967957,0,0,0,0,0,0,0,-1,671,890,-9.72115,-0.967931
-546,134,-10.2048,0.583801,-0.00561975,-0.000847426,0.0013009,-0.00051585,-0.00595132,1.32123,0.00380727,0.0261656,678,890,-10.2048,-0.583826
-539,134,-10.2363,0.546875,-0.00428988,-0.00029205,0.00102316,-4.54108e-05,-0.00453652,1.33425,0.00300932,0.0181259,685,890,-10.2363,-0.546904
-532,134,-10.2688,0.573669,-0.00220539,0.000509503,0.000572334,0.000625226,-0.00232111,1.37129,0.00179254,0.0217343,692,890,-10.2688,-0.573691
-525,134,-10.2875,0.557129,0.000906514,0.00165464,-0.000176856,0.00169434,0.000866812,-1.34997,0.000978317,0.0329966,699,890,-10.2875,-0.557116
-518,134,-10.2231,0.537292,0.00540899,0.00328885,-0.00130875,0.00603313,0.00266471,-0.444997,0.00349112,0.0422893,706,890,-10.2231,-0.537285
-511,134,-10.2312,0.533691,0.0108074,0.00530005,-0.00274402,0.0119412,0.00416626,-0.391823,0.00699838,0.0470238,713,890,-10.2312,-0.533718
-504,134,0,0,0,0,0,0,0,0,0,-1,720,890,0,0
-497,134,0,0,0,0,0,0,0,0,0,-1,727,890,0,0
-490,134,0,0,0,0,0,0,0,0,0,-1,734,890,0,0
-483,134,0,0,0,0,0,0,0,0,0,-1,741,890,0,0
-476,134,0,0,0,0,0,0,0,0,0,-1,748,890,0,0
-469,134,0,0,0,0,0,0,0,0,0,-1,755,890,0,0
-462,134,0,0,0,0,0,0,0,0,0,-1,762,890,0,0
-455,134,0,0,0,0,0,0,0,0,0,-1,769,890,0,0
-448,134,0,0,0,0,0,0,0,0,0,-1,776,890,0,0
-441,134,0,0,0,0,0,0,0,0,0,-1,783,890,0,0
-434,134,0,0,0,0,0,0,0,0,0,-1,790,890,0,0
-427,134,0,0,0,0,0,0,0,0,0,-1,797,890,0,0
-420,134,0,0,0,0,0,0,0,0,0,-1,804,890,0,0
-413,134,0,0,0,0,0,0,0,0,0,-1,811,890,0,0
-406,134,0,0,0,0,0,0,0,0,0,-1,818,890,0,0
-399,134,0,0,0,0,0,0,0,0,0,-1,825,890,0,0
-392,134,0,0,0,0,0,0,0,0,0,-1,832,890,0,0
-385,134,0,0,0,0,0,0,0,0,0,-1,839,890,0,0
-378,134,0,0,0,0,0,0,0,0,0,-1,846,890,0,0
-371,134,0,0,0,0,0,0,0,0,0,-1,853,890,0,0
-364,134,0,0,0,0,0,0,0,0,0,-1,860,890,0,0
-357,134,0,0,0,0,0,0,0,0,0,-1,867,890,0,0
-350,134,0,0,0,0,0,0,0,0,0,-1,874,890,0,0
-343,134,0,0,0,0,0,0,0,0,0,-1,881,890,0,0
-336,134,0,0,0,0,0,0,0,0,0,-1,888,890,0,0
-329,134,0,0,0,0,0,0,0,0,0,-1,895,890,0,0
-322,134,0,0,0,0,0,0,0,0,0,-1,902,890,0,0
-315,134,0,0,0,0,0,0,0,0,0,-1,909,890,0,0
-308,134,0,0,0,0,0,0,0,0,0,-1,916,890,0,0
-301,134,0,0,0,0,0,0,0,0,0,-1,923,890,0,0
-294,134,0,0,0,0,0,0,0,0,0,-1,930,890,0,0
-287,134,0,0,0,0,0,0,0,0,0,-1,937,890,0,0
-280,134,0,0,0,0,0,0,0,0,0,-1,944,890,0,0
-273,134,0,0,0,0,0,0,0,0,0,-1,951,890,0,0
-266,134,0,0,0,0,0,0,0,0,0,-1,958,890,0,0
-259,134,0,0,0,0,0,0,0,0,0,-1,965,890,0,0
-252,134,0,0,0,0,0,0,0,0,0,-1,972,890,0,0
-245,134,0,0,0,0,0,0,0,0,0,-1,979,890,0,0
-238,134,0,0,0,0,0,0,0,0,0,-1,986,890,0,0
-231,134,0,0,0,0,0,0,0,0,0,-1,993,890,0,0
-224,134,0,0,0,0,0,0,0,0,0,-1,1000,890,0,0
-217,134,0,0,0,0,0,0,0,0,0,-1,1007,890,0,0
-210,134,0,0,0,0,0,0,0,0,0,-1,1014,890,0,0
-203,134,0,0,0,0,0,0,0,0,0,-1,1021,890,0,0
-196,134,0,0,0,0,0,0,0,0,0,-1,1028,890,0,0
-189,134,0,0,0,0,0,0,0,0,0,-1,1035,890,0,0
-182,134,0,0,0,0,0,0,0,0,0,-1,1042,890,0,0
-175,134,0,0,0,0,0,0,0,0,0,-1,1049,890,0,0
-168,134,0,0,0,0,0,0,0,0,0,-1,1056,890,0,0
-161,134,0,0,0,0,0,0,0,0,0,-1,1063,890,0,0
-154,134,0,0,0,0,0,0,0,0,0,-1,1070,890,0,0
-147,134,0,0,0,0,0,0,0,0,0,-1,1077,890,0,0
-140,134,0,0,0,0,0,0,0,0,0,-1,1084,890,0,0
-133,134,0,0,0,0,0,0,0,0,0,-1,1091,890,0,0
-126,134,0,0,0,0,0,0,0,0,0,-1,1098,890,0,0
-119,134,0,0,0,0,0,0,0,0,0,-1,1105,890,0,0
-112,134,0,0,0,0,0,0,0,0,0,-1,1112,890,0,0
-105,134,0,0,0,0,0,0,0,0,0,-1,1119,890,0,0
-98,134,0,0,0,0,0,0,0,0,0,-1,1126,890,0,0
-91,134,0,0,0,0,0,0,0,0,0,-1,1133,890,0,0
-84,134,0,0,0,0,0,0,0,0,0,-1,1140,890,0,0
-77,134,0,0,0,0,0,0,0,0,0,-1,1147,890,0,0
-70,134,0,0,0,0,0,0,0,0,0,-1,1154,890,0,0
-63,134,0,0,0,0,0,0,0,0,0,-1,1161,890,0,0
-56,134,0,0,0,0,0,0,0,0,0,-1,1168,890,0,0
-49,134,0,0,0,0,0,0,0,0,0,-1,1175,890,0,0
-42,134,0,0,0,0,0,0,0,0,0,-1,1182,890,0,0
-35,134,0,0,0,0,0,0,0,0,0,-1,1189,890,0,0
-28,134,0,0,0,0,0,0,0,0,0,-1,1196,890,0,0
-21,134,0,0,0,0,0,0,0,0,0,-1,1203,890,0,0
-14,134,0,0,0,0,0,0,0,0,0,-1,1210,890,0,0
-7,134,0,0,0,0,0,0,0,0,0,-1,1217,890,0,0
0,134,0,0,0,0,0,0,0,0,0,-1,1224,890,0,0
7,134,0,0,0,0,0,0,0,0,0,-1,1231,890,0,0
14,134,0,0,0,0,0,0,0,0,0,-1,1238,890,0,0
21,134,0,0,0,0,0,0,0,0,0,-1,1245,890,0,0
28,134,0,0,0,0,0,0,0,0,0,-1,1252,890,0,0
35,134,0,0,0,0,0,0,0,0,0,-1,1259,890,0,0
42,134,0,0,0,0,0,0,0,0,0,-1,1266,890,0,0
49,134,0,0,0,0,0,0,0,0,0,-1,1273,890,0,0
56,134,0,0,0,0,0,0,0,0,0,-1,1280,890,0,0
63,134,0,0,0,0,0,0,0,0,0,-1,1287,890,0,0
70,134,0,0,0,0,0,0,0,0,0,-1,1294,890,0,0
77,134,0,0,0,0,0,0,0,0,0,-1,1301,890,0,0
84,134,0,0,0,0,0,0,0,0,0,-1,1308,890,0,0
91,134,0,0,0,0,0,0,0,0,0,-1,1315,890,0,0
98,134,0,0,0,0,0,0,0,0,0,-1,1322,890,0,0
105,134,0,0,0,0,0,0,0,0,0,-1,1329,890,0,0
112,134,0,0,0,0,0,0,0,0,0,-1,1336,890,0,0
119,134,0,0,0,0,0,0,0,0,0,-1,1343,890,0,0
126,134,0,0,0,0,0,0,0,0,0,-1,1350,890,0,0
133,134,0,0,0,0,0,0,0,0,0,-1,1357,890,0,0
140,134,0,0,0,0,0,0,0,0,0,-1,1364,890,0,0
147,134,0,0,0,0,0,0,0,0,0,-1,1371,890,0,0
154,134,0,0,0,0,0,0,0,0,0,-1,1378,890,0,0
161,134,0,0,0,0,0,0,0,0,0,-1,1385,890,0,0
168,134,0,0,0,0,0,0,0,0,0,-1,1392,890,0,0
175,134,0,0,0,0,0,0,0,0,0,-1,1399,890,0,0
182,134,0,0,0,0,0,0,0,0,0,-1,1406,890,0,0
189,134,0,0,0,0,0,0,0,0,0,-1,1413,890,0,0
196,134,0,0,0,0,0,0,0,0,0,-1,1420,890,0,0
203,134,0,0,0,0,0,0,0,0,0,-1,1427,890,0,0
210,134,0,0,0,0,0,0,0,0,0,-1,1434,890,0,0
217,134,0,0,0,0,0,0,0,0,0,-1,1441,890,0,0
224,134,0,0,0,0,0,0,0,0,0,-1,1448,890,0,0
231,134,0,0,0,0,0,0,0,0,0,-1,1455,890,0,0
238,134,0,0,0,0,0,0,0,0,0,-1,1462,890,0,0
245,134,0,0,0,0,0,0,0,0,0,-1,1469,890,0,0
252,134,0,0,0,0,0,0,0,0,0,-1,1476,890,0,0
259,134,0,0,0,0,0,0,0,0,0,-1,1483,890,0,0
266,134,0,0,0,0,0,0,0,0,0,-1,1490,890,0,0
273,134,0,0,0,0,0,0,0,0,0,-1,1497,890,0,0
280,134,0,0,0,0,0,0,0,0,0,-1,1504,890,0,0
287,134,0,0,0,0,0,0,0,0,0,-1,1511,890,0,0
294,134,0,0,0,0,0,0,0,0,0,-1,1518,890,0,0
301,134,0,0,0,0,0,0,0,0,0,-1,1525,890,0,0
308,134,0,0,0,0,0,0,0,0,0,-1,1532,890,0,0
315,134,0,0,0,0,0,0,0,0,0,-1,1539,890,0,0
322,134,0,0,0,0,0,0,0,0,0,-1,1546,890,0,0
329,134,0,0,0,0,0,0,0,0,0,-1,1553,890,0,0
336,134,0,0,0,0,0,0,0,0,0,-1,1560,890,0,0
343,134,0,0,0,0,0,0,0,0,0,-1,1567,890,0,0
350,134,0,0,0,0,0,0,0,0,0,-1,1574,890,0,0
357,134,0,0,0,0,0,0,0,0,0,-1,1581,890,0,0
364,134,0,0,0,0,0,0,0,0,0,-1,1588,890,0,0
371,134,0,0,0,0,0,0,0,0,0,-1,1595,890,0,0
378,134,0,0,0,0,0,0,0,0,0,-1,1602,890,0,0
385,134,0,0,0,0,0,0,0,0,0,-1,1609,890,0,0
392,134,0,0,0,0,0,0,0,0,0,-1,1616,890,0,0
399,134,0,0,0,0,0,0,0,0,0,-1,1623,890,0,0
406,134,0,0,0,0,0,0,0,0,0,-1,1630,890,0,0
413,134,0,0,0,0,0,0,0,0,0,-1,1637,890,0,0
420,134,0,0,0,0,0,0,0,0,0,-1,1644,890,0,0
427,134,0,0,0,0,0,0,0,0,0,-1,1651,890,0,0
434,134,0,0,0,0,0,0,0,0,0,-1,1658,890,0,0
441,134,0,0,0,0,0,0,0,0,0,-1,1665,890,0,0
448,134,0,0,0,0,0,0,0,0,0,-1,1672,890,0,0
455,134,0,0,0,0,0,0,0,0,0,-1,1679,890,0,0
462,134,0,0,0,0,0,0,0,0,0,-1,1686,890,0,0
469,134,0,0,0,0,0,0,0,0,0,-1,1693,890,0,0
476,134,0,0,0,0,0,0,0,0,0,-1,1700,890,0,0
483,134,0,0,0,0,0,0,0,0,0,-1,1707,890,0,0
490,134,0,0,0,0,0,0,0,0,0,-1,1714,890,0,0
497,134,0,0,0,0,0,0,0,0,0,-1,1721,890,0,0
504,134,0,0,0,0,0,0,0,0,0,-1,1728,890,0,0
511,134,0,0,0,0,0,0,0,0,0,-1,1735,890,0,0
518,134,0,0,0,0,0,0,0,0,0,-1,1742,890,0,0
525,134,0,0,0,0,0,0,0,0,0,-1,1749,890,0,0
532,134,0,0,0,0,0,0,0,0,0,-1,1756,890,0,0
539,134,0,0,0,0,0,0,0,0,0,-1,1763,890,0,0
546,134,0,0,0,0,0,0,0,0,0,-1,1770,890,0,0
553,134,0,0,0,0,0,0,0,0,0,-1,1777,890,0,0
560,134,0,0,0,0,0,0,0,0,0,-1,1784,890,0,0
567,134,0,0,0,0,0,0,0,0,0,-1,1791,890,0,0
574,134,0,0,0,0,0,0,0,0,0,-1,1798,890,0,0
581,134,0,0,0,0,0,0,0,0,0,-1,1805,890,0,0
588,134,0,0,0,0,0,0,0,0,0,-1,1812,890,0,0
595,134,0,0,0,0,0,0,0,0,0,-1,1819,890,0,0
602,134,0,0,0,0,0,0,0,0,0,-1,1826,890,0,0
609,134,0,0,0,0,0,0,0,0,0,-1,1833,890,0,0
616,134,0,0,0,0,0,0,0,0,0,-1,1840,890,0,0
623,134,16.4556,2.41125,-1.28171e-05,0.00266941,-0.000465023,0.00274774,-9.11513e-05,-1.40391,0.00186295,0.0448126,1847,890,16.4555,-2.41127
630,134,16.2766,2.39471,-0.000561739,0.00143947,-0.000174217,0.00145453,-0.000576792,-1.4846,0.00120873,0.0447768,1854,890,16.2766,-2.39469
637,134,16.4146,2.53149,-0.00103444,0.000696822,-4.64698e-05,0.000698068,-0.00103569,-1.54398,0.00100729,0.0427834,1861,890,16.4146,-2.53152
644,134,16.4414,2.62531,-0.00154385,0.000105031,-5.59558e-05,0.000106928,-0.00154574,-1.53691,0.00106792,0.0392463,1868,890,16.4414,-2.6253
651,134,16.3021,2.61035,-0.00296552,-0.000301827,-0.000469259,-0.000221576,-0.00304577,-1.40142,0.00196083,0.0428473,1875,890,16.3021,-2.61038
658,134,16.2687,2.61603,-0.00455628,-0.000535085,-0.00093812,-0.000326995,-0.00476437,-1.35251,0.00307305,0.0391904,1882,890,16.2686,-2.61601
665,134,16.2374,2.34003,-0.00583962,-0.000714585,-0.00133518,-0.000387603,-0.00616661,-1.33063,0.00398815,0.0316541,1889,890,16.2375,-2.34003
672,134,16.2422,2.33527,-0.00686391,-0.000800286,-0.00165095,-0.000379923,-0.00728427,-1.32147,0.00473462,0.0225526,1896,890,16.2422,-2.33525
679,134,16.2197,2.34796,-0.00746794,-0.000848309,-0.00185499,-0.000363934,-0.00795231,-1.31538,0.00518449,0.0193964,1903,890,16.2197,-2.34799
686,134,15.9395,2.42969,0,0,0,0,0,0,0,-1,1910,890,15.9394,-2.42969
693,134,14.9672,2.44098,-0.00860317,-0.000837357,-0.00224881,-0.000233161,-0.00920737,-1.30832,0.00606202,0.0325054,1917,890,14.9671,-2.44096
700,134,14.266,2.44501,-0.00856065,-0.000693549,-0.00229611,-7.24355e-05,-0.00918176,-1.30661,0.00609717,0.0193215,1924,890,14.266,-2.44499
707,134,14.1865,2.48755,-0.00794747,-0.000633353,-0.00233767,4.99561e-05,-0.00863078,-1.28642,0.00577058,0.0179249,1931,890,14.1866,-2.48757
714,134,14.2382,2.65869,-0.00672245,-0.000400275,-0.00236145,0.000384386,-0.00750711,-1.24999,0.00513766,0.0168373,1938,890,14.2382,-2.65867
721,134,14.344,2.80292,-0.00460877,-0.000248191,-0.00233301,0.000764731,-0.00562169,-1.16118,0.00402698,0.014838,1945,890,14.344,-2.80294
728,134,14.3552,2.92523,-0.0014689,0.000321323,-0.00243274,0.0020184,-0.00316599,-0.961683,0.00301755,0.0149661,1952,890,14.3552,-2.92524
735,134,14.3529,3.09442,0.0024744,0.00118369,-0.00285132,0.00475249,-0.0010944,-0.674106,0.00358918,0.0203049,1959,890,14.3529,-3.09442
742,134,14.3094,3.21503,0.00602714,0.00218636,-0.00320917,0.00784663,0.000366876,-0.515775,0.00511318,0.0142033,1966,890,14.3095,-3.21503
749,134,14.3152,3.3114,0.00951137,0.00389992,-0.00388553,0.0114983,0.00191299,-0.472697,0.00711412,0.0120162,1973,890,14.3151,-3.31143
756,134,14.3174,3.45483,0.0134004,0.00586835,-0.00494469,0.0158499,0.00341884,-0.459945,0.00963144,0.0158136,1980,890,14.3174,-3.45485
763,134,14.3247,3.58197,0.0166351,0.00845427,-0.00629772,0.0200542,0.00503518,-0.497383,0.0120471,0.0354701,1987,890,14.3247,-3.58196
770,134,14.4968,3.4682,0.0191358,0.0118435,-0.00780944,0.0241084,0.00687101,-0.566993,0.0143415,0.0447054,1994,890,14.4968,-3.46823
777,134,14.642,3.23364,0,0,0,0,0,0,0,-1,2001,890,14.642,-3.23366
784,134,14.9244,3.38232,0,0,0,0,0,0,0,-1,2008,890,14.9245,-3.38231
791,134,15.0466,3.41473,0,0,0,0,0,0,0,-1,2015,890,15.0466,-3.41471
798,134,0,0,0,0,0,0,0,0,0,-1,2022,890,0,0
805,134,0,0,0,0,0,0,0,0,0,-1,2029,890,0,0
812,134,0,0,0,0,0,0,0,0,0,-1,2036,890,0,0
-700,127,0,0,0,0,0,0,0,0,0,-1,524,897,0,0
-693,127,0,0,0,0,0,0,0,0,0,-1,531,897,0,0
-686,127,0,0,0,0,0,0,0,0,0,-1,538,897,0,0
-679,127,-14.8619,0.127808,0,0,0,0,0,0,0,-1,545,897,-14.8619,-0.127793
-672,127,-13.7974,0.28656,0,0,0,0,0,0,0,-1,552,897,-13.7974,-0.286532
-665,127,-12.7826,0.352417,0.139359,-0.0193949,-0.0207699,0.142032,-0.0220673,-0.127962,0.102836,0.0474703,559,897,-12.7826,-0.352392
-658,127,-11.8134,0.619812,0,0,0,0,0,0,0,-1,566,897,-11.8134,-0.619783
-651,127,-11.1622,0.79303,0,0,0,0,0,0,0,-1,573,897,-11.1622,-0.793031
-644,127,-8.92548,1.27332,0,0,0,0,0,0,0,-1,580,897,-8.92547,-1.27329
-637,127,-8.94135,1.25476,0.0381289,-0.00847788,-0.00767822,0.0393612,-0.00971024,-0.159144,0.0300059,0.0457501,587,897,-8.94132,-1.25479
-630,127,-8.96869,1.23627,0.0253179,-0.00625668,-0.00545872,0.026235,-0.00717376,-0.166449,0.0203081,0.0324513,594,897,-8.96866,-1.23629
-623,127,-9.01678,1.18707,0.0143396,-0.00530894,-0.00382327,0.0150573,-0.00602667,-0.185566,0.0125395,0.01256,601,897,-9.01678,-1.1871
-616,127,-9.05804,1.12238,0.00687223,-0.00216999,-0.00166959,0.00717066,-0.00246842,-0.176877,0.00578165,0.00881116,608,897,-9.05803,-1.1224
-609,127,-9.06189,1.0271,0.00246019,-0.00230792,-0.0012027,0.00274638,-0.00259411,-0.233611,0.00308375,0.0124409,615,897,-9.0619,-1.02711
-602,127,-9.06848,0.922058,0.000122344,-0.00208309,-0.000157698,0.000133563,-0.00209431,-0.0710229,0.00144279,0.0143256,622,897,-9.06847,-0.922077
-595,127,-9.04315,0.838806,-0.00265527,-0.00161589,0.000383697,-0.00148959,-0.00278157,1.25281,0.00160729,0.0140563,629,897,-9.04316,-0.8388
-588,127,-9.09235,0.764771,-0.00434965,-0.00133814,0.000591926,-0.00122598,-0.00446182,1.38352,0.00266172,0.0196428,636,897,-9.09232,-0.764786
-581,127,-9.12268,0.611633,-0.00562483,-0.00125609,0.000831439,-0.0011032,-0.00577772,1.38895,0.00354182,0.0268594,643,897,-9.12268,-0.611614
-574,127,-9.11243,0.51239,-0.00643312,-0.00135045,0.00113394,-0.00110895,-0.00667462,1.36095,0.00413003,0.0249738,650,897,-9.11246,-0.512371
-567,127,-9.03619,0.407593,0,0,0,0,0,0,0,-1,657,897,-9.0362,-0.407612
-560,127,-9.48431,0.633118,0,0,0,0,0,0,0,-1,664,897,-9.48434,-0.633088
-553,127,-10.0948,0.814758,0,0,0,0,0,0,0,-1,671,897,-10.0949,-0.814746
-546,127,-10.2112,0.540588,-0.00473348,-0.000648556,0.000927512,-0.000447821,-0.00493421,1.35766,0.00315083,0.0229691,678,897,-10.2112,-0.540561
-539,127,-10.225,0.536377,-0.00313411,-9.87463e-05,0.00066647,4.11429e-05,-0.00327399,1.3639,0.00219651,0.0203182,685,897,-10.225,-0.536396
-532,127,-10.2249,0.567871,-0.000758544,0.0006771,0.000258068,0.00072208,-0.000803524,1.39823,0.000881226,0.0159866,692,897,-10.2249,-0.567844
-525,127,-10.2585,0.616943,0.00261616,0.00174974,-0.000401626,0.00277369,0.00159221,-0.373791,0.00160723,0.0308319,699,897,-10.2585,-0.616932
-518,127,-10.2522,0.631409,0.0071821,0.0032493,-0.0013661,0.00761006,0.00282134,-0.303587,0.00444234,0.0405474,706,897,-10.2522,-0.631387
-511,127,-9.7868,0.561218,0.0119922,0.00498069,-0.00248129,0.0127814,0.00419143,-0.307964,0.00752361,0.0453583,713,897,-9.78683,-0.561206
-504,127,0,0,0,0,0,0,0,0,0,-1,720,897,0,0
-497,127,0,0,0,0,0,0,0,0,0,-1,727,897,0,0
-490,127,0,0,0,0,0,0,0,0,0,-1,734,897,0,0
-483,127,0,0,0,0,0,0,0,0,0,-1,741,897,0,0
-476,127,0,0,0,0,0,0,0,0,0,-1,748,897,0,0
-469,127,0,0,0,0,0,0,0,0,0,-1,755,897,0,0
-462,127,0,0,0,0,0,0,0,0,0,-1,762,897,0,0
-455,127,0,0,0,0,0,0,0,0,0,-1,769,897,0,0
-448,127,0,0,0,0,0,0,0,0,0,-1,776,897,0,0
-441,127,0,0,0,0,0,0,0,0,0,-1,783,897,0,0
-434,127,0,0,0,0,0,0,0,0,0,-1,790,897,0,0
-427,127,0,0,0,0,0,0,0,0,0,-1,797,897,0,0
-420,127,0,0,0,0,0,0,0,0,0,-1,804,897,0,0
-413,127,0,0,0,0,0,0,0,0,0,-1,811,897,0,0
-406,127,0,0,0,0,0,0,0,0,0,-1,818,897,0,0
-399,127,0,0,0,0,0,0,0,0,0,-1,825,897,0,0
-392,127,0,0,0,0,0,0,0,0,0,-1,832,897,0,0
-385,127,0,0,0,0,0,0,0,0,0,-1,839,897,0,0
-378,127,0,0,0,0,0,0,0,0,0,-1,846,897,0,0
-371,127,0,0,0,0,0,0,0,0,0,-1,853,897,0,0
-364,127,0,0,0,0,0,0,0,0,0,-1,860,897,0,0
-357,127,0,0,0,0,0,0,0,0,0,-1,867,897,0,0
-350,127,0,0,0,0,0,0,0,0,0,-1,874,897,0,0
-343,127,0,0,0,0,0,0,0,0,0,-1,881,897,0,0
-336,127,0,0,0,0,0,0,0,0,0,-1,888,897,0,0
-329,127,0,0,0,0,0,0,0,0,0,-1,895,897,0,0
-322,127,0,0,0,0,0,0,0,0,0,-1,902,897,0,0
-315,127,0,0,0,0,0,0,0,0,0,-1,909,897,0,0
-308,127,0,0,0,0,0,0,0,0,0,-1,916,897,0,0
-301,127,0,0,0,0,0,0,0,0,0,-1,923,897,0,0
-294,127,0,0,0,0,0,0,0,0,0,-1,930,897,0,0
-287,127,0,0,0,0,0,0,0,0,0,-1,937,897,0,0
-280,127,0,0,0,0,0,0,0,0,0,-1,944,897,0,0
-273,127,0,0,0,0,0,0,0,0,0,-1,951,897,0,0
-266,127,0,0,0,0,0,0,0,0,0,-1,958,897,0,0
-259,127,0,0,0,0,0,0,0,0,0,-1,965,897,0,0
-252,127,0,0,0,0,0,0,0,0,0,-1,972,897,0,0
-245,127,0,0,0,0,0,0,0,0,0,-1,979,897,0,0
-238,127,0,0,0,0,0,0,0,0,0,-1,986,897,0,0
-231,127,0,0,0,0,0,0,0,0,0,-1,993,897,0,0
-224,127,0,0,0,0,0,0,0,0,0,-1,1000,897,0,0
-217,127,0,0,0,0,0,0,0,0,0,-1,1007,897,0,0
-210,127,0,0,0,0,0,0,0,0,0,-1,1014,897,0,0
-203,127,0,0,0,0,0,0,0,0,0,-1,1021,897,0,0
-196,127,0,0,0,0,0,0,0,0,0,-1,1028,897,0,0
-189,127,0,0,0,0,0,0,0,0,0,-1,1035,897,0,0
-182,127,0,0,0,0,0,0,0,0,0,-1,1042,897,0,0
-175,127,0,0,0,0,0,0,0,0,0,-1,1049,897,0,0
-168,127,0,0,0,0,0,0,0,0,0,-1,1056,897,0,0
-161,127,0,0,0,0,0,0,0,0,0,-1,1063,897,0,0
-154,127,0,0,0,0,0,0,0,0,0,-1,1070,897,0,0
-147,127,0,0,0,0,0,0,0,0,0,-1,1077,897,0,0
-140,127,0,0,0,0,0,0,0,0,0,-1,1084,897,0,0
-133,127,0,0,0,0,0,0,0,0,0,-1,1091,897,0,0
-126,127,0,0,0,0,0,0,0,0,0,-1,1098,897,0,0
-119,127,0,0,0,0,0,0,0,0,0,-1,1105,897,0,0
-112,127,0,0,0,0,0,0,0,0,0,-1,1112,897,0,0
-105,127,0,0,0,0,0,0,0,0,0,-1,1119,897,0,0
-98,127,0,0,0,0,0,0,0,0,0,-1,1126,897,0,0
-91,127,0,0,0,0,0,0,0,0,0,-1,1133,897,0,0
-84,127,0,0,0,0,0,0,0,0,0,-1,1140,897,0,0
-77,127,0,0,0,0,0,0,0,0,0,-1,1147,897,0,0
-70,127,0,0,0,0,0,0,0,0,0,-1,1154,897,0,0
-63,127,0,0,0,0,0,0,0,0,0,-1,1161,897,0,0
-56,127,0,0,0,0,0,0,0,0,0,-1,1168,897,0,0
-49,127,0,0,0,0,0,0,0,0,0,-1,1175,897,0,0
-42,127,0,0,0,0,0,0,0,0,0,-1,1182,897,0,0
-35,127,0,0,0,0,0,0,0,0,0,-1,1189,897,0,0
-28,127,0,0,0,0,0,0,0,0,0,-1,1196,897,0,0
-21,127,0,0,0,0,0,0,0,0,0,-1,1203,897,0,0
-14,127,0,0,0,0,0,0,0,0,0,-1,1210,897,0,0
-7,127,0,0,0,0,0,0,0,0,0,-1,1217,897,0,0
0,127,0,0,0,0,0,0,0,0,0,-1,1224,897,0,0
7,127,0,0,0,0,0,0,0,0,0,-1,1231,897,0,0
14,127,0,0,0,0,0,0,0,0,0,-1,1238,897,0,0
21,127,0,0,0,0,0,0,0,0,0,-1,1245,897,0,0
28,127,0,0,0,0,0,0,0,0,0,-1,1252,897,0,0
35,127,0,0,0,0,0,0,0,0,0,-1,1259,897,0,0
42,127,0,0,0,0,0,0,0,0,0,-1,1266,897,0,0
49,127,0,0,0,0,0,0,0,0,0,-1,1273,897,0,0
56,127,0,0,0,0,0,0,0,0,0,-1,1280,897,0,0
63,127,0,0,0,0,0,0,0,0,0,-1,1287,897,0,0
70,127,0,0,0,0,0,0,0,0,0,-1,1294,897,0,0
77,127,0,0,0,0,0,0,0,0,0,-1,1301,897,0,0
84,127,0,0,0,0,0,0,0,0,0,-1,1308,897,0,0
91,127,0,0,0,0,0,0,0,0,0,-1,1315,897,0,0
98,127,0,0,0,0,0,0,0,0,0,-1,1322,897,0,0
105,127,0,0,0,0,0,0,0,0,0,-1,1329,897,0,0
112,127,0,0,0,0,0,0,0,0,0,-1,1336,897,0,0
119,127,0,0,0,0,0,0,0,0,0,-1,1343,897,0,0
126,127,0,0,0,0,0,0,0,0,0,-1,1350,897,0,0
133,127,0,0,0,0,0,0,0,0,0,-1,1357,897,0,0
140,127,0,0,0,0,0,0,0,0,0,-1,1364,897,0,0
147,127,0,0,0,0,0,0,0,0,0,-1,1371,897,0,0
154,127,0,0,0,0,0,0,0,0,0,-1,1378,897,0,0
161,127,0,0,0,0,0,0,0,0,0,-1,1385,897,0,0
168,127,0,0,0,0,0,0,0,0,0,-1,1392,897,0,0
175,127,0,0,0,0,0,0,0,0,0,-1,1399,897,0,0
182,127,0,0,0,0,0,0,0,0,0,-1,1406,897,0,0
189,127,0,0,0,0,0,0,0,0,0,-1,1413,897,0,0
196,127,0,0,0,0,0,0,0,0,0,-1,1420,897,0,0
203,127,0,0,0,0,0,0,0,0,0,-1,1427,897,0,0
210,127,0,0,0,0,0,0,0,0,0,-1,1434,897,0,0
217,127,0,0,0,0,0,0,0,0,0,-1,1441,897,0,0
224,127,0,0,0,0,0,0,0,0,0,-1,1448,897,0,0
231,127,0,0,0,0,0,0,0,0,0,-1,1455,897,0,0
238,127,0,0,0,0,0,0,0,0,0,-1,1462,897,0,0
245,127,0,0,0,0,0,0,0,0,0,-1,1469,897,0,0
252,127,0,0,0,0,0,0,0,0,0,-1,1476,897,0,0
259,127,0,0,0,0,0,0,0,0,0,-1,1483,897,0,0
266,127,0,0,0,0,0,0,0,0,0,-1,1490,897,0,0
273,127,0,0,0,0,0,0,0,0,0,-1,1497,897,0,0
280,127,0,0,0,0,0,0,0,0,0,-1,1504,897,0,0
287,127,0,0,0,0,0,0,0,0,0,-1,1511,897,0,0
294,127,0,0,0,0,0,0,0,0,0,-1,1518,897,0,0
301,127,0,0,0,0,0,0,0,0,0,-1,1525,897,0,0
308,127,0,0,0,0,0,0,0,0,0,-1,1532,897,0,0
315,127,0,0,0,0,0,0,0,0,0,-1,1539,897,0,0
322,127,0,0,0,0,0,0,0,0,0,-1,1546,897,0,0
329,127,0,0,0,0,0,0,0,0,0,-1,1553,897,0,0
336,127,0,0,0,0,0,0,0,0,0,-1,1560,897,0,0
343,127,0,0,0,0,0,0,0,0,0,-1,1567,897,0,0
350,127,0,0,0,0,0,0,0,0,0,-1,1574,897,0,0
357,127,0,0,0,0,0,0,0,0,0,-1,1581,897,0,0
364,127,0,0,0,0,0,0,0,0,0,-1,1588,897,0,0
371,127,0,0,0,0,0,0,0,0,0,-1,1595,897,0,0
378,127,0,0,0,0,0,0,0,0,0,-1,1602,897,0,0
385,127,0,0,0,0,0,0,0,0,0,-1,1609,897,0,0
392,127,0,0,0,0,0,0,0,0,0,-1,1616,897,0,0
399,127,0,0,0,0,0,0,0,0,0,-1,1623,897,0,0
406,127,0,0,0,0,0,0,0,0,0,-1,1630,897,0,0
413,127,0,0,0,0,0,0,0,0,0,-1,1637,897,0,0
420,127,0,0,0,0,0,0,0,0,0,-1,1644,897,0,0
427,127,0,0,0,0,0,0,0,0,0,-1,1651,897,0,0
434,127,0,0,0,0,0,0,0,0,0,-1,1658,897,0,0
441,127,0,0,0,0,0,0,0,0,0,-1,1665,897,0,0
448,127,0,0,0,0,0,0,0,0,0,-1,1672,897,0,0
455,127,0,0,0,0,0,0,0,0,0,-1,1679,897,0,0
462,127,0,0,0,0,0,0,0,0,0,-1,1686,897,0,0
469,127,0,0,0,0,0,0,0,0,0,-1,1693,897,0,0
476,127,0,0,0,0,0,0,0,0,0,-1,1700,897,0,0
483,127,0,0,0,0,0,0,0,0,0,-1,1707,897,0,0
490,127,0,0,0,0,0,0,0,0,0,-1,1714,897,0,0
497,127,0,0,0,0,0,0,0,0,0,-1,1721,897,0,0
504,127,0,0,0,0,0,0,0,0,0,-1,1728,897,0,0
511,127,0,0,0,0,0,0,0,0,0,-1,1735,897,0,0
518,127,0,0,0,0,0,0,0,0,0,-1,1742,897,0,0
525,127,0,0,0,0,0,0,0,0,0,-1,1749,897,0,0
532,127,0,0,0,0,0,0,0,0,0,-1,1756,897,0,0
539,127,0,0,0,0,0,0,0,0,0,-1,1763,897,0,0
546,127,0,0,0,0,0,0,0,0,0,-1,1770,897,0,0
553,127,0,0,0,0,0,0,0,0,0,-1,1777,897,0,0
560,127,0,0,0,0,0,0,0,0,0,-1,1784,897,0,0
567,127,0,0,0,0,0,0,0,0,0,-1,1791,897,0,0
574,127,0,0,0,0,0,0,0,0,0,-1,1798,897,0,0
581,127,0,0,0,0,0,0,0,0,0,-1,1805,897,0,0
588,127,0,0,0,0,0,0,0,0,0,-1,1812,897,0,0
595,127,0,0,0,0,0,0,0,0,0,-1,1819,897,0,0
602,127,0,0,0,0,0,0,0,0,0,-1,1826,897,0,0
609,127,0,0,0,0,0,0,0,0,0,-1,1833,897,0,0
616,127,0,0,0,0,0,0,0,0,0,-1,1840,897,0,0
623,127,0,0,0,0,0,0,0,0,0,-1,1847,897,0,0
630,127,16.1938,2.52277,0.000552507,0.0025072,0.000447539,0.00260479,0.000454913,1.35609,0.00160651,0.04171,1854,897,16.1938,-2.52275
637,127,16.374,2.63892,-0.000275087,0.0015428,0.000542052,0.00169216,-0.000424444,1.30193,0.00129302,0.0395877,1861,897,16.374,-2.63892
644,127,16.389,2.7207,-0.000840432,0.000709973,0.000558738,0.000890347,-0.00102081,1.25853,0.00110426,0.0402977,1868,897,16.389,-2.72073
651,127,16.2437,2.69647,-0.00246425,0.000140374,8.87637e-05,0.000143395,-0.00246728,1.53677,0.00169467,0.0448139,1875,897,16.2437,-2.6965
658,127,16.1472,2.63171,-0.00440725,-0.000210128,-0.000475383,-0.000156958,-0.00446042,-1.45941,0.0029227,0.0419132,1882,897,16.1472,-2.63171
665,127,16.1761,2.4585,-0.00604909,-0.000469512,-0.000969046,-0.000306003,-0.0062126,-1.40364,0.0040436,0.0366507,1889,897,16.1761,-2.45847
672,127,16.2227,2.27545,-0.00730401,-0.000608938,-0.00137325,-0.000338215,-0.00757473,-1.37615,0.00494094,0.0313147,1896,897,16.2226,-2.27544
679,127,16.2556,2.25006,-0.00807795,-0.000691561,-0.00164571,-0.000341485,-0.00842802,-1.3612,0.00550838,0.0249984,1903,897,16.2556,-2.25004
686,127,16.236,2.31091,0,0,0,0,0,0,0,-1,1910,897,16.236,-2.3109
693,127,15.3079,2.36249,-0.00938358,-0.000754888,-0.00206453,-0.000286362,-0.0098521,-1.34764,0.00647473,0.0323936,1917,897,15.3078,-2.36247
700,127,14.443,2.42163,-0.00934785,-0.000597416,-0.00214627,-9.93372e-05,-0.00984593,-1.34277,0.00653109,0.0228903,1924,897,14.443,-2.42166
707,127,14.3147,2.52692,-0.00867793,-0.000540132,-0.00221626,2.42977e-05,-0.00924236,-1.32142,0.00616969,0.0216115,1931,897,14.3147,-2.52694
714,127,14.3511,2.68958,-0.00746923,-0.000308246,-0.002244,0.000336837,-0.00811431,-1.29087,0.00552524,0.0181309,1938,897,14.3511,-2.68955
721,127,14.4775,2.86646,-0.0055589,-0.000150051,-0.00220783,0.000636715,-0.00634567,-1.22847,0.00445787,0.0135287,1945,897,14.4776,-2.86645
728,127,14.4741,2.93823,-0.00277683,0.000375064,-0.00231185,0.00159702,-0.00399879,-1.08456,0.00332846,0.0133119,1952,897,14.4741,-2.9382
735,127,14.479,3.08667,0.000630658,0.00120281,-0.00266558,0.00359762,-0.00176415,-0.838855,0.00315537,0.0186548,1959,897,14.4791,-3.08666
742,127,14.4445,3.20349,0.00339041,0.00218539,-0.00297377,0.00582209,-0.000246289,-0.685447,0.00396604,0.017049,1966,897,14.4444,-3.20352
749,127,14.4167,3.28516,0.00593842,0.00399894,-0.00365912,0.00875412,0.00118324,-0.655866,0.00548438,0.0121974,1973,897,14.4167,-3.28517
756,127,14.4249,3.39984,0.00857622,0.00605131,-0.0046963,0.0121768,0.00245074,-0.654093,0.00743679,0.0139861,1980,897,14.425,-3.39982
763,127,14.4375,3.49219,0.0101465,0.00875097,-0.00604579,0.0155347,0.00336283,-0.727944,0.00943738,0.0211853,1987,897,14.4376,-3.49218
770,127,14.6584,3.17303,0.0105555,0.0123075,-0.00758522,0.0190671,0.00379585,-0.842886,0.011654,0.0409002,1994,897,14.6585,-3.17304
777,127,14.9443,2.90674,0,0,0,0,0,0,0,-1,2001,897,14.9443,-2.90675
784,127,15.2096,2.95514,0,0,0,0,0,0,0,-1,2008,897,15.2095,-2.95517
791,127,14.0189,4.03656,0,0,0,0,0,0,0,-1,2015,897,14.0189,-4.03655
798,127,0,0,0,0,0,0,0,0,0,-1,2022,897,0,0
805,127,0,0,0,0,0,0,0,0,0,-1,2029,897,0,0
812,127,0,0,0,0,0,0,0,0,0,-1,2036,897,0,0
-700,120,0,0,0,0,0,0,0,0,0,-1,524,904,0,0
-693,120,0,0,0,0,0,0,0,0,0,-1,531,904,0,0
-686,120,0,0,0,0,0,0,0,0,0,-1,538,904,0,0
-679,120,-13.8862,-0.06604,0.220861,-0.0199322,-0.0315007,0.224913,-0.0239849,-0.127952,0.158543,0.0416188,545,904,-13.8862,0.0660583
-672,120,-12.7905,0.0353394,0,0,0,0,0,0,0,-1,552,904,-12.7905,-0.0353305
-665,120,-11.9929,0.274597,0,0,0,0,0,0,0,-1,559,904,-11.9929,-0.274625
-658,120,-11.6281,0.689148,0,0,0,0,0,0,0,-1,566,904,-11.6281,-0.689135
-651,120,-10.7667,0.811401,0,0,0,0,0,0,0,-1,573,904,-10.7667,-0.811402
-644,120,-9.12079,1.26068,0,0,0,0,0,0,0,-1,580,904,-9.1208,-1.26068
-637,120,-9.11121,1.27539,0.0376129,-0.00523019,-0.00873111,0.0393239,-0.0069412,-0.193514,0.0288097,0.0399724,587,904,-9.11122,-1.27539
-630,120,-9.11316,1.23999,0.0248676,-0.00361751,-0.00627858,0.0261901,-0.00494001,-0.207602,0.0193184,0.0218069,594,904,-9.11315,-1.23998
-623,120,-9.14587,1.19379,0.0137463,-0.00328799,-0.00448518,0.0148551,-0.00439678,-0.242352,0.0116489,0.00989245,601,904,-9.14585,-1.19376
-616,120,-9.14905,1.1012,0.00608155,-0.00053962,-0.00205062,0.0066652,-0.00112326,-0.277286,0.00486134,0.00918538,608,904,-9.14904,-1.1012
-609,120,-9.16864,1.0083,0.00168121,-0.00124882,-0.0015173,0.00232533,-0.00189295,-0.401465,0.00243969,0.012569,615,904,-9.16863,-1.00831
-602,120,-9.18451,0.927917,-0.000573065,-0.00145897,-0.000356459,-0.000447449,-0.00158459,-0.33881,0.000943305,0.0135239,622,904,-9.1845,-0.927908
-595,120,-9.1333,0.840759,-0.00319374,-0.00118518,0.000173133,-0.00117037,-0.00320855,1.48544,0.00187491,0.0169757,629,904,-9.1333,-0.840731
-588,120,-9.14563,0.727112,-0.00474546,-0.00100203,0.000393817,-0.000961052,-0.00478644,1.46711,0.00292375,0.0229812,636,904,-9.14561,-0.727133
-581,120,-9.23499,0.613647,-0.00583744,-0.000976966,0.000621243,-0.000898818,-0.00591558,1.44566,0.00368088,0.0274746,643,904,-9.23499,-0.613663
-574,120,-9.20087,0.498535,-0.00654238,-0.00108647,0.000909626,-0.000938812,-0.00669004,1.40987,0.00418236,0.022277,650,904,-9.20086,-0.49853
-567,120,-9.09436,0.252808,0,0,0,0,0,0,0,-1,657,904,-9.09437,-0.252794
-560,120,-9.78003,0.920532,0,0,0,0,0,0,0,-1,664,904,-9.78002,-0.92054
-553,120,-10.2078,0.478088,-0.00545146,-0.000667252,0.000901421,-0.000503046,-0.00561567,1.39061,0.00358787,0.0366357,671,904,-10.2078,-0.478073
-546,120,-10.1787,0.482361,-0.00438055,-0.000217294,0.000834637,-5.62023e-05,-0.00454165,1.38013,0.00300921,0.0306785,678,904,-10.1787,-0.482367
-539,120,-10.1826,0.532959,-0.00264872,0.000356766,0.000678561,0.000502866,-0.00279482,1.35873,0.00205148,0.0243283,685,904,-10.1825,-0.532957
-532,120,-10.165,0.550659,-0.000131231,0.00111739,0.000416543,0.0012436,-0.000257434,1.27661,0.000926871,0.0264103,692,904,-10.165,-0.550669
-525,120,-10.2494,0.615234,0.00334673,0.00208562,-4.4103e-05,0.00334827,0.00208408,-0.0349149,0.00195235,0.034323,699,904,-10.2494,-0.615257
-518,120,-10.2654,0.82312,0.00775999,0.00332951,-0.000736126,0.0078791,0.0032104,-0.16041,0.0045749,0.03789,706,904,-10.2654,-0.823102
-511,120,-9.8623,0.615295,0.0117792,0.0045297,-0.00146739,0.0120649,0.00424395,-0.19233,0.007067,0.0390505,713,904,-9.86229,-0.61527
-504,120,0,0,0,0,0,0,0,0,0,-1,720,904,0,0
-497,120,0,0,0,0,0,0,0,0,0,-1,727,904,0,0
-490,120,0,0,0,0,0,0,0,0,0,-1,734,904,0,0
-483,120,0,0,0,0,0,0,0,0,0,-1,741,904,0,0
-476,120,0,0,0,0,0,0,0,0,0,-1,748,904,0,0
-469,120,0,0,0,0,0,0,0,0,0,-1,755,904,0,0
-462,120,0,0,0,0,0,0,0,0,0,-1,762,904,0,0
-455,120,0,0,0,0,0,0,0,0,0,-1,769,904,0,0
-448,120,0,0,0,0,0,0,0,0,0,-1,776,904,0,0
-441,120,0,0,0,0,0,0,0,0,0,-1,783,904,0,0
-434,120,0,0,0,0,0,0,0,0,0,-1,790,904,0,0
-427,120,0,0,0,0,0,0,0,0,0,-1,797,904,0,0
-420,120,0,0,0,0,0,0,0,0,0,-1,804,904,0,0
-413,120,0,0,0,0,0,0,0,0,0,-1,811,904,0,0
-406,120,0,0,0,0,0,0,0,0,0,-1,818,904,0,0
-399,120,0,0,0,0,0,0,0,0,0,-1,825,904,0,0
-392,120,0,0,0,0,0,0,0,0,0,-1,832,904,0,0
-385,120,0,0,0,0,0,0,0,0,0,-1,839,904,0,0
-378,120,0,0,0,0,0,0,0,0,0,-1,846,904,0,0
-371,120,0,0,0,0,0,0,0,0,0,-1,853,904,0,0
-364,120,0,0,0,0,0,0,0,0,0,-1,860,904,0,0
-357,120,0,0,0,0,0,0,0,0,0,-1,867,904,0,0
-350,120,0,0,0,0,0,0,0,0,0,-1,874,904,0,0
-343,120,0,0,0,0,0,0,0,0,0,-1,881,904,0,0
-336,120,0,0,0,0,0,0,0,0,0,-1,888,904,0,0
-329,120,0,0,0,0,0,0,0,0,0,-1,895,904,0,0
-322,120,0,0,0,0,0,0,0,0,0,-1,902,904,0,0
-315,120,0,0,0,0,0,0,0,0,0,-1,909,904,0,0
-308,120,0,0,0,0,0,0,0,0,0,-1,916,904,0,0
-301,120,0,0,0,0,0,0,0,0,0,-1,923,904,0,0
-294,120,0,0,0,0,0,0,0,0,0,-1,930,904,0,0
-287,120,0,0,0,0,0,0,0,0,0,-1,937,904,0,0
-280,120,0,0,0,0,0,0,0,0,0,-1,944,904,0,0
-273,120,0,0,0,0,0,0,0,0,0,-1,951,904,0,0
-266,120,0,0,0,0,0,0,0,0,0,-1,958,904,0,0
-259,120,0,0,0,0,0,0,0,0,0,-1,965,904,0,0
-252,120,0,0,0,0,0,0,0,0,0,-1,972,904,0,0
-245,120,0,0,0,0,0,0,0,0,0,-1,979,904,0,0
-238,120,0,0,0,0,0,0,0,0,0,-1,986,904,0,0
-231,120,0,0,0,0,0,0,0,0,0,-1,993,904,0,0
-224,120,0,0,0,0,0,0,0,0,0,-1,1000,904,0,0
-217,120,0,0,0,0,0,0,0,0,0,-1,1007,904,0,0
-210,120,0,0,0,0,0,0,0,0,0,-1,1014,904,0,0
-203,120,0,0,0,0,0,0,0,0,0,-1,1021,904,0,0
-196,120,0,0,0,0,0,0,0,0,0,-1,1028,904,0,0
-189,120,0,0,0,0,0,0,0,0,0,-1,1035,904,0,0
-182,120,0,0,0,0,0,0,0,0,0,-1,1042,904,0,0
-175,120,0,0,0,0,0,0,0,0,0,-1,1049,904,0,0
-168,120,0,0,0,0,0,0,0,0,0,-1,1056,904,0,0
-161,120,0,0,0,0,0,0,0,0,0,-1,1063,904,0,0
-154,120,0,0,0,0,0,0,0,0,0,-1,1070,904,0,0
-147,120,0,0,0,0,0,0,0,0,0,-1,1077,904,0,0
-140,120,0,0,0,0,0,0,0,0,0,-1,1084,904,0,0
-133,120,0,0,0,0,0,0,0,0,0,-1,1091,904,0,0
-126,120,0,0,0,0,0,0,0,0,0,-1,1098,904,0,0
-119,120,0,0,0,0,0,0,0,0,0,-1,1105,904,0,0
-112,120,0,0,0,0,0,0,0,0,0,-1,1112,904,0,0
-105,120,0,0,0,0,0,0,0,0,0,-1,1119,904,0,0
-98,120,0,0,0,0,0,0,0,0,0,-1,1126,904,0,0
-91,120,0,0,0,0,0,0,0,0,0,-1,1133,904,0,0
-84,120,0,0,0,0,0,0,0,0,0,-1,1140,904,0,0
-77,120,0,0,0,0,0,0,0,0,0,-1,1147,904,0,0
-70,120,0,0,0,0,0,0,0,0,0,-1,1154,904,0,0
-63,120,0,0,0,0,0,0,0,0,0,-1,1161,904,0,0
-56,120,0,0,0,0,0,0,0,0,0,-1,1168,904,0,0
-49,120,0,0,0,0,0,0,0,0,0,-1,1175,904,0,0
-42,120,0,0,0,0,0,0,0,0,0,-1,1182,904,0,0
-35,120,0,0,0,0,0,0,0,0,0,-1,1189,904,0,0
-28,120,0,0,0,0,0,0,0,0,0,-1,1196,904,0,0
-21,120,0,0,0,0,0,0,0,0,0,-1,1203,904,0,0
-14,120,0,0,0,0,0,0,0,0,0,-1,1210,904,0,0
-7,120,0,0,0,0,0,0,0,0,0,-1,1217,904,0,0
0,120,0,0,0,0,0,0,0,0,0,-1,1224,904,0,0
7,120,0,0,0,0,0,0,0,0,0,-1,1231,904,0,0
14,120,0,0,0,0,0,0,0,0,0,-1,1238,904,0,0
21,120,0,0,0,0,0,0,0,0,0,-1,1245,904,0,0
28,120,0,0,0,0,0,0,0,0,0,-1,1252,904,0,0
35,120,0,0,0,0,0,0,0,0,0,-1,1259,904,0,0
42,120,0,0,0,0,0,0,0,0,0,-1,1266,904,0,0
49,120,0,0,0,0,0,0,0,0,0,-1,1273,904,0,0
56,120,0,0,0,0,0,0,0,0,0,-1,1280,904,0,0
63,120,0,0,0,0,0,0,0,0,0,-1,1287,904,0,0
70,120,0,0,0,0,0,0,0,0,0,-1,1294,904,0,0
77,120,0,0,0,0,0,0,0,0,0,-1,1301,904,0,0
84,120,0,0,0,0,0,0,0,0,0,-1,1308,904,0,0
91,120,0,0,0,0,0,0,0,0,0,-1,1315,904,0,0
98,120,0,0,0,0,0,0,0,0,0,-1,1322,904,0,0
105,120,0,0,0,0,0,0,0,0,0,-1,1329,904,0,0
112,120,0,0,0,0,0,0,0,0,0,-1,1336,904,0,0
119,120,0,0,0,0,0,0,0,0,0,-1,1343,904,0,0
126,120,0,0,0,0,0,0,0,0,0,-1,1350,904,0,0
133,120,0,0,0,0,0,0,0,0,0,-1,1357,904,0,0
140,120,0,0,0,0,0,0,0,0,0,-1,1364,904,0,0
147,120,0,0,0,0,0,0,0,0,0,-1,1371,904,0,0
154,120,0,0,0,0,0,0,0,0,0,-1,1378,904,0,0
161,120,0,0,0,0,0,0,0,0,0,-1,1385,904,0,0
168,120,0,0,0,0,0,0,0,0,0,-1,1392,904,0,0
175,120,0,0,0,0,0,0,0,0,0,-1,1399,904,0,0
182,120,0,0,0,0,0,0,0,0,0,-1,1406,904,0,0
189,120,0,0,0,0,0,0,0,0,0,-1,1413,904,0,0
196,120,0,0,0,0,0,0,0,0,0,-1,1420,904,0,0
203,120,0,0,0,0,0,0,0,0,0,-1,1427,904,0,0
210,120,0,0,0,0,0,0,0,0,0,-1,1434,904,0,0
217,120,0,0,0,0,0,0,0,0,0,-1,1441,904,0,0
224,120,0,0,0,0,0,0,0,0,0,-1,1448,904,0,0
231,120,0,0,0,0,0,0,0,0,0,-1,1455,904,0,0
238,120,0,0,0,0,0,0,0,0,0,-1,1462,904,0,0
245,120,0,0,0,0,0,0,0,0,0,-1,1469,904,0,0
252,120,0,0,0,0,0,0,0,0,0,-1,1476,904,0,0
259,120,0,0,0,0,0,0,0,0,0,-1,1483,904,0,0
266,120,0,0,0,0,0,0,0,0,0,-1,1490,904,0,0
273,120,0,0,0,0,0,0,0,0,0,-1,1497,904,0,0
280,120,0,0,0,0,0,0,0,0,0,-1,1504,904,0,0
287,120,0,0,0,0,0,0,0,0,0,-1,1511,904,0,0
294,120,0,0,0,0,0,0,0,0,0,-1,1518,904,0,0
301,120,0,0,0,0,0,0,0,0,0,-1,1525,904,0,0
308,120,0,0,0,0,0,0,0,0,0,-1,1532,904,0,0
315,120,0,0,0,0,0,0,0,0,0,-1,1539,904,0,0
322,120,0,0,0,0,0,0,0,0,0,-1,1546,904,0,0
329,120,0,0,0,0,0,0,0,0,0,-1,1553,904,0,0
336,120,0,0,0,0,0,0,0,0,0,-1,1560,904,0,0
343,120,0,0,0,0,0,0,0,0,0,-1,1567,904,0,0
350,120,0,0,0,0,0,0,0,0,0,-1,1574,904,0,0
357,120,0,0,0,0,0,0,0,0,0,-1,1581,904,0,0
364,120,0,0,0,0,0,0,0,0,0,-1,1588,904,0,0
371,120,0,0,0,0,0,0,0,0,0,-1,1595,904,0,0
378,120,0,0,0,0,0,0,0,0,0,-1,1602,904,0,0
385,120,0,0,0,0,0,0,0,0,0,-1,1609,904,0,0
392,120,0,0,0,0,0,0,0,0,0,-1,1616,904,0,0
399,120,0,0,0,0,0,0,0,0,0,-1,1623,904,0,0
406,120,0,0,0,0,0,0,0,0,0,-1,1630,904,0,0
413,120,0,0,0,0,0,0,0,0,0,-1,1637,904,0,0
420,120,0,0,0,0,0,0,0,0,0,-1,1644,904,0,0
427,120,0,0,0,0,0,0,0,0,0,-1,1651,904,0,0
434,120,0,0,0,0,0,0,0,0,0,-1,1658,904,0,0
441,120,0,0,0,0,0,0,0,0,0,-1,1665,904,0,0
448,120,0,0,0,0,0,0,0,0,0,-1,1672,904,0,0
455,120,0,0,0,0,0,0,0,0,0,-1,1679,904,0,0
462,120,0,0,0,0,0,0,0,0,0,-1,1686,904,0,0
469,120,0,0,0,0,0,0,0,0,0,-1,1693,904,0,0
476,120,0,0,0,0,0,0,0,0,0,-1,1700,904,0,0
483,120,0,0,0,0,0,0,0,0,0,-1,1707,904,0,0
490,120,0,0,0,0,0,0,0,0,0,-1,1714,904,0,0
497,120,0,0,0,0,0,0,0,0,0,-1,1721,904,0,0
504,120,0,0,0,0,0,0,0,0,0,-1,1728,904,0,0
511,120,0,0,0,0,0,0,0,0,0,-1,1735,904,0,0
518,120,0,0,0,0,0,0,0,0,0,-1,1742,904,0,0
525,120,0,0,0,0,0,0,0,0,0,-1,1749,904,0,0
532,120,0,0,0,0,0,0,0,0,0,-1,1756,904,0,0
539,120,0,0,0,0,0,0,0,0,0,-1,1763,904,0,0
546,120,0,0,0,0,0,0,0,0,0,-1,1770,904,0,0
553,120,0,0,0,0,0,0,0,0,0,-1,1777,904,0,0
560,120,0,0,0,0,0,0,0,0,0,-1,1784,904,0,0
567,120,0,0,0,0,0,0,0,0,0,-1,1791,904,0,0
574,120,0,0,0,0,0,0,0,0,0,-1,1798,904,0,0
581,120,0,0,0,0,0,0,0,0,0,-1,1805,904,0,0
588,120,0,0,0,0,0,0,0,0,0,-1,1812,904,0,0
595,120,0,0,0,0,0,0,0,0,0,-1,1819,904,0,0
602,120,0,0,0,0,0,0,0,0,0,-1,1826,904,0,0
609,120,0,0,0,0,0,0,0,0,0,-1,1833,904,0,0
616,120,0,0,0,0,0,0,0,0,0,-1,1840,904,0,0
623,120,0,0,0,0,0,0,0,0,0,-1,1847,904,0,0
630,120,16.207,2.58698,0.00173148,0.00294939,0.000822113,0.00336352,0.00131735,1.10417,0.00195706,0.0397296,1854,904,16.207,-2.58699
637,120,16.3906,2.66125,0.000533261,0.00197439,0.00101374,0.00249756,1.00883e-05,1.09437,0.00166169,0.0412397,1861,904,16.3907,-2.66126
644,120,16.438,2.65448,-7.94237e-05,0.00102683,0.00111674,0.00171992,-0.000772516,1.01534,0.00147326,0.0411667,1868,904,16.438,-2.6545
651,120,16.3303,2.62799,-0.00182029,0.000380192,0.000644681,0.000555154,-0.00199525,1.30579,0.00154875,0.0422482,1875,904,16.3303,-2.62801
658,120,16.0929,2.55695,-0.0040153,-3.94644e-05,2.5309e-05,-3.93032e-05,-0.00401546,1.56443,0.00266397,0.0409516,1882,904,16.0929,-2.55695
665,120,16.1715,2.45575,-0.00593859,-0.000327567,-0.000535543,-0.00027691,-0.00598925,-1.47649,0.00390381,0.0364356,1889,904,16.1715,-2.45576
672,120,16.2249,2.31781,-0.00738537,-0.000496463,-0.00100813,-0.000351963,-0.00752987,-1.42843,0.0049068,0.0354421,1896,904,16.2249,-2.31783
679,120,16.2336,2.24969,-0.00831633,-0.000600187,-0.00133585,-0.000375463,-0.00854105,-1.40413,0.0055731,0.0303666,1903,904,16.2337,-2.24966
686,120,16.4543,2.35828,0,0,0,0,0,0,0,-1,1910,904,16.4544,-2.35829
693,120,15.7476,2.41119,-0.00973935,-0.000720487,-0.00176978,-0.000385635,-0.0100742,-1.3838,0.00659135,0.03716,1917,904,15.7475,-2.41118
700,120,14.9067,2.4469,-0.00971109,-0.000535304,-0.00188965,-0.000161388,-0.010085,-1.37544,0.00667019,0.0257704,1924,904,14.9068,-2.44692
707,120,14.4993,2.62219,-0.00902156,-0.000465404,-0.00200107,-2.05352e-05,-0.00946642,-1.35204,0.00630412,0.0183304,1931,904,14.4993,-2.6222
714,120,14.5669,2.77094,-0.0078598,-0.000213804,-0.00204821,0.000300303,-0.0083739,-1.32487,0.00568535,0.0155525,1938,904,14.5669,-2.77096
721,120,14.5781,2.87848,-0.00613288,-3.67364e-05,-0.00201696,0.000570169,-0.00673978,-1.27851,0.0046948,0.0130424,1945,904,14.5782,-2.87845
728,120,14.5895,2.99329,-0.00366517,0.000450692,-0.00213113,0.00135533,-0.0045698,-1.16936,0.00358476,0.00990501,1952,904,14.5895,-2.99327
735,120,14.5696,3.09845,-0.000761032,0.00126882,-0.00243894,0.00289558,-0.00238779,-0.982567,0.00305505,0.012147,1959,904,14.5695,-3.09844
742,120,14.5547,3.18774,0.00136368,0.00224609,-0.0027256,0.00456596,-0.000956191,-0.865639,0.00340772,0.0127556,1966,904,14.5547,-3.18774
749,120,14.5365,3.27374,0.00321492,0.00416216,-0.0034552,0.00717604,0.000201033,-0.853511,0.00471845,0.0100843,1973,904,14.5366,-3.27376
756,120,14.5349,3.37128,0.00492275,0.00631834,-0.00449677,0.0101711,0.00106996,-0.862372,0.00645374,0.011598,1980,904,14.5349,-3.3713
763,120,14.5155,3.42102,0.00529179,0.0091605,-0.00586301,0.0134,0.00105228,-0.944738,0.00860405,0.0203701,1987,904,14.5155,-3.42103
770,120,14.4889,3.34955,0.00418753,0.0129294,-0.00745747,0.0172025,-8.55541e-05,-1.05047,0.0114969,0.0400499,1994,904,14.4889,-3.34954
777,120,14.5098,3.25616,0,0,0,0,0,0,0,-1,2001,904,14.5098,-3.25614
784,120,14.8945,3.14063,0,0,0,0,0,0,0,-1,2008,904,14.8945,-3.14061
791,120,14.0398,4.04181,-0.0144173,0.0318435,-0.0133981,0.0354437,-0.0180175,-1.30829,0.0314076,0.0410935,2015,904,14.0398,-4.04179
798,120,13.0688,4.63654,-0.0303398,0.0415649,-0.0157369,0.0448582,-0.0336331,-1.3645,0.0454712,0.0448181,2022,904,13.0689,-4.63655
805,120,0,0,0,0,0,0,0,0,0,-1,2029,904,0,0
812,120,0,0,0,0,0,0,0,0,0,-1,2036,904,0,0
-700,113,0,0,0,0,0,0,0,0,0,-1,524,911,0,0
-693,113,0,0,0,0,0,0,0,0,0,-1,531,911,0,0
-686,113,0,0,0,0,0,0,0,0,0,-1,538,911,0,0
-679,113,-13.0101,-0.387024,0,0,0,0,0,0,0,-1,545,911,-13.0101,0.387054
-672,113,-11.776,-0.133667,0,0,0,0,0,0,0,-1,552,911,-11.776,0.133679
-665,113,-10.6155,-0.204773,0,0,0,0,0,0,0,-1,559,911,-10.6155,0.20479
-658,113,-11.1857,1.42896,0,0,0,0,0,0,0,-1,566,911,-11.1858,-1.42895
-651,113,-10.3665,1.50989,0.0726343,-0.0043449,-0.0150766,0.0754818,-0.00719237,-0.186668,0.0528819,0.0449632,573,911,-10.3665,-1.50988
-644,113,-9.53467,1.28162,0.0517723,-0.00292398,-0.0116844,0.0541638,-0.00531546,-0.201885,0.0380051,0.0421973,580,911,-9.53465,-1.28162
-637,113,-9.30511,1.14996,0.0355086,-0.00183091,-0.00867765,0.0374267,-0.00374905,-0.217546,0.0262901,0.0320819,587,911,-9.30511,-1.14998
-630,113,-9.25537,1.21405,0.0236719,-0.00115708,-0.00638876,0.0252194,-0.00270453,-0.237638,0.0177831,0.0141486,594,911,-9.25536,-1.21403
-623,113,-9.258,1.17554,0.0129227,-0.00160123,-0.00466013,0.0142893,-0.00296787,-0.285265,0.0106542,0.00959883,601,911,-9.25801,-1.17553
-616,113,-9.24664,1.09497,0.00527888,0.000744097,-0.00213258,0.0061242,-0.000101221,-0.377384,0.00411695,0.00891055,608,911,-9.24662,-1.095
-609,113,-9.25067,1.00415,0.000981091,-0.000404424,-0.00162426,0.00205416,-0.00147749,-0.583825,0.00204804,0.0107006,615,911,-9.25066,-1.00412
-602,113,-9.26941,0.921448,-0.00116541,-0.000930517,-0.000456406,-0.000576689,-0.00151924,-0.911331,0.00088557,0.0145126,622,911,-9.26941,-0.921466
-595,113,-9.24274,0.867737,-0.00363057,-0.000798875,-1.67936e-05,-0.000798775,-0.00363067,-1.56487,0.002203,0.0173879,629,911,-9.24276,-0.86772
-588,113,-9.24329,0.769165,-0.00505488,-0.000690498,0.000173192,-0.000683636,-0.00506174,1.5312,0.00317127,0.0185059,636,911,-9.2433,-0.769138
-581,113,-9.25653,0.666199,-0.00598904,-0.000737422,0.000359274,-0.000712957,-0.00601351,1.50281,0.00379375,0.0197852,643,911,-9.25652,-0.666228
-574,113,-9.22919,0.502258,-0.00659588,-0.000848768,0.000599508,-0.000786897,-0.00665775,1.46796,0.00420084,0.0183851,650,911,-9.2292,-0.50226
-567,113,-9.58447,0.425537,-0.00657029,-0.000791468,0.000580833,-0.000733666,-0.00662809,1.47161,0.00419561,0.0392164,657,911,-9.58444,-0.425507
-560,113,-10.198,0.459778,0,0,0,0,0,0,0,-1,664,911,-10.198,-0.459793
-553,113,-10.259,0.469238,-0.00527832,-0.000298215,0.000614784,-0.000223444,-0.00535309,1.44977,0.00349663,0.0365971,671,911,-10.259,-0.469214
-546,113,-10.2375,0.463013,-0.00405952,0.000149292,0.000611871,0.00023644,-0.00414667,1.42932,0.00284653,0.0332071,678,911,-10.2375,-0.46303
-539,113,-10.1651,0.570313,-0.00219085,0.000735894,0.000574567,0.000844649,-0.0022996,1.38373,0.001879,0.0334607,685,911,-10.1651,-0.570322
-532,113,-10.0939,0.543518,0.000440028,0.00146193,0.00050237,0.00166753,0.000234427,1.18233,0.00104237,0.0368516,692,911,-10.094,-0.543541
-525,113,-10.2345,0.650513,0.00397904,0.00230486,0.00031832,0.00403752,0.00224638,0.181691,0.002336,0.0394923,699,911,-10.2345,-0.650524
-518,113,-10.3087,0.683533,0.00816835,0.00326432,2.39507e-05,0.00816847,0.0032642,0.00488372,0.00474765,0.0386949,706,911,-10.3087,-0.683542
-511,113,-10.2394,0.552368,0.0114842,0.00391104,-0.000168786,0.0114879,0.00390728,-0.0222727,0.00674465,0.0399688,713,911,-10.2394,-0.552363
-504,113,0,0,0,0,0,0,0,0,0,-1,720,911,0,0
-497,113,0,0,0,0,0,0,0,0,0,-1,727,911,0,0
-490,113,0,0,0,0,0,0,0,0,0,-1,734,911,0,0
-483,113,0,0,0,0,0,0,0,0,0,-1,741,911,0,0
-476,113,0,0,0,0,0,0,0,0,0,-1,748,911,0,0
-469,113,0,0,0,0,0,0,0,0,0,-1,755,911,0,0
-462,113,0,0,0,0,0,0,0,0,0,-1,762,911,0,0
-455,113,0,0,0,0,0,0,0,0,0,-1,769,911,0,0
-448,113,0,0,0,0,0,0,0,0,0,-1,776,911,0,0
-441,113,0,0,0,0,0,0,0,0,0,-1,783,911,0,0
-434,113,0,0,0,0,0,0,0,0,0,-1,790,911,0,0
-427,113,0,0,0,0,0,0,0,0,0,-1,797,911,0,0
-420,113,0,0,0,0,0,0,0,0,0,-1,804,911,0,0
-413,113,0,0,0,0,0,0,0,0,0,-1,811,911,0,0
-406,113,0,0,0,0,0,0,0,0,0,-1,818,911,0,0
-399,113,0,0,0,0,0,0,0,0,0,-1,825,911,0,0
-392,113,0,0,0,0,0,0,0,0,0,-1,832,911,0,0
-385,113,0,0,0,0,0,0,0,0,0,-1,839,911,0,0
-378,113,0,0,0,0,0,0,0,0,0,-1,846,911,0,0
-371,113,0,0,0,0,0,0,0,0,0,-1,853,911,0,0
-364,113,0,0,0,0,0,0,0,0,0,-1,860,911,0,0
-357,113,0,0,0,0,0,0,0,0,0,-1,867,911,0,0
-350,113,0,0,0,0,0,0,0,0,0,-1,874,911,0,0
-343,113,0,0,0,0,0,0,0,0,0,-1,881,911,0,0
-336,113,0,0,0,0,0,0,0,0,0,-1,888,911,0,0
-329,113,0,0,0,0,0,0,0,0,0,-1,895,911,0,0
-322,113,0,0,0,0,0,0,0,0,0,-1,902,911,0,0
-315,113,0,0,0,0,0,0,0,0,0,-1,909,911,0,0
-308,113,0,0,0,0,0,0,0,0,0,-1,916,911,0,0
-301,113,0,0,0,0,0,0,0,0,0,-1,923,911,0,0
-294,113,0,0,0,0,0,0,0,0,0,-1,930,911,0,0
-287,113,0,0,0,0,0,0,0,0,0,-1,937,911,0,0
-280,113,0,0,0,0,0,0,0,0,0,-1,944,911,0,0
-273,113,0,0,0,0,0,0,0,0,0,-1,951,911,0,0
-266,113,0,0,0,0,0,0,0,0,0,-1,958,911,0,0
-259,113,0,0,0,0,0,0,0,0,0,-1,965,911,0,0
-252,113,0,0,0,0,0,0,0,0,0,-1,972,911,0,0
-245,113,0,0,0,0,0,0,0,0,0,-1,979,911,0,0
-238,113,0,0,0,0,0,0,0,0,0,-1,986,911,0,0
-231,113,0,0,0,0,0,0,0,0,0,-1,993,911,0,0
-224,113,0,0,0,0,0,0,0,0,0,-1,1000,911,0,0
-217,113,0,0,0,0,0,0,0,0,0,-1,1007,911,0,0
-210,113,0,0,0,0,0,0,0,0,0,-1,1014,911,0,0
-203,113,0,0,0,0,0,0,0,0,0,-1,1021,911,0,0
-196,113,0,0,0,0,0,0,0,0,0,-1,1028,911,0,0
-189,113,0,0,0,0,0,0,0,0,0,-1,1035,911,0,0
-182,113,0,0,0,0,0,0,0,0,0,-1,1042,911,0,0
-175,113,0,0,0,0,0,0,0,0,0,-1,1049,911,0,0
-168,113,0,0,0,0,0,0,0,0,0,-1,1056,911,0,0
-161,113,0,0,0,0,0,0,0,0,0,-1,1063,911,0,0
-154,113,0,0,0,0,0,0,0,0,0,-1,1070,911,0,0
-147,113,0,0,0,0,0,0,0,0,0,-1,1077,911,0,0
-140,113,0,0,0,0,0,0,0,0,0,-1,1084,911,0,0
-133,113,0,0,0,0,0,0,0,0,0,-1,1091,911,0,0
-126,113,0,0,0,0,0,0,0,0,0,-1,1098,911,0,0
-119,113,0,0,0,0,0,0,0,0,0,-1,1105,911,0,0
-112,113,0,0,0,0,0,0,0,0,0,-1,1112,911,0,0
-105,113,0,0,0,0,0,0,0,0,0,-1,1119,911,0,0
-98,113,0,0,0,0,0,0,0,0,0,-1,1126,911,0,0
-91,113,0,0,0,0,0,0,0,0,0,-1,1133,911,0,0
-84,113,0,0,0,0,0,0,0,0,0,-1,1140,911,0,0
-77,113,0,0,0,0,0,0,0,0,0,-1,1147,911,0,0
-70,113,0,0,0,0,0,0,0,0,0,-1,1154,911,0,0
-63,113,0,0,0,0,0,0,0,0,0,-1,1161,911,0,0
-56,113,0,0,0,0,0,0,0,0,0,-1,1168,911,0,0
-49,113,0,0,0,0,0,0,0,0,0,-1,1175,911,0,0
-42,113,0,0,0,0,0,0,0,0,0,-1,1182,911,0,0
-35,113,0,0,0,0,0,0,0,0,0,-1,1189,911,0,0
-28,113,0,0,0,0,0,0,0,0,0,-1,1196,911,0,0
-21,113,0,0,0,0,0,0,0,0,0,-1,1203,911,0,0
-14,113,0,0,0,0,0,0,0,0,0,-1,1210,911,0,0
-7,113,0,0,0,0,0,0,0,0,0,-1,1217,911,0,0
0,113,0,0,0,0,0,0,0,0,0,-1,1224,911,0,0
7,113,0,0,0,0,0,0,0,0,0,-1,1231,911,0,0
14,113,0,0,0,0,0,0,0,0,0,-1,1238,911,0,0
21,113,0,0,0,0,0,0,0,0,0,-1,1245,911,0,0
28,113,0,0,0,0,0,0,0,0,0,-1,1252,911,0,0
35,113,0,0,0,0,0,0,0,0,0,-1,1259,911,0,0
42,113,0,0,0,0,0,0,0,0,0,-1,1266,911,0,0
49,113,0,0,0,0,0,0,0,0,0,-1,1273,911,0,0
56,113,0,0,0,0,0,0,0,0,0,-1,1280,911,0,0
63,113,0,0,0,0,0,0,0,0,0,-1,1287,911,0,0
70,113,0,0,0,0,0,0,0,0,0,-1,1294,911,0,0
77,113,0,0,0,0,0,0,0,0,0,-1,1301,911,0,0
84,113,0,0,0,0,0,0,0,0,0,-1,1308,911,0,0
91,113,0,0,0,0,0,0,0,0,0,-1,1315,911,0,0
98,113,0,0,0,0,0,0,0,0,0,-1,1322,911,0,0
105,113,0,0,0,0,0,0,0,0,0,-1,1329,911,0,0
112,113,0,0,0,0,0,0,0,0,0,-1,1336,911,0,0
119,113,0,0,0,0,0,0,0,0,0,-1,1343,911,0,0
126,113,0,0,0,0,0,0,0,0,0,-1,1350,911,0,0
133,113,0,0,0,0,0,0,0,0,0,-1,1357,911,0,0
140,113,0,0,0,0,0,0,0,0,0,-1,1364,911,0,0
147,113,0,0,0,0,0,0,0,0,0,-1,1371,911,0,0
154,113,0,0,0,0,0,0,0,0,0,-1,1378,911,0,0
161,113,0,0,0,0,0,0,0,0,0,-1,1385,911,0,0
168,113,0,0,0,0,0,0,0,0,0,-1,1392,911,0,0
175,113,0,0,0,0,0,0,0,0,0,-1,1399,911,0,0
182,113,0,0,0,0,0,0,0,0,0,-1,1406,911,0,0
189,113,0,0,0,0,0,0,0,0,0,-1,1413,911,0,0
196,113,0,0,0,0,0,0,0,0,0,-1,1420,911,0,0
203,113,0,0,0,0,0,0,0,0,0,-1,1427,911,0,0
210,113,0,0,0,0,0,0,0,0,0,-1,1434,911,0,0
217,113,0,0,0,0,0,0,0,0,0,-1,1441,911,0,0
224,113,0,0,0,0,0,0,0,0,0,-1,1448,911,0,0
231,113,0,0,0,0,0,0,0,0,0,-1,1455,911,0,0
238,113,0,0,0,0,0,0,0,0,0,-1,1462,911,0,0
245,113,0,0,0,0,0,0,0,0,0,-1,1469,911,0,0
252,113,0,0,0,0,0,0,0,0,0,-1,1476,911,0,0
259,113,0,0,0,0,0,0,0,0,0,-1,1483,911,0,0
266,113,0,0,0,0,0,0,0,0,0,-1,1490,911,0,0
273,113,0,0,0,0,0,0,0,0,0,-1,1497,911,0,0
280,113,0,0,0,0,0,0,0,0,0,-1,1504,911,0,0
287,113,0,0,0,0,0,0,0,0,0,-1,1511,911,0,0
294,113,0,0,0,0,0,0,0,0,0,-1,1518,911,0,0
301,113,0,0,0,0,0,0,0,0,0,-1,1525,911,0,0
308,113,0,0,0,0,0,0,0,0,0,-1,1532,911,0,0
315,113,0,0,0,0,0,0,0,0,0,-1,1539,911,0,0
322,113,0,0,0,0,0,0,0,0,0,-1,1546,911,0,0
329,113,0,0,0,0,0,0,0,0,0,-1,1553,911,0,0
336,113,0,0,0,0,0,0,0,0,0,-1,1560,911,0,0
343,113,0,0,0,0,0,0,0,0,0,-1,1567,911,0,0
350,113,0,0,0,0,0,0,0,0,0,-1,1574,911,0,0
357,113,0,0,0,0,0,0,0,0,0,-1,1581,911,0,0
364,113,0,0,0,0,0,0,0,0,0,-1,1588,911,0,0
371,113,0,0,0,0,0,0,0,0,0,-1,1595,911,0,0
378,113,0,0,0,0,0,0,0,0,0,-1,1602,911,0,0
385,113,0,0,0,0,0,0,0,0,0,-1,1609,911,0,0
392,113,0,0,0,0,0,0,0,0,0,-1,1616,911,0,0
399,113,0,0,0,0,0,0,0,0,0,-1,1623,911,0,0
406,113,0,0,0,0,0,0,0,0,0,-1,1630,911,0,0
413,113,0,0,0,0,0,0,0,0,0,-1,1637,911,0,0
420,113,0,0,0,0,0,0,0,0,0,-1,1644,911,0,0
427,113,0,0,0,0,0,0,0,0,0,-1,1651,911,0,0
434,113,0,0,0,0,0,0,0,0,0,-1,1658,911,0,0
441,113,0,0,0,0,0,0,0,0,0,-1,1665,911,0,0
448,113,0,0,0,0,0,0,0,0,0,-1,1672,911,0,0
455,113,0,0,0,0,0,0,0,0,0,-1,1679,911,0,0
462,113,0,0,0,0,0,0,0,0,0,-1,1686,911,0,0
469,113,0,0,0,0,0,0,0,0,0,-1,1693,911,0,0
476,113,0,0,0,0,0,0,0,0,0,-1,1700,911,0,0
483,113,0,0,0,0,0,0,0,0,0,-1,1707,911,0,0
490,113,0,0,0,0,0,0,0,0,0,-1,1714,911,0,0
497,113,0,0,0,0,0,0,0,0,0,-1,1721,911,0,0
504,113,0,0,0,0,0,0,0,0,0,-1,1728,911,0,0
511,113,0,0,0,0,0,0,0,0,0,-1,1735,911,0,0
518,113,0,0,0,0,0,0,0,0,0,-1,1742,911,0,0
525,113,0,0,0,0,0,0,0,0,0,-1,1749,911,0,0
532,113,0,0,0,0,0,0,0,0,0,-1,1756,911,0,0
539,113,0,0,0,0,0,0,0,0,0,-1,1763,911,0,0
546,113,0,0,0,0,0,0,0,0,0,-1,1770,911,0,0
553,113,0,0,0,0,0,0,0,0,0,-1,1777,911,0,0
560,113,0,0,0,0,0,0,0,0,0,-1,1784,911,0,0
567,113,0,0,0,0,0,0,0,0,0,-1,1791,911,0,0
574,113,0,0,0,0,0,0,0,0,0,-1,1798,911,0,0
581,113,0,0,0,0,0,0,0,0,0,-1,1805,911,0,0
588,113,0,0,0,0,0,0,0,0,0,-1,1812,911,0,0
595,113,0,0,0,0,0,0,0,0,0,-1,1819,911,0,0
602,113,0,0,0,0,0,0,0,0,0,-1,1826,911,0,0
609,113,0,0,0,0,0,0,0,0,0,-1,1833,911,0,0
616,113,0,0,0,0,0,0,0,0,0,-1,1840,911,0,0
623,113,0,0,0,0,0,0,0,0,0,-1,1847,911,0,0
630,113,16.285,2.55005,0.00306323,0.00380099,0.00140547,0.00488518,0.00197904,0.913733,0.00283734,0.0376285,1854,911,16.285,-2.55002
637,113,16.3772,2.66101,0.00146999,0.00267915,0.00168805,0.00386763,0.00028152,0.957358,0.00248989,0.0383834,1861,911,16.3772,-2.661
644,113,16.583,2.60254,0.000765475,0.00156278,0.00182679,0.00303391,-0.000705658,0.892827,0.00229429,0.0383799,1868,911,16.5831,-2.60253
651,113,16.5918,2.3327,-0.00104005,0.00081732,0.00132831,0.00150939,-0.00173213,1.09047,0.00187296,0.0420611,1875,911,16.5918,-2.33272
658,113,16.3262,2.14264,0,0,0,0,0,0,0,-1,1882,911,16.3262,-2.14261
665,113,16.2574,2.39319,-0.00558547,-6.08127e-05,1.39962e-05,-6.07772e-05,-0.0055855,1.56826,0.00370358,0.0373013,1889,911,16.2575,-2.3932
672,113,16.2,2.41284,-0.00723836,-0.000282638,-0.000524529,-0.000243306,-0.0072777,-1.49595,0.00477276,0.0362277,1896,911,16.1999,-2.41285
679,113,16.2059,2.30005,-0.00834683,-0.000432442,-0.000903024,-0.000330716,-0.00844856,-1.45862,0.00552543,0.0293467,1903,911,16.206,-2.30008
686,113,16.2163,2.29352,-0.00925157,-0.000459113,-0.00121603,-0.000294032,-0.00941665,-1.43587,0.00618209,0.025088,1910,911,16.2163,-2.29353
693,113,15.9583,2.4469,0,0,0,0,0,0,0,-1,1917,911,15.9583,-2.44688
700,113,15.2775,2.58099,-0.00994177,-0.000469208,-0.00152639,-0.000229324,-0.0101817,-1.41491,0.00671263,0.0375674,1924,911,15.2775,-2.58098
707,113,14.6465,2.64423,-0.0092962,-0.000416534,-0.00167988,-0.000109355,-0.00960338,-1.38994,0.00636612,0.0252319,1931,911,14.6464,-2.6442
714,113,14.6589,2.75299,-0.00822656,-0.000181474,-0.00174579,0.000181032,-0.00858907,-1.36606,0.00578733,0.0158488,1938,911,14.6589,-2.75299
721,113,14.6686,2.8576,-0.00665931,-2.818e-05,-0.0017117,0.000387593,-0.00707508,-1.33251,0.00485108,0.0146685,1945,911,14.6686,-2.85758
728,113,14.6908,2.99213,-0.00445894,0.000400234,-0.00182846,0.0010114,-0.0050701,-1.24822,0.00376279,0.0155194,1952,911,14.6908,-2.99215
735,113,14.6967,3.10504,-0.00201912,0.00116156,-0.0020787,0.0021885,-0.00304606,-1.11193,0.00303567,0.0151508,1959,911,14.6967,-3.10504
742,113,14.6857,3.18579,-0.000381956,0.00210857,-0.00233458,0.00350923,-0.00178262,-1.0304,0.00310899,0.0117655,1966,911,14.6857,-3.18579
749,113,14.6735,3.28046,0.000963708,0.00406637,-0.00308282,0.00596618,-0.000936104,-1.01851,0.0043234,0.00862734,1973,911,14.6735,-3.28044
756,113,14.6748,3.36853,0.00199138,0.00625719,-0.00408836,0.00873558,-0.000487002,-1.02583,0.00599265,0.0102013,1980,911,14.6748,-3.36852
763,113,14.6174,3.46985,0.00152703,0.00915985,-0.0054124,0.0119661,-0.00127918,-1.09248,0.00843615,0.0195045,1987,911,14.6174,-3.46982
770,113,14.4784,3.4082,-0.000630226,0.0130423,-0.00699263,0.0159852,-0.00357308,-1.17244,0.0120261,0.0393233,1994,911,14.4784,-3.4082
777,113,14.5187,3.97052,0,0,0,0,0,0,0,-1,2001,911,14.5187,-3.97054
784,113,14.434,4.84113,0,0,0,0,0,0,0,-1,2008,911,14.4339,-4.84115
791,113,14.0183,4.2948,-0.0228733,0.0330607,-0.0134775,0.0361388,-0.0259513,-1.34626,0.0360082,0.0422934,2015,911,14.0183,-4.29479
798,113,13.0206,4.78107,-0.0396413,0.0436889,-0.016457,0.0468213,-0.0427737,-1.38271,0.0517452,0.0437794,2022,911,13.0207,-4.78108
805,113,0,0,0,0,0,0,0,0,0,-1,2029,911,0,0
812,113,0,0,0,0,0,0,0,0,0,-1,2036,911,0,0
-700,106,0,0,0,0,0,0,0,0,0,-1,524,918,0,0
-693,106,0,0,0,0,0,0,0,0,0,-1,531,918,0,0
-686,106,0,0,0,0,0,0,0,0,0,-1,538,918,0,0
-679,106,-12.2429,-0.631958,0.182008,-0.00270991,-0.0246518,0.185241,-0.00594327,-0.130416,0.125522,0.046746,545,918,-12.2429,0.631959
-672,106,-11.6793,-0.544678,0.147484,-0.00164648,-0.0226531,0.150849,-0.00501157,-0.147471,0.102277,0.0474269,552,918,-11.6792,0.54465
-665,106,-8.01263,3.05304,0.116247,-0.000546235,-0.0197645,0.119501,-0.00380024,-0.163175,0.0809638,0.0468241,559,918,-8.01264,-3.05305
-658,106,-10.5861,2.00916,0.0889987,0.000323026,-0.0165557,0.0919888,-0.0026671,-0.178683,0.0622339,0.0428539,566,918,-10.5861,-2.00913
-651,106,-9.73785,2.0423,0.0659857,0.000903747,-0.0133358,0.0686123,-0.00172286,-0.19447,0.0463265,0.044154,573,918,-9.73784,-2.04227
-644,106,-9.38062,1.66022,0.0472119,0.0012154,-0.0103194,0.049421,-0.000993671,-0.210887,0.0332835,0.0419463,580,918,-9.3806,-1.6602
-637,106,-9.33661,1.21954,0.0325153,0.00131159,-0.00765087,0.0342902,-0.000463376,-0.227962,0.0230162,0.0280459,587,918,-9.33659,-1.21956
-630,106,-9.34137,1.2229,0.0218401,0.00103381,-0.00568173,0.0232905,-0.000416627,-0.249943,0.0156677,0.0116498,594,918,-9.34137,-1.22287
-623,106,-9.34583,1.16858,0.011781,-0.000144571,-0.00417301,0.0130961,-0.00145976,-0.305311,0.00925579,0.0103967,601,918,-9.34582,-1.16857
-616,106,-9.34229,1.08801,0.00443423,0.0017521,-0.00181896,0.00535304,0.000833283,-0.467746,0.00332591,0.0103788,608,918,-9.34231,-1.08799
-609,106,-9.32898,1.00647,0.000370287,0.000282045,-0.00148557,0.00181239,-0.00116006,-0.770553,0.00172986,0.0102957,615,918,-9.329,-1.00646
-602,106,-9.33551,0.915222,-0.00166163,-0.00043292,-0.00046607,-0.000276137,-0.00181841,-1.24629,0.00113152,0.0118588,622,918,-9.3355,-0.915252
-595,106,-9.39368,0.848999,-0.00396482,-0.000398154,-0.000139929,-0.000392673,-0.0039703,-1.53164,0.00252617,0.0151883,629,918,-9.39367,-0.848979
-588,106,-9.37665,0.76062,-0.00528728,-0.000356186,1.73987e-05,-0.000356124,-0.00528734,1.56727,0.00341239,0.016641,636,918,-9.37663,-0.760593
-581,106,-9.31543,0.657837,-0.00607202,-0.000473401,0.000166856,-0.000468433,-0.00607699,1.54103,0.00390456,0.0141822,643,918,-9.31541,-0.657865
-574,106,-9.32654,0.549866,-0.00656647,-0.000587111,0.000347795,-0.00056695,-0.00658663,1.51289,0.00421484,0.0180786,650,918,-9.32653,-0.549892
-567,106,-9.76471,0.545959,-0.00649208,-0.000506223,0.000286424,-0.000492548,-0.00650576,1.52309,0.00418267,0.0327941,657,918,-9.76473,-0.545938
-560,106,-10.1783,0.566772,-0.00583245,-0.000300115,0.000268709,-0.000287094,-0.00584548,1.52238,0.0038049,0.0373682,664,918,-10.1783,-0.566784
-553,106,-10.253,0.574829,-0.00504836,5.75068e-05,0.000290104,7.3937e-05,-0.00506479,1.51422,0.00340144,0.0340357,671,918,-10.253,-0.574837
-546,106,-10.2264,0.420593,-0.0037278,0.000533127,0.000304349,0.000554756,-0.00374943,1.49985,0.00270358,0.0361745,678,918,-10.2264,-0.42058
-539,106,-10.2198,0.279602,-0.00180492,0.00113805,0.000320661,0.00117258,-0.00183945,1.46352,0.00175315,0.0378632,685,918,-10.2198,-0.279624
-532,106,-10.1262,0.453186,0.000792063,0.00186626,0.000346458,0.00196831,0.000690015,1.28435,0.0011532,0.0395446,692,918,-10.1262,-0.453196
-525,106,-10.174,0.633118,0.00412541,0.00268913,0.000316246,0.00419196,0.00262258,0.207407,0.00244556,0.0393502,699,918,-10.174,-0.633108
-518,106,-10.2868,0.458191,0.00763146,0.00361657,0.000254766,0.00764757,0.00360047,0.0631177,0.00441783,0.0371516,706,918,-10.2868,-0.458207
-511,106,0,0,0,0,0,0,0,0,0,-1,713,918,0,0
-504,106,0,0,0,0,0,0,0,0,0,-1,720,918,0,0
-497,106,0,0,0,0,0,0,0,0,0,-1,727,918,0,0
-490,106,0,0,0,0,0,0,0,0,0,-1,734,918,0,0
-483,106,0,0,0,0,0,0,0,0,0,-1,741,918,0,0
-476,106,0,0,0,0,0,0,0,0,0,-1,748,918,0,0
-469,106,0,0,0,0,0,0,0,0,0,-1,755,918,0,0
-462,106,0,0,0,0,0,0,0,0,0,-1,762,918,0,0
-455,106,0,0,0,0,0,0,0,0,0,-1,769,918,0,0
-448,106,0,0,0,0,0,0,0,0,0,-1,776,918,0,0
-441,106,0,0,0,0,0,0,0,0,0,-1,783,918,0,0
-434,106,0,0,0,0,0,0,0,0,0,-1,790,918,0,0
-427,106,0,0,0,0,0,0,0,0,0,-1,797,918,0,0
-420,106,0,0,0,0,0,0,0,0,0,-1,804,918,0,0
-413,106,0,0,0,0,0,0,0,0,0,-1,811,918,0,0
-406,106,0,0,0,0,0,0,0,0,0,-1,818,918,0,0
-399,106,0,0,0,0,0,0,0,0,0,-1,825,918,0,0
-392,106,0,0,0,0,0,0,0,0,0,-1,832,918,0,0
-385,106,0,0,0,0,0,0,0,0,0,-1,839,918,0,0
-378,106,0,0,0,0,0,0,0,0,0,-1,846,918,0,0
-371,106,0,0,0,0,0,0,0,0,0,-1,853,918,0,0
-364,106,0,0,0,0,0,0,0,0,0,-1,860,918,0,0
-357,106,0,0,0,0,0,0,0,0,0,-1,867,918,0,0
-350,106,0,0,0,0,0,0,0,0,0,-1,874,918,0,0
-343,106,0,0,0,0,0,0,0,0,0,-1,881,918,0,0
-336,106,0,0,0,0,0,0,0,0,0,-1,888,918,0,0
-329,106,0,0,0,0,0,0,0,0,0,-1,895,918,0,0
-322,106,0,0,0,0,0,0,0,0,0,-1,902,918,0,0
-315,106,0,0,0,0,0,0,0,0,0,-1,909,918,0,0
-308,106,0,0,0,0,0,0,0,0,0,-1,916,918,0,0
-301,106,0,0,0,0,0,0,0,0,0,-1,923,918,0,0
-294,106,0,0,0,0,0,0,0,0,0,-1,930,918,0,0
-287,106,0,0,0,0,0,0,0,0,0,-1,937,918,0,0
-280,106,0,0,0,0,0,0,0,0,0,-1,944,918,0,0
-273,106,0,0,0,0,0,0,0,0,0,-1,951,918,0,0
-266,106,0,0,0,0,0,0,0,0,0,-1,958,918,0,0
-259,106,0,0,0,0,0,0,0,0,0,-1,965,918,0,0
-252,106,0,0,0,0,0,0,0,0,0,-1,972,918,0,0
-245,106,0,0,0,0,0,0,0,0,0,-1,979,918,0,0
-238,106,0,0,0,0,0,0,0,0,0,-1,986,918,0,0
-231,106,0,0,0,0,0,0,0,0,0,-1,993,918,0,0
-224,106,0,0,0,0,0,0,0,0,0,-1,1000,918,0,0
-217,106,0,0,0,0,0,0,0,0,0,-1,1007,918,0,0
-210,106,0,0,0,0,0,0,0,0,0,-1,1014,918,0,0
-203,106,0,0,0,0,0,0,0,0,0,-1,1021,918,0,0
-196,106,0,0,0,0,0,0,0,0,0,-1,1028,918,0,0
-189,106,0,0,0,0,0,0,0,0,0,-1,1035,918,0,0
-182,106,0,0,0,0,0,0,0,0,0,-1,1042,918,0,0
-175,106,0,0,0,0,0,0,0,0,0,-1,1049,918,0,0
-168,106,0,0,0,0,0,0,0,0,0,-1,1056,918,0,0
-161,106,0,0,0,0,0,0,0,0,0,-1,1063,918,0,0
-154,106,0,0,0,0,0,0,0,0,0,-1,1070,918,0,0
-147,106,0,0,0,0,0,0,0,0,0,-1,1077,918,0,0
-140,106,0,0,0,0,0,0,0,0,0,-1,1084,918,0,0
-133,106,0,0,0,0,0,0,0,0,0,-1,1091,918,0,0
-126,106,0,0,0,0,0,0,0,0,0,-1,1098,918,0,0
-119,106,0,0,0,0,0,0,0,0,0,-1,1105,918,0,0
-112,106,0,0,0,0,0,0,0,0,0,-1,1112,918,0,0
-105,106,0,0,0,0,0,0,0,0,0,-1,1119,918,0,0
-98,106,0,0,0,0,0,0,0,0,0,-1,1126,918,0,0
-91,106,0,0,0,0,0,0,0,0,0,-1,1133,918,0,0
-84,106,0,0,0,0,0,0,0,0,0,-1,1140,918,0,0
-77,106,0,0,0,0,0,0,0,0,0,-1,1147,918,0,0
-70,106,0,0,0,0,0,0,0,0,0,-1,1154,918,0,0
-63,106,0,0,0,0,0,0,0,0,0,-1,1161,918,0,0
-56,106,0,0,0,0,0,0,0,0,0,-1,1168,918,0,0
-49,106,0,0,0,0,0,0,0,0,0,-1,1175,918,0,0
-42,106,0,0,0,0,0,0,0,0,0,-1,1182,918,0,0
-35,106,0,0,0,0,0,0,0,0,0,-1,1189,918,0,0
-28,106,0,0,0,0,0,0,0,0,0,-1,1196,918,0,0
-21,106,0,0,0,0,0,0,0,0,0,-1,1203,918,0,0
-14,106,0,0,0,0,0,0,0,0,0,-1,1210,918,0,0
-7,106,0,0,0,0,0,0,0,0,0,-1,1217,918,0,0
0,106,0,0,0,0,0,0,0,0,0,-1,1224,918,0,0
7,106,0,0,0,0,0,0,0,0,0,-1,1231,918,0,0
14,106,0,0,0,0,0,0,0,0,0,-1,1238,918,0,0
21,106,0,0,0,0,0,0,0,0,0,-1,1245,918,0,0
28,106,0,0,0,0,0,0,0,0,0,-1,1252,918,0,0
35,106,0,0,0,0,0,0,0,0,0,-1,1259,918,0,0
42,106,0,0,0,0,0,0,0,0,0,-1,1266,918,0,0
49,106,0,0,0,0,0,0,0,0,0,-1,1273,918,0,0
56,106,0,0,0,0,0,0,0,0,0,-1,1280,918,0,0
63,106,0,0,0,0,0,0,0,0,0,-1,1287,918,0,0
70,106,0,0,0,0,0,0,0,0,0,-1,1294,918,0,0
77,106,0,0,0,0,0,0,0,0,0,-1,1301,918,0,0
84,106,0,0,0,0,0,0,0,0,0,-1,1308,918,0,0
91,106,0,0,0,0,0,0,0,0,0,-1,1315,918,0,0
98,106,0,0,0,0,0,0,0,0,0,-1,1322,918,0,0
105,106,0,0,0,0,0,0,0,0,0,-1,1329,918,0,0
112,106,0,0,0,0,0,0,0,0,0,-1,1336,918,0,0
119,106,0,0,0,0,0,0,0,0,0,-1,1343,918,0,0
126,106,0,0,0,0,0,0,0,0,0,-1,1350,918,0,0
133,106,0,0,0,0,0,0,0,0,0,-1,1357,918,0,0
140,106,0,0,0,0,0,0,0,0,0,-1,1364,918,0,0
147,106,0,0,0,0,0,0,0,0,0,-1,1371,918,0,0
154,106,0,0,0,0,0,0,0,0,0,-1,1378,918,0,0
161,106,0,0,0,0,0,0,0,0,0,-1,1385,918,0,0
168,106,0,0,0,0,0,0,0,0,0,-1,1392,918,0,0
175,106,0,0,0,0,0,0,0,0,0,-1,1399,918,0,0
182,106,0,0,0,0,0,0,0,0,0,-1,1406,918,0,0
189,106,0,0,0,0,0,0,0,0,0,-1,1413,918,0,0
196,106,0,0,0,0,0,0,0,0,0,-1,1420,918,0,0
203,106,0,0,0,0,0,0,0,0,0,-1,1427,918,0,0
210,106,0,0,0,0,0,0,0,0,0,-1,1434,918,0,0
217,106,0,0,0,0,0,0,0,0,0,-1,1441,918,0,0
224,106,0,0,0,0,0,0,0,0,0,-1,1448,918,0,0
231,106,0,0,0,0,0,0,0,0,0,-1,1455,918,0,0
238,106,0,0,0,0,0,0,0,0,0,-1,1462,918,0,0
245,106,0,0,0,0,0,0,0,0,0,-1,1469,918,0,0
252,106,0,0,0,0,0,0,0,0,0,-1,1476,918,0,0
259,106,0,0,0,0,0,0,0,0,0,-1,1483,918,0,0
266,106,0,0,0,0,0,0,0,0,0,-1,1490,918,0,0
273,106,0,0,0,0,0,0,0,0,0,-1,1497,918,0,0
280,106,0,0,0,0,0,0,0,0,0,-1,1504,918,0,0
287,106,0,0,0,0,0,0,0,0,0,-1,1511,918,0,0
294,106,0,0,0,0,0,0,0,0,0,-1,1518,918,0,0
301,106,0,0,0,0,0,0,0,0,0,-1,1525,918,0,0
308,106,0,0,0,0,0,0,0,0,0,-1,1532,918,0,0
315,106,0,0,0,0,0,0,0,0,0,-1,1539,918,0,0
322,106,0,0,0,0,0,0,0,0,0,-1,1546,918,0,0
329,106,0,0,0,0,0,0,0,0,0,-1,1553,918,0,0
336,106,0,0,0,0,0,0,0,0,0,-1,1560,918,0,0
343,106,0,0,0,0,0,0,0,0,0,-1,1567,918,0,0
350,106,0,0,0,0,0,0,0,0,0,-1,1574,918,0,0
357,106,0,0,0,0,0,0,0,0,0,-1,1581,918,0,0
364,106,0,0,0,0,0,0,0,0,0,-1,1588,918,0,0
371,106,0,0,0,0,0,0,0,0,0,-1,1595,918,0,0
378,106,0,0,0,0,0,0,0,0,0,-1,1602,918,0,0
385,106,0,0,0,0,0,0,0,0,0,-1,1609,918,0,0
392,106,0,0,0,0,0,0,0,0,0,-1,1616,918,0,0
399,106,0,0,0,0,0,0,0,0,0,-1,1623,918,0,0
406,106,0,0,0,0,0,0,0,0,0,-1,1630,918,0,0
413,106,0,0,0,0,0,0,0,0,0,-1,1637,918,0,0
420,106,0,0,0,0,0,0,0,0,0,-1,1644,918,0,0
427,106,0,0,0,0,0,0,0,0,0,-1,1651,918,0,0
434,106,0,0,0,0,0,0,0,0,0,-1,1658,918,0,0
441,106,0,0,0,0,0,0,0,0,0,-1,1665,918,0,0
448,106,0,0,0,0,0,0,0,0,0,-1,1672,918,0,0
455,106,0,0,0,0,0,0,0,0,0,-1,1679,918,0,0
462,106,0,0,0,0,0,0,0,0,0,-1,1686,918,0,0
469,106,0,0,0,0,0,0,0,0,0,-1,1693,918,0,0
476,106,0,0,0,0,0,0,0,0,0,-1,1700,918,0,0
483,106,0,0,0,0,0,0,0,0,0,-1,1707,918,0,0
490,106,0,0,0,0,0,0,0,0,0,-1,1714,918,0,0
497,106,0,0,0,0,0,0,0,0,0,-1,1721,918,0,0
504,106,0,0,0,0,0,0,0,0,0,-1,1728,918,0,0
511,106,0,0,0,0,0,0,0,0,0,-1,1735,918,0,0
518,106,0,0,0,0,0,0,0,0,0,-1,1742,918,0,0
525,106,0,0,0,0,0,0,0,0,0,-1,1749,918,0,0
532,106,0,0,0,0,0,0,0,0,0,-1,1756,918,0,0
539,106,0,0,0,0,0,0,0,0,0,-1,1763,918,0,0
546,106,0,0,0,0,0,0,0,0,0,-1,1770,918,0,0
553,106,0,0,0,0,0,0,0,0,0,-1,1777,918,0,0
560,106,0,0,0,0,0,0,0,0,0,-1,1784,918,0,0
567,106,0,0,0,0,0,0,0,0,0,-1,1791,918,0,0
574,106,0,0,0,0,0,0,0,0,0,-1,1798,918,0,0
581,106,0,0,0,0,0,0,0,0,0,-1,1805,918,0,0
588,106,0,0,0,0,0,0,0,0,0,-1,1812,918,0,0
595,106,0,0,0,0,0,0,0,0,0,-1,1819,918,0,0
602,106,0,0,0,0,0,0,0,0,0,-1,1826,918,0,0
609,106,0,0,0,0,0,0,0,0,0,-1,1833,918,0,0
616,106,0,0,0,0,0,0,0,0,0,-1,1840,918,0,0
623,106,0,0,0,0,0,0,0,0,0,-1,1847,918,0,0
630,106,16.3383,2.54175,0.00454568,0.00481904,0.0017143,0.0064021,0.00296262,0.825179,0.00369967,0.0391119,1854,918,16.3382,-2.54173
637,106,16.2826,2.55255,0.00247066,0.00348446,0.00220816,0.00524315,0.000711968,0.898222,0.00328394,0.0394366,1861,918,16.2826,-2.55253
644,106,16.76,2.30341,0,0,0,0,0,0,0,-1,1868,918,16.76,-2.30338
651,106,16.4924,2.28717,-0.000170925,0.00139827,0.00200623,0.00276787,-0.00154053,0.971795,0.00252087,0.041335,1875,918,16.4924,-2.28717
658,106,16.3099,2.36981,-0.0025948,0.000825095,0.00133168,0.00128247,-0.00305217,1.23996,0.00257119,0.0420393,1882,918,16.31,-2.36979
665,106,16.2316,2.4151,-0.00490545,0.000401417,0.000686205,0.000488711,-0.00499274,1.44426,0.00350278,0.0399327,1889,918,16.2315,-2.4151
672,106,16.1151,2.41223,-0.00668853,0.000132465,0.000123423,0.000134698,-0.00669076,1.55271,0.00450608,0.0390692,1896,918,16.1151,-2.41223
679,106,16.1797,2.37604,-0.00791719,-6.49152e-05,-0.000280737,-5.48908e-05,-0.00792721,-1.5351,0.00526661,0.0333547,1903,918,16.1797,-2.37604
686,106,16.2544,2.33459,-0.00887337,-0.000135635,-0.000606032,-9.38023e-05,-0.0089152,-1.50188,0.00591245,0.0285658,1910,918,16.2543,-2.33457
693,106,16.115,2.46393,-0.00955715,-0.000389709,-0.000750094,-0.000328741,-0.00961812,-1.48969,0.00630536,0.0229897,1917,918,16.115,-2.46393
700,106,15.6178,2.55225,0,0,0,0,0,0,0,-1,1924,918,15.6178,-2.55223
707,106,14.8914,2.62061,-0.00907985,-0.00021601,-0.00116983,-6.4218e-05,-0.00923165,-1.44176,0.00613314,0.0330537,1931,918,14.8914,-2.62061
714,106,14.7579,2.73877,-0.00816575,-3.52863e-05,-0.0012648,0.000156926,-0.00835796,-1.41998,0.00562501,0.0176062,1938,918,14.7579,-2.73879
721,106,14.8047,2.84192,-0.00679961,8.01652e-05,-0.00126007,0.00030369,-0.00702313,-1.39523,0.00478653,0.0157353,1945,918,14.8047,-2.8419
728,106,14.8268,2.98138,-0.00491077,0.000420131,-0.00140148,0.000766121,-0.00525677,-1.32876,0.00378581,0.0155592,1952,918,14.8267,-2.98136
735,106,14.8287,3.09204,-0.00300003,0.0011205,-0.00161512,0.00167812,-0.00355764,-1.23836,0.00308711,0.0145235,1959,918,14.8288,-3.09203
742,106,14.8025,3.1875,-0.00184969,0.0020263,-0.00186036,0.00277471,-0.0025981,-1.18831,0.00310255,0.010683,1966,918,14.8025,-3.18753
749,106,14.7841,3.26849,-0.000959836,0.00400253,-0.0026207,0.00513027,-0.00208758,-1.16443,0.00428887,0.00815213,1973,918,14.784,-3.26852
756,106,14.7831,3.34351,-0.000520276,0.0062457,-0.00358246,0.00779005,-0.00206463,-1.16378,0.00600115,0.00902903,1980,918,14.783,-3.34352
763,106,14.7412,3.47455,-0.00161271,0.00923121,-0.00484048,0.0110775,-0.00345903,-1.2064,0.00876848,0.0171095,1987,918,14.7412,-3.47456
770,106,14.6774,3.59338,-0.00449941,0.0132556,-0.00636952,0.0153043,-0.00654805,-1.25961,0.0129497,0.0349007,1994,918,14.6773,-3.59341
777,106,14.6952,3.75458,-0.00938901,0.0185581,-0.00822562,0.0207994,-0.0116303,-1.30478,0.0189711,0.0424481,2001,918,14.6952,-3.7546
784,106,14.5126,4.01117,-0.0170158,0.0254874,-0.0105053,0.0279422,-0.0194706,-1.34124,0.0275191,0.0434178,2008,918,14.5125,-4.01115
791,106,14.0614,4.32324,-0.0283547,0.0344717,-0.013371,0.037199,-0.031082,-1.36959,0.0394747,0.0447751,2015,918,14.0614,-4.32326
798,106,13.574,4.77655,-0.0448373,0.0460762,-0.0170757,0.0491776,-0.0479387,-1.39113,0.0560717,0.044502,2022,918,13.574,-4.77655
805,106,0,0,0,0,0,0,0,0,0,-1,2029,918,0,0
812,106,0,0,0,0,0,0,0,0,0,-1,2036,918,0,0
-700,99,0,0,0,0,0,0,0,0,0,-1,524,925,0,0
-693,99,0,0,0,0,0,0,0,0,0,-1,531,925,0,0
-686,99,0,0,0,0,0,0,0,0,0,-1,538,925,0,0
-679,99,-11.4691,-0.976868,0.151385,0.0119186,-0.0156997,0.153131,0.0101732,-0.110723,0.0988707,0.0437455,545,925,-11.4691,0.976896
-672,99,-9.2879,2.77673,0.123363,0.00941471,-0.0146202,0.125209,0.00756877,-0.125596,0.0810675,0.0442754,552,925,-9.28788,-2.77675
-665,99,-8.61517,2.51801,0.0975876,0.00768232,-0.0128193,0.0993798,0.00589018,-0.1389,0.0643797,0.0454118,559,925,-8.61516,-2.51799
-658,99,-8.84656,1.5556,0.074847,0.00633384,-0.010708,0.0764816,0.00469926,-0.15148,0.0494957,0.0438163,566,925,-8.84658,-1.55558
-651,99,-8.88165,2.34912,0,0,0,0,0,0,0,-1,573,925,-8.88167,-2.34909
-644,99,-9.22089,1.97101,0,0,0,0,0,0,0,-1,580,925,-9.22087,-1.97099
-637,99,-9.34644,1.26111,0.0273431,0.00317914,-0.00473288,0.0282371,0.0022852,-0.186678,0.0181111,0.0291295,587,925,-9.34642,-1.26109
-630,99,-9.409,1.23822,0.0183375,0.00211295,-0.00353026,0.0190724,0.00137809,-0.205228,0.0122814,0.0128825,594,925,-9.40901,-1.23824
-623,99,-9.43011,1.15973,0.00944022,0.000544291,-0.00257375,0.0101312,-0.000146674,-0.262282,0.00680354,0.00792213,601,925,-9.43011,-1.15976
-616,99,-9.43475,1.08185,0.00286977,0.00209476,-0.000785077,0.00335777,0.00160676,-0.556146,0.0019392,0.00893607,608,925,-9.43477,-1.08188
-609,99,-9.42548,1.00952,-0.000646731,0.000550008,-0.000862624,0.00100148,-0.0010982,-1.08863,0.00121268,0.00938908,615,925,-9.4255,-1.00955
-602,99,-9.43024,0.934753,-0.00243573,-0.000191309,-0.00018832,-0.000175618,-0.00245143,-1.48767,0.001579,0.00959641,622,925,-9.43026,-0.934751
-595,99,-9.47949,0.866211,-0.00449708,-0.00015442,-7.52764e-05,-0.000153116,-0.00449839,-1.55347,0.00294921,0.0130124,629,925,-9.47949,-0.866227
-588,99,-9.46851,0.780212,-0.00563333,-9.23723e-05,-4.55886e-05,-9.19974e-05,-0.0056337,-1.56257,0.00372551,0.0131561,636,925,-9.46849,-0.780209
-581,99,-9.40308,0.678284,-0.00618728,-0.000200856,-7.78023e-06,-0.000200846,-0.00618729,-1.5695,0.00405957,0.0106385,643,925,-9.40306,-0.678288
-574,99,-9.4776,0.5802,-0.00656424,-0.000286673,9.41735e-05,-0.00028526,-0.00656565,1.5558,0.00428518,0.0150146,650,925,-9.4776,-0.580214
-567,99,-9.83099,0.452759,-0.00647852,-0.000156241,-2.35285e-05,-0.000156153,-0.00647861,-1.56707,0.00426797,0.0332287,657,925,-9.83102,-0.452775
-560,99,-10.1519,0.527283,-0.00582266,9.15569e-05,-7.07033e-05,9.24019e-05,-0.00582351,-1.55884,0.0039135,0.0344211,664,925,-10.1519,-0.527254
-553,99,-10.1279,0.559631,-0.00496546,0.000477825,-6.73984e-05,0.000478659,-0.00496629,-1.55842,0.0034814,0.036787,671,925,-10.1279,-0.559607
-546,99,-10.1398,0.303467,-0.00359926,0.0009664,-5.10936e-05,0.000966972,-0.00359983,-1.55961,0.00277887,0.0390935,678,925,-10.1398,-0.303474
-539,99,-10.1315,0.133179,0,0,0,0,0,0,0,-1,685,925,-10.1314,-0.133174
-532,99,-10.2275,0.481873,0.000801674,0.00227105,0.000103964,0.00227837,0.000794355,1.50051,0.00133535,0.0411315,692,925,-10.2275,-0.481877
-525,99,-10.1861,0.645752,0.00380988,0.00305278,0.000200618,0.00385976,0.0030029,0.243664,0.00234043,0.0408887,699,925,-10.1861,-0.645747
-518,99,-10.2852,0.601379,0.00646866,0.00395104,0.00035827,0.00651865,0.00390105,0.138639,0.00378778,0.0376812,706,925,-10.2852,-0.601393
-511,99,0,0,0,0,0,0,0,0,0,-1,713,925,0,0
-504,99,0,0,0,0,0,0,0,0,0,-1,720,925,0,0
-497,99,0,0,0,0,0,0,0,0,0,-1,727,925,0,0
-490,99,0,0,0,0,0,0,0,0,0,-1,734,925,0,0
-483,99,0,0,0,0,0,0,0,0,0,-1,741,925,0,0
-476,99,0,0,0,0,0,0,0,0,0,-1,748,925,0,0
-469,99,0,0,0,0,0,0,0,0,0,-1,755,925,0,0
-462,99,0,0,0,0,0,0,0,0,0,-1,762,925,0,0
-455,99,0,0,0,0,0,0,0,0,0,-1,769,925,0,0
-448,99,0,0,0,0,0,0,0,0,0,-1,776,925,0,0
-441,99,0,0,0,0,0,0,0,0,0,-1,783,925,0,0
-434,99,0,0,0,0,0,0,0,0,0,-1,790,925,0,0
-427,99,0,0,0,0,0,0,0,0,0,-1,797,925,0,0
-420,99,0,0,0,0,0,0,0,0,0,-1,804,925,0,0
-413,99,0,0,0,0,0,0,0,0,0,-1,811,925,0,0
-406,99,0,0,0,0,0,0,0,0,0,-1,818,925,0,0
-399,99,0,0,0,0,0,0,0,0,0,-1,825,925,0,0
-392,99,0,0,0,0,0,0,0,0,0,-1,832,925,0,0
-385,99,0,0,0,0,0,0,0,0,0,-1,839,925,0,0
-378,99,0,0,0,0,0,0,0,0,0,-1,846,925,0,0
-371,99,0,0,0,0,0,0,0,0,0,-1,853,925,0,0
-364,99,0,0,0,0,0,0,0,0,0,-1,860,925,0,0
-357,99,0,0,0,0,0,0,0,0,0,-1,867,925,0,0
-350,99,0,0,0,0,0,0,0,0,0,-1,874,925,0,0
-343,99,0,0,0,0,0,0,0,0,0,-1,881,925,0,0
-336,99,0,0,0,0,0,0,0,0,0,-1,888,925,0,0
-329,99,0,0,0,0,0,0,0,0,0,-1,895,925,0,0
-322,99,0,0,0,0,0,0,0,0,0,-1,902,925,0,0
-315,99,0,0,0,0,0,0,0,0,0,-1,909,925,0,0
-308,99,0,0,0,0,0,0,0,0,0,-1,916,925,0,0
-301,99,0,0,0,0,0,0,0,0,0,-1,923,925,0,0
-294,99,0,0,0,0,0,0,0,0,0,-1,930,925,0,0
-287,99,0,0,0,0,0,0,0,0,0,-1,937,925,0,0
-280,99,0,0,0,0,0,0,0,0,0,-1,944,925,0,0
-273,99,0,0,0,0,0,0,0,0,0,-1,951,925,0,0
-266,99,0,0,0,0,0,0,0,0,0,-1,958,925,0,0
-259,99,0,0,0,0,0,0,0,0,0,-1,965,925,0,0
-252,99,0,0,0,0,0,0,0,0,0,-1,972,925,0,0
-245,99,0,0,0,0,0,0,0,0,0,-1,979,925,0,0
-238,99,0,0,0,0,0,0,0,0,0,-1,986,925,0,0
-231,99,0,0,0,0,0,0,0,0,0,-1,993,925,0,0
-224,99,0,0,0,0,0,0,0,0,0,-1,1000,925,0,0
-217,99,0,0,0,0,0,0,0,0,0,-1,1007,925,0,0
-210,99,0,0,0,0,0,0,0,0,0,-1,1014,925,0,0
-203,99,0,0,0,0,0,0,0,0,0,-1,1021,925,0,0
-196,99,0,0,0,0,0,0,0,0,0,-1,1028,925,0,0
-189,99,0,0,0,0,0,0,0,0,0,-1,1035,925,0,0
-182,99,0,0,0,0,0,0,0,0,0,-1,1042,925,0,0
-175,99,0,0,0,0,0,0,0,0,0,-1,1049,925,0,0
-168,99,0,0,0,0,0,0,0,0,0,-1,1056,925,0,0
-161,99,0,0,0,0,0,0,0,0,0,-1,1063,925,0,0
-154,99,0,0,0,0,0,0,0,0,0,-1,1070,925,0,0
-147,99,0,0,0,0,0,0,0,0,0,-1,1077,925,0,0
-140,99,0,0,0,0,0,0,0,0,0,-1,1084,925,0,0
-133,99,0,0,0,0,0,0,0,0,0,-1,1091,925,0,0
-126,99,0,0,0,0,0,0,0,0,0,-1,1098,925,0,0
-119,99,0,0,0,0,0,0,0,0,0,-1,1105,925,0,0
-112,99,0,0,0,0,0,0,0,0,0,-1,1112,925,0,0
-105,99,0,0,0,0,0,0,0,0,0,-1,1119,925,0,0
-98,99,0,0,0,0,0,0,0,0,0,-1,1126,925,0,0
-91,99,0,0,0,0,0,0,0,0,0,-1,1133,925,0,0
-84,99,0,0,0,0,0,0,0,0,0,-1,1140,925,0,0
-77,99,0,0,0,0,0,0,0,0,0,-1,1147,925,0,0
-70,99,0,0,0,0,0,0,0,0,0,-1,1154,925,0,0
-63,99,0,0,0,0,0,0,0,0,0,-1,1161,925,0,0
-56,99,0,0,0,0,0,0,0,0,0,-1,1168,925,0,0
-49,99,0,0,0,0,0,0,0,0,0,-1,1175,925,0,0
-42,99,0,0,0,0,0,0,0,0,0,-1,1182,925,0,0
-35,99,0,0,0,0,0,0,0,0,0,-1,1189,925,0,0
-28,99,0,0,0,0,0,0,0,0,0,-1,1196,925,0,0
-21,99,0,0,0,0,0,0,0,0,0,-1,1203,925,0,0
-14,99,0,0,0,0,0,0,0,0,0,-1,1210,925,0,0
-7,99,0,0,0,0,0,0,0,0,0,-1,1217,925,0,0
0,99,0,0,0,0,0,0,0,0,0,-1,1224,925,0,0
7,99,0,0,0,0,0,0,0,0,0,-1,1231,925,0,0
14,99,0,0,0,0,0,0,0,0,0,-1,1238,925,0,0
21,99,0,0,0,0,0,0,0,0,0,-1,1245,925,0,0
28,99,0,0,0,0,0,0,0,0,0,-1,1252,925,0,0
35,99,0,0,0,0,0,0,0,0,0,-1,1259,925,0,0
42,99,0,0,0,0,0,0,0,0,0,-1,1266,925,0,0
49,99,0,0,0,0,0,0,0,0,0,-1,1273,925,0,0
56,99,0,0,0,0,0,0,0,0,0,-1,1280,925,0,0
63,99,0,0,0,0,0,0,0,0,0,-1,1287,925,0,0
70,99,0,0,0,0,0,0,0,0,0,-1,1294,925,0,0
77,99,0,0,0,0,0,0,0,0,0,-1,1301,925,0,0
84,99,0,0,0,0,0,0,0,0,0,-1,1308,925,0,0
91,99,0,0,0,0,0,0,0,0,0,-1,1315,925,0,0
98,99,0,0,0,0,0,0,0,0,0,-1,1322,925,0,0
105,99,0,0,0,0,0,0,0,0,0,-1,1329,925,0,0
112,99,0,0,0,0,0,0,0,0,0,-1,1336,925,0,0
119,99,0,0,0,0,0,0,0,0,0,-1,1343,925,0,0
126,99,0,0,0,0,0,0,0,0,0,-1,1350,925,0,0
133,99,0,0,0,0,0,0,0,0,0,-1,1357,925,0,0
140,99,0,0,0,0,0,0,0,0,0,-1,1364,925,0,0
147,99,0,0,0,0,0,0,0,0,0,-1,1371,925,0,0
154,99,0,0,0,0,0,0,0,0,0,-1,1378,925,0,0
161,99,0,0,0,0,0,0,0,0,0,-1,1385,925,0,0
168,99,0,0,0,0,0,0,0,0,0,-1,1392,925,0,0
175,99,0,0,0,0,0,0,0,0,0,-1,1399,925,0,0
182,99,0,0,0,0,0,0,0,0,0,-1,1406,925,0,0
189,99,0,0,0,0,0,0,0,0,0,-1,1413,925,0,0
196,99,0,0,0,0,0,0,0,0,0,-1,1420,925,0,0
203,99,0,0,0,0,0,0,0,0,0,-1,1427,925,0,0
210,99,0,0,0,0,0,0,0,0,0,-1,1434,925,0,0
217,99,0,0,0,0,0,0,0,0,0,-1,1441,925,0,0
224,99,0,0,0,0,0,0,0,0,0,-1,1448,925,0,0
231,99,0,0,0,0,0,0,0,0,0,-1,1455,925,0,0
238,99,0,0,0,0,0,0,0,0,0,-1,1462,925,0,0
245,99,0,0,0,0,0,0,0,0,0,-1,1469,925,0,0
252,99,0,0,0,0,0,0,0,0,0,-1,1476,925,0,0
259,99,0,0,0,0,0,0,0,0,0,-1,1483,925,0,0
266,99,0,0,0,0,0,0,0,0,0,-1,1490,925,0,0
273,99,0,0,0,0,0,0,0,0,0,-1,1497,925,0,0
280,99,0,0,0,0,0,0,0,0,0,-1,1504,925,0,0
287,99,0,0,0,0,0,0,0,0,0,-1,1511,925,0,0
294,99,0,0,0,0,0,0,0,0,0,-1,1518,925,0,0
301,99,0,0,0,0,0,0,0,0,0,-1,1525,925,0,0
308,99,0,0,0,0,0,0,0,0,0,-1,1532,925,0,0
315,99,0,0,0,0,0,0,0,0,0,-1,1539,925,0,0
322,99,0,0,0,0,0,0,0,0,0,-1,1546,925,0,0
329,99,0,0,0,0,0,0,0,0,0,-1,1553,925,0,0
336,99,0,0,0,0,0,0,0,0,0,-1,1560,925,0,0
343,99,0,0,0,0,0,0,0,0,0,-1,1567,925,0,0
350,99,0,0,0,0,0,0,0,0,0,-1,1574,925,0,0
357,99,0,0,0,0,0,0,0,0,0,-1,1581,925,0,0
364,99,0,0,0,0,0,0,0,0,0,-1,1588,925,0,0
371,99,0,0,0,0,0,0,0,0,0,-1,1595,925,0,0
378,99,0,0,0,0,0,0,0,0,0,-1,1602,925,0,0
385,99,0,0,0,0,0,0,0,0,0,-1,1609,925,0,0
392,99,0,0,0,0,0,0,0,0,0,-1,1616,925,0,0
399,99,0,0,0,0,0,0,0,0,0,-1,1623,925,0,0
406,99,0,0,0,0,0,0,0,0,0,-1,1630,925,0,0
413,99,0,0,0,0,0,0,0,0,0,-1,1637,925,0,0
420,99,0,0,0,0,0,0,0,0,0,-1,1644,925,0,0
427,99,0,0,0,0,0,0,0,0,0,-1,1651,925,0,0
434,99,0,0,0,0,0,0,0,0,0,-1,1658,925,0,0
441,99,0,0,0,0,0,0,0,0,0,-1,1665,925,0,0
448,99,0,0,0,0,0,0,0,0,0,-1,1672,925,0,0
455,99,0,0,0,0,0,0,0,0,0,-1,1679,925,0,0
462,99,0,0,0,0,0,0,0,0,0,-1,1686,925,0,0
469,99,0,0,0,0,0,0,0,0,0,-1,1693,925,0,0
476,99,0,0,0,0,0,0,0,0,0,-1,1700,925,0,0
483,99,0,0,0,0,0,0,0,0,0,-1,1707,925,0,0
490,99,0,0,0,0,0,0,0,0,0,-1,1714,925,0,0
497,99,0,0,0,0,0,0,0,0,0,-1,1721,925,0,0
504,99,0,0,0,0,0,0,0,0,0,-1,1728,925,0,0
511,99,0,0,0,0,0,0,0,0,0,-1,1735,925,0,0
518,99,0,0,0,0,0,0,0,0,0,-1,1742,925,0,0
525,99,0,0,0,0,0,0,0,0,0,-1,1749,925,0,0
532,99,0,0,0,0,0,0,0,0,0,-1,1756,925,0,0
539,99,0,0,0,0,0,0,0,0,0,-1,1763,925,0,0
546,99,0,0,0,0,0,0,0,0,0,-1,1770,925,0,0
553,99,0,0,0,0,0,0,0,0,0,-1,1777,925,0,0
560,99,0,0,0,0,0,0,0,0,0,-1,1784,925,0,0
567,99,0,0,0,0,0,0,0,0,0,-1,1791,925,0,0
574,99,0,0,0,0,0,0,0,0,0,-1,1798,925,0,0
581,99,0,0,0,0,0,0,0,0,0,-1,1805,925,0,0
588,99,0,0,0,0,0,0,0,0,0,-1,1812,925,0,0
595,99,0,0,0,0,0,0,0,0,0,-1,1819,925,0,0
602,99,0,0,0,0,0,0,0,0,0,-1,1826,925,0,0
609,99,0,0,0,0,0,0,0,0,0,-1,1833,925,0,0
616,99,0,0,0,0,0,0,0,0,0,-1,1840,925,0,0
623,99,0,0,0,0,0,0,0,0,0,-1,1847,925,0,0
630,99,0,0,0,0,0,0,0,0,0,-1,1854,925,0,0
637,99,16.327,2.08807,0.00338642,0.00415198,0.00253009,0.00632808,0.00121031,0.860474,0.00387874,0.0434476,1861,925,16.327,-2.08809
644,99,16.5144,1.84784,0.00228043,0.0027423,0.00289217,0.00541274,-0.000390008,0.825238,0.00374527,0.038277,1868,925,16.5144,-1.84782
651,99,16.4309,2.20905,0.000522189,0.0018906,0.00251163,0.00380955,-0.00139676,0.918379,0.00311161,0.0386764,1875,925,16.4309,-2.20906
658,99,16.2701,2.5285,-0.00182743,0.00129285,0.00188826,0.00218211,-0.00271669,1.13066,0.00283393,0.0419131,1882,925,16.2702,-2.52848
665,99,16.1934,2.47198,-0.00415228,0.000863814,0.00127222,0.00116803,-0.0044565,1.33608,0.00342734,0.042908,1889,925,16.1934,-2.47199
672,99,16.1315,2.42865,-0.00598477,0.000601922,0.000714038,0.000678439,-0.00606129,1.46404,0.00428494,0.0400245,1896,925,16.1315,-2.42866
679,99,16.1614,2.41803,-0.00728175,0.000389856,0.000306393,0.000402073,-0.00729396,1.53094,0.00500206,0.0359653,1903,925,16.1614,-2.41802
686,99,16.2061,2.39117,-0.00825257,0.000299272,-1.84116e-05,0.000299312,-0.00825261,-1.56864,0.00560417,0.0284523,1910,925,16.206,-2.39116
693,99,16.1624,2.43756,-0.00893135,2.20642e-05,-0.000155855,2.4776e-05,-0.00893406,-1.5534,0.00596432,0.0222655,1917,925,16.1624,-2.43756
700,99,16.052,2.28949,0,0,0,0,0,0,0,-1,1924,925,16.0519,-2.28949
707,99,15.1859,2.57037,-0.00861298,0.000149516,-0.000668406,0.000200209,-0.00866367,-1.4951,0.00584366,0.0372454,1931,925,15.1859,-2.57035
714,99,14.9048,2.71655,-0.00785965,0.000269873,-0.000806246,0.000349061,-0.00793884,-1.47289,0.00541267,0.0174665,1938,925,14.9048,-2.71656
721,99,14.8851,2.82648,-0.00670308,0.000352016,-0.00084201,0.000451116,-0.00680218,-1.45364,0.00469239,0.017672,1945,925,14.8851,-2.82648
728,99,14.9139,2.96368,-0.00512348,0.000600871,-0.00102965,0.000780443,-0.00530305,-1.39813,0.00382217,0.0148835,1952,925,14.9139,-2.9637
735,99,14.9158,3.07397,-0.0036896,0.00117177,-0.00128169,0.00148899,-0.00400682,-1.32817,0.00328213,0.0128546,1959,925,14.9157,-3.07397
742,99,14.9069,3.17053,-0.00291796,0.00197493,-0.0015784,0.00243992,-0.00338295,-1.28431,0.0033765,0.0105561,1966,925,14.9069,-3.1705
749,99,14.8801,3.24872,-0.00241334,0.00382694,-0.00232346,0.00459701,-0.00318341,-1.25076,0.00451667,0.00873933,1973,925,14.8801,-3.24869
756,99,14.8802,3.31567,-0.00248957,0.00590213,-0.00315815,0.00695786,-0.0035453,-1.24819,0.00616977,0.00992097,1980,925,14.8802,-3.31567
763,99,14.882,3.40625,-0.00403214,0.00871568,-0.00426651,0.0100118,-0.00532829,-1.27586,0.00899317,0.0130891,1987,925,14.882,-3.40623
770,99,14.8804,3.52881,-0.00742783,0.012518,-0.00554938,0.013958,-0.00886783,-1.31691,0.0132873,0.0258133,1994,925,14.8803,-3.52878
777,99,15.0964,3.53235,-0.0127933,0.0175005,-0.00703865,0.019056,-0.0143489,-1.35329,0.01935,0.0388169,2001,925,15.0964,-3.53234
784,99,15.2749,3.5033,-0.0207371,0.0239725,-0.00875842,0.025627,-0.0223916,-1.38409,0.0277445,0.0436298,2008,925,15.2749,-3.50328
791,99,15.4717,3.60291,-0.0320373,0.0322887,-0.0107442,0.0340358,-0.0337845,-1.4096,0.0391561,0.0477748,2015,925,15.4717,-3.60288
798,99,15.6671,3.61115,-0.0478739,0.0428659,-0.0130083,0.0446939,-0.0497019,-1.43118,0.054525,0.0451821,2022,925,15.6671,-3.61113
805,99,0,0,0,0,0,0,0,0,0,-1,2029,925,0,0
812,99,0,0,0,0,0,0,0,0,0,-1,2036,925,0,0
-700,92,0,0,0,0,0,0,0,0,0,-1,524,932,0,0
-693,92,0,0,0,0,0,0,0,0,0,-1,531,932,0,0
-686,92,-11.191,-1.68536,0,0,0,0,0,0,0,-1,538,932,-11.191,1.68538
-679,92,-10.7338,-1.29095,0,0,0,0,0,0,0,-1,545,932,-10.7338,1.29096
-672,92,-9.52655,2.18433,0,0,0,0,0,0,0,-1,552,932,-9.52657,-2.18434
-665,92,-9.22412,2.04889,0.0799961,0.0182831,-0.00563647,0.0805066,0.0177725,-0.0903376,0.048837,0.0460692,559,932,-9.2241,-2.04889
-658,92,-9.16425,1.70581,0.0618252,0.0139025,-0.0045882,0.0622605,0.0134671,-0.0945965,0.0378257,0.0473599,566,932,-9.16425,-1.70579
-651,92,-9.21509,1.51447,0.0461939,0.0104126,-0.00351221,0.0465354,0.0100711,-0.0969251,0.028271,0.049733,573,932,-9.21511,-1.51445
-644,92,-9.38434,1.33429,0.0332686,0.00765963,-0.00250377,0.0335111,0.00741713,-0.0965509,0.0203246,0.0437468,580,932,-9.38436,-1.33427
-637,92,-9.44165,1.26862,0.0231428,0.00518594,-0.00166056,0.0232951,0.00503367,-0.0914414,0.0141537,0.0231377,587,932,-9.44165,-1.26861
-630,92,-9.4917,1.22974,0.0156339,0.00313218,-0.00125388,0.0157584,0.00300766,-0.0989834,0.00966039,0.0111978,594,932,-9.49173,-1.22975
-623,92,-9.50256,1.15009,0.00786702,0.000987305,-0.000898859,0.00798252,0.000871805,-0.127796,0.00505619,0.00769837,601,932,-9.50253,-1.15009
-616,92,-9.51636,1.07263,0.00199746,0.00218939,0.000251687,0.00236279,0.00182407,0.967533,0.00142986,0.00731963,608,932,-9.51639,-1.07265
-609,92,-9.52484,0.997742,-0.00109714,0.000671782,-0.000243542,0.0007047,-0.00113005,-1.43645,0.00106874,0.00772884,615,932,-9.52484,-0.997751
-602,92,-9.51251,0.920166,-0.00281617,-4.27839e-05,8.26298e-05,-4.03242e-05,-0.00281863,1.54104,0.00186579,0.00815677,622,932,-9.5125,-0.920193
-595,92,-9.47913,0.845825,-0.00481164,-2.10477e-05,6.84043e-06,-2.10381e-05,-0.00481165,1.56937,0.00320078,0.0142513,629,932,-9.47914,-0.845831
-588,92,-9.45996,0.78125,-0.00588658,4.55198e-05,-7.39087e-05,4.64406e-05,-0.0058875,-1.55834,0.00394057,0.0163724,636,932,-9.45995,-0.781222
-581,92,-9.46338,0.693054,-0.00637759,-3.64149e-05,-0.000137774,-3.34226e-05,-0.00638058,-1.54908,0.00424262,0.0130835,643,932,-9.46338,-0.693038
-574,92,-9.65277,0.621704,-0.00673911,-0.000108538,-0.00010265,-0.000106949,-0.0067407,-1.55532,0.00445858,0.0192299,650,932,-9.65278,-0.621683
-567,92,-10.0036,0.510925,-0.00667752,2.85069e-05,-0.000266785,3.91034e-05,-0.00668812,-1.5311,0.00447184,0.0351636,657,932,-10.0036,-0.510944
-560,92,-10.1261,0.565002,-0.0060784,0.000254089,-0.000343243,0.00027264,-0.00609695,-1.5168,0.00415849,0.0356034,664,932,-10.1261,-0.564988
-553,92,-10.1528,0.584045,-0.00520711,0.000591351,-0.000375951,0.000615625,-0.00523138,-1.50632,0.00370986,0.038754,671,932,-10.1528,-0.584031
-546,92,-10.2135,0.272644,-0.00382416,0.00101812,-0.000391791,0.00104961,-0.00385566,-1.49058,0.00298252,0.0409752,678,932,-10.2135,-0.272635
-539,92,-10.206,0.317505,-0.00191773,0.00153953,-0.000373926,0.00157951,-0.00195771,-1.46428,0.0020461,0.0394716,685,932,-10.206,-0.317476
-532,92,-10.1501,0.576782,0.000498375,0.00214545,-0.000317087,0.00220438,0.000439439,-1.38703,0.00134721,0.0421906,692,932,-10.1502,-0.576798
-525,92,-10.1867,0.705261,0.00322848,0.00283234,-0.000293908,0.00338483,0.00267599,-0.488897,0.00206131,0.0414217,699,932,-10.1867,-0.705235
-518,92,-10.2839,0.79248,0.00517241,0.00366094,-0.000238712,0.00520922,0.00362414,-0.152975,0.00308339,0.0410296,706,932,-10.2839,-0.79248
-511,92,0,0,0,0,0,0,0,0,0,-1,713,932,0,0
-504,92,0,0,0,0,0,0,0,0,0,-1,720,932,0,0
-497,92,0,0,0,0,0,0,0,0,0,-1,727,932,0,0
-490,92,0,0,0,0,0,0,0,0,0,-1,734,932,0,0
-483,92,0,0,0,0,0,0,0,0,0,-1,741,932,0,0
-476,92,0,0,0,0,0,0,0,0,0,-1,748,932,0,0
-469,92,0,0,0,0,0,0,0,0,0,-1,755,932,0,0
-462,92,0,0,0,0,0,0,0,0,0,-1,762,932,0,0
-455,92,0,0,0,0,0,0,0,0,0,-1,769,932,0,0
-448,92,0,0,0,0,0,0,0,0,0,-1,776,932,0,0
-441,92,0,0,0,0,0,0,0,0,0,-1,783,932,0,0
-434,92,0,0,0,0,0,0,0,0,0,-1,790,932,0,0
-427,92,0,0,0,0,0,0,0,0,0,-1,797,932,0,0
-420,92,0,0,0,0,0,0,0,0,0,-1,804,932,0,0
-413,92,0,0,0,0,0,0,0,0,0,-1,811,932,0,0
-406,92,0,0,0,0,0,0,0,0,0,-1,818,932,0,0
-399,92,0,0,0,0,0,0,0,0,0,-1,825,932,0,0
-392,92,0,0,0,0,0,0,0,0,0,-1,832,932,0,0
-385,92,0,0,0,0,0,0,0,0,0,-1,839,932,0,0
-378,92,0,0,0,0,0,0,0,0,0,-1,846,932,0,0
-371,92,0,0,0,0,0,0,0,0,0,-1,853,932,0,0
-364,92,0,0,0,0,0,0,0,0,0,-1,860,932,0,0
-357,92,0,0,0,0,0,0,0,0,0,-1,867,932,0,0
-350,92,0,0,0,0,0,0,0,0,0,-1,874,932,0,0
-343,92,0,0,0,0,0,0,0,0,0,-1,881,932,0,0
-336,92,0,0,0,0,0,0,0,0,0,-1,888,932,0,0
-329,92,0,0,0,0,0,0,0,0,0,-1,895,932,0,0
-322,92,0,0,0,0,0,0,0,0,0,-1,902,932,0,0
-315,92,0,0,0,0,0,0,0,0,0,-1,909,932,0,0
-308,92,0,0,0,0,0,0,0,0,0,-1,916,932,0,0
-301,92,0,0,0,0,0,0,0,0,0,-1,923,932,0,0
-294,92,0,0,0,0,0,0,0,0,0,-1,930,932,0,0
-287,92,0,0,0,0,0,0,0,0,0,-1,937,932,0,0
-280,92,0,0,0,0,0,0,0,0,0,-1,944,932,0,0
-273,92,0,0,0,0,0,0,0,0,0,-1,951,932,0,0
-266,92,0,0,0,0,0,0,0,0,0,-1,958,932,0,0
-259,92,0,0,0,0,0,0,0,0,0,-1,965,932,0,0
-252,92,0,0,0,0,0,0,0,0,0,-1,972,932,0,0
-245,92,0,0,0,0,0,0,0,0,0,-1,979,932,0,0
-238,92,0,0,0,0,0,0,0,0,0,-1,986,932,0,0
-231,92,0,0,0,0,0,0,0,0,0,-1,993,932,0,0
-224,92,0,0,0,0,0,0,0,0,0,-1,1000,932,0,0
-217,92,0,0,0,0,0,0,0,0,0,-1,1007,932,0,0
-210,92,0,0,0,0,0,0,0,0,0,-1,1014,932,0,0
-203,92,0,0,0,0,0,0,0,0,0,-1,1021,932,0,0
-196,92,0,0,0,0,0,0,0,0,0,-1,1028,932,0,0
-189,92,0,0,0,0,0,0,0,0,0,-1,1035,932,0,0
-182,92,0,0,0,0,0,0,0,0,0,-1,1042,932,0,0
-175,92,0,0,0,0,0,0,0,0,0,-1,1049,932,0,0
-168,92,0,0,0,0,0,0,0,0,0,-1,1056,932,0,0
-161,92,0,0,0,0,0,0,0,0,0,-1,1063,932,0,0
-154,92,0,0,0,0,0,0,0,0,0,-1,1070,932,0,0
-147,92,0,0,0,0,0,0,0,0,0,-1,1077,932,0,0
-140,92,0,0,0,0,0,0,0,0,0,-1,1084,932,0,0
-133,92,0,0,0,0,0,0,0,0,0,-1,1091,932,0,0
-126,92,0,0,0,0,0,0,0,0,0,-1,1098,932,0,0
-119,92,0,0,0,0,0,0,0,0,0,-1,1105,932,0,0
-112,92,0,0,0,0,0,0,0,0,0,-1,1112,932,0,0
-105,92,0,0,0,0,0,0,0,0,0,-1,1119,932,0,0
-98,92,0,0,0,0,0,0,0,0,0,-1,1126,932,0,0
-91,92,0,0,0,0,0,0,0,0,0,-1,1133,932,0,0
-84,92,0,0,0,0,0,0,0,0,0,-1,1140,932,0,0
-77,92,0,0,0,0,0,0,0,0,0,-1,1147,932,0,0
-70,92,0,0,0,0,0,0,0,0,0,-1,1154,932,0,0
-63,92,0,0,0,0,0,0,0,0,0,-1,1161,932,0,0
-56,92,0,0,0,0,0,0,0,0,0,-1,1168,932,0,0
-49,92,0,0,0,0,0,0,0,0,0,-1,1175,932,0,0
-42,92,0,0,0,0,0,0,0,0,0,-1,1182,932,0,0
-35,92,0,0,0,0,0,0,0,0,0,-1,1189,932,0,0
-28,92,0,0,0,0,0,0,0,0,0,-1,1196,932,0,0
-21,92,0,0,0,0,0,0,0,0,0,-1,1203,932,0,0
-14,92,0,0,0,0,0,0,0,0,0,-1,1210,932,0,0
-7,92,0,0,0,0,0,0,0,0,0,-1,1217,932,0,0
0,92,0,0,0,0,0,0,0,0,0,-1,1224,932,0,0
7,92,0,0,0,0,0,0,0,0,0,-1,1231,932,0,0
14,92,0,0,0,0,0,0,0,0,0,-1,1238,932,0,0
21,92,0,0,0,0,0,0,0,0,0,-1,1245,932,0,0
28,92,0,0,0,0,0,0,0,0,0,-1,1252,932,0,0
35,92,0,0,0,0,0,0,0,0,0,-1,1259,932,0,0
42,92,0,0,0,0,0,0,0,0,0,-1,1266,932,0,0
49,92,0,0,0,0,0,0,0,0,0,-1,1273,932,0,0
56,92,0,0,0,0,0,0,0,0,0,-1,1280,932,0,0
63,92,0,0,0,0,0,0,0,0,0,-1,1287,932,0,0
70,92,0,0,0,0,0,0,0,0,0,-1,1294,932,0,0
77,92,0,0,0,0,0,0,0,0,0,-1,1301,932,0,0
84,92,0,0,0,0,0,0,0,0,0,-1,1308,932,0,0
91,92,0,0,0,0,0,0,0,0,0,-1,1315,932,0,0
98,92,0,0,0,0,0,0,0,0,0,-1,1322,932,0,0
105,92,0,0,0,0,0,0,0,0,0,-1,1329,932,0,0
112,92,0,0,0,0,0,0,0,0,0,-1,1336,932,0,0
119,92,0,0,0,0,0,0,0,0,0,-1,1343,932,0,0
126,92,0,0,0,0,0,0,0,0,0,-1,1350,932,0,0
133,92,0,0,0,0,0,0,0,0,0,-1,1357,932,0,0
140,92,0,0,0,0,0,0,0,0,0,-1,1364,932,0,0
147,92,0,0,0,0,0,0,0,0,0,-1,1371,932,0,0
154,92,0,0,0,0,0,0,0,0,0,-1,1378,932,0,0
161,92,0,0,0,0,0,0,0,0,0,-1,1385,932,0,0
168,92,0,0,0,0,0,0,0,0,0,-1,1392,932,0,0
175,92,0,0,0,0,0,0,0,0,0,-1,1399,932,0,0
182,92,0,0,0,0,0,0,0,0,0,-1,1406,932,0,0
189,92,0,0,0,0,0,0,0,0,0,-1,1413,932,0,0
196,92,0,0,0,0,0,0,0,0,0,-1,1420,932,0,0
203,92,0,0,0,0,0,0,0,0,0,-1,1427,932,0,0
210,92,0,0,0,0,0,0,0,0,0,-1,1434,932,0,0
217,92,0,0,0,0,0,0,0,0,0,-1,1441,932,0,0
224,92,0,0,0,0,0,0,0,0,0,-1,1448,932,0,0
231,92,0,0,0,0,0,0,0,0,0,-1,1455,932,0,0
238,92,0,0,0,0,0,0,0,0,0,-1,1462,932,0,0
245,92,0,0,0,0,0,0,0,0,0,-1,1469,932,0,0
252,92,0,0,0,0,0,0,0,0,0,-1,1476,932,0,0
259,92,0,0,0,0,0,0,0,0,0,-1,1483,932,0,0
266,92,0,0,0,0,0,0,0,0,0,-1,1490,932,0,0
273,92,0,0,0,0,0,0,0,0,0,-1,1497,932,0,0
280,92,0,0,0,0,0,0,0,0,0,-1,1504,932,0,0
287,92,0,0,0,0,0,0,0,0,0,-1,1511,932,0,0
294,92,0,0,0,0,0,0,0,0,0,-1,1518,932,0,0
301,92,0,0,0,0,0,0,0,0,0,-1,1525,932,0,0
308,92,0,0,0,0,0,0,0,0,0,-1,1532,932,0,0
315,92,0,0,0,0,0,0,0,0,0,-1,1539,932,0,0
322,92,0,0,0,0,0,0,0,0,0,-1,1546,932,0,0
329,92,0,0,0,0,0,0,0,0,0,-1,1553,932,0,0
336,92,0,0,0,0,0,0,0,0,0,-1,1560,932,0,0
343,92,0,0,0,0,0,0,0,0,0,-1,1567,932,0,0
350,92,0,0,0,0,0,0,0,0,0,-1,1574,932,0,0
357,92,0,0,0,0,0,0,0,0,0,-1,1581,932,0,0
364,92,0,0,0,0,0,0,0,0,0,-1,1588,932,0,0
371,92,0,0,0,0,0,0,0,0,0,-1,1595,932,0,0
378,92,0,0,0,0,0,0,0,0,0,-1,1602,932,0,0
385,92,0,0,0,0,0,0,0,0,0,-1,1609,932,0,0
392,92,0,0,0,0,0,0,0,0,0,-1,1616,932,0,0
399,92,0,0,0,0,0,0,0,0,0,-1,1623,932,0,0
406,92,0,0,0,0,0,0,0,0,0,-1,1630,932,0,0
413,92,0,0,0,0,0,0,0,0,0,-1,1637,932,0,0
420,92,0,0,0,0,0,0,0,0,0,-1,1644,932,0,0
427,92,0,0,0,0,0,0,0,0,0,-1,1651,932,0,0
434,92,0,0,0,0,0,0,0,0,0,-1,1658,932,0,0
441,92,0,0,0,0,0,0,0,0,0,-1,1665,932,0,0
448,92,0,0,0,0,0,0,0,0,0,-1,1672,932,0,0
455,92,0,0,0,0,0,0,0,0,0,-1,1679,932,0,0
462,92,0,0,0,0,0,0,0,0,0,-1,1686,932,0,0
469,92,0,0,0,0,0,0,0,0,0,-1,1693,932,0,0
476,92,0,0,0,0,0,0,0,0,0,-1,1700,932,0,0
483,92,0,0,0,0,0,0,0,0,0,-1,1707,932,0,0
490,92,0,0,0,0,0,0,0,0,0,-1,1714,932,0,0
497,92,0,0,0,0,0,0,0,0,0,-1,1721,932,0,0
504,92,0,0,0,0,0,0,0,0,0,-1,1728,932,0,0
511,92,0,0,0,0,0,0,0,0,0,-1,1735,932,0,0
518,92,0,0,0,0,0,0,0,0,0,-1,1742,932,0,0
525,92,0,0,0,0,0,0,0,0,0,-1,1749,932,0,0
532,92,0,0,0,0,0,0,0,0,0,-1,1756,932,0,0
539,92,0,0,0,0,0,0,0,0,0,-1,1763,932,0,0
546,92,0,0,0,0,0,0,0,0,0,-1,1770,932,0,0
553,92,0,0,0,0,0,0,0,0,0,-1,1777,932,0,0
560,92,0,0,0,0,0,0,0,0,0,-1,1784,932,0,0
567,92,0,0,0,0,0,0,0,0,0,-1,1791,932,0,0
574,92,0,0,0,0,0,0,0,0,0,-1,1798,932,0,0
581,92,0,0,0,0,0,0,0,0,0,-1,1805,932,0,0
588,92,0,0,0,0,0,0,0,0,0,-1,1812,932,0,0
595,92,0,0,0,0,0,0,0,0,0,-1,1819,932,0,0
602,92,0,0,0,0,0,0,0,0,0,-1,1826,932,0,0
609,92,0,0,0,0,0,0,0,0,0,-1,1833,932,0,0
616,92,0,0,0,0,0,0,0,0,0,-1,1840,932,0,0
623,92,0,0,0,0,0,0,0,0,0,-1,1847,932,0,0
630,92,0,0,0,0,0,0,0,0,0,-1,1854,932,0,0
637,92,16.1842,1.84924,0.00457786,0.00388941,0.00285575,0.00711006,0.00135721,0.725419,0.00435865,0.0469193,1861,932,16.1843,-1.84927
644,92,16.3757,1.76599,0.003052,0.0025563,0.003217,0.00603068,-0.000422379,0.746953,0.00416839,0.0395109,1868,932,16.3758,-1.766
651,92,16.3179,2.2663,0.0012629,0.00182569,0.00284485,0.00440303,-0.00131444,0.834695,0.0034578,0.0408891,1875,932,16.3179,-2.26632
658,92,16.2369,2.42102,-0.000986923,0.00133022,0.00225071,0.00270305,-0.00235975,1.02309,0.00292525,0.0446901,1882,932,16.2369,-2.42099
665,92,16.1884,2.37549,-0.00327904,0.00099164,0.0016745,0.0015699,-0.0038573,1.23828,0.00322483,0.0456897,1889,932,16.1883,-2.37551
672,92,16.0859,2.43604,-0.0051456,0.000799699,0.0011549,0.00101616,-0.00536207,1.38552,0.00395717,0.0429557,1896,932,16.086,-2.43606
679,92,16.0231,2.65375,-0.00652713,0.000634091,0.00077332,0.000716648,-0.00660969,1.46444,0.00466373,0.0386145,1903,932,16.0231,-2.65373
686,92,16.1212,2.51068,-0.00753068,0.000557735,0.000472962,0.000585297,-0.00755824,1.51259,0.00524482,0.0305295,1910,932,16.1212,-2.51065
693,92,16.1891,2.40033,-0.00823382,0.000286691,0.000364384,0.000302245,-0.00824937,1.52813,0.00560305,0.0235653,1917,932,16.1891,-2.40034
700,92,16.3024,2.12622,0,0,0,0,0,0,0,-1,1924,932,16.3023,-2.12621
707,92,15.4523,2.57562,-0.0081414,0.000400883,-0.000166682,0.000404134,-0.00814466,-1.55129,0.00556937,0.0398229,1931,932,15.4523,-2.57564
714,92,14.9302,2.78516,-0.00756405,0.000488536,-0.000321161,0.000501324,-0.00757683,-1.531,0.00522635,0.0301417,1938,932,14.9302,-2.78517
721,92,15.006,2.87311,-0.0065644,0.0005446,-0.000377307,0.000564569,-0.00658437,-1.51792,0.00458936,0.0216671,1945,932,15.006,-2.87308
728,92,14.9597,2.98132,-0.00518097,0.00070378,-0.000579074,0.000760221,-0.00523741,-1.47364,0.00377065,0.0163168,1952,932,14.9597,-2.98134
735,92,14.9745,3.07709,-0.00403544,0.00116336,-0.00081695,0.00128872,-0.0041608,-1.41854,0.00328871,0.0146512,1959,932,14.9744,-3.07707
742,92,15.0228,3.1524,-0.00348351,0.00192882,-0.00109627,0.00214243,-0.00369712,-1.37835,0.00341107,0.0148982,1966,932,15.0228,-3.15241
749,92,14.9999,3.23712,-0.00315269,0.00362394,-0.00169352,0.00402359,-0.00355234,-1.33905,0.00437679,0.0133794,1973,932,14.9999,-3.23713
756,92,14.9822,3.31976,-0.00345531,0.00567428,-0.00221807,0.00618463,-0.00396567,-1.34464,0.00590678,0.0133347,1980,932,14.9822,-3.31977
763,92,15.0154,3.41162,-0.00519203,0.00893533,-0.00284558,0.00948696,-0.00574365,-1.37932,0.00888149,0.0157402,1987,932,15.0154,-3.41164
770,92,15.0068,3.45935,-0.00877858,0.0131567,-0.00345868,0.0136892,-0.009311,-1.41806,0.0133591,0.0248273,1994,932,15.0069,-3.45932
777,92,15.5367,3.34875,-0.0144044,0.0188984,-0.00398517,0.0193686,-0.0148746,-1.45334,0.019827,0.0392679,2001,932,15.5367,-3.34874
784,92,16.0481,3.28229,0,0,0,0,0,0,0,-1,2008,932,16.0481,-3.28227
791,92,15.15,3.69281,0,0,0,0,0,0,0,-1,2015,932,15.15,-3.69279
798,92,14.6488,3.36414,0,0,0,0,0,0,0,-1,2022,932,14.6488,-3.36411
805,92,0,0,0,0,0,0,0,0,0,-1,2029,932,0,0
812,92,0,0,0,0,0,0,0,0,0,-1,2036,932,0,0
-700,85,0,0,0,0,0,0,0,0,0,-1,524,939,0,0
-693,85,0,0,0,0,0,0,0,0,0,-1,531,939,0,0
-686,85,-10.4085,-1.6861,0.111558,0.0652101,3.84004e-05,0.111558,0.0652101,0.000828533,0.064714,0.0426889,538,939,-10.4085,1.68607
-679,85,-10.0293,-1.55353,0.0950307,0.0513172,0.000194668,0.0950316,0.0513164,0.00445315,0.054925,0.0464459,545,939,-10.0293,1.55352
-672,85,-10.0281,1.63824,0,0,0,0,0,0,0,-1,552,939,-10.0281,-1.63824
-665,85,-9.82452,1.66638,0.0633382,0.0301535,0.000507245,0.0633459,0.0301458,0.0152808,0.0365869,0.0448329,559,939,-9.82455,-1.6664
-658,85,-9.55103,1.72693,0.0494933,0.0223353,0.000633689,0.0495081,0.0223205,0.0233165,0.0286295,0.0454189,566,939,-9.55101,-1.72693
-651,85,-9.40607,1.48724,0.0374265,0.0161233,0.000738095,0.037452,0.0160977,0.0345918,0.0216938,0.0418119,573,939,-9.40606,-1.48726
-644,85,-9.51385,1.30634,0.0273098,0.0113326,0.000820476,0.0273518,0.0112906,0.0511736,0.0158714,0.0316101,580,939,-9.51384,-1.30633
-637,85,-9.56195,1.25696,0.0193201,0.00719749,0.000858277,0.0193806,0.00713703,0.070332,0.0113181,0.0159338,587,939,-9.56196,-1.25696
-630,85,-9.57233,1.1908,0.0132301,0.0040248,0.000565568,0.0132647,0.00399018,0.061133,0.00785834,0.0102149,594,939,-9.57231,-1.1908
-623,85,-9.58234,1.12311,0.00660995,0.0012838,0.000405543,0.00664065,0.0012531,0.0755615,0.00407415,0.00837585,601,939,-9.58232,-1.12311
-616,85,-9.59546,1.07147,0.001485,0.00214054,0.000973997,0.00284044,0.000785103,0.947704,0.00169371,0.00801856,608,939,-9.59545,-1.07147
-609,85,-9.60144,0.991211,-0.00119382,0.000715804,0.000165407,0.000730025,-0.00120804,1.48503,0.00113023,0.0104823,615,939,-9.60144,-0.991201
-602,85,-9.58777,0.90686,-0.002853,7.89131e-05,0.000177382,8.96058e-05,-0.00286369,1.51059,0.00193968,0.0144048,622,939,-9.58779,-0.906863
-595,85,-9.56097,0.851929,-0.00474963,7.04885e-05,-6.2788e-05,7.13062e-05,-0.00475045,-1.55777,0.003191,0.0162255,629,939,-9.56098,-0.851924
-588,85,-9.53601,0.770569,-0.00573705,0.000113079,-0.000237411,0.000122698,-0.00574667,-1.5303,0.00387266,0.0156179,636,939,-9.53599,-0.770558
-581,85,-9.55219,0.702087,-0.0061809,4.37959e-05,-0.000362386,6.48221e-05,-0.00620193,-1.51284,0.00415639,0.0151953,643,939,-9.55216,-0.702083
-574,85,-9.76276,0.628967,-0.00650367,1.1315e-05,-0.000390362,3.46212e-05,-0.00652698,-1.51116,0.00436291,0.0239377,650,939,-9.76277,-0.628985
-567,85,-10.0972,0.575928,-0.00641665,0.000134538,-0.0005818,0.000185806,-0.00646792,-1.4829,0.0043752,0.032633,657,939,-10.0972,-0.57591
-560,85,-10.0927,0.608276,-0.00582546,0.000310331,-0.000656931,0.000379877,-0.00589501,-1.46532,0.00406256,0.0352414,664,939,-10.0926,-0.608249
-553,85,-10.2962,0.619873,-0.00492009,0.000562455,-0.000687149,0.000647266,-0.0050049,-1.44799,0.00357196,0.0415405,671,939,-10.2962,-0.619881
-546,85,-10.322,0.406189,-0.00352616,0.000891843,-0.000672989,0.000992084,-0.0036264,-1.42293,0.00280735,0.0426355,678,939,-10.322,-0.406205
-539,85,-10.2478,0.41394,-0.00165847,0.00129029,-0.000605906,0.00140994,-0.00177811,-1.37584,0.00184471,0.0393361,685,939,-10.2478,-0.413913
-532,85,-10.1429,0.578857,0.00062394,0.00175,-0.000493892,0.00193593,0.000438017,-1.21076,0.00117222,0.0407838,692,939,-10.1429,-0.578868
-525,85,-10.0212,0.546387,0.00295928,0.00228561,-0.000427136,0.00316642,0.00207848,-0.451526,0.00185771,0.0391817,699,939,-10.0212,-0.546363
-518,85,-10.0242,0.532715,0.00406445,0.00294661,-0.000377212,0.00417983,0.00283123,-0.296839,0.00246331,0.0391042,706,939,-10.0242,-0.532698
-511,85,0,0,0,0,0,0,0,0,0,-1,713,939,0,0
-504,85,0,0,0,0,0,0,0,0,0,-1,720,939,0,0
-497,85,0,0,0,0,0,0,0,0,0,-1,727,939,0,0
-490,85,0,0,0,0,0,0,0,0,0,-1,734,939,0,0
-483,85,0,0,0,0,0,0,0,0,0,-1,741,939,0,0
-476,85,0,0,0,0,0,0,0,0,0,-1,748,939,0,0
-469,85,0,0,0,0,0,0,0,0,0,-1,755,939,0,0
-462,85,0,0,0,0,0,0,0,0,0,-1,762,939,0,0
-455,85,0,0,0,0,0,0,0,0,0,-1,769,939,0,0
-448,85,0,0,0,0,0,0,0,0,0,-1,776,939,0,0
-441,85,0,0,0,0,0,0,0,0,0,-1,783,939,0,0
-434,85,0,0,0,0,0,0,0,0,0,-1,790,939,0,0
-427,85,0,0,0,0,0,0,0,0,0,-1,797,939,0,0
-420,85,0,0,0,0,0,0,0,0,0,-1,804,939,0,0
-413,85,0,0,0,0,0,0,0,0,0,-1,811,939,0,0
-406,85,0,0,0,0,0,0,0,0,0,-1,818,939,0,0
-399,85,0,0,0,0,0,0,0,0,0,-1,825,939,0,0
-392,85,0,0,0,0,0,0,0,0,0,-1,832,939,0,0
-385,85,0,0,0,0,0,0,0,0,0,-1,839,939,0,0
-378,85,0,0,0,0,0,0,0,0,0,-1,846,939,0,0
-371,85,0,0,0,0,0,0,0,0,0,-1,853,939,0,0
-364,85,0,0,0,0,0,0,0,0,0,-1,860,939,0,0
-357,85,0,0,0,0,0,0,0,0,0,-1,867,939,0,0
-350,85,0,0,0,0,0,0,0,0,0,-1,874,939,0,0
-343,85,0,0,0,0,0,0,0,0,0,-1,881,939,0,0
-336,85,0,0,0,0,0,0,0,0,0,-1,888,939,0,0
-329,85,0,0,0,0,0,0,0,0,0,-1,895,939,0,0
-322,85,0,0,0,0,0,0,0,0,0,-1,902,939,0,0
-315,85,0,0,0,0,0,0,0,0,0,-1,909,939,0,0
-308,85,0,0,0,0,0,0,0,0,0,-1,916,939,0,0
-301,85,0,0,0,0,0,0,0,0,0,-1,923,939,0,0
-294,85,0,0,0,0,0,0,0,0,0,-1,930,939,0,0
-287,85,0,0,0,0,0,0,0,0,0,-1,937,939,0,0
-280,85,0,0,0,0,0,0,0,0,0,-1,944,939,0,0
-273,85,0,0,0,0,0,0,0,0,0,-1,951,939,0,0
-266,85,0,0,0,0,0,0,0,0,0,-1,958,939,0,0
-259,85,0,0,0,0,0,0,0,0,0,-1,965,939,0,0
-252,85,0,0,0,0,0,0,0,0,0,-1,972,939,0,0
-245,85,0,0,0,0,0,0,0,0,0,-1,979,939,0,0
-238,85,0,0,0,0,0,0,0,0,0,-1,986,939,0,0
-231,85,0,0,0,0,0,0,0,0,0,-1,993,939,0,0
-224,85,0,0,0,0,0,0,0,0,0,-1,1000,939,0,0
-217,85,0,0,0,0,0,0,0,0,0,-1,1007,939,0,0
-210,85,0,0,0,0,0,0,0,0,0,-1,1014,939,0,0
-203,85,0,0,0,0,0,0,0,0,0,-1,1021,939,0,0
-196,85,0,0,0,0,0,0,0,0,0,-1,1028,939,0,0
-189,85,0,0,0,0,0,0,0,0,0,-1,1035,939,0,0
-182,85,0,0,0,0,0,0,0,0,0,-1,1042,939,0,0
-175,85,0,0,0,0,0,0,0,0,0,-1,1049,939,0,0
-168,85,0,0,0,0,0,0,0,0,0,-1,1056,939,0,0
-161,85,0,0,0,0,0,0,0,0,0,-1,1063,939,0,0
-154,85,0,0,0,0,0,0,0,0,0,-1,1070,939,0,0
-147,85,0,0,0,0,0,0,0,0,0,-1,1077,939,0,0
-140,85,0,0,0,0,0,0,0,0,0,-1,1084,939,0,0
-133,85,0,0,0,0,0,0,0,0,0,-1,1091,939,0,0
-126,85,0,0,0,0,0,0,0,0,0,-1,1098,939,0,0
-119,85,0,0,0,0,0,0,0,0,0,-1,1105,939,0,0
-112,85,0,0,0,0,0,0,0,0,0,-1,1112,939,0,0
-105,85,0,0,0,0,0,0,0,0,0,-1,1119,939,0,0
-98,85,0,0,0,0,0,0,0,0,0,-1,1126,939,0,0
-91,85,0,0,0,0,0,0,0,0,0,-1,1133,939,0,0
-84,85,0,0,0,0,0,0,0,0,0,-1,1140,939,0,0
-77,85,0,0,0,0,0,0,0,0,0,-1,1147,939,0,0
-70,85,0,0,0,0,0,0,0,0,0,-1,1154,939,0,0
-63,85,0,0,0,0,0,0,0,0,0,-1,1161,939,0,0
-56,85,0,0,0,0,0,0,0,0,0,-1,1168,939,0,0
-49,85,0,0,0,0,0,0,0,0,0,-1,1175,939,0,0
-42,85,0,0,0,0,0,0,0,0,0,-1,1182,939,0,0
-35,85,0,0,0,0,0,0,0,0,0,-1,1189,939,0,0
-28,85,0,0,0,0,0,0,0,0,0,-1,1196,939,0,0
-21,85,0,0,0,0,0,0,0,0,0,-1,1203,939,0,0
-14,85,0,0,0,0,0,0,0,0,0,-1,1210,939,0,0
-7,85,0,0,0,0,0,0,0,0,0,-1,1217,939,0,0
0,85,0,0,0,0,0,0,0,0,0,-1,1224,939,0,0
7,85,0,0,0,0,0,0,0,0,0,-1,1231,939,0,0
14,85,0,0,0,0,0,0,0,0,0,-1,1238,939,0,0
21,85,0,0,0,0,0,0,0,0,0,-1,1245,939,0,0
28,85,0,0,0,0,0,0,0,0,0,-1,1252,939,0,0
35,85,0,0,0,0,0,0,0,0,0,-1,1259,939,0,0
42,85,0,0,0,0,0,0,0,0,0,-1,1266,939,0,0
49,85,0,0,0,0,0,0,0,0,0,-1,1273,939,0,0
56,85,0,0,0,0,0,0,0,0,0,-1,1280,939,0,0
63,85,0,0,0,0,0,0,0,0,0,-1,1287,939,0,0
70,85,0,0,0,0,0,0,0,0,0,-1,1294,939,0,0
77,85,0,0,0,0,0,0,0,0,0,-1,1301,939,0,0
84,85,0,0,0,0,0,0,0,0,0,-1,1308,939,0,0
91,85,0,0,0,0,0,0,0,0,0,-1,1315,939,0,0
98,85,0,0,0,0,0,0,0,0,0,-1,1322,939,0,0
105,85,0,0,0,0,0,0,0,0,0,-1,1329,939,0,0
112,85,0,0,0,0,0,0,0,0,0,-1,1336,939,0,0
119,85,0,0,0,0,0,0,0,0,0,-1,1343,939,0,0
126,85,0,0,0,0,0,0,0,0,0,-1,1350,939,0,0
133,85,0,0,0,0,0,0,0,0,0,-1,1357,939,0,0
140,85,0,0,0,0,0,0,0,0,0,-1,1364,939,0,0
147,85,0,0,0,0,0,0,0,0,0,-1,1371,939,0,0
154,85,0,0,0,0,0,0,0,0,0,-1,1378,939,0,0
161,85,0,0,0,0,0,0,0,0,0,-1,1385,939,0,0
168,85,0,0,0,0,0,0,0,0,0,-1,1392,939,0,0
175,85,0,0,0,0,0,0,0,0,0,-1,1399,939,0,0
182,85,0,0,0,0,0,0,0,0,0,-1,1406,939,0,0
189,85,0,0,0,0,0,0,0,0,0,-1,1413,939,0,0
196,85,0,0,0,0,0,0,0,0,0,-1,1420,939,0,0
203,85,0,0,0,0,0,0,0,0,0,-1,1427,939,0,0
210,85,0,0,0,0,0,0,0,0,0,-1,1434,939,0,0
217,85,0,0,0,0,0,0,0,0,0,-1,1441,939,0,0
224,85,0,0,0,0,0,0,0,0,0,-1,1448,939,0,0
231,85,0,0,0,0,0,0,0,0,0,-1,1455,939,0,0
238,85,0,0,0,0,0,0,0,0,0,-1,1462,939,0,0
245,85,0,0,0,0,0,0,0,0,0,-1,1469,939,0,0
252,85,0,0,0,0,0,0,0,0,0,-1,1476,939,0,0
259,85,0,0,0,0,0,0,0,0,0,-1,1483,939,0,0
266,85,0,0,0,0,0,0,0,0,0,-1,1490,939,0,0
273,85,0,0,0,0,0,0,0,0,0,-1,1497,939,0,0
280,85,0,0,0,0,0,0,0,0,0,-1,1504,939,0,0
287,85,0,0,0,0,0,0,0,0,0,-1,1511,939,0,0
294,85,0,0,0,0,0,0,0,0,0,-1,1518,939,0,0
301,85,0,0,0,0,0,0,0,0,0,-1,1525,939,0,0
308,85,0,0,0,0,0,0,0,0,0,-1,1532,939,0,0
315,85,0,0,0,0,0,0,0,0,0,-1,1539,939,0,0
322,85,0,0,0,0,0,0,0,0,0,-1,1546,939,0,0
329,85,0,0,0,0,0,0,0,0,0,-1,1553,939,0,0
336,85,0,0,0,0,0,0,0,0,0,-1,1560,939,0,0
343,85,0,0,0,0,0,0,0,0,0,-1,1567,939,0,0
350,85,0,0,0,0,0,0,0,0,0,-1,1574,939,0,0
357,85,0,0,0,0,0,0,0,0,0,-1,1581,939,0,0
364,85,0,0,0,0,0,0,0,0,0,-1,1588,939,0,0
371,85,0,0,0,0,0,0,0,0,0,-1,1595,939,0,0
378,85,0,0,0,0,0,0,0,0,0,-1,1602,939,0,0
385,85,0,0,0,0,0,0,0,0,0,-1,1609,939,0,0
392,85,0,0,0,0,0,0,0,0,0,-1,1616,939,0,0
399,85,0,0,0,0,0,0,0,0,0,-1,1623,939,0,0
406,85,0,0,0,0,0,0,0,0,0,-1,1630,939,0,0
413,85,0,0,0,0,0,0,0,0,0,-1,1637,939,0,0
420,85,0,0,0,0,0,0,0,0,0,-1,1644,939,0,0
427,85,0,0,0,0,0,0,0,0,0,-1,1651,939,0,0
434,85,0,0,0,0,0,0,0,0,0,-1,1658,939,0,0
441,85,0,0,0,0,0,0,0,0,0,-1,1665,939,0,0
448,85,0,0,0,0,0,0,0,0,0,-1,1672,939,0,0
455,85,0,0,0,0,0,0,0,0,0,-1,1679,939,0,0
462,85,0,0,0,0,0,0,0,0,0,-1,1686,939,0,0
469,85,0,0,0,0,0,0,0,0,0,-1,1693,939,0,0
476,85,0,0,0,0,0,0,0,0,0,-1,1700,939,0,0
483,85,0,0,0,0,0,0,0,0,0,-1,1707,939,0,0
490,85,0,0,0,0,0,0,0,0,0,-1,1714,939,0,0
497,85,0,0,0,0,0,0,0,0,0,-1,1721,939,0,0
504,85,0,0,0,0,0,0,0,0,0,-1,1728,939,0,0
511,85,0,0,0,0,0,0,0,0,0,-1,1735,939,0,0
518,85,0,0,0,0,0,0,0,0,0,-1,1742,939,0,0
525,85,0,0,0,0,0,0,0,0,0,-1,1749,939,0,0
532,85,0,0,0,0,0,0,0,0,0,-1,1756,939,0,0
539,85,0,0,0,0,0,0,0,0,0,-1,1763,939,0,0
546,85,0,0,0,0,0,0,0,0,0,-1,1770,939,0,0
553,85,0,0,0,0,0,0,0,0,0,-1,1777,939,0,0
560,85,0,0,0,0,0,0,0,0,0,-1,1784,939,0,0
567,85,0,0,0,0,0,0,0,0,0,-1,1791,939,0,0
574,85,0,0,0,0,0,0,0,0,0,-1,1798,939,0,0
581,85,0,0,0,0,0,0,0,0,0,-1,1805,939,0,0
588,85,0,0,0,0,0,0,0,0,0,-1,1812,939,0,0
595,85,0,0,0,0,0,0,0,0,0,-1,1819,939,0,0
602,85,0,0,0,0,0,0,0,0,0,-1,1826,939,0,0
609,85,0,0,0,0,0,0,0,0,0,-1,1833,939,0,0
616,85,0,0,0,0,0,0,0,0,0,-1,1840,939,0,0
623,85,0,0,0,0,0,0,0,0,0,-1,1847,939,0,0
630,85,0,0,0,0,0,0,0,0,0,-1,1854,939,0,0
637,85,16.0465,1.86652,0,0,0,0,0,0,0,-1,1861,939,16.0465,-1.86652
644,85,16.2046,1.7793,0.00316602,0.00153221,0.00338493,0.00583123,-0.001133,0.666994,0.00431502,0.044601,1868,939,16.2046,-1.7793
651,85,16.1929,2.31848,0.00157522,0.00104565,0.00301745,0.00433948,-0.00171862,0.741635,0.0036051,0.0435946,1875,939,16.1929,-2.31849
658,85,16.1147,2.44958,-0.000349426,0.000763515,0.00248418,0.00275279,-0.0023387,0.895582,0.00294281,0.0442402,1882,939,16.1148,-2.44961
665,85,16.2744,1.93024,0,0,0,0,0,0,0,-1,1889,939,16.2744,-1.93022
672,85,16.1051,2.32043,-0.00420727,0.000549741,0.00156516,0.00101852,-0.00467605,1.27979,0.00350653,0.0433352,1896,939,16.1052,-2.32042
679,85,16.0629,2.58148,-0.00559649,0.00049917,0.00125736,0.000748344,-0.00584566,1.37516,0.004169,0.0406221,1903,939,16.0629,-2.58147
686,85,16.1315,2.46393,-0.00661743,0.000483501,0.00101603,0.000626019,-0.00675995,1.43144,0.00472914,0.0349405,1910,939,16.1315,-2.46393
693,85,16.162,2.39294,-0.00736243,0.000256404,0.000952183,0.000373603,-0.00747963,1.44833,0.00511551,0.0279298,1917,939,16.162,-2.39294
700,85,16.3625,2.26038,0,0,0,0,0,0,0,-1,1924,939,16.3626,-2.26035
707,85,15.6996,2.56714,0,0,0,0,0,0,0,-1,1931,939,15.6996,-2.56713
714,85,15.0848,2.78174,0,0,0,0,0,0,0,-1,1938,939,15.0849,-2.78172
721,85,15.0885,2.8924,-0.00634109,0.000623529,0.000172689,0.000627809,-0.00634537,1.54602,0.00445429,0.0220572,1945,939,15.0885,-2.89242
728,85,15.0701,3.01154,-0.00515514,0.000716605,-2.6712e-05,0.000716727,-0.00515526,-1.56625,0.00369897,0.0173678,1952,939,15.0701,-3.01156
735,85,15.0566,3.07422,-0.00422158,0.00115161,-0.000286297,0.00116683,-0.00423679,-1.51771,0.00328332,0.01565,1959,939,15.0566,-3.0742
742,85,15.1093,3.1535,-0.00379821,0.00190554,-0.000587153,0.00196535,-0.00385802,-1.46927,0.00342081,0.0132881,1966,939,15.1093,-3.15351
749,85,15.0879,3.242,-0.00354133,0.00347218,-0.00110726,0.00364283,-0.00371199,-1.41787,0.00424637,0.0131918,1973,939,15.0878,-3.24202
756,85,15.0894,3.32404,-0.004021,0.00561268,-0.00141651,0.00581665,-0.00422496,-1.42779,0.00582175,0.0129428,1980,939,15.0893,-3.32406
763,85,15.0933,3.41663,-0.0059263,0.0093904,-0.00171292,0.00957962,-0.00611552,-1.46077,0.00913487,0.0129101,1987,939,15.0933,-3.4166
770,85,15.0829,3.46167,-0.00963136,0.0141277,-0.00184207,0.0142697,-0.00977333,-1.49388,0.0139619,0.0181227,1994,939,15.0829,-3.46166
777,85,15.334,3.45044,-0.0155193,0.0207203,-0.00169181,0.0207991,-0.0155981,-1.52425,0.0210853,0.0383078,2001,939,15.334,-3.45042
784,85,15.6185,3.70892,-0.0241845,0.0299098,-0.00115464,0.0299344,-0.0242091,-1.54946,0.031318,0.0451651,2008,939,15.6185,-3.7089
791,85,14.8942,3.78778,-0.0362764,0.0426002,-9.50203e-05,0.0426003,-0.0362765,-1.56959,0.0455883,0.0459472,2015,939,14.8941,-3.78778
798,85,14.4493,3.42871,0,0,0,0,0,0,0,-1,2022,939,14.4493,-3.42869
805,85,14.472,3.12787,0,0,0,0,0,0,0,-1,2029,939,14.472,-3.12789
812,85,0,0,0,0,0,0,0,0,0,-1,2036,939,0,0
-700,78,0,0,0,0,0,0,0,0,0,-1,524,946,0,0
-693,78,0,0,0,0,0,0,0,0,0,-1,531,946,0,0
-686,78,-9.71613,-2.06433,0.0820775,0.0880991,0.00706302,0.0927663,0.0774103,0.986873,0.0574142,0.0409589,538,946,-9.71612,2.06432
-679,78,-9.33044,-1.84912,0.0714406,0.0693264,0.00736358,0.0778226,0.0629444,0.714106,0.0477021,0.0477074,545,946,-9.33044,1.84915
-672,78,-8.8385,-1.4834,0,0,0,0,0,0,0,-1,552,946,-8.8385,1.48337
-665,78,-10.4942,1.29767,0,0,0,0,0,0,0,-1,559,946,-10.4942,-1.29766
-658,78,-10.1588,1.54797,0.0395071,0.0292079,0.00576098,0.0420846,0.0266305,0.420686,0.0245815,0.0447202,566,946,-10.1587,-1.54799
-651,78,-9.86096,1.35529,0.0304481,0.0206768,0.00489222,0.0324764,0.0186485,0.393036,0.018819,0.0419986,573,946,-9.86093,-1.3553
-644,78,-9.61896,1.28436,0.0226474,0.0141977,0.00403047,0.0242616,0.0125835,0.380926,0.0140107,0.0248536,580,946,-9.61894,-1.28434
-637,78,-9.61884,1.22845,0.0163651,0.0087543,0.00324869,0.0175632,0.0075562,0.353319,0.010173,0.0124849,587,946,-9.61882,-1.22845
-630,78,-9.63788,1.15015,0.0114118,0.00470987,0.00226879,0.0121076,0.00401406,0.29758,0.00712138,0.0117417,594,946,-9.63789,-1.15017
-623,78,-9.65723,1.08325,0.00580166,0.00155196,0.00157775,0.00632337,0.00103024,0.319349,0.00391758,0.0109683,601,946,-9.65723,-1.08327
-616,78,-9.66803,1.04419,0.00133979,0.00207601,0.0015491,0.00330013,0.000115667,0.90205,0.00216256,0.00956826,608,946,-9.66801,-1.0442
-609,78,-9.6507,0.992554,-0.0010797,0.000752931,0.000414601,0.000842363,-0.00116913,1.35834,0.00116643,0.0107099,615,946,-9.65072,-0.992579
-602,78,-9.65222,0.913208,-0.00272835,0.000187875,0.000135402,0.000194149,-0.00273463,1.5245,0.00189113,0.0145046,622,946,-9.6522,-0.913231
-595,78,-9.64215,0.832214,-0.00452438,0.000117131,-0.000204254,0.000126102,-0.00453335,-1.5269,0.00306513,0.0144237,629,946,-9.64218,-0.832232
-588,78,-9.63818,0.809875,-0.00543805,0.000109575,-0.000420444,0.000141259,-0.00546974,-1.49558,0.00369448,0.0125651,636,946,-9.6382,-0.809898
-581,78,-9.67096,0.750427,-0.00583711,6.11621e-05,-0.0005632,0.000114458,-0.00589041,-1.47645,0.00396564,0.0173831,643,946,-9.67094,-0.750445
-574,78,-9.89807,0.628601,-0.00614754,6.29814e-05,-0.000593964,0.000119277,-0.00620384,-1.4763,0.00417622,0.0218633,650,946,-9.89807,-0.628614
-567,78,-10.1994,0.513977,-0.00604453,0.00018143,-0.000769773,0.000275192,-0.00613829,-1.44959,0.00418694,0.0292757,657,946,-10.1994,-0.513952
-560,78,-10.1611,0.599426,-0.00547339,0.00033998,-0.000809125,0.000450496,-0.00558391,-1.43505,0.0038815,0.0318673,664,946,-10.1611,-0.599429
-553,78,-10.1302,0.609009,-0.0045668,0.000581496,-0.000795179,0.000701517,-0.00468682,-1.42099,0.00338272,0.0390908,671,946,-10.1303,-0.609036
-546,78,-10.2076,0.495483,-0.00320957,0.000917188,-0.000715283,0.00103765,-0.00333003,-1.40395,0.00263492,0.0403652,678,946,-10.2076,-0.495474
-539,78,-10.0877,0.585754,-0.00143844,0.00134882,-0.00055629,0.00145574,-0.00154536,-1.3809,0.00173294,0.0391802,685,946,-10.0877,-0.585729
-532,78,-10.0599,0.70575,0.000634689,0.00188813,-0.000333021,0.00197111,0.000551704,-1.32658,0.0011742,0.0410832,692,946,-10.0599,-0.705734
-525,78,-10.0304,0.513733,0.00250152,0.00258838,-0.000138369,0.00268998,0.00239993,-0.937474,0.00170488,0.0408955,699,946,-10.0304,-0.513749
-518,78,-9.90411,0.460693,0.0028339,0.00350824,2.82563e-05,0.00350943,0.00283272,1.52899,0.00214985,0.0407812,706,946,-9.90412,-0.460716
-511,78,0,0,0,0,0,0,0,0,0,-1,713,946,0,0
-504,78,0,0,0,0,0,0,0,0,0,-1,720,946,0,0
-497,78,0,0,0,0,0,0,0,0,0,-1,727,946,0,0
-490,78,0,0,0,0,0,0,0,0,0,-1,734,946,0,0
-483,78,0,0,0,0,0,0,0,0,0,-1,741,946,0,0
-476,78,0,0,0,0,0,0,0,0,0,-1,748,946,0,0
-469,78,0,0,0,0,0,0,0,0,0,-1,755,946,0,0
-462,78,0,0,0,0,0,0,0,0,0,-1,762,946,0,0
-455,78,0,0,0,0,0,0,0,0,0,-1,769,946,0,0
-448,78,0,0,0,0,0,0,0,0,0,-1,776,946,0,0
-441,78,0,0,0,0,0,0,0,0,0,-1,783,946,0,0
-434,78,0,0,0,0,0,0,0,0,0,-1,790,946,0,0
-427,78,0,0,0,0,0,0,0,0,0,-1,797,946,0,0
-420,78,0,0,0,0,0,0,0,0,0,-1,804,946,0,0
-413,78,0,0,0,0,0,0,0,0,0,-1,811,946,0,0
-406,78,0,0,0,0,0,0,0,0,0,-1,818,946,0,0
-399,78,0,0,0,0,0,0,0,0,0,-1,825,946,0,0
-392,78,0,0,0,0,0,0,0,0,0,-1,832,946,0,0
-385,78,0,0,0,0,0,0,0,0,0,-1,839,946,0,0
-378,78,0,0,0,0,0,0,0,0,0,-1,846,946,0,0
-371,78,0,0,0,0,0,0,0,0,0,-1,853,946,0,0
-364,78,0,0,0,0,0,0,0,0,0,-1,860,946,0,0
-357,78,0,0,0,0,0,0,0,0,0,-1,867,946,0,0
-350,78,0,0,0,0,0,0,0,0,0,-1,874,946,0,0
-343,78,0,0,0,0,0,0,0,0,0,-1,881,946,0,0
-336,78,0,0,0,0,0,0,0,0,0,-1,888,946,0,0
-329,78,0,0,0,0,0,0,0,0,0,-1,895,946,0,0
-322,78,0,0,0,0,0,0,0,0,0,-1,902,946,0,0
-315,78,0,0,0,0,0,0,0,0,0,-1,909,946,0,0
-308,78,0,0,0,0,0,0,0,0,0,-1,916,946,0,0
-301,78,0,0,0,0,0,0,0,0,0,-1,923,946,0,0
-294,78,0,0,0,0,0,0,0,0,0,-1,930,946,0,0
-287,78,0,0,0,0,0,0,0,0,0,-1,937,946,0,0
-280,78,0,0,0,0,0,0,0,0,0,-1,944,946,0,0
-273,78,0,0,0,0,0,0,0,0,0,-1,951,946,0,0
-266,78,0,0,0,0,0,0,0,0,0,-1,958,946,0,0
-259,78,0,0,0,0,0,0,0,0,0,-1,965,946,0,0
-252,78,0,0,0,0,0,0,0,0,0,-1,972,946,0,0
-245,78,0,0,0,0,0,0,0,0,0,-1,979,946,0,0
-238,78,0,0,0,0,0,0,0,0,0,-1,986,946,0,0
-231,78,0,0,0,0,0,0,0,0,0,-1,993,946,0,0
-224,78,0,0,0,0,0,0,0,0,0,-1,1000,946,0,0
-217,78,0,0,0,0,0,0,0,0,0,-1,1007,946,0,0
-210,78,0,0,0,0,0,0,0,0,0,-1,1014,946,0,0
-203,78,0,0,0,0,0,0,0,0,0,-1,1021,946,0,0
-196,78,0,0,0,0,0,0,0,0,0,-1,1028,946,0,0
-189,78,0,0,0,0,0,0,0,0,0,-1,1035,946,0,0
-182,78,0,0,0,0,0,0,0,0,0,-1,1042,946,0,0
-175,78,0,0,0,0,0,0,0,0,0,-1,1049,946,0,0
-168,78,0,0,0,0,0,0,0,0,0,-1,1056,946,0,0
-161,78,0,0,0,0,0,0,0,0,0,-1,1063,946,0,0
-154,78,0,0,0,0,0,0,0,0,0,-1,1070,946,0,0
-147,78,0,0,0,0,0,0,0,0,0,-1,1077,946,0,0
-140,78,0,0,0,0,0,0,0,0,0,-1,1084,946,0,0
-133,78,0,0,0,0,0,0,0,0,0,-1,1091,946,0,0
-126,78,0,0,0,0,0,0,0,0,0,-1,1098,946,0,0
-119,78,0,0,0,0,0,0,0,0,0,-1,1105,946,0,0
-112,78,0,0,0,0,0,0,0,0,0,-1,1112,946,0,0
-105,78,0,0,0,0,0,0,0,0,0,-1,1119,946,0,0
-98,78,0,0,0,0,0,0,0,0,0,-1,1126,946,0,0
-91,78,0,0,0,0,0,0,0,0,0,-1,1133,946,0,0
-84,78,0,0,0,0,0,0,0,0,0,-1,1140,946,0,0
-77,78,0,0,0,0,0,0,0,0,0,-1,1147,946,0,0
-70,78,0,0,0,0,0,0,0,0,0,-1,1154,946,0,0
-63,78,0,0,0,0,0,0,0,0,0,-1,1161,946,0,0
-56,78,0,0,0,0,0,0,0,0,0,-1,1168,946,0,0
-49,78,0,0,0,0,0,0,0,0,0,-1,1175,946,0,0
-42,78,0,0,0,0,0,0,0,0,0,-1,1182,946,0,0
-35,78,0,0,0,0,0,0,0,0,0,-1,1189,946,0,0
-28,78,0,0,0,0,0,0,0,0,0,-1,1196,946,0,0
-21,78,0,0,0,0,0,0,0,0,0,-1,1203,946,0,0
-14,78,0,0,0,0,0,0,0,0,0,-1,1210,946,0,0
-7,78,0,0,0,0,0,0,0,0,0,-1,1217,946,0,0
0,78,0,0,0,0,0,0,0,0,0,-1,1224,946,0,0
7,78,0,0,0,0,0,0,0,0,0,-1,1231,946,0,0
14,78,0,0,0,0,0,0,0,0,0,-1,1238,946,0,0
21,78,0,0,0,0,0,0,0,0,0,-1,1245,946,0,0
28,78,0,0,0,0,0,0,0,0,0,-1,1252,946,0,0
35,78,0,0,0,0,0,0,0,0,0,-1,1259,946,0,0
42,78,0,0,0,0,0,0,0,0,0,-1,1266,946,0,0
49,78,0,0,0,0,0,0,0,0,0,-1,1273,946,0,0
56,78,0,0,0,0,0,0,0,0,0,-1,1280,946,0,0
63,78,0,0,0,0,0,0,0,0,0,-1,1287,946,0,0
70,78,0,0,0,0,0,0,0,0,0,-1,1294,946,0,0
77,78,0,0,0,0,0,0,0,0,0,-1,1301,946,0,0
84,78,0,0,0,0,0,0,0,0,0,-1,1308,946,0,0
91,78,0,0,0,0,0,0,0,0,0,-1,1315,946,0,0
98,78,0,0,0,0,0,0,0,0,0,-1,1322,946,0,0
105,78,0,0,0,0,0,0,0,0,0,-1,1329,946,0,0
112,78,0,0,0,0,0,0,0,0,0,-1,1336,946,0,0
119,78,0,0,0,0,0,0,0,0,0,-1,1343,946,0,0
126,78,0,0,0,0,0,0,0,0,0,-1,1350,946,0,0
133,78,0,0,0,0,0,0,0,0,0,-1,1357,946,0,0
140,78,0,0,0,0,0,0,0,0,0,-1,1364,946,0,0
147,78,0,0,0,0,0,0,0,0,0,-1,1371,946,0,0
154,78,0,0,0,0,0,0,0,0,0,-1,1378,946,0,0
161,78,0,0,0,0,0,0,0,0,0,-1,1385,946,0,0
168,78,0,0,0,0,0,0,0,0,0,-1,1392,946,0,0
175,78,0,0,0,0,0,0,0,0,0,-1,1399,946,0,0
182,78,0,0,0,0,0,0,0,0,0,-1,1406,946,0,0
189,78,0,0,0,0,0,0,0,0,0,-1,1413,946,0,0
196,78,0,0,0,0,0,0,0,0,0,-1,1420,946,0,0
203,78,0,0,0,0,0,0,0,0,0,-1,1427,946,0,0
210,78,0,0,0,0,0,0,0,0,0,-1,1434,946,0,0
217,78,0,0,0,0,0,0,0,0,0,-1,1441,946,0,0
224,78,0,0,0,0,0,0,0,0,0,-1,1448,946,0,0
231,78,0,0,0,0,0,0,0,0,0,-1,1455,946,0,0
238,78,0,0,0,0,0,0,0,0,0,-1,1462,946,0,0
245,78,0,0,0,0,0,0,0,0,0,-1,1469,946,0,0
252,78,0,0,0,0,0,0,0,0,0,-1,1476,946,0,0
259,78,0,0,0,0,0,0,0,0,0,-1,1483,946,0,0
266,78,0,0,0,0,0,0,0,0,0,-1,1490,946,0,0
273,78,0,0,0,0,0,0,0,0,0,-1,1497,946,0,0
280,78,0,0,0,0,0,0,0,0,0,-1,1504,946,0,0
287,78,0,0,0,0,0,0,0,0,0,-1,1511,946,0,0
294,78,0,0,0,0,0,0,0,0,0,-1,1518,946,0,0
301,78,0,0,0,0,0,0,0,0,0,-1,1525,946,0,0
308,78,0,0,0,0,0,0,0,0,0,-1,1532,946,0,0
315,78,0,0,0,0,0,0,0,0,0,-1,1539,946,0,0
322,78,0,0,0,0,0,0,0,0,0,-1,1546,946,0,0
329,78,0,0,0,0,0,0,0,0,0,-1,1553,946,0,0
336,78,0,0,0,0,0,0,0,0,0,-1,1560,946,0,0
343,78,0,0,0,0,0,0,0,0,0,-1,1567,946,0,0
350,78,0,0,0,0,0,0,0,0,0,-1,1574,946,0,0
357,78,0,0,0,0,0,0,0,0,0,-1,1581,946,0,0
364,78,0,0,0,0,0,0,0,0,0,-1,1588,946,0,0
371,78,0,0,0,0,0,0,0,0,0,-1,1595,946,0,0
378,78,0,0,0,0,0,0,0,0,0,-1,1602,946,0,0
385,78,0,0,0,0,0,0,0,0,0,-1,1609,946,0,0
392,78,0,0,0,0,0,0,0,0,0,-1,1616,946,0,0
399,78,0,0,0,0,0,0,0,0,0,-1,1623,946,0,0
406,78,0,0,0,0,0,0,0,0,0,-1,1630,946,0,0
413,78,0,0,0,0,0,0,0,0,0,-1,1637,946,0,0
420,78,0,0,0,0,0,0,0,0,0,-1,1644,946,0,0
427,78,0,0,0,0,0,0,0,0,0,-1,1651,946,0,0
434,78,0,0,0,0,0,0,0,0,0,-1,1658,946,0,0
441,78,0,0,0,0,0,0,0,0,0,-1,1665,946,0,0
448,78,0,0,0,0,0,0,0,0,0,-1,1672,946,0,0
455,78,0,0,0,0,0,0,0,0,0,-1,1679,946,0,0
462,78,0,0,0,0,0,0,0,0,0,-1,1686,946,0,0
469,78,0,0,0,0,0,0,0,0,0,-1,1693,946,0,0
476,78,0,0,0,0,0,0,0,0,0,-1,1700,946,0,0
483,78,0,0,0,0,0,0,0,0,0,-1,1707,946,0,0
490,78,0,0,0,0,0,0,0,0,0,-1,1714,946,0,0
497,78,0,0,0,0,0,0,0,0,0,-1,1721,946,0,0
504,78,0,0,0,0,0,0,0,0,0,-1,1728,946,0,0
511,78,0,0,0,0,0,0,0,0,0,-1,1735,946,0,0
518,78,0,0,0,0,0,0,0,0,0,-1,1742,946,0,0
525,78,0,0,0,0,0,0,0,0,0,-1,1749,946,0,0
532,78,0,0,0,0,0,0,0,0,0,-1,1756,946,0,0
539,78,0,0,0,0,0,0,0,0,0,-1,1763,946,0,0
546,78,0,0,0,0,0,0,0,0,0,-1,1770,946,0,0
553,78,0,0,0,0,0,0,0,0,0,-1,1777,946,0,0
560,78,0,0,0,0,0,0,0,0,0,-1,1784,946,0,0
567,78,0,0,0,0,0,0,0,0,0,-1,1791,946,0,0
574,78,0,0,0,0,0,0,0,0,0,-1,1798,946,0,0
581,78,0,0,0,0,0,0,0,0,0,-1,1805,946,0,0
588,78,0,0,0,0,0,0,0,0,0,-1,1812,946,0,0
595,78,0,0,0,0,0,0,0,0,0,-1,1819,946,0,0
602,78,0,0,0,0,0,0,0,0,0,-1,1826,946,0,0
609,78,0,0,0,0,0,0,0,0,0,-1,1833,946,0,0
616,78,0,0,0,0,0,0,0,0,0,-1,1840,946,0,0
623,78,0,0,0,0,0,0,0,0,0,-1,1847,946,0,0
630,78,0,0,0,0,0,0,0,0,0,-1,1854,946,0,0
637,78,16.0536,2.35199,0.00520762,0.00171268,0.00259239,0.00658651,0.000333791,0.488841,0.00428408,0.0467135,1861,946,16.0536,-2.35199
644,78,16.0856,1.96509,0.00323327,0.000801734,0.00296123,0.0052186,-0.00118359,0.590609,0.00393341,0.0428806,1868,946,16.0855,-1.9651
651,78,16.1379,2.26227,0.00181823,0.000425398,0.0026621,0.0038735,-0.00162988,0.657463,0.00326421,0.0430832,1875,946,16.1379,-2.26228
658,78,16.1852,2.36511,0.000289347,0.000272759,0.00226208,0.00254315,-0.00198104,0.783565,0.00261876,0.0414378,1882,946,16.1852,-2.36509
665,78,16.2727,2.27032,-0.00146692,0.000254509,0.00194497,0.0015207,-0.00273312,0.993712,0.00248898,0.0415803,1889,946,16.2727,-2.27035
672,78,16.1489,2.39093,-0.00311182,0.000321636,0.00168578,0.00101095,-0.00380113,1.18264,0.0029298,0.0417474,1896,946,16.1489,-2.39091
679,78,16.0981,2.40594,-0.00447931,0.000373498,0.00152426,0.000812547,-0.00491836,1.29035,0.00358062,0.0399517,1903,946,16.0981,-2.40594
686,78,16.1344,2.34186,-0.00550161,0.000416355,0.00140806,0.000734294,-0.00581955,1.34872,0.0041462,0.0377277,1910,946,16.1344,-2.34185
693,78,16.1831,2.32471,-0.00628144,0.000249037,0.00143344,0.000549823,-0.00658223,1.36396,0.00458243,0.0314752,1917,946,16.1831,-2.32468
700,78,16.1976,2.3634,-0.00671654,0.000443932,0.00124672,0.000654791,-0.0069274,1.40325,0.00485128,0.0244006,1924,946,16.1977,-2.36339
707,78,16.0059,2.61798,-0.00676088,0.000469817,0.000946769,0.00059173,-0.00688279,1.44273,0.00479795,0.0351863,1931,946,16.0059,-2.61796
714,78,15.0808,2.81915,0,0,0,0,0,0,0,-1,1938,946,15.0808,-2.81916
721,78,15.1617,2.89459,-0.00597196,0.000710097,0.000734004,0.000789776,-0.00605164,1.46267,0.00432181,0.0203848,1945,946,15.1618,-2.89459
728,78,15.2177,3.01593,-0.00499888,0.00078399,0.00054609,0.000835106,-0.00505,1.47746,0.00367679,0.0193966,1952,946,15.2177,-3.01594
735,78,15.1914,3.06854,-0.00431042,0.00114319,0.000277424,0.00115726,-0.00432449,1.5201,0.00333634,0.0127856,1959,946,15.1914,-3.06854
742,78,15.193,3.16345,-0.00409008,0.00186997,-4.86068e-05,0.00187037,-0.00409048,-1.56264,0.00352016,0.011711,1966,946,15.193,-3.16346
749,78,15.178,3.24451,-0.00406889,0.00326249,-0.000474717,0.0032931,-0.0040995,-1.5064,0.00427657,0.0124338,1973,946,15.178,-3.24452
756,78,15.1921,3.31702,-0.00485541,0.00531073,-0.000583151,0.00534407,-0.00488875,-1.51368,0.00590987,0.0131291,1980,946,15.1922,-3.31699
763,78,15.191,3.39606,-0.00705463,0.00920472,-0.000603575,0.00922709,-0.007077,-1.53374,0.00944042,0.0123089,1987,946,15.191,-3.39608
770,78,15.1808,3.45325,-0.0110051,0.0139619,-0.000314798,0.0139659,-0.0110091,-1.55819,0.014453,0.0162003,1994,946,15.1808,-3.45322
777,78,15.1656,3.51666,-0.0172692,0.0206109,0.000378583,0.0206147,-0.017273,1.5608,0.0219028,0.0369782,2001,946,15.1657,-3.51665
784,78,15.156,3.63226,-0.0264219,0.0299229,0.00155992,0.029966,-0.0264651,1.54314,0.0326014,0.0474173,2008,946,15.156,-3.63229
791,78,15.0435,3.6698,-0.0389664,0.0427492,0.00330401,0.0428825,-0.0390998,1.53045,0.0473493,0.0464672,2015,946,15.0435,-3.66981
798,78,14.8864,3.68054,0,0,0,0,0,0,0,-1,2022,946,14.8864,-3.68053
805,78,18.5343,3.29749,0,0,0,0,0,0,0,-1,2029,946,18.5343,-3.2975
812,78,0,0,0,0,0,0,0,0,0,-1,2036,946,0,0
-700,71,0,0,0,0,0,0,0,0,0,-1,524,953,0,0
-693,71,0,0,0,0,0,0,0,0,0,-1,531,953,0,0
-686,71,-12.7426,8.66315,0,0,0,0,0,0,0,-1,538,953,-12.7426,-8.66314
-679,71,-8.58887,-2.17365,0,0,0,0,0,0,0,-1,545,953,-8.58887,2.17364
-672,71,-11.0815,3.43903,0,0,0,0,0,0,0,-1,552,953,-11.0815,-3.43904
-665,71,-9.51044,0.791931,0,0,0,0,0,0,0,-1,559,953,-9.51045,-0.791942
-658,71,-10.389,1.07672,0.0297124,0.0346281,0.00863409,0.0411474,0.0231932,0.924063,0.0238205,0.0448666,566,953,-10.389,-1.07672
-651,71,-10.2394,1.2619,0.0234195,0.0242467,0.00735972,0.0312044,0.0164618,0.813465,0.018025,0.0438339,573,953,-10.2394,-1.26188
-644,71,-9.71722,1.3501,0.0178089,0.0164392,0.00603361,0.0231964,0.0110517,0.728887,0.0133974,0.0292728,580,953,-9.7172,-1.35009
-637,71,-9.68304,1.22809,0.0132623,0.00984305,0.00480545,0.0166532,0.00645216,0.614497,0.00969558,0.0123907,587,953,-9.68306,-1.22811
-630,71,-9.71021,1.1438,0.00938215,0.00514977,0.00339466,0.0112662,0.00326572,0.506678,0.00669328,0.0117458,594,953,-9.71019,-1.1438
-623,71,-9.72882,1.08185,0.00485434,0.00166885,0.00241828,0.00615726,0.000365924,0.494189,0.00398847,0.0114364,601,953,-9.72885,-1.08183
-616,71,-9.73956,1.0368,0.00111995,0.00201415,0.00195982,0.00357722,-0.000443127,0.897546,0.00254541,0.0117087,608,953,-9.73956,-1.03683
-609,71,-9.72711,1.00543,-0.000955081,0.000893708,0.00056067,0.00105045,-0.00111182,1.29819,0.00124856,0.0135157,615,953,-9.72712,-1.00541
-602,71,-9.70813,0.924988,-0.00256067,0.000402471,2.34477e-06,0.000402473,-0.00256068,1.57001,0.00185588,0.0148202,622,953,-9.70815,-0.92496
-595,71,-9.72369,0.857422,-0.00420802,0.000270909,-0.000420573,0.000310058,-0.00424717,-1.47798,0.00294026,0.0148674,629,953,-9.72369,-0.857403
-588,71,-9.71576,0.855225,-0.00502267,0.000210659,-0.000674512,0.000296197,-0.00510821,-1.44465,0.00350838,0.0148333,636,953,-9.71573,-0.855208
-581,71,-9.79108,0.75531,-0.00536575,0.000166832,-0.000832418,0.000289362,-0.00548828,-1.42465,0.00375902,0.0205811,643,953,-9.79109,-0.755307
-574,71,-10.0491,0.610779,-0.00564548,0.000165692,-0.00086355,0.000291302,-0.00577109,-1.42635,0.00394808,0.0255092,650,953,-10.0491,-0.610775
-567,71,-10.1944,0.51239,-0.00553895,0.000273503,-0.0010207,0.000447533,-0.00571298,-1.40192,0.00396625,0.019625,657,953,-10.1944,-0.512382
-560,71,-10.1696,0.603088,-0.0050595,0.000413449,-0.00103565,0.000602869,-0.00524892,-1.3899,0.00371657,0.0268631,664,953,-10.1696,-0.603105
-553,71,-10.1379,0.646851,-0.00425414,0.000640723,-0.000991693,0.000834006,-0.00444742,-1.37831,0.0032785,0.0374593,671,953,-10.1379,-0.646851
-546,71,-10.1825,0.672791,-0.00308744,0.000978801,-0.000868103,0.00115638,-0.00326501,-1.36902,0.00264769,0.0390445,678,953,-10.1825,-0.672796
-539,71,-10.1601,0.567566,-0.00162358,0.00144328,-0.00064843,0.00157474,-0.00175504,-1.37077,0.00192339,0.0405313,685,953,-10.1601,-0.567596
-532,71,-10.1519,0.24292,-4.16111e-05,0.00207655,-0.000359352,0.00213586,-0.000100916,-1.40724,0.00145871,0.0474845,692,953,-10.1519,-0.242916
-525,71,-10.3051,0.548462,0.00101252,0.00298492,-0.000102578,0.00299024,0.0010072,-1.51898,0.00175679,0.0475636,699,953,-10.3051,-0.548461
-518,71,0,0,0,0,0,0,0,0,0,-1,706,953,0,0
-511,71,0,0,0,0,0,0,0,0,0,-1,713,953,0,0
-504,71,0,0,0,0,0,0,0,0,0,-1,720,953,0,0
-497,71,0,0,0,0,0,0,0,0,0,-1,727,953,0,0
-490,71,0,0,0,0,0,0,0,0,0,-1,734,953,0,0
-483,71,0,0,0,0,0,0,0,0,0,-1,741,953,0,0
-476,71,0,0,0,0,0,0,0,0,0,-1,748,953,0,0
-469,71,0,0,0,0,0,0,0,0,0,-1,755,953,0,0
-462,71,0,0,0,0,0,0,0,0,0,-1,762,953,0,0
-455,71,0,0,0,0,0,0,0,0,0,-1,769,953,0,0
-448,71,0,0,0,0,0,0,0,0,0,-1,776,953,0,0
-441,71,0,0,0,0,0,0,0,0,0,-1,783,953,0,0
-434,71,0,0,0,0,0,0,0,0,0,-1,790,953,0,0
-427,71,0,0,0,0,0,0,0,0,0,-1,797,953,0,0
-420,71,0,0,0,0,0,0,0,0,0,-1,804,953,0,0
-413,71,0,0,0,0,0,0,0,0,0,-1,811,953,0,0
-406,71,0,0,0,0,0,0,0,0,0,-1,818,953,0,0
-399,71,0,0,0,0,0,0,0,0,0,-1,825,953,0,0
-392,71,0,0,0,0,0,0,0,0,0,-1,832,953,0,0
-385,71,0,0,0,0,0,0,0,0,0,-1,839,953,0,0
-378,71,0,0,0,0,0,0,0,0,0,-1,846,953,0,0
-371,71,0,0,0,0,0,0,0,0,0,-1,853,953,0,0
-364,71,0,0,0,0,0,0,0,0,0,-1,860,953,0,0
-357,71,0,0,0,0,0,0,0,0,0,-1,867,953,0,0
-350,71,0,0,0,0,0,0,0,0,0,-1,874,953,0,0
-343,71,0,0,0,0,0,0,0,0,0,-1,881,953,0,0
-336,71,0,0,0,0,0,0,0,0,0,-1,888,953,0,0
-329,71,0,0,0,0,0,0,0,0,0,-1,895,953,0,0
-322,71,0,0,0,0,0,0,0,0,0,-1,902,953,0,0
-315,71,0,0,0,0,0,0,0,0,0,-1,909,953,0,0
-308,71,0,0,0,0,0,0,0,0,0,-1,916,953,0,0
-301,71,0,0,0,0,0,0,0,0,0,-1,923,953,0,0
-294,71,0,0,0,0,0,0,0,0,0,-1,930,953,0,0
-287,71,0,0,0,0,0,0,0,0,0,-1,937,953,0,0
-280,71,0,0,0,0,0,0,0,0,0,-1,944,953,0,0
-273,71,0,0,0,0,0,0,0,0,0,-1,951,953,0,0
-266,71,0,0,0,0,0,0,0,0,0,-1,958,953,0,0
-259,71,0,0,0,0,0,0,0,0,0,-1,965,953,0,0
-252,71,0,0,0,0,0,0,0,0,0,-1,972,953,0,0
-245,71,0,0,0,0,0,0,0,0,0,-1,979,953,0,0
-238,71,0,0,0,0,0,0,0,0,0,-1,986,953,0,0
-231,71,0,0,0,0,0,0,0,0,0,-1,993,953,0,0
-224,71,0,0,0,0,0,0,0,0,0,-1,1000,953,0,0
-217,71,0,0,0,0,0,0,0,0,0,-1,1007,953,0,0
-210,71,0,0,0,0,0,0,0,0,0,-1,1014,953,0,0
-203,71,0,0,0,0,0,0,0,0,0,-1,1021,953,0,0
-196,71,0,0,0,0,0,0,0,0,0,-1,1028,953,0,0
-189,71,0,0,0,0,0,0,0,0,0,-1,1035,953,0,0
-182,71,0,0,0,0,0,0,0,0,0,-1,1042,953,0,0
-175,71,0,0,0,0,0,0,0,0,0,-1,1049,953,0,0
-168,71,0,0,0,0,0,0,0,0,0,-1,1056,953,0,0
-161,71,0,0,0,0,0,0,0,0,0,-1,1063,953,0,0
-154,71,0,0,0,0,0,0,0,0,0,-1,1070,953,0,0
-147,71,0,0,0,0,0,0,0,0,0,-1,1077,953,0,0
-140,71,0,0,0,0,0,0,0,0,0,-1,1084,953,0,0
-133,71,0,0,0,0,0,0,0,0,0,-1,1091,953,0,0
-126,71,0,0,0,0,0,0,0,0,0,-1,1098,953,0,0
-119,71,0,0,0,0,0,0,0,0,0,-1,1105,953,0,0
-112,71,0,0,0,0,0,0,0,0,0,-1,1112,953,0,0
-105,71,0,0,0,0,0,0,0,0,0,-1,1119,953,0,0
-98,71,0,0,0,0,0,0,0,0,0,-1,1126,953,0,0
-91,71,0,0,0,0,0,0,0,0,0,-1,1133,953,0,0
-84,71,0,0,0,0,0,0,0,0,0,-1,1140,953,0,0
-77,71,0,0,0,0,0,0,0,0,0,-1,1147,953,0,0
-70,71,0,0,0,0,0,0,0,0,0,-1,1154,953,0,0
-63,71,0,0,0,0,0,0,0,0,0,-1,1161,953,0,0
-56,71,0,0,0,0,0,0,0,0,0,-1,1168,953,0,0
-49,71,0,0,0,0,0,0,0,0,0,-1,1175,953,0,0
-42,71,0,0,0,0,0,0,0,0,0,-1,1182,953,0,0
-35,71,0,0,0,0,0,0,0,0,0,-1,1189,953,0,0
-28,71,0,0,0,0,0,0,0,0,0,-1,1196,953,0,0
-21,71,0,0,0,0,0,0,0,0,0,-1,1203,953,0,0
-14,71,0,0,0,0,0,0,0,0,0,-1,1210,953,0,0
-7,71,0,0,0,0,0,0,0,0,0,-1,1217,953,0,0
0,71,0,0,0,0,0,0,0,0,0,-1,1224,953,0,0
7,71,0,0,0,0,0,0,0,0,0,-1,1231,953,0,0
14,71,0,0,0,0,0,0,0,0,0,-1,1238,953,0,0
21,71,0,0,0,0,0,0,0,0,0,-1,1245,953,0,0
28,71,0,0,0,0,0,0,0,0,0,-1,1252,953,0,0
35,71,0,0,0,0,0,0,0,0,0,-1,1259,953,0,0
42,71,0,0,0,0,0,0,0,0,0,-1,1266,953,0,0
49,71,0,0,0,0,0,0,0,0,0,-1,1273,953,0,0
56,71,0,0,0,0,0,0,0,0,0,-1,1280,953,0,0
63,71,0,0,0,0,0,0,0,0,0,-1,1287,953,0,0
70,71,0,0,0,0,0,0,0,0,0,-1,1294,953,0,0
77,71,0,0,0,0,0,0,0,0,0,-1,1301,953,0,0
84,71,0,0,0,0,0,0,0,0,0,-1,1308,953,0,0
91,71,0,0,0,0,0,0,0,0,0,-1,1315,953,0,0
98,71,0,0,0,0,0,0,0,0,0,-1,1322,953,0,0
105,71,0,0,0,0,0,0,0,0,0,-1,1329,953,0,0
112,71,0,0,0,0,0,0,0,0,0,-1,1336,953,0,0
119,71,0,0,0,0,0,0,0,0,0,-1,1343,953,0,0
126,71,0,0,0,0,0,0,0,0,0,-1,1350,953,0,0
133,71,0,0,0,0,0,0,0,0,0,-1,1357,953,0,0
140,71,0,0,0,0,0,0,0,0,0,-1,1364,953,0,0
147,71,0,0,0,0,0,0,0,0,0,-1,1371,953,0,0
154,71,0,0,0,0,0,0,0,0,0,-1,1378,953,0,0
161,71,0,0,0,0,0,0,0,0,0,-1,1385,953,0,0
168,71,0,0,0,0,0,0,0,0,0,-1,1392,953,0,0
175,71,0,0,0,0,0,0,0,0,0,-1,1399,953,0,0
182,71,0,0,0,0,0,0,0,0,0,-1,1406,953,0,0
189,71,0,0,0,0,0,0,0,0,0,-1,1413,953,0,0
196,71,0,0,0,0,0,0,0,0,0,-1,1420,953,0,0
203,71,0,0,0,0,0,0,0,0,0,-1,1427,953,0,0
210,71,0,0,0,0,0,0,0,0,0,-1,1434,953,0,0
217,71,0,0,0,0,0,0,0,0,0,-1,1441,953,0,0
224,71,0,0,0,0,0,0,0,0,0,-1,1448,953,0,0
231,71,0,0,0,0,0,0,0,0,0,-1,1455,953,0,0
238,71,0,0,0,0,0,0,0,0,0,-1,1462,953,0,0
245,71,0,0,0,0,0,0,0,0,0,-1,1469,953,0,0
252,71,0,0,0,0,0,0,0,0,0,-1,1476,953,0,0
259,71,0,0,0,0,0,0,0,0,0,-1,1483,953,0,0
266,71,0,0,0,0,0,0,0,0,0,-1,1490,953,0,0
273,71,0,0,0,0,0,0,0,0,0,-1,1497,953,0,0
280,71,0,0,0,0,0,0,0,0,0,-1,1504,953,0,0
287,71,0,0,0,0,0,0,0,0,0,-1,1511,953,0,0
294,71,0,0,0,0,0,0,0,0,0,-1,1518,953,0,0
301,71,0,0,0,0,0,0,0,0,0,-1,1525,953,0,0
308,71,0,0,0,0,0,0,0,0,0,-1,1532,953,0,0
315,71,0,0,0,0,0,0,0,0,0,-1,1539,953,0,0
322,71,0,0,0,0,0,0,0,0,0,-1,1546,953,0,0
329,71,0,0,0,0,0,0,0,0,0,-1,1553,953,0,0
336,71,0,0,0,0,0,0,0,0,0,-1,1560,953,0,0
343,71,0,0,0,0,0,0,0,0,0,-1,1567,953,0,0
350,71,0,0,0,0,0,0,0,0,0,-1,1574,953,0,0
357,71,0,0,0,0,0,0,0,0,0,-1,1581,953,0,0
364,71,0,0,0,0,0,0,0,0,0,-1,1588,953,0,0
371,71,0,0,0,0,0,0,0,0,0,-1,1595,953,0,0
378,71,0,0,0,0,0,0,0,0,0,-1,1602,953,0,0
385,71,0,0,0,0,0,0,0,0,0,-1,1609,953,0,0
392,71,0,0,0,0,0,0,0,0,0,-1,1616,953,0,0
399,71,0,0,0,0,0,0,0,0,0,-1,1623,953,0,0
406,71,0,0,0,0,0,0,0,0,0,-1,1630,953,0,0
413,71,0,0,0,0,0,0,0,0,0,-1,1637,953,0,0
420,71,0,0,0,0,0,0,0,0,0,-1,1644,953,0,0
427,71,0,0,0,0,0,0,0,0,0,-1,1651,953,0,0
434,71,0,0,0,0,0,0,0,0,0,-1,1658,953,0,0
441,71,0,0,0,0,0,0,0,0,0,-1,1665,953,0,0
448,71,0,0,0,0,0,0,0,0,0,-1,1672,953,0,0
455,71,0,0,0,0,0,0,0,0,0,-1,1679,953,0,0
462,71,0,0,0,0,0,0,0,0,0,-1,1686,953,0,0
469,71,0,0,0,0,0,0,0,0,0,-1,1693,953,0,0
476,71,0,0,0,0,0,0,0,0,0,-1,1700,953,0,0
483,71,0,0,0,0,0,0,0,0,0,-1,1707,953,0,0
490,71,0,0,0,0,0,0,0,0,0,-1,1714,953,0,0
497,71,0,0,0,0,0,0,0,0,0,-1,1721,953,0,0
504,71,0,0,0,0,0,0,0,0,0,-1,1728,953,0,0
511,71,0,0,0,0,0,0,0,0,0,-1,1735,953,0,0
518,71,0,0,0,0,0,0,0,0,0,-1,1742,953,0,0
525,71,0,0,0,0,0,0,0,0,0,-1,1749,953,0,0
532,71,0,0,0,0,0,0,0,0,0,-1,1756,953,0,0
539,71,0,0,0,0,0,0,0,0,0,-1,1763,953,0,0
546,71,0,0,0,0,0,0,0,0,0,-1,1770,953,0,0
553,71,0,0,0,0,0,0,0,0,0,-1,1777,953,0,0
560,71,0,0,0,0,0,0,0,0,0,-1,1784,953,0,0
567,71,0,0,0,0,0,0,0,0,0,-1,1791,953,0,0
574,71,0,0,0,0,0,0,0,0,0,-1,1798,953,0,0
581,71,0,0,0,0,0,0,0,0,0,-1,1805,953,0,0
588,71,0,0,0,0,0,0,0,0,0,-1,1812,953,0,0
595,71,0,0,0,0,0,0,0,0,0,-1,1819,953,0,0
602,71,0,0,0,0,0,0,0,0,0,-1,1826,953,0,0
609,71,0,0,0,0,0,0,0,0,0,-1,1833,953,0,0
616,71,0,0,0,0,0,0,0,0,0,-1,1840,953,0,0
623,71,0,0,0,0,0,0,0,0,0,-1,1847,953,0,0
630,71,0,0,0,0,0,0,0,0,0,-1,1854,953,0,0
637,71,16.1544,2.33899,0.00499763,0.00125874,0.00188321,0.00578173,0.000474644,0.394533,0.00370641,0.03811,1861,953,16.1545,-2.33901
644,71,16.1555,2.13849,0.00293276,0.000396565,0.00234733,0.00433262,-0.0010033,0.537743,0.00327449,0.0388902,1868,953,16.1555,-2.13848
651,71,16.2214,2.08478,0.00175915,0.000109322,0.00209349,0.00318439,-0.00131592,0.59772,0.00267186,0.0384221,1875,953,16.2215,-2.08479
658,71,16.2828,2.45532,0.000650837,6.93652e-05,0.00181733,0.00220054,-0.00148034,0.706081,0.00213868,0.0375695,1882,953,16.2828,-2.4553
665,71,16.218,2.5506,-0.000738432,0.000197781,0.00168139,0.00147501,-0.00201566,0.921162,0.00202338,0.0398182,1889,953,16.218,-2.55059
672,71,16.077,2.41852,-0.00218949,0.000400819,0.00161802,0.0011782,-0.00296687,1.12291,0.00246631,0.0410372,1896,953,16.0771,-2.41849
679,71,16.0845,2.37598,-0.00349588,0.000565509,0.0016403,0.00114524,-0.00407561,1.23107,0.00316858,0.039294,1903,953,16.0845,-2.376
686,71,16.1455,2.20764,-0.00450183,0.000672367,0.00167992,0.00116994,-0.00499941,1.28284,0.0037837,0.0398939,1910,953,16.1455,-2.20761
693,71,16.1886,2.23322,-0.00531213,0.000573781,0.0018186,0.00109035,-0.0058287,1.29404,0.00429563,0.0343988,1917,953,16.1886,-2.23324
700,71,16.1771,2.31616,-0.00585948,0.000761324,0.00172687,0.00118467,-0.00628282,1.33039,0.00463419,0.0303582,1924,953,16.1771,-2.31613
707,71,16.1272,2.56207,-0.00608112,0.000814668,0.00145982,0.00111098,-0.00637743,1.37054,0.00466624,0.0276435,1931,953,16.1272,-2.56208
714,71,15.4108,2.83826,0,0,0,0,0,0,0,-1,1938,953,15.4107,-2.83827
721,71,15.3363,2.88837,-0.00567932,0.000981792,0.00130675,0.00122897,-0.0059265,1.38385,0.00441801,0.0262069,1945,953,15.3363,-2.88838
728,71,15.2814,2.99841,-0.0049141,0.00100618,0.00115015,0.00122177,-0.00512969,1.3855,0.00389151,0.0172794,1952,953,15.2813,-2.99844
735,71,15.2833,3.05737,-0.00444919,0.00124882,0.000881861,0.00138218,-0.00458256,1.42071,0.00360519,0.0112678,1959,953,15.2833,-3.05739
742,71,15.2869,3.13995,-0.00442306,0.00190693,0.000536288,0.00195204,-0.00446818,1.48687,0.00380042,0.0121017,1966,953,15.2869,-3.13998
749,71,15.2982,3.21674,-0.00468667,0.00310201,0.00020575,0.00310744,-0.0046921,1.5444,0.00453394,0.0148385,1973,953,15.2982,-3.21676
756,71,15.2911,3.30396,-0.00589413,0.00512803,0.000235122,0.00513305,-0.00589914,1.54948,0.00637456,0.0150533,1980,953,15.2912,-3.30396
763,71,15.2786,3.40283,-0.00853628,0.00912929,0.000417662,0.00913916,-0.00854615,1.54717,0.0102125,0.0131303,1987,953,15.2786,-3.40281
770,71,15.2692,3.43689,-0.0128646,0.0139299,0.00101277,0.0139682,-0.0129028,1.53307,0.015518,0.0151191,1994,953,15.2692,-3.43689
777,71,15.2477,3.51019,-0.0196051,0.0206449,0.00209589,0.0207537,-0.0197139,1.51891,0.0233666,0.0357281,2001,953,15.2477,-3.51017
784,71,15.2474,3.59827,-0.0293055,0.0300351,0.00372866,0.0302685,-0.0295389,1.50829,0.0345307,0.0474,2008,953,15.2474,-3.59825
791,71,15.1525,3.62225,0,0,0,0,0,0,0,-1,2015,953,15.1525,-3.62223
798,71,17.8212,2.7334,0,0,0,0,0,0,0,-1,2022,953,17.8211,-2.73339
805,71,17.5333,3.90802,0,0,0,0,0,0,0,-1,2029,953,17.5333,-3.90803
812,71,0,0,0,0,0,0,0,0,0,-1,2036,953,0,0
-700,64,0,0,0,0,0,0,0,0,0,-1,524,960,0,0
-693,64,0,0,0,0,0,0,0,0,0,-1,531,960,0,0
-686,64,-12.6205,7.79578,0.0342364,0.123464,0.0134996,0.125462,0.0322387,1.42388,0.0752337,0.0494782,538,960,-12.6205,-7.79576
-679,64,-13.0857,8.42712,0.0323123,0.0958852,0.013845,0.0987695,0.0294279,1.3654,0.0585561,0.0477307,545,960,-13.0857,-8.4271
-672,64,-9.5163,-0.0696411,0,0,0,0,0,0,0,-1,552,960,-9.5163,0.0696698
-665,64,-9.62134,0.441711,0,0,0,0,0,0,0,-1,559,960,-9.62132,-0.441734
-658,64,-9.75977,0.738525,0,0,0,0,0,0,0,-1,566,960,-9.75979,-0.738549
-651,64,-9.97089,1.00409,0.0174064,0.0267132,0.0092767,0.0324382,0.0116814,1.01787,0.0189709,0.0404933,573,960,-9.97087,-1.00411
-644,64,-9.71008,1.23297,0.0136048,0.0179303,0.00754637,0.0236177,0.00791737,0.924955,0.0138803,0.0287907,580,960,-9.71007,-1.23299
-637,64,-9.75006,1.20874,0.0104415,0.010537,0.00593958,0.016429,0.00454949,0.789416,0.00979494,0.0138353,587,960,-9.75005,-1.20871
-630,64,-9.79034,1.14166,0.00749112,0.00538336,0.00419313,0.0107608,0.0021137,0.662281,0.00658338,0.0118752,594,960,-9.79034,-1.14166
-623,64,-9.79224,1.09399,0.00403795,0.00172991,0.00295186,0.00605335,-0.000285491,0.599059,0.00413402,0.0122529,601,960,-9.79224,-1.09402
-616,64,-9.80286,1.04712,0.000972197,0.0019281,0.00213794,0.00364086,-0.000740567,0.895368,0.00270806,0.01579,608,960,-9.80287,-1.04713
-609,64,-9.79614,1.00568,-0.000837582,0.00100574,0.000569365,0.00116743,-0.000999265,1.29411,0.0012522,0.015613,615,960,-9.79613,-1.00565
-602,64,-9.78088,0.947876,-0.00234768,0.000587004,-0.000198645,0.000600389,-0.00236106,-1.50352,0.00180772,0.015181,622,960,-9.7809,-0.947876
-595,64,-9.79791,0.877991,-0.00381623,0.000416618,-0.000681199,0.000523543,-0.00392315,-1.4151,0.00280628,0.0159157,629,960,-9.79794,-0.877981
-588,64,-9.79736,0.896423,-0.00450907,0.000310433,-0.00096414,0.000496152,-0.00469479,-1.3805,0.00330767,0.0203288,636,960,-9.79739,-0.896435
-581,64,-9.89404,0.826477,-0.00477697,0.000266534,-0.00113984,0.000512175,-0.00502261,-1.35854,0.00353153,0.0255091,643,960,-9.89407,-0.826474
-574,64,-10.0751,0.711731,-0.00500906,0.000248736,-0.00118023,0.000501515,-0.00526184,-1.35981,0.00368645,0.030774,650,960,-10.0751,-0.711751
-567,64,-10.1151,0.541809,-0.00487939,0.000321883,-0.00132025,0.000637817,-0.00519532,-1.33592,0.00369455,0.0243648,657,960,-10.1151,-0.541832
-560,64,-10.1307,0.557556,-0.0044621,0.00042394,-0.00133312,0.000764004,-0.00480216,-1.32103,0.00348414,0.0330324,664,960,-10.1307,-0.557557
-553,64,-10.2017,0.584167,-0.00375421,0.000615673,-0.00128408,0.000965062,-0.0041036,-1.30513,0.00310778,0.0381639,671,960,-10.2017,-0.584192
-546,64,-10.2651,0.528198,-0.00277266,0.000926185,-0.00115926,0.00125948,-0.00310595,-1.29084,0.00259444,0.0407886,678,960,-10.2651,-0.528222
-539,64,-10.2619,0.397949,-0.00160425,0.00138489,-0.000949986,0.00166125,-0.00188061,-1.28769,0.0020462,0.0428777,685,960,-10.2619,-0.397948
-532,64,-10.2836,0.174683,-0.000491261,0.00207503,-0.000708778,0.00225778,-0.000674004,-1.31846,0.00177308,0.0457397,692,960,-10.2836,-0.174699
-525,64,-10.3419,0.486511,-0.000187836,0.00314545,-0.00054043,0.00323088,-0.000273267,-1.41401,0.00225055,0.0458563,699,960,-10.3419,-0.486493
-518,64,0,0,0,0,0,0,0,0,0,-1,706,960,0,0
-511,64,0,0,0,0,0,0,0,0,0,-1,713,960,0,0
-504,64,0,0,0,0,0,0,0,0,0,-1,720,960,0,0
-497,64,0,0,0,0,0,0,0,0,0,-1,727,960,0,0
-490,64,0,0,0,0,0,0,0,0,0,-1,734,960,0,0
-483,64,0,0,0,0,0,0,0,0,0,-1,741,960,0,0
-476,64,0,0,0,0,0,0,0,0,0,-1,748,960,0,0
-469,64,0,0,0,0,0,0,0,0,0,-1,755,960,0,0
-462,64,0,0,0,0,0,0,0,0,0,-1,762,960,0,0
-455,64,0,0,0,0,0,0,0,0,0,-1,769,960,0,0
-448,64,0,0,0,0,0,0,0,0,0,-1,776,960,0,0
-441,64,0,0,0,0,0,0,0,0,0,-1,783,960,0,0
-434,64,0,0,0,0,0,0,0,0,0,-1,790,960,0,0
-427,64,0,0,0,0,0,0,0,0,0,-1,797,960,0,0
-420,64,0,0,0,0,0,0,0,0,0,-1,804,960,0,0
-413,64,0,0,0,0,0,0,0,0,0,-1,811,960,0,0
-406,64,0,0,0,0,0,0,0,0,0,-1,818,960,0,0
-399,64,0,0,0,0,0,0,0,0,0,-1,825,960,0,0
-392,64,0,0,0,0,0,0,0,0,0,-1,832,960,0,0
-385,64,0,0,0,0,0,0,0,0,0,-1,839,960,0,0
-378,64,0,0,0,0,0,0,0,0,0,-1,846,960,0,0
-371,64,0,0,0,0,0,0,0,0,0,-1,853,960,0,0
-364,64,0,0,0,0,0,0,0,0,0,-1,860,960,0,0
-357,64,0,0,0,0,0,0,0,0,0,-1,867,960,0,0
-350,64,0,0,0,0,0,0,0,0,0,-1,874,960,0,0
-343,64,0,0,0,0,0,0,0,0,0,-1,881,960,0,0
-336,64,0,0,0,0,0,0,0,0,0,-1,888,960,0,0
-329,64,0,0,0,0,0,0,0,0,0,-1,895,960,0,0
-322,64,0,0,0,0,0,0,0,0,0,-1,902,960,0,0
-315,64,0,0,0,0,0,0,0,0,0,-1,909,960,0,0
-308,64,0,0,0,0,0,0,0,0,0,-1,916,960,0,0
-301,64,0,0,0,0,0,0,0,0,0,-1,923,960,0,0
-294,64,0,0,0,0,0,0,0,0,0,-1,930,960,0,0
-287,64,0,0,0,0,0,0,0,0,0,-1,937,960,0,0
-280,64,0,0,0,0,0,0,0,0,0,-1,944,960,0,0
-273,64,0,0,0,0,0,0,0,0,0,-1,951,960,0,0
-266,64,0,0,0,0,0,0,0,0,0,-1,958,960,0,0
-259,64,0,0,0,0,0,0,0,0,0,-1,965,960,0,0
-252,64,0,0,0,0,0,0,0,0,0,-1,972,960,0,0
-245,64,0,0,0,0,0,0,0,0,0,-1,979,960,0,0
-238,64,0,0,0,0,0,0,0,0,0,-1,986,960,0,0
-231,64,0,0,0,0,0,0,0,0,0,-1,993,960,0,0
-224,64,0,0,0,0,0,0,0,0,0,-1,1000,960,0,0
-217,64,0,0,0,0,0,0,0,0,0,-1,1007,960,0,0
-210,64,0,0,0,0,0,0,0,0,0,-1,1014,960,0,0
-203,64,0,0,0,0,0,0,0,0,0,-1,1021,960,0,0
-196,64,0,0,0,0,0,0,0,0,0,-1,1028,960,0,0
-189,64,0,0,0,0,0,0,0,0,0,-1,1035,960,0,0
-182,64,0,0,0,0,0,0,0,0,0,-1,1042,960,0,0
-175,64,0,0,0,0,0,0,0,0,0,-1,1049,960,0,0
-168,64,0,0,0,0,0,0,0,0,0,-1,1056,960,0,0
-161,64,0,0,0,0,0,0,0,0,0,-1,1063,960,0,0
-154,64,0,0,0,0,0,0,0,0,0,-1,1070,960,0,0
-147,64,0,0,0,0,0,0,0,0,0,-1,1077,960,0,0
-140,64,0,0,0,0,0,0,0,0,0,-1,1084,960,0,0
-133,64,0,0,0,0,0,0,0,0,0,-1,1091,960,0,0
-126,64,0,0,0,0,0,0,0,0,0,-1,1098,960,0,0
-119,64,0,0,0,0,0,0,0,0,0,-1,1105,960,0,0
-112,64,0,0,0,0,0,0,0,0,0,-1,1112,960,0,0
-105,64,0,0,0,0,0,0,0,0,0,-1,1119,960,0,0
-98,64,0,0,0,0,0,0,0,0,0,-1,1126,960,0,0
-91,64,0,0,0,0,0,0,0,0,0,-1,1133,960,0,0
-84,64,0,0,0,0,0,0,0,0,0,-1,1140,960,0,0
-77,64,0,0,0,0,0,0,0,0,0,-1,1147,960,0,0
-70,64,0,0,0,0,0,0,0,0,0,-1,1154,960,0,0
-63,64,0,0,0,0,0,0,0,0,0,-1,1161,960,0,0
-56,64,0,0,0,0,0,0,0,0,0,-1,1168,960,0,0
-49,64,0,0,0,0,0,0,0,0,0,-1,1175,960,0,0
-42,64,0,0,0,0,0,0,0,0,0,-1,1182,960,0,0
-35,64,0,0,0,0,0,0,0,0,0,-1,1189,960,0,0
-28,64,0,0,0,0,0,0,0,0,0,-1,1196,960,0,0
-21,64,0,0,0,0,0,0,0,0,0,-1,1203,960,0,0
-14,64,0,0,0,0,0,0,0,0,0,-1,1210,960,0,0
-7,64,0,0,0,0,0,0,0,0,0,-1,1217,960,0,0
0,64,0,0,0,0,0,0,0,0,0,-1,1224,960,0,0
7,64,0,0,0,0,0,0,0,0,0,-1,1231,960,0,0
14,64,0,0,0,0,0,0,0,0,0,-1,1238,960,0,0
21,64,0,0,0,0,0,0,0,0,0,-1,1245,960,0,0
28,64,0,0,0,0,0,0,0,0,0,-1,1252,960,0,0
35,64,0,0,0,0,0,0,0,0,0,-1,1259,960,0,0
42,64,0,0,0,0,0,0,0,0,0,-1,1266,960,0,0
49,64,0,0,0,0,0,0,0,0,0,-1,1273,960,0,0
56,64,0,0,0,0,0,0,0,0,0,-1,1280,960,0,0
63,64,0,0,0,0,0,0,0,0,0,-1,1287,960,0,0
70,64,0,0,0,0,0,0,0,0,0,-1,1294,960,0,0
77,64,0,0,0,0,0,0,0,0,0,-1,1301,960,0,0
84,64,0,0,0,0,0,0,0,0,0,-1,1308,960,0,0
91,64,0,0,0,0,0,0,0,0,0,-1,1315,960,0,0
98,64,0,0,0,0,0,0,0,0,0,-1,1322,960,0,0
105,64,0,0,0,0,0,0,0,0,0,-1,1329,960,0,0
112,64,0,0,0,0,0,0,0,0,0,-1,1336,960,0,0
119,64,0,0,0,0,0,0,0,0,0,-1,1343,960,0,0
126,64,0,0,0,0,0,0,0,0,0,-1,1350,960,0,0
133,64,0,0,0,0,0,0,0,0,0,-1,1357,960,0,0
140,64,0,0,0,0,0,0,0,0,0,-1,1364,960,0,0
147,64,0,0,0,0,0,0,0,0,0,-1,1371,960,0,0
154,64,0,0,0,0,0,0,0,0,0,-1,1378,960,0,0
161,64,0,0,0,0,0,0,0,0,0,-1,1385,960,0,0
168,64,0,0,0,0,0,0,0,0,0,-1,1392,960,0,0
175,64,0,0,0,0,0,0,0,0,0,-1,1399,960,0,0
182,64,0,0,0,0,0,0,0,0,0,-1,1406,960,0,0
189,64,0,0,0,0,0,0,0,0,0,-1,1413,960,0,0
196,64,0,0,0,0,0,0,0,0,0,-1,1420,960,0,0
203,64,0,0,0,0,0,0,0,0,0,-1,1427,960,0,0
210,64,0,0,0,0,0,0,0,0,0,-1,1434,960,0,0
217,64,0,0,0,0,0,0,0,0,0,-1,1441,960,0,0
224,64,0,0,0,0,0,0,0,0,0,-1,1448,960,0,0
231,64,0,0,0,0,0,0,0,0,0,-1,1455,960,0,0
238,64,0,0,0,0,0,0,0,0,0,-1,1462,960,0,0
245,64,0,0,0,0,0,0,0,0,0,-1,1469,960,0,0
252,64,0,0,0,0,0,0,0,0,0,-1,1476,960,0,0
259,64,0,0,0,0,0,0,0,0,0,-1,1483,960,0,0
266,64,0,0,0,0,0,0,0,0,0,-1,1490,960,0,0
273,64,0,0,0,0,0,0,0,0,0,-1,1497,960,0,0
280,64,0,0,0,0,0,0,0,0,0,-1,1504,960,0,0
287,64,0,0,0,0,0,0,0,0,0,-1,1511,960,0,0
294,64,0,0,0,0,0,0,0,0,0,-1,1518,960,0,0
301,64,0,0,0,0,0,0,0,0,0,-1,1525,960,0,0
308,64,0,0,0,0,0,0,0,0,0,-1,1532,960,0,0
315,64,0,0,0,0,0,0,0,0,0,-1,1539,960,0,0
322,64,0,0,0,0,0,0,0,0,0,-1,1546,960,0,0
329,64,0,0,0,0,0,0,0,0,0,-1,1553,960,0,0
336,64,0,0,0,0,0,0,0,0,0,-1,1560,960,0,0
343,64,0,0,0,0,0,0,0,0,0,-1,1567,960,0,0
350,64,0,0,0,0,0,0,0,0,0,-1,1574,960,0,0
357,64,0,0,0,0,0,0,0,0,0,-1,1581,960,0,0
364,64,0,0,0,0,0,0,0,0,0,-1,1588,960,0,0
371,64,0,0,0,0,0,0,0,0,0,-1,1595,960,0,0
378,64,0,0,0,0,0,0,0,0,0,-1,1602,960,0,0
385,64,0,0,0,0,0,0,0,0,0,-1,1609,960,0,0
392,64,0,0,0,0,0,0,0,0,0,-1,1616,960,0,0
399,64,0,0,0,0,0,0,0,0,0,-1,1623,960,0,0
406,64,0,0,0,0,0,0,0,0,0,-1,1630,960,0,0
413,64,0,0,0,0,0,0,0,0,0,-1,1637,960,0,0
420,64,0,0,0,0,0,0,0,0,0,-1,1644,960,0,0
427,64,0,0,0,0,0,0,0,0,0,-1,1651,960,0,0
434,64,0,0,0,0,0,0,0,0,0,-1,1658,960,0,0
441,64,0,0,0,0,0,0,0,0,0,-1,1665,960,0,0
448,64,0,0,0,0,0,0,0,0,0,-1,1672,960,0,0
455,64,0,0,0,0,0,0,0,0,0,-1,1679,960,0,0
462,64,0,0,0,0,0,0,0,0,0,-1,1686,960,0,0
469,64,0,0,0,0,0,0,0,0,0,-1,1693,960,0,0
476,64,0,0,0,0,0,0,0,0,0,-1,1700,960,0,0
483,64,0,0,0,0,0,0,0,0,0,-1,1707,960,0,0
490,64,0,0,0,0,0,0,0,0,0,-1,1714,960,0,0
497,64,0,0,0,0,0,0,0,0,0,-1,1721,960,0,0
504,64,0,0,0,0,0,0,0,0,0,-1,1728,960,0,0
511,64,0,0,0,0,0,0,0,0,0,-1,1735,960,0,0
518,64,0,0,0,0,0,0,0,0,0,-1,1742,960,0,0
525,64,0,0,0,0,0,0,0,0,0,-1,1749,960,0,0
532,64,0,0,0,0,0,0,0,0,0,-1,1756,960,0,0
539,64,0,0,0,0,0,0,0,0,0,-1,1763,960,0,0
546,64,0,0,0,0,0,0,0,0,0,-1,1770,960,0,0
553,64,0,0,0,0,0,0,0,0,0,-1,1777,960,0,0
560,64,0,0,0,0,0,0,0,0,0,-1,1784,960,0,0
567,64,0,0,0,0,0,0,0,0,0,-1,1791,960,0,0
574,64,0,0,0,0,0,0,0,0,0,-1,1798,960,0,0
581,64,0,0,0,0,0,0,0,0,0,-1,1805,960,0,0
588,64,0,0,0,0,0,0,0,0,0,-1,1812,960,0,0
595,64,0,0,0,0,0,0,0,0,0,-1,1819,960,0,0
602,64,0,0,0,0,0,0,0,0,0,-1,1826,960,0,0
609,64,0,0,0,0,0,0,0,0,0,-1,1833,960,0,0
616,64,0,0,0,0,0,0,0,0,0,-1,1840,960,0,0
623,64,0,0,0,0,0,0,0,0,0,-1,1847,960,0,0
630,64,0,0,0,0,0,0,0,0,0,-1,1854,960,0,0
637,64,0,0,0,0,0,0,0,0,0,-1,1861,960,0,0
644,64,16.1854,2.26312,0.00285452,-0.000344617,0.00217739,0.00395673,-0.00144683,0.468603,0.00322998,0.0399678,1868,960,16.1855,-2.26314
651,64,16.2595,2.24579,0.0018367,-0.000440934,0.00178282,0.00281338,-0.00141762,0.501177,0.00248668,0.0367677,1875,960,16.2596,-2.2458
658,64,16.3127,2.54199,0.00103109,-0.000280876,0.0014932,0.00200605,-0.00125583,0.578433,0.00189978,0.0349066,1882,960,16.3128,-2.542
665,64,16.2277,2.61066,-5.21481e-05,6.66629e-05,0.00144321,0.00145169,-0.00143718,0.805968,0.00166789,0.0404009,1889,960,16.2277,-2.61068
672,64,16.1563,2.42627,-0.00131536,0.000462136,0.00152924,0.00134213,-0.00219536,1.04863,0.00206208,0.0419696,1896,960,16.1563,-2.42626
679,64,16.1038,2.36902,-0.0025556,0.000782794,0.00170823,0.00150196,-0.00327476,1.17232,0.00282044,0.040798,1903,960,16.1037,-2.36904
686,64,16.1078,2.34259,-0.00354186,0.00099012,0.00189568,0.0016785,-0.00423025,1.22247,0.00351586,0.0393989,1910,960,16.1077,-2.34257
693,64,16.1809,2.24915,-0.00436864,0.000981324,0.00214862,0.00173739,-0.00512471,1.23244,0.00411959,0.0346258,1917,960,16.1809,-2.24915
700,64,16.2054,2.28253,-0.00500461,0.00116561,0.00215835,0.00184565,-0.00568465,1.26557,0.00453204,0.0283326,1924,960,16.2055,-2.28255
707,64,16.1495,2.55902,-0.00537864,0.00126248,0.00194411,0.00178973,-0.00590589,1.30596,0.0046501,0.0301644,1931,960,16.1495,-2.55902
714,64,15.9087,2.83545,-0.00553812,0.00131854,0.00183818,0.00178025,-0.00599982,1.32471,0.00470689,0.0373299,1938,960,15.9087,-2.83543
721,64,15.4185,2.89996,-0.00527646,0.00136777,0.00184025,0.00184341,-0.0057521,1.31787,0.00457473,0.0265854,1945,960,15.4185,-2.89999
728,64,15.3264,3.01459,-0.00470873,0.00133852,0.00171243,0.00178976,-0.00515998,1.31314,0.00416673,0.0137406,1952,960,15.3265,-3.01461
735,64,15.3175,3.08453,-0.00443955,0.00145952,0.00143379,0.00178955,-0.00476958,1.34456,0.00391503,0.0158404,1959,960,15.3175,-3.08454
742,64,15.3558,3.1438,-0.00450288,0.00206865,0.00102253,0.00222408,-0.00465831,1.41995,0.00405555,0.0148746,1966,960,15.3558,-3.14382
749,64,15.363,3.20813,-0.00490459,0.00313939,0.000665213,0.00319403,-0.00495923,1.48884,0.00474392,0.0132195,1973,960,15.363,-3.20815
756,64,15.3611,3.28644,-0.006394,0.005322,0.000620054,0.00535472,-0.00642673,1.51807,0.0068114,0.0142097,1980,960,15.3611,-3.28645
763,64,15.3524,3.39349,-0.00924632,0.00962217,0.000781847,0.00965451,-0.00927866,1.52945,0.0109318,0.0131053,1987,960,15.3524,-3.39347
770,64,15.3378,3.43945,-0.0136234,0.0147417,0.00135358,0.0148062,-0.0136879,1.52322,0.0164553,0.0129375,1994,960,15.3377,-3.43945
777,64,15.3118,3.50177,-0.0203641,0.0219211,0.00242289,0.0220594,-0.0205025,1.51375,0.0245786,0.0296972,2001,960,15.3118,-3.50175
784,64,15.2736,3.47223,-0.0299792,0.0319312,0.00402438,0.0321917,-0.0302397,1.50616,0.0360506,0.0437138,2008,960,15.2735,-3.47221
791,64,15.176,3.43884,0,0,0,0,0,0,0,-1,2015,960,15.176,-3.43882
798,64,16.9728,3.87836,0,0,0,0,0,0,0,-1,2022,960,16.9728,-3.87836
805,64,16.4796,4.51837,0,0,0,0,0,0,0,-1,2029,960,16.4796,-4.51838
812,64,0,0,0,0,0,0,0,0,0,-1,2036,960,0,0
-700,57,0,0,0,0,0,0,0,0,0,-1,524,967,0,0
-693,57,0,0,0,0,0,0,0,0,0,-1,531,967,0,0
-686,57,-12.5862,6.81226,0.0174722,0.132505,0.0131207,0.133983,0.0159947,1.45866,0.0844965,0.0463148,538,967,-12.5862,-6.81223
-679,57,-12.7175,7.1449,0.0182622,0.102447,0.0139846,0.10471,0.0159999,1.41042,0.0651316,0.0455614,545,967,-12.7176,-7.14489
-672,57,-9.67468,-0.504944,0,0,0,0,0,0,0,-1,552,967,-9.67469,0.504948
-665,57,-9.75684,0.0420532,0.0162436,0.0571541,0.0131269,0.0610038,0.0123939,1.28552,0.037232,0.0490651,559,967,-9.75686,-0.0420706
-658,57,-9.97644,0.537537,0.0142388,0.0409176,0.0118282,0.0454064,0.00974997,1.20808,0.0276011,0.0477127,566,967,-9.97643,-0.537524
-651,57,-9.91486,0.804016,0.0119531,0.0283819,0.0101887,0.0332551,0.0070799,1.12466,0.0202274,0.042362,573,967,-9.91484,-0.804035
-644,57,-9.79144,1.11383,0.00960207,0.0190702,0.0083734,0.0239551,0.00471713,1.04268,0.014653,0.028179,580,967,-9.79145,-1.11383
-637,57,-9.81366,1.16003,0.00757824,0.0111644,0.00661634,0.0162263,0.00251631,0.917723,0.010084,0.0148213,587,967,-9.81366,-1.16006
-630,57,-9.85321,1.12402,0.00546747,0.00574353,0.00474374,0.0103512,0.000859756,0.799943,0.00663284,0.0117918,594,967,-9.85323,-1.12405
-623,57,-9.8324,1.08875,0.00295251,0.0019278,0.00338158,0.00586033,-0.000980022,0.710213,0.0042712,0.0113792,601,967,-9.83242,-1.08875
-616,57,-9.83594,1.03107,0.000625139,0.0019365,0.00228225,0.00365539,-0.00109375,0.925279,0.00287179,0.0140205,608,967,-9.83594,-1.03104
-609,57,-9.85052,0.9646,-0.000856456,0.00111354,0.000550044,0.00125671,-0.000999629,1.31615,0.00130551,0.0144867,615,967,-9.85054,-0.964583
-602,57,-9.84302,0.933777,-0.00216995,0.000742636,-0.000410668,0.000799432,-0.00222675,-1.43337,0.00181079,0.0102572,622,967,-9.84304,-0.933766
-595,57,-9.8512,0.895386,-0.00334497,0.000532017,-0.000980163,0.000765728,-0.00357868,-1.33672,0.00267777,0.0114922,629,967,-9.85123,-0.895391
-588,57,-9.87836,0.887329,-0.00385158,0.000389168,-0.0012933,0.000752463,-0.00421487,-1.29695,0.00309141,0.0163214,636,967,-9.87833,-0.887357
-581,57,-9.99182,0.783691,-0.00400935,0.000375875,-0.0014829,0.000830249,-0.00446373,-1.27347,0.0032877,0.0232976,643,967,-9.99179,-0.783693
-574,57,-10.0972,0.645813,-0.0041711,0.000371994,-0.00152994,0.000839174,-0.00463828,-1.27443,0.00340654,0.0278209,650,967,-10.0972,-0.64582
-567,57,-10.0659,0.533508,-0.00399515,0.000436174,-0.00164436,0.000979694,-0.00453867,-1.25157,0.00339973,0.0326821,657,967,-10.0659,-0.533513
-560,57,-10.0214,0.477966,-0.00359,0.000533642,-0.00165515,0.0011158,-0.00417216,-1.23259,0.0032185,0.040622,664,967,-10.0214,-0.477968
-553,57,-10.0564,0.357971,-0.00295411,0.000719578,-0.00160137,0.00131962,-0.00355414,-1.21229,0.00291078,0.0405188,671,967,-10.0564,-0.357985
-546,57,-10.2571,0.4552,-0.00211964,0.00102047,-0.00148194,0.0016094,-0.00270857,-1.19253,0.00251976,0.0436806,678,967,-10.2572,-0.455202
-539,57,-10.1856,0.30127,-0.00118065,0.00147416,-0.00130678,0.00200947,-0.00171595,-1.18201,0.00215309,0.0453201,685,967,-10.1856,-0.301277
-532,57,-10.1629,0.28949,-0.000434335,0.0021993,-0.00116139,0.00263828,-0.000873317,-1.20942,0.00211106,0.0420964,692,967,-10.1629,-0.289482
-525,57,-10.2234,0.521606,-0.000689352,0.00337962,-0.00113498,0.0036748,-0.000984526,-1.31636,0.00283559,0.0419415,699,967,-10.2234,-0.521619
-518,57,0,0,0,0,0,0,0,0,0,-1,706,967,0,0
-511,57,0,0,0,0,0,0,0,0,0,-1,713,967,0,0
-504,57,0,0,0,0,0,0,0,0,0,-1,720,967,0,0
-497,57,0,0,0,0,0,0,0,0,0,-1,727,967,0,0
-490,57,0,0,0,0,0,0,0,0,0,-1,734,967,0,0
-483,57,0,0,0,0,0,0,0,0,0,-1,741,967,0,0
-476,57,0,0,0,0,0,0,0,0,0,-1,748,967,0,0
-469,57,0,0,0,0,0,0,0,0,0,-1,755,967,0,0
-462,57,0,0,0,0,0,0,0,0,0,-1,762,967,0,0
-455,57,0,0,0,0,0,0,0,0,0,-1,769,967,0,0
-448,57,0,0,0,0,0,0,0,0,0,-1,776,967,0,0
-441,57,0,0,0,0,0,0,0,0,0,-1,783,967,0,0
-434,57,0,0,0,0,0,0,0,0,0,-1,790,967,0,0
-427,57,0,0,0,0,0,0,0,0,0,-1,797,967,0,0
-420,57,0,0,0,0,0,0,0,0,0,-1,804,967,0,0
-413,57,0,0,0,0,0,0,0,0,0,-1,811,967,0,0
-406,57,0,0,0,0,0,0,0,0,0,-1,818,967,0,0
-399,57,0,0,0,0,0,0,0,0,0,-1,825,967,0,0
-392,57,0,0,0,0,0,0,0,0,0,-1,832,967,0,0
-385,57,0,0,0,0,0,0,0,0,0,-1,839,967,0,0
-378,57,0,0,0,0,0,0,0,0,0,-1,846,967,0,0
-371,57,0,0,0,0,0,0,0,0,0,-1,853,967,0,0
-364,57,0,0,0,0,0,0,0,0,0,-1,860,967,0,0
-357,57,0,0,0,0,0,0,0,0,0,-1,867,967,0,0
-350,57,0,0,0,0,0,0,0,0,0,-1,874,967,0,0
-343,57,0,0,0,0,0,0,0,0,0,-1,881,967,0,0
-336,57,0,0,0,0,0,0,0,0,0,-1,888,967,0,0
-329,57,0,0,0,0,0,0,0,0,0,-1,895,967,0,0
-322,57,0,0,0,0,0,0,0,0,0,-1,902,967,0,0
-315,57,0,0,0,0,0,0,0,0,0,-1,909,967,0,0
-308,57,0,0,0,0,0,0,0,0,0,-1,916,967,0,0
-301,57,0,0,0,0,0,0,0,0,0,-1,923,967,0,0
-294,57,0,0,0,0,0,0,0,0,0,-1,930,967,0,0
-287,57,0,0,0,0,0,0,0,0,0,-1,937,967,0,0
-280,57,0,0,0,0,0,0,0,0,0,-1,944,967,0,0
-273,57,0,0,0,0,0,0,0,0,0,-1,951,967,0,0
-266,57,0,0,0,0,0,0,0,0,0,-1,958,967,0,0
-259,57,0,0,0,0,0,0,0,0,0,-1,965,967,0,0
-252,57,0,0,0,0,0,0,0,0,0,-1,972,967,0,0
-245,57,0,0,0,0,0,0,0,0,0,-1,979,967,0,0
-238,57,0,0,0,0,0,0,0,0,0,-1,986,967,0,0
-231,57,0,0,0,0,0,0,0,0,0,-1,993,967,0,0
-224,57,0,0,0,0,0,0,0,0,0,-1,1000,967,0,0
-217,57,0,0,0,0,0,0,0,0,0,-1,1007,967,0,0
-210,57,0,0,0,0,0,0,0,0,0,-1,1014,967,0,0
-203,57,0,0,0,0,0,0,0,0,0,-1,1021,967,0,0
-196,57,0,0,0,0,0,0,0,0,0,-1,1028,967,0,0
-189,57,0,0,0,0,0,0,0,0,0,-1,1035,967,0,0
-182,57,0,0,0,0,0,0,0,0,0,-1,1042,967,0,0
-175,57,0,0,0,0,0,0,0,0,0,-1,1049,967,0,0
-168,57,0,0,0,0,0,0,0,0,0,-1,1056,967,0,0
-161,57,0,0,0,0,0,0,0,0,0,-1,1063,967,0,0
-154,57,0,0,0,0,0,0,0,0,0,-1,1070,967,0,0
-147,57,0,0,0,0,0,0,0,0,0,-1,1077,967,0,0
-140,57,0,0,0,0,0,0,0,0,0,-1,1084,967,0,0
-133,57,0,0,0,0,0,0,0,0,0,-1,1091,967,0,0
-126,57,0,0,0,0,0,0,0,0,0,-1,1098,967,0,0
-119,57,0,0,0,0,0,0,0,0,0,-1,1105,967,0,0
-112,57,0,0,0,0,0,0,0,0,0,-1,1112,967,0,0
-105,57,0,0,0,0,0,0,0,0,0,-1,1119,967,0,0
-98,57,0,0,0,0,0,0,0,0,0,-1,1126,967,0,0
-91,57,0,0,0,0,0,0,0,0,0,-1,1133,967,0,0
-84,57,0,0,0,0,0,0,0,0,0,-1,1140,967,0,0
-77,57,0,0,0,0,0,0,0,0,0,-1,1147,967,0,0
-70,57,0,0,0,0,0,0,0,0,0,-1,1154,967,0,0
-63,57,0,0,0,0,0,0,0,0,0,-1,1161,967,0,0
-56,57,0,0,0,0,0,0,0,0,0,-1,1168,967,0,0
-49,57,0,0,0,0,0,0,0,0,0,-1,1175,967,0,0
-42,57,0,0,0,0,0,0,0,0,0,-1,1182,967,0,0
-35,57,0,0,0,0,0,0,0,0,0,-1,1189,967,0,0
-28,57,0,0,0,0,0,0,0,0,0,-1,1196,967,0,0
-21,57,0,0,0,0,0,0,0,0,0,-1,1203,967,0,0
-14,57,0,0,0,0,0,0,0,0,0,-1,1210,967,0,0
-7,57,0,0,0,0,0,0,0,0,0,-1,1217,967,0,0
0,57,0,0,0,0,0,0,0,0,0,-1,1224,967,0,0
7,57,0,0,0,0,0,0,0,0,0,-1,1231,967,0,0
14,57,0,0,0,0,0,0,0,0,0,-1,1238,967,0,0
21,57,0,0,0,0,0,0,0,0,0,-1,1245,967,0,0
28,57,0,0,0,0,0,0,0,0,0,-1,1252,967,0,0
35,57,0,0,0,0,0,0,0,0,0,-1,1259,967,0,0
42,57,0,0,0,0,0,0,0,0,0,-1,1266,967,0,0
49,57,0,0,0,0,0,0,0,0,0,-1,1273,967,0,0
56,57,0,0,0,0,0,0,0,0,0,-1,1280,967,0,0
63,57,0,0,0,0,0,0,0,0,0,-1,1287,967,0,0
70,57,0,0,0,0,0,0,0,0,0,-1,1294,967,0,0
77,57,0,0,0,0,0,0,0,0,0,-1,1301,967,0,0
84,57,0,0,0,0,0,0,0,0,0,-1,1308,967,0,0
91,57,0,0,0,0,0,0,0,0,0,-1,1315,967,0,0
98,57,0,0,0,0,0,0,0,0,0,-1,1322,967,0,0
105,57,0,0,0,0,0,0,0,0,0,-1,1329,967,0,0
112,57,0,0,0,0,0,0,0,0,0,-1,1336,967,0,0
119,57,0,0,0,0,0,0,0,0,0,-1,1343,967,0,0
126,57,0,0,0,0,0,0,0,0,0,-1,1350,967,0,0
133,57,0,0,0,0,0,0,0,0,0,-1,1357,967,0,0
140,57,0,0,0,0,0,0,0,0,0,-1,1364,967,0,0
147,57,0,0,0,0,0,0,0,0,0,-1,1371,967,0,0
154,57,0,0,0,0,0,0,0,0,0,-1,1378,967,0,0
161,57,0,0,0,0,0,0,0,0,0,-1,1385,967,0,0
168,57,0,0,0,0,0,0,0,0,0,-1,1392,967,0,0
175,57,0,0,0,0,0,0,0,0,0,-1,1399,967,0,0
182,57,0,0,0,0,0,0,0,0,0,-1,1406,967,0,0
189,57,0,0,0,0,0,0,0,0,0,-1,1413,967,0,0
196,57,0,0,0,0,0,0,0,0,0,-1,1420,967,0,0
203,57,0,0,0,0,0,0,0,0,0,-1,1427,967,0,0
210,57,0,0,0,0,0,0,0,0,0,-1,1434,967,0,0
217,57,0,0,0,0,0,0,0,0,0,-1,1441,967,0,0
224,57,0,0,0,0,0,0,0,0,0,-1,1448,967,0,0
231,57,0,0,0,0,0,0,0,0,0,-1,1455,967,0,0
238,57,0,0,0,0,0,0,0,0,0,-1,1462,967,0,0
245,57,0,0,0,0,0,0,0,0,0,-1,1469,967,0,0
252,57,0,0,0,0,0,0,0,0,0,-1,1476,967,0,0
259,57,0,0,0,0,0,0,0,0,0,-1,1483,967,0,0
266,57,0,0,0,0,0,0,0,0,0,-1,1490,967,0,0
273,57,0,0,0,0,0,0,0,0,0,-1,1497,967,0,0
280,57,0,0,0,0,0,0,0,0,0,-1,1504,967,0,0
287,57,0,0,0,0,0,0,0,0,0,-1,1511,967,0,0
294,57,0,0,0,0,0,0,0,0,0,-1,1518,967,0,0
301,57,0,0,0,0,0,0,0,0,0,-1,1525,967,0,0
308,57,0,0,0,0,0,0,0,0,0,-1,1532,967,0,0
315,57,0,0,0,0,0,0,0,0,0,-1,1539,967,0,0
322,57,0,0,0,0,0,0,0,0,0,-1,1546,967,0,0
329,57,0,0,0,0,0,0,0,0,0,-1,1553,967,0,0
336,57,0,0,0,0,0,0,0,0,0,-1,1560,967,0,0
343,57,0,0,0,0,0,0,0,0,0,-1,1567,967,0,0
350,57,0,0,0,0,0,0,0,0,0,-1,1574,967,0,0
357,57,0,0,0,0,0,0,0,0,0,-1,1581,967,0,0
364,57,0,0,0,0,0,0,0,0,0,-1,1588,967,0,0
371,57,0,0,0,0,0,0,0,0,0,-1,1595,967,0,0
378,57,0,0,0,0,0,0,0,0,0,-1,1602,967,0,0
385,57,0,0,0,0,0,0,0,0,0,-1,1609,967,0,0
392,57,0,0,0,0,0,0,0,0,0,-1,1616,967,0,0
399,57,0,0,0,0,0,0,0,0,0,-1,1623,967,0,0
406,57,0,0,0,0,0,0,0,0,0,-1,1630,967,0,0
413,57,0,0,0,0,0,0,0,0,0,-1,1637,967,0,0
420,57,0,0,0,0,0,0,0,0,0,-1,1644,967,0,0
427,57,0,0,0,0,0,0,0,0,0,-1,1651,967,0,0
434,57,0,0,0,0,0,0,0,0,0,-1,1658,967,0,0
441,57,0,0,0,0,0,0,0,0,0,-1,1665,967,0,0
448,57,0,0,0,0,0,0,0,0,0,-1,1672,967,0,0
455,57,0,0,0,0,0,0,0,0,0,-1,1679,967,0,0
462,57,0,0,0,0,0,0,0,0,0,-1,1686,967,0,0
469,57,0,0,0,0,0,0,0,0,0,-1,1693,967,0,0
476,57,0,0,0,0,0,0,0,0,0,-1,1700,967,0,0
483,57,0,0,0,0,0,0,0,0,0,-1,1707,967,0,0
490,57,0,0,0,0,0,0,0,0,0,-1,1714,967,0,0
497,57,0,0,0,0,0,0,0,0,0,-1,1721,967,0,0
504,57,0,0,0,0,0,0,0,0,0,-1,1728,967,0,0
511,57,0,0,0,0,0,0,0,0,0,-1,1735,967,0,0
518,57,0,0,0,0,0,0,0,0,0,-1,1742,967,0,0
525,57,0,0,0,0,0,0,0,0,0,-1,1749,967,0,0
532,57,0,0,0,0,0,0,0,0,0,-1,1756,967,0,0
539,57,0,0,0,0,0,0,0,0,0,-1,1763,967,0,0
546,57,0,0,0,0,0,0,0,0,0,-1,1770,967,0,0
553,57,0,0,0,0,0,0,0,0,0,-1,1777,967,0,0
560,57,0,0,0,0,0,0,0,0,0,-1,1784,967,0,0
567,57,0,0,0,0,0,0,0,0,0,-1,1791,967,0,0
574,57,0,0,0,0,0,0,0,0,0,-1,1798,967,0,0
581,57,0,0,0,0,0,0,0,0,0,-1,1805,967,0,0
588,57,0,0,0,0,0,0,0,0,0,-1,1812,967,0,0
595,57,0,0,0,0,0,0,0,0,0,-1,1819,967,0,0
602,57,0,0,0,0,0,0,0,0,0,-1,1826,967,0,0
609,57,0,0,0,0,0,0,0,0,0,-1,1833,967,0,0
616,57,0,0,0,0,0,0,0,0,0,-1,1840,967,0,0
623,57,0,0,0,0,0,0,0,0,0,-1,1847,967,0,0
630,57,0,0,0,0,0,0,0,0,0,-1,1854,967,0,0
637,57,0,0,0,0,0,0,0,0,0,-1,1861,967,0,0
644,57,16.1606,2.37683,0.00274042,-0.00142662,0.00239436,0.00383086,-0.00251705,0.427352,0.00369104,0.0403428,1868,967,16.1606,-2.37684
651,57,16.243,2.31934,0.00181811,-0.00130513,0.0016893,0.00255701,-0.00204404,0.412327,0.00266191,0.0330478,1875,967,16.2431,-2.31934
658,57,16.1648,2.57312,0.00118811,-0.000940611,0.00123865,0.00175688,-0.00150938,0.430468,0.00188758,0.03304,1882,967,16.1648,-2.57313
665,57,16.2369,2.30261,0.000325288,-0.00038774,0.00115817,0.00118057,-0.00124302,0.636087,0.00139942,0.0410246,1889,967,16.2369,-2.30262
672,57,16.1702,2.27826,-0.000797246,0.000189166,0.00130936,0.00109513,-0.00170321,0.965518,0.00162829,0.0445589,1896,967,16.1702,-2.27828
679,57,16.0669,2.35138,-0.00200402,0.00066396,0.00160211,0.00141475,-0.00275481,1.13256,0.00244839,0.0437014,1903,967,16.0669,-2.35138
686,57,16.1676,2.34351,-0.00300006,0.000987053,0.00191987,0.0017612,-0.00377421,1.18751,0.00326555,0.0408813,1910,967,16.1676,-2.34352
693,57,16.1974,2.28522,-0.00384215,0.00109305,0.00228243,0.00198678,-0.00473588,1.19758,0.00398803,0.033168,1917,967,16.1974,-2.28522
700,57,16.224,2.26929,-0.00453409,0.00128508,0.00240046,0.00214749,-0.00539649,1.22589,0.00448814,0.025389,1924,967,16.224,-2.26932
707,57,16.1489,2.61023,-0.00501172,0.00145108,0.00225614,0.00216076,-0.00572139,1.26604,0.00470299,0.0321892,1931,967,16.1489,-2.61022
714,57,16.0217,2.94989,-0.00526963,0.0015154,0.0021989,0.00216569,-0.00591992,1.28326,0.00483305,0.0470605,1938,967,16.0217,-2.94989
721,57,15.4181,2.94318,0,0,0,0,0,0,0,-1,1945,967,15.4181,-2.94318
728,57,15.3728,3.04993,-0.00471237,0.00153078,0.00218806,0.00222127,-0.00540286,1.26512,0.00452775,0.0187433,1952,967,15.3728,-3.04996
735,57,15.4049,3.11389,-0.00458094,0.00157862,0.00191282,0.00212429,-0.00512661,1.29291,0.00430427,0.018997,1959,967,15.4049,-3.11386
742,57,15.442,3.16144,-0.00470111,0.00216721,0.00146671,0.00246731,-0.00500121,1.36897,0.0043939,0.0161576,1966,967,15.442,-3.16143
749,57,15.4235,3.23254,-0.00519666,0.00312334,0.0011554,0.00328081,-0.00535413,1.43534,0.00503306,0.0140956,1973,967,15.4235,-3.23255
756,57,15.406,3.28229,-0.00698692,0.00537058,0.00112835,0.00547277,-0.0070891,1.48048,0.00727258,0.0109132,1980,967,15.406,-3.28227
763,57,15.4178,3.34625,-0.0101407,0.00982855,0.00135165,0.00991962,-0.0102318,1.50352,0.0116349,0.0111313,1987,967,15.4179,-3.34625
770,57,15.4049,3.401,-0.0146915,0.0150627,0.00202787,0.0152003,-0.0148291,1.50306,0.0173379,0.0105071,1994,967,15.4049,-3.40102
777,57,15.3824,3.492,-0.0216008,0.0224139,0.00327863,0.0226568,-0.0218437,1.49685,0.0256938,0.0241726,2001,967,15.3825,-3.49199
784,57,15.3033,3.55975,-0.0313998,0.0326466,0.00514071,0.0330566,-0.0318098,1.49121,0.0374529,0.0427154,2008,967,15.3034,-3.55977
791,57,15.2242,3.67224,0,0,0,0,0,0,0,-1,2015,967,15.2242,-3.67227
798,57,16.1694,4.81732,0,0,0,0,0,0,0,-1,2022,967,16.1694,-4.81735
805,57,15.4263,5.09027,0,0,0,0,0,0,0,-1,2029,967,15.4263,-5.09026
812,57,0,0,0,0,0,0,0,0,0,-1,2036,967,0,0
-700,50,0,0,0,0,0,0,0,0,0,-1,524,974,0,0
-693,50,-12.1453,5.09094,-0.00380998,0.176563,0.00911849,0.177023,-0.00426977,1.52041,0.119464,0.0487291,531,974,-12.1453,-5.09095
-686,50,-12.2113,5.78564,0.00102238,0.13875,0.0122534,0.139831,-5.92917e-05,1.48275,0.0932408,0.046187,538,974,-12.2113,-5.78563
-679,50,-11.9276,6.55176,0,0,0,0,0,0,0,-1,545,974,-11.9276,-6.55178
-672,50,-9.46527,-1.56183,0,0,0,0,0,0,0,-1,552,974,-9.46527,1.56181
-665,50,-9.927,-0.407532,0.00626122,0.059646,0.0135974,0.0629098,0.00299744,1.33522,0.0409773,0.0467509,559,974,-9.92702,0.407553
-658,50,-10.8231,0.70752,0.00634152,0.0426012,0.0124391,0.0464582,0.00248449,1.27012,0.0301781,0.0493456,566,974,-10.8231,-0.707503
-651,50,-10.3325,0.892212,0.00593644,0.0294553,0.0108363,0.0336868,0.00170494,1.19851,0.0219116,0.0426311,573,974,-10.3325,-0.892237
-644,50,-9.89783,1.07715,0.00519462,0.0197068,0.00896725,0.023986,0.00091544,1.12555,0.0156944,0.0250423,580,974,-9.89784,-1.07717
-637,50,-9.88165,1.12207,0.00442582,0.0114023,0.00709597,0.015821,7.05943e-06,1.01384,0.010545,0.0134378,587,974,-9.88163,-1.12205
-630,50,-9.87915,1.11847,0.00326326,0.00584868,0.00516046,0.00987587,-0.00076394,0.908124,0.00685277,0.00950009,594,974,-9.87913,-1.11849
-623,50,-9.86652,1.08984,0.00178983,0.00195604,0.00369247,0.00556634,-0.00182047,0.796649,0.00444381,0.0103342,601,974,-9.86651,-1.08986
-616,50,-9.87878,1.03564,0.000405014,0.00168792,0.00231612,0.00344977,-0.00135684,0.920488,0.00286145,0.0111404,608,974,-9.87879,-1.03567
-609,50,-9.89539,0.974915,-0.000691336,0.00103765,0.000494069,0.00116888,-0.00082256,1.31119,0.00115554,0.0102643,615,974,-9.89537,-0.974915
-602,50,-9.90265,0.923889,-0.0018362,0.000758849,-0.000673684,0.000923317,-0.00200067,-1.33135,0.00172594,0.010015,622,974,-9.90266,-0.923906
-595,50,-9.88568,0.896667,-0.00273888,0.000538228,-0.00129128,0.00098588,-0.00318653,-1.23709,0.00251815,0.0108403,629,974,-9.88565,-0.896689
-588,50,-9.91815,0.844727,-0.00309486,0.000365917,-0.00162275,0.00100778,-0.00373672,-1.19414,0.00288633,0.0128866,636,974,-9.91817,-0.84473
-581,50,-10.0665,0.656067,-0.00316704,0.000365489,-0.00182486,0.00113887,-0.00394042,-1.16994,0.00307763,0.0198983,643,974,-10.0665,-0.656091
-574,50,-10.1372,0.46405,-0.00326581,0.000369904,-0.00187242,0.00116175,-0.00405766,-1.1707,0.00316426,0.0253295,650,974,-10.1372,-0.46405
-567,50,-10.0731,0.428345,-0.00305966,0.000442025,-0.0019425,0.00130628,-0.00392391,-1.15217,0.00314319,0.0390061,657,974,-10.0731,-0.428372
-560,50,-10.0103,0.445679,-0.00268777,0.000559886,-0.00191349,0.00144569,-0.00357358,-1.13724,0.00298342,0.0462524,664,974,-10.0103,-0.445669
-553,50,-10.1807,0.393616,-0.00217199,0.000772765,-0.00181844,0.00164018,-0.00303941,-1.12571,0.00274172,0.0428323,671,974,-10.1807,-0.39362
-546,50,-10.0599,0.41748,-0.00155553,0.0011106,-0.00166216,0.00190822,-0.00235316,-1.12338,0.00246478,0.0422572,678,974,-10.0599,-0.417477
-539,50,-9.8764,0.465698,-0.000943611,0.00162122,-0.00147455,0.002293,-0.00161539,-1.14331,0.00226779,0.0433414,685,974,-9.87639,-0.465683
-532,50,-9.9801,0.496216,-0.000696738,0.0024623,-0.00137746,0.00297856,-0.00121299,-1.21221,0.00249053,0.0415058,692,974,-9.9801,-0.496239
-525,50,-10.2039,0.522827,-0.00163909,0.00386596,-0.00142886,0.00421472,-0.00198786,-1.33139,0.00365719,0.039618,699,974,-10.2039,-0.522853
-518,50,0,0,0,0,0,0,0,0,0,-1,706,974,0,0
-511,50,0,0,0,0,0,0,0,0,0,-1,713,974,0,0
-504,50,0,0,0,0,0,0,0,0,0,-1,720,974,0,0
-497,50,0,0,0,0,0,0,0,0,0,-1,727,974,0,0
-490,50,0,0,0,0,0,0,0,0,0,-1,734,974,0,0
-483,50,0,0,0,0,0,0,0,0,0,-1,741,974,0,0
-476,50,0,0,0,0,0,0,0,0,0,-1,748,974,0,0
-469,50,0,0,0,0,0,0,0,0,0,-1,755,974,0,0
-462,50,0,0,0,0,0,0,0,0,0,-1,762,974,0,0
-455,50,0,0,0,0,0,0,0,0,0,-1,769,974,0,0
-448,50,0,0,0,0,0,0,0,0,0,-1,776,974,0,0
-441,50,0,0,0,0,0,0,0,0,0,-1,783,974,0,0
-434,50,0,0,0,0,0,0,0,0,0,-1,790,974,0,0
-427,50,0,0,0,0,0,0,0,0,0,-1,797,974,0,0
-420,50,0,0,0,0,0,0,0,0,0,-1,804,974,0,0
-413,50,0,0,0,0,0,0,0,0,0,-1,811,974,0,0
-406,50,0,0,0,0,0,0,0,0,0,-1,818,974,0,0
-399,50,0,0,0,0,0,0,0,0,0,-1,825,974,0,0
-392,50,0,0,0,0,0,0,0,0,0,-1,832,974,0,0
-385,50,0,0,0,0,0,0,0,0,0,-1,839,974,0,0
-378,50,0,0,0,0,0,0,0,0,0,-1,846,974,0,0
-371,50,0,0,0,0,0,0,0,0,0,-1,853,974,0,0
-364,50,0,0,0,0,0,0,0,0,0,-1,860,974,0,0
-357,50,0,0,0,0,0,0,0,0,0,-1,867,974,0,0
-350,50,0,0,0,0,0,0,0,0,0,-1,874,974,0,0
-343,50,0,0,0,0,0,0,0,0,0,-1,881,974,0,0
-336,50,0,0,0,0,0,0,0,0,0,-1,888,974,0,0
-329,50,0,0,0,0,0,0,0,0,0,-1,895,974,0,0
-322,50,0,0,0,0,0,0,0,0,0,-1,902,974,0,0
-315,50,0,0,0,0,0,0,0,0,0,-1,909,974,0,0
-308,50,0,0,0,0,0,0,0,0,0,-1,916,974,0,0
-301,50,0,0,0,0,0,0,0,0,0,-1,923,974,0,0
-294,50,0,0,0,0,0,0,0,0,0,-1,930,974,0,0
-287,50,0,0,0,0,0,0,0,0,0,-1,937,974,0,0
-280,50,0,0,0,0,0,0,0,0,0,-1,944,974,0,0
-273,50,0,0,0,0,0,0,0,0,0,-1,951,974,0,0
-266,50,0,0,0,0,0,0,0,0,0,-1,958,974,0,0
-259,50,0,0,0,0,0,0,0,0,0,-1,965,974,0,0
-252,50,0,0,0,0,0,0,0,0,0,-1,972,974,0,0
-245,50,0,0,0,0,0,0,0,0,0,-1,979,974,0,0
-238,50,0,0,0,0,0,0,0,0,0,-1,986,974,0,0
-231,50,0,0,0,0,0,0,0,0,0,-1,993,974,0,0
-224,50,0,0,0,0,0,0,0,0,0,-1,1000,974,0,0
-217,50,0,0,0,0,0,0,0,0,0,-1,1007,974,0,0
-210,50,0,0,0,0,0,0,0,0,0,-1,1014,974,0,0
-203,50,0,0,0,0,0,0,0,0,0,-1,1021,974,0,0
-196,50,0,0,0,0,0,0,0,0,0,-1,1028,974,0,0
-189,50,0,0,0,0,0,0,0,0,0,-1,1035,974,0,0
-182,50,0,0,0,0,0,0,0,0,0,-1,1042,974,0,0
-175,50,0,0,0,0,0,0,0,0,0,-1,1049,974,0,0
-168,50,0,0,0,0,0,0,0,0,0,-1,1056,974,0,0
-161,50,0,0,0,0,0,0,0,0,0,-1,1063,974,0,0
-154,50,0,0,0,0,0,0,0,0,0,-1,1070,974,0,0
-147,50,0,0,0,0,0,0,0,0,0,-1,1077,974,0,0
-140,50,0,0,0,0,0,0,0,0,0,-1,1084,974,0,0
-133,50,0,0,0,0,0,0,0,0,0,-1,1091,974,0,0
-126,50,0,0,0,0,0,0,0,0,0,-1,1098,974,0,0
-119,50,0,0,0,0,0,0,0,0,0,-1,1105,974,0,0
-112,50,0,0,0,0,0,0,0,0,0,-1,1112,974,0,0
-105,50,0,0,0,0,0,0,0,0,0,-1,1119,974,0,0
-98,50,0,0,0,0,0,0,0,0,0,-1,1126,974,0,0
-91,50,0,0,0,0,0,0,0,0,0,-1,1133,974,0,0
-84,50,0,0,0,0,0,0,0,0,0,-1,1140,974,0,0
-77,50,0,0,0,0,0,0,0,0,0,-1,1147,974,0,0
-70,50,0,0,0,0,0,0,0,0,0,-1,1154,974,0,0
-63,50,0,0,0,0,0,0,0,0,0,-1,1161,974,0,0
-56,50,0,0,0,0,0,0,0,0,0,-1,1168,974,0,0
-49,50,0,0,0,0,0,0,0,0,0,-1,1175,974,0,0
-42,50,0,0,0,0,0,0,0,0,0,-1,1182,974,0,0
-35,50,0,0,0,0,0,0,0,0,0,-1,1189,974,0,0
-28,50,0,0,0,0,0,0,0,0,0,-1,1196,974,0,0
-21,50,0,0,0,0,0,0,0,0,0,-1,1203,974,0,0
-14,50,0,0,0,0,0,0,0,0,0,-1,1210,974,0,0
-7,50,0,0,0,0,0,0,0,0,0,-1,1217,974,0,0
0,50,0,0,0,0,0,0,0,0,0,-1,1224,974,0,0
7,50,0,0,0,0,0,0,0,0,0,-1,1231,974,0,0
14,50,0,0,0,0,0,0,0,0,0,-1,1238,974,0,0
21,50,0,0,0,0,0,0,0,0,0,-1,1245,974,0,0
28,50,0,0,0,0,0,0,0,0,0,-1,1252,974,0,0
35,50,0,0,0,0,0,0,0,0,0,-1,1259,974,0,0
42,50,0,0,0,0,0,0,0,0,0,-1,1266,974,0,0
49,50,0,0,0,0,0,0,0,0,0,-1,1273,974,0,0
56,50,0,0,0,0,0,0,0,0,0,-1,1280,974,0,0
63,50,0,0,0,0,0,0,0,0,0,-1,1287,974,0,0
70,50,0,0,0,0,0,0,0,0,0,-1,1294,974,0,0
77,50,0,0,0,0,0,0,0,0,0,-1,1301,974,0,0
84,50,0,0,0,0,0,0,0,0,0,-1,1308,974,0,0
91,50,0,0,0,0,0,0,0,0,0,-1,1315,974,0,0
98,50,0,0,0,0,0,0,0,0,0,-1,1322,974,0,0
105,50,0,0,0,0,0,0,0,0,0,-1,1329,974,0,0
112,50,0,0,0,0,0,0,0,0,0,-1,1336,974,0,0
119,50,0,0,0,0,0,0,0,0,0,-1,1343,974,0,0
126,50,0,0,0,0,0,0,0,0,0,-1,1350,974,0,0
133,50,0,0,0,0,0,0,0,0,0,-1,1357,974,0,0
140,50,0,0,0,0,0,0,0,0,0,-1,1364,974,0,0
147,50,0,0,0,0,0,0,0,0,0,-1,1371,974,0,0
154,50,0,0,0,0,0,0,0,0,0,-1,1378,974,0,0
161,50,0,0,0,0,0,0,0,0,0,-1,1385,974,0,0
168,50,0,0,0,0,0,0,0,0,0,-1,1392,974,0,0
175,50,0,0,0,0,0,0,0,0,0,-1,1399,974,0,0
182,50,0,0,0,0,0,0,0,0,0,-1,1406,974,0,0
189,50,0,0,0,0,0,0,0,0,0,-1,1413,974,0,0
196,50,0,0,0,0,0,0,0,0,0,-1,1420,974,0,0
203,50,0,0,0,0,0,0,0,0,0,-1,1427,974,0,0
210,50,0,0,0,0,0,0,0,0,0,-1,1434,974,0,0
217,50,0,0,0,0,0,0,0,0,0,-1,1441,974,0,0
224,50,0,0,0,0,0,0,0,0,0,-1,1448,974,0,0
231,50,0,0,0,0,0,0,0,0,0,-1,1455,974,0,0
238,50,0,0,0,0,0,0,0,0,0,-1,1462,974,0,0
245,50,0,0,0,0,0,0,0,0,0,-1,1469,974,0,0
252,50,0,0,0,0,0,0,0,0,0,-1,1476,974,0,0
259,50,0,0,0,0,0,0,0,0,0,-1,1483,974,0,0
266,50,0,0,0,0,0,0,0,0,0,-1,1490,974,0,0
273,50,0,0,0,0,0,0,0,0,0,-1,1497,974,0,0
280,50,0,0,0,0,0,0,0,0,0,-1,1504,974,0,0
287,50,0,0,0,0,0,0,0,0,0,-1,1511,974,0,0
294,50,0,0,0,0,0,0,0,0,0,-1,1518,974,0,0
301,50,0,0,0,0,0,0,0,0,0,-1,1525,974,0,0
308,50,0,0,0,0,0,0,0,0,0,-1,1532,974,0,0
315,50,0,0,0,0,0,0,0,0,0,-1,1539,974,0,0
322,50,0,0,0,0,0,0,0,0,0,-1,1546,974,0,0
329,50,0,0,0,0,0,0,0,0,0,-1,1553,974,0,0
336,50,0,0,0,0,0,0,0,0,0,-1,1560,974,0,0
343,50,0,0,0,0,0,0,0,0,0,-1,1567,974,0,0
350,50,0,0,0,0,0,0,0,0,0,-1,1574,974,0,0
357,50,0,0,0,0,0,0,0,0,0,-1,1581,974,0,0
364,50,0,0,0,0,0,0,0,0,0,-1,1588,974,0,0
371,50,0,0,0,0,0,0,0,0,0,-1,1595,974,0,0
378,50,0,0,0,0,0,0,0,0,0,-1,1602,974,0,0
385,50,0,0,0,0,0,0,0,0,0,-1,1609,974,0,0
392,50,0,0,0,0,0,0,0,0,0,-1,1616,974,0,0
399,50,0,0,0,0,0,0,0,0,0,-1,1623,974,0,0
406,50,0,0,0,0,0,0,0,0,0,-1,1630,974,0,0
413,50,0,0,0,0,0,0,0,0,0,-1,1637,974,0,0
420,50,0,0,0,0,0,0,0,0,0,-1,1644,974,0,0
427,50,0,0,0,0,0,0,0,0,0,-1,1651,974,0,0
434,50,0,0,0,0,0,0,0,0,0,-1,1658,974,0,0
441,50,0,0,0,0,0,0,0,0,0,-1,1665,974,0,0
448,50,0,0,0,0,0,0,0,0,0,-1,1672,974,0,0
455,50,0,0,0,0,0,0,0,0,0,-1,1679,974,0,0
462,50,0,0,0,0,0,0,0,0,0,-1,1686,974,0,0
469,50,0,0,0,0,0,0,0,0,0,-1,1693,974,0,0
476,50,0,0,0,0,0,0,0,0,0,-1,1700,974,0,0
483,50,0,0,0,0,0,0,0,0,0,-1,1707,974,0,0
490,50,0,0,0,0,0,0,0,0,0,-1,1714,974,0,0
497,50,0,0,0,0,0,0,0,0,0,-1,1721,974,0,0
504,50,0,0,0,0,0,0,0,0,0,-1,1728,974,0,0
511,50,0,0,0,0,0,0,0,0,0,-1,1735,974,0,0
518,50,0,0,0,0,0,0,0,0,0,-1,1742,974,0,0
525,50,0,0,0,0,0,0,0,0,0,-1,1749,974,0,0
532,50,0,0,0,0,0,0,0,0,0,-1,1756,974,0,0
539,50,0,0,0,0,0,0,0,0,0,-1,1763,974,0,0
546,50,0,0,0,0,0,0,0,0,0,-1,1770,974,0,0
553,50,0,0,0,0,0,0,0,0,0,-1,1777,974,0,0
560,50,0,0,0,0,0,0,0,0,0,-1,1784,974,0,0
567,50,0,0,0,0,0,0,0,0,0,-1,1791,974,0,0
574,50,0,0,0,0,0,0,0,0,0,-1,1798,974,0,0
581,50,0,0,0,0,0,0,0,0,0,-1,1805,974,0,0
588,50,0,0,0,0,0,0,0,0,0,-1,1812,974,0,0
595,50,0,0,0,0,0,0,0,0,0,-1,1819,974,0,0
602,50,0,0,0,0,0,0,0,0,0,-1,1826,974,0,0
609,50,0,0,0,0,0,0,0,0,0,-1,1833,974,0,0
616,50,0,0,0,0,0,0,0,0,0,-1,1840,974,0,0
623,50,0,0,0,0,0,0,0,0,0,-1,1847,974,0,0
630,50,0,0,0,0,0,0,0,0,0,-1,1854,974,0,0
637,50,0,0,0,0,0,0,0,0,0,-1,1861,974,0,0
644,50,16.2048,2.35266,0.00324422,-0.00233234,0.00248236,0.00418912,-0.00327724,0.363711,0.0043214,0.0378831,1868,974,16.2048,-2.35269
651,50,16.1667,2.23651,0.00232627,-0.00200337,0.00145342,0.00276892,-0.00244602,0.295629,0.00301277,0.0308714,1875,974,16.1667,-2.23648
658,50,16.1389,2.38782,0.00167741,-0.0015273,0.000800781,0.00186637,-0.00171625,0.231725,0.00206903,0.0351171,1882,974,16.1389,-2.38784
665,50,16.0266,2.33392,0.0008554,-0.000881001,0.000650307,0.00107194,-0.00109755,0.32144,0.00125258,0.0403591,1889,974,16.0266,-2.33392
672,50,16.0374,2.18488,-0.000257232,-0.000238969,0.000856128,0.000608076,-0.00110428,0.790731,0.00100237,0.0426188,1896,974,16.0374,-2.18487
679,50,16.0889,2.1994,-0.00153654,0.000298744,0.00127268,0.000950111,-0.00218791,1.09775,0.00185812,0.0438282,1903,974,16.0889,-2.19937
686,50,16.1697,2.12805,-0.00263033,0.000677058,0.00173685,0.00142157,-0.00337483,1.16584,0.00284471,0.0433604,1910,974,16.1696,-2.12805
693,50,16.2406,2.10284,-0.00355389,0.000872577,0.00223346,0.00180366,-0.00448498,1.17582,0.00373914,0.0384153,1917,974,16.2406,-2.10287
700,50,16.2252,2.3067,-0.00432863,0.00104926,0.00250335,0.00203416,-0.00531354,1.19596,0.00438077,0.0221436,1924,974,16.2253,-2.30669
707,50,16.1573,2.57996,-0.00491379,0.00127738,0.00247102,0.00214268,-0.00577909,1.23396,0.00473153,0.0276851,1931,974,16.1573,-2.57993
714,50,16.0656,2.7207,0,0,0,0,0,0,0,-1,1938,974,16.0655,-2.7207
721,50,15.6021,2.96136,-0.00521863,0.00143366,0.00263219,0.00234917,-0.00613415,1.23607,0.00505773,0.0317497,1945,974,15.602,-2.96135
728,50,15.4537,3.03729,-0.00494132,0.00140127,0.00264128,0.00235714,-0.00589718,1.22356,0.00490955,0.0198868,1952,974,15.4538,-3.03727
735,50,15.5002,3.0824,-0.00487073,0.0014059,0.00238292,0.00220806,-0.00567289,1.24608,0.00469436,0.0179921,1959,974,15.5003,-3.08241
742,50,15.5209,3.16016,-0.0050507,0.00196334,0.00193191,0.00246026,-0.00554761,1.31904,0.0047365,0.0155806,1966,974,15.5209,-3.16016
749,50,15.5189,3.21497,-0.00569317,0.0026835,0.00172979,0.00302664,-0.00603632,1.37496,0.00532781,0.0163032,1973,974,15.5189,-3.21498
756,50,15.4888,3.25848,-0.00774714,0.00486665,0.00176557,0.00510912,-0.00798961,1.43432,0.00762326,0.0117489,1980,974,15.4888,-3.25849
763,50,15.4885,3.31927,-0.0111867,0.00917519,0.00207747,0.00938499,-0.0113965,1.47015,0.0120169,0.0109437,1987,974,15.4885,-3.31929
770,50,15.4696,3.35669,-0.0159175,0.0140733,0.00289637,0.0143505,-0.0161946,1.4754,0.0176459,0.0109609,1994,974,15.4696,-3.35669
777,50,15.4771,3.47571,-0.022958,0.0209407,0.00440003,0.0213773,-0.0233947,1.47188,0.0258579,0.021157,2001,974,15.4771,-3.4757
784,50,15.517,3.69025,-0.0328526,0.030476,0.00661734,0.03116,-0.0335366,1.46779,0.037361,0.0391799,2008,974,15.517,-3.69023
791,50,15.0962,5.06616,0,0,0,0,0,0,0,-1,2015,974,15.0962,-5.06614
798,50,15.1935,5.18726,-0.0617648,0.0605948,0.0135702,0.0620818,-0.0632517,1.46166,0.0723623,0.0448916,2022,974,15.1934,-5.18727
805,50,14.4539,5.72791,-0.0815868,0.0833025,0.0186323,0.0853817,-0.083666,1.45966,0.0976014,0.0464763,2029,974,14.4539,-5.72793
812,50,0,0,0,0,0,0,0,0,0,-1,2036,974,0,0
-700,43,0,0,0,0,0,0,0,0,0,-1,524,981,0,0
-693,43,-11.632,3.85999,-0.0179576,0.177393,0.0059585,0.177575,-0.0181392,1.54033,0.124869,0.0454285,531,981,-11.632,-3.86001
-686,43,-11.5322,4.43195,-0.0125334,0.140101,0.00945261,0.140684,-0.0131165,1.50918,0.0984532,0.0424061,538,981,-11.5323,-4.43194
-679,43,-11.4775,5.06104,-0.00825724,0.108529,0.0114022,0.109632,-0.00936006,1.47438,0.0763995,0.0442084,545,981,-11.4775,-5.06107
-672,43,-11.4639,5.76306,0,0,0,0,0,0,0,-1,552,981,-11.4639,-5.76309
-665,43,-10.1633,-0.599182,-0.00218905,0.060386,0.0120942,0.0626422,-0.0044452,1.38637,0.0433193,0.0490208,559,981,-10.1633,0.599173
-658,43,-10.8373,0.549866,-0.000297396,0.0430509,0.0112868,0.0458136,-0.00306012,1.33074,0.0316119,0.0467826,566,981,-10.8373,-0.549883
-651,43,-10.3347,0.831665,0.00092534,0.0296848,0.00997148,0.0328038,-0.00219371,1.26764,0.0226359,0.0387226,573,981,-10.3346,-0.831654
-644,43,-9.95251,1.11707,0.00156046,0.019791,0.0083129,0.0230124,-0.0016609,1.2011,0.0159241,0.0172679,580,981,-9.95251,-1.11709
-637,43,-9.93054,1.1427,0.00180854,0.0113581,0.00651449,0.0146603,-0.00149363,1.10165,0.0103075,0.0107253,587,981,-9.93057,-1.14272
-630,43,-9.92719,1.11249,0.00144725,0.00585563,0.0047393,0.00887823,-0.00157535,1.00306,0.00650781,0.0105267,594,981,-9.92716,-1.11249
-623,43,-9.92163,1.06873,0.0010422,0.00199075,0.00348422,0.00503282,-0.00199987,0.853043,0.0041843,0.0109952,601,981,-9.92165,-1.06873
-616,43,-9.92194,1.02087,0.000345541,0.00145765,0.00204896,0.00302467,-0.00122148,0.917898,0.00252412,0.0100414,608,981,-9.92192,-1.02087
-609,43,-9.94104,0.972717,-0.00051696,0.000863135,0.000198871,0.000891221,-0.000545046,1.4305,0.000837219,0.0115025,615,981,-9.94101,-0.972691
-602,43,-9.95117,0.928528,-0.00146579,0.000609121,-0.00105575,0.00105184,-0.00190851,-1.17373,0.00173285,0.0148788,622,981,-9.95118,-0.928546
-595,43,-9.93274,0.895447,-0.00215297,0.000420375,-0.0016448,0.00122198,-0.00295458,-1.11731,0.00247953,0.0146803,629,981,-9.93274,-0.89545
-588,43,-9.94055,0.80719,-0.00238787,0.000239487,-0.00192687,0.00125789,-0.00340627,-1.08459,0.00278645,0.0142285,636,981,-9.94057,-0.807206
-581,43,-10.0685,0.634399,-0.00239327,0.000224339,-0.00209249,0.00138363,-0.00355256,-1.06487,0.00294018,0.0190282,643,981,-10.0685,-0.634404
-574,43,-10.1193,0.468445,-0.0024406,0.000209,-0.00211711,0.00138165,-0.00361325,-1.06497,0.0029782,0.0263024,650,981,-10.1192,-0.468453
-567,43,-10.1001,0.340149,-0.00222006,0.000272248,-0.00211487,0.0014808,-0.00342861,-1.05163,0.00290786,0.0392447,657,981,-10.1001,-0.340137
-560,43,-10.1217,0.391785,-0.00189018,0.000388524,-0.00200493,0.00155522,-0.00305688,-1.04378,0.00270944,0.0441154,664,981,-10.1217,-0.391782
-553,43,-10.1208,0.50415,-0.00149185,0.000613208,-0.00181866,0.00166195,-0.00254059,-1.04772,0.00244395,0.0423342,671,981,-10.1209,-0.504171
-546,43,-9.96124,0.419189,-0.00107882,0.000979246,-0.00156875,0.00182635,-0.00192593,-1.07567,0.00216663,0.0425536,678,981,-9.96126,-0.419211
-539,43,-9.75781,0.506714,-0.000768232,0.00154327,-0.00131121,0.00213538,-0.00136034,-1.14663,0.00203473,0.0447164,685,981,-9.75782,-0.506738
-532,43,-9.73523,0.63031,-0.000980706,0.00250731,-0.00121348,0.00288795,-0.00136134,-1.26685,0.00250555,0.0441222,692,981,-9.73525,-0.630321
-525,43,-9.9433,0.475159,-0.00251548,0.004129,-0.00128375,0.0043684,-0.00275489,-1.38643,0.00414765,0.0425121,699,981,-9.94328,-0.475187
-518,43,0,0,0,0,0,0,0,0,0,-1,706,981,0,0
-511,43,0,0,0,0,0,0,0,0,0,-1,713,981,0,0
-504,43,0,0,0,0,0,0,0,0,0,-1,720,981,0,0
-497,43,0,0,0,0,0,0,0,0,0,-1,727,981,0,0
-490,43,0,0,0,0,0,0,0,0,0,-1,734,981,0,0
-483,43,0,0,0,0,0,0,0,0,0,-1,741,981,0,0
-476,43,0,0,0,0,0,0,0,0,0,-1,748,981,0,0
-469,43,0,0,0,0,0,0,0,0,0,-1,755,981,0,0
-462,43,0,0,0,0,0,0,0,0,0,-1,762,981,0,0
-455,43,0,0,0,0,0,0,0,0,0,-1,769,981,0,0
-448,43,0,0,0,0,0,0,0,0,0,-1,776,981,0,0
-441,43,0,0,0,0,0,0,0,0,0,-1,783,981,0,0
-434,43,0,0,0,0,0,0,0,0,0,-1,790,981,0,0
-427,43,0,0,0,0,0,0,0,0,0,-1,797,981,0,0
-420,43,0,0,0,0,0,0,0,0,0,-1,804,981,0,0
-413,43,0,0,0,0,0,0,0,0,0,-1,811,981,0,0
-406,43,0,0,0,0,0,0,0,0,0,-1,818,981,0,0
-399,43,0,0,0,0,0,0,0,0,0,-1,825,981,0,0
-392,43,0,0,0,0,0,0,0,0,0,-1,832,981,0,0
-385,43,0,0,0,0,0,0,0,0,0,-1,839,981,0,0
-378,43,0,0,0,0,0,0,0,0,0,-1,846,981,0,0
-371,43,0,0,0,0,0,0,0,0,0,-1,853,981,0,0
-364,43,0,0,0,0,0,0,0,0,0,-1,860,981,0,0
-357,43,0,0,0,0,0,0,0,0,0,-1,867,981,0,0
-350,43,0,0,0,0,0,0,0,0,0,-1,874,981,0,0
-343,43,0,0,0,0,0,0,0,0,0,-1,881,981,0,0
-336,43,0,0,0,0,0,0,0,0,0,-1,888,981,0,0
-329,43,0,0,0,0,0,0,0,0,0,-1,895,981,0,0
-322,43,0,0,0,0,0,0,0,0,0,-1,902,981,0,0
-315,43,0,0,0,0,0,0,0,0,0,-1,909,981,0,0
-308,43,0,0,0,0,0,0,0,0,0,-1,916,981,0,0
-301,43,0,0,0,0,0,0,0,0,0,-1,923,981,0,0
-294,43,0,0,0,0,0,0,0,0,0,-1,930,981,0,0
-287,43,0,0,0,0,0,0,0,0,0,-1,937,981,0,0
-280,43,0,0,0,0,0,0,0,0,0,-1,944,981,0,0
-273,43,0,0,0,0,0,0,0,0,0,-1,951,981,0,0
-266,43,0,0,0,0,0,0,0,0,0,-1,958,981,0,0
-259,43,0,0,0,0,0,0,0,0,0,-1,965,981,0,0
-252,43,0,0,0,0,0,0,0,0,0,-1,972,981,0,0
-245,43,0,0,0,0,0,0,0,0,0,-1,979,981,0,0
-238,43,0,0,0,0,0,0,0,0,0,-1,986,981,0,0
-231,43,0,0,0,0,0,0,0,0,0,-1,993,981,0,0
-224,43,0,0,0,0,0,0,0,0,0,-1,1000,981,0,0
-217,43,0,0,0,0,0,0,0,0,0,-1,1007,981,0,0
-210,43,0,0,0,0,0,0,0,0,0,-1,1014,981,0,0
-203,43,0,0,0,0,0,0,0,0,0,-1,1021,981,0,0
-196,43,0,0,0,0,0,0,0,0,0,-1,1028,981,0,0
-189,43,0,0,0,0,0,0,0,0,0,-1,1035,981,0,0
-182,43,0,0,0,0,0,0,0,0,0,-1,1042,981,0,0
-175,43,0,0,0,0,0,0,0,0,0,-1,1049,981,0,0
-168,43,0,0,0,0,0,0,0,0,0,-1,1056,981,0,0
-161,43,0,0,0,0,0,0,0,0,0,-1,1063,981,0,0
-154,43,0,0,0,0,0,0,0,0,0,-1,1070,981,0,0
-147,43,0,0,0,0,0,0,0,0,0,-1,1077,981,0,0
-140,43,0,0,0,0,0,0,0,0,0,-1,1084,981,0,0
-133,43,0,0,0,0,0,0,0,0,0,-1,1091,981,0,0
-126,43,0,0,0,0,0,0,0,0,0,-1,1098,981,0,0
-119,43,0,0,0,0,0,0,0,0,0,-1,1105,981,0,0
-112,43,0,0,0,0,0,0,0,0,0,-1,1112,981,0,0
-105,43,0,0,0,0,0,0,0,0,0,-1,1119,981,0,0
-98,43,0,0,0,0,0,0,0,0,0,-1,1126,981,0,0
-91,43,0,0,0,0,0,0,0,0,0,-1,1133,981,0,0
-84,43,0,0,0,0,0,0,0,0,0,-1,1140,981,0,0
-77,43,0,0,0,0,0,0,0,0,0,-1,1147,981,0,0
-70,43,0,0,0,0,0,0,0,0,0,-1,1154,981,0,0
-63,43,0,0,0,0,0,0,0,0,0,-1,1161,981,0,0
-56,43,0,0,0,0,0,0,0,0,0,-1,1168,981,0,0
-49,43,0,0,0,0,0,0,0,0,0,-1,1175,981,0,0
-42,43,0,0,0,0,0,0,0,0,0,-1,1182,981,0,0
-35,43,0,0,0,0,0,0,0,0,0,-1,1189,981,0,0
-28,43,0,0,0,0,0,0,0,0,0,-1,1196,981,0,0
-21,43,0,0,0,0,0,0,0,0,0,-1,1203,981,0,0
-14,43,0,0,0,0,0,0,0,0,0,-1,1210,981,0,0
-7,43,0,0,0,0,0,0,0,0,0,-1,1217,981,0,0
0,43,0,0,0,0,0,0,0,0,0,-1,1224,981,0,0
7,43,0,0,0,0,0,0,0,0,0,-1,1231,981,0,0
14,43,0,0,0,0,0,0,0,0,0,-1,1238,981,0,0
21,43,0,0,0,0,0,0,0,0,0,-1,1245,981,0,0
28,43,0,0,0,0,0,0,0,0,0,-1,1252,981,0,0
35,43,0,0,0,0,0,0,0,0,0,-1,1259,981,0,0
42,43,0,0,0,0,0,0,0,0,0,-1,1266,981,0,0
49,43,0,0,0,0,0,0,0,0,0,-1,1273,981,0,0
56,43,0,0,0,0,0,0,0,0,0,-1,1280,981,0,0
63,43,0,0,0,0,0,0,0,0,0,-1,1287,981,0,0
70,43,0,0,0,0,0,0,0,0,0,-1,1294,981,0,0
77,43,0,0,0,0,0,0,0,0,0,-1,1301,981,0,0
84,43,0,0,0,0,0,0,0,0,0,-1,1308,981,0,0
91,43,0,0,0,0,0,0,0,0,0,-1,1315,981,0,0
98,43,0,0,0,0,0,0,0,0,0,-1,1322,981,0,0
105,43,0,0,0,0,0,0,0,0,0,-1,1329,981,0,0
112,43,0,0,0,0,0,0,0,0,0,-1,1336,981,0,0
119,43,0,0,0,0,0,0,0,0,0,-1,1343,981,0,0
126,43,0,0,0,0,0,0,0,0,0,-1,1350,981,0,0
133,43,0,0,0,0,0,0,0,0,0,-1,1357,981,0,0
140,43,0,0,0,0,0,0,0,0,0,-1,1364,981,0,0
147,43,0,0,0,0,0,0,0,0,0,-1,1371,981,0,0
154,43,0,0,0,0,0,0,0,0,0,-1,1378,981,0,0
161,43,0,0,0,0,0,0,0,0,0,-1,1385,981,0,0
168,43,0,0,0,0,0,0,0,0,0,-1,1392,981,0,0
175,43,0,0,0,0,0,0,0,0,0,-1,1399,981,0,0
182,43,0,0,0,0,0,0,0,0,0,-1,1406,981,0,0
189,43,0,0,0,0,0,0,0,0,0,-1,1413,981,0,0
196,43,0,0,0,0,0,0,0,0,0,-1,1420,981,0,0
203,43,0,0,0,0,0,0,0,0,0,-1,1427,981,0,0
210,43,0,0,0,0,0,0,0,0,0,-1,1434,981,0,0
217,43,0,0,0,0,0,0,0,0,0,-1,1441,981,0,0
224,43,0,0,0,0,0,0,0,0,0,-1,1448,981,0,0
231,43,0,0,0,0,0,0,0,0,0,-1,1455,981,0,0
238,43,0,0,0,0,0,0,0,0,0,-1,1462,981,0,0
245,43,0,0,0,0,0,0,0,0,0,-1,1469,981,0,0
252,43,0,0,0,0,0,0,0,0,0,-1,1476,981,0,0
259,43,0,0,0,0,0,0,0,0,0,-1,1483,981,0,0
266,43,0,0,0,0,0,0,0,0,0,-1,1490,981,0,0
273,43,0,0,0,0,0,0,0,0,0,-1,1497,981,0,0
280,43,0,0,0,0,0,0,0,0,0,-1,1504,981,0,0
287,43,0,0,0,0,0,0,0,0,0,-1,1511,981,0,0
294,43,0,0,0,0,0,0,0,0,0,-1,1518,981,0,0
301,43,0,0,0,0,0,0,0,0,0,-1,1525,981,0,0
308,43,0,0,0,0,0,0,0,0,0,-1,1532,981,0,0
315,43,0,0,0,0,0,0,0,0,0,-1,1539,981,0,0
322,43,0,0,0,0,0,0,0,0,0,-1,1546,981,0,0
329,43,0,0,0,0,0,0,0,0,0,-1,1553,981,0,0
336,43,0,0,0,0,0,0,0,0,0,-1,1560,981,0,0
343,43,0,0,0,0,0,0,0,0,0,-1,1567,981,0,0
350,43,0,0,0,0,0,0,0,0,0,-1,1574,981,0,0
357,43,0,0,0,0,0,0,0,0,0,-1,1581,981,0,0
364,43,0,0,0,0,0,0,0,0,0,-1,1588,981,0,0
371,43,0,0,0,0,0,0,0,0,0,-1,1595,981,0,0
378,43,0,0,0,0,0,0,0,0,0,-1,1602,981,0,0
385,43,0,0,0,0,0,0,0,0,0,-1,1609,981,0,0
392,43,0,0,0,0,0,0,0,0,0,-1,1616,981,0,0
399,43,0,0,0,0,0,0,0,0,0,-1,1623,981,0,0
406,43,0,0,0,0,0,0,0,0,0,-1,1630,981,0,0
413,43,0,0,0,0,0,0,0,0,0,-1,1637,981,0,0
420,43,0,0,0,0,0,0,0,0,0,-1,1644,981,0,0
427,43,0,0,0,0,0,0,0,0,0,-1,1651,981,0,0
434,43,0,0,0,0,0,0,0,0,0,-1,1658,981,0,0
441,43,0,0,0,0,0,0,0,0,0,-1,1665,981,0,0
448,43,0,0,0,0,0,0,0,0,0,-1,1672,981,0,0
455,43,0,0,0,0,0,0,0,0,0,-1,1679,981,0,0
462,43,0,0,0,0,0,0,0,0,0,-1,1686,981,0,0
469,43,0,0,0,0,0,0,0,0,0,-1,1693,981,0,0
476,43,0,0,0,0,0,0,0,0,0,-1,1700,981,0,0
483,43,0,0,0,0,0,0,0,0,0,-1,1707,981,0,0
490,43,0,0,0,0,0,0,0,0,0,-1,1714,981,0,0
497,43,0,0,0,0,0,0,0,0,0,-1,1721,981,0,0
504,43,0,0,0,0,0,0,0,0,0,-1,1728,981,0,0
511,43,0,0,0,0,0,0,0,0,0,-1,1735,981,0,0
518,43,0,0,0,0,0,0,0,0,0,-1,1742,981,0,0
525,43,0,0,0,0,0,0,0,0,0,-1,1749,981,0,0
532,43,0,0,0,0,0,0,0,0,0,-1,1756,981,0,0
539,43,0,0,0,0,0,0,0,0,0,-1,1763,981,0,0
546,43,0,0,0,0,0,0,0,0,0,-1,1770,981,0,0
553,43,0,0,0,0,0,0,0,0,0,-1,1777,981,0,0
560,43,0,0,0,0,0,0,0,0,0,-1,1784,981,0,0
567,43,0,0,0,0,0,0,0,0,0,-1,1791,981,0,0
574,43,0,0,0,0,0,0,0,0,0,-1,1798,981,0,0
581,43,0,0,0,0,0,0,0,0,0,-1,1805,981,0,0
588,43,0,0,0,0,0,0,0,0,0,-1,1812,981,0,0
595,43,0,0,0,0,0,0,0,0,0,-1,1819,981,0,0
602,43,0,0,0,0,0,0,0,0,0,-1,1826,981,0,0
609,43,0,0,0,0,0,0,0,0,0,-1,1833,981,0,0
616,43,0,0,0,0,0,0,0,0,0,-1,1840,981,0,0
623,43,0,0,0,0,0,0,0,0,0,-1,1847,981,0,0
630,43,0,0,0,0,0,0,0,0,0,-1,1854,981,0,0
637,43,0,0,0,0,0,0,0,0,0,-1,1861,981,0,0
644,43,16.1282,2.28278,0.00329237,-0.00268529,0.00270524,0.00433485,-0.00372777,0.367818,0.00465935,0.0383932,1868,981,16.1282,-2.28277
651,43,16.1302,2.1532,0.00251563,-0.0022357,0.0013529,0.00287385,-0.00259391,0.258839,0.00315819,0.0370064,1875,981,16.1303,-2.15323
658,43,16.217,2.34259,0.00190421,-0.00172923,0.000498678,0.00197141,-0.00179643,0.133948,0.00217614,0.036559,1882,981,16.2171,-2.34258
665,43,16.1733,2.34436,0.00116378,-0.00106919,0.000248863,0.00119118,-0.00109659,0.109657,0.00132122,0.03708,1889,981,16.1734,-2.34437
672,43,16.0797,2.138,0.00011857,-0.000432321,0.000473409,0.000390835,-0.000704586,0.52192,0.000641031,0.0388335,1896,981,16.0797,-2.13803
679,43,16.1715,2.11145,-0.00117484,0.000107633,0.000981689,0.000638957,-0.00170616,1.07471,0.00139991,0.0399907,1903,981,16.1715,-2.11143
686,43,16.2728,2.06628,-0.00231438,0.000492171,0.00156634,0.0011919,-0.0030141,1.15067,0.00250315,0.0417343,1910,981,16.2729,-2.0663
693,43,16.2139,2.26703,-0.00327739,0.000731051,0.00217295,0.00168294,-0.00422928,1.15791,0.00351737,0.0391983,1917,981,16.2139,-2.26705
700,43,16.1954,2.30066,-0.00410953,0.000874175,0.00258654,0.00197391,-0.00520927,1.16878,0.00428514,0.0333566,1924,981,16.1954,-2.30065
707,43,16.1805,2.4126,-0.00476754,0.00113844,0.00266301,0.00216185,-0.00579095,1.20389,0.00474823,0.0263537,1931,981,16.1806,-2.41259
714,43,16.1923,2.4895,-0.00519331,0.00120212,0.00275907,0.00222789,-0.00621908,1.21485,0.00505507,0.0293371,1938,981,16.1923,-2.48948
721,43,15.9451,2.82019,-0.00526101,0.00127709,0.00297614,0.0024289,-0.00641282,1.20153,0.00527468,0.0294127,1945,981,15.9451,-2.82016
728,43,15.6477,3.00269,-0.00513118,0.0012559,0.00305833,0.00248413,-0.00635942,1.18891,0.0052667,0.0185137,1952,981,15.6477,-3.00271
735,43,15.5599,3.10272,-0.00516559,0.00124134,0.00282467,0.00230882,-0.00623307,1.20948,0.00510219,0.0133411,1959,981,15.5599,-3.10269
742,43,15.5758,3.16425,-0.00548633,0.00177529,0.00237653,0.00248391,-0.00619495,1.28101,0.00516118,0.0158618,1966,981,15.5759,-3.16422
749,43,15.5887,3.21112,-0.00637131,0.00223814,0.00226265,0.00279657,-0.00692974,1.32883,0.00578202,0.0172973,1973,981,15.5887,-3.21112
756,43,15.5564,3.24066,-0.00872218,0.00433591,0.0022989,0.00472881,-0.00911508,1.40152,0.0081254,0.0150809,1980,981,15.5564,-3.24067
763,43,15.5299,3.27924,-0.0124738,0.0083891,0.0026212,0.00871339,-0.0127981,1.44771,0.0124941,0.0169961,1987,981,15.5299,-3.27925
770,43,15.5261,3.32104,-0.0174612,0.0128473,0.00345551,0.0132362,-0.0178502,1.4587,0.0180135,0.0153202,1994,981,15.5261,-3.32102
777,43,15.5387,3.40753,-0.0247213,0.0190893,0.00504115,0.0196619,-0.0252939,1.4577,0.0260231,0.0193037,2001,981,15.5387,-3.40752
784,43,15.6112,4.1922,0,0,0,0,0,0,0,-1,2008,981,15.6112,-4.19219
791,43,14.7683,4.72125,-0.0478579,0.039437,0.0105892,0.0407031,-0.0491241,1.45179,0.0519377,0.0444981,2015,981,14.7683,-4.72122
798,43,14.1595,5.39227,-0.06403,0.0550189,0.0147435,0.0568176,-0.0658287,1.4494,0.0708736,0.0418949,2022,981,14.1596,-5.39227
805,43,13.3788,6.1048,-0.0838484,0.0756025,0.0200529,0.0780857,-0.0863317,1.44759,0.0949662,0.0456215,2029,981,13.3788,-6.1048
812,43,12.5771,6.60864,-0.107781,0.102777,0.0267625,0.106125,-0.111129,1.44633,0.125443,0.0490385,2036,981,12.5772,-6.60864
-700,36,0,0,0,0,0,0,0,0,0,-1,524,988,0,0
-693,36,-11.0367,2.45276,-0.0196805,0.169544,0.00535567,0.169696,-0.0198319,1.54252,0.120287,0.0441067,531,988,-11.0367,-2.45275
-686,36,-11.0657,2.90656,-0.0144925,0.133673,0.00771616,0.134073,-0.0148933,1.51891,0.0947377,0.0413121,538,988,-11.0657,-2.90653
-679,36,-11.0247,3.55487,-0.0102452,0.103418,0.00911761,0.104145,-0.0109719,1.49126,0.0733613,0.0423805,545,988,-11.0246,-3.5549
-672,36,-10.7834,4.08069,0,0,0,0,0,0,0,-1,552,988,-10.7834,-4.08067
-665,36,-10.6191,4.51465,0,0,0,0,0,0,0,-1,559,988,-10.6191,-4.51466
-658,36,-10.0183,0.9198,-0.00191147,0.0411295,0.00905975,0.0429588,-0.00374073,1.37156,0.029964,0.0452668,566,988,-10.0183,-0.919791
-651,36,-10.0167,1.11353,-0.000482141,0.0284652,0.00803969,0.0305482,-0.00256516,1.31728,0.0212721,0.0351563,573,988,-10.0168,-1.11352
-644,36,-9.98212,1.14203,0.000380817,0.0190699,0.00669823,0.0212226,-0.00177189,1.25984,0.0147745,0.0177945,580,988,-9.9821,-1.14201
-637,36,-9.97467,1.1275,0.000837046,0.0109373,0.00509329,0.0130597,-0.00128537,1.17597,0.00916503,0.0120718,587,988,-9.97468,-1.12751
-630,36,-9.96045,1.10999,0.000728178,0.00570541,0.00361146,0.00760266,-0.00116908,1.08708,0.00549971,0.0102157,594,988,-9.96044,-1.10999
-623,36,-9.97095,1.06274,0.000629565,0.0019906,0.00263498,0.00403152,-0.00141136,0.911768,0.00326156,0.0108571,601,988,-9.97093,-1.06276
-616,36,-9.98157,1.01385,0.000254505,0.0014147,0.00145458,0.00240059,-0.000731389,0.975136,0.00189192,0.00965554,608,988,-9.98154,-1.01388
-609,36,-9.99146,0.983276,-0.000384685,0.000695964,-0.000223083,0.000740205,-0.000428926,-1.37502,0.000682926,0.0140033,615,988,-9.99144,-0.983264
-602,36,-9.99542,0.946838,-0.00113578,0.000423886,-0.00144946,0.00128998,-0.00200187,-1.0322,0.0019153,0.0191179,622,988,-9.99541,-0.946851
-595,36,-9.97211,0.931335,-0.00162051,0.000242408,-0.00200307,0.00152,-0.0028981,-1.00303,0.00259182,0.0209401,629,988,-9.97213,-0.931356
-588,36,-10.002,0.775574,-0.00175015,4.39978e-05,-0.00223935,0.00155927,-0.00326542,-0.975908,0.002843,0.0200072,636,988,-10.002,-0.775563
-581,36,-10.0814,0.600098,-0.00168299,1.69113e-05,-0.00236732,0.00168224,-0.00334832,-0.957749,0.00295702,0.0213838,643,988,-10.0813,-0.600123
-574,36,-10.099,0.546814,-0.0016754,-2.64541e-05,-0.00237193,0.00166021,-0.00336207,-0.952663,0.00295459,0.0244179,650,988,-10.099,-0.546832
-567,36,-10.1126,0.427429,-0.00144295,6.67509e-06,-0.00230724,0.00170027,-0.00313655,-0.937591,0.00283329,0.0322973,657,988,-10.1126,-0.427429
-560,36,-10.076,0.502747,-0.00114509,0.000107988,-0.00212571,0.00169757,-0.00273467,-0.928712,0.0025822,0.0373822,664,988,-10.0761,-0.502742
-553,36,-10.0458,0.601013,-0.000830595,0.000324801,-0.00185342,0.00168847,-0.00219426,-0.936473,0.00224802,0.0419001,671,988,-10.0458,-0.600989
-546,36,-10.0148,0.383789,-0.000559029,0.000687232,-0.00150474,0.00169276,-0.00156456,-0.981704,0.0018811,0.0451797,678,988,-10.0148,-0.383779
-539,36,-9.86053,0.617004,-0.0004516,0.00125241,-0.00116412,0.00184301,-0.0010422,-1.1013,0.00168702,0.0438096,685,988,-9.86056,-0.617004
-532,36,-9.5199,0.739807,0,0,0,0,0,0,0,-1,692,988,-9.51987,-0.739823
-525,36,-9.73755,0.460938,0,0,0,0,0,0,0,-1,699,988,-9.73757,-0.460918
-518,36,0,0,0,0,0,0,0,0,0,-1,706,988,0,0
-511,36,0,0,0,0,0,0,0,0,0,-1,713,988,0,0
-504,36,0,0,0,0,0,0,0,0,0,-1,720,988,0,0
-497,36,0,0,0,0,0,0,0,0,0,-1,727,988,0,0
-490,36,0,0,0,0,0,0,0,0,0,-1,734,988,0,0
-483,36,0,0,0,0,0,0,0,0,0,-1,741,988,0,0
-476,36,0,0,0,0,0,0,0,0,0,-1,748,988,0,0
-469,36,0,0,0,0,0,0,0,0,0,-1,755,988,0,0
-462,36,0,0,0,0,0,0,0,0,0,-1,762,988,0,0
-455,36,0,0,0,0,0,0,0,0,0,-1,769,988,0,0
-448,36,0,0,0,0,0,0,0,0,0,-1,776,988,0,0
-441,36,0,0,0,0,0,0,0,0,0,-1,783,988,0,0
-434,36,0,0,0,0,0,0,0,0,0,-1,790,988,0,0
-427,36,0,0,0,0,0,0,0,0,0,-1,797,988,0,0
-420,36,0,0,0,0,0,0,0,0,0,-1,804,988,0,0
-413,36,0,0,0,0,0,0,0,0,0,-1,811,988,0,0
-406,36,0,0,0,0,0,0,0,0,0,-1,818,988,0,0
-399,36,0,0,0,0,0,0,0,0,0,-1,825,988,0,0
-392,36,0,0,0,0,0,0,0,0,0,-1,832,988,0,0
-385,36,0,0,0,0,0,0,0,0,0,-1,839,988,0,0
-378,36,0,0,0,0,0,0,0,0,0,-1,846,988,0,0
-371,36,0,0,0,0,0,0,0,0,0,-1,853,988,0,0
-364,36,0,0,0,0,0,0,0,0,0,-1,860,988,0,0
-357,36,0,0,0,0,0,0,0,0,0,-1,867,988,0,0
-350,36,0,0,0,0,0,0,0,0,0,-1,874,988,0,0
-343,36,0,0,0,0,0,0,0,0,0,-1,881,988,0,0
-336,36,0,0,0,0,0,0,0,0,0,-1,888,988,0,0
-329,36,0,0,0,0,0,0,0,0,0,-1,895,988,0,0
-322,36,0,0,0,0,0,0,0,0,0,-1,902,988,0,0
-315,36,0,0,0,0,0,0,0,0,0,-1,909,988,0,0
-308,36,0,0,0,0,0,0,0,0,0,-1,916,988,0,0
-301,36,0,0,0,0,0,0,0,0,0,-1,923,988,0,0
-294,36,0,0,0,0,0,0,0,0,0,-1,930,988,0,0
-287,36,0,0,0,0,0,0,0,0,0,-1,937,988,0,0
-280,36,0,0,0,0,0,0,0,0,0,-1,944,988,0,0
-273,36,0,0,0,0,0,0,0,0,0,-1,951,988,0,0
-266,36,0,0,0,0,0,0,0,0,0,-1,958,988,0,0
-259,36,0,0,0,0,0,0,0,0,0,-1,965,988,0,0
-252,36,0,0,0,0,0,0,0,0,0,-1,972,988,0,0
-245,36,0,0,0,0,0,0,0,0,0,-1,979,988,0,0
-238,36,0,0,0,0,0,0,0,0,0,-1,986,988,0,0
-231,36,0,0,0,0,0,0,0,0,0,-1,993,988,0,0
-224,36,0,0,0,0,0,0,0,0,0,-1,1000,988,0,0
-217,36,0,0,0,0,0,0,0,0,0,-1,1007,988,0,0
-210,36,0,0,0,0,0,0,0,0,0,-1,1014,988,0,0
-203,36,0,0,0,0,0,0,0,0,0,-1,1021,988,0,0
-196,36,0,0,0,0,0,0,0,0,0,-1,1028,988,0,0
-189,36,0,0,0,0,0,0,0,0,0,-1,1035,988,0,0
-182,36,0,0,0,0,0,0,0,0,0,-1,1042,988,0,0
-175,36,0,0,0,0,0,0,0,0,0,-1,1049,988,0,0
-168,36,0,0,0,0,0,0,0,0,0,-1,1056,988,0,0
-161,36,0,0,0,0,0,0,0,0,0,-1,1063,988,0,0
-154,36,0,0,0,0,0,0,0,0,0,-1,1070,988,0,0
-147,36,0,0,0,0,0,0,0,0,0,-1,1077,988,0,0
-140,36,0,0,0,0,0,0,0,0,0,-1,1084,988,0,0
-133,36,0,0,0,0,0,0,0,0,0,-1,1091,988,0,0
-126,36,0,0,0,0,0,0,0,0,0,-1,1098,988,0,0
-119,36,0,0,0,0,0,0,0,0,0,-1,1105,988,0,0
-112,36,0,0,0,0,0,0,0,0,0,-1,1112,988,0,0
-105,36,0,0,0,0,0,0,0,0,0,-1,1119,988,0,0
-98,36,0,0,0,0,0,0,0,0,0,-1,1126,988,0,0
-91,36,0,0,0,0,0,0,0,0,0,-1,1133,988,0,0
-84,36,0,0,0,0,0,0,0,0,0,-1,1140,988,0,0
-77,36,0,0,0,0,0,0,0,0,0,-1,1147,988,0,0
-70,36,0,0,0,0,0,0,0,0,0,-1,1154,988,0,0
-63,36,0,0,0,0,0,0,0,0,0,-1,1161,988,0,0
-56,36,0,0,0,0,0,0,0,0,0,-1,1168,988,0,0
-49,36,0,0,0,0,0,0,0,0,0,-1,1175,988,0,0
-42,36,0,0,0,0,0,0,0,0,0,-1,1182,988,0,0
-35,36,0,0,0,0,0,0,0,0,0,-1,1189,988,0,0
-28,36,0,0,0,0,0,0,0,0,0,-1,1196,988,0,0
-21,36,0,0,0,0,0,0,0,0,0,-1,1203,988,0,0
-14,36,0,0,0,0,0,0,0,0,0,-1,1210,988,0,0
-7,36,0,0,0,0,0,0,0,0,0,-1,1217,988,0,0
0,36,0,0,0,0,0,0,0,0,0,-1,1224,988,0,0
7,36,0,0,0,0,0,0,0,0,0,-1,1231,988,0,0
14,36,0,0,0,0,0,0,0,0,0,-1,1238,988,0,0
21,36,0,0,0,0,0,0,0,0,0,-1,1245,988,0,0
28,36,0,0,0,0,0,0,0,0,0,-1,1252,988,0,0
35,36,0,0,0,0,0,0,0,0,0,-1,1259,988,0,0
42,36,0,0,0,0,0,0,0,0,0,-1,1266,988,0,0
49,36,0,0,0,0,0,0,0,0,0,-1,1273,988,0,0
56,36,0,0,0,0,0,0,0,0,0,-1,1280,988,0,0
63,36,0,0,0,0,0,0,0,0,0,-1,1287,988,0,0
70,36,0,0,0,0,0,0,0,0,0,-1,1294,988,0,0
77,36,0,0,0,0,0,0,0,0,0,-1,1301,988,0,0
84,36,0,0,0,0,0,0,0,0,0,-1,1308,988,0,0
91,36,0,0,0,0,0,0,0,0,0,-1,1315,988,0,0
98,36,0,0,0,0,0,0,0,0,0,-1,1322,988,0,0
105,36,0,0,0,0,0,0,0,0,0,-1,1329,988,0,0
112,36,0,0,0,0,0,0,0,0,0,-1,1336,988,0,0
119,36,0,0,0,0,0,0,0,0,0,-1,1343,988,0,0
126,36,0,0,0,0,0,0,0,0,0,-1,1350,988,0,0
133,36,0,0,0,0,0,0,0,0,0,-1,1357,988,0,0
140,36,0,0,0,0,0,0,0,0,0,-1,1364,988,0,0
147,36,0,0,0,0,0,0,0,0,0,-1,1371,988,0,0
154,36,0,0,0,0,0,0,0,0,0,-1,1378,988,0,0
161,36,0,0,0,0,0,0,0,0,0,-1,1385,988,0,0
168,36,0,0,0,0,0,0,0,0,0,-1,1392,988,0,0
175,36,0,0,0,0,0,0,0,0,0,-1,1399,988,0,0
182,36,0,0,0,0,0,0,0,0,0,-1,1406,988,0,0
189,36,0,0,0,0,0,0,0,0,0,-1,1413,988,0,0
196,36,0,0,0,0,0,0,0,0,0,-1,1420,988,0,0
203,36,0,0,0,0,0,0,0,0,0,-1,1427,988,0,0
210,36,0,0,0,0,0,0,0,0,0,-1,1434,988,0,0
217,36,0,0,0,0,0,0,0,0,0,-1,1441,988,0,0
224,36,0,0,0,0,0,0,0,0,0,-1,1448,988,0,0
231,36,0,0,0,0,0,0,0,0,0,-1,1455,988,0,0
238,36,0,0,0,0,0,0,0,0,0,-1,1462,988,0,0
245,36,0,0,0,0,0,0,0,0,0,-1,1469,988,0,0
252,36,0,0,0,0,0,0,0,0,0,-1,1476,988,0,0
259,36,0,0,0,0,0,0,0,0,0,-1,1483,988,0,0
266,36,0,0,0,0,0,0,0,0,0,-1,1490,988,0,0
273,36,0,0,0,0,0,0,0,0,0,-1,1497,988,0,0
280,36,0,0,0,0,0,0,0,0,0,-1,1504,988,0,0
287,36,0,0,0,0,0,0,0,0,0,-1,1511,988,0,0
294,36,0,0,0,0,0,0,0,0,0,-1,1518,988,0,0
301,36,0,0,0,0,0,0,0,0,0,-1,1525,988,0,0
308,36,0,0,0,0,0,0,0,0,0,-1,1532,988,0,0
315,36,0,0,0,0,0,0,0,0,0,-1,1539,988,0,0
322,36,0,0,0,0,0,0,0,0,0,-1,1546,988,0,0
329,36,0,0,0,0,0,0,0,0,0,-1,1553,988,0,0
336,36,0,0,0,0,0,0,0,0,0,-1,1560,988,0,0
343,36,0,0,0,0,0,0,0,0,0,-1,1567,988,0,0
350,36,0,0,0,0,0,0,0,0,0,-1,1574,988,0,0
357,36,0,0,0,0,0,0,0,0,0,-1,1581,988,0,0
364,36,0,0,0,0,0,0,0,0,0,-1,1588,988,0,0
371,36,0,0,0,0,0,0,0,0,0,-1,1595,988,0,0
378,36,0,0,0,0,0,0,0,0,0,-1,1602,988,0,0
385,36,0,0,0,0,0,0,0,0,0,-1,1609,988,0,0
392,36,0,0,0,0,0,0,0,0,0,-1,1616,988,0,0
399,36,0,0,0,0,0,0,0,0,0,-1,1623,988,0,0
406,36,0,0,0,0,0,0,0,0,0,-1,1630,988,0,0
413,36,0,0,0,0,0,0,0,0,0,-1,1637,988,0,0
420,36,0,0,0,0,0,0,0,0,0,-1,1644,988,0,0
427,36,0,0,0,0,0,0,0,0,0,-1,1651,988,0,0
434,36,0,0,0,0,0,0,0,0,0,-1,1658,988,0,0
441,36,0,0,0,0,0,0,0,0,0,-1,1665,988,0,0
448,36,0,0,0,0,0,0,0,0,0,-1,1672,988,0,0
455,36,0,0,0,0,0,0,0,0,0,-1,1679,988,0,0
462,36,0,0,0,0,0,0,0,0,0,-1,1686,988,0,0
469,36,0,0,0,0,0,0,0,0,0,-1,1693,988,0,0
476,36,0,0,0,0,0,0,0,0,0,-1,1700,988,0,0
483,36,0,0,0,0,0,0,0,0,0,-1,1707,988,0,0
490,36,0,0,0,0,0,0,0,0,0,-1,1714,988,0,0
497,36,0,0,0,0,0,0,0,0,0,-1,1721,988,0,0
504,36,0,0,0,0,0,0,0,0,0,-1,1728,988,0,0
511,36,0,0,0,0,0,0,0,0,0,-1,1735,988,0,0
518,36,0,0,0,0,0,0,0,0,0,-1,1742,988,0,0
525,36,0,0,0,0,0,0,0,0,0,-1,1749,988,0,0
532,36,0,0,0,0,0,0,0,0,0,-1,1756,988,0,0
539,36,0,0,0,0,0,0,0,0,0,-1,1763,988,0,0
546,36,0,0,0,0,0,0,0,0,0,-1,1770,988,0,0
553,36,0,0,0,0,0,0,0,0,0,-1,1777,988,0,0
560,36,0,0,0,0,0,0,0,0,0,-1,1784,988,0,0
567,36,0,0,0,0,0,0,0,0,0,-1,1791,988,0,0
574,36,0,0,0,0,0,0,0,0,0,-1,1798,988,0,0
581,36,0,0,0,0,0,0,0,0,0,-1,1805,988,0,0
588,36,0,0,0,0,0,0,0,0,0,-1,1812,988,0,0
595,36,0,0,0,0,0,0,0,0,0,-1,1819,988,0,0
602,36,0,0,0,0,0,0,0,0,0,-1,1826,988,0,0
609,36,0,0,0,0,0,0,0,0,0,-1,1833,988,0,0
616,36,0,0,0,0,0,0,0,0,0,-1,1840,988,0,0
623,36,0,0,0,0,0,0,0,0,0,-1,1847,988,0,0
630,36,0,0,0,0,0,0,0,0,0,-1,1854,988,0,0
637,36,0,0,0,0,0,0,0,0,0,-1,1861,988,0,0
644,36,16.2299,2.20404,0.00333376,-0.00199342,0.00262226,0.00440795,-0.0030676,0.388789,0.00433907,0.0427841,1868,988,16.2299,-2.20404
651,36,16.0635,2.44995,0.00262878,-0.00164732,0.00110615,0.00289797,-0.00191652,0.238721,0.00279883,0.0380133,1875,988,16.0635,-2.44995
658,36,16.1886,2.58026,0.00200448,-0.00127111,0.00016934,0.00201321,-0.00127984,0.0515146,0.00191689,0.0371562,1882,988,16.1886,-2.58028
665,36,16.3146,2.56396,0.00133154,-0.000724608,-0.000124916,0.0013391,-0.000732169,-0.0604563,0.00121284,0.0370035,1889,988,16.3146,-2.56396
672,36,16.3107,2.29218,0.000374692,-0.000180861,0.00013881,0.000407444,-0.000213614,0.231711,0.000364342,0.0378891,1896,988,16.3107,-2.2922
679,36,16.2667,2.50806,0,0,0,0,0,0,0,-1,1903,988,16.2668,-2.50805
686,36,16.17,2.44879,-0.00204017,0.000651135,0.00144273,0.00127836,-0.00266739,1.1607,0.00232466,0.0363719,1910,988,16.17,-2.44879
693,36,16.2186,2.37842,-0.00301533,0.000886581,0.00215739,0.00184433,-0.00397308,1.15299,0.00343282,0.0394263,1917,988,16.2186,-2.37842
700,36,16.2081,2.31049,-0.00387549,0.000983243,0.00269714,0.00218381,-0.00507605,1.152,0.00430093,0.036817,1924,988,16.2081,-2.31051
707,36,16.1737,2.32544,-0.00456859,0.00126644,0.0028752,0.0024451,-0.00574725,1.18175,0.00485625,0.0253945,1931,988,16.1738,-2.32542
714,36,16.2092,2.39648,-0.00504322,0.0013034,0.00303811,0.00252327,-0.00626309,1.18898,0.00522373,0.0268073,1938,988,16.2092,-2.39646
721,36,16.075,2.78149,-0.00521502,0.00136296,0.00331368,0.0027428,-0.00659486,1.17623,0.0055419,0.0338196,1945,988,16.075,-2.78152
728,36,15.7753,3.02484,-0.0052435,0.00136082,0.00344228,0.00282873,-0.00671141,1.16771,0.00565802,0.0206285,1952,988,15.7753,-3.02482
735,36,15.6208,3.12225,-0.00536977,0.00137454,0.00319092,0.00264495,-0.00664018,1.1919,0.00552372,0.0167357,1959,988,15.6209,-3.12228
742,36,15.6327,3.1604,-0.00578744,0.00191428,0.00268228,0.00275636,-0.00662952,1.2666,0.00557062,0.0142421,1966,988,15.6326,-3.16038
749,36,15.6495,3.20636,-0.00681733,0.00233137,0.00242656,0.00293513,-0.00742109,1.32693,0.00616331,0.015232,1973,988,15.6496,-3.20634
756,36,15.5929,3.21362,-0.00928837,0.00441951,0.00223863,0.00477583,-0.00964469,1.41295,0.0084824,0.0127651,1980,988,15.5929,-3.21362
763,36,15.5739,3.27588,-0.0130998,0.00825971,0.00228587,0.0085016,-0.0133417,1.46537,0.012714,0.0151618,1987,988,15.5738,-3.27586
770,36,15.5679,3.32495,-0.0179849,0.0124508,0.00267138,0.0126835,-0.0182176,1.48391,0.0179359,0.0130985,1994,988,15.5678,-3.32495
777,36,15.5671,3.42078,-0.024964,0.0183208,0.00368311,0.0186319,-0.0252751,1.48651,0.0254463,0.0200722,2001,988,15.5671,-3.4208
784,36,15.3528,4.04889,0,0,0,0,0,0,0,-1,2008,988,15.3528,-4.04887
791,36,14.5767,4.17828,0,0,0,0,0,0,0,-1,2015,988,14.5766,-4.1783
798,36,14.031,3.94794,0,0,0,0,0,0,0,-1,2022,988,14.0311,-3.94793
805,36,13.5696,4.1261,-0.080629,0.0702533,0.0142151,0.0715809,-0.0819566,1.47768,0.0887124,0.0448431,2029,988,13.5696,-4.12607
812,36,12.5049,4.27167,-0.102628,0.0946974,0.018839,0.0964799,-0.104411,1.47646,0.116014,0.0460528,2036,988,12.5049,-4.27166
-700,29,0,0,0,0,0,0,0,0,0,-1,524,995,0,0
-693,29,-8.75165,1.20428,0,0,0,0,0,0,0,-1,531,995,-8.75167,-1.2043
-686,29,-9.66882,1.86096,0,0,0,0,0,0,0,-1,538,995,-9.66885,-1.86099
-679,29,-10.4375,2.36615,0,0,0,0,0,0,0,-1,545,995,-10.4375,-2.36614
-672,29,-10.954,-0.0704956,0,0,0,0,0,0,0,-1,552,995,-10.954,0.0704969
-665,29,-10.6635,-0.442505,-0.00551299,0.0539109,0.0085839,0.055126,-0.00672811,1.43017,0.0391864,0.0414594,559,995,-10.6635,0.442512
-658,29,-9.69403,1.41223,-0.00333204,0.0385042,0.00779146,0.0399082,-0.00473598,1.39252,0.0283164,0.0425996,566,995,-9.69403,-1.41224
-651,29,-9.85925,1.26422,-0.00173882,0.0266912,0.00676185,0.0282175,-0.00326513,1.34879,0.0199892,0.0347195,573,995,-9.85923,-1.26421
-644,29,-9.95502,1.13647,-0.00068443,0.0179419,0.00550393,0.0194467,-0.00218922,1.30391,0.0137524,0.018161,580,995,-9.95503,-1.13646
-637,29,-10.0063,1.09656,-7.58838e-05,0.0102443,0.00390574,0.0115557,-0.00138738,1.24684,0.00820548,0.0123781,587,995,-10.0063,-1.09655
-630,29,-10.0016,1.09558,4.2267e-05,0.00542506,0.00258248,0.00646366,-0.000996328,1.18842,0.00467673,0.00957487,594,995,-10.0017,-1.09557
-623,29,-10.0025,1.0672,0.0002409,0.00196134,0.0017955,0.00309205,-0.000889807,1.00879,0.00241328,0.00941511,601,995,-10.0025,-1.06723
-616,29,-10.045,1.0307,0.000156673,0.0013444,0.000810836,0.00175559,-0.000254514,1.10147,0.0012638,0.0125654,608,995,-10.045,-1.03071
-609,29,-10.0383,0.993774,-0.000266193,0.000549667,-0.000681435,0.000935941,-0.000652467,-1.05511,0.000921923,0.0195456,615,995,-10.0384,-0.99375
-602,29,-10.0034,0.965454,-0.000834586,0.000223532,-0.00183083,0.00160021,-0.00221126,-0.926053,0.00220996,0.0207823,622,995,-10.0034,-0.965472
-595,29,-9.9989,0.945801,-0.00113463,4.25781e-05,-0.00235245,0.00187895,-0.002971,-0.907986,0.00282368,0.0193972,629,995,-9.99889,-0.945798
-588,29,-10.0427,0.709534,-0.00116765,-0.000164865,-0.0025422,0.00192491,-0.00325742,-0.882762,0.00302481,0.0228104,636,995,-10.0427,-0.709515
-581,29,-10.1034,0.538879,-0.0010441,-0.000186009,-0.00262632,0.00204608,-0.00327619,-0.866365,0.00310005,0.0306308,643,995,-10.1034,-0.538862
-574,29,-10.1027,0.569214,-0.0010014,-0.000236239,-0.00260316,0.00201231,-0.00324995,-0.85836,0.00306604,0.0276312,650,995,-10.1027,-0.569206
-567,29,-10.1132,0.520813,-0.000793387,-0.000215521,-0.00246754,0.00197994,-0.00298885,-0.84368,0.00288838,0.0301604,657,995,-10.1132,-0.520792
-560,29,-10.0815,0.669983,-0.000569322,-0.000110182,-0.00220585,0.00187802,-0.00255752,-0.837248,0.00257086,0.0354892,664,995,-10.0815,-0.670004
-553,29,-10.1091,0.746582,-0.00039149,0.000108815,-0.00183238,0.00170804,-0.00199071,-0.853238,0.00213755,0.040185,671,995,-10.1091,-0.746572
-546,29,-10.1509,0.56897,-0.000327116,0.000463407,-0.00135925,0.0014837,-0.00134741,-0.926893,0.00163517,0.0419182,678,995,-10.1509,-0.568998
-539,29,-10.1061,0.672363,-0.000501284,0.000999392,-0.000904145,0.00142399,-0.000925886,-1.13175,0.00136683,0.0415196,685,995,-10.1061,-0.672362
-532,29,-10.0995,0.976379,-0.00137102,0.00195161,-0.000706207,0.00209548,-0.00151489,-1.36982,0.00209341,0.0448336,692,995,-10.0995,-0.976377
-525,29,-9.88214,0.635864,0,0,0,0,0,0,0,-1,699,995,-9.88212,-0.635842
-518,29,0,0,0,0,0,0,0,0,0,-1,706,995,0,0
-511,29,0,0,0,0,0,0,0,0,0,-1,713,995,0,0
-504,29,0,0,0,0,0,0,0,0,0,-1,720,995,0,0
-497,29,0,0,0,0,0,0,0,0,0,-1,727,995,0,0
-490,29,0,0,0,0,0,0,0,0,0,-1,734,995,0,0
-483,29,0,0,0,0,0,0,0,0,0,-1,741,995,0,0
-476,29,0,0,0,0,0,0,0,0,0,-1,748,995,0,0
-469,29,0,0,0,0,0,0,0,0,0,-1,755,995,0,0
-462,29,0,0,0,0,0,0,0,0,0,-1,762,995,0,0
-455,29,0,0,0,0,0,0,0,0,0,-1,769,995,0,0
-448,29,0,0,0,0,0,0,0,0,0,-1,776,995,0,0
-441,29,0,0,0,0,0,0,0,0,0,-1,783,995,0,0
-434,29,0,0,0,0,0,0,0,0,0,-1,790,995,0,0
-427,29,0,0,0,0,0,0,0,0,0,-1,797,995,0,0
-420,29,0,0,0,0,0,0,0,0,0,-1,804,995,0,0
-413,29,0,0,0,0,0,0,0,0,0,-1,811,995,0,0
-406,29,0,0,0,0,0,0,0,0,0,-1,818,995,0,0
-399,29,0,0,0,0,0,0,0,0,0,-1,825,995,0,0
-392,29,0,0,0,0,0,0,0,0,0,-1,832,995,0,0
-385,29,0,0,0,0,0,0,0,0,0,-1,839,995,0,0
-378,29,0,0,0,0,0,0,0,0,0,-1,846,995,0,0
-371,29,0,0,0,0,0,0,0,0,0,-1,853,995,0,0
-364,29,0,0,0,0,0,0,0,0,0,-1,860,995,0,0
-357,29,0,0,0,0,0,0,0,0,0,-1,867,995,0,0
-350,29,0,0,0,0,0,0,0,0,0,-1,874,995,0,0
-343,29,0,0,0,0,0,0,0,0,0,-1,881,995,0,0
-336,29,0,0,0,0,0,0,0,0,0,-1,888,995,0,0
-329,29,0,0,0,0,0,0,0,0,0,-1,895,995,0,0
-322,29,0,0,0,0,0,0,0,0,0,-1,902,995,0,0
-315,29,0,0,0,0,0,0,0,0,0,-1,909,995,0,0
-308,29,0,0,0,0,0,0,0,0,0,-1,916,995,0,0
-301,29,0,0,0,0,0,0,0,0,0,-1,923,995,0,0
-294,29,0,0,0,0,0,0,0,0,0,-1,930,995,0,0
-287,29,0,0,0,0,0,0,0,0,0,-1,937,995,0,0
-280,29,0,0,0,0,0,0,0,0,0,-1,944,995,0,0
-273,29,0,0,0,0,0,0,0,0,0,-1,951,995,0,0
-266,29,0,0,0,0,0,0,0,0,0,-1,958,995,0,0
-259,29,0,0,0,0,0,0,0,0,0,-1,965,995,0,0
-252,29,0,0,0,0,0,0,0,0,0,-1,972,995,0,0
-245,29,0,0,0,0,0,0,0,0,0,-1,979,995,0,0
-238,29,0,0,0,0,0,0,0,0,0,-1,986,995,0,0
-231,29,0,0,0,0,0,0,0,0,0,-1,993,995,0,0
-224,29,0,0,0,0,0,0,0,0,0,-1,1000,995,0,0
-217,29,0,0,0,0,0,0,0,0,0,-1,1007,995,0,0
-210,29,0,0,0,0,0,0,0,0,0,-1,1014,995,0,0
-203,29,0,0,0,0,0,0,0,0,0,-1,1021,995,0,0
-196,29,0,0,0,0,0,0,0,0,0,-1,1028,995,0,0
-189,29,0,0,0,0,0,0,0,0,0,-1,1035,995,0,0
-182,29,0,0,0,0,0,0,0,0,0,-1,1042,995,0,0
-175,29,0,0,0,0,0,0,0,0,0,-1,1049,995,0,0
-168,29,0,0,0,0,0,0,0,0,0,-1,1056,995,0,0
-161,29,0,0,0,0,0,0,0,0,0,-1,1063,995,0,0
-154,29,0,0,0,0,0,0,0,0,0,-1,1070,995,0,0
-147,29,0,0,0,0,0,0,0,0,0,-1,1077,995,0,0
-140,29,0,0,0,0,0,0,0,0,0,-1,1084,995,0,0
-133,29,0,0,0,0,0,0,0,0,0,-1,1091,995,0,0
-126,29,0,0,0,0,0,0,0,0,0,-1,1098,995,0,0
-119,29,0,0,0,0,0,0,0,0,0,-1,1105,995,0,0
-112,29,0,0,0,0,0,0,0,0,0,-1,1112,995,0,0
-105,29,0,0,0,0,0,0,0,0,0,-1,1119,995,0,0
-98,29,0,0,0,0,0,0,0,0,0,-1,1126,995,0,0
-91,29,0,0,0,0,0,0,0,0,0,-1,1133,995,0,0
-84,29,0,0,0,0,0,0,0,0,0,-1,1140,995,0,0
-77,29,0,0,0,0,0,0,0,0,0,-1,1147,995,0,0
-70,29,0,0,0,0,0,0,0,0,0,-1,1154,995,0,0
-63,29,0,0,0,0,0,0,0,0,0,-1,1161,995,0,0
-56,29,0,0,0,0,0,0,0,0,0,-1,1168,995,0,0
-49,29,0,0,0,0,0,0,0,0,0,-1,1175,995,0,0
-42,29,0,0,0,0,0,0,0,0,0,-1,1182,995,0,0
-35,29,0,0,0,0,0,0,0,0,0,-1,1189,995,0,0
-28,29,0,0,0,0,0,0,0,0,0,-1,1196,995,0,0
-21,29,0,0,0,0,0,0,0,0,0,-1,1203,995,0,0
-14,29,0,0,0,0,0,0,0,0,0,-1,1210,995,0,0
-7,29,0,0,0,0,0,0,0,0,0,-1,1217,995,0,0
0,29,0,0,0,0,0,0,0,0,0,-1,1224,995,0,0
7,29,0,0,0,0,0,0,0,0,0,-1,1231,995,0,0
14,29,0,0,0,0,0,0,0,0,0,-1,1238,995,0,0
21,29,0,0,0,0,0,0,0,0,0,-1,1245,995,0,0
28,29,0,0,0,0,0,0,0,0,0,-1,1252,995,0,0
35,29,0,0,0,0,0,0,0,0,0,-1,1259,995,0,0
42,29,0,0,0,0,0,0,0,0,0,-1,1266,995,0,0
49,29,0,0,0,0,0,0,0,0,0,-1,1273,995,0,0
56,29,0,0,0,0,0,0,0,0,0,-1,1280,995,0,0
63,29,0,0,0,0,0,0,0,0,0,-1,1287,995,0,0
70,29,0,0,0,0,0,0,0,0,0,-1,1294,995,0,0
77,29,0,0,0,0,0,0,0,0,0,-1,1301,995,0,0
84,29,0,0,0,0,0,0,0,0,0,-1,1308,995,0,0
91,29,0,0,0,0,0,0,0,0,0,-1,1315,995,0,0
98,29,0,0,0,0,0,0,0,0,0,-1,1322,995,0,0
105,29,0,0,0,0,0,0,0,0,0,-1,1329,995,0,0
112,29,0,0,0,0,0,0,0,0,0,-1,1336,995,0,0
119,29,0,0,0,0,0,0,0,0,0,-1,1343,995,0,0
126,29,0,0,0,0,0,0,0,0,0,-1,1350,995,0,0
133,29,0,0,0,0,0,0,0,0,0,-1,1357,995,0,0
140,29,0,0,0,0,0,0,0,0,0,-1,1364,995,0,0
147,29,0,0,0,0,0,0,0,0,0,-1,1371,995,0,0
154,29,0,0,0,0,0,0,0,0,0,-1,1378,995,0,0
161,29,0,0,0,0,0,0,0,0,0,-1,1385,995,0,0
168,29,0,0,0,0,0,0,0,0,0,-1,1392,995,0,0
175,29,0,0,0,0,0,0,0,0,0,-1,1399,995,0,0
182,29,0,0,0,0,0,0,0,0,0,-1,1406,995,0,0
189,29,0,0,0,0,0,0,0,0,0,-1,1413,995,0,0
196,29,0,0,0,0,0,0,0,0,0,-1,1420,995,0,0
203,29,0,0,0,0,0,0,0,0,0,-1,1427,995,0,0
210,29,0,0,0,0,0,0,0,0,0,-1,1434,995,0,0
217,29,0,0,0,0,0,0,0,0,0,-1,1441,995,0,0
224,29,0,0,0,0,0,0,0,0,0,-1,1448,995,0,0
231,29,0,0,0,0,0,0,0,0,0,-1,1455,995,0,0
238,29,0,0,0,0,0,0,0,0,0,-1,1462,995,0,0
245,29,0,0,0,0,0,0,0,0,0,-1,1469,995,0,0
252,29,0,0,0,0,0,0,0,0,0,-1,1476,995,0,0
259,29,0,0,0,0,0,0,0,0,0,-1,1483,995,0,0
266,29,0,0,0,0,0,0,0,0,0,-1,1490,995,0,0
273,29,0,0,0,0,0,0,0,0,0,-1,1497,995,0,0
280,29,0,0,0,0,0,0,0,0,0,-1,1504,995,0,0
287,29,0,0,0,0,0,0,0,0,0,-1,1511,995,0,0
294,29,0,0,0,0,0,0,0,0,0,-1,1518,995,0,0
301,29,0,0,0,0,0,0,0,0,0,-1,1525,995,0,0
308,29,0,0,0,0,0,0,0,0,0,-1,1532,995,0,0
315,29,0,0,0,0,0,0,0,0,0,-1,1539,995,0,0
322,29,0,0,0,0,0,0,0,0,0,-1,1546,995,0,0
329,29,0,0,0,0,0,0,0,0,0,-1,1553,995,0,0
336,29,0,0,0,0,0,0,0,0,0,-1,1560,995,0,0
343,29,0,0,0,0,0,0,0,0,0,-1,1567,995,0,0
350,29,0,0,0,0,0,0,0,0,0,-1,1574,995,0,0
357,29,0,0,0,0,0,0,0,0,0,-1,1581,995,0,0
364,29,0,0,0,0,0,0,0,0,0,-1,1588,995,0,0
371,29,0,0,0,0,0,0,0,0,0,-1,1595,995,0,0
378,29,0,0,0,0,0,0,0,0,0,-1,1602,995,0,0
385,29,0,0,0,0,0,0,0,0,0,-1,1609,995,0,0
392,29,0,0,0,0,0,0,0,0,0,-1,1616,995,0,0
399,29,0,0,0,0,0,0,0,0,0,-1,1623,995,0,0
406,29,0,0,0,0,0,0,0,0,0,-1,1630,995,0,0
413,29,0,0,0,0,0,0,0,0,0,-1,1637,995,0,0
420,29,0,0,0,0,0,0,0,0,0,-1,1644,995,0,0
427,29,0,0,0,0,0,0,0,0,0,-1,1651,995,0,0
434,29,0,0,0,0,0,0,0,0,0,-1,1658,995,0,0
441,29,0,0,0,0,0,0,0,0,0,-1,1665,995,0,0
448,29,0,0,0,0,0,0,0,0,0,-1,1672,995,0,0
455,29,0,0,0,0,0,0,0,0,0,-1,1679,995,0,0
462,29,0,0,0,0,0,0,0,0,0,-1,1686,995,0,0
469,29,0,0,0,0,0,0,0,0,0,-1,1693,995,0,0
476,29,0,0,0,0,0,0,0,0,0,-1,1700,995,0,0
483,29,0,0,0,0,0,0,0,0,0,-1,1707,995,0,0
490,29,0,0,0,0,0,0,0,0,0,-1,1714,995,0,0
497,29,0,0,0,0,0,0,0,0,0,-1,1721,995,0,0
504,29,0,0,0,0,0,0,0,0,0,-1,1728,995,0,0
511,29,0,0,0,0,0,0,0,0,0,-1,1735,995,0,0
518,29,0,0,0,0,0,0,0,0,0,-1,1742,995,0,0
525,29,0,0,0,0,0,0,0,0,0,-1,1749,995,0,0
532,29,0,0,0,0,0,0,0,0,0,-1,1756,995,0,0
539,29,0,0,0,0,0,0,0,0,0,-1,1763,995,0,0
546,29,0,0,0,0,0,0,0,0,0,-1,1770,995,0,0
553,29,0,0,0,0,0,0,0,0,0,-1,1777,995,0,0
560,29,0,0,0,0,0,0,0,0,0,-1,1784,995,0,0
567,29,0,0,0,0,0,0,0,0,0,-1,1791,995,0,0
574,29,0,0,0,0,0,0,0,0,0,-1,1798,995,0,0
581,29,0,0,0,0,0,0,0,0,0,-1,1805,995,0,0
588,29,0,0,0,0,0,0,0,0,0,-1,1812,995,0,0
595,29,0,0,0,0,0,0,0,0,0,-1,1819,995,0,0
602,29,0,0,0,0,0,0,0,0,0,-1,1826,995,0,0
609,29,0,0,0,0,0,0,0,0,0,-1,1833,995,0,0
616,29,0,0,0,0,0,0,0,0,0,-1,1840,995,0,0
623,29,0,0,0,0,0,0,0,0,0,-1,1847,995,0,0
630,29,0,0,0,0,0,0,0,0,0,-1,1854,995,0,0
637,29,0,0,0,0,0,0,0,0,0,-1,1861,995,0,0
644,29,16.2605,2.39594,0,0,0,0,0,0,0,-1,1868,995,16.2605,-2.39595
651,29,16.1016,3.07227,0,0,0,0,0,0,0,-1,1875,995,16.1016,-3.07227
658,29,16.2461,2.92047,0.0020726,-0.000485904,-0.000127508,0.00207894,-0.000492243,-0.0496731,0.00157588,0.0429821,1882,995,16.2461,-2.92048
665,29,16.329,2.67676,0.0014076,-0.000209206,-0.000445737,0.00152234,-0.000323948,-0.25195,0.00113835,0.0403105,1889,995,16.329,-2.67674
672,29,16.2823,2.36127,0.000496677,0.000133892,-0.000150699,0.000551109,7.94595e-05,-0.346617,0.000343993,0.0377218,1896,995,16.2823,-2.36126
679,29,16.1913,2.35547,-0.000767343,0.000489486,0.000535141,0.000686469,-0.000964326,1.21809,0.000957577,0.0381177,1903,995,16.1913,-2.35549
686,29,16.0737,2.50116,-0.00193877,0.000759246,0.00133879,0.00131081,-0.00249034,1.18,0.00222954,0.0366709,1910,995,16.0737,-2.50116
693,29,16.1635,2.40955,-0.00294197,0.000955509,0.00214766,0.00190677,-0.00389323,1.15384,0.00341347,0.0365902,1917,995,16.1634,-2.40952
700,29,16.2305,2.28442,-0.00383445,0.00100184,0.00281012,0.00229101,-0.00512363,1.14068,0.00438374,0.0352586,1924,995,16.2305,-2.28444
707,29,16.153,2.29895,-0.00453402,0.00129928,0.00309949,0.00263864,-0.00587338,1.16291,0.00503132,0.0223982,1931,995,16.1529,-2.29898
714,29,16.1925,2.45923,-0.0050283,0.00132448,0.00333176,0.00275136,-0.00645518,1.16616,0.0054569,0.0231419,1938,995,16.1925,-2.45923
721,29,16.0736,2.80939,-0.00526187,0.00138439,0.0036511,0.00299823,-0.00687572,1.1546,0.00584541,0.0293462,1945,995,16.0736,-2.80937
728,29,15.782,3.00629,-0.00537116,0.00142508,0.00380022,0.00312489,-0.00707097,1.1502,0.00603175,0.0201603,1952,995,15.7819,-3.00628
735,29,15.6521,3.12549,-0.00550167,0.0014962,0.00350782,0.00295179,-0.00695727,1.17746,0.00587473,0.0139623,1959,995,15.6521,-3.12551
742,29,15.6791,3.16577,-0.00588153,0.00203959,0.00292425,0.00300217,-0.00684411,1.2528,0.00582722,0.0119138,1966,995,15.6791,-3.16576
749,29,15.6971,3.20422,-0.0069141,0.0024199,0.00249424,0.0030446,-0.0075388,1.32539,0.00629129,0.0120562,1973,995,15.6972,-3.20419
756,29,15.6613,3.25012,-0.00936554,0.00448878,0.00195174,0.00475848,-0.00963524,1.43348,0.00846772,0.0103866,1980,995,15.6612,-3.25011
763,29,15.6384,3.29346,-0.0130896,0.00799136,0.00140983,0.00808522,-0.0131835,1.50431,0.0123965,0.0116058,1987,995,15.6385,-3.29348
770,29,15.6146,3.33813,-0.017723,0.0118197,0.00107387,0.0118587,-0.0177619,1.53451,0.0172143,0.0122534,1994,995,15.6146,-3.33813
777,29,15.6033,3.44519,-0.024297,0.017181,0.0011372,0.0172121,-0.0243281,1.54341,0.0241003,0.0189637,2001,995,15.6033,-3.44519
784,29,15.3624,3.76349,-0.0333457,0.0244931,0.00158659,0.0245366,-0.0333892,1.54339,0.0335734,0.0380297,2008,995,15.3624,-3.7635
791,29,14.6495,3.78656,-0.0449673,0.0341715,0.00234263,0.0342408,-0.0450366,1.54123,0.0459121,0.0425912,2015,995,14.6495,-3.78655
798,29,14.2496,3.75482,-0.0591557,0.0467757,0.00334821,0.0468814,-0.0592614,1.53923,0.0614204,0.0408548,2022,995,14.2496,-3.75482
805,29,13.5183,3.81317,-0.0761762,0.0630217,0.00460345,0.0631738,-0.0763282,1.53777,0.0806608,0.0444044,2029,995,13.5183,-3.8132
812,29,12.6543,3.87671,-0.096267,0.0838459,0.00607243,0.0840504,-0.0964715,1.53713,0.104307,0.0463162,2036,995,12.6543,-3.87672
-700,22,0,0,0,0,0,0,0,0,0,-1,524,1002,0,0
-693,22,-8.11847,0.123535,-0.0191322,0.150937,0.00958756,0.151476,-0.019671,1.51466,0.108139,0.0456441,531,1002,-8.11846,-0.123559
-686,22,-9.02783,0.790344,0,0,0,0,0,0,0,-1,538,1002,-9.02785,-0.790336
-679,22,-9.82892,1.36536,-0.0125748,0.0907352,0.00804756,0.0913583,-0.0131979,1.49352,0.0657479,0.0450636,545,1002,-9.82893,-1.36535
-672,22,-10.5271,0.274048,-0.00959538,0.0683096,0.00753202,0.0690311,-0.0103169,1.47529,0.0498171,0.0447758,552,1002,-10.5271,-0.274023
-665,22,-10.5177,-0.414673,-0.00700642,0.0502554,0.00693997,0.0510845,-0.00783551,1.45189,0.0369462,0.0414984,559,1002,-10.5177,0.414688
-658,22,-9.52612,1.15399,-0.00488905,0.0360564,0.00621765,0.0369797,-0.00581239,1.42337,0.0268015,0.0423303,566,1002,-9.52612,-1.154
-651,22,-9.88165,1.21002,-0.00324059,0.025178,0.00535215,0.0261525,-0.00421516,1.39068,0.0189966,0.0366654,573,1002,-9.88163,-1.21005
-644,22,-9.95459,1.12775,-0.00203957,0.0170813,0.00427999,0.0179956,-0.00295388,1.36034,0.0130932,0.0175795,580,1002,-9.95461,-1.12775
-637,22,-10.0226,1.09625,-0.00127305,0.00987671,0.00276222,0.0105235,-0.00191983,1.34079,0.00773544,0.0120237,587,1002,-10.0226,-1.09623
-630,22,-10.0393,1.07825,-0.000926305,0.00537337,0.00165868,0.0057834,-0.00133634,1.32845,0.0043697,0.00986869,594,1002,-10.0393,-1.07825
-623,22,-10.0342,1.05231,-0.000430572,0.00210854,0.00102868,0.00247298,-0.000795018,1.23031,0.00196794,0.00959378,601,1002,-10.0343,-1.0523
-616,22,-10.0552,1.02911,-0.000193939,0.00131903,0.000189723,0.00134246,-0.000217367,1.44793,0.000975535,0.0161513,608,1002,-10.0552,-1.0291
-609,22,-10.0787,0.9823,-0.000362678,0.000384308,-0.00110521,0.00117743,-0.0011558,-0.948343,0.00134711,0.0264661,615,1002,-10.0787,-0.982314
-602,22,-10.0701,0.964478,-0.000698998,2.3976e-05,-0.00217752,0.00186981,-0.00254483,-0.867652,0.00255871,0.0255638,622,1002,-10.07,-0.9645
-595,22,-10.0724,0.91333,-0.000801293,-0.000168992,-0.00265411,0.00218773,-0.00315801,-0.844678,0.00310326,0.0216051,629,1002,-10.0724,-0.913338
-588,22,-10.0819,0.685425,-0.000755686,-0.000393648,-0.00278772,0.00221892,-0.00336826,-0.81782,0.00324843,0.0261768,636,1002,-10.0819,-0.685404
-581,22,-10.1087,0.5,-0.00060765,-0.000421154,-0.00282065,0.00230779,-0.00333659,-0.801922,0.00327678,0.037186,643,1002,-10.1087,-0.500014
-574,22,-10.0911,0.532166,-0.000562518,-0.000469882,-0.0027528,0.00223699,-0.00326939,-0.79381,0.00319768,0.0335537,650,1002,-10.0911,-0.532196
-567,22,-10.077,0.543945,-0.000419978,-0.000444544,-0.00253534,0.00210311,-0.00296763,-0.782976,0.00294174,0.0319911,657,1002,-10.077,-0.543962
-560,22,-10.0349,0.682068,-0.000295517,-0.000326729,-0.00218445,0.00187339,-0.00249563,-0.781826,0.00253097,0.0371396,664,1002,-10.0349,-0.682051
-553,22,-10.0633,0.727478,-0.000266433,-9.82247e-05,-0.00171239,0.00153213,-0.00189679,-0.809936,0.00198341,0.0399232,671,1002,-10.0633,-0.727479
-546,22,-10.1228,0.672852,-0.000404808,0.000257126,-0.00113777,0.00111109,-0.00125877,-0.926938,0.00136913,0.0414241,678,1002,-10.1228,-0.672877
-539,22,-10.2155,0.580627,-0.000835662,0.000774154,-0.000625841,0.000988831,-0.00105034,-1.24035,0.00117749,0.0421215,685,1002,-10.2155,-0.580632
-532,22,-10.2675,0.567383,-0.00201765,0.00169613,-0.000473983,0.00175567,-0.00207719,-1.44584,0.0022155,0.043118,692,1002,-10.2675,-0.567412
-525,22,0,0,0,0,0,0,0,0,0,-1,699,1002,0,0
-518,22,0,0,0,0,0,0,0,0,0,-1,706,1002,0,0
-511,22,0,0,0,0,0,0,0,0,0,-1,713,1002,0,0
-504,22,0,0,0,0,0,0,0,0,0,-1,720,1002,0,0
-497,22,0,0,0,0,0,0,0,0,0,-1,727,1002,0,0
-490,22,0,0,0,0,0,0,0,0,0,-1,734,1002,0,0
-483,22,0,0,0,0,0,0,0,0,0,-1,741,1002,0,0
-476,22,0,0,0,0,0,0,0,0,0,-1,748,1002,0,0
-469,22,0,0,0,0,0,0,0,0,0,-1,755,1002,0,0
-462,22,0,0,0,0,0,0,0,0,0,-1,762,1002,0,0
-455,22,0,0,0,0,0,0,0,0,0,-1,769,1002,0,0
-448,22,0,0,0,0,0,0,0,0,0,-1,776,1002,0,0
-441,22,0,0,0,0,0,0,0,0,0,-1,783,1002,0,0
-434,22,0,0,0,0,0,0,0,0,0,-1,790,1002,0,0
-427,22,0,0,0,0,0,0,0,0,0,-1,797,1002,0,0
-420,22,0,0,0,0,0,0,0,0,0,-1,804,1002,0,0
-413,22,0,0,0,0,0,0,0,0,0,-1,811,1002,0,0
-406,22,0,0,0,0,0,0,0,0,0,-1,818,1002,0,0
-399,22,0,0,0,0,0,0,0,0,0,-1,825,1002,0,0
-392,22,0,0,0,0,0,0,0,0,0,-1,832,1002,0,0
-385,22,0,0,0,0,0,0,0,0,0,-1,839,1002,0,0
-378,22,0,0,0,0,0,0,0,0,0,-1,846,1002,0,0
-371,22,0,0,0,0,0,0,0,0,0,-1,853,1002,0,0
-364,22,0,0,0,0,0,0,0,0,0,-1,860,1002,0,0
-357,22,0,0,0,0,0,0,0,0,0,-1,867,1002,0,0
-350,22,0,0,0,0,0,0,0,0,0,-1,874,1002,0,0
-343,22,0,0,0,0,0,0,0,0,0,-1,881,1002,0,0
-336,22,0,0,0,0,0,0,0,0,0,-1,888,1002,0,0
-329,22,0,0,0,0,0,0,0,0,0,-1,895,1002,0,0
-322,22,0,0,0,0,0,0,0,0,0,-1,902,1002,0,0
-315,22,0,0,0,0,0,0,0,0,0,-1,909,1002,0,0
-308,22,0,0,0,0,0,0,0,0,0,-1,916,1002,0,0
-301,22,0,0,0,0,0,0,0,0,0,-1,923,1002,0,0
-294,22,0,0,0,0,0,0,0,0,0,-1,930,1002,0,0
-287,22,0,0,0,0,0,0,0,0,0,-1,937,1002,0,0
-280,22,0,0,0,0,0,0,0,0,0,-1,944,1002,0,0
-273,22,0,0,0,0,0,0,0,0,0,-1,951,1002,0,0
-266,22,0,0,0,0,0,0,0,0,0,-1,958,1002,0,0
-259,22,0,0,0,0,0,0,0,0,0,-1,965,1002,0,0
-252,22,0,0,0,0,0,0,0,0,0,-1,972,1002,0,0
-245,22,0,0,0,0,0,0,0,0,0,-1,979,1002,0,0
-238,22,0,0,0,0,0,0,0,0,0,-1,986,1002,0,0
-231,22,0,0,0,0,0,0,0,0,0,-1,993,1002,0,0
-224,22,0,0,0,0,0,0,0,0,0,-1,1000,1002,0,0
-217,22,0,0,0,0,0,0,0,0,0,-1,1007,1002,0,0
-210,22,0,0,0,0,0,0,0,0,0,-1,1014,1002,0,0
-203,22,0,0,0,0,0,0,0,0,0,-1,1021,1002,0,0
-196,22,0,0,0,0,0,0,0,0,0,-1,1028,1002,0,0
-189,22,0,0,0,0,0,0,0,0,0,-1,1035,1002,0,0
-182,22,0,0,0,0,0,0,0,0,0,-1,1042,1002,0,0
-175,22,0,0,0,0,0,0,0,0,0,-1,1049,1002,0,0
-168,22,0,0,0,0,0,0,0,0,0,-1,1056,1002,0,0
-161,22,0,0,0,0,0,0,0,0,0,-1,1063,1002,0,0
-154,22,0,0,0,0,0,0,0,0,0,-1,1070,1002,0,0
-147,22,0,0,0,0,0,0,0,0,0,-1,1077,1002,0,0
-140,22,0,0,0,0,0,0,0,0,0,-1,1084,1002,0,0
-133,22,0,0,0,0,0,0,0,0,0,-1,1091,1002,0,0
-126,22,0,0,0,0,0,0,0,0,0,-1,1098,1002,0,0
-119,22,0,0,0,0,0,0,0,0,0,-1,1105,1002,0,0
-112,22,0,0,0,0,0,0,0,0,0,-1,1112,1002,0,0
-105,22,0,0,0,0,0,0,0,0,0,-1,1119,1002,0,0
-98,22,0,0,0,0,0,0,0,0,0,-1,1126,1002,0,0
-91,22,0,0,0,0,0,0,0,0,0,-1,1133,1002,0,0
-84,22,0,0,0,0,0,0,0,0,0,-1,1140,1002,0,0
-77,22,0,0,0,0,0,0,0,0,0,-1,1147,1002,0,0
-70,22,0,0,0,0,0,0,0,0,0,-1,1154,1002,0,0
-63,22,0,0,0,0,0,0,0,0,0,-1,1161,1002,0,0
-56,22,0,0,0,0,0,0,0,0,0,-1,1168,1002,0,0
-49,22,0,0,0,0,0,0,0,0,0,-1,1175,1002,0,0
-42,22,0,0,0,0,0,0,0,0,0,-1,1182,1002,0,0
-35,22,0,0,0,0,0,0,0,0,0,-1,1189,1002,0,0
-28,22,0,0,0,0,0,0,0,0,0,-1,1196,1002,0,0
-21,22,0,0,0,0,0,0,0,0,0,-1,1203,1002,0,0
-14,22,0,0,0,0,0,0,0,0,0,-1,1210,1002,0,0
-7,22,0,0,0,0,0,0,0,0,0,-1,1217,1002,0,0
0,22,0,0,0,0,0,0,0,0,0,-1,1224,1002,0,0
7,22,0,0,0,0,0,0,0,0,0,-1,1231,1002,0,0
14,22,0,0,0,0,0,0,0,0,0,-1,1238,1002,0,0
21,22,0,0,0,0,0,0,0,0,0,-1,1245,1002,0,0
28,22,0,0,0,0,0,0,0,0,0,-1,1252,1002,0,0
35,22,0,0,0,0,0,0,0,0,0,-1,1259,1002,0,0
42,22,0,0,0,0,0,0,0,0,0,-1,1266,1002,0,0
49,22,0,0,0,0,0,0,0,0,0,-1,1273,1002,0,0
56,22,0,0,0,0,0,0,0,0,0,-1,1280,1002,0,0
63,22,0,0,0,0,0,0,0,0,0,-1,1287,1002,0,0
70,22,0,0,0,0,0,0,0,0,0,-1,1294,1002,0,0
77,22,0,0,0,0,0,0,0,0,0,-1,1301,1002,0,0
84,22,0,0,0,0,0,0,0,0,0,-1,1308,1002,0,0
91,22,0,0,0,0,0,0,0,0,0,-1,1315,1002,0,0
98,22,0,0,0,0,0,0,0,0,0,-1,1322,1002,0,0
105,22,0,0,0,0,0,0,0,0,0,-1,1329,1002,0,0
112,22,0,0,0,0,0,0,0,0,0,-1,1336,1002,0,0
119,22,0,0,0,0,0,0,0,0,0,-1,1343,1002,0,0
126,22,0,0,0,0,0,0,0,0,0,-1,1350,1002,0,0
133,22,0,0,0,0,0,0,0,0,0,-1,1357,1002,0,0
140,22,0,0,0,0,0,0,0,0,0,-1,1364,1002,0,0
147,22,0,0,0,0,0,0,0,0,0,-1,1371,1002,0,0
154,22,0,0,0,0,0,0,0,0,0,-1,1378,1002,0,0
161,22,0,0,0,0,0,0,0,0,0,-1,1385,1002,0,0
168,22,0,0,0,0,0,0,0,0,0,-1,1392,1002,0,0
175,22,0,0,0,0,0,0,0,0,0,-1,1399,1002,0,0
182,22,0,0,0,0,0,0,0,0,0,-1,1406,1002,0,0
189,22,0,0,0,0,0,0,0,0,0,-1,1413,1002,0,0
196,22,0,0,0,0,0,0,0,0,0,-1,1420,1002,0,0
203,22,0,0,0,0,0,0,0,0,0,-1,1427,1002,0,0
210,22,0,0,0,0,0,0,0,0,0,-1,1434,1002,0,0
217,22,0,0,0,0,0,0,0,0,0,-1,1441,1002,0,0
224,22,0,0,0,0,0,0,0,0,0,-1,1448,1002,0,0
231,22,0,0,0,0,0,0,0,0,0,-1,1455,1002,0,0
238,22,0,0,0,0,0,0,0,0,0,-1,1462,1002,0,0
245,22,0,0,0,0,0,0,0,0,0,-1,1469,1002,0,0
252,22,0,0,0,0,0,0,0,0,0,-1,1476,1002,0,0
259,22,0,0,0,0,0,0,0,0,0,-1,1483,1002,0,0
266,22,0,0,0,0,0,0,0,0,0,-1,1490,1002,0,0
273,22,0,0,0,0,0,0,0,0,0,-1,1497,1002,0,0
280,22,0,0,0,0,0,0,0,0,0,-1,1504,1002,0,0
287,22,0,0,0,0,0,0,0,0,0,-1,1511,1002,0,0
294,22,0,0,0,0,0,0,0,0,0,-1,1518,1002,0,0
301,22,0,0,0,0,0,0,0,0,0,-1,1525,1002,0,0
308,22,0,0,0,0,0,0,0,0,0,-1,1532,1002,0,0
315,22,0,0,0,0,0,0,0,0,0,-1,1539,1002,0,0
322,22,0,0,0,0,0,0,0,0,0,-1,1546,1002,0,0
329,22,0,0,0,0,0,0,0,0,0,-1,1553,1002,0,0
336,22,0,0,0,0,0,0,0,0,0,-1,1560,1002,0,0
343,22,0,0,0,0,0,0,0,0,0,-1,1567,1002,0,0
350,22,0,0,0,0,0,0,0,0,0,-1,1574,1002,0,0
357,22,0,0,0,0,0,0,0,0,0,-1,1581,1002,0,0
364,22,0,0,0,0,0,0,0,0,0,-1,1588,1002,0,0
371,22,0,0,0,0,0,0,0,0,0,-1,1595,1002,0,0
378,22,0,0,0,0,0,0,0,0,0,-1,1602,1002,0,0
385,22,0,0,0,0,0,0,0,0,0,-1,1609,1002,0,0
392,22,0,0,0,0,0,0,0,0,0,-1,1616,1002,0,0
399,22,0,0,0,0,0,0,0,0,0,-1,1623,1002,0,0
406,22,0,0,0,0,0,0,0,0,0,-1,1630,1002,0,0
413,22,0,0,0,0,0,0,0,0,0,-1,1637,1002,0,0
420,22,0,0,0,0,0,0,0,0,0,-1,1644,1002,0,0
427,22,0,0,0,0,0,0,0,0,0,-1,1651,1002,0,0
434,22,0,0,0,0,0,0,0,0,0,-1,1658,1002,0,0
441,22,0,0,0,0,0,0,0,0,0,-1,1665,1002,0,0
448,22,0,0,0,0,0,0,0,0,0,-1,1672,1002,0,0
455,22,0,0,0,0,0,0,0,0,0,-1,1679,1002,0,0
462,22,0,0,0,0,0,0,0,0,0,-1,1686,1002,0,0
469,22,0,0,0,0,0,0,0,0,0,-1,1693,1002,0,0
476,22,0,0,0,0,0,0,0,0,0,-1,1700,1002,0,0
483,22,0,0,0,0,0,0,0,0,0,-1,1707,1002,0,0
490,22,0,0,0,0,0,0,0,0,0,-1,1714,1002,0,0
497,22,0,0,0,0,0,0,0,0,0,-1,1721,1002,0,0
504,22,0,0,0,0,0,0,0,0,0,-1,1728,1002,0,0
511,22,0,0,0,0,0,0,0,0,0,-1,1735,1002,0,0
518,22,0,0,0,0,0,0,0,0,0,-1,1742,1002,0,0
525,22,0,0,0,0,0,0,0,0,0,-1,1749,1002,0,0
532,22,0,0,0,0,0,0,0,0,0,-1,1756,1002,0,0
539,22,0,0,0,0,0,0,0,0,0,-1,1763,1002,0,0
546,22,0,0,0,0,0,0,0,0,0,-1,1770,1002,0,0
553,22,0,0,0,0,0,0,0,0,0,-1,1777,1002,0,0
560,22,0,0,0,0,0,0,0,0,0,-1,1784,1002,0,0
567,22,0,0,0,0,0,0,0,0,0,-1,1791,1002,0,0
574,22,0,0,0,0,0,0,0,0,0,-1,1798,1002,0,0
581,22,0,0,0,0,0,0,0,0,0,-1,1805,1002,0,0
588,22,0,0,0,0,0,0,0,0,0,-1,1812,1002,0,0
595,22,0,0,0,0,0,0,0,0,0,-1,1819,1002,0,0
602,22,0,0,0,0,0,0,0,0,0,-1,1826,1002,0,0
609,22,0,0,0,0,0,0,0,0,0,-1,1833,1002,0,0
616,22,0,0,0,0,0,0,0,0,0,-1,1840,1002,0,0
623,22,0,0,0,0,0,0,0,0,0,-1,1847,1002,0,0
630,22,0,0,0,0,0,0,0,0,0,-1,1854,1002,0,0
637,22,0,0,0,0,0,0,0,0,0,-1,1861,1002,0,0
644,22,16.13,2.41003,0.00261811,0.00131363,0.00356615,0.00559118,-0.00165944,0.694949,0.00438651,0.041101,1868,1002,16.13,-2.41003
651,22,16.2263,2.02795,0.00211113,0.000814051,0.0016403,0.00322645,-0.00030126,0.597139,0.00225809,0.0439379,1875,1002,16.2263,-2.02794
658,22,16.2074,2.88184,0.00163254,0.000461336,0.000408718,0.00176107,0.00033281,0.304673,0.00108033,0.042932,1882,1002,16.2074,-2.88181
665,22,16.3044,2.72852,0.0011315,0.000410279,-0.000162396,0.00116638,0.000375399,-0.211566,0.000687511,0.0384068,1889,1002,16.3044,-2.72854
672,22,16.1989,2.38831,0.000396252,0.000483729,-1.79905e-05,0.000487284,0.000392696,-1.37568,0.000298367,0.0373289,1896,1002,16.1989,-2.38828
679,22,16.1857,2.34204,-0.00075893,0.000628674,0.000614389,0.000861605,-0.000991861,1.20841,0.00107098,0.0395408,1903,1002,16.1856,-2.34201
686,22,16.1851,2.44635,-0.00187681,0.000746938,0.00141831,0.00136706,-0.00249693,1.15861,0.00226244,0.0387691,1910,1002,16.185,-2.44637
693,22,16.1714,2.43823,-0.002849,0.000845061,0.00224141,0.00190242,-0.00390635,1.13001,0.00341957,0.0369791,1917,1002,16.1714,-2.43824
700,22,16.1648,2.35657,-0.00373436,0.000807366,0.00295819,0.00226581,-0.0051928,1.11275,0.00441537,0.0340206,1924,1002,16.1648,-2.35658
707,22,16.1309,2.36121,-0.00439596,0.00107572,0.00331589,0.00263871,-0.00595895,1.13032,0.00508575,0.0274464,1931,1002,16.1309,-2.36118
714,22,16.1643,2.46942,-0.00488415,0.00107759,0.00360096,0.00277139,-0.00657795,1.13113,0.00554497,0.0231651,1938,1002,16.1642,-2.46943
721,22,16.1199,2.72388,-0.00517237,0.00112592,0.0039649,0.00304013,-0.00708658,1.12101,0.00600023,0.0282159,1945,1002,16.1199,-2.72386
728,22,15.7473,2.96124,-0.00533969,0.0012083,0.00413968,0.00321218,-0.00734357,1.11998,0.00624803,0.0223381,1952,1002,15.7473,-2.96127
735,22,15.7261,3.12628,-0.00546769,0.0013598,0.0038424,0.00308587,-0.00719376,1.14859,0.00609086,0.014676,1959,1002,15.726,-3.1263
742,22,15.7169,3.17145,-0.0058129,0.00194115,0.00320104,0.00309185,-0.00696359,1.22571,0.00594723,0.0144475,1966,1002,15.7169,-3.17144
749,22,15.7294,3.21429,-0.00678271,0.00233556,0.00259325,0.00302149,-0.00746863,1.31221,0.00623525,0.010723,1973,1002,15.7294,-3.21431
756,22,15.7131,3.25787,-0.00912085,0.00439496,0.00167341,0.00459906,-0.00932495,1.44943,0.00819192,0.0142659,1980,1002,15.7131,-3.25785
763,22,15.6882,3.31598,-0.0126833,0.00749792,0.000507879,0.00751069,-0.0126961,1.54565,0.0117937,0.0175482,1987,1002,15.6883,-3.31599
770,22,15.6904,3.32501,-0.016985,0.0109217,-0.000571755,0.0109334,-0.0169967,-1.55032,0.0162517,0.0113544,1994,1002,15.6904,-3.32501
777,22,15.6816,3.37158,-0.0230565,0.0156812,-0.00152274,0.015741,-0.0231162,-1.53157,0.0225685,0.0180542,2001,1002,15.6816,-3.37156
784,22,15.488,3.49707,-0.0314243,0.0220789,-0.00234827,0.0221818,-0.0315272,-1.52702,0.0311649,0.037748,2008,1002,15.488,-3.4971
791,22,15.1293,3.5553,-0.0421952,0.0304088,-0.00322339,0.0305516,-0.042338,-1.52652,0.0422658,0.0440746,2015,1002,15.1293,-3.55528
798,22,14.7648,3.54437,-0.0552884,0.0410699,-0.00433018,0.0412641,-0.0554826,-1.52598,0.0560575,0.0424804,2022,1002,14.7648,-3.54437
805,22,13.8641,3.77045,-0.0709013,0.0545514,-0.0058078,0.0548197,-0.0711696,-1.52463,0.0729438,0.0417732,2029,1002,13.8642,-3.77043
812,22,12.9919,4.04761,-0.0892233,0.0714572,-0.00789539,0.0718443,-0.0896103,-1.52182,0.0934038,0.0438533,2036,1002,12.9919,-4.04759
-700,15,0,0,0,0,0,0,0,0,0,-1,524,1009,0,0
-693,15,-7.36603,-1.17719,0,0,0,0,0,0,0,-1,531,1009,-7.36603,1.17717
-686,15,-9.03278,0.3479,0,0,0,0,0,0,0,-1,538,1009,-9.03277,-0.347905
-679,15,-9.51013,0.582947,-0.0115564,0.0806989,0.00839678,0.081457,-0.0123144,1.48077,0.0588406,0.0482369,545,1009,-9.51011,-0.582975
-672,15,-10.0196,0.585571,-0.00948785,0.0611272,0.00722968,0.0618598,-0.0102204,1.46981,0.0450349,0.0453576,552,1009,-10.0196,-0.585595
-665,15,-9.86963,1.62195,-0.00750594,0.045395,0.00628032,0.0461304,-0.00824131,1.45424,0.0338369,0.0434361,559,1009,-9.8696,-1.62196
-658,15,-9.79657,1.42236,-0.00574957,0.0329768,0.00540394,0.0337167,-0.00648951,1.43472,0.0249242,0.0427863,566,1009,-9.79654,-1.42238
-651,15,-9.922,1.13348,-0.00426471,0.0233753,0.00451499,0.0240941,-0.00498354,1.41291,0.0179559,0.0369339,573,1009,-9.922,-1.1335
-644,15,-10.0165,1.09406,-0.00307222,0.0161199,0.00347407,0.0167294,-0.00368173,1.39712,0.0125613,0.0172781,580,1009,-10.0165,-1.09408
-637,15,-10.0276,1.09271,-0.00226056,0.00954385,0.00192459,0.00984971,-0.00256642,1.41319,0.00756841,0.0125354,587,1009,-10.0276,-1.09273
-630,15,-10.0432,1.06274,-0.00178424,0.00546968,0.000906059,0.00558114,-0.0018957,1.4484,0.00448815,0.00984974,594,1009,-10.0432,-1.06273
-623,15,-10.0524,1.03943,-0.00109279,0.0023736,0.000390159,0.00241697,-0.00113616,1.46009,0.00209536,0.00823616,601,1009,-10.0524,-1.0394
-616,15,-10.0873,1.02271,-0.000563956,0.00137109,-0.00035312,0.00143352,-0.000626381,-1.39582,0.00121934,0.0128151,608,1009,-10.0873,-1.0227
-609,15,-10.0994,1.01361,-0.000459057,0.000249262,-0.00146631,0.00140358,-0.00161337,-0.903894,0.00174324,0.0197182,615,1009,-10.0995,-1.01362
-602,15,-10.0956,0.990601,-0.000596665,-0.000145033,-0.00244969,0.00208923,-0.00283093,-0.831359,0.00285139,0.0200241,622,1009,-10.0956,-0.990625
-595,15,-10.082,0.799866,-0.00052212,-0.000364156,-0.00287295,0.0024309,-0.00331717,-0.79914,0.00333177,0.021304,629,1009,-10.0819,-0.799868
-588,15,-10.0768,0.605164,-0.00038671,-0.000616466,-0.00294444,0.00244509,-0.00344827,-0.7659,0.00341892,0.0278344,636,1009,-10.0768,-0.605193
-581,15,-10.0714,0.475586,-0.000189283,-0.000659826,-0.00293215,0.00251702,-0.00336612,-0.745365,0.0034084,0.0393903,643,1009,-10.0714,-0.475587
-574,15,-10.0371,0.583374,-9.41989e-05,-0.000716512,-0.00282418,0.00243592,-0.00324663,-0.730532,0.00329193,0.0337568,650,1009,-10.0371,-0.58335
-567,15,-10.0764,0.626648,6.07084e-05,-0.000685291,-0.00254617,0.00226106,-0.00288564,-0.712668,0.00297873,0.0326931,657,1009,-10.0764,-0.626623
-560,15,-10.1016,0.73877,0.000191255,-0.000548779,-0.00213765,0.00199068,-0.0023482,-0.6997,0.00250789,0.0379235,664,1009,-10.1015,-0.738745
-553,15,-10.0252,0.723999,0.00022828,-0.000291352,-0.00162288,0.00161201,-0.00167508,-0.706024,0.00189792,0.0394546,671,1009,-10.0252,-0.723971
-546,15,-10.0925,0.626587,0.000106966,0.000100683,-0.0010385,0.00114233,-0.000934684,-0.783886,0.00120116,0.0412411,678,1009,-10.0925,-0.626597
-539,15,-10.1453,0.538879,-0.000270538,0.000655028,-0.000610883,0.00095863,-0.00057414,-1.10956,0.000894178,0.0425608,685,1009,-10.1452,-0.538865
-532,15,-10.1284,0.514587,-0.00131011,0.00161603,-0.000717272,0.00178239,-0.00147648,-1.34289,0.00188427,0.0412237,692,1009,-10.1284,-0.514609
-525,15,0,0,0,0,0,0,0,0,0,-1,699,1009,0,0
-518,15,0,0,0,0,0,0,0,0,0,-1,706,1009,0,0
-511,15,0,0,0,0,0,0,0,0,0,-1,713,1009,0,0
-504,15,0,0,0,0,0,0,0,0,0,-1,720,1009,0,0
-497,15,0,0,0,0,0,0,0,0,0,-1,727,1009,0,0
-490,15,0,0,0,0,0,0,0,0,0,-1,734,1009,0,0
-483,15,0,0,0,0,0,0,0,0,0,-1,741,1009,0,0
-476,15,0,0,0,0,0,0,0,0,0,-1,748,1009,0,0
-469,15,0,0,0,0,0,0,0,0,0,-1,755,1009,0,0
-462,15,0,0,0,0,0,0,0,0,0,-1,762,1009,0,0
-455,15,0,0,0,0,0,0,0,0,0,-1,769,1009,0,0
-448,15,0,0,0,0,0,0,0,0,0,-1,776,1009,0,0
-441,15,0,0,0,0,0,0,0,0,0,-1,783,1009,0,0
-434,15,0,0,0,0,0,0,0,0,0,-1,790,1009,0,0
-427,15,0,0,0,0,0,0,0,0,0,-1,797,1009,0,0
-420,15,0,0,0,0,0,0,0,0,0,-1,804,1009,0,0
-413,15,0,0,0,0,0,0,0,0,0,-1,811,1009,0,0
-406,15,0,0,0,0,0,0,0,0,0,-1,818,1009,0,0
-399,15,0,0,0,0,0,0,0,0,0,-1,825,1009,0,0
-392,15,0,0,0,0,0,0,0,0,0,-1,832,1009,0,0
-385,15,0,0,0,0,0,0,0,0,0,-1,839,1009,0,0
-378,15,0,0,0,0,0,0,0,0,0,-1,846,1009,0,0
-371,15,0,0,0,0,0,0,0,0,0,-1,853,1009,0,0
-364,15,0,0,0,0,0,0,0,0,0,-1,860,1009,0,0
-357,15,0,0,0,0,0,0,0,0,0,-1,867,1009,0,0
-350,15,0,0,0,0,0,0,0,0,0,-1,874,1009,0,0
-343,15,0,0,0,0,0,0,0,0,0,-1,881,1009,0,0
-336,15,0,0,0,0,0,0,0,0,0,-1,888,1009,0,0
-329,15,0,0,0,0,0,0,0,0,0,-1,895,1009,0,0
-322,15,0,0,0,0,0,0,0,0,0,-1,902,1009,0,0
-315,15,0,0,0,0,0,0,0,0,0,-1,909,1009,0,0
-308,15,0,0,0,0,0,0,0,0,0,-1,916,1009,0,0
-301,15,0,0,0,0,0,0,0,0,0,-1,923,1009,0,0
-294,15,0,0,0,0,0,0,0,0,0,-1,930,1009,0,0
-287,15,0,0,0,0,0,0,0,0,0,-1,937,1009,0,0
-280,15,0,0,0,0,0,0,0,0,0,-1,944,1009,0,0
-273,15,0,0,0,0,0,0,0,0,0,-1,951,1009,0,0
-266,15,0,0,0,0,0,0,0,0,0,-1,958,1009,0,0
-259,15,0,0,0,0,0,0,0,0,0,-1,965,1009,0,0
-252,15,0,0,0,0,0,0,0,0,0,-1,972,1009,0,0
-245,15,0,0,0,0,0,0,0,0,0,-1,979,1009,0,0
-238,15,0,0,0,0,0,0,0,0,0,-1,986,1009,0,0
-231,15,0,0,0,0,0,0,0,0,0,-1,993,1009,0,0
-224,15,0,0,0,0,0,0,0,0,0,-1,1000,1009,0,0
-217,15,0,0,0,0,0,0,0,0,0,-1,1007,1009,0,0
-210,15,0,0,0,0,0,0,0,0,0,-1,1014,1009,0,0
-203,15,0,0,0,0,0,0,0,0,0,-1,1021,1009,0,0
-196,15,0,0,0,0,0,0,0,0,0,-1,1028,1009,0,0
-189,15,0,0,0,0,0,0,0,0,0,-1,1035,1009,0,0
-182,15,0,0,0,0,0,0,0,0,0,-1,1042,1009,0,0
-175,15,0,0,0,0,0,0,0,0,0,-1,1049,1009,0,0
-168,15,0,0,0,0,0,0,0,0,0,-1,1056,1009,0,0
-161,15,0,0,0,0,0,0,0,0,0,-1,1063,1009,0,0
-154,15,0,0,0,0,0,0,0,0,0,-1,1070,1009,0,0
-147,15,0,0,0,0,0,0,0,0,0,-1,1077,1009,0,0
-140,15,0,0,0,0,0,0,0,0,0,-1,1084,1009,0,0
-133,15,0,0,0,0,0,0,0,0,0,-1,1091,1009,0,0
-126,15,0,0,0,0,0,0,0,0,0,-1,1098,1009,0,0
-119,15,0,0,0,0,0,0,0,0,0,-1,1105,1009,0,0
-112,15,0,0,0,0,0,0,0,0,0,-1,1112,1009,0,0
-105,15,0,0,0,0,0,0,0,0,0,-1,1119,1009,0,0
-98,15,0,0,0,0,0,0,0,0,0,-1,1126,1009,0,0
-91,15,0,0,0,0,0,0,0,0,0,-1,1133,1009,0,0
-84,15,0,0,0,0,0,0,0,0,0,-1,1140,1009,0,0
-77,15,0,0,0,0,0,0,0,0,0,-1,1147,1009,0,0
-70,15,0,0,0,0,0,0,0,0,0,-1,1154,1009,0,0
-63,15,0,0,0,0,0,0,0,0,0,-1,1161,1009,0,0
-56,15,0,0,0,0,0,0,0,0,0,-1,1168,1009,0,0
-49,15,0,0,0,0,0,0,0,0,0,-1,1175,1009,0,0
-42,15,0,0,0,0,0,0,0,0,0,-1,1182,1009,0,0
-35,15,0,0,0,0,0,0,0,0,0,-1,1189,1009,0,0
-28,15,0,0,0,0,0,0,0,0,0,-1,1196,1009,0,0
-21,15,0,0,0,0,0,0,0,0,0,-1,1203,1009,0,0
-14,15,0,0,0,0,0,0,0,0,0,-1,1210,1009,0,0
-7,15,0,0,0,0,0,0,0,0,0,-1,1217,1009,0,0
0,15,0,0,0,0,0,0,0,0,0,-1,1224,1009,0,0
7,15,0,0,0,0,0,0,0,0,0,-1,1231,1009,0,0
14,15,0,0,0,0,0,0,0,0,0,-1,1238,1009,0,0
21,15,0,0,0,0,0,0,0,0,0,-1,1245,1009,0,0
28,15,0,0,0,0,0,0,0,0,0,-1,1252,1009,0,0
35,15,0,0,0,0,0,0,0,0,0,-1,1259,1009,0,0
42,15,0,0,0,0,0,0,0,0,0,-1,1266,1009,0,0
49,15,0,0,0,0,0,0,0,0,0,-1,1273,1009,0,0
56,15,0,0,0,0,0,0,0,0,0,-1,1280,1009,0,0
63,15,0,0,0,0,0,0,0,0,0,-1,1287,1009,0,0
70,15,0,0,0,0,0,0,0,0,0,-1,1294,1009,0,0
77,15,0,0,0,0,0,0,0,0,0,-1,1301,1009,0,0
84,15,0,0,0,0,0,0,0,0,0,-1,1308,1009,0,0
91,15,0,0,0,0,0,0,0,0,0,-1,1315,1009,0,0
98,15,0,0,0,0,0,0,0,0,0,-1,1322,1009,0,0
105,15,0,0,0,0,0,0,0,0,0,-1,1329,1009,0,0
112,15,0,0,0,0,0,0,0,0,0,-1,1336,1009,0,0
119,15,0,0,0,0,0,0,0,0,0,-1,1343,1009,0,0
126,15,0,0,0,0,0,0,0,0,0,-1,1350,1009,0,0
133,15,0,0,0,0,0,0,0,0,0,-1,1357,1009,0,0
140,15,0,0,0,0,0,0,0,0,0,-1,1364,1009,0,0
147,15,0,0,0,0,0,0,0,0,0,-1,1371,1009,0,0
154,15,0,0,0,0,0,0,0,0,0,-1,1378,1009,0,0
161,15,0,0,0,0,0,0,0,0,0,-1,1385,1009,0,0
168,15,0,0,0,0,0,0,0,0,0,-1,1392,1009,0,0
175,15,0,0,0,0,0,0,0,0,0,-1,1399,1009,0,0
182,15,0,0,0,0,0,0,0,0,0,-1,1406,1009,0,0
189,15,0,0,0,0,0,0,0,0,0,-1,1413,1009,0,0
196,15,0,0,0,0,0,0,0,0,0,-1,1420,1009,0,0
203,15,0,0,0,0,0,0,0,0,0,-1,1427,1009,0,0
210,15,0,0,0,0,0,0,0,0,0,-1,1434,1009,0,0
217,15,0,0,0,0,0,0,0,0,0,-1,1441,1009,0,0
224,15,0,0,0,0,0,0,0,0,0,-1,1448,1009,0,0
231,15,0,0,0,0,0,0,0,0,0,-1,1455,1009,0,0
238,15,0,0,0,0,0,0,0,0,0,-1,1462,1009,0,0
245,15,0,0,0,0,0,0,0,0,0,-1,1469,1009,0,0
252,15,0,0,0,0,0,0,0,0,0,-1,1476,1009,0,0
259,15,0,0,0,0,0,0,0,0,0,-1,1483,1009,0,0
266,15,0,0,0,0,0,0,0,0,0,-1,1490,1009,0,0
273,15,0,0,0,0,0,0,0,0,0,-1,1497,1009,0,0
280,15,0,0,0,0,0,0,0,0,0,-1,1504,1009,0,0
287,15,0,0,0,0,0,0,0,0,0,-1,1511,1009,0,0
294,15,0,0,0,0,0,0,0,0,0,-1,1518,1009,0,0
301,15,0,0,0,0,0,0,0,0,0,-1,1525,1009,0,0
308,15,0,0,0,0,0,0,0,0,0,-1,1532,1009,0,0
315,15,0,0,0,0,0,0,0,0,0,-1,1539,1009,0,0
322,15,0,0,0,0,0,0,0,0,0,-1,1546,1009,0,0
329,15,0,0,0,0,0,0,0,0,0,-1,1553,1009,0,0
336,15,0,0,0,0,0,0,0,0,0,-1,1560,1009,0,0
343,15,0,0,0,0,0,0,0,0,0,-1,1567,1009,0,0
350,15,0,0,0,0,0,0,0,0,0,-1,1574,1009,0,0
357,15,0,0,0,0,0,0,0,0,0,-1,1581,1009,0,0
364,15,0,0,0,0,0,0,0,0,0,-1,1588,1009,0,0
371,15,0,0,0,0,0,0,0,0,0,-1,1595,1009,0,0
378,15,0,0,0,0,0,0,0,0,0,-1,1602,1009,0,0
385,15,0,0,0,0,0,0,0,0,0,-1,1609,1009,0,0
392,15,0,0,0,0,0,0,0,0,0,-1,1616,1009,0,0
399,15,0,0,0,0,0,0,0,0,0,-1,1623,1009,0,0
406,15,0,0,0,0,0,0,0,0,0,-1,1630,1009,0,0
413,15,0,0,0,0,0,0,0,0,0,-1,1637,1009,0,0
420,15,0,0,0,0,0,0,0,0,0,-1,1644,1009,0,0
427,15,0,0,0,0,0,0,0,0,0,-1,1651,1009,0,0
434,15,0,0,0,0,0,0,0,0,0,-1,1658,1009,0,0
441,15,0,0,0,0,0,0,0,0,0,-1,1665,1009,0,0
448,15,0,0,0,0,0,0,0,0,0,-1,1672,1009,0,0
455,15,0,0,0,0,0,0,0,0,0,-1,1679,1009,0,0
462,15,0,0,0,0,0,0,0,0,0,-1,1686,1009,0,0
469,15,0,0,0,0,0,0,0,0,0,-1,1693,1009,0,0
476,15,0,0,0,0,0,0,0,0,0,-1,1700,1009,0,0
483,15,0,0,0,0,0,0,0,0,0,-1,1707,1009,0,0
490,15,0,0,0,0,0,0,0,0,0,-1,1714,1009,0,0
497,15,0,0,0,0,0,0,0,0,0,-1,1721,1009,0,0
504,15,0,0,0,0,0,0,0,0,0,-1,1728,1009,0,0
511,15,0,0,0,0,0,0,0,0,0,-1,1735,1009,0,0
518,15,0,0,0,0,0,0,0,0,0,-1,1742,1009,0,0
525,15,0,0,0,0,0,0,0,0,0,-1,1749,1009,0,0
532,15,0,0,0,0,0,0,0,0,0,-1,1756,1009,0,0
539,15,0,0,0,0,0,0,0,0,0,-1,1763,1009,0,0
546,15,0,0,0,0,0,0,0,0,0,-1,1770,1009,0,0
553,15,0,0,0,0,0,0,0,0,0,-1,1777,1009,0,0
560,15,0,0,0,0,0,0,0,0,0,-1,1784,1009,0,0
567,15,0,0,0,0,0,0,0,0,0,-1,1791,1009,0,0
574,15,0,0,0,0,0,0,0,0,0,-1,1798,1009,0,0
581,15,0,0,0,0,0,0,0,0,0,-1,1805,1009,0,0
588,15,0,0,0,0,0,0,0,0,0,-1,1812,1009,0,0
595,15,0,0,0,0,0,0,0,0,0,-1,1819,1009,0,0
602,15,0,0,0,0,0,0,0,0,0,-1,1826,1009,0,0
609,15,0,0,0,0,0,0,0,0,0,-1,1833,1009,0,0
616,15,0,0,0,0,0,0,0,0,0,-1,1840,1009,0,0
623,15,0,0,0,0,0,0,0,0,0,-1,1847,1009,0,0
630,15,0,0,0,0,0,0,0,0,0,-1,1854,1009,0,0
637,15,0,0,0,0,0,0,0,0,0,-1,1861,1009,0,0
644,15,16.0878,2.10107,0.00205565,0.00333233,0.0047091,0.00744616,-0.00205818,0.852765,0.00577377,0.0413055,1868,1009,16.0878,-2.10109
651,15,16.2618,2.117,0.00170397,0.002451,0.00252421,0.00462918,-0.00047421,0.858851,0.00325572,0.0420395,1875,1009,16.2618,-2.11698
658,15,16.2916,2.3772,0.0013347,0.00170585,0.00107366,0.00260986,0.000430694,0.870976,0.00161559,0.03834,1882,1009,16.2917,-2.37722
665,15,16.2303,2.46143,0.000921824,0.00129168,0.000268394,0.00143269,0.000780817,1.08706,0.000828277,0.0353057,1889,1009,16.2303,-2.4614
672,15,16.1613,2.46667,0.000306884,0.00105335,0.000252994,0.00113101,0.000229219,1.27295,0.000690405,0.0363617,1896,1009,16.1613,-2.46665
679,15,16.2947,2.38177,-0.000763267,0.000932971,0.000811992,0.00125901,-0.0010893,1.18898,0.00135698,0.0377387,1903,1009,16.2947,-2.3818
686,15,16.3987,2.11536,-0.00184123,0.000847832,0.00158796,0.00158402,-0.00257741,1.13669,0.00242531,0.0434139,1910,1009,16.3987,-2.11533
693,15,16.22,2.06702,-0.00278649,0.000797414,0.00240483,0.00200451,-0.00399358,1.10559,0.0035259,0.041198,1917,1009,16.22,-2.067
700,15,16.1058,2.32245,-0.00365554,0.000653188,0.00314247,0.00230887,-0.00531122,1.08588,0.00451185,0.0315148,1924,1009,16.1058,-2.32245
707,15,16.1162,2.34424,-0.00426969,0.000843435,0.00353642,0.00265062,-0.00607688,1.09837,0.00516663,0.0245369,1931,1009,16.1162,-2.34422
714,15,16.1554,2.40076,-0.00474258,0.00078846,0.00385996,0.00277135,-0.00672547,1.09624,0.00563919,0.0255458,1938,1009,16.1554,-2.40076
721,15,16.1678,2.68304,-0.00507161,0.000816976,0.00424616,0.00303976,-0.0072944,1.08854,0.00613267,0.029803,1945,1009,16.1678,-2.68302
728,15,15.7772,3.1051,0,0,0,0,0,0,0,-1,1952,1009,15.7773,-3.10509
735,15,15.7598,3.14087,-0.00536278,0.00113939,0.00412812,0.00314291,-0.00736631,1.11895,0.00622868,0.016053,1959,1009,15.7598,-3.14086
742,15,15.7629,3.1814,-0.00563698,0.00177068,0.00342899,0.00311426,-0.00698056,1.19735,0.00596904,0.0162052,1966,1009,15.763,-3.18141
749,15,15.7408,3.21704,-0.00646843,0.00220734,0.0026395,0.00294727,-0.00720836,1.29748,0.00603294,0.00988297,1973,1009,15.7409,-3.21705
756,15,15.7488,3.23779,-0.00854932,0.00417003,0.00141095,0.00432466,-0.00870396,1.46164,0.00766241,0.0113035,1980,1009,15.7488,-3.2378
763,15,15.7356,3.27631,-0.0117524,0.00683393,-0.000259193,0.00683754,-0.011756,-1.55685,0.0108595,0.0116385,1987,1009,15.7356,-3.27632
770,15,15.7256,3.29492,-0.015546,0.00980683,-0.00196815,0.00995871,-0.0156978,-1.49378,0.0149358,0.0107978,1994,1009,15.7256,-3.29495
777,15,15.7192,3.33759,-0.0208885,0.0138861,-0.0038153,0.0142998,-0.0213022,-1.46279,0.0206869,0.0195631,2001,1009,15.7192,-3.33759
784,15,15.6195,3.43475,-0.0282916,0.0192606,-0.00578219,0.0199536,-0.0289846,-1.45152,0.0284144,0.0388076,2008,1009,15.6195,-3.43476
791,15,15.6212,3.32849,-0.0378942,0.0261249,-0.00813634,0.0271428,-0.0389121,-1.44634,0.038338,0.0479421,2015,1009,15.6213,-3.32846
798,15,15.4845,3.047,-0.0495722,0.0347376,-0.0111923,0.0361981,-0.0510326,-1.44104,0.0506049,0.0489584,2022,1009,15.4846,-3.04699
805,15,15.1714,2.85468,-0.0634936,0.0454073,-0.0152181,0.0474939,-0.0655802,-1.43453,0.0655612,0.0466029,2029,1009,15.1714,-2.85467
812,15,14.8577,2.68744,0,0,0,0,0,0,0,-1,2036,1009,14.8578,-2.68744
-700,8,0,0,0,0,0,0,0,0,0,-1,524,1016,0,0
-693,8,-8.43195,0.351929,0,0,0,0,0,0,0,-1,531,1016,-8.43194,-0.351931
-686,8,-8.66272,0.439636,-0.00990667,0.0923646,0.0127365,0.0939269,-0.011469,1.44874,0.0667701,0.0494547,538,1016,-8.66272,-0.439609
-679,8,-8.94348,0.459656,-0.00934703,0.07151,0.0100071,0.0727301,-0.0105671,1.44947,0.0523657,0.046434,545,1016,-8.94348,-0.459627
-672,8,-9.48267,0.495789,-0.00830641,0.0545877,0.00809486,0.0556128,-0.00933156,1.44483,0.0405453,0.0439483,552,1016,-9.48267,-0.495802
-665,8,-9.88843,0.666931,-0.00705215,0.0409895,0.00663914,0.0418901,-0.00795276,1.43597,0.0309205,0.0425261,559,1016,-9.88844,-0.666929
-658,8,-9.91211,0.926697,-0.00577863,0.0301969,0.00543702,0.0310006,-0.00658238,1.42403,0.0231749,0.0349174,566,1016,-9.91213,-0.926716
-651,8,-9.96918,1.00958,-0.00458051,0.0217568,0.00435335,0.0224577,-0.00528143,1.41116,0.0170079,0.0203601,573,1016,-9.96917,-1.00957
-644,8,-9.99713,1.034,-0.00351823,0.0152633,0.00319019,0.0157904,-0.00404532,1.40705,0.0121029,0.0152305,580,1016,-9.99714,-1.03398
-637,8,-10.019,1.06171,-0.00276944,0.00926333,0.00148844,0.00944472,-0.00295082,1.44953,0.00747677,0.012269,587,1016,-10.019,-1.06173
-630,8,-10.0576,1.04578,-0.00227326,0.00559548,0.00046613,0.005623,-0.00230077,1.51183,0.00470692,0.0107972,594,1016,-10.0576,-1.04579
-623,8,-10.0645,1.03668,-0.00154165,0.00271922,-5.18462e-05,0.00271985,-0.00154228,-1.55863,0.00249185,0.0110285,601,1016,-10.0645,-1.03668
-616,8,-10.0787,1.02966,-0.000832645,0.00149013,-0.000809386,0.00174434,-0.00108686,-1.26647,0.00164922,0.0115473,608,1016,-10.0787,-1.02964
-609,8,-10.0818,1.02802,-0.00049263,0.000182579,-0.00178638,0.00166298,-0.00197303,-0.878791,0.0021018,0.0160864,615,1016,-10.0818,-1.02801
-602,8,-10.0863,1.00476,-0.000504919,-0.000286734,-0.00270807,0.00231444,-0.00310609,-0.805529,0.00314065,0.0209154,622,1016,-10.0863,-1.00478
-595,8,-10.0426,0.768066,-0.000323306,-0.000525618,-0.00309161,0.0026688,-0.00351773,-0.769044,0.00358298,0.0230188,629,1016,-10.0426,-0.768086
-588,8,-10.0419,0.56134,-0.000130096,-0.000780853,-0.00311096,0.00267245,-0.0035834,-0.733292,0.00362456,0.0250024,636,1016,-10.042,-0.561362
-581,8,-10.0259,0.581543,0.000109858,-0.000811694,-0.00305925,0.00274284,-0.00344468,-0.710651,0.00358002,0.0305588,643,1016,-10.0259,-0.581538
-574,8,-9.99738,0.641052,0.000249271,-0.000850512,-0.00290291,0.00265392,-0.00325516,-0.691794,0.00341749,0.035213,650,1016,-9.99739,-0.641056
-567,8,-10.0536,0.599182,0.000428615,-0.000791175,-0.00256012,0.00245049,-0.00281305,-0.668463,0.00304131,0.0378009,657,1016,-10.0536,-0.599174
-560,8,-10.2004,0.736145,0.00058884,-0.000617854,-0.00207883,0.00215011,-0.00217913,-0.644162,0.00249951,0.0392963,664,1016,-10.2004,-0.736153
-553,8,-10.0376,0.770264,0.0006682,-0.000318781,-0.00148836,0.00174275,-0.00139333,-0.625319,0.00181436,0.0389771,671,1016,-10.0376,-0.770262
-546,8,-9.92529,0.489075,0.000606576,0.000116038,-0.000837891,0.00123436,-0.000511744,-0.643015,0.00103649,0.0394317,678,1016,-9.92527,-0.489079
-539,8,-10.0521,0.474976,0.000330018,0.000703172,-0.00040732,0.000964614,6.85762e-05,-1.00017,0.00062148,0.041866,685,1016,-10.0521,-0.474956
-532,8,-9.97778,0.465332,-0.000507462,0.00167014,-0.000659133,0.00185411,-0.000691431,-1.29861,0.00151991,0.0407384,692,1016,-9.97776,-0.465356
-525,8,0,0,0,0,0,0,0,0,0,-1,699,1016,0,0
-518,8,0,0,0,0,0,0,0,0,0,-1,706,1016,0,0
-511,8,0,0,0,0,0,0,0,0,0,-1,713,1016,0,0
-504,8,0,0,0,0,0,0,0,0,0,-1,720,1016,0,0
-497,8,0,0,0,0,0,0,0,0,0,-1,727,1016,0,0
-490,8,0,0,0,0,0,0,0,0,0,-1,734,1016,0,0
-483,8,0,0,0,0,0,0,0,0,0,-1,741,1016,0,0
-476,8,0,0,0,0,0,0,0,0,0,-1,748,1016,0,0
-469,8,0,0,0,0,0,0,0,0,0,-1,755,1016,0,0
-462,8,0,0,0,0,0,0,0,0,0,-1,762,1016,0,0
-455,8,0,0,0,0,0,0,0,0,0,-1,769,1016,0,0
-448,8,0,0,0,0,0,0,0,0,0,-1,776,1016,0,0
-441,8,0,0,0,0,0,0,0,0,0,-1,783,1016,0,0
-434,8,0,0,0,0,0,0,0,0,0,-1,790,1016,0,0
-427,8,0,0,0,0,0,0,0,0,0,-1,797,1016,0,0
-420,8,0,0,0,0,0,0,0,0,0,-1,804,1016,0,0
-413,8,0,0,0,0,0,0,0,0,0,-1,811,1016,0,0
-406,8,0,0,0,0,0,0,0,0,0,-1,818,1016,0,0
-399,8,0,0,0,0,0,0,0,0,0,-1,825,1016,0,0
-392,8,0,0,0,0,0,0,0,0,0,-1,832,1016,0,0
-385,8,0,0,0,0,0,0,0,0,0,-1,839,1016,0,0
-378,8,0,0,0,0,0,0,0,0,0,-1,846,1016,0,0
-371,8,0,0,0,0,0,0,0,0,0,-1,853,1016,0,0
-364,8,0,0,0,0,0,0,0,0,0,-1,860,1016,0,0
-357,8,0,0,0,0,0,0,0,0,0,-1,867,1016,0,0
-350,8,0,0,0,0,0,0,0,0,0,-1,874,1016,0,0
-343,8,0,0,0,0,0,0,0,0,0,-1,881,1016,0,0
-336,8,0,0,0,0,0,0,0,0,0,-1,888,1016,0,0
-329,8,0,0,0,0,0,0,0,0,0,-1,895,1016,0,0
-322,8,0,0,0,0,0,0,0,0,0,-1,902,1016,0,0
-315,8,0,0,0,0,0,0,0,0,0,-1,909,1016,0,0
-308,8,0,0,0,0,0,0,0,0,0,-1,916,1016,0,0
-301,8,0,0,0,0,0,0,0,0,0,-1,923,1016,0,0
-294,8,0,0,0,0,0,0,0,0,0,-1,930,1016,0,0
-287,8,0,0,0,0,0,0,0,0,0,-1,937,1016,0,0
-280,8,0,0,0,0,0,0,0,0,0,-1,944,1016,0,0
-273,8,0,0,0,0,0,0,0,0,0,-1,951,1016,0,0
-266,8,0,0,0,0,0,0,0,0,0,-1,958,1016,0,0
-259,8,0,0,0,0,0,0,0,0,0,-1,965,1016,0,0
-252,8,0,0,0,0,0,0,0,0,0,-1,972,1016,0,0
-245,8,0,0,0,0,0,0,0,0,0,-1,979,1016,0,0
-238,8,0,0,0,0,0,0,0,0,0,-1,986,1016,0,0
-231,8,0,0,0,0,0,0,0,0,0,-1,993,1016,0,0
-224,8,0,0,0,0,0,0,0,0,0,-1,1000,1016,0,0
-217,8,0,0,0,0,0,0,0,0,0,-1,1007,1016,0,0
-210,8,0,0,0,0,0,0,0,0,0,-1,1014,1016,0,0
-203,8,0,0,0,0,0,0,0,0,0,-1,1021,1016,0,0
-196,8,0,0,0,0,0,0,0,0,0,-1,1028,1016,0,0
-189,8,0,0,0,0,0,0,0,0,0,-1,1035,1016,0,0
-182,8,0,0,0,0,0,0,0,0,0,-1,1042,1016,0,0
-175,8,0,0,0,0,0,0,0,0,0,-1,1049,1016,0,0
-168,8,0,0,0,0,0,0,0,0,0,-1,1056,1016,0,0
-161,8,0,0,0,0,0,0,0,0,0,-1,1063,1016,0,0
-154,8,0,0,0,0,0,0,0,0,0,-1,1070,1016,0,0
-147,8,0,0,0,0,0,0,0,0,0,-1,1077,1016,0,0
-140,8,0,0,0,0,0,0,0,0,0,-1,1084,1016,0,0
-133,8,0,0,0,0,0,0,0,0,0,-1,1091,1016,0,0
-126,8,0,0,0,0,0,0,0,0,0,-1,1098,1016,0,0
-119,8,0,0,0,0,0,0,0,0,0,-1,1105,1016,0,0
-112,8,0,0,0,0,0,0,0,0,0,-1,1112,1016,0,0
-105,8,0,0,0,0,0,0,0,0,0,-1,1119,1016,0,0
-98,8,0,0,0,0,0,0,0,0,0,-1,1126,1016,0,0
-91,8,0,0,0,0,0,0,0,0,0,-1,1133,1016,0,0
-84,8,0,0,0,0,0,0,0,0,0,-1,1140,1016,0,0
-77,8,0,0,0,0,0,0,0,0,0,-1,1147,1016,0,0
-70,8,0,0,0,0,0,0,0,0,0,-1,1154,1016,0,0
-63,8,0,0,0,0,0,0,0,0,0,-1,1161,1016,0,0
-56,8,0,0,0,0,0,0,0,0,0,-1,1168,1016,0,0
-49,8,0,0,0,0,0,0,0,0,0,-1,1175,1016,0,0
-42,8,0,0,0,0,0,0,0,0,0,-1,1182,1016,0,0
-35,8,0,0,0,0,0,0,0,0,0,-1,1189,1016,0,0
-28,8,0,0,0,0,0,0,0,0,0,-1,1196,1016,0,0
-21,8,0,0,0,0,0,0,0,0,0,-1,1203,1016,0,0
-14,8,0,0,0,0,0,0,0,0,0,-1,1210,1016,0,0
-7,8,0,0,0,0,0,0,0,0,0,-1,1217,1016,0,0
0,8,0,0,0,0,0,0,0,0,0,-1,1224,1016,0,0
7,8,0,0,0,0,0,0,0,0,0,-1,1231,1016,0,0
14,8,0,0,0,0,0,0,0,0,0,-1,1238,1016,0,0
21,8,0,0,0,0,0,0,0,0,0,-1,1245,1016,0,0
28,8,0,0,0,0,0,0,0,0,0,-1,1252,1016,0,0
35,8,0,0,0,0,0,0,0,0,0,-1,1259,1016,0,0
42,8,0,0,0,0,0,0,0,0,0,-1,1266,1016,0,0
49,8,0,0,0,0,0,0,0,0,0,-1,1273,1016,0,0
56,8,0,0,0,0,0,0,0,0,0,-1,1280,1016,0,0
63,8,0,0,0,0,0,0,0,0,0,-1,1287,1016,0,0
70,8,0,0,0,0,0,0,0,0,0,-1,1294,1016,0,0
77,8,0,0,0,0,0,0,0,0,0,-1,1301,1016,0,0
84,8,0,0,0,0,0,0,0,0,0,-1,1308,1016,0,0
91,8,0,0,0,0,0,0,0,0,0,-1,1315,1016,0,0
98,8,0,0,0,0,0,0,0,0,0,-1,1322,1016,0,0
105,8,0,0,0,0,0,0,0,0,0,-1,1329,1016,0,0
112,8,0,0,0,0,0,0,0,0,0,-1,1336,1016,0,0
119,8,0,0,0,0,0,0,0,0,0,-1,1343,1016,0,0
126,8,0,0,0,0,0,0,0,0,0,-1,1350,1016,0,0
133,8,0,0,0,0,0,0,0,0,0,-1,1357,1016,0,0
140,8,0,0,0,0,0,0,0,0,0,-1,1364,1016,0,0
147,8,0,0,0,0,0,0,0,0,0,-1,1371,1016,0,0
154,8,0,0,0,0,0,0,0,0,0,-1,1378,1016,0,0
161,8,0,0,0,0,0,0,0,0,0,-1,1385,1016,0,0
168,8,0,0,0,0,0,0,0,0,0,-1,1392,1016,0,0
175,8,0,0,0,0,0,0,0,0,0,-1,1399,1016,0,0
182,8,0,0,0,0,0,0,0,0,0,-1,1406,1016,0,0
189,8,0,0,0,0,0,0,0,0,0,-1,1413,1016,0,0
196,8,0,0,0,0,0,0,0,0,0,-1,1420,1016,0,0
203,8,0,0,0,0,0,0,0,0,0,-1,1427,1016,0,0
210,8,0,0,0,0,0,0,0,0,0,-1,1434,1016,0,0
217,8,0,0,0,0,0,0,0,0,0,-1,1441,1016,0,0
224,8,0,0,0,0,0,0,0,0,0,-1,1448,1016,0,0
231,8,0,0,0,0,0,0,0,0,0,-1,1455,1016,0,0
238,8,0,0,0,0,0,0,0,0,0,-1,1462,1016,0,0
245,8,0,0,0,0,0,0,0,0,0,-1,1469,1016,0,0
252,8,0,0,0,0,0,0,0,0,0,-1,1476,1016,0,0
259,8,0,0,0,0,0,0,0,0,0,-1,1483,1016,0,0
266,8,0,0,0,0,0,0,0,0,0,-1,1490,1016,0,0
273,8,0,0,0,0,0,0,0,0,0,-1,1497,1016,0,0
280,8,0,0,0,0,0,0,0,0,0,-1,1504,1016,0,0
287,8,0,0,0,0,0,0,0,0,0,-1,1511,1016,0,0
294,8,0,0,0,0,0,0,0,0,0,-1,1518,1016,0,0
301,8,0,0,0,0,0,0,0,0,0,-1,1525,1016,0,0
308,8,0,0,0,0,0,0,0,0,0,-1,1532,1016,0,0
315,8,0,0,0,0,0,0,0,0,0,-1,1539,1016,0,0
322,8,0,0,0,0,0,0,0,0,0,-1,1546,1016,0,0
329,8,0,0,0,0,0,0,0,0,0,-1,1553,1016,0,0
336,8,0,0,0,0,0,0,0,0,0,-1,1560,1016,0,0
343,8,0,0,0,0,0,0,0,0,0,-1,1567,1016,0,0
350,8,0,0,0,0,0,0,0,0,0,-1,1574,1016,0,0
357,8,0,0,0,0,0,0,0,0,0,-1,1581,1016,0,0
364,8,0,0,0,0,0,0,0,0,0,-1,1588,1016,0,0
371,8,0,0,0,0,0,0,0,0,0,-1,1595,1016,0,0
378,8,0,0,0,0,0,0,0,0,0,-1,1602,1016,0,0
385,8,0,0,0,0,0,0,0,0,0,-1,1609,1016,0,0
392,8,0,0,0,0,0,0,0,0,0,-1,1616,1016,0,0
399,8,0,0,0,0,0,0,0,0,0,-1,1623,1016,0,0
406,8,0,0,0,0,0,0,0,0,0,-1,1630,1016,0,0
413,8,0,0,0,0,0,0,0,0,0,-1,1637,1016,0,0
420,8,0,0,0,0,0,0,0,0,0,-1,1644,1016,0,0
427,8,0,0,0,0,0,0,0,0,0,-1,1651,1016,0,0
434,8,0,0,0,0,0,0,0,0,0,-1,1658,1016,0,0
441,8,0,0,0,0,0,0,0,0,0,-1,1665,1016,0,0
448,8,0,0,0,0,0,0,0,0,0,-1,1672,1016,0,0
455,8,0,0,0,0,0,0,0,0,0,-1,1679,1016,0,0
462,8,0,0,0,0,0,0,0,0,0,-1,1686,1016,0,0
469,8,0,0,0,0,0,0,0,0,0,-1,1693,1016,0,0
476,8,0,0,0,0,0,0,0,0,0,-1,1700,1016,0,0
483,8,0,0,0,0,0,0,0,0,0,-1,1707,1016,0,0
490,8,0,0,0,0,0,0,0,0,0,-1,1714,1016,0,0
497,8,0,0,0,0,0,0,0,0,0,-1,1721,1016,0,0
504,8,0,0,0,0,0,0,0,0,0,-1,1728,1016,0,0
511,8,0,0,0,0,0,0,0,0,0,-1,1735,1016,0,0
518,8,0,0,0,0,0,0,0,0,0,-1,1742,1016,0,0
525,8,0,0,0,0,0,0,0,0,0,-1,1749,1016,0,0
532,8,0,0,0,0,0,0,0,0,0,-1,1756,1016,0,0
539,8,0,0,0,0,0,0,0,0,0,-1,1763,1016,0,0
546,8,0,0,0,0,0,0,0,0,0,-1,1770,1016,0,0
553,8,0,0,0,0,0,0,0,0,0,-1,1777,1016,0,0
560,8,0,0,0,0,0,0,0,0,0,-1,1784,1016,0,0
567,8,0,0,0,0,0,0,0,0,0,-1,1791,1016,0,0
574,8,0,0,0,0,0,0,0,0,0,-1,1798,1016,0,0
581,8,0,0,0,0,0,0,0,0,0,-1,1805,1016,0,0
588,8,0,0,0,0,0,0,0,0,0,-1,1812,1016,0,0
595,8,0,0,0,0,0,0,0,0,0,-1,1819,1016,0,0
602,8,0,0,0,0,0,0,0,0,0,-1,1826,1016,0,0
609,8,0,0,0,0,0,0,0,0,0,-1,1833,1016,0,0
616,8,0,0,0,0,0,0,0,0,0,-1,1840,1016,0,0
623,8,0,0,0,0,0,0,0,0,0,-1,1847,1016,0,0
630,8,0,0,0,0,0,0,0,0,0,-1,1854,1016,0,0
637,8,0,0,0,0,0,0,0,0,0,-1,1861,1016,0,0
644,8,16.1542,2.04858,0.00133975,0.00500618,0.00514456,0.00863439,-0.00228846,0.956554,0.00665162,0.043756,1868,1016,16.1542,-2.04858
651,8,16.2422,2.22302,0.00123897,0.00373054,0.00307345,0.00580109,-0.00083158,0.977947,0.00417231,0.0410062,1875,1016,16.2422,-2.22301
658,8,16.2174,2.50702,0.00102923,0.00263052,0.00163405,0.00364953,1.02196e-05,1.0132,0.00242962,0.0386163,1882,1016,16.2174,-2.50704
665,8,16.1073,2.5437,0.000730964,0.00190914,0.000724335,0.00225369,0.00038641,1.12679,0.00139165,0.0385204,1889,1016,16.1073,-2.54372
672,8,16.1083,2.42603,0.000268865,0.00142489,0.000612463,0.00168903,4.73141e-06,1.16363,0.00112444,0.0393019,1896,1016,16.1083,-2.42601
679,8,16.2834,2.24811,-0.000677634,0.00109486,0.00112221,0.00163858,-0.00122135,1.11962,0.00165703,0.0380301,1903,1016,16.2834,-2.24809
686,8,16.2867,2.05096,-0.00168215,0.000853961,0.00186698,0.0018428,-0.00267099,1.08371,0.00262062,0.0411799,1910,1016,16.2868,-2.05097
693,8,16.1337,2.05865,-0.00257204,0.000691499,0.00266705,0.00218636,-0.00406691,1.05993,0.00366434,0.0401961,1917,1016,16.1337,-2.05866
700,8,16.1011,2.27118,-0.00339962,0.000480187,0.00340363,0.00245793,-0.00537736,1.04441,0.00462719,0.0301633,1924,1016,16.101,-2.27115
707,8,16.1256,2.27905,-0.00395939,0.000601978,0.00381505,0.00276608,-0.00612349,1.0548,0.00525299,0.0215829,1931,1016,16.1257,-2.27904
714,8,16.1544,2.2807,-0.00442056,0.000505613,0.00415226,0.00287036,-0.00678531,1.0531,0.00572541,0.0239839,1938,1016,16.1545,-2.28072
721,8,16.1853,2.64459,0,0,0,0,0,0,0,-1,1945,1016,16.1853,-2.64457
728,8,15.8428,2.99951,-0.00502504,0.00065609,0.00469647,0.00330421,-0.00767316,1.05738,0.00650295,0.0252066,1952,1016,15.8428,-2.99953
735,8,15.746,3.14978,-0.00509281,0.000926723,0.00437164,0.00322449,-0.00739058,1.08687,0.00628397,0.0161649,1959,1016,15.746,-3.14978
742,8,15.7616,3.1626,-0.00530174,0.0015823,0.00359626,0.00311829,-0.00683773,1.16714,0.0058803,0.0142889,1966,1016,15.7616,-3.16261
749,8,15.7651,3.19495,-0.00598931,0.00201574,0.00265287,0.00281508,-0.00678865,1.27814,0.00570072,0.00977154,1973,1016,15.7651,-3.19495
756,8,15.7739,3.21399,-0.00780822,0.00377398,0.00109977,0.00387749,-0.00791173,1.47696,0.00693807,0.0121746,1980,1016,15.774,-3.21399
763,8,15.7778,3.23944,-0.0106529,0.00586103,-0.0011527,0.0059411,-0.010733,-1.50144,0.00975842,0.0135429,1987,1016,15.7778,-3.23943
770,8,15.7661,3.26727,-0.013958,0.00825593,-0.00353647,0.00880535,-0.0145074,-1.41667,0.0135932,0.0137901,1994,1016,15.7662,-3.26726
777,8,15.7446,3.32141,-0.0185817,0.0114831,-0.00633825,0.0127647,-0.0198633,-1.37129,0.0189858,0.0172911,2001,1016,15.7446,-3.32141
784,8,15.7131,3.37262,-0.0250335,0.0156136,-0.00952142,0.0177334,-0.0271533,-1.35173,0.0261049,0.0363255,2008,1016,15.7131,-3.37263
791,8,15.6399,3.37549,-0.0335138,0.0207533,-0.0134381,0.0238986,-0.0366592,-1.34087,0.0352208,0.0480604,2015,1016,15.64,-3.37547
798,8,15.895,2.61145,0,0,0,0,0,0,0,-1,2022,1016,15.895,-2.61146
805,8,15.535,2.34625,0,0,0,0,0,0,0,-1,2029,1016,15.5351,-2.34626
812,8,14.937,2.60077,0,0,0,0,0,0,0,-1,2036,1016,14.9369,-2.60077
-700,1,0,0,0,0,0,0,0,0,0,-1,524,1023,0,0
-693,1,-7.96362,0.530212,0,0,0,0,0,0,0,-1,531,1023,-7.96364,-0.530225
-686,1,-8.14789,0.724487,-0.0061657,0.0819348,0.0178299,0.0854064,-0.00963733,1.37849,0.0604069,0.0486989,538,1023,-8.1479,-0.724514
-679,1,-8.33545,0.654419,-0.00685574,0.0641048,0.0135119,0.0665906,-0.00934152,1.38886,0.0478127,0.0485352,545,1023,-8.33544,-0.654398
-672,1,-8.91064,0.358032,-0.00673561,0.0495625,0.0104013,0.0514228,-0.00859584,1.39382,0.0374772,0.0446186,552,1023,-8.91066,-0.358033
-665,1,-9.61456,0.712158,-0.00613997,0.0377626,0.00806173,0.0391962,-0.00757352,1.39481,0.028987,0.0404482,559,1023,-9.61456,-0.712155
-658,1,-9.87579,0.928955,-0.00532069,0.0282643,0.00622986,0.0293827,-0.00643905,1.39317,0.0220505,0.0310694,566,1023,-9.87579,-0.928934
-651,1,-10.0195,1.04578,-0.00442147,0.0207019,0.00471742,0.0215585,-0.00527806,1.39117,0.016417,0.0151391,573,1023,-10.0195,-1.0458
-644,1,-9.99719,1.08032,-0.00353458,0.0147528,0.00326392,0.0153179,-0.00409966,1.39937,0.011818,0.0141829,580,1023,-9.99721,-1.08033
-637,1,-10.0349,1.04626,-0.00290845,0.00916582,0.00130465,0.00930518,-0.00304781,1.46438,0.00743075,0.0117994,587,1023,-10.0349,-1.04627
-630,1,-10.0831,1.01752,-0.00243683,0.00574008,0.000168274,0.00574355,-0.00244029,1.55023,0.00485154,0.0128262,594,1023,-10.0831,-1.01754
-623,1,-10.0721,1.02222,-0.00172628,0.00301109,-0.000429148,0.00304965,-0.00176484,-1.48118,0.00281245,0.0114455,601,1023,-10.0721,-1.02223
-616,1,-10.0589,1.03046,-0.000955971,0.00158408,-0.0013034,0.0021339,-0.00150579,-1.17161,0.00211178,0.0145937,608,1023,-10.0589,-1.03045
-609,1,-10.0441,1.039,-0.000476203,0.000145004,-0.00214607,0.00200283,-0.00233403,-0.857265,0.00250632,0.0173157,615,1023,-10.0441,-1.03897
-602,1,-10.0692,1.01013,-0.000424067,-0.000387672,-0.00297115,0.00256533,-0.00337707,-0.78846,0.0034415,0.013523,622,1023,-10.0692,-1.01015
-595,1,-10.0598,0.975769,-0.000208348,-0.000656161,-0.00331444,0.00288974,-0.00375425,-0.751672,0.00384672,0.0144197,629,1023,-10.0598,-0.975768
-588,1,-10.0524,0.772034,1.55838e-06,-0.000883719,-0.00329731,0.0028858,-0.00376796,-0.718676,0.00385279,0.0214026,636,1023,-10.0524,-0.772057
-581,1,-10.0544,0.585083,0.000257443,-0.000871682,-0.00321006,0.00295221,-0.00356645,-0.698352,0.00376911,0.0264936,643,1023,-10.0545,-0.585063
-574,1,-10.0748,0.671082,0.000409336,-0.000851545,-0.00299986,0.00284429,-0.0032865,-0.681827,0.00354268,0.0363126,650,1023,-10.0748,-0.671101
-567,1,-10.0291,0.520752,0.000583848,-0.000720824,-0.00258208,0.00259472,-0.0027317,-0.661668,0.00307555,0.0434639,657,1023,-10.0291,-0.520769
-560,1,-10.0908,0.546326,0.000747183,-0.000469678,-0.00200444,0.0022335,-0.00195599,-0.638047,0.00242057,0.0416587,664,1023,-10.0908,-0.546348
-553,1,-9.98914,0.530579,0.000851599,-9.2909e-05,-0.00129817,0.00176075,-0.00100206,-0.610948,0.00161503,0.0398058,671,1023,-9.98915,-0.530585
-546,1,-9.74841,0.362427,0.000846652,0.000412276,-0.000520594,0.00119355,6.53814e-05,-0.587779,0.000774824,0.0407862,678,1023,-9.74843,-0.362402
-539,1,-9.89185,0.285095,0.000688585,0.00104126,4.22782e-06,0.00104131,0.000688534,1.55881,0.000611532,0.0425111,685,1023,-9.89185,-0.285086
-532,1,-10.0468,0.336365,0.000107329,0.0019839,-0.000277348,0.00202403,6.71966e-05,-1.42709,0.00132752,0.0425845,692,1023,-10.0468,-0.336386
-525,1,0,0,0,0,0,0,0,0,0,-1,699,1023,0,0
-518,1,0,0,0,0,0,0,0,0,0,-1,706,1023,0,0
-511,1,0,0,0,0,0,0,0,0,0,-1,713,1023,0,0
-504,1,0,0,0,0,0,0,0,0,0,-1,720,1023,0,0
-497,1,0,0,0,0,0,0,0,0,0,-1,727,1023,0,0
-490,1,0,0,0,0,0,0,0,0,0,-1,734,1023,0,0
-483,1,0,0,0,0,0,0,0,0,0,-1,741,1023,0,0
-476,1,0,0,0,0,0,0,0,0,0,-1,748,1023,0,0
-469,1,0,0,0,0,0,0,0,0,0,-1,755,1023,0,0
-462,1,0,0,0,0,0,0,0,0,0,-1,762,1023,0,0
-455,1,0,0,0,0,0,0,0,0,0,-1,769,1023,0,0
-448,1,0,0,0,0,0,0,0,0,0,-1,776,1023,0,0
-441,1,0,0,0,0,0,0,0,0,0,-1,783,1023,0,0
-434,1,0,0,0,0,0,0,0,0,0,-1,790,1023,0,0
-427,1,0,0,0,0,0,0,0,0,0,-1,797,1023,0,0
-420,1,0,0,0,0,0,0,0,0,0,-1,804,1023,0,0
-413,1,0,0,0,0,0,0,0,0,0,-1,811,1023,0,0
-406,1,0,0,0,0,0,0,0,0,0,-1,818,1023,0,0
-399,1,0,0,0,0,0,0,0,0,0,-1,825,1023,0,0
-392,1,0,0,0,0,0,0,0,0,0,-1,832,1023,0,0
-385,1,0,0,0,0,0,0,0,0,0,-1,839,1023,0,0
-378,1,0,0,0,0,0,0,0,0,0,-1,846,1023,0,0
-371,1,0,0,0,0,0,0,0,0,0,-1,853,1023,0,0
-364,1,0,0,0,0,0,0,0,0,0,-1,860,1023,0,0
-357,1,0,0,0,0,0,0,0,0,0,-1,867,1023,0,0
-350,1,0,0,0,0,0,0,0,0,0,-1,874,1023,0,0
-343,1,0,0,0,0,0,0,0,0,0,-1,881,1023,0,0
-336,1,0,0,0,0,0,0,0,0,0,-1,888,1023,0,0
-329,1,0,0,0,0,0,0,0,0,0,-1,895,1023,0,0
-322,1,0,0,0,0,0,0,0,0,0,-1,902,1023,0,0
-315,1,0,0,0,0,0,0,0,0,0,-1,909,1023,0,0
-308,1,0,0,0,0,0,0,0,0,0,-1,916,1023,0,0
-301,1,0,0,0,0,0,0,0,0,0,-1,923,1023,0,0
-294,1,0,0,0,0,0,0,0,0,0,-1,930,1023,0,0
-287,1,0,0,0,0,0,0,0,0,0,-1,937,1023,0,0
-280,1,0,0,0,0,0,0,0,0,0,-1,944,1023,0,0
-273,1,0,0,0,0,0,0,0,0,0,-1,951,1023,0,0
-266,1,0,0,0,0,0,0,0,0,0,-1,958,1023,0,0
-259,1,0,0,0,0,0,0,0,0,0,-1,965,1023,0,0
-252,1,0,0,0,0,0,0,0,0,0,-1,972,1023,0,0
-245,1,0,0,0,0,0,0,0,0,0,-1,979,1023,0,0
-238,1,0,0,0,0,0,0,0,0,0,-1,986,1023,0,0
-231,1,0,0,0,0,0,0,0,0,0,-1,993,1023,0,0
-224,1,0,0,0,0,0,0,0,0,0,-1,1000,1023,0,0
-217,1,0,0,0,0,0,0,0,0,0,-1,1007,1023,0,0
-210,1,0,0,0,0,0,0,0,0,0,-1,1014,1023,0,0
-203,1,0,0,0,0,0,0,0,0,0,-1,1021,1023,0,0
-196,1,0,0,0,0,0,0,0,0,0,-1,1028,1023,0,0
-189,1,0,0,0,0,0,0,0,0,0,-1,1035,1023,0,0
-182,1,0,0,0,0,0,0,0,0,0,-1,1042,1023,0,0
-175,1,0,0,0,0,0,0,0,0,0,-1,1049,1023,0,0
-168,1,0,0,0,0,0,0,0,0,0,-1,1056,1023,0,0
-161,1,0,0,0,0,0,0,0,0,0,-1,1063,1023,0,0
-154,1,0,0,0,0,0,0,0,0,0,-1,1070,1023,0,0
-147,1,0,0,0,0,0,0,0,0,0,-1,1077,1023,0,0
-140,1,0,0,0,0,0,0,0,0,0,-1,1084,1023,0,0
-133,1,0,0,0,0,0,0,0,0,0,-1,1091,1023,0,0
-126,1,0,0,0,0,0,0,0,0,0,-1,1098,1023,0,0
-119,1,0,0,0,0,0,0,0,0,0,-1,1105,1023,0,0
-112,1,0,0,0,0,0,0,0,0,0,-1,1112,1023,0,0
-105,1,0,0,0,0,0,0,0,0,0,-1,1119,1023,0,0
-98,1,0,0,0,0,0,0,0,0,0,-1,1126,1023,0,0
-91,1,0,0,0,0,0,0,0,0,0,-1,1133,1023,0,0
-84,1,0,0,0,0,0,0,0,0,0,-1,1140,1023,0,0
-77,1,0,0,0,0,0,0,0,0,0,-1,1147,1023,0,0
-70,1,0,0,0,0,0,0,0,0,0,-1,1154,1023,0,0
-63,1,0,0,0,0,0,0,0,0,0,-1,1161,1023,0,0
-56,1,0,0,0,0,0,0,0,0,0,-1,1168,1023,0,0
-49,1,0,0,0,0,0,0,0,0,0,-1,1175,1023,0,0
-42,1,0,0,0,0,0,0,0,0,0,-1,1182,1023,0,0
-35,1,0,0,0,0,0,0,0,0,0,-1,1189,1023,0,0
-28,1,0,0,0,0,0,0,0,0,0,-1,1196,1023,0,0
-21,1,0,0,0,0,0,0,0,0,0,-1,1203,1023,0,0
-14,1,0,0,0,0,0,0,0,0,0,-1,1210,1023,0,0
-7,1,0,0,0,0,0,0,0,0,0,-1,1217,1023,0,0
0,1,0,0,0,0,0,0,0,0,0,-1,1224,1023,0,0
7,1,0,0,0,0,0,0,0,0,0,-1,1231,1023,0,0
14,1,0,0,0,0,0,0,0,0,0,-1,1238,1023,0,0
21,1,0,0,0,0,0,0,0,0,0,-1,1245,1023,0,0
28,1,0,0,0,0,0,0,0,0,0,-1,1252,1023,0,0
35,1,0,0,0,0,0,0,0,0,0,-1,1259,1023,0,0
42,1,0,0,0,0,0,0,0,0,0,-1,1266,1023,0,0
49,1,0,0,0,0,0,0,0,0,0,-1,1273,1023,0,0
56,1,0,0,0,0,0,0,0,0,0,-1,1280,1023,0,0
63,1,0,0,0,0,0,0,0,0,0,-1,1287,1023,0,0
70,1,0,0,0,0,0,0,0,0,0,-1,1294,1023,0,0
77,1,0,0,0,0,0,0,0,0,0,-1,1301,1023,0,0
84,1,0,0,0,0,0,0,0,0,0,-1,1308,1023,0,0
91,1,0,0,0,0,0,0,0,0,0,-1,1315,1023,0,0
98,1,0,0,0,0,0,0,0,0,0,-1,1322,1023,0,0
105,1,0,0,0,0,0,0,0,0,0,-1,1329,1023,0,0
112,1,0,0,0,0,0,0,0,0,0,-1,1336,1023,0,0
119,1,0,0,0,0,0,0,0,0,0,-1,1343,1023,0,0
126,1,0,0,0,0,0,0,0,0,0,-1,1350,1023,0,0
133,1,0,0,0,0,0,0,0,0,0,-1,1357,1023,0,0
140,1,0,0,0,0,0,0,0,0,0,-1,1364,1023,0,0
147,1,0,0,0,0,0,0,0,0,0,-1,1371,1023,0,0
154,1,0,0,0,0,0,0,0,0,0,-1,1378,1023,0,0
161,1,0,0,0,0,0,0,0,0,0,-1,1385,1023,0,0
168,1,0,0,0,0,0,0,0,0,0,-1,1392,1023,0,0
175,1,0,0,0,0,0,0,0,0,0,-1,1399,1023,0,0
182,1,0,0,0,0,0,0,0,0,0,-1,1406,1023,0,0
189,1,0,0,0,0,0,0,0,0,0,-1,1413,1023,0,0
196,1,0,0,0,0,0,0,0,0,0,-1,1420,1023,0,0
203,1,0,0,0,0,0,0,0,0,0,-1,1427,1023,0,0
210,1,0,0,0,0,0,0,0,0,0,-1,1434,1023,0,0
217,1,0,0,0,0,0,0,0,0,0,-1,1441,1023,0,0
224,1,0,0,0,0,0,0,0,0,0,-1,1448,1023,0,0
231,1,0,0,0,0,0,0,0,0,0,-1,1455,1023,0,0
238,1,0,0,0,0,0,0,0,0,0,-1,1462,1023,0,0
245,1,0,0,0,0,0,0,0,0,0,-1,1469,1023,0,0
252,1,0,0,0,0,0,0,0,0,0,-1,1476,1023,0,0
259,1,0,0,0,0,0,0,0,0,0,-1,1483,1023,0,0
266,1,0,0,0,0,0,0,0,0,0,-1,1490,1023,0,0
273,1,0,0,0,0,0,0,0,0,0,-1,1497,1023,0,0
280,1,0,0,0,0,0,0,0,0,0,-1,1504,1023,0,0
287,1,0,0,0,0,0,0,0,0,0,-1,1511,1023,0,0
294,1,0,0,0,0,0,0,0,0,0,-1,1518,1023,0,0
301,1,0,0,0,0,0,0,0,0,0,-1,1525,1023,0,0
308,1,0,0,0,0,0,0,0,0,0,-1,1532,1023,0,0
315,1,0,0,0,0,0,0,0,0,0,-1,1539,1023,0,0
322,1,0,0,0,0,0,0,0,0,0,-1,1546,1023,0,0
329,1,0,0,0,0,0,0,0,0,0,-1,1553,1023,0,0
336,1,0,0,0,0,0,0,0,0,0,-1,1560,1023,0,0
343,1,0,0,0,0,0,0,0,0,0,-1,1567,1023,0,0
350,1,0,0,0,0,0,0,0,0,0,-1,1574,1023,0,0
357,1,0,0,0,0,0,0,0,0,0,-1,1581,1023,0,0
364,1,0,0,0,0,0,0,0,0,0,-1,1588,1023,0,0
371,1,0,0,0,0,0,0,0,0,0,-1,1595,1023,0,0
378,1,0,0,0,0,0,0,0,0,0,-1,1602,1023,0,0
385,1,0,0,0,0,0,0,0,0,0,-1,1609,1023,0,0
392,1,0,0,0,0,0,0,0,0,0,-1,1616,1023,0,0
399,1,0,0,0,0,0,0,0,0,0,-1,1623,1023,0,0
406,1,0,0,0,0,0,0,0,0,0,-1,1630,1023,0,0
413,1,0,0,0,0,0,0,0,0,0,-1,1637,1023,0,0
420,1,0,0,0,0,0,0,0,0,0,-1,1644,1023,0,0
427,1,0,0,0,0,0,0,0,0,0,-1,1651,1023,0,0
434,1,0,0,0,0,0,0,0,0,0,-1,1658,1023,0,0
441,1,0,0,0,0,0,0,0,0,0,-1,1665,1023,0,0
448,1,0,0,0,0,0,0,0,0,0,-1,1672,1023,0,0
455,1,0,0,0,0,0,0,0,0,0,-1,1679,1023,0,0
462,1,0,0,0,0,0,0,0,0,0,-1,1686,1023,0,0
469,1,0,0,0,0,0,0,0,0,0,-1,1693,1023,0,0
476,1,0,0,0,0,0,0,0,0,0,-1,1700,1023,0,0
483,1,0,0,0,0,0,0,0,0,0,-1,1707,1023,0,0
490,1,0,0,0,0,0,0,0,0,0,-1,1714,1023,0,0
497,1,0,0,0,0,0,0,0,0,0,-1,1721,1023,0,0
504,1,0,0,0,0,0,0,0,0,0,-1,1728,1023,0,0
511,1,0,0,0,0,0,0,0,0,0,-1,1735,1023,0,0
518,1,0,0,0,0,0,0,0,0,0,-1,1742,1023,0,0
525,1,0,0,0,0,0,0,0,0,0,-1,1749,1023,0,0
532,1,0,0,0,0,0,0,0,0,0,-1,1756,1023,0,0
539,1,0,0,0,0,0,0,0,0,0,-1,1763,1023,0,0
546,1,0,0,0,0,0,0,0,0,0,-1,1770,1023,0,0
553,1,0,0,0,0,0,0,0,0,0,-1,1777,1023,0,0
560,1,0,0,0,0,0,0,0,0,0,-1,1784,1023,0,0
567,1,0,0,0,0,0,0,0,0,0,-1,1791,1023,0,0
574,1,0,0,0,0,0,0,0,0,0,-1,1798,1023,0,0
581,1,0,0,0,0,0,0,0,0,0,-1,1805,1023,0,0
588,1,0,0,0,0,0,0,0,0,0,-1,1812,1023,0,0
595,1,0,0,0,0,0,0,0,0,0,-1,1819,1023,0,0
602,1,0,0,0,0,0,0,0,0,0,-1,1826,1023,0,0
609,1,0,0,0,0,0,0,0,0,0,-1,1833,1023,0,0
616,1,0,0,0,0,0,0,0,0,0,-1,1840,1023,0,0
623,1,0,0,0,0,0,0,0,0,0,-1,1847,1023,0,0
630,1,0,0,0,0,0,0,0,0,0,-1,1854,1023,0,0
637,1,0,0,0,0,0,0,0,0,0,-1,1861,1023,0,0
644,1,0,0,0,0,0,0,0,0,0,-1,1868,1023,0,0
651,1,16.2003,2.35956,0.000366301,0.00417446,0.00331077,0.00608964,-0.00154888,1.04636,0.00466261,0.0396077,1875,1023,16.2003,-2.35955
658,1,16.1152,2.71167,0.000437727,0.0029601,0.00198353,0.00404945,-0.000651618,1.06857,0.002941,0.0416815,1882,1023,16.1152,-2.71169
665,1,16.0372,2.63586,0.000340374,0.0021135,0.00104279,0.00259566,-0.000141788,1.1377,0.00177959,0.042953,1889,1023,16.0372,-2.63589
672,1,16.24,2.37756,6.21789e-05,0.0015225,0.000881785,0.00193719,-0.000352509,1.1312,0.00142358,0.0413509,1896,1023,16.24,-2.37757
679,1,16.2844,2.24457,-0.000745183,0.00108997,0.00137132,0.00182238,-0.0014776,1.08025,0.00190871,0.0388788,1903,1023,16.2845,-2.24459
686,1,16.1409,2.28748,-0.00167308,0.000763808,0.00210292,0.00197577,-0.00288505,1.04797,0.00282271,0.0379442,1910,1023,16.1408,-2.2875
693,1,16.1116,2.32849,-0.00251127,0.000534464,0.00289386,0.0022817,-0.0042585,1.02761,0.00383305,0.0347782,1917,1023,16.1115,-2.3285
700,1,16.1649,2.35095,-0.00330189,0.000287135,0.00362981,0.00254179,-0.00555655,1.01497,0.00478235,0.0297735,1924,1023,16.1649,-2.35094
707,1,16.1776,2.27838,-0.00380913,0.000360599,0.00407232,0.00285072,-0.00629925,1.02198,0.00540636,0.0236724,1931,1023,16.1777,-2.27841
714,1,16.1451,2.22296,-0.0042501,0.000238026,0.00442569,0.00295608,-0.00696815,1.02004,0.00588376,0.0227965,1938,1023,16.1451,-2.22296
721,1,16.1936,2.53961,-0.00465768,0.000237868,0.00477909,0.00315957,-0.00757938,1.02207,0.00637277,0.0279359,1945,1023,16.1936,-2.5396
728,1,15.8615,3.00739,-0.00490072,0.000391067,0.00491963,0.00333118,-0.00784083,1.03212,0.00662301,0.0214266,1952,1023,15.8615,-3.00737
735,1,15.778,3.13519,-0.00490075,0.000708472,0.00456543,0.00326194,-0.00745422,1.06084,0.00634283,0.0136341,1959,1023,15.7779,-3.13519
742,1,15.7898,3.14948,-0.00498608,0.00134099,0.00370952,0.00305275,-0.00669784,1.13846,0.00575913,0.0133507,1966,1023,15.7898,-3.14948
749,1,15.7821,3.17249,-0.00544566,0.00166451,0.00262795,0.00253037,-0.00631151,1.25252,0.00525815,0.0113197,1973,1023,15.7821,-3.17246
756,1,15.7935,3.19464,-0.0068724,0.00311539,0.000777228,0.00317551,-0.00693252,1.4936,0.00596873,0.0116811,1980,1023,15.7934,-3.19465
763,1,15.7953,3.22675,-0.00920391,0.00459535,-0.00190977,0.00485478,-0.00946333,-1.43578,0.00840809,0.0138307,1987,1023,15.7953,-3.22676
770,1,15.7903,3.24628,-0.0118616,0.00634633,-0.00481659,0.00754197,-0.0130572,-1.32748,0.0120342,0.013058,1994,1023,15.7903,-3.24626
777,1,15.7736,3.26373,-0.0156103,0.00866059,-0.00834203,0.0112513,-0.018201,-1.26968,0.0171613,0.0141377,2001,1023,15.7736,-3.26372
784,1,15.7474,3.31543,-0.0209619,0.0115172,-0.0124223,0.0157236,-0.0251683,-1.2443,0.0238179,0.0350893,2008,1023,15.7474,-3.31543
791,1,15.7244,3.37323,0,0,0,0,0,0,0,-1,2015,1023,15.7244,-3.37323
798,1,15.4686,1.7533,-0.0370152,0.0190158,-0.023949,0.027857,-0.0458565,-1.21715,0.0429794,0.0438035,2022,1023,15.4686,-1.75327
805,1,15.3845,2.46979,-0.0477469,0.0237509,-0.0323163,0.0361925,-0.0601885,-1.20329,0.0562176,0.044435,2029,1023,15.3845,-2.46979
812,1,15.3274,2.75153,-0.0606606,0.0291595,-0.0431079,0.0465006,-0.0780017,-1.18833,0.0726443,0.0461159,2036,1023,15.3273,-2.75153
-700,-6,0,0,0,0,0,0,0,0,0,-1,524,1030,0,0
-693,-6,-7.67535,0.770264,0.00245035,0.0918496,0.0327777,0.10258,-0.0082796,1.25444,0.0713066,0.0421062,531,1030,-7.67537,-0.770267
-686,-6,-7.40515,1.09607,-0.00126986,0.0734943,0.0244577,0.0807843,-0.00855989,1.28111,0.0569244,0.0433789,538,1030,-7.40514,-1.09611
-679,-6,-7.47552,0.320557,-0.00342692,0.0583914,0.0183721,0.0634393,-0.00847481,1.30265,0.0453823,0.0457801,545,1030,-7.4755,-0.320612
-672,-6,-8.13354,-0.131104,-0.00445034,0.0459097,0.0138358,0.0494605,-0.00800121,1.31958,0.0359389,0.0481251,552,1030,-8.13356,0.131131
-665,-6,-9.61975,0.114014,-0.00471173,0.0355931,0.010383,0.0381106,-0.00722927,1.33292,0.0281282,0.0428003,559,1030,-9.61975,-0.114056
-658,-6,-9.74976,0.516479,-0.00451041,0.0271048,0.0077166,0.0288877,-0.00629333,1.34373,0.0216631,0.0371152,566,1030,-9.74975,-0.516478
-651,-6,-10.0181,1.10767,-0.00403632,0.0201812,0.00560974,0.0214175,-0.00527264,1.35388,0.0163223,0.0336332,573,1030,-10.0181,-1.10771
-644,-6,-10.0066,1.08069,-0.00341522,0.0145916,0.00373945,0.0153373,-0.0041609,1.37397,0.0118577,0.0265328,580,1030,-10.0066,-1.08067
-637,-6,-10.0574,1.05908,-0.00297262,0.00933593,0.00144576,0.00950347,-0.00314016,1.45543,0.00760173,0.0154786,587,1030,-10.0575,-1.05905
-630,-6,-10.0845,1.01941,-0.00256794,0.00600382,0.000112603,0.0060053,-0.00256942,1.55766,0.00508137,0.012342,594,1030,-10.0845,-1.01945
-623,-6,-10.075,1.01819,-0.00191745,0.00327698,-0.000644455,0.00335574,-0.00199621,-1.44919,0.00312301,0.012163,601,1030,-10.075,-1.01821
-616,-6,-10.0542,1.03284,-0.00112748,0.00167791,-0.00166686,0.00245374,-0.00190331,-1.13517,0.00252222,0.0133027,608,1030,-10.0542,-1.03286
-609,-6,-10.0296,1.05212,-0.000539493,0.000136873,-0.00241413,0.00223639,-0.00263901,-0.854988,0.00281801,0.0157279,615,1030,-10.0296,-1.05213
-602,-6,-10.0505,1.02515,-0.000424001,-0.000411563,-0.00317516,0.00275739,-0.00359295,-0.786377,0.00367693,0.0126885,622,1030,-10.0505,-1.0251
-595,-6,-10.0192,1.00952,-0.000179276,-0.000699981,-0.00350963,0.00307964,-0.0039589,-0.748375,0.00407426,0.0134372,629,1030,-10.0192,-1.00947
-588,-6,-10.0342,0.742432,4.0628e-05,-0.00088428,-0.00349677,0.0031054,-0.00394905,-0.719654,0.00408258,0.0151148,636,1030,-10.0342,-0.742395
-581,-6,-10.0831,0.534668,0.000301463,-0.000815075,-0.0034026,0.00319128,-0.0037049,-0.704087,0.00398519,0.0225301,643,1030,-10.0831,-0.534686
-574,-6,-10.103,0.66394,0.000462717,-0.000718152,-0.00315482,0.00308188,-0.00333731,-0.692892,0.0037071,0.032693,650,1030,-10.103,-0.663918
-567,-6,-10.0592,0.775513,0.000631345,-0.000496593,-0.00268859,0.00281448,-0.00267973,-0.682015,0.0031724,0.0419455,657,1030,-10.0592,-0.775497
-560,-6,-10.0468,0.500732,0.000808475,-0.000153628,-0.00204521,0.00242845,-0.0017736,-0.669893,0.00243586,0.042519,664,1030,-10.0468,-0.50079
-553,-6,-9.8974,0.435547,0.00096399,0.000305982,-0.00125856,0.00193584,-0.000665863,-0.657552,0.0015606,0.0404729,671,1030,-9.89738,-0.435583
-546,-6,-9.88989,0.246704,0.00106328,0.000872051,-0.000388765,0.00136802,0.000567316,-0.664818,0.000793647,0.0406897,678,1030,-9.88987,-0.246683
-539,-6,-9.9248,0.357056,0.00110386,0.00151018,0.000204758,0.00159547,0.00101858,1.17614,0.000932836,0.0413254,685,1030,-9.9248,-0.357114
-532,-6,-9.99359,0.711182,0.000901531,0.00234791,-0.000114999,0.002357,0.000892444,-1.49195,0.00137411,0.0422087,692,1030,-9.99359,-0.711228
-525,-6,0,0,0,0,0,0,0,0,0,-1,699,1030,0,0
-518,-6,0,0,0,0,0,0,0,0,0,-1,706,1030,0,0
-511,-6,0,0,0,0,0,0,0,0,0,-1,713,1030,0,0
-504,-6,0,0,0,0,0,0,0,0,0,-1,720,1030,0,0
-497,-6,0,0,0,0,0,0,0,0,0,-1,727,1030,0,0
-490,-6,0,0,0,0,0,0,0,0,0,-1,734,1030,0,0
-483,-6,0,0,0,0,0,0,0,0,0,-1,741,1030,0,0
-476,-6,0,0,0,0,0,0,0,0,0,-1,748,1030,0,0
-469,-6,0,0,0,0,0,0,0,0,0,-1,755,1030,0,0
-462,-6,0,0,0,0,0,0,0,0,0,-1,762,1030,0,0
-455,-6,0,0,0,0,0,0,0,0,0,-1,769,1030,0,0
-448,-6,0,0,0,0,0,0,0,0,0,-1,776,1030,0,0
-441,-6,0,0,0,0,0,0,0,0,0,-1,783,1030,0,0
-434,-6,0,0,0,0,0,0,0,0,0,-1,790,1030,0,0
-427,-6,0,0,0,0,0,0,0,0,0,-1,797,1030,0,0
-420,-6,0,0,0,0,0,0,0,0,0,-1,804,1030,0,0
-413,-6,0,0,0,0,0,0,0,0,0,-1,811,1030,0,0
-406,-6,0,0,0,0,0,0,0,0,0,-1,818,1030,0,0
-399,-6,0,0,0,0,0,0,0,0,0,-1,825,1030,0,0
-392,-6,0,0,0,0,0,0,0,0,0,-1,832,1030,0,0
-385,-6,0,0,0,0,0,0,0,0,0,-1,839,1030,0,0
-378,-6,0,0,0,0,0,0,0,0,0,-1,846,1030,0,0
-371,-6,0,0,0,0,0,0,0,0,0,-1,853,1030,0,0
-364,-6,0,0,0,0,0,0,0,0,0,-1,860,1030,0,0
-357,-6,0,0,0,0,0,0,0,0,0,-1,867,1030,0,0
-350,-6,0,0,0,0,0,0,0,0,0,-1,874,1030,0,0
-343,-6,0,0,0,0,0,0,0,0,0,-1,881,1030,0,0
-336,-6,0,0,0,0,0,0,0,0,0,-1,888,1030,0,0
-329,-6,0,0,0,0,0,0,0,0,0,-1,895,1030,0,0
-322,-6,0,0,0,0,0,0,0,0,0,-1,902,1030,0,0
-315,-6,0,0,0,0,0,0,0,0,0,-1,909,1030,0,0
-308,-6,0,0,0,0,0,0,0,0,0,-1,916,1030,0,0
-301,-6,0,0,0,0,0,0,0,0,0,-1,923,1030,0,0
-294,-6,0,0,0,0,0,0,0,0,0,-1,930,1030,0,0
-287,-6,0,0,0,0,0,0,0,0,0,-1,937,1030,0,0
-280,-6,0,0,0,0,0,0,0,0,0,-1,944,1030,0,0
-273,-6,0,0,0,0,0,0,0,0,0,-1,951,1030,0,0
-266,-6,0,0,0,0,0,0,0,0,0,-1,958,1030,0,0
-259,-6,0,0,0,0,0,0,0,0,0,-1,965,1030,0,0
-252,-6,0,0,0,0,0,0,0,0,0,-1,972,1030,0,0
-245,-6,0,0,0,0,0,0,0,0,0,-1,979,1030,0,0
-238,-6,0,0,0,0,0,0,0,0,0,-1,986,1030,0,0
-231,-6,0,0,0,0,0,0,0,0,0,-1,993,1030,0,0
-224,-6,0,0,0,0,0,0,0,0,0,-1,1000,1030,0,0
-217,-6,0,0,0,0,0,0,0,0,0,-1,1007,1030,0,0
-210,-6,0,0,0,0,0,0,0,0,0,-1,1014,1030,0,0
-203,-6,0,0,0,0,0,0,0,0,0,-1,1021,1030,0,0
-196,-6,0,0,0,0,0,0,0,0,0,-1,1028,1030,0,0
-189,-6,0,0,0,0,0,0,0,0,0,-1,1035,1030,0,0
-182,-6,0,0,0,0,0,0,0,0,0,-1,1042,1030,0,0
-175,-6,0,0,0,0,0,0,0,0,0,-1,1049,1030,0,0
-168,-6,0,0,0,0,0,0,0,0,0,-1,1056,1030,0,0
-161,-6,0,0,0,0,0,0,0,0,0,-1,1063,1030,0,0
-154,-6,0,0,0,0,0,0,0,0,0,-1,1070,1030,0,0
-147,-6,0,0,0,0,0,0,0,0,0,-1,1077,1030,0,0
-140,-6,0,0,0,0,0,0,0,0,0,-1,1084,1030,0,0
-133,-6,0,0,0,0,0,0,0,0,0,-1,1091,1030,0,0
-126,-6,0,0,0,0,0,0,0,0,0,-1,1098,1030,0,0
-119,-6,0,0,0,0,0,0,0,0,0,-1,1105,1030,0,0
-112,-6,0,0,0,0,0,0,0,0,0,-1,1112,1030,0,0
-105,-6,0,0,0,0,0,0,0,0,0,-1,1119,1030,0,0
-98,-6,0,0,0,0,0,0,0,0,0,-1,1126,1030,0,0
-91,-6,0,0,0,0,0,0,0,0,0,-1,1133,1030,0,0
-84,-6,0,0,0,0,0,0,0,0,0,-1,1140,1030,0,0
-77,-6,0,0,0,0,0,0,0,0,0,-1,1147,1030,0,0
-70,-6,0,0,0,0,0,0,0,0,0,-1,1154,1030,0,0
-63,-6,0,0,0,0,0,0,0,0,0,-1,1161,1030,0,0
-56,-6,0,0,0,0,0,0,0,0,0,-1,1168,1030,0,0
-49,-6,0,0,0,0,0,0,0,0,0,-1,1175,1030,0,0
-42,-6,0,0,0,0,0,0,0,0,0,-1,1182,1030,0,0
-35,-6,0,0,0,0,0,0,0,0,0,-1,1189,1030,0,0
-28,-6,0,0,0,0,0,0,0,0,0,-1,1196,1030,0,0
-21,-6,0,0,0,0,0,0,0,0,0,-1,1203,1030,0,0
-14,-6,0,0,0,0,0,0,0,0,0,-1,1210,1030,0,0
-7,-6,0,0,0,0,0,0,0,0,0,-1,1217,1030,0,0
0,-6,0,0,0,0,0,0,0,0,0,-1,1224,1030,0,0
7,-6,0,0,0,0,0,0,0,0,0,-1,1231,1030,0,0
14,-6,0,0,0,0,0,0,0,0,0,-1,1238,1030,0,0
21,-6,0,0,0,0,0,0,0,0,0,-1,1245,1030,0,0
28,-6,0,0,0,0,0,0,0,0,0,-1,1252,1030,0,0
35,-6,0,0,0,0,0,0,0,0,0,-1,1259,1030,0,0
42,-6,0,0,0,0,0,0,0,0,0,-1,1266,1030,0,0
49,-6,0,0,0,0,0,0,0,0,0,-1,1273,1030,0,0
56,-6,0,0,0,0,0,0,0,0,0,-1,1280,1030,0,0
63,-6,0,0,0,0,0,0,0,0,0,-1,1287,1030,0,0
70,-6,0,0,0,0,0,0,0,0,0,-1,1294,1030,0,0
77,-6,0,0,0,0,0,0,0,0,0,-1,1301,1030,0,0
84,-6,0,0,0,0,0,0,0,0,0,-1,1308,1030,0,0
91,-6,0,0,0,0,0,0,0,0,0,-1,1315,1030,0,0
98,-6,0,0,0,0,0,0,0,0,0,-1,1322,1030,0,0
105,-6,0,0,0,0,0,0,0,0,0,-1,1329,1030,0,0
112,-6,0,0,0,0,0,0,0,0,0,-1,1336,1030,0,0
119,-6,0,0,0,0,0,0,0,0,0,-1,1343,1030,0,0
126,-6,0,0,0,0,0,0,0,0,0,-1,1350,1030,0,0
133,-6,0,0,0,0,0,0,0,0,0,-1,1357,1030,0,0
140,-6,0,0,0,0,0,0,0,0,0,-1,1364,1030,0,0
147,-6,0,0,0,0,0,0,0,0,0,-1,1371,1030,0,0
154,-6,0,0,0,0,0,0,0,0,0,-1,1378,1030,0,0
161,-6,0,0,0,0,0,0,0,0,0,-1,1385,1030,0,0
168,-6,0,0,0,0,0,0,0,0,0,-1,1392,1030,0,0
175,-6,0,0,0,0,0,0,0,0,0,-1,1399,1030,0,0
182,-6,0,0,0,0,0,0,0,0,0,-1,1406,1030,0,0
189,-6,0,0,0,0,0,0,0,0,0,-1,1413,1030,0,0
196,-6,0,0,0,0,0,0,0,0,0,-1,1420,1030,0,0
203,-6,0,0,0,0,0,0,0,0,0,-1,1427,1030,0,0
210,-6,0,0,0,0,0,0,0,0,0,-1,1434,1030,0,0
217,-6,0,0,0,0,0,0,0,0,0,-1,1441,1030,0,0
224,-6,0,0,0,0,0,0,0,0,0,-1,1448,1030,0,0
231,-6,0,0,0,0,0,0,0,0,0,-1,1455,1030,0,0
238,-6,0,0,0,0,0,0,0,0,0,-1,1462,1030,0,0
245,-6,0,0,0,0,0,0,0,0,0,-1,1469,1030,0,0
252,-6,0,0,0,0,0,0,0,0,0,-1,1476,1030,0,0
259,-6,0,0,0,0,0,0,0,0,0,-1,1483,1030,0,0
266,-6,0,0,0,0,0,0,0,0,0,-1,1490,1030,0,0
273,-6,0,0,0,0,0,0,0,0,0,-1,1497,1030,0,0
280,-6,0,0,0,0,0,0,0,0,0,-1,1504,1030,0,0
287,-6,0,0,0,0,0,0,0,0,0,-1,1511,1030,0,0
294,-6,0,0,0,0,0,0,0,0,0,-1,1518,1030,0,0
301,-6,0,0,0,0,0,0,0,0,0,-1,1525,1030,0,0
308,-6,0,0,0,0,0,0,0,0,0,-1,1532,1030,0,0
315,-6,0,0,0,0,0,0,0,0,0,-1,1539,1030,0,0
322,-6,0,0,0,0,0,0,0,0,0,-1,1546,1030,0,0
329,-6,0,0,0,0,0,0,0,0,0,-1,1553,1030,0,0
336,-6,0,0,0,0,0,0,0,0,0,-1,1560,1030,0,0
343,-6,0,0,0,0,0,0,0,0,0,-1,1567,1030,0,0
350,-6,0,0,0,0,0,0,0,0,0,-1,1574,1030,0,0
357,-6,0,0,0,0,0,0,0,0,0,-1,1581,1030,0,0
364,-6,0,0,0,0,0,0,0,0,0,-1,1588,1030,0,0
371,-6,0,0,0,0,0,0,0,0,0,-1,1595,1030,0,0
378,-6,0,0,0,0,0,0,0,0,0,-1,1602,1030,0,0
385,-6,0,0,0,0,0,0,0,0,0,-1,1609,1030,0,0
392,-6,0,0,0,0,0,0,0,0,0,-1,1616,1030,0,0
399,-6,0,0,0,0,0,0,0,0,0,-1,1623,1030,0,0
406,-6,0,0,0,0,0,0,0,0,0,-1,1630,1030,0,0
413,-6,0,0,0,0,0,0,0,0,0,-1,1637,1030,0,0
420,-6,0,0,0,0,0,0,0,0,0,-1,1644,1030,0,0
427,-6,0,0,0,0,0,0,0,0,0,-1,1651,1030,0,0
434,-6,0,0,0,0,0,0,0,0,0,-1,1658,1030,0,0
441,-6,0,0,0,0,0,0,0,0,0,-1,1665,1030,0,0
448,-6,0,0,0,0,0,0,0,0,0,-1,1672,1030,0,0
455,-6,0,0,0,0,0,0,0,0,0,-1,1679,1030,0,0
462,-6,0,0,0,0,0,0,0,0,0,-1,1686,1030,0,0
469,-6,0,0,0,0,0,0,0,0,0,-1,1693,1030,0,0
476,-6,0,0,0,0,0,0,0,0,0,-1,1700,1030,0,0
483,-6,0,0,0,0,0,0,0,0,0,-1,1707,1030,0,0
490,-6,0,0,0,0,0,0,0,0,0,-1,1714,1030,0,0
497,-6,0,0,0,0,0,0,0,0,0,-1,1721,1030,0,0
504,-6,0,0,0,0,0,0,0,0,0,-1,1728,1030,0,0
511,-6,0,0,0,0,0,0,0,0,0,-1,1735,1030,0,0
518,-6,0,0,0,0,0,0,0,0,0,-1,1742,1030,0,0
525,-6,0,0,0,0,0,0,0,0,0,-1,1749,1030,0,0
532,-6,0,0,0,0,0,0,0,0,0,-1,1756,1030,0,0
539,-6,0,0,0,0,0,0,0,0,0,-1,1763,1030,0,0
546,-6,0,0,0,0,0,0,0,0,0,-1,1770,1030,0,0
553,-6,0,0,0,0,0,0,0,0,0,-1,1777,1030,0,0
560,-6,0,0,0,0,0,0,0,0,0,-1,1784,1030,0,0
567,-6,0,0,0,0,0,0,0,0,0,-1,1791,1030,0,0
574,-6,0,0,0,0,0,0,0,0,0,-1,1798,1030,0,0
581,-6,0,0,0,0,0,0,0,0,0,-1,1805,1030,0,0
588,-6,0,0,0,0,0,0,0,0,0,-1,1812,1030,0,0
595,-6,0,0,0,0,0,0,0,0,0,-1,1819,1030,0,0
602,-6,0,0,0,0,0,0,0,0,0,-1,1826,1030,0,0
609,-6,0,0,0,0,0,0,0,0,0,-1,1833,1030,0,0
616,-6,0,0,0,0,0,0,0,0,0,-1,1840,1030,0,0
623,-6,0,0,0,0,0,0,0,0,0,-1,1847,1030,0,0
630,-6,0,0,0,0,0,0,0,0,0,-1,1854,1030,0,0
637,-6,0,0,0,0,0,0,0,0,0,-1,1861,1030,0,0
644,-6,0,0,0,0,0,0,0,0,0,-1,1868,1030,0,0
651,-6,16.1412,2.43054,-0.000427693,0.00418793,0.00322972,0.00584963,-0.0020894,1.09561,0.00475189,0.0387668,1875,1030,16.1412,-2.43054
658,-6,16.0726,2.70667,-0.000130788,0.00307207,0.00209712,0.0041093,-0.00116801,1.11148,0.00320072,0.0433602,1882,1030,16.0726,-2.70662
665,-6,16.0914,2.65845,-6.14326e-05,0.00222854,0.0011962,0.00273942,-0.000572313,1.16716,0.00204394,0.0464465,1889,1030,16.0914,-2.65845
672,-6,16.3978,2.35364,-0.000184892,0.00160287,0.00103381,0.00207566,-0.000657681,1.14187,0.00164736,0.0425973,1896,1030,16.3979,-2.35365
679,-6,16.3101,2.45837,-0.000854796,0.00109739,0.00153979,0.0019444,-0.00170181,1.06789,0.00210669,0.0411649,1903,1030,16.31,-2.45842
686,-6,16.142,2.42749,-0.00169189,0.000691456,0.00228253,0.00207466,-0.0030751,1.02598,0.00299186,0.0370917,1910,1030,16.1419,-2.42744
693,-6,16.1956,2.45886,-0.00245363,0.000383395,0.00307606,0.00235225,-0.00442249,1.00144,0.00397181,0.0344,1917,1030,16.1956,-2.45892
700,-6,16.2544,2.43591,-0.00318191,8.79223e-05,0.00381568,0.00260419,-0.00569818,0.987803,0.00490307,0.0309557,1924,1030,16.2544,-2.43586
707,-6,16.1769,2.33606,-0.00361239,9.0473e-05,0.004289,0.00291059,-0.00643251,0.989151,0.00552051,0.0268573,1931,1030,16.1768,-2.33603
714,-6,16.1093,2.31665,-0.0040091,-6.99742e-05,0.00465642,0.0030163,-0.00709537,0.985476,0.00599422,0.0291542,1938,1030,16.1092,-2.31669
721,-6,16.092,2.75024,-0.00443086,-0.000105594,0.00497788,0.00315914,-0.00769559,0.990321,0.00644683,0.0306887,1945,1030,16.092,-2.75023
728,-6,15.8623,3.08582,-0.00467328,4.86493e-05,0.00507558,0.00328551,-0.00791014,1.00309,0.00664509,0.0252456,1952,1030,15.8623,-3.08581
735,-6,15.8193,3.13159,-0.00460498,0.000390756,0.00469891,0.00321446,-0.00742869,1.0297,0.00630334,0.0144733,1959,1030,15.8193,-3.13157
742,-6,15.8076,3.15552,-0.00458853,0.000999821,0.00380041,0.00292269,-0.0065114,1.10239,0.00557659,0.0118765,1966,1030,15.8076,-3.15549
749,-6,15.7897,3.17334,-0.0048416,0.00120688,0.00259051,0.0021647,-0.00579941,1.21665,0.00475502,0.0114513,1973,1030,15.7897,-3.17337
756,-6,15.8162,3.18408,-0.00590228,0.00240872,0.000442345,0.00243219,-0.00592576,1.51777,0.004964,0.0123465,1980,1030,15.8162,-3.18406
763,-6,15.8176,3.20532,-0.00780834,0.00339607,-0.00270934,0.00401682,-0.00842909,-1.34557,0.00733462,0.0114812,1987,1030,15.8176,-3.20528
770,-6,15.8007,3.2345,-0.00994676,0.00464876,-0.0061568,0.00689895,-0.012197,-1.2204,0.0111656,0.0105735,1994,1030,15.8007,-3.23446
777,-6,15.7803,3.24854,-0.0130203,0.0062367,-0.0104582,0.0108238,-0.0176074,-1.15746,0.0165698,0.0137777,2001,1030,15.7803,-3.24852
784,-6,15.7922,3.29773,-0.017522,0.00807002,-0.0155292,0.015396,-0.024848,-1.13,0.0234475,0.0354709,2008,1030,15.7922,-3.29769
791,-6,15.8057,3.36035,0,0,0,0,0,0,0,-1,2015,1030,15.8056,-3.3604
798,-6,15.3613,2.54309,-0.0314603,0.0124046,-0.0300033,0.027637,-0.0466927,-1.10101,0.0433818,0.0417366,2022,1030,15.3613,-2.54304
805,-6,15.4655,2.60193,-0.0409732,0.014824,-0.0405002,0.0361046,-0.0622538,-1.087,0.0574523,0.0425351,2029,1030,15.4654,-2.60191
812,-6,15.5959,2.65808,-0.0526324,0.0172489,-0.0539716,0.0466027,-0.0819862,-1.07267,0.0751719,0.0434883,2036,1030,15.596,-2.65811
-700,-13,0,0,0,0,0,0,0,0,0,-1,524,1037,0,0
-693,-13,-8.67767,0.187012,0.0097715,0.0816978,0.0439301,0.102508,-0.0110386,1.1284,0.0722996,0.0468072,531,1037,-8.67765,-0.186992
-686,-13,-8.49847,0.332153,0.00416603,0.066206,0.033322,0.0807118,-0.0103398,1.16022,0.0575648,0.0447526,538,1037,-8.49848,-0.332161
-679,-13,-8.67834,0.05896,0.000490221,0.0533039,0.0252066,0.0634031,-0.00960899,1.18972,0.0458089,0.0474967,545,1037,-8.67836,-0.0589566
-672,-13,-7.42889,-0.698486,-0.00172329,0.0424727,0.0189526,0.0494869,-0.00873753,1.21633,0.0362565,0.0494904,552,1037,-7.42889,0.698429
-665,-13,-8.07556,-1.29797,-0.00288476,0.0333592,0.0140945,0.038195,-0.0077206,1.24028,0.028389,0.0484805,559,1037,-8.07553,1.29793
-658,-13,-9.93036,1.2334,0,0,0,0,0,0,0,-1,566,1037,-9.93035,-1.23335
-651,-13,-9.98279,1.12073,-0.00333605,0.0193721,0.0073774,0.0215584,-0.00552232,1.28269,0.0165236,0.0421504,573,1037,-9.98278,-1.12077
-644,-13,-10.0143,1.03516,-0.00302788,0.0141501,0.0048901,0.0154447,-0.0043224,1.31201,0.0119996,0.0273478,580,1037,-10.0143,-1.03512
-637,-13,-10.0448,1.0144,-0.00280865,0.00923008,0.00212138,0.00959295,-0.00317152,1.40138,0.00767413,0.019732,587,1037,-10.0448,-1.01443
-630,-13,-10.0767,1.01599,-0.00252619,0.00602287,0.000442889,0.00604575,-0.00254907,1.51917,0.00509727,0.0131666,594,1037,-10.0767,-1.016
-623,-13,-10.0685,1.05261,-0.00198746,0.00344515,-0.000596936,0.00350996,-0.00205228,-1.46264,0.00324791,0.011326,601,1037,-10.0685,-1.05267
-616,-13,-10.0405,1.02661,-0.00124127,0.00173706,-0.00187345,0.0026411,-0.00214531,-1.1212,0.00276837,0.0108004,608,1037,-10.0405,-1.02664
-609,-13,-10.0126,1.03625,-0.00059029,0.000160671,-0.00261594,0.00242794,-0.00285756,-0.856679,0.00305495,0.0160447,615,1037,-10.0126,-1.03622
-602,-13,-10.0375,1.02991,-0.000451534,-0.000386811,-0.00335508,0.00293607,-0.00377441,-0.790221,0.00388436,0.0112701,622,1037,-10.0375,-1.02992
-595,-13,-10.0275,1.00354,-0.000222971,-0.000680627,-0.00369483,0.00325011,-0.00415371,-0.754472,0.00428519,0.013582,629,1037,-10.0275,-1.00359
-588,-13,-9.99219,0.696045,-2.25803e-05,-0.000819639,-0.00370413,0.00330439,-0.00414661,-0.731809,0.00431099,0.0169689,636,1037,-9.99221,-0.696073
-581,-13,-10.0684,0.52417,0.000218431,-0.000710023,-0.00362028,0.00340412,-0.00389572,-0.721631,0.00421775,0.0182014,643,1037,-10.0684,-0.524211
-574,-13,-10.0521,0.702637,0.000364747,-0.000556343,-0.00333686,0.00327269,-0.00346429,-0.716823,0.00389013,0.0342164,650,1037,-10.0521,-0.70264
-567,-13,-10.0712,0.985718,0.000508506,-0.000274117,-0.00282807,0.00297221,-0.00273782,-0.716651,0.00329762,0.0400039,657,1037,-10.0711,-0.985768
-560,-13,-9.99689,0.702393,0.000675103,0.000121604,-0.00212773,0.00254401,-0.0017473,-0.720727,0.00249178,0.0434611,664,1037,-9.99689,-0.702355
-553,-13,-9.93787,0.487183,0.000846274,0.00061584,-0.00127445,0.00201071,-0.000548592,-0.740318,0.00155591,0.0415805,671,1037,-9.93789,-0.487227
-546,-13,-10.0287,0.427856,0.00099769,0.00118683,-0.000331841,0.00143731,0.000747205,-0.924209,0.000830051,0.0382213,678,1037,-10.0288,-0.427882
-539,-13,-10.0461,0.670776,0.00115422,0.00177523,0.000310154,0.0019036,0.00102585,1.17838,0.00110015,0.0402068,685,1037,-10.0461,-0.670816
-532,-13,-9.91187,0.867676,0.0011815,0.00242776,-6.8226e-05,0.00243148,0.00117778,-1.51627,0.00140404,0.0403351,692,1037,-9.91187,-0.8677
-525,-13,0,0,0,0,0,0,0,0,0,-1,699,1037,0,0
-518,-13,0,0,0,0,0,0,0,0,0,-1,706,1037,0,0
-511,-13,0,0,0,0,0,0,0,0,0,-1,713,1037,0,0
-504,-13,0,0,0,0,0,0,0,0,0,-1,720,1037,0,0
-497,-13,0,0,0,0,0,0,0,0,0,-1,727,1037,0,0
-490,-13,0,0,0,0,0,0,0,0,0,-1,734,1037,0,0
-483,-13,0,0,0,0,0,0,0,0,0,-1,741,1037,0,0
-476,-13,0,0,0,0,0,0,0,0,0,-1,748,1037,0,0
-469,-13,0,0,0,0,0,0,0,0,0,-1,755,1037,0,0
-462,-13,0,0,0,0,0,0,0,0,0,-1,762,1037,0,0
-455,-13,0,0,0,0,0,0,0,0,0,-1,769,1037,0,0
-448,-13,0,0,0,0,0,0,0,0,0,-1,776,1037,0,0
-441,-13,0,0,0,0,0,0,0,0,0,-1,783,1037,0,0
-434,-13,0,0,0,0,0,0,0,0,0,-1,790,1037,0,0
-427,-13,0,0,0,0,0,0,0,0,0,-1,797,1037,0,0
-420,-13,0,0,0,0,0,0,0,0,0,-1,804,1037,0,0
-413,-13,0,0,0,0,0,0,0,0,0,-1,811,1037,0,0
-406,-13,0,0,0,0,0,0,0,0,0,-1,818,1037,0,0
-399,-13,0,0,0,0,0,0,0,0,0,-1,825,1037,0,0
-392,-13,0,0,0,0,0,0,0,0,0,-1,832,1037,0,0
-385,-13,0,0,0,0,0,0,0,0,0,-1,839,1037,0,0
-378,-13,0,0,0,0,0,0,0,0,0,-1,846,1037,0,0
-371,-13,0,0,0,0,0,0,0,0,0,-1,853,1037,0,0
-364,-13,0,0,0,0,0,0,0,0,0,-1,860,1037,0,0
-357,-13,0,0,0,0,0,0,0,0,0,-1,867,1037,0,0
-350,-13,0,0,0,0,0,0,0,0,0,-1,874,1037,0,0
-343,-13,0,0,0,0,0,0,0,0,0,-1,881,1037,0,0
-336,-13,0,0,0,0,0,0,0,0,0,-1,888,1037,0,0
-329,-13,0,0,0,0,0,0,0,0,0,-1,895,1037,0,0
-322,-13,0,0,0,0,0,0,0,0,0,-1,902,1037,0,0
-315,-13,0,0,0,0,0,0,0,0,0,-1,909,1037,0,0
-308,-13,0,0,0,0,0,0,0,0,0,-1,916,1037,0,0
-301,-13,0,0,0,0,0,0,0,0,0,-1,923,1037,0,0
-294,-13,0,0,0,0,0,0,0,0,0,-1,930,1037,0,0
-287,-13,0,0,0,0,0,0,0,0,0,-1,937,1037,0,0
-280,-13,0,0,0,0,0,0,0,0,0,-1,944,1037,0,0
-273,-13,0,0,0,0,0,0,0,0,0,-1,951,1037,0,0
-266,-13,0,0,0,0,0,0,0,0,0,-1,958,1037,0,0
-259,-13,0,0,0,0,0,0,0,0,0,-1,965,1037,0,0
-252,-13,0,0,0,0,0,0,0,0,0,-1,972,1037,0,0
-245,-13,0,0,0,0,0,0,0,0,0,-1,979,1037,0,0
-238,-13,0,0,0,0,0,0,0,0,0,-1,986,1037,0,0
-231,-13,0,0,0,0,0,0,0,0,0,-1,993,1037,0,0
-224,-13,0,0,0,0,0,0,0,0,0,-1,1000,1037,0,0
-217,-13,0,0,0,0,0,0,0,0,0,-1,1007,1037,0,0
-210,-13,0,0,0,0,0,0,0,0,0,-1,1014,1037,0,0
-203,-13,0,0,0,0,0,0,0,0,0,-1,1021,1037,0,0
-196,-13,0,0,0,0,0,0,0,0,0,-1,1028,1037,0,0
-189,-13,0,0,0,0,0,0,0,0,0,-1,1035,1037,0,0
-182,-13,0,0,0,0,0,0,0,0,0,-1,1042,1037,0,0
-175,-13,0,0,0,0,0,0,0,0,0,-1,1049,1037,0,0
-168,-13,0,0,0,0,0,0,0,0,0,-1,1056,1037,0,0
-161,-13,0,0,0,0,0,0,0,0,0,-1,1063,1037,0,0
-154,-13,0,0,0,0,0,0,0,0,0,-1,1070,1037,0,0
-147,-13,0,0,0,0,0,0,0,0,0,-1,1077,1037,0,0
-140,-13,0,0,0,0,0,0,0,0,0,-1,1084,1037,0,0
-133,-13,0,0,0,0,0,0,0,0,0,-1,1091,1037,0,0
-126,-13,0,0,0,0,0,0,0,0,0,-1,1098,1037,0,0
-119,-13,0,0,0,0,0,0,0,0,0,-1,1105,1037,0,0
-112,-13,0,0,0,0,0,0,0,0,0,-1,1112,1037,0,0
-105,-13,0,0,0,0,0,0,0,0,0,-1,1119,1037,0,0
-98,-13,0,0,0,0,0,0,0,0,0,-1,1126,1037,0,0
-91,-13,0,0,0,0,0,0,0,0,0,-1,1133,1037,0,0
-84,-13,0,0,0,0,0,0,0,0,0,-1,1140,1037,0,0
-77,-13,0,0,0,0,0,0,0,0,0,-1,1147,1037,0,0
-70,-13,0,0,0,0,0,0,0,0,0,-1,1154,1037,0,0
-63,-13,0,0,0,0,0,0,0,0,0,-1,1161,1037,0,0
-56,-13,0,0,0,0,0,0,0,0,0,-1,1168,1037,0,0
-49,-13,0,0,0,0,0,0,0,0,0,-1,1175,1037,0,0
-42,-13,0,0,0,0,0,0,0,0,0,-1,1182,1037,0,0
-35,-13,0,0,0,0,0,0,0,0,0,-1,1189,1037,0,0
-28,-13,0,0,0,0,0,0,0,0,0,-1,1196,1037,0,0
-21,-13,0,0,0,0,0,0,0,0,0,-1,1203,1037,0,0
-14,-13,0,0,0,0,0,0,0,0,0,-1,1210,1037,0,0
-7,-13,0,0,0,0,0,0,0,0,0,-1,1217,1037,0,0
0,-13,0,0,0,0,0,0,0,0,0,-1,1224,1037,0,0
7,-13,0,0,0,0,0,0,0,0,0,-1,1231,1037,0,0
14,-13,0,0,0,0,0,0,0,0,0,-1,1238,1037,0,0
21,-13,0,0,0,0,0,0,0,0,0,-1,1245,1037,0,0
28,-13,0,0,0,0,0,0,0,0,0,-1,1252,1037,0,0
35,-13,0,0,0,0,0,0,0,0,0,-1,1259,1037,0,0
42,-13,0,0,0,0,0,0,0,0,0,-1,1266,1037,0,0
49,-13,0,0,0,0,0,0,0,0,0,-1,1273,1037,0,0
56,-13,0,0,0,0,0,0,0,0,0,-1,1280,1037,0,0
63,-13,0,0,0,0,0,0,0,0,0,-1,1287,1037,0,0
70,-13,0,0,0,0,0,0,0,0,0,-1,1294,1037,0,0
77,-13,0,0,0,0,0,0,0,0,0,-1,1301,1037,0,0
84,-13,0,0,0,0,0,0,0,0,0,-1,1308,1037,0,0
91,-13,0,0,0,0,0,0,0,0,0,-1,1315,1037,0,0
98,-13,0,0,0,0,0,0,0,0,0,-1,1322,1037,0,0
105,-13,0,0,0,0,0,0,0,0,0,-1,1329,1037,0,0
112,-13,0,0,0,0,0,0,0,0,0,-1,1336,1037,0,0
119,-13,0,0,0,0,0,0,0,0,0,-1,1343,1037,0,0
126,-13,0,0,0,0,0,0,0,0,0,-1,1350,1037,0,0
133,-13,0,0,0,0,0,0,0,0,0,-1,1357,1037,0,0
140,-13,0,0,0,0,0,0,0,0,0,-1,1364,1037,0,0
147,-13,0,0,0,0,0,0,0,0,0,-1,1371,1037,0,0
154,-13,0,0,0,0,0,0,0,0,0,-1,1378,1037,0,0
161,-13,0,0,0,0,0,0,0,0,0,-1,1385,1037,0,0
168,-13,0,0,0,0,0,0,0,0,0,-1,1392,1037,0,0
175,-13,0,0,0,0,0,0,0,0,0,-1,1399,1037,0,0
182,-13,0,0,0,0,0,0,0,0,0,-1,1406,1037,0,0
189,-13,0,0,0,0,0,0,0,0,0,-1,1413,1037,0,0
196,-13,0,0,0,0,0,0,0,0,0,-1,1420,1037,0,0
203,-13,0,0,0,0,0,0,0,0,0,-1,1427,1037,0,0
210,-13,0,0,0,0,0,0,0,0,0,-1,1434,1037,0,0
217,-13,0,0,0,0,0,0,0,0,0,-1,1441,1037,0,0
224,-13,0,0,0,0,0,0,0,0,0,-1,1448,1037,0,0
231,-13,0,0,0,0,0,0,0,0,0,-1,1455,1037,0,0
238,-13,0,0,0,0,0,0,0,0,0,-1,1462,1037,0,0
245,-13,0,0,0,0,0,0,0,0,0,-1,1469,1037,0,0
252,-13,0,0,0,0,0,0,0,0,0,-1,1476,1037,0,0
259,-13,0,0,0,0,0,0,0,0,0,-1,1483,1037,0,0
266,-13,0,0,0,0,0,0,0,0,0,-1,1490,1037,0,0
273,-13,0,0,0,0,0,0,0,0,0,-1,1497,1037,0,0
280,-13,0,0,0,0,0,0,0,0,0,-1,1504,1037,0,0
287,-13,0,0,0,0,0,0,0,0,0,-1,1511,1037,0,0
294,-13,0,0,0,0,0,0,0,0,0,-1,1518,1037,0,0
301,-13,0,0,0,0,0,0,0,0,0,-1,1525,1037,0,0
308,-13,0,0,0,0,0,0,0,0,0,-1,1532,1037,0,0
315,-13,0,0,0,0,0,0,0,0,0,-1,1539,1037,0,0
322,-13,0,0,0,0,0,0,0,0,0,-1,1546,1037,0,0
329,-13,0,0,0,0,0,0,0,0,0,-1,1553,1037,0,0
336,-13,0,0,0,0,0,0,0,0,0,-1,1560,1037,0,0
343,-13,0,0,0,0,0,0,0,0,0,-1,1567,1037,0,0
350,-13,0,0,0,0,0,0,0,0,0,-1,1574,1037,0,0
357,-13,0,0,0,0,0,0,0,0,0,-1,1581,1037,0,0
364,-13,0,0,0,0,0,0,0,0,0,-1,1588,1037,0,0
371,-13,0,0,0,0,0,0,0,0,0,-1,1595,1037,0,0
378,-13,0,0,0,0,0,0,0,0,0,-1,1602,1037,0,0
385,-13,0,0,0,0,0,0,0,0,0,-1,1609,1037,0,0
392,-13,0,0,0,0,0,0,0,0,0,-1,1616,1037,0,0
399,-13,0,0,0,0,0,0,0,0,0,-1,1623,1037,0,0
406,-13,0,0,0,0,0,0,0,0,0,-1,1630,1037,0,0
413,-13,0,0,0,0,0,0,0,0,0,-1,1637,1037,0,0
420,-13,0,0,0,0,0,0,0,0,0,-1,1644,1037,0,0
427,-13,0,0,0,0,0,0,0,0,0,-1,1651,1037,0,0
434,-13,0,0,0,0,0,0,0,0,0,-1,1658,1037,0,0
441,-13,0,0,0,0,0,0,0,0,0,-1,1665,1037,0,0
448,-13,0,0,0,0,0,0,0,0,0,-1,1672,1037,0,0
455,-13,0,0,0,0,0,0,0,0,0,-1,1679,1037,0,0
462,-13,0,0,0,0,0,0,0,0,0,-1,1686,1037,0,0
469,-13,0,0,0,0,0,0,0,0,0,-1,1693,1037,0,0
476,-13,0,0,0,0,0,0,0,0,0,-1,1700,1037,0,0
483,-13,0,0,0,0,0,0,0,0,0,-1,1707,1037,0,0
490,-13,0,0,0,0,0,0,0,0,0,-1,1714,1037,0,0
497,-13,0,0,0,0,0,0,0,0,0,-1,1721,1037,0,0
504,-13,0,0,0,0,0,0,0,0,0,-1,1728,1037,0,0
511,-13,0,0,0,0,0,0,0,0,0,-1,1735,1037,0,0
518,-13,0,0,0,0,0,0,0,0,0,-1,1742,1037,0,0
525,-13,0,0,0,0,0,0,0,0,0,-1,1749,1037,0,0
532,-13,0,0,0,0,0,0,0,0,0,-1,1756,1037,0,0
539,-13,0,0,0,0,0,0,0,0,0,-1,1763,1037,0,0
546,-13,0,0,0,0,0,0,0,0,0,-1,1770,1037,0,0
553,-13,0,0,0,0,0,0,0,0,0,-1,1777,1037,0,0
560,-13,0,0,0,0,0,0,0,0,0,-1,1784,1037,0,0
567,-13,0,0,0,0,0,0,0,0,0,-1,1791,1037,0,0
574,-13,0,0,0,0,0,0,0,0,0,-1,1798,1037,0,0
581,-13,0,0,0,0,0,0,0,0,0,-1,1805,1037,0,0
588,-13,0,0,0,0,0,0,0,0,0,-1,1812,1037,0,0
595,-13,0,0,0,0,0,0,0,0,0,-1,1819,1037,0,0
602,-13,0,0,0,0,0,0,0,0,0,-1,1826,1037,0,0
609,-13,0,0,0,0,0,0,0,0,0,-1,1833,1037,0,0
616,-13,0,0,0,0,0,0,0,0,0,-1,1840,1037,0,0
623,-13,0,0,0,0,0,0,0,0,0,-1,1847,1037,0,0
630,-13,0,0,0,0,0,0,0,0,0,-1,1854,1037,0,0
637,-13,0,0,0,0,0,0,0,0,0,-1,1861,1037,0,0
644,-13,0,0,0,0,0,0,0,0,0,-1,1868,1037,0,0
651,-13,16.1726,2.44312,-0.00123189,0.00448846,0.00311884,0.00586004,-0.00260347,1.15648,0.00500554,0.0404098,1875,1037,16.1725,-2.44309
658,-13,16.131,2.3949,-0.000687095,0.00345567,0.00223797,0.00443374,-0.00166516,1.15878,0.00364013,0.0467108,1882,1037,16.131,-2.39495
665,-13,16.139,2.40649,-0.000446056,0.0025973,0.00143221,0.0031653,-0.00101405,1.19324,0.00251725,0.047333,1889,1037,16.139,-2.40644
672,-13,16.2377,2.33899,-0.000407736,0.00190054,0.00127822,0.00246858,-0.000975774,1.15261,0.00204991,0.0382939,1896,1037,16.2377,-2.33905
679,-13,16.1868,2.39648,-0.000925545,0.00129106,0.0017761,0.00227629,-0.00191077,1.06434,0.00242047,0.0364748,1903,1037,16.1868,-2.39643
686,-13,16.1036,2.37183,-0.00165384,0.000779287,0.00249166,0.00233552,-0.00321007,1.0125,0.00321499,0.0377489,1910,1037,16.1036,-2.37183
693,-13,16.109,2.41394,-0.0023245,0.000372586,0.00324194,0.00253527,-0.00448719,0.982496,0.00410629,0.0381615,1917,1037,16.1091,-2.41389
700,-13,16.1685,2.36438,-0.00297204,1.8199e-05,0.00393829,0.00273563,-0.00568946,0.966813,0.00496288,0.0363501,1924,1037,16.1684,-2.3644
707,-13,16.1652,2.30505,-0.00333198,-7.36152e-05,0.00440161,0.00299065,-0.00639625,0.962647,0.00553714,0.0314777,1931,1037,16.1651,-2.30505
714,-13,16.1261,2.4082,-0.00367687,-0.000280685,0.00475359,0.003069,-0.00702656,0.956946,0.0059761,0.0258479,1938,1037,16.1261,-2.40818
721,-13,16.116,2.86682,-0.00409931,-0.000354896,0.00501527,0.00312623,-0.00758043,0.964038,0.0063573,0.0292636,1945,1037,16.1159,-2.86686
728,-13,15.8879,3.14148,-0.00434254,-0.000210202,0.00505146,0.00318132,-0.00773406,0.979529,0.00648214,0.0256201,1952,1037,15.8879,-3.14154
735,-13,15.8391,3.15002,-0.00421582,0.000127095,0.00465003,0.00308769,-0.00717642,1.00384,0.00608069,0.0183006,1959,1037,15.8391,-3.15008
742,-13,15.8051,3.17163,-0.00408021,0.000684236,0.00372523,0.00272381,-0.00611979,1.06987,0.00522983,0.0102295,1966,1037,15.8051,-3.17159
749,-13,15.8163,3.15308,-0.00413725,0.000821095,0.00243904,0.00181974,-0.00513589,1.18218,0.00416519,0.0147269,1973,1037,15.8163,-3.15302
756,-13,15.8386,3.18066,-0.00491647,0.00169091,9.21673e-05,0.0016922,-0.00491776,1.55685,0.00396483,0.0125366,1980,1037,15.8386,-3.18067
763,-13,15.8359,3.21484,-0.00646991,0.00200191,-0.00344112,0.00322349,-0.00769149,-1.22968,0.00647537,0.0104727,1987,1037,15.8359,-3.21482
770,-13,15.8158,3.22363,-0.00818923,0.00259361,-0.00733938,0.00630899,-0.0119046,-1.10218,0.0106798,0.0097303,1994,1037,15.8158,-3.22362
777,-13,15.7928,3.23291,-0.010739,0.00320886,-0.0122697,0.0103481,-0.0178782,-1.04382,0.0164886,0.011467,2001,1037,15.7928,-3.23289
784,-13,15.801,3.23438,-0.0146027,0.00368473,-0.0181496,0.0148638,-0.0257817,-1.01874,0.0237472,0.0265718,2008,1037,15.801,-3.23439
791,-13,15.7761,3.26172,-0.0200934,0.00395102,-0.0254988,0.0201196,-0.036262,-1.00569,0.0329937,0.0423837,2015,1037,15.7762,-3.26168
798,-13,15.6993,3.17407,-0.0271659,0.00388126,-0.0349629,0.0266119,-0.0498966,-0.994325,0.0448489,0.0430568,2022,1037,15.6994,-3.17411
805,-13,15.5754,2.83105,-0.0360773,0.00331861,-0.0470536,0.0346309,-0.0673896,-0.983629,0.0599052,0.0409919,2029,1037,15.5754,-2.83108
812,-13,12.4802,-1.05054,0,0,0,0,0,0,0,-1,2036,1037,12.4803,1.05048
-700,-20,-10.0999,-0.810181,0,0,0,0,0,0,0,-1,524,1044,-10.0999,0.810175
-693,-20,-9.87292,-0.577515,0.0184184,0.0751429,0.0568868,0.110346,-0.0167844,1.01665,0.0797496,0.0457896,531,1044,-9.87292,0.577509
-686,-20,-9.49774,-0.359009,0.0106815,0.0614293,0.0439331,0.0867895,-0.0146787,1.04728,0.0633222,0.0458393,538,1044,-9.49774,0.359042
-679,-20,-9.16479,0.05896,0.00529158,0.0498419,0.0336073,0.0678859,-0.0127524,1.07806,0.0500525,0.0472195,545,1044,-9.1648,-0.0589357
-672,-20,-8.79791,0.80188,0.00173803,0.039999,0.0254125,0.0526769,-0.0109398,1.10804,0.0392757,0.0479,552,1044,-8.79792,-0.801883
-665,-20,-8.54156,1.42395,0,0,0,0,0,0,0,-1,559,1044,-8.54159,-1.42394
-658,-20,-10.4541,0.669189,-0.0016432,0.0245503,0.0138277,0.030499,-0.00759192,1.16453,0.0232797,0.0462899,566,1044,-10.4541,-0.669139
-651,-20,-10.0123,1.0343,-0.00217559,0.0186118,0.00985996,0.0225446,-0.00610836,1.19127,0.0174264,0.0390174,573,1044,-10.0123,-1.03434
-644,-20,-10.0054,0.959351,-0.00225069,0.0136799,0.00660232,0.0160604,-0.00463125,1.22474,0.0125391,0.0241647,580,1044,-10.0055,-0.959386
-637,-20,-10.0317,0.952393,-0.00232164,0.00905726,0.00326044,0.00992527,-0.00318965,1.31061,0.00789777,0.0157529,587,1044,-10.0317,-0.952414
-630,-20,-10.0318,1.01099,-0.00223127,0.00595961,0.0011219,0.00611049,-0.00238216,1.43711,0.00505828,0.0134355,594,1044,-10.0318,-1.01101
-623,-20,-10.0177,1.02136,-0.00186239,0.00351127,-0.000314404,0.00352961,-0.00188073,-1.51255,0.00317164,0.0130828,601,1044,-10.0177,-1.02136
-616,-20,-10.0221,1.01038,-0.00124266,0.00174557,-0.00192359,0.00268714,-0.00218424,-1.11559,0.00281748,0.0131434,608,1044,-10.0221,-1.01032
-609,-20,-10.0267,1.02368,-0.000594535,0.000179803,-0.00277265,0.00259219,-0.00300692,-0.854769,0.0032356,0.0155319,615,1044,-10.0267,-1.02365
-602,-20,-10.0463,1.03467,-0.000486501,-0.000390281,-0.00352453,0.00308647,-0.00396325,-0.792223,0.00408064,0.0116739,622,1044,-10.0463,-1.0347
-595,-20,-10.0668,1.01624,-0.000327709,-0.000697977,-0.00388794,0.0033795,-0.00440519,-0.761607,0.00450748,0.0117492,629,1044,-10.0668,-1.01617
-588,-20,-10.0605,0.722046,-0.000157186,-0.000808869,-0.00394275,0.00347317,-0.00443922,-0.74417,0.00457955,0.0150442,636,1044,-10.0606,-0.722015
-581,-20,-10.0582,0.515747,8.2194e-05,-0.000690872,-0.00389026,0.00360507,-0.00421375,-0.735881,0.00451876,0.0239557,643,1044,-10.0582,-0.515803
-574,-20,-10.0691,0.637939,0.000220279,-0.000515473,-0.00361268,0.00348377,-0.00377896,-0.734659,0.00419429,0.0378114,650,1044,-10.0691,-0.637911
-567,-20,-10.0091,0.974976,0.00037372,-0.000210933,-0.00310115,0.00319629,-0.0030335,-0.738405,0.00359718,0.0416908,657,1044,-10.0091,-0.974968
-560,-20,-9.84778,0.957886,0.000576546,0.000205295,-0.00239822,0.00279631,-0.00201447,-0.746774,0.00278971,0.0426091,664,1044,-9.84776,-0.957893
-553,-20,-9.79297,0.579468,0.000817786,0.000713927,-0.00155666,0.00232338,-0.000791665,-0.768724,0.00186954,0.0395128,671,1044,-9.79294,-0.579495
-546,-20,-9.97504,0.592041,0.00107677,0.0012891,-0.000653929,0.00184543,0.000520447,-0.865871,0.00109869,0.0376739,678,1044,-9.97503,-0.591996
-539,-20,-10.0217,0.695435,0.00138786,0.00185857,-0.000109755,0.0018829,0.00136352,-1.35262,0.00112292,0.0416184,685,1044,-10.0218,-0.695417
-532,-20,-9.9455,0.770752,0.00162671,0.00239954,-0.000740998,0.00284882,0.00117743,-1.02574,0.00165299,0.0413707,692,1044,-9.9455,-0.770797
-525,-20,0,0,0,0,0,0,0,0,0,-1,699,1044,0,0
-518,-20,0,0,0,0,0,0,0,0,0,-1,706,1044,0,0
-511,-20,0,0,0,0,0,0,0,0,0,-1,713,1044,0,0
-504,-20,0,0,0,0,0,0,0,0,0,-1,720,1044,0,0
-497,-20,0,0,0,0,0,0,0,0,0,-1,727,1044,0,0
-490,-20,0,0,0,0,0,0,0,0,0,-1,734,1044,0,0
-483,-20,0,0,0,0,0,0,0,0,0,-1,741,1044,0,0
-476,-20,0,0,0,0,0,0,0,0,0,-1,748,1044,0,0
-469,-20,0,0,0,0,0,0,0,0,0,-1,755,1044,0,0
-462,-20,0,0,0,0,0,0,0,0,0,-1,762,1044,0,0
-455,-20,0,0,0,0,0,0,0,0,0,-1,769,1044,0,0
-448,-20,0,0,0,0,0,0,0,0,0,-1,776,1044,0,0
-441,-20,0,0,0,0,0,0,0,0,0,-1,783,1044,0,0
-434,-20,0,0,0,0,0,0,0,0,0,-1,790,1044,0,0
-427,-20,0,0,0,0,0,0,0,0,0,-1,797,1044,0,0
-420,-20,0,0,0,0,0,0,0,0,0,-1,804,1044,0,0
-413,-20,0,0,0,0,0,0,0,0,0,-1,811,1044,0,0
-406,-20,0,0,0,0,0,0,0,0,0,-1,818,1044,0,0
-399,-20,0,0,0,0,0,0,0,0,0,-1,825,1044,0,0
-392,-20,0,0,0,0,0,0,0,0,0,-1,832,1044,0,0
-385,-20,0,0,0,0,0,0,0,0,0,-1,839,1044,0,0
-378,-20,0,0,0,0,0,0,0,0,0,-1,846,1044,0,0
-371,-20,0,0,0,0,0,0,0,0,0,-1,853,1044,0,0
-364,-20,0,0,0,0,0,0,0,0,0,-1,860,1044,0,0
-357,-20,0,0,0,0,0,0,0,0,0,-1,867,1044,0,0
-350,-20,0,0,0,0,0,0,0,0,0,-1,874,1044,0,0
-343,-20,0,0,0,0,0,0,0,0,0,-1,881,1044,0,0
-336,-20,0,0,0,0,0,0,0,0,0,-1,888,1044,0,0
-329,-20,0,0,0,0,0,0,0,0,0,-1,895,1044,0,0
-322,-20,0,0,0,0,0,0,0,0,0,-1,902,1044,0,0
-315,-20,0,0,0,0,0,0,0,0,0,-1,909,1044,0,0
-308,-20,0,0,0,0,0,0,0,0,0,-1,916,1044,0,0
-301,-20,0,0,0,0,0,0,0,0,0,-1,923,1044,0,0
-294,-20,0,0,0,0,0,0,0,0,0,-1,930,1044,0,0
-287,-20,0,0,0,0,0,0,0,0,0,-1,937,1044,0,0
-280,-20,0,0,0,0,0,0,0,0,0,-1,944,1044,0,0
-273,-20,0,0,0,0,0,0,0,0,0,-1,951,1044,0,0
-266,-20,0,0,0,0,0,0,0,0,0,-1,958,1044,0,0
-259,-20,0,0,0,0,0,0,0,0,0,-1,965,1044,0,0
-252,-20,0,0,0,0,0,0,0,0,0,-1,972,1044,0,0
-245,-20,0,0,0,0,0,0,0,0,0,-1,979,1044,0,0
-238,-20,0,0,0,0,0,0,0,0,0,-1,986,1044,0,0
-231,-20,0,0,0,0,0,0,0,0,0,-1,993,1044,0,0
-224,-20,0,0,0,0,0,0,0,0,0,-1,1000,1044,0,0
-217,-20,0,0,0,0,0,0,0,0,0,-1,1007,1044,0,0
-210,-20,0,0,0,0,0,0,0,0,0,-1,1014,1044,0,0
-203,-20,0,0,0,0,0,0,0,0,0,-1,1021,1044,0,0
-196,-20,0,0,0,0,0,0,0,0,0,-1,1028,1044,0,0
-189,-20,0,0,0,0,0,0,0,0,0,-1,1035,1044,0,0
-182,-20,0,0,0,0,0,0,0,0,0,-1,1042,1044,0,0
-175,-20,0,0,0,0,0,0,0,0,0,-1,1049,1044,0,0
-168,-20,0,0,0,0,0,0,0,0,0,-1,1056,1044,0,0
-161,-20,0,0,0,0,0,0,0,0,0,-1,1063,1044,0,0
-154,-20,0,0,0,0,0,0,0,0,0,-1,1070,1044,0,0
-147,-20,0,0,0,0,0,0,0,0,0,-1,1077,1044,0,0
-140,-20,0,0,0,0,0,0,0,0,0,-1,1084,1044,0,0
-133,-20,0,0,0,0,0,0,0,0,0,-1,1091,1044,0,0
-126,-20,0,0,0,0,0,0,0,0,0,-1,1098,1044,0,0
-119,-20,0,0,0,0,0,0,0,0,0,-1,1105,1044,0,0
-112,-20,0,0,0,0,0,0,0,0,0,-1,1112,1044,0,0
-105,-20,0,0,0,0,0,0,0,0,0,-1,1119,1044,0,0
-98,-20,0,0,0,0,0,0,0,0,0,-1,1126,1044,0,0
-91,-20,0,0,0,0,0,0,0,0,0,-1,1133,1044,0,0
-84,-20,0,0,0,0,0,0,0,0,0,-1,1140,1044,0,0
-77,-20,0,0,0,0,0,0,0,0,0,-1,1147,1044,0,0
-70,-20,0,0,0,0,0,0,0,0,0,-1,1154,1044,0,0
-63,-20,0,0,0,0,0,0,0,0,0,-1,1161,1044,0,0
-56,-20,0,0,0,0,0,0,0,0,0,-1,1168,1044,0,0
-49,-20,0,0,0,0,0,0,0,0,0,-1,1175,1044,0,0
-42,-20,0,0,0,0,0,0,0,0,0,-1,1182,1044,0,0
-35,-20,0,0,0,0,0,0,0,0,0,-1,1189,1044,0,0
-28,-20,0,0,0,0,0,0,0,0,0,-1,1196,1044,0,0
-21,-20,0,0,0,0,0,0,0,0,0,-1,1203,1044,0,0
-14,-20,0,0,0,0,0,0,0,0,0,-1,1210,1044,0,0
-7,-20,0,0,0,0,0,0,0,0,0,-1,1217,1044,0,0
0,-20,0,0,0,0,0,0,0,0,0,-1,1224,1044,0,0
7,-20,0,0,0,0,0,0,0,0,0,-1,1231,1044,0,0
14,-20,0,0,0,0,0,0,0,0,0,-1,1238,1044,0,0
21,-20,0,0,0,0,0,0,0,0,0,-1,1245,1044,0,0
28,-20,0,0,0,0,0,0,0,0,0,-1,1252,1044,0,0
35,-20,0,0,0,0,0,0,0,0,0,-1,1259,1044,0,0
42,-20,0,0,0,0,0,0,0,0,0,-1,1266,1044,0,0
49,-20,0,0,0,0,0,0,0,0,0,-1,1273,1044,0,0
56,-20,0,0,0,0,0,0,0,0,0,-1,1280,1044,0,0
63,-20,0,0,0,0,0,0,0,0,0,-1,1287,1044,0,0
70,-20,0,0,0,0,0,0,0,0,0,-1,1294,1044,0,0
77,-20,0,0,0,0,0,0,0,0,0,-1,1301,1044,0,0
84,-20,0,0,0,0,0,0,0,0,0,-1,1308,1044,0,0
91,-20,0,0,0,0,0,0,0,0,0,-1,1315,1044,0,0
98,-20,0,0,0,0,0,0,0,0,0,-1,1322,1044,0,0
105,-20,0,0,0,0,0,0,0,0,0,-1,1329,1044,0,0
112,-20,0,0,0,0,0,0,0,0,0,-1,1336,1044,0,0
119,-20,0,0,0,0,0,0,0,0,0,-1,1343,1044,0,0
126,-20,0,0,0,0,0,0,0,0,0,-1,1350,1044,0,0
133,-20,0,0,0,0,0,0,0,0,0,-1,1357,1044,0,0
140,-20,0,0,0,0,0,0,0,0,0,-1,1364,1044,0,0
147,-20,0,0,0,0,0,0,0,0,0,-1,1371,1044,0,0
154,-20,0,0,0,0,0,0,0,0,0,-1,1378,1044,0,0
161,-20,0,0,0,0,0,0,0,0,0,-1,1385,1044,0,0
168,-20,0,0,0,0,0,0,0,0,0,-1,1392,1044,0,0
175,-20,0,0,0,0,0,0,0,0,0,-1,1399,1044,0,0
182,-20,0,0,0,0,0,0,0,0,0,-1,1406,1044,0,0
189,-20,0,0,0,0,0,0,0,0,0,-1,1413,1044,0,0
196,-20,0,0,0,0,0,0,0,0,0,-1,1420,1044,0,0
203,-20,0,0,0,0,0,0,0,0,0,-1,1427,1044,0,0
210,-20,0,0,0,0,0,0,0,0,0,-1,1434,1044,0,0
217,-20,0,0,0,0,0,0,0,0,0,-1,1441,1044,0,0
224,-20,0,0,0,0,0,0,0,0,0,-1,1448,1044,0,0
231,-20,0,0,0,0,0,0,0,0,0,-1,1455,1044,0,0
238,-20,0,0,0,0,0,0,0,0,0,-1,1462,1044,0,0
245,-20,0,0,0,0,0,0,0,0,0,-1,1469,1044,0,0
252,-20,0,0,0,0,0,0,0,0,0,-1,1476,1044,0,0
259,-20,0,0,0,0,0,0,0,0,0,-1,1483,1044,0,0
266,-20,0,0,0,0,0,0,0,0,0,-1,1490,1044,0,0
273,-20,0,0,0,0,0,0,0,0,0,-1,1497,1044,0,0
280,-20,0,0,0,0,0,0,0,0,0,-1,1504,1044,0,0
287,-20,0,0,0,0,0,0,0,0,0,-1,1511,1044,0,0
294,-20,0,0,0,0,0,0,0,0,0,-1,1518,1044,0,0
301,-20,0,0,0,0,0,0,0,0,0,-1,1525,1044,0,0
308,-20,0,0,0,0,0,0,0,0,0,-1,1532,1044,0,0
315,-20,0,0,0,0,0,0,0,0,0,-1,1539,1044,0,0
322,-20,0,0,0,0,0,0,0,0,0,-1,1546,1044,0,0
329,-20,0,0,0,0,0,0,0,0,0,-1,1553,1044,0,0
336,-20,0,0,0,0,0,0,0,0,0,-1,1560,1044,0,0
343,-20,0,0,0,0,0,0,0,0,0,-1,1567,1044,0,0
350,-20,0,0,0,0,0,0,0,0,0,-1,1574,1044,0,0
357,-20,0,0,0,0,0,0,0,0,0,-1,1581,1044,0,0
364,-20,0,0,0,0,0,0,0,0,0,-1,1588,1044,0,0
371,-20,0,0,0,0,0,0,0,0,0,-1,1595,1044,0,0
378,-20,0,0,0,0,0,0,0,0,0,-1,1602,1044,0,0
385,-20,0,0,0,0,0,0,0,0,0,-1,1609,1044,0,0
392,-20,0,0,0,0,0,0,0,0,0,-1,1616,1044,0,0
399,-20,0,0,0,0,0,0,0,0,0,-1,1623,1044,0,0
406,-20,0,0,0,0,0,0,0,0,0,-1,1630,1044,0,0
413,-20,0,0,0,0,0,0,0,0,0,-1,1637,1044,0,0
420,-20,0,0,0,0,0,0,0,0,0,-1,1644,1044,0,0
427,-20,0,0,0,0,0,0,0,0,0,-1,1651,1044,0,0
434,-20,0,0,0,0,0,0,0,0,0,-1,1658,1044,0,0
441,-20,0,0,0,0,0,0,0,0,0,-1,1665,1044,0,0
448,-20,0,0,0,0,0,0,0,0,0,-1,1672,1044,0,0
455,-20,0,0,0,0,0,0,0,0,0,-1,1679,1044,0,0
462,-20,0,0,0,0,0,0,0,0,0,-1,1686,1044,0,0
469,-20,0,0,0,0,0,0,0,0,0,-1,1693,1044,0,0
476,-20,0,0,0,0,0,0,0,0,0,-1,1700,1044,0,0
483,-20,0,0,0,0,0,0,0,0,0,-1,1707,1044,0,0
490,-20,0,0,0,0,0,0,0,0,0,-1,1714,1044,0,0
497,-20,0,0,0,0,0,0,0,0,0,-1,1721,1044,0,0
504,-20,0,0,0,0,0,0,0,0,0,-1,1728,1044,0,0
511,-20,0,0,0,0,0,0,0,0,0,-1,1735,1044,0,0
518,-20,0,0,0,0,0,0,0,0,0,-1,1742,1044,0,0
525,-20,0,0,0,0,0,0,0,0,0,-1,1749,1044,0,0
532,-20,0,0,0,0,0,0,0,0,0,-1,1756,1044,0,0
539,-20,0,0,0,0,0,0,0,0,0,-1,1763,1044,0,0
546,-20,0,0,0,0,0,0,0,0,0,-1,1770,1044,0,0
553,-20,0,0,0,0,0,0,0,0,0,-1,1777,1044,0,0
560,-20,0,0,0,0,0,0,0,0,0,-1,1784,1044,0,0
567,-20,0,0,0,0,0,0,0,0,0,-1,1791,1044,0,0
574,-20,0,0,0,0,0,0,0,0,0,-1,1798,1044,0,0
581,-20,0,0,0,0,0,0,0,0,0,-1,1805,1044,0,0
588,-20,0,0,0,0,0,0,0,0,0,-1,1812,1044,0,0
595,-20,0,0,0,0,0,0,0,0,0,-1,1819,1044,0,0
602,-20,0,0,0,0,0,0,0,0,0,-1,1826,1044,0,0
609,-20,0,0,0,0,0,0,0,0,0,-1,1833,1044,0,0
616,-20,0,0,0,0,0,0,0,0,0,-1,1840,1044,0,0
623,-20,0,0,0,0,0,0,0,0,0,-1,1847,1044,0,0
630,-20,0,0,0,0,0,0,0,0,0,-1,1854,1044,0,0
637,-20,0,0,0,0,0,0,0,0,0,-1,1861,1044,0,0
644,-20,0,0,0,0,0,0,0,0,0,-1,1868,1044,0,0
651,-20,16.2813,2.39868,-0.00152983,0.00510967,0.00239249,0.00588195,-0.00230212,1.25856,0.00487342,0.0392226,1875,1044,16.2813,-2.39862
658,-20,16.1436,2.05078,-0.000916101,0.0040492,0.00197543,0.00473922,-0.00160613,1.23474,0.00380944,0.0445278,1882,1044,16.1436,-2.05078
665,-20,16.1057,2.25989,-0.000611895,0.00311455,0.00141999,0.00359397,-0.00109132,1.24519,0.00283076,0.040963,1889,1044,16.1057,-2.2599
672,-20,16.2714,2.26892,-0.000498061,0.00230929,0.00138274,0.00287596,-0.00106473,1.18185,0.0023539,0.0255696,1896,1044,16.2714,-2.26889
679,-20,16.181,2.29285,-0.000946308,0.00157276,0.00195071,0.00263523,-0.00200877,1.07206,0.00268934,0.0276792,1903,1044,16.181,-2.29282
686,-20,16.1075,2.25769,-0.00163349,0.000943561,0.00269063,0.00263829,-0.00332821,1.00871,0.00345243,0.0379629,1910,1044,16.1076,-2.25772
693,-20,16.1547,2.26636,-0.00227135,0.000435271,0.00342935,0.00276868,-0.00460475,0.973331,0.00430082,0.0422294,1917,1044,16.1546,-2.2664
700,-20,16.2008,2.25879,-0.00288987,1.3382e-05,0.0041047,0.00291558,-0.00579207,0.955359,0.00511798,0.0382674,1924,1044,16.2008,-2.25877
707,-20,16.1923,2.22974,-0.0032385,-0.000168946,0.00457258,0.00311956,-0.006527,0.947314,0.00568408,0.0289317,1931,1044,16.1923,-2.22978
714,-20,16.1638,2.27185,-0.00355654,-0.000415927,0.00490761,0.00316648,-0.00713895,0.940238,0.00609541,0.0208155,1938,1044,16.1638,-2.27182
721,-20,16.2006,2.45837,-0.00396494,-0.000523945,0.00510453,0.00314224,-0.00763112,0.947945,0.00639745,0.0190484,1945,1044,16.2005,-2.45835
728,-20,15.9698,2.92249,-0.00420002,-0.000389678,0.00506619,0.00311773,-0.00770742,0.965246,0.00643443,0.0188727,1952,1044,15.9698,-2.92251
735,-20,15.7626,3.14355,-0.00406482,-7.11528e-05,0.00462736,0.00297184,-0.00710781,0.989092,0.00598056,0.016541,1959,1044,15.7626,-3.1435
742,-20,15.8218,3.17395,-0.00392554,0.00045556,0.00369767,0.00256283,-0.00603281,1.05281,0.0050957,0.0141168,1966,1044,15.8218,-3.17392
749,-20,15.8368,3.16321,-0.00394044,0.000480055,0.0024348,0.00155819,-0.00501857,1.15394,0.00396842,0.0156715,1973,1044,15.8368,-3.1632
756,-20,15.8396,3.18494,-0.00456876,0.00101285,7.10872e-05,0.00101376,-0.00456966,1.55806,0.0034346,0.0121514,1980,1044,15.8396,-3.18498
763,-20,15.8361,3.20142,-0.00592809,0.000850418,-0.00351986,0.00234752,-0.00742519,-1.16865,0.00589067,0.0121578,1987,1044,15.8361,-3.20137
770,-20,15.8359,3.22461,-0.00743471,0.000893775,-0.00751977,0.00532534,-0.0118663,-1.03827,0.0101622,0.0117026,1994,1044,15.836,-3.22456
777,-20,15.8083,3.22424,-0.00969872,0.000716407,-0.0125853,0.00912901,-0.0181113,-0.981563,0.0160097,0.0120551,2001,1044,15.8084,-3.22426
784,-20,15.7991,3.22388,-0.013207,0.000101697,-0.018621,0.0132216,-0.026327,-0.957005,0.0232475,0.0171074,2008,1044,15.7991,-3.22389
791,-20,15.8193,3.23938,-0.0182781,-0.00106031,-0.0261767,0.0178868,-0.0372252,-0.944265,0.0324653,0.0347965,2015,1044,15.8193,-3.23942
798,-20,15.733,3.08984,-0.0248839,-0.0029546,-0.0359347,0.023651,-0.0514895,-0.933475,0.0443637,0.0427019,2022,1044,15.7331,-3.08987
805,-20,15.4255,2.90063,-0.0332908,-0.00579328,-0.0484259,0.0307978,-0.0698818,-0.923715,0.0595695,0.0426834,2029,1044,15.4255,-2.90061
812,-20,13.2507,-0.706177,-0.0440511,-0.00989688,-0.0642823,0.039538,-0.093486,-0.915228,0.0788786,0.0465478,2036,1044,13.2507,0.706199
-700,-27,-10.8632,0.103027,0,0,0,0,0,0,0,-1,524,1051,-10.8632,-0.103084
-693,-27,-9.98065,-1.50916,0,0,0,0,0,0,0,-1,531,1051,-9.98068,1.5092
-686,-27,-9.69312,-0.950439,0.0184255,0.0605638,0.0556186,0.0989702,-0.0199808,0.966454,0.0735507,0.0446843,538,1051,-9.6931,0.950407
-679,-27,-9.37286,-0.315674,0.0107424,0.0490854,0.0424154,0.0764608,-0.016633,0.997653,0.0573282,0.0449285,545,1051,-9.37289,0.315618
-672,-27,-9.12408,0.400146,0.00547246,0.0393401,0.0318732,0.0584986,-0.013686,1.02958,0.0442719,0.0434789,552,1051,-9.1241,-0.40017
-665,-27,-9.49518,0.286011,0,0,0,0,0,0,0,-1,559,1051,-9.4952,-0.286006
-658,-27,-9.65472,0.41394,-1.97057e-05,0.0240772,0.0170153,0.0328778,-0.00882038,1.09347,0.0253749,0.0424243,566,1051,-9.65472,-0.41389
-651,-27,-9.86584,0.883545,-0.00114127,0.0182246,0.0120106,0.0239694,-0.00688598,1.12465,0.0187023,0.0325675,573,1051,-9.86583,-0.883491
-644,-27,-9.98822,0.945068,-0.00160732,0.0133703,0.00802743,0.0168597,-0.00509676,1.16075,0.0132691,0.0143943,580,1051,-9.9882,-0.945062
-637,-27,-10.0179,0.939453,-0.00195055,0.00884912,0.00419839,0.0102892,-0.00339065,1.24036,0.00822602,0.0111906,587,1051,-10.0179,-0.939499
-630,-27,-10.0285,0.998901,-0.00204166,0.00574516,0.00164508,0.00607844,-0.00237495,1.37091,0.00503427,0.0158935,594,1051,-10.0285,-0.998866
-623,-27,-10.0034,1.01501,-0.00182742,0.00335601,-0.000141344,0.00335986,-0.00183127,-1.54355,0.00304011,0.0149338,601,1051,-10.0034,-1.015
-616,-27,-10.0052,1.03906,-0.00131801,0.00160086,-0.00202812,0.00264007,-0.00235722,-1.09728,0.00288672,0.0131246,608,1051,-10.0052,-1.03909
-609,-27,-10.022,1.0625,-0.000642966,0.000115715,-0.00293423,0.00269502,-0.00322227,-0.849682,0.00342087,0.0138506,615,1051,-10.022,-1.06248
-602,-27,-10.0192,1.08484,-0.000555755,-0.000433122,-0.00367472,0.00318079,-0.00416967,-0.79374,0.00425657,0.0112662,622,1051,-10.0192,-1.08489
-595,-27,-10.0356,1.09705,-0.000467531,-0.000752592,-0.00406159,0.00345403,-0.00467415,-0.767859,0.00471039,0.00995022,629,1051,-10.0356,-1.09699
-588,-27,-10.0485,0.804321,-0.000309446,-0.000861276,-0.00416084,0.00358462,-0.00475534,-0.75229,0.00483086,0.0143481,636,1051,-10.0485,-0.80432
-581,-27,-10.0555,0.524048,-5.64808e-05,-0.000780862,-0.00413526,0.00373242,-0.00456977,-0.741717,0.00480139,0.0204,643,1051,-10.0555,-0.524011
-574,-27,-10.0724,0.562988,0.000108418,-0.000628322,-0.00385598,0.00361359,-0.00413349,-0.737777,0.00447614,0.0343979,650,1051,-10.0725,-0.563038
-567,-27,-9.90753,0.327026,0,0,0,0,0,0,0,-1,657,1051,-9.90756,-0.326983
-560,-27,-9.73895,0.515381,0.000622232,-1.37309e-06,-0.00260933,0.00293832,-0.00231746,-0.725932,0.00304147,0.0449683,664,1051,-9.73895,-0.515391
-553,-27,-9.74664,0.614746,0.00100691,0.000425792,-0.00175755,0.00249776,-0.00106506,-0.70348,0.0021117,0.0394682,671,1051,-9.74661,-0.614768
-546,-27,-9.89081,0.755493,0.00145544,0.000884845,-0.000865971,0.0020819,0.000258387,-0.62627,0.00131033,0.0406106,678,1051,-9.89078,-0.755486
-539,-27,-9.93146,0.926514,0.00200635,0.0012854,-0.000381501,0.00217074,0.00112101,-0.406863,0.0012535,0.0433574,685,1051,-9.93143,-0.926531
-532,-27,-9.97168,0.740845,0.00251713,0.0015484,-0.00122664,0.00335158,0.000713956,-0.59736,0.00203851,0.0437809,692,1051,-9.97171,-0.740856
-525,-27,0,0,0,0,0,0,0,0,0,-1,699,1051,0,0
-518,-27,0,0,0,0,0,0,0,0,0,-1,706,1051,0,0
-511,-27,0,0,0,0,0,0,0,0,0,-1,713,1051,0,0
-504,-27,0,0,0,0,0,0,0,0,0,-1,720,1051,0,0
-497,-27,0,0,0,0,0,0,0,0,0,-1,727,1051,0,0
-490,-27,0,0,0,0,0,0,0,0,0,-1,734,1051,0,0
-483,-27,0,0,0,0,0,0,0,0,0,-1,741,1051,0,0
-476,-27,0,0,0,0,0,0,0,0,0,-1,748,1051,0,0
-469,-27,0,0,0,0,0,0,0,0,0,-1,755,1051,0,0
-462,-27,0,0,0,0,0,0,0,0,0,-1,762,1051,0,0
-455,-27,0,0,0,0,0,0,0,0,0,-1,769,1051,0,0
-448,-27,0,0,0,0,0,0,0,0,0,-1,776,1051,0,0
-441,-27,0,0,0,0,0,0,0,0,0,-1,783,1051,0,0
-434,-27,0,0,0,0,0,0,0,0,0,-1,790,1051,0,0
-427,-27,0,0,0,0,0,0,0,0,0,-1,797,1051,0,0
-420,-27,0,0,0,0,0,0,0,0,0,-1,804,1051,0,0
-413,-27,0,0,0,0,0,0,0,0,0,-1,811,1051,0,0
-406,-27,0,0,0,0,0,0,0,0,0,-1,818,1051,0,0
-399,-27,0,0,0,0,0,0,0,0,0,-1,825,1051,0,0
-392,-27,0,0,0,0,0,0,0,0,0,-1,832,1051,0,0
-385,-27,0,0,0,0,0,0,0,0,0,-1,839,1051,0,0
-378,-27,0,0,0,0,0,0,0,0,0,-1,846,1051,0,0
-371,-27,0,0,0,0,0,0,0,0,0,-1,853,1051,0,0
-364,-27,0,0,0,0,0,0,0,0,0,-1,860,1051,0,0
-357,-27,0,0,0,0,0,0,0,0,0,-1,867,1051,0,0
-350,-27,0,0,0,0,0,0,0,0,0,-1,874,1051,0,0
-343,-27,0,0,0,0,0,0,0,0,0,-1,881,1051,0,0
-336,-27,0,0,0,0,0,0,0,0,0,-1,888,1051,0,0
-329,-27,0,0,0,0,0,0,0,0,0,-1,895,1051,0,0
-322,-27,0,0,0,0,0,0,0,0,0,-1,902,1051,0,0
-315,-27,0,0,0,0,0,0,0,0,0,-1,909,1051,0,0
-308,-27,0,0,0,0,0,0,0,0,0,-1,916,1051,0,0
-301,-27,0,0,0,0,0,0,0,0,0,-1,923,1051,0,0
-294,-27,0,0,0,0,0,0,0,0,0,-1,930,1051,0,0
-287,-27,0,0,0,0,0,0,0,0,0,-1,937,1051,0,0
-280,-27,0,0,0,0,0,0,0,0,0,-1,944,1051,0,0
-273,-27,0,0,0,0,0,0,0,0,0,-1,951,1051,0,0
-266,-27,0,0,0,0,0,0,0,0,0,-1,958,1051,0,0
-259,-27,0,0,0,0,0,0,0,0,0,-1,965,1051,0,0
-252,-27,0,0,0,0,0,0,0,0,0,-1,972,1051,0,0
-245,-27,0,0,0,0,0,0,0,0,0,-1,979,1051,0,0
-238,-27,0,0,0,0,0,0,0,0,0,-1,986,1051,0,0
-231,-27,0,0,0,0,0,0,0,0,0,-1,993,1051,0,0
-224,-27,0,0,0,0,0,0,0,0,0,-1,1000,1051,0,0
-217,-27,0,0,0,0,0,0,0,0,0,-1,1007,1051,0,0
-210,-27,0,0,0,0,0,0,0,0,0,-1,1014,1051,0,0
-203,-27,0,0,0,0,0,0,0,0,0,-1,1021,1051,0,0
-196,-27,0,0,0,0,0,0,0,0,0,-1,1028,1051,0,0
-189,-27,0,0,0,0,0,0,0,0,0,-1,1035,1051,0,0
-182,-27,0,0,0,0,0,0,0,0,0,-1,1042,1051,0,0
-175,-27,0,0,0,0,0,0,0,0,0,-1,1049,1051,0,0
-168,-27,0,0,0,0,0,0,0,0,0,-1,1056,1051,0,0
-161,-27,0,0,0,0,0,0,0,0,0,-1,1063,1051,0,0
-154,-27,0,0,0,0,0,0,0,0,0,-1,1070,1051,0,0
-147,-27,0,0,0,0,0,0,0,0,0,-1,1077,1051,0,0
-140,-27,0,0,0,0,0,0,0,0,0,-1,1084,1051,0,0
-133,-27,0,0,0,0,0,0,0,0,0,-1,1091,1051,0,0
-126,-27,0,0,0,0,0,0,0,0,0,-1,1098,1051,0,0
-119,-27,0,0,0,0,0,0,0,0,0,-1,1105,1051,0,0
-112,-27,0,0,0,0,0,0,0,0,0,-1,1112,1051,0,0
-105,-27,0,0,0,0,0,0,0,0,0,-1,1119,1051,0,0
-98,-27,0,0,0,0,0,0,0,0,0,-1,1126,1051,0,0
-91,-27,0,0,0,0,0,0,0,0,0,-1,1133,1051,0,0
-84,-27,0,0,0,0,0,0,0,0,0,-1,1140,1051,0,0
-77,-27,0,0,0,0,0,0,0,0,0,-1,1147,1051,0,0
-70,-27,0,0,0,0,0,0,0,0,0,-1,1154,1051,0,0
-63,-27,0,0,0,0,0,0,0,0,0,-1,1161,1051,0,0
-56,-27,0,0,0,0,0,0,0,0,0,-1,1168,1051,0,0
-49,-27,0,0,0,0,0,0,0,0,0,-1,1175,1051,0,0
-42,-27,0,0,0,0,0,0,0,0,0,-1,1182,1051,0,0
-35,-27,0,0,0,0,0,0,0,0,0,-1,1189,1051,0,0
-28,-27,0,0,0,0,0,0,0,0,0,-1,1196,1051,0,0
-21,-27,0,0,0,0,0,0,0,0,0,-1,1203,1051,0,0
-14,-27,0,0,0,0,0,0,0,0,0,-1,1210,1051,0,0
-7,-27,0,0,0,0,0,0,0,0,0,-1,1217,1051,0,0
0,-27,0,0,0,0,0,0,0,0,0,-1,1224,1051,0,0
7,-27,0,0,0,0,0,0,0,0,0,-1,1231,1051,0,0
14,-27,0,0,0,0,0,0,0,0,0,-1,1238,1051,0,0
21,-27,0,0,0,0,0,0,0,0,0,-1,1245,1051,0,0
28,-27,0,0,0,0,0,0,0,0,0,-1,1252,1051,0,0
35,-27,0,0,0,0,0,0,0,0,0,-1,1259,1051,0,0
42,-27,0,0,0,0,0,0,0,0,0,-1,1266,1051,0,0
49,-27,0,0,0,0,0,0,0,0,0,-1,1273,1051,0,0
56,-27,0,0,0,0,0,0,0,0,0,-1,1280,1051,0,0
63,-27,0,0,0,0,0,0,0,0,0,-1,1287,1051,0,0
70,-27,0,0,0,0,0,0,0,0,0,-1,1294,1051,0,0
77,-27,0,0,0,0,0,0,0,0,0,-1,1301,1051,0,0
84,-27,0,0,0,0,0,0,0,0,0,-1,1308,1051,0,0
91,-27,0,0,0,0,0,0,0,0,0,-1,1315,1051,0,0
98,-27,0,0,0,0,0,0,0,0,0,-1,1322,1051,0,0
105,-27,0,0,0,0,0,0,0,0,0,-1,1329,1051,0,0
112,-27,0,0,0,0,0,0,0,0,0,-1,1336,1051,0,0
119,-27,0,0,0,0,0,0,0,0,0,-1,1343,1051,0,0
126,-27,0,0,0,0,0,0,0,0,0,-1,1350,1051,0,0
133,-27,0,0,0,0,0,0,0,0,0,-1,1357,1051,0,0
140,-27,0,0,0,0,0,0,0,0,0,-1,1364,1051,0,0
147,-27,0,0,0,0,0,0,0,0,0,-1,1371,1051,0,0
154,-27,0,0,0,0,0,0,0,0,0,-1,1378,1051,0,0
161,-27,0,0,0,0,0,0,0,0,0,-1,1385,1051,0,0
168,-27,0,0,0,0,0,0,0,0,0,-1,1392,1051,0,0
175,-27,0,0,0,0,0,0,0,0,0,-1,1399,1051,0,0
182,-27,0,0,0,0,0,0,0,0,0,-1,1406,1051,0,0
189,-27,0,0,0,0,0,0,0,0,0,-1,1413,1051,0,0
196,-27,0,0,0,0,0,0,0,0,0,-1,1420,1051,0,0
203,-27,0,0,0,0,0,0,0,0,0,-1,1427,1051,0,0
210,-27,0,0,0,0,0,0,0,0,0,-1,1434,1051,0,0
217,-27,0,0,0,0,0,0,0,0,0,-1,1441,1051,0,0
224,-27,0,0,0,0,0,0,0,0,0,-1,1448,1051,0,0
231,-27,0,0,0,0,0,0,0,0,0,-1,1455,1051,0,0
238,-27,0,0,0,0,0,0,0,0,0,-1,1462,1051,0,0
245,-27,0,0,0,0,0,0,0,0,0,-1,1469,1051,0,0
252,-27,0,0,0,0,0,0,0,0,0,-1,1476,1051,0,0
259,-27,0,0,0,0,0,0,0,0,0,-1,1483,1051,0,0
266,-27,0,0,0,0,0,0,0,0,0,-1,1490,1051,0,0
273,-27,0,0,0,0,0,0,0,0,0,-1,1497,1051,0,0
280,-27,0,0,0,0,0,0,0,0,0,-1,1504,1051,0,0
287,-27,0,0,0,0,0,0,0,0,0,-1,1511,1051,0,0
294,-27,0,0,0,0,0,0,0,0,0,-1,1518,1051,0,0
301,-27,0,0,0,0,0,0,0,0,0,-1,1525,1051,0,0
308,-27,0,0,0,0,0,0,0,0,0,-1,1532,1051,0,0
315,-27,0,0,0,0,0,0,0,0,0,-1,1539,1051,0,0
322,-27,0,0,0,0,0,0,0,0,0,-1,1546,1051,0,0
329,-27,0,0,0,0,0,0,0,0,0,-1,1553,1051,0,0
336,-27,0,0,0,0,0,0,0,0,0,-1,1560,1051,0,0
343,-27,0,0,0,0,0,0,0,0,0,-1,1567,1051,0,0
350,-27,0,0,0,0,0,0,0,0,0,-1,1574,1051,0,0
357,-27,0,0,0,0,0,0,0,0,0,-1,1581,1051,0,0
364,-27,0,0,0,0,0,0,0,0,0,-1,1588,1051,0,0
371,-27,0,0,0,0,0,0,0,0,0,-1,1595,1051,0,0
378,-27,0,0,0,0,0,0,0,0,0,-1,1602,1051,0,0
385,-27,0,0,0,0,0,0,0,0,0,-1,1609,1051,0,0
392,-27,0,0,0,0,0,0,0,0,0,-1,1616,1051,0,0
399,-27,0,0,0,0,0,0,0,0,0,-1,1623,1051,0,0
406,-27,0,0,0,0,0,0,0,0,0,-1,1630,1051,0,0
413,-27,0,0,0,0,0,0,0,0,0,-1,1637,1051,0,0
420,-27,0,0,0,0,0,0,0,0,0,-1,1644,1051,0,0
427,-27,0,0,0,0,0,0,0,0,0,-1,1651,1051,0,0
434,-27,0,0,0,0,0,0,0,0,0,-1,1658,1051,0,0
441,-27,0,0,0,0,0,0,0,0,0,-1,1665,1051,0,0
448,-27,0,0,0,0,0,0,0,0,0,-1,1672,1051,0,0
455,-27,0,0,0,0,0,0,0,0,0,-1,1679,1051,0,0
462,-27,0,0,0,0,0,0,0,0,0,-1,1686,1051,0,0
469,-27,0,0,0,0,0,0,0,0,0,-1,1693,1051,0,0
476,-27,0,0,0,0,0,0,0,0,0,-1,1700,1051,0,0
483,-27,0,0,0,0,0,0,0,0,0,-1,1707,1051,0,0
490,-27,0,0,0,0,0,0,0,0,0,-1,1714,1051,0,0
497,-27,0,0,0,0,0,0,0,0,0,-1,1721,1051,0,0
504,-27,0,0,0,0,0,0,0,0,0,-1,1728,1051,0,0
511,-27,0,0,0,0,0,0,0,0,0,-1,1735,1051,0,0
518,-27,0,0,0,0,0,0,0,0,0,-1,1742,1051,0,0
525,-27,0,0,0,0,0,0,0,0,0,-1,1749,1051,0,0
532,-27,0,0,0,0,0,0,0,0,0,-1,1756,1051,0,0
539,-27,0,0,0,0,0,0,0,0,0,-1,1763,1051,0,0
546,-27,0,0,0,0,0,0,0,0,0,-1,1770,1051,0,0
553,-27,0,0,0,0,0,0,0,0,0,-1,1777,1051,0,0
560,-27,0,0,0,0,0,0,0,0,0,-1,1784,1051,0,0
567,-27,0,0,0,0,0,0,0,0,0,-1,1791,1051,0,0
574,-27,0,0,0,0,0,0,0,0,0,-1,1798,1051,0,0
581,-27,0,0,0,0,0,0,0,0,0,-1,1805,1051,0,0
588,-27,0,0,0,0,0,0,0,0,0,-1,1812,1051,0,0
595,-27,0,0,0,0,0,0,0,0,0,-1,1819,1051,0,0
602,-27,0,0,0,0,0,0,0,0,0,-1,1826,1051,0,0
609,-27,0,0,0,0,0,0,0,0,0,-1,1833,1051,0,0
616,-27,0,0,0,0,0,0,0,0,0,-1,1840,1051,0,0
623,-27,0,0,0,0,0,0,0,0,0,-1,1847,1051,0,0
630,-27,0,0,0,0,0,0,0,0,0,-1,1854,1051,0,0
637,-27,0,0,0,0,0,0,0,0,0,-1,1861,1051,0,0
644,-27,0,0,0,0,0,0,0,0,0,-1,1868,1051,0,0
651,-27,16.3574,2.18872,-0.00222601,0.00432794,0.00172942,0.00475629,-0.00265436,1.328,0.00433553,0.0390444,1875,1051,16.3574,-2.18875
658,-27,16.0728,2.23499,-0.00139147,0.00350019,0.00170326,0.00403482,-0.0019261,1.26665,0.00351259,0.0404242,1882,1051,16.0727,-2.23496
665,-27,16.011,2.3252,-0.000914956,0.00273103,0.00136626,0.00318619,-0.00137011,1.24922,0.00269934,0.0381619,1889,1051,16.011,-2.32514
672,-27,16.1444,2.37244,-0.000664558,0.00202579,0.00142829,0.00264263,-0.0012814,1.16312,0.00231053,0.0295493,1896,1051,16.1444,-2.3725
679,-27,16.1129,2.33716,-0.00100977,0.00133155,0.00205138,0.00252279,-0.00220102,1.04469,0.0027294,0.0295808,1903,1051,16.1129,-2.33717
686,-27,16.1908,2.31213,-0.00163193,0.000721494,0.00280416,0.00258583,-0.00349627,0.984055,0.00352459,0.0420088,1910,1051,16.1908,-2.31212
693,-27,16.2218,2.28723,-0.00222046,0.000217886,0.00352859,0.00273198,-0.00473456,0.951734,0.00436219,0.0441293,1917,1051,16.2218,-2.28726
700,-27,16.208,2.29749,-0.00279404,-0.000193037,0.00417748,0.00288169,-0.00586877,0.9363,0.00514926,0.0387328,1924,1051,16.208,-2.29754
707,-27,16.152,2.22607,-0.00313163,-0.000386665,0.0046505,0.00308965,-0.00660795,0.928888,0.00572042,0.0226305,1931,1051,16.152,-2.22611
714,-27,16.1331,2.27356,-0.00342809,-0.000623033,0.00497606,0.00314438,-0.0071955,0.922762,0.00612055,0.0160775,1938,1051,16.1331,-2.27353
721,-27,16.181,2.42725,-0.00381802,-0.000733947,0.00512305,0.00307411,-0.00762608,0.931585,0.00636137,0.0184063,1945,1051,16.181,-2.42721
728,-27,16.0044,2.92566,-0.00403705,-0.000598969,0.00503044,0.00299805,-0.00763407,0.950041,0.00632998,0.0227834,1952,1051,16.0044,-2.92567
735,-27,15.7588,3.14685,-0.00390573,-0.000317088,0.004568,0.00279636,-0.00701918,0.972541,0.0058392,0.0175875,1959,1051,15.7588,-3.14681
742,-27,15.8091,3.16882,-0.00378452,0.000154852,0.00365751,0.00233932,-0.00596899,1.0324,0.00494704,0.0165807,1966,1051,15.809,-3.1688
749,-27,15.8365,3.18701,-0.00376855,2.93455e-05,0.00245452,0.00123373,-0.00497293,1.11463,0.003794,0.0114885,1973,1051,15.8366,-3.18699
756,-27,15.8317,3.20874,-0.00437757,0.000322472,0.000151282,0.000327336,-0.00438243,1.53865,0.00303662,0.0108732,1980,1051,15.8317,-3.20873
763,-27,15.8396,3.19312,-0.00575872,-7.20238e-05,-0.00335142,0.0014797,-0.00731044,-1.13718,0.00543443,0.0135426,1987,1051,15.8396,-3.19316
770,-27,15.8372,3.18884,-0.00726084,-0.000364389,-0.00731304,0.0042726,-0.0118978,-1.0057,0.00967582,0.015211,1994,1051,15.8372,-3.18887
777,-27,15.8064,3.20935,-0.00955679,-0.000982063,-0.0122984,0.00775488,-0.0182937,-0.953117,0.015444,0.0148733,2001,1051,15.8064,-3.20935
784,-27,15.7585,3.21375,-0.0131401,-0.0021651,-0.0181955,0.0113523,-0.0266576,-0.931854,0.0225303,0.0224158,2008,1051,15.7585,-3.21372
791,-27,15.8655,3.09302,-0.0183451,-0.00399845,-0.0255621,0.0153778,-0.0377213,-0.922191,0.0315485,0.0413468,2015,1051,15.8654,-3.09301
798,-27,15.7926,2.81531,-0.0251737,-0.00665034,-0.0350802,0.0203702,-0.0521942,-0.914461,0.0432172,0.045506,2022,1051,15.7926,-2.81531
805,-27,15.6128,2.26184,-0.033922,-0.010303,-0.0472705,0.0266109,-0.0708358,-0.907807,0.0581601,0.044245,2029,1051,15.6128,-2.26189
812,-27,14.053,-0.326294,-0.0451921,-0.0152067,-0.0627443,0.0343112,-0.0947101,-0.902674,0.0771632,0.0477542,2036,1051,14.053,0.32628
-700,-34,-11.4561,0.649414,0,0,0,0,0,0,0,-1,524,1058,-11.4561,-0.649461
-693,-34,-9.8924,-1.60962,0,0,0,0,0,0,0,-1,531,1058,-9.89238,1.60964
-686,-34,-9.72845,-1.12976,0.0327707,0.0589172,0.0703169,0.117366,-0.0256778,0.877308,0.08806,0.0481701,538,1058,-9.72845,1.1298
-679,-34,-9.55188,-0.613892,0.0220127,0.0480092,0.0541684,0.090717,-0.0206951,0.903152,0.0684276,0.0426979,545,1058,-9.55187,0.61389
-672,-34,-9.49756,-0.0181885,0.0141111,0.0386155,0.0409944,0.0691495,-0.0164228,0.93061,0.0524383,0.0439121,552,1058,-9.49757,0.018136
-665,-34,-9.72485,0.576904,0.00852177,0.0305568,0.0303962,0.0518706,-0.0127921,0.959265,0.0395403,0.0454877,559,1058,-9.72484,-0.576873
-658,-34,-9.73114,0.778809,0.00471113,0.0236977,0.0220307,0.0381935,-0.00978467,0.988831,0.0292741,0.0431167,566,1058,-9.73112,-0.778813
-651,-34,-9.86914,0.885132,0.00224357,0.0179259,0.0155632,0.0275117,-0.00734219,1.01875,0.0212163,0.0268657,573,1058,-9.86913,-0.88518
-644,-34,-9.98517,0.916138,0.000753118,0.0131265,0.0104826,0.0191119,-0.00523233,1.05198,0.014797,0.00999276,580,1058,-9.98517,-0.916088
-637,-34,-10.0103,0.927246,-0.000476421,0.00871912,0.00575979,0.0114912,-0.0032485,1.12224,0.00894252,0.00999904,587,1058,-10.0103,-0.927289
-630,-34,-10.028,0.984253,-0.00103165,0.00557738,0.00265077,0.00650919,-0.00196345,1.23277,0.00512099,0.0131063,594,1058,-10.028,-0.984225
-623,-34,-9.99866,1.01392,-0.00122557,0.00324657,0.000360599,0.00327545,-0.00125446,1.49085,0.00270071,0.011561,601,1058,-9.99864,-1.01388
-616,-34,-9.97906,1.04431,-0.00111765,0.00145356,-0.00194767,0.00250167,-0.00216576,-1.07711,0.00269706,0.017595,608,1058,-9.97907,-1.04426
-609,-34,-9.9754,1.07361,-0.00068082,-1.36599e-05,-0.00304561,0.00271658,-0.00341106,-0.839945,0.00354536,0.0186387,615,1058,-9.97541,-1.07364
-602,-34,-9.99762,1.09045,-0.000641488,-0.000540258,-0.00376277,0.00317224,-0.00435398,-0.792124,0.00436308,0.0143172,622,1058,-9.99761,-1.09043
-595,-34,-9.99982,1.11804,-0.000626742,-0.00088696,-0.00416161,0.00340679,-0.00492049,-0.769771,0.00483416,0.0118318,629,1058,-9.99983,-1.11805
-588,-34,-10.0276,0.814209,-0.00048322,-0.00100715,-0.00429394,0.00355674,-0.00504711,-0.754932,0.00499222,0.0170372,636,1058,-10.0276,-0.814245
-581,-34,-10.0466,0.560669,-0.000209675,-0.000954876,-0.00429043,0.0037243,-0.00488885,-0.742085,0.00498794,0.0210734,643,1058,-10.0466,-0.560682
-574,-34,-10.0724,0.657837,-7.51657e-06,-0.000836766,-0.00401049,0.00360973,-0.00445401,-0.733889,0.0046641,0.0344532,650,1058,-10.0724,-0.657796
-567,-34,-10.0993,0.584229,0.00027864,-0.000614626,-0.00347712,0.00333769,-0.00367368,-0.721523,0.00404957,0.0412081,657,1058,-10.0993,-0.584188
-560,-34,-9.99982,0.41394,0.00069751,-0.000308594,-0.00274709,0.00298723,-0.00259831,-0.694841,0.00322742,0.0420936,664,1058,-9.99983,-0.413942
-553,-34,-9.99377,0.519897,0.00124794,5.67768e-05,-0.00189396,0.00263776,-0.00133304,-0.633061,0.00233343,0.0423378,671,1058,-9.99378,-0.519839
-546,-34,-10.0266,0.908325,0.00191465,0.00045037,-0.00101683,0.00243549,-7.04733e-05,-0.473379,0.00164765,0.0451298,678,1058,-10.0266,-0.908333
-539,-34,-9.94897,0.88208,0.00273366,0.000781569,-0.000584378,0.00289523,0.000620002,-0.269739,0.00176027,0.0438113,685,1058,-9.94896,-0.882137
-532,-34,-9.83765,0.546631,0.00352807,0.000940446,-0.00161386,0.00430272,0.000165804,-0.447514,0.00281484,0.0425018,692,1058,-9.83764,-0.546681
-525,-34,0,0,0,0,0,0,0,0,0,-1,699,1058,0,0
-518,-34,0,0,0,0,0,0,0,0,0,-1,706,1058,0,0
-511,-34,0,0,0,0,0,0,0,0,0,-1,713,1058,0,0
-504,-34,0,0,0,0,0,0,0,0,0,-1,720,1058,0,0
-497,-34,0,0,0,0,0,0,0,0,0,-1,727,1058,0,0
-490,-34,0,0,0,0,0,0,0,0,0,-1,734,1058,0,0
-483,-34,0,0,0,0,0,0,0,0,0,-1,741,1058,0,0
-476,-34,0,0,0,0,0,0,0,0,0,-1,748,1058,0,0
-469,-34,0,0,0,0,0,0,0,0,0,-1,755,1058,0,0
-462,-34,0,0,0,0,0,0,0,0,0,-1,762,1058,0,0
-455,-34,0,0,0,0,0,0,0,0,0,-1,769,1058,0,0
-448,-34,0,0,0,0,0,0,0,0,0,-1,776,1058,0,0
-441,-34,0,0,0,0,0,0,0,0,0,-1,783,1058,0,0
-434,-34,0,0,0,0,0,0,0,0,0,-1,790,1058,0,0
-427,-34,0,0,0,0,0,0,0,0,0,-1,797,1058,0,0
-420,-34,0,0,0,0,0,0,0,0,0,-1,804,1058,0,0
-413,-34,0,0,0,0,0,0,0,0,0,-1,811,1058,0,0
-406,-34,0,0,0,0,0,0,0,0,0,-1,818,1058,0,0
-399,-34,0,0,0,0,0,0,0,0,0,-1,825,1058,0,0
-392,-34,0,0,0,0,0,0,0,0,0,-1,832,1058,0,0
-385,-34,0,0,0,0,0,0,0,0,0,-1,839,1058,0,0
-378,-34,0,0,0,0,0,0,0,0,0,-1,846,1058,0,0
-371,-34,0,0,0,0,0,0,0,0,0,-1,853,1058,0,0
-364,-34,0,0,0,0,0,0,0,0,0,-1,860,1058,0,0
-357,-34,0,0,0,0,0,0,0,0,0,-1,867,1058,0,0
-350,-34,0,0,0,0,0,0,0,0,0,-1,874,1058,0,0
-343,-34,0,0,0,0,0,0,0,0,0,-1,881,1058,0,0
-336,-34,0,0,0,0,0,0,0,0,0,-1,888,1058,0,0
-329,-34,0,0,0,0,0,0,0,0,0,-1,895,1058,0,0
-322,-34,0,0,0,0,0,0,0,0,0,-1,902,1058,0,0
-315,-34,0,0,0,0,0,0,0,0,0,-1,909,1058,0,0
-308,-34,0,0,0,0,0,0,0,0,0,-1,916,1058,0,0
-301,-34,0,0,0,0,0,0,0,0,0,-1,923,1058,0,0
-294,-34,0,0,0,0,0,0,0,0,0,-1,930,1058,0,0
-287,-34,0,0,0,0,0,0,0,0,0,-1,937,1058,0,0
-280,-34,0,0,0,0,0,0,0,0,0,-1,944,1058,0,0
-273,-34,0,0,0,0,0,0,0,0,0,-1,951,1058,0,0
-266,-34,0,0,0,0,0,0,0,0,0,-1,958,1058,0,0
-259,-34,0,0,0,0,0,0,0,0,0,-1,965,1058,0,0
-252,-34,0,0,0,0,0,0,0,0,0,-1,972,1058,0,0
-245,-34,0,0,0,0,0,0,0,0,0,-1,979,1058,0,0
-238,-34,0,0,0,0,0,0,0,0,0,-1,986,1058,0,0
-231,-34,0,0,0,0,0,0,0,0,0,-1,993,1058,0,0
-224,-34,0,0,0,0,0,0,0,0,0,-1,1000,1058,0,0
-217,-34,0,0,0,0,0,0,0,0,0,-1,1007,1058,0,0
-210,-34,0,0,0,0,0,0,0,0,0,-1,1014,1058,0,0
-203,-34,0,0,0,0,0,0,0,0,0,-1,1021,1058,0,0
-196,-34,0,0,0,0,0,0,0,0,0,-1,1028,1058,0,0
-189,-34,0,0,0,0,0,0,0,0,0,-1,1035,1058,0,0
-182,-34,0,0,0,0,0,0,0,0,0,-1,1042,1058,0,0
-175,-34,0,0,0,0,0,0,0,0,0,-1,1049,1058,0,0
-168,-34,0,0,0,0,0,0,0,0,0,-1,1056,1058,0,0
-161,-34,0,0,0,0,0,0,0,0,0,-1,1063,1058,0,0
-154,-34,0,0,0,0,0,0,0,0,0,-1,1070,1058,0,0
-147,-34,0,0,0,0,0,0,0,0,0,-1,1077,1058,0,0
-140,-34,0,0,0,0,0,0,0,0,0,-1,1084,1058,0,0
-133,-34,0,0,0,0,0,0,0,0,0,-1,1091,1058,0,0
-126,-34,0,0,0,0,0,0,0,0,0,-1,1098,1058,0,0
-119,-34,0,0,0,0,0,0,0,0,0,-1,1105,1058,0,0
-112,-34,0,0,0,0,0,0,0,0,0,-1,1112,1058,0,0
-105,-34,0,0,0,0,0,0,0,0,0,-1,1119,1058,0,0
-98,-34,0,0,0,0,0,0,0,0,0,-1,1126,1058,0,0
-91,-34,0,0,0,0,0,0,0,0,0,-1,1133,1058,0,0
-84,-34,0,0,0,0,0,0,0,0,0,-1,1140,1058,0,0
-77,-34,0,0,0,0,0,0,0,0,0,-1,1147,1058,0,0
-70,-34,0,0,0,0,0,0,0,0,0,-1,1154,1058,0,0
-63,-34,0,0,0,0,0,0,0,0,0,-1,1161,1058,0,0
-56,-34,0,0,0,0,0,0,0,0,0,-1,1168,1058,0,0
-49,-34,0,0,0,0,0,0,0,0,0,-1,1175,1058,0,0
-42,-34,0,0,0,0,0,0,0,0,0,-1,1182,1058,0,0
-35,-34,0,0,0,0,0,0,0,0,0,-1,1189,1058,0,0
-28,-34,0,0,0,0,0,0,0,0,0,-1,1196,1058,0,0
-21,-34,0,0,0,0,0,0,0,0,0,-1,1203,1058,0,0
-14,-34,0,0,0,0,0,0,0,0,0,-1,1210,1058,0,0
-7,-34,0,0,0,0,0,0,0,0,0,-1,1217,1058,0,0
0,-34,0,0,0,0,0,0,0,0,0,-1,1224,1058,0,0
7,-34,0,0,0,0,0,0,0,0,0,-1,1231,1058,0,0
14,-34,0,0,0,0,0,0,0,0,0,-1,1238,1058,0,0
21,-34,0,0,0,0,0,0,0,0,0,-1,1245,1058,0,0
28,-34,0,0,0,0,0,0,0,0,0,-1,1252,1058,0,0
35,-34,0,0,0,0,0,0,0,0,0,-1,1259,1058,0,0
42,-34,0,0,0,0,0,0,0,0,0,-1,1266,1058,0,0
49,-34,0,0,0,0,0,0,0,0,0,-1,1273,1058,0,0
56,-34,0,0,0,0,0,0,0,0,0,-1,1280,1058,0,0
63,-34,0,0,0,0,0,0,0,0,0,-1,1287,1058,0,0
70,-34,0,0,0,0,0,0,0,0,0,-1,1294,1058,0,0
77,-34,0,0,0,0,0,0,0,0,0,-1,1301,1058,0,0
84,-34,0,0,0,0,0,0,0,0,0,-1,1308,1058,0,0
91,-34,0,0,0,0,0,0,0,0,0,-1,1315,1058,0,0
98,-34,0,0,0,0,0,0,0,0,0,-1,1322,1058,0,0
105,-34,0,0,0,0,0,0,0,0,0,-1,1329,1058,0,0
112,-34,0,0,0,0,0,0,0,0,0,-1,1336,1058,0,0
119,-34,0,0,0,0,0,0,0,0,0,-1,1343,1058,0,0
126,-34,0,0,0,0,0,0,0,0,0,-1,1350,1058,0,0
133,-34,0,0,0,0,0,0,0,0,0,-1,1357,1058,0,0
140,-34,0,0,0,0,0,0,0,0,0,-1,1364,1058,0,0
147,-34,0,0,0,0,0,0,0,0,0,-1,1371,1058,0,0
154,-34,0,0,0,0,0,0,0,0,0,-1,1378,1058,0,0
161,-34,0,0,0,0,0,0,0,0,0,-1,1385,1058,0,0
168,-34,0,0,0,0,0,0,0,0,0,-1,1392,1058,0,0
175,-34,0,0,0,0,0,0,0,0,0,-1,1399,1058,0,0
182,-34,0,0,0,0,0,0,0,0,0,-1,1406,1058,0,0
189,-34,0,0,0,0,0,0,0,0,0,-1,1413,1058,0,0
196,-34,0,0,0,0,0,0,0,0,0,-1,1420,1058,0,0
203,-34,0,0,0,0,0,0,0,0,0,-1,1427,1058,0,0
210,-34,0,0,0,0,0,0,0,0,0,-1,1434,1058,0,0
217,-34,0,0,0,0,0,0,0,0,0,-1,1441,1058,0,0
224,-34,0,0,0,0,0,0,0,0,0,-1,1448,1058,0,0
231,-34,0,0,0,0,0,0,0,0,0,-1,1455,1058,0,0
238,-34,0,0,0,0,0,0,0,0,0,-1,1462,1058,0,0
245,-34,0,0,0,0,0,0,0,0,0,-1,1469,1058,0,0
252,-34,0,0,0,0,0,0,0,0,0,-1,1476,1058,0,0
259,-34,0,0,0,0,0,0,0,0,0,-1,1483,1058,0,0
266,-34,0,0,0,0,0,0,0,0,0,-1,1490,1058,0,0
273,-34,0,0,0,0,0,0,0,0,0,-1,1497,1058,0,0
280,-34,0,0,0,0,0,0,0,0,0,-1,1504,1058,0,0
287,-34,0,0,0,0,0,0,0,0,0,-1,1511,1058,0,0
294,-34,0,0,0,0,0,0,0,0,0,-1,1518,1058,0,0
301,-34,0,0,0,0,0,0,0,0,0,-1,1525,1058,0,0
308,-34,0,0,0,0,0,0,0,0,0,-1,1532,1058,0,0
315,-34,0,0,0,0,0,0,0,0,0,-1,1539,1058,0,0
322,-34,0,0,0,0,0,0,0,0,0,-1,1546,1058,0,0
329,-34,0,0,0,0,0,0,0,0,0,-1,1553,1058,0,0
336,-34,0,0,0,0,0,0,0,0,0,-1,1560,1058,0,0
343,-34,0,0,0,0,0,0,0,0,0,-1,1567,1058,0,0
350,-34,0,0,0,0,0,0,0,0,0,-1,1574,1058,0,0
357,-34,0,0,0,0,0,0,0,0,0,-1,1581,1058,0,0
364,-34,0,0,0,0,0,0,0,0,0,-1,1588,1058,0,0
371,-34,0,0,0,0,0,0,0,0,0,-1,1595,1058,0,0
378,-34,0,0,0,0,0,0,0,0,0,-1,1602,1058,0,0
385,-34,0,0,0,0,0,0,0,0,0,-1,1609,1058,0,0
392,-34,0,0,0,0,0,0,0,0,0,-1,1616,1058,0,0
399,-34,0,0,0,0,0,0,0,0,0,-1,1623,1058,0,0
406,-34,0,0,0,0,0,0,0,0,0,-1,1630,1058,0,0
413,-34,0,0,0,0,0,0,0,0,0,-1,1637,1058,0,0
420,-34,0,0,0,0,0,0,0,0,0,-1,1644,1058,0,0
427,-34,0,0,0,0,0,0,0,0,0,-1,1651,1058,0,0
434,-34,0,0,0,0,0,0,0,0,0,-1,1658,1058,0,0
441,-34,0,0,0,0,0,0,0,0,0,-1,1665,1058,0,0
448,-34,0,0,0,0,0,0,0,0,0,-1,1672,1058,0,0
455,-34,0,0,0,0,0,0,0,0,0,-1,1679,1058,0,0
462,-34,0,0,0,0,0,0,0,0,0,-1,1686,1058,0,0
469,-34,0,0,0,0,0,0,0,0,0,-1,1693,1058,0,0
476,-34,0,0,0,0,0,0,0,0,0,-1,1700,1058,0,0
483,-34,0,0,0,0,0,0,0,0,0,-1,1707,1058,0,0
490,-34,0,0,0,0,0,0,0,0,0,-1,1714,1058,0,0
497,-34,0,0,0,0,0,0,0,0,0,-1,1721,1058,0,0
504,-34,0,0,0,0,0,0,0,0,0,-1,1728,1058,0,0
511,-34,0,0,0,0,0,0,0,0,0,-1,1735,1058,0,0
518,-34,0,0,0,0,0,0,0,0,0,-1,1742,1058,0,0
525,-34,0,0,0,0,0,0,0,0,0,-1,1749,1058,0,0
532,-34,0,0,0,0,0,0,0,0,0,-1,1756,1058,0,0
539,-34,0,0,0,0,0,0,0,0,0,-1,1763,1058,0,0
546,-34,0,0,0,0,0,0,0,0,0,-1,1770,1058,0,0
553,-34,0,0,0,0,0,0,0,0,0,-1,1777,1058,0,0
560,-34,0,0,0,0,0,0,0,0,0,-1,1784,1058,0,0
567,-34,0,0,0,0,0,0,0,0,0,-1,1791,1058,0,0
574,-34,0,0,0,0,0,0,0,0,0,-1,1798,1058,0,0
581,-34,0,0,0,0,0,0,0,0,0,-1,1805,1058,0,0
588,-34,0,0,0,0,0,0,0,0,0,-1,1812,1058,0,0
595,-34,0,0,0,0,0,0,0,0,0,-1,1819,1058,0,0
602,-34,0,0,0,0,0,0,0,0,0,-1,1826,1058,0,0
609,-34,0,0,0,0,0,0,0,0,0,-1,1833,1058,0,0
616,-34,0,0,0,0,0,0,0,0,0,-1,1840,1058,0,0
623,-34,0,0,0,0,0,0,0,0,0,-1,1847,1058,0,0
630,-34,0,0,0,0,0,0,0,0,0,-1,1854,1058,0,0
637,-34,0,0,0,0,0,0,0,0,0,-1,1861,1058,0,0
644,-34,0,0,0,0,0,0,0,0,0,-1,1868,1058,0,0
651,-34,16.2356,2.0188,-0.00216176,0.00218543,0.00143445,0.0026161,-0.00259242,1.27913,0.00300715,0.0401985,1875,1058,16.2356,-2.01886
658,-34,16.1881,2.14941,-0.00138982,0.0018319,0.00155852,0.00246244,-0.00202036,1.18635,0.00259233,0.0431099,1882,1058,16.1881,-2.14947
665,-34,16.1871,2.28125,-0.000922404,0.00144915,0.00132019,0.00203791,-0.00151116,1.1513,0.00205657,0.0415418,1889,1058,16.1871,-2.2813
672,-34,16.2327,2.21069,-0.000653259,0.00103444,0.00141693,0.00183976,-0.00145858,1.05397,0.00190853,0.0382292,1896,1058,16.2327,-2.21069
679,-34,16.1251,2.33643,-0.000976617,0.000537083,0.0020593,0.00197421,-0.00241375,0.9615,0.00253762,0.0386008,1903,1058,16.1251,-2.3364
686,-34,16.1654,2.43481,-0.00158156,6.95454e-05,0.00280433,0.00216732,-0.00367933,0.928547,0.00341298,0.0444378,1910,1058,16.1654,-2.43482
693,-34,16.2208,2.44653,-0.00214895,-0.000330379,0.00350505,0.00238142,-0.00486074,0.912311,0.00426215,0.0448961,1917,1058,16.2209,-2.44651
700,-34,16.166,2.43201,-0.00270348,-0.000637627,0.00410584,0.00256323,-0.00590433,0.908628,0.005014,0.0407225,1924,1058,16.166,-2.43204
707,-34,16.0986,2.32007,-0.00305333,-0.000793495,0.00457783,0.0027918,-0.00663862,0.906391,0.00559362,0.0240781,1931,1058,16.0986,-2.32006
714,-34,16.1234,2.32983,-0.00333423,-0.000954021,0.00491153,0.00290954,-0.00719779,0.904261,0.00600799,0.0159265,1938,1058,16.1234,-2.3298
721,-34,16.1774,2.49426,-0.00368939,-0.00103041,0.00501892,0.00283212,-0.00755192,0.914872,0.00619822,0.0231291,1945,1058,16.1774,-2.49425
728,-34,15.9938,2.94128,-0.00388834,-0.00088715,0.00488707,0.00272452,-0.00750001,0.934356,0.006114,0.0234564,1952,1058,15.9937,-2.94129
735,-34,15.7837,3.18176,-0.00377698,-0.000613988,0.00442216,0.00250097,-0.00689193,0.957126,0.00561704,0.0147647,1959,1058,15.7836,-3.18179
742,-34,15.7864,3.17554,-0.00375882,-0.000156298,0.00355056,0.00202377,-0.00593889,1.02014,0.00477889,0.0146488,1966,1058,15.7864,-3.17551
749,-34,15.8223,3.1969,-0.00382138,-0.000390573,0.00242357,0.000863249,-0.0050752,1.09337,0.00370489,0.012237,1973,1058,15.8222,-3.19694
756,-34,15.8405,3.21558,-0.00453246,-0.000269313,0.000226723,-0.00025729,-0.00454448,1.51781,0.00294764,0.00986488,1980,1058,15.8405,-3.21552
763,-34,15.8297,3.18213,-0.00606984,-0.000751328,-0.00312024,0.000689115,-0.00751029,-1.1383,0.00525166,0.0113864,1987,1058,15.8298,-3.1821
770,-34,15.8135,3.15393,-0.0077429,-0.00124694,-0.00697739,0.00320141,-0.0121912,-1.00323,0.00937857,0.016643,1994,1058,15.8135,-3.15388
777,-34,15.7946,3.18481,-0.0102721,-0.00211305,-0.0117829,0.00627658,-0.0186617,-0.952051,0.0149783,0.0162815,2001,1058,15.7945,-3.1848
784,-34,15.7759,3.18127,-0.0141397,-0.00361164,-0.0174191,0.00932148,-0.0270728,-0.932134,0.0218295,0.0312797,2008,1058,15.7759,-3.18123
791,-34,15.8937,2.89014,-0.0196553,-0.00577618,-0.0244459,0.0126961,-0.0381276,-0.923697,0.030543,0.0450381,2015,1058,15.8937,-2.89009
798,-34,15.957,2.30542,-0.0268233,-0.00873375,-0.0335291,0.0169491,-0.0525061,-0.917142,0.0418149,0.0463615,2022,1058,15.957,-2.30542
805,-34,15.5909,0.744019,0,0,0,0,0,0,0,-1,2029,1058,15.591,-0.743982
812,-34,14.8884,0.106079,0,0,0,0,0,0,0,-1,2036,1058,14.8884,-0.106139
-700,-41,-12.3214,1.77258,0,0,0,0,0,0,0,-1,524,1065,-12.3214,-1.77256
-693,-41,-10.9204,1.36145,0,0,0,0,0,0,0,-1,531,1065,-10.9204,-1.36151
-686,-41,-10.0544,-1.44348,0,0,0,0,0,0,0,-1,538,1065,-10.0544,1.44346
-679,-41,-9.74402,-0.938965,0.0347754,0.0483931,0.0623971,0.104352,-0.0211832,0.839744,0.0775987,0.0431388,545,1065,-9.74399,0.938969
-672,-41,-9.72736,-0.431396,0.0242784,0.0387654,0.0474387,0.0795104,-0.0164666,0.861159,0.0592633,0.0423682,552,1065,-9.72734,0.431339
-665,-41,-10.0873,0.450317,0.0163998,0.0304978,0.0353136,0.0594591,-0.0125615,0.883909,0.0444225,0.0427412,559,1065,-10.0874,-0.450329
-658,-41,-9.92932,0.738037,0.0106556,0.0234761,0.025674,0.043528,-0.00939628,0.907736,0.0326052,0.0405852,566,1065,-9.92932,-0.738045
-651,-41,-9.87183,0.841919,0.00660926,0.0176065,0.0181829,0.031104,-0.00688823,0.93223,0.0233729,0.0272418,573,1065,-9.87181,-0.841922
-644,-41,-9.97205,0.895996,0.00386695,0.0127759,0.0123376,0.0214385,-0.00479568,0.958639,0.0161303,0.0105324,580,1065,-9.97207,-0.895995
-637,-41,-9.98181,0.916992,0.00166493,0.00839046,0.00703058,0.0128211,-0.00276572,1.00847,0.009603,0.0101337,587,1065,-9.98179,-0.917021
-630,-41,-9.97351,0.960205,0.000414289,0.00525446,0.00347546,0.00706942,-0.00140067,1.08953,0.00524259,0.010253,594,1065,-9.97352,-0.960214
-623,-41,-9.95862,0.981079,-0.000337522,0.00298496,0.000800072,0.00316759,-0.000520145,1.34638,0.00230476,0.0100026,601,1065,-9.95862,-0.981084
-616,-41,-9.94708,1.01587,-0.000811754,0.00121561,-0.00183046,0.00229432,-0.00189047,-1.03827,0.00241984,0.0141149,608,1065,-9.94709,-1.01591
-609,-41,-9.95782,1.06311,-0.000788441,-0.000188776,-0.0031383,0.00266399,-0.0036412,-0.833023,0.00365485,0.0205828,615,1065,-9.95779,-1.06311
-602,-41,-9.96307,1.09619,-0.000828766,-0.000689394,-0.00388949,0.00313104,-0.0046492,-0.794355,0.00452034,0.0129261,622,1065,-9.96307,-1.09616
-595,-41,-9.96979,1.11646,-0.000872704,-0.00105002,-0.00432882,0.00336836,-0.00529109,-0.775159,0.00504045,0.0136415,629,1065,-9.96976,-1.11642
-588,-41,-10.004,0.807983,-0.00076032,-0.0011562,-0.00451601,0.00356209,-0.00547861,-0.763497,0.0052586,0.0196765,636,1065,-10.004,-0.808041
-581,-41,-9.99591,0.515381,-0.000493151,-0.00109637,-0.00454235,0.00375759,-0.00534711,-0.752247,0.00528324,0.0326172,643,1065,-9.99592,-0.515363
-574,-41,-10.049,0.712402,-0.00026933,-0.000976574,-0.00427545,0.0036671,-0.004913,-0.744137,0.0049711,0.0374892,650,1065,-10.049,-0.712353
-567,-41,-10.2862,0.776489,7.01858e-05,-0.000740766,-0.00374444,0.00343104,-0.00410162,-0.731465,0.00435473,0.0413194,657,1065,-10.2862,-0.776479
-560,-41,-10.0894,0.39978,0.000573614,-0.00040347,-0.00301038,0.00313484,-0.00296469,-0.704956,0.00352202,0.0412561,664,1065,-10.0894,-0.399752
-553,-41,-10.0444,0.411011,0.00123611,1.7694e-05,-0.00215364,0.00286505,-0.00161124,-0.647563,0.00261796,0.0433091,671,1065,-10.0444,-0.410952
-546,-41,-10.1116,0.65271,0.00203904,0.000504866,-0.0012781,0.00276257,-0.000218668,-0.515123,0.00191876,0.0430779,678,1065,-10.1116,-0.652741
-539,-41,-10.063,0.720825,0.00300412,0.000983767,-0.000859629,0.00332038,0.000667513,-0.352528,0.00202803,0.0414846,685,1065,-10.063,-0.720877
-532,-41,-9.92535,0.350708,0.00386289,0.00129808,-0.00201826,0.00497171,0.000189261,-0.502376,0.00325322,0.0380055,692,1065,-9.92533,-0.350698
-525,-41,0,0,0,0,0,0,0,0,0,-1,699,1065,0,0
-518,-41,0,0,0,0,0,0,0,0,0,-1,706,1065,0,0
-511,-41,0,0,0,0,0,0,0,0,0,-1,713,1065,0,0
-504,-41,0,0,0,0,0,0,0,0,0,-1,720,1065,0,0
-497,-41,0,0,0,0,0,0,0,0,0,-1,727,1065,0,0
-490,-41,0,0,0,0,0,0,0,0,0,-1,734,1065,0,0
-483,-41,0,0,0,0,0,0,0,0,0,-1,741,1065,0,0
-476,-41,0,0,0,0,0,0,0,0,0,-1,748,1065,0,0
-469,-41,0,0,0,0,0,0,0,0,0,-1,755,1065,0,0
-462,-41,0,0,0,0,0,0,0,0,0,-1,762,1065,0,0
-455,-41,0,0,0,0,0,0,0,0,0,-1,769,1065,0,0
-448,-41,0,0,0,0,0,0,0,0,0,-1,776,1065,0,0
-441,-41,0,0,0,0,0,0,0,0,0,-1,783,1065,0,0
-434,-41,0,0,0,0,0,0,0,0,0,-1,790,1065,0,0
-427,-41,0,0,0,0,0,0,0,0,0,-1,797,1065,0,0
-420,-41,0,0,0,0,0,0,0,0,0,-1,804,1065,0,0
-413,-41,0,0,0,0,0,0,0,0,0,-1,811,1065,0,0
-406,-41,0,0,0,0,0,0,0,0,0,-1,818,1065,0,0
-399,-41,0,0,0,0,0,0,0,0,0,-1,825,1065,0,0
-392,-41,0,0,0,0,0,0,0,0,0,-1,832,1065,0,0
-385,-41,0,0,0,0,0,0,0,0,0,-1,839,1065,0,0
-378,-41,0,0,0,0,0,0,0,0,0,-1,846,1065,0,0
-371,-41,0,0,0,0,0,0,0,0,0,-1,853,1065,0,0
-364,-41,0,0,0,0,0,0,0,0,0,-1,860,1065,0,0
-357,-41,0,0,0,0,0,0,0,0,0,-1,867,1065,0,0
-350,-41,0,0,0,0,0,0,0,0,0,-1,874,1065,0,0
-343,-41,0,0,0,0,0,0,0,0,0,-1,881,1065,0,0
-336,-41,0,0,0,0,0,0,0,0,0,-1,888,1065,0,0
-329,-41,0,0,0,0,0,0,0,0,0,-1,895,1065,0,0
-322,-41,0,0,0,0,0,0,0,0,0,-1,902,1065,0,0
-315,-41,0,0,0,0,0,0,0,0,0,-1,909,1065,0,0
-308,-41,0,0,0,0,0,0,0,0,0,-1,916,1065,0,0
-301,-41,0,0,0,0,0,0,0,0,0,-1,923,1065,0,0
-294,-41,0,0,0,0,0,0,0,0,0,-1,930,1065,0,0
-287,-41,0,0,0,0,0,0,0,0,0,-1,937,1065,0,0
-280,-41,0,0,0,0,0,0,0,0,0,-1,944,1065,0,0
-273,-41,0,0,0,0,0,0,0,0,0,-1,951,1065,0,0
-266,-41,0,0,0,0,0,0,0,0,0,-1,958,1065,0,0
-259,-41,0,0,0,0,0,0,0,0,0,-1,965,1065,0,0
-252,-41,0,0,0,0,0,0,0,0,0,-1,972,1065,0,0
-245,-41,0,0,0,0,0,0,0,0,0,-1,979,1065,0,0
-238,-41,0,0,0,0,0,0,0,0,0,-1,986,1065,0,0
-231,-41,0,0,0,0,0,0,0,0,0,-1,993,1065,0,0
-224,-41,0,0,0,0,0,0,0,0,0,-1,1000,1065,0,0
-217,-41,0,0,0,0,0,0,0,0,0,-1,1007,1065,0,0
-210,-41,0,0,0,0,0,0,0,0,0,-1,1014,1065,0,0
-203,-41,0,0,0,0,0,0,0,0,0,-1,1021,1065,0,0
-196,-41,0,0,0,0,0,0,0,0,0,-1,1028,1065,0,0
-189,-41,0,0,0,0,0,0,0,0,0,-1,1035,1065,0,0
-182,-41,0,0,0,0,0,0,0,0,0,-1,1042,1065,0,0
-175,-41,0,0,0,0,0,0,0,0,0,-1,1049,1065,0,0
-168,-41,0,0,0,0,0,0,0,0,0,-1,1056,1065,0,0
-161,-41,0,0,0,0,0,0,0,0,0,-1,1063,1065,0,0
-154,-41,0,0,0,0,0,0,0,0,0,-1,1070,1065,0,0
-147,-41,0,0,0,0,0,0,0,0,0,-1,1077,1065,0,0
-140,-41,0,0,0,0,0,0,0,0,0,-1,1084,1065,0,0
-133,-41,0,0,0,0,0,0,0,0,0,-1,1091,1065,0,0
-126,-41,0,0,0,0,0,0,0,0,0,-1,1098,1065,0,0
-119,-41,0,0,0,0,0,0,0,0,0,-1,1105,1065,0,0
-112,-41,0,0,0,0,0,0,0,0,0,-1,1112,1065,0,0
-105,-41,0,0,0,0,0,0,0,0,0,-1,1119,1065,0,0
-98,-41,0,0,0,0,0,0,0,0,0,-1,1126,1065,0,0
-91,-41,0,0,0,0,0,0,0,0,0,-1,1133,1065,0,0
-84,-41,0,0,0,0,0,0,0,0,0,-1,1140,1065,0,0
-77,-41,0,0,0,0,0,0,0,0,0,-1,1147,1065,0,0
-70,-41,0,0,0,0,0,0,0,0,0,-1,1154,1065,0,0
-63,-41,0,0,0,0,0,0,0,0,0,-1,1161,1065,0,0
-56,-41,0,0,0,0,0,0,0,0,0,-1,1168,1065,0,0
-49,-41,0,0,0,0,0,0,0,0,0,-1,1175,1065,0,0
-42,-41,0,0,0,0,0,0,0,0,0,-1,1182,1065,0,0
-35,-41,0,0,0,0,0,0,0,0,0,-1,1189,1065,0,0
-28,-41,0,0,0,0,0,0,0,0,0,-1,1196,1065,0,0
-21,-41,0,0,0,0,0,0,0,0,0,-1,1203,1065,0,0
-14,-41,0,0,0,0,0,0,0,0,0,-1,1210,1065,0,0
-7,-41,0,0,0,0,0,0,0,0,0,-1,1217,1065,0,0
0,-41,0,0,0,0,0,0,0,0,0,-1,1224,1065,0,0
7,-41,0,0,0,0,0,0,0,0,0,-1,1231,1065,0,0
14,-41,0,0,0,0,0,0,0,0,0,-1,1238,1065,0,0
21,-41,0,0,0,0,0,0,0,0,0,-1,1245,1065,0,0
28,-41,0,0,0,0,0,0,0,0,0,-1,1252,1065,0,0
35,-41,0,0,0,0,0,0,0,0,0,-1,1259,1065,0,0
42,-41,0,0,0,0,0,0,0,0,0,-1,1266,1065,0,0
49,-41,0,0,0,0,0,0,0,0,0,-1,1273,1065,0,0
56,-41,0,0,0,0,0,0,0,0,0,-1,1280,1065,0,0
63,-41,0,0,0,0,0,0,0,0,0,-1,1287,1065,0,0
70,-41,0,0,0,0,0,0,0,0,0,-1,1294,1065,0,0
77,-41,0,0,0,0,0,0,0,0,0,-1,1301,1065,0,0
84,-41,0,0,0,0,0,0,0,0,0,-1,1308,1065,0,0
91,-41,0,0,0,0,0,0,0,0,0,-1,1315,1065,0,0
98,-41,0,0,0,0,0,0,0,0,0,-1,1322,1065,0,0
105,-41,0,0,0,0,0,0,0,0,0,-1,1329,1065,0,0
112,-41,0,0,0,0,0,0,0,0,0,-1,1336,1065,0,0
119,-41,0,0,0,0,0,0,0,0,0,-1,1343,1065,0,0
126,-41,0,0,0,0,0,0,0,0,0,-1,1350,1065,0,0
133,-41,0,0,0,0,0,0,0,0,0,-1,1357,1065,0,0
140,-41,0,0,0,0,0,0,0,0,0,-1,1364,1065,0,0
147,-41,0,0,0,0,0,0,0,0,0,-1,1371,1065,0,0
154,-41,0,0,0,0,0,0,0,0,0,-1,1378,1065,0,0
161,-41,0,0,0,0,0,0,0,0,0,-1,1385,1065,0,0
168,-41,0,0,0,0,0,0,0,0,0,-1,1392,1065,0,0
175,-41,0,0,0,0,0,0,0,0,0,-1,1399,1065,0,0
182,-41,0,0,0,0,0,0,0,0,0,-1,1406,1065,0,0
189,-41,0,0,0,0,0,0,0,0,0,-1,1413,1065,0,0
196,-41,0,0,0,0,0,0,0,0,0,-1,1420,1065,0,0
203,-41,0,0,0,0,0,0,0,0,0,-1,1427,1065,0,0
210,-41,0,0,0,0,0,0,0,0,0,-1,1434,1065,0,0
217,-41,0,0,0,0,0,0,0,0,0,-1,1441,1065,0,0
224,-41,0,0,0,0,0,0,0,0,0,-1,1448,1065,0,0
231,-41,0,0,0,0,0,0,0,0,0,-1,1455,1065,0,0
238,-41,0,0,0,0,0,0,0,0,0,-1,1462,1065,0,0
245,-41,0,0,0,0,0,0,0,0,0,-1,1469,1065,0,0
252,-41,0,0,0,0,0,0,0,0,0,-1,1476,1065,0,0
259,-41,0,0,0,0,0,0,0,0,0,-1,1483,1065,0,0
266,-41,0,0,0,0,0,0,0,0,0,-1,1490,1065,0,0
273,-41,0,0,0,0,0,0,0,0,0,-1,1497,1065,0,0
280,-41,0,0,0,0,0,0,0,0,0,-1,1504,1065,0,0
287,-41,0,0,0,0,0,0,0,0,0,-1,1511,1065,0,0
294,-41,0,0,0,0,0,0,0,0,0,-1,1518,1065,0,0
301,-41,0,0,0,0,0,0,0,0,0,-1,1525,1065,0,0
308,-41,0,0,0,0,0,0,0,0,0,-1,1532,1065,0,0
315,-41,0,0,0,0,0,0,0,0,0,-1,1539,1065,0,0
322,-41,0,0,0,0,0,0,0,0,0,-1,1546,1065,0,0
329,-41,0,0,0,0,0,0,0,0,0,-1,1553,1065,0,0
336,-41,0,0,0,0,0,0,0,0,0,-1,1560,1065,0,0
343,-41,0,0,0,0,0,0,0,0,0,-1,1567,1065,0,0
350,-41,0,0,0,0,0,0,0,0,0,-1,1574,1065,0,0
357,-41,0,0,0,0,0,0,0,0,0,-1,1581,1065,0,0
364,-41,0,0,0,0,0,0,0,0,0,-1,1588,1065,0,0
371,-41,0,0,0,0,0,0,0,0,0,-1,1595,1065,0,0
378,-41,0,0,0,0,0,0,0,0,0,-1,1602,1065,0,0
385,-41,0,0,0,0,0,0,0,0,0,-1,1609,1065,0,0
392,-41,0,0,0,0,0,0,0,0,0,-1,1616,1065,0,0
399,-41,0,0,0,0,0,0,0,0,0,-1,1623,1065,0,0
406,-41,0,0,0,0,0,0,0,0,0,-1,1630,1065,0,0
413,-41,0,0,0,0,0,0,0,0,0,-1,1637,1065,0,0
420,-41,0,0,0,0,0,0,0,0,0,-1,1644,1065,0,0
427,-41,0,0,0,0,0,0,0,0,0,-1,1651,1065,0,0
434,-41,0,0,0,0,0,0,0,0,0,-1,1658,1065,0,0
441,-41,0,0,0,0,0,0,0,0,0,-1,1665,1065,0,0
448,-41,0,0,0,0,0,0,0,0,0,-1,1672,1065,0,0
455,-41,0,0,0,0,0,0,0,0,0,-1,1679,1065,0,0
462,-41,0,0,0,0,0,0,0,0,0,-1,1686,1065,0,0
469,-41,0,0,0,0,0,0,0,0,0,-1,1693,1065,0,0
476,-41,0,0,0,0,0,0,0,0,0,-1,1700,1065,0,0
483,-41,0,0,0,0,0,0,0,0,0,-1,1707,1065,0,0
490,-41,0,0,0,0,0,0,0,0,0,-1,1714,1065,0,0
497,-41,0,0,0,0,0,0,0,0,0,-1,1721,1065,0,0
504,-41,0,0,0,0,0,0,0,0,0,-1,1728,1065,0,0
511,-41,0,0,0,0,0,0,0,0,0,-1,1735,1065,0,0
518,-41,0,0,0,0,0,0,0,0,0,-1,1742,1065,0,0
525,-41,0,0,0,0,0,0,0,0,0,-1,1749,1065,0,0
532,-41,0,0,0,0,0,0,0,0,0,-1,1756,1065,0,0
539,-41,0,0,0,0,0,0,0,0,0,-1,1763,1065,0,0
546,-41,0,0,0,0,0,0,0,0,0,-1,1770,1065,0,0
553,-41,0,0,0,0,0,0,0,0,0,-1,1777,1065,0,0
560,-41,0,0,0,0,0,0,0,0,0,-1,1784,1065,0,0
567,-41,0,0,0,0,0,0,0,0,0,-1,1791,1065,0,0
574,-41,0,0,0,0,0,0,0,0,0,-1,1798,1065,0,0
581,-41,0,0,0,0,0,0,0,0,0,-1,1805,1065,0,0
588,-41,0,0,0,0,0,0,0,0,0,-1,1812,1065,0,0
595,-41,0,0,0,0,0,0,0,0,0,-1,1819,1065,0,0
602,-41,0,0,0,0,0,0,0,0,0,-1,1826,1065,0,0
609,-41,0,0,0,0,0,0,0,0,0,-1,1833,1065,0,0
616,-41,0,0,0,0,0,0,0,0,0,-1,1840,1065,0,0
623,-41,0,0,0,0,0,0,0,0,0,-1,1847,1065,0,0
630,-41,0,0,0,0,0,0,0,0,0,-1,1854,1065,0,0
637,-41,0,0,0,0,0,0,0,0,0,-1,1861,1065,0,0
644,-41,0,0,0,0,0,0,0,0,0,-1,1868,1065,0,0
651,-41,16.0226,2.00854,-0.0015883,0.000600934,0.000847438,0.000890635,-0.001878,1.2414,0.001632,0.0372578,1875,1065,16.0226,-2.00851
658,-41,16.024,2.05664,-0.00100738,0.000659315,0.00115148,0.00124737,-0.00159543,1.09863,0.00164539,0.0417989,1882,1065,16.0241,-2.05659
665,-41,16.1534,2.14551,-0.000637814,0.000595248,0.00103374,0.00118235,-0.00122492,1.05428,0.00138991,0.041083,1889,1065,16.1534,-2.14554
672,-41,16.2457,2.15918,-0.000473274,0.000397454,0.00123818,0.00127458,-0.0013504,0.954455,0.00151575,0.0407005,1896,1065,16.2457,-2.15915
679,-41,16.1719,2.31128,-0.000905278,3.32593e-05,0.0019655,0.00158473,-0.00245675,0.902581,0.00235139,0.0403202,1903,1065,16.1718,-2.31133
686,-41,16.1862,2.56787,-0.00159533,-0.000350315,0.0027577,0.00185426,-0.0037999,0.896405,0.00332823,0.0415261,1910,1065,16.1862,-2.5679
693,-41,16.205,2.58643,-0.0022213,-0.000699888,0.00348223,0.00210376,-0.00502494,0.892935,0.00422938,0.0449293,1917,1065,16.205,-2.58638
700,-41,16.1776,2.53503,-0.00281498,-0.000956217,0.00408454,0.00230334,-0.00607454,0.897262,0.00499765,0.0406925,1924,1065,16.1776,-2.53505
707,-41,16.1473,2.28906,-0.00322558,-0.00110204,0.00457545,0.00253322,-0.00686084,0.899409,0.00561222,0.0270341,1931,1065,16.1474,-2.28909
714,-41,16.1593,2.3103,-0.00352274,-0.00122959,0.00493013,0.00268554,-0.00743787,0.899649,0.00605562,0.0139155,1938,1065,16.1593,-2.31036
721,-41,16.1687,2.59753,-0.00384073,-0.00130463,0.00502339,0.00260828,-0.00775364,0.90903,0.00622346,0.0267475,1945,1065,16.1687,-2.5975
728,-41,15.9506,3.11243,-0.00400682,-0.00116674,0.00485871,0.00247519,-0.00764876,0.927571,0.00609416,0.0262076,1952,1065,15.9506,-3.11242
735,-41,15.8242,3.19885,-0.00392425,-0.000891554,0.00438246,0.00222947,-0.00704527,0.951953,0.00559022,0.0149982,1959,1065,15.8242,-3.19889
742,-41,15.7936,3.20081,-0.00405153,-0.000435037,0.00353446,0.00172688,-0.00621344,1.02184,0.00482212,0.0127095,1966,1065,15.7936,-3.20085
749,-41,15.8298,3.20435,-0.00428109,-0.000740444,0.00245796,0.000518359,-0.00553989,1.09749,0.00387761,0.0125868,1973,1065,15.8299,-3.20432
756,-41,15.8496,3.19507,-0.00523735,-0.000709094,0.000363839,-0.000680047,-0.0052664,1.49113,0.00330764,0.0124523,1980,1065,15.8496,-3.19502
763,-41,15.8109,3.16833,-0.00709658,-0.00123705,-0.00275951,-0.00014209,-0.00819154,-1.19306,0.00541429,0.0111713,1987,1065,15.8109,-3.16838
770,-41,15.7969,3.15588,-0.0091883,-0.00186382,-0.0064272,0.0018713,-0.0129234,-1.04436,0.00930233,0.0130238,1994,1065,15.7968,-3.15594
777,-41,15.8018,3.15955,-0.0122754,-0.00291043,-0.010894,0.00426477,-0.0194506,-0.988372,0.0145978,0.0141985,2001,1065,15.8018,-3.15959
784,-41,15.8154,3.12341,-0.0168315,-0.00465263,-0.016035,0.00641027,-0.0278944,-0.966866,0.0210607,0.0256542,2008,1065,15.8155,-3.12339
791,-41,15.7642,2.50232,-0.0231294,-0.00709225,-0.0223928,0.00867434,-0.038896,-0.957329,0.029254,0.0423625,2015,1065,15.7641,-2.50227
798,-41,15.877,1.57764,0,0,0,0,0,0,0,-1,2022,1065,15.877,-1.5776
805,-41,16.0366,1.14502,-0.0411733,-0.0144938,-0.0409933,0.0152756,-0.0709427,-0.942701,0.0531242,0.0458541,2029,1065,16.0366,-1.14501
812,-41,15.7866,0.619507,-0.0537051,-0.0196589,-0.0541714,0.0201012,-0.0934651,-0.937635,0.0699795,0.049161,2036,1065,15.7867,-0.619511
-700,-48,-12.3851,1.8916,0,0,0,0,0,0,0,-1,524,1072,-12.3851,-1.89164
-693,-48,-11.6011,1.62915,0,0,0,0,0,0,0,-1,531,1072,-11.6011,-1.62916
-686,-48,-10.8944,1.38611,0,0,0,0,0,0,0,-1,538,1072,-10.8944,-1.38605
-679,-48,-9.84064,-1.49756,0,0,0,0,0,0,0,-1,545,1072,-9.84063,1.49753
-672,-48,-10.1327,-0.669312,0.036961,0.0398174,0.0555112,0.0939188,-0.0171404,0.798259,0.0690389,0.04689,552,1072,-10.1327,0.669252
-665,-48,-10.3186,0.760376,0.0264833,0.0309756,0.0417971,0.0705868,-0.013128,0.812242,0.0519894,0.044144,559,1072,-10.3186,-0.760364
-658,-48,-10.0799,0.719849,0.0183032,0.0235156,0.0305582,0.0515785,-0.0097597,0.827939,0.0380584,0.0442411,566,1072,-10.0799,-0.719793
-651,-48,-9.8584,0.753906,0.0121631,0.0173605,0.0216499,0.0365671,-0.00704357,0.845129,0.0270336,0.0310725,573,1072,-9.8584,-0.753962
-644,-48,-9.91724,0.899658,0.00774472,0.0123912,0.0146995,0.0249499,-0.00481397,0.863775,0.0184485,0.0135912,580,1072,-9.91726,-0.899694
-637,-48,-9.92615,0.906616,0.00418739,0.00795278,0.00851923,0.0147949,-0.0026547,0.894147,0.0108569,0.0129773,587,1072,-9.92614,-0.906567
-630,-48,-9.9082,0.950684,0.00198322,0.00480411,0.0043125,0.00793096,-0.00114363,0.943445,0.00570684,0.0142411,594,1072,-9.90821,-0.950734
-623,-48,-9.92413,0.984985,0.000552376,0.00262158,0.00118757,0.00316201,1.19472e-05,1.14373,0.00210404,0.00872647,601,1072,-9.92414,-0.984998
-616,-48,-9.93689,1.02966,-0.000537003,0.000952415,-0.001762,0.00212062,-0.00170521,-0.985337,0.00221318,0.00846235,608,1072,-9.93692,-1.0297
-609,-48,-9.93219,1.07251,-0.000870522,-0.000302829,-0.00320983,0.00263569,-0.00380904,-0.829499,0.00374136,0.0108183,615,1072,-9.93221,-1.07251
-602,-48,-9.94617,1.10986,-0.000974817,-0.000783547,-0.00396379,0.00308576,-0.00484413,-0.797459,0.00461569,0.0117038,622,1072,-9.9462,-1.1099
-595,-48,-9.9491,1.15063,-0.00106239,-0.0011508,-0.00442655,0.00332018,-0.00553337,-0.780405,0.00516456,0.0144428,629,1072,-9.9491,-1.1507
-588,-48,-9.974,0.865601,-0.000985376,-0.00125534,-0.00466417,0.00354577,-0.00578648,-0.770932,0.0054395,0.024894,636,1072,-9.97401,-0.865618
-581,-48,-9.9718,0.519653,-0.000744677,-0.00120567,-0.00471877,0.00374922,-0.00569957,-0.760994,0.00549386,0.038096,643,1072,-9.97182,-0.519675
-574,-48,-9.87024,0.497925,-0.000513685,-0.00110136,-0.00447081,0.00367293,-0.00528798,-0.752584,0.00520152,0.0402974,650,1072,-9.87021,-0.497884
-567,-48,-9.8244,0.511597,-0.000146226,-0.00086778,-0.00395344,0.00346286,-0.00447687,-0.739896,0.00459645,0.041985,657,1072,-9.82442,-0.51163
-560,-48,-10.1332,0.355469,0.00040081,-0.00051114,-0.00322959,0.00320646,-0.00331679,-0.715268,0.00376638,0.0428126,664,1072,-10.1332,-0.355526
-553,-48,-10.045,0.382446,0.00111532,-4.0198e-05,-0.00238518,0.00299172,-0.0019166,-0.666573,0.00285639,0.0434067,671,1072,-10.045,-0.382399
-546,-48,-10.0719,0.637939,0.00197212,0.000541524,-0.00152934,0.00294517,-0.000431525,-0.566653,0.00212197,0.0403061,678,1072,-10.0719,-0.637989
-539,-48,-10.2191,0.623291,0.00297694,0.00118991,-0.00113708,0.00352957,0.000637284,-0.452389,0.00217201,0.0404631,685,1072,-10.219,-0.623255
-532,-48,-10.1285,0.428345,0.0037653,0.00172247,-0.00240543,0.00535719,0.000130575,-0.58462,0.00352874,0.0383399,692,1072,-10.1285,-0.428295
-525,-48,0,0,0,0,0,0,0,0,0,-1,699,1072,0,0
-518,-48,0,0,0,0,0,0,0,0,0,-1,706,1072,0,0
-511,-48,0,0,0,0,0,0,0,0,0,-1,713,1072,0,0
-504,-48,0,0,0,0,0,0,0,0,0,-1,720,1072,0,0
-497,-48,0,0,0,0,0,0,0,0,0,-1,727,1072,0,0
-490,-48,0,0,0,0,0,0,0,0,0,-1,734,1072,0,0
-483,-48,0,0,0,0,0,0,0,0,0,-1,741,1072,0,0
-476,-48,0,0,0,0,0,0,0,0,0,-1,748,1072,0,0
-469,-48,0,0,0,0,0,0,0,0,0,-1,755,1072,0,0
-462,-48,0,0,0,0,0,0,0,0,0,-1,762,1072,0,0
-455,-48,0,0,0,0,0,0,0,0,0,-1,769,1072,0,0
-448,-48,0,0,0,0,0,0,0,0,0,-1,776,1072,0,0
-441,-48,0,0,0,0,0,0,0,0,0,-1,783,1072,0,0
-434,-48,0,0,0,0,0,0,0,0,0,-1,790,1072,0,0
-427,-48,0,0,0,0,0,0,0,0,0,-1,797,1072,0,0
-420,-48,0,0,0,0,0,0,0,0,0,-1,804,1072,0,0
-413,-48,0,0,0,0,0,0,0,0,0,-1,811,1072,0,0
-406,-48,0,0,0,0,0,0,0,0,0,-1,818,1072,0,0
-399,-48,0,0,0,0,0,0,0,0,0,-1,825,1072,0,0
-392,-48,0,0,0,0,0,0,0,0,0,-1,832,1072,0,0
-385,-48,0,0,0,0,0,0,0,0,0,-1,839,1072,0,0
-378,-48,0,0,0,0,0,0,0,0,0,-1,846,1072,0,0
-371,-48,0,0,0,0,0,0,0,0,0,-1,853,1072,0,0
-364,-48,0,0,0,0,0,0,0,0,0,-1,860,1072,0,0
-357,-48,0,0,0,0,0,0,0,0,0,-1,867,1072,0,0
-350,-48,0,0,0,0,0,0,0,0,0,-1,874,1072,0,0
-343,-48,0,0,0,0,0,0,0,0,0,-1,881,1072,0,0
-336,-48,0,0,0,0,0,0,0,0,0,-1,888,1072,0,0
-329,-48,0,0,0,0,0,0,0,0,0,-1,895,1072,0,0
-322,-48,0,0,0,0,0,0,0,0,0,-1,902,1072,0,0
-315,-48,0,0,0,0,0,0,0,0,0,-1,909,1072,0,0
-308,-48,0,0,0,0,0,0,0,0,0,-1,916,1072,0,0
-301,-48,0,0,0,0,0,0,0,0,0,-1,923,1072,0,0
-294,-48,0,0,0,0,0,0,0,0,0,-1,930,1072,0,0
-287,-48,0,0,0,0,0,0,0,0,0,-1,937,1072,0,0
-280,-48,0,0,0,0,0,0,0,0,0,-1,944,1072,0,0
-273,-48,0,0,0,0,0,0,0,0,0,-1,951,1072,0,0
-266,-48,0,0,0,0,0,0,0,0,0,-1,958,1072,0,0
-259,-48,0,0,0,0,0,0,0,0,0,-1,965,1072,0,0
-252,-48,0,0,0,0,0,0,0,0,0,-1,972,1072,0,0
-245,-48,0,0,0,0,0,0,0,0,0,-1,979,1072,0,0
-238,-48,0,0,0,0,0,0,0,0,0,-1,986,1072,0,0
-231,-48,0,0,0,0,0,0,0,0,0,-1,993,1072,0,0
-224,-48,0,0,0,0,0,0,0,0,0,-1,1000,1072,0,0
-217,-48,0,0,0,0,0,0,0,0,0,-1,1007,1072,0,0
-210,-48,0,0,0,0,0,0,0,0,0,-1,1014,1072,0,0
-203,-48,0,0,0,0,0,0,0,0,0,-1,1021,1072,0,0
-196,-48,0,0,0,0,0,0,0,0,0,-1,1028,1072,0,0
-189,-48,0,0,0,0,0,0,0,0,0,-1,1035,1072,0,0
-182,-48,0,0,0,0,0,0,0,0,0,-1,1042,1072,0,0
-175,-48,0,0,0,0,0,0,0,0,0,-1,1049,1072,0,0
-168,-48,0,0,0,0,0,0,0,0,0,-1,1056,1072,0,0
-161,-48,0,0,0,0,0,0,0,0,0,-1,1063,1072,0,0
-154,-48,0,0,0,0,0,0,0,0,0,-1,1070,1072,0,0
-147,-48,0,0,0,0,0,0,0,0,0,-1,1077,1072,0,0
-140,-48,0,0,0,0,0,0,0,0,0,-1,1084,1072,0,0
-133,-48,0,0,0,0,0,0,0,0,0,-1,1091,1072,0,0
-126,-48,0,0,0,0,0,0,0,0,0,-1,1098,1072,0,0
-119,-48,0,0,0,0,0,0,0,0,0,-1,1105,1072,0,0
-112,-48,0,0,0,0,0,0,0,0,0,-1,1112,1072,0,0
-105,-48,0,0,0,0,0,0,0,0,0,-1,1119,1072,0,0
-98,-48,0,0,0,0,0,0,0,0,0,-1,1126,1072,0,0
-91,-48,0,0,0,0,0,0,0,0,0,-1,1133,1072,0,0
-84,-48,0,0,0,0,0,0,0,0,0,-1,1140,1072,0,0
-77,-48,0,0,0,0,0,0,0,0,0,-1,1147,1072,0,0
-70,-48,0,0,0,0,0,0,0,0,0,-1,1154,1072,0,0
-63,-48,0,0,0,0,0,0,0,0,0,-1,1161,1072,0,0
-56,-48,0,0,0,0,0,0,0,0,0,-1,1168,1072,0,0
-49,-48,0,0,0,0,0,0,0,0,0,-1,1175,1072,0,0
-42,-48,0,0,0,0,0,0,0,0,0,-1,1182,1072,0,0
-35,-48,0,0,0,0,0,0,0,0,0,-1,1189,1072,0,0
-28,-48,0,0,0,0,0,0,0,0,0,-1,1196,1072,0,0
-21,-48,0,0,0,0,0,0,0,0,0,-1,1203,1072,0,0
-14,-48,0,0,0,0,0,0,0,0,0,-1,1210,1072,0,0
-7,-48,0,0,0,0,0,0,0,0,0,-1,1217,1072,0,0
0,-48,0,0,0,0,0,0,0,0,0,-1,1224,1072,0,0
7,-48,0,0,0,0,0,0,0,0,0,-1,1231,1072,0,0
14,-48,0,0,0,0,0,0,0,0,0,-1,1238,1072,0,0
21,-48,0,0,0,0,0,0,0,0,0,-1,1245,1072,0,0
28,-48,0,0,0,0,0,0,0,0,0,-1,1252,1072,0,0
35,-48,0,0,0,0,0,0,0,0,0,-1,1259,1072,0,0
42,-48,0,0,0,0,0,0,0,0,0,-1,1266,1072,0,0
49,-48,0,0,0,0,0,0,0,0,0,-1,1273,1072,0,0
56,-48,0,0,0,0,0,0,0,0,0,-1,1280,1072,0,0
63,-48,0,0,0,0,0,0,0,0,0,-1,1287,1072,0,0
70,-48,0,0,0,0,0,0,0,0,0,-1,1294,1072,0,0
77,-48,0,0,0,0,0,0,0,0,0,-1,1301,1072,0,0
84,-48,0,0,0,0,0,0,0,0,0,-1,1308,1072,0,0
91,-48,0,0,0,0,0,0,0,0,0,-1,1315,1072,0,0
98,-48,0,0,0,0,0,0,0,0,0,-1,1322,1072,0,0
105,-48,0,0,0,0,0,0,0,0,0,-1,1329,1072,0,0
112,-48,0,0,0,0,0,0,0,0,0,-1,1336,1072,0,0
119,-48,0,0,0,0,0,0,0,0,0,-1,1343,1072,0,0
126,-48,0,0,0,0,0,0,0,0,0,-1,1350,1072,0,0
133,-48,0,0,0,0,0,0,0,0,0,-1,1357,1072,0,0
140,-48,0,0,0,0,0,0,0,0,0,-1,1364,1072,0,0
147,-48,0,0,0,0,0,0,0,0,0,-1,1371,1072,0,0
154,-48,0,0,0,0,0,0,0,0,0,-1,1378,1072,0,0
161,-48,0,0,0,0,0,0,0,0,0,-1,1385,1072,0,0
168,-48,0,0,0,0,0,0,0,0,0,-1,1392,1072,0,0
175,-48,0,0,0,0,0,0,0,0,0,-1,1399,1072,0,0
182,-48,0,0,0,0,0,0,0,0,0,-1,1406,1072,0,0
189,-48,0,0,0,0,0,0,0,0,0,-1,1413,1072,0,0
196,-48,0,0,0,0,0,0,0,0,0,-1,1420,1072,0,0
203,-48,0,0,0,0,0,0,0,0,0,-1,1427,1072,0,0
210,-48,0,0,0,0,0,0,0,0,0,-1,1434,1072,0,0
217,-48,0,0,0,0,0,0,0,0,0,-1,1441,1072,0,0
224,-48,0,0,0,0,0,0,0,0,0,-1,1448,1072,0,0
231,-48,0,0,0,0,0,0,0,0,0,-1,1455,1072,0,0
238,-48,0,0,0,0,0,0,0,0,0,-1,1462,1072,0,0
245,-48,0,0,0,0,0,0,0,0,0,-1,1469,1072,0,0
252,-48,0,0,0,0,0,0,0,0,0,-1,1476,1072,0,0
259,-48,0,0,0,0,0,0,0,0,0,-1,1483,1072,0,0
266,-48,0,0,0,0,0,0,0,0,0,-1,1490,1072,0,0
273,-48,0,0,0,0,0,0,0,0,0,-1,1497,1072,0,0
280,-48,0,0,0,0,0,0,0,0,0,-1,1504,1072,0,0
287,-48,0,0,0,0,0,0,0,0,0,-1,1511,1072,0,0
294,-48,0,0,0,0,0,0,0,0,0,-1,1518,1072,0,0
301,-48,0,0,0,0,0,0,0,0,0,-1,1525,1072,0,0
308,-48,0,0,0,0,0,0,0,0,0,-1,1532,1072,0,0
315,-48,0,0,0,0,0,0,0,0,0,-1,1539,1072,0,0
322,-48,0,0,0,0,0,0,0,0,0,-1,1546,1072,0,0
329,-48,0,0,0,0,0,0,0,0,0,-1,1553,1072,0,0
336,-48,0,0,0,0,0,0,0,0,0,-1,1560,1072,0,0
343,-48,0,0,0,0,0,0,0,0,0,-1,1567,1072,0,0
350,-48,0,0,0,0,0,0,0,0,0,-1,1574,1072,0,0
357,-48,0,0,0,0,0,0,0,0,0,-1,1581,1072,0,0
364,-48,0,0,0,0,0,0,0,0,0,-1,1588,1072,0,0
371,-48,0,0,0,0,0,0,0,0,0,-1,1595,1072,0,0
378,-48,0,0,0,0,0,0,0,0,0,-1,1602,1072,0,0
385,-48,0,0,0,0,0,0,0,0,0,-1,1609,1072,0,0
392,-48,0,0,0,0,0,0,0,0,0,-1,1616,1072,0,0
399,-48,0,0,0,0,0,0,0,0,0,-1,1623,1072,0,0
406,-48,0,0,0,0,0,0,0,0,0,-1,1630,1072,0,0
413,-48,0,0,0,0,0,0,0,0,0,-1,1637,1072,0,0
420,-48,0,0,0,0,0,0,0,0,0,-1,1644,1072,0,0
427,-48,0,0,0,0,0,0,0,0,0,-1,1651,1072,0,0
434,-48,0,0,0,0,0,0,0,0,0,-1,1658,1072,0,0
441,-48,0,0,0,0,0,0,0,0,0,-1,1665,1072,0,0
448,-48,0,0,0,0,0,0,0,0,0,-1,1672,1072,0,0
455,-48,0,0,0,0,0,0,0,0,0,-1,1679,1072,0,0
462,-48,0,0,0,0,0,0,0,0,0,-1,1686,1072,0,0
469,-48,0,0,0,0,0,0,0,0,0,-1,1693,1072,0,0
476,-48,0,0,0,0,0,0,0,0,0,-1,1700,1072,0,0
483,-48,0,0,0,0,0,0,0,0,0,-1,1707,1072,0,0
490,-48,0,0,0,0,0,0,0,0,0,-1,1714,1072,0,0
497,-48,0,0,0,0,0,0,0,0,0,-1,1721,1072,0,0
504,-48,0,0,0,0,0,0,0,0,0,-1,1728,1072,0,0
511,-48,0,0,0,0,0,0,0,0,0,-1,1735,1072,0,0
518,-48,0,0,0,0,0,0,0,0,0,-1,1742,1072,0,0
525,-48,0,0,0,0,0,0,0,0,0,-1,1749,1072,0,0
532,-48,0,0,0,0,0,0,0,0,0,-1,1756,1072,0,0
539,-48,0,0,0,0,0,0,0,0,0,-1,1763,1072,0,0
546,-48,0,0,0,0,0,0,0,0,0,-1,1770,1072,0,0
553,-48,0,0,0,0,0,0,0,0,0,-1,1777,1072,0,0
560,-48,0,0,0,0,0,0,0,0,0,-1,1784,1072,0,0
567,-48,0,0,0,0,0,0,0,0,0,-1,1791,1072,0,0
574,-48,0,0,0,0,0,0,0,0,0,-1,1798,1072,0,0
581,-48,0,0,0,0,0,0,0,0,0,-1,1805,1072,0,0
588,-48,0,0,0,0,0,0,0,0,0,-1,1812,1072,0,0
595,-48,0,0,0,0,0,0,0,0,0,-1,1819,1072,0,0
602,-48,0,0,0,0,0,0,0,0,0,-1,1826,1072,0,0
609,-48,0,0,0,0,0,0,0,0,0,-1,1833,1072,0,0
616,-48,0,0,0,0,0,0,0,0,0,-1,1840,1072,0,0
623,-48,0,0,0,0,0,0,0,0,0,-1,1847,1072,0,0
630,-48,0,0,0,0,0,0,0,0,0,-1,1854,1072,0,0
637,-48,0,0,0,0,0,0,0,0,0,-1,1861,1072,0,0
644,-48,0,0,0,0,0,0,0,0,0,-1,1868,1072,0,0
651,-48,16.1187,2.18433,-0.000479802,-1.4101e-05,-0.000295437,0.000129216,-0.000623119,-1.11914,0.000464515,0.0346218,1875,1072,16.1186,-2.1843
658,-48,16.0647,2.14343,-0.00027875,0.000363255,0.000335647,0.000506689,-0.000422184,1.16695,0.000537024,0.0396642,1882,1072,16.0647,-2.14347
665,-48,16.0066,1.98474,-0.000129703,0.00054128,0.000448801,0.000766125,-0.000354547,1.10636,0.000661406,0.0430253,1889,1072,16.0066,-1.9847
672,-48,16.0726,2.34265,-0.000193953,0.000486066,0.000877016,0.00108668,-0.000794562,0.970323,0.00109049,0.0402664,1896,1072,16.0727,-2.3426
679,-48,16.0762,2.51514,-0.000823672,0.000184989,0.00177285,0.00152385,-0.00216253,0.923975,0.00213895,0.0374468,1903,1072,16.0762,-2.51512
686,-48,16.0768,2.58447,-0.00164832,-0.000186138,0.00266795,0.00184907,-0.00368354,0.919129,0.00325226,0.0385112,1910,1072,16.0768,-2.58448
693,-48,16.1154,2.59949,-0.00236305,-0.000559753,0.00345728,0.00211152,-0.00503433,0.912955,0.00423913,0.0403613,1917,1072,16.1154,-2.59948
700,-48,16.194,2.41113,-0.00301657,-0.00084563,0.00409664,0.00230691,-0.00616911,0.914905,0.00506014,0.0355895,1924,1072,16.194,-2.4111
707,-48,16.1643,2.28589,-0.00349031,-0.0010392,0.00462482,0.0025197,-0.00704921,0.914919,0.00572721,0.0262697,1931,1072,16.1643,-2.28593
714,-48,16.1709,2.29883,-0.00379432,-0.0012192,0.00500771,0.00266383,-0.00767735,0.91123,0.00619996,0.0226584,1938,1072,16.171,-2.29879
721,-48,16.0701,2.82556,-0.00406377,-0.00134143,0.0050831,0.0025596,-0.00796479,0.91622,0.00633776,0.0331593,1945,1072,16.0701,-2.82556
728,-48,15.8256,3.28308,0,0,0,0,0,0,0,-1,1952,1072,15.8256,-3.28311
735,-48,15.8162,3.26135,-0.00416004,-0.00100061,0.00437794,0.00207391,-0.00723456,0.958546,0.00564284,0.0160873,1959,1072,15.8161,-3.26133
742,-48,15.7896,3.22339,-0.00444175,-0.00058547,0.00354924,0.00152555,-0.00655277,1.03422,0.00495593,0.0130622,1966,1072,15.7895,-3.22338
749,-48,15.8171,3.17627,-0.00486899,-0.000922481,0.00248523,0.000277608,-0.00606908,1.12093,0.00414169,0.0125595,1973,1072,15.8171,-3.17631
756,-48,15.8231,3.15869,-0.00609026,-0.000875665,0.000469539,-0.000833724,-0.0061322,1.48171,0.00384051,0.0119816,1980,1072,15.8231,-3.15863
763,-48,15.8019,3.15723,-0.00831484,-0.00131543,-0.00241735,-0.00056172,-0.00906855,-1.26856,0.00586743,0.0122489,1987,1072,15.8019,-3.15721
770,-48,15.8063,3.13855,-0.0109154,-0.00187597,-0.00588048,0.00102106,-0.0138124,-1.11305,0.00956678,0.0129775,1994,1072,15.8062,-3.13854
777,-48,15.7954,3.12036,-0.0146576,-0.0028467,-0.00996281,0.00282939,-0.0203337,-1.05293,0.0145906,0.0116096,2001,1072,15.7954,-3.1203
784,-48,15.8268,3.07178,-0.0200414,-0.00450665,-0.0145341,0.00420546,-0.0287535,-1.0308,0.0207136,0.0239512,2008,1072,15.8268,-3.07183
791,-48,15.939,2.59229,-0.0272683,-0.00681375,-0.0201155,0.00552514,-0.0396072,-1.02058,0.0284261,0.0400711,2015,1072,15.939,-2.59225
798,-48,16.0867,1.95776,-0.0363461,-0.00986007,-0.027216,0.00716384,-0.05337,-1.01183,0.0381925,0.0459061,2022,1072,16.0866,-1.95771
805,-48,16.4674,1.57007,-0.0474983,-0.0137174,-0.0361676,0.00930934,-0.0705251,-1.00385,0.0504072,0.0465171,2029,1072,16.4674,-1.57012
812,-48,16.7517,1.3501,-0.0612185,-0.0184465,-0.0473392,0.0121132,-0.0917782,-0.997557,0.0655971,0.0466733,2036,1072,16.7518,-1.35007
-700,-55,-12.3784,1.30432,0,0,0,0,0,0,0,-1,524,1079,-12.3784,-1.3043
-693,-55,-11.8478,1.48218,0,0,0,0,0,0,0,-1,531,1079,-11.8478,-1.48224
-686,-55,-11.1805,1.57458,0,0,0,0,0,0,0,-1,538,1079,-11.1805,-1.5746
-679,-55,-10.7988,0.929443,0,0,0,0,0,0,0,-1,545,1079,-10.7987,-0.92939
-672,-55,-10.3679,0.789429,0,0,0,0,0,0,0,-1,552,1079,-10.3679,-0.789408
-665,-55,-9.99518,0.682495,0,0,0,0,0,0,0,-1,559,1079,-9.99519,-0.682504
-658,-55,-10.0679,0.625366,0,0,0,0,0,0,0,-1,566,1079,-10.0679,-0.625386
-651,-55,-9.87134,0.643677,0.0254911,0.0179416,0.026121,0.0481086,-0.00467598,0.71364,0.0337392,0.0358903,573,1079,-9.87134,-0.643628
-644,-55,-9.88745,0.864746,0.0172811,0.0126859,0.0178021,0.0329332,-0.00296624,0.721221,0.023008,0.0154728,580,1079,-9.88744,-0.864752
-637,-55,-9.8916,0.888672,0.0107359,0.00805787,0.0104999,0.0199818,-0.00118807,0.721978,0.0137344,0.012645,587,1079,-9.89161,-0.888662
-630,-55,-9.8855,0.943359,0.00617366,0.00475666,0.00542958,0.0109408,-1.04536e-05,0.72052,0.00729733,0.0138705,594,1079,-9.88548,-0.943374
-623,-55,-9.89514,1.00269,0.00305754,0.00256599,0.00173316,0.00456226,0.00106127,0.714964,0.00275671,0.0121607,601,1079,-9.89514,-1.00265
-616,-55,-9.88385,1.03552,0.000474617,0.000920944,-0.00158732,0.00230071,-0.000905151,-0.855236,0.00190847,0.0114108,608,1079,-9.88386,-1.03555
-609,-55,-9.88611,1.07263,-0.0010167,-0.000357057,-0.00325293,0.00258273,-0.00395649,-0.835922,0.00380309,0.0121205,615,1079,-9.88613,-1.07258
-602,-55,-9.91364,1.11963,-0.00120124,-0.000829813,-0.00401664,0.0030054,-0.00503645,-0.8085,0.00469207,0.0123562,622,1079,-9.91365,-1.11958
-595,-55,-9.90045,1.17957,-0.00132898,-0.00119892,-0.00451052,0.00324704,-0.00577494,-0.792606,0.00527656,0.014582,629,1079,-9.90047,-1.17954
-588,-55,-9.88708,0.879395,-0.00127707,-0.00130822,-0.00480026,0.00350765,-0.00609293,-0.783776,0.00560949,0.0256397,636,1079,-9.88711,-0.879445
-581,-55,-9.97882,0.536865,-0.00105352,-0.00126945,-0.00488059,0.0037203,-0.00604327,-0.774339,0.00568993,0.0371016,643,1079,-9.97884,-0.536894
-574,-55,-9.82837,0.501953,-0.000822459,-0.00119085,-0.00464482,0.00364182,-0.00565513,-0.765581,0.00540939,0.0386148,650,1079,-9.82838,-0.501995
-567,-55,-9.82825,0.319092,-0.000414091,-0.00097578,-0.00414305,0.00345762,-0.00484749,-0.751556,0.00481729,0.0405109,657,1079,-9.82825,-0.319124
-560,-55,-10.0992,0.227783,0.000198863,-0.000632978,-0.00342387,0.00323198,-0.0036661,-0.724956,0.00398524,0.0434851,664,1079,-10.0992,-0.227817
-553,-55,-10.0186,0.368408,0.000996917,-0.000169143,-0.002572,0.00305114,-0.00222337,-0.67394,0.00305771,0.0420889,671,1079,-10.0185,-0.368409
-546,-55,-9.84619,0.603027,0,0,0,0,0,0,0,-1,678,1079,-9.84621,-0.602969
-539,-55,-10.1878,0.473145,0.00304476,0.00109263,-0.0012225,0.00363305,0.000504339,-0.448512,0.00227265,0.0391779,685,1079,-10.1878,-0.473098
-532,-55,-10.2372,0.283325,0.00379218,0.00163636,-0.00235896,0.00530784,0.000120707,-0.571092,0.00349902,0.0406095,692,1079,-10.2372,-0.283313
-525,-55,0,0,0,0,0,0,0,0,0,-1,699,1079,0,0
-518,-55,0,0,0,0,0,0,0,0,0,-1,706,1079,0,0
-511,-55,0,0,0,0,0,0,0,0,0,-1,713,1079,0,0
-504,-55,0,0,0,0,0,0,0,0,0,-1,720,1079,0,0
-497,-55,0,0,0,0,0,0,0,0,0,-1,727,1079,0,0
-490,-55,0,0,0,0,0,0,0,0,0,-1,734,1079,0,0
-483,-55,0,0,0,0,0,0,0,0,0,-1,741,1079,0,0
-476,-55,0,0,0,0,0,0,0,0,0,-1,748,1079,0,0
-469,-55,0,0,0,0,0,0,0,0,0,-1,755,1079,0,0
-462,-55,0,0,0,0,0,0,0,0,0,-1,762,1079,0,0
-455,-55,0,0,0,0,0,0,0,0,0,-1,769,1079,0,0
-448,-55,0,0,0,0,0,0,0,0,0,-1,776,1079,0,0
-441,-55,0,0,0,0,0,0,0,0,0,-1,783,1079,0,0
-434,-55,0,0,0,0,0,0,0,0,0,-1,790,1079,0,0
-427,-55,0,0,0,0,0,0,0,0,0,-1,797,1079,0,0
-420,-55,0,0,0,0,0,0,0,0,0,-1,804,1079,0,0
-413,-55,0,0,0,0,0,0,0,0,0,-1,811,1079,0,0
-406,-55,0,0,0,0,0,0,0,0,0,-1,818,1079,0,0
-399,-55,0,0,0,0,0,0,0,0,0,-1,825,1079,0,0
-392,-55,0,0,0,0,0,0,0,0,0,-1,832,1079,0,0
-385,-55,0,0,0,0,0,0,0,0,0,-1,839,1079,0,0
-378,-55,0,0,0,0,0,0,0,0,0,-1,846,1079,0,0
-371,-55,0,0,0,0,0,0,0,0,0,-1,853,1079,0,0
-364,-55,0,0,0,0,0,0,0,0,0,-1,860,1079,0,0
-357,-55,0,0,0,0,0,0,0,0,0,-1,867,1079,0,0
-350,-55,0,0,0,0,0,0,0,0,0,-1,874,1079,0,0
-343,-55,0,0,0,0,0,0,0,0,0,-1,881,1079,0,0
-336,-55,0,0,0,0,0,0,0,0,0,-1,888,1079,0,0
-329,-55,0,0,0,0,0,0,0,0,0,-1,895,1079,0,0
-322,-55,0,0,0,0,0,0,0,0,0,-1,902,1079,0,0
-315,-55,0,0,0,0,0,0,0,0,0,-1,909,1079,0,0
-308,-55,0,0,0,0,0,0,0,0,0,-1,916,1079,0,0
-301,-55,0,0,0,0,0,0,0,0,0,-1,923,1079,0,0
-294,-55,0,0,0,0,0,0,0,0,0,-1,930,1079,0,0
-287,-55,0,0,0,0,0,0,0,0,0,-1,937,1079,0,0
-280,-55,0,0,0,0,0,0,0,0,0,-1,944,1079,0,0
-273,-55,0,0,0,0,0,0,0,0,0,-1,951,1079,0,0
-266,-55,0,0,0,0,0,0,0,0,0,-1,958,1079,0,0
-259,-55,0,0,0,0,0,0,0,0,0,-1,965,1079,0,0
-252,-55,0,0,0,0,0,0,0,0,0,-1,972,1079,0,0
-245,-55,0,0,0,0,0,0,0,0,0,-1,979,1079,0,0
-238,-55,0,0,0,0,0,0,0,0,0,-1,986,1079,0,0
-231,-55,0,0,0,0,0,0,0,0,0,-1,993,1079,0,0
-224,-55,0,0,0,0,0,0,0,0,0,-1,1000,1079,0,0
-217,-55,0,0,0,0,0,0,0,0,0,-1,1007,1079,0,0
-210,-55,0,0,0,0,0,0,0,0,0,-1,1014,1079,0,0
-203,-55,0,0,0,0,0,0,0,0,0,-1,1021,1079,0,0
-196,-55,0,0,0,0,0,0,0,0,0,-1,1028,1079,0,0
-189,-55,0,0,0,0,0,0,0,0,0,-1,1035,1079,0,0
-182,-55,0,0,0,0,0,0,0,0,0,-1,1042,1079,0,0
-175,-55,0,0,0,0,0,0,0,0,0,-1,1049,1079,0,0
-168,-55,0,0,0,0,0,0,0,0,0,-1,1056,1079,0,0
-161,-55,0,0,0,0,0,0,0,0,0,-1,1063,1079,0,0
-154,-55,0,0,0,0,0,0,0,0,0,-1,1070,1079,0,0
-147,-55,0,0,0,0,0,0,0,0,0,-1,1077,1079,0,0
-140,-55,0,0,0,0,0,0,0,0,0,-1,1084,1079,0,0
-133,-55,0,0,0,0,0,0,0,0,0,-1,1091,1079,0,0
-126,-55,0,0,0,0,0,0,0,0,0,-1,1098,1079,0,0
-119,-55,0,0,0,0,0,0,0,0,0,-1,1105,1079,0,0
-112,-55,0,0,0,0,0,0,0,0,0,-1,1112,1079,0,0
-105,-55,0,0,0,0,0,0,0,0,0,-1,1119,1079,0,0
-98,-55,0,0,0,0,0,0,0,0,0,-1,1126,1079,0,0
-91,-55,0,0,0,0,0,0,0,0,0,-1,1133,1079,0,0
-84,-55,0,0,0,0,0,0,0,0,0,-1,1140,1079,0,0
-77,-55,0,0,0,0,0,0,0,0,0,-1,1147,1079,0,0
-70,-55,0,0,0,0,0,0,0,0,0,-1,1154,1079,0,0
-63,-55,0,0,0,0,0,0,0,0,0,-1,1161,1079,0,0
-56,-55,0,0,0,0,0,0,0,0,0,-1,1168,1079,0,0
-49,-55,0,0,0,0,0,0,0,0,0,-1,1175,1079,0,0
-42,-55,0,0,0,0,0,0,0,0,0,-1,1182,1079,0,0
-35,-55,0,0,0,0,0,0,0,0,0,-1,1189,1079,0,0
-28,-55,0,0,0,0,0,0,0,0,0,-1,1196,1079,0,0
-21,-55,0,0,0,0,0,0,0,0,0,-1,1203,1079,0,0
-14,-55,0,0,0,0,0,0,0,0,0,-1,1210,1079,0,0
-7,-55,0,0,0,0,0,0,0,0,0,-1,1217,1079,0,0
0,-55,0,0,0,0,0,0,0,0,0,-1,1224,1079,0,0
7,-55,0,0,0,0,0,0,0,0,0,-1,1231,1079,0,0
14,-55,0,0,0,0,0,0,0,0,0,-1,1238,1079,0,0
21,-55,0,0,0,0,0,0,0,0,0,-1,1245,1079,0,0
28,-55,0,0,0,0,0,0,0,0,0,-1,1252,1079,0,0
35,-55,0,0,0,0,0,0,0,0,0,-1,1259,1079,0,0
42,-55,0,0,0,0,0,0,0,0,0,-1,1266,1079,0,0
49,-55,0,0,0,0,0,0,0,0,0,-1,1273,1079,0,0
56,-55,0,0,0,0,0,0,0,0,0,-1,1280,1079,0,0
63,-55,0,0,0,0,0,0,0,0,0,-1,1287,1079,0,0
70,-55,0,0,0,0,0,0,0,0,0,-1,1294,1079,0,0
77,-55,0,0,0,0,0,0,0,0,0,-1,1301,1079,0,0
84,-55,0,0,0,0,0,0,0,0,0,-1,1308,1079,0,0
91,-55,0,0,0,0,0,0,0,0,0,-1,1315,1079,0,0
98,-55,0,0,0,0,0,0,0,0,0,-1,1322,1079,0,0
105,-55,0,0,0,0,0,0,0,0,0,-1,1329,1079,0,0
112,-55,0,0,0,0,0,0,0,0,0,-1,1336,1079,0,0
119,-55,0,0,0,0,0,0,0,0,0,-1,1343,1079,0,0
126,-55,0,0,0,0,0,0,0,0,0,-1,1350,1079,0,0
133,-55,0,0,0,0,0,0,0,0,0,-1,1357,1079,0,0
140,-55,0,0,0,0,0,0,0,0,0,-1,1364,1079,0,0
147,-55,0,0,0,0,0,0,0,0,0,-1,1371,1079,0,0
154,-55,0,0,0,0,0,0,0,0,0,-1,1378,1079,0,0
161,-55,0,0,0,0,0,0,0,0,0,-1,1385,1079,0,0
168,-55,0,0,0,0,0,0,0,0,0,-1,1392,1079,0,0
175,-55,0,0,0,0,0,0,0,0,0,-1,1399,1079,0,0
182,-55,0,0,0,0,0,0,0,0,0,-1,1406,1079,0,0
189,-55,0,0,0,0,0,0,0,0,0,-1,1413,1079,0,0
196,-55,0,0,0,0,0,0,0,0,0,-1,1420,1079,0,0
203,-55,0,0,0,0,0,0,0,0,0,-1,1427,1079,0,0
210,-55,0,0,0,0,0,0,0,0,0,-1,1434,1079,0,0
217,-55,0,0,0,0,0,0,0,0,0,-1,1441,1079,0,0
224,-55,0,0,0,0,0,0,0,0,0,-1,1448,1079,0,0
231,-55,0,0,0,0,0,0,0,0,0,-1,1455,1079,0,0
238,-55,0,0,0,0,0,0,0,0,0,-1,1462,1079,0,0
245,-55,0,0,0,0,0,0,0,0,0,-1,1469,1079,0,0
252,-55,0,0,0,0,0,0,0,0,0,-1,1476,1079,0,0
259,-55,0,0,0,0,0,0,0,0,0,-1,1483,1079,0,0
266,-55,0,0,0,0,0,0,0,0,0,-1,1490,1079,0,0
273,-55,0,0,0,0,0,0,0,0,0,-1,1497,1079,0,0
280,-55,0,0,0,0,0,0,0,0,0,-1,1504,1079,0,0
287,-55,0,0,0,0,0,0,0,0,0,-1,1511,1079,0,0
294,-55,0,0,0,0,0,0,0,0,0,-1,1518,1079,0,0
301,-55,0,0,0,0,0,0,0,0,0,-1,1525,1079,0,0
308,-55,0,0,0,0,0,0,0,0,0,-1,1532,1079,0,0
315,-55,0,0,0,0,0,0,0,0,0,-1,1539,1079,0,0
322,-55,0,0,0,0,0,0,0,0,0,-1,1546,1079,0,0
329,-55,0,0,0,0,0,0,0,0,0,-1,1553,1079,0,0
336,-55,0,0,0,0,0,0,0,0,0,-1,1560,1079,0,0
343,-55,0,0,0,0,0,0,0,0,0,-1,1567,1079,0,0
350,-55,0,0,0,0,0,0,0,0,0,-1,1574,1079,0,0
357,-55,0,0,0,0,0,0,0,0,0,-1,1581,1079,0,0
364,-55,0,0,0,0,0,0,0,0,0,-1,1588,1079,0,0
371,-55,0,0,0,0,0,0,0,0,0,-1,1595,1079,0,0
378,-55,0,0,0,0,0,0,0,0,0,-1,1602,1079,0,0
385,-55,0,0,0,0,0,0,0,0,0,-1,1609,1079,0,0
392,-55,0,0,0,0,0,0,0,0,0,-1,1616,1079,0,0
399,-55,0,0,0,0,0,0,0,0,0,-1,1623,1079,0,0
406,-55,0,0,0,0,0,0,0,0,0,-1,1630,1079,0,0
413,-55,0,0,0,0,0,0,0,0,0,-1,1637,1079,0,0
420,-55,0,0,0,0,0,0,0,0,0,-1,1644,1079,0,0
427,-55,0,0,0,0,0,0,0,0,0,-1,1651,1079,0,0
434,-55,0,0,0,0,0,0,0,0,0,-1,1658,1079,0,0
441,-55,0,0,0,0,0,0,0,0,0,-1,1665,1079,0,0
448,-55,0,0,0,0,0,0,0,0,0,-1,1672,1079,0,0
455,-55,0,0,0,0,0,0,0,0,0,-1,1679,1079,0,0
462,-55,0,0,0,0,0,0,0,0,0,-1,1686,1079,0,0
469,-55,0,0,0,0,0,0,0,0,0,-1,1693,1079,0,0
476,-55,0,0,0,0,0,0,0,0,0,-1,1700,1079,0,0
483,-55,0,0,0,0,0,0,0,0,0,-1,1707,1079,0,0
490,-55,0,0,0,0,0,0,0,0,0,-1,1714,1079,0,0
497,-55,0,0,0,0,0,0,0,0,0,-1,1721,1079,0,0
504,-55,0,0,0,0,0,0,0,0,0,-1,1728,1079,0,0
511,-55,0,0,0,0,0,0,0,0,0,-1,1735,1079,0,0
518,-55,0,0,0,0,0,0,0,0,0,-1,1742,1079,0,0
525,-55,0,0,0,0,0,0,0,0,0,-1,1749,1079,0,0
532,-55,0,0,0,0,0,0,0,0,0,-1,1756,1079,0,0
539,-55,0,0,0,0,0,0,0,0,0,-1,1763,1079,0,0
546,-55,0,0,0,0,0,0,0,0,0,-1,1770,1079,0,0
553,-55,0,0,0,0,0,0,0,0,0,-1,1777,1079,0,0
560,-55,0,0,0,0,0,0,0,0,0,-1,1784,1079,0,0
567,-55,0,0,0,0,0,0,0,0,0,-1,1791,1079,0,0
574,-55,0,0,0,0,0,0,0,0,0,-1,1798,1079,0,0
581,-55,0,0,0,0,0,0,0,0,0,-1,1805,1079,0,0
588,-55,0,0,0,0,0,0,0,0,0,-1,1812,1079,0,0
595,-55,0,0,0,0,0,0,0,0,0,-1,1819,1079,0,0
602,-55,0,0,0,0,0,0,0,0,0,-1,1826,1079,0,0
609,-55,0,0,0,0,0,0,0,0,0,-1,1833,1079,0,0
616,-55,0,0,0,0,0,0,0,0,0,-1,1840,1079,0,0
623,-55,0,0,0,0,0,0,0,0,0,-1,1847,1079,0,0
630,-55,0,0,0,0,0,0,0,0,0,-1,1854,1079,0,0
637,-55,0,0,0,0,0,0,0,0,0,-1,1861,1079,0,0
644,-55,0,0,0,0,0,0,0,0,0,-1,1868,1079,0,0
651,-55,16.2295,2.43481,0.0010086,-0.000865484,-0.00132471,0.00169419,-0.00155107,-0.477575,0.00187425,0.0366402,1875,1079,16.2296,-2.43484
658,-55,16.2046,2.26147,0.000677599,-0.000181107,-0.0004245,0.000852021,-0.000355529,-0.389857,0.000716553,0.0361787,1882,1079,16.2046,-2.26147
665,-55,16.076,2.09851,0.000507041,0.000261046,-0.000102161,0.000543935,0.000224152,-0.346558,0.000315655,0.041826,1889,1079,16.076,-2.09845
672,-55,16.2373,2.31775,0.000112269,0.00038469,0.000560487,0.000825281,-0.000328321,0.904598,0.000686324,0.0387843,1896,1079,16.2373,-2.31769
679,-55,16.2152,2.41309,-0.000768147,0.000202239,0.00161464,0.00140301,-0.00196892,0.931354,0.0019559,0.0351602,1903,1079,16.2153,-2.41312
686,-55,16.0745,2.19885,-0.00174805,-0.000102615,0.00260248,0.00180409,-0.00365476,0.938492,0.00321147,0.0396597,1910,1079,16.0744,-2.19887
693,-55,15.9655,2.32678,-0.0025557,-0.000449946,0.00344809,0.00210243,-0.00510808,0.933577,0.00428185,0.0398516,1917,1079,15.9655,-2.32678
700,-55,16.1383,2.34497,-0.00326636,-0.000726067,0.00411683,0.0023121,-0.00630453,0.935028,0.00514974,0.033969,1924,1079,16.1383,-2.34497
707,-55,16.1703,2.31384,-0.00378908,-0.000932959,0.00467744,0.00252956,-0.0072516,0.933558,0.00586242,0.0241647,1931,1079,16.1703,-2.31387
714,-55,16.2467,2.14539,0,0,0,0,0,0,0,-1,1938,1079,16.2467,-2.14541
721,-55,16.0897,2.85632,0,0,0,0,0,0,0,-1,1945,1079,16.0897,-2.8563
728,-55,15.7772,3.27954,0,0,0,0,0,0,0,-1,1952,1079,15.7772,-3.27952
735,-55,15.774,3.26013,-0.00441095,-0.000977901,0.00436224,0.00199338,-0.00738224,0.972842,0.00570328,0.0163189,1959,1079,15.7741,-3.26018
742,-55,15.7784,3.23669,-0.00485101,-0.000587519,0.00355607,0.00142681,-0.00686534,1.05541,0.00511921,0.0162938,1966,1079,15.7785,-3.23675
749,-55,15.7988,3.17615,-0.00545743,-0.000876723,0.00247998,0.000208722,-0.00654287,1.15823,0.00443313,0.0123637,1973,1079,15.7988,-3.17611
756,-55,15.7921,3.14709,-0.00695741,-0.000753529,0.000526631,-0.000709142,-0.00700179,1.48671,0.00445036,0.0110081,1980,1079,15.7921,-3.14706
763,-55,15.7847,3.15344,-0.009583,-0.00103907,-0.00215542,-0.000526107,-0.010096,-1.33716,0.00656231,0.0135383,1987,1079,15.7847,-3.15344
770,-55,15.7917,3.12256,-0.0127505,-0.00142516,-0.00542512,0.000754216,-0.0149299,-1.18881,0.010214,0.0141682,1994,1079,15.7918,-3.12258
777,-55,15.788,3.08276,-0.0172287,-0.00218904,-0.00915411,0.00213788,-0.0215556,-1.12925,0.0151335,0.0118995,2001,1079,15.788,-3.08278
784,-55,15.8186,3.05872,-0.0235071,-0.00359158,-0.0132408,0.00301794,-0.0301166,-1.10781,0.0211556,0.0268645,2008,1079,15.8186,-3.05872
791,-55,15.8516,3.02405,-0.0317311,-0.00557258,-0.0182058,0.00376506,-0.0410687,-1.09689,0.0287166,0.0420253,2015,1079,15.8516,-3.02404
798,-55,15.6694,2.97192,-0.0419291,-0.0082128,-0.0244762,0.00464906,-0.054791,-1.08697,0.0381715,0.0493863,2022,1079,15.6695,-2.97197
805,-55,16.8691,1.97681,0,0,0,0,0,0,0,-1,2029,1079,16.8692,-1.97677
812,-55,13.2773,1.98071,0,0,0,0,0,0,0,-1,2036,1079,13.2773,-1.98074
-700,-62,-12.8391,1.06262,0,0,0,0,0,0,0,-1,524,1086,-12.8391,-1.06259
-693,-62,-12.3704,1.36975,0,0,0,0,0,0,0,-1,531,1086,-12.3704,-1.36976
-686,-62,-7.32819,-0.165039,0,0,0,0,0,0,0,-1,538,1086,-7.3282,0.16509
-679,-62,-10.6624,0.705688,0,0,0,0,0,0,0,-1,545,1086,-10.6624,-0.705635
-672,-62,-10.3338,0.567017,0,0,0,0,0,0,0,-1,552,1086,-10.3338,-0.567054
-665,-62,-9.93042,0.458496,0,0,0,0,0,0,0,-1,559,1086,-9.93041,-0.458499
-658,-62,-9.52637,0.355103,0,0,0,0,0,0,0,-1,566,1086,-9.52635,-0.355112
-651,-62,-9.89075,0.674072,0.0337636,0.0178747,0.0292554,0.056134,-0.00449577,0.652818,0.0390077,0.0378202,573,1086,-9.89073,-0.674075
-644,-62,-9.85706,0.833862,0.0232369,0.0125412,0.0199237,0.038518,-0.00273986,0.654281,0.0266389,0.0120683,580,1086,-9.85703,-0.833823
-637,-62,-9.8454,0.883789,0.0148014,0.00792001,0.0118293,0.0236802,-0.000958823,0.643872,0.0161159,0.0100514,587,1086,-9.84543,-0.883847
-630,-62,-9.8548,0.952637,0.00873148,0.0046074,0.00616682,0.0131719,0.000167004,0.624054,0.00872611,0.0112663,594,1086,-9.85481,-0.952679
-623,-62,-9.85547,1.00549,0.00451081,0.00246577,0.00207092,0.00579789,0.00117869,0.55608,0.00353842,0.0121555,601,1086,-9.85545,-1.00546
-616,-62,-9.82886,1.0365,0.000931872,0.000865737,-0.00148622,0.00238539,-0.000587784,-0.774275,0.00181814,0.0117381,608,1086,-9.82885,-1.03652
-609,-62,-9.82336,1.08398,-0.00127208,-0.000431226,-0.00333125,0.00250603,-0.00420933,-0.848169,0.00391846,0.0117466,615,1086,-9.82337,-1.08403
-602,-62,-9.84332,1.12988,-0.00152097,-0.000869668,-0.00411861,0.00293615,-0.00532678,-0.82485,0.0048367,0.0123863,622,1086,-9.84335,-1.1299
-595,-62,-9.80603,1.16602,-0.00166623,-0.00121968,-0.00467528,0.00323766,-0.00612357,-0.809258,0.00548965,0.0152312,629,1086,-9.80606,-1.16596
-588,-62,-9.85364,0.949463,-0.0016436,-0.00131495,-0.00503906,0.00356247,-0.00652101,-0.801698,0.00590464,0.0236109,636,1086,-9.85363,-0.949459
-581,-62,-9.99561,0.668457,-0.00145983,-0.00127582,-0.00515908,0.00379207,-0.00652772,-0.794314,0.00602751,0.0320748,643,1086,-9.99561,-0.668493
-574,-62,-9.94336,0.484253,-0.00124896,-0.0012059,-0.00496306,0.00373568,-0.00619053,-0.787567,0.00578903,0.0342239,650,1086,-9.94338,-0.484223
-567,-62,-9.88806,0.281372,-0.000821848,-0.00099574,-0.00450666,0.00359871,-0.0054163,-0.775753,0.00523996,0.0388632,657,1086,-9.88805,-0.28138
-560,-62,-10.0728,0.106079,-0.000175101,-0.00066094,-0.00382111,0.00341081,-0.00424685,-0.753654,0.00442992,0.0412268,664,1086,-10.0728,-0.10608
-553,-62,-9.97424,0.369141,0.000656297,-0.000212488,-0.00298731,0.00324063,-0.00279682,-0.713198,0.00348886,0.0378631,671,1086,-9.97425,-0.369173
-546,-62,-9.89465,0.484253,0.00163139,0.00034308,-0.00209981,0.00318363,-0.00120916,-0.636571,0.00262018,0.0336171,678,1086,-9.89466,-0.4843
-539,-62,-9.99084,0.394287,0.00269674,0.000972978,-0.00154152,0.00360096,6.87515e-05,-0.530493,0.00237806,0.0385429,685,1086,-9.99085,-0.394246
-532,-62,-10.0902,0.365112,0.00322388,0.00139386,-0.0024887,0.00496045,-0.000342708,-0.609236,0.00342692,0.0411126,692,1086,-10.0902,-0.365055
-525,-62,0,0,0,0,0,0,0,0,0,-1,699,1086,0,0
-518,-62,0,0,0,0,0,0,0,0,0,-1,706,1086,0,0
-511,-62,0,0,0,0,0,0,0,0,0,-1,713,1086,0,0
-504,-62,0,0,0,0,0,0,0,0,0,-1,720,1086,0,0
-497,-62,0,0,0,0,0,0,0,0,0,-1,727,1086,0,0
-490,-62,0,0,0,0,0,0,0,0,0,-1,734,1086,0,0
-483,-62,0,0,0,0,0,0,0,0,0,-1,741,1086,0,0
-476,-62,0,0,0,0,0,0,0,0,0,-1,748,1086,0,0
-469,-62,0,0,0,0,0,0,0,0,0,-1,755,1086,0,0
-462,-62,0,0,0,0,0,0,0,0,0,-1,762,1086,0,0
-455,-62,0,0,0,0,0,0,0,0,0,-1,769,1086,0,0
-448,-62,0,0,0,0,0,0,0,0,0,-1,776,1086,0,0
-441,-62,0,0,0,0,0,0,0,0,0,-1,783,1086,0,0
-434,-62,0,0,0,0,0,0,0,0,0,-1,790,1086,0,0
-427,-62,0,0,0,0,0,0,0,0,0,-1,797,1086,0,0
-420,-62,0,0,0,0,0,0,0,0,0,-1,804,1086,0,0
-413,-62,0,0,0,0,0,0,0,0,0,-1,811,1086,0,0
-406,-62,0,0,0,0,0,0,0,0,0,-1,818,1086,0,0
-399,-62,0,0,0,0,0,0,0,0,0,-1,825,1086,0,0
-392,-62,0,0,0,0,0,0,0,0,0,-1,832,1086,0,0
-385,-62,0,0,0,0,0,0,0,0,0,-1,839,1086,0,0
-378,-62,0,0,0,0,0,0,0,0,0,-1,846,1086,0,0
-371,-62,0,0,0,0,0,0,0,0,0,-1,853,1086,0,0
-364,-62,0,0,0,0,0,0,0,0,0,-1,860,1086,0,0
-357,-62,0,0,0,0,0,0,0,0,0,-1,867,1086,0,0
-350,-62,0,0,0,0,0,0,0,0,0,-1,874,1086,0,0
-343,-62,0,0,0,0,0,0,0,0,0,-1,881,1086,0,0
-336,-62,0,0,0,0,0,0,0,0,0,-1,888,1086,0,0
-329,-62,0,0,0,0,0,0,0,0,0,-1,895,1086,0,0
-322,-62,0,0,0,0,0,0,0,0,0,-1,902,1086,0,0
-315,-62,0,0,0,0,0,0,0,0,0,-1,909,1086,0,0
-308,-62,0,0,0,0,0,0,0,0,0,-1,916,1086,0,0
-301,-62,0,0,0,0,0,0,0,0,0,-1,923,1086,0,0
-294,-62,0,0,0,0,0,0,0,0,0,-1,930,1086,0,0
-287,-62,0,0,0,0,0,0,0,0,0,-1,937,1086,0,0
-280,-62,0,0,0,0,0,0,0,0,0,-1,944,1086,0,0
-273,-62,0,0,0,0,0,0,0,0,0,-1,951,1086,0,0
-266,-62,0,0,0,0,0,0,0,0,0,-1,958,1086,0,0
-259,-62,0,0,0,0,0,0,0,0,0,-1,965,1086,0,0
-252,-62,0,0,0,0,0,0,0,0,0,-1,972,1086,0,0
-245,-62,0,0,0,0,0,0,0,0,0,-1,979,1086,0,0
-238,-62,0,0,0,0,0,0,0,0,0,-1,986,1086,0,0
-231,-62,0,0,0,0,0,0,0,0,0,-1,993,1086,0,0
-224,-62,0,0,0,0,0,0,0,0,0,-1,1000,1086,0,0
-217,-62,0,0,0,0,0,0,0,0,0,-1,1007,1086,0,0
-210,-62,0,0,0,0,0,0,0,0,0,-1,1014,1086,0,0
-203,-62,0,0,0,0,0,0,0,0,0,-1,1021,1086,0,0
-196,-62,0,0,0,0,0,0,0,0,0,-1,1028,1086,0,0
-189,-62,0,0,0,0,0,0,0,0,0,-1,1035,1086,0,0
-182,-62,0,0,0,0,0,0,0,0,0,-1,1042,1086,0,0
-175,-62,0,0,0,0,0,0,0,0,0,-1,1049,1086,0,0
-168,-62,0,0,0,0,0,0,0,0,0,-1,1056,1086,0,0
-161,-62,0,0,0,0,0,0,0,0,0,-1,1063,1086,0,0
-154,-62,0,0,0,0,0,0,0,0,0,-1,1070,1086,0,0
-147,-62,0,0,0,0,0,0,0,0,0,-1,1077,1086,0,0
-140,-62,0,0,0,0,0,0,0,0,0,-1,1084,1086,0,0
-133,-62,0,0,0,0,0,0,0,0,0,-1,1091,1086,0,0
-126,-62,0,0,0,0,0,0,0,0,0,-1,1098,1086,0,0
-119,-62,0,0,0,0,0,0,0,0,0,-1,1105,1086,0,0
-112,-62,0,0,0,0,0,0,0,0,0,-1,1112,1086,0,0
-105,-62,0,0,0,0,0,0,0,0,0,-1,1119,1086,0,0
-98,-62,0,0,0,0,0,0,0,0,0,-1,1126,1086,0,0
-91,-62,0,0,0,0,0,0,0,0,0,-1,1133,1086,0,0
-84,-62,0,0,0,0,0,0,0,0,0,-1,1140,1086,0,0
-77,-62,0,0,0,0,0,0,0,0,0,-1,1147,1086,0,0
-70,-62,0,0,0,0,0,0,0,0,0,-1,1154,1086,0,0
-63,-62,0,0,0,0,0,0,0,0,0,-1,1161,1086,0,0
-56,-62,0,0,0,0,0,0,0,0,0,-1,1168,1086,0,0
-49,-62,0,0,0,0,0,0,0,0,0,-1,1175,1086,0,0
-42,-62,0,0,0,0,0,0,0,0,0,-1,1182,1086,0,0
-35,-62,0,0,0,0,0,0,0,0,0,-1,1189,1086,0,0
-28,-62,0,0,0,0,0,0,0,0,0,-1,1196,1086,0,0
-21,-62,0,0,0,0,0,0,0,0,0,-1,1203,1086,0,0
-14,-62,0,0,0,0,0,0,0,0,0,-1,1210,1086,0,0
-7,-62,0,0,0,0,0,0,0,0,0,-1,1217,1086,0,0
0,-62,0,0,0,0,0,0,0,0,0,-1,1224,1086,0,0
7,-62,0,0,0,0,0,0,0,0,0,-1,1231,1086,0,0
14,-62,0,0,0,0,0,0,0,0,0,-1,1238,1086,0,0
21,-62,0,0,0,0,0,0,0,0,0,-1,1245,1086,0,0
28,-62,0,0,0,0,0,0,0,0,0,-1,1252,1086,0,0
35,-62,0,0,0,0,0,0,0,0,0,-1,1259,1086,0,0
42,-62,0,0,0,0,0,0,0,0,0,-1,1266,1086,0,0
49,-62,0,0,0,0,0,0,0,0,0,-1,1273,1086,0,0
56,-62,0,0,0,0,0,0,0,0,0,-1,1280,1086,0,0
63,-62,0,0,0,0,0,0,0,0,0,-1,1287,1086,0,0
70,-62,0,0,0,0,0,0,0,0,0,-1,1294,1086,0,0
77,-62,0,0,0,0,0,0,0,0,0,-1,1301,1086,0,0
84,-62,0,0,0,0,0,0,0,0,0,-1,1308,1086,0,0
91,-62,0,0,0,0,0,0,0,0,0,-1,1315,1086,0,0
98,-62,0,0,0,0,0,0,0,0,0,-1,1322,1086,0,0
105,-62,0,0,0,0,0,0,0,0,0,-1,1329,1086,0,0
112,-62,0,0,0,0,0,0,0,0,0,-1,1336,1086,0,0
119,-62,0,0,0,0,0,0,0,0,0,-1,1343,1086,0,0
126,-62,0,0,0,0,0,0,0,0,0,-1,1350,1086,0,0
133,-62,0,0,0,0,0,0,0,0,0,-1,1357,1086,0,0
140,-62,0,0,0,0,0,0,0,0,0,-1,1364,1086,0,0
147,-62,0,0,0,0,0,0,0,0,0,-1,1371,1086,0,0
154,-62,0,0,0,0,0,0,0,0,0,-1,1378,1086,0,0
161,-62,0,0,0,0,0,0,0,0,0,-1,1385,1086,0,0
168,-62,0,0,0,0,0,0,0,0,0,-1,1392,1086,0,0
175,-62,0,0,0,0,0,0,0,0,0,-1,1399,1086,0,0
182,-62,0,0,0,0,0,0,0,0,0,-1,1406,1086,0,0
189,-62,0,0,0,0,0,0,0,0,0,-1,1413,1086,0,0
196,-62,0,0,0,0,0,0,0,0,0,-1,1420,1086,0,0
203,-62,0,0,0,0,0,0,0,0,0,-1,1427,1086,0,0
210,-62,0,0,0,0,0,0,0,0,0,-1,1434,1086,0,0
217,-62,0,0,0,0,0,0,0,0,0,-1,1441,1086,0,0
224,-62,0,0,0,0,0,0,0,0,0,-1,1448,1086,0,0
231,-62,0,0,0,0,0,0,0,0,0,-1,1455,1086,0,0
238,-62,0,0,0,0,0,0,0,0,0,-1,1462,1086,0,0
245,-62,0,0,0,0,0,0,0,0,0,-1,1469,1086,0,0
252,-62,0,0,0,0,0,0,0,0,0,-1,1476,1086,0,0
259,-62,0,0,0,0,0,0,0,0,0,-1,1483,1086,0,0
266,-62,0,0,0,0,0,0,0,0,0,-1,1490,1086,0,0
273,-62,0,0,0,0,0,0,0,0,0,-1,1497,1086,0,0
280,-62,0,0,0,0,0,0,0,0,0,-1,1504,1086,0,0
287,-62,0,0,0,0,0,0,0,0,0,-1,1511,1086,0,0
294,-62,0,0,0,0,0,0,0,0,0,-1,1518,1086,0,0
301,-62,0,0,0,0,0,0,0,0,0,-1,1525,1086,0,0
308,-62,0,0,0,0,0,0,0,0,0,-1,1532,1086,0,0
315,-62,0,0,0,0,0,0,0,0,0,-1,1539,1086,0,0
322,-62,0,0,0,0,0,0,0,0,0,-1,1546,1086,0,0
329,-62,0,0,0,0,0,0,0,0,0,-1,1553,1086,0,0
336,-62,0,0,0,0,0,0,0,0,0,-1,1560,1086,0,0
343,-62,0,0,0,0,0,0,0,0,0,-1,1567,1086,0,0
350,-62,0,0,0,0,0,0,0,0,0,-1,1574,1086,0,0
357,-62,0,0,0,0,0,0,0,0,0,-1,1581,1086,0,0
364,-62,0,0,0,0,0,0,0,0,0,-1,1588,1086,0,0
371,-62,0,0,0,0,0,0,0,0,0,-1,1595,1086,0,0
378,-62,0,0,0,0,0,0,0,0,0,-1,1602,1086,0,0
385,-62,0,0,0,0,0,0,0,0,0,-1,1609,1086,0,0
392,-62,0,0,0,0,0,0,0,0,0,-1,1616,1086,0,0
399,-62,0,0,0,0,0,0,0,0,0,-1,1623,1086,0,0
406,-62,0,0,0,0,0,0,0,0,0,-1,1630,1086,0,0
413,-62,0,0,0,0,0,0,0,0,0,-1,1637,1086,0,0
420,-62,0,0,0,0,0,0,0,0,0,-1,1644,1086,0,0
427,-62,0,0,0,0,0,0,0,0,0,-1,1651,1086,0,0
434,-62,0,0,0,0,0,0,0,0,0,-1,1658,1086,0,0
441,-62,0,0,0,0,0,0,0,0,0,-1,1665,1086,0,0
448,-62,0,0,0,0,0,0,0,0,0,-1,1672,1086,0,0
455,-62,0,0,0,0,0,0,0,0,0,-1,1679,1086,0,0
462,-62,0,0,0,0,0,0,0,0,0,-1,1686,1086,0,0
469,-62,0,0,0,0,0,0,0,0,0,-1,1693,1086,0,0
476,-62,0,0,0,0,0,0,0,0,0,-1,1700,1086,0,0
483,-62,0,0,0,0,0,0,0,0,0,-1,1707,1086,0,0
490,-62,0,0,0,0,0,0,0,0,0,-1,1714,1086,0,0
497,-62,0,0,0,0,0,0,0,0,0,-1,1721,1086,0,0
504,-62,0,0,0,0,0,0,0,0,0,-1,1728,1086,0,0
511,-62,0,0,0,0,0,0,0,0,0,-1,1735,1086,0,0
518,-62,0,0,0,0,0,0,0,0,0,-1,1742,1086,0,0
525,-62,0,0,0,0,0,0,0,0,0,-1,1749,1086,0,0
532,-62,0,0,0,0,0,0,0,0,0,-1,1756,1086,0,0
539,-62,0,0,0,0,0,0,0,0,0,-1,1763,1086,0,0
546,-62,0,0,0,0,0,0,0,0,0,-1,1770,1086,0,0
553,-62,0,0,0,0,0,0,0,0,0,-1,1777,1086,0,0
560,-62,0,0,0,0,0,0,0,0,0,-1,1784,1086,0,0
567,-62,0,0,0,0,0,0,0,0,0,-1,1791,1086,0,0
574,-62,0,0,0,0,0,0,0,0,0,-1,1798,1086,0,0
581,-62,0,0,0,0,0,0,0,0,0,-1,1805,1086,0,0
588,-62,0,0,0,0,0,0,0,0,0,-1,1812,1086,0,0
595,-62,0,0,0,0,0,0,0,0,0,-1,1819,1086,0,0
602,-62,0,0,0,0,0,0,0,0,0,-1,1826,1086,0,0
609,-62,0,0,0,0,0,0,0,0,0,-1,1833,1086,0,0
616,-62,0,0,0,0,0,0,0,0,0,-1,1840,1086,0,0
623,-62,0,0,0,0,0,0,0,0,0,-1,1847,1086,0,0
630,-62,0,0,0,0,0,0,0,0,0,-1,1854,1086,0,0
637,-62,0,0,0,0,0,0,0,0,0,-1,1861,1086,0,0
644,-62,0,0,0,0,0,0,0,0,0,-1,1868,1086,0,0
651,-62,16.1583,2.48364,0.00203751,-0.00173601,-0.00207746,0.00295712,-0.00265562,-0.416733,0.00324208,0.0408877,1875,1086,16.1583,-2.48362
658,-62,16.2783,2.33484,0.00133477,-0.000914299,-0.00102687,0.00173308,-0.0013126,-0.370016,0.001764,0.043321,1882,1086,16.2783,-2.33486
665,-62,16.0885,2.19336,0.000938759,-0.000308668,-0.000568865,0.00115922,-0.000529126,-0.36972,0.000997137,0.0429223,1889,1086,16.0885,-2.19332
672,-62,16.1514,2.32727,0.000266009,-7.61537e-05,0.000297811,0.000438381,-0.000248526,0.524683,0.000401603,0.0383179,1896,1086,16.1514,-2.32733
679,-62,16.2452,2.27734,-0.000824809,-0.000167528,0.00149152,0.00103112,-0.00202346,0.893835,0.00179432,0.0377452,1903,1086,16.2453,-2.27735
686,-62,16.2075,2.35876,-0.00192851,-0.000401217,0.00256659,0.00151292,-0.00384265,0.929994,0.00318807,0.0403467,1910,1086,16.2075,-2.35879
693,-62,16.1444,2.40637,-0.00280823,-0.000694933,0.00346907,0.00187484,-0.00537801,0.93323,0.0043472,0.0385328,1917,1086,16.1445,-2.40643
700,-62,16.1221,2.32471,-0.00355799,-0.000925726,0.0041719,0.00213272,-0.00661644,0.938195,0.0052678,0.0322981,1924,1086,16.122,-2.32471
707,-62,16.1199,2.30798,-0.00411446,-0.00111024,0.00475882,0.00237791,-0.00760261,0.938273,0.00601969,0.0209026,1931,1086,16.1199,-2.30801
714,-62,16.1506,2.30286,0,0,0,0,0,0,0,-1,1938,1086,16.1506,-2.30282
721,-62,16.0955,3.20471,0,0,0,0,0,0,0,-1,1945,1086,16.0954,-3.20469
728,-62,15.7761,3.25659,-0.00462502,-0.00125069,0.00489853,0.00224308,-0.0081188,0.951247,0.00629488,0.0245666,1952,1086,15.7761,-3.25656
735,-62,15.7609,3.24951,-0.00471009,-0.00103234,0.00437538,0.00187488,-0.00761731,0.98433,0.00580498,0.0160355,1959,1086,15.7608,-3.24955
742,-62,15.7679,3.24841,-0.00531459,-0.000582361,0.00356162,0.00132746,-0.00722441,1.07859,0.00531431,0.0140213,1966,1086,15.768,-3.24846
749,-62,15.774,3.18372,-0.00612487,-0.000775778,0.00247948,0.000196733,-0.00709738,1.19701,0.00479851,0.012349,1973,1086,15.774,-3.18375
756,-62,15.7517,3.15967,-0.00794823,-0.000522259,0.000595217,-0.000474853,-0.00799564,1.49132,0.0051794,0.0131364,1980,1086,15.7517,-3.15964
763,-62,15.7479,3.14551,-0.0110519,-0.000593823,-0.00188593,-0.000264124,-0.0113816,-1.39772,0.00750124,0.013511,1987,1086,15.748,-3.14545
770,-62,15.7517,3.11145,-0.0148777,-0.000720493,-0.00492343,0.000823362,-0.0164216,-1.26693,0.0112322,0.0110214,1994,1086,15.7517,-3.1114
777,-62,15.7402,3.05103,-0.0202093,-0.00117746,-0.00824254,0.00189599,-0.0232827,-1.21389,0.0161909,0.0125255,2001,1086,15.7402,-3.05099
784,-62,15.7531,3.00049,-0.0275384,-0.0021959,-0.011763,0.0024224,-0.0321567,-1.19667,0.0222892,0.0255054,2008,1086,15.753,-3.00053
791,-62,15.7515,2.94666,-0.0369701,-0.00369106,-0.0159871,0.00274454,-0.0434057,-1.18809,0.029894,0.0442984,2015,1086,15.7515,-2.94665
798,-62,15.7572,2.90405,0,0,0,0,0,0,0,-1,2022,1086,15.7572,-2.90407
805,-62,13.8434,2.25891,-0.0624631,-0.00833189,-0.0276884,0.00332195,-0.0741169,-1.17241,0.050555,0.0461031,2029,1086,13.8433,-2.25889
812,-62,13.1516,2.14648,-0.0791072,-0.0115455,-0.0354703,0.00365619,-0.0943089,-1.1659,0.0641261,0.0481813,2036,1086,13.1516,-2.14654
-700,-69,-13.7037,0.815674,0,0,0,0,0,0,0,-1,524,1093,-13.7037,-0.815681
-693,-69,-9.61151,-1.33594,0,0,0,0,0,0,0,-1,531,1093,-9.6115,1.33596
-686,-69,-9.01117,-0.663818,0,0,0,0,0,0,0,-1,538,1093,-9.01114,0.663842
-679,-69,-8.80334,-0.0045166,0,0,0,0,0,0,0,-1,545,1093,-8.80332,0.004491
-672,-69,-10.2443,0.335938,0,0,0,0,0,0,0,-1,552,1093,-10.2443,-0.335883
-665,-69,-9.93317,0.403931,0,0,0,0,0,0,0,-1,559,1093,-9.93314,-0.403891
-658,-69,-9.70953,0.955933,0,0,0,0,0,0,0,-1,566,1093,-9.70955,-0.955921
-651,-69,-9.83228,0.789917,0.0420211,0.017846,0.0324933,0.0646024,-0.00473524,0.607329,0.0447303,0.0333367,573,1093,-9.8323,-0.789974
-644,-69,-9.80011,0.835083,0.0290956,0.0124776,0.0221375,0.0444321,-0.00285885,0.605866,0.0306188,0.00990953,580,1093,-9.80013,-0.835097
-637,-69,-9.79846,0.892212,0.0187194,0.00786464,0.0132196,0.0275824,-0.000998387,0.590613,0.0187299,0.0114244,587,1093,-9.79843,-0.892199
-630,-69,-9.79523,0.938721,0.0110849,0.00455324,0.0069948,0.0155387,9.94396e-05,0.566991,0.0103262,0.0133185,594,1093,-9.79521,-0.938673
-623,-69,-9.79047,0.994629,0.0058155,0.00239082,0.00251554,0.00714619,0.00106012,0.486569,0.00445302,0.0120825,601,1093,-9.79049,-0.994659
-616,-69,-9.76141,1.03137,0.00133769,0.000732368,-0.00125628,0.00232726,-0.000257201,-0.667193,0.00164396,0.0118659,608,1093,-9.76139,-1.03134
-609,-69,-9.76111,1.06201,-0.001559,-0.000565885,-0.00330623,0.00228087,-0.00440575,-0.859935,0.00392496,0.0114524,615,1093,-9.76108,-1.06201
-602,-69,-9.76422,1.12451,-0.00182612,-0.000997133,-0.0041329,0.002742,-0.00556526,-0.835377,0.00488766,0.0142474,622,1093,-9.76419,-1.12453
-595,-69,-9.73181,1.16626,-0.00196875,-0.00131307,-0.00476129,0.00313165,-0.00641347,-0.819771,0.00561841,0.0163491,629,1093,-9.7318,-1.16627
-588,-69,-9.81555,1.0304,-0.00197792,-0.00141165,-0.00517298,0.00348594,-0.00687551,-0.812737,0.00608795,0.0211677,636,1093,-9.81557,-1.03045
-581,-69,-9.9574,0.732544,-0.00184763,-0.00139423,-0.00531053,0.00369443,-0.00693629,-0.806729,0.00623206,0.0286933,643,1093,-9.95738,-0.732573
-574,-69,-9.97076,0.50415,-0.00167075,-0.0013364,-0.00514192,0.00364106,-0.00664821,-0.801649,0.00602449,0.0314824,650,1093,-9.97079,-0.504144
-567,-69,-10.0048,0.345337,-0.00125577,-0.00113512,-0.00472182,0.00352676,-0.00591765,-0.791785,0.00551066,0.0363956,657,1093,-10.0048,-0.345334
-560,-69,-10.0818,0.338867,-0.000630163,-0.000812653,-0.00405881,0.00333843,-0.00478124,-0.77416,0.0047125,0.0385405,664,1093,-10.0818,-0.338925
-553,-69,-9.9751,0.605591,0.000148466,-0.000388116,-0.0032245,0.00311581,-0.00335546,-0.743892,0.00373705,0.0399751,671,1093,-9.97511,-0.605613
-546,-69,-9.91498,0.469971,0.00101467,0.000120541,-0.00230037,0.00291102,-0.00177581,-0.689422,0.00273227,0.03684,678,1093,-9.915,-0.470028
-539,-69,-9.95349,0.309204,0.00187933,0.000666907,-0.00160217,0.00298614,-0.000439904,-0.604538,0.00215243,0.0404671,685,1093,-9.9535,-0.309253
-532,-69,-9.79913,0.433838,0.0019704,0.00092927,-0.00227102,0.00377975,-0.00088008,-0.672734,0.00285871,0.0410042,692,1093,-9.7991,-0.4338
-525,-69,0,0,0,0,0,0,0,0,0,-1,699,1093,0,0
-518,-69,0,0,0,0,0,0,0,0,0,-1,706,1093,0,0
-511,-69,0,0,0,0,0,0,0,0,0,-1,713,1093,0,0
-504,-69,0,0,0,0,0,0,0,0,0,-1,720,1093,0,0
-497,-69,0,0,0,0,0,0,0,0,0,-1,727,1093,0,0
-490,-69,0,0,0,0,0,0,0,0,0,-1,734,1093,0,0
-483,-69,0,0,0,0,0,0,0,0,0,-1,741,1093,0,0
-476,-69,0,0,0,0,0,0,0,0,0,-1,748,1093,0,0
-469,-69,0,0,0,0,0,0,0,0,0,-1,755,1093,0,0
-462,-69,0,0,0,0,0,0,0,0,0,-1,762,1093,0,0
-455,-69,0,0,0,0,0,0,0,0,0,-1,769,1093,0,0
-448,-69,0,0,0,0,0,0,0,0,0,-1,776,1093,0,0
-441,-69,0,0,0,0,0,0,0,0,0,-1,783,1093,0,0
-434,-69,0,0,0,0,0,0,0,0,0,-1,790,1093,0,0
-427,-69,0,0,0,0,0,0,0,0,0,-1,797,1093,0,0
-420,-69,0,0,0,0,0,0,0,0,0,-1,804,1093,0,0
-413,-69,0,0,0,0,0,0,0,0,0,-1,811,1093,0,0
-406,-69,0,0,0,0,0,0,0,0,0,-1,818,1093,0,0
-399,-69,0,0,0,0,0,0,0,0,0,-1,825,1093,0,0
-392,-69,0,0,0,0,0,0,0,0,0,-1,832,1093,0,0
-385,-69,0,0,0,0,0,0,0,0,0,-1,839,1093,0,0
-378,-69,0,0,0,0,0,0,0,0,0,-1,846,1093,0,0
-371,-69,0,0,0,0,0,0,0,0,0,-1,853,1093,0,0
-364,-69,0,0,0,0,0,0,0,0,0,-1,860,1093,0,0
-357,-69,0,0,0,0,0,0,0,0,0,-1,867,1093,0,0
-350,-69,0,0,0,0,0,0,0,0,0,-1,874,1093,0,0
-343,-69,0,0,0,0,0,0,0,0,0,-1,881,1093,0,0
-336,-69,0,0,0,0,0,0,0,0,0,-1,888,1093,0,0
-329,-69,0,0,0,0,0,0,0,0,0,-1,895,1093,0,0
-322,-69,0,0,0,0,0,0,0,0,0,-1,902,1093,0,0
-315,-69,0,0,0,0,0,0,0,0,0,-1,909,1093,0,0
-308,-69,0,0,0,0,0,0,0,0,0,-1,916,1093,0,0
-301,-69,0,0,0,0,0,0,0,0,0,-1,923,1093,0,0
-294,-69,0,0,0,0,0,0,0,0,0,-1,930,1093,0,0
-287,-69,0,0,0,0,0,0,0,0,0,-1,937,1093,0,0
-280,-69,0,0,0,0,0,0,0,0,0,-1,944,1093,0,0
-273,-69,0,0,0,0,0,0,0,0,0,-1,951,1093,0,0
-266,-69,0,0,0,0,0,0,0,0,0,-1,958,1093,0,0
-259,-69,0,0,0,0,0,0,0,0,0,-1,965,1093,0,0
-252,-69,0,0,0,0,0,0,0,0,0,-1,972,1093,0,0
-245,-69,0,0,0,0,0,0,0,0,0,-1,979,1093,0,0
-238,-69,0,0,0,0,0,0,0,0,0,-1,986,1093,0,0
-231,-69,0,0,0,0,0,0,0,0,0,-1,993,1093,0,0
-224,-69,0,0,0,0,0,0,0,0,0,-1,1000,1093,0,0
-217,-69,0,0,0,0,0,0,0,0,0,-1,1007,1093,0,0
-210,-69,0,0,0,0,0,0,0,0,0,-1,1014,1093,0,0
-203,-69,0,0,0,0,0,0,0,0,0,-1,1021,1093,0,0
-196,-69,0,0,0,0,0,0,0,0,0,-1,1028,1093,0,0
-189,-69,0,0,0,0,0,0,0,0,0,-1,1035,1093,0,0
-182,-69,0,0,0,0,0,0,0,0,0,-1,1042,1093,0,0
-175,-69,0,0,0,0,0,0,0,0,0,-1,1049,1093,0,0
-168,-69,0,0,0,0,0,0,0,0,0,-1,1056,1093,0,0
-161,-69,0,0,0,0,0,0,0,0,0,-1,1063,1093,0,0
-154,-69,0,0,0,0,0,0,0,0,0,-1,1070,1093,0,0
-147,-69,0,0,0,0,0,0,0,0,0,-1,1077,1093,0,0
-140,-69,0,0,0,0,0,0,0,0,0,-1,1084,1093,0,0
-133,-69,0,0,0,0,0,0,0,0,0,-1,1091,1093,0,0
-126,-69,0,0,0,0,0,0,0,0,0,-1,1098,1093,0,0
-119,-69,0,0,0,0,0,0,0,0,0,-1,1105,1093,0,0
-112,-69,0,0,0,0,0,0,0,0,0,-1,1112,1093,0,0
-105,-69,0,0,0,0,0,0,0,0,0,-1,1119,1093,0,0
-98,-69,0,0,0,0,0,0,0,0,0,-1,1126,1093,0,0
-91,-69,0,0,0,0,0,0,0,0,0,-1,1133,1093,0,0
-84,-69,0,0,0,0,0,0,0,0,0,-1,1140,1093,0,0
-77,-69,0,0,0,0,0,0,0,0,0,-1,1147,1093,0,0
-70,-69,0,0,0,0,0,0,0,0,0,-1,1154,1093,0,0
-63,-69,0,0,0,0,0,0,0,0,0,-1,1161,1093,0,0
-56,-69,0,0,0,0,0,0,0,0,0,-1,1168,1093,0,0
-49,-69,0,0,0,0,0,0,0,0,0,-1,1175,1093,0,0
-42,-69,0,0,0,0,0,0,0,0,0,-1,1182,1093,0,0
-35,-69,0,0,0,0,0,0,0,0,0,-1,1189,1093,0,0
-28,-69,0,0,0,0,0,0,0,0,0,-1,1196,1093,0,0
-21,-69,0,0,0,0,0,0,0,0,0,-1,1203,1093,0,0
-14,-69,0,0,0,0,0,0,0,0,0,-1,1210,1093,0,0
-7,-69,0,0,0,0,0,0,0,0,0,-1,1217,1093,0,0
0,-69,0,0,0,0,0,0,0,0,0,-1,1224,1093,0,0
7,-69,0,0,0,0,0,0,0,0,0,-1,1231,1093,0,0
14,-69,0,0,0,0,0,0,0,0,0,-1,1238,1093,0,0
21,-69,0,0,0,0,0,0,0,0,0,-1,1245,1093,0,0
28,-69,0,0,0,0,0,0,0,0,0,-1,1252,1093,0,0
35,-69,0,0,0,0,0,0,0,0,0,-1,1259,1093,0,0
42,-69,0,0,0,0,0,0,0,0,0,-1,1266,1093,0,0
49,-69,0,0,0,0,0,0,0,0,0,-1,1273,1093,0,0
56,-69,0,0,0,0,0,0,0,0,0,-1,1280,1093,0,0
63,-69,0,0,0,0,0,0,0,0,0,-1,1287,1093,0,0
70,-69,0,0,0,0,0,0,0,0,0,-1,1294,1093,0,0
77,-69,0,0,0,0,0,0,0,0,0,-1,1301,1093,0,0
84,-69,0,0,0,0,0,0,0,0,0,-1,1308,1093,0,0
91,-69,0,0,0,0,0,0,0,0,0,-1,1315,1093,0,0
98,-69,0,0,0,0,0,0,0,0,0,-1,1322,1093,0,0
105,-69,0,0,0,0,0,0,0,0,0,-1,1329,1093,0,0
112,-69,0,0,0,0,0,0,0,0,0,-1,1336,1093,0,0
119,-69,0,0,0,0,0,0,0,0,0,-1,1343,1093,0,0
126,-69,0,0,0,0,0,0,0,0,0,-1,1350,1093,0,0
133,-69,0,0,0,0,0,0,0,0,0,-1,1357,1093,0,0
140,-69,0,0,0,0,0,0,0,0,0,-1,1364,1093,0,0
147,-69,0,0,0,0,0,0,0,0,0,-1,1371,1093,0,0
154,-69,0,0,0,0,0,0,0,0,0,-1,1378,1093,0,0
161,-69,0,0,0,0,0,0,0,0,0,-1,1385,1093,0,0
168,-69,0,0,0,0,0,0,0,0,0,-1,1392,1093,0,0
175,-69,0,0,0,0,0,0,0,0,0,-1,1399,1093,0,0
182,-69,0,0,0,0,0,0,0,0,0,-1,1406,1093,0,0
189,-69,0,0,0,0,0,0,0,0,0,-1,1413,1093,0,0
196,-69,0,0,0,0,0,0,0,0,0,-1,1420,1093,0,0
203,-69,0,0,0,0,0,0,0,0,0,-1,1427,1093,0,0
210,-69,0,0,0,0,0,0,0,0,0,-1,1434,1093,0,0
217,-69,0,0,0,0,0,0,0,0,0,-1,1441,1093,0,0
224,-69,0,0,0,0,0,0,0,0,0,-1,1448,1093,0,0
231,-69,0,0,0,0,0,0,0,0,0,-1,1455,1093,0,0
238,-69,0,0,0,0,0,0,0,0,0,-1,1462,1093,0,0
245,-69,0,0,0,0,0,0,0,0,0,-1,1469,1093,0,0
252,-69,0,0,0,0,0,0,0,0,0,-1,1476,1093,0,0
259,-69,0,0,0,0,0,0,0,0,0,-1,1483,1093,0,0
266,-69,0,0,0,0,0,0,0,0,0,-1,1490,1093,0,0
273,-69,0,0,0,0,0,0,0,0,0,-1,1497,1093,0,0
280,-69,0,0,0,0,0,0,0,0,0,-1,1504,1093,0,0
287,-69,0,0,0,0,0,0,0,0,0,-1,1511,1093,0,0
294,-69,0,0,0,0,0,0,0,0,0,-1,1518,1093,0,0
301,-69,0,0,0,0,0,0,0,0,0,-1,1525,1093,0,0
308,-69,0,0,0,0,0,0,0,0,0,-1,1532,1093,0,0
315,-69,0,0,0,0,0,0,0,0,0,-1,1539,1093,0,0
322,-69,0,0,0,0,0,0,0,0,0,-1,1546,1093,0,0
329,-69,0,0,0,0,0,0,0,0,0,-1,1553,1093,0,0
336,-69,0,0,0,0,0,0,0,0,0,-1,1560,1093,0,0
343,-69,0,0,0,0,0,0,0,0,0,-1,1567,1093,0,0
350,-69,0,0,0,0,0,0,0,0,0,-1,1574,1093,0,0
357,-69,0,0,0,0,0,0,0,0,0,-1,1581,1093,0,0
364,-69,0,0,0,0,0,0,0,0,0,-1,1588,1093,0,0
371,-69,0,0,0,0,0,0,0,0,0,-1,1595,1093,0,0
378,-69,0,0,0,0,0,0,0,0,0,-1,1602,1093,0,0
385,-69,0,0,0,0,0,0,0,0,0,-1,1609,1093,0,0
392,-69,0,0,0,0,0,0,0,0,0,-1,1616,1093,0,0
399,-69,0,0,0,0,0,0,0,0,0,-1,1623,1093,0,0
406,-69,0,0,0,0,0,0,0,0,0,-1,1630,1093,0,0
413,-69,0,0,0,0,0,0,0,0,0,-1,1637,1093,0,0
420,-69,0,0,0,0,0,0,0,0,0,-1,1644,1093,0,0
427,-69,0,0,0,0,0,0,0,0,0,-1,1651,1093,0,0
434,-69,0,0,0,0,0,0,0,0,0,-1,1658,1093,0,0
441,-69,0,0,0,0,0,0,0,0,0,-1,1665,1093,0,0
448,-69,0,0,0,0,0,0,0,0,0,-1,1672,1093,0,0
455,-69,0,0,0,0,0,0,0,0,0,-1,1679,1093,0,0
462,-69,0,0,0,0,0,0,0,0,0,-1,1686,1093,0,0
469,-69,0,0,0,0,0,0,0,0,0,-1,1693,1093,0,0
476,-69,0,0,0,0,0,0,0,0,0,-1,1700,1093,0,0
483,-69,0,0,0,0,0,0,0,0,0,-1,1707,1093,0,0
490,-69,0,0,0,0,0,0,0,0,0,-1,1714,1093,0,0
497,-69,0,0,0,0,0,0,0,0,0,-1,1721,1093,0,0
504,-69,0,0,0,0,0,0,0,0,0,-1,1728,1093,0,0
511,-69,0,0,0,0,0,0,0,0,0,-1,1735,1093,0,0
518,-69,0,0,0,0,0,0,0,0,0,-1,1742,1093,0,0
525,-69,0,0,0,0,0,0,0,0,0,-1,1749,1093,0,0
532,-69,0,0,0,0,0,0,0,0,0,-1,1756,1093,0,0
539,-69,0,0,0,0,0,0,0,0,0,-1,1763,1093,0,0
546,-69,0,0,0,0,0,0,0,0,0,-1,1770,1093,0,0
553,-69,0,0,0,0,0,0,0,0,0,-1,1777,1093,0,0
560,-69,0,0,0,0,0,0,0,0,0,-1,1784,1093,0,0
567,-69,0,0,0,0,0,0,0,0,0,-1,1791,1093,0,0
574,-69,0,0,0,0,0,0,0,0,0,-1,1798,1093,0,0
581,-69,0,0,0,0,0,0,0,0,0,-1,1805,1093,0,0
588,-69,0,0,0,0,0,0,0,0,0,-1,1812,1093,0,0
595,-69,0,0,0,0,0,0,0,0,0,-1,1819,1093,0,0
602,-69,0,0,0,0,0,0,0,0,0,-1,1826,1093,0,0
609,-69,0,0,0,0,0,0,0,0,0,-1,1833,1093,0,0
616,-69,0,0,0,0,0,0,0,0,0,-1,1840,1093,0,0
623,-69,0,0,0,0,0,0,0,0,0,-1,1847,1093,0,0
630,-69,0,0,0,0,0,0,0,0,0,-1,1854,1093,0,0
637,-69,0,0,0,0,0,0,0,0,0,-1,1861,1093,0,0
644,-69,0,0,0,0,0,0,0,0,0,-1,1868,1093,0,0
651,-69,16.0231,2.3894,0.0028747,-0.00195496,-0.00241399,0.00387436,-0.00295462,-0.392612,0.00395461,0.0422116,1875,1093,16.0231,-2.38946
658,-69,16.2593,2.26074,0.00190222,-0.00121752,-0.00132012,0.00238586,-0.00170115,-0.351172,0.00237065,0.0473174,1882,1093,16.2593,-2.26073
665,-69,16.0782,2.16772,0.0013122,-0.000616938,-0.000799324,0.00160036,-0.00090509,-0.345994,0.00146497,0.0445352,1889,1093,16.0782,-2.1677
672,-69,15.9744,2.36316,0.000360667,-0.000454903,0.000216059,0.000414369,-0.000508605,0.243615,0.000533804,0.0375789,1896,1093,15.9744,-2.36314
679,-69,16.0481,2.39954,-0.000939357,-0.000607414,0.00149823,0.000734006,-0.00228078,0.840563,0.00181534,0.0368189,1903,1093,16.0481,-2.39957
686,-69,16.1552,2.30371,-0.00216914,-0.000877831,0.00262427,0.00117904,-0.00422601,0.906018,0.00328173,0.0370084,1910,1093,16.1551,-2.30373
693,-69,16.1387,2.40125,-0.00312774,-0.0011889,0.00356113,0.0015324,-0.00584904,0.91829,0.00449803,0.0342105,1917,1093,16.1386,-2.40127
700,-69,16.1154,2.32666,-0.00392353,-0.00141834,0.00428686,0.00179517,-0.00713705,0.927538,0.00545578,0.0293214,1924,1093,16.1153,-2.3267
707,-69,16.1128,2.26733,-0.00451083,-0.00160742,0.00488011,0.00203233,-0.00815057,0.929967,0.00622278,0.0206,1931,1093,16.1128,-2.26738
714,-69,16.1716,2.12634,0,0,0,0,0,0,0,-1,1938,1093,16.1717,-2.12636
721,-69,16.152,2.81726,-0.00493572,-0.00174629,0.00529725,0.00219108,-0.00887309,0.931606,0.00676508,0.038152,1945,1093,16.152,-2.8173
728,-69,15.865,3.21533,-0.00495589,-0.00162776,0.00497558,0.00195465,-0.00853831,0.946774,0.00644335,0.0244767,1952,1093,15.8649,-3.2153
735,-69,15.7303,3.26575,-0.00506194,-0.00133885,0.00443966,0.00161374,-0.00801453,0.983914,0.00595428,0.0146255,1959,1093,15.7304,-3.26576
742,-69,15.7461,3.2323,-0.00578442,-0.000791518,0.00363008,0.00111768,-0.00769362,1.08661,0.00553935,0.0116759,1966,1093,15.7461,-3.23234
749,-69,15.7246,3.18799,-0.00676276,-0.000860576,0.00254496,8.52232e-05,-0.00770856,1.21498,0.00516768,0.0137255,1973,1093,15.7246,-3.18804
756,-69,15.7239,3.16931,-0.00890101,-0.000374713,0.000767145,-0.00030624,-0.00896948,1.48178,0.00588023,0.0143883,1980,1093,15.7238,-3.16931
763,-69,15.7191,3.13464,-0.012482,-7.90023e-05,-0.0014597,9.04733e-05,-0.0126514,-1.45521,0.00846461,0.0142988,1987,1093,15.7191,-3.1347
770,-69,15.7084,3.09717,-0.0169047,0.000237707,-0.00417845,0.00120196,-0.0178689,-1.344,0.0123328,0.0140767,1994,1093,15.7084,-3.0972
777,-69,15.7133,3.06238,-0.023003,0.000317255,-0.00697001,0.00224166,-0.0249274,-1.30141,0.0174137,0.0189618,2001,1093,15.7133,-3.06244
784,-69,15.7345,3.03027,-0.0312242,2.90875e-06,-0.00976622,0.00280571,-0.034027,-1.29132,0.0236754,0.0317705,2008,1093,15.7345,-3.03031
791,-69,15.05,2.63428,-0.0415945,-0.000551899,-0.0130321,0.00323647,-0.0453829,-1.2879,0.0313898,0.0413764,2015,1093,15.0501,-2.63424
798,-69,14.5005,2.24011,-0.0541091,-0.00133078,-0.0169849,0.00366279,-0.0591027,-1.28485,0.0406777,0.0434147,2022,1093,14.5005,-2.24016
805,-69,14.0308,2.31042,-0.0688898,-0.00231686,-0.0216896,0.00412611,-0.0753328,-1.28205,0.0516522,0.0456556,2029,1093,14.0308,-2.31045
812,-69,13.3743,2.23291,-0.0861798,-0.00344205,-0.0271834,0.0046898,-0.0943116,-1.28012,0.0644945,0.0470401,2036,1093,13.3743,-2.23291
-700,-76,0,0,0,0,0,0,0,0,0,-1,524,1100,0,0
-693,-76,-11.7205,-1.87952,0,0,0,0,0,0,0,-1,531,1100,-11.7205,1.87957
-686,-76,-11.6636,-1.16687,0,0,0,0,0,0,0,-1,538,1100,-11.6636,1.16692
-679,-76,-10.7792,-0.34375,0,0,0,0,0,0,0,-1,545,1100,-10.7792,0.343739
-672,-76,-10.471,0.0893555,0,0,0,0,0,0,0,-1,552,1100,-10.471,-0.0893599
-665,-76,-9.94678,0.711914,0,0,0,0,0,0,0,-1,559,1100,-9.94676,-0.711973
-658,-76,-9.42255,1.33459,0,0,0,0,0,0,0,-1,566,1100,-9.42253,-1.33459
-651,-76,-9.74664,0.744873,0.0565629,0.019816,0.0304343,0.0737398,0.00263911,0.513827,0.0483042,0.0286064,573,1100,-9.74664,-0.744871
-644,-76,-9.72003,0.825684,0.0393101,0.0139123,0.0208613,0.0510336,0.00218874,0.511991,0.0333168,0.0109936,580,1100,-9.72003,-0.82568
-637,-76,-9.73682,0.877563,0.0256773,0.00891208,0.0123823,0.0322476,0.00234179,0.487843,0.0207619,0.0134894,587,1100,-9.73681,-0.877529
-630,-76,-9.74573,0.927734,0.0153463,0.00522912,0.00647646,0.0185056,0.00206982,0.453851,0.0117083,0.0135516,594,1100,-9.74574,-0.927735
-623,-76,-9.73206,0.980957,0.0074482,0.00268574,0.00263293,0.00861698,0.00151696,0.417777,0.0053117,0.0121119,601,1100,-9.73208,-0.981013
-616,-76,-9.71271,1.02734,0.00160795,0.000836862,-0.00120645,0.00248896,-4.41532e-05,-0.630743,0.00167422,0.0108783,608,1100,-9.71271,-1.02739
-609,-76,-9.72864,1.05994,-0.00188932,-0.000683774,-0.00332725,0.00209486,-0.00466795,-0.875008,0.00399761,0.0123183,615,1100,-9.72865,-1.05994
-602,-76,-9.72528,1.12817,-0.00219341,-0.00106741,-0.00421296,0.00262,-0.00588082,-0.851822,0.00502687,0.016264,622,1100,-9.72527,-1.12812
-595,-76,-9.70483,1.19348,-0.00239029,-0.001351,-0.00488128,0.00303822,-0.00677951,-0.838426,0.00580384,0.0192934,629,1100,-9.70485,-1.19345
-588,-76,-9.77069,1.06628,-0.00246629,-0.00144759,-0.00531818,0.00338558,-0.00729946,-0.83314,0.00630545,0.0240332,636,1100,-9.77068,-1.06634
-581,-76,-9.90887,0.649658,-0.00239026,-0.00144955,-0.00546124,0.00356155,-0.00740137,-0.828355,0.00645756,0.0279764,643,1100,-9.90889,-0.649716
-574,-76,-10.0272,0.55127,-0.0022448,-0.00140427,-0.00530008,0.00349218,-0.00714125,-0.824963,0.00625856,0.0341649,650,1100,-10.0271,-0.551327
-567,-76,-9.99738,0.658569,-0.00183445,-0.00121403,-0.00488008,0.00336569,-0.00641417,-0.817139,0.00573711,0.038676,657,1100,-9.99735,-0.658541
-560,-76,-9.96844,0.694946,-0.00120259,-0.000910379,-0.00418579,0.00313185,-0.00524482,-0.802844,0.00488729,0.0409936,664,1100,-9.96846,-0.694901
-553,-76,-9.93762,0.745361,0,0,0,0,0,0,0,-1,671,1100,-9.93764,-0.745397
-546,-76,-10.0388,0.444702,0.000428693,-6.05969e-05,-0.00223283,0.00243024,-0.00206215,-0.730832,0.00259658,0.0411335,678,1100,-10.0388,-0.444732
-539,-76,-9.94482,0.422729,0.00124416,0.000403151,-0.00129633,0.00218648,-0.000539167,-0.628562,0.0016667,0.0416703,685,1100,-9.94483,-0.422779
-532,-76,-9.78009,0.526855,0.00113656,0.000557954,-0.00155827,0.00243216,-0.000737647,-0.693616,0.00191527,0.0413936,692,1100,-9.7801,-0.526827
-525,-76,0,0,0,0,0,0,0,0,0,-1,699,1100,0,0
-518,-76,0,0,0,0,0,0,0,0,0,-1,706,1100,0,0
-511,-76,0,0,0,0,0,0,0,0,0,-1,713,1100,0,0
-504,-76,0,0,0,0,0,0,0,0,0,-1,720,1100,0,0
-497,-76,0,0,0,0,0,0,0,0,0,-1,727,1100,0,0
-490,-76,0,0,0,0,0,0,0,0,0,-1,734,1100,0,0
-483,-76,0,0,0,0,0,0,0,0,0,-1,741,1100,0,0
-476,-76,0,0,0,0,0,0,0,0,0,-1,748,1100,0,0
-469,-76,0,0,0,0,0,0,0,0,0,-1,755,1100,0,0
-462,-76,0,0,0,0,0,0,0,0,0,-1,762,1100,0,0
-455,-76,0,0,0,0,0,0,0,0,0,-1,769,1100,0,0
-448,-76,0,0,0,0,0,0,0,0,0,-1,776,1100,0,0
-441,-76,0,0,0,0,0,0,0,0,0,-1,783,1100,0,0
-434,-76,0,0,0,0,0,0,0,0,0,-1,790,1100,0,0
-427,-76,0,0,0,0,0,0,0,0,0,-1,797,1100,0,0
-420,-76,0,0,0,0,0,0,0,0,0,-1,804,1100,0,0
-413,-76,0,0,0,0,0,0,0,0,0,-1,811,1100,0,0
-406,-76,0,0,0,0,0,0,0,0,0,-1,818,1100,0,0
-399,-76,0,0,0,0,0,0,0,0,0,-1,825,1100,0,0
-392,-76,0,0,0,0,0,0,0,0,0,-1,832,1100,0,0
-385,-76,0,0,0,0,0,0,0,0,0,-1,839,1100,0,0
-378,-76,0,0,0,0,0,0,0,0,0,-1,846,1100,0,0
-371,-76,0,0,0,0,0,0,0,0,0,-1,853,1100,0,0
-364,-76,0,0,0,0,0,0,0,0,0,-1,860,1100,0,0
-357,-76,0,0,0,0,0,0,0,0,0,-1,867,1100,0,0
-350,-76,0,0,0,0,0,0,0,0,0,-1,874,1100,0,0
-343,-76,0,0,0,0,0,0,0,0,0,-1,881,1100,0,0
-336,-76,0,0,0,0,0,0,0,0,0,-1,888,1100,0,0
-329,-76,0,0,0,0,0,0,0,0,0,-1,895,1100,0,0
-322,-76,0,0,0,0,0,0,0,0,0,-1,902,1100,0,0
-315,-76,0,0,0,0,0,0,0,0,0,-1,909,1100,0,0
-308,-76,0,0,0,0,0,0,0,0,0,-1,916,1100,0,0
-301,-76,0,0,0,0,0,0,0,0,0,-1,923,1100,0,0
-294,-76,0,0,0,0,0,0,0,0,0,-1,930,1100,0,0
-287,-76,0,0,0,0,0,0,0,0,0,-1,937,1100,0,0
-280,-76,0,0,0,0,0,0,0,0,0,-1,944,1100,0,0
-273,-76,0,0,0,0,0,0,0,0,0,-1,951,1100,0,0
-266,-76,0,0,0,0,0,0,0,0,0,-1,958,1100,0,0
-259,-76,0,0,0,0,0,0,0,0,0,-1,965,1100,0,0
-252,-76,0,0,0,0,0,0,0,0,0,-1,972,1100,0,0
-245,-76,0,0,0,0,0,0,0,0,0,-1,979,1100,0,0
-238,-76,0,0,0,0,0,0,0,0,0,-1,986,1100,0,0
-231,-76,0,0,0,0,0,0,0,0,0,-1,993,1100,0,0
-224,-76,0,0,0,0,0,0,0,0,0,-1,1000,1100,0,0
-217,-76,0,0,0,0,0,0,0,0,0,-1,1007,1100,0,0
-210,-76,0,0,0,0,0,0,0,0,0,-1,1014,1100,0,0
-203,-76,0,0,0,0,0,0,0,0,0,-1,1021,1100,0,0
-196,-76,0,0,0,0,0,0,0,0,0,-1,1028,1100,0,0
-189,-76,0,0,0,0,0,0,0,0,0,-1,1035,1100,0,0
-182,-76,0,0,0,0,0,0,0,0,0,-1,1042,1100,0,0
-175,-76,0,0,0,0,0,0,0,0,0,-1,1049,1100,0,0
-168,-76,0,0,0,0,0,0,0,0,0,-1,1056,1100,0,0
-161,-76,0,0,0,0,0,0,0,0,0,-1,1063,1100,0,0
-154,-76,0,0,0,0,0,0,0,0,0,-1,1070,1100,0,0
-147,-76,0,0,0,0,0,0,0,0,0,-1,1077,1100,0,0
-140,-76,0,0,0,0,0,0,0,0,0,-1,1084,1100,0,0
-133,-76,0,0,0,0,0,0,0,0,0,-1,1091,1100,0,0
-126,-76,0,0,0,0,0,0,0,0,0,-1,1098,1100,0,0
-119,-76,0,0,0,0,0,0,0,0,0,-1,1105,1100,0,0
-112,-76,0,0,0,0,0,0,0,0,0,-1,1112,1100,0,0
-105,-76,0,0,0,0,0,0,0,0,0,-1,1119,1100,0,0
-98,-76,0,0,0,0,0,0,0,0,0,-1,1126,1100,0,0
-91,-76,0,0,0,0,0,0,0,0,0,-1,1133,1100,0,0
-84,-76,0,0,0,0,0,0,0,0,0,-1,1140,1100,0,0
-77,-76,0,0,0,0,0,0,0,0,0,-1,1147,1100,0,0
-70,-76,0,0,0,0,0,0,0,0,0,-1,1154,1100,0,0
-63,-76,0,0,0,0,0,0,0,0,0,-1,1161,1100,0,0
-56,-76,0,0,0,0,0,0,0,0,0,-1,1168,1100,0,0
-49,-76,0,0,0,0,0,0,0,0,0,-1,1175,1100,0,0
-42,-76,0,0,0,0,0,0,0,0,0,-1,1182,1100,0,0
-35,-76,0,0,0,0,0,0,0,0,0,-1,1189,1100,0,0
-28,-76,0,0,0,0,0,0,0,0,0,-1,1196,1100,0,0
-21,-76,0,0,0,0,0,0,0,0,0,-1,1203,1100,0,0
-14,-76,0,0,0,0,0,0,0,0,0,-1,1210,1100,0,0
-7,-76,0,0,0,0,0,0,0,0,0,-1,1217,1100,0,0
0,-76,0,0,0,0,0,0,0,0,0,-1,1224,1100,0,0
7,-76,0,0,0,0,0,0,0,0,0,-1,1231,1100,0,0
14,-76,0,0,0,0,0,0,0,0,0,-1,1238,1100,0,0
21,-76,0,0,0,0,0,0,0,0,0,-1,1245,1100,0,0
28,-76,0,0,0,0,0,0,0,0,0,-1,1252,1100,0,0
35,-76,0,0,0,0,0,0,0,0,0,-1,1259,1100,0,0
42,-76,0,0,0,0,0,0,0,0,0,-1,1266,1100,0,0
49,-76,0,0,0,0,0,0,0,0,0,-1,1273,1100,0,0
56,-76,0,0,0,0,0,0,0,0,0,-1,1280,1100,0,0
63,-76,0,0,0,0,0,0,0,0,0,-1,1287,1100,0,0
70,-76,0,0,0,0,0,0,0,0,0,-1,1294,1100,0,0
77,-76,0,0,0,0,0,0,0,0,0,-1,1301,1100,0,0
84,-76,0,0,0,0,0,0,0,0,0,-1,1308,1100,0,0
91,-76,0,0,0,0,0,0,0,0,0,-1,1315,1100,0,0
98,-76,0,0,0,0,0,0,0,0,0,-1,1322,1100,0,0
105,-76,0,0,0,0,0,0,0,0,0,-1,1329,1100,0,0
112,-76,0,0,0,0,0,0,0,0,0,-1,1336,1100,0,0
119,-76,0,0,0,0,0,0,0,0,0,-1,1343,1100,0,0
126,-76,0,0,0,0,0,0,0,0,0,-1,1350,1100,0,0
133,-76,0,0,0,0,0,0,0,0,0,-1,1357,1100,0,0
140,-76,0,0,0,0,0,0,0,0,0,-1,1364,1100,0,0
147,-76,0,0,0,0,0,0,0,0,0,-1,1371,1100,0,0
154,-76,0,0,0,0,0,0,0,0,0,-1,1378,1100,0,0
161,-76,0,0,0,0,0,0,0,0,0,-1,1385,1100,0,0
168,-76,0,0,0,0,0,0,0,0,0,-1,1392,1100,0,0
175,-76,0,0,0,0,0,0,0,0,0,-1,1399,1100,0,0
182,-76,0,0,0,0,0,0,0,0,0,-1,1406,1100,0,0
189,-76,0,0,0,0,0,0,0,0,0,-1,1413,1100,0,0
196,-76,0,0,0,0,0,0,0,0,0,-1,1420,1100,0,0
203,-76,0,0,0,0,0,0,0,0,0,-1,1427,1100,0,0
210,-76,0,0,0,0,0,0,0,0,0,-1,1434,1100,0,0
217,-76,0,0,0,0,0,0,0,0,0,-1,1441,1100,0,0
224,-76,0,0,0,0,0,0,0,0,0,-1,1448,1100,0,0
231,-76,0,0,0,0,0,0,0,0,0,-1,1455,1100,0,0
238,-76,0,0,0,0,0,0,0,0,0,-1,1462,1100,0,0
245,-76,0,0,0,0,0,0,0,0,0,-1,1469,1100,0,0
252,-76,0,0,0,0,0,0,0,0,0,-1,1476,1100,0,0
259,-76,0,0,0,0,0,0,0,0,0,-1,1483,1100,0,0
266,-76,0,0,0,0,0,0,0,0,0,-1,1490,1100,0,0
273,-76,0,0,0,0,0,0,0,0,0,-1,1497,1100,0,0
280,-76,0,0,0,0,0,0,0,0,0,-1,1504,1100,0,0
287,-76,0,0,0,0,0,0,0,0,0,-1,1511,1100,0,0
294,-76,0,0,0,0,0,0,0,0,0,-1,1518,1100,0,0
301,-76,0,0,0,0,0,0,0,0,0,-1,1525,1100,0,0
308,-76,0,0,0,0,0,0,0,0,0,-1,1532,1100,0,0
315,-76,0,0,0,0,0,0,0,0,0,-1,1539,1100,0,0
322,-76,0,0,0,0,0,0,0,0,0,-1,1546,1100,0,0
329,-76,0,0,0,0,0,0,0,0,0,-1,1553,1100,0,0
336,-76,0,0,0,0,0,0,0,0,0,-1,1560,1100,0,0
343,-76,0,0,0,0,0,0,0,0,0,-1,1567,1100,0,0
350,-76,0,0,0,0,0,0,0,0,0,-1,1574,1100,0,0
357,-76,0,0,0,0,0,0,0,0,0,-1,1581,1100,0,0
364,-76,0,0,0,0,0,0,0,0,0,-1,1588,1100,0,0
371,-76,0,0,0,0,0,0,0,0,0,-1,1595,1100,0,0
378,-76,0,0,0,0,0,0,0,0,0,-1,1602,1100,0,0
385,-76,0,0,0,0,0,0,0,0,0,-1,1609,1100,0,0
392,-76,0,0,0,0,0,0,0,0,0,-1,1616,1100,0,0
399,-76,0,0,0,0,0,0,0,0,0,-1,1623,1100,0,0
406,-76,0,0,0,0,0,0,0,0,0,-1,1630,1100,0,0
413,-76,0,0,0,0,0,0,0,0,0,-1,1637,1100,0,0
420,-76,0,0,0,0,0,0,0,0,0,-1,1644,1100,0,0
427,-76,0,0,0,0,0,0,0,0,0,-1,1651,1100,0,0
434,-76,0,0,0,0,0,0,0,0,0,-1,1658,1100,0,0
441,-76,0,0,0,0,0,0,0,0,0,-1,1665,1100,0,0
448,-76,0,0,0,0,0,0,0,0,0,-1,1672,1100,0,0
455,-76,0,0,0,0,0,0,0,0,0,-1,1679,1100,0,0
462,-76,0,0,0,0,0,0,0,0,0,-1,1686,1100,0,0
469,-76,0,0,0,0,0,0,0,0,0,-1,1693,1100,0,0
476,-76,0,0,0,0,0,0,0,0,0,-1,1700,1100,0,0
483,-76,0,0,0,0,0,0,0,0,0,-1,1707,1100,0,0
490,-76,0,0,0,0,0,0,0,0,0,-1,1714,1100,0,0
497,-76,0,0,0,0,0,0,0,0,0,-1,1721,1100,0,0
504,-76,0,0,0,0,0,0,0,0,0,-1,1728,1100,0,0
511,-76,0,0,0,0,0,0,0,0,0,-1,1735,1100,0,0
518,-76,0,0,0,0,0,0,0,0,0,-1,1742,1100,0,0
525,-76,0,0,0,0,0,0,0,0,0,-1,1749,1100,0,0
532,-76,0,0,0,0,0,0,0,0,0,-1,1756,1100,0,0
539,-76,0,0,0,0,0,0,0,0,0,-1,1763,1100,0,0
546,-76,0,0,0,0,0,0,0,0,0,-1,1770,1100,0,0
553,-76,0,0,0,0,0,0,0,0,0,-1,1777,1100,0,0
560,-76,0,0,0,0,0,0,0,0,0,-1,1784,1100,0,0
567,-76,0,0,0,0,0,0,0,0,0,-1,1791,1100,0,0
574,-76,0,0,0,0,0,0,0,0,0,-1,1798,1100,0,0
581,-76,0,0,0,0,0,0,0,0,0,-1,1805,1100,0,0
588,-76,0,0,0,0,0,0,0,0,0,-1,1812,1100,0,0
595,-76,0,0,0,0,0,0,0,0,0,-1,1819,1100,0,0
602,-76,0,0,0,0,0,0,0,0,0,-1,1826,1100,0,0
609,-76,0,0,0,0,0,0,0,0,0,-1,1833,1100,0,0
616,-76,0,0,0,0,0,0,0,0,0,-1,1840,1100,0,0
623,-76,0,0,0,0,0,0,0,0,0,-1,1847,1100,0,0
630,-76,0,0,0,0,0,0,0,0,0,-1,1854,1100,0,0
637,-76,0,0,0,0,0,0,0,0,0,-1,1861,1100,0,0
644,-76,0,0,0,0,0,0,0,0,0,-1,1868,1100,0,0
651,-76,16.2787,2.349,0.00377837,-0.00175945,-0.00247382,0.0047225,-0.00270358,-0.364586,0.00433994,0.0399874,1875,1100,16.2787,-2.349
658,-76,16.2482,2.22681,0.00256191,-0.00104086,-0.00136822,0.0030226,-0.00150156,-0.324789,0.00266078,0.0430003,1882,1100,16.2482,-2.22679
665,-76,16.1357,2.10205,0.00176205,-0.000438622,-0.000806074,0.00202571,-0.000702285,-0.316126,0.00163562,0.039739,1889,1100,16.1357,-2.10204
672,-76,16.0697,2.36938,0.000520432,-0.000377777,0.000318944,0.000622164,-0.000479509,0.308762,0.000637826,0.0365004,1896,1100,16.0696,-2.36933
679,-76,16.0365,2.37659,-0.000985872,-0.000637293,0.00164144,0.000839086,-0.00246225,0.838291,0.00198133,0.0365358,1903,1100,16.0365,-2.37664
686,-76,16.1002,2.31982,-0.00234717,-0.00100012,0.0027801,0.00118687,-0.00453417,0.904241,0.00348641,0.034776,1910,1100,16.1002,-2.31986
693,-76,16.1205,2.4043,-0.00340113,-0.00138421,0.00372258,0.00146409,-0.00624943,0.917675,0.00473045,0.0353089,1917,1100,16.1205,-2.40432
700,-76,16.1089,2.34045,-0.00425123,-0.00165567,0.00444948,0.00168143,-0.00758833,0.927297,0.0057026,0.0316326,1924,1100,16.1089,-2.34044
707,-76,16.1204,2.3186,-0.0048767,-0.0018795,0.00502612,0.00186667,-0.00862288,0.930283,0.00646132,0.0222555,1931,1100,16.1204,-2.31865
714,-76,16.1078,2.47437,0,0,0,0,0,0,0,-1,1938,1100,16.1077,-2.47439
721,-76,15.9535,2.89868,-0.00529462,-0.00204249,0.00539721,0.00196829,-0.0093054,0.931713,0.00695318,0.0299667,1945,1100,15.9535,-2.8987
728,-76,15.7836,3.25037,-0.00529431,-0.00191618,0.00502919,0.0017,-0.00891049,0.947406,0.0065806,0.0209139,1952,1100,15.7835,-3.25032
735,-76,15.6287,3.23938,-0.00543895,-0.00162804,0.00443258,0.00129129,-0.00835828,0.988394,0.00604873,0.0167805,1959,1100,15.6287,-3.23934
742,-76,15.6901,3.21179,-0.00625579,-0.00101236,0.00360061,0.000819887,-0.00808804,1.10008,0.00568506,0.011299,1966,1100,15.69,-3.21184
749,-76,15.6875,3.19019,-0.00735038,-0.000956023,0.00252005,-8.22558e-05,-0.00822414,1.23704,0.00545555,0.0128444,1973,1100,15.6875,-3.19015
756,-76,15.6946,3.17322,-0.00967285,-0.000255976,0.000918355,-0.000167252,-0.00976158,1.47448,0.00645269,0.0144502,1980,1100,15.6946,-3.17322
763,-76,15.6859,3.10901,-0.0135227,0.000459032,-0.000893653,0.000515919,-0.0135796,-1.50723,0.00922985,0.0140912,1987,1100,15.686,-3.10907
770,-76,15.6866,3.06458,-0.0182427,0.00125899,-0.00313393,0.00175024,-0.018734,-1.41531,0.0131117,0.013612,1994,1100,15.6867,-3.06459
777,-76,15.7014,3.07605,-0.0247241,0.0019245,-0.00517275,0.00289336,-0.025693,-1.38564,0.01817,0.0162801,2001,1100,15.7014,-3.07607
784,-76,15.7218,3.08838,-0.0333304,0.0024089,-0.00694278,0.00371023,-0.0346317,-1.38551,0.0244187,0.0320488,2008,1100,15.7218,-3.08838
791,-76,14.8398,2.97974,-0.043997,0.0029372,-0.00883433,0.00454499,-0.0456048,-1.39077,0.0320259,0.0444952,2015,1100,14.8398,-2.97971
798,-76,14.3049,2.7533,-0.0566588,0.00360405,-0.0109208,0.00552207,-0.0585768,-1.39694,0.041016,0.0445391,2022,1100,14.3049,-2.75334
805,-76,13.6617,2.7876,-0.0713398,0.00450683,-0.0131312,0.00671589,-0.0735489,-1.40413,0.0514176,0.0474267,2029,1100,13.6618,-2.7876
812,-76,12.3013,2.59314,-0.0881217,0.00581819,-0.0153258,0.00825528,-0.0905588,-1.4131,0.0633039,0.0459881,2036,1100,12.3012,-2.59316
-700,-83,0,0,0,0,0,0,0,0,0,-1,524,1107,0,0
-693,-83,-13.8145,-2.32422,0.192565,0.0783538,0.133073,0.280267,-0.009349,0.582717,0.190038,0.0443807,531,1107,-13.8145,2.32423
-686,-83,-12.8873,-1.39087,0,0,0,0,0,0,0,-1,538,1107,-12.8873,1.39089
-679,-83,-11.9837,-0.548096,0,0,0,0,0,0,0,-1,545,1107,-11.9837,0.548135
-672,-83,-11.0728,0.424805,0.140453,0.0488098,0.0679407,0.17658,0.0126829,0.488718,0.113728,0.0453085,552,1107,-11.0728,-0.424756
-665,-83,-10.075,1.08301,0.114106,0.0389611,0.0520102,0.140696,0.0123718,0.472594,0.0899573,0.0467563,559,1107,-10.075,-1.083
-658,-83,-9.08832,1.74341,0,0,0,0,0,0,0,-1,566,1107,-9.08831,-1.74338
-651,-83,-9.70129,0.62561,0.0652079,0.0221288,0.0276536,0.0787208,0.00861589,0.454525,0.0498574,0.0293569,573,1107,-9.70127,-0.625667
-644,-83,-9.64435,0.771606,0.0456999,0.0156337,0.0189907,0.0548875,0.00644608,0.450598,0.0346434,0.0147519,580,1107,-9.64436,-0.771586
-637,-83,-9.66113,0.880859,0.0302222,0.0101287,0.0110804,0.0351325,0.00521845,0.417142,0.0218905,0.0115554,587,1107,-9.66115,-0.880829
-630,-83,-9.68518,0.927612,0.0181871,0.00602735,0.00563793,0.0203988,0.00381559,0.37385,0.0125227,0.0154826,594,1107,-9.6852,-0.927568
-623,-83,-9.68146,0.96875,0.00873993,0.00306862,0.00256304,0.00972659,0.00208196,0.367472,0.00591385,0.0144596,601,1107,-9.68147,-0.968697
-616,-83,-9.65955,1.01807,0.00190702,0.00109922,-0.00123911,0.0028064,0.000199843,-0.62785,0.001808,0.010812,608,1107,-9.65953,-1.01801
-609,-83,-9.67981,1.08752,-0.00219539,-0.000666069,-0.003386,0.00204054,-0.004902,-0.89645,0.0041202,0.010905,615,1107,-9.67982,-1.08757
-602,-83,-9.68109,1.15784,-0.00260874,-0.00108124,-0.00431419,0.00253629,-0.00622626,-0.873006,0.00520644,0.0135384,622,1107,-9.6811,-1.15787
-595,-83,-9.65173,1.2533,-0.00287575,-0.00137309,-0.00502786,0.00295927,-0.00720811,-0.859566,0.00603857,0.0167552,629,1107,-9.65173,-1.25335
-588,-83,-9.72974,1.07715,-0.00300517,-0.00148315,-0.00551008,0.00331822,-0.00780655,-0.85402,0.00659483,0.0285547,636,1107,-9.72974,-1.07719
-581,-83,-9.97382,0.363281,0,0,0,0,0,0,0,-1,643,1107,-9.97384,-0.363261
-574,-83,-10.0184,0.516235,-0.00286376,-0.00150663,-0.00553298,0.00338924,-0.00775963,-0.846414,0.0065996,0.0353347,650,1107,-10.0184,-0.516269
-567,-83,-10.0761,0.696045,-0.00244694,-0.00135509,-0.00513401,0.00326194,-0.00706397,-0.838366,0.00609489,0.0390437,657,1107,-10.0761,-0.696061
-560,-83,-10.0951,0.721924,-0.00178902,-0.00109338,-0.00442334,0.00299579,-0.00587819,-0.824634,0.00521271,0.040334,664,1107,-10.0951,-0.721922
-553,-83,-9.95575,0.6698,-0.000970057,-0.000741023,-0.00344798,0.00259434,-0.00430542,-0.801998,0.0040242,0.0422009,671,1107,-9.95576,-0.669835
-546,-83,-9.9212,0.70459,-9.14868e-05,-0.000324529,-0.00226137,0.00205636,-0.00247238,-0.759658,0.00261835,0.0399087,678,1107,-9.92118,-0.70455
-539,-83,-9.92188,0.702148,0.000741454,0.000104384,-0.00104168,0.00151221,-0.000666372,-0.637018,0.00128902,0.0411808,685,1107,-9.92186,-0.702158
-532,-83,-9.88757,0.625977,0.000562583,0.000263584,-0.000790137,0.00121724,-0.000391072,-0.6919,0.000968535,0.0430249,692,1107,-9.88758,-0.625925
-525,-83,0,0,0,0,0,0,0,0,0,-1,699,1107,0,0
-518,-83,0,0,0,0,0,0,0,0,0,-1,706,1107,0,0
-511,-83,0,0,0,0,0,0,0,0,0,-1,713,1107,0,0
-504,-83,0,0,0,0,0,0,0,0,0,-1,720,1107,0,0
-497,-83,0,0,0,0,0,0,0,0,0,-1,727,1107,0,0
-490,-83,0,0,0,0,0,0,0,0,0,-1,734,1107,0,0
-483,-83,0,0,0,0,0,0,0,0,0,-1,741,1107,0,0
-476,-83,0,0,0,0,0,0,0,0,0,-1,748,1107,0,0
-469,-83,0,0,0,0,0,0,0,0,0,-1,755,1107,0,0
-462,-83,0,0,0,0,0,0,0,0,0,-1,762,1107,0,0
-455,-83,0,0,0,0,0,0,0,0,0,-1,769,1107,0,0
-448,-83,0,0,0,0,0,0,0,0,0,-1,776,1107,0,0
-441,-83,0,0,0,0,0,0,0,0,0,-1,783,1107,0,0
-434,-83,0,0,0,0,0,0,0,0,0,-1,790,1107,0,0
-427,-83,0,0,0,0,0,0,0,0,0,-1,797,1107,0,0
-420,-83,0,0,0,0,0,0,0,0,0,-1,804,1107,0,0
-413,-83,0,0,0,0,0,0,0,0,0,-1,811,1107,0,0
-406,-83,0,0,0,0,0,0,0,0,0,-1,818,1107,0,0
-399,-83,0,0,0,0,0,0,0,0,0,-1,825,1107,0,0
-392,-83,0,0,0,0,0,0,0,0,0,-1,832,1107,0,0
-385,-83,0,0,0,0,0,0,0,0,0,-1,839,1107,0,0
-378,-83,0,0,0,0,0,0,0,0,0,-1,846,1107,0,0
-371,-83,0,0,0,0,0,0,0,0,0,-1,853,1107,0,0
-364,-83,0,0,0,0,0,0,0,0,0,-1,860,1107,0,0
-357,-83,0,0,0,0,0,0,0,0,0,-1,867,1107,0,0
-350,-83,0,0,0,0,0,0,0,0,0,-1,874,1107,0,0
-343,-83,0,0,0,0,0,0,0,0,0,-1,881,1107,0,0
-336,-83,0,0,0,0,0,0,0,0,0,-1,888,1107,0,0
-329,-83,0,0,0,0,0,0,0,0,0,-1,895,1107,0,0
-322,-83,0,0,0,0,0,0,0,0,0,-1,902,1107,0,0
-315,-83,0,0,0,0,0,0,0,0,0,-1,909,1107,0,0
-308,-83,0,0,0,0,0,0,0,0,0,-1,916,1107,0,0
-301,-83,0,0,0,0,0,0,0,0,0,-1,923,1107,0,0
-294,-83,0,0,0,0,0,0,0,0,0,-1,930,1107,0,0
-287,-83,0,0,0,0,0,0,0,0,0,-1,937,1107,0,0
-280,-83,0,0,0,0,0,0,0,0,0,-1,944,1107,0,0
-273,-83,0,0,0,0,0,0,0,0,0,-1,951,1107,0,0
-266,-83,0,0,0,0,0,0,0,0,0,-1,958,1107,0,0
-259,-83,0,0,0,0,0,0,0,0,0,-1,965,1107,0,0
-252,-83,0,0,0,0,0,0,0,0,0,-1,972,1107,0,0
-245,-83,0,0,0,0,0,0,0,0,0,-1,979,1107,0,0
-238,-83,0,0,0,0,0,0,0,0,0,-1,986,1107,0,0
-231,-83,0,0,0,0,0,0,0,0,0,-1,993,1107,0,0
-224,-83,0,0,0,0,0,0,0,0,0,-1,1000,1107,0,0
-217,-83,0,0,0,0,0,0,0,0,0,-1,1007,1107,0,0
-210,-83,0,0,0,0,0,0,0,0,0,-1,1014,1107,0,0
-203,-83,0,0,0,0,0,0,0,0,0,-1,1021,1107,0,0
-196,-83,0,0,0,0,0,0,0,0,0,-1,1028,1107,0,0
-189,-83,0,0,0,0,0,0,0,0,0,-1,1035,1107,0,0
-182,-83,0,0,0,0,0,0,0,0,0,-1,1042,1107,0,0
-175,-83,0,0,0,0,0,0,0,0,0,-1,1049,1107,0,0
-168,-83,0,0,0,0,0,0,0,0,0,-1,1056,1107,0,0
-161,-83,0,0,0,0,0,0,0,0,0,-1,1063,1107,0,0
-154,-83,0,0,0,0,0,0,0,0,0,-1,1070,1107,0,0
-147,-83,0,0,0,0,0,0,0,0,0,-1,1077,1107,0,0
-140,-83,0,0,0,0,0,0,0,0,0,-1,1084,1107,0,0
-133,-83,0,0,0,0,0,0,0,0,0,-1,1091,1107,0,0
-126,-83,0,0,0,0,0,0,0,0,0,-1,1098,1107,0,0
-119,-83,0,0,0,0,0,0,0,0,0,-1,1105,1107,0,0
-112,-83,0,0,0,0,0,0,0,0,0,-1,1112,1107,0,0
-105,-83,0,0,0,0,0,0,0,0,0,-1,1119,1107,0,0
-98,-83,0,0,0,0,0,0,0,0,0,-1,1126,1107,0,0
-91,-83,0,0,0,0,0,0,0,0,0,-1,1133,1107,0,0
-84,-83,0,0,0,0,0,0,0,0,0,-1,1140,1107,0,0
-77,-83,0,0,0,0,0,0,0,0,0,-1,1147,1107,0,0
-70,-83,0,0,0,0,0,0,0,0,0,-1,1154,1107,0,0
-63,-83,0,0,0,0,0,0,0,0,0,-1,1161,1107,0,0
-56,-83,0,0,0,0,0,0,0,0,0,-1,1168,1107,0,0
-49,-83,0,0,0,0,0,0,0,0,0,-1,1175,1107,0,0
-42,-83,0,0,0,0,0,0,0,0,0,-1,1182,1107,0,0
-35,-83,0,0,0,0,0,0,0,0,0,-1,1189,1107,0,0
-28,-83,0,0,0,0,0,0,0,0,0,-1,1196,1107,0,0
-21,-83,0,0,0,0,0,0,0,0,0,-1,1203,1107,0,0
-14,-83,0,0,0,0,0,0,0,0,0,-1,1210,1107,0,0
-7,-83,0,0,0,0,0,0,0,0,0,-1,1217,1107,0,0
0,-83,0,0,0,0,0,0,0,0,0,-1,1224,1107,0,0
7,-83,0,0,0,0,0,0,0,0,0,-1,1231,1107,0,0
14,-83,0,0,0,0,0,0,0,0,0,-1,1238,1107,0,0
21,-83,0,0,0,0,0,0,0,0,0,-1,1245,1107,0,0
28,-83,0,0,0,0,0,0,0,0,0,-1,1252,1107,0,0
35,-83,0,0,0,0,0,0,0,0,0,-1,1259,1107,0,0
42,-83,0,0,0,0,0,0,0,0,0,-1,1266,1107,0,0
49,-83,0,0,0,0,0,0,0,0,0,-1,1273,1107,0,0
56,-83,0,0,0,0,0,0,0,0,0,-1,1280,1107,0,0
63,-83,0,0,0,0,0,0,0,0,0,-1,1287,1107,0,0
70,-83,0,0,0,0,0,0,0,0,0,-1,1294,1107,0,0
77,-83,0,0,0,0,0,0,0,0,0,-1,1301,1107,0,0
84,-83,0,0,0,0,0,0,0,0,0,-1,1308,1107,0,0
91,-83,0,0,0,0,0,0,0,0,0,-1,1315,1107,0,0
98,-83,0,0,0,0,0,0,0,0,0,-1,1322,1107,0,0
105,-83,0,0,0,0,0,0,0,0,0,-1,1329,1107,0,0
112,-83,0,0,0,0,0,0,0,0,0,-1,1336,1107,0,0
119,-83,0,0,0,0,0,0,0,0,0,-1,1343,1107,0,0
126,-83,0,0,0,0,0,0,0,0,0,-1,1350,1107,0,0
133,-83,0,0,0,0,0,0,0,0,0,-1,1357,1107,0,0
140,-83,0,0,0,0,0,0,0,0,0,-1,1364,1107,0,0
147,-83,0,0,0,0,0,0,0,0,0,-1,1371,1107,0,0
154,-83,0,0,0,0,0,0,0,0,0,-1,1378,1107,0,0
161,-83,0,0,0,0,0,0,0,0,0,-1,1385,1107,0,0
168,-83,0,0,0,0,0,0,0,0,0,-1,1392,1107,0,0
175,-83,0,0,0,0,0,0,0,0,0,-1,1399,1107,0,0
182,-83,0,0,0,0,0,0,0,0,0,-1,1406,1107,0,0
189,-83,0,0,0,0,0,0,0,0,0,-1,1413,1107,0,0
196,-83,0,0,0,0,0,0,0,0,0,-1,1420,1107,0,0
203,-83,0,0,0,0,0,0,0,0,0,-1,1427,1107,0,0
210,-83,0,0,0,0,0,0,0,0,0,-1,1434,1107,0,0
217,-83,0,0,0,0,0,0,0,0,0,-1,1441,1107,0,0
224,-83,0,0,0,0,0,0,0,0,0,-1,1448,1107,0,0
231,-83,0,0,0,0,0,0,0,0,0,-1,1455,1107,0,0
238,-83,0,0,0,0,0,0,0,0,0,-1,1462,1107,0,0
245,-83,0,0,0,0,0,0,0,0,0,-1,1469,1107,0,0
252,-83,0,0,0,0,0,0,0,0,0,-1,1476,1107,0,0
259,-83,0,0,0,0,0,0,0,0,0,-1,1483,1107,0,0
266,-83,0,0,0,0,0,0,0,0,0,-1,1490,1107,0,0
273,-83,0,0,0,0,0,0,0,0,0,-1,1497,1107,0,0
280,-83,0,0,0,0,0,0,0,0,0,-1,1504,1107,0,0
287,-83,0,0,0,0,0,0,0,0,0,-1,1511,1107,0,0
294,-83,0,0,0,0,0,0,0,0,0,-1,1518,1107,0,0
301,-83,0,0,0,0,0,0,0,0,0,-1,1525,1107,0,0
308,-83,0,0,0,0,0,0,0,0,0,-1,1532,1107,0,0
315,-83,0,0,0,0,0,0,0,0,0,-1,1539,1107,0,0
322,-83,0,0,0,0,0,0,0,0,0,-1,1546,1107,0,0
329,-83,0,0,0,0,0,0,0,0,0,-1,1553,1107,0,0
336,-83,0,0,0,0,0,0,0,0,0,-1,1560,1107,0,0
343,-83,0,0,0,0,0,0,0,0,0,-1,1567,1107,0,0
350,-83,0,0,0,0,0,0,0,0,0,-1,1574,1107,0,0
357,-83,0,0,0,0,0,0,0,0,0,-1,1581,1107,0,0
364,-83,0,0,0,0,0,0,0,0,0,-1,1588,1107,0,0
371,-83,0,0,0,0,0,0,0,0,0,-1,1595,1107,0,0
378,-83,0,0,0,0,0,0,0,0,0,-1,1602,1107,0,0
385,-83,0,0,0,0,0,0,0,0,0,-1,1609,1107,0,0
392,-83,0,0,0,0,0,0,0,0,0,-1,1616,1107,0,0
399,-83,0,0,0,0,0,0,0,0,0,-1,1623,1107,0,0
406,-83,0,0,0,0,0,0,0,0,0,-1,1630,1107,0,0
413,-83,0,0,0,0,0,0,0,0,0,-1,1637,1107,0,0
420,-83,0,0,0,0,0,0,0,0,0,-1,1644,1107,0,0
427,-83,0,0,0,0,0,0,0,0,0,-1,1651,1107,0,0
434,-83,0,0,0,0,0,0,0,0,0,-1,1658,1107,0,0
441,-83,0,0,0,0,0,0,0,0,0,-1,1665,1107,0,0
448,-83,0,0,0,0,0,0,0,0,0,-1,1672,1107,0,0
455,-83,0,0,0,0,0,0,0,0,0,-1,1679,1107,0,0
462,-83,0,0,0,0,0,0,0,0,0,-1,1686,1107,0,0
469,-83,0,0,0,0,0,0,0,0,0,-1,1693,1107,0,0
476,-83,0,0,0,0,0,0,0,0,0,-1,1700,1107,0,0
483,-83,0,0,0,0,0,0,0,0,0,-1,1707,1107,0,0
490,-83,0,0,0,0,0,0,0,0,0,-1,1714,1107,0,0
497,-83,0,0,0,0,0,0,0,0,0,-1,1721,1107,0,0
504,-83,0,0,0,0,0,0,0,0,0,-1,1728,1107,0,0
511,-83,0,0,0,0,0,0,0,0,0,-1,1735,1107,0,0
518,-83,0,0,0,0,0,0,0,0,0,-1,1742,1107,0,0
525,-83,0,0,0,0,0,0,0,0,0,-1,1749,1107,0,0
532,-83,0,0,0,0,0,0,0,0,0,-1,1756,1107,0,0
539,-83,0,0,0,0,0,0,0,0,0,-1,1763,1107,0,0
546,-83,0,0,0,0,0,0,0,0,0,-1,1770,1107,0,0
553,-83,0,0,0,0,0,0,0,0,0,-1,1777,1107,0,0
560,-83,0,0,0,0,0,0,0,0,0,-1,1784,1107,0,0
567,-83,0,0,0,0,0,0,0,0,0,-1,1791,1107,0,0
574,-83,0,0,0,0,0,0,0,0,0,-1,1798,1107,0,0
581,-83,0,0,0,0,0,0,0,0,0,-1,1805,1107,0,0
588,-83,0,0,0,0,0,0,0,0,0,-1,1812,1107,0,0
595,-83,0,0,0,0,0,0,0,0,0,-1,1819,1107,0,0
602,-83,0,0,0,0,0,0,0,0,0,-1,1826,1107,0,0
609,-83,0,0,0,0,0,0,0,0,0,-1,1833,1107,0,0
616,-83,0,0,0,0,0,0,0,0,0,-1,1840,1107,0,0
623,-83,0,0,0,0,0,0,0,0,0,-1,1847,1107,0,0
630,-83,0,0,0,0,0,0,0,0,0,-1,1854,1107,0,0
637,-83,0,0,0,0,0,0,0,0,0,-1,1861,1107,0,0
644,-83,16.0228,2.28455,0.00591422,-0.00196387,-0.00491672,0.00827519,-0.00432484,-0.447676,0.00739285,0.0357459,1868,1107,16.0229,-2.28455
651,-83,16.1948,2.42932,0.00405279,-0.00117344,-0.00290833,0.00534951,-0.00247015,-0.419408,0.00461558,0.0404102,1875,1107,16.1949,-2.42931
658,-83,16.2639,2.31653,0.00280454,-0.000567827,-0.00172534,0.00353083,-0.00129412,-0.398438,0.00288373,0.044442,1882,1107,16.264,-2.31657
665,-83,16.1981,2.23572,0.00191573,-4.03024e-05,-0.0010444,0.00236855,-0.00049312,-0.409105,0.0017665,0.0410156,1889,1107,16.1981,-2.23567
672,-83,16.077,2.38477,0.000502001,-9.64168e-05,0.000227083,0.000578416,-0.000172831,0.324601,0.000454314,0.0366206,1896,1107,16.077,-2.3848
679,-83,16.0696,2.34863,-0.00110948,-0.000432404,0.00160373,0.000868128,-0.00241002,0.889419,0.00196118,0.0369569,1903,1107,16.0696,-2.34864
686,-83,16.1653,2.427,-0.00253452,-0.000853793,0.00277161,0.00120205,-0.00459037,0.932595,0.00352983,0.0355054,1910,1107,16.1653,-2.42697
693,-83,16.1184,2.37793,-0.00364299,-0.00127919,0.00373344,0.00145496,-0.00637714,0.938693,0.00481033,0.0358793,1917,1107,16.1185,-2.37798
700,-83,16.1198,2.32166,-0.00451306,-0.00157802,0.0044781,0.00166688,-0.00775797,0.943739,0.00580789,0.0316963,1924,1107,16.1197,-2.32167
707,-83,16.1283,2.29724,-0.00516031,-0.00183228,0.00506682,0.00183678,-0.00882937,0.944057,0.00658446,0.0210767,1931,1107,16.1284,-2.29721
714,-83,16.0844,2.70007,0,0,0,0,0,0,0,-1,1938,1107,16.0843,-2.70005
721,-83,15.7975,3.11377,-0.00557678,-0.00201942,0.00541182,0.00189853,-0.00949472,0.94417,0.00704841,0.0212712,1945,1107,15.7975,-3.11379
728,-83,15.6343,3.29065,-0.00555925,-0.00189101,0.00502873,0.00162764,-0.00907789,0.960266,0.00666109,0.0181486,1952,1107,15.6343,-3.2907
735,-83,15.597,3.22571,-0.00570566,-0.00163679,0.0044014,0.00117762,-0.00852007,1.00189,0.00611053,0.0192019,1959,1107,15.597,-3.22568
742,-83,15.6428,3.20862,-0.0065715,-0.000998201,0.00355773,0.000734316,-0.00830402,1.11762,0.00579631,0.0116091,1966,1107,15.6429,-3.20865
749,-83,15.6582,3.18933,-0.00775724,-0.000839431,0.00252298,-1.70451e-05,-0.00857963,1.2557,0.00571408,0.0106481,1973,1107,15.6582,-3.18932
756,-83,15.6631,3.16418,-0.010213,4.95693e-05,0.00111959,0.000170291,-0.0103337,1.46338,0.00694659,0.0136012,1980,1107,15.6631,-3.1642
763,-83,15.639,3.10864,-0.0142349,0.0012058,-0.000336136,0.00121311,-0.0142422,-1.54904,0.00992393,0.0111931,1987,1107,15.6391,-3.10866
770,-83,15.632,3.0636,-0.0190887,0.00250117,-0.00213605,0.00271048,-0.019298,-1.47312,0.0138575,0.0124635,1994,1107,15.6319,-3.06358
777,-83,15.637,3.03772,-0.0257627,0.00378384,-0.00351081,0.00419527,-0.0261742,-1.45414,0.0190029,0.0130948,2001,1107,15.637,-3.03773
784,-83,15.506,3.06836,0,0,0,0,0,0,0,-1,2008,1107,15.5059,-3.06841
791,-83,14.7197,3.02625,-0.0451992,0.0068301,-0.00519205,0.00734316,-0.0457123,-1.4723,0.0331944,0.0455344,2015,1107,14.7198,-3.02626
798,-83,13.9398,2.98901,-0.0576813,0.00901188,-0.00579848,0.00951226,-0.0581817,-1.48471,0.0423164,0.0485619,2022,1107,13.9399,-2.98903
805,-83,13.2836,2.62659,-0.0718933,0.0118409,-0.00608791,0.0122812,-0.0723336,-1.4986,0.0527945,0.0474533,2029,1107,13.2836,-2.62662
812,-83,12.4233,2.06641,-0.0877626,0.0155615,-0.00580193,0.0158863,-0.0880874,-1.51488,0.064674,0.0467744,2036,1107,12.4234,-2.06645
-700,-90,0,0,0,0,0,0,0,0,0,-1,524,1114,0,0
-693,-90,-15.7526,-2.56812,0,0,0,0,0,0,0,-1,531,1114,-15.7526,2.56809
-686,-90,-14.1284,-1.71423,0,0,0,0,0,0,0,-1,538,1114,-14.1284,1.7142
-679,-90,-13.1296,-0.789307,0,0,0,0,0,0,0,-1,545,1114,-13.1296,0.789248
-672,-90,-11.8829,0.242065,0.161916,0.0528473,0.0643955,0.191767,0.022997,0.434062,0.12091,0.0447562,552,1114,-11.8829,-0.242103
-665,-90,-10.5931,0.428833,0.131544,0.0423636,0.0489889,0.153197,0.0207103,0.416185,0.0959757,0.0468126,559,1114,-10.5931,-0.428828
-658,-90,-9.38226,0.770874,0,0,0,0,0,0,0,-1,566,1114,-9.38225,-0.770923
-651,-90,-9.58228,0.579102,0.0751481,0.0242121,0.0258754,0.0859865,0.0133737,0.396666,0.0534273,0.0273791,573,1114,-9.58226,-0.579044
-644,-90,-9.58868,0.745483,0.0526195,0.0171388,0.0177541,0.0599775,0.00978076,0.392893,0.0371564,0.0126854,580,1114,-9.58867,-0.74545
-637,-90,-9.5929,0.868042,0.0349135,0.0111661,0.0102104,0.0386999,0.00737979,0.355112,0.0237257,0.0111085,587,1114,-9.59288,-0.867985
-630,-90,-9.59479,0.926636,0.02095,0.00666066,0.00505815,0.0225592,0.0050514,0.308025,0.0136704,0.010776,594,1114,-9.59476,-0.926645
-623,-90,-9.59265,0.977173,0.00978253,0.00338086,0.00252596,0.0106592,0.00250422,0.334047,0.00643587,0.00881227,601,1114,-9.59264,-0.977165
-616,-90,-9.59808,1.0553,0.00198787,0.00132243,-0.00127094,0.00296892,0.000341384,-0.657376,0.00187587,0.00733878,608,1114,-9.59808,-1.05532
-609,-90,-9.61438,1.12622,-0.00260346,-0.000584233,-0.0034195,0.00197158,-0.00515928,-0.928946,0.00425191,0.0104573,615,1114,-9.61436,-1.12626
-602,-90,-9.61975,1.17847,-0.00313866,-0.00101933,-0.00440754,0.00245413,-0.00661213,-0.90337,0.0054148,0.0103777,622,1114,-9.61975,-1.17844
-595,-90,-9.55988,1.2616,-0.00349027,-0.00130373,-0.00521318,0.00292959,-0.00772359,-0.888757,0.00635481,0.012608,629,1114,-9.55987,-1.26161
-588,-90,-9.5885,1.19873,-0.00370251,-0.00142442,-0.0057552,0.00330337,-0.0084303,-0.883093,0.00698667,0.0237029,636,1114,-9.58852,-1.19867
-581,-90,-9.89844,0.706787,-0.00377142,-0.00147688,-0.00594335,0.00342892,-0.00867722,-0.880743,0.0072051,0.0312978,643,1114,-9.89843,-0.706816
-574,-90,-9.98975,0.510498,-0.00371368,-0.00149041,-0.00585482,0.00335737,-0.00856147,-0.879215,0.00709662,0.0327864,650,1114,-9.98972,-0.510444
-567,-90,-10.063,0.639526,-0.00333446,-0.00137905,-0.00549862,0.00322811,-0.00794163,-0.873383,0.00663749,0.0327557,657,1114,-10.063,-0.639489
-560,-90,-10.0437,0.723633,-0.00269094,-0.00118355,-0.00479372,0.00291536,-0.00678985,-0.863373,0.00575022,0.0380116,664,1114,-10.0437,-0.723691
-553,-90,-9.80835,0.805176,-0.00186664,-0.000929265,-0.00376804,0.00239912,-0.00519503,-0.847273,0.00448244,0.0393646,671,1114,-9.80833,-0.805129
-546,-90,-9.73798,0.8479,-0.000976617,-0.000654855,-0.00245332,0.00164285,-0.00327432,-0.81814,0.00289055,0.0397923,678,1114,-9.738,-0.847877
-539,-90,-9.82721,0.66333,-0.000124824,-0.000420983,-0.000956135,0.000694631,-0.00124044,-0.708572,0.00113193,0.0402709,685,1114,-9.82719,-0.663375
-532,-90,-9.96558,0.523682,-0.000286827,-0.000474413,-0.000174786,-0.000182259,-0.000578981,-0.539142,0.000341834,0.0420897,692,1114,-9.96555,-0.523654
-525,-90,0,0,0,0,0,0,0,0,0,-1,699,1114,0,0
-518,-90,0,0,0,0,0,0,0,0,0,-1,706,1114,0,0
-511,-90,0,0,0,0,0,0,0,0,0,-1,713,1114,0,0
-504,-90,0,0,0,0,0,0,0,0,0,-1,720,1114,0,0
-497,-90,0,0,0,0,0,0,0,0,0,-1,727,1114,0,0
-490,-90,0,0,0,0,0,0,0,0,0,-1,734,1114,0,0
-483,-90,0,0,0,0,0,0,0,0,0,-1,741,1114,0,0
-476,-90,0,0,0,0,0,0,0,0,0,-1,748,1114,0,0
-469,-90,0,0,0,0,0,0,0,0,0,-1,755,1114,0,0
-462,-90,0,0,0,0,0,0,0,0,0,-1,762,1114,0,0
-455,-90,0,0,0,0,0,0,0,0,0,-1,769,1114,0,0
-448,-90,0,0,0,0,0,0,0,0,0,-1,776,1114,0,0
-441,-90,0,0,0,0,0,0,0,0,0,-1,783,1114,0,0
-434,-90,0,0,0,0,0,0,0,0,0,-1,790,1114,0,0
-427,-90,0,0,0,0,0,0,0,0,0,-1,797,1114,0,0
-420,-90,0,0,0,0,0,0,0,0,0,-1,804,1114,0,0
-413,-90,0,0,0,0,0,0,0,0,0,-1,811,1114,0,0
-406,-90,0,0,0,0,0,0,0,0,0,-1,818,1114,0,0
-399,-90,0,0,0,0,0,0,0,0,0,-1,825,1114,0,0
-392,-90,0,0,0,0,0,0,0,0,0,-1,832,1114,0,0
-385,-90,0,0,0,0,0,0,0,0,0,-1,839,1114,0,0
-378,-90,0,0,0,0,0,0,0,0,0,-1,846,1114,0,0
-371,-90,0,0,0,0,0,0,0,0,0,-1,853,1114,0,0
-364,-90,0,0,0,0,0,0,0,0,0,-1,860,1114,0,0
-357,-90,0,0,0,0,0,0,0,0,0,-1,867,1114,0,0
-350,-90,0,0,0,0,0,0,0,0,0,-1,874,1114,0,0
-343,-90,0,0,0,0,0,0,0,0,0,-1,881,1114,0,0
-336,-90,0,0,0,0,0,0,0,0,0,-1,888,1114,0,0
-329,-90,0,0,0,0,0,0,0,0,0,-1,895,1114,0,0
-322,-90,0,0,0,0,0,0,0,0,0,-1,902,1114,0,0
-315,-90,0,0,0,0,0,0,0,0,0,-1,909,1114,0,0
-308,-90,0,0,0,0,0,0,0,0,0,-1,916,1114,0,0
-301,-90,0,0,0,0,0,0,0,0,0,-1,923,1114,0,0
-294,-90,0,0,0,0,0,0,0,0,0,-1,930,1114,0,0
-287,-90,0,0,0,0,0,0,0,0,0,-1,937,1114,0,0
-280,-90,0,0,0,0,0,0,0,0,0,-1,944,1114,0,0
-273,-90,0,0,0,0,0,0,0,0,0,-1,951,1114,0,0
-266,-90,0,0,0,0,0,0,0,0,0,-1,958,1114,0,0
-259,-90,0,0,0,0,0,0,0,0,0,-1,965,1114,0,0
-252,-90,0,0,0,0,0,0,0,0,0,-1,972,1114,0,0
-245,-90,0,0,0,0,0,0,0,0,0,-1,979,1114,0,0
-238,-90,0,0,0,0,0,0,0,0,0,-1,986,1114,0,0
-231,-90,0,0,0,0,0,0,0,0,0,-1,993,1114,0,0
-224,-90,0,0,0,0,0,0,0,0,0,-1,1000,1114,0,0
-217,-90,0,0,0,0,0,0,0,0,0,-1,1007,1114,0,0
-210,-90,0,0,0,0,0,0,0,0,0,-1,1014,1114,0,0
-203,-90,0,0,0,0,0,0,0,0,0,-1,1021,1114,0,0
-196,-90,0,0,0,0,0,0,0,0,0,-1,1028,1114,0,0
-189,-90,0,0,0,0,0,0,0,0,0,-1,1035,1114,0,0
-182,-90,0,0,0,0,0,0,0,0,0,-1,1042,1114,0,0
-175,-90,0,0,0,0,0,0,0,0,0,-1,1049,1114,0,0
-168,-90,0,0,0,0,0,0,0,0,0,-1,1056,1114,0,0
-161,-90,0,0,0,0,0,0,0,0,0,-1,1063,1114,0,0
-154,-90,0,0,0,0,0,0,0,0,0,-1,1070,1114,0,0
-147,-90,0,0,0,0,0,0,0,0,0,-1,1077,1114,0,0
-140,-90,0,0,0,0,0,0,0,0,0,-1,1084,1114,0,0
-133,-90,0,0,0,0,0,0,0,0,0,-1,1091,1114,0,0
-126,-90,0,0,0,0,0,0,0,0,0,-1,1098,1114,0,0
-119,-90,0,0,0,0,0,0,0,0,0,-1,1105,1114,0,0
-112,-90,0,0,0,0,0,0,0,0,0,-1,1112,1114,0,0
-105,-90,0,0,0,0,0,0,0,0,0,-1,1119,1114,0,0
-98,-90,0,0,0,0,0,0,0,0,0,-1,1126,1114,0,0
-91,-90,0,0,0,0,0,0,0,0,0,-1,1133,1114,0,0
-84,-90,0,0,0,0,0,0,0,0,0,-1,1140,1114,0,0
-77,-90,0,0,0,0,0,0,0,0,0,-1,1147,1114,0,0
-70,-90,0,0,0,0,0,0,0,0,0,-1,1154,1114,0,0
-63,-90,0,0,0,0,0,0,0,0,0,-1,1161,1114,0,0
-56,-90,0,0,0,0,0,0,0,0,0,-1,1168,1114,0,0
-49,-90,0,0,0,0,0,0,0,0,0,-1,1175,1114,0,0
-42,-90,0,0,0,0,0,0,0,0,0,-1,1182,1114,0,0
-35,-90,0,0,0,0,0,0,0,0,0,-1,1189,1114,0,0
-28,-90,0,0,0,0,0,0,0,0,0,-1,1196,1114,0,0
-21,-90,0,0,0,0,0,0,0,0,0,-1,1203,1114,0,0
-14,-90,0,0,0,0,0,0,0,0,0,-1,1210,1114,0,0
-7,-90,0,0,0,0,0,0,0,0,0,-1,1217,1114,0,0
0,-90,0,0,0,0,0,0,0,0,0,-1,1224,1114,0,0
7,-90,0,0,0,0,0,0,0,0,0,-1,1231,1114,0,0
14,-90,0,0,0,0,0,0,0,0,0,-1,1238,1114,0,0
21,-90,0,0,0,0,0,0,0,0,0,-1,1245,1114,0,0
28,-90,0,0,0,0,0,0,0,0,0,-1,1252,1114,0,0
35,-90,0,0,0,0,0,0,0,0,0,-1,1259,1114,0,0
42,-90,0,0,0,0,0,0,0,0,0,-1,1266,1114,0,0
49,-90,0,0,0,0,0,0,0,0,0,-1,1273,1114,0,0
56,-90,0,0,0,0,0,0,0,0,0,-1,1280,1114,0,0
63,-90,0,0,0,0,0,0,0,0,0,-1,1287,1114,0,0
70,-90,0,0,0,0,0,0,0,0,0,-1,1294,1114,0,0
77,-90,0,0,0,0,0,0,0,0,0,-1,1301,1114,0,0
84,-90,0,0,0,0,0,0,0,0,0,-1,1308,1114,0,0
91,-90,0,0,0,0,0,0,0,0,0,-1,1315,1114,0,0
98,-90,0,0,0,0,0,0,0,0,0,-1,1322,1114,0,0
105,-90,0,0,0,0,0,0,0,0,0,-1,1329,1114,0,0
112,-90,0,0,0,0,0,0,0,0,0,-1,1336,1114,0,0
119,-90,0,0,0,0,0,0,0,0,0,-1,1343,1114,0,0
126,-90,0,0,0,0,0,0,0,0,0,-1,1350,1114,0,0
133,-90,0,0,0,0,0,0,0,0,0,-1,1357,1114,0,0
140,-90,0,0,0,0,0,0,0,0,0,-1,1364,1114,0,0
147,-90,0,0,0,0,0,0,0,0,0,-1,1371,1114,0,0
154,-90,0,0,0,0,0,0,0,0,0,-1,1378,1114,0,0
161,-90,0,0,0,0,0,0,0,0,0,-1,1385,1114,0,0
168,-90,0,0,0,0,0,0,0,0,0,-1,1392,1114,0,0
175,-90,0,0,0,0,0,0,0,0,0,-1,1399,1114,0,0
182,-90,0,0,0,0,0,0,0,0,0,-1,1406,1114,0,0
189,-90,0,0,0,0,0,0,0,0,0,-1,1413,1114,0,0
196,-90,0,0,0,0,0,0,0,0,0,-1,1420,1114,0,0
203,-90,0,0,0,0,0,0,0,0,0,-1,1427,1114,0,0
210,-90,0,0,0,0,0,0,0,0,0,-1,1434,1114,0,0
217,-90,0,0,0,0,0,0,0,0,0,-1,1441,1114,0,0
224,-90,0,0,0,0,0,0,0,0,0,-1,1448,1114,0,0
231,-90,0,0,0,0,0,0,0,0,0,-1,1455,1114,0,0
238,-90,0,0,0,0,0,0,0,0,0,-1,1462,1114,0,0
245,-90,0,0,0,0,0,0,0,0,0,-1,1469,1114,0,0
252,-90,0,0,0,0,0,0,0,0,0,-1,1476,1114,0,0
259,-90,0,0,0,0,0,0,0,0,0,-1,1483,1114,0,0
266,-90,0,0,0,0,0,0,0,0,0,-1,1490,1114,0,0
273,-90,0,0,0,0,0,0,0,0,0,-1,1497,1114,0,0
280,-90,0,0,0,0,0,0,0,0,0,-1,1504,1114,0,0
287,-90,0,0,0,0,0,0,0,0,0,-1,1511,1114,0,0
294,-90,0,0,0,0,0,0,0,0,0,-1,1518,1114,0,0
301,-90,0,0,0,0,0,0,0,0,0,-1,1525,1114,0,0
308,-90,0,0,0,0,0,0,0,0,0,-1,1532,1114,0,0
315,-90,0,0,0,0,0,0,0,0,0,-1,1539,1114,0,0
322,-90,0,0,0,0,0,0,0,0,0,-1,1546,1114,0,0
329,-90,0,0,0,0,0,0,0,0,0,-1,1553,1114,0,0
336,-90,0,0,0,0,0,0,0,0,0,-1,1560,1114,0,0
343,-90,0,0,0,0,0,0,0,0,0,-1,1567,1114,0,0
350,-90,0,0,0,0,0,0,0,0,0,-1,1574,1114,0,0
357,-90,0,0,0,0,0,0,0,0,0,-1,1581,1114,0,0
364,-90,0,0,0,0,0,0,0,0,0,-1,1588,1114,0,0
371,-90,0,0,0,0,0,0,0,0,0,-1,1595,1114,0,0
378,-90,0,0,0,0,0,0,0,0,0,-1,1602,1114,0,0
385,-90,0,0,0,0,0,0,0,0,0,-1,1609,1114,0,0
392,-90,0,0,0,0,0,0,0,0,0,-1,1616,1114,0,0
399,-90,0,0,0,0,0,0,0,0,0,-1,1623,1114,0,0
406,-90,0,0,0,0,0,0,0,0,0,-1,1630,1114,0,0
413,-90,0,0,0,0,0,0,0,0,0,-1,1637,1114,0,0
420,-90,0,0,0,0,0,0,0,0,0,-1,1644,1114,0,0
427,-90,0,0,0,0,0,0,0,0,0,-1,1651,1114,0,0
434,-90,0,0,0,0,0,0,0,0,0,-1,1658,1114,0,0
441,-90,0,0,0,0,0,0,0,0,0,-1,1665,1114,0,0
448,-90,0,0,0,0,0,0,0,0,0,-1,1672,1114,0,0
455,-90,0,0,0,0,0,0,0,0,0,-1,1679,1114,0,0
462,-90,0,0,0,0,0,0,0,0,0,-1,1686,1114,0,0
469,-90,0,0,0,0,0,0,0,0,0,-1,1693,1114,0,0
476,-90,0,0,0,0,0,0,0,0,0,-1,1700,1114,0,0
483,-90,0,0,0,0,0,0,0,0,0,-1,1707,1114,0,0
490,-90,0,0,0,0,0,0,0,0,0,-1,1714,1114,0,0
497,-90,0,0,0,0,0,0,0,0,0,-1,1721,1114,0,0
504,-90,0,0,0,0,0,0,0,0,0,-1,1728,1114,0,0
511,-90,0,0,0,0,0,0,0,0,0,-1,1735,1114,0,0
518,-90,0,0,0,0,0,0,0,0,0,-1,1742,1114,0,0
525,-90,0,0,0,0,0,0,0,0,0,-1,1749,1114,0,0
532,-90,0,0,0,0,0,0,0,0,0,-1,1756,1114,0,0
539,-90,0,0,0,0,0,0,0,0,0,-1,1763,1114,0,0
546,-90,0,0,0,0,0,0,0,0,0,-1,1770,1114,0,0
553,-90,0,0,0,0,0,0,0,0,0,-1,1777,1114,0,0
560,-90,0,0,0,0,0,0,0,0,0,-1,1784,1114,0,0
567,-90,0,0,0,0,0,0,0,0,0,-1,1791,1114,0,0
574,-90,0,0,0,0,0,0,0,0,0,-1,1798,1114,0,0
581,-90,0,0,0,0,0,0,0,0,0,-1,1805,1114,0,0
588,-90,0,0,0,0,0,0,0,0,0,-1,1812,1114,0,0
595,-90,0,0,0,0,0,0,0,0,0,-1,1819,1114,0,0
602,-90,0,0,0,0,0,0,0,0,0,-1,1826,1114,0,0
609,-90,0,0,0,0,0,0,0,0,0,-1,1833,1114,0,0
616,-90,0,0,0,0,0,0,0,0,0,-1,1840,1114,0,0
623,-90,0,0,0,0,0,0,0,0,0,-1,1847,1114,0,0
630,-90,0,0,0,0,0,0,0,0,0,-1,1854,1114,0,0
637,-90,0,0,0,0,0,0,0,0,0,-1,1861,1114,0,0
644,-90,15.8925,2.41113,0.00516421,-0.00117136,-0.00531442,0.00818334,-0.00419049,-0.516635,0.00726696,0.0339356,1868,1114,15.8925,-2.41114
651,-90,15.9976,2.53821,0.00362707,-0.000594509,-0.00326436,0.00540363,-0.00237107,-0.498401,0.00460114,0.039359,1875,1114,15.9975,-2.53826
658,-90,16.163,2.5321,0.00259301,-0.000118238,-0.0020534,0.00369791,-0.00122314,-0.493648,0.0029585,0.0426219,1882,1114,16.163,-2.53208
665,-90,16.1859,2.31848,0.00171064,0.00026832,-0.00121033,0.00239837,-0.000419411,-0.516722,0.0017555,0.0422945,1889,1114,16.1859,-2.31852
672,-90,16.1243,2.31494,0.000197966,7.95457e-05,0.000225415,0.000371818,-9.43057e-05,0.656963,0.000284571,0.0418887,1896,1114,16.1243,-2.31497
679,-90,16.1801,2.48157,-0.00147365,-0.000325598,0.00167602,0.000871971,-0.00267122,0.950384,0.00213177,0.0389862,1903,1114,16.1801,-2.48162
686,-90,16.252,2.57422,-0.00294297,-0.000791449,0.00289595,0.00122209,-0.00495651,0.963235,0.00377817,0.0364074,1910,1114,16.252,-2.57426
693,-90,16.1829,2.34216,-0.00409261,-0.00123839,0.0038924,0.00148027,-0.00681127,0.961109,0.0051063,0.0365142,1917,1114,16.1829,-2.34218
700,-90,16.1466,2.27185,-0.00497263,-0.00154614,0.00466857,0.00171362,-0.00823238,0.961256,0.0061397,0.031235,1924,1114,16.1466,-2.27186
707,-90,16.1555,1.98389,0,0,0,0,0,0,0,-1,1931,1114,16.1555,-1.98389
714,-90,16.0646,2.53674,-0.00591165,-0.00197906,0.00560562,0.00199512,-0.00988583,0.954079,0.00734646,0.0289228,1938,1114,16.0646,-2.53676
721,-90,15.7357,3.26245,-0.00599959,-0.00200604,0.00555925,0.00190416,-0.00990979,0.957813,0.00732422,0.0202049,1945,1114,15.7357,-3.2624
728,-90,15.5881,3.33325,-0.00594964,-0.00185428,0.00515173,0.00164181,-0.00944572,0.974562,0.00690975,0.0155245,1952,1114,15.5881,-3.33329
735,-90,15.557,3.27258,-0.00601973,-0.00159439,0.00447151,0.00118196,-0.00879608,1.01515,0.00629513,0.0170727,1959,1114,15.557,-3.27264
742,-90,15.5817,3.20752,-0.00680953,-0.000925682,0.0036023,0.000783361,-0.00851857,1.12781,0.00595736,0.0151298,1966,1114,15.5817,-3.20746
749,-90,15.6261,3.15564,-0.00796109,-0.000641501,0.0026067,0.000191919,-0.00879451,1.26135,0.00592802,0.0123437,1973,1114,15.626,-3.15565
756,-90,15.6384,3.14453,-0.0103776,0.000517009,0.00133152,0.000677384,-0.010538,1.45093,0.00726166,0.0134623,1980,1114,15.6384,-3.1445
763,-90,15.6006,3.10083,-0.0143674,0.0021056,3.54682e-05,0.00210568,-0.0143675,1.56864,0.0103518,0.012038,1987,1114,15.6006,-3.10078
770,-90,15.5803,3.05457,-0.0190941,0.00388653,-0.00145715,0.00397855,-0.0191861,-1.50773,0.0143026,0.0135451,1994,1114,15.5803,-3.0546
777,-90,15.5801,3.02954,-0.0256909,0.00578146,-0.00237377,0.00595949,-0.025869,-1.49594,0.0195378,0.0122462,2001,1114,15.58,-3.02956
784,-90,15.499,2.99084,0,0,0,0,0,0,0,-1,2008,1114,15.499,-2.99089
791,-90,14.9012,2.93372,-0.0447607,0.0108277,-0.00282839,0.0109713,-0.0449042,-1.52009,0.0341852,0.0438127,2015,1114,14.9013,-2.93367
798,-90,14.2163,2.81909,-0.0569139,0.0144832,-0.00257657,0.0145761,-0.0570068,-1.53477,0.0436815,0.0465064,2022,1114,14.2163,-2.81911
805,-90,13.4634,1.94653,-0.0707014,0.0191935,-0.00180884,0.0192299,-0.0707377,-1.55069,0.0547069,0.0467435,2029,1114,13.4633,-1.94653
812,-90,12.7249,1.25305,0,0,0,0,0,0,0,-1,2036,1114,12.7248,-1.25305
-700,-97,0,0,0,0,0,0,0,0,0,-1,524,1121,0,0
-693,-97,-15.0548,-2.85278,0.250676,0.0870266,0.111818,0.30741,0.0302929,0.469532,0.195626,0.0457939,531,1121,-15.0548,2.85274
-686,-97,-14.2202,-2.03271,0.234991,0.0766247,0.0896917,0.275452,0.0361644,0.423772,0.172845,0.0453104,538,1121,-14.2202,2.03268
-679,-97,-13.3699,-1.06787,0.207667,0.0652296,0.0707556,0.23684,0.0360569,0.391068,0.147352,0.0452399,545,1121,-13.3699,1.06788
-672,-97,-12.3945,0.0163574,0.175447,0.0538541,0.0547959,0.196497,0.0328044,0.366766,0.121548,0.0455052,552,1121,-12.3945,-0.0163803
-665,-97,-10.9437,-0.206299,0,0,0,0,0,0,0,-1,559,1121,-10.9437,0.206248
-658,-97,-9.42535,0.471191,0,0,0,0,0,0,0,-1,566,1121,-9.42536,-0.471144
-651,-97,-9.53821,0.622437,0.0808178,0.0245035,0.0218795,0.0883193,0.017002,0.330294,0.05411,0.0279995,573,1121,-9.53822,-0.622378
-644,-97,-9.53436,0.757446,0.0565606,0.0173374,0.0150468,0.0616678,0.0122301,0.327222,0.0377023,0.0102139,580,1121,-9.53436,-0.75748
-637,-97,-9.52405,0.839233,0.0375938,0.0113003,0.00846408,0.0400829,0.00881125,0.286007,0.0243228,0.0105217,587,1121,-9.52407,-0.839289
-630,-97,-9.51892,0.908081,0.0225495,0.00672681,0.0039807,0.0234945,0.00578178,0.233088,0.0141356,0.00920022,594,1121,-9.51894,-0.908063
-623,-97,-9.52118,0.994873,0.010192,0.00337363,0.00226279,0.0108746,0.00269102,0.292983,0.00653998,0.0102693,601,1121,-9.5212,-0.994923
-616,-97,-9.52344,1.06909,0.00180674,0.0013593,-0.00137852,0.00297957,0.000186464,-0.704955,0.00192723,0.0104398,608,1121,-9.52345,-1.06915
-609,-97,-9.53284,1.13,-0.00303767,-0.000591995,-0.00348033,0.00187408,-0.00550375,-0.95434,0.00442808,0.0128261,615,1121,-9.53286,-1.12994
-602,-97,-9.54108,1.15759,-0.00365837,-0.000932104,-0.00451224,0.0024184,-0.00700888,-0.932088,0.00565384,0.0115448,622,1121,-9.54107,-1.15754
-595,-97,-9.48065,1.23157,-0.00408546,-0.00119018,-0.00538525,0.00293861,-0.00821425,-0.916702,0.00667492,0.0155118,629,1121,-9.48065,-1.23158
-588,-97,-9.56696,1.26404,0,0,0,0,0,0,0,-1,636,1121,-9.56698,-1.26407
-581,-97,-9.82593,0.851196,-0.00453381,-0.00135345,-0.00617254,0.00343046,-0.00931771,-0.911468,0.00761728,0.0336256,643,1121,-9.82592,-0.851245
-574,-97,-9.98834,0.545898,-0.00453697,-0.0013796,-0.00608977,0.00333278,-0.00924936,-0.912224,0.00752726,0.0371657,650,1121,-9.98835,-0.545856
-567,-97,-9.98334,0.547241,-0.00420443,-0.00128351,-0.00573908,0.00317802,-0.00866596,-0.909992,0.00707859,0.035444,657,1121,-9.98333,-0.547187
-560,-97,-9.97101,0.684082,-0.00358784,-0.00112881,-0.00499935,0.00279,-0.00750665,-0.905973,0.00614916,0.0392875,664,1121,-9.97101,-0.684128
-553,-97,-9.82355,0.812256,-0.00276615,-0.000951372,-0.00388452,0.00213033,-0.00584785,-0.900136,0.00476998,0.0423253,671,1121,-9.82352,-0.812218
-546,-97,-9.69049,0.597534,-0.00186481,-0.000805177,-0.00241054,0.00113309,-0.00380307,-0.893573,0.00298563,0.0413383,678,1121,-9.69048,-0.597556
-539,-97,-9.76678,0.346313,-0.000982297,-0.000768076,-0.000632203,-0.000233974,-0.0015164,-0.869313,0.00094267,0.03971,685,1121,-9.76681,-0.346275
-532,-97,-9.94122,0.324219,-0.00104817,-0.00105762,0.000668004,-0.000384876,-0.00172092,0.781862,0.00104293,0.0382927,692,1121,-9.9412,-0.324239
-525,-97,0,0,0,0,0,0,0,0,0,-1,699,1121,0,0
-518,-97,0,0,0,0,0,0,0,0,0,-1,706,1121,0,0
-511,-97,0,0,0,0,0,0,0,0,0,-1,713,1121,0,0
-504,-97,0,0,0,0,0,0,0,0,0,-1,720,1121,0,0
-497,-97,0,0,0,0,0,0,0,0,0,-1,727,1121,0,0
-490,-97,0,0,0,0,0,0,0,0,0,-1,734,1121,0,0
-483,-97,0,0,0,0,0,0,0,0,0,-1,741,1121,0,0
-476,-97,0,0,0,0,0,0,0,0,0,-1,748,1121,0,0
-469,-97,0,0,0,0,0,0,0,0,0,-1,755,1121,0,0
-462,-97,0,0,0,0,0,0,0,0,0,-1,762,1121,0,0
-455,-97,0,0,0,0,0,0,0,0,0,-1,769,1121,0,0
-448,-97,0,0,0,0,0,0,0,0,0,-1,776,1121,0,0
-441,-97,0,0,0,0,0,0,0,0,0,-1,783,1121,0,0
-434,-97,0,0,0,0,0,0,0,0,0,-1,790,1121,0,0
-427,-97,0,0,0,0,0,0,0,0,0,-1,797,1121,0,0
-420,-97,0,0,0,0,0,0,0,0,0,-1,804,1121,0,0
-413,-97,0,0,0,0,0,0,0,0,0,-1,811,1121,0,0
-406,-97,0,0,0,0,0,0,0,0,0,-1,818,1121,0,0
-399,-97,0,0,0,0,0,0,0,0,0,-1,825,1121,0,0
-392,-97,0,0,0,0,0,0,0,0,0,-1,832,1121,0,0
-385,-97,0,0,0,0,0,0,0,0,0,-1,839,1121,0,0
-378,-97,0,0,0,0,0,0,0,0,0,-1,846,1121,0,0
-371,-97,0,0,0,0,0,0,0,0,0,-1,853,1121,0,0
-364,-97,0,0,0,0,0,0,0,0,0,-1,860,1121,0,0
-357,-97,0,0,0,0,0,0,0,0,0,-1,867,1121,0,0
-350,-97,0,0,0,0,0,0,0,0,0,-1,874,1121,0,0
-343,-97,0,0,0,0,0,0,0,0,0,-1,881,1121,0,0
-336,-97,0,0,0,0,0,0,0,0,0,-1,888,1121,0,0
-329,-97,0,0,0,0,0,0,0,0,0,-1,895,1121,0,0
-322,-97,0,0,0,0,0,0,0,0,0,-1,902,1121,0,0
-315,-97,0,0,0,0,0,0,0,0,0,-1,909,1121,0,0
-308,-97,0,0,0,0,0,0,0,0,0,-1,916,1121,0,0
-301,-97,0,0,0,0,0,0,0,0,0,-1,923,1121,0,0
-294,-97,0,0,0,0,0,0,0,0,0,-1,930,1121,0,0
-287,-97,0,0,0,0,0,0,0,0,0,-1,937,1121,0,0
-280,-97,0,0,0,0,0,0,0,0,0,-1,944,1121,0,0
-273,-97,0,0,0,0,0,0,0,0,0,-1,951,1121,0,0
-266,-97,0,0,0,0,0,0,0,0,0,-1,958,1121,0,0
-259,-97,0,0,0,0,0,0,0,0,0,-1,965,1121,0,0
-252,-97,0,0,0,0,0,0,0,0,0,-1,972,1121,0,0
-245,-97,0,0,0,0,0,0,0,0,0,-1,979,1121,0,0
-238,-97,0,0,0,0,0,0,0,0,0,-1,986,1121,0,0
-231,-97,0,0,0,0,0,0,0,0,0,-1,993,1121,0,0
-224,-97,0,0,0,0,0,0,0,0,0,-1,1000,1121,0,0
-217,-97,0,0,0,0,0,0,0,0,0,-1,1007,1121,0,0
-210,-97,0,0,0,0,0,0,0,0,0,-1,1014,1121,0,0
-203,-97,0,0,0,0,0,0,0,0,0,-1,1021,1121,0,0
-196,-97,0,0,0,0,0,0,0,0,0,-1,1028,1121,0,0
-189,-97,0,0,0,0,0,0,0,0,0,-1,1035,1121,0,0
-182,-97,0,0,0,0,0,0,0,0,0,-1,1042,1121,0,0
-175,-97,0,0,0,0,0,0,0,0,0,-1,1049,1121,0,0
-168,-97,0,0,0,0,0,0,0,0,0,-1,1056,1121,0,0
-161,-97,0,0,0,0,0,0,0,0,0,-1,1063,1121,0,0
-154,-97,0,0,0,0,0,0,0,0,0,-1,1070,1121,0,0
-147,-97,0,0,0,0,0,0,0,0,0,-1,1077,1121,0,0
-140,-97,0,0,0,0,0,0,0,0,0,-1,1084,1121,0,0
-133,-97,0,0,0,0,0,0,0,0,0,-1,1091,1121,0,0
-126,-97,0,0,0,0,0,0,0,0,0,-1,1098,1121,0,0
-119,-97,0,0,0,0,0,0,0,0,0,-1,1105,1121,0,0
-112,-97,0,0,0,0,0,0,0,0,0,-1,1112,1121,0,0
-105,-97,0,0,0,0,0,0,0,0,0,-1,1119,1121,0,0
-98,-97,0,0,0,0,0,0,0,0,0,-1,1126,1121,0,0
-91,-97,0,0,0,0,0,0,0,0,0,-1,1133,1121,0,0
-84,-97,0,0,0,0,0,0,0,0,0,-1,1140,1121,0,0
-77,-97,0,0,0,0,0,0,0,0,0,-1,1147,1121,0,0
-70,-97,0,0,0,0,0,0,0,0,0,-1,1154,1121,0,0
-63,-97,0,0,0,0,0,0,0,0,0,-1,1161,1121,0,0
-56,-97,0,0,0,0,0,0,0,0,0,-1,1168,1121,0,0
-49,-97,0,0,0,0,0,0,0,0,0,-1,1175,1121,0,0
-42,-97,0,0,0,0,0,0,0,0,0,-1,1182,1121,0,0
-35,-97,0,0,0,0,0,0,0,0,0,-1,1189,1121,0,0
-28,-97,0,0,0,0,0,0,0,0,0,-1,1196,1121,0,0
-21,-97,0,0,0,0,0,0,0,0,0,-1,1203,1121,0,0
-14,-97,0,0,0,0,0,0,0,0,0,-1,1210,1121,0,0
-7,-97,0,0,0,0,0,0,0,0,0,-1,1217,1121,0,0
0,-97,0,0,0,0,0,0,0,0,0,-1,1224,1121,0,0
7,-97,0,0,0,0,0,0,0,0,0,-1,1231,1121,0,0
14,-97,0,0,0,0,0,0,0,0,0,-1,1238,1121,0,0
21,-97,0,0,0,0,0,0,0,0,0,-1,1245,1121,0,0
28,-97,0,0,0,0,0,0,0,0,0,-1,1252,1121,0,0
35,-97,0,0,0,0,0,0,0,0,0,-1,1259,1121,0,0
42,-97,0,0,0,0,0,0,0,0,0,-1,1266,1121,0,0
49,-97,0,0,0,0,0,0,0,0,0,-1,1273,1121,0,0
56,-97,0,0,0,0,0,0,0,0,0,-1,1280,1121,0,0
63,-97,0,0,0,0,0,0,0,0,0,-1,1287,1121,0,0
70,-97,0,0,0,0,0,0,0,0,0,-1,1294,1121,0,0
77,-97,0,0,0,0,0,0,0,0,0,-1,1301,1121,0,0
84,-97,0,0,0,0,0,0,0,0,0,-1,1308,1121,0,0
91,-97,0,0,0,0,0,0,0,0,0,-1,1315,1121,0,0
98,-97,0,0,0,0,0,0,0,0,0,-1,1322,1121,0,0
105,-97,0,0,0,0,0,0,0,0,0,-1,1329,1121,0,0
112,-97,0,0,0,0,0,0,0,0,0,-1,1336,1121,0,0
119,-97,0,0,0,0,0,0,0,0,0,-1,1343,1121,0,0
126,-97,0,0,0,0,0,0,0,0,0,-1,1350,1121,0,0
133,-97,0,0,0,0,0,0,0,0,0,-1,1357,1121,0,0
140,-97,0,0,0,0,0,0,0,0,0,-1,1364,1121,0,0
147,-97,0,0,0,0,0,0,0,0,0,-1,1371,1121,0,0
154,-97,0,0,0,0,0,0,0,0,0,-1,1378,1121,0,0
161,-97,0,0,0,0,0,0,0,0,0,-1,1385,1121,0,0
168,-97,0,0,0,0,0,0,0,0,0,-1,1392,1121,0,0
175,-97,0,0,0,0,0,0,0,0,0,-1,1399,1121,0,0
182,-97,0,0,0,0,0,0,0,0,0,-1,1406,1121,0,0
189,-97,0,0,0,0,0,0,0,0,0,-1,1413,1121,0,0
196,-97,0,0,0,0,0,0,0,0,0,-1,1420,1121,0,0
203,-97,0,0,0,0,0,0,0,0,0,-1,1427,1121,0,0
210,-97,0,0,0,0,0,0,0,0,0,-1,1434,1121,0,0
217,-97,0,0,0,0,0,0,0,0,0,-1,1441,1121,0,0
224,-97,0,0,0,0,0,0,0,0,0,-1,1448,1121,0,0
231,-97,0,0,0,0,0,0,0,0,0,-1,1455,1121,0,0
238,-97,0,0,0,0,0,0,0,0,0,-1,1462,1121,0,0
245,-97,0,0,0,0,0,0,0,0,0,-1,1469,1121,0,0
252,-97,0,0,0,0,0,0,0,0,0,-1,1476,1121,0,0
259,-97,0,0,0,0,0,0,0,0,0,-1,1483,1121,0,0
266,-97,0,0,0,0,0,0,0,0,0,-1,1490,1121,0,0
273,-97,0,0,0,0,0,0,0,0,0,-1,1497,1121,0,0
280,-97,0,0,0,0,0,0,0,0,0,-1,1504,1121,0,0
287,-97,0,0,0,0,0,0,0,0,0,-1,1511,1121,0,0
294,-97,0,0,0,0,0,0,0,0,0,-1,1518,1121,0,0
301,-97,0,0,0,0,0,0,0,0,0,-1,1525,1121,0,0
308,-97,0,0,0,0,0,0,0,0,0,-1,1532,1121,0,0
315,-97,0,0,0,0,0,0,0,0,0,-1,1539,1121,0,0
322,-97,0,0,0,0,0,0,0,0,0,-1,1546,1121,0,0
329,-97,0,0,0,0,0,0,0,0,0,-1,1553,1121,0,0
336,-97,0,0,0,0,0,0,0,0,0,-1,1560,1121,0,0
343,-97,0,0,0,0,0,0,0,0,0,-1,1567,1121,0,0
350,-97,0,0,0,0,0,0,0,0,0,-1,1574,1121,0,0
357,-97,0,0,0,0,0,0,0,0,0,-1,1581,1121,0,0
364,-97,0,0,0,0,0,0,0,0,0,-1,1588,1121,0,0
371,-97,0,0,0,0,0,0,0,0,0,-1,1595,1121,0,0
378,-97,0,0,0,0,0,0,0,0,0,-1,1602,1121,0,0
385,-97,0,0,0,0,0,0,0,0,0,-1,1609,1121,0,0
392,-97,0,0,0,0,0,0,0,0,0,-1,1616,1121,0,0
399,-97,0,0,0,0,0,0,0,0,0,-1,1623,1121,0,0
406,-97,0,0,0,0,0,0,0,0,0,-1,1630,1121,0,0
413,-97,0,0,0,0,0,0,0,0,0,-1,1637,1121,0,0
420,-97,0,0,0,0,0,0,0,0,0,-1,1644,1121,0,0
427,-97,0,0,0,0,0,0,0,0,0,-1,1651,1121,0,0
434,-97,0,0,0,0,0,0,0,0,0,-1,1658,1121,0,0
441,-97,0,0,0,0,0,0,0,0,0,-1,1665,1121,0,0
448,-97,0,0,0,0,0,0,0,0,0,-1,1672,1121,0,0
455,-97,0,0,0,0,0,0,0,0,0,-1,1679,1121,0,0
462,-97,0,0,0,0,0,0,0,0,0,-1,1686,1121,0,0
469,-97,0,0,0,0,0,0,0,0,0,-1,1693,1121,0,0
476,-97,0,0,0,0,0,0,0,0,0,-1,1700,1121,0,0
483,-97,0,0,0,0,0,0,0,0,0,-1,1707,1121,0,0
490,-97,0,0,0,0,0,0,0,0,0,-1,1714,1121,0,0
497,-97,0,0,0,0,0,0,0,0,0,-1,1721,1121,0,0
504,-97,0,0,0,0,0,0,0,0,0,-1,1728,1121,0,0
511,-97,0,0,0,0,0,0,0,0,0,-1,1735,1121,0,0
518,-97,0,0,0,0,0,0,0,0,0,-1,1742,1121,0,0
525,-97,0,0,0,0,0,0,0,0,0,-1,1749,1121,0,0
532,-97,0,0,0,0,0,0,0,0,0,-1,1756,1121,0,0
539,-97,0,0,0,0,0,0,0,0,0,-1,1763,1121,0,0
546,-97,0,0,0,0,0,0,0,0,0,-1,1770,1121,0,0
553,-97,0,0,0,0,0,0,0,0,0,-1,1777,1121,0,0
560,-97,0,0,0,0,0,0,0,0,0,-1,1784,1121,0,0
567,-97,0,0,0,0,0,0,0,0,0,-1,1791,1121,0,0
574,-97,0,0,0,0,0,0,0,0,0,-1,1798,1121,0,0
581,-97,0,0,0,0,0,0,0,0,0,-1,1805,1121,0,0
588,-97,0,0,0,0,0,0,0,0,0,-1,1812,1121,0,0
595,-97,0,0,0,0,0,0,0,0,0,-1,1819,1121,0,0
602,-97,0,0,0,0,0,0,0,0,0,-1,1826,1121,0,0
609,-97,0,0,0,0,0,0,0,0,0,-1,1833,1121,0,0
616,-97,0,0,0,0,0,0,0,0,0,-1,1840,1121,0,0
623,-97,0,0,0,0,0,0,0,0,0,-1,1847,1121,0,0
630,-97,0,0,0,0,0,0,0,0,0,-1,1854,1121,0,0
637,-97,0,0,0,0,0,0,0,0,0,-1,1861,1121,0,0
644,-97,16.0361,2.5575,0.00386799,-0.000801161,-0.00503645,0.00708464,-0.00401781,-0.568372,0.00649101,0.0360459,1868,1121,16.0361,-2.55746
651,-97,16.1106,2.48206,0.00276364,-0.000218687,-0.00314949,0.00475714,-0.00221218,-0.564302,0.00411219,0.0364701,1875,1121,16.1106,-2.48202
658,-97,16.1514,2.32996,0.00204221,0.000253517,-0.0020497,0.00338419,-0.00108846,-0.579684,0.00269329,0.0387034,1882,1121,16.1514,-2.32999
665,-97,16.1129,1.95508,0.00124909,0.000535395,-0.00114447,0.00209106,-0.000306567,-0.634273,0.00150666,0.0410748,1889,1121,16.1129,-1.95513
672,-97,16.2717,2.13196,-0.000263833,0.000248809,0.000341539,0.000419512,-0.000434536,1.10731,0.00049311,0.042696,1896,1121,16.2717,-2.13191
679,-97,16.2489,2.47913,-0.00191112,-0.000209826,0.00177823,0.000910745,-0.00303169,1.00849,0.00238343,0.041546,1903,1121,16.2489,-2.47911
686,-97,16.1815,2.39819,-0.00336801,-0.000719097,0.00299215,0.00122863,-0.00531573,0.993758,0.0040165,0.0389184,1910,1121,16.1815,-2.39817
693,-97,16.1293,2.18457,-0.00451333,-0.00118731,0.00397912,0.00146234,-0.00716298,0.983333,0.00533006,0.0366888,1917,1121,16.1292,-2.1846
700,-97,16.0911,2.16431,-0.00537565,-0.00151044,0.00476562,0.00169953,-0.00858562,0.978031,0.00636633,0.0277629,1924,1121,16.0911,-2.16434
707,-97,16.156,2.12012,0,0,0,0,0,0,0,-1,1931,1121,16.156,-2.12006
714,-97,16.0081,2.73071,-0.00626628,-0.00197853,0.00565617,0.00192644,-0.0101712,0.966549,0.00750584,0.029263,1938,1121,16.0081,-2.73073
721,-97,15.7081,3.31677,-0.00634435,-0.0020086,0.00559504,0.00182387,-0.0101768,0.970224,0.00746712,0.0211976,1945,1121,15.7081,-3.3168
728,-97,15.5806,3.34131,-0.00625143,-0.00185007,0.00517018,0.00156831,-0.00966981,0.986608,0.00702788,0.0162237,1952,1121,15.5806,-3.34137
735,-97,15.5463,3.27368,-0.00622627,-0.00159532,0.00444812,0.0011039,-0.00892549,1.02537,0.00635036,0.0170903,1959,1121,15.5463,-3.27366
742,-97,15.5359,3.2168,-0.00688605,-0.000877834,0.0035732,0.000786292,-0.00855018,1.13494,0.00597947,0.0140153,1966,1121,15.5359,-3.21677
749,-97,15.5566,3.16931,-0.00790124,-0.000410264,0.00261616,0.000412943,-0.00872445,1.26594,0.00595872,0.0164402,1973,1121,15.5566,-3.16927
756,-97,15.5806,3.11914,-0.0101477,0.00104495,0.00149804,0.00124198,-0.0103447,1.44002,0.00734556,0.0143569,1980,1121,15.5806,-3.11908
763,-97,15.5637,3.08398,-0.0138987,0.0031337,0.000449694,0.00314557,-0.0139106,1.54442,0.0104808,0.0116568,1987,1121,15.5637,-3.08393
770,-97,15.5486,3.04016,-0.0183058,0.00540934,-0.000667015,0.00542809,-0.0183246,-1.5427,0.0143716,0.00936882,1994,1121,15.5486,-3.0402
777,-97,15.5585,2.98779,-0.0246155,0.00797148,-0.00104956,0.00800525,-0.0246492,-1.53863,0.0196524,0.0124864,2001,1121,15.5585,-2.98775
784,-97,15.4596,2.86084,-0.0328707,0.0111353,-0.000764752,0.0111485,-0.0328839,-1.55342,0.0264344,0.0324524,2008,1121,15.4596,-2.86089
791,-97,14.9218,2.68958,-0.0428721,0.0152358,-2.186e-05,0.0152358,-0.0428721,-1.57042,0.0347904,0.0425982,2015,1121,14.9218,-2.68952
798,-97,14.5223,2.5907,-0.0545236,0.0205295,0.00131522,0.0205526,-0.0545466,1.55328,0.0448148,0.0451967,2022,1121,14.5224,-2.59067
805,-97,14.1184,2.77417,0,0,0,0,0,0,0,-1,2029,1121,14.1184,-2.77418
812,-97,14.6094,1.27234,0,0,0,0,0,0,0,-1,2036,1121,14.6095,-1.27238
-700,-104,0,0,0,0,0,0,0,0,0,-1,524,1128,0,0
-693,-104,-15.6686,-3.39941,0.265936,0.092218,0.0804372,0.29746,0.0606936,0.373516,0.18149,0.0470225,531,1128,-15.6686,3.39945
-686,-104,-15.064,-2.46973,0.246396,0.0804266,0.0664054,0.269695,0.0571281,0.337435,0.164103,0.0475433,538,1128,-15.064,2.46979
-679,-104,-13.9449,-1.29175,0.215925,0.0679732,0.0531812,0.233057,0.0508411,0.311649,0.141502,0.0488646,545,1128,-13.9449,1.29178
-672,-104,-13.1346,-0.177246,0.18132,0.0557867,0.0415413,0.193822,0.043285,0.292325,0.117475,0.048596,552,1128,-13.1346,0.177278
-665,-104,-8.3866,0.87146,0.146075,0.0443396,0.0316571,0.155121,0.0352932,0.278343,0.0938874,0.0453332,559,1128,-8.38662,-0.871403
-658,-104,-8.69177,0.666016,0,0,0,0,0,0,0,-1,566,1128,-8.69177,-0.666016
-651,-104,-9.41534,0.569092,0.0827677,0.0250508,0.0168365,0.08732,0.0204985,0.264068,0.0527259,0.0338768,573,1128,-9.41533,-0.569076
-644,-104,-9.45227,0.734619,0.0578623,0.0176683,0.0116439,0.0609918,0.0145388,0.262561,0.0367854,0.0135356,580,1128,-9.45227,-0.734559
-637,-104,-9.44409,0.823486,0.0384484,0.0115266,0.00632603,0.0398608,0.0101142,0.219662,0.023926,0.00957166,587,1128,-9.44411,-0.823466
-630,-104,-9.44733,0.887817,0.0230279,0.0068605,0.00267779,0.0234599,0.00642853,0.15994,0.0139981,0.0118053,594,1128,-9.44731,-0.887804
-623,-104,-9.45184,0.980957,0.0100195,0.0032379,0.00179686,0.0104662,0.00279122,0.243649,0.00625809,0.0131366,601,1128,-9.45182,-0.980939
-616,-104,-9.47992,1.0835,0.00137261,0.00133612,-0.00157404,0.00292852,-0.00021978,-0.779603,0.00202957,0.0136131,608,1128,-9.47993,-1.08354
-609,-104,-9.5022,1.10706,-0.00349919,-0.000600883,-0.00360325,0.00183371,-0.00593378,-0.97659,0.00468819,0.0166062,615,1128,-9.5022,-1.10706
-602,-104,-9.4574,1.17249,-0.00421513,-0.00084781,-0.00465522,0.00241886,-0.0074818,-0.958916,0.00596007,0.0133868,622,1128,-9.4574,-1.17243
-595,-104,-9.42664,1.27637,-0.00473532,-0.00108902,-0.00555865,0.00293783,-0.00876217,-0.943863,0.00702846,0.0140938,629,1128,-9.42665,-1.27637
-588,-104,-9.45837,1.32971,0,0,0,0,0,0,0,-1,636,1128,-9.45839,-1.32968
-581,-104,-9.73834,0.923218,-0.00534802,-0.00123101,-0.00637826,0.0034127,-0.00999173,-0.94149,0.00804377,0.0370022,643,1128,-9.73831,-0.923243
-574,-104,-9.97748,0.560059,-0.00539909,-0.00122091,-0.00628364,0.00331182,-0.00993181,-0.945883,0.00795826,0.0397203,650,1128,-9.97745,-0.560093
-567,-104,-9.89142,0.523682,-0.00510098,-0.00109567,-0.00592223,0.00315334,-0.00935,-0.948442,0.00750851,0.0362916,657,1128,-9.89141,-0.523629
-560,-104,-10.02,0.719971,-0.00448657,-0.000908413,-0.00513538,0.00274061,-0.00813559,-0.953015,0.00653181,0.0410418,664,1128,-10.02,-0.719938
-553,-104,-10.1173,0.598999,-0.00362474,-0.000695924,-0.00392773,0.00203151,-0.00635218,-0.963835,0.00505005,0.0465106,671,1128,-10.1173,-0.599049
-546,-104,-9.9939,0.371338,-0.00264373,-0.000516249,-0.00230571,0.000959269,-0.00411925,-1.00152,0.00311554,0.044742,678,1128,-9.99389,-0.371371
-539,-104,-9.80377,0.312378,-0.00163677,-0.000449201,-0.000295143,-0.000379895,-0.00170608,-1.34015,0.00103428,0.0401943,685,1128,-9.80376,-0.312329
-532,-104,-9.83771,0.296143,-0.00144883,-0.000679067,0.00144273,0.000429237,-0.00255714,0.91575,0.00186438,0.0412279,692,1128,-9.83772,-0.296117
-525,-104,-10.0164,0.444336,-0.00425841,-0.00208074,0.00134931,-0.00143574,-0.00490341,1.12488,0.00291088,0.036025,699,1128,-10.0164,-0.444373
-518,-104,0,0,0,0,0,0,0,0,0,-1,706,1128,0,0
-511,-104,0,0,0,0,0,0,0,0,0,-1,713,1128,0,0
-504,-104,0,0,0,0,0,0,0,0,0,-1,720,1128,0,0
-497,-104,0,0,0,0,0,0,0,0,0,-1,727,1128,0,0
-490,-104,0,0,0,0,0,0,0,0,0,-1,734,1128,0,0
-483,-104,0,0,0,0,0,0,0,0,0,-1,741,1128,0,0
-476,-104,0,0,0,0,0,0,0,0,0,-1,748,1128,0,0
-469,-104,0,0,0,0,0,0,0,0,0,-1,755,1128,0,0
-462,-104,0,0,0,0,0,0,0,0,0,-1,762,1128,0,0
-455,-104,0,0,0,0,0,0,0,0,0,-1,769,1128,0,0
-448,-104,0,0,0,0,0,0,0,0,0,-1,776,1128,0,0
-441,-104,0,0,0,0,0,0,0,0,0,-1,783,1128,0,0
-434,-104,0,0,0,0,0,0,0,0,0,-1,790,1128,0,0
-427,-104,0,0,0,0,0,0,0,0,0,-1,797,1128,0,0
-420,-104,0,0,0,0,0,0,0,0,0,-1,804,1128,0,0
-413,-104,0,0,0,0,0,0,0,0,0,-1,811,1128,0,0
-406,-104,0,0,0,0,0,0,0,0,0,-1,818,1128,0,0
-399,-104,0,0,0,0,0,0,0,0,0,-1,825,1128,0,0
-392,-104,0,0,0,0,0,0,0,0,0,-1,832,1128,0,0
-385,-104,0,0,0,0,0,0,0,0,0,-1,839,1128,0,0
-378,-104,0,0,0,0,0,0,0,0,0,-1,846,1128,0,0
-371,-104,0,0,0,0,0,0,0,0,0,-1,853,1128,0,0
-364,-104,0,0,0,0,0,0,0,0,0,-1,860,1128,0,0
-357,-104,0,0,0,0,0,0,0,0,0,-1,867,1128,0,0
-350,-104,0,0,0,0,0,0,0,0,0,-1,874,1128,0,0
-343,-104,0,0,0,0,0,0,0,0,0,-1,881,1128,0,0
-336,-104,0,0,0,0,0,0,0,0,0,-1,888,1128,0,0
-329,-104,0,0,0,0,0,0,0,0,0,-1,895,1128,0,0
-322,-104,0,0,0,0,0,0,0,0,0,-1,902,1128,0,0
-315,-104,0,0,0,0,0,0,0,0,0,-1,909,1128,0,0
-308,-104,0,0,0,0,0,0,0,0,0,-1,916,1128,0,0
-301,-104,0,0,0,0,0,0,0,0,0,-1,923,1128,0,0
-294,-104,0,0,0,0,0,0,0,0,0,-1,930,1128,0,0
-287,-104,0,0,0,0,0,0,0,0,0,-1,937,1128,0,0
-280,-104,0,0,0,0,0,0,0,0,0,-1,944,1128,0,0
-273,-104,0,0,0,0,0,0,0,0,0,-1,951,1128,0,0
-266,-104,0,0,0,0,0,0,0,0,0,-1,958,1128,0,0
-259,-104,0,0,0,0,0,0,0,0,0,-1,965,1128,0,0
-252,-104,0,0,0,0,0,0,0,0,0,-1,972,1128,0,0
-245,-104,0,0,0,0,0,0,0,0,0,-1,979,1128,0,0
-238,-104,0,0,0,0,0,0,0,0,0,-1,986,1128,0,0
-231,-104,0,0,0,0,0,0,0,0,0,-1,993,1128,0,0
-224,-104,0,0,0,0,0,0,0,0,0,-1,1000,1128,0,0
-217,-104,0,0,0,0,0,0,0,0,0,-1,1007,1128,0,0
-210,-104,0,0,0,0,0,0,0,0,0,-1,1014,1128,0,0
-203,-104,0,0,0,0,0,0,0,0,0,-1,1021,1128,0,0
-196,-104,0,0,0,0,0,0,0,0,0,-1,1028,1128,0,0
-189,-104,0,0,0,0,0,0,0,0,0,-1,1035,1128,0,0
-182,-104,0,0,0,0,0,0,0,0,0,-1,1042,1128,0,0
-175,-104,0,0,0,0,0,0,0,0,0,-1,1049,1128,0,0
-168,-104,0,0,0,0,0,0,0,0,0,-1,1056,1128,0,0
-161,-104,0,0,0,0,0,0,0,0,0,-1,1063,1128,0,0
-154,-104,0,0,0,0,0,0,0,0,0,-1,1070,1128,0,0
-147,-104,0,0,0,0,0,0,0,0,0,-1,1077,1128,0,0
-140,-104,0,0,0,0,0,0,0,0,0,-1,1084,1128,0,0
-133,-104,0,0,0,0,0,0,0,0,0,-1,1091,1128,0,0
-126,-104,0,0,0,0,0,0,0,0,0,-1,1098,1128,0,0
-119,-104,0,0,0,0,0,0,0,0,0,-1,1105,1128,0,0
-112,-104,0,0,0,0,0,0,0,0,0,-1,1112,1128,0,0
-105,-104,0,0,0,0,0,0,0,0,0,-1,1119,1128,0,0
-98,-104,0,0,0,0,0,0,0,0,0,-1,1126,1128,0,0
-91,-104,0,0,0,0,0,0,0,0,0,-1,1133,1128,0,0
-84,-104,0,0,0,0,0,0,0,0,0,-1,1140,1128,0,0
-77,-104,0,0,0,0,0,0,0,0,0,-1,1147,1128,0,0
-70,-104,0,0,0,0,0,0,0,0,0,-1,1154,1128,0,0
-63,-104,0,0,0,0,0,0,0,0,0,-1,1161,1128,0,0
-56,-104,0,0,0,0,0,0,0,0,0,-1,1168,1128,0,0
-49,-104,0,0,0,0,0,0,0,0,0,-1,1175,1128,0,0
-42,-104,0,0,0,0,0,0,0,0,0,-1,1182,1128,0,0
-35,-104,0,0,0,0,0,0,0,0,0,-1,1189,1128,0,0
-28,-104,0,0,0,0,0,0,0,0,0,-1,1196,1128,0,0
-21,-104,0,0,0,0,0,0,0,0,0,-1,1203,1128,0,0
-14,-104,0,0,0,0,0,0,0,0,0,-1,1210,1128,0,0
-7,-104,0,0,0,0,0,0,0,0,0,-1,1217,1128,0,0
0,-104,0,0,0,0,0,0,0,0,0,-1,1224,1128,0,0
7,-104,0,0,0,0,0,0,0,0,0,-1,1231,1128,0,0
14,-104,0,0,0,0,0,0,0,0,0,-1,1238,1128,0,0
21,-104,0,0,0,0,0,0,0,0,0,-1,1245,1128,0,0
28,-104,0,0,0,0,0,0,0,0,0,-1,1252,1128,0,0
35,-104,0,0,0,0,0,0,0,0,0,-1,1259,1128,0,0
42,-104,0,0,0,0,0,0,0,0,0,-1,1266,1128,0,0
49,-104,0,0,0,0,0,0,0,0,0,-1,1273,1128,0,0
56,-104,0,0,0,0,0,0,0,0,0,-1,1280,1128,0,0
63,-104,0,0,0,0,0,0,0,0,0,-1,1287,1128,0,0
70,-104,0,0,0,0,0,0,0,0,0,-1,1294,1128,0,0
77,-104,0,0,0,0,0,0,0,0,0,-1,1301,1128,0,0
84,-104,0,0,0,0,0,0,0,0,0,-1,1308,1128,0,0
91,-104,0,0,0,0,0,0,0,0,0,-1,1315,1128,0,0
98,-104,0,0,0,0,0,0,0,0,0,-1,1322,1128,0,0
105,-104,0,0,0,0,0,0,0,0,0,-1,1329,1128,0,0
112,-104,0,0,0,0,0,0,0,0,0,-1,1336,1128,0,0
119,-104,0,0,0,0,0,0,0,0,0,-1,1343,1128,0,0
126,-104,0,0,0,0,0,0,0,0,0,-1,1350,1128,0,0
133,-104,0,0,0,0,0,0,0,0,0,-1,1357,1128,0,0
140,-104,0,0,0,0,0,0,0,0,0,-1,1364,1128,0,0
147,-104,0,0,0,0,0,0,0,0,0,-1,1371,1128,0,0
154,-104,0,0,0,0,0,0,0,0,0,-1,1378,1128,0,0
161,-104,0,0,0,0,0,0,0,0,0,-1,1385,1128,0,0
168,-104,0,0,0,0,0,0,0,0,0,-1,1392,1128,0,0
175,-104,0,0,0,0,0,0,0,0,0,-1,1399,1128,0,0
182,-104,0,0,0,0,0,0,0,0,0,-1,1406,1128,0,0
189,-104,0,0,0,0,0,0,0,0,0,-1,1413,1128,0,0
196,-104,0,0,0,0,0,0,0,0,0,-1,1420,1128,0,0
203,-104,0,0,0,0,0,0,0,0,0,-1,1427,1128,0,0
210,-104,0,0,0,0,0,0,0,0,0,-1,1434,1128,0,0
217,-104,0,0,0,0,0,0,0,0,0,-1,1441,1128,0,0
224,-104,0,0,0,0,0,0,0,0,0,-1,1448,1128,0,0
231,-104,0,0,0,0,0,0,0,0,0,-1,1455,1128,0,0
238,-104,0,0,0,0,0,0,0,0,0,-1,1462,1128,0,0
245,-104,0,0,0,0,0,0,0,0,0,-1,1469,1128,0,0
252,-104,0,0,0,0,0,0,0,0,0,-1,1476,1128,0,0
259,-104,0,0,0,0,0,0,0,0,0,-1,1483,1128,0,0
266,-104,0,0,0,0,0,0,0,0,0,-1,1490,1128,0,0
273,-104,0,0,0,0,0,0,0,0,0,-1,1497,1128,0,0
280,-104,0,0,0,0,0,0,0,0,0,-1,1504,1128,0,0
287,-104,0,0,0,0,0,0,0,0,0,-1,1511,1128,0,0
294,-104,0,0,0,0,0,0,0,0,0,-1,1518,1128,0,0
301,-104,0,0,0,0,0,0,0,0,0,-1,1525,1128,0,0
308,-104,0,0,0,0,0,0,0,0,0,-1,1532,1128,0,0
315,-104,0,0,0,0,0,0,0,0,0,-1,1539,1128,0,0
322,-104,0,0,0,0,0,0,0,0,0,-1,1546,1128,0,0
329,-104,0,0,0,0,0,0,0,0,0,-1,1553,1128,0,0
336,-104,0,0,0,0,0,0,0,0,0,-1,1560,1128,0,0
343,-104,0,0,0,0,0,0,0,0,0,-1,1567,1128,0,0
350,-104,0,0,0,0,0,0,0,0,0,-1,1574,1128,0,0
357,-104,0,0,0,0,0,0,0,0,0,-1,1581,1128,0,0
364,-104,0,0,0,0,0,0,0,0,0,-1,1588,1128,0,0
371,-104,0,0,0,0,0,0,0,0,0,-1,1595,1128,0,0
378,-104,0,0,0,0,0,0,0,0,0,-1,1602,1128,0,0
385,-104,0,0,0,0,0,0,0,0,0,-1,1609,1128,0,0
392,-104,0,0,0,0,0,0,0,0,0,-1,1616,1128,0,0
399,-104,0,0,0,0,0,0,0,0,0,-1,1623,1128,0,0
406,-104,0,0,0,0,0,0,0,0,0,-1,1630,1128,0,0
413,-104,0,0,0,0,0,0,0,0,0,-1,1637,1128,0,0
420,-104,0,0,0,0,0,0,0,0,0,-1,1644,1128,0,0
427,-104,0,0,0,0,0,0,0,0,0,-1,1651,1128,0,0
434,-104,0,0,0,0,0,0,0,0,0,-1,1658,1128,0,0
441,-104,0,0,0,0,0,0,0,0,0,-1,1665,1128,0,0
448,-104,0,0,0,0,0,0,0,0,0,-1,1672,1128,0,0
455,-104,0,0,0,0,0,0,0,0,0,-1,1679,1128,0,0
462,-104,0,0,0,0,0,0,0,0,0,-1,1686,1128,0,0
469,-104,0,0,0,0,0,0,0,0,0,-1,1693,1128,0,0
476,-104,0,0,0,0,0,0,0,0,0,-1,1700,1128,0,0
483,-104,0,0,0,0,0,0,0,0,0,-1,1707,1128,0,0
490,-104,0,0,0,0,0,0,0,0,0,-1,1714,1128,0,0
497,-104,0,0,0,0,0,0,0,0,0,-1,1721,1128,0,0
504,-104,0,0,0,0,0,0,0,0,0,-1,1728,1128,0,0
511,-104,0,0,0,0,0,0,0,0,0,-1,1735,1128,0,0
518,-104,0,0,0,0,0,0,0,0,0,-1,1742,1128,0,0
525,-104,0,0,0,0,0,0,0,0,0,-1,1749,1128,0,0
532,-104,0,0,0,0,0,0,0,0,0,-1,1756,1128,0,0
539,-104,0,0,0,0,0,0,0,0,0,-1,1763,1128,0,0
546,-104,0,0,0,0,0,0,0,0,0,-1,1770,1128,0,0
553,-104,0,0,0,0,0,0,0,0,0,-1,1777,1128,0,0
560,-104,0,0,0,0,0,0,0,0,0,-1,1784,1128,0,0
567,-104,0,0,0,0,0,0,0,0,0,-1,1791,1128,0,0
574,-104,0,0,0,0,0,0,0,0,0,-1,1798,1128,0,0
581,-104,0,0,0,0,0,0,0,0,0,-1,1805,1128,0,0
588,-104,0,0,0,0,0,0,0,0,0,-1,1812,1128,0,0
595,-104,0,0,0,0,0,0,0,0,0,-1,1819,1128,0,0
602,-104,0,0,0,0,0,0,0,0,0,-1,1826,1128,0,0
609,-104,0,0,0,0,0,0,0,0,0,-1,1833,1128,0,0
616,-104,0,0,0,0,0,0,0,0,0,-1,1840,1128,0,0
623,-104,0,0,0,0,0,0,0,0,0,-1,1847,1128,0,0
630,-104,0,0,0,0,0,0,0,0,0,-1,1854,1128,0,0
637,-104,0,0,0,0,0,0,0,0,0,-1,1861,1128,0,0
644,-104,16.1306,2.55688,0.00283789,-0.000811108,-0.00415346,0.00554991,-0.00352313,-0.578449,0.00528171,0.0363631,1868,1128,16.1306,-2.55689
651,-104,16.1852,2.36633,0.00211804,-0.000141498,-0.00254494,0.00377271,-0.00179617,-0.576502,0.003282,0.0375253,1875,1128,16.1852,-2.36638
658,-104,16.1133,2.0592,0.00163759,0.000353401,-0.00162693,0.00274455,-0.000753561,-0.597448,0.00212588,0.0423182,1882,1128,16.1133,-2.05921
665,-104,16.1382,2.05811,0.000906755,0.000565773,-0.000766449,0.00152145,-4.8918e-05,-0.675959,0.00103099,0.0438606,1889,1128,16.1382,-2.05806
672,-104,16.3811,2.34924,-0.000582807,0.000220077,0.000642736,0.000576438,-0.000939167,1.06455,0.000883349,0.0433299,1896,1128,16.3811,-2.34919
679,-104,16.2865,2.29761,-0.00218347,-0.000278319,0.00197216,0.00095927,-0.00342106,1.01038,0.00265878,0.0407523,1903,1128,16.2865,-2.29755
686,-104,16.0692,2.21252,-0.00361505,-0.000818577,0.00310608,0.00118948,-0.00562311,0.996892,0.00420173,0.039665,1910,1128,16.0692,-2.21258
693,-104,16.0403,2.13379,-0.00474419,-0.0012882,0.00402281,0.00136204,-0.00739443,0.988258,0.00544076,0.0350321,1917,1128,16.0403,-2.13376
700,-104,16.073,2.17407,-0.00558337,-0.00161257,0.00478067,0.00157858,-0.00877452,0.98221,0.00644068,0.0251141,1924,1128,16.073,-2.17407
707,-104,16.1351,2.30859,0,0,0,0,0,0,0,-1,1931,1128,16.1351,-2.30858
714,-104,15.879,2.85437,-0.00645923,-0.00210045,0.00557474,0.00170576,-0.0102654,0.971734,0.00747735,0.030715,1938,1128,15.8791,-2.85436
721,-104,15.5625,3.38208,-0.00654952,-0.0021382,0.00549907,0.00158106,-0.0102688,0.976124,0.00742917,0.0191489,1945,1128,15.5625,-3.38206
728,-104,15.5564,3.32715,-0.00642009,-0.00195035,0.00507383,0.001359,-0.00972944,0.992849,0.00698351,0.0212877,1952,1128,15.5564,-3.3271
735,-104,15.5355,3.26086,-0.00630443,-0.00169158,0.00432334,0.000902088,-0.00889809,1.03043,0.00625448,0.0212249,1959,1128,15.5355,-3.2609
742,-104,15.4813,3.22681,-0.00680271,-0.000887469,0.00345091,0.000699826,-0.00839001,1.13969,0.00584061,0.014034,1966,1128,15.4813,-3.22675
749,-104,15.485,3.18176,-0.00765561,-0.000173389,0.00257658,0.000628043,-0.00845704,1.26924,0.00585861,0.0166289,1973,1128,15.485,-3.18175
756,-104,15.5153,3.11328,-0.00970237,0.00153803,0.00169608,0.00178837,-0.00995272,1.42425,0.00730461,0.0157262,1980,1128,15.5152,-3.11327
763,-104,15.5217,3.08057,-0.0131872,0.00401601,0.000849673,0.00405788,-0.013229,1.52157,0.0104383,0.0136757,1987,1128,15.5217,-3.08059
770,-104,15.5109,3.03992,-0.0172484,0.00666131,9.29723e-05,0.00666167,-0.0172487,1.56691,0.0142486,0.0115458,1994,1128,15.5109,-3.03989
777,-104,15.5243,2.98389,-0.0232102,0.00972805,0.000164814,0.00972888,-0.0232111,1.56579,0.0195417,0.0178473,2001,1128,15.5242,-2.98386
784,-104,15.3903,2.74268,-0.0310366,0.0135953,0.000970577,0.0136164,-0.0310577,1.54906,0.0264397,0.0345257,2008,1128,15.3903,-2.74265
791,-104,14.7542,2.48584,-0.0405532,0.0185984,0.00236429,0.0186927,-0.0406476,1.53091,0.035033,0.0436623,2015,1128,14.7542,-2.48584
798,-104,14.5999,2.42358,-0.0516979,0.0250219,0.00450021,0.025285,-0.0519609,1.51241,0.0454758,0.0475653,2022,1128,14.5999,-2.42353
805,-104,14.7909,2.46204,0,0,0,0,0,0,0,-1,2029,1128,14.7909,-2.46207
812,-104,14.667,2.41858,0,0,0,0,0,0,0,-1,2036,1128,14.6671,-2.41855
-700,-111,0,0,0,0,0,0,0,0,0,-1,524,1135,0,0
-693,-111,-16.3353,-3.6626,0,0,0,0,0,0,0,-1,531,1135,-16.3353,3.66259
-686,-111,-15.5742,-2.64771,0,0,0,0,0,0,0,-1,538,1135,-15.5742,2.64776
-679,-111,-14.4213,-1.44824,0,0,0,0,0,0,0,-1,545,1135,-14.4213,1.44829
-672,-111,-8.57727,-0.232666,0,0,0,0,0,0,0,-1,552,1135,-8.57727,0.232721
-665,-111,-8.88367,0.0562744,0.147416,0.0470827,0.0234325,0.152619,0.0418799,0.218489,0.0910548,0.0481374,559,1135,-8.88368,-0.0563322
-658,-111,-8.99048,0.291748,0,0,0,0,0,0,0,-1,566,1135,-8.99047,-0.291764
-651,-111,-9.22614,0.508667,0.0828146,0.0264638,0.012777,0.0855763,0.0237021,0.212872,0.0510196,0.0387802,573,1135,-9.22613,-0.508617
-644,-111,-9.3291,0.72644,0.0577972,0.0186605,0.00894502,0.0597448,0.0167129,0.214378,0.0355918,0.0231482,580,1135,-9.32909,-0.726442
-637,-111,-9.37756,0.832764,0.038369,0.0122748,0.00476951,0.0392134,0.0114303,0.175235,0.0232868,0.00890109,587,1135,-9.37757,-0.832795
-630,-111,-9.37421,0.86792,0.022981,0.00738713,0.00177972,0.0231815,0.00718659,0.112207,0.0137021,0.0131253,594,1135,-9.37419,-0.867883
-623,-111,-9.37512,0.961914,0.00940189,0.00332683,0.00130464,0.00967021,0.00305851,0.202841,0.00570735,0.0116993,601,1135,-9.37512,-0.961954
-616,-111,-9.3999,1.04053,0.000767531,0.00134324,-0.00188244,0.00295971,-0.000848942,-0.861268,0.00230875,0.0124105,608,1135,-9.3999,-1.04057
-609,-111,-9.43384,1.11902,-0.00386796,-0.000526848,-0.0037187,0.00187929,-0.0062741,-0.996506,0.00493004,0.0151543,615,1135,-9.43383,-1.119
-602,-111,-9.39258,1.19214,-0.00469433,-0.000710353,-0.00480214,0.00249656,-0.00790124,-0.982003,0.00626767,0.0143532,622,1135,-9.3926,-1.19208
-595,-111,-9.38031,1.29602,-0.00532088,-0.00092717,-0.005734,0.00301641,-0.00926446,-0.968337,0.00738991,0.0121178,629,1135,-9.38034,-1.296
-588,-111,-9.36664,1.39514,-0.00579236,-0.00103178,-0.00637417,0.00339203,-0.0102162,-0.964094,0.00817937,0.0235791,636,1135,-9.36661,-1.39512
-581,-111,-9.6048,0.937988,-0.00608277,-0.00102532,-0.00661341,0.00352632,-0.0106344,-0.968003,0.00851211,0.0370114,643,1135,-9.60481,-0.937986
-574,-111,-9.85541,0.297974,-0.0061652,-0.000960229,-0.006524,0.0034612,-0.0105866,-0.975181,0.00845115,0.0451369,650,1135,-9.85541,-0.29798
-567,-111,-9.85504,0.326904,-0.00587999,-0.00079948,-0.00615192,0.00331602,-0.00999549,-0.981196,0.00800141,0.0383518,657,1135,-9.85502,-0.326958
-560,-111,-9.98273,0.597046,-0.00525213,-0.000566372,-0.00533248,0.00291522,-0.00873372,-0.992383,0.00699959,0.039035,664,1135,-9.9827,-0.597061
-553,-111,-10.158,0.556152,-0.00430627,-0.000308624,-0.00404837,0.00220748,-0.00682237,-1.01471,0.0054356,0.0435698,671,1135,-10.158,-0.556094
-546,-111,-9.99213,0.362793,-0.00315035,-9.04901e-05,-0.00229655,0.00113908,-0.00437992,-1.07923,0.00336454,0.0394607,678,1135,-9.99213,-0.362829
-539,-111,-9.79059,0.465698,-0.00185724,1.35315e-06,-8.17173e-05,4.93909e-06,-0.00186083,-1.52694,0.0012422,0.0384184,685,1135,-9.79062,-0.465748
-532,-111,-9.91046,0.472778,-0.00112966,-0.000202048,0.0020711,0.00145654,-0.00278825,0.895552,0.00249061,0.0418799,692,1135,-9.91044,-0.472739
-525,-111,-10.0908,0.53125,-0.00318601,-0.00158306,0.00251582,0.000255863,-0.00502494,0.939602,0.00343842,0.038469,699,1135,-10.0908,-0.531229
-518,-111,0,0,0,0,0,0,0,0,0,-1,706,1135,0,0
-511,-111,0,0,0,0,0,0,0,0,0,-1,713,1135,0,0
-504,-111,0,0,0,0,0,0,0,0,0,-1,720,1135,0,0
-497,-111,0,0,0,0,0,0,0,0,0,-1,727,1135,0,0
-490,-111,0,0,0,0,0,0,0,0,0,-1,734,1135,0,0
-483,-111,0,0,0,0,0,0,0,0,0,-1,741,1135,0,0
-476,-111,0,0,0,0,0,0,0,0,0,-1,748,1135,0,0
-469,-111,0,0,0,0,0,0,0,0,0,-1,755,1135,0,0
-462,-111,0,0,0,0,0,0,0,0,0,-1,762,1135,0,0
-455,-111,0,0,0,0,0,0,0,0,0,-1,769,1135,0,0
-448,-111,0,0,0,0,0,0,0,0,0,-1,776,1135,0,0
-441,-111,0,0,0,0,0,0,0,0,0,-1,783,1135,0,0
-434,-111,0,0,0,0,0,0,0,0,0,-1,790,1135,0,0
-427,-111,0,0,0,0,0,0,0,0,0,-1,797,1135,0,0
-420,-111,0,0,0,0,0,0,0,0,0,-1,804,1135,0,0
-413,-111,0,0,0,0,0,0,0,0,0,-1,811,1135,0,0
-406,-111,0,0,0,0,0,0,0,0,0,-1,818,1135,0,0
-399,-111,0,0,0,0,0,0,0,0,0,-1,825,1135,0,0
-392,-111,0,0,0,0,0,0,0,0,0,-1,832,1135,0,0
-385,-111,0,0,0,0,0,0,0,0,0,-1,839,1135,0,0
-378,-111,0,0,0,0,0,0,0,0,0,-1,846,1135,0,0
-371,-111,0,0,0,0,0,0,0,0,0,-1,853,1135,0,0
-364,-111,0,0,0,0,0,0,0,0,0,-1,860,1135,0,0
-357,-111,0,0,0,0,0,0,0,0,0,-1,867,1135,0,0
-350,-111,0,0,0,0,0,0,0,0,0,-1,874,1135,0,0
-343,-111,0,0,0,0,0,0,0,0,0,-1,881,1135,0,0
-336,-111,0,0,0,0,0,0,0,0,0,-1,888,1135,0,0
-329,-111,0,0,0,0,0,0,0,0,0,-1,895,1135,0,0
-322,-111,0,0,0,0,0,0,0,0,0,-1,902,1135,0,0
-315,-111,0,0,0,0,0,0,0,0,0,-1,909,1135,0,0
-308,-111,0,0,0,0,0,0,0,0,0,-1,916,1135,0,0
-301,-111,0,0,0,0,0,0,0,0,0,-1,923,1135,0,0
-294,-111,0,0,0,0,0,0,0,0,0,-1,930,1135,0,0
-287,-111,0,0,0,0,0,0,0,0,0,-1,937,1135,0,0
-280,-111,0,0,0,0,0,0,0,0,0,-1,944,1135,0,0
-273,-111,0,0,0,0,0,0,0,0,0,-1,951,1135,0,0
-266,-111,0,0,0,0,0,0,0,0,0,-1,958,1135,0,0
-259,-111,0,0,0,0,0,0,0,0,0,-1,965,1135,0,0
-252,-111,0,0,0,0,0,0,0,0,0,-1,972,1135,0,0
-245,-111,0,0,0,0,0,0,0,0,0,-1,979,1135,0,0
-238,-111,0,0,0,0,0,0,0,0,0,-1,986,1135,0,0
-231,-111,0,0,0,0,0,0,0,0,0,-1,993,1135,0,0
-224,-111,0,0,0,0,0,0,0,0,0,-1,1000,1135,0,0
-217,-111,0,0,0,0,0,0,0,0,0,-1,1007,1135,0,0
-210,-111,0,0,0,0,0,0,0,0,0,-1,1014,1135,0,0
-203,-111,0,0,0,0,0,0,0,0,0,-1,1021,1135,0,0
-196,-111,0,0,0,0,0,0,0,0,0,-1,1028,1135,0,0
-189,-111,0,0,0,0,0,0,0,0,0,-1,1035,1135,0,0
-182,-111,0,0,0,0,0,0,0,0,0,-1,1042,1135,0,0
-175,-111,0,0,0,0,0,0,0,0,0,-1,1049,1135,0,0
-168,-111,0,0,0,0,0,0,0,0,0,-1,1056,1135,0,0
-161,-111,0,0,0,0,0,0,0,0,0,-1,1063,1135,0,0
-154,-111,0,0,0,0,0,0,0,0,0,-1,1070,1135,0,0
-147,-111,0,0,0,0,0,0,0,0,0,-1,1077,1135,0,0
-140,-111,0,0,0,0,0,0,0,0,0,-1,1084,1135,0,0
-133,-111,0,0,0,0,0,0,0,0,0,-1,1091,1135,0,0
-126,-111,0,0,0,0,0,0,0,0,0,-1,1098,1135,0,0
-119,-111,0,0,0,0,0,0,0,0,0,-1,1105,1135,0,0
-112,-111,0,0,0,0,0,0,0,0,0,-1,1112,1135,0,0
-105,-111,0,0,0,0,0,0,0,0,0,-1,1119,1135,0,0
-98,-111,0,0,0,0,0,0,0,0,0,-1,1126,1135,0,0
-91,-111,0,0,0,0,0,0,0,0,0,-1,1133,1135,0,0
-84,-111,0,0,0,0,0,0,0,0,0,-1,1140,1135,0,0
-77,-111,0,0,0,0,0,0,0,0,0,-1,1147,1135,0,0
-70,-111,0,0,0,0,0,0,0,0,0,-1,1154,1135,0,0
-63,-111,0,0,0,0,0,0,0,0,0,-1,1161,1135,0,0
-56,-111,0,0,0,0,0,0,0,0,0,-1,1168,1135,0,0
-49,-111,0,0,0,0,0,0,0,0,0,-1,1175,1135,0,0
-42,-111,0,0,0,0,0,0,0,0,0,-1,1182,1135,0,0
-35,-111,0,0,0,0,0,0,0,0,0,-1,1189,1135,0,0
-28,-111,0,0,0,0,0,0,0,0,0,-1,1196,1135,0,0
-21,-111,0,0,0,0,0,0,0,0,0,-1,1203,1135,0,0
-14,-111,0,0,0,0,0,0,0,0,0,-1,1210,1135,0,0
-7,-111,0,0,0,0,0,0,0,0,0,-1,1217,1135,0,0
0,-111,0,0,0,0,0,0,0,0,0,-1,1224,1135,0,0
7,-111,0,0,0,0,0,0,0,0,0,-1,1231,1135,0,0
14,-111,0,0,0,0,0,0,0,0,0,-1,1238,1135,0,0
21,-111,0,0,0,0,0,0,0,0,0,-1,1245,1135,0,0
28,-111,0,0,0,0,0,0,0,0,0,-1,1252,1135,0,0
35,-111,0,0,0,0,0,0,0,0,0,-1,1259,1135,0,0
42,-111,0,0,0,0,0,0,0,0,0,-1,1266,1135,0,0
49,-111,0,0,0,0,0,0,0,0,0,-1,1273,1135,0,0
56,-111,0,0,0,0,0,0,0,0,0,-1,1280,1135,0,0
63,-111,0,0,0,0,0,0,0,0,0,-1,1287,1135,0,0
70,-111,0,0,0,0,0,0,0,0,0,-1,1294,1135,0,0
77,-111,0,0,0,0,0,0,0,0,0,-1,1301,1135,0,0
84,-111,0,0,0,0,0,0,0,0,0,-1,1308,1135,0,0
91,-111,0,0,0,0,0,0,0,0,0,-1,1315,1135,0,0
98,-111,0,0,0,0,0,0,0,0,0,-1,1322,1135,0,0
105,-111,0,0,0,0,0,0,0,0,0,-1,1329,1135,0,0
112,-111,0,0,0,0,0,0,0,0,0,-1,1336,1135,0,0
119,-111,0,0,0,0,0,0,0,0,0,-1,1343,1135,0,0
126,-111,0,0,0,0,0,0,0,0,0,-1,1350,1135,0,0
133,-111,0,0,0,0,0,0,0,0,0,-1,1357,1135,0,0
140,-111,0,0,0,0,0,0,0,0,0,-1,1364,1135,0,0
147,-111,0,0,0,0,0,0,0,0,0,-1,1371,1135,0,0
154,-111,0,0,0,0,0,0,0,0,0,-1,1378,1135,0,0
161,-111,0,0,0,0,0,0,0,0,0,-1,1385,1135,0,0
168,-111,0,0,0,0,0,0,0,0,0,-1,1392,1135,0,0
175,-111,0,0,0,0,0,0,0,0,0,-1,1399,1135,0,0
182,-111,0,0,0,0,0,0,0,0,0,-1,1406,1135,0,0
189,-111,0,0,0,0,0,0,0,0,0,-1,1413,1135,0,0
196,-111,0,0,0,0,0,0,0,0,0,-1,1420,1135,0,0
203,-111,0,0,0,0,0,0,0,0,0,-1,1427,1135,0,0
210,-111,0,0,0,0,0,0,0,0,0,-1,1434,1135,0,0
217,-111,0,0,0,0,0,0,0,0,0,-1,1441,1135,0,0
224,-111,0,0,0,0,0,0,0,0,0,-1,1448,1135,0,0
231,-111,0,0,0,0,0,0,0,0,0,-1,1455,1135,0,0
238,-111,0,0,0,0,0,0,0,0,0,-1,1462,1135,0,0
245,-111,0,0,0,0,0,0,0,0,0,-1,1469,1135,0,0
252,-111,0,0,0,0,0,0,0,0,0,-1,1476,1135,0,0
259,-111,0,0,0,0,0,0,0,0,0,-1,1483,1135,0,0
266,-111,0,0,0,0,0,0,0,0,0,-1,1490,1135,0,0
273,-111,0,0,0,0,0,0,0,0,0,-1,1497,1135,0,0
280,-111,0,0,0,0,0,0,0,0,0,-1,1504,1135,0,0
287,-111,0,0,0,0,0,0,0,0,0,-1,1511,1135,0,0
294,-111,0,0,0,0,0,0,0,0,0,-1,1518,1135,0,0
301,-111,0,0,0,0,0,0,0,0,0,-1,1525,1135,0,0
308,-111,0,0,0,0,0,0,0,0,0,-1,1532,1135,0,0
315,-111,0,0,0,0,0,0,0,0,0,-1,1539,1135,0,0
322,-111,0,0,0,0,0,0,0,0,0,-1,1546,1135,0,0
329,-111,0,0,0,0,0,0,0,0,0,-1,1553,1135,0,0
336,-111,0,0,0,0,0,0,0,0,0,-1,1560,1135,0,0
343,-111,0,0,0,0,0,0,0,0,0,-1,1567,1135,0,0
350,-111,0,0,0,0,0,0,0,0,0,-1,1574,1135,0,0
357,-111,0,0,0,0,0,0,0,0,0,-1,1581,1135,0,0
364,-111,0,0,0,0,0,0,0,0,0,-1,1588,1135,0,0
371,-111,0,0,0,0,0,0,0,0,0,-1,1595,1135,0,0
378,-111,0,0,0,0,0,0,0,0,0,-1,1602,1135,0,0
385,-111,0,0,0,0,0,0,0,0,0,-1,1609,1135,0,0
392,-111,0,0,0,0,0,0,0,0,0,-1,1616,1135,0,0
399,-111,0,0,0,0,0,0,0,0,0,-1,1623,1135,0,0
406,-111,0,0,0,0,0,0,0,0,0,-1,1630,1135,0,0
413,-111,0,0,0,0,0,0,0,0,0,-1,1637,1135,0,0
420,-111,0,0,0,0,0,0,0,0,0,-1,1644,1135,0,0
427,-111,0,0,0,0,0,0,0,0,0,-1,1651,1135,0,0
434,-111,0,0,0,0,0,0,0,0,0,-1,1658,1135,0,0
441,-111,0,0,0,0,0,0,0,0,0,-1,1665,1135,0,0
448,-111,0,0,0,0,0,0,0,0,0,-1,1672,1135,0,0
455,-111,0,0,0,0,0,0,0,0,0,-1,1679,1135,0,0
462,-111,0,0,0,0,0,0,0,0,0,-1,1686,1135,0,0
469,-111,0,0,0,0,0,0,0,0,0,-1,1693,1135,0,0
476,-111,0,0,0,0,0,0,0,0,0,-1,1700,1135,0,0
483,-111,0,0,0,0,0,0,0,0,0,-1,1707,1135,0,0
490,-111,0,0,0,0,0,0,0,0,0,-1,1714,1135,0,0
497,-111,0,0,0,0,0,0,0,0,0,-1,1721,1135,0,0
504,-111,0,0,0,0,0,0,0,0,0,-1,1728,1135,0,0
511,-111,0,0,0,0,0,0,0,0,0,-1,1735,1135,0,0
518,-111,0,0,0,0,0,0,0,0,0,-1,1742,1135,0,0
525,-111,0,0,0,0,0,0,0,0,0,-1,1749,1135,0,0
532,-111,0,0,0,0,0,0,0,0,0,-1,1756,1135,0,0
539,-111,0,0,0,0,0,0,0,0,0,-1,1763,1135,0,0
546,-111,0,0,0,0,0,0,0,0,0,-1,1770,1135,0,0
553,-111,0,0,0,0,0,0,0,0,0,-1,1777,1135,0,0
560,-111,0,0,0,0,0,0,0,0,0,-1,1784,1135,0,0
567,-111,0,0,0,0,0,0,0,0,0,-1,1791,1135,0,0
574,-111,0,0,0,0,0,0,0,0,0,-1,1798,1135,0,0
581,-111,0,0,0,0,0,0,0,0,0,-1,1805,1135,0,0
588,-111,0,0,0,0,0,0,0,0,0,-1,1812,1135,0,0
595,-111,0,0,0,0,0,0,0,0,0,-1,1819,1135,0,0
602,-111,0,0,0,0,0,0,0,0,0,-1,1826,1135,0,0
609,-111,0,0,0,0,0,0,0,0,0,-1,1833,1135,0,0
616,-111,0,0,0,0,0,0,0,0,0,-1,1840,1135,0,0
623,-111,0,0,0,0,0,0,0,0,0,-1,1847,1135,0,0
630,-111,0,0,0,0,0,0,0,0,0,-1,1854,1135,0,0
637,-111,0,0,0,0,0,0,0,0,0,-1,1861,1135,0,0
644,-111,16.2438,2.56433,0.00205017,-0.00107218,-0.00336855,0.00420173,-0.00322374,-0.568405,0.00429947,0.039689,1868,1135,16.2438,-2.56431
651,-111,16.1753,2.36877,0.00164106,-0.000365076,-0.00195122,0.00283194,-0.00155595,-0.547976,0.00256881,0.0404312,1875,1135,16.1753,-2.36872
658,-111,16.0493,2.27637,0.00134427,0.000151013,-0.00115917,0.00205135,-0.000556058,-0.547727,0.00158575,0.043949,1882,1135,16.0494,-2.27631
665,-111,16.2087,2.2323,0.000663277,0.000353547,-0.000341956,0.000883801,0.000133023,-0.572775,0.000550246,0.042979,1889,1135,16.2088,-2.23225
672,-111,16.3735,2.32007,-0.000768083,3.20908e-05,0.000960564,0.000672559,-0.00140855,0.982728,0.00122632,0.0413486,1896,1135,16.3736,-2.32005
679,-111,16.2339,2.2522,-0.00228752,-0.000430497,0.00215766,0.000989952,-0.00370797,0.988588,0.00285966,0.0392137,1903,1135,16.2339,-2.25217
686,-111,16.0781,2.25134,-0.00366684,-0.000941068,0.00318454,0.00115997,-0.00576788,0.98759,0.00428457,0.0365914,1910,1135,16.0781,-2.25137
693,-111,16.0487,2.28857,-0.00476702,-0.001367,0.00400498,0.00128384,-0.00741786,0.98611,0.00542407,0.0331175,1917,1135,16.0487,-2.28853
700,-111,16.1113,2.28613,-0.00557832,-0.00166854,0.00472076,0.00148609,-0.00873295,0.981701,0.00637532,0.0248618,1924,1135,16.1114,-2.28614
707,-111,16.0719,2.39771,0,0,0,0,0,0,0,-1,1931,1135,16.0719,-2.39775
714,-111,15.7476,2.91577,-0.00643829,-0.00212021,0.00539905,0.00153549,-0.010094,0.975605,0.00729522,0.0204015,1938,1135,15.7475,-2.91575
721,-111,15.4865,3.37073,-0.00654686,-0.00217283,0.00529865,0.0013724,-0.0100921,0.981123,0.00722909,0.0127899,1945,1135,15.4865,-3.37076
728,-111,15.4894,3.30542,-0.00639577,-0.00195767,0.00487538,0.00117991,-0.00953336,0.998964,0.00678317,0.015786,1952,1135,15.4894,-3.30545
735,-111,15.4797,3.24609,-0.00619679,-0.00170828,0.00409831,0.00072003,-0.0086251,1.0359,0.00600448,0.015545,1959,1135,15.4798,-3.24605
742,-111,15.4579,3.22986,-0.00650611,-0.000895126,0.00321948,0.000569723,-0.00797096,1.1438,0.0055137,0.0108657,1966,1135,15.4578,-3.22989
749,-111,15.443,3.18323,-0.007156,-3.97617e-05,0.00246478,0.000730555,-0.00792632,1.26788,0.0055438,0.0135759,1973,1135,15.443,-3.18321
756,-111,15.4476,3.11646,-0.00892488,0.00178654,0.00183194,0.00209119,-0.00922952,1.40601,0.00695566,0.0142418,1980,1135,15.4476,-3.11649
763,-111,15.4542,3.07068,-0.0119387,0.00444516,0.00126832,0.00454276,-0.0120363,1.49399,0.00989245,0.0127656,1987,1135,15.4542,-3.07066
770,-111,15.4569,3.03271,-0.0154803,0.00724952,0.000879629,0.00728351,-0.0155143,1.53217,0.0134452,0.0105928,1994,1135,15.457,-3.03266
777,-111,15.4484,2.95886,-0.0208102,0.0105654,0.00141145,0.0106288,-0.0208735,1.52593,0.0185057,0.0210932,2001,1135,15.4484,-2.95887
784,-111,15.2313,2.453,-0.027828,0.0148036,0.00278902,0.0149853,-0.0280097,1.50574,0.0252,0.0379166,2008,1135,15.2313,-2.45299
791,-111,14.7711,2.06812,-0.0363633,0.0202949,0.00493638,0.0207218,-0.0367902,1.48454,0.0336338,0.0457198,2015,1135,14.7711,-2.06807
798,-111,14.3042,1.89307,0,0,0,0,0,0,0,-1,2022,1135,14.3041,-1.89309
805,-111,14.7697,2.28101,0,0,0,0,0,0,0,-1,2029,1135,14.7696,-2.28101
812,-111,16.5393,4.98926,0,0,0,0,0,0,0,-1,2036,1135,16.5392,-4.98923
-700,-118,0,0,0,0,0,0,0,0,0,-1,524,1142,0,0
-693,-118,-16.9807,-3.92639,0,0,0,0,0,0,0,-1,531,1142,-16.9806,3.92634
-686,-118,-16.2215,-2.55176,0,0,0,0,0,0,0,-1,538,1142,-16.2215,2.55175
-679,-118,-15.034,-1.34753,0,0,0,0,0,0,0,-1,545,1142,-15.034,1.34757
-672,-118,-13.8466,-0.143433,0,0,0,0,0,0,0,-1,552,1142,-13.8465,0.143385
-665,-118,-9.49249,-0.65979,0,0,0,0,0,0,0,-1,559,1142,-9.4925,0.659806
-658,-118,-9.18445,0.330444,0,0,0,0,0,0,0,-1,566,1142,-9.18444,-0.330427
-651,-118,-9.19653,0.52063,0.0798471,0.0273142,0.00976685,0.0816042,0.0255571,0.177997,0.0481979,0.039968,573,1142,-9.19654,-0.520658
-644,-118,-9.22534,0.731323,0.0555849,0.0192423,0.00703473,0.0568991,0.0179281,0.184683,0.0335912,0.0259139,580,1142,-9.22534,-0.731285
-637,-118,-9.27405,0.83728,0.0368251,0.0127426,0.00381877,0.0374161,0.0121516,0.153554,0.02204,0.0145295,587,1142,-9.27403,-0.837257
-630,-118,-9.29712,0.877441,0.0220548,0.0077623,0.00134058,0.0221794,0.00763765,0.0927188,0.0130105,0.0168215,594,1142,-9.29712,-0.8774
-623,-118,-9.29407,0.935913,0.00856285,0.00344572,0.00114858,0.00880883,0.00319974,0.210976,0.0051488,0.0142701,601,1142,-9.29408,-0.935919
-616,-118,-9.30182,1.00745,0.000184755,0.00132069,-0.00197097,0.00280389,-0.00129845,-0.925681,0.00242106,0.0124646,608,1142,-9.30185,-1.0075
-609,-118,-9.3042,1.08252,-0.00416987,-0.000408812,-0.00375949,0.00191425,-0.00649293,-1.01731,0.00508818,0.013339,615,1142,-9.30418,-1.08251
-602,-118,-9.3111,1.21545,-0.00512,-0.00051466,-0.00492499,0.00261938,-0.00825404,-1.00407,0.00655272,0.0130995,622,1142,-9.31107,-1.2154
-595,-118,-9.34656,1.28967,-0.00585949,-0.000708263,-0.0059124,0.00316517,-0.00973293,-0.990818,0.00776186,0.0117629,629,1142,-9.34653,-1.28964
-588,-118,-9.24762,1.40271,-0.00641653,-0.000785054,-0.00660088,0.00357556,-0.0107771,-0.986998,0.00862723,0.0172015,636,1142,-9.24764,-1.40271
-581,-118,-9.53723,1.17029,-0.00676391,-0.000749648,-0.00687391,0.00374612,-0.0112597,-0.991591,0.00901835,0.0399183,643,1142,-9.53726,-1.17026
-574,-118,-9.76807,0.0146484,0,0,0,0,0,0,0,-1,650,1142,-9.76806,-0.0147024
-567,-118,-9.90582,0.543213,-0.00656706,-0.000471267,-0.00643778,0.00360366,-0.010642,-1.00649,0.0085528,0.0428703,657,1142,-9.90582,-0.543188
-560,-118,-9.84155,0.483643,-0.00591275,-0.00021979,-0.00561419,0.0032283,-0.00936084,-1.02002,0.00755033,0.0370783,664,1142,-9.84156,-0.483608
-553,-118,-9.84711,0.603027,-0.00485688,4.16692e-05,-0.00429398,0.0025358,-0.007351,-1.04458,0.00592952,0.037007,671,1142,-9.8471,-0.603042
-546,-118,-9.79492,0.567139,-0.00347704,0.000243247,-0.00246537,0.0014715,-0.00470529,-1.10859,0.00372552,0.0366848,678,1142,-9.79489,-0.567105
-539,-118,-9.85608,0.658691,-0.00181563,0.000293183,-0.000115855,0.000299529,-0.00182197,-1.51608,0.00132582,0.0393754,685,1142,-9.85611,-0.658725
-532,-118,-9.96661,0.60791,-0.000400013,4.29092e-05,0.00235578,0.00218762,-0.00254472,0.832264,0.00273481,0.0422681,692,1142,-9.96659,-0.607955
-525,-118,-10.0854,0.605835,-0.00136714,-0.00135873,0.00327312,0.00191019,-0.00463606,0.78604,0.00388717,0.0446434,699,1142,-10.0854,-0.605827
-518,-118,0,0,0,0,0,0,0,0,0,-1,706,1142,0,0
-511,-118,0,0,0,0,0,0,0,0,0,-1,713,1142,0,0
-504,-118,0,0,0,0,0,0,0,0,0,-1,720,1142,0,0
-497,-118,0,0,0,0,0,0,0,0,0,-1,727,1142,0,0
-490,-118,0,0,0,0,0,0,0,0,0,-1,734,1142,0,0
-483,-118,0,0,0,0,0,0,0,0,0,-1,741,1142,0,0
-476,-118,0,0,0,0,0,0,0,0,0,-1,748,1142,0,0
-469,-118,0,0,0,0,0,0,0,0,0,-1,755,1142,0,0
-462,-118,0,0,0,0,0,0,0,0,0,-1,762,1142,0,0
-455,-118,0,0,0,0,0,0,0,0,0,-1,769,1142,0,0
-448,-118,0,0,0,0,0,0,0,0,0,-1,776,1142,0,0
-441,-118,0,0,0,0,0,0,0,0,0,-1,783,1142,0,0
-434,-118,0,0,0,0,0,0,0,0,0,-1,790,1142,0,0
-427,-118,0,0,0,0,0,0,0,0,0,-1,797,1142,0,0
-420,-118,0,0,0,0,0,0,0,0,0,-1,804,1142,0,0
-413,-118,0,0,0,0,0,0,0,0,0,-1,811,1142,0,0
-406,-118,0,0,0,0,0,0,0,0,0,-1,818,1142,0,0
-399,-118,0,0,0,0,0,0,0,0,0,-1,825,1142,0,0
-392,-118,0,0,0,0,0,0,0,0,0,-1,832,1142,0,0
-385,-118,0,0,0,0,0,0,0,0,0,-1,839,1142,0,0
-378,-118,0,0,0,0,0,0,0,0,0,-1,846,1142,0,0
-371,-118,0,0,0,0,0,0,0,0,0,-1,853,1142,0,0
-364,-118,0,0,0,0,0,0,0,0,0,-1,860,1142,0,0
-357,-118,0,0,0,0,0,0,0,0,0,-1,867,1142,0,0
-350,-118,0,0,0,0,0,0,0,0,0,-1,874,1142,0,0
-343,-118,0,0,0,0,0,0,0,0,0,-1,881,1142,0,0
-336,-118,0,0,0,0,0,0,0,0,0,-1,888,1142,0,0
-329,-118,0,0,0,0,0,0,0,0,0,-1,895,1142,0,0
-322,-118,0,0,0,0,0,0,0,0,0,-1,902,1142,0,0
-315,-118,0,0,0,0,0,0,0,0,0,-1,909,1142,0,0
-308,-118,0,0,0,0,0,0,0,0,0,-1,916,1142,0,0
-301,-118,0,0,0,0,0,0,0,0,0,-1,923,1142,0,0
-294,-118,0,0,0,0,0,0,0,0,0,-1,930,1142,0,0
-287,-118,0,0,0,0,0,0,0,0,0,-1,937,1142,0,0
-280,-118,0,0,0,0,0,0,0,0,0,-1,944,1142,0,0
-273,-118,0,0,0,0,0,0,0,0,0,-1,951,1142,0,0
-266,-118,0,0,0,0,0,0,0,0,0,-1,958,1142,0,0
-259,-118,0,0,0,0,0,0,0,0,0,-1,965,1142,0,0
-252,-118,0,0,0,0,0,0,0,0,0,-1,972,1142,0,0
-245,-118,0,0,0,0,0,0,0,0,0,-1,979,1142,0,0
-238,-118,0,0,0,0,0,0,0,0,0,-1,986,1142,0,0
-231,-118,0,0,0,0,0,0,0,0,0,-1,993,1142,0,0
-224,-118,0,0,0,0,0,0,0,0,0,-1,1000,1142,0,0
-217,-118,0,0,0,0,0,0,0,0,0,-1,1007,1142,0,0
-210,-118,0,0,0,0,0,0,0,0,0,-1,1014,1142,0,0
-203,-118,0,0,0,0,0,0,0,0,0,-1,1021,1142,0,0
-196,-118,0,0,0,0,0,0,0,0,0,-1,1028,1142,0,0
-189,-118,0,0,0,0,0,0,0,0,0,-1,1035,1142,0,0
-182,-118,0,0,0,0,0,0,0,0,0,-1,1042,1142,0,0
-175,-118,0,0,0,0,0,0,0,0,0,-1,1049,1142,0,0
-168,-118,0,0,0,0,0,0,0,0,0,-1,1056,1142,0,0
-161,-118,0,0,0,0,0,0,0,0,0,-1,1063,1142,0,0
-154,-118,0,0,0,0,0,0,0,0,0,-1,1070,1142,0,0
-147,-118,0,0,0,0,0,0,0,0,0,-1,1077,1142,0,0
-140,-118,0,0,0,0,0,0,0,0,0,-1,1084,1142,0,0
-133,-118,0,0,0,0,0,0,0,0,0,-1,1091,1142,0,0
-126,-118,0,0,0,0,0,0,0,0,0,-1,1098,1142,0,0
-119,-118,0,0,0,0,0,0,0,0,0,-1,1105,1142,0,0
-112,-118,0,0,0,0,0,0,0,0,0,-1,1112,1142,0,0
-105,-118,0,0,0,0,0,0,0,0,0,-1,1119,1142,0,0
-98,-118,0,0,0,0,0,0,0,0,0,-1,1126,1142,0,0
-91,-118,0,0,0,0,0,0,0,0,0,-1,1133,1142,0,0
-84,-118,0,0,0,0,0,0,0,0,0,-1,1140,1142,0,0
-77,-118,0,0,0,0,0,0,0,0,0,-1,1147,1142,0,0
-70,-118,0,0,0,0,0,0,0,0,0,-1,1154,1142,0,0
-63,-118,0,0,0,0,0,0,0,0,0,-1,1161,1142,0,0
-56,-118,0,0,0,0,0,0,0,0,0,-1,1168,1142,0,0
-49,-118,0,0,0,0,0,0,0,0,0,-1,1175,1142,0,0
-42,-118,0,0,0,0,0,0,0,0,0,-1,1182,1142,0,0
-35,-118,0,0,0,0,0,0,0,0,0,-1,1189,1142,0,0
-28,-118,0,0,0,0,0,0,0,0,0,-1,1196,1142,0,0
-21,-118,0,0,0,0,0,0,0,0,0,-1,1203,1142,0,0
-14,-118,0,0,0,0,0,0,0,0,0,-1,1210,1142,0,0
-7,-118,0,0,0,0,0,0,0,0,0,-1,1217,1142,0,0
0,-118,0,0,0,0,0,0,0,0,0,-1,1224,1142,0,0
7,-118,0,0,0,0,0,0,0,0,0,-1,1231,1142,0,0
14,-118,0,0,0,0,0,0,0,0,0,-1,1238,1142,0,0
21,-118,0,0,0,0,0,0,0,0,0,-1,1245,1142,0,0
28,-118,0,0,0,0,0,0,0,0,0,-1,1252,1142,0,0
35,-118,0,0,0,0,0,0,0,0,0,-1,1259,1142,0,0
42,-118,0,0,0,0,0,0,0,0,0,-1,1266,1142,0,0
49,-118,0,0,0,0,0,0,0,0,0,-1,1273,1142,0,0
56,-118,0,0,0,0,0,0,0,0,0,-1,1280,1142,0,0
63,-118,0,0,0,0,0,0,0,0,0,-1,1287,1142,0,0
70,-118,0,0,0,0,0,0,0,0,0,-1,1294,1142,0,0
77,-118,0,0,0,0,0,0,0,0,0,-1,1301,1142,0,0
84,-118,0,0,0,0,0,0,0,0,0,-1,1308,1142,0,0
91,-118,0,0,0,0,0,0,0,0,0,-1,1315,1142,0,0
98,-118,0,0,0,0,0,0,0,0,0,-1,1322,1142,0,0
105,-118,0,0,0,0,0,0,0,0,0,-1,1329,1142,0,0
112,-118,0,0,0,0,0,0,0,0,0,-1,1336,1142,0,0
119,-118,0,0,0,0,0,0,0,0,0,-1,1343,1142,0,0
126,-118,0,0,0,0,0,0,0,0,0,-1,1350,1142,0,0
133,-118,0,0,0,0,0,0,0,0,0,-1,1357,1142,0,0
140,-118,0,0,0,0,0,0,0,0,0,-1,1364,1142,0,0
147,-118,0,0,0,0,0,0,0,0,0,-1,1371,1142,0,0
154,-118,0,0,0,0,0,0,0,0,0,-1,1378,1142,0,0
161,-118,0,0,0,0,0,0,0,0,0,-1,1385,1142,0,0
168,-118,0,0,0,0,0,0,0,0,0,-1,1392,1142,0,0
175,-118,0,0,0,0,0,0,0,0,0,-1,1399,1142,0,0
182,-118,0,0,0,0,0,0,0,0,0,-1,1406,1142,0,0
189,-118,0,0,0,0,0,0,0,0,0,-1,1413,1142,0,0
196,-118,0,0,0,0,0,0,0,0,0,-1,1420,1142,0,0
203,-118,0,0,0,0,0,0,0,0,0,-1,1427,1142,0,0
210,-118,0,0,0,0,0,0,0,0,0,-1,1434,1142,0,0
217,-118,0,0,0,0,0,0,0,0,0,-1,1441,1142,0,0
224,-118,0,0,0,0,0,0,0,0,0,-1,1448,1142,0,0
231,-118,0,0,0,0,0,0,0,0,0,-1,1455,1142,0,0
238,-118,0,0,0,0,0,0,0,0,0,-1,1462,1142,0,0
245,-118,0,0,0,0,0,0,0,0,0,-1,1469,1142,0,0
252,-118,0,0,0,0,0,0,0,0,0,-1,1476,1142,0,0
259,-118,0,0,0,0,0,0,0,0,0,-1,1483,1142,0,0
266,-118,0,0,0,0,0,0,0,0,0,-1,1490,1142,0,0
273,-118,0,0,0,0,0,0,0,0,0,-1,1497,1142,0,0
280,-118,0,0,0,0,0,0,0,0,0,-1,1504,1142,0,0
287,-118,0,0,0,0,0,0,0,0,0,-1,1511,1142,0,0
294,-118,0,0,0,0,0,0,0,0,0,-1,1518,1142,0,0
301,-118,0,0,0,0,0,0,0,0,0,-1,1525,1142,0,0
308,-118,0,0,0,0,0,0,0,0,0,-1,1532,1142,0,0
315,-118,0,0,0,0,0,0,0,0,0,-1,1539,1142,0,0
322,-118,0,0,0,0,0,0,0,0,0,-1,1546,1142,0,0
329,-118,0,0,0,0,0,0,0,0,0,-1,1553,1142,0,0
336,-118,0,0,0,0,0,0,0,0,0,-1,1560,1142,0,0
343,-118,0,0,0,0,0,0,0,0,0,-1,1567,1142,0,0
350,-118,0,0,0,0,0,0,0,0,0,-1,1574,1142,0,0
357,-118,0,0,0,0,0,0,0,0,0,-1,1581,1142,0,0
364,-118,0,0,0,0,0,0,0,0,0,-1,1588,1142,0,0
371,-118,0,0,0,0,0,0,0,0,0,-1,1595,1142,0,0
378,-118,0,0,0,0,0,0,0,0,0,-1,1602,1142,0,0
385,-118,0,0,0,0,0,0,0,0,0,-1,1609,1142,0,0
392,-118,0,0,0,0,0,0,0,0,0,-1,1616,1142,0,0
399,-118,0,0,0,0,0,0,0,0,0,-1,1623,1142,0,0
406,-118,0,0,0,0,0,0,0,0,0,-1,1630,1142,0,0
413,-118,0,0,0,0,0,0,0,0,0,-1,1637,1142,0,0
420,-118,0,0,0,0,0,0,0,0,0,-1,1644,1142,0,0
427,-118,0,0,0,0,0,0,0,0,0,-1,1651,1142,0,0
434,-118,0,0,0,0,0,0,0,0,0,-1,1658,1142,0,0
441,-118,0,0,0,0,0,0,0,0,0,-1,1665,1142,0,0
448,-118,0,0,0,0,0,0,0,0,0,-1,1672,1142,0,0
455,-118,0,0,0,0,0,0,0,0,0,-1,1679,1142,0,0
462,-118,0,0,0,0,0,0,0,0,0,-1,1686,1142,0,0
469,-118,0,0,0,0,0,0,0,0,0,-1,1693,1142,0,0
476,-118,0,0,0,0,0,0,0,0,0,-1,1700,1142,0,0
483,-118,0,0,0,0,0,0,0,0,0,-1,1707,1142,0,0
490,-118,0,0,0,0,0,0,0,0,0,-1,1714,1142,0,0
497,-118,0,0,0,0,0,0,0,0,0,-1,1721,1142,0,0
504,-118,0,0,0,0,0,0,0,0,0,-1,1728,1142,0,0
511,-118,0,0,0,0,0,0,0,0,0,-1,1735,1142,0,0
518,-118,0,0,0,0,0,0,0,0,0,-1,1742,1142,0,0
525,-118,0,0,0,0,0,0,0,0,0,-1,1749,1142,0,0
532,-118,0,0,0,0,0,0,0,0,0,-1,1756,1142,0,0
539,-118,0,0,0,0,0,0,0,0,0,-1,1763,1142,0,0
546,-118,0,0,0,0,0,0,0,0,0,-1,1770,1142,0,0
553,-118,0,0,0,0,0,0,0,0,0,-1,1777,1142,0,0
560,-118,0,0,0,0,0,0,0,0,0,-1,1784,1142,0,0
567,-118,0,0,0,0,0,0,0,0,0,-1,1791,1142,0,0
574,-118,0,0,0,0,0,0,0,0,0,-1,1798,1142,0,0
581,-118,0,0,0,0,0,0,0,0,0,-1,1805,1142,0,0
588,-118,0,0,0,0,0,0,0,0,0,-1,1812,1142,0,0
595,-118,0,0,0,0,0,0,0,0,0,-1,1819,1142,0,0
602,-118,0,0,0,0,0,0,0,0,0,-1,1826,1142,0,0
609,-118,0,0,0,0,0,0,0,0,0,-1,1833,1142,0,0
616,-118,0,0,0,0,0,0,0,0,0,-1,1840,1142,0,0
623,-118,0,0,0,0,0,0,0,0,0,-1,1847,1142,0,0
630,-118,0,0,0,0,0,0,0,0,0,-1,1854,1142,0,0
637,-118,0,0,0,0,0,0,0,0,0,-1,1861,1142,0,0
644,-118,16.2156,2.39844,0.00132791,-0.00132499,-0.00260794,0.00292734,-0.00292442,-0.550138,0.00337852,0.0424427,1868,1142,16.2156,-2.39842
651,-118,16.1887,2.19202,0.00122219,-0.000572144,-0.00144449,0.00202545,-0.00137541,-0.507505,0.00197541,0.0425723,1875,1142,16.1888,-2.19199
658,-118,16.0245,2.17981,0.00102488,-4.3126e-05,-0.000798915,0.00145183,-0.000470072,-0.490793,0.00115686,0.0409091,1882,1142,16.0246,-2.1798
665,-118,16.111,2.33362,0.00027798,0.000158573,-2.04311e-05,0.000281379,0.000155174,-0.16486,0.000162741,0.0394496,1889,1142,16.111,-2.33361
672,-118,16.1227,2.38452,-0.00115438,-0.000113666,0.00116612,0.000642927,-0.00191098,0.995256,0.00153389,0.0427864,1896,1142,16.1227,-2.38448
679,-118,16.0377,2.396,-0.0026374,-0.000525604,0.00224244,0.000897101,-0.00406011,1.00543,0.00305007,0.0391733,1903,1142,16.0377,-2.39594
686,-118,16.0465,2.43591,-0.00398061,-0.000994677,0.00317135,0.00101755,-0.00599284,1.00539,0.00437405,0.033578,1910,1142,16.0466,-2.43589
693,-118,16.0792,2.34265,-0.00505499,-0.00138351,0.0039045,0.00109527,-0.00753377,1.00514,0.00542459,0.0328991,1917,1142,16.0792,-2.34268
700,-118,16.1111,2.30115,-0.00581941,-0.00167574,0.00457463,0.00127435,-0.0087695,0.998029,0.00631413,0.0201359,1924,1142,16.1111,-2.30118
707,-118,16.0746,2.6134,0,0,0,0,0,0,0,-1,1931,1142,16.0746,-2.61335
714,-118,15.7339,3.03735,-0.00658435,-0.00206562,0.00514498,0.00129423,-0.0099442,0.992291,0.00710031,0.0302839,1938,1142,15.7339,-3.03738
721,-118,15.4291,3.39185,-0.00667876,-0.00213423,0.00503279,0.00111548,-0.00992847,0.997445,0.00702041,0.0101919,1945,1142,15.429,-3.3919
728,-118,15.4183,3.32251,-0.00646546,-0.00191625,0.00463128,0.000968852,-0.00935057,1.01367,0.00658048,0.012694,1952,1142,15.4183,-3.32245
735,-118,15.4153,3.27869,-0.00612477,-0.00171151,0.00386575,0.000533066,-0.00836934,1.04474,0.00576547,0.0126948,1959,1142,15.4152,-3.2787
742,-118,15.4283,3.27002,-0.00617878,-0.000967262,0.00300484,0.000404292,-0.00755033,1.14259,0.00517359,0.0181909,1966,1142,15.4283,-3.27
749,-118,15.4348,3.1864,-0.00659148,-0.000124275,0.00239253,0.000664607,-0.00738036,1.25229,0.00515607,0.0177218,1973,1142,15.4348,-3.18637
756,-118,15.4197,3.12378,-0.00794979,0.00170296,0.00202233,0.00210953,-0.00835636,1.3724,0.0063912,0.0153096,1980,1142,15.4197,-3.12374
763,-118,15.4009,3.05432,-0.0103695,0.00437943,0.00176471,0.00458764,-0.0105777,1.45335,0.0089805,0.00939361,1987,1142,15.4008,-3.05429
770,-118,15.3857,3.01575,-0.0133364,0.00715927,0.00177207,0.00731136,-0.0134885,1.48518,0.012184,0.0109124,1994,1142,15.3858,-3.01578
777,-118,15.3922,2.97864,0,0,0,0,0,0,0,-1,2001,1142,15.3922,-2.9786
784,-118,15.098,2.36877,0,0,0,0,0,0,0,-1,2008,1142,15.098,-2.36878
791,-118,14.5977,1.85681,0,0,0,0,0,0,0,-1,2015,1142,14.5977,-1.85687
798,-118,16.3429,2.93066,0,0,0,0,0,0,0,-1,2022,1142,16.3429,-2.93065
805,-118,16.6299,4.26978,-0.0506272,0.0376535,0.0173465,0.0409396,-0.0539134,1.38357,0.0549339,0.0497557,2029,1142,16.6299,-4.26981
812,-118,16.1189,4.54187,-0.0621815,0.0502154,0.0249534,0.0555063,-0.0674724,1.36186,0.0711137,0.048679,2036,1142,16.119,-4.54191
-700,-125,0,0,0,0,0,0,0,0,0,-1,524,1149,0,0
-693,-125,-18.2202,-3.73621,0,0,0,0,0,0,0,-1,531,1149,-18.2201,3.73623
-686,-125,-16.9004,-2.41443,0,0,0,0,0,0,0,-1,538,1149,-16.9004,2.41445
-679,-125,-15.5247,-1.09338,0.213221,0.0785166,0.0198126,0.216075,0.075663,0.143047,0.126604,0.0431573,545,1149,-15.5247,1.09344
-672,-125,-9.8454,0.801514,0.17418,0.0629954,0.0162343,0.176502,0.0606735,0.142061,0.103549,0.043256,552,1149,-9.84542,-0.801562
-665,-125,-9.97119,0.981689,0.137239,0.0492209,0.0131416,0.139159,0.0473007,0.145092,0.0817049,0.0412006,559,1149,-9.97117,-0.981694
-658,-125,-9.76141,0.41748,0,0,0,0,0,0,0,-1,566,1149,-9.76143,-0.417513
-651,-125,-9.47565,0.570679,0.075656,0.0273301,0.00803875,0.0769581,0.026028,0.160586,0.0452005,0.03525,573,1149,-9.47564,-0.570733
-644,-125,-9.14801,0.748779,0.0525935,0.0192759,0.00599829,0.0536405,0.0182289,0.172807,0.0314946,0.0233059,580,1149,-9.14804,-0.74876
-637,-125,-9.17285,0.804077,0.0348187,0.0128603,0.00345443,0.0353493,0.0123296,0.152414,0.0207177,0.0129416,587,1149,-9.17282,-0.804109
-630,-125,-9.17865,0.871338,0.0208791,0.00793272,0.00127159,0.0210028,0.007809,0.0969846,0.0122581,0.013713,594,1149,-9.17865,-0.871386
-623,-125,-9.19171,0.948975,0.00772505,0.00344478,0.00112384,0.00800219,0.00316764,0.241773,0.00465336,0.0123026,601,1149,-9.19172,-0.948925
-616,-125,-9.19165,1.02087,-0.000277861,0.00129012,-0.0019307,0.00258993,-0.00157768,-0.97826,0.00242971,0.0119509,608,1149,-9.19164,-1.02084
-609,-125,-9.20026,1.08545,-0.00432708,-0.000288007,-0.00370577,0.0019128,-0.00652789,-1.03489,0.00511028,0.0133826,615,1149,-9.20024,-1.08546
-602,-125,-9.22571,1.20203,-0.00544656,-0.000362519,-0.00496351,0.00267204,-0.00848112,-1.02206,0.00672412,0.0123388,622,1149,-9.22568,-1.20204
-595,-125,-9.2442,1.30908,-0.00632943,-0.000558475,-0.00600522,0.00321853,-0.0101064,-1.00936,0.00802847,0.0114351,629,1149,-9.24418,-1.30905
-588,-125,-9.14886,1.4104,-0.00700895,-0.000615302,-0.00673797,0.00364575,-0.01127,-1.0069,0.00897879,0.0164795,636,1149,-9.14887,-1.41045
-581,-125,-9.48505,1.36621,-0.00743754,-0.00055623,-0.00703585,0.00383518,-0.011829,-1.01281,0.00942807,0.0393722,643,1149,-9.48502,-1.36616
-574,-125,-9.90118,1.03552,-0.00755148,-0.000437477,-0.00697181,0.0038323,-0.0118213,-1.02128,0.00942175,0.0476012,650,1149,-9.90118,-1.03556
-567,-125,-9.95978,0.638184,-0.00722886,-0.000226031,-0.00663832,0.0037777,-0.0112326,-1.02808,0.00901543,0.0373814,657,1149,-9.9598,-0.638152
-560,-125,-9.82196,0.328003,-0.00656058,4.74741e-05,-0.00584105,0.00345422,-0.00996733,-1.04279,0.00804732,0.0369502,664,1149,-9.82194,-0.328058
-553,-125,-9.71637,0.337402,-0.00540868,0.000322162,-0.0045474,0.00283164,-0.00791815,-1.06654,0.00643382,0.0376821,671,1149,-9.71634,-0.337431
-546,-125,-9.8327,0.460083,-0.00381856,0.000523604,-0.00274652,0.00185352,-0.00514847,-1.11985,0.00418915,0.037463,678,1149,-9.83269,-0.460115
-539,-125,-10.1395,0.856201,-0.00180161,0.000558766,-0.000426006,0.000633299,-0.00187614,-1.39759,0.00150689,0.0418558,685,1149,-10.1395,-0.856216
-532,-125,-10.0637,0.651855,0.000292946,0.000300028,0.00212252,0.00241901,-0.00182604,0.786232,0.00245884,0.0425169,692,1149,-10.0637,-0.651889
-525,-125,-10.054,0.535156,0.000465894,-0.00106796,0.00323807,0.00302662,-0.00362869,0.669117,0.00384768,0.0446528,699,1149,-10.054,-0.535201
-518,-125,0,0,0,0,0,0,0,0,0,-1,706,1149,0,0
-511,-125,0,0,0,0,0,0,0,0,0,-1,713,1149,0,0
-504,-125,0,0,0,0,0,0,0,0,0,-1,720,1149,0,0
-497,-125,0,0,0,0,0,0,0,0,0,-1,727,1149,0,0
-490,-125,0,0,0,0,0,0,0,0,0,-1,734,1149,0,0
-483,-125,0,0,0,0,0,0,0,0,0,-1,741,1149,0,0
-476,-125,0,0,0,0,0,0,0,0,0,-1,748,1149,0,0
-469,-125,0,0,0,0,0,0,0,0,0,-1,755,1149,0,0
-462,-125,0,0,0,0,0,0,0,0,0,-1,762,1149,0,0
-455,-125,0,0,0,0,0,0,0,0,0,-1,769,1149,0,0
-448,-125,0,0,0,0,0,0,0,0,0,-1,776,1149,0,0
-441,-125,0,0,0,0,0,0,0,0,0,-1,783,1149,0,0
-434,-125,0,0,0,0,0,0,0,0,0,-1,790,1149,0,0
-427,-125,0,0,0,0,0,0,0,0,0,-1,797,1149,0,0
-420,-125,0,0,0,0,0,0,0,0,0,-1,804,1149,0,0
-413,-125,0,0,0,0,0,0,0,0,0,-1,811,1149,0,0
-406,-125,0,0,0,0,0,0,0,0,0,-1,818,1149,0,0
-399,-125,0,0,0,0,0,0,0,0,0,-1,825,1149,0,0
-392,-125,0,0,0,0,0,0,0,0,0,-1,832,1149,0,0
-385,-125,0,0,0,0,0,0,0,0,0,-1,839,1149,0,0
-378,-125,0,0,0,0,0,0,0,0,0,-1,846,1149,0,0
-371,-125,0,0,0,0,0,0,0,0,0,-1,853,1149,0,0
-364,-125,0,0,0,0,0,0,0,0,0,-1,860,1149,0,0
-357,-125,0,0,0,0,0,0,0,0,0,-1,867,1149,0,0
-350,-125,0,0,0,0,0,0,0,0,0,-1,874,1149,0,0
-343,-125,0,0,0,0,0,0,0,0,0,-1,881,1149,0,0
-336,-125,0,0,0,0,0,0,0,0,0,-1,888,1149,0,0
-329,-125,0,0,0,0,0,0,0,0,0,-1,895,1149,0,0
-322,-125,0,0,0,0,0,0,0,0,0,-1,902,1149,0,0
-315,-125,0,0,0,0,0,0,0,0,0,-1,909,1149,0,0
-308,-125,0,0,0,0,0,0,0,0,0,-1,916,1149,0,0
-301,-125,0,0,0,0,0,0,0,0,0,-1,923,1149,0,0
-294,-125,0,0,0,0,0,0,0,0,0,-1,930,1149,0,0
-287,-125,0,0,0,0,0,0,0,0,0,-1,937,1149,0,0
-280,-125,0,0,0,0,0,0,0,0,0,-1,944,1149,0,0
-273,-125,0,0,0,0,0,0,0,0,0,-1,951,1149,0,0
-266,-125,0,0,0,0,0,0,0,0,0,-1,958,1149,0,0
-259,-125,0,0,0,0,0,0,0,0,0,-1,965,1149,0,0
-252,-125,0,0,0,0,0,0,0,0,0,-1,972,1149,0,0
-245,-125,0,0,0,0,0,0,0,0,0,-1,979,1149,0,0
-238,-125,0,0,0,0,0,0,0,0,0,-1,986,1149,0,0
-231,-125,0,0,0,0,0,0,0,0,0,-1,993,1149,0,0
-224,-125,0,0,0,0,0,0,0,0,0,-1,1000,1149,0,0
-217,-125,0,0,0,0,0,0,0,0,0,-1,1007,1149,0,0
-210,-125,0,0,0,0,0,0,0,0,0,-1,1014,1149,0,0
-203,-125,0,0,0,0,0,0,0,0,0,-1,1021,1149,0,0
-196,-125,0,0,0,0,0,0,0,0,0,-1,1028,1149,0,0
-189,-125,0,0,0,0,0,0,0,0,0,-1,1035,1149,0,0
-182,-125,0,0,0,0,0,0,0,0,0,-1,1042,1149,0,0
-175,-125,0,0,0,0,0,0,0,0,0,-1,1049,1149,0,0
-168,-125,0,0,0,0,0,0,0,0,0,-1,1056,1149,0,0
-161,-125,0,0,0,0,0,0,0,0,0,-1,1063,1149,0,0
-154,-125,0,0,0,0,0,0,0,0,0,-1,1070,1149,0,0
-147,-125,0,0,0,0,0,0,0,0,0,-1,1077,1149,0,0
-140,-125,0,0,0,0,0,0,0,0,0,-1,1084,1149,0,0
-133,-125,0,0,0,0,0,0,0,0,0,-1,1091,1149,0,0
-126,-125,0,0,0,0,0,0,0,0,0,-1,1098,1149,0,0
-119,-125,0,0,0,0,0,0,0,0,0,-1,1105,1149,0,0
-112,-125,0,0,0,0,0,0,0,0,0,-1,1112,1149,0,0
-105,-125,0,0,0,0,0,0,0,0,0,-1,1119,1149,0,0
-98,-125,0,0,0,0,0,0,0,0,0,-1,1126,1149,0,0
-91,-125,0,0,0,0,0,0,0,0,0,-1,1133,1149,0,0
-84,-125,0,0,0,0,0,0,0,0,0,-1,1140,1149,0,0
-77,-125,0,0,0,0,0,0,0,0,0,-1,1147,1149,0,0
-70,-125,0,0,0,0,0,0,0,0,0,-1,1154,1149,0,0
-63,-125,0,0,0,0,0,0,0,0,0,-1,1161,1149,0,0
-56,-125,0,0,0,0,0,0,0,0,0,-1,1168,1149,0,0
-49,-125,0,0,0,0,0,0,0,0,0,-1,1175,1149,0,0
-42,-125,0,0,0,0,0,0,0,0,0,-1,1182,1149,0,0
-35,-125,0,0,0,0,0,0,0,0,0,-1,1189,1149,0,0
-28,-125,0,0,0,0,0,0,0,0,0,-1,1196,1149,0,0
-21,-125,0,0,0,0,0,0,0,0,0,-1,1203,1149,0,0
-14,-125,0,0,0,0,0,0,0,0,0,-1,1210,1149,0,0
-7,-125,0,0,0,0,0,0,0,0,0,-1,1217,1149,0,0
0,-125,0,0,0,0,0,0,0,0,0,-1,1224,1149,0,0
7,-125,0,0,0,0,0,0,0,0,0,-1,1231,1149,0,0
14,-125,0,0,0,0,0,0,0,0,0,-1,1238,1149,0,0
21,-125,0,0,0,0,0,0,0,0,0,-1,1245,1149,0,0
28,-125,0,0,0,0,0,0,0,0,0,-1,1252,1149,0,0
35,-125,0,0,0,0,0,0,0,0,0,-1,1259,1149,0,0
42,-125,0,0,0,0,0,0,0,0,0,-1,1266,1149,0,0
49,-125,0,0,0,0,0,0,0,0,0,-1,1273,1149,0,0
56,-125,0,0,0,0,0,0,0,0,0,-1,1280,1149,0,0
63,-125,0,0,0,0,0,0,0,0,0,-1,1287,1149,0,0
70,-125,0,0,0,0,0,0,0,0,0,-1,1294,1149,0,0
77,-125,0,0,0,0,0,0,0,0,0,-1,1301,1149,0,0
84,-125,0,0,0,0,0,0,0,0,0,-1,1308,1149,0,0
91,-125,0,0,0,0,0,0,0,0,0,-1,1315,1149,0,0
98,-125,0,0,0,0,0,0,0,0,0,-1,1322,1149,0,0
105,-125,0,0,0,0,0,0,0,0,0,-1,1329,1149,0,0
112,-125,0,0,0,0,0,0,0,0,0,-1,1336,1149,0,0
119,-125,0,0,0,0,0,0,0,0,0,-1,1343,1149,0,0
126,-125,0,0,0,0,0,0,0,0,0,-1,1350,1149,0,0
133,-125,0,0,0,0,0,0,0,0,0,-1,1357,1149,0,0
140,-125,0,0,0,0,0,0,0,0,0,-1,1364,1149,0,0
147,-125,0,0,0,0,0,0,0,0,0,-1,1371,1149,0,0
154,-125,0,0,0,0,0,0,0,0,0,-1,1378,1149,0,0
161,-125,0,0,0,0,0,0,0,0,0,-1,1385,1149,0,0
168,-125,0,0,0,0,0,0,0,0,0,-1,1392,1149,0,0
175,-125,0,0,0,0,0,0,0,0,0,-1,1399,1149,0,0
182,-125,0,0,0,0,0,0,0,0,0,-1,1406,1149,0,0
189,-125,0,0,0,0,0,0,0,0,0,-1,1413,1149,0,0
196,-125,0,0,0,0,0,0,0,0,0,-1,1420,1149,0,0
203,-125,0,0,0,0,0,0,0,0,0,-1,1427,1149,0,0
210,-125,0,0,0,0,0,0,0,0,0,-1,1434,1149,0,0
217,-125,0,0,0,0,0,0,0,0,0,-1,1441,1149,0,0
224,-125,0,0,0,0,0,0,0,0,0,-1,1448,1149,0,0
231,-125,0,0,0,0,0,0,0,0,0,-1,1455,1149,0,0
238,-125,0,0,0,0,0,0,0,0,0,-1,1462,1149,0,0
245,-125,0,0,0,0,0,0,0,0,0,-1,1469,1149,0,0
252,-125,0,0,0,0,0,0,0,0,0,-1,1476,1149,0,0
259,-125,0,0,0,0,0,0,0,0,0,-1,1483,1149,0,0
266,-125,0,0,0,0,0,0,0,0,0,-1,1490,1149,0,0
273,-125,0,0,0,0,0,0,0,0,0,-1,1497,1149,0,0
280,-125,0,0,0,0,0,0,0,0,0,-1,1504,1149,0,0
287,-125,0,0,0,0,0,0,0,0,0,-1,1511,1149,0,0
294,-125,0,0,0,0,0,0,0,0,0,-1,1518,1149,0,0
301,-125,0,0,0,0,0,0,0,0,0,-1,1525,1149,0,0
308,-125,0,0,0,0,0,0,0,0,0,-1,1532,1149,0,0
315,-125,0,0,0,0,0,0,0,0,0,-1,1539,1149,0,0
322,-125,0,0,0,0,0,0,0,0,0,-1,1546,1149,0,0
329,-125,0,0,0,0,0,0,0,0,0,-1,1553,1149,0,0
336,-125,0,0,0,0,0,0,0,0,0,-1,1560,1149,0,0
343,-125,0,0,0,0,0,0,0,0,0,-1,1567,1149,0,0
350,-125,0,0,0,0,0,0,0,0,0,-1,1574,1149,0,0
357,-125,0,0,0,0,0,0,0,0,0,-1,1581,1149,0,0
364,-125,0,0,0,0,0,0,0,0,0,-1,1588,1149,0,0
371,-125,0,0,0,0,0,0,0,0,0,-1,1595,1149,0,0
378,-125,0,0,0,0,0,0,0,0,0,-1,1602,1149,0,0
385,-125,0,0,0,0,0,0,0,0,0,-1,1609,1149,0,0
392,-125,0,0,0,0,0,0,0,0,0,-1,1616,1149,0,0
399,-125,0,0,0,0,0,0,0,0,0,-1,1623,1149,0,0
406,-125,0,0,0,0,0,0,0,0,0,-1,1630,1149,0,0
413,-125,0,0,0,0,0,0,0,0,0,-1,1637,1149,0,0
420,-125,0,0,0,0,0,0,0,0,0,-1,1644,1149,0,0
427,-125,0,0,0,0,0,0,0,0,0,-1,1651,1149,0,0
434,-125,0,0,0,0,0,0,0,0,0,-1,1658,1149,0,0
441,-125,0,0,0,0,0,0,0,0,0,-1,1665,1149,0,0
448,-125,0,0,0,0,0,0,0,0,0,-1,1672,1149,0,0
455,-125,0,0,0,0,0,0,0,0,0,-1,1679,1149,0,0
462,-125,0,0,0,0,0,0,0,0,0,-1,1686,1149,0,0
469,-125,0,0,0,0,0,0,0,0,0,-1,1693,1149,0,0
476,-125,0,0,0,0,0,0,0,0,0,-1,1700,1149,0,0
483,-125,0,0,0,0,0,0,0,0,0,-1,1707,1149,0,0
490,-125,0,0,0,0,0,0,0,0,0,-1,1714,1149,0,0
497,-125,0,0,0,0,0,0,0,0,0,-1,1721,1149,0,0
504,-125,0,0,0,0,0,0,0,0,0,-1,1728,1149,0,0
511,-125,0,0,0,0,0,0,0,0,0,-1,1735,1149,0,0
518,-125,0,0,0,0,0,0,0,0,0,-1,1742,1149,0,0
525,-125,0,0,0,0,0,0,0,0,0,-1,1749,1149,0,0
532,-125,0,0,0,0,0,0,0,0,0,-1,1756,1149,0,0
539,-125,0,0,0,0,0,0,0,0,0,-1,1763,1149,0,0
546,-125,0,0,0,0,0,0,0,0,0,-1,1770,1149,0,0
553,-125,0,0,0,0,0,0,0,0,0,-1,1777,1149,0,0
560,-125,0,0,0,0,0,0,0,0,0,-1,1784,1149,0,0
567,-125,0,0,0,0,0,0,0,0,0,-1,1791,1149,0,0
574,-125,0,0,0,0,0,0,0,0,0,-1,1798,1149,0,0
581,-125,0,0,0,0,0,0,0,0,0,-1,1805,1149,0,0
588,-125,0,0,0,0,0,0,0,0,0,-1,1812,1149,0,0
595,-125,0,0,0,0,0,0,0,0,0,-1,1819,1149,0,0
602,-125,0,0,0,0,0,0,0,0,0,-1,1826,1149,0,0
609,-125,0,0,0,0,0,0,0,0,0,-1,1833,1149,0,0
616,-125,0,0,0,0,0,0,0,0,0,-1,1840,1149,0,0
623,-125,0,0,0,0,0,0,0,0,0,-1,1847,1149,0,0
630,-125,0,0,0,0,0,0,0,0,0,-1,1854,1149,0,0
637,-125,0,0,0,0,0,0,0,0,0,-1,1861,1149,0,0
644,-125,16.1676,2.29089,0,0,0,0,0,0,0,-1,1868,1149,16.1675,-2.29092
651,-125,16.1465,2.03857,0,0,0,0,0,0,0,-1,1875,1149,16.1465,-2.03856
658,-125,15.9264,1.9823,0.000622639,-0.000418387,-0.000416562,0.000768802,-0.00056455,-0.337459,0.000772816,0.0416067,1882,1149,15.9264,-1.98226
665,-125,15.9546,2.20911,-0.000200314,-0.000138951,0.000278246,0.0001103,-0.000449565,0.84031,0.00034245,0.0432514,1889,1149,15.9546,-2.2091
672,-125,15.8793,2.32263,-0.00161813,-0.000302542,0.00129382,0.000491094,-0.00241177,1.02058,0.00179409,0.045752,1896,1149,15.8793,-2.32262
679,-125,15.9783,2.52673,-0.00304632,-0.000623939,0.00220412,0.000679847,-0.00435011,1.03663,0.00315123,0.0394259,1903,1149,15.9782,-2.52672
686,-125,16.0505,2.49023,-0.0043324,-0.00102283,0.00299928,0.000747873,-0.00610311,1.03748,0.00433956,0.0354785,1910,1149,16.0506,-2.49019
693,-125,16.0768,2.34924,-0.00535374,-0.00134616,0.00362209,0.000789462,-0.00748935,1.03805,0.00527578,0.0314139,1917,1149,16.0768,-2.34924
700,-125,16.1034,2.29907,-0.00604673,-0.0016088,0.00421417,0.000934898,-0.00859044,1.02773,0.00606267,0.0142822,1924,1149,16.1034,-2.29912
707,-125,15.9869,2.94397,0,0,0,0,0,0,0,-1,1931,1149,15.987,-2.944
714,-125,15.6158,3.23877,-0.00666381,-0.00192657,0.00464668,0.000920361,-0.00951075,1.0211,0.00666849,0.0345535,1938,1149,15.6158,-3.23879
721,-125,15.3062,3.45398,-0.00671871,-0.00200741,0.00453012,0.00074293,-0.00946905,1.02516,0.00657435,0.0164983,1945,1149,15.3062,-3.45399
728,-125,15.3173,3.35876,-0.00642992,-0.00178755,0.00416317,0.000657806,-0.00887527,1.03971,0.00614786,0.0121394,1952,1149,15.3172,-3.35881
735,-125,15.3341,3.28259,-0.00591188,-0.00162079,0.00344326,0.000290687,-0.00782336,1.06402,0.00531512,0.015013,1959,1149,15.3341,-3.28261
742,-125,15.3594,3.23877,-0.00564817,-0.000937945,0.00266056,0.000260126,-0.00684624,1.14769,0.00465329,0.021626,1966,1149,15.3594,-3.23872
749,-125,15.3545,3.16785,-0.00577527,-8.87565e-05,0.00223391,0.000683848,-0.00654787,1.23782,0.00461014,0.0237459,1973,1149,15.3545,-3.16781
756,-125,15.3549,3.10278,-0.00670295,0.00171921,0.00215269,0.00223754,-0.00722127,1.33451,0.00570813,0.0186117,1980,1149,15.3548,-3.10276
763,-125,15.3425,3.06299,-0.00853032,0.00436914,0.00220836,0.00473673,-0.00889791,1.40585,0.00799323,0.00997125,1987,1149,15.3425,-3.06297
770,-125,15.3383,3.00659,-0.0109323,0.00711021,0.00262139,0.00748336,-0.0113055,1.4294,0.0109223,0.0120865,1994,1149,15.3383,-3.00655
777,-125,15.3419,2.92627,-0.0148287,0.0104802,0.0041012,0.0111282,-0.0154767,1.41409,0.0154285,0.0236308,2001,1149,15.3419,-2.92629
784,-125,15.0508,2.30945,-0.0200828,0.0149226,0.00658175,0.0161192,-0.0212794,1.39095,0.0216605,0.0449979,2008,1149,15.0508,-2.30948
791,-125,14.7657,1.67017,0,0,0,0,0,0,0,-1,2015,1149,14.7657,-1.67011
798,-125,16.1931,2.78589,-0.0344722,0.0284292,0.014912,0.0317853,-0.0378284,1.34942,0.0402419,0.0480874,2022,1149,16.1932,-2.7859
805,-125,16.1874,3.73486,-0.0437308,0.0384033,0.0213335,0.0436139,-0.0489414,1.33124,0.0534663,0.0481134,2029,1149,16.1874,-3.73491
812,-125,15.7908,4.02625,-0.0544857,0.05149,0.0299008,0.0593444,-0.0623401,1.31392,0.0702616,0.0496058,2036,1149,15.7907,-4.02621
-700,-132,0,0,0,0,0,0,0,0,0,-1,524,1156,0,0
-693,-132,-9.40613,0.279175,0,0,0,0,0,0,0,-1,531,1156,-9.40615,-0.27918
-686,-132,-9.69629,-0.351807,0,0,0,0,0,0,0,-1,538,1156,-9.69626,0.351764
-679,-132,-9.68054,0.0294189,0.204125,0.0785824,0.0157758,0.206077,0.0766304,0.123112,0.120274,0.048091,545,1156,-9.68055,-0.0294644
-672,-132,-9.68762,0.347046,0.165261,0.062872,0.0132635,0.166952,0.0611818,0.126753,0.0975287,0.040645,552,1156,-9.68762,-0.347033
-665,-132,-9.65424,0.604858,0.129306,0.0490254,0.0111061,0.130814,0.0475173,0.134964,0.0764615,0.0385475,559,1156,-9.65426,-0.604832
-658,-132,-9.08777,0.202881,0,0,0,0,0,0,0,-1,566,1156,-9.08778,-0.20293
-651,-132,-9.06549,0.526245,0.0707655,0.0272292,0.00733275,0.0719673,0.0260274,0.162459,0.0420772,0.0392086,573,1156,-9.06549,-0.526303
-644,-132,-9.10382,0.78894,0.0491924,0.0192631,0.00568635,0.0502363,0.0182191,0.181567,0.0293664,0.0202987,580,1156,-9.10381,-0.788918
-637,-132,-9.08978,0.803101,0.0326163,0.0129596,0.00357213,0.0332453,0.0123305,0.174304,0.0194063,0.0107743,587,1156,-9.0898,-0.803148
-630,-132,-9.08276,0.860962,0.0196453,0.00810297,0.00154315,0.019848,0.00790022,0.130639,0.0115384,0.00927886,594,1156,-9.08278,-0.861022
-623,-132,-9.10004,0.960938,0.00704435,0.0035069,0.00121617,0.00742213,0.00312913,0.301177,0.00430269,0.0142149,601,1156,-9.10002,-0.960992
-616,-132,-9.09113,1.04456,-0.000453323,0.0012934,-0.00181503,0.00243426,-0.00159418,-1.00964,0.00234262,0.0192603,608,1156,-9.09112,-1.04453
-609,-132,-9.07422,1.11682,-0.00418715,-0.00018682,-0.00362709,0.00195505,-0.00632902,-1.03738,0.0050001,0.0127351,615,1156,-9.07423,-1.11685
-602,-132,-9.1153,1.19226,-0.00549395,-0.000312618,-0.00502488,0.00275012,-0.00855669,-1.02341,0.00680888,0.0111063,622,1156,-9.11527,-1.19231
-595,-132,-9.1355,1.30188,-0.00656011,-0.000525069,-0.00615498,0.00331228,-0.0103975,-1.01331,0.00826015,0.0112185,629,1156,-9.13551,-1.30188
-588,-132,-9.08868,1.41284,-0.00738809,-0.000555261,-0.00694909,0.00377182,-0.0117152,-1.01386,0.00932522,0.0149999,636,1156,-9.08871,-1.41283
-581,-132,-9.35944,1.37585,-0.00788977,-0.000480062,-0.00729265,0.00399486,-0.0123647,-1.02042,0.00984863,0.0364356,643,1156,-9.35946,-1.37587
-574,-132,-9.74091,1.03088,-0.00799102,-0.000346813,-0.00725383,0.00403026,-0.0123681,-1.02787,0.0098671,0.0446197,650,1156,-9.74092,-1.03083
-567,-132,-9.95276,0.639282,-0.00762558,-0.000152418,-0.00696064,0.00401116,-0.0117892,-1.03173,0.0094836,0.0352489,657,1156,-9.95279,-0.639329
-560,-132,-10.0103,0.478027,-0.00694438,0.000121054,-0.00620306,0.00372683,-0.0105502,-1.04425,0.00855086,0.0350955,664,1156,-10.0103,-0.478087
-553,-132,-9.78662,0.126099,-0.00570712,0.000384189,-0.00494718,0.00314806,-0.00847099,-1.06132,0.00693895,0.0405313,671,1156,-9.78662,-0.126085
-546,-132,-10.146,0.640259,-0.00392754,0.000557067,-0.00318004,0.00220585,-0.00557632,-1.09247,0.00463138,0.0404423,678,1156,-10.146,-0.64026
-539,-132,-10.0558,0.54126,-0.00158779,0.000540887,-0.000892062,0.000865286,-0.00191219,-1.22201,0.00164111,0.0419353,685,1156,-10.0558,-0.541293
-532,-132,-10.0478,0.524536,0.00113728,0.000208404,0.00172069,0.00245511,-0.00110942,0.653582,0.0021063,0.0420534,692,1156,-10.0478,-0.52452
-525,-132,-10.0598,0.509521,0.00248302,-0.00121308,0.00308966,0.00423515,-0.00296521,0.515873,0.00417863,0.0404901,699,1156,-10.0597,-0.509545
-518,-132,0,0,0,0,0,0,0,0,0,-1,706,1156,0,0
-511,-132,0,0,0,0,0,0,0,0,0,-1,713,1156,0,0
-504,-132,0,0,0,0,0,0,0,0,0,-1,720,1156,0,0
-497,-132,0,0,0,0,0,0,0,0,0,-1,727,1156,0,0
-490,-132,0,0,0,0,0,0,0,0,0,-1,734,1156,0,0
-483,-132,0,0,0,0,0,0,0,0,0,-1,741,1156,0,0
-476,-132,0,0,0,0,0,0,0,0,0,-1,748,1156,0,0
-469,-132,0,0,0,0,0,0,0,0,0,-1,755,1156,0,0
-462,-132,0,0,0,0,0,0,0,0,0,-1,762,1156,0,0
-455,-132,0,0,0,0,0,0,0,0,0,-1,769,1156,0,0
-448,-132,0,0,0,0,0,0,0,0,0,-1,776,1156,0,0
-441,-132,0,0,0,0,0,0,0,0,0,-1,783,1156,0,0
-434,-132,0,0,0,0,0,0,0,0,0,-1,790,1156,0,0
-427,-132,0,0,0,0,0,0,0,0,0,-1,797,1156,0,0
-420,-132,0,0,0,0,0,0,0,0,0,-1,804,1156,0,0
-413,-132,0,0,0,0,0,0,0,0,0,-1,811,1156,0,0
-406,-132,0,0,0,0,0,0,0,0,0,-1,818,1156,0,0
-399,-132,0,0,0,0,0,0,0,0,0,-1,825,1156,0,0
-392,-132,0,0,0,0,0,0,0,0,0,-1,832,1156,0,0
-385,-132,0,0,0,0,0,0,0,0,0,-1,839,1156,0,0
-378,-132,0,0,0,0,0,0,0,0,0,-1,846,1156,0,0
-371,-132,0,0,0,0,0,0,0,0,0,-1,853,1156,0,0
-364,-132,0,0,0,0,0,0,0,0,0,-1,860,1156,0,0
-357,-132,0,0,0,0,0,0,0,0,0,-1,867,1156,0,0
-350,-132,0,0,0,0,0,0,0,0,0,-1,874,1156,0,0
-343,-132,0,0,0,0,0,0,0,0,0,-1,881,1156,0,0
-336,-132,0,0,0,0,0,0,0,0,0,-1,888,1156,0,0
-329,-132,0,0,0,0,0,0,0,0,0,-1,895,1156,0,0
-322,-132,0,0,0,0,0,0,0,0,0,-1,902,1156,0,0
-315,-132,0,0,0,0,0,0,0,0,0,-1,909,1156,0,0
-308,-132,0,0,0,0,0,0,0,0,0,-1,916,1156,0,0
-301,-132,0,0,0,0,0,0,0,0,0,-1,923,1156,0,0
-294,-132,0,0,0,0,0,0,0,0,0,-1,930,1156,0,0
-287,-132,0,0,0,0,0,0,0,0,0,-1,937,1156,0,0
-280,-132,0,0,0,0,0,0,0,0,0,-1,944,1156,0,0
-273,-132,0,0,0,0,0,0,0,0,0,-1,951,1156,0,0
-266,-132,0,0,0,0,0,0,0,0,0,-1,958,1156,0,0
-259,-132,0,0,0,0,0,0,0,0,0,-1,965,1156,0,0
-252,-132,0,0,0,0,0,0,0,0,0,-1,972,1156,0,0
-245,-132,0,0,0,0,0,0,0,0,0,-1,979,1156,0,0
-238,-132,0,0,0,0,0,0,0,0,0,-1,986,1156,0,0
-231,-132,0,0,0,0,0,0,0,0,0,-1,993,1156,0,0
-224,-132,0,0,0,0,0,0,0,0,0,-1,1000,1156,0,0
-217,-132,0,0,0,0,0,0,0,0,0,-1,1007,1156,0,0
-210,-132,0,0,0,0,0,0,0,0,0,-1,1014,1156,0,0
-203,-132,0,0,0,0,0,0,0,0,0,-1,1021,1156,0,0
-196,-132,0,0,0,0,0,0,0,0,0,-1,1028,1156,0,0
-189,-132,0,0,0,0,0,0,0,0,0,-1,1035,1156,0,0
-182,-132,0,0,0,0,0,0,0,0,0,-1,1042,1156,0,0
-175,-132,0,0,0,0,0,0,0,0,0,-1,1049,1156,0,0
-168,-132,0,0,0,0,0,0,0,0,0,-1,1056,1156,0,0
-161,-132,0,0,0,0,0,0,0,0,0,-1,1063,1156,0,0
-154,-132,0,0,0,0,0,0,0,0,0,-1,1070,1156,0,0
-147,-132,0,0,0,0,0,0,0,0,0,-1,1077,1156,0,0
-140,-132,0,0,0,0,0,0,0,0,0,-1,1084,1156,0,0
-133,-132,0,0,0,0,0,0,0,0,0,-1,1091,1156,0,0
-126,-132,0,0,0,0,0,0,0,0,0,-1,1098,1156,0,0
-119,-132,0,0,0,0,0,0,0,0,0,-1,1105,1156,0,0
-112,-132,0,0,0,0,0,0,0,0,0,-1,1112,1156,0,0
-105,-132,0,0,0,0,0,0,0,0,0,-1,1119,1156,0,0
-98,-132,0,0,0,0,0,0,0,0,0,-1,1126,1156,0,0
-91,-132,0,0,0,0,0,0,0,0,0,-1,1133,1156,0,0
-84,-132,0,0,0,0,0,0,0,0,0,-1,1140,1156,0,0
-77,-132,0,0,0,0,0,0,0,0,0,-1,1147,1156,0,0
-70,-132,0,0,0,0,0,0,0,0,0,-1,1154,1156,0,0
-63,-132,0,0,0,0,0,0,0,0,0,-1,1161,1156,0,0
-56,-132,0,0,0,0,0,0,0,0,0,-1,1168,1156,0,0
-49,-132,0,0,0,0,0,0,0,0,0,-1,1175,1156,0,0
-42,-132,0,0,0,0,0,0,0,0,0,-1,1182,1156,0,0
-35,-132,0,0,0,0,0,0,0,0,0,-1,1189,1156,0,0
-28,-132,0,0,0,0,0,0,0,0,0,-1,1196,1156,0,0
-21,-132,0,0,0,0,0,0,0,0,0,-1,1203,1156,0,0
-14,-132,0,0,0,0,0,0,0,0,0,-1,1210,1156,0,0
-7,-132,0,0,0,0,0,0,0,0,0,-1,1217,1156,0,0
0,-132,0,0,0,0,0,0,0,0,0,-1,1224,1156,0,0
7,-132,0,0,0,0,0,0,0,0,0,-1,1231,1156,0,0
14,-132,0,0,0,0,0,0,0,0,0,-1,1238,1156,0,0
21,-132,0,0,0,0,0,0,0,0,0,-1,1245,1156,0,0
28,-132,0,0,0,0,0,0,0,0,0,-1,1252,1156,0,0
35,-132,0,0,0,0,0,0,0,0,0,-1,1259,1156,0,0
42,-132,0,0,0,0,0,0,0,0,0,-1,1266,1156,0,0
49,-132,0,0,0,0,0,0,0,0,0,-1,1273,1156,0,0
56,-132,0,0,0,0,0,0,0,0,0,-1,1280,1156,0,0
63,-132,0,0,0,0,0,0,0,0,0,-1,1287,1156,0,0
70,-132,0,0,0,0,0,0,0,0,0,-1,1294,1156,0,0
77,-132,0,0,0,0,0,0,0,0,0,-1,1301,1156,0,0
84,-132,0,0,0,0,0,0,0,0,0,-1,1308,1156,0,0
91,-132,0,0,0,0,0,0,0,0,0,-1,1315,1156,0,0
98,-132,0,0,0,0,0,0,0,0,0,-1,1322,1156,0,0
105,-132,0,0,0,0,0,0,0,0,0,-1,1329,1156,0,0
112,-132,0,0,0,0,0,0,0,0,0,-1,1336,1156,0,0
119,-132,0,0,0,0,0,0,0,0,0,-1,1343,1156,0,0
126,-132,0,0,0,0,0,0,0,0,0,-1,1350,1156,0,0
133,-132,0,0,0,0,0,0,0,0,0,-1,1357,1156,0,0
140,-132,0,0,0,0,0,0,0,0,0,-1,1364,1156,0,0
147,-132,0,0,0,0,0,0,0,0,0,-1,1371,1156,0,0
154,-132,0,0,0,0,0,0,0,0,0,-1,1378,1156,0,0
161,-132,0,0,0,0,0,0,0,0,0,-1,1385,1156,0,0
168,-132,0,0,0,0,0,0,0,0,0,-1,1392,1156,0,0
175,-132,0,0,0,0,0,0,0,0,0,-1,1399,1156,0,0
182,-132,0,0,0,0,0,0,0,0,0,-1,1406,1156,0,0
189,-132,0,0,0,0,0,0,0,0,0,-1,1413,1156,0,0
196,-132,0,0,0,0,0,0,0,0,0,-1,1420,1156,0,0
203,-132,0,0,0,0,0,0,0,0,0,-1,1427,1156,0,0
210,-132,0,0,0,0,0,0,0,0,0,-1,1434,1156,0,0
217,-132,0,0,0,0,0,0,0,0,0,-1,1441,1156,0,0
224,-132,0,0,0,0,0,0,0,0,0,-1,1448,1156,0,0
231,-132,0,0,0,0,0,0,0,0,0,-1,1455,1156,0,0
238,-132,0,0,0,0,0,0,0,0,0,-1,1462,1156,0,0
245,-132,0,0,0,0,0,0,0,0,0,-1,1469,1156,0,0
252,-132,0,0,0,0,0,0,0,0,0,-1,1476,1156,0,0
259,-132,0,0,0,0,0,0,0,0,0,-1,1483,1156,0,0
266,-132,0,0,0,0,0,0,0,0,0,-1,1490,1156,0,0
273,-132,0,0,0,0,0,0,0,0,0,-1,1497,1156,0,0
280,-132,0,0,0,0,0,0,0,0,0,-1,1504,1156,0,0
287,-132,0,0,0,0,0,0,0,0,0,-1,1511,1156,0,0
294,-132,0,0,0,0,0,0,0,0,0,-1,1518,1156,0,0
301,-132,0,0,0,0,0,0,0,0,0,-1,1525,1156,0,0
308,-132,0,0,0,0,0,0,0,0,0,-1,1532,1156,0,0
315,-132,0,0,0,0,0,0,0,0,0,-1,1539,1156,0,0
322,-132,0,0,0,0,0,0,0,0,0,-1,1546,1156,0,0
329,-132,0,0,0,0,0,0,0,0,0,-1,1553,1156,0,0
336,-132,0,0,0,0,0,0,0,0,0,-1,1560,1156,0,0
343,-132,0,0,0,0,0,0,0,0,0,-1,1567,1156,0,0
350,-132,0,0,0,0,0,0,0,0,0,-1,1574,1156,0,0
357,-132,0,0,0,0,0,0,0,0,0,-1,1581,1156,0,0
364,-132,0,0,0,0,0,0,0,0,0,-1,1588,1156,0,0
371,-132,0,0,0,0,0,0,0,0,0,-1,1595,1156,0,0
378,-132,0,0,0,0,0,0,0,0,0,-1,1602,1156,0,0
385,-132,0,0,0,0,0,0,0,0,0,-1,1609,1156,0,0
392,-132,0,0,0,0,0,0,0,0,0,-1,1616,1156,0,0
399,-132,0,0,0,0,0,0,0,0,0,-1,1623,1156,0,0
406,-132,0,0,0,0,0,0,0,0,0,-1,1630,1156,0,0
413,-132,0,0,0,0,0,0,0,0,0,-1,1637,1156,0,0
420,-132,0,0,0,0,0,0,0,0,0,-1,1644,1156,0,0
427,-132,0,0,0,0,0,0,0,0,0,-1,1651,1156,0,0
434,-132,0,0,0,0,0,0,0,0,0,-1,1658,1156,0,0
441,-132,0,0,0,0,0,0,0,0,0,-1,1665,1156,0,0
448,-132,0,0,0,0,0,0,0,0,0,-1,1672,1156,0,0
455,-132,0,0,0,0,0,0,0,0,0,-1,1679,1156,0,0
462,-132,0,0,0,0,0,0,0,0,0,-1,1686,1156,0,0
469,-132,0,0,0,0,0,0,0,0,0,-1,1693,1156,0,0
476,-132,0,0,0,0,0,0,0,0,0,-1,1700,1156,0,0
483,-132,0,0,0,0,0,0,0,0,0,-1,1707,1156,0,0
490,-132,0,0,0,0,0,0,0,0,0,-1,1714,1156,0,0
497,-132,0,0,0,0,0,0,0,0,0,-1,1721,1156,0,0
504,-132,0,0,0,0,0,0,0,0,0,-1,1728,1156,0,0
511,-132,0,0,0,0,0,0,0,0,0,-1,1735,1156,0,0
518,-132,0,0,0,0,0,0,0,0,0,-1,1742,1156,0,0
525,-132,0,0,0,0,0,0,0,0,0,-1,1749,1156,0,0
532,-132,0,0,0,0,0,0,0,0,0,-1,1756,1156,0,0
539,-132,0,0,0,0,0,0,0,0,0,-1,1763,1156,0,0
546,-132,0,0,0,0,0,0,0,0,0,-1,1770,1156,0,0
553,-132,0,0,0,0,0,0,0,0,0,-1,1777,1156,0,0
560,-132,0,0,0,0,0,0,0,0,0,-1,1784,1156,0,0
567,-132,0,0,0,0,0,0,0,0,0,-1,1791,1156,0,0
574,-132,0,0,0,0,0,0,0,0,0,-1,1798,1156,0,0
581,-132,0,0,0,0,0,0,0,0,0,-1,1805,1156,0,0
588,-132,0,0,0,0,0,0,0,0,0,-1,1812,1156,0,0
595,-132,0,0,0,0,0,0,0,0,0,-1,1819,1156,0,0
602,-132,0,0,0,0,0,0,0,0,0,-1,1826,1156,0,0
609,-132,0,0,0,0,0,0,0,0,0,-1,1833,1156,0,0
616,-132,0,0,0,0,0,0,0,0,0,-1,1840,1156,0,0
623,-132,0,0,0,0,0,0,0,0,0,-1,1847,1156,0,0
630,-132,0,0,0,0,0,0,0,0,0,-1,1854,1156,0,0
637,-132,0,0,0,0,0,0,0,0,0,-1,1861,1156,0,0
644,-132,16.1781,2.01807,0.000509757,-0.0025964,-0.00100408,0.000806063,-0.0028927,-0.286959,0.0022459,0.0417662,1868,1156,16.1781,-2.01813
651,-132,16.0718,1.89636,0.000857158,-0.00143199,-0.000445669,0.000940864,-0.0015157,-0.185657,0.00143118,0.0415234,1875,1156,16.0718,-1.89632
658,-132,15.9501,2.1073,0.000653042,-0.000652118,-0.000118399,0.000663696,-0.000662772,-0.0897398,0.000765837,0.0417274,1882,1156,15.9501,-2.10735
665,-132,15.8986,2.41211,0,0,0,0,0,0,0,-1,1889,1156,15.8986,-2.4121
672,-132,15.9298,2.3042,-0.00178509,-0.000337147,0.00135219,0.000472688,-0.00259492,1.03118,0.00190714,0.0420362,1896,1156,15.9298,-2.30425
679,-132,16.0322,2.27222,-0.00319065,-0.000558601,0.0021015,0.000604933,-0.00435418,1.06514,0.00312402,0.0389779,1903,1156,16.0322,-2.27224
686,-132,16.094,2.39746,-0.00444685,-0.000881104,0.00276751,0.000628098,-0.00595605,1.07155,0.00419577,0.0370968,1910,1156,16.094,-2.39744
693,-132,16.0609,2.35156,-0.00543613,-0.00113239,0.00328077,0.000639254,-0.00720778,1.07566,0.00503183,0.0282547,1917,1156,16.0609,-2.35157
700,-132,16.0996,2.22693,-0.00607945,-0.0013552,0.0037942,0.000752076,-0.00818673,1.06382,0.005725,0.0269863,1924,1156,16.0996,-2.22698
707,-132,15.7307,3.17041,0,0,0,0,0,0,0,-1,1931,1156,15.7307,-3.17046
714,-132,15.3967,3.42212,-0.00663081,-0.00163747,0.00411041,0.000675111,-0.00894339,1.05832,0.00619956,0.0304337,1938,1156,15.3968,-3.42213
721,-132,15.2247,3.49268,-0.00666105,-0.00175258,0.00400005,0.000486125,-0.00889975,1.06056,0.00610166,0.02081,1945,1156,15.2247,-3.49263
728,-132,15.2352,3.37964,-0.00632257,-0.00155074,0.00367657,0.000446233,-0.00831955,1.07322,0.00570093,0.0121302,1952,1156,15.2352,-3.37966
735,-132,15.2604,3.28772,-0.00566604,-0.00143321,0.0030112,0.00013094,-0.00723019,1.09172,0.00486436,0.0143393,1959,1156,15.2603,-3.28768
742,-132,15.2603,3.21387,-0.0051169,-0.000832863,0.0023094,0.000174973,-0.00612474,1.1593,0.00414271,0.0197024,1966,1156,15.2602,-3.21388
749,-132,15.2562,3.15271,-0.00497168,-3.50769e-05,0.00204514,0.000702105,-0.00570887,1.22484,0.00406023,0.0241491,1973,1156,15.2562,-3.15275
756,-132,15.2629,3.05835,-0.00546482,0.00165864,0.0022161,0.00229179,-0.00609797,1.29251,0.00500723,0.0212658,1980,1156,15.263,-3.05837
763,-132,15.2802,3.04565,-0.00665061,0.00412403,0.00255483,0.00469913,-0.00722571,1.34939,0.00693613,0.0114769,1987,1156,15.2802,-3.04569
770,-132,15.2855,3.0033,-0.00842475,0.00668039,0.00334375,0.00738748,-0.00913184,1.3624,0.00955514,0.0114425,1994,1156,15.2856,-3.00335
777,-132,15.2673,2.90381,-0.0114773,0.00986486,0.00524772,0.0110854,-0.0126979,1.34228,0.0137418,0.0208576,2001,1156,15.2673,-2.90385
784,-132,15.2528,2.82581,-0.0156708,0.0141137,0.00820712,0.0162254,-0.0177825,1.31895,0.0196414,0.0449165,2008,1156,15.2528,-2.82583
791,-132,15.2643,2.76807,0,0,0,0,0,0,0,-1,2015,1156,15.2643,-2.76803
798,-132,16.0647,2.59668,-0.0274477,0.0271495,0.0178569,0.0324712,-0.0327694,1.28116,0.0376668,0.0477212,2022,1156,16.0647,-2.59668
805,-132,15.8466,3.23669,-0.0352326,0.036853,0.0251468,0.0447584,-0.043138,1.26621,0.0507499,0.0450201,2029,1156,15.8466,-3.23665
812,-132,15.6467,3.38501,-0.0444936,0.0496528,0.0347486,0.061089,-0.0559298,1.25285,0.0675827,0.0441328,2036,1156,15.6468,-3.38496
-700,-139,0,0,0,0,0,0,0,0,0,-1,524,1163,0,0
-693,-139,-8.46832,-2.05823,0,0,0,0,0,0,0,-1,531,1163,-8.46829,2.05824
-686,-139,-8.38965,-0.407471,0,0,0,0,0,0,0,-1,538,1163,-8.38963,0.407459
-679,-139,-9.29498,0.155762,0,0,0,0,0,0,0,-1,545,1163,-9.29499,-0.155818
-672,-139,-9.07257,0.0361328,0,0,0,0,0,0,0,-1,552,1163,-9.07255,-0.0361809
-665,-139,-8.73926,-0.236938,0,0,0,0,0,0,0,-1,559,1163,-8.73923,0.236942
-658,-139,-8.86658,0.221802,0,0,0,0,0,0,0,-1,566,1163,-8.86658,-0.221853
-651,-139,-8.92841,0.448608,0.0647116,0.0269144,0.00712356,0.0660096,0.0256164,0.180233,0.0384277,0.0399056,573,1163,-8.92842,-0.448596
-644,-139,-8.99451,0.672852,0.0448174,0.0190743,0.00572879,0.0460347,0.017857,0.209375,0.0267999,0.0212414,580,1163,-8.99452,-0.672893
-637,-139,-9.00415,0.77063,0.0296599,0.0129261,0.00399958,0.0305667,0.0120193,0.222957,0.0177813,0.0115876,587,1163,-9.00416,-0.770637
-630,-139,-9.01166,0.848877,0.0178789,0.00819624,0.00199511,0.0182738,0.00780126,0.195448,0.0105879,0.00999806,594,1163,-9.01167,-0.848829
-623,-139,-9.02734,0.949585,0.00614319,0.00357787,0.00130056,0.00668719,0.00303387,0.396165,0.00386637,0.0156959,601,1163,-9.02734,-0.949641
-616,-139,-9.01324,0.998047,-0.000605888,0.00128859,-0.00170786,0.00229431,-0.00161161,-1.03859,0.00226654,0.0173271,608,1163,-9.01327,-0.99803
-609,-139,-8.98853,1.10669,-0.00389289,-7.8823e-05,-0.00354472,0.00203929,-0.00601101,-1.03219,0.00483272,0.0204191,615,1163,-8.98855,-1.10672
-602,-139,-9.03253,1.23328,-0.00529588,-0.000307308,-0.00506,0.00283978,-0.00844296,-1.01439,0.00677656,0.0132305,622,1163,-9.03252,-1.23327
-595,-139,-9.05005,1.3186,-0.00642247,-0.000538254,-0.00622531,0.00340517,-0.0103659,-1.00614,0.00828236,0.0111888,629,1163,-9.05006,-1.31863
-588,-139,-9.01111,1.43262,-0.00728714,-0.000565319,-0.00703342,0.00386895,-0.0117214,-1.00828,0.00937395,0.0143101,636,1163,-9.01109,-1.43256
-581,-139,-9.06659,1.42383,-0.0077813,-0.000502622,-0.00738222,0.00408859,-0.0123725,-1.01441,0.00989684,0.0324086,643,1163,-9.06659,-1.42388
-574,-139,-9.48846,0.937744,-0.00781998,-0.000379456,-0.00732908,0.00411952,-0.012319,-1.02025,0.00987646,0.0437013,650,1163,-9.48847,-0.937724
-567,-139,-9.93915,0.560913,-0.0073846,-0.000235543,-0.00702558,0.00407257,-0.0116927,-1.02072,0.00944987,0.0374579,657,1163,-9.93916,-0.560916
-560,-139,-10.0118,0.697632,-0.00668417,1.36959e-05,-0.00626584,0.00376941,-0.0104399,-1.03082,0.00849973,0.0347981,664,1163,-10.0118,-0.697585
-553,-139,-10.0883,1.05054,-0.00541718,0.000251934,-0.00501678,0.00317956,-0.00834481,-1.04255,0.00687276,0.038658,671,1163,-10.0883,-1.05048
-546,-139,-10.051,0.621704,-0.00356861,0.00041209,-0.00326189,0.00224292,-0.00539944,-1.05933,0.00453604,0.0441665,678,1163,-10.051,-0.62171
-539,-139,-9.96008,0.312866,-0.0011005,0.000406193,-0.000999087,0.000904129,-0.00159844,-1.10844,0.00146327,0.0434842,685,1163,-9.96008,-0.312833
-532,-139,-9.94708,0.374268,0.00197298,0.000123789,0.00165184,0.00294138,-0.000844615,0.530254,0.00229487,0.0393716,692,1163,-9.94706,-0.374317
-525,-139,-9.94537,0.405273,0.00422108,-0.00106789,0.00328889,0.0057968,-0.00264361,0.44679,0.00498513,0.038085,699,1163,-9.94536,-0.405272
-518,-139,0,0,0,0,0,0,0,0,0,-1,706,1163,0,0
-511,-139,0,0,0,0,0,0,0,0,0,-1,713,1163,0,0
-504,-139,0,0,0,0,0,0,0,0,0,-1,720,1163,0,0
-497,-139,0,0,0,0,0,0,0,0,0,-1,727,1163,0,0
-490,-139,0,0,0,0,0,0,0,0,0,-1,734,1163,0,0
-483,-139,0,0,0,0,0,0,0,0,0,-1,741,1163,0,0
-476,-139,0,0,0,0,0,0,0,0,0,-1,748,1163,0,0
-469,-139,0,0,0,0,0,0,0,0,0,-1,755,1163,0,0
-462,-139,0,0,0,0,0,0,0,0,0,-1,762,1163,0,0
-455,-139,0,0,0,0,0,0,0,0,0,-1,769,1163,0,0
-448,-139,0,0,0,0,0,0,0,0,0,-1,776,1163,0,0
-441,-139,0,0,0,0,0,0,0,0,0,-1,783,1163,0,0
-434,-139,0,0,0,0,0,0,0,0,0,-1,790,1163,0,0
-427,-139,0,0,0,0,0,0,0,0,0,-1,797,1163,0,0
-420,-139,0,0,0,0,0,0,0,0,0,-1,804,1163,0,0
-413,-139,0,0,0,0,0,0,0,0,0,-1,811,1163,0,0
-406,-139,0,0,0,0,0,0,0,0,0,-1,818,1163,0,0
-399,-139,0,0,0,0,0,0,0,0,0,-1,825,1163,0,0
-392,-139,0,0,0,0,0,0,0,0,0,-1,832,1163,0,0
-385,-139,0,0,0,0,0,0,0,0,0,-1,839,1163,0,0
-378,-139,0,0,0,0,0,0,0,0,0,-1,846,1163,0,0
-371,-139,0,0,0,0,0,0,0,0,0,-1,853,1163,0,0
-364,-139,0,0,0,0,0,0,0,0,0,-1,860,1163,0,0
-357,-139,0,0,0,0,0,0,0,0,0,-1,867,1163,0,0
-350,-139,0,0,0,0,0,0,0,0,0,-1,874,1163,0,0
-343,-139,0,0,0,0,0,0,0,0,0,-1,881,1163,0,0
-336,-139,0,0,0,0,0,0,0,0,0,-1,888,1163,0,0
-329,-139,0,0,0,0,0,0,0,0,0,-1,895,1163,0,0
-322,-139,0,0,0,0,0,0,0,0,0,-1,902,1163,0,0
-315,-139,0,0,0,0,0,0,0,0,0,-1,909,1163,0,0
-308,-139,0,0,0,0,0,0,0,0,0,-1,916,1163,0,0
-301,-139,0,0,0,0,0,0,0,0,0,-1,923,1163,0,0
-294,-139,0,0,0,0,0,0,0,0,0,-1,930,1163,0,0
-287,-139,0,0,0,0,0,0,0,0,0,-1,937,1163,0,0
-280,-139,0,0,0,0,0,0,0,0,0,-1,944,1163,0,0
-273,-139,0,0,0,0,0,0,0,0,0,-1,951,1163,0,0
-266,-139,0,0,0,0,0,0,0,0,0,-1,958,1163,0,0
-259,-139,0,0,0,0,0,0,0,0,0,-1,965,1163,0,0
-252,-139,0,0,0,0,0,0,0,0,0,-1,972,1163,0,0
-245,-139,0,0,0,0,0,0,0,0,0,-1,979,1163,0,0
-238,-139,0,0,0,0,0,0,0,0,0,-1,986,1163,0,0
-231,-139,0,0,0,0,0,0,0,0,0,-1,993,1163,0,0
-224,-139,0,0,0,0,0,0,0,0,0,-1,1000,1163,0,0
-217,-139,0,0,0,0,0,0,0,0,0,-1,1007,1163,0,0
-210,-139,0,0,0,0,0,0,0,0,0,-1,1014,1163,0,0
-203,-139,0,0,0,0,0,0,0,0,0,-1,1021,1163,0,0
-196,-139,0,0,0,0,0,0,0,0,0,-1,1028,1163,0,0
-189,-139,0,0,0,0,0,0,0,0,0,-1,1035,1163,0,0
-182,-139,0,0,0,0,0,0,0,0,0,-1,1042,1163,0,0
-175,-139,0,0,0,0,0,0,0,0,0,-1,1049,1163,0,0
-168,-139,0,0,0,0,0,0,0,0,0,-1,1056,1163,0,0
-161,-139,0,0,0,0,0,0,0,0,0,-1,1063,1163,0,0
-154,-139,0,0,0,0,0,0,0,0,0,-1,1070,1163,0,0
-147,-139,0,0,0,0,0,0,0,0,0,-1,1077,1163,0,0
-140,-139,0,0,0,0,0,0,0,0,0,-1,1084,1163,0,0
-133,-139,0,0,0,0,0,0,0,0,0,-1,1091,1163,0,0
-126,-139,0,0,0,0,0,0,0,0,0,-1,1098,1163,0,0
-119,-139,0,0,0,0,0,0,0,0,0,-1,1105,1163,0,0
-112,-139,0,0,0,0,0,0,0,0,0,-1,1112,1163,0,0
-105,-139,0,0,0,0,0,0,0,0,0,-1,1119,1163,0,0
-98,-139,0,0,0,0,0,0,0,0,0,-1,1126,1163,0,0
-91,-139,0,0,0,0,0,0,0,0,0,-1,1133,1163,0,0
-84,-139,0,0,0,0,0,0,0,0,0,-1,1140,1163,0,0
-77,-139,0,0,0,0,0,0,0,0,0,-1,1147,1163,0,0
-70,-139,0,0,0,0,0,0,0,0,0,-1,1154,1163,0,0
-63,-139,0,0,0,0,0,0,0,0,0,-1,1161,1163,0,0
-56,-139,0,0,0,0,0,0,0,0,0,-1,1168,1163,0,0
-49,-139,0,0,0,0,0,0,0,0,0,-1,1175,1163,0,0
-42,-139,0,0,0,0,0,0,0,0,0,-1,1182,1163,0,0
-35,-139,0,0,0,0,0,0,0,0,0,-1,1189,1163,0,0
-28,-139,0,0,0,0,0,0,0,0,0,-1,1196,1163,0,0
-21,-139,0,0,0,0,0,0,0,0,0,-1,1203,1163,0,0
-14,-139,0,0,0,0,0,0,0,0,0,-1,1210,1163,0,0
-7,-139,0,0,0,0,0,0,0,0,0,-1,1217,1163,0,0
0,-139,0,0,0,0,0,0,0,0,0,-1,1224,1163,0,0
7,-139,0,0,0,0,0,0,0,0,0,-1,1231,1163,0,0
14,-139,0,0,0,0,0,0,0,0,0,-1,1238,1163,0,0
21,-139,0,0,0,0,0,0,0,0,0,-1,1245,1163,0,0
28,-139,0,0,0,0,0,0,0,0,0,-1,1252,1163,0,0
35,-139,0,0,0,0,0,0,0,0,0,-1,1259,1163,0,0
42,-139,0,0,0,0,0,0,0,0,0,-1,1266,1163,0,0
49,-139,0,0,0,0,0,0,0,0,0,-1,1273,1163,0,0
56,-139,0,0,0,0,0,0,0,0,0,-1,1280,1163,0,0
63,-139,0,0,0,0,0,0,0,0,0,-1,1287,1163,0,0
70,-139,0,0,0,0,0,0,0,0,0,-1,1294,1163,0,0
77,-139,0,0,0,0,0,0,0,0,0,-1,1301,1163,0,0
84,-139,0,0,0,0,0,0,0,0,0,-1,1308,1163,0,0
91,-139,0,0,0,0,0,0,0,0,0,-1,1315,1163,0,0
98,-139,0,0,0,0,0,0,0,0,0,-1,1322,1163,0,0
105,-139,0,0,0,0,0,0,0,0,0,-1,1329,1163,0,0
112,-139,0,0,0,0,0,0,0,0,0,-1,1336,1163,0,0
119,-139,0,0,0,0,0,0,0,0,0,-1,1343,1163,0,0
126,-139,0,0,0,0,0,0,0,0,0,-1,1350,1163,0,0
133,-139,0,0,0,0,0,0,0,0,0,-1,1357,1163,0,0
140,-139,0,0,0,0,0,0,0,0,0,-1,1364,1163,0,0
147,-139,0,0,0,0,0,0,0,0,0,-1,1371,1163,0,0
154,-139,0,0,0,0,0,0,0,0,0,-1,1378,1163,0,0
161,-139,0,0,0,0,0,0,0,0,0,-1,1385,1163,0,0
168,-139,0,0,0,0,0,0,0,0,0,-1,1392,1163,0,0
175,-139,0,0,0,0,0,0,0,0,0,-1,1399,1163,0,0
182,-139,0,0,0,0,0,0,0,0,0,-1,1406,1163,0,0
189,-139,0,0,0,0,0,0,0,0,0,-1,1413,1163,0,0
196,-139,0,0,0,0,0,0,0,0,0,-1,1420,1163,0,0
203,-139,0,0,0,0,0,0,0,0,0,-1,1427,1163,0,0
210,-139,0,0,0,0,0,0,0,0,0,-1,1434,1163,0,0
217,-139,0,0,0,0,0,0,0,0,0,-1,1441,1163,0,0
224,-139,0,0,0,0,0,0,0,0,0,-1,1448,1163,0,0
231,-139,0,0,0,0,0,0,0,0,0,-1,1455,1163,0,0
238,-139,0,0,0,0,0,0,0,0,0,-1,1462,1163,0,0
245,-139,0,0,0,0,0,0,0,0,0,-1,1469,1163,0,0
252,-139,0,0,0,0,0,0,0,0,0,-1,1476,1163,0,0
259,-139,0,0,0,0,0,0,0,0,0,-1,1483,1163,0,0
266,-139,0,0,0,0,0,0,0,0,0,-1,1490,1163,0,0
273,-139,0,0,0,0,0,0,0,0,0,-1,1497,1163,0,0
280,-139,0,0,0,0,0,0,0,0,0,-1,1504,1163,0,0
287,-139,0,0,0,0,0,0,0,0,0,-1,1511,1163,0,0
294,-139,0,0,0,0,0,0,0,0,0,-1,1518,1163,0,0
301,-139,0,0,0,0,0,0,0,0,0,-1,1525,1163,0,0
308,-139,0,0,0,0,0,0,0,0,0,-1,1532,1163,0,0
315,-139,0,0,0,0,0,0,0,0,0,-1,1539,1163,0,0
322,-139,0,0,0,0,0,0,0,0,0,-1,1546,1163,0,0
329,-139,0,0,0,0,0,0,0,0,0,-1,1553,1163,0,0
336,-139,0,0,0,0,0,0,0,0,0,-1,1560,1163,0,0
343,-139,0,0,0,0,0,0,0,0,0,-1,1567,1163,0,0
350,-139,0,0,0,0,0,0,0,0,0,-1,1574,1163,0,0
357,-139,0,0,0,0,0,0,0,0,0,-1,1581,1163,0,0
364,-139,0,0,0,0,0,0,0,0,0,-1,1588,1163,0,0
371,-139,0,0,0,0,0,0,0,0,0,-1,1595,1163,0,0
378,-139,0,0,0,0,0,0,0,0,0,-1,1602,1163,0,0
385,-139,0,0,0,0,0,0,0,0,0,-1,1609,1163,0,0
392,-139,0,0,0,0,0,0,0,0,0,-1,1616,1163,0,0
399,-139,0,0,0,0,0,0,0,0,0,-1,1623,1163,0,0
406,-139,0,0,0,0,0,0,0,0,0,-1,1630,1163,0,0
413,-139,0,0,0,0,0,0,0,0,0,-1,1637,1163,0,0
420,-139,0,0,0,0,0,0,0,0,0,-1,1644,1163,0,0
427,-139,0,0,0,0,0,0,0,0,0,-1,1651,1163,0,0
434,-139,0,0,0,0,0,0,0,0,0,-1,1658,1163,0,0
441,-139,0,0,0,0,0,0,0,0,0,-1,1665,1163,0,0
448,-139,0,0,0,0,0,0,0,0,0,-1,1672,1163,0,0
455,-139,0,0,0,0,0,0,0,0,0,-1,1679,1163,0,0
462,-139,0,0,0,0,0,0,0,0,0,-1,1686,1163,0,0
469,-139,0,0,0,0,0,0,0,0,0,-1,1693,1163,0,0
476,-139,0,0,0,0,0,0,0,0,0,-1,1700,1163,0,0
483,-139,0,0,0,0,0,0,0,0,0,-1,1707,1163,0,0
490,-139,0,0,0,0,0,0,0,0,0,-1,1714,1163,0,0
497,-139,0,0,0,0,0,0,0,0,0,-1,1721,1163,0,0
504,-139,0,0,0,0,0,0,0,0,0,-1,1728,1163,0,0
511,-139,0,0,0,0,0,0,0,0,0,-1,1735,1163,0,0
518,-139,0,0,0,0,0,0,0,0,0,-1,1742,1163,0,0
525,-139,0,0,0,0,0,0,0,0,0,-1,1749,1163,0,0
532,-139,0,0,0,0,0,0,0,0,0,-1,1756,1163,0,0
539,-139,0,0,0,0,0,0,0,0,0,-1,1763,1163,0,0
546,-139,0,0,0,0,0,0,0,0,0,-1,1770,1163,0,0
553,-139,0,0,0,0,0,0,0,0,0,-1,1777,1163,0,0
560,-139,0,0,0,0,0,0,0,0,0,-1,1784,1163,0,0
567,-139,0,0,0,0,0,0,0,0,0,-1,1791,1163,0,0
574,-139,0,0,0,0,0,0,0,0,0,-1,1798,1163,0,0
581,-139,0,0,0,0,0,0,0,0,0,-1,1805,1163,0,0
588,-139,0,0,0,0,0,0,0,0,0,-1,1812,1163,0,0
595,-139,0,0,0,0,0,0,0,0,0,-1,1819,1163,0,0
602,-139,0,0,0,0,0,0,0,0,0,-1,1826,1163,0,0
609,-139,0,0,0,0,0,0,0,0,0,-1,1833,1163,0,0
616,-139,0,0,0,0,0,0,0,0,0,-1,1840,1163,0,0
623,-139,0,0,0,0,0,0,0,0,0,-1,1847,1163,0,0
630,-139,0,0,0,0,0,0,0,0,0,-1,1854,1163,0,0
637,-139,0,0,0,0,0,0,0,0,0,-1,1861,1163,0,0
644,-139,16.2072,1.99158,0.000298171,-0.00233061,-0.000989124,0.000628769,-0.00266121,-0.322561,0.00201667,0.0394528,1868,1163,16.2071,-1.99158
651,-139,16.1349,1.82642,0.000779014,-0.00114294,-0.000526505,0.000913794,-0.00127772,-0.250609,0.00127107,0.0397262,1875,1163,16.1349,-1.82643
658,-139,16.0527,2.15149,0.000465367,-0.000343018,-0.000145042,0.000490603,-0.000368254,-0.172266,0.000497535,0.0401877,1882,1163,16.0527,-2.15146
665,-139,15.9539,2.61523,-0.000669662,8.82981e-06,0.000554646,0.000319753,-0.000980585,1.05987,0.000782399,0.0415808,1889,1163,15.9539,-2.61521
672,-139,16.1232,2.51245,-0.00212856,7.89549e-06,0.00136179,0.000670447,-0.00279111,1.11798,0.00211986,0.0391547,1896,1163,16.1232,-2.51245
679,-139,16.2053,2.34534,-0.00351005,-0.000186279,0.00206233,0.00080043,-0.00449676,1.12454,0.0032972,0.0364151,1903,1163,16.2053,-2.3453
686,-139,16.0911,2.32605,-0.00472776,-0.000504713,0.00268098,0.000796416,-0.00602889,1.11896,0.00430933,0.0331287,1910,1163,16.0911,-2.32606
693,-139,16.0968,2.32092,-0.00567758,-0.000739435,0.0031402,0.000786136,-0.00720316,1.11856,0.00508445,0.0202973,1917,1163,16.0968,-2.32095
700,-139,16.1196,2.19946,-0.00625864,-0.000974842,0.0036054,0.000852993,-0.00808647,1.10159,0.00569664,0.0378569,1924,1163,16.1196,-2.19949
707,-139,15.5889,2.92798,-0.00654889,-0.00116413,0.00384456,0.000837049,-0.00855007,1.09086,0.00599856,0.0255363,1931,1163,15.5889,-2.92801
714,-139,15.1614,3.57495,-0.00670588,-0.00128553,0.00382773,0.000694344,-0.00868576,1.09345,0.00603528,0.0259926,1938,1163,15.1614,-3.57492
721,-139,15.1783,3.43311,-0.00668243,-0.00145022,0.00370392,0.000468317,-0.00860097,1.09287,0.00589629,0.0185623,1945,1163,15.1783,-3.43311
728,-139,15.1802,3.37036,-0.00626467,-0.0012922,0.0033867,0.000422886,-0.00797975,1.10203,0.00546625,0.0183807,1952,1163,15.1801,-3.37041
735,-139,15.181,3.32031,-0.00549065,-0.0012674,0.00271425,5.98885e-05,-0.00681793,1.11598,0.00456538,0.0152374,1959,1163,15.181,-3.32026
742,-139,15.1934,3.19507,-0.00469272,-0.00076679,0.00203362,9.66971e-05,-0.00555621,1.16926,0.00373679,0.0216721,1966,1163,15.1934,-3.19503
749,-139,15.1776,3.13513,-0.00430645,-6.83078e-05,0.00183436,0.000615361,-0.00499011,1.21404,0.00354969,0.019578,1973,1163,15.1776,-3.1351
756,-139,15.1572,3.08508,-0.00445116,0.00137226,0.0021775,0.00209642,-0.00517532,1.24974,0.00432196,0.0105907,1980,1163,15.1572,-3.08505
763,-139,15.1702,3.02454,-0.00517731,0.00344983,0.00273598,0.00424433,-0.00597182,1.28818,0.00592634,0.00938886,1987,1163,15.1701,-3.02454
770,-139,15.1797,2.96692,-0.00650733,0.00558437,0.00384178,0.00670173,-0.00762469,1.28776,0.00827708,0.010535,1994,1163,15.1797,-2.9669
777,-139,15.1659,2.86157,-0.0089423,0.00825164,0.00611323,0.0102036,-0.0108942,1.26173,0.012183,0.0213264,2001,1163,15.1659,-2.86159
784,-139,15.2251,2.76929,-0.0123723,0.0118519,0.00953362,0.0151539,-0.0156742,1.23738,0.0177994,0.0417892,2008,1163,15.225,-2.76929
791,-139,15.7629,2.57703,-0.0168261,0.0166688,0.0142839,0.0219329,-0.0220902,1.21771,0.0254168,0.047732,2015,1163,15.7629,-2.577
798,-139,15.8137,2.55298,-0.0224177,0.0230665,0.0206525,0.0310446,-0.0303957,1.20216,0.0354732,0.04702,2022,1163,15.8138,-2.55297
805,-139,15.6055,2.90918,-0.0293422,0.0315474,0.0290276,0.0431679,-0.0409627,1.19001,0.0485784,0.0463623,2029,1163,15.6055,-2.90915
812,-139,0,0,0,0,0,0,0,0,0,-1,2036,1163,0,0
-700,-146,0,0,0,0,0,0,0,0,0,-1,524,1170,0,0
-693,-146,-8.53217,0.361938,0,0,0,0,0,0,0,-1,531,1170,-8.53219,-0.361999
-686,-146,-8.79834,0.985107,0,0,0,0,0,0,0,-1,538,1170,-8.79835,-0.985133
-679,-146,-8.6875,0.744385,0.178262,0.0776616,0.0167016,0.180962,0.0749613,0.160293,0.10499,0.0483334,545,1170,-8.68751,-0.744378
-672,-146,-8.52332,0.462891,0.140937,0.0617721,0.0149817,0.143678,0.0590317,0.180914,0.0833905,0.0434402,552,1170,-8.52334,-0.462894
-665,-146,-8.51007,0.222168,0,0,0,0,0,0,0,-1,559,1170,-8.51008,-0.222187
-658,-146,-8.77026,0.480835,0.0804159,0.0363221,0.0113139,0.0831494,0.0335885,0.237066,0.0483007,0.0433603,566,1170,-8.77024,-0.480863
-651,-146,-8.85168,0.456177,0.0577141,0.026698,0.0093628,0.0603213,0.0240908,0.271582,0.0350608,0.0362686,573,1170,-8.85166,-0.456231
-644,-146,-8.87799,0.599854,0.0398886,0.0190046,0.00743956,0.0422678,0.0166255,0.309521,0.0245877,0.0187438,580,1170,-8.878,-0.599816
-637,-146,-8.88733,0.750244,0.0263882,0.0129909,0.00535783,0.0282673,0.0111118,0.337321,0.016444,0.0100203,587,1170,-8.88732,-0.750219
-630,-146,-8.91437,0.848511,0.0158847,0.00837423,0.0030789,0.0169856,0.0072734,0.343376,0.00984026,0.00966814,594,1170,-8.91437,-0.848497
-623,-146,-8.94312,0.931396,0.0052126,0.00375167,0.00171817,0.00634914,0.00261513,0.584404,0.0036846,0.0122436,601,1170,-8.94313,-0.931427
-616,-146,-8.95715,0.999268,-0.000690214,0.00135326,-0.00138373,0.0020516,-0.00138855,-1.10341,0.00199843,0.018609,608,1170,-8.95716,-0.999292
-609,-146,-8.89874,1.09595,-0.00351044,6.07628e-05,-0.0033045,0.00203124,-0.00548091,-1.0331,0.00448699,0.0172591,615,1170,-8.89873,-1.09594
-602,-146,-8.95135,1.27209,-0.00490148,-0.00026052,-0.00491077,0.00285042,-0.00801242,-1.00611,0.00650342,0.0198806,622,1170,-8.95133,-1.27215
-595,-146,-8.97498,1.31995,-0.00597406,-0.000543883,-0.00611347,0.00343029,-0.00994824,-0.994373,0.00802384,0.0116674,629,1170,-8.97498,-1.31995
-588,-146,-8.91962,1.43848,-0.00679283,-0.00062786,-0.00692374,0.00386856,-0.0112893,-0.994828,0.00909423,0.0131775,636,1170,-8.91961,-1.43845
-581,-146,-8.8504,1.57019,-0.00722653,-0.000621236,-0.00727044,0.00406152,-0.0119093,-0.998592,0.00958464,0.0250894,643,1170,-8.85042,-1.57023
-574,-146,-9.36273,0.828491,-0.0071804,-0.000541814,-0.0072161,0.0040818,-0.011804,-1.00096,0.00952605,0.0409092,650,1170,-9.3627,-0.82854
-567,-146,-9.95844,0.299927,0,0,0,0,0,0,0,-1,657,1170,-9.95842,-0.299979
-560,-146,-9.91815,0.544189,-0.00599551,-0.000294993,-0.00619793,0.00367665,-0.00996715,-1.00091,0.00815156,0.0359282,664,1170,-9.91815,-0.5442
-553,-146,-9.9303,0.846436,-0.00476401,-0.000124321,-0.00500743,0.00307453,-0.00796286,-1.00232,0.00657747,0.036112,671,1170,-9.93032,-0.846444
-546,-146,-9.87762,0.540039,-0.0029597,-1.74321e-05,-0.00332214,0.00214473,-0.00512186,-0.993835,0.00431114,0.0418215,678,1170,-9.87762,-0.539979
-539,-146,-9.93262,0.340698,-0.00053111,-4.57338e-05,-0.00113635,0.000873552,-0.0014504,-0.890602,0.00135544,0.0418911,685,1170,-9.93262,-0.340676
-532,-146,-9.92871,0.426514,0.00263315,-0.00030254,0.00149582,0.00326103,-0.00093042,0.39742,0.00254157,0.0381593,692,1170,-9.92871,-0.426489
-525,-146,-9.9364,0.549805,0.00543773,-0.00124188,0.00340159,0.00686501,-0.00266916,0.397282,0.00567946,0.0379547,699,1170,-9.93641,-0.549763
-518,-146,0,0,0,0,0,0,0,0,0,-1,706,1170,0,0
-511,-146,0,0,0,0,0,0,0,0,0,-1,713,1170,0,0
-504,-146,0,0,0,0,0,0,0,0,0,-1,720,1170,0,0
-497,-146,0,0,0,0,0,0,0,0,0,-1,727,1170,0,0
-490,-146,0,0,0,0,0,0,0,0,0,-1,734,1170,0,0
-483,-146,0,0,0,0,0,0,0,0,0,-1,741,1170,0,0
-476,-146,0,0,0,0,0,0,0,0,0,-1,748,1170,0,0
-469,-146,0,0,0,0,0,0,0,0,0,-1,755,1170,0,0
-462,-146,0,0,0,0,0,0,0,0,0,-1,762,1170,0,0
-455,-146,0,0,0,0,0,0,0,0,0,-1,769,1170,0,0
-448,-146,0,0,0,0,0,0,0,0,0,-1,776,1170,0,0
-441,-146,0,0,0,0,0,0,0,0,0,-1,783,1170,0,0
-434,-146,0,0,0,0,0,0,0,0,0,-1,790,1170,0,0
-427,-146,0,0,0,0,0,0,0,0,0,-1,797,1170,0,0
-420,-146,0,0,0,0,0,0,0,0,0,-1,804,1170,0,0
-413,-146,0,0,0,0,0,0,0,0,0,-1,811,1170,0,0
-406,-146,0,0,0,0,0,0,0,0,0,-1,818,1170,0,0
-399,-146,0,0,0,0,0,0,0,0,0,-1,825,1170,0,0
-392,-146,0,0,0,0,0,0,0,0,0,-1,832,1170,0,0
-385,-146,0,0,0,0,0,0,0,0,0,-1,839,1170,0,0
-378,-146,0,0,0,0,0,0,0,0,0,-1,846,1170,0,0
-371,-146,0,0,0,0,0,0,0,0,0,-1,853,1170,0,0
-364,-146,0,0,0,0,0,0,0,0,0,-1,860,1170,0,0
-357,-146,0,0,0,0,0,0,0,0,0,-1,867,1170,0,0
-350,-146,0,0,0,0,0,0,0,0,0,-1,874,1170,0,0
-343,-146,0,0,0,0,0,0,0,0,0,-1,881,1170,0,0
-336,-146,0,0,0,0,0,0,0,0,0,-1,888,1170,0,0
-329,-146,0,0,0,0,0,0,0,0,0,-1,895,1170,0,0
-322,-146,0,0,0,0,0,0,0,0,0,-1,902,1170,0,0
-315,-146,0,0,0,0,0,0,0,0,0,-1,909,1170,0,0
-308,-146,0,0,0,0,0,0,0,0,0,-1,916,1170,0,0
-301,-146,0,0,0,0,0,0,0,0,0,-1,923,1170,0,0
-294,-146,0,0,0,0,0,0,0,0,0,-1,930,1170,0,0
-287,-146,0,0,0,0,0,0,0,0,0,-1,937,1170,0,0
-280,-146,0,0,0,0,0,0,0,0,0,-1,944,1170,0,0
-273,-146,0,0,0,0,0,0,0,0,0,-1,951,1170,0,0
-266,-146,0,0,0,0,0,0,0,0,0,-1,958,1170,0,0
-259,-146,0,0,0,0,0,0,0,0,0,-1,965,1170,0,0
-252,-146,0,0,0,0,0,0,0,0,0,-1,972,1170,0,0
-245,-146,0,0,0,0,0,0,0,0,0,-1,979,1170,0,0
-238,-146,0,0,0,0,0,0,0,0,0,-1,986,1170,0,0
-231,-146,0,0,0,0,0,0,0,0,0,-1,993,1170,0,0
-224,-146,0,0,0,0,0,0,0,0,0,-1,1000,1170,0,0
-217,-146,0,0,0,0,0,0,0,0,0,-1,1007,1170,0,0
-210,-146,0,0,0,0,0,0,0,0,0,-1,1014,1170,0,0
-203,-146,0,0,0,0,0,0,0,0,0,-1,1021,1170,0,0
-196,-146,0,0,0,0,0,0,0,0,0,-1,1028,1170,0,0
-189,-146,0,0,0,0,0,0,0,0,0,-1,1035,1170,0,0
-182,-146,0,0,0,0,0,0,0,0,0,-1,1042,1170,0,0
-175,-146,0,0,0,0,0,0,0,0,0,-1,1049,1170,0,0
-168,-146,0,0,0,0,0,0,0,0,0,-1,1056,1170,0,0
-161,-146,0,0,0,0,0,0,0,0,0,-1,1063,1170,0,0
-154,-146,0,0,0,0,0,0,0,0,0,-1,1070,1170,0,0
-147,-146,0,0,0,0,0,0,0,0,0,-1,1077,1170,0,0
-140,-146,0,0,0,0,0,0,0,0,0,-1,1084,1170,0,0
-133,-146,0,0,0,0,0,0,0,0,0,-1,1091,1170,0,0
-126,-146,0,0,0,0,0,0,0,0,0,-1,1098,1170,0,0
-119,-146,0,0,0,0,0,0,0,0,0,-1,1105,1170,0,0
-112,-146,0,0,0,0,0,0,0,0,0,-1,1112,1170,0,0
-105,-146,0,0,0,0,0,0,0,0,0,-1,1119,1170,0,0
-98,-146,0,0,0,0,0,0,0,0,0,-1,1126,1170,0,0
-91,-146,0,0,0,0,0,0,0,0,0,-1,1133,1170,0,0
-84,-146,0,0,0,0,0,0,0,0,0,-1,1140,1170,0,0
-77,-146,0,0,0,0,0,0,0,0,0,-1,1147,1170,0,0
-70,-146,0,0,0,0,0,0,0,0,0,-1,1154,1170,0,0
-63,-146,0,0,0,0,0,0,0,0,0,-1,1161,1170,0,0
-56,-146,0,0,0,0,0,0,0,0,0,-1,1168,1170,0,0
-49,-146,0,0,0,0,0,0,0,0,0,-1,1175,1170,0,0
-42,-146,0,0,0,0,0,0,0,0,0,-1,1182,1170,0,0
-35,-146,0,0,0,0,0,0,0,0,0,-1,1189,1170,0,0
-28,-146,0,0,0,0,0,0,0,0,0,-1,1196,1170,0,0
-21,-146,0,0,0,0,0,0,0,0,0,-1,1203,1170,0,0
-14,-146,0,0,0,0,0,0,0,0,0,-1,1210,1170,0,0
-7,-146,0,0,0,0,0,0,0,0,0,-1,1217,1170,0,0
0,-146,0,0,0,0,0,0,0,0,0,-1,1224,1170,0,0
7,-146,0,0,0,0,0,0,0,0,0,-1,1231,1170,0,0
14,-146,0,0,0,0,0,0,0,0,0,-1,1238,1170,0,0
21,-146,0,0,0,0,0,0,0,0,0,-1,1245,1170,0,0
28,-146,0,0,0,0,0,0,0,0,0,-1,1252,1170,0,0
35,-146,0,0,0,0,0,0,0,0,0,-1,1259,1170,0,0
42,-146,0,0,0,0,0,0,0,0,0,-1,1266,1170,0,0
49,-146,0,0,0,0,0,0,0,0,0,-1,1273,1170,0,0
56,-146,0,0,0,0,0,0,0,0,0,-1,1280,1170,0,0
63,-146,0,0,0,0,0,0,0,0,0,-1,1287,1170,0,0
70,-146,0,0,0,0,0,0,0,0,0,-1,1294,1170,0,0
77,-146,0,0,0,0,0,0,0,0,0,-1,1301,1170,0,0
84,-146,0,0,0,0,0,0,0,0,0,-1,1308,1170,0,0
91,-146,0,0,0,0,0,0,0,0,0,-1,1315,1170,0,0
98,-146,0,0,0,0,0,0,0,0,0,-1,1322,1170,0,0
105,-146,0,0,0,0,0,0,0,0,0,-1,1329,1170,0,0
112,-146,0,0,0,0,0,0,0,0,0,-1,1336,1170,0,0
119,-146,0,0,0,0,0,0,0,0,0,-1,1343,1170,0,0
126,-146,0,0,0,0,0,0,0,0,0,-1,1350,1170,0,0
133,-146,0,0,0,0,0,0,0,0,0,-1,1357,1170,0,0
140,-146,0,0,0,0,0,0,0,0,0,-1,1364,1170,0,0
147,-146,0,0,0,0,0,0,0,0,0,-1,1371,1170,0,0
154,-146,0,0,0,0,0,0,0,0,0,-1,1378,1170,0,0
161,-146,0,0,0,0,0,0,0,0,0,-1,1385,1170,0,0
168,-146,0,0,0,0,0,0,0,0,0,-1,1392,1170,0,0
175,-146,0,0,0,0,0,0,0,0,0,-1,1399,1170,0,0
182,-146,0,0,0,0,0,0,0,0,0,-1,1406,1170,0,0
189,-146,0,0,0,0,0,0,0,0,0,-1,1413,1170,0,0
196,-146,0,0,0,0,0,0,0,0,0,-1,1420,1170,0,0
203,-146,0,0,0,0,0,0,0,0,0,-1,1427,1170,0,0
210,-146,0,0,0,0,0,0,0,0,0,-1,1434,1170,0,0
217,-146,0,0,0,0,0,0,0,0,0,-1,1441,1170,0,0
224,-146,0,0,0,0,0,0,0,0,0,-1,1448,1170,0,0
231,-146,0,0,0,0,0,0,0,0,0,-1,1455,1170,0,0
238,-146,0,0,0,0,0,0,0,0,0,-1,1462,1170,0,0
245,-146,0,0,0,0,0,0,0,0,0,-1,1469,1170,0,0
252,-146,0,0,0,0,0,0,0,0,0,-1,1476,1170,0,0
259,-146,0,0,0,0,0,0,0,0,0,-1,1483,1170,0,0
266,-146,0,0,0,0,0,0,0,0,0,-1,1490,1170,0,0
273,-146,0,0,0,0,0,0,0,0,0,-1,1497,1170,0,0
280,-146,0,0,0,0,0,0,0,0,0,-1,1504,1170,0,0
287,-146,0,0,0,0,0,0,0,0,0,-1,1511,1170,0,0
294,-146,0,0,0,0,0,0,0,0,0,-1,1518,1170,0,0
301,-146,0,0,0,0,0,0,0,0,0,-1,1525,1170,0,0
308,-146,0,0,0,0,0,0,0,0,0,-1,1532,1170,0,0
315,-146,0,0,0,0,0,0,0,0,0,-1,1539,1170,0,0
322,-146,0,0,0,0,0,0,0,0,0,-1,1546,1170,0,0
329,-146,0,0,0,0,0,0,0,0,0,-1,1553,1170,0,0
336,-146,0,0,0,0,0,0,0,0,0,-1,1560,1170,0,0
343,-146,0,0,0,0,0,0,0,0,0,-1,1567,1170,0,0
350,-146,0,0,0,0,0,0,0,0,0,-1,1574,1170,0,0
357,-146,0,0,0,0,0,0,0,0,0,-1,1581,1170,0,0
364,-146,0,0,0,0,0,0,0,0,0,-1,1588,1170,0,0
371,-146,0,0,0,0,0,0,0,0,0,-1,1595,1170,0,0
378,-146,0,0,0,0,0,0,0,0,0,-1,1602,1170,0,0
385,-146,0,0,0,0,0,0,0,0,0,-1,1609,1170,0,0
392,-146,0,0,0,0,0,0,0,0,0,-1,1616,1170,0,0
399,-146,0,0,0,0,0,0,0,0,0,-1,1623,1170,0,0
406,-146,0,0,0,0,0,0,0,0,0,-1,1630,1170,0,0
413,-146,0,0,0,0,0,0,0,0,0,-1,1637,1170,0,0
420,-146,0,0,0,0,0,0,0,0,0,-1,1644,1170,0,0
427,-146,0,0,0,0,0,0,0,0,0,-1,1651,1170,0,0
434,-146,0,0,0,0,0,0,0,0,0,-1,1658,1170,0,0
441,-146,0,0,0,0,0,0,0,0,0,-1,1665,1170,0,0
448,-146,0,0,0,0,0,0,0,0,0,-1,1672,1170,0,0
455,-146,0,0,0,0,0,0,0,0,0,-1,1679,1170,0,0
462,-146,0,0,0,0,0,0,0,0,0,-1,1686,1170,0,0
469,-146,0,0,0,0,0,0,0,0,0,-1,1693,1170,0,0
476,-146,0,0,0,0,0,0,0,0,0,-1,1700,1170,0,0
483,-146,0,0,0,0,0,0,0,0,0,-1,1707,1170,0,0
490,-146,0,0,0,0,0,0,0,0,0,-1,1714,1170,0,0
497,-146,0,0,0,0,0,0,0,0,0,-1,1721,1170,0,0
504,-146,0,0,0,0,0,0,0,0,0,-1,1728,1170,0,0
511,-146,0,0,0,0,0,0,0,0,0,-1,1735,1170,0,0
518,-146,0,0,0,0,0,0,0,0,0,-1,1742,1170,0,0
525,-146,0,0,0,0,0,0,0,0,0,-1,1749,1170,0,0
532,-146,0,0,0,0,0,0,0,0,0,-1,1756,1170,0,0
539,-146,0,0,0,0,0,0,0,0,0,-1,1763,1170,0,0
546,-146,0,0,0,0,0,0,0,0,0,-1,1770,1170,0,0
553,-146,0,0,0,0,0,0,0,0,0,-1,1777,1170,0,0
560,-146,0,0,0,0,0,0,0,0,0,-1,1784,1170,0,0
567,-146,0,0,0,0,0,0,0,0,0,-1,1791,1170,0,0
574,-146,0,0,0,0,0,0,0,0,0,-1,1798,1170,0,0
581,-146,0,0,0,0,0,0,0,0,0,-1,1805,1170,0,0
588,-146,0,0,0,0,0,0,0,0,0,-1,1812,1170,0,0
595,-146,0,0,0,0,0,0,0,0,0,-1,1819,1170,0,0
602,-146,0,0,0,0,0,0,0,0,0,-1,1826,1170,0,0
609,-146,0,0,0,0,0,0,0,0,0,-1,1833,1170,0,0
616,-146,0,0,0,0,0,0,0,0,0,-1,1840,1170,0,0
623,-146,0,0,0,0,0,0,0,0,0,-1,1847,1170,0,0
630,-146,0,0,0,0,0,0,0,0,0,-1,1854,1170,0,0
637,-146,16.2097,2.21704,0.000500466,-0.00424936,-0.00118406,0.000779271,-0.00452816,-0.231252,0.00330926,0.0383156,1861,1170,16.2097,-2.21699
644,-146,16.1825,2.13965,0.000355967,-0.00270069,-0.000588765,0.000465452,-0.00281018,-0.183856,0.00204633,0.0384746,1868,1170,16.1825,-2.13962
651,-146,16.1357,2.02759,0.000757328,-0.00134159,-0.000440279,0.000845941,-0.0014302,-0.198614,0.00132849,0.0369899,1875,1170,16.1357,-2.02757
658,-146,16.1099,2.19788,0.000228393,-0.0004476,-0.000161787,0.000265118,-0.000484326,-0.223217,0.000438818,0.0391839,1882,1170,16.1099,-2.19783
665,-146,16.1527,2.43323,-0.00102702,-2.60551e-05,0.000454888,0.000149781,-0.00120285,1.20194,0.000856207,0.0399598,1889,1170,16.1527,-2.43327
672,-146,16.2369,2.49304,-0.00246353,5.6125e-05,0.00114249,0.000497015,-0.00290442,1.2025,0.00212145,0.0383221,1896,1170,16.2369,-2.49309
679,-146,16.1792,2.37341,-0.00378597,-7.95873e-05,0.00176864,0.000628942,-0.00449449,1.18977,0.00322648,0.0322761,1903,1170,16.1792,-2.37344
686,-146,16.0721,2.29456,-0.00492606,-0.000356084,0.00233491,0.000625877,-0.00590802,1.17269,0.00416302,0.0230144,1910,1170,16.0721,-2.29454
693,-146,16.0953,2.26038,-0.00580143,-0.000552675,0.0027564,0.00062888,-0.00698298,1.16583,0.00487848,0.013857,1917,1170,16.0953,-2.26041
700,-146,15.9832,2.55725,0,0,0,0,0,0,0,-1,1924,1170,15.9832,-2.55728
707,-146,15.5021,3.08398,-0.0065076,-0.000943762,0.00337477,0.000647895,-0.00809926,1.1301,0.00562792,0.0300773,1931,1170,15.502,-3.08395
714,-146,15.1586,3.52576,-0.006602,-0.00105354,0.0033519,0.000523275,-0.00817881,1.13109,0.00563507,0.0229442,1938,1170,15.1585,-3.52579
721,-146,15.1621,3.43335,-0.00648993,-0.00123098,0.00324494,0.000316122,-0.00803703,1.1259,0.00546644,0.0282867,1945,1170,15.1622,-3.43331
728,-146,15.1993,3.34595,-0.00594689,-0.001108,0.00296207,0.000297162,-0.00735205,1.12785,0.00500336,0.0219824,1952,1170,15.1993,-3.34598
735,-146,15.1239,3.33337,-0.00503135,-0.00116031,0.0023281,-6.82476e-05,-0.00612342,1.13219,0.00405972,0.0166338,1959,1170,15.1239,-3.33334
742,-146,15.1188,3.21924,-0.00401614,-0.000737447,0.00166518,-4.00704e-05,-0.00471352,1.17419,0.00312908,0.016563,1966,1170,15.1187,-3.21928
749,-146,15.1044,3.15894,-0.00342924,-0.000147835,0.00150872,0.000440398,-0.00401747,1.19904,0.00283653,0.0152458,1973,1170,15.1044,-3.15898
756,-146,15.0981,3.08167,-0.00328207,0.00101179,0.00199342,0.00179454,-0.00406482,1.19663,0.00346651,0.0107628,1980,1170,15.0981,-3.08165
763,-146,15.0933,3.00134,-0.0036828,0.00268957,0.00267187,0.00366159,-0.00465482,1.22188,0.00481288,0.00952834,1987,1170,15.0933,-3.00131
770,-146,15.0874,2.94189,-0.0047024,0.00435836,0.00400157,0.00587255,-0.0062166,1.20905,0.00698062,0.0106816,1994,1170,15.0874,-2.9419
777,-146,15.098,2.85718,-0.0067044,0.00645432,0.00647009,0.00910264,-0.00935272,1.18228,0.0106555,0.0193911,2001,1170,15.098,-2.85713
784,-146,15.2941,2.53918,-0.00965205,0.00930554,0.0101176,0.0136908,-0.0140373,1.1618,0.0160093,0.0397651,2008,1170,15.2941,-2.53921
791,-146,15.3286,2.53149,-0.0136635,0.0131488,0.0151775,0.0199931,-0.0205078,1.14715,0.0233839,0.0434838,2015,1170,15.3286,-2.5315
798,-146,15.3871,2.44055,-0.018916,0.0183023,0.0219342,0.0284579,-0.0290716,1.13718,0.0332153,0.0433212,2022,1170,15.3871,-2.44052
805,-146,15.3085,2.49231,0,0,0,0,0,0,0,-1,2029,1170,15.3085,-2.49236
812,-146,0,0,0,0,0,0,0,0,0,-1,2036,1170,0,0
-700,-153,0,0,0,0,0,0,0,0,0,-1,524,1177,0,0
-693,-153,0,0,0,0,0,0,0,0,0,-1,531,1177,0,0
-686,-153,-8.19623,0.338379,0,0,0,0,0,0,0,-1,538,1177,-8.19622,-0.338391
-679,-153,-8.1842,1.18848,0.167585,0.0776925,0.0188028,0.17136,0.073918,0.198107,0.0992449,0.0476627,545,1177,-8.18418,-1.18849
-672,-153,-8.07599,1.03491,0.13036,0.0617041,0.017878,0.134737,0.0573276,0.240074,0.0780777,0.0458229,552,1177,-8.07601,-1.03488
-665,-153,-8.28094,0.681274,0,0,0,0,0,0,0,-1,559,1177,-8.28093,-0.681315
-658,-153,-8.75909,0.804932,0.0728768,0.0363469,0.0140113,0.077632,0.0315917,0.327183,0.0450789,0.0475615,566,1177,-8.75907,-0.804897
-651,-153,-8.80469,0.659546,0.0520482,0.0268171,0.0116015,0.0565716,0.0222936,0.371774,0.032905,0.04292,573,1177,-8.80466,-0.659563
-644,-153,-8.75543,0.598999,0.0359037,0.0192025,0.0091792,0.0399623,0.0151438,0.416316,0.0232966,0.0249521,580,1177,-8.75546,-0.599029
-637,-153,-8.76617,0.759888,0.0237907,0.0132809,0.00678277,0.027116,0.00995558,0.455823,0.0158386,0.0104767,587,1177,-8.76618,-0.759829
-630,-153,-8.78833,0.848511,0.0143667,0.00872844,0.00424054,0.0166397,0.00645545,0.492041,0.00968701,0.00910019,594,1177,-8.78833,-0.848562
-623,-153,-8.81311,0.931152,0.00471841,0.00412126,0.00221399,0.00665387,0.0021858,0.718374,0.00391621,0.0091796,601,1177,-8.8131,-0.931212
-616,-153,-8.81799,1.00769,-0.00053256,0.00153675,-0.000967009,0.0019183,-0.000914103,-1.19499,0.00166919,0.0121013,608,1177,-8.81798,-1.00772
-609,-153,-8.79468,1.10315,-0.00310495,0.000199482,-0.0030084,0.00197951,-0.00488498,-1.03651,0.00407983,0.017618,615,1177,-8.79468,-1.10315
-602,-153,-8.81268,1.23267,-0.00450661,-0.000286133,-0.004685,0.00274195,-0.00753469,-0.997001,0.00614454,0.0217759,622,1177,-8.81268,-1.23271
-595,-153,-8.86523,1.33264,-0.00555755,-0.0006416,-0.00588884,0.00328165,-0.0094808,-0.983104,0.00765267,0.0164691,629,1177,-8.86521,-1.33264
-588,-153,-8.83966,1.43616,-0.00634523,-0.000787995,-0.00667608,0.00366462,-0.0107978,-0.982597,0.00868186,0.0111271,636,1177,-8.83969,-1.4362
-581,-153,-8.79047,1.547,-0.00673196,-0.000841771,-0.00700667,0.0038136,-0.0113873,-0.984351,0.00913215,0.0200095,643,1177,-8.79049,-1.54696
-574,-153,-9.22778,0.926514,-0.00662748,-0.000809536,-0.00693834,0.00380496,-0.011242,-0.983898,0.00903414,0.0408424,650,1177,-9.22778,-0.926459
-567,-153,-9.73157,0.365112,0,0,0,0,0,0,0,-1,657,1177,-9.73155,-0.36517
-560,-153,-9.85999,0.342163,-0.00547269,-0.000667326,-0.00600852,0.0034011,-0.00954112,-0.975599,0.00774742,0.0403955,664,1177,-9.85998,-0.342216
-553,-153,-9.81201,0.54541,-0.00431585,-0.000535788,-0.00492795,0.00285214,-0.00770378,-0.968513,0.00630539,0.0360159,671,1177,-9.81204,-0.545438
-546,-153,-9.86786,0.75293,-0.00260283,-0.000447793,-0.00340118,0.00204247,-0.0050931,-0.9388,0.00424337,0.0378763,678,1177,-9.86787,-0.752969
-539,-153,-10.0372,0.416504,-0.000272423,-0.000456168,-0.00142689,0.00106555,-0.00179414,-0.753249,0.00166881,0.0392856,685,1177,-10.0372,-0.416454
-532,-153,-10.0934,0.473633,0.00287065,-0.000640463,0.000965619,0.00311869,-0.000888502,0.251435,0.00243006,0.0410201,692,1177,-10.0934,-0.473663
-525,-153,-10.0967,0.705566,0.00605439,-0.0013121,0.00282808,0.00701489,-0.00227259,0.327405,0.00559028,0.0418875,699,1177,-10.0968,-0.705579
-518,-153,0,0,0,0,0,0,0,0,0,-1,706,1177,0,0
-511,-153,0,0,0,0,0,0,0,0,0,-1,713,1177,0,0
-504,-153,0,0,0,0,0,0,0,0,0,-1,720,1177,0,0
-497,-153,0,0,0,0,0,0,0,0,0,-1,727,1177,0,0
-490,-153,0,0,0,0,0,0,0,0,0,-1,734,1177,0,0
-483,-153,0,0,0,0,0,0,0,0,0,-1,741,1177,0,0
-476,-153,0,0,0,0,0,0,0,0,0,-1,748,1177,0,0
-469,-153,0,0,0,0,0,0,0,0,0,-1,755,1177,0,0
-462,-153,0,0,0,0,0,0,0,0,0,-1,762,1177,0,0
-455,-153,0,0,0,0,0,0,0,0,0,-1,769,1177,0,0
-448,-153,0,0,0,0,0,0,0,0,0,-1,776,1177,0,0
-441,-153,0,0,0,0,0,0,0,0,0,-1,783,1177,0,0
-434,-153,0,0,0,0,0,0,0,0,0,-1,790,1177,0,0
-427,-153,0,0,0,0,0,0,0,0,0,-1,797,1177,0,0
-420,-153,0,0,0,0,0,0,0,0,0,-1,804,1177,0,0
-413,-153,0,0,0,0,0,0,0,0,0,-1,811,1177,0,0
-406,-153,0,0,0,0,0,0,0,0,0,-1,818,1177,0,0
-399,-153,0,0,0,0,0,0,0,0,0,-1,825,1177,0,0
-392,-153,0,0,0,0,0,0,0,0,0,-1,832,1177,0,0
-385,-153,0,0,0,0,0,0,0,0,0,-1,839,1177,0,0
-378,-153,0,0,0,0,0,0,0,0,0,-1,846,1177,0,0
-371,-153,0,0,0,0,0,0,0,0,0,-1,853,1177,0,0
-364,-153,0,0,0,0,0,0,0,0,0,-1,860,1177,0,0
-357,-153,0,0,0,0,0,0,0,0,0,-1,867,1177,0,0
-350,-153,0,0,0,0,0,0,0,0,0,-1,874,1177,0,0
-343,-153,0,0,0,0,0,0,0,0,0,-1,881,1177,0,0
-336,-153,0,0,0,0,0,0,0,0,0,-1,888,1177,0,0
-329,-153,0,0,0,0,0,0,0,0,0,-1,895,1177,0,0
-322,-153,0,0,0,0,0,0,0,0,0,-1,902,1177,0,0
-315,-153,0,0,0,0,0,0,0,0,0,-1,909,1177,0,0
-308,-153,0,0,0,0,0,0,0,0,0,-1,916,1177,0,0
-301,-153,0,0,0,0,0,0,0,0,0,-1,923,1177,0,0
-294,-153,0,0,0,0,0,0,0,0,0,-1,930,1177,0,0
-287,-153,0,0,0,0,0,0,0,0,0,-1,937,1177,0,0
-280,-153,0,0,0,0,0,0,0,0,0,-1,944,1177,0,0
-273,-153,0,0,0,0,0,0,0,0,0,-1,951,1177,0,0
-266,-153,0,0,0,0,0,0,0,0,0,-1,958,1177,0,0
-259,-153,0,0,0,0,0,0,0,0,0,-1,965,1177,0,0
-252,-153,0,0,0,0,0,0,0,0,0,-1,972,1177,0,0
-245,-153,0,0,0,0,0,0,0,0,0,-1,979,1177,0,0
-238,-153,0,0,0,0,0,0,0,0,0,-1,986,1177,0,0
-231,-153,0,0,0,0,0,0,0,0,0,-1,993,1177,0,0
-224,-153,0,0,0,0,0,0,0,0,0,-1,1000,1177,0,0
-217,-153,0,0,0,0,0,0,0,0,0,-1,1007,1177,0,0
-210,-153,0,0,0,0,0,0,0,0,0,-1,1014,1177,0,0
-203,-153,0,0,0,0,0,0,0,0,0,-1,1021,1177,0,0
-196,-153,0,0,0,0,0,0,0,0,0,-1,1028,1177,0,0
-189,-153,0,0,0,0,0,0,0,0,0,-1,1035,1177,0,0
-182,-153,0,0,0,0,0,0,0,0,0,-1,1042,1177,0,0
-175,-153,0,0,0,0,0,0,0,0,0,-1,1049,1177,0,0
-168,-153,0,0,0,0,0,0,0,0,0,-1,1056,1177,0,0
-161,-153,0,0,0,0,0,0,0,0,0,-1,1063,1177,0,0
-154,-153,0,0,0,0,0,0,0,0,0,-1,1070,1177,0,0
-147,-153,0,0,0,0,0,0,0,0,0,-1,1077,1177,0,0
-140,-153,0,0,0,0,0,0,0,0,0,-1,1084,1177,0,0
-133,-153,0,0,0,0,0,0,0,0,0,-1,1091,1177,0,0
-126,-153,0,0,0,0,0,0,0,0,0,-1,1098,1177,0,0
-119,-153,0,0,0,0,0,0,0,0,0,-1,1105,1177,0,0
-112,-153,0,0,0,0,0,0,0,0,0,-1,1112,1177,0,0
-105,-153,0,0,0,0,0,0,0,0,0,-1,1119,1177,0,0
-98,-153,0,0,0,0,0,0,0,0,0,-1,1126,1177,0,0
-91,-153,0,0,0,0,0,0,0,0,0,-1,1133,1177,0,0
-84,-153,0,0,0,0,0,0,0,0,0,-1,1140,1177,0,0
-77,-153,0,0,0,0,0,0,0,0,0,-1,1147,1177,0,0
-70,-153,0,0,0,0,0,0,0,0,0,-1,1154,1177,0,0
-63,-153,0,0,0,0,0,0,0,0,0,-1,1161,1177,0,0
-56,-153,0,0,0,0,0,0,0,0,0,-1,1168,1177,0,0
-49,-153,0,0,0,0,0,0,0,0,0,-1,1175,1177,0,0
-42,-153,0,0,0,0,0,0,0,0,0,-1,1182,1177,0,0
-35,-153,0,0,0,0,0,0,0,0,0,-1,1189,1177,0,0
-28,-153,0,0,0,0,0,0,0,0,0,-1,1196,1177,0,0
-21,-153,0,0,0,0,0,0,0,0,0,-1,1203,1177,0,0
-14,-153,0,0,0,0,0,0,0,0,0,-1,1210,1177,0,0
-7,-153,0,0,0,0,0,0,0,0,0,-1,1217,1177,0,0
0,-153,0,0,0,0,0,0,0,0,0,-1,1224,1177,0,0
7,-153,0,0,0,0,0,0,0,0,0,-1,1231,1177,0,0
14,-153,0,0,0,0,0,0,0,0,0,-1,1238,1177,0,0
21,-153,0,0,0,0,0,0,0,0,0,-1,1245,1177,0,0
28,-153,0,0,0,0,0,0,0,0,0,-1,1252,1177,0,0
35,-153,0,0,0,0,0,0,0,0,0,-1,1259,1177,0,0
42,-153,0,0,0,0,0,0,0,0,0,-1,1266,1177,0,0
49,-153,0,0,0,0,0,0,0,0,0,-1,1273,1177,0,0
56,-153,0,0,0,0,0,0,0,0,0,-1,1280,1177,0,0
63,-153,0,0,0,0,0,0,0,0,0,-1,1287,1177,0,0
70,-153,0,0,0,0,0,0,0,0,0,-1,1294,1177,0,0
77,-153,0,0,0,0,0,0,0,0,0,-1,1301,1177,0,0
84,-153,0,0,0,0,0,0,0,0,0,-1,1308,1177,0,0
91,-153,0,0,0,0,0,0,0,0,0,-1,1315,1177,0,0
98,-153,0,0,0,0,0,0,0,0,0,-1,1322,1177,0,0
105,-153,0,0,0,0,0,0,0,0,0,-1,1329,1177,0,0
112,-153,0,0,0,0,0,0,0,0,0,-1,1336,1177,0,0
119,-153,0,0,0,0,0,0,0,0,0,-1,1343,1177,0,0
126,-153,0,0,0,0,0,0,0,0,0,-1,1350,1177,0,0
133,-153,0,0,0,0,0,0,0,0,0,-1,1357,1177,0,0
140,-153,0,0,0,0,0,0,0,0,0,-1,1364,1177,0,0
147,-153,0,0,0,0,0,0,0,0,0,-1,1371,1177,0,0
154,-153,0,0,0,0,0,0,0,0,0,-1,1378,1177,0,0
161,-153,0,0,0,0,0,0,0,0,0,-1,1385,1177,0,0
168,-153,0,0,0,0,0,0,0,0,0,-1,1392,1177,0,0
175,-153,0,0,0,0,0,0,0,0,0,-1,1399,1177,0,0
182,-153,0,0,0,0,0,0,0,0,0,-1,1406,1177,0,0
189,-153,0,0,0,0,0,0,0,0,0,-1,1413,1177,0,0
196,-153,0,0,0,0,0,0,0,0,0,-1,1420,1177,0,0
203,-153,0,0,0,0,0,0,0,0,0,-1,1427,1177,0,0
210,-153,0,0,0,0,0,0,0,0,0,-1,1434,1177,0,0
217,-153,0,0,0,0,0,0,0,0,0,-1,1441,1177,0,0
224,-153,0,0,0,0,0,0,0,0,0,-1,1448,1177,0,0
231,-153,0,0,0,0,0,0,0,0,0,-1,1455,1177,0,0
238,-153,0,0,0,0,0,0,0,0,0,-1,1462,1177,0,0
245,-153,0,0,0,0,0,0,0,0,0,-1,1469,1177,0,0
252,-153,0,0,0,0,0,0,0,0,0,-1,1476,1177,0,0
259,-153,0,0,0,0,0,0,0,0,0,-1,1483,1177,0,0
266,-153,0,0,0,0,0,0,0,0,0,-1,1490,1177,0,0
273,-153,0,0,0,0,0,0,0,0,0,-1,1497,1177,0,0
280,-153,0,0,0,0,0,0,0,0,0,-1,1504,1177,0,0
287,-153,0,0,0,0,0,0,0,0,0,-1,1511,1177,0,0
294,-153,0,0,0,0,0,0,0,0,0,-1,1518,1177,0,0
301,-153,0,0,0,0,0,0,0,0,0,-1,1525,1177,0,0
308,-153,0,0,0,0,0,0,0,0,0,-1,1532,1177,0,0
315,-153,0,0,0,0,0,0,0,0,0,-1,1539,1177,0,0
322,-153,0,0,0,0,0,0,0,0,0,-1,1546,1177,0,0
329,-153,0,0,0,0,0,0,0,0,0,-1,1553,1177,0,0
336,-153,0,0,0,0,0,0,0,0,0,-1,1560,1177,0,0
343,-153,0,0,0,0,0,0,0,0,0,-1,1567,1177,0,0
350,-153,0,0,0,0,0,0,0,0,0,-1,1574,1177,0,0
357,-153,0,0,0,0,0,0,0,0,0,-1,1581,1177,0,0
364,-153,0,0,0,0,0,0,0,0,0,-1,1588,1177,0,0
371,-153,0,0,0,0,0,0,0,0,0,-1,1595,1177,0,0
378,-153,0,0,0,0,0,0,0,0,0,-1,1602,1177,0,0
385,-153,0,0,0,0,0,0,0,0,0,-1,1609,1177,0,0
392,-153,0,0,0,0,0,0,0,0,0,-1,1616,1177,0,0
399,-153,0,0,0,0,0,0,0,0,0,-1,1623,1177,0,0
406,-153,0,0,0,0,0,0,0,0,0,-1,1630,1177,0,0
413,-153,0,0,0,0,0,0,0,0,0,-1,1637,1177,0,0
420,-153,0,0,0,0,0,0,0,0,0,-1,1644,1177,0,0
427,-153,0,0,0,0,0,0,0,0,0,-1,1651,1177,0,0
434,-153,0,0,0,0,0,0,0,0,0,-1,1658,1177,0,0
441,-153,0,0,0,0,0,0,0,0,0,-1,1665,1177,0,0
448,-153,0,0,0,0,0,0,0,0,0,-1,1672,1177,0,0
455,-153,0,0,0,0,0,0,0,0,0,-1,1679,1177,0,0
462,-153,0,0,0,0,0,0,0,0,0,-1,1686,1177,0,0
469,-153,0,0,0,0,0,0,0,0,0,-1,1693,1177,0,0
476,-153,0,0,0,0,0,0,0,0,0,-1,1700,1177,0,0
483,-153,0,0,0,0,0,0,0,0,0,-1,1707,1177,0,0
490,-153,0,0,0,0,0,0,0,0,0,-1,1714,1177,0,0
497,-153,0,0,0,0,0,0,0,0,0,-1,1721,1177,0,0
504,-153,0,0,0,0,0,0,0,0,0,-1,1728,1177,0,0
511,-153,0,0,0,0,0,0,0,0,0,-1,1735,1177,0,0
518,-153,0,0,0,0,0,0,0,0,0,-1,1742,1177,0,0
525,-153,0,0,0,0,0,0,0,0,0,-1,1749,1177,0,0
532,-153,0,0,0,0,0,0,0,0,0,-1,1756,1177,0,0
539,-153,0,0,0,0,0,0,0,0,0,-1,1763,1177,0,0
546,-153,0,0,0,0,0,0,0,0,0,-1,1770,1177,0,0
553,-153,0,0,0,0,0,0,0,0,0,-1,1777,1177,0,0
560,-153,0,0,0,0,0,0,0,0,0,-1,1784,1177,0,0
567,-153,0,0,0,0,0,0,0,0,0,-1,1791,1177,0,0
574,-153,0,0,0,0,0,0,0,0,0,-1,1798,1177,0,0
581,-153,0,0,0,0,0,0,0,0,0,-1,1805,1177,0,0
588,-153,0,0,0,0,0,0,0,0,0,-1,1812,1177,0,0
595,-153,0,0,0,0,0,0,0,0,0,-1,1819,1177,0,0
602,-153,0,0,0,0,0,0,0,0,0,-1,1826,1177,0,0
609,-153,0,0,0,0,0,0,0,0,0,-1,1833,1177,0,0
616,-153,0,0,0,0,0,0,0,0,0,-1,1840,1177,0,0
623,-153,0,0,0,0,0,0,0,0,0,-1,1847,1177,0,0
630,-153,0,0,0,0,0,0,0,0,0,-1,1854,1177,0,0
637,-153,16.0432,2.31946,0.00159245,-0.00452947,0.000361552,0.00161373,-0.00455075,0.0587862,0.00369126,0.0403545,1861,1177,16.0432,-2.31948
644,-153,16.0245,2.30444,0.00106393,-0.00293274,0.000236623,0.00107789,-0.0029467,0.0589308,0.00240565,0.0375385,1868,1177,16.0246,-2.30442
651,-153,16.0775,2.3396,0.00110679,-0.00146857,-7.17625e-05,0.00110878,-0.00147057,-0.0278363,0.00149406,0.031568,1875,1177,16.0776,-2.33957
658,-153,16.1353,2.29907,0.000195998,-0.000540365,-4.34401e-05,0.000198552,-0.000542919,-0.0587213,0.000443211,0.0348238,1882,1177,16.1353,-2.29905
665,-153,16.2197,2.31848,-0.00124408,-9.07045e-05,0.000362113,1.35591e-05,-0.00134834,1.29045,0.00090345,0.0378438,1889,1177,16.2197,-2.31843
672,-153,16.2021,2.38147,-0.00270307,3.65522e-05,0.000858821,0.000283514,-0.00295003,1.29079,0.00206768,0.0383388,1896,1177,16.2021,-2.38144
679,-153,16.0387,2.27246,-0.00399186,-6.4308e-05,0.00137111,0.000366988,-0.00442316,1.26604,0.0030784,0.0299013,1903,1177,16.0387,-2.27243
686,-153,16.0742,2.29126,-0.00507733,-0.000308923,0.00186006,0.000330817,-0.00571707,1.23953,0.0039263,0.0176843,1910,1177,16.0742,-2.29126
693,-153,16.1207,2.23621,-0.00587994,-0.000478661,0.00223995,0.00032938,-0.00668798,1.22459,0.0045724,0.0256848,1917,1177,16.1208,-2.23624
700,-153,16.1508,2.11462,0,0,0,0,0,0,0,-1,1924,1177,16.1508,-2.11464
707,-153,15.0171,3.74658,0,0,0,0,0,0,0,-1,1931,1177,15.0171,-3.74658
714,-153,15.1327,3.48218,-0.00646469,-0.000911202,0.00279553,0.000252271,-0.00762816,1.17641,0.00517158,0.0224655,1938,1177,15.1327,-3.48222
721,-153,15.129,3.41296,-0.00625191,-0.00110265,0.00274853,8.87639e-05,-0.00744333,1.16177,0.00499207,0.018929,1945,1177,15.1291,-3.41296
728,-153,15.1626,3.33215,-0.00558994,-0.0010276,0.00254612,0.000109775,-0.00672732,1.15068,0.00452191,0.0236849,1952,1177,15.1626,-3.33212
735,-153,15.0295,3.33289,-0.00454108,-0.00110871,0.00199825,-0.000190834,-0.00545896,1.1402,0.00357739,0.015614,1959,1177,15.0296,-3.33287
742,-153,15.035,3.25562,-0.00336268,-0.00074503,0.00136365,-0.00016373,-0.00394398,1.16784,0.00257648,0.0146309,1966,1177,15.035,-3.25566
749,-153,15.0209,3.16809,-0.00264908,-0.000260788,0.00122707,0.00025728,-0.00316715,1.1713,0.00220221,0.0155312,1973,1177,15.0209,-3.16813
756,-153,15.0364,3.07764,-0.00238016,0.000692408,0.00175127,0.00148574,-0.0031735,1.14545,0.00274821,0.010255,1980,1177,15.0364,-3.07767
763,-153,15.0302,3.01233,-0.00262076,0.00201232,0.00245697,0.00307263,-0.00368106,1.16339,0.00390451,0.00995831,1987,1177,15.0302,-3.01237
770,-153,15.0206,2.93811,-0.0035287,0.00327768,0.00384375,0.00500831,-0.00525934,1.14774,0.00592862,0.00971681,1994,1177,15.0206,-2.93815
777,-153,15.0389,2.82507,-0.00534589,0.00487466,0.0062644,0.00784879,-0.00832002,1.12754,0.00933638,0.0203876,2001,1177,15.0389,-2.82511
784,-153,15.0562,2.6875,-0.00812042,0.00704444,0.00979851,0.0118517,-0.0129277,1.11469,0.0143109,0.0429354,2008,1177,15.0562,-2.68747
791,-153,15.0776,2.56787,-0.012056,0.00996669,0.0146976,0.0173203,-0.0194096,1.10689,0.0212174,0.0459751,2015,1177,15.0776,-2.56787
798,-153,15.1602,2.3894,-0.0173856,0.0138992,0.0212182,0.0246177,-0.0281041,1.10303,0.0304611,0.0452922,2022,1177,15.1601,-2.38937
805,-153,15.1732,2.23865,-0.0245004,0.019195,0.0297212,0.0342346,-0.03954,1.10234,0.0426305,0.0475746,2029,1177,15.1732,-2.23863
812,-153,0,0,0,0,0,0,0,0,0,-1,2036,1177,0,0
-700,-160,0,0,0,0,0,0,0,0,0,-1,524,1184,0,0
-693,-160,0,0,0,0,0,0,0,0,0,-1,531,1184,0,0
-686,-160,-11.0175,-1.95862,0,0,0,0,0,0,0,-1,538,1184,-11.0175,1.9586
-679,-160,-10.2183,-1.42334,0.144132,0.0737173,0.0227338,0.150834,0.0670155,0.286677,0.0872641,0.0480138,545,1184,-10.2183,1.42338
-672,-160,-7.70447,1.78564,0.109902,0.0584425,0.0222599,0.118195,0.0501498,0.35661,0.0684999,0.0432418,552,1184,-7.70448,-1.7857
-665,-160,-8.54462,-0.40564,0.0821152,0.0454372,0.0203068,0.0911383,0.0364141,0.418136,0.0529715,0.047831,559,1184,-8.54464,0.405611
-658,-160,-8.65863,0.237183,0,0,0,0,0,0,0,-1,566,1184,-8.65862,-0.237134
-651,-160,-8.60583,0.38208,0.0425409,0.0256222,0.0144534,0.0508285,0.0173346,0.520634,0.0298361,0.0497022,573,1184,-8.60585,-0.382061
-644,-160,-8.58862,0.558716,0.0292544,0.0184863,0.0113643,0.0364455,0.0112952,0.564178,0.0215427,0.0364179,580,1184,-8.58864,-0.558664
-637,-160,-8.64948,0.745239,0.0193827,0.0129334,0.00849173,0.0252414,0.00707469,0.603938,0.0150349,0.0135722,587,1184,-8.64945,-0.745181
-630,-160,-8.69318,0.824097,0.0116407,0.0086462,0.00558298,0.0159237,0.00436317,0.654392,0.00950142,0.00801219,594,1184,-8.69317,-0.824091
-623,-160,-8.72217,0.907715,0.00348225,0.00430072,0.00287818,0.00679861,0.000984361,0.856018,0.00424253,0.0102919,601,1184,-8.72217,-0.907654
-616,-160,-8.70819,1.01477,-0.000673245,0.00164111,-0.000432404,0.00171926,-0.000751394,-1.39199,0.00146246,0.00904706,608,1184,-8.70818,-1.01479
-609,-160,-8.67938,1.14551,-0.00256576,0.000305228,-0.00259789,0.00183785,-0.00409838,-1.0378,0.00350914,0.0123624,615,1184,-8.67937,-1.14546
-602,-160,-8.68378,1.26208,-0.00392908,-0.000375045,-0.00436918,0.00256467,-0.0068688,-0.978539,0.00563221,0.0181266,622,1184,-8.68376,-1.26209
-595,-160,-8.67029,1.37585,-0.00491401,-0.000799149,-0.00558328,0.00309372,-0.00880688,-0.961927,0.00712985,0.0184009,629,1184,-8.67031,-1.37586
-588,-160,-8.74023,1.4585,-0.00565381,-0.000983657,-0.00635039,0.00344736,-0.0100848,-0.961578,0.00812005,0.0184299,636,1184,-8.74025,-1.45853
-581,-160,-8.69385,1.5686,-0.00599154,-0.00108442,-0.00665863,0.00355831,-0.0106343,-0.961918,0.0085268,0.0162224,643,1184,-8.69386,-1.56858
-574,-160,-8.85144,1.11792,-0.00581149,-0.00109513,-0.00659297,0.00354871,-0.0104553,-0.957148,0.00840662,0.0368309,650,1184,-8.85141,-1.11796
-567,-160,-9.05444,0.620483,0,0,0,0,0,0,0,-1,657,1184,-9.05447,-0.620473
-560,-160,-9.83356,0.295288,-0.00469925,-0.000976508,-0.00579884,0.00325238,-0.00892813,-0.940698,0.00728247,0.0389778,664,1184,-9.83356,-0.295257
-553,-160,-9.89435,0.539917,-0.00365846,-0.00082627,-0.00486711,0.00282656,-0.0073113,-0.926966,0.00604099,0.0375434,671,1184,-9.89434,-0.539932
-546,-160,-9.91852,0.643555,-0.00211945,-0.000675432,-0.00355347,0.00222863,-0.00502352,-0.885626,0.00428943,0.0362143,678,1184,-9.91855,-0.643503
-539,-160,-9.98071,0.529663,-1.50239e-05,-0.000550829,-0.0018624,0.00159864,-0.00216449,-0.713964,0.00218082,0.0400468,685,1184,-9.98074,-0.52972
-532,-160,-10.0896,0.256714,0.00289496,-0.000504632,0.000189821,0.00290553,-0.000515198,0.0556059,0.00212963,0.0449682,692,1184,-10.0896,-0.256708
-525,-160,-9.85449,0.0866699,0.00613699,-0.000739367,0.00187965,0.00661724,-0.00121963,0.250153,0.00486922,0.0439882,699,1184,-9.85448,-0.086722
-518,-160,-9.71454,0.363037,0.0085683,-0.00197556,0.000733437,0.00861908,-0.00202633,0.0691169,0.00652719,0.041367,706,1184,-9.71455,-0.363063
-511,-160,0,0,0,0,0,0,0,0,0,-1,713,1184,0,0
-504,-160,0,0,0,0,0,0,0,0,0,-1,720,1184,0,0
-497,-160,0,0,0,0,0,0,0,0,0,-1,727,1184,0,0
-490,-160,0,0,0,0,0,0,0,0,0,-1,734,1184,0,0
-483,-160,0,0,0,0,0,0,0,0,0,-1,741,1184,0,0
-476,-160,0,0,0,0,0,0,0,0,0,-1,748,1184,0,0
-469,-160,0,0,0,0,0,0,0,0,0,-1,755,1184,0,0
-462,-160,0,0,0,0,0,0,0,0,0,-1,762,1184,0,0
-455,-160,0,0,0,0,0,0,0,0,0,-1,769,1184,0,0
-448,-160,0,0,0,0,0,0,0,0,0,-1,776,1184,0,0
-441,-160,0,0,0,0,0,0,0,0,0,-1,783,1184,0,0
-434,-160,0,0,0,0,0,0,0,0,0,-1,790,1184,0,0
-427,-160,0,0,0,0,0,0,0,0,0,-1,797,1184,0,0
-420,-160,0,0,0,0,0,0,0,0,0,-1,804,1184,0,0
-413,-160,0,0,0,0,0,0,0,0,0,-1,811,1184,0,0
-406,-160,0,0,0,0,0,0,0,0,0,-1,818,1184,0,0
-399,-160,0,0,0,0,0,0,0,0,0,-1,825,1184,0,0
-392,-160,0,0,0,0,0,0,0,0,0,-1,832,1184,0,0
-385,-160,0,0,0,0,0,0,0,0,0,-1,839,1184,0,0
-378,-160,0,0,0,0,0,0,0,0,0,-1,846,1184,0,0
-371,-160,0,0,0,0,0,0,0,0,0,-1,853,1184,0,0
-364,-160,0,0,0,0,0,0,0,0,0,-1,860,1184,0,0
-357,-160,0,0,0,0,0,0,0,0,0,-1,867,1184,0,0
-350,-160,0,0,0,0,0,0,0,0,0,-1,874,1184,0,0
-343,-160,0,0,0,0,0,0,0,0,0,-1,881,1184,0,0
-336,-160,0,0,0,0,0,0,0,0,0,-1,888,1184,0,0
-329,-160,0,0,0,0,0,0,0,0,0,-1,895,1184,0,0
-322,-160,0,0,0,0,0,0,0,0,0,-1,902,1184,0,0
-315,-160,0,0,0,0,0,0,0,0,0,-1,909,1184,0,0
-308,-160,0,0,0,0,0,0,0,0,0,-1,916,1184,0,0
-301,-160,0,0,0,0,0,0,0,0,0,-1,923,1184,0,0
-294,-160,0,0,0,0,0,0,0,0,0,-1,930,1184,0,0
-287,-160,0,0,0,0,0,0,0,0,0,-1,937,1184,0,0
-280,-160,0,0,0,0,0,0,0,0,0,-1,944,1184,0,0
-273,-160,0,0,0,0,0,0,0,0,0,-1,951,1184,0,0
-266,-160,0,0,0,0,0,0,0,0,0,-1,958,1184,0,0
-259,-160,0,0,0,0,0,0,0,0,0,-1,965,1184,0,0
-252,-160,0,0,0,0,0,0,0,0,0,-1,972,1184,0,0
-245,-160,0,0,0,0,0,0,0,0,0,-1,979,1184,0,0
-238,-160,0,0,0,0,0,0,0,0,0,-1,986,1184,0,0
-231,-160,0,0,0,0,0,0,0,0,0,-1,993,1184,0,0
-224,-160,0,0,0,0,0,0,0,0,0,-1,1000,1184,0,0
-217,-160,0,0,0,0,0,0,0,0,0,-1,1007,1184,0,0
-210,-160,0,0,0,0,0,0,0,0,0,-1,1014,1184,0,0
-203,-160,0,0,0,0,0,0,0,0,0,-1,1021,1184,0,0
-196,-160,0,0,0,0,0,0,0,0,0,-1,1028,1184,0,0
-189,-160,0,0,0,0,0,0,0,0,0,-1,1035,1184,0,0
-182,-160,0,0,0,0,0,0,0,0,0,-1,1042,1184,0,0
-175,-160,0,0,0,0,0,0,0,0,0,-1,1049,1184,0,0
-168,-160,0,0,0,0,0,0,0,0,0,-1,1056,1184,0,0
-161,-160,0,0,0,0,0,0,0,0,0,-1,1063,1184,0,0
-154,-160,0,0,0,0,0,0,0,0,0,-1,1070,1184,0,0
-147,-160,0,0,0,0,0,0,0,0,0,-1,1077,1184,0,0
-140,-160,0,0,0,0,0,0,0,0,0,-1,1084,1184,0,0
-133,-160,0,0,0,0,0,0,0,0,0,-1,1091,1184,0,0
-126,-160,0,0,0,0,0,0,0,0,0,-1,1098,1184,0,0
-119,-160,0,0,0,0,0,0,0,0,0,-1,1105,1184,0,0
-112,-160,0,0,0,0,0,0,0,0,0,-1,1112,1184,0,0
-105,-160,0,0,0,0,0,0,0,0,0,-1,1119,1184,0,0
-98,-160,0,0,0,0,0,0,0,0,0,-1,1126,1184,0,0
-91,-160,0,0,0,0,0,0,0,0,0,-1,1133,1184,0,0
-84,-160,0,0,0,0,0,0,0,0,0,-1,1140,1184,0,0
-77,-160,0,0,0,0,0,0,0,0,0,-1,1147,1184,0,0
-70,-160,0,0,0,0,0,0,0,0,0,-1,1154,1184,0,0
-63,-160,0,0,0,0,0,0,0,0,0,-1,1161,1184,0,0
-56,-160,0,0,0,0,0,0,0,0,0,-1,1168,1184,0,0
-49,-160,0,0,0,0,0,0,0,0,0,-1,1175,1184,0,0
-42,-160,0,0,0,0,0,0,0,0,0,-1,1182,1184,0,0
-35,-160,0,0,0,0,0,0,0,0,0,-1,1189,1184,0,0
-28,-160,0,0,0,0,0,0,0,0,0,-1,1196,1184,0,0
-21,-160,0,0,0,0,0,0,0,0,0,-1,1203,1184,0,0
-14,-160,0,0,0,0,0,0,0,0,0,-1,1210,1184,0,0
-7,-160,0,0,0,0,0,0,0,0,0,-1,1217,1184,0,0
0,-160,0,0,0,0,0,0,0,0,0,-1,1224,1184,0,0
7,-160,0,0,0,0,0,0,0,0,0,-1,1231,1184,0,0
14,-160,0,0,0,0,0,0,0,0,0,-1,1238,1184,0,0
21,-160,0,0,0,0,0,0,0,0,0,-1,1245,1184,0,0
28,-160,0,0,0,0,0,0,0,0,0,-1,1252,1184,0,0
35,-160,0,0,0,0,0,0,0,0,0,-1,1259,1184,0,0
42,-160,0,0,0,0,0,0,0,0,0,-1,1266,1184,0,0
49,-160,0,0,0,0,0,0,0,0,0,-1,1273,1184,0,0
56,-160,0,0,0,0,0,0,0,0,0,-1,1280,1184,0,0
63,-160,0,0,0,0,0,0,0,0,0,-1,1287,1184,0,0
70,-160,0,0,0,0,0,0,0,0,0,-1,1294,1184,0,0
77,-160,0,0,0,0,0,0,0,0,0,-1,1301,1184,0,0
84,-160,0,0,0,0,0,0,0,0,0,-1,1308,1184,0,0
91,-160,0,0,0,0,0,0,0,0,0,-1,1315,1184,0,0
98,-160,0,0,0,0,0,0,0,0,0,-1,1322,1184,0,0
105,-160,0,0,0,0,0,0,0,0,0,-1,1329,1184,0,0
112,-160,0,0,0,0,0,0,0,0,0,-1,1336,1184,0,0
119,-160,0,0,0,0,0,0,0,0,0,-1,1343,1184,0,0
126,-160,0,0,0,0,0,0,0,0,0,-1,1350,1184,0,0
133,-160,0,0,0,0,0,0,0,0,0,-1,1357,1184,0,0
140,-160,0,0,0,0,0,0,0,0,0,-1,1364,1184,0,0
147,-160,0,0,0,0,0,0,0,0,0,-1,1371,1184,0,0
154,-160,0,0,0,0,0,0,0,0,0,-1,1378,1184,0,0
161,-160,0,0,0,0,0,0,0,0,0,-1,1385,1184,0,0
168,-160,0,0,0,0,0,0,0,0,0,-1,1392,1184,0,0
175,-160,0,0,0,0,0,0,0,0,0,-1,1399,1184,0,0
182,-160,0,0,0,0,0,0,0,0,0,-1,1406,1184,0,0
189,-160,0,0,0,0,0,0,0,0,0,-1,1413,1184,0,0
196,-160,0,0,0,0,0,0,0,0,0,-1,1420,1184,0,0
203,-160,0,0,0,0,0,0,0,0,0,-1,1427,1184,0,0
210,-160,0,0,0,0,0,0,0,0,0,-1,1434,1184,0,0
217,-160,0,0,0,0,0,0,0,0,0,-1,1441,1184,0,0
224,-160,0,0,0,0,0,0,0,0,0,-1,1448,1184,0,0
231,-160,0,0,0,0,0,0,0,0,0,-1,1455,1184,0,0
238,-160,0,0,0,0,0,0,0,0,0,-1,1462,1184,0,0
245,-160,0,0,0,0,0,0,0,0,0,-1,1469,1184,0,0
252,-160,0,0,0,0,0,0,0,0,0,-1,1476,1184,0,0
259,-160,0,0,0,0,0,0,0,0,0,-1,1483,1184,0,0
266,-160,0,0,0,0,0,0,0,0,0,-1,1490,1184,0,0
273,-160,0,0,0,0,0,0,0,0,0,-1,1497,1184,0,0
280,-160,0,0,0,0,0,0,0,0,0,-1,1504,1184,0,0
287,-160,0,0,0,0,0,0,0,0,0,-1,1511,1184,0,0
294,-160,0,0,0,0,0,0,0,0,0,-1,1518,1184,0,0
301,-160,0,0,0,0,0,0,0,0,0,-1,1525,1184,0,0
308,-160,0,0,0,0,0,0,0,0,0,-1,1532,1184,0,0
315,-160,0,0,0,0,0,0,0,0,0,-1,1539,1184,0,0
322,-160,0,0,0,0,0,0,0,0,0,-1,1546,1184,0,0
329,-160,0,0,0,0,0,0,0,0,0,-1,1553,1184,0,0
336,-160,0,0,0,0,0,0,0,0,0,-1,1560,1184,0,0
343,-160,0,0,0,0,0,0,0,0,0,-1,1567,1184,0,0
350,-160,0,0,0,0,0,0,0,0,0,-1,1574,1184,0,0
357,-160,0,0,0,0,0,0,0,0,0,-1,1581,1184,0,0
364,-160,0,0,0,0,0,0,0,0,0,-1,1588,1184,0,0
371,-160,0,0,0,0,0,0,0,0,0,-1,1595,1184,0,0
378,-160,0,0,0,0,0,0,0,0,0,-1,1602,1184,0,0
385,-160,0,0,0,0,0,0,0,0,0,-1,1609,1184,0,0
392,-160,0,0,0,0,0,0,0,0,0,-1,1616,1184,0,0
399,-160,0,0,0,0,0,0,0,0,0,-1,1623,1184,0,0
406,-160,0,0,0,0,0,0,0,0,0,-1,1630,1184,0,0
413,-160,0,0,0,0,0,0,0,0,0,-1,1637,1184,0,0
420,-160,0,0,0,0,0,0,0,0,0,-1,1644,1184,0,0
427,-160,0,0,0,0,0,0,0,0,0,-1,1651,1184,0,0
434,-160,0,0,0,0,0,0,0,0,0,-1,1658,1184,0,0
441,-160,0,0,0,0,0,0,0,0,0,-1,1665,1184,0,0
448,-160,0,0,0,0,0,0,0,0,0,-1,1672,1184,0,0
455,-160,0,0,0,0,0,0,0,0,0,-1,1679,1184,0,0
462,-160,0,0,0,0,0,0,0,0,0,-1,1686,1184,0,0
469,-160,0,0,0,0,0,0,0,0,0,-1,1693,1184,0,0
476,-160,0,0,0,0,0,0,0,0,0,-1,1700,1184,0,0
483,-160,0,0,0,0,0,0,0,0,0,-1,1707,1184,0,0
490,-160,0,0,0,0,0,0,0,0,0,-1,1714,1184,0,0
497,-160,0,0,0,0,0,0,0,0,0,-1,1721,1184,0,0
504,-160,0,0,0,0,0,0,0,0,0,-1,1728,1184,0,0
511,-160,0,0,0,0,0,0,0,0,0,-1,1735,1184,0,0
518,-160,0,0,0,0,0,0,0,0,0,-1,1742,1184,0,0
525,-160,0,0,0,0,0,0,0,0,0,-1,1749,1184,0,0
532,-160,0,0,0,0,0,0,0,0,0,-1,1756,1184,0,0
539,-160,0,0,0,0,0,0,0,0,0,-1,1763,1184,0,0
546,-160,0,0,0,0,0,0,0,0,0,-1,1770,1184,0,0
553,-160,0,0,0,0,0,0,0,0,0,-1,1777,1184,0,0
560,-160,0,0,0,0,0,0,0,0,0,-1,1784,1184,0,0
567,-160,0,0,0,0,0,0,0,0,0,-1,1791,1184,0,0
574,-160,0,0,0,0,0,0,0,0,0,-1,1798,1184,0,0
581,-160,0,0,0,0,0,0,0,0,0,-1,1805,1184,0,0
588,-160,0,0,0,0,0,0,0,0,0,-1,1812,1184,0,0
595,-160,0,0,0,0,0,0,0,0,0,-1,1819,1184,0,0
602,-160,0,0,0,0,0,0,0,0,0,-1,1826,1184,0,0
609,-160,0,0,0,0,0,0,0,0,0,-1,1833,1184,0,0
616,-160,0,0,0,0,0,0,0,0,0,-1,1840,1184,0,0
623,-160,0,0,0,0,0,0,0,0,0,-1,1847,1184,0,0
630,-160,0,0,0,0,0,0,0,0,0,-1,1854,1184,0,0
637,-160,15.8995,2.55469,0.00261047,-0.00438375,0.00125797,0.00282984,-0.00460313,0.172652,0.00433194,0.0431563,1861,1184,15.8996,-2.55465
644,-160,15.9935,2.54834,0.00175684,-0.00263758,0.000600049,0.0018373,-0.00271805,0.133298,0.00264637,0.0425968,1868,1184,15.9936,-2.54833
651,-160,16.0787,2.55518,0.00137385,-0.00103821,-1.66077e-05,0.00137396,-0.00103832,-0.00688487,0.00139722,0.0387566,1875,1184,16.0787,-2.55516
658,-160,16.1042,2.30566,8.52158e-05,-5.93284e-05,-0.000141049,0.00017143,-0.000145543,-0.548643,0.000183208,0.0374922,1882,1184,16.1042,-2.30567
665,-160,16.1671,2.24866,-0.00149446,0.000406877,0.000116821,0.000414028,-0.00150161,1.50966,0.0011639,0.0379876,1889,1184,16.1671,-2.24864
672,-160,16.1445,2.37939,-0.00295831,0.000532776,0.00048887,0.000599942,-0.00302547,1.43426,0.00224386,0.0355264,1896,1184,16.1445,-2.37945
679,-160,16.0751,2.32104,-0.00420265,0.000415389,0.000934552,0.000597345,-0.00438461,1.3785,0.00314118,0.0261567,1903,1184,16.0751,-2.32105
686,-160,16.0983,2.29175,-0.00522031,0.000141239,0.00138059,0.000475857,-0.00555493,1.33301,0.00387166,0.0151667,1910,1184,16.0983,-2.29169
693,-160,16.1013,2.21484,-0.00594731,-6.5616e-05,0.00174164,0.000411414,-0.00642435,1.30346,0.00442641,0.0393641,1917,1184,16.1014,-2.21485
700,-160,15.5558,3.32056,0,0,0,0,0,0,0,-1,1924,1184,15.5557,-3.32057
707,-160,14.9828,3.81335,-0.00635302,-0.000484681,0.00225471,0.00028156,-0.00711926,1.2432,0.00484276,0.0389465,1931,1184,14.9828,-3.81332
714,-160,15.0719,3.56714,-0.00632481,-0.000626034,0.00230811,0.000191506,-0.00714235,1.23038,0.00482667,0.0280956,1938,1184,15.0719,-3.56712
721,-160,15.0522,3.39478,-0.00597563,-0.000888744,0.00233988,2.38447e-05,-0.00688822,1.19893,0.00460012,0.0141748,1945,1184,15.0523,-3.39473
728,-160,15.009,3.36841,-0.00516877,-0.000913961,0.00221135,2.71688e-05,-0.0061099,1.16842,0.00408235,0.0125903,1952,1184,15.009,-3.36846
735,-160,14.9597,3.3064,-0.00398868,-0.00104725,0.00171684,-0.000257309,-0.00477862,1.13957,0.00310353,0.0127986,1959,1184,14.9597,-3.30636
742,-160,14.9656,3.20959,-0.00264798,-0.000753251,0.00109593,-0.000251977,-0.00314926,1.14181,0.00202076,0.016665,1966,1184,14.9656,-3.20954
749,-160,14.959,3.11829,-0.00182086,-0.000371762,0.000930403,8.2935e-05,-0.00227556,1.11622,0.00154542,0.0178432,1973,1184,14.959,-3.11825
756,-160,14.9469,3.07129,-0.00144801,0.000374657,0.00143347,0.00116196,-0.00223531,1.06854,0.00199378,0.0106747,1980,1184,14.9469,-3.07127
763,-160,14.9448,3.00854,-0.00156135,0.0013577,0.00210103,0.00245641,-0.00266006,1.08897,0.00295477,0.0108423,1987,1184,14.9448,-3.00858
770,-160,14.9263,2.9397,-0.00239822,0.00224792,0.00343008,0.00406756,-0.00421787,1.08305,0.00478386,0.0170085,1994,1184,14.9263,-2.93969
777,-160,14.9119,2.84851,-0.00411504,0.00337627,0.00566414,0.00642123,-0.00716,1.07753,0.00784499,0.0313698,2001,1184,14.9119,-2.84846
784,-160,14.8369,2.74255,-0.00686433,0.00490171,0.00892863,0.00971123,-0.0116738,1.0767,0.012364,0.0430564,2008,1184,14.837,-2.74258
791,-160,14.9478,2.56213,-0.0109261,0.00695356,0.013472,0.0141821,-0.0181546,1.07833,0.0187165,0.0473957,2015,1184,14.9477,-2.56209
798,-160,14.6643,2.48865,-0.0165895,0.00972436,0.0195234,0.0201103,-0.0269755,1.0819,0.0272811,0.0451287,2022,1184,14.6643,-2.48866
805,-160,14.236,2.49792,-0.024363,0.0134688,0.0274303,0.0278731,-0.0387672,1.08725,0.0386458,0.046235,2029,1184,14.2359,-2.49792
812,-160,0,0,0,0,0,0,0,0,0,-1,2036,1184,0,0
-700,-167,0,0,0,0,0,0,0,0,0,-1,524,1191,0,0
-693,-167,0,0,0,0,0,0,0,0,0,-1,531,1191,0,0
-686,-167,-11.3784,-2.57617,0,0,0,0,0,0,0,-1,538,1191,-11.3784,2.57613
-679,-167,-10.6334,-1.86194,0.126992,0.0651927,0.0384317,0.145405,0.0467793,0.446806,0.0857103,0.0487278,545,1191,-10.6334,1.86195
-672,-167,-9.92291,-1.06445,0.0974416,0.0523535,0.0343217,0.115961,0.033834,0.494812,0.0688583,0.0474753,552,1191,-9.92293,1.06448
-665,-167,-8.95032,-0.5979,0.0733569,0.0412412,0.0294568,0.0908484,0.0237497,0.535849,0.0544053,0.0479242,559,1191,-8.95035,0.59791
-658,-167,-8.65289,0.269775,0.0540382,0.0317957,0.0243885,0.0697215,0.0161124,0.571481,0.0421495,0.0496551,566,1191,-8.65291,-0.269798
-651,-167,-8.50586,0.463379,0.0387644,0.0239394,0.0194798,0.0521944,0.0105094,0.603596,0.0318759,0.0495477,573,1191,-8.50587,-0.463428
-644,-167,-8.45782,0.553711,0.0269907,0.0175539,0.0149834,0.0379811,0.00656351,0.63286,0.0234412,0.0391362,580,1191,-8.4578,-0.553756
-637,-167,-8.5401,0.700317,0.0181516,0.0124912,0.0110536,0.0267315,0.00391122,0.660069,0.0166709,0.0158332,587,1191,-8.54013,-0.700266
-630,-167,-8.58923,0.789795,0.0110718,0.00851366,0.00743039,0.0173324,0.00225305,0.700163,0.0108819,0.00853977,594,1191,-8.58921,-0.789844
-623,-167,-8.59937,0.890503,0.00376796,0.00452909,0.00395461,0.00812141,0.000175651,0.833367,0.00535668,0.0103176,601,1191,-8.59934,-0.890553
-616,-167,-8.58411,1.01123,-2.57731e-05,0.00182064,0.000376573,0.00189449,-9.96209e-05,1.37715,0.00129747,0.0133367,608,1191,-8.58411,-1.01124
-609,-167,-8.5882,1.13293,-0.00185005,0.000460162,-0.0019789,0.00159641,-0.0029863,-1.04958,0.00268609,0.0131136,615,1191,-8.58822,-1.1329
-602,-167,-8.59772,1.20911,-0.00310871,-0.00039122,-0.00383095,0.00231481,-0.00581474,-0.955815,0.00483641,0.0135518,622,1191,-8.5977,-1.2091
-595,-167,-8.60321,1.3479,-0.00398241,-0.000848403,-0.00502012,0.0028436,-0.00767441,-0.936679,0.00628245,0.0180099,629,1191,-8.60323,-1.34787
-588,-167,-8.61871,1.50476,-0.00463311,-0.00102164,-0.00576546,0.00321425,-0.008869,-0.937159,0.00722642,0.0170877,636,1191,-8.61869,-1.5048
-581,-167,-8.59802,1.56396,-0.00491049,-0.00112549,-0.00606335,0.00333383,-0.00936982,-0.936668,0.00760542,0.016047,643,1191,-8.59799,-1.56396
-574,-167,-8.64307,1.2644,-0.00468042,-0.00115453,-0.00601306,0.00334869,-0.00918364,-0.927995,0.0074924,0.0339549,650,1191,-8.64305,-1.26437
-567,-167,-9.09686,0.613159,0,0,0,0,0,0,0,-1,657,1191,-9.09684,-0.61314
-560,-167,-9.67114,0.0235596,0,0,0,0,0,0,0,-1,664,1191,-9.67113,-0.02362
-553,-167,-9.84271,0.434937,-0.00277919,-0.000824244,-0.00461194,0.00291267,-0.0065161,-0.889825,0.00557464,0.0365325,671,1191,-9.84272,-0.434899
-546,-167,-9.86652,0.478149,-0.00149756,-0.000623283,-0.00353176,0.00249828,-0.00461913,-0.846972,0.00416961,0.0335778,678,1191,-9.8665,-0.478148
-539,-167,-9.87213,0.490967,0.0002502,-0.000410913,-0.0021496,0.00209451,-0.00225522,-0.709108,0.00251189,0.0387917,685,1191,-9.8721,-0.490935
-532,-167,-9.98053,0.438477,0.0027056,-0.000224246,-0.000477497,0.00278146,-0.000300103,-0.157547,0.00196201,0.0436418,692,1191,-9.98055,-0.438446
-525,-167,-10.0035,0.408936,0.00563072,-0.000177326,0.000987581,0.00579405,-0.000340658,0.163902,0.00398111,0.0443939,699,1191,-10.0035,-0.408895
-518,-167,-9.68048,0.446777,0.00821916,-0.00105271,0.000173664,0.00822242,-0.00105596,0.0187215,0.00586537,0.0441292,706,1191,-9.68045,-0.446817
-511,-167,0,0,0,0,0,0,0,0,0,-1,713,1191,0,0
-504,-167,0,0,0,0,0,0,0,0,0,-1,720,1191,0,0
-497,-167,0,0,0,0,0,0,0,0,0,-1,727,1191,0,0
-490,-167,0,0,0,0,0,0,0,0,0,-1,734,1191,0,0
-483,-167,0,0,0,0,0,0,0,0,0,-1,741,1191,0,0
-476,-167,0,0,0,0,0,0,0,0,0,-1,748,1191,0,0
-469,-167,0,0,0,0,0,0,0,0,0,-1,755,1191,0,0
-462,-167,0,0,0,0,0,0,0,0,0,-1,762,1191,0,0
-455,-167,0,0,0,0,0,0,0,0,0,-1,769,1191,0,0
-448,-167,0,0,0,0,0,0,0,0,0,-1,776,1191,0,0
-441,-167,0,0,0,0,0,0,0,0,0,-1,783,1191,0,0
-434,-167,0,0,0,0,0,0,0,0,0,-1,790,1191,0,0
-427,-167,0,0,0,0,0,0,0,0,0,-1,797,1191,0,0
-420,-167,0,0,0,0,0,0,0,0,0,-1,804,1191,0,0
-413,-167,0,0,0,0,0,0,0,0,0,-1,811,1191,0,0
-406,-167,0,0,0,0,0,0,0,0,0,-1,818,1191,0,0
-399,-167,0,0,0,0,0,0,0,0,0,-1,825,1191,0,0
-392,-167,0,0,0,0,0,0,0,0,0,-1,832,1191,0,0
-385,-167,0,0,0,0,0,0,0,0,0,-1,839,1191,0,0
-378,-167,0,0,0,0,0,0,0,0,0,-1,846,1191,0,0
-371,-167,0,0,0,0,0,0,0,0,0,-1,853,1191,0,0
-364,-167,0,0,0,0,0,0,0,0,0,-1,860,1191,0,0
-357,-167,0,0,0,0,0,0,0,0,0,-1,867,1191,0,0
-350,-167,0,0,0,0,0,0,0,0,0,-1,874,1191,0,0
-343,-167,0,0,0,0,0,0,0,0,0,-1,881,1191,0,0
-336,-167,0,0,0,0,0,0,0,0,0,-1,888,1191,0,0
-329,-167,0,0,0,0,0,0,0,0,0,-1,895,1191,0,0
-322,-167,0,0,0,0,0,0,0,0,0,-1,902,1191,0,0
-315,-167,0,0,0,0,0,0,0,0,0,-1,909,1191,0,0
-308,-167,0,0,0,0,0,0,0,0,0,-1,916,1191,0,0
-301,-167,0,0,0,0,0,0,0,0,0,-1,923,1191,0,0
-294,-167,0,0,0,0,0,0,0,0,0,-1,930,1191,0,0
-287,-167,0,0,0,0,0,0,0,0,0,-1,937,1191,0,0
-280,-167,0,0,0,0,0,0,0,0,0,-1,944,1191,0,0
-273,-167,0,0,0,0,0,0,0,0,0,-1,951,1191,0,0
-266,-167,0,0,0,0,0,0,0,0,0,-1,958,1191,0,0
-259,-167,0,0,0,0,0,0,0,0,0,-1,965,1191,0,0
-252,-167,0,0,0,0,0,0,0,0,0,-1,972,1191,0,0
-245,-167,0,0,0,0,0,0,0,0,0,-1,979,1191,0,0
-238,-167,0,0,0,0,0,0,0,0,0,-1,986,1191,0,0
-231,-167,0,0,0,0,0,0,0,0,0,-1,993,1191,0,0
-224,-167,0,0,0,0,0,0,0,0,0,-1,1000,1191,0,0
-217,-167,0,0,0,0,0,0,0,0,0,-1,1007,1191,0,0
-210,-167,0,0,0,0,0,0,0,0,0,-1,1014,1191,0,0
-203,-167,0,0,0,0,0,0,0,0,0,-1,1021,1191,0,0
-196,-167,0,0,0,0,0,0,0,0,0,-1,1028,1191,0,0
-189,-167,0,0,0,0,0,0,0,0,0,-1,1035,1191,0,0
-182,-167,0,0,0,0,0,0,0,0,0,-1,1042,1191,0,0
-175,-167,0,0,0,0,0,0,0,0,0,-1,1049,1191,0,0
-168,-167,0,0,0,0,0,0,0,0,0,-1,1056,1191,0,0
-161,-167,0,0,0,0,0,0,0,0,0,-1,1063,1191,0,0
-154,-167,0,0,0,0,0,0,0,0,0,-1,1070,1191,0,0
-147,-167,0,0,0,0,0,0,0,0,0,-1,1077,1191,0,0
-140,-167,0,0,0,0,0,0,0,0,0,-1,1084,1191,0,0
-133,-167,0,0,0,0,0,0,0,0,0,-1,1091,1191,0,0
-126,-167,0,0,0,0,0,0,0,0,0,-1,1098,1191,0,0
-119,-167,0,0,0,0,0,0,0,0,0,-1,1105,1191,0,0
-112,-167,0,0,0,0,0,0,0,0,0,-1,1112,1191,0,0
-105,-167,0,0,0,0,0,0,0,0,0,-1,1119,1191,0,0
-98,-167,0,0,0,0,0,0,0,0,0,-1,1126,1191,0,0
-91,-167,0,0,0,0,0,0,0,0,0,-1,1133,1191,0,0
-84,-167,0,0,0,0,0,0,0,0,0,-1,1140,1191,0,0
-77,-167,0,0,0,0,0,0,0,0,0,-1,1147,1191,0,0
-70,-167,0,0,0,0,0,0,0,0,0,-1,1154,1191,0,0
-63,-167,0,0,0,0,0,0,0,0,0,-1,1161,1191,0,0
-56,-167,0,0,0,0,0,0,0,0,0,-1,1168,1191,0,0
-49,-167,0,0,0,0,0,0,0,0,0,-1,1175,1191,0,0
-42,-167,0,0,0,0,0,0,0,0,0,-1,1182,1191,0,0
-35,-167,0,0,0,0,0,0,0,0,0,-1,1189,1191,0,0
-28,-167,0,0,0,0,0,0,0,0,0,-1,1196,1191,0,0
-21,-167,0,0,0,0,0,0,0,0,0,-1,1203,1191,0,0
-14,-167,0,0,0,0,0,0,0,0,0,-1,1210,1191,0,0
-7,-167,0,0,0,0,0,0,0,0,0,-1,1217,1191,0,0
0,-167,0,0,0,0,0,0,0,0,0,-1,1224,1191,0,0
7,-167,0,0,0,0,0,0,0,0,0,-1,1231,1191,0,0
14,-167,0,0,0,0,0,0,0,0,0,-1,1238,1191,0,0
21,-167,0,0,0,0,0,0,0,0,0,-1,1245,1191,0,0
28,-167,0,0,0,0,0,0,0,0,0,-1,1252,1191,0,0
35,-167,0,0,0,0,0,0,0,0,0,-1,1259,1191,0,0
42,-167,0,0,0,0,0,0,0,0,0,-1,1266,1191,0,0
49,-167,0,0,0,0,0,0,0,0,0,-1,1273,1191,0,0
56,-167,0,0,0,0,0,0,0,0,0,-1,1280,1191,0,0
63,-167,0,0,0,0,0,0,0,0,0,-1,1287,1191,0,0
70,-167,0,0,0,0,0,0,0,0,0,-1,1294,1191,0,0
77,-167,0,0,0,0,0,0,0,0,0,-1,1301,1191,0,0
84,-167,0,0,0,0,0,0,0,0,0,-1,1308,1191,0,0
91,-167,0,0,0,0,0,0,0,0,0,-1,1315,1191,0,0
98,-167,0,0,0,0,0,0,0,0,0,-1,1322,1191,0,0
105,-167,0,0,0,0,0,0,0,0,0,-1,1329,1191,0,0
112,-167,0,0,0,0,0,0,0,0,0,-1,1336,1191,0,0
119,-167,0,0,0,0,0,0,0,0,0,-1,1343,1191,0,0
126,-167,0,0,0,0,0,0,0,0,0,-1,1350,1191,0,0
133,-167,0,0,0,0,0,0,0,0,0,-1,1357,1191,0,0
140,-167,0,0,0,0,0,0,0,0,0,-1,1364,1191,0,0
147,-167,0,0,0,0,0,0,0,0,0,-1,1371,1191,0,0
154,-167,0,0,0,0,0,0,0,0,0,-1,1378,1191,0,0
161,-167,0,0,0,0,0,0,0,0,0,-1,1385,1191,0,0
168,-167,0,0,0,0,0,0,0,0,0,-1,1392,1191,0,0
175,-167,0,0,0,0,0,0,0,0,0,-1,1399,1191,0,0
182,-167,0,0,0,0,0,0,0,0,0,-1,1406,1191,0,0
189,-167,0,0,0,0,0,0,0,0,0,-1,1413,1191,0,0
196,-167,0,0,0,0,0,0,0,0,0,-1,1420,1191,0,0
203,-167,0,0,0,0,0,0,0,0,0,-1,1427,1191,0,0
210,-167,0,0,0,0,0,0,0,0,0,-1,1434,1191,0,0
217,-167,0,0,0,0,0,0,0,0,0,-1,1441,1191,0,0
224,-167,0,0,0,0,0,0,0,0,0,-1,1448,1191,0,0
231,-167,0,0,0,0,0,0,0,0,0,-1,1455,1191,0,0
238,-167,0,0,0,0,0,0,0,0,0,-1,1462,1191,0,0
245,-167,0,0,0,0,0,0,0,0,0,-1,1469,1191,0,0
252,-167,0,0,0,0,0,0,0,0,0,-1,1476,1191,0,0
259,-167,0,0,0,0,0,0,0,0,0,-1,1483,1191,0,0
266,-167,0,0,0,0,0,0,0,0,0,-1,1490,1191,0,0
273,-167,0,0,0,0,0,0,0,0,0,-1,1497,1191,0,0
280,-167,0,0,0,0,0,0,0,0,0,-1,1504,1191,0,0
287,-167,0,0,0,0,0,0,0,0,0,-1,1511,1191,0,0
294,-167,0,0,0,0,0,0,0,0,0,-1,1518,1191,0,0
301,-167,0,0,0,0,0,0,0,0,0,-1,1525,1191,0,0
308,-167,0,0,0,0,0,0,0,0,0,-1,1532,1191,0,0
315,-167,0,0,0,0,0,0,0,0,0,-1,1539,1191,0,0
322,-167,0,0,0,0,0,0,0,0,0,-1,1546,1191,0,0
329,-167,0,0,0,0,0,0,0,0,0,-1,1553,1191,0,0
336,-167,0,0,0,0,0,0,0,0,0,-1,1560,1191,0,0
343,-167,0,0,0,0,0,0,0,0,0,-1,1567,1191,0,0
350,-167,0,0,0,0,0,0,0,0,0,-1,1574,1191,0,0
357,-167,0,0,0,0,0,0,0,0,0,-1,1581,1191,0,0
364,-167,0,0,0,0,0,0,0,0,0,-1,1588,1191,0,0
371,-167,0,0,0,0,0,0,0,0,0,-1,1595,1191,0,0
378,-167,0,0,0,0,0,0,0,0,0,-1,1602,1191,0,0
385,-167,0,0,0,0,0,0,0,0,0,-1,1609,1191,0,0
392,-167,0,0,0,0,0,0,0,0,0,-1,1616,1191,0,0
399,-167,0,0,0,0,0,0,0,0,0,-1,1623,1191,0,0
406,-167,0,0,0,0,0,0,0,0,0,-1,1630,1191,0,0
413,-167,0,0,0,0,0,0,0,0,0,-1,1637,1191,0,0
420,-167,0,0,0,0,0,0,0,0,0,-1,1644,1191,0,0
427,-167,0,0,0,0,0,0,0,0,0,-1,1651,1191,0,0
434,-167,0,0,0,0,0,0,0,0,0,-1,1658,1191,0,0
441,-167,0,0,0,0,0,0,0,0,0,-1,1665,1191,0,0
448,-167,0,0,0,0,0,0,0,0,0,-1,1672,1191,0,0
455,-167,0,0,0,0,0,0,0,0,0,-1,1679,1191,0,0
462,-167,0,0,0,0,0,0,0,0,0,-1,1686,1191,0,0
469,-167,0,0,0,0,0,0,0,0,0,-1,1693,1191,0,0
476,-167,0,0,0,0,0,0,0,0,0,-1,1700,1191,0,0
483,-167,0,0,0,0,0,0,0,0,0,-1,1707,1191,0,0
490,-167,0,0,0,0,0,0,0,0,0,-1,1714,1191,0,0
497,-167,0,0,0,0,0,0,0,0,0,-1,1721,1191,0,0
504,-167,0,0,0,0,0,0,0,0,0,-1,1728,1191,0,0
511,-167,0,0,0,0,0,0,0,0,0,-1,1735,1191,0,0
518,-167,0,0,0,0,0,0,0,0,0,-1,1742,1191,0,0
525,-167,0,0,0,0,0,0,0,0,0,-1,1749,1191,0,0
532,-167,0,0,0,0,0,0,0,0,0,-1,1756,1191,0,0
539,-167,0,0,0,0,0,0,0,0,0,-1,1763,1191,0,0
546,-167,0,0,0,0,0,0,0,0,0,-1,1770,1191,0,0
553,-167,0,0,0,0,0,0,0,0,0,-1,1777,1191,0,0
560,-167,0,0,0,0,0,0,0,0,0,-1,1784,1191,0,0
567,-167,0,0,0,0,0,0,0,0,0,-1,1791,1191,0,0
574,-167,0,0,0,0,0,0,0,0,0,-1,1798,1191,0,0
581,-167,0,0,0,0,0,0,0,0,0,-1,1805,1191,0,0
588,-167,0,0,0,0,0,0,0,0,0,-1,1812,1191,0,0
595,-167,0,0,0,0,0,0,0,0,0,-1,1819,1191,0,0
602,-167,0,0,0,0,0,0,0,0,0,-1,1826,1191,0,0
609,-167,0,0,0,0,0,0,0,0,0,-1,1833,1191,0,0
616,-167,0,0,0,0,0,0,0,0,0,-1,1840,1191,0,0
623,-167,0,0,0,0,0,0,0,0,0,-1,1847,1191,0,0
630,-167,0,0,0,0,0,0,0,0,0,-1,1854,1191,0,0
637,-167,15.9821,2.4032,0.0035877,-0.00411718,0.00155079,0.00388812,-0.0044176,0.19135,0.00479856,0.0414814,1861,1191,15.9821,-2.40319
644,-167,16.1699,2.39954,0.00247606,-0.00219803,0.00055078,0.00254009,-0.00226206,0.115725,0.00277407,0.0420471,1868,1191,16.1699,-2.39954
651,-167,16.0604,2.56665,0.00166184,-0.000490763,-0.000221169,0.00168433,-0.000513253,-0.101334,0.00132747,0.0421147,1875,1191,16.0604,-2.56668
658,-167,15.9769,2.56445,6.2761e-05,0.000524643,-0.000406201,0.000760964,-0.000173559,-1.04388,0.000573977,0.0420779,1882,1191,15.977,-2.5645
665,-167,16.1235,2.43762,-0.00159609,0.000995771,-0.000228512,0.00101576,-0.00161609,-1.48353,0.00153262,0.0366033,1889,1191,16.1235,-2.43768
672,-167,16.1608,2.40869,-0.00304595,0.00110365,8.40119e-05,0.00110535,-0.00304765,1.55056,0.00248361,0.0273913,1896,1191,16.1607,-2.40865
679,-167,16.1112,2.34534,-0.00423983,0.000969418,0.000503952,0.00101772,-0.00428814,1.47524,0.00325153,0.0208999,1903,1191,16.1112,-2.34531
686,-167,16.062,2.20654,-0.00519779,0.000668924,0.000934977,0.000814328,-0.0053432,1.41652,0.0038623,0.0270232,1910,1191,16.062,-2.20655
693,-167,16.236,3.19519,0,0,0,0,0,0,0,-1,1917,1191,16.2359,-3.19516
700,-167,15.5137,3.44446,-0.00613597,0.000148298,0.00163632,0.000548841,-0.00653652,1.33073,0.00455167,0.0393609,1924,1191,15.5137,-3.44449
707,-167,14.9194,3.68298,-0.00618185,-8.14927e-05,0.0018158,0.000418078,-0.00668142,1.30231,0.00459998,0.0333671,1931,1191,14.9195,-3.68303
714,-167,15.0051,3.61218,-0.00612001,-0.000288772,0.00192288,0.000288215,-0.006697,1.27928,0.00456377,0.0220558,1938,1191,15.0051,-3.61216
721,-167,14.9868,3.44006,-0.00567991,-0.000613081,0.00201891,9.29791e-05,-0.00638597,1.23437,0.00428864,0.0180659,1945,1191,14.9868,-3.44007
728,-167,14.9103,3.40125,-0.00474906,-0.000726296,0.00195045,6.40911e-05,-0.00553945,1.18579,0.00371452,0.0129281,1952,1191,14.9102,-3.40121
735,-167,14.882,3.33496,-0.0034829,-0.000899465,0.00148313,-0.00022441,-0.00415795,1.14366,0.00270028,0.0133288,1959,1191,14.882,-3.33501
742,-167,14.8833,3.22876,-0.00202556,-0.000658962,0.000843262,-0.000256909,-0.00242761,1.12589,0.00153993,0.0146171,1966,1191,14.8832,-3.22872
749,-167,14.8715,3.13635,-0.00111764,-0.000331854,0.000585265,-1.98358e-05,-0.00142966,1.081,0.000946565,0.0135298,1973,1191,14.8715,-3.13631
756,-167,14.8645,3.07056,-0.000694348,0.000255044,0.000980096,0.00086935,-0.00130865,1.01092,0.00126597,0.00999493,1980,1191,14.8645,-3.07061
763,-167,14.8488,2.9823,-0.000735927,0.000979626,0.00150782,0.00185658,-0.00161288,1.04401,0.00200474,0.0115831,1987,1191,14.8487,-2.9823
770,-167,14.829,2.94434,-0.0015263,0.00159659,0.00261903,0.00308431,-0.00301403,1.05421,0.00352096,0.0228134,1994,1191,14.829,-2.94435
777,-167,14.8176,2.90161,-0.00319226,0.00238142,0.00447657,0.00486774,-0.00567857,1.06381,0.00609491,0.0401862,2001,1191,14.8177,-2.90161
784,-167,14.8323,2.85083,-0.00599692,0.00342971,0.00724811,0.00736223,-0.00992944,1.07368,0.01002,0.0470985,2008,1191,14.8323,-2.85084
791,-167,14.8684,2.77649,0,0,0,0,0,0,0,-1,2015,1191,14.8684,-2.77645
798,-167,14.0031,2.61206,-0.0164466,0.00674684,0.0164401,0.0152688,-0.0249685,1.09257,0.0234549,0.0489692,2022,1191,14.003,-2.61203
805,-167,13.7001,2.33923,-0.0250956,0.00932033,0.0234393,0.0211901,-0.0369654,1.10204,0.0339854,0.049451,2029,1191,13.7001,-2.33926
812,-167,0,0,0,0,0,0,0,0,0,-1,2036,1191,0,0
-700,-174,0,0,0,0,0,0,0,0,0,-1,524,1198,0,0
-693,-174,0,0,0,0,0,0,0,0,0,-1,531,1198,0,0
-686,-174,-11.8177,-2.72681,0.139968,0.0682862,0.0564174,0.170967,0.0372879,0.502418,0.103805,0.0484628,538,1198,-11.8177,2.72676
-679,-174,-11.0164,-1.97974,0.109271,0.0568819,0.0507839,0.140218,0.025935,0.547291,0.0861452,0.0466772,545,1198,-11.0164,1.97968
-672,-174,-10.2964,-1.28308,0.0839272,0.0464384,0.0439344,0.112949,0.0174169,0.583767,0.0702172,0.0467464,552,1198,-10.2964,1.28311
-665,-174,-9.58997,-0.604614,0.0633481,0.0371539,0.0368467,0.0893562,0.0111459,0.614638,0.0562249,0.0461811,559,1198,-9.59,0.604615
-658,-174,-8.94507,0.221069,0.0468671,0.0290885,0.0299947,0.069262,0.00669353,0.64134,0.0441131,0.044825,566,1198,-8.94505,-0.221068
-651,-174,-8.81561,0.372925,0.0338291,0.0222471,0.0236707,0.0524069,0.00366929,0.665431,0.0337813,0.0443159,573,1198,-8.81564,-0.372893
-644,-174,-8.52014,0.509521,0.0237451,0.0165749,0.0180664,0.0385787,0.00174129,0.68745,0.0251588,0.0396101,580,1198,-8.52017,-0.509524
-637,-174,-8.42767,0.67395,0.0161403,0.0119803,0.0132845,0.0275067,0.000613902,0.707742,0.0181366,0.020703,587,1198,-8.4277,-0.674007
-630,-174,-8.46478,0.776123,0.00993386,0.00830356,0.0090789,0.0182341,3.29502e-06,0.740626,0.012155,0.0117259,594,1198,-8.46476,-0.776178
-623,-174,-8.47766,0.891724,0.00366047,0.00472162,0.00501841,0.00923743,-0.000855331,0.838065,0.00646229,0.0130276,601,1198,-8.47763,-0.891666
-616,-174,-8.47449,1.02283,0.000420467,0.0020594,0.00122506,0.00271381,-0.00023394,1.08018,0.00189201,0.0187815,608,1198,-8.47447,-1.02284
-609,-174,-8.48853,1.12769,-0.00119853,0.000643841,-0.00133762,0.00134679,-0.00190147,-1.08694,0.00188448,0.020382,615,1198,-8.48853,-1.12763
-602,-174,-8.50854,1.20813,-0.00227816,-0.000348094,-0.00328179,0.00210761,-0.00473387,-0.928396,0.00404578,0.013252,622,1198,-8.50857,-1.20809
-595,-174,-8.48804,1.34875,-0.00296498,-0.000819488,-0.00446169,0.0026966,-0.00648107,-0.903376,0.00544683,0.0118046,629,1198,-8.48804,-1.34881
-588,-174,-8.50043,1.47754,-0.00352306,-0.00095473,-0.00518291,0.00310073,-0.00757852,-0.906837,0.00634376,0.013227,636,1198,-8.50045,-1.47757
-581,-174,-8.50903,1.55518,-0.00378107,-0.00103924,-0.00546428,0.00322347,-0.00804378,-0.908305,0.00670065,0.0146282,643,1198,-8.50903,-1.55518
-574,-174,-8.78473,1.4043,-0.00357413,-0.00106859,-0.00541916,0.00324072,-0.00788344,-0.89899,0.00660636,0.0362415,650,1198,-8.78475,-1.40425
-567,-174,-9.13434,1.18335,0,0,0,0,0,0,0,-1,657,1198,-9.13434,-1.1833
-560,-174,-9.6983,1.79285,0,0,0,0,0,0,0,-1,664,1198,-9.69832,-1.79286
-553,-174,-9.80005,0.390747,-0.00205767,-0.000700609,-0.00432047,0.00299429,-0.00575257,-0.863287,0.00513302,0.0378148,671,1198,-9.80008,-0.390718
-546,-174,-9.85358,0.555298,-0.00108691,-0.000488529,-0.00345766,0.00268286,-0.0042583,-0.828556,0.00404174,0.0306562,678,1198,-9.8536,-0.555303
-539,-174,-9.87921,0.533447,0.000255817,-0.000259907,-0.00236676,0.00237872,-0.00238281,-0.731137,0.00274907,0.035199,685,1198,-9.87918,-0.533457
-532,-174,-9.92175,0.54541,0.00220239,-5.44644e-05,-0.00105811,0.00262087,-0.000472951,-0.376625,0.00192437,0.0423598,692,1198,-9.92177,-0.545438
-525,-174,-9.97241,0.597534,0.00471098,5.25286e-05,0.0001423,0.00471532,4.81857e-05,0.0305088,0.00312761,0.04392,699,1198,-9.97242,-0.597545
-518,-174,-9.61987,0.342896,0.00734264,-0.00063495,-0.000414046,0.00736407,-0.000656382,-0.0517159,0.00514216,0.0429401,706,1198,-9.61988,-0.342927
-511,-174,0,0,0,0,0,0,0,0,0,-1,713,1198,0,0
-504,-174,0,0,0,0,0,0,0,0,0,-1,720,1198,0,0
-497,-174,0,0,0,0,0,0,0,0,0,-1,727,1198,0,0
-490,-174,0,0,0,0,0,0,0,0,0,-1,734,1198,0,0
-483,-174,0,0,0,0,0,0,0,0,0,-1,741,1198,0,0
-476,-174,0,0,0,0,0,0,0,0,0,-1,748,1198,0,0
-469,-174,0,0,0,0,0,0,0,0,0,-1,755,1198,0,0
-462,-174,0,0,0,0,0,0,0,0,0,-1,762,1198,0,0
-455,-174,0,0,0,0,0,0,0,0,0,-1,769,1198,0,0
-448,-174,0,0,0,0,0,0,0,0,0,-1,776,1198,0,0
-441,-174,0,0,0,0,0,0,0,0,0,-1,783,1198,0,0
-434,-174,0,0,0,0,0,0,0,0,0,-1,790,1198,0,0
-427,-174,0,0,0,0,0,0,0,0,0,-1,797,1198,0,0
-420,-174,0,0,0,0,0,0,0,0,0,-1,804,1198,0,0
-413,-174,0,0,0,0,0,0,0,0,0,-1,811,1198,0,0
-406,-174,0,0,0,0,0,0,0,0,0,-1,818,1198,0,0
-399,-174,0,0,0,0,0,0,0,0,0,-1,825,1198,0,0
-392,-174,0,0,0,0,0,0,0,0,0,-1,832,1198,0,0
-385,-174,0,0,0,0,0,0,0,0,0,-1,839,1198,0,0
-378,-174,0,0,0,0,0,0,0,0,0,-1,846,1198,0,0
-371,-174,0,0,0,0,0,0,0,0,0,-1,853,1198,0,0
-364,-174,0,0,0,0,0,0,0,0,0,-1,860,1198,0,0
-357,-174,0,0,0,0,0,0,0,0,0,-1,867,1198,0,0
-350,-174,0,0,0,0,0,0,0,0,0,-1,874,1198,0,0
-343,-174,0,0,0,0,0,0,0,0,0,-1,881,1198,0,0
-336,-174,0,0,0,0,0,0,0,0,0,-1,888,1198,0,0
-329,-174,0,0,0,0,0,0,0,0,0,-1,895,1198,0,0
-322,-174,0,0,0,0,0,0,0,0,0,-1,902,1198,0,0
-315,-174,0,0,0,0,0,0,0,0,0,-1,909,1198,0,0
-308,-174,0,0,0,0,0,0,0,0,0,-1,916,1198,0,0
-301,-174,0,0,0,0,0,0,0,0,0,-1,923,1198,0,0
-294,-174,0,0,0,0,0,0,0,0,0,-1,930,1198,0,0
-287,-174,0,0,0,0,0,0,0,0,0,-1,937,1198,0,0
-280,-174,0,0,0,0,0,0,0,0,0,-1,944,1198,0,0
-273,-174,0,0,0,0,0,0,0,0,0,-1,951,1198,0,0
-266,-174,0,0,0,0,0,0,0,0,0,-1,958,1198,0,0
-259,-174,0,0,0,0,0,0,0,0,0,-1,965,1198,0,0
-252,-174,0,0,0,0,0,0,0,0,0,-1,972,1198,0,0
-245,-174,0,0,0,0,0,0,0,0,0,-1,979,1198,0,0
-238,-174,0,0,0,0,0,0,0,0,0,-1,986,1198,0,0
-231,-174,0,0,0,0,0,0,0,0,0,-1,993,1198,0,0
-224,-174,0,0,0,0,0,0,0,0,0,-1,1000,1198,0,0
-217,-174,0,0,0,0,0,0,0,0,0,-1,1007,1198,0,0
-210,-174,0,0,0,0,0,0,0,0,0,-1,1014,1198,0,0
-203,-174,0,0,0,0,0,0,0,0,0,-1,1021,1198,0,0
-196,-174,0,0,0,0,0,0,0,0,0,-1,1028,1198,0,0
-189,-174,0,0,0,0,0,0,0,0,0,-1,1035,1198,0,0
-182,-174,0,0,0,0,0,0,0,0,0,-1,1042,1198,0,0
-175,-174,0,0,0,0,0,0,0,0,0,-1,1049,1198,0,0
-168,-174,0,0,0,0,0,0,0,0,0,-1,1056,1198,0,0
-161,-174,0,0,0,0,0,0,0,0,0,-1,1063,1198,0,0
-154,-174,0,0,0,0,0,0,0,0,0,-1,1070,1198,0,0
-147,-174,0,0,0,0,0,0,0,0,0,-1,1077,1198,0,0
-140,-174,0,0,0,0,0,0,0,0,0,-1,1084,1198,0,0
-133,-174,0,0,0,0,0,0,0,0,0,-1,1091,1198,0,0
-126,-174,0,0,0,0,0,0,0,0,0,-1,1098,1198,0,0
-119,-174,0,0,0,0,0,0,0,0,0,-1,1105,1198,0,0
-112,-174,0,0,0,0,0,0,0,0,0,-1,1112,1198,0,0
-105,-174,0,0,0,0,0,0,0,0,0,-1,1119,1198,0,0
-98,-174,0,0,0,0,0,0,0,0,0,-1,1126,1198,0,0
-91,-174,0,0,0,0,0,0,0,0,0,-1,1133,1198,0,0
-84,-174,0,0,0,0,0,0,0,0,0,-1,1140,1198,0,0
-77,-174,0,0,0,0,0,0,0,0,0,-1,1147,1198,0,0
-70,-174,0,0,0,0,0,0,0,0,0,-1,1154,1198,0,0
-63,-174,0,0,0,0,0,0,0,0,0,-1,1161,1198,0,0
-56,-174,0,0,0,0,0,0,0,0,0,-1,1168,1198,0,0
-49,-174,0,0,0,0,0,0,0,0,0,-1,1175,1198,0,0
-42,-174,0,0,0,0,0,0,0,0,0,-1,1182,1198,0,0
-35,-174,0,0,0,0,0,0,0,0,0,-1,1189,1198,0,0
-28,-174,0,0,0,0,0,0,0,0,0,-1,1196,1198,0,0
-21,-174,0,0,0,0,0,0,0,0,0,-1,1203,1198,0,0
-14,-174,0,0,0,0,0,0,0,0,0,-1,1210,1198,0,0
-7,-174,0,0,0,0,0,0,0,0,0,-1,1217,1198,0,0
0,-174,0,0,0,0,0,0,0,0,0,-1,1224,1198,0,0
7,-174,0,0,0,0,0,0,0,0,0,-1,1231,1198,0,0
14,-174,0,0,0,0,0,0,0,0,0,-1,1238,1198,0,0
21,-174,0,0,0,0,0,0,0,0,0,-1,1245,1198,0,0
28,-174,0,0,0,0,0,0,0,0,0,-1,1252,1198,0,0
35,-174,0,0,0,0,0,0,0,0,0,-1,1259,1198,0,0
42,-174,0,0,0,0,0,0,0,0,0,-1,1266,1198,0,0
49,-174,0,0,0,0,0,0,0,0,0,-1,1273,1198,0,0
56,-174,0,0,0,0,0,0,0,0,0,-1,1280,1198,0,0
63,-174,0,0,0,0,0,0,0,0,0,-1,1287,1198,0,0
70,-174,0,0,0,0,0,0,0,0,0,-1,1294,1198,0,0
77,-174,0,0,0,0,0,0,0,0,0,-1,1301,1198,0,0
84,-174,0,0,0,0,0,0,0,0,0,-1,1308,1198,0,0
91,-174,0,0,0,0,0,0,0,0,0,-1,1315,1198,0,0
98,-174,0,0,0,0,0,0,0,0,0,-1,1322,1198,0,0
105,-174,0,0,0,0,0,0,0,0,0,-1,1329,1198,0,0
112,-174,0,0,0,0,0,0,0,0,0,-1,1336,1198,0,0
119,-174,0,0,0,0,0,0,0,0,0,-1,1343,1198,0,0
126,-174,0,0,0,0,0,0,0,0,0,-1,1350,1198,0,0
133,-174,0,0,0,0,0,0,0,0,0,-1,1357,1198,0,0
140,-174,0,0,0,0,0,0,0,0,0,-1,1364,1198,0,0
147,-174,0,0,0,0,0,0,0,0,0,-1,1371,1198,0,0
154,-174,0,0,0,0,0,0,0,0,0,-1,1378,1198,0,0
161,-174,0,0,0,0,0,0,0,0,0,-1,1385,1198,0,0
168,-174,0,0,0,0,0,0,0,0,0,-1,1392,1198,0,0
175,-174,0,0,0,0,0,0,0,0,0,-1,1399,1198,0,0
182,-174,0,0,0,0,0,0,0,0,0,-1,1406,1198,0,0
189,-174,0,0,0,0,0,0,0,0,0,-1,1413,1198,0,0
196,-174,0,0,0,0,0,0,0,0,0,-1,1420,1198,0,0
203,-174,0,0,0,0,0,0,0,0,0,-1,1427,1198,0,0
210,-174,0,0,0,0,0,0,0,0,0,-1,1434,1198,0,0
217,-174,0,0,0,0,0,0,0,0,0,-1,1441,1198,0,0
224,-174,0,0,0,0,0,0,0,0,0,-1,1448,1198,0,0
231,-174,0,0,0,0,0,0,0,0,0,-1,1455,1198,0,0
238,-174,0,0,0,0,0,0,0,0,0,-1,1462,1198,0,0
245,-174,0,0,0,0,0,0,0,0,0,-1,1469,1198,0,0
252,-174,0,0,0,0,0,0,0,0,0,-1,1476,1198,0,0
259,-174,0,0,0,0,0,0,0,0,0,-1,1483,1198,0,0
266,-174,0,0,0,0,0,0,0,0,0,-1,1490,1198,0,0
273,-174,0,0,0,0,0,0,0,0,0,-1,1497,1198,0,0
280,-174,0,0,0,0,0,0,0,0,0,-1,1504,1198,0,0
287,-174,0,0,0,0,0,0,0,0,0,-1,1511,1198,0,0
294,-174,0,0,0,0,0,0,0,0,0,-1,1518,1198,0,0
301,-174,0,0,0,0,0,0,0,0,0,-1,1525,1198,0,0
308,-174,0,0,0,0,0,0,0,0,0,-1,1532,1198,0,0
315,-174,0,0,0,0,0,0,0,0,0,-1,1539,1198,0,0
322,-174,0,0,0,0,0,0,0,0,0,-1,1546,1198,0,0
329,-174,0,0,0,0,0,0,0,0,0,-1,1553,1198,0,0
336,-174,0,0,0,0,0,0,0,0,0,-1,1560,1198,0,0
343,-174,0,0,0,0,0,0,0,0,0,-1,1567,1198,0,0
350,-174,0,0,0,0,0,0,0,0,0,-1,1574,1198,0,0
357,-174,0,0,0,0,0,0,0,0,0,-1,1581,1198,0,0
364,-174,0,0,0,0,0,0,0,0,0,-1,1588,1198,0,0
371,-174,0,0,0,0,0,0,0,0,0,-1,1595,1198,0,0
378,-174,0,0,0,0,0,0,0,0,0,-1,1602,1198,0,0
385,-174,0,0,0,0,0,0,0,0,0,-1,1609,1198,0,0
392,-174,0,0,0,0,0,0,0,0,0,-1,1616,1198,0,0
399,-174,0,0,0,0,0,0,0,0,0,-1,1623,1198,0,0
406,-174,0,0,0,0,0,0,0,0,0,-1,1630,1198,0,0
413,-174,0,0,0,0,0,0,0,0,0,-1,1637,1198,0,0
420,-174,0,0,0,0,0,0,0,0,0,-1,1644,1198,0,0
427,-174,0,0,0,0,0,0,0,0,0,-1,1651,1198,0,0
434,-174,0,0,0,0,0,0,0,0,0,-1,1658,1198,0,0
441,-174,0,0,0,0,0,0,0,0,0,-1,1665,1198,0,0
448,-174,0,0,0,0,0,0,0,0,0,-1,1672,1198,0,0
455,-174,0,0,0,0,0,0,0,0,0,-1,1679,1198,0,0
462,-174,0,0,0,0,0,0,0,0,0,-1,1686,1198,0,0
469,-174,0,0,0,0,0,0,0,0,0,-1,1693,1198,0,0
476,-174,0,0,0,0,0,0,0,0,0,-1,1700,1198,0,0
483,-174,0,0,0,0,0,0,0,0,0,-1,1707,1198,0,0
490,-174,0,0,0,0,0,0,0,0,0,-1,1714,1198,0,0
497,-174,0,0,0,0,0,0,0,0,0,-1,1721,1198,0,0
504,-174,0,0,0,0,0,0,0,0,0,-1,1728,1198,0,0
511,-174,0,0,0,0,0,0,0,0,0,-1,1735,1198,0,0
518,-174,0,0,0,0,0,0,0,0,0,-1,1742,1198,0,0
525,-174,0,0,0,0,0,0,0,0,0,-1,1749,1198,0,0
532,-174,0,0,0,0,0,0,0,0,0,-1,1756,1198,0,0
539,-174,0,0,0,0,0,0,0,0,0,-1,1763,1198,0,0
546,-174,0,0,0,0,0,0,0,0,0,-1,1770,1198,0,0
553,-174,0,0,0,0,0,0,0,0,0,-1,1777,1198,0,0
560,-174,0,0,0,0,0,0,0,0,0,-1,1784,1198,0,0
567,-174,0,0,0,0,0,0,0,0,0,-1,1791,1198,0,0
574,-174,0,0,0,0,0,0,0,0,0,-1,1798,1198,0,0
581,-174,0,0,0,0,0,0,0,0,0,-1,1805,1198,0,0
588,-174,0,0,0,0,0,0,0,0,0,-1,1812,1198,0,0
595,-174,0,0,0,0,0,0,0,0,0,-1,1819,1198,0,0
602,-174,0,0,0,0,0,0,0,0,0,-1,1826,1198,0,0
609,-174,0,0,0,0,0,0,0,0,0,-1,1833,1198,0,0
616,-174,0,0,0,0,0,0,0,0,0,-1,1840,1198,0,0
623,-174,0,0,0,0,0,0,0,0,0,-1,1847,1198,0,0
630,-174,0,0,0,0,0,0,0,0,0,-1,1854,1198,0,0
637,-174,16.1047,2.31787,0.00423887,-0.0038322,0.00129691,0.00444215,-0.00403548,0.155473,0.00489643,0.039529,1861,1198,16.1047,-2.31786
644,-174,16.1456,2.16064,0.00294684,-0.00175591,0.000152209,0.00295176,-0.00176083,0.0323208,0.00274962,0.0384142,1868,1198,16.1456,-2.16061
651,-174,16.0221,2.36084,0.00172571,-2.55311e-05,-0.00059476,0.00190861,-0.000208424,-0.298329,0.00134726,0.0413587,1875,1198,16.0221,-2.36085
658,-174,15.9221,2.62671,-8.03306e-05,0.000971445,-0.000746737,0.00135889,-0.000467774,-1.09218,0.00109566,0.0404767,1882,1198,15.9221,-2.62669
665,-174,16.0115,2.5061,-0.00174331,0.00141669,-0.000579403,0.00151958,-0.00184619,-1.39505,0.00194628,0.0338579,1889,1198,16.0115,-2.50606
672,-174,16.0582,2.3501,-0.0031389,0.00149076,-0.000271743,0.00150666,-0.0031548,-1.51237,0.00274679,0.0259892,1896,1198,16.0582,-2.35009
679,-174,16.0737,2.27832,-0.00425083,0.00134231,0.000152903,0.00134648,-0.00425501,1.54349,0.00337622,0.0226918,1903,1198,16.0738,-2.27837
686,-174,16.0736,2.14929,-0.00513722,0.00102996,0.000587552,0.00108543,-0.0051927,1.47665,0.00387462,0.048395,1910,1198,16.0736,-2.14923
693,-174,16.1501,3.71924,0,0,0,0,0,0,0,-1,1917,1198,16.1502,-3.71922
700,-174,15.514,3.65771,-0.00594893,0.000462636,0.0012978,0.000715369,-0.00620167,1.37846,0.00439236,0.0452555,1924,1198,15.514,-3.65772
707,-174,14.8871,3.71497,-0.00595633,0.000195951,0.00148877,0.000537278,-0.00629766,1.34542,0.00438851,0.0326133,1931,1198,14.8871,-3.71502
714,-174,14.9204,3.59326,-0.00586507,-4.53863e-05,0.00163038,0.000380235,-0.00629069,1.31544,0.00432611,0.0204679,1938,1198,14.9204,-3.59329
721,-174,14.8726,3.50122,-0.00535471,-0.000389872,0.00176614,0.000174292,-0.00591887,1.26161,0.00400528,0.0155024,1945,1198,14.8725,-3.50126
728,-174,14.8052,3.43176,-0.00433061,-0.000567443,0.00169664,8.45373e-05,-0.00498259,1.20392,0.00335026,0.0113726,1952,1198,14.8052,-3.43177
735,-174,14.7988,3.34338,-0.00304207,-0.000744141,0.00117821,-0.000247418,-0.00353879,1.17182,0.0022812,0.0111832,1959,1198,14.7988,-3.34336
742,-174,14.7798,3.24634,-0.00158631,-0.000483913,0.000406261,-0.000350372,-0.00171985,1.25322,0.00104946,0.0185228,1966,1198,14.7797,-3.24639
749,-174,14.7888,3.15588,-0.000694463,-0.000161757,-8.68642e-05,-0.000147951,-0.000708269,-1.41317,0.000431404,0.0167363,1973,1198,14.7889,-3.15592
756,-174,14.7816,3.05676,-0.000279241,0.00027228,-1.14477e-05,0.000272518,-0.000279478,-1.55005,0.000318703,0.0103094,1980,1198,14.7816,-3.05681
763,-174,14.7533,2.96509,-0.000290465,0.000742278,0.00012199,0.000756492,-0.000304679,1.4548,0.000630906,0.013322,1987,1198,14.7533,-2.96507
770,-174,14.7527,2.87659,-0.00105269,0.0011231,0.000719442,0.00133947,-0.00126906,1.27865,0.00150622,0.0248996,1994,1198,14.7527,-2.87661
777,-174,14.7806,2.78687,-0.00268083,0.00159248,0.00191173,0.00232288,-0.00341123,1.20585,0.0033304,0.0447252,2001,1198,14.7806,-2.78689
784,-174,14.8046,2.68823,0,0,0,0,0,0,0,-1,2008,1198,14.8045,-2.68823
791,-174,13.9131,2.90649,0,0,0,0,0,0,0,-1,2015,1198,13.9131,-2.90653
798,-174,13.4817,2.6864,-0.0165088,0.00421657,0.0116027,0.00941047,-0.0217027,1.1499,0.0184246,0.0490815,2022,1198,13.4818,-2.68643
805,-174,13.1215,2.4165,-0.0257458,0.0058416,0.0179968,0.0139921,-0.0338963,1.14554,0.0284333,0.0482006,2029,1198,13.1214,-2.41654
812,-174,0,0,0,0,0,0,0,0,0,-1,2036,1198,0,0
-700,-181,0,0,0,0,0,0,0,0,0,-1,524,1205,0,0
-693,-181,0,0,0,0,0,0,0,0,0,-1,531,1205,0,0
-686,-181,-11.7751,-2.99341,0.103419,0.0541362,0.072501,0.155352,0.0022035,0.621584,0.102841,0.0465832,538,1205,-11.7751,2.99336
-679,-181,-10.9614,-2.52527,0.0817223,0.0466115,0.0634129,0.129965,-0.00163112,0.650359,0.0871921,0.0455453,545,1205,-10.9614,2.52529
-672,-181,-10.1344,-1.09937,0,0,0,0,0,0,0,-1,552,1205,-10.1344,1.09935
-665,-181,-9.86139,-0.711304,0.0488207,0.0320107,0.0442812,0.0854876,-0.00465616,0.691609,0.0586054,0.0480486,559,1205,-9.86137,0.711262
-658,-181,-9.5802,-0.271606,0.0368739,0.0256483,0.035591,0.067292,-0.00476979,0.707191,0.0465328,0.04479,566,1205,-9.58017,0.271656
-651,-181,-9.20703,0.0147705,0.0272884,0.0200817,0.0278253,0.0517427,-0.00437266,0.721007,0.0360412,0.0454101,573,1205,-9.20706,-0.014747
-644,-181,-8.58618,0.359009,0.0197238,0.0153266,0.0211054,0.0387448,-0.00369442,0.7335,0.0271453,0.0402401,580,1205,-8.58618,-0.359051
-637,-181,-8.33234,0.657959,0.0138724,0.0113539,0.0154674,0.0281317,-0.0029054,0.744782,0.0197942,0.0225663,587,1205,-8.33235,-0.657946
-630,-181,-8.3576,0.77832,0.00883557,0.00806954,0.0106849,0.0191443,-0.00223923,0.767483,0.013571,0.0123477,594,1205,-8.35758,-0.778354
-623,-181,-8.37677,0.890625,0.00408777,0.00500807,0.00593597,0.0105017,-0.00140585,0.82408,0.00751372,0.0137565,601,1205,-8.37678,-0.890631
-616,-181,-8.3537,1.01404,0.0014765,0.00245245,0.00206703,0.00408832,-0.00015937,0.901313,0.00278019,0.0137341,608,1205,-8.35372,-1.01401
-609,-181,-8.35437,1.13904,-0.000101245,0.000972165,-0.000652514,0.00128034,-0.000409423,-1.12956,0.00101786,0.0135474,615,1205,-8.35434,-1.13899
-602,-181,-8.37054,1.24951,-0.00112863,-0.000207012,-0.00265997,0.00203176,-0.00336741,-0.871167,0.00314885,0.0117876,622,1205,-8.37053,-1.24952
-595,-181,-8.3598,1.3634,-0.00177117,-0.00074459,-0.00382919,0.00260556,-0.00512132,-0.852024,0.00453925,0.0112296,629,1205,-8.35979,-1.36341
-588,-181,-8.36511,1.49683,-0.00237068,-0.000973129,-0.00452584,0.00290756,-0.00625137,-0.861992,0.0054041,0.0110648,636,1205,-8.36512,-1.4968
-581,-181,-8.36353,1.64844,-0.00260902,-0.00104492,-0.00476572,0.00300249,-0.00665643,-0.866723,0.00570804,0.012476,643,1205,-8.36352,-1.64842
-574,-181,-8.56866,1.65259,-0.00243798,-0.00105629,-0.0047075,0.00301079,-0.00650506,-0.858255,0.00561609,0.0305873,650,1205,-8.56865,-1.65262
-567,-181,-8.41315,1.74414,-0.00195281,-0.00108274,-0.00460067,0.00310342,-0.00613897,-0.832538,0.00543118,0.0443376,657,1205,-8.41315,-1.74417
-560,-181,-8.87378,0.933472,0,0,0,0,0,0,0,-1,664,1205,-8.87379,-0.933434
-553,-181,-9.53992,0.256836,0,0,0,0,0,0,0,-1,671,1205,-9.5399,-0.256797
-546,-181,-9.83344,0.499756,-0.000761653,-0.000405665,-0.00326465,0.00268584,-0.00385316,-0.812632,0.0037953,0.0361157,678,1205,-9.83344,-0.499769
-539,-181,-9.8819,0.5979,0.000102814,-0.000151362,-0.00246255,0.00244155,-0.0024901,-0.759617,0.00284734,0.0369542,685,1205,-9.88191,-0.59792
-532,-181,-9.90393,0.706177,0.00142878,7.13083e-05,-0.00150277,0.00239899,-0.0008989,-0.573284,0.0019686,0.0415775,692,1205,-9.90392,-0.706167
-525,-181,-9.93445,0.791382,0.00331174,0.00018237,-0.000580815,0.00341606,7.80482e-05,-0.177719,0.00225181,0.042632,699,1205,-9.93447,-0.791438
-518,-181,-9.67987,0.438599,0.00561945,-0.000420389,-0.00091706,0.00575563,-0.000556561,-0.14741,0.00403542,0.0411125,706,1205,-9.67986,-0.438541
-511,-181,0,0,0,0,0,0,0,0,0,-1,713,1205,0,0
-504,-181,0,0,0,0,0,0,0,0,0,-1,720,1205,0,0
-497,-181,0,0,0,0,0,0,0,0,0,-1,727,1205,0,0
-490,-181,0,0,0,0,0,0,0,0,0,-1,734,1205,0,0
-483,-181,0,0,0,0,0,0,0,0,0,-1,741,1205,0,0
-476,-181,0,0,0,0,0,0,0,0,0,-1,748,1205,0,0
-469,-181,0,0,0,0,0,0,0,0,0,-1,755,1205,0,0
-462,-181,0,0,0,0,0,0,0,0,0,-1,762,1205,0,0
-455,-181,0,0,0,0,0,0,0,0,0,-1,769,1205,0,0
-448,-181,0,0,0,0,0,0,0,0,0,-1,776,1205,0,0
-441,-181,0,0,0,0,0,0,0,0,0,-1,783,1205,0,0
-434,-181,0,0,0,0,0,0,0,0,0,-1,790,1205,0,0
-427,-181,0,0,0,0,0,0,0,0,0,-1,797,1205,0,0
-420,-181,0,0,0,0,0,0,0,0,0,-1,804,1205,0,0
-413,-181,0,0,0,0,0,0,0,0,0,-1,811,1205,0,0
-406,-181,0,0,0,0,0,0,0,0,0,-1,818,1205,0,0
-399,-181,0,0,0,0,0,0,0,0,0,-1,825,1205,0,0
-392,-181,0,0,0,0,0,0,0,0,0,-1,832,1205,0,0
-385,-181,0,0,0,0,0,0,0,0,0,-1,839,1205,0,0
-378,-181,0,0,0,0,0,0,0,0,0,-1,846,1205,0,0
-371,-181,0,0,0,0,0,0,0,0,0,-1,853,1205,0,0
-364,-181,0,0,0,0,0,0,0,0,0,-1,860,1205,0,0
-357,-181,0,0,0,0,0,0,0,0,0,-1,867,1205,0,0
-350,-181,0,0,0,0,0,0,0,0,0,-1,874,1205,0,0
-343,-181,0,0,0,0,0,0,0,0,0,-1,881,1205,0,0
-336,-181,0,0,0,0,0,0,0,0,0,-1,888,1205,0,0
-329,-181,0,0,0,0,0,0,0,0,0,-1,895,1205,0,0
-322,-181,0,0,0,0,0,0,0,0,0,-1,902,1205,0,0
-315,-181,0,0,0,0,0,0,0,0,0,-1,909,1205,0,0
-308,-181,0,0,0,0,0,0,0,0,0,-1,916,1205,0,0
-301,-181,0,0,0,0,0,0,0,0,0,-1,923,1205,0,0
-294,-181,0,0,0,0,0,0,0,0,0,-1,930,1205,0,0
-287,-181,0,0,0,0,0,0,0,0,0,-1,937,1205,0,0
-280,-181,0,0,0,0,0,0,0,0,0,-1,944,1205,0,0
-273,-181,0,0,0,0,0,0,0,0,0,-1,951,1205,0,0
-266,-181,0,0,0,0,0,0,0,0,0,-1,958,1205,0,0
-259,-181,0,0,0,0,0,0,0,0,0,-1,965,1205,0,0
-252,-181,0,0,0,0,0,0,0,0,0,-1,972,1205,0,0
-245,-181,0,0,0,0,0,0,0,0,0,-1,979,1205,0,0
-238,-181,0,0,0,0,0,0,0,0,0,-1,986,1205,0,0
-231,-181,0,0,0,0,0,0,0,0,0,-1,993,1205,0,0
-224,-181,0,0,0,0,0,0,0,0,0,-1,1000,1205,0,0
-217,-181,0,0,0,0,0,0,0,0,0,-1,1007,1205,0,0
-210,-181,0,0,0,0,0,0,0,0,0,-1,1014,1205,0,0
-203,-181,0,0,0,0,0,0,0,0,0,-1,1021,1205,0,0
-196,-181,0,0,0,0,0,0,0,0,0,-1,1028,1205,0,0
-189,-181,0,0,0,0,0,0,0,0,0,-1,1035,1205,0,0
-182,-181,0,0,0,0,0,0,0,0,0,-1,1042,1205,0,0
-175,-181,0,0,0,0,0,0,0,0,0,-1,1049,1205,0,0
-168,-181,0,0,0,0,0,0,0,0,0,-1,1056,1205,0,0
-161,-181,0,0,0,0,0,0,0,0,0,-1,1063,1205,0,0
-154,-181,0,0,0,0,0,0,0,0,0,-1,1070,1205,0,0
-147,-181,0,0,0,0,0,0,0,0,0,-1,1077,1205,0,0
-140,-181,0,0,0,0,0,0,0,0,0,-1,1084,1205,0,0
-133,-181,0,0,0,0,0,0,0,0,0,-1,1091,1205,0,0
-126,-181,0,0,0,0,0,0,0,0,0,-1,1098,1205,0,0
-119,-181,0,0,0,0,0,0,0,0,0,-1,1105,1205,0,0
-112,-181,0,0,0,0,0,0,0,0,0,-1,1112,1205,0,0
-105,-181,0,0,0,0,0,0,0,0,0,-1,1119,1205,0,0
-98,-181,0,0,0,0,0,0,0,0,0,-1,1126,1205,0,0
-91,-181,0,0,0,0,0,0,0,0,0,-1,1133,1205,0,0
-84,-181,0,0,0,0,0,0,0,0,0,-1,1140,1205,0,0
-77,-181,0,0,0,0,0,0,0,0,0,-1,1147,1205,0,0
-70,-181,0,0,0,0,0,0,0,0,0,-1,1154,1205,0,0
-63,-181,0,0,0,0,0,0,0,0,0,-1,1161,1205,0,0
-56,-181,0,0,0,0,0,0,0,0,0,-1,1168,1205,0,0
-49,-181,0,0,0,0,0,0,0,0,0,-1,1175,1205,0,0
-42,-181,0,0,0,0,0,0,0,0,0,-1,1182,1205,0,0
-35,-181,0,0,0,0,0,0,0,0,0,-1,1189,1205,0,0
-28,-181,0,0,0,0,0,0,0,0,0,-1,1196,1205,0,0
-21,-181,0,0,0,0,0,0,0,0,0,-1,1203,1205,0,0
-14,-181,0,0,0,0,0,0,0,0,0,-1,1210,1205,0,0
-7,-181,0,0,0,0,0,0,0,0,0,-1,1217,1205,0,0
0,-181,0,0,0,0,0,0,0,0,0,-1,1224,1205,0,0
7,-181,0,0,0,0,0,0,0,0,0,-1,1231,1205,0,0
14,-181,0,0,0,0,0,0,0,0,0,-1,1238,1205,0,0
21,-181,0,0,0,0,0,0,0,0,0,-1,1245,1205,0,0
28,-181,0,0,0,0,0,0,0,0,0,-1,1252,1205,0,0
35,-181,0,0,0,0,0,0,0,0,0,-1,1259,1205,0,0
42,-181,0,0,0,0,0,0,0,0,0,-1,1266,1205,0,0
49,-181,0,0,0,0,0,0,0,0,0,-1,1273,1205,0,0
56,-181,0,0,0,0,0,0,0,0,0,-1,1280,1205,0,0
63,-181,0,0,0,0,0,0,0,0,0,-1,1287,1205,0,0
70,-181,0,0,0,0,0,0,0,0,0,-1,1294,1205,0,0
77,-181,0,0,0,0,0,0,0,0,0,-1,1301,1205,0,0
84,-181,0,0,0,0,0,0,0,0,0,-1,1308,1205,0,0
91,-181,0,0,0,0,0,0,0,0,0,-1,1315,1205,0,0
98,-181,0,0,0,0,0,0,0,0,0,-1,1322,1205,0,0
105,-181,0,0,0,0,0,0,0,0,0,-1,1329,1205,0,0
112,-181,0,0,0,0,0,0,0,0,0,-1,1336,1205,0,0
119,-181,0,0,0,0,0,0,0,0,0,-1,1343,1205,0,0
126,-181,0,0,0,0,0,0,0,0,0,-1,1350,1205,0,0
133,-181,0,0,0,0,0,0,0,0,0,-1,1357,1205,0,0
140,-181,0,0,0,0,0,0,0,0,0,-1,1364,1205,0,0
147,-181,0,0,0,0,0,0,0,0,0,-1,1371,1205,0,0
154,-181,0,0,0,0,0,0,0,0,0,-1,1378,1205,0,0
161,-181,0,0,0,0,0,0,0,0,0,-1,1385,1205,0,0
168,-181,0,0,0,0,0,0,0,0,0,-1,1392,1205,0,0
175,-181,0,0,0,0,0,0,0,0,0,-1,1399,1205,0,0
182,-181,0,0,0,0,0,0,0,0,0,-1,1406,1205,0,0
189,-181,0,0,0,0,0,0,0,0,0,-1,1413,1205,0,0
196,-181,0,0,0,0,0,0,0,0,0,-1,1420,1205,0,0
203,-181,0,0,0,0,0,0,0,0,0,-1,1427,1205,0,0
210,-181,0,0,0,0,0,0,0,0,0,-1,1434,1205,0,0
217,-181,0,0,0,0,0,0,0,0,0,-1,1441,1205,0,0
224,-181,0,0,0,0,0,0,0,0,0,-1,1448,1205,0,0
231,-181,0,0,0,0,0,0,0,0,0,-1,1455,1205,0,0
238,-181,0,0,0,0,0,0,0,0,0,-1,1462,1205,0,0
245,-181,0,0,0,0,0,0,0,0,0,-1,1469,1205,0,0
252,-181,0,0,0,0,0,0,0,0,0,-1,1476,1205,0,0
259,-181,0,0,0,0,0,0,0,0,0,-1,1483,1205,0,0
266,-181,0,0,0,0,0,0,0,0,0,-1,1490,1205,0,0
273,-181,0,0,0,0,0,0,0,0,0,-1,1497,1205,0,0
280,-181,0,0,0,0,0,0,0,0,0,-1,1504,1205,0,0
287,-181,0,0,0,0,0,0,0,0,0,-1,1511,1205,0,0
294,-181,0,0,0,0,0,0,0,0,0,-1,1518,1205,0,0
301,-181,0,0,0,0,0,0,0,0,0,-1,1525,1205,0,0
308,-181,0,0,0,0,0,0,0,0,0,-1,1532,1205,0,0
315,-181,0,0,0,0,0,0,0,0,0,-1,1539,1205,0,0
322,-181,0,0,0,0,0,0,0,0,0,-1,1546,1205,0,0
329,-181,0,0,0,0,0,0,0,0,0,-1,1553,1205,0,0
336,-181,0,0,0,0,0,0,0,0,0,-1,1560,1205,0,0
343,-181,0,0,0,0,0,0,0,0,0,-1,1567,1205,0,0
350,-181,0,0,0,0,0,0,0,0,0,-1,1574,1205,0,0
357,-181,0,0,0,0,0,0,0,0,0,-1,1581,1205,0,0
364,-181,0,0,0,0,0,0,0,0,0,-1,1588,1205,0,0
371,-181,0,0,0,0,0,0,0,0,0,-1,1595,1205,0,0
378,-181,0,0,0,0,0,0,0,0,0,-1,1602,1205,0,0
385,-181,0,0,0,0,0,0,0,0,0,-1,1609,1205,0,0
392,-181,0,0,0,0,0,0,0,0,0,-1,1616,1205,0,0
399,-181,0,0,0,0,0,0,0,0,0,-1,1623,1205,0,0
406,-181,0,0,0,0,0,0,0,0,0,-1,1630,1205,0,0
413,-181,0,0,0,0,0,0,0,0,0,-1,1637,1205,0,0
420,-181,0,0,0,0,0,0,0,0,0,-1,1644,1205,0,0
427,-181,0,0,0,0,0,0,0,0,0,-1,1651,1205,0,0
434,-181,0,0,0,0,0,0,0,0,0,-1,1658,1205,0,0
441,-181,0,0,0,0,0,0,0,0,0,-1,1665,1205,0,0
448,-181,0,0,0,0,0,0,0,0,0,-1,1672,1205,0,0
455,-181,0,0,0,0,0,0,0,0,0,-1,1679,1205,0,0
462,-181,0,0,0,0,0,0,0,0,0,-1,1686,1205,0,0
469,-181,0,0,0,0,0,0,0,0,0,-1,1693,1205,0,0
476,-181,0,0,0,0,0,0,0,0,0,-1,1700,1205,0,0
483,-181,0,0,0,0,0,0,0,0,0,-1,1707,1205,0,0
490,-181,0,0,0,0,0,0,0,0,0,-1,1714,1205,0,0
497,-181,0,0,0,0,0,0,0,0,0,-1,1721,1205,0,0
504,-181,0,0,0,0,0,0,0,0,0,-1,1728,1205,0,0
511,-181,0,0,0,0,0,0,0,0,0,-1,1735,1205,0,0
518,-181,0,0,0,0,0,0,0,0,0,-1,1742,1205,0,0
525,-181,0,0,0,0,0,0,0,0,0,-1,1749,1205,0,0
532,-181,0,0,0,0,0,0,0,0,0,-1,1756,1205,0,0
539,-181,0,0,0,0,0,0,0,0,0,-1,1763,1205,0,0
546,-181,0,0,0,0,0,0,0,0,0,-1,1770,1205,0,0
553,-181,0,0,0,0,0,0,0,0,0,-1,1777,1205,0,0
560,-181,0,0,0,0,0,0,0,0,0,-1,1784,1205,0,0
567,-181,0,0,0,0,0,0,0,0,0,-1,1791,1205,0,0
574,-181,0,0,0,0,0,0,0,0,0,-1,1798,1205,0,0
581,-181,0,0,0,0,0,0,0,0,0,-1,1805,1205,0,0
588,-181,0,0,0,0,0,0,0,0,0,-1,1812,1205,0,0
595,-181,0,0,0,0,0,0,0,0,0,-1,1819,1205,0,0
602,-181,0,0,0,0,0,0,0,0,0,-1,1826,1205,0,0
609,-181,0,0,0,0,0,0,0,0,0,-1,1833,1205,0,0
616,-181,0,0,0,0,0,0,0,0,0,-1,1840,1205,0,0
623,-181,0,0,0,0,0,0,0,0,0,-1,1847,1205,0,0
630,-181,15.988,2.56531,0.00554335,-0.00440661,0.00123263,0.00569378,-0.00455704,0.121438,0.00593043,0.0348995,1854,1205,15.9881,-2.56534
637,-181,16.098,2.5033,0.00407348,-0.00262031,0.000781566,0.00416353,-0.00271035,0.114704,0.00399809,0.0357712,1861,1205,16.098,-2.50325
644,-181,16.0809,2.31689,0.00261102,-0.0006343,-0.000352355,0.00264883,-0.000672116,-0.106913,0.00202741,0.0385149,1868,1205,16.0809,-2.31695
651,-181,16.0173,2.32605,0.00106181,0.000856348,-0.000973104,0.00193759,-1.94323e-05,-0.732807,0.00129825,0.0402875,1875,1205,16.0173,-2.32603
658,-181,16.0193,2.44482,-0.000788684,0.00164038,-0.00105835,0.00203681,-0.00118511,-1.2124,0.00188172,0.0356164,1882,1205,16.0193,-2.44478
665,-181,16.045,2.42432,-0.00231411,0.00191612,-0.000878463,0.00209129,-0.00248929,-1.37397,0.00264792,0.0318769,1889,1205,16.0451,-2.42435
672,-181,16.0652,2.33655,-0.00352856,0.00185734,-0.000566387,0.00191625,-0.00358748,-1.46715,0.00322604,0.0236028,1896,1205,16.0652,-2.33649
679,-181,16.0977,2.27539,-0.00446216,0.00162913,-0.000137125,0.00163222,-0.00446525,-1.5483,0.00364483,0.0296225,1903,1205,16.0976,-2.27545
686,-181,16.1321,2.21118,0,0,0,0,0,0,0,-1,1910,1205,16.1321,-2.21122
693,-181,14.8303,4.16479,0,0,0,0,0,0,0,-1,1917,1205,14.8304,-4.16477
700,-181,14.9171,3.8949,-0.00579691,0.000601889,0.0010171,0.000759667,-0.00595469,1.4169,0.00424573,0.0497304,1924,1205,14.9171,-3.89491
707,-181,14.8341,3.6615,-0.00572495,0.000278408,0.00122391,0.000518336,-0.00596488,1.37722,0.00416014,0.023853,1931,1205,14.8341,-3.66148
714,-181,14.7996,3.58289,-0.00556468,-2.22285e-06,0.00138213,0.000322272,-0.00588917,1.34019,0.00403783,0.0176982,1938,1205,14.7995,-3.58293
721,-181,14.734,3.51147,-0.00497509,-0.000331916,0.0015451,0.00013524,-0.00544224,1.27719,0.00367407,0.0127518,1945,1205,14.734,-3.51149
728,-181,14.6967,3.42627,-0.00385452,-0.000556207,0.00145961,-3.05031e-06,-0.00440768,1.20855,0.00293744,0.0107755,1952,1205,14.6966,-3.42622
735,-181,14.7117,3.32581,-0.00255776,-0.000670095,0.000872972,-0.000328276,-0.00289958,1.19759,0.00183345,0.010684,1959,1205,14.7117,-3.32578
742,-181,14.6926,3.24695,-0.00112664,-0.000363727,-4.51968e-05,-0.000361059,-0.0011293,-1.51183,0.000665982,0.0159349,1966,1205,14.6926,-3.24697
749,-181,14.7069,3.12891,-0.000271403,-5.33562e-05,-0.00082848,0.000673243,-0.000998003,-0.85082,0.000970948,0.0152698,1973,1205,14.7069,-3.12886
756,-181,14.7063,3.03137,6.83687e-05,0.000255621,-0.00113032,0.00129619,-0.000972195,-0.82672,0.0013141,0.0114796,1980,1205,14.7062,-3.03133
763,-181,14.6888,2.96497,2.88443e-05,0.00051295,-0.00148145,0.00177199,-0.00123019,-0.866377,0.00174269,0.0119965,1987,1205,14.6888,-2.96492
770,-181,14.6844,2.8645,-0.000750678,0.000686931,-0.00154474,0.00167191,-0.00173566,-1.00316,0.00196748,0.0239259,1994,1205,14.6844,-2.86449
777,-181,14.6945,2.74158,-0.00243799,0.000849756,-0.00120911,0.00124654,-0.00283477,-1.25371,0.00241508,0.0443741,2001,1205,14.6945,-2.74158
784,-181,14.7097,2.62903,0,0,0,0,0,0,0,-1,2008,1205,14.7097,-2.62909
791,-181,13.4432,3.21118,0,0,0,0,0,0,0,-1,2015,1205,13.4433,-3.21115
798,-181,13.0381,2.96729,0,0,0,0,0,0,0,-1,2022,1205,13.0381,-2.96731
805,-181,0,0,0,0,0,0,0,0,0,-1,2029,1205,0,0
812,-181,0,0,0,0,0,0,0,0,0,-1,2036,1205,0,0
-700,-188,0,0,0,0,0,0,0,0,0,-1,524,1212,0,0
-693,-188,0,0,0,0,0,0,0,0,0,-1,531,1212,0,0
-686,-188,0,0,0,0,0,0,0,0,0,-1,538,1212,0,0
-679,-188,-10.7219,-1.42908,0.0723125,0.0355194,0.0690017,0.125328,-0.017496,0.655123,0.0899529,0.045556,545,1212,-10.722,1.42913
-672,-188,-10.6515,-1.34875,0.0564222,0.0313756,0.0585205,0.103744,-0.0159466,0.679989,0.0750453,0.0450837,552,1212,-10.6515,1.34873
-665,-188,-10.5173,-1.22754,0.0434551,0.0269244,0.0483695,0.0842603,-0.0138808,0.700776,0.0613264,0.0457508,559,1212,-10.5173,1.22759
-658,-188,-10.1703,-0.808228,0.0329849,0.0225263,0.0389888,0.0670935,-0.0115823,0.718735,0.0490477,0.0464367,566,1212,-10.1703,0.808224
-651,-188,-8.17426,0.508545,0,0,0,0,0,0,0,-1,573,1212,-8.17426,-0.508599
-644,-188,-8.19427,0.59668,0.0178621,0.0146186,0.0233296,0.0396263,-0.00714563,0.750697,0.0290934,0.043191,580,1212,-8.19426,-0.596719
-637,-188,-8.22864,0.678467,0.0126392,0.0112722,0.0172062,0.0291755,-0.00526409,0.765547,0.0214217,0.0212286,587,1212,-8.22863,-0.67852
-630,-188,-8.25494,0.78833,0.00809709,0.00833937,0.0120778,0.0202967,-0.00386022,0.790413,0.0149845,0.0100891,594,1212,-8.25493,-0.788379
-623,-188,-8.24054,0.903931,0.0039305,0.00572675,0.00702239,0.0119082,-0.00225096,0.849,0.00878578,0.0103603,601,1212,-8.24055,-0.903939
-616,-188,-8.21942,1.02148,0.00171819,0.00322479,0.00305902,0.0056219,-0.000678914,0.906124,0.00399352,0.0102804,608,1212,-8.2194,-1.02145
-609,-188,-8.21863,1.15601,0.000422799,0.00161602,0.000192364,0.00164626,0.000392554,1.41484,0.000992871,0.0131662,615,1212,-8.21863,-1.15598
-602,-188,-8.22473,1.29553,-0.000363365,0.000236188,-0.00187771,0.0018379,-0.00196508,-0.864555,0.00219606,0.0161257,622,1212,-8.22473,-1.29552
-595,-188,-8.21814,1.3988,-0.000801799,-0.000405288,-0.00304014,0.00244305,-0.00365014,-0.817958,0.00354084,0.0124598,629,1212,-8.21811,-1.39882
-588,-188,-8.22797,1.51697,-0.00125807,-0.000768187,-0.00372457,0.00271948,-0.00474574,-0.818233,0.00436265,0.00999331,636,1212,-8.22795,-1.51701
-581,-188,-8.23999,1.66431,-0.00144682,-0.000872681,-0.00395557,0.00280622,-0.00512572,-0.821622,0.00464432,0.00961483,643,1212,-8.23997,-1.66425
-574,-188,-8.2619,1.71008,-0.00133682,-0.000823479,-0.00390495,0.00283322,-0.00499353,-0.818216,0.00457579,0.0245644,650,1212,-8.26191,-1.71009
-567,-188,-7.87305,1.54517,-0.000963028,-0.00077214,-0.00383854,0.00297214,-0.00470731,-0.797828,0.0044713,0.0491722,657,1212,-7.87302,-1.54515
-560,-188,-7.64966,1.21973,0,0,0,0,0,0,0,-1,664,1212,-7.64966,-1.21974
-553,-188,-9.84137,0.334595,-0.000829823,-0.000237782,-0.0033733,0.00285246,-0.00392006,-0.829163,0.00392628,0.0439065,671,1212,-9.8414,-0.334597
-546,-188,-9.82587,0.455688,-0.000618359,3.52316e-05,-0.00292294,0.00264959,-0.00323272,-0.841069,0.00340171,0.040851,678,1212,-9.82585,-0.455659
-539,-188,-9.84332,0.557129,-0.000274269,0.000324267,-0.00237906,0.00242281,-0.00237281,-0.847966,0.00276881,0.0359722,685,1212,-9.84331,-0.557129
-532,-188,-9.90082,0.656982,0.000382688,0.000543716,-0.00173222,0.00219729,-0.00127088,-0.808622,0.00202602,0.0402981,692,1212,-9.90084,-0.657006
-525,-188,-9.96362,0.768433,0.00153142,0.00058044,-0.00108006,0.00223602,-0.000124166,-0.578043,0.00153375,0.0419252,699,1212,-9.9636,-0.768411
-518,-188,-9.86304,0.943237,0.00325715,-0.000108769,-0.001245,0.0036676,-0.000519224,-0.318461,0.00263525,0.0456078,706,1212,-9.86306,-0.943272
-511,-188,-9.7879,0.733032,0.00804973,-0.00133683,-0.00217674,0.00852995,-0.00181705,-0.217135,0.00637917,0.0410076,713,1212,-9.78792,-0.733016
-504,-188,0,0,0,0,0,0,0,0,0,-1,720,1212,0,0
-497,-188,0,0,0,0,0,0,0,0,0,-1,727,1212,0,0
-490,-188,0,0,0,0,0,0,0,0,0,-1,734,1212,0,0
-483,-188,0,0,0,0,0,0,0,0,0,-1,741,1212,0,0
-476,-188,0,0,0,0,0,0,0,0,0,-1,748,1212,0,0
-469,-188,0,0,0,0,0,0,0,0,0,-1,755,1212,0,0
-462,-188,0,0,0,0,0,0,0,0,0,-1,762,1212,0,0
-455,-188,0,0,0,0,0,0,0,0,0,-1,769,1212,0,0
-448,-188,0,0,0,0,0,0,0,0,0,-1,776,1212,0,0
-441,-188,0,0,0,0,0,0,0,0,0,-1,783,1212,0,0
-434,-188,0,0,0,0,0,0,0,0,0,-1,790,1212,0,0
-427,-188,0,0,0,0,0,0,0,0,0,-1,797,1212,0,0
-420,-188,0,0,0,0,0,0,0,0,0,-1,804,1212,0,0
-413,-188,0,0,0,0,0,0,0,0,0,-1,811,1212,0,0
-406,-188,0,0,0,0,0,0,0,0,0,-1,818,1212,0,0
-399,-188,0,0,0,0,0,0,0,0,0,-1,825,1212,0,0
-392,-188,0,0,0,0,0,0,0,0,0,-1,832,1212,0,0
-385,-188,0,0,0,0,0,0,0,0,0,-1,839,1212,0,0
-378,-188,0,0,0,0,0,0,0,0,0,-1,846,1212,0,0
-371,-188,0,0,0,0,0,0,0,0,0,-1,853,1212,0,0
-364,-188,0,0,0,0,0,0,0,0,0,-1,860,1212,0,0
-357,-188,0,0,0,0,0,0,0,0,0,-1,867,1212,0,0
-350,-188,0,0,0,0,0,0,0,0,0,-1,874,1212,0,0
-343,-188,0,0,0,0,0,0,0,0,0,-1,881,1212,0,0
-336,-188,0,0,0,0,0,0,0,0,0,-1,888,1212,0,0
-329,-188,0,0,0,0,0,0,0,0,0,-1,895,1212,0,0
-322,-188,0,0,0,0,0,0,0,0,0,-1,902,1212,0,0
-315,-188,0,0,0,0,0,0,0,0,0,-1,909,1212,0,0
-308,-188,0,0,0,0,0,0,0,0,0,-1,916,1212,0,0
-301,-188,0,0,0,0,0,0,0,0,0,-1,923,1212,0,0
-294,-188,0,0,0,0,0,0,0,0,0,-1,930,1212,0,0
-287,-188,0,0,0,0,0,0,0,0,0,-1,937,1212,0,0
-280,-188,0,0,0,0,0,0,0,0,0,-1,944,1212,0,0
-273,-188,0,0,0,0,0,0,0,0,0,-1,951,1212,0,0
-266,-188,0,0,0,0,0,0,0,0,0,-1,958,1212,0,0
-259,-188,0,0,0,0,0,0,0,0,0,-1,965,1212,0,0
-252,-188,0,0,0,0,0,0,0,0,0,-1,972,1212,0,0
-245,-188,0,0,0,0,0,0,0,0,0,-1,979,1212,0,0
-238,-188,0,0,0,0,0,0,0,0,0,-1,986,1212,0,0
-231,-188,0,0,0,0,0,0,0,0,0,-1,993,1212,0,0
-224,-188,0,0,0,0,0,0,0,0,0,-1,1000,1212,0,0
-217,-188,0,0,0,0,0,0,0,0,0,-1,1007,1212,0,0
-210,-188,0,0,0,0,0,0,0,0,0,-1,1014,1212,0,0
-203,-188,0,0,0,0,0,0,0,0,0,-1,1021,1212,0,0
-196,-188,0,0,0,0,0,0,0,0,0,-1,1028,1212,0,0
-189,-188,0,0,0,0,0,0,0,0,0,-1,1035,1212,0,0
-182,-188,0,0,0,0,0,0,0,0,0,-1,1042,1212,0,0
-175,-188,0,0,0,0,0,0,0,0,0,-1,1049,1212,0,0
-168,-188,0,0,0,0,0,0,0,0,0,-1,1056,1212,0,0
-161,-188,0,0,0,0,0,0,0,0,0,-1,1063,1212,0,0
-154,-188,0,0,0,0,0,0,0,0,0,-1,1070,1212,0,0
-147,-188,0,0,0,0,0,0,0,0,0,-1,1077,1212,0,0
-140,-188,0,0,0,0,0,0,0,0,0,-1,1084,1212,0,0
-133,-188,0,0,0,0,0,0,0,0,0,-1,1091,1212,0,0
-126,-188,0,0,0,0,0,0,0,0,0,-1,1098,1212,0,0
-119,-188,0,0,0,0,0,0,0,0,0,-1,1105,1212,0,0
-112,-188,0,0,0,0,0,0,0,0,0,-1,1112,1212,0,0
-105,-188,0,0,0,0,0,0,0,0,0,-1,1119,1212,0,0
-98,-188,0,0,0,0,0,0,0,0,0,-1,1126,1212,0,0
-91,-188,0,0,0,0,0,0,0,0,0,-1,1133,1212,0,0
-84,-188,0,0,0,0,0,0,0,0,0,-1,1140,1212,0,0
-77,-188,0,0,0,0,0,0,0,0,0,-1,1147,1212,0,0
-70,-188,0,0,0,0,0,0,0,0,0,-1,1154,1212,0,0
-63,-188,0,0,0,0,0,0,0,0,0,-1,1161,1212,0,0
-56,-188,0,0,0,0,0,0,0,0,0,-1,1168,1212,0,0
-49,-188,0,0,0,0,0,0,0,0,0,-1,1175,1212,0,0
-42,-188,0,0,0,0,0,0,0,0,0,-1,1182,1212,0,0
-35,-188,0,0,0,0,0,0,0,0,0,-1,1189,1212,0,0
-28,-188,0,0,0,0,0,0,0,0,0,-1,1196,1212,0,0
-21,-188,0,0,0,0,0,0,0,0,0,-1,1203,1212,0,0
-14,-188,0,0,0,0,0,0,0,0,0,-1,1210,1212,0,0
-7,-188,0,0,0,0,0,0,0,0,0,-1,1217,1212,0,0
0,-188,0,0,0,0,0,0,0,0,0,-1,1224,1212,0,0
7,-188,0,0,0,0,0,0,0,0,0,-1,1231,1212,0,0
14,-188,0,0,0,0,0,0,0,0,0,-1,1238,1212,0,0
21,-188,0,0,0,0,0,0,0,0,0,-1,1245,1212,0,0
28,-188,0,0,0,0,0,0,0,0,0,-1,1252,1212,0,0
35,-188,0,0,0,0,0,0,0,0,0,-1,1259,1212,0,0
42,-188,0,0,0,0,0,0,0,0,0,-1,1266,1212,0,0
49,-188,0,0,0,0,0,0,0,0,0,-1,1273,1212,0,0
56,-188,0,0,0,0,0,0,0,0,0,-1,1280,1212,0,0
63,-188,0,0,0,0,0,0,0,0,0,-1,1287,1212,0,0
70,-188,0,0,0,0,0,0,0,0,0,-1,1294,1212,0,0
77,-188,0,0,0,0,0,0,0,0,0,-1,1301,1212,0,0
84,-188,0,0,0,0,0,0,0,0,0,-1,1308,1212,0,0
91,-188,0,0,0,0,0,0,0,0,0,-1,1315,1212,0,0
98,-188,0,0,0,0,0,0,0,0,0,-1,1322,1212,0,0
105,-188,0,0,0,0,0,0,0,0,0,-1,1329,1212,0,0
112,-188,0,0,0,0,0,0,0,0,0,-1,1336,1212,0,0
119,-188,0,0,0,0,0,0,0,0,0,-1,1343,1212,0,0
126,-188,0,0,0,0,0,0,0,0,0,-1,1350,1212,0,0
133,-188,0,0,0,0,0,0,0,0,0,-1,1357,1212,0,0
140,-188,0,0,0,0,0,0,0,0,0,-1,1364,1212,0,0
147,-188,0,0,0,0,0,0,0,0,0,-1,1371,1212,0,0
154,-188,0,0,0,0,0,0,0,0,0,-1,1378,1212,0,0
161,-188,0,0,0,0,0,0,0,0,0,-1,1385,1212,0,0
168,-188,0,0,0,0,0,0,0,0,0,-1,1392,1212,0,0
175,-188,0,0,0,0,0,0,0,0,0,-1,1399,1212,0,0
182,-188,0,0,0,0,0,0,0,0,0,-1,1406,1212,0,0
189,-188,0,0,0,0,0,0,0,0,0,-1,1413,1212,0,0
196,-188,0,0,0,0,0,0,0,0,0,-1,1420,1212,0,0
203,-188,0,0,0,0,0,0,0,0,0,-1,1427,1212,0,0
210,-188,0,0,0,0,0,0,0,0,0,-1,1434,1212,0,0
217,-188,0,0,0,0,0,0,0,0,0,-1,1441,1212,0,0
224,-188,0,0,0,0,0,0,0,0,0,-1,1448,1212,0,0
231,-188,0,0,0,0,0,0,0,0,0,-1,1455,1212,0,0
238,-188,0,0,0,0,0,0,0,0,0,-1,1462,1212,0,0
245,-188,0,0,0,0,0,0,0,0,0,-1,1469,1212,0,0
252,-188,0,0,0,0,0,0,0,0,0,-1,1476,1212,0,0
259,-188,0,0,0,0,0,0,0,0,0,-1,1483,1212,0,0
266,-188,0,0,0,0,0,0,0,0,0,-1,1490,1212,0,0
273,-188,0,0,0,0,0,0,0,0,0,-1,1497,1212,0,0
280,-188,0,0,0,0,0,0,0,0,0,-1,1504,1212,0,0
287,-188,0,0,0,0,0,0,0,0,0,-1,1511,1212,0,0
294,-188,0,0,0,0,0,0,0,0,0,-1,1518,1212,0,0
301,-188,0,0,0,0,0,0,0,0,0,-1,1525,1212,0,0
308,-188,0,0,0,0,0,0,0,0,0,-1,1532,1212,0,0
315,-188,0,0,0,0,0,0,0,0,0,-1,1539,1212,0,0
322,-188,0,0,0,0,0,0,0,0,0,-1,1546,1212,0,0
329,-188,0,0,0,0,0,0,0,0,0,-1,1553,1212,0,0
336,-188,0,0,0,0,0,0,0,0,0,-1,1560,1212,0,0
343,-188,0,0,0,0,0,0,0,0,0,-1,1567,1212,0,0
350,-188,0,0,0,0,0,0,0,0,0,-1,1574,1212,0,0
357,-188,0,0,0,0,0,0,0,0,0,-1,1581,1212,0,0
364,-188,0,0,0,0,0,0,0,0,0,-1,1588,1212,0,0
371,-188,0,0,0,0,0,0,0,0,0,-1,1595,1212,0,0
378,-188,0,0,0,0,0,0,0,0,0,-1,1602,1212,0,0
385,-188,0,0,0,0,0,0,0,0,0,-1,1609,1212,0,0
392,-188,0,0,0,0,0,0,0,0,0,-1,1616,1212,0,0
399,-188,0,0,0,0,0,0,0,0,0,-1,1623,1212,0,0
406,-188,0,0,0,0,0,0,0,0,0,-1,1630,1212,0,0
413,-188,0,0,0,0,0,0,0,0,0,-1,1637,1212,0,0
420,-188,0,0,0,0,0,0,0,0,0,-1,1644,1212,0,0
427,-188,0,0,0,0,0,0,0,0,0,-1,1651,1212,0,0
434,-188,0,0,0,0,0,0,0,0,0,-1,1658,1212,0,0
441,-188,0,0,0,0,0,0,0,0,0,-1,1665,1212,0,0
448,-188,0,0,0,0,0,0,0,0,0,-1,1672,1212,0,0
455,-188,0,0,0,0,0,0,0,0,0,-1,1679,1212,0,0
462,-188,0,0,0,0,0,0,0,0,0,-1,1686,1212,0,0
469,-188,0,0,0,0,0,0,0,0,0,-1,1693,1212,0,0
476,-188,0,0,0,0,0,0,0,0,0,-1,1700,1212,0,0
483,-188,0,0,0,0,0,0,0,0,0,-1,1707,1212,0,0
490,-188,0,0,0,0,0,0,0,0,0,-1,1714,1212,0,0
497,-188,0,0,0,0,0,0,0,0,0,-1,1721,1212,0,0
504,-188,0,0,0,0,0,0,0,0,0,-1,1728,1212,0,0
511,-188,0,0,0,0,0,0,0,0,0,-1,1735,1212,0,0
518,-188,0,0,0,0,0,0,0,0,0,-1,1742,1212,0,0
525,-188,0,0,0,0,0,0,0,0,0,-1,1749,1212,0,0
532,-188,0,0,0,0,0,0,0,0,0,-1,1756,1212,0,0
539,-188,0,0,0,0,0,0,0,0,0,-1,1763,1212,0,0
546,-188,0,0,0,0,0,0,0,0,0,-1,1770,1212,0,0
553,-188,0,0,0,0,0,0,0,0,0,-1,1777,1212,0,0
560,-188,0,0,0,0,0,0,0,0,0,-1,1784,1212,0,0
567,-188,0,0,0,0,0,0,0,0,0,-1,1791,1212,0,0
574,-188,0,0,0,0,0,0,0,0,0,-1,1798,1212,0,0
581,-188,0,0,0,0,0,0,0,0,0,-1,1805,1212,0,0
588,-188,0,0,0,0,0,0,0,0,0,-1,1812,1212,0,0
595,-188,0,0,0,0,0,0,0,0,0,-1,1819,1212,0,0
602,-188,0,0,0,0,0,0,0,0,0,-1,1826,1212,0,0
609,-188,0,0,0,0,0,0,0,0,0,-1,1833,1212,0,0
616,-188,0,0,0,0,0,0,0,0,0,-1,1840,1212,0,0
623,-188,0,0,0,0,0,0,0,0,0,-1,1847,1212,0,0
630,-188,16.0199,2.54822,0.00534893,-0.00338471,0.00113512,0.00549405,-0.00352983,0.127157,0.00525092,0.0361777,1854,1212,16.0198,-2.54824
637,-188,16.0228,2.42798,0.00389005,-0.00149511,0.000560122,0.0039477,-0.00155276,0.102549,0.00327449,0.0386562,1861,1212,16.0228,-2.42794
644,-188,16.0281,2.34436,0.00225147,0.000387263,-0.000536608,0.0023949,0.000243836,-0.261178,0.00152185,0.0357843,1868,1212,16.028,-2.34433
651,-188,15.9998,2.21594,0.000459099,0.00162893,-0.00105963,0.00225436,-0.000166334,-1.03759,0.00156131,0.0316407,1875,1212,15.9997,-2.21595
658,-188,16.0538,2.27393,-0.00135589,0.00220342,-0.00111994,0.00252649,-0.00167896,-1.28995,0.00244439,0.0310396,1882,1212,16.0538,-2.27389
665,-188,16.0847,2.3385,-0.00272446,0.00231569,-0.000958552,0.00249183,-0.0029006,-1.38906,0.00311631,0.0286361,1889,1212,16.0847,-2.33845
672,-188,16.0793,2.31555,-0.00375663,0.00212866,-0.000672127,0.00220444,-0.00383242,-1.45852,0.00352737,0.0232319,1896,1212,16.0793,-2.31556
679,-188,16.0387,2.15771,-0.00451923,0.0018329,-0.000270448,0.00184439,-0.00453073,-1.52832,0.00378804,0.0438244,1903,1212,16.0387,-2.1577
686,-188,15.179,3.01721,0,0,0,0,0,0,0,-1,1910,1212,15.1789,-3.01725
693,-188,14.991,3.37939,-0.00552683,0.00105915,0.000502403,0.00109726,-0.00556494,1.4951,0.00412465,0.0485264,1917,1212,14.991,-3.37937
700,-188,14.7697,3.65381,-0.00554933,0.000679251,0.000842575,0.000791218,-0.0056613,1.43868,0.00406369,0.0384598,1924,1212,14.7697,-3.65377
707,-188,14.646,3.66821,-0.00542508,0.000314101,0.00105738,0.000502714,-0.00561369,1.39428,0.00392079,0.0129586,1931,1212,14.646,-3.66826
714,-188,14.6367,3.61401,-0.0052247,-5.48804e-06,0.00121658,0.000264162,-0.00549435,1.35268,0.00375405,0.0102602,1938,1212,14.6367,-3.61401
721,-188,14.5964,3.52856,-0.00457952,-0.000326457,0.00137272,7.81161e-05,-0.0049841,1.28419,0.00334907,0.0103716,1945,1212,14.5965,-3.52863
728,-188,14.5863,3.422,-0.00339903,-0.00059221,0.00122827,-0.000130626,-0.00386061,1.21132,0.00253132,0.00933792,1952,1212,14.5863,-3.42198
735,-188,14.5897,3.32507,-0.0021442,-0.000650556,0.000531878,-0.000480515,-0.00231424,1.26137,0.00141021,0.011991,1959,1212,14.5898,-3.32506
742,-188,14.576,3.23242,-0.000792864,-0.000317508,-0.000557709,5.10572e-05,-0.00116143,-0.986828,0.000791854,0.0138429,1966,1212,14.5761,-3.23246
749,-188,14.5938,3.13904,1.03263e-05,-3.04765e-05,-0.00163719,0.00162724,-0.00164739,-0.779168,0.00189062,0.0143092,1973,1212,14.5938,-3.13902
756,-188,14.6058,3.0376,0.00027739,0.000165521,-0.00232977,0.0025519,-0.00210898,-0.773396,0.00269501,0.0123487,1980,1212,14.6059,-3.03761
763,-188,14.6105,2.96265,0.000203994,0.000220208,-0.00318597,0.00339809,-0.00297388,-0.78667,0.00368157,0.0133963,1987,1212,14.6105,-2.96268
770,-188,14.6046,2.86743,-0.000560395,0.000195528,-0.00392893,0.00376463,-0.0041295,-0.83335,0.0045593,0.0215884,1994,1212,14.6046,-2.86749
777,-188,14.618,2.70862,-0.00226017,6.11051e-05,-0.00443647,0.00348625,-0.00568532,-0.913337,0.0053457,0.0424312,2001,1212,14.6181,-2.70857
784,-188,14.6056,2.54492,-0.00539661,-0.000194162,-0.00439108,0.00230833,-0.0078991,-1.0528,0.0061809,0.0467627,2008,1212,14.6055,-2.54487
791,-188,14.536,2.28552,0,0,0,0,0,0,0,-1,2015,1212,14.536,-2.28549
798,-188,15.5201,2.07776,0,0,0,0,0,0,0,-1,2022,1212,15.5202,-2.0778
805,-188,0,0,0,0,0,0,0,0,0,-1,2029,1212,0,0
812,-188,0,0,0,0,0,0,0,0,0,-1,2036,1212,0,0
-700,-195,0,0,0,0,0,0,0,0,0,-1,524,1219,0,0
-693,-195,0,0,0,0,0,0,0,0,0,-1,531,1219,0,0
-686,-195,0,0,0,0,0,0,0,0,0,-1,538,1219,0,0
-679,-195,-11.6653,-1.80603,0.0596218,0.0257977,0.0651056,0.109976,-0.0245566,0.658325,0.0827269,0.0436758,545,1219,-11.6653,1.80603
-672,-195,-11.5186,-1.61145,0.0481276,0.0248573,0.0554901,0.0931893,-0.0202044,0.682055,0.069842,0.0449762,552,1219,-11.5186,1.61148
-665,-195,-11.3514,-1.51025,0.0384182,0.0227418,0.046074,0.077316,-0.0161559,0.701143,0.0576884,0.0459562,559,1219,-11.3514,1.51019
-658,-195,-10.6923,-1.29956,0,0,0,0,0,0,0,-1,566,1219,-10.6923,1.2996
-651,-195,-7.57916,0.266357,0.0234875,0.0170499,0.029438,0.0498822,-0.00934475,0.730944,0.0367677,0.0425379,573,1219,-7.57918,-0.266356
-644,-195,-8.03992,0.655029,0.017811,0.0140593,0.0225855,0.0385984,-0.00672811,0.743965,0.0282434,0.0416796,580,1219,-8.03993,-0.65501
-637,-195,-8.06458,0.709839,0.013146,0.0111989,0.016786,0.0289867,-0.00464176,0.756431,0.021043,0.021424,587,1219,-8.06455,-0.709851
-630,-195,-8.11804,0.784912,0.00891105,0.00854157,0.0119321,0.0206598,-0.0032072,0.777657,0.0149573,0.00758646,594,1219,-8.11802,-0.784854
-623,-195,-8.11816,0.897949,0.00511493,0.00624269,0.00725041,0.0129511,-0.00159349,0.824206,0.0092113,0.00789387,601,1219,-8.11815,-0.897989
-616,-195,-8.09613,1.02991,0.00298141,0.00384747,0.00351413,0.00695515,-0.000126267,0.846702,0.00467943,0.0105888,608,1219,-8.09613,-1.02995
-609,-195,-8.10913,1.14819,0.00163484,0.00213296,0.000750785,0.00267492,0.00109288,0.945551,0.00155295,0.0192402,615,1219,-8.10912,-1.14822
-602,-195,-8.11658,1.27661,0.000840581,0.000584356,-0.00122327,0.00194243,-0.000517494,-0.733224,0.00149756,0.022343,622,1219,-8.11656,-1.27658
-595,-195,-8.11328,1.42151,0.000270782,-0.000194554,-0.00218152,0.002232,-0.00215578,-0.732272,0.00253341,0.0154495,629,1219,-8.11329,-1.42151
-588,-195,-8.10754,1.52661,-0.000244412,-0.000564541,-0.00281595,0.00241602,-0.00322497,-0.757008,0.00326797,0.00786813,636,1219,-8.10751,-1.5266
-581,-195,-8.11835,1.61169,-0.000382288,-0.000714932,-0.00304717,0.00250309,-0.00360031,-0.758134,0.00354273,0.00840494,643,1219,-8.11835,-1.61168
-574,-195,-8.12012,1.63855,-0.000387861,-0.000541508,-0.0030276,0.00256389,-0.00349326,-0.772714,0.00351079,0.0219414,650,1219,-8.12015,-1.63855
-567,-195,-7.7569,1.37305,-0.000185038,-0.000343113,-0.00299991,0.00273688,-0.00326503,-0.772228,0.00346967,0.0467978,657,1219,-7.75692,-1.37303
-560,-195,-7.41437,1.10486,0,0,0,0,0,0,0,-1,664,1219,-7.41439,-1.10491
-553,-195,-9.95142,0.685547,-0.00053527,0.000463632,-0.00274032,0.00274964,-0.00282128,-0.875539,0.00321647,0.0435669,671,1219,-9.95142,-0.68555
-546,-195,-9.85938,0.619019,-0.000723203,0.000888082,-0.00247505,0.00268531,-0.00252043,-0.942743,0.00300604,0.0429633,678,1219,-9.85939,-0.619027
-539,-195,-9.82874,0.550415,-0.000891244,0.00135716,-0.00218256,0.00268803,-0.00222212,-1.02322,0.00283912,0.0367175,685,1219,-9.82875,-0.550448
-532,-195,-9.8689,0.529053,-0.000872981,0.00176039,-0.00184598,0.00271115,-0.00182374,-1.09519,0.00263487,0.0354438,692,1219,-9.8689,-0.529072
-525,-195,-9.92084,0.58374,-0.000449039,0.00196071,-0.00150539,0.00268402,-0.00117236,-1.12288,0.00228279,0.0380245,699,1219,-9.92083,-0.583797
-518,-195,-10.0421,0.684326,0.000605922,0.00148251,-0.00167981,0.00278026,-0.000691832,-0.913012,0.00212205,0.0410532,706,1219,-10.0421,-0.684302
-511,-195,-10.0433,0.686768,0.00452092,-7.91416e-06,-0.0024401,0.00558541,-0.00107241,-0.411362,0.00412778,0.0431783,713,1219,-10.0433,-0.686805
-504,-195,0,0,0,0,0,0,0,0,0,-1,720,1219,0,0
-497,-195,0,0,0,0,0,0,0,0,0,-1,727,1219,0,0
-490,-195,0,0,0,0,0,0,0,0,0,-1,734,1219,0,0
-483,-195,0,0,0,0,0,0,0,0,0,-1,741,1219,0,0
-476,-195,0,0,0,0,0,0,0,0,0,-1,748,1219,0,0
-469,-195,0,0,0,0,0,0,0,0,0,-1,755,1219,0,0
-462,-195,0,0,0,0,0,0,0,0,0,-1,762,1219,0,0
-455,-195,0,0,0,0,0,0,0,0,0,-1,769,1219,0,0
-448,-195,0,0,0,0,0,0,0,0,0,-1,776,1219,0,0
-441,-195,0,0,0,0,0,0,0,0,0,-1,783,1219,0,0
-434,-195,0,0,0,0,0,0,0,0,0,-1,790,1219,0,0
-427,-195,0,0,0,0,0,0,0,0,0,-1,797,1219,0,0
-420,-195,0,0,0,0,0,0,0,0,0,-1,804,1219,0,0
-413,-195,0,0,0,0,0,0,0,0,0,-1,811,1219,0,0
-406,-195,0,0,0,0,0,0,0,0,0,-1,818,1219,0,0
-399,-195,0,0,0,0,0,0,0,0,0,-1,825,1219,0,0
-392,-195,0,0,0,0,0,0,0,0,0,-1,832,1219,0,0
-385,-195,0,0,0,0,0,0,0,0,0,-1,839,1219,0,0
-378,-195,0,0,0,0,0,0,0,0,0,-1,846,1219,0,0
-371,-195,0,0,0,0,0,0,0,0,0,-1,853,1219,0,0
-364,-195,0,0,0,0,0,0,0,0,0,-1,860,1219,0,0
-357,-195,0,0,0,0,0,0,0,0,0,-1,867,1219,0,0
-350,-195,0,0,0,0,0,0,0,0,0,-1,874,1219,0,0
-343,-195,0,0,0,0,0,0,0,0,0,-1,881,1219,0,0
-336,-195,0,0,0,0,0,0,0,0,0,-1,888,1219,0,0
-329,-195,0,0,0,0,0,0,0,0,0,-1,895,1219,0,0
-322,-195,0,0,0,0,0,0,0,0,0,-1,902,1219,0,0
-315,-195,0,0,0,0,0,0,0,0,0,-1,909,1219,0,0
-308,-195,0,0,0,0,0,0,0,0,0,-1,916,1219,0,0
-301,-195,0,0,0,0,0,0,0,0,0,-1,923,1219,0,0
-294,-195,0,0,0,0,0,0,0,0,0,-1,930,1219,0,0
-287,-195,0,0,0,0,0,0,0,0,0,-1,937,1219,0,0
-280,-195,0,0,0,0,0,0,0,0,0,-1,944,1219,0,0
-273,-195,0,0,0,0,0,0,0,0,0,-1,951,1219,0,0
-266,-195,0,0,0,0,0,0,0,0,0,-1,958,1219,0,0
-259,-195,0,0,0,0,0,0,0,0,0,-1,965,1219,0,0
-252,-195,0,0,0,0,0,0,0,0,0,-1,972,1219,0,0
-245,-195,0,0,0,0,0,0,0,0,0,-1,979,1219,0,0
-238,-195,0,0,0,0,0,0,0,0,0,-1,986,1219,0,0
-231,-195,0,0,0,0,0,0,0,0,0,-1,993,1219,0,0
-224,-195,0,0,0,0,0,0,0,0,0,-1,1000,1219,0,0
-217,-195,0,0,0,0,0,0,0,0,0,-1,1007,1219,0,0
-210,-195,0,0,0,0,0,0,0,0,0,-1,1014,1219,0,0
-203,-195,0,0,0,0,0,0,0,0,0,-1,1021,1219,0,0
-196,-195,0,0,0,0,0,0,0,0,0,-1,1028,1219,0,0
-189,-195,0,0,0,0,0,0,0,0,0,-1,1035,1219,0,0
-182,-195,0,0,0,0,0,0,0,0,0,-1,1042,1219,0,0
-175,-195,0,0,0,0,0,0,0,0,0,-1,1049,1219,0,0
-168,-195,0,0,0,0,0,0,0,0,0,-1,1056,1219,0,0
-161,-195,0,0,0,0,0,0,0,0,0,-1,1063,1219,0,0
-154,-195,0,0,0,0,0,0,0,0,0,-1,1070,1219,0,0
-147,-195,0,0,0,0,0,0,0,0,0,-1,1077,1219,0,0
-140,-195,0,0,0,0,0,0,0,0,0,-1,1084,1219,0,0
-133,-195,0,0,0,0,0,0,0,0,0,-1,1091,1219,0,0
-126,-195,0,0,0,0,0,0,0,0,0,-1,1098,1219,0,0
-119,-195,0,0,0,0,0,0,0,0,0,-1,1105,1219,0,0
-112,-195,0,0,0,0,0,0,0,0,0,-1,1112,1219,0,0
-105,-195,0,0,0,0,0,0,0,0,0,-1,1119,1219,0,0
-98,-195,0,0,0,0,0,0,0,0,0,-1,1126,1219,0,0
-91,-195,0,0,0,0,0,0,0,0,0,-1,1133,1219,0,0
-84,-195,0,0,0,0,0,0,0,0,0,-1,1140,1219,0,0
-77,-195,0,0,0,0,0,0,0,0,0,-1,1147,1219,0,0
-70,-195,0,0,0,0,0,0,0,0,0,-1,1154,1219,0,0
-63,-195,0,0,0,0,0,0,0,0,0,-1,1161,1219,0,0
-56,-195,0,0,0,0,0,0,0,0,0,-1,1168,1219,0,0
-49,-195,0,0,0,0,0,0,0,0,0,-1,1175,1219,0,0
-42,-195,0,0,0,0,0,0,0,0,0,-1,1182,1219,0,0
-35,-195,0,0,0,0,0,0,0,0,0,-1,1189,1219,0,0
-28,-195,0,0,0,0,0,0,0,0,0,-1,1196,1219,0,0
-21,-195,0,0,0,0,0,0,0,0,0,-1,1203,1219,0,0
-14,-195,0,0,0,0,0,0,0,0,0,-1,1210,1219,0,0
-7,-195,0,0,0,0,0,0,0,0,0,-1,1217,1219,0,0
0,-195,0,0,0,0,0,0,0,0,0,-1,1224,1219,0,0
7,-195,0,0,0,0,0,0,0,0,0,-1,1231,1219,0,0
14,-195,0,0,0,0,0,0,0,0,0,-1,1238,1219,0,0
21,-195,0,0,0,0,0,0,0,0,0,-1,1245,1219,0,0
28,-195,0,0,0,0,0,0,0,0,0,-1,1252,1219,0,0
35,-195,0,0,0,0,0,0,0,0,0,-1,1259,1219,0,0
42,-195,0,0,0,0,0,0,0,0,0,-1,1266,1219,0,0
49,-195,0,0,0,0,0,0,0,0,0,-1,1273,1219,0,0
56,-195,0,0,0,0,0,0,0,0,0,-1,1280,1219,0,0
63,-195,0,0,0,0,0,0,0,0,0,-1,1287,1219,0,0
70,-195,0,0,0,0,0,0,0,0,0,-1,1294,1219,0,0
77,-195,0,0,0,0,0,0,0,0,0,-1,1301,1219,0,0
84,-195,0,0,0,0,0,0,0,0,0,-1,1308,1219,0,0
91,-195,0,0,0,0,0,0,0,0,0,-1,1315,1219,0,0
98,-195,0,0,0,0,0,0,0,0,0,-1,1322,1219,0,0
105,-195,0,0,0,0,0,0,0,0,0,-1,1329,1219,0,0
112,-195,0,0,0,0,0,0,0,0,0,-1,1336,1219,0,0
119,-195,0,0,0,0,0,0,0,0,0,-1,1343,1219,0,0
126,-195,0,0,0,0,0,0,0,0,0,-1,1350,1219,0,0
133,-195,0,0,0,0,0,0,0,0,0,-1,1357,1219,0,0
140,-195,0,0,0,0,0,0,0,0,0,-1,1364,1219,0,0
147,-195,0,0,0,0,0,0,0,0,0,-1,1371,1219,0,0
154,-195,0,0,0,0,0,0,0,0,0,-1,1378,1219,0,0
161,-195,0,0,0,0,0,0,0,0,0,-1,1385,1219,0,0
168,-195,0,0,0,0,0,0,0,0,0,-1,1392,1219,0,0
175,-195,0,0,0,0,0,0,0,0,0,-1,1399,1219,0,0
182,-195,0,0,0,0,0,0,0,0,0,-1,1406,1219,0,0
189,-195,0,0,0,0,0,0,0,0,0,-1,1413,1219,0,0
196,-195,0,0,0,0,0,0,0,0,0,-1,1420,1219,0,0
203,-195,0,0,0,0,0,0,0,0,0,-1,1427,1219,0,0
210,-195,0,0,0,0,0,0,0,0,0,-1,1434,1219,0,0
217,-195,0,0,0,0,0,0,0,0,0,-1,1441,1219,0,0
224,-195,0,0,0,0,0,0,0,0,0,-1,1448,1219,0,0
231,-195,0,0,0,0,0,0,0,0,0,-1,1455,1219,0,0
238,-195,0,0,0,0,0,0,0,0,0,-1,1462,1219,0,0
245,-195,0,0,0,0,0,0,0,0,0,-1,1469,1219,0,0
252,-195,0,0,0,0,0,0,0,0,0,-1,1476,1219,0,0
259,-195,0,0,0,0,0,0,0,0,0,-1,1483,1219,0,0
266,-195,0,0,0,0,0,0,0,0,0,-1,1490,1219,0,0
273,-195,0,0,0,0,0,0,0,0,0,-1,1497,1219,0,0
280,-195,0,0,0,0,0,0,0,0,0,-1,1504,1219,0,0
287,-195,0,0,0,0,0,0,0,0,0,-1,1511,1219,0,0
294,-195,0,0,0,0,0,0,0,0,0,-1,1518,1219,0,0
301,-195,0,0,0,0,0,0,0,0,0,-1,1525,1219,0,0
308,-195,0,0,0,0,0,0,0,0,0,-1,1532,1219,0,0
315,-195,0,0,0,0,0,0,0,0,0,-1,1539,1219,0,0
322,-195,0,0,0,0,0,0,0,0,0,-1,1546,1219,0,0
329,-195,0,0,0,0,0,0,0,0,0,-1,1553,1219,0,0
336,-195,0,0,0,0,0,0,0,0,0,-1,1560,1219,0,0
343,-195,0,0,0,0,0,0,0,0,0,-1,1567,1219,0,0
350,-195,0,0,0,0,0,0,0,0,0,-1,1574,1219,0,0
357,-195,0,0,0,0,0,0,0,0,0,-1,1581,1219,0,0
364,-195,0,0,0,0,0,0,0,0,0,-1,1588,1219,0,0
371,-195,0,0,0,0,0,0,0,0,0,-1,1595,1219,0,0
378,-195,0,0,0,0,0,0,0,0,0,-1,1602,1219,0,0
385,-195,0,0,0,0,0,0,0,0,0,-1,1609,1219,0,0
392,-195,0,0,0,0,0,0,0,0,0,-1,1616,1219,0,0
399,-195,0,0,0,0,0,0,0,0,0,-1,1623,1219,0,0
406,-195,0,0,0,0,0,0,0,0,0,-1,1630,1219,0,0
413,-195,0,0,0,0,0,0,0,0,0,-1,1637,1219,0,0
420,-195,0,0,0,0,0,0,0,0,0,-1,1644,1219,0,0
427,-195,0,0,0,0,0,0,0,0,0,-1,1651,1219,0,0
434,-195,0,0,0,0,0,0,0,0,0,-1,1658,1219,0,0
441,-195,0,0,0,0,0,0,0,0,0,-1,1665,1219,0,0
448,-195,0,0,0,0,0,0,0,0,0,-1,1672,1219,0,0
455,-195,0,0,0,0,0,0,0,0,0,-1,1679,1219,0,0
462,-195,0,0,0,0,0,0,0,0,0,-1,1686,1219,0,0
469,-195,0,0,0,0,0,0,0,0,0,-1,1693,1219,0,0
476,-195,0,0,0,0,0,0,0,0,0,-1,1700,1219,0,0
483,-195,0,0,0,0,0,0,0,0,0,-1,1707,1219,0,0
490,-195,0,0,0,0,0,0,0,0,0,-1,1714,1219,0,0
497,-195,0,0,0,0,0,0,0,0,0,-1,1721,1219,0,0
504,-195,0,0,0,0,0,0,0,0,0,-1,1728,1219,0,0
511,-195,0,0,0,0,0,0,0,0,0,-1,1735,1219,0,0
518,-195,0,0,0,0,0,0,0,0,0,-1,1742,1219,0,0
525,-195,0,0,0,0,0,0,0,0,0,-1,1749,1219,0,0
532,-195,0,0,0,0,0,0,0,0,0,-1,1756,1219,0,0
539,-195,0,0,0,0,0,0,0,0,0,-1,1763,1219,0,0
546,-195,0,0,0,0,0,0,0,0,0,-1,1770,1219,0,0
553,-195,0,0,0,0,0,0,0,0,0,-1,1777,1219,0,0
560,-195,0,0,0,0,0,0,0,0,0,-1,1784,1219,0,0
567,-195,0,0,0,0,0,0,0,0,0,-1,1791,1219,0,0
574,-195,0,0,0,0,0,0,0,0,0,-1,1798,1219,0,0
581,-195,0,0,0,0,0,0,0,0,0,-1,1805,1219,0,0
588,-195,0,0,0,0,0,0,0,0,0,-1,1812,1219,0,0
595,-195,0,0,0,0,0,0,0,0,0,-1,1819,1219,0,0
602,-195,0,0,0,0,0,0,0,0,0,-1,1826,1219,0,0
609,-195,0,0,0,0,0,0,0,0,0,-1,1833,1219,0,0
616,-195,0,0,0,0,0,0,0,0,0,-1,1840,1219,0,0
623,-195,0,0,0,0,0,0,0,0,0,-1,1847,1219,0,0
630,-195,16.0056,2.198,0,0,0,0,0,0,0,-1,1854,1219,16.0056,-2.19794
637,-195,15.9822,1.99854,0,0,0,0,0,0,0,-1,1861,1219,15.9821,-1.99853
644,-195,16.0876,2.20496,0.00133468,0.0014253,-0.000669331,0.00205085,0.000709128,-0.819193,0.00120269,0.0348732,1868,1219,16.0876,-2.20493
651,-195,16.0496,2.28503,-0.000525136,0.00241588,-0.00106788,0.00276272,-0.000871978,-1.25675,0.00219109,0.026928,1875,1219,16.0495,-2.28498
658,-195,16.0948,2.31555,-0.00211017,0.00279044,-0.00112829,0.00303773,-0.00235746,-1.35503,0.00312316,0.0231383,1882,1219,16.0949,-2.3156
665,-195,16.1108,2.34424,-0.00317887,0.00274003,-0.00100789,0.00290695,-0.00334579,-1.40667,0.00361298,0.0215586,1889,1219,16.1109,-2.34426
672,-195,16.0448,2.17322,-0.00392934,0.00243825,-0.000778321,0.00253201,-0.0040231,-1.45092,0.00381709,0.0340137,1896,1219,16.0447,-2.17325
679,-195,15.8601,1.39856,-0.00444896,0.00208529,-0.000436591,0.00211433,-0.004478,-1.50437,0.00388678,0.048222,1903,1219,15.8601,-1.39851
686,-195,14.4159,3.39624,0,0,0,0,0,0,0,-1,1910,1219,14.4159,-3.39622
693,-195,14.563,3.53955,-0.00513251,0.00123782,0.00024464,0.0012472,-0.00514189,1.53247,0.00391053,0.0483457,1917,1219,14.563,-3.53953
700,-195,14.5317,3.75403,-0.00503306,0.000802432,0.000554039,0.000854568,-0.00508519,1.47697,0.00370796,0.0274402,1924,1219,14.5317,-3.75399
707,-195,14.4757,3.74854,-0.0048127,0.000374184,0.000758298,0.00048277,-0.00492129,1.42857,0.00345305,0.0131815,1931,1219,14.4757,-3.74859
714,-195,14.4862,3.64148,-0.00456879,2.55574e-05,0.000909412,0.000199019,-0.00474225,1.38232,0.00322989,0.0147001,1938,1219,14.4862,-3.64152
721,-195,14.4976,3.5448,-0.00388915,-0.000266079,0.00106738,2.4993e-05,-0.00418022,1.30457,0.00279518,0.0120362,1945,1219,14.4976,-3.54479
728,-195,14.4973,3.43884,-0.00275964,-0.00055231,0.000871724,-0.000249568,-0.00306238,1.23654,0.00196369,0.0102314,1952,1219,14.4973,-3.43884
735,-195,14.4735,3.32898,-0.00173248,-0.000601663,7.58179e-05,-0.000596602,-0.00173754,1.50415,0.00101945,0.0121387,1959,1219,14.4736,-3.32899
742,-195,14.4689,3.23755,-0.000675881,-0.000286418,-0.00116717,0.000702149,-0.00166445,-0.868058,0.0014035,0.0138049,1966,1219,14.4688,-3.23752
749,-195,14.483,3.1449,-0.000151785,-5.47459e-05,-0.00250681,0.00240401,-0.00261054,-0.795075,0.00289597,0.0144398,1973,1219,14.483,-3.14493
756,-195,14.4919,3.04724,-0.000181264,1.61073e-05,-0.00360737,0.00352614,-0.0036913,-0.799073,0.00416735,0.013725,1980,1219,14.4919,-3.04725
763,-195,14.4921,2.93445,-0.000597907,-4.39672e-05,-0.0050139,0.00470061,-0.00534248,-0.81299,0.00580233,0.0141144,1987,1219,14.4921,-2.93444
770,-195,14.524,2.80554,-0.00171931,-0.000214403,-0.00652199,0.0055984,-0.0075321,-0.84283,0.00760825,0.0256308,1994,1219,14.5241,-2.80552
777,-195,14.9393,2.71326,-0.00388917,-0.000533813,-0.00797682,0.00593984,-0.0103628,-0.889047,0.00952712,0.0411816,2001,1219,14.9394,-2.71329
784,-195,15.3206,2.55737,-0.00761765,-0.00100352,-0.00905923,0.0053334,-0.0139546,-0.960407,0.0115007,0.0420485,2008,1219,15.3205,-2.55731
791,-195,15.4513,2.31836,0,0,0,0,0,0,0,-1,2015,1219,15.4513,-2.3183
798,-195,15.3955,2.05054,0,0,0,0,0,0,0,-1,2022,1219,15.3956,-2.05049
805,-195,0,0,0,0,0,0,0,0,0,-1,2029,1219,0,0
812,-195,0,0,0,0,0,0,0,0,0,-1,2036,1219,0,0
-700,-202,0,0,0,0,0,0,0,0,0,-1,524,1226,0,0
-693,-202,0,0,0,0,0,0,0,0,0,-1,531,1226,0,0
-686,-202,0,0,0,0,0,0,0,0,0,-1,538,1226,0,0
-679,-202,-7.8689,-2.59729,0,0,0,0,0,0,0,-1,545,1226,-7.86889,2.59728
-672,-202,-7.66418,-1.67993,0,0,0,0,0,0,0,-1,552,1226,-7.66417,1.67997
-665,-202,-7.70935,0.083252,0,0,0,0,0,0,0,-1,559,1226,-7.70934,-0.0832623
-658,-202,-7.73206,0.215576,0.0281908,0.0193739,0.0341626,0.0582282,-0.0106635,0.721232,0.0428182,0.0441815,566,1226,-7.73208,-0.215609
-651,-202,-7.75488,0.376099,0.0229772,0.0169854,0.0269322,0.0470797,-0.00711704,0.730007,0.0340079,0.0438737,573,1226,-7.7549,-0.376048
-644,-202,-7.80444,0.502075,0.0183203,0.0143078,0.0206605,0.0370717,-0.00444361,0.736997,0.026321,0.0447308,580,1226,-7.80445,-0.502095
-637,-202,-7.8739,0.634644,0.0142148,0.0115876,0.0153671,0.0283244,-0.00252197,0.742762,0.0197772,0.0327462,587,1226,-7.8739,-0.634641
-630,-202,-7.95203,0.766479,0.0102697,0.00897251,0.0109647,0.0206049,-0.00136275,0.755857,0.0142126,0.0129773,594,1226,-7.95203,-0.766499
-623,-202,-7.98407,0.880371,0.00676242,0.00679497,0.00677109,0.0135498,7.58097e-06,0.7866,0.00903068,0.0080675,601,1226,-7.98409,-0.88041
-616,-202,-7.97876,1.00317,0.00462305,0.00444182,0.00342136,0.007955,0.00110987,0.772159,0.00497482,0.00877963,608,1226,-7.97878,-1.00322
-609,-202,-7.96912,1.1311,0.00314502,0.00258367,0.000995201,0.00389837,0.00183032,0.647952,0.00225212,0.0217522,615,1226,-7.96913,-1.13115
-602,-202,-7.9928,1.24146,0.00220182,0.000803645,-0.000750475,0.00252837,0.000477094,-0.410416,0.0015512,0.0213722,622,1226,-7.99279,-1.24141
-595,-202,-8.01215,1.39856,0.00142028,-0.000142456,-0.00149735,0.00232787,-0.00105005,-0.544917,0.00199621,0.0153935,629,1226,-8.01215,-1.39858
-588,-202,-7.97614,1.52441,0.000724565,-0.000510978,-0.0020381,0.00223646,-0.00202287,-0.638244,0.00246016,0.00758139,636,1226,-7.97614,-1.52441
-581,-202,-7.97284,1.60413,0.000510564,-0.000651378,-0.0022463,0.00224981,-0.00239062,-0.658854,0.00267957,0.0091648,643,1226,-7.97286,-1.60417
-574,-202,-8.00555,1.61865,0.000330557,-0.00033295,-0.0023545,0.00237656,-0.00237896,-0.715408,0.0027456,0.0150867,650,1226,-8.00553,-1.6187
-567,-202,-8.09198,1.77185,0.000304827,8.01205e-05,-0.00243519,0.00263025,-0.0022453,-0.762346,0.00281782,0.0398879,657,1226,-8.092,-1.7719
-560,-202,-9.79315,0.449463,0,0,0,0,0,0,0,-1,664,1226,-9.79316,-0.449514
-553,-202,-9.75537,0.482788,-0.000557314,0.00141796,-0.00251278,0.00313023,-0.00226958,-0.972647,0.00313075,0.0479228,671,1226,-9.75536,-0.482751
-546,-202,-9.8855,0.643921,-0.00115115,0.00219382,-0.0024848,0.00351657,-0.0024739,-1.08162,0.00347602,0.0457129,678,1226,-9.88549,-0.643912
-539,-202,-9.85388,0.589966,-0.00181436,0.00307585,-0.00248474,0.00411678,-0.00285529,-1.17408,0.00404723,0.0400967,685,1226,-9.85388,-0.590012
-532,-202,-9.81952,0.523071,-0.00240197,0.0039697,-0.0024713,0.00481584,-0.00324811,-1.24092,0.00468497,0.0293773,692,1226,-9.8195,-0.523124
-525,-202,-9.83569,0.509033,-0.00269603,0.00473232,-0.00244026,0.00546224,-0.00342595,-1.28015,0.00517629,0.0334027,699,1226,-9.83571,-0.509082
-518,-202,-10.0781,0.723267,-0.00242094,0.00496853,-0.00265775,0.00582514,-0.00327754,-1.259,0.0053236,0.0389175,706,1226,-10.0781,-0.723287
-511,-202,-10.1718,0.675049,0.000290714,0.00401507,-0.00314453,0.00580745,-0.00150167,-1.05273,0.00445732,0.0420756,713,1226,-10.1718,-0.675077
-504,-202,0,0,0,0,0,0,0,0,0,-1,720,1226,0,0
-497,-202,0,0,0,0,0,0,0,0,0,-1,727,1226,0,0
-490,-202,0,0,0,0,0,0,0,0,0,-1,734,1226,0,0
-483,-202,0,0,0,0,0,0,0,0,0,-1,741,1226,0,0
-476,-202,0,0,0,0,0,0,0,0,0,-1,748,1226,0,0
-469,-202,0,0,0,0,0,0,0,0,0,-1,755,1226,0,0
-462,-202,0,0,0,0,0,0,0,0,0,-1,762,1226,0,0
-455,-202,0,0,0,0,0,0,0,0,0,-1,769,1226,0,0
-448,-202,0,0,0,0,0,0,0,0,0,-1,776,1226,0,0
-441,-202,0,0,0,0,0,0,0,0,0,-1,783,1226,0,0
-434,-202,0,0,0,0,0,0,0,0,0,-1,790,1226,0,0
-427,-202,0,0,0,0,0,0,0,0,0,-1,797,1226,0,0
-420,-202,0,0,0,0,0,0,0,0,0,-1,804,1226,0,0
-413,-202,0,0,0,0,0,0,0,0,0,-1,811,1226,0,0
-406,-202,0,0,0,0,0,0,0,0,0,-1,818,1226,0,0
-399,-202,0,0,0,0,0,0,0,0,0,-1,825,1226,0,0
-392,-202,0,0,0,0,0,0,0,0,0,-1,832,1226,0,0
-385,-202,0,0,0,0,0,0,0,0,0,-1,839,1226,0,0
-378,-202,0,0,0,0,0,0,0,0,0,-1,846,1226,0,0
-371,-202,0,0,0,0,0,0,0,0,0,-1,853,1226,0,0
-364,-202,0,0,0,0,0,0,0,0,0,-1,860,1226,0,0
-357,-202,0,0,0,0,0,0,0,0,0,-1,867,1226,0,0
-350,-202,0,0,0,0,0,0,0,0,0,-1,874,1226,0,0
-343,-202,0,0,0,0,0,0,0,0,0,-1,881,1226,0,0
-336,-202,0,0,0,0,0,0,0,0,0,-1,888,1226,0,0
-329,-202,0,0,0,0,0,0,0,0,0,-1,895,1226,0,0
-322,-202,0,0,0,0,0,0,0,0,0,-1,902,1226,0,0
-315,-202,0,0,0,0,0,0,0,0,0,-1,909,1226,0,0
-308,-202,0,0,0,0,0,0,0,0,0,-1,916,1226,0,0
-301,-202,0,0,0,0,0,0,0,0,0,-1,923,1226,0,0
-294,-202,0,0,0,0,0,0,0,0,0,-1,930,1226,0,0
-287,-202,0,0,0,0,0,0,0,0,0,-1,937,1226,0,0
-280,-202,0,0,0,0,0,0,0,0,0,-1,944,1226,0,0
-273,-202,0,0,0,0,0,0,0,0,0,-1,951,1226,0,0
-266,-202,0,0,0,0,0,0,0,0,0,-1,958,1226,0,0
-259,-202,0,0,0,0,0,0,0,0,0,-1,965,1226,0,0
-252,-202,0,0,0,0,0,0,0,0,0,-1,972,1226,0,0
-245,-202,0,0,0,0,0,0,0,0,0,-1,979,1226,0,0
-238,-202,0,0,0,0,0,0,0,0,0,-1,986,1226,0,0
-231,-202,0,0,0,0,0,0,0,0,0,-1,993,1226,0,0
-224,-202,0,0,0,0,0,0,0,0,0,-1,1000,1226,0,0
-217,-202,0,0,0,0,0,0,0,0,0,-1,1007,1226,0,0
-210,-202,0,0,0,0,0,0,0,0,0,-1,1014,1226,0,0
-203,-202,0,0,0,0,0,0,0,0,0,-1,1021,1226,0,0
-196,-202,0,0,0,0,0,0,0,0,0,-1,1028,1226,0,0
-189,-202,0,0,0,0,0,0,0,0,0,-1,1035,1226,0,0
-182,-202,0,0,0,0,0,0,0,0,0,-1,1042,1226,0,0
-175,-202,0,0,0,0,0,0,0,0,0,-1,1049,1226,0,0
-168,-202,0,0,0,0,0,0,0,0,0,-1,1056,1226,0,0
-161,-202,0,0,0,0,0,0,0,0,0,-1,1063,1226,0,0
-154,-202,0,0,0,0,0,0,0,0,0,-1,1070,1226,0,0
-147,-202,0,0,0,0,0,0,0,0,0,-1,1077,1226,0,0
-140,-202,0,0,0,0,0,0,0,0,0,-1,1084,1226,0,0
-133,-202,0,0,0,0,0,0,0,0,0,-1,1091,1226,0,0
-126,-202,0,0,0,0,0,0,0,0,0,-1,1098,1226,0,0
-119,-202,0,0,0,0,0,0,0,0,0,-1,1105,1226,0,0
-112,-202,0,0,0,0,0,0,0,0,0,-1,1112,1226,0,0
-105,-202,0,0,0,0,0,0,0,0,0,-1,1119,1226,0,0
-98,-202,0,0,0,0,0,0,0,0,0,-1,1126,1226,0,0
-91,-202,0,0,0,0,0,0,0,0,0,-1,1133,1226,0,0
-84,-202,0,0,0,0,0,0,0,0,0,-1,1140,1226,0,0
-77,-202,0,0,0,0,0,0,0,0,0,-1,1147,1226,0,0
-70,-202,0,0,0,0,0,0,0,0,0,-1,1154,1226,0,0
-63,-202,0,0,0,0,0,0,0,0,0,-1,1161,1226,0,0
-56,-202,0,0,0,0,0,0,0,0,0,-1,1168,1226,0,0
-49,-202,0,0,0,0,0,0,0,0,0,-1,1175,1226,0,0
-42,-202,0,0,0,0,0,0,0,0,0,-1,1182,1226,0,0
-35,-202,0,0,0,0,0,0,0,0,0,-1,1189,1226,0,0
-28,-202,0,0,0,0,0,0,0,0,0,-1,1196,1226,0,0
-21,-202,0,0,0,0,0,0,0,0,0,-1,1203,1226,0,0
-14,-202,0,0,0,0,0,0,0,0,0,-1,1210,1226,0,0
-7,-202,0,0,0,0,0,0,0,0,0,-1,1217,1226,0,0
0,-202,0,0,0,0,0,0,0,0,0,-1,1224,1226,0,0
7,-202,0,0,0,0,0,0,0,0,0,-1,1231,1226,0,0
14,-202,0,0,0,0,0,0,0,0,0,-1,1238,1226,0,0
21,-202,0,0,0,0,0,0,0,0,0,-1,1245,1226,0,0
28,-202,0,0,0,0,0,0,0,0,0,-1,1252,1226,0,0
35,-202,0,0,0,0,0,0,0,0,0,-1,1259,1226,0,0
42,-202,0,0,0,0,0,0,0,0,0,-1,1266,1226,0,0
49,-202,0,0,0,0,0,0,0,0,0,-1,1273,1226,0,0
56,-202,0,0,0,0,0,0,0,0,0,-1,1280,1226,0,0
63,-202,0,0,0,0,0,0,0,0,0,-1,1287,1226,0,0
70,-202,0,0,0,0,0,0,0,0,0,-1,1294,1226,0,0
77,-202,0,0,0,0,0,0,0,0,0,-1,1301,1226,0,0
84,-202,0,0,0,0,0,0,0,0,0,-1,1308,1226,0,0
91,-202,0,0,0,0,0,0,0,0,0,-1,1315,1226,0,0
98,-202,0,0,0,0,0,0,0,0,0,-1,1322,1226,0,0
105,-202,0,0,0,0,0,0,0,0,0,-1,1329,1226,0,0
112,-202,0,0,0,0,0,0,0,0,0,-1,1336,1226,0,0
119,-202,0,0,0,0,0,0,0,0,0,-1,1343,1226,0,0
126,-202,0,0,0,0,0,0,0,0,0,-1,1350,1226,0,0
133,-202,0,0,0,0,0,0,0,0,0,-1,1357,1226,0,0
140,-202,0,0,0,0,0,0,0,0,0,-1,1364,1226,0,0
147,-202,0,0,0,0,0,0,0,0,0,-1,1371,1226,0,0
154,-202,0,0,0,0,0,0,0,0,0,-1,1378,1226,0,0
161,-202,0,0,0,0,0,0,0,0,0,-1,1385,1226,0,0
168,-202,0,0,0,0,0,0,0,0,0,-1,1392,1226,0,0
175,-202,0,0,0,0,0,0,0,0,0,-1,1399,1226,0,0
182,-202,0,0,0,0,0,0,0,0,0,-1,1406,1226,0,0
189,-202,0,0,0,0,0,0,0,0,0,-1,1413,1226,0,0
196,-202,0,0,0,0,0,0,0,0,0,-1,1420,1226,0,0
203,-202,0,0,0,0,0,0,0,0,0,-1,1427,1226,0,0
210,-202,0,0,0,0,0,0,0,0,0,-1,1434,1226,0,0
217,-202,0,0,0,0,0,0,0,0,0,-1,1441,1226,0,0
224,-202,0,0,0,0,0,0,0,0,0,-1,1448,1226,0,0
231,-202,0,0,0,0,0,0,0,0,0,-1,1455,1226,0,0
238,-202,0,0,0,0,0,0,0,0,0,-1,1462,1226,0,0
245,-202,0,0,0,0,0,0,0,0,0,-1,1469,1226,0,0
252,-202,0,0,0,0,0,0,0,0,0,-1,1476,1226,0,0
259,-202,0,0,0,0,0,0,0,0,0,-1,1483,1226,0,0
266,-202,0,0,0,0,0,0,0,0,0,-1,1490,1226,0,0
273,-202,0,0,0,0,0,0,0,0,0,-1,1497,1226,0,0
280,-202,0,0,0,0,0,0,0,0,0,-1,1504,1226,0,0
287,-202,0,0,0,0,0,0,0,0,0,-1,1511,1226,0,0
294,-202,0,0,0,0,0,0,0,0,0,-1,1518,1226,0,0
301,-202,0,0,0,0,0,0,0,0,0,-1,1525,1226,0,0
308,-202,0,0,0,0,0,0,0,0,0,-1,1532,1226,0,0
315,-202,0,0,0,0,0,0,0,0,0,-1,1539,1226,0,0
322,-202,0,0,0,0,0,0,0,0,0,-1,1546,1226,0,0
329,-202,0,0,0,0,0,0,0,0,0,-1,1553,1226,0,0
336,-202,0,0,0,0,0,0,0,0,0,-1,1560,1226,0,0
343,-202,0,0,0,0,0,0,0,0,0,-1,1567,1226,0,0
350,-202,0,0,0,0,0,0,0,0,0,-1,1574,1226,0,0
357,-202,0,0,0,0,0,0,0,0,0,-1,1581,1226,0,0
364,-202,0,0,0,0,0,0,0,0,0,-1,1588,1226,0,0
371,-202,0,0,0,0,0,0,0,0,0,-1,1595,1226,0,0
378,-202,0,0,0,0,0,0,0,0,0,-1,1602,1226,0,0
385,-202,0,0,0,0,0,0,0,0,0,-1,1609,1226,0,0
392,-202,0,0,0,0,0,0,0,0,0,-1,1616,1226,0,0
399,-202,0,0,0,0,0,0,0,0,0,-1,1623,1226,0,0
406,-202,0,0,0,0,0,0,0,0,0,-1,1630,1226,0,0
413,-202,0,0,0,0,0,0,0,0,0,-1,1637,1226,0,0
420,-202,0,0,0,0,0,0,0,0,0,-1,1644,1226,0,0
427,-202,0,0,0,0,0,0,0,0,0,-1,1651,1226,0,0
434,-202,0,0,0,0,0,0,0,0,0,-1,1658,1226,0,0
441,-202,0,0,0,0,0,0,0,0,0,-1,1665,1226,0,0
448,-202,0,0,0,0,0,0,0,0,0,-1,1672,1226,0,0
455,-202,0,0,0,0,0,0,0,0,0,-1,1679,1226,0,0
462,-202,0,0,0,0,0,0,0,0,0,-1,1686,1226,0,0
469,-202,0,0,0,0,0,0,0,0,0,-1,1693,1226,0,0
476,-202,0,0,0,0,0,0,0,0,0,-1,1700,1226,0,0
483,-202,0,0,0,0,0,0,0,0,0,-1,1707,1226,0,0
490,-202,0,0,0,0,0,0,0,0,0,-1,1714,1226,0,0
497,-202,0,0,0,0,0,0,0,0,0,-1,1721,1226,0,0
504,-202,0,0,0,0,0,0,0,0,0,-1,1728,1226,0,0
511,-202,0,0,0,0,0,0,0,0,0,-1,1735,1226,0,0
518,-202,0,0,0,0,0,0,0,0,0,-1,1742,1226,0,0
525,-202,0,0,0,0,0,0,0,0,0,-1,1749,1226,0,0
532,-202,0,0,0,0,0,0,0,0,0,-1,1756,1226,0,0
539,-202,0,0,0,0,0,0,0,0,0,-1,1763,1226,0,0
546,-202,0,0,0,0,0,0,0,0,0,-1,1770,1226,0,0
553,-202,0,0,0,0,0,0,0,0,0,-1,1777,1226,0,0
560,-202,0,0,0,0,0,0,0,0,0,-1,1784,1226,0,0
567,-202,0,0,0,0,0,0,0,0,0,-1,1791,1226,0,0
574,-202,0,0,0,0,0,0,0,0,0,-1,1798,1226,0,0
581,-202,0,0,0,0,0,0,0,0,0,-1,1805,1226,0,0
588,-202,0,0,0,0,0,0,0,0,0,-1,1812,1226,0,0
595,-202,0,0,0,0,0,0,0,0,0,-1,1819,1226,0,0
602,-202,0,0,0,0,0,0,0,0,0,-1,1826,1226,0,0
609,-202,0,0,0,0,0,0,0,0,0,-1,1833,1226,0,0
616,-202,0,0,0,0,0,0,0,0,0,-1,1840,1226,0,0
623,-202,0,0,0,0,0,0,0,0,0,-1,1847,1226,0,0
630,-202,15.9797,2.17676,0.00397994,-0.0011625,0.000600075,0.00404903,-0.00123159,0.114639,0.00319014,0.0370865,1854,1226,15.9797,-2.17672
637,-202,16.1957,2.29285,0.00217553,0.00108403,-0.000138007,0.00219271,0.00106685,-0.123842,0.00126611,0.0345348,1861,1226,16.1957,-2.29288
644,-202,16.0981,2.22363,0.000242973,0.00270101,-0.000904067,0.00299771,-5.37295e-05,-1.25369,0.00201662,0.0329114,1868,1226,16.0982,-2.22367
651,-202,16.0378,2.27759,-0.00154096,0.00338608,-0.00113878,0.00363655,-0.00179143,-1.3543,0.00319363,0.0263189,1875,1226,16.0378,-2.2776
658,-202,16.0869,2.32544,-0.00285027,0.00349722,-0.00115096,0.00369947,-0.00305252,-1.39685,0.00390422,0.0197315,1882,1226,16.0869,-2.32544
665,-202,16.1135,2.31042,-0.00363471,0.00322902,-0.00101791,0.0033768,-0.00378249,-1.42663,0.00413563,0.0185219,1889,1226,16.1135,-2.31044
672,-202,16.0581,2.11694,-0.00413886,0.00277704,-0.000808892,0.00287039,-0.00423221,-1.4559,0.00412574,0.0425678,1896,1226,16.0581,-2.11691
679,-202,15.8438,1.52161,-0.00445597,0.00232921,-0.000503771,0.00236641,-0.00449317,-1.49709,0.00402333,0.049421,1903,1226,15.8438,-1.5216
686,-202,15.6599,1.2052,0,0,0,0,0,0,0,-1,1910,1226,15.66,-1.20522
693,-202,14.2074,3.56824,0,0,0,0,0,0,0,-1,1917,1226,14.2074,-3.56821
700,-202,14.312,3.87134,-0.00463552,0.000805047,0.000412985,0.000836218,-0.0046667,1.49546,0.00342408,0.0210983,1924,1226,14.312,-3.87133
707,-202,14.3353,3.7428,-0.0043208,0.000261761,0.00062354,0.000345089,-0.00440412,1.43795,0.00305761,0.018494,1931,1226,14.3354,-3.74277
714,-202,14.3711,3.6543,-0.00401506,-6.91685e-05,0.000740297,6.51486e-05,-0.00414937,1.39131,0.00278822,0.0159478,1938,1226,14.3711,-3.65424
721,-202,14.402,3.54858,-0.0033069,-0.000288838,0.000873742,-5.41371e-05,-0.0035416,1.30838,0.00234323,0.0129837,1945,1226,14.402,-3.54857
728,-202,14.4043,3.44763,-0.00224504,-0.000532287,0.000610107,-0.000337184,-0.00244015,1.26129,0.00152683,0.0106402,1952,1226,14.4043,-3.4476
735,-202,14.3865,3.33203,-0.00141486,-0.00049686,-0.000307942,-0.000403131,-0.00150859,-1.27533,0.000901897,0.0109538,1959,1226,14.3865,-3.33205
742,-202,14.3816,3.23865,-0.000596225,-0.000179583,-0.00169133,0.00131621,-0.00209202,-0.846674,0.00198466,0.0100702,1966,1226,14.3815,-3.23862
749,-202,14.3817,3.1366,-0.000306854,2.36556e-05,-0.00325184,0.00311444,-0.00339764,-0.810786,0.00376094,0.00992194,1973,1226,14.3817,-3.13656
756,-202,14.3728,3.02795,-0.000572012,6.06154e-05,-0.00470758,0.00446249,-0.00497389,-0.818944,0.00545076,0.0112059,1980,1226,14.3728,-3.02797
763,-202,14.3627,2.91016,-0.00123214,-2.31185e-05,-0.00662717,0.00602705,-0.00728231,-0.830881,0.00769555,0.0152392,1987,1226,14.3626,-2.91011
770,-202,14.5427,3.0033,-0.00259339,-0.000226172,-0.00885312,0.00752211,-0.0103417,-0.851851,0.0103564,0.0347066,1994,1226,14.5427,-3.00324
777,-202,14.7734,3.1167,0,0,0,0,0,0,0,-1,2001,1226,14.7734,-3.11674
784,-202,15.4744,2.54065,0,0,0,0,0,0,0,-1,2008,1226,15.4744,-2.54062
791,-202,13.9301,1.72119,0,0,0,0,0,0,0,-1,2015,1226,13.9301,-1.7212
798,-202,15.3864,2.09155,0,0,0,0,0,0,0,-1,2022,1226,15.3863,-2.09154
805,-202,0,0,0,0,0,0,0,0,0,-1,2029,1226,0,0
812,-202,0,0,0,0,0,0,0,0,0,-1,2036,1226,0,0
-700,-209,0,0,0,0,0,0,0,0,0,-1,524,1233,0,0
-693,-209,0,0,0,0,0,0,0,0,0,-1,531,1233,0,0
-686,-209,0,0,0,0,0,0,0,0,0,-1,538,1233,0,0
-679,-209,-7.7442,-2.28015,0.035982,0.0168282,0.049846,0.0771627,-0.0243526,0.69049,0.0611964,0.0493576,545,1233,-7.7442,2.28017
-672,-209,-7.78491,-1.5874,0.0333131,0.0211459,0.0425755,0.0702374,-0.0157784,0.714434,0.0528751,0.0480994,552,1233,-7.78493,1.58746
-665,-209,-7.75537,-0.920288,0.0298331,0.022113,0.0352449,0.0614286,-0.00948259,0.730855,0.0444517,0.044902,559,1233,-7.75537,0.920341
-658,-209,-7.7121,-0.251953,0.0261138,0.0211056,0.0284196,0.0521394,-0.00491995,0.741455,0.0365102,0.0464624,566,1233,-7.71211,0.251904
-651,-209,-7.64124,0.346313,0.0223055,0.0189787,0.0223122,0.0430162,-0.00173205,0.748191,0.0292719,0.047532,573,1233,-7.64122,-0.346311
-644,-209,-7.81555,0.637329,0.0185473,0.0162768,0.0170454,0.0344952,0.000328809,0.752147,0.022888,0.0485585,580,1233,-7.81558,-0.637342
-637,-209,-7.69891,0.592285,0.014951,0.0133682,0.0126312,0.0268155,0.00150363,0.754111,0.0173975,0.0453179,587,1233,-7.69892,-0.59227
-630,-209,-7.80048,0.685181,0.0112984,0.0104885,0.00898866,0.0198912,0.00189568,0.762885,0.0126763,0.0230853,594,1233,-7.80046,-0.685146
-623,-209,-7.85376,0.852783,0.0080541,0.00825756,0.00555917,0.0137159,0.00259573,0.794547,0.00841326,0.011451,601,1233,-7.85374,-0.852756
-616,-209,-7.84985,1.00513,0.00592849,0.00570428,0.00278738,0.00860601,0.00302675,0.7653,0.00504101,0.0114369,608,1233,-7.84983,-1.00518
-609,-209,-7.8313,1.11304,0.00435234,0.00344277,0.000919937,0.00492377,0.00287134,0.555833,0.00285582,0.0136827,615,1233,-7.83129,-1.11309
-602,-209,-7.8468,1.23694,0.00331204,0.00130202,-0.000489873,0.00342507,0.00118898,-0.226771,0.00200803,0.0161799,622,1233,-7.84679,-1.23699
-595,-209,-7.83649,1.37952,0.00229858,8.03885e-05,-0.000967851,0.0026615,-0.000282531,-0.358748,0.00187562,0.0114968,629,1233,-7.83647,-1.37946
-588,-209,-7.81689,1.52051,0.00138352,-0.000388049,-0.00137453,0.00213295,-0.00113748,-0.499174,0.00191712,0.0119081,636,1233,-7.81689,-1.52053
-581,-209,-7.82178,1.65271,0.00112201,-0.00050487,-0.00155683,0.0020651,-0.00144796,-0.544657,0.00203868,0.0110752,643,1233,-7.82181,-1.65271
-574,-209,-7.90399,1.73181,0.000805668,-0.000129836,-0.00174142,0.00214106,-0.00146523,-0.654193,0.00209425,0.0134057,650,1233,-7.90398,-1.73185
-567,-209,-7.99225,1.88794,0.000522591,0.000503944,-0.00196394,0.00247723,-0.0014507,-0.783025,0.00229346,0.0291755,657,1233,-7.99223,-1.88796
-560,-209,-8.08154,2.1355,0,0,0,0,0,0,0,-1,664,1233,-8.08154,-2.13552
-553,-209,-9.81824,0.56543,0,0,0,0,0,0,0,-1,671,1233,-9.81824,-0.565479
-546,-209,-9.92725,0.684448,0,0,0,0,0,0,0,-1,678,1233,-9.92727,-0.684486
-539,-209,-9.86896,0.602173,0,0,0,0,0,0,0,-1,685,1233,-9.86893,-0.60222
-532,-209,-9.74927,0.495728,-0.0041218,0.00630755,-0.00305953,0.00713883,-0.00495307,-1.3055,0.00701918,0.0316146,692,1233,-9.74929,-0.495733
-525,-209,-9.76007,0.498535,-0.00508069,0.00767669,-0.00328706,0.00847382,-0.00587783,-1.33288,0.00833099,0.033601,699,1233,-9.76004,-0.498534
-518,-209,-9.7558,0.494019,-0.00560898,0.0086606,-0.00356856,0.00950327,-0.00645165,-1.33891,0.00926757,0.042303,706,1233,-9.75577,-0.493998
-511,-209,-9.8952,0.477539,-0.00425562,0.00846058,-0.00379981,0.0095095,-0.00530455,-1.30146,0.00866699,0.042295,713,1233,-9.89522,-0.477569
-504,-209,0,0,0,0,0,0,0,0,0,-1,720,1233,0,0
-497,-209,0,0,0,0,0,0,0,0,0,-1,727,1233,0,0
-490,-209,0,0,0,0,0,0,0,0,0,-1,734,1233,0,0
-483,-209,0,0,0,0,0,0,0,0,0,-1,741,1233,0,0
-476,-209,0,0,0,0,0,0,0,0,0,-1,748,1233,0,0
-469,-209,0,0,0,0,0,0,0,0,0,-1,755,1233,0,0
-462,-209,0,0,0,0,0,0,0,0,0,-1,762,1233,0,0
-455,-209,0,0,0,0,0,0,0,0,0,-1,769,1233,0,0
-448,-209,0,0,0,0,0,0,0,0,0,-1,776,1233,0,0
-441,-209,0,0,0,0,0,0,0,0,0,-1,783,1233,0,0
-434,-209,0,0,0,0,0,0,0,0,0,-1,790,1233,0,0
-427,-209,0,0,0,0,0,0,0,0,0,-1,797,1233,0,0
-420,-209,0,0,0,0,0,0,0,0,0,-1,804,1233,0,0
-413,-209,0,0,0,0,0,0,0,0,0,-1,811,1233,0,0
-406,-209,0,0,0,0,0,0,0,0,0,-1,818,1233,0,0
-399,-209,0,0,0,0,0,0,0,0,0,-1,825,1233,0,0
-392,-209,0,0,0,0,0,0,0,0,0,-1,832,1233,0,0
-385,-209,0,0,0,0,0,0,0,0,0,-1,839,1233,0,0
-378,-209,0,0,0,0,0,0,0,0,0,-1,846,1233,0,0
-371,-209,0,0,0,0,0,0,0,0,0,-1,853,1233,0,0
-364,-209,0,0,0,0,0,0,0,0,0,-1,860,1233,0,0
-357,-209,0,0,0,0,0,0,0,0,0,-1,867,1233,0,0
-350,-209,0,0,0,0,0,0,0,0,0,-1,874,1233,0,0
-343,-209,0,0,0,0,0,0,0,0,0,-1,881,1233,0,0
-336,-209,0,0,0,0,0,0,0,0,0,-1,888,1233,0,0
-329,-209,0,0,0,0,0,0,0,0,0,-1,895,1233,0,0
-322,-209,0,0,0,0,0,0,0,0,0,-1,902,1233,0,0
-315,-209,0,0,0,0,0,0,0,0,0,-1,909,1233,0,0
-308,-209,0,0,0,0,0,0,0,0,0,-1,916,1233,0,0
-301,-209,0,0,0,0,0,0,0,0,0,-1,923,1233,0,0
-294,-209,0,0,0,0,0,0,0,0,0,-1,930,1233,0,0
-287,-209,0,0,0,0,0,0,0,0,0,-1,937,1233,0,0
-280,-209,0,0,0,0,0,0,0,0,0,-1,944,1233,0,0
-273,-209,0,0,0,0,0,0,0,0,0,-1,951,1233,0,0
-266,-209,0,0,0,0,0,0,0,0,0,-1,958,1233,0,0
-259,-209,0,0,0,0,0,0,0,0,0,-1,965,1233,0,0
-252,-209,0,0,0,0,0,0,0,0,0,-1,972,1233,0,0
-245,-209,0,0,0,0,0,0,0,0,0,-1,979,1233,0,0
-238,-209,0,0,0,0,0,0,0,0,0,-1,986,1233,0,0
-231,-209,0,0,0,0,0,0,0,0,0,-1,993,1233,0,0
-224,-209,0,0,0,0,0,0,0,0,0,-1,1000,1233,0,0
-217,-209,0,0,0,0,0,0,0,0,0,-1,1007,1233,0,0
-210,-209,0,0,0,0,0,0,0,0,0,-1,1014,1233,0,0
-203,-209,0,0,0,0,0,0,0,0,0,-1,1021,1233,0,0
-196,-209,0,0,0,0,0,0,0,0,0,-1,1028,1233,0,0
-189,-209,0,0,0,0,0,0,0,0,0,-1,1035,1233,0,0
-182,-209,0,0,0,0,0,0,0,0,0,-1,1042,1233,0,0
-175,-209,0,0,0,0,0,0,0,0,0,-1,1049,1233,0,0
-168,-209,0,0,0,0,0,0,0,0,0,-1,1056,1233,0,0
-161,-209,0,0,0,0,0,0,0,0,0,-1,1063,1233,0,0
-154,-209,0,0,0,0,0,0,0,0,0,-1,1070,1233,0,0
-147,-209,0,0,0,0,0,0,0,0,0,-1,1077,1233,0,0
-140,-209,0,0,0,0,0,0,0,0,0,-1,1084,1233,0,0
-133,-209,0,0,0,0,0,0,0,0,0,-1,1091,1233,0,0
-126,-209,0,0,0,0,0,0,0,0,0,-1,1098,1233,0,0
-119,-209,0,0,0,0,0,0,0,0,0,-1,1105,1233,0,0
-112,-209,0,0,0,0,0,0,0,0,0,-1,1112,1233,0,0
-105,-209,0,0,0,0,0,0,0,0,0,-1,1119,1233,0,0
-98,-209,0,0,0,0,0,0,0,0,0,-1,1126,1233,0,0
-91,-209,0,0,0,0,0,0,0,0,0,-1,1133,1233,0,0
-84,-209,0,0,0,0,0,0,0,0,0,-1,1140,1233,0,0
-77,-209,0,0,0,0,0,0,0,0,0,-1,1147,1233,0,0
-70,-209,0,0,0,0,0,0,0,0,0,-1,1154,1233,0,0
-63,-209,0,0,0,0,0,0,0,0,0,-1,1161,1233,0,0
-56,-209,0,0,0,0,0,0,0,0,0,-1,1168,1233,0,0
-49,-209,0,0,0,0,0,0,0,0,0,-1,1175,1233,0,0
-42,-209,0,0,0,0,0,0,0,0,0,-1,1182,1233,0,0
-35,-209,0,0,0,0,0,0,0,0,0,-1,1189,1233,0,0
-28,-209,0,0,0,0,0,0,0,0,0,-1,1196,1233,0,0
-21,-209,0,0,0,0,0,0,0,0,0,-1,1203,1233,0,0
-14,-209,0,0,0,0,0,0,0,0,0,-1,1210,1233,0,0
-7,-209,0,0,0,0,0,0,0,0,0,-1,1217,1233,0,0
0,-209,0,0,0,0,0,0,0,0,0,-1,1224,1233,0,0
7,-209,0,0,0,0,0,0,0,0,0,-1,1231,1233,0,0
14,-209,0,0,0,0,0,0,0,0,0,-1,1238,1233,0,0
21,-209,0,0,0,0,0,0,0,0,0,-1,1245,1233,0,0
28,-209,0,0,0,0,0,0,0,0,0,-1,1252,1233,0,0
35,-209,0,0,0,0,0,0,0,0,0,-1,1259,1233,0,0
42,-209,0,0,0,0,0,0,0,0,0,-1,1266,1233,0,0
49,-209,0,0,0,0,0,0,0,0,0,-1,1273,1233,0,0
56,-209,0,0,0,0,0,0,0,0,0,-1,1280,1233,0,0
63,-209,0,0,0,0,0,0,0,0,0,-1,1287,1233,0,0
70,-209,0,0,0,0,0,0,0,0,0,-1,1294,1233,0,0
77,-209,0,0,0,0,0,0,0,0,0,-1,1301,1233,0,0
84,-209,0,0,0,0,0,0,0,0,0,-1,1308,1233,0,0
91,-209,0,0,0,0,0,0,0,0,0,-1,1315,1233,0,0
98,-209,0,0,0,0,0,0,0,0,0,-1,1322,1233,0,0
105,-209,0,0,0,0,0,0,0,0,0,-1,1329,1233,0,0
112,-209,0,0,0,0,0,0,0,0,0,-1,1336,1233,0,0
119,-209,0,0,0,0,0,0,0,0,0,-1,1343,1233,0,0
126,-209,0,0,0,0,0,0,0,0,0,-1,1350,1233,0,0
133,-209,0,0,0,0,0,0,0,0,0,-1,1357,1233,0,0
140,-209,0,0,0,0,0,0,0,0,0,-1,1364,1233,0,0
147,-209,0,0,0,0,0,0,0,0,0,-1,1371,1233,0,0
154,-209,0,0,0,0,0,0,0,0,0,-1,1378,1233,0,0
161,-209,0,0,0,0,0,0,0,0,0,-1,1385,1233,0,0
168,-209,0,0,0,0,0,0,0,0,0,-1,1392,1233,0,0
175,-209,0,0,0,0,0,0,0,0,0,-1,1399,1233,0,0
182,-209,0,0,0,0,0,0,0,0,0,-1,1406,1233,0,0
189,-209,0,0,0,0,0,0,0,0,0,-1,1413,1233,0,0
196,-209,0,0,0,0,0,0,0,0,0,-1,1420,1233,0,0
203,-209,0,0,0,0,0,0,0,0,0,-1,1427,1233,0,0
210,-209,0,0,0,0,0,0,0,0,0,-1,1434,1233,0,0
217,-209,0,0,0,0,0,0,0,0,0,-1,1441,1233,0,0
224,-209,0,0,0,0,0,0,0,0,0,-1,1448,1233,0,0
231,-209,0,0,0,0,0,0,0,0,0,-1,1455,1233,0,0
238,-209,0,0,0,0,0,0,0,0,0,-1,1462,1233,0,0
245,-209,0,0,0,0,0,0,0,0,0,-1,1469,1233,0,0
252,-209,0,0,0,0,0,0,0,0,0,-1,1476,1233,0,0
259,-209,0,0,0,0,0,0,0,0,0,-1,1483,1233,0,0
266,-209,0,0,0,0,0,0,0,0,0,-1,1490,1233,0,0
273,-209,0,0,0,0,0,0,0,0,0,-1,1497,1233,0,0
280,-209,0,0,0,0,0,0,0,0,0,-1,1504,1233,0,0
287,-209,0,0,0,0,0,0,0,0,0,-1,1511,1233,0,0
294,-209,0,0,0,0,0,0,0,0,0,-1,1518,1233,0,0
301,-209,0,0,0,0,0,0,0,0,0,-1,1525,1233,0,0
308,-209,0,0,0,0,0,0,0,0,0,-1,1532,1233,0,0
315,-209,0,0,0,0,0,0,0,0,0,-1,1539,1233,0,0
322,-209,0,0,0,0,0,0,0,0,0,-1,1546,1233,0,0
329,-209,0,0,0,0,0,0,0,0,0,-1,1553,1233,0,0
336,-209,0,0,0,0,0,0,0,0,0,-1,1560,1233,0,0
343,-209,0,0,0,0,0,0,0,0,0,-1,1567,1233,0,0
350,-209,0,0,0,0,0,0,0,0,0,-1,1574,1233,0,0
357,-209,0,0,0,0,0,0,0,0,0,-1,1581,1233,0,0
364,-209,0,0,0,0,0,0,0,0,0,-1,1588,1233,0,0
371,-209,0,0,0,0,0,0,0,0,0,-1,1595,1233,0,0
378,-209,0,0,0,0,0,0,0,0,0,-1,1602,1233,0,0
385,-209,0,0,0,0,0,0,0,0,0,-1,1609,1233,0,0
392,-209,0,0,0,0,0,0,0,0,0,-1,1616,1233,0,0
399,-209,0,0,0,0,0,0,0,0,0,-1,1623,1233,0,0
406,-209,0,0,0,0,0,0,0,0,0,-1,1630,1233,0,0
413,-209,0,0,0,0,0,0,0,0,0,-1,1637,1233,0,0
420,-209,0,0,0,0,0,0,0,0,0,-1,1644,1233,0,0
427,-209,0,0,0,0,0,0,0,0,0,-1,1651,1233,0,0
434,-209,0,0,0,0,0,0,0,0,0,-1,1658,1233,0,0
441,-209,0,0,0,0,0,0,0,0,0,-1,1665,1233,0,0
448,-209,0,0,0,0,0,0,0,0,0,-1,1672,1233,0,0
455,-209,0,0,0,0,0,0,0,0,0,-1,1679,1233,0,0
462,-209,0,0,0,0,0,0,0,0,0,-1,1686,1233,0,0
469,-209,0,0,0,0,0,0,0,0,0,-1,1693,1233,0,0
476,-209,0,0,0,0,0,0,0,0,0,-1,1700,1233,0,0
483,-209,0,0,0,0,0,0,0,0,0,-1,1707,1233,0,0
490,-209,0,0,0,0,0,0,0,0,0,-1,1714,1233,0,0
497,-209,0,0,0,0,0,0,0,0,0,-1,1721,1233,0,0
504,-209,0,0,0,0,0,0,0,0,0,-1,1728,1233,0,0
511,-209,0,0,0,0,0,0,0,0,0,-1,1735,1233,0,0
518,-209,0,0,0,0,0,0,0,0,0,-1,1742,1233,0,0
525,-209,0,0,0,0,0,0,0,0,0,-1,1749,1233,0,0
532,-209,0,0,0,0,0,0,0,0,0,-1,1756,1233,0,0
539,-209,0,0,0,0,0,0,0,0,0,-1,1763,1233,0,0
546,-209,0,0,0,0,0,0,0,0,0,-1,1770,1233,0,0
553,-209,0,0,0,0,0,0,0,0,0,-1,1777,1233,0,0
560,-209,0,0,0,0,0,0,0,0,0,-1,1784,1233,0,0
567,-209,0,0,0,0,0,0,0,0,0,-1,1791,1233,0,0
574,-209,0,0,0,0,0,0,0,0,0,-1,1798,1233,0,0
581,-209,0,0,0,0,0,0,0,0,0,-1,1805,1233,0,0
588,-209,0,0,0,0,0,0,0,0,0,-1,1812,1233,0,0
595,-209,0,0,0,0,0,0,0,0,0,-1,1819,1233,0,0
602,-209,0,0,0,0,0,0,0,0,0,-1,1826,1233,0,0
609,-209,0,0,0,0,0,0,0,0,0,-1,1833,1233,0,0
616,-209,0,0,0,0,0,0,0,0,0,-1,1840,1233,0,0
623,-209,15.962,2.23682,0.00365492,-0.00232738,0.000214836,0.00366263,-0.00233508,0.0358504,0.00349094,0.0335546,1847,1233,15.9621,-2.23677
630,-209,15.9834,2.1842,0.00234058,0.000212904,0.000347607,0.00239593,0.000157554,0.157906,0.00154744,0.0348016,1854,1233,15.9834,-2.18415
637,-209,16.077,2.23621,0.00071778,0.00281947,-0.000522002,0.00294198,0.00059527,-1.34028,0.00179609,0.0338844,1861,1233,16.077,-2.23623
644,-209,16.054,2.26233,-0.00102203,0.00430963,-0.0011604,0.00455124,-0.00126364,-1.36552,0.00353155,0.029997,1868,1233,16.0539,-2.26239
651,-209,16.0468,2.25366,-0.00250487,0.0046944,-0.00129955,0.0049218,-0.00273227,-1.39757,0.00447895,0.0241387,1875,1233,16.0468,-2.25363
658,-209,16.0732,2.30652,-0.00348795,0.00450074,-0.00126419,0.00469602,-0.00368323,-1.41754,0.00484953,0.0186339,1882,1233,16.0733,-2.30649
665,-209,16.1241,2.323,-0.00401143,0.003979,-0.00110127,0.00412801,-0.00416043,-1.43631,0.00478534,0.029902,1889,1233,16.1241,-2.32302
672,-209,15.8771,1.88025,-0.00430771,0.00333501,-0.000895628,0.00343856,-0.00441127,-1.45569,0.00454368,0.0477081,1896,1233,15.8771,-1.88024
679,-209,15.5172,4.68079,0,0,0,0,0,0,0,-1,1903,1233,15.5172,-4.68075
686,-209,15.0729,4.21729,0,0,0,0,0,0,0,-1,1910,1233,15.0729,-4.21726
693,-209,14.4507,4.02148,0,0,0,0,0,0,0,-1,1917,1233,14.4507,-4.02152
700,-209,14.2329,3.9209,-0.00436917,0.000803781,0.000313459,0.000822706,-0.0043881,1.51049,0.0032347,0.0185672,1924,1233,14.2329,-3.92092
707,-209,14.2378,3.76086,-0.00398429,0.000114477,0.000557974,0.000189077,-0.00405889,1.43789,0.0027711,0.0159385,1931,1233,14.2377,-3.76084
714,-209,14.2723,3.66797,-0.00359542,-0.000152278,0.000605499,-4.89014e-05,-0.0036988,1.4017,0.00244973,0.0124577,1938,1233,14.2723,-3.66795
721,-209,14.2999,3.56006,-0.00286054,-0.000223721,0.000671346,-6.26344e-05,-0.00302163,1.3353,0.00199387,0.0124701,1945,1233,14.3,-3.56009
728,-209,14.2965,3.45154,-0.00187531,-0.000341533,0.000284308,-0.000290529,-0.00192631,1.39329,0.00119916,0.0123391,1952,1233,14.2965,-3.45158
735,-209,14.2858,3.33533,-0.00122146,-0.000128727,-0.000801652,0.000295042,-0.00164523,-1.08452,0.00120724,0.013133,1959,1233,14.2857,-3.3353
742,-209,14.2795,3.23547,-0.000609544,0.000307046,-0.00234005,0.00223326,-0.00253575,-0.882099,0.00275523,0.0105487,1966,1233,14.2795,-3.23548
749,-209,14.2788,3.13354,-0.000524962,0.000633334,-0.00414284,0.00423731,-0.00412894,-0.854846,0.00483039,0.0088959,1973,1233,14.2788,-3.13355
756,-209,14.2662,3.02539,-0.000980232,0.000832629,-0.0060602,0.00605381,-0.00620141,-0.859633,0.00707573,0.0102849,1980,1233,14.2662,-3.02543
763,-209,14.2593,2.92639,-0.00185959,0.000932478,-0.00857348,0.00822284,-0.00914995,-0.866106,0.0100349,0.0165783,1987,1233,14.2593,-2.92635
770,-209,14.5884,3.11902,-0.00347306,0.000942753,-0.0116256,0.0105683,-0.0130986,-0.879239,0.0136901,0.0377805,1994,1233,14.5884,-3.11907
777,-209,14.9553,3.29065,0,0,0,0,0,0,0,-1,2001,1233,14.9553,-3.29062
784,-209,13.8086,1.78223,0,0,0,0,0,0,0,-1,2008,1233,13.8086,-1.78225
791,-209,13.6603,1.33423,0,0,0,0,0,0,0,-1,2015,1233,13.6602,-1.33425
798,-209,13.5704,0.925903,0,0,0,0,0,0,0,-1,2022,1233,13.5704,-0.925939
805,-209,0,0,0,0,0,0,0,0,0,-1,2029,1233,0,0
812,-209,0,0,0,0,0,0,0,0,0,-1,2036,1233,0,0
-700,-216,0,0,0,0,0,0,0,0,0,-1,524,1240,0,0
-693,-216,0,0,0,0,0,0,0,0,0,-1,531,1240,0,0
-686,-216,0,0,0,0,0,0,0,0,0,-1,538,1240,0,0
-679,-216,-7.69904,-1.65515,0.0181243,0.018571,0.0366645,0.0550128,-0.0183175,0.788444,0.0440688,0.0473778,545,1240,-7.69905,1.65515
-672,-216,-7.8089,-1.3252,0.0213359,0.0240494,0.0318977,0.0546192,-0.00923387,0.806653,0.039849,0.046621,552,1240,-7.80888,1.3252
-665,-216,-7.95148,-0.847412,0.0220648,0.0254233,0.0266699,0.0504668,-0.00297864,0.816839,0.0346801,0.0481963,559,1240,-7.95149,0.847457
-658,-216,-8.10986,-0.35437,0.0213576,0.0243865,0.0216452,0.0445702,0.0011739,0.820325,0.02933,0.0493257,566,1240,-8.10983,0.354311
-651,-216,-7.51062,0.356079,0,0,0,0,0,0,0,-1,573,1240,-7.51062,-0.356135
-644,-216,-7.98962,1.00122,0,0,0,0,0,0,0,-1,580,1240,-7.98962,-1.00125
-637,-216,-7.55017,0.49585,0,0,0,0,0,0,0,-1,587,1240,-7.55019,-0.495849
-630,-216,-7.71484,0.53772,0.0116299,0.0122136,0.00690713,0.018835,0.00500844,0.806511,0.0112647,0.0294465,594,1240,-7.71487,-0.537714
-623,-216,-7.70966,0.82251,0.00897429,0.00974896,0.00440288,0.0137815,0.00494174,0.829272,0.00806215,0.0128988,601,1240,-7.70966,-0.822501
-616,-216,-7.72809,1.0105,0.00696346,0.00703576,0.00222935,0.00922926,0.00476997,0.793505,0.00532952,0.0131421,608,1240,-7.72811,-1.01053
-609,-216,-7.72742,1.12427,0.0053266,0.00422037,0.000797203,0.00574378,0.00380319,0.482114,0.00337379,0.0130282,615,1240,-7.72741,-1.1243
-602,-216,-7.70575,1.22791,0.00421273,0.00176742,-0.000294151,0.00424761,0.00173254,-0.118049,0.00246619,0.0133936,622,1240,-7.70577,-1.22785
-595,-216,-7.70123,1.3457,0.00293971,0.000249809,-0.000505163,0.00303145,0.000158069,-0.179648,0.00197039,0.0180759,629,1240,-7.70124,-1.34573
-588,-216,-7.65906,1.49683,0.00180787,-0.000271641,-0.000801792,0.00208111,-0.000544883,-0.328446,0.00160026,0.0189305,636,1240,-7.65904,-1.49682
-581,-216,-7.66632,1.66504,0.00152574,-0.000393125,-0.000934382,0.00190556,-0.000772938,-0.386085,0.00159185,0.0165909,643,1240,-7.66633,-1.66499
-574,-216,-7.71942,1.82129,0.000993436,0.000144043,-0.00119955,0.00184125,-0.000703774,-0.615261,0.0015175,0.013966,650,1240,-7.7194,-1.82125
-567,-216,-7.73975,2.0072,0.000383818,0.00108352,-0.00159934,0.00237082,-0.00090349,-0.893075,0.00195268,0.0237127,657,1240,-7.73976,-2.00718
-560,-216,-7.5379,2.40979,-0.000473191,0.00233838,-0.001975,0.00335682,-0.00149163,-1.0947,0.00286747,0.0467569,664,1240,-7.53792,-2.40981
-553,-216,-7.35681,2.76025,0,0,0,0,0,0,0,-1,671,1240,-7.35682,-2.7603
-546,-216,-9.73566,0.56189,0,0,0,0,0,0,0,-1,678,1240,-9.73565,-0.561908
-539,-216,-9.68402,0.522461,-0.00466947,0.00680213,-0.0030928,0.00758284,-0.00545017,-1.32354,0.00755812,0.0407564,685,1240,-9.68402,-0.522492
-532,-216,-9.70709,0.523193,-0.00642327,0.00867576,-0.00356782,0.00947636,-0.00722388,-1.35006,0.00967108,0.040914,692,1240,-9.7071,-0.523162
-525,-216,-9.77258,0.567383,-0.00811816,0.0105578,-0.00398491,0.0113726,-0.00893288,-1.36912,0.0117515,0.0409254,699,1240,-9.77256,-0.567434
-518,-216,-9.78113,0.576172,-0.00955388,0.0121169,-0.00431285,0.0129437,-0.0103807,-1.38139,0.0134934,0.0428237,706,1240,-9.7811,-0.576133
-511,-216,-9.73035,0.365723,-0.00962299,0.0125264,-0.00431693,0.0133381,-0.0104346,-1.38495,0.0137593,0.0422213,713,1240,-9.73033,-0.365685
-504,-216,-9.76312,0.411621,-0.00633679,0.0111193,-0.00280874,0.0115601,-0.00677759,-1.41513,0.0107066,0.0405758,720,1240,-9.76312,-0.411637
-497,-216,0,0,0,0,0,0,0,0,0,-1,727,1240,0,0
-490,-216,0,0,0,0,0,0,0,0,0,-1,734,1240,0,0
-483,-216,0,0,0,0,0,0,0,0,0,-1,741,1240,0,0
-476,-216,0,0,0,0,0,0,0,0,0,-1,748,1240,0,0
-469,-216,0,0,0,0,0,0,0,0,0,-1,755,1240,0,0
-462,-216,0,0,0,0,0,0,0,0,0,-1,762,1240,0,0
-455,-216,0,0,0,0,0,0,0,0,0,-1,769,1240,0,0
-448,-216,0,0,0,0,0,0,0,0,0,-1,776,1240,0,0
-441,-216,0,0,0,0,0,0,0,0,0,-1,783,1240,0,0
-434,-216,0,0,0,0,0,0,0,0,0,-1,790,1240,0,0
-427,-216,0,0,0,0,0,0,0,0,0,-1,797,1240,0,0
-420,-216,0,0,0,0,0,0,0,0,0,-1,804,1240,0,0
-413,-216,0,0,0,0,0,0,0,0,0,-1,811,1240,0,0
-406,-216,0,0,0,0,0,0,0,0,0,-1,818,1240,0,0
-399,-216,0,0,0,0,0,0,0,0,0,-1,825,1240,0,0
-392,-216,0,0,0,0,0,0,0,0,0,-1,832,1240,0,0
-385,-216,0,0,0,0,0,0,0,0,0,-1,839,1240,0,0
-378,-216,0,0,0,0,0,0,0,0,0,-1,846,1240,0,0
-371,-216,0,0,0,0,0,0,0,0,0,-1,853,1240,0,0
-364,-216,0,0,0,0,0,0,0,0,0,-1,860,1240,0,0
-357,-216,0,0,0,0,0,0,0,0,0,-1,867,1240,0,0
-350,-216,0,0,0,0,0,0,0,0,0,-1,874,1240,0,0
-343,-216,0,0,0,0,0,0,0,0,0,-1,881,1240,0,0
-336,-216,0,0,0,0,0,0,0,0,0,-1,888,1240,0,0
-329,-216,0,0,0,0,0,0,0,0,0,-1,895,1240,0,0
-322,-216,0,0,0,0,0,0,0,0,0,-1,902,1240,0,0
-315,-216,0,0,0,0,0,0,0,0,0,-1,909,1240,0,0
-308,-216,0,0,0,0,0,0,0,0,0,-1,916,1240,0,0
-301,-216,0,0,0,0,0,0,0,0,0,-1,923,1240,0,0
-294,-216,0,0,0,0,0,0,0,0,0,-1,930,1240,0,0
-287,-216,0,0,0,0,0,0,0,0,0,-1,937,1240,0,0
-280,-216,0,0,0,0,0,0,0,0,0,-1,944,1240,0,0
-273,-216,0,0,0,0,0,0,0,0,0,-1,951,1240,0,0
-266,-216,0,0,0,0,0,0,0,0,0,-1,958,1240,0,0
-259,-216,0,0,0,0,0,0,0,0,0,-1,965,1240,0,0
-252,-216,0,0,0,0,0,0,0,0,0,-1,972,1240,0,0
-245,-216,0,0,0,0,0,0,0,0,0,-1,979,1240,0,0
-238,-216,0,0,0,0,0,0,0,0,0,-1,986,1240,0,0
-231,-216,0,0,0,0,0,0,0,0,0,-1,993,1240,0,0
-224,-216,0,0,0,0,0,0,0,0,0,-1,1000,1240,0,0
-217,-216,0,0,0,0,0,0,0,0,0,-1,1007,1240,0,0
-210,-216,0,0,0,0,0,0,0,0,0,-1,1014,1240,0,0
-203,-216,0,0,0,0,0,0,0,0,0,-1,1021,1240,0,0
-196,-216,0,0,0,0,0,0,0,0,0,-1,1028,1240,0,0
-189,-216,0,0,0,0,0,0,0,0,0,-1,1035,1240,0,0
-182,-216,0,0,0,0,0,0,0,0,0,-1,1042,1240,0,0
-175,-216,0,0,0,0,0,0,0,0,0,-1,1049,1240,0,0
-168,-216,0,0,0,0,0,0,0,0,0,-1,1056,1240,0,0
-161,-216,0,0,0,0,0,0,0,0,0,-1,1063,1240,0,0
-154,-216,0,0,0,0,0,0,0,0,0,-1,1070,1240,0,0
-147,-216,0,0,0,0,0,0,0,0,0,-1,1077,1240,0,0
-140,-216,0,0,0,0,0,0,0,0,0,-1,1084,1240,0,0
-133,-216,0,0,0,0,0,0,0,0,0,-1,1091,1240,0,0
-126,-216,0,0,0,0,0,0,0,0,0,-1,1098,1240,0,0
-119,-216,0,0,0,0,0,0,0,0,0,-1,1105,1240,0,0
-112,-216,0,0,0,0,0,0,0,0,0,-1,1112,1240,0,0
-105,-216,0,0,0,0,0,0,0,0,0,-1,1119,1240,0,0
-98,-216,0,0,0,0,0,0,0,0,0,-1,1126,1240,0,0
-91,-216,0,0,0,0,0,0,0,0,0,-1,1133,1240,0,0
-84,-216,0,0,0,0,0,0,0,0,0,-1,1140,1240,0,0
-77,-216,0,0,0,0,0,0,0,0,0,-1,1147,1240,0,0
-70,-216,0,0,0,0,0,0,0,0,0,-1,1154,1240,0,0
-63,-216,0,0,0,0,0,0,0,0,0,-1,1161,1240,0,0
-56,-216,0,0,0,0,0,0,0,0,0,-1,1168,1240,0,0
-49,-216,0,0,0,0,0,0,0,0,0,-1,1175,1240,0,0
-42,-216,0,0,0,0,0,0,0,0,0,-1,1182,1240,0,0
-35,-216,0,0,0,0,0,0,0,0,0,-1,1189,1240,0,0
-28,-216,0,0,0,0,0,0,0,0,0,-1,1196,1240,0,0
-21,-216,0,0,0,0,0,0,0,0,0,-1,1203,1240,0,0
-14,-216,0,0,0,0,0,0,0,0,0,-1,1210,1240,0,0
-7,-216,0,0,0,0,0,0,0,0,0,-1,1217,1240,0,0
0,-216,0,0,0,0,0,0,0,0,0,-1,1224,1240,0,0
7,-216,0,0,0,0,0,0,0,0,0,-1,1231,1240,0,0
14,-216,0,0,0,0,0,0,0,0,0,-1,1238,1240,0,0
21,-216,0,0,0,0,0,0,0,0,0,-1,1245,1240,0,0
28,-216,0,0,0,0,0,0,0,0,0,-1,1252,1240,0,0
35,-216,0,0,0,0,0,0,0,0,0,-1,1259,1240,0,0
42,-216,0,0,0,0,0,0,0,0,0,-1,1266,1240,0,0
49,-216,0,0,0,0,0,0,0,0,0,-1,1273,1240,0,0
56,-216,0,0,0,0,0,0,0,0,0,-1,1280,1240,0,0
63,-216,0,0,0,0,0,0,0,0,0,-1,1287,1240,0,0
70,-216,0,0,0,0,0,0,0,0,0,-1,1294,1240,0,0
77,-216,0,0,0,0,0,0,0,0,0,-1,1301,1240,0,0
84,-216,0,0,0,0,0,0,0,0,0,-1,1308,1240,0,0
91,-216,0,0,0,0,0,0,0,0,0,-1,1315,1240,0,0
98,-216,0,0,0,0,0,0,0,0,0,-1,1322,1240,0,0
105,-216,0,0,0,0,0,0,0,0,0,-1,1329,1240,0,0
112,-216,0,0,0,0,0,0,0,0,0,-1,1336,1240,0,0
119,-216,0,0,0,0,0,0,0,0,0,-1,1343,1240,0,0
126,-216,0,0,0,0,0,0,0,0,0,-1,1350,1240,0,0
133,-216,0,0,0,0,0,0,0,0,0,-1,1357,1240,0,0
140,-216,0,0,0,0,0,0,0,0,0,-1,1364,1240,0,0
147,-216,0,0,0,0,0,0,0,0,0,-1,1371,1240,0,0
154,-216,0,0,0,0,0,0,0,0,0,-1,1378,1240,0,0
161,-216,0,0,0,0,0,0,0,0,0,-1,1385,1240,0,0
168,-216,0,0,0,0,0,0,0,0,0,-1,1392,1240,0,0
175,-216,0,0,0,0,0,0,0,0,0,-1,1399,1240,0,0
182,-216,0,0,0,0,0,0,0,0,0,-1,1406,1240,0,0
189,-216,0,0,0,0,0,0,0,0,0,-1,1413,1240,0,0
196,-216,0,0,0,0,0,0,0,0,0,-1,1420,1240,0,0
203,-216,0,0,0,0,0,0,0,0,0,-1,1427,1240,0,0
210,-216,0,0,0,0,0,0,0,0,0,-1,1434,1240,0,0
217,-216,0,0,0,0,0,0,0,0,0,-1,1441,1240,0,0
224,-216,0,0,0,0,0,0,0,0,0,-1,1448,1240,0,0
231,-216,0,0,0,0,0,0,0,0,0,-1,1455,1240,0,0
238,-216,0,0,0,0,0,0,0,0,0,-1,1462,1240,0,0
245,-216,0,0,0,0,0,0,0,0,0,-1,1469,1240,0,0
252,-216,0,0,0,0,0,0,0,0,0,-1,1476,1240,0,0
259,-216,0,0,0,0,0,0,0,0,0,-1,1483,1240,0,0
266,-216,0,0,0,0,0,0,0,0,0,-1,1490,1240,0,0
273,-216,0,0,0,0,0,0,0,0,0,-1,1497,1240,0,0
280,-216,0,0,0,0,0,0,0,0,0,-1,1504,1240,0,0
287,-216,0,0,0,0,0,0,0,0,0,-1,1511,1240,0,0
294,-216,0,0,0,0,0,0,0,0,0,-1,1518,1240,0,0
301,-216,0,0,0,0,0,0,0,0,0,-1,1525,1240,0,0
308,-216,0,0,0,0,0,0,0,0,0,-1,1532,1240,0,0
315,-216,0,0,0,0,0,0,0,0,0,-1,1539,1240,0,0
322,-216,0,0,0,0,0,0,0,0,0,-1,1546,1240,0,0
329,-216,0,0,0,0,0,0,0,0,0,-1,1553,1240,0,0
336,-216,0,0,0,0,0,0,0,0,0,-1,1560,1240,0,0
343,-216,0,0,0,0,0,0,0,0,0,-1,1567,1240,0,0
350,-216,0,0,0,0,0,0,0,0,0,-1,1574,1240,0,0
357,-216,0,0,0,0,0,0,0,0,0,-1,1581,1240,0,0
364,-216,0,0,0,0,0,0,0,0,0,-1,1588,1240,0,0
371,-216,0,0,0,0,0,0,0,0,0,-1,1595,1240,0,0
378,-216,0,0,0,0,0,0,0,0,0,-1,1602,1240,0,0
385,-216,0,0,0,0,0,0,0,0,0,-1,1609,1240,0,0
392,-216,0,0,0,0,0,0,0,0,0,-1,1616,1240,0,0
399,-216,0,0,0,0,0,0,0,0,0,-1,1623,1240,0,0
406,-216,0,0,0,0,0,0,0,0,0,-1,1630,1240,0,0
413,-216,0,0,0,0,0,0,0,0,0,-1,1637,1240,0,0
420,-216,0,0,0,0,0,0,0,0,0,-1,1644,1240,0,0
427,-216,0,0,0,0,0,0,0,0,0,-1,1651,1240,0,0
434,-216,0,0,0,0,0,0,0,0,0,-1,1658,1240,0,0
441,-216,0,0,0,0,0,0,0,0,0,-1,1665,1240,0,0
448,-216,0,0,0,0,0,0,0,0,0,-1,1672,1240,0,0
455,-216,0,0,0,0,0,0,0,0,0,-1,1679,1240,0,0
462,-216,0,0,0,0,0,0,0,0,0,-1,1686,1240,0,0
469,-216,0,0,0,0,0,0,0,0,0,-1,1693,1240,0,0
476,-216,0,0,0,0,0,0,0,0,0,-1,1700,1240,0,0
483,-216,0,0,0,0,0,0,0,0,0,-1,1707,1240,0,0
490,-216,0,0,0,0,0,0,0,0,0,-1,1714,1240,0,0
497,-216,0,0,0,0,0,0,0,0,0,-1,1721,1240,0,0
504,-216,0,0,0,0,0,0,0,0,0,-1,1728,1240,0,0
511,-216,0,0,0,0,0,0,0,0,0,-1,1735,1240,0,0
518,-216,0,0,0,0,0,0,0,0,0,-1,1742,1240,0,0
525,-216,0,0,0,0,0,0,0,0,0,-1,1749,1240,0,0
532,-216,0,0,0,0,0,0,0,0,0,-1,1756,1240,0,0
539,-216,0,0,0,0,0,0,0,0,0,-1,1763,1240,0,0
546,-216,0,0,0,0,0,0,0,0,0,-1,1770,1240,0,0
553,-216,0,0,0,0,0,0,0,0,0,-1,1777,1240,0,0
560,-216,0,0,0,0,0,0,0,0,0,-1,1784,1240,0,0
567,-216,0,0,0,0,0,0,0,0,0,-1,1791,1240,0,0
574,-216,0,0,0,0,0,0,0,0,0,-1,1798,1240,0,0
581,-216,0,0,0,0,0,0,0,0,0,-1,1805,1240,0,0
588,-216,0,0,0,0,0,0,0,0,0,-1,1812,1240,0,0
595,-216,0,0,0,0,0,0,0,0,0,-1,1819,1240,0,0
602,-216,0,0,0,0,0,0,0,0,0,-1,1826,1240,0,0
609,-216,0,0,0,0,0,0,0,0,0,-1,1833,1240,0,0
616,-216,0,0,0,0,0,0,0,0,0,-1,1840,1240,0,0
623,-216,15.9852,2.2688,0.00175946,-0.00182968,0.000370946,0.00179739,-0.00186761,0.101917,0.00211612,0.0394471,1847,1240,15.9853,-2.26876
630,-216,16.0142,2.24341,0.000348673,0.00174524,7.56911e-05,0.00174933,0.000344582,1.51681,0.00107002,0.0360357,1854,1240,16.0141,-2.24335
637,-216,16.0342,2.26392,-0.0012197,0.004653,-0.000787974,0.00475689,-0.00132359,-1.43971,0.0036924,0.0314506,1861,1240,16.0341,-2.26395
644,-216,16.0585,2.30225,-0.00271272,0.0059331,-0.00122859,0.0061043,-0.00288391,-1.43235,0.00529921,0.0256149,1868,1240,16.0585,-2.30222
651,-216,16.0546,2.31177,-0.00378244,0.00599069,-0.00125395,0.00614901,-0.00394077,-1.4452,0.00587166,0.0213788,1875,1240,16.0546,-2.31175
658,-216,16.089,2.31372,-0.00437748,0.00547639,-0.00115993,0.00561108,-0.00451217,-1.45519,0.00585613,0.0287115,1882,1240,16.089,-2.31376
665,-216,16.165,2.33337,-0.00459503,0.00470687,-0.000974608,0.00480789,-0.00469605,-1.46752,0.00548723,0.0400197,1889,1240,16.1651,-2.33332
672,-216,15.135,4.67444,0,0,0,0,0,0,0,-1,1896,1240,15.135,-4.6745
679,-216,14.9874,4.52563,0,0,0,0,0,0,0,-1,1903,1240,14.9875,-4.52569
686,-216,14.6721,4.18823,0,0,0,0,0,0,0,-1,1910,1240,14.6721,-4.18819
693,-216,14.489,3.99731,0,0,0,0,0,0,0,-1,1917,1240,14.4891,-3.9973
700,-216,14.1572,3.89685,-0.00411681,0.000790824,0.000329314,0.000812823,-0.00413881,1.50409,0.00306627,0.014584,1924,1240,14.1572,-3.89685
707,-216,14.1663,3.77307,-0.00362282,3.3348e-05,0.00054952,0.000114155,-0.00370363,1.42479,0.002508,0.0143678,1931,1240,14.1663,-3.77301
714,-216,14.1951,3.66602,-0.00314835,-0.000138419,0.000476377,-6.48228e-05,-0.00322194,1.41752,0.00212668,0.0128736,1938,1240,14.1951,-3.66605
721,-216,14.1965,3.54858,-0.00240374,-1.5975e-05,0.000404317,5.06297e-05,-0.00247034,1.40753,0.00166403,0.0129571,1945,1240,14.1965,-3.54854
728,-216,14.187,3.43909,-0.00150897,6.96762e-05,-0.000183409,9.07048e-05,-0.00153,-1.45664,0.00105154,0.0115908,1952,1240,14.187,-3.43906
735,-216,14.1802,3.33557,-0.00104256,0.000522678,-0.00149414,0.00142676,-0.00194664,-1.02665,0.00195532,0.010128,1959,1240,14.1802,-3.33552
742,-216,14.1681,3.24121,-0.000636956,0.00116627,-0.00324466,0.00363225,-0.00310294,-0.920917,0.00389256,0.0100925,1966,1240,14.1681,-3.24119
749,-216,14.1881,3.12927,-0.000730492,0.00171584,-0.00536501,0.00599535,-0.00501,-0.897477,0.00636242,0.00859865,1973,1240,14.1881,-3.12932
756,-216,14.1791,3.01929,-0.00130137,0.00214047,-0.00780729,0.00841425,-0.00757515,-0.893876,0.00923573,0.00944162,1980,1240,14.1791,-3.01924
763,-216,14.1704,2.9054,-0.00233151,0.00247666,-0.010981,0.0113137,-0.0111685,-0.893163,0.0129802,0.0150136,1987,1240,14.1705,-2.9054
770,-216,14.0231,2.52148,0,0,0,0,0,0,0,-1,1994,1240,14.0231,-2.52149
777,-216,13.6987,1.94446,0,0,0,0,0,0,0,-1,2001,1240,13.6987,-1.94449
784,-216,13.5905,1.45593,-0.0115559,0.0028056,-0.0250276,0.0216622,-0.0304125,-0.925102,0.0302065,0.0473011,2008,1240,13.5905,-1.45599
791,-216,13.4052,1.02832,0,0,0,0,0,0,0,-1,2015,1240,13.4051,-1.02827
798,-216,0,0,0,0,0,0,0,0,0,-1,2022,1240,0,0
805,-216,0,0,0,0,0,0,0,0,0,-1,2029,1240,0,0
812,-216,0,0,0,0,0,0,0,0,0,-1,2036,1240,0,0
-700,-223,0,0,0,0,0,0,0,0,0,-1,524,1247,0,0
-693,-223,0,0,0,0,0,0,0,0,0,-1,531,1247,0,0
-686,-223,0,0,0,0,0,0,0,0,0,-1,538,1247,0,0
-679,-223,0,0,0,0,0,0,0,0,0,-1,545,1247,0,0
-672,-223,-7.85516,-0.976563,0.0151226,0.0366856,0.0244523,0.0526278,-0.000819568,0.993037,0.0353615,0.0440915,552,1247,-7.85515,0.976538
-665,-223,-8.01715,-0.680176,0.0188121,0.037001,0.020474,0.0503095,0.00550353,0.994406,0.031864,0.0468281,559,1247,-8.01714,0.680235
-658,-223,-8.48779,-0.38269,0.0200342,0.0345794,0.0166136,0.0454425,0.00917111,0.991708,0.0277478,0.0479681,566,1247,-8.48778,0.382638
-651,-223,-8.7851,0.300659,0.0196056,0.0306931,0.0130623,0.0393394,0.0109593,0.986083,0.0234432,0.0473638,573,1247,-8.78509,-0.300672
-644,-223,-8.97198,0.999878,0,0,0,0,0,0,0,-1,580,1247,-8.97196,-0.999861
-637,-223,-7.79248,0.0887451,0,0,0,0,0,0,0,-1,587,1247,-7.79247,-0.0887858
-630,-223,-7.65216,0.480835,0.0128689,0.0167109,0.00523181,0.0203632,0.00921654,0.961345,0.0117743,0.0379704,594,1247,-7.65216,-0.48085
-623,-223,-7.56091,0.849731,0.0102576,0.0131568,0.00331641,0.0153266,0.00808778,0.991436,0.00885331,0.0201845,601,1247,-7.5609,-0.849766
-616,-223,-7.5957,1.01807,0.00815272,0.0097432,0.00169079,0.0108164,0.00707949,1.00522,0.00634348,0.0146715,608,1247,-7.59572,-1.01803
-609,-223,-7.59375,1.13123,0.00643119,0.00603519,0.000737692,0.00699699,0.00546939,0.654288,0.00424802,0.0113701,615,1247,-7.59372,-1.13124
-602,-223,-7.58508,1.23499,0.00516229,0.00275203,-0.000131777,0.00516947,0.00274484,-0.0544571,0.0029865,0.014752,622,1247,-7.58507,-1.23494
-595,-223,-7.57532,1.38098,0.00354433,0.000635435,-0.000126906,0.00354986,0.000629909,-0.0435166,0.00218705,0.0206879,629,1247,-7.57529,-1.38094
-588,-223,-7.53711,1.53931,0.00209189,-0.000127582,-0.000324849,0.00213846,-0.00017415,-0.142385,0.00148709,0.0226612,636,1247,-7.53709,-1.53926
-581,-223,-7.5423,1.67932,0.00176352,-0.000267759,-0.000407212,0.00184211,-0.000346353,-0.190659,0.00135833,0.0205431,643,1247,-7.54232,-1.6793
-574,-223,-7.56543,1.78418,0.00105812,0.000511658,-0.000758111,0.00159073,-2.09585e-05,-0.61244,0.00106754,0.016733,650,1247,-7.56546,-1.78413
-567,-223,-7.44861,2.00146,0.000137607,0.00182123,-0.00132933,0.00255287,-0.000594038,-1.06766,0.00193064,0.0222736,657,1247,-7.44863,-2.00149
-560,-223,-7.30865,2.27222,-0.000953234,0.00342783,-0.00184405,0.00410068,-0.00162608,-1.22093,0.00340769,0.0362806,664,1247,-7.30867,-2.27227
-553,-223,-6.96265,2.58789,0,0,0,0,0,0,0,-1,671,1247,-6.96264,-2.58795
-546,-223,-9.35425,0.411499,0,0,0,0,0,0,0,-1,678,1247,-9.35424,-0.411529
-539,-223,-9.35272,0.371948,-0.00628388,0.0091564,-0.00346267,0.00989739,-0.00702487,-1.35998,0.00981688,0.0421279,685,1247,-9.35275,-0.371918
-532,-223,-9.57208,0.531494,-0.00859278,0.0115568,-0.00416198,0.0123827,-0.0094186,-1.37492,0.0126257,0.0452752,692,1247,-9.57209,-0.531486
-525,-223,-9.79291,0.65625,-0.0109315,0.0140237,-0.00479736,0.0149142,-0.0118219,-1.38727,0.0154705,0.0474346,699,1247,-9.79292,-0.65625
-518,-223,-9.85651,0.648682,-0.0131757,0.0162091,-0.00527222,0.0171264,-0.014093,-1.39853,0.0180529,0.0443062,706,1247,-9.85651,-0.648627
-511,-223,-9.6922,0.361572,-0.0145103,0.01731,-0.00527947,0.018163,-0.0153634,-1.4106,0.019379,0.0392641,713,1247,-9.69221,-0.361569
-504,-223,-9.68054,0.315308,-0.0131292,0.0163312,-0.0037695,0.0168059,-0.0136038,-1.44553,0.0175895,0.0405663,720,1247,-9.68053,-0.31536
-497,-223,0,0,0,0,0,0,0,0,0,-1,727,1247,0,0
-490,-223,0,0,0,0,0,0,0,0,0,-1,734,1247,0,0
-483,-223,0,0,0,0,0,0,0,0,0,-1,741,1247,0,0
-476,-223,0,0,0,0,0,0,0,0,0,-1,748,1247,0,0
-469,-223,0,0,0,0,0,0,0,0,0,-1,755,1247,0,0
-462,-223,0,0,0,0,0,0,0,0,0,-1,762,1247,0,0
-455,-223,0,0,0,0,0,0,0,0,0,-1,769,1247,0,0
-448,-223,0,0,0,0,0,0,0,0,0,-1,776,1247,0,0
-441,-223,0,0,0,0,0,0,0,0,0,-1,783,1247,0,0
-434,-223,0,0,0,0,0,0,0,0,0,-1,790,1247,0,0
-427,-223,0,0,0,0,0,0,0,0,0,-1,797,1247,0,0
-420,-223,0,0,0,0,0,0,0,0,0,-1,804,1247,0,0
-413,-223,0,0,0,0,0,0,0,0,0,-1,811,1247,0,0
-406,-223,0,0,0,0,0,0,0,0,0,-1,818,1247,0,0
-399,-223,0,0,0,0,0,0,0,0,0,-1,825,1247,0,0
-392,-223,0,0,0,0,0,0,0,0,0,-1,832,1247,0,0
-385,-223,0,0,0,0,0,0,0,0,0,-1,839,1247,0,0
-378,-223,0,0,0,0,0,0,0,0,0,-1,846,1247,0,0
-371,-223,0,0,0,0,0,0,0,0,0,-1,853,1247,0,0
-364,-223,0,0,0,0,0,0,0,0,0,-1,860,1247,0,0
-357,-223,0,0,0,0,0,0,0,0,0,-1,867,1247,0,0
-350,-223,0,0,0,0,0,0,0,0,0,-1,874,1247,0,0
-343,-223,0,0,0,0,0,0,0,0,0,-1,881,1247,0,0
-336,-223,0,0,0,0,0,0,0,0,0,-1,888,1247,0,0
-329,-223,0,0,0,0,0,0,0,0,0,-1,895,1247,0,0
-322,-223,0,0,0,0,0,0,0,0,0,-1,902,1247,0,0
-315,-223,0,0,0,0,0,0,0,0,0,-1,909,1247,0,0
-308,-223,0,0,0,0,0,0,0,0,0,-1,916,1247,0,0
-301,-223,0,0,0,0,0,0,0,0,0,-1,923,1247,0,0
-294,-223,0,0,0,0,0,0,0,0,0,-1,930,1247,0,0
-287,-223,0,0,0,0,0,0,0,0,0,-1,937,1247,0,0
-280,-223,0,0,0,0,0,0,0,0,0,-1,944,1247,0,0
-273,-223,0,0,0,0,0,0,0,0,0,-1,951,1247,0,0
-266,-223,0,0,0,0,0,0,0,0,0,-1,958,1247,0,0
-259,-223,0,0,0,0,0,0,0,0,0,-1,965,1247,0,0
-252,-223,0,0,0,0,0,0,0,0,0,-1,972,1247,0,0
-245,-223,0,0,0,0,0,0,0,0,0,-1,979,1247,0,0
-238,-223,0,0,0,0,0,0,0,0,0,-1,986,1247,0,0
-231,-223,0,0,0,0,0,0,0,0,0,-1,993,1247,0,0
-224,-223,0,0,0,0,0,0,0,0,0,-1,1000,1247,0,0
-217,-223,0,0,0,0,0,0,0,0,0,-1,1007,1247,0,0
-210,-223,0,0,0,0,0,0,0,0,0,-1,1014,1247,0,0
-203,-223,0,0,0,0,0,0,0,0,0,-1,1021,1247,0,0
-196,-223,0,0,0,0,0,0,0,0,0,-1,1028,1247,0,0
-189,-223,0,0,0,0,0,0,0,0,0,-1,1035,1247,0,0
-182,-223,0,0,0,0,0,0,0,0,0,-1,1042,1247,0,0
-175,-223,0,0,0,0,0,0,0,0,0,-1,1049,1247,0,0
-168,-223,0,0,0,0,0,0,0,0,0,-1,1056,1247,0,0
-161,-223,0,0,0,0,0,0,0,0,0,-1,1063,1247,0,0
-154,-223,0,0,0,0,0,0,0,0,0,-1,1070,1247,0,0
-147,-223,0,0,0,0,0,0,0,0,0,-1,1077,1247,0,0
-140,-223,0,0,0,0,0,0,0,0,0,-1,1084,1247,0,0
-133,-223,0,0,0,0,0,0,0,0,0,-1,1091,1247,0,0
-126,-223,0,0,0,0,0,0,0,0,0,-1,1098,1247,0,0
-119,-223,0,0,0,0,0,0,0,0,0,-1,1105,1247,0,0
-112,-223,0,0,0,0,0,0,0,0,0,-1,1112,1247,0,0
-105,-223,0,0,0,0,0,0,0,0,0,-1,1119,1247,0,0
-98,-223,0,0,0,0,0,0,0,0,0,-1,1126,1247,0,0
-91,-223,0,0,0,0,0,0,0,0,0,-1,1133,1247,0,0
-84,-223,0,0,0,0,0,0,0,0,0,-1,1140,1247,0,0
-77,-223,0,0,0,0,0,0,0,0,0,-1,1147,1247,0,0
-70,-223,0,0,0,0,0,0,0,0,0,-1,1154,1247,0,0
-63,-223,0,0,0,0,0,0,0,0,0,-1,1161,1247,0,0
-56,-223,0,0,0,0,0,0,0,0,0,-1,1168,1247,0,0
-49,-223,0,0,0,0,0,0,0,0,0,-1,1175,1247,0,0
-42,-223,0,0,0,0,0,0,0,0,0,-1,1182,1247,0,0
-35,-223,0,0,0,0,0,0,0,0,0,-1,1189,1247,0,0
-28,-223,0,0,0,0,0,0,0,0,0,-1,1196,1247,0,0
-21,-223,0,0,0,0,0,0,0,0,0,-1,1203,1247,0,0
-14,-223,0,0,0,0,0,0,0,0,0,-1,1210,1247,0,0
-7,-223,0,0,0,0,0,0,0,0,0,-1,1217,1247,0,0
0,-223,0,0,0,0,0,0,0,0,0,-1,1224,1247,0,0
7,-223,0,0,0,0,0,0,0,0,0,-1,1231,1247,0,0
14,-223,0,0,0,0,0,0,0,0,0,-1,1238,1247,0,0
21,-223,0,0,0,0,0,0,0,0,0,-1,1245,1247,0,0
28,-223,0,0,0,0,0,0,0,0,0,-1,1252,1247,0,0
35,-223,0,0,0,0,0,0,0,0,0,-1,1259,1247,0,0
42,-223,0,0,0,0,0,0,0,0,0,-1,1266,1247,0,0
49,-223,0,0,0,0,0,0,0,0,0,-1,1273,1247,0,0
56,-223,0,0,0,0,0,0,0,0,0,-1,1280,1247,0,0
63,-223,0,0,0,0,0,0,0,0,0,-1,1287,1247,0,0
70,-223,0,0,0,0,0,0,0,0,0,-1,1294,1247,0,0
77,-223,0,0,0,0,0,0,0,0,0,-1,1301,1247,0,0
84,-223,0,0,0,0,0,0,0,0,0,-1,1308,1247,0,0
91,-223,0,0,0,0,0,0,0,0,0,-1,1315,1247,0,0
98,-223,0,0,0,0,0,0,0,0,0,-1,1322,1247,0,0
105,-223,0,0,0,0,0,0,0,0,0,-1,1329,1247,0,0
112,-223,0,0,0,0,0,0,0,0,0,-1,1336,1247,0,0
119,-223,0,0,0,0,0,0,0,0,0,-1,1343,1247,0,0
126,-223,0,0,0,0,0,0,0,0,0,-1,1350,1247,0,0
133,-223,0,0,0,0,0,0,0,0,0,-1,1357,1247,0,0
140,-223,0,0,0,0,0,0,0,0,0,-1,1364,1247,0,0
147,-223,0,0,0,0,0,0,0,0,0,-1,1371,1247,0,0
154,-223,0,0,0,0,0,0,0,0,0,-1,1378,1247,0,0
161,-223,0,0,0,0,0,0,0,0,0,-1,1385,1247,0,0
168,-223,0,0,0,0,0,0,0,0,0,-1,1392,1247,0,0
175,-223,0,0,0,0,0,0,0,0,0,-1,1399,1247,0,0
182,-223,0,0,0,0,0,0,0,0,0,-1,1406,1247,0,0
189,-223,0,0,0,0,0,0,0,0,0,-1,1413,1247,0,0
196,-223,0,0,0,0,0,0,0,0,0,-1,1420,1247,0,0
203,-223,0,0,0,0,0,0,0,0,0,-1,1427,1247,0,0
210,-223,0,0,0,0,0,0,0,0,0,-1,1434,1247,0,0
217,-223,0,0,0,0,0,0,0,0,0,-1,1441,1247,0,0
224,-223,0,0,0,0,0,0,0,0,0,-1,1448,1247,0,0
231,-223,0,0,0,0,0,0,0,0,0,-1,1455,1247,0,0
238,-223,0,0,0,0,0,0,0,0,0,-1,1462,1247,0,0
245,-223,0,0,0,0,0,0,0,0,0,-1,1469,1247,0,0
252,-223,0,0,0,0,0,0,0,0,0,-1,1476,1247,0,0
259,-223,0,0,0,0,0,0,0,0,0,-1,1483,1247,0,0
266,-223,0,0,0,0,0,0,0,0,0,-1,1490,1247,0,0
273,-223,0,0,0,0,0,0,0,0,0,-1,1497,1247,0,0
280,-223,0,0,0,0,0,0,0,0,0,-1,1504,1247,0,0
287,-223,0,0,0,0,0,0,0,0,0,-1,1511,1247,0,0
294,-223,0,0,0,0,0,0,0,0,0,-1,1518,1247,0,0
301,-223,0,0,0,0,0,0,0,0,0,-1,1525,1247,0,0
308,-223,0,0,0,0,0,0,0,0,0,-1,1532,1247,0,0
315,-223,0,0,0,0,0,0,0,0,0,-1,1539,1247,0,0
322,-223,0,0,0,0,0,0,0,0,0,-1,1546,1247,0,0
329,-223,0,0,0,0,0,0,0,0,0,-1,1553,1247,0,0
336,-223,0,0,0,0,0,0,0,0,0,-1,1560,1247,0,0
343,-223,0,0,0,0,0,0,0,0,0,-1,1567,1247,0,0
350,-223,0,0,0,0,0,0,0,0,0,-1,1574,1247,0,0
357,-223,0,0,0,0,0,0,0,0,0,-1,1581,1247,0,0
364,-223,0,0,0,0,0,0,0,0,0,-1,1588,1247,0,0
371,-223,0,0,0,0,0,0,0,0,0,-1,1595,1247,0,0
378,-223,0,0,0,0,0,0,0,0,0,-1,1602,1247,0,0
385,-223,0,0,0,0,0,0,0,0,0,-1,1609,1247,0,0
392,-223,0,0,0,0,0,0,0,0,0,-1,1616,1247,0,0
399,-223,0,0,0,0,0,0,0,0,0,-1,1623,1247,0,0
406,-223,0,0,0,0,0,0,0,0,0,-1,1630,1247,0,0
413,-223,0,0,0,0,0,0,0,0,0,-1,1637,1247,0,0
420,-223,0,0,0,0,0,0,0,0,0,-1,1644,1247,0,0
427,-223,0,0,0,0,0,0,0,0,0,-1,1651,1247,0,0
434,-223,0,0,0,0,0,0,0,0,0,-1,1658,1247,0,0
441,-223,0,0,0,0,0,0,0,0,0,-1,1665,1247,0,0
448,-223,0,0,0,0,0,0,0,0,0,-1,1672,1247,0,0
455,-223,0,0,0,0,0,0,0,0,0,-1,1679,1247,0,0
462,-223,0,0,0,0,0,0,0,0,0,-1,1686,1247,0,0
469,-223,0,0,0,0,0,0,0,0,0,-1,1693,1247,0,0
476,-223,0,0,0,0,0,0,0,0,0,-1,1700,1247,0,0
483,-223,0,0,0,0,0,0,0,0,0,-1,1707,1247,0,0
490,-223,0,0,0,0,0,0,0,0,0,-1,1714,1247,0,0
497,-223,0,0,0,0,0,0,0,0,0,-1,1721,1247,0,0
504,-223,0,0,0,0,0,0,0,0,0,-1,1728,1247,0,0
511,-223,0,0,0,0,0,0,0,0,0,-1,1735,1247,0,0
518,-223,0,0,0,0,0,0,0,0,0,-1,1742,1247,0,0
525,-223,0,0,0,0,0,0,0,0,0,-1,1749,1247,0,0
532,-223,0,0,0,0,0,0,0,0,0,-1,1756,1247,0,0
539,-223,0,0,0,0,0,0,0,0,0,-1,1763,1247,0,0
546,-223,0,0,0,0,0,0,0,0,0,-1,1770,1247,0,0
553,-223,0,0,0,0,0,0,0,0,0,-1,1777,1247,0,0
560,-223,0,0,0,0,0,0,0,0,0,-1,1784,1247,0,0
567,-223,0,0,0,0,0,0,0,0,0,-1,1791,1247,0,0
574,-223,0,0,0,0,0,0,0,0,0,-1,1798,1247,0,0
581,-223,0,0,0,0,0,0,0,0,0,-1,1805,1247,0,0
588,-223,0,0,0,0,0,0,0,0,0,-1,1812,1247,0,0
595,-223,0,0,0,0,0,0,0,0,0,-1,1819,1247,0,0
602,-223,0,0,0,0,0,0,0,0,0,-1,1826,1247,0,0
609,-223,0,0,0,0,0,0,0,0,0,-1,1833,1247,0,0
616,-223,0,0,0,0,0,0,0,0,0,-1,1840,1247,0,0
623,-223,16.0295,2.3866,0.000280881,-0.00102066,-3.31708e-05,0.000281726,-0.0010215,-0.0254637,0.000791798,0.0403957,1847,1247,16.0295,-2.38662
630,-223,16.0083,2.37891,-0.00152389,0.00348088,-0.000275506,0.003496,-0.00153901,-1.51597,0.00297926,0.0366177,1854,1247,16.0083,-2.37887
637,-223,16.0135,2.27271,-0.00321941,0.00644187,-0.000749431,0.00649966,-0.0032772,-1.49384,0.00574597,0.0289205,1861,1247,16.0136,-2.27276
644,-223,16.0458,2.28198,-0.00451366,0.00740818,-0.000873204,0.00747179,-0.00457728,-1.49807,0.00702313,0.0216674,1868,1247,16.0458,-2.28203
651,-223,16.0465,2.26404,-0.00515445,0.00715713,-0.00079202,0.00720787,-0.00520519,-1.50682,0.00719771,0.0243449,1875,1247,16.0466,-2.26404
658,-223,16.0656,2.29846,-0.00535195,0.00636651,-0.000682218,0.00640609,-0.00539154,-1.51284,0.00681976,0.0415917,1882,1247,16.0655,-2.29851
665,-223,16.1538,2.33228,-0.0052668,0.00537741,-0.000534447,0.00540417,-0.00529356,-1.52075,0.00617645,0.0457741,1889,1247,16.1538,-2.33226
672,-223,15.3508,4.31006,0,0,0,0,0,0,0,-1,1896,1247,15.3508,-4.31002
679,-223,14.3929,4.03406,0,0,0,0,0,0,0,-1,1903,1247,14.3929,-4.03409
686,-223,14.2191,3.99719,-0.00463941,0.00262574,-1.76147e-05,0.00262579,-0.00463946,-1.56837,0.00424796,0.0481404,1910,1247,14.2191,-3.99724
693,-223,14.0017,3.94312,-0.00427097,0.00161349,0.000169279,0.00161835,-0.00427584,1.54206,0.00351642,0.0219422,1917,1247,14.0017,-3.94312
700,-223,14.0558,3.86536,-0.00359443,0.000767183,0.000304913,0.000788396,-0.00361564,1.50134,0.0027117,0.00980904,1924,1247,14.0558,-3.86533
707,-223,14.0814,3.75818,-0.00292817,-1.23982e-05,0.000479826,6.45332e-05,-0.0030051,1.41182,0.00202525,0.0120265,1931,1247,14.0814,-3.75818
714,-223,14.0892,3.63733,-0.00226994,-3.29226e-05,0.000241504,-7.14709e-06,-0.00229571,1.46447,0.0015281,0.0109704,1938,1247,14.0893,-3.63729
721,-223,14.0779,3.52161,-0.00144864,0.000306768,-2.47451e-05,0.000307116,-0.00144899,-1.5567,0.00108298,0.0142003,1945,1247,14.0779,-3.52161
728,-223,14.0642,3.42322,-0.000583064,0.000635158,-0.000856276,0.00107687,-0.00102477,-1.09455,0.00121351,0.0158193,1952,1247,14.0642,-3.42326
735,-223,14.052,3.33459,-0.000211006,0.00133825,-0.00239801,0.00308364,-0.00195639,-0.941623,0.00293402,0.0125823,1959,1247,14.052,-3.33463
742,-223,14.0321,3.23462,0.00011361,0.00218494,-0.00434749,0.00561843,-0.00331988,-0.902329,0.0052171,0.010655,1966,1247,14.0321,-3.23457
749,-223,14.0559,3.11011,-5.06486e-05,0.00294998,-0.00674203,0.00835662,-0.00545728,-0.89488,0.0080338,0.00991839,1973,1247,14.056,-3.1101
756,-223,14.0824,2.99683,-0.000684862,0.00358683,-0.00962598,0.0113111,-0.0084091,-0.894571,0.0114265,0.0106875,1980,1247,14.0825,-2.99679
763,-223,14.0641,2.87634,-0.00183944,0.00413099,-0.0133561,0.0148314,-0.0125399,-0.895346,0.0158213,0.014146,1987,1247,14.0641,-2.87634
770,-223,13.8151,2.36768,-0.00378924,0.00452817,-0.0180534,0.0188957,-0.0181568,-0.898601,0.0213937,0.034959,1994,1247,13.815,-2.36773
777,-223,13.6704,1.73315,-0.0069985,0.00470272,-0.0237925,0.0233534,-0.0256492,-0.905957,0.028302,0.0475845,2001,1247,13.6704,-1.73311
784,-223,13.5067,1.23779,-0.012015,0.00456672,-0.0305663,0.0279467,-0.035395,-0.917833,0.0366545,0.0480646,2008,1247,13.5068,-1.23783
791,-223,13.2847,0.784912,0,0,0,0,0,0,0,-1,2015,1247,13.2846,-0.784931
798,-223,0,0,0,0,0,0,0,0,0,-1,2022,1247,0,0
805,-223,0,0,0,0,0,0,0,0,0,-1,2029,1247,0,0
812,-223,0,0,0,0,0,0,0,0,0,-1,2036,1247,0,0
-700,-230,0,0,0,0,0,0,0,0,0,-1,524,1254,0,0
-693,-230,0,0,0,0,0,0,0,0,0,-1,531,1254,0,0
-686,-230,0,0,0,0,0,0,0,0,0,-1,538,1254,0,0
-679,-230,0,0,0,0,0,0,0,0,0,-1,545,1254,0,0
-672,-230,-8.16766,-0.856445,0.0122969,0.0583607,0.0202782,0.0660155,0.00464212,1.20984,0.0425474,0.0449828,552,1254,-8.16766,0.856454
-665,-230,-8.11273,-0.732788,0.0190907,0.0557953,0.016991,0.0624531,0.0124329,1.19735,0.0381721,0.0444688,559,1254,-8.11271,0.732767
-658,-230,-8.54065,-0.4198,0.0220235,0.0504709,0.0138339,0.0560888,0.0164055,1.18504,0.0332995,0.0445168,566,1254,-8.54066,0.419793
-651,-230,-8.66479,0.248169,0.0224689,0.0438586,0.010928,0.0484543,0.0178732,1.17271,0.028294,0.0445888,573,1254,-8.66481,-0.248164
-644,-230,-6.47675,0.827759,0.021214,0.0367882,0.00840702,0.0404604,0.0175417,1.15897,0.0234285,0.0490154,580,1254,-6.47673,-0.827777
-637,-230,-7.02258,0.729614,0,0,0,0,0,0,0,-1,587,1254,-7.0226,-0.729617
-630,-230,-7.18585,0.779053,0.0157603,0.0232811,0.0045606,0.0254317,0.0136097,1.13016,0.0146951,0.0443411,594,1254,-7.18585,-0.779022
-623,-230,-7.36353,0.849976,0.0127662,0.018116,0.00299403,0.019456,0.0114262,1.14998,0.0112898,0.0253091,601,1254,-7.36352,-0.849993
-616,-230,-7.42316,0.999878,0.010199,0.0134759,0.00167545,0.0141809,0.00949403,1.17251,0.00834267,0.0150765,608,1254,-7.42317,-0.999883
-609,-230,-7.41968,1.11938,0.00810757,0.00865601,0.00102562,0.00944344,0.00732014,0.916028,0.00572075,0.0113646,615,1254,-7.41967,-1.11934
-602,-230,-7.4259,1.24634,0.00640653,0.00429424,0.000173107,0.00642062,0.00428015,0.08123,0.00377494,0.0115553,622,1254,-7.42591,-1.24637
-595,-230,-7.43463,1.42432,0.00426581,0.00139455,0.000247203,0.00428694,0.00137342,0.0852594,0.00252775,0.0186236,629,1254,-7.43462,-1.42433
-588,-230,-7.44452,1.62305,0.00235327,0.000278262,5.75668e-05,0.00235487,0.000276666,0.0277145,0.0014863,0.0248757,636,1254,-7.4445,-1.62303
-581,-230,-7.45416,1.74316,0.00190231,-1.55607e-06,-4.40553e-05,0.00190333,-2.57499e-06,-0.0231234,0.00126975,0.0225496,643,1254,-7.45417,-1.74313
-574,-230,-7.42987,1.8064,0.00105918,0.000872178,-0.000478772,0.00145349,0.000477862,-0.688966,0.000855421,0.0163221,650,1254,-7.42987,-1.80641
-567,-230,-7.33435,1.95947,-0.000156949,0.00252984,-0.00120493,0.00299104,-0.000618148,-1.20524,0.00222883,0.0184821,657,1254,-7.33437,-1.95953
-560,-230,-7.22327,2.15112,-0.00149212,0.00452423,-0.00185973,0.00505268,-0.00202057,-1.29394,0.00420695,0.0309716,664,1254,-7.22326,-2.15106
-553,-230,-6.96442,2.29309,0,0,0,0,0,0,0,-1,671,1254,-6.96445,-2.29312
-546,-230,-7.58514,0.644775,0,0,0,0,0,0,0,-1,678,1254,-7.58517,-0.644797
-539,-230,-9.09698,-0.00268555,0,0,0,0,0,0,0,-1,685,1254,-9.09698,0.00270153
-532,-230,-9.44501,0.35083,-0.0107244,0.01466,-0.00473259,0.0155136,-0.011578,-1.39234,0.0156963,0.0464672,692,1254,-9.44501,-0.3508
-525,-230,-9.75061,0.638916,-0.0136392,0.0177887,-0.00551806,0.0187294,-0.0145799,-1.40194,0.0192808,0.0454022,699,1254,-9.75061,-0.638967
-518,-230,-9.79724,0.548218,-0.0165879,0.02069,-0.0060929,0.0216606,-0.0175585,-1.41283,0.0226844,0.0399349,706,1254,-9.79723,-0.548257
-511,-230,-9.73663,0.461426,-0.018981,0.0225843,-0.00612296,0.0234675,-0.0198642,-1.42754,0.0250464,0.0359771,713,1254,-9.73665,-0.461437
-504,-230,-9.69781,0.414917,-0.0193837,0.0222595,-0.00468008,0.022779,-0.0199032,-1.46025,0.0246612,0.0357874,720,1254,-9.69779,-0.414964
-497,-230,0,0,0,0,0,0,0,0,0,-1,727,1254,0,0
-490,-230,0,0,0,0,0,0,0,0,0,-1,734,1254,0,0
-483,-230,0,0,0,0,0,0,0,0,0,-1,741,1254,0,0
-476,-230,0,0,0,0,0,0,0,0,0,-1,748,1254,0,0
-469,-230,0,0,0,0,0,0,0,0,0,-1,755,1254,0,0
-462,-230,0,0,0,0,0,0,0,0,0,-1,762,1254,0,0
-455,-230,0,0,0,0,0,0,0,0,0,-1,769,1254,0,0
-448,-230,0,0,0,0,0,0,0,0,0,-1,776,1254,0,0
-441,-230,0,0,0,0,0,0,0,0,0,-1,783,1254,0,0
-434,-230,0,0,0,0,0,0,0,0,0,-1,790,1254,0,0
-427,-230,0,0,0,0,0,0,0,0,0,-1,797,1254,0,0
-420,-230,0,0,0,0,0,0,0,0,0,-1,804,1254,0,0
-413,-230,0,0,0,0,0,0,0,0,0,-1,811,1254,0,0
-406,-230,0,0,0,0,0,0,0,0,0,-1,818,1254,0,0
-399,-230,0,0,0,0,0,0,0,0,0,-1,825,1254,0,0
-392,-230,0,0,0,0,0,0,0,0,0,-1,832,1254,0,0
-385,-230,0,0,0,0,0,0,0,0,0,-1,839,1254,0,0
-378,-230,0,0,0,0,0,0,0,0,0,-1,846,1254,0,0
-371,-230,0,0,0,0,0,0,0,0,0,-1,853,1254,0,0
-364,-230,0,0,0,0,0,0,0,0,0,-1,860,1254,0,0
-357,-230,0,0,0,0,0,0,0,0,0,-1,867,1254,0,0
-350,-230,0,0,0,0,0,0,0,0,0,-1,874,1254,0,0
-343,-230,0,0,0,0,0,0,0,0,0,-1,881,1254,0,0
-336,-230,0,0,0,0,0,0,0,0,0,-1,888,1254,0,0
-329,-230,0,0,0,0,0,0,0,0,0,-1,895,1254,0,0
-322,-230,0,0,0,0,0,0,0,0,0,-1,902,1254,0,0
-315,-230,0,0,0,0,0,0,0,0,0,-1,909,1254,0,0
-308,-230,0,0,0,0,0,0,0,0,0,-1,916,1254,0,0
-301,-230,0,0,0,0,0,0,0,0,0,-1,923,1254,0,0
-294,-230,0,0,0,0,0,0,0,0,0,-1,930,1254,0,0
-287,-230,0,0,0,0,0,0,0,0,0,-1,937,1254,0,0
-280,-230,0,0,0,0,0,0,0,0,0,-1,944,1254,0,0
-273,-230,0,0,0,0,0,0,0,0,0,-1,951,1254,0,0
-266,-230,0,0,0,0,0,0,0,0,0,-1,958,1254,0,0
-259,-230,0,0,0,0,0,0,0,0,0,-1,965,1254,0,0
-252,-230,0,0,0,0,0,0,0,0,0,-1,972,1254,0,0
-245,-230,0,0,0,0,0,0,0,0,0,-1,979,1254,0,0
-238,-230,0,0,0,0,0,0,0,0,0,-1,986,1254,0,0
-231,-230,0,0,0,0,0,0,0,0,0,-1,993,1254,0,0
-224,-230,0,0,0,0,0,0,0,0,0,-1,1000,1254,0,0
-217,-230,0,0,0,0,0,0,0,0,0,-1,1007,1254,0,0
-210,-230,0,0,0,0,0,0,0,0,0,-1,1014,1254,0,0
-203,-230,0,0,0,0,0,0,0,0,0,-1,1021,1254,0,0
-196,-230,0,0,0,0,0,0,0,0,0,-1,1028,1254,0,0
-189,-230,0,0,0,0,0,0,0,0,0,-1,1035,1254,0,0
-182,-230,0,0,0,0,0,0,0,0,0,-1,1042,1254,0,0
-175,-230,0,0,0,0,0,0,0,0,0,-1,1049,1254,0,0
-168,-230,0,0,0,0,0,0,0,0,0,-1,1056,1254,0,0
-161,-230,0,0,0,0,0,0,0,0,0,-1,1063,1254,0,0
-154,-230,0,0,0,0,0,0,0,0,0,-1,1070,1254,0,0
-147,-230,0,0,0,0,0,0,0,0,0,-1,1077,1254,0,0
-140,-230,0,0,0,0,0,0,0,0,0,-1,1084,1254,0,0
-133,-230,0,0,0,0,0,0,0,0,0,-1,1091,1254,0,0
-126,-230,0,0,0,0,0,0,0,0,0,-1,1098,1254,0,0
-119,-230,0,0,0,0,0,0,0,0,0,-1,1105,1254,0,0
-112,-230,0,0,0,0,0,0,0,0,0,-1,1112,1254,0,0
-105,-230,0,0,0,0,0,0,0,0,0,-1,1119,1254,0,0
-98,-230,0,0,0,0,0,0,0,0,0,-1,1126,1254,0,0
-91,-230,0,0,0,0,0,0,0,0,0,-1,1133,1254,0,0
-84,-230,0,0,0,0,0,0,0,0,0,-1,1140,1254,0,0
-77,-230,0,0,0,0,0,0,0,0,0,-1,1147,1254,0,0
-70,-230,0,0,0,0,0,0,0,0,0,-1,1154,1254,0,0
-63,-230,0,0,0,0,0,0,0,0,0,-1,1161,1254,0,0
-56,-230,0,0,0,0,0,0,0,0,0,-1,1168,1254,0,0
-49,-230,0,0,0,0,0,0,0,0,0,-1,1175,1254,0,0
-42,-230,0,0,0,0,0,0,0,0,0,-1,1182,1254,0,0
-35,-230,0,0,0,0,0,0,0,0,0,-1,1189,1254,0,0
-28,-230,0,0,0,0,0,0,0,0,0,-1,1196,1254,0,0
-21,-230,0,0,0,0,0,0,0,0,0,-1,1203,1254,0,0
-14,-230,0,0,0,0,0,0,0,0,0,-1,1210,1254,0,0
-7,-230,0,0,0,0,0,0,0,0,0,-1,1217,1254,0,0
0,-230,0,0,0,0,0,0,0,0,0,-1,1224,1254,0,0
7,-230,0,0,0,0,0,0,0,0,0,-1,1231,1254,0,0
14,-230,0,0,0,0,0,0,0,0,0,-1,1238,1254,0,0
21,-230,0,0,0,0,0,0,0,0,0,-1,1245,1254,0,0
28,-230,0,0,0,0,0,0,0,0,0,-1,1252,1254,0,0
35,-230,0,0,0,0,0,0,0,0,0,-1,1259,1254,0,0
42,-230,0,0,0,0,0,0,0,0,0,-1,1266,1254,0,0
49,-230,0,0,0,0,0,0,0,0,0,-1,1273,1254,0,0
56,-230,0,0,0,0,0,0,0,0,0,-1,1280,1254,0,0
63,-230,0,0,0,0,0,0,0,0,0,-1,1287,1254,0,0
70,-230,0,0,0,0,0,0,0,0,0,-1,1294,1254,0,0
77,-230,0,0,0,0,0,0,0,0,0,-1,1301,1254,0,0
84,-230,0,0,0,0,0,0,0,0,0,-1,1308,1254,0,0
91,-230,0,0,0,0,0,0,0,0,0,-1,1315,1254,0,0
98,-230,0,0,0,0,0,0,0,0,0,-1,1322,1254,0,0
105,-230,0,0,0,0,0,0,0,0,0,-1,1329,1254,0,0
112,-230,0,0,0,0,0,0,0,0,0,-1,1336,1254,0,0
119,-230,0,0,0,0,0,0,0,0,0,-1,1343,1254,0,0
126,-230,0,0,0,0,0,0,0,0,0,-1,1350,1254,0,0
133,-230,0,0,0,0,0,0,0,0,0,-1,1357,1254,0,0
140,-230,0,0,0,0,0,0,0,0,0,-1,1364,1254,0,0
147,-230,0,0,0,0,0,0,0,0,0,-1,1371,1254,0,0
154,-230,0,0,0,0,0,0,0,0,0,-1,1378,1254,0,0
161,-230,0,0,0,0,0,0,0,0,0,-1,1385,1254,0,0
168,-230,0,0,0,0,0,0,0,0,0,-1,1392,1254,0,0
175,-230,0,0,0,0,0,0,0,0,0,-1,1399,1254,0,0
182,-230,0,0,0,0,0,0,0,0,0,-1,1406,1254,0,0
189,-230,0,0,0,0,0,0,0,0,0,-1,1413,1254,0,0
196,-230,0,0,0,0,0,0,0,0,0,-1,1420,1254,0,0
203,-230,0,0,0,0,0,0,0,0,0,-1,1427,1254,0,0
210,-230,0,0,0,0,0,0,0,0,0,-1,1434,1254,0,0
217,-230,0,0,0,0,0,0,0,0,0,-1,1441,1254,0,0
224,-230,0,0,0,0,0,0,0,0,0,-1,1448,1254,0,0
231,-230,0,0,0,0,0,0,0,0,0,-1,1455,1254,0,0
238,-230,0,0,0,0,0,0,0,0,0,-1,1462,1254,0,0
245,-230,0,0,0,0,0,0,0,0,0,-1,1469,1254,0,0
252,-230,0,0,0,0,0,0,0,0,0,-1,1476,1254,0,0
259,-230,0,0,0,0,0,0,0,0,0,-1,1483,1254,0,0
266,-230,0,0,0,0,0,0,0,0,0,-1,1490,1254,0,0
273,-230,0,0,0,0,0,0,0,0,0,-1,1497,1254,0,0
280,-230,0,0,0,0,0,0,0,0,0,-1,1504,1254,0,0
287,-230,0,0,0,0,0,0,0,0,0,-1,1511,1254,0,0
294,-230,0,0,0,0,0,0,0,0,0,-1,1518,1254,0,0
301,-230,0,0,0,0,0,0,0,0,0,-1,1525,1254,0,0
308,-230,0,0,0,0,0,0,0,0,0,-1,1532,1254,0,0
315,-230,0,0,0,0,0,0,0,0,0,-1,1539,1254,0,0
322,-230,0,0,0,0,0,0,0,0,0,-1,1546,1254,0,0
329,-230,0,0,0,0,0,0,0,0,0,-1,1553,1254,0,0
336,-230,0,0,0,0,0,0,0,0,0,-1,1560,1254,0,0
343,-230,0,0,0,0,0,0,0,0,0,-1,1567,1254,0,0
350,-230,0,0,0,0,0,0,0,0,0,-1,1574,1254,0,0
357,-230,0,0,0,0,0,0,0,0,0,-1,1581,1254,0,0
364,-230,0,0,0,0,0,0,0,0,0,-1,1588,1254,0,0
371,-230,0,0,0,0,0,0,0,0,0,-1,1595,1254,0,0
378,-230,0,0,0,0,0,0,0,0,0,-1,1602,1254,0,0
385,-230,0,0,0,0,0,0,0,0,0,-1,1609,1254,0,0
392,-230,0,0,0,0,0,0,0,0,0,-1,1616,1254,0,0
399,-230,0,0,0,0,0,0,0,0,0,-1,1623,1254,0,0
406,-230,0,0,0,0,0,0,0,0,0,-1,1630,1254,0,0
413,-230,0,0,0,0,0,0,0,0,0,-1,1637,1254,0,0
420,-230,0,0,0,0,0,0,0,0,0,-1,1644,1254,0,0
427,-230,0,0,0,0,0,0,0,0,0,-1,1651,1254,0,0
434,-230,0,0,0,0,0,0,0,0,0,-1,1658,1254,0,0
441,-230,0,0,0,0,0,0,0,0,0,-1,1665,1254,0,0
448,-230,0,0,0,0,0,0,0,0,0,-1,1672,1254,0,0
455,-230,0,0,0,0,0,0,0,0,0,-1,1679,1254,0,0
462,-230,0,0,0,0,0,0,0,0,0,-1,1686,1254,0,0
469,-230,0,0,0,0,0,0,0,0,0,-1,1693,1254,0,0
476,-230,0,0,0,0,0,0,0,0,0,-1,1700,1254,0,0
483,-230,0,0,0,0,0,0,0,0,0,-1,1707,1254,0,0
490,-230,0,0,0,0,0,0,0,0,0,-1,1714,1254,0,0
497,-230,0,0,0,0,0,0,0,0,0,-1,1721,1254,0,0
504,-230,0,0,0,0,0,0,0,0,0,-1,1728,1254,0,0
511,-230,0,0,0,0,0,0,0,0,0,-1,1735,1254,0,0
518,-230,0,0,0,0,0,0,0,0,0,-1,1742,1254,0,0
525,-230,0,0,0,0,0,0,0,0,0,-1,1749,1254,0,0
532,-230,0,0,0,0,0,0,0,0,0,-1,1756,1254,0,0
539,-230,0,0,0,0,0,0,0,0,0,-1,1763,1254,0,0
546,-230,0,0,0,0,0,0,0,0,0,-1,1770,1254,0,0
553,-230,0,0,0,0,0,0,0,0,0,-1,1777,1254,0,0
560,-230,0,0,0,0,0,0,0,0,0,-1,1784,1254,0,0
567,-230,0,0,0,0,0,0,0,0,0,-1,1791,1254,0,0
574,-230,0,0,0,0,0,0,0,0,0,-1,1798,1254,0,0
581,-230,0,0,0,0,0,0,0,0,0,-1,1805,1254,0,0
588,-230,0,0,0,0,0,0,0,0,0,-1,1812,1254,0,0
595,-230,0,0,0,0,0,0,0,0,0,-1,1819,1254,0,0
602,-230,0,0,0,0,0,0,0,0,0,-1,1826,1254,0,0
609,-230,0,0,0,0,0,0,0,0,0,-1,1833,1254,0,0
616,-230,16.1887,2.34985,-0.000119575,-0.00335644,-0.00142505,0.000418399,-0.00389441,-0.360972,0.00274639,0.0341865,1840,1254,16.1888,-2.34984
623,-230,16.1202,2.36438,-0.00148609,0.00197493,-0.000548148,0.00205967,-0.00157083,-1.41742,0.00210239,0.0347667,1847,1254,16.1203,-2.36432
630,-230,16.0734,2.41846,-0.00312847,0.00695356,-0.000215489,0.00695817,-0.00313308,-1.54944,0.00596407,0.0319914,1854,1254,16.0734,-2.4184
637,-230,16.0403,2.35229,-0.00461286,0.00943242,-0.000115532,0.00943337,-0.00461381,-1.56257,0.00826773,0.0274974,1861,1254,16.0403,-2.35231
644,-230,16.019,2.27698,-0.00561406,0.00973005,2.13771e-05,0.00973008,-0.00561409,1.5694,0.00896457,0.0208512,1868,1254,16.019,-2.27703
651,-230,15.9415,2.15247,-0.00592132,0.00892973,0.000119192,0.00893069,-0.00592228,1.56277,0.0086338,0.0368015,1875,1254,15.9415,-2.15244
658,-230,15.7019,2.14941,-0.00587722,0.00769977,0.000183733,0.00770226,-0.0058797,1.55727,0.00786505,0.041858,1882,1254,15.7019,-2.14946
665,-230,14.9537,3.55322,0,0,0,0,0,0,0,-1,1889,1254,14.9538,-3.55327
672,-230,14.9988,3.87573,0,0,0,0,0,0,0,-1,1896,1254,14.9988,-3.87572
679,-230,14.2787,4.19324,0,0,0,0,0,0,0,-1,1903,1254,14.2787,-4.19325
686,-230,14.0826,4.08093,-0.00466279,0.00280907,0.000372708,0.00282761,-0.00468133,1.52108,0.00437911,0.0423271,1910,1254,14.0826,-4.08098
693,-230,13.884,3.9657,-0.00412245,0.00150794,0.00039228,0.00153514,-0.00414964,1.50157,0.00339585,0.0173375,1917,1254,13.884,-3.96566
700,-230,13.9412,3.88538,-0.00319021,0.000504635,0.00031927,0.00053202,-0.0032176,1.48523,0.00234263,0.00957416,1924,1254,13.9411,-3.88541
707,-230,13.9626,3.77441,-0.00230829,-0.000245282,0.000430515,-0.000159045,-0.00239452,1.3731,0.00154606,0.00858346,1931,1254,13.9626,-3.77436
714,-230,13.9518,3.64075,-0.00139749,-1.2983e-05,-9.49692e-06,-1.29178e-05,-0.00139756,-1.56394,0.000927428,0.0123759,1938,1254,13.9518,-3.64077
721,-230,13.9504,3.5155,-0.000396546,0.00063831,-0.000534986,0.000865155,-0.00062339,-1.16976,0.000863182,0.0127615,1945,1254,13.9505,-3.5155
728,-230,13.9398,3.42188,0.00058328,0.00126629,-0.00165667,0.00261629,-0.000766722,-0.887043,0.00204818,0.0130466,1952,1254,13.9399,-3.42186
735,-230,13.9403,3.32996,0.0010492,0.00224987,-0.00344848,0.00514988,-0.00185082,-0.871578,0.00418878,0.0130656,1959,1254,13.9403,-3.32993
742,-230,13.9263,3.22351,0.00149163,0.00335428,-0.0056145,0.00811417,-0.00326826,-0.867589,0.00676726,0.0107518,1966,1254,13.9263,-3.22353
749,-230,13.9323,3.09375,0.00143922,0.00441162,-0.00828257,0.0113403,-0.00548943,-0.874172,0.00991043,0.0100366,1973,1254,13.9323,-3.09374
756,-230,13.963,2.97485,0.000903961,0.00538559,-0.011583,0.0149425,-0.00865299,-0.880946,0.0137833,0.0114775,1980,1254,13.963,-2.97479
763,-230,13.8945,2.82581,-0.000255805,0.00626968,-0.0158004,0.0191407,-0.0131268,-0.887216,0.0187372,0.0234322,1987,1254,13.8945,-2.82576
770,-230,13.6476,2.38318,-0.00238501,0.00696562,-0.0211177,0.0239194,-0.0193388,-0.894337,0.0250217,0.039639,1994,1254,13.6476,-2.38322
777,-230,13.8428,1.729,-0.00600425,0.00734219,-0.0276974,0.0291589,-0.027821,-0.903612,0.0329004,0.0470506,2001,1254,13.8428,-1.72906
784,-230,13.5594,1.20349,-0.0117493,0.00718221,-0.035685,0.0346356,-0.0392027,-0.915042,0.0426577,0.047139,2008,1254,13.5594,-1.20353
791,-230,13.116,0.933105,0,0,0,0,0,0,0,-1,2015,1254,13.1159,-0.933091
798,-230,0,0,0,0,0,0,0,0,0,-1,2022,1254,0,0
805,-230,0,0,0,0,0,0,0,0,0,-1,2029,1254,0,0
812,-230,0,0,0,0,0,0,0,0,0,-1,2036,1254,0,0
-700,-237,0,0,0,0,0,0,0,0,0,-1,524,1261,0,0
-693,-237,0,0,0,0,0,0,0,0,0,-1,531,1261,0,0
-686,-237,0,0,0,0,0,0,0,0,0,-1,538,1261,0,0
-679,-237,0,0,0,0,0,0,0,0,0,-1,545,1261,0,0
-672,-237,-7.98834,-0.762573,0,0,0,0,0,0,0,-1,552,1261,-7.98832,0.762553
-665,-237,-7.99451,-0.875366,0,0,0,0,0,0,0,-1,559,1261,-7.99448,0.875306
-658,-237,-9.48425,3.90051,0,0,0,0,0,0,0,-1,566,1261,-9.48423,-3.90048
-651,-237,-6.37238,-0.410156,0,0,0,0,0,0,0,-1,573,1261,-6.3724,0.410156
-644,-237,-6.46674,-0.0792236,0.0264932,0.0472262,0.00615966,0.0489182,0.0248012,1.30273,0.0282438,0.0483828,580,1261,-6.46674,0.0792031
-637,-237,-6.72205,0.550781,0.0234294,0.0380257,0.00465884,0.039386,0.0220692,1.28672,0.0227946,0.0491282,587,1261,-6.72203,-0.550763
-630,-237,-6.93463,0.795898,0.0196382,0.0296564,0.00344954,0.0307293,0.0185653,1.26926,0.0178694,0.0447979,594,1261,-6.93463,-0.79592
-623,-237,-7.17273,0.816528,0.015884,0.0228803,0.00233206,0.0235864,0.0151779,1.2768,0.0138033,0.0264014,601,1261,-7.1727,-0.816478
-616,-237,-7.26611,0.962769,0.0125472,0.0170472,0.00141213,0.0174536,0.0121408,1.29056,0.0103307,0.0128359,608,1261,-7.26609,-0.962786
-609,-237,-7.27814,1.08972,0.00989667,0.011232,0.00114576,0.0118904,0.00923823,1.0492,0.00720742,0.015108,615,1261,-7.27816,-1.08967
-602,-237,-7.27344,1.24268,0.00755078,0.00591994,0.000391701,0.00763998,0.00583074,0.223909,0.00461014,0.0117284,622,1261,-7.27346,-1.24267
-595,-237,-7.28888,1.42065,0.00487292,0.00229589,0.000672531,0.00503787,0.00213094,0.240524,0.0029201,0.0149879,629,1261,-7.28886,-1.42066
-588,-237,-7.30035,1.59619,0.0025127,0.000745016,0.000519074,0.00265386,0.000603864,0.265511,0.00160624,0.0247589,636,1261,-7.30036,-1.59622
-581,-237,-7.31207,1.72913,0.00190564,0.000209537,0.000403184,0.0019966,0.000118574,0.221897,0.00129336,0.0223845,643,1261,-7.31209,-1.72915
-574,-237,-7.28143,1.81982,0.000954772,0.00105874,-0.000110969,0.0011293,0.000884214,-1.00445,0.000685924,0.0146267,650,1261,-7.28144,-1.81978
-567,-237,-7.24377,1.96301,-0.000490263,0.00299511,-0.000982331,0.00325291,-0.000748059,-1.31415,0.00245623,0.0136662,657,1261,-7.24378,-1.96298
-560,-237,-7.11914,2.15723,-0.00206589,0.00535904,-0.00178872,0.00576749,-0.00247434,-1.3463,0.0048834,0.0228278,664,1261,-7.11915,-2.15728
-553,-237,-6.94073,2.27686,-0.00397591,0.00793377,-0.00253826,0.00845218,-0.00449431,-1.36933,0.00759019,0.0471295,671,1261,-6.94074,-2.27686
-546,-237,-6.71851,2.43396,0,0,0,0,0,0,0,-1,678,1261,-6.71851,-2.43391
-539,-237,-8.77234,-0.371582,0,0,0,0,0,0,0,-1,685,1261,-8.77234,0.371538
-532,-237,-9.16132,0.120605,-0.0128801,0.0175785,-0.00520203,0.0184425,-0.0137441,-1.40622,0.0186488,0.0463754,692,1261,-9.16131,-0.120661
-525,-237,-9.49182,0.360107,-0.0163479,0.021331,-0.00610292,0.0222948,-0.0173117,-1.41416,0.0229271,0.0459685,699,1261,-9.49183,-0.360094
-518,-237,-9.62787,0.411011,-0.0199631,0.0249072,-0.00675895,0.0259032,-0.0209591,-1.42449,0.0271061,0.0412624,706,1261,-9.62789,-0.411061
-511,-237,-9.76746,0.544434,-0.0232979,0.0274981,-0.00682379,0.0283988,-0.0241986,-1.43956,0.0303994,0.0364118,713,1261,-9.76745,-0.544447
-504,-237,-9.784,0.522583,-0.0252638,0.027783,-0.00549343,0.0283459,-0.0258267,-1.46868,0.0312879,0.0372009,720,1261,-9.784,-0.522545
-497,-237,-9.77313,0.610718,-0.0246516,0.0232843,-0.00196611,0.0233648,-0.0247321,-1.52987,0.0277725,0.0418798,727,1261,-9.77315,-0.610707
-490,-237,0,0,0,0,0,0,0,0,0,-1,734,1261,0,0
-483,-237,0,0,0,0,0,0,0,0,0,-1,741,1261,0,0
-476,-237,0,0,0,0,0,0,0,0,0,-1,748,1261,0,0
-469,-237,0,0,0,0,0,0,0,0,0,-1,755,1261,0,0
-462,-237,0,0,0,0,0,0,0,0,0,-1,762,1261,0,0
-455,-237,0,0,0,0,0,0,0,0,0,-1,769,1261,0,0
-448,-237,0,0,0,0,0,0,0,0,0,-1,776,1261,0,0
-441,-237,0,0,0,0,0,0,0,0,0,-1,783,1261,0,0
-434,-237,0,0,0,0,0,0,0,0,0,-1,790,1261,0,0
-427,-237,0,0,0,0,0,0,0,0,0,-1,797,1261,0,0
-420,-237,0,0,0,0,0,0,0,0,0,-1,804,1261,0,0
-413,-237,0,0,0,0,0,0,0,0,0,-1,811,1261,0,0
-406,-237,0,0,0,0,0,0,0,0,0,-1,818,1261,0,0
-399,-237,0,0,0,0,0,0,0,0,0,-1,825,1261,0,0
-392,-237,0,0,0,0,0,0,0,0,0,-1,832,1261,0,0
-385,-237,0,0,0,0,0,0,0,0,0,-1,839,1261,0,0
-378,-237,0,0,0,0,0,0,0,0,0,-1,846,1261,0,0
-371,-237,0,0,0,0,0,0,0,0,0,-1,853,1261,0,0
-364,-237,0,0,0,0,0,0,0,0,0,-1,860,1261,0,0
-357,-237,0,0,0,0,0,0,0,0,0,-1,867,1261,0,0
-350,-237,0,0,0,0,0,0,0,0,0,-1,874,1261,0,0
-343,-237,0,0,0,0,0,0,0,0,0,-1,881,1261,0,0
-336,-237,0,0,0,0,0,0,0,0,0,-1,888,1261,0,0
-329,-237,0,0,0,0,0,0,0,0,0,-1,895,1261,0,0
-322,-237,0,0,0,0,0,0,0,0,0,-1,902,1261,0,0
-315,-237,0,0,0,0,0,0,0,0,0,-1,909,1261,0,0
-308,-237,0,0,0,0,0,0,0,0,0,-1,916,1261,0,0
-301,-237,0,0,0,0,0,0,0,0,0,-1,923,1261,0,0
-294,-237,0,0,0,0,0,0,0,0,0,-1,930,1261,0,0
-287,-237,0,0,0,0,0,0,0,0,0,-1,937,1261,0,0
-280,-237,0,0,0,0,0,0,0,0,0,-1,944,1261,0,0
-273,-237,0,0,0,0,0,0,0,0,0,-1,951,1261,0,0
-266,-237,0,0,0,0,0,0,0,0,0,-1,958,1261,0,0
-259,-237,0,0,0,0,0,0,0,0,0,-1,965,1261,0,0
-252,-237,0,0,0,0,0,0,0,0,0,-1,972,1261,0,0
-245,-237,0,0,0,0,0,0,0,0,0,-1,979,1261,0,0
-238,-237,0,0,0,0,0,0,0,0,0,-1,986,1261,0,0
-231,-237,0,0,0,0,0,0,0,0,0,-1,993,1261,0,0
-224,-237,0,0,0,0,0,0,0,0,0,-1,1000,1261,0,0
-217,-237,0,0,0,0,0,0,0,0,0,-1,1007,1261,0,0
-210,-237,0,0,0,0,0,0,0,0,0,-1,1014,1261,0,0
-203,-237,0,0,0,0,0,0,0,0,0,-1,1021,1261,0,0
-196,-237,0,0,0,0,0,0,0,0,0,-1,1028,1261,0,0
-189,-237,0,0,0,0,0,0,0,0,0,-1,1035,1261,0,0
-182,-237,0,0,0,0,0,0,0,0,0,-1,1042,1261,0,0
-175,-237,0,0,0,0,0,0,0,0,0,-1,1049,1261,0,0
-168,-237,0,0,0,0,0,0,0,0,0,-1,1056,1261,0,0
-161,-237,0,0,0,0,0,0,0,0,0,-1,1063,1261,0,0
-154,-237,0,0,0,0,0,0,0,0,0,-1,1070,1261,0,0
-147,-237,0,0,0,0,0,0,0,0,0,-1,1077,1261,0,0
-140,-237,0,0,0,0,0,0,0,0,0,-1,1084,1261,0,0
-133,-237,0,0,0,0,0,0,0,0,0,-1,1091,1261,0,0
-126,-237,0,0,0,0,0,0,0,0,0,-1,1098,1261,0,0
-119,-237,0,0,0,0,0,0,0,0,0,-1,1105,1261,0,0
-112,-237,0,0,0,0,0,0,0,0,0,-1,1112,1261,0,0
-105,-237,0,0,0,0,0,0,0,0,0,-1,1119,1261,0,0
-98,-237,0,0,0,0,0,0,0,0,0,-1,1126,1261,0,0
-91,-237,0,0,0,0,0,0,0,0,0,-1,1133,1261,0,0
-84,-237,0,0,0,0,0,0,0,0,0,-1,1140,1261,0,0
-77,-237,0,0,0,0,0,0,0,0,0,-1,1147,1261,0,0
-70,-237,0,0,0,0,0,0,0,0,0,-1,1154,1261,0,0
-63,-237,0,0,0,0,0,0,0,0,0,-1,1161,1261,0,0
-56,-237,0,0,0,0,0,0,0,0,0,-1,1168,1261,0,0
-49,-237,0,0,0,0,0,0,0,0,0,-1,1175,1261,0,0
-42,-237,0,0,0,0,0,0,0,0,0,-1,1182,1261,0,0
-35,-237,0,0,0,0,0,0,0,0,0,-1,1189,1261,0,0
-28,-237,0,0,0,0,0,0,0,0,0,-1,1196,1261,0,0
-21,-237,0,0,0,0,0,0,0,0,0,-1,1203,1261,0,0
-14,-237,0,0,0,0,0,0,0,0,0,-1,1210,1261,0,0
-7,-237,0,0,0,0,0,0,0,0,0,-1,1217,1261,0,0
0,-237,0,0,0,0,0,0,0,0,0,-1,1224,1261,0,0
7,-237,0,0,0,0,0,0,0,0,0,-1,1231,1261,0,0
14,-237,0,0,0,0,0,0,0,0,0,-1,1238,1261,0,0
21,-237,0,0,0,0,0,0,0,0,0,-1,1245,1261,0,0
28,-237,0,0,0,0,0,0,0,0,0,-1,1252,1261,0,0
35,-237,0,0,0,0,0,0,0,0,0,-1,1259,1261,0,0
42,-237,0,0,0,0,0,0,0,0,0,-1,1266,1261,0,0
49,-237,0,0,0,0,0,0,0,0,0,-1,1273,1261,0,0
56,-237,0,0,0,0,0,0,0,0,0,-1,1280,1261,0,0
63,-237,0,0,0,0,0,0,0,0,0,-1,1287,1261,0,0
70,-237,0,0,0,0,0,0,0,0,0,-1,1294,1261,0,0
77,-237,0,0,0,0,0,0,0,0,0,-1,1301,1261,0,0
84,-237,0,0,0,0,0,0,0,0,0,-1,1308,1261,0,0
91,-237,0,0,0,0,0,0,0,0,0,-1,1315,1261,0,0
98,-237,0,0,0,0,0,0,0,0,0,-1,1322,1261,0,0
105,-237,0,0,0,0,0,0,0,0,0,-1,1329,1261,0,0
112,-237,0,0,0,0,0,0,0,0,0,-1,1336,1261,0,0
119,-237,0,0,0,0,0,0,0,0,0,-1,1343,1261,0,0
126,-237,0,0,0,0,0,0,0,0,0,-1,1350,1261,0,0
133,-237,0,0,0,0,0,0,0,0,0,-1,1357,1261,0,0
140,-237,0,0,0,0,0,0,0,0,0,-1,1364,1261,0,0
147,-237,0,0,0,0,0,0,0,0,0,-1,1371,1261,0,0
154,-237,0,0,0,0,0,0,0,0,0,-1,1378,1261,0,0
161,-237,0,0,0,0,0,0,0,0,0,-1,1385,1261,0,0
168,-237,0,0,0,0,0,0,0,0,0,-1,1392,1261,0,0
175,-237,0,0,0,0,0,0,0,0,0,-1,1399,1261,0,0
182,-237,0,0,0,0,0,0,0,0,0,-1,1406,1261,0,0
189,-237,0,0,0,0,0,0,0,0,0,-1,1413,1261,0,0
196,-237,0,0,0,0,0,0,0,0,0,-1,1420,1261,0,0
203,-237,0,0,0,0,0,0,0,0,0,-1,1427,1261,0,0
210,-237,0,0,0,0,0,0,0,0,0,-1,1434,1261,0,0
217,-237,0,0,0,0,0,0,0,0,0,-1,1441,1261,0,0
224,-237,0,0,0,0,0,0,0,0,0,-1,1448,1261,0,0
231,-237,0,0,0,0,0,0,0,0,0,-1,1455,1261,0,0
238,-237,0,0,0,0,0,0,0,0,0,-1,1462,1261,0,0
245,-237,0,0,0,0,0,0,0,0,0,-1,1469,1261,0,0
252,-237,0,0,0,0,0,0,0,0,0,-1,1476,1261,0,0
259,-237,0,0,0,0,0,0,0,0,0,-1,1483,1261,0,0
266,-237,0,0,0,0,0,0,0,0,0,-1,1490,1261,0,0
273,-237,0,0,0,0,0,0,0,0,0,-1,1497,1261,0,0
280,-237,0,0,0,0,0,0,0,0,0,-1,1504,1261,0,0
287,-237,0,0,0,0,0,0,0,0,0,-1,1511,1261,0,0
294,-237,0,0,0,0,0,0,0,0,0,-1,1518,1261,0,0
301,-237,0,0,0,0,0,0,0,0,0,-1,1525,1261,0,0
308,-237,0,0,0,0,0,0,0,0,0,-1,1532,1261,0,0
315,-237,0,0,0,0,0,0,0,0,0,-1,1539,1261,0,0
322,-237,0,0,0,0,0,0,0,0,0,-1,1546,1261,0,0
329,-237,0,0,0,0,0,0,0,0,0,-1,1553,1261,0,0
336,-237,0,0,0,0,0,0,0,0,0,-1,1560,1261,0,0
343,-237,0,0,0,0,0,0,0,0,0,-1,1567,1261,0,0
350,-237,0,0,0,0,0,0,0,0,0,-1,1574,1261,0,0
357,-237,0,0,0,0,0,0,0,0,0,-1,1581,1261,0,0
364,-237,0,0,0,0,0,0,0,0,0,-1,1588,1261,0,0
371,-237,0,0,0,0,0,0,0,0,0,-1,1595,1261,0,0
378,-237,0,0,0,0,0,0,0,0,0,-1,1602,1261,0,0
385,-237,0,0,0,0,0,0,0,0,0,-1,1609,1261,0,0
392,-237,0,0,0,0,0,0,0,0,0,-1,1616,1261,0,0
399,-237,0,0,0,0,0,0,0,0,0,-1,1623,1261,0,0
406,-237,0,0,0,0,0,0,0,0,0,-1,1630,1261,0,0
413,-237,0,0,0,0,0,0,0,0,0,-1,1637,1261,0,0
420,-237,0,0,0,0,0,0,0,0,0,-1,1644,1261,0,0
427,-237,0,0,0,0,0,0,0,0,0,-1,1651,1261,0,0
434,-237,0,0,0,0,0,0,0,0,0,-1,1658,1261,0,0
441,-237,0,0,0,0,0,0,0,0,0,-1,1665,1261,0,0
448,-237,0,0,0,0,0,0,0,0,0,-1,1672,1261,0,0
455,-237,0,0,0,0,0,0,0,0,0,-1,1679,1261,0,0
462,-237,0,0,0,0,0,0,0,0,0,-1,1686,1261,0,0
469,-237,0,0,0,0,0,0,0,0,0,-1,1693,1261,0,0
476,-237,0,0,0,0,0,0,0,0,0,-1,1700,1261,0,0
483,-237,0,0,0,0,0,0,0,0,0,-1,1707,1261,0,0
490,-237,0,0,0,0,0,0,0,0,0,-1,1714,1261,0,0
497,-237,0,0,0,0,0,0,0,0,0,-1,1721,1261,0,0
504,-237,0,0,0,0,0,0,0,0,0,-1,1728,1261,0,0
511,-237,0,0,0,0,0,0,0,0,0,-1,1735,1261,0,0
518,-237,0,0,0,0,0,0,0,0,0,-1,1742,1261,0,0
525,-237,0,0,0,0,0,0,0,0,0,-1,1749,1261,0,0
532,-237,0,0,0,0,0,0,0,0,0,-1,1756,1261,0,0
539,-237,0,0,0,0,0,0,0,0,0,-1,1763,1261,0,0
546,-237,0,0,0,0,0,0,0,0,0,-1,1770,1261,0,0
553,-237,0,0,0,0,0,0,0,0,0,-1,1777,1261,0,0
560,-237,0,0,0,0,0,0,0,0,0,-1,1784,1261,0,0
567,-237,0,0,0,0,0,0,0,0,0,-1,1791,1261,0,0
574,-237,0,0,0,0,0,0,0,0,0,-1,1798,1261,0,0
581,-237,0,0,0,0,0,0,0,0,0,-1,1805,1261,0,0
588,-237,0,0,0,0,0,0,0,0,0,-1,1812,1261,0,0
595,-237,0,0,0,0,0,0,0,0,0,-1,1819,1261,0,0
602,-237,0,0,0,0,0,0,0,0,0,-1,1826,1261,0,0
609,-237,0,0,0,0,0,0,0,0,0,-1,1833,1261,0,0
616,-237,16.152,2.33337,-0.00215805,9.62876e-06,-0.00244379,0.00159914,-0.00374757,-0.99412,0.0031689,0.0345072,1840,1261,16.152,-2.33343
623,-237,16.1022,2.34949,-0.00340793,0.00628967,-0.000670069,0.00633575,-0.00345402,-1.50213,0.00573317,0.0307893,1847,1261,16.1021,-2.34945
630,-237,16.079,2.36609,-0.0048717,0.0110892,0.000438619,0.0111013,-0.00488374,1.54334,0.00945879,0.0241564,1854,1261,16.079,-2.36608
637,-237,16.0331,2.31152,-0.00612746,0.012733,0.00101349,0.0127873,-0.00618176,1.51727,0.0111709,0.0204995,1861,1261,16.0331,-2.31153
644,-237,15.9573,2.20056,-0.00683664,0.0122584,0.00126817,0.0123423,-0.00692049,1.50477,0.0112672,0.0404995,1868,1261,15.9573,-2.20061
651,-237,15.8804,2.05457,-0.00689904,0.0108612,0.0013008,0.0109559,-0.00699381,1.49807,0.0104471,0.0491476,1875,1261,15.8803,-2.05453
658,-237,14.3038,2.49597,0,0,0,0,0,0,0,-1,1882,1261,14.3038,-2.49603
665,-237,14.458,2.9425,0,0,0,0,0,0,0,-1,1889,1261,14.458,-2.94252
672,-237,14.6128,3.40735,0,0,0,0,0,0,0,-1,1896,1261,14.6128,-3.4073
679,-237,14.3593,3.85315,0,0,0,0,0,0,0,-1,1903,1261,14.3592,-3.8532
686,-237,13.9606,4.17712,-0.0050253,0.00298436,0.000857926,0.00307523,-0.00511616,1.46528,0.00477798,0.0289056,1910,1261,13.9606,-4.1771
693,-237,13.7736,4.01147,-0.00430066,0.0013666,0.000679331,0.00144689,-0.00438095,1.45315,0.00350397,0.014395,1917,1261,13.7735,-4.01145
700,-237,13.8124,3.9165,-0.0030667,0.000162344,0.000350363,0.000199922,-0.00310428,1.46395,0.00213928,0.00991011,1924,1261,13.8124,-3.91655
707,-237,13.8252,3.80371,-0.00192253,-0.000529916,0.00035265,-0.000445707,-0.00200674,1.3364,0.00121678,0.00909792,1931,1261,13.8252,-3.8037
714,-237,13.8263,3.66284,-0.000646847,1.14204e-05,-0.000342513,0.000157307,-0.000792734,-1.16814,0.000587982,0.0127899,1938,1261,13.8263,-3.66288
721,-237,13.802,3.53857,0.000721484,0.00101296,-0.00118679,0.00206292,-0.000328483,-0.846492,0.00149684,0.0148185,1945,1261,13.8019,-3.5386
728,-237,13.8308,3.42944,0.00207082,0.00199198,-0.00265221,0.00468391,-0.000621102,-0.777967,0.00334889,0.0134027,1952,1261,13.8308,-3.42949
735,-237,13.8348,3.32739,0.00293269,0.0033017,-0.00473791,0.0078587,-0.00162431,-0.804859,0.00585614,0.0167097,1959,1261,13.8348,-3.32734
742,-237,13.8351,3.21985,0.00380477,0.00473922,-0.00718133,0.0114685,-0.00292452,-0.817883,0.00878431,0.0141383,1966,1261,13.8351,-3.2199
749,-237,13.8281,3.10083,0.00415421,0.00620381,-0.010168,0.0153986,-0.00504054,-0.835622,0.0122952,0.00938263,1973,1261,13.8282,-3.1008
756,-237,13.7963,2.97925,0.00395029,0.00766031,-0.0138508,0.0197798,-0.00816918,-0.851966,0.016594,0.0120416,1980,1261,13.7962,-2.97929
763,-237,13.7538,2.77478,0.00296777,0.00907352,-0.0184579,0.0247293,-0.012688,-0.867355,0.0219726,0.0261519,1987,1261,13.7538,-2.77474
770,-237,13.7042,2.44348,0.000730064,0.0103118,-0.024132,0.0301239,-0.0190821,-0.883387,0.0286465,0.0403847,1994,1261,13.7043,-2.44352
777,-237,13.6267,2.11633,-0.00344667,0.0111837,-0.0309703,0.0356911,-0.027954,-0.901373,0.0368359,0.0451514,2001,1261,13.6267,-2.1163
784,-237,13.5415,1.82153,0,0,0,0,0,0,0,-1,2008,1261,13.5415,-1.82149
791,-237,14.0693,1.12061,0,0,0,0,0,0,0,-1,2015,1261,14.0693,-1.12066
798,-237,0,0,0,0,0,0,0,0,0,-1,2022,1261,0,0
805,-237,0,0,0,0,0,0,0,0,0,-1,2029,1261,0,0
812,-237,0,0,0,0,0,0,0,0,0,-1,2036,1261,0,0
-700,-244,0,0,0,0,0,0,0,0,0,-1,524,1268,0,0
-693,-244,0,0,0,0,0,0,0,0,0,-1,531,1268,0,0
-686,-244,0,0,0,0,0,0,0,0,0,-1,538,1268,0,0
-679,-244,0,0,0,0,0,0,0,0,0,-1,545,1268,0,0
-672,-244,-7.74451,-0.465088,0,0,0,0,0,0,0,-1,552,1268,-7.74453,0.465079
-665,-244,-8.87604,3.67444,0,0,0,0,0,0,0,-1,559,1268,-8.87606,-3.67441
-658,-244,-8.95978,3.5188,0.0304128,0.084566,0.00575463,0.0851708,0.029808,1.46609,0.0499057,0.0480771,566,1268,-8.95977,-3.5188
-651,-244,-9.21698,3.98877,0.0308996,0.0708524,0.00454402,0.0713627,0.0303893,1.45896,0.041352,0.0469163,573,1268,-9.21696,-3.98881
-644,-244,-7.0788,-0.640869,0.0289874,0.0578813,0.003614,0.0583265,0.0285422,1.44823,0.0336774,0.0484988,580,1268,-7.07878,0.640917
-637,-244,-7.04626,-0.338623,0.0256089,0.0460463,0.00290992,0.0464526,0.0252027,1.43209,0.0268517,0.0458531,587,1268,-7.04627,0.338571
-630,-244,-6.90845,0.579102,0.0214463,0.0355857,0.00234797,0.0359654,0.0210666,1.41047,0.0208662,0.0426608,594,1268,-6.90847,-0.579116
-623,-244,-7.12988,0.868408,0.0172759,0.0270757,0.00176232,0.0273829,0.0169686,1.39817,0.0159598,0.0308824,601,1268,-7.12988,-0.868413
-616,-244,-7.1557,0.979248,0.0135181,0.0200138,0.00126914,0.0202529,0.0132789,1.38454,0.0118804,0.0161145,608,1268,-7.15568,-0.979255
-609,-244,-7.14001,1.08728,0.010606,0.0132794,0.00133774,0.0138339,0.0100516,1.1779,0.00825586,0.0138693,615,1268,-7.14004,-1.08728
-602,-244,-7.12811,1.23792,0.00793481,0.00715395,0.000649013,0.00830178,0.00678698,0.51461,0.00510506,0.0139443,622,1268,-7.12813,-1.23793
-595,-244,-7.12201,1.40955,0.0050987,0.00292084,0.00105912,0.00552882,0.00249072,0.385761,0.00319728,0.0149988,629,1268,-7.12203,-1.40949
-588,-244,-7.13922,1.56335,0.00240139,0.00103773,0.000888478,0.00283951,0.000599608,0.458121,0.00172816,0.0197412,636,1268,-7.13923,-1.56333
-581,-244,-7.1474,1.67749,0.00157963,0.000305616,0.000691534,0.00188283,2.41119e-06,0.413209,0.00125442,0.0172411,643,1268,-7.14741,-1.67743
-574,-244,-7.14435,1.82825,0.000549626,0.00109626,5.9391e-05,0.00110263,0.000543247,1.46381,0.000636628,0.0123408,650,1268,-7.14437,-1.82829
-567,-244,-7.14587,1.974,-0.00104217,0.00322844,-0.000994508,0.00344868,-0.00126241,-1.35286,0.00281588,0.009511,657,1268,-7.14587,-1.97404
-560,-244,-7.11603,2.12415,-0.00278925,0.00589321,-0.00197454,0.00632116,-0.0032172,-1.35736,0.00560333,0.0135733,664,1268,-7.116,-2.12414
-553,-244,-6.97894,2.32959,-0.00490242,0.00888705,-0.00288877,0.00946777,-0.00548313,-1.37242,0.0087335,0.0364884,671,1268,-6.97894,-2.32963
-546,-244,-6.77161,2.00806,0,0,0,0,0,0,0,-1,678,1268,-6.77159,-2.00804
-539,-244,-7.14038,-0.97168,0,0,0,0,0,0,0,-1,685,1268,-7.1404,0.971713
-532,-244,-8.90698,0.00500488,0,0,0,0,0,0,0,-1,692,1268,-8.90698,-0.00495224
-525,-244,-9.08972,0.0576172,-0.0190767,0.0242914,-0.0067453,0.0253163,-0.0201016,-1.42,0.0262796,0.0466742,699,1268,-9.08972,-0.05756
-518,-244,-9.44678,0.286865,-0.0233505,0.028523,-0.00742118,0.0295638,-0.0243913,-1.43146,0.0311987,0.0435666,706,1268,-9.44679,-0.286859
-511,-244,-9.73572,0.573486,-0.0275856,0.031883,-0.00750665,0.0328159,-0.0285185,-1.44715,0.0354404,0.0424208,713,1268,-9.73575,-0.573487
-504,-244,-9.79059,0.645752,-0.0309876,0.03311,-0.00635678,0.0337343,-0.031612,-1.47289,0.0377343,0.0420347,720,1268,-9.79059,-0.645805
-497,-244,-9.81061,0.723755,-0.0322111,0.0299038,-0.00325669,0.0300741,-0.0323814,-1.51856,0.0360669,0.0432188,727,1268,-9.81059,-0.723742
-490,-244,0,0,0,0,0,0,0,0,0,-1,734,1268,0,0
-483,-244,0,0,0,0,0,0,0,0,0,-1,741,1268,0,0
-476,-244,0,0,0,0,0,0,0,0,0,-1,748,1268,0,0
-469,-244,0,0,0,0,0,0,0,0,0,-1,755,1268,0,0
-462,-244,0,0,0,0,0,0,0,0,0,-1,762,1268,0,0
-455,-244,0,0,0,0,0,0,0,0,0,-1,769,1268,0,0
-448,-244,0,0,0,0,0,0,0,0,0,-1,776,1268,0,0
-441,-244,0,0,0,0,0,0,0,0,0,-1,783,1268,0,0
-434,-244,0,0,0,0,0,0,0,0,0,-1,790,1268,0,0
-427,-244,0,0,0,0,0,0,0,0,0,-1,797,1268,0,0
-420,-244,0,0,0,0,0,0,0,0,0,-1,804,1268,0,0
-413,-244,0,0,0,0,0,0,0,0,0,-1,811,1268,0,0
-406,-244,0,0,0,0,0,0,0,0,0,-1,818,1268,0,0
-399,-244,0,0,0,0,0,0,0,0,0,-1,825,1268,0,0
-392,-244,0,0,0,0,0,0,0,0,0,-1,832,1268,0,0
-385,-244,0,0,0,0,0,0,0,0,0,-1,839,1268,0,0
-378,-244,0,0,0,0,0,0,0,0,0,-1,846,1268,0,0
-371,-244,0,0,0,0,0,0,0,0,0,-1,853,1268,0,0
-364,-244,0,0,0,0,0,0,0,0,0,-1,860,1268,0,0
-357,-244,0,0,0,0,0,0,0,0,0,-1,867,1268,0,0
-350,-244,0,0,0,0,0,0,0,0,0,-1,874,1268,0,0
-343,-244,0,0,0,0,0,0,0,0,0,-1,881,1268,0,0
-336,-244,0,0,0,0,0,0,0,0,0,-1,888,1268,0,0
-329,-244,0,0,0,0,0,0,0,0,0,-1,895,1268,0,0
-322,-244,0,0,0,0,0,0,0,0,0,-1,902,1268,0,0
-315,-244,0,0,0,0,0,0,0,0,0,-1,909,1268,0,0
-308,-244,0,0,0,0,0,0,0,0,0,-1,916,1268,0,0
-301,-244,0,0,0,0,0,0,0,0,0,-1,923,1268,0,0
-294,-244,0,0,0,0,0,0,0,0,0,-1,930,1268,0,0
-287,-244,0,0,0,0,0,0,0,0,0,-1,937,1268,0,0
-280,-244,0,0,0,0,0,0,0,0,0,-1,944,1268,0,0
-273,-244,0,0,0,0,0,0,0,0,0,-1,951,1268,0,0
-266,-244,0,0,0,0,0,0,0,0,0,-1,958,1268,0,0
-259,-244,0,0,0,0,0,0,0,0,0,-1,965,1268,0,0
-252,-244,0,0,0,0,0,0,0,0,0,-1,972,1268,0,0
-245,-244,0,0,0,0,0,0,0,0,0,-1,979,1268,0,0
-238,-244,0,0,0,0,0,0,0,0,0,-1,986,1268,0,0
-231,-244,0,0,0,0,0,0,0,0,0,-1,993,1268,0,0
-224,-244,0,0,0,0,0,0,0,0,0,-1,1000,1268,0,0
-217,-244,0,0,0,0,0,0,0,0,0,-1,1007,1268,0,0
-210,-244,0,0,0,0,0,0,0,0,0,-1,1014,1268,0,0
-203,-244,0,0,0,0,0,0,0,0,0,-1,1021,1268,0,0
-196,-244,0,0,0,0,0,0,0,0,0,-1,1028,1268,0,0
-189,-244,0,0,0,0,0,0,0,0,0,-1,1035,1268,0,0
-182,-244,0,0,0,0,0,0,0,0,0,-1,1042,1268,0,0
-175,-244,0,0,0,0,0,0,0,0,0,-1,1049,1268,0,0
-168,-244,0,0,0,0,0,0,0,0,0,-1,1056,1268,0,0
-161,-244,0,0,0,0,0,0,0,0,0,-1,1063,1268,0,0
-154,-244,0,0,0,0,0,0,0,0,0,-1,1070,1268,0,0
-147,-244,0,0,0,0,0,0,0,0,0,-1,1077,1268,0,0
-140,-244,0,0,0,0,0,0,0,0,0,-1,1084,1268,0,0
-133,-244,0,0,0,0,0,0,0,0,0,-1,1091,1268,0,0
-126,-244,0,0,0,0,0,0,0,0,0,-1,1098,1268,0,0
-119,-244,0,0,0,0,0,0,0,0,0,-1,1105,1268,0,0
-112,-244,0,0,0,0,0,0,0,0,0,-1,1112,1268,0,0
-105,-244,0,0,0,0,0,0,0,0,0,-1,1119,1268,0,0
-98,-244,0,0,0,0,0,0,0,0,0,-1,1126,1268,0,0
-91,-244,0,0,0,0,0,0,0,0,0,-1,1133,1268,0,0
-84,-244,0,0,0,0,0,0,0,0,0,-1,1140,1268,0,0
-77,-244,0,0,0,0,0,0,0,0,0,-1,1147,1268,0,0
-70,-244,0,0,0,0,0,0,0,0,0,-1,1154,1268,0,0
-63,-244,0,0,0,0,0,0,0,0,0,-1,1161,1268,0,0
-56,-244,0,0,0,0,0,0,0,0,0,-1,1168,1268,0,0
-49,-244,0,0,0,0,0,0,0,0,0,-1,1175,1268,0,0
-42,-244,0,0,0,0,0,0,0,0,0,-1,1182,1268,0,0
-35,-244,0,0,0,0,0,0,0,0,0,-1,1189,1268,0,0
-28,-244,0,0,0,0,0,0,0,0,0,-1,1196,1268,0,0
-21,-244,0,0,0,0,0,0,0,0,0,-1,1203,1268,0,0
-14,-244,0,0,0,0,0,0,0,0,0,-1,1210,1268,0,0
-7,-244,0,0,0,0,0,0,0,0,0,-1,1217,1268,0,0
0,-244,0,0,0,0,0,0,0,0,0,-1,1224,1268,0,0
7,-244,0,0,0,0,0,0,0,0,0,-1,1231,1268,0,0
14,-244,0,0,0,0,0,0,0,0,0,-1,1238,1268,0,0
21,-244,0,0,0,0,0,0,0,0,0,-1,1245,1268,0,0
28,-244,0,0,0,0,0,0,0,0,0,-1,1252,1268,0,0
35,-244,0,0,0,0,0,0,0,0,0,-1,1259,1268,0,0
42,-244,0,0,0,0,0,0,0,0,0,-1,1266,1268,0,0
49,-244,0,0,0,0,0,0,0,0,0,-1,1273,1268,0,0
56,-244,0,0,0,0,0,0,0,0,0,-1,1280,1268,0,0
63,-244,0,0,0,0,0,0,0,0,0,-1,1287,1268,0,0
70,-244,0,0,0,0,0,0,0,0,0,-1,1294,1268,0,0
77,-244,0,0,0,0,0,0,0,0,0,-1,1301,1268,0,0
84,-244,0,0,0,0,0,0,0,0,0,-1,1308,1268,0,0
91,-244,0,0,0,0,0,0,0,0,0,-1,1315,1268,0,0
98,-244,0,0,0,0,0,0,0,0,0,-1,1322,1268,0,0
105,-244,0,0,0,0,0,0,0,0,0,-1,1329,1268,0,0
112,-244,0,0,0,0,0,0,0,0,0,-1,1336,1268,0,0
119,-244,0,0,0,0,0,0,0,0,0,-1,1343,1268,0,0
126,-244,0,0,0,0,0,0,0,0,0,-1,1350,1268,0,0
133,-244,0,0,0,0,0,0,0,0,0,-1,1357,1268,0,0
140,-244,0,0,0,0,0,0,0,0,0,-1,1364,1268,0,0
147,-244,0,0,0,0,0,0,0,0,0,-1,1371,1268,0,0
154,-244,0,0,0,0,0,0,0,0,0,-1,1378,1268,0,0
161,-244,0,0,0,0,0,0,0,0,0,-1,1385,1268,0,0
168,-244,0,0,0,0,0,0,0,0,0,-1,1392,1268,0,0
175,-244,0,0,0,0,0,0,0,0,0,-1,1399,1268,0,0
182,-244,0,0,0,0,0,0,0,0,0,-1,1406,1268,0,0
189,-244,0,0,0,0,0,0,0,0,0,-1,1413,1268,0,0
196,-244,0,0,0,0,0,0,0,0,0,-1,1420,1268,0,0
203,-244,0,0,0,0,0,0,0,0,0,-1,1427,1268,0,0
210,-244,0,0,0,0,0,0,0,0,0,-1,1434,1268,0,0
217,-244,0,0,0,0,0,0,0,0,0,-1,1441,1268,0,0
224,-244,0,0,0,0,0,0,0,0,0,-1,1448,1268,0,0
231,-244,0,0,0,0,0,0,0,0,0,-1,1455,1268,0,0
238,-244,0,0,0,0,0,0,0,0,0,-1,1462,1268,0,0
245,-244,0,0,0,0,0,0,0,0,0,-1,1469,1268,0,0
252,-244,0,0,0,0,0,0,0,0,0,-1,1476,1268,0,0
259,-244,0,0,0,0,0,0,0,0,0,-1,1483,1268,0,0
266,-244,0,0,0,0,0,0,0,0,0,-1,1490,1268,0,0
273,-244,0,0,0,0,0,0,0,0,0,-1,1497,1268,0,0
280,-244,0,0,0,0,0,0,0,0,0,-1,1504,1268,0,0
287,-244,0,0,0,0,0,0,0,0,0,-1,1511,1268,0,0
294,-244,0,0,0,0,0,0,0,0,0,-1,1518,1268,0,0
301,-244,0,0,0,0,0,0,0,0,0,-1,1525,1268,0,0
308,-244,0,0,0,0,0,0,0,0,0,-1,1532,1268,0,0
315,-244,0,0,0,0,0,0,0,0,0,-1,1539,1268,0,0
322,-244,0,0,0,0,0,0,0,0,0,-1,1546,1268,0,0
329,-244,0,0,0,0,0,0,0,0,0,-1,1553,1268,0,0
336,-244,0,0,0,0,0,0,0,0,0,-1,1560,1268,0,0
343,-244,0,0,0,0,0,0,0,0,0,-1,1567,1268,0,0
350,-244,0,0,0,0,0,0,0,0,0,-1,1574,1268,0,0
357,-244,0,0,0,0,0,0,0,0,0,-1,1581,1268,0,0
364,-244,0,0,0,0,0,0,0,0,0,-1,1588,1268,0,0
371,-244,0,0,0,0,0,0,0,0,0,-1,1595,1268,0,0
378,-244,0,0,0,0,0,0,0,0,0,-1,1602,1268,0,0
385,-244,0,0,0,0,0,0,0,0,0,-1,1609,1268,0,0
392,-244,0,0,0,0,0,0,0,0,0,-1,1616,1268,0,0
399,-244,0,0,0,0,0,0,0,0,0,-1,1623,1268,0,0
406,-244,0,0,0,0,0,0,0,0,0,-1,1630,1268,0,0
413,-244,0,0,0,0,0,0,0,0,0,-1,1637,1268,0,0
420,-244,0,0,0,0,0,0,0,0,0,-1,1644,1268,0,0
427,-244,0,0,0,0,0,0,0,0,0,-1,1651,1268,0,0
434,-244,0,0,0,0,0,0,0,0,0,-1,1658,1268,0,0
441,-244,0,0,0,0,0,0,0,0,0,-1,1665,1268,0,0
448,-244,0,0,0,0,0,0,0,0,0,-1,1672,1268,0,0
455,-244,0,0,0,0,0,0,0,0,0,-1,1679,1268,0,0
462,-244,0,0,0,0,0,0,0,0,0,-1,1686,1268,0,0
469,-244,0,0,0,0,0,0,0,0,0,-1,1693,1268,0,0
476,-244,0,0,0,0,0,0,0,0,0,-1,1700,1268,0,0
483,-244,0,0,0,0,0,0,0,0,0,-1,1707,1268,0,0
490,-244,0,0,0,0,0,0,0,0,0,-1,1714,1268,0,0
497,-244,0,0,0,0,0,0,0,0,0,-1,1721,1268,0,0
504,-244,0,0,0,0,0,0,0,0,0,-1,1728,1268,0,0
511,-244,0,0,0,0,0,0,0,0,0,-1,1735,1268,0,0
518,-244,0,0,0,0,0,0,0,0,0,-1,1742,1268,0,0
525,-244,0,0,0,0,0,0,0,0,0,-1,1749,1268,0,0
532,-244,0,0,0,0,0,0,0,0,0,-1,1756,1268,0,0
539,-244,0,0,0,0,0,0,0,0,0,-1,1763,1268,0,0
546,-244,0,0,0,0,0,0,0,0,0,-1,1770,1268,0,0
553,-244,0,0,0,0,0,0,0,0,0,-1,1777,1268,0,0
560,-244,0,0,0,0,0,0,0,0,0,-1,1784,1268,0,0
567,-244,0,0,0,0,0,0,0,0,0,-1,1791,1268,0,0
574,-244,0,0,0,0,0,0,0,0,0,-1,1798,1268,0,0
581,-244,0,0,0,0,0,0,0,0,0,-1,1805,1268,0,0
588,-244,0,0,0,0,0,0,0,0,0,-1,1812,1268,0,0
595,-244,0,0,0,0,0,0,0,0,0,-1,1819,1268,0,0
602,-244,0,0,0,0,0,0,0,0,0,-1,1826,1268,0,0
609,-244,0,0,0,0,0,0,0,0,0,-1,1833,1268,0,0
616,-244,16.0994,2.25256,-0.00366379,0.00533118,-0.00262113,0.00603924,-0.00437185,-1.30696,0.00603648,0.0344839,1840,1268,16.0994,-2.25255
623,-244,16.0938,2.32642,-0.0048889,0.0112943,0.000251142,0.0112982,-0.00489279,1.55528,0.00958861,0.0258645,1847,1268,16.0937,-2.32641
630,-244,16.0782,2.32983,-0.00625866,0.0149009,0.00211396,0.01511,-0.00646779,1.47219,0.0127867,0.0217716,1854,1268,16.0782,-2.32981
637,-244,16.0291,2.25061,-0.00735284,0.0154089,0.00297886,0.0157923,-0.00773623,1.4428,0.0138471,0.0346924,1861,1268,16.0291,-2.25065
644,-244,15.9083,2.1051,-0.00784061,0.0141605,0.00315106,0.0146029,-0.00828302,1.43131,0.0133801,0.0447061,1868,1268,15.9083,-2.10511
651,-244,15.641,2.17468,-0.00772407,0.012231,0.00297967,0.0126664,-0.00815949,1.42569,0.0121174,0.0479825,1875,1268,15.641,-2.17465
658,-244,15.3468,2.07898,0,0,0,0,0,0,0,-1,1882,1268,15.3468,-2.07898
665,-244,13.9192,2.76868,0,0,0,0,0,0,0,-1,1889,1268,13.9191,-2.76873
672,-244,14.2471,2.9834,0,0,0,0,0,0,0,-1,1896,1268,14.247,-2.98345
679,-244,13.7649,3.97217,0,0,0,0,0,0,0,-1,1903,1268,13.7649,-3.97222
686,-244,13.6814,4.17456,-0.00533474,0.00301874,0.00141757,0.00325274,-0.00556874,1.4072,0.00515126,0.0224545,1910,1268,13.6814,-4.17462
693,-244,13.667,4.07324,-0.00441349,0.00115762,0.000958496,0.00131792,-0.00457378,1.40509,0.00357051,0.00953701,1917,1268,13.667,-4.0733
700,-244,13.6832,3.93164,-0.00282724,-0.00019898,0.000276793,-0.000170146,-0.00285607,1.467,0.00184994,0.00797217,1924,1268,13.6832,-3.93169
707,-244,13.6815,3.80286,-0.00128739,-0.000758212,9.25605e-05,-0.000742489,-0.00130312,1.40254,0.000754792,0.00954208,1931,1268,13.6815,-3.80283
714,-244,13.7174,3.67334,0.000541838,0.000120639,-0.00091027,0.00126555,-0.000603076,-0.671718,0.00110122,0.0111738,1938,1268,13.7174,-3.67331
721,-244,13.7009,3.54883,0.00254008,0.00147846,-0.00211939,0.00419412,-0.000175577,-0.662695,0.0028564,0.0140556,1945,1268,13.701,-3.54877
728,-244,13.698,3.42383,0.00461568,0.00282645,-0.00395743,0.00777835,-0.000336225,-0.674237,0.0053012,0.0173409,1952,1268,13.698,-3.42384
735,-244,13.6937,3.28845,0.00630829,0.00448443,-0.00636097,0.0118224,-0.00102964,-0.714202,0.00824624,0.0203321,1959,1268,13.6938,-3.28849
742,-244,13.713,3.18054,0.00810479,0.00628617,-0.00915944,0.0163999,-0.00200898,-0.735923,0.0116608,0.0147788,1966,1268,13.713,-3.18057
749,-244,13.6978,3.09045,0.00944489,0.00822025,-0.0125587,0.0214062,-0.00374107,-0.761039,0.0156674,0.0172971,1973,1268,13.6978,-3.09044
756,-244,13.6162,2.98254,0.0102312,0.010253,-0.0167215,0.0269636,-0.00647941,-0.785723,0.0204801,0.0225168,1980,1268,13.6163,-2.98255
763,-244,13.6923,2.72485,0.0101103,0.0123271,-0.0218059,0.0330528,-0.0106154,-0.810791,0.0262978,0.0373096,1987,1268,13.6922,-2.72481
770,-244,13.7849,2.47241,0,0,0,0,0,0,0,-1,1994,1268,13.7849,-2.47238
777,-244,13.9355,2.05957,0.00423292,0.0158466,-0.0349821,0.0455005,-0.025421,-0.867646,0.04149,0.0484637,2001,1268,13.9355,-2.05953
784,-244,13.4357,1.87939,-0.00370563,0.0166032,-0.0429522,0.050585,-0.0376874,-0.901473,0.0511452,0.0468767,2008,1268,13.4357,-1.87939
791,-244,0,0,0,0,0,0,0,0,0,-1,2015,1268,0,0
798,-244,0,0,0,0,0,0,0,0,0,-1,2022,1268,0,0
805,-244,0,0,0,0,0,0,0,0,0,-1,2029,1268,0,0
812,-244,0,0,0,0,0,0,0,0,0,-1,2036,1268,0,0
-700,-251,0,0,0,0,0,0,0,0,0,-1,524,1275,0,0
-693,-251,0,0,0,0,0,0,0,0,0,-1,531,1275,0,0
-686,-251,0,0,0,0,0,0,0,0,0,-1,538,1275,0,0
-679,-251,0,0,0,0,0,0,0,0,0,-1,545,1275,0,0
-672,-251,0,0,0,0,0,0,0,0,0,-1,552,1275,0,0
-665,-251,-8.13165,3.23242,0.031965,0.126577,0.00311139,0.126679,0.0318627,1.53796,0.0760889,0.0480569,559,1275,-8.13164,-3.23246
-658,-251,-8.33417,3.13574,0.0361673,0.106561,0.00249886,0.10665,0.0360787,1.53536,0.0626386,0.0493886,566,1275,-8.33414,-3.13578
-651,-251,-8.41052,3.2312,0.0361199,0.0877988,0.00210681,0.0878845,0.0360342,1.53012,0.0510133,0.0479323,573,1275,-8.41052,-3.23126
-644,-251,-8.46448,3.12585,0.0334224,0.0707307,0.00188421,0.0708256,0.0333275,1.52046,0.0409148,0.0446372,580,1275,-8.46445,-3.12583
-637,-251,-7.18774,-1.2229,0.0291974,0.0556249,0.00176285,0.055742,0.0290803,1.50448,0.0321928,0.0444883,587,1275,-7.18773,1.2229
-630,-251,-7.08893,1.17053,0.0242374,0.0426055,0.00166263,0.0427548,0.0240881,1.48125,0.0247506,0.0443604,594,1275,-7.08893,-1.17056
-623,-251,-7.00031,0.750244,0.0193292,0.032068,0.00148581,0.032239,0.0191582,1.45621,0.0187231,0.0372737,601,1275,-7.00029,-0.750294
-616,-251,-6.99854,0.972534,0.0149234,0.0235267,0.00126952,0.0237101,0.01474,1.42731,0.0138235,0.0199353,608,1275,-6.99856,-0.972507
-609,-251,-7.01489,1.09766,0.011562,0.0157294,0.00154333,0.0162387,0.0110527,1.25204,0.0095772,0.0186582,615,1275,-7.01489,-1.0977
-602,-251,-7.00458,1.23914,0.00841513,0.00865818,0.00081277,0.00935846,0.00771485,0.859608,0.00576968,0.014357,622,1275,-7.00457,-1.2391
-595,-251,-6.97717,1.38611,0.00530959,0.00378951,0.00130685,0.00606134,0.00303776,0.522014,0.00349952,0.0124921,629,1275,-6.97716,-1.38611
-588,-251,-6.97546,1.53711,0.00230744,0.00151891,0.00113844,0.00311795,0.000708395,0.6187,0.00188735,0.0148981,636,1275,-6.97546,-1.53705
-581,-251,-6.98822,1.70154,0.00123771,0.000492817,0.000929547,0.00186665,-0.000136123,0.594854,0.0012922,0.0140507,643,1275,-6.9882,-1.70156
-574,-251,-6.98517,1.85388,0.000141205,0.00113296,0.000227956,0.00118285,9.13186e-05,1.35535,0.000759956,0.0118544,650,1275,-6.98519,-1.85394
-567,-251,-6.99414,1.98584,-0.00153682,0.00332284,-0.000952377,0.00350282,-0.0017168,-1.38402,0.00307179,0.0103178,657,1275,-6.99414,-1.98585
-560,-251,-6.98492,2.13879,-0.0034122,0.00620587,-0.00207156,0.00663308,-0.0038394,-1.36742,0.00611758,0.0123126,664,1275,-6.98493,-2.13874
-553,-251,-6.89673,2.16577,-0.00569977,0.00953547,-0.00311403,0.0101474,-0.00631169,-1.37676,0.00958828,0.0281627,671,1275,-6.89674,-2.16573
-546,-251,-6.75671,2.09839,-0.00874467,0.0133562,-0.004089,0.0140884,-0.00947693,-1.39359,0.013692,0.048164,678,1275,-6.75669,-2.09838
-539,-251,-7.5127,2.63489,0,0,0,0,0,0,0,-1,685,1275,-7.51269,-2.63493
-532,-251,-7.9519,0.0875244,0,0,0,0,0,0,0,-1,692,1275,-7.95193,-0.08748
-525,-251,-8.48175,-0.224854,-0.0214972,0.0268491,-0.00689671,0.0278137,-0.0224618,-1.43184,0.0290813,0.0491715,699,1275,-8.48174,0.224894
-518,-251,-8.90106,-0.287354,-0.026322,0.0317396,-0.00750613,0.0326943,-0.0272767,-1.44429,0.0346714,0.0454893,706,1275,-8.90105,0.287316
-511,-251,-9.23254,0.0020752,-0.0312692,0.0359302,-0.00755429,0.0367689,-0.0321079,-1.46022,0.0397964,0.0434832,713,1275,-9.23255,-0.00207604
-504,-251,-9.43469,0.258789,-0.0357854,0.038331,-0.00657212,0.0389092,-0.0363636,-1.48304,0.0434671,0.0435381,720,1275,-9.4347,-0.25878
-497,-251,-9.68134,0.549683,-0.0386528,0.0369635,-0.00400663,0.0371753,-0.0388645,-1.51801,0.0439052,0.045915,727,1275,-9.68131,-0.549624
-490,-251,0,0,0,0,0,0,0,0,0,-1,734,1275,0,0
-483,-251,0,0,0,0,0,0,0,0,0,-1,741,1275,0,0
-476,-251,0,0,0,0,0,0,0,0,0,-1,748,1275,0,0
-469,-251,0,0,0,0,0,0,0,0,0,-1,755,1275,0,0
-462,-251,0,0,0,0,0,0,0,0,0,-1,762,1275,0,0
-455,-251,0,0,0,0,0,0,0,0,0,-1,769,1275,0,0
-448,-251,0,0,0,0,0,0,0,0,0,-1,776,1275,0,0
-441,-251,0,0,0,0,0,0,0,0,0,-1,783,1275,0,0
-434,-251,0,0,0,0,0,0,0,0,0,-1,790,1275,0,0
-427,-251,0,0,0,0,0,0,0,0,0,-1,797,1275,0,0
-420,-251,0,0,0,0,0,0,0,0,0,-1,804,1275,0,0
-413,-251,0,0,0,0,0,0,0,0,0,-1,811,1275,0,0
-406,-251,0,0,0,0,0,0,0,0,0,-1,818,1275,0,0
-399,-251,0,0,0,0,0,0,0,0,0,-1,825,1275,0,0
-392,-251,0,0,0,0,0,0,0,0,0,-1,832,1275,0,0
-385,-251,0,0,0,0,0,0,0,0,0,-1,839,1275,0,0
-378,-251,0,0,0,0,0,0,0,0,0,-1,846,1275,0,0
-371,-251,0,0,0,0,0,0,0,0,0,-1,853,1275,0,0
-364,-251,0,0,0,0,0,0,0,0,0,-1,860,1275,0,0
-357,-251,0,0,0,0,0,0,0,0,0,-1,867,1275,0,0
-350,-251,0,0,0,0,0,0,0,0,0,-1,874,1275,0,0
-343,-251,0,0,0,0,0,0,0,0,0,-1,881,1275,0,0
-336,-251,0,0,0,0,0,0,0,0,0,-1,888,1275,0,0
-329,-251,0,0,0,0,0,0,0,0,0,-1,895,1275,0,0
-322,-251,0,0,0,0,0,0,0,0,0,-1,902,1275,0,0
-315,-251,0,0,0,0,0,0,0,0,0,-1,909,1275,0,0
-308,-251,0,0,0,0,0,0,0,0,0,-1,916,1275,0,0
-301,-251,0,0,0,0,0,0,0,0,0,-1,923,1275,0,0
-294,-251,0,0,0,0,0,0,0,0,0,-1,930,1275,0,0
-287,-251,0,0,0,0,0,0,0,0,0,-1,937,1275,0,0
-280,-251,0,0,0,0,0,0,0,0,0,-1,944,1275,0,0
-273,-251,0,0,0,0,0,0,0,0,0,-1,951,1275,0,0
-266,-251,0,0,0,0,0,0,0,0,0,-1,958,1275,0,0
-259,-251,0,0,0,0,0,0,0,0,0,-1,965,1275,0,0
-252,-251,0,0,0,0,0,0,0,0,0,-1,972,1275,0,0
-245,-251,0,0,0,0,0,0,0,0,0,-1,979,1275,0,0
-238,-251,0,0,0,0,0,0,0,0,0,-1,986,1275,0,0
-231,-251,0,0,0,0,0,0,0,0,0,-1,993,1275,0,0
-224,-251,0,0,0,0,0,0,0,0,0,-1,1000,1275,0,0
-217,-251,0,0,0,0,0,0,0,0,0,-1,1007,1275,0,0
-210,-251,0,0,0,0,0,0,0,0,0,-1,1014,1275,0,0
-203,-251,0,0,0,0,0,0,0,0,0,-1,1021,1275,0,0
-196,-251,0,0,0,0,0,0,0,0,0,-1,1028,1275,0,0
-189,-251,0,0,0,0,0,0,0,0,0,-1,1035,1275,0,0
-182,-251,0,0,0,0,0,0,0,0,0,-1,1042,1275,0,0
-175,-251,0,0,0,0,0,0,0,0,0,-1,1049,1275,0,0
-168,-251,0,0,0,0,0,0,0,0,0,-1,1056,1275,0,0
-161,-251,0,0,0,0,0,0,0,0,0,-1,1063,1275,0,0
-154,-251,0,0,0,0,0,0,0,0,0,-1,1070,1275,0,0
-147,-251,0,0,0,0,0,0,0,0,0,-1,1077,1275,0,0
-140,-251,0,0,0,0,0,0,0,0,0,-1,1084,1275,0,0
-133,-251,0,0,0,0,0,0,0,0,0,-1,1091,1275,0,0
-126,-251,0,0,0,0,0,0,0,0,0,-1,1098,1275,0,0
-119,-251,0,0,0,0,0,0,0,0,0,-1,1105,1275,0,0
-112,-251,0,0,0,0,0,0,0,0,0,-1,1112,1275,0,0
-105,-251,0,0,0,0,0,0,0,0,0,-1,1119,1275,0,0
-98,-251,0,0,0,0,0,0,0,0,0,-1,1126,1275,0,0
-91,-251,0,0,0,0,0,0,0,0,0,-1,1133,1275,0,0
-84,-251,0,0,0,0,0,0,0,0,0,-1,1140,1275,0,0
-77,-251,0,0,0,0,0,0,0,0,0,-1,1147,1275,0,0
-70,-251,0,0,0,0,0,0,0,0,0,-1,1154,1275,0,0
-63,-251,0,0,0,0,0,0,0,0,0,-1,1161,1275,0,0
-56,-251,0,0,0,0,0,0,0,0,0,-1,1168,1275,0,0
-49,-251,0,0,0,0,0,0,0,0,0,-1,1175,1275,0,0
-42,-251,0,0,0,0,0,0,0,0,0,-1,1182,1275,0,0
-35,-251,0,0,0,0,0,0,0,0,0,-1,1189,1275,0,0
-28,-251,0,0,0,0,0,0,0,0,0,-1,1196,1275,0,0
-21,-251,0,0,0,0,0,0,0,0,0,-1,1203,1275,0,0
-14,-251,0,0,0,0,0,0,0,0,0,-1,1210,1275,0,0
-7,-251,0,0,0,0,0,0,0,0,0,-1,1217,1275,0,0
0,-251,0,0,0,0,0,0,0,0,0,-1,1224,1275,0,0
7,-251,0,0,0,0,0,0,0,0,0,-1,1231,1275,0,0
14,-251,0,0,0,0,0,0,0,0,0,-1,1238,1275,0,0
21,-251,0,0,0,0,0,0,0,0,0,-1,1245,1275,0,0
28,-251,0,0,0,0,0,0,0,0,0,-1,1252,1275,0,0
35,-251,0,0,0,0,0,0,0,0,0,-1,1259,1275,0,0
42,-251,0,0,0,0,0,0,0,0,0,-1,1266,1275,0,0
49,-251,0,0,0,0,0,0,0,0,0,-1,1273,1275,0,0
56,-251,0,0,0,0,0,0,0,0,0,-1,1280,1275,0,0
63,-251,0,0,0,0,0,0,0,0,0,-1,1287,1275,0,0
70,-251,0,0,0,0,0,0,0,0,0,-1,1294,1275,0,0
77,-251,0,0,0,0,0,0,0,0,0,-1,1301,1275,0,0
84,-251,0,0,0,0,0,0,0,0,0,-1,1308,1275,0,0
91,-251,0,0,0,0,0,0,0,0,0,-1,1315,1275,0,0
98,-251,0,0,0,0,0,0,0,0,0,-1,1322,1275,0,0
105,-251,0,0,0,0,0,0,0,0,0,-1,1329,1275,0,0
112,-251,0,0,0,0,0,0,0,0,0,-1,1336,1275,0,0
119,-251,0,0,0,0,0,0,0,0,0,-1,1343,1275,0,0
126,-251,0,0,0,0,0,0,0,0,0,-1,1350,1275,0,0
133,-251,0,0,0,0,0,0,0,0,0,-1,1357,1275,0,0
140,-251,0,0,0,0,0,0,0,0,0,-1,1364,1275,0,0
147,-251,0,0,0,0,0,0,0,0,0,-1,1371,1275,0,0
154,-251,0,0,0,0,0,0,0,0,0,-1,1378,1275,0,0
161,-251,0,0,0,0,0,0,0,0,0,-1,1385,1275,0,0
168,-251,0,0,0,0,0,0,0,0,0,-1,1392,1275,0,0
175,-251,0,0,0,0,0,0,0,0,0,-1,1399,1275,0,0
182,-251,0,0,0,0,0,0,0,0,0,-1,1406,1275,0,0
189,-251,0,0,0,0,0,0,0,0,0,-1,1413,1275,0,0
196,-251,0,0,0,0,0,0,0,0,0,-1,1420,1275,0,0
203,-251,0,0,0,0,0,0,0,0,0,-1,1427,1275,0,0
210,-251,0,0,0,0,0,0,0,0,0,-1,1434,1275,0,0
217,-251,0,0,0,0,0,0,0,0,0,-1,1441,1275,0,0
224,-251,0,0,0,0,0,0,0,0,0,-1,1448,1275,0,0
231,-251,0,0,0,0,0,0,0,0,0,-1,1455,1275,0,0
238,-251,0,0,0,0,0,0,0,0,0,-1,1462,1275,0,0
245,-251,0,0,0,0,0,0,0,0,0,-1,1469,1275,0,0
252,-251,0,0,0,0,0,0,0,0,0,-1,1476,1275,0,0
259,-251,0,0,0,0,0,0,0,0,0,-1,1483,1275,0,0
266,-251,0,0,0,0,0,0,0,0,0,-1,1490,1275,0,0
273,-251,0,0,0,0,0,0,0,0,0,-1,1497,1275,0,0
280,-251,0,0,0,0,0,0,0,0,0,-1,1504,1275,0,0
287,-251,0,0,0,0,0,0,0,0,0,-1,1511,1275,0,0
294,-251,0,0,0,0,0,0,0,0,0,-1,1518,1275,0,0
301,-251,0,0,0,0,0,0,0,0,0,-1,1525,1275,0,0
308,-251,0,0,0,0,0,0,0,0,0,-1,1532,1275,0,0
315,-251,0,0,0,0,0,0,0,0,0,-1,1539,1275,0,0
322,-251,0,0,0,0,0,0,0,0,0,-1,1546,1275,0,0
329,-251,0,0,0,0,0,0,0,0,0,-1,1553,1275,0,0
336,-251,0,0,0,0,0,0,0,0,0,-1,1560,1275,0,0
343,-251,0,0,0,0,0,0,0,0,0,-1,1567,1275,0,0
350,-251,0,0,0,0,0,0,0,0,0,-1,1574,1275,0,0
357,-251,0,0,0,0,0,0,0,0,0,-1,1581,1275,0,0
364,-251,0,0,0,0,0,0,0,0,0,-1,1588,1275,0,0
371,-251,0,0,0,0,0,0,0,0,0,-1,1595,1275,0,0
378,-251,0,0,0,0,0,0,0,0,0,-1,1602,1275,0,0
385,-251,0,0,0,0,0,0,0,0,0,-1,1609,1275,0,0
392,-251,0,0,0,0,0,0,0,0,0,-1,1616,1275,0,0
399,-251,0,0,0,0,0,0,0,0,0,-1,1623,1275,0,0
406,-251,0,0,0,0,0,0,0,0,0,-1,1630,1275,0,0
413,-251,0,0,0,0,0,0,0,0,0,-1,1637,1275,0,0
420,-251,0,0,0,0,0,0,0,0,0,-1,1644,1275,0,0
427,-251,0,0,0,0,0,0,0,0,0,-1,1651,1275,0,0
434,-251,0,0,0,0,0,0,0,0,0,-1,1658,1275,0,0
441,-251,0,0,0,0,0,0,0,0,0,-1,1665,1275,0,0
448,-251,0,0,0,0,0,0,0,0,0,-1,1672,1275,0,0
455,-251,0,0,0,0,0,0,0,0,0,-1,1679,1275,0,0
462,-251,0,0,0,0,0,0,0,0,0,-1,1686,1275,0,0
469,-251,0,0,0,0,0,0,0,0,0,-1,1693,1275,0,0
476,-251,0,0,0,0,0,0,0,0,0,-1,1700,1275,0,0
483,-251,0,0,0,0,0,0,0,0,0,-1,1707,1275,0,0
490,-251,0,0,0,0,0,0,0,0,0,-1,1714,1275,0,0
497,-251,0,0,0,0,0,0,0,0,0,-1,1721,1275,0,0
504,-251,0,0,0,0,0,0,0,0,0,-1,1728,1275,0,0
511,-251,0,0,0,0,0,0,0,0,0,-1,1735,1275,0,0
518,-251,0,0,0,0,0,0,0,0,0,-1,1742,1275,0,0
525,-251,0,0,0,0,0,0,0,0,0,-1,1749,1275,0,0
532,-251,0,0,0,0,0,0,0,0,0,-1,1756,1275,0,0
539,-251,0,0,0,0,0,0,0,0,0,-1,1763,1275,0,0
546,-251,0,0,0,0,0,0,0,0,0,-1,1770,1275,0,0
553,-251,0,0,0,0,0,0,0,0,0,-1,1777,1275,0,0
560,-251,0,0,0,0,0,0,0,0,0,-1,1784,1275,0,0
567,-251,0,0,0,0,0,0,0,0,0,-1,1791,1275,0,0
574,-251,0,0,0,0,0,0,0,0,0,-1,1798,1275,0,0
581,-251,0,0,0,0,0,0,0,0,0,-1,1805,1275,0,0
588,-251,0,0,0,0,0,0,0,0,0,-1,1812,1275,0,0
595,-251,0,0,0,0,0,0,0,0,0,-1,1819,1275,0,0
602,-251,0,0,0,0,0,0,0,0,0,-1,1826,1275,0,0
609,-251,16.0663,2.33777,-0.00383449,0.00415652,-0.00609488,0.00744879,-0.00712676,-1.07553,0.00841588,0.0306573,1833,1275,16.0663,-2.33774
616,-251,16.0455,2.30725,-0.00496263,0.0117235,-0.0011674,0.0118047,-0.0050439,-1.50129,0.00998521,0.0269584,1840,1275,16.0455,-2.30726
623,-251,16.0356,2.31384,-0.00618342,0.0166962,0.00245823,0.0169573,-0.00644456,1.46496,0.0139581,0.0221752,1847,1275,16.0356,-2.31387
630,-251,16.0613,2.28918,-0.00745294,0.0187876,0.00459552,0.0195691,-0.00823448,1.40234,0.0164911,0.0328197,1854,1275,16.0613,-2.2892
637,-251,15.9863,2.09668,-0.0083681,0.0181619,0.00539801,0.0192182,-0.00942437,1.37756,0.016856,0.0382113,1861,1275,15.9863,-2.09673
644,-251,15.8704,1.89722,-0.00867284,0.0161777,0.00531639,0.0172673,-0.00976242,1.36865,0.0158048,0.0464975,1868,1275,15.8703,-1.89717
651,-251,15.7789,1.70752,-0.00842792,0.0137509,0.00486368,0.0147706,-0.00944761,1.36413,0.0140945,0.0494634,1875,1275,15.779,-1.70749
658,-251,15.51,1.6698,0,0,0,0,0,0,0,-1,1882,1275,15.51,-1.66979
665,-251,12.2852,-0.744995,0,0,0,0,0,0,0,-1,1889,1275,12.2852,0.744943
672,-251,13.8324,3.88342,0,0,0,0,0,0,0,-1,1896,1275,13.8324,-3.88339
679,-251,13.6328,4.03528,-0.0062464,0.0053308,0.00282379,0.00598283,-0.00689843,1.34387,0.00744326,0.0404427,1903,1275,13.6329,-4.03529
686,-251,13.5255,4.15955,-0.00565817,0.00317908,0.00215012,0.00367444,-0.00615353,1.34436,0.00573404,0.0186207,1910,1275,13.5256,-4.15951
693,-251,13.5631,4.078,-0.00456988,0.0010812,0.00144693,0.00143013,-0.00491881,1.33416,0.00384561,0.00860734,1917,1275,13.5631,-4.07803
700,-251,13.5715,3.93616,-0.00270176,-0.000371063,0.000442532,-0.000289867,-0.00278296,1.38934,0.00176663,0.00813358,1924,1275,13.5716,-3.93618
707,-251,13.5715,3.80249,-0.000818173,-0.000763065,2.26625e-05,-0.000754942,-0.000826296,1.22665,0.000528687,0.010217,1931,1275,13.5715,-3.80255
714,-251,13.5844,3.67761,0.00159719,0.000409553,-0.00131282,0.00244425,-0.000437508,-0.573008,0.00179321,0.0115237,1938,1275,13.5844,-3.67763
721,-251,13.5609,3.54224,0.00419478,0.00208346,-0.0028829,0.00620922,6.90182e-05,-0.60989,0.00411666,0.0143658,1945,1275,13.5609,-3.54228
728,-251,13.5627,3.41785,0.00695003,0.00376506,-0.00504148,0.0106446,7.05337e-05,-0.632419,0.00707298,0.0154294,1952,1275,13.5628,-3.41779
735,-251,13.5741,3.29333,0.00945083,0.0057541,-0.00770748,0.0155285,-0.000323549,-0.667714,0.0104618,0.0138296,1959,1275,13.5741,-3.29332
742,-251,13.5814,3.17444,0.0121813,0.0079746,-0.0107723,0.0210537,-0.00089776,-0.688983,0.0143444,0.0143539,1966,1275,13.5814,-3.17447
749,-251,13.5593,3.07813,0.0146156,0.0104756,-0.0144798,0.0271726,-0.00208143,-0.714401,0.0188472,0.021471,1973,1275,13.5593,-3.07817
756,-251,13.4738,2.94641,0.016596,0.0132376,-0.0189815,0.0339724,-0.00413879,-0.74128,0.0241464,0.0372018,1980,1275,13.4737,-2.94643
763,-251,13.4441,2.84509,0.0176635,0.0161806,-0.0243639,0.0412972,-0.00745315,-0.770187,0.0303228,0.0477267,1987,1275,13.444,-2.84515
770,-251,13.4531,2.71411,0,0,0,0,0,0,0,-1,1994,1275,13.4532,-2.71413
777,-251,14.202,2.02783,0,0,0,0,0,0,0,-1,2001,1275,14.202,-2.02787
784,-251,13.7406,2.08508,0,0,0,0,0,0,0,-1,2008,1275,13.7406,-2.08502
791,-251,0,0,0,0,0,0,0,0,0,-1,2015,1275,0,0
798,-251,0,0,0,0,0,0,0,0,0,-1,2022,1275,0,0
805,-251,0,0,0,0,0,0,0,0,0,-1,2029,1275,0,0
812,-251,0,0,0,0,0,0,0,0,0,-1,2036,1275,0,0
-700,-258,0,0,0,0,0,0,0,0,0,-1,524,1282,0,0
-693,-258,0,0,0,0,0,0,0,0,0,-1,531,1282,0,0
-686,-258,0,0,0,0,0,0,0,0,0,-1,538,1282,0,0
-679,-258,0,0,0,0,0,0,0,0,0,-1,545,1282,0,0
-672,-258,0,0,0,0,0,0,0,0,0,-1,552,1282,0,0
-665,-258,-7.32294,2.60437,0.0375353,0.158688,0.00294684,0.15876,0.0374637,1.54649,0.0958249,0.0438372,559,1282,-7.32294,-2.60434
-658,-258,-7.13129,1.8645,0.0408131,0.131568,0.00233757,0.131629,0.040753,1.54506,0.0778107,0.0466784,566,1282,-7.13127,-1.86449
-651,-258,-7.6507,2.30518,0.0398002,0.107343,0.002024,0.107404,0.0397396,1.54087,0.0627042,0.0492739,573,1282,-7.65069,-2.30521
-644,-258,-7.6709,2.14966,0.0362076,0.0859462,0.0019268,0.0860207,0.0361331,1.53214,0.0498752,0.0455261,580,1282,-7.67093,-2.14965
-637,-258,-6.73572,1.02258,0.0312309,0.0674163,0.00192582,0.0675185,0.0311287,1.51778,0.0390212,0.0444217,587,1282,-6.73574,-1.02262
-630,-258,-6.80969,0.971558,0.02568,0.0516952,0.0019274,0.0518372,0.025538,1.49724,0.0299293,0.049433,594,1282,-6.80972,-0.971578
-623,-258,-6.79938,0.744019,0,0,0,0,0,0,0,-1,601,1282,-6.7994,-0.744062
-616,-258,-6.82635,0.931763,0.0155344,0.0287057,0.00166706,0.0289134,0.0153267,1.44683,0.0167032,0.030616,608,1282,-6.82636,-0.931822
-609,-258,-6.83313,1.10486,0.0119349,0.0196502,0.0019648,0.0201217,0.0114633,1.33526,0.0116548,0.016123,615,1282,-6.83311,-1.1049
-602,-258,-6.84076,1.23206,0.00848708,0.0114362,0.00110366,0.0118035,0.00811979,1.24954,0.00697333,0.0141336,622,1282,-6.84074,-1.23208
-595,-258,-6.8269,1.37402,0.00541864,0.00571479,0.00157866,0.00715231,0.00398113,0.83216,0.0041382,0.0112504,629,1282,-6.82693,-1.37408
-588,-258,-6.8103,1.52563,0.00240378,0.00267459,0.00134832,0.00389429,0.00118408,0.835443,0.0023052,0.0116317,636,1282,-6.81033,-1.52559
-581,-258,-6.83167,1.67883,0.001197,0.00105759,0.00107046,0.00220003,5.45674e-05,0.752885,0.00144884,0.0145489,643,1282,-6.83169,-1.6788
-574,-258,-6.82703,1.83032,9.92405e-05,0.00135237,0.000280193,0.00141217,3.94443e-05,1.36054,0.000928577,0.0150529,650,1282,-6.82703,-1.83031
-567,-258,-6.82874,1.97278,-0.0015845,0.00336216,-0.000994595,0.00355464,-0.00177698,-1.37963,0.00313473,0.0138826,657,1282,-6.82874,-1.97277
-560,-258,-6.84833,2.15759,-0.00353862,0.00624397,-0.00218523,0.00670991,-0.00400457,-1.36072,0.00625139,0.0191079,664,1282,-6.84835,-2.15762
-553,-258,-6.78583,2.26501,-0.00598256,0.00978053,-0.0033067,0.0104461,-0.00664813,-1.37217,0.00995022,0.024664,671,1282,-6.78585,-2.26502
-546,-258,-6.73376,2.31812,-0.00928621,0.013958,-0.0043174,0.014734,-0.0100622,-1.39295,0.0144005,0.0418861,678,1282,-6.73378,-2.31813
-539,-258,-6.96973,2.69092,-0.013776,0.0185336,-0.0050876,0.0193157,-0.0145582,-1.41825,0.0196213,0.0481442,685,1282,-6.96973,-2.69094
-532,-258,-6.96094,2.79956,0,0,0,0,0,0,0,-1,692,1282,-6.96092,-2.79956
-525,-258,-8.11432,-0.652832,0,0,0,0,0,0,0,-1,699,1282,-8.11431,0.6528
-518,-258,-8.15399,-0.948608,-0.0283464,0.0340518,-0.00708063,0.0348452,-0.0291398,-1.45921,0.0369907,0.0477466,706,1282,-8.15399,0.948559
-511,-258,-8.47711,-0.928589,-0.0337928,0.0389635,-0.00694258,0.03962,-0.0344493,-1.47651,0.0427987,0.048362,713,1282,-8.47712,0.928582
-504,-258,-8.7027,-0.447388,-0.0390623,0.042499,-0.00594163,0.0429296,-0.0394929,-1.49846,0.0476004,0.0462649,720,1282,-8.70272,0.447406
-497,-258,-9.11121,-0.0749512,-0.0432404,0.0431211,-0.00366661,0.0432765,-0.0433958,-1.52844,0.0500403,0.0471023,727,1282,-9.11119,0.074954
-490,-258,-9.51965,0.374023,-0.0453693,0.0375973,0.000285971,0.0375982,-0.0453703,1.56735,0.0479719,0.0484779,734,1282,-9.51965,-0.374063
-483,-258,0,0,0,0,0,0,0,0,0,-1,741,1282,0,0
-476,-258,0,0,0,0,0,0,0,0,0,-1,748,1282,0,0
-469,-258,0,0,0,0,0,0,0,0,0,-1,755,1282,0,0
-462,-258,0,0,0,0,0,0,0,0,0,-1,762,1282,0,0
-455,-258,0,0,0,0,0,0,0,0,0,-1,769,1282,0,0
-448,-258,0,0,0,0,0,0,0,0,0,-1,776,1282,0,0
-441,-258,0,0,0,0,0,0,0,0,0,-1,783,1282,0,0
-434,-258,0,0,0,0,0,0,0,0,0,-1,790,1282,0,0
-427,-258,0,0,0,0,0,0,0,0,0,-1,797,1282,0,0
-420,-258,0,0,0,0,0,0,0,0,0,-1,804,1282,0,0
-413,-258,0,0,0,0,0,0,0,0,0,-1,811,1282,0,0
-406,-258,0,0,0,0,0,0,0,0,0,-1,818,1282,0,0
-399,-258,0,0,0,0,0,0,0,0,0,-1,825,1282,0,0
-392,-258,0,0,0,0,0,0,0,0,0,-1,832,1282,0,0
-385,-258,0,0,0,0,0,0,0,0,0,-1,839,1282,0,0
-378,-258,0,0,0,0,0,0,0,0,0,-1,846,1282,0,0
-371,-258,0,0,0,0,0,0,0,0,0,-1,853,1282,0,0
-364,-258,0,0,0,0,0,0,0,0,0,-1,860,1282,0,0
-357,-258,0,0,0,0,0,0,0,0,0,-1,867,1282,0,0
-350,-258,0,0,0,0,0,0,0,0,0,-1,874,1282,0,0
-343,-258,0,0,0,0,0,0,0,0,0,-1,881,1282,0,0
-336,-258,0,0,0,0,0,0,0,0,0,-1,888,1282,0,0
-329,-258,0,0,0,0,0,0,0,0,0,-1,895,1282,0,0
-322,-258,0,0,0,0,0,0,0,0,0,-1,902,1282,0,0
-315,-258,0,0,0,0,0,0,0,0,0,-1,909,1282,0,0
-308,-258,0,0,0,0,0,0,0,0,0,-1,916,1282,0,0
-301,-258,0,0,0,0,0,0,0,0,0,-1,923,1282,0,0
-294,-258,0,0,0,0,0,0,0,0,0,-1,930,1282,0,0
-287,-258,0,0,0,0,0,0,0,0,0,-1,937,1282,0,0
-280,-258,0,0,0,0,0,0,0,0,0,-1,944,1282,0,0
-273,-258,0,0,0,0,0,0,0,0,0,-1,951,1282,0,0
-266,-258,0,0,0,0,0,0,0,0,0,-1,958,1282,0,0
-259,-258,0,0,0,0,0,0,0,0,0,-1,965,1282,0,0
-252,-258,0,0,0,0,0,0,0,0,0,-1,972,1282,0,0
-245,-258,0,0,0,0,0,0,0,0,0,-1,979,1282,0,0
-238,-258,0,0,0,0,0,0,0,0,0,-1,986,1282,0,0
-231,-258,0,0,0,0,0,0,0,0,0,-1,993,1282,0,0
-224,-258,0,0,0,0,0,0,0,0,0,-1,1000,1282,0,0
-217,-258,0,0,0,0,0,0,0,0,0,-1,1007,1282,0,0
-210,-258,0,0,0,0,0,0,0,0,0,-1,1014,1282,0,0
-203,-258,0,0,0,0,0,0,0,0,0,-1,1021,1282,0,0
-196,-258,0,0,0,0,0,0,0,0,0,-1,1028,1282,0,0
-189,-258,0,0,0,0,0,0,0,0,0,-1,1035,1282,0,0
-182,-258,0,0,0,0,0,0,0,0,0,-1,1042,1282,0,0
-175,-258,0,0,0,0,0,0,0,0,0,-1,1049,1282,0,0
-168,-258,0,0,0,0,0,0,0,0,0,-1,1056,1282,0,0
-161,-258,0,0,0,0,0,0,0,0,0,-1,1063,1282,0,0
-154,-258,0,0,0,0,0,0,0,0,0,-1,1070,1282,0,0
-147,-258,0,0,0,0,0,0,0,0,0,-1,1077,1282,0,0
-140,-258,0,0,0,0,0,0,0,0,0,-1,1084,1282,0,0
-133,-258,0,0,0,0,0,0,0,0,0,-1,1091,1282,0,0
-126,-258,0,0,0,0,0,0,0,0,0,-1,1098,1282,0,0
-119,-258,0,0,0,0,0,0,0,0,0,-1,1105,1282,0,0
-112,-258,0,0,0,0,0,0,0,0,0,-1,1112,1282,0,0
-105,-258,0,0,0,0,0,0,0,0,0,-1,1119,1282,0,0
-98,-258,0,0,0,0,0,0,0,0,0,-1,1126,1282,0,0
-91,-258,0,0,0,0,0,0,0,0,0,-1,1133,1282,0,0
-84,-258,0,0,0,0,0,0,0,0,0,-1,1140,1282,0,0
-77,-258,0,0,0,0,0,0,0,0,0,-1,1147,1282,0,0
-70,-258,0,0,0,0,0,0,0,0,0,-1,1154,1282,0,0
-63,-258,0,0,0,0,0,0,0,0,0,-1,1161,1282,0,0
-56,-258,0,0,0,0,0,0,0,0,0,-1,1168,1282,0,0
-49,-258,0,0,0,0,0,0,0,0,0,-1,1175,1282,0,0
-42,-258,0,0,0,0,0,0,0,0,0,-1,1182,1282,0,0
-35,-258,0,0,0,0,0,0,0,0,0,-1,1189,1282,0,0
-28,-258,0,0,0,0,0,0,0,0,0,-1,1196,1282,0,0
-21,-258,0,0,0,0,0,0,0,0,0,-1,1203,1282,0,0
-14,-258,0,0,0,0,0,0,0,0,0,-1,1210,1282,0,0
-7,-258,0,0,0,0,0,0,0,0,0,-1,1217,1282,0,0
0,-258,0,0,0,0,0,0,0,0,0,-1,1224,1282,0,0
7,-258,0,0,0,0,0,0,0,0,0,-1,1231,1282,0,0
14,-258,0,0,0,0,0,0,0,0,0,-1,1238,1282,0,0
21,-258,0,0,0,0,0,0,0,0,0,-1,1245,1282,0,0
28,-258,0,0,0,0,0,0,0,0,0,-1,1252,1282,0,0
35,-258,0,0,0,0,0,0,0,0,0,-1,1259,1282,0,0
42,-258,0,0,0,0,0,0,0,0,0,-1,1266,1282,0,0
49,-258,0,0,0,0,0,0,0,0,0,-1,1273,1282,0,0
56,-258,0,0,0,0,0,0,0,0,0,-1,1280,1282,0,0
63,-258,0,0,0,0,0,0,0,0,0,-1,1287,1282,0,0
70,-258,0,0,0,0,0,0,0,0,0,-1,1294,1282,0,0
77,-258,0,0,0,0,0,0,0,0,0,-1,1301,1282,0,0
84,-258,0,0,0,0,0,0,0,0,0,-1,1308,1282,0,0
91,-258,0,0,0,0,0,0,0,0,0,-1,1315,1282,0,0
98,-258,0,0,0,0,0,0,0,0,0,-1,1322,1282,0,0
105,-258,0,0,0,0,0,0,0,0,0,-1,1329,1282,0,0
112,-258,0,0,0,0,0,0,0,0,0,-1,1336,1282,0,0
119,-258,0,0,0,0,0,0,0,0,0,-1,1343,1282,0,0
126,-258,0,0,0,0,0,0,0,0,0,-1,1350,1282,0,0
133,-258,0,0,0,0,0,0,0,0,0,-1,1357,1282,0,0
140,-258,0,0,0,0,0,0,0,0,0,-1,1364,1282,0,0
147,-258,0,0,0,0,0,0,0,0,0,-1,1371,1282,0,0
154,-258,0,0,0,0,0,0,0,0,0,-1,1378,1282,0,0
161,-258,0,0,0,0,0,0,0,0,0,-1,1385,1282,0,0
168,-258,0,0,0,0,0,0,0,0,0,-1,1392,1282,0,0
175,-258,0,0,0,0,0,0,0,0,0,-1,1399,1282,0,0
182,-258,0,0,0,0,0,0,0,0,0,-1,1406,1282,0,0
189,-258,0,0,0,0,0,0,0,0,0,-1,1413,1282,0,0
196,-258,0,0,0,0,0,0,0,0,0,-1,1420,1282,0,0
203,-258,0,0,0,0,0,0,0,0,0,-1,1427,1282,0,0
210,-258,0,0,0,0,0,0,0,0,0,-1,1434,1282,0,0
217,-258,0,0,0,0,0,0,0,0,0,-1,1441,1282,0,0
224,-258,0,0,0,0,0,0,0,0,0,-1,1448,1282,0,0
231,-258,0,0,0,0,0,0,0,0,0,-1,1455,1282,0,0
238,-258,0,0,0,0,0,0,0,0,0,-1,1462,1282,0,0
245,-258,0,0,0,0,0,0,0,0,0,-1,1469,1282,0,0
252,-258,0,0,0,0,0,0,0,0,0,-1,1476,1282,0,0
259,-258,0,0,0,0,0,0,0,0,0,-1,1483,1282,0,0
266,-258,0,0,0,0,0,0,0,0,0,-1,1490,1282,0,0
273,-258,0,0,0,0,0,0,0,0,0,-1,1497,1282,0,0
280,-258,0,0,0,0,0,0,0,0,0,-1,1504,1282,0,0
287,-258,0,0,0,0,0,0,0,0,0,-1,1511,1282,0,0
294,-258,0,0,0,0,0,0,0,0,0,-1,1518,1282,0,0
301,-258,0,0,0,0,0,0,0,0,0,-1,1525,1282,0,0
308,-258,0,0,0,0,0,0,0,0,0,-1,1532,1282,0,0
315,-258,0,0,0,0,0,0,0,0,0,-1,1539,1282,0,0
322,-258,0,0,0,0,0,0,0,0,0,-1,1546,1282,0,0
329,-258,0,0,0,0,0,0,0,0,0,-1,1553,1282,0,0
336,-258,0,0,0,0,0,0,0,0,0,-1,1560,1282,0,0
343,-258,0,0,0,0,0,0,0,0,0,-1,1567,1282,0,0
350,-258,0,0,0,0,0,0,0,0,0,-1,1574,1282,0,0
357,-258,0,0,0,0,0,0,0,0,0,-1,1581,1282,0,0
364,-258,0,0,0,0,0,0,0,0,0,-1,1588,1282,0,0
371,-258,0,0,0,0,0,0,0,0,0,-1,1595,1282,0,0
378,-258,0,0,0,0,0,0,0,0,0,-1,1602,1282,0,0
385,-258,0,0,0,0,0,0,0,0,0,-1,1609,1282,0,0
392,-258,0,0,0,0,0,0,0,0,0,-1,1616,1282,0,0
399,-258,0,0,0,0,0,0,0,0,0,-1,1623,1282,0,0
406,-258,0,0,0,0,0,0,0,0,0,-1,1630,1282,0,0
413,-258,0,0,0,0,0,0,0,0,0,-1,1637,1282,0,0
420,-258,0,0,0,0,0,0,0,0,0,-1,1644,1282,0,0
427,-258,0,0,0,0,0,0,0,0,0,-1,1651,1282,0,0
434,-258,0,0,0,0,0,0,0,0,0,-1,1658,1282,0,0
441,-258,0,0,0,0,0,0,0,0,0,-1,1665,1282,0,0
448,-258,0,0,0,0,0,0,0,0,0,-1,1672,1282,0,0
455,-258,0,0,0,0,0,0,0,0,0,-1,1679,1282,0,0
462,-258,0,0,0,0,0,0,0,0,0,-1,1686,1282,0,0
469,-258,0,0,0,0,0,0,0,0,0,-1,1693,1282,0,0
476,-258,0,0,0,0,0,0,0,0,0,-1,1700,1282,0,0
483,-258,0,0,0,0,0,0,0,0,0,-1,1707,1282,0,0
490,-258,0,0,0,0,0,0,0,0,0,-1,1714,1282,0,0
497,-258,0,0,0,0,0,0,0,0,0,-1,1721,1282,0,0
504,-258,0,0,0,0,0,0,0,0,0,-1,1728,1282,0,0
511,-258,0,0,0,0,0,0,0,0,0,-1,1735,1282,0,0
518,-258,0,0,0,0,0,0,0,0,0,-1,1742,1282,0,0
525,-258,0,0,0,0,0,0,0,0,0,-1,1749,1282,0,0
532,-258,0,0,0,0,0,0,0,0,0,-1,1756,1282,0,0
539,-258,0,0,0,0,0,0,0,0,0,-1,1763,1282,0,0
546,-258,0,0,0,0,0,0,0,0,0,-1,1770,1282,0,0
553,-258,0,0,0,0,0,0,0,0,0,-1,1777,1282,0,0
560,-258,0,0,0,0,0,0,0,0,0,-1,1784,1282,0,0
567,-258,0,0,0,0,0,0,0,0,0,-1,1791,1282,0,0
574,-258,0,0,0,0,0,0,0,0,0,-1,1798,1282,0,0
581,-258,0,0,0,0,0,0,0,0,0,-1,1805,1282,0,0
588,-258,0,0,0,0,0,0,0,0,0,-1,1812,1282,0,0
595,-258,0,0,0,0,0,0,0,0,0,-1,1819,1282,0,0
602,-258,0,0,0,0,0,0,0,0,0,-1,1826,1282,0,0
609,-258,16.0925,2.34595,-0.00706864,0.0112745,-0.00627846,0.0132176,-0.00901178,-1.27065,0.0129105,0.024751,1833,1282,16.0926,-2.346
616,-258,16.0016,2.31079,-0.0076407,0.0179588,-0.000134308,0.0179595,-0.00764141,-1.56555,0.0151756,0.0232542,1840,1282,16.0016,-2.3108
623,-258,15.8975,2.23621,-0.00843435,0.0215613,0.00419673,0.0221374,-0.00901045,1.43437,0.0185079,0.0324379,1847,1282,15.8975,-2.23615
630,-258,15.8315,2.14807,-0.00924207,0.0221761,0.0066054,0.0235083,-0.0105743,1.37178,0.0201444,0.0429814,1854,1282,15.8315,-2.14806
637,-258,15.6918,2.01648,-0.00974382,0.0206069,0.00742486,0.0223259,-0.0114628,1.34328,0.0198412,0.040846,1861,1282,15.6918,-2.01646
644,-258,15.7129,1.6637,-0.00974052,0.0180465,0.00725154,0.0198251,-0.0115191,1.33027,0.0183071,0.0446002,1868,1282,15.7129,-1.66368
651,-258,15.8788,1.11914,-0.00930928,0.0152239,0.00664628,0.0169087,-0.0109941,1.32253,0.0162299,0.0493697,1875,1282,15.8788,-1.11914
658,-258,16.0085,0.593262,0,0,0,0,0,0,0,-1,1882,1282,16.0086,-0.593318
665,-258,11.7101,-1.46118,0,0,0,0,0,0,0,-1,1889,1282,11.7101,1.46117
672,-258,13.7919,4.21228,0,0,0,0,0,0,0,-1,1896,1282,13.7919,-4.21224
679,-258,13.5441,4.24414,-0.00669253,0.00578106,0.00405013,0.00698074,-0.00789221,1.28282,0.00859227,0.0336618,1903,1282,13.5441,-4.24419
686,-258,13.4194,4.19604,-0.00596638,0.00331947,0.00310826,0.00426385,-0.00691076,1.27583,0.00651171,0.0184435,1910,1282,13.4194,-4.196
693,-258,13.4559,4.07104,-0.00467579,0.00102618,0.00212569,0.00173141,-0.00538103,1.25046,0.00428278,0.00957778,1917,1282,13.4559,-4.07101
700,-258,13.4537,3.93164,-0.00249236,-0.000482042,0.000750604,-0.000232709,-0.0027417,1.25009,0.00175538,0.00880381,1924,1282,13.4538,-3.93167
707,-258,13.4628,3.79932,-0.000134765,-0.000648866,-3.39031e-05,-0.000132539,-0.000651092,-0.065568,0.00039732,0.0100428,1931,1282,13.4627,-3.79933
714,-258,13.455,3.67529,0.0029409,0.000741937,-0.00175967,0.00391634,-0.000233506,-0.506163,0.00269211,0.00981878,1938,1282,13.455,-3.67525
721,-258,13.4452,3.54309,0.00623112,0.00263122,-0.00374032,0.00858205,0.000280288,-0.561139,0.00563026,0.0122989,1945,1282,13.4452,-3.54303
728,-258,13.4403,3.4342,0.00983056,0.00454855,-0.00628751,0.0140092,0.000369904,-0.586567,0.00921865,0.0114047,1952,1282,13.4403,-3.43421
735,-258,13.4463,3.3313,0.0133757,0.00678091,-0.00933862,0.019982,0.000174655,-0.615684,0.0132635,0.0128387,1959,1282,13.4463,-3.33126
742,-258,13.4691,3.20813,0.0173693,0.0093989,-0.0128537,0.0268414,-7.31666e-05,-0.635075,0.0179187,0.0154215,1966,1282,13.4691,-3.20812
749,-258,13.4625,3.04822,0.0213886,0.012472,-0.0170982,0.0346002,-0.000739576,-0.657865,0.0233172,0.0255818,1973,1282,13.4625,-3.0482
756,-258,13.4629,2.83533,0.0252569,0.0160155,-0.0222013,0.0433132,-0.0020408,-0.682799,0.0295792,0.0380959,1980,1282,13.4629,-2.83536
763,-258,13.5131,2.66675,0.0284346,0.0199479,-0.0281942,0.052703,-0.00432055,-0.710706,0.0366605,0.046033,1987,1282,13.5131,-2.66678
770,-258,13.5673,2.52454,0.030021,0.0240811,-0.0350408,0.0622176,-0.00811539,-0.743121,0.0444312,0.0476789,1994,1282,13.5673,-2.5245
777,-258,12.6888,2.17151,0,0,0,0,0,0,0,-1,2001,1282,12.6889,-2.17148
784,-258,13.775,2.15161,0,0,0,0,0,0,0,-1,2008,1282,13.7751,-2.15163
791,-258,0,0,0,0,0,0,0,0,0,-1,2015,1282,0,0
798,-258,0,0,0,0,0,0,0,0,0,-1,2022,1282,0,0
805,-258,0,0,0,0,0,0,0,0,0,-1,2029,1282,0,0
812,-258,0,0,0,0,0,0,0,0,0,-1,2036,1282,0,0
-700,-265,0,0,0,0,0,0,0,0,0,-1,524,1289,0,0
-693,-265,0,0,0,0,0,0,0,0,0,-1,531,1289,0,0
-686,-265,0,0,0,0,0,0,0,0,0,-1,538,1289,0,0
-679,-265,0,0,0,0,0,0,0,0,0,-1,545,1289,0,0
-672,-265,0,0,0,0,0,0,0,0,0,-1,552,1289,0,0
-665,-265,-6.59253,0.717041,0.0423782,0.194354,0.00298502,0.194413,0.0423196,1.55116,0.118058,0.0431275,559,1289,-6.59254,-0.71699
-658,-265,-6.91687,0.918701,0.0442135,0.159662,0.00237823,0.159711,0.0441645,1.55021,0.0952295,0.0442204,566,1289,-6.91685,-0.918688
-651,-265,-7.20319,1.19678,0.0419125,0.129709,0.00226825,0.129767,0.0418539,1.54498,0.0764782,0.0486354,573,1289,-7.20319,-1.19672
-644,-265,-7.01312,0.899292,0,0,0,0,0,0,0,-1,580,1289,-7.0131,-0.899338
-637,-265,-6.61597,0.874756,0.0315484,0.0814553,0.00264725,0.0815953,0.0314083,1.51795,0.0475231,0.0449039,587,1289,-6.61597,-0.874758
-630,-265,-6.58978,0.80835,0.0255122,0.0627719,0.0028002,0.0629812,0.025303,1.4962,0.0365954,0.0472014,594,1289,-6.58979,-0.808383
-623,-265,-6.37738,0.551758,0.019816,0.0474821,0.00282448,0.0477675,0.0195306,1.47009,0.0277309,0.0459059,601,1289,-6.3774,-0.551739
-616,-265,-6.6947,0.938843,0.0148991,0.0352557,0.00269734,0.0356071,0.0145477,1.44127,0.020672,0.0352563,608,1289,-6.6947,-0.938866
-609,-265,-6.64453,1.08972,0.0112591,0.0247374,0.00295869,0.0253583,0.0106382,1.36395,0.0147037,0.0158672,615,1289,-6.64453,-1.08978
-602,-265,-6.66156,1.23718,0.00771397,0.0152811,0.00192696,0.0157435,0.00725153,1.33527,0.00909893,0.0146553,622,1289,-6.66159,-1.23722
-595,-265,-6.6767,1.3833,0.00491257,0.00859725,0.00229538,0.0096982,0.00381161,1.12357,0.00564182,0.0113128,629,1289,-6.67672,-1.38328
-588,-265,-6.67993,1.5304,0.00215066,0.00451861,0.00191921,0.00558967,0.0010796,1.06178,0.00342379,0.00984969,636,1289,-6.67991,-1.53045
-581,-265,-6.68823,1.6864,0.000925932,0.00207132,0.00148312,0.00308847,-9.12204e-05,0.96965,0.00209005,0.0130797,643,1289,-6.68825,-1.68646
-574,-265,-6.68262,1.85437,-0.000104492,0.00172452,0.000562122,0.00188347,-0.00026344,1.29523,0.00135204,0.0152777,650,1289,-6.68261,-1.85439
-567,-265,-6.69379,2.01074,-0.0016967,0.00328653,-0.000797455,0.00341103,-0.0018212,-1.41592,0.00306696,0.0193992,657,1289,-6.69381,-2.01072
-560,-265,-6.71088,2.16553,-0.00363162,0.00591035,-0.00206085,0.00633642,-0.0040577,-1.36692,0.00604893,0.019367,664,1289,-6.71087,-2.16551
-553,-265,-6.65796,2.33887,-0.00616151,0.00951345,-0.00328941,0.0101758,-0.00682381,-1.37211,0.0098781,0.0212586,671,1289,-6.65798,-2.33881
-546,-265,-6.58264,2.52441,-0.00969655,0.0140132,-0.00432539,0.0147777,-0.010461,-1.39587,0.0146424,0.0316129,678,1289,-6.58265,-2.52437
-539,-265,-6.53229,2.66064,-0.0145704,0.0189138,-0.00496453,0.0196344,-0.0152909,-1.42666,0.020216,0.0468186,685,1289,-6.53227,-2.66064
-532,-265,-6.42975,2.74072,0,0,0,0,0,0,0,-1,692,1289,-6.42976,-2.74067
-525,-265,-6.79865,-1.2373,-0.0246118,0.0295926,-0.00629087,0.0303132,-0.0253323,-1.45676,0.0321698,0.0453393,699,1289,-6.79864,1.23728
-518,-265,-7.39661,-1.27698,-0.0301994,0.0353694,-0.00646285,0.0360004,-0.0308303,-1.47348,0.0386232,0.0448224,706,1289,-7.39658,1.27703
-511,-265,-8.03906,-1.34558,0,0,0,0,0,0,0,-1,713,1289,-8.03907,1.34563
-504,-265,-8.26422,-0.766724,-0.0419593,0.0452656,-0.00520414,0.045575,-0.0422687,-1.51141,0.0507286,0.0497196,720,1289,-8.26423,0.766724
-497,-265,-8.55695,-0.274414,-0.0471661,0.0475806,-0.00323541,0.0476909,-0.0472765,-1.5367,0.0548296,0.0474419,727,1289,-8.55696,0.274471
-490,-265,-9.30908,0.167114,-0.0508544,0.0453262,1.77345e-05,0.0453262,-0.0508544,1.57061,0.0555604,0.0468467,734,1289,-9.3091,-0.167172
-483,-265,0,0,0,0,0,0,0,0,0,-1,741,1289,0,0
-476,-265,0,0,0,0,0,0,0,0,0,-1,748,1289,0,0
-469,-265,0,0,0,0,0,0,0,0,0,-1,755,1289,0,0
-462,-265,0,0,0,0,0,0,0,0,0,-1,762,1289,0,0
-455,-265,0,0,0,0,0,0,0,0,0,-1,769,1289,0,0
-448,-265,0,0,0,0,0,0,0,0,0,-1,776,1289,0,0
-441,-265,0,0,0,0,0,0,0,0,0,-1,783,1289,0,0
-434,-265,0,0,0,0,0,0,0,0,0,-1,790,1289,0,0
-427,-265,0,0,0,0,0,0,0,0,0,-1,797,1289,0,0
-420,-265,0,0,0,0,0,0,0,0,0,-1,804,1289,0,0
-413,-265,0,0,0,0,0,0,0,0,0,-1,811,1289,0,0
-406,-265,0,0,0,0,0,0,0,0,0,-1,818,1289,0,0
-399,-265,0,0,0,0,0,0,0,0,0,-1,825,1289,0,0
-392,-265,0,0,0,0,0,0,0,0,0,-1,832,1289,0,0
-385,-265,0,0,0,0,0,0,0,0,0,-1,839,1289,0,0
-378,-265,0,0,0,0,0,0,0,0,0,-1,846,1289,0,0
-371,-265,0,0,0,0,0,0,0,0,0,-1,853,1289,0,0
-364,-265,0,0,0,0,0,0,0,0,0,-1,860,1289,0,0
-357,-265,0,0,0,0,0,0,0,0,0,-1,867,1289,0,0
-350,-265,0,0,0,0,0,0,0,0,0,-1,874,1289,0,0
-343,-265,0,0,0,0,0,0,0,0,0,-1,881,1289,0,0
-336,-265,0,0,0,0,0,0,0,0,0,-1,888,1289,0,0
-329,-265,0,0,0,0,0,0,0,0,0,-1,895,1289,0,0
-322,-265,0,0,0,0,0,0,0,0,0,-1,902,1289,0,0
-315,-265,0,0,0,0,0,0,0,0,0,-1,909,1289,0,0
-308,-265,0,0,0,0,0,0,0,0,0,-1,916,1289,0,0
-301,-265,0,0,0,0,0,0,0,0,0,-1,923,1289,0,0
-294,-265,0,0,0,0,0,0,0,0,0,-1,930,1289,0,0
-287,-265,0,0,0,0,0,0,0,0,0,-1,937,1289,0,0
-280,-265,0,0,0,0,0,0,0,0,0,-1,944,1289,0,0
-273,-265,0,0,0,0,0,0,0,0,0,-1,951,1289,0,0
-266,-265,0,0,0,0,0,0,0,0,0,-1,958,1289,0,0
-259,-265,0,0,0,0,0,0,0,0,0,-1,965,1289,0,0
-252,-265,0,0,0,0,0,0,0,0,0,-1,972,1289,0,0
-245,-265,0,0,0,0,0,0,0,0,0,-1,979,1289,0,0
-238,-265,0,0,0,0,0,0,0,0,0,-1,986,1289,0,0
-231,-265,0,0,0,0,0,0,0,0,0,-1,993,1289,0,0
-224,-265,0,0,0,0,0,0,0,0,0,-1,1000,1289,0,0
-217,-265,0,0,0,0,0,0,0,0,0,-1,1007,1289,0,0
-210,-265,0,0,0,0,0,0,0,0,0,-1,1014,1289,0,0
-203,-265,0,0,0,0,0,0,0,0,0,-1,1021,1289,0,0
-196,-265,0,0,0,0,0,0,0,0,0,-1,1028,1289,0,0
-189,-265,0,0,0,0,0,0,0,0,0,-1,1035,1289,0,0
-182,-265,0,0,0,0,0,0,0,0,0,-1,1042,1289,0,0
-175,-265,0,0,0,0,0,0,0,0,0,-1,1049,1289,0,0
-168,-265,0,0,0,0,0,0,0,0,0,-1,1056,1289,0,0
-161,-265,0,0,0,0,0,0,0,0,0,-1,1063,1289,0,0
-154,-265,0,0,0,0,0,0,0,0,0,-1,1070,1289,0,0
-147,-265,0,0,0,0,0,0,0,0,0,-1,1077,1289,0,0
-140,-265,0,0,0,0,0,0,0,0,0,-1,1084,1289,0,0
-133,-265,0,0,0,0,0,0,0,0,0,-1,1091,1289,0,0
-126,-265,0,0,0,0,0,0,0,0,0,-1,1098,1289,0,0
-119,-265,0,0,0,0,0,0,0,0,0,-1,1105,1289,0,0
-112,-265,0,0,0,0,0,0,0,0,0,-1,1112,1289,0,0
-105,-265,0,0,0,0,0,0,0,0,0,-1,1119,1289,0,0
-98,-265,0,0,0,0,0,0,0,0,0,-1,1126,1289,0,0
-91,-265,0,0,0,0,0,0,0,0,0,-1,1133,1289,0,0
-84,-265,0,0,0,0,0,0,0,0,0,-1,1140,1289,0,0
-77,-265,0,0,0,0,0,0,0,0,0,-1,1147,1289,0,0
-70,-265,0,0,0,0,0,0,0,0,0,-1,1154,1289,0,0
-63,-265,0,0,0,0,0,0,0,0,0,-1,1161,1289,0,0
-56,-265,0,0,0,0,0,0,0,0,0,-1,1168,1289,0,0
-49,-265,0,0,0,0,0,0,0,0,0,-1,1175,1289,0,0
-42,-265,0,0,0,0,0,0,0,0,0,-1,1182,1289,0,0
-35,-265,0,0,0,0,0,0,0,0,0,-1,1189,1289,0,0
-28,-265,0,0,0,0,0,0,0,0,0,-1,1196,1289,0,0
-21,-265,0,0,0,0,0,0,0,0,0,-1,1203,1289,0,0
-14,-265,0,0,0,0,0,0,0,0,0,-1,1210,1289,0,0
-7,-265,0,0,0,0,0,0,0,0,0,-1,1217,1289,0,0
0,-265,0,0,0,0,0,0,0,0,0,-1,1224,1289,0,0
7,-265,0,0,0,0,0,0,0,0,0,-1,1231,1289,0,0
14,-265,0,0,0,0,0,0,0,0,0,-1,1238,1289,0,0
21,-265,0,0,0,0,0,0,0,0,0,-1,1245,1289,0,0
28,-265,0,0,0,0,0,0,0,0,0,-1,1252,1289,0,0
35,-265,0,0,0,0,0,0,0,0,0,-1,1259,1289,0,0
42,-265,0,0,0,0,0,0,0,0,0,-1,1266,1289,0,0
49,-265,0,0,0,0,0,0,0,0,0,-1,1273,1289,0,0
56,-265,0,0,0,0,0,0,0,0,0,-1,1280,1289,0,0
63,-265,0,0,0,0,0,0,0,0,0,-1,1287,1289,0,0
70,-265,0,0,0,0,0,0,0,0,0,-1,1294,1289,0,0
77,-265,0,0,0,0,0,0,0,0,0,-1,1301,1289,0,0
84,-265,0,0,0,0,0,0,0,0,0,-1,1308,1289,0,0
91,-265,0,0,0,0,0,0,0,0,0,-1,1315,1289,0,0
98,-265,0,0,0,0,0,0,0,0,0,-1,1322,1289,0,0
105,-265,0,0,0,0,0,0,0,0,0,-1,1329,1289,0,0
112,-265,0,0,0,0,0,0,0,0,0,-1,1336,1289,0,0
119,-265,0,0,0,0,0,0,0,0,0,-1,1343,1289,0,0
126,-265,0,0,0,0,0,0,0,0,0,-1,1350,1289,0,0
133,-265,0,0,0,0,0,0,0,0,0,-1,1357,1289,0,0
140,-265,0,0,0,0,0,0,0,0,0,-1,1364,1289,0,0
147,-265,0,0,0,0,0,0,0,0,0,-1,1371,1289,0,0
154,-265,0,0,0,0,0,0,0,0,0,-1,1378,1289,0,0
161,-265,0,0,0,0,0,0,0,0,0,-1,1385,1289,0,0
168,-265,0,0,0,0,0,0,0,0,0,-1,1392,1289,0,0
175,-265,0,0,0,0,0,0,0,0,0,-1,1399,1289,0,0
182,-265,0,0,0,0,0,0,0,0,0,-1,1406,1289,0,0
189,-265,0,0,0,0,0,0,0,0,0,-1,1413,1289,0,0
196,-265,0,0,0,0,0,0,0,0,0,-1,1420,1289,0,0
203,-265,0,0,0,0,0,0,0,0,0,-1,1427,1289,0,0
210,-265,0,0,0,0,0,0,0,0,0,-1,1434,1289,0,0
217,-265,0,0,0,0,0,0,0,0,0,-1,1441,1289,0,0
224,-265,0,0,0,0,0,0,0,0,0,-1,1448,1289,0,0
231,-265,0,0,0,0,0,0,0,0,0,-1,1455,1289,0,0
238,-265,0,0,0,0,0,0,0,0,0,-1,1462,1289,0,0
245,-265,0,0,0,0,0,0,0,0,0,-1,1469,1289,0,0
252,-265,0,0,0,0,0,0,0,0,0,-1,1476,1289,0,0
259,-265,0,0,0,0,0,0,0,0,0,-1,1483,1289,0,0
266,-265,0,0,0,0,0,0,0,0,0,-1,1490,1289,0,0
273,-265,0,0,0,0,0,0,0,0,0,-1,1497,1289,0,0
280,-265,0,0,0,0,0,0,0,0,0,-1,1504,1289,0,0
287,-265,0,0,0,0,0,0,0,0,0,-1,1511,1289,0,0
294,-265,0,0,0,0,0,0,0,0,0,-1,1518,1289,0,0
301,-265,0,0,0,0,0,0,0,0,0,-1,1525,1289,0,0
308,-265,0,0,0,0,0,0,0,0,0,-1,1532,1289,0,0
315,-265,0,0,0,0,0,0,0,0,0,-1,1539,1289,0,0
322,-265,0,0,0,0,0,0,0,0,0,-1,1546,1289,0,0
329,-265,0,0,0,0,0,0,0,0,0,-1,1553,1289,0,0
336,-265,0,0,0,0,0,0,0,0,0,-1,1560,1289,0,0
343,-265,0,0,0,0,0,0,0,0,0,-1,1567,1289,0,0
350,-265,0,0,0,0,0,0,0,0,0,-1,1574,1289,0,0
357,-265,0,0,0,0,0,0,0,0,0,-1,1581,1289,0,0
364,-265,0,0,0,0,0,0,0,0,0,-1,1588,1289,0,0
371,-265,0,0,0,0,0,0,0,0,0,-1,1595,1289,0,0
378,-265,0,0,0,0,0,0,0,0,0,-1,1602,1289,0,0
385,-265,0,0,0,0,0,0,0,0,0,-1,1609,1289,0,0
392,-265,0,0,0,0,0,0,0,0,0,-1,1616,1289,0,0
399,-265,0,0,0,0,0,0,0,0,0,-1,1623,1289,0,0
406,-265,0,0,0,0,0,0,0,0,0,-1,1630,1289,0,0
413,-265,0,0,0,0,0,0,0,0,0,-1,1637,1289,0,0
420,-265,0,0,0,0,0,0,0,0,0,-1,1644,1289,0,0
427,-265,0,0,0,0,0,0,0,0,0,-1,1651,1289,0,0
434,-265,0,0,0,0,0,0,0,0,0,-1,1658,1289,0,0
441,-265,0,0,0,0,0,0,0,0,0,-1,1665,1289,0,0
448,-265,0,0,0,0,0,0,0,0,0,-1,1672,1289,0,0
455,-265,0,0,0,0,0,0,0,0,0,-1,1679,1289,0,0
462,-265,0,0,0,0,0,0,0,0,0,-1,1686,1289,0,0
469,-265,0,0,0,0,0,0,0,0,0,-1,1693,1289,0,0
476,-265,0,0,0,0,0,0,0,0,0,-1,1700,1289,0,0
483,-265,0,0,0,0,0,0,0,0,0,-1,1707,1289,0,0
490,-265,0,0,0,0,0,0,0,0,0,-1,1714,1289,0,0
497,-265,0,0,0,0,0,0,0,0,0,-1,1721,1289,0,0
504,-265,0,0,0,0,0,0,0,0,0,-1,1728,1289,0,0
511,-265,0,0,0,0,0,0,0,0,0,-1,1735,1289,0,0
518,-265,0,0,0,0,0,0,0,0,0,-1,1742,1289,0,0
525,-265,0,0,0,0,0,0,0,0,0,-1,1749,1289,0,0
532,-265,0,0,0,0,0,0,0,0,0,-1,1756,1289,0,0
539,-265,0,0,0,0,0,0,0,0,0,-1,1763,1289,0,0
546,-265,0,0,0,0,0,0,0,0,0,-1,1770,1289,0,0
553,-265,0,0,0,0,0,0,0,0,0,-1,1777,1289,0,0
560,-265,0,0,0,0,0,0,0,0,0,-1,1784,1289,0,0
567,-265,0,0,0,0,0,0,0,0,0,-1,1791,1289,0,0
574,-265,0,0,0,0,0,0,0,0,0,-1,1798,1289,0,0
581,-265,0,0,0,0,0,0,0,0,0,-1,1805,1289,0,0
588,-265,0,0,0,0,0,0,0,0,0,-1,1812,1289,0,0
595,-265,0,0,0,0,0,0,0,0,0,-1,1819,1289,0,0
602,-265,16.0525,2.34802,-0.0135588,0.0104873,-0.0141871,0.0170606,-0.0201322,-1.13691,0.0214977,0.0280352,1826,1289,16.0525,-2.34805
609,-265,16.0579,2.26294,-0.0120708,0.018187,-0.00592871,0.0193072,-0.013191,-1.38405,0.0188733,0.0275691,1833,1289,16.0579,-2.26295
616,-265,15.948,2.23901,-0.0114005,0.0235671,0.00137338,0.023621,-0.0114543,1.5316,0.0206528,0.0322005,1840,1289,15.948,-2.23905
623,-265,15.8505,2.13379,-0.0111279,0.0256174,0.00628435,0.0266624,-0.012173,1.40601,0.0229359,0.0436223,1847,1289,15.8505,-2.13375
630,-265,15.5602,1.74353,-0.0110385,0.0249135,0.00886931,0.0269825,-0.0131075,1.34162,0.0236035,0.0465547,1854,1289,15.5602,-1.7435
637,-265,15.3622,1.43665,-0.0109026,0.0225682,0.00966748,0.0251598,-0.0134942,1.30888,0.0226532,0.0447767,1861,1289,15.3622,-1.43665
644,-265,15.3958,1.61523,0,0,0,0,0,0,0,-1,1868,1289,15.3957,-1.61525
651,-265,15.5354,1.0741,0,0,0,0,0,0,0,-1,1875,1289,15.5354,-1.07408
658,-265,13.6171,1.64063,0,0,0,0,0,0,0,-1,1882,1289,13.6171,-1.64068
665,-265,11.1312,-2.16956,0,0,0,0,0,0,0,-1,1889,1289,11.1312,2.16959
672,-265,13.4391,4.30811,0,0,0,0,0,0,0,-1,1896,1289,13.4391,-4.30811
679,-265,13.3641,4.28687,-0.00682635,0.0058329,0.00524959,0.00772656,-0.00872001,1.2246,0.0095012,0.0273903,1903,1289,13.3641,-4.28689
686,-265,13.3138,4.20386,-0.00600501,0.00310729,0.00394578,0.00457838,-0.00747611,1.21393,0.00702637,0.0124376,1910,1289,13.3138,-4.20391
693,-265,13.3159,4.0675,-0.00453481,0.00072769,0.00262686,0.00181448,-0.00562161,1.17852,0.00447686,0.00980477,1917,1289,13.3159,-4.06746
700,-265,13.3171,3.93347,-0.00201092,-0.000728081,0.000881078,-0.000279676,-0.00245932,1.10003,0.00155473,0.0100278,1924,1289,13.3172,-3.93341
707,-265,13.3394,3.80103,0.000877799,-0.000611378,-0.000310477,0.000939937,-0.000673516,-0.197528,0.000935751,0.00933274,1931,1289,13.3394,-3.80099
714,-265,13.3406,3.6792,0.00462357,0.000954093,-0.0023375,0.0057604,-0.00018273,-0.452661,0.0039026,0.00879504,1938,1289,13.3406,-3.67926
721,-265,13.3339,3.552,0.00863036,0.00295343,-0.00462731,0.0112204,0.00036337,-0.510286,0.00736215,0.00865094,1945,1289,13.3339,-3.55199
728,-265,13.3236,3.43506,0.0131444,0.00500683,-0.00745979,0.0175729,0.000578352,-0.535735,0.0115273,0.0109178,1952,1289,13.3237,-3.43501
735,-265,13.3167,3.31799,0.0178639,0.00739775,-0.0108134,0.0246439,0.000617697,-0.560039,0.0162273,0.0143586,1959,1289,13.3166,-3.31796
742,-265,13.3496,3.16541,0.0233441,0.0103272,-0.0147501,0.0329578,0.000713419,-0.577622,0.021738,0.0189266,1966,1289,13.3496,-3.16546
749,-265,13.4141,2.86584,0.0292705,0.0138869,-0.0195077,0.042548,0.000609307,-0.597609,0.0281645,0.0353137,1973,1289,13.4141,-2.86582
756,-265,13.725,2.52112,0.0354499,0.0181288,-0.0251724,0.0534099,0.000168748,-0.619716,0.0355505,0.040704,1980,1289,13.7249,-2.52112
763,-265,13.7604,2.36389,0.0412885,0.0230021,-0.0317232,0.0651598,-0.000869226,-0.645091,0.0437325,0.0418086,1987,1289,13.7603,-2.36394
770,-265,13.608,1.97986,0.0458027,0.0283428,-0.0390554,0.0770919,-0.00294647,-0.675442,0.0524044,0.0446077,1994,1289,13.608,-1.9798
777,-265,13.4203,1.55676,0,0,0,0,0,0,0,-1,2001,1289,13.4203,-1.55674
784,-265,0,0,0,0,0,0,0,0,0,-1,2008,1289,0,0
791,-265,0,0,0,0,0,0,0,0,0,-1,2015,1289,0,0
798,-265,0,0,0,0,0,0,0,0,0,-1,2022,1289,0,0
805,-265,0,0,0,0,0,0,0,0,0,-1,2029,1289,0,0
812,-265,0,0,0,0,0,0,0,0,0,-1,2036,1289,0,0
-700,-272,0,0,0,0,0,0,0,0,0,-1,524,1296,0,0
-693,-272,0,0,0,0,0,0,0,0,0,-1,531,1296,0,0
-686,-272,0,0,0,0,0,0,0,0,0,-1,538,1296,0,0
-679,-272,0,0,0,0,0,0,0,0,0,-1,545,1296,0,0
-672,-272,0,0,0,0,0,0,0,0,0,-1,552,1296,0,0
-665,-272,0,0,0,0,0,0,0,0,0,-1,559,1296,0,0
-658,-272,-7.263,0.0860596,0.0477741,0.187319,0.00449918,0.187464,0.0476291,1.5386,0.112512,0.0453672,566,1296,-7.263,-0.0860844
-651,-272,-7.10345,0.384399,0.0433424,0.151676,0.0042547,0.151842,0.0431756,1.5316,0.0903434,0.045241,573,1296,-7.10346,-0.384387
-644,-272,-6.96985,0.582397,0.037258,0.12115,0.00435995,0.121376,0.037032,1.51901,0.0718294,0.0473333,580,1296,-6.96983,-0.582344
-637,-272,-6.51361,0.69165,0.0306441,0.0953818,0.00447585,0.0956898,0.0303361,1.50209,0.0564662,0.0470444,587,1296,-6.51364,-0.691654
-630,-272,-6.35028,0.622681,0.0241835,0.0739,0.00450126,0.0743043,0.0237793,1.48123,0.0438162,0.0457719,594,1296,-6.35026,-0.622701
-623,-272,-6.40283,0.842651,0.0183177,0.0562287,0.0043854,0.0567294,0.017817,1.45712,0.0334991,0.044225,601,1296,-6.40283,-0.842661
-616,-272,-6.47473,1.02661,0.0134225,0.042088,0.00409719,0.0426621,0.0128483,1.43158,0.0252718,0.0361424,608,1296,-6.47476,-1.02661
-609,-272,-6.49457,1.11011,0.00986569,0.0301065,0.00412646,0.0309155,0.00905677,1.37722,0.0183521,0.0191342,615,1296,-6.49459,-1.11009
-602,-272,-6.52386,1.22375,0.00632241,0.0194364,0.0028265,0.0200196,0.00573915,1.3673,0.0119038,0.0134535,622,1296,-6.52389,-1.22373
-595,-272,-6.53656,1.38062,0.00391873,0.0118465,0.00300189,0.0128549,0.00291031,1.24671,0.00778334,0.0109637,629,1296,-6.53657,-1.38059
-588,-272,-6.5235,1.53589,0.00153319,0.00671695,0.00243873,0.0076839,0.000566245,1.19331,0.00494467,0.0101219,636,1296,-6.52352,-1.53589
-581,-272,-6.52734,1.7041,0.00036606,0.00334598,0.00184828,0.00423007,-0.00051803,1.12463,0.00300763,0.00973888,643,1296,-6.52737,-1.70405
-574,-272,-6.53619,1.87256,-0.000531897,0.00217293,0.000800988,0.00239234,-0.000751299,1.30344,0.00189562,0.0148334,650,1296,-6.5362,-1.87258
-567,-272,-6.55017,2.03845,-0.00196315,0.00311021,-0.000641576,0.00319008,-0.00204303,-1.44693,0.00304544,0.0196603,657,1296,-6.55016,-2.03841
-560,-272,-6.54175,2.18542,-0.00381504,0.00533193,-0.00197795,0.00574132,-0.00422443,-1.3667,0.0057759,0.0187193,664,1296,-6.54175,-2.18548
-553,-272,-6.50415,2.32275,-0.00635487,0.00889741,-0.00326747,0.00956792,-0.00702538,-1.3684,0.00961756,0.0140315,671,1296,-6.50416,-2.32276
-546,-272,-6.48413,2.49426,-0.0100194,0.0135815,-0.00428902,0.0143368,-0.0107747,-1.39649,0.0145467,0.0197331,678,1296,-6.48414,-2.49424
-539,-272,-6.51715,2.68701,-0.0151418,0.0187127,-0.00479203,0.0193779,-0.0158071,-1.43286,0.0203489,0.0440701,685,1296,-6.51713,-2.68707
-532,-272,-6.57507,2.8584,0,0,0,0,0,0,0,-1,692,1296,-6.57505,-2.85845
-525,-272,-6.39716,-1.74585,-0.0256766,0.0297775,-0.00581962,0.0303817,-0.0262808,-1.46735,0.0327426,0.0436588,699,1296,-6.39715,1.7459
-518,-272,-6.69287,-1.73779,-0.0315278,0.0358383,-0.00575947,0.0363271,-0.0320167,-1.48612,0.0394845,0.0444495,706,1296,-6.69288,1.73781
-511,-272,-7.31848,-1.76794,0,0,0,0,0,0,0,-1,713,1296,-7.31845,1.76793
-504,-272,-7.50055,-1.0697,0,0,0,0,0,0,0,-1,720,1296,-7.50056,1.06975
-497,-272,-8.50482,-0.137573,0,0,0,0,0,0,0,-1,727,1296,-8.50481,0.137613
-490,-272,-8.93115,0.115845,-0.0548068,0.0514573,0.000694409,0.0514618,-0.0548113,1.56426,0.061367,0.042751,734,1296,-8.93115,-0.115865
-483,-272,-9.4187,0.340454,-0.0575613,0.0462388,0.0048148,0.0464617,-0.0577841,1.52454,0.0603046,0.0392403,741,1296,-9.41871,-0.340421
-476,-272,0,0,0,0,0,0,0,0,0,-1,748,1296,0,0
-469,-272,0,0,0,0,0,0,0,0,0,-1,755,1296,0,0
-462,-272,0,0,0,0,0,0,0,0,0,-1,762,1296,0,0
-455,-272,0,0,0,0,0,0,0,0,0,-1,769,1296,0,0
-448,-272,0,0,0,0,0,0,0,0,0,-1,776,1296,0,0
-441,-272,0,0,0,0,0,0,0,0,0,-1,783,1296,0,0
-434,-272,0,0,0,0,0,0,0,0,0,-1,790,1296,0,0
-427,-272,0,0,0,0,0,0,0,0,0,-1,797,1296,0,0
-420,-272,0,0,0,0,0,0,0,0,0,-1,804,1296,0,0
-413,-272,0,0,0,0,0,0,0,0,0,-1,811,1296,0,0
-406,-272,0,0,0,0,0,0,0,0,0,-1,818,1296,0,0
-399,-272,0,0,0,0,0,0,0,0,0,-1,825,1296,0,0
-392,-272,0,0,0,0,0,0,0,0,0,-1,832,1296,0,0
-385,-272,0,0,0,0,0,0,0,0,0,-1,839,1296,0,0
-378,-272,0,0,0,0,0,0,0,0,0,-1,846,1296,0,0
-371,-272,0,0,0,0,0,0,0,0,0,-1,853,1296,0,0
-364,-272,0,0,0,0,0,0,0,0,0,-1,860,1296,0,0
-357,-272,0,0,0,0,0,0,0,0,0,-1,867,1296,0,0
-350,-272,0,0,0,0,0,0,0,0,0,-1,874,1296,0,0
-343,-272,0,0,0,0,0,0,0,0,0,-1,881,1296,0,0
-336,-272,0,0,0,0,0,0,0,0,0,-1,888,1296,0,0
-329,-272,0,0,0,0,0,0,0,0,0,-1,895,1296,0,0
-322,-272,0,0,0,0,0,0,0,0,0,-1,902,1296,0,0
-315,-272,0,0,0,0,0,0,0,0,0,-1,909,1296,0,0
-308,-272,0,0,0,0,0,0,0,0,0,-1,916,1296,0,0
-301,-272,0,0,0,0,0,0,0,0,0,-1,923,1296,0,0
-294,-272,0,0,0,0,0,0,0,0,0,-1,930,1296,0,0
-287,-272,0,0,0,0,0,0,0,0,0,-1,937,1296,0,0
-280,-272,0,0,0,0,0,0,0,0,0,-1,944,1296,0,0
-273,-272,0,0,0,0,0,0,0,0,0,-1,951,1296,0,0
-266,-272,0,0,0,0,0,0,0,0,0,-1,958,1296,0,0
-259,-272,0,0,0,0,0,0,0,0,0,-1,965,1296,0,0
-252,-272,0,0,0,0,0,0,0,0,0,-1,972,1296,0,0
-245,-272,0,0,0,0,0,0,0,0,0,-1,979,1296,0,0
-238,-272,0,0,0,0,0,0,0,0,0,-1,986,1296,0,0
-231,-272,0,0,0,0,0,0,0,0,0,-1,993,1296,0,0
-224,-272,0,0,0,0,0,0,0,0,0,-1,1000,1296,0,0
-217,-272,0,0,0,0,0,0,0,0,0,-1,1007,1296,0,0
-210,-272,0,0,0,0,0,0,0,0,0,-1,1014,1296,0,0
-203,-272,0,0,0,0,0,0,0,0,0,-1,1021,1296,0,0
-196,-272,0,0,0,0,0,0,0,0,0,-1,1028,1296,0,0
-189,-272,0,0,0,0,0,0,0,0,0,-1,1035,1296,0,0
-182,-272,0,0,0,0,0,0,0,0,0,-1,1042,1296,0,0
-175,-272,0,0,0,0,0,0,0,0,0,-1,1049,1296,0,0
-168,-272,0,0,0,0,0,0,0,0,0,-1,1056,1296,0,0
-161,-272,0,0,0,0,0,0,0,0,0,-1,1063,1296,0,0
-154,-272,0,0,0,0,0,0,0,0,0,-1,1070,1296,0,0
-147,-272,0,0,0,0,0,0,0,0,0,-1,1077,1296,0,0
-140,-272,0,0,0,0,0,0,0,0,0,-1,1084,1296,0,0
-133,-272,0,0,0,0,0,0,0,0,0,-1,1091,1296,0,0
-126,-272,0,0,0,0,0,0,0,0,0,-1,1098,1296,0,0
-119,-272,0,0,0,0,0,0,0,0,0,-1,1105,1296,0,0
-112,-272,0,0,0,0,0,0,0,0,0,-1,1112,1296,0,0
-105,-272,0,0,0,0,0,0,0,0,0,-1,1119,1296,0,0
-98,-272,0,0,0,0,0,0,0,0,0,-1,1126,1296,0,0
-91,-272,0,0,0,0,0,0,0,0,0,-1,1133,1296,0,0
-84,-272,0,0,0,0,0,0,0,0,0,-1,1140,1296,0,0
-77,-272,0,0,0,0,0,0,0,0,0,-1,1147,1296,0,0
-70,-272,0,0,0,0,0,0,0,0,0,-1,1154,1296,0,0
-63,-272,0,0,0,0,0,0,0,0,0,-1,1161,1296,0,0
-56,-272,0,0,0,0,0,0,0,0,0,-1,1168,1296,0,0
-49,-272,0,0,0,0,0,0,0,0,0,-1,1175,1296,0,0
-42,-272,0,0,0,0,0,0,0,0,0,-1,1182,1296,0,0
-35,-272,0,0,0,0,0,0,0,0,0,-1,1189,1296,0,0
-28,-272,0,0,0,0,0,0,0,0,0,-1,1196,1296,0,0
-21,-272,0,0,0,0,0,0,0,0,0,-1,1203,1296,0,0
-14,-272,0,0,0,0,0,0,0,0,0,-1,1210,1296,0,0
-7,-272,0,0,0,0,0,0,0,0,0,-1,1217,1296,0,0
0,-272,0,0,0,0,0,0,0,0,0,-1,1224,1296,0,0
7,-272,0,0,0,0,0,0,0,0,0,-1,1231,1296,0,0
14,-272,0,0,0,0,0,0,0,0,0,-1,1238,1296,0,0
21,-272,0,0,0,0,0,0,0,0,0,-1,1245,1296,0,0
28,-272,0,0,0,0,0,0,0,0,0,-1,1252,1296,0,0
35,-272,0,0,0,0,0,0,0,0,0,-1,1259,1296,0,0
42,-272,0,0,0,0,0,0,0,0,0,-1,1266,1296,0,0
49,-272,0,0,0,0,0,0,0,0,0,-1,1273,1296,0,0
56,-272,0,0,0,0,0,0,0,0,0,-1,1280,1296,0,0
63,-272,0,0,0,0,0,0,0,0,0,-1,1287,1296,0,0
70,-272,0,0,0,0,0,0,0,0,0,-1,1294,1296,0,0
77,-272,0,0,0,0,0,0,0,0,0,-1,1301,1296,0,0
84,-272,0,0,0,0,0,0,0,0,0,-1,1308,1296,0,0
91,-272,0,0,0,0,0,0,0,0,0,-1,1315,1296,0,0
98,-272,0,0,0,0,0,0,0,0,0,-1,1322,1296,0,0
105,-272,0,0,0,0,0,0,0,0,0,-1,1329,1296,0,0
112,-272,0,0,0,0,0,0,0,0,0,-1,1336,1296,0,0
119,-272,0,0,0,0,0,0,0,0,0,-1,1343,1296,0,0
126,-272,0,0,0,0,0,0,0,0,0,-1,1350,1296,0,0
133,-272,0,0,0,0,0,0,0,0,0,-1,1357,1296,0,0
140,-272,0,0,0,0,0,0,0,0,0,-1,1364,1296,0,0
147,-272,0,0,0,0,0,0,0,0,0,-1,1371,1296,0,0
154,-272,0,0,0,0,0,0,0,0,0,-1,1378,1296,0,0
161,-272,0,0,0,0,0,0,0,0,0,-1,1385,1296,0,0
168,-272,0,0,0,0,0,0,0,0,0,-1,1392,1296,0,0
175,-272,0,0,0,0,0,0,0,0,0,-1,1399,1296,0,0
182,-272,0,0,0,0,0,0,0,0,0,-1,1406,1296,0,0
189,-272,0,0,0,0,0,0,0,0,0,-1,1413,1296,0,0
196,-272,0,0,0,0,0,0,0,0,0,-1,1420,1296,0,0
203,-272,0,0,0,0,0,0,0,0,0,-1,1427,1296,0,0
210,-272,0,0,0,0,0,0,0,0,0,-1,1434,1296,0,0
217,-272,0,0,0,0,0,0,0,0,0,-1,1441,1296,0,0
224,-272,0,0,0,0,0,0,0,0,0,-1,1448,1296,0,0
231,-272,0,0,0,0,0,0,0,0,0,-1,1455,1296,0,0
238,-272,0,0,0,0,0,0,0,0,0,-1,1462,1296,0,0
245,-272,0,0,0,0,0,0,0,0,0,-1,1469,1296,0,0
252,-272,0,0,0,0,0,0,0,0,0,-1,1476,1296,0,0
259,-272,0,0,0,0,0,0,0,0,0,-1,1483,1296,0,0
266,-272,0,0,0,0,0,0,0,0,0,-1,1490,1296,0,0
273,-272,0,0,0,0,0,0,0,0,0,-1,1497,1296,0,0
280,-272,0,0,0,0,0,0,0,0,0,-1,1504,1296,0,0
287,-272,0,0,0,0,0,0,0,0,0,-1,1511,1296,0,0
294,-272,0,0,0,0,0,0,0,0,0,-1,1518,1296,0,0
301,-272,0,0,0,0,0,0,0,0,0,-1,1525,1296,0,0
308,-272,0,0,0,0,0,0,0,0,0,-1,1532,1296,0,0
315,-272,0,0,0,0,0,0,0,0,0,-1,1539,1296,0,0
322,-272,0,0,0,0,0,0,0,0,0,-1,1546,1296,0,0
329,-272,0,0,0,0,0,0,0,0,0,-1,1553,1296,0,0
336,-272,0,0,0,0,0,0,0,0,0,-1,1560,1296,0,0
343,-272,0,0,0,0,0,0,0,0,0,-1,1567,1296,0,0
350,-272,0,0,0,0,0,0,0,0,0,-1,1574,1296,0,0
357,-272,0,0,0,0,0,0,0,0,0,-1,1581,1296,0,0
364,-272,0,0,0,0,0,0,0,0,0,-1,1588,1296,0,0
371,-272,0,0,0,0,0,0,0,0,0,-1,1595,1296,0,0
378,-272,0,0,0,0,0,0,0,0,0,-1,1602,1296,0,0
385,-272,0,0,0,0,0,0,0,0,0,-1,1609,1296,0,0
392,-272,0,0,0,0,0,0,0,0,0,-1,1616,1296,0,0
399,-272,0,0,0,0,0,0,0,0,0,-1,1623,1296,0,0
406,-272,0,0,0,0,0,0,0,0,0,-1,1630,1296,0,0
413,-272,0,0,0,0,0,0,0,0,0,-1,1637,1296,0,0
420,-272,0,0,0,0,0,0,0,0,0,-1,1644,1296,0,0
427,-272,0,0,0,0,0,0,0,0,0,-1,1651,1296,0,0
434,-272,0,0,0,0,0,0,0,0,0,-1,1658,1296,0,0
441,-272,0,0,0,0,0,0,0,0,0,-1,1665,1296,0,0
448,-272,0,0,0,0,0,0,0,0,0,-1,1672,1296,0,0
455,-272,0,0,0,0,0,0,0,0,0,-1,1679,1296,0,0
462,-272,0,0,0,0,0,0,0,0,0,-1,1686,1296,0,0
469,-272,0,0,0,0,0,0,0,0,0,-1,1693,1296,0,0
476,-272,0,0,0,0,0,0,0,0,0,-1,1700,1296,0,0
483,-272,0,0,0,0,0,0,0,0,0,-1,1707,1296,0,0
490,-272,0,0,0,0,0,0,0,0,0,-1,1714,1296,0,0
497,-272,0,0,0,0,0,0,0,0,0,-1,1721,1296,0,0
504,-272,0,0,0,0,0,0,0,0,0,-1,1728,1296,0,0
511,-272,0,0,0,0,0,0,0,0,0,-1,1735,1296,0,0
518,-272,0,0,0,0,0,0,0,0,0,-1,1742,1296,0,0
525,-272,0,0,0,0,0,0,0,0,0,-1,1749,1296,0,0
532,-272,0,0,0,0,0,0,0,0,0,-1,1756,1296,0,0
539,-272,0,0,0,0,0,0,0,0,0,-1,1763,1296,0,0
546,-272,0,0,0,0,0,0,0,0,0,-1,1770,1296,0,0
553,-272,0,0,0,0,0,0,0,0,0,-1,1777,1296,0,0
560,-272,0,0,0,0,0,0,0,0,0,-1,1784,1296,0,0
567,-272,0,0,0,0,0,0,0,0,0,-1,1791,1296,0,0
574,-272,0,0,0,0,0,0,0,0,0,-1,1798,1296,0,0
581,-272,0,0,0,0,0,0,0,0,0,-1,1805,1296,0,0
588,-272,0,0,0,0,0,0,0,0,0,-1,1812,1296,0,0
595,-272,0,0,0,0,0,0,0,0,0,-1,1819,1296,0,0
602,-272,15.9979,2.27026,-0.000532093,0.0142405,-0.00790077,0.0176699,-0.00396151,-1.16128,0.0132986,0.0310198,1826,1296,15.9979,-2.27022
609,-272,15.9517,2.10767,-0.00567677,0.0225036,-0.000425131,0.02251,-0.00568318,-1.55571,0.0172166,0.0381576,1833,1296,15.9517,-2.10769
616,-272,15.9465,2.09717,-0.00870941,0.0271099,0.00608786,0.0281163,-0.00971583,1.40696,0.0226872,0.0445846,1840,1296,15.9465,-2.09716
623,-272,15.8615,2.06873,-0.0103215,0.0281543,0.0102247,0.0307026,-0.0128699,1.32654,0.0258493,0.0450416,1847,1296,15.8614,-2.06869
630,-272,15.7004,1.93567,0,0,0,0,0,0,0,-1,1854,1296,15.7005,-1.93572
637,-272,14.9972,0.818481,0,0,0,0,0,0,0,-1,1861,1296,14.9972,-0.818511
644,-272,16.9302,3.23779,-0.0112756,0.0207363,0.0117623,0.0245935,-0.0151327,1.25392,0.0231517,0.049125,1868,1296,16.9301,-3.23782
651,-272,16.1316,3.73193,0,0,0,0,0,0,0,-1,1875,1296,16.1316,-3.73197
658,-272,15.4806,4.20313,0,0,0,0,0,0,0,-1,1882,1296,15.4806,-4.20318
665,-272,13.4574,4.24292,0,0,0,0,0,0,0,-1,1889,1296,13.4574,-4.24298
672,-272,13.3446,4.2572,-0.00786727,0.00839479,0.00769019,0.0114554,-0.0109279,1.19203,0.0129242,0.048197,1896,1296,13.3446,-4.25719
679,-272,13.2236,4.28137,-0.007069,0.00571823,0.00620909,0.00823703,-0.0095878,1.18542,0.010301,0.0211473,1903,1296,13.2236,-4.2814
686,-272,13.1715,4.19775,-0.00610773,0.00281419,0.0044953,0.00468631,-0.00797985,1.17618,0.00739476,0.0128083,1910,1296,13.1715,-4.19771
693,-272,13.1727,4.06152,-0.00440871,0.000461498,0.00283741,0.00176546,-0.00571268,1.14002,0.00451354,0.0115799,1917,1296,13.1727,-4.06149
700,-272,13.1882,3.94092,-0.00147144,-0.00087768,0.00077796,-0.000341876,-0.00200724,0.967675,0.00124001,0.0110942,1924,1296,13.1882,-3.94091
707,-272,13.2068,3.81433,0.00209227,-0.000505487,-0.000793079,0.00231525,-0.000728469,-0.274084,0.00183517,0.0100463,1931,1296,13.2067,-3.8143
714,-272,13.2029,3.67932,0.00654667,0.00114975,-0.00302846,0.00790448,-0.000208056,-0.421479,0.00534035,0.0100025,1938,1296,13.2029,-3.67927
721,-272,13.1897,3.55139,0.0113345,0.00315613,-0.00553689,0.0141285,0.000362097,-0.467337,0.00930066,0.0122765,1945,1296,13.1897,-3.55139
728,-272,13.196,3.42346,0.0168627,0.00526465,-0.0085999,0.0214361,0.000691249,-0.48876,0.014066,0.0150139,1952,1296,13.1961,-3.42348
735,-272,13.2181,3.30078,0.0230001,0.00778019,-0.0122559,0.0298165,0.000963799,-0.507568,0.0195643,0.0137179,1959,1296,13.2181,-3.30083
742,-272,13.1918,3.1001,0.0303313,0.01099,-0.0166275,0.039896,0.00142537,-0.522005,0.0261351,0.0227605,1966,1296,13.1918,-3.10004
749,-272,13.4689,2.69897,0.0386858,0.0150121,-0.0219203,0.051761,0.0019369,-0.537834,0.0338802,0.0396831,1973,1296,13.4689,-2.69894
756,-272,13.9384,2.12793,0.0478463,0.0199405,-0.0281665,0.0653264,0.00246039,-0.555429,0.0427544,0.0443273,1980,1296,13.9383,-2.1279
763,-272,14.7068,1.98047,0.0571749,0.0257838,-0.0352902,0.0801025,0.00285612,-0.576156,0.0524756,0.0453403,1987,1296,14.7067,-1.98046
770,-272,15.3784,1.81689,0,0,0,0,0,0,0,-1,1994,1296,15.3784,-1.81686
777,-272,14.1517,0.942017,0,0,0,0,0,0,0,-1,2001,1296,14.1518,-0.941996
784,-272,0,0,0,0,0,0,0,0,0,-1,2008,1296,0,0
791,-272,0,0,0,0,0,0,0,0,0,-1,2015,1296,0,0
798,-272,0,0,0,0,0,0,0,0,0,-1,2022,1296,0,0
805,-272,0,0,0,0,0,0,0,0,0,-1,2029,1296,0,0
812,-272,0,0,0,0,0,0,0,0,0,-1,2036,1296,0,0
-700,-279,0,0,0,0,0,0,0,0,0,-1,524,1303,0,0
-693,-279,0,0,0,0,0,0,0,0,0,-1,531,1303,0,0
-686,-279,0,0,0,0,0,0,0,0,0,-1,538,1303,0,0
-679,-279,0,0,0,0,0,0,0,0,0,-1,545,1303,0,0
-672,-279,0,0,0,0,0,0,0,0,0,-1,552,1303,0,0
-665,-279,0,0,0,0,0,0,0,0,0,-1,559,1303,0,0
-658,-279,-9.91101,-3.45251,0.049137,0.210719,0.00759165,0.211075,0.0487811,1.52395,0.127603,0.0458813,566,1303,-9.91101,3.45251
-651,-279,-8.79108,-2.43567,0.0428078,0.17118,0.00686205,0.171546,0.0424421,1.51754,0.103169,0.0448763,573,1303,-8.79106,2.43569
-644,-279,-7.75928,-1.25488,0.0355859,0.137367,0.00670407,0.137806,0.0351462,1.50531,0.082684,0.0437001,580,1303,-7.75928,1.25489
-637,-279,-6.56207,-0.147705,0.0284482,0.108837,0.00659623,0.109375,0.0279105,1.48947,0.0656222,0.0451029,587,1303,-6.56205,0.147762
-630,-279,-6.14709,0.43396,0.0219097,0.0850051,0.00641169,0.0856501,0.0212648,1.47054,0.0514967,0.0466061,594,1303,-6.14708,-0.434012
-623,-279,-6.24878,0.868042,0.0162348,0.0652939,0.00608414,0.0660371,0.0154915,1.44923,0.0398769,0.0436036,601,1303,-6.24876,-0.868087
-616,-279,-6.36969,1.0946,0.0115923,0.0492491,0.0056003,0.0500643,0.0107771,1.42624,0.0304268,0.0417727,608,1303,-6.3697,-1.09458
-609,-279,-6.37512,1.08093,0.00828623,0.0357437,0.00535419,0.0367508,0.00727911,1.38487,0.0224707,0.0291004,615,1303,-6.37513,-1.08096
-602,-279,-6.35693,1.22522,0.00483096,0.0237745,0.00377224,0.024498,0.00410743,1.38129,0.0151496,0.0120942,622,1303,-6.35691,-1.22527
-595,-279,-6.37738,1.38733,0.00287037,0.0152408,0.00378421,0.0163066,0.00180457,1.29627,0.0103223,0.00960935,629,1303,-6.37737,-1.38732
-588,-279,-6.35425,1.5614,0.000961115,0.00901562,0.00302273,0.0100238,-4.7076e-05,1.24886,0.00669829,0.0101017,636,1303,-6.35424,-1.56141
-581,-279,-6.35712,1.69983,-8.38765e-05,0.00468535,0.00227761,0.00559829,-0.00099682,1.18957,0.00410501,0.0111957,643,1303,-6.35709,-1.69988
-574,-279,-6.37,1.84985,-0.000795868,0.00265687,0.00110391,0.00297964,-0.00111864,1.28634,0.00244611,0.0107502,650,1303,-6.37,-1.84983
-567,-279,-6.36719,2.01868,-0.00198031,0.00284343,-0.000400583,0.00287647,-0.00201335,-1.4885,0.00283776,0.0147698,657,1303,-6.36722,-2.01874
-560,-279,-6.36023,2.18286,-0.00367308,0.00448804,-0.00179989,0.00486737,-0.0040524,-1.36309,0.00515699,0.0159016,664,1303,-6.3602,-2.18283
-553,-279,-6.35248,2.3407,-0.00613464,0.00773822,-0.00313301,0.00841296,-0.00680937,-1.35867,0.00880486,0.012334,671,1303,-6.35248,-2.34074
-546,-279,-6.37909,2.49438,-0.00982103,0.0123875,-0.00412533,0.013129,-0.0105626,-1.39294,0.0137051,0.0140129,678,1303,-6.37911,-2.49438
-539,-279,-6.50256,2.7251,-0.0150808,0.0175915,-0.00449734,0.0181992,-0.0156886,-1.43647,0.019583,0.0402712,685,1303,-6.50259,-2.72515
-532,-279,-6.63739,2.96338,0,0,0,0,0,0,0,-1,692,1303,-6.63736,-2.96333
-525,-279,-5.53693,-2.19177,0,0,0,0,0,0,0,-1,699,1303,-5.53693,2.19179
-518,-279,-6.01733,-2.21521,-0.0319407,0.0349297,-0.00491472,0.035289,-0.0323,-1.49782,0.0390352,0.0452255,706,1303,-6.01732,2.21522
-511,-279,-6.255,-1.99036,-0.0382504,0.0411501,-0.00413052,0.0413644,-0.0384647,-1.51896,0.0460995,0.0459958,713,1303,-6.25502,1.99034
-504,-279,-6.3244,-1.60071,-0.0448108,0.0469975,-0.00284154,0.0470854,-0.0448987,-1.53989,0.053112,0.0475913,720,1303,-6.32439,1.60072
-497,-279,-6.52271,-1.48596,0,0,0,0,0,0,0,-1,727,1303,-6.52271,1.48592
-490,-279,-8.44739,-0.193115,-0.0569079,0.0552533,0.00201161,0.0552893,-0.056944,1.55287,0.0648003,0.0436904,734,1303,-8.4474,0.193104
-483,-279,-8.96973,0.13269,-0.0610538,0.0548317,0.00586267,0.0551275,-0.0613496,1.52038,0.0672801,0.0410307,741,1303,-8.96973,-0.132692
-476,-279,0,0,0,0,0,0,0,0,0,-1,748,1303,0,0
-469,-279,0,0,0,0,0,0,0,0,0,-1,755,1303,0,0
-462,-279,0,0,0,0,0,0,0,0,0,-1,762,1303,0,0
-455,-279,0,0,0,0,0,0,0,0,0,-1,769,1303,0,0
-448,-279,0,0,0,0,0,0,0,0,0,-1,776,1303,0,0
-441,-279,0,0,0,0,0,0,0,0,0,-1,783,1303,0,0
-434,-279,0,0,0,0,0,0,0,0,0,-1,790,1303,0,0
-427,-279,0,0,0,0,0,0,0,0,0,-1,797,1303,0,0
-420,-279,0,0,0,0,0,0,0,0,0,-1,804,1303,0,0
-413,-279,0,0,0,0,0,0,0,0,0,-1,811,1303,0,0
-406,-279,0,0,0,0,0,0,0,0,0,-1,818,1303,0,0
-399,-279,0,0,0,0,0,0,0,0,0,-1,825,1303,0,0
-392,-279,0,0,0,0,0,0,0,0,0,-1,832,1303,0,0
-385,-279,0,0,0,0,0,0,0,0,0,-1,839,1303,0,0
-378,-279,0,0,0,0,0,0,0,0,0,-1,846,1303,0,0
-371,-279,0,0,0,0,0,0,0,0,0,-1,853,1303,0,0
-364,-279,0,0,0,0,0,0,0,0,0,-1,860,1303,0,0
-357,-279,0,0,0,0,0,0,0,0,0,-1,867,1303,0,0
-350,-279,0,0,0,0,0,0,0,0,0,-1,874,1303,0,0
-343,-279,0,0,0,0,0,0,0,0,0,-1,881,1303,0,0
-336,-279,0,0,0,0,0,0,0,0,0,-1,888,1303,0,0
-329,-279,0,0,0,0,0,0,0,0,0,-1,895,1303,0,0
-322,-279,0,0,0,0,0,0,0,0,0,-1,902,1303,0,0
-315,-279,0,0,0,0,0,0,0,0,0,-1,909,1303,0,0
-308,-279,0,0,0,0,0,0,0,0,0,-1,916,1303,0,0
-301,-279,0,0,0,0,0,0,0,0,0,-1,923,1303,0,0
-294,-279,0,0,0,0,0,0,0,0,0,-1,930,1303,0,0
-287,-279,0,0,0,0,0,0,0,0,0,-1,937,1303,0,0
-280,-279,0,0,0,0,0,0,0,0,0,-1,944,1303,0,0
-273,-279,0,0,0,0,0,0,0,0,0,-1,951,1303,0,0
-266,-279,0,0,0,0,0,0,0,0,0,-1,958,1303,0,0
-259,-279,0,0,0,0,0,0,0,0,0,-1,965,1303,0,0
-252,-279,0,0,0,0,0,0,0,0,0,-1,972,1303,0,0
-245,-279,0,0,0,0,0,0,0,0,0,-1,979,1303,0,0
-238,-279,0,0,0,0,0,0,0,0,0,-1,986,1303,0,0
-231,-279,0,0,0,0,0,0,0,0,0,-1,993,1303,0,0
-224,-279,0,0,0,0,0,0,0,0,0,-1,1000,1303,0,0
-217,-279,0,0,0,0,0,0,0,0,0,-1,1007,1303,0,0
-210,-279,0,0,0,0,0,0,0,0,0,-1,1014,1303,0,0
-203,-279,0,0,0,0,0,0,0,0,0,-1,1021,1303,0,0
-196,-279,0,0,0,0,0,0,0,0,0,-1,1028,1303,0,0
-189,-279,0,0,0,0,0,0,0,0,0,-1,1035,1303,0,0
-182,-279,0,0,0,0,0,0,0,0,0,-1,1042,1303,0,0
-175,-279,0,0,0,0,0,0,0,0,0,-1,1049,1303,0,0
-168,-279,0,0,0,0,0,0,0,0,0,-1,1056,1303,0,0
-161,-279,0,0,0,0,0,0,0,0,0,-1,1063,1303,0,0
-154,-279,0,0,0,0,0,0,0,0,0,-1,1070,1303,0,0
-147,-279,0,0,0,0,0,0,0,0,0,-1,1077,1303,0,0
-140,-279,0,0,0,0,0,0,0,0,0,-1,1084,1303,0,0
-133,-279,0,0,0,0,0,0,0,0,0,-1,1091,1303,0,0
-126,-279,0,0,0,0,0,0,0,0,0,-1,1098,1303,0,0
-119,-279,0,0,0,0,0,0,0,0,0,-1,1105,1303,0,0
-112,-279,0,0,0,0,0,0,0,0,0,-1,1112,1303,0,0
-105,-279,0,0,0,0,0,0,0,0,0,-1,1119,1303,0,0
-98,-279,0,0,0,0,0,0,0,0,0,-1,1126,1303,0,0
-91,-279,0,0,0,0,0,0,0,0,0,-1,1133,1303,0,0
-84,-279,0,0,0,0,0,0,0,0,0,-1,1140,1303,0,0
-77,-279,0,0,0,0,0,0,0,0,0,-1,1147,1303,0,0
-70,-279,0,0,0,0,0,0,0,0,0,-1,1154,1303,0,0
-63,-279,0,0,0,0,0,0,0,0,0,-1,1161,1303,0,0
-56,-279,0,0,0,0,0,0,0,0,0,-1,1168,1303,0,0
-49,-279,0,0,0,0,0,0,0,0,0,-1,1175,1303,0,0
-42,-279,0,0,0,0,0,0,0,0,0,-1,1182,1303,0,0
-35,-279,0,0,0,0,0,0,0,0,0,-1,1189,1303,0,0
-28,-279,0,0,0,0,0,0,0,0,0,-1,1196,1303,0,0
-21,-279,0,0,0,0,0,0,0,0,0,-1,1203,1303,0,0
-14,-279,0,0,0,0,0,0,0,0,0,-1,1210,1303,0,0
-7,-279,0,0,0,0,0,0,0,0,0,-1,1217,1303,0,0
0,-279,0,0,0,0,0,0,0,0,0,-1,1224,1303,0,0
7,-279,0,0,0,0,0,0,0,0,0,-1,1231,1303,0,0
14,-279,0,0,0,0,0,0,0,0,0,-1,1238,1303,0,0
21,-279,0,0,0,0,0,0,0,0,0,-1,1245,1303,0,0
28,-279,0,0,0,0,0,0,0,0,0,-1,1252,1303,0,0
35,-279,0,0,0,0,0,0,0,0,0,-1,1259,1303,0,0
42,-279,0,0,0,0,0,0,0,0,0,-1,1266,1303,0,0
49,-279,0,0,0,0,0,0,0,0,0,-1,1273,1303,0,0
56,-279,0,0,0,0,0,0,0,0,0,-1,1280,1303,0,0
63,-279,0,0,0,0,0,0,0,0,0,-1,1287,1303,0,0
70,-279,0,0,0,0,0,0,0,0,0,-1,1294,1303,0,0
77,-279,0,0,0,0,0,0,0,0,0,-1,1301,1303,0,0
84,-279,0,0,0,0,0,0,0,0,0,-1,1308,1303,0,0
91,-279,0,0,0,0,0,0,0,0,0,-1,1315,1303,0,0
98,-279,0,0,0,0,0,0,0,0,0,-1,1322,1303,0,0
105,-279,0,0,0,0,0,0,0,0,0,-1,1329,1303,0,0
112,-279,0,0,0,0,0,0,0,0,0,-1,1336,1303,0,0
119,-279,0,0,0,0,0,0,0,0,0,-1,1343,1303,0,0
126,-279,0,0,0,0,0,0,0,0,0,-1,1350,1303,0,0
133,-279,0,0,0,0,0,0,0,0,0,-1,1357,1303,0,0
140,-279,0,0,0,0,0,0,0,0,0,-1,1364,1303,0,0
147,-279,0,0,0,0,0,0,0,0,0,-1,1371,1303,0,0
154,-279,0,0,0,0,0,0,0,0,0,-1,1378,1303,0,0
161,-279,0,0,0,0,0,0,0,0,0,-1,1385,1303,0,0
168,-279,0,0,0,0,0,0,0,0,0,-1,1392,1303,0,0
175,-279,0,0,0,0,0,0,0,0,0,-1,1399,1303,0,0
182,-279,0,0,0,0,0,0,0,0,0,-1,1406,1303,0,0
189,-279,0,0,0,0,0,0,0,0,0,-1,1413,1303,0,0
196,-279,0,0,0,0,0,0,0,0,0,-1,1420,1303,0,0
203,-279,0,0,0,0,0,0,0,0,0,-1,1427,1303,0,0
210,-279,0,0,0,0,0,0,0,0,0,-1,1434,1303,0,0
217,-279,0,0,0,0,0,0,0,0,0,-1,1441,1303,0,0
224,-279,0,0,0,0,0,0,0,0,0,-1,1448,1303,0,0
231,-279,0,0,0,0,0,0,0,0,0,-1,1455,1303,0,0
238,-279,0,0,0,0,0,0,0,0,0,-1,1462,1303,0,0
245,-279,0,0,0,0,0,0,0,0,0,-1,1469,1303,0,0
252,-279,0,0,0,0,0,0,0,0,0,-1,1476,1303,0,0
259,-279,0,0,0,0,0,0,0,0,0,-1,1483,1303,0,0
266,-279,0,0,0,0,0,0,0,0,0,-1,1490,1303,0,0
273,-279,0,0,0,0,0,0,0,0,0,-1,1497,1303,0,0
280,-279,0,0,0,0,0,0,0,0,0,-1,1504,1303,0,0
287,-279,0,0,0,0,0,0,0,0,0,-1,1511,1303,0,0
294,-279,0,0,0,0,0,0,0,0,0,-1,1518,1303,0,0
301,-279,0,0,0,0,0,0,0,0,0,-1,1525,1303,0,0
308,-279,0,0,0,0,0,0,0,0,0,-1,1532,1303,0,0
315,-279,0,0,0,0,0,0,0,0,0,-1,1539,1303,0,0
322,-279,0,0,0,0,0,0,0,0,0,-1,1546,1303,0,0
329,-279,0,0,0,0,0,0,0,0,0,-1,1553,1303,0,0
336,-279,0,0,0,0,0,0,0,0,0,-1,1560,1303,0,0
343,-279,0,0,0,0,0,0,0,0,0,-1,1567,1303,0,0
350,-279,0,0,0,0,0,0,0,0,0,-1,1574,1303,0,0
357,-279,0,0,0,0,0,0,0,0,0,-1,1581,1303,0,0
364,-279,0,0,0,0,0,0,0,0,0,-1,1588,1303,0,0
371,-279,0,0,0,0,0,0,0,0,0,-1,1595,1303,0,0
378,-279,0,0,0,0,0,0,0,0,0,-1,1602,1303,0,0
385,-279,0,0,0,0,0,0,0,0,0,-1,1609,1303,0,0
392,-279,0,0,0,0,0,0,0,0,0,-1,1616,1303,0,0
399,-279,0,0,0,0,0,0,0,0,0,-1,1623,1303,0,0
406,-279,0,0,0,0,0,0,0,0,0,-1,1630,1303,0,0
413,-279,0,0,0,0,0,0,0,0,0,-1,1637,1303,0,0
420,-279,0,0,0,0,0,0,0,0,0,-1,1644,1303,0,0
427,-279,0,0,0,0,0,0,0,0,0,-1,1651,1303,0,0
434,-279,0,0,0,0,0,0,0,0,0,-1,1658,1303,0,0
441,-279,0,0,0,0,0,0,0,0,0,-1,1665,1303,0,0
448,-279,0,0,0,0,0,0,0,0,0,-1,1672,1303,0,0
455,-279,0,0,0,0,0,0,0,0,0,-1,1679,1303,0,0
462,-279,0,0,0,0,0,0,0,0,0,-1,1686,1303,0,0
469,-279,0,0,0,0,0,0,0,0,0,-1,1693,1303,0,0
476,-279,0,0,0,0,0,0,0,0,0,-1,1700,1303,0,0
483,-279,0,0,0,0,0,0,0,0,0,-1,1707,1303,0,0
490,-279,0,0,0,0,0,0,0,0,0,-1,1714,1303,0,0
497,-279,0,0,0,0,0,0,0,0,0,-1,1721,1303,0,0
504,-279,0,0,0,0,0,0,0,0,0,-1,1728,1303,0,0
511,-279,0,0,0,0,0,0,0,0,0,-1,1735,1303,0,0
518,-279,0,0,0,0,0,0,0,0,0,-1,1742,1303,0,0
525,-279,0,0,0,0,0,0,0,0,0,-1,1749,1303,0,0
532,-279,0,0,0,0,0,0,0,0,0,-1,1756,1303,0,0
539,-279,0,0,0,0,0,0,0,0,0,-1,1763,1303,0,0
546,-279,0,0,0,0,0,0,0,0,0,-1,1770,1303,0,0
553,-279,0,0,0,0,0,0,0,0,0,-1,1777,1303,0,0
560,-279,0,0,0,0,0,0,0,0,0,-1,1784,1303,0,0
567,-279,0,0,0,0,0,0,0,0,0,-1,1791,1303,0,0
574,-279,0,0,0,0,0,0,0,0,0,-1,1798,1303,0,0
581,-279,0,0,0,0,0,0,0,0,0,-1,1805,1303,0,0
588,-279,0,0,0,0,0,0,0,0,0,-1,1812,1303,0,0
595,-279,0,0,0,0,0,0,0,0,0,-1,1819,1303,0,0
602,-279,15.9352,2.18787,0.00256595,0.0179454,-0.00398969,0.0189188,0.00159257,-1.3315,0.0121166,0.0420752,1826,1303,15.9352,-2.18789
609,-279,15.8373,1.927,-0.00461842,0.0254782,0.00337377,0.0258518,-0.00499198,1.46052,0.019117,0.0481295,1833,1303,15.8372,-1.92695
616,-279,15.8589,1.8031,-0.00873162,0.0287909,0.00933449,0.0309847,-0.0109255,1.33996,0.0251037,0.0478732,1840,1303,15.8589,-1.80308
623,-279,15.8834,1.99731,0,0,0,0,0,0,0,-1,1847,1303,15.8834,-1.99735
630,-279,15.9427,2.18481,-0.0117003,0.0270474,0.0146879,0.0319857,-0.0166385,1.24645,0.0285355,0.0441306,1854,1303,15.9428,-2.18481
637,-279,16.2322,2.35449,-0.0130945,0.0244792,0.0145118,0.0294313,-0.0180466,1.24194,0.0276728,0.0431908,1861,1303,16.2322,-2.35445
644,-279,16.0723,2.7926,-0.012061,0.0209222,0.0138271,0.0259518,-0.0170906,1.22193,0.0250255,0.0472046,1868,1303,16.0723,-2.79265
651,-279,15.46,2.92957,0,0,0,0,0,0,0,-1,1875,1303,15.46,-2.92954
658,-279,13.3036,4.76575,0,0,0,0,0,0,0,-1,1882,1303,13.3035,-4.76581
665,-279,13.3649,4.47253,-0.00868623,0.0110403,0.0105552,0.0156233,-0.0132693,1.16116,0.0166996,0.0477913,1889,1303,13.3649,-4.4725
672,-279,13.2872,4.30725,-0.00802229,0.00804176,0.00885801,0.0119671,-0.0119476,1.15366,0.0138071,0.0376343,1896,1303,13.2873,-4.30721
679,-279,13.0941,4.34778,-0.007109,0.00521015,0.00695661,0.00834223,-0.0102411,1.14775,0.0107477,0.023688,1903,1303,13.0942,-4.34776
686,-279,13.0349,4.20349,-0.00598385,0.00233682,0.00486189,0.00457542,-0.00822245,1.1393,0.00748819,0.0196915,1910,1303,13.0349,-4.20353
693,-279,13.0387,4.07117,-0.00405788,0.000177509,0.0029144,0.00166237,-0.00554273,1.09959,0.00435632,0.0157398,1917,1303,13.0387,-4.07113
700,-279,13.0649,3.94812,-0.00073583,-0.000975271,0.00062561,-0.000218588,-0.00149251,0.690858,0.000930742,0.0109284,1924,1303,13.065,-3.94818
707,-279,13.0548,3.82495,0.00343979,-0.000394045,-0.00126205,0.00381794,-0.000772197,-0.29112,0.00283793,0.00832442,1931,1303,13.0549,-3.8249
714,-279,13.0344,3.68237,0.00849263,0.00125613,-0.00359561,0.00997537,-0.000226617,-0.39113,0.00672706,0.00969375,1938,1303,13.0344,-3.68241
721,-279,13.0358,3.54138,0.0140103,0.00316685,-0.0062306,0.0168479,0.00032932,-0.427351,0.0111238,0.0134167,1945,1303,13.0358,-3.54135
728,-279,13.0651,3.41577,0.0205757,0.00523924,-0.00943937,0.025069,0.000745917,-0.44428,0.0164697,0.0151186,1952,1303,13.065,-3.41576
735,-279,13.0876,3.31421,0.0282242,0.00779879,-0.0133357,0.0348085,0.0012145,-0.458623,0.0228116,0.0137907,1959,1303,13.0876,-3.31423
742,-279,13.0623,3.1283,0.0375967,0.0111942,-0.0180751,0.0467781,0.00201279,-0.469994,0.0305366,0.0233916,1966,1303,13.0623,-3.12833
749,-279,13.3407,2.43921,0.0486386,0.015587,-0.023817,0.0611016,0.00312394,-0.4821,0.0397341,0.0404799,1973,1303,13.3407,-2.43922
756,-279,14.2742,1.83984,0.0611543,0.0211471,-0.0305468,0.0776644,0.00463695,-0.49551,0.0503019,0.0450685,1980,1303,14.2742,-1.8398
763,-279,15.0022,1.74268,0.0745104,0.0279816,-0.0381175,0.0959022,0.00658982,-0.511407,0.0618553,0.0441998,1987,1303,15.0022,-1.74269
770,-279,15.3867,1.60205,0,0,0,0,0,0,0,-1,1994,1303,15.3868,-1.60208
777,-279,12.1376,3.03748,0,0,0,0,0,0,0,-1,2001,1303,12.1376,-3.03744
784,-279,0,0,0,0,0,0,0,0,0,-1,2008,1303,0,0
791,-279,0,0,0,0,0,0,0,0,0,-1,2015,1303,0,0
798,-279,0,0,0,0,0,0,0,0,0,-1,2022,1303,0,0
805,-279,0,0,0,0,0,0,0,0,0,-1,2029,1303,0,0
812,-279,0,0,0,0,0,0,0,0,0,-1,2036,1303,0,0
-700,-286,0,0,0,0,0,0,0,0,0,-1,524,1310,0,0
-693,-286,0,0,0,0,0,0,0,0,0,-1,531,1310,0,0
-686,-286,0,0,0,0,0,0,0,0,0,-1,538,1310,0,0
-679,-286,0,0,0,0,0,0,0,0,0,-1,545,1310,0,0
-672,-286,0,0,0,0,0,0,0,0,0,-1,552,1310,0,0
-665,-286,0,0,0,0,0,0,0,0,0,-1,559,1310,0,0
-658,-286,-9.6665,-4.62354,0.0462854,0.232274,0.0107255,0.23289,0.0456689,1.51338,0.142498,0.0492865,566,1310,-9.66652,4.62352
-651,-286,-7.58527,-3.01331,0.0379777,0.1898,0.00948291,0.19039,0.0373877,1.50866,0.116482,0.0458728,573,1310,-7.58524,3.01335
-644,-286,-7.09918,-2.06812,0.0300341,0.153497,0.00908493,0.154162,0.0293692,1.49774,0.0945182,0.0445089,580,1310,-7.09919,2.06809
-637,-286,-6.54993,-1.1449,0.0230192,0.122773,0.00875668,0.123536,0.0222564,1.4839,0.0760323,0.0438419,587,1310,-6.5499,1.14486
-630,-286,-6.37,-0.687378,0.0171003,0.0969283,0.00835254,0.0977929,0.0162357,1.46765,0.0605138,0.0422087,594,1310,-6.37,0.687361
-623,-286,-6.10406,0.851563,0,0,0,0,0,0,0,-1,601,1310,-6.10406,-0.851535
-616,-286,-6.34589,0.569458,0.00845906,0.0574246,0.00707289,0.0584258,0.00745788,1.43018,0.0367179,0.0421879,608,1310,-6.34586,-0.569407
-609,-286,-6.19617,0.788452,0.00583553,0.0423375,0.00651959,0.043467,0.00470602,1.39925,0.0275436,0.0337552,615,1310,-6.1962,-0.788461
-602,-286,-6.21918,1.23755,0.00280093,0.0289907,0.00466224,0.0297959,0.00199573,1.39978,0.0192333,0.0134239,622,1310,-6.21919,-1.23753
-595,-286,-6.22314,1.39832,0.00155886,0.0194142,0.00449213,0.0204806,0.000492399,1.33771,0.0134926,0.00982313,629,1310,-6.22315,-1.39828
-588,-286,-6.19037,1.55518,0.000362915,0.012052,0.00354474,0.013043,-0.000628025,1.2982,0.00891204,0.010783,636,1310,-6.19037,-1.55521
-581,-286,-6.19067,1.69495,-0.000487257,0.00666133,0.00265443,0.00753917,-0.0013651,1.25141,0.00553753,0.0124128,643,1310,-6.19068,-1.69497
-574,-286,-6.20435,1.84045,-0.00100952,0.00363704,0.00136186,0.00400677,-0.00137924,1.3057,0.0032306,0.0124573,650,1310,-6.20435,-1.84051
-567,-286,-6.19965,2.01794,-0.00192114,0.00287179,-0.000165785,0.00287751,-0.00192687,-1.53626,0.00279185,0.0124281,657,1310,-6.19964,-2.01798
-560,-286,-6.20776,2.18518,-0.00341249,0.00369681,-0.00158336,0.0040335,-0.00374918,-1.36127,0.00449433,0.0131586,664,1310,-6.20775,-2.18522
-553,-286,-6.20569,2.35449,-0.00574796,0.00636364,-0.00292541,0.00703322,-0.00641754,-1.34579,0.00776851,0.0104879,671,1310,-6.20569,-2.35446
-546,-286,-6.20618,2.5293,-0.00936543,0.0107166,-0.00386283,0.011434,-0.0100828,-1.38717,0.0124309,0.0121865,678,1310,-6.20618,-2.5293
-539,-286,-6.24072,2.70581,-0.0146408,0.0157816,-0.00409845,0.016324,-0.0151833,-1.4392,0.0181947,0.0289359,685,1310,-6.24071,-2.70582
-532,-286,-6.1546,2.47644,0,0,0,0,0,0,0,-1,692,1310,-6.15459,-2.47642
-525,-286,-5.185,1.95007,0,0,0,0,0,0,0,-1,699,1310,-5.18502,-1.95007
-518,-286,-5.2981,-2.79529,0,0,0,0,0,0,0,-1,706,1310,-5.29807,2.79531
-511,-286,-5.6601,-2.56335,-0.0382103,0.0395796,-0.00294382,0.0396908,-0.0383215,-1.53303,0.0450428,0.0459614,713,1310,-5.66007,2.56333
-504,-286,-5.93622,-2.2533,-0.0449305,0.0460581,-0.00140749,0.0460799,-0.0449522,-1.55533,0.0525587,0.0474256,720,1310,-5.93621,2.25325
-497,-286,-6.16425,-1.94153,0,0,0,0,0,0,0,-1,727,1310,-6.16425,1.94152
-490,-286,-7.96649,-0.43396,-0.0577868,0.0574265,0.00361619,0.0575399,-0.0579002,1.53945,0.0666494,0.0459212,734,1310,-7.9665,0.434017
-483,-286,-8.65375,0.100098,-0.062871,0.0608373,0.0073852,0.0612766,-0.0633104,1.51138,0.0719335,0.0431589,741,1310,-8.65372,-0.100093
-476,-286,-9.00226,0.27063,-0.0662371,0.060817,0.011298,0.0618138,-0.0672339,1.48279,0.0745276,0.0389805,748,1310,-9.00225,-0.270579
-469,-286,0,0,0,0,0,0,0,0,0,-1,755,1310,0,0
-462,-286,0,0,0,0,0,0,0,0,0,-1,762,1310,0,0
-455,-286,0,0,0,0,0,0,0,0,0,-1,769,1310,0,0
-448,-286,0,0,0,0,0,0,0,0,0,-1,776,1310,0,0
-441,-286,0,0,0,0,0,0,0,0,0,-1,783,1310,0,0
-434,-286,0,0,0,0,0,0,0,0,0,-1,790,1310,0,0
-427,-286,0,0,0,0,0,0,0,0,0,-1,797,1310,0,0
-420,-286,0,0,0,0,0,0,0,0,0,-1,804,1310,0,0
-413,-286,0,0,0,0,0,0,0,0,0,-1,811,1310,0,0
-406,-286,0,0,0,0,0,0,0,0,0,-1,818,1310,0,0
-399,-286,0,0,0,0,0,0,0,0,0,-1,825,1310,0,0
-392,-286,0,0,0,0,0,0,0,0,0,-1,832,1310,0,0
-385,-286,0,0,0,0,0,0,0,0,0,-1,839,1310,0,0
-378,-286,0,0,0,0,0,0,0,0,0,-1,846,1310,0,0
-371,-286,0,0,0,0,0,0,0,0,0,-1,853,1310,0,0
-364,-286,0,0,0,0,0,0,0,0,0,-1,860,1310,0,0
-357,-286,0,0,0,0,0,0,0,0,0,-1,867,1310,0,0
-350,-286,0,0,0,0,0,0,0,0,0,-1,874,1310,0,0
-343,-286,0,0,0,0,0,0,0,0,0,-1,881,1310,0,0
-336,-286,0,0,0,0,0,0,0,0,0,-1,888,1310,0,0
-329,-286,0,0,0,0,0,0,0,0,0,-1,895,1310,0,0
-322,-286,0,0,0,0,0,0,0,0,0,-1,902,1310,0,0
-315,-286,0,0,0,0,0,0,0,0,0,-1,909,1310,0,0
-308,-286,0,0,0,0,0,0,0,0,0,-1,916,1310,0,0
-301,-286,0,0,0,0,0,0,0,0,0,-1,923,1310,0,0
-294,-286,0,0,0,0,0,0,0,0,0,-1,930,1310,0,0
-287,-286,0,0,0,0,0,0,0,0,0,-1,937,1310,0,0
-280,-286,0,0,0,0,0,0,0,0,0,-1,944,1310,0,0
-273,-286,0,0,0,0,0,0,0,0,0,-1,951,1310,0,0
-266,-286,0,0,0,0,0,0,0,0,0,-1,958,1310,0,0
-259,-286,0,0,0,0,0,0,0,0,0,-1,965,1310,0,0
-252,-286,0,0,0,0,0,0,0,0,0,-1,972,1310,0,0
-245,-286,0,0,0,0,0,0,0,0,0,-1,979,1310,0,0
-238,-286,0,0,0,0,0,0,0,0,0,-1,986,1310,0,0
-231,-286,0,0,0,0,0,0,0,0,0,-1,993,1310,0,0
-224,-286,0,0,0,0,0,0,0,0,0,-1,1000,1310,0,0
-217,-286,0,0,0,0,0,0,0,0,0,-1,1007,1310,0,0
-210,-286,0,0,0,0,0,0,0,0,0,-1,1014,1310,0,0
-203,-286,0,0,0,0,0,0,0,0,0,-1,1021,1310,0,0
-196,-286,0,0,0,0,0,0,0,0,0,-1,1028,1310,0,0
-189,-286,0,0,0,0,0,0,0,0,0,-1,1035,1310,0,0
-182,-286,0,0,0,0,0,0,0,0,0,-1,1042,1310,0,0
-175,-286,0,0,0,0,0,0,0,0,0,-1,1049,1310,0,0
-168,-286,0,0,0,0,0,0,0,0,0,-1,1056,1310,0,0
-161,-286,0,0,0,0,0,0,0,0,0,-1,1063,1310,0,0
-154,-286,0,0,0,0,0,0,0,0,0,-1,1070,1310,0,0
-147,-286,0,0,0,0,0,0,0,0,0,-1,1077,1310,0,0
-140,-286,0,0,0,0,0,0,0,0,0,-1,1084,1310,0,0
-133,-286,0,0,0,0,0,0,0,0,0,-1,1091,1310,0,0
-126,-286,0,0,0,0,0,0,0,0,0,-1,1098,1310,0,0
-119,-286,0,0,0,0,0,0,0,0,0,-1,1105,1310,0,0
-112,-286,0,0,0,0,0,0,0,0,0,-1,1112,1310,0,0
-105,-286,0,0,0,0,0,0,0,0,0,-1,1119,1310,0,0
-98,-286,0,0,0,0,0,0,0,0,0,-1,1126,1310,0,0
-91,-286,0,0,0,0,0,0,0,0,0,-1,1133,1310,0,0
-84,-286,0,0,0,0,0,0,0,0,0,-1,1140,1310,0,0
-77,-286,0,0,0,0,0,0,0,0,0,-1,1147,1310,0,0
-70,-286,0,0,0,0,0,0,0,0,0,-1,1154,1310,0,0
-63,-286,0,0,0,0,0,0,0,0,0,-1,1161,1310,0,0
-56,-286,0,0,0,0,0,0,0,0,0,-1,1168,1310,0,0
-49,-286,0,0,0,0,0,0,0,0,0,-1,1175,1310,0,0
-42,-286,0,0,0,0,0,0,0,0,0,-1,1182,1310,0,0
-35,-286,0,0,0,0,0,0,0,0,0,-1,1189,1310,0,0
-28,-286,0,0,0,0,0,0,0,0,0,-1,1196,1310,0,0
-21,-286,0,0,0,0,0,0,0,0,0,-1,1203,1310,0,0
-14,-286,0,0,0,0,0,0,0,0,0,-1,1210,1310,0,0
-7,-286,0,0,0,0,0,0,0,0,0,-1,1217,1310,0,0
0,-286,0,0,0,0,0,0,0,0,0,-1,1224,1310,0,0
7,-286,0,0,0,0,0,0,0,0,0,-1,1231,1310,0,0
14,-286,0,0,0,0,0,0,0,0,0,-1,1238,1310,0,0
21,-286,0,0,0,0,0,0,0,0,0,-1,1245,1310,0,0
28,-286,0,0,0,0,0,0,0,0,0,-1,1252,1310,0,0
35,-286,0,0,0,0,0,0,0,0,0,-1,1259,1310,0,0
42,-286,0,0,0,0,0,0,0,0,0,-1,1266,1310,0,0
49,-286,0,0,0,0,0,0,0,0,0,-1,1273,1310,0,0
56,-286,0,0,0,0,0,0,0,0,0,-1,1280,1310,0,0
63,-286,0,0,0,0,0,0,0,0,0,-1,1287,1310,0,0
70,-286,0,0,0,0,0,0,0,0,0,-1,1294,1310,0,0
77,-286,0,0,0,0,0,0,0,0,0,-1,1301,1310,0,0
84,-286,0,0,0,0,0,0,0,0,0,-1,1308,1310,0,0
91,-286,0,0,0,0,0,0,0,0,0,-1,1315,1310,0,0
98,-286,0,0,0,0,0,0,0,0,0,-1,1322,1310,0,0
105,-286,0,0,0,0,0,0,0,0,0,-1,1329,1310,0,0
112,-286,0,0,0,0,0,0,0,0,0,-1,1336,1310,0,0
119,-286,0,0,0,0,0,0,0,0,0,-1,1343,1310,0,0
126,-286,0,0,0,0,0,0,0,0,0,-1,1350,1310,0,0
133,-286,0,0,0,0,0,0,0,0,0,-1,1357,1310,0,0
140,-286,0,0,0,0,0,0,0,0,0,-1,1364,1310,0,0
147,-286,0,0,0,0,0,0,0,0,0,-1,1371,1310,0,0
154,-286,0,0,0,0,0,0,0,0,0,-1,1378,1310,0,0
161,-286,0,0,0,0,0,0,0,0,0,-1,1385,1310,0,0
168,-286,0,0,0,0,0,0,0,0,0,-1,1392,1310,0,0
175,-286,0,0,0,0,0,0,0,0,0,-1,1399,1310,0,0
182,-286,0,0,0,0,0,0,0,0,0,-1,1406,1310,0,0
189,-286,0,0,0,0,0,0,0,0,0,-1,1413,1310,0,0
196,-286,0,0,0,0,0,0,0,0,0,-1,1420,1310,0,0
203,-286,0,0,0,0,0,0,0,0,0,-1,1427,1310,0,0
210,-286,0,0,0,0,0,0,0,0,0,-1,1434,1310,0,0
217,-286,0,0,0,0,0,0,0,0,0,-1,1441,1310,0,0
224,-286,0,0,0,0,0,0,0,0,0,-1,1448,1310,0,0
231,-286,0,0,0,0,0,0,0,0,0,-1,1455,1310,0,0
238,-286,0,0,0,0,0,0,0,0,0,-1,1462,1310,0,0
245,-286,0,0,0,0,0,0,0,0,0,-1,1469,1310,0,0
252,-286,0,0,0,0,0,0,0,0,0,-1,1476,1310,0,0
259,-286,0,0,0,0,0,0,0,0,0,-1,1483,1310,0,0
266,-286,0,0,0,0,0,0,0,0,0,-1,1490,1310,0,0
273,-286,0,0,0,0,0,0,0,0,0,-1,1497,1310,0,0
280,-286,0,0,0,0,0,0,0,0,0,-1,1504,1310,0,0
287,-286,0,0,0,0,0,0,0,0,0,-1,1511,1310,0,0
294,-286,0,0,0,0,0,0,0,0,0,-1,1518,1310,0,0
301,-286,0,0,0,0,0,0,0,0,0,-1,1525,1310,0,0
308,-286,0,0,0,0,0,0,0,0,0,-1,1532,1310,0,0
315,-286,0,0,0,0,0,0,0,0,0,-1,1539,1310,0,0
322,-286,0,0,0,0,0,0,0,0,0,-1,1546,1310,0,0
329,-286,0,0,0,0,0,0,0,0,0,-1,1553,1310,0,0
336,-286,0,0,0,0,0,0,0,0,0,-1,1560,1310,0,0
343,-286,0,0,0,0,0,0,0,0,0,-1,1567,1310,0,0
350,-286,0,0,0,0,0,0,0,0,0,-1,1574,1310,0,0
357,-286,0,0,0,0,0,0,0,0,0,-1,1581,1310,0,0
364,-286,0,0,0,0,0,0,0,0,0,-1,1588,1310,0,0
371,-286,0,0,0,0,0,0,0,0,0,-1,1595,1310,0,0
378,-286,0,0,0,0,0,0,0,0,0,-1,1602,1310,0,0
385,-286,0,0,0,0,0,0,0,0,0,-1,1609,1310,0,0
392,-286,0,0,0,0,0,0,0,0,0,-1,1616,1310,0,0
399,-286,0,0,0,0,0,0,0,0,0,-1,1623,1310,0,0
406,-286,0,0,0,0,0,0,0,0,0,-1,1630,1310,0,0
413,-286,0,0,0,0,0,0,0,0,0,-1,1637,1310,0,0
420,-286,0,0,0,0,0,0,0,0,0,-1,1644,1310,0,0
427,-286,0,0,0,0,0,0,0,0,0,-1,1651,1310,0,0
434,-286,0,0,0,0,0,0,0,0,0,-1,1658,1310,0,0
441,-286,0,0,0,0,0,0,0,0,0,-1,1665,1310,0,0
448,-286,0,0,0,0,0,0,0,0,0,-1,1672,1310,0,0
455,-286,0,0,0,0,0,0,0,0,0,-1,1679,1310,0,0
462,-286,0,0,0,0,0,0,0,0,0,-1,1686,1310,0,0
469,-286,0,0,0,0,0,0,0,0,0,-1,1693,1310,0,0
476,-286,0,0,0,0,0,0,0,0,0,-1,1700,1310,0,0
483,-286,0,0,0,0,0,0,0,0,0,-1,1707,1310,0,0
490,-286,0,0,0,0,0,0,0,0,0,-1,1714,1310,0,0
497,-286,0,0,0,0,0,0,0,0,0,-1,1721,1310,0,0
504,-286,0,0,0,0,0,0,0,0,0,-1,1728,1310,0,0
511,-286,0,0,0,0,0,0,0,0,0,-1,1735,1310,0,0
518,-286,0,0,0,0,0,0,0,0,0,-1,1742,1310,0,0
525,-286,0,0,0,0,0,0,0,0,0,-1,1749,1310,0,0
532,-286,0,0,0,0,0,0,0,0,0,-1,1756,1310,0,0
539,-286,0,0,0,0,0,0,0,0,0,-1,1763,1310,0,0
546,-286,0,0,0,0,0,0,0,0,0,-1,1770,1310,0,0
553,-286,0,0,0,0,0,0,0,0,0,-1,1777,1310,0,0
560,-286,0,0,0,0,0,0,0,0,0,-1,1784,1310,0,0
567,-286,0,0,0,0,0,0,0,0,0,-1,1791,1310,0,0
574,-286,0,0,0,0,0,0,0,0,0,-1,1798,1310,0,0
581,-286,0,0,0,0,0,0,0,0,0,-1,1805,1310,0,0
588,-286,0,0,0,0,0,0,0,0,0,-1,1812,1310,0,0
595,-286,16.1892,2.43018,0,0,0,0,0,0,0,-1,1819,1310,16.1893,-2.43013
602,-286,15.8636,2.04199,0.00558551,0.0151229,0.00319785,0.0160958,0.00461254,1.27544,0.009571,0.0471918,1826,1310,15.8636,-2.04193
609,-286,15.5654,1.44885,-0.00368631,0.0228617,0.00984926,0.0261167,-0.00694129,1.25162,0.0201279,0.045686,1833,1310,15.5654,-1.44884
616,-286,15.55,1.39856,-0.00886651,0.0262112,0.0144976,0.0314273,-0.0140827,1.22542,0.0269038,0.0446848,1840,1310,15.55,-1.39862
623,-286,15.5931,1.36987,-0.0113747,0.02659,0.0170061,0.0330937,-0.0178783,1.20553,0.0298625,0.0467469,1847,1310,15.5931,-1.36988
630,-286,15.6819,1.59485,-0.0123936,0.0253679,0.0179366,0.0325295,-0.0195552,1.19092,0.0303805,0.0428709,1854,1310,15.6819,-1.59486
637,-286,15.8114,1.7605,-0.014391,0.0234963,0.0171032,0.0300748,-0.0209695,1.2036,0.0296263,0.0420043,1861,1310,15.8114,-1.76055
644,-286,15.4658,2.35022,-0.0129127,0.020188,0.01609,0.0267202,-0.0194448,1.18515,0.0267635,0.0403831,1868,1310,15.4658,-2.35017
651,-286,15.207,2.79578,0,0,0,0,0,0,0,-1,1875,1310,15.2071,-2.7958
658,-286,13.2649,4.88562,0,0,0,0,0,0,0,-1,1882,1310,13.2649,-4.88564
665,-286,13.1879,4.67639,-0.0084812,0.0102369,0.012025,0.0161157,-0.01436,1.11608,0.0176049,0.0442805,1889,1310,13.1879,-4.67636
672,-286,13.0453,4.46167,-0.00769023,0.00714165,0.00981494,0.0120273,-0.0125759,1.10893,0.0142058,0.026261,1896,1310,13.0453,-4.46169
679,-286,12.9108,4.36731,-0.00667819,0.00432997,0.00748918,0.00812012,-0.0104683,1.10229,0.0107606,0.020897,1903,1310,12.9108,-4.36728
686,-286,12.9252,4.22351,-0.00540687,0.00171675,0.0050742,0.00435445,-0.00804457,1.09141,0.00726349,0.0202329,1910,1310,12.9251,-4.22357
693,-286,12.9266,4.08948,-0.00331435,-8.52658e-05,0.00291833,0.00163537,-0.00503499,1.03806,0.0040144,0.015289,1917,1310,12.9266,-4.08953
700,-286,12.9219,3.93884,0.000314211,-0.000986422,0.000508022,0.00048912,-0.00116133,0.331583,0.000978879,0.0109558,1924,1310,12.9219,-3.9389
707,-286,12.9237,3.82471,0.00501542,-0.000242061,-0.00160128,0.00546473,-0.000691369,-0.273558,0.00389412,0.00872374,1931,1310,12.9237,-3.82476
714,-286,12.9098,3.69214,0.0105564,0.00134605,-0.00390818,0.0119912,-8.87606e-05,-0.351854,0.00802391,0.00856157,1938,1310,12.9098,-3.69212
721,-286,12.9174,3.53833,0.0167193,0.00309186,-0.0065491,0.0193564,0.000454786,-0.382799,0.0127554,0.0111437,1945,1310,12.9174,-3.53832
728,-286,12.9346,3.41406,0.0242807,0.00506499,-0.00980793,0.0284026,0.000943081,-0.397851,0.0186287,0.0143515,1952,1310,12.9346,-3.41407
735,-286,12.9318,3.30872,0.0334654,0.00758569,-0.0138449,0.039476,0.00157501,-0.409589,0.0258084,0.0150927,1959,1310,12.9318,-3.30869
742,-286,12.9215,3.12183,0.0449224,0.0110415,-0.0188402,0.0533184,0.00264555,-0.419221,0.0346974,0.0238443,1966,1310,12.9215,-3.12189
749,-286,13.3035,2.41614,0.0587609,0.0156625,-0.0249245,0.0701601,0.00426327,-0.428949,0.0454191,0.0383777,1973,1310,13.3035,-2.41618
756,-286,14.8671,1.57202,0.0748806,0.0217312,-0.0320502,0.0899404,0.00667138,-0.439263,0.0578648,0.0443393,1980,1310,14.8671,-1.57198
763,-286,15.4111,1.34656,0.092766,0.0295202,-0.0400005,0.112134,0.0101524,-0.450918,0.071612,0.0443433,1987,1310,15.4112,-1.3465
770,-286,15.7546,1.33081,0,0,0,0,0,0,0,-1,1994,1310,15.7546,-1.33081
777,-286,0,0,0,0,0,0,0,0,0,-1,2001,1310,0,0
784,-286,0,0,0,0,0,0,0,0,0,-1,2008,1310,0,0
791,-286,0,0,0,0,0,0,0,0,0,-1,2015,1310,0,0
798,-286,0,0,0,0,0,0,0,0,0,-1,2022,1310,0,0
805,-286,0,0,0,0,0,0,0,0,0,-1,2029,1310,0,0
812,-286,0,0,0,0,0,0,0,0,0,-1,2036,1310,0,0
-700,-293,0,0,0,0,0,0,0,0,0,-1,524,1317,0,0
-693,-293,0,0,0,0,0,0,0,0,0,-1,531,1317,0,0
-686,-293,0,0,0,0,0,0,0,0,0,-1,538,1317,0,0
-679,-293,0,0,0,0,0,0,0,0,0,-1,545,1317,0,0
-672,-293,0,0,0,0,0,0,0,0,0,-1,552,1317,0,0
-665,-293,0,0,0,0,0,0,0,0,0,-1,559,1317,0,0
-658,-293,0,0,0,0,0,0,0,0,0,-1,566,1317,0,0
-651,-293,-3.99994,-1.22852,0.0284097,0.206602,0.0122927,0.207446,0.0275657,1.50224,0.130086,0.0473815,573,1317,-3.99994,1.22853
-644,-293,-6.46301,-2.06104,0.0214684,0.169272,0.011522,0.170164,0.0205756,1.49346,0.107244,0.0444215,580,1317,-6.46301,2.06103
-637,-293,-6.34424,-1.48535,0.0157314,0.137118,0.0109332,0.138095,0.0147545,1.48168,0.0875606,0.0440622,587,1317,-6.34424,1.48534
-630,-293,-6.11304,-0.734985,0.0111794,0.109618,0.010304,0.110685,0.0101124,1.46761,0.0706607,0.0429115,594,1317,-6.11301,0.735009
-623,-293,-6.0293,-0.488403,0.0076534,0.0862135,0.00952544,0.087352,0.00651493,1.45184,0.0561891,0.040552,601,1317,-6.02927,0.488425
-616,-293,-6.06854,0.0891113,0.00499137,0.0664533,0.00857915,0.0676283,0.00381631,1.43468,0.0438688,0.0411197,608,1317,-6.06854,-0.0891453
-609,-293,-6.02594,0.687378,0.00322525,0.0496362,0.00773046,0.05089,0.0019715,1.41001,0.033289,0.0381316,615,1317,-6.02597,-0.687376
-602,-293,-6.03131,1.18335,0.000738789,0.0347455,0.00563932,0.0356563,-0.000171984,1.41068,0.0238284,0.0259718,622,1317,-6.03131,-1.18331
-595,-293,-6.06366,1.39282,0.000124501,0.0239443,0.00528303,0.0250635,-0.000994648,1.36204,0.0170502,0.0141247,629,1317,-6.06367,-1.39284
-588,-293,-6.03931,1.53259,-0.000516227,0.0152788,0.00416971,0.016312,-0.0015494,1.32791,0.0114262,0.0150403,636,1317,-6.03931,-1.53263
-581,-293,-6.04974,1.69604,-0.00108948,0.00882036,0.0031625,0.00974359,-0.00201271,1.28676,0.00726023,0.0168429,643,1317,-6.04974,-1.69601
-574,-293,-6.04767,1.86731,-0.0013661,0.00477613,0.00174859,0.00523904,-0.001829,1.312,0.00423609,0.0148147,650,1317,-6.04764,-1.86733
-567,-293,-6.04108,2.03979,-0.00195942,0.00301803,0.000179619,0.0030245,-0.00196589,1.53477,0.00290273,0.0145553,657,1317,-6.04111,-2.03976
-560,-293,-6.04974,2.19751,-0.00316953,0.00297386,-0.00127473,0.00322786,-0.00342353,-1.37411,0.00384073,0.0154901,664,1317,-6.04972,-2.1975
-553,-293,-6.03381,2.35706,-0.00524605,0.00492511,-0.00264928,0.0055738,-0.00589474,-1.33067,0.00662223,0.0113986,671,1317,-6.03379,-2.35701
-546,-293,-6.03113,2.53992,-0.00864943,0.0088493,-0.00358211,0.00955419,-0.00935432,-1.3765,0.010917,0.0102957,678,1317,-6.03115,-2.53991
-539,-293,-6.03003,2.69751,-0.0137529,0.0136552,-0.00375122,0.0141594,-0.014257,-1.4372,0.0164062,0.0213444,685,1317,-6.03005,-2.69747
-532,-293,-6.04681,2.62183,-0.0192104,0.0188744,-0.00406562,0.0193036,-0.0196395,-1.46562,0.0224841,0.0423807,692,1317,-6.04679,-2.62184
-525,-293,-6.12354,2.97791,0,0,0,0,0,0,0,-1,699,1317,-6.12352,-2.97786
-518,-293,-4.49023,-2.95435,0,0,0,0,0,0,0,-1,706,1317,-4.49023,2.95435
-511,-293,-5.23322,-3.08215,0,0,0,0,0,0,0,-1,713,1317,-5.23319,3.08212
-504,-293,-5.50079,-3.05566,0,0,0,0,0,0,0,-1,720,1317,-5.50079,3.0557
-497,-293,-6.71094,-1.13196,-0.0511299,0.0517044,0.00207026,0.051746,-0.0511716,1.55068,0.0594198,0.0435248,727,1317,-6.71096,1.1319
-490,-293,-7.52026,-0.534302,-0.0578387,0.0586014,0.00502626,0.058818,-0.0580552,1.52774,0.0674772,0.0448212,734,1317,-7.52027,0.5343
-483,-293,-8.45532,0.00183105,-0.0639633,0.0648726,0.00876761,0.0654665,-0.0645572,1.50316,0.0750698,0.0466274,741,1317,-8.45534,-0.00185173
-476,-293,-8.67358,0.076416,-0.0690624,0.0694658,0.0128905,0.0706551,-0.0702517,1.4788,0.0813527,0.0470753,748,1317,-8.6736,-0.0763665
-469,-293,0,0,0,0,0,0,0,0,0,-1,755,1317,0,0
-462,-293,0,0,0,0,0,0,0,0,0,-1,762,1317,0,0
-455,-293,0,0,0,0,0,0,0,0,0,-1,769,1317,0,0
-448,-293,0,0,0,0,0,0,0,0,0,-1,776,1317,0,0
-441,-293,0,0,0,0,0,0,0,0,0,-1,783,1317,0,0
-434,-293,0,0,0,0,0,0,0,0,0,-1,790,1317,0,0
-427,-293,0,0,0,0,0,0,0,0,0,-1,797,1317,0,0
-420,-293,0,0,0,0,0,0,0,0,0,-1,804,1317,0,0
-413,-293,0,0,0,0,0,0,0,0,0,-1,811,1317,0,0
-406,-293,0,0,0,0,0,0,0,0,0,-1,818,1317,0,0
-399,-293,0,0,0,0,0,0,0,0,0,-1,825,1317,0,0
-392,-293,0,0,0,0,0,0,0,0,0,-1,832,1317,0,0
-385,-293,0,0,0,0,0,0,0,0,0,-1,839,1317,0,0
-378,-293,0,0,0,0,0,0,0,0,0,-1,846,1317,0,0
-371,-293,0,0,0,0,0,0,0,0,0,-1,853,1317,0,0
-364,-293,0,0,0,0,0,0,0,0,0,-1,860,1317,0,0
-357,-293,0,0,0,0,0,0,0,0,0,-1,867,1317,0,0
-350,-293,0,0,0,0,0,0,0,0,0,-1,874,1317,0,0
-343,-293,0,0,0,0,0,0,0,0,0,-1,881,1317,0,0
-336,-293,0,0,0,0,0,0,0,0,0,-1,888,1317,0,0
-329,-293,0,0,0,0,0,0,0,0,0,-1,895,1317,0,0
-322,-293,0,0,0,0,0,0,0,0,0,-1,902,1317,0,0
-315,-293,0,0,0,0,0,0,0,0,0,-1,909,1317,0,0
-308,-293,0,0,0,0,0,0,0,0,0,-1,916,1317,0,0
-301,-293,0,0,0,0,0,0,0,0,0,-1,923,1317,0,0
-294,-293,0,0,0,0,0,0,0,0,0,-1,930,1317,0,0
-287,-293,0,0,0,0,0,0,0,0,0,-1,937,1317,0,0
-280,-293,0,0,0,0,0,0,0,0,0,-1,944,1317,0,0
-273,-293,0,0,0,0,0,0,0,0,0,-1,951,1317,0,0
-266,-293,0,0,0,0,0,0,0,0,0,-1,958,1317,0,0
-259,-293,0,0,0,0,0,0,0,0,0,-1,965,1317,0,0
-252,-293,0,0,0,0,0,0,0,0,0,-1,972,1317,0,0
-245,-293,0,0,0,0,0,0,0,0,0,-1,979,1317,0,0
-238,-293,0,0,0,0,0,0,0,0,0,-1,986,1317,0,0
-231,-293,0,0,0,0,0,0,0,0,0,-1,993,1317,0,0
-224,-293,0,0,0,0,0,0,0,0,0,-1,1000,1317,0,0
-217,-293,0,0,0,0,0,0,0,0,0,-1,1007,1317,0,0
-210,-293,0,0,0,0,0,0,0,0,0,-1,1014,1317,0,0
-203,-293,0,0,0,0,0,0,0,0,0,-1,1021,1317,0,0
-196,-293,0,0,0,0,0,0,0,0,0,-1,1028,1317,0,0
-189,-293,0,0,0,0,0,0,0,0,0,-1,1035,1317,0,0
-182,-293,0,0,0,0,0,0,0,0,0,-1,1042,1317,0,0
-175,-293,0,0,0,0,0,0,0,0,0,-1,1049,1317,0,0
-168,-293,0,0,0,0,0,0,0,0,0,-1,1056,1317,0,0
-161,-293,0,0,0,0,0,0,0,0,0,-1,1063,1317,0,0
-154,-293,0,0,0,0,0,0,0,0,0,-1,1070,1317,0,0
-147,-293,0,0,0,0,0,0,0,0,0,-1,1077,1317,0,0
-140,-293,0,0,0,0,0,0,0,0,0,-1,1084,1317,0,0
-133,-293,0,0,0,0,0,0,0,0,0,-1,1091,1317,0,0
-126,-293,0,0,0,0,0,0,0,0,0,-1,1098,1317,0,0
-119,-293,0,0,0,0,0,0,0,0,0,-1,1105,1317,0,0
-112,-293,0,0,0,0,0,0,0,0,0,-1,1112,1317,0,0
-105,-293,0,0,0,0,0,0,0,0,0,-1,1119,1317,0,0
-98,-293,0,0,0,0,0,0,0,0,0,-1,1126,1317,0,0
-91,-293,0,0,0,0,0,0,0,0,0,-1,1133,1317,0,0
-84,-293,0,0,0,0,0,0,0,0,0,-1,1140,1317,0,0
-77,-293,0,0,0,0,0,0,0,0,0,-1,1147,1317,0,0
-70,-293,0,0,0,0,0,0,0,0,0,-1,1154,1317,0,0
-63,-293,0,0,0,0,0,0,0,0,0,-1,1161,1317,0,0
-56,-293,0,0,0,0,0,0,0,0,0,-1,1168,1317,0,0
-49,-293,0,0,0,0,0,0,0,0,0,-1,1175,1317,0,0
-42,-293,0,0,0,0,0,0,0,0,0,-1,1182,1317,0,0
-35,-293,0,0,0,0,0,0,0,0,0,-1,1189,1317,0,0
-28,-293,0,0,0,0,0,0,0,0,0,-1,1196,1317,0,0
-21,-293,0,0,0,0,0,0,0,0,0,-1,1203,1317,0,0
-14,-293,0,0,0,0,0,0,0,0,0,-1,1210,1317,0,0
-7,-293,0,0,0,0,0,0,0,0,0,-1,1217,1317,0,0
0,-293,0,0,0,0,0,0,0,0,0,-1,1224,1317,0,0
7,-293,0,0,0,0,0,0,0,0,0,-1,1231,1317,0,0
14,-293,0,0,0,0,0,0,0,0,0,-1,1238,1317,0,0
21,-293,0,0,0,0,0,0,0,0,0,-1,1245,1317,0,0
28,-293,0,0,0,0,0,0,0,0,0,-1,1252,1317,0,0
35,-293,0,0,0,0,0,0,0,0,0,-1,1259,1317,0,0
42,-293,0,0,0,0,0,0,0,0,0,-1,1266,1317,0,0
49,-293,0,0,0,0,0,0,0,0,0,-1,1273,1317,0,0
56,-293,0,0,0,0,0,0,0,0,0,-1,1280,1317,0,0
63,-293,0,0,0,0,0,0,0,0,0,-1,1287,1317,0,0
70,-293,0,0,0,0,0,0,0,0,0,-1,1294,1317,0,0
77,-293,0,0,0,0,0,0,0,0,0,-1,1301,1317,0,0
84,-293,0,0,0,0,0,0,0,0,0,-1,1308,1317,0,0
91,-293,0,0,0,0,0,0,0,0,0,-1,1315,1317,0,0
98,-293,0,0,0,0,0,0,0,0,0,-1,1322,1317,0,0
105,-293,0,0,0,0,0,0,0,0,0,-1,1329,1317,0,0
112,-293,0,0,0,0,0,0,0,0,0,-1,1336,1317,0,0
119,-293,0,0,0,0,0,0,0,0,0,-1,1343,1317,0,0
126,-293,0,0,0,0,0,0,0,0,0,-1,1350,1317,0,0
133,-293,0,0,0,0,0,0,0,0,0,-1,1357,1317,0,0
140,-293,0,0,0,0,0,0,0,0,0,-1,1364,1317,0,0
147,-293,0,0,0,0,0,0,0,0,0,-1,1371,1317,0,0
154,-293,0,0,0,0,0,0,0,0,0,-1,1378,1317,0,0
161,-293,0,0,0,0,0,0,0,0,0,-1,1385,1317,0,0
168,-293,0,0,0,0,0,0,0,0,0,-1,1392,1317,0,0
175,-293,0,0,0,0,0,0,0,0,0,-1,1399,1317,0,0
182,-293,0,0,0,0,0,0,0,0,0,-1,1406,1317,0,0
189,-293,0,0,0,0,0,0,0,0,0,-1,1413,1317,0,0
196,-293,0,0,0,0,0,0,0,0,0,-1,1420,1317,0,0
203,-293,0,0,0,0,0,0,0,0,0,-1,1427,1317,0,0
210,-293,0,0,0,0,0,0,0,0,0,-1,1434,1317,0,0
217,-293,0,0,0,0,0,0,0,0,0,-1,1441,1317,0,0
224,-293,0,0,0,0,0,0,0,0,0,-1,1448,1317,0,0
231,-293,0,0,0,0,0,0,0,0,0,-1,1455,1317,0,0
238,-293,0,0,0,0,0,0,0,0,0,-1,1462,1317,0,0
245,-293,0,0,0,0,0,0,0,0,0,-1,1469,1317,0,0
252,-293,0,0,0,0,0,0,0,0,0,-1,1476,1317,0,0
259,-293,0,0,0,0,0,0,0,0,0,-1,1483,1317,0,0
266,-293,0,0,0,0,0,0,0,0,0,-1,1490,1317,0,0
273,-293,0,0,0,0,0,0,0,0,0,-1,1497,1317,0,0
280,-293,0,0,0,0,0,0,0,0,0,-1,1504,1317,0,0
287,-293,0,0,0,0,0,0,0,0,0,-1,1511,1317,0,0
294,-293,0,0,0,0,0,0,0,0,0,-1,1518,1317,0,0
301,-293,0,0,0,0,0,0,0,0,0,-1,1525,1317,0,0
308,-293,0,0,0,0,0,0,0,0,0,-1,1532,1317,0,0
315,-293,0,0,0,0,0,0,0,0,0,-1,1539,1317,0,0
322,-293,0,0,0,0,0,0,0,0,0,-1,1546,1317,0,0
329,-293,0,0,0,0,0,0,0,0,0,-1,1553,1317,0,0
336,-293,0,0,0,0,0,0,0,0,0,-1,1560,1317,0,0
343,-293,0,0,0,0,0,0,0,0,0,-1,1567,1317,0,0
350,-293,0,0,0,0,0,0,0,0,0,-1,1574,1317,0,0
357,-293,0,0,0,0,0,0,0,0,0,-1,1581,1317,0,0
364,-293,0,0,0,0,0,0,0,0,0,-1,1588,1317,0,0
371,-293,0,0,0,0,0,0,0,0,0,-1,1595,1317,0,0
378,-293,0,0,0,0,0,0,0,0,0,-1,1602,1317,0,0
385,-293,0,0,0,0,0,0,0,0,0,-1,1609,1317,0,0
392,-293,0,0,0,0,0,0,0,0,0,-1,1616,1317,0,0
399,-293,0,0,0,0,0,0,0,0,0,-1,1623,1317,0,0
406,-293,0,0,0,0,0,0,0,0,0,-1,1630,1317,0,0
413,-293,0,0,0,0,0,0,0,0,0,-1,1637,1317,0,0
420,-293,0,0,0,0,0,0,0,0,0,-1,1644,1317,0,0
427,-293,0,0,0,0,0,0,0,0,0,-1,1651,1317,0,0
434,-293,0,0,0,0,0,0,0,0,0,-1,1658,1317,0,0
441,-293,0,0,0,0,0,0,0,0,0,-1,1665,1317,0,0
448,-293,0,0,0,0,0,0,0,0,0,-1,1672,1317,0,0
455,-293,0,0,0,0,0,0,0,0,0,-1,1679,1317,0,0
462,-293,0,0,0,0,0,0,0,0,0,-1,1686,1317,0,0
469,-293,0,0,0,0,0,0,0,0,0,-1,1693,1317,0,0
476,-293,0,0,0,0,0,0,0,0,0,-1,1700,1317,0,0
483,-293,0,0,0,0,0,0,0,0,0,-1,1707,1317,0,0
490,-293,0,0,0,0,0,0,0,0,0,-1,1714,1317,0,0
497,-293,0,0,0,0,0,0,0,0,0,-1,1721,1317,0,0
504,-293,0,0,0,0,0,0,0,0,0,-1,1728,1317,0,0
511,-293,0,0,0,0,0,0,0,0,0,-1,1735,1317,0,0
518,-293,0,0,0,0,0,0,0,0,0,-1,1742,1317,0,0
525,-293,0,0,0,0,0,0,0,0,0,-1,1749,1317,0,0
532,-293,0,0,0,0,0,0,0,0,0,-1,1756,1317,0,0
539,-293,0,0,0,0,0,0,0,0,0,-1,1763,1317,0,0
546,-293,0,0,0,0,0,0,0,0,0,-1,1770,1317,0,0
553,-293,0,0,0,0,0,0,0,0,0,-1,1777,1317,0,0
560,-293,0,0,0,0,0,0,0,0,0,-1,1784,1317,0,0
567,-293,0,0,0,0,0,0,0,0,0,-1,1791,1317,0,0
574,-293,0,0,0,0,0,0,0,0,0,-1,1798,1317,0,0
581,-293,0,0,0,0,0,0,0,0,0,-1,1805,1317,0,0
588,-293,0,0,0,0,0,0,0,0,0,-1,1812,1317,0,0
595,-293,16.5555,2.64417,0,0,0,0,0,0,0,-1,1819,1317,16.5555,-2.64414
602,-293,15.8319,2.15491,0,0,0,0,0,0,0,-1,1826,1317,15.8319,-2.15492
609,-293,15.3606,1.04358,0,0,0,0,0,0,0,-1,1833,1317,15.3606,-1.04353
616,-293,15.2546,1.12256,0,0,0,0,0,0,0,-1,1840,1317,15.2547,-1.12258
623,-293,15.307,0.98291,-0.0119887,0.021595,0.0202668,0.0311225,-0.0215162,1.13135,0.0305592,0.0489581,1847,1317,15.307,-0.98296
630,-293,15.4562,1.20935,-0.0129954,0.0216668,0.020645,0.0312909,-0.0226195,1.13458,0.0312591,0.0473146,1854,1317,15.4561,-1.2094
637,-293,15.4841,1.68494,-0.0156084,0.02103,0.01928,0.0293061,-0.0238845,1.16532,0.0307628,0.0474686,1861,1317,15.4842,-1.68495
644,-293,15.1886,2.23083,-0.0137979,0.0184034,0.0179627,0.0264251,-0.0218196,1.15079,0.0278964,0.0471886,1868,1317,15.1886,-2.23079
651,-293,13.4863,4.16504,0,0,0,0,0,0,0,-1,1875,1317,13.4864,-4.165
658,-293,13.177,4.44824,-0.00995901,0.0121109,0.0151947,0.0198549,-0.017703,1.09946,0.0216959,0.0405464,1882,1317,13.177,-4.44829
665,-293,12.9543,4.56409,-0.00825173,0.00898754,0.0131258,0.0160709,-0.0153351,1.07593,0.0181339,0.0318281,1889,1317,12.9543,-4.56404
672,-293,12.8007,4.49768,-0.0072767,0.00594511,0.0103853,0.0116451,-0.0129767,1.06883,0.0142224,0.0150397,1896,1317,12.8007,-4.4977
679,-293,12.7843,4.36658,-0.00616838,0.00330906,0.00769103,0.00760402,-0.0104633,1.0615,0.0104746,0.0115472,1903,1317,12.7842,-4.36659
686,-293,12.8191,4.24036,-0.00474566,0.00108999,0.00505561,0.00400936,-0.00766504,1.04712,0.00684948,0.014246,1910,1317,12.8191,-4.24041
693,-293,12.8119,4.09216,-0.00252905,-0.00030841,0.00277608,0.00157116,-0.00440862,0.975634,0.00357964,0.0115542,1917,1317,12.8119,-4.09221
700,-293,12.7766,3.92273,0.00129346,-0.000993915,0.00032628,0.00133909,-0.00103955,0.138953,0.00137693,0.0108224,1924,1317,12.7766,-3.92276
707,-293,12.7882,3.80481,0.0063811,-0.000215444,-0.00196376,0.00692144,-0.000755784,-0.268511,0.00488575,0.0114318,1931,1317,12.7882,-3.80479
714,-293,12.7853,3.69128,0.0122581,0.00121456,-0.00423018,0.0136922,-0.000219554,-0.32686,0.00920221,0.00777938,1938,1317,12.7852,-3.69124
721,-293,12.7903,3.53821,0.0189582,0.00272063,-0.00687364,0.0214772,0.000201673,-0.351268,0.0142514,0.00884368,1945,1317,12.7903,-3.53823
728,-293,12.7936,3.39514,0.0274244,0.00448997,-0.0101762,0.0312886,0.000625797,-0.362909,0.0206536,0.0113218,1952,1317,12.7936,-3.39518
735,-293,12.7831,3.2533,0.0379952,0.00681245,-0.0143256,0.0435772,0.0012304,-0.371557,0.0286502,0.014504,1959,1317,12.7831,-3.25329
742,-293,12.7826,3.04712,0.0514353,0.010113,-0.0195073,0.0591893,0.00235905,-0.37834,0.0386971,0.0240267,1966,1317,12.7825,-3.04708
749,-293,12.8688,2.72754,0.0679786,0.0146723,-0.0258296,0.0784409,0.00421002,-0.384854,0.0509486,0.0365278,1973,1317,12.8688,-2.72752
756,-293,15.3595,1.27527,0.0876557,0.0208625,-0.0332134,0.10136,0.00715853,-0.391324,0.0653178,0.0443041,1980,1317,15.3595,-1.27521
763,-293,13.6636,2.94519,0,0,0,0,0,0,0,-1,1987,1317,13.6636,-2.94518
770,-293,14.7877,3.98975,0,0,0,0,0,0,0,-1,1994,1317,14.7877,-3.98974
777,-293,0,0,0,0,0,0,0,0,0,-1,2001,1317,0,0
784,-293,0,0,0,0,0,0,0,0,0,-1,2008,1317,0,0
791,-293,0,0,0,0,0,0,0,0,0,-1,2015,1317,0,0
798,-293,0,0,0,0,0,0,0,0,0,-1,2022,1317,0,0
805,-293,0,0,0,0,0,0,0,0,0,-1,2029,1317,0,0
812,-293,0,0,0,0,0,0,0,0,0,-1,2036,1317,0,0
-700,-300,0,0,0,0,0,0,0,0,0,-1,524,1324,0,0
-693,-300,0,0,0,0,0,0,0,0,0,-1,531,1324,0,0
-686,-300,0,0,0,0,0,0,0,0,0,-1,538,1324,0,0
-679,-300,0,0,0,0,0,0,0,0,0,-1,545,1324,0,0
-672,-300,0,0,0,0,0,0,0,0,0,-1,552,1324,0,0
-665,-300,0,0,0,0,0,0,0,0,0,-1,559,1324,0,0
-658,-300,0,0,0,0,0,0,0,0,0,-1,566,1324,0,0
-651,-300,-3.71533,-2.28235,0,0,0,0,0,0,0,-1,573,1324,-3.71532,2.28241
-644,-300,-4.53296,-1.25073,0,0,0,0,0,0,0,-1,580,1324,-4.53297,1.25072
-637,-300,-6.00513,-0.457031,0.00545414,0.15392,0.0129452,0.15504,0.00433386,1.48447,0.101946,0.0459524,587,1324,-6.00511,0.456973
-630,-300,-5.85126,-0.776855,0.00271673,0.124455,0.0122197,0.125669,0.00150227,1.47174,0.0832831,0.0462275,594,1324,-5.85126,0.776807
-623,-300,-5.78711,-0.514893,0.000985229,0.0988062,0.0112408,0.100081,-0.000289846,1.45785,0.0668176,0.0427959,601,1324,-5.78713,0.514884
-616,-300,-5.92731,0.203613,-7.10942e-05,0.076704,0.0100419,0.0779957,-0.0013628,1.44287,0.0524573,0.0426271,608,1324,-5.92732,-0.203639
-609,-300,-5.89301,0.939575,-0.000582298,0.057709,0.00885479,0.0590244,-0.00189771,1.42332,0.0399972,0.041378,615,1324,-5.89299,-0.939629
-602,-300,-5.80261,1.17871,-0.00217379,0.0409294,0.00651261,0.0418919,-0.00313631,1.42407,0.0290299,0.031073,622,1324,-5.80262,-1.1787
-595,-300,-5.88568,1.37805,-0.00181903,0.0286062,0.00584062,0.0296888,-0.00290171,1.38751,0.0208273,0.0170412,629,1324,-5.88571,-1.37809
-588,-300,-5.86969,1.54187,-0.00161236,0.0183349,0.0045234,0.0193127,-0.00259019,1.3579,0.0138197,0.0192832,636,1324,-5.86968,-1.54187
-581,-300,-5.87054,1.72192,-0.00179017,0.0107903,0.00343577,0.0116675,-0.00266733,1.32083,0.00880318,0.0191712,643,1324,-5.87057,-1.72188
-574,-300,-5.86267,1.89404,-0.00174319,0.00575404,0.00195717,0.00623421,-0.00222336,1.33021,0.0050627,0.0145413,650,1324,-5.86269,-1.89403
-567,-300,-5.87231,2.05359,-0.0019736,0.00305199,0.000397992,0.00308331,-0.00200492,1.49226,0.0029596,0.0146359,657,1324,-5.8723,-2.05359
-560,-300,-5.89105,2.21265,-0.00285733,0.00216007,-0.00102767,0.0023624,-0.00305965,-1.3764,0.00313904,0.0142665,664,1324,-5.89103,-2.2126
-553,-300,-5.87805,2.36792,-0.00459105,0.00329586,-0.00236388,0.0039501,-0.00524529,-1.30079,0.00532648,0.0106044,671,1324,-5.87804,-2.36788
-546,-300,-5.87231,2.53467,-0.00753656,0.00650201,-0.00326418,0.00722386,-0.00825841,-1.35316,0.00894534,0.00875811,678,1324,-5.8723,-2.53465
-539,-300,-5.86121,2.71399,-0.0121073,0.0107477,-0.00341996,0.0112485,-0.0126081,-1.4254,0.0137811,0.0126917,685,1324,-5.86121,-2.71394
-532,-300,-6.00732,2.75537,-0.0172075,0.0155812,-0.00371981,0.0159979,-0.0176242,-1.45924,0.0194193,0.0288307,692,1324,-6.00735,-2.75539
-525,-300,-6.08862,2.91467,-0.0224738,0.0209009,-0.00364189,0.0212045,-0.0227774,-1.48761,0.0253984,0.0455162,699,1324,-6.08859,-2.91464
-518,-300,-6.27246,2.98755,0,0,0,0,0,0,0,-1,706,1324,-6.27246,-2.98758
-511,-300,-4.91254,-3.72827,0,0,0,0,0,0,0,-1,713,1324,-4.91255,3.72832
-504,-300,-5.64154,-2.47388,0,0,0,0,0,0,0,-1,720,1324,-5.64154,2.4739
-497,-300,-6.41711,-1.83569,-0.048774,0.0493936,0.002966,0.0494832,-0.0488635,1.54062,0.0567808,0.0436572,727,1324,-6.41713,1.83575
-490,-300,-7.17072,-0.934326,-0.0559365,0.0574862,0.00599104,0.0578017,-0.056252,1.51817,0.065851,0.0439273,734,1324,-7.1707,0.934269
-483,-300,-7.95502,-0.750366,-0.0631143,0.0658424,0.00982361,0.0665864,-0.0638584,1.4952,0.0753178,0.0435417,741,1324,-7.95504,0.750322
-476,-300,-8.20374,-0.228271,-0.0701845,0.074014,0.0143846,0.0754349,-0.0716055,1.47233,0.0849034,0.0470734,748,1324,-8.20375,0.228264
-469,-300,0,0,0,0,0,0,0,0,0,-1,755,1324,0,0
-462,-300,0,0,0,0,0,0,0,0,0,-1,762,1324,0,0
-455,-300,0,0,0,0,0,0,0,0,0,-1,769,1324,0,0
-448,-300,0,0,0,0,0,0,0,0,0,-1,776,1324,0,0
-441,-300,0,0,0,0,0,0,0,0,0,-1,783,1324,0,0
-434,-300,0,0,0,0,0,0,0,0,0,-1,790,1324,0,0
-427,-300,0,0,0,0,0,0,0,0,0,-1,797,1324,0,0
-420,-300,0,0,0,0,0,0,0,0,0,-1,804,1324,0,0
-413,-300,0,0,0,0,0,0,0,0,0,-1,811,1324,0,0
-406,-300,0,0,0,0,0,0,0,0,0,-1,818,1324,0,0
-399,-300,0,0,0,0,0,0,0,0,0,-1,825,1324,0,0
-392,-300,0,0,0,0,0,0,0,0,0,-1,832,1324,0,0
-385,-300,0,0,0,0,0,0,0,0,0,-1,839,1324,0,0
-378,-300,0,0,0,0,0,0,0,0,0,-1,846,1324,0,0
-371,-300,0,0,0,0,0,0,0,0,0,-1,853,1324,0,0
-364,-300,0,0,0,0,0,0,0,0,0,-1,860,1324,0,0
-357,-300,0,0,0,0,0,0,0,0,0,-1,867,1324,0,0
-350,-300,0,0,0,0,0,0,0,0,0,-1,874,1324,0,0
-343,-300,0,0,0,0,0,0,0,0,0,-1,881,1324,0,0
-336,-300,0,0,0,0,0,0,0,0,0,-1,888,1324,0,0
-329,-300,0,0,0,0,0,0,0,0,0,-1,895,1324,0,0
-322,-300,0,0,0,0,0,0,0,0,0,-1,902,1324,0,0
-315,-300,0,0,0,0,0,0,0,0,0,-1,909,1324,0,0
-308,-300,0,0,0,0,0,0,0,0,0,-1,916,1324,0,0
-301,-300,0,0,0,0,0,0,0,0,0,-1,923,1324,0,0
-294,-300,0,0,0,0,0,0,0,0,0,-1,930,1324,0,0
-287,-300,0,0,0,0,0,0,0,0,0,-1,937,1324,0,0
-280,-300,0,0,0,0,0,0,0,0,0,-1,944,1324,0,0
-273,-300,0,0,0,0,0,0,0,0,0,-1,951,1324,0,0
-266,-300,0,0,0,0,0,0,0,0,0,-1,958,1324,0,0
-259,-300,0,0,0,0,0,0,0,0,0,-1,965,1324,0,0
-252,-300,0,0,0,0,0,0,0,0,0,-1,972,1324,0,0
-245,-300,0,0,0,0,0,0,0,0,0,-1,979,1324,0,0
-238,-300,0,0,0,0,0,0,0,0,0,-1,986,1324,0,0
-231,-300,0,0,0,0,0,0,0,0,0,-1,993,1324,0,0
-224,-300,0,0,0,0,0,0,0,0,0,-1,1000,1324,0,0
-217,-300,0,0,0,0,0,0,0,0,0,-1,1007,1324,0,0
-210,-300,0,0,0,0,0,0,0,0,0,-1,1014,1324,0,0
-203,-300,0,0,0,0,0,0,0,0,0,-1,1021,1324,0,0
-196,-300,0,0,0,0,0,0,0,0,0,-1,1028,1324,0,0
-189,-300,0,0,0,0,0,0,0,0,0,-1,1035,1324,0,0
-182,-300,0,0,0,0,0,0,0,0,0,-1,1042,1324,0,0
-175,-300,0,0,0,0,0,0,0,0,0,-1,1049,1324,0,0
-168,-300,0,0,0,0,0,0,0,0,0,-1,1056,1324,0,0
-161,-300,0,0,0,0,0,0,0,0,0,-1,1063,1324,0,0
-154,-300,0,0,0,0,0,0,0,0,0,-1,1070,1324,0,0
-147,-300,0,0,0,0,0,0,0,0,0,-1,1077,1324,0,0
-140,-300,0,0,0,0,0,0,0,0,0,-1,1084,1324,0,0
-133,-300,0,0,0,0,0,0,0,0,0,-1,1091,1324,0,0
-126,-300,0,0,0,0,0,0,0,0,0,-1,1098,1324,0,0
-119,-300,0,0,0,0,0,0,0,0,0,-1,1105,1324,0,0
-112,-300,0,0,0,0,0,0,0,0,0,-1,1112,1324,0,0
-105,-300,0,0,0,0,0,0,0,0,0,-1,1119,1324,0,0
-98,-300,0,0,0,0,0,0,0,0,0,-1,1126,1324,0,0
-91,-300,0,0,0,0,0,0,0,0,0,-1,1133,1324,0,0
-84,-300,0,0,0,0,0,0,0,0,0,-1,1140,1324,0,0
-77,-300,0,0,0,0,0,0,0,0,0,-1,1147,1324,0,0
-70,-300,0,0,0,0,0,0,0,0,0,-1,1154,1324,0,0
-63,-300,0,0,0,0,0,0,0,0,0,-1,1161,1324,0,0
-56,-300,0,0,0,0,0,0,0,0,0,-1,1168,1324,0,0
-49,-300,0,0,0,0,0,0,0,0,0,-1,1175,1324,0,0
-42,-300,0,0,0,0,0,0,0,0,0,-1,1182,1324,0,0
-35,-300,0,0,0,0,0,0,0,0,0,-1,1189,1324,0,0
-28,-300,0,0,0,0,0,0,0,0,0,-1,1196,1324,0,0
-21,-300,0,0,0,0,0,0,0,0,0,-1,1203,1324,0,0
-14,-300,0,0,0,0,0,0,0,0,0,-1,1210,1324,0,0
-7,-300,0,0,0,0,0,0,0,0,0,-1,1217,1324,0,0
0,-300,0,0,0,0,0,0,0,0,0,-1,1224,1324,0,0
7,-300,0,0,0,0,0,0,0,0,0,-1,1231,1324,0,0
14,-300,0,0,0,0,0,0,0,0,0,-1,1238,1324,0,0
21,-300,0,0,0,0,0,0,0,0,0,-1,1245,1324,0,0
28,-300,0,0,0,0,0,0,0,0,0,-1,1252,1324,0,0
35,-300,0,0,0,0,0,0,0,0,0,-1,1259,1324,0,0
42,-300,0,0,0,0,0,0,0,0,0,-1,1266,1324,0,0
49,-300,0,0,0,0,0,0,0,0,0,-1,1273,1324,0,0
56,-300,0,0,0,0,0,0,0,0,0,-1,1280,1324,0,0
63,-300,0,0,0,0,0,0,0,0,0,-1,1287,1324,0,0
70,-300,0,0,0,0,0,0,0,0,0,-1,1294,1324,0,0
77,-300,0,0,0,0,0,0,0,0,0,-1,1301,1324,0,0
84,-300,0,0,0,0,0,0,0,0,0,-1,1308,1324,0,0
91,-300,0,0,0,0,0,0,0,0,0,-1,1315,1324,0,0
98,-300,0,0,0,0,0,0,0,0,0,-1,1322,1324,0,0
105,-300,0,0,0,0,0,0,0,0,0,-1,1329,1324,0,0
112,-300,0,0,0,0,0,0,0,0,0,-1,1336,1324,0,0
119,-300,0,0,0,0,0,0,0,0,0,-1,1343,1324,0,0
126,-300,0,0,0,0,0,0,0,0,0,-1,1350,1324,0,0
133,-300,0,0,0,0,0,0,0,0,0,-1,1357,1324,0,0
140,-300,0,0,0,0,0,0,0,0,0,-1,1364,1324,0,0
147,-300,0,0,0,0,0,0,0,0,0,-1,1371,1324,0,0
154,-300,0,0,0,0,0,0,0,0,0,-1,1378,1324,0,0
161,-300,0,0,0,0,0,0,0,0,0,-1,1385,1324,0,0
168,-300,0,0,0,0,0,0,0,0,0,-1,1392,1324,0,0
175,-300,0,0,0,0,0,0,0,0,0,-1,1399,1324,0,0
182,-300,0,0,0,0,0,0,0,0,0,-1,1406,1324,0,0
189,-300,0,0,0,0,0,0,0,0,0,-1,1413,1324,0,0
196,-300,0,0,0,0,0,0,0,0,0,-1,1420,1324,0,0
203,-300,0,0,0,0,0,0,0,0,0,-1,1427,1324,0,0
210,-300,0,0,0,0,0,0,0,0,0,-1,1434,1324,0,0
217,-300,0,0,0,0,0,0,0,0,0,-1,1441,1324,0,0
224,-300,0,0,0,0,0,0,0,0,0,-1,1448,1324,0,0
231,-300,0,0,0,0,0,0,0,0,0,-1,1455,1324,0,0
238,-300,0,0,0,0,0,0,0,0,0,-1,1462,1324,0,0
245,-300,0,0,0,0,0,0,0,0,0,-1,1469,1324,0,0
252,-300,0,0,0,0,0,0,0,0,0,-1,1476,1324,0,0
259,-300,0,0,0,0,0,0,0,0,0,-1,1483,1324,0,0
266,-300,0,0,0,0,0,0,0,0,0,-1,1490,1324,0,0
273,-300,0,0,0,0,0,0,0,0,0,-1,1497,1324,0,0
280,-300,0,0,0,0,0,0,0,0,0,-1,1504,1324,0,0
287,-300,0,0,0,0,0,0,0,0,0,-1,1511,1324,0,0
294,-300,0,0,0,0,0,0,0,0,0,-1,1518,1324,0,0
301,-300,0,0,0,0,0,0,0,0,0,-1,1525,1324,0,0
308,-300,0,0,0,0,0,0,0,0,0,-1,1532,1324,0,0
315,-300,0,0,0,0,0,0,0,0,0,-1,1539,1324,0,0
322,-300,0,0,0,0,0,0,0,0,0,-1,1546,1324,0,0
329,-300,0,0,0,0,0,0,0,0,0,-1,1553,1324,0,0
336,-300,0,0,0,0,0,0,0,0,0,-1,1560,1324,0,0
343,-300,0,0,0,0,0,0,0,0,0,-1,1567,1324,0,0
350,-300,0,0,0,0,0,0,0,0,0,-1,1574,1324,0,0
357,-300,0,0,0,0,0,0,0,0,0,-1,1581,1324,0,0
364,-300,0,0,0,0,0,0,0,0,0,-1,1588,1324,0,0
371,-300,0,0,0,0,0,0,0,0,0,-1,1595,1324,0,0
378,-300,0,0,0,0,0,0,0,0,0,-1,1602,1324,0,0
385,-300,0,0,0,0,0,0,0,0,0,-1,1609,1324,0,0
392,-300,0,0,0,0,0,0,0,0,0,-1,1616,1324,0,0
399,-300,0,0,0,0,0,0,0,0,0,-1,1623,1324,0,0
406,-300,0,0,0,0,0,0,0,0,0,-1,1630,1324,0,0
413,-300,0,0,0,0,0,0,0,0,0,-1,1637,1324,0,0
420,-300,0,0,0,0,0,0,0,0,0,-1,1644,1324,0,0
427,-300,0,0,0,0,0,0,0,0,0,-1,1651,1324,0,0
434,-300,0,0,0,0,0,0,0,0,0,-1,1658,1324,0,0
441,-300,0,0,0,0,0,0,0,0,0,-1,1665,1324,0,0
448,-300,0,0,0,0,0,0,0,0,0,-1,1672,1324,0,0
455,-300,0,0,0,0,0,0,0,0,0,-1,1679,1324,0,0
462,-300,0,0,0,0,0,0,0,0,0,-1,1686,1324,0,0
469,-300,0,0,0,0,0,0,0,0,0,-1,1693,1324,0,0
476,-300,0,0,0,0,0,0,0,0,0,-1,1700,1324,0,0
483,-300,0,0,0,0,0,0,0,0,0,-1,1707,1324,0,0
490,-300,0,0,0,0,0,0,0,0,0,-1,1714,1324,0,0
497,-300,0,0,0,0,0,0,0,0,0,-1,1721,1324,0,0
504,-300,0,0,0,0,0,0,0,0,0,-1,1728,1324,0,0
511,-300,0,0,0,0,0,0,0,0,0,-1,1735,1324,0,0
518,-300,0,0,0,0,0,0,0,0,0,-1,1742,1324,0,0
525,-300,0,0,0,0,0,0,0,0,0,-1,1749,1324,0,0
532,-300,0,0,0,0,0,0,0,0,0,-1,1756,1324,0,0
539,-300,0,0,0,0,0,0,0,0,0,-1,1763,1324,0,0
546,-300,0,0,0,0,0,0,0,0,0,-1,1770,1324,0,0
553,-300,0,0,0,0,0,0,0,0,0,-1,1777,1324,0,0
560,-300,0,0,0,0,0,0,0,0,0,-1,1784,1324,0,0
567,-300,0,0,0,0,0,0,0,0,0,-1,1791,1324,0,0
574,-300,0,0,0,0,0,0,0,0,0,-1,1798,1324,0,0
581,-300,0,0,0,0,0,0,0,0,0,-1,1805,1324,0,0
588,-300,16.6388,3.12561,0,0,0,0,0,0,0,-1,1812,1324,16.6388,-3.12559
595,-300,16.6279,2.61536,0,0,0,0,0,0,0,-1,1819,1324,16.6279,-2.61535
602,-300,15.8992,2.15112,0,0,0,0,0,0,0,-1,1826,1324,15.8992,-2.15117
609,-300,15.1704,1.68701,0,0,0,0,0,0,0,-1,1833,1324,15.1704,-1.68699
616,-300,14.7061,0.690796,0,0,0,0,0,0,0,-1,1840,1324,14.7061,-0.690813
623,-300,14.9281,0.800903,-0.0124518,0.0161807,0.0225981,0.0286157,-0.0248869,1.06775,0.0309147,0.0486057,1847,1324,14.9281,-0.800896
630,-300,14.8966,1.37036,-0.0135108,0.0174047,0.0225965,0.0293248,-0.0254309,1.08538,0.0316398,0.0467168,1854,1324,14.8966,-1.37038
637,-300,15.2407,1.58032,0,0,0,0,0,0,0,-1,1861,1324,15.2407,-1.58036
644,-300,14.3901,1.78589,0,0,0,0,0,0,0,-1,1868,1324,14.3901,-1.78589
651,-300,13.3672,4.45459,0,0,0,0,0,0,0,-1,1875,1324,13.3672,-4.45458
658,-300,12.96,4.61963,-0.0100708,0.0103224,0.0161361,0.0192136,-0.0189621,1.06717,0.0220409,0.0415126,1882,1324,12.9599,-4.61963
665,-300,12.6967,4.64038,-0.00797972,0.00731072,0.0136805,0.0153374,-0.0160063,1.0402,0.0180977,0.0259102,1889,1324,12.6967,-4.6404
672,-300,12.6378,4.53796,-0.00679235,0.00446462,0.0104753,0.0107278,-0.0130556,1.03192,0.0137533,0.0102005,1896,1324,12.6378,-4.53802
679,-300,12.6394,4.37256,-0.00556077,0.00218034,0.00753427,0.00678011,-0.0101605,1.02268,0.00984538,0.0106321,1903,1324,12.6394,-4.37261
686,-300,12.6609,4.25281,-0.0039634,0.000459752,0.00482152,0.00355271,-0.00705637,1.00043,0.0062355,0.0116517,1910,1324,12.6609,-4.25279
693,-300,12.6462,4.10498,-0.00160087,-0.000494841,0.00251797,0.00153013,-0.00362585,0.893496,0.00305767,0.0107444,1917,1324,12.6462,-4.10501
700,-300,12.6232,3.9425,0.0023466,-0.000963365,0.00014957,0.00235335,-0.000970109,0.0450653,0.00197342,0.0121069,1924,1324,12.6232,-3.94254
707,-300,12.6334,3.79138,0.0076813,-0.000195243,-0.00218983,0.00824917,-0.000763114,-0.253733,0.00577066,0.00882841,1931,1324,12.6334,-3.79139
714,-300,12.6504,3.67615,0.0138126,0.00104772,-0.00434531,0.0151514,-0.000291062,-0.298869,0.0101993,0.0101744,1938,1324,12.6504,-3.67615
721,-300,12.6578,3.53479,0.0209317,0.00225982,-0.00691848,0.0232158,-2.42786e-05,-0.318877,0.0154853,0.0115297,1945,1324,12.6578,-3.5348
728,-300,12.655,3.38684,0.0301979,0.00370587,-0.0101671,0.03365,0.000253757,-0.327323,0.0223492,0.0101772,1952,1324,12.655,-3.3869
735,-300,12.5962,3.28699,0.0421612,0.00571852,-0.0143082,0.0471075,0.000772154,-0.33284,0.0311508,0.014594,1959,1324,12.5962,-3.28697
742,-300,12.6688,3.02783,0.0575116,0.00865543,-0.019517,0.0643509,0.00181619,-0.337053,0.0423082,0.0275152,1966,1324,12.6688,-3.02781
749,-300,12.9153,2.53406,0.0768227,0.012896,-0.0258812,0.0859871,0.00373163,-0.340318,0.0561222,0.0420372,1973,1324,12.9153,-2.53401
756,-300,12.8622,1.64917,0,0,0,0,0,0,0,-1,1980,1324,12.8622,-1.64921
763,-300,13.6387,2.69275,0.128721,0.0275091,-0.0414275,0.143515,0.0127148,-0.342999,0.0917326,0.0457446,1987,1324,13.6387,-2.6928
770,-300,14.4004,3.8844,0,0,0,0,0,0,0,-1,1994,1324,14.4004,-3.88436
777,-300,0,0,0,0,0,0,0,0,0,-1,2001,1324,0,0
784,-300,0,0,0,0,0,0,0,0,0,-1,2008,1324,0,0
791,-300,0,0,0,0,0,0,0,0,0,-1,2015,1324,0,0
798,-300,0,0,0,0,0,0,0,0,0,-1,2022,1324,0,0
805,-300,0,0,0,0,0,0,0,0,0,-1,2029,1324,0,0
812,-300,0,0,0,0,0,0,0,0,0,-1,2036,1324,0,0
-700,-307,0,0,0,0,0,0,0,0,0,-1,524,1331,0,0
-693,-307,0,0,0,0,0,0,0,0,0,-1,531,1331,0,0
-686,-307,0,0,0,0,0,0,0,0,0,-1,538,1331,0,0
-679,-307,0,0,0,0,0,0,0,0,0,-1,545,1331,0,0
-672,-307,0,0,0,0,0,0,0,0,0,-1,552,1331,0,0
-665,-307,0,0,0,0,0,0,0,0,0,-1,559,1331,0,0
-658,-307,0,0,0,0,0,0,0,0,0,-1,566,1331,0,0
-651,-307,-3.15222,-3.62927,0,0,0,0,0,0,0,-1,573,1331,-3.15224,3.62926
-644,-307,-3.71844,-2.88733,-0.00365303,0.207758,0.0131631,0.208575,-0.00446945,1.50885,0.140563,0.0466467,580,1331,-3.71843,2.88728
-637,-307,-4.12976,-2.40027,-0.00573504,0.172526,0.0134842,0.173541,-0.00674925,1.49572,0.118008,0.0489704,587,1331,-4.12973,2.40026
-630,-307,-5.58881,-0.794556,0,0,0,0,0,0,0,-1,594,1331,-5.58883,0.794514
-623,-307,-5.52362,-0.548096,-0.0060634,0.112527,0.0122701,0.113783,-0.00731965,1.46877,0.0784091,0.0451281,601,1331,-5.52359,0.548124
-616,-307,-5.70398,0.561401,-0.00543158,0.0877336,0.0110235,0.0890201,-0.00671814,1.45461,0.0617082,0.045084,608,1331,-5.70399,-0.561384
-609,-307,-5.46704,0.0596924,-0.00465216,0.0662438,0.00960497,0.067522,-0.00593039,1.43849,0.0471161,0.0420686,615,1331,-5.46707,-0.0596943
-602,-307,-5.53754,0.782471,-0.00523919,0.0474024,0.00710948,0.0483457,-0.00618245,1.43889,0.0344765,0.0312604,622,1331,-5.53756,-0.782428
-595,-307,-5.72211,1.36279,-0.00402258,0.0333333,0.00624839,0.0343508,-0.00504001,1.40938,0.0247521,0.0150857,629,1331,-5.72208,-1.36279
-588,-307,-5.7016,1.55371,-0.00298502,0.0213849,0.00472593,0.0222693,-0.0038694,1.3858,0.0162899,0.0172348,636,1331,-5.70162,-1.55375
-581,-307,-5.69019,1.72546,-0.0025993,0.0126559,0.00352449,0.0134308,-0.00337422,1.35437,0.0102652,0.015629,643,1331,-5.69019,-1.72546
-574,-307,-5.70392,1.87585,-0.00218383,0.00670843,0.00203711,0.00715289,-0.00262829,1.35598,0.0058451,0.0126589,650,1331,-5.7039,-1.87587
-567,-307,-5.71906,2.03809,-0.00205569,0.00317993,0.000546764,0.00323642,-0.00211218,1.46784,0.00311067,0.01213,657,1331,-5.71904,-2.0381
-560,-307,-5.72052,2.21814,-0.00261526,0.00154124,-0.000761076,0.00167622,-0.00275023,-1.39528,0.00258056,0.0134428,664,1331,-5.7205,-2.21814
-553,-307,-5.70984,2.36987,-0.0039834,0.00185511,-0.0019699,0.00245758,-0.00458587,-1.27399,0.00412796,0.0105029,671,1331,-5.70985,-2.36985
-546,-307,-5.70715,2.53174,-0.00635418,0.00415143,-0.00278132,0.00484234,-0.00704508,-1.32732,0.00690237,0.0095441,678,1331,-5.70713,-2.5317
-539,-307,-5.69458,2.72595,-0.0102389,0.00753445,-0.00292063,0.00800209,-0.0107065,-1.41203,0.010839,0.0113496,685,1331,-5.69456,-2.72591
-532,-307,-5.67786,2.83228,-0.0147905,0.0115904,-0.00319379,0.0119716,-0.0151716,-1.45202,0.0157074,0.0238674,692,1331,-5.67785,-2.83226
-525,-307,-5.87573,2.91028,-0.0197006,0.0163871,-0.00311723,0.0166543,-0.0199679,-1.48526,0.0211727,0.0445345,699,1331,-5.87574,-2.91023
-518,-307,-6.02112,3.1427,-0.0252627,0.0220603,-0.00226336,0.0221683,-0.0253707,-1.52311,0.0274674,0.0493607,706,1331,-6.02114,-3.14265
-511,-307,-6.21686,3.42151,0,0,0,0,0,0,0,-1,713,1331,-6.21686,-3.42146
-504,-307,-5.29431,-3.40564,0,0,0,0,0,0,0,-1,720,1331,-5.29433,3.40563
-497,-307,-6.82837,-2.69006,0,0,0,0,0,0,0,-1,727,1331,-6.8284,2.69004
-490,-307,-7.10565,-1.922,-0.0529228,0.0534815,0.00676006,0.0539093,-0.0533506,1.5076,0.0619268,0.0476839,734,1331,-7.10565,1.92198
-483,-307,-7.35748,-1.18896,-0.0608083,0.0630131,0.0105673,0.0639085,-0.0617037,1.48627,0.0725259,0.0430716,741,1331,-7.3575,1.18898
-476,-307,-7.70465,-0.530273,-0.0692183,0.0733487,0.015211,0.0749535,-0.0708231,1.46568,0.0841755,0.045545,748,1331,-7.70464,0.530272
-469,-307,-8.20233,0.22937,-0.0784899,0.0842282,0.0204993,0.086771,-0.0810326,1.44738,0.0969003,0.0429573,755,1331,-8.20233,-0.229403
-462,-307,0,0,0,0,0,0,0,0,0,-1,762,1331,0,0
-455,-307,0,0,0,0,0,0,0,0,0,-1,769,1331,0,0
-448,-307,0,0,0,0,0,0,0,0,0,-1,776,1331,0,0
-441,-307,0,0,0,0,0,0,0,0,0,-1,783,1331,0,0
-434,-307,0,0,0,0,0,0,0,0,0,-1,790,1331,0,0
-427,-307,0,0,0,0,0,0,0,0,0,-1,797,1331,0,0
-420,-307,0,0,0,0,0,0,0,0,0,-1,804,1331,0,0
-413,-307,0,0,0,0,0,0,0,0,0,-1,811,1331,0,0
-406,-307,0,0,0,0,0,0,0,0,0,-1,818,1331,0,0
-399,-307,0,0,0,0,0,0,0,0,0,-1,825,1331,0,0
-392,-307,0,0,0,0,0,0,0,0,0,-1,832,1331,0,0
-385,-307,0,0,0,0,0,0,0,0,0,-1,839,1331,0,0
-378,-307,0,0,0,0,0,0,0,0,0,-1,846,1331,0,0
-371,-307,0,0,0,0,0,0,0,0,0,-1,853,1331,0,0
-364,-307,0,0,0,0,0,0,0,0,0,-1,860,1331,0,0
-357,-307,0,0,0,0,0,0,0,0,0,-1,867,1331,0,0
-350,-307,0,0,0,0,0,0,0,0,0,-1,874,1331,0,0
-343,-307,0,0,0,0,0,0,0,0,0,-1,881,1331,0,0
-336,-307,0,0,0,0,0,0,0,0,0,-1,888,1331,0,0
-329,-307,0,0,0,0,0,0,0,0,0,-1,895,1331,0,0
-322,-307,0,0,0,0,0,0,0,0,0,-1,902,1331,0,0
-315,-307,0,0,0,0,0,0,0,0,0,-1,909,1331,0,0
-308,-307,0,0,0,0,0,0,0,0,0,-1,916,1331,0,0
-301,-307,0,0,0,0,0,0,0,0,0,-1,923,1331,0,0
-294,-307,0,0,0,0,0,0,0,0,0,-1,930,1331,0,0
-287,-307,0,0,0,0,0,0,0,0,0,-1,937,1331,0,0
-280,-307,0,0,0,0,0,0,0,0,0,-1,944,1331,0,0
-273,-307,0,0,0,0,0,0,0,0,0,-1,951,1331,0,0
-266,-307,0,0,0,0,0,0,0,0,0,-1,958,1331,0,0
-259,-307,0,0,0,0,0,0,0,0,0,-1,965,1331,0,0
-252,-307,0,0,0,0,0,0,0,0,0,-1,972,1331,0,0
-245,-307,0,0,0,0,0,0,0,0,0,-1,979,1331,0,0
-238,-307,0,0,0,0,0,0,0,0,0,-1,986,1331,0,0
-231,-307,0,0,0,0,0,0,0,0,0,-1,993,1331,0,0
-224,-307,0,0,0,0,0,0,0,0,0,-1,1000,1331,0,0
-217,-307,0,0,0,0,0,0,0,0,0,-1,1007,1331,0,0
-210,-307,0,0,0,0,0,0,0,0,0,-1,1014,1331,0,0
-203,-307,0,0,0,0,0,0,0,0,0,-1,1021,1331,0,0
-196,-307,0,0,0,0,0,0,0,0,0,-1,1028,1331,0,0
-189,-307,0,0,0,0,0,0,0,0,0,-1,1035,1331,0,0
-182,-307,0,0,0,0,0,0,0,0,0,-1,1042,1331,0,0
-175,-307,0,0,0,0,0,0,0,0,0,-1,1049,1331,0,0
-168,-307,0,0,0,0,0,0,0,0,0,-1,1056,1331,0,0
-161,-307,0,0,0,0,0,0,0,0,0,-1,1063,1331,0,0
-154,-307,0,0,0,0,0,0,0,0,0,-1,1070,1331,0,0
-147,-307,0,0,0,0,0,0,0,0,0,-1,1077,1331,0,0
-140,-307,0,0,0,0,0,0,0,0,0,-1,1084,1331,0,0
-133,-307,0,0,0,0,0,0,0,0,0,-1,1091,1331,0,0
-126,-307,0,0,0,0,0,0,0,0,0,-1,1098,1331,0,0
-119,-307,0,0,0,0,0,0,0,0,0,-1,1105,1331,0,0
-112,-307,0,0,0,0,0,0,0,0,0,-1,1112,1331,0,0
-105,-307,0,0,0,0,0,0,0,0,0,-1,1119,1331,0,0
-98,-307,0,0,0,0,0,0,0,0,0,-1,1126,1331,0,0
-91,-307,0,0,0,0,0,0,0,0,0,-1,1133,1331,0,0
-84,-307,0,0,0,0,0,0,0,0,0,-1,1140,1331,0,0
-77,-307,0,0,0,0,0,0,0,0,0,-1,1147,1331,0,0
-70,-307,0,0,0,0,0,0,0,0,0,-1,1154,1331,0,0
-63,-307,0,0,0,0,0,0,0,0,0,-1,1161,1331,0,0
-56,-307,0,0,0,0,0,0,0,0,0,-1,1168,1331,0,0
-49,-307,0,0,0,0,0,0,0,0,0,-1,1175,1331,0,0
-42,-307,0,0,0,0,0,0,0,0,0,-1,1182,1331,0,0
-35,-307,0,0,0,0,0,0,0,0,0,-1,1189,1331,0,0
-28,-307,0,0,0,0,0,0,0,0,0,-1,1196,1331,0,0
-21,-307,0,0,0,0,0,0,0,0,0,-1,1203,1331,0,0
-14,-307,0,0,0,0,0,0,0,0,0,-1,1210,1331,0,0
-7,-307,0,0,0,0,0,0,0,0,0,-1,1217,1331,0,0
0,-307,0,0,0,0,0,0,0,0,0,-1,1224,1331,0,0
7,-307,0,0,0,0,0,0,0,0,0,-1,1231,1331,0,0
14,-307,0,0,0,0,0,0,0,0,0,-1,1238,1331,0,0
21,-307,0,0,0,0,0,0,0,0,0,-1,1245,1331,0,0
28,-307,0,0,0,0,0,0,0,0,0,-1,1252,1331,0,0
35,-307,0,0,0,0,0,0,0,0,0,-1,1259,1331,0,0
42,-307,0,0,0,0,0,0,0,0,0,-1,1266,1331,0,0
49,-307,0,0,0,0,0,0,0,0,0,-1,1273,1331,0,0
56,-307,0,0,0,0,0,0,0,0,0,-1,1280,1331,0,0
63,-307,0,0,0,0,0,0,0,0,0,-1,1287,1331,0,0
70,-307,0,0,0,0,0,0,0,0,0,-1,1294,1331,0,0
77,-307,0,0,0,0,0,0,0,0,0,-1,1301,1331,0,0
84,-307,0,0,0,0,0,0,0,0,0,-1,1308,1331,0,0
91,-307,0,0,0,0,0,0,0,0,0,-1,1315,1331,0,0
98,-307,0,0,0,0,0,0,0,0,0,-1,1322,1331,0,0
105,-307,0,0,0,0,0,0,0,0,0,-1,1329,1331,0,0
112,-307,0,0,0,0,0,0,0,0,0,-1,1336,1331,0,0
119,-307,0,0,0,0,0,0,0,0,0,-1,1343,1331,0,0
126,-307,0,0,0,0,0,0,0,0,0,-1,1350,1331,0,0
133,-307,0,0,0,0,0,0,0,0,0,-1,1357,1331,0,0
140,-307,0,0,0,0,0,0,0,0,0,-1,1364,1331,0,0
147,-307,0,0,0,0,0,0,0,0,0,-1,1371,1331,0,0
154,-307,0,0,0,0,0,0,0,0,0,-1,1378,1331,0,0
161,-307,0,0,0,0,0,0,0,0,0,-1,1385,1331,0,0
168,-307,0,0,0,0,0,0,0,0,0,-1,1392,1331,0,0
175,-307,0,0,0,0,0,0,0,0,0,-1,1399,1331,0,0
182,-307,0,0,0,0,0,0,0,0,0,-1,1406,1331,0,0
189,-307,0,0,0,0,0,0,0,0,0,-1,1413,1331,0,0
196,-307,0,0,0,0,0,0,0,0,0,-1,1420,1331,0,0
203,-307,0,0,0,0,0,0,0,0,0,-1,1427,1331,0,0
210,-307,0,0,0,0,0,0,0,0,0,-1,1434,1331,0,0
217,-307,0,0,0,0,0,0,0,0,0,-1,1441,1331,0,0
224,-307,0,0,0,0,0,0,0,0,0,-1,1448,1331,0,0
231,-307,0,0,0,0,0,0,0,0,0,-1,1455,1331,0,0
238,-307,0,0,0,0,0,0,0,0,0,-1,1462,1331,0,0
245,-307,0,0,0,0,0,0,0,0,0,-1,1469,1331,0,0
252,-307,0,0,0,0,0,0,0,0,0,-1,1476,1331,0,0
259,-307,0,0,0,0,0,0,0,0,0,-1,1483,1331,0,0
266,-307,0,0,0,0,0,0,0,0,0,-1,1490,1331,0,0
273,-307,0,0,0,0,0,0,0,0,0,-1,1497,1331,0,0
280,-307,0,0,0,0,0,0,0,0,0,-1,1504,1331,0,0
287,-307,0,0,0,0,0,0,0,0,0,-1,1511,1331,0,0
294,-307,0,0,0,0,0,0,0,0,0,-1,1518,1331,0,0
301,-307,0,0,0,0,0,0,0,0,0,-1,1525,1331,0,0
308,-307,0,0,0,0,0,0,0,0,0,-1,1532,1331,0,0
315,-307,0,0,0,0,0,0,0,0,0,-1,1539,1331,0,0
322,-307,0,0,0,0,0,0,0,0,0,-1,1546,1331,0,0
329,-307,0,0,0,0,0,0,0,0,0,-1,1553,1331,0,0
336,-307,0,0,0,0,0,0,0,0,0,-1,1560,1331,0,0
343,-307,0,0,0,0,0,0,0,0,0,-1,1567,1331,0,0
350,-307,0,0,0,0,0,0,0,0,0,-1,1574,1331,0,0
357,-307,0,0,0,0,0,0,0,0,0,-1,1581,1331,0,0
364,-307,0,0,0,0,0,0,0,0,0,-1,1588,1331,0,0
371,-307,0,0,0,0,0,0,0,0,0,-1,1595,1331,0,0
378,-307,0,0,0,0,0,0,0,0,0,-1,1602,1331,0,0
385,-307,0,0,0,0,0,0,0,0,0,-1,1609,1331,0,0
392,-307,0,0,0,0,0,0,0,0,0,-1,1616,1331,0,0
399,-307,0,0,0,0,0,0,0,0,0,-1,1623,1331,0,0
406,-307,0,0,0,0,0,0,0,0,0,-1,1630,1331,0,0
413,-307,0,0,0,0,0,0,0,0,0,-1,1637,1331,0,0
420,-307,0,0,0,0,0,0,0,0,0,-1,1644,1331,0,0
427,-307,0,0,0,0,0,0,0,0,0,-1,1651,1331,0,0
434,-307,0,0,0,0,0,0,0,0,0,-1,1658,1331,0,0
441,-307,0,0,0,0,0,0,0,0,0,-1,1665,1331,0,0
448,-307,0,0,0,0,0,0,0,0,0,-1,1672,1331,0,0
455,-307,0,0,0,0,0,0,0,0,0,-1,1679,1331,0,0
462,-307,0,0,0,0,0,0,0,0,0,-1,1686,1331,0,0
469,-307,0,0,0,0,0,0,0,0,0,-1,1693,1331,0,0
476,-307,0,0,0,0,0,0,0,0,0,-1,1700,1331,0,0
483,-307,0,0,0,0,0,0,0,0,0,-1,1707,1331,0,0
490,-307,0,0,0,0,0,0,0,0,0,-1,1714,1331,0,0
497,-307,0,0,0,0,0,0,0,0,0,-1,1721,1331,0,0
504,-307,0,0,0,0,0,0,0,0,0,-1,1728,1331,0,0
511,-307,0,0,0,0,0,0,0,0,0,-1,1735,1331,0,0
518,-307,0,0,0,0,0,0,0,0,0,-1,1742,1331,0,0
525,-307,0,0,0,0,0,0,0,0,0,-1,1749,1331,0,0
532,-307,0,0,0,0,0,0,0,0,0,-1,1756,1331,0,0
539,-307,0,0,0,0,0,0,0,0,0,-1,1763,1331,0,0
546,-307,0,0,0,0,0,0,0,0,0,-1,1770,1331,0,0
553,-307,0,0,0,0,0,0,0,0,0,-1,1777,1331,0,0
560,-307,0,0,0,0,0,0,0,0,0,-1,1784,1331,0,0
567,-307,0,0,0,0,0,0,0,0,0,-1,1791,1331,0,0
574,-307,0,0,0,0,0,0,0,0,0,-1,1798,1331,0,0
581,-307,0,0,0,0,0,0,0,0,0,-1,1805,1331,0,0
588,-307,16.5323,3.36279,0,0,0,0,0,0,0,-1,1812,1331,16.5324,-3.36283
595,-307,16.6925,2.58899,0,0,0,0,0,0,0,-1,1819,1331,16.6926,-2.58903
602,-307,15.9574,2.13586,0.00135095,-0.00577603,0.0197315,0.0178381,-0.0222632,0.696061,0.0231995,0.0463928,1826,1331,15.9574,-2.13587
609,-307,15.2225,1.6814,-0.00648,0.00211167,0.0232058,0.0214159,-0.0257842,0.876922,0.0272899,0.0475634,1833,1331,15.2225,-1.68139
616,-307,14.5397,1.24573,0,0,0,0,0,0,0,-1,1840,1331,14.5397,-1.24567
623,-307,14.6854,0.456787,0,0,0,0,0,0,0,-1,1847,1331,14.6855,-0.456791
630,-307,14.9038,0.551147,0,0,0,0,0,0,0,-1,1854,1331,14.9038,-0.551115
637,-307,12.832,3.13599,0,0,0,0,0,0,0,-1,1861,1331,12.832,-3.13602
644,-307,12.8331,4.66772,0,0,0,0,0,0,0,-1,1868,1331,12.8332,-4.6677
651,-307,12.8336,4.52002,-0.0128283,0.010961,0.0182957,0.0208887,-0.022756,1.07363,0.025206,0.0497818,1875,1331,12.8336,-4.52001
658,-307,12.7285,4.53271,-0.0101657,0.00816198,0.0167288,0.0180725,-0.0200761,1.03597,0.0220352,0.0428493,1882,1331,12.7285,-4.53274
665,-307,12.5295,4.64563,-0.0076869,0.00533238,0.0137719,0.0140556,-0.0164102,1.00617,0.0176069,0.0160391,1889,1331,12.5295,-4.64559
672,-307,12.5166,4.51709,-0.00628842,0.00289252,0.0101394,0.00943218,-0.0128281,0.997962,0.0129017,0.00901415,1896,1331,12.5166,-4.51704
679,-307,12.5051,4.37427,-0.00495541,0.00114014,0.00706176,0.00578375,-0.00959902,0.989117,0.00897184,0.00971153,1903,1331,12.5051,-4.37427
686,-307,12.5092,4.24219,-0.00322382,-1.36021e-05,0.00437132,0.00303798,-0.0062754,0.961351,0.0054843,0.0093762,1910,1331,12.5092,-4.24218
693,-307,12.5088,4.09839,-0.000810493,-0.000512989,0.00210147,0.00144498,-0.00276847,0.820732,0.00247232,0.0106454,1917,1331,12.5088,-4.09843
700,-307,12.506,3.94568,0.00311471,-0.000768623,-0.00012788,0.00311892,-0.00077283,-0.0328831,0.0023791,0.011451,1924,1331,12.506,-3.9457
707,-307,12.4863,3.79321,0.00848414,-3.98099e-05,-0.00242288,0.00912469,-0.000680365,-0.258464,0.00632213,0.0129238,1931,1331,12.4863,-3.7932
714,-307,12.5035,3.66638,0.0147092,0.000983623,-0.00441603,0.0160072,-0.000314421,-0.285887,0.0107778,0.0129915,1938,1331,12.5036,-3.66641
721,-307,12.532,3.53906,0.0221088,0.00187143,-0.00684786,0.0242081,-0.000227944,-0.297477,0.0162153,0.0149686,1945,1331,12.5319,-3.53911
728,-307,12.4941,3.42859,0.0318844,0.00291095,-0.00994008,0.0349667,-0.000171337,-0.300685,0.0233685,0.0173546,1952,1331,12.4941,-3.42857
735,-307,12.4476,3.26001,0.0446828,0.00440581,-0.0138996,0.0490139,7.47517e-05,-0.30206,0.032651,0.0264395,1959,1331,12.4477,-3.26003
742,-307,12.8245,3.03064,0.0612449,0.00665599,-0.0188805,0.0671387,0.000762209,-0.302578,0.0445073,0.0364899,1966,1331,12.8245,-3.03059
749,-307,13.1066,2.62561,0.0821896,0.0100103,-0.0248968,0.0899441,0.00225575,-0.301944,0.0592252,0.0437048,1973,1331,13.1066,-2.62562
756,-307,13.347,2.31641,0,0,0,0,0,0,0,-1,1980,1331,13.3471,-2.3164
763,-307,13.9097,2.36707,0,0,0,0,0,0,0,-1,1987,1331,13.9097,-2.36708
770,-307,0,0,0,0,0,0,0,0,0,-1,1994,1331,0,0
777,-307,0,0,0,0,0,0,0,0,0,-1,2001,1331,0,0
784,-307,0,0,0,0,0,0,0,0,0,-1,2008,1331,0,0
791,-307,0,0,0,0,0,0,0,0,0,-1,2015,1331,0,0
798,-307,0,0,0,0,0,0,0,0,0,-1,2022,1331,0,0
805,-307,0,0,0,0,0,0,0,0,0,-1,2029,1331,0,0
812,-307,0,0,0,0,0,0,0,0,0,-1,2036,1331,0,0
-700,-314,0,0,0,0,0,0,0,0,0,-1,524,1338,0,0
-693,-314,0,0,0,0,0,0,0,0,0,-1,531,1338,0,0
-686,-314,0,0,0,0,0,0,0,0,0,-1,538,1338,0,0
-679,-314,0,0,0,0,0,0,0,0,0,-1,545,1338,0,0
-672,-314,0,0,0,0,0,0,0,0,0,-1,552,1338,0,0
-665,-314,0,0,0,0,0,0,0,0,0,-1,559,1338,0,0
-658,-314,0,0,0,0,0,0,0,0,0,-1,566,1338,0,0
-651,-314,0,0,0,0,0,0,0,0,0,-1,573,1338,0,0
-644,-314,-3.07855,-4.29187,-0.017913,0.227038,0.0127266,0.227698,-0.0185725,1.51903,0.158353,0.0478696,580,1338,-3.07855,4.29192
-637,-314,-3.59161,-3.76392,-0.016411,0.189639,0.0146236,0.190672,-0.0174437,1.5003,0.13331,0.0470806,587,1338,-3.59159,3.76397
-630,-314,-3.98218,-2.88245,-0.0141511,0.15543,0.0150861,0.156762,-0.0154827,1.48276,0.110033,0.0445194,594,1338,-3.98216,2.8825
-623,-314,-4.34564,-2.10754,-0.0116183,0.124556,0.0144708,0.126076,-0.0131391,1.46609,0.0887555,0.0477717,601,1338,-4.34567,2.1075
-616,-314,-4.74988,-1.34082,-0.00933582,0.0972641,0.0131581,0.0988642,-0.010936,1.44978,0.0698408,0.0466699,608,1338,-4.7499,1.34076
-609,-314,-5.23224,-0.619995,-0.00740366,0.0736086,0.011371,0.0751744,-0.00896944,1.43396,0.053358,0.0490719,615,1338,-5.23225,0.619962
-602,-314,-5.58704,1.56079,-0.00715479,0.0530115,0.00858336,0.054212,-0.00835534,1.43183,0.0392242,0.0391827,622,1338,-5.58701,-1.56076
-595,-314,-5.47345,1.40344,-0.00535271,0.0374146,0.00732031,0.0386329,-0.006571,1.40588,0.0282019,0.0264719,629,1338,-5.47345,-1.40342
-588,-314,-5.55371,1.53796,-0.00378695,0.0241118,0.00542669,0.0251302,-0.00480534,1.38529,0.0185638,0.0143705,636,1338,-5.55372,-1.53793
-581,-314,-5.53607,1.70251,-0.00305891,0.0143205,0.00395004,0.0151761,-0.00391456,1.35747,0.0116437,0.0136021,643,1338,-5.53607,-1.70252
-574,-314,-5.5625,1.83545,-0.00240268,0.00762602,0.00224707,0.00810649,-0.00288314,1.36015,0.00657942,0.0128335,650,1338,-5.56247,-1.8355
-567,-314,-5.55786,2.02185,-0.00201014,0.0034352,0.0007142,0.00352731,-0.00210225,1.44253,0.00328476,0.0128421,657,1338,-5.55786,-2.02187
-560,-314,-5.52911,2.21509,-0.00229742,0.00121507,-0.000571143,0.00130561,-0.00238795,-1.41359,0.00216278,0.0132762,664,1338,-5.52912,-2.21514
-553,-314,-5.53369,2.3573,-0.00336218,0.000866814,-0.00177929,0.00151582,-0.00401119,-1.22104,0.00329765,0.0152286,671,1338,-5.53369,-2.35731
-546,-314,-5.56653,2.5321,-0.00512725,0.0022922,-0.00255301,0.0030858,-0.00592085,-1.26942,0.00528517,0.0159621,678,1338,-5.56654,-2.53216
-539,-314,-5.53467,2.73267,-0.00824925,0.00465811,-0.00273158,0.00521239,-0.00880353,-1.3706,0.00818016,0.0156598,685,1338,-5.53467,-2.73268
-532,-314,-5.44501,2.92346,-0.012223,0.00777443,-0.0029983,0.0082143,-0.0126628,-1.42513,0.0121443,0.0219723,692,1338,-5.44503,-2.92347
-525,-314,-5.65985,3.03381,-0.016754,0.0119018,-0.00296176,0.0122047,-0.0170569,-1.46888,0.0169715,0.037716,699,1338,-5.65985,-3.03386
-518,-314,-5.81763,3.17114,-0.0219803,0.0170149,-0.002124,0.0171302,-0.0220956,-1.51654,0.0227074,0.0438432,706,1338,-5.81763,-3.17113
-511,-314,-6.03485,3.30542,0,0,0,0,0,0,0,-1,713,1338,-6.03482,-3.30547
-504,-314,-6.55859,0.286255,0,0,0,0,0,0,0,-1,720,1338,-6.55857,-0.286298
-497,-314,-5.54926,-0.472168,0,0,0,0,0,0,0,-1,727,1338,-5.54928,0.472229
-490,-314,-6.6568,-2.41138,0,0,0,0,0,0,0,-1,734,1338,-6.65682,2.41141
-483,-314,-6.90491,-1.62268,0,0,0,0,0,0,0,-1,741,1338,-6.90491,1.6227
-476,-314,-7.24506,-0.844604,-0.0682133,0.0706674,0.0153487,0.0723434,-0.0698894,1.46203,0.0821222,0.0463771,748,1338,-7.24506,0.844544
-469,-314,-7.72278,-0.262085,-0.0788829,0.0835211,0.0205502,0.0860811,-0.081443,1.44686,0.0967324,0.0431852,755,1338,-7.72276,0.262118
-462,-314,0,0,0,0,0,0,0,0,0,-1,762,1338,0,0
-455,-314,0,0,0,0,0,0,0,0,0,-1,769,1338,0,0
-448,-314,0,0,0,0,0,0,0,0,0,-1,776,1338,0,0
-441,-314,0,0,0,0,0,0,0,0,0,-1,783,1338,0,0
-434,-314,0,0,0,0,0,0,0,0,0,-1,790,1338,0,0
-427,-314,0,0,0,0,0,0,0,0,0,-1,797,1338,0,0
-420,-314,0,0,0,0,0,0,0,0,0,-1,804,1338,0,0
-413,-314,0,0,0,0,0,0,0,0,0,-1,811,1338,0,0
-406,-314,0,0,0,0,0,0,0,0,0,-1,818,1338,0,0
-399,-314,0,0,0,0,0,0,0,0,0,-1,825,1338,0,0
-392,-314,0,0,0,0,0,0,0,0,0,-1,832,1338,0,0
-385,-314,0,0,0,0,0,0,0,0,0,-1,839,1338,0,0
-378,-314,0,0,0,0,0,0,0,0,0,-1,846,1338,0,0
-371,-314,0,0,0,0,0,0,0,0,0,-1,853,1338,0,0
-364,-314,0,0,0,0,0,0,0,0,0,-1,860,1338,0,0
-357,-314,0,0,0,0,0,0,0,0,0,-1,867,1338,0,0
-350,-314,0,0,0,0,0,0,0,0,0,-1,874,1338,0,0
-343,-314,0,0,0,0,0,0,0,0,0,-1,881,1338,0,0
-336,-314,0,0,0,0,0,0,0,0,0,-1,888,1338,0,0
-329,-314,0,0,0,0,0,0,0,0,0,-1,895,1338,0,0
-322,-314,0,0,0,0,0,0,0,0,0,-1,902,1338,0,0
-315,-314,0,0,0,0,0,0,0,0,0,-1,909,1338,0,0
-308,-314,0,0,0,0,0,0,0,0,0,-1,916,1338,0,0
-301,-314,0,0,0,0,0,0,0,0,0,-1,923,1338,0,0
-294,-314,0,0,0,0,0,0,0,0,0,-1,930,1338,0,0
-287,-314,0,0,0,0,0,0,0,0,0,-1,937,1338,0,0
-280,-314,0,0,0,0,0,0,0,0,0,-1,944,1338,0,0
-273,-314,0,0,0,0,0,0,0,0,0,-1,951,1338,0,0
-266,-314,0,0,0,0,0,0,0,0,0,-1,958,1338,0,0
-259,-314,0,0,0,0,0,0,0,0,0,-1,965,1338,0,0
-252,-314,0,0,0,0,0,0,0,0,0,-1,972,1338,0,0
-245,-314,0,0,0,0,0,0,0,0,0,-1,979,1338,0,0
-238,-314,0,0,0,0,0,0,0,0,0,-1,986,1338,0,0
-231,-314,0,0,0,0,0,0,0,0,0,-1,993,1338,0,0
-224,-314,0,0,0,0,0,0,0,0,0,-1,1000,1338,0,0
-217,-314,0,0,0,0,0,0,0,0,0,-1,1007,1338,0,0
-210,-314,0,0,0,0,0,0,0,0,0,-1,1014,1338,0,0
-203,-314,0,0,0,0,0,0,0,0,0,-1,1021,1338,0,0
-196,-314,0,0,0,0,0,0,0,0,0,-1,1028,1338,0,0
-189,-314,0,0,0,0,0,0,0,0,0,-1,1035,1338,0,0
-182,-314,0,0,0,0,0,0,0,0,0,-1,1042,1338,0,0
-175,-314,0,0,0,0,0,0,0,0,0,-1,1049,1338,0,0
-168,-314,0,0,0,0,0,0,0,0,0,-1,1056,1338,0,0
-161,-314,0,0,0,0,0,0,0,0,0,-1,1063,1338,0,0
-154,-314,0,0,0,0,0,0,0,0,0,-1,1070,1338,0,0
-147,-314,0,0,0,0,0,0,0,0,0,-1,1077,1338,0,0
-140,-314,0,0,0,0,0,0,0,0,0,-1,1084,1338,0,0
-133,-314,0,0,0,0,0,0,0,0,0,-1,1091,1338,0,0
-126,-314,0,0,0,0,0,0,0,0,0,-1,1098,1338,0,0
-119,-314,0,0,0,0,0,0,0,0,0,-1,1105,1338,0,0
-112,-314,0,0,0,0,0,0,0,0,0,-1,1112,1338,0,0
-105,-314,0,0,0,0,0,0,0,0,0,-1,1119,1338,0,0
-98,-314,0,0,0,0,0,0,0,0,0,-1,1126,1338,0,0
-91,-314,0,0,0,0,0,0,0,0,0,-1,1133,1338,0,0
-84,-314,0,0,0,0,0,0,0,0,0,-1,1140,1338,0,0
-77,-314,0,0,0,0,0,0,0,0,0,-1,1147,1338,0,0
-70,-314,0,0,0,0,0,0,0,0,0,-1,1154,1338,0,0
-63,-314,0,0,0,0,0,0,0,0,0,-1,1161,1338,0,0
-56,-314,0,0,0,0,0,0,0,0,0,-1,1168,1338,0,0
-49,-314,0,0,0,0,0,0,0,0,0,-1,1175,1338,0,0
-42,-314,0,0,0,0,0,0,0,0,0,-1,1182,1338,0,0
-35,-314,0,0,0,0,0,0,0,0,0,-1,1189,1338,0,0
-28,-314,0,0,0,0,0,0,0,0,0,-1,1196,1338,0,0
-21,-314,0,0,0,0,0,0,0,0,0,-1,1203,1338,0,0
-14,-314,0,0,0,0,0,0,0,0,0,-1,1210,1338,0,0
-7,-314,0,0,0,0,0,0,0,0,0,-1,1217,1338,0,0
0,-314,0,0,0,0,0,0,0,0,0,-1,1224,1338,0,0
7,-314,0,0,0,0,0,0,0,0,0,-1,1231,1338,0,0
14,-314,0,0,0,0,0,0,0,0,0,-1,1238,1338,0,0
21,-314,0,0,0,0,0,0,0,0,0,-1,1245,1338,0,0
28,-314,0,0,0,0,0,0,0,0,0,-1,1252,1338,0,0
35,-314,0,0,0,0,0,0,0,0,0,-1,1259,1338,0,0
42,-314,0,0,0,0,0,0,0,0,0,-1,1266,1338,0,0
49,-314,0,0,0,0,0,0,0,0,0,-1,1273,1338,0,0
56,-314,0,0,0,0,0,0,0,0,0,-1,1280,1338,0,0
63,-314,0,0,0,0,0,0,0,0,0,-1,1287,1338,0,0
70,-314,0,0,0,0,0,0,0,0,0,-1,1294,1338,0,0
77,-314,0,0,0,0,0,0,0,0,0,-1,1301,1338,0,0
84,-314,0,0,0,0,0,0,0,0,0,-1,1308,1338,0,0
91,-314,0,0,0,0,0,0,0,0,0,-1,1315,1338,0,0
98,-314,0,0,0,0,0,0,0,0,0,-1,1322,1338,0,0
105,-314,0,0,0,0,0,0,0,0,0,-1,1329,1338,0,0
112,-314,0,0,0,0,0,0,0,0,0,-1,1336,1338,0,0
119,-314,0,0,0,0,0,0,0,0,0,-1,1343,1338,0,0
126,-314,0,0,0,0,0,0,0,0,0,-1,1350,1338,0,0
133,-314,0,0,0,0,0,0,0,0,0,-1,1357,1338,0,0
140,-314,0,0,0,0,0,0,0,0,0,-1,1364,1338,0,0
147,-314,0,0,0,0,0,0,0,0,0,-1,1371,1338,0,0
154,-314,0,0,0,0,0,0,0,0,0,-1,1378,1338,0,0
161,-314,0,0,0,0,0,0,0,0,0,-1,1385,1338,0,0
168,-314,0,0,0,0,0,0,0,0,0,-1,1392,1338,0,0
175,-314,0,0,0,0,0,0,0,0,0,-1,1399,1338,0,0
182,-314,0,0,0,0,0,0,0,0,0,-1,1406,1338,0,0
189,-314,0,0,0,0,0,0,0,0,0,-1,1413,1338,0,0
196,-314,0,0,0,0,0,0,0,0,0,-1,1420,1338,0,0
203,-314,0,0,0,0,0,0,0,0,0,-1,1427,1338,0,0
210,-314,0,0,0,0,0,0,0,0,0,-1,1434,1338,0,0
217,-314,0,0,0,0,0,0,0,0,0,-1,1441,1338,0,0
224,-314,0,0,0,0,0,0,0,0,0,-1,1448,1338,0,0
231,-314,0,0,0,0,0,0,0,0,0,-1,1455,1338,0,0
238,-314,0,0,0,0,0,0,0,0,0,-1,1462,1338,0,0
245,-314,0,0,0,0,0,0,0,0,0,-1,1469,1338,0,0
252,-314,0,0,0,0,0,0,0,0,0,-1,1476,1338,0,0
259,-314,0,0,0,0,0,0,0,0,0,-1,1483,1338,0,0
266,-314,0,0,0,0,0,0,0,0,0,-1,1490,1338,0,0
273,-314,0,0,0,0,0,0,0,0,0,-1,1497,1338,0,0
280,-314,0,0,0,0,0,0,0,0,0,-1,1504,1338,0,0
287,-314,0,0,0,0,0,0,0,0,0,-1,1511,1338,0,0
294,-314,0,0,0,0,0,0,0,0,0,-1,1518,1338,0,0
301,-314,0,0,0,0,0,0,0,0,0,-1,1525,1338,0,0
308,-314,0,0,0,0,0,0,0,0,0,-1,1532,1338,0,0
315,-314,0,0,0,0,0,0,0,0,0,-1,1539,1338,0,0
322,-314,0,0,0,0,0,0,0,0,0,-1,1546,1338,0,0
329,-314,0,0,0,0,0,0,0,0,0,-1,1553,1338,0,0
336,-314,0,0,0,0,0,0,0,0,0,-1,1560,1338,0,0
343,-314,0,0,0,0,0,0,0,0,0,-1,1567,1338,0,0
350,-314,0,0,0,0,0,0,0,0,0,-1,1574,1338,0,0
357,-314,0,0,0,0,0,0,0,0,0,-1,1581,1338,0,0
364,-314,0,0,0,0,0,0,0,0,0,-1,1588,1338,0,0
371,-314,0,0,0,0,0,0,0,0,0,-1,1595,1338,0,0
378,-314,0,0,0,0,0,0,0,0,0,-1,1602,1338,0,0
385,-314,0,0,0,0,0,0,0,0,0,-1,1609,1338,0,0
392,-314,0,0,0,0,0,0,0,0,0,-1,1616,1338,0,0
399,-314,0,0,0,0,0,0,0,0,0,-1,1623,1338,0,0
406,-314,0,0,0,0,0,0,0,0,0,-1,1630,1338,0,0
413,-314,0,0,0,0,0,0,0,0,0,-1,1637,1338,0,0
420,-314,0,0,0,0,0,0,0,0,0,-1,1644,1338,0,0
427,-314,0,0,0,0,0,0,0,0,0,-1,1651,1338,0,0
434,-314,0,0,0,0,0,0,0,0,0,-1,1658,1338,0,0
441,-314,0,0,0,0,0,0,0,0,0,-1,1665,1338,0,0
448,-314,0,0,0,0,0,0,0,0,0,-1,1672,1338,0,0
455,-314,0,0,0,0,0,0,0,0,0,-1,1679,1338,0,0
462,-314,0,0,0,0,0,0,0,0,0,-1,1686,1338,0,0
469,-314,0,0,0,0,0,0,0,0,0,-1,1693,1338,0,0
476,-314,0,0,0,0,0,0,0,0,0,-1,1700,1338,0,0
483,-314,0,0,0,0,0,0,0,0,0,-1,1707,1338,0,0
490,-314,0,0,0,0,0,0,0,0,0,-1,1714,1338,0,0
497,-314,0,0,0,0,0,0,0,0,0,-1,1721,1338,0,0
504,-314,0,0,0,0,0,0,0,0,0,-1,1728,1338,0,0
511,-314,0,0,0,0,0,0,0,0,0,-1,1735,1338,0,0
518,-314,0,0,0,0,0,0,0,0,0,-1,1742,1338,0,0
525,-314,0,0,0,0,0,0,0,0,0,-1,1749,1338,0,0
532,-314,0,0,0,0,0,0,0,0,0,-1,1756,1338,0,0
539,-314,0,0,0,0,0,0,0,0,0,-1,1763,1338,0,0
546,-314,0,0,0,0,0,0,0,0,0,-1,1770,1338,0,0
553,-314,0,0,0,0,0,0,0,0,0,-1,1777,1338,0,0
560,-314,0,0,0,0,0,0,0,0,0,-1,1784,1338,0,0
567,-314,0,0,0,0,0,0,0,0,0,-1,1791,1338,0,0
574,-314,0,0,0,0,0,0,0,0,0,-1,1798,1338,0,0
581,-314,14.3008,-3.00049,0,0,0,0,0,0,0,-1,1805,1338,14.3008,3.00048
588,-314,17.5441,1.80469,0,0,0,0,0,0,0,-1,1812,1338,17.5441,-1.80465
595,-314,16.8735,1.70032,0.0112845,-0.0240393,0.019999,0.0203041,-0.0330589,0.423687,0.0311011,0.0452579,1819,1338,16.8735,-1.70029
602,-314,16.207,1.60437,4.93316e-05,-0.012451,0.0241769,0.0187709,-0.0311726,0.658908,0.0291297,0.0449603,1826,1338,16.2071,-1.60435
609,-314,15.5052,1.56909,-0.00656604,-0.00468696,0.0261804,0.0205708,-0.0318238,0.803334,0.0304817,0.0432552,1833,1338,15.5052,-1.5691
616,-314,15.098,1.79883,0,0,0,0,0,0,0,-1,1840,1338,15.098,-1.79888
623,-314,14.4948,0.106812,0,0,0,0,0,0,0,-1,1847,1338,14.4948,-0.10676
630,-314,12.7301,6.36804,0,0,0,0,0,0,0,-1,1854,1338,12.7301,-6.36808
637,-314,11.7664,4.80042,0,0,0,0,0,0,0,-1,1861,1338,11.7663,-4.80046
644,-314,12.093,4.55811,0,0,0,0,0,0,0,-1,1868,1338,12.093,-4.55811
651,-314,12.2507,4.61658,-0.012905,0.0078142,0.0187798,0.0189023,-0.0239931,1.03745,0.0248237,0.0458071,1875,1338,12.2507,-4.61652
658,-314,12.4836,4.62048,-0.0100423,0.00533483,0.016849,0.0161666,-0.020874,0.999448,0.0214429,0.0334171,1882,1338,12.4836,-4.62048
665,-314,12.3442,4.67139,-0.00732955,0.00293227,0.0134592,0.0122054,-0.0166026,0.967505,0.0166968,0.0142962,1889,1338,12.3442,-4.67141
672,-314,12.3641,4.55579,-0.0057253,0.00116282,0.00949286,0.00781707,-0.0123795,0.959417,0.0117593,0.0121207,1896,1338,12.3642,-4.55583
679,-314,12.3601,4.40662,-0.00430501,0.000121843,0.0063795,0.00466099,-0.00884416,0.95238,0.00792091,0.0100317,1903,1338,12.3601,-4.40665
686,-314,12.3583,4.2439,-0.00241496,-0.000445165,0.00377036,0.00246681,-0.00532693,0.913154,0.00459961,0.0110274,1910,1338,12.3583,-4.24395
693,-314,12.3677,4.08362,7.11304e-05,-0.000549655,0.00156564,0.00135685,-0.00183537,0.68754,0.00184992,0.0103874,1917,1338,12.3677,-4.08363
700,-314,12.37,3.94153,0.00392361,-0.000667771,-0.000511428,0.00397989,-0.000724049,-0.109599,0.00292464,0.0114462,1924,1338,12.37,-3.94154
707,-314,12.3481,3.79736,0.00921276,-7.76039e-05,-0.00270012,0.00994051,-0.000805353,-0.263268,0.00691112,0.0122115,1931,1338,12.3481,-3.7973
714,-314,12.3409,3.68921,0.0154347,0.000653938,-0.0045087,0.0167015,-0.000612819,-0.273897,0.0113441,0.0119249,1938,1338,12.341,-3.68921
721,-314,12.3733,3.56531,0.0230509,0.00110848,-0.00676585,0.0249694,-0.000809995,-0.276301,0.0169227,0.0162326,1945,1338,12.3733,-3.56536
728,-314,12.2893,3.41821,0.0332318,0.00162638,-0.00963916,0.0359396,-0.00108142,-0.273859,0.0243282,0.0243868,1952,1338,12.2893,-3.41816
735,-314,12.5869,3.22607,0.0467253,0.00244515,-0.0133113,0.0504187,-0.00124833,-0.270662,0.0340362,0.0346585,1959,1338,12.5869,-3.22605
742,-314,12.942,3.07275,0.0643443,0.00379256,-0.0179045,0.0692423,-0.00110543,-0.267028,0.0465344,0.0418564,1966,1338,12.942,-3.07274
749,-314,13.1744,2.96118,0.0867547,0.00597552,-0.0233763,0.0930317,-0.000301473,-0.262332,0.0621218,0.043932,1973,1338,13.1744,-2.96116
756,-314,13.5793,2.8501,0,0,0,0,0,0,0,-1,1980,1338,13.5794,-2.85009
763,-314,14.4559,2.5199,0,0,0,0,0,0,0,-1,1987,1338,14.456,-2.51991
770,-314,0,0,0,0,0,0,0,0,0,-1,1994,1338,0,0
777,-314,0,0,0,0,0,0,0,0,0,-1,2001,1338,0,0
784,-314,0,0,0,0,0,0,0,0,0,-1,2008,1338,0,0
791,-314,0,0,0,0,0,0,0,0,0,-1,2015,1338,0,0
798,-314,0,0,0,0,0,0,0,0,0,-1,2022,1338,0,0
805,-314,0,0,0,0,0,0,0,0,0,-1,2029,1338,0,0
812,-314,0,0,0,0,0,0,0,0,0,-1,2036,1338,0,0
-700,-321,0,0,0,0,0,0,0,0,0,-1,524,1345,0,0
-693,-321,0,0,0,0,0,0,0,0,0,-1,531,1345,0,0
-686,-321,0,0,0,0,0,0,0,0,0,-1,538,1345,0,0
-679,-321,0,0,0,0,0,0,0,0,0,-1,545,1345,0,0
-672,-321,0,0,0,0,0,0,0,0,0,-1,552,1345,0,0
-665,-321,0,0,0,0,0,0,0,0,0,-1,559,1345,0,0
-658,-321,0,0,0,0,0,0,0,0,0,-1,566,1345,0,0
-651,-321,0,0,0,0,0,0,0,0,0,-1,573,1345,0,0
-644,-321,-2.27301,-6.1167,0,0,0,0,0,0,0,-1,580,1345,-2.27299,6.1167
-637,-321,-2.91095,-5.22949,0,0,0,0,0,0,0,-1,587,1345,-2.91093,5.22947
-630,-321,-3.31909,-4.39758,-0.0235956,0.171522,0.0160166,0.172828,-0.0249016,1.48944,0.124353,0.0467761,594,1345,-3.31907,4.39761
-623,-321,-3.75092,-3.50854,-0.0180209,0.13737,0.0156242,0.138926,-0.0195763,1.47157,0.0997847,0.0482519,601,1345,-3.75093,3.5085
-616,-321,-4.26111,-2.25244,-0.0137556,0.10721,0.0142916,0.108876,-0.0154212,1.45478,0.0782326,0.0496798,608,1345,-4.26114,2.25244
-609,-321,-5.01965,-1.27991,0,0,0,0,0,0,0,-1,615,1345,-5.01963,1.2799
-602,-321,-5.44,1.60913,0,0,0,0,0,0,0,-1,622,1345,-5.44,-1.60914
-595,-321,-5.19373,1.42395,-0.00690214,0.0413639,0.00781614,0.042598,-0.00813632,1.41419,0.0314634,0.0439319,629,1345,-5.19371,-1.42391
-588,-321,-5.38782,1.49133,-0.00485052,0.0266066,0.00572688,0.0276168,-0.00586068,1.3962,0.020644,0.0161416,636,1345,-5.38784,-1.49129
-581,-321,-5.36829,1.69397,-0.00378424,0.0158294,0.00407038,0.0166405,-0.00459541,1.37409,0.0129013,0.0129488,643,1345,-5.36826,-1.69391
-574,-321,-5.38098,1.8363,-0.00283429,0.0083898,0.00223053,0.00881682,-0.00326132,1.38164,0.00721501,0.0143266,650,1345,-5.38096,-1.83625
-567,-321,-5.3725,2.05066,-0.00216655,0.00361143,0.000719393,0.00369965,-0.00225478,1.44877,0.00347136,0.0194639,657,1345,-5.37247,-2.05064
-560,-321,-5.37274,2.26172,-0.00217518,0.00101273,-0.000483743,0.00108451,-0.00224697,-1.42347,0.00196207,0.0225534,664,1345,-5.37276,-2.26172
-553,-321,-5.37848,2.35864,-0.00290006,0.000217164,-0.00162629,0.000911124,-0.00359402,-1.16747,0.00275049,0.0240337,671,1345,-5.37845,-2.35866
-546,-321,-5.39703,2.47742,-0.00403757,0.000960631,-0.00235634,0.00189633,-0.00497327,-1.19279,0.00409664,0.0244129,678,1345,-5.39703,-2.47748
-539,-321,-5.38312,2.67761,-0.00629417,0.00237505,-0.00259326,0.00309156,-0.00701069,-1.30122,0.00597705,0.0231752,685,1345,-5.38309,-2.67765
-532,-321,-5.29974,2.89587,-0.00953204,0.0045865,-0.00291225,0.00516362,-0.0101092,-1.37516,0.00897052,0.0170473,692,1345,-5.29975,-2.89593
-525,-321,-5.34235,3.14832,-0.0135091,0.00799164,-0.00298806,0.00839918,-0.0139166,-1.43524,0.0130146,0.026611,699,1345,-5.34235,-3.14833
-518,-321,-5.52008,3.18396,-0.0182691,0.0124793,-0.00228026,0.0126475,-0.0184372,-1.49717,0.0180502,0.0418947,706,1345,-5.52008,-3.18399
-511,-321,-5.70935,3.20728,-0.0240838,0.0192085,-0.000572287,0.0192161,-0.0240913,-1.55758,0.0250563,0.0431981,713,1345,-5.70934,-3.2073
-504,-321,-5.90961,3.56714,0,0,0,0,0,0,0,-1,720,1345,-5.90963,-3.56714
-497,-321,-5.02814,-0.774536,0,0,0,0,0,0,0,-1,727,1345,-5.02815,0.774507
-490,-321,-3.84106,-2.24878,0,0,0,0,0,0,0,-1,734,1345,-3.84105,2.24884
-483,-321,-5.98138,-1.91907,0,0,0,0,0,0,0,-1,741,1345,-5.98139,1.91904
-476,-321,-6.61816,-1.40076,-0.0659826,0.0673246,0.0150318,0.0689986,-0.0676565,1.45989,0.0788992,0.0472287,748,1345,-6.61814,1.40072
-469,-321,-7.26276,-0.69519,-0.0775435,0.0811746,0.0201641,0.0836963,-0.0800651,1.44639,0.0945554,0.0430108,755,1345,-7.26279,0.695205
-462,-321,-7.7442,0.416138,-0.090935,0.0969742,0.0258378,0.100462,-0.094423,1.43661,0.112535,0.0460838,762,1345,-7.7442,-0.41612
-455,-321,0,0,0,0,0,0,0,0,0,-1,769,1345,0,0
-448,-321,0,0,0,0,0,0,0,0,0,-1,776,1345,0,0
-441,-321,0,0,0,0,0,0,0,0,0,-1,783,1345,0,0
-434,-321,0,0,0,0,0,0,0,0,0,-1,790,1345,0,0
-427,-321,0,0,0,0,0,0,0,0,0,-1,797,1345,0,0
-420,-321,0,0,0,0,0,0,0,0,0,-1,804,1345,0,0
-413,-321,0,0,0,0,0,0,0,0,0,-1,811,1345,0,0
-406,-321,0,0,0,0,0,0,0,0,0,-1,818,1345,0,0
-399,-321,0,0,0,0,0,0,0,0,0,-1,825,1345,0,0
-392,-321,0,0,0,0,0,0,0,0,0,-1,832,1345,0,0
-385,-321,0,0,0,0,0,0,0,0,0,-1,839,1345,0,0
-378,-321,0,0,0,0,0,0,0,0,0,-1,846,1345,0,0
-371,-321,0,0,0,0,0,0,0,0,0,-1,853,1345,0,0
-364,-321,0,0,0,0,0,0,0,0,0,-1,860,1345,0,0
-357,-321,0,0,0,0,0,0,0,0,0,-1,867,1345,0,0
-350,-321,0,0,0,0,0,0,0,0,0,-1,874,1345,0,0
-343,-321,0,0,0,0,0,0,0,0,0,-1,881,1345,0,0
-336,-321,0,0,0,0,0,0,0,0,0,-1,888,1345,0,0
-329,-321,0,0,0,0,0,0,0,0,0,-1,895,1345,0,0
-322,-321,0,0,0,0,0,0,0,0,0,-1,902,1345,0,0
-315,-321,0,0,0,0,0,0,0,0,0,-1,909,1345,0,0
-308,-321,0,0,0,0,0,0,0,0,0,-1,916,1345,0,0
-301,-321,0,0,0,0,0,0,0,0,0,-1,923,1345,0,0
-294,-321,0,0,0,0,0,0,0,0,0,-1,930,1345,0,0
-287,-321,0,0,0,0,0,0,0,0,0,-1,937,1345,0,0
-280,-321,0,0,0,0,0,0,0,0,0,-1,944,1345,0,0
-273,-321,0,0,0,0,0,0,0,0,0,-1,951,1345,0,0
-266,-321,0,0,0,0,0,0,0,0,0,-1,958,1345,0,0
-259,-321,0,0,0,0,0,0,0,0,0,-1,965,1345,0,0
-252,-321,0,0,0,0,0,0,0,0,0,-1,972,1345,0,0
-245,-321,0,0,0,0,0,0,0,0,0,-1,979,1345,0,0
-238,-321,0,0,0,0,0,0,0,0,0,-1,986,1345,0,0
-231,-321,0,0,0,0,0,0,0,0,0,-1,993,1345,0,0
-224,-321,0,0,0,0,0,0,0,0,0,-1,1000,1345,0,0
-217,-321,0,0,0,0,0,0,0,0,0,-1,1007,1345,0,0
-210,-321,0,0,0,0,0,0,0,0,0,-1,1014,1345,0,0
-203,-321,0,0,0,0,0,0,0,0,0,-1,1021,1345,0,0
-196,-321,0,0,0,0,0,0,0,0,0,-1,1028,1345,0,0
-189,-321,0,0,0,0,0,0,0,0,0,-1,1035,1345,0,0
-182,-321,0,0,0,0,0,0,0,0,0,-1,1042,1345,0,0
-175,-321,0,0,0,0,0,0,0,0,0,-1,1049,1345,0,0
-168,-321,0,0,0,0,0,0,0,0,0,-1,1056,1345,0,0
-161,-321,0,0,0,0,0,0,0,0,0,-1,1063,1345,0,0
-154,-321,0,0,0,0,0,0,0,0,0,-1,1070,1345,0,0
-147,-321,0,0,0,0,0,0,0,0,0,-1,1077,1345,0,0
-140,-321,0,0,0,0,0,0,0,0,0,-1,1084,1345,0,0
-133,-321,0,0,0,0,0,0,0,0,0,-1,1091,1345,0,0
-126,-321,0,0,0,0,0,0,0,0,0,-1,1098,1345,0,0
-119,-321,0,0,0,0,0,0,0,0,0,-1,1105,1345,0,0
-112,-321,0,0,0,0,0,0,0,0,0,-1,1112,1345,0,0
-105,-321,0,0,0,0,0,0,0,0,0,-1,1119,1345,0,0
-98,-321,0,0,0,0,0,0,0,0,0,-1,1126,1345,0,0
-91,-321,0,0,0,0,0,0,0,0,0,-1,1133,1345,0,0
-84,-321,0,0,0,0,0,0,0,0,0,-1,1140,1345,0,0
-77,-321,0,0,0,0,0,0,0,0,0,-1,1147,1345,0,0
-70,-321,0,0,0,0,0,0,0,0,0,-1,1154,1345,0,0
-63,-321,0,0,0,0,0,0,0,0,0,-1,1161,1345,0,0
-56,-321,0,0,0,0,0,0,0,0,0,-1,1168,1345,0,0
-49,-321,0,0,0,0,0,0,0,0,0,-1,1175,1345,0,0
-42,-321,0,0,0,0,0,0,0,0,0,-1,1182,1345,0,0
-35,-321,0,0,0,0,0,0,0,0,0,-1,1189,1345,0,0
-28,-321,0,0,0,0,0,0,0,0,0,-1,1196,1345,0,0
-21,-321,0,0,0,0,0,0,0,0,0,-1,1203,1345,0,0
-14,-321,0,0,0,0,0,0,0,0,0,-1,1210,1345,0,0
-7,-321,0,0,0,0,0,0,0,0,0,-1,1217,1345,0,0
0,-321,0,0,0,0,0,0,0,0,0,-1,1224,1345,0,0
7,-321,0,0,0,0,0,0,0,0,0,-1,1231,1345,0,0
14,-321,0,0,0,0,0,0,0,0,0,-1,1238,1345,0,0
21,-321,0,0,0,0,0,0,0,0,0,-1,1245,1345,0,0
28,-321,0,0,0,0,0,0,0,0,0,-1,1252,1345,0,0
35,-321,0,0,0,0,0,0,0,0,0,-1,1259,1345,0,0
42,-321,0,0,0,0,0,0,0,0,0,-1,1266,1345,0,0
49,-321,0,0,0,0,0,0,0,0,0,-1,1273,1345,0,0
56,-321,0,0,0,0,0,0,0,0,0,-1,1280,1345,0,0
63,-321,0,0,0,0,0,0,0,0,0,-1,1287,1345,0,0
70,-321,0,0,0,0,0,0,0,0,0,-1,1294,1345,0,0
77,-321,0,0,0,0,0,0,0,0,0,-1,1301,1345,0,0
84,-321,0,0,0,0,0,0,0,0,0,-1,1308,1345,0,0
91,-321,0,0,0,0,0,0,0,0,0,-1,1315,1345,0,0
98,-321,0,0,0,0,0,0,0,0,0,-1,1322,1345,0,0
105,-321,0,0,0,0,0,0,0,0,0,-1,1329,1345,0,0
112,-321,0,0,0,0,0,0,0,0,0,-1,1336,1345,0,0
119,-321,0,0,0,0,0,0,0,0,0,-1,1343,1345,0,0
126,-321,0,0,0,0,0,0,0,0,0,-1,1350,1345,0,0
133,-321,0,0,0,0,0,0,0,0,0,-1,1357,1345,0,0
140,-321,0,0,0,0,0,0,0,0,0,-1,1364,1345,0,0
147,-321,0,0,0,0,0,0,0,0,0,-1,1371,1345,0,0
154,-321,0,0,0,0,0,0,0,0,0,-1,1378,1345,0,0
161,-321,0,0,0,0,0,0,0,0,0,-1,1385,1345,0,0
168,-321,0,0,0,0,0,0,0,0,0,-1,1392,1345,0,0
175,-321,0,0,0,0,0,0,0,0,0,-1,1399,1345,0,0
182,-321,0,0,0,0,0,0,0,0,0,-1,1406,1345,0,0
189,-321,0,0,0,0,0,0,0,0,0,-1,1413,1345,0,0
196,-321,0,0,0,0,0,0,0,0,0,-1,1420,1345,0,0
203,-321,0,0,0,0,0,0,0,0,0,-1,1427,1345,0,0
210,-321,0,0,0,0,0,0,0,0,0,-1,1434,1345,0,0
217,-321,0,0,0,0,0,0,0,0,0,-1,1441,1345,0,0
224,-321,0,0,0,0,0,0,0,0,0,-1,1448,1345,0,0
231,-321,0,0,0,0,0,0,0,0,0,-1,1455,1345,0,0
238,-321,0,0,0,0,0,0,0,0,0,-1,1462,1345,0,0
245,-321,0,0,0,0,0,0,0,0,0,-1,1469,1345,0,0
252,-321,0,0,0,0,0,0,0,0,0,-1,1476,1345,0,0
259,-321,0,0,0,0,0,0,0,0,0,-1,1483,1345,0,0
266,-321,0,0,0,0,0,0,0,0,0,-1,1490,1345,0,0
273,-321,0,0,0,0,0,0,0,0,0,-1,1497,1345,0,0
280,-321,0,0,0,0,0,0,0,0,0,-1,1504,1345,0,0
287,-321,0,0,0,0,0,0,0,0,0,-1,1511,1345,0,0
294,-321,0,0,0,0,0,0,0,0,0,-1,1518,1345,0,0
301,-321,0,0,0,0,0,0,0,0,0,-1,1525,1345,0,0
308,-321,0,0,0,0,0,0,0,0,0,-1,1532,1345,0,0
315,-321,0,0,0,0,0,0,0,0,0,-1,1539,1345,0,0
322,-321,0,0,0,0,0,0,0,0,0,-1,1546,1345,0,0
329,-321,0,0,0,0,0,0,0,0,0,-1,1553,1345,0,0
336,-321,0,0,0,0,0,0,0,0,0,-1,1560,1345,0,0
343,-321,0,0,0,0,0,0,0,0,0,-1,1567,1345,0,0
350,-321,0,0,0,0,0,0,0,0,0,-1,1574,1345,0,0
357,-321,0,0,0,0,0,0,0,0,0,-1,1581,1345,0,0
364,-321,0,0,0,0,0,0,0,0,0,-1,1588,1345,0,0
371,-321,0,0,0,0,0,0,0,0,0,-1,1595,1345,0,0
378,-321,0,0,0,0,0,0,0,0,0,-1,1602,1345,0,0
385,-321,0,0,0,0,0,0,0,0,0,-1,1609,1345,0,0
392,-321,0,0,0,0,0,0,0,0,0,-1,1616,1345,0,0
399,-321,0,0,0,0,0,0,0,0,0,-1,1623,1345,0,0
406,-321,0,0,0,0,0,0,0,0,0,-1,1630,1345,0,0
413,-321,0,0,0,0,0,0,0,0,0,-1,1637,1345,0,0
420,-321,0,0,0,0,0,0,0,0,0,-1,1644,1345,0,0
427,-321,0,0,0,0,0,0,0,0,0,-1,1651,1345,0,0
434,-321,0,0,0,0,0,0,0,0,0,-1,1658,1345,0,0
441,-321,0,0,0,0,0,0,0,0,0,-1,1665,1345,0,0
448,-321,0,0,0,0,0,0,0,0,0,-1,1672,1345,0,0
455,-321,0,0,0,0,0,0,0,0,0,-1,1679,1345,0,0
462,-321,0,0,0,0,0,0,0,0,0,-1,1686,1345,0,0
469,-321,0,0,0,0,0,0,0,0,0,-1,1693,1345,0,0
476,-321,0,0,0,0,0,0,0,0,0,-1,1700,1345,0,0
483,-321,0,0,0,0,0,0,0,0,0,-1,1707,1345,0,0
490,-321,0,0,0,0,0,0,0,0,0,-1,1714,1345,0,0
497,-321,0,0,0,0,0,0,0,0,0,-1,1721,1345,0,0
504,-321,0,0,0,0,0,0,0,0,0,-1,1728,1345,0,0
511,-321,0,0,0,0,0,0,0,0,0,-1,1735,1345,0,0
518,-321,0,0,0,0,0,0,0,0,0,-1,1742,1345,0,0
525,-321,0,0,0,0,0,0,0,0,0,-1,1749,1345,0,0
532,-321,0,0,0,0,0,0,0,0,0,-1,1756,1345,0,0
539,-321,0,0,0,0,0,0,0,0,0,-1,1763,1345,0,0
546,-321,0,0,0,0,0,0,0,0,0,-1,1770,1345,0,0
553,-321,0,0,0,0,0,0,0,0,0,-1,1777,1345,0,0
560,-321,0,0,0,0,0,0,0,0,0,-1,1784,1345,0,0
567,-321,0,0,0,0,0,0,0,0,0,-1,1791,1345,0,0
574,-321,0,0,0,0,0,0,0,0,0,-1,1798,1345,0,0
581,-321,14.4569,-2.3606,0.0415202,-0.058751,0.0175014,0.0444871,-0.061718,0.167928,0.061586,0.0429169,1805,1345,14.4569,2.3606
588,-321,17.751,1.26843,0,0,0,0,0,0,0,-1,1812,1345,17.751,-1.26841
595,-321,17.113,1.4978,0,0,0,0,0,0,0,-1,1819,1345,17.1131,-1.49774
602,-321,16.4598,1.22388,0,0,0,0,0,0,0,-1,1826,1345,16.4599,-1.2239
609,-321,15.2729,1.22778,-0.00588176,-0.0117075,0.0292897,0.0206396,-0.0382288,0.735836,0.0344897,0.0448969,1833,1345,15.2729,-1.22783
616,-321,14.8698,2.26367,0,0,0,0,0,0,0,-1,1840,1345,14.8697,-2.26367
623,-321,13.2556,6.45654,0,0,0,0,0,0,0,-1,1847,1345,13.2556,-6.4566
630,-321,13.2549,5.8949,0,0,0,0,0,0,0,-1,1854,1345,13.2549,-5.8949
637,-321,12.9709,4.96228,0,0,0,0,0,0,0,-1,1861,1345,12.9709,-4.96228
644,-321,12.7653,4.60901,0,0,0,0,0,0,0,-1,1868,1345,12.7652,-4.60896
651,-321,12.4841,4.74304,0,0,0,0,0,0,0,-1,1875,1345,12.4841,-4.74308
658,-321,12.2568,4.78198,-0.00949422,0.00267498,0.0161325,0.0138321,-0.0206514,0.965732,0.0200384,0.02689,1882,1345,12.2569,-4.78201
665,-321,12.2017,4.68555,-0.00660855,0.000903257,0.0123228,0.0100298,-0.0157351,0.933323,0.0149964,0.0154276,1889,1345,12.2017,-4.68558
672,-321,12.2205,4.54773,-0.00487809,-0.000107504,0.00826355,0.00610813,-0.0110937,0.925905,0.0100696,0.0125463,1896,1345,12.2204,-4.54776
679,-321,12.2063,4.40588,-0.00342768,-0.000465831,0.00531696,0.00357259,-0.0074661,0.92122,0.00650399,0.010769,1903,1345,12.2063,-4.40587
686,-321,12.198,4.25269,-0.0014648,-0.000576803,0.00294676,0.00195922,-0.00400083,0.860173,0.00350768,0.0109352,1910,1345,12.198,-4.25266
693,-321,12.2152,4.10376,0.00099972,-0.000422584,0.000937286,0.00146511,-0.000887971,0.460864,0.0013721,0.0115802,1917,1345,12.2152,-4.10372
700,-321,12.2111,3.95508,0.00466377,-0.000492167,-0.000882451,0.00481062,-0.000639018,-0.164902,0.00343993,0.011207,1924,1345,12.211,-3.95512
707,-321,12.2089,3.80847,0.00974335,-0.000105089,-0.00284038,0.0105038,-0.00086556,-0.2616,0.00730817,0.0127465,1931,1345,12.2089,-3.8085
714,-321,12.2188,3.66394,0.0159003,0.000318663,-0.00439574,0.0170548,-0.000835874,-0.256848,0.0116585,0.0120781,1938,1345,12.2187,-3.66392
721,-321,12.2097,3.51904,0.023675,0.000338241,-0.00637538,0.0253031,-0.00128987,-0.25003,0.0173147,0.0166148,1945,1345,12.2097,-3.51901
728,-321,12.2056,3.46375,0.0341843,0.000304223,-0.00891165,0.0363854,-0.00189686,-0.242143,0.0249133,0.0264864,1952,1345,12.2055,-3.46371
735,-321,12.6796,3.33997,0.0482708,0.000370062,-0.0121363,0.0511702,-0.00252935,-0.234508,0.0349871,0.0404006,1959,1345,12.6796,-3.34002
742,-321,13.1134,3.22681,0,0,0,0,0,0,0,-1,1966,1345,13.1135,-3.22678
749,-321,12.5598,3.51099,0,0,0,0,0,0,0,-1,1973,1345,12.5599,-3.51093
756,-321,12.4208,3.60938,0,0,0,0,0,0,0,-1,1980,1345,12.4208,-3.60938
763,-321,14.6802,3.20972,0,0,0,0,0,0,0,-1,1987,1345,14.6802,-3.20975
770,-321,0,0,0,0,0,0,0,0,0,-1,1994,1345,0,0
777,-321,0,0,0,0,0,0,0,0,0,-1,2001,1345,0,0
784,-321,0,0,0,0,0,0,0,0,0,-1,2008,1345,0,0
791,-321,0,0,0,0,0,0,0,0,0,-1,2015,1345,0,0
798,-321,0,0,0,0,0,0,0,0,0,-1,2022,1345,0,0
805,-321,0,0,0,0,0,0,0,0,0,-1,2029,1345,0,0
812,-321,0,0,0,0,0,0,0,0,0,-1,2036,1345,0,0
-700,-328,0,0,0,0,0,0,0,0,0,-1,524,1352,0,0
-693,-328,0,0,0,0,0,0,0,0,0,-1,531,1352,0,0
-686,-328,0,0,0,0,0,0,0,0,0,-1,538,1352,0,0
-679,-328,0,0,0,0,0,0,0,0,0,-1,545,1352,0,0
-672,-328,0,0,0,0,0,0,0,0,0,-1,552,1352,0,0
-665,-328,0,0,0,0,0,0,0,0,0,-1,559,1352,0,0
-658,-328,0,0,0,0,0,0,0,0,0,-1,566,1352,0,0
-651,-328,0,0,0,0,0,0,0,0,0,-1,573,1352,0,0
-644,-328,0,0,0,0,0,0,0,0,0,-1,580,1352,0,0
-637,-328,-5.18195,-2.03491,0,0,0,0,0,0,0,-1,587,1352,-5.18195,2.03489
-630,-328,-2.66046,-5.87598,0,0,0,0,0,0,0,-1,594,1352,-2.66046,5.87593
-623,-328,-3.03381,-4.922,0,0,0,0,0,0,0,-1,601,1352,-3.03381,4.92202
-616,-328,-3.85254,-2.96362,0,0,0,0,0,0,0,-1,608,1352,-3.85252,2.96361
-609,-328,-4.36816,1.69629,0,0,0,0,0,0,0,-1,615,1352,-4.36818,-1.6963
-602,-328,-4.50317,1.77002,0,0,0,0,0,0,0,-1,622,1352,-4.5032,-1.77004
-595,-328,-5.34344,1.19421,0,0,0,0,0,0,0,-1,629,1352,-5.34345,-1.19419
-588,-328,-5.18384,1.43042,-0.00590735,0.0284198,0.00588195,0.0293997,-0.00688725,1.40572,0.0222537,0.0315964,636,1352,-5.18387,-1.4304
-581,-328,-5.19849,1.68726,-0.00453204,0.0168641,0.00400398,0.0175889,-0.00525678,1.39173,0.0138157,0.0136429,643,1352,-5.1985,-1.68726
-574,-328,-5.19293,1.8595,-0.00335269,0.00888217,0.00203796,0.0092127,-0.00368322,1.41001,0.00767021,0.0136509,650,1352,-5.19294,-1.85947
-567,-328,-5.19055,2.0575,-0.0024735,0.00374154,0.000553155,0.00379038,-0.00252235,1.48272,0.00366908,0.0190102,657,1352,-5.19053,-2.05744
-560,-328,-5.18408,2.25208,-0.00222938,0.000918837,-0.000549325,0.00101193,-0.00232248,-1.40292,0.00197407,0.0262936,664,1352,-5.18406,-2.25205
-553,-328,-5.21625,2.3783,-0.00268676,-0.000144479,-0.00162238,0.000645425,-0.00347666,-1.1177,0.00256018,0.0269923,671,1352,-5.21627,-2.3783
-546,-328,-5.22644,2.48962,-0.00331222,5.62425e-05,-0.00229343,0.00121744,-0.00447341,-1.10211,0.00346023,0.0257678,678,1352,-5.22643,-2.48962
-539,-328,-5.22052,2.67847,-0.00481963,0.000540902,-0.00258441,0.00158394,-0.00586267,-1.1872,0.0045297,0.0226324,685,1352,-5.22053,-2.67843
-532,-328,-5.19543,2.87793,-0.00730455,0.00179728,-0.00296553,0.00267824,-0.0081855,-1.28203,0.00653531,0.0160761,692,1352,-5.19545,-2.87796
-525,-328,-5.16876,3.09741,-0.0106639,0.00429023,-0.0032126,0.00495118,-0.0113249,-1.36789,0.00963416,0.0115275,699,1352,-5.16877,-3.09739
-518,-328,-5.12372,3.26074,-0.0148725,0.00791346,-0.00273108,0.00823623,-0.0151953,-1.45316,0.0137256,0.0307145,706,1352,-5.12374,-3.26079
-511,-328,-5.28839,3.15918,-0.0204351,0.014229,-0.0011492,0.014267,-0.0204732,-1.53769,0.0201637,0.0418113,713,1352,-5.2884,-3.15915
-504,-328,-5.57037,3.15784,-0.02697,0.0219516,0.00094678,0.02197,-0.0269883,1.55145,0.0283155,0.0478879,720,1352,-5.57034,-3.15788
-497,-328,-5.74048,3.26978,0,0,0,0,0,0,0,-1,727,1352,-5.74048,-3.26979
-490,-328,-3.62909,-2.71887,0,0,0,0,0,0,0,-1,734,1352,-3.62906,2.71886
-483,-328,-2.73615,-3.99951,0,0,0,0,0,0,0,-1,741,1352,-2.73615,3.99956
-476,-328,-5.86536,-2.12378,0,0,0,0,0,0,0,-1,748,1352,-5.86536,2.12379
-469,-328,-6.61218,-1.19482,-0.0763504,0.0768007,0.0189978,0.0791221,-0.0786719,1.44921,0.0911025,0.0451244,755,1352,-6.61217,1.19483
-462,-328,-7.12329,-0.12439,-0.0906052,0.0929887,0.0246323,0.0962361,-0.0938526,1.43972,0.109751,0.0453005,762,1352,-7.12331,0.124414
-455,-328,0,0,0,0,0,0,0,0,0,-1,769,1352,0,0
-448,-328,0,0,0,0,0,0,0,0,0,-1,776,1352,0,0
-441,-328,0,0,0,0,0,0,0,0,0,-1,783,1352,0,0
-434,-328,0,0,0,0,0,0,0,0,0,-1,790,1352,0,0
-427,-328,0,0,0,0,0,0,0,0,0,-1,797,1352,0,0
-420,-328,0,0,0,0,0,0,0,0,0,-1,804,1352,0,0
-413,-328,0,0,0,0,0,0,0,0,0,-1,811,1352,0,0
-406,-328,0,0,0,0,0,0,0,0,0,-1,818,1352,0,0
-399,-328,0,0,0,0,0,0,0,0,0,-1,825,1352,0,0
-392,-328,0,0,0,0,0,0,0,0,0,-1,832,1352,0,0
-385,-328,0,0,0,0,0,0,0,0,0,-1,839,1352,0,0
-378,-328,0,0,0,0,0,0,0,0,0,-1,846,1352,0,0
-371,-328,0,0,0,0,0,0,0,0,0,-1,853,1352,0,0
-364,-328,0,0,0,0,0,0,0,0,0,-1,860,1352,0,0
-357,-328,0,0,0,0,0,0,0,0,0,-1,867,1352,0,0
-350,-328,0,0,0,0,0,0,0,0,0,-1,874,1352,0,0
-343,-328,0,0,0,0,0,0,0,0,0,-1,881,1352,0,0
-336,-328,0,0,0,0,0,0,0,0,0,-1,888,1352,0,0
-329,-328,0,0,0,0,0,0,0,0,0,-1,895,1352,0,0
-322,-328,0,0,0,0,0,0,0,0,0,-1,902,1352,0,0
-315,-328,0,0,0,0,0,0,0,0,0,-1,909,1352,0,0
-308,-328,0,0,0,0,0,0,0,0,0,-1,916,1352,0,0
-301,-328,0,0,0,0,0,0,0,0,0,-1,923,1352,0,0
-294,-328,0,0,0,0,0,0,0,0,0,-1,930,1352,0,0
-287,-328,0,0,0,0,0,0,0,0,0,-1,937,1352,0,0
-280,-328,0,0,0,0,0,0,0,0,0,-1,944,1352,0,0
-273,-328,0,0,0,0,0,0,0,0,0,-1,951,1352,0,0
-266,-328,0,0,0,0,0,0,0,0,0,-1,958,1352,0,0
-259,-328,0,0,0,0,0,0,0,0,0,-1,965,1352,0,0
-252,-328,0,0,0,0,0,0,0,0,0,-1,972,1352,0,0
-245,-328,0,0,0,0,0,0,0,0,0,-1,979,1352,0,0
-238,-328,0,0,0,0,0,0,0,0,0,-1,986,1352,0,0
-231,-328,0,0,0,0,0,0,0,0,0,-1,993,1352,0,0
-224,-328,0,0,0,0,0,0,0,0,0,-1,1000,1352,0,0
-217,-328,0,0,0,0,0,0,0,0,0,-1,1007,1352,0,0
-210,-328,0,0,0,0,0,0,0,0,0,-1,1014,1352,0,0
-203,-328,0,0,0,0,0,0,0,0,0,-1,1021,1352,0,0
-196,-328,0,0,0,0,0,0,0,0,0,-1,1028,1352,0,0
-189,-328,0,0,0,0,0,0,0,0,0,-1,1035,1352,0,0
-182,-328,0,0,0,0,0,0,0,0,0,-1,1042,1352,0,0
-175,-328,0,0,0,0,0,0,0,0,0,-1,1049,1352,0,0
-168,-328,0,0,0,0,0,0,0,0,0,-1,1056,1352,0,0
-161,-328,0,0,0,0,0,0,0,0,0,-1,1063,1352,0,0
-154,-328,0,0,0,0,0,0,0,0,0,-1,1070,1352,0,0
-147,-328,0,0,0,0,0,0,0,0,0,-1,1077,1352,0,0
-140,-328,0,0,0,0,0,0,0,0,0,-1,1084,1352,0,0
-133,-328,0,0,0,0,0,0,0,0,0,-1,1091,1352,0,0
-126,-328,0,0,0,0,0,0,0,0,0,-1,1098,1352,0,0
-119,-328,0,0,0,0,0,0,0,0,0,-1,1105,1352,0,0
-112,-328,0,0,0,0,0,0,0,0,0,-1,1112,1352,0,0
-105,-328,0,0,0,0,0,0,0,0,0,-1,1119,1352,0,0
-98,-328,0,0,0,0,0,0,0,0,0,-1,1126,1352,0,0
-91,-328,0,0,0,0,0,0,0,0,0,-1,1133,1352,0,0
-84,-328,0,0,0,0,0,0,0,0,0,-1,1140,1352,0,0
-77,-328,0,0,0,0,0,0,0,0,0,-1,1147,1352,0,0
-70,-328,0,0,0,0,0,0,0,0,0,-1,1154,1352,0,0
-63,-328,0,0,0,0,0,0,0,0,0,-1,1161,1352,0,0
-56,-328,0,0,0,0,0,0,0,0,0,-1,1168,1352,0,0
-49,-328,0,0,0,0,0,0,0,0,0,-1,1175,1352,0,0
-42,-328,0,0,0,0,0,0,0,0,0,-1,1182,1352,0,0
-35,-328,0,0,0,0,0,0,0,0,0,-1,1189,1352,0,0
-28,-328,0,0,0,0,0,0,0,0,0,-1,1196,1352,0,0
-21,-328,0,0,0,0,0,0,0,0,0,-1,1203,1352,0,0
-14,-328,0,0,0,0,0,0,0,0,0,-1,1210,1352,0,0
-7,-328,0,0,0,0,0,0,0,0,0,-1,1217,1352,0,0
0,-328,0,0,0,0,0,0,0,0,0,-1,1224,1352,0,0
7,-328,0,0,0,0,0,0,0,0,0,-1,1231,1352,0,0
14,-328,0,0,0,0,0,0,0,0,0,-1,1238,1352,0,0
21,-328,0,0,0,0,0,0,0,0,0,-1,1245,1352,0,0
28,-328,0,0,0,0,0,0,0,0,0,-1,1252,1352,0,0
35,-328,0,0,0,0,0,0,0,0,0,-1,1259,1352,0,0
42,-328,0,0,0,0,0,0,0,0,0,-1,1266,1352,0,0
49,-328,0,0,0,0,0,0,0,0,0,-1,1273,1352,0,0
56,-328,0,0,0,0,0,0,0,0,0,-1,1280,1352,0,0
63,-328,0,0,0,0,0,0,0,0,0,-1,1287,1352,0,0
70,-328,0,0,0,0,0,0,0,0,0,-1,1294,1352,0,0
77,-328,0,0,0,0,0,0,0,0,0,-1,1301,1352,0,0
84,-328,0,0,0,0,0,0,0,0,0,-1,1308,1352,0,0
91,-328,0,0,0,0,0,0,0,0,0,-1,1315,1352,0,0
98,-328,0,0,0,0,0,0,0,0,0,-1,1322,1352,0,0
105,-328,0,0,0,0,0,0,0,0,0,-1,1329,1352,0,0
112,-328,0,0,0,0,0,0,0,0,0,-1,1336,1352,0,0
119,-328,0,0,0,0,0,0,0,0,0,-1,1343,1352,0,0
126,-328,0,0,0,0,0,0,0,0,0,-1,1350,1352,0,0
133,-328,0,0,0,0,0,0,0,0,0,-1,1357,1352,0,0
140,-328,0,0,0,0,0,0,0,0,0,-1,1364,1352,0,0
147,-328,0,0,0,0,0,0,0,0,0,-1,1371,1352,0,0
154,-328,0,0,0,0,0,0,0,0,0,-1,1378,1352,0,0
161,-328,0,0,0,0,0,0,0,0,0,-1,1385,1352,0,0
168,-328,0,0,0,0,0,0,0,0,0,-1,1392,1352,0,0
175,-328,0,0,0,0,0,0,0,0,0,-1,1399,1352,0,0
182,-328,0,0,0,0,0,0,0,0,0,-1,1406,1352,0,0
189,-328,0,0,0,0,0,0,0,0,0,-1,1413,1352,0,0
196,-328,0,0,0,0,0,0,0,0,0,-1,1420,1352,0,0
203,-328,0,0,0,0,0,0,0,0,0,-1,1427,1352,0,0
210,-328,0,0,0,0,0,0,0,0,0,-1,1434,1352,0,0
217,-328,0,0,0,0,0,0,0,0,0,-1,1441,1352,0,0
224,-328,0,0,0,0,0,0,0,0,0,-1,1448,1352,0,0
231,-328,0,0,0,0,0,0,0,0,0,-1,1455,1352,0,0
238,-328,0,0,0,0,0,0,0,0,0,-1,1462,1352,0,0
245,-328,0,0,0,0,0,0,0,0,0,-1,1469,1352,0,0
252,-328,0,0,0,0,0,0,0,0,0,-1,1476,1352,0,0
259,-328,0,0,0,0,0,0,0,0,0,-1,1483,1352,0,0
266,-328,0,0,0,0,0,0,0,0,0,-1,1490,1352,0,0
273,-328,0,0,0,0,0,0,0,0,0,-1,1497,1352,0,0
280,-328,0,0,0,0,0,0,0,0,0,-1,1504,1352,0,0
287,-328,0,0,0,0,0,0,0,0,0,-1,1511,1352,0,0
294,-328,0,0,0,0,0,0,0,0,0,-1,1518,1352,0,0
301,-328,0,0,0,0,0,0,0,0,0,-1,1525,1352,0,0
308,-328,0,0,0,0,0,0,0,0,0,-1,1532,1352,0,0
315,-328,0,0,0,0,0,0,0,0,0,-1,1539,1352,0,0
322,-328,0,0,0,0,0,0,0,0,0,-1,1546,1352,0,0
329,-328,0,0,0,0,0,0,0,0,0,-1,1553,1352,0,0
336,-328,0,0,0,0,0,0,0,0,0,-1,1560,1352,0,0
343,-328,0,0,0,0,0,0,0,0,0,-1,1567,1352,0,0
350,-328,0,0,0,0,0,0,0,0,0,-1,1574,1352,0,0
357,-328,0,0,0,0,0,0,0,0,0,-1,1581,1352,0,0
364,-328,0,0,0,0,0,0,0,0,0,-1,1588,1352,0,0
371,-328,0,0,0,0,0,0,0,0,0,-1,1595,1352,0,0
378,-328,0,0,0,0,0,0,0,0,0,-1,1602,1352,0,0
385,-328,0,0,0,0,0,0,0,0,0,-1,1609,1352,0,0
392,-328,0,0,0,0,0,0,0,0,0,-1,1616,1352,0,0
399,-328,0,0,0,0,0,0,0,0,0,-1,1623,1352,0,0
406,-328,0,0,0,0,0,0,0,0,0,-1,1630,1352,0,0
413,-328,0,0,0,0,0,0,0,0,0,-1,1637,1352,0,0
420,-328,0,0,0,0,0,0,0,0,0,-1,1644,1352,0,0
427,-328,0,0,0,0,0,0,0,0,0,-1,1651,1352,0,0
434,-328,0,0,0,0,0,0,0,0,0,-1,1658,1352,0,0
441,-328,0,0,0,0,0,0,0,0,0,-1,1665,1352,0,0
448,-328,0,0,0,0,0,0,0,0,0,-1,1672,1352,0,0
455,-328,0,0,0,0,0,0,0,0,0,-1,1679,1352,0,0
462,-328,0,0,0,0,0,0,0,0,0,-1,1686,1352,0,0
469,-328,0,0,0,0,0,0,0,0,0,-1,1693,1352,0,0
476,-328,0,0,0,0,0,0,0,0,0,-1,1700,1352,0,0
483,-328,0,0,0,0,0,0,0,0,0,-1,1707,1352,0,0
490,-328,0,0,0,0,0,0,0,0,0,-1,1714,1352,0,0
497,-328,0,0,0,0,0,0,0,0,0,-1,1721,1352,0,0
504,-328,0,0,0,0,0,0,0,0,0,-1,1728,1352,0,0
511,-328,0,0,0,0,0,0,0,0,0,-1,1735,1352,0,0
518,-328,0,0,0,0,0,0,0,0,0,-1,1742,1352,0,0
525,-328,0,0,0,0,0,0,0,0,0,-1,1749,1352,0,0
532,-328,0,0,0,0,0,0,0,0,0,-1,1756,1352,0,0
539,-328,0,0,0,0,0,0,0,0,0,-1,1763,1352,0,0
546,-328,0,0,0,0,0,0,0,0,0,-1,1770,1352,0,0
553,-328,0,0,0,0,0,0,0,0,0,-1,1777,1352,0,0
560,-328,0,0,0,0,0,0,0,0,0,-1,1784,1352,0,0
567,-328,0,0,0,0,0,0,0,0,0,-1,1791,1352,0,0
574,-328,14.3843,-1.80688,0.0495021,-0.0817643,0.0212747,0.0528641,-0.0851262,0.156729,0.0803913,0.0445154,1798,1352,14.3843,1.80688
581,-328,14.5277,-1.81335,0.0324379,-0.0639314,0.0254166,0.0387304,-0.070224,0.242696,0.0637748,0.0432748,1805,1352,14.5278,1.81338
588,-328,16.6781,-1.20337,0,0,0,0,0,0,0,-1,1812,1352,16.6781,1.20334
595,-328,15.9921,-0.472534,0,0,0,0,0,0,0,-1,1819,1352,15.9921,0.472547
602,-328,15.4896,0.301514,0,0,0,0,0,0,0,-1,1826,1352,15.4896,-0.301508
609,-328,15.0796,1.2135,0,0,0,0,0,0,0,-1,1833,1352,15.0796,-1.21347
616,-328,14.5172,2.17896,0,0,0,0,0,0,0,-1,1840,1352,14.5172,-2.17894
623,-328,13.8309,5.93152,0,0,0,0,0,0,0,-1,1847,1352,13.831,-5.93154
630,-328,13.5499,5.58936,0,0,0,0,0,0,0,-1,1854,1352,13.5499,-5.58931
637,-328,13.0508,5.13953,0,0,0,0,0,0,0,-1,1861,1352,13.0508,-5.13949
644,-328,12.5034,4.85181,-0.0158715,0.00267416,0.0209183,0.0162828,-0.0294801,0.994026,0.026785,0.047024,1868,1352,12.5034,-4.85176
651,-328,12.2368,4.80994,-0.0124159,0.0018885,0.0176316,0.0137633,-0.0242907,0.97808,0.022249,0.0422191,1875,1352,12.2368,-4.80997
658,-328,12.0697,4.82703,-0.00902797,0.000553661,0.0145466,0.011078,-0.0195523,0.944476,0.0179086,0.0188241,1882,1352,12.0697,-4.82704
665,-328,12.0648,4.68188,-0.00597936,-0.000554414,0.0105834,0.00765862,-0.0141924,0.910845,0.0128023,0.0125299,1889,1352,12.0648,-4.68194
672,-328,12.0607,4.53784,-0.00396945,-0.000927392,0.00670335,0.00442532,-0.00932217,0.896962,0.00810322,0.0111013,1896,1352,12.0606,-4.53786
679,-328,12.0685,4.38684,-0.00245069,-0.000750726,0.00407455,0.00256155,-0.00576297,0.888228,0.00492321,0.0120965,1903,1352,12.0685,-4.38683
686,-328,12.054,4.24451,-0.000476292,-0.000583436,0.00200473,0.00147558,-0.00253531,0.77204,0.00234247,0.0112045,1910,1352,12.054,-4.24448
693,-328,12.0665,4.10156,0.00190362,-0.000278129,0.00020198,0.00192217,-0.00029667,0.0915402,0.00139092,0.00879006,1917,1352,12.0666,-4.10155
700,-328,12.0563,3.98145,0.00530666,-0.000284495,-0.00137907,0.00562831,-0.000606143,-0.229139,0.00396971,0.012515,1924,1352,12.0563,-3.98148
707,-328,12.0769,3.81165,0.0100734,-7.05134e-05,-0.00310677,0.0109493,-0.000946394,-0.274794,0.00763455,0.0145837,1931,1352,12.0769,-3.81169
714,-328,12.1007,3.63586,0.0159794,8.08537e-05,-0.00444101,0.0171358,-0.00107556,-0.254737,0.0117987,0.0121955,1938,1352,12.1007,-3.63592
721,-328,12.0299,3.50256,0.0236222,-0.000190159,-0.00616838,0.0251252,-0.00169316,-0.239004,0.0173421,0.0218488,1945,1352,12.03,-3.5026
728,-328,12.304,3.5481,0.0340876,-0.000645048,-0.0083682,0.0359986,-0.00255607,-0.224517,0.0248949,0.0350433,1952,1352,12.304,-3.54806
735,-328,12.73,3.53674,0.0482286,-0.00117799,-0.0111257,0.0506184,-0.00356775,-0.211582,0.0349955,0.0458845,1959,1352,12.73,-3.53669
742,-328,12.6243,3.8291,0,0,0,0,0,0,0,-1,1966,1352,12.6242,-3.82907
749,-328,12.3896,4.00488,0,0,0,0,0,0,0,-1,1973,1352,12.3896,-4.00491
756,-328,12.6602,3.29858,0,0,0,0,0,0,0,-1,1980,1352,12.6601,-3.29854
763,-328,0,0,0,0,0,0,0,0,0,-1,1987,1352,0,0
770,-328,0,0,0,0,0,0,0,0,0,-1,1994,1352,0,0
777,-328,0,0,0,0,0,0,0,0,0,-1,2001,1352,0,0
784,-328,0,0,0,0,0,0,0,0,0,-1,2008,1352,0,0
791,-328,0,0,0,0,0,0,0,0,0,-1,2015,1352,0,0
798,-328,0,0,0,0,0,0,0,0,0,-1,2022,1352,0,0
805,-328,0,0,0,0,0,0,0,0,0,-1,2029,1352,0,0
812,-328,0,0,0,0,0,0,0,0,0,-1,2036,1352,0,0
-700,-335,0,0,0,0,0,0,0,0,0,-1,524,1359,0,0
-693,-335,0,0,0,0,0,0,0,0,0,-1,531,1359,0,0
-686,-335,0,0,0,0,0,0,0,0,0,-1,538,1359,0,0
-679,-335,0,0,0,0,0,0,0,0,0,-1,545,1359,0,0
-672,-335,0,0,0,0,0,0,0,0,0,-1,552,1359,0,0
-665,-335,0,0,0,0,0,0,0,0,0,-1,559,1359,0,0
-658,-335,0,0,0,0,0,0,0,0,0,-1,566,1359,0,0
-651,-335,0,0,0,0,0,0,0,0,0,-1,573,1359,0,0
-644,-335,0,0,0,0,0,0,0,0,0,-1,580,1359,0,0
-637,-335,-2.55847,0.431274,0,0,0,0,0,0,0,-1,587,1359,-2.55847,-0.431232
-630,-335,-3.19763,-0.250854,0,0,0,0,0,0,0,-1,594,1359,-3.1976,0.250913
-623,-335,-3.93933,-0.494385,0,0,0,0,0,0,0,-1,601,1359,-3.93935,0.494411
-616,-335,-4.7522,-0.590576,0,0,0,0,0,0,0,-1,608,1359,-4.75217,0.590527
-609,-335,-5.63379,-0.849243,0,0,0,0,0,0,0,-1,615,1359,-5.63381,0.849298
-602,-335,-5.10614,1.20862,0,0,0,0,0,0,0,-1,622,1359,-5.10613,-1.20859
-595,-335,-5.05493,1.46912,-0.00907579,0.0425004,0.0099342,0.0443477,-0.0109231,1.38694,0.0337997,0.0471478,629,1359,-5.05496,-1.46914
-588,-335,-4.98987,1.64307,-0.00673341,0.027309,0.00696408,0.0286786,-0.00810295,1.37662,0.0223159,0.0346284,636,1359,-4.98985,-1.64304
-581,-335,-5.02612,1.71277,-0.0053601,0.0162282,0.00453121,0.0171407,-0.0062726,1.37207,0.0139947,0.0174089,643,1359,-5.02614,-1.71276
-574,-335,-5.01489,1.85962,-0.00417593,0.00857382,0.00222679,0.00895155,-0.00455366,1.40277,0.00793385,0.0114851,650,1359,-5.01489,-1.85964
-567,-335,-5.0105,2.02844,-0.00321274,0.00366365,0.000581604,0.0037125,-0.00326158,1.48701,0.00402929,0.0171755,657,1359,-5.01051,-2.02842
-560,-335,-5.0072,2.18542,-0.0027271,0.000968999,-0.000537862,0.00104568,-0.00280378,-1.42919,0.00229845,0.0252425,664,1359,-5.00717,-2.18536
-553,-335,-5.05402,2.36353,-0.00289587,-0.000172624,-0.00166934,0.000619982,-0.00368848,-1.12751,0.00268957,0.0254335,671,1359,-5.05403,-2.36354
-546,-335,-5.05505,2.55676,-0.00296264,-0.000417319,-0.00230852,0.000946103,-0.00432606,-1.03731,0.0032457,0.0230803,678,1359,-5.05504,-2.55679
-539,-335,-5.04504,2.74792,-0.00371176,-0.000832178,-0.00264441,0.000738998,-0.00528294,-1.03469,0.00379237,0.019283,685,1359,-5.04502,-2.74797
-532,-335,-5.03876,2.93396,-0.00543347,-0.000574513,-0.00310765,0.000940609,-0.0069486,-1.11716,0.00497566,0.0148311,692,1359,-5.03876,-2.93397
-525,-335,-5.00653,3.1123,-0.0080999,0.000816016,-0.00357529,0.00207261,-0.00935649,-1.23282,0.00703111,0.0100092,699,1359,-5.00655,-3.11229
-518,-335,-4.97711,3.27002,-0.011697,0.00333718,-0.0033897,0.00406611,-0.0124259,-1.35898,0.00992104,0.0161003,706,1359,-4.97711,-3.27005
-511,-335,-5.11304,3.35828,-0.0169646,0.00896973,-0.00204305,0.00912969,-0.0171246,-1.49266,0.0153904,0.0388493,713,1359,-5.11305,-3.35828
-504,-335,-5.4696,3.46875,-0.0233921,0.0162936,-0.000119089,0.0162939,-0.0233924,-1.5678,0.0230348,0.0465089,720,1359,-5.46959,-3.46875
-497,-335,-5.75464,3.35706,0,0,0,0,0,0,0,-1,727,1359,-5.75464,-3.3571
-490,-335,-3.41833,-3.1582,0,0,0,0,0,0,0,-1,734,1359,-3.41831,3.15825
-483,-335,-2.55273,-4.46985,0,0,0,0,0,0,0,-1,741,1359,-2.55275,4.46984
-476,-335,-6.43317,0.717896,0,0,0,0,0,0,0,-1,748,1359,-6.43315,-0.71789
-469,-335,-5.9762,-1.66064,0,0,0,0,0,0,0,-1,755,1359,-5.97619,1.66061
-462,-335,-6.66785,-0.89856,-0.0900119,0.0865686,0.0220988,0.0892922,-0.0927356,1.44817,0.1051,0.0445929,762,1359,-6.66785,0.898603
-455,-335,-7.39606,-0.372192,-0.107411,0.104513,0.0277233,0.10808,-0.110978,1.44285,0.126477,0.042556,769,1359,-7.39606,0.372237
-448,-335,0,0,0,0,0,0,0,0,0,-1,776,1359,0,0
-441,-335,0,0,0,0,0,0,0,0,0,-1,783,1359,0,0
-434,-335,0,0,0,0,0,0,0,0,0,-1,790,1359,0,0
-427,-335,0,0,0,0,0,0,0,0,0,-1,797,1359,0,0
-420,-335,0,0,0,0,0,0,0,0,0,-1,804,1359,0,0
-413,-335,0,0,0,0,0,0,0,0,0,-1,811,1359,0,0
-406,-335,0,0,0,0,0,0,0,0,0,-1,818,1359,0,0
-399,-335,0,0,0,0,0,0,0,0,0,-1,825,1359,0,0
-392,-335,0,0,0,0,0,0,0,0,0,-1,832,1359,0,0
-385,-335,0,0,0,0,0,0,0,0,0,-1,839,1359,0,0
-378,-335,0,0,0,0,0,0,0,0,0,-1,846,1359,0,0
-371,-335,0,0,0,0,0,0,0,0,0,-1,853,1359,0,0
-364,-335,0,0,0,0,0,0,0,0,0,-1,860,1359,0,0
-357,-335,0,0,0,0,0,0,0,0,0,-1,867,1359,0,0
-350,-335,0,0,0,0,0,0,0,0,0,-1,874,1359,0,0
-343,-335,0,0,0,0,0,0,0,0,0,-1,881,1359,0,0
-336,-335,0,0,0,0,0,0,0,0,0,-1,888,1359,0,0
-329,-335,0,0,0,0,0,0,0,0,0,-1,895,1359,0,0
-322,-335,0,0,0,0,0,0,0,0,0,-1,902,1359,0,0
-315,-335,0,0,0,0,0,0,0,0,0,-1,909,1359,0,0
-308,-335,0,0,0,0,0,0,0,0,0,-1,916,1359,0,0
-301,-335,0,0,0,0,0,0,0,0,0,-1,923,1359,0,0
-294,-335,0,0,0,0,0,0,0,0,0,-1,930,1359,0,0
-287,-335,0,0,0,0,0,0,0,0,0,-1,937,1359,0,0
-280,-335,0,0,0,0,0,0,0,0,0,-1,944,1359,0,0
-273,-335,0,0,0,0,0,0,0,0,0,-1,951,1359,0,0
-266,-335,0,0,0,0,0,0,0,0,0,-1,958,1359,0,0
-259,-335,0,0,0,0,0,0,0,0,0,-1,965,1359,0,0
-252,-335,0,0,0,0,0,0,0,0,0,-1,972,1359,0,0
-245,-335,0,0,0,0,0,0,0,0,0,-1,979,1359,0,0
-238,-335,0,0,0,0,0,0,0,0,0,-1,986,1359,0,0
-231,-335,0,0,0,0,0,0,0,0,0,-1,993,1359,0,0
-224,-335,0,0,0,0,0,0,0,0,0,-1,1000,1359,0,0
-217,-335,0,0,0,0,0,0,0,0,0,-1,1007,1359,0,0
-210,-335,0,0,0,0,0,0,0,0,0,-1,1014,1359,0,0
-203,-335,0,0,0,0,0,0,0,0,0,-1,1021,1359,0,0
-196,-335,0,0,0,0,0,0,0,0,0,-1,1028,1359,0,0
-189,-335,0,0,0,0,0,0,0,0,0,-1,1035,1359,0,0
-182,-335,0,0,0,0,0,0,0,0,0,-1,1042,1359,0,0
-175,-335,0,0,0,0,0,0,0,0,0,-1,1049,1359,0,0
-168,-335,0,0,0,0,0,0,0,0,0,-1,1056,1359,0,0
-161,-335,0,0,0,0,0,0,0,0,0,-1,1063,1359,0,0
-154,-335,0,0,0,0,0,0,0,0,0,-1,1070,1359,0,0
-147,-335,0,0,0,0,0,0,0,0,0,-1,1077,1359,0,0
-140,-335,0,0,0,0,0,0,0,0,0,-1,1084,1359,0,0
-133,-335,0,0,0,0,0,0,0,0,0,-1,1091,1359,0,0
-126,-335,0,0,0,0,0,0,0,0,0,-1,1098,1359,0,0
-119,-335,0,0,0,0,0,0,0,0,0,-1,1105,1359,0,0
-112,-335,0,0,0,0,0,0,0,0,0,-1,1112,1359,0,0
-105,-335,0,0,0,0,0,0,0,0,0,-1,1119,1359,0,0
-98,-335,0,0,0,0,0,0,0,0,0,-1,1126,1359,0,0
-91,-335,0,0,0,0,0,0,0,0,0,-1,1133,1359,0,0
-84,-335,0,0,0,0,0,0,0,0,0,-1,1140,1359,0,0
-77,-335,0,0,0,0,0,0,0,0,0,-1,1147,1359,0,0
-70,-335,0,0,0,0,0,0,0,0,0,-1,1154,1359,0,0
-63,-335,0,0,0,0,0,0,0,0,0,-1,1161,1359,0,0
-56,-335,0,0,0,0,0,0,0,0,0,-1,1168,1359,0,0
-49,-335,0,0,0,0,0,0,0,0,0,-1,1175,1359,0,0
-42,-335,0,0,0,0,0,0,0,0,0,-1,1182,1359,0,0
-35,-335,0,0,0,0,0,0,0,0,0,-1,1189,1359,0,0
-28,-335,0,0,0,0,0,0,0,0,0,-1,1196,1359,0,0
-21,-335,0,0,0,0,0,0,0,0,0,-1,1203,1359,0,0
-14,-335,0,0,0,0,0,0,0,0,0,-1,1210,1359,0,0
-7,-335,0,0,0,0,0,0,0,0,0,-1,1217,1359,0,0
0,-335,0,0,0,0,0,0,0,0,0,-1,1224,1359,0,0
7,-335,0,0,0,0,0,0,0,0,0,-1,1231,1359,0,0
14,-335,0,0,0,0,0,0,0,0,0,-1,1238,1359,0,0
21,-335,0,0,0,0,0,0,0,0,0,-1,1245,1359,0,0
28,-335,0,0,0,0,0,0,0,0,0,-1,1252,1359,0,0
35,-335,0,0,0,0,0,0,0,0,0,-1,1259,1359,0,0
42,-335,0,0,0,0,0,0,0,0,0,-1,1266,1359,0,0
49,-335,0,0,0,0,0,0,0,0,0,-1,1273,1359,0,0
56,-335,0,0,0,0,0,0,0,0,0,-1,1280,1359,0,0
63,-335,0,0,0,0,0,0,0,0,0,-1,1287,1359,0,0
70,-335,0,0,0,0,0,0,0,0,0,-1,1294,1359,0,0
77,-335,0,0,0,0,0,0,0,0,0,-1,1301,1359,0,0
84,-335,0,0,0,0,0,0,0,0,0,-1,1308,1359,0,0
91,-335,0,0,0,0,0,0,0,0,0,-1,1315,1359,0,0
98,-335,0,0,0,0,0,0,0,0,0,-1,1322,1359,0,0
105,-335,0,0,0,0,0,0,0,0,0,-1,1329,1359,0,0
112,-335,0,0,0,0,0,0,0,0,0,-1,1336,1359,0,0
119,-335,0,0,0,0,0,0,0,0,0,-1,1343,1359,0,0
126,-335,0,0,0,0,0,0,0,0,0,-1,1350,1359,0,0
133,-335,0,0,0,0,0,0,0,0,0,-1,1357,1359,0,0
140,-335,0,0,0,0,0,0,0,0,0,-1,1364,1359,0,0
147,-335,0,0,0,0,0,0,0,0,0,-1,1371,1359,0,0
154,-335,0,0,0,0,0,0,0,0,0,-1,1378,1359,0,0
161,-335,0,0,0,0,0,0,0,0,0,-1,1385,1359,0,0
168,-335,0,0,0,0,0,0,0,0,0,-1,1392,1359,0,0
175,-335,0,0,0,0,0,0,0,0,0,-1,1399,1359,0,0
182,-335,0,0,0,0,0,0,0,0,0,-1,1406,1359,0,0
189,-335,0,0,0,0,0,0,0,0,0,-1,1413,1359,0,0
196,-335,0,0,0,0,0,0,0,0,0,-1,1420,1359,0,0
203,-335,0,0,0,0,0,0,0,0,0,-1,1427,1359,0,0
210,-335,0,0,0,0,0,0,0,0,0,-1,1434,1359,0,0
217,-335,0,0,0,0,0,0,0,0,0,-1,1441,1359,0,0
224,-335,0,0,0,0,0,0,0,0,0,-1,1448,1359,0,0
231,-335,0,0,0,0,0,0,0,0,0,-1,1455,1359,0,0
238,-335,0,0,0,0,0,0,0,0,0,-1,1462,1359,0,0
245,-335,0,0,0,0,0,0,0,0,0,-1,1469,1359,0,0
252,-335,0,0,0,0,0,0,0,0,0,-1,1476,1359,0,0
259,-335,0,0,0,0,0,0,0,0,0,-1,1483,1359,0,0
266,-335,0,0,0,0,0,0,0,0,0,-1,1490,1359,0,0
273,-335,0,0,0,0,0,0,0,0,0,-1,1497,1359,0,0
280,-335,0,0,0,0,0,0,0,0,0,-1,1504,1359,0,0
287,-335,0,0,0,0,0,0,0,0,0,-1,1511,1359,0,0
294,-335,0,0,0,0,0,0,0,0,0,-1,1518,1359,0,0
301,-335,0,0,0,0,0,0,0,0,0,-1,1525,1359,0,0
308,-335,0,0,0,0,0,0,0,0,0,-1,1532,1359,0,0
315,-335,0,0,0,0,0,0,0,0,0,-1,1539,1359,0,0
322,-335,0,0,0,0,0,0,0,0,0,-1,1546,1359,0,0
329,-335,0,0,0,0,0,0,0,0,0,-1,1553,1359,0,0
336,-335,0,0,0,0,0,0,0,0,0,-1,1560,1359,0,0
343,-335,0,0,0,0,0,0,0,0,0,-1,1567,1359,0,0
350,-335,0,0,0,0,0,0,0,0,0,-1,1574,1359,0,0
357,-335,0,0,0,0,0,0,0,0,0,-1,1581,1359,0,0
364,-335,0,0,0,0,0,0,0,0,0,-1,1588,1359,0,0
371,-335,0,0,0,0,0,0,0,0,0,-1,1595,1359,0,0
378,-335,0,0,0,0,0,0,0,0,0,-1,1602,1359,0,0
385,-335,0,0,0,0,0,0,0,0,0,-1,1609,1359,0,0
392,-335,0,0,0,0,0,0,0,0,0,-1,1616,1359,0,0
399,-335,0,0,0,0,0,0,0,0,0,-1,1623,1359,0,0
406,-335,0,0,0,0,0,0,0,0,0,-1,1630,1359,0,0
413,-335,0,0,0,0,0,0,0,0,0,-1,1637,1359,0,0
420,-335,0,0,0,0,0,0,0,0,0,-1,1644,1359,0,0
427,-335,0,0,0,0,0,0,0,0,0,-1,1651,1359,0,0
434,-335,0,0,0,0,0,0,0,0,0,-1,1658,1359,0,0
441,-335,0,0,0,0,0,0,0,0,0,-1,1665,1359,0,0
448,-335,0,0,0,0,0,0,0,0,0,-1,1672,1359,0,0
455,-335,0,0,0,0,0,0,0,0,0,-1,1679,1359,0,0
462,-335,0,0,0,0,0,0,0,0,0,-1,1686,1359,0,0
469,-335,0,0,0,0,0,0,0,0,0,-1,1693,1359,0,0
476,-335,0,0,0,0,0,0,0,0,0,-1,1700,1359,0,0
483,-335,0,0,0,0,0,0,0,0,0,-1,1707,1359,0,0
490,-335,0,0,0,0,0,0,0,0,0,-1,1714,1359,0,0
497,-335,0,0,0,0,0,0,0,0,0,-1,1721,1359,0,0
504,-335,0,0,0,0,0,0,0,0,0,-1,1728,1359,0,0
511,-335,0,0,0,0,0,0,0,0,0,-1,1735,1359,0,0
518,-335,0,0,0,0,0,0,0,0,0,-1,1742,1359,0,0
525,-335,0,0,0,0,0,0,0,0,0,-1,1749,1359,0,0
532,-335,0,0,0,0,0,0,0,0,0,-1,1756,1359,0,0
539,-335,0,0,0,0,0,0,0,0,0,-1,1763,1359,0,0
546,-335,0,0,0,0,0,0,0,0,0,-1,1770,1359,0,0
553,-335,0,0,0,0,0,0,0,0,0,-1,1777,1359,0,0
560,-335,0,0,0,0,0,0,0,0,0,-1,1784,1359,0,0
567,-335,0,0,0,0,0,0,0,0,0,-1,1791,1359,0,0
574,-335,14.342,-2.03308,0.0377574,-0.0894643,0.0273716,0.0433964,-0.0951033,0.203174,0.0817993,0.0481984,1798,1359,14.342,2.03304
581,-335,14.3623,-1.36707,0.0238694,-0.0708942,0.0315115,0.0333911,-0.0804159,0.293443,0.0675504,0.0471444,1805,1359,14.3623,1.36708
588,-335,14.6689,-0.842407,0.0117847,-0.0549879,0.0340583,0.0260913,-0.0692945,0.397681,0.0569228,0.04685,1812,1359,14.669,0.84241
595,-335,15.7141,-0.664551,0,0,0,0,0,0,0,-1,1819,1359,15.7141,0.664579
602,-335,15.3428,-0.046875,0,0,0,0,0,0,0,-1,1826,1359,15.3428,0.0469043
609,-335,14.8601,1.06006,-0.00791661,-0.0252226,0.032683,0.0172395,-0.0503787,0.65599,0.0405721,0.0456461,1833,1359,14.8601,-1.06011
616,-335,14.3441,2.16699,-0.0105706,-0.0181111,0.0313077,0.0171931,-0.0458747,0.725474,0.0376464,0.0480167,1840,1359,14.3441,-2.16703
623,-335,13.9584,3.02942,0,0,0,0,0,0,0,-1,1847,1359,13.9584,-3.0294
630,-335,13.9651,5.37891,0,0,0,0,0,0,0,-1,1854,1359,13.965,-5.3789
637,-335,13.1306,5.31665,0,0,0,0,0,0,0,-1,1861,1359,13.1306,-5.3167
644,-335,12.2079,4.92566,-0.0165785,-0.00114715,0.0200744,0.0126433,-0.030369,0.968871,0.0255264,0.0432155,1868,1359,12.2079,-4.92563
651,-335,11.9608,4.97107,-0.0127666,-0.00111676,0.0163676,0.0104316,-0.0243149,0.95635,0.0205878,0.0190002,1875,1359,11.9608,-4.97109
658,-335,11.9026,4.86426,-0.00906895,-0.00158278,0.01288,0.00808698,-0.0187387,0.926809,0.0158896,0.0122637,1882,1359,11.9026,-4.86422
665,-335,11.9146,4.70447,-0.00574584,-0.00191556,0.00890837,0.0052812,-0.0129426,0.891278,0.010827,0.0130419,1889,1359,11.9145,-4.70441
672,-335,11.928,4.52588,-0.0033948,-0.00167996,0.00531292,0.00284428,-0.00791904,0.8654,0.00644033,0.016111,1896,1359,11.9279,-4.52586
679,-335,11.9351,4.38977,-0.00175454,-0.00109023,0.00304748,0.00164314,-0.00448791,0.83968,0.00366457,0.0127157,1903,1359,11.935,-4.38971
686,-335,11.9287,4.24963,0.00026937,-0.000730307,0.00128003,0.00114369,-0.00160463,0.599257,0.00159416,0.00995006,1910,1359,11.9287,-4.24964
693,-335,11.9299,4.09155,0.00256376,-0.000394198,-0.000288462,0.00259163,-0.000422067,-0.0963114,0.00188426,0.00916556,1917,1359,11.9299,-4.09159
700,-335,11.9117,3.96985,0.00568183,-0.000480155,-0.00163331,0.00608799,-0.000886315,-0.243729,0.00438406,0.010169,1924,1359,11.9118,-3.9699
707,-335,11.9149,3.80371,0.0100474,-0.000530218,-0.00308192,0.0108798,-0.00136266,-0.26381,0.0077475,0.0137812,1931,1359,11.9149,-3.80369
714,-335,11.9373,3.58423,0.0156146,-0.00074712,-0.00418875,0.0166246,-0.00175713,-0.236608,0.0117128,0.0181796,1938,1359,11.9372,-3.58419
721,-335,11.8242,3.33911,0.0229993,-0.00138185,-0.005631,0.0242369,-0.00261954,-0.216359,0.0170982,0.0335312,1945,1359,11.8243,-3.33915
728,-335,12.3199,3.4187,0.0332852,-0.0023472,-0.007459,0.0347836,-0.0038456,-0.198246,0.0245714,0.0457267,1952,1359,12.32,-3.41874
735,-335,12.7683,3.93665,0.0473585,-0.00361272,-0.00970842,0.049145,-0.00539926,-0.181983,0.0347034,0.0478961,1959,1359,12.7683,-3.93663
742,-335,13.1149,4.36023,0,0,0,0,0,0,0,-1,1966,1359,13.1149,-4.36023
749,-335,12.323,4.4823,0,0,0,0,0,0,0,-1,1973,1359,12.323,-4.48235
756,-335,12.764,3.47937,0,0,0,0,0,0,0,-1,1980,1359,12.7641,-3.47937
763,-335,0,0,0,0,0,0,0,0,0,-1,1987,1359,0,0
770,-335,0,0,0,0,0,0,0,0,0,-1,1994,1359,0,0
777,-335,0,0,0,0,0,0,0,0,0,-1,2001,1359,0,0
784,-335,0,0,0,0,0,0,0,0,0,-1,2008,1359,0,0
791,-335,0,0,0,0,0,0,0,0,0,-1,2015,1359,0,0
798,-335,0,0,0,0,0,0,0,0,0,-1,2022,1359,0,0
805,-335,0,0,0,0,0,0,0,0,0,-1,2029,1359,0,0
812,-335,0,0,0,0,0,0,0,0,0,-1,2036,1359,0,0
-700,-342,0,0,0,0,0,0,0,0,0,-1,524,1366,0,0
-693,-342,0,0,0,0,0,0,0,0,0,-1,531,1366,0,0
-686,-342,0,0,0,0,0,0,0,0,0,-1,538,1366,0,0
-679,-342,0,0,0,0,0,0,0,0,0,-1,545,1366,0,0
-672,-342,0,0,0,0,0,0,0,0,0,-1,552,1366,0,0
-665,-342,0,0,0,0,0,0,0,0,0,-1,559,1366,0,0
-658,-342,0,0,0,0,0,0,0,0,0,-1,566,1366,0,0
-651,-342,0,0,0,0,0,0,0,0,0,-1,573,1366,0,0
-644,-342,0,0,0,0,0,0,0,0,0,-1,580,1366,0,0
-637,-342,-3.75891,-0.756104,0,0,0,0,0,0,0,-1,587,1366,-3.7589,0.756129
-630,-342,-4.21991,-1.54736,0,0,0,0,0,0,0,-1,594,1366,-4.21989,1.54735
-623,-342,-4.5575,-1.60461,0,0,0,0,0,0,0,-1,601,1366,-4.5575,1.60457
-616,-342,-5.0556,-1.66772,0,0,0,0,0,0,0,-1,608,1366,-5.05563,1.66771
-609,-342,-3.8808,0.132324,0,0,0,0,0,0,0,-1,615,1366,-3.88083,-0.132302
-602,-342,-4.2019,0.259155,0,0,0,0,0,0,0,-1,622,1366,-4.20189,-0.259097
-595,-342,-4.49835,0.679688,-0.00492673,0.0396753,0.0162473,0.0449662,-0.0102176,1.25598,0.0339005,0.0434756,629,1366,-4.49836,-0.679687
-588,-342,-4.5918,1.245,-0.0041244,0.0255024,0.011353,0.0293526,-0.00797453,1.24384,0.0226984,0.0398244,636,1366,-4.59177,-1.245
-581,-342,-4.849,1.66882,-0.0039254,0.0152873,0.00737053,0.0177891,-0.00642717,1.24357,0.0144851,0.0278653,643,1366,-4.849,-1.66883
-574,-342,-4.86084,1.85681,-0.00357523,0.00821889,0.00399397,0.00944413,-0.00480046,1.27314,0.00836852,0.0102273,650,1366,-4.86082,-1.85687
-567,-342,-4.82001,2.02966,-0.00313774,0.00370487,0.00164028,0.00407775,-0.00351062,1.34727,0.00438522,0.0166453,657,1366,-4.81998,-2.02961
-560,-342,-4.8396,2.18604,-0.00283333,0.00124997,0.000105318,0.00125269,-0.00283604,1.54503,0.00241891,0.0247893,664,1366,-4.83962,-2.18606
-553,-342,-4.87323,2.34998,-0.00305474,0.000142701,-0.00139976,0.000668889,-0.00358093,-1.21123,0.00263866,0.0258591,671,1366,-4.8732,-2.34996
-546,-342,-4.88202,2.5603,-0.00280717,-0.000391064,-0.00219382,0.000905322,-0.00410356,-1.03707,0.00308212,0.0252352,678,1366,-4.88203,-2.56036
-539,-342,-4.86188,2.77625,-0.00294767,-0.00147607,-0.00270017,0.000586761,-0.0050105,-0.918419,0.00355211,0.0221258,685,1366,-4.86189,-2.77629
-532,-342,-4.86542,2.94751,-0.00392007,-0.00196703,-0.00325848,0.000458108,-0.00634521,-0.930982,0.00439082,0.0170704,692,1366,-4.86543,-2.94755
-525,-342,-4.83795,3.11487,-0.00576564,-0.00163686,-0.00396858,0.000772153,-0.00817466,-1.02523,0.00572454,0.0106125,699,1366,-4.83793,-3.11488
-518,-342,-4.81622,3.28516,-0.00857296,-0.000306585,-0.00414995,0.0014173,-0.0102968,-1.17709,0.00738249,0.0117168,706,1366,-4.81622,-3.28517
-511,-342,-4.85468,3.42725,-0.013357,0.0043699,-0.00316813,0.00491909,-0.0139062,-1.39915,0.0112741,0.0316279,713,1366,-4.85467,-3.42728
-504,-342,-4.89203,3.36194,-0.0195466,0.0110359,-0.00151971,0.0111112,-0.0196219,-1.52127,0.0179691,0.0483925,720,1366,-4.89204,-3.36196
-497,-342,-4.93286,3.19446,0,0,0,0,0,0,0,-1,727,1366,-4.93286,-3.19448
-490,-342,-3.66876,2.74536,0,0,0,0,0,0,0,-1,734,1366,-3.66877,-2.7454
-483,-342,-6.38617,2.56531,0,0,0,0,0,0,0,-1,741,1366,-6.38616,-2.56535
-476,-342,-6.6441,1.36523,0,0,0,0,0,0,0,-1,748,1366,-6.64413,-1.36526
-469,-342,-6.159,-2.36792,0,0,0,0,0,0,0,-1,755,1366,-6.15901,2.36788
-462,-342,-6.8576,-1.88867,-0.0892792,0.079077,0.0189875,0.0811918,-0.0913941,1.45987,0.0997005,0.045207,762,1366,-6.85763,1.88862
-455,-342,-7.50574,-1.37073,-0.107564,0.0958794,0.0240488,0.0986835,-0.110369,1.45472,0.120759,0.04544,769,1366,-7.50571,1.3707
-448,-342,-8.61353,-1.16772,-0.127718,0.113563,0.0288087,0.116955,-0.13111,1.45359,0.143298,0.0473616,776,1366,-8.61352,1.16773
-441,-342,0,0,0,0,0,0,0,0,0,-1,783,1366,0,0
-434,-342,0,0,0,0,0,0,0,0,0,-1,790,1366,0,0
-427,-342,0,0,0,0,0,0,0,0,0,-1,797,1366,0,0
-420,-342,0,0,0,0,0,0,0,0,0,-1,804,1366,0,0
-413,-342,0,0,0,0,0,0,0,0,0,-1,811,1366,0,0
-406,-342,0,0,0,0,0,0,0,0,0,-1,818,1366,0,0
-399,-342,0,0,0,0,0,0,0,0,0,-1,825,1366,0,0
-392,-342,0,0,0,0,0,0,0,0,0,-1,832,1366,0,0
-385,-342,0,0,0,0,0,0,0,0,0,-1,839,1366,0,0
-378,-342,0,0,0,0,0,0,0,0,0,-1,846,1366,0,0
-371,-342,0,0,0,0,0,0,0,0,0,-1,853,1366,0,0
-364,-342,0,0,0,0,0,0,0,0,0,-1,860,1366,0,0
-357,-342,0,0,0,0,0,0,0,0,0,-1,867,1366,0,0
-350,-342,0,0,0,0,0,0,0,0,0,-1,874,1366,0,0
-343,-342,0,0,0,0,0,0,0,0,0,-1,881,1366,0,0
-336,-342,0,0,0,0,0,0,0,0,0,-1,888,1366,0,0
-329,-342,0,0,0,0,0,0,0,0,0,-1,895,1366,0,0
-322,-342,0,0,0,0,0,0,0,0,0,-1,902,1366,0,0
-315,-342,0,0,0,0,0,0,0,0,0,-1,909,1366,0,0
-308,-342,0,0,0,0,0,0,0,0,0,-1,916,1366,0,0
-301,-342,0,0,0,0,0,0,0,0,0,-1,923,1366,0,0
-294,-342,0,0,0,0,0,0,0,0,0,-1,930,1366,0,0
-287,-342,0,0,0,0,0,0,0,0,0,-1,937,1366,0,0
-280,-342,0,0,0,0,0,0,0,0,0,-1,944,1366,0,0
-273,-342,0,0,0,0,0,0,0,0,0,-1,951,1366,0,0
-266,-342,0,0,0,0,0,0,0,0,0,-1,958,1366,0,0
-259,-342,0,0,0,0,0,0,0,0,0,-1,965,1366,0,0
-252,-342,0,0,0,0,0,0,0,0,0,-1,972,1366,0,0
-245,-342,0,0,0,0,0,0,0,0,0,-1,979,1366,0,0
-238,-342,0,0,0,0,0,0,0,0,0,-1,986,1366,0,0
-231,-342,0,0,0,0,0,0,0,0,0,-1,993,1366,0,0
-224,-342,0,0,0,0,0,0,0,0,0,-1,1000,1366,0,0
-217,-342,0,0,0,0,0,0,0,0,0,-1,1007,1366,0,0
-210,-342,0,0,0,0,0,0,0,0,0,-1,1014,1366,0,0
-203,-342,0,0,0,0,0,0,0,0,0,-1,1021,1366,0,0
-196,-342,0,0,0,0,0,0,0,0,0,-1,1028,1366,0,0
-189,-342,0,0,0,0,0,0,0,0,0,-1,1035,1366,0,0
-182,-342,0,0,0,0,0,0,0,0,0,-1,1042,1366,0,0
-175,-342,0,0,0,0,0,0,0,0,0,-1,1049,1366,0,0
-168,-342,0,0,0,0,0,0,0,0,0,-1,1056,1366,0,0
-161,-342,0,0,0,0,0,0,0,0,0,-1,1063,1366,0,0
-154,-342,0,0,0,0,0,0,0,0,0,-1,1070,1366,0,0
-147,-342,0,0,0,0,0,0,0,0,0,-1,1077,1366,0,0
-140,-342,0,0,0,0,0,0,0,0,0,-1,1084,1366,0,0
-133,-342,0,0,0,0,0,0,0,0,0,-1,1091,1366,0,0
-126,-342,0,0,0,0,0,0,0,0,0,-1,1098,1366,0,0
-119,-342,0,0,0,0,0,0,0,0,0,-1,1105,1366,0,0
-112,-342,0,0,0,0,0,0,0,0,0,-1,1112,1366,0,0
-105,-342,0,0,0,0,0,0,0,0,0,-1,1119,1366,0,0
-98,-342,0,0,0,0,0,0,0,0,0,-1,1126,1366,0,0
-91,-342,0,0,0,0,0,0,0,0,0,-1,1133,1366,0,0
-84,-342,0,0,0,0,0,0,0,0,0,-1,1140,1366,0,0
-77,-342,0,0,0,0,0,0,0,0,0,-1,1147,1366,0,0
-70,-342,0,0,0,0,0,0,0,0,0,-1,1154,1366,0,0
-63,-342,0,0,0,0,0,0,0,0,0,-1,1161,1366,0,0
-56,-342,0,0,0,0,0,0,0,0,0,-1,1168,1366,0,0
-49,-342,0,0,0,0,0,0,0,0,0,-1,1175,1366,0,0
-42,-342,0,0,0,0,0,0,0,0,0,-1,1182,1366,0,0
-35,-342,0,0,0,0,0,0,0,0,0,-1,1189,1366,0,0
-28,-342,0,0,0,0,0,0,0,0,0,-1,1196,1366,0,0
-21,-342,0,0,0,0,0,0,0,0,0,-1,1203,1366,0,0
-14,-342,0,0,0,0,0,0,0,0,0,-1,1210,1366,0,0
-7,-342,0,0,0,0,0,0,0,0,0,-1,1217,1366,0,0
0,-342,0,0,0,0,0,0,0,0,0,-1,1224,1366,0,0
7,-342,0,0,0,0,0,0,0,0,0,-1,1231,1366,0,0
14,-342,0,0,0,0,0,0,0,0,0,-1,1238,1366,0,0
21,-342,0,0,0,0,0,0,0,0,0,-1,1245,1366,0,0
28,-342,0,0,0,0,0,0,0,0,0,-1,1252,1366,0,0
35,-342,0,0,0,0,0,0,0,0,0,-1,1259,1366,0,0
42,-342,0,0,0,0,0,0,0,0,0,-1,1266,1366,0,0
49,-342,0,0,0,0,0,0,0,0,0,-1,1273,1366,0,0
56,-342,0,0,0,0,0,0,0,0,0,-1,1280,1366,0,0
63,-342,0,0,0,0,0,0,0,0,0,-1,1287,1366,0,0
70,-342,0,0,0,0,0,0,0,0,0,-1,1294,1366,0,0
77,-342,0,0,0,0,0,0,0,0,0,-1,1301,1366,0,0
84,-342,0,0,0,0,0,0,0,0,0,-1,1308,1366,0,0
91,-342,0,0,0,0,0,0,0,0,0,-1,1315,1366,0,0
98,-342,0,0,0,0,0,0,0,0,0,-1,1322,1366,0,0
105,-342,0,0,0,0,0,0,0,0,0,-1,1329,1366,0,0
112,-342,0,0,0,0,0,0,0,0,0,-1,1336,1366,0,0
119,-342,0,0,0,0,0,0,0,0,0,-1,1343,1366,0,0
126,-342,0,0,0,0,0,0,0,0,0,-1,1350,1366,0,0
133,-342,0,0,0,0,0,0,0,0,0,-1,1357,1366,0,0
140,-342,0,0,0,0,0,0,0,0,0,-1,1364,1366,0,0
147,-342,0,0,0,0,0,0,0,0,0,-1,1371,1366,0,0
154,-342,0,0,0,0,0,0,0,0,0,-1,1378,1366,0,0
161,-342,0,0,0,0,0,0,0,0,0,-1,1385,1366,0,0
168,-342,0,0,0,0,0,0,0,0,0,-1,1392,1366,0,0
175,-342,0,0,0,0,0,0,0,0,0,-1,1399,1366,0,0
182,-342,0,0,0,0,0,0,0,0,0,-1,1406,1366,0,0
189,-342,0,0,0,0,0,0,0,0,0,-1,1413,1366,0,0
196,-342,0,0,0,0,0,0,0,0,0,-1,1420,1366,0,0
203,-342,0,0,0,0,0,0,0,0,0,-1,1427,1366,0,0
210,-342,0,0,0,0,0,0,0,0,0,-1,1434,1366,0,0
217,-342,0,0,0,0,0,0,0,0,0,-1,1441,1366,0,0
224,-342,0,0,0,0,0,0,0,0,0,-1,1448,1366,0,0
231,-342,0,0,0,0,0,0,0,0,0,-1,1455,1366,0,0
238,-342,0,0,0,0,0,0,0,0,0,-1,1462,1366,0,0
245,-342,0,0,0,0,0,0,0,0,0,-1,1469,1366,0,0
252,-342,0,0,0,0,0,0,0,0,0,-1,1476,1366,0,0
259,-342,0,0,0,0,0,0,0,0,0,-1,1483,1366,0,0
266,-342,0,0,0,0,0,0,0,0,0,-1,1490,1366,0,0
273,-342,0,0,0,0,0,0,0,0,0,-1,1497,1366,0,0
280,-342,0,0,0,0,0,0,0,0,0,-1,1504,1366,0,0
287,-342,0,0,0,0,0,0,0,0,0,-1,1511,1366,0,0
294,-342,0,0,0,0,0,0,0,0,0,-1,1518,1366,0,0
301,-342,0,0,0,0,0,0,0,0,0,-1,1525,1366,0,0
308,-342,0,0,0,0,0,0,0,0,0,-1,1532,1366,0,0
315,-342,0,0,0,0,0,0,0,0,0,-1,1539,1366,0,0
322,-342,0,0,0,0,0,0,0,0,0,-1,1546,1366,0,0
329,-342,0,0,0,0,0,0,0,0,0,-1,1553,1366,0,0
336,-342,0,0,0,0,0,0,0,0,0,-1,1560,1366,0,0
343,-342,0,0,0,0,0,0,0,0,0,-1,1567,1366,0,0
350,-342,0,0,0,0,0,0,0,0,0,-1,1574,1366,0,0
357,-342,0,0,0,0,0,0,0,0,0,-1,1581,1366,0,0
364,-342,0,0,0,0,0,0,0,0,0,-1,1588,1366,0,0
371,-342,0,0,0,0,0,0,0,0,0,-1,1595,1366,0,0
378,-342,0,0,0,0,0,0,0,0,0,-1,1602,1366,0,0
385,-342,0,0,0,0,0,0,0,0,0,-1,1609,1366,0,0
392,-342,0,0,0,0,0,0,0,0,0,-1,1616,1366,0,0
399,-342,0,0,0,0,0,0,0,0,0,-1,1623,1366,0,0
406,-342,0,0,0,0,0,0,0,0,0,-1,1630,1366,0,0
413,-342,0,0,0,0,0,0,0,0,0,-1,1637,1366,0,0
420,-342,0,0,0,0,0,0,0,0,0,-1,1644,1366,0,0
427,-342,0,0,0,0,0,0,0,0,0,-1,1651,1366,0,0
434,-342,0,0,0,0,0,0,0,0,0,-1,1658,1366,0,0
441,-342,0,0,0,0,0,0,0,0,0,-1,1665,1366,0,0
448,-342,0,0,0,0,0,0,0,0,0,-1,1672,1366,0,0
455,-342,0,0,0,0,0,0,0,0,0,-1,1679,1366,0,0
462,-342,0,0,0,0,0,0,0,0,0,-1,1686,1366,0,0
469,-342,0,0,0,0,0,0,0,0,0,-1,1693,1366,0,0
476,-342,0,0,0,0,0,0,0,0,0,-1,1700,1366,0,0
483,-342,0,0,0,0,0,0,0,0,0,-1,1707,1366,0,0
490,-342,0,0,0,0,0,0,0,0,0,-1,1714,1366,0,0
497,-342,0,0,0,0,0,0,0,0,0,-1,1721,1366,0,0
504,-342,0,0,0,0,0,0,0,0,0,-1,1728,1366,0,0
511,-342,0,0,0,0,0,0,0,0,0,-1,1735,1366,0,0
518,-342,0,0,0,0,0,0,0,0,0,-1,1742,1366,0,0
525,-342,0,0,0,0,0,0,0,0,0,-1,1749,1366,0,0
532,-342,0,0,0,0,0,0,0,0,0,-1,1756,1366,0,0
539,-342,0,0,0,0,0,0,0,0,0,-1,1763,1366,0,0
546,-342,0,0,0,0,0,0,0,0,0,-1,1770,1366,0,0
553,-342,0,0,0,0,0,0,0,0,0,-1,1777,1366,0,0
560,-342,0,0,0,0,0,0,0,0,0,-1,1784,1366,0,0
567,-342,14.8307,-0.194092,0.039574,-0.113618,0.0293821,0.0450161,-0.11906,0.183144,0.0978921,0.0460536,1791,1366,14.8306,0.194036
574,-342,14.6486,-0.19873,0.0290008,-0.0905981,0.0350983,0.0385401,-0.100137,0.265378,0.0826563,0.0446877,1798,1366,14.6486,0.198682
581,-342,14.4655,-0.235352,0.0181077,-0.0729942,0.037962,0.0318526,-0.0867392,0.347388,0.0708712,0.0453243,1805,1366,14.4655,0.235411
588,-342,14.3702,-0.259155,0.00830817,-0.058571,0.0388551,0.0261318,-0.0763947,0.430083,0.0615191,0.0471484,1812,1366,14.3703,0.259129
595,-342,14.5444,0.308105,0.000776979,-0.0470792,0.0382541,0.0219701,-0.0682723,0.505917,0.0543395,0.0477514,1819,1366,14.5444,-0.308064
602,-342,14.5676,0.608154,-0.00448974,-0.0378419,0.0365895,0.0190447,-0.0613763,0.571581,0.0485279,0.0489997,1826,1366,14.5676,-0.608203
609,-342,14.4889,1.10596,-0.00843512,-0.0304396,0.0343068,0.0165905,-0.0554652,0.630229,0.0435728,0.0454061,1833,1366,14.4889,-1.10595
616,-342,13.7941,2.02661,-0.01123,-0.0231604,0.0324721,0.0158203,-0.0502107,0.69456,0.0398092,0.046072,1840,1366,13.7941,-2.02661
623,-342,13.3295,2.3595,0,0,0,0,0,0,0,-1,1847,1366,13.3295,-2.35948
630,-342,13.1011,2.52917,0,0,0,0,0,0,0,-1,1854,1366,13.1011,-2.52914
637,-342,12.0435,4.91577,0,0,0,0,0,0,0,-1,1861,1366,12.0435,-4.91574
644,-342,11.8235,5.10657,-0.0164601,-0.00452033,0.0191368,0.00955612,-0.0305366,0.936594,0.0241809,0.0358898,1868,1366,11.8235,-5.10661
651,-342,11.7924,5.02661,-0.0124252,-0.00362495,0.0150506,0.00765553,-0.0237057,0.927613,0.0188803,0.018092,1875,1366,11.7924,-5.02658
658,-342,11.7659,4.84875,-0.0086157,-0.00322097,0.0112528,0.00565324,-0.0174899,0.903032,0.0139321,0.0186649,1882,1366,11.7659,-4.84877
665,-342,11.7834,4.67908,-0.00521105,-0.00284052,0.00736107,0.0034301,-0.0114817,0.865222,0.00901795,0.0162077,1889,1366,11.7835,-4.67914
672,-342,11.7898,4.54065,-0.00269098,-0.00215478,0.00408024,0.00166616,-0.00651191,0.818205,0.00499026,0.0121588,1896,1366,11.7898,-4.54067
679,-342,11.7861,4.39819,-0.0010208,-0.00127157,0.00211471,0.000972242,-0.00326461,0.755786,0.00256272,0.0115504,1903,1366,11.7862,-4.39824
686,-342,11.787,4.26538,0.000943446,-0.000842626,0.000578573,0.00111449,-0.00101367,0.287439,0.00122915,0.00984391,1910,1366,11.787,-4.26541
693,-342,11.7817,4.1095,0.00309334,-0.000542153,-0.000821966,0.00327054,-0.000719358,-0.212337,0.00245553,0.010507,1917,1366,11.7817,-4.10945
700,-342,11.7472,3.95605,0.00587443,-0.000677981,-0.0020126,0.00644324,-0.00124678,-0.275437,0.00476576,0.0122529,1924,1366,11.7472,-3.95611
707,-342,11.771,3.79211,0.00976757,-0.000919679,-0.0032249,0.0106653,-0.00181739,-0.271496,0.007787,0.0121287,1931,1366,11.771,-3.79208
714,-342,11.774,3.60742,0.0149173,-0.00144739,-0.00413345,0.015902,-0.00243217,-0.233887,0.0114982,0.0244886,1938,1366,11.7741,-3.60746
721,-342,11.7737,3.34399,0.0219085,-0.0024054,-0.0052922,0.0230105,-0.00350737,-0.205291,0.0166331,0.0380139,1945,1366,11.7737,-3.34403
728,-342,12.0114,3.00085,0,0,0,0,0,0,0,-1,1952,1366,12.0113,-3.00084
735,-342,12.6964,3.70154,0,0,0,0,0,0,0,-1,1959,1366,12.6964,-3.70148
742,-342,13.0414,4.15576,0,0,0,0,0,0,0,-1,1966,1366,13.0414,-4.15571
749,-342,14.1036,-0.286133,0,0,0,0,0,0,0,-1,1973,1366,14.1037,0.286164
756,-342,0,0,0,0,0,0,0,0,0,-1,1980,1366,0,0
763,-342,0,0,0,0,0,0,0,0,0,-1,1987,1366,0,0
770,-342,0,0,0,0,0,0,0,0,0,-1,1994,1366,0,0
777,-342,0,0,0,0,0,0,0,0,0,-1,2001,1366,0,0
784,-342,0,0,0,0,0,0,0,0,0,-1,2008,1366,0,0
791,-342,0,0,0,0,0,0,0,0,0,-1,2015,1366,0,0
798,-342,0,0,0,0,0,0,0,0,0,-1,2022,1366,0,0
805,-342,0,0,0,0,0,0,0,0,0,-1,2029,1366,0,0
812,-342,0,0,0,0,0,0,0,0,0,-1,2036,1366,0,0
-700,-349,0,0,0,0,0,0,0,0,0,-1,524,1373,0,0
-693,-349,0,0,0,0,0,0,0,0,0,-1,531,1373,0,0
-686,-349,0,0,0,0,0,0,0,0,0,-1,538,1373,0,0
-679,-349,0,0,0,0,0,0,0,0,0,-1,545,1373,0,0
-672,-349,0,0,0,0,0,0,0,0,0,-1,552,1373,0,0
-665,-349,0,0,0,0,0,0,0,0,0,-1,559,1373,0,0
-658,-349,0,0,0,0,0,0,0,0,0,-1,566,1373,0,0
-651,-349,0,0,0,0,0,0,0,0,0,-1,573,1373,0,0
-644,-349,0,0,0,0,0,0,0,0,0,-1,580,1373,0,0
-637,-349,0,0,0,0,0,0,0,0,0,-1,587,1373,0,0
-630,-349,-5.16406,-3.00012,0,0,0,0,0,0,0,-1,594,1373,-5.16406,3.00016
-623,-349,-4.38342,-3.62842,0,0,0,0,0,0,0,-1,601,1373,-4.3834,3.62839
-616,-349,-4.78833,-0.219849,0,0,0,0,0,0,0,-1,608,1373,-4.7883,0.219836
-609,-349,-4.55542,-5.71716,0,0,0,0,0,0,0,-1,615,1373,-4.55541,5.71721
-602,-349,-3.9873,-0.867065,0,0,0,0,0,0,0,-1,622,1373,-3.98733,0.867052
-595,-349,-4.30493,1.88647,0,0,0,0,0,0,0,-1,629,1373,-4.30491,-1.88652
-588,-349,-4.44781,1.88708,-0.000618559,0.0254511,0.0183938,0.0349604,-0.0101279,1.09365,0.0273161,0.0435508,636,1373,-4.44781,-1.8871
-581,-349,-4.55658,1.83887,-0.00181218,0.0156251,0.0123377,0.0220138,-0.00820091,1.09299,0.0180419,0.0352389,643,1373,-4.55659,-1.83887
-574,-349,-4.66077,1.82544,-0.00253087,0.00885833,0.00735742,0.0124675,-0.00614004,1.11474,0.0109482,0.0183715,650,1373,-4.66079,-1.82542
-567,-349,-4.66479,2.03955,-0.00281501,0.00452555,0.00383119,0.00616083,-0.00445029,1.16737,0.00615281,0.0152761,657,1373,-4.6648,-2.03958
-560,-349,-4.66241,2.22852,-0.00286636,0.00210405,0.00151247,0.00252811,-0.00329042,1.29744,0.00336892,0.0193958,664,1373,-4.66238,-2.22848
-553,-349,-4.68567,2.354,-0.00329643,0.000943956,-0.00066067,0.00104451,-0.00339698,-1.41976,0.00268151,0.0246597,671,1373,-4.68568,-2.35403
-546,-349,-4.70081,2.55164,-0.00285906,0.000123788,-0.00183055,0.000993562,-0.00372883,-1.12723,0.00287488,0.0268609,678,1373,-4.70083,-2.55166
-539,-349,-4.72284,2.77209,-0.00254217,-0.00146046,-0.00260522,0.000659459,-0.00466209,-0.887747,0.00334959,0.0229024,685,1373,-4.72284,-2.77215
-532,-349,-4.69446,2.92139,-0.00287342,-0.002534,-0.00328125,0.000581925,-0.00598934,-0.811236,0.00420033,0.0165788,692,1373,-4.69444,-2.92142
-525,-349,-4.66632,3.10754,-0.00388911,-0.00309412,-0.00416857,0.000695862,-0.00767909,-0.832932,0.00536641,0.0121009,699,1373,-4.66633,-3.10753
-518,-349,-4.66638,3.30811,-0.00579455,-0.00295694,-0.00470002,0.000533757,-0.00928525,-0.931985,0.00637554,0.0114894,706,1373,-4.66637,-3.30809
-511,-349,-4.59698,3.52246,-0.00984376,0.000402147,-0.0041895,0.00189709,-0.0113387,-1.22805,0.0082644,0.025852,713,1373,-4.59699,-3.52248
-504,-349,-4.68524,3.53369,-0.0155247,0.00590842,-0.00296378,0.0063107,-0.0159269,-1.43589,0.013233,0.0482759,720,1373,-4.68522,-3.53365
-497,-349,-4.32776,3.16052,-0.0239572,0.0129622,-0.00134639,0.0130113,-0.0240062,-1.53439,0.021684,0.0455339,727,1373,-4.32773,-3.16048
-490,-349,-3.92792,2.65454,-0.0335878,0.0211712,0.000977858,0.0211886,-0.0336053,1.55295,0.0319049,0.0460355,734,1373,-3.92794,-2.65449
-483,-349,-3.68335,2.57312,0,0,0,0,0,0,0,-1,741,1373,-3.68337,-2.57314
-476,-349,-4.51025,-2.57019,0,0,0,0,0,0,0,-1,748,1373,-4.51025,2.57015
-469,-349,-5.44037,-2.6189,0,0,0,0,0,0,0,-1,755,1373,-5.44034,2.61885
-462,-349,-6.66028,-2.76257,-0.0879915,0.0702221,0.0155105,0.0717284,-0.0894977,1.47399,0.0932722,0.0473292,762,1373,-6.6603,2.76258
-455,-349,-7.56616,-2.33289,-0.107366,0.0857134,0.0197786,0.0877187,-0.109371,1.46976,0.114018,0.0487492,769,1373,-7.56615,2.33289
-448,-349,-8.44684,-1.89453,-0.128832,0.101441,0.0235285,0.103821,-0.131211,1.47001,0.136002,0.0498428,776,1373,-8.44683,1.89455
-441,-349,0,0,0,0,0,0,0,0,0,-1,783,1373,0,0
-434,-349,0,0,0,0,0,0,0,0,0,-1,790,1373,0,0
-427,-349,0,0,0,0,0,0,0,0,0,-1,797,1373,0,0
-420,-349,0,0,0,0,0,0,0,0,0,-1,804,1373,0,0
-413,-349,0,0,0,0,0,0,0,0,0,-1,811,1373,0,0
-406,-349,0,0,0,0,0,0,0,0,0,-1,818,1373,0,0
-399,-349,0,0,0,0,0,0,0,0,0,-1,825,1373,0,0
-392,-349,0,0,0,0,0,0,0,0,0,-1,832,1373,0,0
-385,-349,0,0,0,0,0,0,0,0,0,-1,839,1373,0,0
-378,-349,0,0,0,0,0,0,0,0,0,-1,846,1373,0,0
-371,-349,0,0,0,0,0,0,0,0,0,-1,853,1373,0,0
-364,-349,0,0,0,0,0,0,0,0,0,-1,860,1373,0,0
-357,-349,0,0,0,0,0,0,0,0,0,-1,867,1373,0,0
-350,-349,0,0,0,0,0,0,0,0,0,-1,874,1373,0,0
-343,-349,0,0,0,0,0,0,0,0,0,-1,881,1373,0,0
-336,-349,0,0,0,0,0,0,0,0,0,-1,888,1373,0,0
-329,-349,0,0,0,0,0,0,0,0,0,-1,895,1373,0,0
-322,-349,0,0,0,0,0,0,0,0,0,-1,902,1373,0,0
-315,-349,0,0,0,0,0,0,0,0,0,-1,909,1373,0,0
-308,-349,0,0,0,0,0,0,0,0,0,-1,916,1373,0,0
-301,-349,0,0,0,0,0,0,0,0,0,-1,923,1373,0,0
-294,-349,0,0,0,0,0,0,0,0,0,-1,930,1373,0,0
-287,-349,0,0,0,0,0,0,0,0,0,-1,937,1373,0,0
-280,-349,0,0,0,0,0,0,0,0,0,-1,944,1373,0,0
-273,-349,0,0,0,0,0,0,0,0,0,-1,951,1373,0,0
-266,-349,0,0,0,0,0,0,0,0,0,-1,958,1373,0,0
-259,-349,0,0,0,0,0,0,0,0,0,-1,965,1373,0,0
-252,-349,0,0,0,0,0,0,0,0,0,-1,972,1373,0,0
-245,-349,0,0,0,0,0,0,0,0,0,-1,979,1373,0,0
-238,-349,0,0,0,0,0,0,0,0,0,-1,986,1373,0,0
-231,-349,0,0,0,0,0,0,0,0,0,-1,993,1373,0,0
-224,-349,0,0,0,0,0,0,0,0,0,-1,1000,1373,0,0
-217,-349,0,0,0,0,0,0,0,0,0,-1,1007,1373,0,0
-210,-349,0,0,0,0,0,0,0,0,0,-1,1014,1373,0,0
-203,-349,0,0,0,0,0,0,0,0,0,-1,1021,1373,0,0
-196,-349,0,0,0,0,0,0,0,0,0,-1,1028,1373,0,0
-189,-349,0,0,0,0,0,0,0,0,0,-1,1035,1373,0,0
-182,-349,0,0,0,0,0,0,0,0,0,-1,1042,1373,0,0
-175,-349,0,0,0,0,0,0,0,0,0,-1,1049,1373,0,0
-168,-349,0,0,0,0,0,0,0,0,0,-1,1056,1373,0,0
-161,-349,0,0,0,0,0,0,0,0,0,-1,1063,1373,0,0
-154,-349,0,0,0,0,0,0,0,0,0,-1,1070,1373,0,0
-147,-349,0,0,0,0,0,0,0,0,0,-1,1077,1373,0,0
-140,-349,0,0,0,0,0,0,0,0,0,-1,1084,1373,0,0
-133,-349,0,0,0,0,0,0,0,0,0,-1,1091,1373,0,0
-126,-349,0,0,0,0,0,0,0,0,0,-1,1098,1373,0,0
-119,-349,0,0,0,0,0,0,0,0,0,-1,1105,1373,0,0
-112,-349,0,0,0,0,0,0,0,0,0,-1,1112,1373,0,0
-105,-349,0,0,0,0,0,0,0,0,0,-1,1119,1373,0,0
-98,-349,0,0,0,0,0,0,0,0,0,-1,1126,1373,0,0
-91,-349,0,0,0,0,0,0,0,0,0,-1,1133,1373,0,0
-84,-349,0,0,0,0,0,0,0,0,0,-1,1140,1373,0,0
-77,-349,0,0,0,0,0,0,0,0,0,-1,1147,1373,0,0
-70,-349,0,0,0,0,0,0,0,0,0,-1,1154,1373,0,0
-63,-349,0,0,0,0,0,0,0,0,0,-1,1161,1373,0,0
-56,-349,0,0,0,0,0,0,0,0,0,-1,1168,1373,0,0
-49,-349,0,0,0,0,0,0,0,0,0,-1,1175,1373,0,0
-42,-349,0,0,0,0,0,0,0,0,0,-1,1182,1373,0,0
-35,-349,0,0,0,0,0,0,0,0,0,-1,1189,1373,0,0
-28,-349,0,0,0,0,0,0,0,0,0,-1,1196,1373,0,0
-21,-349,0,0,0,0,0,0,0,0,0,-1,1203,1373,0,0
-14,-349,0,0,0,0,0,0,0,0,0,-1,1210,1373,0,0
-7,-349,0,0,0,0,0,0,0,0,0,-1,1217,1373,0,0
0,-349,0,0,0,0,0,0,0,0,0,-1,1224,1373,0,0
7,-349,0,0,0,0,0,0,0,0,0,-1,1231,1373,0,0
14,-349,0,0,0,0,0,0,0,0,0,-1,1238,1373,0,0
21,-349,0,0,0,0,0,0,0,0,0,-1,1245,1373,0,0
28,-349,0,0,0,0,0,0,0,0,0,-1,1252,1373,0,0
35,-349,0,0,0,0,0,0,0,0,0,-1,1259,1373,0,0
42,-349,0,0,0,0,0,0,0,0,0,-1,1266,1373,0,0
49,-349,0,0,0,0,0,0,0,0,0,-1,1273,1373,0,0
56,-349,0,0,0,0,0,0,0,0,0,-1,1280,1373,0,0
63,-349,0,0,0,0,0,0,0,0,0,-1,1287,1373,0,0
70,-349,0,0,0,0,0,0,0,0,0,-1,1294,1373,0,0
77,-349,0,0,0,0,0,0,0,0,0,-1,1301,1373,0,0
84,-349,0,0,0,0,0,0,0,0,0,-1,1308,1373,0,0
91,-349,0,0,0,0,0,0,0,0,0,-1,1315,1373,0,0
98,-349,0,0,0,0,0,0,0,0,0,-1,1322,1373,0,0
105,-349,0,0,0,0,0,0,0,0,0,-1,1329,1373,0,0
112,-349,0,0,0,0,0,0,0,0,0,-1,1336,1373,0,0
119,-349,0,0,0,0,0,0,0,0,0,-1,1343,1373,0,0
126,-349,0,0,0,0,0,0,0,0,0,-1,1350,1373,0,0
133,-349,0,0,0,0,0,0,0,0,0,-1,1357,1373,0,0
140,-349,0,0,0,0,0,0,0,0,0,-1,1364,1373,0,0
147,-349,0,0,0,0,0,0,0,0,0,-1,1371,1373,0,0
154,-349,0,0,0,0,0,0,0,0,0,-1,1378,1373,0,0
161,-349,0,0,0,0,0,0,0,0,0,-1,1385,1373,0,0
168,-349,0,0,0,0,0,0,0,0,0,-1,1392,1373,0,0
175,-349,0,0,0,0,0,0,0,0,0,-1,1399,1373,0,0
182,-349,0,0,0,0,0,0,0,0,0,-1,1406,1373,0,0
189,-349,0,0,0,0,0,0,0,0,0,-1,1413,1373,0,0
196,-349,0,0,0,0,0,0,0,0,0,-1,1420,1373,0,0
203,-349,0,0,0,0,0,0,0,0,0,-1,1427,1373,0,0
210,-349,0,0,0,0,0,0,0,0,0,-1,1434,1373,0,0
217,-349,0,0,0,0,0,0,0,0,0,-1,1441,1373,0,0
224,-349,0,0,0,0,0,0,0,0,0,-1,1448,1373,0,0
231,-349,0,0,0,0,0,0,0,0,0,-1,1455,1373,0,0
238,-349,0,0,0,0,0,0,0,0,0,-1,1462,1373,0,0
245,-349,0,0,0,0,0,0,0,0,0,-1,1469,1373,0,0
252,-349,0,0,0,0,0,0,0,0,0,-1,1476,1373,0,0
259,-349,0,0,0,0,0,0,0,0,0,-1,1483,1373,0,0
266,-349,0,0,0,0,0,0,0,0,0,-1,1490,1373,0,0
273,-349,0,0,0,0,0,0,0,0,0,-1,1497,1373,0,0
280,-349,0,0,0,0,0,0,0,0,0,-1,1504,1373,0,0
287,-349,0,0,0,0,0,0,0,0,0,-1,1511,1373,0,0
294,-349,0,0,0,0,0,0,0,0,0,-1,1518,1373,0,0
301,-349,0,0,0,0,0,0,0,0,0,-1,1525,1373,0,0
308,-349,0,0,0,0,0,0,0,0,0,-1,1532,1373,0,0
315,-349,0,0,0,0,0,0,0,0,0,-1,1539,1373,0,0
322,-349,0,0,0,0,0,0,0,0,0,-1,1546,1373,0,0
329,-349,0,0,0,0,0,0,0,0,0,-1,1553,1373,0,0
336,-349,0,0,0,0,0,0,0,0,0,-1,1560,1373,0,0
343,-349,0,0,0,0,0,0,0,0,0,-1,1567,1373,0,0
350,-349,0,0,0,0,0,0,0,0,0,-1,1574,1373,0,0
357,-349,0,0,0,0,0,0,0,0,0,-1,1581,1373,0,0
364,-349,0,0,0,0,0,0,0,0,0,-1,1588,1373,0,0
371,-349,0,0,0,0,0,0,0,0,0,-1,1595,1373,0,0
378,-349,0,0,0,0,0,0,0,0,0,-1,1602,1373,0,0
385,-349,0,0,0,0,0,0,0,0,0,-1,1609,1373,0,0
392,-349,0,0,0,0,0,0,0,0,0,-1,1616,1373,0,0
399,-349,0,0,0,0,0,0,0,0,0,-1,1623,1373,0,0
406,-349,0,0,0,0,0,0,0,0,0,-1,1630,1373,0,0
413,-349,0,0,0,0,0,0,0,0,0,-1,1637,1373,0,0
420,-349,0,0,0,0,0,0,0,0,0,-1,1644,1373,0,0
427,-349,0,0,0,0,0,0,0,0,0,-1,1651,1373,0,0
434,-349,0,0,0,0,0,0,0,0,0,-1,1658,1373,0,0
441,-349,0,0,0,0,0,0,0,0,0,-1,1665,1373,0,0
448,-349,0,0,0,0,0,0,0,0,0,-1,1672,1373,0,0
455,-349,0,0,0,0,0,0,0,0,0,-1,1679,1373,0,0
462,-349,0,0,0,0,0,0,0,0,0,-1,1686,1373,0,0
469,-349,0,0,0,0,0,0,0,0,0,-1,1693,1373,0,0
476,-349,0,0,0,0,0,0,0,0,0,-1,1700,1373,0,0
483,-349,0,0,0,0,0,0,0,0,0,-1,1707,1373,0,0
490,-349,0,0,0,0,0,0,0,0,0,-1,1714,1373,0,0
497,-349,0,0,0,0,0,0,0,0,0,-1,1721,1373,0,0
504,-349,0,0,0,0,0,0,0,0,0,-1,1728,1373,0,0
511,-349,0,0,0,0,0,0,0,0,0,-1,1735,1373,0,0
518,-349,0,0,0,0,0,0,0,0,0,-1,1742,1373,0,0
525,-349,0,0,0,0,0,0,0,0,0,-1,1749,1373,0,0
532,-349,0,0,0,0,0,0,0,0,0,-1,1756,1373,0,0
539,-349,0,0,0,0,0,0,0,0,0,-1,1763,1373,0,0
546,-349,0,0,0,0,0,0,0,0,0,-1,1770,1373,0,0
553,-349,0,0,0,0,0,0,0,0,0,-1,1777,1373,0,0
560,-349,15.0975,0.541992,0.0341548,-0.126268,0.0362663,0.0419725,-0.134085,0.212314,0.106183,0.0427266,1784,1373,15.0976,-0.542006
567,-349,14.8059,0.912964,0.0312491,-0.103499,0.040478,0.0424735,-0.114724,0.270502,0.093899,0.0451538,1791,1373,14.8059,-0.912911
574,-349,14.7408,0.87207,0.0222256,-0.0843915,0.0440198,0.0380513,-0.100217,0.345124,0.082475,0.0474273,1798,1373,14.7408,-0.872025
581,-349,14.5896,0.814209,0.0129496,-0.0698387,0.0447265,0.0324976,-0.0893867,0.412036,0.0728802,0.0470814,1805,1373,14.5896,-0.814174
588,-349,13.9414,-0.102295,0,0,0,0,0,0,0,-1,1812,1373,13.9414,0.102268
595,-349,14.317,0.746216,-0.00155241,-0.0480928,0.0411955,0.0224909,-0.0721361,0.528303,0.0570842,0.0465814,1819,1373,14.317,-0.746163
602,-349,14.1803,1.03381,-0.00602763,-0.0395268,0.0383441,0.0190656,-0.0646201,0.579477,0.0506459,0.0463574,1826,1373,14.1803,-1.03387
609,-349,14.1089,1.51697,0,0,0,0,0,0,0,-1,1833,1373,14.1089,-1.51701
616,-349,13.2068,2.14465,0,0,0,0,0,0,0,-1,1840,1373,13.2068,-2.14462
623,-349,12.9539,2.23669,0,0,0,0,0,0,0,-1,1847,1373,12.9538,-2.2367
630,-349,11.7151,4.66138,0,0,0,0,0,0,0,-1,1854,1373,11.7151,-4.66141
637,-349,11.9399,5.0116,-0.0189405,-0.00849611,0.0219101,0.00880552,-0.0362421,0.902389,0.0275694,0.0451302,1861,1373,11.94,-5.01161
644,-349,11.5652,5.18726,-0.0155309,-0.00618687,0.0171481,0.00691426,-0.028632,0.918395,0.021762,0.0348265,1868,1373,11.5652,-5.1872
651,-349,11.6616,4.97034,-0.0115125,-0.00473645,0.0129538,0.00526502,-0.021514,0.913307,0.0163821,0.0214178,1875,1373,11.6616,-4.97039
658,-349,11.61,4.80481,-0.00781189,-0.0038361,0.00934591,0.003731,-0.015379,0.890188,0.0116964,0.0260663,1882,1373,11.6099,-4.80483
665,-349,11.6433,4.67029,-0.00451781,-0.00312779,0.0058132,0.0020318,-0.0096774,0.844894,0.00722474,0.0201514,1889,1373,11.6433,-4.67033
672,-349,11.6259,4.53308,-0.00196536,-0.00234018,0.00297735,0.000830478,-0.00513602,0.753967,0.00373177,0.0132121,1896,1373,11.6258,-4.53313
679,-349,11.6074,4.41016,-0.000323014,-0.00140495,0.00135803,0.000597825,-0.00232579,0.595856,0.00178352,0.0127202,1903,1373,11.6074,-4.41015
686,-349,11.6372,4.2821,0.00151812,-0.00106798,8.19257e-05,0.00152071,-0.00107057,0.031637,0.00150358,0.0115639,1910,1373,11.6372,-4.28215
693,-349,11.6416,4.12366,0.00350815,-0.000907138,-0.00113208,0.00378149,-0.00118048,-0.236917,0.00299311,0.0137795,1917,1373,11.6416,-4.12366
700,-349,11.6219,3.96875,0.00591582,-0.00117657,-0.00216574,0.00652486,-0.0017856,-0.274133,0.00505142,0.015294,1924,1373,11.6219,-3.96879
707,-349,11.6523,3.79126,0.00899113,-0.00166075,-0.00307311,0.00981414,-0.00248376,-0.261671,0.00750888,0.0187107,1931,1373,11.6524,-3.7913
714,-349,11.6263,3.62976,0.0134272,-0.00242584,-0.00380094,0.0142914,-0.00329005,-0.223566,0.0107928,0.0249948,1938,1373,11.6263,-3.62975
721,-349,11.9094,3.4375,0.0194044,-0.00368908,-0.00463065,0.0202983,-0.004583,-0.190699,0.0152906,0.0388819,1945,1373,11.9094,-3.43753
728,-349,12.2948,3.14587,0,0,0,0,0,0,0,-1,1952,1373,12.2948,-3.14583
735,-349,12.6996,3.39893,0,0,0,0,0,0,0,-1,1959,1373,12.6995,-3.39893
742,-349,11.7262,2.67896,0,0,0,0,0,0,0,-1,1966,1373,11.7262,-2.679
749,-349,11.9012,2.57483,0,0,0,0,0,0,0,-1,1973,1373,11.9013,-2.57481
756,-349,0,0,0,0,0,0,0,0,0,-1,1980,1373,0,0
763,-349,0,0,0,0,0,0,0,0,0,-1,1987,1373,0,0
770,-349,0,0,0,0,0,0,0,0,0,-1,1994,1373,0,0
777,-349,0,0,0,0,0,0,0,0,0,-1,2001,1373,0,0
784,-349,0,0,0,0,0,0,0,0,0,-1,2008,1373,0,0
791,-349,0,0,0,0,0,0,0,0,0,-1,2015,1373,0,0
798,-349,0,0,0,0,0,0,0,0,0,-1,2022,1373,0,0
805,-349,0,0,0,0,0,0,0,0,0,-1,2029,1373,0,0
812,-349,0,0,0,0,0,0,0,0,0,-1,2036,1373,0,0
-700,-356,0,0,0,0,0,0,0,0,0,-1,524,1380,0,0
-693,-356,0,0,0,0,0,0,0,0,0,-1,531,1380,0,0
-686,-356,0,0,0,0,0,0,0,0,0,-1,538,1380,0,0
-679,-356,0,0,0,0,0,0,0,0,0,-1,545,1380,0,0
-672,-356,0,0,0,0,0,0,0,0,0,-1,552,1380,0,0
-665,-356,0,0,0,0,0,0,0,0,0,-1,559,1380,0,0
-658,-356,0,0,0,0,0,0,0,0,0,-1,566,1380,0,0
-651,-356,0,0,0,0,0,0,0,0,0,-1,573,1380,0,0
-644,-356,0,0,0,0,0,0,0,0,0,-1,580,1380,0,0
-637,-356,0,0,0,0,0,0,0,0,0,-1,587,1380,0,0
-630,-356,-5.27063,-5.19885,0,0,0,0,0,0,0,-1,594,1380,-5.2706,5.19882
-623,-356,-5.27997,-4.25562,0,0,0,0,0,0,0,-1,601,1380,-5.27998,4.25563
-616,-356,-3.97906,-7.11743,0,0,0,0,0,0,0,-1,608,1380,-3.97908,7.11749
-609,-356,-3.78308,-5.68335,0,0,0,0,0,0,0,-1,615,1380,-3.78309,5.68337
-602,-356,-2.97687,-3.73511,0,0,0,0,0,0,0,-1,622,1380,-2.97688,3.73506
-595,-356,-4.16101,2.04724,0,0,0,0,0,0,0,-1,629,1380,-4.16099,-2.04721
-588,-356,-4.26221,2.026,0.00194163,0.0250261,0.0264853,0.042375,-0.0154073,0.990888,0.0345505,0.0468765,636,1380,-4.26222,-2.02606
-581,-356,-4.3006,1.98254,-0.000361695,0.016172,0.0181282,0.0278293,-0.012019,0.999324,0.0236023,0.0387146,643,1380,-4.3006,-1.98258
-574,-356,-4.38483,1.88525,-0.00196623,0.0099225,0.0114372,0.0168678,-0.00891155,1.02506,0.0151182,0.0252456,650,1380,-4.38483,-1.88529
-567,-356,-4.50201,2.00793,-0.00284834,0.00583681,0.00658021,0.00937822,-0.00638974,1.07707,0.00915797,0.0146573,657,1380,-4.50203,-2.00795
-560,-356,-4.48035,2.229,-0.00317035,0.00337532,0.00329456,0.00474636,-0.00454139,1.17644,0.00536272,0.0155454,664,1380,-4.48036,-2.22898
-553,-356,-4.48242,2.38196,-0.0037382,0.00214192,0.000344926,0.00216209,-0.00375836,1.5124,0.00345934,0.0182438,671,1380,-4.48245,-2.38194
-546,-356,-4.50189,2.55444,-0.00314451,0.00103779,-0.00135263,0.00143712,-0.00354385,-1.28372,0.00296026,0.0203336,678,1380,-4.50189,-2.55442
-539,-356,-4.51331,2.75488,-0.0024921,-0.00104851,-0.00246296,0.000796237,-0.00433685,-0.927938,0.00318994,0.0147617,685,1380,-4.51332,-2.75484
-532,-356,-4.50562,2.91943,-0.00233039,-0.00265495,-0.00324599,0.000757371,-0.00574271,-0.760422,0.00410429,0.0139658,692,1380,-4.50562,-2.91941
-525,-356,-4.50433,3.08716,-0.00266486,-0.00395726,-0.00424169,0.000979575,-0.00760169,-0.709807,0.00542389,0.0120433,699,1380,-4.50436,-3.08712
-518,-356,-4.47272,3.30371,-0.00377306,-0.00487781,-0.00503503,0.000739799,-0.00939067,-0.730764,0.00652105,0.0114435,706,1380,-4.47273,-3.30371
-511,-356,-4.38428,3.53259,-0.00702224,-0.00297862,-0.00501882,0.000410325,-0.0104112,-0.976877,0.00708153,0.0192445,713,1380,-4.38425,-3.53257
-504,-356,-4.43823,3.56665,-0.0120234,0.00102597,-0.00433302,0.00233369,-0.0133311,-1.27769,0.00975877,0.0418671,720,1380,-4.43821,-3.5667
-497,-356,-4.3186,3.4043,-0.0201418,0.00699007,-0.0031399,0.0073487,-0.0205004,-1.45707,0.0166656,0.0452152,727,1380,-4.31861,-3.40432
-490,-356,-3.97015,2.74438,-0.0297574,0.0143281,-0.00118004,0.0143597,-0.0297889,-1.54405,0.0260029,0.0446513,734,1380,-3.97018,-2.74439
-483,-356,-4.08881,2.59583,-0.040556,0.0235637,0.00138438,0.0235936,-0.0405858,1.54922,0.0374844,0.0485356,741,1380,-4.08883,-2.59581
-476,-356,-4.41052,2.87915,0,0,0,0,0,0,0,-1,748,1380,-4.41053,-2.87912
-469,-356,-4.72894,-3.14575,0,0,0,0,0,0,0,-1,755,1380,-4.72892,3.14575
-462,-356,-6.2052,-3.45215,0,0,0,0,0,0,0,-1,762,1380,-6.20522,3.4521
-455,-356,-7.15009,-3.04504,0,0,0,0,0,0,0,-1,769,1380,-7.15007,3.04508
-448,-356,-7.95459,-2.33423,-0.128007,0.0900581,0.0185833,0.0916304,-0.129579,1.48639,0.12834,0.0479286,776,1380,-7.95456,2.33426
-441,-356,-8.95667,-1.80969,-0.14845,0.102758,0.0205069,0.104421,-0.150113,1.48988,0.147743,0.0468543,783,1380,-8.95669,1.80968
-434,-356,0,0,0,0,0,0,0,0,0,-1,790,1380,0,0
-427,-356,0,0,0,0,0,0,0,0,0,-1,797,1380,0,0
-420,-356,0,0,0,0,0,0,0,0,0,-1,804,1380,0,0
-413,-356,0,0,0,0,0,0,0,0,0,-1,811,1380,0,0
-406,-356,0,0,0,0,0,0,0,0,0,-1,818,1380,0,0
-399,-356,0,0,0,0,0,0,0,0,0,-1,825,1380,0,0
-392,-356,0,0,0,0,0,0,0,0,0,-1,832,1380,0,0
-385,-356,0,0,0,0,0,0,0,0,0,-1,839,1380,0,0
-378,-356,0,0,0,0,0,0,0,0,0,-1,846,1380,0,0
-371,-356,0,0,0,0,0,0,0,0,0,-1,853,1380,0,0
-364,-356,0,0,0,0,0,0,0,0,0,-1,860,1380,0,0
-357,-356,0,0,0,0,0,0,0,0,0,-1,867,1380,0,0
-350,-356,0,0,0,0,0,0,0,0,0,-1,874,1380,0,0
-343,-356,0,0,0,0,0,0,0,0,0,-1,881,1380,0,0
-336,-356,0,0,0,0,0,0,0,0,0,-1,888,1380,0,0
-329,-356,0,0,0,0,0,0,0,0,0,-1,895,1380,0,0
-322,-356,0,0,0,0,0,0,0,0,0,-1,902,1380,0,0
-315,-356,0,0,0,0,0,0,0,0,0,-1,909,1380,0,0
-308,-356,0,0,0,0,0,0,0,0,0,-1,916,1380,0,0
-301,-356,0,0,0,0,0,0,0,0,0,-1,923,1380,0,0
-294,-356,0,0,0,0,0,0,0,0,0,-1,930,1380,0,0
-287,-356,0,0,0,0,0,0,0,0,0,-1,937,1380,0,0
-280,-356,0,0,0,0,0,0,0,0,0,-1,944,1380,0,0
-273,-356,0,0,0,0,0,0,0,0,0,-1,951,1380,0,0
-266,-356,0,0,0,0,0,0,0,0,0,-1,958,1380,0,0
-259,-356,0,0,0,0,0,0,0,0,0,-1,965,1380,0,0
-252,-356,0,0,0,0,0,0,0,0,0,-1,972,1380,0,0
-245,-356,0,0,0,0,0,0,0,0,0,-1,979,1380,0,0
-238,-356,0,0,0,0,0,0,0,0,0,-1,986,1380,0,0
-231,-356,0,0,0,0,0,0,0,0,0,-1,993,1380,0,0
-224,-356,0,0,0,0,0,0,0,0,0,-1,1000,1380,0,0
-217,-356,0,0,0,0,0,0,0,0,0,-1,1007,1380,0,0
-210,-356,0,0,0,0,0,0,0,0,0,-1,1014,1380,0,0
-203,-356,0,0,0,0,0,0,0,0,0,-1,1021,1380,0,0
-196,-356,0,0,0,0,0,0,0,0,0,-1,1028,1380,0,0
-189,-356,0,0,0,0,0,0,0,0,0,-1,1035,1380,0,0
-182,-356,0,0,0,0,0,0,0,0,0,-1,1042,1380,0,0
-175,-356,0,0,0,0,0,0,0,0,0,-1,1049,1380,0,0
-168,-356,0,0,0,0,0,0,0,0,0,-1,1056,1380,0,0
-161,-356,0,0,0,0,0,0,0,0,0,-1,1063,1380,0,0
-154,-356,0,0,0,0,0,0,0,0,0,-1,1070,1380,0,0
-147,-356,0,0,0,0,0,0,0,0,0,-1,1077,1380,0,0
-140,-356,0,0,0,0,0,0,0,0,0,-1,1084,1380,0,0
-133,-356,0,0,0,0,0,0,0,0,0,-1,1091,1380,0,0
-126,-356,0,0,0,0,0,0,0,0,0,-1,1098,1380,0,0
-119,-356,0,0,0,0,0,0,0,0,0,-1,1105,1380,0,0
-112,-356,0,0,0,0,0,0,0,0,0,-1,1112,1380,0,0
-105,-356,0,0,0,0,0,0,0,0,0,-1,1119,1380,0,0
-98,-356,0,0,0,0,0,0,0,0,0,-1,1126,1380,0,0
-91,-356,0,0,0,0,0,0,0,0,0,-1,1133,1380,0,0
-84,-356,0,0,0,0,0,0,0,0,0,-1,1140,1380,0,0
-77,-356,0,0,0,0,0,0,0,0,0,-1,1147,1380,0,0
-70,-356,0,0,0,0,0,0,0,0,0,-1,1154,1380,0,0
-63,-356,0,0,0,0,0,0,0,0,0,-1,1161,1380,0,0
-56,-356,0,0,0,0,0,0,0,0,0,-1,1168,1380,0,0
-49,-356,0,0,0,0,0,0,0,0,0,-1,1175,1380,0,0
-42,-356,0,0,0,0,0,0,0,0,0,-1,1182,1380,0,0
-35,-356,0,0,0,0,0,0,0,0,0,-1,1189,1380,0,0
-28,-356,0,0,0,0,0,0,0,0,0,-1,1196,1380,0,0
-21,-356,0,0,0,0,0,0,0,0,0,-1,1203,1380,0,0
-14,-356,0,0,0,0,0,0,0,0,0,-1,1210,1380,0,0
-7,-356,0,0,0,0,0,0,0,0,0,-1,1217,1380,0,0
0,-356,0,0,0,0,0,0,0,0,0,-1,1224,1380,0,0
7,-356,0,0,0,0,0,0,0,0,0,-1,1231,1380,0,0
14,-356,0,0,0,0,0,0,0,0,0,-1,1238,1380,0,0
21,-356,0,0,0,0,0,0,0,0,0,-1,1245,1380,0,0
28,-356,0,0,0,0,0,0,0,0,0,-1,1252,1380,0,0
35,-356,0,0,0,0,0,0,0,0,0,-1,1259,1380,0,0
42,-356,0,0,0,0,0,0,0,0,0,-1,1266,1380,0,0
49,-356,0,0,0,0,0,0,0,0,0,-1,1273,1380,0,0
56,-356,0,0,0,0,0,0,0,0,0,-1,1280,1380,0,0
63,-356,0,0,0,0,0,0,0,0,0,-1,1287,1380,0,0
70,-356,0,0,0,0,0,0,0,0,0,-1,1294,1380,0,0
77,-356,0,0,0,0,0,0,0,0,0,-1,1301,1380,0,0
84,-356,0,0,0,0,0,0,0,0,0,-1,1308,1380,0,0
91,-356,0,0,0,0,0,0,0,0,0,-1,1315,1380,0,0
98,-356,0,0,0,0,0,0,0,0,0,-1,1322,1380,0,0
105,-356,0,0,0,0,0,0,0,0,0,-1,1329,1380,0,0
112,-356,0,0,0,0,0,0,0,0,0,-1,1336,1380,0,0
119,-356,0,0,0,0,0,0,0,0,0,-1,1343,1380,0,0
126,-356,0,0,0,0,0,0,0,0,0,-1,1350,1380,0,0
133,-356,0,0,0,0,0,0,0,0,0,-1,1357,1380,0,0
140,-356,0,0,0,0,0,0,0,0,0,-1,1364,1380,0,0
147,-356,0,0,0,0,0,0,0,0,0,-1,1371,1380,0,0
154,-356,0,0,0,0,0,0,0,0,0,-1,1378,1380,0,0
161,-356,0,0,0,0,0,0,0,0,0,-1,1385,1380,0,0
168,-356,0,0,0,0,0,0,0,0,0,-1,1392,1380,0,0
175,-356,0,0,0,0,0,0,0,0,0,-1,1399,1380,0,0
182,-356,0,0,0,0,0,0,0,0,0,-1,1406,1380,0,0
189,-356,0,0,0,0,0,0,0,0,0,-1,1413,1380,0,0
196,-356,0,0,0,0,0,0,0,0,0,-1,1420,1380,0,0
203,-356,0,0,0,0,0,0,0,0,0,-1,1427,1380,0,0
210,-356,0,0,0,0,0,0,0,0,0,-1,1434,1380,0,0
217,-356,0,0,0,0,0,0,0,0,0,-1,1441,1380,0,0
224,-356,0,0,0,0,0,0,0,0,0,-1,1448,1380,0,0
231,-356,0,0,0,0,0,0,0,0,0,-1,1455,1380,0,0
238,-356,0,0,0,0,0,0,0,0,0,-1,1462,1380,0,0
245,-356,0,0,0,0,0,0,0,0,0,-1,1469,1380,0,0
252,-356,0,0,0,0,0,0,0,0,0,-1,1476,1380,0,0
259,-356,0,0,0,0,0,0,0,0,0,-1,1483,1380,0,0
266,-356,0,0,0,0,0,0,0,0,0,-1,1490,1380,0,0
273,-356,0,0,0,0,0,0,0,0,0,-1,1497,1380,0,0
280,-356,0,0,0,0,0,0,0,0,0,-1,1504,1380,0,0
287,-356,0,0,0,0,0,0,0,0,0,-1,1511,1380,0,0
294,-356,0,0,0,0,0,0,0,0,0,-1,1518,1380,0,0
301,-356,0,0,0,0,0,0,0,0,0,-1,1525,1380,0,0
308,-356,0,0,0,0,0,0,0,0,0,-1,1532,1380,0,0
315,-356,0,0,0,0,0,0,0,0,0,-1,1539,1380,0,0
322,-356,0,0,0,0,0,0,0,0,0,-1,1546,1380,0,0
329,-356,0,0,0,0,0,0,0,0,0,-1,1553,1380,0,0
336,-356,0,0,0,0,0,0,0,0,0,-1,1560,1380,0,0
343,-356,0,0,0,0,0,0,0,0,0,-1,1567,1380,0,0
350,-356,0,0,0,0,0,0,0,0,0,-1,1574,1380,0,0
357,-356,0,0,0,0,0,0,0,0,0,-1,1581,1380,0,0
364,-356,0,0,0,0,0,0,0,0,0,-1,1588,1380,0,0
371,-356,0,0,0,0,0,0,0,0,0,-1,1595,1380,0,0
378,-356,0,0,0,0,0,0,0,0,0,-1,1602,1380,0,0
385,-356,0,0,0,0,0,0,0,0,0,-1,1609,1380,0,0
392,-356,0,0,0,0,0,0,0,0,0,-1,1616,1380,0,0
399,-356,0,0,0,0,0,0,0,0,0,-1,1623,1380,0,0
406,-356,0,0,0,0,0,0,0,0,0,-1,1630,1380,0,0
413,-356,0,0,0,0,0,0,0,0,0,-1,1637,1380,0,0
420,-356,0,0,0,0,0,0,0,0,0,-1,1644,1380,0,0
427,-356,0,0,0,0,0,0,0,0,0,-1,1651,1380,0,0
434,-356,0,0,0,0,0,0,0,0,0,-1,1658,1380,0,0
441,-356,0,0,0,0,0,0,0,0,0,-1,1665,1380,0,0
448,-356,0,0,0,0,0,0,0,0,0,-1,1672,1380,0,0
455,-356,0,0,0,0,0,0,0,0,0,-1,1679,1380,0,0
462,-356,0,0,0,0,0,0,0,0,0,-1,1686,1380,0,0
469,-356,0,0,0,0,0,0,0,0,0,-1,1693,1380,0,0
476,-356,0,0,0,0,0,0,0,0,0,-1,1700,1380,0,0
483,-356,0,0,0,0,0,0,0,0,0,-1,1707,1380,0,0
490,-356,0,0,0,0,0,0,0,0,0,-1,1714,1380,0,0
497,-356,0,0,0,0,0,0,0,0,0,-1,1721,1380,0,0
504,-356,0,0,0,0,0,0,0,0,0,-1,1728,1380,0,0
511,-356,0,0,0,0,0,0,0,0,0,-1,1735,1380,0,0
518,-356,0,0,0,0,0,0,0,0,0,-1,1742,1380,0,0
525,-356,0,0,0,0,0,0,0,0,0,-1,1749,1380,0,0
532,-356,0,0,0,0,0,0,0,0,0,-1,1756,1380,0,0
539,-356,0,0,0,0,0,0,0,0,0,-1,1763,1380,0,0
546,-356,0,0,0,0,0,0,0,0,0,-1,1770,1380,0,0
553,-356,0,0,0,0,0,0,0,0,0,-1,1777,1380,0,0
560,-356,15.4065,1.89075,0.03258,-0.109175,0.0504807,0.0487193,-0.125314,0.309442,0.103671,0.0468472,1784,1380,15.4064,-1.89079
567,-356,14.8206,2.01807,0.0267325,-0.0918026,0.0524218,0.0465894,-0.11166,0.362091,0.0939044,0.0497292,1791,1380,14.8205,-2.01808
574,-356,14.8781,1.92908,0,0,0,0,0,0,0,-1,1798,1380,14.8781,-1.92904
581,-356,14.707,1.86731,0,0,0,0,0,0,0,-1,1805,1380,14.707,-1.86729
588,-356,12.5889,3.15149,0,0,0,0,0,0,0,-1,1812,1380,12.5889,-3.15147
595,-356,14.1267,1.10583,0,0,0,0,0,0,0,-1,1819,1380,14.1267,-1.10583
602,-356,13.5974,1.15613,0,0,0,0,0,0,0,-1,1826,1380,13.5974,-1.15614
609,-356,10.8903,4.45923,0,0,0,0,0,0,0,-1,1833,1380,10.8902,-4.45918
616,-356,12.8054,2.30286,0,0,0,0,0,0,0,-1,1840,1380,12.8054,-2.30281
623,-356,11.4641,4.46301,0,0,0,0,0,0,0,-1,1847,1380,11.4641,-4.46303
630,-356,11.7231,4.92554,0,0,0,0,0,0,0,-1,1854,1380,11.7231,-4.92559
637,-356,11.5131,5.04248,-0.0181503,-0.00951752,0.0203297,0.00694891,-0.0346168,0.890005,0.0257091,0.0340414,1861,1380,11.5131,-5.04249
644,-356,11.4498,5.22339,-0.0144857,-0.00682826,0.0153738,0.00518639,-0.0265003,0.907437,0.0196255,0.0217312,1868,1380,11.4499,-5.22343
651,-356,11.4849,4.97388,-0.0104784,-0.00501629,0.0111823,0.00376359,-0.0192583,0.90517,0.0142599,0.0155763,1875,1380,11.4849,-4.97392
658,-356,11.4783,4.77856,-0.00692565,-0.00385009,0.00781597,0.00257794,-0.0133537,0.882532,0.00987458,0.0143232,1882,1380,11.4783,-4.77852
665,-356,11.4874,4.677,-0.00382125,-0.00296816,0.00465653,0.00128131,-0.00807073,0.831071,0.00585452,0.0134076,1889,1380,11.4874,-4.67705
672,-356,11.4401,4.56885,-0.00133282,-0.00221656,0.00219018,0.000459621,-0.004009,0.68586,0.00283831,0.0134405,1896,1380,11.44,-4.56886
679,-356,11.452,4.41382,0.000235572,-0.00137335,0.000795168,0.000562238,-0.00170002,0.389794,0.00136006,0.0159057,1903,1380,11.452,-4.41377
686,-356,11.4652,4.28247,0.00192811,-0.00120134,-0.00032927,0.00196238,-0.00123561,-0.103703,0.00186219,0.0149536,1910,1380,11.4652,-4.28243
693,-356,11.5054,4.12781,0.0037394,-0.00122213,-0.00141861,0.00411637,-0.0015991,-0.259729,0.00340484,0.012985,1917,1380,11.5054,-4.1278
700,-356,11.5034,3.95911,0.00597414,-0.00167257,-0.00233973,0.00663324,-0.00233167,-0.274583,0.00537083,0.0174277,1924,1380,11.5034,-3.9591
707,-356,11.5011,3.64832,0.00898402,-0.00237239,-0.00320368,0.00982545,-0.00321382,-0.256843,0.00784419,0.032201,1931,1380,11.5012,-3.64826
714,-356,11.0968,3.24646,0.0132261,-0.00349717,-0.00414273,0.0141961,-0.00446716,-0.229998,0.0112527,0.042856,1938,1380,11.0967,-3.24651
721,-356,10.6655,2.85352,0,0,0,0,0,0,0,-1,1945,1380,10.6655,-2.85356
728,-356,11.9027,3.47852,0,0,0,0,0,0,0,-1,1952,1380,11.9028,-3.47853
735,-356,11.754,3.39221,0,0,0,0,0,0,0,-1,1959,1380,11.754,-3.39224
742,-356,12.2675,3.42578,0,0,0,0,0,0,0,-1,1966,1380,12.2674,-3.42582
749,-356,12.8143,3.45264,0,0,0,0,0,0,0,-1,1973,1380,12.8144,-3.45269
756,-356,0,0,0,0,0,0,0,0,0,-1,1980,1380,0,0
763,-356,0,0,0,0,0,0,0,0,0,-1,1987,1380,0,0
770,-356,0,0,0,0,0,0,0,0,0,-1,1994,1380,0,0
777,-356,0,0,0,0,0,0,0,0,0,-1,2001,1380,0,0
784,-356,0,0,0,0,0,0,0,0,0,-1,2008,1380,0,0
791,-356,0,0,0,0,0,0,0,0,0,-1,2015,1380,0,0
798,-356,0,0,0,0,0,0,0,0,0,-1,2022,1380,0,0
805,-356,0,0,0,0,0,0,0,0,0,-1,2029,1380,0,0
812,-356,0,0,0,0,0,0,0,0,0,-1,2036,1380,0,0
-700,-363,0,0,0,0,0,0,0,0,0,-1,524,1387,0,0
-693,-363,0,0,0,0,0,0,0,0,0,-1,531,1387,0,0
-686,-363,0,0,0,0,0,0,0,0,0,-1,538,1387,0,0
-679,-363,0,0,0,0,0,0,0,0,0,-1,545,1387,0,0
-672,-363,0,0,0,0,0,0,0,0,0,-1,552,1387,0,0
-665,-363,0,0,0,0,0,0,0,0,0,-1,559,1387,0,0
-658,-363,0,0,0,0,0,0,0,0,0,-1,566,1387,0,0
-651,-363,0,0,0,0,0,0,0,0,0,-1,573,1387,0,0
-644,-363,0,0,0,0,0,0,0,0,0,-1,580,1387,0,0
-637,-363,0,0,0,0,0,0,0,0,0,-1,587,1387,0,0
-630,-363,0,0,0,0,0,0,0,0,0,-1,594,1387,0,0
-623,-363,-6.14862,-4.95691,0,0,0,0,0,0,0,-1,601,1387,-6.14861,4.95691
-616,-363,-3.7392,-7.37988,0,0,0,0,0,0,0,-1,608,1387,-3.7392,7.37984
-609,-363,-3.34894,-5.4906,0.0205056,0.0587901,0.0734897,0.11559,-0.036294,0.912805,0.0915871,0.0465711,615,1387,-3.34897,5.49061
-602,-363,-2.92871,-3.60352,0,0,0,0,0,0,0,-1,622,1387,-2.92872,3.60357
-595,-363,-2.65784,-1.61292,0,0,0,0,0,0,0,-1,629,1387,-2.65786,1.61293
-588,-363,-4.09241,2.21851,0,0,0,0,0,0,0,-1,636,1387,-4.0924,-2.21853
-581,-363,-4.08093,2.07336,0,0,0,0,0,0,0,-1,643,1387,-4.08095,-2.07341
-574,-363,-4.18793,1.9303,-0.00108022,0.0105402,0.0155833,0.0213613,-0.0119012,0.96384,0.0194613,0.0303055,650,1387,-4.18795,-1.93029
-567,-363,-4.31622,2.04297,-0.00280606,0.00716556,0.00939898,0.0128193,-0.00845976,1.02926,0.0123711,0.0185084,657,1387,-4.31622,-2.04292
-560,-363,-4.31995,2.21387,-0.00354388,0.00488903,0.00508242,0.00727632,-0.00593118,1.13167,0.00763853,0.0127421,664,1387,-4.31996,-2.21381
-553,-363,-4.32635,2.40576,-0.00437729,0.00361791,0.00133418,0.00383467,-0.00459406,1.40974,0.00487291,0.0124018,671,1387,-4.32637,-2.40576
-546,-363,-4.30438,2.56653,-0.00379192,0.00227335,-0.000803455,0.00237798,-0.00389654,-1.4413,0.00365779,0.0121469,678,1387,-4.30436,-2.5665
-539,-363,-4.28156,2.72949,-0.00295105,-0.000186735,-0.00219333,0.00102361,-0.00416139,-1.06655,0.00317102,0.0142008,685,1387,-4.28157,-2.72953
-532,-363,-4.297,2.93384,-0.00244247,-0.00214122,-0.00304225,0.000754133,-0.00533783,-0.810133,0.00383473,0.0122489,692,1387,-4.29702,-2.93384
-525,-363,-4.30096,3.10486,-0.0022803,-0.00391164,-0.00406034,0.00104549,-0.00723742,-0.686274,0.00520854,0.00997436,699,1387,-4.30097,-3.10486
-518,-363,-4.29279,3.28882,-0.00275126,-0.00563445,-0.00503518,0.00104463,-0.00943034,-0.645976,0.00666246,0.00889992,706,1387,-4.29276,-3.28877
-511,-363,-4.25916,3.49768,-0.00525675,-0.00507413,-0.00547391,0.000309229,-0.0106401,-0.793738,0.0071987,0.0143407,713,1387,-4.25917,-3.49769
-504,-363,-4.19885,3.69495,-0.00954013,-0.00266407,-0.00540626,0.000304747,-0.0125089,-1.06861,0.00844271,0.0302144,720,1387,-4.19883,-3.69499
-497,-363,-4.13104,3.46777,-0.0170843,0.00193378,-0.00477792,0.00306665,-0.0182171,-1.33799,0.0132855,0.0415732,727,1387,-4.13105,-3.46776
-490,-363,-4.08521,3.15759,-0.0264033,0.00811096,-0.00335401,0.00843387,-0.0267262,-1.47482,0.0211956,0.0416516,734,1387,-4.0852,-3.15756
-483,-363,-4.53229,3.10046,-0.0369985,0.016324,-0.00129143,0.0163553,-0.0370298,-1.5466,0.0315829,0.0413669,741,1387,-4.53229,-3.10049
-476,-363,-5.00513,3.34082,0,0,0,0,0,0,0,-1,748,1387,-5.00512,-3.34084
-469,-363,-5.2547,3.62427,0,0,0,0,0,0,0,-1,755,1387,-5.25468,-3.62425
-462,-363,-6.51111,-1.99341,0,0,0,0,0,0,0,-1,762,1387,-6.51112,1.99341
-455,-363,-6.8446,-2.34521,0,0,0,0,0,0,0,-1,769,1387,-6.8446,2.34527
-448,-363,-7.46906,-2.68921,-0.12127,0.0799739,0.0149161,0.0810735,-0.12237,1.49721,0.118262,0.0461487,776,1387,-7.46903,2.68915
-441,-363,-8.59491,-2.23914,-0.141149,0.0912817,0.0163258,0.0924228,-0.14229,1.50101,0.136527,0.0453672,783,1387,-8.59491,2.23911
-434,-363,-9.94299,-1.88953,0,0,0,0,0,0,0,-1,790,1387,-9.94302,1.88958
-427,-363,0,0,0,0,0,0,0,0,0,-1,797,1387,0,0
-420,-363,0,0,0,0,0,0,0,0,0,-1,804,1387,0,0
-413,-363,0,0,0,0,0,0,0,0,0,-1,811,1387,0,0
-406,-363,0,0,0,0,0,0,0,0,0,-1,818,1387,0,0
-399,-363,0,0,0,0,0,0,0,0,0,-1,825,1387,0,0
-392,-363,0,0,0,0,0,0,0,0,0,-1,832,1387,0,0
-385,-363,0,0,0,0,0,0,0,0,0,-1,839,1387,0,0
-378,-363,0,0,0,0,0,0,0,0,0,-1,846,1387,0,0
-371,-363,0,0,0,0,0,0,0,0,0,-1,853,1387,0,0
-364,-363,0,0,0,0,0,0,0,0,0,-1,860,1387,0,0
-357,-363,0,0,0,0,0,0,0,0,0,-1,867,1387,0,0
-350,-363,0,0,0,0,0,0,0,0,0,-1,874,1387,0,0
-343,-363,0,0,0,0,0,0,0,0,0,-1,881,1387,0,0
-336,-363,0,0,0,0,0,0,0,0,0,-1,888,1387,0,0
-329,-363,0,0,0,0,0,0,0,0,0,-1,895,1387,0,0
-322,-363,0,0,0,0,0,0,0,0,0,-1,902,1387,0,0
-315,-363,0,0,0,0,0,0,0,0,0,-1,909,1387,0,0
-308,-363,0,0,0,0,0,0,0,0,0,-1,916,1387,0,0
-301,-363,0,0,0,0,0,0,0,0,0,-1,923,1387,0,0
-294,-363,0,0,0,0,0,0,0,0,0,-1,930,1387,0,0
-287,-363,0,0,0,0,0,0,0,0,0,-1,937,1387,0,0
-280,-363,0,0,0,0,0,0,0,0,0,-1,944,1387,0,0
-273,-363,0,0,0,0,0,0,0,0,0,-1,951,1387,0,0
-266,-363,0,0,0,0,0,0,0,0,0,-1,958,1387,0,0
-259,-363,0,0,0,0,0,0,0,0,0,-1,965,1387,0,0
-252,-363,0,0,0,0,0,0,0,0,0,-1,972,1387,0,0
-245,-363,0,0,0,0,0,0,0,0,0,-1,979,1387,0,0
-238,-363,0,0,0,0,0,0,0,0,0,-1,986,1387,0,0
-231,-363,0,0,0,0,0,0,0,0,0,-1,993,1387,0,0
-224,-363,0,0,0,0,0,0,0,0,0,-1,1000,1387,0,0
-217,-363,0,0,0,0,0,0,0,0,0,-1,1007,1387,0,0
-210,-363,0,0,0,0,0,0,0,0,0,-1,1014,1387,0,0
-203,-363,0,0,0,0,0,0,0,0,0,-1,1021,1387,0,0
-196,-363,0,0,0,0,0,0,0,0,0,-1,1028,1387,0,0
-189,-363,0,0,0,0,0,0,0,0,0,-1,1035,1387,0,0
-182,-363,0,0,0,0,0,0,0,0,0,-1,1042,1387,0,0
-175,-363,0,0,0,0,0,0,0,0,0,-1,1049,1387,0,0
-168,-363,0,0,0,0,0,0,0,0,0,-1,1056,1387,0,0
-161,-363,0,0,0,0,0,0,0,0,0,-1,1063,1387,0,0
-154,-363,0,0,0,0,0,0,0,0,0,-1,1070,1387,0,0
-147,-363,0,0,0,0,0,0,0,0,0,-1,1077,1387,0,0
-140,-363,0,0,0,0,0,0,0,0,0,-1,1084,1387,0,0
-133,-363,0,0,0,0,0,0,0,0,0,-1,1091,1387,0,0
-126,-363,0,0,0,0,0,0,0,0,0,-1,1098,1387,0,0
-119,-363,0,0,0,0,0,0,0,0,0,-1,1105,1387,0,0
-112,-363,0,0,0,0,0,0,0,0,0,-1,1112,1387,0,0
-105,-363,0,0,0,0,0,0,0,0,0,-1,1119,1387,0,0
-98,-363,0,0,0,0,0,0,0,0,0,-1,1126,1387,0,0
-91,-363,0,0,0,0,0,0,0,0,0,-1,1133,1387,0,0
-84,-363,0,0,0,0,0,0,0,0,0,-1,1140,1387,0,0
-77,-363,0,0,0,0,0,0,0,0,0,-1,1147,1387,0,0
-70,-363,0,0,0,0,0,0,0,0,0,-1,1154,1387,0,0
-63,-363,0,0,0,0,0,0,0,0,0,-1,1161,1387,0,0
-56,-363,0,0,0,0,0,0,0,0,0,-1,1168,1387,0,0
-49,-363,0,0,0,0,0,0,0,0,0,-1,1175,1387,0,0
-42,-363,0,0,0,0,0,0,0,0,0,-1,1182,1387,0,0
-35,-363,0,0,0,0,0,0,0,0,0,-1,1189,1387,0,0
-28,-363,0,0,0,0,0,0,0,0,0,-1,1196,1387,0,0
-21,-363,0,0,0,0,0,0,0,0,0,-1,1203,1387,0,0
-14,-363,0,0,0,0,0,0,0,0,0,-1,1210,1387,0,0
-7,-363,0,0,0,0,0,0,0,0,0,-1,1217,1387,0,0
0,-363,0,0,0,0,0,0,0,0,0,-1,1224,1387,0,0
7,-363,0,0,0,0,0,0,0,0,0,-1,1231,1387,0,0
14,-363,0,0,0,0,0,0,0,0,0,-1,1238,1387,0,0
21,-363,0,0,0,0,0,0,0,0,0,-1,1245,1387,0,0
28,-363,0,0,0,0,0,0,0,0,0,-1,1252,1387,0,0
35,-363,0,0,0,0,0,0,0,0,0,-1,1259,1387,0,0
42,-363,0,0,0,0,0,0,0,0,0,-1,1266,1387,0,0
49,-363,0,0,0,0,0,0,0,0,0,-1,1273,1387,0,0
56,-363,0,0,0,0,0,0,0,0,0,-1,1280,1387,0,0
63,-363,0,0,0,0,0,0,0,0,0,-1,1287,1387,0,0
70,-363,0,0,0,0,0,0,0,0,0,-1,1294,1387,0,0
77,-363,0,0,0,0,0,0,0,0,0,-1,1301,1387,0,0
84,-363,0,0,0,0,0,0,0,0,0,-1,1308,1387,0,0
91,-363,0,0,0,0,0,0,0,0,0,-1,1315,1387,0,0
98,-363,0,0,0,0,0,0,0,0,0,-1,1322,1387,0,0
105,-363,0,0,0,0,0,0,0,0,0,-1,1329,1387,0,0
112,-363,0,0,0,0,0,0,0,0,0,-1,1336,1387,0,0
119,-363,0,0,0,0,0,0,0,0,0,-1,1343,1387,0,0
126,-363,0,0,0,0,0,0,0,0,0,-1,1350,1387,0,0
133,-363,0,0,0,0,0,0,0,0,0,-1,1357,1387,0,0
140,-363,0,0,0,0,0,0,0,0,0,-1,1364,1387,0,0
147,-363,0,0,0,0,0,0,0,0,0,-1,1371,1387,0,0
154,-363,0,0,0,0,0,0,0,0,0,-1,1378,1387,0,0
161,-363,0,0,0,0,0,0,0,0,0,-1,1385,1387,0,0
168,-363,0,0,0,0,0,0,0,0,0,-1,1392,1387,0,0
175,-363,0,0,0,0,0,0,0,0,0,-1,1399,1387,0,0
182,-363,0,0,0,0,0,0,0,0,0,-1,1406,1387,0,0
189,-363,0,0,0,0,0,0,0,0,0,-1,1413,1387,0,0
196,-363,0,0,0,0,0,0,0,0,0,-1,1420,1387,0,0
203,-363,0,0,0,0,0,0,0,0,0,-1,1427,1387,0,0
210,-363,0,0,0,0,0,0,0,0,0,-1,1434,1387,0,0
217,-363,0,0,0,0,0,0,0,0,0,-1,1441,1387,0,0
224,-363,0,0,0,0,0,0,0,0,0,-1,1448,1387,0,0
231,-363,0,0,0,0,0,0,0,0,0,-1,1455,1387,0,0
238,-363,0,0,0,0,0,0,0,0,0,-1,1462,1387,0,0
245,-363,0,0,0,0,0,0,0,0,0,-1,1469,1387,0,0
252,-363,0,0,0,0,0,0,0,0,0,-1,1476,1387,0,0
259,-363,0,0,0,0,0,0,0,0,0,-1,1483,1387,0,0
266,-363,0,0,0,0,0,0,0,0,0,-1,1490,1387,0,0
273,-363,0,0,0,0,0,0,0,0,0,-1,1497,1387,0,0
280,-363,0,0,0,0,0,0,0,0,0,-1,1504,1387,0,0
287,-363,0,0,0,0,0,0,0,0,0,-1,1511,1387,0,0
294,-363,0,0,0,0,0,0,0,0,0,-1,1518,1387,0,0
301,-363,0,0,0,0,0,0,0,0,0,-1,1525,1387,0,0
308,-363,0,0,0,0,0,0,0,0,0,-1,1532,1387,0,0
315,-363,0,0,0,0,0,0,0,0,0,-1,1539,1387,0,0
322,-363,0,0,0,0,0,0,0,0,0,-1,1546,1387,0,0
329,-363,0,0,0,0,0,0,0,0,0,-1,1553,1387,0,0
336,-363,0,0,0,0,0,0,0,0,0,-1,1560,1387,0,0
343,-363,0,0,0,0,0,0,0,0,0,-1,1567,1387,0,0
350,-363,0,0,0,0,0,0,0,0,0,-1,1574,1387,0,0
357,-363,0,0,0,0,0,0,0,0,0,-1,1581,1387,0,0
364,-363,0,0,0,0,0,0,0,0,0,-1,1588,1387,0,0
371,-363,0,0,0,0,0,0,0,0,0,-1,1595,1387,0,0
378,-363,0,0,0,0,0,0,0,0,0,-1,1602,1387,0,0
385,-363,0,0,0,0,0,0,0,0,0,-1,1609,1387,0,0
392,-363,0,0,0,0,0,0,0,0,0,-1,1616,1387,0,0
399,-363,0,0,0,0,0,0,0,0,0,-1,1623,1387,0,0
406,-363,0,0,0,0,0,0,0,0,0,-1,1630,1387,0,0
413,-363,0,0,0,0,0,0,0,0,0,-1,1637,1387,0,0
420,-363,0,0,0,0,0,0,0,0,0,-1,1644,1387,0,0
427,-363,0,0,0,0,0,0,0,0,0,-1,1651,1387,0,0
434,-363,0,0,0,0,0,0,0,0,0,-1,1658,1387,0,0
441,-363,0,0,0,0,0,0,0,0,0,-1,1665,1387,0,0
448,-363,0,0,0,0,0,0,0,0,0,-1,1672,1387,0,0
455,-363,0,0,0,0,0,0,0,0,0,-1,1679,1387,0,0
462,-363,0,0,0,0,0,0,0,0,0,-1,1686,1387,0,0
469,-363,0,0,0,0,0,0,0,0,0,-1,1693,1387,0,0
476,-363,0,0,0,0,0,0,0,0,0,-1,1700,1387,0,0
483,-363,0,0,0,0,0,0,0,0,0,-1,1707,1387,0,0
490,-363,0,0,0,0,0,0,0,0,0,-1,1714,1387,0,0
497,-363,0,0,0,0,0,0,0,0,0,-1,1721,1387,0,0
504,-363,0,0,0,0,0,0,0,0,0,-1,1728,1387,0,0
511,-363,0,0,0,0,0,0,0,0,0,-1,1735,1387,0,0
518,-363,0,0,0,0,0,0,0,0,0,-1,1742,1387,0,0
525,-363,0,0,0,0,0,0,0,0,0,-1,1749,1387,0,0
532,-363,0,0,0,0,0,0,0,0,0,-1,1756,1387,0,0
539,-363,0,0,0,0,0,0,0,0,0,-1,1763,1387,0,0
546,-363,0,0,0,0,0,0,0,0,0,-1,1770,1387,0,0
553,-363,17.8879,-0.5271,0,0,0,0,0,0,0,-1,1777,1387,17.8879,0.527073
560,-363,15.6797,3.29041,0,0,0,0,0,0,0,-1,1784,1387,15.6797,-3.29037
567,-363,14.917,2.93738,0,0,0,0,0,0,0,-1,1791,1387,14.917,-2.93736
574,-363,19.7042,0.947388,0,0,0,0,0,0,0,-1,1798,1387,19.7042,-0.947348
581,-363,20.4668,1.23938,0,0,0,0,0,0,0,-1,1805,1387,20.4668,-1.23943
588,-363,15.3052,3.71179,0,0,0,0,0,0,0,-1,1812,1387,15.3052,-3.71174
595,-363,12.9333,3.24097,0,0,0,0,0,0,0,-1,1819,1387,12.9334,-3.24102
602,-363,10.7417,4.14063,0,0,0,0,0,0,0,-1,1826,1387,10.7417,-4.14067
609,-363,10.9922,4.34253,-0.0118496,-0.0324765,0.0389901,0.018168,-0.0624941,0.656102,0.048858,0.0454713,1833,1387,10.9922,-4.34252
616,-363,11.1528,4.4259,0,0,0,0,0,0,0,-1,1840,1387,11.1528,-4.42595
623,-363,11.2815,4.70728,-0.0162246,-0.0200408,0.0306407,0.0125674,-0.0488328,0.754302,0.0374539,0.0418515,1847,1387,11.2815,-4.70725
630,-363,11.4525,5.09216,-0.0170878,-0.0152497,0.0252852,0.00913312,-0.0414706,0.803565,0.0311411,0.0352709,1854,1387,11.4525,-5.09214
637,-363,11.2001,5.26099,-0.0168285,-0.0102084,0.0194856,0.00624626,-0.0332832,0.869531,0.0245373,0.0259284,1861,1387,11.2001,-5.26098
644,-363,11.3064,5.20422,-0.0130137,-0.00714437,0.0141836,0.00440496,-0.024563,0.887412,0.018024,0.0108775,1868,1387,11.3064,-5.20423
651,-363,11.3308,5.01526,-0.00916233,-0.00505827,0.00986782,0.00296862,-0.0171892,0.887913,0.0125665,0.0109036,1875,1387,11.3308,-5.01529
658,-363,11.3344,4.84412,-0.00592396,-0.00372413,0.00659673,0.00186375,-0.0115118,0.868007,0.00836531,0.0122215,1882,1387,11.3343,-4.84415
665,-363,11.309,4.71265,-0.00308732,-0.00277297,0.00370452,0.000777711,-0.006638,0.806599,0.00470604,0.0116488,1889,1387,11.3089,-4.71265
672,-363,11.3004,4.56702,-0.000715376,-0.00213888,0.00156835,0.000295173,-0.00314943,0.572385,0.0022046,0.0126138,1896,1387,11.3005,-4.56701
679,-363,11.3132,4.42041,0.000763325,-0.00150732,0.00035167,0.000816544,-0.00156054,0.15019,0.00139463,0.0147828,1903,1387,11.3132,-4.42043
686,-363,11.3108,4.2666,0.0022936,-0.00155735,-0.000611138,0.00238826,-0.00165201,-0.15367,0.00234552,0.0148259,1910,1387,11.3107,-4.26659
693,-363,11.3165,4.09058,0.00390616,-0.00183591,-0.00151991,0.00428366,-0.00221341,-0.243442,0.00381403,0.0130689,1917,1387,11.3165,-4.0906
700,-363,11.3728,3.91345,0.00594389,-0.00250827,-0.00230162,0.00653,-0.00309438,-0.249353,0.00567343,0.0171163,1924,1387,11.3728,-3.91342
707,-363,11.325,3.67773,0.00883733,-0.00345716,-0.00314989,0.00959736,-0.00421719,-0.236762,0.00817497,0.0327435,1931,1387,11.3249,-3.67774
714,-363,11.3667,3.15515,0.0130312,-0.00481596,-0.0041078,0.0139313,-0.00571604,-0.215706,0.0116692,0.0451475,1938,1387,11.3667,-3.15512
721,-363,11.5051,2.59705,0,0,0,0,0,0,0,-1,1945,1387,11.5051,-2.59703
728,-363,11.6582,3.69055,0,0,0,0,0,0,0,-1,1952,1387,11.6582,-3.69055
735,-363,12.0818,3.7196,0,0,0,0,0,0,0,-1,1959,1387,12.0818,-3.71964
742,-363,12.5081,3.75195,0,0,0,0,0,0,0,-1,1966,1387,12.508,-3.7519
749,-363,0,0,0,0,0,0,0,0,0,-1,1973,1387,0,0
756,-363,0,0,0,0,0,0,0,0,0,-1,1980,1387,0,0
763,-363,0,0,0,0,0,0,0,0,0,-1,1987,1387,0,0
770,-363,0,0,0,0,0,0,0,0,0,-1,1994,1387,0,0
777,-363,0,0,0,0,0,0,0,0,0,-1,2001,1387,0,0
784,-363,0,0,0,0,0,0,0,0,0,-1,2008,1387,0,0
791,-363,0,0,0,0,0,0,0,0,0,-1,2015,1387,0,0
798,-363,0,0,0,0,0,0,0,0,0,-1,2022,1387,0,0
805,-363,0,0,0,0,0,0,0,0,0,-1,2029,1387,0,0
812,-363,0,0,0,0,0,0,0,0,0,-1,2036,1387,0,0
-700,-370,0,0,0,0,0,0,0,0,0,-1,524,1394,0,0
-693,-370,0,0,0,0,0,0,0,0,0,-1,531,1394,0,0
-686,-370,0,0,0,0,0,0,0,0,0,-1,538,1394,0,0
-679,-370,0,0,0,0,0,0,0,0,0,-1,545,1394,0,0
-672,-370,0,0,0,0,0,0,0,0,0,-1,552,1394,0,0
-665,-370,0,0,0,0,0,0,0,0,0,-1,559,1394,0,0
-658,-370,0,0,0,0,0,0,0,0,0,-1,566,1394,0,0
-651,-370,0,0,0,0,0,0,0,0,0,-1,573,1394,0,0
-644,-370,0,0,0,0,0,0,0,0,0,-1,580,1394,0,0
-637,-370,0,0,0,0,0,0,0,0,0,-1,587,1394,0,0
-630,-370,0,0,0,0,0,0,0,0,0,-1,594,1394,0,0
-623,-370,-7.05371,-5.65344,0,0,0,0,0,0,0,-1,601,1394,-7.0537,5.65347
-616,-370,-3.65656,-7.19019,0,0,0,0,0,0,0,-1,608,1394,-3.65653,7.19021
-609,-370,-3.32916,-5.31274,0,0,0,0,0,0,0,-1,615,1394,-3.32919,5.31277
-602,-370,-3.00183,-3.4353,0,0,0,0,0,0,0,-1,622,1394,-3.00185,3.43533
-595,-370,-2.70209,-1.09937,0,0,0,0,0,0,0,-1,629,1394,-2.70209,1.09939
-588,-370,-3.2699,0.449097,0,0,0,0,0,0,0,-1,636,1394,-3.2699,-0.449088
-581,-370,-3.62396,1.11792,0,0,0,0,0,0,0,-1,643,1394,-3.62394,-1.11792
-574,-370,-3.92853,1.77722,4.96111e-05,0.0115288,0.0204097,0.0269906,-0.0154121,0.922468,0.0247836,0.0378925,650,1394,-3.92851,-1.77723
-567,-370,-4.0722,2.07007,-0.0027819,0.00883848,0.0128122,0.0170964,-0.0110398,0.998274,0.0163694,0.0224541,657,1394,-4.07218,-2.07002
-560,-370,-4.14252,2.1991,-0.0041468,0.00660932,0.0073698,0.0103547,-0.0078922,1.1006,0.0105668,0.015134,664,1394,-4.14252,-2.19909
-553,-370,-4.13898,2.38953,-0.00538703,0.00513542,0.00275243,0.0058119,-0.00606352,1.3298,0.00685679,0.0112543,671,1394,-4.13895,-2.38956
-546,-370,-4.09772,2.5498,-0.0048856,0.00346936,1.0126e-05,0.00346937,-0.00488561,1.56958,0.00484679,0.0143851,678,1394,-4.09772,-2.54982
-539,-370,-4.08044,2.75989,-0.00389585,0.000753673,-0.00174373,0.00133496,-0.00447713,-1.24902,0.00351528,0.0182483,685,1394,-4.08046,-2.75986
-532,-370,-4.1145,2.98108,-0.00306244,-0.00135223,-0.00265476,0.00058174,-0.00499641,-0.941203,0.00354082,0.01926,692,1394,-4.11448,-2.98103
-525,-370,-4.10474,3.12891,-0.00244861,-0.00325623,-0.00357797,0.000748268,-0.00645311,-0.729206,0.00457195,0.0118874,699,1394,-4.10476,-3.12885
-518,-370,-4.1264,3.28149,-0.00235318,-0.00527169,-0.00452909,0.000945934,-0.0085708,-0.629551,0.00605386,0.0091665,706,1394,-4.12643,-3.28149
-511,-370,-4.1084,3.46533,-0.00405386,-0.00563487,-0.00522127,0.000436401,-0.0101251,-0.710268,0.00690016,0.0133401,713,1394,-4.10838,-3.46531
-504,-370,-4.0705,3.67993,-0.00743383,-0.00457133,-0.00562184,-0.000201405,-0.0118037,-0.910044,0.0078029,0.0209374,720,1394,-4.07049,-3.6799
-497,-370,-3.90735,3.8446,-0.0140188,-0.00146791,-0.00558286,0.000656024,-0.0161427,-1.20727,0.010987,0.0393609,727,1394,-3.90736,-3.84464
-490,-370,-4.28375,3.703,-0.0225713,0.00324934,-0.00480221,0.00411354,-0.0234355,-1.39274,0.01716,0.0397378,734,1394,-4.28372,-3.70295
-483,-370,-4.67023,3.60559,-0.0325598,0.00996572,-0.00344106,0.0102424,-0.0328364,-1.49057,0.0259868,0.0411896,741,1394,-4.67024,-3.60565
-476,-370,-5.59973,3.80261,0,0,0,0,0,0,0,-1,748,1394,-5.59971,-3.80257
-469,-370,-5.25116,3.15845,0,0,0,0,0,0,0,-1,755,1394,-5.25116,-3.15839
-462,-370,-6.32324,-1.13013,0,0,0,0,0,0,0,-1,762,1394,-6.32324,1.13009
-455,-370,-6.31793,-1.87244,0,0,0,0,0,0,0,-1,769,1394,-6.31792,1.8724
-448,-370,-6.85388,-2.83984,0,0,0,0,0,0,0,-1,776,1394,-6.85385,2.83988
-441,-370,-8.422,-2.47058,0,0,0,0,0,0,0,-1,783,1394,-8.42202,2.47059
-434,-370,-9.50006,-2.39478,0,0,0,0,0,0,0,-1,790,1394,-9.50008,2.39472
-427,-370,0,0,0,0,0,0,0,0,0,-1,797,1394,0,0
-420,-370,0,0,0,0,0,0,0,0,0,-1,804,1394,0,0
-413,-370,0,0,0,0,0,0,0,0,0,-1,811,1394,0,0
-406,-370,0,0,0,0,0,0,0,0,0,-1,818,1394,0,0
-399,-370,0,0,0,0,0,0,0,0,0,-1,825,1394,0,0
-392,-370,0,0,0,0,0,0,0,0,0,-1,832,1394,0,0
-385,-370,0,0,0,0,0,0,0,0,0,-1,839,1394,0,0
-378,-370,0,0,0,0,0,0,0,0,0,-1,846,1394,0,0
-371,-370,0,0,0,0,0,0,0,0,0,-1,853,1394,0,0
-364,-370,0,0,0,0,0,0,0,0,0,-1,860,1394,0,0
-357,-370,0,0,0,0,0,0,0,0,0,-1,867,1394,0,0
-350,-370,0,0,0,0,0,0,0,0,0,-1,874,1394,0,0
-343,-370,0,0,0,0,0,0,0,0,0,-1,881,1394,0,0
-336,-370,0,0,0,0,0,0,0,0,0,-1,888,1394,0,0
-329,-370,0,0,0,0,0,0,0,0,0,-1,895,1394,0,0
-322,-370,0,0,0,0,0,0,0,0,0,-1,902,1394,0,0
-315,-370,0,0,0,0,0,0,0,0,0,-1,909,1394,0,0
-308,-370,0,0,0,0,0,0,0,0,0,-1,916,1394,0,0
-301,-370,0,0,0,0,0,0,0,0,0,-1,923,1394,0,0
-294,-370,0,0,0,0,0,0,0,0,0,-1,930,1394,0,0
-287,-370,0,0,0,0,0,0,0,0,0,-1,937,1394,0,0
-280,-370,0,0,0,0,0,0,0,0,0,-1,944,1394,0,0
-273,-370,0,0,0,0,0,0,0,0,0,-1,951,1394,0,0
-266,-370,0,0,0,0,0,0,0,0,0,-1,958,1394,0,0
-259,-370,0,0,0,0,0,0,0,0,0,-1,965,1394,0,0
-252,-370,0,0,0,0,0,0,0,0,0,-1,972,1394,0,0
-245,-370,0,0,0,0,0,0,0,0,0,-1,979,1394,0,0
-238,-370,0,0,0,0,0,0,0,0,0,-1,986,1394,0,0
-231,-370,0,0,0,0,0,0,0,0,0,-1,993,1394,0,0
-224,-370,0,0,0,0,0,0,0,0,0,-1,1000,1394,0,0
-217,-370,0,0,0,0,0,0,0,0,0,-1,1007,1394,0,0
-210,-370,0,0,0,0,0,0,0,0,0,-1,1014,1394,0,0
-203,-370,0,0,0,0,0,0,0,0,0,-1,1021,1394,0,0
-196,-370,0,0,0,0,0,0,0,0,0,-1,1028,1394,0,0
-189,-370,0,0,0,0,0,0,0,0,0,-1,1035,1394,0,0
-182,-370,0,0,0,0,0,0,0,0,0,-1,1042,1394,0,0
-175,-370,0,0,0,0,0,0,0,0,0,-1,1049,1394,0,0
-168,-370,0,0,0,0,0,0,0,0,0,-1,1056,1394,0,0
-161,-370,0,0,0,0,0,0,0,0,0,-1,1063,1394,0,0
-154,-370,0,0,0,0,0,0,0,0,0,-1,1070,1394,0,0
-147,-370,0,0,0,0,0,0,0,0,0,-1,1077,1394,0,0
-140,-370,0,0,0,0,0,0,0,0,0,-1,1084,1394,0,0
-133,-370,0,0,0,0,0,0,0,0,0,-1,1091,1394,0,0
-126,-370,0,0,0,0,0,0,0,0,0,-1,1098,1394,0,0
-119,-370,0,0,0,0,0,0,0,0,0,-1,1105,1394,0,0
-112,-370,0,0,0,0,0,0,0,0,0,-1,1112,1394,0,0
-105,-370,0,0,0,0,0,0,0,0,0,-1,1119,1394,0,0
-98,-370,0,0,0,0,0,0,0,0,0,-1,1126,1394,0,0
-91,-370,0,0,0,0,0,0,0,0,0,-1,1133,1394,0,0
-84,-370,0,0,0,0,0,0,0,0,0,-1,1140,1394,0,0
-77,-370,0,0,0,0,0,0,0,0,0,-1,1147,1394,0,0
-70,-370,0,0,0,0,0,0,0,0,0,-1,1154,1394,0,0
-63,-370,0,0,0,0,0,0,0,0,0,-1,1161,1394,0,0
-56,-370,0,0,0,0,0,0,0,0,0,-1,1168,1394,0,0
-49,-370,0,0,0,0,0,0,0,0,0,-1,1175,1394,0,0
-42,-370,0,0,0,0,0,0,0,0,0,-1,1182,1394,0,0
-35,-370,0,0,0,0,0,0,0,0,0,-1,1189,1394,0,0
-28,-370,0,0,0,0,0,0,0,0,0,-1,1196,1394,0,0
-21,-370,0,0,0,0,0,0,0,0,0,-1,1203,1394,0,0
-14,-370,0,0,0,0,0,0,0,0,0,-1,1210,1394,0,0
-7,-370,0,0,0,0,0,0,0,0,0,-1,1217,1394,0,0
0,-370,0,0,0,0,0,0,0,0,0,-1,1224,1394,0,0
7,-370,0,0,0,0,0,0,0,0,0,-1,1231,1394,0,0
14,-370,0,0,0,0,0,0,0,0,0,-1,1238,1394,0,0
21,-370,0,0,0,0,0,0,0,0,0,-1,1245,1394,0,0
28,-370,0,0,0,0,0,0,0,0,0,-1,1252,1394,0,0
35,-370,0,0,0,0,0,0,0,0,0,-1,1259,1394,0,0
42,-370,0,0,0,0,0,0,0,0,0,-1,1266,1394,0,0
49,-370,0,0,0,0,0,0,0,0,0,-1,1273,1394,0,0
56,-370,0,0,0,0,0,0,0,0,0,-1,1280,1394,0,0
63,-370,0,0,0,0,0,0,0,0,0,-1,1287,1394,0,0
70,-370,0,0,0,0,0,0,0,0,0,-1,1294,1394,0,0
77,-370,0,0,0,0,0,0,0,0,0,-1,1301,1394,0,0
84,-370,0,0,0,0,0,0,0,0,0,-1,1308,1394,0,0
91,-370,0,0,0,0,0,0,0,0,0,-1,1315,1394,0,0
98,-370,0,0,0,0,0,0,0,0,0,-1,1322,1394,0,0
105,-370,0,0,0,0,0,0,0,0,0,-1,1329,1394,0,0
112,-370,0,0,0,0,0,0,0,0,0,-1,1336,1394,0,0
119,-370,0,0,0,0,0,0,0,0,0,-1,1343,1394,0,0
126,-370,0,0,0,0,0,0,0,0,0,-1,1350,1394,0,0
133,-370,0,0,0,0,0,0,0,0,0,-1,1357,1394,0,0
140,-370,0,0,0,0,0,0,0,0,0,-1,1364,1394,0,0
147,-370,0,0,0,0,0,0,0,0,0,-1,1371,1394,0,0
154,-370,0,0,0,0,0,0,0,0,0,-1,1378,1394,0,0
161,-370,0,0,0,0,0,0,0,0,0,-1,1385,1394,0,0
168,-370,0,0,0,0,0,0,0,0,0,-1,1392,1394,0,0
175,-370,0,0,0,0,0,0,0,0,0,-1,1399,1394,0,0
182,-370,0,0,0,0,0,0,0,0,0,-1,1406,1394,0,0
189,-370,0,0,0,0,0,0,0,0,0,-1,1413,1394,0,0
196,-370,0,0,0,0,0,0,0,0,0,-1,1420,1394,0,0
203,-370,0,0,0,0,0,0,0,0,0,-1,1427,1394,0,0
210,-370,0,0,0,0,0,0,0,0,0,-1,1434,1394,0,0
217,-370,0,0,0,0,0,0,0,0,0,-1,1441,1394,0,0
224,-370,0,0,0,0,0,0,0,0,0,-1,1448,1394,0,0
231,-370,0,0,0,0,0,0,0,0,0,-1,1455,1394,0,0
238,-370,0,0,0,0,0,0,0,0,0,-1,1462,1394,0,0
245,-370,0,0,0,0,0,0,0,0,0,-1,1469,1394,0,0
252,-370,0,0,0,0,0,0,0,0,0,-1,1476,1394,0,0
259,-370,0,0,0,0,0,0,0,0,0,-1,1483,1394,0,0
266,-370,0,0,0,0,0,0,0,0,0,-1,1490,1394,0,0
273,-370,0,0,0,0,0,0,0,0,0,-1,1497,1394,0,0
280,-370,0,0,0,0,0,0,0,0,0,-1,1504,1394,0,0
287,-370,0,0,0,0,0,0,0,0,0,-1,1511,1394,0,0
294,-370,0,0,0,0,0,0,0,0,0,-1,1518,1394,0,0
301,-370,0,0,0,0,0,0,0,0,0,-1,1525,1394,0,0
308,-370,0,0,0,0,0,0,0,0,0,-1,1532,1394,0,0
315,-370,0,0,0,0,0,0,0,0,0,-1,1539,1394,0,0
322,-370,0,0,0,0,0,0,0,0,0,-1,1546,1394,0,0
329,-370,0,0,0,0,0,0,0,0,0,-1,1553,1394,0,0
336,-370,0,0,0,0,0,0,0,0,0,-1,1560,1394,0,0
343,-370,0,0,0,0,0,0,0,0,0,-1,1567,1394,0,0
350,-370,0,0,0,0,0,0,0,0,0,-1,1574,1394,0,0
357,-370,0,0,0,0,0,0,0,0,0,-1,1581,1394,0,0
364,-370,0,0,0,0,0,0,0,0,0,-1,1588,1394,0,0
371,-370,0,0,0,0,0,0,0,0,0,-1,1595,1394,0,0
378,-370,0,0,0,0,0,0,0,0,0,-1,1602,1394,0,0
385,-370,0,0,0,0,0,0,0,0,0,-1,1609,1394,0,0
392,-370,0,0,0,0,0,0,0,0,0,-1,1616,1394,0,0
399,-370,0,0,0,0,0,0,0,0,0,-1,1623,1394,0,0
406,-370,0,0,0,0,0,0,0,0,0,-1,1630,1394,0,0
413,-370,0,0,0,0,0,0,0,0,0,-1,1637,1394,0,0
420,-370,0,0,0,0,0,0,0,0,0,-1,1644,1394,0,0
427,-370,0,0,0,0,0,0,0,0,0,-1,1651,1394,0,0
434,-370,0,0,0,0,0,0,0,0,0,-1,1658,1394,0,0
441,-370,0,0,0,0,0,0,0,0,0,-1,1665,1394,0,0
448,-370,0,0,0,0,0,0,0,0,0,-1,1672,1394,0,0
455,-370,0,0,0,0,0,0,0,0,0,-1,1679,1394,0,0
462,-370,0,0,0,0,0,0,0,0,0,-1,1686,1394,0,0
469,-370,0,0,0,0,0,0,0,0,0,-1,1693,1394,0,0
476,-370,0,0,0,0,0,0,0,0,0,-1,1700,1394,0,0
483,-370,0,0,0,0,0,0,0,0,0,-1,1707,1394,0,0
490,-370,0,0,0,0,0,0,0,0,0,-1,1714,1394,0,0
497,-370,0,0,0,0,0,0,0,0,0,-1,1721,1394,0,0
504,-370,0,0,0,0,0,0,0,0,0,-1,1728,1394,0,0
511,-370,0,0,0,0,0,0,0,0,0,-1,1735,1394,0,0
518,-370,0,0,0,0,0,0,0,0,0,-1,1742,1394,0,0
525,-370,0,0,0,0,0,0,0,0,0,-1,1749,1394,0,0
532,-370,0,0,0,0,0,0,0,0,0,-1,1756,1394,0,0
539,-370,0,0,0,0,0,0,0,0,0,-1,1763,1394,0,0
546,-370,16.731,-0.482422,0.0443581,-0.103102,0.0801035,0.0794981,-0.138242,0.413403,0.127228,0.0461264,1770,1394,16.731,0.482395
553,-370,16.9597,0.375488,0.0382789,-0.0897315,0.078044,0.075207,-0.12666,0.441955,0.117803,0.0438234,1777,1394,16.9597,-0.375536
560,-370,17.012,0.966675,0.0307902,-0.0799784,0.0766052,0.0699352,-0.119123,0.472406,0.110378,0.0455854,1784,1394,17.0119,-0.966645
567,-370,17.6602,1.24268,0.0215404,-0.0714896,0.0737669,0.0622332,-0.112182,0.504102,0.102066,0.0441547,1791,1394,17.6601,-1.24262
574,-370,18.4351,1.49451,0.0119078,-0.0640617,0.0696559,0.0532627,-0.105417,0.535777,0.0932484,0.0442948,1798,1394,18.4351,-1.49451
581,-370,18.9609,1.79541,0,0,0,0,0,0,0,-1,1805,1394,18.9609,-1.79545
588,-370,14.9626,3.86938,0,0,0,0,0,0,0,-1,1812,1394,14.9627,-3.86939
595,-370,10.9207,3.4303,0,0,0,0,0,0,0,-1,1819,1394,10.9206,-3.43034
602,-370,11.1503,3.89856,0,0,0,0,0,0,0,-1,1826,1394,11.1503,-3.89851
609,-370,11.2668,4.34277,0,0,0,0,0,0,0,-1,1833,1394,11.2668,-4.3428
616,-370,12.7875,5.25525,0,0,0,0,0,0,0,-1,1840,1394,12.7875,-5.25519
623,-370,11.3254,5.02808,-0.0169479,-0.0197333,0.0307978,0.0124887,-0.0491698,0.762803,0.0376398,0.049131,1847,1394,11.3254,-5.02813
630,-370,11.2191,5.35657,-0.0172832,-0.015159,0.0243738,0.00817586,-0.0406181,0.807173,0.0301755,0.0301186,1854,1394,11.2191,-5.35657
637,-370,11.0803,5.38391,-0.0157939,-0.0102938,0.0179951,0.00516023,-0.0312479,0.861222,0.0227479,0.0199326,1861,1394,11.0804,-5.38391
644,-370,11.1516,5.19373,-0.0119081,-0.00703575,0.0126391,0.00339985,-0.0223437,0.880604,0.0161488,0.0103669,1868,1394,11.1516,-5.19369
651,-370,11.1692,5.01428,-0.00824121,-0.00478812,0.00840257,0.00206346,-0.0150928,0.886727,0.0108155,0.0113622,1875,1394,11.1692,-5.01433
658,-370,11.1665,4.87793,-0.00521151,-0.00349386,0.00547281,0.0011871,-0.00989247,0.863226,0.0070242,0.0127539,1882,1394,11.1665,-4.87797
665,-370,11.1412,4.72839,-0.00254635,-0.00257015,0.00295653,0.000398308,-0.00551481,0.783385,0.00381624,0.0130797,1889,1394,11.1412,-4.72842
672,-370,11.1426,4.56787,-0.000300835,-0.002115,0.00118286,0.000282709,-0.00269854,0.458299,0.00190029,0.0138295,1896,1394,11.1425,-4.56792
679,-370,11.1732,4.39648,0.0010957,-0.00178359,0.00018576,0.00110764,-0.00179552,0.0641614,0.00169175,0.0142893,1903,1394,11.1732,-4.39651
686,-370,11.1555,4.25647,0.00248462,-0.00212783,-0.000571206,0.00255431,-0.00219752,-0.121397,0.00274604,0.0140851,1910,1394,11.1555,-4.25649
693,-370,11.144,4.07837,0.00393466,-0.00275522,-0.00127089,0.00416796,-0.00298851,-0.181549,0.00415045,0.011621,1917,1394,11.1441,-4.07833
700,-370,11.1997,3.88257,0.00580058,-0.00371828,-0.0019664,0.0061908,-0.0041085,-0.195899,0.00598667,0.0153767,1924,1394,11.1997,-3.8826
707,-370,11.1726,3.76807,0.00850674,-0.00498218,-0.00288895,0.00909944,-0.00557487,-0.20235,0.00855328,0.0264124,1931,1394,11.1726,-3.76802
714,-370,11.3684,3.58655,0.0125301,-0.00656339,-0.00402383,0.0133435,-0.00737674,-0.199445,0.012127,0.0424426,1938,1394,11.3684,-3.58651
721,-370,11.5662,3.39429,0,0,0,0,0,0,0,-1,1945,1394,11.5662,-3.39425
728,-370,12.1058,4.15918,0,0,0,0,0,0,0,-1,1952,1394,12.1058,-4.15922
735,-370,12.486,4.15796,0,0,0,0,0,0,0,-1,1959,1394,12.486,-4.15796
742,-370,12.6914,4.10376,0,0,0,0,0,0,0,-1,1966,1394,12.6914,-4.10374
749,-370,0,0,0,0,0,0,0,0,0,-1,1973,1394,0,0
756,-370,0,0,0,0,0,0,0,0,0,-1,1980,1394,0,0
763,-370,0,0,0,0,0,0,0,0,0,-1,1987,1394,0,0
770,-370,0,0,0,0,0,0,0,0,0,-1,1994,1394,0,0
777,-370,0,0,0,0,0,0,0,0,0,-1,2001,1394,0,0
784,-370,0,0,0,0,0,0,0,0,0,-1,2008,1394,0,0
791,-370,0,0,0,0,0,0,0,0,0,-1,2015,1394,0,0
798,-370,0,0,0,0,0,0,0,0,0,-1,2022,1394,0,0
805,-370,0,0,0,0,0,0,0,0,0,-1,2029,1394,0,0
812,-370,0,0,0,0,0,0,0,0,0,-1,2036,1394,0,0
-700,-377,0,0,0,0,0,0,0,0,0,-1,524,1401,0,0
-693,-377,0,0,0,0,0,0,0,0,0,-1,531,1401,0,0
-686,-377,0,0,0,0,0,0,0,0,0,-1,538,1401,0,0
-679,-377,0,0,0,0,0,0,0,0,0,-1,545,1401,0,0
-672,-377,0,0,0,0,0,0,0,0,0,-1,552,1401,0,0
-665,-377,0,0,0,0,0,0,0,0,0,-1,559,1401,0,0
-658,-377,0,0,0,0,0,0,0,0,0,-1,566,1401,0,0
-651,-377,0,0,0,0,0,0,0,0,0,-1,573,1401,0,0
-644,-377,0,0,0,0,0,0,0,0,0,-1,580,1401,0,0
-637,-377,0,0,0,0,0,0,0,0,0,-1,587,1401,0,0
-630,-377,0,0,0,0,0,0,0,0,0,-1,594,1401,0,0
-623,-377,0,0,0,0,0,0,0,0,0,-1,601,1401,0,0
-616,-377,-3.6131,-7.01367,0,0,0,0,0,0,0,-1,608,1401,-3.61313,7.01371
-609,-377,-3.33447,-5.15161,0,0,0,0,0,0,0,-1,615,1401,-3.33444,5.15163
-602,-377,-3.05579,-3.28955,0,0,0,0,0,0,0,-1,622,1401,-3.05576,3.28955
-595,-377,-2.55353,-0.588013,0,0,0,0,0,0,0,-1,629,1401,-2.55351,0.588029
-588,-377,-2.17242,1.62683,0,0,0,0,0,0,0,-1,636,1401,-2.17244,-1.62684
-581,-377,-3.41907,1.45398,0,0,0,0,0,0,0,-1,643,1401,-3.41908,-1.45396
-574,-377,-3.67944,1.86121,0.00128868,0.0135004,0.0262268,0.0343227,-0.0195336,0.899766,0.0314823,0.0458958,650,1401,-3.67942,-1.86122
-567,-377,-3.82593,2.07898,-0.00254035,0.0110583,0.0171234,0.0226829,-0.014165,0.97439,0.0214627,0.0303024,657,1401,-3.82592,-2.07902
-560,-377,-3.96545,2.21326,-0.00453146,0.00855661,0.0103719,0.0142764,-0.0102512,1.06683,0.0142244,0.0193081,664,1401,-3.96547,-2.21331
-553,-377,-3.94366,2.37073,-0.00621319,0.00671344,0.00464213,0.00820775,-0.0077075,1.25937,0.00919019,0.0124349,671,1401,-3.94366,-2.37074
-546,-377,-3.9433,2.58154,-0.00591346,0.00475463,0.00108352,0.00486357,-0.0060224,1.47059,0.00629688,0.0165251,678,1401,-3.94331,-2.58151
-539,-377,-3.92358,2.73889,-0.00484878,0.00171801,-0.00113631,0.00190908,-0.00503985,-1.40421,0.00414547,0.0214871,685,1401,-3.92358,-2.73885
-532,-377,-3.94501,2.93835,-0.00371555,-0.000581067,-0.0021575,0.000518351,-0.00481496,-1.09952,0.00339597,0.0190962,692,1401,-3.94501,-2.93834
-525,-377,-3.90674,3.12329,-0.00272119,-0.00255725,-0.00297717,0.000339079,-0.00561752,-0.79916,0.003863,0.0154909,699,1401,-3.90673,-3.12335
-518,-377,-3.95123,3.29333,-0.00217155,-0.00470033,-0.0038746,0.00063974,-0.00751163,-0.627682,0.00523405,0.0105173,706,1401,-3.95126,-3.29338
-511,-377,-3.94519,3.48315,-0.00311604,-0.0058008,-0.00477424,0.000500947,-0.00941779,-0.648351,0.00645199,0.0113942,713,1401,-3.94518,-3.48315
-504,-377,-3.92834,3.67346,-0.00561222,-0.00584788,-0.00557065,-0.000158155,-0.0113019,-0.774824,0.00748247,0.0114709,720,1401,-3.92834,-3.6734
-497,-377,-3.78333,3.84338,-0.0110669,-0.00418168,-0.00612117,-0.000601451,-0.0146471,-1.04156,0.00957058,0.0177803,727,1401,-3.78333,-3.84333
-490,-377,-3.8996,3.78662,-0.0185555,-0.0010242,-0.00605492,0.000863723,-0.0204435,-1.26855,0.0139258,0.0388989,734,1401,-3.89961,-3.78661
-483,-377,-4.23376,3.69568,-0.0276085,0.00393825,-0.00553366,0.00488076,-0.028551,-1.40209,0.0208522,0.0430364,741,1401,-4.23374,-3.69573
-476,-377,-4.51862,3.54175,-0.0389395,0.0113592,-0.00423685,0.0117136,-0.0392939,-1.48735,0.0308509,0.044585,748,1401,-4.51861,-3.54174
-469,-377,-4.84552,3.33203,0,0,0,0,0,0,0,-1,755,1401,-4.84553,-3.332
-462,-377,-6.49249,3.61462,0,0,0,0,0,0,0,-1,762,1401,-6.49251,-3.61457
-455,-377,-3.3089,1.23254,0,0,0,0,0,0,0,-1,769,1401,-3.30891,-1.23258
-448,-377,-2.71375,-1.16174,0,0,0,0,0,0,0,-1,776,1401,-2.71377,1.16169
-441,-377,-8.1756,-2.43384,0,0,0,0,0,0,0,-1,783,1401,-8.17558,2.43384
-434,-377,-6.90076,0.886108,0,0,0,0,0,0,0,-1,790,1401,-6.90078,-0.886068
-427,-377,-6.73157,1.24084,0,0,0,0,0,0,0,-1,797,1401,-6.73154,-1.2408
-420,-377,0,0,0,0,0,0,0,0,0,-1,804,1401,0,0
-413,-377,0,0,0,0,0,0,0,0,0,-1,811,1401,0,0
-406,-377,0,0,0,0,0,0,0,0,0,-1,818,1401,0,0
-399,-377,0,0,0,0,0,0,0,0,0,-1,825,1401,0,0
-392,-377,0,0,0,0,0,0,0,0,0,-1,832,1401,0,0
-385,-377,0,0,0,0,0,0,0,0,0,-1,839,1401,0,0
-378,-377,0,0,0,0,0,0,0,0,0,-1,846,1401,0,0
-371,-377,0,0,0,0,0,0,0,0,0,-1,853,1401,0,0
-364,-377,0,0,0,0,0,0,0,0,0,-1,860,1401,0,0
-357,-377,0,0,0,0,0,0,0,0,0,-1,867,1401,0,0
-350,-377,0,0,0,0,0,0,0,0,0,-1,874,1401,0,0
-343,-377,0,0,0,0,0,0,0,0,0,-1,881,1401,0,0
-336,-377,0,0,0,0,0,0,0,0,0,-1,888,1401,0,0
-329,-377,0,0,0,0,0,0,0,0,0,-1,895,1401,0,0
-322,-377,0,0,0,0,0,0,0,0,0,-1,902,1401,0,0
-315,-377,0,0,0,0,0,0,0,0,0,-1,909,1401,0,0
-308,-377,0,0,0,0,0,0,0,0,0,-1,916,1401,0,0
-301,-377,0,0,0,0,0,0,0,0,0,-1,923,1401,0,0
-294,-377,0,0,0,0,0,0,0,0,0,-1,930,1401,0,0
-287,-377,0,0,0,0,0,0,0,0,0,-1,937,1401,0,0
-280,-377,0,0,0,0,0,0,0,0,0,-1,944,1401,0,0
-273,-377,0,0,0,0,0,0,0,0,0,-1,951,1401,0,0
-266,-377,0,0,0,0,0,0,0,0,0,-1,958,1401,0,0
-259,-377,0,0,0,0,0,0,0,0,0,-1,965,1401,0,0
-252,-377,0,0,0,0,0,0,0,0,0,-1,972,1401,0,0
-245,-377,0,0,0,0,0,0,0,0,0,-1,979,1401,0,0
-238,-377,0,0,0,0,0,0,0,0,0,-1,986,1401,0,0
-231,-377,0,0,0,0,0,0,0,0,0,-1,993,1401,0,0
-224,-377,0,0,0,0,0,0,0,0,0,-1,1000,1401,0,0
-217,-377,0,0,0,0,0,0,0,0,0,-1,1007,1401,0,0
-210,-377,0,0,0,0,0,0,0,0,0,-1,1014,1401,0,0
-203,-377,0,0,0,0,0,0,0,0,0,-1,1021,1401,0,0
-196,-377,0,0,0,0,0,0,0,0,0,-1,1028,1401,0,0
-189,-377,0,0,0,0,0,0,0,0,0,-1,1035,1401,0,0
-182,-377,0,0,0,0,0,0,0,0,0,-1,1042,1401,0,0
-175,-377,0,0,0,0,0,0,0,0,0,-1,1049,1401,0,0
-168,-377,0,0,0,0,0,0,0,0,0,-1,1056,1401,0,0
-161,-377,0,0,0,0,0,0,0,0,0,-1,1063,1401,0,0
-154,-377,0,0,0,0,0,0,0,0,0,-1,1070,1401,0,0
-147,-377,0,0,0,0,0,0,0,0,0,-1,1077,1401,0,0
-140,-377,0,0,0,0,0,0,0,0,0,-1,1084,1401,0,0
-133,-377,0,0,0,0,0,0,0,0,0,-1,1091,1401,0,0
-126,-377,0,0,0,0,0,0,0,0,0,-1,1098,1401,0,0
-119,-377,0,0,0,0,0,0,0,0,0,-1,1105,1401,0,0
-112,-377,0,0,0,0,0,0,0,0,0,-1,1112,1401,0,0
-105,-377,0,0,0,0,0,0,0,0,0,-1,1119,1401,0,0
-98,-377,0,0,0,0,0,0,0,0,0,-1,1126,1401,0,0
-91,-377,0,0,0,0,0,0,0,0,0,-1,1133,1401,0,0
-84,-377,0,0,0,0,0,0,0,0,0,-1,1140,1401,0,0
-77,-377,0,0,0,0,0,0,0,0,0,-1,1147,1401,0,0
-70,-377,0,0,0,0,0,0,0,0,0,-1,1154,1401,0,0
-63,-377,0,0,0,0,0,0,0,0,0,-1,1161,1401,0,0
-56,-377,0,0,0,0,0,0,0,0,0,-1,1168,1401,0,0
-49,-377,0,0,0,0,0,0,0,0,0,-1,1175,1401,0,0
-42,-377,0,0,0,0,0,0,0,0,0,-1,1182,1401,0,0
-35,-377,0,0,0,0,0,0,0,0,0,-1,1189,1401,0,0
-28,-377,0,0,0,0,0,0,0,0,0,-1,1196,1401,0,0
-21,-377,0,0,0,0,0,0,0,0,0,-1,1203,1401,0,0
-14,-377,0,0,0,0,0,0,0,0,0,-1,1210,1401,0,0
-7,-377,0,0,0,0,0,0,0,0,0,-1,1217,1401,0,0
0,-377,0,0,0,0,0,0,0,0,0,-1,1224,1401,0,0
7,-377,0,0,0,0,0,0,0,0,0,-1,1231,1401,0,0
14,-377,0,0,0,0,0,0,0,0,0,-1,1238,1401,0,0
21,-377,0,0,0,0,0,0,0,0,0,-1,1245,1401,0,0
28,-377,0,0,0,0,0,0,0,0,0,-1,1252,1401,0,0
35,-377,0,0,0,0,0,0,0,0,0,-1,1259,1401,0,0
42,-377,0,0,0,0,0,0,0,0,0,-1,1266,1401,0,0
49,-377,0,0,0,0,0,0,0,0,0,-1,1273,1401,0,0
56,-377,0,0,0,0,0,0,0,0,0,-1,1280,1401,0,0
63,-377,0,0,0,0,0,0,0,0,0,-1,1287,1401,0,0
70,-377,0,0,0,0,0,0,0,0,0,-1,1294,1401,0,0
77,-377,0,0,0,0,0,0,0,0,0,-1,1301,1401,0,0
84,-377,0,0,0,0,0,0,0,0,0,-1,1308,1401,0,0
91,-377,0,0,0,0,0,0,0,0,0,-1,1315,1401,0,0
98,-377,0,0,0,0,0,0,0,0,0,-1,1322,1401,0,0
105,-377,0,0,0,0,0,0,0,0,0,-1,1329,1401,0,0
112,-377,0,0,0,0,0,0,0,0,0,-1,1336,1401,0,0
119,-377,0,0,0,0,0,0,0,0,0,-1,1343,1401,0,0
126,-377,0,0,0,0,0,0,0,0,0,-1,1350,1401,0,0
133,-377,0,0,0,0,0,0,0,0,0,-1,1357,1401,0,0
140,-377,0,0,0,0,0,0,0,0,0,-1,1364,1401,0,0
147,-377,0,0,0,0,0,0,0,0,0,-1,1371,1401,0,0
154,-377,0,0,0,0,0,0,0,0,0,-1,1378,1401,0,0
161,-377,0,0,0,0,0,0,0,0,0,-1,1385,1401,0,0
168,-377,0,0,0,0,0,0,0,0,0,-1,1392,1401,0,0
175,-377,0,0,0,0,0,0,0,0,0,-1,1399,1401,0,0
182,-377,0,0,0,0,0,0,0,0,0,-1,1406,1401,0,0
189,-377,0,0,0,0,0,0,0,0,0,-1,1413,1401,0,0
196,-377,0,0,0,0,0,0,0,0,0,-1,1420,1401,0,0
203,-377,0,0,0,0,0,0,0,0,0,-1,1427,1401,0,0
210,-377,0,0,0,0,0,0,0,0,0,-1,1434,1401,0,0
217,-377,0,0,0,0,0,0,0,0,0,-1,1441,1401,0,0
224,-377,0,0,0,0,0,0,0,0,0,-1,1448,1401,0,0
231,-377,0,0,0,0,0,0,0,0,0,-1,1455,1401,0,0
238,-377,0,0,0,0,0,0,0,0,0,-1,1462,1401,0,0
245,-377,0,0,0,0,0,0,0,0,0,-1,1469,1401,0,0
252,-377,0,0,0,0,0,0,0,0,0,-1,1476,1401,0,0
259,-377,0,0,0,0,0,0,0,0,0,-1,1483,1401,0,0
266,-377,0,0,0,0,0,0,0,0,0,-1,1490,1401,0,0
273,-377,0,0,0,0,0,0,0,0,0,-1,1497,1401,0,0
280,-377,0,0,0,0,0,0,0,0,0,-1,1504,1401,0,0
287,-377,0,0,0,0,0,0,0,0,0,-1,1511,1401,0,0
294,-377,0,0,0,0,0,0,0,0,0,-1,1518,1401,0,0
301,-377,0,0,0,0,0,0,0,0,0,-1,1525,1401,0,0
308,-377,0,0,0,0,0,0,0,0,0,-1,1532,1401,0,0
315,-377,0,0,0,0,0,0,0,0,0,-1,1539,1401,0,0
322,-377,0,0,0,0,0,0,0,0,0,-1,1546,1401,0,0
329,-377,0,0,0,0,0,0,0,0,0,-1,1553,1401,0,0
336,-377,0,0,0,0,0,0,0,0,0,-1,1560,1401,0,0
343,-377,0,0,0,0,0,0,0,0,0,-1,1567,1401,0,0
350,-377,0,0,0,0,0,0,0,0,0,-1,1574,1401,0,0
357,-377,0,0,0,0,0,0,0,0,0,-1,1581,1401,0,0
364,-377,0,0,0,0,0,0,0,0,0,-1,1588,1401,0,0
371,-377,0,0,0,0,0,0,0,0,0,-1,1595,1401,0,0
378,-377,0,0,0,0,0,0,0,0,0,-1,1602,1401,0,0
385,-377,0,0,0,0,0,0,0,0,0,-1,1609,1401,0,0
392,-377,0,0,0,0,0,0,0,0,0,-1,1616,1401,0,0
399,-377,0,0,0,0,0,0,0,0,0,-1,1623,1401,0,0
406,-377,0,0,0,0,0,0,0,0,0,-1,1630,1401,0,0
413,-377,0,0,0,0,0,0,0,0,0,-1,1637,1401,0,0
420,-377,0,0,0,0,0,0,0,0,0,-1,1644,1401,0,0
427,-377,0,0,0,0,0,0,0,0,0,-1,1651,1401,0,0
434,-377,0,0,0,0,0,0,0,0,0,-1,1658,1401,0,0
441,-377,0,0,0,0,0,0,0,0,0,-1,1665,1401,0,0
448,-377,0,0,0,0,0,0,0,0,0,-1,1672,1401,0,0
455,-377,0,0,0,0,0,0,0,0,0,-1,1679,1401,0,0
462,-377,0,0,0,0,0,0,0,0,0,-1,1686,1401,0,0
469,-377,0,0,0,0,0,0,0,0,0,-1,1693,1401,0,0
476,-377,0,0,0,0,0,0,0,0,0,-1,1700,1401,0,0
483,-377,0,0,0,0,0,0,0,0,0,-1,1707,1401,0,0
490,-377,0,0,0,0,0,0,0,0,0,-1,1714,1401,0,0
497,-377,0,0,0,0,0,0,0,0,0,-1,1721,1401,0,0
504,-377,0,0,0,0,0,0,0,0,0,-1,1728,1401,0,0
511,-377,0,0,0,0,0,0,0,0,0,-1,1735,1401,0,0
518,-377,0,0,0,0,0,0,0,0,0,-1,1742,1401,0,0
525,-377,0,0,0,0,0,0,0,0,0,-1,1749,1401,0,0
532,-377,0,0,0,0,0,0,0,0,0,-1,1756,1401,0,0
539,-377,0,0,0,0,0,0,0,0,0,-1,1763,1401,0,0
546,-377,15.8278,0.516968,0.0495433,-0.0837078,0.089449,0.0944528,-0.128617,0.465302,0.129292,0.0471735,1770,1401,15.8278,-0.51699
553,-377,15.9,1.19849,0.0384704,-0.0732599,0.0874663,0.08639,-0.121179,0.501201,0.1204,0.042996,1777,1401,15.9001,-1.19845
560,-377,16.2561,1.60254,0.0268692,-0.0665065,0.0848197,0.0770014,-0.116639,0.533809,0.112576,0.0426715,1784,1401,16.2561,-1.60251
567,-377,16.8444,1.51758,0.0156582,-0.060833,0.080143,0.0662137,-0.111389,0.56277,0.103638,0.0375647,1791,1401,16.8444,-1.51756
574,-377,17.3569,1.62781,0.00528381,-0.0554903,0.0743641,0.0552298,-0.105436,0.591438,0.0942582,0.0377543,1798,1401,17.3569,-1.62781
581,-377,16.8809,2.6062,0,0,0,0,0,0,0,-1,1805,1401,16.8809,-2.60621
588,-377,16.6173,3.5481,0,0,0,0,0,0,0,-1,1812,1401,16.6174,-3.54805
595,-377,14.5502,3.97974,0,0,0,0,0,0,0,-1,1819,1401,14.5501,-3.97971
602,-377,13.7401,4.65015,0,0,0,0,0,0,0,-1,1826,1401,13.7401,-4.65011
609,-377,13.0253,5.26099,0,0,0,0,0,0,0,-1,1833,1401,13.0253,-5.26097
616,-377,12.2505,5.40259,-0.0191653,-0.0229326,0.0354131,0.0144143,-0.0565122,0.758828,0.043287,0.0487079,1840,1401,12.2504,-5.40258
623,-377,11.1987,5.42529,-0.0198155,-0.0177064,0.0290063,0.0102646,-0.0477864,0.803568,0.0357734,0.0459836,1847,1401,11.1988,-5.42532
630,-377,11.0138,5.56226,-0.0187263,-0.0136707,0.0219686,0.00591503,-0.0383121,0.842678,0.0277242,0.0268893,1854,1401,11.0138,-5.56227
637,-377,10.9713,5.37537,-0.0148781,-0.00938169,0.0157234,0.00383189,-0.0280917,0.871916,0.020127,0.0125858,1861,1401,10.9713,-5.37535
644,-377,10.9921,5.18481,-0.0107979,-0.00631333,0.0107497,0.0024254,-0.0195367,0.88822,0.0139036,0.0108287,1868,1401,10.9921,-5.18479
651,-377,11.0006,5.01367,-0.00718205,-0.00423452,0.00693186,0.00137851,-0.0127951,0.890143,0.00902472,0.0129479,1875,1401,11.0006,-5.01371
658,-377,10.9988,4.87366,-0.00427846,-0.003193,0.00446496,0.000762097,-0.00823356,0.845878,0.0057599,0.0138311,1882,1401,10.9988,-4.87372
665,-377,10.996,4.70776,-0.0017699,-0.00237552,0.00235539,0.000302059,-0.00444748,0.721468,0.00307063,0.015636,1889,1401,10.996,-4.70772
672,-377,11.0098,4.54138,0.000237533,-0.00211981,0.000914623,0.000550773,-0.00243305,0.32996,0.00183341,0.0160212,1896,1401,11.0098,-4.54142
679,-377,10.9978,4.40784,0.00146814,-0.00212625,0.00012105,0.00147222,-0.00213032,0.0336267,0.00209146,0.0180193,1903,1401,10.9978,-4.40789
686,-377,11.0029,4.24609,0.00264888,-0.00278491,-0.000444027,0.00268493,-0.00282096,-0.0809997,0.00317915,0.0154668,1910,1401,11.0029,-4.24609
693,-377,11.0232,4.07544,0.00391407,-0.00380975,-0.000945435,0.00402811,-0.00392379,-0.120044,0.00459117,0.0115949,1917,1401,11.0232,-4.07548
700,-377,11.0149,3.90869,0.00562749,-0.00524425,-0.00151227,0.00583393,-0.00545069,-0.13567,0.00651643,0.0196913,1924,1401,11.0149,-3.90873
707,-377,11.0264,3.70789,0.00819732,-0.00706609,-0.00239838,0.00856531,-0.00743408,-0.152246,0.00924495,0.037003,1931,1401,11.0264,-3.70792
714,-377,11.2715,3.32654,0.0120723,-0.00920762,-0.00360185,0.0126654,-0.00980074,-0.163206,0.013006,0.0456701,1938,1401,11.2715,-3.32652
721,-377,11.4109,3.06567,0,0,0,0,0,0,0,-1,1945,1401,11.4109,-3.06567
728,-377,12.5571,5.13257,0,0,0,0,0,0,0,-1,1952,1401,12.5571,-5.13256
735,-377,12.7489,5.08521,0,0,0,0,0,0,0,-1,1959,1401,12.7489,-5.08523
742,-377,0,0,0,0,0,0,0,0,0,-1,1966,1401,0,0
749,-377,0,0,0,0,0,0,0,0,0,-1,1973,1401,0,0
756,-377,0,0,0,0,0,0,0,0,0,-1,1980,1401,0,0
763,-377,0,0,0,0,0,0,0,0,0,-1,1987,1401,0,0
770,-377,0,0,0,0,0,0,0,0,0,-1,1994,1401,0,0
777,-377,0,0,0,0,0,0,0,0,0,-1,2001,1401,0,0
784,-377,0,0,0,0,0,0,0,0,0,-1,2008,1401,0,0
791,-377,0,0,0,0,0,0,0,0,0,-1,2015,1401,0,0
798,-377,0,0,0,0,0,0,0,0,0,-1,2022,1401,0,0
805,-377,0,0,0,0,0,0,0,0,0,-1,2029,1401,0,0
812,-377,0,0,0,0,0,0,0,0,0,-1,2036,1401,0,0
-700,-384,0,0,0,0,0,0,0,0,0,-1,524,1408,0,0
-693,-384,0,0,0,0,0,0,0,0,0,-1,531,1408,0,0
-686,-384,0,0,0,0,0,0,0,0,0,-1,538,1408,0,0
-679,-384,0,0,0,0,0,0,0,0,0,-1,545,1408,0,0
-672,-384,0,0,0,0,0,0,0,0,0,-1,552,1408,0,0
-665,-384,0,0,0,0,0,0,0,0,0,-1,559,1408,0,0
-658,-384,0,0,0,0,0,0,0,0,0,-1,566,1408,0,0
-651,-384,0,0,0,0,0,0,0,0,0,-1,573,1408,0,0
-644,-384,0,0,0,0,0,0,0,0,0,-1,580,1408,0,0
-637,-384,0,0,0,0,0,0,0,0,0,-1,587,1408,0,0
-630,-384,0,0,0,0,0,0,0,0,0,-1,594,1408,0,0
-623,-384,0,0,0,0,0,0,0,0,0,-1,601,1408,0,0
-616,-384,-3.49261,-6.7959,0,0,0,0,0,0,0,-1,608,1408,-3.4926,6.79592
-609,-384,-3.20947,-4.95691,0.0596915,0.00984182,0.110191,0.147742,-0.0782084,0.674172,0.132495,0.0459681,615,1408,-3.20945,4.95686
-602,-384,-3.04376,-3.52942,0.0419463,0.0176279,0.0927997,0.12338,-0.0638057,0.720256,0.109881,0.0446494,622,1408,-3.04375,3.5294
-595,-384,-2.09558,-0.591919,0,0,0,0,0,0,0,-1,629,1408,-2.0956,0.591949
-588,-384,-2.375,1.23816,0,0,0,0,0,0,0,-1,636,1408,-2.37501,-1.23818
-581,-384,-2.63647,1.39966,0.00881763,0.0195255,0.0453478,0.0598343,-0.0314912,0.844158,0.0535665,0.0491682,643,1408,-2.6365,-1.39963
-574,-384,-3.10516,1.60901,0.00252972,0.0170467,0.0326319,0.0432176,-0.0236413,0.894834,0.0391487,0.0490633,650,1408,-3.10517,-1.60903
-567,-384,-3.55438,2.01074,-0.00173122,0.0140474,0.0220762,0.0296017,-0.0172855,0.957009,0.0273799,0.0428443,657,1408,-3.55437,-2.01074
-560,-384,-3.71771,2.17761,-0.00411276,0.010947,0.0139532,0.0192725,-0.0124382,1.03283,0.0184493,0.0252487,664,1408,-3.71774,-2.1776
-553,-384,-3.7619,2.38318,-0.00619203,0.00865287,0.00709016,0.0114951,-0.00903423,1.18954,0.011881,0.0168929,671,1408,-3.76189,-2.38317
-546,-384,-3.77765,2.60657,-0.0061388,0.00634413,0.00260127,0.00686451,-0.00665918,1.37336,0.00780821,0.0144776,678,1408,-3.77768,-2.60657
-539,-384,-3.79218,2.75232,-0.00508508,0.00294905,-0.000200885,0.00295407,-0.0050901,-1.54581,0.00469857,0.015648,685,1408,-3.79218,-2.75228
-532,-384,-3.76636,2.88501,-0.00376911,0.000427187,-0.00142635,0.000866101,-0.00420803,-1.27227,0.0031342,0.0218347,692,1408,-3.76637,-2.88506
-525,-384,-3.77246,3.1134,-0.00262525,-0.00150639,-0.00219328,0.000197688,-0.00432933,-0.910269,0.00295432,0.0202371,699,1408,-3.77248,-3.11342
-518,-384,-3.78235,3.30676,-0.0018928,-0.00360245,-0.00306469,0.000434052,-0.0059293,-0.649392,0.00410521,0.0117541,706,1408,-3.78238,-3.30676
-511,-384,-3.77795,3.50171,-0.00236474,-0.0050926,-0.00408864,0.000581468,-0.00803881,-0.624408,0.00556317,0.0106117,713,1408,-3.77794,-3.50173
-504,-384,-3.75342,3.69946,-0.00420325,-0.00586257,-0.00514104,0.000174647,-0.0102405,-0.705398,0.00688593,0.0114617,720,1408,-3.7534,-3.69948
-497,-384,-3.72382,3.88794,-0.00855315,-0.00537439,-0.00614392,-0.000617596,-0.0133099,-0.911969,0.00867476,0.0128844,727,1408,-3.72379,-3.8879
-490,-384,-3.65771,4.05225,-0.014754,-0.00367468,-0.00675795,-0.000476053,-0.0179526,-1.12873,0.0118129,0.0265578,734,1408,-3.65773,-4.0523
-483,-384,-3.91473,4.04578,-0.0223746,-0.000750573,-0.00722759,0.00144271,-0.0245678,-1.27617,0.01688,0.0438993,741,1408,-3.91474,-4.04576
-476,-384,-4.1889,3.62756,-0.0322806,0.00442061,-0.00707438,0.00573702,-0.0335971,-1.38682,0.024535,0.0447269,748,1408,-4.18888,-3.62757
-469,-384,-4.46503,3.38782,0,0,0,0,0,0,0,-1,755,1408,-4.46504,-3.38786
-462,-384,-5.21936,3.83447,0,0,0,0,0,0,0,-1,762,1408,-5.21934,-3.83452
-455,-384,-5.35962,3.8905,0,0,0,0,0,0,0,-1,769,1408,-5.35964,-3.89045
-448,-384,-1.89233,1.6134,0,0,0,0,0,0,0,-1,776,1408,-1.89231,-1.61337
-441,-384,-2.54742,0.868164,0,0,0,0,0,0,0,-1,783,1408,-2.54745,-0.868223
-434,-384,-5.99164,0.274902,0,0,0,0,0,0,0,-1,790,1408,-5.99164,-0.274901
-427,-384,-5.77826,1.16138,0,0,0,0,0,0,0,-1,797,1408,-5.77824,-1.16133
-420,-384,-5.56482,2.04773,0,0,0,0,0,0,0,-1,804,1408,-5.56483,-2.04776
-413,-384,0,0,0,0,0,0,0,0,0,-1,811,1408,0,0
-406,-384,0,0,0,0,0,0,0,0,0,-1,818,1408,0,0
-399,-384,0,0,0,0,0,0,0,0,0,-1,825,1408,0,0
-392,-384,0,0,0,0,0,0,0,0,0,-1,832,1408,0,0
-385,-384,0,0,0,0,0,0,0,0,0,-1,839,1408,0,0
-378,-384,0,0,0,0,0,0,0,0,0,-1,846,1408,0,0
-371,-384,0,0,0,0,0,0,0,0,0,-1,853,1408,0,0
-364,-384,0,0,0,0,0,0,0,0,0,-1,860,1408,0,0
-357,-384,0,0,0,0,0,0,0,0,0,-1,867,1408,0,0
-350,-384,0,0,0,0,0,0,0,0,0,-1,874,1408,0,0
-343,-384,0,0,0,0,0,0,0,0,0,-1,881,1408,0,0
-336,-384,0,0,0,0,0,0,0,0,0,-1,888,1408,0,0
-329,-384,0,0,0,0,0,0,0,0,0,-1,895,1408,0,0
-322,-384,0,0,0,0,0,0,0,0,0,-1,902,1408,0,0
-315,-384,0,0,0,0,0,0,0,0,0,-1,909,1408,0,0
-308,-384,0,0,0,0,0,0,0,0,0,-1,916,1408,0,0
-301,-384,0,0,0,0,0,0,0,0,0,-1,923,1408,0,0
-294,-384,0,0,0,0,0,0,0,0,0,-1,930,1408,0,0
-287,-384,0,0,0,0,0,0,0,0,0,-1,937,1408,0,0
-280,-384,0,0,0,0,0,0,0,0,0,-1,944,1408,0,0
-273,-384,0,0,0,0,0,0,0,0,0,-1,951,1408,0,0
-266,-384,0,0,0,0,0,0,0,0,0,-1,958,1408,0,0
-259,-384,0,0,0,0,0,0,0,0,0,-1,965,1408,0,0
-252,-384,0,0,0,0,0,0,0,0,0,-1,972,1408,0,0
-245,-384,0,0,0,0,0,0,0,0,0,-1,979,1408,0,0
-238,-384,0,0,0,0,0,0,0,0,0,-1,986,1408,0,0
-231,-384,0,0,0,0,0,0,0,0,0,-1,993,1408,0,0
-224,-384,0,0,0,0,0,0,0,0,0,-1,1000,1408,0,0
-217,-384,0,0,0,0,0,0,0,0,0,-1,1007,1408,0,0
-210,-384,0,0,0,0,0,0,0,0,0,-1,1014,1408,0,0
-203,-384,0,0,0,0,0,0,0,0,0,-1,1021,1408,0,0
-196,-384,0,0,0,0,0,0,0,0,0,-1,1028,1408,0,0
-189,-384,0,0,0,0,0,0,0,0,0,-1,1035,1408,0,0
-182,-384,0,0,0,0,0,0,0,0,0,-1,1042,1408,0,0
-175,-384,0,0,0,0,0,0,0,0,0,-1,1049,1408,0,0
-168,-384,0,0,0,0,0,0,0,0,0,-1,1056,1408,0,0
-161,-384,0,0,0,0,0,0,0,0,0,-1,1063,1408,0,0
-154,-384,0,0,0,0,0,0,0,0,0,-1,1070,1408,0,0
-147,-384,0,0,0,0,0,0,0,0,0,-1,1077,1408,0,0
-140,-384,0,0,0,0,0,0,0,0,0,-1,1084,1408,0,0
-133,-384,0,0,0,0,0,0,0,0,0,-1,1091,1408,0,0
-126,-384,0,0,0,0,0,0,0,0,0,-1,1098,1408,0,0
-119,-384,0,0,0,0,0,0,0,0,0,-1,1105,1408,0,0
-112,-384,0,0,0,0,0,0,0,0,0,-1,1112,1408,0,0
-105,-384,0,0,0,0,0,0,0,0,0,-1,1119,1408,0,0
-98,-384,0,0,0,0,0,0,0,0,0,-1,1126,1408,0,0
-91,-384,0,0,0,0,0,0,0,0,0,-1,1133,1408,0,0
-84,-384,0,0,0,0,0,0,0,0,0,-1,1140,1408,0,0
-77,-384,0,0,0,0,0,0,0,0,0,-1,1147,1408,0,0
-70,-384,0,0,0,0,0,0,0,0,0,-1,1154,1408,0,0
-63,-384,0,0,0,0,0,0,0,0,0,-1,1161,1408,0,0
-56,-384,0,0,0,0,0,0,0,0,0,-1,1168,1408,0,0
-49,-384,0,0,0,0,0,0,0,0,0,-1,1175,1408,0,0
-42,-384,0,0,0,0,0,0,0,0,0,-1,1182,1408,0,0
-35,-384,0,0,0,0,0,0,0,0,0,-1,1189,1408,0,0
-28,-384,0,0,0,0,0,0,0,0,0,-1,1196,1408,0,0
-21,-384,0,0,0,0,0,0,0,0,0,-1,1203,1408,0,0
-14,-384,0,0,0,0,0,0,0,0,0,-1,1210,1408,0,0
-7,-384,0,0,0,0,0,0,0,0,0,-1,1217,1408,0,0
0,-384,0,0,0,0,0,0,0,0,0,-1,1224,1408,0,0
7,-384,0,0,0,0,0,0,0,0,0,-1,1231,1408,0,0
14,-384,0,0,0,0,0,0,0,0,0,-1,1238,1408,0,0
21,-384,0,0,0,0,0,0,0,0,0,-1,1245,1408,0,0
28,-384,0,0,0,0,0,0,0,0,0,-1,1252,1408,0,0
35,-384,0,0,0,0,0,0,0,0,0,-1,1259,1408,0,0
42,-384,0,0,0,0,0,0,0,0,0,-1,1266,1408,0,0
49,-384,0,0,0,0,0,0,0,0,0,-1,1273,1408,0,0
56,-384,0,0,0,0,0,0,0,0,0,-1,1280,1408,0,0
63,-384,0,0,0,0,0,0,0,0,0,-1,1287,1408,0,0
70,-384,0,0,0,0,0,0,0,0,0,-1,1294,1408,0,0
77,-384,0,0,0,0,0,0,0,0,0,-1,1301,1408,0,0
84,-384,0,0,0,0,0,0,0,0,0,-1,1308,1408,0,0
91,-384,0,0,0,0,0,0,0,0,0,-1,1315,1408,0,0
98,-384,0,0,0,0,0,0,0,0,0,-1,1322,1408,0,0
105,-384,0,0,0,0,0,0,0,0,0,-1,1329,1408,0,0
112,-384,0,0,0,0,0,0,0,0,0,-1,1336,1408,0,0
119,-384,0,0,0,0,0,0,0,0,0,-1,1343,1408,0,0
126,-384,0,0,0,0,0,0,0,0,0,-1,1350,1408,0,0
133,-384,0,0,0,0,0,0,0,0,0,-1,1357,1408,0,0
140,-384,0,0,0,0,0,0,0,0,0,-1,1364,1408,0,0
147,-384,0,0,0,0,0,0,0,0,0,-1,1371,1408,0,0
154,-384,0,0,0,0,0,0,0,0,0,-1,1378,1408,0,0
161,-384,0,0,0,0,0,0,0,0,0,-1,1385,1408,0,0
168,-384,0,0,0,0,0,0,0,0,0,-1,1392,1408,0,0
175,-384,0,0,0,0,0,0,0,0,0,-1,1399,1408,0,0
182,-384,0,0,0,0,0,0,0,0,0,-1,1406,1408,0,0
189,-384,0,0,0,0,0,0,0,0,0,-1,1413,1408,0,0
196,-384,0,0,0,0,0,0,0,0,0,-1,1420,1408,0,0
203,-384,0,0,0,0,0,0,0,0,0,-1,1427,1408,0,0
210,-384,0,0,0,0,0,0,0,0,0,-1,1434,1408,0,0
217,-384,0,0,0,0,0,0,0,0,0,-1,1441,1408,0,0
224,-384,0,0,0,0,0,0,0,0,0,-1,1448,1408,0,0
231,-384,0,0,0,0,0,0,0,0,0,-1,1455,1408,0,0
238,-384,0,0,0,0,0,0,0,0,0,-1,1462,1408,0,0
245,-384,0,0,0,0,0,0,0,0,0,-1,1469,1408,0,0
252,-384,0,0,0,0,0,0,0,0,0,-1,1476,1408,0,0
259,-384,0,0,0,0,0,0,0,0,0,-1,1483,1408,0,0
266,-384,0,0,0,0,0,0,0,0,0,-1,1490,1408,0,0
273,-384,0,0,0,0,0,0,0,0,0,-1,1497,1408,0,0
280,-384,0,0,0,0,0,0,0,0,0,-1,1504,1408,0,0
287,-384,0,0,0,0,0,0,0,0,0,-1,1511,1408,0,0
294,-384,0,0,0,0,0,0,0,0,0,-1,1518,1408,0,0
301,-384,0,0,0,0,0,0,0,0,0,-1,1525,1408,0,0
308,-384,0,0,0,0,0,0,0,0,0,-1,1532,1408,0,0
315,-384,0,0,0,0,0,0,0,0,0,-1,1539,1408,0,0
322,-384,0,0,0,0,0,0,0,0,0,-1,1546,1408,0,0
329,-384,0,0,0,0,0,0,0,0,0,-1,1553,1408,0,0
336,-384,0,0,0,0,0,0,0,0,0,-1,1560,1408,0,0
343,-384,0,0,0,0,0,0,0,0,0,-1,1567,1408,0,0
350,-384,0,0,0,0,0,0,0,0,0,-1,1574,1408,0,0
357,-384,0,0,0,0,0,0,0,0,0,-1,1581,1408,0,0
364,-384,0,0,0,0,0,0,0,0,0,-1,1588,1408,0,0
371,-384,0,0,0,0,0,0,0,0,0,-1,1595,1408,0,0
378,-384,0,0,0,0,0,0,0,0,0,-1,1602,1408,0,0
385,-384,0,0,0,0,0,0,0,0,0,-1,1609,1408,0,0
392,-384,0,0,0,0,0,0,0,0,0,-1,1616,1408,0,0
399,-384,0,0,0,0,0,0,0,0,0,-1,1623,1408,0,0
406,-384,0,0,0,0,0,0,0,0,0,-1,1630,1408,0,0
413,-384,0,0,0,0,0,0,0,0,0,-1,1637,1408,0,0
420,-384,0,0,0,0,0,0,0,0,0,-1,1644,1408,0,0
427,-384,0,0,0,0,0,0,0,0,0,-1,1651,1408,0,0
434,-384,0,0,0,0,0,0,0,0,0,-1,1658,1408,0,0
441,-384,0,0,0,0,0,0,0,0,0,-1,1665,1408,0,0
448,-384,0,0,0,0,0,0,0,0,0,-1,1672,1408,0,0
455,-384,0,0,0,0,0,0,0,0,0,-1,1679,1408,0,0
462,-384,0,0,0,0,0,0,0,0,0,-1,1686,1408,0,0
469,-384,0,0,0,0,0,0,0,0,0,-1,1693,1408,0,0
476,-384,0,0,0,0,0,0,0,0,0,-1,1700,1408,0,0
483,-384,0,0,0,0,0,0,0,0,0,-1,1707,1408,0,0
490,-384,0,0,0,0,0,0,0,0,0,-1,1714,1408,0,0
497,-384,0,0,0,0,0,0,0,0,0,-1,1721,1408,0,0
504,-384,0,0,0,0,0,0,0,0,0,-1,1728,1408,0,0
511,-384,0,0,0,0,0,0,0,0,0,-1,1735,1408,0,0
518,-384,0,0,0,0,0,0,0,0,0,-1,1742,1408,0,0
525,-384,0,0,0,0,0,0,0,0,0,-1,1749,1408,0,0
532,-384,0,0,0,0,0,0,0,0,0,-1,1756,1408,0,0
539,-384,15.7521,1.85681,0,0,0,0,0,0,0,-1,1763,1408,15.752,-1.8568
546,-384,15.0581,1.63147,0,0,0,0,0,0,0,-1,1770,1408,15.0581,-1.63146
553,-384,14.822,2.00012,0,0,0,0,0,0,0,-1,1777,1408,14.8221,-2.00008
560,-384,13.1923,1.22668,0,0,0,0,0,0,0,-1,1784,1408,13.1923,-1.22663
567,-384,16.1981,1.44458,0,0,0,0,0,0,0,-1,1791,1408,16.1982,-1.44454
574,-384,16.1027,1.87402,0.00267863,-0.0492264,0.0767484,0.0577437,-0.104291,0.622358,0.094829,0.0393986,1798,1408,16.1026,-1.87406
581,-384,15.6797,2.53943,-0.00453875,-0.0449653,0.0702027,0.0483028,-0.0978068,0.645226,0.0859552,0.0403305,1805,1408,15.6797,-2.53943
588,-384,15.267,3.30969,0,0,0,0,0,0,0,-1,1812,1408,15.2669,-3.30974
595,-384,13.6604,5.06311,0,0,0,0,0,0,0,-1,1819,1408,13.6604,-5.06307
602,-384,13.0042,5.16602,0,0,0,0,0,0,0,-1,1826,1408,13.0041,-5.16607
609,-384,12.3972,5.21179,-0.0179491,-0.0246984,0.0410643,0.019879,-0.0625265,0.7444,0.0496553,0.0451205,1833,1408,12.3972,-5.21185
616,-384,11.5809,5.37659,-0.0196377,-0.0205165,0.0349975,0.0149231,-0.0550773,0.77912,0.0425735,0.0458736,1840,1408,11.581,-5.3766
623,-384,10.9275,5.60498,-0.0196856,-0.0156719,0.0276931,0.010087,-0.0454445,0.821569,0.0341588,0.039105,1847,1408,10.9274,-5.60504
630,-384,10.8561,5.50244,-0.0177857,-0.0119788,0.0201029,0.00542924,-0.0351937,0.857118,0.0254659,0.0188124,1854,1408,10.856,-5.50244
637,-384,10.8196,5.37646,-0.0135825,-0.00819632,0.0137539,0.00312571,-0.0249045,0.882077,0.0177369,0.0147928,1861,1408,10.8195,-5.37647
644,-384,10.8279,5.19897,-0.00944518,-0.00542102,0.00913815,0.00192394,-0.0167901,0.893761,0.0118868,0.0154781,1868,1408,10.8279,-5.199
651,-384,10.8263,5.01453,-0.00594167,-0.0035829,0.00568588,0.00104463,-0.0105692,0.88766,0.0074189,0.0155302,1875,1408,10.8264,-5.01448
658,-384,10.8337,4.85107,-0.00318975,-0.00282209,0.0036061,0.000604861,-0.00661671,0.810865,0.00462596,0.0146528,1882,1408,10.8337,-4.85107
665,-384,10.8656,4.71045,-0.000857289,-0.00218882,0.00184252,0.000436059,-0.00348217,0.61203,0.00247961,0.0151041,1889,1408,10.8656,-4.71048
672,-384,10.8748,4.54822,0.000846361,-0.00216926,0.000761503,0.00102774,-0.00235064,0.233835,0.00199974,0.0144091,1896,1408,10.8748,-4.54826
679,-384,10.8436,4.38708,0.00185116,-0.00257871,0.000227249,0.00186279,-0.00259033,0.0511205,0.00258242,0.0160498,1903,1408,10.8436,-4.38711
686,-384,10.8325,4.21326,0.00283933,-0.003608,-0.000101514,0.00284093,-0.0036096,-0.0157399,0.00373302,0.0127103,1910,1408,10.8326,-4.21323
693,-384,10.8674,4.05017,0.00391552,-0.00511636,-0.000353763,0.00392935,-0.00513019,-0.0390884,0.00524582,0.0157941,1917,1408,10.8674,-4.05016
700,-384,10.823,4.10205,0.00556272,-0.00710117,-0.000774883,0.00560996,-0.0071484,-0.0608857,0.00738387,0.0346378,1924,1408,10.823,-4.10211
707,-384,10.8757,4.25061,0.00815325,-0.00953079,-0.00163766,0.00830363,-0.00968117,-0.091569,0.0103937,0.047577,1931,1408,10.8758,-4.25062
714,-384,11.2609,2.99097,0,0,0,0,0,0,0,-1,1938,1408,11.2609,-2.99096
721,-384,12.5815,6.69556,0,0,0,0,0,0,0,-1,1945,1408,12.5816,-6.69556
728,-384,12.9172,6.28796,0,0,0,0,0,0,0,-1,1952,1408,12.9173,-6.28802
735,-384,13.028,6.02173,0,0,0,0,0,0,0,-1,1959,1408,13.028,-6.02172
742,-384,0,0,0,0,0,0,0,0,0,-1,1966,1408,0,0
749,-384,0,0,0,0,0,0,0,0,0,-1,1973,1408,0,0
756,-384,0,0,0,0,0,0,0,0,0,-1,1980,1408,0,0
763,-384,0,0,0,0,0,0,0,0,0,-1,1987,1408,0,0
770,-384,0,0,0,0,0,0,0,0,0,-1,1994,1408,0,0
777,-384,0,0,0,0,0,0,0,0,0,-1,2001,1408,0,0
784,-384,0,0,0,0,0,0,0,0,0,-1,2008,1408,0,0
791,-384,0,0,0,0,0,0,0,0,0,-1,2015,1408,0,0
798,-384,0,0,0,0,0,0,0,0,0,-1,2022,1408,0,0
805,-384,0,0,0,0,0,0,0,0,0,-1,2029,1408,0,0
812,-384,0,0,0,0,0,0,0,0,0,-1,2036,1408,0,0
-700,-391,0,0,0,0,0,0,0,0,0,-1,524,1415,0,0
-693,-391,0,0,0,0,0,0,0,0,0,-1,531,1415,0,0
-686,-391,0,0,0,0,0,0,0,0,0,-1,538,1415,0,0
-679,-391,0,0,0,0,0,0,0,0,0,-1,545,1415,0,0
-672,-391,0,0,0,0,0,0,0,0,0,-1,552,1415,0,0
-665,-391,0,0,0,0,0,0,0,0,0,-1,559,1415,0,0
-658,-391,0,0,0,0,0,0,0,0,0,-1,566,1415,0,0
-651,-391,0,0,0,0,0,0,0,0,0,-1,573,1415,0,0
-644,-391,0,0,0,0,0,0,0,0,0,-1,580,1415,0,0
-637,-391,0,0,0,0,0,0,0,0,0,-1,587,1415,0,0
-630,-391,0,0,0,0,0,0,0,0,0,-1,594,1415,0,0
-623,-391,0,0,0,0,0,0,0,0,0,-1,601,1415,0,0
-616,-391,0,0,0,0,0,0,0,0,0,-1,608,1415,0,0
-609,-391,-3.00537,-4.70117,0.0601742,0.0143316,0.12134,0.160739,-0.0862328,0.692047,0.144736,0.0457618,615,1415,-3.00536,4.70118
-602,-391,-2.65186,-2.95972,0.0429683,0.0230423,0.103657,0.13714,-0.0711289,0.737488,0.12224,0.0458863,622,1415,-2.65188,2.9597
-595,-391,-2.15253,-1.02966,0.0296259,0.0261159,0.0863481,0.114237,-0.0584951,0.775237,0.101443,0.0456981,629,1415,-2.15251,1.02968
-588,-391,-2.22601,1.02197,0,0,0,0,0,0,0,-1,636,1415,-2.22598,-1.02198
-581,-391,-2.34491,1.25415,0,0,0,0,0,0,0,-1,643,1415,-2.34488,-1.25414
-574,-391,-2.8009,1.53943,0,0,0,0,0,0,0,-1,650,1415,-2.8009,-1.53949
-567,-391,-3.08478,1.7655,-0.000743746,0.017744,0.0289465,0.0388868,-0.0218865,0.939952,0.0355421,0.0494762,657,1415,-3.0848,-1.76551
-560,-391,-3.40503,2.17957,-0.00357908,0.0140661,0.0194438,0.0265954,-0.0161083,0.998381,0.0249016,0.0353003,664,1415,-3.40505,-2.17957
-553,-391,-3.5481,2.35596,-0.00610684,0.0112885,0.0113825,0.016916,-0.0117343,1.11164,0.0166312,0.0216289,671,1415,-3.54811,-2.35592
-546,-391,-3.59314,2.58545,-0.00635732,0.00854386,0.00573855,0.0104976,-0.00831111,1.24264,0.0108837,0.0115264,678,1415,-3.59317,-2.58546
-539,-391,-3.57495,2.7572,-0.00535889,0.0047281,0.00201215,0.00511467,-0.00574546,1.38099,0.00627362,0.0143288,685,1415,-3.57498,-2.75717
-532,-391,-3.54913,2.91174,-0.00390733,0.00184295,0.000240142,0.00185296,-0.00391734,1.52913,0.00340181,0.0258809,692,1415,-3.54911,-2.91171
-525,-391,-3.56299,3.1178,-0.00262584,-0.000183304,-0.000777756,4.33237e-05,-0.00285246,-1.28726,0.00191625,0.0228585,699,1415,-3.56297,-3.11783
-518,-391,-3.5752,3.32178,-0.00176607,-0.0022433,-0.00182108,-0.000168037,-0.00384133,-0.720255,0.00250675,0.0128439,706,1415,-3.57521,-3.32172
-511,-391,-3.58313,3.49158,-0.00183051,-0.00398744,-0.00302805,0.000305389,-0.00612335,-0.614323,0.00418774,0.0120953,713,1415,-3.58315,-3.49153
-504,-391,-3.57794,3.68823,-0.00301126,-0.00539046,-0.00435394,0.000312673,-0.00871439,-0.652042,0.00591657,0.0112311,720,1415,-3.57794,-3.68824
-497,-391,-3.56696,3.87524,-0.00623537,-0.00585708,-0.00569645,-0.000346637,-0.0117458,-0.801994,0.00771759,0.00911315,727,1415,-3.56693,-3.87528
-490,-391,-3.52637,4.0769,-0.0109981,-0.0054741,-0.00683697,-0.000862297,-0.0156099,-0.977363,0.0101314,0.0135724,734,1415,-3.52634,-4.07691
-483,-391,-3.4259,4.16504,-0.0169157,-0.00458969,-0.00811403,-0.000563485,-0.0209419,-1.11019,0.0137773,0.0343322,741,1415,-3.42589,-4.16499
-476,-391,-3.61218,4.02588,-0.0249784,-0.00197064,-0.00901769,0.00114252,-0.0280916,-1.23838,0.0191199,0.0453594,748,1415,-3.61216,-4.02593
-469,-391,-3.82672,3.98315,0,0,0,0,0,0,0,-1,755,1415,-3.82672,-3.9832
-462,-391,-3.92377,4.15967,0,0,0,0,0,0,0,-1,762,1415,-3.92379,-4.1597
-455,-391,-4.06989,4.24207,0,0,0,0,0,0,0,-1,769,1415,-4.06989,-4.24207
-448,-391,-4.15601,2.72815,0,0,0,0,0,0,0,-1,776,1415,-4.156,-2.72814
-441,-391,-2.80511,1.66772,0,0,0,0,0,0,0,-1,783,1415,-2.80509,-1.66773
-434,-391,-4.99182,0.0065918,0,0,0,0,0,0,0,-1,790,1415,-4.99185,-0.00653608
-427,-391,-4.73364,0.990479,0,0,0,0,0,0,0,-1,797,1415,-4.73362,-0.990476
-420,-391,-4.47412,1.97998,0,0,0,0,0,0,0,-1,804,1415,-4.47412,-1.97998
-413,-391,0,0,0,0,0,0,0,0,0,-1,811,1415,0,0
-406,-391,0,0,0,0,0,0,0,0,0,-1,818,1415,0,0
-399,-391,0,0,0,0,0,0,0,0,0,-1,825,1415,0,0
-392,-391,0,0,0,0,0,0,0,0,0,-1,832,1415,0,0
-385,-391,0,0,0,0,0,0,0,0,0,-1,839,1415,0,0
-378,-391,0,0,0,0,0,0,0,0,0,-1,846,1415,0,0
-371,-391,0,0,0,0,0,0,0,0,0,-1,853,1415,0,0
-364,-391,0,0,0,0,0,0,0,0,0,-1,860,1415,0,0
-357,-391,0,0,0,0,0,0,0,0,0,-1,867,1415,0,0
-350,-391,0,0,0,0,0,0,0,0,0,-1,874,1415,0,0
-343,-391,0,0,0,0,0,0,0,0,0,-1,881,1415,0,0
-336,-391,0,0,0,0,0,0,0,0,0,-1,888,1415,0,0
-329,-391,0,0,0,0,0,0,0,0,0,-1,895,1415,0,0
-322,-391,0,0,0,0,0,0,0,0,0,-1,902,1415,0,0
-315,-391,0,0,0,0,0,0,0,0,0,-1,909,1415,0,0
-308,-391,0,0,0,0,0,0,0,0,0,-1,916,1415,0,0
-301,-391,0,0,0,0,0,0,0,0,0,-1,923,1415,0,0
-294,-391,0,0,0,0,0,0,0,0,0,-1,930,1415,0,0
-287,-391,0,0,0,0,0,0,0,0,0,-1,937,1415,0,0
-280,-391,0,0,0,0,0,0,0,0,0,-1,944,1415,0,0
-273,-391,0,0,0,0,0,0,0,0,0,-1,951,1415,0,0
-266,-391,0,0,0,0,0,0,0,0,0,-1,958,1415,0,0
-259,-391,0,0,0,0,0,0,0,0,0,-1,965,1415,0,0
-252,-391,0,0,0,0,0,0,0,0,0,-1,972,1415,0,0
-245,-391,0,0,0,0,0,0,0,0,0,-1,979,1415,0,0
-238,-391,0,0,0,0,0,0,0,0,0,-1,986,1415,0,0
-231,-391,0,0,0,0,0,0,0,0,0,-1,993,1415,0,0
-224,-391,0,0,0,0,0,0,0,0,0,-1,1000,1415,0,0
-217,-391,0,0,0,0,0,0,0,0,0,-1,1007,1415,0,0
-210,-391,0,0,0,0,0,0,0,0,0,-1,1014,1415,0,0
-203,-391,0,0,0,0,0,0,0,0,0,-1,1021,1415,0,0
-196,-391,0,0,0,0,0,0,0,0,0,-1,1028,1415,0,0
-189,-391,0,0,0,0,0,0,0,0,0,-1,1035,1415,0,0
-182,-391,0,0,0,0,0,0,0,0,0,-1,1042,1415,0,0
-175,-391,0,0,0,0,0,0,0,0,0,-1,1049,1415,0,0
-168,-391,0,0,0,0,0,0,0,0,0,-1,1056,1415,0,0
-161,-391,0,0,0,0,0,0,0,0,0,-1,1063,1415,0,0
-154,-391,0,0,0,0,0,0,0,0,0,-1,1070,1415,0,0
-147,-391,0,0,0,0,0,0,0,0,0,-1,1077,1415,0,0
-140,-391,0,0,0,0,0,0,0,0,0,-1,1084,1415,0,0
-133,-391,0,0,0,0,0,0,0,0,0,-1,1091,1415,0,0
-126,-391,0,0,0,0,0,0,0,0,0,-1,1098,1415,0,0
-119,-391,0,0,0,0,0,0,0,0,0,-1,1105,1415,0,0
-112,-391,0,0,0,0,0,0,0,0,0,-1,1112,1415,0,0
-105,-391,0,0,0,0,0,0,0,0,0,-1,1119,1415,0,0
-98,-391,0,0,0,0,0,0,0,0,0,-1,1126,1415,0,0
-91,-391,0,0,0,0,0,0,0,0,0,-1,1133,1415,0,0
-84,-391,0,0,0,0,0,0,0,0,0,-1,1140,1415,0,0
-77,-391,0,0,0,0,0,0,0,0,0,-1,1147,1415,0,0
-70,-391,0,0,0,0,0,0,0,0,0,-1,1154,1415,0,0
-63,-391,0,0,0,0,0,0,0,0,0,-1,1161,1415,0,0
-56,-391,0,0,0,0,0,0,0,0,0,-1,1168,1415,0,0
-49,-391,0,0,0,0,0,0,0,0,0,-1,1175,1415,0,0
-42,-391,0,0,0,0,0,0,0,0,0,-1,1182,1415,0,0
-35,-391,0,0,0,0,0,0,0,0,0,-1,1189,1415,0,0
-28,-391,0,0,0,0,0,0,0,0,0,-1,1196,1415,0,0
-21,-391,0,0,0,0,0,0,0,0,0,-1,1203,1415,0,0
-14,-391,0,0,0,0,0,0,0,0,0,-1,1210,1415,0,0
-7,-391,0,0,0,0,0,0,0,0,0,-1,1217,1415,0,0
0,-391,0,0,0,0,0,0,0,0,0,-1,1224,1415,0,0
7,-391,0,0,0,0,0,0,0,0,0,-1,1231,1415,0,0
14,-391,0,0,0,0,0,0,0,0,0,-1,1238,1415,0,0
21,-391,0,0,0,0,0,0,0,0,0,-1,1245,1415,0,0
28,-391,0,0,0,0,0,0,0,0,0,-1,1252,1415,0,0
35,-391,0,0,0,0,0,0,0,0,0,-1,1259,1415,0,0
42,-391,0,0,0,0,0,0,0,0,0,-1,1266,1415,0,0
49,-391,0,0,0,0,0,0,0,0,0,-1,1273,1415,0,0
56,-391,0,0,0,0,0,0,0,0,0,-1,1280,1415,0,0
63,-391,0,0,0,0,0,0,0,0,0,-1,1287,1415,0,0
70,-391,0,0,0,0,0,0,0,0,0,-1,1294,1415,0,0
77,-391,0,0,0,0,0,0,0,0,0,-1,1301,1415,0,0
84,-391,0,0,0,0,0,0,0,0,0,-1,1308,1415,0,0
91,-391,0,0,0,0,0,0,0,0,0,-1,1315,1415,0,0
98,-391,0,0,0,0,0,0,0,0,0,-1,1322,1415,0,0
105,-391,0,0,0,0,0,0,0,0,0,-1,1329,1415,0,0
112,-391,0,0,0,0,0,0,0,0,0,-1,1336,1415,0,0
119,-391,0,0,0,0,0,0,0,0,0,-1,1343,1415,0,0
126,-391,0,0,0,0,0,0,0,0,0,-1,1350,1415,0,0
133,-391,0,0,0,0,0,0,0,0,0,-1,1357,1415,0,0
140,-391,0,0,0,0,0,0,0,0,0,-1,1364,1415,0,0
147,-391,0,0,0,0,0,0,0,0,0,-1,1371,1415,0,0
154,-391,0,0,0,0,0,0,0,0,0,-1,1378,1415,0,0
161,-391,0,0,0,0,0,0,0,0,0,-1,1385,1415,0,0
168,-391,0,0,0,0,0,0,0,0,0,-1,1392,1415,0,0
175,-391,0,0,0,0,0,0,0,0,0,-1,1399,1415,0,0
182,-391,0,0,0,0,0,0,0,0,0,-1,1406,1415,0,0
189,-391,0,0,0,0,0,0,0,0,0,-1,1413,1415,0,0
196,-391,0,0,0,0,0,0,0,0,0,-1,1420,1415,0,0
203,-391,0,0,0,0,0,0,0,0,0,-1,1427,1415,0,0
210,-391,0,0,0,0,0,0,0,0,0,-1,1434,1415,0,0
217,-391,0,0,0,0,0,0,0,0,0,-1,1441,1415,0,0
224,-391,0,0,0,0,0,0,0,0,0,-1,1448,1415,0,0
231,-391,0,0,0,0,0,0,0,0,0,-1,1455,1415,0,0
238,-391,0,0,0,0,0,0,0,0,0,-1,1462,1415,0,0
245,-391,0,0,0,0,0,0,0,0,0,-1,1469,1415,0,0
252,-391,0,0,0,0,0,0,0,0,0,-1,1476,1415,0,0
259,-391,0,0,0,0,0,0,0,0,0,-1,1483,1415,0,0
266,-391,0,0,0,0,0,0,0,0,0,-1,1490,1415,0,0
273,-391,0,0,0,0,0,0,0,0,0,-1,1497,1415,0,0
280,-391,0,0,0,0,0,0,0,0,0,-1,1504,1415,0,0
287,-391,0,0,0,0,0,0,0,0,0,-1,1511,1415,0,0
294,-391,0,0,0,0,0,0,0,0,0,-1,1518,1415,0,0
301,-391,0,0,0,0,0,0,0,0,0,-1,1525,1415,0,0
308,-391,0,0,0,0,0,0,0,0,0,-1,1532,1415,0,0
315,-391,0,0,0,0,0,0,0,0,0,-1,1539,1415,0,0
322,-391,0,0,0,0,0,0,0,0,0,-1,1546,1415,0,0
329,-391,0,0,0,0,0,0,0,0,0,-1,1553,1415,0,0
336,-391,0,0,0,0,0,0,0,0,0,-1,1560,1415,0,0
343,-391,0,0,0,0,0,0,0,0,0,-1,1567,1415,0,0
350,-391,0,0,0,0,0,0,0,0,0,-1,1574,1415,0,0
357,-391,0,0,0,0,0,0,0,0,0,-1,1581,1415,0,0
364,-391,0,0,0,0,0,0,0,0,0,-1,1588,1415,0,0
371,-391,0,0,0,0,0,0,0,0,0,-1,1595,1415,0,0
378,-391,0,0,0,0,0,0,0,0,0,-1,1602,1415,0,0
385,-391,0,0,0,0,0,0,0,0,0,-1,1609,1415,0,0
392,-391,0,0,0,0,0,0,0,0,0,-1,1616,1415,0,0
399,-391,0,0,0,0,0,0,0,0,0,-1,1623,1415,0,0
406,-391,0,0,0,0,0,0,0,0,0,-1,1630,1415,0,0
413,-391,0,0,0,0,0,0,0,0,0,-1,1637,1415,0,0
420,-391,0,0,0,0,0,0,0,0,0,-1,1644,1415,0,0
427,-391,0,0,0,0,0,0,0,0,0,-1,1651,1415,0,0
434,-391,0,0,0,0,0,0,0,0,0,-1,1658,1415,0,0
441,-391,0,0,0,0,0,0,0,0,0,-1,1665,1415,0,0
448,-391,0,0,0,0,0,0,0,0,0,-1,1672,1415,0,0
455,-391,0,0,0,0,0,0,0,0,0,-1,1679,1415,0,0
462,-391,0,0,0,0,0,0,0,0,0,-1,1686,1415,0,0
469,-391,0,0,0,0,0,0,0,0,0,-1,1693,1415,0,0
476,-391,0,0,0,0,0,0,0,0,0,-1,1700,1415,0,0
483,-391,0,0,0,0,0,0,0,0,0,-1,1707,1415,0,0
490,-391,0,0,0,0,0,0,0,0,0,-1,1714,1415,0,0
497,-391,0,0,0,0,0,0,0,0,0,-1,1721,1415,0,0
504,-391,0,0,0,0,0,0,0,0,0,-1,1728,1415,0,0
511,-391,0,0,0,0,0,0,0,0,0,-1,1735,1415,0,0
518,-391,0,0,0,0,0,0,0,0,0,-1,1742,1415,0,0
525,-391,0,0,0,0,0,0,0,0,0,-1,1749,1415,0,0
532,-391,16.2429,2.18445,0,0,0,0,0,0,0,-1,1756,1415,16.2429,-2.18441
539,-391,15.8363,2.29675,0,0,0,0,0,0,0,-1,1763,1415,15.8363,-2.29669
546,-391,13.6931,-1.01575,0,0,0,0,0,0,0,-1,1770,1415,13.6932,1.01576
553,-391,13.4167,-0.200684,0,0,0,0,0,0,0,-1,1777,1415,13.4167,0.200668
560,-391,13.3849,0.572021,0.0128147,-0.0502705,0.0789327,0.0662739,-0.10373,0.595312,0.0989425,0.04362,1784,1415,13.3849,-0.572049
567,-391,14.9789,1.69141,0.00521343,-0.0471773,0.0782877,0.0615721,-0.103536,0.623951,0.096346,0.0448245,1791,1415,14.9789,-1.6914
574,-391,14.6482,2.0448,-0.00219632,-0.0436192,0.0746991,0.0546094,-0.100425,0.650163,0.0908026,0.0424349,1798,1415,14.6482,-2.04478
581,-391,14.3091,2.65527,-0.00802626,-0.039798,0.069015,0.0469076,-0.0947319,0.672279,0.0833149,0.0407441,1805,1415,14.3091,-2.65527
588,-391,14.1252,3.4696,0,0,0,0,0,0,0,-1,1812,1415,14.1253,-3.46959
595,-391,14.0404,4.44324,0,0,0,0,0,0,0,-1,1819,1415,14.0404,-4.44323
602,-391,12.1692,5.06018,0,0,0,0,0,0,0,-1,1826,1415,12.1692,-5.06019
609,-391,11.608,5.35022,-0.0186522,-0.0217014,0.0394076,0.0192603,-0.0596139,0.766064,0.0474831,0.0461694,1833,1415,11.608,-5.35016
616,-391,10.9067,5.64197,-0.0197078,-0.0182095,0.0328968,0.0139467,-0.0518639,0.796783,0.0400428,0.0337913,1840,1415,10.9067,-5.64193
623,-391,10.7235,5.61743,-0.0190113,-0.013725,0.0251684,0.00893869,-0.041675,0.837716,0.0311928,0.0187191,1847,1415,10.7236,-5.61742
630,-391,10.7037,5.48474,-0.0164308,-0.0104798,0.0175647,0.00435972,-0.0312702,0.869302,0.0224417,0.0167229,1854,1415,10.7037,-5.48476
637,-391,10.6779,5.36121,-0.0120821,-0.00711881,0.0114984,0.00216266,-0.0213636,0.891681,0.0150153,0.014866,1861,1415,10.6778,-5.36115
644,-391,10.6692,5.19177,-0.00798274,-0.0046414,0.0073969,0.00127115,-0.0138953,0.896465,0.00971501,0.0153315,1868,1415,10.6692,-5.19183
651,-391,10.6746,5.01782,-0.00469116,-0.00301685,0.00442437,0.000648868,-0.00835688,0.8789,0.00579965,0.0165514,1875,1415,10.6746,-5.01776
658,-391,10.6888,4.85364,-0.00215539,-0.00249515,0.00280087,0.000480747,-0.00513129,0.755109,0.00359185,0.0152981,1882,1415,10.6888,-4.8536
665,-391,10.715,4.71094,-6.70417e-05,-0.00206123,0.00146852,0.000710903,-0.00283917,0.48716,0.00216894,0.0120856,1889,1415,10.715,-4.7109
672,-391,10.7072,4.54919,0.00128806,-0.00228625,0.000782958,0.00145204,-0.00245024,0.206458,0.00227742,0.0119015,1896,1415,10.7072,-4.54921
679,-391,10.6849,4.39758,0.00203732,-0.00312187,0.000526329,0.00209047,-0.00317501,0.100636,0.00306145,0.0120193,1903,1415,10.6849,-4.39756
686,-391,10.6821,4.21924,0.00276414,-0.00459199,0.000424673,0.00278858,-0.00461643,0.0574759,0.00431848,0.0127733,1910,1415,10.6821,-4.21923
693,-391,10.6794,4.15222,0.00356963,-0.00667548,0.000409355,0.00358596,-0.00669181,0.0398714,0.00602351,0.0252767,1917,1415,10.6794,-4.15225
700,-391,10.7169,4.11255,0,0,0,0,0,0,0,-1,1924,1415,10.7169,-4.11259
707,-391,10.701,4.58118,0,0,0,0,0,0,0,-1,1931,1415,10.701,-4.58114
714,-391,11.5524,5.5033,0,0,0,0,0,0,0,-1,1938,1415,11.5523,-5.50331
721,-391,12.3358,6.09009,0,0,0,0,0,0,0,-1,1945,1415,12.3358,-6.09009
728,-391,13.4933,6.71106,0,0,0,0,0,0,0,-1,1952,1415,13.4933,-6.71106
735,-391,0,0,0,0,0,0,0,0,0,-1,1959,1415,0,0
742,-391,0,0,0,0,0,0,0,0,0,-1,1966,1415,0,0
749,-391,0,0,0,0,0,0,0,0,0,-1,1973,1415,0,0
756,-391,0,0,0,0,0,0,0,0,0,-1,1980,1415,0,0
763,-391,0,0,0,0,0,0,0,0,0,-1,1987,1415,0,0
770,-391,0,0,0,0,0,0,0,0,0,-1,1994,1415,0,0
777,-391,0,0,0,0,0,0,0,0,0,-1,2001,1415,0,0
784,-391,0,0,0,0,0,0,0,0,0,-1,2008,1415,0,0
791,-391,0,0,0,0,0,0,0,0,0,-1,2015,1415,0,0
798,-391,0,0,0,0,0,0,0,0,0,-1,2022,1415,0,0
805,-391,0,0,0,0,0,0,0,0,0,-1,2029,1415,0,0
812,-391,0,0,0,0,0,0,0,0,0,-1,2036,1415,0,0
-700,-398,0,0,0,0,0,0,0,0,0,-1,524,1422,0,0
-693,-398,0,0,0,0,0,0,0,0,0,-1,531,1422,0,0
-686,-398,0,0,0,0,0,0,0,0,0,-1,538,1422,0,0
-679,-398,0,0,0,0,0,0,0,0,0,-1,545,1422,0,0
-672,-398,0,0,0,0,0,0,0,0,0,-1,552,1422,0,0
-665,-398,0,0,0,0,0,0,0,0,0,-1,559,1422,0,0
-658,-398,0,0,0,0,0,0,0,0,0,-1,566,1422,0,0
-651,-398,0,0,0,0,0,0,0,0,0,-1,573,1422,0,0
-644,-398,0,0,0,0,0,0,0,0,0,-1,580,1422,0,0
-637,-398,0,0,0,0,0,0,0,0,0,-1,587,1422,0,0
-630,-398,0,0,0,0,0,0,0,0,0,-1,594,1422,0,0
-623,-398,0,0,0,0,0,0,0,0,0,-1,601,1422,0,0
-616,-398,0,0,0,0,0,0,0,0,0,-1,608,1422,0,0
-609,-398,-2.75787,-4.89539,0.0595359,0.0253568,0.132775,0.176317,-0.0914239,0.721395,0.157149,0.0473968,615,1422,-2.75788,4.89535
-602,-398,-2.55444,-3.28931,0.0434907,0.0325422,0.115027,0.153174,-0.0771409,0.761621,0.135366,0.0439196,622,1422,-2.55445,3.28932
-595,-398,-2.40009,-1.55042,0.0310888,0.0338405,0.0979452,0.130419,-0.0654902,0.792421,0.115161,0.042514,629,1422,-2.4001,1.55045
-588,-398,-2.29346,-0.387939,0.0208384,0.0326204,0.0810754,0.108019,-0.0545598,0.821665,0.0955411,0.0408424,636,1422,-2.29349,0.387934
-581,-398,-2.2005,0.75415,0,0,0,0,0,0,0,-1,643,1422,-2.20053,-0.754147
-574,-398,-2.27869,1.89063,0,0,0,0,0,0,0,-1,650,1422,-2.2787,-1.8906
-567,-398,-2.90527,2.06677,0,0,0,0,0,0,0,-1,657,1422,-2.9053,-2.06675
-560,-398,-3.12714,2.245,-0.00305494,0.0179896,0.0262742,0.0357702,-0.0208356,0.975858,0.0330584,0.0419385,664,1422,-3.12713,-2.24498
-553,-398,-3.34009,2.38098,-0.00600044,0.0145976,0.0169943,0.0241701,-0.0155729,1.05782,0.0231239,0.0274385,671,1422,-3.34012,-2.38096
-546,-398,-3.39618,2.56628,-0.00657168,0.0112644,0.0100899,0.0158126,-0.0111198,1.14731,0.0156279,0.013406,678,1422,-3.39618,-2.56631
-539,-398,-3.37268,2.78235,-0.00569685,0.00687788,0.00526675,0.00879232,-0.00761128,1.22215,0.0094788,0.0128811,685,1422,-3.37271,-2.78237
-532,-398,-3.35986,2.95398,-0.00419177,0.00349174,0.00272464,0.00435984,-0.00505987,1.26235,0.00544348,0.0207246,692,1422,-3.35987,-2.95402
-525,-398,-3.35876,3.12488,-0.00282249,0.00127183,0.00123917,0.00161766,-0.00316833,1.29864,0.00281112,0.0191812,699,1422,-3.35879,-3.12488
-518,-398,-3.35919,3.31433,-0.00187454,-0.000834149,-0.000157003,-0.000810972,-0.00189772,-1.42424,0.0010995,0.0154905,706,1422,-3.35921,-3.31436
-511,-398,-3.38129,3.47131,-0.00164683,-0.00275883,-0.00163997,-0.000471171,-0.00393449,-0.621963,0.0024809,0.011999,713,1422,-3.38131,-3.4713
-504,-398,-3.38403,3.6781,-0.00231894,-0.00456856,-0.00323415,-1.95785e-05,-0.00686792,-0.618045,0.0045721,0.0123259,720,1422,-3.38405,-3.6781
-497,-398,-3.37842,3.87476,-0.00445735,-0.0058033,-0.00487297,-0.000211106,-0.0100495,-0.71678,0.00663045,0.00930441,727,1422,-3.3784,-3.87478
-490,-398,-3.36475,4.05322,-0.00781005,-0.00644592,-0.00639988,-0.000691866,-0.0135641,-0.838485,0.00882116,0.00951972,734,1422,-3.36475,-4.05317
-483,-398,-3.28906,4.25842,-0.012035,-0.00724452,-0.00821636,-0.00108137,-0.0181981,-0.927227,0.0117882,0.018485,741,1422,-3.28909,-4.25847
-476,-398,-3.22241,4.24304,-0.0180693,-0.00704725,-0.00997431,-0.00116275,-0.0239538,-1.03779,0.0155961,0.0401015,748,1422,-3.2224,-4.24307
-469,-398,-3.21899,4.26147,0,0,0,0,0,0,0,-1,755,1422,-3.21897,-4.26144
-462,-398,-2.27972,4.26392,0,0,0,0,0,0,0,-1,762,1422,-2.27973,-4.26395
-455,-398,-3.97577,4.42542,0,0,0,0,0,0,0,-1,769,1422,-3.97574,-4.4254
-448,-398,-3.96271,3.68347,0,0,0,0,0,0,0,-1,776,1422,-3.96271,-3.68351
-441,-398,-2.95306,2.51233,0,0,0,0,0,0,0,-1,783,1422,-2.95305,-2.51227
-434,-398,-3.71259,0.368286,0,0,0,0,0,0,0,-1,790,1422,-3.7126,-0.368295
-427,-398,-3.55646,1.08508,0,0,0,0,0,0,0,-1,797,1422,-3.55649,-1.0851
-420,-398,-2.02679,3.55188,0,0,0,0,0,0,0,-1,804,1422,-2.02678,-3.5519
-413,-398,-1.77942,2.48938,0,0,0,0,0,0,0,-1,811,1422,-1.77943,-2.48934
-406,-398,0,0,0,0,0,0,0,0,0,-1,818,1422,0,0
-399,-398,0,0,0,0,0,0,0,0,0,-1,825,1422,0,0
-392,-398,0,0,0,0,0,0,0,0,0,-1,832,1422,0,0
-385,-398,0,0,0,0,0,0,0,0,0,-1,839,1422,0,0
-378,-398,0,0,0,0,0,0,0,0,0,-1,846,1422,0,0
-371,-398,0,0,0,0,0,0,0,0,0,-1,853,1422,0,0
-364,-398,0,0,0,0,0,0,0,0,0,-1,860,1422,0,0
-357,-398,0,0,0,0,0,0,0,0,0,-1,867,1422,0,0
-350,-398,0,0,0,0,0,0,0,0,0,-1,874,1422,0,0
-343,-398,0,0,0,0,0,0,0,0,0,-1,881,1422,0,0
-336,-398,0,0,0,0,0,0,0,0,0,-1,888,1422,0,0
-329,-398,0,0,0,0,0,0,0,0,0,-1,895,1422,0,0
-322,-398,0,0,0,0,0,0,0,0,0,-1,902,1422,0,0
-315,-398,0,0,0,0,0,0,0,0,0,-1,909,1422,0,0
-308,-398,0,0,0,0,0,0,0,0,0,-1,916,1422,0,0
-301,-398,0,0,0,0,0,0,0,0,0,-1,923,1422,0,0
-294,-398,0,0,0,0,0,0,0,0,0,-1,930,1422,0,0
-287,-398,0,0,0,0,0,0,0,0,0,-1,937,1422,0,0
-280,-398,0,0,0,0,0,0,0,0,0,-1,944,1422,0,0
-273,-398,0,0,0,0,0,0,0,0,0,-1,951,1422,0,0
-266,-398,0,0,0,0,0,0,0,0,0,-1,958,1422,0,0
-259,-398,0,0,0,0,0,0,0,0,0,-1,965,1422,0,0
-252,-398,0,0,0,0,0,0,0,0,0,-1,972,1422,0,0
-245,-398,0,0,0,0,0,0,0,0,0,-1,979,1422,0,0
-238,-398,0,0,0,0,0,0,0,0,0,-1,986,1422,0,0
-231,-398,0,0,0,0,0,0,0,0,0,-1,993,1422,0,0
-224,-398,0,0,0,0,0,0,0,0,0,-1,1000,1422,0,0
-217,-398,0,0,0,0,0,0,0,0,0,-1,1007,1422,0,0
-210,-398,0,0,0,0,0,0,0,0,0,-1,1014,1422,0,0
-203,-398,0,0,0,0,0,0,0,0,0,-1,1021,1422,0,0
-196,-398,0,0,0,0,0,0,0,0,0,-1,1028,1422,0,0
-189,-398,0,0,0,0,0,0,0,0,0,-1,1035,1422,0,0
-182,-398,0,0,0,0,0,0,0,0,0,-1,1042,1422,0,0
-175,-398,0,0,0,0,0,0,0,0,0,-1,1049,1422,0,0
-168,-398,0,0,0,0,0,0,0,0,0,-1,1056,1422,0,0
-161,-398,0,0,0,0,0,0,0,0,0,-1,1063,1422,0,0
-154,-398,0,0,0,0,0,0,0,0,0,-1,1070,1422,0,0
-147,-398,0,0,0,0,0,0,0,0,0,-1,1077,1422,0,0
-140,-398,0,0,0,0,0,0,0,0,0,-1,1084,1422,0,0
-133,-398,0,0,0,0,0,0,0,0,0,-1,1091,1422,0,0
-126,-398,0,0,0,0,0,0,0,0,0,-1,1098,1422,0,0
-119,-398,0,0,0,0,0,0,0,0,0,-1,1105,1422,0,0
-112,-398,0,0,0,0,0,0,0,0,0,-1,1112,1422,0,0
-105,-398,0,0,0,0,0,0,0,0,0,-1,1119,1422,0,0
-98,-398,0,0,0,0,0,0,0,0,0,-1,1126,1422,0,0
-91,-398,0,0,0,0,0,0,0,0,0,-1,1133,1422,0,0
-84,-398,0,0,0,0,0,0,0,0,0,-1,1140,1422,0,0
-77,-398,0,0,0,0,0,0,0,0,0,-1,1147,1422,0,0
-70,-398,0,0,0,0,0,0,0,0,0,-1,1154,1422,0,0
-63,-398,0,0,0,0,0,0,0,0,0,-1,1161,1422,0,0
-56,-398,0,0,0,0,0,0,0,0,0,-1,1168,1422,0,0
-49,-398,0,0,0,0,0,0,0,0,0,-1,1175,1422,0,0
-42,-398,0,0,0,0,0,0,0,0,0,-1,1182,1422,0,0
-35,-398,0,0,0,0,0,0,0,0,0,-1,1189,1422,0,0
-28,-398,0,0,0,0,0,0,0,0,0,-1,1196,1422,0,0
-21,-398,0,0,0,0,0,0,0,0,0,-1,1203,1422,0,0
-14,-398,0,0,0,0,0,0,0,0,0,-1,1210,1422,0,0
-7,-398,0,0,0,0,0,0,0,0,0,-1,1217,1422,0,0
0,-398,0,0,0,0,0,0,0,0,0,-1,1224,1422,0,0
7,-398,0,0,0,0,0,0,0,0,0,-1,1231,1422,0,0
14,-398,0,0,0,0,0,0,0,0,0,-1,1238,1422,0,0
21,-398,0,0,0,0,0,0,0,0,0,-1,1245,1422,0,0
28,-398,0,0,0,0,0,0,0,0,0,-1,1252,1422,0,0
35,-398,0,0,0,0,0,0,0,0,0,-1,1259,1422,0,0
42,-398,0,0,0,0,0,0,0,0,0,-1,1266,1422,0,0
49,-398,0,0,0,0,0,0,0,0,0,-1,1273,1422,0,0
56,-398,0,0,0,0,0,0,0,0,0,-1,1280,1422,0,0
63,-398,0,0,0,0,0,0,0,0,0,-1,1287,1422,0,0
70,-398,0,0,0,0,0,0,0,0,0,-1,1294,1422,0,0
77,-398,0,0,0,0,0,0,0,0,0,-1,1301,1422,0,0
84,-398,0,0,0,0,0,0,0,0,0,-1,1308,1422,0,0
91,-398,0,0,0,0,0,0,0,0,0,-1,1315,1422,0,0
98,-398,0,0,0,0,0,0,0,0,0,-1,1322,1422,0,0
105,-398,0,0,0,0,0,0,0,0,0,-1,1329,1422,0,0
112,-398,0,0,0,0,0,0,0,0,0,-1,1336,1422,0,0
119,-398,0,0,0,0,0,0,0,0,0,-1,1343,1422,0,0
126,-398,0,0,0,0,0,0,0,0,0,-1,1350,1422,0,0
133,-398,0,0,0,0,0,0,0,0,0,-1,1357,1422,0,0
140,-398,0,0,0,0,0,0,0,0,0,-1,1364,1422,0,0
147,-398,0,0,0,0,0,0,0,0,0,-1,1371,1422,0,0
154,-398,0,0,0,0,0,0,0,0,0,-1,1378,1422,0,0
161,-398,0,0,0,0,0,0,0,0,0,-1,1385,1422,0,0
168,-398,0,0,0,0,0,0,0,0,0,-1,1392,1422,0,0
175,-398,0,0,0,0,0,0,0,0,0,-1,1399,1422,0,0
182,-398,0,0,0,0,0,0,0,0,0,-1,1406,1422,0,0
189,-398,0,0,0,0,0,0,0,0,0,-1,1413,1422,0,0
196,-398,0,0,0,0,0,0,0,0,0,-1,1420,1422,0,0
203,-398,0,0,0,0,0,0,0,0,0,-1,1427,1422,0,0
210,-398,0,0,0,0,0,0,0,0,0,-1,1434,1422,0,0
217,-398,0,0,0,0,0,0,0,0,0,-1,1441,1422,0,0
224,-398,0,0,0,0,0,0,0,0,0,-1,1448,1422,0,0
231,-398,0,0,0,0,0,0,0,0,0,-1,1455,1422,0,0
238,-398,0,0,0,0,0,0,0,0,0,-1,1462,1422,0,0
245,-398,0,0,0,0,0,0,0,0,0,-1,1469,1422,0,0
252,-398,0,0,0,0,0,0,0,0,0,-1,1476,1422,0,0
259,-398,0,0,0,0,0,0,0,0,0,-1,1483,1422,0,0
266,-398,0,0,0,0,0,0,0,0,0,-1,1490,1422,0,0
273,-398,0,0,0,0,0,0,0,0,0,-1,1497,1422,0,0
280,-398,0,0,0,0,0,0,0,0,0,-1,1504,1422,0,0
287,-398,0,0,0,0,0,0,0,0,0,-1,1511,1422,0,0
294,-398,0,0,0,0,0,0,0,0,0,-1,1518,1422,0,0
301,-398,0,0,0,0,0,0,0,0,0,-1,1525,1422,0,0
308,-398,0,0,0,0,0,0,0,0,0,-1,1532,1422,0,0
315,-398,0,0,0,0,0,0,0,0,0,-1,1539,1422,0,0
322,-398,0,0,0,0,0,0,0,0,0,-1,1546,1422,0,0
329,-398,0,0,0,0,0,0,0,0,0,-1,1553,1422,0,0
336,-398,0,0,0,0,0,0,0,0,0,-1,1560,1422,0,0
343,-398,0,0,0,0,0,0,0,0,0,-1,1567,1422,0,0
350,-398,0,0,0,0,0,0,0,0,0,-1,1574,1422,0,0
357,-398,0,0,0,0,0,0,0,0,0,-1,1581,1422,0,0
364,-398,0,0,0,0,0,0,0,0,0,-1,1588,1422,0,0
371,-398,0,0,0,0,0,0,0,0,0,-1,1595,1422,0,0
378,-398,0,0,0,0,0,0,0,0,0,-1,1602,1422,0,0
385,-398,0,0,0,0,0,0,0,0,0,-1,1609,1422,0,0
392,-398,0,0,0,0,0,0,0,0,0,-1,1616,1422,0,0
399,-398,0,0,0,0,0,0,0,0,0,-1,1623,1422,0,0
406,-398,0,0,0,0,0,0,0,0,0,-1,1630,1422,0,0
413,-398,0,0,0,0,0,0,0,0,0,-1,1637,1422,0,0
420,-398,0,0,0,0,0,0,0,0,0,-1,1644,1422,0,0
427,-398,0,0,0,0,0,0,0,0,0,-1,1651,1422,0,0
434,-398,0,0,0,0,0,0,0,0,0,-1,1658,1422,0,0
441,-398,0,0,0,0,0,0,0,0,0,-1,1665,1422,0,0
448,-398,0,0,0,0,0,0,0,0,0,-1,1672,1422,0,0
455,-398,0,0,0,0,0,0,0,0,0,-1,1679,1422,0,0
462,-398,0,0,0,0,0,0,0,0,0,-1,1686,1422,0,0
469,-398,0,0,0,0,0,0,0,0,0,-1,1693,1422,0,0
476,-398,0,0,0,0,0,0,0,0,0,-1,1700,1422,0,0
483,-398,0,0,0,0,0,0,0,0,0,-1,1707,1422,0,0
490,-398,0,0,0,0,0,0,0,0,0,-1,1714,1422,0,0
497,-398,0,0,0,0,0,0,0,0,0,-1,1721,1422,0,0
504,-398,0,0,0,0,0,0,0,0,0,-1,1728,1422,0,0
511,-398,0,0,0,0,0,0,0,0,0,-1,1735,1422,0,0
518,-398,0,0,0,0,0,0,0,0,0,-1,1742,1422,0,0
525,-398,0,0,0,0,0,0,0,0,0,-1,1749,1422,0,0
532,-398,15.9614,2.52649,0,0,0,0,0,0,0,-1,1756,1422,15.9615,-2.52645
539,-398,13.9255,-2.51367,0,0,0,0,0,0,0,-1,1763,1422,13.9255,2.51361
546,-398,13.7979,-1.62146,0,0,0,0,0,0,0,-1,1770,1422,13.7978,1.62143
553,-398,13.6283,-0.753906,0,0,0,0,0,0,0,-1,1777,1422,13.6283,0.753907
560,-398,13.3694,0.0742188,0.00311434,-0.0449894,0.071571,0.0545668,-0.0964419,0.623299,0.0882952,0.0445617,1784,1422,13.3694,-0.0742663
567,-398,13.3058,1.00684,-0.000761508,-0.0413477,0.0741716,0.055843,-0.0979522,0.651868,0.0898963,0.0417112,1791,1422,13.3058,-1.00683
574,-398,13.4446,2.00952,-0.0061695,-0.0378878,0.0725218,0.0522069,-0.0962642,0.677752,0.0869688,0.0433949,1798,1422,13.4446,-2.00947
581,-398,13.3427,3.08484,-0.0107134,-0.0342778,0.067857,0.0463767,-0.0913679,0.699439,0.0809286,0.0442614,1805,1422,13.3427,-3.08485
588,-398,13.0548,4.0033,-0.014329,-0.0304667,0.0613696,0.0394998,-0.0842956,0.720033,0.0730164,0.0487645,1812,1422,13.0548,-4.00335
595,-398,12.7833,4.95642,-0.0168524,-0.0265508,0.0538002,0.0323167,-0.0757199,0.740453,0.0640309,0.0497127,1819,1422,12.7834,-4.95641
602,-398,11.2478,5.44604,0,0,0,0,0,0,0,-1,1826,1422,11.2477,-5.44608
609,-398,10.8558,5.66858,-0.0188215,-0.0183238,0.0378084,0.0192365,-0.0563819,0.788689,0.0453801,0.039403,1833,1422,10.8559,-5.6686
616,-398,10.5709,5.79993,-0.0192071,-0.0155018,0.0308682,0.0135693,-0.0482782,0.815371,0.0375353,0.017322,1840,1422,10.5709,-5.79991
623,-398,10.5249,5.66467,-0.0177949,-0.0115101,0.0227817,0.00834491,-0.0376499,0.853933,0.0282948,0.0112869,1847,1422,10.5249,-5.66462
630,-398,10.5304,5.50427,-0.0147902,-0.00878978,0.0153417,0.00384227,-0.0274223,0.88196,0.0196876,0.0118111,1854,1422,10.5304,-5.50423
637,-398,10.5225,5.35071,-0.0105404,-0.00590826,0.00962328,0.00167374,-0.0181224,0.903489,0.0126764,0.0124416,1861,1422,10.5224,-5.35076
644,-398,10.4539,5.18335,-0.00662433,-0.00380228,0.00597654,0.000927546,-0.0113542,0.901322,0.0078968,0.0180136,1868,1422,10.4538,-5.18341
651,-398,10.4988,5.04285,-0.00355655,-0.00247517,0.00343806,0.000464458,-0.00649618,0.863393,0.00449361,0.0257795,1875,1422,10.4988,-5.04283
658,-398,10.5641,4.8833,-0.00125413,-0.00220569,0.00218764,0.000508872,-0.00396869,0.678323,0.00283071,0.0196452,1882,1422,10.5641,-4.88336
665,-398,10.5507,4.72266,0.000560204,-0.00199834,0.00122303,0.00105077,-0.00248891,0.381463,0.00209911,0.0135283,1889,1422,10.5506,-4.72266
672,-398,10.5479,4.56787,0.00160343,-0.00245905,0.000903708,0.00179539,-0.00265101,0.209304,0.00258293,0.0129281,1896,1422,10.5478,-4.56782
679,-398,10.543,4.40479,0.00220642,-0.00366566,0.000965153,0.00236099,-0.00382023,0.158799,0.00360172,0.012011,1903,1422,10.543,-4.40481
686,-398,10.5612,4.22913,0.00289107,-0.00553394,0.00122276,0.00306495,-0.00570782,0.141252,0.005141,0.0174986,1910,1422,10.5612,-4.22912
693,-398,10.5571,4.50549,0.00367364,-0.00814641,0.00161995,0.00389163,-0.0083644,0.133766,0.00723139,0.0419414,1917,1422,10.5572,-4.50547
700,-398,10.5889,4.8208,0,0,0,0,0,0,0,-1,1924,1422,10.5889,-4.82075
707,-398,10.9731,5.479,0,0,0,0,0,0,0,-1,1931,1422,10.9732,-5.47896
714,-398,11.7313,6.17346,0,0,0,0,0,0,0,-1,1938,1422,11.7313,-6.17348
721,-398,13.778,7.50818,0,0,0,0,0,0,0,-1,1945,1422,13.7779,-7.50821
728,-398,14.2487,6.92688,0,0,0,0,0,0,0,-1,1952,1422,14.2487,-6.92687
735,-398,0,0,0,0,0,0,0,0,0,-1,1959,1422,0,0
742,-398,0,0,0,0,0,0,0,0,0,-1,1966,1422,0,0
749,-398,0,0,0,0,0,0,0,0,0,-1,1973,1422,0,0
756,-398,0,0,0,0,0,0,0,0,0,-1,1980,1422,0,0
763,-398,0,0,0,0,0,0,0,0,0,-1,1987,1422,0,0
770,-398,0,0,0,0,0,0,0,0,0,-1,1994,1422,0,0
777,-398,0,0,0,0,0,0,0,0,0,-1,2001,1422,0,0
784,-398,0,0,0,0,0,0,0,0,0,-1,2008,1422,0,0
791,-398,0,0,0,0,0,0,0,0,0,-1,2015,1422,0,0
798,-398,0,0,0,0,0,0,0,0,0,-1,2022,1422,0,0
805,-398,0,0,0,0,0,0,0,0,0,-1,2029,1422,0,0
812,-398,0,0,0,0,0,0,0,0,0,-1,2036,1422,0,0
-700,-405,0,0,0,0,0,0,0,0,0,-1,524,1429,0,0
-693,-405,0,0,0,0,0,0,0,0,0,-1,531,1429,0,0
-686,-405,0,0,0,0,0,0,0,0,0,-1,538,1429,0,0
-679,-405,0,0,0,0,0,0,0,0,0,-1,545,1429,0,0
-672,-405,0,0,0,0,0,0,0,0,0,-1,552,1429,0,0
-665,-405,0,0,0,0,0,0,0,0,0,-1,559,1429,0,0
-658,-405,0,0,0,0,0,0,0,0,0,-1,566,1429,0,0
-651,-405,0,0,0,0,0,0,0,0,0,-1,573,1429,0,0
-644,-405,0,0,0,0,0,0,0,0,0,-1,580,1429,0,0
-637,-405,0,0,0,0,0,0,0,0,0,-1,587,1429,0,0
-630,-405,0,0,0,0,0,0,0,0,0,-1,594,1429,0,0
-623,-405,0,0,0,0,0,0,0,0,0,-1,601,1429,0,0
-616,-405,0,0,0,0,0,0,0,0,0,-1,608,1429,0,0
-609,-405,0,0,0,0,0,0,0,0,0,-1,615,1429,0,0
-602,-405,-2.53363,-3.51111,0.0431345,0.0447078,0.127623,0.171546,-0.0837041,0.78848,0.15025,0.0400844,622,1429,-2.53363,3.51108
-595,-405,-2.88086,-2.04626,0.0322662,0.0432962,0.110941,0.148859,-0.0732965,0.810233,0.130711,0.0460321,629,1429,-2.88088,2.04623
-588,-405,-2.8905,-1.18811,0.0226241,0.0406194,0.0933057,0.12536,-0.0621168,0.833465,0.110274,0.0467493,636,1429,-2.89049,1.18808
-581,-405,-2.2099,0.129272,0,0,0,0,0,0,0,-1,643,1429,-2.2099,-0.129299
-574,-405,-2.63837,1.14807,0,0,0,0,0,0,0,-1,650,1429,-2.63836,-1.14808
-567,-405,-2.65271,2.09656,0,0,0,0,0,0,0,-1,657,1429,-2.65272,-2.0966
-560,-405,-2.86139,2.25586,-0.00181645,0.0223359,0.0338315,0.0461819,-0.0256624,0.956825,0.0420395,0.0482937,664,1429,-2.8614,-2.25584
-553,-405,-3.00983,2.34534,-0.00514069,0.0181697,0.0232596,0.0325309,-0.0195019,1.01766,0.0303534,0.0396705,671,1429,-3.00985,-2.34539
-546,-405,-3.18793,2.54065,-0.00602108,0.0141102,0.015033,0.0221362,-0.0140471,1.0804,0.0210637,0.019681,678,1429,-3.18795,-2.54069
-539,-405,-3.21271,2.74097,-0.00533751,0.00900098,0.00905156,0.0133785,-0.00971507,1.12033,0.0133889,0.0112955,685,1429,-3.2127,-2.74098
-532,-405,-3.20935,2.92554,-0.00390511,0.00509357,0.0056688,0.00783159,-0.00664313,1.12084,0.00836636,0.014637,692,1429,-3.20935,-2.92558
-525,-405,-3.20392,3.14099,-0.00260766,0.00269599,0.00366004,0.00456391,-0.00447558,1.0989,0.00521903,0.0145284,699,1429,-3.20393,-3.14097
-518,-405,-3.18756,3.32422,-0.00175964,0.000553656,0.00185858,0.00158611,-0.00279209,1.06374,0.00255952,0.0152766,706,1429,-3.18754,-3.3242
-511,-405,-3.19867,3.48535,-0.00147216,-0.00143889,8.80726e-05,-0.0013659,-0.00154516,0.878722,0.000975855,0.0150564,713,1429,-3.19868,-3.4853
-504,-405,-3.21124,3.67334,-0.00192582,-0.00345143,-0.00175874,-0.000771585,-0.00460566,-0.580782,0.0028483,0.0160001,720,1429,-3.21126,-3.6734
-497,-405,-3.18927,3.87073,-0.00340413,-0.00509574,-0.00365254,-0.000500744,-0.00799913,-0.67162,0.00517392,0.0133509,727,1429,-3.18925,-3.87069
-490,-405,-3.18524,4.05078,-0.0057314,-0.00632089,-0.00549634,-0.000521908,-0.0115304,-0.758611,0.00751899,0.0111529,734,1429,-3.18527,-4.05076
-483,-405,-3.17798,4.23364,-0.00864002,-0.00811761,-0.00765264,-0.000721724,-0.0160359,-0.802458,0.0104583,0.0101196,741,1429,-3.17797,-4.23367
-476,-405,-3.11462,4.41296,-0.0128818,-0.0095568,-0.0099417,-0.00113955,-0.021299,-0.868244,0.0138352,0.0251606,748,1429,-3.11461,-4.41293
-469,-405,-3.05792,4.52271,-0.018599,-0.0106231,-0.0125553,-0.00143759,-0.0277845,-0.939174,0.0180629,0.0396214,755,1429,-3.05789,-4.52275
-462,-405,-2.92969,4.72925,0,0,0,0,0,0,0,-1,762,1429,-2.92968,-4.72924
-455,-405,-3.70941,4.66309,0,0,0,0,0,0,0,-1,769,1429,-3.70939,-4.66304
-448,-405,-3.88,4.43188,0,0,0,0,0,0,0,-1,776,1429,-3.87999,-4.43194
-441,-405,-2.1825,2.10681,0,0,0,0,0,0,0,-1,783,1429,-2.18248,-2.10677
-434,-405,-1.48053,1.55676,0,0,0,0,0,0,0,-1,790,1429,-1.48053,-1.55682
-427,-405,-2.31445,4.56921,0,0,0,0,0,0,0,-1,797,1429,-2.31443,-4.56921
-420,-405,-2.51123,1.51331,0,0,0,0,0,0,0,-1,804,1429,-2.51123,-1.51333
-413,-405,-2.64545,2.01294,0,0,0,0,0,0,0,-1,811,1429,-2.64547,-2.01294
-406,-405,-4.59845,2.82263,0,0,0,0,0,0,0,-1,818,1429,-4.59847,-2.82264
-399,-405,0,0,0,0,0,0,0,0,0,-1,825,1429,0,0
-392,-405,0,0,0,0,0,0,0,0,0,-1,832,1429,0,0
-385,-405,0,0,0,0,0,0,0,0,0,-1,839,1429,0,0
-378,-405,0,0,0,0,0,0,0,0,0,-1,846,1429,0,0
-371,-405,0,0,0,0,0,0,0,0,0,-1,853,1429,0,0
-364,-405,0,0,0,0,0,0,0,0,0,-1,860,1429,0,0
-357,-405,0,0,0,0,0,0,0,0,0,-1,867,1429,0,0
-350,-405,0,0,0,0,0,0,0,0,0,-1,874,1429,0,0
-343,-405,0,0,0,0,0,0,0,0,0,-1,881,1429,0,0
-336,-405,0,0,0,0,0,0,0,0,0,-1,888,1429,0,0
-329,-405,0,0,0,0,0,0,0,0,0,-1,895,1429,0,0
-322,-405,0,0,0,0,0,0,0,0,0,-1,902,1429,0,0
-315,-405,0,0,0,0,0,0,0,0,0,-1,909,1429,0,0
-308,-405,0,0,0,0,0,0,0,0,0,-1,916,1429,0,0
-301,-405,0,0,0,0,0,0,0,0,0,-1,923,1429,0,0
-294,-405,0,0,0,0,0,0,0,0,0,-1,930,1429,0,0
-287,-405,0,0,0,0,0,0,0,0,0,-1,937,1429,0,0
-280,-405,0,0,0,0,0,0,0,0,0,-1,944,1429,0,0
-273,-405,0,0,0,0,0,0,0,0,0,-1,951,1429,0,0
-266,-405,0,0,0,0,0,0,0,0,0,-1,958,1429,0,0
-259,-405,0,0,0,0,0,0,0,0,0,-1,965,1429,0,0
-252,-405,0,0,0,0,0,0,0,0,0,-1,972,1429,0,0
-245,-405,0,0,0,0,0,0,0,0,0,-1,979,1429,0,0
-238,-405,0,0,0,0,0,0,0,0,0,-1,986,1429,0,0
-231,-405,0,0,0,0,0,0,0,0,0,-1,993,1429,0,0
-224,-405,0,0,0,0,0,0,0,0,0,-1,1000,1429,0,0
-217,-405,0,0,0,0,0,0,0,0,0,-1,1007,1429,0,0
-210,-405,0,0,0,0,0,0,0,0,0,-1,1014,1429,0,0
-203,-405,0,0,0,0,0,0,0,0,0,-1,1021,1429,0,0
-196,-405,0,0,0,0,0,0,0,0,0,-1,1028,1429,0,0
-189,-405,0,0,0,0,0,0,0,0,0,-1,1035,1429,0,0
-182,-405,0,0,0,0,0,0,0,0,0,-1,1042,1429,0,0
-175,-405,0,0,0,0,0,0,0,0,0,-1,1049,1429,0,0
-168,-405,0,0,0,0,0,0,0,0,0,-1,1056,1429,0,0
-161,-405,0,0,0,0,0,0,0,0,0,-1,1063,1429,0,0
-154,-405,0,0,0,0,0,0,0,0,0,-1,1070,1429,0,0
-147,-405,0,0,0,0,0,0,0,0,0,-1,1077,1429,0,0
-140,-405,0,0,0,0,0,0,0,0,0,-1,1084,1429,0,0
-133,-405,0,0,0,0,0,0,0,0,0,-1,1091,1429,0,0
-126,-405,0,0,0,0,0,0,0,0,0,-1,1098,1429,0,0
-119,-405,0,0,0,0,0,0,0,0,0,-1,1105,1429,0,0
-112,-405,0,0,0,0,0,0,0,0,0,-1,1112,1429,0,0
-105,-405,0,0,0,0,0,0,0,0,0,-1,1119,1429,0,0
-98,-405,0,0,0,0,0,0,0,0,0,-1,1126,1429,0,0
-91,-405,0,0,0,0,0,0,0,0,0,-1,1133,1429,0,0
-84,-405,0,0,0,0,0,0,0,0,0,-1,1140,1429,0,0
-77,-405,0,0,0,0,0,0,0,0,0,-1,1147,1429,0,0
-70,-405,0,0,0,0,0,0,0,0,0,-1,1154,1429,0,0
-63,-405,0,0,0,0,0,0,0,0,0,-1,1161,1429,0,0
-56,-405,0,0,0,0,0,0,0,0,0,-1,1168,1429,0,0
-49,-405,0,0,0,0,0,0,0,0,0,-1,1175,1429,0,0
-42,-405,0,0,0,0,0,0,0,0,0,-1,1182,1429,0,0
-35,-405,0,0,0,0,0,0,0,0,0,-1,1189,1429,0,0
-28,-405,0,0,0,0,0,0,0,0,0,-1,1196,1429,0,0
-21,-405,0,0,0,0,0,0,0,0,0,-1,1203,1429,0,0
-14,-405,0,0,0,0,0,0,0,0,0,-1,1210,1429,0,0
-7,-405,0,0,0,0,0,0,0,0,0,-1,1217,1429,0,0
0,-405,0,0,0,0,0,0,0,0,0,-1,1224,1429,0,0
7,-405,0,0,0,0,0,0,0,0,0,-1,1231,1429,0,0
14,-405,0,0,0,0,0,0,0,0,0,-1,1238,1429,0,0
21,-405,0,0,0,0,0,0,0,0,0,-1,1245,1429,0,0
28,-405,0,0,0,0,0,0,0,0,0,-1,1252,1429,0,0
35,-405,0,0,0,0,0,0,0,0,0,-1,1259,1429,0,0
42,-405,0,0,0,0,0,0,0,0,0,-1,1266,1429,0,0
49,-405,0,0,0,0,0,0,0,0,0,-1,1273,1429,0,0
56,-405,0,0,0,0,0,0,0,0,0,-1,1280,1429,0,0
63,-405,0,0,0,0,0,0,0,0,0,-1,1287,1429,0,0
70,-405,0,0,0,0,0,0,0,0,0,-1,1294,1429,0,0
77,-405,0,0,0,0,0,0,0,0,0,-1,1301,1429,0,0
84,-405,0,0,0,0,0,0,0,0,0,-1,1308,1429,0,0
91,-405,0,0,0,0,0,0,0,0,0,-1,1315,1429,0,0
98,-405,0,0,0,0,0,0,0,0,0,-1,1322,1429,0,0
105,-405,0,0,0,0,0,0,0,0,0,-1,1329,1429,0,0
112,-405,0,0,0,0,0,0,0,0,0,-1,1336,1429,0,0
119,-405,0,0,0,0,0,0,0,0,0,-1,1343,1429,0,0
126,-405,0,0,0,0,0,0,0,0,0,-1,1350,1429,0,0
133,-405,0,0,0,0,0,0,0,0,0,-1,1357,1429,0,0
140,-405,0,0,0,0,0,0,0,0,0,-1,1364,1429,0,0
147,-405,0,0,0,0,0,0,0,0,0,-1,1371,1429,0,0
154,-405,0,0,0,0,0,0,0,0,0,-1,1378,1429,0,0
161,-405,0,0,0,0,0,0,0,0,0,-1,1385,1429,0,0
168,-405,0,0,0,0,0,0,0,0,0,-1,1392,1429,0,0
175,-405,0,0,0,0,0,0,0,0,0,-1,1399,1429,0,0
182,-405,0,0,0,0,0,0,0,0,0,-1,1406,1429,0,0
189,-405,0,0,0,0,0,0,0,0,0,-1,1413,1429,0,0
196,-405,0,0,0,0,0,0,0,0,0,-1,1420,1429,0,0
203,-405,0,0,0,0,0,0,0,0,0,-1,1427,1429,0,0
210,-405,0,0,0,0,0,0,0,0,0,-1,1434,1429,0,0
217,-405,0,0,0,0,0,0,0,0,0,-1,1441,1429,0,0
224,-405,0,0,0,0,0,0,0,0,0,-1,1448,1429,0,0
231,-405,0,0,0,0,0,0,0,0,0,-1,1455,1429,0,0
238,-405,0,0,0,0,0,0,0,0,0,-1,1462,1429,0,0
245,-405,0,0,0,0,0,0,0,0,0,-1,1469,1429,0,0
252,-405,0,0,0,0,0,0,0,0,0,-1,1476,1429,0,0
259,-405,0,0,0,0,0,0,0,0,0,-1,1483,1429,0,0
266,-405,0,0,0,0,0,0,0,0,0,-1,1490,1429,0,0
273,-405,0,0,0,0,0,0,0,0,0,-1,1497,1429,0,0
280,-405,0,0,0,0,0,0,0,0,0,-1,1504,1429,0,0
287,-405,0,0,0,0,0,0,0,0,0,-1,1511,1429,0,0
294,-405,0,0,0,0,0,0,0,0,0,-1,1518,1429,0,0
301,-405,0,0,0,0,0,0,0,0,0,-1,1525,1429,0,0
308,-405,0,0,0,0,0,0,0,0,0,-1,1532,1429,0,0
315,-405,0,0,0,0,0,0,0,0,0,-1,1539,1429,0,0
322,-405,0,0,0,0,0,0,0,0,0,-1,1546,1429,0,0
329,-405,0,0,0,0,0,0,0,0,0,-1,1553,1429,0,0
336,-405,0,0,0,0,0,0,0,0,0,-1,1560,1429,0,0
343,-405,0,0,0,0,0,0,0,0,0,-1,1567,1429,0,0
350,-405,0,0,0,0,0,0,0,0,0,-1,1574,1429,0,0
357,-405,0,0,0,0,0,0,0,0,0,-1,1581,1429,0,0
364,-405,0,0,0,0,0,0,0,0,0,-1,1588,1429,0,0
371,-405,0,0,0,0,0,0,0,0,0,-1,1595,1429,0,0
378,-405,0,0,0,0,0,0,0,0,0,-1,1602,1429,0,0
385,-405,0,0,0,0,0,0,0,0,0,-1,1609,1429,0,0
392,-405,0,0,0,0,0,0,0,0,0,-1,1616,1429,0,0
399,-405,0,0,0,0,0,0,0,0,0,-1,1623,1429,0,0
406,-405,0,0,0,0,0,0,0,0,0,-1,1630,1429,0,0
413,-405,0,0,0,0,0,0,0,0,0,-1,1637,1429,0,0
420,-405,0,0,0,0,0,0,0,0,0,-1,1644,1429,0,0
427,-405,0,0,0,0,0,0,0,0,0,-1,1651,1429,0,0
434,-405,0,0,0,0,0,0,0,0,0,-1,1658,1429,0,0
441,-405,0,0,0,0,0,0,0,0,0,-1,1665,1429,0,0
448,-405,0,0,0,0,0,0,0,0,0,-1,1672,1429,0,0
455,-405,0,0,0,0,0,0,0,0,0,-1,1679,1429,0,0
462,-405,0,0,0,0,0,0,0,0,0,-1,1686,1429,0,0
469,-405,0,0,0,0,0,0,0,0,0,-1,1693,1429,0,0
476,-405,0,0,0,0,0,0,0,0,0,-1,1700,1429,0,0
483,-405,0,0,0,0,0,0,0,0,0,-1,1707,1429,0,0
490,-405,0,0,0,0,0,0,0,0,0,-1,1714,1429,0,0
497,-405,0,0,0,0,0,0,0,0,0,-1,1721,1429,0,0
504,-405,0,0,0,0,0,0,0,0,0,-1,1728,1429,0,0
511,-405,0,0,0,0,0,0,0,0,0,-1,1735,1429,0,0
518,-405,0,0,0,0,0,0,0,0,0,-1,1742,1429,0,0
525,-405,15.9895,2.72974,0,0,0,0,0,0,0,-1,1749,1429,15.9895,-2.72976
532,-405,15.6501,2.88135,0,0,0,0,0,0,0,-1,1756,1429,15.6502,-2.88135
539,-405,15.1755,2.9397,0,0,0,0,0,0,0,-1,1763,1429,15.1755,-2.93968
546,-405,13.9025,-2.22705,0,0,0,0,0,0,0,-1,1770,1429,13.9025,2.2271
553,-405,13.84,-1.30713,0,0,0,0,0,0,0,-1,1777,1429,13.84,1.30715
560,-405,13.2784,-0.13501,-0.00546447,-0.0396521,0.0643382,0.044012,-0.0891286,0.655554,0.078326,0.0436679,1784,1429,13.2785,0.134987
567,-405,12.8457,0.879272,-0.00627143,-0.0356832,0.0683773,0.0489635,-0.0909181,0.679477,0.0819626,0.0446315,1791,1429,12.8457,-0.879245
574,-405,13.243,2.31641,0,0,0,0,0,0,0,-1,1798,1429,13.2431,-2.31644
581,-405,12.6731,3.35681,-0.0134998,-0.029328,0.0641774,0.0432496,-0.0860775,0.72405,0.0760195,0.0431965,1805,1429,12.673,-3.35679
588,-405,12.2075,4.44006,-0.0161734,-0.0259971,0.0580542,0.0371763,-0.0793469,0.743195,0.0687276,0.0446852,1812,1429,12.2076,-4.44005
595,-405,11.749,5.31689,-0.0178728,-0.0225976,0.0505791,0.030399,-0.0708694,0.762062,0.0600035,0.0459782,1819,1429,11.7491,-5.31687
602,-405,10.9449,5.9845,-0.0187515,-0.0188216,0.0425692,0.0237827,-0.0613558,0.784987,0.0507252,0.0388998,1826,1429,10.945,-5.98447
609,-405,10.4187,5.9541,-0.0181732,-0.0154563,0.0346457,0.0178576,-0.0514871,0.804993,0.0415759,0.0176188,1833,1429,10.4186,-5.95411
616,-405,10.355,5.85059,-0.0176479,-0.0132294,0.0276523,0.0123018,-0.0431791,0.82526,0.0336448,0.00977997,1840,1429,10.355,-5.85059
623,-405,10.3469,5.69043,-0.0156125,-0.00960932,0.0198733,0.00748775,-0.0327095,0.86035,0.0246838,0.0095668,1847,1429,10.347,-5.69049
630,-405,10.3591,5.51831,-0.0124676,-0.007227,0.0130942,0.00350654,-0.0232011,0.884149,0.016759,0.00985227,1854,1429,10.3591,-5.51827
637,-405,10.3545,5.35339,-0.00859641,-0.00475267,0.00795019,0.00150464,-0.0148537,0.903993,0.0104402,0.0106467,1861,1429,10.3544,-5.35341
644,-405,10.2766,5.20972,-0.00507173,-0.00298551,0.00474894,0.000833527,-0.00889077,0.893507,0.00622366,0.0276185,1868,1429,10.2766,-5.20974
651,-405,10.2318,5.06824,-0.00233167,-0.00193179,0.00259699,0.000472947,-0.00473641,0.823817,0.00332648,0.0299051,1875,1429,10.2318,-5.0682
658,-405,10.3419,4.90979,-0.000301964,-0.0018549,0.00163154,0.000728451,-0.00288532,0.563302,0.00220681,0.0221244,1882,1429,10.342,-4.90974
665,-405,10.3738,4.73938,0.00119181,-0.00188879,0.000988629,0.00148178,-0.00217877,0.28531,0.00212615,0.0181292,1889,1429,10.3738,-4.73942
672,-405,10.3761,4.5509,0.00184344,-0.00257692,0.00103155,0.00207232,-0.0028058,0.218338,0.00282697,0.02243,1896,1429,10.3761,-4.55087
679,-405,10.4154,4.34644,0.00220499,-0.00414624,0.00141756,0.00250702,-0.00444827,0.209923,0.00406744,0.0207597,1903,1429,10.4154,-4.34638
686,-405,10.3276,4.10437,0.00271798,-0.0064453,0.00205323,0.00315701,-0.00688433,0.210654,0.00592901,0.0331754,1910,1429,10.3276,-4.10436
693,-405,10.1974,3.93237,0,0,0,0,0,0,0,-1,1917,1429,10.1974,-3.93233
700,-405,7.92126,3.46375,0,0,0,0,0,0,0,-1,1924,1429,7.92128,-3.4637
707,-405,7.40308,3.83191,0,0,0,0,0,0,0,-1,1931,1429,7.40311,-3.83194
714,-405,7.33252,3.47388,0,0,0,0,0,0,0,-1,1938,1429,7.33255,-3.47383
721,-405,9.23523,0.993896,0,0,0,0,0,0,0,-1,1945,1429,9.23523,-0.993884
728,-405,0,0,0,0,0,0,0,0,0,-1,1952,1429,0,0
735,-405,0,0,0,0,0,0,0,0,0,-1,1959,1429,0,0
742,-405,0,0,0,0,0,0,0,0,0,-1,1966,1429,0,0
749,-405,0,0,0,0,0,0,0,0,0,-1,1973,1429,0,0
756,-405,0,0,0,0,0,0,0,0,0,-1,1980,1429,0,0
763,-405,0,0,0,0,0,0,0,0,0,-1,1987,1429,0,0
770,-405,0,0,0,0,0,0,0,0,0,-1,1994,1429,0,0
777,-405,0,0,0,0,0,0,0,0,0,-1,2001,1429,0,0
784,-405,0,0,0,0,0,0,0,0,0,-1,2008,1429,0,0
791,-405,0,0,0,0,0,0,0,0,0,-1,2015,1429,0,0
798,-405,0,0,0,0,0,0,0,0,0,-1,2022,1429,0,0
805,-405,0,0,0,0,0,0,0,0,0,-1,2029,1429,0,0
812,-405,0,0,0,0,0,0,0,0,0,-1,2036,1429,0,0
-700,-412,0,0,0,0,0,0,0,0,0,-1,524,1436,0,0
-693,-412,0,0,0,0,0,0,0,0,0,-1,531,1436,0,0
-686,-412,0,0,0,0,0,0,0,0,0,-1,538,1436,0,0
-679,-412,0,0,0,0,0,0,0,0,0,-1,545,1436,0,0
-672,-412,0,0,0,0,0,0,0,0,0,-1,552,1436,0,0
-665,-412,0,0,0,0,0,0,0,0,0,-1,559,1436,0,0
-658,-412,0,0,0,0,0,0,0,0,0,-1,566,1436,0,0
-651,-412,0,0,0,0,0,0,0,0,0,-1,573,1436,0,0
-644,-412,0,0,0,0,0,0,0,0,0,-1,580,1436,0,0
-637,-412,0,0,0,0,0,0,0,0,0,-1,587,1436,0,0
-630,-412,0,0,0,0,0,0,0,0,0,-1,594,1436,0,0
-623,-412,0,0,0,0,0,0,0,0,0,-1,601,1436,0,0
-616,-412,0,0,0,0,0,0,0,0,0,-1,608,1436,0,0
-609,-412,0,0,0,0,0,0,0,0,0,-1,615,1436,0,0
-602,-412,-2.51654,-3.33459,0,0,0,0,0,0,0,-1,622,1436,-2.51651,3.33461
-595,-412,-3.27173,-2.4834,0,0,0,0,0,0,0,-1,629,1436,-3.27174,2.48345
-588,-412,-3.70703,-2.11816,0,0,0,0,0,0,0,-1,636,1436,-3.70702,2.11822
-581,-412,-1.48706,-3.17322,0,0,0,0,0,0,0,-1,643,1436,-1.48704,3.17322
-574,-412,-3.23303,1.08374,0,0,0,0,0,0,0,-1,650,1436,-3.23301,-1.08377
-567,-412,-2.38098,0.644531,0,0,0,0,0,0,0,-1,657,1436,-2.38099,-0.644544
-560,-412,-2.40692,1.67639,-7.14588e-05,0.0264441,0.0429732,0.0581582,-0.0317855,0.935022,0.0526679,0.048147,664,1436,-2.40689,-1.67642
-553,-412,-2.53674,2.1875,-0.00375206,0.021449,0.0310075,0.0423184,-0.0246215,0.978391,0.0390954,0.0442994,671,1436,-2.53676,-2.18756
-546,-412,-2.86206,2.57837,-0.00490954,0.0165972,0.0213353,0.0297358,-0.0180482,1.01883,0.0278619,0.030853,678,1436,-2.86208,-2.57842
-539,-412,-3.00745,2.69788,-0.00443547,0.0107519,0.0140121,0.0190956,-0.0127793,1.03371,0.018523,0.014491,685,1436,-3.00745,-2.69793
-532,-412,-3.02502,2.92627,-0.00313159,0.00634174,0.0095307,0.0122479,-0.00903777,1.01602,0.0123358,0.0135381,692,1436,-3.025,-2.92629
-525,-412,-3.01678,3.13867,-0.00194511,0.00377007,0.00671694,0.00821201,-0.00638705,0.986516,0.0084507,0.0152478,699,1436,-3.01676,-3.13867
-518,-412,-2.99933,3.33228,-0.00121267,0.00162264,0.00428043,0.00471407,-0.0043041,0.94531,0.00520844,0.0166116,706,1436,-2.9993,-3.33222
-511,-412,-2.99841,3.50269,-0.000965196,-0.000246565,0.00207145,0.0014965,-0.00270826,0.871274,0.002461,0.0190949,713,1436,-2.99841,-3.50264
-504,-412,-3.02716,3.69128,-0.00137411,-0.00211655,-8.64394e-05,-0.00136418,-0.00212648,-0.114388,0.00124401,0.018153,720,1436,-3.02714,-3.69129
-497,-412,-3.02106,3.87988,-0.00245539,-0.00367473,-0.00222859,-0.000754584,-0.00537553,-0.651881,0.00336052,0.0140971,727,1436,-3.02106,-3.87991
-490,-412,-3.00885,4.05859,-0.00403661,-0.00489213,-0.00435647,-8.69548e-05,-0.00884179,-0.73646,0.00586576,0.0119212,734,1436,-3.00883,-4.05858
-483,-412,-3.01941,4.22424,-0.00605172,-0.00672675,-0.00661692,0.000236286,-0.0130148,-0.759916,0.00875632,0.00822695,741,1436,-3.01942,-4.22426
-476,-412,-2.93317,4.45496,-0.0089748,-0.00853903,-0.00904213,0.000287837,-0.0178017,-0.797444,0.0119649,0.0151612,748,1436,-2.93316,-4.4549
-469,-412,-2.91522,4.5752,-0.0127037,-0.0104712,-0.0119288,0.000393456,-0.0235684,-0.832051,0.015845,0.0266036,755,1436,-2.91523,-4.57517
-462,-412,-2.9361,4.65271,-0.0174728,-0.0125964,-0.0154384,0.000595203,-0.0306644,-0.863716,0.0206442,0.038572,762,1436,-2.93608,-4.65267
-455,-412,-3.3208,4.71045,-0.023675,-0.0148487,-0.0197834,0.0010078,-0.0395315,-0.895139,0.0266966,0.0450564,769,1436,-3.32083,-4.71045
-448,-412,-3.5365,4.63916,0,0,0,0,0,0,0,-1,776,1436,-3.53652,-4.63915
-441,-412,-4.14893,4.48816,0,0,0,0,0,0,0,-1,783,1436,-4.14892,-4.4882
-434,-412,-2.7981,3.17542,0,0,0,0,0,0,0,-1,790,1436,-2.7981,-3.17537
-427,-412,-2.35968,5.25598,0,0,0,0,0,0,0,-1,797,1436,-2.35965,-5.25596
-420,-412,-1.73126,7.07434,0,0,0,0,0,0,0,-1,804,1436,-1.73129,-7.07429
-413,-412,-5.19861,3.34583,0,0,0,0,0,0,0,-1,811,1436,-5.19861,-3.3458
-406,-412,-5.79456,2.44617,0,0,0,0,0,0,0,-1,818,1436,-5.79456,-2.44615
-399,-412,-6.48059,1.39575,0,0,0,0,0,0,0,-1,825,1436,-6.48062,-1.39579
-392,-412,0,0,0,0,0,0,0,0,0,-1,832,1436,0,0
-385,-412,0,0,0,0,0,0,0,0,0,-1,839,1436,0,0
-378,-412,0,0,0,0,0,0,0,0,0,-1,846,1436,0,0
-371,-412,0,0,0,0,0,0,0,0,0,-1,853,1436,0,0
-364,-412,0,0,0,0,0,0,0,0,0,-1,860,1436,0,0
-357,-412,0,0,0,0,0,0,0,0,0,-1,867,1436,0,0
-350,-412,0,0,0,0,0,0,0,0,0,-1,874,1436,0,0
-343,-412,0,0,0,0,0,0,0,0,0,-1,881,1436,0,0
-336,-412,0,0,0,0,0,0,0,0,0,-1,888,1436,0,0
-329,-412,0,0,0,0,0,0,0,0,0,-1,895,1436,0,0
-322,-412,0,0,0,0,0,0,0,0,0,-1,902,1436,0,0
-315,-412,0,0,0,0,0,0,0,0,0,-1,909,1436,0,0
-308,-412,0,0,0,0,0,0,0,0,0,-1,916,1436,0,0
-301,-412,0,0,0,0,0,0,0,0,0,-1,923,1436,0,0
-294,-412,0,0,0,0,0,0,0,0,0,-1,930,1436,0,0
-287,-412,0,0,0,0,0,0,0,0,0,-1,937,1436,0,0
-280,-412,0,0,0,0,0,0,0,0,0,-1,944,1436,0,0
-273,-412,0,0,0,0,0,0,0,0,0,-1,951,1436,0,0
-266,-412,0,0,0,0,0,0,0,0,0,-1,958,1436,0,0
-259,-412,0,0,0,0,0,0,0,0,0,-1,965,1436,0,0
-252,-412,0,0,0,0,0,0,0,0,0,-1,972,1436,0,0
-245,-412,0,0,0,0,0,0,0,0,0,-1,979,1436,0,0
-238,-412,0,0,0,0,0,0,0,0,0,-1,986,1436,0,0
-231,-412,0,0,0,0,0,0,0,0,0,-1,993,1436,0,0
-224,-412,0,0,0,0,0,0,0,0,0,-1,1000,1436,0,0
-217,-412,0,0,0,0,0,0,0,0,0,-1,1007,1436,0,0
-210,-412,0,0,0,0,0,0,0,0,0,-1,1014,1436,0,0
-203,-412,0,0,0,0,0,0,0,0,0,-1,1021,1436,0,0
-196,-412,0,0,0,0,0,0,0,0,0,-1,1028,1436,0,0
-189,-412,0,0,0,0,0,0,0,0,0,-1,1035,1436,0,0
-182,-412,0,0,0,0,0,0,0,0,0,-1,1042,1436,0,0
-175,-412,0,0,0,0,0,0,0,0,0,-1,1049,1436,0,0
-168,-412,0,0,0,0,0,0,0,0,0,-1,1056,1436,0,0
-161,-412,0,0,0,0,0,0,0,0,0,-1,1063,1436,0,0
-154,-412,0,0,0,0,0,0,0,0,0,-1,1070,1436,0,0
-147,-412,0,0,0,0,0,0,0,0,0,-1,1077,1436,0,0
-140,-412,0,0,0,0,0,0,0,0,0,-1,1084,1436,0,0
-133,-412,0,0,0,0,0,0,0,0,0,-1,1091,1436,0,0
-126,-412,0,0,0,0,0,0,0,0,0,-1,1098,1436,0,0
-119,-412,0,0,0,0,0,0,0,0,0,-1,1105,1436,0,0
-112,-412,0,0,0,0,0,0,0,0,0,-1,1112,1436,0,0
-105,-412,0,0,0,0,0,0,0,0,0,-1,1119,1436,0,0
-98,-412,0,0,0,0,0,0,0,0,0,-1,1126,1436,0,0
-91,-412,0,0,0,0,0,0,0,0,0,-1,1133,1436,0,0
-84,-412,0,0,0,0,0,0,0,0,0,-1,1140,1436,0,0
-77,-412,0,0,0,0,0,0,0,0,0,-1,1147,1436,0,0
-70,-412,0,0,0,0,0,0,0,0,0,-1,1154,1436,0,0
-63,-412,0,0,0,0,0,0,0,0,0,-1,1161,1436,0,0
-56,-412,0,0,0,0,0,0,0,0,0,-1,1168,1436,0,0
-49,-412,0,0,0,0,0,0,0,0,0,-1,1175,1436,0,0
-42,-412,0,0,0,0,0,0,0,0,0,-1,1182,1436,0,0
-35,-412,0,0,0,0,0,0,0,0,0,-1,1189,1436,0,0
-28,-412,0,0,0,0,0,0,0,0,0,-1,1196,1436,0,0
-21,-412,0,0,0,0,0,0,0,0,0,-1,1203,1436,0,0
-14,-412,0,0,0,0,0,0,0,0,0,-1,1210,1436,0,0
-7,-412,0,0,0,0,0,0,0,0,0,-1,1217,1436,0,0
0,-412,0,0,0,0,0,0,0,0,0,-1,1224,1436,0,0
7,-412,0,0,0,0,0,0,0,0,0,-1,1231,1436,0,0
14,-412,0,0,0,0,0,0,0,0,0,-1,1238,1436,0,0
21,-412,0,0,0,0,0,0,0,0,0,-1,1245,1436,0,0
28,-412,0,0,0,0,0,0,0,0,0,-1,1252,1436,0,0
35,-412,0,0,0,0,0,0,0,0,0,-1,1259,1436,0,0
42,-412,0,0,0,0,0,0,0,0,0,-1,1266,1436,0,0
49,-412,0,0,0,0,0,0,0,0,0,-1,1273,1436,0,0
56,-412,0,0,0,0,0,0,0,0,0,-1,1280,1436,0,0
63,-412,0,0,0,0,0,0,0,0,0,-1,1287,1436,0,0
70,-412,0,0,0,0,0,0,0,0,0,-1,1294,1436,0,0
77,-412,0,0,0,0,0,0,0,0,0,-1,1301,1436,0,0
84,-412,0,0,0,0,0,0,0,0,0,-1,1308,1436,0,0
91,-412,0,0,0,0,0,0,0,0,0,-1,1315,1436,0,0
98,-412,0,0,0,0,0,0,0,0,0,-1,1322,1436,0,0
105,-412,0,0,0,0,0,0,0,0,0,-1,1329,1436,0,0
112,-412,0,0,0,0,0,0,0,0,0,-1,1336,1436,0,0
119,-412,0,0,0,0,0,0,0,0,0,-1,1343,1436,0,0
126,-412,0,0,0,0,0,0,0,0,0,-1,1350,1436,0,0
133,-412,0,0,0,0,0,0,0,0,0,-1,1357,1436,0,0
140,-412,0,0,0,0,0,0,0,0,0,-1,1364,1436,0,0
147,-412,0,0,0,0,0,0,0,0,0,-1,1371,1436,0,0
154,-412,0,0,0,0,0,0,0,0,0,-1,1378,1436,0,0
161,-412,0,0,0,0,0,0,0,0,0,-1,1385,1436,0,0
168,-412,0,0,0,0,0,0,0,0,0,-1,1392,1436,0,0
175,-412,0,0,0,0,0,0,0,0,0,-1,1399,1436,0,0
182,-412,0,0,0,0,0,0,0,0,0,-1,1406,1436,0,0
189,-412,0,0,0,0,0,0,0,0,0,-1,1413,1436,0,0
196,-412,0,0,0,0,0,0,0,0,0,-1,1420,1436,0,0
203,-412,0,0,0,0,0,0,0,0,0,-1,1427,1436,0,0
210,-412,0,0,0,0,0,0,0,0,0,-1,1434,1436,0,0
217,-412,0,0,0,0,0,0,0,0,0,-1,1441,1436,0,0
224,-412,0,0,0,0,0,0,0,0,0,-1,1448,1436,0,0
231,-412,0,0,0,0,0,0,0,0,0,-1,1455,1436,0,0
238,-412,0,0,0,0,0,0,0,0,0,-1,1462,1436,0,0
245,-412,0,0,0,0,0,0,0,0,0,-1,1469,1436,0,0
252,-412,0,0,0,0,0,0,0,0,0,-1,1476,1436,0,0
259,-412,0,0,0,0,0,0,0,0,0,-1,1483,1436,0,0
266,-412,0,0,0,0,0,0,0,0,0,-1,1490,1436,0,0
273,-412,0,0,0,0,0,0,0,0,0,-1,1497,1436,0,0
280,-412,0,0,0,0,0,0,0,0,0,-1,1504,1436,0,0
287,-412,0,0,0,0,0,0,0,0,0,-1,1511,1436,0,0
294,-412,0,0,0,0,0,0,0,0,0,-1,1518,1436,0,0
301,-412,0,0,0,0,0,0,0,0,0,-1,1525,1436,0,0
308,-412,0,0,0,0,0,0,0,0,0,-1,1532,1436,0,0
315,-412,0,0,0,0,0,0,0,0,0,-1,1539,1436,0,0
322,-412,0,0,0,0,0,0,0,0,0,-1,1546,1436,0,0
329,-412,0,0,0,0,0,0,0,0,0,-1,1553,1436,0,0
336,-412,0,0,0,0,0,0,0,0,0,-1,1560,1436,0,0
343,-412,0,0,0,0,0,0,0,0,0,-1,1567,1436,0,0
350,-412,0,0,0,0,0,0,0,0,0,-1,1574,1436,0,0
357,-412,0,0,0,0,0,0,0,0,0,-1,1581,1436,0,0
364,-412,0,0,0,0,0,0,0,0,0,-1,1588,1436,0,0
371,-412,0,0,0,0,0,0,0,0,0,-1,1595,1436,0,0
378,-412,0,0,0,0,0,0,0,0,0,-1,1602,1436,0,0
385,-412,0,0,0,0,0,0,0,0,0,-1,1609,1436,0,0
392,-412,0,0,0,0,0,0,0,0,0,-1,1616,1436,0,0
399,-412,0,0,0,0,0,0,0,0,0,-1,1623,1436,0,0
406,-412,0,0,0,0,0,0,0,0,0,-1,1630,1436,0,0
413,-412,0,0,0,0,0,0,0,0,0,-1,1637,1436,0,0
420,-412,0,0,0,0,0,0,0,0,0,-1,1644,1436,0,0
427,-412,0,0,0,0,0,0,0,0,0,-1,1651,1436,0,0
434,-412,0,0,0,0,0,0,0,0,0,-1,1658,1436,0,0
441,-412,0,0,0,0,0,0,0,0,0,-1,1665,1436,0,0
448,-412,0,0,0,0,0,0,0,0,0,-1,1672,1436,0,0
455,-412,0,0,0,0,0,0,0,0,0,-1,1679,1436,0,0
462,-412,0,0,0,0,0,0,0,0,0,-1,1686,1436,0,0
469,-412,0,0,0,0,0,0,0,0,0,-1,1693,1436,0,0
476,-412,0,0,0,0,0,0,0,0,0,-1,1700,1436,0,0
483,-412,0,0,0,0,0,0,0,0,0,-1,1707,1436,0,0
490,-412,0,0,0,0,0,0,0,0,0,-1,1714,1436,0,0
497,-412,0,0,0,0,0,0,0,0,0,-1,1721,1436,0,0
504,-412,0,0,0,0,0,0,0,0,0,-1,1728,1436,0,0
511,-412,0,0,0,0,0,0,0,0,0,-1,1735,1436,0,0
518,-412,12.1302,1.7312,0,0,0,0,0,0,0,-1,1742,1436,12.1302,-1.73121
525,-412,12.9518,2.10938,0,0,0,0,0,0,0,-1,1749,1436,12.9517,-2.10942
532,-412,15.375,3.15601,0,0,0,0,0,0,0,-1,1756,1436,15.375,-3.15602
539,-412,14.8295,3.09924,0,0,0,0,0,0,0,-1,1763,1436,14.8295,-3.09924
546,-412,14.2285,3.17664,0,0,0,0,0,0,0,-1,1770,1436,14.2285,-3.17662
553,-412,14.4495,2.9541,0,0,0,0,0,0,0,-1,1777,1436,14.4495,-2.95412
560,-412,12.8783,7.23181,0,0,0,0,0,0,0,-1,1784,1436,12.8783,-7.23178
567,-412,12.371,6.42395,-0.00932516,-0.0320139,0.0606994,0.0410809,-0.0824199,0.693017,0.0726225,0.0475519,1791,1436,12.3709,-6.42399
574,-412,11.8593,5.60706,0,0,0,0,0,0,0,-1,1798,1436,11.8592,-5.60707
581,-412,10.526,5.32983,0,0,0,0,0,0,0,-1,1805,1436,10.526,-5.32987
588,-412,11.6372,5.14172,-0.0171094,-0.0237087,0.0503927,0.0300916,-0.0709096,0.752705,0.0598794,0.0422835,1812,1436,11.6372,-5.1417
595,-412,10.8501,5.74377,-0.0178606,-0.0205194,0.043532,0.0243623,-0.0627423,0.770134,0.0518916,0.0403035,1819,1436,10.8501,-5.74379
602,-412,10.3888,6.17334,-0.017931,-0.0169798,0.0362553,0.0188031,-0.0537138,0.791957,0.0434548,0.02255,1826,1436,10.3888,-6.1733
609,-412,10.2196,6.01794,-0.0165636,-0.0137892,0.0292691,0.0141255,-0.0444784,0.809078,0.0353153,0.00863021,1833,1436,10.2196,-6.01797
616,-412,10.1768,5.85413,-0.01524,-0.0117208,0.0230374,0.00962409,-0.0365849,0.823514,0.0281518,0.00748084,1840,1436,10.1768,-5.85416
623,-412,10.1807,5.68127,-0.0129117,-0.00827992,0.0162931,0.00586109,-0.0270527,0.855995,0.0202733,0.00902159,1847,1436,10.1807,-5.68124
630,-412,10.2113,5.4917,-0.00993533,-0.00595586,0.0106573,0.00289588,-0.0187871,0.877686,0.0135932,0.0107068,1854,1436,10.2113,-5.4917
637,-412,10.1949,5.3584,-0.00657438,-0.00371427,0.00632743,0.00134269,-0.0116313,0.896536,0.00823835,0.0127447,1861,1436,10.1949,-5.3584
644,-412,10.1962,5.19458,-0.00346794,-0.00225715,0.00363731,0.000824799,-0.00654989,0.867863,0.00466589,0.0141524,1868,1436,10.1962,-5.19456
651,-412,10.1774,4.99902,-0.00103702,-0.00144233,0.0019146,0.000685616,-0.00316497,0.732671,0.00237178,0.0236422,1875,1436,10.1774,-4.99906
658,-412,10.2013,4.89172,0.000809011,-0.00152906,0.00125011,0.00135153,-0.00207157,0.409449,0.00199085,0.0170663,1882,1436,10.2013,-4.89169
665,-412,10.1903,4.73962,0.00216691,-0.00183822,0.000995351,0.00240063,-0.00207195,0.230638,0.00258457,0.0227779,1889,1436,10.1903,-4.73956
672,-412,10.2062,4.52161,0.00271771,-0.00279993,0.00141951,0.00306149,-0.00314371,0.237605,0.00358268,0.0273394,1896,1436,10.2062,-4.52161
679,-412,10.2549,4.29883,0.00316078,-0.00475877,0.00218786,0.00372501,-0.00532299,0.252389,0.00525095,0.0349459,1903,1436,10.2549,-4.29886
686,-412,10.2072,4.02112,0,0,0,0,0,0,0,-1,1910,1436,10.2071,-4.02107
693,-412,9.25842,4.70166,0,0,0,0,0,0,0,-1,1917,1436,9.25848,-4.7017
700,-412,7.40198,3.64758,0,0,0,0,0,0,0,-1,1924,1436,7.402,-3.64753
707,-412,6.59998,1.68994,0,0,0,0,0,0,0,-1,1931,1436,6.60002,-1.68995
714,-412,4.77283,-2.39832,0,0,0,0,0,0,0,-1,1938,1436,4.77288,2.39835
721,-412,0,0,0,0,0,0,0,0,0,-1,1945,1436,0,0
728,-412,0,0,0,0,0,0,0,0,0,-1,1952,1436,0,0
735,-412,0,0,0,0,0,0,0,0,0,-1,1959,1436,0,0
742,-412,0,0,0,0,0,0,0,0,0,-1,1966,1436,0,0
749,-412,0,0,0,0,0,0,0,0,0,-1,1973,1436,0,0
756,-412,0,0,0,0,0,0,0,0,0,-1,1980,1436,0,0
763,-412,0,0,0,0,0,0,0,0,0,-1,1987,1436,0,0
770,-412,0,0,0,0,0,0,0,0,0,-1,1994,1436,0,0
777,-412,0,0,0,0,0,0,0,0,0,-1,2001,1436,0,0
784,-412,0,0,0,0,0,0,0,0,0,-1,2008,1436,0,0
791,-412,0,0,0,0,0,0,0,0,0,-1,2015,1436,0,0
798,-412,0,0,0,0,0,0,0,0,0,-1,2022,1436,0,0
805,-412,0,0,0,0,0,0,0,0,0,-1,2029,1436,0,0
812,-412,0,0,0,0,0,0,0,0,0,-1,2036,1436,0,0
-700,-419,0,0,0,0,0,0,0,0,0,-1,524,1443,0,0
-693,-419,0,0,0,0,0,0,0,0,0,-1,531,1443,0,0
-686,-419,0,0,0,0,0,0,0,0,0,-1,538,1443,0,0
-679,-419,0,0,0,0,0,0,0,0,0,-1,545,1443,0,0
-672,-419,0,0,0,0,0,0,0,0,0,-1,552,1443,0,0
-665,-419,0,0,0,0,0,0,0,0,0,-1,559,1443,0,0
-658,-419,0,0,0,0,0,0,0,0,0,-1,566,1443,0,0
-651,-419,0,0,0,0,0,0,0,0,0,-1,573,1443,0,0
-644,-419,0,0,0,0,0,0,0,0,0,-1,580,1443,0,0
-637,-419,0,0,0,0,0,0,0,0,0,-1,587,1443,0,0
-630,-419,0,0,0,0,0,0,0,0,0,-1,594,1443,0,0
-623,-419,0,0,0,0,0,0,0,0,0,-1,601,1443,0,0
-616,-419,0,0,0,0,0,0,0,0,0,-1,608,1443,0,0
-609,-419,0,0,0,0,0,0,0,0,0,-1,615,1443,0,0
-602,-419,0,0,0,0,0,0,0,0,0,-1,622,1443,0,0
-595,-419,-4.27423,-0.479492,0,0,0,0,0,0,0,-1,629,1443,-4.27421,0.479525
-588,-419,-3.75415,0.426147,0,0,0,0,0,0,0,-1,636,1443,-3.75414,-0.426145
-581,-419,-3.37775,1.73169,0,0,0,0,0,0,0,-1,643,1443,-3.37775,-1.73163
-574,-419,-2.86279,2.7804,0,0,0,0,0,0,0,-1,650,1443,-2.86279,-2.7804
-567,-419,-3.76215,1.37549,0,0,0,0,0,0,0,-1,657,1443,-3.76215,-1.37547
-560,-419,-1.91998,1.35059,0,0,0,0,0,0,0,-1,664,1443,-1.91998,-1.35055
-553,-419,-2.02228,1.96936,-0.00134007,0.0239041,0.0396022,0.052847,-0.030283,0.939669,0.0485809,0.0462341,671,1443,-2.02226,-1.96942
-546,-419,-2.43842,2.60229,-0.00276696,0.0182543,0.0284234,0.0380482,-0.0225608,0.962495,0.0353714,0.0385762,678,1443,-2.43841,-2.60234
-539,-419,-2.71033,2.72498,-0.00259107,0.0117826,0.0196624,0.0255304,-0.0163389,0.960611,0.0243667,0.0274543,685,1443,-2.71031,-2.72493
-532,-419,-2.82996,2.92944,-0.00157505,0.00699522,0.0139028,0.0172583,-0.0118381,0.934889,0.0168957,0.0144478,692,1443,-2.82998,-2.92947
-525,-419,-2.82477,3.1488,-0.000619004,0.00431645,0.0100687,0.0122154,-0.00851797,0.905574,0.0120337,0.0133097,699,1443,-2.82475,-3.14885
-518,-419,-2.81378,3.33118,-8.46913e-05,0.00222496,0.0068502,0.008017,-0.00587673,0.868904,0.00805321,0.0165507,706,1443,-2.81378,-3.33121
-511,-419,-2.80029,3.52246,5.43498e-05,0.000534281,0.00410092,0.00440225,-0.00381362,0.814622,0.00474749,0.0184084,713,1443,-2.80032,-3.52244
-504,-419,-2.83301,3.70276,-0.000358782,-0.0011582,0.00155948,0.000851399,-0.00236838,0.659944,0.00192649,0.0187848,720,1443,-2.83303,-3.70271
-497,-419,-2.83179,3.87537,-0.00116593,-0.00252639,-0.000842322,-0.000763468,-0.00292885,-0.44573,0.00175435,0.0132806,727,1443,-2.83176,-3.87532
-490,-419,-2.82007,4.05627,-0.00220505,-0.00355791,-0.00321071,0.000399717,-0.00616267,-0.681577,0.00424796,0.0107392,734,1443,-2.82006,-4.05624
-483,-419,-2.81964,4.24316,-0.00356458,-0.00519353,-0.0054546,0.00113602,-0.00989413,-0.711286,0.00700553,0.0092732,741,1443,-2.81961,-4.24314
-476,-419,-2.81714,4.44031,-0.0054786,-0.00698988,-0.00783326,0.00163538,-0.0141039,-0.737314,0.00999241,0.00985022,748,1443,-2.81712,-4.44032
-469,-419,-2.75476,4.63953,-0.00761142,-0.00918663,-0.0106676,0.00229757,-0.0190956,-0.748549,0.0135613,0.0144315,755,1443,-2.75477,-4.63951
-462,-419,-2.71667,4.75537,-0.010115,-0.0119176,-0.014182,0.00319432,-0.0252269,-0.753666,0.0179776,0.0249073,762,1443,-2.7167,-4.75539
-455,-419,-2.92487,4.77051,-0.0132125,-0.0152965,-0.0188232,0.00459751,-0.0331064,-0.757748,0.0237522,0.0382246,769,1443,-2.92485,-4.77052
-448,-419,-3.40662,4.6759,-0.0168193,-0.0195771,-0.0247452,0.00658538,-0.0429818,-0.757564,0.0310831,0.0439283,776,1443,-3.40659,-4.67592
-441,-419,-4.01367,4.43848,0,0,0,0,0,0,0,-1,783,1443,-4.01364,-4.43846
-434,-419,-4.57227,4.19592,0,0,0,0,0,0,0,-1,790,1443,-4.57229,-4.19595
-427,-419,-2.95654,4.14441,0,0,0,0,0,0,0,-1,797,1443,-2.95654,-4.14445
-420,-419,-2.97034,5.21265,0,0,0,0,0,0,0,-1,804,1443,-2.97035,-5.21262
-413,-419,-6.71332,1.56982,0,0,0,0,0,0,0,-1,811,1443,-6.71334,-1.56977
-406,-419,-7.29431,1.53333,0,0,0,0,0,0,0,-1,818,1443,-7.29429,-1.53336
-399,-419,-7.59485,1.36316,0,0,0,0,0,0,0,-1,825,1443,-7.59483,-1.36314
-392,-419,0,0,0,0,0,0,0,0,0,-1,832,1443,0,0
-385,-419,0,0,0,0,0,0,0,0,0,-1,839,1443,0,0
-378,-419,0,0,0,0,0,0,0,0,0,-1,846,1443,0,0
-371,-419,0,0,0,0,0,0,0,0,0,-1,853,1443,0,0
-364,-419,0,0,0,0,0,0,0,0,0,-1,860,1443,0,0
-357,-419,0,0,0,0,0,0,0,0,0,-1,867,1443,0,0
-350,-419,0,0,0,0,0,0,0,0,0,-1,874,1443,0,0
-343,-419,0,0,0,0,0,0,0,0,0,-1,881,1443,0,0
-336,-419,0,0,0,0,0,0,0,0,0,-1,888,1443,0,0
-329,-419,0,0,0,0,0,0,0,0,0,-1,895,1443,0,0
-322,-419,0,0,0,0,0,0,0,0,0,-1,902,1443,0,0
-315,-419,0,0,0,0,0,0,0,0,0,-1,909,1443,0,0
-308,-419,0,0,0,0,0,0,0,0,0,-1,916,1443,0,0
-301,-419,0,0,0,0,0,0,0,0,0,-1,923,1443,0,0
-294,-419,0,0,0,0,0,0,0,0,0,-1,930,1443,0,0
-287,-419,0,0,0,0,0,0,0,0,0,-1,937,1443,0,0
-280,-419,0,0,0,0,0,0,0,0,0,-1,944,1443,0,0
-273,-419,0,0,0,0,0,0,0,0,0,-1,951,1443,0,0
-266,-419,0,0,0,0,0,0,0,0,0,-1,958,1443,0,0
-259,-419,0,0,0,0,0,0,0,0,0,-1,965,1443,0,0
-252,-419,0,0,0,0,0,0,0,0,0,-1,972,1443,0,0
-245,-419,0,0,0,0,0,0,0,0,0,-1,979,1443,0,0
-238,-419,0,0,0,0,0,0,0,0,0,-1,986,1443,0,0
-231,-419,0,0,0,0,0,0,0,0,0,-1,993,1443,0,0
-224,-419,0,0,0,0,0,0,0,0,0,-1,1000,1443,0,0
-217,-419,0,0,0,0,0,0,0,0,0,-1,1007,1443,0,0
-210,-419,0,0,0,0,0,0,0,0,0,-1,1014,1443,0,0
-203,-419,0,0,0,0,0,0,0,0,0,-1,1021,1443,0,0
-196,-419,0,0,0,0,0,0,0,0,0,-1,1028,1443,0,0
-189,-419,0,0,0,0,0,0,0,0,0,-1,1035,1443,0,0
-182,-419,0,0,0,0,0,0,0,0,0,-1,1042,1443,0,0
-175,-419,0,0,0,0,0,0,0,0,0,-1,1049,1443,0,0
-168,-419,0,0,0,0,0,0,0,0,0,-1,1056,1443,0,0
-161,-419,0,0,0,0,0,0,0,0,0,-1,1063,1443,0,0
-154,-419,0,0,0,0,0,0,0,0,0,-1,1070,1443,0,0
-147,-419,0,0,0,0,0,0,0,0,0,-1,1077,1443,0,0
-140,-419,0,0,0,0,0,0,0,0,0,-1,1084,1443,0,0
-133,-419,0,0,0,0,0,0,0,0,0,-1,1091,1443,0,0
-126,-419,0,0,0,0,0,0,0,0,0,-1,1098,1443,0,0
-119,-419,0,0,0,0,0,0,0,0,0,-1,1105,1443,0,0
-112,-419,0,0,0,0,0,0,0,0,0,-1,1112,1443,0,0
-105,-419,0,0,0,0,0,0,0,0,0,-1,1119,1443,0,0
-98,-419,0,0,0,0,0,0,0,0,0,-1,1126,1443,0,0
-91,-419,0,0,0,0,0,0,0,0,0,-1,1133,1443,0,0
-84,-419,0,0,0,0,0,0,0,0,0,-1,1140,1443,0,0
-77,-419,0,0,0,0,0,0,0,0,0,-1,1147,1443,0,0
-70,-419,0,0,0,0,0,0,0,0,0,-1,1154,1443,0,0
-63,-419,0,0,0,0,0,0,0,0,0,-1,1161,1443,0,0
-56,-419,0,0,0,0,0,0,0,0,0,-1,1168,1443,0,0
-49,-419,0,0,0,0,0,0,0,0,0,-1,1175,1443,0,0
-42,-419,0,0,0,0,0,0,0,0,0,-1,1182,1443,0,0
-35,-419,0,0,0,0,0,0,0,0,0,-1,1189,1443,0,0
-28,-419,0,0,0,0,0,0,0,0,0,-1,1196,1443,0,0
-21,-419,0,0,0,0,0,0,0,0,0,-1,1203,1443,0,0
-14,-419,0,0,0,0,0,0,0,0,0,-1,1210,1443,0,0
-7,-419,0,0,0,0,0,0,0,0,0,-1,1217,1443,0,0
0,-419,0,0,0,0,0,0,0,0,0,-1,1224,1443,0,0
7,-419,0,0,0,0,0,0,0,0,0,-1,1231,1443,0,0
14,-419,0,0,0,0,0,0,0,0,0,-1,1238,1443,0,0
21,-419,0,0,0,0,0,0,0,0,0,-1,1245,1443,0,0
28,-419,0,0,0,0,0,0,0,0,0,-1,1252,1443,0,0
35,-419,0,0,0,0,0,0,0,0,0,-1,1259,1443,0,0
42,-419,0,0,0,0,0,0,0,0,0,-1,1266,1443,0,0
49,-419,0,0,0,0,0,0,0,0,0,-1,1273,1443,0,0
56,-419,0,0,0,0,0,0,0,0,0,-1,1280,1443,0,0
63,-419,0,0,0,0,0,0,0,0,0,-1,1287,1443,0,0
70,-419,0,0,0,0,0,0,0,0,0,-1,1294,1443,0,0
77,-419,0,0,0,0,0,0,0,0,0,-1,1301,1443,0,0
84,-419,0,0,0,0,0,0,0,0,0,-1,1308,1443,0,0
91,-419,0,0,0,0,0,0,0,0,0,-1,1315,1443,0,0
98,-419,0,0,0,0,0,0,0,0,0,-1,1322,1443,0,0
105,-419,0,0,0,0,0,0,0,0,0,-1,1329,1443,0,0
112,-419,0,0,0,0,0,0,0,0,0,-1,1336,1443,0,0
119,-419,0,0,0,0,0,0,0,0,0,-1,1343,1443,0,0
126,-419,0,0,0,0,0,0,0,0,0,-1,1350,1443,0,0
133,-419,0,0,0,0,0,0,0,0,0,-1,1357,1443,0,0
140,-419,0,0,0,0,0,0,0,0,0,-1,1364,1443,0,0
147,-419,0,0,0,0,0,0,0,0,0,-1,1371,1443,0,0
154,-419,0,0,0,0,0,0,0,0,0,-1,1378,1443,0,0
161,-419,0,0,0,0,0,0,0,0,0,-1,1385,1443,0,0
168,-419,0,0,0,0,0,0,0,0,0,-1,1392,1443,0,0
175,-419,0,0,0,0,0,0,0,0,0,-1,1399,1443,0,0
182,-419,0,0,0,0,0,0,0,0,0,-1,1406,1443,0,0
189,-419,0,0,0,0,0,0,0,0,0,-1,1413,1443,0,0
196,-419,0,0,0,0,0,0,0,0,0,-1,1420,1443,0,0
203,-419,0,0,0,0,0,0,0,0,0,-1,1427,1443,0,0
210,-419,0,0,0,0,0,0,0,0,0,-1,1434,1443,0,0
217,-419,0,0,0,0,0,0,0,0,0,-1,1441,1443,0,0
224,-419,0,0,0,0,0,0,0,0,0,-1,1448,1443,0,0
231,-419,0,0,0,0,0,0,0,0,0,-1,1455,1443,0,0
238,-419,0,0,0,0,0,0,0,0,0,-1,1462,1443,0,0
245,-419,0,0,0,0,0,0,0,0,0,-1,1469,1443,0,0
252,-419,0,0,0,0,0,0,0,0,0,-1,1476,1443,0,0
259,-419,0,0,0,0,0,0,0,0,0,-1,1483,1443,0,0
266,-419,0,0,0,0,0,0,0,0,0,-1,1490,1443,0,0
273,-419,0,0,0,0,0,0,0,0,0,-1,1497,1443,0,0
280,-419,0,0,0,0,0,0,0,0,0,-1,1504,1443,0,0
287,-419,0,0,0,0,0,0,0,0,0,-1,1511,1443,0,0
294,-419,0,0,0,0,0,0,0,0,0,-1,1518,1443,0,0
301,-419,0,0,0,0,0,0,0,0,0,-1,1525,1443,0,0
308,-419,0,0,0,0,0,0,0,0,0,-1,1532,1443,0,0
315,-419,0,0,0,0,0,0,0,0,0,-1,1539,1443,0,0
322,-419,0,0,0,0,0,0,0,0,0,-1,1546,1443,0,0
329,-419,0,0,0,0,0,0,0,0,0,-1,1553,1443,0,0
336,-419,0,0,0,0,0,0,0,0,0,-1,1560,1443,0,0
343,-419,0,0,0,0,0,0,0,0,0,-1,1567,1443,0,0
350,-419,0,0,0,0,0,0,0,0,0,-1,1574,1443,0,0
357,-419,0,0,0,0,0,0,0,0,0,-1,1581,1443,0,0
364,-419,0,0,0,0,0,0,0,0,0,-1,1588,1443,0,0
371,-419,0,0,0,0,0,0,0,0,0,-1,1595,1443,0,0
378,-419,0,0,0,0,0,0,0,0,0,-1,1602,1443,0,0
385,-419,0,0,0,0,0,0,0,0,0,-1,1609,1443,0,0
392,-419,0,0,0,0,0,0,0,0,0,-1,1616,1443,0,0
399,-419,0,0,0,0,0,0,0,0,0,-1,1623,1443,0,0
406,-419,0,0,0,0,0,0,0,0,0,-1,1630,1443,0,0
413,-419,0,0,0,0,0,0,0,0,0,-1,1637,1443,0,0
420,-419,0,0,0,0,0,0,0,0,0,-1,1644,1443,0,0
427,-419,0,0,0,0,0,0,0,0,0,-1,1651,1443,0,0
434,-419,0,0,0,0,0,0,0,0,0,-1,1658,1443,0,0
441,-419,0,0,0,0,0,0,0,0,0,-1,1665,1443,0,0
448,-419,0,0,0,0,0,0,0,0,0,-1,1672,1443,0,0
455,-419,0,0,0,0,0,0,0,0,0,-1,1679,1443,0,0
462,-419,0,0,0,0,0,0,0,0,0,-1,1686,1443,0,0
469,-419,0,0,0,0,0,0,0,0,0,-1,1693,1443,0,0
476,-419,0,0,0,0,0,0,0,0,0,-1,1700,1443,0,0
483,-419,0,0,0,0,0,0,0,0,0,-1,1707,1443,0,0
490,-419,0,0,0,0,0,0,0,0,0,-1,1714,1443,0,0
497,-419,0,0,0,0,0,0,0,0,0,-1,1721,1443,0,0
504,-419,0,0,0,0,0,0,0,0,0,-1,1728,1443,0,0
511,-419,12.6509,-0.385132,0,0,0,0,0,0,0,-1,1735,1443,12.6508,0.385172
518,-419,11.3622,1.57031,0,0,0,0,0,0,0,-1,1742,1443,11.3622,-1.57035
525,-419,12.1954,1.92676,0,0,0,0,0,0,0,-1,1749,1443,12.1954,-1.92676
532,-419,12.5842,3.46631,0,0,0,0,0,0,0,-1,1756,1443,12.5842,-3.46626
539,-419,13.0599,3.4187,0,0,0,0,0,0,0,-1,1763,1443,13.06,-3.41865
546,-419,13.5973,3.42529,0,0,0,0,0,0,0,-1,1770,1443,13.5973,-3.42529
553,-419,14.3315,3.19043,0,0,0,0,0,0,0,-1,1777,1443,14.3316,-3.19039
560,-419,11.7478,6.99146,0,0,0,0,0,0,0,-1,1784,1443,11.7477,-6.99145
567,-419,11.3684,6.36987,0,0,0,0,0,0,0,-1,1791,1443,11.3684,-6.36982
574,-419,10.6631,4.72168,0,0,0,0,0,0,0,-1,1798,1443,10.6631,-4.72169
581,-419,10.2195,5.3092,0,0,0,0,0,0,0,-1,1805,1443,10.2195,-5.30926
588,-419,9.77588,5.89685,0,0,0,0,0,0,0,-1,1812,1443,9.77586,-5.89682
595,-419,10.2679,6.1897,-0.0175919,-0.019045,0.0355986,0.0172875,-0.0539244,0.775195,0.0428897,0.0340653,1819,1443,10.268,-6.18965
602,-419,10.0753,6.17957,-0.0168906,-0.01549,0.0295326,0.0133506,-0.0457312,0.797253,0.0357779,0.014271,1826,1443,10.0753,-6.1796
609,-419,10.0295,6.0155,-0.0148902,-0.0123105,0.023793,0.0102275,-0.0374283,0.812477,0.0289696,0.0103501,1833,1443,10.0295,-6.01556
616,-419,10.0145,5.87207,-0.0129562,-0.0101708,0.0186524,0.00714087,-0.0302678,0.822661,0.0229325,0.0108359,1840,1443,10.0145,-5.87213
623,-419,10.028,5.68445,-0.0104691,-0.00687516,0.0130232,0.0044745,-0.0218188,0.853957,0.0162441,0.00916223,1847,1443,10.028,-5.68447
630,-419,10.0496,5.50171,-0.00768289,-0.00466781,0.00837678,0.002336,-0.0146867,0.874428,0.0106555,0.0112028,1854,1443,10.0495,-5.50172
637,-419,10.0271,5.36743,-0.00472255,-0.00269611,0.00475094,0.00114845,-0.00856712,0.890458,0.00613019,0.0123639,1861,1443,10.0271,-5.36745
644,-419,10.0153,5.22852,-0.00194281,-0.0015714,0.00250476,0.000754527,-0.00426873,0.822401,0.00312782,0.0112529,1868,1443,10.0152,-5.22857
651,-419,10.0367,5.0509,0.000253995,-0.00104169,0.00115794,0.000933002,-0.00172069,0.530353,0.00155445,0.0109892,1875,1443,10.0367,-5.05087
658,-419,10.0219,4.87268,0.00195233,-0.00131743,0.000741574,0.00211265,-0.00147776,0.21292,0.0020837,0.0129587,1882,1443,10.0218,-4.87273
665,-419,10.0037,4.69824,0.003127,-0.00188283,0.000865977,0.00327247,-0.0020283,0.166424,0.00308837,0.0200226,1889,1443,10.0037,-4.69829
672,-419,10.0365,4.46436,0.00357962,-0.00311424,0.00165817,0.00396786,-0.00350247,0.229993,0.00431579,0.0251385,1896,1443,10.0365,-4.46439
679,-419,9.99597,4.50916,0.00398441,-0.00532077,0.00279594,0.00475989,-0.00609625,0.270556,0.0062836,0.0417276,1903,1443,9.99603,-4.50918
686,-419,9.86914,4.71375,0,0,0,0,0,0,0,-1,1910,1443,9.86917,-4.71378
693,-419,7.70715,3.61829,0,0,0,0,0,0,0,-1,1917,1443,7.70713,-3.6183
700,-419,7.0708,0.878418,0,0,0,0,0,0,0,-1,1924,1443,7.07081,-0.878367
707,-419,7.2489,-0.116699,0,0,0,0,0,0,0,-1,1931,1443,7.24884,0.116719
714,-419,5.77576,-1.25061,0,0,0,0,0,0,0,-1,1938,1443,5.7757,1.25056
721,-419,0,0,0,0,0,0,0,0,0,-1,1945,1443,0,0
728,-419,0,0,0,0,0,0,0,0,0,-1,1952,1443,0,0
735,-419,0,0,0,0,0,0,0,0,0,-1,1959,1443,0,0
742,-419,0,0,0,0,0,0,0,0,0,-1,1966,1443,0,0
749,-419,0,0,0,0,0,0,0,0,0,-1,1973,1443,0,0
756,-419,0,0,0,0,0,0,0,0,0,-1,1980,1443,0,0
763,-419,0,0,0,0,0,0,0,0,0,-1,1987,1443,0,0
770,-419,0,0,0,0,0,0,0,0,0,-1,1994,1443,0,0
777,-419,0,0,0,0,0,0,0,0,0,-1,2001,1443,0,0
784,-419,0,0,0,0,0,0,0,0,0,-1,2008,1443,0,0
791,-419,0,0,0,0,0,0,0,0,0,-1,2015,1443,0,0
798,-419,0,0,0,0,0,0,0,0,0,-1,2022,1443,0,0
805,-419,0,0,0,0,0,0,0,0,0,-1,2029,1443,0,0
812,-419,0,0,0,0,0,0,0,0,0,-1,2036,1443,0,0
-700,-426,0,0,0,0,0,0,0,0,0,-1,524,1450,0,0
-693,-426,0,0,0,0,0,0,0,0,0,-1,531,1450,0,0
-686,-426,0,0,0,0,0,0,0,0,0,-1,538,1450,0,0
-679,-426,0,0,0,0,0,0,0,0,0,-1,545,1450,0,0
-672,-426,0,0,0,0,0,0,0,0,0,-1,552,1450,0,0
-665,-426,0,0,0,0,0,0,0,0,0,-1,559,1450,0,0
-658,-426,0,0,0,0,0,0,0,0,0,-1,566,1450,0,0
-651,-426,0,0,0,0,0,0,0,0,0,-1,573,1450,0,0
-644,-426,0,0,0,0,0,0,0,0,0,-1,580,1450,0,0
-637,-426,0,0,0,0,0,0,0,0,0,-1,587,1450,0,0
-630,-426,0,0,0,0,0,0,0,0,0,-1,594,1450,0,0
-623,-426,0,0,0,0,0,0,0,0,0,-1,601,1450,0,0
-616,-426,0,0,0,0,0,0,0,0,0,-1,608,1450,0,0
-609,-426,0,0,0,0,0,0,0,0,0,-1,615,1450,0,0
-602,-426,0,0,0,0,0,0,0,0,0,-1,622,1450,0,0
-595,-426,0,0,0,0,0,0,0,0,0,-1,629,1450,0,0
-588,-426,-4.39026,0.156494,0,0,0,0,0,0,0,-1,636,1450,-4.39027,-0.156543
-581,-426,-3.61182,1.14502,0,0,0,0,0,0,0,-1,643,1450,-3.61184,-1.14503
-574,-426,-3.31049,1.22742,0,0,0,0,0,0,0,-1,650,1450,-3.3105,-1.22744
-567,-426,-3.05371,0.355713,0,0,0,0,0,0,0,-1,657,1450,-3.05372,-0.355692
-560,-426,-1.84064,0.874756,0,0,0,0,0,0,0,-1,664,1450,-1.84062,-0.874725
-553,-426,-1.62836,1.96716,0,0,0,0,0,0,0,-1,671,1450,-1.62836,-1.96718
-546,-426,-2.50885,2.8623,0.000612974,0.0196297,0.0361381,0.0474894,-0.0272467,0.914038,0.0436733,0.0462829,678,1450,-2.50884,-2.86231
-539,-426,-2.63995,2.98596,0.000392412,0.0125852,0.025824,0.0330226,-0.020045,0.901314,0.0309425,0.0379629,685,1450,-2.63994,-2.98595
-532,-426,-2.59406,2.95276,0.000958089,0.00744659,0.0186182,0.0231011,-0.0146964,0.871658,0.0220015,0.0229706,692,1450,-2.59404,-2.95271
-525,-426,-2.63928,3.13428,0.00150129,0.00462071,0.0135943,0.0167445,-0.0106225,0.842515,0.0159316,0.0129673,699,1450,-2.63929,-3.13427
-518,-426,-2.61877,3.33142,0.00167511,0.00253719,0.00950835,0.0116243,-0.00741197,0.808049,0.0110799,0.0144367,706,1450,-2.61879,-3.33137
-511,-426,-2.61145,3.5293,0.00154624,0.000973436,0.00617662,0.0074431,-0.00492342,0.76223,0.00718904,0.0137901,713,1450,-2.61145,-3.52935
-504,-426,-2.63611,3.69922,0.000989079,-0.000605541,0.00322746,0.00351625,-0.00313271,0.664303,0.00384091,0.0142876,720,1450,-2.63609,-3.6992
-497,-426,-2.6286,3.87463,0.000173609,-0.00178239,0.000605976,0.000346127,-0.00195491,0.277356,0.00143265,0.0114873,727,1450,-2.62862,-3.87463
-490,-426,-2.62677,4.06799,-0.000790458,-0.00257377,-0.00189666,0.000413685,-0.00377792,-0.565669,0.00266722,0.0114188,734,1450,-2.62678,-4.06801
-483,-426,-2.63293,4.26416,-0.00200627,-0.00388672,-0.00397573,0.00113891,-0.00703189,-0.669286,0.00511004,0.0115361,741,1450,-2.63295,-4.26422
-476,-426,-2.64325,4.46057,-0.00365602,-0.00533759,-0.00612561,0.00168624,-0.0106799,-0.717195,0.00774343,0.00974245,748,1450,-2.64322,-4.46058
-469,-426,-2.63794,4.64038,-0.00523402,-0.00724173,-0.00856822,0.00238896,-0.0148647,-0.727084,0.0107946,0.0080135,755,1450,-2.63793,-4.6404
-462,-426,-2.56372,4.83545,-0.00693923,-0.0095818,-0.0114612,0.00327664,-0.0197977,-0.72801,0.0144153,0.0154181,762,1450,-2.56372,-4.83547
-455,-426,-2.59686,4.86206,-0.00890348,-0.0125189,-0.01524,0.00463568,-0.026058,-0.726367,0.0191056,0.0295298,769,1450,-2.59684,-4.86205
-448,-426,-2.92603,4.81274,-0.0109843,-0.0163745,-0.0200382,0.00653918,-0.033898,-0.71855,0.0250644,0.041749,776,1450,-2.926,-4.81272
-441,-426,-3.87836,4.38867,0,0,0,0,0,0,0,-1,783,1450,-3.87836,-4.38872
-434,-426,-3.85193,3.98352,0,0,0,0,0,0,0,-1,790,1450,-3.8519,-3.98357
-427,-426,-3.36755,3.63513,0,0,0,0,0,0,0,-1,797,1450,-3.36756,-3.63516
-420,-426,-1.99292,4.35583,0,0,0,0,0,0,0,-1,804,1450,-1.99295,-4.35581
-413,-426,-2.52618,5.23474,0,0,0,0,0,0,0,-1,811,1450,-2.52618,-5.23472
-406,-426,-8.35974,1.43652,0,0,0,0,0,0,0,-1,818,1450,-8.35976,-1.43654
-399,-426,-8.65973,1.44946,0,0,0,0,0,0,0,-1,825,1450,-8.65974,-1.44951
-392,-426,-7.24072,0.395386,0,0,0,0,0,0,0,-1,832,1450,-7.24074,-0.395387
-385,-426,0,0,0,0,0,0,0,0,0,-1,839,1450,0,0
-378,-426,0,0,0,0,0,0,0,0,0,-1,846,1450,0,0
-371,-426,0,0,0,0,0,0,0,0,0,-1,853,1450,0,0
-364,-426,0,0,0,0,0,0,0,0,0,-1,860,1450,0,0
-357,-426,0,0,0,0,0,0,0,0,0,-1,867,1450,0,0
-350,-426,0,0,0,0,0,0,0,0,0,-1,874,1450,0,0
-343,-426,0,0,0,0,0,0,0,0,0,-1,881,1450,0,0
-336,-426,0,0,0,0,0,0,0,0,0,-1,888,1450,0,0
-329,-426,0,0,0,0,0,0,0,0,0,-1,895,1450,0,0
-322,-426,0,0,0,0,0,0,0,0,0,-1,902,1450,0,0
-315,-426,0,0,0,0,0,0,0,0,0,-1,909,1450,0,0
-308,-426,0,0,0,0,0,0,0,0,0,-1,916,1450,0,0
-301,-426,0,0,0,0,0,0,0,0,0,-1,923,1450,0,0
-294,-426,0,0,0,0,0,0,0,0,0,-1,930,1450,0,0
-287,-426,0,0,0,0,0,0,0,0,0,-1,937,1450,0,0
-280,-426,0,0,0,0,0,0,0,0,0,-1,944,1450,0,0
-273,-426,0,0,0,0,0,0,0,0,0,-1,951,1450,0,0
-266,-426,0,0,0,0,0,0,0,0,0,-1,958,1450,0,0
-259,-426,0,0,0,0,0,0,0,0,0,-1,965,1450,0,0
-252,-426,0,0,0,0,0,0,0,0,0,-1,972,1450,0,0
-245,-426,0,0,0,0,0,0,0,0,0,-1,979,1450,0,0
-238,-426,0,0,0,0,0,0,0,0,0,-1,986,1450,0,0
-231,-426,0,0,0,0,0,0,0,0,0,-1,993,1450,0,0
-224,-426,0,0,0,0,0,0,0,0,0,-1,1000,1450,0,0
-217,-426,0,0,0,0,0,0,0,0,0,-1,1007,1450,0,0
-210,-426,0,0,0,0,0,0,0,0,0,-1,1014,1450,0,0
-203,-426,0,0,0,0,0,0,0,0,0,-1,1021,1450,0,0
-196,-426,0,0,0,0,0,0,0,0,0,-1,1028,1450,0,0
-189,-426,0,0,0,0,0,0,0,0,0,-1,1035,1450,0,0
-182,-426,0,0,0,0,0,0,0,0,0,-1,1042,1450,0,0
-175,-426,0,0,0,0,0,0,0,0,0,-1,1049,1450,0,0
-168,-426,0,0,0,0,0,0,0,0,0,-1,1056,1450,0,0
-161,-426,0,0,0,0,0,0,0,0,0,-1,1063,1450,0,0
-154,-426,0,0,0,0,0,0,0,0,0,-1,1070,1450,0,0
-147,-426,0,0,0,0,0,0,0,0,0,-1,1077,1450,0,0
-140,-426,0,0,0,0,0,0,0,0,0,-1,1084,1450,0,0
-133,-426,0,0,0,0,0,0,0,0,0,-1,1091,1450,0,0
-126,-426,0,0,0,0,0,0,0,0,0,-1,1098,1450,0,0
-119,-426,0,0,0,0,0,0,0,0,0,-1,1105,1450,0,0
-112,-426,0,0,0,0,0,0,0,0,0,-1,1112,1450,0,0
-105,-426,0,0,0,0,0,0,0,0,0,-1,1119,1450,0,0
-98,-426,0,0,0,0,0,0,0,0,0,-1,1126,1450,0,0
-91,-426,0,0,0,0,0,0,0,0,0,-1,1133,1450,0,0
-84,-426,0,0,0,0,0,0,0,0,0,-1,1140,1450,0,0
-77,-426,0,0,0,0,0,0,0,0,0,-1,1147,1450,0,0
-70,-426,0,0,0,0,0,0,0,0,0,-1,1154,1450,0,0
-63,-426,0,0,0,0,0,0,0,0,0,-1,1161,1450,0,0
-56,-426,0,0,0,0,0,0,0,0,0,-1,1168,1450,0,0
-49,-426,0,0,0,0,0,0,0,0,0,-1,1175,1450,0,0
-42,-426,0,0,0,0,0,0,0,0,0,-1,1182,1450,0,0
-35,-426,0,0,0,0,0,0,0,0,0,-1,1189,1450,0,0
-28,-426,0,0,0,0,0,0,0,0,0,-1,1196,1450,0,0
-21,-426,0,0,0,0,0,0,0,0,0,-1,1203,1450,0,0
-14,-426,0,0,0,0,0,0,0,0,0,-1,1210,1450,0,0
-7,-426,0,0,0,0,0,0,0,0,0,-1,1217,1450,0,0
0,-426,0,0,0,0,0,0,0,0,0,-1,1224,1450,0,0
7,-426,0,0,0,0,0,0,0,0,0,-1,1231,1450,0,0
14,-426,0,0,0,0,0,0,0,0,0,-1,1238,1450,0,0
21,-426,0,0,0,0,0,0,0,0,0,-1,1245,1450,0,0
28,-426,0,0,0,0,0,0,0,0,0,-1,1252,1450,0,0
35,-426,0,0,0,0,0,0,0,0,0,-1,1259,1450,0,0
42,-426,0,0,0,0,0,0,0,0,0,-1,1266,1450,0,0
49,-426,0,0,0,0,0,0,0,0,0,-1,1273,1450,0,0
56,-426,0,0,0,0,0,0,0,0,0,-1,1280,1450,0,0
63,-426,0,0,0,0,0,0,0,0,0,-1,1287,1450,0,0
70,-426,0,0,0,0,0,0,0,0,0,-1,1294,1450,0,0
77,-426,0,0,0,0,0,0,0,0,0,-1,1301,1450,0,0
84,-426,0,0,0,0,0,0,0,0,0,-1,1308,1450,0,0
91,-426,0,0,0,0,0,0,0,0,0,-1,1315,1450,0,0
98,-426,0,0,0,0,0,0,0,0,0,-1,1322,1450,0,0
105,-426,0,0,0,0,0,0,0,0,0,-1,1329,1450,0,0
112,-426,0,0,0,0,0,0,0,0,0,-1,1336,1450,0,0
119,-426,0,0,0,0,0,0,0,0,0,-1,1343,1450,0,0
126,-426,0,0,0,0,0,0,0,0,0,-1,1350,1450,0,0
133,-426,0,0,0,0,0,0,0,0,0,-1,1357,1450,0,0
140,-426,0,0,0,0,0,0,0,0,0,-1,1364,1450,0,0
147,-426,0,0,0,0,0,0,0,0,0,-1,1371,1450,0,0
154,-426,0,0,0,0,0,0,0,0,0,-1,1378,1450,0,0
161,-426,0,0,0,0,0,0,0,0,0,-1,1385,1450,0,0
168,-426,0,0,0,0,0,0,0,0,0,-1,1392,1450,0,0
175,-426,0,0,0,0,0,0,0,0,0,-1,1399,1450,0,0
182,-426,0,0,0,0,0,0,0,0,0,-1,1406,1450,0,0
189,-426,0,0,0,0,0,0,0,0,0,-1,1413,1450,0,0
196,-426,0,0,0,0,0,0,0,0,0,-1,1420,1450,0,0
203,-426,0,0,0,0,0,0,0,0,0,-1,1427,1450,0,0
210,-426,0,0,0,0,0,0,0,0,0,-1,1434,1450,0,0
217,-426,0,0,0,0,0,0,0,0,0,-1,1441,1450,0,0
224,-426,0,0,0,0,0,0,0,0,0,-1,1448,1450,0,0
231,-426,0,0,0,0,0,0,0,0,0,-1,1455,1450,0,0
238,-426,0,0,0,0,0,0,0,0,0,-1,1462,1450,0,0
245,-426,0,0,0,0,0,0,0,0,0,-1,1469,1450,0,0
252,-426,0,0,0,0,0,0,0,0,0,-1,1476,1450,0,0
259,-426,0,0,0,0,0,0,0,0,0,-1,1483,1450,0,0
266,-426,0,0,0,0,0,0,0,0,0,-1,1490,1450,0,0
273,-426,0,0,0,0,0,0,0,0,0,-1,1497,1450,0,0
280,-426,0,0,0,0,0,0,0,0,0,-1,1504,1450,0,0
287,-426,0,0,0,0,0,0,0,0,0,-1,1511,1450,0,0
294,-426,0,0,0,0,0,0,0,0,0,-1,1518,1450,0,0
301,-426,0,0,0,0,0,0,0,0,0,-1,1525,1450,0,0
308,-426,0,0,0,0,0,0,0,0,0,-1,1532,1450,0,0
315,-426,0,0,0,0,0,0,0,0,0,-1,1539,1450,0,0
322,-426,0,0,0,0,0,0,0,0,0,-1,1546,1450,0,0
329,-426,0,0,0,0,0,0,0,0,0,-1,1553,1450,0,0
336,-426,0,0,0,0,0,0,0,0,0,-1,1560,1450,0,0
343,-426,0,0,0,0,0,0,0,0,0,-1,1567,1450,0,0
350,-426,0,0,0,0,0,0,0,0,0,-1,1574,1450,0,0
357,-426,0,0,0,0,0,0,0,0,0,-1,1581,1450,0,0
364,-426,0,0,0,0,0,0,0,0,0,-1,1588,1450,0,0
371,-426,0,0,0,0,0,0,0,0,0,-1,1595,1450,0,0
378,-426,0,0,0,0,0,0,0,0,0,-1,1602,1450,0,0
385,-426,0,0,0,0,0,0,0,0,0,-1,1609,1450,0,0
392,-426,0,0,0,0,0,0,0,0,0,-1,1616,1450,0,0
399,-426,0,0,0,0,0,0,0,0,0,-1,1623,1450,0,0
406,-426,0,0,0,0,0,0,0,0,0,-1,1630,1450,0,0
413,-426,0,0,0,0,0,0,0,0,0,-1,1637,1450,0,0
420,-426,0,0,0,0,0,0,0,0,0,-1,1644,1450,0,0
427,-426,0,0,0,0,0,0,0,0,0,-1,1651,1450,0,0
434,-426,0,0,0,0,0,0,0,0,0,-1,1658,1450,0,0
441,-426,0,0,0,0,0,0,0,0,0,-1,1665,1450,0,0
448,-426,0,0,0,0,0,0,0,0,0,-1,1672,1450,0,0
455,-426,0,0,0,0,0,0,0,0,0,-1,1679,1450,0,0
462,-426,0,0,0,0,0,0,0,0,0,-1,1686,1450,0,0
469,-426,0,0,0,0,0,0,0,0,0,-1,1693,1450,0,0
476,-426,0,0,0,0,0,0,0,0,0,-1,1700,1450,0,0
483,-426,0,0,0,0,0,0,0,0,0,-1,1707,1450,0,0
490,-426,0,0,0,0,0,0,0,0,0,-1,1714,1450,0,0
497,-426,0,0,0,0,0,0,0,0,0,-1,1721,1450,0,0
504,-426,11.2445,1.75195,0,0,0,0,0,0,0,-1,1728,1450,11.2445,-1.75193
511,-426,10.9731,1.4895,0,0,0,0,0,0,0,-1,1735,1450,10.9732,-1.48954
518,-426,10.746,0.292603,0,0,0,0,0,0,0,-1,1742,1450,10.746,-0.29259
525,-426,11.4308,1.75842,0,0,0,0,0,0,0,-1,1749,1450,11.4308,-1.75838
532,-426,12.8932,3.41626,0,0,0,0,0,0,0,-1,1756,1450,12.8932,-3.41621
539,-426,13.1987,3.1897,0,0,0,0,0,0,0,-1,1763,1450,13.1987,-3.18973
546,-426,13.261,3.38745,0,0,0,0,0,0,0,-1,1770,1450,13.261,-3.38748
553,-426,12.5996,7.43384,0,0,0,0,0,0,0,-1,1777,1450,12.5996,-7.43381
560,-426,11.5884,6.95703,-0.0219427,-0.0317829,0.0404728,0.0139079,-0.0676336,0.724912,0.0503692,0.0484452,1784,1450,11.5883,-6.95709
567,-426,10.7129,6.2395,0,0,0,0,0,0,0,-1,1791,1450,10.7129,-6.23949
574,-426,9.50073,4.71997,0,0,0,0,0,0,0,-1,1798,1450,9.50073,-4.71996
581,-426,9.66431,5.30652,0,0,0,0,0,0,0,-1,1805,1450,9.66426,-5.30655
588,-426,9.7981,5.91382,0,0,0,0,0,0,0,-1,1812,1450,9.79804,-5.91385
595,-426,9.85425,6.30664,-0.0174701,-0.0170658,0.0277908,0.0105236,-0.0450594,0.789035,0.0340932,0.0247619,1819,1450,9.85427,-6.30669
602,-426,9.86328,6.14429,-0.0157125,-0.0136533,0.0228335,0.00817379,-0.0375396,0.807929,0.0281494,0.0147666,1826,1450,9.86333,-6.14431
609,-426,9.85132,5.99011,-0.0129781,-0.0106199,0.018271,0.00651007,-0.030108,0.81762,0.0225574,0.0117969,1833,1450,9.85135,-5.99012
616,-426,9.85938,5.85132,-0.0104422,-0.00853088,0.0141994,0.00474502,-0.0237181,0.818999,0.0176082,0.0129424,1840,1450,9.85936,-5.85135
623,-426,9.87488,5.68555,-0.00778133,-0.00551655,0.00971398,0.00313082,-0.0164287,0.843423,0.0121315,0.0107349,1847,1450,9.87486,-5.68549
630,-426,9.87415,5.5166,-0.00519119,-0.00348676,0.00610171,0.00182196,-0.0104999,0.854783,0.00767965,0.0114243,1854,1450,9.87419,-5.51654
637,-426,9.87109,5.35181,-0.00270482,-0.00183374,0.00323918,0.000999046,-0.00553761,0.852227,0.00406588,0.0119204,1861,1450,9.87108,-5.35184
644,-426,9.84387,5.21875,-0.000355224,-0.00104775,0.00150255,0.000840448,-0.00224342,0.67215,0.00184087,0.0116888,1868,1450,9.84386,-5.2188
651,-426,9.83813,5.05298,0.00151269,-0.000793695,0.000577487,0.0016492,-0.00093021,0.232133,0.00150839,0.0118358,1875,1450,9.83815,-5.05298
658,-426,9.85547,4.84827,0.00297356,-0.00122659,0.000406066,0.00301246,-0.00126548,0.0955006,0.00253759,0.0118928,1882,1450,9.85552,-4.84828
665,-426,9.89099,4.63464,0.00390391,-0.00202954,0.000824881,0.00401646,-0.00214208,0.135597,0.00361011,0.0177271,1889,1450,9.89099,-4.6347
672,-426,9.90955,4.47839,0.00423283,-0.00350684,0.00189868,0.00467352,-0.00394753,0.228064,0.00498325,0.0291656,1896,1450,9.90954,-4.47836
679,-426,9.97961,4.65894,0,0,0,0,0,0,0,-1,1903,1450,9.97967,-4.65895
686,-426,9.50549,4.57715,0,0,0,0,0,0,0,-1,1910,1450,9.50545,-4.57712
693,-426,9.31238,4.44482,0,0,0,0,0,0,0,-1,1917,1450,9.31234,-4.44481
700,-426,7.23096,-0.289307,0,0,0,0,0,0,0,-1,1924,1450,7.23101,0.289246
707,-426,8.44519,-1.21448,0,0,0,0,0,0,0,-1,1931,1450,8.44514,1.21454
714,-426,0,0,0,0,0,0,0,0,0,-1,1938,1450,0,0
721,-426,0,0,0,0,0,0,0,0,0,-1,1945,1450,0,0
728,-426,0,0,0,0,0,0,0,0,0,-1,1952,1450,0,0
735,-426,0,0,0,0,0,0,0,0,0,-1,1959,1450,0,0
742,-426,0,0,0,0,0,0,0,0,0,-1,1966,1450,0,0
749,-426,0,0,0,0,0,0,0,0,0,-1,1973,1450,0,0
756,-426,0,0,0,0,0,0,0,0,0,-1,1980,1450,0,0
763,-426,0,0,0,0,0,0,0,0,0,-1,1987,1450,0,0
770,-426,0,0,0,0,0,0,0,0,0,-1,1994,1450,0,0
777,-426,0,0,0,0,0,0,0,0,0,-1,2001,1450,0,0
784,-426,0,0,0,0,0,0,0,0,0,-1,2008,1450,0,0
791,-426,0,0,0,0,0,0,0,0,0,-1,2015,1450,0,0
798,-426,0,0,0,0,0,0,0,0,0,-1,2022,1450,0,0
805,-426,0,0,0,0,0,0,0,0,0,-1,2029,1450,0,0
812,-426,0,0,0,0,0,0,0,0,0,-1,2036,1450,0,0
-700,-433,0,0,0,0,0,0,0,0,0,-1,524,1457,0,0
-693,-433,0,0,0,0,0,0,0,0,0,-1,531,1457,0,0
-686,-433,0,0,0,0,0,0,0,0,0,-1,538,1457,0,0
-679,-433,0,0,0,0,0,0,0,0,0,-1,545,1457,0,0
-672,-433,0,0,0,0,0,0,0,0,0,-1,552,1457,0,0
-665,-433,0,0,0,0,0,0,0,0,0,-1,559,1457,0,0
-658,-433,0,0,0,0,0,0,0,0,0,-1,566,1457,0,0
-651,-433,0,0,0,0,0,0,0,0,0,-1,573,1457,0,0
-644,-433,0,0,0,0,0,0,0,0,0,-1,580,1457,0,0
-637,-433,0,0,0,0,0,0,0,0,0,-1,587,1457,0,0
-630,-433,0,0,0,0,0,0,0,0,0,-1,594,1457,0,0
-623,-433,0,0,0,0,0,0,0,0,0,-1,601,1457,0,0
-616,-433,0,0,0,0,0,0,0,0,0,-1,608,1457,0,0
-609,-433,0,0,0,0,0,0,0,0,0,-1,615,1457,0,0
-602,-433,0,0,0,0,0,0,0,0,0,-1,622,1457,0,0
-595,-433,0,0,0,0,0,0,0,0,0,-1,629,1457,0,0
-588,-433,-4.99121,-0.205688,0,0,0,0,0,0,0,-1,636,1457,-4.99119,0.205667
-581,-433,-5.03912,0.544922,0,0,0,0,0,0,0,-1,643,1457,-5.0391,-0.54497
-574,-433,-3.95532,-1.26086,0,0,0,0,0,0,0,-1,650,1457,-3.95533,1.26081
-567,-433,-3.70428,-0.120483,0,0,0,0,0,0,0,-1,657,1457,-3.70431,0.120527
-560,-433,-3.6568,0.948486,0,0,0,0,0,0,0,-1,664,1457,-3.65681,-0.948504
-553,-433,-3.1521,2.15991,0,0,0,0,0,0,0,-1,671,1457,-3.15211,-2.15991
-546,-433,-3.42261,2.73096,0.00386023,0.0207339,0.0447762,0.0578612,-0.033267,0.878518,0.0532478,0.0473186,678,1457,-3.42263,-2.73095
-539,-433,-2.79962,3.08081,0.00322348,0.0131357,0.0326994,0.0412524,-0.0248932,0.860609,0.0385766,0.0447278,685,1457,-2.79962,-3.08075
-532,-433,-2.34979,2.92859,0.00326421,0.00765897,0.023818,0.0293807,-0.0184576,0.831397,0.0278584,0.0280465,692,1457,-2.34981,-2.92861
-525,-433,-2.4231,3.14075,0.0033176,0.00465671,0.0173907,0.0213908,-0.0134165,0.804639,0.020271,0.0162705,699,1457,-2.42308,-3.1408
-518,-433,-2.43488,3.3219,0.00310569,0.00256217,0.0122877,0.0151247,-0.00945682,0.774342,0.0143173,0.0155673,706,1457,-2.43486,-3.32194
-511,-433,-2.44,3.52808,0.002707,0.00110552,0.00829075,0.0102356,-0.00642307,0.737256,0.00970148,0.0160906,713,1457,-2.44003,-3.52813
-504,-433,-2.43488,3.69922,0.00201721,-0.000374402,0.00488645,0.00585205,-0.00420924,0.665397,0.00583464,0.0125461,720,1457,-2.4349,-3.69924
-497,-433,-2.42395,3.86267,0.0012049,-0.0013857,0.0020277,0.00231571,-0.00249651,0.501167,0.00277899,0.0123226,727,1457,-2.42395,-3.86265
-490,-433,-2.44214,4.0636,0.000316739,-0.00199342,-0.000599842,0.000463205,-0.00213988,-0.239487,0.00160345,0.0136382,734,1457,-2.44213,-4.06361
-483,-433,-2.46259,4.29224,-0.000758637,-0.0030363,-0.00252573,0.000873137,-0.00466808,-0.5736,0.00344023,0.0146992,741,1457,-2.46257,-4.2922
-476,-433,-2.43732,4.4873,-0.00219742,-0.00416296,-0.00448657,0.00141275,-0.00777313,-0.677577,0.00571155,0.010701,748,1457,-2.43734,-4.4873
-469,-433,-2.42297,4.65796,-0.00335063,-0.00581959,-0.00657274,0.00210255,-0.0112728,-0.69257,0.00830522,0.0108472,755,1457,-2.42298,-4.65795
-462,-433,-2.43512,4.83154,-0.00444243,-0.00786293,-0.00892407,0.0029338,-0.0152392,-0.690724,0.0112654,0.010067,762,1457,-2.43511,-4.83148
-455,-433,-2.33008,5.03003,-0.00558732,-0.0104171,-0.0119274,0.0041672,-0.0201716,-0.685516,0.0150306,0.0207955,769,1457,-2.33009,-5.03008
-448,-433,-2.43707,5.0321,-0.00652617,-0.0139062,-0.0157176,0.00592871,-0.0263611,-0.670101,0.0198477,0.0335619,776,1457,-2.43705,-5.03216
-441,-433,-2.60449,5.12402,-0.00736917,-0.0178571,-0.0201313,0.00818997,-0.0334163,-0.657985,0.0254506,0.0411047,783,1457,-2.60451,-5.12403
-434,-433,-2.84808,4.37463,-0.00794363,-0.022702,-0.0253909,0.0111187,-0.0417643,-0.643982,0.0321955,0.0408211,790,1457,-2.84807,-4.37465
-427,-433,-2.64319,4.34253,0,0,0,0,0,0,0,-1,797,1457,-2.64316,-4.34249
-420,-433,-2.4986,4.3313,0,0,0,0,0,0,0,-1,804,1457,-2.4986,-4.33128
-413,-433,-1.53833,4.20422,0,0,0,0,0,0,0,-1,811,1457,-1.53834,-4.20424
-406,-433,-6.19287,2.67285,0,0,0,0,0,0,0,-1,818,1457,-6.1929,-2.67286
-399,-433,-6.95508,1.86853,0,0,0,0,0,0,0,-1,825,1457,-6.95506,-1.86848
-392,-433,-7.32813,1.44543,0,0,0,0,0,0,0,-1,832,1457,-7.3281,-1.44546
-385,-433,-1.65833,1.2821,0,0,0,0,0,0,0,-1,839,1457,-1.65834,-1.28209
-378,-433,0,0,0,0,0,0,0,0,0,-1,846,1457,0,0
-371,-433,0,0,0,0,0,0,0,0,0,-1,853,1457,0,0
-364,-433,0,0,0,0,0,0,0,0,0,-1,860,1457,0,0
-357,-433,0,0,0,0,0,0,0,0,0,-1,867,1457,0,0
-350,-433,0,0,0,0,0,0,0,0,0,-1,874,1457,0,0
-343,-433,0,0,0,0,0,0,0,0,0,-1,881,1457,0,0
-336,-433,0,0,0,0,0,0,0,0,0,-1,888,1457,0,0
-329,-433,0,0,0,0,0,0,0,0,0,-1,895,1457,0,0
-322,-433,0,0,0,0,0,0,0,0,0,-1,902,1457,0,0
-315,-433,0,0,0,0,0,0,0,0,0,-1,909,1457,0,0
-308,-433,0,0,0,0,0,0,0,0,0,-1,916,1457,0,0
-301,-433,0,0,0,0,0,0,0,0,0,-1,923,1457,0,0
-294,-433,0,0,0,0,0,0,0,0,0,-1,930,1457,0,0
-287,-433,0,0,0,0,0,0,0,0,0,-1,937,1457,0,0
-280,-433,0,0,0,0,0,0,0,0,0,-1,944,1457,0,0
-273,-433,0,0,0,0,0,0,0,0,0,-1,951,1457,0,0
-266,-433,0,0,0,0,0,0,0,0,0,-1,958,1457,0,0
-259,-433,0,0,0,0,0,0,0,0,0,-1,965,1457,0,0
-252,-433,0,0,0,0,0,0,0,0,0,-1,972,1457,0,0
-245,-433,0,0,0,0,0,0,0,0,0,-1,979,1457,0,0
-238,-433,0,0,0,0,0,0,0,0,0,-1,986,1457,0,0
-231,-433,0,0,0,0,0,0,0,0,0,-1,993,1457,0,0
-224,-433,0,0,0,0,0,0,0,0,0,-1,1000,1457,0,0
-217,-433,0,0,0,0,0,0,0,0,0,-1,1007,1457,0,0
-210,-433,0,0,0,0,0,0,0,0,0,-1,1014,1457,0,0
-203,-433,0,0,0,0,0,0,0,0,0,-1,1021,1457,0,0
-196,-433,0,0,0,0,0,0,0,0,0,-1,1028,1457,0,0
-189,-433,0,0,0,0,0,0,0,0,0,-1,1035,1457,0,0
-182,-433,0,0,0,0,0,0,0,0,0,-1,1042,1457,0,0
-175,-433,0,0,0,0,0,0,0,0,0,-1,1049,1457,0,0
-168,-433,0,0,0,0,0,0,0,0,0,-1,1056,1457,0,0
-161,-433,0,0,0,0,0,0,0,0,0,-1,1063,1457,0,0
-154,-433,0,0,0,0,0,0,0,0,0,-1,1070,1457,0,0
-147,-433,0,0,0,0,0,0,0,0,0,-1,1077,1457,0,0
-140,-433,0,0,0,0,0,0,0,0,0,-1,1084,1457,0,0
-133,-433,0,0,0,0,0,0,0,0,0,-1,1091,1457,0,0
-126,-433,0,0,0,0,0,0,0,0,0,-1,1098,1457,0,0
-119,-433,0,0,0,0,0,0,0,0,0,-1,1105,1457,0,0
-112,-433,0,0,0,0,0,0,0,0,0,-1,1112,1457,0,0
-105,-433,0,0,0,0,0,0,0,0,0,-1,1119,1457,0,0
-98,-433,0,0,0,0,0,0,0,0,0,-1,1126,1457,0,0
-91,-433,0,0,0,0,0,0,0,0,0,-1,1133,1457,0,0
-84,-433,0,0,0,0,0,0,0,0,0,-1,1140,1457,0,0
-77,-433,0,0,0,0,0,0,0,0,0,-1,1147,1457,0,0
-70,-433,0,0,0,0,0,0,0,0,0,-1,1154,1457,0,0
-63,-433,0,0,0,0,0,0,0,0,0,-1,1161,1457,0,0
-56,-433,0,0,0,0,0,0,0,0,0,-1,1168,1457,0,0
-49,-433,0,0,0,0,0,0,0,0,0,-1,1175,1457,0,0
-42,-433,0,0,0,0,0,0,0,0,0,-1,1182,1457,0,0
-35,-433,0,0,0,0,0,0,0,0,0,-1,1189,1457,0,0
-28,-433,0,0,0,0,0,0,0,0,0,-1,1196,1457,0,0
-21,-433,0,0,0,0,0,0,0,0,0,-1,1203,1457,0,0
-14,-433,0,0,0,0,0,0,0,0,0,-1,1210,1457,0,0
-7,-433,0,0,0,0,0,0,0,0,0,-1,1217,1457,0,0
0,-433,0,0,0,0,0,0,0,0,0,-1,1224,1457,0,0
7,-433,0,0,0,0,0,0,0,0,0,-1,1231,1457,0,0
14,-433,0,0,0,0,0,0,0,0,0,-1,1238,1457,0,0
21,-433,0,0,0,0,0,0,0,0,0,-1,1245,1457,0,0
28,-433,0,0,0,0,0,0,0,0,0,-1,1252,1457,0,0
35,-433,0,0,0,0,0,0,0,0,0,-1,1259,1457,0,0
42,-433,0,0,0,0,0,0,0,0,0,-1,1266,1457,0,0
49,-433,0,0,0,0,0,0,0,0,0,-1,1273,1457,0,0
56,-433,0,0,0,0,0,0,0,0,0,-1,1280,1457,0,0
63,-433,0,0,0,0,0,0,0,0,0,-1,1287,1457,0,0
70,-433,0,0,0,0,0,0,0,0,0,-1,1294,1457,0,0
77,-433,0,0,0,0,0,0,0,0,0,-1,1301,1457,0,0
84,-433,0,0,0,0,0,0,0,0,0,-1,1308,1457,0,0
91,-433,0,0,0,0,0,0,0,0,0,-1,1315,1457,0,0
98,-433,0,0,0,0,0,0,0,0,0,-1,1322,1457,0,0
105,-433,0,0,0,0,0,0,0,0,0,-1,1329,1457,0,0
112,-433,0,0,0,0,0,0,0,0,0,-1,1336,1457,0,0
119,-433,0,0,0,0,0,0,0,0,0,-1,1343,1457,0,0
126,-433,0,0,0,0,0,0,0,0,0,-1,1350,1457,0,0
133,-433,0,0,0,0,0,0,0,0,0,-1,1357,1457,0,0
140,-433,0,0,0,0,0,0,0,0,0,-1,1364,1457,0,0
147,-433,0,0,0,0,0,0,0,0,0,-1,1371,1457,0,0
154,-433,0,0,0,0,0,0,0,0,0,-1,1378,1457,0,0
161,-433,0,0,0,0,0,0,0,0,0,-1,1385,1457,0,0
168,-433,0,0,0,0,0,0,0,0,0,-1,1392,1457,0,0
175,-433,0,0,0,0,0,0,0,0,0,-1,1399,1457,0,0
182,-433,0,0,0,0,0,0,0,0,0,-1,1406,1457,0,0
189,-433,0,0,0,0,0,0,0,0,0,-1,1413,1457,0,0
196,-433,0,0,0,0,0,0,0,0,0,-1,1420,1457,0,0
203,-433,0,0,0,0,0,0,0,0,0,-1,1427,1457,0,0
210,-433,0,0,0,0,0,0,0,0,0,-1,1434,1457,0,0
217,-433,0,0,0,0,0,0,0,0,0,-1,1441,1457,0,0
224,-433,0,0,0,0,0,0,0,0,0,-1,1448,1457,0,0
231,-433,0,0,0,0,0,0,0,0,0,-1,1455,1457,0,0
238,-433,0,0,0,0,0,0,0,0,0,-1,1462,1457,0,0
245,-433,0,0,0,0,0,0,0,0,0,-1,1469,1457,0,0
252,-433,0,0,0,0,0,0,0,0,0,-1,1476,1457,0,0
259,-433,0,0,0,0,0,0,0,0,0,-1,1483,1457,0,0
266,-433,0,0,0,0,0,0,0,0,0,-1,1490,1457,0,0
273,-433,0,0,0,0,0,0,0,0,0,-1,1497,1457,0,0
280,-433,0,0,0,0,0,0,0,0,0,-1,1504,1457,0,0
287,-433,0,0,0,0,0,0,0,0,0,-1,1511,1457,0,0
294,-433,0,0,0,0,0,0,0,0,0,-1,1518,1457,0,0
301,-433,0,0,0,0,0,0,0,0,0,-1,1525,1457,0,0
308,-433,0,0,0,0,0,0,0,0,0,-1,1532,1457,0,0
315,-433,0,0,0,0,0,0,0,0,0,-1,1539,1457,0,0
322,-433,0,0,0,0,0,0,0,0,0,-1,1546,1457,0,0
329,-433,0,0,0,0,0,0,0,0,0,-1,1553,1457,0,0
336,-433,0,0,0,0,0,0,0,0,0,-1,1560,1457,0,0
343,-433,0,0,0,0,0,0,0,0,0,-1,1567,1457,0,0
350,-433,0,0,0,0,0,0,0,0,0,-1,1574,1457,0,0
357,-433,0,0,0,0,0,0,0,0,0,-1,1581,1457,0,0
364,-433,0,0,0,0,0,0,0,0,0,-1,1588,1457,0,0
371,-433,0,0,0,0,0,0,0,0,0,-1,1595,1457,0,0
378,-433,0,0,0,0,0,0,0,0,0,-1,1602,1457,0,0
385,-433,0,0,0,0,0,0,0,0,0,-1,1609,1457,0,0
392,-433,0,0,0,0,0,0,0,0,0,-1,1616,1457,0,0
399,-433,0,0,0,0,0,0,0,0,0,-1,1623,1457,0,0
406,-433,0,0,0,0,0,0,0,0,0,-1,1630,1457,0,0
413,-433,0,0,0,0,0,0,0,0,0,-1,1637,1457,0,0
420,-433,0,0,0,0,0,0,0,0,0,-1,1644,1457,0,0
427,-433,0,0,0,0,0,0,0,0,0,-1,1651,1457,0,0
434,-433,0,0,0,0,0,0,0,0,0,-1,1658,1457,0,0
441,-433,0,0,0,0,0,0,0,0,0,-1,1665,1457,0,0
448,-433,0,0,0,0,0,0,0,0,0,-1,1672,1457,0,0
455,-433,0,0,0,0,0,0,0,0,0,-1,1679,1457,0,0
462,-433,0,0,0,0,0,0,0,0,0,-1,1686,1457,0,0
469,-433,0,0,0,0,0,0,0,0,0,-1,1693,1457,0,0
476,-433,0,0,0,0,0,0,0,0,0,-1,1700,1457,0,0
483,-433,0,0,0,0,0,0,0,0,0,-1,1707,1457,0,0
490,-433,0,0,0,0,0,0,0,0,0,-1,1714,1457,0,0
497,-433,0,0,0,0,0,0,0,0,0,-1,1721,1457,0,0
504,-433,11.0808,1.72498,-0.149744,-0.0523704,-0.000352391,-0.0523691,-0.149745,-1.56718,0.0877474,0.0412897,1728,1457,11.0808,-1.72492
511,-433,10.6913,2.06396,0,0,0,0,0,0,0,-1,1735,1457,10.6913,-2.06403
518,-433,10.2898,2.58838,0,0,0,0,0,0,0,-1,1742,1457,10.2897,-2.58838
525,-433,10.014,0.498901,0,0,0,0,0,0,0,-1,1749,1457,10.014,-0.498962
532,-433,12.3329,5.5874,0,0,0,0,0,0,0,-1,1756,1457,12.3329,-5.58737
539,-433,13.3873,3.12,0,0,0,0,0,0,0,-1,1763,1457,13.3873,-3.12001
546,-433,12.918,8.31519,0,0,0,0,0,0,0,-1,1770,1457,12.9179,-8.31515
553,-433,12.2618,7.63599,-0.0375033,-0.0342454,0.0306474,-0.00518374,-0.066565,0.811949,0.0427536,0.0437325,1777,1457,12.2618,-7.63597
560,-433,11.496,6.93433,-0.0281265,-0.029835,0.0331423,0.00417255,-0.0621341,0.772514,0.0428813,0.0425432,1784,1457,11.4959,-6.93434
567,-433,9.5835,5.3512,0,0,0,0,0,0,0,-1,1791,1457,9.58351,-5.35123
574,-433,9.59375,5.48621,-0.0226882,-0.0238321,0.0310794,0.00782456,-0.0543448,0.776198,0.0390999,0.0492569,1798,1457,9.59374,-5.48627
581,-433,9.67456,5.82263,-0.0206481,-0.0210816,0.0280897,0.00722566,-0.0489554,0.78154,0.0352929,0.0405519,1805,1457,9.67457,-5.82265
588,-433,9.75964,6.35669,0,0,0,0,0,0,0,-1,1812,1457,9.75959,-6.35672
595,-433,9.66394,6.32715,-0.0156374,-0.0149357,0.0207367,0.00545308,-0.0360262,0.793857,0.0260263,0.0206482,1819,1457,9.66395,-6.32716
602,-433,9.68701,6.16797,-0.01327,-0.0117469,0.0168681,0.00437685,-0.0293938,0.807956,0.0212059,0.019495,1826,1457,9.68697,-6.16795
609,-433,9.69116,6.00403,-0.010205,-0.00895333,0.0133659,0.00380134,-0.0229597,0.808793,0.0167182,0.0153872,1833,1457,9.69117,-6.004
616,-433,9.69507,5.854,-0.00742327,-0.00700993,0.0102451,0.00303059,-0.0174638,0.795483,0.0127731,0.0131065,1840,1457,9.69511,-5.85395
623,-433,9.6947,5.69067,-0.0048597,-0.0043789,0.00677403,0.00215899,-0.0113976,0.803135,0.00841094,0.0104559,1847,1457,9.69467,-5.6907
630,-433,9.70081,5.52136,-0.00261951,-0.00257203,0.00405058,0.00145489,-0.00664642,0.788328,0.00498716,0.0132518,1854,1457,9.70081,-5.52141
637,-433,9.71045,5.34253,-0.000621019,-0.0012298,0.00187843,0.000977521,-0.00282834,0.705074,0.00228228,0.0134011,1861,1457,9.71049,-5.34257
644,-433,9.7041,5.19214,0.00124967,-0.000728707,0.000614705,0.00142511,-0.000904146,0.278012,0.00135596,0.0139599,1868,1457,9.70414,-5.1921
651,-433,9.6886,5.05444,0.00272989,-0.000686991,8.38119e-05,0.00273195,-0.000689045,0.0245091,0.00208921,0.0113743,1875,1457,9.68864,-5.05449
658,-433,9.69763,4.84436,0.0038822,-0.00116491,0.000142566,0.00388623,-0.00116893,0.0282171,0.00305591,0.0133035,1882,1457,9.69769,-4.8444
665,-433,9.68835,4.63867,0.00450378,-0.00217818,0.000850393,0.00461031,-0.00228471,0.124621,0.00405562,0.0200736,1889,1457,9.68834,-4.63869
672,-433,9.84192,4.59131,0.00489958,-0.00385143,0.00214507,0.0053971,-0.00434895,0.227907,0.00563772,0.0379136,1896,1457,9.84197,-4.59137
679,-433,9.98804,4.56128,0,0,0,0,0,0,0,-1,1903,1457,9.98802,-4.5613
686,-433,10.1462,4.53381,0,0,0,0,0,0,0,-1,1910,1457,10.1463,-4.53387
693,-433,9.8833,4.47266,0,0,0,0,0,0,0,-1,1917,1457,9.88335,-4.47266
700,-433,7.16809,-1.5166,0,0,0,0,0,0,0,-1,1924,1457,7.16806,1.51656
707,-433,8.68359,-2.82202,0,0,0,0,0,0,0,-1,1931,1457,8.68359,2.82197
714,-433,0,0,0,0,0,0,0,0,0,-1,1938,1457,0,0
721,-433,0,0,0,0,0,0,0,0,0,-1,1945,1457,0,0
728,-433,0,0,0,0,0,0,0,0,0,-1,1952,1457,0,0
735,-433,0,0,0,0,0,0,0,0,0,-1,1959,1457,0,0
742,-433,0,0,0,0,0,0,0,0,0,-1,1966,1457,0,0
749,-433,0,0,0,0,0,0,0,0,0,-1,1973,1457,0,0
756,-433,0,0,0,0,0,0,0,0,0,-1,1980,1457,0,0
763,-433,0,0,0,0,0,0,0,0,0,-1,1987,1457,0,0
770,-433,0,0,0,0,0,0,0,0,0,-1,1994,1457,0,0
777,-433,0,0,0,0,0,0,0,0,0,-1,2001,1457,0,0
784,-433,0,0,0,0,0,0,0,0,0,-1,2008,1457,0,0
791,-433,0,0,0,0,0,0,0,0,0,-1,2015,1457,0,0
798,-433,0,0,0,0,0,0,0,0,0,-1,2022,1457,0,0
805,-433,0,0,0,0,0,0,0,0,0,-1,2029,1457,0,0
812,-433,0,0,0,0,0,0,0,0,0,-1,2036,1457,0,0
-700,-440,0,0,0,0,0,0,0,0,0,-1,524,1464,0,0
-693,-440,0,0,0,0,0,0,0,0,0,-1,531,1464,0,0
-686,-440,0,0,0,0,0,0,0,0,0,-1,538,1464,0,0
-679,-440,0,0,0,0,0,0,0,0,0,-1,545,1464,0,0
-672,-440,0,0,0,0,0,0,0,0,0,-1,552,1464,0,0
-665,-440,0,0,0,0,0,0,0,0,0,-1,559,1464,0,0
-658,-440,0,0,0,0,0,0,0,0,0,-1,566,1464,0,0
-651,-440,0,0,0,0,0,0,0,0,0,-1,573,1464,0,0
-644,-440,0,0,0,0,0,0,0,0,0,-1,580,1464,0,0
-637,-440,0,0,0,0,0,0,0,0,0,-1,587,1464,0,0
-630,-440,0,0,0,0,0,0,0,0,0,-1,594,1464,0,0
-623,-440,0,0,0,0,0,0,0,0,0,-1,601,1464,0,0
-616,-440,0,0,0,0,0,0,0,0,0,-1,608,1464,0,0
-609,-440,0,0,0,0,0,0,0,0,0,-1,615,1464,0,0
-602,-440,0,0,0,0,0,0,0,0,0,-1,622,1464,0,0
-595,-440,0,0,0,0,0,0,0,0,0,-1,629,1464,0,0
-588,-440,0,0,0,0,0,0,0,0,0,-1,636,1464,0,0
-581,-440,-4.76263,-2.40723,0,0,0,0,0,0,0,-1,643,1464,-4.76262,2.40718
-574,-440,-4.48584,-1.37964,0,0,0,0,0,0,0,-1,650,1464,-4.48582,1.37967
-567,-440,-4.44769,-0.433838,0,0,0,0,0,0,0,-1,657,1464,-4.44772,0.433871
-560,-440,-4.24982,0.490601,0.0129746,0.0397753,0.0885579,0.115941,-0.0631911,0.860487,0.104906,0.0473731,664,1464,-4.24985,-0.490635
-553,-440,-4.09088,1.49866,0.00899642,0.0298874,0.0699396,0.0901572,-0.0512734,0.859525,0.0826773,0.0443299,671,1464,-4.0909,-1.49864
-546,-440,-4.17194,2.53784,0.00697189,0.021133,0.0535304,0.068049,-0.0399442,0.851152,0.0630498,0.0445552,678,1464,-4.17191,-2.53784
-539,-440,-2.30927,2.43262,0,0,0,0,0,0,0,-1,685,1464,-2.30928,-2.43259
-532,-440,-2.25488,2.82825,0.00519314,0.0074049,0.0288779,0.0351981,-0.0226001,0.804536,0.033633,0.0390245,692,1464,-2.25488,-2.82826
-525,-440,-2.26062,3.14319,0.00462197,0.00432489,0.0209207,0.0253946,-0.0164478,0.781848,0.0243411,0.0175594,699,1464,-2.2606,-3.14317
-518,-440,-2.27148,3.28967,0.00398578,0.00232137,0.0147746,0.0179516,-0.0116445,0.757264,0.0172162,0.01245,706,1464,-2.2715,-3.28966
-511,-440,-2.25238,3.48669,0.00333222,0.00103026,0.0101107,0.0123573,-0.00799477,0.728723,0.0118399,0.0152226,713,1464,-2.25236,-3.48672
-504,-440,-2.22925,3.66992,0.00254137,-0.000308675,0.00626271,0.00753914,-0.00530644,0.673532,0.00745365,0.0181024,720,1464,-2.22923,-3.66987
-497,-440,-2.22394,3.86987,0.00175825,-0.00113296,0.00318644,0.00381167,-0.00318639,0.572446,0.0040457,0.0215111,727,1464,-2.22395,-3.86983
-490,-440,-2.24866,4.03259,0.000962965,-0.00156827,0.00047213,0.00104816,-0.00165346,0.178527,0.00157278,0.0212366,734,1464,-2.24865,-4.03264
-483,-440,-2.27661,4.23206,4.3726e-05,-0.00235678,-0.00130879,0.000619296,-0.00293235,-0.414315,0.00219071,0.0175483,741,1464,-2.27659,-4.23211
-476,-440,-2.25806,4.43958,-0.00120287,-0.00316505,-0.00311899,0.00108569,-0.00545361,-0.63302,0.00404648,0.0121227,748,1464,-2.25804,-4.43953
-469,-440,-2.25409,4.62878,-0.00197631,-0.00457224,-0.00489082,0.00178585,-0.0083344,-0.655694,0.00623736,0.0125532,755,1464,-2.25406,-4.62878
-462,-440,-2.23877,4.81836,-0.00253391,-0.00629802,-0.00677044,0.0026112,-0.0114431,-0.64983,0.00863182,0.0139971,762,1464,-2.23878,-4.81838
-455,-440,-2.21021,5.06177,-0.00304413,-0.00846845,-0.00912688,0.00376504,-0.0152776,-0.640973,0.0116448,0.0151757,769,1464,-2.21019,-5.06176
-448,-440,-2.1358,5.23376,-0.00315768,-0.0115173,-0.0121166,0.00547979,-0.0201548,-0.619306,0.0155876,0.0257397,776,1464,-2.13583,-5.23376
-441,-440,-2.24139,5.0824,-0.00291632,-0.014852,-0.0153945,0.00762663,-0.0253949,-0.600487,0.0199638,0.0364536,783,1464,-2.24138,-5.08241
-434,-440,-2.10614,4.87549,-0.00223349,-0.0190037,-0.0191523,0.0102888,-0.031526,-0.579062,0.0251583,0.0411184,790,1464,-2.10617,-4.87553
-427,-440,-1.81305,4.98108,0,0,0,0,0,0,0,-1,797,1464,-1.81306,-4.98112
-420,-440,-1.45288,4.63306,0,0,0,0,0,0,0,-1,804,1464,-1.45288,-4.63308
-413,-440,-3.93939,5.00146,0,0,0,0,0,0,0,-1,811,1464,-3.93938,-5.0015
-406,-440,-5.2887,5.20264,0,0,0,0,0,0,0,-1,818,1464,-5.2887,-5.20261
-399,-440,-0.269287,0.251465,0,0,0,0,0,0,0,-1,825,1464,-0.26931,-0.251435
-392,-440,0.510254,0.437744,0,0,0,0,0,0,0,-1,832,1464,0.510244,-0.43771
-385,-440,6.70496,1.25854,0,0,0,0,0,0,0,-1,839,1464,6.70498,-1.25858
-378,-440,7.93719,1.35864,0,0,0,0,0,0,0,-1,846,1464,7.93722,-1.35859
-371,-440,0,0,0,0,0,0,0,0,0,-1,853,1464,0,0
-364,-440,0,0,0,0,0,0,0,0,0,-1,860,1464,0,0
-357,-440,0,0,0,0,0,0,0,0,0,-1,867,1464,0,0
-350,-440,0,0,0,0,0,0,0,0,0,-1,874,1464,0,0
-343,-440,0,0,0,0,0,0,0,0,0,-1,881,1464,0,0
-336,-440,0,0,0,0,0,0,0,0,0,-1,888,1464,0,0
-329,-440,0,0,0,0,0,0,0,0,0,-1,895,1464,0,0
-322,-440,0,0,0,0,0,0,0,0,0,-1,902,1464,0,0
-315,-440,0,0,0,0,0,0,0,0,0,-1,909,1464,0,0
-308,-440,0,0,0,0,0,0,0,0,0,-1,916,1464,0,0
-301,-440,0,0,0,0,0,0,0,0,0,-1,923,1464,0,0
-294,-440,0,0,0,0,0,0,0,0,0,-1,930,1464,0,0
-287,-440,0,0,0,0,0,0,0,0,0,-1,937,1464,0,0
-280,-440,0,0,0,0,0,0,0,0,0,-1,944,1464,0,0
-273,-440,0,0,0,0,0,0,0,0,0,-1,951,1464,0,0
-266,-440,0,0,0,0,0,0,0,0,0,-1,958,1464,0,0
-259,-440,0,0,0,0,0,0,0,0,0,-1,965,1464,0,0
-252,-440,0,0,0,0,0,0,0,0,0,-1,972,1464,0,0
-245,-440,0,0,0,0,0,0,0,0,0,-1,979,1464,0,0
-238,-440,0,0,0,0,0,0,0,0,0,-1,986,1464,0,0
-231,-440,0,0,0,0,0,0,0,0,0,-1,993,1464,0,0
-224,-440,0,0,0,0,0,0,0,0,0,-1,1000,1464,0,0
-217,-440,0,0,0,0,0,0,0,0,0,-1,1007,1464,0,0
-210,-440,0,0,0,0,0,0,0,0,0,-1,1014,1464,0,0
-203,-440,0,0,0,0,0,0,0,0,0,-1,1021,1464,0,0
-196,-440,0,0,0,0,0,0,0,0,0,-1,1028,1464,0,0
-189,-440,0,0,0,0,0,0,0,0,0,-1,1035,1464,0,0
-182,-440,0,0,0,0,0,0,0,0,0,-1,1042,1464,0,0
-175,-440,0,0,0,0,0,0,0,0,0,-1,1049,1464,0,0
-168,-440,0,0,0,0,0,0,0,0,0,-1,1056,1464,0,0
-161,-440,0,0,0,0,0,0,0,0,0,-1,1063,1464,0,0
-154,-440,0,0,0,0,0,0,0,0,0,-1,1070,1464,0,0
-147,-440,0,0,0,0,0,0,0,0,0,-1,1077,1464,0,0
-140,-440,0,0,0,0,0,0,0,0,0,-1,1084,1464,0,0
-133,-440,0,0,0,0,0,0,0,0,0,-1,1091,1464,0,0
-126,-440,0,0,0,0,0,0,0,0,0,-1,1098,1464,0,0
-119,-440,0,0,0,0,0,0,0,0,0,-1,1105,1464,0,0
-112,-440,0,0,0,0,0,0,0,0,0,-1,1112,1464,0,0
-105,-440,0,0,0,0,0,0,0,0,0,-1,1119,1464,0,0
-98,-440,0,0,0,0,0,0,0,0,0,-1,1126,1464,0,0
-91,-440,0,0,0,0,0,0,0,0,0,-1,1133,1464,0,0
-84,-440,0,0,0,0,0,0,0,0,0,-1,1140,1464,0,0
-77,-440,0,0,0,0,0,0,0,0,0,-1,1147,1464,0,0
-70,-440,0,0,0,0,0,0,0,0,0,-1,1154,1464,0,0
-63,-440,0,0,0,0,0,0,0,0,0,-1,1161,1464,0,0
-56,-440,0,0,0,0,0,0,0,0,0,-1,1168,1464,0,0
-49,-440,0,0,0,0,0,0,0,0,0,-1,1175,1464,0,0
-42,-440,0,0,0,0,0,0,0,0,0,-1,1182,1464,0,0
-35,-440,0,0,0,0,0,0,0,0,0,-1,1189,1464,0,0
-28,-440,0,0,0,0,0,0,0,0,0,-1,1196,1464,0,0
-21,-440,0,0,0,0,0,0,0,0,0,-1,1203,1464,0,0
-14,-440,0,0,0,0,0,0,0,0,0,-1,1210,1464,0,0
-7,-440,0,0,0,0,0,0,0,0,0,-1,1217,1464,0,0
0,-440,0,0,0,0,0,0,0,0,0,-1,1224,1464,0,0
7,-440,0,0,0,0,0,0,0,0,0,-1,1231,1464,0,0
14,-440,0,0,0,0,0,0,0,0,0,-1,1238,1464,0,0
21,-440,0,0,0,0,0,0,0,0,0,-1,1245,1464,0,0
28,-440,0,0,0,0,0,0,0,0,0,-1,1252,1464,0,0
35,-440,0,0,0,0,0,0,0,0,0,-1,1259,1464,0,0
42,-440,0,0,0,0,0,0,0,0,0,-1,1266,1464,0,0
49,-440,0,0,0,0,0,0,0,0,0,-1,1273,1464,0,0
56,-440,0,0,0,0,0,0,0,0,0,-1,1280,1464,0,0
63,-440,0,0,0,0,0,0,0,0,0,-1,1287,1464,0,0
70,-440,0,0,0,0,0,0,0,0,0,-1,1294,1464,0,0
77,-440,0,0,0,0,0,0,0,0,0,-1,1301,1464,0,0
84,-440,0,0,0,0,0,0,0,0,0,-1,1308,1464,0,0
91,-440,0,0,0,0,0,0,0,0,0,-1,1315,1464,0,0
98,-440,0,0,0,0,0,0,0,0,0,-1,1322,1464,0,0
105,-440,0,0,0,0,0,0,0,0,0,-1,1329,1464,0,0
112,-440,0,0,0,0,0,0,0,0,0,-1,1336,1464,0,0
119,-440,0,0,0,0,0,0,0,0,0,-1,1343,1464,0,0
126,-440,0,0,0,0,0,0,0,0,0,-1,1350,1464,0,0
133,-440,0,0,0,0,0,0,0,0,0,-1,1357,1464,0,0
140,-440,0,0,0,0,0,0,0,0,0,-1,1364,1464,0,0
147,-440,0,0,0,0,0,0,0,0,0,-1,1371,1464,0,0
154,-440,0,0,0,0,0,0,0,0,0,-1,1378,1464,0,0
161,-440,0,0,0,0,0,0,0,0,0,-1,1385,1464,0,0
168,-440,0,0,0,0,0,0,0,0,0,-1,1392,1464,0,0
175,-440,0,0,0,0,0,0,0,0,0,-1,1399,1464,0,0
182,-440,0,0,0,0,0,0,0,0,0,-1,1406,1464,0,0
189,-440,0,0,0,0,0,0,0,0,0,-1,1413,1464,0,0
196,-440,0,0,0,0,0,0,0,0,0,-1,1420,1464,0,0
203,-440,0,0,0,0,0,0,0,0,0,-1,1427,1464,0,0
210,-440,0,0,0,0,0,0,0,0,0,-1,1434,1464,0,0
217,-440,0,0,0,0,0,0,0,0,0,-1,1441,1464,0,0
224,-440,0,0,0,0,0,0,0,0,0,-1,1448,1464,0,0
231,-440,0,0,0,0,0,0,0,0,0,-1,1455,1464,0,0
238,-440,0,0,0,0,0,0,0,0,0,-1,1462,1464,0,0
245,-440,0,0,0,0,0,0,0,0,0,-1,1469,1464,0,0
252,-440,0,0,0,0,0,0,0,0,0,-1,1476,1464,0,0
259,-440,0,0,0,0,0,0,0,0,0,-1,1483,1464,0,0
266,-440,0,0,0,0,0,0,0,0,0,-1,1490,1464,0,0
273,-440,0,0,0,0,0,0,0,0,0,-1,1497,1464,0,0
280,-440,0,0,0,0,0,0,0,0,0,-1,1504,1464,0,0
287,-440,0,0,0,0,0,0,0,0,0,-1,1511,1464,0,0
294,-440,0,0,0,0,0,0,0,0,0,-1,1518,1464,0,0
301,-440,0,0,0,0,0,0,0,0,0,-1,1525,1464,0,0
308,-440,0,0,0,0,0,0,0,0,0,-1,1532,1464,0,0
315,-440,0,0,0,0,0,0,0,0,0,-1,1539,1464,0,0
322,-440,0,0,0,0,0,0,0,0,0,-1,1546,1464,0,0
329,-440,0,0,0,0,0,0,0,0,0,-1,1553,1464,0,0
336,-440,0,0,0,0,0,0,0,0,0,-1,1560,1464,0,0
343,-440,0,0,0,0,0,0,0,0,0,-1,1567,1464,0,0
350,-440,0,0,0,0,0,0,0,0,0,-1,1574,1464,0,0
357,-440,0,0,0,0,0,0,0,0,0,-1,1581,1464,0,0
364,-440,0,0,0,0,0,0,0,0,0,-1,1588,1464,0,0
371,-440,0,0,0,0,0,0,0,0,0,-1,1595,1464,0,0
378,-440,0,0,0,0,0,0,0,0,0,-1,1602,1464,0,0
385,-440,0,0,0,0,0,0,0,0,0,-1,1609,1464,0,0
392,-440,0,0,0,0,0,0,0,0,0,-1,1616,1464,0,0
399,-440,0,0,0,0,0,0,0,0,0,-1,1623,1464,0,0
406,-440,0,0,0,0,0,0,0,0,0,-1,1630,1464,0,0
413,-440,0,0,0,0,0,0,0,0,0,-1,1637,1464,0,0
420,-440,0,0,0,0,0,0,0,0,0,-1,1644,1464,0,0
427,-440,0,0,0,0,0,0,0,0,0,-1,1651,1464,0,0
434,-440,0,0,0,0,0,0,0,0,0,-1,1658,1464,0,0
441,-440,0,0,0,0,0,0,0,0,0,-1,1665,1464,0,0
448,-440,0,0,0,0,0,0,0,0,0,-1,1672,1464,0,0
455,-440,0,0,0,0,0,0,0,0,0,-1,1679,1464,0,0
462,-440,0,0,0,0,0,0,0,0,0,-1,1686,1464,0,0
469,-440,0,0,0,0,0,0,0,0,0,-1,1693,1464,0,0
476,-440,0,0,0,0,0,0,0,0,0,-1,1700,1464,0,0
483,-440,0,0,0,0,0,0,0,0,0,-1,1707,1464,0,0
490,-440,0,0,0,0,0,0,0,0,0,-1,1714,1464,0,0
497,-440,12.1191,2.20862,-0.123968,-0.0575371,0.00319208,-0.0573841,-0.124121,1.52289,0.0717292,0.0409897,1721,1464,12.1192,-2.20862
504,-440,11.019,1.94946,-0.117556,-0.0570198,0.000413197,-0.057017,-0.117558,1.56397,0.0678826,0.0434814,1728,1464,11.019,-1.94941
511,-440,9.98865,1.87866,0,0,0,0,0,0,0,-1,1735,1464,9.98861,-1.87864
518,-440,10.1204,0.547607,0,0,0,0,0,0,0,-1,1742,1464,10.1204,-0.547577
525,-440,10.0325,0.758545,0,0,0,0,0,0,0,-1,1749,1464,10.0324,-0.758504
532,-440,11.1841,5.70776,0,0,0,0,0,0,0,-1,1756,1464,11.184,-5.70774
539,-440,9.24414,5.26172,0,0,0,0,0,0,0,-1,1763,1464,9.24413,-5.26169
546,-440,8.71606,5.01257,0,0,0,0,0,0,0,-1,1770,1464,8.71609,-5.01254
553,-440,11.946,7.79443,-0.0343874,-0.0345915,0.0228458,-0.0116434,-0.0573354,0.783165,0.0349942,0.0421652,1777,1464,11.946,-7.79447
560,-440,11.2831,7.13855,-0.0252504,-0.029705,0.0246679,-0.00270943,-0.0522459,0.740375,0.0339635,0.0416534,1784,1464,11.2831,-7.13849
567,-440,10.6008,6.69531,-0.0209044,-0.0250591,0.0241729,0.00128025,-0.0472438,0.742536,0.0319311,0.0478012,1791,1464,10.6009,-6.69537
574,-440,9.74927,6.0332,-0.0191296,-0.0222267,0.022221,0.00159676,-0.042953,0.75061,0.0291822,0.0488548,1798,1464,9.74929,-6.03316
581,-440,9.64587,6.44446,-0.016945,-0.0191041,0.0197133,0.00171824,-0.0377674,0.758045,0.0257701,0.0347059,1805,1464,9.64589,-6.4445
588,-440,9.5365,6.5498,-0.0145802,-0.0160153,0.0170872,0.00180455,-0.0324,0.764413,0.022226,0.0227807,1812,1464,9.53655,-6.54983
595,-440,9.51868,6.38538,-0.0120991,-0.0129155,0.0143409,0.00183941,-0.026854,0.771171,0.0185462,0.0178211,1819,1464,9.5187,-6.38532
602,-440,9.5304,6.17798,-0.0100706,-0.00986548,0.0116249,0.00165728,-0.0215933,0.789808,0.0149786,0.0171807,1826,1464,9.53034,-6.17798
609,-440,9.51904,6.01978,-0.00738912,-0.0072713,0.00915183,0.00182181,-0.0164822,0.788617,0.011643,0.0150774,1833,1464,9.51908,-6.01982
616,-440,9.52991,5.88733,-0.004912,-0.00546734,0.00696537,0.00178123,-0.0121606,0.765477,0.00876136,0.0166413,1840,1464,9.52987,-5.88738
623,-440,9.53723,5.70544,-0.00279712,-0.00321165,0.00449349,0.00149388,-0.00750265,0.762352,0.00556695,0.0130745,1847,1464,9.53717,-5.70542
630,-440,9.52893,5.52405,-0.00107372,-0.00161465,0.00264591,0.00131552,-0.00400389,0.734465,0.00319923,0.0111363,1854,1464,9.52897,-5.52409
637,-440,9.53955,5.36548,0.000443843,-0.000535396,0.0011829,0.00123445,-0.00132601,0.589177,0.0014786,0.0153821,1861,1464,9.53954,-5.36542
644,-440,9.55066,5.21082,0.00188034,-0.000237164,0.000394375,0.0019514,-0.000308229,0.178285,0.00141491,0.0138135,1868,1464,9.55068,-5.21085
651,-440,9.56799,5.03442,0.00305659,-0.000339439,0.000226321,0.0030716,-0.000354455,0.0662525,0.00217553,0.0113425,1875,1464,9.56801,-5.03446
658,-440,9.56177,4.84546,0.00405083,-0.000747691,0.000427309,0.00408859,-0.000785445,0.088126,0.00302176,0.0153372,1882,1464,9.56172,-4.84548
665,-440,9.56873,4.66138,0.00480974,-0.0017019,0.00112119,0.00499738,-0.00188954,0.165823,0.0041089,0.0317927,1889,1464,9.56873,-4.66138
672,-440,9.58228,4.60852,0.00567351,-0.00316931,0.00221662,0.00619803,-0.00369384,0.232358,0.00577175,0.04529,1896,1464,9.58223,-4.60856
679,-440,9.68835,4.45679,0,0,0,0,0,0,0,-1,1903,1464,9.68829,-4.45673
686,-440,9.25793,4.39587,0,0,0,0,0,0,0,-1,1910,1464,9.25789,-4.39581
693,-440,9.88635,2.89795,0,0,0,0,0,0,0,-1,1917,1464,9.88638,-2.89798
700,-440,7.07825,-2.62061,0,0,0,0,0,0,0,-1,1924,1464,7.07829,2.62057
707,-440,0,0,0,0,0,0,0,0,0,-1,1931,1464,0,0
714,-440,0,0,0,0,0,0,0,0,0,-1,1938,1464,0,0
721,-440,0,0,0,0,0,0,0,0,0,-1,1945,1464,0,0
728,-440,0,0,0,0,0,0,0,0,0,-1,1952,1464,0,0
735,-440,0,0,0,0,0,0,0,0,0,-1,1959,1464,0,0
742,-440,0,0,0,0,0,0,0,0,0,-1,1966,1464,0,0
749,-440,0,0,0,0,0,0,0,0,0,-1,1973,1464,0,0
756,-440,0,0,0,0,0,0,0,0,0,-1,1980,1464,0,0
763,-440,0,0,0,0,0,0,0,0,0,-1,1987,1464,0,0
770,-440,0,0,0,0,0,0,0,0,0,-1,1994,1464,0,0
777,-440,0,0,0,0,0,0,0,0,0,-1,2001,1464,0,0
784,-440,0,0,0,0,0,0,0,0,0,-1,2008,1464,0,0
791,-440,0,0,0,0,0,0,0,0,0,-1,2015,1464,0,0
798,-440,0,0,0,0,0,0,0,0,0,-1,2022,1464,0,0
805,-440,0,0,0,0,0,0,0,0,0,-1,2029,1464,0,0
812,-440,0,0,0,0,0,0,0,0,0,-1,2036,1464,0,0
-700,-447,0,0,0,0,0,0,0,0,0,-1,524,1471,0,0
-693,-447,0,0,0,0,0,0,0,0,0,-1,531,1471,0,0
-686,-447,0,0,0,0,0,0,0,0,0,-1,538,1471,0,0
-679,-447,0,0,0,0,0,0,0,0,0,-1,545,1471,0,0
-672,-447,0,0,0,0,0,0,0,0,0,-1,552,1471,0,0
-665,-447,0,0,0,0,0,0,0,0,0,-1,559,1471,0,0
-658,-447,0,0,0,0,0,0,0,0,0,-1,566,1471,0,0
-651,-447,0,0,0,0,0,0,0,0,0,-1,573,1471,0,0
-644,-447,0,0,0,0,0,0,0,0,0,-1,580,1471,0,0
-637,-447,0,0,0,0,0,0,0,0,0,-1,587,1471,0,0
-630,-447,0,0,0,0,0,0,0,0,0,-1,594,1471,0,0
-623,-447,0,0,0,0,0,0,0,0,0,-1,601,1471,0,0
-616,-447,0,0,0,0,0,0,0,0,0,-1,608,1471,0,0
-609,-447,0,0,0,0,0,0,0,0,0,-1,615,1471,0,0
-602,-447,0,0,0,0,0,0,0,0,0,-1,622,1471,0,0
-595,-447,0,0,0,0,0,0,0,0,0,-1,629,1471,0,0
-588,-447,0,0,0,0,0,0,0,0,0,-1,636,1471,0,0
-581,-447,-7.09741,0.302368,0,0,0,0,0,0,0,-1,643,1471,-7.09741,-0.302372
-574,-447,-5.3689,-2.94214,0,0,0,0,0,0,0,-1,650,1471,-5.3689,2.94209
-567,-447,-4.99347,-0.97522,0,0,0,0,0,0,0,-1,657,1471,-4.99347,0.975201
-560,-447,-4.58612,-0.0146484,0.0133238,0.0432127,0.0991093,0.128498,-0.0719614,0.860228,0.11726,0.0461164,664,1471,-4.58612,0.0146403
-553,-447,-4.63562,1.08325,0.011031,0.0311377,0.0788886,0.100611,-0.0584422,0.848775,0.0928989,0.0460156,671,1471,-4.63562,-1.08325
-546,-447,-4.92462,2.29333,0.00970361,0.0212701,0.0609566,0.0767172,-0.0457435,0.832694,0.0714526,0.0476341,678,1471,-4.92463,-2.29331
-539,-447,-5.26324,3.37354,0,0,0,0,0,0,0,-1,685,1471,-5.26326,-3.37357
-532,-447,-2.14996,2.79224,0,0,0,0,0,0,0,-1,692,1471,-2.14998,-2.79222
-525,-447,-1.91486,3.08972,0.00610274,0.00418432,0.0240378,0.0292004,-0.0189134,0.765457,0.0279893,0.0283126,699,1471,-1.91483,-3.08974
-518,-447,-2.0556,3.27502,0.00496673,0.00222401,0.016959,0.0206097,-0.013419,0.745054,0.0197922,0.0186256,706,1471,-2.05561,-3.27502
-511,-447,-2.0531,3.4762,0.0039262,0.00103945,0.0116641,0.0142358,-0.0092702,0.723838,0.0136718,0.0149279,713,1471,-2.05312,-3.4762
-504,-447,-2.03888,3.68164,0.00292219,-0.000221541,0.0074048,0.00892012,-0.00621947,0.680812,0.00878708,0.019814,720,1471,-2.0389,-3.68161
-497,-447,-2.05286,3.90564,0.00206809,-0.000930929,0.00412496,0.00495763,-0.00382048,0.611064,0.0050822,0.0256003,727,1471,-2.05287,-3.90561
-490,-447,-2.05591,4.04138,0.00128336,-0.00127721,0.00134361,0.00185899,-0.00185284,0.404765,0.00214303,0.0245951,734,1471,-2.05589,-4.04143
-483,-447,-2.09338,4.20264,0.000458342,-0.00188696,-0.000341029,0.000506924,-0.00193554,-0.141506,0.0014884,0.0206761,741,1471,-2.0934,-4.20269
-476,-447,-2.08167,4.4104,-0.000654205,-0.00242978,-0.00206894,0.00070938,-0.00379336,-0.582728,0.00279553,0.0139245,748,1471,-2.08164,-4.41044
-469,-447,-2.07288,4.62012,-0.00112457,-0.00361875,-0.00361411,0.00145156,-0.00619488,-0.619263,0.00468927,0.0140354,755,1471,-2.07289,-4.62018
-462,-447,-2.07367,4.8302,-0.00122473,-0.00505883,-0.00513095,0.00233561,-0.00861916,-0.606616,0.00666253,0.0137313,762,1471,-2.07365,-4.83015
-455,-447,-2.07709,5.04199,-0.00124365,-0.00684052,-0.006977,0.00347521,-0.0115594,-0.594674,0.00908889,0.0127467,769,1471,-2.07709,-5.04193
-448,-447,-2.04688,5.22424,-0.000756142,-0.00943018,-0.00927211,0.00514314,-0.0153295,-0.56664,0.0122979,0.0178469,776,1471,-2.04687,-5.22425
-441,-447,-1.98438,5.3374,0.000207879,-0.0122348,-0.0116223,0.00716922,-0.0191961,-0.539657,0.0157411,0.0283543,783,1471,-1.98437,-5.33744
-434,-447,-1.75232,5.46399,0.00172101,-0.0157567,-0.0142092,0.00966358,-0.0236992,-0.509706,0.0198221,0.03846,790,1471,-1.75234,-5.46398
-427,-447,-2.19702,5.52332,0.00416952,-0.0199228,-0.0170109,0.0129676,-0.0287209,-0.477313,0.024635,0.0433572,797,1471,-2.19701,-5.52334
-420,-447,-2.71118,5.66272,0,0,0,0,0,0,0,-1,804,1471,-2.71116,-5.66273
-413,-447,-2.38959,5.7738,0,0,0,0,0,0,0,-1,811,1471,-2.38959,-5.77386
-406,-447,-4.48694,5.62988,0,0,0,0,0,0,0,-1,818,1471,-4.48696,-5.62994
-399,-447,0.0134888,0.687622,0,0,0,0,0,0,0,-1,825,1471,0.0134841,-0.68767
-392,-447,0.271057,0.278809,0,0,0,0,0,0,0,-1,832,1471,0.27108,-0.278763
-385,-447,0.327515,-0.0834961,0,0,0,0,0,0,0,-1,839,1471,0.327498,0.0834516
-378,-447,6.5293,1.50708,0,0,0,0,0,0,0,-1,846,1471,6.52927,-1.50709
-371,-447,7.32819,1.62622,0,0,0,0,0,0,0,-1,853,1471,7.3282,-1.62617
-364,-447,0,0,0,0,0,0,0,0,0,-1,860,1471,0,0
-357,-447,0,0,0,0,0,0,0,0,0,-1,867,1471,0,0
-350,-447,0,0,0,0,0,0,0,0,0,-1,874,1471,0,0
-343,-447,0,0,0,0,0,0,0,0,0,-1,881,1471,0,0
-336,-447,0,0,0,0,0,0,0,0,0,-1,888,1471,0,0
-329,-447,0,0,0,0,0,0,0,0,0,-1,895,1471,0,0
-322,-447,0,0,0,0,0,0,0,0,0,-1,902,1471,0,0
-315,-447,0,0,0,0,0,0,0,0,0,-1,909,1471,0,0
-308,-447,0,0,0,0,0,0,0,0,0,-1,916,1471,0,0
-301,-447,0,0,0,0,0,0,0,0,0,-1,923,1471,0,0
-294,-447,0,0,0,0,0,0,0,0,0,-1,930,1471,0,0
-287,-447,0,0,0,0,0,0,0,0,0,-1,937,1471,0,0
-280,-447,0,0,0,0,0,0,0,0,0,-1,944,1471,0,0
-273,-447,0,0,0,0,0,0,0,0,0,-1,951,1471,0,0
-266,-447,0,0,0,0,0,0,0,0,0,-1,958,1471,0,0
-259,-447,0,0,0,0,0,0,0,0,0,-1,965,1471,0,0
-252,-447,0,0,0,0,0,0,0,0,0,-1,972,1471,0,0
-245,-447,0,0,0,0,0,0,0,0,0,-1,979,1471,0,0
-238,-447,0,0,0,0,0,0,0,0,0,-1,986,1471,0,0
-231,-447,0,0,0,0,0,0,0,0,0,-1,993,1471,0,0
-224,-447,0,0,0,0,0,0,0,0,0,-1,1000,1471,0,0
-217,-447,0,0,0,0,0,0,0,0,0,-1,1007,1471,0,0
-210,-447,0,0,0,0,0,0,0,0,0,-1,1014,1471,0,0
-203,-447,0,0,0,0,0,0,0,0,0,-1,1021,1471,0,0
-196,-447,0,0,0,0,0,0,0,0,0,-1,1028,1471,0,0
-189,-447,0,0,0,0,0,0,0,0,0,-1,1035,1471,0,0
-182,-447,0,0,0,0,0,0,0,0,0,-1,1042,1471,0,0
-175,-447,0,0,0,0,0,0,0,0,0,-1,1049,1471,0,0
-168,-447,0,0,0,0,0,0,0,0,0,-1,1056,1471,0,0
-161,-447,0,0,0,0,0,0,0,0,0,-1,1063,1471,0,0
-154,-447,0,0,0,0,0,0,0,0,0,-1,1070,1471,0,0
-147,-447,0,0,0,0,0,0,0,0,0,-1,1077,1471,0,0
-140,-447,0,0,0,0,0,0,0,0,0,-1,1084,1471,0,0
-133,-447,0,0,0,0,0,0,0,0,0,-1,1091,1471,0,0
-126,-447,0,0,0,0,0,0,0,0,0,-1,1098,1471,0,0
-119,-447,0,0,0,0,0,0,0,0,0,-1,1105,1471,0,0
-112,-447,0,0,0,0,0,0,0,0,0,-1,1112,1471,0,0
-105,-447,0,0,0,0,0,0,0,0,0,-1,1119,1471,0,0
-98,-447,0,0,0,0,0,0,0,0,0,-1,1126,1471,0,0
-91,-447,0,0,0,0,0,0,0,0,0,-1,1133,1471,0,0
-84,-447,0,0,0,0,0,0,0,0,0,-1,1140,1471,0,0
-77,-447,0,0,0,0,0,0,0,0,0,-1,1147,1471,0,0
-70,-447,0,0,0,0,0,0,0,0,0,-1,1154,1471,0,0
-63,-447,0,0,0,0,0,0,0,0,0,-1,1161,1471,0,0
-56,-447,0,0,0,0,0,0,0,0,0,-1,1168,1471,0,0
-49,-447,0,0,0,0,0,0,0,0,0,-1,1175,1471,0,0
-42,-447,0,0,0,0,0,0,0,0,0,-1,1182,1471,0,0
-35,-447,0,0,0,0,0,0,0,0,0,-1,1189,1471,0,0
-28,-447,0,0,0,0,0,0,0,0,0,-1,1196,1471,0,0
-21,-447,0,0,0,0,0,0,0,0,0,-1,1203,1471,0,0
-14,-447,0,0,0,0,0,0,0,0,0,-1,1210,1471,0,0
-7,-447,0,0,0,0,0,0,0,0,0,-1,1217,1471,0,0
0,-447,0,0,0,0,0,0,0,0,0,-1,1224,1471,0,0
7,-447,0,0,0,0,0,0,0,0,0,-1,1231,1471,0,0
14,-447,0,0,0,0,0,0,0,0,0,-1,1238,1471,0,0
21,-447,0,0,0,0,0,0,0,0,0,-1,1245,1471,0,0
28,-447,0,0,0,0,0,0,0,0,0,-1,1252,1471,0,0
35,-447,0,0,0,0,0,0,0,0,0,-1,1259,1471,0,0
42,-447,0,0,0,0,0,0,0,0,0,-1,1266,1471,0,0
49,-447,0,0,0,0,0,0,0,0,0,-1,1273,1471,0,0
56,-447,0,0,0,0,0,0,0,0,0,-1,1280,1471,0,0
63,-447,0,0,0,0,0,0,0,0,0,-1,1287,1471,0,0
70,-447,0,0,0,0,0,0,0,0,0,-1,1294,1471,0,0
77,-447,0,0,0,0,0,0,0,0,0,-1,1301,1471,0,0
84,-447,0,0,0,0,0,0,0,0,0,-1,1308,1471,0,0
91,-447,0,0,0,0,0,0,0,0,0,-1,1315,1471,0,0
98,-447,0,0,0,0,0,0,0,0,0,-1,1322,1471,0,0
105,-447,0,0,0,0,0,0,0,0,0,-1,1329,1471,0,0
112,-447,0,0,0,0,0,0,0,0,0,-1,1336,1471,0,0
119,-447,0,0,0,0,0,0,0,0,0,-1,1343,1471,0,0
126,-447,0,0,0,0,0,0,0,0,0,-1,1350,1471,0,0
133,-447,0,0,0,0,0,0,0,0,0,-1,1357,1471,0,0
140,-447,0,0,0,0,0,0,0,0,0,-1,1364,1471,0,0
147,-447,0,0,0,0,0,0,0,0,0,-1,1371,1471,0,0
154,-447,0,0,0,0,0,0,0,0,0,-1,1378,1471,0,0
161,-447,0,0,0,0,0,0,0,0,0,-1,1385,1471,0,0
168,-447,0,0,0,0,0,0,0,0,0,-1,1392,1471,0,0
175,-447,0,0,0,0,0,0,0,0,0,-1,1399,1471,0,0
182,-447,0,0,0,0,0,0,0,0,0,-1,1406,1471,0,0
189,-447,0,0,0,0,0,0,0,0,0,-1,1413,1471,0,0
196,-447,0,0,0,0,0,0,0,0,0,-1,1420,1471,0,0
203,-447,0,0,0,0,0,0,0,0,0,-1,1427,1471,0,0
210,-447,0,0,0,0,0,0,0,0,0,-1,1434,1471,0,0
217,-447,0,0,0,0,0,0,0,0,0,-1,1441,1471,0,0
224,-447,0,0,0,0,0,0,0,0,0,-1,1448,1471,0,0
231,-447,0,0,0,0,0,0,0,0,0,-1,1455,1471,0,0
238,-447,0,0,0,0,0,0,0,0,0,-1,1462,1471,0,0
245,-447,0,0,0,0,0,0,0,0,0,-1,1469,1471,0,0
252,-447,0,0,0,0,0,0,0,0,0,-1,1476,1471,0,0
259,-447,0,0,0,0,0,0,0,0,0,-1,1483,1471,0,0
266,-447,0,0,0,0,0,0,0,0,0,-1,1490,1471,0,0
273,-447,0,0,0,0,0,0,0,0,0,-1,1497,1471,0,0
280,-447,0,0,0,0,0,0,0,0,0,-1,1504,1471,0,0
287,-447,0,0,0,0,0,0,0,0,0,-1,1511,1471,0,0
294,-447,0,0,0,0,0,0,0,0,0,-1,1518,1471,0,0
301,-447,0,0,0,0,0,0,0,0,0,-1,1525,1471,0,0
308,-447,0,0,0,0,0,0,0,0,0,-1,1532,1471,0,0
315,-447,0,0,0,0,0,0,0,0,0,-1,1539,1471,0,0
322,-447,0,0,0,0,0,0,0,0,0,-1,1546,1471,0,0
329,-447,0,0,0,0,0,0,0,0,0,-1,1553,1471,0,0
336,-447,0,0,0,0,0,0,0,0,0,-1,1560,1471,0,0
343,-447,0,0,0,0,0,0,0,0,0,-1,1567,1471,0,0
350,-447,0,0,0,0,0,0,0,0,0,-1,1574,1471,0,0
357,-447,0,0,0,0,0,0,0,0,0,-1,1581,1471,0,0
364,-447,0,0,0,0,0,0,0,0,0,-1,1588,1471,0,0
371,-447,0,0,0,0,0,0,0,0,0,-1,1595,1471,0,0
378,-447,0,0,0,0,0,0,0,0,0,-1,1602,1471,0,0
385,-447,0,0,0,0,0,0,0,0,0,-1,1609,1471,0,0
392,-447,0,0,0,0,0,0,0,0,0,-1,1616,1471,0,0
399,-447,0,0,0,0,0,0,0,0,0,-1,1623,1471,0,0
406,-447,0,0,0,0,0,0,0,0,0,-1,1630,1471,0,0
413,-447,0,0,0,0,0,0,0,0,0,-1,1637,1471,0,0
420,-447,0,0,0,0,0,0,0,0,0,-1,1644,1471,0,0
427,-447,0,0,0,0,0,0,0,0,0,-1,1651,1471,0,0
434,-447,0,0,0,0,0,0,0,0,0,-1,1658,1471,0,0
441,-447,0,0,0,0,0,0,0,0,0,-1,1665,1471,0,0
448,-447,0,0,0,0,0,0,0,0,0,-1,1672,1471,0,0
455,-447,0,0,0,0,0,0,0,0,0,-1,1679,1471,0,0
462,-447,0,0,0,0,0,0,0,0,0,-1,1686,1471,0,0
469,-447,0,0,0,0,0,0,0,0,0,-1,1693,1471,0,0
476,-447,0,0,0,0,0,0,0,0,0,-1,1700,1471,0,0
483,-447,0,0,0,0,0,0,0,0,0,-1,1707,1471,0,0
490,-447,12.9698,2.78125,-0.0753297,-0.0553186,0.00447174,-0.0543648,-0.0762835,1.36065,0.0453508,0.0460716,1714,1471,12.9698,-2.78125
497,-447,11.929,2.60156,-0.0901298,-0.059836,0.00522951,-0.0589587,-0.0910072,1.40458,0.0533032,0.0463342,1721,1471,11.9289,-2.60159
504,-447,10.7043,2.46021,-0.0885195,-0.058755,0.00390086,-0.0582523,-0.0890223,1.44262,0.052207,0.0422528,1728,1471,10.7044,-2.46025
511,-447,9.8457,2.16089,-0.0807656,-0.0537589,0.0037608,-0.053245,-0.0812795,1.43498,0.0476733,0.048167,1735,1471,9.84576,-2.16092
518,-447,8.8656,2.03796,0,0,0,0,0,0,0,-1,1742,1471,8.86562,-2.03797
525,-447,10.0773,0.879639,0,0,0,0,0,0,0,-1,1749,1471,10.0772,-0.879601
532,-447,9.80176,6.0155,0,0,0,0,0,0,0,-1,1756,1471,9.80182,-6.01547
539,-447,7.83337,6.10547,0,0,0,0,0,0,0,-1,1763,1471,7.83342,-6.10552
546,-447,8.61011,5.41931,0,0,0,0,0,0,0,-1,1770,1471,8.61012,-5.41934
553,-447,9.38684,4.73315,0,0,0,0,0,0,0,-1,1777,1471,9.38682,-4.73316
560,-447,10.235,7.14075,0,0,0,0,0,0,0,-1,1784,1471,10.235,-7.14073
567,-447,9.90283,6.90149,-0.0203788,-0.0249915,0.0156863,-0.00683025,-0.0385401,0.712407,0.0237464,0.0407644,1791,1471,9.90283,-6.90153
574,-447,9.47534,6.69873,-0.0177305,-0.0212919,0.0142888,-0.0051119,-0.0339106,0.723407,0.0211104,0.0265714,1798,1471,9.47539,-6.69876
581,-447,9.40027,6.70703,-0.015016,-0.0176305,0.0125371,-0.00371819,-0.0289282,0.73345,0.0181733,0.0129183,1805,1471,9.40027,-6.70699
588,-447,9.40222,6.54968,-0.0124414,-0.0142708,0.0108442,-0.00247334,-0.0242388,0.743323,0.0154011,0.0117441,1812,1471,9.40227,-6.54963
595,-447,9.36755,6.35718,-0.00996683,-0.0110953,0.00912502,-0.00138865,-0.0196735,0.754519,0.0126782,0.0110405,1819,1471,9.3675,-6.35722
602,-447,9.37195,6.17664,-0.00816653,-0.00808208,0.00743395,-0.000690232,-0.0155584,0.788238,0.01015,0.00991418,1826,1471,9.37193,-6.17661
609,-447,9.36182,6.01062,-0.00583851,-0.00559325,0.00586844,0.000153841,-0.0115856,0.795845,0.00777552,0.0112454,1833,1471,9.36183,-6.01065
616,-447,9.37842,5.85217,-0.00361065,-0.00383872,0.0045152,0.000791956,-0.00824132,0.772773,0.00577632,0.0132211,1840,1471,9.37847,-5.85223
623,-447,9.38074,5.69604,-0.00197142,-0.00185324,0.00296195,0.0010502,-0.00487487,0.795372,0.00365068,0.014664,1847,1471,9.38075,-5.69604
630,-447,9.36414,5.5365,-0.000779799,-0.000438919,0.00183111,0.00122967,-0.00244839,0.831804,0.00216204,0.00902996,1854,1471,9.36411,-5.53645
637,-447,9.38562,5.37292,0.000284116,0.00046138,0.000966067,0.00134287,-0.000597377,0.831143,0.00114743,0.00997325,1861,1471,9.38564,-5.37296
644,-447,9.40369,5.19678,0.00133499,0.000733239,0.000612456,0.00171648,0.000351745,0.557082,0.00104696,0.00946081,1868,1471,9.40373,-5.19679
651,-447,9.43457,5.01379,0.00227789,0.000644361,0.000801369,0.00260537,0.00031688,0.387943,0.00164151,0.0155514,1875,1471,9.4346,-5.01377
658,-447,9.39551,4.91455,0.00322864,0.000348371,0.00122166,0.00367701,-9.99975e-05,0.351752,0.00248534,0.0253721,1882,1471,9.39546,-4.91461
665,-447,9.32336,4.82202,0.00431939,-0.000411385,0.00194563,0.00501677,-0.00110876,0.344168,0.00376886,0.0444827,1889,1471,9.32333,-4.82207
672,-447,9.23401,4.72205,0,0,0,0,0,0,0,-1,1896,1471,9.23406,-4.72207
679,-447,10.3555,4.45337,0,0,0,0,0,0,0,-1,1903,1471,10.3555,-4.45341
686,-447,9.81079,4.30859,0,0,0,0,0,0,0,-1,1910,1471,9.8108,-4.30864
693,-447,10.48,2.08643,0,0,0,0,0,0,0,-1,1917,1471,10.48,-2.08642
700,-447,0,0,0,0,0,0,0,0,0,-1,1924,1471,0,0
707,-447,0,0,0,0,0,0,0,0,0,-1,1931,1471,0,0
714,-447,0,0,0,0,0,0,0,0,0,-1,1938,1471,0,0
721,-447,0,0,0,0,0,0,0,0,0,-1,1945,1471,0,0
728,-447,0,0,0,0,0,0,0,0,0,-1,1952,1471,0,0
735,-447,0,0,0,0,0,0,0,0,0,-1,1959,1471,0,0
742,-447,0,0,0,0,0,0,0,0,0,-1,1966,1471,0,0
749,-447,0,0,0,0,0,0,0,0,0,-1,1973,1471,0,0
756,-447,0,0,0,0,0,0,0,0,0,-1,1980,1471,0,0
763,-447,0,0,0,0,0,0,0,0,0,-1,1987,1471,0,0
770,-447,0,0,0,0,0,0,0,0,0,-1,1994,1471,0,0
777,-447,0,0,0,0,0,0,0,0,0,-1,2001,1471,0,0
784,-447,0,0,0,0,0,0,0,0,0,-1,2008,1471,0,0
791,-447,0,0,0,0,0,0,0,0,0,-1,2015,1471,0,0
798,-447,0,0,0,0,0,0,0,0,0,-1,2022,1471,0,0
805,-447,0,0,0,0,0,0,0,0,0,-1,2029,1471,0,0
812,-447,0,0,0,0,0,0,0,0,0,-1,2036,1471,0,0
-700,-454,0,0,0,0,0,0,0,0,0,-1,524,1478,0,0
-693,-454,0,0,0,0,0,0,0,0,0,-1,531,1478,0,0
-686,-454,0,0,0,0,0,0,0,0,0,-1,538,1478,0,0
-679,-454,0,0,0,0,0,0,0,0,0,-1,545,1478,0,0
-672,-454,0,0,0,0,0,0,0,0,0,-1,552,1478,0,0
-665,-454,0,0,0,0,0,0,0,0,0,-1,559,1478,0,0
-658,-454,0,0,0,0,0,0,0,0,0,-1,566,1478,0,0
-651,-454,0,0,0,0,0,0,0,0,0,-1,573,1478,0,0
-644,-454,0,0,0,0,0,0,0,0,0,-1,580,1478,0,0
-637,-454,0,0,0,0,0,0,0,0,0,-1,587,1478,0,0
-630,-454,0,0,0,0,0,0,0,0,0,-1,594,1478,0,0
-623,-454,0,0,0,0,0,0,0,0,0,-1,601,1478,0,0
-616,-454,0,0,0,0,0,0,0,0,0,-1,608,1478,0,0
-609,-454,0,0,0,0,0,0,0,0,0,-1,615,1478,0,0
-602,-454,0,0,0,0,0,0,0,0,0,-1,622,1478,0,0
-595,-454,0,0,0,0,0,0,0,0,0,-1,629,1478,0,0
-588,-454,0,0,0,0,0,0,0,0,0,-1,636,1478,0,0
-581,-454,0,0,0,0,0,0,0,0,0,-1,643,1478,0,0
-574,-454,-7.54492,0.926392,0,0,0,0,0,0,0,-1,650,1478,-7.54491,-0.926348
-567,-454,-6.88684,1.67615,0,0,0,0,0,0,0,-1,657,1478,-6.88683,-1.67613
-560,-454,-5.27094,-0.668945,0,0,0,0,0,0,0,-1,664,1478,-5.27092,0.669002
-553,-454,-5.09344,0.781494,0,0,0,0,0,0,0,-1,671,1478,-5.09346,-0.781435
-546,-454,-5.35529,2.17285,0,0,0,0,0,0,0,-1,678,1478,-5.35529,-2.17286
-539,-454,-2.30231,0.631836,0,0,0,0,0,0,0,-1,685,1478,-2.30231,-0.631845
-532,-454,-2.01807,1.53137,0.00895332,0.00699202,0.0368457,0.0448314,-0.0288861,0.772094,0.0428914,0.0452957,692,1478,-2.01807,-1.53135
-525,-454,-1.82379,2.77332,0.0072589,0.00381419,0.026502,0.0320945,-0.0210214,0.752949,0.0308878,0.0393342,699,1478,-1.82376,-2.77327
-518,-454,-1.84027,3.36157,0.00569948,0.00190213,0.018682,0.0225791,-0.0149775,0.734757,0.0218308,0.0252386,706,1478,-1.84028,-3.36161
-511,-454,-1.89673,3.49023,0.00434812,0.000789079,0.0128981,0.0155888,-0.0104516,0.716847,0.0151317,0.0158311,713,1478,-1.89672,-3.49021
-504,-454,-1.86304,3.67908,0.00314655,-0.000390769,0.00830115,0.00986537,-0.00710959,0.680437,0.00984345,0.0158729,720,1478,-1.86302,-3.67911
-497,-454,-1.86908,3.89807,0.00220886,-0.000993865,0.00486313,0.0057275,-0.0045125,0.626346,0.00592592,0.0197736,727,1478,-1.86909,-3.89809
-490,-454,-1.88123,4.08533,0.00141371,-0.00126103,0.00205701,0.00252988,-0.0023772,0.497157,0.00283356,0.0179008,734,1478,-1.88124,-4.08531
-483,-454,-1.89667,4.25,0.00065538,-0.00169882,0.000439292,0.000734681,-0.00177812,0.178595,0.00149188,0.0159957,741,1478,-1.89669,-4.25006
-476,-454,-1.90515,4.42737,-0.000357879,-0.00198208,-0.00123212,0.000305697,-0.00264565,-0.494022,0.001874,0.0141015,748,1478,-1.90514,-4.42736
-469,-454,-1.90234,4.62952,-0.000608536,-0.00294192,-0.00259863,0.00107329,-0.00462374,-0.574402,0.00349562,0.0108173,755,1478,-1.90234,-4.62947
-462,-454,-1.8924,4.8291,-0.000367437,-0.00412114,-0.00382708,0.00201824,-0.00650682,-0.557424,0.00514433,0.010829,762,1478,-1.8924,-4.82909
-455,-454,-1.89722,5.01855,-4.81436e-05,-0.00554163,-0.00524503,0.00312583,-0.00871561,-0.54419,0.00708601,0.0114299,769,1478,-1.89721,-5.01855
-448,-454,-1.88873,5.19312,0.000833686,-0.00768855,-0.00696575,0.00473828,-0.0115931,-0.5109,0.00970186,0.0120529,776,1478,-1.88873,-5.19309
-441,-454,-1.76019,5.35645,0.00228578,-0.0100163,-0.00859234,0.00670185,-0.0144323,-0.474748,0.0124709,0.021416,783,1478,-1.76017,-5.35643
-434,-454,-1.58105,5.48547,0.00428243,-0.0129928,-0.0102942,0.00908277,-0.0177932,-0.436339,0.0157862,0.0313355,790,1478,-1.58107,-5.48553
-427,-454,-1.81799,5.604,0.00717806,-0.01653,-0.012044,0.012223,-0.021575,-0.396673,0.0197607,0.0424405,797,1478,-1.81798,-5.60398
-420,-454,-1.59357,5.51001,0,0,0,0,0,0,0,-1,804,1478,-1.59358,-5.50999
-413,-454,-0.68573,5.80139,0,0,0,0,0,0,0,-1,811,1478,-0.685726,-5.80142
-406,-454,-2.93335,5.75525,0,0,0,0,0,0,0,-1,818,1478,-2.93335,-5.75522
-399,-454,-1.20758,6.51941,0,0,0,0,0,0,0,-1,825,1478,-1.20757,-6.51941
-392,-454,0.0967407,0.985474,0,0,0,0,0,0,0,-1,832,1478,0.0967364,-0.985529
-385,-454,2.38629,3.297,0,0,0,0,0,0,0,-1,839,1478,2.38629,-3.29702
-378,-454,3.80048,3.42151,0,0,0,0,0,0,0,-1,846,1478,3.80046,-3.4215
-371,-454,1.25891,1.51331,0,0,0,0,0,0,0,-1,853,1478,1.25891,-1.51328
-364,-454,1.08124,0.819458,0,0,0,0,0,0,0,-1,860,1478,1.08124,-0.819513
-357,-454,0,0,0,0,0,0,0,0,0,-1,867,1478,0,0
-350,-454,0,0,0,0,0,0,0,0,0,-1,874,1478,0,0
-343,-454,0,0,0,0,0,0,0,0,0,-1,881,1478,0,0
-336,-454,0,0,0,0,0,0,0,0,0,-1,888,1478,0,0
-329,-454,0,0,0,0,0,0,0,0,0,-1,895,1478,0,0
-322,-454,0,0,0,0,0,0,0,0,0,-1,902,1478,0,0
-315,-454,0,0,0,0,0,0,0,0,0,-1,909,1478,0,0
-308,-454,0,0,0,0,0,0,0,0,0,-1,916,1478,0,0
-301,-454,0,0,0,0,0,0,0,0,0,-1,923,1478,0,0
-294,-454,0,0,0,0,0,0,0,0,0,-1,930,1478,0,0
-287,-454,0,0,0,0,0,0,0,0,0,-1,937,1478,0,0
-280,-454,0,0,0,0,0,0,0,0,0,-1,944,1478,0,0
-273,-454,0,0,0,0,0,0,0,0,0,-1,951,1478,0,0
-266,-454,0,0,0,0,0,0,0,0,0,-1,958,1478,0,0
-259,-454,0,0,0,0,0,0,0,0,0,-1,965,1478,0,0
-252,-454,0,0,0,0,0,0,0,0,0,-1,972,1478,0,0
-245,-454,0,0,0,0,0,0,0,0,0,-1,979,1478,0,0
-238,-454,0,0,0,0,0,0,0,0,0,-1,986,1478,0,0
-231,-454,0,0,0,0,0,0,0,0,0,-1,993,1478,0,0
-224,-454,0,0,0,0,0,0,0,0,0,-1,1000,1478,0,0
-217,-454,0,0,0,0,0,0,0,0,0,-1,1007,1478,0,0
-210,-454,0,0,0,0,0,0,0,0,0,-1,1014,1478,0,0
-203,-454,0,0,0,0,0,0,0,0,0,-1,1021,1478,0,0
-196,-454,0,0,0,0,0,0,0,0,0,-1,1028,1478,0,0
-189,-454,0,0,0,0,0,0,0,0,0,-1,1035,1478,0,0
-182,-454,0,0,0,0,0,0,0,0,0,-1,1042,1478,0,0
-175,-454,0,0,0,0,0,0,0,0,0,-1,1049,1478,0,0
-168,-454,0,0,0,0,0,0,0,0,0,-1,1056,1478,0,0
-161,-454,0,0,0,0,0,0,0,0,0,-1,1063,1478,0,0
-154,-454,0,0,0,0,0,0,0,0,0,-1,1070,1478,0,0
-147,-454,0,0,0,0,0,0,0,0,0,-1,1077,1478,0,0
-140,-454,0,0,0,0,0,0,0,0,0,-1,1084,1478,0,0
-133,-454,0,0,0,0,0,0,0,0,0,-1,1091,1478,0,0
-126,-454,0,0,0,0,0,0,0,0,0,-1,1098,1478,0,0
-119,-454,0,0,0,0,0,0,0,0,0,-1,1105,1478,0,0
-112,-454,0,0,0,0,0,0,0,0,0,-1,1112,1478,0,0
-105,-454,0,0,0,0,0,0,0,0,0,-1,1119,1478,0,0
-98,-454,0,0,0,0,0,0,0,0,0,-1,1126,1478,0,0
-91,-454,0,0,0,0,0,0,0,0,0,-1,1133,1478,0,0
-84,-454,0,0,0,0,0,0,0,0,0,-1,1140,1478,0,0
-77,-454,0,0,0,0,0,0,0,0,0,-1,1147,1478,0,0
-70,-454,0,0,0,0,0,0,0,0,0,-1,1154,1478,0,0
-63,-454,0,0,0,0,0,0,0,0,0,-1,1161,1478,0,0
-56,-454,0,0,0,0,0,0,0,0,0,-1,1168,1478,0,0
-49,-454,0,0,0,0,0,0,0,0,0,-1,1175,1478,0,0
-42,-454,0,0,0,0,0,0,0,0,0,-1,1182,1478,0,0
-35,-454,0,0,0,0,0,0,0,0,0,-1,1189,1478,0,0
-28,-454,0,0,0,0,0,0,0,0,0,-1,1196,1478,0,0
-21,-454,0,0,0,0,0,0,0,0,0,-1,1203,1478,0,0
-14,-454,0,0,0,0,0,0,0,0,0,-1,1210,1478,0,0
-7,-454,0,0,0,0,0,0,0,0,0,-1,1217,1478,0,0
0,-454,0,0,0,0,0,0,0,0,0,-1,1224,1478,0,0
7,-454,0,0,0,0,0,0,0,0,0,-1,1231,1478,0,0
14,-454,0,0,0,0,0,0,0,0,0,-1,1238,1478,0,0
21,-454,0,0,0,0,0,0,0,0,0,-1,1245,1478,0,0
28,-454,0,0,0,0,0,0,0,0,0,-1,1252,1478,0,0
35,-454,0,0,0,0,0,0,0,0,0,-1,1259,1478,0,0
42,-454,0,0,0,0,0,0,0,0,0,-1,1266,1478,0,0
49,-454,0,0,0,0,0,0,0,0,0,-1,1273,1478,0,0
56,-454,0,0,0,0,0,0,0,0,0,-1,1280,1478,0,0
63,-454,0,0,0,0,0,0,0,0,0,-1,1287,1478,0,0
70,-454,0,0,0,0,0,0,0,0,0,-1,1294,1478,0,0
77,-454,0,0,0,0,0,0,0,0,0,-1,1301,1478,0,0
84,-454,0,0,0,0,0,0,0,0,0,-1,1308,1478,0,0
91,-454,0,0,0,0,0,0,0,0,0,-1,1315,1478,0,0
98,-454,0,0,0,0,0,0,0,0,0,-1,1322,1478,0,0
105,-454,0,0,0,0,0,0,0,0,0,-1,1329,1478,0,0
112,-454,0,0,0,0,0,0,0,0,0,-1,1336,1478,0,0
119,-454,0,0,0,0,0,0,0,0,0,-1,1343,1478,0,0
126,-454,0,0,0,0,0,0,0,0,0,-1,1350,1478,0,0
133,-454,0,0,0,0,0,0,0,0,0,-1,1357,1478,0,0
140,-454,0,0,0,0,0,0,0,0,0,-1,1364,1478,0,0
147,-454,0,0,0,0,0,0,0,0,0,-1,1371,1478,0,0
154,-454,0,0,0,0,0,0,0,0,0,-1,1378,1478,0,0
161,-454,0,0,0,0,0,0,0,0,0,-1,1385,1478,0,0
168,-454,0,0,0,0,0,0,0,0,0,-1,1392,1478,0,0
175,-454,0,0,0,0,0,0,0,0,0,-1,1399,1478,0,0
182,-454,0,0,0,0,0,0,0,0,0,-1,1406,1478,0,0
189,-454,0,0,0,0,0,0,0,0,0,-1,1413,1478,0,0
196,-454,0,0,0,0,0,0,0,0,0,-1,1420,1478,0,0
203,-454,0,0,0,0,0,0,0,0,0,-1,1427,1478,0,0
210,-454,0,0,0,0,0,0,0,0,0,-1,1434,1478,0,0
217,-454,0,0,0,0,0,0,0,0,0,-1,1441,1478,0,0
224,-454,0,0,0,0,0,0,0,0,0,-1,1448,1478,0,0
231,-454,0,0,0,0,0,0,0,0,0,-1,1455,1478,0,0
238,-454,0,0,0,0,0,0,0,0,0,-1,1462,1478,0,0
245,-454,0,0,0,0,0,0,0,0,0,-1,1469,1478,0,0
252,-454,0,0,0,0,0,0,0,0,0,-1,1476,1478,0,0
259,-454,0,0,0,0,0,0,0,0,0,-1,1483,1478,0,0
266,-454,0,0,0,0,0,0,0,0,0,-1,1490,1478,0,0
273,-454,0,0,0,0,0,0,0,0,0,-1,1497,1478,0,0
280,-454,0,0,0,0,0,0,0,0,0,-1,1504,1478,0,0
287,-454,0,0,0,0,0,0,0,0,0,-1,1511,1478,0,0
294,-454,0,0,0,0,0,0,0,0,0,-1,1518,1478,0,0
301,-454,0,0,0,0,0,0,0,0,0,-1,1525,1478,0,0
308,-454,0,0,0,0,0,0,0,0,0,-1,1532,1478,0,0
315,-454,0,0,0,0,0,0,0,0,0,-1,1539,1478,0,0
322,-454,0,0,0,0,0,0,0,0,0,-1,1546,1478,0,0
329,-454,0,0,0,0,0,0,0,0,0,-1,1553,1478,0,0
336,-454,0,0,0,0,0,0,0,0,0,-1,1560,1478,0,0
343,-454,0,0,0,0,0,0,0,0,0,-1,1567,1478,0,0
350,-454,0,0,0,0,0,0,0,0,0,-1,1574,1478,0,0
357,-454,0,0,0,0,0,0,0,0,0,-1,1581,1478,0,0
364,-454,0,0,0,0,0,0,0,0,0,-1,1588,1478,0,0
371,-454,0,0,0,0,0,0,0,0,0,-1,1595,1478,0,0
378,-454,0,0,0,0,0,0,0,0,0,-1,1602,1478,0,0
385,-454,0,0,0,0,0,0,0,0,0,-1,1609,1478,0,0
392,-454,0,0,0,0,0,0,0,0,0,-1,1616,1478,0,0
399,-454,0,0,0,0,0,0,0,0,0,-1,1623,1478,0,0
406,-454,0,0,0,0,0,0,0,0,0,-1,1630,1478,0,0
413,-454,0,0,0,0,0,0,0,0,0,-1,1637,1478,0,0
420,-454,0,0,0,0,0,0,0,0,0,-1,1644,1478,0,0
427,-454,0,0,0,0,0,0,0,0,0,-1,1651,1478,0,0
434,-454,0,0,0,0,0,0,0,0,0,-1,1658,1478,0,0
441,-454,0,0,0,0,0,0,0,0,0,-1,1665,1478,0,0
448,-454,0,0,0,0,0,0,0,0,0,-1,1672,1478,0,0
455,-454,0,0,0,0,0,0,0,0,0,-1,1679,1478,0,0
462,-454,0,0,0,0,0,0,0,0,0,-1,1686,1478,0,0
469,-454,0,0,0,0,0,0,0,0,0,-1,1693,1478,0,0
476,-454,0,0,0,0,0,0,0,0,0,-1,1700,1478,0,0
483,-454,12.265,3.05029,0,0,0,0,0,0,0,-1,1707,1478,12.2651,-3.05029
490,-454,11.8601,2.47205,0,0,0,0,0,0,0,-1,1714,1478,11.8601,-2.472
497,-454,11.5433,1.1958,0,0,0,0,0,0,0,-1,1721,1478,11.5434,-1.19579
504,-454,10.6036,3.28125,-0.0680622,-0.0602032,0.00796043,-0.0552553,-0.0730102,1.01467,0.0439668,0.0482884,1728,1478,10.6037,-3.28124
511,-454,9.55981,2.97351,-0.064204,-0.0555559,0.00681355,-0.0518102,-0.0679498,1.06814,0.0409931,0.0488746,1735,1478,9.55978,-2.97346
518,-454,8.50256,2.70117,0,0,0,0,0,0,0,-1,1742,1478,8.50262,-2.70112
525,-454,9.43726,4.62024,0,0,0,0,0,0,0,-1,1749,1478,9.43721,-4.62022
532,-454,9.18518,5.00281,0,0,0,0,0,0,0,-1,1756,1478,9.18517,-5.00282
539,-454,7.76001,6.37512,0,0,0,0,0,0,0,-1,1763,1478,7.75996,-6.37506
546,-454,8.46692,5.86182,0,0,0,0,0,0,0,-1,1770,1478,8.4669,-5.86178
553,-454,9.17383,5.34851,0,0,0,0,0,0,0,-1,1777,1478,9.17384,-5.3485
560,-454,9.29382,7.08728,-0.0203994,-0.0277356,0.00956388,-0.0138243,-0.0343107,0.602281,0.0199334,0.0425831,1784,1478,9.29387,-7.08734
567,-454,9.28455,6.98975,-0.0159538,-0.0224335,0.00883684,-0.00978165,-0.0286057,0.609693,0.0167883,0.0226768,1791,1478,9.28455,-6.98978
574,-454,9.22375,6.81702,-0.0136744,-0.0185812,0.00785462,-0.00789893,-0.0243567,0.634022,0.0143488,0.0118417,1798,1478,9.22377,-6.81706
581,-454,9.23315,6.66882,-0.0114756,-0.0149017,0.00669257,-0.00628036,-0.020097,0.660106,0.0118718,0.0104081,1805,1478,9.23315,-6.66887
588,-454,9.22766,6.51343,-0.0095002,-0.0116574,0.00574278,-0.0047356,-0.016422,0.692571,0.00976023,0.0116543,1812,1478,9.22771,-6.51342
595,-454,9.19885,6.35107,-0.00760685,-0.00868226,0.00484988,-0.00326495,-0.0130242,0.730189,0.0078249,0.0109472,1819,1478,9.19887,-6.35113
602,-454,9.20215,6.18604,-0.00639518,-0.00589418,0.00399431,-0.00214251,-0.0101468,0.816714,0.00617554,0.0081611,1826,1478,9.20214,-6.18605
609,-454,9.19946,6.02075,-0.00464981,-0.00361962,0.00316376,-0.000929295,-0.00734013,0.866095,0.00461495,0.00994096,1833,1478,9.19944,-6.02069
616,-454,9.20996,5.85486,-0.00298813,-0.00201633,0.00251204,5.63767e-05,-0.00506083,0.880933,0.00339284,0.0129225,1840,1478,9.20992,-5.85482
623,-454,9.21411,5.68774,-0.00188676,-0.000332008,0.0017209,0.000778954,-0.00299772,0.997542,0.00230248,0.0104347,1847,1478,9.21413,-5.68773
630,-454,9.21326,5.53491,-0.00115818,0.000885298,0.00119179,0.00143337,-0.00170626,1.13976,0.00181495,0.0089127,1854,1478,9.21331,-5.53489
637,-454,9.22742,5.37427,-0.000479331,0.00161404,0.000809244,0.00189039,-0.000755682,1.24172,0.00157384,0.00893187,1861,1478,9.2274,-5.37427
644,-454,9.26868,5.19519,0.000267616,0.00190846,0.00074076,0.00219339,-1.73206e-05,1.20359,0.00146807,0.0127985,1868,1478,9.26865,-5.19514
651,-454,9.2207,5.0531,0.00107814,0.00186684,0.0010548,0.00259859,0.000346385,0.964285,0.00162925,0.0217897,1875,1478,9.22075,-5.05309
658,-454,9.28723,4.92224,0.00209589,0.00166433,0.00154844,0.00344352,0.000316704,0.716169,0.00219773,0.0326115,1882,1478,9.28718,-4.9222
665,-454,9.29724,4.8446,0.00360656,0.00109811,0.00213862,0.0048316,-0.000126929,0.520194,0.0032642,0.0450801,1889,1478,9.29719,-4.84466
672,-454,9.22412,4.69299,0,0,0,0,0,0,0,-1,1896,1478,9.22411,-4.69305
679,-454,10.9514,4.3175,0,0,0,0,0,0,0,-1,1903,1478,10.9514,-4.31749
686,-454,10.3767,2.12842,0,0,0,0,0,0,0,-1,1910,1478,10.3767,-2.12839
693,-454,11.1857,1.48486,0,0,0,0,0,0,0,-1,1917,1478,11.1857,-1.48487
700,-454,0,0,0,0,0,0,0,0,0,-1,1924,1478,0,0
707,-454,0,0,0,0,0,0,0,0,0,-1,1931,1478,0,0
714,-454,0,0,0,0,0,0,0,0,0,-1,1938,1478,0,0
721,-454,0,0,0,0,0,0,0,0,0,-1,1945,1478,0,0
728,-454,0,0,0,0,0,0,0,0,0,-1,1952,1478,0,0
735,-454,0,0,0,0,0,0,0,0,0,-1,1959,1478,0,0
742,-454,0,0,0,0,0,0,0,0,0,-1,1966,1478,0,0
749,-454,0,0,0,0,0,0,0,0,0,-1,1973,1478,0,0
756,-454,0,0,0,0,0,0,0,0,0,-1,1980,1478,0,0
763,-454,0,0,0,0,0,0,0,0,0,-1,1987,1478,0,0
770,-454,0,0,0,0,0,0,0,0,0,-1,1994,1478,0,0
777,-454,0,0,0,0,0,0,0,0,0,-1,2001,1478,0,0
784,-454,0,0,0,0,0,0,0,0,0,-1,2008,1478,0,0
791,-454,0,0,0,0,0,0,0,0,0,-1,2015,1478,0,0
798,-454,0,0,0,0,0,0,0,0,0,-1,2022,1478,0,0
805,-454,0,0,0,0,0,0,0,0,0,-1,2029,1478,0,0
812,-454,0,0,0,0,0,0,0,0,0,-1,2036,1478,0,0
-700,-461,0,0,0,0,0,0,0,0,0,-1,524,1485,0,0
-693,-461,0,0,0,0,0,0,0,0,0,-1,531,1485,0,0
-686,-461,0,0,0,0,0,0,0,0,0,-1,538,1485,0,0
-679,-461,0,0,0,0,0,0,0,0,0,-1,545,1485,0,0
-672,-461,0,0,0,0,0,0,0,0,0,-1,552,1485,0,0
-665,-461,0,0,0,0,0,0,0,0,0,-1,559,1485,0,0
-658,-461,0,0,0,0,0,0,0,0,0,-1,566,1485,0,0
-651,-461,0,0,0,0,0,0,0,0,0,-1,573,1485,0,0
-644,-461,0,0,0,0,0,0,0,0,0,-1,580,1485,0,0
-637,-461,0,0,0,0,0,0,0,0,0,-1,587,1485,0,0
-630,-461,0,0,0,0,0,0,0,0,0,-1,594,1485,0,0
-623,-461,0,0,0,0,0,0,0,0,0,-1,601,1485,0,0
-616,-461,0,0,0,0,0,0,0,0,0,-1,608,1485,0,0
-609,-461,0,0,0,0,0,0,0,0,0,-1,615,1485,0,0
-602,-461,0,0,0,0,0,0,0,0,0,-1,622,1485,0,0
-595,-461,0,0,0,0,0,0,0,0,0,-1,629,1485,0,0
-588,-461,0,0,0,0,0,0,0,0,0,-1,636,1485,0,0
-581,-461,0,0,0,0,0,0,0,0,0,-1,643,1485,0,0
-574,-461,0,0,0,0,0,0,0,0,0,-1,650,1485,0,0
-567,-461,-7.94788,1.73059,0,0,0,0,0,0,0,-1,657,1485,-7.94788,-1.73063
-560,-461,-6.71979,2.44128,0,0,0,0,0,0,0,-1,664,1485,-6.71982,-2.44134
-553,-461,-5.47742,3.43127,0,0,0,0,0,0,0,-1,671,1485,-5.47744,-3.43123
-546,-461,-3.06854,0.500122,0,0,0,0,0,0,0,-1,678,1485,-3.06855,-0.500113
-539,-461,-2.76349,1.18762,0,0,0,0,0,0,0,-1,685,1485,-2.76351,-1.18762
-532,-461,-1.94995,1.46008,0.0100441,0.00927904,0.0400501,0.0497135,-0.0303904,0.780623,0.0466944,0.0386385,692,1485,-1.94996,-1.46005
-525,-461,-1.91492,2.57507,0.00801033,0.00555772,0.0289204,0.0357304,-0.0221624,0.764209,0.033729,0.0406528,699,1485,-1.91495,-2.57504
-518,-461,-1.76294,3.20447,0.0061456,0.00319152,0.020513,0.0252347,-0.0158976,0.749458,0.0239508,0.0349101,706,1485,-1.76296,-3.20453
-511,-461,-1.68744,3.52954,0.00455619,0.00170121,0.014297,0.0174967,-0.0112394,0.73564,0.0167214,0.0172262,713,1485,-1.68744,-3.52954
-504,-461,-1.68738,3.69263,0.00320768,0.000284137,0.00939023,0.0112492,-0.00775742,0.708183,0.0110351,0.0108491,720,1485,-1.68735,-3.69263
-497,-461,-1.67645,3.91479,0.00220244,-0.000512856,0.0057806,0.00678268,-0.0050931,0.670057,0.00687958,0.0108451,727,1485,-1.67647,-3.9148
-490,-461,-1.68506,4.09644,0.00140421,-0.000941418,0.00292591,0.00338361,-0.00292082,0.594784,0.00364313,0.0119767,734,1485,-1.68506,-4.09641
-483,-461,-1.69269,4.27515,0.000712413,-0.00139903,0.00128624,0.00132071,-0.00200732,0.441756,0.00193503,0.0122604,741,1485,-1.6927,-4.2751
-476,-461,-1.70782,4.46362,-0.000206739,-0.0015658,-0.000385658,-0.000104928,-0.00166761,-0.258104,0.00107846,0.0113218,748,1485,-1.70782,-4.46363
-469,-461,-1.71344,4.65674,-0.000292687,-0.00246842,-0.0016668,0.000609844,-0.00337095,-0.496274,0.00247575,0.0131416,755,1485,-1.71343,-4.65671
-462,-461,-1.69507,4.83936,0.000194907,-0.00345189,-0.00271576,0.00164261,-0.0048996,-0.489757,0.00393008,0.0184956,762,1485,-1.69507,-4.83933
-455,-461,-1.72052,5.02527,0.000729585,-0.00456216,-0.00381823,0.00272909,-0.00656166,-0.482407,0.00551405,0.0218145,769,1485,-1.72052,-5.02522
-448,-461,-1.68671,5.203,0.00183469,-0.00631006,-0.00510106,0.00428957,-0.00876494,-0.448535,0.00768324,0.0173238,776,1485,-1.68672,-5.20302
-441,-461,-1.6532,5.37927,0.00357972,-0.00819482,-0.00620173,0.00624356,-0.0108587,-0.405702,0.00999309,0.0142789,783,1485,-1.65321,-5.3793
-434,-461,-1.51917,5.50989,0.00582576,-0.0106873,-0.00727204,0.00857164,-0.0134331,-0.361043,0.0128074,0.0188591,790,1485,-1.51919,-5.50984
-427,-461,-1.46991,5.62622,0.00885419,-0.0136082,-0.00827809,0.0115753,-0.0163293,-0.317584,0.0161885,0.0249622,797,1485,-1.46993,-5.62623
-420,-461,-1.46155,5.72534,0.0128927,-0.0164042,-0.00884506,0.015356,-0.0188675,-0.271613,0.0197936,0.0431734,804,1485,-1.46157,-5.72529
-413,-461,-1.10156,5.80139,0.0180818,-0.0198066,-0.00925527,0.0202218,-0.0219466,-0.227224,0.0243527,0.046139,811,1485,-1.10157,-5.80133
-406,-461,-1.12256,6.42542,0,0,0,0,0,0,0,-1,818,1485,-1.12253,-6.42544
-399,-461,-0.661316,6.36182,0,0,0,0,0,0,0,-1,825,1485,-0.661336,-6.36176
-392,-461,-0.357544,5.55225,0,0,0,0,0,0,0,-1,832,1485,-0.357536,-5.55228
-385,-461,1.71509,3.35254,0,0,0,0,0,0,0,-1,839,1485,1.71511,-3.35255
-378,-461,1.95996,3.01111,0,0,0,0,0,0,0,-1,846,1485,1.95993,-3.01111
-371,-461,0.702881,2.33459,0,0,0,0,0,0,0,-1,853,1485,0.702859,-2.33459
-364,-461,-1.93097,2.56458,0,0,0,0,0,0,0,-1,860,1485,-1.93095,-2.56456
-357,-461,-2.41516,3.49487,0,0,0,0,0,0,0,-1,867,1485,-2.41517,-3.49487
-350,-461,0,0,0,0,0,0,0,0,0,-1,874,1485,0,0
-343,-461,0,0,0,0,0,0,0,0,0,-1,881,1485,0,0
-336,-461,0,0,0,0,0,0,0,0,0,-1,888,1485,0,0
-329,-461,0,0,0,0,0,0,0,0,0,-1,895,1485,0,0
-322,-461,0,0,0,0,0,0,0,0,0,-1,902,1485,0,0
-315,-461,0,0,0,0,0,0,0,0,0,-1,909,1485,0,0
-308,-461,0,0,0,0,0,0,0,0,0,-1,916,1485,0,0
-301,-461,0,0,0,0,0,0,0,0,0,-1,923,1485,0,0
-294,-461,0,0,0,0,0,0,0,0,0,-1,930,1485,0,0
-287,-461,0,0,0,0,0,0,0,0,0,-1,937,1485,0,0
-280,-461,0,0,0,0,0,0,0,0,0,-1,944,1485,0,0
-273,-461,0,0,0,0,0,0,0,0,0,-1,951,1485,0,0
-266,-461,0,0,0,0,0,0,0,0,0,-1,958,1485,0,0
-259,-461,0,0,0,0,0,0,0,0,0,-1,965,1485,0,0
-252,-461,0,0,0,0,0,0,0,0,0,-1,972,1485,0,0
-245,-461,0,0,0,0,0,0,0,0,0,-1,979,1485,0,0
-238,-461,0,0,0,0,0,0,0,0,0,-1,986,1485,0,0
-231,-461,0,0,0,0,0,0,0,0,0,-1,993,1485,0,0
-224,-461,0,0,0,0,0,0,0,0,0,-1,1000,1485,0,0
-217,-461,0,0,0,0,0,0,0,0,0,-1,1007,1485,0,0
-210,-461,0,0,0,0,0,0,0,0,0,-1,1014,1485,0,0
-203,-461,0,0,0,0,0,0,0,0,0,-1,1021,1485,0,0
-196,-461,0,0,0,0,0,0,0,0,0,-1,1028,1485,0,0
-189,-461,0,0,0,0,0,0,0,0,0,-1,1035,1485,0,0
-182,-461,0,0,0,0,0,0,0,0,0,-1,1042,1485,0,0
-175,-461,0,0,0,0,0,0,0,0,0,-1,1049,1485,0,0
-168,-461,0,0,0,0,0,0,0,0,0,-1,1056,1485,0,0
-161,-461,0,0,0,0,0,0,0,0,0,-1,1063,1485,0,0
-154,-461,0,0,0,0,0,0,0,0,0,-1,1070,1485,0,0
-147,-461,0,0,0,0,0,0,0,0,0,-1,1077,1485,0,0
-140,-461,0,0,0,0,0,0,0,0,0,-1,1084,1485,0,0
-133,-461,0,0,0,0,0,0,0,0,0,-1,1091,1485,0,0
-126,-461,0,0,0,0,0,0,0,0,0,-1,1098,1485,0,0
-119,-461,0,0,0,0,0,0,0,0,0,-1,1105,1485,0,0
-112,-461,0,0,0,0,0,0,0,0,0,-1,1112,1485,0,0
-105,-461,0,0,0,0,0,0,0,0,0,-1,1119,1485,0,0
-98,-461,0,0,0,0,0,0,0,0,0,-1,1126,1485,0,0
-91,-461,0,0,0,0,0,0,0,0,0,-1,1133,1485,0,0
-84,-461,0,0,0,0,0,0,0,0,0,-1,1140,1485,0,0
-77,-461,0,0,0,0,0,0,0,0,0,-1,1147,1485,0,0
-70,-461,0,0,0,0,0,0,0,0,0,-1,1154,1485,0,0
-63,-461,0,0,0,0,0,0,0,0,0,-1,1161,1485,0,0
-56,-461,0,0,0,0,0,0,0,0,0,-1,1168,1485,0,0
-49,-461,0,0,0,0,0,0,0,0,0,-1,1175,1485,0,0
-42,-461,0,0,0,0,0,0,0,0,0,-1,1182,1485,0,0
-35,-461,0,0,0,0,0,0,0,0,0,-1,1189,1485,0,0
-28,-461,0,0,0,0,0,0,0,0,0,-1,1196,1485,0,0
-21,-461,0,0,0,0,0,0,0,0,0,-1,1203,1485,0,0
-14,-461,0,0,0,0,0,0,0,0,0,-1,1210,1485,0,0
-7,-461,0,0,0,0,0,0,0,0,0,-1,1217,1485,0,0
0,-461,0,0,0,0,0,0,0,0,0,-1,1224,1485,0,0
7,-461,0,0,0,0,0,0,0,0,0,-1,1231,1485,0,0
14,-461,0,0,0,0,0,0,0,0,0,-1,1238,1485,0,0
21,-461,0,0,0,0,0,0,0,0,0,-1,1245,1485,0,0
28,-461,0,0,0,0,0,0,0,0,0,-1,1252,1485,0,0
35,-461,0,0,0,0,0,0,0,0,0,-1,1259,1485,0,0
42,-461,0,0,0,0,0,0,0,0,0,-1,1266,1485,0,0
49,-461,0,0,0,0,0,0,0,0,0,-1,1273,1485,0,0
56,-461,0,0,0,0,0,0,0,0,0,-1,1280,1485,0,0
63,-461,0,0,0,0,0,0,0,0,0,-1,1287,1485,0,0
70,-461,0,0,0,0,0,0,0,0,0,-1,1294,1485,0,0
77,-461,0,0,0,0,0,0,0,0,0,-1,1301,1485,0,0
84,-461,0,0,0,0,0,0,0,0,0,-1,1308,1485,0,0
91,-461,0,0,0,0,0,0,0,0,0,-1,1315,1485,0,0
98,-461,0,0,0,0,0,0,0,0,0,-1,1322,1485,0,0
105,-461,0,0,0,0,0,0,0,0,0,-1,1329,1485,0,0
112,-461,0,0,0,0,0,0,0,0,0,-1,1336,1485,0,0
119,-461,0,0,0,0,0,0,0,0,0,-1,1343,1485,0,0
126,-461,0,0,0,0,0,0,0,0,0,-1,1350,1485,0,0
133,-461,0,0,0,0,0,0,0,0,0,-1,1357,1485,0,0
140,-461,0,0,0,0,0,0,0,0,0,-1,1364,1485,0,0
147,-461,0,0,0,0,0,0,0,0,0,-1,1371,1485,0,0
154,-461,0,0,0,0,0,0,0,0,0,-1,1378,1485,0,0
161,-461,0,0,0,0,0,0,0,0,0,-1,1385,1485,0,0
168,-461,0,0,0,0,0,0,0,0,0,-1,1392,1485,0,0
175,-461,0,0,0,0,0,0,0,0,0,-1,1399,1485,0,0
182,-461,0,0,0,0,0,0,0,0,0,-1,1406,1485,0,0
189,-461,0,0,0,0,0,0,0,0,0,-1,1413,1485,0,0
196,-461,0,0,0,0,0,0,0,0,0,-1,1420,1485,0,0
203,-461,0,0,0,0,0,0,0,0,0,-1,1427,1485,0,0
210,-461,0,0,0,0,0,0,0,0,0,-1,1434,1485,0,0
217,-461,0,0,0,0,0,0,0,0,0,-1,1441,1485,0,0
224,-461,0,0,0,0,0,0,0,0,0,-1,1448,1485,0,0
231,-461,0,0,0,0,0,0,0,0,0,-1,1455,1485,0,0
238,-461,0,0,0,0,0,0,0,0,0,-1,1462,1485,0,0
245,-461,0,0,0,0,0,0,0,0,0,-1,1469,1485,0,0
252,-461,0,0,0,0,0,0,0,0,0,-1,1476,1485,0,0
259,-461,0,0,0,0,0,0,0,0,0,-1,1483,1485,0,0
266,-461,0,0,0,0,0,0,0,0,0,-1,1490,1485,0,0
273,-461,0,0,0,0,0,0,0,0,0,-1,1497,1485,0,0
280,-461,0,0,0,0,0,0,0,0,0,-1,1504,1485,0,0
287,-461,0,0,0,0,0,0,0,0,0,-1,1511,1485,0,0
294,-461,0,0,0,0,0,0,0,0,0,-1,1518,1485,0,0
301,-461,0,0,0,0,0,0,0,0,0,-1,1525,1485,0,0
308,-461,0,0,0,0,0,0,0,0,0,-1,1532,1485,0,0
315,-461,0,0,0,0,0,0,0,0,0,-1,1539,1485,0,0
322,-461,0,0,0,0,0,0,0,0,0,-1,1546,1485,0,0
329,-461,0,0,0,0,0,0,0,0,0,-1,1553,1485,0,0
336,-461,0,0,0,0,0,0,0,0,0,-1,1560,1485,0,0
343,-461,0,0,0,0,0,0,0,0,0,-1,1567,1485,0,0
350,-461,0,0,0,0,0,0,0,0,0,-1,1574,1485,0,0
357,-461,0,0,0,0,0,0,0,0,0,-1,1581,1485,0,0
364,-461,0,0,0,0,0,0,0,0,0,-1,1588,1485,0,0
371,-461,0,0,0,0,0,0,0,0,0,-1,1595,1485,0,0
378,-461,0,0,0,0,0,0,0,0,0,-1,1602,1485,0,0
385,-461,0,0,0,0,0,0,0,0,0,-1,1609,1485,0,0
392,-461,0,0,0,0,0,0,0,0,0,-1,1616,1485,0,0
399,-461,0,0,0,0,0,0,0,0,0,-1,1623,1485,0,0
406,-461,0,0,0,0,0,0,0,0,0,-1,1630,1485,0,0
413,-461,0,0,0,0,0,0,0,0,0,-1,1637,1485,0,0
420,-461,0,0,0,0,0,0,0,0,0,-1,1644,1485,0,0
427,-461,0,0,0,0,0,0,0,0,0,-1,1651,1485,0,0
434,-461,0,0,0,0,0,0,0,0,0,-1,1658,1485,0,0
441,-461,0,0,0,0,0,0,0,0,0,-1,1665,1485,0,0
448,-461,0,0,0,0,0,0,0,0,0,-1,1672,1485,0,0
455,-461,0,0,0,0,0,0,0,0,0,-1,1679,1485,0,0
462,-461,0,0,0,0,0,0,0,0,0,-1,1686,1485,0,0
469,-461,0,0,0,0,0,0,0,0,0,-1,1693,1485,0,0
476,-461,14.1906,0.690552,0,0,0,0,0,0,0,-1,1700,1485,14.1906,-0.690525
483,-461,10.6361,3.09106,0,0,0,0,0,0,0,-1,1707,1485,10.6361,-3.091
490,-461,10.7461,2.45007,-0.0420907,-0.068347,0.0137527,-0.036206,-0.0742316,0.404314,0.0428619,0.0469332,1714,1485,10.746,-2.45007
497,-461,11.1135,1.81384,-0.0529232,-0.0647019,0.0136947,-0.0439052,-0.0737199,0.582328,0.0428206,0.0487426,1721,1485,11.1135,-1.81387
504,-461,11.6407,1.29785,0,0,0,0,0,0,0,-1,1728,1485,11.6407,-1.29786
511,-461,9.55627,3.86523,0,0,0,0,0,0,0,-1,1735,1485,9.55627,-3.86518
518,-461,9.94092,4.37708,0,0,0,0,0,0,0,-1,1742,1485,9.94092,-4.37704
525,-461,9.47327,4.99023,0,0,0,0,0,0,0,-1,1749,1485,9.47321,-4.99021
532,-461,9.22437,5.31995,0,0,0,0,0,0,0,-1,1756,1485,9.22436,-5.31996
539,-461,7.66138,6.94885,0,0,0,0,0,0,0,-1,1763,1485,7.66138,-6.9489
546,-461,8.33948,6.49109,-0.0249866,-0.0336854,0.00781598,-0.0203913,-0.0382806,0.531498,0.0221171,0.0473819,1770,1485,8.33951,-6.49111
553,-461,9.203,6.89404,-0.019692,-0.0271961,0.00757718,-0.0149888,-0.0318993,0.555508,0.0184282,0.0436415,1777,1485,9.20303,-6.89409
560,-461,9.00854,7.06262,-0.0132049,-0.0213576,0.00676609,-0.00938209,-0.0251804,0.514282,0.0146944,0.0271535,1784,1485,9.00856,-7.06262
567,-461,9.04517,6.98511,-0.00986778,-0.0168736,0.00559554,-0.00676914,-0.0199722,0.505733,0.0117287,0.0122794,1791,1485,9.04523,-6.98516
574,-461,9.06177,6.8208,-0.00841686,-0.0136852,0.00459302,-0.00575624,-0.0163458,0.525041,0.00957377,0.0121534,1798,1485,9.06172,-6.82074
581,-461,9.07324,6.66089,-0.00710758,-0.0106445,0.00357126,-0.00489089,-0.0128612,0.555502,0.00749601,0.0118178,1805,1485,9.07329,-6.66083
588,-461,9.04138,6.51416,-0.00602619,-0.00798719,0.00290422,-0.00394142,-0.010072,0.622599,0.00586065,0.010215,1812,1485,9.04133,-6.51416
595,-461,9.03345,6.35974,-0.00495388,-0.00558255,0.00236982,-0.00287764,-0.00765879,0.719463,0.00446709,0.00834617,1819,1485,9.03341,-6.35975
602,-461,9.05115,6.19653,-0.00449276,-0.00328295,0.00192207,-0.00187285,-0.00590287,0.93785,0.00348305,0.00890175,1826,1485,9.05113,-6.19648
609,-461,9.05151,6.02112,-0.00351389,-0.00137151,0.00148476,-0.000611865,-0.00427354,1.09789,0.00266856,0.0103657,1833,1485,9.05148,-6.02115
616,-461,9.05786,5.86218,-0.00263051,-2.12167e-05,0.00125167,0.000482113,-0.00313384,1.18846,0.00226708,0.0129928,1840,1485,9.05784,-5.86221
623,-461,9.05994,5.70288,-0.00226042,0.00134084,0.000940753,0.00157179,-0.00249136,1.33007,0.0023658,0.0119547,1847,1485,9.05999,-5.70285
630,-461,9.05994,5.5376,-0.0021607,0.00242592,0.000813011,0.00256577,-0.00230055,1.40045,0.00281096,0.00972586,1854,1485,9.0599,-5.53755
637,-461,9.07434,5.36743,-0.00199889,0.00308574,0.000800068,0.00320866,-0.0021218,1.41835,0.0030988,0.0109558,1861,1485,9.07429,-5.36744
644,-461,9.09619,5.21606,-0.00167179,0.00347975,0.00096117,0.00365324,-0.00184529,1.39222,0.00323127,0.0188459,1868,1485,9.09616,-5.21602
651,-461,9.08203,4.99451,-0.00105922,0.003572,0.0013685,0.00394615,-0.00143337,1.30391,0.00321683,0.0238746,1875,1485,9.08203,-4.99448
658,-461,9.21375,4.55859,9.24815e-05,0.00350892,0.00187597,0.00433788,-0.000736482,1.15471,0.0031661,0.0390481,1882,1485,9.21378,-4.55865
665,-461,9.41577,4.96729,0.00202651,0.00303652,0.00251408,0.00509582,-3.27805e-05,0.884515,0.00340819,0.04644,1889,1485,9.41578,-4.96732
672,-461,9.67126,4.69238,0,0,0,0,0,0,0,-1,1896,1485,9.67126,-4.69237
679,-461,10.0535,2.16321,0,0,0,0,0,0,0,-1,1903,1485,10.0535,-2.16317
686,-461,10.8195,1.84192,0,0,0,0,0,0,0,-1,1910,1485,10.8194,-1.84195
693,-461,0,0,0,0,0,0,0,0,0,-1,1917,1485,0,0
700,-461,0,0,0,0,0,0,0,0,0,-1,1924,1485,0,0
707,-461,0,0,0,0,0,0,0,0,0,-1,1931,1485,0,0
714,-461,0,0,0,0,0,0,0,0,0,-1,1938,1485,0,0
721,-461,0,0,0,0,0,0,0,0,0,-1,1945,1485,0,0
728,-461,0,0,0,0,0,0,0,0,0,-1,1952,1485,0,0
735,-461,0,0,0,0,0,0,0,0,0,-1,1959,1485,0,0
742,-461,0,0,0,0,0,0,0,0,0,-1,1966,1485,0,0
749,-461,0,0,0,0,0,0,0,0,0,-1,1973,1485,0,0
756,-461,0,0,0,0,0,0,0,0,0,-1,1980,1485,0,0
763,-461,0,0,0,0,0,0,0,0,0,-1,1987,1485,0,0
770,-461,0,0,0,0,0,0,0,0,0,-1,1994,1485,0,0
777,-461,0,0,0,0,0,0,0,0,0,-1,2001,1485,0,0
784,-461,0,0,0,0,0,0,0,0,0,-1,2008,1485,0,0
791,-461,0,0,0,0,0,0,0,0,0,-1,2015,1485,0,0
798,-461,0,0,0,0,0,0,0,0,0,-1,2022,1485,0,0
805,-461,0,0,0,0,0,0,0,0,0,-1,2029,1485,0,0
812,-461,0,0,0,0,0,0,0,0,0,-1,2036,1485,0,0
-700,-468,0,0,0,0,0,0,0,0,0,-1,524,1492,0,0
-693,-468,0,0,0,0,0,0,0,0,0,-1,531,1492,0,0
-686,-468,0,0,0,0,0,0,0,0,0,-1,538,1492,0,0
-679,-468,0,0,0,0,0,0,0,0,0,-1,545,1492,0,0
-672,-468,0,0,0,0,0,0,0,0,0,-1,552,1492,0,0
-665,-468,0,0,0,0,0,0,0,0,0,-1,559,1492,0,0
-658,-468,0,0,0,0,0,0,0,0,0,-1,566,1492,0,0
-651,-468,0,0,0,0,0,0,0,0,0,-1,573,1492,0,0
-644,-468,0,0,0,0,0,0,0,0,0,-1,580,1492,0,0
-637,-468,0,0,0,0,0,0,0,0,0,-1,587,1492,0,0
-630,-468,0,0,0,0,0,0,0,0,0,-1,594,1492,0,0
-623,-468,0,0,0,0,0,0,0,0,0,-1,601,1492,0,0
-616,-468,0,0,0,0,0,0,0,0,0,-1,608,1492,0,0
-609,-468,0,0,0,0,0,0,0,0,0,-1,615,1492,0,0
-602,-468,0,0,0,0,0,0,0,0,0,-1,622,1492,0,0
-595,-468,0,0,0,0,0,0,0,0,0,-1,629,1492,0,0
-588,-468,0,0,0,0,0,0,0,0,0,-1,636,1492,0,0
-581,-468,0,0,0,0,0,0,0,0,0,-1,643,1492,0,0
-574,-468,0,0,0,0,0,0,0,0,0,-1,650,1492,0,0
-567,-468,-0.0491333,0.895996,0,0,0,0,0,0,0,-1,657,1492,-0.0491181,-0.896051
-560,-468,-5.11304,1.31372,0,0,0,0,0,0,0,-1,664,1492,-5.11304,-1.31372
-553,-468,-3.63507,0.255737,0,0,0,0,0,0,0,-1,671,1492,-3.63506,-0.255692
-546,-468,-3.10602,0.992798,0,0,0,0,0,0,0,-1,678,1492,-3.10604,-0.992826
-539,-468,-2.72382,1.72656,0,0,0,0,0,0,0,-1,685,1492,-2.72382,-1.72659
-532,-468,-2.20935,2.38513,0.0107762,0.0102722,0.0417142,0.0522391,-0.0311907,0.782378,0.0486765,0.0403936,692,1492,-2.20935,-2.38517
-525,-468,-1.85571,2.93884,0.00845359,0.0064177,0.0300906,0.0375435,-0.0226722,0.76849,0.0351172,0.0437277,699,1492,-1.85574,-2.93884
-518,-468,-1.73926,3.3208,0.00634417,0.00389709,0.0213554,0.026511,-0.0162697,0.756782,0.0249343,0.043302,706,1492,-1.73925,-3.32079
-511,-468,-1.55573,3.4873,0.00459234,0.00223652,0.0149244,0.0183852,-0.0115563,0.746017,0.017436,0.0324164,713,1492,-1.5557,-3.48733
-504,-468,-1.47644,3.68689,0.00318629,0.000744768,0.00989561,0.0119362,-0.00800509,0.724026,0.0115874,0.0136868,720,1492,-1.47645,-3.68683
-497,-468,-1.49341,3.9126,0.00219978,-0.000153773,0.00625676,0.00738947,-0.00534346,0.692443,0.00738292,0.00881433,727,1492,-1.49339,-3.91256
-490,-468,-1.47717,4.1134,0.00146124,-0.000686376,0.00346222,0.00401235,-0.00323748,0.635027,0.00419365,0.00795914,734,1492,-1.4772,-4.11339
-483,-468,-1.495,4.28528,0.000883216,-0.00113388,0.00186479,0.00199472,-0.00224538,0.537508,0.00244944,0.00861762,741,1492,-1.495,-4.28533
-476,-468,-1.50476,4.46729,8.94482e-05,-0.0011973,0.000254866,0.00013809,-0.00124594,0.188587,0.000880277,0.00948757,748,1492,-1.50474,-4.4673
-469,-468,-1.51263,4.65076,0.000144813,-0.00203744,-0.000908833,0.000473734,-0.00236636,-0.347251,0.0017569,0.0134086,755,1492,-1.51266,-4.65076
-462,-468,-1.50214,4.87024,0.000798721,-0.00290079,-0.00179134,0.00152394,-0.00362601,-0.384678,0.00305477,0.0230575,762,1492,-1.50212,-4.87024
-455,-468,-1.534,5.04834,0.00143944,-0.00378529,-0.00262905,0.00253334,-0.00487919,-0.394291,0.00435047,0.0224048,769,1492,-1.53397,-5.04828
-448,-468,-1.50421,5.18591,0.00261584,-0.00520214,-0.00356239,0.0039956,-0.00658189,-0.36952,0.00616747,0.0131791,776,1492,-1.50423,-5.18591
-441,-468,-1.47113,5.3855,0.0044565,-0.00668682,-0.00428779,0.00591538,-0.0081457,-0.327955,0.00815214,0.0126458,783,1492,-1.47113,-5.38554
-434,-468,-1.45074,5.58154,0.00672984,-0.00870453,-0.00490519,0.00815682,-0.0101315,-0.283099,0.0105793,0.011557,790,1492,-1.45072,-5.5815
-427,-468,-1.41711,5.72717,0.00968205,-0.0111041,-0.00541579,0.0110085,-0.0124305,-0.240191,0.0135408,0.0136595,797,1492,-1.41713,-5.72719
-420,-468,-1.31464,5.8457,0.0134708,-0.0133699,-0.00545387,0.0145367,-0.0144358,-0.193,0.0167273,0.0253878,804,1492,-1.31463,-5.84566
-413,-468,-1.18414,5.93494,0.0180352,-0.0161943,-0.00539115,0.0188642,-0.0170234,-0.152581,0.0207288,0.0449899,811,1492,-1.18412,-5.93493
-406,-468,-0.921204,5.78516,0.0237641,-0.019076,-0.00465782,0.0242647,-0.0195765,-0.107059,0.02536,0.0463252,818,1492,-0.921203,-5.78516
-399,-468,-0.739075,5.33813,0.0307692,-0.0217859,-0.00297431,0.030937,-0.0219537,-0.0563542,0.0306829,0.0451591,825,1492,-0.739082,-5.33813
-392,-468,-0.419495,5.10693,0,0,0,0,0,0,0,-1,832,1492,-0.419505,-5.10688
-385,-468,0.465759,5.35864,0,0,0,0,0,0,0,-1,839,1492,0.465732,-5.35864
-378,-468,1.99835,3.25391,0,0,0,0,0,0,0,-1,846,1492,1.99837,-3.2539
-371,-468,-0.31842,3.1532,0,0,0,0,0,0,0,-1,853,1492,-0.318441,-3.15324
-364,-468,-0.966736,2.14563,0,0,0,0,0,0,0,-1,860,1492,-0.966735,-2.14557
-357,-468,-3.06787,3.22742,0,0,0,0,0,0,0,-1,867,1492,-3.06784,-3.2274
-350,-468,-3.18658,4.12659,0,0,0,0,0,0,0,-1,874,1492,-3.18659,-4.12658
-343,-468,0,0,0,0,0,0,0,0,0,-1,881,1492,0,0
-336,-468,0,0,0,0,0,0,0,0,0,-1,888,1492,0,0
-329,-468,0,0,0,0,0,0,0,0,0,-1,895,1492,0,0
-322,-468,0,0,0,0,0,0,0,0,0,-1,902,1492,0,0
-315,-468,0,0,0,0,0,0,0,0,0,-1,909,1492,0,0
-308,-468,0,0,0,0,0,0,0,0,0,-1,916,1492,0,0
-301,-468,0,0,0,0,0,0,0,0,0,-1,923,1492,0,0
-294,-468,0,0,0,0,0,0,0,0,0,-1,930,1492,0,0
-287,-468,0,0,0,0,0,0,0,0,0,-1,937,1492,0,0
-280,-468,0,0,0,0,0,0,0,0,0,-1,944,1492,0,0
-273,-468,0,0,0,0,0,0,0,0,0,-1,951,1492,0,0
-266,-468,0,0,0,0,0,0,0,0,0,-1,958,1492,0,0
-259,-468,0,0,0,0,0,0,0,0,0,-1,965,1492,0,0
-252,-468,0,0,0,0,0,0,0,0,0,-1,972,1492,0,0
-245,-468,0,0,0,0,0,0,0,0,0,-1,979,1492,0,0
-238,-468,0,0,0,0,0,0,0,0,0,-1,986,1492,0,0
-231,-468,0,0,0,0,0,0,0,0,0,-1,993,1492,0,0
-224,-468,0,0,0,0,0,0,0,0,0,-1,1000,1492,0,0
-217,-468,0,0,0,0,0,0,0,0,0,-1,1007,1492,0,0
-210,-468,0,0,0,0,0,0,0,0,0,-1,1014,1492,0,0
-203,-468,0,0,0,0,0,0,0,0,0,-1,1021,1492,0,0
-196,-468,0,0,0,0,0,0,0,0,0,-1,1028,1492,0,0
-189,-468,0,0,0,0,0,0,0,0,0,-1,1035,1492,0,0
-182,-468,0,0,0,0,0,0,0,0,0,-1,1042,1492,0,0
-175,-468,0,0,0,0,0,0,0,0,0,-1,1049,1492,0,0
-168,-468,0,0,0,0,0,0,0,0,0,-1,1056,1492,0,0
-161,-468,0,0,0,0,0,0,0,0,0,-1,1063,1492,0,0
-154,-468,0,0,0,0,0,0,0,0,0,-1,1070,1492,0,0
-147,-468,0,0,0,0,0,0,0,0,0,-1,1077,1492,0,0
-140,-468,0,0,0,0,0,0,0,0,0,-1,1084,1492,0,0
-133,-468,0,0,0,0,0,0,0,0,0,-1,1091,1492,0,0
-126,-468,0,0,0,0,0,0,0,0,0,-1,1098,1492,0,0
-119,-468,0,0,0,0,0,0,0,0,0,-1,1105,1492,0,0
-112,-468,0,0,0,0,0,0,0,0,0,-1,1112,1492,0,0
-105,-468,0,0,0,0,0,0,0,0,0,-1,1119,1492,0,0
-98,-468,0,0,0,0,0,0,0,0,0,-1,1126,1492,0,0
-91,-468,0,0,0,0,0,0,0,0,0,-1,1133,1492,0,0
-84,-468,0,0,0,0,0,0,0,0,0,-1,1140,1492,0,0
-77,-468,0,0,0,0,0,0,0,0,0,-1,1147,1492,0,0
-70,-468,0,0,0,0,0,0,0,0,0,-1,1154,1492,0,0
-63,-468,0,0,0,0,0,0,0,0,0,-1,1161,1492,0,0
-56,-468,0,0,0,0,0,0,0,0,0,-1,1168,1492,0,0
-49,-468,0,0,0,0,0,0,0,0,0,-1,1175,1492,0,0
-42,-468,0,0,0,0,0,0,0,0,0,-1,1182,1492,0,0
-35,-468,0,0,0,0,0,0,0,0,0,-1,1189,1492,0,0
-28,-468,0,0,0,0,0,0,0,0,0,-1,1196,1492,0,0
-21,-468,0,0,0,0,0,0,0,0,0,-1,1203,1492,0,0
-14,-468,0,0,0,0,0,0,0,0,0,-1,1210,1492,0,0
-7,-468,0,0,0,0,0,0,0,0,0,-1,1217,1492,0,0
0,-468,0,0,0,0,0,0,0,0,0,-1,1224,1492,0,0
7,-468,0,0,0,0,0,0,0,0,0,-1,1231,1492,0,0
14,-468,0,0,0,0,0,0,0,0,0,-1,1238,1492,0,0
21,-468,0,0,0,0,0,0,0,0,0,-1,1245,1492,0,0
28,-468,0,0,0,0,0,0,0,0,0,-1,1252,1492,0,0
35,-468,0,0,0,0,0,0,0,0,0,-1,1259,1492,0,0
42,-468,0,0,0,0,0,0,0,0,0,-1,1266,1492,0,0
49,-468,0,0,0,0,0,0,0,0,0,-1,1273,1492,0,0
56,-468,0,0,0,0,0,0,0,0,0,-1,1280,1492,0,0
63,-468,0,0,0,0,0,0,0,0,0,-1,1287,1492,0,0
70,-468,0,0,0,0,0,0,0,0,0,-1,1294,1492,0,0
77,-468,0,0,0,0,0,0,0,0,0,-1,1301,1492,0,0
84,-468,0,0,0,0,0,0,0,0,0,-1,1308,1492,0,0
91,-468,0,0,0,0,0,0,0,0,0,-1,1315,1492,0,0
98,-468,0,0,0,0,0,0,0,0,0,-1,1322,1492,0,0
105,-468,0,0,0,0,0,0,0,0,0,-1,1329,1492,0,0
112,-468,0,0,0,0,0,0,0,0,0,-1,1336,1492,0,0
119,-468,0,0,0,0,0,0,0,0,0,-1,1343,1492,0,0
126,-468,0,0,0,0,0,0,0,0,0,-1,1350,1492,0,0
133,-468,0,0,0,0,0,0,0,0,0,-1,1357,1492,0,0
140,-468,0,0,0,0,0,0,0,0,0,-1,1364,1492,0,0
147,-468,0,0,0,0,0,0,0,0,0,-1,1371,1492,0,0
154,-468,0,0,0,0,0,0,0,0,0,-1,1378,1492,0,0
161,-468,0,0,0,0,0,0,0,0,0,-1,1385,1492,0,0
168,-468,0,0,0,0,0,0,0,0,0,-1,1392,1492,0,0
175,-468,0,0,0,0,0,0,0,0,0,-1,1399,1492,0,0
182,-468,0,0,0,0,0,0,0,0,0,-1,1406,1492,0,0
189,-468,0,0,0,0,0,0,0,0,0,-1,1413,1492,0,0
196,-468,0,0,0,0,0,0,0,0,0,-1,1420,1492,0,0
203,-468,0,0,0,0,0,0,0,0,0,-1,1427,1492,0,0
210,-468,0,0,0,0,0,0,0,0,0,-1,1434,1492,0,0
217,-468,0,0,0,0,0,0,0,0,0,-1,1441,1492,0,0
224,-468,0,0,0,0,0,0,0,0,0,-1,1448,1492,0,0
231,-468,0,0,0,0,0,0,0,0,0,-1,1455,1492,0,0
238,-468,0,0,0,0,0,0,0,0,0,-1,1462,1492,0,0
245,-468,0,0,0,0,0,0,0,0,0,-1,1469,1492,0,0
252,-468,0,0,0,0,0,0,0,0,0,-1,1476,1492,0,0
259,-468,0,0,0,0,0,0,0,0,0,-1,1483,1492,0,0
266,-468,0,0,0,0,0,0,0,0,0,-1,1490,1492,0,0
273,-468,0,0,0,0,0,0,0,0,0,-1,1497,1492,0,0
280,-468,0,0,0,0,0,0,0,0,0,-1,1504,1492,0,0
287,-468,0,0,0,0,0,0,0,0,0,-1,1511,1492,0,0
294,-468,0,0,0,0,0,0,0,0,0,-1,1518,1492,0,0
301,-468,0,0,0,0,0,0,0,0,0,-1,1525,1492,0,0
308,-468,0,0,0,0,0,0,0,0,0,-1,1532,1492,0,0
315,-468,0,0,0,0,0,0,0,0,0,-1,1539,1492,0,0
322,-468,0,0,0,0,0,0,0,0,0,-1,1546,1492,0,0
329,-468,0,0,0,0,0,0,0,0,0,-1,1553,1492,0,0
336,-468,0,0,0,0,0,0,0,0,0,-1,1560,1492,0,0
343,-468,0,0,0,0,0,0,0,0,0,-1,1567,1492,0,0
350,-468,0,0,0,0,0,0,0,0,0,-1,1574,1492,0,0
357,-468,0,0,0,0,0,0,0,0,0,-1,1581,1492,0,0
364,-468,0,0,0,0,0,0,0,0,0,-1,1588,1492,0,0
371,-468,0,0,0,0,0,0,0,0,0,-1,1595,1492,0,0
378,-468,0,0,0,0,0,0,0,0,0,-1,1602,1492,0,0
385,-468,0,0,0,0,0,0,0,0,0,-1,1609,1492,0,0
392,-468,0,0,0,0,0,0,0,0,0,-1,1616,1492,0,0
399,-468,0,0,0,0,0,0,0,0,0,-1,1623,1492,0,0
406,-468,0,0,0,0,0,0,0,0,0,-1,1630,1492,0,0
413,-468,0,0,0,0,0,0,0,0,0,-1,1637,1492,0,0
420,-468,0,0,0,0,0,0,0,0,0,-1,1644,1492,0,0
427,-468,0,0,0,0,0,0,0,0,0,-1,1651,1492,0,0
434,-468,0,0,0,0,0,0,0,0,0,-1,1658,1492,0,0
441,-468,0,0,0,0,0,0,0,0,0,-1,1665,1492,0,0
448,-468,0,0,0,0,0,0,0,0,0,-1,1672,1492,0,0
455,-468,0,0,0,0,0,0,0,0,0,-1,1679,1492,0,0
462,-468,0,0,0,0,0,0,0,0,0,-1,1686,1492,0,0
469,-468,15.6879,1.2677,0,0,0,0,0,0,0,-1,1693,1492,15.6879,-1.26772
476,-468,14.9318,1.61865,0,0,0,0,0,0,0,-1,1700,1492,14.9318,-1.61869
483,-468,9.87329,3.38733,0,0,0,0,0,0,0,-1,1707,1492,9.87329,-3.38737
490,-468,10.3018,2.82959,-0.0319426,-0.0727686,0.0186472,-0.0247076,-0.0800036,0.370111,0.0473021,0.046869,1714,1492,10.3017,-2.82959
497,-468,10.6504,2.51782,-0.0405991,-0.0665349,0.0181175,-0.0312867,-0.0758473,0.474784,0.0440134,0.0465048,1721,1492,10.6504,-2.5178
504,-468,11.1118,2.06604,0,0,0,0,0,0,0,-1,1728,1492,11.1118,-2.06604
511,-468,10.5009,4.36938,0,0,0,0,0,0,0,-1,1735,1492,10.5008,-4.36935
518,-468,9.69836,4.71045,0,0,0,0,0,0,0,-1,1742,1492,9.69835,-4.71049
525,-468,9.44836,5.51025,0,0,0,0,0,0,0,-1,1749,1492,9.44831,-5.51021
532,-468,8.90442,6.9209,0,0,0,0,0,0,0,-1,1756,1492,8.90442,-6.92085
539,-468,9.01208,7.08557,0,0,0,0,0,0,0,-1,1763,1492,9.01205,-7.08552
546,-468,8.50671,6.9436,-0.0165324,-0.0278165,0.00918088,-0.0113985,-0.0329504,0.509878,0.0193226,0.0486171,1770,1492,8.50676,-6.94364
553,-468,9.05884,7.06042,-0.012404,-0.0211978,0.00810064,-0.00758385,-0.0260179,0.536755,0.0154507,0.0345218,1777,1492,9.05878,-7.06046
560,-468,8.9093,7.12463,-0.00755436,-0.0156764,0.00657691,-0.00388571,-0.019345,0.508818,0.0118164,0.0180785,1784,1492,8.90924,-7.12465
567,-468,8.87866,7.00159,-0.00531534,-0.012072,0.00491652,-0.00272834,-0.014659,0.484376,0.00900213,0.013042,1791,1492,8.8786,-7.00158
574,-468,8.88342,6.83252,-0.00452941,-0.00949202,0.00368517,-0.00256804,-0.0114534,0.4891,0.00693981,0.0125766,1798,1492,8.88338,-6.83254
581,-468,8.89172,6.67249,-0.00394549,-0.00703208,0.00256049,-0.00249916,-0.00847841,0.514184,0.00503059,0.0130296,1805,1492,8.89169,-6.67245
588,-468,8.88293,6.51648,-0.00362133,-0.00485978,0.00191002,-0.00223267,-0.00624844,0.628645,0.00365617,0.0117882,1812,1492,8.88297,-6.51643
595,-468,8.89221,6.35706,-0.00322579,-0.0029322,0.00144538,-0.00162617,-0.00453181,0.836005,0.00265097,0.00992133,1819,1492,8.89215,-6.35705
602,-468,8.8988,6.18298,-0.00335136,-0.00104665,0.0011352,-0.000581412,-0.00381659,1.18185,0.00237444,0.00881552,1826,1492,8.89875,-6.18303
609,-468,8.88745,6.01135,-0.00305586,0.000588839,0.000875549,0.000788257,-0.00325528,1.34685,0.00247514,0.00925383,1833,1492,8.88743,-6.0113
616,-468,8.8927,5.86072,-0.00290575,0.00175715,0.000844789,0.00190548,-0.00305409,1.39698,0.00288889,0.00944588,1840,1492,8.89272,-5.86073
623,-468,8.90295,5.69336,-0.00324513,0.00298621,0.000844719,0.00309869,-0.00335761,1.43842,0.00372855,0.0102668,1847,1492,8.90292,-5.69341
630,-468,8.92017,5.51575,-0.00379764,0.00404582,0.00100254,0.00417194,-0.00392376,1.44566,0.00467478,0.0103926,1854,1492,8.92017,-5.51576
637,-468,8.9281,5.33728,-0.00423188,0.00479141,0.00129529,0.00497366,-0.00441413,1.43101,0.00542326,0.0140269,1861,1492,8.92804,-5.33728
644,-468,8.89124,5.19226,-0.00434151,0.0055066,0.00163336,0.00577044,-0.00460534,1.41065,0.00600303,0.0279184,1868,1492,8.89118,-5.19231
651,-468,9.01831,4.99414,-0.00399411,0.00600288,0.00210238,0.00642702,-0.00441825,1.37173,0.00629722,0.0436403,1875,1492,9.01825,-4.99408
658,-468,9.21985,4.62097,-0.00290747,0.00635312,0.00261797,0.00704198,-0.00359633,1.3135,0.0062485,0.0434206,1882,1492,9.21984,-4.621
665,-468,9.43799,4.27307,0,0,0,0,0,0,0,-1,1889,1492,9.43801,-4.27313
672,-468,8.50745,4.37378,0,0,0,0,0,0,0,-1,1896,1492,8.50749,-4.3738
679,-468,11.2191,1.91968,0,0,0,0,0,0,0,-1,1903,1492,11.2191,-1.91965
686,-468,11.9252,1.42285,0,0,0,0,0,0,0,-1,1910,1492,11.9252,-1.42291
693,-468,0,0,0,0,0,0,0,0,0,-1,1917,1492,0,0
700,-468,0,0,0,0,0,0,0,0,0,-1,1924,1492,0,0
707,-468,0,0,0,0,0,0,0,0,0,-1,1931,1492,0,0
714,-468,0,0,0,0,0,0,0,0,0,-1,1938,1492,0,0
721,-468,0,0,0,0,0,0,0,0,0,-1,1945,1492,0,0
728,-468,0,0,0,0,0,0,0,0,0,-1,1952,1492,0,0
735,-468,0,0,0,0,0,0,0,0,0,-1,1959,1492,0,0
742,-468,0,0,0,0,0,0,0,0,0,-1,1966,1492,0,0
749,-468,0,0,0,0,0,0,0,0,0,-1,1973,1492,0,0
756,-468,0,0,0,0,0,0,0,0,0,-1,1980,1492,0,0
763,-468,0,0,0,0,0,0,0,0,0,-1,1987,1492,0,0
770,-468,0,0,0,0,0,0,0,0,0,-1,1994,1492,0,0
777,-468,0,0,0,0,0,0,0,0,0,-1,2001,1492,0,0
784,-468,0,0,0,0,0,0,0,0,0,-1,2008,1492,0,0
791,-468,0,0,0,0,0,0,0,0,0,-1,2015,1492,0,0
798,-468,0,0,0,0,0,0,0,0,0,-1,2022,1492,0,0
805,-468,0,0,0,0,0,0,0,0,0,-1,2029,1492,0,0
812,-468,0,0,0,0,0,0,0,0,0,-1,2036,1492,0,0
-700,-475,0,0,0,0,0,0,0,0,0,-1,524,1499,0,0
-693,-475,0,0,0,0,0,0,0,0,0,-1,531,1499,0,0
-686,-475,0,0,0,0,0,0,0,0,0,-1,538,1499,0,0
-679,-475,0,0,0,0,0,0,0,0,0,-1,545,1499,0,0
-672,-475,0,0,0,0,0,0,0,0,0,-1,552,1499,0,0
-665,-475,0,0,0,0,0,0,0,0,0,-1,559,1499,0,0
-658,-475,0,0,0,0,0,0,0,0,0,-1,566,1499,0,0
-651,-475,0,0,0,0,0,0,0,0,0,-1,573,1499,0,0
-644,-475,0,0,0,0,0,0,0,0,0,-1,580,1499,0,0
-637,-475,0,0,0,0,0,0,0,0,0,-1,587,1499,0,0
-630,-475,0,0,0,0,0,0,0,0,0,-1,594,1499,0,0
-623,-475,0,0,0,0,0,0,0,0,0,-1,601,1499,0,0
-616,-475,0,0,0,0,0,0,0,0,0,-1,608,1499,0,0
-609,-475,0,0,0,0,0,0,0,0,0,-1,615,1499,0,0
-602,-475,0,0,0,0,0,0,0,0,0,-1,622,1499,0,0
-595,-475,0,0,0,0,0,0,0,0,0,-1,629,1499,0,0
-588,-475,0,0,0,0,0,0,0,0,0,-1,636,1499,0,0
-581,-475,0,0,0,0,0,0,0,0,0,-1,643,1499,0,0
-574,-475,0,0,0,0,0,0,0,0,0,-1,650,1499,0,0
-567,-475,0,0,0,0,0,0,0,0,0,-1,657,1499,0,0
-560,-475,-5.22852,0.939697,0,0,0,0,0,0,0,-1,664,1499,-5.22854,-0.939712
-553,-475,-4.62872,2.05823,0,0,0,0,0,0,0,-1,671,1499,-4.6287,-2.0582
-546,-475,-3.14355,1.4856,0,0,0,0,0,0,0,-1,678,1499,-3.14354,-1.48554
-539,-475,-2.68414,2.2655,0,0,0,0,0,0,0,-1,685,1499,-2.68413,-2.26556
-532,-475,-2.19177,2.8905,0.0106307,0.0135677,0.0416477,0.0537728,-0.0295744,0.803021,0.0487919,0.0440719,692,1499,-2.19177,-2.89055
-525,-475,-1.69672,2.98108,0.00817498,0.009124,0.0301098,0.038763,-0.0214641,0.793277,0.035247,0.0455399,699,1499,-1.69672,-2.98106
-518,-475,-1.74713,3.33203,0,0,0,0,0,0,0,-1,706,1499,-1.74715,-3.33207
-511,-475,-1.54034,3.53442,0.00427306,0.00385806,0.0151229,0.0191898,-0.0110587,0.778538,0.0176731,0.0476532,713,1499,-1.54037,-3.53447
-504,-475,-1.28973,3.71826,0.00294966,0.00195765,0.0101807,0.0126464,-0.00773914,0.761057,0.0118828,0.0285166,720,1499,-1.28972,-3.71827
-497,-475,-1.30511,3.91907,0.00205363,0.000755017,0.00661533,0.00805144,-0.0052428,0.736479,0.00773232,0.0132991,727,1499,-1.3051,-3.91912
-490,-475,-1.3028,4.09436,0.00144417,-3.72804e-05,0.00394111,0.00471356,-0.00330667,0.692508,0.00465417,0.00820341,734,1499,-1.30279,-4.09434
-483,-475,-1.30432,4.29309,0.0010251,-0.000603414,0.00238668,0.0027326,-0.00231091,0.621005,0.00291526,0.00872036,741,1499,-1.3043,-4.29307
-476,-475,-1.30164,4.47546,0.000390418,-0.000673365,0.000849728,0.000860997,-0.00114394,0.505755,0.00116139,0.0100332,748,1499,-1.30163,-4.47542
-469,-475,-1.30011,4.65564,0.00057268,-0.00153611,-0.000216483,0.000594674,-0.00155811,-0.10125,0.00128373,0.0114247,755,1499,-1.30012,-4.65561
-462,-475,-1.29211,4.85535,0.00133399,-0.00235142,-0.000974699,0.0015759,-0.00259332,-0.243269,0.00243087,0.0158073,762,1499,-1.2921,-4.85538
-455,-475,-1.3208,5.03528,0.00200843,-0.00307365,-0.00160606,0.00247344,-0.00353866,-0.281827,0.0034892,0.0146086,769,1499,-1.3208,-5.03524
-448,-475,-1.32794,5.19836,0.00315505,-0.00420769,-0.00226691,0.00379703,-0.00484967,-0.27597,0.00500449,0.0126061,776,1499,-1.32795,-5.19832
-441,-475,-1.29779,5.41125,0.00495236,-0.00536146,-0.00274202,0.00563603,-0.00604513,-0.244349,0.0067455,0.0157138,783,1499,-1.2978,-5.41126
-434,-475,-1.29315,5.57861,0.0071008,-0.00698593,-0.00305021,0.0077329,-0.00761803,-0.204339,0.00886295,0.00980162,790,1499,-1.29313,-5.5786
-427,-475,-1.26898,5.77039,0.00979535,-0.00892817,-0.00319461,0.0103254,-0.00945823,-0.164425,0.0114257,0.0119813,797,1499,-1.26895,-5.7704
-420,-475,-1.19067,5.91724,0.0132055,-0.0107205,-0.00288291,0.013548,-0.011063,-0.118238,0.0142333,0.0181768,804,1499,-1.19065,-5.91729
-413,-475,-1.00793,5.86743,0.0171558,-0.0130605,-0.00255575,0.0173704,-0.0132751,-0.0837888,0.0177458,0.0338052,811,1499,-1.00794,-5.86747
-406,-475,-0.742249,5.88123,0.0220448,-0.0154483,-0.00157587,0.022111,-0.0155144,-0.0419323,0.021834,0.0477982,818,1499,-0.742266,-5.88122
-399,-475,-0.450623,5.69189,0.0277935,-0.01771,0.000222433,0.0277946,-0.0177111,0.00488811,0.0264869,0.0492455,825,1499,-0.450596,-5.69192
-392,-475,0.14325,6.63635,0,0,0,0,0,0,0,-1,832,1499,0.143271,-6.63633
-385,-475,1.18372,2.73999,0,0,0,0,0,0,0,-1,839,1499,1.18372,-2.73995
-378,-475,1.31409,2.90149,0,0,0,0,0,0,0,-1,846,1499,1.31411,-2.90151
-371,-475,2.3476,3.31116,0,0,0,0,0,0,0,-1,853,1499,2.34761,-3.31121
-364,-475,1.04462,9.05823,0,0,0,0,0,0,0,-1,860,1499,1.04461,-9.05825
-357,-475,-0.262756,7.97205,0,0,0,0,0,0,0,-1,867,1499,-0.262784,-7.97205
-350,-475,-2.77173,4.35486,0,0,0,0,0,0,0,-1,874,1499,-2.77175,-4.35491
-343,-475,-6.81641,-1.95203,0,0,0,0,0,0,0,-1,881,1499,-6.81643,1.95198
-336,-475,0,0,0,0,0,0,0,0,0,-1,888,1499,0,0
-329,-475,0,0,0,0,0,0,0,0,0,-1,895,1499,0,0
-322,-475,0,0,0,0,0,0,0,0,0,-1,902,1499,0,0
-315,-475,0,0,0,0,0,0,0,0,0,-1,909,1499,0,0
-308,-475,0,0,0,0,0,0,0,0,0,-1,916,1499,0,0
-301,-475,0,0,0,0,0,0,0,0,0,-1,923,1499,0,0
-294,-475,0,0,0,0,0,0,0,0,0,-1,930,1499,0,0
-287,-475,0,0,0,0,0,0,0,0,0,-1,937,1499,0,0
-280,-475,0,0,0,0,0,0,0,0,0,-1,944,1499,0,0
-273,-475,0,0,0,0,0,0,0,0,0,-1,951,1499,0,0
-266,-475,0,0,0,0,0,0,0,0,0,-1,958,1499,0,0
-259,-475,0,0,0,0,0,0,0,0,0,-1,965,1499,0,0
-252,-475,0,0,0,0,0,0,0,0,0,-1,972,1499,0,0
-245,-475,0,0,0,0,0,0,0,0,0,-1,979,1499,0,0
-238,-475,0,0,0,0,0,0,0,0,0,-1,986,1499,0,0
-231,-475,0,0,0,0,0,0,0,0,0,-1,993,1499,0,0
-224,-475,0,0,0,0,0,0,0,0,0,-1,1000,1499,0,0
-217,-475,0,0,0,0,0,0,0,0,0,-1,1007,1499,0,0
-210,-475,0,0,0,0,0,0,0,0,0,-1,1014,1499,0,0
-203,-475,0,0,0,0,0,0,0,0,0,-1,1021,1499,0,0
-196,-475,0,0,0,0,0,0,0,0,0,-1,1028,1499,0,0
-189,-475,0,0,0,0,0,0,0,0,0,-1,1035,1499,0,0
-182,-475,0,0,0,0,0,0,0,0,0,-1,1042,1499,0,0
-175,-475,0,0,0,0,0,0,0,0,0,-1,1049,1499,0,0
-168,-475,0,0,0,0,0,0,0,0,0,-1,1056,1499,0,0
-161,-475,0,0,0,0,0,0,0,0,0,-1,1063,1499,0,0
-154,-475,0,0,0,0,0,0,0,0,0,-1,1070,1499,0,0
-147,-475,0,0,0,0,0,0,0,0,0,-1,1077,1499,0,0
-140,-475,0,0,0,0,0,0,0,0,0,-1,1084,1499,0,0
-133,-475,0,0,0,0,0,0,0,0,0,-1,1091,1499,0,0
-126,-475,0,0,0,0,0,0,0,0,0,-1,1098,1499,0,0
-119,-475,0,0,0,0,0,0,0,0,0,-1,1105,1499,0,0
-112,-475,0,0,0,0,0,0,0,0,0,-1,1112,1499,0,0
-105,-475,0,0,0,0,0,0,0,0,0,-1,1119,1499,0,0
-98,-475,0,0,0,0,0,0,0,0,0,-1,1126,1499,0,0
-91,-475,0,0,0,0,0,0,0,0,0,-1,1133,1499,0,0
-84,-475,0,0,0,0,0,0,0,0,0,-1,1140,1499,0,0
-77,-475,0,0,0,0,0,0,0,0,0,-1,1147,1499,0,0
-70,-475,0,0,0,0,0,0,0,0,0,-1,1154,1499,0,0
-63,-475,0,0,0,0,0,0,0,0,0,-1,1161,1499,0,0
-56,-475,0,0,0,0,0,0,0,0,0,-1,1168,1499,0,0
-49,-475,0,0,0,0,0,0,0,0,0,-1,1175,1499,0,0
-42,-475,0,0,0,0,0,0,0,0,0,-1,1182,1499,0,0
-35,-475,0,0,0,0,0,0,0,0,0,-1,1189,1499,0,0
-28,-475,0,0,0,0,0,0,0,0,0,-1,1196,1499,0,0
-21,-475,0,0,0,0,0,0,0,0,0,-1,1203,1499,0,0
-14,-475,0,0,0,0,0,0,0,0,0,-1,1210,1499,0,0
-7,-475,0,0,0,0,0,0,0,0,0,-1,1217,1499,0,0
0,-475,0,0,0,0,0,0,0,0,0,-1,1224,1499,0,0
7,-475,0,0,0,0,0,0,0,0,0,-1,1231,1499,0,0
14,-475,0,0,0,0,0,0,0,0,0,-1,1238,1499,0,0
21,-475,0,0,0,0,0,0,0,0,0,-1,1245,1499,0,0
28,-475,0,0,0,0,0,0,0,0,0,-1,1252,1499,0,0
35,-475,0,0,0,0,0,0,0,0,0,-1,1259,1499,0,0
42,-475,0,0,0,0,0,0,0,0,0,-1,1266,1499,0,0
49,-475,0,0,0,0,0,0,0,0,0,-1,1273,1499,0,0
56,-475,0,0,0,0,0,0,0,0,0,-1,1280,1499,0,0
63,-475,0,0,0,0,0,0,0,0,0,-1,1287,1499,0,0
70,-475,0,0,0,0,0,0,0,0,0,-1,1294,1499,0,0
77,-475,0,0,0,0,0,0,0,0,0,-1,1301,1499,0,0
84,-475,0,0,0,0,0,0,0,0,0,-1,1308,1499,0,0
91,-475,0,0,0,0,0,0,0,0,0,-1,1315,1499,0,0
98,-475,0,0,0,0,0,0,0,0,0,-1,1322,1499,0,0
105,-475,0,0,0,0,0,0,0,0,0,-1,1329,1499,0,0
112,-475,0,0,0,0,0,0,0,0,0,-1,1336,1499,0,0
119,-475,0,0,0,0,0,0,0,0,0,-1,1343,1499,0,0
126,-475,0,0,0,0,0,0,0,0,0,-1,1350,1499,0,0
133,-475,0,0,0,0,0,0,0,0,0,-1,1357,1499,0,0
140,-475,0,0,0,0,0,0,0,0,0,-1,1364,1499,0,0
147,-475,0,0,0,0,0,0,0,0,0,-1,1371,1499,0,0
154,-475,0,0,0,0,0,0,0,0,0,-1,1378,1499,0,0
161,-475,0,0,0,0,0,0,0,0,0,-1,1385,1499,0,0
168,-475,0,0,0,0,0,0,0,0,0,-1,1392,1499,0,0
175,-475,0,0,0,0,0,0,0,0,0,-1,1399,1499,0,0
182,-475,0,0,0,0,0,0,0,0,0,-1,1406,1499,0,0
189,-475,0,0,0,0,0,0,0,0,0,-1,1413,1499,0,0
196,-475,0,0,0,0,0,0,0,0,0,-1,1420,1499,0,0
203,-475,0,0,0,0,0,0,0,0,0,-1,1427,1499,0,0
210,-475,0,0,0,0,0,0,0,0,0,-1,1434,1499,0,0
217,-475,0,0,0,0,0,0,0,0,0,-1,1441,1499,0,0
224,-475,0,0,0,0,0,0,0,0,0,-1,1448,1499,0,0
231,-475,0,0,0,0,0,0,0,0,0,-1,1455,1499,0,0
238,-475,0,0,0,0,0,0,0,0,0,-1,1462,1499,0,0
245,-475,0,0,0,0,0,0,0,0,0,-1,1469,1499,0,0
252,-475,0,0,0,0,0,0,0,0,0,-1,1476,1499,0,0
259,-475,0,0,0,0,0,0,0,0,0,-1,1483,1499,0,0
266,-475,0,0,0,0,0,0,0,0,0,-1,1490,1499,0,0
273,-475,0,0,0,0,0,0,0,0,0,-1,1497,1499,0,0
280,-475,0,0,0,0,0,0,0,0,0,-1,1504,1499,0,0
287,-475,0,0,0,0,0,0,0,0,0,-1,1511,1499,0,0
294,-475,0,0,0,0,0,0,0,0,0,-1,1518,1499,0,0
301,-475,0,0,0,0,0,0,0,0,0,-1,1525,1499,0,0
308,-475,0,0,0,0,0,0,0,0,0,-1,1532,1499,0,0
315,-475,0,0,0,0,0,0,0,0,0,-1,1539,1499,0,0
322,-475,0,0,0,0,0,0,0,0,0,-1,1546,1499,0,0
329,-475,0,0,0,0,0,0,0,0,0,-1,1553,1499,0,0
336,-475,0,0,0,0,0,0,0,0,0,-1,1560,1499,0,0
343,-475,0,0,0,0,0,0,0,0,0,-1,1567,1499,0,0
350,-475,0,0,0,0,0,0,0,0,0,-1,1574,1499,0,0
357,-475,0,0,0,0,0,0,0,0,0,-1,1581,1499,0,0
364,-475,0,0,0,0,0,0,0,0,0,-1,1588,1499,0,0
371,-475,0,0,0,0,0,0,0,0,0,-1,1595,1499,0,0
378,-475,0,0,0,0,0,0,0,0,0,-1,1602,1499,0,0
385,-475,0,0,0,0,0,0,0,0,0,-1,1609,1499,0,0
392,-475,0,0,0,0,0,0,0,0,0,-1,1616,1499,0,0
399,-475,0,0,0,0,0,0,0,0,0,-1,1623,1499,0,0
406,-475,0,0,0,0,0,0,0,0,0,-1,1630,1499,0,0
413,-475,0,0,0,0,0,0,0,0,0,-1,1637,1499,0,0
420,-475,0,0,0,0,0,0,0,0,0,-1,1644,1499,0,0
427,-475,0,0,0,0,0,0,0,0,0,-1,1651,1499,0,0
434,-475,0,0,0,0,0,0,0,0,0,-1,1658,1499,0,0
441,-475,0,0,0,0,0,0,0,0,0,-1,1665,1499,0,0
448,-475,0,0,0,0,0,0,0,0,0,-1,1672,1499,0,0
455,-475,0,0,0,0,0,0,0,0,0,-1,1679,1499,0,0
462,-475,12.6372,0.275391,0,0,0,0,0,0,0,-1,1686,1499,12.6372,-0.27536
469,-475,15.6437,2.28296,0,0,0,0,0,0,0,-1,1693,1499,15.6437,-2.28293
476,-475,15.3302,2.71436,0,0,0,0,0,0,0,-1,1700,1499,15.3303,-2.7143
483,-475,14.7006,2.77881,0,0,0,0,0,0,0,-1,1707,1499,14.7005,-2.77885
490,-475,9.76526,3.76575,0,0,0,0,0,0,0,-1,1714,1499,9.7653,-3.76579
497,-475,10.2058,3.27197,0,0,0,0,0,0,0,-1,1721,1499,10.2058,-3.27201
504,-475,10.6462,2.7782,0,0,0,0,0,0,0,-1,1728,1499,10.6462,-2.77823
511,-475,9.87744,4.6604,0,0,0,0,0,0,0,-1,1735,1499,9.87747,-4.66038
518,-475,9.35559,5.23865,0,0,0,0,0,0,0,-1,1742,1499,9.35561,-5.23863
525,-475,8.55847,6.70325,0,0,0,0,0,0,0,-1,1749,1499,8.5585,-6.7033
532,-475,8.73975,6.99414,-0.0165387,-0.0348067,0.0139602,-0.0089899,-0.0423555,0.495706,0.0257685,0.0468301,1756,1499,8.73979,-6.99416
539,-475,8.85522,7.22339,-0.0128462,-0.0287483,0.0121332,-0.0062909,-0.0353036,0.495346,0.0217442,0.0462676,1763,1499,8.85522,-7.22337
546,-475,8.85132,7.25891,-0.0104579,-0.0236597,0.0102598,-0.00485897,-0.0292586,0.499547,0.0181048,0.0382745,1770,1499,8.85126,-7.25892
553,-475,8.83337,7.24658,-0.0075289,-0.0173655,0.00852297,-0.00260694,-0.0222875,0.523706,0.0140701,0.0188006,1777,1499,8.83333,-7.24655
560,-475,8.69287,7.16943,-0.00420146,-0.0124093,0.00654316,-0.000581699,-0.016029,0.505307,0.0104975,0.0131131,1784,1499,8.69291,-7.16942
567,-475,8.73267,6.9917,-0.00282995,-0.00951242,0.00461464,-0.000473929,-0.0118684,0.472055,0.00775915,0.0128449,1791,1499,8.73271,-6.99173
574,-475,8.71094,6.83704,-0.00246188,-0.00718547,0.0032879,-0.000775424,-0.00887193,0.473937,0.00567383,0.0134637,1798,1499,8.71099,-6.83702
581,-475,8.71069,6.69055,-0.0023773,-0.0049532,0.00213302,-0.00117354,-0.00615695,0.513788,0.00377476,0.011343,1805,1499,8.71064,-6.69058
588,-475,8.72449,6.52246,-0.00261791,-0.00290993,0.00150406,-0.00125278,-0.00427505,0.73701,0.0025377,0.009649,1812,1499,8.7245,-6.52243
595,-475,8.74182,6.35461,-0.00272764,-0.001111,0.00105281,-0.000591993,-0.00324665,1.11279,0.00199657,0.0111117,1819,1499,8.74186,-6.35467
602,-475,8.74548,6.1626,-0.00326952,0.000672121,0.000789007,0.000824191,-0.00342159,1.38039,0.00259971,0.0131444,1826,1499,8.74553,-6.16261
609,-475,8.73999,6.00012,-0.00353364,0.00231995,0.000624772,0.00238589,-0.00359958,1.46564,0.00347932,0.0118889,1833,1499,8.74003,-6.00018
616,-475,8.73657,5.85767,-0.00402746,0.0035871,0.000695842,0.00365017,-0.00409052,1.48041,0.0044715,0.0106312,1840,1499,8.73662,-5.85766
623,-475,8.73523,5.68665,-0.00500433,0.00497696,0.000878525,0.00505369,-0.00508107,1.48367,0.00585131,0.0108018,1847,1499,8.7352,-5.68661
630,-475,8.76184,5.51636,-0.00620052,0.0062249,0.00120003,0.00633974,-0.00631536,1.47539,0.00730643,0.0129262,1854,1499,8.76182,-5.5164
637,-475,8.7511,5.36682,-0.0072687,0.00726933,0.00169915,0.00746528,-0.00746465,1.45598,0.0086198,0.0252428,1861,1499,8.75105,-5.36676
644,-475,8.72327,5.18372,0,0,0,0,0,0,0,-1,1868,1499,8.72327,-5.18371
651,-475,8.97083,5.08582,0,0,0,0,0,0,0,-1,1875,1499,8.97079,-5.08587
658,-475,9.18103,4.81042,0,0,0,0,0,0,0,-1,1882,1499,9.18104,-4.81042
665,-475,9.05029,5.83496,0,0,0,0,0,0,0,-1,1889,1499,9.05029,-5.8349
672,-475,9.38635,1.10474,0,0,0,0,0,0,0,-1,1896,1499,9.38629,-1.10475
679,-475,12.2594,1.31079,0,0,0,0,0,0,0,-1,1903,1499,12.2594,-1.31077
686,-475,0,0,0,0,0,0,0,0,0,-1,1910,1499,0,0
693,-475,0,0,0,0,0,0,0,0,0,-1,1917,1499,0,0
700,-475,0,0,0,0,0,0,0,0,0,-1,1924,1499,0,0
707,-475,0,0,0,0,0,0,0,0,0,-1,1931,1499,0,0
714,-475,0,0,0,0,0,0,0,0,0,-1,1938,1499,0,0
721,-475,0,0,0,0,0,0,0,0,0,-1,1945,1499,0,0
728,-475,0,0,0,0,0,0,0,0,0,-1,1952,1499,0,0
735,-475,0,0,0,0,0,0,0,0,0,-1,1959,1499,0,0
742,-475,0,0,0,0,0,0,0,0,0,-1,1966,1499,0,0
749,-475,0,0,0,0,0,0,0,0,0,-1,1973,1499,0,0
756,-475,0,0,0,0,0,0,0,0,0,-1,1980,1499,0,0
763,-475,0,0,0,0,0,0,0,0,0,-1,1987,1499,0,0
770,-475,0,0,0,0,0,0,0,0,0,-1,1994,1499,0,0
777,-475,0,0,0,0,0,0,0,0,0,-1,2001,1499,0,0
784,-475,0,0,0,0,0,0,0,0,0,-1,2008,1499,0,0
791,-475,0,0,0,0,0,0,0,0,0,-1,2015,1499,0,0
798,-475,0,0,0,0,0,0,0,0,0,-1,2022,1499,0,0
805,-475,0,0,0,0,0,0,0,0,0,-1,2029,1499,0,0
812,-475,0,0,0,0,0,0,0,0,0,-1,2036,1499,0,0
-700,-482,0,0,0,0,0,0,0,0,0,-1,524,1506,0,0
-693,-482,0,0,0,0,0,0,0,0,0,-1,531,1506,0,0
-686,-482,0,0,0,0,0,0,0,0,0,-1,538,1506,0,0
-679,-482,0,0,0,0,0,0,0,0,0,-1,545,1506,0,0
-672,-482,0,0,0,0,0,0,0,0,0,-1,552,1506,0,0
-665,-482,0,0,0,0,0,0,0,0,0,-1,559,1506,0,0
-658,-482,0,0,0,0,0,0,0,0,0,-1,566,1506,0,0
-651,-482,0,0,0,0,0,0,0,0,0,-1,573,1506,0,0
-644,-482,0,0,0,0,0,0,0,0,0,-1,580,1506,0,0
-637,-482,0,0,0,0,0,0,0,0,0,-1,587,1506,0,0
-630,-482,0,0,0,0,0,0,0,0,0,-1,594,1506,0,0
-623,-482,0,0,0,0,0,0,0,0,0,-1,601,1506,0,0
-616,-482,0,0,0,0,0,0,0,0,0,-1,608,1506,0,0
-609,-482,0,0,0,0,0,0,0,0,0,-1,615,1506,0,0
-602,-482,0,0,0,0,0,0,0,0,0,-1,622,1506,0,0
-595,-482,0,0,0,0,0,0,0,0,0,-1,629,1506,0,0
-588,-482,0,0,0,0,0,0,0,0,0,-1,636,1506,0,0
-581,-482,0,0,0,0,0,0,0,0,0,-1,643,1506,0,0
-574,-482,0,0,0,0,0,0,0,0,0,-1,650,1506,0,0
-567,-482,0,0,0,0,0,0,0,0,0,-1,657,1506,0,0
-560,-482,0,0,0,0,0,0,0,0,0,-1,664,1506,0,0
-553,-482,-4.63849,1.69995,0,0,0,0,0,0,0,-1,671,1506,-4.63848,-1.69991
-546,-482,-4.17773,2.85339,0,0,0,0,0,0,0,-1,678,1506,-4.17771,-2.85339
-539,-482,0.746765,2.14941,0,0,0,0,0,0,0,-1,685,1506,0.746781,-2.1494
-532,-482,-2.06714,3.36682,0,0,0,0,0,0,0,-1,692,1506,-2.06715,-3.36679
-525,-482,-1.69434,2.98425,0.00657728,0.0140842,0.0293003,0.0398705,-0.019209,0.849102,0.0347979,0.0436079,699,1506,-1.69431,-2.98428
-518,-482,-1.79883,3.11218,0.00484299,0.0100155,0.021203,0.0287894,-0.0139308,0.846087,0.0251569,0.0484039,706,1506,-1.79885,-3.11215
-511,-482,-1.31702,3.58752,0,0,0,0,0,0,0,-1,713,1506,-1.31699,-3.58756
-504,-482,-1.19098,3.7583,0.0025342,0.00431346,0.0105425,0.0140038,-0.00715617,0.827491,0.0124281,0.0452803,720,1506,-1.191,-3.75829
-497,-482,-1.07959,3.88745,0.00192439,0.00251723,0.00712451,0.00935148,-0.00490987,0.806189,0.00836584,0.0241239,727,1506,-1.07961,-3.88746
-490,-482,-1.12726,4.06616,0.00151964,0.00127063,0.00458274,0.00597957,-0.0031893,0.771817,0.00537473,0.0139118,734,1506,-1.12725,-4.06619
-483,-482,-1.11432,4.27832,0.00127035,0.000408838,0.00303025,0.00390031,-0.00222112,0.714795,0.00357826,0.00901347,741,1506,-1.11431,-4.27832
-476,-482,-1.12183,4.45752,0.000766323,0.000170679,0.00152304,0.00202038,-0.00108338,0.688844,0.00181898,0.00967919,748,1506,-1.12183,-4.45749
-469,-482,-1.13037,4.64819,0.000992783,-0.000846881,0.000486591,0.00111356,-0.000967655,0.243289,0.00120257,0.0101553,755,1506,-1.13039,-4.64818
-462,-482,-1.12042,4.83655,0.00174203,-0.00171324,-0.000230046,0.00175728,-0.00172849,-0.066189,0.00201253,0.0113431,762,1506,-1.12043,-4.83652
-455,-482,-1.12885,5.00781,0.00232716,-0.00236095,-0.000756879,0.00244633,-0.00248012,-0.156162,0.00284431,0.0116052,769,1506,-1.12883,-5.0078
-448,-482,-1.12952,5.22375,0.00331166,-0.00327799,-0.0012546,0.00354244,-0.00350877,-0.181914,0.00407103,0.0118685,776,1506,-1.12954,-5.22378
-441,-482,-1.11914,5.42505,0.00492073,-0.00417031,-0.00161202,0.00519811,-0.00444769,-0.170401,0.00557462,0.0117887,783,1506,-1.11915,-5.42504
-434,-482,-1.11401,5.604,0.00680712,-0.00548027,-0.00175543,0.00705299,-0.00572614,-0.139156,0.00739127,0.0135592,790,1506,-1.11403,-5.60404
-427,-482,-1.11993,5.80029,0.00910612,-0.00706376,-0.0016753,0.00927787,-0.0072355,-0.102161,0.00955828,0.015391,797,1506,-1.11996,-5.8003
-420,-482,-1.09113,6.05762,0.0120174,-0.00842176,-0.00115558,0.0120825,-0.00848689,-0.0562986,0.0119361,0.0211873,804,1506,-1.0911,-6.05763
-413,-482,-0.933655,6.09875,0.0152658,-0.0103183,-0.000689457,0.0152844,-0.0103368,-0.0269226,0.0148841,0.0279732,811,1506,-0.933654,-6.09872
-406,-482,-0.828003,6.04565,0.0192648,-0.0122586,0.000327815,0.0192682,-0.012262,0.0103976,0.0183531,0.0420609,818,1506,-0.827986,-6.04562
-399,-482,-0.622131,6.1272,0.0238776,-0.0141353,0.00198516,0.023981,-0.0142387,0.0520348,0.0223038,0.0493,825,1506,-0.622105,-6.12721
-392,-482,-0.0661621,6.24609,0.0290176,-0.0156269,0.00449986,0.0294666,-0.0160759,0.0994601,0.0266702,0.0486061,832,1506,-0.0661623,-6.2461
-385,-482,0.428101,6.28613,0,0,0,0,0,0,0,-1,839,1506,0.428073,-6.2861
-378,-482,0.215698,5.96948,0,0,0,0,0,0,0,-1,846,1506,0.215681,-5.9695
-371,-482,-0.10907,8.10437,0,0,0,0,0,0,0,-1,853,1506,-0.109063,-8.10433
-364,-482,-0.154968,10.5032,0,0,0,0,0,0,0,-1,860,1506,-0.154976,-10.5032
-357,-482,2.14807,4.60144,0,0,0,0,0,0,0,-1,867,1506,2.14807,-4.60144
-350,-482,-7.5813,-1.45935,0,0,0,0,0,0,0,-1,874,1506,-7.58133,1.45937
-343,-482,-7.19983,-1.26416,0,0,0,0,0,0,0,-1,881,1506,-7.19981,1.26414
-336,-482,-6.78491,-1.18127,0,0,0,0,0,0,0,-1,888,1506,-6.78488,1.18125
-329,-482,0,0,0,0,0,0,0,0,0,-1,895,1506,0,0
-322,-482,0,0,0,0,0,0,0,0,0,-1,902,1506,0,0
-315,-482,0,0,0,0,0,0,0,0,0,-1,909,1506,0,0
-308,-482,0,0,0,0,0,0,0,0,0,-1,916,1506,0,0
-301,-482,0,0,0,0,0,0,0,0,0,-1,923,1506,0,0
-294,-482,0,0,0,0,0,0,0,0,0,-1,930,1506,0,0
-287,-482,0,0,0,0,0,0,0,0,0,-1,937,1506,0,0
-280,-482,0,0,0,0,0,0,0,0,0,-1,944,1506,0,0
-273,-482,0,0,0,0,0,0,0,0,0,-1,951,1506,0,0
-266,-482,0,0,0,0,0,0,0,0,0,-1,958,1506,0,0
-259,-482,0,0,0,0,0,0,0,0,0,-1,965,1506,0,0
-252,-482,0,0,0,0,0,0,0,0,0,-1,972,1506,0,0
-245,-482,0,0,0,0,0,0,0,0,0,-1,979,1506,0,0
-238,-482,0,0,0,0,0,0,0,0,0,-1,986,1506,0,0
-231,-482,0,0,0,0,0,0,0,0,0,-1,993,1506,0,0
-224,-482,0,0,0,0,0,0,0,0,0,-1,1000,1506,0,0
-217,-482,0,0,0,0,0,0,0,0,0,-1,1007,1506,0,0
-210,-482,0,0,0,0,0,0,0,0,0,-1,1014,1506,0,0
-203,-482,0,0,0,0,0,0,0,0,0,-1,1021,1506,0,0
-196,-482,0,0,0,0,0,0,0,0,0,-1,1028,1506,0,0
-189,-482,0,0,0,0,0,0,0,0,0,-1,1035,1506,0,0
-182,-482,0,0,0,0,0,0,0,0,0,-1,1042,1506,0,0
-175,-482,0,0,0,0,0,0,0,0,0,-1,1049,1506,0,0
-168,-482,0,0,0,0,0,0,0,0,0,-1,1056,1506,0,0
-161,-482,0,0,0,0,0,0,0,0,0,-1,1063,1506,0,0
-154,-482,0,0,0,0,0,0,0,0,0,-1,1070,1506,0,0
-147,-482,0,0,0,0,0,0,0,0,0,-1,1077,1506,0,0
-140,-482,0,0,0,0,0,0,0,0,0,-1,1084,1506,0,0
-133,-482,0,0,0,0,0,0,0,0,0,-1,1091,1506,0,0
-126,-482,0,0,0,0,0,0,0,0,0,-1,1098,1506,0,0
-119,-482,0,0,0,0,0,0,0,0,0,-1,1105,1506,0,0
-112,-482,0,0,0,0,0,0,0,0,0,-1,1112,1506,0,0
-105,-482,0,0,0,0,0,0,0,0,0,-1,1119,1506,0,0
-98,-482,0,0,0,0,0,0,0,0,0,-1,1126,1506,0,0
-91,-482,0,0,0,0,0,0,0,0,0,-1,1133,1506,0,0
-84,-482,0,0,0,0,0,0,0,0,0,-1,1140,1506,0,0
-77,-482,0,0,0,0,0,0,0,0,0,-1,1147,1506,0,0
-70,-482,0,0,0,0,0,0,0,0,0,-1,1154,1506,0,0
-63,-482,0,0,0,0,0,0,0,0,0,-1,1161,1506,0,0
-56,-482,0,0,0,0,0,0,0,0,0,-1,1168,1506,0,0
-49,-482,0,0,0,0,0,0,0,0,0,-1,1175,1506,0,0
-42,-482,0,0,0,0,0,0,0,0,0,-1,1182,1506,0,0
-35,-482,0,0,0,0,0,0,0,0,0,-1,1189,1506,0,0
-28,-482,0,0,0,0,0,0,0,0,0,-1,1196,1506,0,0
-21,-482,0,0,0,0,0,0,0,0,0,-1,1203,1506,0,0
-14,-482,0,0,0,0,0,0,0,0,0,-1,1210,1506,0,0
-7,-482,0,0,0,0,0,0,0,0,0,-1,1217,1506,0,0
0,-482,0,0,0,0,0,0,0,0,0,-1,1224,1506,0,0
7,-482,0,0,0,0,0,0,0,0,0,-1,1231,1506,0,0
14,-482,0,0,0,0,0,0,0,0,0,-1,1238,1506,0,0
21,-482,0,0,0,0,0,0,0,0,0,-1,1245,1506,0,0
28,-482,0,0,0,0,0,0,0,0,0,-1,1252,1506,0,0
35,-482,0,0,0,0,0,0,0,0,0,-1,1259,1506,0,0
42,-482,0,0,0,0,0,0,0,0,0,-1,1266,1506,0,0
49,-482,0,0,0,0,0,0,0,0,0,-1,1273,1506,0,0
56,-482,0,0,0,0,0,0,0,0,0,-1,1280,1506,0,0
63,-482,0,0,0,0,0,0,0,0,0,-1,1287,1506,0,0
70,-482,0,0,0,0,0,0,0,0,0,-1,1294,1506,0,0
77,-482,0,0,0,0,0,0,0,0,0,-1,1301,1506,0,0
84,-482,0,0,0,0,0,0,0,0,0,-1,1308,1506,0,0
91,-482,0,0,0,0,0,0,0,0,0,-1,1315,1506,0,0
98,-482,0,0,0,0,0,0,0,0,0,-1,1322,1506,0,0
105,-482,0,0,0,0,0,0,0,0,0,-1,1329,1506,0,0
112,-482,0,0,0,0,0,0,0,0,0,-1,1336,1506,0,0
119,-482,0,0,0,0,0,0,0,0,0,-1,1343,1506,0,0
126,-482,0,0,0,0,0,0,0,0,0,-1,1350,1506,0,0
133,-482,0,0,0,0,0,0,0,0,0,-1,1357,1506,0,0
140,-482,0,0,0,0,0,0,0,0,0,-1,1364,1506,0,0
147,-482,0,0,0,0,0,0,0,0,0,-1,1371,1506,0,0
154,-482,0,0,0,0,0,0,0,0,0,-1,1378,1506,0,0
161,-482,0,0,0,0,0,0,0,0,0,-1,1385,1506,0,0
168,-482,0,0,0,0,0,0,0,0,0,-1,1392,1506,0,0
175,-482,0,0,0,0,0,0,0,0,0,-1,1399,1506,0,0
182,-482,0,0,0,0,0,0,0,0,0,-1,1406,1506,0,0
189,-482,0,0,0,0,0,0,0,0,0,-1,1413,1506,0,0
196,-482,0,0,0,0,0,0,0,0,0,-1,1420,1506,0,0
203,-482,0,0,0,0,0,0,0,0,0,-1,1427,1506,0,0
210,-482,0,0,0,0,0,0,0,0,0,-1,1434,1506,0,0
217,-482,0,0,0,0,0,0,0,0,0,-1,1441,1506,0,0
224,-482,0,0,0,0,0,0,0,0,0,-1,1448,1506,0,0
231,-482,0,0,0,0,0,0,0,0,0,-1,1455,1506,0,0
238,-482,0,0,0,0,0,0,0,0,0,-1,1462,1506,0,0
245,-482,0,0,0,0,0,0,0,0,0,-1,1469,1506,0,0
252,-482,0,0,0,0,0,0,0,0,0,-1,1476,1506,0,0
259,-482,0,0,0,0,0,0,0,0,0,-1,1483,1506,0,0
266,-482,0,0,0,0,0,0,0,0,0,-1,1490,1506,0,0
273,-482,0,0,0,0,0,0,0,0,0,-1,1497,1506,0,0
280,-482,0,0,0,0,0,0,0,0,0,-1,1504,1506,0,0
287,-482,0,0,0,0,0,0,0,0,0,-1,1511,1506,0,0
294,-482,0,0,0,0,0,0,0,0,0,-1,1518,1506,0,0
301,-482,0,0,0,0,0,0,0,0,0,-1,1525,1506,0,0
308,-482,0,0,0,0,0,0,0,0,0,-1,1532,1506,0,0
315,-482,0,0,0,0,0,0,0,0,0,-1,1539,1506,0,0
322,-482,0,0,0,0,0,0,0,0,0,-1,1546,1506,0,0
329,-482,0,0,0,0,0,0,0,0,0,-1,1553,1506,0,0
336,-482,0,0,0,0,0,0,0,0,0,-1,1560,1506,0,0
343,-482,0,0,0,0,0,0,0,0,0,-1,1567,1506,0,0
350,-482,0,0,0,0,0,0,0,0,0,-1,1574,1506,0,0
357,-482,0,0,0,0,0,0,0,0,0,-1,1581,1506,0,0
364,-482,0,0,0,0,0,0,0,0,0,-1,1588,1506,0,0
371,-482,0,0,0,0,0,0,0,0,0,-1,1595,1506,0,0
378,-482,0,0,0,0,0,0,0,0,0,-1,1602,1506,0,0
385,-482,0,0,0,0,0,0,0,0,0,-1,1609,1506,0,0
392,-482,0,0,0,0,0,0,0,0,0,-1,1616,1506,0,0
399,-482,0,0,0,0,0,0,0,0,0,-1,1623,1506,0,0
406,-482,0,0,0,0,0,0,0,0,0,-1,1630,1506,0,0
413,-482,0,0,0,0,0,0,0,0,0,-1,1637,1506,0,0
420,-482,0,0,0,0,0,0,0,0,0,-1,1644,1506,0,0
427,-482,0,0,0,0,0,0,0,0,0,-1,1651,1506,0,0
434,-482,0,0,0,0,0,0,0,0,0,-1,1658,1506,0,0
441,-482,0,0,0,0,0,0,0,0,0,-1,1665,1506,0,0
448,-482,4.24146,1.55383,0,0,0,0,0,0,0,-1,1672,1506,4.24149,-1.55381
455,-482,12.4122,1.09729,0,0,0,0,0,0,0,-1,1679,1506,12.4122,-1.09734
462,-482,15.0673,3.13135,0,0,0,0,0,0,0,-1,1686,1506,15.0672,-3.13134
469,-482,15.3793,3.46301,0,0,0,0,0,0,0,-1,1693,1506,15.3793,-3.46307
476,-482,15.7294,3.81396,0,0,0,0,0,0,0,-1,1700,1506,15.7293,-3.81396
483,-482,14.9957,3.45825,0,0,0,0,0,0,0,-1,1707,1506,14.9957,-3.45829
490,-482,9.18359,4.40454,0,0,0,0,0,0,0,-1,1714,1506,9.18355,-4.4046
497,-482,9.72058,3.89136,0,0,0,0,0,0,0,-1,1721,1506,9.72057,-3.89133
504,-482,10.2576,3.37805,0,0,0,0,0,0,0,-1,1728,1506,10.2576,-3.37807
511,-482,9.52039,5.19458,0,0,0,0,0,0,0,-1,1735,1506,9.52033,-5.19462
518,-482,8.79041,5.91943,0,0,0,0,0,0,0,-1,1742,1506,8.79037,-5.91946
525,-482,8.73474,6.43469,-0.0133542,-0.0375716,0.0176177,-0.00408529,-0.0468405,0.484321,0.0299583,0.046626,1749,1506,8.73471,-6.43472
532,-482,8.77869,6.97595,-0.0102393,-0.0311756,0.0154638,-0.00203366,-0.0393812,0.487856,0.0256032,0.0423565,1756,1506,8.77867,-6.97593
539,-482,8.73035,7.38818,-0.00750827,-0.0250866,0.0131128,-0.000511544,-0.0320834,0.49015,0.0212205,0.0309737,1763,1506,8.73037,-7.38816
546,-482,8.61853,7.45178,-0.00593968,-0.0198434,0.0107827,-6.20447e-05,-0.025721,0.499071,0.0171267,0.0165473,1770,1506,8.61858,-7.45181
553,-482,8.58069,7.32813,-0.00396967,-0.0140577,0.00860256,0.000958591,-0.0189859,0.520242,0.0129886,0.0132809,1777,1506,8.58066,-7.32811
560,-482,8.54749,7.16199,-0.00181953,-0.00966084,0.00635357,0.0017257,-0.0132061,0.508957,0.00943205,0.0119465,1784,1506,8.54748,-7.16204
567,-482,8.57751,7.00537,-0.00106257,-0.00731272,0.00427194,0.00110533,-0.00948062,0.469609,0.00671923,0.0138033,1791,1506,8.57748,-7.00536
574,-482,8.56714,6.85999,-0.000972427,-0.0051427,0.00289061,0.000506622,-0.00662175,0.472943,0.0045927,0.013129,1798,1506,8.56708,-6.85999
581,-482,8.55115,6.69812,-0.00125445,-0.00304035,0.00172479,-0.000205172,-0.00408962,0.546538,0.00266066,0.00924464,1805,1506,8.55117,-6.69817
588,-482,8.56189,6.52686,-0.00194531,-0.001027,0.00110291,-0.000291483,-0.00268082,0.982642,0.00169841,0.0101006,1812,1506,8.56184,-6.52683
595,-482,8.57092,6.34412,-0.0024893,0.000753225,0.000634197,0.000872853,-0.00260892,1.38436,0.00209184,0.016532,1819,1506,8.57088,-6.3441
602,-482,8.59448,6.1355,-0.00340926,0.0025414,0.000375536,0.00256501,-0.00343287,1.50802,0.00347494,0.021328,1826,1506,8.59445,-6.13545
609,-482,8.5907,6.00867,-0.00421951,0.00431358,0.00028188,0.00432288,-0.00422881,1.53781,0.00493742,0.0164124,1833,1506,8.59065,-6.00871
616,-482,8.58118,5.86499,-0.00536455,0.00581201,0.000426639,0.00582827,-0.00538082,1.5327,0.00647329,0.0112344,1840,1506,8.58117,-5.86504
623,-482,8.57007,5.69995,-0.00703933,0.00750119,0.000764392,0.00754126,-0.0070794,1.51842,0.00844265,0.0113839,1847,1506,8.5701,-5.69999
630,-482,8.60913,5.55103,-0.00901187,0.00906432,0.00125987,0.00915171,-0.00909926,1.50154,0.0105372,0.0223466,1854,1506,8.60915,-5.55098
637,-482,8.16821,5.80505,0,0,0,0,0,0,0,-1,1861,1506,8.16823,-5.80504
644,-482,8.06079,5.71021,0,0,0,0,0,0,0,-1,1868,1506,8.06084,-5.71025
651,-482,4.03845,7.05273,0,0,0,0,0,0,0,-1,1875,1506,4.03843,-7.05279
658,-482,2.6803,3.83582,0,0,0,0,0,0,0,-1,1882,1506,2.68028,-3.83587
665,-482,8.15198,3.22229,0,0,0,0,0,0,0,-1,1889,1506,8.15199,-3.22232
672,-482,9.87415,1.3147,0,0,0,0,0,0,0,-1,1896,1506,9.87416,-1.31473
679,-482,0,0,0,0,0,0,0,0,0,-1,1903,1506,0,0
686,-482,0,0,0,0,0,0,0,0,0,-1,1910,1506,0,0
693,-482,0,0,0,0,0,0,0,0,0,-1,1917,1506,0,0
700,-482,0,0,0,0,0,0,0,0,0,-1,1924,1506,0,0
707,-482,0,0,0,0,0,0,0,0,0,-1,1931,1506,0,0
714,-482,0,0,0,0,0,0,0,0,0,-1,1938,1506,0,0
721,-482,0,0,0,0,0,0,0,0,0,-1,1945,1506,0,0
728,-482,0,0,0,0,0,0,0,0,0,-1,1952,1506,0,0
735,-482,0,0,0,0,0,0,0,0,0,-1,1959,1506,0,0
742,-482,0,0,0,0,0,0,0,0,0,-1,1966,1506,0,0
749,-482,0,0,0,0,0,0,0,0,0,-1,1973,1506,0,0
756,-482,0,0,0,0,0,0,0,0,0,-1,1980,1506,0,0
763,-482,0,0,0,0,0,0,0,0,0,-1,1987,1506,0,0
770,-482,0,0,0,0,0,0,0,0,0,-1,1994,1506,0,0
777,-482,0,0,0,0,0,0,0,0,0,-1,2001,1506,0,0
784,-482,0,0,0,0,0,0,0,0,0,-1,2008,1506,0,0
791,-482,0,0,0,0,0,0,0,0,0,-1,2015,1506,0,0
798,-482,0,0,0,0,0,0,0,0,0,-1,2022,1506,0,0
805,-482,0,0,0,0,0,0,0,0,0,-1,2029,1506,0,0
812,-482,0,0,0,0,0,0,0,0,0,-1,2036,1506,0,0
-700,-489,0,0,0,0,0,0,0,0,0,-1,524,1513,0,0
-693,-489,0,0,0,0,0,0,0,0,0,-1,531,1513,0,0
-686,-489,0,0,0,0,0,0,0,0,0,-1,538,1513,0,0
-679,-489,0,0,0,0,0,0,0,0,0,-1,545,1513,0,0
-672,-489,0,0,0,0,0,0,0,0,0,-1,552,1513,0,0
-665,-489,0,0,0,0,0,0,0,0,0,-1,559,1513,0,0
-658,-489,0,0,0,0,0,0,0,0,0,-1,566,1513,0,0
-651,-489,0,0,0,0,0,0,0,0,0,-1,573,1513,0,0
-644,-489,0,0,0,0,0,0,0,0,0,-1,580,1513,0,0
-637,-489,0,0,0,0,0,0,0,0,0,-1,587,1513,0,0
-630,-489,0,0,0,0,0,0,0,0,0,-1,594,1513,0,0
-623,-489,0,0,0,0,0,0,0,0,0,-1,601,1513,0,0
-616,-489,0,0,0,0,0,0,0,0,0,-1,608,1513,0,0
-609,-489,0,0,0,0,0,0,0,0,0,-1,615,1513,0,0
-602,-489,0,0,0,0,0,0,0,0,0,-1,622,1513,0,0
-595,-489,0,0,0,0,0,0,0,0,0,-1,629,1513,0,0
-588,-489,0,0,0,0,0,0,0,0,0,-1,636,1513,0,0
-581,-489,0,0,0,0,0,0,0,0,0,-1,643,1513,0,0
-574,-489,0,0,0,0,0,0,0,0,0,-1,650,1513,0,0
-567,-489,0,0,0,0,0,0,0,0,0,-1,657,1513,0,0
-560,-489,0,0,0,0,0,0,0,0,0,-1,664,1513,0,0
-553,-489,-4.7655,1.25269,0,0,0,0,0,0,0,-1,671,1513,-4.76551,-1.25274
-546,-489,-4.44464,2.55151,0,0,0,0,0,0,0,-1,678,1513,-4.44462,-2.55154
-539,-489,1.84998,1.43542,0,0,0,0,0,0,0,-1,685,1513,1.84999,-1.43545
-532,-489,-0.637329,3.16138,0,0,0,0,0,0,0,-1,692,1513,-0.637317,-3.16137
-525,-489,-1.4613,3.15869,0.00311233,0.0213142,0.0278405,0.0415036,-0.0170771,0.943371,0.0347878,0.0413158,699,1513,-1.46131,-3.15873
-518,-489,-1.98547,3.29041,0.00235068,0.0156044,0.0205779,0.0305962,-0.0126411,0.941174,0.0256705,0.0465117,706,1513,-1.98545,-3.29041
-511,-489,-1.1861,3.776,0,0,0,0,0,0,0,-1,713,1513,-1.18611,-3.77597
-504,-489,-0.771423,3.7063,0.001585,0.00724855,0.0108864,0.0156654,-0.00683188,0.912639,0.0133184,0.0489666,720,1513,-0.771444,-3.70629
-497,-489,-0.69458,3.80566,0.00148738,0.00449172,0.00765943,0.0107949,-0.00481579,0.882229,0.00923057,0.039028,727,1513,-0.694576,-3.80568
-490,-489,-0.888245,4.11487,0.00147739,0.00254999,0.00525617,0.00729715,-0.00326978,0.836238,0.00624677,0.0221275,734,1513,-0.888228,-4.11481
-483,-489,-0.936035,4.27209,0.00149201,0.00121611,0.00368292,0.00503956,-0.00233145,0.766678,0.00435034,0.0111212,741,1513,-0.936053,-4.27209
-476,-489,-0.942993,4.45215,0.00114702,0.000704858,0.00220579,0.00314278,-0.0012909,0.735451,0.00263316,0.00937023,748,1513,-0.943022,-4.45212
-469,-489,-0.958069,4.63293,0.00139794,-0.000521379,0.00118714,0.0019648,-0.00108823,0.445483,0.00178672,0.00991409,755,1513,-0.958074,-4.63292
-462,-489,-0.939636,4.81812,0.0020943,-0.00141878,0.000504611,0.00216534,-0.00148982,0.139871,0.00212229,0.0142144,762,1513,-0.939616,-4.81811
-455,-489,-0.937561,5.01978,0.00256022,-0.00194046,7.13766e-05,0.00256135,-0.00194159,0.0158537,0.00260797,0.0167787,769,1513,-0.937566,-5.01982
-448,-489,-0.936523,5.2439,0.00334664,-0.00258179,-0.000283192,0.00336014,-0.00259529,-0.0476239,0.00344781,0.0146978,776,1513,-0.936542,-5.24389
-441,-489,-0.921936,5.4314,0.00472288,-0.0031811,-0.0005612,0.00476253,-0.00322075,-0.0705306,0.00463771,0.0136431,783,1513,-0.921942,-5.43139
-434,-489,-0.951782,5.61523,0.00631294,-0.00417258,-0.000595914,0.0063467,-0.00420634,-0.0565892,0.00613443,0.0158351,790,1513,-0.951775,-5.6152
-427,-489,-0.977722,5.81592,0.00817828,-0.00545933,-0.000382788,0.00818902,-0.00547007,-0.0280391,0.00793799,0.0177379,797,1513,-0.977738,-5.81596
-420,-489,-0.995117,6.03967,0.0105531,-0.00646142,0.0002303,0.0105562,-0.00646454,0.0135322,0.00992111,0.0177954,804,1513,-0.995133,-6.03973
-413,-489,-0.785767,6.14038,0.0131134,-0.00796941,0.000717925,0.0131378,-0.00799382,0.0340002,0.0123202,0.0224316,811,1513,-0.785753,-6.14035
-406,-489,-0.630676,6.40222,0,0,0,0,0,0,0,-1,818,1513,-0.6307,-6.40226
-399,-489,-0.690613,5.93848,0,0,0,0,0,0,0,-1,825,1513,-0.690639,-5.93845
-392,-489,-0.301025,6.16785,0.0238867,-0.0123733,0.00515087,0.0246042,-0.0130908,0.138407,0.022099,0.0411684,832,1513,-0.301044,-6.16787
-385,-489,-0.010498,6.33936,0.0277584,-0.0128643,0.00824468,0.0293679,-0.0144738,0.192797,0.0257944,0.0468089,839,1513,-0.0104755,-6.33938
-378,-489,-0.0586548,6.77979,0,0,0,0,0,0,0,-1,846,1513,-0.058672,-6.77974
-371,-489,0.699707,7.82031,0,0,0,0,0,0,0,-1,853,1513,0.699707,-7.82033
-364,-489,-0.503113,8.98486,0,0,0,0,0,0,0,-1,860,1513,-0.503097,-8.98482
-357,-489,-0.609924,10.9606,0,0,0,0,0,0,0,-1,867,1513,-0.609947,-10.9605
-350,-489,-7.94659,-0.358887,0,0,0,0,0,0,0,-1,874,1513,-7.94657,0.358912
-343,-489,-7.49323,-0.437866,0,0,0,0,0,0,0,-1,881,1513,-7.49322,0.437823
-336,-489,-7.02332,-0.53125,0,0,0,0,0,0,0,-1,888,1513,-7.0233,0.531295
-329,-489,-6.70221,-0.242432,0,0,0,0,0,0,0,-1,895,1513,-6.70221,0.2424
-322,-489,0,0,0,0,0,0,0,0,0,-1,902,1513,0,0
-315,-489,0,0,0,0,0,0,0,0,0,-1,909,1513,0,0
-308,-489,0,0,0,0,0,0,0,0,0,-1,916,1513,0,0
-301,-489,0,0,0,0,0,0,0,0,0,-1,923,1513,0,0
-294,-489,0,0,0,0,0,0,0,0,0,-1,930,1513,0,0
-287,-489,0,0,0,0,0,0,0,0,0,-1,937,1513,0,0
-280,-489,0,0,0,0,0,0,0,0,0,-1,944,1513,0,0
-273,-489,0,0,0,0,0,0,0,0,0,-1,951,1513,0,0
-266,-489,0,0,0,0,0,0,0,0,0,-1,958,1513,0,0
-259,-489,0,0,0,0,0,0,0,0,0,-1,965,1513,0,0
-252,-489,0,0,0,0,0,0,0,0,0,-1,972,1513,0,0
-245,-489,0,0,0,0,0,0,0,0,0,-1,979,1513,0,0
-238,-489,0,0,0,0,0,0,0,0,0,-1,986,1513,0,0
-231,-489,0,0,0,0,0,0,0,0,0,-1,993,1513,0,0
-224,-489,0,0,0,0,0,0,0,0,0,-1,1000,1513,0,0
-217,-489,0,0,0,0,0,0,0,0,0,-1,1007,1513,0,0
-210,-489,0,0,0,0,0,0,0,0,0,-1,1014,1513,0,0
-203,-489,0,0,0,0,0,0,0,0,0,-1,1021,1513,0,0
-196,-489,0,0,0,0,0,0,0,0,0,-1,1028,1513,0,0
-189,-489,0,0,0,0,0,0,0,0,0,-1,1035,1513,0,0
-182,-489,0,0,0,0,0,0,0,0,0,-1,1042,1513,0,0
-175,-489,0,0,0,0,0,0,0,0,0,-1,1049,1513,0,0
-168,-489,0,0,0,0,0,0,0,0,0,-1,1056,1513,0,0
-161,-489,0,0,0,0,0,0,0,0,0,-1,1063,1513,0,0
-154,-489,0,0,0,0,0,0,0,0,0,-1,1070,1513,0,0
-147,-489,0,0,0,0,0,0,0,0,0,-1,1077,1513,0,0
-140,-489,0,0,0,0,0,0,0,0,0,-1,1084,1513,0,0
-133,-489,0,0,0,0,0,0,0,0,0,-1,1091,1513,0,0
-126,-489,0,0,0,0,0,0,0,0,0,-1,1098,1513,0,0
-119,-489,0,0,0,0,0,0,0,0,0,-1,1105,1513,0,0
-112,-489,0,0,0,0,0,0,0,0,0,-1,1112,1513,0,0
-105,-489,0,0,0,0,0,0,0,0,0,-1,1119,1513,0,0
-98,-489,0,0,0,0,0,0,0,0,0,-1,1126,1513,0,0
-91,-489,0,0,0,0,0,0,0,0,0,-1,1133,1513,0,0
-84,-489,0,0,0,0,0,0,0,0,0,-1,1140,1513,0,0
-77,-489,0,0,0,0,0,0,0,0,0,-1,1147,1513,0,0
-70,-489,0,0,0,0,0,0,0,0,0,-1,1154,1513,0,0
-63,-489,0,0,0,0,0,0,0,0,0,-1,1161,1513,0,0
-56,-489,0,0,0,0,0,0,0,0,0,-1,1168,1513,0,0
-49,-489,0,0,0,0,0,0,0,0,0,-1,1175,1513,0,0
-42,-489,0,0,0,0,0,0,0,0,0,-1,1182,1513,0,0
-35,-489,0,0,0,0,0,0,0,0,0,-1,1189,1513,0,0
-28,-489,0,0,0,0,0,0,0,0,0,-1,1196,1513,0,0
-21,-489,0,0,0,0,0,0,0,0,0,-1,1203,1513,0,0
-14,-489,0,0,0,0,0,0,0,0,0,-1,1210,1513,0,0
-7,-489,0,0,0,0,0,0,0,0,0,-1,1217,1513,0,0
0,-489,0,0,0,0,0,0,0,0,0,-1,1224,1513,0,0
7,-489,0,0,0,0,0,0,0,0,0,-1,1231,1513,0,0
14,-489,0,0,0,0,0,0,0,0,0,-1,1238,1513,0,0
21,-489,0,0,0,0,0,0,0,0,0,-1,1245,1513,0,0
28,-489,0,0,0,0,0,0,0,0,0,-1,1252,1513,0,0
35,-489,0,0,0,0,0,0,0,0,0,-1,1259,1513,0,0
42,-489,0,0,0,0,0,0,0,0,0,-1,1266,1513,0,0
49,-489,0,0,0,0,0,0,0,0,0,-1,1273,1513,0,0
56,-489,0,0,0,0,0,0,0,0,0,-1,1280,1513,0,0
63,-489,0,0,0,0,0,0,0,0,0,-1,1287,1513,0,0
70,-489,0,0,0,0,0,0,0,0,0,-1,1294,1513,0,0
77,-489,0,0,0,0,0,0,0,0,0,-1,1301,1513,0,0
84,-489,0,0,0,0,0,0,0,0,0,-1,1308,1513,0,0
91,-489,0,0,0,0,0,0,0,0,0,-1,1315,1513,0,0
98,-489,0,0,0,0,0,0,0,0,0,-1,1322,1513,0,0
105,-489,0,0,0,0,0,0,0,0,0,-1,1329,1513,0,0
112,-489,0,0,0,0,0,0,0,0,0,-1,1336,1513,0,0
119,-489,0,0,0,0,0,0,0,0,0,-1,1343,1513,0,0
126,-489,0,0,0,0,0,0,0,0,0,-1,1350,1513,0,0
133,-489,0,0,0,0,0,0,0,0,0,-1,1357,1513,0,0
140,-489,0,0,0,0,0,0,0,0,0,-1,1364,1513,0,0
147,-489,0,0,0,0,0,0,0,0,0,-1,1371,1513,0,0
154,-489,0,0,0,0,0,0,0,0,0,-1,1378,1513,0,0
161,-489,0,0,0,0,0,0,0,0,0,-1,1385,1513,0,0
168,-489,0,0,0,0,0,0,0,0,0,-1,1392,1513,0,0
175,-489,0,0,0,0,0,0,0,0,0,-1,1399,1513,0,0
182,-489,0,0,0,0,0,0,0,0,0,-1,1406,1513,0,0
189,-489,0,0,0,0,0,0,0,0,0,-1,1413,1513,0,0
196,-489,0,0,0,0,0,0,0,0,0,-1,1420,1513,0,0
203,-489,0,0,0,0,0,0,0,0,0,-1,1427,1513,0,0
210,-489,0,0,0,0,0,0,0,0,0,-1,1434,1513,0,0
217,-489,0,0,0,0,0,0,0,0,0,-1,1441,1513,0,0
224,-489,0,0,0,0,0,0,0,0,0,-1,1448,1513,0,0
231,-489,0,0,0,0,0,0,0,0,0,-1,1455,1513,0,0
238,-489,0,0,0,0,0,0,0,0,0,-1,1462,1513,0,0
245,-489,0,0,0,0,0,0,0,0,0,-1,1469,1513,0,0
252,-489,0,0,0,0,0,0,0,0,0,-1,1476,1513,0,0
259,-489,0,0,0,0,0,0,0,0,0,-1,1483,1513,0,0
266,-489,0,0,0,0,0,0,0,0,0,-1,1490,1513,0,0
273,-489,0,0,0,0,0,0,0,0,0,-1,1497,1513,0,0
280,-489,0,0,0,0,0,0,0,0,0,-1,1504,1513,0,0
287,-489,0,0,0,0,0,0,0,0,0,-1,1511,1513,0,0
294,-489,0,0,0,0,0,0,0,0,0,-1,1518,1513,0,0
301,-489,0,0,0,0,0,0,0,0,0,-1,1525,1513,0,0
308,-489,0,0,0,0,0,0,0,0,0,-1,1532,1513,0,0
315,-489,0,0,0,0,0,0,0,0,0,-1,1539,1513,0,0
322,-489,0,0,0,0,0,0,0,0,0,-1,1546,1513,0,0
329,-489,0,0,0,0,0,0,0,0,0,-1,1553,1513,0,0
336,-489,0,0,0,0,0,0,0,0,0,-1,1560,1513,0,0
343,-489,0,0,0,0,0,0,0,0,0,-1,1567,1513,0,0
350,-489,0,0,0,0,0,0,0,0,0,-1,1574,1513,0,0
357,-489,0,0,0,0,0,0,0,0,0,-1,1581,1513,0,0
364,-489,0,0,0,0,0,0,0,0,0,-1,1588,1513,0,0
371,-489,0,0,0,0,0,0,0,0,0,-1,1595,1513,0,0
378,-489,0,0,0,0,0,0,0,0,0,-1,1602,1513,0,0
385,-489,0,0,0,0,0,0,0,0,0,-1,1609,1513,0,0
392,-489,0,0,0,0,0,0,0,0,0,-1,1616,1513,0,0
399,-489,0,0,0,0,0,0,0,0,0,-1,1623,1513,0,0
406,-489,0,0,0,0,0,0,0,0,0,-1,1630,1513,0,0
413,-489,0,0,0,0,0,0,0,0,0,-1,1637,1513,0,0
420,-489,0,0,0,0,0,0,0,0,0,-1,1644,1513,0,0
427,-489,0,0,0,0,0,0,0,0,0,-1,1651,1513,0,0
434,-489,0,0,0,0,0,0,0,0,0,-1,1658,1513,0,0
441,-489,11.4602,2.56787,0,0,0,0,0,0,0,-1,1665,1513,11.4602,-2.56786
448,-489,12.4425,1.72351,0,0,0,0,0,0,0,-1,1672,1513,12.4425,-1.72349
455,-489,12.5575,1.37463,0,0,0,0,0,0,0,-1,1679,1513,12.5575,-1.37469
462,-489,14.9784,3.84888,0,0,0,0,0,0,0,-1,1686,1513,14.9784,-3.84892
469,-489,15.1367,4.53101,0,0,0,0,0,0,0,-1,1693,1513,15.1368,-4.531
476,-489,15.5536,5.09338,0,0,0,0,0,0,0,-1,1700,1513,15.5536,-5.09339
483,-489,16.0366,5.55762,0,0,0,0,0,0,0,-1,1707,1513,16.0366,-5.55761
490,-489,9.13525,4.63171,0,0,0,0,0,0,0,-1,1714,1513,9.1353,-4.63176
497,-489,9.40942,4.69324,0,0,0,0,0,0,0,-1,1721,1513,9.4094,-4.69329
504,-489,9.68347,4.75476,0,0,0,0,0,0,0,-1,1728,1513,9.68349,-4.75481
511,-489,9.53711,7.52576,0,0,0,0,0,0,0,-1,1735,1513,9.53705,-7.52578
518,-489,8.2168,7.16785,0,0,0,0,0,0,0,-1,1742,1513,8.21679,-7.16784
525,-489,8.40381,6.79346,-0.00766597,-0.0340315,0.0188446,0.00214919,-0.0438467,0.480186,0.0299732,0.0465471,1749,1513,8.40378,-6.79344
532,-489,8.51392,7.4043,-0.00550104,-0.0273172,0.0161144,0.00305005,-0.0358683,0.487866,0.024991,0.0358499,1756,1513,8.51393,-7.40434
539,-489,8.45264,7.58411,-0.00368158,-0.0212852,0.0133162,0.00347886,-0.0284456,0.493369,0.0202233,0.0170746,1763,1513,8.45262,-7.58413
546,-489,8.37854,7.50122,-0.00282364,-0.0160599,0.0106411,0.00308945,-0.021973,0.507199,0.0157796,0.0111354,1770,1513,8.3786,-7.50126
553,-489,8.39783,7.34875,-0.00159997,-0.0107674,0.00818589,0.00319816,-0.0155656,0.530171,0.0115911,0.0134397,1777,1513,8.39784,-7.3488
560,-489,8.41248,7.1731,-0.000326422,-0.00682958,0.00580682,0.00307722,-0.0102332,0.53017,0.00804647,0.0127385,1784,1513,8.41248,-7.17309
567,-489,8.42566,7.0249,2.95852e-05,-0.00491316,0.00366301,0.00197695,-0.00686053,0.488632,0.00535571,0.0142854,1791,1513,8.42567,-7.02488
574,-489,8.39429,6.88586,-4.25805e-05,-0.00289624,0.00226785,0.00120995,-0.00414877,0.504607,0.00324524,0.013975,1798,1513,8.39434,-6.88582
581,-489,8.39453,6.70654,-0.000565738,-0.000935928,0.00112217,0.000386505,-0.00188817,0.703663,0.00140544,0.00971907,1805,1513,8.39452,-6.7065
588,-489,8.39673,6.52148,-0.00159278,0.0010271,0.000517233,0.00112552,-0.0016912,1.38277,0.00163713,0.0121581,1812,1513,8.39671,-6.52154
595,-489,8.38696,6.36597,-0.00249998,0.00277367,3.49532e-05,0.0027739,-0.00250021,1.56417,0.00304637,0.0183662,1819,1513,8.38699,-6.36602
602,-489,8.41199,6.19824,-0.00377109,0.00455672,-0.000221996,0.00456264,-0.00377701,-1.54416,0.00482201,0.024315,1826,1513,8.41194,-6.1983
609,-489,8.41785,6.04236,-0.0051243,0.0064629,-0.000236333,0.00646772,-0.00512911,-1.55041,0.00671028,0.016838,1833,1513,8.4179,-6.04234
616,-489,8.4082,5.8678,-0.00694995,0.00822823,-5.34413e-06,0.00822824,-0.00694996,-1.57044,0.00877349,0.00984878,1840,1513,8.4082,-5.8678
623,-489,8.41992,5.7356,-0.00948178,0.0102832,0.00046868,0.0102943,-0.00949289,1.5471,0.0114273,0.0143266,1847,1513,8.41988,-5.73564
630,-489,8.40417,5.67969,-0.0124396,0.0123184,0.00111909,0.0123689,-0.0124901,1.52572,0.0143524,0.0346287,1854,1513,8.40421,-5.67972
637,-489,7.77307,6.02319,-0.015428,0.0144854,0.00200343,0.014619,-0.0155616,1.50422,0.0174276,0.0481945,1861,1513,7.77312,-6.02319
644,-489,7.29651,6.29016,0,0,0,0,0,0,0,-1,1868,1513,7.29652,-6.29019
651,-489,6.13818,6.85095,0,0,0,0,0,0,0,-1,1875,1513,6.13823,-6.85097
658,-489,5.43848,7.75513,0,0,0,0,0,0,0,-1,1882,1513,5.43844,-7.75509
665,-489,5.48438,8.59912,0,0,0,0,0,0,0,-1,1889,1513,5.48434,-8.59907
672,-489,0,0,0,0,0,0,0,0,0,-1,1896,1513,0,0
679,-489,0,0,0,0,0,0,0,0,0,-1,1903,1513,0,0
686,-489,0,0,0,0,0,0,0,0,0,-1,1910,1513,0,0
693,-489,0,0,0,0,0,0,0,0,0,-1,1917,1513,0,0
700,-489,0,0,0,0,0,0,0,0,0,-1,1924,1513,0,0
707,-489,0,0,0,0,0,0,0,0,0,-1,1931,1513,0,0
714,-489,0,0,0,0,0,0,0,0,0,-1,1938,1513,0,0
721,-489,0,0,0,0,0,0,0,0,0,-1,1945,1513,0,0
728,-489,0,0,0,0,0,0,0,0,0,-1,1952,1513,0,0
735,-489,0,0,0,0,0,0,0,0,0,-1,1959,1513,0,0
742,-489,0,0,0,0,0,0,0,0,0,-1,1966,1513,0,0
749,-489,0,0,0,0,0,0,0,0,0,-1,1973,1513,0,0
756,-489,0,0,0,0,0,0,0,0,0,-1,1980,1513,0,0
763,-489,0,0,0,0,0,0,0,0,0,-1,1987,1513,0,0
770,-489,0,0,0,0,0,0,0,0,0,-1,1994,1513,0,0
777,-489,0,0,0,0,0,0,0,0,0,-1,2001,1513,0,0
784,-489,0,0,0,0,0,0,0,0,0,-1,2008,1513,0,0
791,-489,0,0,0,0,0,0,0,0,0,-1,2015,1513,0,0
798,-489,0,0,0,0,0,0,0,0,0,-1,2022,1513,0,0
805,-489,0,0,0,0,0,0,0,0,0,-1,2029,1513,0,0
812,-489,0,0,0,0,0,0,0,0,0,-1,2036,1513,0,0
-700,-496,0,0,0,0,0,0,0,0,0,-1,524,1520,0,0
-693,-496,0,0,0,0,0,0,0,0,0,-1,531,1520,0,0
-686,-496,0,0,0,0,0,0,0,0,0,-1,538,1520,0,0
-679,-496,0,0,0,0,0,0,0,0,0,-1,545,1520,0,0
-672,-496,0,0,0,0,0,0,0,0,0,-1,552,1520,0,0
-665,-496,0,0,0,0,0,0,0,0,0,-1,559,1520,0,0
-658,-496,0,0,0,0,0,0,0,0,0,-1,566,1520,0,0
-651,-496,0,0,0,0,0,0,0,0,0,-1,573,1520,0,0
-644,-496,0,0,0,0,0,0,0,0,0,-1,580,1520,0,0
-637,-496,0,0,0,0,0,0,0,0,0,-1,587,1520,0,0
-630,-496,0,0,0,0,0,0,0,0,0,-1,594,1520,0,0
-623,-496,0,0,0,0,0,0,0,0,0,-1,601,1520,0,0
-616,-496,0,0,0,0,0,0,0,0,0,-1,608,1520,0,0
-609,-496,0,0,0,0,0,0,0,0,0,-1,615,1520,0,0
-602,-496,0,0,0,0,0,0,0,0,0,-1,622,1520,0,0
-595,-496,0,0,0,0,0,0,0,0,0,-1,629,1520,0,0
-588,-496,0,0,0,0,0,0,0,0,0,-1,636,1520,0,0
-581,-496,0,0,0,0,0,0,0,0,0,-1,643,1520,0,0
-574,-496,0,0,0,0,0,0,0,0,0,-1,650,1520,0,0
-567,-496,0,0,0,0,0,0,0,0,0,-1,657,1520,0,0
-560,-496,0,0,0,0,0,0,0,0,0,-1,664,1520,0,0
-553,-496,0,0,0,0,0,0,0,0,0,-1,671,1520,0,0
-546,-496,2.59515,0.953369,0,0,0,0,0,0,0,-1,678,1520,2.59515,-0.953344
-539,-496,-0.650574,3.22864,0,0,0,0,0,0,0,-1,685,1520,-0.650584,-3.2287
-532,-496,-0.701233,3.95142,0,0,0,0,0,0,0,-1,692,1520,-0.701238,-3.9514
-525,-496,-1.55756,3.48376,0,0,0,0,0,0,0,-1,699,1520,-1.55758,-3.48381
-518,-496,-1.88049,2.81995,0.000403388,0.0232473,0.0194835,0.03441,-0.0107593,1.05052,0.0272441,0.0457885,706,1520,-1.88047,-2.81996
-511,-496,-1.98608,2.78931,0.000697372,0.0168259,0.0149574,0.0257545,-0.00823116,1.03264,0.0204726,0.0462062,713,1520,-1.98605,-2.78936
-504,-496,-0.273499,3.58459,0,0,0,0,0,0,0,-1,720,1520,-0.273474,-3.58461
-497,-496,-0.40863,3.67603,0.00158178,0.00744863,0.00833418,0.0133506,-0.00432016,0.954615,0.010637,0.0477576,727,1520,-0.408645,-3.67608
-490,-496,-0.697876,4.25269,0.00187327,0.00450311,0.00602008,0.00935021,-0.00297382,0.892921,0.00742596,0.0359241,734,1520,-0.697852,-4.25273
-483,-496,-0.751221,4.34753,0.0020772,0.00245127,0.00432718,0.00659546,-0.00206698,0.806996,0.0052241,0.0175362,741,1520,-0.751248,-4.34754
-476,-496,-0.75769,4.45679,0.00185032,0.0014818,0.00282264,0.0044947,-0.00116258,0.752805,0.00344992,0.0105951,748,1520,-0.757698,-4.45675
-469,-496,-0.76886,4.64575,0.00207199,-9.58534e-05,0.0017378,0.0030362,-0.00106006,0.506555,0.002455,0.0105006,755,1520,-0.768883,-4.6457
-462,-496,-0.760071,4.83203,0.00263121,-0.00109625,0.00101503,0.00288969,-0.00135473,0.249352,0.00250336,0.0143912,762,1520,-0.760063,-4.83203
-455,-496,-0.74823,5.02551,0.00289408,-0.00154912,0.000598957,0.00297341,-0.00162845,0.131672,0.00269444,0.0185856,769,1520,-0.748224,-5.02554
-448,-496,-0.733337,5.22937,0.00338647,-0.00195871,0.000314179,0.00340487,-0.00197711,0.0585096,0.00314353,0.0175911,776,1520,-0.733333,-5.22931
-441,-496,-0.733887,5.43616,0.00443505,-0.00231687,3.94962e-05,0.00443528,-0.0023171,0.00584936,0.00396192,0.0139945,783,1520,-0.733889,-5.43614
-434,-496,-0.760437,5.61353,0.00565131,-0.00305524,3.31435e-05,0.00565144,-0.00305536,0.00380665,0.00510081,0.0125987,790,1520,-0.760444,-5.61355
-427,-496,-0.777466,5.80798,0.00702714,-0.00413622,0.000289517,0.00703464,-0.00414372,0.0259114,0.00652538,0.016079,797,1520,-0.777445,-5.808
-420,-496,-0.763672,5.99707,0.00884322,-0.00487397,0.000901282,0.00890219,-0.00493294,0.0653302,0.00809655,0.0175083,804,1520,-0.763686,-5.99708
-413,-496,-0.722168,6.17981,0.0107207,-0.00606552,0.00131928,0.0108238,-0.00616857,0.077955,0.00993249,0.0160528,811,1520,-0.722147,-6.17982
-406,-496,-0.718445,6.38525,0.0130953,-0.00729985,0.00207297,0.0133039,-0.00750841,0.100274,0.0121703,0.0238033,818,1520,-0.718454,-6.38524
-399,-496,-0.588867,6.54565,0.0158524,-0.00857433,0.00319115,0.0162624,-0.00898435,0.127785,0.0147767,0.0376709,825,1520,-0.588869,-6.54569
-392,-496,-0.671082,6.47107,0.0188099,-0.00968583,0.00483932,0.0196093,-0.0104852,0.163714,0.0176393,0.040753,832,1520,-0.671106,-6.47103
-385,-496,-0.299927,6.42908,0.0215318,-0.0100472,0.00726331,0.0231223,-0.0116376,0.215574,0.0204305,0.0434791,839,1520,-0.299939,-6.42912
-378,-496,-0.122009,6.80347,0.0237117,-0.00832345,0.0105015,0.0268473,-0.0114591,0.29016,0.0227032,0.0432141,846,1520,-0.12202,-6.80353
-371,-496,0.249878,7.37061,0.0260671,-0.00566013,0.0147871,0.0318902,-0.0114832,0.375144,0.0259491,0.0473099,853,1520,0.249862,-7.37067
-364,-496,0.496765,8.29834,0,0,0,0,0,0,0,-1,860,1520,0.496737,-8.29838
-357,-496,0.323792,7.56812,0,0,0,0,0,0,0,-1,867,1520,0.323782,-7.56806
-350,-496,2.1535,7.18945,0,0,0,0,0,0,0,-1,874,1520,2.15348,-7.1894
-343,-496,-7.56244,0.335327,0,0,0,0,0,0,0,-1,881,1520,-7.56242,-0.335322
-336,-496,-7.664,-0.446289,0,0,0,0,0,0,0,-1,888,1520,-7.66398,0.446252
-329,-496,-6.93689,-0.100342,0,0,0,0,0,0,0,-1,895,1520,-6.93686,0.1003
-322,-496,-6.17505,0.494385,0,0,0,0,0,0,0,-1,902,1520,-6.17507,-0.49437
-315,-496,-5.46338,1.0459,0,0,0,0,0,0,0,-1,909,1520,-5.46338,-1.04587
-308,-496,0,0,0,0,0,0,0,0,0,-1,916,1520,0,0
-301,-496,0,0,0,0,0,0,0,0,0,-1,923,1520,0,0
-294,-496,0,0,0,0,0,0,0,0,0,-1,930,1520,0,0
-287,-496,0,0,0,0,0,0,0,0,0,-1,937,1520,0,0
-280,-496,0,0,0,0,0,0,0,0,0,-1,944,1520,0,0
-273,-496,0,0,0,0,0,0,0,0,0,-1,951,1520,0,0
-266,-496,0,0,0,0,0,0,0,0,0,-1,958,1520,0,0
-259,-496,0,0,0,0,0,0,0,0,0,-1,965,1520,0,0
-252,-496,0,0,0,0,0,0,0,0,0,-1,972,1520,0,0
-245,-496,0,0,0,0,0,0,0,0,0,-1,979,1520,0,0
-238,-496,0,0,0,0,0,0,0,0,0,-1,986,1520,0,0
-231,-496,0,0,0,0,0,0,0,0,0,-1,993,1520,0,0
-224,-496,0,0,0,0,0,0,0,0,0,-1,1000,1520,0,0
-217,-496,0,0,0,0,0,0,0,0,0,-1,1007,1520,0,0
-210,-496,0,0,0,0,0,0,0,0,0,-1,1014,1520,0,0
-203,-496,0,0,0,0,0,0,0,0,0,-1,1021,1520,0,0
-196,-496,0,0,0,0,0,0,0,0,0,-1,1028,1520,0,0
-189,-496,0,0,0,0,0,0,0,0,0,-1,1035,1520,0,0
-182,-496,0,0,0,0,0,0,0,0,0,-1,1042,1520,0,0
-175,-496,0,0,0,0,0,0,0,0,0,-1,1049,1520,0,0
-168,-496,0,0,0,0,0,0,0,0,0,-1,1056,1520,0,0
-161,-496,0,0,0,0,0,0,0,0,0,-1,1063,1520,0,0
-154,-496,0,0,0,0,0,0,0,0,0,-1,1070,1520,0,0
-147,-496,0,0,0,0,0,0,0,0,0,-1,1077,1520,0,0
-140,-496,0,0,0,0,0,0,0,0,0,-1,1084,1520,0,0
-133,-496,0,0,0,0,0,0,0,0,0,-1,1091,1520,0,0
-126,-496,0,0,0,0,0,0,0,0,0,-1,1098,1520,0,0
-119,-496,0,0,0,0,0,0,0,0,0,-1,1105,1520,0,0
-112,-496,0,0,0,0,0,0,0,0,0,-1,1112,1520,0,0
-105,-496,0,0,0,0,0,0,0,0,0,-1,1119,1520,0,0
-98,-496,0,0,0,0,0,0,0,0,0,-1,1126,1520,0,0
-91,-496,0,0,0,0,0,0,0,0,0,-1,1133,1520,0,0
-84,-496,0,0,0,0,0,0,0,0,0,-1,1140,1520,0,0
-77,-496,0,0,0,0,0,0,0,0,0,-1,1147,1520,0,0
-70,-496,0,0,0,0,0,0,0,0,0,-1,1154,1520,0,0
-63,-496,0,0,0,0,0,0,0,0,0,-1,1161,1520,0,0
-56,-496,0,0,0,0,0,0,0,0,0,-1,1168,1520,0,0
-49,-496,0,0,0,0,0,0,0,0,0,-1,1175,1520,0,0
-42,-496,0,0,0,0,0,0,0,0,0,-1,1182,1520,0,0
-35,-496,0,0,0,0,0,0,0,0,0,-1,1189,1520,0,0
-28,-496,0,0,0,0,0,0,0,0,0,-1,1196,1520,0,0
-21,-496,0,0,0,0,0,0,0,0,0,-1,1203,1520,0,0
-14,-496,0,0,0,0,0,0,0,0,0,-1,1210,1520,0,0
-7,-496,0,0,0,0,0,0,0,0,0,-1,1217,1520,0,0
0,-496,0,0,0,0,0,0,0,0,0,-1,1224,1520,0,0
7,-496,0,0,0,0,0,0,0,0,0,-1,1231,1520,0,0
14,-496,0,0,0,0,0,0,0,0,0,-1,1238,1520,0,0
21,-496,0,0,0,0,0,0,0,0,0,-1,1245,1520,0,0
28,-496,0,0,0,0,0,0,0,0,0,-1,1252,1520,0,0
35,-496,0,0,0,0,0,0,0,0,0,-1,1259,1520,0,0
42,-496,0,0,0,0,0,0,0,0,0,-1,1266,1520,0,0
49,-496,0,0,0,0,0,0,0,0,0,-1,1273,1520,0,0
56,-496,0,0,0,0,0,0,0,0,0,-1,1280,1520,0,0
63,-496,0,0,0,0,0,0,0,0,0,-1,1287,1520,0,0
70,-496,0,0,0,0,0,0,0,0,0,-1,1294,1520,0,0
77,-496,0,0,0,0,0,0,0,0,0,-1,1301,1520,0,0
84,-496,0,0,0,0,0,0,0,0,0,-1,1308,1520,0,0
91,-496,0,0,0,0,0,0,0,0,0,-1,1315,1520,0,0
98,-496,0,0,0,0,0,0,0,0,0,-1,1322,1520,0,0
105,-496,0,0,0,0,0,0,0,0,0,-1,1329,1520,0,0
112,-496,0,0,0,0,0,0,0,0,0,-1,1336,1520,0,0
119,-496,0,0,0,0,0,0,0,0,0,-1,1343,1520,0,0
126,-496,0,0,0,0,0,0,0,0,0,-1,1350,1520,0,0
133,-496,0,0,0,0,0,0,0,0,0,-1,1357,1520,0,0
140,-496,0,0,0,0,0,0,0,0,0,-1,1364,1520,0,0
147,-496,0,0,0,0,0,0,0,0,0,-1,1371,1520,0,0
154,-496,0,0,0,0,0,0,0,0,0,-1,1378,1520,0,0
161,-496,0,0,0,0,0,0,0,0,0,-1,1385,1520,0,0
168,-496,0,0,0,0,0,0,0,0,0,-1,1392,1520,0,0
175,-496,0,0,0,0,0,0,0,0,0,-1,1399,1520,0,0
182,-496,0,0,0,0,0,0,0,0,0,-1,1406,1520,0,0
189,-496,0,0,0,0,0,0,0,0,0,-1,1413,1520,0,0
196,-496,0,0,0,0,0,0,0,0,0,-1,1420,1520,0,0
203,-496,0,0,0,0,0,0,0,0,0,-1,1427,1520,0,0
210,-496,0,0,0,0,0,0,0,0,0,-1,1434,1520,0,0
217,-496,0,0,0,0,0,0,0,0,0,-1,1441,1520,0,0
224,-496,0,0,0,0,0,0,0,0,0,-1,1448,1520,0,0
231,-496,0,0,0,0,0,0,0,0,0,-1,1455,1520,0,0
238,-496,0,0,0,0,0,0,0,0,0,-1,1462,1520,0,0
245,-496,0,0,0,0,0,0,0,0,0,-1,1469,1520,0,0
252,-496,0,0,0,0,0,0,0,0,0,-1,1476,1520,0,0
259,-496,0,0,0,0,0,0,0,0,0,-1,1483,1520,0,0
266,-496,0,0,0,0,0,0,0,0,0,-1,1490,1520,0,0
273,-496,0,0,0,0,0,0,0,0,0,-1,1497,1520,0,0
280,-496,0,0,0,0,0,0,0,0,0,-1,1504,1520,0,0
287,-496,0,0,0,0,0,0,0,0,0,-1,1511,1520,0,0
294,-496,0,0,0,0,0,0,0,0,0,-1,1518,1520,0,0
301,-496,0,0,0,0,0,0,0,0,0,-1,1525,1520,0,0
308,-496,0,0,0,0,0,0,0,0,0,-1,1532,1520,0,0
315,-496,0,0,0,0,0,0,0,0,0,-1,1539,1520,0,0
322,-496,0,0,0,0,0,0,0,0,0,-1,1546,1520,0,0
329,-496,0,0,0,0,0,0,0,0,0,-1,1553,1520,0,0
336,-496,0,0,0,0,0,0,0,0,0,-1,1560,1520,0,0
343,-496,0,0,0,0,0,0,0,0,0,-1,1567,1520,0,0
350,-496,0,0,0,0,0,0,0,0,0,-1,1574,1520,0,0
357,-496,0,0,0,0,0,0,0,0,0,-1,1581,1520,0,0
364,-496,0,0,0,0,0,0,0,0,0,-1,1588,1520,0,0
371,-496,0,0,0,0,0,0,0,0,0,-1,1595,1520,0,0
378,-496,0,0,0,0,0,0,0,0,0,-1,1602,1520,0,0
385,-496,0,0,0,0,0,0,0,0,0,-1,1609,1520,0,0
392,-496,0,0,0,0,0,0,0,0,0,-1,1616,1520,0,0
399,-496,0,0,0,0,0,0,0,0,0,-1,1623,1520,0,0
406,-496,0,0,0,0,0,0,0,0,0,-1,1630,1520,0,0
413,-496,0,0,0,0,0,0,0,0,0,-1,1637,1520,0,0
420,-496,0,0,0,0,0,0,0,0,0,-1,1644,1520,0,0
427,-496,0,0,0,0,0,0,0,0,0,-1,1651,1520,0,0
434,-496,11.0457,3.37732,0,0,0,0,0,0,0,-1,1658,1520,11.0456,-3.37736
441,-496,11.788,2.75488,0,0,0,0,0,0,0,-1,1665,1520,11.7879,-2.75485
448,-496,12.2146,2.18494,0,0,0,0,0,0,0,-1,1672,1520,12.2146,-2.18489
455,-496,12.3489,1.65173,0,0,0,0,0,0,0,-1,1679,1520,12.3489,-1.65178
462,-496,12.1912,1.32361,0,0,0,0,0,0,0,-1,1686,1520,12.1911,-1.32357
469,-496,14.8138,5.77954,0,0,0,0,0,0,0,-1,1693,1520,14.8138,-5.77958
476,-496,15.2449,6.27942,0,0,0,0,0,0,0,-1,1700,1520,15.2449,-6.27936
483,-496,15.6478,6.77539,0,0,0,0,0,0,0,-1,1707,1520,15.6478,-6.77538
490,-496,8.81714,5.38037,0,0,0,0,0,0,0,-1,1714,1520,8.81712,-5.38034
497,-496,9.01636,5.50012,-0.00511903,-0.064279,0.0310582,0.00819141,-0.0775895,0.404886,0.0546618,0.0473407,1721,1520,9.01638,-5.50011
504,-496,8.71948,5.55872,-0.00520997,-0.0550616,0.0288177,0.00796617,-0.0682377,0.428844,0.0483664,0.0460799,1728,1520,8.71953,-5.55874
511,-496,8.38953,5.91321,0,0,0,0,0,0,0,-1,1735,1520,8.38947,-5.91323
518,-496,8.40845,7.62512,0,0,0,0,0,0,0,-1,1742,1520,8.40839,-7.62506
525,-496,7.86035,7.30981,0,0,0,0,0,0,0,-1,1749,1520,7.8603,-7.30986
532,-496,8.29358,7.76721,-0.00145406,-0.0232396,0.0160215,0.00702685,-0.0317205,0.486849,0.0238371,0.0244361,1756,1520,8.29355,-7.76717
539,-496,8.23877,7.6604,-0.000585802,-0.0175626,0.0128537,0.00632937,-0.0244778,0.493577,0.0187871,0.0128373,1763,1520,8.23882,-7.66036
546,-496,8.20154,7.50439,-0.000357945,-0.0126027,0.00993941,0.00519337,-0.018154,0.509358,0.014155,0.00966799,1770,1520,8.20156,-7.50437
553,-496,8.2345,7.34827,0.000192442,-0.00790477,0.00733729,0.004524,-0.0122363,0.533292,0.0100122,0.0141544,1777,1520,8.23447,-7.34829
560,-496,8.26074,7.18103,0.000839742,-0.00445806,0.00497528,0.00382733,-0.00744565,0.540778,0.00661927,0.0131924,1784,1520,8.26074,-7.18101
567,-496,8.2572,7.01208,0.000969916,-0.00288878,0.00290542,0.00252824,-0.0044471,0.492304,0.00407769,0.0116364,1791,1520,8.25714,-7.01214
574,-496,8.24463,6.87744,0.000797382,-0.00099928,0.00157799,0.00171483,-0.00191673,0.526633,0.00209776,0.0117659,1798,1520,8.2446,-6.87741
581,-496,8.23779,6.71875,8.73699e-05,0.000849431,0.000512744,0.00110722,-0.00017042,1.10494,0.00080102,0.0124635,1805,1520,8.23774,-6.7187
588,-496,8.23254,6.50903,-0.00124085,0.00280308,-4.92652e-05,0.00280368,-0.00124145,-1.55862,0.00239281,0.014546,1812,1520,8.23248,-6.50909
595,-496,8.22949,6.36731,-0.00252479,0.00459277,-0.000540168,0.00463353,-0.00256555,-1.49548,0.00421316,0.0153659,1819,1520,8.22945,-6.36736
602,-496,8.24744,6.21912,-0.00420663,0.00647601,-0.000818903,0.00653842,-0.00426904,-1.49473,0.00628538,0.0168099,1826,1520,8.24743,-6.21917
609,-496,8.24841,6.03442,-0.00615781,0.0086504,-0.000780123,0.00869139,-0.00619879,-1.51831,0.00863691,0.0141023,1833,1520,8.24837,-6.03448
616,-496,8.25024,5.84863,-0.00876746,0.0108679,-0.000515796,0.0108814,-0.008781,-1.54455,0.0113737,0.0112799,1840,1520,8.25024,-5.8486
623,-496,8.24744,5.72913,-0.0122218,0.0134764,1.20842e-05,0.0134764,-0.0122218,1.57033,0.0148427,0.0231637,1847,1520,8.24741,-5.72918
630,-496,7.83813,5.64185,-0.0162598,0.016234,0.000760975,0.0162518,-0.0162776,1.54739,0.0187808,0.0391382,1854,1520,7.83808,-5.64189
637,-496,7.06836,5.69666,-0.0205041,0.0192646,0.00171578,0.0193385,-0.020578,1.52776,0.0230495,0.0430999,1861,1520,7.06832,-5.69663
644,-496,6.55872,6.13721,0,0,0,0,0,0,0,-1,1868,1520,6.55868,-6.13717
651,-496,6.02295,6.79968,0,0,0,0,0,0,0,-1,1875,1520,6.02298,-6.79971
658,-496,5.57922,7.42651,-0.0288084,0.0283744,0.00529497,0.0288605,-0.0292946,1.47924,0.0335762,0.0490393,1882,1520,5.57926,-7.42654
665,-496,5.47583,7.90625,0,0,0,0,0,0,0,-1,1889,1520,5.47581,-7.90628
672,-496,0,0,0,0,0,0,0,0,0,-1,1896,1520,0,0
679,-496,0,0,0,0,0,0,0,0,0,-1,1903,1520,0,0
686,-496,0,0,0,0,0,0,0,0,0,-1,1910,1520,0,0
693,-496,0,0,0,0,0,0,0,0,0,-1,1917,1520,0,0
700,-496,0,0,0,0,0,0,0,0,0,-1,1924,1520,0,0
707,-496,0,0,0,0,0,0,0,0,0,-1,1931,1520,0,0
714,-496,0,0,0,0,0,0,0,0,0,-1,1938,1520,0,0
721,-496,0,0,0,0,0,0,0,0,0,-1,1945,1520,0,0
728,-496,0,0,0,0,0,0,0,0,0,-1,1952,1520,0,0
735,-496,0,0,0,0,0,0,0,0,0,-1,1959,1520,0,0
742,-496,0,0,0,0,0,0,0,0,0,-1,1966,1520,0,0
749,-496,0,0,0,0,0,0,0,0,0,-1,1973,1520,0,0
756,-496,0,0,0,0,0,0,0,0,0,-1,1980,1520,0,0
763,-496,0,0,0,0,0,0,0,0,0,-1,1987,1520,0,0
770,-496,0,0,0,0,0,0,0,0,0,-1,1994,1520,0,0
777,-496,0,0,0,0,0,0,0,0,0,-1,2001,1520,0,0
784,-496,0,0,0,0,0,0,0,0,0,-1,2008,1520,0,0
791,-496,0,0,0,0,0,0,0,0,0,-1,2015,1520,0,0
798,-496,0,0,0,0,0,0,0,0,0,-1,2022,1520,0,0
805,-496,0,0,0,0,0,0,0,0,0,-1,2029,1520,0,0
812,-496,0,0,0,0,0,0,0,0,0,-1,2036,1520,0,0
-700,-503,0,0,0,0,0,0,0,0,0,-1,524,1527,0,0
-693,-503,0,0,0,0,0,0,0,0,0,-1,531,1527,0,0
-686,-503,0,0,0,0,0,0,0,0,0,-1,538,1527,0,0
-679,-503,0,0,0,0,0,0,0,0,0,-1,545,1527,0,0
-672,-503,0,0,0,0,0,0,0,0,0,-1,552,1527,0,0
-665,-503,0,0,0,0,0,0,0,0,0,-1,559,1527,0,0
-658,-503,0,0,0,0,0,0,0,0,0,-1,566,1527,0,0
-651,-503,0,0,0,0,0,0,0,0,0,-1,573,1527,0,0
-644,-503,0,0,0,0,0,0,0,0,0,-1,580,1527,0,0
-637,-503,0,0,0,0,0,0,0,0,0,-1,587,1527,0,0
-630,-503,0,0,0,0,0,0,0,0,0,-1,594,1527,0,0
-623,-503,0,0,0,0,0,0,0,0,0,-1,601,1527,0,0
-616,-503,0,0,0,0,0,0,0,0,0,-1,608,1527,0,0
-609,-503,0,0,0,0,0,0,0,0,0,-1,615,1527,0,0
-602,-503,0,0,0,0,0,0,0,0,0,-1,622,1527,0,0
-595,-503,0,0,0,0,0,0,0,0,0,-1,629,1527,0,0
-588,-503,0,0,0,0,0,0,0,0,0,-1,636,1527,0,0
-581,-503,0,0,0,0,0,0,0,0,0,-1,643,1527,0,0
-574,-503,0,0,0,0,0,0,0,0,0,-1,650,1527,0,0
-567,-503,0,0,0,0,0,0,0,0,0,-1,657,1527,0,0
-560,-503,0,0,0,0,0,0,0,0,0,-1,664,1527,0,0
-553,-503,0,0,0,0,0,0,0,0,0,-1,671,1527,0,0
-546,-503,0,0,0,0,0,0,0,0,0,-1,678,1527,0,0
-539,-503,-1.22076,1.39941,0,0,0,0,0,0,0,-1,685,1527,-1.22077,-1.39942
-532,-503,-1.27478,2.2998,0,0,0,0,0,0,0,-1,692,1527,-1.27478,-2.29985
-525,-503,-1.71332,2.39844,0,0,0,0,0,0,0,-1,699,1527,-1.71333,-2.39844
-518,-503,-1.63989,2.43127,-0.00111318,0.033906,0.0190188,0.0422479,-0.00945514,1.15745,0.0317892,0.0474558,706,1527,-1.6399,-2.43129
-511,-503,-1.70929,2.40564,4.6841e-05,0.0247879,0.0153331,0.0321185,-0.00728377,1.12483,0.0242083,0.0453379,713,1527,-1.70927,-2.40559
-504,-503,-0.456482,3.07239,0,0,0,0,0,0,0,-1,720,1527,-0.456484,-3.07234
-497,-503,-0.452759,3.80762,0.00226821,0.0115323,0.00942534,0.0174023,-0.00360179,1.01379,0.0129699,0.0496565,727,1527,-0.45277,-3.8076
-490,-503,-0.55426,4.34253,0.00288631,0.00724517,0.00712284,0.0125145,-0.00238307,0.933864,0.00924039,0.0433272,734,1527,-0.554282,-4.34247
-483,-503,-0.612854,4.54688,0.00323841,0.00421017,0.00523935,0.00898613,-0.00153754,0.831634,0.00656357,0.032492,741,1527,-0.612838,-4.54692
-476,-503,-0.548157,4.52173,0.00306603,0.00256371,0.00361715,0.00644072,-0.000810992,0.750736,0.0045881,0.0161842,748,1527,-0.548135,-4.52174
-469,-503,-0.579956,4.66785,0.00320065,0.000473314,0.00239121,0.00458971,-0.000915743,0.526257,0.00340633,0.00992125,755,1527,-0.579977,-4.66784
-462,-503,-0.572876,4.8573,0.00356711,-0.000725906,0.00156628,0.00407781,-0.0012366,0.315188,0.00321111,0.0113873,762,1527,-0.572855,-4.85727
-455,-503,-0.552734,5.04089,0.00360119,-0.00119609,0.0010976,0.00384039,-0.00143529,0.214576,0.00314966,0.0166201,769,1527,-0.552722,-5.04084
-448,-503,-0.535034,5.2179,0.00377903,-0.00145622,0.000806505,0.00390046,-0.00157765,0.149438,0.00325618,0.0165175,776,1527,-0.535024,-5.2179
-441,-503,-0.535217,5.41382,0.0044832,-0.00164598,0.000471291,0.00451922,-0.001682,0.0762954,0.00370308,0.0130239,783,1527,-0.535217,-5.41382
-434,-503,-0.571167,5.59607,0.00532569,-0.00220517,0.000425322,0.00534963,-0.00222912,0.0562389,0.00449753,0.00985823,790,1527,-0.571138,-5.5961
-427,-503,-0.567627,5.76147,0.0062322,-0.00316466,0.000647316,0.00627658,-0.00320904,0.0684554,0.00557116,0.0154027,797,1527,-0.567615,-5.76152
-420,-503,-0.539368,5.96167,0.0075299,-0.00371043,0.00118519,0.00765351,-0.00383403,0.103918,0.00675343,0.0176814,804,1527,-0.539397,-5.96162
-413,-503,-0.543274,6.16785,0.00880208,-0.00464243,0.00148047,0.00896318,-0.00480353,0.108387,0.00806825,0.0151896,811,1527,-0.543256,-6.16788
-406,-503,-0.549805,6.36108,0.0104815,-0.0055992,0.00202382,0.0107323,-0.00584999,0.123292,0.00971114,0.0128964,818,1527,-0.549807,-6.36104
-399,-503,-0.472656,6.56519,0.0124328,-0.00661123,0.00282978,0.0128444,-0.00702281,0.144435,0.0116333,0.0165152,825,1527,-0.472653,-6.56525
-392,-503,-0.382751,6.74524,0.014541,-0.00754061,0.00407456,0.0152688,-0.00826847,0.17677,0.0137882,0.0292595,832,1527,-0.382772,-6.74521
-385,-503,-0.432678,6.6073,0.016408,-0.00781276,0.00594523,0.0177886,-0.00919338,0.228179,0.0158393,0.0364545,839,1527,-0.432707,-6.60733
-378,-503,-0.301453,6.83301,0.0176062,-0.00616669,0.00838898,0.0202684,-0.00882887,0.307291,0.0172266,0.0418978,846,1527,-0.301463,-6.83296
-371,-503,-0.119995,7.08154,0.0187842,-0.00390436,0.0114957,0.0235906,-0.00871075,0.396014,0.0192975,0.0443679,853,1527,-0.120009,-7.08154
-364,-503,0.0249023,7.25854,0,0,0,0,0,0,0,-1,860,1527,0.0248885,-7.2586
-357,-503,-2.10437,7.26636,0,0,0,0,0,0,0,-1,867,1527,-2.10436,-7.26641
-350,-503,0.219971,6.84827,0,0,0,0,0,0,0,-1,874,1527,0.21996,-6.84831
-343,-503,0.895691,7.56384,0,0,0,0,0,0,0,-1,881,1527,0.8957,-7.56384
-336,-503,1.26941,8.81177,0,0,0,0,0,0,0,-1,888,1527,1.26943,-8.81178
-329,-503,-6.71832,-0.386597,0,0,0,0,0,0,0,-1,895,1527,-6.71832,0.386628
-322,-503,-6.18427,0.137573,0,0,0,0,0,0,0,-1,902,1527,-6.18427,-0.137575
-315,-503,-5.76038,0.790649,0,0,0,0,0,0,0,-1,909,1527,-5.76037,-0.790667
-308,-503,-5.62927,1.49963,0,0,0,0,0,0,0,-1,916,1527,-5.62925,-1.49969
-301,-503,0,0,0,0,0,0,0,0,0,-1,923,1527,0,0
-294,-503,0,0,0,0,0,0,0,0,0,-1,930,1527,0,0
-287,-503,0,0,0,0,0,0,0,0,0,-1,937,1527,0,0
-280,-503,0,0,0,0,0,0,0,0,0,-1,944,1527,0,0
-273,-503,0,0,0,0,0,0,0,0,0,-1,951,1527,0,0
-266,-503,0,0,0,0,0,0,0,0,0,-1,958,1527,0,0
-259,-503,0,0,0,0,0,0,0,0,0,-1,965,1527,0,0
-252,-503,0,0,0,0,0,0,0,0,0,-1,972,1527,0,0
-245,-503,0,0,0,0,0,0,0,0,0,-1,979,1527,0,0
-238,-503,0,0,0,0,0,0,0,0,0,-1,986,1527,0,0
-231,-503,0,0,0,0,0,0,0,0,0,-1,993,1527,0,0
-224,-503,0,0,0,0,0,0,0,0,0,-1,1000,1527,0,0
-217,-503,0,0,0,0,0,0,0,0,0,-1,1007,1527,0,0
-210,-503,0,0,0,0,0,0,0,0,0,-1,1014,1527,0,0
-203,-503,0,0,0,0,0,0,0,0,0,-1,1021,1527,0,0
-196,-503,0,0,0,0,0,0,0,0,0,-1,1028,1527,0,0
-189,-503,0,0,0,0,0,0,0,0,0,-1,1035,1527,0,0
-182,-503,0,0,0,0,0,0,0,0,0,-1,1042,1527,0,0
-175,-503,0,0,0,0,0,0,0,0,0,-1,1049,1527,0,0
-168,-503,0,0,0,0,0,0,0,0,0,-1,1056,1527,0,0
-161,-503,0,0,0,0,0,0,0,0,0,-1,1063,1527,0,0
-154,-503,0,0,0,0,0,0,0,0,0,-1,1070,1527,0,0
-147,-503,0,0,0,0,0,0,0,0,0,-1,1077,1527,0,0
-140,-503,0,0,0,0,0,0,0,0,0,-1,1084,1527,0,0
-133,-503,0,0,0,0,0,0,0,0,0,-1,1091,1527,0,0
-126,-503,0,0,0,0,0,0,0,0,0,-1,1098,1527,0,0
-119,-503,0,0,0,0,0,0,0,0,0,-1,1105,1527,0,0
-112,-503,0,0,0,0,0,0,0,0,0,-1,1112,1527,0,0
-105,-503,0,0,0,0,0,0,0,0,0,-1,1119,1527,0,0
-98,-503,0,0,0,0,0,0,0,0,0,-1,1126,1527,0,0
-91,-503,0,0,0,0,0,0,0,0,0,-1,1133,1527,0,0
-84,-503,0,0,0,0,0,0,0,0,0,-1,1140,1527,0,0
-77,-503,0,0,0,0,0,0,0,0,0,-1,1147,1527,0,0
-70,-503,0,0,0,0,0,0,0,0,0,-1,1154,1527,0,0
-63,-503,0,0,0,0,0,0,0,0,0,-1,1161,1527,0,0
-56,-503,0,0,0,0,0,0,0,0,0,-1,1168,1527,0,0
-49,-503,0,0,0,0,0,0,0,0,0,-1,1175,1527,0,0
-42,-503,0,0,0,0,0,0,0,0,0,-1,1182,1527,0,0
-35,-503,0,0,0,0,0,0,0,0,0,-1,1189,1527,0,0
-28,-503,0,0,0,0,0,0,0,0,0,-1,1196,1527,0,0
-21,-503,0,0,0,0,0,0,0,0,0,-1,1203,1527,0,0
-14,-503,0,0,0,0,0,0,0,0,0,-1,1210,1527,0,0
-7,-503,0,0,0,0,0,0,0,0,0,-1,1217,1527,0,0
0,-503,0,0,0,0,0,0,0,0,0,-1,1224,1527,0,0
7,-503,0,0,0,0,0,0,0,0,0,-1,1231,1527,0,0
14,-503,0,0,0,0,0,0,0,0,0,-1,1238,1527,0,0
21,-503,0,0,0,0,0,0,0,0,0,-1,1245,1527,0,0
28,-503,0,0,0,0,0,0,0,0,0,-1,1252,1527,0,0
35,-503,0,0,0,0,0,0,0,0,0,-1,1259,1527,0,0
42,-503,0,0,0,0,0,0,0,0,0,-1,1266,1527,0,0
49,-503,0,0,0,0,0,0,0,0,0,-1,1273,1527,0,0
56,-503,0,0,0,0,0,0,0,0,0,-1,1280,1527,0,0
63,-503,0,0,0,0,0,0,0,0,0,-1,1287,1527,0,0
70,-503,0,0,0,0,0,0,0,0,0,-1,1294,1527,0,0
77,-503,0,0,0,0,0,0,0,0,0,-1,1301,1527,0,0
84,-503,0,0,0,0,0,0,0,0,0,-1,1308,1527,0,0
91,-503,0,0,0,0,0,0,0,0,0,-1,1315,1527,0,0
98,-503,0,0,0,0,0,0,0,0,0,-1,1322,1527,0,0
105,-503,0,0,0,0,0,0,0,0,0,-1,1329,1527,0,0
112,-503,0,0,0,0,0,0,0,0,0,-1,1336,1527,0,0
119,-503,0,0,0,0,0,0,0,0,0,-1,1343,1527,0,0
126,-503,0,0,0,0,0,0,0,0,0,-1,1350,1527,0,0
133,-503,0,0,0,0,0,0,0,0,0,-1,1357,1527,0,0
140,-503,0,0,0,0,0,0,0,0,0,-1,1364,1527,0,0
147,-503,0,0,0,0,0,0,0,0,0,-1,1371,1527,0,0
154,-503,0,0,0,0,0,0,0,0,0,-1,1378,1527,0,0
161,-503,0,0,0,0,0,0,0,0,0,-1,1385,1527,0,0
168,-503,0,0,0,0,0,0,0,0,0,-1,1392,1527,0,0
175,-503,0,0,0,0,0,0,0,0,0,-1,1399,1527,0,0
182,-503,0,0,0,0,0,0,0,0,0,-1,1406,1527,0,0
189,-503,0,0,0,0,0,0,0,0,0,-1,1413,1527,0,0
196,-503,0,0,0,0,0,0,0,0,0,-1,1420,1527,0,0
203,-503,0,0,0,0,0,0,0,0,0,-1,1427,1527,0,0
210,-503,0,0,0,0,0,0,0,0,0,-1,1434,1527,0,0
217,-503,0,0,0,0,0,0,0,0,0,-1,1441,1527,0,0
224,-503,0,0,0,0,0,0,0,0,0,-1,1448,1527,0,0
231,-503,0,0,0,0,0,0,0,0,0,-1,1455,1527,0,0
238,-503,0,0,0,0,0,0,0,0,0,-1,1462,1527,0,0
245,-503,0,0,0,0,0,0,0,0,0,-1,1469,1527,0,0
252,-503,0,0,0,0,0,0,0,0,0,-1,1476,1527,0,0
259,-503,0,0,0,0,0,0,0,0,0,-1,1483,1527,0,0
266,-503,0,0,0,0,0,0,0,0,0,-1,1490,1527,0,0
273,-503,0,0,0,0,0,0,0,0,0,-1,1497,1527,0,0
280,-503,0,0,0,0,0,0,0,0,0,-1,1504,1527,0,0
287,-503,0,0,0,0,0,0,0,0,0,-1,1511,1527,0,0
294,-503,0,0,0,0,0,0,0,0,0,-1,1518,1527,0,0
301,-503,0,0,0,0,0,0,0,0,0,-1,1525,1527,0,0
308,-503,0,0,0,0,0,0,0,0,0,-1,1532,1527,0,0
315,-503,0,0,0,0,0,0,0,0,0,-1,1539,1527,0,0
322,-503,0,0,0,0,0,0,0,0,0,-1,1546,1527,0,0
329,-503,0,0,0,0,0,0,0,0,0,-1,1553,1527,0,0
336,-503,0,0,0,0,0,0,0,0,0,-1,1560,1527,0,0
343,-503,0,0,0,0,0,0,0,0,0,-1,1567,1527,0,0
350,-503,0,0,0,0,0,0,0,0,0,-1,1574,1527,0,0
357,-503,0,0,0,0,0,0,0,0,0,-1,1581,1527,0,0
364,-503,0,0,0,0,0,0,0,0,0,-1,1588,1527,0,0
371,-503,0,0,0,0,0,0,0,0,0,-1,1595,1527,0,0
378,-503,0,0,0,0,0,0,0,0,0,-1,1602,1527,0,0
385,-503,0,0,0,0,0,0,0,0,0,-1,1609,1527,0,0
392,-503,0,0,0,0,0,0,0,0,0,-1,1616,1527,0,0
399,-503,0,0,0,0,0,0,0,0,0,-1,1623,1527,0,0
406,-503,0,0,0,0,0,0,0,0,0,-1,1630,1527,0,0
413,-503,0,0,0,0,0,0,0,0,0,-1,1637,1527,0,0
420,-503,0,0,0,0,0,0,0,0,0,-1,1644,1527,0,0
427,-503,10.5968,4.9856,0,0,0,0,0,0,0,-1,1651,1527,10.5969,-4.98563
434,-503,11.4329,3.97217,0,0,0,0,0,0,0,-1,1658,1527,11.4328,-3.97222
441,-503,12.0957,2.96509,0,0,0,0,0,0,0,-1,1665,1527,12.0957,-2.96512
448,-503,12.3259,2.53894,0,0,0,0,0,0,0,-1,1672,1527,12.326,-2.53895
455,-503,12.1669,2.18762,0,0,0,0,0,0,0,-1,1679,1527,12.1668,-2.18767
462,-503,11.59,2.60791,0,0,0,0,0,0,0,-1,1686,1527,11.5899,-2.60794
469,-503,11.1625,1.61853,0,0,0,0,0,0,0,-1,1693,1527,11.1625,-1.61856
476,-503,15.047,7.33289,0,0,0,0,0,0,0,-1,1700,1527,15.047,-7.33291
483,-503,8.18994,5.98438,0,0,0,0,0,0,0,-1,1707,1527,8.18993,-5.9844
490,-503,8.41406,6.10913,0.00334574,-0.0675967,0.0336312,0.0167546,-0.0810056,0.379389,0.0603686,0.0488577,1714,1527,8.41403,-6.10918
497,-503,8.59448,6.24451,0.00333005,-0.0608192,0.0327016,0.0170613,-0.0745504,0.397538,0.0562565,0.0445351,1721,1527,8.59446,-6.24453
504,-503,8.28296,6.28113,0.00255504,-0.0514606,0.0299312,0.0158622,-0.0647678,0.418348,0.0493236,0.0440363,1728,1527,8.28295,-6.28113
511,-503,8.84705,8.29761,0.00176655,-0.0419027,0.0262454,0.0140724,-0.0542086,0.43844,0.0416304,0.0447894,1735,1527,8.84708,-8.2976
518,-503,8.42664,8.06543,0.00123786,-0.0331831,0.0223581,0.0122424,-0.0441876,0.457383,0.0342759,0.0403832,1742,1527,8.42669,-8.06542
525,-503,8.09497,7.8501,0.000966469,-0.0255833,0.0184414,0.010414,-0.0350309,0.473439,0.0274908,0.0308965,1749,1527,8.09493,-7.85004
532,-503,8.07922,7.8053,0.000827226,-0.0192655,0.0147769,0.00864945,-0.0270877,0.486855,0.0215288,0.012398,1756,1527,8.07917,-7.80526
539,-503,8.07141,7.67383,0.000775339,-0.0141386,0.0114676,0.00699728,-0.0203605,0.497118,0.0164111,0.0116309,1763,1527,8.0714,-7.67389
546,-503,8.04053,7.51453,0.000374621,-0.00954342,0.00850302,0.00525904,-0.0144278,0.521408,0.01177,0.0111323,1770,1527,8.0405,-7.51453
553,-503,8.07056,7.3457,0.000497291,-0.00554239,0.00594943,0.00414942,-0.00919452,0.55055,0.00788554,0.0128485,1777,1527,8.07053,-7.3457
560,-503,8.07715,7.17236,0.000796851,-0.00260825,0.00375003,0.00321272,-0.00502412,0.572306,0.00479372,0.0122708,1784,1527,8.0772,-7.17239
567,-503,8.08411,7.00427,0.000813082,-0.00131387,0.00184175,0.00187634,-0.00237713,0.523569,0.00246141,0.0114903,1791,1527,8.08408,-7.0043
574,-503,8.07971,6.87427,0.000705332,0.000535368,0.000637555,0.00126354,-2.28446e-05,0.719142,0.00085008,0.0120922,1798,1527,8.07968,-6.87427
581,-503,8.05603,6.72595,6.07992e-06,0.00236419,-0.000296336,0.00240086,-3.05896e-05,-1.44768,0.00161086,0.0139108,1805,1527,8.05605,-6.72593
588,-503,8.0498,6.53394,-0.00141842,0.00441535,-0.000794476,0.00452162,-0.00152468,-1.43784,0.00363096,0.0162597,1812,1527,8.0498,-6.53392
595,-503,8.05859,6.37073,-0.00288895,0.0063928,-0.00129191,0.00656926,-0.00306541,-1.43505,0.00568387,0.0115075,1819,1527,8.05865,-6.37074
602,-503,8.08923,6.21313,-0.00481586,0.00855425,-0.00162269,0.00874837,-0.00500999,-1.45173,0.00804054,0.0123241,1826,1527,8.08927,-6.21317
609,-503,8.12744,6.02002,-0.00724582,0.0111795,-0.00158737,0.0113152,-0.00738157,-1.48548,0.0108739,0.0163761,1833,1527,8.12748,-6.02006
616,-503,8.07092,5.86731,-0.0106077,0.0140618,-0.00138109,0.0141389,-0.0106847,-1.51504,0.0143781,0.018475,1840,1527,8.07092,-5.86729
623,-503,7.97412,5.59619,-0.0149501,0.0173818,-0.000902326,0.0174069,-0.0149752,-1.54292,0.0187134,0.0346323,1847,1527,7.97418,-5.59623
630,-503,7.93237,5.47156,-0.0201151,0.0210082,-0.000157362,0.0210088,-0.0201157,-1.56697,0.0237451,0.0414291,1854,1527,7.93242,-5.47157
637,-503,7.49744,5.57654,-0.0257171,0.0249184,0.000832051,0.024932,-0.0257308,1.55437,0.0292514,0.0433065,1861,1527,7.49744,-5.57657
644,-503,7.02954,5.39929,0,0,0,0,0,0,0,-1,1868,1527,7.02951,-5.39935
651,-503,5.90771,6.74841,0,0,0,0,0,0,0,-1,1875,1527,5.90774,-6.74845
658,-503,5.73291,7.09534,0,0,0,0,0,0,0,-1,1882,1527,5.73293,-7.09529
665,-503,0,0,0,0,0,0,0,0,0,-1,1889,1527,0,0
672,-503,0,0,0,0,0,0,0,0,0,-1,1896,1527,0,0
679,-503,0,0,0,0,0,0,0,0,0,-1,1903,1527,0,0
686,-503,0,0,0,0,0,0,0,0,0,-1,1910,1527,0,0
693,-503,0,0,0,0,0,0,0,0,0,-1,1917,1527,0,0
700,-503,0,0,0,0,0,0,0,0,0,-1,1924,1527,0,0
707,-503,0,0,0,0,0,0,0,0,0,-1,1931,1527,0,0
714,-503,0,0,0,0,0,0,0,0,0,-1,1938,1527,0,0
721,-503,0,0,0,0,0,0,0,0,0,-1,1945,1527,0,0
728,-503,0,0,0,0,0,0,0,0,0,-1,1952,1527,0,0
735,-503,0,0,0,0,0,0,0,0,0,-1,1959,1527,0,0
742,-503,0,0,0,0,0,0,0,0,0,-1,1966,1527,0,0
749,-503,0,0,0,0,0,0,0,0,0,-1,1973,1527,0,0
756,-503,0,0,0,0,0,0,0,0,0,-1,1980,1527,0,0
763,-503,0,0,0,0,0,0,0,0,0,-1,1987,1527,0,0
770,-503,0,0,0,0,0,0,0,0,0,-1,1994,1527,0,0
777,-503,0,0,0,0,0,0,0,0,0,-1,2001,1527,0,0
784,-503,0,0,0,0,0,0,0,0,0,-1,2008,1527,0,0
791,-503,0,0,0,0,0,0,0,0,0,-1,2015,1527,0,0
798,-503,0,0,0,0,0,0,0,0,0,-1,2022,1527,0,0
805,-503,0,0,0,0,0,0,0,0,0,-1,2029,1527,0,0
812,-503,0,0,0,0,0,0,0,0,0,-1,2036,1527,0,0
-700,-510,0,0,0,0,0,0,0,0,0,-1,524,1534,0,0
-693,-510,0,0,0,0,0,0,0,0,0,-1,531,1534,0,0
-686,-510,0,0,0,0,0,0,0,0,0,-1,538,1534,0,0
-679,-510,0,0,0,0,0,0,0,0,0,-1,545,1534,0,0
-672,-510,0,0,0,0,0,0,0,0,0,-1,552,1534,0,0
-665,-510,0,0,0,0,0,0,0,0,0,-1,559,1534,0,0
-658,-510,0,0,0,0,0,0,0,0,0,-1,566,1534,0,0
-651,-510,0,0,0,0,0,0,0,0,0,-1,573,1534,0,0
-644,-510,0,0,0,0,0,0,0,0,0,-1,580,1534,0,0
-637,-510,0,0,0,0,0,0,0,0,0,-1,587,1534,0,0
-630,-510,0,0,0,0,0,0,0,0,0,-1,594,1534,0,0
-623,-510,0,0,0,0,0,0,0,0,0,-1,601,1534,0,0
-616,-510,0,0,0,0,0,0,0,0,0,-1,608,1534,0,0
-609,-510,0,0,0,0,0,0,0,0,0,-1,615,1534,0,0
-602,-510,0,0,0,0,0,0,0,0,0,-1,622,1534,0,0
-595,-510,0,0,0,0,0,0,0,0,0,-1,629,1534,0,0
-588,-510,0,0,0,0,0,0,0,0,0,-1,636,1534,0,0
-581,-510,0,0,0,0,0,0,0,0,0,-1,643,1534,0,0
-574,-510,0,0,0,0,0,0,0,0,0,-1,650,1534,0,0
-567,-510,0,0,0,0,0,0,0,0,0,-1,657,1534,0,0
-560,-510,0,0,0,0,0,0,0,0,0,-1,664,1534,0,0
-553,-510,0,0,0,0,0,0,0,0,0,-1,671,1534,0,0
-546,-510,0,0,0,0,0,0,0,0,0,-1,678,1534,0,0
-539,-510,0,0,0,0,0,0,0,0,0,-1,685,1534,0,0
-532,-510,-1.90131,0.514282,0,0,0,0,0,0,0,-1,692,1534,-1.90131,-0.514288
-525,-510,-1.94019,1.42517,-0.00511224,0.0646374,0.0255721,0.0730082,-0.0134831,1.25445,0.0537334,0.0474114,699,1534,-1.94019,-1.4252
-518,-510,-1.9035,1.97168,-0.00238334,0.0487635,0.0212154,0.0564179,-0.0100378,1.22453,0.0413659,0.0472142,706,1534,-1.90353,-1.97166
-511,-510,-1.95142,2.27087,-7.46639e-05,0.0355739,0.0173419,0.0426182,-0.00711897,1.18496,0.0310583,0.0495533,713,1534,-1.9514,-2.27089
-504,-510,-0.64917,3.79822,0,0,0,0,0,0,0,-1,720,1534,-0.649178,-3.79823
-497,-510,-0.576233,4.33264,0.00362254,0.0168389,0.0109085,0.0229847,-0.00252328,1.05773,0.0162297,0.0470564,727,1534,-0.576206,-4.33261
-490,-510,-0.547668,4.62183,0.00458451,0.0108436,0.00838318,0.0166623,-0.00123423,0.964044,0.0115417,0.041765,734,1534,-0.547655,-4.62179
-483,-510,-0.691772,5.00427,0,0,0,0,0,0,0,-1,741,1534,-0.691798,-5.00422
-476,-510,-0.304688,4.51086,0.00485973,0.00404444,0.00454506,0.00901539,-0.000111216,0.740673,0.00604767,0.0252933,748,1534,-0.304702,-4.51084
-469,-510,-0.374878,4.6626,0.00481204,0.00126476,0.00316091,0.00666291,-0.000586122,0.529729,0.00464965,0.0107522,755,1534,-0.374889,-4.66261
-462,-510,-0.38385,4.84729,0.00487056,-0.000217242,0.00220062,0.00569031,-0.00103699,0.356585,0.00418228,0.0108239,762,1534,-0.383857,-4.84734
-455,-510,-0.391357,5.05298,0.00457506,-0.000789215,0.00163399,0.00503359,-0.00124775,0.273583,0.00383982,0.0130399,769,1534,-0.391382,-5.05298
-448,-510,-0.361572,5.24402,0.00434553,-0.000983963,0.00128868,0.00464078,-0.00127921,0.225222,0.00359689,0.0128081,776,1534,-0.361554,-5.24403
-441,-510,-0.370239,5.40369,0.00462377,-0.00107087,0.000860385,0.00475092,-0.00119802,0.146725,0.00363307,0.0132862,783,1534,-0.370221,-5.40372
-434,-510,-0.395996,5.57422,0.00503932,-0.0015083,0.000736912,0.00512123,-0.00159021,0.110702,0.00404967,0.0137523,790,1534,-0.395981,-5.5742
-427,-510,-0.408264,5.74878,0.0054611,-0.00241166,0.000875976,0.00555739,-0.00250795,0.109483,0.00476618,0.0215327,797,1534,-0.408262,-5.74878
-420,-510,-0.3797,5.92419,0.00625818,-0.00282561,0.00129332,0.00643873,-0.00300616,0.138706,0.00557176,0.0210558,804,1534,-0.37973,-5.92414
-413,-510,-0.374268,6.18042,0.00699578,-0.00354707,0.00144232,0.00718953,-0.00374083,0.133538,0.0064145,0.0112411,811,1534,-0.374274,-6.18039
-406,-510,-0.388184,6.36426,0.00808776,-0.00427955,0.0017662,0.00833505,-0.00452684,0.139108,0.00753353,0.0103042,818,1534,-0.388205,-6.36421
-399,-510,-0.378906,6.53918,0.00938542,-0.00508295,0.00227853,0.00973577,-0.0054333,0.152565,0.00887451,0.0110452,825,1534,-0.378905,-6.53918
-392,-510,-0.30835,6.77563,0.0107925,-0.00586092,0.00314632,0.0113671,-0.00643553,0.180638,0.010409,0.0184373,832,1534,-0.308339,-6.77564
-385,-510,-0.313843,6.89233,0.0120039,-0.00601113,0.00456104,0.0130928,-0.00710008,0.234361,0.0118283,0.0283994,839,1534,-0.313846,-6.89229
-378,-510,-0.346375,6.8291,0.0125828,-0.00435772,0.00641857,0.01474,-0.00651494,0.32423,0.0125741,0.0338619,846,1534,-0.346354,-6.82909
-371,-510,-0.272583,6.74988,0.0132147,-0.00236467,0.00868641,0.0170926,-0.00624259,0.419885,0.0139496,0.0434607,853,1534,-0.272586,-6.74985
-364,-510,-0.229553,6.67346,0,0,0,0,0,0,0,-1,860,1534,-0.229548,-6.67344
-357,-510,-1.2356,6.78564,0,0,0,0,0,0,0,-1,867,1534,-1.23561,-6.78568
-350,-510,0.471191,6.06458,0,0,0,0,0,0,0,-1,874,1534,0.47118,-6.06453
-343,-510,-0.248047,5.14624,0,0,0,0,0,0,0,-1,881,1534,-0.248023,-5.1462
-336,-510,-2.29181,7.53674,0,0,0,0,0,0,0,-1,888,1534,-2.29181,-7.5367
-329,-510,2.02997,7.40417,0,0,0,0,0,0,0,-1,895,1534,2.02997,-7.40421
-322,-510,-2.1048,8.71082,0,0,0,0,0,0,0,-1,902,1534,-2.10477,-8.71083
-315,-510,-1.81354,9.05713,0,0,0,0,0,0,0,-1,909,1534,-1.81353,-9.05714
-308,-510,-1.70624,9.36243,0,0,0,0,0,0,0,-1,916,1534,-1.70626,-9.36241
-301,-510,-1.69275,9.63086,0,0,0,0,0,0,0,-1,923,1534,-1.69277,-9.63084
-294,-510,0,0,0,0,0,0,0,0,0,-1,930,1534,0,0
-287,-510,0,0,0,0,0,0,0,0,0,-1,937,1534,0,0
-280,-510,0,0,0,0,0,0,0,0,0,-1,944,1534,0,0
-273,-510,0,0,0,0,0,0,0,0,0,-1,951,1534,0,0
-266,-510,0,0,0,0,0,0,0,0,0,-1,958,1534,0,0
-259,-510,0,0,0,0,0,0,0,0,0,-1,965,1534,0,0
-252,-510,0,0,0,0,0,0,0,0,0,-1,972,1534,0,0
-245,-510,0,0,0,0,0,0,0,0,0,-1,979,1534,0,0
-238,-510,0,0,0,0,0,0,0,0,0,-1,986,1534,0,0
-231,-510,0,0,0,0,0,0,0,0,0,-1,993,1534,0,0
-224,-510,0,0,0,0,0,0,0,0,0,-1,1000,1534,0,0
-217,-510,0,0,0,0,0,0,0,0,0,-1,1007,1534,0,0
-210,-510,0,0,0,0,0,0,0,0,0,-1,1014,1534,0,0
-203,-510,0,0,0,0,0,0,0,0,0,-1,1021,1534,0,0
-196,-510,0,0,0,0,0,0,0,0,0,-1,1028,1534,0,0
-189,-510,0,0,0,0,0,0,0,0,0,-1,1035,1534,0,0
-182,-510,0,0,0,0,0,0,0,0,0,-1,1042,1534,0,0
-175,-510,0,0,0,0,0,0,0,0,0,-1,1049,1534,0,0
-168,-510,0,0,0,0,0,0,0,0,0,-1,1056,1534,0,0
-161,-510,0,0,0,0,0,0,0,0,0,-1,1063,1534,0,0
-154,-510,0,0,0,0,0,0,0,0,0,-1,1070,1534,0,0
-147,-510,0,0,0,0,0,0,0,0,0,-1,1077,1534,0,0
-140,-510,0,0,0,0,0,0,0,0,0,-1,1084,1534,0,0
-133,-510,0,0,0,0,0,0,0,0,0,-1,1091,1534,0,0
-126,-510,0,0,0,0,0,0,0,0,0,-1,1098,1534,0,0
-119,-510,0,0,0,0,0,0,0,0,0,-1,1105,1534,0,0
-112,-510,0,0,0,0,0,0,0,0,0,-1,1112,1534,0,0
-105,-510,0,0,0,0,0,0,0,0,0,-1,1119,1534,0,0
-98,-510,0,0,0,0,0,0,0,0,0,-1,1126,1534,0,0
-91,-510,0,0,0,0,0,0,0,0,0,-1,1133,1534,0,0
-84,-510,0,0,0,0,0,0,0,0,0,-1,1140,1534,0,0
-77,-510,0,0,0,0,0,0,0,0,0,-1,1147,1534,0,0
-70,-510,0,0,0,0,0,0,0,0,0,-1,1154,1534,0,0
-63,-510,0,0,0,0,0,0,0,0,0,-1,1161,1534,0,0
-56,-510,0,0,0,0,0,0,0,0,0,-1,1168,1534,0,0
-49,-510,0,0,0,0,0,0,0,0,0,-1,1175,1534,0,0
-42,-510,0,0,0,0,0,0,0,0,0,-1,1182,1534,0,0
-35,-510,0,0,0,0,0,0,0,0,0,-1,1189,1534,0,0
-28,-510,0,0,0,0,0,0,0,0,0,-1,1196,1534,0,0
-21,-510,0,0,0,0,0,0,0,0,0,-1,1203,1534,0,0
-14,-510,0,0,0,0,0,0,0,0,0,-1,1210,1534,0,0
-7,-510,0,0,0,0,0,0,0,0,0,-1,1217,1534,0,0
0,-510,0,0,0,0,0,0,0,0,0,-1,1224,1534,0,0
7,-510,0,0,0,0,0,0,0,0,0,-1,1231,1534,0,0
14,-510,0,0,0,0,0,0,0,0,0,-1,1238,1534,0,0
21,-510,0,0,0,0,0,0,0,0,0,-1,1245,1534,0,0
28,-510,0,0,0,0,0,0,0,0,0,-1,1252,1534,0,0
35,-510,0,0,0,0,0,0,0,0,0,-1,1259,1534,0,0
42,-510,0,0,0,0,0,0,0,0,0,-1,1266,1534,0,0
49,-510,0,0,0,0,0,0,0,0,0,-1,1273,1534,0,0
56,-510,0,0,0,0,0,0,0,0,0,-1,1280,1534,0,0
63,-510,0,0,0,0,0,0,0,0,0,-1,1287,1534,0,0
70,-510,0,0,0,0,0,0,0,0,0,-1,1294,1534,0,0
77,-510,0,0,0,0,0,0,0,0,0,-1,1301,1534,0,0
84,-510,0,0,0,0,0,0,0,0,0,-1,1308,1534,0,0
91,-510,0,0,0,0,0,0,0,0,0,-1,1315,1534,0,0
98,-510,0,0,0,0,0,0,0,0,0,-1,1322,1534,0,0
105,-510,0,0,0,0,0,0,0,0,0,-1,1329,1534,0,0
112,-510,0,0,0,0,0,0,0,0,0,-1,1336,1534,0,0
119,-510,0,0,0,0,0,0,0,0,0,-1,1343,1534,0,0
126,-510,0,0,0,0,0,0,0,0,0,-1,1350,1534,0,0
133,-510,0,0,0,0,0,0,0,0,0,-1,1357,1534,0,0
140,-510,0,0,0,0,0,0,0,0,0,-1,1364,1534,0,0
147,-510,0,0,0,0,0,0,0,0,0,-1,1371,1534,0,0
154,-510,0,0,0,0,0,0,0,0,0,-1,1378,1534,0,0
161,-510,0,0,0,0,0,0,0,0,0,-1,1385,1534,0,0
168,-510,0,0,0,0,0,0,0,0,0,-1,1392,1534,0,0
175,-510,0,0,0,0,0,0,0,0,0,-1,1399,1534,0,0
182,-510,0,0,0,0,0,0,0,0,0,-1,1406,1534,0,0
189,-510,0,0,0,0,0,0,0,0,0,-1,1413,1534,0,0
196,-510,0,0,0,0,0,0,0,0,0,-1,1420,1534,0,0
203,-510,0,0,0,0,0,0,0,0,0,-1,1427,1534,0,0
210,-510,0,0,0,0,0,0,0,0,0,-1,1434,1534,0,0
217,-510,0,0,0,0,0,0,0,0,0,-1,1441,1534,0,0
224,-510,0,0,0,0,0,0,0,0,0,-1,1448,1534,0,0
231,-510,0,0,0,0,0,0,0,0,0,-1,1455,1534,0,0
238,-510,0,0,0,0,0,0,0,0,0,-1,1462,1534,0,0
245,-510,0,0,0,0,0,0,0,0,0,-1,1469,1534,0,0
252,-510,0,0,0,0,0,0,0,0,0,-1,1476,1534,0,0
259,-510,0,0,0,0,0,0,0,0,0,-1,1483,1534,0,0
266,-510,0,0,0,0,0,0,0,0,0,-1,1490,1534,0,0
273,-510,0,0,0,0,0,0,0,0,0,-1,1497,1534,0,0
280,-510,0,0,0,0,0,0,0,0,0,-1,1504,1534,0,0
287,-510,0,0,0,0,0,0,0,0,0,-1,1511,1534,0,0
294,-510,0,0,0,0,0,0,0,0,0,-1,1518,1534,0,0
301,-510,0,0,0,0,0,0,0,0,0,-1,1525,1534,0,0
308,-510,0,0,0,0,0,0,0,0,0,-1,1532,1534,0,0
315,-510,0,0,0,0,0,0,0,0,0,-1,1539,1534,0,0
322,-510,0,0,0,0,0,0,0,0,0,-1,1546,1534,0,0
329,-510,0,0,0,0,0,0,0,0,0,-1,1553,1534,0,0
336,-510,0,0,0,0,0,0,0,0,0,-1,1560,1534,0,0
343,-510,0,0,0,0,0,0,0,0,0,-1,1567,1534,0,0
350,-510,0,0,0,0,0,0,0,0,0,-1,1574,1534,0,0
357,-510,0,0,0,0,0,0,0,0,0,-1,1581,1534,0,0
364,-510,0,0,0,0,0,0,0,0,0,-1,1588,1534,0,0
371,-510,0,0,0,0,0,0,0,0,0,-1,1595,1534,0,0
378,-510,0,0,0,0,0,0,0,0,0,-1,1602,1534,0,0
385,-510,0,0,0,0,0,0,0,0,0,-1,1609,1534,0,0
392,-510,0,0,0,0,0,0,0,0,0,-1,1616,1534,0,0
399,-510,0,0,0,0,0,0,0,0,0,-1,1623,1534,0,0
406,-510,0,0,0,0,0,0,0,0,0,-1,1630,1534,0,0
413,-510,0,0,0,0,0,0,0,0,0,-1,1637,1534,0,0
420,-510,13.1918,5.99402,0,0,0,0,0,0,0,-1,1644,1534,13.1917,-5.994
427,-510,10.9799,5.12341,0,0,0,0,0,0,0,-1,1651,1534,10.9798,-5.12337
434,-510,11.8219,4.07898,0,0,0,0,0,0,0,-1,1658,1534,11.8219,-4.07895
441,-510,12.6812,3.02991,0,0,0,0,0,0,0,-1,1665,1534,12.6811,-3.0299
448,-510,13.2379,2.2804,0,0,0,0,0,0,0,-1,1672,1534,13.2379,-2.28037
455,-510,9.76892,2.20642,0,0,0,0,0,0,0,-1,1679,1534,9.76894,-2.20647
462,-510,9.84692,2.49182,0,0,0,0,0,0,0,-1,1686,1534,9.84695,-2.49185
469,-510,9.99475,2.57556,0,0,0,0,0,0,0,-1,1693,1534,9.99477,-2.57556
476,-510,9.94727,3.302,0,0,0,0,0,0,0,-1,1700,1534,9.94725,-3.30196
483,-510,7.89734,6.3551,0,0,0,0,0,0,0,-1,1707,1534,7.89739,-6.35515
490,-510,7.95459,6.75427,0.00389791,-0.0571336,0.0337715,0.0188984,-0.0721341,0.417999,0.0554725,0.0487358,1714,1534,7.95464,-6.75422
497,-510,8.15857,7.01917,0.0044394,-0.0515401,0.0319652,0.0189373,-0.066038,0.425804,0.0515115,0.041575,1721,1534,8.15852,-7.0192
504,-510,8.23877,7.21021,0.00389982,-0.0434768,0.0286096,0.0173551,-0.0569321,0.439612,0.0448728,0.0409922,1728,1534,8.23877,-7.21023
511,-510,8.12012,7.49268,0.00302145,-0.0350551,0.0245087,0.0150176,-0.0470512,0.455183,0.0373925,0.0403742,1735,1534,8.12006,-7.49265
518,-510,8.1261,8.06104,0.0022085,-0.0273555,0.020392,0.0126127,-0.0377596,0.47178,0.0302664,0.0339005,1742,1534,8.12614,-8.06107
525,-510,7.94788,7.96814,0.00160758,-0.0207161,0.0164104,0.0102923,-0.0294008,0.486752,0.0237856,0.0175975,1749,1534,7.94786,-7.96818
532,-510,7.92188,7.81421,0.00114677,-0.0153337,0.0128389,0.0081623,-0.0223493,0.500096,0.0182396,0.0119114,1756,1534,7.92191,-7.81424
539,-510,7.90234,7.64917,0.000841673,-0.0110434,0.00971302,0.0062858,-0.0164876,0.510868,0.0135809,0.0117187,1763,1534,7.9024,-7.64922
546,-510,7.87927,7.50659,0.000376329,-0.00707365,0.0069059,0.00449781,-0.0111951,0.538067,0.0093313,0.0113067,1770,1534,7.8793,-7.50657
553,-510,7.90112,7.34607,0.000412913,-0.00368859,0.00457008,0.00337127,-0.00664695,0.574498,0.00588618,0.0120754,1777,1534,7.90108,-7.34604
560,-510,7.90271,7.16345,0.000548294,-0.0011544,0.0025959,0.00242888,-0.00303499,0.626945,0.00316103,0.0119933,1784,1534,7.90266,-7.16344
567,-510,7.90259,6.99658,0.000533906,3.78752e-05,0.000883008,0.00120307,-0.000631287,0.648488,0.00107608,0.011606,1791,1534,7.90264,-6.99663
574,-510,7.9054,6.83716,0.000473064,0.00191732,-0.000227151,0.0019522,0.00043818,-1.41842,0.00118278,0.0126659,1798,1534,7.90545,-6.83715
581,-510,7.88953,6.70752,-0.000176762,0.00380677,-0.00107079,0.00407636,-0.000446348,-1.32416,0.00287792,0.012032,1805,1534,7.88947,-6.70749
588,-510,7.88794,6.55042,-0.00161451,0.00603855,-0.00156203,0.00634509,-0.00192105,-1.37701,0.0049951,0.0128155,1812,1534,7.88797,-6.5504
595,-510,7.92969,6.3468,-0.00319331,0.00832466,-0.00213043,0.00870609,-0.00357473,-1.39364,0.00729373,0.0118422,1819,1534,7.92967,-6.34677
602,-510,7.94519,6.16992,-0.00528712,0.0109209,-0.00259839,0.0113273,-0.00569349,-1.41566,0.0100048,0.0179806,1826,1534,7.94523,-6.16998
609,-510,7.98914,6.08411,-0.00812756,0.0141367,-0.0026755,0.0144537,-0.00844456,-1.45286,0.0133712,0.0274856,1833,1534,7.98908,-6.08411
616,-510,7.97131,5.7074,-0.0121738,0.0177951,-0.00264475,0.0180267,-0.0124054,-1.48345,0.0176696,0.0388516,1840,1534,7.97129,-5.70736
623,-510,7.77808,5.08899,-0.0174415,0.0219156,-0.00232712,0.0220527,-0.0175786,-1.51194,0.0229297,0.0433349,1847,1534,7.77807,-5.08897
630,-510,7.73901,5.37732,0,0,0,0,0,0,0,-1,1854,1534,7.73906,-5.37728
637,-510,7.7981,5.20374,0,0,0,0,0,0,0,-1,1861,1534,7.79804,-5.20368
644,-510,6.91235,5.67065,-0.038106,0.0359997,0.000587358,0.0360044,-0.0381106,1.56287,0.0427961,0.0435622,1868,1534,6.91237,-5.67066
651,-510,6.54968,6.8855,0,0,0,0,0,0,0,-1,1875,1534,6.54974,-6.88547
658,-510,0,0,0,0,0,0,0,0,0,-1,1882,1534,0,0
665,-510,0,0,0,0,0,0,0,0,0,-1,1889,1534,0,0
672,-510,0,0,0,0,0,0,0,0,0,-1,1896,1534,0,0
679,-510,0,0,0,0,0,0,0,0,0,-1,1903,1534,0,0
686,-510,0,0,0,0,0,0,0,0,0,-1,1910,1534,0,0
693,-510,0,0,0,0,0,0,0,0,0,-1,1917,1534,0,0
700,-510,0,0,0,0,0,0,0,0,0,-1,1924,1534,0,0
707,-510,0,0,0,0,0,0,0,0,0,-1,1931,1534,0,0
714,-510,0,0,0,0,0,0,0,0,0,-1,1938,1534,0,0
721,-510,0,0,0,0,0,0,0,0,0,-1,1945,1534,0,0
728,-510,0,0,0,0,0,0,0,0,0,-1,1952,1534,0,0
735,-510,0,0,0,0,0,0,0,0,0,-1,1959,1534,0,0
742,-510,0,0,0,0,0,0,0,0,0,-1,1966,1534,0,0
749,-510,0,0,0,0,0,0,0,0,0,-1,1973,1534,0,0
756,-510,0,0,0,0,0,0,0,0,0,-1,1980,1534,0,0
763,-510,0,0,0,0,0,0,0,0,0,-1,1987,1534,0,0
770,-510,0,0,0,0,0,0,0,0,0,-1,1994,1534,0,0
777,-510,0,0,0,0,0,0,0,0,0,-1,2001,1534,0,0
784,-510,0,0,0,0,0,0,0,0,0,-1,2008,1534,0,0
791,-510,0,0,0,0,0,0,0,0,0,-1,2015,1534,0,0
798,-510,0,0,0,0,0,0,0,0,0,-1,2022,1534,0,0
805,-510,0,0,0,0,0,0,0,0,0,-1,2029,1534,0,0
812,-510,0,0,0,0,0,0,0,0,0,-1,2036,1534,0,0
-700,-517,0,0,0,0,0,0,0,0,0,-1,524,1541,0,0
-693,-517,0,0,0,0,0,0,0,0,0,-1,531,1541,0,0
-686,-517,0,0,0,0,0,0,0,0,0,-1,538,1541,0,0
-679,-517,0,0,0,0,0,0,0,0,0,-1,545,1541,0,0
-672,-517,0,0,0,0,0,0,0,0,0,-1,552,1541,0,0
-665,-517,0,0,0,0,0,0,0,0,0,-1,559,1541,0,0
-658,-517,0,0,0,0,0,0,0,0,0,-1,566,1541,0,0
-651,-517,0,0,0,0,0,0,0,0,0,-1,573,1541,0,0
-644,-517,0,0,0,0,0,0,0,0,0,-1,580,1541,0,0
-637,-517,0,0,0,0,0,0,0,0,0,-1,587,1541,0,0
-630,-517,0,0,0,0,0,0,0,0,0,-1,594,1541,0,0
-623,-517,0,0,0,0,0,0,0,0,0,-1,601,1541,0,0
-616,-517,0,0,0,0,0,0,0,0,0,-1,608,1541,0,0
-609,-517,0,0,0,0,0,0,0,0,0,-1,615,1541,0,0
-602,-517,0,0,0,0,0,0,0,0,0,-1,622,1541,0,0
-595,-517,0,0,0,0,0,0,0,0,0,-1,629,1541,0,0
-588,-517,0,0,0,0,0,0,0,0,0,-1,636,1541,0,0
-581,-517,0,0,0,0,0,0,0,0,0,-1,643,1541,0,0
-574,-517,0,0,0,0,0,0,0,0,0,-1,650,1541,0,0
-567,-517,0,0,0,0,0,0,0,0,0,-1,657,1541,0,0
-560,-517,0,0,0,0,0,0,0,0,0,-1,664,1541,0,0
-553,-517,0,0,0,0,0,0,0,0,0,-1,671,1541,0,0
-546,-517,0,0,0,0,0,0,0,0,0,-1,678,1541,0,0
-539,-517,0,0,0,0,0,0,0,0,0,-1,685,1541,0,0
-532,-517,0,0,0,0,0,0,0,0,0,-1,692,1541,0,0
-525,-517,-2.01923,-0.00610352,0,0,0,0,0,0,0,-1,699,1541,-2.01922,0.00614509
-518,-517,-2.01862,1.23376,0,0,0,0,0,0,0,-1,706,1541,-2.01864,-1.23378
-511,-517,-1.96167,1.99463,0,0,0,0,0,0,0,-1,713,1541,-1.96165,-1.99467
-504,-517,0.464233,2.9458,0,0,0,0,0,0,0,-1,720,1541,0.464223,-2.94586
-497,-517,-0.796753,4.67993,0,0,0,0,0,0,0,-1,727,1541,-0.796766,-4.67998
-490,-517,-0.509521,4.90686,0,0,0,0,0,0,0,-1,734,1541,-0.509544,-4.90691
-483,-517,-0.408447,4.92188,0.00779522,0.00970026,0.00768484,0.0164914,0.00100409,0.847058,0.0106753,0.0392313,741,1541,-0.408471,-4.92187
-476,-517,-0.128296,4.51196,0.00742392,0.0060685,0.00575732,0.0125433,0.000949136,0.726811,0.00806445,0.032807,748,1541,-0.128271,-4.51192
-469,-517,-0.157227,4.64954,0.00705158,0.00238567,0.00415154,0.00948076,-4.35123e-05,0.529413,0.00633506,0.0135935,755,1541,-0.157241,-4.64957
-462,-517,-0.200073,4.83923,0.00667915,0.000556402,0.00302776,0.00792351,-0.000687958,0.389939,0.00552596,0.0132319,762,1541,-0.20005,-4.83924
-455,-517,-0.195374,5.0592,0.00590484,-0.000150634,0.00232381,0.00669381,-0.000939606,0.327306,0.00480646,0.0123687,769,1541,-0.195372,-5.05918
-448,-517,-0.191711,5.25525,0.00512583,-0.000317813,0.00187312,0.00570808,-0.000900062,0.301376,0.00413816,0.012272,776,1541,-0.191704,-5.25525
-441,-517,-0.199036,5.42078,0.00486557,-0.000327304,0.00131975,0.00518173,-0.000643465,0.23513,0.00368773,0.011278,783,1541,-0.199009,-5.42081
-434,-517,-0.181274,5.59949,0.00478132,-0.000663677,0.00108147,0.00498825,-0.000870612,0.18906,0.00365048,0.0142733,790,1541,-0.181249,-5.59953
-427,-517,-0.178101,5.78577,0.00469939,-0.00154257,0.00109568,0.00488613,-0.00172931,0.168813,0.00396173,0.0136877,797,1541,-0.178124,-5.78574
-420,-517,-0.206787,5.98669,0.00502494,-0.00186967,0.00135584,0.00528199,-0.00212671,0.18736,0.00440482,0.0191693,804,1541,-0.206775,-5.98668
-413,-517,-0.202942,6.1825,0.00532073,-0.00243979,0.00134627,0.00554764,-0.00266671,0.166979,0.00483881,0.0105481,811,1541,-0.202956,-6.18247
-406,-517,-0.207642,6.35999,0.00595603,-0.0030287,0.00145762,0.00618659,-0.00325925,0.156874,0.00554017,0.0104502,818,1541,-0.207669,-6.35999
-399,-517,-0.201965,6.54468,0.00677182,-0.00371359,0.00171025,0.00704372,-0.00398549,0.157665,0.0064488,0.0101926,825,1541,-0.20196,-6.54467
-392,-517,-0.188416,6.7312,0.00768225,-0.00442243,0.00226528,0.00809229,-0.00483246,0.17907,0.00754081,0.0112253,832,1541,-0.188402,-6.73121
-385,-517,-0.134766,6.9718,0.00842044,-0.00452893,0.0033045,0.00921495,-0.00532344,0.235955,0.00849339,0.0164763,839,1541,-0.134768,-6.9718
-378,-517,-0.140381,7.03564,0.00858001,-0.00293445,0.00469352,0.0102508,-0.00460519,0.341982,0.0087811,0.0297428,846,1541,-0.140391,-7.03558
-371,-517,-0.15033,6.94543,0.00887071,-0.00116021,0.00638981,0.0119783,-0.00426783,0.452661,0.00972548,0.0403594,853,1541,-0.150309,-6.94542
-364,-517,-0.50946,7.12683,0.00631146,0.00254146,0.00988153,0.0144862,-0.00563326,0.691151,0.0119849,0.0479881,860,1541,-0.509483,-7.12685
-357,-517,-0.743958,7.42322,0,0,0,0,0,0,0,-1,867,1541,-0.743952,-7.42318
-350,-517,0.253296,6.94153,0,0,0,0,0,0,0,-1,874,1541,0.253303,-6.94159
-343,-517,0.366028,7.41064,0,0,0,0,0,0,0,-1,881,1541,0.366019,-7.4106
-336,-517,2.93292,5.28625,0,0,0,0,0,0,0,-1,888,1541,2.93293,-5.28621
-329,-517,3.68591,5.86316,0,0,0,0,0,0,0,-1,895,1541,3.68592,-5.86314
-322,-517,-1.88239,7.94958,0,0,0,0,0,0,0,-1,902,1541,-1.8824,-7.94958
-315,-517,-1.64355,8.2677,0,0,0,0,0,0,0,-1,909,1541,-1.64357,-8.26775
-308,-517,-1.57727,8.5603,0,0,0,0,0,0,0,-1,916,1541,-1.57724,-8.56028
-301,-517,2.27185,8.23425,0,0,0,0,0,0,0,-1,923,1541,2.27187,-8.23431
-294,-517,-1.45313,9.36975,0,0,0,0,0,0,0,-1,930,1541,-1.45311,-9.3697
-287,-517,-5.28577,3.87378,0,0,0,0,0,0,0,-1,937,1541,-5.28576,-3.87378
-280,-517,0,0,0,0,0,0,0,0,0,-1,944,1541,0,0
-273,-517,0,0,0,0,0,0,0,0,0,-1,951,1541,0,0
-266,-517,0,0,0,0,0,0,0,0,0,-1,958,1541,0,0
-259,-517,0,0,0,0,0,0,0,0,0,-1,965,1541,0,0
-252,-517,0,0,0,0,0,0,0,0,0,-1,972,1541,0,0
-245,-517,0,0,0,0,0,0,0,0,0,-1,979,1541,0,0
-238,-517,0,0,0,0,0,0,0,0,0,-1,986,1541,0,0
-231,-517,0,0,0,0,0,0,0,0,0,-1,993,1541,0,0
-224,-517,0,0,0,0,0,0,0,0,0,-1,1000,1541,0,0
-217,-517,0,0,0,0,0,0,0,0,0,-1,1007,1541,0,0
-210,-517,0,0,0,0,0,0,0,0,0,-1,1014,1541,0,0
-203,-517,0,0,0,0,0,0,0,0,0,-1,1021,1541,0,0
-196,-517,0,0,0,0,0,0,0,0,0,-1,1028,1541,0,0
-189,-517,0,0,0,0,0,0,0,0,0,-1,1035,1541,0,0
-182,-517,0,0,0,0,0,0,0,0,0,-1,1042,1541,0,0
-175,-517,0,0,0,0,0,0,0,0,0,-1,1049,1541,0,0
-168,-517,0,0,0,0,0,0,0,0,0,-1,1056,1541,0,0
-161,-517,0,0,0,0,0,0,0,0,0,-1,1063,1541,0,0
-154,-517,0,0,0,0,0,0,0,0,0,-1,1070,1541,0,0
-147,-517,0,0,0,0,0,0,0,0,0,-1,1077,1541,0,0
-140,-517,0,0,0,0,0,0,0,0,0,-1,1084,1541,0,0
-133,-517,0,0,0,0,0,0,0,0,0,-1,1091,1541,0,0
-126,-517,0,0,0,0,0,0,0,0,0,-1,1098,1541,0,0
-119,-517,0,0,0,0,0,0,0,0,0,-1,1105,1541,0,0
-112,-517,0,0,0,0,0,0,0,0,0,-1,1112,1541,0,0
-105,-517,0,0,0,0,0,0,0,0,0,-1,1119,1541,0,0
-98,-517,0,0,0,0,0,0,0,0,0,-1,1126,1541,0,0
-91,-517,0,0,0,0,0,0,0,0,0,-1,1133,1541,0,0
-84,-517,0,0,0,0,0,0,0,0,0,-1,1140,1541,0,0
-77,-517,0,0,0,0,0,0,0,0,0,-1,1147,1541,0,0
-70,-517,0,0,0,0,0,0,0,0,0,-1,1154,1541,0,0
-63,-517,0,0,0,0,0,0,0,0,0,-1,1161,1541,0,0
-56,-517,0,0,0,0,0,0,0,0,0,-1,1168,1541,0,0
-49,-517,0,0,0,0,0,0,0,0,0,-1,1175,1541,0,0
-42,-517,0,0,0,0,0,0,0,0,0,-1,1182,1541,0,0
-35,-517,0,0,0,0,0,0,0,0,0,-1,1189,1541,0,0
-28,-517,0,0,0,0,0,0,0,0,0,-1,1196,1541,0,0
-21,-517,0,0,0,0,0,0,0,0,0,-1,1203,1541,0,0
-14,-517,0,0,0,0,0,0,0,0,0,-1,1210,1541,0,0
-7,-517,0,0,0,0,0,0,0,0,0,-1,1217,1541,0,0
0,-517,0,0,0,0,0,0,0,0,0,-1,1224,1541,0,0
7,-517,0,0,0,0,0,0,0,0,0,-1,1231,1541,0,0
14,-517,0,0,0,0,0,0,0,0,0,-1,1238,1541,0,0
21,-517,0,0,0,0,0,0,0,0,0,-1,1245,1541,0,0
28,-517,0,0,0,0,0,0,0,0,0,-1,1252,1541,0,0
35,-517,0,0,0,0,0,0,0,0,0,-1,1259,1541,0,0
42,-517,0,0,0,0,0,0,0,0,0,-1,1266,1541,0,0
49,-517,0,0,0,0,0,0,0,0,0,-1,1273,1541,0,0
56,-517,0,0,0,0,0,0,0,0,0,-1,1280,1541,0,0
63,-517,0,0,0,0,0,0,0,0,0,-1,1287,1541,0,0
70,-517,0,0,0,0,0,0,0,0,0,-1,1294,1541,0,0
77,-517,0,0,0,0,0,0,0,0,0,-1,1301,1541,0,0
84,-517,0,0,0,0,0,0,0,0,0,-1,1308,1541,0,0
91,-517,0,0,0,0,0,0,0,0,0,-1,1315,1541,0,0
98,-517,0,0,0,0,0,0,0,0,0,-1,1322,1541,0,0
105,-517,0,0,0,0,0,0,0,0,0,-1,1329,1541,0,0
112,-517,0,0,0,0,0,0,0,0,0,-1,1336,1541,0,0
119,-517,0,0,0,0,0,0,0,0,0,-1,1343,1541,0,0
126,-517,0,0,0,0,0,0,0,0,0,-1,1350,1541,0,0
133,-517,0,0,0,0,0,0,0,0,0,-1,1357,1541,0,0
140,-517,0,0,0,0,0,0,0,0,0,-1,1364,1541,0,0
147,-517,0,0,0,0,0,0,0,0,0,-1,1371,1541,0,0
154,-517,0,0,0,0,0,0,0,0,0,-1,1378,1541,0,0
161,-517,0,0,0,0,0,0,0,0,0,-1,1385,1541,0,0
168,-517,0,0,0,0,0,0,0,0,0,-1,1392,1541,0,0
175,-517,0,0,0,0,0,0,0,0,0,-1,1399,1541,0,0
182,-517,0,0,0,0,0,0,0,0,0,-1,1406,1541,0,0
189,-517,0,0,0,0,0,0,0,0,0,-1,1413,1541,0,0
196,-517,0,0,0,0,0,0,0,0,0,-1,1420,1541,0,0
203,-517,0,0,0,0,0,0,0,0,0,-1,1427,1541,0,0
210,-517,0,0,0,0,0,0,0,0,0,-1,1434,1541,0,0
217,-517,0,0,0,0,0,0,0,0,0,-1,1441,1541,0,0
224,-517,0,0,0,0,0,0,0,0,0,-1,1448,1541,0,0
231,-517,0,0,0,0,0,0,0,0,0,-1,1455,1541,0,0
238,-517,0,0,0,0,0,0,0,0,0,-1,1462,1541,0,0
245,-517,0,0,0,0,0,0,0,0,0,-1,1469,1541,0,0
252,-517,0,0,0,0,0,0,0,0,0,-1,1476,1541,0,0
259,-517,0,0,0,0,0,0,0,0,0,-1,1483,1541,0,0
266,-517,0,0,0,0,0,0,0,0,0,-1,1490,1541,0,0
273,-517,0,0,0,0,0,0,0,0,0,-1,1497,1541,0,0
280,-517,0,0,0,0,0,0,0,0,0,-1,1504,1541,0,0
287,-517,0,0,0,0,0,0,0,0,0,-1,1511,1541,0,0
294,-517,0,0,0,0,0,0,0,0,0,-1,1518,1541,0,0
301,-517,0,0,0,0,0,0,0,0,0,-1,1525,1541,0,0
308,-517,0,0,0,0,0,0,0,0,0,-1,1532,1541,0,0
315,-517,0,0,0,0,0,0,0,0,0,-1,1539,1541,0,0
322,-517,0,0,0,0,0,0,0,0,0,-1,1546,1541,0,0
329,-517,0,0,0,0,0,0,0,0,0,-1,1553,1541,0,0
336,-517,0,0,0,0,0,0,0,0,0,-1,1560,1541,0,0
343,-517,0,0,0,0,0,0,0,0,0,-1,1567,1541,0,0
350,-517,0,0,0,0,0,0,0,0,0,-1,1574,1541,0,0
357,-517,0,0,0,0,0,0,0,0,0,-1,1581,1541,0,0
364,-517,0,0,0,0,0,0,0,0,0,-1,1588,1541,0,0
371,-517,0,0,0,0,0,0,0,0,0,-1,1595,1541,0,0
378,-517,0,0,0,0,0,0,0,0,0,-1,1602,1541,0,0
385,-517,0,0,0,0,0,0,0,0,0,-1,1609,1541,0,0
392,-517,0,0,0,0,0,0,0,0,0,-1,1616,1541,0,0
399,-517,0,0,0,0,0,0,0,0,0,-1,1623,1541,0,0
406,-517,12.1469,6.22412,0,0,0,0,0,0,0,-1,1630,1541,12.1468,-6.22408
413,-517,12.2695,6.3324,0,0,0,0,0,0,0,-1,1637,1541,12.2696,-6.33243
420,-517,12.4789,6.20337,0,0,0,0,0,0,0,-1,1644,1541,12.4789,-6.20333
427,-517,11.647,4.66516,0,0,0,0,0,0,0,-1,1651,1541,11.647,-4.66519
434,-517,12.3719,3.92773,0,0,0,0,0,0,0,-1,1658,1541,12.3719,-3.92776
441,-517,13.146,3.14124,0,0,0,0,0,0,0,-1,1665,1541,13.146,-3.14121
448,-517,13.8861,2.36682,0,0,0,0,0,0,0,-1,1672,1541,13.8861,-2.36684
455,-517,8.60706,4.01855,0,0,0,0,0,0,0,-1,1679,1541,8.60705,-4.01861
462,-517,8.50793,1.59912,0,0,0,0,0,0,0,-1,1686,1541,8.50799,-1.59913
469,-517,8.79614,2.86072,0,0,0,0,0,0,0,-1,1693,1541,8.79608,-2.86067
476,-517,8.27844,4.43079,0,0,0,0,0,0,0,-1,1700,1541,8.27848,-4.43073
483,-517,7.68079,6.92371,0,0,0,0,0,0,0,-1,1707,1541,7.68081,-6.92367
490,-517,7.82202,7.21387,-0.0010382,-0.0479699,0.0320296,0.0152016,-0.0642097,0.469252,0.0486715,0.0454908,1714,1541,7.82199,-7.21382
497,-517,7.93384,7.6947,0.000395322,-0.0432472,0.0294769,0.015249,-0.058101,0.466771,0.0446927,0.0397167,1721,1541,7.93386,-7.69465
504,-517,7.92798,7.99707,0.000767972,-0.0363294,0.0256794,0.0138971,-0.0494585,0.472625,0.0384512,0.0363393,1728,1541,7.92799,-7.99701
511,-517,7.87964,8.27893,0.000629238,-0.0290467,0.0214774,0.0118958,-0.0403133,0.483114,0.0315963,0.0320272,1735,1541,7.8796,-8.27888
518,-517,7.7467,8.13806,0.000307359,-0.0223531,0.0174962,0.00982156,-0.0318673,0.498061,0.0251659,0.0228488,1742,1541,7.74671,-8.13803
525,-517,7.73645,7.97009,7.97117e-05,-0.0165899,0.0137636,0.00783541,-0.0243456,0.513145,0.0193777,0.0125581,1749,1541,7.73647,-7.97009
532,-517,7.75818,7.81702,-0.000109705,-0.0119848,0.0105315,0.00604272,-0.0181372,0.528714,0.0145308,0.0106165,1756,1541,7.75817,-7.81698
539,-517,7.7489,7.64624,-0.000204603,-0.00834775,0.00776271,0.00448952,-0.0130419,0.543869,0.0105156,0.0110826,1763,1541,7.74896,-7.64626
546,-517,7.74011,7.48743,-0.000418129,-0.00487853,0.00522303,0.00303092,-0.00832758,0.583619,0.00679134,0.0115569,1770,1541,7.74007,-7.48744
553,-517,7.74133,7.31909,-0.000231706,-0.00199669,0.00317763,0.0021837,-0.00441209,0.649952,0.00387985,0.0149178,1777,1541,7.74132,-7.3191
560,-517,7.74207,7.15405,1.65467e-05,0.000280171,0.00149863,0.00165277,-0.00135606,0.829263,0.00173996,0.014905,1784,1541,7.74211,-7.15404
567,-517,7.75122,7.02063,0.000152542,0.00149497,2.15189e-05,0.00149531,0.000152198,1.55477,0.000950215,0.0120401,1791,1541,7.75122,-7.02064
574,-517,7.75146,6.83936,0.000187669,0.00341298,-0.00100438,0.00370018,-9.95286e-05,-1.29228,0.00250062,0.0125643,1798,1541,7.75149,-6.8393
581,-517,7.74463,6.67139,-0.00033088,0.00537753,-0.00178532,0.00588991,-0.000843255,-1.29131,0.00423576,0.0146012,1805,1541,7.74465,-6.67137
588,-517,7.74353,6.52319,-0.00166889,0.00780408,-0.00231339,0.00833885,-0.00220365,-1.34363,0.00642109,0.0158662,1812,1541,7.74349,-6.52317
595,-517,7.76135,6.33752,-0.00326683,0.0104469,-0.00301102,0.0110789,-0.00389881,-1.36391,0.00897247,0.0165882,1819,1541,7.76133,-6.33757
602,-517,7.75989,6.15283,-0.00554259,0.0136011,-0.0036974,0.0142904,-0.00623189,-1.38649,0.0121492,0.021874,1826,1541,7.75994,-6.15278
609,-517,7.90466,5.93665,-0.00875713,0.0175128,-0.00405332,0.018124,-0.00936832,-1.42114,0.0161388,0.0409361,1833,1541,7.90462,-5.9367
616,-517,7.91138,5.52905,0,0,0,0,0,0,0,-1,1840,1541,7.91134,-5.52904
623,-517,7.4978,4.90198,0,0,0,0,0,0,0,-1,1847,1541,7.49781,-4.90198
630,-517,7.27771,6.09436,0,0,0,0,0,0,0,-1,1854,1541,7.27765,-6.09432
637,-517,8.73279,5.15051,0,0,0,0,0,0,0,-1,1861,1541,8.73281,-5.15047
644,-517,8.44507,5.76062,0,0,0,0,0,0,0,-1,1868,1541,8.44503,-5.7606
651,-517,0,0,0,0,0,0,0,0,0,-1,1875,1541,0,0
658,-517,0,0,0,0,0,0,0,0,0,-1,1882,1541,0,0
665,-517,0,0,0,0,0,0,0,0,0,-1,1889,1541,0,0
672,-517,0,0,0,0,0,0,0,0,0,-1,1896,1541,0,0
679,-517,0,0,0,0,0,0,0,0,0,-1,1903,1541,0,0
686,-517,0,0,0,0,0,0,0,0,0,-1,1910,1541,0,0
693,-517,0,0,0,0,0,0,0,0,0,-1,1917,1541,0,0
700,-517,0,0,0,0,0,0,0,0,0,-1,1924,1541,0,0
707,-517,0,0,0,0,0,0,0,0,0,-1,1931,1541,0,0
714,-517,0,0,0,0,0,0,0,0,0,-1,1938,1541,0,0
721,-517,0,0,0,0,0,0,0,0,0,-1,1945,1541,0,0
728,-517,0,0,0,0,0,0,0,0,0,-1,1952,1541,0,0
735,-517,0,0,0,0,0,0,0,0,0,-1,1959,1541,0,0
742,-517,0,0,0,0,0,0,0,0,0,-1,1966,1541,0,0
749,-517,0,0,0,0,0,0,0,0,0,-1,1973,1541,0,0
756,-517,0,0,0,0,0,0,0,0,0,-1,1980,1541,0,0
763,-517,0,0,0,0,0,0,0,0,0,-1,1987,1541,0,0
770,-517,0,0,0,0,0,0,0,0,0,-1,1994,1541,0,0
777,-517,0,0,0,0,0,0,0,0,0,-1,2001,1541,0,0
784,-517,0,0,0,0,0,0,0,0,0,-1,2008,1541,0,0
791,-517,0,0,0,0,0,0,0,0,0,-1,2015,1541,0,0
798,-517,0,0,0,0,0,0,0,0,0,-1,2022,1541,0,0
805,-517,0,0,0,0,0,0,0,0,0,-1,2029,1541,0,0
812,-517,0,0,0,0,0,0,0,0,0,-1,2036,1541,0,0
-700,-524,0,0,0,0,0,0,0,0,0,-1,524,1548,0,0
-693,-524,0,0,0,0,0,0,0,0,0,-1,531,1548,0,0
-686,-524,0,0,0,0,0,0,0,0,0,-1,538,1548,0,0
-679,-524,0,0,0,0,0,0,0,0,0,-1,545,1548,0,0
-672,-524,0,0,0,0,0,0,0,0,0,-1,552,1548,0,0
-665,-524,0,0,0,0,0,0,0,0,0,-1,559,1548,0,0
-658,-524,0,0,0,0,0,0,0,0,0,-1,566,1548,0,0
-651,-524,0,0,0,0,0,0,0,0,0,-1,573,1548,0,0
-644,-524,0,0,0,0,0,0,0,0,0,-1,580,1548,0,0
-637,-524,0,0,0,0,0,0,0,0,0,-1,587,1548,0,0
-630,-524,0,0,0,0,0,0,0,0,0,-1,594,1548,0,0
-623,-524,0,0,0,0,0,0,0,0,0,-1,601,1548,0,0
-616,-524,0,0,0,0,0,0,0,0,0,-1,608,1548,0,0
-609,-524,0,0,0,0,0,0,0,0,0,-1,615,1548,0,0
-602,-524,0,0,0,0,0,0,0,0,0,-1,622,1548,0,0
-595,-524,0,0,0,0,0,0,0,0,0,-1,629,1548,0,0
-588,-524,0,0,0,0,0,0,0,0,0,-1,636,1548,0,0
-581,-524,0,0,0,0,0,0,0,0,0,-1,643,1548,0,0
-574,-524,0,0,0,0,0,0,0,0,0,-1,650,1548,0,0
-567,-524,0,0,0,0,0,0,0,0,0,-1,657,1548,0,0
-560,-524,0,0,0,0,0,0,0,0,0,-1,664,1548,0,0
-553,-524,0,0,0,0,0,0,0,0,0,-1,671,1548,0,0
-546,-524,0,0,0,0,0,0,0,0,0,-1,678,1548,0,0
-539,-524,0,0,0,0,0,0,0,0,0,-1,685,1548,0,0
-532,-524,0,0,0,0,0,0,0,0,0,-1,692,1548,0,0
-525,-524,-2.1759,-0.817261,0,0,0,0,0,0,0,-1,699,1548,-2.1759,0.817259
-518,-524,-2.10809,-0.242432,0,0,0,0,0,0,0,-1,706,1548,-2.10808,0.242407
-511,-524,-2.17169,0.412842,0,0,0,0,0,0,0,-1,713,1548,-2.17171,-0.412851
-504,-524,0.498596,0.950562,0,0,0,0,0,0,0,-1,720,1548,0.498573,-0.950584
-497,-524,-1.45313,3.44788,0,0,0,0,0,0,0,-1,727,1548,-1.4531,-3.44788
-490,-524,-0.593506,4.91724,0,0,0,0,0,0,0,-1,734,1548,-0.593502,-4.9172
-483,-524,-0.513916,4.83032,0.0116292,0.0137358,0.00960771,0.0223478,0.00301723,0.839996,0.0140016,0.0441132,741,1548,-0.513934,-4.83036
-476,-524,-0.388672,4.73218,0.0109307,0.00865056,0.00734165,0.0172203,0.00236097,0.708371,0.0107797,0.0434994,748,1548,-0.388694,-4.73212
-469,-524,-0.0517578,4.63416,0.0100927,0.00382847,0.00540113,0.0132042,0.000716996,0.522644,0.00857378,0.0323381,755,1548,-0.0517579,-4.63417
-462,-524,-0.0198975,4.86755,0.00914294,0.00158468,0.00404292,0.010898,-0.00017036,0.409555,0.00732277,0.0225759,762,1548,-0.0199052,-4.86757
-455,-524,-0.0413208,5.07361,0.00780627,0.000648191,0.00314157,0.00898948,-0.000535015,0.360198,0.00617905,0.0152404,769,1548,-0.0413354,-5.07364
-448,-524,-0.00195313,5.26062,0.00639606,0.000414553,0.0025356,0.00732626,-0.000515649,0.351612,0.00506481,0.0115732,776,1548,-0.00194525,-5.26065
-441,-524,-0.0197754,5.43066,0.00551596,0.000435867,0.00185241,0.00611967,-0.00016785,0.315054,0.00413687,0.0101634,783,1548,-0.0198015,-5.43068
-434,-524,0,5.60315,0.004879,0.000182601,0.00150228,0.00531844,-0.000256831,0.284571,0.00363426,0.0125924,790,1548,-2.32231e-05,-5.60311
-427,-524,0.00836182,5.79614,0.00427884,-0.000679366,0.00139938,0.00464653,-0.00104705,0.256943,0.00349932,0.0127973,797,1548,0.00834568,-5.79616
-420,-524,-0.0203247,5.99561,0.0041453,-0.000924709,0.00152641,0.00456938,-0.00134879,0.270993,0.00358153,0.0101133,804,1548,-0.0203512,-5.99566
-413,-524,-0.0101318,6.17517,0.00405764,-0.00135014,0.00141497,0.0044055,-0.001698,0.24106,0.00363759,0.00963419,811,1548,-0.0101041,-6.17511
-406,-524,-0.00427246,6.35767,0.00431644,-0.00181325,0.00139078,0.00461723,-0.00211404,0.212998,0.00397487,0.0101159,818,1548,-0.00424435,-6.35763
-399,-524,-0.00457764,6.53894,0.00475595,-0.00240283,0.00147697,0.00504871,-0.00269558,0.195674,0.00453945,0.00827939,825,1548,-0.0046008,-6.539
-392,-524,-0.00500488,6.72339,0.00530323,-0.00306851,0.00182468,0.00568364,-0.00344892,0.205539,0.00532505,0.00994351,832,1548,-0.00499865,-6.72338
-385,-524,-0.0115967,6.92249,0.0057243,-0.00315922,0.00260566,0.00643217,-0.00386708,0.265264,0.00600744,0.012573,839,1548,-0.011622,-6.92254
-378,-524,0.0175781,7.15625,0.00564446,-0.00166891,0.00366411,0.00716436,-0.00318881,0.393206,0.00612254,0.0179374,846,1548,0.0175834,-7.15626
-371,-524,0.133972,7.29199,0.00575725,-0.000184617,0.00491926,0.0085331,-0.00296047,0.513743,0.0068909,0.0328521,853,1548,0.133946,-7.29198
-364,-524,0.0125122,7.2937,0.00325945,0.00293977,0.00777497,0.0108762,-0.00467701,0.77512,0.00921436,0.0398047,860,1548,0.0125014,-7.29366
-357,-524,-0.122375,7.38733,0,0,0,0,0,0,0,-1,867,1548,-0.122368,-7.38735
-350,-524,-0.279114,7.73376,0,0,0,0,0,0,0,-1,874,1548,-0.279106,-7.73379
-343,-524,1.85645,5.45215,0,0,0,0,0,0,0,-1,881,1548,1.85646,-5.45217
-336,-524,2.77802,5.96558,0,0,0,0,0,0,0,-1,888,1548,2.77804,-5.96554
-329,-524,3.6958,6.35767,0,0,0,0,0,0,0,-1,895,1548,3.69581,-6.35771
-322,-524,1.3689,8.15833,0,0,0,0,0,0,0,-1,902,1548,1.3689,-8.15827
-315,-524,-1.63654,7.5675,0,0,0,0,0,0,0,-1,909,1548,-1.63651,-7.5675
-308,-524,0.481384,10.527,0,0,0,0,0,0,0,-1,916,1548,0.48141,-10.5269
-301,-524,2.09265,8.3197,0,0,0,0,0,0,0,-1,923,1548,2.09266,-8.31973
-294,-524,1.80408,8.62244,0,0,0,0,0,0,0,-1,930,1548,1.80407,-8.62248
-287,-524,-1.21497,8.94409,0,0,0,0,0,0,0,-1,937,1548,-1.21494,-8.9441
-280,-524,-1.99243,9.78064,0,0,0,0,0,0,0,-1,944,1548,-1.99241,-9.78061
-273,-524,0,0,0,0,0,0,0,0,0,-1,951,1548,0,0
-266,-524,0,0,0,0,0,0,0,0,0,-1,958,1548,0,0
-259,-524,0,0,0,0,0,0,0,0,0,-1,965,1548,0,0
-252,-524,0,0,0,0,0,0,0,0,0,-1,972,1548,0,0
-245,-524,0,0,0,0,0,0,0,0,0,-1,979,1548,0,0
-238,-524,0,0,0,0,0,0,0,0,0,-1,986,1548,0,0
-231,-524,0,0,0,0,0,0,0,0,0,-1,993,1548,0,0
-224,-524,0,0,0,0,0,0,0,0,0,-1,1000,1548,0,0
-217,-524,0,0,0,0,0,0,0,0,0,-1,1007,1548,0,0
-210,-524,0,0,0,0,0,0,0,0,0,-1,1014,1548,0,0
-203,-524,0,0,0,0,0,0,0,0,0,-1,1021,1548,0,0
-196,-524,0,0,0,0,0,0,0,0,0,-1,1028,1548,0,0
-189,-524,0,0,0,0,0,0,0,0,0,-1,1035,1548,0,0
-182,-524,0,0,0,0,0,0,0,0,0,-1,1042,1548,0,0
-175,-524,0,0,0,0,0,0,0,0,0,-1,1049,1548,0,0
-168,-524,0,0,0,0,0,0,0,0,0,-1,1056,1548,0,0
-161,-524,0,0,0,0,0,0,0,0,0,-1,1063,1548,0,0
-154,-524,0,0,0,0,0,0,0,0,0,-1,1070,1548,0,0
-147,-524,0,0,0,0,0,0,0,0,0,-1,1077,1548,0,0
-140,-524,0,0,0,0,0,0,0,0,0,-1,1084,1548,0,0
-133,-524,0,0,0,0,0,0,0,0,0,-1,1091,1548,0,0
-126,-524,0,0,0,0,0,0,0,0,0,-1,1098,1548,0,0
-119,-524,0,0,0,0,0,0,0,0,0,-1,1105,1548,0,0
-112,-524,0,0,0,0,0,0,0,0,0,-1,1112,1548,0,0
-105,-524,0,0,0,0,0,0,0,0,0,-1,1119,1548,0,0
-98,-524,0,0,0,0,0,0,0,0,0,-1,1126,1548,0,0
-91,-524,0,0,0,0,0,0,0,0,0,-1,1133,1548,0,0
-84,-524,0,0,0,0,0,0,0,0,0,-1,1140,1548,0,0
-77,-524,0,0,0,0,0,0,0,0,0,-1,1147,1548,0,0
-70,-524,0,0,0,0,0,0,0,0,0,-1,1154,1548,0,0
-63,-524,0,0,0,0,0,0,0,0,0,-1,1161,1548,0,0
-56,-524,0,0,0,0,0,0,0,0,0,-1,1168,1548,0,0
-49,-524,0,0,0,0,0,0,0,0,0,-1,1175,1548,0,0
-42,-524,0,0,0,0,0,0,0,0,0,-1,1182,1548,0,0
-35,-524,0,0,0,0,0,0,0,0,0,-1,1189,1548,0,0
-28,-524,0,0,0,0,0,0,0,0,0,-1,1196,1548,0,0
-21,-524,0,0,0,0,0,0,0,0,0,-1,1203,1548,0,0
-14,-524,0,0,0,0,0,0,0,0,0,-1,1210,1548,0,0
-7,-524,0,0,0,0,0,0,0,0,0,-1,1217,1548,0,0
0,-524,0,0,0,0,0,0,0,0,0,-1,1224,1548,0,0
7,-524,0,0,0,0,0,0,0,0,0,-1,1231,1548,0,0
14,-524,0,0,0,0,0,0,0,0,0,-1,1238,1548,0,0
21,-524,0,0,0,0,0,0,0,0,0,-1,1245,1548,0,0
28,-524,0,0,0,0,0,0,0,0,0,-1,1252,1548,0,0
35,-524,0,0,0,0,0,0,0,0,0,-1,1259,1548,0,0
42,-524,0,0,0,0,0,0,0,0,0,-1,1266,1548,0,0
49,-524,0,0,0,0,0,0,0,0,0,-1,1273,1548,0,0
56,-524,0,0,0,0,0,0,0,0,0,-1,1280,1548,0,0
63,-524,0,0,0,0,0,0,0,0,0,-1,1287,1548,0,0
70,-524,0,0,0,0,0,0,0,0,0,-1,1294,1548,0,0
77,-524,0,0,0,0,0,0,0,0,0,-1,1301,1548,0,0
84,-524,0,0,0,0,0,0,0,0,0,-1,1308,1548,0,0
91,-524,0,0,0,0,0,0,0,0,0,-1,1315,1548,0,0
98,-524,0,0,0,0,0,0,0,0,0,-1,1322,1548,0,0
105,-524,0,0,0,0,0,0,0,0,0,-1,1329,1548,0,0
112,-524,0,0,0,0,0,0,0,0,0,-1,1336,1548,0,0
119,-524,0,0,0,0,0,0,0,0,0,-1,1343,1548,0,0
126,-524,0,0,0,0,0,0,0,0,0,-1,1350,1548,0,0
133,-524,0,0,0,0,0,0,0,0,0,-1,1357,1548,0,0
140,-524,0,0,0,0,0,0,0,0,0,-1,1364,1548,0,0
147,-524,0,0,0,0,0,0,0,0,0,-1,1371,1548,0,0
154,-524,0,0,0,0,0,0,0,0,0,-1,1378,1548,0,0
161,-524,0,0,0,0,0,0,0,0,0,-1,1385,1548,0,0
168,-524,0,0,0,0,0,0,0,0,0,-1,1392,1548,0,0
175,-524,0,0,0,0,0,0,0,0,0,-1,1399,1548,0,0
182,-524,0,0,0,0,0,0,0,0,0,-1,1406,1548,0,0
189,-524,0,0,0,0,0,0,0,0,0,-1,1413,1548,0,0
196,-524,0,0,0,0,0,0,0,0,0,-1,1420,1548,0,0
203,-524,0,0,0,0,0,0,0,0,0,-1,1427,1548,0,0
210,-524,0,0,0,0,0,0,0,0,0,-1,1434,1548,0,0
217,-524,0,0,0,0,0,0,0,0,0,-1,1441,1548,0,0
224,-524,0,0,0,0,0,0,0,0,0,-1,1448,1548,0,0
231,-524,0,0,0,0,0,0,0,0,0,-1,1455,1548,0,0
238,-524,0,0,0,0,0,0,0,0,0,-1,1462,1548,0,0
245,-524,0,0,0,0,0,0,0,0,0,-1,1469,1548,0,0
252,-524,0,0,0,0,0,0,0,0,0,-1,1476,1548,0,0
259,-524,0,0,0,0,0,0,0,0,0,-1,1483,1548,0,0
266,-524,0,0,0,0,0,0,0,0,0,-1,1490,1548,0,0
273,-524,0,0,0,0,0,0,0,0,0,-1,1497,1548,0,0
280,-524,0,0,0,0,0,0,0,0,0,-1,1504,1548,0,0
287,-524,0,0,0,0,0,0,0,0,0,-1,1511,1548,0,0
294,-524,0,0,0,0,0,0,0,0,0,-1,1518,1548,0,0
301,-524,0,0,0,0,0,0,0,0,0,-1,1525,1548,0,0
308,-524,0,0,0,0,0,0,0,0,0,-1,1532,1548,0,0
315,-524,0,0,0,0,0,0,0,0,0,-1,1539,1548,0,0
322,-524,0,0,0,0,0,0,0,0,0,-1,1546,1548,0,0
329,-524,0,0,0,0,0,0,0,0,0,-1,1553,1548,0,0
336,-524,0,0,0,0,0,0,0,0,0,-1,1560,1548,0,0
343,-524,0,0,0,0,0,0,0,0,0,-1,1567,1548,0,0
350,-524,0,0,0,0,0,0,0,0,0,-1,1574,1548,0,0
357,-524,0,0,0,0,0,0,0,0,0,-1,1581,1548,0,0
364,-524,0,0,0,0,0,0,0,0,0,-1,1588,1548,0,0
371,-524,0,0,0,0,0,0,0,0,0,-1,1595,1548,0,0
378,-524,0,0,0,0,0,0,0,0,0,-1,1602,1548,0,0
385,-524,0,0,0,0,0,0,0,0,0,-1,1609,1548,0,0
392,-524,0,0,0,0,0,0,0,0,0,-1,1616,1548,0,0
399,-524,8.13403,4.49084,0,0,0,0,0,0,0,-1,1623,1548,8.13399,-4.4909
406,-524,8.64294,6.06799,0,0,0,0,0,0,0,-1,1630,1548,8.6429,-6.06805
413,-524,11.677,6.41858,0,0,0,0,0,0,0,-1,1637,1548,11.677,-6.41864
420,-524,11.4913,6.36401,0,0,0,0,0,0,0,-1,1644,1548,11.4913,-6.36402
427,-524,11.4918,7.474,0,0,0,0,0,0,0,-1,1651,1548,11.4918,-7.47399
434,-524,9.63916,7.99463,0,0,0,0,0,0,0,-1,1658,1548,9.63919,-7.99464
441,-524,9.62512,7.96204,0,0,0,0,0,0,0,-1,1665,1548,9.62518,-7.96205
448,-524,7.71997,5.37354,0,0,0,0,0,0,0,-1,1672,1548,7.72003,-5.37356
455,-524,8.16077,4.77185,0,0,0,0,0,0,0,-1,1679,1548,8.16076,-4.7719
462,-524,9.92407,5.3446,0,0,0,0,0,0,0,-1,1686,1548,9.92412,-5.34462
469,-524,8.50928,4.75024,0,0,0,0,0,0,0,-1,1693,1548,8.5093,-4.75027
476,-524,7.92737,5.58228,0,0,0,0,0,0,0,-1,1700,1548,7.92733,-5.58222
483,-524,7.23438,6.91516,0,0,0,0,0,0,0,-1,1707,1548,7.23436,-6.91521
490,-524,7.40942,7.56201,-0.00393525,-0.0381247,0.0273605,0.0112319,-0.0532918,0.506172,0.0398037,0.0398385,1714,1548,7.40947,-7.56198
497,-524,7.65173,8.35681,-0.00190332,-0.0345399,0.0248865,0.0115379,-0.0479811,0.495209,0.0364473,0.0301522,1721,1548,7.65169,-8.35687
504,-524,7.59705,8.35437,-0.000878036,-0.0290746,0.0213902,0.0106421,-0.0405947,0.494025,0.031221,0.0168705,1728,1548,7.59707,-8.35435
511,-524,7.5625,8.26611,-0.000516544,-0.023211,0.0176554,0.00912363,-0.0328512,0.499782,0.0254921,0.0164046,1735,1548,7.56255,-8.26611
518,-524,7.58118,8.11194,-0.000510753,-0.0176543,0.0141595,0.00746938,-0.0256345,0.513217,0.0200487,0.0169544,1742,1548,7.5812,-8.11192
525,-524,7.5824,7.96094,-0.000510967,-0.0128121,0.010895,0.00584964,-0.0191727,0.528431,0.0151139,0.0150699,1749,1548,7.5824,-7.96096
532,-524,7.59473,7.81824,-0.000559489,-0.00897051,0.008119,0.00437855,-0.0139086,0.546433,0.0110256,0.010215,1756,1548,7.59467,-7.81828
539,-524,7.59302,7.64832,-0.000564522,-0.00594471,0.00575223,0.00309556,-0.0096048,0.566676,0.00764684,0.0106965,1763,1548,7.59297,-7.64835
546,-524,7.58435,7.46252,-0.000649891,-0.0029637,0.00352839,0.00190642,-0.00552001,0.626979,0.00445363,0.0136326,1770,1548,7.58436,-7.46248
553,-524,7.58838,7.32312,-0.00042695,-0.000536618,0.00177009,0.00128916,-0.00225272,0.769914,0.00206998,0.0214444,1777,1548,7.58835,-7.32313
560,-524,7.59229,7.12122,-0.000147498,0.00148329,0.000342471,0.00155229,-0.000216498,1.37198,0.00111406,0.0292206,1784,1548,7.59233,-7.12123
567,-524,7.57764,7.02563,5.00966e-05,0.00278512,-0.000919298,0.0030654,-0.000230177,-1.27487,0.00212448,0.0163399,1791,1548,7.57765,-7.02563
574,-524,7.58386,6.83533,9.21472e-05,0.00478516,-0.00189659,0.0054558,-0.000578489,-1.23092,0.00384457,0.0122256,1798,1548,7.58386,-6.83529
581,-524,7.60181,6.65125,-0.000344335,0.00687779,-0.00266122,0.00775246,-0.00121901,-1.25324,0.0056189,0.0145032,1805,1548,7.60177,-6.65129
588,-524,7.61633,6.50122,-0.00157295,0.00955886,-0.00328007,0.0104535,-0.00246755,-1.30453,0.00792066,0.0145714,1812,1548,7.6163,-6.50126
595,-524,7.60132,6.30444,-0.00317727,0.0126525,-0.00416399,0.013681,-0.00420578,-1.32864,0.0107991,0.0150422,1819,1548,7.60129,-6.30441
602,-524,7.62646,6.04773,-0.00560542,0.016528,-0.00509257,0.0176435,-0.00672093,-1.35516,0.0145303,0.0290697,1826,1548,7.62642,-6.04768
609,-524,7.526,5.73132,-0.00902953,0.0212677,-0.00576842,0.0223288,-0.0100906,-1.38888,0.0191568,0.0443664,1833,1548,7.52598,-5.73136
616,-524,7.42517,5.40906,0,0,0,0,0,0,0,-1,1840,1548,7.42521,-5.40907
623,-524,8.125,5.42773,0,0,0,0,0,0,0,-1,1847,1548,8.12498,-5.42779
630,-524,9.36218,4.46094,0,0,0,0,0,0,0,-1,1854,1548,9.36224,-4.46097
637,-524,8.67688,2.48401,0,0,0,0,0,0,0,-1,1861,1548,8.67683,-2.48398
644,-524,10.2347,5.80347,0,0,0,0,0,0,0,-1,1868,1548,10.2348,-5.80352
651,-524,0,0,0,0,0,0,0,0,0,-1,1875,1548,0,0
658,-524,0,0,0,0,0,0,0,0,0,-1,1882,1548,0,0
665,-524,0,0,0,0,0,0,0,0,0,-1,1889,1548,0,0
672,-524,0,0,0,0,0,0,0,0,0,-1,1896,1548,0,0
679,-524,0,0,0,0,0,0,0,0,0,-1,1903,1548,0,0
686,-524,0,0,0,0,0,0,0,0,0,-1,1910,1548,0,0
693,-524,0,0,0,0,0,0,0,0,0,-1,1917,1548,0,0
700,-524,0,0,0,0,0,0,0,0,0,-1,1924,1548,0,0
707,-524,0,0,0,0,0,0,0,0,0,-1,1931,1548,0,0
714,-524,0,0,0,0,0,0,0,0,0,-1,1938,1548,0,0
721,-524,0,0,0,0,0,0,0,0,0,-1,1945,1548,0,0
728,-524,0,0,0,0,0,0,0,0,0,-1,1952,1548,0,0
735,-524,0,0,0,0,0,0,0,0,0,-1,1959,1548,0,0
742,-524,0,0,0,0,0,0,0,0,0,-1,1966,1548,0,0
749,-524,0,0,0,0,0,0,0,0,0,-1,1973,1548,0,0
756,-524,0,0,0,0,0,0,0,0,0,-1,1980,1548,0,0
763,-524,0,0,0,0,0,0,0,0,0,-1,1987,1548,0,0
770,-524,0,0,0,0,0,0,0,0,0,-1,1994,1548,0,0
777,-524,0,0,0,0,0,0,0,0,0,-1,2001,1548,0,0
784,-524,0,0,0,0,0,0,0,0,0,-1,2008,1548,0,0
791,-524,0,0,0,0,0,0,0,0,0,-1,2015,1548,0,0
798,-524,0,0,0,0,0,0,0,0,0,-1,2022,1548,0,0
805,-524,0,0,0,0,0,0,0,0,0,-1,2029,1548,0,0
812,-524,0,0,0,0,0,0,0,0,0,-1,2036,1548,0,0
-700,-531,0,0,0,0,0,0,0,0,0,-1,524,1555,0,0
-693,-531,0,0,0,0,0,0,0,0,0,-1,531,1555,0,0
-686,-531,0,0,0,0,0,0,0,0,0,-1,538,1555,0,0
-679,-531,0,0,0,0,0,0,0,0,0,-1,545,1555,0,0
-672,-531,0,0,0,0,0,0,0,0,0,-1,552,1555,0,0
-665,-531,0,0,0,0,0,0,0,0,0,-1,559,1555,0,0
-658,-531,0,0,0,0,0,0,0,0,0,-1,566,1555,0,0
-651,-531,0,0,0,0,0,0,0,0,0,-1,573,1555,0,0
-644,-531,0,0,0,0,0,0,0,0,0,-1,580,1555,0,0
-637,-531,0,0,0,0,0,0,0,0,0,-1,587,1555,0,0
-630,-531,0,0,0,0,0,0,0,0,0,-1,594,1555,0,0
-623,-531,0,0,0,0,0,0,0,0,0,-1,601,1555,0,0
-616,-531,0,0,0,0,0,0,0,0,0,-1,608,1555,0,0
-609,-531,0,0,0,0,0,0,0,0,0,-1,615,1555,0,0
-602,-531,0,0,0,0,0,0,0,0,0,-1,622,1555,0,0
-595,-531,0,0,0,0,0,0,0,0,0,-1,629,1555,0,0
-588,-531,0,0,0,0,0,0,0,0,0,-1,636,1555,0,0
-581,-531,0,0,0,0,0,0,0,0,0,-1,643,1555,0,0
-574,-531,0,0,0,0,0,0,0,0,0,-1,650,1555,0,0
-567,-531,0,0,0,0,0,0,0,0,0,-1,657,1555,0,0
-560,-531,0,0,0,0,0,0,0,0,0,-1,664,1555,0,0
-553,-531,0,0,0,0,0,0,0,0,0,-1,671,1555,0,0
-546,-531,0,0,0,0,0,0,0,0,0,-1,678,1555,0,0
-539,-531,0,0,0,0,0,0,0,0,0,-1,685,1555,0,0
-532,-531,0,0,0,0,0,0,0,0,0,-1,692,1555,0,0
-525,-531,0,0,0,0,0,0,0,0,0,-1,699,1555,0,0
-518,-531,-2.30811,-1.28735,0,0,0,0,0,0,0,-1,706,1555,-2.30813,1.28736
-511,-531,-2.63953,-0.343018,0,0,0,0,0,0,0,-1,713,1555,-2.63954,0.343063
-504,-531,-2.95978,0.557861,0,0,0,0,0,0,0,-1,720,1555,-2.95978,-0.557917
-497,-531,-0.270203,3.63574,0,0,0,0,0,0,0,-1,727,1555,-0.27021,-3.63568
-490,-531,-0.346375,3.86023,0,0,0,0,0,0,0,-1,734,1555,-0.34638,-3.86022
-483,-531,-0.451477,4.05981,0.0168023,0.0186655,0.0121264,0.029896,0.00557177,0.823735,0.0183574,0.0450347,741,1555,-0.451486,-4.05984
-476,-531,-0.118591,4.53857,0.0154961,0.0119182,0.00936875,0.0232452,0.00416914,0.691059,0.014311,0.0456371,748,1555,-0.118591,-4.53854
-469,-531,-0.00695801,4.63184,0.0140133,0.00575284,0.00699369,0.0180053,0.00176086,0.518671,0.0114618,0.0439515,755,1555,-0.0069473,-4.63184
-462,-531,0.088623,4.84814,0.0123252,0.00295154,0.0053225,0.0147303,0.000546443,0.424411,0.00964319,0.0381163,762,1555,0.088609,-4.84813
-455,-531,0.0874023,5.16357,0.0103507,0.00164892,0.00418121,0.0120341,-3.44808e-05,0.382756,0.00803426,0.0258094,769,1555,0.0874284,-5.1636
-448,-531,0.194275,5.26074,0.00824025,0.00119617,0.00334574,0.00957606,-0.000139646,0.379866,0.00643109,0.01223,776,1555,0.194301,-5.26074
-441,-531,0.159851,5.41748,0.00664829,0.00116038,0.00247183,0.00759747,0.000211207,0.366636,0.00499607,0.0107777,783,1555,0.159855,-5.41753
-434,-531,0.168762,5.62341,0.00539652,0.000937839,0.00194373,0.00612489,0.00020947,0.358532,0.00401526,0.0112136,790,1555,0.168736,-5.62341
-427,-531,0.176575,5.81421,0.00424671,5.98158e-05,0.00165613,0.00482258,-0.000516058,0.334645,0.00340015,0.012144,797,1555,0.176596,-5.81421
-420,-531,0.168518,5.99316,0.0036362,-0.000128632,0.00159072,0.00421831,-0.000710738,0.350804,0.00307661,0.0104027,804,1555,0.168512,-5.99317
-413,-531,0.170105,6.16907,0.00318896,-0.00042683,0.00134199,0.00363261,-0.000870475,0.319276,0.00275807,0.00907466,811,1555,0.170098,-6.16909
-406,-531,0.182312,6.33728,0.00310547,-0.000781003,0.00116347,0.00342714,-0.00110268,0.269741,0.00272766,0.0105743,818,1555,0.182294,-6.33732
-399,-531,0.198242,6.52905,0.0032133,-0.00128255,0.00108869,0.00346306,-0.00153231,0.225509,0.00295501,0.0122532,825,1555,0.198258,-6.52905
-392,-531,0.189636,6.72156,0.00345906,-0.00190329,0.00124679,0.00373477,-0.002179,0.217635,0.00345348,0.016689,832,1555,0.189644,-6.72162
-385,-531,0.160706,6.91077,0.00365306,-0.00198435,0.00180575,0.00418187,-0.00251315,0.28488,0.00390519,0.014944,839,1555,0.160706,-6.91074
-378,-531,0.159546,7.06104,0.00345535,-0.000621358,0.00260461,0.0047244,-0.00189041,0.45338,0.00393416,0.0105963,846,1555,0.159547,-7.06105
-371,-531,0.203857,7.27307,0.00350158,0.000612376,0.00354082,0.00588115,-0.0017672,0.591713,0.00462381,0.0130843,853,1555,0.203837,-7.27302
-364,-531,0.225281,7.46863,0.00121992,0.00326661,0.00592123,0.00825228,-0.00376574,0.870966,0.00709795,0.0261751,860,1555,0.225306,-7.46863
-357,-531,0.00970459,7.5376,-0.00312556,0.00754446,0.00856903,0.0123035,-0.00788463,1.06383,0.0117483,0.0353807,867,1555,0.00972179,-7.53764
-350,-531,0.241943,7.60107,-0.00776256,0.0130985,0.0121985,0.0187179,-0.013382,1.13911,0.018618,0.042659,874,1555,0.241939,-7.60102
-343,-531,0.814392,7.88403,0,0,0,0,0,0,0,-1,881,1555,0.814393,-7.88408
-336,-531,1.02142,8.79626,0,0,0,0,0,0,0,-1,888,1555,1.02141,-8.79625
-329,-531,0.163147,10.2351,0,0,0,0,0,0,0,-1,895,1555,0.163155,-10.2352
-322,-531,2.0174,8.16602,0,0,0,0,0,0,0,-1,902,1555,2.01741,-8.16603
-315,-531,1.29712,9.90234,0,0,0,0,0,0,0,-1,909,1555,1.2971,-9.90238
-308,-531,0.687256,10.2789,0,0,0,0,0,0,0,-1,916,1555,0.687235,-10.279
-301,-531,0.0773926,10.6555,0,0,0,0,0,0,0,-1,923,1555,0.0773645,-10.6555
-294,-531,-4.0329,8.05151,0,0,0,0,0,0,0,-1,930,1555,-4.03291,-8.05153
-287,-531,-2.01605,8.89014,0,0,0,0,0,0,0,-1,937,1555,-2.01605,-8.8901
-280,-531,-1.7738,9.76196,0,0,0,0,0,0,0,-1,944,1555,-1.77378,-9.76194
-273,-531,-5.5531,14.6454,0,0,0,0,0,0,0,-1,951,1555,-5.5531,-14.6454
-266,-531,-6.7038,16.0303,0,0,0,0,0,0,0,-1,958,1555,-6.7038,-16.0303
-259,-531,0,0,0,0,0,0,0,0,0,-1,965,1555,0,0
-252,-531,0,0,0,0,0,0,0,0,0,-1,972,1555,0,0
-245,-531,0,0,0,0,0,0,0,0,0,-1,979,1555,0,0
-238,-531,0,0,0,0,0,0,0,0,0,-1,986,1555,0,0
-231,-531,0,0,0,0,0,0,0,0,0,-1,993,1555,0,0
-224,-531,0,0,0,0,0,0,0,0,0,-1,1000,1555,0,0
-217,-531,0,0,0,0,0,0,0,0,0,-1,1007,1555,0,0
-210,-531,0,0,0,0,0,0,0,0,0,-1,1014,1555,0,0
-203,-531,0,0,0,0,0,0,0,0,0,-1,1021,1555,0,0
-196,-531,0,0,0,0,0,0,0,0,0,-1,1028,1555,0,0
-189,-531,0,0,0,0,0,0,0,0,0,-1,1035,1555,0,0
-182,-531,0,0,0,0,0,0,0,0,0,-1,1042,1555,0,0
-175,-531,0,0,0,0,0,0,0,0,0,-1,1049,1555,0,0
-168,-531,0,0,0,0,0,0,0,0,0,-1,1056,1555,0,0
-161,-531,0,0,0,0,0,0,0,0,0,-1,1063,1555,0,0
-154,-531,0,0,0,0,0,0,0,0,0,-1,1070,1555,0,0
-147,-531,0,0,0,0,0,0,0,0,0,-1,1077,1555,0,0
-140,-531,0,0,0,0,0,0,0,0,0,-1,1084,1555,0,0
-133,-531,0,0,0,0,0,0,0,0,0,-1,1091,1555,0,0
-126,-531,0,0,0,0,0,0,0,0,0,-1,1098,1555,0,0
-119,-531,0,0,0,0,0,0,0,0,0,-1,1105,1555,0,0
-112,-531,0,0,0,0,0,0,0,0,0,-1,1112,1555,0,0
-105,-531,0,0,0,0,0,0,0,0,0,-1,1119,1555,0,0
-98,-531,0,0,0,0,0,0,0,0,0,-1,1126,1555,0,0
-91,-531,0,0,0,0,0,0,0,0,0,-1,1133,1555,0,0
-84,-531,0,0,0,0,0,0,0,0,0,-1,1140,1555,0,0
-77,-531,0,0,0,0,0,0,0,0,0,-1,1147,1555,0,0
-70,-531,0,0,0,0,0,0,0,0,0,-1,1154,1555,0,0
-63,-531,0,0,0,0,0,0,0,0,0,-1,1161,1555,0,0
-56,-531,0,0,0,0,0,0,0,0,0,-1,1168,1555,0,0
-49,-531,0,0,0,0,0,0,0,0,0,-1,1175,1555,0,0
-42,-531,0,0,0,0,0,0,0,0,0,-1,1182,1555,0,0
-35,-531,0,0,0,0,0,0,0,0,0,-1,1189,1555,0,0
-28,-531,0,0,0,0,0,0,0,0,0,-1,1196,1555,0,0
-21,-531,0,0,0,0,0,0,0,0,0,-1,1203,1555,0,0
-14,-531,0,0,0,0,0,0,0,0,0,-1,1210,1555,0,0
-7,-531,0,0,0,0,0,0,0,0,0,-1,1217,1555,0,0
0,-531,0,0,0,0,0,0,0,0,0,-1,1224,1555,0,0
7,-531,0,0,0,0,0,0,0,0,0,-1,1231,1555,0,0
14,-531,0,0,0,0,0,0,0,0,0,-1,1238,1555,0,0
21,-531,0,0,0,0,0,0,0,0,0,-1,1245,1555,0,0
28,-531,0,0,0,0,0,0,0,0,0,-1,1252,1555,0,0
35,-531,0,0,0,0,0,0,0,0,0,-1,1259,1555,0,0
42,-531,0,0,0,0,0,0,0,0,0,-1,1266,1555,0,0
49,-531,0,0,0,0,0,0,0,0,0,-1,1273,1555,0,0
56,-531,0,0,0,0,0,0,0,0,0,-1,1280,1555,0,0
63,-531,0,0,0,0,0,0,0,0,0,-1,1287,1555,0,0
70,-531,0,0,0,0,0,0,0,0,0,-1,1294,1555,0,0
77,-531,0,0,0,0,0,0,0,0,0,-1,1301,1555,0,0
84,-531,0,0,0,0,0,0,0,0,0,-1,1308,1555,0,0
91,-531,0,0,0,0,0,0,0,0,0,-1,1315,1555,0,0
98,-531,0,0,0,0,0,0,0,0,0,-1,1322,1555,0,0
105,-531,0,0,0,0,0,0,0,0,0,-1,1329,1555,0,0
112,-531,0,0,0,0,0,0,0,0,0,-1,1336,1555,0,0
119,-531,0,0,0,0,0,0,0,0,0,-1,1343,1555,0,0
126,-531,0,0,0,0,0,0,0,0,0,-1,1350,1555,0,0
133,-531,0,0,0,0,0,0,0,0,0,-1,1357,1555,0,0
140,-531,0,0,0,0,0,0,0,0,0,-1,1364,1555,0,0
147,-531,0,0,0,0,0,0,0,0,0,-1,1371,1555,0,0
154,-531,0,0,0,0,0,0,0,0,0,-1,1378,1555,0,0
161,-531,0,0,0,0,0,0,0,0,0,-1,1385,1555,0,0
168,-531,0,0,0,0,0,0,0,0,0,-1,1392,1555,0,0
175,-531,0,0,0,0,0,0,0,0,0,-1,1399,1555,0,0
182,-531,0,0,0,0,0,0,0,0,0,-1,1406,1555,0,0
189,-531,0,0,0,0,0,0,0,0,0,-1,1413,1555,0,0
196,-531,0,0,0,0,0,0,0,0,0,-1,1420,1555,0,0
203,-531,0,0,0,0,0,0,0,0,0,-1,1427,1555,0,0
210,-531,0,0,0,0,0,0,0,0,0,-1,1434,1555,0,0
217,-531,0,0,0,0,0,0,0,0,0,-1,1441,1555,0,0
224,-531,0,0,0,0,0,0,0,0,0,-1,1448,1555,0,0
231,-531,0,0,0,0,0,0,0,0,0,-1,1455,1555,0,0
238,-531,0,0,0,0,0,0,0,0,0,-1,1462,1555,0,0
245,-531,0,0,0,0,0,0,0,0,0,-1,1469,1555,0,0
252,-531,0,0,0,0,0,0,0,0,0,-1,1476,1555,0,0
259,-531,0,0,0,0,0,0,0,0,0,-1,1483,1555,0,0
266,-531,0,0,0,0,0,0,0,0,0,-1,1490,1555,0,0
273,-531,0,0,0,0,0,0,0,0,0,-1,1497,1555,0,0
280,-531,0,0,0,0,0,0,0,0,0,-1,1504,1555,0,0
287,-531,0,0,0,0,0,0,0,0,0,-1,1511,1555,0,0
294,-531,0,0,0,0,0,0,0,0,0,-1,1518,1555,0,0
301,-531,0,0,0,0,0,0,0,0,0,-1,1525,1555,0,0
308,-531,0,0,0,0,0,0,0,0,0,-1,1532,1555,0,0
315,-531,0,0,0,0,0,0,0,0,0,-1,1539,1555,0,0
322,-531,0,0,0,0,0,0,0,0,0,-1,1546,1555,0,0
329,-531,0,0,0,0,0,0,0,0,0,-1,1553,1555,0,0
336,-531,0,0,0,0,0,0,0,0,0,-1,1560,1555,0,0
343,-531,0,0,0,0,0,0,0,0,0,-1,1567,1555,0,0
350,-531,0,0,0,0,0,0,0,0,0,-1,1574,1555,0,0
357,-531,0,0,0,0,0,0,0,0,0,-1,1581,1555,0,0
364,-531,0,0,0,0,0,0,0,0,0,-1,1588,1555,0,0
371,-531,0,0,0,0,0,0,0,0,0,-1,1595,1555,0,0
378,-531,0,0,0,0,0,0,0,0,0,-1,1602,1555,0,0
385,-531,3.13403,1.88721,0,0,0,0,0,0,0,-1,1609,1555,3.13401,-1.88726
392,-531,8.49451,7.77673,0,0,0,0,0,0,0,-1,1616,1555,8.49447,-7.77677
399,-531,8.26306,5.29602,0,0,0,0,0,0,0,-1,1623,1555,8.26302,-5.29607
406,-531,8.26147,5.42712,0,0,0,0,0,0,0,-1,1630,1555,8.26145,-5.42716
413,-531,8.20618,5.75012,0,0,0,0,0,0,0,-1,1637,1555,8.20619,-5.75017
420,-531,11.7281,12.962,0,0,0,0,0,0,0,-1,1644,1555,11.7282,-12.962
427,-531,10.8135,7.29773,0,0,0,0,0,0,0,-1,1651,1555,10.8135,-7.29779
434,-531,10.4369,7.86682,0,0,0,0,0,0,0,-1,1658,1555,10.4369,-7.86682
441,-531,5.60706,4.85071,0,0,0,0,0,0,0,-1,1665,1555,5.60703,-4.85069
448,-531,7.41589,6.09534,0,0,0,0,0,0,0,-1,1672,1555,7.41594,-6.09539
455,-531,10.1116,5.39734,0,0,0,0,0,0,0,-1,1679,1555,10.1116,-5.39734
462,-531,8.92883,6.20813,0,0,0,0,0,0,0,-1,1686,1555,8.92887,-6.20816
469,-531,7.6825,6.49353,0,0,0,0,0,0,0,-1,1693,1555,7.68251,-6.4935
476,-531,8.72095,8.40894,0,0,0,0,0,0,0,-1,1700,1555,8.72096,-8.40898
483,-531,7.7113,8.52527,0,0,0,0,0,0,0,-1,1707,1555,7.7113,-8.52524
490,-531,7.58252,8.5188,-0.0045207,-0.0289469,0.0213214,0.00783773,-0.0413054,0.525304,0.0304872,0.0318514,1714,1555,7.58253,-8.51878
497,-531,7.42065,8.54517,-0.00241722,-0.0265903,0.0194264,0.00837574,-0.0373832,0.507118,0.0281328,0.0149343,1721,1555,7.42064,-8.54521
504,-531,7.40918,8.4408,-0.00116962,-0.0226015,0.0166457,0.00791115,-0.0316822,0.499408,0.0241936,0.010398,1728,1555,7.40917,-8.44079
511,-531,7.40747,8.29688,-0.00059182,-0.0181256,0.0136177,0.00683694,-0.0255544,0.4994,0.0197145,0.012827,1735,1555,7.4075,-8.29686
518,-531,7.40955,8.15356,-0.000410618,-0.013649,0.010713,0.00556308,-0.0196227,0.508671,0.0152776,0.0142683,1742,1555,7.40957,-8.15362
525,-531,7.41992,7.97583,-0.000272067,-0.00963937,0.00794019,0.00426292,-0.0141744,0.518931,0.0111457,0.0133516,1749,1555,7.41995,-7.97579
532,-531,7.44751,7.81897,-0.000225848,-0.00643892,0.00557643,0.00305096,-0.00971573,0.531266,0.00769837,0.0102627,1756,1555,7.44754,-7.81895
539,-531,7.43994,7.65613,-0.000170534,-0.00389455,0.00353277,0.0019609,-0.00602598,0.542865,0.00480619,0.0119367,1763,1555,7.43989,-7.65613
546,-531,7.41064,7.47217,-0.000179547,-0.00131531,0.00156361,0.00091611,-0.00241097,0.611211,0.00198447,0.0156046,1770,1555,7.41067,-7.47217
553,-531,7.42505,7.33154,3.75325e-05,0.000765947,1.53821e-05,0.000766271,3.72078e-05,1.54969,0.000498908,0.029294,1777,1555,7.42503,-7.33157
560,-531,7.4176,7.18323,0.00030915,0.0025636,-0.00123703,0.00310996,-0.000237208,-1.15489,0.00215673,0.0320973,1784,1555,7.41761,-7.18326
567,-531,7.36768,7.04834,0.000497986,0.00400865,-0.00232291,0.00516487,-0.000658231,-1.10895,0.00368232,0.0178952,1791,1555,7.36769,-7.04837
574,-531,7.40735,6.86182,0.000455707,0.00614356,-0.00327929,0.00764033,-0.00104106,-1.14261,0.00547368,0.0128606,1798,1555,7.40737,-6.86184
581,-531,7.42993,6.65613,1.33764e-05,0.00843134,-0.00406044,0.0100707,-0.00162595,-1.18708,0.00731624,0.0118412,1805,1555,7.42988,-6.6561
588,-531,7.44727,6.46045,-0.00118581,0.0114215,-0.00479999,0.0130409,-0.00280528,-1.2454,0.00976431,0.0143702,1812,1555,7.44724,-6.46048
595,-531,7.38538,6.15686,-0.00287982,0.0150363,-0.00588493,0.0167965,-0.00463993,-1.28018,0.0130228,0.0282079,1819,1555,7.3854,-6.15688
602,-531,7.36548,5.75903,-0.00532986,0.0197006,-0.0070082,0.0215292,-0.00715847,-1.31556,0.0172417,0.0434733,1826,1555,7.36546,-5.75903
609,-531,7.42029,5.44189,-0.00854381,0.0251772,-0.00791442,0.0269423,-0.010309,-1.35136,0.0222102,0.0429236,1833,1555,7.42032,-5.44187
616,-531,7.37195,5.13416,0,0,0,0,0,0,0,-1,1840,1555,7.37196,-5.13411
623,-531,10.3961,5.82263,0,0,0,0,0,0,0,-1,1847,1555,10.3961,-5.82263
630,-531,10.248,3.99646,0,0,0,0,0,0,0,-1,1854,1555,10.248,-3.99643
637,-531,9.6499,2.14417,0,0,0,0,0,0,0,-1,1861,1555,9.64991,-2.14421
644,-531,0,0,0,0,0,0,0,0,0,-1,1868,1555,0,0
651,-531,0,0,0,0,0,0,0,0,0,-1,1875,1555,0,0
658,-531,0,0,0,0,0,0,0,0,0,-1,1882,1555,0,0
665,-531,0,0,0,0,0,0,0,0,0,-1,1889,1555,0,0
672,-531,0,0,0,0,0,0,0,0,0,-1,1896,1555,0,0
679,-531,0,0,0,0,0,0,0,0,0,-1,1903,1555,0,0
686,-531,0,0,0,0,0,0,0,0,0,-1,1910,1555,0,0
693,-531,0,0,0,0,0,0,0,0,0,-1,1917,1555,0,0
700,-531,0,0,0,0,0,0,0,0,0,-1,1924,1555,0,0
707,-531,0,0,0,0,0,0,0,0,0,-1,1931,1555,0,0
714,-531,0,0,0,0,0,0,0,0,0,-1,1938,1555,0,0
721,-531,0,0,0,0,0,0,0,0,0,-1,1945,1555,0,0
728,-531,0,0,0,0,0,0,0,0,0,-1,1952,1555,0,0
735,-531,0,0,0,0,0,0,0,0,0,-1,1959,1555,0,0
742,-531,0,0,0,0,0,0,0,0,0,-1,1966,1555,0,0
749,-531,0,0,0,0,0,0,0,0,0,-1,1973,1555,0,0
756,-531,0,0,0,0,0,0,0,0,0,-1,1980,1555,0,0
763,-531,0,0,0,0,0,0,0,0,0,-1,1987,1555,0,0
770,-531,0,0,0,0,0,0,0,0,0,-1,1994,1555,0,0
777,-531,0,0,0,0,0,0,0,0,0,-1,2001,1555,0,0
784,-531,0,0,0,0,0,0,0,0,0,-1,2008,1555,0,0
791,-531,0,0,0,0,0,0,0,0,0,-1,2015,1555,0,0
798,-531,0,0,0,0,0,0,0,0,0,-1,2022,1555,0,0
805,-531,0,0,0,0,0,0,0,0,0,-1,2029,1555,0,0
812,-531,0,0,0,0,0,0,0,0,0,-1,2036,1555,0,0
-700,-538,0,0,0,0,0,0,0,0,0,-1,524,1562,0,0
-693,-538,0,0,0,0,0,0,0,0,0,-1,531,1562,0,0
-686,-538,0,0,0,0,0,0,0,0,0,-1,538,1562,0,0
-679,-538,0,0,0,0,0,0,0,0,0,-1,545,1562,0,0
-672,-538,0,0,0,0,0,0,0,0,0,-1,552,1562,0,0
-665,-538,0,0,0,0,0,0,0,0,0,-1,559,1562,0,0
-658,-538,0,0,0,0,0,0,0,0,0,-1,566,1562,0,0
-651,-538,0,0,0,0,0,0,0,0,0,-1,573,1562,0,0
-644,-538,0,0,0,0,0,0,0,0,0,-1,580,1562,0,0
-637,-538,0,0,0,0,0,0,0,0,0,-1,587,1562,0,0
-630,-538,0,0,0,0,0,0,0,0,0,-1,594,1562,0,0
-623,-538,0,0,0,0,0,0,0,0,0,-1,601,1562,0,0
-616,-538,0,0,0,0,0,0,0,0,0,-1,608,1562,0,0
-609,-538,0,0,0,0,0,0,0,0,0,-1,615,1562,0,0
-602,-538,0,0,0,0,0,0,0,0,0,-1,622,1562,0,0
-595,-538,0,0,0,0,0,0,0,0,0,-1,629,1562,0,0
-588,-538,0,0,0,0,0,0,0,0,0,-1,636,1562,0,0
-581,-538,0,0,0,0,0,0,0,0,0,-1,643,1562,0,0
-574,-538,0,0,0,0,0,0,0,0,0,-1,650,1562,0,0
-567,-538,0,0,0,0,0,0,0,0,0,-1,657,1562,0,0
-560,-538,0,0,0,0,0,0,0,0,0,-1,664,1562,0,0
-553,-538,0,0,0,0,0,0,0,0,0,-1,671,1562,0,0
-546,-538,0,0,0,0,0,0,0,0,0,-1,678,1562,0,0
-539,-538,0,0,0,0,0,0,0,0,0,-1,685,1562,0,0
-532,-538,0,0,0,0,0,0,0,0,0,-1,692,1562,0,0
-525,-538,0,0,0,0,0,0,0,0,0,-1,699,1562,0,0
-518,-538,0,0,0,0,0,0,0,0,0,-1,706,1562,0,0
-511,-538,-2.6582,-1.54321,0,0,0,0,0,0,0,-1,713,1562,-2.65821,1.54327
-504,-538,-2.66455,-0.71167,0,0,0,0,0,0,0,-1,720,1562,-2.66456,0.711667
-497,-538,-2.42926,-0.0274658,0,0,0,0,0,0,0,-1,727,1562,-2.42927,0.0274374
-490,-538,-0.192749,3.10901,0,0,0,0,0,0,0,-1,734,1562,-0.192772,-3.10903
-483,-538,-0.394531,3.49731,0,0,0,0,0,0,0,-1,741,1562,-0.394509,-3.49736
-476,-538,-0.0227661,4.59143,0,0,0,0,0,0,0,-1,748,1562,-0.0227391,-4.59148
-469,-538,0.00134277,4.70471,0.0189404,0.00831695,0.00910294,0.024168,0.00308932,0.521293,0.0151873,0.047698,755,1562,0.00133065,-4.70467
-462,-538,0.15802,4.99036,0.0162628,0.00478496,0.00704492,0.0196105,0.00143729,0.443603,0.0126218,0.043861,762,1562,0.15801,-4.99032
-455,-538,0.165161,5.25305,0.0134716,0.00298643,0.00559202,0.0158942,0.000563801,0.40882,0.0104133,0.0370368,769,1562,0.165167,-5.25303
-448,-538,0.381958,5.2655,0.0105961,0.0021352,0.00444847,0.0125045,0.000226788,0.405257,0.00826177,0.0159144,776,1562,0.381971,-5.26547
-441,-538,0.371887,5.45337,0.00827944,0.00196074,0.00331006,0.00969589,0.000544288,0.404345,0.00629035,0.0142062,783,1562,0.371907,-5.45336
-434,-538,0.368408,5.63281,0.00634796,0.00169347,0.00251493,0.00744722,0.000594208,0.412069,0.00477907,0.0112939,790,1562,0.368403,-5.63277
-427,-538,0.341553,5.8291,0.00461562,0.000754513,0.00197,0.00544332,-7.31847e-05,0.397756,0.00365352,0.0122227,797,1562,0.341541,-5.8291
-420,-538,0.337952,6.00818,0.00351095,0.000578879,0.00165615,0.00425672,-0.000166892,0.423107,0.00289505,0.015503,804,1562,0.337959,-6.00816
-413,-538,0.333618,6.17114,0.00271896,0.000361433,0.00124166,0.00325227,-0.00017188,0.40569,0.00222768,0.0166754,811,1562,0.333634,-6.17117
-406,-538,0.355042,6.31934,0.0023047,6.48469e-05,0.000900857,0.00262206,-0.000252508,0.338706,0.001838,0.0140928,818,1562,0.355066,-6.31933
-399,-538,0.37439,6.5127,0.00209417,-0.000389119,0.00067872,0.00226757,-0.000562516,0.250126,0.00172998,0.013049,825,1562,0.374407,-6.51268
-392,-538,0.375183,6.71082,0.00206201,-0.000988986,0.000668327,0.00220199,-0.00112896,0.206459,0.0019561,0.0147005,832,1562,0.375155,-6.7108
-385,-538,0.352112,6.90686,0.00207015,-0.00109695,0.00103513,0.00237845,-0.00140526,0.289479,0.00220848,0.0128617,839,1562,0.352095,-6.90687
-378,-538,0.353943,7.08557,0.00181823,8.44447e-05,0.00163037,0.00279785,-0.000895177,0.54105,0.0022245,0.00961079,846,1562,0.353924,-7.08557
-371,-538,0.338379,7.2439,0.00185069,0.00106686,0.00233576,0.00382719,-0.000909638,0.702279,0.00290258,0.00994887,853,1562,0.338404,-7.24386
-364,-538,0.353516,7.4436,-0.000115497,0.00329207,0.00433505,0.00624614,-0.00306956,0.972638,0.00548166,0.00988575,860,1562,0.353494,-7.44361
-357,-538,0.360474,7.59961,-0.0036953,0.00680199,0.00649993,0.00990783,-0.00680113,1.12504,0.00970234,0.018617,867,1562,0.3605,-7.59956
-350,-538,0.3927,7.64343,-0.00733064,0.011295,0.00948073,0.0152718,-0.0113074,1.17363,0.0154023,0.0319041,874,1562,0.392692,-7.64345
-343,-538,0.697693,7.85388,-0.0126761,0.0170097,0.012677,0.0216865,-0.0173528,1.21737,0.0225856,0.0419123,881,1562,0.697694,-7.85391
-336,-538,0.829346,8.58521,-0.0189947,0.0240335,0.0164684,0.0296131,-0.0245742,1.24413,0.0313301,0.044338,888,1562,0.82933,-8.58517
-329,-538,0.146973,9.58618,-0.0285015,0.0327915,0.0211152,0.0393614,-0.0350714,1.26915,0.0429976,0.0452419,895,1562,0.146975,-9.5862
-322,-538,-0.315674,10.5043,0,0,0,0,0,0,0,-1,902,1562,-0.315682,-10.5042
-315,-538,1.42529,9.59241,0,0,0,0,0,0,0,-1,909,1562,1.42531,-9.59236
-308,-538,0.901855,9.9082,0,0,0,0,0,0,0,-1,916,1562,0.90185,-9.90817
-301,-538,0.378418,10.224,0,0,0,0,0,0,0,-1,923,1562,0.378392,-10.224
-294,-538,-3.04492,8.27856,0,0,0,0,0,0,0,-1,930,1562,-3.04493,-8.27854
-287,-538,-2.07361,8.43481,0,0,0,0,0,0,0,-1,937,1562,-2.07359,-8.43482
-280,-538,-4.0293,11.8911,0,0,0,0,0,0,0,-1,944,1562,-4.02932,-11.8911
-273,-538,-4.85803,13.4651,0,0,0,0,0,0,0,-1,951,1562,-4.85802,-13.4651
-266,-538,-5.69073,14.9116,0,0,0,0,0,0,0,-1,958,1562,-5.69073,-14.9116
-259,-538,-6.4397,16.3737,0,0,0,0,0,0,0,-1,965,1562,-6.43969,-16.3737
-252,-538,0,0,0,0,0,0,0,0,0,-1,972,1562,0,0
-245,-538,0,0,0,0,0,0,0,0,0,-1,979,1562,0,0
-238,-538,0,0,0,0,0,0,0,0,0,-1,986,1562,0,0
-231,-538,0,0,0,0,0,0,0,0,0,-1,993,1562,0,0
-224,-538,0,0,0,0,0,0,0,0,0,-1,1000,1562,0,0
-217,-538,0,0,0,0,0,0,0,0,0,-1,1007,1562,0,0
-210,-538,0,0,0,0,0,0,0,0,0,-1,1014,1562,0,0
-203,-538,0,0,0,0,0,0,0,0,0,-1,1021,1562,0,0
-196,-538,0,0,0,0,0,0,0,0,0,-1,1028,1562,0,0
-189,-538,0,0,0,0,0,0,0,0,0,-1,1035,1562,0,0
-182,-538,0,0,0,0,0,0,0,0,0,-1,1042,1562,0,0
-175,-538,0,0,0,0,0,0,0,0,0,-1,1049,1562,0,0
-168,-538,0,0,0,0,0,0,0,0,0,-1,1056,1562,0,0
-161,-538,0,0,0,0,0,0,0,0,0,-1,1063,1562,0,0
-154,-538,0,0,0,0,0,0,0,0,0,-1,1070,1562,0,0
-147,-538,0,0,0,0,0,0,0,0,0,-1,1077,1562,0,0
-140,-538,0,0,0,0,0,0,0,0,0,-1,1084,1562,0,0
-133,-538,0,0,0,0,0,0,0,0,0,-1,1091,1562,0,0
-126,-538,0,0,0,0,0,0,0,0,0,-1,1098,1562,0,0
-119,-538,0,0,0,0,0,0,0,0,0,-1,1105,1562,0,0
-112,-538,0,0,0,0,0,0,0,0,0,-1,1112,1562,0,0
-105,-538,0,0,0,0,0,0,0,0,0,-1,1119,1562,0,0
-98,-538,0,0,0,0,0,0,0,0,0,-1,1126,1562,0,0
-91,-538,0,0,0,0,0,0,0,0,0,-1,1133,1562,0,0
-84,-538,0,0,0,0,0,0,0,0,0,-1,1140,1562,0,0
-77,-538,0,0,0,0,0,0,0,0,0,-1,1147,1562,0,0
-70,-538,0,0,0,0,0,0,0,0,0,-1,1154,1562,0,0
-63,-538,0,0,0,0,0,0,0,0,0,-1,1161,1562,0,0
-56,-538,0,0,0,0,0,0,0,0,0,-1,1168,1562,0,0
-49,-538,0,0,0,0,0,0,0,0,0,-1,1175,1562,0,0
-42,-538,0,0,0,0,0,0,0,0,0,-1,1182,1562,0,0
-35,-538,0,0,0,0,0,0,0,0,0,-1,1189,1562,0,0
-28,-538,0,0,0,0,0,0,0,0,0,-1,1196,1562,0,0
-21,-538,0,0,0,0,0,0,0,0,0,-1,1203,1562,0,0
-14,-538,0,0,0,0,0,0,0,0,0,-1,1210,1562,0,0
-7,-538,0,0,0,0,0,0,0,0,0,-1,1217,1562,0,0
0,-538,0,0,0,0,0,0,0,0,0,-1,1224,1562,0,0
7,-538,0,0,0,0,0,0,0,0,0,-1,1231,1562,0,0
14,-538,0,0,0,0,0,0,0,0,0,-1,1238,1562,0,0
21,-538,0,0,0,0,0,0,0,0,0,-1,1245,1562,0,0
28,-538,0,0,0,0,0,0,0,0,0,-1,1252,1562,0,0
35,-538,0,0,0,0,0,0,0,0,0,-1,1259,1562,0,0
42,-538,0,0,0,0,0,0,0,0,0,-1,1266,1562,0,0
49,-538,0,0,0,0,0,0,0,0,0,-1,1273,1562,0,0
56,-538,0,0,0,0,0,0,0,0,0,-1,1280,1562,0,0
63,-538,0,0,0,0,0,0,0,0,0,-1,1287,1562,0,0
70,-538,0,0,0,0,0,0,0,0,0,-1,1294,1562,0,0
77,-538,0,0,0,0,0,0,0,0,0,-1,1301,1562,0,0
84,-538,0,0,0,0,0,0,0,0,0,-1,1308,1562,0,0
91,-538,0,0,0,0,0,0,0,0,0,-1,1315,1562,0,0
98,-538,0,0,0,0,0,0,0,0,0,-1,1322,1562,0,0
105,-538,0,0,0,0,0,0,0,0,0,-1,1329,1562,0,0
112,-538,0,0,0,0,0,0,0,0,0,-1,1336,1562,0,0
119,-538,0,0,0,0,0,0,0,0,0,-1,1343,1562,0,0
126,-538,0,0,0,0,0,0,0,0,0,-1,1350,1562,0,0
133,-538,0,0,0,0,0,0,0,0,0,-1,1357,1562,0,0
140,-538,0,0,0,0,0,0,0,0,0,-1,1364,1562,0,0
147,-538,0,0,0,0,0,0,0,0,0,-1,1371,1562,0,0
154,-538,0,0,0,0,0,0,0,0,0,-1,1378,1562,0,0
161,-538,0,0,0,0,0,0,0,0,0,-1,1385,1562,0,0
168,-538,0,0,0,0,0,0,0,0,0,-1,1392,1562,0,0
175,-538,0,0,0,0,0,0,0,0,0,-1,1399,1562,0,0
182,-538,0,0,0,0,0,0,0,0,0,-1,1406,1562,0,0
189,-538,0,0,0,0,0,0,0,0,0,-1,1413,1562,0,0
196,-538,0,0,0,0,0,0,0,0,0,-1,1420,1562,0,0
203,-538,0,0,0,0,0,0,0,0,0,-1,1427,1562,0,0
210,-538,0,0,0,0,0,0,0,0,0,-1,1434,1562,0,0
217,-538,0,0,0,0,0,0,0,0,0,-1,1441,1562,0,0
224,-538,0,0,0,0,0,0,0,0,0,-1,1448,1562,0,0
231,-538,0,0,0,0,0,0,0,0,0,-1,1455,1562,0,0
238,-538,0,0,0,0,0,0,0,0,0,-1,1462,1562,0,0
245,-538,0,0,0,0,0,0,0,0,0,-1,1469,1562,0,0
252,-538,0,0,0,0,0,0,0,0,0,-1,1476,1562,0,0
259,-538,0,0,0,0,0,0,0,0,0,-1,1483,1562,0,0
266,-538,0,0,0,0,0,0,0,0,0,-1,1490,1562,0,0
273,-538,0,0,0,0,0,0,0,0,0,-1,1497,1562,0,0
280,-538,0,0,0,0,0,0,0,0,0,-1,1504,1562,0,0
287,-538,0,0,0,0,0,0,0,0,0,-1,1511,1562,0,0
294,-538,0,0,0,0,0,0,0,0,0,-1,1518,1562,0,0
301,-538,0,0,0,0,0,0,0,0,0,-1,1525,1562,0,0
308,-538,0,0,0,0,0,0,0,0,0,-1,1532,1562,0,0
315,-538,0,0,0,0,0,0,0,0,0,-1,1539,1562,0,0
322,-538,0,0,0,0,0,0,0,0,0,-1,1546,1562,0,0
329,-538,0,0,0,0,0,0,0,0,0,-1,1553,1562,0,0
336,-538,0,0,0,0,0,0,0,0,0,-1,1560,1562,0,0
343,-538,0,0,0,0,0,0,0,0,0,-1,1567,1562,0,0
350,-538,0,0,0,0,0,0,0,0,0,-1,1574,1562,0,0
357,-538,0,0,0,0,0,0,0,0,0,-1,1581,1562,0,0
364,-538,0,0,0,0,0,0,0,0,0,-1,1588,1562,0,0
371,-538,0,0,0,0,0,0,0,0,0,-1,1595,1562,0,0
378,-538,7.65637,4.13477,0,0,0,0,0,0,0,-1,1602,1562,7.65643,-4.13477
385,-538,8.69836,7.6283,0,0,0,0,0,0,0,-1,1609,1562,8.69835,-7.62829
392,-538,8.20361,7.07214,0,0,0,0,0,0,0,-1,1616,1562,8.20362,-7.07211
399,-538,7.85425,4.70508,0,0,0,0,0,0,0,-1,1623,1562,7.85425,-4.70512
406,-538,7.77734,4.96094,0,0,0,0,0,0,0,-1,1630,1562,7.77729,-4.96097
413,-538,13.0446,13.1765,0,0,0,0,0,0,0,-1,1637,1562,13.0446,-13.1765
420,-538,11.5647,12.7921,0,0,0,0,0,0,0,-1,1644,1562,11.5648,-12.7921
427,-538,10.2222,12.8248,0,0,0,0,0,0,0,-1,1651,1562,10.2222,-12.8249
434,-538,9.60583,12.2455,0,0,0,0,0,0,0,-1,1658,1562,9.60579,-12.2455
441,-538,9.12903,11.543,0,0,0,0,0,0,0,-1,1665,1562,9.12909,-11.543
448,-538,9.82068,9.66895,0,0,0,0,0,0,0,-1,1672,1562,9.82068,-9.66894
455,-538,8.63196,6.77588,0,0,0,0,0,0,0,-1,1679,1562,8.63196,-6.77592
462,-538,7.93127,7.42371,0,0,0,0,0,0,0,-1,1686,1562,7.93131,-7.42372
469,-538,7.92651,8.13232,0,0,0,0,0,0,0,-1,1693,1562,7.92648,-8.13234
476,-538,8.07971,8.68701,0,0,0,0,0,0,0,-1,1700,1562,8.07969,-8.68706
483,-538,7.47534,8.72485,0,0,0,0,0,0,0,-1,1707,1562,7.47535,-8.72485
490,-538,7.28711,8.70642,-0.00470715,-0.0212945,0.0160892,0.00510023,-0.0311019,0.547421,0.0226271,0.0136509,1714,1562,7.28712,-8.70636
497,-538,7.25977,8.58044,-0.00260966,-0.0198338,0.0145718,0.00570472,-0.0281482,0.518506,0.0209278,0.00926202,1721,1562,7.25977,-8.58039
504,-538,7.24585,8.44836,-0.0011941,-0.0169704,0.0123019,0.00553146,-0.023696,0.500312,0.0179279,0.00829519,1728,1562,7.2459,-8.44836
511,-538,7.24805,8.29688,-0.000411785,-0.0135885,0.00983514,0.00483777,-0.0188381,0.490286,0.0144439,0.00919198,1735,1562,7.24802,-8.29687
518,-538,7.24963,8.1394,-1.95916e-05,-0.010014,0.00741073,0.00392138,-0.013955,0.488757,0.0108493,0.0101727,1742,1562,7.24962,-8.1394
525,-538,7.24756,7.96973,0.000296707,-0.00672572,0.00505812,0.00294286,-0.00937187,0.481995,0.00742586,0.0110496,1749,1562,7.24751,-7.96973
532,-538,7.26672,7.81543,0.000481246,-0.00408732,0.00306036,0.00201583,-0.00562191,0.464799,0.00457054,0.0119253,1756,1562,7.26673,-7.81539
539,-538,7.27295,7.66492,0.000634551,-0.00197073,0.00132126,0.00118733,-0.00252352,0.396246,0.00218827,0.0143507,1763,1562,7.27292,-7.66495
546,-538,7.25342,7.47791,0.000727046,0.000213257,-0.000382378,0.000930812,9.4916e-06,-0.489613,0.000617402,0.0165063,1770,1562,7.2534,-7.47785
553,-538,7.29114,7.3042,0.000960499,0.00195965,-0.00170175,0.00323364,-0.00031349,-0.92817,0.00226749,0.0264874,1777,1562,7.29108,-7.30425
560,-538,7.28137,7.18152,0.00122852,0.0035372,-0.00276889,0.00538274,-0.000617019,-0.982892,0.00381085,0.0272758,1784,1562,7.2814,-7.18156
567,-538,7.20642,7.05225,0.00139733,0.00514079,-0.00366311,0.00738266,-0.000844543,-1.02159,0.00522608,0.0190918,1791,1562,7.20648,-7.05229
574,-538,7.24292,6.85364,0.00125126,0.00744674,-0.00460502,0.00989897,-0.00120098,-1.08148,0.0070339,0.011993,1798,1562,7.24293,-6.85365
581,-538,7.27686,6.65076,0.000763884,0.0100334,-0.00550712,0.0125965,-0.00179922,-1.1352,0.0090572,0.0132746,1805,1562,7.2768,-6.65082
588,-538,7.31079,6.4552,-0.000424811,0.0134301,-0.00647495,0.015985,-0.00297969,-1.19497,0.0117762,0.0290636,1812,1562,7.31078,-6.45525
595,-538,7.27222,5.92322,-0.00227133,0.0175972,-0.00781478,0.0203026,-0.0049767,-1.23752,0.0154632,0.0444698,1819,1562,7.27221,-5.92317
602,-538,7.12585,5.54004,0,0,0,0,0,0,0,-1,1826,1562,7.12591,-5.54006
609,-538,7.32849,4.7395,0,0,0,0,0,0,0,-1,1833,1562,7.32847,-4.73947
616,-538,11.9706,6.6803,0,0,0,0,0,0,0,-1,1840,1562,11.9705,-6.68028
623,-538,11.6731,4.90771,0,0,0,0,0,0,0,-1,1847,1562,11.673,-4.90772
630,-538,11.3368,3.23474,0,0,0,0,0,0,0,-1,1854,1562,11.3368,-3.23475
637,-538,0,0,0,0,0,0,0,0,0,-1,1861,1562,0,0
644,-538,0,0,0,0,0,0,0,0,0,-1,1868,1562,0,0
651,-538,0,0,0,0,0,0,0,0,0,-1,1875,1562,0,0
658,-538,0,0,0,0,0,0,0,0,0,-1,1882,1562,0,0
665,-538,0,0,0,0,0,0,0,0,0,-1,1889,1562,0,0
672,-538,0,0,0,0,0,0,0,0,0,-1,1896,1562,0,0
679,-538,0,0,0,0,0,0,0,0,0,-1,1903,1562,0,0
686,-538,0,0,0,0,0,0,0,0,0,-1,1910,1562,0,0
693,-538,0,0,0,0,0,0,0,0,0,-1,1917,1562,0,0
700,-538,0,0,0,0,0,0,0,0,0,-1,1924,1562,0,0
707,-538,0,0,0,0,0,0,0,0,0,-1,1931,1562,0,0
714,-538,0,0,0,0,0,0,0,0,0,-1,1938,1562,0,0
721,-538,0,0,0,0,0,0,0,0,0,-1,1945,1562,0,0
728,-538,0,0,0,0,0,0,0,0,0,-1,1952,1562,0,0
735,-538,0,0,0,0,0,0,0,0,0,-1,1959,1562,0,0
742,-538,0,0,0,0,0,0,0,0,0,-1,1966,1562,0,0
749,-538,0,0,0,0,0,0,0,0,0,-1,1973,1562,0,0
756,-538,0,0,0,0,0,0,0,0,0,-1,1980,1562,0,0
763,-538,0,0,0,0,0,0,0,0,0,-1,1987,1562,0,0
770,-538,0,0,0,0,0,0,0,0,0,-1,1994,1562,0,0
777,-538,0,0,0,0,0,0,0,0,0,-1,2001,1562,0,0
784,-538,0,0,0,0,0,0,0,0,0,-1,2008,1562,0,0
791,-538,0,0,0,0,0,0,0,0,0,-1,2015,1562,0,0
798,-538,0,0,0,0,0,0,0,0,0,-1,2022,1562,0,0
805,-538,0,0,0,0,0,0,0,0,0,-1,2029,1562,0,0
812,-538,0,0,0,0,0,0,0,0,0,-1,2036,1562,0,0
-700,-545,0,0,0,0,0,0,0,0,0,-1,524,1569,0,0
-693,-545,0,0,0,0,0,0,0,0,0,-1,531,1569,0,0
-686,-545,0,0,0,0,0,0,0,0,0,-1,538,1569,0,0
-679,-545,0,0,0,0,0,0,0,0,0,-1,545,1569,0,0
-672,-545,0,0,0,0,0,0,0,0,0,-1,552,1569,0,0
-665,-545,0,0,0,0,0,0,0,0,0,-1,559,1569,0,0
-658,-545,0,0,0,0,0,0,0,0,0,-1,566,1569,0,0
-651,-545,0,0,0,0,0,0,0,0,0,-1,573,1569,0,0
-644,-545,0,0,0,0,0,0,0,0,0,-1,580,1569,0,0
-637,-545,0,0,0,0,0,0,0,0,0,-1,587,1569,0,0
-630,-545,0,0,0,0,0,0,0,0,0,-1,594,1569,0,0
-623,-545,0,0,0,0,0,0,0,0,0,-1,601,1569,0,0
-616,-545,0,0,0,0,0,0,0,0,0,-1,608,1569,0,0
-609,-545,0,0,0,0,0,0,0,0,0,-1,615,1569,0,0
-602,-545,0,0,0,0,0,0,0,0,0,-1,622,1569,0,0
-595,-545,0,0,0,0,0,0,0,0,0,-1,629,1569,0,0
-588,-545,0,0,0,0,0,0,0,0,0,-1,636,1569,0,0
-581,-545,0,0,0,0,0,0,0,0,0,-1,643,1569,0,0
-574,-545,0,0,0,0,0,0,0,0,0,-1,650,1569,0,0
-567,-545,0,0,0,0,0,0,0,0,0,-1,657,1569,0,0
-560,-545,0,0,0,0,0,0,0,0,0,-1,664,1569,0,0
-553,-545,0,0,0,0,0,0,0,0,0,-1,671,1569,0,0
-546,-545,0,0,0,0,0,0,0,0,0,-1,678,1569,0,0
-539,-545,0,0,0,0,0,0,0,0,0,-1,685,1569,0,0
-532,-545,0,0,0,0,0,0,0,0,0,-1,692,1569,0,0
-525,-545,0,0,0,0,0,0,0,0,0,-1,699,1569,0,0
-518,-545,0,0,0,0,0,0,0,0,0,-1,706,1569,0,0
-511,-545,0,0,0,0,0,0,0,0,0,-1,713,1569,0,0
-504,-545,-3.55237,-2.5354,0,0,0,0,0,0,0,-1,720,1569,-3.55236,2.53545
-497,-545,0.119141,5.68481,0,0,0,0,0,0,0,-1,727,1569,0.119132,-5.68483
-490,-545,4.46082,2.36755,0,0,0,0,0,0,0,-1,734,1569,4.46079,-2.36756
-483,-545,1.0658,3.11926,0,0,0,0,0,0,0,-1,741,1569,1.06578,-3.11922
-476,-545,1.03632,4.34204,0,0,0,0,0,0,0,-1,748,1569,1.03631,-4.34205
-469,-545,0.0371094,4.71265,0,0,0,0,0,0,0,-1,755,1569,0.037094,-4.7126
-462,-545,0.233887,5.11047,0,0,0,0,0,0,0,-1,762,1569,0.233876,-5.11046
-455,-545,0.143982,5.28003,0.0171278,0.00494466,0.00737823,0.0206042,0.00146828,0.440316,0.0132738,0.041773,769,1569,0.143969,-5.28001
-448,-545,0.412476,5.28528,0.013291,0.00360094,0.00581513,0.016015,0.000876946,0.438075,0.0103967,0.0288762,776,1569,0.412464,-5.28523
-441,-545,0.57251,5.48901,0.0102363,0.0031199,0.00441462,0.0123482,0.00100803,0.446204,0.00791751,0.0174846,783,1569,0.57252,-5.48902
-434,-545,0.528381,5.64722,0.00766411,0.00266264,0.00332639,0.00932493,0.00100182,0.463076,0.00591105,0.0134648,790,1569,0.528374,-5.64724
-427,-545,0.512634,5.828,0.00536825,0.0015532,0.00248514,0.00659354,0.000327906,0.458072,0.00429057,0.0159828,797,1569,0.512639,-5.828
-420,-545,0.541321,5.98877,0.00380666,0.00129002,0.00189625,0.00482412,0.000272566,0.492466,0.00312918,0.0225232,804,1569,0.541314,-5.98881
-413,-545,0.549683,6.15869,0.00273188,0.00106556,0.00131001,0.00345123,0.000346215,0.502165,0.00219454,0.0234812,811,1569,0.549682,-6.15872
-406,-545,0.540283,6.31152,0.00204756,0.000748525,0.000816831,0.00244163,0.000354448,0.449505,0.00152341,0.0178561,818,1569,0.540293,-6.31151
-399,-545,0.561096,6.50854,0.00156849,0.000287844,0.000461089,0.00171723,0.000139107,0.31204,0.00110138,0.0109754,825,1569,0.56108,-6.50856
-392,-545,0.556091,6.70825,0.00130889,-0.000320572,0.000289173,0.00135868,-0.000370369,0.170531,0.00105122,0.0111296,832,1569,0.556063,-6.7082
-385,-545,0.552551,6.91821,0.00118343,-0.000493602,0.000473147,0.00130771,-0.000617883,0.256866,0.00113527,0.00994019,839,1569,0.552567,-6.91817
-378,-545,0.529907,7.09583,0.000930127,0.000453896,0.00089744,0.0016205,-0.000236481,0.655722,0.00116718,0.0116736,846,1569,0.529907,-7.09581
-371,-545,0.526733,7.27979,0.000971138,0.00119396,0.00142859,0.00251548,-0.000350383,0.824312,0.00180515,0.0136344,853,1569,0.526707,-7.27981
-364,-545,0.537048,7.42981,-0.000644837,0.00303767,0.00310874,0.00480952,-0.00241668,1.05276,0.00424761,0.00877603,860,1569,0.537069,-7.42979
-357,-545,0.551514,7.6123,-0.00349601,0.00588201,0.00490928,0.0079818,-0.0055958,1.16662,0.00787927,0.00992787,867,1569,0.55149,-7.61235
-350,-545,0.562256,7.76477,-0.00629881,0.00951395,0.00737687,0.0124209,-0.0092058,1.19541,0.0125321,0.0156375,874,1569,0.562281,-7.76472
-343,-545,0.584106,7.86511,-0.0102895,0.0140119,0.0098606,0.0175096,-0.0137872,1.22993,0.0181117,0.0262956,881,1569,0.584103,-7.86516
-336,-545,0.562561,8.07019,-0.0145779,0.0192862,0.012796,0.0235775,-0.0188692,1.24722,0.0245568,0.0353327,888,1569,0.562565,-8.07019
-329,-545,0.393738,8.31836,-0.0210417,0.0256049,0.0163337,0.0307556,-0.0261923,1.26533,0.032914,0.0412195,895,1569,0.393709,-8.31836
-322,-545,0.357056,8.57788,0,0,0,0,0,0,0,-1,902,1569,0.357044,-8.57787
-315,-545,2.7207,9.08948,-0.0390016,0.0402576,0.0235694,0.0467368,-0.0454808,1.30252,0.0532435,0.0464408,909,1569,2.72068,-9.08951
-308,-545,1.04425,9.49768,-0.0474399,0.0470038,0.0265454,0.0539536,-0.0543897,1.31474,0.0625522,0.0472236,916,1569,1.04427,-9.49771
-301,-545,0.561646,9.79944,0,0,0,0,0,0,0,-1,923,1569,0.561666,-9.79942
-294,-545,-2.06732,8.53528,0,0,0,0,0,0,0,-1,930,1569,-2.06733,-8.53531
-287,-545,-0.971313,8.92603,0,0,0,0,0,0,0,-1,937,1569,-0.971302,-8.926
-280,-545,0.226746,10.4198,0,0,0,0,0,0,0,-1,944,1569,0.226742,-10.4198
-273,-545,-4.10596,12.3789,0,0,0,0,0,0,0,-1,951,1569,-4.10598,-12.3789
-266,-545,-5.10779,14.1372,0,0,0,0,0,0,0,-1,958,1569,-5.10778,-14.1372
-259,-545,-3.98706,7.8916,0,0,0,0,0,0,0,-1,965,1569,-3.98704,-7.89159
-252,-545,-4.75641,8.30005,0,0,0,0,0,0,0,-1,972,1569,-4.75641,-8.3001
-245,-545,0.484619,5.7207,0,0,0,0,0,0,0,-1,979,1569,0.484599,-5.72068
-238,-545,0,0,0,0,0,0,0,0,0,-1,986,1569,0,0
-231,-545,0,0,0,0,0,0,0,0,0,-1,993,1569,0,0
-224,-545,0,0,0,0,0,0,0,0,0,-1,1000,1569,0,0
-217,-545,0,0,0,0,0,0,0,0,0,-1,1007,1569,0,0
-210,-545,0,0,0,0,0,0,0,0,0,-1,1014,1569,0,0
-203,-545,0,0,0,0,0,0,0,0,0,-1,1021,1569,0,0
-196,-545,0,0,0,0,0,0,0,0,0,-1,1028,1569,0,0
-189,-545,0,0,0,0,0,0,0,0,0,-1,1035,1569,0,0
-182,-545,0,0,0,0,0,0,0,0,0,-1,1042,1569,0,0
-175,-545,0,0,0,0,0,0,0,0,0,-1,1049,1569,0,0
-168,-545,0,0,0,0,0,0,0,0,0,-1,1056,1569,0,0
-161,-545,0,0,0,0,0,0,0,0,0,-1,1063,1569,0,0
-154,-545,0,0,0,0,0,0,0,0,0,-1,1070,1569,0,0
-147,-545,0,0,0,0,0,0,0,0,0,-1,1077,1569,0,0
-140,-545,0,0,0,0,0,0,0,0,0,-1,1084,1569,0,0
-133,-545,0,0,0,0,0,0,0,0,0,-1,1091,1569,0,0
-126,-545,0,0,0,0,0,0,0,0,0,-1,1098,1569,0,0
-119,-545,0,0,0,0,0,0,0,0,0,-1,1105,1569,0,0
-112,-545,0,0,0,0,0,0,0,0,0,-1,1112,1569,0,0
-105,-545,0,0,0,0,0,0,0,0,0,-1,1119,1569,0,0
-98,-545,0,0,0,0,0,0,0,0,0,-1,1126,1569,0,0
-91,-545,0,0,0,0,0,0,0,0,0,-1,1133,1569,0,0
-84,-545,0,0,0,0,0,0,0,0,0,-1,1140,1569,0,0
-77,-545,0,0,0,0,0,0,0,0,0,-1,1147,1569,0,0
-70,-545,0,0,0,0,0,0,0,0,0,-1,1154,1569,0,0
-63,-545,0,0,0,0,0,0,0,0,0,-1,1161,1569,0,0
-56,-545,0,0,0,0,0,0,0,0,0,-1,1168,1569,0,0
-49,-545,0,0,0,0,0,0,0,0,0,-1,1175,1569,0,0
-42,-545,0,0,0,0,0,0,0,0,0,-1,1182,1569,0,0
-35,-545,0,0,0,0,0,0,0,0,0,-1,1189,1569,0,0
-28,-545,0,0,0,0,0,0,0,0,0,-1,1196,1569,0,0
-21,-545,0,0,0,0,0,0,0,0,0,-1,1203,1569,0,0
-14,-545,0,0,0,0,0,0,0,0,0,-1,1210,1569,0,0
-7,-545,0,0,0,0,0,0,0,0,0,-1,1217,1569,0,0
0,-545,0,0,0,0,0,0,0,0,0,-1,1224,1569,0,0
7,-545,0,0,0,0,0,0,0,0,0,-1,1231,1569,0,0
14,-545,0,0,0,0,0,0,0,0,0,-1,1238,1569,0,0
21,-545,0,0,0,0,0,0,0,0,0,-1,1245,1569,0,0
28,-545,0,0,0,0,0,0,0,0,0,-1,1252,1569,0,0
35,-545,0,0,0,0,0,0,0,0,0,-1,1259,1569,0,0
42,-545,0,0,0,0,0,0,0,0,0,-1,1266,1569,0,0
49,-545,0,0,0,0,0,0,0,0,0,-1,1273,1569,0,0
56,-545,0,0,0,0,0,0,0,0,0,-1,1280,1569,0,0
63,-545,0,0,0,0,0,0,0,0,0,-1,1287,1569,0,0
70,-545,0,0,0,0,0,0,0,0,0,-1,1294,1569,0,0
77,-545,0,0,0,0,0,0,0,0,0,-1,1301,1569,0,0
84,-545,0,0,0,0,0,0,0,0,0,-1,1308,1569,0,0
91,-545,0,0,0,0,0,0,0,0,0,-1,1315,1569,0,0
98,-545,0,0,0,0,0,0,0,0,0,-1,1322,1569,0,0
105,-545,0,0,0,0,0,0,0,0,0,-1,1329,1569,0,0
112,-545,0,0,0,0,0,0,0,0,0,-1,1336,1569,0,0
119,-545,0,0,0,0,0,0,0,0,0,-1,1343,1569,0,0
126,-545,0,0,0,0,0,0,0,0,0,-1,1350,1569,0,0
133,-545,0,0,0,0,0,0,0,0,0,-1,1357,1569,0,0
140,-545,0,0,0,0,0,0,0,0,0,-1,1364,1569,0,0
147,-545,0,0,0,0,0,0,0,0,0,-1,1371,1569,0,0
154,-545,0,0,0,0,0,0,0,0,0,-1,1378,1569,0,0
161,-545,0,0,0,0,0,0,0,0,0,-1,1385,1569,0,0
168,-545,0,0,0,0,0,0,0,0,0,-1,1392,1569,0,0
175,-545,0,0,0,0,0,0,0,0,0,-1,1399,1569,0,0
182,-545,0,0,0,0,0,0,0,0,0,-1,1406,1569,0,0
189,-545,0,0,0,0,0,0,0,0,0,-1,1413,1569,0,0
196,-545,0,0,0,0,0,0,0,0,0,-1,1420,1569,0,0
203,-545,0,0,0,0,0,0,0,0,0,-1,1427,1569,0,0
210,-545,0,0,0,0,0,0,0,0,0,-1,1434,1569,0,0
217,-545,0,0,0,0,0,0,0,0,0,-1,1441,1569,0,0
224,-545,0,0,0,0,0,0,0,0,0,-1,1448,1569,0,0
231,-545,0,0,0,0,0,0,0,0,0,-1,1455,1569,0,0
238,-545,0,0,0,0,0,0,0,0,0,-1,1462,1569,0,0
245,-545,0,0,0,0,0,0,0,0,0,-1,1469,1569,0,0
252,-545,0,0,0,0,0,0,0,0,0,-1,1476,1569,0,0
259,-545,0,0,0,0,0,0,0,0,0,-1,1483,1569,0,0
266,-545,0,0,0,0,0,0,0,0,0,-1,1490,1569,0,0
273,-545,0,0,0,0,0,0,0,0,0,-1,1497,1569,0,0
280,-545,0,0,0,0,0,0,0,0,0,-1,1504,1569,0,0
287,-545,0,0,0,0,0,0,0,0,0,-1,1511,1569,0,0
294,-545,0,0,0,0,0,0,0,0,0,-1,1518,1569,0,0
301,-545,0,0,0,0,0,0,0,0,0,-1,1525,1569,0,0
308,-545,0,0,0,0,0,0,0,0,0,-1,1532,1569,0,0
315,-545,0,0,0,0,0,0,0,0,0,-1,1539,1569,0,0
322,-545,0,0,0,0,0,0,0,0,0,-1,1546,1569,0,0
329,-545,0,0,0,0,0,0,0,0,0,-1,1553,1569,0,0
336,-545,0,0,0,0,0,0,0,0,0,-1,1560,1569,0,0
343,-545,0,0,0,0,0,0,0,0,0,-1,1567,1569,0,0
350,-545,0,0,0,0,0,0,0,0,0,-1,1574,1569,0,0
357,-545,0,0,0,0,0,0,0,0,0,-1,1581,1569,0,0
364,-545,5.47632,4.19043,0,0,0,0,0,0,0,-1,1588,1569,5.47628,-4.19048
371,-545,7.62146,5.18079,0,0,0,0,0,0,0,-1,1595,1569,7.62146,-5.1808
378,-545,7.24146,4.54224,0,0,0,0,0,0,0,-1,1602,1569,7.24145,-4.54226
385,-545,8.58447,1.16125,0,0,0,0,0,0,0,-1,1609,1569,8.5845,-1.1612
392,-545,12.5654,3.89526,0,0,0,0,0,0,0,-1,1616,1569,12.5655,-3.89532
399,-545,11.5869,5.6333,0,0,0,0,0,0,0,-1,1623,1569,11.5869,-5.63326
406,-545,11.234,6.36414,0,0,0,0,0,0,0,-1,1630,1569,11.234,-6.3641
413,-545,12.1521,13.4817,0,0,0,0,0,0,0,-1,1637,1569,12.1521,-13.4817
420,-545,11.3094,12.7632,0,0,0,0,0,0,0,-1,1644,1569,11.3095,-12.7632
427,-545,10.441,12.0718,-0.0966456,0.0804426,-0.0255084,0.0840437,-0.100247,-1.43055,0.106537,0.0483615,1651,1569,10.4411,-12.0717
434,-545,9.62598,11.395,-0.0829398,0.0656261,-0.0184425,0.0678812,-0.085195,-1.44912,0.0885668,0.0461095,1658,1569,9.62601,-11.3951
441,-545,9.0929,10.8391,-0.0649074,0.0435604,-0.00881634,0.0442723,-0.0656193,-1.49022,0.0638437,0.0462018,1665,1569,9.09284,-10.8391
448,-545,8.94946,9.8623,-0.050123,0.0246498,-0.00124583,0.0246706,-0.0501438,-1.55414,0.0440208,0.0458304,1672,1569,8.94948,-9.86226
455,-545,7.85913,9.60986,0,0,0,0,0,0,0,-1,1679,1569,7.85909,-9.60983
462,-545,7.56165,8.45935,0,0,0,0,0,0,0,-1,1686,1569,7.5617,-8.45936
469,-545,7.44531,8.56055,-0.0198366,-0.00629813,0.0107109,-0.000396707,-0.025738,1.0672,0.017028,0.04543,1693,1569,7.4453,-8.56052
476,-545,7.1394,8.87817,-0.0138046,-0.0106838,0.0115567,-0.00058258,-0.0239058,0.852503,0.0157466,0.0318614,1700,1569,7.13937,-8.87812
483,-545,7.09143,8.86609,-0.00807416,-0.0143714,0.0123838,0.00155504,-0.0240006,0.660909,0.0165432,0.0134759,1707,1569,7.09137,-8.86607
490,-545,7.09045,8.73047,-0.00454608,-0.0151006,0.0118152,0.00311687,-0.0227636,0.575366,0.0163142,0.0115417,1714,1569,7.09041,-8.73042
497,-545,7.06311,8.59802,-0.00248327,-0.0143001,0.0105592,0.00370813,-0.0204915,0.530324,0.0150501,0.0159419,1721,1569,7.06312,-8.59806
504,-545,7.11377,8.45239,-0.000974923,-0.0123083,0.00866105,0.00370851,-0.0169917,0.495711,0.0127451,0.0152336,1728,1569,7.11374,-8.4524
511,-545,7.10278,8.2843,-1.91348e-05,-0.00981885,0.00662299,0.00331949,-0.0131575,0.466919,0.0100623,0.0112575,1735,1569,7.10284,-8.28431
518,-545,7.10095,8.13843,0.000596255,-0.00703696,0.00456147,0.00272721,-0.00916791,0.437035,0.0071954,0.0125216,1742,1569,7.101,-8.13843
525,-545,7.104,7.96509,0.00111668,-0.00440536,0.0025239,0.00209642,-0.0053851,0.37028,0.0044564,0.0128431,1749,1569,7.10401,-7.96507
532,-545,7.10449,7.80457,0.00148385,-0.00227093,0.000782742,0.00164049,-0.00242757,0.197508,0.0023633,0.0130867,1756,1569,7.10443,-7.80453
539,-545,7.1084,7.63464,0.00179051,-0.000527786,-0.000758041,0.00201637,-0.000753647,-0.289579,0.00165373,0.0157276,1763,1569,7.10835,-7.63461
546,-545,7.09998,7.47363,0.00204363,0.00128841,-0.00228468,0.0039817,-0.000649655,-0.703498,0.00289541,0.0170236,1770,1569,7.09994,-7.47366
553,-545,7.11963,7.28894,0.00236723,0.00275028,-0.0034679,0.00603194,-0.000914434,-0.812984,0.0043582,0.0240166,1777,1569,7.11968,-7.28894
560,-545,7.14368,7.1073,0.00269687,0.00415763,-0.00445099,0.00793777,-0.00108327,-0.86672,0.00568743,0.0253588,1784,1569,7.14367,-7.10725
567,-545,7.04431,7.03198,0.00289769,0.00596041,-0.00526014,0.00990757,-0.00104946,-0.927046,0.00698121,0.0314251,1791,1569,7.04436,-7.03203
574,-545,7.03699,6.83533,0.00270531,0.00851232,-0.00628976,0.0125364,-0.00131877,-1.00164,0.00883008,0.0266186,1798,1569,7.03695,-6.83535
581,-545,7.04321,6.63501,0.00223106,0.011576,-0.00752692,0.0157628,-0.00195574,-1.06317,0.0112174,0.0358388,1805,1569,7.04318,-6.63495
588,-545,7.06909,6.47412,0.00109001,0.0156543,-0.009002,0.0199508,-0.00320651,-1.12548,0.0144882,0.0491918,1812,1569,7.06909,-6.47418
595,-545,7.10339,6.27075,0,0,0,0,0,0,0,-1,1819,1569,7.10338,-6.27077
602,-545,8.03894,4.33557,0,0,0,0,0,0,0,-1,1826,1569,8.03893,-4.33555
609,-545,8.71558,3.14709,0,0,0,0,0,0,0,-1,1833,1569,8.71563,-3.14711
616,-545,9.32727,2.09204,0,0,0,0,0,0,0,-1,1840,1569,9.32733,-2.09203
623,-545,13.2522,3.6488,0,0,0,0,0,0,0,-1,1847,1569,13.2522,-3.64886
630,-545,0,0,0,0,0,0,0,0,0,-1,1854,1569,0,0
637,-545,0,0,0,0,0,0,0,0,0,-1,1861,1569,0,0
644,-545,0,0,0,0,0,0,0,0,0,-1,1868,1569,0,0
651,-545,0,0,0,0,0,0,0,0,0,-1,1875,1569,0,0
658,-545,0,0,0,0,0,0,0,0,0,-1,1882,1569,0,0
665,-545,0,0,0,0,0,0,0,0,0,-1,1889,1569,0,0
672,-545,0,0,0,0,0,0,0,0,0,-1,1896,1569,0,0
679,-545,0,0,0,0,0,0,0,0,0,-1,1903,1569,0,0
686,-545,0,0,0,0,0,0,0,0,0,-1,1910,1569,0,0
693,-545,0,0,0,0,0,0,0,0,0,-1,1917,1569,0,0
700,-545,0,0,0,0,0,0,0,0,0,-1,1924,1569,0,0
707,-545,0,0,0,0,0,0,0,0,0,-1,1931,1569,0,0
714,-545,0,0,0,0,0,0,0,0,0,-1,1938,1569,0,0
721,-545,0,0,0,0,0,0,0,0,0,-1,1945,1569,0,0
728,-545,0,0,0,0,0,0,0,0,0,-1,1952,1569,0,0
735,-545,0,0,0,0,0,0,0,0,0,-1,1959,1569,0,0
742,-545,0,0,0,0,0,0,0,0,0,-1,1966,1569,0,0
749,-545,0,0,0,0,0,0,0,0,0,-1,1973,1569,0,0
756,-545,0,0,0,0,0,0,0,0,0,-1,1980,1569,0,0
763,-545,0,0,0,0,0,0,0,0,0,-1,1987,1569,0,0
770,-545,0,0,0,0,0,0,0,0,0,-1,1994,1569,0,0
777,-545,0,0,0,0,0,0,0,0,0,-1,2001,1569,0,0
784,-545,0,0,0,0,0,0,0,0,0,-1,2008,1569,0,0
791,-545,0,0,0,0,0,0,0,0,0,-1,2015,1569,0,0
798,-545,0,0,0,0,0,0,0,0,0,-1,2022,1569,0,0
805,-545,0,0,0,0,0,0,0,0,0,-1,2029,1569,0,0
812,-545,0,0,0,0,0,0,0,0,0,-1,2036,1569,0,0
-700,-552,0,0,0,0,0,0,0,0,0,-1,524,1576,0,0
-693,-552,0,0,0,0,0,0,0,0,0,-1,531,1576,0,0
-686,-552,0,0,0,0,0,0,0,0,0,-1,538,1576,0,0
-679,-552,0,0,0,0,0,0,0,0,0,-1,545,1576,0,0
-672,-552,0,0,0,0,0,0,0,0,0,-1,552,1576,0,0
-665,-552,0,0,0,0,0,0,0,0,0,-1,559,1576,0,0
-658,-552,0,0,0,0,0,0,0,0,0,-1,566,1576,0,0
-651,-552,0,0,0,0,0,0,0,0,0,-1,573,1576,0,0
-644,-552,0,0,0,0,0,0,0,0,0,-1,580,1576,0,0
-637,-552,0,0,0,0,0,0,0,0,0,-1,587,1576,0,0
-630,-552,0,0,0,0,0,0,0,0,0,-1,594,1576,0,0
-623,-552,0,0,0,0,0,0,0,0,0,-1,601,1576,0,0
-616,-552,0,0,0,0,0,0,0,0,0,-1,608,1576,0,0
-609,-552,0,0,0,0,0,0,0,0,0,-1,615,1576,0,0
-602,-552,0,0,0,0,0,0,0,0,0,-1,622,1576,0,0
-595,-552,0,0,0,0,0,0,0,0,0,-1,629,1576,0,0
-588,-552,0,0,0,0,0,0,0,0,0,-1,636,1576,0,0
-581,-552,0,0,0,0,0,0,0,0,0,-1,643,1576,0,0
-574,-552,0,0,0,0,0,0,0,0,0,-1,650,1576,0,0
-567,-552,0,0,0,0,0,0,0,0,0,-1,657,1576,0,0
-560,-552,0,0,0,0,0,0,0,0,0,-1,664,1576,0,0
-553,-552,0,0,0,0,0,0,0,0,0,-1,671,1576,0,0
-546,-552,0,0,0,0,0,0,0,0,0,-1,678,1576,0,0
-539,-552,0,0,0,0,0,0,0,0,0,-1,685,1576,0,0
-532,-552,0,0,0,0,0,0,0,0,0,-1,692,1576,0,0
-525,-552,0,0,0,0,0,0,0,0,0,-1,699,1576,0,0
-518,-552,0,0,0,0,0,0,0,0,0,-1,706,1576,0,0
-511,-552,0,0,0,0,0,0,0,0,0,-1,713,1576,0,0
-504,-552,0,0,0,0,0,0,0,0,0,-1,720,1576,0,0
-497,-552,4.93781,1.23352,0,0,0,0,0,0,0,-1,727,1576,4.93781,-1.23351
-490,-552,4.31445,1.83264,0,0,0,0,0,0,0,-1,734,1576,4.31442,-1.83266
-483,-552,3.66809,2.39941,0,0,0,0,0,0,0,-1,741,1576,3.66807,-2.39943
-476,-552,2.81836,1.32153,0,0,0,0,0,0,0,-1,748,1576,2.81836,-1.32148
-469,-552,2.24048,1.927,0,0,0,0,0,0,0,-1,755,1576,2.24046,-1.92695
-462,-552,1.76141,2.82227,0,0,0,0,0,0,0,-1,762,1576,1.76139,-2.82226
-455,-552,0.131226,5.30957,0,0,0,0,0,0,0,-1,769,1576,0.131234,-5.30962
-448,-552,0.358643,5.19971,0.0193421,0.0119575,0.0120472,0.0282501,0.00304954,0.6367,0.0179037,0.0443273,776,1576,0.358648,-5.19973
-441,-552,0.611023,5.49207,0.0155534,0.0110748,0.0103968,0.0239494,0.0026789,0.679327,0.0151524,0.0370993,783,1576,0.611017,-5.49207
-434,-552,0.727905,5.69006,0.0121917,0.0101703,0.00882996,0.0200686,0.00229338,0.728417,0.0126839,0.0196348,790,1576,0.7279,-5.6901
-427,-552,0.69574,5.8031,0.0091651,0.00844812,0.00742435,0.0162396,0.00137361,0.761274,0.0103988,0.0143015,797,1576,0.695729,-5.80315
-420,-552,0.737854,5.98511,0.00691116,0.00750881,0.00618953,0.0134067,0.00101325,0.809519,0.00861995,0.0181335,804,1576,0.737881,-5.98512
-413,-552,0.75531,6.16113,0.00521847,0.00656418,0.00494056,0.0108775,0.000905151,0.853077,0.00696957,0.0176705,811,1576,0.755332,-6.16108
-406,-552,0.727722,6.33533,0.00387795,0.00542219,0.00373746,0.00846645,0.000833692,0.88726,0.00538795,0.0137704,818,1576,0.727725,-6.33538
-399,-552,0.718872,6.51636,0.00272882,0.00413374,0.00265981,0.00618229,0.000680274,0.914501,0.00391452,0.012794,825,1576,0.718859,-6.51638
-392,-552,0.714661,6.70618,0.00184818,0.00271533,0.00173818,0.0040732,0.000490314,0.907625,0.00256768,0.0134006,832,1576,0.714635,-6.70612
-385,-552,0.710693,6.91248,0.00122933,0.00172244,0.00119658,0.0026976,0.000254171,0.887001,0.00171995,0.0128744,839,1576,0.710676,-6.91243
-378,-552,0.69751,7.07788,0.000664029,0.00176712,0.00098703,0.00234625,8.48967e-05,1.04018,0.00153665,0.0153883,846,1576,0.697516,-7.07789
-371,-552,0.703918,7.25659,0.000452231,0.00171748,0.000965082,0.0022388,-6.90937e-05,1.07552,0.00151609,0.0184204,853,1576,0.703913,-7.25655
-364,-552,0.7276,7.43787,-0.000980214,0.00280409,0.00207711,0.00372167,-0.0018978,1.15482,0.00330087,0.0136898,860,1576,0.727623,-7.43785
-357,-552,0.738159,7.59998,-0.00324551,0.00480811,0.00342274,0.00606621,-0.00450362,1.21855,0.00612468,0.00948017,867,1576,0.738147,-7.59995
-350,-552,0.730591,7.78601,-0.00530168,0.00766011,0.00546066,0.00965394,-0.0072955,1.22071,0.00981729,0.00939574,874,1576,0.730597,-7.78599
-343,-552,0.708374,7.9447,-0.00814388,0.0110911,0.00736989,0.0135902,-0.010643,1.24387,0.0140255,0.0103878,881,1576,0.7084,-7.94476
-336,-552,0.730469,8.07642,-0.0109075,0.0149237,0.00958678,0.0180928,-0.0140766,1.25153,0.0186212,0.015633,888,1576,0.730489,-8.07639
-329,-552,0.721313,8.34717,-0.0151765,0.0193805,0.0122206,0.0232654,-0.0190615,1.263,0.0244776,0.0313592,895,1576,0.721312,-8.34711
-322,-552,2.19073,8.61316,0,0,0,0,0,0,0,-1,902,1576,2.19076,-8.61313
-315,-552,1.91199,8.7251,-0.0260614,0.0289044,0.017027,0.0337515,-0.0309084,1.29346,0.0373434,0.0481993,909,1576,1.91198,-8.72507
-308,-552,1.22815,9.09351,-0.0311019,0.032702,0.0182583,0.0375573,-0.0359573,1.31088,0.042447,0.0429488,916,1576,1.22814,-9.09355
-301,-552,0.775024,9.4082,0,0,0,0,0,0,0,-1,923,1576,0.774996,-9.40821
-294,-552,-1.3891,8.79211,0,0,0,0,0,0,0,-1,930,1576,-1.3891,-8.79207
-287,-552,-0.0280151,9.00732,0,0,0,0,0,0,0,-1,937,1576,-0.0280126,-9.00738
-280,-552,1.53284,9.10034,0,0,0,0,0,0,0,-1,944,1576,1.53283,-9.10031
-273,-552,1.64587,10.6685,0,0,0,0,0,0,0,-1,951,1576,1.6459,-10.6685
-266,-552,-1.32678,8.05688,0,0,0,0,0,0,0,-1,958,1576,-1.32677,-8.05683
-259,-552,-5.54321,8.31213,0,0,0,0,0,0,0,-1,965,1576,-5.54324,-8.31214
-252,-552,-6.49988,8.56104,0,0,0,0,0,0,0,-1,972,1576,-6.49986,-8.56109
-245,-552,-3.40894,1.31848,0,0,0,0,0,0,0,-1,979,1576,-3.40892,-1.31848
-238,-552,-2.96576,2.00696,0.133086,0.0315151,0.182715,0.271942,-0.107341,0.649845,0.225749,0.046189,986,1576,-2.96577,-2.00697
-231,-552,-2.1983,2.81116,0.141329,0.0329017,0.201749,0.296022,-0.121791,0.654139,0.248117,0.0393075,993,1576,-2.19828,-2.8112
-224,-552,0,0,0,0,0,0,0,0,0,-1,1000,1576,0,0
-217,-552,0,0,0,0,0,0,0,0,0,-1,1007,1576,0,0
-210,-552,0,0,0,0,0,0,0,0,0,-1,1014,1576,0,0
-203,-552,0,0,0,0,0,0,0,0,0,-1,1021,1576,0,0
-196,-552,0,0,0,0,0,0,0,0,0,-1,1028,1576,0,0
-189,-552,0,0,0,0,0,0,0,0,0,-1,1035,1576,0,0
-182,-552,0,0,0,0,0,0,0,0,0,-1,1042,1576,0,0
-175,-552,0,0,0,0,0,0,0,0,0,-1,1049,1576,0,0
-168,-552,0,0,0,0,0,0,0,0,0,-1,1056,1576,0,0
-161,-552,0,0,0,0,0,0,0,0,0,-1,1063,1576,0,0
-154,-552,0,0,0,0,0,0,0,0,0,-1,1070,1576,0,0
-147,-552,0,0,0,0,0,0,0,0,0,-1,1077,1576,0,0
-140,-552,0,0,0,0,0,0,0,0,0,-1,1084,1576,0,0
-133,-552,0,0,0,0,0,0,0,0,0,-1,1091,1576,0,0
-126,-552,0,0,0,0,0,0,0,0,0,-1,1098,1576,0,0
-119,-552,0,0,0,0,0,0,0,0,0,-1,1105,1576,0,0
-112,-552,0,0,0,0,0,0,0,0,0,-1,1112,1576,0,0
-105,-552,0,0,0,0,0,0,0,0,0,-1,1119,1576,0,0
-98,-552,0,0,0,0,0,0,0,0,0,-1,1126,1576,0,0
-91,-552,0,0,0,0,0,0,0,0,0,-1,1133,1576,0,0
-84,-552,0,0,0,0,0,0,0,0,0,-1,1140,1576,0,0
-77,-552,0,0,0,0,0,0,0,0,0,-1,1147,1576,0,0
-70,-552,0,0,0,0,0,0,0,0,0,-1,1154,1576,0,0
-63,-552,0,0,0,0,0,0,0,0,0,-1,1161,1576,0,0
-56,-552,0,0,0,0,0,0,0,0,0,-1,1168,1576,0,0
-49,-552,0,0,0,0,0,0,0,0,0,-1,1175,1576,0,0
-42,-552,0,0,0,0,0,0,0,0,0,-1,1182,1576,0,0
-35,-552,0,0,0,0,0,0,0,0,0,-1,1189,1576,0,0
-28,-552,0,0,0,0,0,0,0,0,0,-1,1196,1576,0,0
-21,-552,0,0,0,0,0,0,0,0,0,-1,1203,1576,0,0
-14,-552,0,0,0,0,0,0,0,0,0,-1,1210,1576,0,0
-7,-552,0,0,0,0,0,0,0,0,0,-1,1217,1576,0,0
0,-552,0,0,0,0,0,0,0,0,0,-1,1224,1576,0,0
7,-552,0,0,0,0,0,0,0,0,0,-1,1231,1576,0,0
14,-552,0,0,0,0,0,0,0,0,0,-1,1238,1576,0,0
21,-552,0,0,0,0,0,0,0,0,0,-1,1245,1576,0,0
28,-552,0,0,0,0,0,0,0,0,0,-1,1252,1576,0,0
35,-552,0,0,0,0,0,0,0,0,0,-1,1259,1576,0,0
42,-552,0,0,0,0,0,0,0,0,0,-1,1266,1576,0,0
49,-552,0,0,0,0,0,0,0,0,0,-1,1273,1576,0,0
56,-552,0,0,0,0,0,0,0,0,0,-1,1280,1576,0,0
63,-552,0,0,0,0,0,0,0,0,0,-1,1287,1576,0,0
70,-552,0,0,0,0,0,0,0,0,0,-1,1294,1576,0,0
77,-552,0,0,0,0,0,0,0,0,0,-1,1301,1576,0,0
84,-552,0,0,0,0,0,0,0,0,0,-1,1308,1576,0,0
91,-552,0,0,0,0,0,0,0,0,0,-1,1315,1576,0,0
98,-552,0,0,0,0,0,0,0,0,0,-1,1322,1576,0,0
105,-552,0,0,0,0,0,0,0,0,0,-1,1329,1576,0,0
112,-552,0,0,0,0,0,0,0,0,0,-1,1336,1576,0,0
119,-552,0,0,0,0,0,0,0,0,0,-1,1343,1576,0,0
126,-552,0,0,0,0,0,0,0,0,0,-1,1350,1576,0,0
133,-552,0,0,0,0,0,0,0,0,0,-1,1357,1576,0,0
140,-552,0,0,0,0,0,0,0,0,0,-1,1364,1576,0,0
147,-552,0,0,0,0,0,0,0,0,0,-1,1371,1576,0,0
154,-552,0,0,0,0,0,0,0,0,0,-1,1378,1576,0,0
161,-552,0,0,0,0,0,0,0,0,0,-1,1385,1576,0,0
168,-552,0,0,0,0,0,0,0,0,0,-1,1392,1576,0,0
175,-552,0,0,0,0,0,0,0,0,0,-1,1399,1576,0,0
182,-552,0,0,0,0,0,0,0,0,0,-1,1406,1576,0,0
189,-552,0,0,0,0,0,0,0,0,0,-1,1413,1576,0,0
196,-552,0,0,0,0,0,0,0,0,0,-1,1420,1576,0,0
203,-552,0,0,0,0,0,0,0,0,0,-1,1427,1576,0,0
210,-552,0,0,0,0,0,0,0,0,0,-1,1434,1576,0,0
217,-552,0,0,0,0,0,0,0,0,0,-1,1441,1576,0,0
224,-552,0,0,0,0,0,0,0,0,0,-1,1448,1576,0,0
231,-552,0,0,0,0,0,0,0,0,0,-1,1455,1576,0,0
238,-552,0,0,0,0,0,0,0,0,0,-1,1462,1576,0,0
245,-552,0,0,0,0,0,0,0,0,0,-1,1469,1576,0,0
252,-552,0,0,0,0,0,0,0,0,0,-1,1476,1576,0,0
259,-552,0,0,0,0,0,0,0,0,0,-1,1483,1576,0,0
266,-552,0,0,0,0,0,0,0,0,0,-1,1490,1576,0,0
273,-552,0,0,0,0,0,0,0,0,0,-1,1497,1576,0,0
280,-552,0,0,0,0,0,0,0,0,0,-1,1504,1576,0,0
287,-552,0,0,0,0,0,0,0,0,0,-1,1511,1576,0,0
294,-552,0,0,0,0,0,0,0,0,0,-1,1518,1576,0,0
301,-552,0,0,0,0,0,0,0,0,0,-1,1525,1576,0,0
308,-552,0,0,0,0,0,0,0,0,0,-1,1532,1576,0,0
315,-552,0,0,0,0,0,0,0,0,0,-1,1539,1576,0,0
322,-552,0,0,0,0,0,0,0,0,0,-1,1546,1576,0,0
329,-552,0,0,0,0,0,0,0,0,0,-1,1553,1576,0,0
336,-552,0,0,0,0,0,0,0,0,0,-1,1560,1576,0,0
343,-552,0,0,0,0,0,0,0,0,0,-1,1567,1576,0,0
350,-552,4.97876,4.09888,0,0,0,0,0,0,0,-1,1574,1576,4.97875,-4.09883
357,-552,5.18469,4.10706,0,0,0,0,0,0,0,-1,1581,1576,5.1847,-4.10702
364,-552,4.6189,3.48181,0,0,0,0,0,0,0,-1,1588,1576,4.61895,-3.48178
371,-552,7.10657,5.64783,0,0,0,0,0,0,0,-1,1595,1576,7.10651,-5.64786
378,-552,6.44446,4.91492,0,0,0,0,0,0,0,-1,1602,1576,6.44448,-4.91496
385,-552,12.8276,3.16504,0,0,0,0,0,0,0,-1,1609,1576,12.8276,-3.16503
392,-552,12.1301,4.3363,0,0,0,0,0,0,0,-1,1616,1576,12.1302,-4.33631
399,-552,11.3486,5.6012,0,0,0,0,0,0,0,-1,1623,1576,11.3486,-5.60115
406,-552,10.7863,6.42542,0,0,0,0,0,0,0,-1,1630,1576,10.7863,-6.42536
413,-552,10.4117,7.00818,0,0,0,0,0,0,0,-1,1637,1576,10.4118,-7.00812
420,-552,11.7545,11.6764,0,0,0,0,0,0,0,-1,1644,1576,11.7546,-11.6764
427,-552,10.6489,11.2085,-0.0780486,0.0574972,-0.0150722,0.059153,-0.0797044,-1.46138,0.0804615,0.0471587,1651,1576,10.6489,-11.2085
434,-552,9.44995,10.7563,-0.0664579,0.0467966,-0.0103276,0.0477307,-0.0673919,-1.4806,0.0667884,0.0465388,1658,1576,9.4499,-10.7564
441,-552,8.83752,10.3057,-0.0530297,0.0322642,-0.00438797,0.0324893,-0.0532549,-1.51953,0.049986,0.0470692,1665,1576,8.83752,-10.3056
448,-552,8.19836,9.91956,-0.0414744,0.0195971,0.000410101,0.0195999,-0.0414772,1.56408,0.036009,0.0438306,1672,1576,8.19838,-9.91951
455,-552,7.60925,9.47656,-0.0315257,0.00905037,0.00405982,0.00945259,-0.031928,1.47205,0.0250382,0.0395401,1679,1576,7.60929,-9.47659
462,-552,7.20886,9.04749,-0.0231262,0.00206723,0.00665913,0.00371907,-0.024778,1.32765,0.0178877,0.042816,1686,1576,7.20889,-9.04749
469,-552,6.98352,9.06531,-0.0166986,-0.00293879,0.00807522,0.000789895,-0.0204273,1.13822,0.013889,0.0352974,1693,1576,6.98348,-9.06525
476,-552,6.93677,9.05212,-0.0116892,-0.0062942,0.00846915,-0.000103334,-0.0178801,0.939573,0.0118857,0.0158564,1700,1576,6.93683,-9.05207
483,-552,6.94348,8.91235,-0.00683321,-0.00926929,0.0089997,0.0010305,-0.017133,0.718136,0.0117805,0.0138348,1707,1576,6.94351,-8.91237
490,-552,6.9364,8.7489,-0.00372035,-0.0100523,0.00851068,0.00219414,-0.0159668,0.607328,0.0114462,0.0136555,1714,1576,6.93638,-8.74888
497,-552,6.94055,8.59924,-0.00179012,-0.00974087,0.00748004,0.00270532,-0.0142363,0.541147,0.0105094,0.021064,1721,1576,6.94057,-8.59922
504,-552,6.98389,8.45325,-0.000318995,-0.00845781,0.00590046,0.00277927,-0.0115561,0.483517,0.00877838,0.0231988,1728,1576,6.98393,-8.45326
511,-552,6.95386,8.30359,0.000681698,-0.00675752,0.00424148,0.00260351,-0.00867934,0.425429,0.00682173,0.0172802,1735,1576,6.95391,-8.30354
518,-552,6.9519,8.14502,0.00140718,-0.00474944,0.0024996,0.00229422,-0.00563648,0.341008,0.00471238,0.0139137,1742,1576,6.95191,-8.14501
525,-552,6.95837,7.97205,0.00203482,-0.00278971,0.000720671,0.00214017,-0.00289507,0.145156,0.00291796,0.012789,1749,1576,6.95843,-7.97202
532,-552,6.96545,7.81238,0.00251496,-0.00116532,-0.000856324,0.00270445,-0.00135481,-0.217776,0.00238641,0.0138303,1756,1576,6.96547,-7.81242
539,-552,6.94788,7.64771,0.00293066,0.000222631,-0.00232205,0.00426463,-0.00111134,-0.521444,0.00327696,0.0169112,1763,1576,6.94783,-7.64772
546,-552,6.93469,7.4845,0.00332016,0.00169642,-0.00381507,0.00640878,-0.00139221,-0.680559,0.00480431,0.0199837,1770,1576,6.93467,-7.48455
553,-552,6.98462,7.31335,0.00375679,0.00298551,-0.00504126,0.00842714,-0.00168483,-0.747224,0.00625579,0.0234758,1777,1576,6.98457,-7.31339
560,-552,6.91284,7.25891,0.00420748,0.00439983,-0.00615418,0.0104586,-0.00185127,-0.793211,0.00766437,0.0441751,1784,1576,6.91288,-7.25891
567,-552,6.94226,6.87305,0,0,0,0,0,0,0,-1,1791,1576,6.9422,-6.87301
574,-552,6.98035,6.7511,0,0,0,0,0,0,0,-1,1798,1576,6.98039,-6.75108
581,-552,6.91235,6.56104,0,0,0,0,0,0,0,-1,1805,1576,6.91239,-6.56106
588,-552,6.82629,6.46436,0,0,0,0,0,0,0,-1,1812,1576,6.82633,-6.46433
595,-552,6.80872,5.76721,0,0,0,0,0,0,0,-1,1819,1576,6.80872,-5.76717
602,-552,7.59351,4.84326,0,0,0,0,0,0,0,-1,1826,1576,7.59348,-4.84332
609,-552,8.97168,1.92578,0,0,0,0,0,0,0,-1,1833,1576,8.9717,-1.92578
616,-552,8.70496,2.2627,0,0,0,0,0,0,0,-1,1840,1576,8.70495,-2.26274
623,-552,0,0,0,0,0,0,0,0,0,-1,1847,1576,0,0
630,-552,0,0,0,0,0,0,0,0,0,-1,1854,1576,0,0
637,-552,0,0,0,0,0,0,0,0,0,-1,1861,1576,0,0
644,-552,0,0,0,0,0,0,0,0,0,-1,1868,1576,0,0
651,-552,0,0,0,0,0,0,0,0,0,-1,1875,1576,0,0
658,-552,0,0,0,0,0,0,0,0,0,-1,1882,1576,0,0
665,-552,0,0,0,0,0,0,0,0,0,-1,1889,1576,0,0
672,-552,0,0,0,0,0,0,0,0,0,-1,1896,1576,0,0
679,-552,0,0,0,0,0,0,0,0,0,-1,1903,1576,0,0
686,-552,0,0,0,0,0,0,0,0,0,-1,1910,1576,0,0
693,-552,0,0,0,0,0,0,0,0,0,-1,1917,1576,0,0
700,-552,0,0,0,0,0,0,0,0,0,-1,1924,1576,0,0
707,-552,0,0,0,0,0,0,0,0,0,-1,1931,1576,0,0
714,-552,0,0,0,0,0,0,0,0,0,-1,1938,1576,0,0
721,-552,0,0,0,0,0,0,0,0,0,-1,1945,1576,0,0
728,-552,0,0,0,0,0,0,0,0,0,-1,1952,1576,0,0
735,-552,0,0,0,0,0,0,0,0,0,-1,1959,1576,0,0
742,-552,0,0,0,0,0,0,0,0,0,-1,1966,1576,0,0
749,-552,0,0,0,0,0,0,0,0,0,-1,1973,1576,0,0
756,-552,0,0,0,0,0,0,0,0,0,-1,1980,1576,0,0
763,-552,0,0,0,0,0,0,0,0,0,-1,1987,1576,0,0
770,-552,0,0,0,0,0,0,0,0,0,-1,1994,1576,0,0
777,-552,0,0,0,0,0,0,0,0,0,-1,2001,1576,0,0
784,-552,0,0,0,0,0,0,0,0,0,-1,2008,1576,0,0
791,-552,0,0,0,0,0,0,0,0,0,-1,2015,1576,0,0
798,-552,0,0,0,0,0,0,0,0,0,-1,2022,1576,0,0
805,-552,0,0,0,0,0,0,0,0,0,-1,2029,1576,0,0
812,-552,0,0,0,0,0,0,0,0,0,-1,2036,1576,0,0
-700,-559,0,0,0,0,0,0,0,0,0,-1,524,1583,0,0
-693,-559,0,0,0,0,0,0,0,0,0,-1,531,1583,0,0
-686,-559,0,0,0,0,0,0,0,0,0,-1,538,1583,0,0
-679,-559,0,0,0,0,0,0,0,0,0,-1,545,1583,0,0
-672,-559,0,0,0,0,0,0,0,0,0,-1,552,1583,0,0
-665,-559,0,0,0,0,0,0,0,0,0,-1,559,1583,0,0
-658,-559,0,0,0,0,0,0,0,0,0,-1,566,1583,0,0
-651,-559,0,0,0,0,0,0,0,0,0,-1,573,1583,0,0
-644,-559,0,0,0,0,0,0,0,0,0,-1,580,1583,0,0
-637,-559,0,0,0,0,0,0,0,0,0,-1,587,1583,0,0
-630,-559,0,0,0,0,0,0,0,0,0,-1,594,1583,0,0
-623,-559,0,0,0,0,0,0,0,0,0,-1,601,1583,0,0
-616,-559,0,0,0,0,0,0,0,0,0,-1,608,1583,0,0
-609,-559,0,0,0,0,0,0,0,0,0,-1,615,1583,0,0
-602,-559,0,0,0,0,0,0,0,0,0,-1,622,1583,0,0
-595,-559,0,0,0,0,0,0,0,0,0,-1,629,1583,0,0
-588,-559,0,0,0,0,0,0,0,0,0,-1,636,1583,0,0
-581,-559,0,0,0,0,0,0,0,0,0,-1,643,1583,0,0
-574,-559,0,0,0,0,0,0,0,0,0,-1,650,1583,0,0
-567,-559,0,0,0,0,0,0,0,0,0,-1,657,1583,0,0
-560,-559,0,0,0,0,0,0,0,0,0,-1,664,1583,0,0
-553,-559,0,0,0,0,0,0,0,0,0,-1,671,1583,0,0
-546,-559,0,0,0,0,0,0,0,0,0,-1,678,1583,0,0
-539,-559,0,0,0,0,0,0,0,0,0,-1,685,1583,0,0
-532,-559,0,0,0,0,0,0,0,0,0,-1,692,1583,0,0
-525,-559,0,0,0,0,0,0,0,0,0,-1,699,1583,0,0
-518,-559,0,0,0,0,0,0,0,0,0,-1,706,1583,0,0
-511,-559,0,0,0,0,0,0,0,0,0,-1,713,1583,0,0
-504,-559,0,0,0,0,0,0,0,0,0,-1,720,1583,0,0
-497,-559,0,0,0,0,0,0,0,0,0,-1,727,1583,0,0
-490,-559,4.16803,1.29773,0,0,0,0,0,0,0,-1,734,1583,4.16806,-1.29776
-483,-559,3.172,-1.21948,0,0,0,0,0,0,0,-1,741,1583,3.17199,1.2195
-476,-559,2.5188,-0.174683,0,0,0,0,0,0,0,-1,748,1583,2.51878,0.174738
-469,-559,1.83472,0.696289,0,0,0,0,0,0,0,-1,755,1583,1.83472,-0.696289
-462,-559,1.32874,1.66528,0,0,0,0,0,0,0,-1,762,1583,1.32876,-1.6653
-455,-559,1.06561,2.90759,0,0,0,0,0,0,0,-1,769,1583,1.06562,-2.90758
-448,-559,0.533203,5.23267,0,0,0,0,0,0,0,-1,776,1583,0.533228,-5.23268
-441,-559,0.625305,5.46289,0.025852,0.0311985,0.0246398,0.0533096,0.00374086,0.839434,0.0343607,0.0448478,783,1583,0.625303,-5.46286
-434,-559,0.792358,5.72791,0.0211965,0.0287975,0.0218114,0.047137,0.00285693,0.871654,0.030517,0.0349423,790,1583,0.792389,-5.72789
-427,-559,0.942078,5.85547,0.016923,0.0253528,0.0190791,0.0406771,0.00159876,0.894111,0.0266012,0.0203043,797,1583,0.942092,-5.8555
-420,-559,0.893127,6.00293,0.013448,0.0225338,0.0163908,0.0349996,0.000982197,0.920586,0.0230127,0.018115,804,1583,0.893118,-6.00294
-413,-559,0.91449,6.18616,0.0106345,0.0196078,0.0136579,0.0294971,0.000745228,0.944096,0.0194211,0.0119052,811,1583,0.914514,-6.18618
-406,-559,0.909485,6.36792,0.0081844,0.0164172,0.0109746,0.024022,0.000579642,0.964821,0.015825,0.00999189,818,1583,0.90951,-6.36788
-399,-559,0.897644,6.53699,0.00595922,0.013128,0.00845322,0.0187254,0.000361847,0.985921,0.0123647,0.0119673,825,1583,0.897651,-6.53697
-392,-559,0.878357,6.71399,0.00411254,0.00982454,0.00614066,0.0137409,0.000196216,1.00307,0.00909588,0.0145238,832,1583,0.878328,-6.71397
-385,-559,0.877991,6.90552,0.00270545,0.00704848,0.00431594,0.00970841,4.5523e-05,1.01848,0.00645715,0.0151892,839,1583,0.877968,-6.9055
-378,-559,0.884766,7.07983,0.00157239,0.00534652,0.00299405,0.00699857,-7.96574e-05,1.06659,0.00469249,0.0148645,846,1583,0.88475,-7.07981
-371,-559,0.885559,7.2489,0.000905855,0.00382774,0.00203534,0.00487218,-0.000138593,1.09668,0.00329529,0.0215892,853,1583,0.885542,-7.24888
-364,-559,0.912292,7.40247,-0.000505995,0.00363798,0.00227397,0.00464236,-0.00151038,1.15488,0.00370252,0.0188309,860,1583,0.912266,-7.40242
-357,-559,0.913452,7.5885,-0.00243958,0.00429673,0.00282166,0.00532246,-0.00346531,1.22213,0.00511125,0.0112654,867,1583,0.913422,-7.58853
-350,-559,0.911316,7.77637,-0.00401154,0.00599329,0.00416187,0.0074982,-0.00551646,1.22383,0.007543,0.00927471,874,1583,0.911312,-7.77633
-343,-559,0.893494,7.94604,-0.00590819,0.00847504,0.00556087,0.0103742,-0.00780737,1.24169,0.010532,0.0101021,881,1583,0.893471,-7.94604
-336,-559,0.892761,8.08716,-0.00753798,0.0111747,0.0071701,0.0136061,-0.0099694,1.24386,0.0136652,0.0108535,888,1583,0.892779,-8.08721
-329,-559,0.932373,8.30518,-0.010209,0.0141685,0.00903359,0.0171511,-0.0131916,1.25189,0.017568,0.0146691,895,1583,0.93237,-8.30514
-322,-559,1.07001,8.49329,-0.0134197,0.0174163,0.0107662,0.0208032,-0.0168067,1.26601,0.0217549,0.035462,902,1583,1.07003,-8.49325
-315,-559,1.37854,8.60486,-0.0167685,0.0201487,0.0119247,0.0236655,-0.0202853,1.28401,0.0254,0.040734,909,1583,1.37853,-8.60484
-308,-559,1.32605,8.90588,-0.0196616,0.0220122,0.0120634,0.0252523,-0.0229017,1.3084,0.0278128,0.0370381,916,1583,1.32606,-8.90588
-301,-559,1.63184,9.20081,-0.0221686,0.0227542,0.011315,0.0254433,-0.0248576,1.33747,0.0290419,0.0407778,923,1583,1.63181,-9.20085
-294,-559,2.08862,9.61023,0,0,0,0,0,0,0,-1,930,1583,2.08864,-9.61027
-287,-559,0.722778,9.24438,0,0,0,0,0,0,0,-1,937,1583,0.722791,-9.24436
-280,-559,1.91437,9.39734,0,0,0,0,0,0,0,-1,944,1583,1.91435,-9.39728
-273,-559,2.12836,10.3059,0,0,0,0,0,0,0,-1,951,1583,2.12839,-10.3059
-266,-559,-0.597046,6.68933,0,0,0,0,0,0,0,-1,958,1583,-0.597031,-6.68937
-259,-559,-7.00311,8.62756,0,0,0,0,0,0,0,-1,965,1583,-7.00312,-8.6275
-252,-559,-8.16071,8.59155,0,0,0,0,0,0,0,-1,972,1583,-8.16071,-8.5915
-245,-559,-4.97791,1.12683,0,0,0,0,0,0,0,-1,979,1583,-4.97792,-1.12689
-238,-559,-4.56891,1.9231,0.113943,0.0217791,0.154553,0.229138,-0.0934156,0.640513,0.191643,0.0473649,986,1583,-4.5689,-1.92306
-231,-559,-3.72693,2.78455,0.122371,0.0272986,0.169307,0.250689,-0.101019,0.648537,0.209098,0.0431581,993,1583,-3.72691,-2.78458
-224,-559,-2.80072,3.95325,0,0,0,0,0,0,0,-1,1000,1583,-2.80072,-3.9533
-217,-559,0,0,0,0,0,0,0,0,0,-1,1007,1583,0,0
-210,-559,0,0,0,0,0,0,0,0,0,-1,1014,1583,0,0
-203,-559,0,0,0,0,0,0,0,0,0,-1,1021,1583,0,0
-196,-559,0,0,0,0,0,0,0,0,0,-1,1028,1583,0,0
-189,-559,0,0,0,0,0,0,0,0,0,-1,1035,1583,0,0
-182,-559,0,0,0,0,0,0,0,0,0,-1,1042,1583,0,0
-175,-559,0,0,0,0,0,0,0,0,0,-1,1049,1583,0,0
-168,-559,0,0,0,0,0,0,0,0,0,-1,1056,1583,0,0
-161,-559,0,0,0,0,0,0,0,0,0,-1,1063,1583,0,0
-154,-559,0,0,0,0,0,0,0,0,0,-1,1070,1583,0,0
-147,-559,0,0,0,0,0,0,0,0,0,-1,1077,1583,0,0
-140,-559,0,0,0,0,0,0,0,0,0,-1,1084,1583,0,0
-133,-559,0,0,0,0,0,0,0,0,0,-1,1091,1583,0,0
-126,-559,0,0,0,0,0,0,0,0,0,-1,1098,1583,0,0
-119,-559,0,0,0,0,0,0,0,0,0,-1,1105,1583,0,0
-112,-559,0,0,0,0,0,0,0,0,0,-1,1112,1583,0,0
-105,-559,0,0,0,0,0,0,0,0,0,-1,1119,1583,0,0
-98,-559,0,0,0,0,0,0,0,0,0,-1,1126,1583,0,0
-91,-559,0,0,0,0,0,0,0,0,0,-1,1133,1583,0,0
-84,-559,0,0,0,0,0,0,0,0,0,-1,1140,1583,0,0
-77,-559,0,0,0,0,0,0,0,0,0,-1,1147,1583,0,0
-70,-559,0,0,0,0,0,0,0,0,0,-1,1154,1583,0,0
-63,-559,0,0,0,0,0,0,0,0,0,-1,1161,1583,0,0
-56,-559,0,0,0,0,0,0,0,0,0,-1,1168,1583,0,0
-49,-559,0,0,0,0,0,0,0,0,0,-1,1175,1583,0,0
-42,-559,0,0,0,0,0,0,0,0,0,-1,1182,1583,0,0
-35,-559,0,0,0,0,0,0,0,0,0,-1,1189,1583,0,0
-28,-559,0,0,0,0,0,0,0,0,0,-1,1196,1583,0,0
-21,-559,0,0,0,0,0,0,0,0,0,-1,1203,1583,0,0
-14,-559,0,0,0,0,0,0,0,0,0,-1,1210,1583,0,0
-7,-559,0,0,0,0,0,0,0,0,0,-1,1217,1583,0,0
0,-559,0,0,0,0,0,0,0,0,0,-1,1224,1583,0,0
7,-559,0,0,0,0,0,0,0,0,0,-1,1231,1583,0,0
14,-559,0,0,0,0,0,0,0,0,0,-1,1238,1583,0,0
21,-559,0,0,0,0,0,0,0,0,0,-1,1245,1583,0,0
28,-559,0,0,0,0,0,0,0,0,0,-1,1252,1583,0,0
35,-559,0,0,0,0,0,0,0,0,0,-1,1259,1583,0,0
42,-559,0,0,0,0,0,0,0,0,0,-1,1266,1583,0,0
49,-559,0,0,0,0,0,0,0,0,0,-1,1273,1583,0,0
56,-559,0,0,0,0,0,0,0,0,0,-1,1280,1583,0,0
63,-559,0,0,0,0,0,0,0,0,0,-1,1287,1583,0,0
70,-559,0,0,0,0,0,0,0,0,0,-1,1294,1583,0,0
77,-559,0,0,0,0,0,0,0,0,0,-1,1301,1583,0,0
84,-559,0,0,0,0,0,0,0,0,0,-1,1308,1583,0,0
91,-559,0,0,0,0,0,0,0,0,0,-1,1315,1583,0,0
98,-559,0,0,0,0,0,0,0,0,0,-1,1322,1583,0,0
105,-559,0,0,0,0,0,0,0,0,0,-1,1329,1583,0,0
112,-559,0,0,0,0,0,0,0,0,0,-1,1336,1583,0,0
119,-559,0,0,0,0,0,0,0,0,0,-1,1343,1583,0,0
126,-559,0,0,0,0,0,0,0,0,0,-1,1350,1583,0,0
133,-559,0,0,0,0,0,0,0,0,0,-1,1357,1583,0,0
140,-559,0,0,0,0,0,0,0,0,0,-1,1364,1583,0,0
147,-559,0,0,0,0,0,0,0,0,0,-1,1371,1583,0,0
154,-559,0,0,0,0,0,0,0,0,0,-1,1378,1583,0,0
161,-559,0,0,0,0,0,0,0,0,0,-1,1385,1583,0,0
168,-559,0,0,0,0,0,0,0,0,0,-1,1392,1583,0,0
175,-559,0,0,0,0,0,0,0,0,0,-1,1399,1583,0,0
182,-559,0,0,0,0,0,0,0,0,0,-1,1406,1583,0,0
189,-559,0,0,0,0,0,0,0,0,0,-1,1413,1583,0,0
196,-559,0,0,0,0,0,0,0,0,0,-1,1420,1583,0,0
203,-559,0,0,0,0,0,0,0,0,0,-1,1427,1583,0,0
210,-559,0,0,0,0,0,0,0,0,0,-1,1434,1583,0,0
217,-559,0,0,0,0,0,0,0,0,0,-1,1441,1583,0,0
224,-559,0,0,0,0,0,0,0,0,0,-1,1448,1583,0,0
231,-559,0,0,0,0,0,0,0,0,0,-1,1455,1583,0,0
238,-559,0,0,0,0,0,0,0,0,0,-1,1462,1583,0,0
245,-559,0,0,0,0,0,0,0,0,0,-1,1469,1583,0,0
252,-559,0,0,0,0,0,0,0,0,0,-1,1476,1583,0,0
259,-559,0,0,0,0,0,0,0,0,0,-1,1483,1583,0,0
266,-559,0,0,0,0,0,0,0,0,0,-1,1490,1583,0,0
273,-559,0,0,0,0,0,0,0,0,0,-1,1497,1583,0,0
280,-559,0,0,0,0,0,0,0,0,0,-1,1504,1583,0,0
287,-559,0,0,0,0,0,0,0,0,0,-1,1511,1583,0,0
294,-559,0,0,0,0,0,0,0,0,0,-1,1518,1583,0,0
301,-559,0,0,0,0,0,0,0,0,0,-1,1525,1583,0,0
308,-559,0,0,0,0,0,0,0,0,0,-1,1532,1583,0,0
315,-559,0,0,0,0,0,0,0,0,0,-1,1539,1583,0,0
322,-559,0,0,0,0,0,0,0,0,0,-1,1546,1583,0,0
329,-559,0,0,0,0,0,0,0,0,0,-1,1553,1583,0,0
336,-559,5.97668,3.09827,0,0,0,0,0,0,0,-1,1560,1583,5.97667,-3.09824
343,-559,5.44824,2.88696,0,0,0,0,0,0,0,-1,1567,1583,5.44819,-2.88693
350,-559,4.69775,3.27051,0,0,0,0,0,0,0,-1,1574,1583,4.69771,-3.27048
357,-559,3.88025,3.60999,0,0,0,0,0,0,0,-1,1581,1583,3.88027,-3.60998
364,-559,5.00928,5.32605,0,0,0,0,0,0,0,-1,1588,1583,5.00928,-5.32607
371,-559,1.84436,2.52441,0,0,0,0,0,0,0,-1,1595,1583,1.84441,-2.52447
378,-559,6.34753,1.53137,0,0,0,0,0,0,0,-1,1602,1583,6.34752,-1.53139
385,-559,6.95911,1.48181,0,0,0,0,0,0,0,-1,1609,1583,6.95916,-1.48175
392,-559,11.6949,4.77734,0,0,0,0,0,0,0,-1,1616,1583,11.6949,-4.77731
399,-559,11.1104,5.56909,0,0,0,0,0,0,0,-1,1623,1583,11.1103,-5.56905
406,-559,10.3385,6.48657,0,0,0,0,0,0,0,-1,1630,1583,10.3385,-6.48661
413,-559,9.76147,6.97571,0,0,0,0,0,0,0,-1,1637,1583,9.76143,-6.97574
420,-559,9.1095,7.36182,0,0,0,0,0,0,0,-1,1644,1583,9.10955,-7.36184
427,-559,10.047,10.3655,0,0,0,0,0,0,0,-1,1651,1583,10.047,-10.3655
434,-559,9.19055,10.3275,0,0,0,0,0,0,0,-1,1658,1583,9.19061,-10.3276
441,-559,6.94727,9.547,0,0,0,0,0,0,0,-1,1665,1583,6.94721,-9.54696
448,-559,7.30798,9.63586,-0.0332535,0.0145228,0.00170946,0.0145839,-0.0333146,1.53508,0.0283503,0.0479323,1672,1583,7.30795,-9.63592
455,-559,7.04578,9.08484,-0.0257115,0.00761251,0.00373105,0.00802514,-0.0261241,1.46065,0.0206185,0.042571,1679,1583,7.0458,-9.08482
462,-559,6.89185,9.19519,-0.0191686,0.00253613,0.00501445,0.00363861,-0.0202711,1.35438,0.014876,0.0333778,1686,1583,6.8918,-9.19521
469,-559,6.78772,9.21057,-0.014056,-0.00100487,0.00573806,0.00115911,-0.01622,1.21016,0.0112197,0.0174367,1693,1583,6.78767,-9.21063
476,-559,6.77075,9.06616,-0.0100385,-0.00352065,0.00576993,-0.000152907,-0.0134062,1.04247,0.00888695,0.0102736,1700,1583,6.7707,-9.06621
483,-559,6.77637,8.91565,-0.00602574,-0.00591058,0.00602058,5.26952e-05,-0.011989,0.79018,0.0080103,0.012362,1707,1583,6.77639,-8.91568
490,-559,6.78589,8.75354,-0.00327878,-0.00663329,0.00552595,0.000818849,-0.0107309,0.638055,0.00744193,0.0145007,1714,1583,6.78594,-8.75358
497,-559,6.80432,8.60986,-0.00144335,-0.00658325,0.00460658,0.00126166,-0.00928827,0.530959,0.00665273,0.0177484,1721,1583,6.80431,-8.60992
504,-559,6.8147,8.46692,2.74256e-05,-0.00573336,0.00322906,0.0014741,-0.00718003,0.421204,0.00534623,0.0223298,1728,1583,6.81475,-8.4669
511,-559,6.78284,8.30566,0.00114456,-0.00454999,0.00185724,0.00169675,-0.00510217,0.288991,0.0040862,0.0198917,1735,1583,6.78289,-8.30562
518,-559,6.78625,8.15002,0.002091,-0.00308677,0.000371684,0.00211754,-0.00311332,0.0712973,0.00303822,0.0122349,1742,1583,6.78622,-8.15007
525,-559,6.80518,7.97217,0.00296362,-0.00160975,-0.0011887,0.00325413,-0.00190026,-0.239694,0.00300991,0.0109807,1749,1583,6.80514,-7.97213
532,-559,6.79736,7.82996,0.00371634,-0.000316932,-0.00264028,0.00502203,-0.00162263,-0.459262,0.00400015,0.0128191,1756,1583,6.79731,-7.83
539,-559,6.79089,7.66882,0.00439989,0.000886797,-0.00407371,0.00707962,-0.00179293,-0.581847,0.00541721,0.0166711,1763,1583,6.79086,-7.66881
546,-559,6.77014,7.49341,0.00505883,0.00220057,-0.00559607,0.00940538,-0.00214597,-0.66038,0.0070946,0.0152932,1770,1583,6.7701,-7.49345
553,-559,6.86304,7.29028,0.00573764,0.00353462,-0.00695647,0.0116793,-0.00240701,-0.706878,0.00870022,0.0235815,1777,1583,6.86306,-7.29028
560,-559,6.83801,7.29895,0.00635099,0.00519243,-0.00837735,0.0141691,-0.00262564,-0.750879,0.010432,0.0421804,1784,1583,6.83796,-7.29899
567,-559,6.84436,6.88733,0,0,0,0,0,0,0,-1,1791,1583,6.84441,-6.88734
574,-559,7.0072,6.49829,0,0,0,0,0,0,0,-1,1798,1583,7.00716,-6.49833
581,-559,5.97095,5.96179,0,0,0,0,0,0,0,-1,1805,1583,5.97093,-5.96181
588,-559,5.79102,5.89954,0,0,0,0,0,0,0,-1,1812,1583,5.79098,-5.89949
595,-559,6.63647,5.83362,0,0,0,0,0,0,0,-1,1819,1583,6.63651,-5.83363
602,-559,10.5408,2.7533,0,0,0,0,0,0,0,-1,1826,1583,10.5407,-2.75335
609,-559,5.72681,0.13562,0,0,0,0,0,0,0,-1,1833,1583,5.72678,-0.135584
616,-559,0,0,0,0,0,0,0,0,0,-1,1840,1583,0,0
623,-559,0,0,0,0,0,0,0,0,0,-1,1847,1583,0,0
630,-559,0,0,0,0,0,0,0,0,0,-1,1854,1583,0,0
637,-559,0,0,0,0,0,0,0,0,0,-1,1861,1583,0,0
644,-559,0,0,0,0,0,0,0,0,0,-1,1868,1583,0,0
651,-559,0,0,0,0,0,0,0,0,0,-1,1875,1583,0,0
658,-559,0,0,0,0,0,0,0,0,0,-1,1882,1583,0,0
665,-559,0,0,0,0,0,0,0,0,0,-1,1889,1583,0,0
672,-559,0,0,0,0,0,0,0,0,0,-1,1896,1583,0,0
679,-559,0,0,0,0,0,0,0,0,0,-1,1903,1583,0,0
686,-559,0,0,0,0,0,0,0,0,0,-1,1910,1583,0,0
693,-559,0,0,0,0,0,0,0,0,0,-1,1917,1583,0,0
700,-559,0,0,0,0,0,0,0,0,0,-1,1924,1583,0,0
707,-559,0,0,0,0,0,0,0,0,0,-1,1931,1583,0,0
714,-559,0,0,0,0,0,0,0,0,0,-1,1938,1583,0,0
721,-559,0,0,0,0,0,0,0,0,0,-1,1945,1583,0,0
728,-559,0,0,0,0,0,0,0,0,0,-1,1952,1583,0,0
735,-559,0,0,0,0,0,0,0,0,0,-1,1959,1583,0,0
742,-559,0,0,0,0,0,0,0,0,0,-1,1966,1583,0,0
749,-559,0,0,0,0,0,0,0,0,0,-1,1973,1583,0,0
756,-559,0,0,0,0,0,0,0,0,0,-1,1980,1583,0,0
763,-559,0,0,0,0,0,0,0,0,0,-1,1987,1583,0,0
770,-559,0,0,0,0,0,0,0,0,0,-1,1994,1583,0,0
777,-559,0,0,0,0,0,0,0,0,0,-1,2001,1583,0,0
784,-559,0,0,0,0,0,0,0,0,0,-1,2008,1583,0,0
791,-559,0,0,0,0,0,0,0,0,0,-1,2015,1583,0,0
798,-559,0,0,0,0,0,0,0,0,0,-1,2022,1583,0,0
805,-559,0,0,0,0,0,0,0,0,0,-1,2029,1583,0,0
812,-559,0,0,0,0,0,0,0,0,0,-1,2036,1583,0,0
-700,-566,0,0,0,0,0,0,0,0,0,-1,524,1590,0,0
-693,-566,0,0,0,0,0,0,0,0,0,-1,531,1590,0,0
-686,-566,0,0,0,0,0,0,0,0,0,-1,538,1590,0,0
-679,-566,0,0,0,0,0,0,0,0,0,-1,545,1590,0,0
-672,-566,0,0,0,0,0,0,0,0,0,-1,552,1590,0,0
-665,-566,0,0,0,0,0,0,0,0,0,-1,559,1590,0,0
-658,-566,0,0,0,0,0,0,0,0,0,-1,566,1590,0,0
-651,-566,0,0,0,0,0,0,0,0,0,-1,573,1590,0,0
-644,-566,0,0,0,0,0,0,0,0,0,-1,580,1590,0,0
-637,-566,0,0,0,0,0,0,0,0,0,-1,587,1590,0,0
-630,-566,0,0,0,0,0,0,0,0,0,-1,594,1590,0,0
-623,-566,0,0,0,0,0,0,0,0,0,-1,601,1590,0,0
-616,-566,0,0,0,0,0,0,0,0,0,-1,608,1590,0,0
-609,-566,0,0,0,0,0,0,0,0,0,-1,615,1590,0,0
-602,-566,0,0,0,0,0,0,0,0,0,-1,622,1590,0,0
-595,-566,0,0,0,0,0,0,0,0,0,-1,629,1590,0,0
-588,-566,0,0,0,0,0,0,0,0,0,-1,636,1590,0,0
-581,-566,0,0,0,0,0,0,0,0,0,-1,643,1590,0,0
-574,-566,0,0,0,0,0,0,0,0,0,-1,650,1590,0,0
-567,-566,0,0,0,0,0,0,0,0,0,-1,657,1590,0,0
-560,-566,0,0,0,0,0,0,0,0,0,-1,664,1590,0,0
-553,-566,0,0,0,0,0,0,0,0,0,-1,671,1590,0,0
-546,-566,0,0,0,0,0,0,0,0,0,-1,678,1590,0,0
-539,-566,0,0,0,0,0,0,0,0,0,-1,685,1590,0,0
-532,-566,0,0,0,0,0,0,0,0,0,-1,692,1590,0,0
-525,-566,0,0,0,0,0,0,0,0,0,-1,699,1590,0,0
-518,-566,0,0,0,0,0,0,0,0,0,-1,706,1590,0,0
-511,-566,0,0,0,0,0,0,0,0,0,-1,713,1590,0,0
-504,-566,0,0,0,0,0,0,0,0,0,-1,720,1590,0,0
-497,-566,0,0,0,0,0,0,0,0,0,-1,727,1590,0,0
-490,-566,0,0,0,0,0,0,0,0,0,-1,734,1590,0,0
-483,-566,3.19678,1.06677,0,0,0,0,0,0,0,-1,741,1590,3.19675,-1.06673
-476,-566,1.38202,-1.79102,0,0,0,0,0,0,0,-1,748,1590,1.38203,1.79105
-469,-566,1.18524,-0.729614,0,0,0,0,0,0,0,-1,755,1590,1.18524,0.729602
-462,-566,0.950867,0.43811,0,0,0,0,0,0,0,-1,762,1590,0.95085,-0.438152
-455,-566,0.588745,1.44531,0,0,0,0,0,0,0,-1,769,1590,0.588719,-1.44529
-448,-566,0.417908,4.79041,0,0,0,0,0,0,0,-1,776,1590,0.417881,-4.79038
-441,-566,0.758301,5.23425,0,0,0,0,0,0,0,-1,783,1590,0.758305,-5.23422
-434,-566,0.889404,5.72681,0,0,0,0,0,0,0,-1,790,1590,0.889422,-5.72678
-427,-566,1.03229,5.64807,0.025527,0.044201,0.0322397,0.0684285,0.00129949,0.926347,0.0451921,0.0378482,797,1590,1.03229,-5.64806
-420,-566,1.04248,6.0072,0.0203044,0.0384763,0.0274025,0.0582599,0.000520803,0.945481,0.0386675,0.0275684,804,1590,1.0425,-6.00726
-413,-566,1.08844,6.18201,0.0159994,0.032758,0.0226649,0.0485429,0.00021445,0.962458,0.0322907,0.0136811,811,1590,1.08846,-6.18199
-406,-566,1.08838,6.36829,0.0122368,0.0270252,0.0182216,0.0392957,-3.36897e-05,0.978144,0.0262084,0.00926875,818,1590,1.08838,-6.36832
-399,-566,1.07178,6.54126,0.00884381,0.0214796,0.0141398,0.0306488,-0.000325437,0.995499,0.0205419,0.00954976,825,1590,1.07178,-6.54127
-392,-566,1.07294,6.70715,0.00604889,0.0162561,0.0104653,0.0227959,-0.00049089,1.01227,0.0153635,0.0118727,832,1590,1.07293,-6.70712
-385,-566,1.09631,6.90686,0.0039352,0.0117981,0.00746828,0.0163065,-0.000573222,1.02768,0.0110671,0.0146288,839,1590,1.09631,-6.90681
-378,-566,1.07867,7.10779,0.00233913,0.00853991,0.00519122,0.0114861,-0.000607063,1.05459,0.00786757,0.0151202,846,1590,1.07866,-7.10783
-371,-566,1.0603,7.24561,0.00133593,0.00585764,0.00349327,0.00775784,-0.000564274,1.0726,0.00536988,0.0208085,853,1590,1.06028,-7.24558
-364,-566,1.09412,7.38879,6.88669e-06,0.00464118,0.00298728,0.00610465,-0.00145658,1.11526,0.00463227,0.020851,860,1590,1.09411,-7.38885
-357,-566,1.09277,7.58093,-0.00167789,0.00409253,0.00275881,0.00519925,-0.0027846,1.18929,0.00467922,0.0164784,867,1590,1.09275,-7.58098
-350,-566,1.0885,7.77087,-0.00292513,0.00472108,0.00337192,0.00599562,-0.00419967,1.20941,0.00591661,0.0185772,874,1590,1.08853,-7.77085
-343,-566,1.08685,7.88318,-0.00416191,0.00628736,0.00421149,0.00777342,-0.00564798,1.23158,0.00778117,0.0232561,881,1590,1.08687,-7.88318
-336,-566,1.06976,8.07422,-0.00497921,0.00816405,0.00533179,0.0100549,-0.0068701,1.22999,0.00982918,0.0205323,888,1590,1.06977,-8.07424
-329,-566,1.10553,8.2489,-0.00650463,0.0100588,0.00656571,0.0123457,-0.00879151,1.23563,0.012261,0.012105,895,1590,1.10551,-8.24893
-322,-566,1.13385,8.42554,-0.00838357,0.0121298,0.00760206,0.0146399,-0.0108937,1.25188,0.0147946,0.0144022,902,1590,1.13386,-8.42555
-315,-566,1.16754,8.49927,-0.0103012,0.0136028,0.00804803,0.0160599,-0.0127582,1.27448,0.0166745,0.0275343,909,1590,1.16755,-8.49922
-308,-566,1.25812,8.68677,-0.0118743,0.014248,0.00755098,0.0162736,-0.0138999,1.30871,0.0174387,0.0336514,916,1590,1.25814,-8.68682
-301,-566,1.4126,8.85938,-0.0131464,0.0140865,0.00648866,0.0155535,-0.0146134,1.34845,0.0174197,0.0405407,923,1590,1.41258,-8.85942
-294,-566,0.549988,9.10327,-0.0142348,0.0130312,0.00424982,0.0136783,-0.0148818,1.4197,0.0164941,0.0429938,930,1590,0.549973,-9.10333
-287,-566,1.29437,9.07202,-0.00592077,0.0125502,0.0119526,0.0184196,-0.0117902,1.11433,0.0175811,0.0469457,937,1590,1.29437,-9.07204
-280,-566,1.64429,9.22473,0,0,0,0,0,0,0,-1,944,1590,1.64431,-9.2247
-273,-566,2.79315,9.90991,0,0,0,0,0,0,0,-1,951,1590,2.79315,-9.90994
-266,-566,0.392151,6.90295,0,0,0,0,0,0,0,-1,958,1590,0.392151,-6.90294
-259,-566,0.343628,6.47437,0,0,0,0,0,0,0,-1,965,1590,0.34363,-6.47438
-252,-566,-5.41388,1.76697,0,0,0,0,0,0,0,-1,972,1590,-5.4139,-1.76701
-245,-566,-1.85248,3.42993,0,0,0,0,0,0,0,-1,979,1590,-1.85251,-3.42997
-238,-566,-6.31537,2.22388,0,0,0,0,0,0,0,-1,986,1590,-6.31536,-2.22388
-231,-566,-5.17474,2.91724,0,0,0,0,0,0,0,-1,993,1590,-5.17475,-2.91724
-224,-566,-4.03412,3.6106,0,0,0,0,0,0,0,-1,1000,1590,-4.03414,-3.6106
-217,-566,0.155884,4.03638,0,0,0,0,0,0,0,-1,1007,1590,0.155904,-4.0364
-210,-566,0.722107,3.68506,0,0,0,0,0,0,0,-1,1014,1590,0.722101,-3.68512
-203,-566,0,0,0,0,0,0,0,0,0,-1,1021,1590,0,0
-196,-566,0,0,0,0,0,0,0,0,0,-1,1028,1590,0,0
-189,-566,0,0,0,0,0,0,0,0,0,-1,1035,1590,0,0
-182,-566,0,0,0,0,0,0,0,0,0,-1,1042,1590,0,0
-175,-566,0,0,0,0,0,0,0,0,0,-1,1049,1590,0,0
-168,-566,0,0,0,0,0,0,0,0,0,-1,1056,1590,0,0
-161,-566,0,0,0,0,0,0,0,0,0,-1,1063,1590,0,0
-154,-566,0,0,0,0,0,0,0,0,0,-1,1070,1590,0,0
-147,-566,0,0,0,0,0,0,0,0,0,-1,1077,1590,0,0
-140,-566,0,0,0,0,0,0,0,0,0,-1,1084,1590,0,0
-133,-566,0,0,0,0,0,0,0,0,0,-1,1091,1590,0,0
-126,-566,0,0,0,0,0,0,0,0,0,-1,1098,1590,0,0
-119,-566,0,0,0,0,0,0,0,0,0,-1,1105,1590,0,0
-112,-566,0,0,0,0,0,0,0,0,0,-1,1112,1590,0,0
-105,-566,0,0,0,0,0,0,0,0,0,-1,1119,1590,0,0
-98,-566,0,0,0,0,0,0,0,0,0,-1,1126,1590,0,0
-91,-566,0,0,0,0,0,0,0,0,0,-1,1133,1590,0,0
-84,-566,0,0,0,0,0,0,0,0,0,-1,1140,1590,0,0
-77,-566,0,0,0,0,0,0,0,0,0,-1,1147,1590,0,0
-70,-566,0,0,0,0,0,0,0,0,0,-1,1154,1590,0,0
-63,-566,0,0,0,0,0,0,0,0,0,-1,1161,1590,0,0
-56,-566,0,0,0,0,0,0,0,0,0,-1,1168,1590,0,0
-49,-566,0,0,0,0,0,0,0,0,0,-1,1175,1590,0,0
-42,-566,0,0,0,0,0,0,0,0,0,-1,1182,1590,0,0
-35,-566,0,0,0,0,0,0,0,0,0,-1,1189,1590,0,0
-28,-566,0,0,0,0,0,0,0,0,0,-1,1196,1590,0,0
-21,-566,0,0,0,0,0,0,0,0,0,-1,1203,1590,0,0
-14,-566,0,0,0,0,0,0,0,0,0,-1,1210,1590,0,0
-7,-566,0,0,0,0,0,0,0,0,0,-1,1217,1590,0,0
0,-566,0,0,0,0,0,0,0,0,0,-1,1224,1590,0,0
7,-566,0,0,0,0,0,0,0,0,0,-1,1231,1590,0,0
14,-566,0,0,0,0,0,0,0,0,0,-1,1238,1590,0,0
21,-566,0,0,0,0,0,0,0,0,0,-1,1245,1590,0,0
28,-566,0,0,0,0,0,0,0,0,0,-1,1252,1590,0,0
35,-566,0,0,0,0,0,0,0,0,0,-1,1259,1590,0,0
42,-566,0,0,0,0,0,0,0,0,0,-1,1266,1590,0,0
49,-566,0,0,0,0,0,0,0,0,0,-1,1273,1590,0,0
56,-566,0,0,0,0,0,0,0,0,0,-1,1280,1590,0,0
63,-566,0,0,0,0,0,0,0,0,0,-1,1287,1590,0,0
70,-566,0,0,0,0,0,0,0,0,0,-1,1294,1590,0,0
77,-566,0,0,0,0,0,0,0,0,0,-1,1301,1590,0,0
84,-566,0,0,0,0,0,0,0,0,0,-1,1308,1590,0,0
91,-566,0,0,0,0,0,0,0,0,0,-1,1315,1590,0,0
98,-566,0,0,0,0,0,0,0,0,0,-1,1322,1590,0,0
105,-566,0,0,0,0,0,0,0,0,0,-1,1329,1590,0,0
112,-566,0,0,0,0,0,0,0,0,0,-1,1336,1590,0,0
119,-566,0,0,0,0,0,0,0,0,0,-1,1343,1590,0,0
126,-566,0,0,0,0,0,0,0,0,0,-1,1350,1590,0,0
133,-566,0,0,0,0,0,0,0,0,0,-1,1357,1590,0,0
140,-566,0,0,0,0,0,0,0,0,0,-1,1364,1590,0,0
147,-566,0,0,0,0,0,0,0,0,0,-1,1371,1590,0,0
154,-566,0,0,0,0,0,0,0,0,0,-1,1378,1590,0,0
161,-566,0,0,0,0,0,0,0,0,0,-1,1385,1590,0,0
168,-566,0,0,0,0,0,0,0,0,0,-1,1392,1590,0,0
175,-566,0,0,0,0,0,0,0,0,0,-1,1399,1590,0,0
182,-566,0,0,0,0,0,0,0,0,0,-1,1406,1590,0,0
189,-566,0,0,0,0,0,0,0,0,0,-1,1413,1590,0,0
196,-566,0,0,0,0,0,0,0,0,0,-1,1420,1590,0,0
203,-566,0,0,0,0,0,0,0,0,0,-1,1427,1590,0,0
210,-566,0,0,0,0,0,0,0,0,0,-1,1434,1590,0,0
217,-566,0,0,0,0,0,0,0,0,0,-1,1441,1590,0,0
224,-566,0,0,0,0,0,0,0,0,0,-1,1448,1590,0,0
231,-566,0,0,0,0,0,0,0,0,0,-1,1455,1590,0,0
238,-566,0,0,0,0,0,0,0,0,0,-1,1462,1590,0,0
245,-566,0,0,0,0,0,0,0,0,0,-1,1469,1590,0,0
252,-566,0,0,0,0,0,0,0,0,0,-1,1476,1590,0,0
259,-566,0,0,0,0,0,0,0,0,0,-1,1483,1590,0,0
266,-566,0,0,0,0,0,0,0,0,0,-1,1490,1590,0,0
273,-566,0,0,0,0,0,0,0,0,0,-1,1497,1590,0,0
280,-566,0,0,0,0,0,0,0,0,0,-1,1504,1590,0,0
287,-566,0,0,0,0,0,0,0,0,0,-1,1511,1590,0,0
294,-566,0,0,0,0,0,0,0,0,0,-1,1518,1590,0,0
301,-566,0,0,0,0,0,0,0,0,0,-1,1525,1590,0,0
308,-566,0,0,0,0,0,0,0,0,0,-1,1532,1590,0,0
315,-566,0,0,0,0,0,0,0,0,0,-1,1539,1590,0,0
322,-566,6.07983,4.44873,0,0,0,0,0,0,0,-1,1546,1590,6.07983,-4.44873
329,-566,5.77026,3.47534,0,0,0,0,0,0,0,-1,1553,1590,5.77026,-3.47535
336,-566,5.41138,2.62915,0,0,0,0,0,0,0,-1,1560,1590,5.41138,-2.62909
343,-566,4.81873,1.79089,0,0,0,0,0,0,0,-1,1567,1590,4.81878,-1.79095
350,-566,4.41663,2.44214,0,0,0,0,0,0,0,-1,1574,1590,4.41666,-2.44214
357,-566,6.34058,5.18579,0,0,0,0,0,0,0,-1,1581,1590,6.34059,-5.1858
364,-566,6.06262,4.20251,0,0,0,0,0,0,0,-1,1588,1590,6.06259,-4.20246
371,-566,5.78455,3.21912,0,0,0,0,0,0,0,-1,1595,1590,5.7846,-3.21912
378,-566,5.7439,0.695557,0,0,0,0,0,0,0,-1,1602,1590,5.74392,-0.695531
385,-566,5.67615,-0.573975,0,0,0,0,0,0,0,-1,1609,1590,5.67612,0.573956
392,-566,5.78638,1.82434,0,0,0,0,0,0,0,-1,1616,1590,5.78637,-1.82439
399,-566,5.36621,1.7373,0,0,0,0,0,0,0,-1,1623,1590,5.36627,-1.7373
406,-566,4.30359,5.26868,0,0,0,0,0,0,0,-1,1630,1590,4.30364,-5.26867
413,-566,4.27124,5.79492,0,0,0,0,0,0,0,-1,1637,1590,4.27123,-5.7949
420,-566,7.19812,8.25146,0,0,0,0,0,0,0,-1,1644,1590,7.19817,-8.25149
427,-566,6.67944,9.07837,0,0,0,0,0,0,0,-1,1651,1590,6.67939,-9.07837
434,-566,6.63745,9.5553,0,0,0,0,0,0,0,-1,1658,1590,6.63745,-9.55526
441,-566,6.71814,9.56299,-0.0319828,0.0145577,0.00133758,0.0145961,-0.0320212,1.54209,0.0275342,0.0470868,1665,1590,6.71809,-9.56302
448,-566,6.74609,9.45886,-0.0255972,0.00969425,0.00268101,0.00989676,-0.0257997,1.49541,0.0212802,0.0360264,1672,1590,6.74608,-9.45886
455,-566,6.63879,9.42749,-0.0200162,0.00550153,0.00362974,0.0060078,-0.0205224,1.43221,0.0160632,0.0242322,1679,1590,6.63882,-9.42751
462,-566,6.63257,9.33887,-0.0150678,0.00227993,0.00408201,0.00319244,-0.0159803,1.35087,0.0118618,0.0152225,1686,1590,6.63259,-9.33883
469,-566,6.61572,9.19373,-0.0111898,6.56435e-05,0.00426993,0.00150217,-0.0126263,1.24626,0.00896035,0.0131258,1693,1590,6.61574,-9.19369
476,-566,6.61401,9.04065,-0.0081108,-0.00163958,0.0040272,0.000290801,-0.0100412,1.12382,0.00679313,0.00995944,1700,1590,6.61401,-9.04069
483,-566,6.61646,8.9021,-0.00490465,-0.00342199,0.00404602,-4.99408e-05,-0.0082767,0.876006,0.00550123,0.00975561,1707,1590,6.6165,-8.90216
490,-566,6.60388,8.7439,-0.00251015,-0.00397466,0.00350904,0.000342217,-0.00682703,0.682536,0.00466961,0.0106845,1714,1590,6.60394,-8.74393
497,-566,6.62891,8.59729,-0.000777504,-0.00404982,0.00262617,0.000680489,-0.00550781,0.506811,0.00391845,0.0142092,1721,1590,6.62885,-8.59725
504,-566,6.65527,8.47803,0.000673458,-0.00350477,0.00134837,0.00107081,-0.00390212,0.286577,0.00302226,0.0181886,1728,1590,6.65531,-8.47804
511,-566,6.63574,8.31274,0.00189606,-0.00274525,0.000141962,0.0019004,-0.00274959,0.0305486,0.00269955,0.0174285,1735,1590,6.63576,-8.3127
518,-566,6.62134,8.15381,0.00307212,-0.00179196,-0.00121817,0.00336015,-0.00207998,-0.232176,0.00316972,0.011251,1742,1590,6.62131,-8.15383
525,-566,6.63513,7.97693,0.00422685,-0.000813879,-0.00269689,0.00539775,-0.00198478,-0.40961,0.00441152,0.0112402,1749,1590,6.63515,-7.97691
532,-566,6.64612,7.82056,0.00532601,0.000112858,-0.00418431,0.00764921,-0.00221034,-0.506839,0.00597414,0.0132921,1756,1590,6.64611,-7.82061
539,-566,6.63989,7.64294,0.00637925,0.00109313,-0.00575975,0.0100734,-0.00260104,-0.570289,0.00772991,0.0160864,1763,1590,6.63987,-7.64295
546,-566,6.66284,7.42688,0.00742008,0.00223979,-0.00751218,0.0127761,-0.00311624,-0.619384,0.00972405,0.0173693,1770,1590,6.66289,-7.42686
553,-566,6.67761,7.31616,0.00846054,0.00367089,-0.00923842,0.0156095,-0.00347805,-0.658577,0.0117387,0.0337392,1777,1590,6.67759,-7.3161
560,-566,6.59485,7.08752,0.00942289,0.00571696,-0.0111362,0.0188592,-0.00371934,-0.702958,0.0139785,0.045814,1784,1590,6.59483,-7.08754
567,-566,6.72192,6.7981,0,0,0,0,0,0,0,-1,1791,1590,6.72194,-6.79804
574,-566,7.99548,3.14514,0,0,0,0,0,0,0,-1,1798,1590,7.99543,-3.14511
581,-566,2.54102,5.1311,0,0,0,0,0,0,0,-1,1805,1590,2.54099,-5.13111
588,-566,-1.91321,8.39197,0,0,0,0,0,0,0,-1,1812,1590,-1.91316,-8.39199
595,-566,9.0271,4.66467,0,0,0,0,0,0,0,-1,1819,1590,9.02705,-4.66468
602,-566,5.41614,0.198242,0,0,0,0,0,0,0,-1,1826,1590,5.41619,-0.198251
609,-566,0,0,0,0,0,0,0,0,0,-1,1833,1590,0,0
616,-566,0,0,0,0,0,0,0,0,0,-1,1840,1590,0,0
623,-566,0,0,0,0,0,0,0,0,0,-1,1847,1590,0,0
630,-566,0,0,0,0,0,0,0,0,0,-1,1854,1590,0,0
637,-566,0,0,0,0,0,0,0,0,0,-1,1861,1590,0,0
644,-566,0,0,0,0,0,0,0,0,0,-1,1868,1590,0,0
651,-566,0,0,0,0,0,0,0,0,0,-1,1875,1590,0,0
658,-566,0,0,0,0,0,0,0,0,0,-1,1882,1590,0,0
665,-566,0,0,0,0,0,0,0,0,0,-1,1889,1590,0,0
672,-566,0,0,0,0,0,0,0,0,0,-1,1896,1590,0,0
679,-566,0,0,0,0,0,0,0,0,0,-1,1903,1590,0,0
686,-566,0,0,0,0,0,0,0,0,0,-1,1910,1590,0,0
693,-566,0,0,0,0,0,0,0,0,0,-1,1917,1590,0,0
700,-566,0,0,0,0,0,0,0,0,0,-1,1924,1590,0,0
707,-566,0,0,0,0,0,0,0,0,0,-1,1931,1590,0,0
714,-566,0,0,0,0,0,0,0,0,0,-1,1938,1590,0,0
721,-566,0,0,0,0,0,0,0,0,0,-1,1945,1590,0,0
728,-566,0,0,0,0,0,0,0,0,0,-1,1952,1590,0,0
735,-566,0,0,0,0,0,0,0,0,0,-1,1959,1590,0,0
742,-566,0,0,0,0,0,0,0,0,0,-1,1966,1590,0,0
749,-566,0,0,0,0,0,0,0,0,0,-1,1973,1590,0,0
756,-566,0,0,0,0,0,0,0,0,0,-1,1980,1590,0,0
763,-566,0,0,0,0,0,0,0,0,0,-1,1987,1590,0,0
770,-566,0,0,0,0,0,0,0,0,0,-1,1994,1590,0,0
777,-566,0,0,0,0,0,0,0,0,0,-1,2001,1590,0,0
784,-566,0,0,0,0,0,0,0,0,0,-1,2008,1590,0,0
791,-566,0,0,0,0,0,0,0,0,0,-1,2015,1590,0,0
798,-566,0,0,0,0,0,0,0,0,0,-1,2022,1590,0,0
805,-566,0,0,0,0,0,0,0,0,0,-1,2029,1590,0,0
812,-566,0,0,0,0,0,0,0,0,0,-1,2036,1590,0,0
-700,-573,0,0,0,0,0,0,0,0,0,-1,524,1597,0,0
-693,-573,0,0,0,0,0,0,0,0,0,-1,531,1597,0,0
-686,-573,0,0,0,0,0,0,0,0,0,-1,538,1597,0,0
-679,-573,0,0,0,0,0,0,0,0,0,-1,545,1597,0,0
-672,-573,0,0,0,0,0,0,0,0,0,-1,552,1597,0,0
-665,-573,0,0,0,0,0,0,0,0,0,-1,559,1597,0,0
-658,-573,0,0,0,0,0,0,0,0,0,-1,566,1597,0,0
-651,-573,0,0,0,0,0,0,0,0,0,-1,573,1597,0,0
-644,-573,0,0,0,0,0,0,0,0,0,-1,580,1597,0,0
-637,-573,0,0,0,0,0,0,0,0,0,-1,587,1597,0,0
-630,-573,0,0,0,0,0,0,0,0,0,-1,594,1597,0,0
-623,-573,0,0,0,0,0,0,0,0,0,-1,601,1597,0,0
-616,-573,0,0,0,0,0,0,0,0,0,-1,608,1597,0,0
-609,-573,0,0,0,0,0,0,0,0,0,-1,615,1597,0,0
-602,-573,0,0,0,0,0,0,0,0,0,-1,622,1597,0,0
-595,-573,0,0,0,0,0,0,0,0,0,-1,629,1597,0,0
-588,-573,0,0,0,0,0,0,0,0,0,-1,636,1597,0,0
-581,-573,0,0,0,0,0,0,0,0,0,-1,643,1597,0,0
-574,-573,0,0,0,0,0,0,0,0,0,-1,650,1597,0,0
-567,-573,0,0,0,0,0,0,0,0,0,-1,657,1597,0,0
-560,-573,0,0,0,0,0,0,0,0,0,-1,664,1597,0,0
-553,-573,0,0,0,0,0,0,0,0,0,-1,671,1597,0,0
-546,-573,0,0,0,0,0,0,0,0,0,-1,678,1597,0,0
-539,-573,0,0,0,0,0,0,0,0,0,-1,685,1597,0,0
-532,-573,0,0,0,0,0,0,0,0,0,-1,692,1597,0,0
-525,-573,0,0,0,0,0,0,0,0,0,-1,699,1597,0,0
-518,-573,0,0,0,0,0,0,0,0,0,-1,706,1597,0,0
-511,-573,0,0,0,0,0,0,0,0,0,-1,713,1597,0,0
-504,-573,0,0,0,0,0,0,0,0,0,-1,720,1597,0,0
-497,-573,0,0,0,0,0,0,0,0,0,-1,727,1597,0,0
-490,-573,0,0,0,0,0,0,0,0,0,-1,734,1597,0,0
-483,-573,0,0,0,0,0,0,0,0,0,-1,741,1597,0,0
-476,-573,0.575317,-3.46667,0,0,0,0,0,0,0,-1,748,1597,0.575345,3.46665
-469,-573,0.442993,-2.42017,0,0,0,0,0,0,0,-1,755,1597,0.443021,2.42022
-462,-573,0.567627,-0.94812,0,0,0,0,0,0,0,-1,762,1597,0.567615,0.948109
-455,-573,0.251038,-0.224243,0,0,0,0,0,0,0,-1,769,1597,0.251043,0.224257
-448,-573,-0.0567627,0.94812,0,0,0,0,0,0,0,-1,776,1597,-0.0567808,-0.948144
-441,-573,0.904968,4.8114,0,0,0,0,0,0,0,-1,783,1597,0.904962,-4.81144
-434,-573,1.0697,4.62976,0,0,0,0,0,0,0,-1,790,1597,1.06971,-4.62981
-427,-573,1.01257,5.12878,0,0,0,0,0,0,0,-1,797,1597,1.01257,-5.12873
-420,-573,0.955444,5.62769,0,0,0,0,0,0,0,-1,804,1597,0.955426,-5.62764
-413,-573,1.33008,6.09436,0.0242817,0.0526074,0.0362837,0.0773944,-0.000505283,0.971473,0.0517655,0.0317251,811,1597,1.33007,-6.09441
-406,-573,1.2923,6.33215,0.0185379,0.0427198,0.0289795,0.0620295,-0.000771843,0.983032,0.0416127,0.0161723,818,1597,1.29232,-6.33212
-399,-573,1.24945,6.54492,0.0134357,0.0335527,0.0224002,0.0480491,-0.0010606,0.996425,0.0323921,0.0107766,825,1597,1.24944,-6.54489
-392,-573,1.2655,6.71802,0.00927583,0.0253053,0.0166227,0.0357445,-0.0011634,1.01003,0.0242268,0.010995,832,1597,1.26548,-6.718
-385,-573,1.27148,6.9126,0.00613359,0.0183045,0.0118783,0.0255655,-0.00112738,1.02212,0.0174316,0.0139425,839,1597,1.27147,-6.91259
-378,-573,1.2547,7.09436,0.00381417,0.0128493,0.00821581,0.0177076,-0.0010442,1.03677,0.0121681,0.0155506,846,1597,1.25471,-7.09436
-371,-573,1.2561,7.26477,0.00228198,0.00858252,0.00549578,0.0117669,-0.000902402,1.04564,0.00816205,0.015561,853,1597,1.2561,-7.26473
-364,-573,1.26086,7.40845,0.000850463,0.00605696,0.00405967,0.00827634,-0.00136892,1.0705,0.00602592,0.0181675,860,1597,1.26089,-7.40842
-357,-573,1.26111,7.5614,-0.000816264,0.00411294,0.0029144,0.00546514,-0.00216846,1.13638,0.00454219,0.0209427,867,1597,1.26112,-7.56135
-350,-573,1.26355,7.76331,-0.00194843,0.0036381,0.00276706,0.00477662,-0.00308695,1.18045,0.00457484,0.0161313,874,1597,1.26355,-7.76332
-343,-573,1.25537,7.89832,-0.0027759,0.00440591,0.00312458,0.00557501,-0.003945,1.21276,0.00552317,0.0198657,881,1597,1.25539,-7.89836
-336,-573,1.2525,8.09229,-0.00308209,0.00570384,0.00389454,0.00718161,-0.00455986,1.20813,0.00683504,0.0163836,888,1597,1.25249,-8.09224
-329,-573,1.25458,8.26685,-0.00386964,0.00686433,0.00469977,0.00863123,-0.00563654,1.21119,0.00829776,0.0170486,895,1597,1.2546,-8.2669
-322,-573,1.26599,8.43958,-0.00489085,0.0081388,0.00524111,0.00998533,-0.00673737,1.23206,0.00971537,0.0123654,902,1597,1.26601,-8.43954
-315,-573,1.33344,8.59802,-0.00595425,0.00881189,0.00524042,0.0104826,-0.007625,1.26216,0.0104978,0.0175781,909,1597,1.33343,-8.59806
-308,-573,1.37708,8.64893,-0.00677004,0.00871005,0.00438919,0.00986794,-0.00792793,1.31287,0.0102948,0.025673,916,1597,1.37705,-8.64898
-301,-573,1.38245,8.73975,-0.00735149,0.0080409,0.00323512,0.0086932,-0.00800379,1.37183,0.00964275,0.02814,923,1597,1.38246,-8.73977
-294,-573,1.27289,8.95642,-0.00783663,0.00665598,0.00116965,0.00674977,-0.00793042,1.49078,0.00848474,0.0339082,930,1597,1.27291,-8.9564
-287,-573,1.50659,9.00989,-0.00263072,0.00573024,0.00540893,0.00838591,-0.00528638,1.11439,0.00796103,0.0446481,937,1597,1.5066,-9.00985
-280,-573,1.67017,9.08337,0,0,0,0,0,0,0,-1,944,1597,1.67015,-9.08342
-273,-573,-0.0268555,7.75781,0,0,0,0,0,0,0,-1,951,1597,-0.02685,-7.75777
-266,-573,1.31116,7.1814,0,0,0,0,0,0,0,-1,958,1597,1.31118,-7.18142
-259,-573,1.2514,6.70959,0,0,0,0,0,0,0,-1,965,1597,1.25137,-6.70965
-252,-573,2.07874,5.27161,0,0,0,0,0,0,0,-1,972,1597,2.07875,-5.27157
-245,-573,2.13226,5.96106,0,0,0,0,0,0,0,-1,979,1597,2.13224,-5.96108
-238,-573,2.42999,6.30286,0,0,0,0,0,0,0,-1,986,1597,2.42996,-6.30282
-231,-573,-6.48364,2.9845,0,0,0,0,0,0,0,-1,993,1597,-6.48362,-2.98454
-224,-573,-1.70654,6.53162,0,0,0,0,0,0,0,-1,1000,1597,-1.70652,-6.53167
-217,-573,-2.82971,6.44482,0,0,0,0,0,0,0,-1,1007,1597,-2.8297,-6.44482
-210,-573,-3.87952,6.33325,0,0,0,0,0,0,0,-1,1014,1597,-3.87951,-6.33325
-203,-573,-4.24072,6.9375,0,0,0,0,0,0,0,-1,1021,1597,-4.2407,-6.93749
-196,-573,-4.87726,6.96936,0,0,0,0,0,0,0,-1,1028,1597,-4.87723,-6.96935
-189,-573,-6.12915,6.66882,0,0,0,0,0,0,0,-1,1035,1597,-6.12913,-6.66884
-182,-573,0,0,0,0,0,0,0,0,0,-1,1042,1597,0,0
-175,-573,0,0,0,0,0,0,0,0,0,-1,1049,1597,0,0
-168,-573,0,0,0,0,0,0,0,0,0,-1,1056,1597,0,0
-161,-573,0,0,0,0,0,0,0,0,0,-1,1063,1597,0,0
-154,-573,0,0,0,0,0,0,0,0,0,-1,1070,1597,0,0
-147,-573,0,0,0,0,0,0,0,0,0,-1,1077,1597,0,0
-140,-573,0,0,0,0,0,0,0,0,0,-1,1084,1597,0,0
-133,-573,0,0,0,0,0,0,0,0,0,-1,1091,1597,0,0
-126,-573,0,0,0,0,0,0,0,0,0,-1,1098,1597,0,0
-119,-573,0,0,0,0,0,0,0,0,0,-1,1105,1597,0,0
-112,-573,0,0,0,0,0,0,0,0,0,-1,1112,1597,0,0
-105,-573,0,0,0,0,0,0,0,0,0,-1,1119,1597,0,0
-98,-573,0,0,0,0,0,0,0,0,0,-1,1126,1597,0,0
-91,-573,0,0,0,0,0,0,0,0,0,-1,1133,1597,0,0
-84,-573,0,0,0,0,0,0,0,0,0,-1,1140,1597,0,0
-77,-573,0,0,0,0,0,0,0,0,0,-1,1147,1597,0,0
-70,-573,0,0,0,0,0,0,0,0,0,-1,1154,1597,0,0
-63,-573,0,0,0,0,0,0,0,0,0,-1,1161,1597,0,0
-56,-573,0,0,0,0,0,0,0,0,0,-1,1168,1597,0,0
-49,-573,0,0,0,0,0,0,0,0,0,-1,1175,1597,0,0
-42,-573,0,0,0,0,0,0,0,0,0,-1,1182,1597,0,0
-35,-573,0,0,0,0,0,0,0,0,0,-1,1189,1597,0,0
-28,-573,0,0,0,0,0,0,0,0,0,-1,1196,1597,0,0
-21,-573,0,0,0,0,0,0,0,0,0,-1,1203,1597,0,0
-14,-573,0,0,0,0,0,0,0,0,0,-1,1210,1597,0,0
-7,-573,0,0,0,0,0,0,0,0,0,-1,1217,1597,0,0
0,-573,0,0,0,0,0,0,0,0,0,-1,1224,1597,0,0
7,-573,0,0,0,0,0,0,0,0,0,-1,1231,1597,0,0
14,-573,0,0,0,0,0,0,0,0,0,-1,1238,1597,0,0
21,-573,0,0,0,0,0,0,0,0,0,-1,1245,1597,0,0
28,-573,0,0,0,0,0,0,0,0,0,-1,1252,1597,0,0
35,-573,0,0,0,0,0,0,0,0,0,-1,1259,1597,0,0
42,-573,0,0,0,0,0,0,0,0,0,-1,1266,1597,0,0
49,-573,0,0,0,0,0,0,0,0,0,-1,1273,1597,0,0
56,-573,0,0,0,0,0,0,0,0,0,-1,1280,1597,0,0
63,-573,0,0,0,0,0,0,0,0,0,-1,1287,1597,0,0
70,-573,0,0,0,0,0,0,0,0,0,-1,1294,1597,0,0
77,-573,0,0,0,0,0,0,0,0,0,-1,1301,1597,0,0
84,-573,0,0,0,0,0,0,0,0,0,-1,1308,1597,0,0
91,-573,0,0,0,0,0,0,0,0,0,-1,1315,1597,0,0
98,-573,0,0,0,0,0,0,0,0,0,-1,1322,1597,0,0
105,-573,0,0,0,0,0,0,0,0,0,-1,1329,1597,0,0
112,-573,0,0,0,0,0,0,0,0,0,-1,1336,1597,0,0
119,-573,0,0,0,0,0,0,0,0,0,-1,1343,1597,0,0
126,-573,0,0,0,0,0,0,0,0,0,-1,1350,1597,0,0
133,-573,0,0,0,0,0,0,0,0,0,-1,1357,1597,0,0
140,-573,0,0,0,0,0,0,0,0,0,-1,1364,1597,0,0
147,-573,0,0,0,0,0,0,0,0,0,-1,1371,1597,0,0
154,-573,0,0,0,0,0,0,0,0,0,-1,1378,1597,0,0
161,-573,0,0,0,0,0,0,0,0,0,-1,1385,1597,0,0
168,-573,0,0,0,0,0,0,0,0,0,-1,1392,1597,0,0
175,-573,0,0,0,0,0,0,0,0,0,-1,1399,1597,0,0
182,-573,0,0,0,0,0,0,0,0,0,-1,1406,1597,0,0
189,-573,0,0,0,0,0,0,0,0,0,-1,1413,1597,0,0
196,-573,0,0,0,0,0,0,0,0,0,-1,1420,1597,0,0
203,-573,0,0,0,0,0,0,0,0,0,-1,1427,1597,0,0
210,-573,0,0,0,0,0,0,0,0,0,-1,1434,1597,0,0
217,-573,0,0,0,0,0,0,0,0,0,-1,1441,1597,0,0
224,-573,0,0,0,0,0,0,0,0,0,-1,1448,1597,0,0
231,-573,0,0,0,0,0,0,0,0,0,-1,1455,1597,0,0
238,-573,0,0,0,0,0,0,0,0,0,-1,1462,1597,0,0
245,-573,0,0,0,0,0,0,0,0,0,-1,1469,1597,0,0
252,-573,0,0,0,0,0,0,0,0,0,-1,1476,1597,0,0
259,-573,0,0,0,0,0,0,0,0,0,-1,1483,1597,0,0
266,-573,0,0,0,0,0,0,0,0,0,-1,1490,1597,0,0
273,-573,0,0,0,0,0,0,0,0,0,-1,1497,1597,0,0
280,-573,0,0,0,0,0,0,0,0,0,-1,1504,1597,0,0
287,-573,0,0,0,0,0,0,0,0,0,-1,1511,1597,0,0
294,-573,0,0,0,0,0,0,0,0,0,-1,1518,1597,0,0
301,-573,0,0,0,0,0,0,0,0,0,-1,1525,1597,0,0
308,-573,9.99329,6.14063,0,0,0,0,0,0,0,-1,1532,1597,9.99331,-6.14065
315,-573,10.5015,6.63318,0,0,0,0,0,0,0,-1,1539,1597,10.5014,-6.63316
322,-573,10.3269,7.77563,0,0,0,0,0,0,0,-1,1546,1597,10.327,-7.77565
329,-573,4.72656,3.18127,0,0,0,0,0,0,0,-1,1553,1597,4.72656,-3.18128
336,-573,4.85693,2.53455,0,0,0,0,0,0,0,-1,1560,1597,4.8569,-2.53459
343,-573,4.11877,0.735596,0,0,0,0,0,0,0,-1,1567,1597,4.11878,-0.735585
350,-573,2.53748,1.56433,0,0,0,0,0,0,0,-1,1574,1597,2.53753,-1.5643
357,-573,7.40247,4.03613,0,0,0,0,0,0,0,-1,1581,1597,7.40244,-4.03614
364,-573,7.14551,3.02087,0,0,0,0,0,0,0,-1,1588,1597,7.14556,-3.02084
371,-573,6.88867,2.00549,0,0,0,0,0,0,0,-1,1595,1597,6.88868,-2.00553
378,-573,8.62012,6.09106,0,0,0,0,0,0,0,-1,1602,1597,8.62012,-6.09103
385,-573,6.54346,-0.951904,0,0,0,0,0,0,0,-1,1609,1597,6.54349,0.951901
392,-573,6.41833,-2.18225,0,0,0,0,0,0,0,-1,1616,1597,6.41831,2.18228
399,-573,4.26282,4.73657,0,0,0,0,0,0,0,-1,1623,1597,4.26285,-4.73652
406,-573,7.94287,10.1204,0,0,0,0,0,0,0,-1,1630,1597,7.94283,-10.1204
413,-573,6.82227,9.42517,0,0,0,0,0,0,0,-1,1637,1597,6.82232,-9.42517
420,-573,7.48108,9.80811,0,0,0,0,0,0,0,-1,1644,1597,7.48104,-9.80815
427,-573,6.49048,9.26294,0,0,0,0,0,0,0,-1,1651,1597,6.49044,-9.26293
434,-573,6.43396,9.48352,-0.0286956,0.0114051,0.00222774,0.0115285,-0.028819,1.51547,0.023997,0.0417782,1658,1597,6.43391,-9.48354
441,-573,6.45959,9.64612,-0.0235601,0.00839834,0.00276775,0.00863627,-0.023798,1.48504,0.0193959,0.0281138,1665,1597,6.45958,-9.64617
448,-573,6.46313,9.61108,-0.01895,0.00569987,0.0031826,0.00610415,-0.0193543,1.44444,0.0153477,0.0167163,1672,1597,6.46308,-9.61113
455,-573,6.45935,9.47437,-0.0149222,0.00338373,0.00337768,0.00398706,-0.0155255,1.39403,0.0119041,0.01432,1679,1597,6.45931,-9.47442
462,-573,6.47644,9.33179,-0.0112381,0.00160421,0.00329551,0.0024005,-0.0120344,1.33371,0.00893129,0.0180052,1686,1597,6.47642,-9.33174
469,-573,6.4751,9.19604,-0.00836266,0.000454289,0.00312892,0.00145181,-0.00936018,1.26218,0.0067761,0.0157204,1693,1597,6.47511,-9.19607
476,-573,6.48462,9.03613,-0.00608141,-0.000554452,0.00269638,0.000543063,-0.00717893,1.18424,0.00497686,0.0137655,1700,1597,6.48456,-9.03609
483,-573,6.47644,8.88831,-0.00358869,-0.0017837,0.00253859,8.04709e-06,-0.00538044,0.956185,0.00358964,0.0107819,1707,1597,6.47649,-8.88827
490,-573,6.44275,8.75073,-0.00150927,-0.00211487,0.0019572,0.000168413,-0.00379256,0.708652,0.00258634,0.0102243,1714,1597,6.44272,-8.75072
497,-573,6.47327,8.59241,0.000125932,-0.00221514,0.00109274,0.000556716,-0.00264593,0.375518,0.00197584,0.0152344,1721,1597,6.47324,-8.59243
504,-573,6.49121,8.46643,0.00155223,-0.00187136,-0.00011846,0.00155633,-0.00187545,-0.0345462,0.00198419,0.0160276,1728,1597,6.49118,-8.46643
511,-573,6.47656,8.32471,0.00288009,-0.00145034,-0.00121163,0.00319605,-0.0017663,-0.255088,0.00290438,0.0172738,1735,1597,6.47658,-8.32474
518,-573,6.47644,8.16309,0.00430357,-0.00096089,-0.00250463,0.00530477,-0.00196209,-0.380282,0.00434096,0.0132959,1742,1597,6.47643,-8.16307
525,-573,6.49597,7.99463,0.00579612,-0.00048001,-0.00397533,0.0077227,-0.00240659,-0.451281,0.00611073,0.0162797,1749,1597,6.49595,-7.99468
532,-573,6.50171,7.82031,0.0073476,6.55195e-05,-0.00561088,0.0103953,-0.00298217,-0.497589,0.00810914,0.0151066,1756,1597,6.50169,-7.82035
539,-573,6.4696,7.66162,0.00892898,0.000790313,-0.0074845,0.0133789,-0.00365958,-0.536401,0.0103569,0.0180726,1763,1597,6.46963,-7.66159
546,-573,6.51917,7.45276,0.0105473,0.00174217,-0.00970859,0.0168049,-0.00451545,-0.57253,0.0129731,0.0280515,1770,1597,6.51913,-7.45272
553,-573,6.39856,7.08325,0.012181,0.00329585,-0.0120807,0.0206101,-0.00513321,-0.609202,0.0157328,0.0451813,1777,1597,6.39852,-7.08324
560,-573,6.43713,6.74646,0,0,0,0,0,0,0,-1,1784,1597,6.43715,-6.74641
567,-573,4.99597,2.77759,0,0,0,0,0,0,0,-1,1791,1597,4.99596,-2.7776
574,-573,0.83374,5.7041,0,0,0,0,0,0,0,-1,1798,1597,0.833718,-5.70405
581,-573,-0.224854,7.41602,0,0,0,0,0,0,0,-1,1805,1597,-0.224904,-7.41596
588,-573,-0.134033,7.67065,0,0,0,0,0,0,0,-1,1812,1597,-0.134037,-7.67063
595,-573,-0.0825195,8.35083,0,0,0,0,0,0,0,-1,1819,1597,-0.0824684,-8.35088
602,-573,0,0,0,0,0,0,0,0,0,-1,1826,1597,0,0
609,-573,0,0,0,0,0,0,0,0,0,-1,1833,1597,0,0
616,-573,0,0,0,0,0,0,0,0,0,-1,1840,1597,0,0
623,-573,0,0,0,0,0,0,0,0,0,-1,1847,1597,0,0
630,-573,0,0,0,0,0,0,0,0,0,-1,1854,1597,0,0
637,-573,0,0,0,0,0,0,0,0,0,-1,1861,1597,0,0
644,-573,0,0,0,0,0,0,0,0,0,-1,1868,1597,0,0
651,-573,0,0,0,0,0,0,0,0,0,-1,1875,1597,0,0
658,-573,0,0,0,0,0,0,0,0,0,-1,1882,1597,0,0
665,-573,0,0,0,0,0,0,0,0,0,-1,1889,1597,0,0
672,-573,0,0,0,0,0,0,0,0,0,-1,1896,1597,0,0
679,-573,0,0,0,0,0,0,0,0,0,-1,1903,1597,0,0
686,-573,0,0,0,0,0,0,0,0,0,-1,1910,1597,0,0
693,-573,0,0,0,0,0,0,0,0,0,-1,1917,1597,0,0
700,-573,0,0,0,0,0,0,0,0,0,-1,1924,1597,0,0
707,-573,0,0,0,0,0,0,0,0,0,-1,1931,1597,0,0
714,-573,0,0,0,0,0,0,0,0,0,-1,1938,1597,0,0
721,-573,0,0,0,0,0,0,0,0,0,-1,1945,1597,0,0
728,-573,0,0,0,0,0,0,0,0,0,-1,1952,1597,0,0
735,-573,0,0,0,0,0,0,0,0,0,-1,1959,1597,0,0
742,-573,0,0,0,0,0,0,0,0,0,-1,1966,1597,0,0
749,-573,0,0,0,0,0,0,0,0,0,-1,1973,1597,0,0
756,-573,0,0,0,0,0,0,0,0,0,-1,1980,1597,0,0
763,-573,0,0,0,0,0,0,0,0,0,-1,1987,1597,0,0
770,-573,0,0,0,0,0,0,0,0,0,-1,1994,1597,0,0
777,-573,0,0,0,0,0,0,0,0,0,-1,2001,1597,0,0
784,-573,0,0,0,0,0,0,0,0,0,-1,2008,1597,0,0
791,-573,0,0,0,0,0,0,0,0,0,-1,2015,1597,0,0
798,-573,0,0,0,0,0,0,0,0,0,-1,2022,1597,0,0
805,-573,0,0,0,0,0,0,0,0,0,-1,2029,1597,0,0
812,-573,0,0,0,0,0,0,0,0,0,-1,2036,1597,0,0
-700,-580,0,0,0,0,0,0,0,0,0,-1,524,1604,0,0
-693,-580,0,0,0,0,0,0,0,0,0,-1,531,1604,0,0
-686,-580,0,0,0,0,0,0,0,0,0,-1,538,1604,0,0
-679,-580,0,0,0,0,0,0,0,0,0,-1,545,1604,0,0
-672,-580,0,0,0,0,0,0,0,0,0,-1,552,1604,0,0
-665,-580,0,0,0,0,0,0,0,0,0,-1,559,1604,0,0
-658,-580,0,0,0,0,0,0,0,0,0,-1,566,1604,0,0
-651,-580,0,0,0,0,0,0,0,0,0,-1,573,1604,0,0
-644,-580,0,0,0,0,0,0,0,0,0,-1,580,1604,0,0
-637,-580,0,0,0,0,0,0,0,0,0,-1,587,1604,0,0
-630,-580,0,0,0,0,0,0,0,0,0,-1,594,1604,0,0
-623,-580,0,0,0,0,0,0,0,0,0,-1,601,1604,0,0
-616,-580,0,0,0,0,0,0,0,0,0,-1,608,1604,0,0
-609,-580,0,0,0,0,0,0,0,0,0,-1,615,1604,0,0
-602,-580,0,0,0,0,0,0,0,0,0,-1,622,1604,0,0
-595,-580,0,0,0,0,0,0,0,0,0,-1,629,1604,0,0
-588,-580,0,0,0,0,0,0,0,0,0,-1,636,1604,0,0
-581,-580,0,0,0,0,0,0,0,0,0,-1,643,1604,0,0
-574,-580,0,0,0,0,0,0,0,0,0,-1,650,1604,0,0
-567,-580,0,0,0,0,0,0,0,0,0,-1,657,1604,0,0
-560,-580,0,0,0,0,0,0,0,0,0,-1,664,1604,0,0
-553,-580,0,0,0,0,0,0,0,0,0,-1,671,1604,0,0
-546,-580,0,0,0,0,0,0,0,0,0,-1,678,1604,0,0
-539,-580,0,0,0,0,0,0,0,0,0,-1,685,1604,0,0
-532,-580,0,0,0,0,0,0,0,0,0,-1,692,1604,0,0
-525,-580,0,0,0,0,0,0,0,0,0,-1,699,1604,0,0
-518,-580,0,0,0,0,0,0,0,0,0,-1,706,1604,0,0
-511,-580,0,0,0,0,0,0,0,0,0,-1,713,1604,0,0
-504,-580,0,0,0,0,0,0,0,0,0,-1,720,1604,0,0
-497,-580,0,0,0,0,0,0,0,0,0,-1,727,1604,0,0
-490,-580,0,0,0,0,0,0,0,0,0,-1,734,1604,0,0
-483,-580,0,0,0,0,0,0,0,0,0,-1,741,1604,0,0
-476,-580,0,0,0,0,0,0,0,0,0,-1,748,1604,0,0
-469,-580,-0.21991,-4.12134,0,0,0,0,0,0,0,-1,755,1604,-0.219925,4.12132
-462,-580,-0.0943604,-2.85596,0,0,0,0,0,0,0,-1,762,1604,-0.0943662,2.85593
-455,-580,-0.325317,-1.68933,0,0,0,0,0,0,0,-1,769,1604,-0.325308,1.68934
-448,-580,-0.556274,-0.522705,0,0,0,0,0,0,0,-1,776,1604,-0.556249,0.522746
-441,-580,-2.28229,4.87183,0,0,0,0,0,0,0,-1,783,1604,-2.28231,-4.87186
-434,-580,-1.508,6.62341,0,0,0,0,0,0,0,-1,790,1604,-1.50798,-6.62347
-427,-580,0.801636,4.72095,0,0,0,0,0,0,0,-1,797,1604,0.80164,-4.72097
-420,-580,1.18829,5.0802,0,0,0,0,0,0,0,-1,804,1604,1.1883,-5.08023
-413,-580,1.48956,5.51453,0,0,0,0,0,0,0,-1,811,1604,1.48958,-5.51451
-406,-580,1.79083,5.94873,0,0,0,0,0,0,0,-1,818,1604,1.79086,-5.94879
-399,-580,1.43988,6.55518,0.0199277,0.0505249,0.0340291,0.0725362,-0.00208354,0.996648,0.0490667,0.0161652,825,1604,1.43988,-6.55516
-392,-580,1.43115,6.73035,0.0137358,0.037798,0.0251705,0.053665,-0.00213117,1.00834,0.0365078,0.0112543,832,1604,1.43113,-6.7303
-385,-580,1.44879,6.91028,0.00903532,0.0271165,0.0179103,0.0381386,-0.00198672,1.01913,0.0261132,0.0119349,839,1604,1.44877,-6.91024
-378,-580,1.44855,7.0918,0.00557662,0.0186089,0.0122772,0.025992,-0.00180649,1.02937,0.0179605,0.0150786,846,1604,1.44857,-7.09181
-371,-580,1.43927,7.26917,0.00323371,0.0121625,0.00813224,0.0169752,-0.00157898,1.03643,0.0118781,0.0132731,853,1604,1.43928,-7.26921
-364,-580,1.39612,7.41504,0.00148488,0.00790946,0.00549006,0.0110579,-0.00166361,1.0501,0.00798448,0.0182621,860,1604,1.39614,-7.41508
-357,-580,1.42285,7.56958,-0.000367302,0.00426957,0.00321648,0.00591609,-0.00201383,1.09767,0.00475954,0.0135403,867,1604,1.42285,-7.56952
-350,-580,1.4364,7.7688,-0.00150764,0.00257121,0.00222652,0.00355117,-0.00248759,1.15618,0.00350446,0.010434,874,1604,1.4364,-7.76875
-343,-580,1.43256,7.93018,-0.00204018,0.00258861,0.00214679,0.00343097,-0.00288255,1.19687,0.00364969,0.0107478,881,1604,1.43254,-7.93023
-336,-580,1.39441,8.05359,-0.00197059,0.00348806,0.00267862,0.0045829,-0.00306543,1.18278,0.00444464,0.0184868,888,1604,1.39439,-8.05355
-329,-580,1.41449,8.27014,-0.0022266,0.0041773,0.00321176,0.00551054,-0.00355983,1.17733,0.00527699,0.0177131,895,1604,1.4145,-8.2701
-322,-580,1.41632,8.43494,-0.00265926,0.00498537,0.00345837,0.0063177,-0.0039916,1.20307,0.00600237,0.0170661,902,1604,1.41633,-8.43493
-315,-580,1.43091,8.59973,-0.00317803,0.00525484,0.0032318,0.00635093,-0.00427411,1.24381,0.00617331,0.0132663,909,1604,1.43091,-8.5997
-308,-580,1.46552,8.78174,-0.00355088,0.00481264,0.00226383,0.00538609,-0.00412433,1.3227,0.00550693,0.0155066,916,1604,1.46554,-8.78175
-301,-580,1.50818,8.88599,-0.00376724,0.00395897,0.00115513,0.00412798,-0.00393624,1.42552,0.00465632,0.0140568,923,1604,1.50818,-8.88597
-294,-580,1.50867,8.98523,-0.00396177,0.00253784,-0.000639404,0.00260015,-0.00402407,-1.47366,0.00385383,0.0188198,930,1604,1.50868,-8.98528
-287,-580,1.58179,9.04211,-0.000790386,0.00137276,0.0013555,0.00202531,-0.00144294,1.12213,0.00201178,0.0393599,937,1604,1.58176,-9.04211
-280,-580,1.59351,9.03723,0.0054119,3.88637e-05,0.00669931,0.00994329,-0.00449252,0.594708,0.00853026,0.0467522,944,1604,1.59353,-9.03729
-273,-580,1.46832,9.09778,0,0,0,0,0,0,0,-1,951,1604,1.4683,-9.09776
-266,-580,0.494202,8.78955,0,0,0,0,0,0,0,-1,958,1604,0.494174,-8.78958
-259,-580,0.39209,8.62146,0,0,0,0,0,0,0,-1,965,1604,0.39208,-8.62152
-252,-580,0.0690918,8.45166,0,0,0,0,0,0,0,-1,972,1604,0.0690769,-8.4517
-245,-580,2.16681,7.00159,0,0,0,0,0,0,0,-1,979,1604,2.16683,-7.00159
-238,-580,2.43573,7.30139,0,0,0,0,0,0,0,-1,986,1604,2.43574,-7.30136
-231,-580,2.76239,7.60425,0,0,0,0,0,0,0,-1,993,1604,2.76239,-7.60425
-224,-580,-0.143555,8.20032,0,0,0,0,0,0,0,-1,1000,1604,-0.143569,-8.20038
-217,-580,-1.16901,8.09973,0,0,0,0,0,0,0,-1,1007,1604,-1.16898,-8.09973
-210,-580,-2.21912,7.97131,0,0,0,0,0,0,0,-1,1014,1604,-2.21915,-7.97136
-203,-580,-3.01923,7.66492,0,0,0,0,0,0,0,-1,1021,1604,-3.01924,-7.66493
-196,-580,-3.65857,7.91418,0,0,0,0,0,0,0,-1,1028,1604,-3.65863,-7.9142
-189,-580,-4.58252,7.59058,0,0,0,0,0,0,0,-1,1035,1604,-4.58256,-7.59057
-182,-580,-5.45874,7.65942,0,0,0,0,0,0,0,-1,1042,1604,-5.45876,-7.65939
-175,-580,-6.38977,7.55005,0,0,0,0,0,0,0,-1,1049,1604,-6.38981,-7.5501
-168,-580,0,0,0,0,0,0,0,0,0,-1,1056,1604,0,0
-161,-580,0,0,0,0,0,0,0,0,0,-1,1063,1604,0,0
-154,-580,0,0,0,0,0,0,0,0,0,-1,1070,1604,0,0
-147,-580,0,0,0,0,0,0,0,0,0,-1,1077,1604,0,0
-140,-580,0,0,0,0,0,0,0,0,0,-1,1084,1604,0,0
-133,-580,0,0,0,0,0,0,0,0,0,-1,1091,1604,0,0
-126,-580,0,0,0,0,0,0,0,0,0,-1,1098,1604,0,0
-119,-580,0,0,0,0,0,0,0,0,0,-1,1105,1604,0,0
-112,-580,0,0,0,0,0,0,0,0,0,-1,1112,1604,0,0
-105,-580,0,0,0,0,0,0,0,0,0,-1,1119,1604,0,0
-98,-580,0,0,0,0,0,0,0,0,0,-1,1126,1604,0,0
-91,-580,0,0,0,0,0,0,0,0,0,-1,1133,1604,0,0
-84,-580,0,0,0,0,0,0,0,0,0,-1,1140,1604,0,0
-77,-580,0,0,0,0,0,0,0,0,0,-1,1147,1604,0,0
-70,-580,0,0,0,0,0,0,0,0,0,-1,1154,1604,0,0
-63,-580,0,0,0,0,0,0,0,0,0,-1,1161,1604,0,0
-56,-580,0,0,0,0,0,0,0,0,0,-1,1168,1604,0,0
-49,-580,0,0,0,0,0,0,0,0,0,-1,1175,1604,0,0
-42,-580,0,0,0,0,0,0,0,0,0,-1,1182,1604,0,0
-35,-580,0,0,0,0,0,0,0,0,0,-1,1189,1604,0,0
-28,-580,0,0,0,0,0,0,0,0,0,-1,1196,1604,0,0
-21,-580,0,0,0,0,0,0,0,0,0,-1,1203,1604,0,0
-14,-580,0,0,0,0,0,0,0,0,0,-1,1210,1604,0,0
-7,-580,0,0,0,0,0,0,0,0,0,-1,1217,1604,0,0
0,-580,0,0,0,0,0,0,0,0,0,-1,1224,1604,0,0
7,-580,0,0,0,0,0,0,0,0,0,-1,1231,1604,0,0
14,-580,0,0,0,0,0,0,0,0,0,-1,1238,1604,0,0
21,-580,0,0,0,0,0,0,0,0,0,-1,1245,1604,0,0
28,-580,0,0,0,0,0,0,0,0,0,-1,1252,1604,0,0
35,-580,0,0,0,0,0,0,0,0,0,-1,1259,1604,0,0
42,-580,0,0,0,0,0,0,0,0,0,-1,1266,1604,0,0
49,-580,0,0,0,0,0,0,0,0,0,-1,1273,1604,0,0
56,-580,0,0,0,0,0,0,0,0,0,-1,1280,1604,0,0
63,-580,0,0,0,0,0,0,0,0,0,-1,1287,1604,0,0
70,-580,0,0,0,0,0,0,0,0,0,-1,1294,1604,0,0
77,-580,0,0,0,0,0,0,0,0,0,-1,1301,1604,0,0
84,-580,0,0,0,0,0,0,0,0,0,-1,1308,1604,0,0
91,-580,0,0,0,0,0,0,0,0,0,-1,1315,1604,0,0
98,-580,0,0,0,0,0,0,0,0,0,-1,1322,1604,0,0
105,-580,0,0,0,0,0,0,0,0,0,-1,1329,1604,0,0
112,-580,0,0,0,0,0,0,0,0,0,-1,1336,1604,0,0
119,-580,0,0,0,0,0,0,0,0,0,-1,1343,1604,0,0
126,-580,0,0,0,0,0,0,0,0,0,-1,1350,1604,0,0
133,-580,0,0,0,0,0,0,0,0,0,-1,1357,1604,0,0
140,-580,0,0,0,0,0,0,0,0,0,-1,1364,1604,0,0
147,-580,0,0,0,0,0,0,0,0,0,-1,1371,1604,0,0
154,-580,0,0,0,0,0,0,0,0,0,-1,1378,1604,0,0
161,-580,0,0,0,0,0,0,0,0,0,-1,1385,1604,0,0
168,-580,0,0,0,0,0,0,0,0,0,-1,1392,1604,0,0
175,-580,0,0,0,0,0,0,0,0,0,-1,1399,1604,0,0
182,-580,0,0,0,0,0,0,0,0,0,-1,1406,1604,0,0
189,-580,0,0,0,0,0,0,0,0,0,-1,1413,1604,0,0
196,-580,0,0,0,0,0,0,0,0,0,-1,1420,1604,0,0
203,-580,0,0,0,0,0,0,0,0,0,-1,1427,1604,0,0
210,-580,0,0,0,0,0,0,0,0,0,-1,1434,1604,0,0
217,-580,0,0,0,0,0,0,0,0,0,-1,1441,1604,0,0
224,-580,0,0,0,0,0,0,0,0,0,-1,1448,1604,0,0
231,-580,0,0,0,0,0,0,0,0,0,-1,1455,1604,0,0
238,-580,0,0,0,0,0,0,0,0,0,-1,1462,1604,0,0
245,-580,0,0,0,0,0,0,0,0,0,-1,1469,1604,0,0
252,-580,0,0,0,0,0,0,0,0,0,-1,1476,1604,0,0
259,-580,0,0,0,0,0,0,0,0,0,-1,1483,1604,0,0
266,-580,0,0,0,0,0,0,0,0,0,-1,1490,1604,0,0
273,-580,0,0,0,0,0,0,0,0,0,-1,1497,1604,0,0
280,-580,0,0,0,0,0,0,0,0,0,-1,1504,1604,0,0
287,-580,0,0,0,0,0,0,0,0,0,-1,1511,1604,0,0
294,-580,4.0437,0.177368,0,0,0,0,0,0,0,-1,1518,1604,4.04369,-0.177371
301,-580,4.89465,1.3446,0,0,0,0,0,0,0,-1,1525,1604,4.89467,-1.34463
308,-580,5.5979,4.69128,0,0,0,0,0,0,0,-1,1532,1604,5.59784,-4.69123
315,-580,10.5341,6.62097,0,0,0,0,0,0,0,-1,1539,1604,10.5341,-6.62096
322,-580,10.2366,7.50281,0,0,0,0,0,0,0,-1,1546,1604,10.2366,-7.50282
329,-580,10.5962,8.69641,0,0,0,0,0,0,0,-1,1553,1604,10.5962,-8.69642
336,-580,3.66431,1.58862,0,0,0,0,0,0,0,-1,1560,1604,3.6643,-1.58864
343,-580,3.32227,1.39636,0,0,0,0,0,0,0,-1,1567,1604,3.32222,-1.39633
350,-580,8.71277,4.0564,0,0,0,0,0,0,0,-1,1574,1604,8.71271,-4.05638
357,-580,8.52332,3.08154,0,0,0,0,0,0,0,-1,1581,1604,8.52332,-3.08157
364,-580,8.25818,2.07605,0,0,0,0,0,0,0,-1,1588,1604,8.25812,-2.07608
371,-580,7.42114,7.14282,0,0,0,0,0,0,0,-1,1595,1604,7.42119,-7.14281
378,-580,7.9718,6.6731,0,0,0,0,0,0,0,-1,1602,1604,7.9718,-6.67307
385,-580,8.52246,6.20337,0,0,0,0,0,0,0,-1,1609,1604,8.52241,-6.20334
392,-580,6.5498,-2.15625,0,0,0,0,0,0,0,-1,1616,1604,6.54984,2.15626
399,-580,7.2384,10.813,0,0,0,0,0,0,0,-1,1623,1604,7.23844,-10.813
406,-580,7.32739,10.3219,-0.0358876,0.0100592,0.00270179,0.0102175,-0.0360459,1.51226,0.0280635,0.0479249,1630,1604,7.32736,-10.3219
413,-580,6.55017,9.76819,-0.0318773,0.00918948,0.00304106,0.00941346,-0.0321013,1.49728,0.0251333,0.0470368,1637,1604,6.5502,-9.7682
420,-580,6.802,9.9176,-0.0279008,0.00794226,0.0033466,0.00825205,-0.0282106,1.47849,0.0220779,0.0425703,1644,1604,6.802,-9.91761
427,-580,6.66699,9.83228,-0.0242269,0.00670812,0.00358542,0.00711823,-0.024637,1.45691,0.0192415,0.034532,1651,1604,6.66695,-9.83225
434,-580,6.34692,9.74731,-0.0204543,0.00559513,0.00352249,0.00606305,-0.0209222,1.43873,0.0163483,0.0254412,1658,1604,6.34693,-9.74728
441,-580,6.28711,9.71936,-0.016845,0.00415889,0.00339491,0.00469399,-0.0173801,1.41447,0.0134277,0.0120653,1665,1604,6.28716,-9.71939
448,-580,6.30151,9.59827,-0.013579,0.00289848,0.00320508,0.00349996,-0.0141805,1.38529,0.0108108,0.0111422,1672,1604,6.30146,-9.5983
455,-580,6.31165,9.45947,-0.0107038,0.00183002,0.00291636,0.00247537,-0.0113492,1.35302,0.00851209,0.0182277,1679,1604,6.3117,-9.45945
462,-580,6.31274,9.3252,-0.00798615,0.00103735,0.00248047,0.00167425,-0.00862305,1.31946,0.00638043,0.0220564,1686,1604,6.3128,-9.32523
469,-580,6.31067,9.19336,-0.00587171,0.000665175,0.00206022,0.00126031,-0.00646685,1.28958,0.00478696,0.0189934,1693,1604,6.31072,-9.19335
476,-580,6.33801,9.02783,-0.00419266,0.000189789,0.00149301,0.000650083,-0.00465295,1.27174,0.00333982,0.0142326,1700,1604,6.338,-9.0278
483,-580,6.31909,8.88696,-0.00226198,-0.000611412,0.00120029,1.99368e-05,-0.00289333,1.08657,0.00193557,0.0119781,1707,1604,6.31904,-8.88694
490,-580,6.28528,8.75293,-0.000411348,-0.000754893,0.000570493,1.26715e-05,-0.00117891,0.639167,0.000790199,0.014001,1714,1604,6.28525,-8.7529
497,-580,6.29443,8.59241,0.0011829,-0.000851168,-0.000288004,0.00122289,-0.00089116,-0.137977,0.00122555,0.0114814,1721,1604,6.29443,-8.59243
504,-580,6.30847,8.43896,0.00263822,-0.000651668,-0.00145345,0.00318835,-0.0012018,-0.361837,0.00261973,0.0162809,1728,1604,6.30842,-8.43894
511,-580,6.31738,8.32471,0.0041297,-0.00050058,-0.00247505,0.00520362,-0.0015745,-0.409384,0.00409606,0.0161518,1735,1604,6.31738,-8.32474
518,-580,6.33716,8.15881,0.00586792,-0.000422509,-0.00374023,0.00760959,-0.00216419,-0.4358,0.00592764,0.0144634,1742,1604,6.33721,-8.15883
525,-580,6.34058,7.97644,0.00780025,-0.000410631,-0.0052502,0.0103596,-0.00296997,-0.453577,0.00808041,0.0163537,1749,1604,6.34061,-7.97644
532,-580,6.32202,7.81848,0.00995337,-0.000216281,-0.00710059,0.013602,-0.00386495,-0.474669,0.010594,0.0189727,1756,1604,6.32203,-7.81846
539,-580,6.36023,7.71387,0.0122722,0.000230833,-0.00937783,0.0173957,-0.00489264,-0.500028,0.0135263,0.0234727,1763,1604,6.36023,-7.71388
546,-580,6.75476,7.56934,0.0146711,0.00100873,-0.0122883,0.0218993,-0.00621946,-0.531713,0.017055,0.0393592,1770,1604,6.75476,-7.56931
553,-580,6.87781,6.88037,0.0172169,0.00257106,-0.0155995,0.0271267,-0.0073388,-0.56595,0.0209634,0.0490028,1777,1604,6.87781,-6.88036
560,-580,7.09021,6.49438,0,0,0,0,0,0,0,-1,1784,1604,7.09016,-6.4944
567,-580,2.20801,6.05261,0,0,0,0,0,0,0,-1,1791,1604,2.20799,-6.0526
574,-580,2.31653,5.62952,0,0,0,0,0,0,0,-1,1798,1604,2.31654,-5.62947
581,-580,1.60876,6.67664,0,0,0,0,0,0,0,-1,1805,1604,1.60873,-6.67667
588,-580,1.38684,7.14441,0,0,0,0,0,0,0,-1,1812,1604,1.38689,-7.14443
595,-580,0,0,0,0,0,0,0,0,0,-1,1819,1604,0,0
602,-580,0,0,0,0,0,0,0,0,0,-1,1826,1604,0,0
609,-580,0,0,0,0,0,0,0,0,0,-1,1833,1604,0,0
616,-580,0,0,0,0,0,0,0,0,0,-1,1840,1604,0,0
623,-580,0,0,0,0,0,0,0,0,0,-1,1847,1604,0,0
630,-580,0,0,0,0,0,0,0,0,0,-1,1854,1604,0,0
637,-580,0,0,0,0,0,0,0,0,0,-1,1861,1604,0,0
644,-580,0,0,0,0,0,0,0,0,0,-1,1868,1604,0,0
651,-580,0,0,0,0,0,0,0,0,0,-1,1875,1604,0,0
658,-580,0,0,0,0,0,0,0,0,0,-1,1882,1604,0,0
665,-580,0,0,0,0,0,0,0,0,0,-1,1889,1604,0,0
672,-580,0,0,0,0,0,0,0,0,0,-1,1896,1604,0,0
679,-580,0,0,0,0,0,0,0,0,0,-1,1903,1604,0,0
686,-580,0,0,0,0,0,0,0,0,0,-1,1910,1604,0,0
693,-580,0,0,0,0,0,0,0,0,0,-1,1917,1604,0,0
700,-580,0,0,0,0,0,0,0,0,0,-1,1924,1604,0,0
707,-580,0,0,0,0,0,0,0,0,0,-1,1931,1604,0,0
714,-580,0,0,0,0,0,0,0,0,0,-1,1938,1604,0,0
721,-580,0,0,0,0,0,0,0,0,0,-1,1945,1604,0,0
728,-580,0,0,0,0,0,0,0,0,0,-1,1952,1604,0,0
735,-580,0,0,0,0,0,0,0,0,0,-1,1959,1604,0,0
742,-580,0,0,0,0,0,0,0,0,0,-1,1966,1604,0,0
749,-580,0,0,0,0,0,0,0,0,0,-1,1973,1604,0,0
756,-580,0,0,0,0,0,0,0,0,0,-1,1980,1604,0,0
763,-580,0,0,0,0,0,0,0,0,0,-1,1987,1604,0,0
770,-580,0,0,0,0,0,0,0,0,0,-1,1994,1604,0,0
777,-580,0,0,0,0,0,0,0,0,0,-1,2001,1604,0,0
784,-580,0,0,0,0,0,0,0,0,0,-1,2008,1604,0,0
791,-580,0,0,0,0,0,0,0,0,0,-1,2015,1604,0,0
798,-580,0,0,0,0,0,0,0,0,0,-1,2022,1604,0,0
805,-580,0,0,0,0,0,0,0,0,0,-1,2029,1604,0,0
812,-580,0,0,0,0,0,0,0,0,0,-1,2036,1604,0,0
-700,-587,0,0,0,0,0,0,0,0,0,-1,524,1611,0,0
-693,-587,0,0,0,0,0,0,0,0,0,-1,531,1611,0,0
-686,-587,0,0,0,0,0,0,0,0,0,-1,538,1611,0,0
-679,-587,0,0,0,0,0,0,0,0,0,-1,545,1611,0,0
-672,-587,0,0,0,0,0,0,0,0,0,-1,552,1611,0,0
-665,-587,0,0,0,0,0,0,0,0,0,-1,559,1611,0,0
-658,-587,0,0,0,0,0,0,0,0,0,-1,566,1611,0,0
-651,-587,0,0,0,0,0,0,0,0,0,-1,573,1611,0,0
-644,-587,0,0,0,0,0,0,0,0,0,-1,580,1611,0,0
-637,-587,0,0,0,0,0,0,0,0,0,-1,587,1611,0,0
-630,-587,0,0,0,0,0,0,0,0,0,-1,594,1611,0,0
-623,-587,0,0,0,0,0,0,0,0,0,-1,601,1611,0,0
-616,-587,0,0,0,0,0,0,0,0,0,-1,608,1611,0,0
-609,-587,0,0,0,0,0,0,0,0,0,-1,615,1611,0,0
-602,-587,0,0,0,0,0,0,0,0,0,-1,622,1611,0,0
-595,-587,0,0,0,0,0,0,0,0,0,-1,629,1611,0,0
-588,-587,0,0,0,0,0,0,0,0,0,-1,636,1611,0,0
-581,-587,0,0,0,0,0,0,0,0,0,-1,643,1611,0,0
-574,-587,0,0,0,0,0,0,0,0,0,-1,650,1611,0,0
-567,-587,0,0,0,0,0,0,0,0,0,-1,657,1611,0,0
-560,-587,0,0,0,0,0,0,0,0,0,-1,664,1611,0,0
-553,-587,0,0,0,0,0,0,0,0,0,-1,671,1611,0,0
-546,-587,0,0,0,0,0,0,0,0,0,-1,678,1611,0,0
-539,-587,0,0,0,0,0,0,0,0,0,-1,685,1611,0,0
-532,-587,0,0,0,0,0,0,0,0,0,-1,692,1611,0,0
-525,-587,0,0,0,0,0,0,0,0,0,-1,699,1611,0,0
-518,-587,0,0,0,0,0,0,0,0,0,-1,706,1611,0,0
-511,-587,0,0,0,0,0,0,0,0,0,-1,713,1611,0,0
-504,-587,0,0,0,0,0,0,0,0,0,-1,720,1611,0,0
-497,-587,0,0,0,0,0,0,0,0,0,-1,727,1611,0,0
-490,-587,0,0,0,0,0,0,0,0,0,-1,734,1611,0,0
-483,-587,0,0,0,0,0,0,0,0,0,-1,741,1611,0,0
-476,-587,0,0,0,0,0,0,0,0,0,-1,748,1611,0,0
-469,-587,0,0,0,0,0,0,0,0,0,-1,755,1611,0,0
-462,-587,-0.729492,-4.46301,0,0,0,0,0,0,0,-1,762,1611,-0.729484,4.46305
-455,-587,-0.965698,-3.32373,0,0,0,0,0,0,0,-1,769,1611,-0.965729,3.32372
-448,-587,-1.20197,-2.18433,0,0,0,0,0,0,0,-1,776,1611,-1.20197,2.18438
-441,-587,-3.53021,4.56543,0,0,0,0,0,0,0,-1,783,1611,-3.53023,-4.56538
-434,-587,-2.36865,6.41638,0,0,0,0,0,0,0,-1,790,1611,-2.36868,-6.41644
-427,-587,-1.47821,8.11377,0,0,0,0,0,0,0,-1,797,1611,-1.4782,-8.11378
-420,-587,-0.647156,10.1157,0,0,0,0,0,0,0,-1,804,1611,-0.647128,-10.1158
-413,-587,1.83917,4.95764,0,0,0,0,0,0,0,-1,811,1611,1.83919,-4.95765
-406,-587,1.56641,6.35767,0,0,0,0,0,0,0,-1,818,1611,1.56638,-6.35761
-399,-587,1.62488,6.58923,0.0289104,0.0735991,0.0498775,0.105909,-0.00339901,0.995986,0.0717655,0.0332248,825,1611,1.62489,-6.58923
-392,-587,1.61279,6.71899,0.0198976,0.0546126,0.0367109,0.0778627,-0.00335248,1.00623,0.0530613,0.0247629,832,1611,1.61282,-6.71903
-385,-587,1.59509,6.89795,0.01302,0.038769,0.0259388,0.0548526,-0.0030636,1.01576,0.0376312,0.0146914,839,1611,1.59511,-6.89792
-378,-587,1.59271,7.07788,0.00796762,0.0261487,0.0175999,0.0368671,-0.00275077,1.02378,0.0255444,0.0127817,846,1611,1.59269,-7.07793
-371,-587,1.58203,7.2594,0.00452339,0.0168204,0.0115464,0.0237534,-0.00240957,1.03005,0.0166968,0.0135486,853,1611,1.58201,-7.25941
-364,-587,1.57776,7.43555,0.0022302,0.0103928,0.00740194,0.014764,-0.00214106,1.03735,0.0106285,0.0172274,860,1611,1.57779,-7.43558
-357,-587,1.5907,7.57996,-2.24679e-05,0.00477825,0.0037916,0.00686542,-0.00210964,1.06759,0.00541882,0.0168217,867,1611,1.59071,-7.57997
-350,-587,1.58527,7.77637,-0.00130708,0.00175087,0.0018776,0.00264329,-0.0021995,1.12711,0.0027999,0.0101931,874,1611,1.58526,-7.77636
-343,-587,1.57684,7.9563,-0.00167118,0.0010471,0.00138235,0.00162656,-0.00225064,1.17386,0.00224815,0.0124024,881,1611,1.57686,-7.95624
-336,-587,1.56891,8.10291,-0.00135398,0.00168363,0.00175445,0.00248536,-0.0021557,1.14216,0.00268177,0.0123507,888,1611,1.56893,-8.10287
-329,-587,1.57635,8.26379,-0.00125539,0.00207707,0.0021137,0.00310232,-0.00228064,1.11918,0.0031199,0.0149309,895,1611,1.57636,-8.26377
-322,-587,1.59424,8.43005,-0.00131094,0.00261729,0.00218461,0.00359091,-0.00228456,1.15155,0.00342004,0.0169523,902,1611,1.59424,-8.43011
-315,-587,1.59503,8.58643,-0.00150912,0.00272706,0.00187597,0.00343838,-0.00222044,1.20837,0.00329225,0.0129818,909,1611,1.59502,-8.58644
-308,-587,1.58636,8.75537,-0.00166149,0.00219339,0.00094554,0.00241282,-0.00188093,1.34276,0.00248533,0.0131407,916,1611,1.58636,-8.75532
-301,-587,1.61713,8.92358,-0.00170495,0.00131874,-6.5208e-05,0.00132015,-0.00170635,-1.54924,0.00175209,0.0119187,923,1611,1.61712,-8.92356
-294,-587,1.65936,9.05115,-0.00171703,2.10012e-05,-0.00156839,0.000945035,-0.00264107,-1.03838,0.00214623,0.0127576,930,1611,1.65934,-9.05114
-287,-587,1.67963,9.19702,0.000170643,-0.00115389,-0.00088887,0.000616837,-0.00160009,-0.46523,0.00132124,0.0227854,937,1611,1.67962,-9.19704
-280,-587,1.63306,9.33093,0.00396393,-0.00251045,0.00183324,0.00444697,-0.0029935,0.257638,0.004323,0.0355505,944,1611,1.63305,-9.33099
-273,-587,1.45813,9.36487,0.00801596,-0.0043999,0.00468786,0.00958714,-0.00597107,0.323392,0.00906305,0.0430302,951,1611,1.45811,-9.36484
-266,-587,1.05237,9.02795,0.0133133,-0.00531085,0.00997252,0.0176455,-0.00964303,0.409816,0.0159793,0.049795,958,1611,1.05236,-9.02794
-259,-587,0.773987,8.98535,0.020446,-0.00586359,0.0174414,0.0291373,-0.0145549,0.462298,0.0256897,0.0472311,965,1611,0.773973,-8.9854
-252,-587,0.438477,8.92249,0,0,0,0,0,0,0,-1,972,1611,0.4385,-8.92252
-245,-587,0.110718,8.85889,0,0,0,0,0,0,0,-1,979,1611,0.110731,-8.85884
-238,-587,2.45251,8.59753,0,0,0,0,0,0,0,-1,986,1611,2.45254,-8.59754
-231,-587,2.99457,8.82886,0,0,0,0,0,0,0,-1,993,1611,2.9946,-8.82889
-224,-587,1.48132,9.89331,0,0,0,0,0,0,0,-1,1000,1611,1.48131,-9.89326
-217,-587,0.332336,9.86267,0,0,0,0,0,0,0,-1,1007,1611,0.33232,-9.86271
-210,-587,-0.600708,9.62695,0,0,0,0,0,0,0,-1,1014,1611,-0.600735,-9.62692
-203,-587,-1.55042,9.40186,0,0,0,0,0,0,0,-1,1021,1611,-1.55043,-9.40186
-196,-587,-2.32214,9.0835,0,0,0,0,0,0,0,-1,1028,1611,-2.32215,-9.08353
-189,-587,-3.04138,8.66638,0,0,0,0,0,0,0,-1,1035,1611,-3.04136,-8.66635
-182,-587,-3.97095,9.7146,0,0,0,0,0,0,0,-1,1042,1611,-3.97093,-9.71461
-175,-587,-4.80969,8.37878,0,0,0,0,0,0,0,-1,1049,1611,-4.80964,-8.37883
-168,-587,-5.91394,8.72546,0,0,0,0,0,0,0,-1,1056,1611,-5.91398,-8.72542
-161,-587,-7.06946,8.88501,0,0,0,0,0,0,0,-1,1063,1611,-7.06947,-8.885
-154,-587,-8.18787,8.99988,0,0,0,0,0,0,0,-1,1070,1611,-8.18785,-8.99982
-147,-587,0,0,0,0,0,0,0,0,0,-1,1077,1611,0,0
-140,-587,0,0,0,0,0,0,0,0,0,-1,1084,1611,0,0
-133,-587,0,0,0,0,0,0,0,0,0,-1,1091,1611,0,0
-126,-587,0,0,0,0,0,0,0,0,0,-1,1098,1611,0,0
-119,-587,0,0,0,0,0,0,0,0,0,-1,1105,1611,0,0
-112,-587,0,0,0,0,0,0,0,0,0,-1,1112,1611,0,0
-105,-587,0,0,0,0,0,0,0,0,0,-1,1119,1611,0,0
-98,-587,0,0,0,0,0,0,0,0,0,-1,1126,1611,0,0
-91,-587,0,0,0,0,0,0,0,0,0,-1,1133,1611,0,0
-84,-587,0,0,0,0,0,0,0,0,0,-1,1140,1611,0,0
-77,-587,0,0,0,0,0,0,0,0,0,-1,1147,1611,0,0
-70,-587,0,0,0,0,0,0,0,0,0,-1,1154,1611,0,0
-63,-587,0,0,0,0,0,0,0,0,0,-1,1161,1611,0,0
-56,-587,0,0,0,0,0,0,0,0,0,-1,1168,1611,0,0
-49,-587,0,0,0,0,0,0,0,0,0,-1,1175,1611,0,0
-42,-587,0,0,0,0,0,0,0,0,0,-1,1182,1611,0,0
-35,-587,0,0,0,0,0,0,0,0,0,-1,1189,1611,0,0
-28,-587,0,0,0,0,0,0,0,0,0,-1,1196,1611,0,0
-21,-587,0,0,0,0,0,0,0,0,0,-1,1203,1611,0,0
-14,-587,0,0,0,0,0,0,0,0,0,-1,1210,1611,0,0
-7,-587,0,0,0,0,0,0,0,0,0,-1,1217,1611,0,0
0,-587,0,0,0,0,0,0,0,0,0,-1,1224,1611,0,0
7,-587,0,0,0,0,0,0,0,0,0,-1,1231,1611,0,0
14,-587,0,0,0,0,0,0,0,0,0,-1,1238,1611,0,0
21,-587,0,0,0,0,0,0,0,0,0,-1,1245,1611,0,0
28,-587,0,0,0,0,0,0,0,0,0,-1,1252,1611,0,0
35,-587,0,0,0,0,0,0,0,0,0,-1,1259,1611,0,0
42,-587,0,0,0,0,0,0,0,0,0,-1,1266,1611,0,0
49,-587,0,0,0,0,0,0,0,0,0,-1,1273,1611,0,0
56,-587,0,0,0,0,0,0,0,0,0,-1,1280,1611,0,0
63,-587,0,0,0,0,0,0,0,0,0,-1,1287,1611,0,0
70,-587,0,0,0,0,0,0,0,0,0,-1,1294,1611,0,0
77,-587,0,0,0,0,0,0,0,0,0,-1,1301,1611,0,0
84,-587,0,0,0,0,0,0,0,0,0,-1,1308,1611,0,0
91,-587,0,0,0,0,0,0,0,0,0,-1,1315,1611,0,0
98,-587,0,0,0,0,0,0,0,0,0,-1,1322,1611,0,0
105,-587,0,0,0,0,0,0,0,0,0,-1,1329,1611,0,0
112,-587,0,0,0,0,0,0,0,0,0,-1,1336,1611,0,0
119,-587,0,0,0,0,0,0,0,0,0,-1,1343,1611,0,0
126,-587,0,0,0,0,0,0,0,0,0,-1,1350,1611,0,0
133,-587,0,0,0,0,0,0,0,0,0,-1,1357,1611,0,0
140,-587,0,0,0,0,0,0,0,0,0,-1,1364,1611,0,0
147,-587,0,0,0,0,0,0,0,0,0,-1,1371,1611,0,0
154,-587,0,0,0,0,0,0,0,0,0,-1,1378,1611,0,0
161,-587,0,0,0,0,0,0,0,0,0,-1,1385,1611,0,0
168,-587,0,0,0,0,0,0,0,0,0,-1,1392,1611,0,0
175,-587,0,0,0,0,0,0,0,0,0,-1,1399,1611,0,0
182,-587,0,0,0,0,0,0,0,0,0,-1,1406,1611,0,0
189,-587,0,0,0,0,0,0,0,0,0,-1,1413,1611,0,0
196,-587,0,0,0,0,0,0,0,0,0,-1,1420,1611,0,0
203,-587,0,0,0,0,0,0,0,0,0,-1,1427,1611,0,0
210,-587,0,0,0,0,0,0,0,0,0,-1,1434,1611,0,0
217,-587,0,0,0,0,0,0,0,0,0,-1,1441,1611,0,0
224,-587,0,0,0,0,0,0,0,0,0,-1,1448,1611,0,0
231,-587,0,0,0,0,0,0,0,0,0,-1,1455,1611,0,0
238,-587,0,0,0,0,0,0,0,0,0,-1,1462,1611,0,0
245,-587,0,0,0,0,0,0,0,0,0,-1,1469,1611,0,0
252,-587,0,0,0,0,0,0,0,0,0,-1,1476,1611,0,0
259,-587,0,0,0,0,0,0,0,0,0,-1,1483,1611,0,0
266,-587,0,0,0,0,0,0,0,0,0,-1,1490,1611,0,0
273,-587,10.2936,6.35083,0,0,0,0,0,0,0,-1,1497,1611,10.2936,-6.35087
280,-587,2.09204,1.1217,0,0,0,0,0,0,0,-1,1504,1611,2.092,-1.12176
287,-587,3.2865,0.671509,0,0,0,0,0,0,0,-1,1511,1611,3.28656,-0.671538
294,-587,4.24646,1.58765,0,0,0,0,0,0,0,-1,1518,1611,4.24648,-1.58761
301,-587,5.13647,2.76465,0,0,0,0,0,0,0,-1,1525,1611,5.13648,-2.76469
308,-587,5.62061,10.1396,0,0,0,0,0,0,0,-1,1532,1611,5.62065,-10.1397
315,-587,4.14722,11.6769,0,0,0,0,0,0,0,-1,1539,1611,4.14727,-11.6769
322,-587,10.4526,6.38245,0,0,0,0,0,0,0,-1,1546,1611,10.4526,-6.38245
329,-587,10.7738,8.42444,0,0,0,0,0,0,0,-1,1553,1611,10.7738,-8.42438
336,-587,7.5531,5.96619,0,0,0,0,0,0,0,-1,1560,1611,7.55311,-5.96617
343,-587,9.57495,4.38391,0,0,0,0,0,0,0,-1,1567,1611,9.57494,-4.38397
350,-587,9.50378,3.45093,0,0,0,0,0,0,0,-1,1574,1611,9.50376,-3.4509
357,-587,9.40027,2.50806,0,0,0,0,0,0,0,-1,1581,1611,9.40022,-2.50803
364,-587,9.26477,1.34131,0,0,0,0,0,0,0,-1,1588,1611,9.26479,-1.34126
371,-587,6.98926,7.87561,0,0,0,0,0,0,0,-1,1595,1611,6.98928,-7.87564
378,-587,6.91187,9.53101,0,0,0,0,0,0,0,-1,1602,1611,6.91184,-9.53103
385,-587,7.17224,7.03772,0,0,0,0,0,0,0,-1,1609,1611,7.1722,-7.03778
392,-587,5.3916,8.21436,0,0,0,0,0,0,0,-1,1616,1611,5.39157,-8.21437
399,-587,6.37451,10.099,0,0,0,0,0,0,0,-1,1623,1611,6.37452,-10.0991
406,-587,6.63062,10.3685,-0.0244965,0.00293314,0.00460661,0.00368612,-0.0252495,1.40877,0.0181866,0.0381143,1630,1611,6.63057,-10.3686
413,-587,6.2644,10.0603,-0.0218295,0.00290372,0.00453983,0.00371068,-0.0226365,1.39488,0.0164678,0.0319747,1637,1611,6.26442,-10.0603
420,-587,6.21802,10.0573,-0.019197,0.00259179,0.00438545,0.00344133,-0.0200465,1.37945,0.0146468,0.0298863,1644,1611,6.21804,-10.0572
427,-587,6.25378,10.0033,-0.0167718,0.00226287,0.00423238,0.00316152,-0.0176704,1.36158,0.0129633,0.0224824,1651,1611,6.25379,-10.0033
434,-587,6.15869,9.91577,-0.0141552,0.00200949,0.00383034,0.00287118,-0.0150169,1.34952,0.0110929,0.0145377,1658,1611,6.15867,-9.91578
441,-587,6.14197,9.78687,-0.0115795,0.00154382,0.00338307,0.0023646,-0.0124003,1.33278,0.00915739,0.0159161,1665,1611,6.14199,-9.78681
448,-587,6.17078,9.63574,-0.00920854,0.0011399,0.00290598,0.00190009,-0.00996873,1.31493,0.00736138,0.0147892,1672,1611,6.17083,-9.6358
455,-587,6.18958,9.49182,-0.00710859,0.000785242,0.00239896,0.00145711,-0.00778046,1.29773,0.00573471,0.0145226,1679,1611,6.18953,-9.49185
462,-587,6.18115,9.34082,-0.0050627,0.000586248,0.00181551,0.00111941,-0.00559587,1.28516,0.0041543,0.0177669,1686,1611,6.18118,-9.34084
469,-587,6.17444,9.20801,-0.00346778,0.000676709,0.0012938,0.00104744,-0.00383851,1.29173,0.00297036,0.0151644,1693,1611,6.17439,-9.20802
476,-587,6.19373,9.0625,-0.0022136,0.000523769,0.000704366,0.000694379,-0.00238421,1.33316,0.00186454,0.0100047,1700,1611,6.19371,-9.06251
483,-587,6.17017,8.89685,-0.000727448,-1.14528e-05,0.000353469,0.000133643,-0.000872544,1.18128,0.000630979,0.0123098,1707,1611,6.17015,-8.89685
490,-587,6.1438,8.72803,0.000932483,-4.53131e-05,-0.000308991,0.00102194,-0.000134772,-0.281814,0.000730375,0.014958,1714,1611,6.14383,-8.72801
497,-587,6.14893,8.58191,0.00247789,-0.000151574,-0.00117654,0.00292747,-0.000601147,-0.364992,0.00217983,0.0122562,1721,1611,6.14894,-8.58187
504,-587,6.14331,8.45337,0.00394247,-7.93806e-05,-0.0023441,0.00502001,-0.00115692,-0.430876,0.00379161,0.0121062,1728,1611,6.14329,-8.45334
511,-587,6.16064,8.31665,0.00558045,-0.000162743,-0.00338082,0.00714462,-0.00172691,-0.433331,0.00543102,0.0133842,1735,1611,6.16062,-8.31669
518,-587,6.17798,8.14294,0.00762668,-0.00045634,-0.00472091,0.00979973,-0.00262939,-0.43139,0.00756353,0.0126987,1742,1611,6.17801,-8.14298
525,-587,6.2146,7.96851,0.0100188,-0.000905274,-0.00640571,0.012975,-0.00386149,-0.432374,0.0101842,0.0162299,1749,1611,6.2146,-7.96849
532,-587,6.23157,7.85474,0.0128479,-0.00103748,-0.00861999,0.0169734,-0.005163,-0.446381,0.0133731,0.0285089,1756,1611,6.2316,-7.85478
539,-587,6.50769,7.63501,0.0161281,-0.000921716,-0.0114726,0.0218964,-0.00668997,-0.465873,0.0172652,0.0371923,1763,1611,6.50769,-7.63505
546,-587,6.9425,7.43738,0.0197645,-0.000322637,-0.0151924,0.0279331,-0.00849126,-0.493333,0.0220055,0.0486778,1770,1611,6.9425,-7.43737
553,-587,7.27429,7.2771,0,0,0,0,0,0,0,-1,1777,1611,7.27435,-7.27711
560,-587,4.21179,5.23547,0,0,0,0,0,0,0,-1,1784,1611,4.21185,-5.23553
567,-587,4.03711,5.46387,0,0,0,0,0,0,0,-1,1791,1611,4.03715,-5.46382
574,-587,3.83142,5.68884,0,0,0,0,0,0,0,-1,1798,1611,3.83141,-5.68881
581,-587,3.47168,6.00977,0,0,0,0,0,0,0,-1,1805,1611,3.47167,-6.00983
588,-587,0,0,0,0,0,0,0,0,0,-1,1812,1611,0,0
595,-587,0,0,0,0,0,0,0,0,0,-1,1819,1611,0,0
602,-587,0,0,0,0,0,0,0,0,0,-1,1826,1611,0,0
609,-587,0,0,0,0,0,0,0,0,0,-1,1833,1611,0,0
616,-587,0,0,0,0,0,0,0,0,0,-1,1840,1611,0,0
623,-587,0,0,0,0,0,0,0,0,0,-1,1847,1611,0,0
630,-587,0,0,0,0,0,0,0,0,0,-1,1854,1611,0,0
637,-587,0,0,0,0,0,0,0,0,0,-1,1861,1611,0,0
644,-587,0,0,0,0,0,0,0,0,0,-1,1868,1611,0,0
651,-587,0,0,0,0,0,0,0,0,0,-1,1875,1611,0,0
658,-587,0,0,0,0,0,0,0,0,0,-1,1882,1611,0,0
665,-587,0,0,0,0,0,0,0,0,0,-1,1889,1611,0,0
672,-587,0,0,0,0,0,0,0,0,0,-1,1896,1611,0,0
679,-587,0,0,0,0,0,0,0,0,0,-1,1903,1611,0,0
686,-587,0,0,0,0,0,0,0,0,0,-1,1910,1611,0,0
693,-587,0,0,0,0,0,0,0,0,0,-1,1917,1611,0,0
700,-587,0,0,0,0,0,0,0,0,0,-1,1924,1611,0,0
707,-587,0,0,0,0,0,0,0,0,0,-1,1931,1611,0,0
714,-587,0,0,0,0,0,0,0,0,0,-1,1938,1611,0,0
721,-587,0,0,0,0,0,0,0,0,0,-1,1945,1611,0,0
728,-587,0,0,0,0,0,0,0,0,0,-1,1952,1611,0,0
735,-587,0,0,0,0,0,0,0,0,0,-1,1959,1611,0,0
742,-587,0,0,0,0,0,0,0,0,0,-1,1966,1611,0,0
749,-587,0,0,0,0,0,0,0,0,0,-1,1973,1611,0,0
756,-587,0,0,0,0,0,0,0,0,0,-1,1980,1611,0,0
763,-587,0,0,0,0,0,0,0,0,0,-1,1987,1611,0,0
770,-587,0,0,0,0,0,0,0,0,0,-1,1994,1611,0,0
777,-587,0,0,0,0,0,0,0,0,0,-1,2001,1611,0,0
784,-587,0,0,0,0,0,0,0,0,0,-1,2008,1611,0,0
791,-587,0,0,0,0,0,0,0,0,0,-1,2015,1611,0,0
798,-587,0,0,0,0,0,0,0,0,0,-1,2022,1611,0,0
805,-587,0,0,0,0,0,0,0,0,0,-1,2029,1611,0,0
812,-587,0,0,0,0,0,0,0,0,0,-1,2036,1611,0,0
-700,-594,0,0,0,0,0,0,0,0,0,-1,524,1618,0,0
-693,-594,0,0,0,0,0,0,0,0,0,-1,531,1618,0,0
-686,-594,0,0,0,0,0,0,0,0,0,-1,538,1618,0,0
-679,-594,0,0,0,0,0,0,0,0,0,-1,545,1618,0,0
-672,-594,0,0,0,0,0,0,0,0,0,-1,552,1618,0,0
-665,-594,0,0,0,0,0,0,0,0,0,-1,559,1618,0,0
-658,-594,0,0,0,0,0,0,0,0,0,-1,566,1618,0,0
-651,-594,0,0,0,0,0,0,0,0,0,-1,573,1618,0,0
-644,-594,0,0,0,0,0,0,0,0,0,-1,580,1618,0,0
-637,-594,0,0,0,0,0,0,0,0,0,-1,587,1618,0,0
-630,-594,0,0,0,0,0,0,0,0,0,-1,594,1618,0,0
-623,-594,0,0,0,0,0,0,0,0,0,-1,601,1618,0,0
-616,-594,0,0,0,0,0,0,0,0,0,-1,608,1618,0,0
-609,-594,0,0,0,0,0,0,0,0,0,-1,615,1618,0,0
-602,-594,0,0,0,0,0,0,0,0,0,-1,622,1618,0,0
-595,-594,0,0,0,0,0,0,0,0,0,-1,629,1618,0,0
-588,-594,0,0,0,0,0,0,0,0,0,-1,636,1618,0,0
-581,-594,0,0,0,0,0,0,0,0,0,-1,643,1618,0,0
-574,-594,0,0,0,0,0,0,0,0,0,-1,650,1618,0,0
-567,-594,0,0,0,0,0,0,0,0,0,-1,657,1618,0,0
-560,-594,0,0,0,0,0,0,0,0,0,-1,664,1618,0,0
-553,-594,0,0,0,0,0,0,0,0,0,-1,671,1618,0,0
-546,-594,0,0,0,0,0,0,0,0,0,-1,678,1618,0,0
-539,-594,0,0,0,0,0,0,0,0,0,-1,685,1618,0,0
-532,-594,0,0,0,0,0,0,0,0,0,-1,692,1618,0,0
-525,-594,0,0,0,0,0,0,0,0,0,-1,699,1618,0,0
-518,-594,0,0,0,0,0,0,0,0,0,-1,706,1618,0,0
-511,-594,0,0,0,0,0,0,0,0,0,-1,713,1618,0,0
-504,-594,0,0,0,0,0,0,0,0,0,-1,720,1618,0,0
-497,-594,0,0,0,0,0,0,0,0,0,-1,727,1618,0,0
-490,-594,0,0,0,0,0,0,0,0,0,-1,734,1618,0,0
-483,-594,0,0,0,0,0,0,0,0,0,-1,741,1618,0,0
-476,-594,0,0,0,0,0,0,0,0,0,-1,748,1618,0,0
-469,-594,0,0,0,0,0,0,0,0,0,-1,755,1618,0,0
-462,-594,0,0,0,0,0,0,0,0,0,-1,762,1618,0,0
-455,-594,-1.65491,-4.9729,0,0,0,0,0,0,0,-1,769,1618,-1.65492,4.97285
-448,-594,-1.93896,-3.84717,0,0,0,0,0,0,0,-1,776,1618,-1.93896,3.84713
-441,-594,-4.79364,4.07727,0,0,0,0,0,0,0,-1,783,1618,-4.79365,-4.07727
-434,-594,-3.62231,5.8208,0,0,0,0,0,0,0,-1,790,1618,-3.62229,-5.82083
-427,-594,-3.97693,6.77759,0,0,0,0,0,0,0,-1,797,1618,-3.97695,-6.77764
-420,-594,-2.53046,7.71606,0,0,0,0,0,0,0,-1,804,1618,-2.53047,-7.71609
-413,-594,-0.860413,8.00391,0,0,0,0,0,0,0,-1,811,1618,-0.860423,-8.00389
-406,-594,1.64935,6.34839,0,0,0,0,0,0,0,-1,818,1618,1.64934,-6.34845
-399,-594,1.71527,6.69934,0,0,0,0,0,0,0,-1,825,1618,1.71526,-6.69936
-392,-594,1.63245,6.9364,0,0,0,0,0,0,0,-1,832,1618,1.63247,-6.93641
-385,-594,1.74414,6.96167,0.0182053,0.053711,0.0364524,0.0765037,-0.00458736,1.012,0.0525983,0.0269987,839,1618,1.74417,-6.96166
-378,-594,1.74365,7.10242,0.0109824,0.0361159,0.0245635,0.0511406,-0.00404228,1.02184,0.0355179,0.0116996,846,1618,1.74365,-7.10243
-371,-594,1.75647,7.28088,0.00609939,0.0230368,0.0159229,0.032603,-0.00346678,1.0298,0.0229783,0.0116582,853,1618,1.75648,-7.28089
-364,-594,1.77551,7.44495,0.00304094,0.013861,0.00980373,0.0196483,-0.00274643,1.03752,0.0141038,0.0103026,860,1618,1.7755,-7.44498
-357,-594,1.78088,7.60852,0.000211281,0.00591337,0.00451948,0.00840594,-0.00228129,1.06679,0.00649924,0.0104475,867,1618,1.78091,-7.60855
-350,-594,1.75775,7.80652,-0.00129233,0.00138122,0.00149808,0.00205224,-0.00196334,1.14968,0.00231858,0.0153532,874,1618,1.75778,-7.80653
-343,-594,1.74042,7.98621,-0.00153812,-0.000107876,0.00051039,5.55795e-05,-0.00170157,1.26086,0.00115335,0.0162828,881,1618,1.74044,-7.98626
-336,-594,1.73859,8.1228,-0.00100994,0.000283406,0.000718395,0.000603312,-0.00132985,1.15185,0.00114208,0.0135449,888,1618,1.73858,-8.12278
-329,-594,1.74689,8.28674,-0.000634322,0.000428433,0.000941419,0.000978089,-0.00118398,1.04233,0.00125015,0.0140861,895,1618,1.74692,-8.28678
-322,-594,1.76935,8.45569,-0.000410848,0.000751035,0.000909908,0.00124964,-0.000909455,1.06951,0.0012517,0.0159764,902,1618,1.76935,-8.45567
-315,-594,1.78131,8.60022,-0.000400037,0.000774569,0.000621868,0.00104263,-0.000668097,1.16381,0.000995547,0.0156389,909,1618,1.7813,-8.60018
-308,-594,1.76288,8.75256,-0.000436342,0.000250825,-0.000149057,0.000281764,-0.000467282,-1.36613,0.000436861,0.0142059,916,1618,1.76288,-8.75251
-301,-594,1.74683,8.90186,-0.000411955,-0.000561049,-0.000952766,0.000469175,-0.00144218,-0.746356,0.0011502,0.0111157,923,1618,1.74682,-8.90189
-294,-594,1.77576,9.05054,-0.000352796,-0.00167257,-0.00210025,0.0011888,-0.00321417,-0.633184,0.00263017,0.0101938,930,1618,1.77573,-9.05057
-287,-594,1.78656,9.21667,0.000762925,-0.0027331,-0.00203742,0.00169943,-0.0036696,-0.430851,0.00316861,0.0112722,937,1618,1.78655,-9.21664
-280,-594,1.78229,9.36719,0.002955,-0.00391242,-0.000818789,0.00305128,-0.0040087,-0.117042,0.00408855,0.0158158,944,1618,1.78229,-9.36715
-273,-594,1.77856,9.44519,0.00529933,-0.00530646,0.000416264,0.00531564,-0.00532277,0.0391684,0.00614209,0.026623,951,1618,1.77858,-9.44525
-266,-594,1.70343,9.46326,0.00855348,-0.00643078,0.00318361,0.00920183,-0.00707913,0.200904,0.00942641,0.0342866,958,1618,1.70346,-9.46321
-259,-594,1.96216,9.53015,0.0127703,-0.00733054,0.00757106,0.0153028,-0.00986313,0.322808,0.0146423,0.0417493,965,1618,1.96213,-9.53014
-252,-594,2.10413,9.53308,0,0,0,0,0,0,0,-1,972,1618,2.10412,-9.53303
-245,-594,1.89661,9.41455,0,0,0,0,0,0,0,-1,979,1618,1.89661,-9.4146
-238,-594,1.69427,10.5648,0,0,0,0,0,0,0,-1,986,1618,1.69428,-10.5648
-231,-594,3.05115,9.41333,0,0,0,0,0,0,0,-1,993,1618,3.05118,-9.4133
-224,-594,3.45929,11.3962,0,0,0,0,0,0,0,-1,1000,1618,3.45927,-11.3963
-217,-594,2.4837,11.2629,0,0,0,0,0,0,0,-1,1007,1618,2.48368,-11.2629
-210,-594,0.957092,11.3329,0,0,0,0,0,0,0,-1,1014,1618,0.957079,-11.3329
-203,-594,-0.0402832,10.9181,0,0,0,0,0,0,0,-1,1021,1618,-0.0402818,-10.9181
-196,-594,-0.94043,9.66211,0,0,0,0,0,0,0,-1,1028,1618,-0.940441,-9.66207
-189,-594,-2.69531,13.278,0,0,0,0,0,0,0,-1,1035,1618,-2.69529,-13.278
-182,-594,-2.25964,10.1335,0,0,0,0,0,0,0,-1,1042,1618,-2.25962,-10.1335
-175,-594,-2.08997,9.5564,0,0,0,0,0,0,0,-1,1049,1618,-2.08996,-9.55638
-168,-594,-4.84082,9.9259,0,0,0,0,0,0,0,-1,1056,1618,-4.84082,-9.9259
-161,-594,-6.14746,10.2183,0,0,0,0,0,0,0,-1,1063,1618,-6.14743,-10.2183
-154,-594,-7.47607,10.7759,0,0,0,0,0,0,0,-1,1070,1618,-7.47603,-10.7759
-147,-594,-0.524658,7.95593,0,0,0,0,0,0,0,-1,1077,1618,-0.524719,-7.95588
-140,-594,1.37537,10.5242,0,0,0,0,0,0,0,-1,1084,1618,1.37533,-10.5241
-133,-594,0,0,0,0,0,0,0,0,0,-1,1091,1618,0,0
-126,-594,0,0,0,0,0,0,0,0,0,-1,1098,1618,0,0
-119,-594,0,0,0,0,0,0,0,0,0,-1,1105,1618,0,0
-112,-594,0,0,0,0,0,0,0,0,0,-1,1112,1618,0,0
-105,-594,0,0,0,0,0,0,0,0,0,-1,1119,1618,0,0
-98,-594,0,0,0,0,0,0,0,0,0,-1,1126,1618,0,0
-91,-594,0,0,0,0,0,0,0,0,0,-1,1133,1618,0,0
-84,-594,0,0,0,0,0,0,0,0,0,-1,1140,1618,0,0
-77,-594,0,0,0,0,0,0,0,0,0,-1,1147,1618,0,0
-70,-594,0,0,0,0,0,0,0,0,0,-1,1154,1618,0,0
-63,-594,0,0,0,0,0,0,0,0,0,-1,1161,1618,0,0
-56,-594,0,0,0,0,0,0,0,0,0,-1,1168,1618,0,0
-49,-594,0,0,0,0,0,0,0,0,0,-1,1175,1618,0,0
-42,-594,0,0,0,0,0,0,0,0,0,-1,1182,1618,0,0
-35,-594,0,0,0,0,0,0,0,0,0,-1,1189,1618,0,0
-28,-594,0,0,0,0,0,0,0,0,0,-1,1196,1618,0,0
-21,-594,0,0,0,0,0,0,0,0,0,-1,1203,1618,0,0
-14,-594,0,0,0,0,0,0,0,0,0,-1,1210,1618,0,0
-7,-594,0,0,0,0,0,0,0,0,0,-1,1217,1618,0,0
0,-594,0,0,0,0,0,0,0,0,0,-1,1224,1618,0,0
7,-594,0,0,0,0,0,0,0,0,0,-1,1231,1618,0,0
14,-594,0,0,0,0,0,0,0,0,0,-1,1238,1618,0,0
21,-594,0,0,0,0,0,0,0,0,0,-1,1245,1618,0,0
28,-594,0,0,0,0,0,0,0,0,0,-1,1252,1618,0,0
35,-594,0,0,0,0,0,0,0,0,0,-1,1259,1618,0,0
42,-594,0,0,0,0,0,0,0,0,0,-1,1266,1618,0,0
49,-594,0,0,0,0,0,0,0,0,0,-1,1273,1618,0,0
56,-594,0,0,0,0,0,0,0,0,0,-1,1280,1618,0,0
63,-594,0,0,0,0,0,0,0,0,0,-1,1287,1618,0,0
70,-594,0,0,0,0,0,0,0,0,0,-1,1294,1618,0,0
77,-594,0,0,0,0,0,0,0,0,0,-1,1301,1618,0,0
84,-594,0,0,0,0,0,0,0,0,0,-1,1308,1618,0,0
91,-594,0,0,0,0,0,0,0,0,0,-1,1315,1618,0,0
98,-594,0,0,0,0,0,0,0,0,0,-1,1322,1618,0,0
105,-594,0,0,0,0,0,0,0,0,0,-1,1329,1618,0,0
112,-594,0,0,0,0,0,0,0,0,0,-1,1336,1618,0,0
119,-594,0,0,0,0,0,0,0,0,0,-1,1343,1618,0,0
126,-594,0,0,0,0,0,0,0,0,0,-1,1350,1618,0,0
133,-594,0,0,0,0,0,0,0,0,0,-1,1357,1618,0,0
140,-594,0,0,0,0,0,0,0,0,0,-1,1364,1618,0,0
147,-594,0,0,0,0,0,0,0,0,0,-1,1371,1618,0,0
154,-594,0,0,0,0,0,0,0,0,0,-1,1378,1618,0,0
161,-594,0,0,0,0,0,0,0,0,0,-1,1385,1618,0,0
168,-594,0,0,0,0,0,0,0,0,0,-1,1392,1618,0,0
175,-594,0,0,0,0,0,0,0,0,0,-1,1399,1618,0,0
182,-594,0,0,0,0,0,0,0,0,0,-1,1406,1618,0,0
189,-594,0,0,0,0,0,0,0,0,0,-1,1413,1618,0,0
196,-594,0,0,0,0,0,0,0,0,0,-1,1420,1618,0,0
203,-594,0,0,0,0,0,0,0,0,0,-1,1427,1618,0,0
210,-594,0,0,0,0,0,0,0,0,0,-1,1434,1618,0,0
217,-594,0,0,0,0,0,0,0,0,0,-1,1441,1618,0,0
224,-594,0,0,0,0,0,0,0,0,0,-1,1448,1618,0,0
231,-594,0,0,0,0,0,0,0,0,0,-1,1455,1618,0,0
238,-594,0,0,0,0,0,0,0,0,0,-1,1462,1618,0,0
245,-594,0,0,0,0,0,0,0,0,0,-1,1469,1618,0,0
252,-594,3.03674,1.20996,0,0,0,0,0,0,0,-1,1476,1618,3.0368,-1.20999
259,-594,4.79834,1.53113,0,0,0,0,0,0,0,-1,1483,1618,4.79837,-1.53118
266,-594,3.71606,2.68152,0,0,0,0,0,0,0,-1,1490,1618,3.71609,-2.68149
273,-594,9.7655,6.33557,0,0,0,0,0,0,0,-1,1497,1618,9.76555,-6.33554
280,-594,3.13281,0.911255,0,0,0,0,0,0,0,-1,1504,1618,3.13277,-0.911207
287,-594,4.42749,1.51563,0,0,0,0,0,0,0,-1,1511,1618,4.42747,-1.51564
294,-594,4.86377,2.89954,0,0,0,0,0,0,0,-1,1518,1618,4.8638,-2.89954
301,-594,7.40552,9.07483,0,0,0,0,0,0,0,-1,1525,1618,7.40555,-9.07483
308,-594,6.02271,10.0214,0,0,0,0,0,0,0,-1,1532,1618,6.02267,-10.0213
315,-594,4.36401,10.6393,0,0,0,0,0,0,0,-1,1539,1618,4.36404,-10.6393
322,-594,2.98352,11.3137,0,0,0,0,0,0,0,-1,1546,1618,2.98351,-11.3137
329,-594,4.19861,9.77258,0,0,0,0,0,0,0,-1,1553,1618,4.19865,-9.77264
336,-594,10.1353,4.66528,0,0,0,0,0,0,0,-1,1560,1618,10.1353,-4.66533
343,-594,10.5729,3.71228,0,0,0,0,0,0,0,-1,1567,1618,10.5729,-3.71232
350,-594,10.219,2.98792,0,0,0,0,0,0,0,-1,1574,1618,10.219,-2.98797
357,-594,9.83154,1.96326,0,0,0,0,0,0,0,-1,1581,1618,9.8315,-1.96321
364,-594,9.74939,0.700562,0,0,0,0,0,0,0,-1,1588,1618,9.74939,-0.700615
371,-594,6.37524,10.0662,0,0,0,0,0,0,0,-1,1595,1618,6.37528,-10.0661
378,-594,6.24561,10.3442,0,0,0,0,0,0,0,-1,1602,1618,6.2456,-10.3442
385,-594,6.57056,9.70728,0,0,0,0,0,0,0,-1,1609,1618,6.57061,-9.70732
392,-594,6.36682,10.1199,0,0,0,0,0,0,0,-1,1616,1618,6.36677,-10.1199
399,-594,6.12561,10.3341,0,0,0,0,0,0,0,-1,1623,1618,6.12562,-10.3341
406,-594,6.10767,10.2476,-0.0161252,-0.000853023,0.00500257,0.000639722,-0.0176179,1.28081,0.0119642,0.0243937,1630,1618,6.10767,-10.2475
413,-594,6.07849,10.1691,-0.0144182,-0.000435563,0.0047434,0.00102169,-0.0158755,1.27273,0.0109401,0.0189568,1637,1618,6.07845,-10.169
420,-594,6.04224,10.0656,-0.0127275,-0.000281706,0.00441566,0.00112576,-0.014135,1.26223,0.00982012,0.0164841,1644,1618,6.04223,-10.0655
427,-594,6.03748,10.0269,-0.0111878,-0.000211389,0.00410692,0.00115513,-0.0125543,1.24958,0.00877996,0.0123592,1651,1618,6.03747,-10.0268
434,-594,6.02979,9.89575,-0.0094185,-5.40416e-05,0.00357647,0.00115563,-0.0106282,1.24465,0.00750039,0.0157793,1658,1618,6.02975,-9.89579
441,-594,6.02722,9.75732,-0.00761245,-4.67704e-05,0.00299604,0.000995959,-0.00865518,1.23587,0.00612914,0.0153787,1665,1618,6.02727,-9.7573
448,-594,6.05786,9.62439,-0.00590675,1.62224e-05,0.00238309,0.000855986,-0.00674652,1.232,0.00480847,0.0162807,1672,1618,6.05791,-9.62436
455,-594,6.05798,9.48596,-0.00438538,5.73881e-05,0.00176473,0.000673046,-0.00500104,1.23513,0.00357953,0.011953,1679,1618,6.05801,-9.48594
462,-594,6.03845,9.35583,-0.00286187,0.000224011,0.00110008,0.000576024,-0.00321388,1.2611,0.00235816,0.0122936,1686,1618,6.03843,-9.3559
469,-594,6.0321,9.21045,-0.00165268,0.000611566,0.00050583,0.00071943,-0.00176054,1.3607,0.00147327,0.0115663,1693,1618,6.0321,-9.21042
476,-594,6.026,9.0647,-0.000696139,0.000702508,-9.68095e-05,0.000709177,-0.000702808,-1.50202,0.000815213,0.0116624,1700,1618,6.02598,-9.06472
483,-594,6.04065,8.90515,0.000469047,0.000384816,-0.000500821,0.00092952,-7.56569e-05,-0.743451,0.000646377,0.0142658,1707,1618,6.0407,-8.90515
490,-594,6.03882,8.7395,0.00201636,0.000474215,-0.00121491,0.00268423,-0.000193652,-0.502634,0.0018574,0.0124608,1714,1618,6.03886,-8.73945
497,-594,6.02283,8.58984,0.00357735,0.000416824,-0.0021055,0.00462965,-0.000635474,-0.463475,0.0033186,0.00974461,1721,1618,6.02284,-8.58984
504,-594,6.02209,8.43823,0.00513162,0.000440081,-0.00329467,0.00683029,-0.00125859,-0.476034,0.00502586,0.010402,1728,1618,6.02207,-8.43829
511,-594,6.03699,8.29053,0.00701048,0.00021444,-0.0043756,0.00915253,-0.00192761,-0.455249,0.00683543,0.0123737,1735,1618,6.03705,-8.29058
518,-594,6.03503,8.13904,0.00947248,-0.000371815,-0.00579835,0.0121562,-0.00305548,-0.433474,0.00929159,0.0155402,1742,1618,6.03502,-8.13905
525,-594,6.0509,8.02039,0.0124826,-0.00132261,-0.0076328,0.0158711,-0.00471104,-0.417795,0.0124518,0.0284707,1749,1618,6.05092,-8.02035
532,-594,6.06909,7.9729,0.0161838,-0.00188019,-0.0102051,0.0207798,-0.00647611,-0.423151,0.0164426,0.0438829,1756,1618,6.06913,-7.97293
539,-594,6.68652,7.56763,0.0207295,-0.00227662,-0.0136683,0.027091,-0.00863816,-0.435605,0.0215258,0.0490909,1763,1618,6.68655,-7.56767
546,-594,7.13489,7.24084,0,0,0,0,0,0,0,-1,1770,1618,7.13487,-7.24082
553,-594,3.69714,5.68762,0,0,0,0,0,0,0,-1,1777,1618,3.69715,-5.68764
560,-594,6.06616,4.44482,0,0,0,0,0,0,0,-1,1784,1618,6.06621,-4.44477
567,-594,5.97266,4.73303,0,0,0,0,0,0,0,-1,1791,1618,5.97271,-4.73309
574,-594,5.9906,4.96326,0,0,0,0,0,0,0,-1,1798,1618,5.99065,-4.96326
581,-594,0,0,0,0,0,0,0,0,0,-1,1805,1618,0,0
588,-594,0,0,0,0,0,0,0,0,0,-1,1812,1618,0,0
595,-594,0,0,0,0,0,0,0,0,0,-1,1819,1618,0,0
602,-594,0,0,0,0,0,0,0,0,0,-1,1826,1618,0,0
609,-594,0,0,0,0,0,0,0,0,0,-1,1833,1618,0,0
616,-594,0,0,0,0,0,0,0,0,0,-1,1840,1618,0,0
623,-594,0,0,0,0,0,0,0,0,0,-1,1847,1618,0,0
630,-594,0,0,0,0,0,0,0,0,0,-1,1854,1618,0,0
637,-594,0,0,0,0,0,0,0,0,0,-1,1861,1618,0,0
644,-594,0,0,0,0,0,0,0,0,0,-1,1868,1618,0,0
651,-594,0,0,0,0,0,0,0,0,0,-1,1875,1618,0,0
658,-594,0,0,0,0,0,0,0,0,0,-1,1882,1618,0,0
665,-594,0,0,0,0,0,0,0,0,0,-1,1889,1618,0,0
672,-594,0,0,0,0,0,0,0,0,0,-1,1896,1618,0,0
679,-594,0,0,0,0,0,0,0,0,0,-1,1903,1618,0,0
686,-594,0,0,0,0,0,0,0,0,0,-1,1910,1618,0,0
693,-594,0,0,0,0,0,0,0,0,0,-1,1917,1618,0,0
700,-594,0,0,0,0,0,0,0,0,0,-1,1924,1618,0,0
707,-594,0,0,0,0,0,0,0,0,0,-1,1931,1618,0,0
714,-594,0,0,0,0,0,0,0,0,0,-1,1938,1618,0,0
721,-594,0,0,0,0,0,0,0,0,0,-1,1945,1618,0,0
728,-594,0,0,0,0,0,0,0,0,0,-1,1952,1618,0,0
735,-594,0,0,0,0,0,0,0,0,0,-1,1959,1618,0,0
742,-594,0,0,0,0,0,0,0,0,0,-1,1966,1618,0,0
749,-594,0,0,0,0,0,0,0,0,0,-1,1973,1618,0,0
756,-594,0,0,0,0,0,0,0,0,0,-1,1980,1618,0,0
763,-594,0,0,0,0,0,0,0,0,0,-1,1987,1618,0,0
770,-594,0,0,0,0,0,0,0,0,0,-1,1994,1618,0,0
777,-594,0,0,0,0,0,0,0,0,0,-1,2001,1618,0,0
784,-594,0,0,0,0,0,0,0,0,0,-1,2008,1618,0,0
791,-594,0,0,0,0,0,0,0,0,0,-1,2015,1618,0,0
798,-594,0,0,0,0,0,0,0,0,0,-1,2022,1618,0,0
805,-594,0,0,0,0,0,0,0,0,0,-1,2029,1618,0,0
812,-594,0,0,0,0,0,0,0,0,0,-1,2036,1618,0,0
-700,-601,0,0,0,0,0,0,0,0,0,-1,524,1625,0,0
-693,-601,0,0,0,0,0,0,0,0,0,-1,531,1625,0,0
-686,-601,0,0,0,0,0,0,0,0,0,-1,538,1625,0,0
-679,-601,0,0,0,0,0,0,0,0,0,-1,545,1625,0,0
-672,-601,0,0,0,0,0,0,0,0,0,-1,552,1625,0,0
-665,-601,0,0,0,0,0,0,0,0,0,-1,559,1625,0,0
-658,-601,0,0,0,0,0,0,0,0,0,-1,566,1625,0,0
-651,-601,0,0,0,0,0,0,0,0,0,-1,573,1625,0,0
-644,-601,0,0,0,0,0,0,0,0,0,-1,580,1625,0,0
-637,-601,0,0,0,0,0,0,0,0,0,-1,587,1625,0,0
-630,-601,0,0,0,0,0,0,0,0,0,-1,594,1625,0,0
-623,-601,0,0,0,0,0,0,0,0,0,-1,601,1625,0,0
-616,-601,0,0,0,0,0,0,0,0,0,-1,608,1625,0,0
-609,-601,0,0,0,0,0,0,0,0,0,-1,615,1625,0,0
-602,-601,0,0,0,0,0,0,0,0,0,-1,622,1625,0,0
-595,-601,0,0,0,0,0,0,0,0,0,-1,629,1625,0,0
-588,-601,0,0,0,0,0,0,0,0,0,-1,636,1625,0,0
-581,-601,0,0,0,0,0,0,0,0,0,-1,643,1625,0,0
-574,-601,0,0,0,0,0,0,0,0,0,-1,650,1625,0,0
-567,-601,0,0,0,0,0,0,0,0,0,-1,657,1625,0,0
-560,-601,0,0,0,0,0,0,0,0,0,-1,664,1625,0,0
-553,-601,0,0,0,0,0,0,0,0,0,-1,671,1625,0,0
-546,-601,0,0,0,0,0,0,0,0,0,-1,678,1625,0,0
-539,-601,0,0,0,0,0,0,0,0,0,-1,685,1625,0,0
-532,-601,0,0,0,0,0,0,0,0,0,-1,692,1625,0,0
-525,-601,0,0,0,0,0,0,0,0,0,-1,699,1625,0,0
-518,-601,0,0,0,0,0,0,0,0,0,-1,706,1625,0,0
-511,-601,0,0,0,0,0,0,0,0,0,-1,713,1625,0,0
-504,-601,0,0,0,0,0,0,0,0,0,-1,720,1625,0,0
-497,-601,0,0,0,0,0,0,0,0,0,-1,727,1625,0,0
-490,-601,0,0,0,0,0,0,0,0,0,-1,734,1625,0,0
-483,-601,0,0,0,0,0,0,0,0,0,-1,741,1625,0,0
-476,-601,0,0,0,0,0,0,0,0,0,-1,748,1625,0,0
-469,-601,0,0,0,0,0,0,0,0,0,-1,755,1625,0,0
-462,-601,0,0,0,0,0,0,0,0,0,-1,762,1625,0,0
-455,-601,0,0,0,0,0,0,0,0,0,-1,769,1625,0,0
-448,-601,-7.07623,2.7616,0,0,0,0,0,0,0,-1,776,1625,-7.07626,-2.76161
-441,-601,-6.06689,3.33447,0,0,0,0,0,0,0,-1,783,1625,-6.06691,-3.33448
-434,-601,-5.02655,3.8468,0,0,0,0,0,0,0,-1,790,1625,-5.02657,-3.84674
-427,-601,-5.78601,4.2406,0,0,0,0,0,0,0,-1,797,1625,-5.786,-4.24058
-420,-601,-4.26819,5.33447,0,0,0,0,0,0,0,-1,804,1625,-4.26817,-5.33442
-413,-601,-2.75446,6.1803,0.098403,0.227427,0.157508,0.333122,-0.00729226,0.979767,0.224552,0.0493625,811,1625,-2.75449,-6.18033
-406,-601,-1.67493,7.20422,0.0751617,0.181478,0.124857,0.264022,-0.00738251,0.986651,0.178526,0.0490715,818,1625,-1.67493,-7.20428
-399,-601,2.31165,6.59692,0,0,0,0,0,0,0,-1,825,1625,2.31164,-6.59696
-392,-601,2.19629,6.7854,0,0,0,0,0,0,0,-1,832,1625,2.19626,-6.78535
-385,-601,2.2016,6.93127,0.0244749,0.0717418,0.0492614,0.102746,-0.00652884,1.00906,0.0707738,0.0427588,839,1625,2.20163,-6.93126
-378,-601,1.94318,7.19067,0.0145616,0.0482906,0.0332928,0.0687466,-0.00589441,1.01984,0.0479169,0.0304316,846,1625,1.94315,-7.19073
-371,-601,1.92316,7.29211,0.00785119,0.03087,0.0216923,0.0439171,-0.00519588,1.0293,0.0311548,0.0147884,853,1625,1.92313,-7.29208
-364,-601,1.9259,7.43958,0.00366721,0.0186878,0.0134525,0.0265845,-0.00422945,1.03999,0.019288,0.010238,860,1625,1.9259,-7.43962
-357,-601,1.93616,7.61377,5.09986e-06,0.00823467,0.00638932,0.0117195,-0.00347978,1.07147,0.00919512,0.010089,867,1625,1.93617,-7.61377
-350,-601,1.94733,7.84631,-0.00174921,0.00217075,0.00226383,0.00320518,-0.00278364,1.14219,0.0034605,0.0209223,874,1625,1.94731,-7.84628
-343,-601,1.91022,8.00757,-0.00181867,-3.46873e-05,0.000837631,0.000296953,-0.00215031,1.19381,0.00154208,0.0190632,881,1625,1.9102,-8.00756
-336,-601,1.88165,8.11816,-0.000959838,0.000215003,0.00091957,0.000718762,-0.0014636,1.06963,0.00128421,0.0158048,888,1625,1.88167,-8.11814
-329,-601,1.90149,8.29224,-0.000200018,0.000185611,0.00100112,0.00101231,-0.00102672,0.880533,0.00117724,0.0134818,895,1625,1.90148,-8.29229
-322,-601,1.91913,8.474,0.00041323,0.000316049,0.000813472,0.00117956,-0.000450283,0.755567,0.000971884,0.0117895,902,1625,1.91914,-8.47397
-315,-601,1.93567,8.59985,0.000735828,0.000230957,0.000439688,0.000990393,-2.36079e-05,0.52481,0.00066827,0.0122958,909,1625,1.93567,-8.59986
-308,-601,1.92877,8.74512,0.000894463,-0.000340074,-0.000316285,0.000970777,-0.000416388,-0.236757,0.000821923,0.0115136,916,1625,1.92875,-8.7451
-301,-601,1.92981,8.90564,0.00105453,-0.00117606,-0.00108716,0.00149673,-0.00161826,-0.386313,0.0017989,0.00963092,923,1625,1.92981,-8.90562
-294,-601,1.92676,9.05273,0.00120761,-0.00221556,-0.00208569,0.0021941,-0.00320205,-0.4418,0.00313354,0.00996836,930,1625,1.92677,-9.05279
-287,-601,1.92303,9.20557,0.00185395,-0.00322128,-0.00241321,0.0028182,-0.00418553,-0.380137,0.00406921,0.00995572,937,1625,1.923,-9.20561
-280,-601,1.93414,9.35229,0.00305023,-0.00429945,-0.00209748,0.00360669,-0.0048559,-0.259324,0.00490359,0.00995284,944,1625,1.93413,-9.35228
-273,-601,1.9574,9.50281,0.00431922,-0.00548478,-0.00176232,0.00462638,-0.00579195,-0.172561,0.00602756,0.0097975,951,1625,1.9574,-9.50285
-266,-601,1.97723,9.63721,0.00610467,-0.00655521,-0.000499923,0.00612438,-0.00657492,-0.0394069,0.00733348,0.0118972,958,1625,1.97721,-9.6372
-259,-601,2.05005,9.67871,0.00797959,-0.00746964,0.00185194,0.00819848,-0.00768854,0.117652,0.00917395,0.0236202,965,1625,2.05004,-9.67874
-252,-601,2.11371,9.68884,0.00909722,-0.00741485,0.00459956,0.010292,-0.00860963,0.254144,0.0109273,0.0435965,972,1625,2.11372,-9.68888
-245,-601,1.97119,10.2751,0,0,0,0,0,0,0,-1,979,1625,1.97118,-10.2752
-238,-601,1.81396,10.5577,0,0,0,0,0,0,0,-1,986,1625,1.81394,-10.5578
-231,-601,2.18317,10.6985,0,0,0,0,0,0,0,-1,993,1625,2.18319,-10.6985
-224,-601,5.13934,13.0479,0,0,0,0,0,0,0,-1,1000,1625,5.13935,-13.0479
-217,-601,3.39429,10.3898,0,0,0,0,0,0,0,-1,1007,1625,3.39431,-10.3898
-210,-601,2.92413,9.79773,0,0,0,0,0,0,0,-1,1014,1625,2.92411,-9.79773
-203,-601,-0.188416,9.27478,0,0,0,0,0,0,0,-1,1021,1625,-0.188444,-9.27478
-196,-601,-2.40112,11.9937,0,0,0,0,0,0,0,-1,1028,1625,-2.40117,-11.9936
-189,-601,-1.78748,12.9865,0,0,0,0,0,0,0,-1,1035,1625,-1.78749,-12.9865
-182,-601,-1.4093,13.4561,0,0,0,0,0,0,0,-1,1042,1625,-1.4093,-13.456
-175,-601,-0.626099,9.68311,0,0,0,0,0,0,0,-1,1049,1625,-0.626092,-9.68306
-168,-601,-0.600098,8.99219,0,0,0,0,0,0,0,-1,1056,1625,-0.600145,-8.99216
-161,-601,-4.39587,11.1855,0,0,0,0,0,0,0,-1,1063,1625,-4.39584,-11.1856
-154,-601,-5.76953,11.7451,0,0,0,0,0,0,0,-1,1070,1625,-5.76957,-11.7452
-147,-601,1.3042,8.34778,0,0,0,0,0,0,0,-1,1077,1625,1.30421,-8.34775
-140,-601,2.32104,10.0375,0,0,0,0,0,0,0,-1,1084,1625,2.32101,-10.0374
-133,-601,3.20093,11.7296,0,0,0,0,0,0,0,-1,1091,1625,3.20098,-11.7296
-126,-601,3.97852,13.442,0,0,0,0,0,0,0,-1,1098,1625,3.97855,-13.442
-119,-601,1.22485,9.43457,0,0,0,0,0,0,0,-1,1105,1625,1.22489,-9.43456
-112,-601,0,0,0,0,0,0,0,0,0,-1,1112,1625,0,0
-105,-601,0,0,0,0,0,0,0,0,0,-1,1119,1625,0,0
-98,-601,0,0,0,0,0,0,0,0,0,-1,1126,1625,0,0
-91,-601,0,0,0,0,0,0,0,0,0,-1,1133,1625,0,0
-84,-601,0,0,0,0,0,0,0,0,0,-1,1140,1625,0,0
-77,-601,0,0,0,0,0,0,0,0,0,-1,1147,1625,0,0
-70,-601,0,0,0,0,0,0,0,0,0,-1,1154,1625,0,0
-63,-601,0,0,0,0,0,0,0,0,0,-1,1161,1625,0,0
-56,-601,0,0,0,0,0,0,0,0,0,-1,1168,1625,0,0
-49,-601,0,0,0,0,0,0,0,0,0,-1,1175,1625,0,0
-42,-601,0,0,0,0,0,0,0,0,0,-1,1182,1625,0,0
-35,-601,0,0,0,0,0,0,0,0,0,-1,1189,1625,0,0
-28,-601,0,0,0,0,0,0,0,0,0,-1,1196,1625,0,0
-21,-601,0,0,0,0,0,0,0,0,0,-1,1203,1625,0,0
-14,-601,0,0,0,0,0,0,0,0,0,-1,1210,1625,0,0
-7,-601,0,0,0,0,0,0,0,0,0,-1,1217,1625,0,0
0,-601,0,0,0,0,0,0,0,0,0,-1,1224,1625,0,0
7,-601,0,0,0,0,0,0,0,0,0,-1,1231,1625,0,0
14,-601,0,0,0,0,0,0,0,0,0,-1,1238,1625,0,0
21,-601,0,0,0,0,0,0,0,0,0,-1,1245,1625,0,0
28,-601,0,0,0,0,0,0,0,0,0,-1,1252,1625,0,0
35,-601,0,0,0,0,0,0,0,0,0,-1,1259,1625,0,0
42,-601,0,0,0,0,0,0,0,0,0,-1,1266,1625,0,0
49,-601,0,0,0,0,0,0,0,0,0,-1,1273,1625,0,0
56,-601,0,0,0,0,0,0,0,0,0,-1,1280,1625,0,0
63,-601,0,0,0,0,0,0,0,0,0,-1,1287,1625,0,0
70,-601,0,0,0,0,0,0,0,0,0,-1,1294,1625,0,0
77,-601,0,0,0,0,0,0,0,0,0,-1,1301,1625,0,0
84,-601,0,0,0,0,0,0,0,0,0,-1,1308,1625,0,0
91,-601,0,0,0,0,0,0,0,0,0,-1,1315,1625,0,0
98,-601,0,0,0,0,0,0,0,0,0,-1,1322,1625,0,0
105,-601,0,0,0,0,0,0,0,0,0,-1,1329,1625,0,0
112,-601,0,0,0,0,0,0,0,0,0,-1,1336,1625,0,0
119,-601,0,0,0,0,0,0,0,0,0,-1,1343,1625,0,0
126,-601,0,0,0,0,0,0,0,0,0,-1,1350,1625,0,0
133,-601,0,0,0,0,0,0,0,0,0,-1,1357,1625,0,0
140,-601,0,0,0,0,0,0,0,0,0,-1,1364,1625,0,0
147,-601,0,0,0,0,0,0,0,0,0,-1,1371,1625,0,0
154,-601,0,0,0,0,0,0,0,0,0,-1,1378,1625,0,0
161,-601,0,0,0,0,0,0,0,0,0,-1,1385,1625,0,0
168,-601,0,0,0,0,0,0,0,0,0,-1,1392,1625,0,0
175,-601,0,0,0,0,0,0,0,0,0,-1,1399,1625,0,0
182,-601,0,0,0,0,0,0,0,0,0,-1,1406,1625,0,0
189,-601,0,0,0,0,0,0,0,0,0,-1,1413,1625,0,0
196,-601,0,0,0,0,0,0,0,0,0,-1,1420,1625,0,0
203,-601,0,0,0,0,0,0,0,0,0,-1,1427,1625,0,0
210,-601,0,0,0,0,0,0,0,0,0,-1,1434,1625,0,0
217,-601,0,0,0,0,0,0,0,0,0,-1,1441,1625,0,0
224,-601,0,0,0,0,0,0,0,0,0,-1,1448,1625,0,0
231,-601,-0.0371094,0.525879,0,0,0,0,0,0,0,-1,1455,1625,-0.0371518,-0.525824
238,-601,2.03369,-1.32861,0,0,0,0,0,0,0,-1,1462,1625,2.03364,1.32858
245,-601,2.71375,2.44983,0,0,0,0,0,0,0,-1,1469,1625,2.71371,-2.44979
252,-601,4.66943,2.28381,0,0,0,0,0,0,0,-1,1476,1625,4.66947,-2.28376
259,-601,6.42712,2.61987,0,0,0,0,0,0,0,-1,1483,1625,6.42711,-2.61985
266,-601,6.75317,1.68701,0,0,0,0,0,0,0,-1,1490,1625,6.75323,-1.687
273,-601,5.4314,2.92053,0,0,0,0,0,0,0,-1,1497,1625,5.43144,-2.92051
280,-601,4.64722,1.17786,0,0,0,0,0,0,0,-1,1504,1625,4.64722,-1.1779
287,-601,5.32532,2.6217,0,0,0,0,0,0,0,-1,1511,1625,5.32535,-2.62171
294,-601,5.97693,4.22693,0,0,0,0,0,0,0,-1,1518,1625,5.97697,-4.22694
301,-601,7.28162,9.50024,0,0,0,0,0,0,0,-1,1525,1625,7.28162,-9.50025
308,-601,6.42468,9.90295,0,0,0,0,0,0,0,-1,1532,1625,6.42468,-9.90299
315,-601,7.80762,8.37769,0,0,0,0,0,0,0,-1,1539,1625,7.80756,-8.37772
322,-601,7.1355,7.7937,0,0,0,0,0,0,0,-1,1546,1625,7.1355,-7.79368
329,-601,6.51721,7.23535,0,0,0,0,0,0,0,-1,1553,1625,6.51719,-7.23529
336,-601,4.67847,9.53308,0,0,0,0,0,0,0,-1,1560,1625,4.67848,-9.53309
343,-601,11.1404,3.14575,0,0,0,0,0,0,0,-1,1567,1625,11.1404,-3.1458
350,-601,10.9462,2.37769,0,0,0,0,0,0,0,-1,1574,1625,10.9461,-2.37764
357,-601,10.7518,1.6095,0,0,0,0,0,0,0,-1,1581,1625,10.7518,-1.60948
364,-601,5.33643,9.74426,0,0,0,0,0,0,0,-1,1588,1625,5.33637,-9.74429
371,-601,6.04395,10.6238,0,0,0,0,0,0,0,-1,1595,1625,6.04399,-10.6238
378,-601,6.0354,10.4943,0,0,0,0,0,0,0,-1,1602,1625,6.03542,-10.4943
385,-601,6.08508,10.5199,0,0,0,0,0,0,0,-1,1609,1625,6.08506,-10.5199
392,-601,6.08545,10.3904,0,0,0,0,0,0,0,-1,1616,1625,6.08544,-10.3904
399,-601,5.87488,10.3273,0,0,0,0,0,0,0,-1,1623,1625,5.87492,-10.3272
406,-601,5.90686,10.3428,-0.00949279,-0.0040861,0.0054346,-0.000719614,-0.0128593,1.01619,0.00834334,0.0137367,1630,1625,5.90686,-10.3427
413,-601,5.90393,10.231,-0.00847263,-0.00337543,0.00507239,-0.000247366,-0.0116007,1.0182,0.00765267,0.0124836,1637,1625,5.90388,-10.2309
420,-601,5.86548,10.1519,-0.00751414,-0.00281945,0.00463777,3.1176e-05,-0.0103648,1.01967,0.00692026,0.0104969,1644,1625,5.86545,-10.1518
427,-601,5.90125,10.0482,-0.00664696,-0.00242455,0.00423814,0.000199118,-0.00927063,1.01648,0.00624785,0.0144042,1651,1625,5.90123,-10.0482
434,-601,5.90991,9.90613,-0.00557684,-0.00191232,0.00363163,0.000323083,-0.00781224,1.01903,0.00531913,0.0151982,1658,1625,5.90992,-9.90618
441,-601,5.93481,9.72644,-0.00441431,-0.00149422,0.00295664,0.000343228,-0.00625176,1.01474,0.00428683,0.0176124,1665,1625,5.93476,-9.72642
448,-601,5.93103,9.58679,-0.00326956,-0.00101072,0.00222112,0.000351638,-0.00463192,1.02061,0.00321158,0.0152311,1672,1625,5.93108,-9.58675
455,-601,5.91943,9.4718,-0.00224346,-0.000608843,0.00148256,0.000266768,-0.00311907,1.03731,0.00217377,0.0126183,1679,1625,5.91949,-9.47186
462,-601,5.89392,9.34985,-0.0011663,-0.000101833,0.000711467,0.000254447,-0.00152258,1.10653,0.00110964,0.0100499,1686,1625,5.89395,-9.34991
469,-601,5.87561,9.20227,-0.000279925,0.000568392,-1.50598e-06,0.000568395,-0.000279928,-1.56902,0.000499129,0.0103949,1693,1625,5.87565,-9.20227
476,-601,5.88538,9.05273,0.000448892,0.000906089,-0.000671073,0.00138643,-3.14499e-05,-0.949557,0.000934947,0.0132725,1700,1625,5.88543,-9.05278
483,-601,5.88928,8.89758,0.00138428,0.000784733,-0.00116258,0.00228511,-0.000116098,-0.659221,0.00156354,0.0163446,1707,1625,5.88927,-8.89757
490,-601,5.89722,8.74683,0.00288478,0.000977982,-0.00195833,0.00410946,-0.000246699,-0.558865,0.00282547,0.0118091,1714,1625,5.89719,-8.74677
497,-601,5.89697,8.60168,0.00452723,0.00093069,-0.00288761,0.00613073,-0.00067281,-0.506907,0.00432889,0.009547,1721,1625,5.897,-8.60173
504,-601,5.90491,8.43359,0.00624883,0.000883629,-0.00412734,0.00848876,-0.0013563,-0.497225,0.00616124,0.0124987,1728,1625,5.90486,-8.43361
511,-601,5.87988,8.29333,0.00846438,0.000610754,-0.00533316,0.0111604,-0.0020853,-0.46806,0.008224,0.0225688,1735,1625,5.87984,-8.29332
518,-601,5.88403,8.151,0.0114799,-0.000180626,-0.00692757,0.0147041,-0.00340482,-0.435599,0.0111129,0.0359243,1742,1625,5.88405,-8.15106
525,-601,5.94495,8.33997,0.0152638,-0.00159848,-0.00901128,0.0191731,-0.00550781,-0.409324,0.0149599,0.0453008,1749,1625,5.94498,-8.33994
532,-601,5.93494,8.51978,0.020021,-0.00265156,-0.0119887,0.0251844,-0.00781498,-0.406681,0.0199125,0.0498895,1756,1625,5.93493,-8.51978
539,-601,6.88892,7.50342,0,0,0,0,0,0,0,-1,1763,1625,6.88887,-7.50337
546,-601,6.56873,3.62354,0,0,0,0,0,0,0,-1,1770,1625,6.56867,-3.62352
553,-601,7.03015,4.25049,0,0,0,0,0,0,0,-1,1777,1625,7.03011,-4.25048
560,-601,7.50745,4.83374,0,0,0,0,0,0,0,-1,1784,1625,7.50744,-4.83376
567,-601,7.82043,3.83301,0,0,0,0,0,0,0,-1,1791,1625,7.82041,-3.83303
574,-601,0,0,0,0,0,0,0,0,0,-1,1798,1625,0,0
581,-601,0,0,0,0,0,0,0,0,0,-1,1805,1625,0,0
588,-601,0,0,0,0,0,0,0,0,0,-1,1812,1625,0,0
595,-601,0,0,0,0,0,0,0,0,0,-1,1819,1625,0,0
602,-601,0,0,0,0,0,0,0,0,0,-1,1826,1625,0,0
609,-601,0,0,0,0,0,0,0,0,0,-1,1833,1625,0,0
616,-601,0,0,0,0,0,0,0,0,0,-1,1840,1625,0,0
623,-601,0,0,0,0,0,0,0,0,0,-1,1847,1625,0,0
630,-601,0,0,0,0,0,0,0,0,0,-1,1854,1625,0,0
637,-601,0,0,0,0,0,0,0,0,0,-1,1861,1625,0,0
644,-601,0,0,0,0,0,0,0,0,0,-1,1868,1625,0,0
651,-601,0,0,0,0,0,0,0,0,0,-1,1875,1625,0,0
658,-601,0,0,0,0,0,0,0,0,0,-1,1882,1625,0,0
665,-601,0,0,0,0,0,0,0,0,0,-1,1889,1625,0,0
672,-601,0,0,0,0,0,0,0,0,0,-1,1896,1625,0,0
679,-601,0,0,0,0,0,0,0,0,0,-1,1903,1625,0,0
686,-601,0,0,0,0,0,0,0,0,0,-1,1910,1625,0,0
693,-601,0,0,0,0,0,0,0,0,0,-1,1917,1625,0,0
700,-601,0,0,0,0,0,0,0,0,0,-1,1924,1625,0,0
707,-601,0,0,0,0,0,0,0,0,0,-1,1931,1625,0,0
714,-601,0,0,0,0,0,0,0,0,0,-1,1938,1625,0,0
721,-601,0,0,0,0,0,0,0,0,0,-1,1945,1625,0,0
728,-601,0,0,0,0,0,0,0,0,0,-1,1952,1625,0,0
735,-601,0,0,0,0,0,0,0,0,0,-1,1959,1625,0,0
742,-601,0,0,0,0,0,0,0,0,0,-1,1966,1625,0,0
749,-601,0,0,0,0,0,0,0,0,0,-1,1973,1625,0,0
756,-601,0,0,0,0,0,0,0,0,0,-1,1980,1625,0,0
763,-601,0,0,0,0,0,0,0,0,0,-1,1987,1625,0,0
770,-601,0,0,0,0,0,0,0,0,0,-1,1994,1625,0,0
777,-601,0,0,0,0,0,0,0,0,0,-1,2001,1625,0,0
784,-601,0,0,0,0,0,0,0,0,0,-1,2008,1625,0,0
791,-601,0,0,0,0,0,0,0,0,0,-1,2015,1625,0,0
798,-601,0,0,0,0,0,0,0,0,0,-1,2022,1625,0,0
805,-601,0,0,0,0,0,0,0,0,0,-1,2029,1625,0,0
812,-601,0,0,0,0,0,0,0,0,0,-1,2036,1625,0,0
-700,-608,0,0,0,0,0,0,0,0,0,-1,524,1632,0,0
-693,-608,0,0,0,0,0,0,0,0,0,-1,531,1632,0,0
-686,-608,0,0,0,0,0,0,0,0,0,-1,538,1632,0,0
-679,-608,0,0,0,0,0,0,0,0,0,-1,545,1632,0,0
-672,-608,0,0,0,0,0,0,0,0,0,-1,552,1632,0,0
-665,-608,0,0,0,0,0,0,0,0,0,-1,559,1632,0,0
-658,-608,0,0,0,0,0,0,0,0,0,-1,566,1632,0,0
-651,-608,0,0,0,0,0,0,0,0,0,-1,573,1632,0,0
-644,-608,0,0,0,0,0,0,0,0,0,-1,580,1632,0,0
-637,-608,0,0,0,0,0,0,0,0,0,-1,587,1632,0,0
-630,-608,0,0,0,0,0,0,0,0,0,-1,594,1632,0,0
-623,-608,0,0,0,0,0,0,0,0,0,-1,601,1632,0,0
-616,-608,0,0,0,0,0,0,0,0,0,-1,608,1632,0,0
-609,-608,0,0,0,0,0,0,0,0,0,-1,615,1632,0,0
-602,-608,0,0,0,0,0,0,0,0,0,-1,622,1632,0,0
-595,-608,0,0,0,0,0,0,0,0,0,-1,629,1632,0,0
-588,-608,0,0,0,0,0,0,0,0,0,-1,636,1632,0,0
-581,-608,0,0,0,0,0,0,0,0,0,-1,643,1632,0,0
-574,-608,0,0,0,0,0,0,0,0,0,-1,650,1632,0,0
-567,-608,0,0,0,0,0,0,0,0,0,-1,657,1632,0,0
-560,-608,0,0,0,0,0,0,0,0,0,-1,664,1632,0,0
-553,-608,0,0,0,0,0,0,0,0,0,-1,671,1632,0,0
-546,-608,0,0,0,0,0,0,0,0,0,-1,678,1632,0,0
-539,-608,0,0,0,0,0,0,0,0,0,-1,685,1632,0,0
-532,-608,0,0,0,0,0,0,0,0,0,-1,692,1632,0,0
-525,-608,0,0,0,0,0,0,0,0,0,-1,699,1632,0,0
-518,-608,0,0,0,0,0,0,0,0,0,-1,706,1632,0,0
-511,-608,0,0,0,0,0,0,0,0,0,-1,713,1632,0,0
-504,-608,0,0,0,0,0,0,0,0,0,-1,720,1632,0,0
-497,-608,0,0,0,0,0,0,0,0,0,-1,727,1632,0,0
-490,-608,0,0,0,0,0,0,0,0,0,-1,734,1632,0,0
-483,-608,0,0,0,0,0,0,0,0,0,-1,741,1632,0,0
-476,-608,0,0,0,0,0,0,0,0,0,-1,748,1632,0,0
-469,-608,0,0,0,0,0,0,0,0,0,-1,755,1632,0,0
-462,-608,0,0,0,0,0,0,0,0,0,-1,762,1632,0,0
-455,-608,0,0,0,0,0,0,0,0,0,-1,769,1632,0,0
-448,-608,0,0,0,0,0,0,0,0,0,-1,776,1632,0,0
-441,-608,-7.34601,2.78052,0,0,0,0,0,0,0,-1,783,1632,-7.346,-2.78056
-434,-608,-6.34558,3.27405,0,0,0,0,0,0,0,-1,790,1632,-6.34555,-3.27406
-427,-608,-5.05603,3.92859,0,0,0,0,0,0,0,-1,797,1632,-5.05602,-3.92857
-420,-608,-5.61499,3.51917,0,0,0,0,0,0,0,-1,804,1632,-5.61498,-3.51914
-413,-608,-4.63806,4.34399,0.127944,0.296412,0.205657,0.434417,-0.0100613,0.979768,0.293023,0.0486762,811,1632,-4.63808,-4.34396
-406,-608,-3.69275,5.26758,0.097724,0.236439,0.163143,0.344355,-0.0101921,0.986391,0.233042,0.0448403,818,1632,-3.69272,-5.26761
-399,-608,-2.60645,6.34167,0.0710062,0.180839,0.124454,0.261955,-0.010109,0.993179,0.178102,0.0467004,825,1632,-2.60643,-6.34169
-392,-608,2.83167,6.31909,0,0,0,0,0,0,0,-1,832,1632,2.83165,-6.31909
-385,-608,2.73737,6.54358,0.0317951,0.0925402,0.0642691,0.133252,-0.00891692,1.00614,0.0919513,0.0478808,839,1632,2.73734,-6.54353
-378,-608,2.57471,7.08459,0.0188198,0.0620064,0.0436188,0.0890841,-0.00825789,1.01524,0.0623247,0.0454513,846,1632,2.57469,-7.08459
-371,-608,2.10687,7.39941,0.00994055,0.0395349,0.0285652,0.056908,-0.00743255,1.02438,0.0406434,0.0370216,853,1632,2.1069,-7.39945
-364,-608,2.0838,7.40918,0.00436972,0.0239765,0.0180256,0.0346921,-0.00634588,1.03446,0.0255079,0.0154876,860,1632,2.08381,-7.40912
-357,-608,2.10651,7.59204,-0.000392894,0.0107771,0.00900981,0.0157925,-0.00540832,1.06285,0.0127203,0.0121418,867,1632,2.10649,-7.59204
-350,-608,2.11346,7.78613,-0.00258032,0.00309275,0.00369091,0.00491119,-0.00439875,1.11302,0.00537781,0.0176324,874,1632,2.11349,-7.78607
-343,-608,2.10132,7.95264,-0.00264122,0.000220495,0.00180281,0.00109127,-0.00351199,1.12084,0.00277748,0.0205553,881,1632,2.10134,-7.95263
-336,-608,2.07343,8.11023,-0.00161131,0.000455403,0.00176752,0.00146947,-0.00262538,1.04992,0.00239535,0.0138271,888,1632,2.07342,-8.11029
-329,-608,2.05902,8.29053,-0.000650494,0.000384514,0.001717,0.0016603,-0.00192628,0.931769,0.00207261,0.0126565,895,1632,2.05905,-8.29052
-322,-608,2.04773,8.46326,0.000162792,0.000455438,0.0013854,0.00170222,-0.00108399,0.838012,0.00162177,0.0138307,902,1632,2.0477,-8.4632
-315,-608,2.08197,8.60486,0.000620206,0.000391426,0.000933851,0.00144665,-0.000435015,0.724455,0.00113751,0.0128231,909,1632,2.08199,-8.60491
-308,-608,2.08148,8.75256,0.000839014,-0.000117788,0.000184069,0.000873203,-0.000151978,0.183649,0.000638849,0.0131474,916,1632,2.08146,-8.75261
-301,-608,2.08289,8.91345,0.0010384,-0.00088477,-0.000584253,0.00120198,-0.00104835,-0.272992,0.00130024,0.0104084,923,1632,2.08289,-8.91349
-294,-608,2.07697,9.05383,0.0012379,-0.00179076,-0.00148927,0.00184751,-0.00240037,-0.388528,0.00245942,0.010622,930,1632,2.07697,-9.05389
-287,-608,2.06793,9.21375,0.00153828,-0.00274746,-0.00222162,0.00248207,-0.00369125,-0.40172,0.00358689,0.0108106,937,1632,2.06791,-9.21371
-280,-608,2.08276,9.35791,0.00203087,-0.00381085,-0.00273788,0.00311344,-0.00489342,-0.376537,0.00466068,0.00831337,944,1632,2.08276,-9.3579
-273,-608,2.07977,9.52271,0.00259774,-0.00502591,-0.00324441,0.00379154,-0.00621971,-0.352579,0.00583639,0.00791066,951,1632,2.0798,-9.52265
-266,-608,2.09692,9.67761,0.00333665,-0.00613603,-0.00332471,0.00438707,-0.00718645,-0.306019,0.00674682,0.00828578,958,1632,2.09693,-9.67758
-259,-608,2.1264,9.77673,0.00364026,-0.00720405,-0.00282016,0.00432982,-0.00789361,-0.239806,0.00715649,0.0116451,965,1632,2.1264,-9.77672
-252,-608,2.1377,9.88159,0.00295183,-0.0075036,-0.00259327,0.0035597,-0.00811146,-0.230246,0.00690706,0.0243718,972,1632,2.13767,-9.88162
-245,-608,2.11987,10.1237,0.00347588,-0.00736876,-0.00227529,0.00393391,-0.00782679,-0.198651,0.00691293,0.0368401,979,1632,2.11985,-10.1237
-238,-608,2.16986,10.2822,0.00385629,-0.00686311,-0.00126942,0.00400456,-0.00701139,-0.11628,0.00643855,0.0421836,986,1632,2.16987,-10.2822
-231,-608,2.25848,10.2622,0.00396059,-0.00573835,0.000231744,0.00396613,-0.00574389,0.0238756,0.00563731,0.0499841,993,1632,2.25847,-10.2622
-224,-608,2.32013,10.1097,0,0,0,0,0,0,0,-1,1000,1632,2.32012,-10.1098
-217,-608,3.67822,10.219,0,0,0,0,0,0,0,-1,1007,1632,3.67825,-10.2189
-210,-608,0.861633,8.77087,0,0,0,0,0,0,0,-1,1014,1632,0.861629,-8.77082
-203,-608,-0.794189,11.0488,0,0,0,0,0,0,0,-1,1021,1632,-0.794211,-11.0488
-196,-608,-1.27649,11.892,-0.0130963,0.00651392,-0.0021028,0.00673687,-0.0133192,-1.46517,0.0117854,0.0490443,1028,1632,-1.27644,-11.892
-189,-608,-1.12939,12.6565,-0.021528,0.00705641,-0.00570432,0.00815272,-0.0226243,-1.38092,0.0184123,0.0428615,1035,1632,-1.12936,-12.6565
-182,-608,-1.59705,13.2262,0,0,0,0,0,0,0,-1,1042,1632,-1.59706,-13.2262
-175,-608,1.23792,9.85022,0,0,0,0,0,0,0,-1,1049,1632,1.23792,-9.85021
-168,-608,1.13831,10.4353,0,0,0,0,0,0,0,-1,1056,1632,1.13828,-10.4353
-161,-608,-2.6637,12.158,0,0,0,0,0,0,0,-1,1063,1632,-2.66372,-12.1579
-154,-608,2.94531,9.45898,0,0,0,0,0,0,0,-1,1070,1632,2.94527,-9.45899
-147,-608,2.15784,8.46387,0,0,0,0,0,0,0,-1,1077,1632,2.15785,-8.46393
-140,-608,2.81201,9.77197,0,0,0,0,0,0,0,-1,1084,1632,2.81201,-9.77199
-133,-608,3.51428,11.2786,0,0,0,0,0,0,0,-1,1091,1632,3.51424,-11.2786
-126,-608,4.16882,12.9714,0,0,0,0,0,0,0,-1,1098,1632,4.16886,-12.9714
-119,-608,4.64319,14.5194,0,0,0,0,0,0,0,-1,1105,1632,4.64314,-14.5194
-112,-608,0.745117,10.5587,0,0,0,0,0,0,0,-1,1112,1632,0.745145,-10.5587
-105,-608,-0.252319,1.42419,0,0,0,0,0,0,0,-1,1119,1632,-0.252331,-1.42418
-98,-608,-1.67896,0.994629,0,0,0,0,0,0,0,-1,1126,1632,-1.67895,-0.994599
-91,-608,-2.99451,0.744629,0,0,0,0,0,0,0,-1,1133,1632,-2.99453,-0.744605
-84,-608,0,0,0,0,0,0,0,0,0,-1,1140,1632,0,0
-77,-608,0,0,0,0,0,0,0,0,0,-1,1147,1632,0,0
-70,-608,0,0,0,0,0,0,0,0,0,-1,1154,1632,0,0
-63,-608,0,0,0,0,0,0,0,0,0,-1,1161,1632,0,0
-56,-608,0,0,0,0,0,0,0,0,0,-1,1168,1632,0,0
-49,-608,0,0,0,0,0,0,0,0,0,-1,1175,1632,0,0
-42,-608,0,0,0,0,0,0,0,0,0,-1,1182,1632,0,0
-35,-608,0,0,0,0,0,0,0,0,0,-1,1189,1632,0,0
-28,-608,0,0,0,0,0,0,0,0,0,-1,1196,1632,0,0
-21,-608,0,0,0,0,0,0,0,0,0,-1,1203,1632,0,0
-14,-608,0,0,0,0,0,0,0,0,0,-1,1210,1632,0,0
-7,-608,0,0,0,0,0,0,0,0,0,-1,1217,1632,0,0
0,-608,0,0,0,0,0,0,0,0,0,-1,1224,1632,0,0
7,-608,0,0,0,0,0,0,0,0,0,-1,1231,1632,0,0
14,-608,0,0,0,0,0,0,0,0,0,-1,1238,1632,0,0
21,-608,0,0,0,0,0,0,0,0,0,-1,1245,1632,0,0
28,-608,0,0,0,0,0,0,0,0,0,-1,1252,1632,0,0
35,-608,0,0,0,0,0,0,0,0,0,-1,1259,1632,0,0
42,-608,0,0,0,0,0,0,0,0,0,-1,1266,1632,0,0
49,-608,0,0,0,0,0,0,0,0,0,-1,1273,1632,0,0
56,-608,0,0,0,0,0,0,0,0,0,-1,1280,1632,0,0
63,-608,0,0,0,0,0,0,0,0,0,-1,1287,1632,0,0
70,-608,0,0,0,0,0,0,0,0,0,-1,1294,1632,0,0
77,-608,0,0,0,0,0,0,0,0,0,-1,1301,1632,0,0
84,-608,0,0,0,0,0,0,0,0,0,-1,1308,1632,0,0
91,-608,0,0,0,0,0,0,0,0,0,-1,1315,1632,0,0
98,-608,0,0,0,0,0,0,0,0,0,-1,1322,1632,0,0
105,-608,0,0,0,0,0,0,0,0,0,-1,1329,1632,0,0
112,-608,0,0,0,0,0,0,0,0,0,-1,1336,1632,0,0
119,-608,0,0,0,0,0,0,0,0,0,-1,1343,1632,0,0
126,-608,0,0,0,0,0,0,0,0,0,-1,1350,1632,0,0
133,-608,0,0,0,0,0,0,0,0,0,-1,1357,1632,0,0
140,-608,0,0,0,0,0,0,0,0,0,-1,1364,1632,0,0
147,-608,0,0,0,0,0,0,0,0,0,-1,1371,1632,0,0
154,-608,0,0,0,0,0,0,0,0,0,-1,1378,1632,0,0
161,-608,0,0,0,0,0,0,0,0,0,-1,1385,1632,0,0
168,-608,0,0,0,0,0,0,0,0,0,-1,1392,1632,0,0
175,-608,0,0,0,0,0,0,0,0,0,-1,1399,1632,0,0
182,-608,0,0,0,0,0,0,0,0,0,-1,1406,1632,0,0
189,-608,0,0,0,0,0,0,0,0,0,-1,1413,1632,0,0
196,-608,0,0,0,0,0,0,0,0,0,-1,1420,1632,0,0
203,-608,0,0,0,0,0,0,0,0,0,-1,1427,1632,0,0
210,-608,5.7157,-0.333008,0,0,0,0,0,0,0,-1,1434,1632,5.71566,0.333004
217,-608,4.49402,-0.831787,0,0,0,0,0,0,0,-1,1441,1632,4.49396,0.831738
224,-608,4.18018,-1.11792,0,0,0,0,0,0,0,-1,1448,1632,4.1802,1.11796
231,-608,0.361816,0.825195,0,0,0,0,0,0,0,-1,1455,1632,0.36185,-0.825226
238,-608,2.85388,-0.28833,0,0,0,0,0,0,0,-1,1462,1632,2.85391,0.288282
245,-608,3.87537,4.02173,0,0,0,0,0,0,0,-1,1469,1632,3.87538,-4.02168
252,-608,5.66956,3.5282,0,0,0,0,0,0,0,-1,1476,1632,5.6696,-3.52815
259,-608,7.47437,3.07178,0,0,0,0,0,0,0,-1,1483,1632,7.4744,-3.07172
266,-608,9.46936,2.34766,0,0,0,0,0,0,0,-1,1490,1632,9.46932,-2.34764
273,-608,6.03003,3.34241,0,0,0,0,0,0,0,-1,1497,1632,6.02997,-3.34245
280,-608,5.72461,2.0769,0,0,0,0,0,0,0,-1,1504,1632,5.72457,-2.07688
287,-608,6.20581,3.59338,0,0,0,0,0,0,0,-1,1511,1632,6.20585,-3.59341
294,-608,6.94922,5.17151,0,0,0,0,0,0,0,-1,1518,1632,6.94925,-5.17151
301,-608,7.60083,6.68018,0,0,0,0,0,0,0,-1,1525,1632,7.60086,-6.68013
308,-608,7.64746,9.93848,0,0,0,0,0,0,0,-1,1532,1632,7.64745,-9.93842
315,-608,7.15491,9.41858,-0.058129,-0.135647,0.00881545,-0.0571392,-0.136637,0.111819,0.0792388,0.0462152,1539,1632,7.15493,-9.41852
322,-608,6.66101,8.89734,-0.05314,-0.121359,0.00757576,-0.0523088,-0.12219,0.109277,0.0707892,0.0405653,1546,1632,6.66101,-8.8974
329,-608,6.08679,8.37207,-0.0469602,-0.106336,0.00662047,-0.0462309,-0.107066,0.109705,0.0620057,0.0454293,1553,1632,6.08675,-8.37209
336,-608,5.48633,7.82446,0,0,0,0,0,0,0,-1,1560,1632,5.48634,-7.82446
343,-608,5.47192,5.61047,0,0,0,0,0,0,0,-1,1567,1632,5.47192,-5.61045
350,-608,11.6957,1.71387,0,0,0,0,0,0,0,-1,1574,1632,11.6957,-1.71388
357,-608,3.77002,5.10046,0,0,0,0,0,0,0,-1,1581,1632,3.77002,-5.10043
364,-608,5.6925,11.2163,0,0,0,0,0,0,0,-1,1588,1632,5.69255,-11.2163
371,-608,5.62097,10.9908,-0.0120657,-0.0187875,0.00453142,-0.0097848,-0.0210683,0.466318,0.012174,0.0460001,1595,1632,5.62097,-10.9909
378,-608,5.82837,10.6816,-0.00858214,-0.0103724,0.00492502,-0.00447159,-0.014483,0.695501,0.00856324,0.0383458,1602,1632,5.82836,-10.6816
385,-608,5.83081,10.6526,-0.00613142,-0.00523784,0.00520375,-0.000461734,-0.0109075,0.828223,0.00712277,0.0335041,1609,1632,5.83082,-10.6526
392,-608,5.74976,10.5557,-0.00587429,-0.00552592,0.00520778,-0.000489411,-0.0109108,0.802115,0.00711634,0.0208634,1616,1632,5.74978,-10.5556
399,-608,5.72925,10.5049,-0.00539073,-0.00534162,0.0050287,-0.000337414,-0.0103949,0.787839,0.00682027,0.0105547,1623,1632,5.72929,-10.5049
406,-608,5.75024,10.4052,-0.0046137,-0.00519184,0.00469533,-0.000198553,-0.00960699,0.754654,0.00633951,0.00937278,1630,1632,5.75027,-10.4051
413,-608,5.72583,10.2764,-0.00396595,-0.0044916,0.00437293,0.000152046,-0.0086096,0.755383,0.00579108,0.00988641,1637,1632,5.72581,-10.2763
420,-608,5.72266,10.136,-0.00339995,-0.00379873,0.00395345,0.000359139,-0.00755782,0.760202,0.00516242,0.0158172,1644,1632,5.7226,-10.136
427,-608,5.75,9.99817,-0.00290203,-0.00329191,0.00355442,0.000462787,-0.00665673,0.758004,0.00459985,0.0175636,1651,1632,5.74999,-9.99821
434,-608,5.75378,9.87732,-0.00227922,-0.00260267,0.00295476,0.000518232,-0.00540012,0.758058,0.00378467,0.0147146,1658,1632,5.75375,-9.87733
441,-608,5.74414,9.77222,-0.00157691,-0.00191823,0.00227434,0.000533164,-0.0040283,0.747949,0.00287976,0.0137062,1665,1632,5.74416,-9.77218
448,-608,5.76404,9.62537,-0.000871211,-0.00113858,0.00151038,0.00051139,-0.00252118,0.741258,0.00187465,0.0152864,1672,1632,5.76403,-9.62534
455,-608,5.78003,9.47827,-0.000279287,-0.000487848,0.000750181,0.000373827,-0.00114096,0.716337,0.00091118,0.0114335,1679,1632,5.78004,-9.47827
462,-608,5.76318,9.33032,0.00036423,0.00027862,-4.36477e-05,0.000382559,0.000260291,-0.397571,0.000225611,0.00998206,1686,1632,5.76316,-9.33032
469,-608,5.74304,9.18091,0.00091571,0.00116623,-0.000806492,0.00185713,0.000224808,-0.862439,0.00117037,0.00813129,1693,1632,5.74305,-9.1809
476,-608,5.7467,9.03735,0.00140771,0.00172399,-0.00149501,0.0030692,6.25013e-05,-0.838091,0.00202562,0.00886348,1700,1632,5.74669,-9.03736
483,-608,5.74646,8.89209,0.00216448,0.00173651,-0.00203012,0.00399187,-9.08743e-05,-0.73289,0.00269205,0.00837997,1707,1632,5.7465,-8.89209
490,-608,5.75037,8.75146,0.00365418,0.00201594,-0.00290703,0.00585529,-0.000185166,-0.648073,0.00396669,0.0082879,1714,1632,5.75032,-8.75145
497,-608,5.75842,8.61157,0.00542795,0.00194871,-0.00389027,0.00794984,-0.000573182,-0.575148,0.00550092,0.0128214,1721,1632,5.75847,-8.61162
504,-608,5.73621,8.43689,0.00743721,0.0017574,-0.00522712,0.0105461,-0.00135146,-0.536555,0.00752178,0.0268067,1728,1632,5.73615,-8.43693
511,-608,5.63721,8.19678,0.0101458,0.001409,-0.00661856,0.0137076,-0.00215281,-0.493703,0.00993409,0.0426687,1735,1632,5.63715,-8.19683
518,-608,5.56079,8.04077,0,0,0,0,0,0,0,-1,1742,1632,5.56077,-8.04078
525,-608,5.83191,8.3938,0,0,0,0,0,0,0,-1,1749,1632,5.83185,-8.39375
532,-608,6.2677,8.43347,0,0,0,0,0,0,0,-1,1756,1632,6.26774,-8.43353
539,-608,9.40796,1.43457,0,0,0,0,0,0,0,-1,1763,1632,9.40801,-1.43463
546,-608,9.94031,2.1134,0,0,0,0,0,0,0,-1,1770,1632,9.94031,-2.11346
553,-608,10.363,2.81335,0,0,0,0,0,0,0,-1,1777,1632,10.3631,-2.81333
560,-608,9.23999,4.5636,0,0,0,0,0,0,0,-1,1784,1632,9.24,-4.56354
567,-608,0,0,0,0,0,0,0,0,0,-1,1791,1632,0,0
574,-608,0,0,0,0,0,0,0,0,0,-1,1798,1632,0,0
581,-608,0,0,0,0,0,0,0,0,0,-1,1805,1632,0,0
588,-608,0,0,0,0,0,0,0,0,0,-1,1812,1632,0,0
595,-608,0,0,0,0,0,0,0,0,0,-1,1819,1632,0,0
602,-608,0,0,0,0,0,0,0,0,0,-1,1826,1632,0,0
609,-608,0,0,0,0,0,0,0,0,0,-1,1833,1632,0,0
616,-608,0,0,0,0,0,0,0,0,0,-1,1840,1632,0,0
623,-608,0,0,0,0,0,0,0,0,0,-1,1847,1632,0,0
630,-608,0,0,0,0,0,0,0,0,0,-1,1854,1632,0,0
637,-608,0,0,0,0,0,0,0,0,0,-1,1861,1632,0,0
644,-608,0,0,0,0,0,0,0,0,0,-1,1868,1632,0,0
651,-608,0,0,0,0,0,0,0,0,0,-1,1875,1632,0,0
658,-608,0,0,0,0,0,0,0,0,0,-1,1882,1632,0,0
665,-608,0,0,0,0,0,0,0,0,0,-1,1889,1632,0,0
672,-608,0,0,0,0,0,0,0,0,0,-1,1896,1632,0,0
679,-608,0,0,0,0,0,0,0,0,0,-1,1903,1632,0,0
686,-608,0,0,0,0,0,0,0,0,0,-1,1910,1632,0,0
693,-608,0,0,0,0,0,0,0,0,0,-1,1917,1632,0,0
700,-608,0,0,0,0,0,0,0,0,0,-1,1924,1632,0,0
707,-608,0,0,0,0,0,0,0,0,0,-1,1931,1632,0,0
714,-608,0,0,0,0,0,0,0,0,0,-1,1938,1632,0,0
721,-608,0,0,0,0,0,0,0,0,0,-1,1945,1632,0,0
728,-608,0,0,0,0,0,0,0,0,0,-1,1952,1632,0,0
735,-608,0,0,0,0,0,0,0,0,0,-1,1959,1632,0,0
742,-608,0,0,0,0,0,0,0,0,0,-1,1966,1632,0,0
749,-608,0,0,0,0,0,0,0,0,0,-1,1973,1632,0,0
756,-608,0,0,0,0,0,0,0,0,0,-1,1980,1632,0,0
763,-608,0,0,0,0,0,0,0,0,0,-1,1987,1632,0,0
770,-608,0,0,0,0,0,0,0,0,0,-1,1994,1632,0,0
777,-608,0,0,0,0,0,0,0,0,0,-1,2001,1632,0,0
784,-608,0,0,0,0,0,0,0,0,0,-1,2008,1632,0,0
791,-608,0,0,0,0,0,0,0,0,0,-1,2015,1632,0,0
798,-608,0,0,0,0,0,0,0,0,0,-1,2022,1632,0,0
805,-608,0,0,0,0,0,0,0,0,0,-1,2029,1632,0,0
812,-608,0,0,0,0,0,0,0,0,0,-1,2036,1632,0,0
-700,-615,0,0,0,0,0,0,0,0,0,-1,524,1639,0,0
-693,-615,0,0,0,0,0,0,0,0,0,-1,531,1639,0,0
-686,-615,0,0,0,0,0,0,0,0,0,-1,538,1639,0,0
-679,-615,0,0,0,0,0,0,0,0,0,-1,545,1639,0,0
-672,-615,0,0,0,0,0,0,0,0,0,-1,552,1639,0,0
-665,-615,0,0,0,0,0,0,0,0,0,-1,559,1639,0,0
-658,-615,0,0,0,0,0,0,0,0,0,-1,566,1639,0,0
-651,-615,0,0,0,0,0,0,0,0,0,-1,573,1639,0,0
-644,-615,0,0,0,0,0,0,0,0,0,-1,580,1639,0,0
-637,-615,0,0,0,0,0,0,0,0,0,-1,587,1639,0,0
-630,-615,0,0,0,0,0,0,0,0,0,-1,594,1639,0,0
-623,-615,0,0,0,0,0,0,0,0,0,-1,601,1639,0,0
-616,-615,0,0,0,0,0,0,0,0,0,-1,608,1639,0,0
-609,-615,0,0,0,0,0,0,0,0,0,-1,615,1639,0,0
-602,-615,0,0,0,0,0,0,0,0,0,-1,622,1639,0,0
-595,-615,0,0,0,0,0,0,0,0,0,-1,629,1639,0,0
-588,-615,0,0,0,0,0,0,0,0,0,-1,636,1639,0,0
-581,-615,0,0,0,0,0,0,0,0,0,-1,643,1639,0,0
-574,-615,0,0,0,0,0,0,0,0,0,-1,650,1639,0,0
-567,-615,0,0,0,0,0,0,0,0,0,-1,657,1639,0,0
-560,-615,0,0,0,0,0,0,0,0,0,-1,664,1639,0,0
-553,-615,0,0,0,0,0,0,0,0,0,-1,671,1639,0,0
-546,-615,0,0,0,0,0,0,0,0,0,-1,678,1639,0,0
-539,-615,0,0,0,0,0,0,0,0,0,-1,685,1639,0,0
-532,-615,0,0,0,0,0,0,0,0,0,-1,692,1639,0,0
-525,-615,0,0,0,0,0,0,0,0,0,-1,699,1639,0,0
-518,-615,0,0,0,0,0,0,0,0,0,-1,706,1639,0,0
-511,-615,0,0,0,0,0,0,0,0,0,-1,713,1639,0,0
-504,-615,0,0,0,0,0,0,0,0,0,-1,720,1639,0,0
-497,-615,0,0,0,0,0,0,0,0,0,-1,727,1639,0,0
-490,-615,0,0,0,0,0,0,0,0,0,-1,734,1639,0,0
-483,-615,0,0,0,0,0,0,0,0,0,-1,741,1639,0,0
-476,-615,0,0,0,0,0,0,0,0,0,-1,748,1639,0,0
-469,-615,0,0,0,0,0,0,0,0,0,-1,755,1639,0,0
-462,-615,0,0,0,0,0,0,0,0,0,-1,762,1639,0,0
-455,-615,0,0,0,0,0,0,0,0,0,-1,769,1639,0,0
-448,-615,0,0,0,0,0,0,0,0,0,-1,776,1639,0,0
-441,-615,0,0,0,0,0,0,0,0,0,-1,783,1639,0,0
-434,-615,-7.64508,2.98596,0,0,0,0,0,0,0,-1,790,1639,-7.64505,-2.98594
-427,-615,-8.88153,0.496216,0,0,0,0,0,0,0,-1,797,1639,-8.88154,-0.49627
-420,-615,-7.74091,1.49768,0,0,0,0,0,0,0,-1,804,1639,-7.7409,-1.49771
-413,-615,-6.54474,2.53772,0,0,0,0,0,0,0,-1,811,1639,-6.54472,-2.53775
-406,-615,-5.43872,3.50488,0,0,0,0,0,0,0,-1,818,1639,-5.43874,-3.50493
-399,-615,-4.84875,3.91907,0,0,0,0,0,0,0,-1,825,1639,-4.84877,-3.91901
-392,-615,-3.4469,5.28418,0,0,0,0,0,0,0,-1,832,1639,-3.44689,-5.28422
-385,-615,3.22241,6.19495,0,0,0,0,0,0,0,-1,839,1639,3.22244,-6.195
-378,-615,2.7121,6.85742,0.0237547,0.0770853,0.05564,0.11212,-0.0112796,1.00885,0.0787759,0.0469156,846,1639,2.71208,-6.85737
-371,-615,2.32825,7.46777,0.0127205,0.0489912,0.0370057,0.0720664,-0.0103548,1.01323,0.0518418,0.0455398,853,1639,2.32822,-7.4678
-364,-615,2.23602,7.52014,0.00582714,0.0294899,0.0239047,0.0443309,-0.00901387,1.01519,0.0329719,0.0310486,860,1639,2.23602,-7.52018
-357,-615,2.31537,7.62659,-7.76053e-05,0.0131591,0.0127176,0.0208774,-0.00779596,1.02532,0.0171192,0.0248192,867,1639,2.31539,-7.62655
-350,-615,2.27106,7.78479,-0.00278745,0.00368604,0.00609376,0.00734933,-0.00645073,1.02953,0.0079731,0.0237465,874,1639,2.27107,-7.78478
-343,-615,2.23309,7.92578,-0.00297981,6.91561e-05,0.00360268,0.00245662,-0.00536728,0.985551,0.00462015,0.0194276,881,1639,2.23311,-7.92582
-336,-615,2.23895,8.11487,-0.00193682,0.000288226,0.0033495,0.00270513,-0.00435373,0.945739,0.00411232,0.010494,888,1639,2.23895,-8.11481
-329,-615,2.21594,8.29272,-0.000961903,0.000200287,0.00307258,0.00274624,-0.00350785,0.878856,0.00361971,0.0103339,895,1639,2.21594,-8.29271
-322,-615,2.21704,8.47583,-0.00014714,0.000254174,0.00251089,0.00257241,-0.00246537,0.825271,0.00290878,0.0115685,902,1639,2.21705,-8.47587
-315,-615,2.24176,8.6344,0.000256378,0.000264594,0.00189077,0.00215127,-0.00163029,0.786485,0.00219018,0.0131738,909,1639,2.24173,-8.63435
-308,-615,2.2207,8.78516,0.000392911,-0.000121301,0.00105475,0.00122144,-0.000949833,0.66585,0.00125685,0.0189596,916,1639,2.22073,-8.78517
-301,-615,2.23694,8.92786,0.000524373,-0.000745828,0.000204519,0.000556491,-0.000777946,0.15577,0.000773966,0.0124823,923,1639,2.23694,-8.92787
-294,-615,2.2334,9.0625,0.000701494,-0.00145739,-0.000695335,0.000906064,-0.00166196,-0.28613,0.0015039,0.0103316,930,1639,2.23342,-9.06256
-287,-615,2.2124,9.22461,0.000811024,-0.00224176,-0.00162468,0.00151386,-0.00294459,-0.40829,0.0026179,0.00824452,937,1639,2.21243,-9.22466
-280,-615,2.2337,9.35205,0.00094827,-0.00312611,-0.00250167,0.0021373,-0.00431514,-0.443688,0.00379539,0.00817165,944,1639,2.2337,-9.35205
-273,-615,2.23627,9.51929,0.00121692,-0.00419056,-0.00335369,0.00282101,-0.00579465,-0.446144,0.00507205,0.00884384,951,1639,2.23629,-9.51927
-266,-615,2.23309,9.66931,0.00149856,-0.00514702,-0.0039743,0.00335611,-0.00700457,-0.437223,0.00610412,0.00967672,958,1639,2.23311,-9.66931
-259,-615,2.2594,9.78931,0.00116648,-0.00610438,-0.00427451,0.00314244,-0.00808034,-0.433009,0.00668527,0.0108677,965,1639,2.25942,-9.78929
-252,-615,2.27417,9.90796,-0.000199383,-0.00642595,-0.00515665,0.00271091,-0.00933625,-0.513815,0.00729762,0.0116044,972,1639,2.27419,-9.90801
-245,-615,2.24738,10.0272,-0.000622431,-0.00649972,-0.00604741,0.00316252,-0.0102847,-0.559232,0.00811861,0.0181523,979,1639,2.24739,-10.0272
-238,-615,2.28168,10.1595,-0.00123806,-0.00649837,-0.00657332,0.00321178,-0.0109482,-0.595091,0.00857236,0.0265323,986,1639,2.28169,-10.1596
-231,-615,2.34991,10.2577,-0.00202641,-0.00598667,-0.00668085,0.00296157,-0.0109747,-0.641328,0.00847785,0.0344643,993,1639,2.34993,-10.2576
-224,-615,2.45251,10.2498,-0.00289281,-0.00483558,-0.00701381,0.00321656,-0.010945,-0.716588,0.00857239,0.0493494,1000,1639,2.45249,-10.2497
-217,-615,2.75018,10.134,0,0,0,0,0,0,0,-1,1007,1639,2.75017,-10.134
-210,-615,2.82635,10.3766,0,0,0,0,0,0,0,-1,1014,1639,2.82637,-10.3766
-203,-615,0.113953,10.9618,-0.0121031,0.00016088,-0.00843701,0.00445887,-0.0164011,-1.09964,0.0126843,0.047334,1021,1639,0.113934,-10.9618
-196,-615,-0.123901,11.774,-0.0181887,0.00158942,-0.00972529,0.00557028,-0.0221696,-1.18227,0.0169445,0.0448234,1028,1639,-0.123945,-11.774
-189,-615,-0.247681,12.5125,-0.0241789,0.00166681,-0.0112499,0.00587755,-0.0283896,-1.21265,0.0211595,0.0473736,1035,1639,-0.247624,-12.5125
-182,-615,-0.428467,13.1213,0,0,0,0,0,0,0,-1,1042,1639,-0.428519,-13.1213
-175,-615,-0.609985,13.8434,0,0,0,0,0,0,0,-1,1049,1639,-0.610016,-13.8434
-168,-615,2.02783,9.96631,0,0,0,0,0,0,0,-1,1056,1639,2.0278,-9.96637
-161,-615,-0.596191,10.6527,0,0,0,0,0,0,0,-1,1063,1639,-0.596214,-10.6527
-154,-615,-0.658569,11.2257,0,0,0,0,0,0,0,-1,1070,1639,-0.658593,-11.2257
-147,-615,-0.902954,12.1337,0,0,0,0,0,0,0,-1,1077,1639,-0.903013,-12.1337
-140,-615,3.20911,9.51636,0,0,0,0,0,0,0,-1,1084,1639,3.2091,-9.51638
-133,-615,3.85278,10.8184,0,0,0,0,0,0,0,-1,1091,1639,3.85272,-10.8184
-126,-615,4.45654,12.297,0,0,0,0,0,0,0,-1,1098,1639,4.45653,-12.297
-119,-615,4.82983,13.9279,0,0,0,0,0,0,0,-1,1105,1639,4.82986,-13.9278
-112,-615,3.65698,14.4874,0,0,0,0,0,0,0,-1,1112,1639,3.65695,-14.4875
-105,-615,0.958496,2.45398,0,0,0,0,0,0,0,-1,1119,1639,0.958452,-2.45398
-98,-615,-0.647705,2.12109,0,0,0,0,0,0,0,-1,1126,1639,-0.647756,-2.12105
-91,-615,-1.48572,0.604492,0,0,0,0,0,0,0,-1,1133,1639,-1.48576,-0.604443
-84,-615,-2.46509,0.703247,0,0,0,0,0,0,0,-1,1140,1639,-2.46505,-0.703273
-77,-615,-3.17859,1.23755,0,0,0,0,0,0,0,-1,1147,1639,-3.17865,-1.23752
-70,-615,-4.03943,1.43335,0,0,0,0,0,0,0,-1,1154,1639,-4.03942,-1.43339
-63,-615,-4.8877,1.45544,0,0,0,0,0,0,0,-1,1161,1639,-4.88766,-1.45549
-56,-615,0,0,0,0,0,0,0,0,0,-1,1168,1639,0,0
-49,-615,0,0,0,0,0,0,0,0,0,-1,1175,1639,0,0
-42,-615,0,0,0,0,0,0,0,0,0,-1,1182,1639,0,0
-35,-615,0,0,0,0,0,0,0,0,0,-1,1189,1639,0,0
-28,-615,0,0,0,0,0,0,0,0,0,-1,1196,1639,0,0
-21,-615,0,0,0,0,0,0,0,0,0,-1,1203,1639,0,0
-14,-615,0,0,0,0,0,0,0,0,0,-1,1210,1639,0,0
-7,-615,0,0,0,0,0,0,0,0,0,-1,1217,1639,0,0
0,-615,0,0,0,0,0,0,0,0,0,-1,1224,1639,0,0
7,-615,0,0,0,0,0,0,0,0,0,-1,1231,1639,0,0
14,-615,0,0,0,0,0,0,0,0,0,-1,1238,1639,0,0
21,-615,0,0,0,0,0,0,0,0,0,-1,1245,1639,0,0
28,-615,0,0,0,0,0,0,0,0,0,-1,1252,1639,0,0
35,-615,0,0,0,0,0,0,0,0,0,-1,1259,1639,0,0
42,-615,0,0,0,0,0,0,0,0,0,-1,1266,1639,0,0
49,-615,0,0,0,0,0,0,0,0,0,-1,1273,1639,0,0
56,-615,0,0,0,0,0,0,0,0,0,-1,1280,1639,0,0
63,-615,0,0,0,0,0,0,0,0,0,-1,1287,1639,0,0
70,-615,0,0,0,0,0,0,0,0,0,-1,1294,1639,0,0
77,-615,0,0,0,0,0,0,0,0,0,-1,1301,1639,0,0
84,-615,0,0,0,0,0,0,0,0,0,-1,1308,1639,0,0
91,-615,0,0,0,0,0,0,0,0,0,-1,1315,1639,0,0
98,-615,0,0,0,0,0,0,0,0,0,-1,1322,1639,0,0
105,-615,0,0,0,0,0,0,0,0,0,-1,1329,1639,0,0
112,-615,0,0,0,0,0,0,0,0,0,-1,1336,1639,0,0
119,-615,0,0,0,0,0,0,0,0,0,-1,1343,1639,0,0
126,-615,0,0,0,0,0,0,0,0,0,-1,1350,1639,0,0
133,-615,0,0,0,0,0,0,0,0,0,-1,1357,1639,0,0
140,-615,0,0,0,0,0,0,0,0,0,-1,1364,1639,0,0
147,-615,0,0,0,0,0,0,0,0,0,-1,1371,1639,0,0
154,-615,0,0,0,0,0,0,0,0,0,-1,1378,1639,0,0
161,-615,0,0,0,0,0,0,0,0,0,-1,1385,1639,0,0
168,-615,0,0,0,0,0,0,0,0,0,-1,1392,1639,0,0
175,-615,5.39648,-2.00879,0,0,0,0,0,0,0,-1,1399,1639,5.3965,2.00881
182,-615,5.65393,-1.51025,0,0,0,0,0,0,0,-1,1406,1639,5.65388,1.51028
189,-615,5.58972,-1.35608,0,0,0,0,0,0,0,-1,1413,1639,5.58967,1.35607
196,-615,5.49915,-0.693604,0,0,0,0,0,0,0,-1,1420,1639,5.4991,0.693602
203,-615,5.33411,-0.226685,0,0,0,0,0,0,0,-1,1427,1639,5.33414,0.226689
210,-615,5.60278,0.108276,0,0,0,0,0,0,0,-1,1434,1639,5.60284,-0.10831
217,-615,6.26331,-0.307373,0,0,0,0,0,0,0,-1,1441,1639,6.26331,0.307372
224,-615,5.45422,-0.333984,0,0,0,0,0,0,0,-1,1448,1639,5.45422,0.333992
231,-615,4.92542,1.80298,0,0,0,0,0,0,0,-1,1455,1639,4.92537,-1.80297
238,-615,4.76355,1.96729,0,0,0,0,0,0,0,-1,1462,1639,4.76357,-1.96734
245,-615,4.08643,3.15906,0,0,0,0,0,0,0,-1,1469,1639,4.08638,-3.159
252,-615,6.37805,3.73889,0,0,0,0,0,0,0,-1,1476,1639,6.37806,-3.73891
259,-615,8.35974,3.16443,0,0,0,0,0,0,0,-1,1483,1639,8.35975,-3.16444
266,-615,10.3414,2.58997,0,0,0,0,0,0,0,-1,1490,1639,10.3414,-2.58996
273,-615,6.57043,1.84766,0,0,0,0,0,0,0,-1,1497,1639,6.5704,-1.84771
280,-615,7.10449,3.23438,0,0,0,0,0,0,0,-1,1504,1639,7.10447,-3.23435
287,-615,7.35779,4.68542,0,0,0,0,0,0,0,-1,1511,1639,7.35776,-4.68546
294,-615,7.63733,6.29114,0,0,0,0,0,0,0,-1,1518,1639,7.63735,-6.29109
301,-615,8.20715,7.81995,0,0,0,0,0,0,0,-1,1525,1639,8.20719,-7.81993
308,-615,6.8114,10.9059,0,0,0,0,0,0,0,-1,1532,1639,6.81137,-10.9058
315,-615,6.45947,10.4468,-0.0417855,-0.101608,0.00707447,-0.0409602,-0.102433,0.116124,0.0595336,0.0460113,1539,1639,6.4595,-10.4468
322,-615,6.15991,10.0115,-0.0379419,-0.0902053,0.00623112,-0.0372092,-0.0909379,0.11704,0.052791,0.0399158,1546,1639,6.15991,-10.0114
329,-615,5.60083,9.57312,-0.0333785,-0.0783084,0.0055708,-0.0326981,-0.0789888,0.121537,0.0458287,0.0423449,1553,1639,5.60086,-9.57311
336,-615,4.98572,9.04773,0,0,0,0,0,0,0,-1,1560,1639,4.98573,-9.04775
343,-615,2.40491,6.50134,0,0,0,0,0,0,0,-1,1567,1639,2.40489,-6.50137
350,-615,6.34619,11.8716,0,0,0,0,0,0,0,-1,1574,1639,6.34615,-11.8715
357,-615,5.72083,11.1754,0,0,0,0,0,0,0,-1,1581,1639,5.72078,-11.1754
364,-615,5.61584,10.9469,0,0,0,0,0,0,0,-1,1588,1639,5.6158,-10.9469
371,-615,5.63013,10.8843,-0.00799436,-0.0133936,0.00350528,-0.00626963,-0.0151184,0.457258,0.00877082,0.0370483,1595,1639,5.63012,-10.8843
378,-615,5.6145,10.8838,-0.00541086,-0.0074132,0.00365738,-0.0026201,-0.010204,0.651801,0.0061192,0.0205455,1602,1639,5.61445,-10.8838
385,-615,5.59973,10.75,-0.00368515,-0.00374991,0.00379282,7.54253e-05,-0.00751049,0.78113,0.00503232,0.0113564,1609,1639,5.59977,-10.7499
392,-615,5.59436,10.6388,-0.00359828,-0.00391842,0.00374148,-1.3452e-05,-0.00750325,0.764019,0.00499769,0.00887353,1616,1639,5.5944,-10.6388
399,-615,5.6084,10.543,-0.00332129,-0.00377551,0.00357086,2.96682e-05,-0.00712647,0.75364,0.0047609,0.0107821,1623,1639,5.60844,-10.543
406,-615,5.6073,10.41,-0.00282525,-0.0037237,0.00330953,6.54035e-05,-0.00661436,0.717942,0.00443154,0.0118377,1630,1639,5.60729,-10.4101
413,-615,5.59241,10.2758,-0.0024735,-0.0031955,0.00308035,0.000266933,-0.00593593,0.727068,0.0040492,0.0120359,1637,1639,5.59244,-10.2758
420,-615,5.6073,10.1367,-0.00215681,-0.00261983,0.00277535,0.000396674,-0.00517331,0.743786,0.00358842,0.01162,1644,1639,5.60728,-10.1367
427,-615,5.61755,9.99695,-0.00183015,-0.00228421,0.00247907,0.000432268,-0.00454662,0.739736,0.00318496,0.0129587,1651,1639,5.61753,-9.99696
434,-615,5.61951,9.87231,-0.00140356,-0.00175857,0.00200313,0.000429914,-0.00359205,0.741207,0.00255011,0.0133543,1658,1639,5.61946,-9.87226
441,-615,5.62207,9.75354,-0.000864431,-0.00115981,0.00143353,0.000428995,-0.00245323,0.734067,0.00179565,0.0134171,1665,1639,5.62204,-9.75352
448,-615,5.62305,9.62952,-0.0002627,-0.000417971,0.000743432,0.00040714,-0.00108781,0.733373,0.000892433,0.0140678,1672,1639,5.623,-9.62956
455,-615,5.63,9.49438,0.000250111,0.000162092,5.81736e-05,0.000279047,0.000133157,0.461568,0.000161164,0.0135579,1679,1639,5.62996,-9.49433
462,-615,5.62671,9.36218,0.000782199,0.000934814,-0.000686489,0.00154922,0.00016779,-0.840749,0.000981677,0.0138901,1686,1639,5.62669,-9.36217
469,-615,5.61401,9.19287,0.00133501,0.00183869,-0.00145833,0.00306676,0.000106931,-0.8709,0.00200981,0.0121919,1693,1639,5.614,-9.19287
476,-615,5.60876,9.03137,0.00192309,0.00251222,-0.00216163,0.00439926,3.6051e-05,-0.853117,0.0029209,0.0109221,1700,1639,5.6088,-9.03134
483,-615,5.61108,8.86584,0.00280664,0.00265398,-0.0027869,0.00551826,-5.76377e-05,-0.771708,0.0036982,0.0139618,1707,1639,5.61114,-8.8659
490,-615,5.61096,8.72791,0.00442945,0.00313441,-0.00381182,0.00764836,-8.44919e-05,-0.701265,0.0051273,0.0153794,1714,1639,5.6109,-8.72793
497,-615,5.58484,8.63269,0.00643921,0.0032479,-0.00493966,0.0100345,-0.000347431,-0.629174,0.00680846,0.0225398,1721,1639,5.58485,-8.63271
504,-615,5.62195,8.46643,0.00885529,0.00304072,-0.00646628,0.0130378,-0.00114178,-0.574135,0.00909637,0.0446451,1728,1639,5.62196,-8.46645
511,-615,5.69153,8.29932,0,0,0,0,0,0,0,-1,1735,1639,5.69159,-8.29932
518,-615,5.5238,7.49182,0,0,0,0,0,0,0,-1,1742,1639,5.52375,-7.49185
525,-615,4.37524,3.90491,0,0,0,0,0,0,0,-1,1749,1639,4.37518,-3.90495
532,-615,7.3645,0.848145,0,0,0,0,0,0,0,-1,1756,1639,7.36451,-0.848093
539,-615,12.8112,-0.0476074,0,0,0,0,0,0,0,-1,1763,1639,12.8111,0.0475553
546,-615,8.33813,2.94556,0,0,0,0,0,0,0,-1,1770,1639,8.33813,-2.9455
553,-615,5.82532,-2.04199,0,0,0,0,0,0,0,-1,1777,1639,5.82534,2.04195
560,-615,0,0,0,0,0,0,0,0,0,-1,1784,1639,0,0
567,-615,0,0,0,0,0,0,0,0,0,-1,1791,1639,0,0
574,-615,0,0,0,0,0,0,0,0,0,-1,1798,1639,0,0
581,-615,0,0,0,0,0,0,0,0,0,-1,1805,1639,0,0
588,-615,0,0,0,0,0,0,0,0,0,-1,1812,1639,0,0
595,-615,0,0,0,0,0,0,0,0,0,-1,1819,1639,0,0
602,-615,0,0,0,0,0,0,0,0,0,-1,1826,1639,0,0
609,-615,0,0,0,0,0,0,0,0,0,-1,1833,1639,0,0
616,-615,0,0,0,0,0,0,0,0,0,-1,1840,1639,0,0
623,-615,0,0,0,0,0,0,0,0,0,-1,1847,1639,0,0
630,-615,0,0,0,0,0,0,0,0,0,-1,1854,1639,0,0
637,-615,0,0,0,0,0,0,0,0,0,-1,1861,1639,0,0
644,-615,0,0,0,0,0,0,0,0,0,-1,1868,1639,0,0
651,-615,0,0,0,0,0,0,0,0,0,-1,1875,1639,0,0
658,-615,0,0,0,0,0,0,0,0,0,-1,1882,1639,0,0
665,-615,0,0,0,0,0,0,0,0,0,-1,1889,1639,0,0
672,-615,0,0,0,0,0,0,0,0,0,-1,1896,1639,0,0
679,-615,0,0,0,0,0,0,0,0,0,-1,1903,1639,0,0
686,-615,0,0,0,0,0,0,0,0,0,-1,1910,1639,0,0
693,-615,0,0,0,0,0,0,0,0,0,-1,1917,1639,0,0
700,-615,0,0,0,0,0,0,0,0,0,-1,1924,1639,0,0
707,-615,0,0,0,0,0,0,0,0,0,-1,1931,1639,0,0
714,-615,0,0,0,0,0,0,0,0,0,-1,1938,1639,0,0
721,-615,0,0,0,0,0,0,0,0,0,-1,1945,1639,0,0
728,-615,0,0,0,0,0,0,0,0,0,-1,1952,1639,0,0
735,-615,0,0,0,0,0,0,0,0,0,-1,1959,1639,0,0
742,-615,0,0,0,0,0,0,0,0,0,-1,1966,1639,0,0
749,-615,0,0,0,0,0,0,0,0,0,-1,1973,1639,0,0
756,-615,0,0,0,0,0,0,0,0,0,-1,1980,1639,0,0
763,-615,0,0,0,0,0,0,0,0,0,-1,1987,1639,0,0
770,-615,0,0,0,0,0,0,0,0,0,-1,1994,1639,0,0
777,-615,0,0,0,0,0,0,0,0,0,-1,2001,1639,0,0
784,-615,0,0,0,0,0,0,0,0,0,-1,2008,1639,0,0
791,-615,0,0,0,0,0,0,0,0,0,-1,2015,1639,0,0
798,-615,0,0,0,0,0,0,0,0,0,-1,2022,1639,0,0
805,-615,0,0,0,0,0,0,0,0,0,-1,2029,1639,0,0
812,-615,0,0,0,0,0,0,0,0,0,-1,2036,1639,0,0
-700,-622,0,0,0,0,0,0,0,0,0,-1,524,1646,0,0
-693,-622,0,0,0,0,0,0,0,0,0,-1,531,1646,0,0
-686,-622,0,0,0,0,0,0,0,0,0,-1,538,1646,0,0
-679,-622,0,0,0,0,0,0,0,0,0,-1,545,1646,0,0
-672,-622,0,0,0,0,0,0,0,0,0,-1,552,1646,0,0
-665,-622,0,0,0,0,0,0,0,0,0,-1,559,1646,0,0
-658,-622,0,0,0,0,0,0,0,0,0,-1,566,1646,0,0
-651,-622,0,0,0,0,0,0,0,0,0,-1,573,1646,0,0
-644,-622,0,0,0,0,0,0,0,0,0,-1,580,1646,0,0
-637,-622,0,0,0,0,0,0,0,0,0,-1,587,1646,0,0
-630,-622,0,0,0,0,0,0,0,0,0,-1,594,1646,0,0
-623,-622,0,0,0,0,0,0,0,0,0,-1,601,1646,0,0
-616,-622,0,0,0,0,0,0,0,0,0,-1,608,1646,0,0
-609,-622,0,0,0,0,0,0,0,0,0,-1,615,1646,0,0
-602,-622,0,0,0,0,0,0,0,0,0,-1,622,1646,0,0
-595,-622,0,0,0,0,0,0,0,0,0,-1,629,1646,0,0
-588,-622,0,0,0,0,0,0,0,0,0,-1,636,1646,0,0
-581,-622,0,0,0,0,0,0,0,0,0,-1,643,1646,0,0
-574,-622,0,0,0,0,0,0,0,0,0,-1,650,1646,0,0
-567,-622,0,0,0,0,0,0,0,0,0,-1,657,1646,0,0
-560,-622,0,0,0,0,0,0,0,0,0,-1,664,1646,0,0
-553,-622,0,0,0,0,0,0,0,0,0,-1,671,1646,0,0
-546,-622,0,0,0,0,0,0,0,0,0,-1,678,1646,0,0
-539,-622,0,0,0,0,0,0,0,0,0,-1,685,1646,0,0
-532,-622,0,0,0,0,0,0,0,0,0,-1,692,1646,0,0
-525,-622,0,0,0,0,0,0,0,0,0,-1,699,1646,0,0
-518,-622,0,0,0,0,0,0,0,0,0,-1,706,1646,0,0
-511,-622,0,0,0,0,0,0,0,0,0,-1,713,1646,0,0
-504,-622,0,0,0,0,0,0,0,0,0,-1,720,1646,0,0
-497,-622,0,0,0,0,0,0,0,0,0,-1,727,1646,0,0
-490,-622,0,0,0,0,0,0,0,0,0,-1,734,1646,0,0
-483,-622,0,0,0,0,0,0,0,0,0,-1,741,1646,0,0
-476,-622,0,0,0,0,0,0,0,0,0,-1,748,1646,0,0
-469,-622,0,0,0,0,0,0,0,0,0,-1,755,1646,0,0
-462,-622,0,0,0,0,0,0,0,0,0,-1,762,1646,0,0
-455,-622,0,0,0,0,0,0,0,0,0,-1,769,1646,0,0
-448,-622,0,0,0,0,0,0,0,0,0,-1,776,1646,0,0
-441,-622,0,0,0,0,0,0,0,0,0,-1,783,1646,0,0
-434,-622,0,0,0,0,0,0,0,0,0,-1,790,1646,0,0
-427,-622,-7.62891,3.48096,0,0,0,0,0,0,0,-1,797,1646,-7.62892,-3.48092
-420,-622,-9.86938,0.0371094,0,0,0,0,0,0,0,-1,804,1646,-9.86937,-0.0371326
-413,-622,-8.5658,1.0321,0,0,0,0,0,0,0,-1,811,1646,-8.56579,-1.03216
-406,-622,-4.44318,2.16858,0,0,0,0,0,0,0,-1,818,1646,-4.44315,-2.16859
-399,-622,-7.06976,1.51001,0,0,0,0,0,0,0,-1,825,1646,-7.06976,-1.51005
-392,-622,-2.1485,4.26294,0,0,0,0,0,0,0,-1,832,1646,-2.14853,-4.2629
-385,-622,2.99286,5.96765,0,0,0,0,0,0,0,-1,839,1646,2.99286,-5.96763
-378,-622,2.62769,6.70862,0,0,0,0,0,0,0,-1,846,1646,2.6277,-6.70866
-371,-622,2.38501,7.55371,0,0,0,0,0,0,0,-1,853,1646,2.38501,-7.55376
-364,-622,2.33771,7.61694,0.00723042,0.0361653,0.0309706,0.0558809,-0.0124852,1.0039,0.0420383,0.0430517,860,1646,2.3377,-7.61691
-357,-622,2.42969,7.82886,3.63002e-05,0.0164331,0.0172892,0.0273692,-0.0108998,1.00679,0.0227664,0.0444837,867,1646,2.42966,-7.82891
-350,-622,2.4165,7.90405,-0.00333273,0.00509525,0.00919371,0.0109947,-0.0092322,1.00029,0.0116928,0.0391373,874,1646,2.41652,-7.90411
-343,-622,2.33539,7.99207,-0.00377547,0.000727569,0.00586549,0.00475883,-0.00780673,0.968655,0.00732552,0.0256782,881,1646,2.3354,-7.99203
-336,-622,2.37885,8.1239,-0.00266563,0.000941395,0.00530271,0.0047389,-0.00646314,0.949317,0.00649299,0.00956683,888,1646,2.37887,-8.12395
-329,-622,2.36536,8.30481,-0.0016576,0.000815046,0.00473988,0.00447719,-0.00531974,0.912973,0.00566323,0.00909881,895,1646,2.36537,-8.30486
-322,-622,2.37878,8.47546,-0.000819062,0.000786833,0.00391421,0.00397961,-0.00401184,0.886563,0.00461387,0.0111994,902,1646,2.37879,-8.47541
-315,-622,2.38153,8.62183,-0.000452939,0.000771852,0.00310665,0.00332589,-0.00300697,0.882713,0.00365782,0.0141255,909,1646,2.38153,-8.62183
-308,-622,2.38892,8.76758,-0.000383713,0.000390584,0.00216509,0.00220287,-0.00219599,0.87387,0.00253968,0.0140287,916,1646,2.38893,-8.76756
-301,-622,2.39697,8.90723,-0.000288094,-0.000223639,0.00121887,0.000963431,-0.00147516,0.798615,0.00141822,0.013563,923,1646,2.39698,-8.90727
-294,-622,2.3822,9.06201,-9.40143e-05,-0.000888847,0.000298715,5.73153e-06,-0.000988592,0.322276,0.00066098,0.0101372,930,1646,2.38218,-9.06197
-287,-622,2.3761,9.22327,4.77625e-05,-0.00157864,-0.000588307,0.000238256,-0.00176913,-0.313145,0.00126633,0.00782601,937,1646,2.37609,-9.22332
-280,-622,2.38037,9.36169,0.000228606,-0.00231757,-0.00135532,0.000814991,-0.00290396,-0.408336,0.00225722,0.00825848,944,1646,2.38037,-9.36164
-273,-622,2.40729,9.49023,0.000593934,-0.00323534,-0.00212239,0.00153769,-0.00417909,-0.418407,0.003416,0.011915,951,1646,2.40727,-9.4902
-266,-622,2.38739,9.63818,0.000971711,-0.00396273,-0.00259642,0.00208619,-0.00507722,-0.405454,0.00425427,0.0120455,958,1646,2.38739,-9.63814
-259,-622,2.39862,9.79419,0.000802713,-0.00463013,-0.0027149,0.00192682,-0.00575423,-0.392559,0.00461453,0.011075,965,1646,2.3986,-9.79413
-252,-622,2.41547,9.9408,-0.00019313,-0.0047512,-0.0033512,0.00158056,-0.00652489,-0.486788,0.00496142,0.0116572,972,1646,2.41547,-9.9408
-245,-622,2.42572,10.0795,-0.000500314,-0.00476071,-0.00394271,0.00185086,-0.00711188,-0.53772,0.00546372,0.00917346,979,1646,2.4257,-10.0794
-238,-622,2.40515,10.2142,-0.000978985,-0.00485454,-0.00440221,0.00189307,-0.00772659,-0.578068,0.00588447,0.00980132,986,1646,2.40516,-10.2142
-231,-622,2.42511,10.3384,-0.00134747,-0.00459084,-0.00441666,0.00173581,-0.00767413,-0.609452,0.0057822,0.013173,993,1646,2.42511,-10.3383
-224,-622,2.52759,10.4257,-0.00208493,-0.00405173,-0.00463679,0.00167159,-0.00780825,-0.680903,0.00584295,0.0228882,1000,1646,2.52759,-10.4257
-217,-622,2.65717,10.3821,-0.00294028,-0.00336781,-0.00481523,0.00166593,-0.00797402,-0.763216,0.00594958,0.0362085,1007,1646,2.65716,-10.3821
-210,-622,2.72552,10.4882,-0.00582158,-0.00265742,-0.0056992,0.00167522,-0.0101542,-0.920787,0.00739144,0.047842,1014,1646,2.72551,-10.4881
-203,-622,1.18292,10.87,-0.00970511,-0.00189319,-0.00633194,0.00164061,-0.0132389,-1.06176,0.00942055,0.0465634,1021,1646,1.18291,-10.8699
-196,-622,2.73743,10.5839,0,0,0,0,0,0,0,-1,1028,1646,2.73738,-10.5839
-189,-622,2.61584,10.0873,0,0,0,0,0,0,0,-1,1035,1646,2.61579,-10.0873
-182,-622,3.35632,11.0444,0,0,0,0,0,0,0,-1,1042,1646,3.35634,-11.0445
-175,-622,3.29736,10.3801,0,0,0,0,0,0,0,-1,1049,1646,3.2974,-10.3801
-168,-622,1.9126,11.0315,0,0,0,0,0,0,0,-1,1056,1646,1.91257,-11.0314
-161,-622,0.489624,11.0005,-0.0480027,-0.00361324,-0.0125717,-0.000300067,-0.0513159,-1.31311,0.034111,0.0487281,1063,1646,0.489568,-11.0005
-154,-622,-0.157715,11.4376,-0.0555838,-0.00454706,-0.0129652,-0.00144228,-0.0586886,-1.33575,0.0386539,0.0456758,1070,1646,-0.157687,-11.4377
-147,-622,-0.820313,12.199,-0.0624855,-0.00591614,-0.0121992,-0.00339752,-0.0650042,-1.3672,0.0422492,0.0499217,1077,1646,-0.820283,-12.199
-140,-622,-1.3407,12.9139,0,0,0,0,0,0,0,-1,1084,1646,-1.34068,-12.9139
-133,-622,3.40173,10.0699,0,0,0,0,0,0,0,-1,1091,1646,3.40173,-10.0699
-126,-622,4.83423,11.7699,0,0,0,0,0,0,0,-1,1098,1646,4.83428,-11.7699
-119,-622,4.06384,13.1715,0,0,0,0,0,0,0,-1,1105,1646,4.06379,-13.1716
-112,-622,4.33276,14.6605,0,0,0,0,0,0,0,-1,1112,1646,4.33281,-14.6605
-105,-622,0.306519,4.38159,0,0,0,0,0,0,0,-1,1119,1646,0.306536,-4.38159
-98,-622,-0.510376,3.5033,0,0,0,0,0,0,0,-1,1126,1646,-0.510393,-3.50324
-91,-622,-1.146,0.975952,0,0,0,0,0,0,0,-1,1133,1646,-1.14599,-0.97597
-84,-622,-2.04895,1.31787,0,0,0,0,0,0,0,-1,1140,1646,-2.0489,-1.31781
-77,-622,-1.80627,0.332275,0,0,0,0,0,0,0,-1,1147,1646,-1.80622,-0.33223
-70,-622,-3.65588,2.28149,0,0,0,0,0,0,0,-1,1154,1646,-3.65589,-2.28155
-63,-622,-2.49683,1.27087,0,0,0,0,0,0,0,-1,1161,1646,-2.49679,-1.27093
-56,-622,-2.44238,-0.575562,0,0,0,0,0,0,0,-1,1168,1646,-2.44242,0.575508
-49,-622,-2.41089,1.38818,0,0,0,0,0,0,0,-1,1175,1646,-2.41088,-1.38815
-42,-622,-2.71497,2.85242,0,0,0,0,0,0,0,-1,1182,1646,-2.71491,-2.85247
-35,-622,-3.0177,4.25842,0,0,0,0,0,0,0,-1,1189,1646,-3.01773,-4.25838
-28,-622,-0.896606,0.678833,0,0,0,0,0,0,0,-1,1196,1646,-0.89661,-0.678835
-21,-622,6.63062,12.6195,0,0,0,0,0,0,0,-1,1203,1646,6.63065,-12.6195
-14,-622,6.52832,13.0504,0,0,0,0,0,0,0,-1,1210,1646,6.52833,-13.0504
-7,-622,6.2821,13.4749,0,0,0,0,0,0,0,-1,1217,1646,6.28209,-13.4748
0,-622,0,0,0,0,0,0,0,0,0,-1,1224,1646,0,0
7,-622,0,0,0,0,0,0,0,0,0,-1,1231,1646,0,0
14,-622,0,0,0,0,0,0,0,0,0,-1,1238,1646,0,0
21,-622,0,0,0,0,0,0,0,0,0,-1,1245,1646,0,0
28,-622,0,0,0,0,0,0,0,0,0,-1,1252,1646,0,0
35,-622,0,0,0,0,0,0,0,0,0,-1,1259,1646,0,0
42,-622,0,0,0,0,0,0,0,0,0,-1,1266,1646,0,0
49,-622,0,0,0,0,0,0,0,0,0,-1,1273,1646,0,0
56,-622,0,0,0,0,0,0,0,0,0,-1,1280,1646,0,0
63,-622,0,0,0,0,0,0,0,0,0,-1,1287,1646,0,0
70,-622,0,0,0,0,0,0,0,0,0,-1,1294,1646,0,0
77,-622,0,0,0,0,0,0,0,0,0,-1,1301,1646,0,0
84,-622,0,0,0,0,0,0,0,0,0,-1,1308,1646,0,0
91,-622,0,0,0,0,0,0,0,0,0,-1,1315,1646,0,0
98,-622,0,0,0,0,0,0,0,0,0,-1,1322,1646,0,0
105,-622,0,0,0,0,0,0,0,0,0,-1,1329,1646,0,0
112,-622,0,0,0,0,0,0,0,0,0,-1,1336,1646,0,0
119,-622,0,0,0,0,0,0,0,0,0,-1,1343,1646,0,0
126,-622,0.245972,10.9246,0.0235485,-0.120642,-0.0448992,0.0363865,-0.13348,-0.278498,0.103275,0.0452211,1350,1646,0.245985,-10.9245
133,-622,0.727539,10.5338,0.0331414,-0.131349,-0.048264,0.0462571,-0.144465,-0.26534,0.114876,0.0497208,1357,1646,0.727543,-10.5338
140,-622,1.33142,10.1527,0.0383367,-0.145419,-0.0485076,0.0503555,-0.157438,-0.242881,0.125167,0.0493929,1364,1646,1.33145,-10.1528
147,-622,1.93982,9.66919,0,0,0,0,0,0,0,-1,1371,1646,1.93984,-9.66914
154,-622,2.60974,9.26624,0,0,0,0,0,0,0,-1,1378,1646,2.6097,-9.2662
161,-622,10.6884,6.46448,0,0,0,0,0,0,0,-1,1385,1646,10.6883,-6.46442
168,-622,12.2402,5.18091,0,0,0,0,0,0,0,-1,1392,1646,12.2403,-5.1809
175,-622,5.64355,-1.77075,0,0,0,0,0,0,0,-1,1399,1646,5.64351,1.77077
182,-622,5.88586,-1.32251,0,0,0,0,0,0,0,-1,1406,1646,5.88587,1.32256
189,-622,5.97986,-1.18005,0,0,0,0,0,0,0,-1,1413,1646,5.97986,1.18003
196,-622,5.85022,-0.244507,0,0,0,0,0,0,0,-1,1420,1646,5.85026,0.244478
203,-622,5.25159,0.138794,0,0,0,0,0,0,0,-1,1427,1646,5.25162,-0.138822
210,-622,6.66833,0.0397949,0,0,0,0,0,0,0,-1,1434,1646,6.6684,-0.0398278
217,-622,6.12061,0.0506592,0,0,0,0,0,0,0,-1,1441,1646,6.12058,-0.0507181
224,-622,5.57275,0.0616455,0,0,0,0,0,0,0,-1,1448,1646,5.57276,-0.0616084
231,-622,5.31348,1.3949,0,0,0,0,0,0,0,-1,1455,1646,5.31342,-1.39495
238,-622,3.76477,2.90686,0,0,0,0,0,0,0,-1,1462,1646,3.7648,-2.90686
245,-622,5.13794,2.67993,0,0,0,0,0,0,0,-1,1469,1646,5.13796,-2.67992
252,-622,6.66528,2.53992,0,0,0,0,0,0,0,-1,1476,1646,6.66522,-2.53991
259,-622,8.93787,3.31458,0,0,0,0,0,0,0,-1,1483,1646,8.93791,-3.31454
266,-622,5.72644,3.11926,0,0,0,0,0,0,0,-1,1490,1646,5.72647,-3.1192
273,-622,7.28076,3.61218,0,0,0,0,0,0,0,-1,1497,1646,7.28071,-3.61212
280,-622,8.43127,4.4447,0,0,0,0,0,0,0,-1,1504,1646,8.43123,-4.44467
287,-622,8.60315,5.94617,0,0,0,0,0,0,0,-1,1511,1646,8.60319,-5.94622
294,-622,8.77515,7.44775,0,0,0,0,0,0,0,-1,1518,1646,8.77514,-7.44777
301,-622,4.71997,12.7284,0,0,0,0,0,0,0,-1,1525,1646,4.71997,-12.7284
308,-622,6.13257,12.1353,0,0,0,0,0,0,0,-1,1532,1646,6.13252,-12.1353
315,-622,5.64539,11.7867,0,0,0,0,0,0,0,-1,1539,1646,5.64535,-11.7867
322,-622,5.27393,11.4171,0,0,0,0,0,0,0,-1,1546,1646,5.27388,-11.4172
329,-622,5.26575,10.8806,0,0,0,0,0,0,0,-1,1553,1646,5.26574,-10.8806
336,-622,5.42493,11.478,0,0,0,0,0,0,0,-1,1560,1646,5.42488,-11.478
343,-622,5.95007,11.8473,0,0,0,0,0,0,0,-1,1567,1646,5.95007,-11.8473
350,-622,5.85217,11.611,-0.0124486,-0.0291286,0.00326681,-0.0118316,-0.0297456,0.186667,0.0172929,0.0484688,1574,1646,5.85221,-11.6109
357,-622,5.54065,11.1729,-0.00989467,-0.0212142,0.00310584,-0.0090985,-0.0220104,0.250944,0.0127711,0.040585,1581,1646,5.54065,-11.1729
364,-622,5.47461,11.0208,-0.007606,-0.0152304,0.00284497,-0.00666145,-0.0161749,0.320558,0.00938688,0.0321494,1588,1646,5.47456,-11.0208
371,-622,5.4762,10.9645,-0.0052027,-0.00922122,0.00268101,-0.0038616,-0.0105623,0.463826,0.00617115,0.0195171,1595,1646,5.47622,-10.9645
378,-622,5.46863,10.8998,-0.00341182,-0.00506788,0.00268905,-0.00142619,-0.0070535,0.636041,0.00430639,0.0100691,1602,1646,5.46865,-10.8998
385,-622,5.44214,10.7769,-0.00221186,-0.00252754,0.00271257,0.00034746,-0.00508686,0.756336,0.00351279,0.00871545,1609,1646,5.44217,-10.7769
392,-622,5.45313,10.6642,-0.00220322,-0.00261667,0.00260208,0.000200339,-0.00502023,0.745758,0.00341556,0.0101958,1616,1646,5.45309,-10.6641
399,-622,5.4624,10.552,-0.00206242,-0.00242086,0.00240843,0.00017345,-0.00465673,0.74826,0.00316389,0.0109018,1623,1646,5.46244,-10.552
406,-622,5.46802,10.4061,-0.00177074,-0.00240831,0.00220157,0.00013501,-0.00431405,0.713498,0.00292208,0.0143427,1630,1646,5.46801,-10.4061
413,-622,5.46802,10.2679,-0.00163274,-0.00203835,0.00206091,0.000235321,-0.00390641,0.736353,0.00268615,0.0151836,1637,1646,5.46802,-10.2679
420,-622,5.48962,10.1492,-0.0014859,-0.00154997,0.00185336,0.000335701,-0.00337157,0.776758,0.00236756,0.0139398,1644,1646,5.48964,-10.1492
427,-622,5.48633,10.0013,-0.00126475,-0.00134634,0.00164871,0.000343673,-0.00295476,0.773029,0.00209382,0.0111079,1651,1646,5.48633,-10.0013
434,-622,5.48889,9.87219,-0.000979051,-0.000958798,0.00129526,0.000326378,-0.00226423,0.789307,0.00162921,0.0127874,1658,1646,5.48889,-9.87225
441,-622,5.49475,9.74646,-0.000555398,-0.000430636,0.000840376,0.000349672,-0.00133571,0.822445,0.00102706,0.0141483,1665,1646,5.49477,-9.74645
448,-622,5.48828,9.62109,-1.20248e-05,0.000277864,0.000232248,0.000406686,-0.000140847,1.06437,0.000328303,0.0127063,1672,1646,5.48824,-9.6211
455,-622,5.47815,9.48535,0.000472065,0.000776686,-0.000364578,0.00101949,0.000229261,-0.983264,0.000617591,0.015139,1679,1646,5.47821,-9.48536
462,-622,5.47961,9.36597,0.000963485,0.00152824,-0.00105453,0.00233754,0.000154184,-0.916218,0.00150959,0.0167811,1686,1646,5.47965,-9.36593
469,-622,5.46912,9.21106,0.00160546,0.00243761,-0.00185174,0.00391944,0.000123628,-0.89591,0.00257274,0.0178131,1693,1646,5.46906,-9.21104
476,-622,5.50171,9.05176,0.00240644,0.00324843,-0.00261819,0.00547926,0.000175613,-0.865114,0.00359573,0.0170572,1700,1646,5.50176,-9.05178
483,-622,5.50415,8.88147,0.00352483,0.0035923,-0.00341026,0.00696899,0.000148146,-0.790344,0.00459741,0.0232209,1707,1646,5.50409,-8.8815
490,-622,5.49646,8.71082,0.00539131,0.00439814,-0.00468615,0.00960712,0.000182334,-0.732611,0.00634484,0.0296644,1714,1646,5.49645,-8.71077
497,-622,5.57092,8.50952,0.00773924,0.00485512,-0.00608993,0.0125555,3.88436e-05,-0.669142,0.00835743,0.0388656,1721,1646,5.57089,-8.50947
504,-622,5.60767,8.297,0,0,0,0,0,0,0,-1,1728,1646,5.60765,-8.297
511,-622,5.29004,4.14587,0,0,0,0,0,0,0,-1,1735,1646,5.29008,-4.14589
518,-622,5.6001,1.55359,0,0,0,0,0,0,0,-1,1742,1646,5.60015,-1.5536
525,-622,5.68213,1.32361,0,0,0,0,0,0,0,-1,1749,1646,5.68209,-1.32361
532,-622,5.44202,0.57373,0,0,0,0,0,0,0,-1,1756,1646,5.44196,-0.573705
539,-622,9.32129,1.06116,0,0,0,0,0,0,0,-1,1763,1646,9.32131,-1.0612
546,-622,6.50977,-3.45618,0,0,0,0,0,0,0,-1,1770,1646,6.50981,3.4562
553,-622,0,0,0,0,0,0,0,0,0,-1,1777,1646,0,0
560,-622,0,0,0,0,0,0,0,0,0,-1,1784,1646,0,0
567,-622,0,0,0,0,0,0,0,0,0,-1,1791,1646,0,0
574,-622,0,0,0,0,0,0,0,0,0,-1,1798,1646,0,0
581,-622,0,0,0,0,0,0,0,0,0,-1,1805,1646,0,0
588,-622,0,0,0,0,0,0,0,0,0,-1,1812,1646,0,0
595,-622,0,0,0,0,0,0,0,0,0,-1,1819,1646,0,0
602,-622,0,0,0,0,0,0,0,0,0,-1,1826,1646,0,0
609,-622,0,0,0,0,0,0,0,0,0,-1,1833,1646,0,0
616,-622,0,0,0,0,0,0,0,0,0,-1,1840,1646,0,0
623,-622,0,0,0,0,0,0,0,0,0,-1,1847,1646,0,0
630,-622,0,0,0,0,0,0,0,0,0,-1,1854,1646,0,0
637,-622,0,0,0,0,0,0,0,0,0,-1,1861,1646,0,0
644,-622,0,0,0,0,0,0,0,0,0,-1,1868,1646,0,0
651,-622,0,0,0,0,0,0,0,0,0,-1,1875,1646,0,0
658,-622,0,0,0,0,0,0,0,0,0,-1,1882,1646,0,0
665,-622,0,0,0,0,0,0,0,0,0,-1,1889,1646,0,0
672,-622,0,0,0,0,0,0,0,0,0,-1,1896,1646,0,0
679,-622,0,0,0,0,0,0,0,0,0,-1,1903,1646,0,0
686,-622,0,0,0,0,0,0,0,0,0,-1,1910,1646,0,0
693,-622,0,0,0,0,0,0,0,0,0,-1,1917,1646,0,0
700,-622,0,0,0,0,0,0,0,0,0,-1,1924,1646,0,0
707,-622,0,0,0,0,0,0,0,0,0,-1,1931,1646,0,0
714,-622,0,0,0,0,0,0,0,0,0,-1,1938,1646,0,0
721,-622,0,0,0,0,0,0,0,0,0,-1,1945,1646,0,0
728,-622,0,0,0,0,0,0,0,0,0,-1,1952,1646,0,0
735,-622,0,0,0,0,0,0,0,0,0,-1,1959,1646,0,0
742,-622,0,0,0,0,0,0,0,0,0,-1,1966,1646,0,0
749,-622,0,0,0,0,0,0,0,0,0,-1,1973,1646,0,0
756,-622,0,0,0,0,0,0,0,0,0,-1,1980,1646,0,0
763,-622,0,0,0,0,0,0,0,0,0,-1,1987,1646,0,0
770,-622,0,0,0,0,0,0,0,0,0,-1,1994,1646,0,0
777,-622,0,0,0,0,0,0,0,0,0,-1,2001,1646,0,0
784,-622,0,0,0,0,0,0,0,0,0,-1,2008,1646,0,0
791,-622,0,0,0,0,0,0,0,0,0,-1,2015,1646,0,0
798,-622,0,0,0,0,0,0,0,0,0,-1,2022,1646,0,0
805,-622,0,0,0,0,0,0,0,0,0,-1,2029,1646,0,0
812,-622,0,0,0,0,0,0,0,0,0,-1,2036,1646,0,0
-700,-629,0,0,0,0,0,0,0,0,0,-1,524,1653,0,0
-693,-629,0,0,0,0,0,0,0,0,0,-1,531,1653,0,0
-686,-629,0,0,0,0,0,0,0,0,0,-1,538,1653,0,0
-679,-629,0,0,0,0,0,0,0,0,0,-1,545,1653,0,0
-672,-629,0,0,0,0,0,0,0,0,0,-1,552,1653,0,0
-665,-629,0,0,0,0,0,0,0,0,0,-1,559,1653,0,0
-658,-629,0,0,0,0,0,0,0,0,0,-1,566,1653,0,0
-651,-629,0,0,0,0,0,0,0,0,0,-1,573,1653,0,0
-644,-629,0,0,0,0,0,0,0,0,0,-1,580,1653,0,0
-637,-629,0,0,0,0,0,0,0,0,0,-1,587,1653,0,0
-630,-629,0,0,0,0,0,0,0,0,0,-1,594,1653,0,0
-623,-629,0,0,0,0,0,0,0,0,0,-1,601,1653,0,0
-616,-629,0,0,0,0,0,0,0,0,0,-1,608,1653,0,0
-609,-629,0,0,0,0,0,0,0,0,0,-1,615,1653,0,0
-602,-629,0,0,0,0,0,0,0,0,0,-1,622,1653,0,0
-595,-629,0,0,0,0,0,0,0,0,0,-1,629,1653,0,0
-588,-629,0,0,0,0,0,0,0,0,0,-1,636,1653,0,0
-581,-629,0,0,0,0,0,0,0,0,0,-1,643,1653,0,0
-574,-629,0,0,0,0,0,0,0,0,0,-1,650,1653,0,0
-567,-629,0,0,0,0,0,0,0,0,0,-1,657,1653,0,0
-560,-629,0,0,0,0,0,0,0,0,0,-1,664,1653,0,0
-553,-629,0,0,0,0,0,0,0,0,0,-1,671,1653,0,0
-546,-629,0,0,0,0,0,0,0,0,0,-1,678,1653,0,0
-539,-629,0,0,0,0,0,0,0,0,0,-1,685,1653,0,0
-532,-629,0,0,0,0,0,0,0,0,0,-1,692,1653,0,0
-525,-629,0,0,0,0,0,0,0,0,0,-1,699,1653,0,0
-518,-629,0,0,0,0,0,0,0,0,0,-1,706,1653,0,0
-511,-629,0,0,0,0,0,0,0,0,0,-1,713,1653,0,0
-504,-629,0,0,0,0,0,0,0,0,0,-1,720,1653,0,0
-497,-629,0,0,0,0,0,0,0,0,0,-1,727,1653,0,0
-490,-629,0,0,0,0,0,0,0,0,0,-1,734,1653,0,0
-483,-629,0,0,0,0,0,0,0,0,0,-1,741,1653,0,0
-476,-629,0,0,0,0,0,0,0,0,0,-1,748,1653,0,0
-469,-629,0,0,0,0,0,0,0,0,0,-1,755,1653,0,0
-462,-629,0,0,0,0,0,0,0,0,0,-1,762,1653,0,0
-455,-629,0,0,0,0,0,0,0,0,0,-1,769,1653,0,0
-448,-629,0,0,0,0,0,0,0,0,0,-1,776,1653,0,0
-441,-629,0,0,0,0,0,0,0,0,0,-1,783,1653,0,0
-434,-629,0,0,0,0,0,0,0,0,0,-1,790,1653,0,0
-427,-629,0,0,0,0,0,0,0,0,0,-1,797,1653,0,0
-420,-629,-3.87103,3.37634,0,0,0,0,0,0,0,-1,804,1653,-3.87101,-3.37633
-413,-629,-5.69751,1.33582,0,0,0,0,0,0,0,-1,811,1653,-5.69754,-1.3358
-406,-629,-4.80127,2.0271,0,0,0,0,0,0,0,-1,818,1653,-4.80127,-2.02711
-399,-629,-3.96466,2.78967,0,0,0,0,0,0,0,-1,825,1653,-3.96469,-2.78972
-392,-629,1.88458,10.5132,0,0,0,0,0,0,0,-1,832,1653,1.8846,-10.5132
-385,-629,1.42053,8.64001,0,0,0,0,0,0,0,-1,839,1653,1.42051,-8.64006
-378,-629,2.71863,6.45935,0,0,0,0,0,0,0,-1,846,1653,2.71864,-6.45931
-371,-629,2.31073,7.1637,0,0,0,0,0,0,0,-1,853,1653,2.31074,-7.16372
-364,-629,2.40009,7.76782,0,0,0,0,0,0,0,-1,860,1653,2.40007,-7.7678
-357,-629,2.45636,8.02112,0,0,0,0,0,0,0,-1,867,1653,2.45636,-8.02114
-350,-629,2.56396,8.1001,-0.00375279,0.00652238,0.0135887,0.0159122,-0.0131426,0.966132,0.0168002,0.046868,874,1653,2.56395,-8.1001
-343,-629,2.39709,8.21985,-0.00438296,0.00147856,0.0092734,0.0082733,-0.0111777,0.938451,0.0112717,0.0379015,881,1653,2.3971,-8.2199
-336,-629,2.51831,8.15247,-0.00318342,0.00177414,0.00822704,0.00788772,-0.00929699,0.931721,0.00993271,0.0183464,888,1653,2.51834,-8.1525
-329,-629,2.53632,8.3092,-0.00212744,0.001773,0.00718692,0.00726961,-0.00762405,0.917886,0.00859967,0.0115379,895,1653,2.53633,-8.30926
-322,-629,2.55145,8.46082,-0.00124584,0.00189508,0.00590196,0.00643195,-0.00578271,0.915431,0.00705546,0.0119113,902,1653,2.55148,-8.46083
-315,-629,2.53479,8.59814,-0.000888971,0.00194728,0.00473788,0.00547472,-0.00441641,0.930813,0.00572153,0.0145872,909,1653,2.53479,-8.59811
-308,-629,2.53217,8.75061,-0.000850693,0.00165367,0.00352226,0.00413971,-0.00333673,0.956184,0.00432482,0.0125615,916,1653,2.53219,-8.75055
-301,-629,2.55084,8.91992,-0.000759514,0.00111193,0.00232572,0.00268311,-0.00233069,0.976657,0.0028971,0.0115221,923,1653,2.55082,-8.91996
-294,-629,2.54865,9.07556,-0.000537869,0.000510258,0.00124268,0.00133486,-0.00136247,0.984942,0.00155734,0.0116151,930,1653,2.54863,-9.0756
-287,-629,2.52936,9.23059,-0.000376344,-0.000123499,0.000266969,4.54687e-05,-0.000545311,1.00653,0.000379606,0.00892493,937,1653,2.52933,-9.23054
-280,-629,2.53021,9.37073,-0.000188192,-0.000808216,-0.000509849,9.84975e-05,-0.00109491,-0.51224,0.000764887,0.00972242,944,1653,2.53023,-9.37073
-273,-629,2.55695,9.48572,0.000212217,-0.00171746,-0.00131697,0.000879957,-0.0023852,-0.469255,0.00195077,0.0132229,951,1653,2.55694,-9.48573
-266,-629,2.54004,9.64294,0.000609901,-0.00243316,-0.00174808,0.00140588,-0.00322914,-0.427289,0.00274417,0.0132037,958,1653,2.54004,-9.64291
-259,-629,2.53204,9.82507,0.000524419,-0.00306368,-0.00177434,0.00125364,-0.0037929,-0.389938,0.00303407,0.0141018,965,1653,2.53202,-9.82512
-252,-629,2.55725,9.95532,-0.000205387,-0.00324189,-0.00222549,0.000970406,-0.00441768,-0.486055,0.00331626,0.0116575,972,1653,2.55728,-9.95526
-245,-629,2.58472,10.0895,-0.000387377,-0.00337313,-0.0025979,0.00111603,-0.00487654,-0.524613,0.00367989,0.00878545,979,1653,2.58473,-10.0895
-238,-629,2.56567,10.2163,-0.000666827,-0.00361844,-0.00290419,0.00111502,-0.00540029,-0.550319,0.0040237,0.00945098,986,1653,2.56566,-10.2162
-231,-629,2.54614,10.3503,-0.000842124,-0.00359109,-0.00285205,0.000949367,-0.00538259,-0.560855,0.00394313,0.00908597,993,1653,2.54617,-10.3504
-224,-629,2.59827,10.4858,-0.00141739,-0.0034261,-0.00299766,0.000739692,-0.00558318,-0.623752,0.00399159,0.00988085,1000,1653,2.59829,-10.4858
-217,-629,2.61554,10.5803,-0.00210778,-0.00312821,-0.00318448,0.000607099,-0.00584309,-0.705963,0.00411272,0.0140233,1007,1653,2.61551,-10.5803
-210,-629,2.5863,10.6896,-0.00437465,-0.00296462,-0.00399037,0.000382541,-0.0077218,-0.872835,0.00528,0.0275577,1014,1653,2.5863,-10.6895
-203,-629,2.19928,10.8461,-0.0073773,-0.0028254,-0.00467394,9.72762e-05,-0.0103,-1.01197,0.0068993,0.0389642,1021,1653,2.19928,-10.8461
-196,-629,2.78052,10.7151,-0.0111649,-0.00265664,-0.00558945,0.000113435,-0.013935,-1.11068,0.00932803,0.0408461,1028,1653,2.78046,-10.7151
-189,-629,2.69653,10.5336,-0.0147719,-0.00312535,-0.00665074,-0.000108791,-0.0177885,-1.14498,0.0118229,0.0404748,1035,1653,2.69652,-10.5335
-182,-629,3.16565,11.1541,-0.0190577,-0.00369816,-0.00755493,-0.000605003,-0.0221508,-1.18219,0.0145697,0.0467848,1042,1653,3.16568,-11.1541
-175,-629,3.2251,11.4218,0,0,0,0,0,0,0,-1,1049,1653,3.22506,-11.4217
-168,-629,2.14514,11.5393,0,0,0,0,0,0,0,-1,1056,1653,2.14511,-11.5393
-161,-629,1.52991,11.3105,-0.0350176,-0.00542892,-0.00979716,-0.00247905,-0.0379674,-1.27834,0.0245271,0.0439659,1063,1653,1.52985,-11.3106
-154,-629,0.660156,11.5796,-0.039781,-0.00628064,-0.0101049,-0.00346868,-0.042593,-1.29939,0.0273126,0.0434299,1070,1653,0.660163,-11.5796
-147,-629,-0.167603,12.1047,-0.0437506,-0.00762728,-0.00927361,-0.00538565,-0.0459922,-1.33362,0.0290332,0.0476197,1077,1653,-0.167576,-12.1048
-140,-629,-0.767578,12.6595,0,0,0,0,0,0,0,-1,1084,1653,-0.767604,-12.6595
-133,-629,4.59534,11.1489,0,0,0,0,0,0,0,-1,1091,1653,4.59532,-11.1489
-126,-629,2.69519,10.2487,0,0,0,0,0,0,0,-1,1098,1653,2.69515,-10.2486
-119,-629,4.94177,13.5525,0,0,0,0,0,0,0,-1,1105,1653,4.94172,-13.5525
-112,-629,5.63123,15.9187,0,0,0,0,0,0,0,-1,1112,1653,5.63118,-15.9187
-105,-629,2.15881,4.38342,0,0,0,0,0,0,0,-1,1119,1653,2.15878,-4.38347
-98,-629,0.825806,4.19385,0,0,0,0,0,0,0,-1,1126,1653,0.825779,-4.1939
-91,-629,-0.452271,3.64465,0,0,0,0,0,0,0,-1,1133,1653,-0.452278,-3.6446
-84,-629,-1.6897,0.867676,0,0,0,0,0,0,0,-1,1140,1653,-1.68974,-0.867617
-77,-629,-1.71143,0.768555,0,0,0,0,0,0,0,-1,1147,1653,-1.71137,-0.768609
-70,-629,-1.20886,2.52502,0,0,0,0,0,0,0,-1,1154,1653,-1.20886,-2.525
-63,-629,-0.960693,4.30212,0,0,0,0,0,0,0,-1,1161,1653,-0.960691,-4.30215
-56,-629,-1.31934,5.64343,0,0,0,0,0,0,0,-1,1168,1653,-1.31928,-5.6434
-49,-629,-2.15662,2.57458,0,0,0,0,0,0,0,-1,1175,1653,-2.15656,-2.57459
-42,-629,-2.46326,3.91467,0,0,0,0,0,0,0,-1,1182,1653,-2.4633,-3.91466
-35,-629,-2.67261,5.24292,0,0,0,0,0,0,0,-1,1189,1653,-2.67257,-5.24298
-28,-629,-0.402954,-0.866577,0,0,0,0,0,0,0,-1,1196,1653,-0.402943,0.866612
-21,-629,10.063,9.59705,0,0,0,0,0,0,0,-1,1203,1653,10.063,-9.59708
-14,-629,6.19409,12.3474,0,0,0,0,0,0,0,-1,1210,1653,6.19415,-12.3474
-7,-629,5.99182,12.8071,0,0,0,0,0,0,0,-1,1217,1653,5.99182,-12.8071
0,-629,5.65088,12.4363,0,0,0,0,0,0,0,-1,1224,1653,5.65083,-12.4362
7,-629,5.23145,12.6016,-0.0397477,0.00628125,0.00515404,0.00685131,-0.0403178,1.46064,0.0294293,0.0441864,1231,1653,5.2314,-12.6015
14,-629,4.82935,12.7729,-0.0435442,0.00451389,-0.00791278,0.0057832,-0.0448135,-1.41174,0.0319782,0.0417363,1238,1653,4.82935,-12.773
21,-629,4.52966,12.557,-0.0475428,0.00382988,-0.0176362,0.00930159,-0.0530145,-1.26996,0.0388168,0.0453075,1245,1653,4.52966,-12.557
28,-629,4.09399,12.2764,0,0,0,0,0,0,0,-1,1252,1653,4.09396,-12.2764
35,-629,1.57275,8.95679,0,0,0,0,0,0,0,-1,1259,1653,1.57275,-8.95677
42,-629,1.01538,9.32129,-0.0587794,0.00281558,-0.0348568,0.0185313,-0.0744952,-1.14722,0.0568563,0.0454588,1266,1653,1.01541,-9.32131
49,-629,0.473511,9.8866,-0.0586785,-0.000352809,-0.0355622,0.016475,-0.0755063,-1.12882,0.0566337,0.0440512,1273,1653,0.473562,-9.88662
56,-629,-0.226929,10.5834,-0.0575778,-0.00497447,-0.0346108,0.0121944,-0.0747466,-1.11031,0.0543537,0.046004,1280,1653,-0.226877,-10.5834
63,-629,-0.720947,11.1018,0,0,0,0,0,0,0,-1,1287,1653,-0.720923,-11.1018
70,-629,-0.977051,11.8735,-0.0513512,-0.019086,-0.0293359,-0.00173943,-0.0686978,-1.03679,0.0452299,0.0463043,1294,1653,-0.97706,-11.8735
77,-629,-1.5199,12.9224,-0.0417686,-0.0293394,-0.0302044,-0.00471687,-0.0663911,-0.886857,0.0427752,0.0475694,1301,1653,-1.51989,-12.9224
84,-629,-2.21741,14.1047,0,0,0,0,0,0,0,-1,1308,1653,-2.21735,-14.1048
91,-629,0.160767,11.4742,0,0,0,0,0,0,0,-1,1315,1653,0.160758,-11.4742
98,-629,0.437744,11.4974,-0.0154558,-0.0639904,-0.0280163,-0.0026581,-0.0767881,-0.42849,0.0503294,0.0435876,1322,1653,0.43774,-11.4975
105,-629,0.727661,11.4324,-0.00756345,-0.0756524,-0.0279028,0.00241018,-0.085626,-0.343289,0.0579041,0.0437592,1329,1653,0.72761,-11.4324
112,-629,0.831055,11.2458,0.00110037,-0.0868307,-0.0295831,0.0101266,-0.0958569,-0.296143,0.0675337,0.0448256,1336,1653,0.831082,-11.2458
119,-629,1.17651,11.4806,0,0,0,0,0,0,0,-1,1343,1653,1.17657,-11.4806
126,-629,1.57422,11.6547,0.0258195,-0.10296,-0.0377972,0.0360935,-0.113234,-0.265405,0.089967,0.0394607,1350,1653,1.57425,-11.6547
133,-629,1.50354,11.5682,0.036603,-0.112044,-0.0404753,0.0469095,-0.12235,-0.249338,0.100906,0.0462159,1357,1653,1.50354,-11.5682
140,-629,1.87,11.3541,0.0436052,-0.124432,-0.0406266,0.0529121,-0.133739,-0.225198,0.11108,0.0481315,1364,1653,1.86998,-11.3541
147,-629,2.1532,11.549,0,0,0,0,0,0,0,-1,1371,1653,2.15317,-11.549
154,-629,9.14783,7.88013,0,0,0,0,0,0,0,-1,1378,1653,9.14786,-7.88011
161,-629,10.5461,6.83752,0,0,0,0,0,0,0,-1,1385,1653,10.5461,-6.83758
168,-629,12.0059,5.56348,0,0,0,0,0,0,0,-1,1392,1653,12.0059,-5.56352
175,-629,5.84485,-1.78845,0,0,0,0,0,0,0,-1,1399,1653,5.84479,1.7884
182,-629,5.99036,-1.27783,0,0,0,0,0,0,0,-1,1406,1653,5.99041,1.27778
189,-629,5.97668,-0.748535,0,0,0,0,0,0,0,-1,1413,1653,5.97671,0.748544
196,-629,4.52869,9.24695,0,0,0,0,0,0,0,-1,1420,1653,4.52869,-9.2469
203,-629,3.75085,6.88037,0,0,0,0,0,0,0,-1,1427,1653,3.75087,-6.88032
210,-629,3.5907,6.52637,0,0,0,0,0,0,0,-1,1434,1653,3.59067,-6.52642
217,-629,2.4585,4.84448,0,0,0,0,0,0,0,-1,1441,1653,2.45855,-4.84448
224,-629,1.31982,3.68481,0,0,0,0,0,0,0,-1,1448,1653,1.31986,-3.68487
231,-629,3.63025,1.73499,0,0,0,0,0,0,0,-1,1455,1653,3.6303,-1.735
238,-629,4.26428,2.11255,0,0,0,0,0,0,0,-1,1462,1653,4.26429,-2.11253
245,-629,5.61816,1.95361,0,0,0,0,0,0,0,-1,1469,1653,5.61815,-1.95359
252,-629,7.27136,2.18982,0,0,0,0,0,0,0,-1,1476,1653,7.27131,-2.18985
259,-629,8.67334,2.18628,0,0,0,0,0,0,0,-1,1483,1653,8.6733,-2.18633
266,-629,6.86475,3.72058,0,0,0,0,0,0,0,-1,1490,1653,6.86479,-3.72063
273,-629,7.9021,3.8717,0,0,0,0,0,0,0,-1,1497,1653,7.90205,-3.87171
280,-629,9.70837,4.39087,0,0,0,0,0,0,0,-1,1504,1653,9.7084,-4.39082
287,-629,9.82947,7.19348,0,0,0,0,0,0,0,-1,1511,1653,9.8295,-7.19347
294,-629,4.77844,12.3685,0,0,0,0,0,0,0,-1,1518,1653,4.77849,-12.3686
301,-629,4.61768,12.4938,0,0,0,0,0,0,0,-1,1525,1653,4.6177,-12.4938
308,-629,4.45691,12.619,0,0,0,0,0,0,0,-1,1532,1653,4.45691,-12.619
315,-629,5.1123,11.5548,0,0,0,0,0,0,0,-1,1539,1653,5.11231,-11.5548
322,-629,5.22681,11.4985,-0.0166644,-0.0448203,0.00378902,-0.0161635,-0.0453213,0.131458,0.0265223,0.0454081,1546,1653,5.22678,-11.4986
329,-629,5.20093,11.5804,-0.0146004,-0.0384202,0.00350841,-0.0140944,-0.0389262,0.143238,0.0227572,0.0416047,1553,1653,5.20091,-11.5805
336,-629,5.32495,11.5009,-0.0125178,-0.0319047,0.00324665,-0.0119885,-0.0324339,0.161595,0.0189367,0.0389149,1560,1653,5.32495,-11.5009
343,-629,5.40466,11.3444,-0.0103338,-0.0255017,0.00295008,-0.00978026,-0.0260552,0.18549,0.015198,0.0358505,1567,1653,5.40467,-11.3444
350,-629,5.3938,11.2684,-0.00816259,-0.0197408,0.00269145,-0.00756752,-0.0203358,0.217595,0.0118682,0.0253932,1574,1653,5.39374,-11.2684
357,-629,5.34509,11.1815,-0.00643503,-0.0144067,0.00249388,-0.00571913,-0.0151226,0.279545,0.008817,0.0163414,1581,1653,5.34511,-11.1815
364,-629,5.323,11.0822,-0.00491772,-0.0103166,0.00221838,-0.00412314,-0.0111112,0.343943,0.00648576,0.0129832,1588,1653,5.32297,-11.0821
371,-629,5.32861,10.9825,-0.00333678,-0.00622049,0.00199706,-0.00231547,-0.0072418,0.472733,0.00427067,0.00998603,1595,1653,5.32866,-10.9826
378,-629,5.33362,10.871,-0.00213832,-0.00339242,0.00191493,-0.000750393,-0.00478035,0.627173,0.00296855,0.00925568,1602,1653,5.33358,-10.871
385,-629,5.33374,10.762,-0.00133215,-0.00166416,0.00184852,0.000357805,-0.00335412,0.740616,0.00236439,0.0114667,1609,1653,5.33369,-10.7619
392,-629,5.32837,10.6475,-0.00135173,-0.0016678,0.00168196,0.000179602,-0.00319913,0.738557,0.00219507,0.0105726,1616,1653,5.32836,-10.6475
399,-629,5.32458,10.5389,-0.00130075,-0.00136199,0.00148118,0.000150129,-0.00281287,0.775063,0.00192724,0.0111786,1623,1653,5.32452,-10.5389
406,-629,5.34619,10.4272,-0.00117492,-0.00135789,0.00133863,7.53523e-05,-0.00260816,0.751281,0.00176443,0.0142869,1630,1653,5.34621,-10.4273
413,-629,5.34021,10.3218,-0.00120765,-0.00111234,0.00129007,0.000130958,-0.00245095,0.803858,0.00167932,0.0214249,1637,1653,5.34021,-10.3217
420,-629,5.33179,10.2051,-0.00118904,-0.000673252,0.00117914,0.000275867,-0.00213816,0.893059,0.00152573,0.0189051,1644,1653,5.33184,-10.2051
427,-629,5.33545,10.0314,-0.00104008,-0.000566626,0.00107522,0.000297612,-0.00190432,0.893754,0.0013795,0.0118277,1651,1653,5.3354,-10.0314
434,-629,5.3501,9.88721,-0.000865482,-0.000295713,0.000855352,0.000320949,-0.00148214,0.946151,0.00111065,0.0100858,1658,1653,5.35007,-9.88715
441,-629,5.36365,9.75977,-0.000535868,0.000169574,0.000529554,0.000453123,-0.000819416,1.07919,0.000744777,0.0141905,1665,1653,5.3637,-9.75981
448,-629,5.37842,9.61292,-3.20813e-05,0.000839212,2.30663e-05,0.000839823,-3.26915e-05,1.54435,0.000571091,0.0139698,1672,1653,5.37838,-9.6129
455,-629,5.36279,9.46436,0.000450672,0.00125878,-0.00046412,0.00147009,0.000239367,-1.14356,0.000910815,0.013303,1679,1653,5.36276,-9.46433
462,-629,5.36707,9.37012,0.000955988,0.00197564,-0.0010878,0.00266716,0.000264467,-1.00454,0.00169684,0.0159947,1686,1653,5.36705,-9.37014
469,-629,5.36035,9.19653,0.00175067,0.00289531,-0.00193399,0.00433989,0.000306097,-0.929256,0.00279682,0.0200187,1693,1653,5.36038,-9.19654
476,-629,5.43237,9.07202,0.00284427,0.00387392,-0.00281543,0.00622121,0.000496978,-0.875829,0.00399214,0.0264618,1700,1653,5.43233,-9.072
483,-629,5.50269,8.76855,0.00432844,0.00453016,-0.00388031,0.00831092,0.000547681,-0.798391,0.00536738,0.0382032,1707,1653,5.50271,-8.76859
490,-629,5.59094,8.31262,0.00651569,0.00593521,-0.0055667,0.0117997,0.00065119,-0.759353,0.00765864,0.0427427,1714,1653,5.59094,-8.31268
497,-629,5.78821,8.08276,0.00932718,0.00698391,-0.00741184,0.0156594,0.00065167,-0.707009,0.0102293,0.045094,1721,1653,5.78818,-8.08282
504,-629,5.86938,7.99609,0,0,0,0,0,0,0,-1,1728,1653,5.86941,-7.99603
511,-629,6.29138,3.40295,0,0,0,0,0,0,0,-1,1735,1653,6.29137,-3.403
518,-629,5.84387,1.41858,0,0,0,0,0,0,0,-1,1742,1653,5.84391,-1.4186
525,-629,6.4729,1.02319,0,0,0,0,0,0,0,-1,1749,1653,6.47284,-1.02316
532,-629,6.86511,0.903687,0,0,0,0,0,0,0,-1,1756,1653,6.86514,-0.903691
539,-629,6.60803,0.746704,0,0,0,0,0,0,0,-1,1763,1653,6.60809,-0.746691
546,-629,0,0,0,0,0,0,0,0,0,-1,1770,1653,0,0
553,-629,0,0,0,0,0,0,0,0,0,-1,1777,1653,0,0
560,-629,0,0,0,0,0,0,0,0,0,-1,1784,1653,0,0
567,-629,0,0,0,0,0,0,0,0,0,-1,1791,1653,0,0
574,-629,0,0,0,0,0,0,0,0,0,-1,1798,1653,0,0
581,-629,0,0,0,0,0,0,0,0,0,-1,1805,1653,0,0
588,-629,0,0,0,0,0,0,0,0,0,-1,1812,1653,0,0
595,-629,0,0,0,0,0,0,0,0,0,-1,1819,1653,0,0
602,-629,0,0,0,0,0,0,0,0,0,-1,1826,1653,0,0
609,-629,0,0,0,0,0,0,0,0,0,-1,1833,1653,0,0
616,-629,0,0,0,0,0,0,0,0,0,-1,1840,1653,0,0
623,-629,0,0,0,0,0,0,0,0,0,-1,1847,1653,0,0
630,-629,0,0,0,0,0,0,0,0,0,-1,1854,1653,0,0
637,-629,0,0,0,0,0,0,0,0,0,-1,1861,1653,0,0
644,-629,0,0,0,0,0,0,0,0,0,-1,1868,1653,0,0
651,-629,0,0,0,0,0,0,0,0,0,-1,1875,1653,0,0
658,-629,0,0,0,0,0,0,0,0,0,-1,1882,1653,0,0
665,-629,0,0,0,0,0,0,0,0,0,-1,1889,1653,0,0
672,-629,0,0,0,0,0,0,0,0,0,-1,1896,1653,0,0
679,-629,0,0,0,0,0,0,0,0,0,-1,1903,1653,0,0
686,-629,0,0,0,0,0,0,0,0,0,-1,1910,1653,0,0
693,-629,0,0,0,0,0,0,0,0,0,-1,1917,1653,0,0
700,-629,0,0,0,0,0,0,0,0,0,-1,1924,1653,0,0
707,-629,0,0,0,0,0,0,0,0,0,-1,1931,1653,0,0
714,-629,0,0,0,0,0,0,0,0,0,-1,1938,1653,0,0
721,-629,0,0,0,0,0,0,0,0,0,-1,1945,1653,0,0
728,-629,0,0,0,0,0,0,0,0,0,-1,1952,1653,0,0
735,-629,0,0,0,0,0,0,0,0,0,-1,1959,1653,0,0
742,-629,0,0,0,0,0,0,0,0,0,-1,1966,1653,0,0
749,-629,0,0,0,0,0,0,0,0,0,-1,1973,1653,0,0
756,-629,0,0,0,0,0,0,0,0,0,-1,1980,1653,0,0
763,-629,0,0,0,0,0,0,0,0,0,-1,1987,1653,0,0
770,-629,0,0,0,0,0,0,0,0,0,-1,1994,1653,0,0
777,-629,0,0,0,0,0,0,0,0,0,-1,2001,1653,0,0
784,-629,0,0,0,0,0,0,0,0,0,-1,2008,1653,0,0
791,-629,0,0,0,0,0,0,0,0,0,-1,2015,1653,0,0
798,-629,0,0,0,0,0,0,0,0,0,-1,2022,1653,0,0
805,-629,0,0,0,0,0,0,0,0,0,-1,2029,1653,0,0
812,-629,0,0,0,0,0,0,0,0,0,-1,2036,1653,0,0
-700,-636,0,0,0,0,0,0,0,0,0,-1,524,1660,0,0
-693,-636,0,0,0,0,0,0,0,0,0,-1,531,1660,0,0
-686,-636,0,0,0,0,0,0,0,0,0,-1,538,1660,0,0
-679,-636,0,0,0,0,0,0,0,0,0,-1,545,1660,0,0
-672,-636,0,0,0,0,0,0,0,0,0,-1,552,1660,0,0
-665,-636,0,0,0,0,0,0,0,0,0,-1,559,1660,0,0
-658,-636,0,0,0,0,0,0,0,0,0,-1,566,1660,0,0
-651,-636,0,0,0,0,0,0,0,0,0,-1,573,1660,0,0
-644,-636,0,0,0,0,0,0,0,0,0,-1,580,1660,0,0
-637,-636,0,0,0,0,0,0,0,0,0,-1,587,1660,0,0
-630,-636,0,0,0,0,0,0,0,0,0,-1,594,1660,0,0
-623,-636,0,0,0,0,0,0,0,0,0,-1,601,1660,0,0
-616,-636,0,0,0,0,0,0,0,0,0,-1,608,1660,0,0
-609,-636,0,0,0,0,0,0,0,0,0,-1,615,1660,0,0
-602,-636,0,0,0,0,0,0,0,0,0,-1,622,1660,0,0
-595,-636,0,0,0,0,0,0,0,0,0,-1,629,1660,0,0
-588,-636,0,0,0,0,0,0,0,0,0,-1,636,1660,0,0
-581,-636,0,0,0,0,0,0,0,0,0,-1,643,1660,0,0
-574,-636,0,0,0,0,0,0,0,0,0,-1,650,1660,0,0
-567,-636,0,0,0,0,0,0,0,0,0,-1,657,1660,0,0
-560,-636,0,0,0,0,0,0,0,0,0,-1,664,1660,0,0
-553,-636,0,0,0,0,0,0,0,0,0,-1,671,1660,0,0
-546,-636,0,0,0,0,0,0,0,0,0,-1,678,1660,0,0
-539,-636,0,0,0,0,0,0,0,0,0,-1,685,1660,0,0
-532,-636,0,0,0,0,0,0,0,0,0,-1,692,1660,0,0
-525,-636,0,0,0,0,0,0,0,0,0,-1,699,1660,0,0
-518,-636,0,0,0,0,0,0,0,0,0,-1,706,1660,0,0
-511,-636,0,0,0,0,0,0,0,0,0,-1,713,1660,0,0
-504,-636,0,0,0,0,0,0,0,0,0,-1,720,1660,0,0
-497,-636,0,0,0,0,0,0,0,0,0,-1,727,1660,0,0
-490,-636,0,0,0,0,0,0,0,0,0,-1,734,1660,0,0
-483,-636,0,0,0,0,0,0,0,0,0,-1,741,1660,0,0
-476,-636,0,0,0,0,0,0,0,0,0,-1,748,1660,0,0
-469,-636,0,0,0,0,0,0,0,0,0,-1,755,1660,0,0
-462,-636,0,0,0,0,0,0,0,0,0,-1,762,1660,0,0
-455,-636,0,0,0,0,0,0,0,0,0,-1,769,1660,0,0
-448,-636,0,0,0,0,0,0,0,0,0,-1,776,1660,0,0
-441,-636,0,0,0,0,0,0,0,0,0,-1,783,1660,0,0
-434,-636,0,0,0,0,0,0,0,0,0,-1,790,1660,0,0
-427,-636,0,0,0,0,0,0,0,0,0,-1,797,1660,0,0
-420,-636,0,0,0,0,0,0,0,0,0,-1,804,1660,0,0
-413,-636,0,0,0,0,0,0,0,0,0,-1,811,1660,0,0
-406,-636,-5.62274,1.81348,0,0,0,0,0,0,0,-1,818,1660,-5.62276,-1.81351
-399,-636,2.33002,11.1954,0,0,0,0,0,0,0,-1,825,1660,2.33003,-11.1955
-392,-636,1.88873,9.50659,0,0,0,0,0,0,0,-1,832,1660,1.88871,-9.5066
-385,-636,1.38867,7.92407,0,0,0,0,0,0,0,-1,839,1660,1.38866,-7.9241
-378,-636,1.11896,6.12073,0,0,0,0,0,0,0,-1,846,1660,1.11898,-6.12067
-371,-636,1.95099,7.90942,0,0,0,0,0,0,0,-1,853,1660,1.95096,-7.90941
-364,-636,1.61005,8.78308,0,0,0,0,0,0,0,-1,860,1660,1.61006,-8.78314
-357,-636,2.42841,7.98438,0,0,0,0,0,0,0,-1,867,1660,2.42839,-7.98439
-350,-636,2.63562,8.3186,0,0,0,0,0,0,0,-1,874,1660,2.63561,-8.31865
-343,-636,2.51306,8.46973,0,0,0,0,0,0,0,-1,881,1660,2.51307,-8.46979
-336,-636,2.60791,8.22852,-0.00194973,0.000336411,0.00947092,0.00873299,-0.0103463,0.845454,0.0110286,0.0373508,888,1660,2.60793,-8.22858
-329,-636,2.70709,8.31445,-0.000813938,0.000704915,0.00776742,0.00774995,-0.00785897,0.834129,0.00901189,0.0175332,895,1660,2.70707,-8.31449
-322,-636,2.70453,8.45801,0.000117736,0.00153838,0.00582993,0.00670111,-0.00504499,0.84602,0.00680404,0.0109239,902,1660,2.70453,-8.45795
-315,-636,2.67712,8.5979,0.00039736,0.00202088,0.00427122,0.00555679,-0.00313856,0.879305,0.00508456,0.0114378,909,1660,2.67715,-8.59785
-308,-636,2.67419,8.74927,0.000344248,0.00217548,0.00278034,0.00418709,-0.00166736,0.944465,0.00348286,0.0111742,916,1660,2.67421,-8.74921
-301,-636,2.69055,8.91919,0.000348194,0.00206657,0.00139606,0.00284665,-0.000431884,1.06124,0.0020569,0.0116002,923,1660,2.69056,-8.91918
-294,-636,2.68396,9.08777,0.000474834,0.00185924,0.000261828,0.00190711,0.000426971,1.38999,0.00115568,0.0136202,930,1660,2.68394,-9.08781
-287,-636,2.66986,9.24426,0.000504701,0.00155126,-0.000646528,0.00185974,0.000196223,-1.12561,0.00117987,0.0117767,937,1660,2.66986,-9.24429
-280,-636,2.67517,9.38599,0.00052818,0.00110528,-0.00125709,0.00210651,-0.000473055,-0.898213,0.00158573,0.0115882,944,1660,2.6752,-9.38594
-273,-636,2.69604,9.50171,0.000778684,0.000324386,-0.00193869,0.00250349,-0.00140042,-0.727081,0.00228372,0.0121746,951,1660,2.69606,-9.50173
-266,-636,2.68964,9.66431,0.000979126,-0.000370382,-0.00213779,0.00254612,-0.00193737,-0.63253,0.00259649,0.0132046,958,1660,2.68965,-9.66431
-259,-636,2.68292,9.85767,0.00073375,-0.000987023,-0.00184162,0.00190605,-0.00215933,-0.56687,0.00234867,0.0145071,965,1660,2.68294,-9.8577
-252,-636,2.69574,9.97437,5.40048e-05,-0.00133001,-0.0019304,0.00141268,-0.00268869,-0.613294,0.00240583,0.0111445,972,1660,2.69576,-9.97441
-245,-636,2.7168,10.1011,-0.000135519,-0.00172854,-0.00200703,0.00122728,-0.00309134,-0.5965,0.00256961,0.0100783,979,1660,2.71677,-10.101
-238,-636,2.72375,10.2299,-0.000325189,-0.00222567,-0.00206257,0.000995504,-0.00354636,-0.569537,0.00275666,0.0108348,986,1660,2.72376,-10.2298
-231,-636,2.69586,10.3524,-0.000440774,-0.00249513,-0.00189347,0.000686188,-0.00362209,-0.536871,0.00267298,0.0104,993,1660,2.69587,-10.3524
-224,-636,2.70764,10.4944,-0.00088623,-0.00271189,-0.00192458,0.000331026,-0.00392915,-0.563959,0.00273645,0.00868096,1000,1660,2.70763,-10.4944
-217,-636,2.71704,10.634,-0.00140148,-0.0027554,-0.0020703,9.97244e-05,-0.0042566,-0.627384,0.00287155,0.0100878,1007,1660,2.71705,-10.6341
-210,-636,2.72644,10.7303,-0.00310298,-0.00287795,-0.00275648,-0.000231691,-0.00574924,-0.805796,0.00375798,0.0140339,1014,1660,2.72643,-10.7303
-203,-636,2.74054,10.8409,-0.00533593,-0.00306844,-0.00338841,-0.000629133,-0.00777523,-0.946841,0.00498702,0.0181812,1021,1660,2.74052,-10.8409
-196,-636,2.82349,10.9275,-0.00817033,-0.00319138,-0.00415113,-0.000840463,-0.0105212,-1.0555,0.00675147,0.0196682,1028,1660,2.82349,-10.9275
-189,-636,2.84363,11.0181,-0.0108156,-0.00374396,-0.00501283,-0.0011454,-0.0134141,-1.09255,0.00858644,0.0219121,1035,1660,2.84361,-11.0181
-182,-636,2.90283,11.0507,-0.0138323,-0.00435348,-0.00571762,-0.00166636,-0.0165194,-1.13146,0.0105016,0.0383708,1042,1660,2.90283,-11.0507
-175,-636,2.98718,11.202,-0.017065,-0.00486486,-0.00625059,-0.00223105,-0.0196988,-1.172,0.0124556,0.0467637,1049,1660,2.98722,-11.202
-168,-636,2.6637,11.2847,-0.0208972,-0.00540135,-0.00693343,-0.00275202,-0.0235465,-1.20581,0.0148655,0.04855,1056,1660,2.6637,-11.2847
-161,-636,2.36438,11.4344,-0.0243719,-0.00609719,-0.0074236,-0.00346165,-0.0270074,-1.22965,0.0169692,0.045979,1063,1660,2.3644,-11.4345
-154,-636,2.45935,11.4061,0,0,0,0,0,0,0,-1,1070,1660,2.45932,-11.4061
-147,-636,2.55396,11.4683,0,0,0,0,0,0,0,-1,1077,1660,2.55398,-11.4683
-140,-636,1.9751,11.3925,0,0,0,0,0,0,0,-1,1084,1660,1.97507,-11.3925
-133,-636,3.16162,12.0497,0,0,0,0,0,0,0,-1,1091,1660,3.16163,-12.0497
-126,-636,2.76392,10.4205,0,0,0,0,0,0,0,-1,1098,1660,2.76389,-10.4205
-119,-636,2.94067,11.9276,0,0,0,0,0,0,0,-1,1105,1660,2.94066,-11.9276
-112,-636,-1.24963,9.7998,0,0,0,0,0,0,0,-1,1112,1660,-1.24968,-9.79978
-105,-636,3.51624,4.72791,0,0,0,0,0,0,0,-1,1119,1660,3.51618,-4.7279
-98,-636,1.54504,5.11914,0,0,0,0,0,0,0,-1,1126,1660,1.54503,-5.11912
-91,-636,-1.34851,-0.613892,0,0,0,0,0,0,0,-1,1133,1660,-1.34851,0.613898
-84,-636,-2.17297,0.887573,0,0,0,0,0,0,0,-1,1140,1660,-2.17299,-0.887547
-77,-636,-2.99744,2.38904,0,0,0,0,0,0,0,-1,1147,1660,-2.99746,-2.38899
-70,-636,-1.85706,5.08752,0,0,0,0,0,0,0,-1,1154,1660,-1.85707,-5.08749
-63,-636,-2.21033,6.97168,0,0,0,0,0,0,0,-1,1161,1660,-2.21034,-6.97165
-56,-636,-2.51917,8.80359,0,0,0,0,0,0,0,-1,1168,1660,-2.51916,-8.80361
-49,-636,-3.13,10.4113,0,0,0,0,0,0,0,-1,1175,1660,-3.12996,-10.4112
-42,-636,-2.27771,4.90173,0,0,0,0,0,0,0,-1,1182,1660,-2.27775,-4.90173
-35,-636,-2.27698,5.89685,0,0,0,0,0,0,0,-1,1189,1660,-2.27695,-5.89686
-28,-636,-1.70654,4.83936,0,0,0,0,0,0,0,-1,1196,1660,-1.70656,-4.8393
-21,-636,5.37976,10.947,0,0,0,0,0,0,0,-1,1203,1660,5.37979,-10.947
-14,-636,5.68323,11.4164,0,0,0,0,0,0,0,-1,1210,1660,5.6832,-11.4164
-7,-636,5.72559,12.0459,0,0,0,0,0,0,0,-1,1217,1660,5.7256,-12.0459
0,-636,5.52649,12.3885,-0.0226627,0.0102924,0.017974,0.0181988,-0.0305691,1.15639,0.0284565,0.0471975,1224,1660,5.52647,-12.3886
7,-636,5.32129,12.547,-0.0279834,0.00684366,0.00689171,0.00815783,-0.0292975,1.38237,0.022744,0.0447073,1231,1660,5.32131,-12.547
14,-636,5.01917,12.728,-0.0317714,0.0045263,-0.00421586,0.00500953,-0.0322546,-1.45667,0.0233527,0.0430222,1238,1660,5.01921,-12.7281
21,-636,4.69788,12.5854,-0.0358201,0.00285219,-0.0131406,0.00689469,-0.0398626,-1.27235,0.0291464,0.0468317,1245,1660,4.69785,-12.5854
28,-636,4.53015,12.4895,0,0,0,0,0,0,0,-1,1252,1660,4.53014,-12.4895
35,-636,2.60815,9.0155,0,0,0,0,0,0,0,-1,1259,1660,2.60811,-9.01547
42,-636,2.04321,9.34363,-0.0477388,-0.00188595,-0.0299966,0.0129423,-0.0625671,-1.11169,0.0466281,0.0446619,1266,1660,2.04316,-9.34366
49,-636,1.50696,9.48828,-0.0492919,-0.00531659,-0.0314356,0.0110579,-0.0656664,-1.09058,0.047891,0.0438054,1273,1660,1.50694,-9.48832
56,-636,1.81824,10.2467,-0.0498546,-0.00931343,-0.0308996,0.00737112,-0.0665392,-1.07569,0.0470095,0.0487709,1280,1660,1.81823,-10.2466
63,-636,1.34583,10.854,0,0,0,0,0,0,0,-1,1287,1660,1.34585,-10.854
70,-636,0.166626,11.7552,-0.0458267,-0.0204446,-0.0263271,-0.00390929,-0.062362,-1.00999,0.0403348,0.0462101,1294,1660,0.166568,-11.7553
77,-636,-0.610352,12.7393,-0.0377828,-0.0279745,-0.0261954,-0.00622809,-0.0595292,-0.877933,0.0377816,0.0471189,1301,1660,-0.610332,-12.7393
84,-636,-1.23193,13.7909,0,0,0,0,0,0,0,-1,1308,1660,-1.23197,-13.7909
91,-636,-1.84082,14.826,0,0,0,0,0,0,0,-1,1315,1660,-1.84078,-14.826
98,-636,1.0719,12.0027,-0.0124698,-0.0541792,-0.0236621,-0.00178378,-0.0648652,-0.424189,0.0426613,0.0433605,1322,1660,1.07185,-12.0027
105,-636,0.956177,12.0138,-0.00412283,-0.0629158,-0.0230539,0.00383887,-0.0708775,-0.332528,0.0485819,0.0481499,1329,1660,0.956215,-12.0137
112,-636,0.800049,11.8989,0.00558676,-0.0719667,-0.0246865,0.012778,-0.0791579,-0.28346,0.0575065,0.0492787,1336,1660,0.800081,-11.8989
119,-636,1.36414,12.4666,0,0,0,0,0,0,0,-1,1343,1660,1.36415,-12.4666
126,-636,1.44263,12.2297,0.0316537,-0.0851172,-0.0315992,0.0396563,-0.0931198,-0.248037,0.0787025,0.0422656,1350,1660,1.44258,-12.2297
133,-636,1.82373,12.2816,0.0435728,-0.0925248,-0.0336369,0.0514324,-0.100384,-0.229541,0.0891574,0.0459111,1357,1660,1.82373,-12.2816
140,-636,2.07214,12.3373,0.0523377,-0.103562,-0.0336467,0.0592894,-0.110514,-0.203743,0.0995117,0.0442091,1364,1660,2.07218,-12.3373
147,-636,2.13,12.3857,0.0558665,-0.114169,-0.0340269,0.0624231,-0.120725,-0.190354,0.107512,0.0471193,1371,1660,2.13001,-12.3857
154,-636,2.23328,12.4125,0,0,0,0,0,0,0,-1,1378,1660,2.23322,-12.4125
161,-636,10.2961,7.13025,0,0,0,0,0,0,0,-1,1385,1660,10.2961,-7.13021
168,-636,11.7659,5.83899,0,0,0,0,0,0,0,-1,1392,1660,11.7658,-5.83899
175,-636,5.94592,-1.72888,0,0,0,0,0,0,0,-1,1399,1660,5.94598,1.72886
182,-636,5.93994,-1.11938,0,0,0,0,0,0,0,-1,1406,1660,5.93998,1.11936
189,-636,5.32544,11.9595,0,0,0,0,0,0,0,-1,1413,1660,5.32542,-11.9595
196,-636,5.3623,9.38025,0,0,0,0,0,0,0,-1,1420,1660,5.36225,-9.38027
203,-636,5.18542,9.02429,0,0,0,0,0,0,0,-1,1427,1660,5.18547,-9.0243
210,-636,4.09167,7.17041,0,0,0,0,0,0,0,-1,1434,1660,4.09173,-7.17041
217,-636,2.94897,5.28992,0,0,0,0,0,0,0,-1,1441,1660,2.94899,-5.28991
224,-636,1.49194,3.63916,0,0,0,0,0,0,0,-1,1448,1660,1.49197,-3.63918
231,-636,0.17749,2.24854,0,0,0,0,0,0,0,-1,1455,1660,0.177501,-2.24855
238,-636,-0.764648,1.00598,0,0,0,0,0,0,0,-1,1462,1660,-0.764704,-1.00595
245,-636,6.21204,1.18005,0,0,0,0,0,0,0,-1,1469,1660,6.21206,-1.18001
252,-636,7.70251,0.865723,0,0,0,0,0,0,0,-1,1476,1660,7.7025,-0.865692
259,-636,9.03601,0.787231,0,0,0,0,0,0,0,-1,1483,1660,9.03598,-0.787243
266,-636,10.1071,3.24109,0,0,0,0,0,0,0,-1,1490,1660,10.1071,-3.24103
273,-636,8.48535,5.02466,0,0,0,0,0,0,0,-1,1497,1660,8.48533,-5.02472
280,-636,8.81384,5.66992,0,0,0,0,0,0,0,-1,1504,1660,8.81381,-5.66998
287,-636,6.08606,11.49,0,0,0,0,0,0,0,-1,1511,1660,6.08606,-11.49
294,-636,4.80823,12.1766,0,0,0,0,0,0,0,-1,1518,1660,4.80828,-12.1766
301,-636,4.76819,12.1152,0,0,0,0,0,0,0,-1,1525,1660,4.76823,-12.1152
308,-636,5.08179,11.8547,0,0,0,0,0,0,0,-1,1532,1660,5.08173,-11.8547
315,-636,5.06274,11.6853,-0.0110418,-0.0341138,0.0030423,-0.0106474,-0.0345082,0.128926,0.0204043,0.0486588,1539,1660,5.06269,-11.6853
322,-636,5.1499,11.6381,-0.0100335,-0.02993,0.00286025,-0.00963045,-0.030333,0.13998,0.0178975,0.0366188,1546,1660,5.14985,-11.6381
329,-636,5.15015,11.6143,-0.00881661,-0.0255883,0.00267834,-0.00839928,-0.0260057,0.154574,0.0153248,0.0251795,1553,1660,5.15018,-11.6142
336,-636,5.20789,11.4985,-0.00763923,-0.0211886,0.00251547,-0.0071873,-0.0216405,0.177764,0.0127267,0.0201132,1560,1660,5.2079,-11.4985
343,-636,5.22278,11.4379,-0.00639455,-0.016884,0.00231988,-0.00590438,-0.0173741,0.208228,0.0102011,0.0180604,1567,1660,5.2228,-11.4379
350,-636,5.20081,11.3292,-0.00511205,-0.0130633,0.00212822,-0.00457825,-0.0135971,0.24575,0.00798864,0.011379,1574,1660,5.20075,-11.3292
357,-636,5.20215,11.2174,-0.00390983,-0.00958724,0.0019177,-0.00332278,-0.0101743,0.297065,0.00599074,0.0104256,1581,1660,5.20216,-11.2174
364,-636,5.20398,11.1112,-0.00289787,-0.00684695,0.00164321,-0.00230357,-0.00744125,0.347034,0.00439885,0.0101239,1588,1660,5.20399,-11.1112
371,-636,5.20813,11.0045,-0.00185934,-0.00408943,0.0013586,-0.0012168,-0.00473197,0.441771,0.00283739,0.00855759,1595,1660,5.20809,-11.0045
378,-636,5.23279,10.8755,-0.00102689,-0.00215605,0.00119604,-0.000268868,-0.00291407,0.564882,0.00185958,0.00877516,1602,1660,5.23276,-10.8755
385,-636,5.23718,10.7491,-0.0004384,-0.000993943,0.00105615,0.000375895,-0.00180824,0.656808,0.00134837,0.0139253,1609,1660,5.23713,-10.7491
392,-636,5.21875,10.6234,-0.000436892,-0.00088227,0.000839462,0.000208916,-0.00152808,0.655747,0.00109502,0.0151081,1616,1660,5.21877,-10.6234
399,-636,5.20801,10.5139,-0.000444012,-0.000426085,0.000627828,0.000192844,-0.00106294,0.792536,0.000780886,0.0118372,1623,1660,5.20804,-10.5139
406,-636,5.23523,10.4237,-0.000480026,-0.000389314,0.000547611,0.000114817,-0.000984156,0.826716,0.000697533,0.0137353,1630,1660,5.23529,-10.4237
413,-636,5.21887,10.3076,-0.000711684,-0.000243912,0.00059971,0.000165906,-0.0011215,0.971326,0.000808663,0.0204778,1637,1660,5.21891,-10.3076
420,-636,5.18713,10.1824,-0.00088255,0.000156475,0.000603453,0.000433234,-0.00115931,1.14079,0.000950775,0.0199226,1644,1660,5.18708,-10.1824
427,-636,5.19531,10.0339,-0.000894191,0.000172211,0.000637491,0.000470093,-0.00119207,1.13367,0.000989368,0.0117898,1651,1660,5.19532,-10.034
434,-636,5.20483,9.87732,-0.000937009,0.000315431,0.000601747,0.000557687,-0.00117927,1.18806,0.00102401,0.0110065,1658,1660,5.20486,-9.87735
441,-636,5.23022,9.73096,-0.000823697,0.000691713,0.000464593,0.000822807,-0.000954791,1.29578,0.00102724,0.0118933,1665,1660,5.23021,-9.73101
448,-636,5.29248,9.6156,-0.000472882,0.00127394,0.000131312,0.00128375,-0.000482698,1.49618,0.00105424,0.0140006,1672,1660,5.29249,-9.61555
455,-636,5.27991,9.45227,-5.52456e-05,0.0015827,-0.00020139,0.0016071,-7.96437e-05,-1.45024,0.00109891,0.0142755,1679,1660,5.27987,-9.45221
462,-636,5.23132,9.3103,0.00051386,0.00221226,-0.000718174,0.00247523,0.000250894,-1.2198,0.00157321,0.01823,1686,1660,5.23129,-9.31024
469,-636,5.23096,9.16077,0.00148211,0.00316309,-0.0015944,0.00412496,0.000520231,-1.02796,0.00259401,0.0290229,1693,1660,5.23099,-9.16074
476,-636,5.50964,9.33789,0.00288982,0.00433552,-0.00269585,0.00640374,0.000821593,-0.916384,0.00402336,0.0436649,1700,1660,5.50967,-9.33792
483,-636,5.50671,8.61548,0,0,0,0,0,0,0,-1,1707,1660,5.50671,-8.61553
490,-636,5.78235,7.82898,0,0,0,0,0,0,0,-1,1714,1660,5.78236,-7.82901
497,-636,5.93982,7.67065,0,0,0,0,0,0,0,-1,1721,1660,5.93978,-7.67062
504,-636,5.11169,8.50403,0,0,0,0,0,0,0,-1,1728,1660,5.11171,-8.50401
511,-636,7.13525,4.97266,0,0,0,0,0,0,0,-1,1735,1660,7.13526,-4.97265
518,-636,6.72791,1.07605,0,0,0,0,0,0,0,-1,1742,1660,6.7279,-1.0761
525,-636,7.04309,0.93335,0,0,0,0,0,0,0,-1,1749,1660,7.04308,-0.933298
532,-636,0,0,0,0,0,0,0,0,0,-1,1756,1660,0,0
539,-636,0,0,0,0,0,0,0,0,0,-1,1763,1660,0,0
546,-636,0,0,0,0,0,0,0,0,0,-1,1770,1660,0,0
553,-636,0,0,0,0,0,0,0,0,0,-1,1777,1660,0,0
560,-636,0,0,0,0,0,0,0,0,0,-1,1784,1660,0,0
567,-636,0,0,0,0,0,0,0,0,0,-1,1791,1660,0,0
574,-636,0,0,0,0,0,0,0,0,0,-1,1798,1660,0,0
581,-636,0,0,0,0,0,0,0,0,0,-1,1805,1660,0,0
588,-636,0,0,0,0,0,0,0,0,0,-1,1812,1660,0,0
595,-636,0,0,0,0,0,0,0,0,0,-1,1819,1660,0,0
602,-636,0,0,0,0,0,0,0,0,0,-1,1826,1660,0,0
609,-636,0,0,0,0,0,0,0,0,0,-1,1833,1660,0,0
616,-636,0,0,0,0,0,0,0,0,0,-1,1840,1660,0,0
623,-636,0,0,0,0,0,0,0,0,0,-1,1847,1660,0,0
630,-636,0,0,0,0,0,0,0,0,0,-1,1854,1660,0,0
637,-636,0,0,0,0,0,0,0,0,0,-1,1861,1660,0,0
644,-636,0,0,0,0,0,0,0,0,0,-1,1868,1660,0,0
651,-636,0,0,0,0,0,0,0,0,0,-1,1875,1660,0,0
658,-636,0,0,0,0,0,0,0,0,0,-1,1882,1660,0,0
665,-636,0,0,0,0,0,0,0,0,0,-1,1889,1660,0,0
672,-636,0,0,0,0,0,0,0,0,0,-1,1896,1660,0,0
679,-636,0,0,0,0,0,0,0,0,0,-1,1903,1660,0,0
686,-636,0,0,0,0,0,0,0,0,0,-1,1910,1660,0,0
693,-636,0,0,0,0,0,0,0,0,0,-1,1917,1660,0,0
700,-636,0,0,0,0,0,0,0,0,0,-1,1924,1660,0,0
707,-636,0,0,0,0,0,0,0,0,0,-1,1931,1660,0,0
714,-636,0,0,0,0,0,0,0,0,0,-1,1938,1660,0,0
721,-636,0,0,0,0,0,0,0,0,0,-1,1945,1660,0,0
728,-636,0,0,0,0,0,0,0,0,0,-1,1952,1660,0,0
735,-636,0,0,0,0,0,0,0,0,0,-1,1959,1660,0,0
742,-636,0,0,0,0,0,0,0,0,0,-1,1966,1660,0,0
749,-636,0,0,0,0,0,0,0,0,0,-1,1973,1660,0,0
756,-636,0,0,0,0,0,0,0,0,0,-1,1980,1660,0,0
763,-636,0,0,0,0,0,0,0,0,0,-1,1987,1660,0,0
770,-636,0,0,0,0,0,0,0,0,0,-1,1994,1660,0,0
777,-636,0,0,0,0,0,0,0,0,0,-1,2001,1660,0,0
784,-636,0,0,0,0,0,0,0,0,0,-1,2008,1660,0,0
791,-636,0,0,0,0,0,0,0,0,0,-1,2015,1660,0,0
798,-636,0,0,0,0,0,0,0,0,0,-1,2022,1660,0,0
805,-636,0,0,0,0,0,0,0,0,0,-1,2029,1660,0,0
812,-636,0,0,0,0,0,0,0,0,0,-1,2036,1660,0,0
-700,-643,0,0,0,0,0,0,0,0,0,-1,524,1667,0,0
-693,-643,0,0,0,0,0,0,0,0,0,-1,531,1667,0,0
-686,-643,0,0,0,0,0,0,0,0,0,-1,538,1667,0,0
-679,-643,0,0,0,0,0,0,0,0,0,-1,545,1667,0,0
-672,-643,0,0,0,0,0,0,0,0,0,-1,552,1667,0,0
-665,-643,0,0,0,0,0,0,0,0,0,-1,559,1667,0,0
-658,-643,0,0,0,0,0,0,0,0,0,-1,566,1667,0,0
-651,-643,0,0,0,0,0,0,0,0,0,-1,573,1667,0,0
-644,-643,0,0,0,0,0,0,0,0,0,-1,580,1667,0,0
-637,-643,0,0,0,0,0,0,0,0,0,-1,587,1667,0,0
-630,-643,0,0,0,0,0,0,0,0,0,-1,594,1667,0,0
-623,-643,0,0,0,0,0,0,0,0,0,-1,601,1667,0,0
-616,-643,0,0,0,0,0,0,0,0,0,-1,608,1667,0,0
-609,-643,0,0,0,0,0,0,0,0,0,-1,615,1667,0,0
-602,-643,0,0,0,0,0,0,0,0,0,-1,622,1667,0,0
-595,-643,0,0,0,0,0,0,0,0,0,-1,629,1667,0,0
-588,-643,0,0,0,0,0,0,0,0,0,-1,636,1667,0,0
-581,-643,0,0,0,0,0,0,0,0,0,-1,643,1667,0,0
-574,-643,0,0,0,0,0,0,0,0,0,-1,650,1667,0,0
-567,-643,0,0,0,0,0,0,0,0,0,-1,657,1667,0,0
-560,-643,0,0,0,0,0,0,0,0,0,-1,664,1667,0,0
-553,-643,0,0,0,0,0,0,0,0,0,-1,671,1667,0,0
-546,-643,0,0,0,0,0,0,0,0,0,-1,678,1667,0,0
-539,-643,0,0,0,0,0,0,0,0,0,-1,685,1667,0,0
-532,-643,0,0,0,0,0,0,0,0,0,-1,692,1667,0,0
-525,-643,0,0,0,0,0,0,0,0,0,-1,699,1667,0,0
-518,-643,0,0,0,0,0,0,0,0,0,-1,706,1667,0,0
-511,-643,0,0,0,0,0,0,0,0,0,-1,713,1667,0,0
-504,-643,0,0,0,0,0,0,0,0,0,-1,720,1667,0,0
-497,-643,0,0,0,0,0,0,0,0,0,-1,727,1667,0,0
-490,-643,0,0,0,0,0,0,0,0,0,-1,734,1667,0,0
-483,-643,0,0,0,0,0,0,0,0,0,-1,741,1667,0,0
-476,-643,0,0,0,0,0,0,0,0,0,-1,748,1667,0,0
-469,-643,0,0,0,0,0,0,0,0,0,-1,755,1667,0,0
-462,-643,0,0,0,0,0,0,0,0,0,-1,762,1667,0,0
-455,-643,0,0,0,0,0,0,0,0,0,-1,769,1667,0,0
-448,-643,0,0,0,0,0,0,0,0,0,-1,776,1667,0,0
-441,-643,0,0,0,0,0,0,0,0,0,-1,783,1667,0,0
-434,-643,0,0,0,0,0,0,0,0,0,-1,790,1667,0,0
-427,-643,0,0,0,0,0,0,0,0,0,-1,797,1667,0,0
-420,-643,0,0,0,0,0,0,0,0,0,-1,804,1667,0,0
-413,-643,0,0,0,0,0,0,0,0,0,-1,811,1667,0,0
-406,-643,0,0,0,0,0,0,0,0,0,-1,818,1667,0,0
-399,-643,2.29858,10.4203,0,0,0,0,0,0,0,-1,825,1667,2.29857,-10.4203
-392,-643,1.81647,8.69055,0,0,0,0,0,0,0,-1,832,1667,1.81645,-8.69053
-385,-643,1.34314,6.98584,0,0,0,0,0,0,0,-1,839,1667,1.34312,-6.98581
-378,-643,1.0506,4.98193,0,0,0,0,0,0,0,-1,846,1667,1.05058,-4.98189
-371,-643,0.5849,3.26428,0,0,0,0,0,0,0,-1,853,1667,0.584909,-3.26426
-364,-643,-1.28375,3.60229,0,0,0,0,0,0,0,-1,860,1667,-1.28373,-3.6023
-357,-643,-3.7207,1.09961,0,0,0,0,0,0,0,-1,867,1667,-3.72071,-1.09957
-350,-643,-4.98132,-0.492676,0,0,0,0,0,0,0,-1,874,1667,-4.98133,0.492708
-343,-643,2.61505,6.17407,0,0,0,0,0,0,0,-1,881,1667,2.61504,-6.17412
-336,-643,2.71466,8.26184,0,0,0,0,0,0,0,-1,888,1667,2.71465,-8.26186
-329,-643,2.88422,8.33472,0.0016615,-0.00258513,0.00680154,0.00666345,-0.00758709,0.634101,0.00823331,0.0393333,895,1667,2.88424,-8.33471
-322,-643,2.85388,8.48279,0.00229103,-0.000919312,0.00448251,0.0054471,-0.00407539,0.613463,0.00551679,0.0254725,902,1667,2.85388,-8.4828
-315,-643,2.82404,8.61865,0.0022507,0.000180672,0.00268038,0.00408896,-0.00165759,0.601146,0.00341533,0.0168673,909,1667,2.82406,-8.61868
-308,-643,2.82947,8.74243,0.0019179,0.000985286,0.00109091,0.00263799,0.000265202,0.583426,0.00167726,0.0126126,916,1667,2.82947,-8.74241
-301,-643,2.84283,8.91028,0.00169671,0.0015318,-0.000258349,0.00188545,0.00134307,-0.630921,0.0011208,0.0138353,923,1667,2.84285,-8.91027
-294,-643,2.82178,9.05872,0.00162354,0.00194884,-0.00120399,0.00300112,0.000571264,-0.852538,0.00184012,0.0127766,930,1667,2.82178,-9.05875
-287,-643,2.81171,9.22595,0.0014747,0.00218567,-0.00182466,0.00368915,-2.87775e-05,-0.881604,0.00246908,0.0105527,937,1667,2.81174,-9.226
-280,-643,2.82526,9.38269,0.00133074,0.00219688,-0.00207845,0.0038869,-0.000359278,-0.88811,0.00271895,0.013876,944,1667,2.82523,-9.38265
-273,-643,2.83203,9.52368,0.00145371,0.00175087,-0.00251936,0.00412603,-0.000921448,-0.814852,0.00310377,0.0123508,951,1667,2.83204,-9.52366
-266,-643,2.82605,9.66663,0.00151439,0.00126864,-0.00243166,0.00382628,-0.00104325,-0.760154,0.00296052,0.0118961,958,1667,2.82604,-9.66664
-259,-643,2.83051,9.83594,0.00114452,0.00091666,-0.00175681,0.00279109,-0.000729912,-0.753019,0.00214582,0.0113167,965,1667,2.83048,-9.83594
-252,-643,2.83746,9.97498,0.00052642,0.000614428,-0.00146933,0.00204041,-0.000899562,-0.800368,0.00173947,0.011775,972,1667,2.83749,-9.97493
-245,-643,2.8299,10.1053,0.000365342,5.01232e-05,-0.00133504,0.00155204,-0.00113658,-0.726642,0.00155844,0.0104775,979,1667,2.82988,-10.1054
-238,-643,2.86292,10.2281,0.000256914,-0.000623798,-0.00120916,0.0011034,-0.00147029,-0.610771,0.00149095,0.014487,986,1667,2.8629,-10.2282
-231,-643,2.83313,10.3522,0.000126007,-0.00113328,-0.000996242,0.000674899,-0.00168218,-0.503582,0.00140167,0.0112904,993,1667,2.83313,-10.3522
-224,-643,2.83325,10.476,-0.000296911,-0.00166554,-0.000965009,0.000201792,-0.00216424,-0.476986,0.00151458,0.00983708,1000,1667,2.83325,-10.476
-217,-643,2.83386,10.594,-0.000758446,-0.0021327,-0.00107686,-0.000168168,-0.00272298,-0.501421,0.00176194,0.0087867,1007,1667,2.83385,-10.594
-210,-643,2.84058,10.73,-0.00203754,-0.00245437,-0.00172947,-0.000503972,-0.00398795,-0.725434,0.00250758,0.0108897,1014,1667,2.84057,-10.73
-203,-643,2.85999,10.874,-0.00368317,-0.00285869,-0.00236692,-0.000868377,-0.00567348,-0.871616,0.00352866,0.0121295,1021,1667,2.85999,-10.874
-196,-643,2.86609,10.9802,-0.00573999,-0.00314771,-0.00301419,-0.0011628,-0.0077249,-0.988453,0.00480942,0.0118435,1028,1667,2.86612,-10.9802
-189,-643,2.89624,11.0898,-0.00760889,-0.00372635,-0.00372239,-0.00146944,-0.0098658,-1.02575,0.00614622,0.0113752,1035,1667,2.89618,-11.0898
-182,-643,2.92786,11.1669,-0.00962679,-0.00432705,-0.00426944,-0.00195199,-0.0120019,-1.06313,0.00743647,0.0184097,1042,1667,2.92789,-11.1669
-175,-643,2.94629,11.1791,-0.0116445,-0.00482504,-0.00463602,-0.00247986,-0.0139897,-1.10247,0.00861957,0.0328051,1049,1667,2.94631,-11.179
-168,-643,2.97314,11.2429,-0.0140921,-0.00535987,-0.00514909,-0.00297498,-0.016477,-1.13705,0.0101396,0.0419033,1056,1667,2.97311,-11.2429
-161,-643,2.82568,11.3979,-0.0161003,-0.00600651,-0.0054772,-0.00360553,-0.0185013,-1.15767,0.0113253,0.0462013,1063,1667,2.82564,-11.398
-154,-643,2.67993,11.4136,-0.0174164,-0.00674271,-0.00554826,-0.00438117,-0.019778,-1.16839,0.0119947,0.0452182,1070,1667,2.67998,-11.4135
-147,-643,2.65259,11.3866,-0.0180508,-0.00791756,-0.00476989,-0.00602554,-0.0199428,-1.19317,0.0118106,0.0494235,1077,1667,2.65261,-11.3866
-140,-643,2.7356,11.2437,0,0,0,0,0,0,0,-1,1084,1667,2.73565,-11.2437
-133,-643,3.25647,11.8187,0,0,0,0,0,0,0,-1,1091,1667,3.25648,-11.8187
-126,-643,3.66833,11.8451,0,0,0,0,0,0,0,-1,1098,1667,3.66832,-11.8451
-119,-643,4.13782,12.3505,0,0,0,0,0,0,0,-1,1105,1667,4.13779,-12.3504
-112,-643,3.80969,13.7281,0,0,0,0,0,0,0,-1,1112,1667,3.80973,-13.7281
-105,-643,-2.23413,10.0996,0,0,0,0,0,0,0,-1,1119,1667,-2.23415,-10.0996
-98,-643,3.11035,4.68066,0,0,0,0,0,0,0,-1,1126,1667,3.11041,-4.68071
-91,-643,-1.74146,-2.5885,0,0,0,0,0,0,0,-1,1133,1667,-1.74146,2.58856
-84,-643,-2.65625,0.907471,0,0,0,0,0,0,0,-1,1140,1667,-2.65623,-0.907477
-77,-643,-3.16443,2.53943,0,0,0,0,0,0,0,-1,1147,1667,-3.1644,-2.53949
-70,-643,-3.36938,4.45203,0,0,0,0,0,0,0,-1,1154,1667,-3.36941,-4.452
-63,-643,-3.67822,6.26855,0,0,0,0,0,0,0,-1,1161,1667,-3.67823,-6.26856
-56,-643,-3.95142,8.1073,0,0,0,0,0,0,0,-1,1168,1667,-3.95139,-8.10732
-49,-643,-4.23535,9.90552,0,0,0,0,0,0,0,-1,1175,1667,-4.23537,-9.90557
-42,-643,-4.25195,10.7059,0,0,0,0,0,0,0,-1,1182,1667,-4.25192,-10.706
-35,-643,-4.10986,11.6588,0,0,0,0,0,0,0,-1,1189,1667,-4.10982,-11.6589
-28,-643,-1.38513,5.604,0,0,0,0,0,0,0,-1,1196,1667,-1.3851,-5.60403
-21,-643,1.94421,11.4835,0,0,0,0,0,0,0,-1,1203,1667,1.9442,-11.4835
-14,-643,5.39832,10.4778,0,0,0,0,0,0,0,-1,1210,1667,5.39827,-10.4778
-7,-643,5.24817,12.5099,0,0,0,0,0,0,0,-1,1217,1667,5.24813,-12.5098
0,-643,5.1532,12.4647,-0.0150526,0.00902266,0.0153764,0.0165129,-0.0225428,1.1175,0.0226383,0.0465013,1224,1667,5.15318,-12.4647
7,-643,5.33594,12.3574,-0.0195984,0.00557839,0.00650968,0.00716193,-0.0211819,1.33217,0.0170186,0.0419223,1231,1667,5.33596,-12.3575
14,-643,5.11682,12.6656,-0.023119,0.00297123,-0.00254809,0.00321776,-0.0233655,-1.47435,0.0167529,0.041252,1238,1667,5.11682,-12.6656
21,-643,4.81897,12.5768,-0.0269159,0.00078896,-0.0101976,0.00413773,-0.0302646,-1.2535,0.0216876,0.0460954,1245,1667,4.81898,-12.5767
28,-643,4.4751,12.5433,-0.0305704,-0.00109238,-0.0164225,0.00623527,-0.037898,-1.15111,0.0275797,0.0477475,1252,1667,4.47514,-12.5434
35,-643,4.25793,12.4006,0,0,0,0,0,0,0,-1,1259,1667,4.25793,-12.4006
42,-643,4.60156,14.5006,-0.0384036,-0.00587314,-0.0255578,0.00815615,-0.0524329,-1.06878,0.0379671,0.0465817,1266,1667,4.60159,-14.5006
49,-643,2.53296,9.51282,-0.0408339,-0.00932523,-0.0274644,0.00658259,-0.0567417,-1.0458,0.040202,0.0458764,1273,1667,2.53295,-9.51276
56,-643,2.36938,10.4651,-0.0422928,-0.0128567,-0.0274571,0.00357831,-0.0587278,-1.03143,0.0403975,0.0479646,1280,1667,2.3694,-10.4651
63,-643,1.90173,11.1204,-0.0420503,-0.017279,-0.0259803,-0.000883035,-0.0584462,-1.00783,0.0386732,0.0446191,1287,1667,1.90173,-11.1203
70,-643,1.15295,12.0186,-0.0395797,-0.0214408,-0.0239763,-0.00487598,-0.0561445,-0.966215,0.0359149,0.0450883,1294,1667,1.15293,-12.0186
77,-643,0.581421,12.8528,0,0,0,0,0,0,0,-1,1301,1667,0.581425,-12.8527
84,-643,-0.246582,13.4771,0,0,0,0,0,0,0,-1,1308,1667,-0.246594,-13.4771
91,-643,1.37195,12.9918,0,0,0,0,0,0,0,-1,1315,1667,1.37194,-12.9919
98,-643,1.0249,12.6674,-0.00857824,-0.0461755,-0.020997,0.000805769,-0.0555595,-0.420292,0.0373111,0.0454008,1322,1667,1.02491,-12.6673
105,-643,0.761475,12.4908,0.000211528,-0.0523689,-0.0201541,0.00704776,-0.0592052,-0.32702,0.0420169,0.0470924,1329,1667,0.761454,-12.4908
112,-643,1.21411,12.7831,0,0,0,0,0,0,0,-1,1336,1667,1.21415,-12.7831
119,-643,1.80725,12.7711,0.0237443,-0.0638462,-0.024632,0.030196,-0.0702979,-0.25617,0.0595401,0.049402,1343,1667,1.80721,-12.7711
126,-643,1.75256,12.8512,0.0364036,-0.0696526,-0.0269895,0.0428769,-0.0761259,-0.235398,0.0695945,0.0454071,1350,1667,1.75255,-12.8512
133,-643,1.79187,13.1019,0.0474462,-0.0760217,-0.0284001,0.0536655,-0.082241,-0.215586,0.0790417,0.0457853,1357,1667,1.79188,-13.1019
140,-643,2.08032,13.2402,0.0547508,-0.0862794,-0.0282192,0.0601877,-0.0917163,-0.190334,0.0883292,0.0442316,1364,1667,2.0803,-13.2402
147,-643,2.2876,13.3475,0.054477,-0.0949367,-0.0286135,0.0597692,-0.100229,-0.182887,0.0933543,0.0455213,1371,1667,2.28763,-13.3475
154,-643,2.53992,13.4635,0,0,0,0,0,0,0,-1,1378,1667,2.53993,-13.4636
161,-643,12.2321,5.97412,0,0,0,0,0,0,0,-1,1385,1667,12.232,-5.97411
168,-643,10.5563,10.9818,0,0,0,0,0,0,0,-1,1392,1667,10.5562,-10.9819
175,-643,5.88525,-1.1698,0,0,0,0,0,0,0,-1,1399,1667,5.88526,1.16977
182,-643,5.80945,-0.418701,0,0,0,0,0,0,0,-1,1406,1667,5.80949,0.418712
189,-643,5.42297,12.9208,0,0,0,0,0,0,0,-1,1413,1667,5.42298,-12.9208
196,-643,5.51953,11.2415,0,0,0,0,0,0,0,-1,1420,1667,5.51948,-11.2414
203,-643,5.60828,9.82153,0,0,0,0,0,0,0,-1,1427,1667,5.60833,-9.82148
210,-643,4.73218,7.58728,0,0,0,0,0,0,0,-1,1434,1667,4.73222,-7.58728
217,-643,3.8031,5.28955,0,0,0,0,0,0,0,-1,1441,1667,3.80305,-5.28955
224,-643,2.96436,2.97095,0,0,0,0,0,0,0,-1,1448,1667,2.96432,-2.97095
231,-643,2.13403,1.08472,0,0,0,0,0,0,0,-1,1455,1667,2.13403,-1.08467
238,-643,1.18152,-0.261963,0,0,0,0,0,0,0,-1,1462,1667,1.18152,0.26192
245,-643,-0.157471,-1.79016,0,0,0,0,0,0,0,-1,1469,1667,-0.157517,1.7901
252,-643,8.08789,0.0202637,0,0,0,0,0,0,0,-1,1476,1667,8.08791,-0.0203056
259,-643,9.02979,-0.46936,0,0,0,0,0,0,0,-1,1483,1667,9.02974,0.46933
266,-643,4.55066,5.17554,0,0,0,0,0,0,0,-1,1490,1667,4.55063,-5.17556
273,-643,4.34363,6.56836,0,0,0,0,0,0,0,-1,1497,1667,4.34363,-6.5684
280,-643,4.7644,12.0769,0,0,0,0,0,0,0,-1,1504,1667,4.76438,-12.0769
287,-643,4.69312,12.1163,0,0,0,0,0,0,0,-1,1511,1667,4.69314,-12.1163
294,-643,4.875,12.011,-0.0060063,-0.0266095,0.00198803,-0.00581623,-0.0267996,0.0953193,0.0162778,0.0469462,1518,1667,4.87498,-12.011
301,-643,4.92493,11.8541,-0.0061422,-0.025498,0.00212856,-0.00591089,-0.0257293,0.108247,0.0155614,0.0398773,1525,1667,4.92493,-11.8541
308,-643,4.98206,11.7931,-0.0061589,-0.0239832,0.002167,-0.00589923,-0.0242429,0.119261,0.0145984,0.0380706,1532,1667,4.98204,-11.7931
315,-643,5.01489,11.8246,-0.00603469,-0.02201,0.00220268,-0.00573655,-0.0223082,0.134536,0.0133764,0.0274441,1539,1667,5.01484,-11.8246
322,-643,5.04163,11.7456,-0.00556005,-0.0193178,0.00210182,-0.00524611,-0.0196317,0.14827,0.0117367,0.0138604,1546,1667,5.04159,-11.7456
329,-643,5.06323,11.6193,-0.00492061,-0.0165082,0.0019779,-0.0045923,-0.0168365,0.164488,0.0100497,0.010147,1553,1667,5.06317,-11.6193
336,-643,5.04553,11.5538,-0.00433213,-0.0136644,0.00186779,-0.00397219,-0.0140244,0.190376,0.00834676,0.0102418,1560,1667,5.04551,-11.5538
343,-643,5.05359,11.4792,-0.00368815,-0.0108669,0.00171603,-0.00329903,-0.011256,0.222983,0.00668154,0.0132328,1567,1667,5.0536,-11.4792
350,-643,5.06787,11.3521,-0.00296868,-0.00838921,0.00154982,-0.00255685,-0.00880104,0.259726,0.00522783,0.0129528,1574,1667,5.06792,-11.3521
357,-643,5.08264,11.2368,-0.0022148,-0.00615632,0.0013151,-0.0018163,-0.00655482,0.294223,0.00390777,0.0107951,1581,1667,5.08262,-11.2368
364,-643,5.09363,11.1249,-0.00158144,-0.00437955,0.00103663,-0.00123924,-0.00472174,0.318841,0.00282679,0.00853774,1588,1667,5.09367,-11.1249
371,-643,5.09766,11.0187,-0.000938172,-0.00260132,0.000738318,-0.000657708,-0.00288179,0.363032,0.0017438,0.00730437,1595,1667,5.0977,-11.0187
378,-643,5.11133,10.9103,-0.000441623,-0.00134202,0.000538205,-0.00019015,-0.00159349,0.437102,0.00100496,0.00949945,1602,1667,5.11131,-10.9103
385,-643,5.11438,10.7751,-8.26692e-05,-0.000639685,0.000354069,8.93024e-05,-0.000811657,0.452142,0.000573196,0.0148022,1609,1667,5.11436,-10.7752
392,-643,5.0907,10.6217,-0.00011218,-0.000446525,0.000117425,-7.50605e-05,-0.000483645,0.306173,0.00030055,0.0156656,1616,1667,5.09074,-10.6217
399,-643,5.08838,10.521,-0.000204769,0.000155983,-8.0063e-05,0.000172953,-0.000221739,-1.36192,0.000228455,0.0138351,1623,1667,5.08837,-10.521
406,-643,5.10828,10.3906,-0.000412572,0.000245015,-7.33716e-05,0.000253103,-0.000420659,-1.46102,0.000392985,0.0124903,1630,1667,5.10829,-10.3906
413,-643,5.104,10.2701,-0.000836146,0.000317777,0.00010206,0.000326734,-0.000845103,1.48326,0.000698277,0.0172039,1637,1667,5.10406,-10.2702
420,-643,5.07385,10.1555,-0.00117826,0.00071675,0.000238102,0.000746209,-0.00120772,1.4477,0.00113854,0.0162876,1644,1667,5.07389,-10.1555
427,-643,5.07739,10.0229,-0.00133811,0.000690473,0.000437804,0.000780926,-0.00142856,1.36706,0.00129378,0.0133348,1651,1667,5.07739,-10.0229
434,-643,5.0835,9.86938,-0.00157647,0.000755488,0.000626502,0.000913144,-0.00173413,1.32427,0.00155271,0.0150121,1658,1667,5.08354,-9.86943
441,-643,5.10205,9.72937,-0.00164832,0.00109304,0.000696383,0.0012598,-0.00181508,1.33576,0.0017849,0.015553,1665,1667,5.1021,-9.72939
448,-643,5.18311,9.59521,-0.00142895,0.00162804,0.000561865,0.00172803,-0.00152895,1.39467,0.00188159,0.0203778,1672,1667,5.18313,-9.59524
455,-643,5.13623,9.53088,-0.00105176,0.00186354,0.000424164,0.001924,-0.00111222,1.42921,0.00177373,0.0263545,1679,1667,5.13623,-9.5309
462,-643,5.08386,9.43372,-0.000369287,0.00238636,3.13445e-05,0.00238671,-0.000369644,1.55942,0.00172759,0.0356234,1686,1667,5.08383,-9.43377
469,-643,5.02844,9.10669,0.000826938,0.00338718,-0.000846868,0.00364195,0.000572166,-1.27857,0.0022615,0.0425888,1693,1667,5.02848,-9.10666
476,-643,5.50403,9.51221,0,0,0,0,0,0,0,-1,1700,1667,5.50399,-9.5122
483,-643,3.99976,7.51953,0,0,0,0,0,0,0,-1,1707,1667,3.99977,-7.51959
490,-643,5.91748,7.38806,0,0,0,0,0,0,0,-1,1714,1667,5.91752,-7.38809
497,-643,5.19519,8.46155,0,0,0,0,0,0,0,-1,1721,1667,5.1952,-8.46157
504,-643,4.98596,8.42944,0,0,0,0,0,0,0,-1,1728,1667,4.986,-8.4295
511,-643,4.77307,8.24377,0,0,0,0,0,0,0,-1,1735,1667,4.77307,-8.24379
518,-643,7.40564,0.922607,0,0,0,0,0,0,0,-1,1742,1667,7.4057,-0.922598
525,-643,0,0,0,0,0,0,0,0,0,-1,1749,1667,0,0
532,-643,0,0,0,0,0,0,0,0,0,-1,1756,1667,0,0
539,-643,0,0,0,0,0,0,0,0,0,-1,1763,1667,0,0
546,-643,0,0,0,0,0,0,0,0,0,-1,1770,1667,0,0
553,-643,0,0,0,0,0,0,0,0,0,-1,1777,1667,0,0
560,-643,0,0,0,0,0,0,0,0,0,-1,1784,1667,0,0
567,-643,0,0,0,0,0,0,0,0,0,-1,1791,1667,0,0
574,-643,0,0,0,0,0,0,0,0,0,-1,1798,1667,0,0
581,-643,0,0,0,0,0,0,0,0,0,-1,1805,1667,0,0
588,-643,0,0,0,0,0,0,0,0,0,-1,1812,1667,0,0
595,-643,0,0,0,0,0,0,0,0,0,-1,1819,1667,0,0
602,-643,0,0,0,0,0,0,0,0,0,-1,1826,1667,0,0
609,-643,0,0,0,0,0,0,0,0,0,-1,1833,1667,0,0
616,-643,0,0,0,0,0,0,0,0,0,-1,1840,1667,0,0
623,-643,0,0,0,0,0,0,0,0,0,-1,1847,1667,0,0
630,-643,0,0,0,0,0,0,0,0,0,-1,1854,1667,0,0
637,-643,0,0,0,0,0,0,0,0,0,-1,1861,1667,0,0
644,-643,0,0,0,0,0,0,0,0,0,-1,1868,1667,0,0
651,-643,0,0,0,0,0,0,0,0,0,-1,1875,1667,0,0
658,-643,0,0,0,0,0,0,0,0,0,-1,1882,1667,0,0
665,-643,0,0,0,0,0,0,0,0,0,-1,1889,1667,0,0
672,-643,0,0,0,0,0,0,0,0,0,-1,1896,1667,0,0
679,-643,0,0,0,0,0,0,0,0,0,-1,1903,1667,0,0
686,-643,0,0,0,0,0,0,0,0,0,-1,1910,1667,0,0
693,-643,0,0,0,0,0,0,0,0,0,-1,1917,1667,0,0
700,-643,0,0,0,0,0,0,0,0,0,-1,1924,1667,0,0
707,-643,0,0,0,0,0,0,0,0,0,-1,1931,1667,0,0
714,-643,0,0,0,0,0,0,0,0,0,-1,1938,1667,0,0
721,-643,0,0,0,0,0,0,0,0,0,-1,1945,1667,0,0
728,-643,0,0,0,0,0,0,0,0,0,-1,1952,1667,0,0
735,-643,0,0,0,0,0,0,0,0,0,-1,1959,1667,0,0
742,-643,0,0,0,0,0,0,0,0,0,-1,1966,1667,0,0
749,-643,0,0,0,0,0,0,0,0,0,-1,1973,1667,0,0
756,-643,0,0,0,0,0,0,0,0,0,-1,1980,1667,0,0
763,-643,0,0,0,0,0,0,0,0,0,-1,1987,1667,0,0
770,-643,0,0,0,0,0,0,0,0,0,-1,1994,1667,0,0
777,-643,0,0,0,0,0,0,0,0,0,-1,2001,1667,0,0
784,-643,0,0,0,0,0,0,0,0,0,-1,2008,1667,0,0
791,-643,0,0,0,0,0,0,0,0,0,-1,2015,1667,0,0
798,-643,0,0,0,0,0,0,0,0,0,-1,2022,1667,0,0
805,-643,0,0,0,0,0,0,0,0,0,-1,2029,1667,0,0
812,-643,0,0,0,0,0,0,0,0,0,-1,2036,1667,0,0
-700,-650,0,0,0,0,0,0,0,0,0,-1,524,1674,0,0
-693,-650,0,0,0,0,0,0,0,0,0,-1,531,1674,0,0
-686,-650,0,0,0,0,0,0,0,0,0,-1,538,1674,0,0
-679,-650,0,0,0,0,0,0,0,0,0,-1,545,1674,0,0
-672,-650,0,0,0,0,0,0,0,0,0,-1,552,1674,0,0
-665,-650,0,0,0,0,0,0,0,0,0,-1,559,1674,0,0
-658,-650,0,0,0,0,0,0,0,0,0,-1,566,1674,0,0
-651,-650,0,0,0,0,0,0,0,0,0,-1,573,1674,0,0
-644,-650,0,0,0,0,0,0,0,0,0,-1,580,1674,0,0
-637,-650,0,0,0,0,0,0,0,0,0,-1,587,1674,0,0
-630,-650,0,0,0,0,0,0,0,0,0,-1,594,1674,0,0
-623,-650,0,0,0,0,0,0,0,0,0,-1,601,1674,0,0
-616,-650,0,0,0,0,0,0,0,0,0,-1,608,1674,0,0
-609,-650,0,0,0,0,0,0,0,0,0,-1,615,1674,0,0
-602,-650,0,0,0,0,0,0,0,0,0,-1,622,1674,0,0
-595,-650,0,0,0,0,0,0,0,0,0,-1,629,1674,0,0
-588,-650,0,0,0,0,0,0,0,0,0,-1,636,1674,0,0
-581,-650,0,0,0,0,0,0,0,0,0,-1,643,1674,0,0
-574,-650,0,0,0,0,0,0,0,0,0,-1,650,1674,0,0
-567,-650,0,0,0,0,0,0,0,0,0,-1,657,1674,0,0
-560,-650,0,0,0,0,0,0,0,0,0,-1,664,1674,0,0
-553,-650,0,0,0,0,0,0,0,0,0,-1,671,1674,0,0
-546,-650,0,0,0,0,0,0,0,0,0,-1,678,1674,0,0
-539,-650,0,0,0,0,0,0,0,0,0,-1,685,1674,0,0
-532,-650,0,0,0,0,0,0,0,0,0,-1,692,1674,0,0
-525,-650,0,0,0,0,0,0,0,0,0,-1,699,1674,0,0
-518,-650,0,0,0,0,0,0,0,0,0,-1,706,1674,0,0
-511,-650,0,0,0,0,0,0,0,0,0,-1,713,1674,0,0
-504,-650,0,0,0,0,0,0,0,0,0,-1,720,1674,0,0
-497,-650,0,0,0,0,0,0,0,0,0,-1,727,1674,0,0
-490,-650,0,0,0,0,0,0,0,0,0,-1,734,1674,0,0
-483,-650,0,0,0,0,0,0,0,0,0,-1,741,1674,0,0
-476,-650,0,0,0,0,0,0,0,0,0,-1,748,1674,0,0
-469,-650,0,0,0,0,0,0,0,0,0,-1,755,1674,0,0
-462,-650,0,0,0,0,0,0,0,0,0,-1,762,1674,0,0
-455,-650,0,0,0,0,0,0,0,0,0,-1,769,1674,0,0
-448,-650,0,0,0,0,0,0,0,0,0,-1,776,1674,0,0
-441,-650,0,0,0,0,0,0,0,0,0,-1,783,1674,0,0
-434,-650,0,0,0,0,0,0,0,0,0,-1,790,1674,0,0
-427,-650,0,0,0,0,0,0,0,0,0,-1,797,1674,0,0
-420,-650,0,0,0,0,0,0,0,0,0,-1,804,1674,0,0
-413,-650,0,0,0,0,0,0,0,0,0,-1,811,1674,0,0
-406,-650,0,0,0,0,0,0,0,0,0,-1,818,1674,0,0
-399,-650,0,0,0,0,0,0,0,0,0,-1,825,1674,0,0
-392,-650,1.73889,7.8407,0,0,0,0,0,0,0,-1,832,1674,1.73892,-7.84074
-385,-650,1.0318,6.3717,0,0,0,0,0,0,0,-1,839,1674,1.03179,-6.37173
-378,-650,0.997986,4.11108,0,0,0,0,0,0,0,-1,846,1674,0.998006,-4.11113
-371,-650,-1.35962,5.05627,0,0,0,0,0,0,0,-1,853,1674,-1.35961,-5.05633
-364,-650,-2.5766,3.37585,0,0,0,0,0,0,0,-1,860,1674,-2.57662,-3.37586
-357,-650,-3.83185,1.63733,0,0,0,0,0,0,0,-1,867,1674,-3.83184,-1.63728
-350,-650,-5.04651,0.108032,0,0,0,0,0,0,0,-1,874,1674,-5.0465,-0.10798
-343,-650,-6.21338,-1.4425,0,0,0,0,0,0,0,-1,881,1674,-6.21341,1.44248
-336,-650,3.57739,6.05518,0,0,0,0,0,0,0,-1,888,1674,3.57738,-6.05518
-329,-650,3.59625,6.6875,0.00678694,-0.00965912,0.00106904,0.00685614,-0.00972832,0.06464,0.00962278,0.0496155,895,1674,3.59625,-6.6875
-322,-650,3.00616,8.50903,0.00691712,-0.00683836,-0.00121297,0.00702327,-0.00694451,-0.0872835,0.00806434,0.0439236,902,1674,3.00618,-8.50898
-315,-650,2.93945,8.53552,0.00641452,-0.00470244,-0.00297242,0.00715937,-0.00544729,-0.245531,0.0073008,0.0386415,909,1674,2.93944,-8.53552
-308,-650,2.96204,8.7146,0.00562095,-0.00284737,-0.00436653,0.00746912,-0.00469553,-0.400394,0.00708386,0.0218507,916,1674,2.96201,-8.71457
-301,-650,2.97955,8.91919,0.00491982,-0.00124264,-0.00536734,0.00802748,-0.0043503,-0.524831,0.00725067,0.0111691,923,1674,2.97956,-8.91924
-294,-650,2.97345,9.06836,0.00435388,0.000178945,-0.00580095,0.00843152,-0.0038987,-0.612687,0.00727744,0.00921978,930,1674,2.97345,-9.06836
-287,-650,2.97418,9.21851,0.00371955,0.00132082,-0.00579911,0.00844202,-0.00340165,-0.683426,0.00704133,0.012899,937,1674,2.9742,-9.21848
-280,-650,2.97571,9.36133,0.00313837,0.00216635,-0.00527432,0.00794902,-0.00264431,-0.739455,0.00636654,0.0141516,944,1674,2.9757,-9.36133
-273,-650,2.97449,9.53064,0.00290367,0.0023618,-0.00508273,0.00772268,-0.00245721,-0.758771,0.00613384,0.0138859,951,1674,2.97451,-9.53068
-266,-650,2.94861,9.66626,0.00260856,0.00233262,-0.00434645,0.00681923,-0.00187805,-0.769532,0.0052846,0.0115915,958,1674,2.94862,-9.66624
-259,-650,2.95557,9.78833,0.00188978,0.00251744,-0.00289514,0.00511571,-0.000708488,-0.839387,0.00366951,0.0142137,965,1674,2.95556,-9.78828
-252,-650,2.96729,9.94763,0.00115617,0.00245219,-0.00187353,0.00378662,-0.000178255,-0.951897,0.00258588,0.0122915,972,1674,2.96729,-9.94759
-245,-650,2.95892,10.0959,0.00092825,0.00182278,-0.00123998,0.00269369,5.73375e-05,-0.958487,0.00177699,0.0113203,979,1674,2.95894,-10.0959
-238,-650,2.96014,10.2235,0.000876894,0.00101221,-0.000771152,0.00171867,0.000170437,-0.829154,0.0010934,0.0137535,986,1674,2.96012,-10.2235
-231,-650,2.95276,10.3391,0.000646972,0.000338021,-0.000331644,0.000858352,0.000126641,-0.567445,0.00053504,0.0187517,993,1674,2.95273,-10.3391
-224,-650,2.96411,10.4716,0.000248068,-0.000479068,-0.000174095,0.000287602,-0.000518601,-0.223293,0.000471787,0.0152274,1000,1674,2.96411,-10.4716
-217,-650,2.97095,10.5922,-0.000159529,-0.00135166,-0.000187432,-0.000130755,-0.00138044,-0.152329,0.000879949,0.0101068,1007,1674,2.97093,-10.5922
-210,-650,2.97449,10.7169,-0.00106938,-0.00176832,-0.000779442,-0.000564651,-0.00227305,-0.574655,0.0013666,0.00948135,1014,1674,2.9745,-10.717
-203,-650,2.99402,10.8604,-0.00224365,-0.00227246,-0.00137861,-0.000879367,-0.00363673,-0.780174,0.002191,0.0140901,1021,1674,2.99403,-10.8603
-196,-650,2.99585,10.9806,-0.00374686,-0.00267354,-0.0019744,-0.00116417,-0.00525624,-0.918097,0.00318777,0.0127832,1028,1674,2.99583,-10.9806
-189,-650,2.99512,11.0906,-0.00507347,-0.00327493,-0.00260609,-0.00141732,-0.00693108,-0.951534,0.00422822,0.00994869,1035,1674,2.99517,-11.0905
-182,-650,3.00952,11.1958,-0.00639068,-0.00385841,-0.00307114,-0.00180265,-0.00844644,-0.980918,0.00513662,0.00905814,1042,1674,3.00952,-11.1958
-175,-650,3.01599,11.296,-0.00756202,-0.00433285,-0.0033518,-0.00222703,-0.00966784,-1.00985,0.00584604,0.0141441,1049,1674,3.01595,-11.296
-168,-650,3.0293,11.3965,-0.00901402,-0.00483644,-0.00373915,-0.0026422,-0.0112083,-1.04012,0.00676566,0.0200297,1056,1674,3.02928,-11.3964
-161,-650,3.09668,11.5148,-0.0100067,-0.00542288,-0.00394285,-0.00315421,-0.0122754,-1.04867,0.00736101,0.0280743,1063,1674,3.09662,-11.5147
-154,-650,3.12158,11.6124,-0.010419,-0.00608939,-0.00392479,-0.00377196,-0.0127364,-1.03742,0.00755432,0.0312416,1070,1674,3.12156,-11.6124
-147,-650,2.99756,11.5808,-0.0102845,-0.00713619,-0.00322754,-0.00511938,-0.0123013,-1.01229,0.00713535,0.0399229,1077,1674,2.99755,-11.5808
-140,-650,3.01868,11.5981,-0.0103776,-0.00905651,-0.00227558,-0.00734754,-0.0120866,-0.926652,0.00703214,0.0466755,1084,1674,3.0187,-11.5981
-133,-650,3.3418,11.7413,-0.00992388,-0.0123311,-0.00134299,-0.00932407,-0.0129309,-0.420038,0.00770506,0.0475943,1091,1674,3.34179,-11.7413
-126,-650,3.59705,11.9647,-0.00892777,-0.0159161,-0.000328257,-0.00891238,-0.0159315,-0.0468344,0.00921969,0.0491198,1098,1674,3.59703,-11.9647
-119,-650,3.94214,12.3748,0,0,0,0,0,0,0,-1,1105,1674,3.94218,-12.3747
-112,-650,4.44556,12.0216,0,0,0,0,0,0,0,-1,1112,1674,4.44551,-12.0216
-105,-650,4.9259,12.0626,0,0,0,0,0,0,0,-1,1119,1674,4.92591,-12.0626
-98,-650,3.3761,6.78003,0,0,0,0,0,0,0,-1,1126,1674,3.37611,-6.78009
-91,-650,3.66809,7.04443,0,0,0,0,0,0,0,-1,1133,1674,3.66806,-7.04439
-84,-650,-3.82666,-1.59521,0,0,0,0,0,0,0,-1,1140,1674,-3.82661,1.59517
-77,-650,-4.70557,1.90198,0,0,0,0,0,0,0,-1,1147,1674,-4.7056,-1.90194
-70,-650,-4.88171,3.81653,0,0,0,0,0,0,0,-1,1154,1674,-4.88176,-3.81651
-63,-650,-5.14612,5.56543,0,0,0,0,0,0,0,-1,1161,1674,-5.14612,-5.56547
-56,-650,-5.38367,7.41101,0,0,0,0,0,0,0,-1,1168,1674,-5.38361,-7.41102
-49,-650,-5.11316,8.23706,0,0,0,0,0,0,0,-1,1175,1674,-5.11317,-8.23708
-42,-650,-4.99487,9.6792,0,0,0,0,0,0,0,-1,1182,1674,-4.99484,-9.67921
-35,-650,-4.77771,11.3369,0,0,0,0,0,0,0,-1,1189,1674,-4.77769,-11.3369
-28,-650,-4.1936,13.1501,0,0,0,0,0,0,0,-1,1196,1674,-4.19358,-13.1501
-21,-650,3.4165,11.1599,0,0,0,0,0,0,0,-1,1203,1674,3.41654,-11.1599
-14,-650,4.9447,12.3816,0,0,0,0,0,0,0,-1,1210,1674,4.94469,-12.3816
-7,-650,4.95996,12.4122,-0.00554814,0.00773435,0.0147756,0.0172926,-0.0151064,0.996607,0.0187197,0.0487423,1217,1674,4.95995,-12.4122
0,-650,4.96497,12.4415,-0.0100996,0.00669843,0.0117755,0.0127633,-0.0161645,1.09518,0.01674,0.0438309,1224,1674,4.96501,-12.4415
7,-650,4.85266,12.453,-0.013526,0.00359912,0.00519933,0.00505407,-0.0149809,1.29794,0.0120312,0.0436491,1231,1674,4.8527,-12.453
14,-650,4.72974,12.4818,-0.0165481,0.000865256,-0.00177794,0.00104493,-0.0167277,-1.47008,0.0115159,0.041867,1238,1674,4.72973,-12.4819
21,-650,4.6156,12.5795,-0.0199064,-0.00156823,-0.00799491,0.00142782,-0.0229025,-1.21225,0.0157658,0.0438596,1245,1674,4.61565,-12.5795
28,-650,4.44531,12.5564,-0.0231396,-0.00388906,-0.0133017,0.00290455,-0.0299333,-1.0986,0.0209908,0.0449417,1252,1674,4.44529,-12.5564
35,-650,4.37317,12.5808,-0.0265422,-0.00727748,-0.0177622,0.00329608,-0.0371158,-1.03385,0.0259125,0.0455986,1259,1674,4.37315,-12.5809
42,-650,4.21399,13.4589,-0.0303251,-0.00899941,-0.0212833,0.00414268,-0.0434672,-1.01762,0.0304531,0.0435474,1266,1674,4.21396,-13.4589
49,-650,3.89453,13.3322,-0.0331094,-0.012206,-0.0234087,0.00297833,-0.0482937,-0.995363,0.0332331,0.0441268,1273,1674,3.89452,-13.3322
56,-650,2.84668,10.6901,-0.0349718,-0.0151883,-0.0238212,0.000713296,-0.0508734,-0.982189,0.0341558,0.0488588,1280,1674,2.84671,-10.69
63,-650,2.45715,11.5618,-0.0351244,-0.0184573,-0.0228344,-0.00248329,-0.0510985,-0.960366,0.0332688,0.0456221,1287,1674,2.45713,-11.5617
70,-650,1.87805,12.3638,-0.0331119,-0.0215292,-0.0213933,-0.00515723,-0.0494839,-0.917584,0.0314116,0.0447487,1294,1674,1.87804,-12.3637
77,-650,1.40723,12.444,-0.0277655,-0.0249684,-0.0207323,-0.00558748,-0.0471464,-0.819076,0.0297439,0.0421734,1301,1674,1.40727,-12.444
84,-650,1.05945,12.2371,-0.0200214,-0.028736,-0.0209495,-0.00298089,-0.0457765,-0.682864,0.0295742,0.0435432,1308,1674,1.0594,-12.237
91,-650,0.603149,12.1503,0,0,0,0,0,0,0,-1,1315,1674,0.603167,-12.1503
98,-650,0.591553,13.4514,0,0,0,0,0,0,0,-1,1322,1674,0.591592,-13.4514
105,-650,1.20129,12.5935,0,0,0,0,0,0,0,-1,1329,1674,1.20128,-12.5936
112,-650,1.7937,12.7101,0,0,0,0,0,0,0,-1,1336,1674,1.79372,-12.71
119,-650,2.27991,13.004,0.0262724,-0.0517253,-0.0210644,0.0315976,-0.0570505,-0.247617,0.0518794,0.0433895,1343,1674,2.27986,-13.004
126,-650,2.84033,12.9244,0.037538,-0.0563901,-0.0228078,0.0427833,-0.0616354,-0.226048,0.0606128,0.0464257,1350,1674,2.84038,-12.9244
133,-650,3.61816,12.677,0.0462184,-0.0618582,-0.0238395,0.0512433,-0.0668831,-0.207739,0.0683993,0.0495504,1357,1674,3.61818,-12.677
140,-650,2.21863,14.3258,0.0501854,-0.0701282,-0.0237985,0.0547218,-0.0746645,-0.188357,0.0749964,0.0476984,1364,1674,2.21862,-14.3258
147,-650,2.34607,14.2749,0,0,0,0,0,0,0,-1,1371,1674,2.3461,-14.2749
154,-650,7.46802,11.8367,0,0,0,0,0,0,0,-1,1378,1674,7.46804,-11.8367
161,-650,11.2434,8.83008,0,0,0,0,0,0,0,-1,1385,1674,11.2434,-8.83004
168,-650,11.2113,7.87231,0,0,0,0,0,0,0,-1,1392,1674,11.2113,-7.87236
175,-650,5.62537,-0.230713,0,0,0,0,0,0,0,-1,1399,1674,5.62538,0.230745
182,-650,5.56006,0.421631,0,0,0,0,0,0,0,-1,1406,1674,5.56,-0.421652
189,-650,4.81543,11.0654,0,0,0,0,0,0,0,-1,1413,1674,4.81542,-11.0654
196,-650,5.39575,11.9077,0,0,0,0,0,0,0,-1,1420,1674,5.39575,-11.9078
203,-650,3.93628,11.8215,0,0,0,0,0,0,0,-1,1427,1674,3.93624,-11.8216
210,-650,5.40955,8.08594,0,0,0,0,0,0,0,-1,1434,1674,5.40958,-8.086
217,-650,5.12451,4.69739,0,0,0,0,0,0,0,-1,1441,1674,5.12451,-4.69738
224,-650,4.79041,1.45813,0,0,0,0,0,0,0,-1,1448,1674,4.79046,-1.45816
231,-650,4.04102,-0.642212,0,0,0,0,0,0,0,-1,1455,1674,4.04101,0.642209
238,-650,3.23022,-1.43396,0,0,0,0,0,0,0,-1,1462,1674,3.23023,1.43394
245,-650,1.65894,-2.55042,0,0,0,0,0,0,0,-1,1469,1674,1.65889,2.55036
252,-650,8.75342,0.355103,0,0,0,0,0,0,0,-1,1476,1674,8.75337,-0.355147
259,-650,5.61255,3.17566,0,0,0,0,0,0,0,-1,1483,1674,5.61257,-3.17572
266,-650,4.00403,6.10229,0,0,0,0,0,0,0,-1,1490,1674,4.00401,-6.10225
273,-650,4.70679,12.0789,0,0,0,0,0,0,0,-1,1497,1674,4.70684,-12.0788
280,-650,4.72668,12.0767,-0.00257942,-0.0167159,0.00167172,-0.00238442,-0.0169109,0.116121,0.0105692,0.048104,1504,1674,4.72663,-12.0766
287,-650,4.75232,12.056,-0.00251389,-0.0167242,0.00143199,-0.00237102,-0.016867,0.0994393,0.0105436,0.0451131,1511,1674,4.75233,-12.0561
294,-650,4.90039,11.9191,-0.00254346,-0.0167624,0.00145881,-0.00239534,-0.0169106,0.101191,0.0105662,0.0379142,1518,1674,4.90042,-11.919
301,-650,4.87854,11.8057,-0.00272309,-0.0160155,0.00151938,-0.00255163,-0.016187,0.112373,0.0100493,0.0290168,1525,1674,4.8785,-11.8057
308,-650,4.9115,11.8445,-0.00284556,-0.0150316,0.00151881,-0.00265911,-0.0152181,0.122146,0.00938543,0.0180915,1532,1674,4.9115,-11.8445
315,-650,4.92737,11.8298,-0.00289362,-0.0137861,0.00154596,-0.00267846,-0.0140012,0.138292,0.00858181,0.0105966,1539,1674,4.92737,-11.8298
322,-650,4.95288,11.7347,-0.00274048,-0.0121143,0.00147839,-0.00251284,-0.012342,0.152775,0.00753142,0.00930113,1546,1674,4.95284,-11.7347
329,-650,4.95996,11.6039,-0.00243875,-0.010357,0.00136671,-0.00220949,-0.0105862,0.166199,0.00644843,0.0152799,1553,1674,4.95992,-11.6038
336,-650,4.95288,11.5411,-0.00216939,-0.00855838,0.00127121,-0.00192575,-0.00880202,0.189364,0.00534306,0.0140344,1560,1674,4.95288,-11.5412
343,-650,4.94141,11.4689,-0.00184483,-0.006773,0.00112179,-0.0016015,-0.00701633,0.213608,0.00424563,0.0139212,1567,1674,4.94139,-11.4689
350,-650,4.96167,11.3329,-0.00142606,-0.00519297,0.000942875,-0.00120323,-0.00541579,0.232067,0.00328377,0.0164392,1574,1674,4.96168,-11.3328
357,-650,4.96179,11.2285,-0.000952455,-0.00376921,0.000679294,-0.000797194,-0.00392447,0.224703,0.00239522,0.0129308,1581,1674,4.96177,-11.2285
364,-650,4.97607,11.1246,-0.000556607,-0.00265921,0.000387466,-0.000487478,-0.00272834,0.176556,0.00168014,0.00850991,1588,1674,4.9761,-11.1247
371,-650,4.97083,11.0023,-0.000165616,-0.00156668,8.50794e-05,-0.000160468,-0.00157182,0.060429,0.0009987,0.0109047,1595,1674,4.9708,-11.0023
378,-650,4.9718,10.8911,8.75947e-05,-0.000790411,-0.000130027,0.000106446,-0.000809263,-0.143978,0.000578265,0.0124873,1602,1674,4.97179,-10.8911
385,-650,4.97522,10.7651,0.000259127,-0.000430902,-0.000338596,0.000397519,-0.000569294,-0.388004,0.000561119,0.0131485,1609,1674,4.97521,-10.7651
392,-650,4.97119,10.6454,0.000174274,-0.000183972,-0.000577951,0.000600222,-0.000609921,-0.635128,0.000698684,0.0165305,1616,1674,4.97123,-10.6454
399,-650,4.97559,10.5415,-2.35595e-05,0.000546764,-0.000749609,0.00106362,-0.000540415,-0.967152,0.000942368,0.0158709,1623,1674,4.97556,-10.5415
406,-650,4.98975,10.4061,-0.00041874,0.0006994,-0.000647943,0.000996128,-0.000715468,-1.14135,0.000992609,0.0140998,1630,1674,4.98977,-10.4061
413,-650,4.99817,10.2684,-0.00105475,0.000737389,-0.000340694,0.000799971,-0.00111733,-1.38913,0.001112,0.0141513,1637,1674,4.99821,-10.2684
420,-650,4.9707,10.1514,-0.00160658,0.00117003,-5.33965e-05,0.00117106,-0.0016076,-1.55157,0.00161085,0.0147307,1644,1674,4.97075,-10.1514
427,-650,4.97107,10.0367,-0.00198544,0.00113543,0.000337987,0.00117162,-0.00202162,1.46414,0.00186527,0.0131967,1651,1674,4.97108,-10.0367
434,-650,4.95337,9.89868,-0.00250834,0.00117548,0.000802894,0.00134287,-0.00267572,1.36526,0.00236229,0.0161587,1658,1674,4.95336,-9.89864
441,-650,4.98181,9.70642,-0.00280951,0.00155451,0.00110301,0.00181746,-0.00307245,1.33678,0.00285401,0.0294421,1665,1674,4.9818,-9.7064
448,-650,4.87,9.63904,-0.00280088,0.00210028,0.00122745,0.0023905,-0.0030911,1.33862,0.00317341,0.0428961,1672,1674,4.86995,-9.639
455,-650,4.72974,9.93811,-0.00252371,0.00233954,0.00135896,0.00269351,-0.00287769,1.31598,0.00321712,0.0408709,1679,1674,4.72977,-9.93813
462,-650,4.51013,9.9115,-0.0018378,0.00280435,0.00114813,0.0030728,-0.00210625,1.34111,0.00300743,0.0464297,1686,1674,4.5101,-9.91146
469,-650,5.0354,9.19812,0,0,0,0,0,0,0,-1,1693,1674,5.03542,-9.19809
476,-650,2.99365,8.80249,0,0,0,0,0,0,0,-1,1700,1674,2.99365,-8.80245
483,-650,5.87622,9.30713,0,0,0,0,0,0,0,-1,1707,1674,5.87623,-9.30715
490,-650,5.95667,8.81091,0,0,0,0,0,0,0,-1,1714,1674,5.95665,-8.81095
497,-650,5.6499,8.68469,0,0,0,0,0,0,0,-1,1721,1674,5.64994,-8.68472
504,-650,5.37537,8.59241,0,0,0,0,0,0,0,-1,1728,1674,5.37543,-8.59246
511,-650,4.14551,5.20691,0,0,0,0,0,0,0,-1,1735,1674,4.14549,-5.20691
518,-650,0,0,0,0,0,0,0,0,0,-1,1742,1674,0,0
525,-650,0,0,0,0,0,0,0,0,0,-1,1749,1674,0,0
532,-650,0,0,0,0,0,0,0,0,0,-1,1756,1674,0,0
539,-650,0,0,0,0,0,0,0,0,0,-1,1763,1674,0,0
546,-650,0,0,0,0,0,0,0,0,0,-1,1770,1674,0,0
553,-650,0,0,0,0,0,0,0,0,0,-1,1777,1674,0,0
560,-650,0,0,0,0,0,0,0,0,0,-1,1784,1674,0,0
567,-650,0,0,0,0,0,0,0,0,0,-1,1791,1674,0,0
574,-650,0,0,0,0,0,0,0,0,0,-1,1798,1674,0,0
581,-650,0,0,0,0,0,0,0,0,0,-1,1805,1674,0,0
588,-650,0,0,0,0,0,0,0,0,0,-1,1812,1674,0,0
595,-650,0,0,0,0,0,0,0,0,0,-1,1819,1674,0,0
602,-650,0,0,0,0,0,0,0,0,0,-1,1826,1674,0,0
609,-650,0,0,0,0,0,0,0,0,0,-1,1833,1674,0,0
616,-650,0,0,0,0,0,0,0,0,0,-1,1840,1674,0,0
623,-650,0,0,0,0,0,0,0,0,0,-1,1847,1674,0,0
630,-650,0,0,0,0,0,0,0,0,0,-1,1854,1674,0,0
637,-650,0,0,0,0,0,0,0,0,0,-1,1861,1674,0,0
644,-650,0,0,0,0,0,0,0,0,0,-1,1868,1674,0,0
651,-650,0,0,0,0,0,0,0,0,0,-1,1875,1674,0,0
658,-650,0,0,0,0,0,0,0,0,0,-1,1882,1674,0,0
665,-650,0,0,0,0,0,0,0,0,0,-1,1889,1674,0,0
672,-650,0,0,0,0,0,0,0,0,0,-1,1896,1674,0,0
679,-650,0,0,0,0,0,0,0,0,0,-1,1903,1674,0,0
686,-650,0,0,0,0,0,0,0,0,0,-1,1910,1674,0,0
693,-650,0,0,0,0,0,0,0,0,0,-1,1917,1674,0,0
700,-650,0,0,0,0,0,0,0,0,0,-1,1924,1674,0,0
707,-650,0,0,0,0,0,0,0,0,0,-1,1931,1674,0,0
714,-650,0,0,0,0,0,0,0,0,0,-1,1938,1674,0,0
721,-650,0,0,0,0,0,0,0,0,0,-1,1945,1674,0,0
728,-650,0,0,0,0,0,0,0,0,0,-1,1952,1674,0,0
735,-650,0,0,0,0,0,0,0,0,0,-1,1959,1674,0,0
742,-650,0,0,0,0,0,0,0,0,0,-1,1966,1674,0,0
749,-650,0,0,0,0,0,0,0,0,0,-1,1973,1674,0,0
756,-650,0,0,0,0,0,0,0,0,0,-1,1980,1674,0,0
763,-650,0,0,0,0,0,0,0,0,0,-1,1987,1674,0,0
770,-650,0,0,0,0,0,0,0,0,0,-1,1994,1674,0,0
777,-650,0,0,0,0,0,0,0,0,0,-1,2001,1674,0,0
784,-650,0,0,0,0,0,0,0,0,0,-1,2008,1674,0,0
791,-650,0,0,0,0,0,0,0,0,0,-1,2015,1674,0,0
798,-650,0,0,0,0,0,0,0,0,0,-1,2022,1674,0,0
805,-650,0,0,0,0,0,0,0,0,0,-1,2029,1674,0,0
812,-650,0,0,0,0,0,0,0,0,0,-1,2036,1674,0,0
-700,-657,0,0,0,0,0,0,0,0,0,-1,524,1681,0,0
-693,-657,0,0,0,0,0,0,0,0,0,-1,531,1681,0,0
-686,-657,0,0,0,0,0,0,0,0,0,-1,538,1681,0,0
-679,-657,0,0,0,0,0,0,0,0,0,-1,545,1681,0,0
-672,-657,0,0,0,0,0,0,0,0,0,-1,552,1681,0,0
-665,-657,0,0,0,0,0,0,0,0,0,-1,559,1681,0,0
-658,-657,0,0,0,0,0,0,0,0,0,-1,566,1681,0,0
-651,-657,0,0,0,0,0,0,0,0,0,-1,573,1681,0,0
-644,-657,0,0,0,0,0,0,0,0,0,-1,580,1681,0,0
-637,-657,0,0,0,0,0,0,0,0,0,-1,587,1681,0,0
-630,-657,0,0,0,0,0,0,0,0,0,-1,594,1681,0,0
-623,-657,0,0,0,0,0,0,0,0,0,-1,601,1681,0,0
-616,-657,0,0,0,0,0,0,0,0,0,-1,608,1681,0,0
-609,-657,0,0,0,0,0,0,0,0,0,-1,615,1681,0,0
-602,-657,0,0,0,0,0,0,0,0,0,-1,622,1681,0,0
-595,-657,0,0,0,0,0,0,0,0,0,-1,629,1681,0,0
-588,-657,0,0,0,0,0,0,0,0,0,-1,636,1681,0,0
-581,-657,0,0,0,0,0,0,0,0,0,-1,643,1681,0,0
-574,-657,0,0,0,0,0,0,0,0,0,-1,650,1681,0,0
-567,-657,0,0,0,0,0,0,0,0,0,-1,657,1681,0,0
-560,-657,0,0,0,0,0,0,0,0,0,-1,664,1681,0,0
-553,-657,0,0,0,0,0,0,0,0,0,-1,671,1681,0,0
-546,-657,0,0,0,0,0,0,0,0,0,-1,678,1681,0,0
-539,-657,0,0,0,0,0,0,0,0,0,-1,685,1681,0,0
-532,-657,0,0,0,0,0,0,0,0,0,-1,692,1681,0,0
-525,-657,0,0,0,0,0,0,0,0,0,-1,699,1681,0,0
-518,-657,0,0,0,0,0,0,0,0,0,-1,706,1681,0,0
-511,-657,0,0,0,0,0,0,0,0,0,-1,713,1681,0,0
-504,-657,0,0,0,0,0,0,0,0,0,-1,720,1681,0,0
-497,-657,0,0,0,0,0,0,0,0,0,-1,727,1681,0,0
-490,-657,0,0,0,0,0,0,0,0,0,-1,734,1681,0,0
-483,-657,0,0,0,0,0,0,0,0,0,-1,741,1681,0,0
-476,-657,0,0,0,0,0,0,0,0,0,-1,748,1681,0,0
-469,-657,0,0,0,0,0,0,0,0,0,-1,755,1681,0,0
-462,-657,0,0,0,0,0,0,0,0,0,-1,762,1681,0,0
-455,-657,0,0,0,0,0,0,0,0,0,-1,769,1681,0,0
-448,-657,0,0,0,0,0,0,0,0,0,-1,776,1681,0,0
-441,-657,0,0,0,0,0,0,0,0,0,-1,783,1681,0,0
-434,-657,0,0,0,0,0,0,0,0,0,-1,790,1681,0,0
-427,-657,0,0,0,0,0,0,0,0,0,-1,797,1681,0,0
-420,-657,0,0,0,0,0,0,0,0,0,-1,804,1681,0,0
-413,-657,0,0,0,0,0,0,0,0,0,-1,811,1681,0,0
-406,-657,0,0,0,0,0,0,0,0,0,-1,818,1681,0,0
-399,-657,0,0,0,0,0,0,0,0,0,-1,825,1681,0,0
-392,-657,0,0,0,0,0,0,0,0,0,-1,832,1681,0,0
-385,-657,1.09814,6.18896,0,0,0,0,0,0,0,-1,839,1681,1.09814,-6.18894
-378,-657,0.31488,4.46753,0,0,0,0,0,0,0,-1,846,1681,0.31487,-4.46755
-371,-657,-0.519043,2.69421,0,0,0,0,0,0,0,-1,853,1681,-0.519064,-2.69422
-364,-657,-3.20154,3.89429,0,0,0,0,0,0,0,-1,860,1681,-3.20151,-3.89425
-357,-657,-3.97162,2.20276,0,0,0,0,0,0,0,-1,867,1681,-3.97159,-2.20277
-350,-657,-5.17291,0.715698,0,0,0,0,0,0,0,-1,874,1681,-5.17294,-0.715695
-343,-657,-6.50574,-0.622192,0,0,0,0,0,0,0,-1,881,1681,-6.50574,0.622157
-336,-657,3.34485,6.49438,0,0,0,0,0,0,0,-1,888,1681,3.34483,-6.49433
-329,-657,3.36743,6.94275,0.0131966,-0.0184974,-0.00576791,0.0142137,-0.0195144,-0.174535,0.0195529,0.0468292,895,1681,3.36743,-6.94269
-322,-657,3.30054,7.39392,0.0126522,-0.0143552,-0.00814268,0.0149173,-0.0166202,-0.27131,0.018217,0.0421424,902,1681,3.30052,-7.39394
-315,-657,3.11139,8.08923,0.0115921,-0.0108583,-0.00999009,0.0153938,-0.01466,-0.363623,0.0173533,0.0405633,909,1681,3.11136,-8.08918
-308,-657,3.07117,8.67432,0.0102567,-0.0076442,-0.0112517,0.0156837,-0.0130712,-0.44941,0.0166244,0.0356702,916,1681,3.07115,-8.67427
-301,-657,3.13123,8.93652,0.00901423,-0.00470381,-0.0119308,0.0159171,-0.0116067,-0.524518,0.0159557,0.0284649,923,1681,3.13125,-8.93648
-294,-657,3.10602,9.09473,0.00787501,-0.00200447,-0.0118053,0.0157324,-0.00986185,-0.58725,0.0149059,0.0154321,930,1681,3.106,-9.09478
-287,-657,3.1095,9.23499,0.00668537,0.000256938,-0.0110953,0.0150226,-0.00808032,-0.644411,0.0135377,0.0102821,937,1681,3.10951,-9.23501
-280,-657,3.11151,9.38123,0.00567332,0.002202,-0.00950864,0.0136034,-0.0057281,-0.695124,0.0114656,0.0125333,944,1681,3.11152,-9.3812
-273,-657,3.11157,9.52344,0.0051021,0.0032228,-0.00839709,0.012612,-0.00428705,-0.729679,0.0101436,0.00997716,951,1681,3.11157,-9.52339
-266,-657,3.07037,9.67151,0.00448722,0.00375066,-0.00677971,0.0109086,-0.00267077,-0.758264,0.00830705,0.014956,958,1681,3.07038,-9.67154
-259,-657,3.06708,9.79858,0.00343866,0.00456513,-0.00432334,0.00836177,-0.000357979,-0.850172,0.00569759,0.019315,965,1681,3.06708,-9.7986
-252,-657,3.07141,9.9259,0.0025743,0.0048049,-0.00235346,0.00629396,0.00108525,-1.00667,0.00388508,0.0125971,972,1681,3.0714,-9.92591
-245,-657,3.08093,10.0844,0.00224688,0.00417024,-0.00103133,0.00461869,0.00179843,-1.16063,0.00268827,0.0144953,979,1681,3.08094,-10.0843
-238,-657,3.09235,10.1838,0.0022412,0.00320013,-0.000149264,0.00322282,0.0022185,-1.41989,0.00190421,0.0211226,986,1681,3.09236,-10.1839
-231,-657,3.07721,10.3218,0.001871,0.00234931,0.000566171,0.00272476,0.00149555,0.985233,0.00157565,0.0227984,993,1681,3.07722,-10.3218
-224,-657,3.0863,10.4969,0.00141011,0.00122816,0.000869893,0.00219377,0.000444494,0.733297,0.00133917,0.0168858,1000,1681,3.08632,-10.497
-217,-657,3.09949,10.6152,0.000949375,-7.6755e-05,0.000946764,0.00151316,-0.000640536,0.537091,0.001277,0.0101631,1007,1681,3.09946,-10.6153
-210,-657,3.10742,10.7295,0.000223571,-0.000586216,0.000357345,0.000358709,-0.000721354,0.36155,0.000635183,0.0107577,1014,1681,3.10745,-10.7295
-203,-657,3.10339,10.8689,-0.000718696,-0.00119448,-0.000256663,-0.000606633,-0.00130654,-0.411667,0.000754974,0.0134956,1021,1681,3.10335,-10.8689
-196,-657,3.12073,10.9708,-0.00189583,-0.00173978,-0.000884545,-0.000929827,-0.00270579,-0.82939,0.00158744,0.013521,1028,1681,3.12073,-10.9709
-189,-657,3.12708,11.0864,-0.00292494,-0.00241393,-0.00152922,-0.00111902,-0.00421985,-0.868174,0.00252431,0.00953656,1035,1681,3.12707,-11.0864
-182,-657,3.11182,11.1986,-0.0038396,-0.0030291,-0.00199811,-0.00139556,-0.00547314,-0.88545,0.00328395,0.00813776,1042,1681,3.11181,-11.1986
-175,-657,3.11975,11.3137,-0.00453798,-0.00355598,-0.0023063,-0.001689,-0.00640496,-0.89028,0.00383309,0.00996736,1049,1681,3.1198,-11.3138
-168,-657,3.11707,11.4318,-0.0053805,-0.00404804,-0.00263087,-0.00200036,-0.00742819,-0.909409,0.00443823,0.0116901,1056,1681,3.11708,-11.4317
-161,-657,3.14905,11.5217,-0.00575713,-0.0045928,-0.00275024,-0.00236379,-0.00798614,-0.889698,0.00473701,0.0112984,1063,1681,3.1491,-11.5218
-154,-657,3.17224,11.6282,-0.0056557,-0.00519478,-0.00267329,-0.00274204,-0.00810844,-0.828396,0.00476244,0.0113285,1070,1681,3.17219,-11.6282
-147,-657,3.1781,11.7085,-0.00514284,-0.00609106,-0.00207811,-0.00348544,-0.00774845,-0.673245,0.00448107,0.0154362,1077,1681,3.17809,-11.7085
-140,-657,3.15552,11.7551,-0.00475073,-0.00776582,-0.00129827,-0.00426875,-0.00824779,-0.355475,0.00476284,0.0258148,1084,1681,3.15548,-11.7551
-133,-657,3.05957,11.788,-0.00394963,-0.0105877,-0.000519173,-0.00390927,-0.010628,-0.077583,0.00620716,0.0362467,1091,1681,3.05952,-11.788
-126,-657,3.448,11.9628,-0.0028735,-0.0136215,0.000337802,-0.0028629,-0.0136321,0.0313881,0.0083,0.0401193,1098,1681,3.44799,-11.9627
-119,-657,3.32617,12.2845,0,0,0,0,0,0,0,-1,1105,1681,3.32621,-12.2845
-112,-657,3.97729,12.103,0,0,0,0,0,0,0,-1,1112,1681,3.97724,-12.1031
-105,-657,4.6283,11.9216,0,0,0,0,0,0,0,-1,1119,1681,4.62827,-11.9217
-98,-657,3.78662,8.16785,0,0,0,0,0,0,0,-1,1126,1681,3.78663,-8.16786
-91,-657,4.47351,10.8368,0,0,0,0,0,0,0,-1,1133,1681,4.47356,-10.8368
-84,-657,4.08008,10.4579,0,0,0,0,0,0,0,-1,1140,1681,4.08006,-10.4579
-77,-657,-5.29846,0.396606,0,0,0,0,0,0,0,-1,1147,1681,-5.29842,-0.396573
-70,-657,-4.14893,2.14575,0,0,0,0,0,0,0,-1,1154,1681,-4.14893,-2.1458
-63,-657,-4.1239,3.177,0,0,0,0,0,0,0,-1,1161,1681,-4.12391,-3.17698
-56,-657,-6.40576,5.73987,0,0,0,0,0,0,0,-1,1168,1681,-6.40577,-5.7399
-49,-657,-5.98462,7.54053,0,0,0,0,0,0,0,-1,1175,1681,-5.98466,-7.5405
-42,-657,-5.71948,9.28955,0,0,0,0,0,0,0,-1,1182,1681,-5.71951,-9.2895
-35,-657,-5.44556,11.015,0,0,0,0,0,0,0,-1,1189,1681,-5.44555,-11.015
-28,-657,-1.3446,8.92847,0,0,0,0,0,0,0,-1,1196,1681,-1.34459,-8.92848
-21,-657,3.65234,11.9055,0,0,0,0,0,0,0,-1,1203,1681,3.65239,-11.9056
-14,-657,4.08557,12.2836,0,0,0,0,0,0,0,-1,1210,1681,4.0856,-12.2836
-7,-657,4.51245,12.3384,-0.00323571,0.00561705,0.0112381,0.0132691,-0.0108877,0.973004,0.0139695,0.0457843,1217,1681,4.51242,-12.3383
0,-657,4.75574,12.4081,-0.0063131,0.00425672,0.0086362,0.00909674,-0.0111531,1.05998,0.0117113,0.0475894,1224,1681,4.75576,-12.408
7,-657,4.82214,12.6384,-0.0089141,0.00155387,0.00378156,0.00277703,-0.0101373,1.25796,0.00784935,0.0479884,1231,1681,4.82218,-12.6384
14,-657,4.52429,12.3408,0,0,0,0,0,0,0,-1,1238,1681,4.52427,-12.3408
21,-657,4.37073,12.6246,0,0,0,0,0,0,0,-1,1245,1681,4.37075,-12.6246
28,-657,4.2832,12.5703,-0.017094,-0.00609098,-0.010608,0.000357298,-0.0235422,-1.02461,0.0158153,0.0452733,1252,1681,4.28316,-12.5704
35,-657,4.19836,12.5309,-0.0201059,-0.00954236,-0.0142362,0.000360292,-0.0300086,-0.963032,0.0201269,0.0433848,1259,1681,4.19835,-12.5308
42,-657,3.776,12.3357,-0.0234206,-0.0110453,-0.0173515,0.0011888,-0.0356547,-0.956672,0.0241758,0.0415096,1266,1681,3.77605,-12.3357
49,-657,3.67163,11.3486,-0.0262311,-0.0138966,-0.019514,0.000401463,-0.0405292,-0.938453,0.0271543,0.0443874,1273,1681,3.67161,-11.3486
56,-657,3.41724,10.7993,-0.0281801,-0.0163514,-0.020218,-0.00120047,-0.043331,-0.927693,0.0284956,0.0477001,1280,1681,3.41718,-10.7993
63,-657,3.04065,11.5632,-0.0284729,-0.0186661,-0.0196534,-0.00331366,-0.0438254,-0.90765,0.0281774,0.0490557,1287,1681,3.04061,-11.5632
70,-657,2.57446,12.3568,-0.026838,-0.0208549,-0.018686,-0.00492251,-0.0427704,-0.864773,0.0270226,0.0444156,1294,1681,2.57448,-12.3568
77,-657,2.04834,13.0853,-0.022624,-0.0228307,-0.0180354,-0.00469167,-0.040763,-0.782532,0.0257543,0.0401834,1301,1681,2.04839,-13.0854
84,-657,1.35022,13.6406,-0.0158136,-0.025175,-0.0182506,-0.001653,-0.0393356,-0.659869,0.0256905,0.0418571,1308,1681,1.35024,-13.6406
91,-657,0.640503,14.3242,-0.00880533,-0.0290375,-0.0178448,0.00159131,-0.0394341,-0.527538,0.0268356,0.0455618,1315,1681,0.640459,-14.3242
98,-657,-0.0357666,15.0527,0,0,0,0,0,0,0,-1,1322,1681,-0.0357366,-15.0527
105,-657,4.1084,11.5724,0,0,0,0,0,0,0,-1,1329,1681,4.10846,-11.5724
112,-657,2.80078,12.9138,0,0,0,0,0,0,0,-1,1336,1681,2.8008,-12.9138
119,-657,2.73047,13.1637,0.0268614,-0.0411696,-0.0177565,0.0312171,-0.0455252,-0.240551,0.0445631,0.04602,1343,1681,2.73045,-13.1637
126,-657,3.33264,13.2769,0.0365058,-0.0448684,-0.0190265,0.0407347,-0.0490973,-0.218709,0.0519394,0.0470387,1350,1681,3.33265,-13.2768
133,-657,4.41931,13.0521,0.0433645,-0.0494067,-0.0198223,0.0474224,-0.0534646,-0.201924,0.058282,0.0462298,1357,1681,4.41936,-13.0522
140,-657,5.52759,13.1154,0,0,0,0,0,0,0,-1,1364,1681,5.52757,-13.1153
147,-657,6.61023,11.5291,0,0,0,0,0,0,0,-1,1371,1681,6.61019,-11.5291
154,-657,12.2501,7.70422,0,0,0,0,0,0,0,-1,1378,1681,12.2501,-7.70418
161,-657,12.8524,6.43372,0,0,0,0,0,0,0,-1,1385,1681,12.8524,-6.43366
168,-657,5.21643,0.70105,0,0,0,0,0,0,0,-1,1392,1681,5.21648,-0.7011
175,-657,5.52771,0.649048,0,0,0,0,0,0,0,-1,1399,1681,5.52774,-0.649019
182,-657,5.73999,1.02612,0,0,0,0,0,0,0,-1,1406,1681,5.73995,-1.02611
189,-657,5.92126,1.44116,0,0,0,0,0,0,0,-1,1413,1681,5.92126,-1.44115
196,-657,4.92834,9.59021,0,0,0,0,0,0,0,-1,1420,1681,4.9284,-9.59018
203,-657,6.26343,5.16492,0,0,0,0,0,0,0,-1,1427,1681,6.26345,-5.16488
210,-657,3.9856,5.28088,0,0,0,0,0,0,0,-1,1434,1681,3.98555,-5.28084
217,-657,3.95178,5.2843,0,0,0,0,0,0,0,-1,1441,1681,3.95174,-5.28431
224,-657,6.66736,-0.250244,0,0,0,0,0,0,0,-1,1448,1681,6.66737,0.250229
231,-657,6.85498,-1.70752,0,0,0,0,0,0,0,-1,1455,1681,6.855,1.70758
238,-657,5.34143,-2.89819,0,0,0,0,0,0,0,-1,1462,1681,5.34143,2.89813
245,-657,8.66003,-0.102783,0,0,0,0,0,0,0,-1,1469,1681,8.66,0.102824
252,-657,4.78955,0.623779,0,0,0,0,0,0,0,-1,1476,1681,4.7895,-0.623826
259,-657,2.61523,4.31909,0,0,0,0,0,0,0,-1,1483,1681,2.61523,-4.31908
266,-657,5.35437,11.4742,0,0,0,0,0,0,0,-1,1490,1681,5.35441,-11.4742
273,-657,4.69165,12.087,0,0,0,0,0,0,0,-1,1497,1681,4.69167,-12.0871
280,-657,4.72644,12.0771,-0.000733362,-0.0105064,0.00136387,-0.000546596,-0.0106931,0.136092,0.00695371,0.0366655,1504,1681,4.72649,-12.0772
287,-657,4.76709,12.0853,-0.000660327,-0.0103781,0.00109561,-0.000538336,-0.0105001,0.110888,0.00682771,0.0310768,1511,1681,4.76712,-12.0854
294,-657,4.7865,12.0391,-0.000675878,-0.0103491,0.0010762,-0.000557591,-0.0104674,0.109472,0.00680001,0.024475,1518,1681,4.78656,-12.039
301,-657,4.79272,11.9893,-0.000826042,-0.00983538,0.00108694,-0.000696762,-0.00996466,0.118383,0.00642346,0.0153886,1525,1681,4.79269,-11.9892
308,-657,4.82251,11.912,-0.00095964,-0.0092045,0.0010367,-0.000831285,-0.00933286,0.123184,0.00596415,0.0116274,1532,1681,4.82257,-11.9119
315,-657,4.84229,11.8345,-0.00106963,-0.00846189,0.00103382,-0.000927769,-0.00860375,0.136368,0.00545295,0.0109038,1539,1681,4.84228,-11.8344
322,-657,4.84766,11.7289,-0.00106688,-0.00744908,0.000965061,-0.000924141,-0.00759182,0.146839,0.00478302,0.0135373,1546,1681,4.84762,-11.7288
329,-657,4.86023,11.5894,-0.000930772,-0.0063712,0.000835985,-0.000805211,-0.00649676,0.149081,0.00408928,0.0196587,1553,1681,4.86022,-11.5893
336,-657,4.8446,11.5037,-0.000827731,-0.00522801,0.000806043,-0.000684728,-0.00537102,0.175587,0.00337567,0.0171058,1560,1681,4.84463,-11.5037
343,-657,4.8645,11.4384,-0.000677747,-0.00405666,0.0007934,-0.000500724,-0.00423369,0.219524,0.00267124,0.0132397,1567,1681,4.86451,-11.4384
350,-657,4.87756,11.3097,-0.000433288,-0.00301338,0.000748506,-0.000231865,-0.0032148,0.262873,0.00207025,0.015247,1574,1681,4.87753,-11.3097
357,-657,4.86243,11.2089,-0.000136242,-0.00204227,0.000682846,8.31402e-05,-0.00226166,0.310861,0.00153623,0.0137276,1581,1681,4.8624,-11.2089
364,-657,4.87415,11.1235,9.69302e-05,-0.00129502,0.000643941,0.000349134,-0.00154722,0.373293,0.00116542,0.0102523,1588,1681,4.87414,-11.1235
371,-657,4.86267,10.9957,0.000306385,-0.00056909,0.000625861,0.000632399,-0.000895104,0.480231,0.000886241,0.0146508,1595,1681,4.86267,-10.9958
378,-657,4.85303,10.8861,0.000366628,-1.28063e-05,0.000718651,0.000920182,-0.00056636,0.656347,0.000866321,0.0138088,1602,1681,4.853,-10.8862
385,-657,4.85901,10.7777,0.000375564,0.000231222,0.00082996,0.00113648,-0.000529699,0.742028,0.000983005,0.0119313,1609,1681,4.85901,-10.7777
392,-657,4.86316,10.663,0.000209932,0.000621259,0.000867275,0.00130692,-0.000475731,0.901817,0.00106586,0.012592,1616,1681,4.8631,-10.6629
399,-657,4.87439,10.541,-0.000104326,0.00153075,0.000912916,0.00193869,-0.00051226,1.15057,0.0014928,0.0128493,1623,1681,4.87441,-10.541
406,-657,4.87598,10.4158,-0.000674708,0.00179479,0.00120829,0.00228763,-0.00116755,1.18351,0.00202949,0.0142743,1630,1681,4.87594,-10.4157
413,-657,4.88733,10.2654,-0.00149808,0.00184376,0.00160644,0.00249073,-0.00214505,1.18793,0.00267895,0.0131912,1637,1681,4.88732,-10.2654
420,-657,4.8844,10.103,-0.00226658,0.00228474,0.00194382,0.00300191,-0.00298376,1.21734,0.00345583,0.0141525,1644,1681,4.88442,-10.103
427,-657,4.85339,9.95959,-0.00289053,0.0022194,0.00237219,0.00315085,-0.00382199,1.19664,0.00403199,0.0172725,1651,1681,4.85338,-9.95958
434,-657,4.68372,9.74634,0,0,0,0,0,0,0,-1,1658,1681,4.68376,-9.74639
441,-657,4.82532,9.39258,-0.00435274,0.00232605,0.00258063,0.00320699,-0.00523368,1.24183,0.00491983,0.0438094,1665,1681,4.82529,-9.39261
448,-657,4.84668,9.0498,-0.00471824,0.00261917,0.00209737,0.00317638,-0.00527545,1.31112,0.00492957,0.0495434,1672,1681,4.84674,-9.04975
455,-657,4.84558,8.69214,0,0,0,0,0,0,0,-1,1679,1681,4.84558,-8.6921
462,-657,4.12805,10.3281,0,0,0,0,0,0,0,-1,1686,1681,4.12808,-10.3282
469,-657,2.47144,8.68225,0,0,0,0,0,0,0,-1,1693,1681,2.47149,-8.6822
476,-657,8.01404,3.96289,0,0,0,0,0,0,0,-1,1700,1681,8.01408,-3.96294
483,-657,5.47424,8.90247,0,0,0,0,0,0,0,-1,1707,1681,5.47425,-8.90244
490,-657,6.14087,9.01477,0,0,0,0,0,0,0,-1,1714,1681,6.14089,-9.01479
497,-657,5.82849,8.8877,0,0,0,0,0,0,0,-1,1721,1681,5.82851,-8.88767
504,-657,0,0,0,0,0,0,0,0,0,-1,1728,1681,0,0
511,-657,0,0,0,0,0,0,0,0,0,-1,1735,1681,0,0
518,-657,0,0,0,0,0,0,0,0,0,-1,1742,1681,0,0
525,-657,0,0,0,0,0,0,0,0,0,-1,1749,1681,0,0
532,-657,0,0,0,0,0,0,0,0,0,-1,1756,1681,0,0
539,-657,0,0,0,0,0,0,0,0,0,-1,1763,1681,0,0
546,-657,0,0,0,0,0,0,0,0,0,-1,1770,1681,0,0
553,-657,0,0,0,0,0,0,0,0,0,-1,1777,1681,0,0
560,-657,0,0,0,0,0,0,0,0,0,-1,1784,1681,0,0
567,-657,0,0,0,0,0,0,0,0,0,-1,1791,1681,0,0
574,-657,0,0,0,0,0,0,0,0,0,-1,1798,1681,0,0
581,-657,0,0,0,0,0,0,0,0,0,-1,1805,1681,0,0
588,-657,0,0,0,0,0,0,0,0,0,-1,1812,1681,0,0
595,-657,0,0,0,0,0,0,0,0,0,-1,1819,1681,0,0
602,-657,0,0,0,0,0,0,0,0,0,-1,1826,1681,0,0
609,-657,0,0,0,0,0,0,0,0,0,-1,1833,1681,0,0
616,-657,0,0,0,0,0,0,0,0,0,-1,1840,1681,0,0
623,-657,0,0,0,0,0,0,0,0,0,-1,1847,1681,0,0
630,-657,0,0,0,0,0,0,0,0,0,-1,1854,1681,0,0
637,-657,0,0,0,0,0,0,0,0,0,-1,1861,1681,0,0
644,-657,0,0,0,0,0,0,0,0,0,-1,1868,1681,0,0
651,-657,0,0,0,0,0,0,0,0,0,-1,1875,1681,0,0
658,-657,0,0,0,0,0,0,0,0,0,-1,1882,1681,0,0
665,-657,0,0,0,0,0,0,0,0,0,-1,1889,1681,0,0
672,-657,0,0,0,0,0,0,0,0,0,-1,1896,1681,0,0
679,-657,0,0,0,0,0,0,0,0,0,-1,1903,1681,0,0
686,-657,0,0,0,0,0,0,0,0,0,-1,1910,1681,0,0
693,-657,0,0,0,0,0,0,0,0,0,-1,1917,1681,0,0
700,-657,0,0,0,0,0,0,0,0,0,-1,1924,1681,0,0
707,-657,0,0,0,0,0,0,0,0,0,-1,1931,1681,0,0
714,-657,0,0,0,0,0,0,0,0,0,-1,1938,1681,0,0
721,-657,0,0,0,0,0,0,0,0,0,-1,1945,1681,0,0
728,-657,0,0,0,0,0,0,0,0,0,-1,1952,1681,0,0
735,-657,0,0,0,0,0,0,0,0,0,-1,1959,1681,0,0
742,-657,0,0,0,0,0,0,0,0,0,-1,1966,1681,0,0
749,-657,0,0,0,0,0,0,0,0,0,-1,1973,1681,0,0
756,-657,0,0,0,0,0,0,0,0,0,-1,1980,1681,0,0
763,-657,0,0,0,0,0,0,0,0,0,-1,1987,1681,0,0
770,-657,0,0,0,0,0,0,0,0,0,-1,1994,1681,0,0
777,-657,0,0,0,0,0,0,0,0,0,-1,2001,1681,0,0
784,-657,0,0,0,0,0,0,0,0,0,-1,2008,1681,0,0
791,-657,0,0,0,0,0,0,0,0,0,-1,2015,1681,0,0
798,-657,0,0,0,0,0,0,0,0,0,-1,2022,1681,0,0
805,-657,0,0,0,0,0,0,0,0,0,-1,2029,1681,0,0
812,-657,0,0,0,0,0,0,0,0,0,-1,2036,1681,0,0
-700,-664,0,0,0,0,0,0,0,0,0,-1,524,1688,0,0
-693,-664,0,0,0,0,0,0,0,0,0,-1,531,1688,0,0
-686,-664,0,0,0,0,0,0,0,0,0,-1,538,1688,0,0
-679,-664,0,0,0,0,0,0,0,0,0,-1,545,1688,0,0
-672,-664,0,0,0,0,0,0,0,0,0,-1,552,1688,0,0
-665,-664,0,0,0,0,0,0,0,0,0,-1,559,1688,0,0
-658,-664,0,0,0,0,0,0,0,0,0,-1,566,1688,0,0
-651,-664,0,0,0,0,0,0,0,0,0,-1,573,1688,0,0
-644,-664,0,0,0,0,0,0,0,0,0,-1,580,1688,0,0
-637,-664,0,0,0,0,0,0,0,0,0,-1,587,1688,0,0
-630,-664,0,0,0,0,0,0,0,0,0,-1,594,1688,0,0
-623,-664,0,0,0,0,0,0,0,0,0,-1,601,1688,0,0
-616,-664,0,0,0,0,0,0,0,0,0,-1,608,1688,0,0
-609,-664,0,0,0,0,0,0,0,0,0,-1,615,1688,0,0
-602,-664,0,0,0,0,0,0,0,0,0,-1,622,1688,0,0
-595,-664,0,0,0,0,0,0,0,0,0,-1,629,1688,0,0
-588,-664,0,0,0,0,0,0,0,0,0,-1,636,1688,0,0
-581,-664,0,0,0,0,0,0,0,0,0,-1,643,1688,0,0
-574,-664,0,0,0,0,0,0,0,0,0,-1,650,1688,0,0
-567,-664,0,0,0,0,0,0,0,0,0,-1,657,1688,0,0
-560,-664,0,0,0,0,0,0,0,0,0,-1,664,1688,0,0
-553,-664,0,0,0,0,0,0,0,0,0,-1,671,1688,0,0
-546,-664,0,0,0,0,0,0,0,0,0,-1,678,1688,0,0
-539,-664,0,0,0,0,0,0,0,0,0,-1,685,1688,0,0
-532,-664,0,0,0,0,0,0,0,0,0,-1,692,1688,0,0
-525,-664,0,0,0,0,0,0,0,0,0,-1,699,1688,0,0
-518,-664,0,0,0,0,0,0,0,0,0,-1,706,1688,0,0
-511,-664,0,0,0,0,0,0,0,0,0,-1,713,1688,0,0
-504,-664,0,0,0,0,0,0,0,0,0,-1,720,1688,0,0
-497,-664,0,0,0,0,0,0,0,0,0,-1,727,1688,0,0
-490,-664,0,0,0,0,0,0,0,0,0,-1,734,1688,0,0
-483,-664,0,0,0,0,0,0,0,0,0,-1,741,1688,0,0
-476,-664,0,0,0,0,0,0,0,0,0,-1,748,1688,0,0
-469,-664,0,0,0,0,0,0,0,0,0,-1,755,1688,0,0
-462,-664,0,0,0,0,0,0,0,0,0,-1,762,1688,0,0
-455,-664,0,0,0,0,0,0,0,0,0,-1,769,1688,0,0
-448,-664,0,0,0,0,0,0,0,0,0,-1,776,1688,0,0
-441,-664,0,0,0,0,0,0,0,0,0,-1,783,1688,0,0
-434,-664,0,0,0,0,0,0,0,0,0,-1,790,1688,0,0
-427,-664,0,0,0,0,0,0,0,0,0,-1,797,1688,0,0
-420,-664,0,0,0,0,0,0,0,0,0,-1,804,1688,0,0
-413,-664,0,0,0,0,0,0,0,0,0,-1,811,1688,0,0
-406,-664,0,0,0,0,0,0,0,0,0,-1,818,1688,0,0
-399,-664,0,0,0,0,0,0,0,0,0,-1,825,1688,0,0
-392,-664,0,0,0,0,0,0,0,0,0,-1,832,1688,0,0
-385,-664,0,0,0,0,0,0,0,0,0,-1,839,1688,0,0
-378,-664,0,0,0,0,0,0,0,0,0,-1,846,1688,0,0
-371,-664,-1.61676,5.92737,0,0,0,0,0,0,0,-1,853,1688,-1.61675,-5.92735
-364,-664,-2.84229,4.37683,0,0,0,0,0,0,0,-1,860,1688,-2.84232,-4.37685
-357,-664,-4.0437,2.82947,0,0,0,0,0,0,0,-1,867,1688,-4.04369,-2.82946
-350,-664,-5.24695,1.2782,0,0,0,0,0,0,0,-1,874,1688,-5.24693,-1.27815
-343,-664,2.60852,7.06335,0,0,0,0,0,0,0,-1,881,1688,2.60853,-7.06334
-336,-664,2.65283,7.3949,0,0,0,0,0,0,0,-1,888,1688,2.65286,-7.39493
-329,-664,2.68933,7.60779,0.0218636,-0.0307908,-0.0157443,0.0262122,-0.0351394,-0.269483,0.0355461,0.045785,895,1688,2.68932,-7.60775
-322,-664,2.79114,7.73438,0.0203562,-0.0251518,-0.0182482,0.0267697,-0.0315653,-0.337972,0.0337176,0.0457309,902,1688,2.79115,-7.73438
-315,-664,3.17053,8.27368,0.0186116,-0.0197518,-0.0202209,0.0273014,-0.0284416,-0.405884,0.0321855,0.0457466,909,1688,3.17055,-8.27372
-308,-664,3.40887,8.68506,0.0166685,-0.014654,-0.021265,0.0274169,-0.0254025,-0.468002,0.0305027,0.0459189,916,1688,3.40888,-8.68509
-301,-664,3.39948,9.03308,0.0148033,-0.00986921,-0.0214403,0.027203,-0.0222689,-0.524339,0.0286099,0.0459763,923,1688,3.39946,-9.03314
-294,-664,3.32007,9.16882,0.0129764,-0.00539993,-0.0204799,0.0262348,-0.0186584,-0.574536,0.0260419,0.0396634,930,1688,3.32007,-9.16888
-287,-664,3.224,9.29407,0.0110937,-0.00158739,-0.0187291,0.0245264,-0.0150201,-0.622184,0.023051,0.0259043,937,1688,3.22397,-9.29404
-280,-664,3.20856,9.41248,0.00945904,0.00180856,-0.0156701,0.021764,-0.0104964,-0.665684,0.0190005,0.0172912,944,1688,3.20854,-9.41244
-273,-664,3.24176,9.5155,0.00832624,0.00392861,-0.0131995,0.0195088,-0.00725393,-0.702864,0.0159823,0.0141294,951,1688,3.24173,-9.51552
-266,-664,3.21179,9.66077,0.00717881,0.00519196,-0.0102796,0.0165129,-0.00414215,-0.737228,0.012618,0.0212542,958,1688,3.21178,-9.66072
-259,-664,3.20789,9.79834,0.00557009,0.0068186,-0.00643626,0.0126608,-0.000272112,-0.833742,0.00853269,0.019524,965,1688,3.20787,-9.79838
-252,-664,3.21564,9.93762,0.00435877,0.00747096,-0.00322959,0.00949979,0.00232995,-1.0099,0.00571706,0.0151939,972,1688,3.21563,-9.93763
-245,-664,3.21094,10.0883,0.00381256,0.00676431,-0.00107432,0.00711391,0.00346296,-1.25619,0.0041077,0.0188166,979,1688,3.21094,-10.0883
-238,-664,3.22217,10.1941,0.00373696,0.00555085,0.000305296,0.00560086,0.00368696,1.40844,0.00328722,0.0235013,986,1688,3.22219,-10.1941
-231,-664,3.20331,10.3203,0.00311221,0.00451458,0.00138394,0.00536484,0.00226196,1.01988,0.00311005,0.0213651,993,1688,3.20329,-10.3203
-224,-664,3.21924,10.5138,0.00252964,0.00305771,0.001865,0.00467728,0.000910075,0.855718,0.00286345,0.014881,1000,1688,3.21921,-10.5138
-217,-664,3.24097,10.6304,0.00197048,0.00130215,0.00206063,0.00372387,-0.00045123,0.705015,0.00264584,0.0111313,1007,1688,3.24097,-10.6304
-210,-664,3.23206,10.7371,0.00133986,0.000715518,0.00145928,0.00251999,-0.00046461,0.680026,0.00185437,0.0114149,1014,1688,3.23204,-10.737
-203,-664,3.24451,10.8801,0.000520071,1.52195e-05,0.000816209,0.001122,-0.000586706,0.63543,0.00100253,0.0136499,1021,1688,3.24452,-10.8801
-196,-664,3.24829,10.979,-0.00047152,-0.000653248,0.000147783,-0.000388902,-0.000735866,0.509765,0.000425082,0.0138802,1028,1688,3.24827,-10.979
-189,-664,3.22913,11.0912,-0.00133379,-0.0014097,-0.000524938,-0.000845436,-0.00189805,-0.749307,0.00109802,0.00976229,1035,1688,3.22917,-11.0912
-182,-664,3.23193,11.2062,-0.00202559,-0.00207493,-0.00102763,-0.00102234,-0.00307819,-0.773398,0.00181027,0.00967443,1042,1688,3.23195,-11.2062
-175,-664,3.24414,11.3043,-0.00249685,-0.00269975,-0.0014225,-0.00117218,-0.00402441,-0.749799,0.00239003,0.012512,1049,1688,3.24418,-11.3043
-168,-664,3.26147,11.4069,-0.00302632,-0.00321291,-0.00173795,-0.00137916,-0.00486007,-0.758584,0.0028921,0.0138994,1056,1688,3.26143,-11.4069
-161,-664,3.26184,11.5029,-0.00309709,-0.00374784,-0.00182087,-0.00157275,-0.00527218,-0.696986,0.00312535,0.0102665,1063,1688,3.26189,-11.5029
-154,-664,3.26086,11.6138,-0.00274937,-0.00429793,-0.00172922,-0.00162899,-0.0054183,-0.574902,0.00321007,0.00910361,1070,1688,3.26082,-11.6138
-147,-664,3.25708,11.7155,-0.00209342,-0.00504642,-0.00124751,-0.00163697,-0.00550288,-0.350765,0.00326281,0.00932686,1077,1688,3.25711,-11.7154
-140,-664,3.28296,11.8175,-0.00145781,-0.00642422,-0.000634167,-0.00137811,-0.00650392,-0.125019,0.00395738,0.00976827,1084,1688,3.283,-11.8175
-133,-664,3.29907,11.912,-0.000541358,-0.00875071,-4.93575e-06,-0.000541355,-0.00875071,-0.000601234,0.00566199,0.0108631,1091,1688,3.29902,-11.912
-126,-664,3.39368,11.9885,0.0004492,-0.0112141,0.000698006,0.000490825,-0.0112557,0.0595631,0.00767265,0.02002,1098,1688,3.39367,-11.9885
-119,-664,3.44324,12.0192,0.00180904,-0.0140803,0.00166736,0.00198212,-0.0142534,0.103435,0.0102272,0.0352001,1105,1688,3.44321,-12.0191
-112,-664,3.65198,12.0204,0.00314029,-0.0178298,0.00280631,0.00350935,-0.0181988,0.13076,0.0134557,0.0423723,1112,1688,3.65196,-12.0204
-105,-664,3.92004,11.8069,0,0,0,0,0,0,0,-1,1119,1688,3.92002,-11.8069
-98,-664,3.90625,11.6022,0,0,0,0,0,0,0,-1,1126,1688,3.90626,-11.6021
-91,-664,4.07495,11.5037,0.00833001,-0.0334074,0.00703794,0.00948482,-0.0345623,0.162635,0.0267692,0.0459804,1133,1688,4.07499,-11.5037
-84,-664,3.91309,11.2107,0.00671613,-0.0383638,0.0073411,0.00788148,-0.0395292,0.157429,0.029335,0.0496243,1140,1688,3.91314,-11.2107
-77,-664,4.52014,11.2122,0,0,0,0,0,0,0,-1,1147,1688,4.5202,-11.2122
-70,-664,4.20374,8.24524,0,0,0,0,0,0,0,-1,1154,1688,4.20379,-8.24519
-63,-664,-4.677,2.40503,0,0,0,0,0,0,0,-1,1161,1688,-4.67702,-2.40498
-56,-664,-4.66504,3.32727,0,0,0,0,0,0,0,-1,1168,1688,-4.6651,-3.32724
-49,-664,-2.54297,3.31848,0,0,0,0,0,0,0,-1,1175,1688,-2.54297,-3.31852
-42,-664,-0.359253,4.38684,0,0,0,0,0,0,0,-1,1182,1688,-0.359261,-4.38685
-35,-664,-0.705566,3.55017,0,0,0,0,0,0,0,-1,1189,1688,-0.705567,-3.55023
-28,-664,-1.54236,10.2538,0,0,0,0,0,0,0,-1,1196,1688,-1.54236,-10.2538
-21,-664,4.02588,12.6614,0,0,0,0,0,0,0,-1,1203,1688,4.02589,-12.6613
-14,-664,4.07385,12.4159,0,0,0,0,0,0,0,-1,1210,1688,4.0739,-12.4159
-7,-664,4.14868,12.2549,0,0,0,0,0,0,0,-1,1217,1688,4.14866,-12.2549
0,-664,3.72668,13.8202,0,0,0,0,0,0,0,-1,1224,1688,3.72667,-13.8202
7,-664,4.60864,12.8395,0,0,0,0,0,0,0,-1,1231,1688,4.60866,-12.8395
14,-664,4.40002,12.4296,0,0,0,0,0,0,0,-1,1238,1688,4.40003,-12.4296
21,-664,4.22522,12.547,-0.00992058,-0.00526159,-0.00489801,-0.00216733,-0.0130148,-1.00737,0.00805193,0.0446522,1245,1688,4.22522,-12.547
28,-664,4.14209,12.5677,-0.0122011,-0.00768627,-0.00830379,-0.00133853,-0.0185489,-0.918118,0.0119448,0.0476432,1252,1688,4.14204,-12.5677
35,-664,3.85925,12.6836,-0.0147868,-0.0109442,-0.0111618,-0.00153949,-0.0241915,-0.870628,0.0156398,0.0471539,1259,1688,3.8593,-12.6835
42,-664,3.41125,12.8309,-0.0175993,-0.01218,-0.0138476,-0.000779425,-0.0289999,-0.882016,0.0190787,0.0454693,1266,1688,3.41128,-12.831
49,-664,3.66101,9.87512,-0.0202344,-0.0146329,-0.015923,-0.00126626,-0.0336011,-0.872455,0.0219908,0.0440046,1273,1688,3.66098,-9.87514
56,-664,3.90479,10.4568,-0.0220729,-0.0166181,-0.0168045,-0.00232109,-0.0363698,-0.865848,0.0235111,0.0496233,1280,1688,3.90475,-10.4568
63,-664,3.41345,11.5017,0,0,0,0,0,0,0,-1,1287,1688,3.41342,-11.5017
70,-664,2.85754,12.1073,0,0,0,0,0,0,0,-1,1294,1688,2.85755,-12.1072
77,-664,2.70496,12.5632,0,0,0,0,0,0,0,-1,1301,1688,2.70498,-12.5633
84,-664,1.64612,14.1058,-0.0119375,-0.0218086,-0.0156418,-0.000471106,-0.033275,-0.632573,0.022028,0.0429182,1308,1688,1.64613,-14.1058
91,-664,0.957153,14.8862,-0.00572643,-0.0242428,-0.0153357,0.00292896,-0.0328982,-0.513829,0.0229708,0.0444701,1315,1688,0.957135,-14.8863
98,-664,0.318359,15.6492,0,0,0,0,0,0,0,-1,1322,1688,0.318315,-15.6492
105,-664,2.88208,12.4176,0,0,0,0,0,0,0,-1,1329,1688,2.88209,-12.4176
112,-664,3.14587,12.9171,0.0166393,-0.030233,-0.0135163,0.0202576,-0.0338513,-0.261567,0.0315667,0.0464883,1336,1688,3.14591,-12.9171
119,-664,3.32861,13.4362,0.0259677,-0.032037,-0.0146915,0.0294765,-0.0355458,-0.234442,0.0375952,0.0487276,1343,1688,3.32857,-13.4362
126,-664,3.55066,13.9142,0,0,0,0,0,0,0,-1,1350,1688,3.55072,-13.9142
133,-664,5.04272,13.1772,0.0395913,-0.0384587,-0.0161923,0.0428172,-0.0416846,-0.196652,0.0487886,0.0498698,1357,1688,5.0427,-13.1773
140,-664,6.20752,13.2448,0.0417366,-0.043134,-0.0164359,0.0448084,-0.0462058,-0.184763,0.0525491,0.0489999,1364,1688,6.20757,-13.2447
147,-664,7.30981,13.2854,0,0,0,0,0,0,0,-1,1371,1688,7.30982,-13.2854
154,-664,13.5482,5.89453,0,0,0,0,0,0,0,-1,1378,1688,13.5482,-5.8945
161,-664,4.60132,1.56238,0,0,0,0,0,0,0,-1,1385,1688,4.60134,-1.56233
168,-664,5.172,1.25488,0,0,0,0,0,0,0,-1,1392,1688,5.17203,-1.25484
175,-664,5.58313,1.16467,0,0,0,0,0,0,0,-1,1399,1688,5.58317,-1.16466
182,-664,5.74268,1.41113,0,0,0,0,0,0,0,-1,1406,1688,5.74263,-1.41115
189,-664,5.87744,1.87061,0,0,0,0,0,0,0,-1,1413,1688,5.87745,-1.87065
196,-664,6.7594,5.97473,0,0,0,0,0,0,0,-1,1420,1688,6.75943,-5.97478
203,-664,5.38452,5.22034,0,0,0,0,0,0,0,-1,1427,1688,5.38453,-5.2203
210,-664,5.25549,6.45715,0,0,0,0,0,0,0,-1,1434,1688,5.25549,-6.45721
217,-664,5.72009,6.73975,0,0,0,0,0,0,0,-1,1441,1688,5.72014,-6.73972
224,-664,5.05725,7.42908,0,0,0,0,0,0,0,-1,1448,1688,5.05723,-7.42912
231,-664,5.13318,7.60864,0,0,0,0,0,0,0,-1,1455,1688,5.13313,-7.60862
238,-664,4.23193,6.45471,0,0,0,0,0,0,0,-1,1462,1688,4.23197,-6.45476
245,-664,4.42004,6.80896,0,0,0,0,0,0,0,-1,1469,1688,4.4201,-6.80901
252,-664,3.67346,6.85461,0,0,0,0,0,0,0,-1,1476,1688,3.6734,-6.85462
259,-664,4.55823,11.7435,0,0,0,0,0,0,0,-1,1483,1688,4.55826,-11.7435
266,-664,4.86511,12.3298,0,0,0,0,0,0,0,-1,1490,1688,4.86509,-12.3298
273,-664,4.83533,12.3005,0.000664535,-0.0062569,0.00146489,0.000961805,-0.00655417,0.200211,0.00472281,0.03506,1497,1688,4.83527,-12.3005
280,-664,4.6875,12.2443,0.000770364,-0.00565975,0.000958634,0.00091024,-0.00579962,0.144889,0.00420282,0.0226637,1504,1688,4.68753,-12.2443
287,-664,4.67822,12.1565,0.000875964,-0.00530047,0.000709539,0.000956427,-0.00538093,0.112919,0.00394493,0.0202568,1511,1688,4.67822,-12.1565
294,-664,4.70459,12.0771,0.000863526,-0.00510165,0.000704686,0.000945643,-0.00518377,0.116006,0.00381038,0.0141669,1518,1688,4.70458,-12.0771
301,-664,4.71545,11.9869,0.000750416,-0.00467038,0.000720776,0.000844618,-0.00476458,0.129957,0.00349214,0.00963972,1525,1688,4.71546,-11.9869
308,-664,4.74304,11.9109,0.000666229,-0.00427778,0.000668732,0.000755086,-0.00436663,0.132099,0.00319269,0.0101099,1532,1688,4.74301,-11.9108
315,-664,4.75378,11.8346,0.000588584,-0.00389418,0.00063955,0.000678043,-0.00398364,0.138976,0.00290824,0.0114696,1539,1688,4.75373,-11.8347
322,-664,4.75623,11.7378,0.000541274,-0.00340244,0.000564261,0.00062042,-0.00348158,0.139354,0.00255311,0.0154631,1546,1688,4.75617,-11.7377
329,-664,4.7572,11.6328,0.000605611,-0.0028801,0.000393967,0.000649584,-0.00292407,0.111155,0.00219814,0.0177861,1553,1688,4.75726,-11.6328
336,-664,4.76367,11.5094,0.000626414,-0.00225759,0.000522512,0.000718162,-0.00234933,0.173818,0.00185261,0.0145792,1560,1688,4.76364,-11.5094
343,-664,4.77112,11.4176,0.00069038,-0.00157607,0.000808212,0.000949063,-0.00183475,0.309764,0.00163413,0.0105543,1567,1688,4.77117,-11.4176
350,-664,4.76782,11.3109,0.000826439,-0.00098285,0.00102375,0.00128797,-0.00144439,0.423542,0.00157839,0.0121878,1574,1688,4.76788,-11.3109
357,-664,4.74658,11.2091,0.0010049,-0.000372845,0.00133397,0.00181736,-0.00118531,0.547055,0.00174635,0.0132842,1581,1688,4.74655,-11.2091
364,-664,4.75659,11.1089,0.00111971,0.000115392,0.00177479,0.00246202,-0.00122692,0.647532,0.00216923,0.0111767,1588,1688,4.75654,-11.1089
371,-664,4.76074,10.9922,0.00119114,0.000616708,0.00232655,0.00324814,-0.00144029,0.723983,0.00277313,0.0129792,1595,1688,4.7607,-10.9922
378,-664,4.74719,10.8726,0.00111656,0.00111491,0.00306425,0.00417999,-0.00194852,0.785264,0.00361564,0.011493,1602,1688,4.74724,-10.8726
385,-664,4.75977,10.7521,0.00103619,0.00143527,0.00387944,0.0051203,-0.00264884,0.811094,0.00456054,0.0121925,1609,1688,4.75974,-10.752
392,-664,4.74719,10.6556,0.000794763,0.00206521,0.00456198,0.00603597,-0.003176,0.854575,0.0054033,0.016322,1616,1688,4.74713,-10.6557
399,-664,4.74719,10.5284,0.000313801,0.00322069,0.00519362,0.00716041,-0.00362592,0.921834,0.00633796,0.0141645,1623,1688,4.74721,-10.5284
406,-664,4.75781,10.402,-0.000500623,0.003685,0.00604949,0.00799345,-0.00480908,0.951928,0.00746737,0.0125432,1630,1688,4.75777,-10.402
413,-664,4.78235,10.2422,-0.00152889,0.00380217,0.00677134,0.00841373,-0.00614046,0.972908,0.00843696,0.0116903,1637,1688,4.7824,-10.2422
420,-664,4.79077,10.0791,-0.00257557,0.00428793,0.00729456,0.00891767,-0.0072053,1.00526,0.00932608,0.0252096,1644,1688,4.79081,-10.079
427,-664,4.62659,9.88123,-0.00359434,0.00417223,0.00786774,0.00906283,-0.00848495,1.01464,0.010133,0.0429816,1651,1688,4.6266,-9.88123
434,-664,4.18005,9.95264,0,0,0,0,0,0,0,-1,1658,1688,4.18005,-9.95259
441,-664,3.85999,9.88208,0,0,0,0,0,0,0,-1,1665,1688,3.86004,-9.88207
448,-664,4.55505,8.50757,0,0,0,0,0,0,0,-1,1672,1688,4.55511,-8.50754
455,-664,4.48462,8.32068,0,0,0,0,0,0,0,-1,1679,1688,4.48466,-8.32074
462,-664,4.3147,4.25439,0,0,0,0,0,0,0,-1,1686,1688,4.31467,-4.25435
469,-664,6.05469,7.49341,0,0,0,0,0,0,0,-1,1693,1688,6.05474,-7.49339
476,-664,8.37146,3.42969,0,0,0,0,0,0,0,-1,1700,1688,8.37144,-3.42966
483,-664,7.21826,3.87097,0,0,0,0,0,0,0,-1,1707,1688,7.21825,-3.871
490,-664,6.6311,5.62817,0,0,0,0,0,0,0,-1,1714,1688,6.63107,-5.62821
497,-664,0,0,0,0,0,0,0,0,0,-1,1721,1688,0,0
504,-664,0,0,0,0,0,0,0,0,0,-1,1728,1688,0,0
511,-664,0,0,0,0,0,0,0,0,0,-1,1735,1688,0,0
518,-664,0,0,0,0,0,0,0,0,0,-1,1742,1688,0,0
525,-664,0,0,0,0,0,0,0,0,0,-1,1749,1688,0,0
532,-664,0,0,0,0,0,0,0,0,0,-1,1756,1688,0,0
539,-664,0,0,0,0,0,0,0,0,0,-1,1763,1688,0,0
546,-664,0,0,0,0,0,0,0,0,0,-1,1770,1688,0,0
553,-664,0,0,0,0,0,0,0,0,0,-1,1777,1688,0,0
560,-664,0,0,0,0,0,0,0,0,0,-1,1784,1688,0,0
567,-664,0,0,0,0,0,0,0,0,0,-1,1791,1688,0,0
574,-664,0,0,0,0,0,0,0,0,0,-1,1798,1688,0,0
581,-664,0,0,0,0,0,0,0,0,0,-1,1805,1688,0,0
588,-664,0,0,0,0,0,0,0,0,0,-1,1812,1688,0,0
595,-664,0,0,0,0,0,0,0,0,0,-1,1819,1688,0,0
602,-664,0,0,0,0,0,0,0,0,0,-1,1826,1688,0,0
609,-664,0,0,0,0,0,0,0,0,0,-1,1833,1688,0,0
616,-664,0,0,0,0,0,0,0,0,0,-1,1840,1688,0,0
623,-664,0,0,0,0,0,0,0,0,0,-1,1847,1688,0,0
630,-664,0,0,0,0,0,0,0,0,0,-1,1854,1688,0,0
637,-664,0,0,0,0,0,0,0,0,0,-1,1861,1688,0,0
644,-664,0,0,0,0,0,0,0,0,0,-1,1868,1688,0,0
651,-664,0,0,0,0,0,0,0,0,0,-1,1875,1688,0,0
658,-664,0,0,0,0,0,0,0,0,0,-1,1882,1688,0,0
665,-664,0,0,0,0,0,0,0,0,0,-1,1889,1688,0,0
672,-664,0,0,0,0,0,0,0,0,0,-1,1896,1688,0,0
679,-664,0,0,0,0,0,0,0,0,0,-1,1903,1688,0,0
686,-664,0,0,0,0,0,0,0,0,0,-1,1910,1688,0,0
693,-664,0,0,0,0,0,0,0,0,0,-1,1917,1688,0,0
700,-664,0,0,0,0,0,0,0,0,0,-1,1924,1688,0,0
707,-664,0,0,0,0,0,0,0,0,0,-1,1931,1688,0,0
714,-664,0,0,0,0,0,0,0,0,0,-1,1938,1688,0,0
721,-664,0,0,0,0,0,0,0,0,0,-1,1945,1688,0,0
728,-664,0,0,0,0,0,0,0,0,0,-1,1952,1688,0,0
735,-664,0,0,0,0,0,0,0,0,0,-1,1959,1688,0,0
742,-664,0,0,0,0,0,0,0,0,0,-1,1966,1688,0,0
749,-664,0,0,0,0,0,0,0,0,0,-1,1973,1688,0,0
756,-664,0,0,0,0,0,0,0,0,0,-1,1980,1688,0,0
763,-664,0,0,0,0,0,0,0,0,0,-1,1987,1688,0,0
770,-664,0,0,0,0,0,0,0,0,0,-1,1994,1688,0,0
777,-664,0,0,0,0,0,0,0,0,0,-1,2001,1688,0,0
784,-664,0,0,0,0,0,0,0,0,0,-1,2008,1688,0,0
791,-664,0,0,0,0,0,0,0,0,0,-1,2015,1688,0,0
798,-664,0,0,0,0,0,0,0,0,0,-1,2022,1688,0,0
805,-664,0,0,0,0,0,0,0,0,0,-1,2029,1688,0,0
812,-664,0,0,0,0,0,0,0,0,0,-1,2036,1688,0,0
-700,-671,0,0,0,0,0,0,0,0,0,-1,524,1695,0,0
-693,-671,0,0,0,0,0,0,0,0,0,-1,531,1695,0,0
-686,-671,0,0,0,0,0,0,0,0,0,-1,538,1695,0,0
-679,-671,0,0,0,0,0,0,0,0,0,-1,545,1695,0,0
-672,-671,0,0,0,0,0,0,0,0,0,-1,552,1695,0,0
-665,-671,0,0,0,0,0,0,0,0,0,-1,559,1695,0,0
-658,-671,0,0,0,0,0,0,0,0,0,-1,566,1695,0,0
-651,-671,0,0,0,0,0,0,0,0,0,-1,573,1695,0,0
-644,-671,0,0,0,0,0,0,0,0,0,-1,580,1695,0,0
-637,-671,0,0,0,0,0,0,0,0,0,-1,587,1695,0,0
-630,-671,0,0,0,0,0,0,0,0,0,-1,594,1695,0,0
-623,-671,0,0,0,0,0,0,0,0,0,-1,601,1695,0,0
-616,-671,0,0,0,0,0,0,0,0,0,-1,608,1695,0,0
-609,-671,0,0,0,0,0,0,0,0,0,-1,615,1695,0,0
-602,-671,0,0,0,0,0,0,0,0,0,-1,622,1695,0,0
-595,-671,0,0,0,0,0,0,0,0,0,-1,629,1695,0,0
-588,-671,0,0,0,0,0,0,0,0,0,-1,636,1695,0,0
-581,-671,0,0,0,0,0,0,0,0,0,-1,643,1695,0,0
-574,-671,0,0,0,0,0,0,0,0,0,-1,650,1695,0,0
-567,-671,0,0,0,0,0,0,0,0,0,-1,657,1695,0,0
-560,-671,0,0,0,0,0,0,0,0,0,-1,664,1695,0,0
-553,-671,0,0,0,0,0,0,0,0,0,-1,671,1695,0,0
-546,-671,0,0,0,0,0,0,0,0,0,-1,678,1695,0,0
-539,-671,0,0,0,0,0,0,0,0,0,-1,685,1695,0,0
-532,-671,0,0,0,0,0,0,0,0,0,-1,692,1695,0,0
-525,-671,0,0,0,0,0,0,0,0,0,-1,699,1695,0,0
-518,-671,0,0,0,0,0,0,0,0,0,-1,706,1695,0,0
-511,-671,0,0,0,0,0,0,0,0,0,-1,713,1695,0,0
-504,-671,0,0,0,0,0,0,0,0,0,-1,720,1695,0,0
-497,-671,0,0,0,0,0,0,0,0,0,-1,727,1695,0,0
-490,-671,0,0,0,0,0,0,0,0,0,-1,734,1695,0,0
-483,-671,0,0,0,0,0,0,0,0,0,-1,741,1695,0,0
-476,-671,0,0,0,0,0,0,0,0,0,-1,748,1695,0,0
-469,-671,0,0,0,0,0,0,0,0,0,-1,755,1695,0,0
-462,-671,0,0,0,0,0,0,0,0,0,-1,762,1695,0,0
-455,-671,0,0,0,0,0,0,0,0,0,-1,769,1695,0,0
-448,-671,0,0,0,0,0,0,0,0,0,-1,776,1695,0,0
-441,-671,0,0,0,0,0,0,0,0,0,-1,783,1695,0,0
-434,-671,0,0,0,0,0,0,0,0,0,-1,790,1695,0,0
-427,-671,0,0,0,0,0,0,0,0,0,-1,797,1695,0,0
-420,-671,0,0,0,0,0,0,0,0,0,-1,804,1695,0,0
-413,-671,0,0,0,0,0,0,0,0,0,-1,811,1695,0,0
-406,-671,0,0,0,0,0,0,0,0,0,-1,818,1695,0,0
-399,-671,0,0,0,0,0,0,0,0,0,-1,825,1695,0,0
-392,-671,0,0,0,0,0,0,0,0,0,-1,832,1695,0,0
-385,-671,0,0,0,0,0,0,0,0,0,-1,839,1695,0,0
-378,-671,0,0,0,0,0,0,0,0,0,-1,846,1695,0,0
-371,-671,0,0,0,0,0,0,0,0,0,-1,853,1695,0,0
-364,-671,-3.11877,5.00476,0,0,0,0,0,0,0,-1,860,1695,-3.11877,-5.00472
-357,-671,-4.34961,3.50598,0,0,0,0,0,0,0,-1,867,1695,-4.34958,-3.50602
-350,-671,-5.52405,2.1637,0,0,0,0,0,0,0,-1,874,1695,-5.52408,-2.16372
-343,-671,-7.383,2.349,0,0,0,0,0,0,0,-1,881,1695,-7.38297,-2.34903
-336,-671,2.39154,8.02747,0,0,0,0,0,0,0,-1,888,1695,2.39154,-8.02743
-329,-671,2.19629,8.14734,0,0,0,0,0,0,0,-1,895,1695,2.19627,-8.14733
-322,-671,2.40674,7.72949,0,0,0,0,0,0,0,-1,902,1695,2.40676,-7.72949
-315,-671,3.3493,8.4115,0,0,0,0,0,0,0,-1,909,1695,3.34933,-8.41154
-308,-671,3.3938,8.67004,0,0,0,0,0,0,0,-1,916,1695,3.39377,-8.67002
-301,-671,3.59875,9.11694,0,0,0,0,0,0,0,-1,923,1695,3.59878,-9.1169
-294,-671,4.15283,9.33154,0.0201603,-0.0105699,-0.0327028,0.0409278,-0.0313374,-0.565783,0.0418446,0.0454232,930,1695,4.15285,-9.33154
-287,-671,3.36017,9.37329,0.0174709,-0.00474238,-0.0295332,0.0379169,-0.0251883,-0.605542,0.03668,0.0447174,937,1695,3.3602,-9.37324
-280,-671,3.30072,9.46985,0.0150872,0.000641491,-0.0243622,0.0332747,-0.017546,-0.641287,0.0298061,0.0374237,944,1695,3.30074,-9.46985
-273,-671,3.36401,9.54602,0.0132185,0.00429931,-0.0198434,0.0290973,-0.0115795,-0.674865,0.0241998,0.0327655,951,1695,3.36402,-9.54606
-266,-671,3.41687,9.68384,0.0113261,0.00665037,-0.0150247,0.0241937,-0.00621727,-0.708216,0.0185522,0.0230492,958,1695,3.41688,-9.6838
-259,-671,3.35376,9.81372,0.00890822,0.00947423,-0.00924699,0.0184425,-6.00889e-05,-0.800696,0.0123151,0.0204419,965,1695,3.35375,-9.81372
-252,-671,3.34241,9.9364,0.00708942,0.0107984,-0.00434665,0.0136696,0.00421818,-0.98703,0.00808265,0.0166998,972,1695,3.34241,-9.93634
-245,-671,3.35925,10.0735,0.00613978,0.0100856,-0.00104523,0.0103454,0.00588,-1.3272,0.00599151,0.0195248,979,1695,3.35924,-10.0735
-238,-671,3.37158,10.2186,0.00587905,0.00853307,0.000944644,0.00883496,0.00557717,1.26148,0.00515912,0.0202402,986,1695,3.37155,-10.2186
-231,-671,3.33649,10.3638,0.00486095,0.00728125,0.0024912,0.00884067,0.00330152,1.0115,0.00515837,0.0159472,993,1695,3.33648,-10.3637
-224,-671,3.32758,10.4867,0.00407324,0.0053863,0.00313693,0.00793467,0.00152487,0.888555,0.00486186,0.0124103,1000,1695,3.32756,-10.4867
-217,-671,3.36169,10.601,0.00333814,0.00306859,0.0034175,0.00662352,-0.000216789,0.76569,0.00448969,0.012316,1007,1695,3.36172,-10.601
-210,-671,3.35437,10.7396,0.00272658,0.00235906,0.00271898,0.005268,-0.000182359,0.751657,0.00357434,0.0115499,1014,1695,3.35437,-10.7396
-203,-671,3.36096,10.8887,0.00194458,0.0015275,0.00197724,0.00372424,-0.000252168,0.732857,0.00257101,0.0180176,1021,1695,3.36099,-10.8887
-196,-671,3.37939,11.0006,0.00102963,0.000712237,0.00121419,0.00209545,-0.000353581,0.720415,0.00152852,0.0158389,1028,1695,3.37935,-11.0006
-189,-671,3.36255,11.0995,0.000218305,-0.000157703,0.000462292,0.00052936,-0.000468757,0.592273,0.000576617,0.0129855,1035,1695,3.36258,-11.0994
-182,-671,3.35254,11.2067,-0.000408845,-0.000901755,-0.000119461,-0.000381419,-0.000929181,-0.225674,0.000539321,0.0104532,1042,1695,3.3526,-11.2066
-175,-671,3.35962,11.3003,-0.000864872,-0.00166176,-0.000658058,-0.000494032,-0.0020326,-0.513176,0.00122409,0.0125361,1049,1695,3.35961,-11.3003
-168,-671,3.37708,11.3855,-0.00129065,-0.00221318,-0.00100539,-0.000645763,-0.00285807,-0.570328,0.00173076,0.0138215,1056,1695,3.37711,-11.3855
-161,-671,3.37537,11.498,-0.00128649,-0.0027587,-0.00109011,-0.000707228,-0.00333796,-0.488434,0.00203103,0.00960809,1063,1695,3.37532,-11.4981
-154,-671,3.35889,11.6211,-0.000897337,-0.00328224,-0.00102187,-0.000519388,-0.00366019,-0.354257,0.00228674,0.00856063,1070,1695,3.35884,-11.6211
-147,-671,3.36426,11.7345,-0.000284732,-0.00392029,-0.000671601,-0.000164634,-0.00404039,-0.176953,0.00264043,0.00974682,1077,1695,3.36424,-11.7345
-140,-671,3.39111,11.8436,0.000323587,-0.00506756,-0.000209497,0.000331715,-0.00507569,-0.0387815,0.00349961,0.0100312,1084,1695,3.39108,-11.8436
-133,-671,3.3999,11.9324,0.00112785,-0.00697448,0.000269589,0.00113681,-0.00698344,0.033224,0.00507716,0.0118022,1091,1695,3.39995,-11.9324
-126,-671,3.40503,12.037,0.00196202,-0.00893148,0.000829033,0.00202475,-0.00899421,0.0755238,0.0067727,0.0150376,1098,1695,3.40505,-12.037
-119,-671,3.45422,12.093,0.00296237,-0.0111334,0.0015429,0.00312928,-0.0113003,0.107758,0.00876488,0.0264309,1105,1695,3.45428,-12.093
-112,-671,3.58069,12.1309,0.0038529,-0.0139822,0.00237958,0.00416493,-0.0142942,0.130383,0.0111795,0.0322269,1112,1695,3.58074,-12.1309
-105,-671,3.76257,12.1227,0.00503678,-0.017009,0.00355246,0.00559508,-0.0175673,0.155885,0.0139556,0.0385321,1119,1695,3.76257,-12.1226
-98,-671,3.74573,12.0988,0.00582341,-0.0205977,0.00450749,0.00657124,-0.0213455,0.164409,0.0168533,0.0380971,1126,1695,3.74579,-12.0988
-91,-671,3.64404,12.0078,0.00637013,-0.0245237,0.00527859,0.00724714,-0.0254007,0.164642,0.0197967,0.0384314,1133,1695,3.64408,-12.0078
-84,-671,3.80786,11.8838,0.00537809,-0.0275624,0.00557256,0.00629527,-0.0284796,0.163125,0.0213958,0.0436917,1140,1695,3.80785,-11.8838
-77,-671,4.20532,11.8397,0,0,0,0,0,0,0,-1,1147,1695,4.20536,-11.8398
-70,-671,3.06067,10.7737,0,0,0,0,0,0,0,-1,1154,1695,3.0607,-10.7737
-63,-671,2.94592,6.90198,0,0,0,0,0,0,0,-1,1161,1695,2.94594,-6.90198
-56,-671,-3.07678,2.87976,0,0,0,0,0,0,0,-1,1168,1695,-3.07675,-2.87979
-49,-671,-1.05957,4.76917,0,0,0,0,0,0,0,-1,1175,1695,-1.05958,-4.76921
-42,-671,0.539307,3.7865,0,0,0,0,0,0,0,-1,1182,1695,0.539266,-3.78648
-35,-671,-0.272461,0.347534,0,0,0,0,0,0,0,-1,1189,1695,-0.272434,-0.347569
-28,-671,-0.662964,5.40405,0,0,0,0,0,0,0,-1,1196,1695,-0.662966,-5.40405
-21,-671,3.89514,12.5211,0,0,0,0,0,0,0,-1,1203,1695,3.89519,-12.5211
-14,-671,3.65869,12.807,0,0,0,0,0,0,0,-1,1210,1695,3.65871,-12.807
-7,-671,3.23315,12.8658,0.000287219,0.0018661,0.00620259,0.00732929,-0.00517597,0.848696,0.0072555,0.0459566,1217,1695,3.23312,-12.8659
0,-671,3.84424,13.5306,-0.00117603,-5.9413e-05,0.00412058,0.00354051,-0.00477595,0.852735,0.00481914,0.04658,1224,1695,3.84427,-13.5306
7,-671,4.14233,12.248,0,0,0,0,0,0,0,-1,1231,1695,4.14229,-12.248
14,-671,4.49231,13.0042,-0.00448556,-0.00428657,-0.00104161,-0.00333971,-0.00543242,-0.833014,0.00316384,0.0448068,1238,1695,4.49225,-13.0041
21,-671,4.39636,12.7888,-0.00645596,-0.00647691,-0.00372885,-0.00273757,-0.0101953,-0.783993,0.00609291,0.0433115,1245,1695,4.3963,-12.7888
28,-671,4.13879,12.6671,-0.00829443,-0.00871618,-0.00632743,-0.00217437,-0.0148362,-0.768741,0.00925161,0.0476076,1252,1695,4.13882,-12.6672
35,-671,4.11768,12.6428,0,0,0,0,0,0,0,-1,1259,1695,4.11771,-12.6428
42,-671,3.89026,13.6256,-0.0127713,-0.0125822,-0.010778,-0.00189829,-0.0234551,-0.789783,0.015044,0.0467159,1266,1695,3.89032,-13.6256
49,-671,4.34399,14.118,-0.015115,-0.0146316,-0.0126834,-0.00218757,-0.027559,-0.794926,0.0176886,0.0442034,1273,1695,4.34397,-14.118
56,-671,4.93335,14.6293,0,0,0,0,0,0,0,-1,1280,1695,4.93339,-14.6293
63,-671,3.51892,12.0721,0,0,0,0,0,0,0,-1,1287,1695,3.51896,-12.0721
70,-671,3.09973,12.3562,-0.0158442,-0.018144,-0.0133605,-0.00358423,-0.030404,-0.742471,0.0191865,0.0475994,1294,1695,3.09978,-12.3562
77,-671,3.1405,12.7064,-0.0133678,-0.0182109,-0.0129262,-0.00263826,-0.0289405,-0.692804,0.0184771,0.0462319,1301,1695,3.14046,-12.7064
84,-671,3.3844,12.8853,0,0,0,0,0,0,0,-1,1308,1695,3.38446,-12.8853
91,-671,3.15369,12.7698,-0.00317534,-0.0200164,-0.0129489,0.00385012,-0.0270419,-0.497108,0.0194388,0.0467158,1315,1695,3.15365,-12.7698
98,-671,3.00989,12.208,0.00204717,-0.0212087,-0.011835,0.00701067,-0.0261722,-0.397111,0.0201948,0.04691,1322,1695,3.00983,-12.208
105,-671,3.33179,12.5723,0.00851639,-0.0214797,-0.010887,0.0120513,-0.0250146,-0.313948,0.0218319,0.0447281,1329,1695,3.33181,-12.5722
112,-671,3.63306,12.9379,0.0161635,-0.0231368,-0.0111393,0.0191012,-0.0260746,-0.257855,0.0261856,0.0419688,1336,1695,3.63304,-12.9379
119,-671,3.43774,13.4906,0.02395,-0.0242516,-0.0118862,0.0267217,-0.0270233,-0.229091,0.0310298,0.0438966,1343,1695,3.43776,-13.4906
126,-671,4.21045,13.9211,0,0,0,0,0,0,0,-1,1350,1695,4.2105,-13.9211
133,-671,5.65076,13.3649,0.0352065,-0.0289037,-0.0129051,0.0377067,-0.031404,-0.191369,0.0399563,0.0490448,1357,1695,5.6507,-13.3649
140,-671,6.91113,13.4327,0.0372932,-0.0321019,-0.0131921,0.0397165,-0.0345252,-0.181662,0.0428983,0.0480242,1364,1695,6.91112,-13.4327
147,-671,8.14258,13.4814,0,0,0,0,0,0,0,-1,1371,1695,8.14263,-13.4814
154,-671,9.29944,13.5367,0,0,0,0,0,0,0,-1,1378,1695,9.29938,-13.5367
161,-671,4.49292,4.91272,0,0,0,0,0,0,0,-1,1385,1695,4.49297,-4.91273
168,-671,5.17639,6.1416,0,0,0,0,0,0,0,-1,1392,1695,5.1764,-6.14164
175,-671,5.6731,1.64685,0,0,0,0,0,0,0,-1,1399,1695,5.67313,-1.64691
182,-671,5.56812,1.71692,0,0,0,0,0,0,0,-1,1406,1695,5.56809,-1.71686
189,-671,6.98315,6.36169,0,0,0,0,0,0,0,-1,1413,1695,6.98312,-6.36175
196,-671,5.38123,5.69775,0,0,0,0,0,0,0,-1,1420,1695,5.38125,-5.69769
203,-671,5.95117,8.11658,0,0,0,0,0,0,0,-1,1427,1695,5.9512,-8.11662
210,-671,4.73596,8.39624,0,0,0,0,0,0,0,-1,1434,1695,4.736,-8.39618
217,-671,5.37097,11.863,0,0,0,0,0,0,0,-1,1441,1695,5.37094,-11.863
224,-671,4.92004,12.2202,0,0,0,0,0,0,0,-1,1448,1695,4.92001,-12.2202
231,-671,4.74243,12.1617,0,0,0,0,0,0,0,-1,1455,1695,4.74248,-12.1617
238,-671,5.11633,11.4192,0,0,0,0,0,0,0,-1,1462,1695,5.11633,-11.4192
245,-671,4.66858,11.2205,0,0,0,0,0,0,0,-1,1469,1695,4.66855,-11.2205
252,-671,4.60413,12.2659,0,0,0,0,0,0,0,-1,1476,1695,4.60412,-12.2659
259,-671,4.60425,12.4575,0,0,0,0,0,0,0,-1,1483,1695,4.60423,-12.4575
266,-671,4.62842,12.3887,0.000592806,-0.00466138,0.00142338,0.000953628,-0.0050222,0.248266,0.00370712,0.0166193,1490,1695,4.62836,-12.3887
273,-671,4.60901,12.3425,0.000835095,-0.00403269,0.00106458,0.00105773,-0.00425533,0.206162,0.0032474,0.00916281,1497,1695,4.60896,-12.3426
280,-671,4.59839,12.2739,0.00106834,-0.00305275,0.000629936,0.00116248,-0.00314689,0.148345,0.00257444,0.00939825,1504,1695,4.59839,-12.2739
287,-671,4.6106,12.158,0.00119005,-0.00251774,0.000424829,0.00123811,-0.00256579,0.112633,0.00224033,0.0116599,1511,1695,4.61065,-12.158
294,-671,4.60828,12.0568,0.00125572,-0.00211777,0.000416723,0.00130643,-0.00216849,0.121104,0.00202672,0.0110316,1518,1695,4.6083,-12.0568
301,-671,4.62549,11.9799,0.0012518,-0.00164532,0.000408536,0.0013083,-0.00170183,0.137445,0.00174284,0.00920993,1525,1695,4.62545,-11.9798
308,-671,4.65381,11.9114,0.00124173,-0.00130928,0.000374004,0.00129543,-0.00136298,0.142613,0.001535,0.0101981,1532,1695,4.65379,-11.9114
315,-671,4.68323,11.827,0.00124502,-0.00108153,0.000335663,0.00129248,-0.00112899,0.14046,0.0013991,0.0125116,1539,1695,4.68319,-11.827
322,-671,4.68176,11.7357,0.00127188,-0.00084355,0.000236122,0.00129792,-0.000869586,0.109818,0.00125953,0.0152135,1546,1695,4.68173,-11.7357
329,-671,4.63391,11.6598,0.00139737,-0.000645477,1.81091e-05,0.00139753,-0.000645637,0.00886368,0.00120596,0.0144229,1553,1695,4.63391,-11.6598
336,-671,4.64478,11.5388,0.00146029,-0.000308885,0.000354335,0.00152861,-0.000377213,0.190497,0.00116534,0.011385,1560,1695,4.64483,-11.5389
343,-671,4.66309,11.4208,0.0015676,9.93793e-05,0.000977161,0.00205569,-0.000388705,0.463242,0.00151672,0.010079,1567,1695,4.66313,-11.4208
350,-671,4.66199,11.3158,0.00172413,0.000413712,0.00146184,0.00267088,-0.000533038,0.574716,0.0019823,0.0103302,1574,1695,4.66197,-11.3158
357,-671,4.64282,11.1959,0.00190642,0.000797734,0.00216084,0.00358289,-0.00087873,0.659835,0.00272907,0.0107891,1581,1695,4.64285,-11.1959
364,-671,4.63501,11.0861,0.00200316,0.00115324,0.00310295,0.00471012,-0.00155372,0.717346,0.00376637,0.0130538,1588,1695,4.63502,-11.0861
371,-671,4.62354,10.9938,0.0020238,0.0016033,0.00426075,0.00607948,-0.00245239,0.760745,0.00507208,0.0141229,1595,1695,4.62356,-10.9938
378,-671,4.64197,10.8615,0.00186198,0.00218635,0.00572005,0.00774651,-0.00369819,0.799571,0.00674399,0.0115337,1602,1695,4.64201,-10.8614
385,-671,4.64355,10.723,0.00172388,0.00272744,0.00733618,0.00957899,-0.00512766,0.819544,0.00861956,0.013654,1609,1695,4.64359,-10.7231
392,-671,4.62927,10.6399,0.00138301,0.0036233,0.00881541,0.0113894,-0.00638313,0.848593,0.0103958,0.0186904,1616,1695,4.62933,-10.6398
399,-671,4.63977,10.5225,0.000724748,0.0050645,0.0102298,0.013352,-0.00756277,0.889906,0.0122284,0.0142492,1623,1695,4.63983,-10.5225
406,-671,4.65967,10.3914,-0.000343725,0.00581409,0.0118942,0.0150214,-0.00955102,0.912048,0.0143036,0.0181319,1630,1695,4.65963,-10.3914
413,-671,4.65015,10.3666,-0.00161346,0.00613111,0.0132202,0.0160345,-0.0115168,0.927867,0.0159779,0.0276419,1637,1695,4.65019,-10.3665
420,-671,4.57556,10.1556,-0.0030108,0.00677258,0.0142351,0.016933,-0.0131712,0.950895,0.0174259,0.0451882,1644,1695,4.57558,-10.1556
427,-671,4.49072,9.85876,0,0,0,0,0,0,0,-1,1651,1695,4.49077,-9.85872
434,-671,3.67639,10.1588,0,0,0,0,0,0,0,-1,1658,1695,3.67633,-10.1588
441,-671,4.77332,10.0966,0,0,0,0,0,0,0,-1,1665,1695,4.77336,-10.0965
448,-671,4.66833,9.71436,0,0,0,0,0,0,0,-1,1672,1695,4.66828,-9.71433
455,-671,3.40137,9.28076,0,0,0,0,0,0,0,-1,1679,1695,3.40135,-9.28082
462,-671,5.86255,4.47961,0,0,0,0,0,0,0,-1,1686,1695,5.8625,-4.4796
469,-671,3.71301,3.76978,0,0,0,0,0,0,0,-1,1693,1695,3.71297,-3.76974
476,-671,3.75574,3.18848,0,0,0,0,0,0,0,-1,1700,1695,3.7558,-3.18847
483,-671,3.56714,2.76868,0,0,0,0,0,0,0,-1,1707,1695,3.56713,-2.7687
490,-671,0,0,0,0,0,0,0,0,0,-1,1714,1695,0,0
497,-671,0,0,0,0,0,0,0,0,0,-1,1721,1695,0,0
504,-671,0,0,0,0,0,0,0,0,0,-1,1728,1695,0,0
511,-671,0,0,0,0,0,0,0,0,0,-1,1735,1695,0,0
518,-671,0,0,0,0,0,0,0,0,0,-1,1742,1695,0,0
525,-671,0,0,0,0,0,0,0,0,0,-1,1749,1695,0,0
532,-671,0,0,0,0,0,0,0,0,0,-1,1756,1695,0,0
539,-671,0,0,0,0,0,0,0,0,0,-1,1763,1695,0,0
546,-671,0,0,0,0,0,0,0,0,0,-1,1770,1695,0,0
553,-671,0,0,0,0,0,0,0,0,0,-1,1777,1695,0,0
560,-671,0,0,0,0,0,0,0,0,0,-1,1784,1695,0,0
567,-671,0,0,0,0,0,0,0,0,0,-1,1791,1695,0,0
574,-671,0,0,0,0,0,0,0,0,0,-1,1798,1695,0,0
581,-671,0,0,0,0,0,0,0,0,0,-1,1805,1695,0,0
588,-671,0,0,0,0,0,0,0,0,0,-1,1812,1695,0,0
595,-671,0,0,0,0,0,0,0,0,0,-1,1819,1695,0,0
602,-671,0,0,0,0,0,0,0,0,0,-1,1826,1695,0,0
609,-671,0,0,0,0,0,0,0,0,0,-1,1833,1695,0,0
616,-671,0,0,0,0,0,0,0,0,0,-1,1840,1695,0,0
623,-671,0,0,0,0,0,0,0,0,0,-1,1847,1695,0,0
630,-671,0,0,0,0,0,0,0,0,0,-1,1854,1695,0,0
637,-671,0,0,0,0,0,0,0,0,0,-1,1861,1695,0,0
644,-671,0,0,0,0,0,0,0,0,0,-1,1868,1695,0,0
651,-671,0,0,0,0,0,0,0,0,0,-1,1875,1695,0,0
658,-671,0,0,0,0,0,0,0,0,0,-1,1882,1695,0,0
665,-671,0,0,0,0,0,0,0,0,0,-1,1889,1695,0,0
672,-671,0,0,0,0,0,0,0,0,0,-1,1896,1695,0,0
679,-671,0,0,0,0,0,0,0,0,0,-1,1903,1695,0,0
686,-671,0,0,0,0,0,0,0,0,0,-1,1910,1695,0,0
693,-671,0,0,0,0,0,0,0,0,0,-1,1917,1695,0,0
700,-671,0,0,0,0,0,0,0,0,0,-1,1924,1695,0,0
707,-671,0,0,0,0,0,0,0,0,0,-1,1931,1695,0,0
714,-671,0,0,0,0,0,0,0,0,0,-1,1938,1695,0,0
721,-671,0,0,0,0,0,0,0,0,0,-1,1945,1695,0,0
728,-671,0,0,0,0,0,0,0,0,0,-1,1952,1695,0,0
735,-671,0,0,0,0,0,0,0,0,0,-1,1959,1695,0,0
742,-671,0,0,0,0,0,0,0,0,0,-1,1966,1695,0,0
749,-671,0,0,0,0,0,0,0,0,0,-1,1973,1695,0,0
756,-671,0,0,0,0,0,0,0,0,0,-1,1980,1695,0,0
763,-671,0,0,0,0,0,0,0,0,0,-1,1987,1695,0,0
770,-671,0,0,0,0,0,0,0,0,0,-1,1994,1695,0,0
777,-671,0,0,0,0,0,0,0,0,0,-1,2001,1695,0,0
784,-671,0,0,0,0,0,0,0,0,0,-1,2008,1695,0,0
791,-671,0,0,0,0,0,0,0,0,0,-1,2015,1695,0,0
798,-671,0,0,0,0,0,0,0,0,0,-1,2022,1695,0,0
805,-671,0,0,0,0,0,0,0,0,0,-1,2029,1695,0,0
812,-671,0,0,0,0,0,0,0,0,0,-1,2036,1695,0,0
-700,-678,0,0,0,0,0,0,0,0,0,-1,524,1702,0,0
-693,-678,0,0,0,0,0,0,0,0,0,-1,531,1702,0,0
-686,-678,0,0,0,0,0,0,0,0,0,-1,538,1702,0,0
-679,-678,0,0,0,0,0,0,0,0,0,-1,545,1702,0,0
-672,-678,0,0,0,0,0,0,0,0,0,-1,552,1702,0,0
-665,-678,0,0,0,0,0,0,0,0,0,-1,559,1702,0,0
-658,-678,0,0,0,0,0,0,0,0,0,-1,566,1702,0,0
-651,-678,0,0,0,0,0,0,0,0,0,-1,573,1702,0,0
-644,-678,0,0,0,0,0,0,0,0,0,-1,580,1702,0,0
-637,-678,0,0,0,0,0,0,0,0,0,-1,587,1702,0,0
-630,-678,0,0,0,0,0,0,0,0,0,-1,594,1702,0,0
-623,-678,0,0,0,0,0,0,0,0,0,-1,601,1702,0,0
-616,-678,0,0,0,0,0,0,0,0,0,-1,608,1702,0,0
-609,-678,0,0,0,0,0,0,0,0,0,-1,615,1702,0,0
-602,-678,0,0,0,0,0,0,0,0,0,-1,622,1702,0,0
-595,-678,0,0,0,0,0,0,0,0,0,-1,629,1702,0,0
-588,-678,0,0,0,0,0,0,0,0,0,-1,636,1702,0,0
-581,-678,0,0,0,0,0,0,0,0,0,-1,643,1702,0,0
-574,-678,0,0,0,0,0,0,0,0,0,-1,650,1702,0,0
-567,-678,0,0,0,0,0,0,0,0,0,-1,657,1702,0,0
-560,-678,0,0,0,0,0,0,0,0,0,-1,664,1702,0,0
-553,-678,0,0,0,0,0,0,0,0,0,-1,671,1702,0,0
-546,-678,0,0,0,0,0,0,0,0,0,-1,678,1702,0,0
-539,-678,0,0,0,0,0,0,0,0,0,-1,685,1702,0,0
-532,-678,0,0,0,0,0,0,0,0,0,-1,692,1702,0,0
-525,-678,0,0,0,0,0,0,0,0,0,-1,699,1702,0,0
-518,-678,0,0,0,0,0,0,0,0,0,-1,706,1702,0,0
-511,-678,0,0,0,0,0,0,0,0,0,-1,713,1702,0,0
-504,-678,0,0,0,0,0,0,0,0,0,-1,720,1702,0,0
-497,-678,0,0,0,0,0,0,0,0,0,-1,727,1702,0,0
-490,-678,0,0,0,0,0,0,0,0,0,-1,734,1702,0,0
-483,-678,0,0,0,0,0,0,0,0,0,-1,741,1702,0,0
-476,-678,0,0,0,0,0,0,0,0,0,-1,748,1702,0,0
-469,-678,0,0,0,0,0,0,0,0,0,-1,755,1702,0,0
-462,-678,0,0,0,0,0,0,0,0,0,-1,762,1702,0,0
-455,-678,0,0,0,0,0,0,0,0,0,-1,769,1702,0,0
-448,-678,0,0,0,0,0,0,0,0,0,-1,776,1702,0,0
-441,-678,0,0,0,0,0,0,0,0,0,-1,783,1702,0,0
-434,-678,0,0,0,0,0,0,0,0,0,-1,790,1702,0,0
-427,-678,0,0,0,0,0,0,0,0,0,-1,797,1702,0,0
-420,-678,0,0,0,0,0,0,0,0,0,-1,804,1702,0,0
-413,-678,0,0,0,0,0,0,0,0,0,-1,811,1702,0,0
-406,-678,0,0,0,0,0,0,0,0,0,-1,818,1702,0,0
-399,-678,0,0,0,0,0,0,0,0,0,-1,825,1702,0,0
-392,-678,0,0,0,0,0,0,0,0,0,-1,832,1702,0,0
-385,-678,0,0,0,0,0,0,0,0,0,-1,839,1702,0,0
-378,-678,0,0,0,0,0,0,0,0,0,-1,846,1702,0,0
-371,-678,0,0,0,0,0,0,0,0,0,-1,853,1702,0,0
-364,-678,0,0,0,0,0,0,0,0,0,-1,860,1702,0,0
-357,-678,0,0,0,0,0,0,0,0,0,-1,867,1702,0,0
-350,-678,-6.99811,5.05383,0,0,0,0,0,0,0,-1,874,1702,-6.99808,-5.05378
-343,-678,1.27344,8.80457,0,0,0,0,0,0,0,-1,881,1702,1.27345,-8.80458
-336,-678,1.24762,8.81262,0,0,0,0,0,0,0,-1,888,1702,1.2476,-8.81265
-329,-678,1.36005,8.80713,0,0,0,0,0,0,0,-1,895,1702,1.36006,-8.80715
-322,-678,1.33295,8.7417,0,0,0,0,0,0,0,-1,902,1702,1.33295,-8.74176
-315,-678,3.76923,12.7454,0,0,0,0,0,0,0,-1,909,1702,3.76925,-12.7453
-308,-678,3.05743,8.60925,0,0,0,0,0,0,0,-1,916,1702,3.05743,-8.6092
-301,-678,3.17139,8.68445,0,0,0,0,0,0,0,-1,923,1702,3.17139,-8.68441
-294,-678,3.55573,9.35779,0,0,0,0,0,0,0,-1,930,1702,3.55574,-9.35782
-287,-678,3.48083,9.41943,0.0261282,-0.00954456,-0.0439236,0.0556988,-0.0391152,-0.592531,0.0550193,0.0484467,937,1702,3.48081,-9.41941
-280,-678,3.40643,9.48169,0.022943,-0.00164521,-0.0359427,0.048636,-0.0273383,-0.620612,0.0444346,0.0488278,944,1702,3.40641,-9.48175
-273,-678,3.45508,9.70825,0.0202148,0.00401022,-0.028594,0.0418323,-0.0176073,-0.647339,0.0352547,0.0449253,951,1702,3.45508,-9.70827
-266,-678,3.45624,9.73901,0.0173859,0.00787785,-0.0211923,0.0343508,-0.00908707,-0.675061,0.026455,0.0345492,958,1702,3.45627,-9.73899
-259,-678,3.48114,9.79407,0.0138393,0.0124098,-0.0128573,0.0260017,0.000247461,-0.757632,0.0172526,0.0205792,965,1702,3.48116,-9.79407
-252,-678,3.47009,9.91382,0.0109845,0.0148635,-0.00572579,0.0189694,0.00687864,-0.948699,0.0110889,0.0186957,972,1702,3.47007,-9.91387
-245,-678,3.50494,10.0492,0.00937476,0.0143084,-0.000841644,0.014448,0.00923513,-1.4064,0.00844863,0.0192373,979,1702,3.50493,-10.0492
-238,-678,3.5069,10.2003,0.00876993,0.0123131,0.00188694,0.0131297,0.00795325,1.16233,0.00763676,0.0154236,986,1702,3.50688,-10.2004
-231,-678,3.45026,10.3685,0.00718552,0.0108136,0.00401361,0.013404,0.00459503,0.997642,0.00786527,0.0127649,993,1702,3.45028,-10.3686
-224,-678,3.43463,10.48,0.00615782,0.00838922,0.00478026,0.0121823,0.00236479,0.900045,0.00745926,0.0131794,1000,1702,3.43462,-10.48
-217,-678,3.46521,10.5929,0.00523019,0.00544334,0.00506389,0.0104018,0.000271754,0.79592,0.00684573,0.0142681,1007,1702,3.46524,-10.5929
-210,-678,3.46765,10.7523,0.00459131,0.00457889,0.00415139,0.00873649,0.000433709,0.784651,0.00568527,0.014854,1014,1702,3.46764,-10.7523
-203,-678,3.45557,10.8676,0.00376698,0.00356936,0.00321761,0.00688729,0.00044904,0.770048,0.00444941,0.0178237,1021,1702,3.45552,-10.8675
-196,-678,3.45325,10.983,0.00285168,0.00255146,0.00228976,0.00499625,0.000406893,0.752667,0.00320383,0.0177771,1028,1702,3.45327,-10.983
-189,-678,3.46167,11.0894,0.00202202,0.00150418,0.00139311,0.00318007,0.000346133,0.693518,0.00201461,0.0112191,1035,1702,3.46169,-11.0894
-182,-678,3.47949,11.2087,0.00136912,0.000613144,0.000685063,0.00177355,0.000208708,0.533303,0.0011193,0.0103924,1042,1702,3.47948,-11.2087
-175,-678,3.47693,11.3212,0.000812222,-0.000362453,-3.55843e-05,0.000813299,-0.00036353,-0.0302559,0.000695786,0.0109258,1049,1702,3.47692,-11.3212
-168,-678,3.48083,11.4266,0.000382385,-0.00100401,-0.00042603,0.000502836,-0.00112446,-0.275538,0.000962099,0.0104203,1056,1702,3.48085,-11.4266
-161,-678,3.47778,11.5259,0.000370823,-0.00162878,-0.000517006,0.000496587,-0.00175454,-0.23862,0.00136566,0.00878854,1063,1702,3.47773,-11.5258
-154,-678,3.46338,11.6332,0.000701045,-0.00218643,-0.000466202,0.00077445,-0.00225983,-0.156172,0.00182047,0.00809866,1070,1702,3.46335,-11.6331
-147,-678,3.46228,11.7316,0.0011667,-0.00278751,-0.000229696,0.00118,-0.00280081,-0.0578297,0.00236097,0.010039,1077,1702,3.46222,-11.7316
-140,-678,3.47644,11.8336,0.00170368,-0.00378586,0.000125033,0.00170652,-0.0037887,0.0227609,0.0032477,0.0110544,1084,1702,3.47645,-11.8336
-133,-678,3.49475,11.9235,0.00236076,-0.00537457,0.000489865,0.00239166,-0.00540547,0.0629928,0.00461241,0.0123616,1091,1702,3.49478,-11.9235
-126,-678,3.50549,12.0303,0.00298782,-0.00695375,0.000922766,0.00307275,-0.00703868,0.0917742,0.00598564,0.00980372,1098,1702,3.50554,-12.0302
-119,-678,3.52893,12.1592,0.00366378,-0.00863156,0.00144617,0.00383159,-0.00879937,0.115519,0.00747813,0.0175118,1105,1702,3.52888,-12.1592
-112,-678,3.58008,12.2263,0.00418553,-0.0107479,0.00203438,0.00445771,-0.0110201,0.133001,0.00919995,0.0241101,1112,1702,3.58012,-12.2264
-105,-678,3.62256,12.2756,0.00466483,-0.0128755,0.00277364,0.00509297,-0.0133037,0.153152,0.0109683,0.0254541,1119,1702,3.62254,-12.2757
-98,-678,3.58154,12.2601,0.00480056,-0.0152993,0.00340483,0.00536166,-0.0158604,0.163327,0.0127426,0.0188873,1126,1702,3.58155,-12.2602
-91,-678,3.59534,12.3225,0.00474525,-0.0176316,0.00395952,0.00542522,-0.0183116,0.17007,0.0143618,0.0183815,1133,1702,3.59532,-12.3225
-84,-678,3.66956,12.2925,0.00418037,-0.0194311,0.00418384,0.0048998,-0.0201505,0.170291,0.0153302,0.0277924,1140,1702,3.66951,-12.2924
-77,-678,3.68347,12.3986,0.00350907,-0.0204785,0.00392405,0.00413468,-0.0211041,0.158099,0.015631,0.036103,1147,1702,3.68352,-12.3986
-70,-678,3.65027,12.7894,0,0,0,0,0,0,0,-1,1154,1702,3.65022,-12.7894
-63,-678,3.41687,11.0365,0,0,0,0,0,0,0,-1,1161,1702,3.41682,-11.0365
-56,-678,1.72388,6.13159,0,0,0,0,0,0,0,-1,1168,1702,1.72388,-6.13157
-49,-678,-0.241699,5.29895,0,0,0,0,0,0,0,-1,1175,1702,-0.241682,-5.29897
-42,-678,0.297119,3.90649,0,0,0,0,0,0,0,-1,1182,1702,0.297139,-3.90655
-35,-678,0.498413,3.64038,0,0,0,0,0,0,0,-1,1189,1702,0.498471,-3.64038
-28,-678,0.132446,3.55994,0,0,0,0,0,0,0,-1,1196,1702,0.132432,-3.55993
-21,-678,3.73291,12.8756,0,0,0,0,0,0,0,-1,1203,1702,3.73296,-12.8757
-14,-678,3.76306,12.8658,0.00238934,0.00181391,0.00582466,0.00793339,-0.00373014,0.76072,0.00687815,0.0373905,1210,1702,3.76306,-12.8659
-7,-678,3.50342,12.8632,0.00138278,0.000338473,0.0044303,0.0053216,-0.00360034,0.726739,0.00518294,0.0408777,1217,1702,3.50338,-12.8632
0,-678,3.92798,13.1849,0.000387179,-0.00167532,0.00271254,0.00225789,-0.00354603,0.603747,0.00337829,0.0455918,1224,1702,3.92796,-13.1849
7,-678,4.05103,12.592,-0.000814461,-0.00326404,0.000964255,-0.000480438,-0.00359806,0.333469,0.00225568,0.0470994,1231,1702,4.05097,-12.5921
14,-678,3.65649,12.2432,-0.00223646,-0.0052721,-0.000810918,-0.00203342,-0.00547514,-0.245342,0.00319574,0.0454259,1238,1702,3.65645,-12.2432
21,-678,4.13586,12.8719,0,0,0,0,0,0,0,-1,1245,1702,4.13583,-12.872
28,-678,4.10315,12.8044,-0.00525283,-0.00918349,-0.00464494,-0.00217456,-0.0122618,-0.585263,0.00755471,0.0452983,1252,1702,4.10317,-12.8044
35,-678,4.10229,12.6981,-0.00699814,-0.0116467,-0.00626384,-0.00264126,-0.0160036,-0.60774,0.00990672,0.046501,1259,1702,4.10233,-12.6982
42,-678,4.19653,13.1138,-0.00885761,-0.0123742,-0.00813424,-0.00229381,-0.018938,-0.678955,0.0119345,0.0484978,1266,1702,4.19654,-13.1137
49,-678,4.17468,13.2811,0,0,0,0,0,0,0,-1,1273,1702,4.1747,-13.2811
56,-678,4.06812,13.1682,0,0,0,0,0,0,0,-1,1280,1702,4.06811,-13.1682
63,-678,3.66626,12.5964,-0.0122666,-0.0158659,-0.0109445,-0.00297481,-0.0251577,-0.703911,0.0158734,0.0480022,1287,1702,3.66626,-12.5964
70,-678,3.50842,12.7153,-0.0114036,-0.0163994,-0.0108692,-0.00274903,-0.025054,-0.672451,0.0158659,0.0446974,1294,1702,3.50843,-12.7153
77,-678,3.49805,12.7328,-0.00963238,-0.0159003,-0.0104881,-0.00182004,-0.0237127,-0.640214,0.015238,0.0451776,1301,1702,3.49801,-12.7327
84,-678,3.55835,12.7444,0,0,0,0,0,0,0,-1,1308,1702,3.5583,-12.7444
91,-678,3.3429,12.455,-0.00143483,-0.0161069,-0.0104311,0.00398162,-0.0215233,-0.478936,0.0158437,0.0458317,1315,1702,3.34293,-12.4549
98,-678,3.07703,12.1196,0.00286147,-0.0164974,-0.00945543,0.00671336,-0.0203492,-0.386847,0.0162723,0.0434661,1322,1702,3.07698,-12.1196
105,-678,2.68286,11.7405,0.00821221,-0.0159628,-0.00845701,0.010877,-0.0186275,-0.305246,0.0172292,0.0423933,1329,1702,2.68287,-11.7404
112,-678,3.95679,13.0486,0.0145175,-0.0167338,-0.00834329,0.0166055,-0.0188217,-0.245218,0.0204672,0.043858,1336,1702,3.95681,-13.0486
119,-678,4.12573,13.3828,0.0208257,-0.0171318,-0.00862546,0.0226939,-0.0189999,-0.213287,0.0241034,0.0443395,1343,1702,4.12578,-13.3829
126,-678,4.32617,14.0789,0.0262633,-0.0182727,-0.00883047,0.0279503,-0.0199597,-0.188766,0.0277888,0.0465038,1350,1702,4.32622,-14.0789
133,-678,4.49084,14.6747,0,0,0,0,0,0,0,-1,1357,1702,4.49088,-14.6747
140,-678,7.63513,13.3994,0,0,0,0,0,0,0,-1,1364,1702,7.63519,-13.3994
147,-678,4.36731,13.0175,0,0,0,0,0,0,0,-1,1371,1702,4.36732,-13.0174
154,-678,5.15601,12.899,0,0,0,0,0,0,0,-1,1378,1702,5.15605,-12.899
161,-678,3.44202,4.53992,0,0,0,0,0,0,0,-1,1385,1702,3.442,-4.53996
168,-678,4.21863,5.25781,0,0,0,0,0,0,0,-1,1392,1702,4.21865,-5.25781
175,-678,5.21899,5.9635,0,0,0,0,0,0,0,-1,1399,1702,5.21894,-5.96346
182,-678,7.31262,6.75122,0,0,0,0,0,0,0,-1,1406,1702,7.3126,-6.75123
189,-678,5.96021,6.36853,0,0,0,0,0,0,0,-1,1413,1702,5.96018,-6.36851
196,-678,5.01599,8.15771,0,0,0,0,0,0,0,-1,1420,1702,5.01596,-8.15767
203,-678,4.64771,13.0559,0,0,0,0,0,0,0,-1,1427,1702,4.64766,-13.0559
210,-678,4.52527,13.1654,0,0,0,0,0,0,0,-1,1434,1702,4.52524,-13.1654
217,-678,4.45813,12.7441,0,0,0,0,0,0,0,-1,1441,1702,4.45807,-12.7441
224,-678,4.48828,12.4563,-0.00114331,-0.00689297,0.00352782,0.000532695,-0.00856898,0.443517,0.00589824,0.0457077,1448,1702,4.48827,-12.4563
231,-678,4.43896,12.6367,-0.000982457,-0.00621037,0.00319722,0.000533355,-0.00772618,0.442716,0.00533746,0.0411246,1455,1702,4.43894,-12.6367
238,-678,4.50476,12.6509,0,0,0,0,0,0,0,-1,1462,1702,4.50477,-12.6509
245,-678,4.49316,12.6342,0,0,0,0,0,0,0,-1,1469,1702,4.49322,-12.6341
252,-678,4.50989,12.5245,8.15921e-05,-0.00430216,0.0017824,0.000714829,-0.00493539,0.341364,0.00355259,0.0227603,1476,1702,4.50984,-12.5246
259,-678,4.49463,12.4999,0.000396326,-0.0038915,0.001371,0.000797214,-0.00429239,0.284474,0.00316102,0.0149277,1483,1702,4.49459,-12.4999
266,-678,4.52502,12.4355,0.000607197,-0.00357577,0.00102135,0.000843257,-0.00381183,0.227137,0.00286399,0.0113245,1490,1702,4.52504,-12.4355
273,-678,4.53198,12.3522,0.000696283,-0.00299186,0.000777325,0.00085342,-0.003149,0.199462,0.00243419,0.0107441,1497,1702,4.53193,-12.3521
280,-678,4.51379,12.261,0.000743575,-0.00210294,0.000482169,0.000823032,-0.0021824,0.163322,0.00179337,0.0114316,1504,1702,4.51374,-12.261
287,-678,4.52344,12.1604,0.000722289,-0.00154761,0.000393856,0.000788686,-0.00161401,0.167011,0.00141421,0.012429,1511,1702,4.52348,-12.1605
294,-678,4.52661,12.0677,0.000723117,-0.00107981,0.000441269,0.000825324,-0.00118202,0.227607,0.00116502,0.0124947,1518,1702,4.52666,-12.0678
301,-678,4.52319,11.9891,0.00075672,-0.00066006,0.000440015,0.000882254,-0.000785594,0.277913,0.000963472,0.0109305,1525,1702,4.52315,-11.9892
308,-678,4.53931,11.9064,0.000790742,-0.000401595,0.000444455,0.000938185,-0.000549038,0.320314,0.000868391,0.0121297,1532,1702,4.53935,-11.9064
315,-678,4.57104,11.8246,0.000904245,-0.000269445,0.000388396,0.00102113,-0.000386332,0.292326,0.000839698,0.0138126,1539,1702,4.57099,-11.8246
322,-678,4.5415,11.7408,0.00109274,-0.000142448,0.000236107,0.00113634,-0.000186042,0.182578,0.000826579,0.0169143,1546,1702,4.54152,-11.7409
329,-678,4.52637,11.6471,0.00141745,-8.22436e-05,-7.27835e-05,0.00142098,-8.57676e-05,-0.0483806,0.000977163,0.0156271,1553,1702,4.52641,-11.6471
336,-678,4.53381,11.542,0.0016874,0.00024132,0.000545742,0.00187024,5.84789e-05,0.323279,0.0012278,0.0135223,1560,1702,4.53377,-11.5419
343,-678,4.53918,11.4364,0.00200178,0.000685702,0.00164972,0.00311985,-0.000432375,0.595628,0.00223799,0.0122317,1567,1702,4.53918,-11.4364
350,-678,4.54309,11.3369,0.00233697,0.00104024,0.00251901,0.00428971,-0.000912502,0.659438,0.00320754,0.011614,1574,1702,4.54304,-11.337
357,-678,4.55798,11.2123,0.00269509,0.00149507,0.00378132,0.00592371,-0.00173355,0.706715,0.00463631,0.00939466,1581,1702,4.55799,-11.2123
364,-678,4.55115,11.0884,0.00290314,0.00203781,0.00546551,0.00795309,-0.00301214,0.745899,0.0065415,0.0115634,1588,1702,4.55119,-11.0884
371,-678,4.53162,10.99,0.00297449,0.00281013,0.00756282,0.0104556,-0.00467096,0.779965,0.00894364,0.0124343,1595,1702,4.5316,-10.99
378,-678,4.53357,10.859,0.00277185,0.00380341,0.0102082,0.0135088,-0.00693355,0.81064,0.0120042,0.0137311,1602,1702,4.53356,-10.859
385,-678,4.54248,10.754,0.00257467,0.00484482,0.0131818,0.0169403,-0.0095208,0.828347,0.0154762,0.0160343,1609,1702,4.54252,-10.754
392,-678,4.58276,10.6982,0.00210512,0.00625139,0.0160755,0.0203869,-0.0120304,0.849525,0.0189223,0.0263249,1616,1702,4.5828,-10.6982
399,-678,4.6416,10.5964,0.00122813,0.00820155,0.0189298,0.0239631,-0.0145334,0.876473,0.0224471,0.0346194,1623,1702,4.64164,-10.5964
406,-678,4.6283,10.4705,-6.01169e-05,0.00936417,0.0220373,0.0271875,-0.0178835,0.890725,0.0262059,0.0369575,1630,1702,4.62829,-10.4705
413,-678,4.53796,10.488,-0.00150439,0.0100663,0.0245078,0.0294623,-0.0209004,0.901307,0.0292167,0.0425447,1637,1702,4.53801,-10.488
420,-678,4.49011,10.2773,0,0,0,0,0,0,0,-1,1644,1702,4.49015,-10.2774
427,-678,4.30859,8.69702,0,0,0,0,0,0,0,-1,1651,1702,4.30862,-8.69707
434,-678,4.72046,10.1484,0,0,0,0,0,0,0,-1,1658,1702,4.72048,-10.1484
441,-678,4.81177,10.6176,0,0,0,0,0,0,0,-1,1665,1702,4.81178,-10.6175
448,-678,3.25525,9.74719,0,0,0,0,0,0,0,-1,1672,1702,3.25522,-9.7472
455,-678,5.44678,5.54297,0,0,0,0,0,0,0,-1,1679,1702,5.44676,-5.54294
462,-678,3.86792,2.87402,0,0,0,0,0,0,0,-1,1686,1702,3.86796,-2.87406
469,-678,2.26587,1.98755,0,0,0,0,0,0,0,-1,1693,1702,2.26592,-1.98755
476,-678,0,0,0,0,0,0,0,0,0,-1,1700,1702,0,0
483,-678,0,0,0,0,0,0,0,0,0,-1,1707,1702,0,0
490,-678,0,0,0,0,0,0,0,0,0,-1,1714,1702,0,0
497,-678,0,0,0,0,0,0,0,0,0,-1,1721,1702,0,0
504,-678,0,0,0,0,0,0,0,0,0,-1,1728,1702,0,0
511,-678,0,0,0,0,0,0,0,0,0,-1,1735,1702,0,0
518,-678,0,0,0,0,0,0,0,0,0,-1,1742,1702,0,0
525,-678,0,0,0,0,0,0,0,0,0,-1,1749,1702,0,0
532,-678,0,0,0,0,0,0,0,0,0,-1,1756,1702,0,0
539,-678,0,0,0,0,0,0,0,0,0,-1,1763,1702,0,0
546,-678,0,0,0,0,0,0,0,0,0,-1,1770,1702,0,0
553,-678,0,0,0,0,0,0,0,0,0,-1,1777,1702,0,0
560,-678,0,0,0,0,0,0,0,0,0,-1,1784,1702,0,0
567,-678,0,0,0,0,0,0,0,0,0,-1,1791,1702,0,0
574,-678,0,0,0,0,0,0,0,0,0,-1,1798,1702,0,0
581,-678,0,0,0,0,0,0,0,0,0,-1,1805,1702,0,0
588,-678,0,0,0,0,0,0,0,0,0,-1,1812,1702,0,0
595,-678,0,0,0,0,0,0,0,0,0,-1,1819,1702,0,0
602,-678,0,0,0,0,0,0,0,0,0,-1,1826,1702,0,0
609,-678,0,0,0,0,0,0,0,0,0,-1,1833,1702,0,0
616,-678,0,0,0,0,0,0,0,0,0,-1,1840,1702,0,0
623,-678,0,0,0,0,0,0,0,0,0,-1,1847,1702,0,0
630,-678,0,0,0,0,0,0,0,0,0,-1,1854,1702,0,0
637,-678,0,0,0,0,0,0,0,0,0,-1,1861,1702,0,0
644,-678,0,0,0,0,0,0,0,0,0,-1,1868,1702,0,0
651,-678,0,0,0,0,0,0,0,0,0,-1,1875,1702,0,0
658,-678,0,0,0,0,0,0,0,0,0,-1,1882,1702,0,0
665,-678,0,0,0,0,0,0,0,0,0,-1,1889,1702,0,0
672,-678,0,0,0,0,0,0,0,0,0,-1,1896,1702,0,0
679,-678,0,0,0,0,0,0,0,0,0,-1,1903,1702,0,0
686,-678,0,0,0,0,0,0,0,0,0,-1,1910,1702,0,0
693,-678,0,0,0,0,0,0,0,0,0,-1,1917,1702,0,0
700,-678,0,0,0,0,0,0,0,0,0,-1,1924,1702,0,0
707,-678,0,0,0,0,0,0,0,0,0,-1,1931,1702,0,0
714,-678,0,0,0,0,0,0,0,0,0,-1,1938,1702,0,0
721,-678,0,0,0,0,0,0,0,0,0,-1,1945,1702,0,0
728,-678,0,0,0,0,0,0,0,0,0,-1,1952,1702,0,0
735,-678,0,0,0,0,0,0,0,0,0,-1,1959,1702,0,0
742,-678,0,0,0,0,0,0,0,0,0,-1,1966,1702,0,0
749,-678,0,0,0,0,0,0,0,0,0,-1,1973,1702,0,0
756,-678,0,0,0,0,0,0,0,0,0,-1,1980,1702,0,0
763,-678,0,0,0,0,0,0,0,0,0,-1,1987,1702,0,0
770,-678,0,0,0,0,0,0,0,0,0,-1,1994,1702,0,0
777,-678,0,0,0,0,0,0,0,0,0,-1,2001,1702,0,0
784,-678,0,0,0,0,0,0,0,0,0,-1,2008,1702,0,0
791,-678,0,0,0,0,0,0,0,0,0,-1,2015,1702,0,0
798,-678,0,0,0,0,0,0,0,0,0,-1,2022,1702,0,0
805,-678,0,0,0,0,0,0,0,0,0,-1,2029,1702,0,0
812,-678,0,0,0,0,0,0,0,0,0,-1,2036,1702,0,0
-700,-685,0,0,0,0,0,0,0,0,0,-1,524,1709,0,0
-693,-685,0,0,0,0,0,0,0,0,0,-1,531,1709,0,0
-686,-685,0,0,0,0,0,0,0,0,0,-1,538,1709,0,0
-679,-685,0,0,0,0,0,0,0,0,0,-1,545,1709,0,0
-672,-685,0,0,0,0,0,0,0,0,0,-1,552,1709,0,0
-665,-685,0,0,0,0,0,0,0,0,0,-1,559,1709,0,0
-658,-685,0,0,0,0,0,0,0,0,0,-1,566,1709,0,0
-651,-685,0,0,0,0,0,0,0,0,0,-1,573,1709,0,0
-644,-685,0,0,0,0,0,0,0,0,0,-1,580,1709,0,0
-637,-685,0,0,0,0,0,0,0,0,0,-1,587,1709,0,0
-630,-685,0,0,0,0,0,0,0,0,0,-1,594,1709,0,0
-623,-685,0,0,0,0,0,0,0,0,0,-1,601,1709,0,0
-616,-685,0,0,0,0,0,0,0,0,0,-1,608,1709,0,0
-609,-685,0,0,0,0,0,0,0,0,0,-1,615,1709,0,0
-602,-685,0,0,0,0,0,0,0,0,0,-1,622,1709,0,0
-595,-685,0,0,0,0,0,0,0,0,0,-1,629,1709,0,0
-588,-685,0,0,0,0,0,0,0,0,0,-1,636,1709,0,0
-581,-685,0,0,0,0,0,0,0,0,0,-1,643,1709,0,0
-574,-685,0,0,0,0,0,0,0,0,0,-1,650,1709,0,0
-567,-685,0,0,0,0,0,0,0,0,0,-1,657,1709,0,0
-560,-685,0,0,0,0,0,0,0,0,0,-1,664,1709,0,0
-553,-685,0,0,0,0,0,0,0,0,0,-1,671,1709,0,0
-546,-685,0,0,0,0,0,0,0,0,0,-1,678,1709,0,0
-539,-685,0,0,0,0,0,0,0,0,0,-1,685,1709,0,0
-532,-685,0,0,0,0,0,0,0,0,0,-1,692,1709,0,0
-525,-685,0,0,0,0,0,0,0,0,0,-1,699,1709,0,0
-518,-685,0,0,0,0,0,0,0,0,0,-1,706,1709,0,0
-511,-685,0,0,0,0,0,0,0,0,0,-1,713,1709,0,0
-504,-685,0,0,0,0,0,0,0,0,0,-1,720,1709,0,0
-497,-685,0,0,0,0,0,0,0,0,0,-1,727,1709,0,0
-490,-685,0,0,0,0,0,0,0,0,0,-1,734,1709,0,0
-483,-685,0,0,0,0,0,0,0,0,0,-1,741,1709,0,0
-476,-685,0,0,0,0,0,0,0,0,0,-1,748,1709,0,0
-469,-685,0,0,0,0,0,0,0,0,0,-1,755,1709,0,0
-462,-685,0,0,0,0,0,0,0,0,0,-1,762,1709,0,0
-455,-685,0,0,0,0,0,0,0,0,0,-1,769,1709,0,0
-448,-685,0,0,0,0,0,0,0,0,0,-1,776,1709,0,0
-441,-685,0,0,0,0,0,0,0,0,0,-1,783,1709,0,0
-434,-685,0,0,0,0,0,0,0,0,0,-1,790,1709,0,0
-427,-685,0,0,0,0,0,0,0,0,0,-1,797,1709,0,0
-420,-685,0,0,0,0,0,0,0,0,0,-1,804,1709,0,0
-413,-685,0,0,0,0,0,0,0,0,0,-1,811,1709,0,0
-406,-685,0,0,0,0,0,0,0,0,0,-1,818,1709,0,0
-399,-685,0,0,0,0,0,0,0,0,0,-1,825,1709,0,0
-392,-685,0,0,0,0,0,0,0,0,0,-1,832,1709,0,0
-385,-685,0,0,0,0,0,0,0,0,0,-1,839,1709,0,0
-378,-685,0,0,0,0,0,0,0,0,0,-1,846,1709,0,0
-371,-685,0,0,0,0,0,0,0,0,0,-1,853,1709,0,0
-364,-685,0,0,0,0,0,0,0,0,0,-1,860,1709,0,0
-357,-685,0,0,0,0,0,0,0,0,0,-1,867,1709,0,0
-350,-685,0,0,0,0,0,0,0,0,0,-1,874,1709,0,0
-343,-685,-7.97491,5.63452,0,0,0,0,0,0,0,-1,881,1709,-7.97492,-5.63451
-336,-685,0.426025,9.57556,0,0,0,0,0,0,0,-1,888,1709,0.426045,-9.57554
-329,-685,0.54248,9.45496,0,0,0,0,0,0,0,-1,895,1709,0.542493,-9.45499
-322,-685,3.48425,16.3307,0,0,0,0,0,0,0,-1,902,1709,3.48425,-16.3307
-315,-685,3.66089,14.3413,0.0516086,-0.0651886,-0.0748469,0.088144,-0.101724,-0.45411,0.109714,0.0467448,909,1709,3.66091,-14.3413
-308,-685,4.00427,12.6189,0.0485958,-0.0519706,-0.0755609,0.0890752,-0.09245,-0.491813,0.10481,0.0493465,916,1709,4.00426,-12.6189
-301,-685,4.30664,10.9299,0,0,0,0,0,0,0,-1,923,1709,4.30661,-10.93
-294,-685,2.9881,9.97754,0,0,0,0,0,0,0,-1,930,1709,2.9881,-9.97753
-287,-685,3.57495,9.26721,0.0372798,-0.0162863,-0.0620742,0.0781025,-0.057109,-0.58173,0.0783774,0.0457893,937,1709,3.57498,-9.26725
-280,-685,4.18439,8.53271,0.0333486,-0.00542824,-0.0505148,0.068068,-0.0401477,-0.60216,0.0631677,0.0475862,944,1709,4.18437,-8.53269
-273,-685,4.75867,7.87073,0.029724,0.00265395,-0.0394942,0.0579381,-0.0255601,-0.620316,0.0494011,0.0478678,951,1709,4.75865,-7.87076
-266,-685,5.30908,7.20483,0,0,0,0,0,0,0,-1,958,1709,5.30905,-7.20481
-259,-685,3.62671,9.76318,0.0208448,0.0154505,-0.0173236,0.03568,0.000615411,-0.708172,0.0235842,0.0387557,965,1709,3.62674,-9.76324
-252,-685,3.66803,9.93372,0.0166996,0.0197114,-0.00740997,0.0257669,0.010644,-0.885647,0.0149513,0.0367647,972,1709,3.66802,-9.93372
-245,-685,3.6701,10.0844,0.0141554,0.0196326,-0.000395294,0.019661,0.0141271,-1.49912,0.0117071,0.0341065,979,1709,3.67011,-10.0843
-238,-685,3.65729,10.1753,0.0129051,0.0169775,0.00326481,0.018789,0.0110935,1.06422,0.0109068,0.024886,986,1709,3.65728,-10.1753
-231,-685,3.60101,10.3573,0.0104322,0.0151853,0.00618825,0.0194377,0.00617988,0.968735,0.0114677,0.0152973,993,1709,3.60099,-10.3573
-224,-685,3.58191,10.4906,0.00884583,0.0120246,0.00701909,0.017632,0.00323843,0.89674,0.0108377,0.0136672,1000,1709,3.58192,-10.4906
-217,-685,3.59375,10.6215,0.00739366,0.00829303,0.00719402,0.0150514,0.000635288,0.816612,0.00982935,0.0110378,1007,1709,3.59375,-10.6214
-210,-685,3.59363,10.7758,0.00635041,0.00715735,0.0059063,0.0126739,0.000833815,0.819501,0.00818552,0.0150264,1014,1709,3.59366,-10.7757
-203,-685,3.5752,10.8976,0.00516325,0.00588255,0.00465013,0.0101869,0.000858886,0.823992,0.00652385,0.0153888,1021,1709,3.57515,-10.8976
-196,-685,3.56445,10.9856,0.00397894,0.00460925,0.0034625,0.00777091,0.000817279,0.830783,0.00493081,0.0135493,1028,1709,3.5645,-10.9855
-189,-685,3.57544,11.0754,0.00294757,0.00331408,0.00230994,0.00544802,0.000813629,0.824982,0.00339347,0.00933911,1035,1709,3.57542,-11.0754
-182,-685,3.57983,11.1965,0.00211779,0.00222327,0.00136946,0.00354101,0.000800052,0.804645,0.00214433,0.0135372,1042,1709,3.57989,-11.1965
-175,-685,3.58203,11.3162,0.00132794,0.000986276,0.000392136,0.00158484,0.000729375,0.579975,0.000915971,0.0135733,1049,1709,3.58197,-11.3161
-168,-685,3.58191,11.4484,0.000811266,0.000225012,-8.8046e-05,0.000824204,0.000212074,-0.145897,0.000494186,0.0105536,1056,1709,3.58186,-11.4484
-161,-685,3.58765,11.5627,0.000741251,-0.000508175,-0.000214556,0.000777069,-0.000543993,-0.165413,0.000766662,0.0105258,1063,1709,3.58761,-11.5627
-154,-685,3.58423,11.6494,0.00105734,-0.00111936,-0.000198939,0.00107538,-0.00113739,-0.0903969,0.00127771,0.00917109,1070,1709,3.5842,-11.6494
-147,-685,3.56299,11.7261,0.00151042,-0.00172054,-4.52964e-05,0.00151105,-0.00172118,-0.0140158,0.00186744,0.00859322,1077,1709,3.56295,-11.7261
-140,-685,3.55969,11.8179,0.00198661,-0.00257661,0.000249119,0.00200017,-0.00259017,0.0543773,0.00265752,0.0111684,1084,1709,3.55966,-11.8179
-133,-685,3.58313,11.9242,0.00253924,-0.00387854,0.00055915,0.00258759,-0.00392689,0.0862591,0.00378754,0.0105928,1091,1709,3.58317,-11.9242
-126,-685,3.59814,12.0292,0.00303373,-0.00512214,0.000950638,0.00314307,-0.00523148,0.114514,0.0048849,0.00939235,1098,1709,3.59813,-12.0292
-119,-685,3.61975,12.1022,0.00348618,-0.00636934,0.001351,0.00366802,-0.00655118,0.133793,0.00597782,0.0126339,1105,1709,3.61973,-12.1021
-112,-685,3.61353,12.1849,0.00378132,-0.00790755,0.0017647,0.00404193,-0.00816816,0.14662,0.00718242,0.0123817,1112,1709,3.61352,-12.1849
-105,-685,3.59229,12.2766,0.00387794,-0.00936076,0.00223228,0.0042442,-0.00972703,0.162629,0.00827075,0.010907,1119,1709,3.59224,-12.2767
-98,-685,3.64539,12.3286,0.00376042,-0.0109589,0.00263186,0.00421685,-0.0114154,0.171717,0.00933878,0.0141945,1126,1709,3.6454,-12.3286
-91,-685,3.64832,12.3927,0.0035244,-0.012322,0.00298906,0.00406947,-0.012867,0.180373,0.0102086,0.0167787,1133,1709,3.64826,-12.3926
-84,-685,3.64258,12.4683,0.00319689,-0.0133619,0.00312836,0.0037682,-0.0139333,0.180632,0.010767,0.0148027,1140,1709,3.64261,-12.4683
-77,-685,3.65002,12.6061,0.00277406,-0.0137955,0.00292288,0.00327454,-0.0142959,0.169584,0.0107891,0.0134464,1147,1709,3.65005,-12.6061
-70,-685,3.72266,12.7419,0.00225314,-0.0137849,0.00253207,0.0026434,-0.0141752,0.152925,0.0104434,0.0221461,1154,1709,3.72269,-12.742
-63,-685,3.74634,12.8198,0,0,0,0,0,0,0,-1,1161,1709,3.74634,-12.8198
-56,-685,3.66345,13.3597,0,0,0,0,0,0,0,-1,1168,1709,3.66349,-13.3597
-49,-685,3.07471,9.86011,0,0,0,0,0,0,0,-1,1175,1709,3.07467,-9.86009
-42,-685,2.70618,7.54504,0,0,0,0,0,0,0,-1,1182,1709,2.7062,-7.54504
-35,-685,2.95264,7.91516,0,0,0,0,0,0,0,-1,1189,1709,2.95262,-7.91517
-28,-685,3.73669,13.0121,0,0,0,0,0,0,0,-1,1196,1709,3.7367,-13.0121
-21,-685,3.80957,12.9471,0.00408128,0.00132105,0.00426503,0.00718393,-0.0017816,0.628921,0.00548055,0.0389943,1203,1709,3.80962,-12.9471
-14,-685,3.87976,12.879,0.00336059,0.000249057,0.00429512,0.00637302,-0.00276338,0.61164,0.00541039,0.0248581,1210,1709,3.87977,-12.8791
-7,-685,3.8833,12.8489,0.00268927,-0.000921257,0.00331469,0.00465841,-0.0028904,0.536045,0.00439798,0.0383002,1217,1709,3.8833,-12.8488
0,-685,3.94629,12.8771,0.00205135,-0.00296856,0.00194926,0.00271937,-0.00363658,0.330158,0.00368232,0.0412602,1224,1709,3.94632,-12.8771
7,-685,3.94165,12.9866,0.00114596,-0.00434294,0.000809054,0.00126273,-0.00445971,0.143338,0.00347146,0.0392,1231,1709,3.94169,-12.9865
14,-685,3.95605,12.8623,-7.77766e-06,-0.00612246,-0.000360054,1.33507e-05,-0.00614358,-0.0586136,0.00410018,0.0405061,1238,1709,3.95609,-12.8623
21,-685,4.09583,12.9893,-0.00124092,-0.00788191,-0.00170484,-0.000828832,-0.008294,-0.237167,0.00527481,0.0377882,1245,1709,4.0958,-12.9893
28,-685,4.08447,12.9095,-0.00235414,-0.0096869,-0.00314116,-0.00119255,-0.0108485,-0.354199,0.0068694,0.0394294,1252,1709,4.08449,-12.9095
35,-685,4.13721,12.8418,-0.00374477,-0.0118375,-0.00433412,-0.00186174,-0.0137205,-0.409862,0.0085939,0.042023,1259,1709,4.13723,-12.8418
42,-685,4.17615,13.1113,-0.00522805,-0.012451,-0.00588514,-0.00193463,-0.0157444,-0.510196,0.00991453,0.0429715,1266,1709,4.17609,-13.1113
49,-685,4.12903,13.2249,-0.00695143,-0.0138678,-0.00734235,-0.00229362,-0.0185256,-0.565313,0.0116613,0.0448044,1273,1709,4.12906,-13.2248
56,-685,4.07861,13.1876,-0.0081283,-0.014878,-0.00827305,-0.00256821,-0.0204381,-0.591736,0.0128551,0.0464091,1280,1709,4.07863,-13.1877
63,-685,3.92542,12.8922,-0.00823375,-0.0150998,-0.0085415,-0.00246118,-0.0208723,-0.594317,0.0131714,0.0439201,1287,1709,3.92542,-12.8922
70,-685,3.82117,12.9052,-0.00762589,-0.0152543,-0.00861242,-0.00202088,-0.0208594,-0.576941,0.013284,0.0435118,1294,1709,3.82112,-12.9051
77,-685,3.81409,12.8907,-0.00637242,-0.0143,-0.00837303,-0.00107235,-0.0196001,-0.564326,0.0127244,0.0431911,1301,1709,3.81413,-12.8908
84,-685,3.77234,12.8832,0,0,0,0,0,0,0,-1,1308,1709,3.77228,-12.8832
91,-685,4.06189,13.2169,0.000145176,-0.0132064,-0.00842659,0.0042199,-0.0172811,-0.450406,0.013155,0.0475404,1315,1709,4.0619,-13.2169
98,-685,4.05701,13.3141,0.00356222,-0.0128603,-0.00763292,0.00656194,-0.0158601,-0.374456,0.0133112,0.0410617,1322,1709,4.05702,-13.3141
105,-685,3.8634,13.0862,0.00786419,-0.0115796,-0.00669633,0.00994721,-0.0136627,-0.30158,0.0136873,0.0415535,1329,1709,3.8634,-13.0862
112,-685,4.03882,13.1189,0.0129745,-0.0115316,-0.00644965,0.0145683,-0.0131254,-0.242261,0.0159962,0.0450549,1336,1709,4.03878,-13.1189
119,-685,4.41003,13.5275,0.0180998,-0.0112844,-0.00647185,0.019462,-0.0126466,-0.207463,0.0186766,0.0407179,1343,1709,4.40998,-13.5274
126,-685,4.38245,13.3389,0.0225651,-0.0115849,-0.0064548,0.0237444,-0.0127642,-0.180711,0.0213937,0.0443329,1350,1709,4.38244,-13.3389
133,-685,4.26843,13.1215,0,0,0,0,0,0,0,-1,1357,1709,4.26849,-13.1215
140,-685,4.1875,13.1271,0,0,0,0,0,0,0,-1,1364,1709,4.18752,-13.1271
147,-685,4.28613,13.0999,0,0,0,0,0,0,0,-1,1371,1709,4.28607,-13.0999
154,-685,4.3822,13.286,0,0,0,0,0,0,0,-1,1378,1709,4.38217,-13.286
161,-685,4.8656,13.1942,0,0,0,0,0,0,0,-1,1385,1709,4.86564,-13.1943
168,-685,4.37524,10.8778,0,0,0,0,0,0,0,-1,1392,1709,4.37525,-10.8778
175,-685,3.97522,8.94324,0,0,0,0,0,0,0,-1,1399,1709,3.97519,-8.94328
182,-685,3.98218,9.19739,0,0,0,0,0,0,0,-1,1406,1709,3.98221,-9.1974
189,-685,3.90552,10.3271,0,0,0,0,0,0,0,-1,1413,1709,3.90548,-10.3272
196,-685,4.4093,13.1498,0,0,0,0,0,0,0,-1,1420,1709,4.4093,-13.1498
203,-685,4.46301,13.2643,0,0,0,0,0,0,0,-1,1427,1709,4.46302,-13.2643
210,-685,4.40637,13.0303,0.000408235,-0.0046839,0.00257887,0.00148612,-0.00576178,0.3959,0.00442063,0.0265458,1434,1709,4.40632,-13.0303
217,-685,4.38525,12.8232,-0.000379344,-0.00497635,0.00219721,0.00050191,-0.0058576,0.381436,0.00408267,0.0206335,1441,1709,4.38521,-12.8232
224,-685,4.32715,12.7458,-0.000574943,-0.00486035,0.00230779,0.000431492,-0.00586678,0.411238,0.00406266,0.0159264,1448,1709,4.32713,-12.7459
231,-685,4.39832,12.7142,-0.00053344,-0.0044744,0.00212833,0.000396521,-0.00540436,0.411945,0.00374209,0.0165509,1455,1709,4.39836,-12.7142
238,-685,4.40527,12.6509,-0.000385286,-0.00401175,0.00187941,0.000412991,-0.00481003,0.401658,0.00335284,0.0182822,1462,1709,4.40529,-12.6508
245,-685,4.39197,12.601,-0.000205798,-0.003453,0.00156341,0.000424561,-0.00408335,0.383257,0.00287423,0.0196122,1469,1709,4.39193,-12.6009
252,-685,4.42517,12.5623,2.15517e-05,-0.00309994,0.00125184,0.000461566,-0.00353996,0.338004,0.00252791,0.0148924,1476,1709,4.4252,-12.5622
259,-685,4.41443,12.5021,0.00018951,-0.00271721,0.000983072,0.000490768,-0.00301847,0.29736,0.00219427,0.0106704,1483,1709,4.41443,-12.5021
266,-685,4.42847,12.4307,0.000286304,-0.00237798,0.000776328,0.000496007,-0.00258768,0.263826,0.00191202,0.0121348,1490,1709,4.42846,-12.4306
273,-685,4.43945,12.3463,0.000297444,-0.00177331,0.000628761,0.000473408,-0.00194927,0.272877,0.00148272,0.0140283,1497,1709,4.4394,-12.3463
280,-685,4.43335,12.2423,0.000234104,-0.000948561,0.000447825,0.00038454,-0.001099,0.324083,0.000889013,0.0152678,1504,1709,4.43329,-12.2423
287,-685,4.44629,12.1729,0.00015258,-0.000401278,0.000453064,0.000406647,-0.000655345,0.511078,0.00061872,0.0128974,1511,1709,4.44628,-12.1728
294,-685,4.44946,12.1053,0.000180839,8.34988e-05,0.000524413,0.000658835,-0.000394498,0.739127,0.000614492,0.0112176,1518,1709,4.44947,-12.1053
301,-685,4.43738,12.0045,0.000287554,0.000452121,0.000489081,0.000865792,-0.000126117,0.868738,0.0006235,0.0125684,1525,1709,4.43738,-12.0045
308,-685,4.44275,11.9082,0.000374096,0.000608103,0.000505523,0.00100999,-2.77875e-05,0.899121,0.000682775,0.0131135,1532,1709,4.44275,-11.9083
315,-685,4.46936,11.833,0.000607736,0.000635642,0.000415394,0.00103732,0.000206061,0.802187,0.000634118,0.0116024,1539,1709,4.46932,-11.833
322,-685,4.45154,11.7281,0.000971388,0.000641223,0.000201066,0.00106646,0.000546152,0.44168,0.00061578,0.0189341,1546,1709,4.45153,-11.7281
329,-685,4.44116,11.632,0.00150462,0.000553494,-0.000209898,0.00154888,0.000509233,-0.207826,0.000911557,0.0195415,1553,1709,4.44119,-11.6319
336,-685,4.45435,11.5284,0.00197912,0.000898893,0.000826308,0.00242618,0.000451835,0.495931,0.00148986,0.0135016,1560,1709,4.45439,-11.5284
343,-685,4.44177,11.428,0.0025147,0.00143253,0.00265361,0.00468183,-0.000734601,0.684825,0.0033927,0.0121922,1567,1709,4.44177,-11.428
350,-685,4.44543,11.3165,0.00306362,0.00187895,0.00415878,0.00667203,-0.00172947,0.714659,0.00512276,0.012655,1574,1709,4.4454,-11.3166
357,-685,4.4552,11.2141,0.00364139,0.00250187,0.00634518,0.00944234,-0.00329907,0.740621,0.00763596,0.0100374,1581,1709,4.45519,-11.2141
364,-685,4.44702,11.0969,0.00402047,0.00337849,0.00925585,0.0129609,-0.00556193,0.768065,0.0109749,0.00968625,1588,1709,4.44705,-11.097
371,-685,4.45605,10.9658,0.00420077,0.00467273,0.0129245,0.0173634,-0.00848994,0.794526,0.0152167,0.0157255,1595,1709,4.456,-10.9658
378,-685,4.40601,10.8961,0.00401216,0.00633133,0.0174834,0.0226935,-0.0123501,0.818512,0.0205241,0.0222813,1602,1709,4.406,-10.8961
385,-685,4.47571,10.801,0.00379536,0.00817329,0.0226275,0.0287174,-0.0167488,0.833618,0.0265514,0.0367364,1609,1709,4.47569,-10.801
392,-685,4.60815,10.6106,0.00319662,0.0103919,0.0278006,0.0348267,-0.0212381,0.849745,0.0326844,0.0412598,1616,1709,4.60817,-10.6106
399,-685,4.67615,10.6536,0,0,0,0,0,0,0,-1,1623,1709,4.67609,-10.6536
406,-685,4.60864,10.5555,0,0,0,0,0,0,0,-1,1630,1709,4.6087,-10.5555
413,-685,4.41431,10.5474,0,0,0,0,0,0,0,-1,1637,1709,4.41427,-10.5474
420,-685,4.46826,10.495,0,0,0,0,0,0,0,-1,1644,1709,4.46832,-10.495
427,-685,6.05151,9.21155,0,0,0,0,0,0,0,-1,1651,1709,6.05156,-9.21156
434,-685,4.87769,8.91418,0,0,0,0,0,0,0,-1,1658,1709,4.87768,-8.91413
441,-685,5.62,8.75549,0,0,0,0,0,0,0,-1,1665,1709,5.61996,-8.75545
448,-685,6.4043,8.58972,0,0,0,0,0,0,0,-1,1672,1709,6.40435,-8.58971
455,-685,2.31958,4.09802,0,0,0,0,0,0,0,-1,1679,1709,2.31957,-4.09803
462,-685,0,0,0,0,0,0,0,0,0,-1,1686,1709,0,0
469,-685,0,0,0,0,0,0,0,0,0,-1,1693,1709,0,0
476,-685,0,0,0,0,0,0,0,0,0,-1,1700,1709,0,0
483,-685,0,0,0,0,0,0,0,0,0,-1,1707,1709,0,0
490,-685,0,0,0,0,0,0,0,0,0,-1,1714,1709,0,0
497,-685,0,0,0,0,0,0,0,0,0,-1,1721,1709,0,0
504,-685,0,0,0,0,0,0,0,0,0,-1,1728,1709,0,0
511,-685,0,0,0,0,0,0,0,0,0,-1,1735,1709,0,0
518,-685,0,0,0,0,0,0,0,0,0,-1,1742,1709,0,0
525,-685,0,0,0,0,0,0,0,0,0,-1,1749,1709,0,0
532,-685,0,0,0,0,0,0,0,0,0,-1,1756,1709,0,0
539,-685,0,0,0,0,0,0,0,0,0,-1,1763,1709,0,0
546,-685,0,0,0,0,0,0,0,0,0,-1,1770,1709,0,0
553,-685,0,0,0,0,0,0,0,0,0,-1,1777,1709,0,0
560,-685,0,0,0,0,0,0,0,0,0,-1,1784,1709,0,0
567,-685,0,0,0,0,0,0,0,0,0,-1,1791,1709,0,0
574,-685,0,0,0,0,0,0,0,0,0,-1,1798,1709,0,0
581,-685,0,0,0,0,0,0,0,0,0,-1,1805,1709,0,0
588,-685,0,0,0,0,0,0,0,0,0,-1,1812,1709,0,0
595,-685,0,0,0,0,0,0,0,0,0,-1,1819,1709,0,0
602,-685,0,0,0,0,0,0,0,0,0,-1,1826,1709,0,0
609,-685,0,0,0,0,0,0,0,0,0,-1,1833,1709,0,0
616,-685,0,0,0,0,0,0,0,0,0,-1,1840,1709,0,0
623,-685,0,0,0,0,0,0,0,0,0,-1,1847,1709,0,0
630,-685,0,0,0,0,0,0,0,0,0,-1,1854,1709,0,0
637,-685,0,0,0,0,0,0,0,0,0,-1,1861,1709,0,0
644,-685,0,0,0,0,0,0,0,0,0,-1,1868,1709,0,0
651,-685,0,0,0,0,0,0,0,0,0,-1,1875,1709,0,0
658,-685,0,0,0,0,0,0,0,0,0,-1,1882,1709,0,0
665,-685,0,0,0,0,0,0,0,0,0,-1,1889,1709,0,0
672,-685,0,0,0,0,0,0,0,0,0,-1,1896,1709,0,0
679,-685,0,0,0,0,0,0,0,0,0,-1,1903,1709,0,0
686,-685,0,0,0,0,0,0,0,0,0,-1,1910,1709,0,0
693,-685,0,0,0,0,0,0,0,0,0,-1,1917,1709,0,0
700,-685,0,0,0,0,0,0,0,0,0,-1,1924,1709,0,0
707,-685,0,0,0,0,0,0,0,0,0,-1,1931,1709,0,0
714,-685,0,0,0,0,0,0,0,0,0,-1,1938,1709,0,0
721,-685,0,0,0,0,0,0,0,0,0,-1,1945,1709,0,0
728,-685,0,0,0,0,0,0,0,0,0,-1,1952,1709,0,0
735,-685,0,0,0,0,0,0,0,0,0,-1,1959,1709,0,0
742,-685,0,0,0,0,0,0,0,0,0,-1,1966,1709,0,0
749,-685,0,0,0,0,0,0,0,0,0,-1,1973,1709,0,0
756,-685,0,0,0,0,0,0,0,0,0,-1,1980,1709,0,0
763,-685,0,0,0,0,0,0,0,0,0,-1,1987,1709,0,0
770,-685,0,0,0,0,0,0,0,0,0,-1,1994,1709,0,0
777,-685,0,0,0,0,0,0,0,0,0,-1,2001,1709,0,0
784,-685,0,0,0,0,0,0,0,0,0,-1,2008,1709,0,0
791,-685,0,0,0,0,0,0,0,0,0,-1,2015,1709,0,0
798,-685,0,0,0,0,0,0,0,0,0,-1,2022,1709,0,0
805,-685,0,0,0,0,0,0,0,0,0,-1,2029,1709,0,0
812,-685,0,0,0,0,0,0,0,0,0,-1,2036,1709,0,0
-700,-692,0,0,0,0,0,0,0,0,0,-1,524,1716,0,0
-693,-692,0,0,0,0,0,0,0,0,0,-1,531,1716,0,0
-686,-692,0,0,0,0,0,0,0,0,0,-1,538,1716,0,0
-679,-692,0,0,0,0,0,0,0,0,0,-1,545,1716,0,0
-672,-692,0,0,0,0,0,0,0,0,0,-1,552,1716,0,0
-665,-692,0,0,0,0,0,0,0,0,0,-1,559,1716,0,0
-658,-692,0,0,0,0,0,0,0,0,0,-1,566,1716,0,0
-651,-692,0,0,0,0,0,0,0,0,0,-1,573,1716,0,0
-644,-692,0,0,0,0,0,0,0,0,0,-1,580,1716,0,0
-637,-692,0,0,0,0,0,0,0,0,0,-1,587,1716,0,0
-630,-692,0,0,0,0,0,0,0,0,0,-1,594,1716,0,0
-623,-692,0,0,0,0,0,0,0,0,0,-1,601,1716,0,0
-616,-692,0,0,0,0,0,0,0,0,0,-1,608,1716,0,0
-609,-692,0,0,0,0,0,0,0,0,0,-1,615,1716,0,0
-602,-692,0,0,0,0,0,0,0,0,0,-1,622,1716,0,0
-595,-692,0,0,0,0,0,0,0,0,0,-1,629,1716,0,0
-588,-692,0,0,0,0,0,0,0,0,0,-1,636,1716,0,0
-581,-692,0,0,0,0,0,0,0,0,0,-1,643,1716,0,0
-574,-692,0,0,0,0,0,0,0,0,0,-1,650,1716,0,0
-567,-692,0,0,0,0,0,0,0,0,0,-1,657,1716,0,0
-560,-692,0,0,0,0,0,0,0,0,0,-1,664,1716,0,0
-553,-692,0,0,0,0,0,0,0,0,0,-1,671,1716,0,0
-546,-692,0,0,0,0,0,0,0,0,0,-1,678,1716,0,0
-539,-692,0,0,0,0,0,0,0,0,0,-1,685,1716,0,0
-532,-692,0,0,0,0,0,0,0,0,0,-1,692,1716,0,0
-525,-692,0,0,0,0,0,0,0,0,0,-1,699,1716,0,0
-518,-692,0,0,0,0,0,0,0,0,0,-1,706,1716,0,0
-511,-692,0,0,0,0,0,0,0,0,0,-1,713,1716,0,0
-504,-692,0,0,0,0,0,0,0,0,0,-1,720,1716,0,0
-497,-692,0,0,0,0,0,0,0,0,0,-1,727,1716,0,0
-490,-692,0,0,0,0,0,0,0,0,0,-1,734,1716,0,0
-483,-692,0,0,0,0,0,0,0,0,0,-1,741,1716,0,0
-476,-692,0,0,0,0,0,0,0,0,0,-1,748,1716,0,0
-469,-692,0,0,0,0,0,0,0,0,0,-1,755,1716,0,0
-462,-692,0,0,0,0,0,0,0,0,0,-1,762,1716,0,0
-455,-692,0,0,0,0,0,0,0,0,0,-1,769,1716,0,0
-448,-692,0,0,0,0,0,0,0,0,0,-1,776,1716,0,0
-441,-692,0,0,0,0,0,0,0,0,0,-1,783,1716,0,0
-434,-692,0,0,0,0,0,0,0,0,0,-1,790,1716,0,0
-427,-692,0,0,0,0,0,0,0,0,0,-1,797,1716,0,0
-420,-692,0,0,0,0,0,0,0,0,0,-1,804,1716,0,0
-413,-692,0,0,0,0,0,0,0,0,0,-1,811,1716,0,0
-406,-692,0,0,0,0,0,0,0,0,0,-1,818,1716,0,0
-399,-692,0,0,0,0,0,0,0,0,0,-1,825,1716,0,0
-392,-692,0,0,0,0,0,0,0,0,0,-1,832,1716,0,0
-385,-692,0,0,0,0,0,0,0,0,0,-1,839,1716,0,0
-378,-692,0,0,0,0,0,0,0,0,0,-1,846,1716,0,0
-371,-692,0,0,0,0,0,0,0,0,0,-1,853,1716,0,0
-364,-692,0,0,0,0,0,0,0,0,0,-1,860,1716,0,0
-357,-692,0,0,0,0,0,0,0,0,0,-1,867,1716,0,0
-350,-692,0,0,0,0,0,0,0,0,0,-1,874,1716,0,0
-343,-692,0,0,0,0,0,0,0,0,0,-1,881,1716,0,0
-336,-692,0,0,0,0,0,0,0,0,0,-1,888,1716,0,0
-329,-692,3.12396,3.50745,0,0,0,0,0,0,0,-1,895,1716,3.12398,-3.50748
-322,-692,3.67346,17.0139,0,0,0,0,0,0,0,-1,902,1716,3.67349,-17.0139
-315,-692,3.98718,15.2626,0.0659205,-0.0859497,-0.101299,0.116585,-0.136615,-0.46377,0.146337,0.045766,909,1716,3.98716,-15.2626
-308,-692,4.28339,13.5061,0.0631011,-0.0692142,-0.101693,0.118263,-0.124376,-0.497013,0.140102,0.047831,916,1716,4.2834,-13.5061
-301,-692,4.03302,12.2762,0,0,0,0,0,0,0,-1,923,1716,4.03304,-12.2762
-294,-692,2.43475,10.9552,0,0,0,0,0,0,0,-1,930,1716,2.43473,-10.9552
-287,-692,3.71881,9.27405,0,0,0,0,0,0,0,-1,937,1716,3.71882,-9.27405
-280,-692,4.91699,8.6759,0,0,0,0,0,0,0,-1,944,1716,4.91699,-8.67591
-273,-692,4.97754,7.83948,0,0,0,0,0,0,0,-1,951,1716,4.97756,-7.83954
-266,-692,3.63,9.07788,0,0,0,0,0,0,0,-1,958,1716,3.62999,-9.0779
-259,-692,3.78131,9.71484,0,0,0,0,0,0,0,-1,965,1716,3.78133,-9.71488
-252,-692,3.68982,9.7572,0,0,0,0,0,0,0,-1,972,1716,3.68983,-9.75722
-245,-692,3.66827,9.91248,0.0209637,0.0264145,0.000530649,0.0264657,0.0209125,1.47465,0.0161149,0.0476081,979,1716,3.66829,-9.91246
-238,-692,3.6712,10.1375,0.0187108,0.0229076,0.00532061,0.0265287,0.0150897,0.973231,0.0153646,0.0421184,986,1716,3.67122,-10.1375
-231,-692,3.71161,10.333,0.0149752,0.0207863,0.00922947,0.0275568,0.00820475,0.937891,0.016338,0.032484,993,1716,3.71163,-10.3331
-224,-692,3.68665,10.4834,0.0126169,0.016629,0.0100192,0.024841,0.00440499,0.884202,0.0153051,0.016703,1000,1716,3.68664,-10.4833
-217,-692,3.69342,10.6315,0.0104354,0.0118854,0.00991584,0.0211027,0.0012181,0.821891,0.0136805,0.0118161,1007,1716,3.69342,-10.6315
-210,-692,3.70477,10.7651,0.00880157,0.0102802,0.00805953,0.0176342,0.00144749,0.831135,0.0113046,0.0129501,1014,1716,3.70479,-10.7651
-203,-692,3.70471,10.8831,0.00705551,0.00855205,0.00633484,0.0141827,0.0014249,0.844186,0.00901774,0.0159121,1021,1716,3.70473,-10.8831
-196,-692,3.70654,11.0018,0.00538918,0.00687597,0.00478761,0.0109776,0.0012876,0.862421,0.00692916,0.018035,1028,1716,3.70651,-11.0018
-189,-692,3.67224,11.0699,0.00397155,0.0052229,0.00330828,0.00796415,0.00123031,0.878857,0.00495056,0.00916409,1035,1716,3.67219,-11.07
-182,-692,3.66357,11.1865,0.00255261,0.00384514,0.00201943,0.00531919,0.00107855,0.940261,0.00324688,0.0133199,1042,1716,3.66363,-11.1865
-175,-692,3.65637,11.317,0.00117575,0.00230401,0.000740041,0.00267042,0.00080934,1.11106,0.00158113,0.0141884,1049,1716,3.65641,-11.317
-168,-692,3.68774,11.4362,0.000286197,0.00139199,0.000139671,0.00140936,0.000268829,1.44708,0.00086402,0.0112042,1056,1716,3.68777,-11.4361
-161,-692,3.71387,11.5463,-0.000116921,0.0005326,-5.26676e-05,0.000536843,-0.000121164,-1.49041,0.00040438,0.0124746,1063,1716,3.71392,-11.5463
-154,-692,3.69666,11.652,-2.26289e-05,-0.000138143,-0.000106765,4.10006e-05,-0.000201772,-0.537456,0.00015006,0.0128194,1070,1716,3.69665,-11.652
-147,-692,3.68677,11.7537,0.000257957,-0.000751165,-2.58067e-05,0.000258616,-0.000751824,-0.0255511,0.000606101,0.0119483,1077,1716,3.68675,-11.7537
-140,-692,3.67529,11.8225,0.000610995,-0.00144732,0.000211841,0.000632571,-0.0014689,0.101502,0.0012449,0.00975837,1084,1716,3.67531,-11.8225
-133,-692,3.67676,11.9208,0.00112705,-0.00244937,0.000462967,0.001186,-0.00250833,0.126669,0.00217799,0.00957569,1091,1716,3.67675,-11.9208
-126,-692,3.68188,12.0111,0.00159709,-0.00343662,0.000783188,0.00171613,-0.00355566,0.15084,0.00310482,0.00776629,1098,1716,3.68188,-12.0111
-119,-692,3.69434,12.0878,0.00207525,-0.00433946,0.0011142,0.00226327,-0.00452748,0.167174,0.00399263,0.0112203,1105,1716,3.69433,-12.0877
-112,-692,3.69055,12.1821,0.00242574,-0.00542464,0.00140752,0.00267047,-0.00566937,0.172152,0.00491768,0.0108361,1112,1716,3.69051,-12.1821
-105,-692,3.70642,12.2737,0.0025946,-0.00638703,0.00172392,0.00291412,-0.00670655,0.183265,0.00569653,0.0148849,1119,1716,3.70638,-12.2736
-98,-692,3.73389,12.3406,0.00264994,-0.00742592,0.00200464,0.00303412,-0.0078101,0.189351,0.00646015,0.0172068,1126,1716,3.7339,-12.3406
-91,-692,3.72852,12.3981,0.00258354,-0.00822885,0.00223832,0.00302859,-0.0086739,0.196271,0.00701359,0.0190398,1133,1716,3.72848,-12.3981
-84,-692,3.7345,12.4625,0.00243363,-0.00877605,0.00235012,0.00290639,-0.00924882,0.198517,0.00732934,0.0202736,1140,1716,3.73451,-12.4625
-77,-692,3.73303,12.5896,0.00206148,-0.00892397,0.00218227,0.00247912,-0.00934161,0.189089,0.00719786,0.0133193,1147,1716,3.73307,-12.5896
-70,-692,3.74365,12.6573,0.00166408,-0.00877746,0.00195094,0.00201669,-0.00913007,0.17881,0.0068585,0.0146724,1154,1716,3.74367,-12.6573
-63,-692,3.76782,12.705,0.00120526,-0.00826696,0.00170748,0.00150366,-0.00856536,0.17301,0.00627183,0.0209057,1161,1716,3.76778,-12.7049
-56,-692,3.73987,12.9677,0.00231984,-0.00696851,0.00188923,0.0026894,-0.00733807,0.193175,0.00599315,0.040449,1168,1716,3.73983,-12.9676
-49,-692,3.71924,13.4075,0,0,0,0,0,0,0,-1,1175,1716,3.71927,-13.4074
-42,-692,3.78003,13.0177,0,0,0,0,0,0,0,-1,1182,1716,3.78001,-13.0177
-35,-692,3.86938,13.0144,0,0,0,0,0,0,0,-1,1189,1716,3.86942,-13.0144
-28,-692,3.80579,13.0083,0.00467065,0.000449321,0.00270495,0.00599097,-0.000870998,0.454092,0.00431372,0.0381728,1196,1716,3.80576,-13.0083
-21,-692,3.87891,12.9883,0.00421789,0.000175721,0.00253195,0.00543649,-0.00104288,0.448567,0.00401733,0.0234683,1203,1716,3.8789,-12.9882
-14,-692,3.86328,13.0083,0.00367691,-0.000859247,0.00269144,0.00492849,-0.00211083,0.435277,0.00417127,0.0146295,1210,1716,3.86322,-13.0083
-7,-692,3.83838,13.0663,0.00330383,-0.00161428,0.00222008,0.00415774,-0.00246818,0.367185,0.00386671,0.0157878,1217,1716,3.8384,-13.0663
0,-692,3.87354,13.0894,0.00289589,-0.00346279,0.00131709,0.0031579,-0.00372481,0.196371,0.00397822,0.0179871,1224,1716,3.87351,-13.0893
7,-692,3.91882,13.1039,0.00214925,-0.00453036,0.000682038,0.00221818,-0.00459929,0.100723,0.0040153,0.0218282,1231,1716,3.91887,-13.1039
14,-692,3.98547,13.1539,0.00119201,-0.00596376,4.25328e-06,0.00119201,-0.00596376,0.000594384,0.004427,0.0235496,1238,1716,3.98541,-13.1539
21,-692,4.02722,13.146,0.000235575,-0.00739377,-0.000854743,0.000330163,-0.00748836,-0.110213,0.00510585,0.0236264,1245,1716,4.02727,-13.1459
28,-692,4.01074,13.0897,-0.000610693,-0.00888272,-0.00184432,-0.000218117,-0.00927529,-0.209727,0.00611212,0.0243698,1252,1716,4.01073,-13.0897
35,-692,4.0155,13.1364,-0.00169914,-0.0105943,-0.00265324,-0.000967856,-0.0113256,-0.268942,0.00724937,0.0247919,1259,1716,4.01555,-13.1364
42,-692,4.07971,13.2075,-0.00285465,-0.011062,-0.00387722,-0.00131272,-0.012604,-0.378514,0.00800106,0.0234077,1266,1716,4.07965,-13.2075
49,-692,4.09705,13.2379,-0.00423222,-0.0121909,-0.0050933,-0.00174805,-0.014675,-0.453785,0.00925586,0.0267967,1273,1716,4.09709,-13.238
56,-692,4.10474,13.2286,-0.00513253,-0.0129867,-0.00593894,-0.00193971,-0.0161795,-0.49328,0.0102014,0.0303888,1280,1716,4.10476,-13.2286
63,-692,4.09656,13.2504,-0.00510686,-0.0130082,-0.00628375,-0.00163504,-0.01648,-0.504767,0.0104842,0.0285552,1287,1716,4.09655,-13.2503
70,-692,4.09534,13.2504,-0.00459478,-0.0129725,-0.00648881,-0.00106021,-0.016507,-0.498778,0.0106689,0.0257224,1294,1716,4.09534,-13.2503
77,-692,4.10388,13.2529,-0.00367103,-0.0118809,-0.00643511,-0.000143078,-0.0154089,-0.501488,0.0102252,0.0295219,1301,1716,4.10384,-13.2529
84,-692,4.07971,13.2343,-0.00131637,-0.0110326,-0.00668902,0.00209257,-0.0144416,-0.471323,0.0103957,0.0349059,1308,1716,4.07972,-13.2343
91,-692,4.06982,13.2961,0.00143775,-0.0102251,-0.00672394,0.0045067,-0.0132941,-0.428182,0.0106866,0.0323621,1315,1716,4.06985,-13.2961
98,-692,4.10022,13.3433,0.00406905,-0.00951457,-0.00623021,0.00649375,-0.0119393,-0.371149,0.010796,0.0264496,1322,1716,4.10026,-13.3432
105,-692,4.10583,13.3334,0.00740757,-0.00785005,-0.00547146,0.00916681,-0.0096093,-0.311092,0.0108414,0.0329577,1329,1716,4.10588,-13.3333
112,-692,4.13171,13.262,0.0113926,-0.007256,-0.0051755,0.0127327,-0.00859605,-0.253358,0.0123911,0.0394225,1336,1716,4.13169,-13.2619
119,-692,4.15063,13.2455,0.0153424,-0.00649464,-0.0050816,0.016467,-0.00761924,-0.217798,0.0142155,0.0320248,1343,1716,4.1506,-13.2455
126,-692,4.18201,13.2391,0.0188057,-0.00608418,-0.00498334,0.0197664,-0.00704484,-0.190439,0.0160498,0.0285273,1350,1716,4.18196,-13.2391
133,-692,4.22595,13.2128,0.0214347,-0.00594161,-0.00482032,0.0222587,-0.00676555,-0.169296,0.0175349,0.0234845,1357,1716,4.22599,-13.2128
140,-692,4.23901,13.2054,0.0233361,-0.00584491,-0.00484118,0.0241183,-0.0066271,-0.160187,0.0186838,0.0280273,1364,1716,4.23898,-13.2054
147,-692,4.21619,13.224,0.0242523,-0.00681857,-0.00433989,0.0248471,-0.00741337,-0.136205,0.0195111,0.0287083,1371,1716,4.21621,-13.224
154,-692,4.24988,13.2588,0.0239401,-0.00656451,-0.00395635,0.0244449,-0.00706929,-0.1269,0.0190943,0.0267826,1378,1716,4.24982,-13.2588
161,-692,4.52966,13.2207,0.0222688,-0.00628846,-0.00385982,0.0227813,-0.00680096,-0.132006,0.0178907,0.0408484,1385,1716,4.52971,-13.2207
168,-692,4.74304,13.1989,0,0,0,0,0,0,0,-1,1392,1716,4.74306,-13.1988
175,-692,4.29089,13.165,0,0,0,0,0,0,0,-1,1399,1716,4.29089,-13.1651
182,-692,4.27759,13.0972,0,0,0,0,0,0,0,-1,1406,1716,4.27764,-13.0972
189,-692,4.27917,13.0768,0,0,0,0,0,0,0,-1,1413,1716,4.27913,-13.0767
196,-692,4.30469,13.0197,0.00181573,-0.00340461,0.00205924,0.00253023,-0.00411911,0.333977,0.00387536,0.0207168,1420,1716,4.30471,-13.0196
203,-692,4.29895,12.9894,0.0010653,-0.00294533,0.00197314,0.00187327,-0.0037533,0.388656,0.0033084,0.0152004,1427,1716,4.29894,-12.9893
210,-692,4.33459,12.9432,0.000397834,-0.00330509,0.00177281,0.00110972,-0.00401698,0.381851,0.00311451,0.015294,1434,1716,4.33463,-12.9432
217,-692,4.33142,12.8862,-0.000178765,-0.00348927,0.00145269,0.00036829,-0.00403632,0.360157,0.00282167,0.0158982,1441,1716,4.33143,-12.8862
224,-692,4.33887,12.827,-0.000312562,-0.00339933,0.00148805,0.000287961,-0.00399985,0.383574,0.00276755,0.0132687,1448,1716,4.33889,-12.8271
231,-692,4.33789,12.7581,-0.000337216,-0.00313378,0.0013732,0.000224316,-0.00369531,0.388174,0.00254161,0.0118434,1455,1716,4.33793,-12.7581
238,-692,4.33862,12.6486,-0.000280618,-0.00276524,0.00121087,0.000211874,-0.00325773,0.386291,0.00224578,0.0186122,1462,1716,4.33864,-12.6486
245,-692,4.32202,12.5837,-0.000190303,-0.00232151,0.00100128,0.000206308,-0.00271813,0.377143,0.00188462,0.0205372,1469,1716,4.32201,-12.5837
252,-692,4.34131,12.561,-0.000101398,-0.00193153,0.0007848,0.000189047,-0.00222197,0.354458,0.00154818,0.0170189,1476,1716,4.34134,-12.561
259,-692,4.33655,12.5023,-5.87925e-05,-0.00150807,0.000624991,0.000173499,-0.00174036,0.355849,0.00122219,0.00975565,1483,1716,4.3365,-12.5024
266,-692,4.3252,12.436,-7.23445e-05,-0.00108169,0.000552079,0.00017097,-0.00132501,0.415113,0.000945495,0.0102123,1490,1716,4.32521,-12.4361
273,-692,4.33765,12.3518,-0.000144135,-0.00042297,0.000519787,0.000254608,-0.000821712,0.654372,0.00064953,0.0145068,1497,1716,4.33765,-12.3518
280,-692,4.36279,12.249,-0.000324282,0.000369756,0.000473672,0.000609923,-0.000564449,1.10154,0.000678193,0.0144448,1504,1716,4.3628,-12.249
287,-692,4.36633,12.1837,-0.000462401,0.000917055,0.00060041,0.00114178,-0.000687122,1.21266,0.00106673,0.0118578,1511,1716,4.36629,-12.1837
294,-692,4.36316,12.1278,-0.000398348,0.00141247,0.000718001,0.00166261,-0.000648486,1.23556,0.00137647,0.0105756,1518,1716,4.36321,-12.1279
301,-692,4.36462,12.036,-0.000214976,0.00174997,0.000676011,0.00196008,-0.000425081,1.26946,0.00146906,0.0123877,1525,1716,4.36468,-12.036
308,-692,4.34717,11.9423,-7.94779e-05,0.00180678,0.000739915,0.00206239,-0.000335084,1.23818,0.00149916,0.0151746,1532,1716,4.3472,-11.9422
315,-692,4.36279,11.8346,0.000303518,0.0017303,0.000633848,0.00197121,6.26082e-05,1.20758,0.00129377,0.0145934,1539,1716,4.36279,-11.8346
322,-692,4.35132,11.7263,0.000885613,0.00159684,0.000367065,0.0017523,0.000730152,1.17017,0.00101636,0.0192773,1546,1716,4.35137,-11.7263
329,-692,4.34033,11.6104,0.00168648,0.00133098,-0.000149614,0.00174106,0.0012764,-0.349833,0.00104098,0.0170598,1553,1716,4.34033,-11.6103
336,-692,4.35425,11.5255,0.00242782,0.00173314,0.00147123,0.00359215,0.000568811,0.669477,0.00222948,0.0121083,1560,1716,4.35429,-11.5255
343,-692,4.37952,11.4254,0.00324177,0.00240723,0.0043386,0.00718312,-0.00153412,0.737457,0.00537362,0.0126075,1567,1716,4.37947,-11.4254
350,-692,4.37744,11.3077,0.00406919,0.00300347,0.00680123,0.0103584,-0.00328574,0.746304,0.00822267,0.0130381,1574,1716,4.37747,-11.3077
357,-692,4.36218,11.2129,0.00494622,0.00388318,0.0103751,0.0148034,-0.00597402,0.759805,0.0123516,0.015961,1581,1716,4.36213,-11.2129
364,-692,4.35889,11.097,0.00555699,0.00527824,0.0151333,0.0205515,-0.00971631,0.780793,0.0178445,0.0208401,1588,1716,4.35892,-11.0971
371,-692,4.41699,10.9591,0.00585741,0.00738073,0.0211394,0.0277722,-0.0145341,0.803406,0.0248209,0.0324389,1595,1716,4.41699,-10.9591
378,-692,4.46179,10.8551,0.00565962,0.0100455,0.0285331,0.0364698,-0.0207646,0.823751,0.0334564,0.0395483,1602,1716,4.4618,-10.8551
385,-692,4.43958,10.7664,0,0,0,0,0,0,0,-1,1609,1716,4.43958,-10.7664
392,-692,4.59998,10.4376,0,0,0,0,0,0,0,-1,1616,1716,4.59995,-10.4376
399,-692,4.61426,10.3772,0,0,0,0,0,0,0,-1,1623,1716,4.61431,-10.3772
406,-692,4.73633,10.6808,0,0,0,0,0,0,0,-1,1630,1716,4.73637,-10.6808
413,-692,4.25085,10.5685,0,0,0,0,0,0,0,-1,1637,1716,4.2508,-10.5685
420,-692,5.48901,10.4845,0,0,0,0,0,0,0,-1,1644,1716,5.48906,-10.4845
427,-692,3.79578,8.60339,0,0,0,0,0,0,0,-1,1651,1716,3.79577,-8.6034
434,-692,4.78516,8.64636,0,0,0,0,0,0,0,-1,1658,1716,4.78512,-8.64634
441,-692,5.8208,8.74036,0,0,0,0,0,0,0,-1,1665,1716,5.82084,-8.7404
448,-692,6.73792,8.51013,0,0,0,0,0,0,0,-1,1672,1716,6.73793,-8.5101
455,-692,0,0,0,0,0,0,0,0,0,-1,1679,1716,0,0
462,-692,0,0,0,0,0,0,0,0,0,-1,1686,1716,0,0
469,-692,0,0,0,0,0,0,0,0,0,-1,1693,1716,0,0
476,-692,0,0,0,0,0,0,0,0,0,-1,1700,1716,0,0
483,-692,0,0,0,0,0,0,0,0,0,-1,1707,1716,0,0
490,-692,0,0,0,0,0,0,0,0,0,-1,1714,1716,0,0
497,-692,0,0,0,0,0,0,0,0,0,-1,1721,1716,0,0
504,-692,0,0,0,0,0,0,0,0,0,-1,1728,1716,0,0
511,-692,0,0,0,0,0,0,0,0,0,-1,1735,1716,0,0
518,-692,0,0,0,0,0,0,0,0,0,-1,1742,1716,0,0
525,-692,0,0,0,0,0,0,0,0,0,-1,1749,1716,0,0
532,-692,0,0,0,0,0,0,0,0,0,-1,1756,1716,0,0
539,-692,0,0,0,0,0,0,0,0,0,-1,1763,1716,0,0
546,-692,0,0,0,0,0,0,0,0,0,-1,1770,1716,0,0
553,-692,0,0,0,0,0,0,0,0,0,-1,1777,1716,0,0
560,-692,0,0,0,0,0,0,0,0,0,-1,1784,1716,0,0
567,-692,0,0,0,0,0,0,0,0,0,-1,1791,1716,0,0
574,-692,0,0,0,0,0,0,0,0,0,-1,1798,1716,0,0
581,-692,0,0,0,0,0,0,0,0,0,-1,1805,1716,0,0
588,-692,0,0,0,0,0,0,0,0,0,-1,1812,1716,0,0
595,-692,0,0,0,0,0,0,0,0,0,-1,1819,1716,0,0
602,-692,0,0,0,0,0,0,0,0,0,-1,1826,1716,0,0
609,-692,0,0,0,0,0,0,0,0,0,-1,1833,1716,0,0
616,-692,0,0,0,0,0,0,0,0,0,-1,1840,1716,0,0
623,-692,0,0,0,0,0,0,0,0,0,-1,1847,1716,0,0
630,-692,0,0,0,0,0,0,0,0,0,-1,1854,1716,0,0
637,-692,0,0,0,0,0,0,0,0,0,-1,1861,1716,0,0
644,-692,0,0,0,0,0,0,0,0,0,-1,1868,1716,0,0
651,-692,0,0,0,0,0,0,0,0,0,-1,1875,1716,0,0
658,-692,0,0,0,0,0,0,0,0,0,-1,1882,1716,0,0
665,-692,0,0,0,0,0,0,0,0,0,-1,1889,1716,0,0
672,-692,0,0,0,0,0,0,0,0,0,-1,1896,1716,0,0
679,-692,0,0,0,0,0,0,0,0,0,-1,1903,1716,0,0
686,-692,0,0,0,0,0,0,0,0,0,-1,1910,1716,0,0
693,-692,0,0,0,0,0,0,0,0,0,-1,1917,1716,0,0
700,-692,0,0,0,0,0,0,0,0,0,-1,1924,1716,0,0
707,-692,0,0,0,0,0,0,0,0,0,-1,1931,1716,0,0
714,-692,0,0,0,0,0,0,0,0,0,-1,1938,1716,0,0
721,-692,0,0,0,0,0,0,0,0,0,-1,1945,1716,0,0
728,-692,0,0,0,0,0,0,0,0,0,-1,1952,1716,0,0
735,-692,0,0,0,0,0,0,0,0,0,-1,1959,1716,0,0
742,-692,0,0,0,0,0,0,0,0,0,-1,1966,1716,0,0
749,-692,0,0,0,0,0,0,0,0,0,-1,1973,1716,0,0
756,-692,0,0,0,0,0,0,0,0,0,-1,1980,1716,0,0
763,-692,0,0,0,0,0,0,0,0,0,-1,1987,1716,0,0
770,-692,0,0,0,0,0,0,0,0,0,-1,1994,1716,0,0
777,-692,0,0,0,0,0,0,0,0,0,-1,2001,1716,0,0
784,-692,0,0,0,0,0,0,0,0,0,-1,2008,1716,0,0
791,-692,0,0,0,0,0,0,0,0,0,-1,2015,1716,0,0
798,-692,0,0,0,0,0,0,0,0,0,-1,2022,1716,0,0
805,-692,0,0,0,0,0,0,0,0,0,-1,2029,1716,0,0
812,-692,0,0,0,0,0,0,0,0,0,-1,2036,1716,0,0
-700,-699,0,0,0,0,0,0,0,0,0,-1,524,1723,0,0
-693,-699,0,0,0,0,0,0,0,0,0,-1,531,1723,0,0
-686,-699,0,0,0,0,0,0,0,0,0,-1,538,1723,0,0
-679,-699,0,0,0,0,0,0,0,0,0,-1,545,1723,0,0
-672,-699,0,0,0,0,0,0,0,0,0,-1,552,1723,0,0
-665,-699,0,0,0,0,0,0,0,0,0,-1,559,1723,0,0
-658,-699,0,0,0,0,0,0,0,0,0,-1,566,1723,0,0
-651,-699,0,0,0,0,0,0,0,0,0,-1,573,1723,0,0
-644,-699,0,0,0,0,0,0,0,0,0,-1,580,1723,0,0
-637,-699,0,0,0,0,0,0,0,0,0,-1,587,1723,0,0
-630,-699,0,0,0,0,0,0,0,0,0,-1,594,1723,0,0
-623,-699,0,0,0,0,0,0,0,0,0,-1,601,1723,0,0
-616,-699,0,0,0,0,0,0,0,0,0,-1,608,1723,0,0
-609,-699,0,0,0,0,0,0,0,0,0,-1,615,1723,0,0
-602,-699,0,0,0,0,0,0,0,0,0,-1,622,1723,0,0
-595,-699,0,0,0,0,0,0,0,0,0,-1,629,1723,0,0
-588,-699,0,0,0,0,0,0,0,0,0,-1,636,1723,0,0
-581,-699,0,0,0,0,0,0,0,0,0,-1,643,1723,0,0
-574,-699,0,0,0,0,0,0,0,0,0,-1,650,1723,0,0
-567,-699,0,0,0,0,0,0,0,0,0,-1,657,1723,0,0
-560,-699,0,0,0,0,0,0,0,0,0,-1,664,1723,0,0
-553,-699,0,0,0,0,0,0,0,0,0,-1,671,1723,0,0
-546,-699,0,0,0,0,0,0,0,0,0,-1,678,1723,0,0
-539,-699,0,0,0,0,0,0,0,0,0,-1,685,1723,0,0
-532,-699,0,0,0,0,0,0,0,0,0,-1,692,1723,0,0
-525,-699,0,0,0,0,0,0,0,0,0,-1,699,1723,0,0
-518,-699,0,0,0,0,0,0,0,0,0,-1,706,1723,0,0
-511,-699,0,0,0,0,0,0,0,0,0,-1,713,1723,0,0
-504,-699,0,0,0,0,0,0,0,0,0,-1,720,1723,0,0
-497,-699,0,0,0,0,0,0,0,0,0,-1,727,1723,0,0
-490,-699,0,0,0,0,0,0,0,0,0,-1,734,1723,0,0
-483,-699,0,0,0,0,0,0,0,0,0,-1,741,1723,0,0
-476,-699,0,0,0,0,0,0,0,0,0,-1,748,1723,0,0
-469,-699,0,0,0,0,0,0,0,0,0,-1,755,1723,0,0
-462,-699,0,0,0,0,0,0,0,0,0,-1,762,1723,0,0
-455,-699,0,0,0,0,0,0,0,0,0,-1,769,1723,0,0
-448,-699,0,0,0,0,0,0,0,0,0,-1,776,1723,0,0
-441,-699,0,0,0,0,0,0,0,0,0,-1,783,1723,0,0
-434,-699,0,0,0,0,0,0,0,0,0,-1,790,1723,0,0
-427,-699,0,0,0,0,0,0,0,0,0,-1,797,1723,0,0
-420,-699,0,0,0,0,0,0,0,0,0,-1,804,1723,0,0
-413,-699,0,0,0,0,0,0,0,0,0,-1,811,1723,0,0
-406,-699,0,0,0,0,0,0,0,0,0,-1,818,1723,0,0
-399,-699,0,0,0,0,0,0,0,0,0,-1,825,1723,0,0
-392,-699,0,0,0,0,0,0,0,0,0,-1,832,1723,0,0
-385,-699,0,0,0,0,0,0,0,0,0,-1,839,1723,0,0
-378,-699,0,0,0,0,0,0,0,0,0,-1,846,1723,0,0
-371,-699,0,0,0,0,0,0,0,0,0,-1,853,1723,0,0
-364,-699,0,0,0,0,0,0,0,0,0,-1,860,1723,0,0
-357,-699,0,0,0,0,0,0,0,0,0,-1,867,1723,0,0
-350,-699,0,0,0,0,0,0,0,0,0,-1,874,1723,0,0
-343,-699,0,0,0,0,0,0,0,0,0,-1,881,1723,0,0
-336,-699,0,0,0,0,0,0,0,0,0,-1,888,1723,0,0
-329,-699,0,0,0,0,0,0,0,0,0,-1,895,1723,0,0
-322,-699,0,0,0,0,0,0,0,0,0,-1,902,1723,0,0
-315,-699,4.27734,16.1066,0.0816791,-0.108535,-0.131426,0.148801,-0.175656,-0.472185,0.187539,0.0450976,909,1723,4.27737,-16.1066
-308,-699,4.55981,14.3354,0.0792889,-0.0874374,-0.131431,0.151565,-0.159713,-0.502778,0.179737,0.0470685,916,1723,4.55981,-14.3355
-301,-699,4.72729,12.8752,0.076555,-0.0680839,-0.128105,0.151345,-0.142873,-0.528433,0.16989,0.0490602,923,1723,4.72732,-12.8752
-294,-699,4.01123,11.4454,0,0,0,0,0,0,0,-1,930,1723,4.0112,-11.4454
-287,-699,4.76147,10.1884,0.067502,-0.0354525,-0.109355,0.13689,-0.104841,-0.565417,0.139972,0.0468599,937,1723,4.76149,-10.1883
-280,-699,5.61053,8.9679,0,0,0,0,0,0,0,-1,944,1723,5.61051,-8.96792
-273,-699,6.46356,7.65771,0,0,0,0,0,0,0,-1,951,1723,6.46355,-7.65776
-266,-699,7.146,6.45862,0,0,0,0,0,0,0,-1,958,1723,7.14602,-6.45862
-259,-699,4.31854,8.52515,0,0,0,0,0,0,0,-1,965,1723,4.31852,-8.52512
-252,-699,5.38702,8.3197,0,0,0,0,0,0,0,-1,972,1723,5.38703,-8.31971
-245,-699,3.70776,9.74792,0,0,0,0,0,0,0,-1,979,1723,3.70778,-9.74788
-238,-699,3.6806,10.0701,0,0,0,0,0,0,0,-1,986,1723,3.68061,-10.0701
-231,-699,3.08307,10.1687,0.0211464,0.0281241,0.0134666,0.0385465,0.010724,0.912148,0.0229731,0.0426019,993,1723,3.08305,-10.1687
-224,-699,3.39954,10.5359,0.017735,0.0226333,0.0139991,0.0343959,0.00597245,0.871998,0.0212218,0.0375902,1000,1723,3.39956,-10.5359
-217,-699,3.74414,10.5839,0.0145488,0.0166066,0.013369,0.0289862,0.00216915,0.823803,0.0186432,0.0256092,1007,1723,3.74412,-10.5839
-210,-699,3.80988,10.7212,0.0120492,0.0142861,0.0107074,0.0239333,0.00240201,0.837437,0.0152182,0.0170785,1014,1723,3.8099,-10.7212
-203,-699,3.81665,10.8485,0.00947719,0.01186,0.00831731,0.0190708,0.00226641,0.856538,0.0120298,0.0210114,1021,1723,3.81665,-10.8485
-196,-699,3.80627,10.9586,0.00710402,0.00957396,0.00627231,0.0147317,0.00194626,0.882601,0.00924097,0.0173357,1028,1723,3.80622,-10.9586
-189,-699,3.77905,11.093,0.00511612,0.00739622,0.00434503,0.0107483,0.00176407,0.913696,0.00665588,0.00886497,1035,1723,3.779,-11.093
-182,-699,3.77222,11.2,0.0029746,0.0056113,0.00263208,0.00723674,0.00134916,1.01757,0.00444358,0.0115295,1042,1723,3.77221,-11.1999
-175,-699,3.78125,11.3217,0.00091519,0.003673,0.00101042,0.00400358,0.000584612,1.2546,0.0024971,0.0139807,1049,1723,3.78123,-11.3216
-168,-699,3.81128,11.421,-0.000390805,0.00256358,0.000283932,0.00259062,-0.000417845,1.47585,0.00188189,0.0149031,1056,1723,3.81122,-11.421
-161,-699,3.82031,11.528,-0.00112458,0.00155082,3.40904e-05,0.00155126,-0.00112502,1.55806,0.00155166,0.0128978,1063,1723,3.82036,-11.528
-154,-699,3.80347,11.6392,-0.00122585,0.000813771,-6.77475e-05,0.000816019,-0.0012281,-1.53763,0.00118814,0.0125828,1070,1723,3.8035,-11.6392
-147,-699,3.79407,11.7473,-0.00108662,0.000182822,-2.38488e-05,0.00018327,-0.00108707,-1.55202,0.000792896,0.0134756,1077,1723,3.79412,-11.7473
-140,-699,3.77441,11.822,-0.000836759,-0.000361586,0.000180905,-0.000300552,-0.000897792,1.24541,0.000527691,0.00978536,1084,1723,3.77441,-11.822
-133,-699,3.77014,11.9225,-0.000347231,-0.00108418,0.000393281,-0.000176777,-0.00125463,0.408975,0.000784167,0.00925046,1091,1723,3.77011,-11.9224
-126,-699,3.78625,12.0106,9.75194e-05,-0.00187699,0.000649649,0.000292092,-0.00207156,0.291002,0.00148799,0.0110616,1098,1723,3.78623,-12.0106
-119,-699,3.8136,12.11,0.00062022,-0.00251425,0.000925993,0.000873339,-0.00276737,0.26683,0.00219473,0.015961,1105,1723,3.81358,-12.11
-112,-699,3.7854,12.183,0.00105889,-0.00325912,0.00113261,0.00133794,-0.00353817,0.241567,0.00290918,0.0113136,1112,1723,3.78538,-12.1829
-105,-699,3.78943,12.2733,0.00132456,-0.00388358,0.0013504,0.00165388,-0.0042129,0.239198,0.00349294,0.0113161,1119,1723,3.78941,-12.2734
-98,-699,3.8009,12.3529,0.00151904,-0.00454058,0.00152155,0.00187964,-0.00490118,0.2327,0.00404239,0.0138143,1126,1723,3.80096,-12.3528
-91,-699,3.81628,12.4056,0.00160192,-0.00499407,0.00164783,0.00199067,-0.00538282,0.231682,0.0044047,0.0187212,1133,1723,3.8163,-12.4057
-84,-699,3.82544,12.4982,0.0016143,-0.0052611,0.00174712,0.0020328,-0.00567959,0.235103,0.0046157,0.0206786,1140,1723,3.82546,-12.4982
-77,-699,3.80774,12.5685,0.00150998,-0.00528694,0.00165767,0.00189271,-0.00566968,0.226909,0.00454404,0.0148241,1147,1723,3.8078,-12.5685
-70,-699,3.80298,12.6403,0.00131002,-0.00515146,0.00146767,0.00162777,-0.00546921,0.213205,0.00429286,0.0159711,1154,1723,3.803,-12.6403
-63,-699,3.81567,12.7092,0.00101714,-0.00480104,0.00127494,0.00128425,-0.00506816,0.206525,0.00387839,0.0136198,1161,1723,3.81564,-12.7093
-56,-699,3.81763,12.7626,0.00169677,-0.00405544,0.00128262,0.00196981,-0.00432848,0.209744,0.00372034,0.00989506,1168,1723,3.81767,-12.7625
-49,-699,3.81519,12.8333,0.00280293,-0.00256534,0.00142195,0.00315631,-0.00291873,0.243586,0.00350832,0.0207535,1175,1723,3.81523,-12.8332
-42,-699,3.81946,12.943,0.00326777,-0.00220417,0.00136536,0.00358953,-0.00252593,0.231439,0.00354852,0.0235683,1182,1723,3.81944,-12.943
-35,-699,3.85901,12.9608,0.00349161,-0.000815058,0.0014475,0.00393291,-0.00125635,0.295917,0.00312604,0.0213887,1189,1723,3.85896,-12.9608
-28,-699,3.90356,12.9856,0.00360773,-8.27971e-05,0.00138076,0.00406714,-0.000542203,0.321198,0.00290905,0.0156685,1196,1723,3.90356,-12.9857
-21,-699,3.88708,12.9988,0.00342424,-0.000509216,0.00125828,0.00379232,-0.000877288,0.28458,0.00286576,0.011041,1203,1723,3.88715,-12.9988
-14,-699,3.87769,13.0521,0.00311774,-0.0014708,0.00143223,0.00352809,-0.00188115,0.279036,0.00317091,0.0108256,1210,1723,3.87768,-13.0521
-7,-699,3.87927,13.1085,0.00296416,-0.00204171,0.00145931,0.00335851,-0.00243606,0.263928,0.0033596,0.00893051,1217,1723,3.87927,-13.1085
0,-699,3.90088,13.1431,0.00278159,-0.00348116,0.00108965,0.00296576,-0.00366533,0.167437,0.00383556,0.0110843,1224,1723,3.90085,-13.1431
7,-699,3.93115,13.1757,0.00231284,-0.00424123,0.000869757,0.0024263,-0.00435469,0.129714,0.00396742,0.0171214,1231,1723,3.93112,-13.1756
14,-699,3.9469,13.2076,0.00167318,-0.00529,0.000607279,0.00172575,-0.00534257,0.086344,0.00425526,0.0173417,1238,1723,3.94692,-13.2076
21,-699,3.95447,13.2263,0.00104718,-0.00632996,0.00017152,0.00105116,-0.00633394,0.0232335,0.00461311,0.0154495,1245,1723,3.95444,-13.2263
28,-699,3.94739,13.231,0.000465307,-0.00739553,-0.000398462,0.000485453,-0.00741567,-0.0505169,0.00511329,0.0152786,1252,1723,3.94734,-13.231
35,-699,3.96582,13.2753,-0.000289673,-0.00859175,-0.000856816,-0.000202167,-0.00867926,-0.101776,0.00571997,0.0144606,1259,1723,3.96583,-13.2752
42,-699,4.00684,13.2894,-0.00111158,-0.0088512,-0.00176419,-0.000728416,-0.00923437,-0.213869,0.00592838,0.0136561,1266,1723,4.00688,-13.2894
49,-699,4.03723,13.3071,-0.00211857,-0.00961387,-0.00274117,-0.00122306,-0.0105094,-0.315757,0.00663624,0.0153055,1273,1723,4.03725,-13.3072
56,-699,4.05823,13.33,-0.00271735,-0.0101525,-0.00351248,-0.00132044,-0.0115494,-0.37852,0.00729936,0.0146058,1280,1723,4.05823,-13.3299
63,-699,4.06348,13.3304,-0.00259378,-0.0100678,-0.00392183,-0.000913593,-0.0117479,-0.404764,0.00754589,0.0118776,1287,1723,4.06349,-13.3304
70,-699,4.06824,13.3447,-0.0021988,-0.00994622,-0.00426152,-0.000313507,-0.0118315,-0.416516,0.00778528,0.0104334,1294,1723,4.06825,-13.3447
77,-699,4.05933,13.3434,-0.00152733,-0.0089642,-0.00438055,0.000500184,-0.0109917,-0.433485,0.0075001,0.0112788,1301,1723,4.05933,-13.3434
84,-699,4.04602,13.3193,0.000207013,-0.00822718,-0.00468611,0.00229417,-0.0103143,-0.419015,0.0077549,0.0137916,1308,1723,4.04607,-13.3193
91,-699,4.07263,13.3427,0.00224745,-0.00741848,-0.00485192,0.00426274,-0.00943378,-0.393677,0.00809337,0.0131138,1315,1723,4.07268,-13.3426
98,-699,4.10645,13.3684,0.00416402,-0.00668648,-0.00468545,0.00590723,-0.00842968,-0.356179,0.00832002,0.0114386,1322,1723,4.10649,-13.3684
105,-699,4.11975,13.3665,0.00657832,-0.00523935,-0.00412425,0.0078753,-0.00653633,-0.304684,0.00833252,0.015481,1329,1723,4.11969,-13.3665
112,-699,4.11316,13.3372,0.00944392,-0.00452346,-0.00371109,0.0103687,-0.00544826,-0.244223,0.00927805,0.0224851,1336,1723,4.1132,-13.3372
119,-699,4.12146,13.3237,0.0122642,-0.00361487,-0.00344921,0.012981,-0.00433173,-0.204918,0.010403,0.015992,1343,1723,4.12144,-13.3238
126,-699,4.1416,13.3179,0.0147454,-0.00288667,-0.00321175,0.0153122,-0.00345348,-0.174682,0.011533,0.0150811,1350,1723,4.14155,-13.3178
133,-699,4.17444,13.3013,0.0166758,-0.00233785,-0.00293525,0.0171187,-0.00278067,-0.149733,0.0124433,0.0142019,1357,1723,4.17442,-13.3012
140,-699,4.21411,13.2701,0.0180164,-0.00181716,-0.00284085,0.0184153,-0.00221605,-0.139498,0.0130783,0.0168468,1364,1723,4.21408,-13.2701
147,-699,4.1947,13.2662,0.0186673,-0.00226378,-0.00226838,0.0189103,-0.00250679,-0.106723,0.0135201,0.0132027,1371,1723,4.19473,-13.2662
154,-699,4.17615,13.2437,0.0181853,-0.00177063,-0.00184013,0.0183535,-0.00193889,-0.0911853,0.0129305,0.0132241,1378,1723,4.17612,-13.2437
161,-699,4.21301,13.217,0.0165119,-0.00146673,-0.00174321,0.0166794,-0.00163419,-0.0957712,0.0117024,0.0100124,1385,1723,4.21295,-13.217
168,-699,4.21936,13.1935,0.0142494,-0.00115017,-0.00171715,0.0144385,-0.00133932,-0.109711,0.0101018,0.0107759,1392,1723,4.21937,-13.1935
175,-699,4.2135,13.1595,0.0119133,-0.00149175,-0.00113158,0.0120082,-0.0015866,-0.0836259,0.00858333,0.0122642,1399,1723,4.21355,-13.1595
182,-699,4.23547,13.104,0.00883451,-0.002484,-0.00040348,0.00884887,-0.00249836,-0.0355876,0.00688483,0.0127696,1406,1723,4.23551,-13.1041
189,-699,4.22644,13.0577,0.00409791,-0.00208947,0.00105059,0.00427143,-0.00226299,0.163687,0.00383159,0.0153437,1413,1723,4.22647,-13.0577
196,-699,4.23462,13.0132,0.00136296,-0.00138766,0.00149244,0.00201715,-0.00204184,0.413111,0.00234347,0.0161804,1420,1723,4.23464,-13.0132
203,-699,4.24597,12.9852,0.00098543,-0.00167134,0.00132214,0.00153126,-0.00221717,0.391522,0.0021762,0.0132176,1427,1723,4.24595,-12.9852
210,-699,4.26953,12.9473,0.000508851,-0.00186648,0.00113457,0.000963682,-0.00232131,0.381269,0.00194983,0.0122476,1434,1723,4.26952,-12.9473
217,-699,4.2699,12.8931,7.2442e-05,-0.00193875,0.000852891,0.000385423,-0.00225173,0.351708,0.00164475,0.0131238,1441,1723,4.26984,-12.8931
224,-699,4.2699,12.8312,-6.10492e-05,-0.0018378,0.000824173,0.000262382,-0.00216123,0.373964,0.00153577,0.0151677,1448,1723,4.26984,-12.8312
231,-699,4.29553,12.7623,-0.000172111,-0.00166055,0.000730234,0.000126312,-0.00195898,0.387956,0.00135006,0.0118813,1455,1723,4.29549,-12.7623
238,-699,4.26672,12.6749,-0.000205326,-0.00137125,0.000597122,4.62173e-05,-0.0016228,0.398698,0.00109759,0.0110173,1462,1723,4.26674,-12.675
245,-699,4.26111,12.6128,-0.00022298,-0.00106158,0.00045859,-2.0896e-05,-0.00126366,0.415062,0.000835563,0.0126247,1469,1723,4.26116,-12.6128
252,-699,4.26355,12.5771,-0.00031489,-0.000667999,0.000327189,-0.000119659,-0.00086323,0.537982,0.000540037,0.00992867,1476,1723,4.2635,-12.5771
259,-699,4.25464,12.5221,-0.000448142,-0.000221178,0.000284347,-2.85046e-05,-0.000640815,0.975262,0.000418033,0.0110276,1483,1723,4.25468,-12.5221
266,-699,4.24976,12.4471,-0.00059374,0.00026309,0.000367994,0.000399439,-0.00073009,1.21596,0.000661382,0.0131197,1490,1723,4.24975,-12.4472
273,-699,4.26904,12.3331,-0.00075869,0.000968833,0.000480977,0.00109372,-0.000883576,1.31676,0.00114374,0.0118052,1497,1723,4.26906,-12.3331
280,-699,4.2959,12.2443,-0.00105853,0.00174393,0.000599239,0.00186668,-0.00118128,1.36874,0.00177451,0.0127211,1504,1723,4.29585,-12.2443
287,-699,4.28711,12.1614,-0.0012287,0.0022938,0.000880271,0.00250153,-0.00143643,1.33905,0.00230113,0.0107063,1511,1723,4.28712,-12.1613
294,-699,4.28101,12.0931,-0.00108321,0.00281926,0.00105964,0.00308842,-0.00135237,1.32205,0.00262839,0.0099529,1518,1723,4.28098,-12.0931
301,-699,4.28931,12.0238,-0.000802163,0.00316667,0.00102673,0.00341655,-0.00105204,1.33206,0.00269765,0.0108819,1525,1723,4.2893,-12.0238
308,-699,4.27991,11.9337,-0.000599168,0.0031696,0.00116054,0.0034983,-0.000927875,1.29479,0.00269527,0.0148527,1532,1723,4.27996,-11.9337
315,-699,4.28076,11.814,-3.70367e-05,0.00302375,0.00105646,0.00335298,-0.000366268,1.2687,0.00236688,0.0181806,1539,1723,4.28077,-11.8139
322,-699,4.26111,11.7157,0.000819568,0.00275675,0.000742964,0.00300888,0.000567437,1.24363,0.00184608,0.0194886,1546,1723,4.26116,-11.7157
329,-699,4.23682,11.6047,0.00197286,0.0022944,0.000107303,0.00232692,0.00194034,1.27653,0.00143982,0.0143957,1553,1723,4.23685,-11.6048
336,-699,4.26343,11.5076,0.00306598,0.00282259,0.00254405,0.00549124,0.000397326,0.761499,0.00353584,0.0122397,1560,1723,4.26347,-11.5076
343,-699,4.29187,11.4194,0.0042338,0.00373289,0.00690721,0.0108951,-0.00292841,0.767276,0.00841121,0.0160371,1567,1723,4.29185,-11.4194
350,-699,4.2959,11.3678,0.00541312,0.00457882,0.0107873,0.0157913,-0.0057994,0.766073,0.0129027,0.0249724,1574,1723,4.29592,-11.3678
357,-699,4.24854,11.3475,0.00668016,0.00585301,0.0163762,0.022648,-0.0101148,0.772774,0.0193715,0.0342635,1581,1723,4.24857,-11.3475
364,-699,4.29932,11.1796,0.00758362,0.00803425,0.0237731,0.0315831,-0.0159652,0.790137,0.0279413,0.0379968,1588,1723,4.29929,-11.1796
371,-699,4.47693,10.8473,0.00802434,0.0113263,0.0331072,0.0428237,-0.0234731,0.810311,0.0388161,0.0454921,1595,1723,4.47699,-10.8473
378,-699,4.71741,10.7426,0.00777297,0.0154347,0.0445023,0.0562707,-0.0330631,0.828333,0.0521538,0.0489259,1602,1723,4.71742,-10.7425
385,-699,4.72437,10.5482,0,0,0,0,0,0,0,-1,1609,1723,4.72435,-10.5482
392,-699,4.98376,12.5409,0,0,0,0,0,0,0,-1,1616,1723,4.98372,-12.5409
399,-699,3.91516,9.81726,0,0,0,0,0,0,0,-1,1623,1723,3.9152,-9.81721
406,-699,5.50757,21.6672,0,0,0,0,0,0,0,-1,1630,1723,5.50755,-21.6672
413,-699,4.92773,3.5918,0,0,0,0,0,0,0,-1,1637,1723,4.92777,-3.59182
420,-699,2.15076,7.65527,0,0,0,0,0,0,0,-1,1644,1723,2.15079,-7.65522
427,-699,3.36328,8.2428,0,0,0,0,0,0,0,-1,1651,1723,3.36332,-8.24283
434,-699,4.66455,8.90222,0,0,0,0,0,0,0,-1,1658,1723,4.66456,-8.90223
441,-699,0,0,0,0,0,0,0,0,0,-1,1665,1723,0,0
448,-699,0,0,0,0,0,0,0,0,0,-1,1672,1723,0,0
455,-699,0,0,0,0,0,0,0,0,0,-1,1679,1723,0,0
462,-699,0,0,0,0,0,0,0,0,0,-1,1686,1723,0,0
469,-699,0,0,0,0,0,0,0,0,0,-1,1693,1723,0,0
476,-699,0,0,0,0,0,0,0,0,0,-1,1700,1723,0,0
483,-699,0,0,0,0,0,0,0,0,0,-1,1707,1723,0,0
490,-699,0,0,0,0,0,0,0,0,0,-1,1714,1723,0,0
497,-699,0,0,0,0,0,0,0,0,0,-1,1721,1723,0,0
504,-699,0,0,0,0,0,0,0,0,0,-1,1728,1723,0,0
511,-699,0,0,0,0,0,0,0,0,0,-1,1735,1723,0,0
518,-699,0,0,0,0,0,0,0,0,0,-1,1742,1723,0,0
525,-699,0,0,0,0,0,0,0,0,0,-1,1749,1723,0,0
532,-699,0,0,0,0,0,0,0,0,0,-1,1756,1723,0,0
539,-699,0,0,0,0,0,0,0,0,0,-1,1763,1723,0,0
546,-699,0,0,0,0,0,0,0,0,0,-1,1770,1723,0,0
553,-699,0,0,0,0,0,0,0,0,0,-1,1777,1723,0,0
560,-699,0,0,0,0,0,0,0,0,0,-1,1784,1723,0,0
567,-699,0,0,0,0,0,0,0,0,0,-1,1791,1723,0,0
574,-699,0,0,0,0,0,0,0,0,0,-1,1798,1723,0,0
581,-699,0,0,0,0,0,0,0,0,0,-1,1805,1723,0,0
588,-699,0,0,0,0,0,0,0,0,0,-1,1812,1723,0,0
595,-699,0,0,0,0,0,0,0,0,0,-1,1819,1723,0,0
602,-699,0,0,0,0,0,0,0,0,0,-1,1826,1723,0,0
609,-699,0,0,0,0,0,0,0,0,0,-1,1833,1723,0,0
616,-699,0,0,0,0,0,0,0,0,0,-1,1840,1723,0,0
623,-699,0,0,0,0,0,0,0,0,0,-1,1847,1723,0,0
630,-699,0,0,0,0,0,0,0,0,0,-1,1854,1723,0,0
637,-699,0,0,0,0,0,0,0,0,0,-1,1861,1723,0,0
644,-699,0,0,0,0,0,0,0,0,0,-1,1868,1723,0,0
651,-699,0,0,0,0,0,0,0,0,0,-1,1875,1723,0,0
658,-699,0,0,0,0,0,0,0,0,0,-1,1882,1723,0,0
665,-699,0,0,0,0,0,0,0,0,0,-1,1889,1723,0,0
672,-699,0,0,0,0,0,0,0,0,0,-1,1896,1723,0,0
679,-699,0,0,0,0,0,0,0,0,0,-1,1903,1723,0,0
686,-699,0,0,0,0,0,0,0,0,0,-1,1910,1723,0,0
693,-699,0,0,0,0,0,0,0,0,0,-1,1917,1723,0,0
700,-699,0,0,0,0,0,0,0,0,0,-1,1924,1723,0,0
707,-699,0,0,0,0,0,0,0,0,0,-1,1931,1723,0,0
714,-699,0,0,0,0,0,0,0,0,0,-1,1938,1723,0,0
721,-699,0,0,0,0,0,0,0,0,0,-1,1945,1723,0,0
728,-699,0,0,0,0,0,0,0,0,0,-1,1952,1723,0,0
735,-699,0,0,0,0,0,0,0,0,0,-1,1959,1723,0,0
742,-699,0,0,0,0,0,0,0,0,0,-1,1966,1723,0,0
749,-699,0,0,0,0,0,0,0,0,0,-1,1973,1723,0,0
756,-699,0,0,0,0,0,0,0,0,0,-1,1980,1723,0,0
763,-699,0,0,0,0,0,0,0,0,0,-1,1987,1723,0,0
770,-699,0,0,0,0,0,0,0,0,0,-1,1994,1723,0,0
777,-699,0,0,0,0,0,0,0,0,0,-1,2001,1723,0,0
784,-699,0,0,0,0,0,0,0,0,0,-1,2008,1723,0,0
791,-699,0,0,0,0,0,0,0,0,0,-1,2015,1723,0,0
798,-699,0,0,0,0,0,0,0,0,0,-1,2022,1723,0,0
805,-699,0,0,0,0,0,0,0,0,0,-1,2029,1723,0,0
812,-699,0,0,0,0,0,0,0,0,0,-1,2036,1723,0,0
-700,-706,0,0,0,0,0,0,0,0,0,-1,524,1730,0,0
-693,-706,0,0,0,0,0,0,0,0,0,-1,531,1730,0,0
-686,-706,0,0,0,0,0,0,0,0,0,-1,538,1730,0,0
-679,-706,0,0,0,0,0,0,0,0,0,-1,545,1730,0,0
-672,-706,0,0,0,0,0,0,0,0,0,-1,552,1730,0,0
-665,-706,0,0,0,0,0,0,0,0,0,-1,559,1730,0,0
-658,-706,0,0,0,0,0,0,0,0,0,-1,566,1730,0,0
-651,-706,0,0,0,0,0,0,0,0,0,-1,573,1730,0,0
-644,-706,0,0,0,0,0,0,0,0,0,-1,580,1730,0,0
-637,-706,0,0,0,0,0,0,0,0,0,-1,587,1730,0,0
-630,-706,0,0,0,0,0,0,0,0,0,-1,594,1730,0,0
-623,-706,0,0,0,0,0,0,0,0,0,-1,601,1730,0,0
-616,-706,0,0,0,0,0,0,0,0,0,-1,608,1730,0,0
-609,-706,0,0,0,0,0,0,0,0,0,-1,615,1730,0,0
-602,-706,0,0,0,0,0,0,0,0,0,-1,622,1730,0,0
-595,-706,0,0,0,0,0,0,0,0,0,-1,629,1730,0,0
-588,-706,0,0,0,0,0,0,0,0,0,-1,636,1730,0,0
-581,-706,0,0,0,0,0,0,0,0,0,-1,643,1730,0,0
-574,-706,0,0,0,0,0,0,0,0,0,-1,650,1730,0,0
-567,-706,0,0,0,0,0,0,0,0,0,-1,657,1730,0,0
-560,-706,0,0,0,0,0,0,0,0,0,-1,664,1730,0,0
-553,-706,0,0,0,0,0,0,0,0,0,-1,671,1730,0,0
-546,-706,0,0,0,0,0,0,0,0,0,-1,678,1730,0,0
-539,-706,0,0,0,0,0,0,0,0,0,-1,685,1730,0,0
-532,-706,0,0,0,0,0,0,0,0,0,-1,692,1730,0,0
-525,-706,0,0,0,0,0,0,0,0,0,-1,699,1730,0,0
-518,-706,0,0,0,0,0,0,0,0,0,-1,706,1730,0,0
-511,-706,0,0,0,0,0,0,0,0,0,-1,713,1730,0,0
-504,-706,0,0,0,0,0,0,0,0,0,-1,720,1730,0,0
-497,-706,0,0,0,0,0,0,0,0,0,-1,727,1730,0,0
-490,-706,0,0,0,0,0,0,0,0,0,-1,734,1730,0,0
-483,-706,0,0,0,0,0,0,0,0,0,-1,741,1730,0,0
-476,-706,0,0,0,0,0,0,0,0,0,-1,748,1730,0,0
-469,-706,0,0,0,0,0,0,0,0,0,-1,755,1730,0,0
-462,-706,0,0,0,0,0,0,0,0,0,-1,762,1730,0,0
-455,-706,0,0,0,0,0,0,0,0,0,-1,769,1730,0,0
-448,-706,0,0,0,0,0,0,0,0,0,-1,776,1730,0,0
-441,-706,0,0,0,0,0,0,0,0,0,-1,783,1730,0,0
-434,-706,0,0,0,0,0,0,0,0,0,-1,790,1730,0,0
-427,-706,0,0,0,0,0,0,0,0,0,-1,797,1730,0,0
-420,-706,0,0,0,0,0,0,0,0,0,-1,804,1730,0,0
-413,-706,0,0,0,0,0,0,0,0,0,-1,811,1730,0,0
-406,-706,0,0,0,0,0,0,0,0,0,-1,818,1730,0,0
-399,-706,0,0,0,0,0,0,0,0,0,-1,825,1730,0,0
-392,-706,0,0,0,0,0,0,0,0,0,-1,832,1730,0,0
-385,-706,0,0,0,0,0,0,0,0,0,-1,839,1730,0,0
-378,-706,0,0,0,0,0,0,0,0,0,-1,846,1730,0,0
-371,-706,0,0,0,0,0,0,0,0,0,-1,853,1730,0,0
-364,-706,0,0,0,0,0,0,0,0,0,-1,860,1730,0,0
-357,-706,0,0,0,0,0,0,0,0,0,-1,867,1730,0,0
-350,-706,0,0,0,0,0,0,0,0,0,-1,874,1730,0,0
-343,-706,0,0,0,0,0,0,0,0,0,-1,881,1730,0,0
-336,-706,0,0,0,0,0,0,0,0,0,-1,888,1730,0,0
-329,-706,0,0,0,0,0,0,0,0,0,-1,895,1730,0,0
-322,-706,0,0,0,0,0,0,0,0,0,-1,902,1730,0,0
-315,-706,0,0,0,0,0,0,0,0,0,-1,909,1730,0,0
-308,-706,5.08191,14.6245,0,0,0,0,0,0,0,-1,916,1730,5.08188,-14.6245
-301,-706,5.28516,13.4028,0.0943207,-0.0801676,-0.158122,0.18767,-0.173517,-0.533304,0.208585,0.0499527,923,1730,5.28516,-13.4029
-294,-706,5.65625,12.3273,0,0,0,0,0,0,0,-1,930,1730,5.65622,-12.3272
-287,-706,5.53198,10.7465,0,0,0,0,0,0,0,-1,937,1730,5.53198,-10.7465
-280,-706,6.2359,9.14233,0,0,0,0,0,0,0,-1,944,1730,6.23589,-9.14227
-273,-706,6.99603,7.62598,0,0,0,0,0,0,0,-1,951,1730,6.99603,-7.62603
-266,-706,7.71576,6.43433,0,0,0,0,0,0,0,-1,958,1730,7.71574,-6.43439
-259,-706,2.37415,11.0209,0,0,0,0,0,0,0,-1,965,1730,2.37413,-11.0208
-252,-706,3.05963,10.0499,0,0,0,0,0,0,0,-1,972,1730,3.05962,-10.05
-245,-706,3.63794,9.28613,0,0,0,0,0,0,0,-1,979,1730,3.63792,-9.28608
-238,-706,2.42877,9.71594,0,0,0,0,0,0,0,-1,986,1730,2.42878,-9.71599
-231,-706,2.55933,9.45496,0.0293854,0.0376107,0.0192166,0.0531498,0.0138463,0.890816,0.0318377,0.0423664,993,1730,2.5593,-9.45495
-224,-706,3.13055,10.2909,0.0244989,0.0303969,0.0191575,0.046831,0.00806468,0.861766,0.0289099,0.0442628,1000,1730,3.13054,-10.2908
-217,-706,3.68793,10.4192,0.019949,0.0227903,0.0176669,0.0390936,0.00364571,0.825518,0.0249361,0.0392775,1007,1730,3.68793,-10.4192
-210,-706,3.85303,10.6152,0.0162819,0.0194461,0.0139393,0.0318928,0.00383525,0.841905,0.0201057,0.0374046,1014,1730,3.85301,-10.6153
-203,-706,3.79309,10.9213,0.0125722,0.0160265,0.0106787,0.0251168,0.00348185,0.865574,0.0157131,0.0300829,1021,1730,3.79303,-10.9213
-196,-706,3.86145,10.9949,0.00924667,0.0128649,0.00798478,0.019243,0.00286863,0.896803,0.0119874,0.0222182,1028,1730,3.86142,-10.9949
-189,-706,3.88354,11.0767,0.0065366,0.00992694,0.00546097,0.0139498,0.00251374,0.935891,0.00858551,0.0169564,1035,1730,3.88355,-11.0766
-182,-706,3.90564,11.2131,0.00339158,0.00755759,0.0031827,0.00927833,0.00167084,1.07516,0.00571067,0.0132262,1042,1730,3.90566,-11.2131
-175,-706,3.90466,11.3252,0.000462836,0.00511032,0.00117798,0.00539185,0.00018131,1.33621,0.00353568,0.0151186,1049,1730,3.9046,-11.3252
-168,-706,3.89722,11.4186,-0.00136311,0.00370679,0.000283161,0.00372256,-0.00137888,1.51518,0.00304716,0.0160782,1056,1730,3.89721,-11.4185
-161,-706,3.89722,11.5289,-0.00249473,0.00246906,-5.95558e-05,0.00246977,-0.00249545,-1.5588,0.00286668,0.013046,1063,1730,3.89727,-11.529
-154,-706,3.90222,11.6406,-0.00282899,0.00162818,-0.000238018,0.00164086,-0.00284166,-1.5176,0.00261875,0.0122647,1070,1730,3.90226,-11.6406
-147,-706,3.88599,11.738,-0.00284224,0.000960997,-0.000244934,0.000976707,-0.00285795,-1.50675,0.00230103,0.0118936,1077,1730,3.88602,-11.738
-140,-706,3.87964,11.8423,-0.00268236,0.000557246,-6.92806e-05,0.000558727,-0.00268384,-1.54942,0.00200164,0.011117,1084,1730,3.87968,-11.8423
-133,-706,3.87646,11.916,-0.00217819,8.31684e-05,0.00011623,8.91266e-05,-0.00218415,1.51958,0.0014867,0.00861712,1091,1730,3.87647,-11.916
-126,-706,3.89233,12.0061,-0.00170316,-0.000552252,0.000338968,-0.000459838,-0.00179557,1.30463,0.001077,0.0127346,1098,1730,3.89229,-12.0061
-119,-706,3.89734,12.1343,-0.00106525,-0.000975934,0.000599631,-0.000419302,-0.00162189,0.822569,0.000972115,0.0173579,1105,1730,3.89738,-12.1343
-112,-706,3.88977,12.2212,-0.000458305,-0.00144848,0.000769023,-3.87856e-05,-0.001868,0.4994,0.00123261,0.0120727,1112,1730,3.8898,-12.2212
-105,-706,3.86731,12.2905,-1.66903e-05,-0.00182429,0.000946173,0.000387982,-0.00222896,0.40415,0.00163076,0.00905194,1119,1730,3.86729,-12.2905
-98,-706,3.89294,12.3704,0.000371789,-0.00218622,0.00106734,0.000758639,-0.00257307,0.347716,0.00201641,0.010464,1126,1730,3.89292,-12.3704
-91,-706,3.89185,12.4326,0.000633759,-0.00239137,0.00113345,0.00101132,-0.00276893,0.321545,0.00225979,0.0127768,1133,1730,3.89183,-12.4326
-84,-706,3.86877,12.4844,0.000812812,-0.00247816,0.00123373,0.00122396,-0.0028893,0.321676,0.00243881,0.015036,1140,1730,3.86878,-12.4843
-77,-706,3.88538,12.5692,0.00101986,-0.00245666,0.00123968,0.00141663,-0.00285342,0.309756,0.0025114,0.0157437,1147,1730,3.88537,-12.5692
-70,-706,3.87317,12.6652,0.00102062,-0.00240286,0.00105029,0.00131715,-0.00269939,0.275172,0.00236428,0.018274,1154,1730,3.87314,-12.6651
-63,-706,3.87122,12.7174,0.000814489,-0.0022238,0.000865486,0.00104373,-0.00245305,0.258928,0.0020728,0.0136494,1161,1730,3.87123,-12.7174
-56,-706,3.89038,12.7676,0.00117803,-0.00192419,0.000749714,0.00134971,-0.00209587,0.225115,0.0020048,0.0129943,1168,1730,3.89034,-12.7675
-49,-706,3.86609,12.8438,0.00184921,-0.00118719,0.000736778,0.00201854,-0.00135653,0.225908,0.00196105,0.0129661,1175,1730,3.86606,-12.8437
-42,-706,3.86108,12.9025,0.00221346,-0.0010981,0.000610052,0.00232227,-0.00120691,0.176503,0.00207121,0.0174713,1182,1730,3.86106,-12.9024
-35,-706,3.8866,12.934,0.00245578,-0.000511736,0.000539472,0.00255081,-0.000606765,0.174363,0.00193477,0.0168078,1189,1730,3.88658,-12.934
-28,-706,3.92395,12.9774,0.00262559,-0.000278046,0.000408535,0.00268198,-0.000334431,0.137151,0.00190925,0.00997764,1196,1730,3.92389,-12.9774
-21,-706,3.92419,13.0212,0.00259406,-0.000748746,0.000289354,0.00261892,-0.000773607,0.0857107,0.00205299,0.0103644,1203,1730,3.92418,-13.0212
-14,-706,3.927,13.0586,0.00247695,-0.00161297,0.000389956,0.0025138,-0.00164982,0.0942145,0.00242106,0.0105083,1210,1730,3.92704,-13.0586
-7,-706,3.93262,13.1,0.00247374,-0.00227561,0.000418362,0.00251031,-0.00231218,0.0871933,0.00278505,0.00869829,1217,1730,3.93267,-13.1
0,-706,3.93103,13.1521,0.00246247,-0.00353198,0.000280295,0.00247554,-0.00354506,0.0466235,0.00349423,0.0124961,1224,1730,3.93107,-13.1521
7,-706,3.94897,13.1934,0.00222856,-0.00422519,0.000279574,0.00224065,-0.00423728,0.0432118,0.00379879,0.0149926,1231,1730,3.94896,-13.1934
14,-706,3.95007,13.2161,0.00185555,-0.00514848,0.000192735,0.00186085,-0.00515378,0.02749,0.00419601,0.0153204,1238,1730,3.95007,-13.2161
21,-706,3.96265,13.218,0.00149659,-0.00604016,-7.75246e-06,0.00149659,-0.00604017,-0.00102862,0.00460739,0.0118908,1245,1730,3.96265,-13.218
28,-706,3.9696,13.231,0.00116955,-0.00686889,-0.000293837,0.00118028,-0.00687961,-0.036489,0.00502624,0.012164,1252,1730,3.96963,-13.231
35,-706,3.9812,13.2808,0.000739739,-0.00766748,-0.000495817,0.000768879,-0.00769662,-0.0587039,0.00540563,0.0144492,1259,1730,3.9812,-13.2808
42,-706,3.99817,13.3231,0.000220515,-0.00777663,-0.00108862,0.000366055,-0.00792217,-0.132904,0.0054076,0.0124143,1266,1730,3.99819,-13.3231
49,-706,4.01392,13.3362,-0.000464249,-0.00822164,-0.00174054,-9.16193e-05,-0.00859427,-0.210905,0.00569922,0.0134766,1273,1730,4.01387,-13.3362
56,-706,4.04102,13.3551,-0.000846576,-0.00848528,-0.00228626,-0.000214586,-0.00911727,-0.269695,0.00600793,0.0124585,1280,1730,4.04098,-13.3551
63,-706,4.04773,13.3567,-0.00070016,-0.00822793,-0.00257575,9.68017e-05,-0.00902489,-0.300067,0.00604912,0.010587,1287,1730,4.04775,-13.3567
70,-706,4.04187,13.343,-0.000473332,-0.00791336,-0.00281932,0.000474317,-0.00886101,-0.324262,0.00607162,0.0113908,1294,1730,4.04184,-13.343
77,-706,4.04382,13.3518,-0.000117519,-0.00696717,-0.00288211,0.000933811,-0.0080185,-0.349779,0.00568257,0.0112789,1301,1730,4.04377,-13.3518
84,-706,4.04919,13.3531,0.00101414,-0.00627756,-0.00309104,0.00214812,-0.00741154,-0.351615,0.00579142,0.00966074,1308,1730,4.04922,-13.3532
91,-706,4.07397,13.3739,0.0024226,-0.00546032,-0.00326009,0.00359615,-0.00663387,-0.345532,0.00599247,0.0106823,1315,1730,4.07394,-13.3739
98,-706,4.07397,13.3862,0.00363836,-0.00473903,-0.00311953,0.00467237,-0.00577303,-0.320066,0.00604181,0.01436,1322,1730,4.07395,-13.3863
105,-706,4.08752,13.3896,0.00519034,-0.00360501,-0.00276671,0.00598827,-0.00440293,-0.280782,0.00602259,0.0159681,1329,1730,4.08756,-13.3897
112,-706,4.09021,13.3801,0.0070762,-0.00301688,-0.00244388,0.00763681,-0.00357749,-0.225491,0.00661446,0.0153585,1336,1730,4.09023,-13.3801
119,-706,4.1134,13.3865,0.00893759,-0.00224029,-0.00215774,0.00933965,-0.00264235,-0.184221,0.0072691,0.0123431,1343,1730,4.11339,-13.3865
126,-706,4.1189,13.3616,0.0105834,-0.00153439,-0.00193299,0.0108842,-0.00183526,-0.154414,0.00793894,0.0128669,1350,1730,4.11888,-13.3616
133,-706,4.12781,13.3259,0.0118314,-0.00099615,-0.00169026,0.0120504,-0.00121513,-0.128839,0.00846774,0.0118438,1357,1730,4.1278,-13.3259
140,-706,4.15173,13.2738,0.012615,-0.000548092,-0.00159251,0.012805,-0.000738016,-0.118701,0.00879298,0.012299,1364,1730,4.15171,-13.2738
147,-706,4.18127,13.2279,0.0129723,-0.000663114,-0.00112502,0.0130645,-0.000755313,-0.08177,0.00897204,0.0201743,1371,1730,4.18124,-13.2279
154,-706,4.17285,13.2285,0.0125353,-0.000116902,-0.000799561,0.0125857,-0.000167231,-0.0628619,0.00844674,0.0188652,1378,1730,4.17286,-13.2285
161,-706,4.16321,13.2096,0.0112243,0.000202242,-0.000732709,0.0112728,0.000153747,-0.066089,0.00746448,0.0104292,1385,1730,4.16323,-13.2096
168,-706,4.16736,13.167,0.00949786,0.00042994,-0.000776275,0.00956383,0.000363966,-0.0847846,0.0062581,0.0101979,1392,1730,4.16735,-13.167
175,-706,4.17188,13.1353,0.00784753,0.000105499,-0.000539329,0.00788492,6.8109e-05,-0.0692169,0.00523406,0.00963818,1399,1730,4.17189,-13.1352
182,-706,4.18237,13.0922,0.00588962,-0.000642166,-0.000305596,0.00590389,-0.000656432,-0.0466501,0.00417199,0.00966479,1406,1730,4.18242,-13.0921
189,-706,4.1875,13.03,0.00293869,-0.000361676,0.00038255,0.00298245,-0.000405438,0.1139,0.00213631,0.0127982,1413,1730,4.18746,-13.0301
196,-706,4.20093,13.0056,0.00101463,-0.00024718,0.000751824,0.0013652,-0.000597743,0.436312,0.00116182,0.0117739,1420,1730,4.20099,-13.0056
203,-706,4.21436,12.973,0.000750939,-0.000306493,0.000591407,0.00101551,-0.000571063,0.420654,0.00092791,0.0125992,1427,1730,4.21432,-12.9731
210,-706,4.2179,12.9254,0.000398616,-0.000331651,0.000418477,0.000588861,-0.000521896,0.426684,0.000641684,0.0112865,1434,1730,4.21793,-12.9254
217,-706,4.20117,12.8905,6.20451e-05,-0.000294023,0.000184586,0.000140464,-0.000372442,0.401732,0.000306056,0.012904,1441,1730,4.20118,-12.8906
224,-706,4.1676,12.8286,-7.74834e-05,-0.00017939,0.000142686,2.30743e-05,-0.000279948,0.613905,0.000194779,0.0184814,1448,1730,4.16759,-12.8286
231,-706,4.20972,12.7545,-0.000245378,-0.000101034,9.86354e-05,-5.09862e-05,-0.000295426,1.10124,0.000182347,0.0130586,1455,1730,4.20971,-12.7545
238,-706,4.20752,12.6887,-0.000323445,8.96351e-05,1.42317e-05,9.01248e-05,-0.000323935,1.5364,0.000251441,0.00908838,1462,1730,4.2075,-12.6887
245,-706,4.20789,12.6147,-0.000389922,0.000280409,-7.08372e-05,0.000287813,-0.000397326,-1.46665,0.000397246,0.0120086,1469,1730,4.20783,-12.6148
252,-706,4.20764,12.5608,-0.000620876,0.000693563,-0.000122552,0.000704891,-0.000632205,-1.47862,0.000772353,0.0108037,1476,1730,4.20759,-12.5608
259,-706,4.2157,12.5038,-0.000910919,0.00117306,-4.10239e-05,0.00117387,-0.000911727,-1.55112,0.00120729,0.0121942,1483,1730,4.21566,-12.5038
266,-706,4.20984,12.4415,-0.00118692,0.00172797,0.000217841,0.00174416,-0.00120311,1.49661,0.00171114,0.0130985,1490,1730,4.2098,-12.4416
273,-706,4.21716,12.3293,-0.00144335,0.0025152,0.000489608,0.00257485,-0.00150301,1.44955,0.00238131,0.0124703,1497,1730,4.21715,-12.3293
280,-706,4.21973,12.2258,-0.0018829,0.00332332,0.000791034,0.00344086,-0.00200044,1.42329,0.00317801,0.0100701,1504,1730,4.21971,-12.2259
287,-706,4.19824,12.1376,-0.00211677,0.00392307,0.00126211,0.0041762,-0.0023699,1.37286,0.00382705,0.0103142,1511,1730,4.19823,-12.1376
294,-706,4.20239,12.0734,-0.00191267,0.00452336,0.00154609,0.0048755,-0.00226481,1.34685,0.00421331,0.0101603,1518,1730,4.20241,-12.0734
301,-706,4.21045,11.9987,-0.00153408,0.00492121,0.00155854,0.0052778,-0.00189067,1.34587,0.00428996,0.00925702,1525,1730,4.21047,-11.9987
308,-706,4.21289,11.9044,-0.00126374,0.00491528,0.00181112,0.005407,-0.00175546,1.30568,0.00431066,0.010299,1532,1730,4.21295,-11.9044
315,-706,4.22095,11.8181,-0.000485998,0.00473864,0.00174435,0.0052675,-0.00101485,1.27642,0.00389428,0.0169192,1539,1730,4.2209,-11.8181
322,-706,4.22644,11.7172,0.000718953,0.00434012,0.0014013,0.00481904,0.000240029,1.24147,0.00313575,0.0183464,1546,1730,4.2264,-11.7172
329,-706,4.18787,11.6102,0.00234013,0.0036564,0.000636403,0.00391377,0.00208276,1.18649,0.00226117,0.015206,1553,1730,4.18782,-11.6102
336,-706,4.14514,11.4886,0.00388559,0.00441718,0.0042214,0.00838115,-7.83815e-05,0.816839,0.00561374,0.0207862,1560,1730,4.14511,-11.4887
343,-706,4.19788,11.3821,0.00547968,0.00570226,0.0106903,0.0162819,-0.00509991,0.790603,0.0128952,0.0303802,1567,1730,4.19785,-11.382
350,-706,4.24341,11.3378,0.00709618,0.0069486,0.0165753,0.0235978,-0.00955303,0.783172,0.0197039,0.0379737,1574,1730,4.24339,-11.3377
357,-706,4.12561,11.5303,0.00888725,0.00880021,0.0249687,0.0338125,-0.016125,0.784527,0.0294281,0.0447479,1581,1730,4.12557,-11.5303
364,-706,4.09802,11.4574,0,0,0,0,0,0,0,-1,1588,1730,4.09801,-11.4573
371,-706,4.36169,10.7079,0,0,0,0,0,0,0,-1,1595,1730,4.36172,-10.7079
378,-706,4.7522,10.6327,0,0,0,0,0,0,0,-1,1602,1730,4.75216,-10.6327
385,-706,3.59973,10.9214,0.00992148,0.0299388,0.0850696,0.105587,-0.0657262,0.843955,0.0997959,0.044902,1609,1730,3.59973,-10.9214
392,-706,3.42236,11.9617,0.00867576,0.0372929,0.104347,0.128308,-0.0823389,0.853536,0.122578,0.0473416,1616,1730,3.42241,-11.9617
399,-706,3.21667,13.4043,0,0,0,0,0,0,0,-1,1623,1730,3.21671,-13.4043
406,-706,3.80188,18.3816,0,0,0,0,0,0,0,-1,1630,1730,3.80184,-18.3815
413,-706,4.23645,20.028,0,0,0,0,0,0,0,-1,1637,1730,4.23649,-20.0279
420,-706,5.7926,4.15125,0,0,0,0,0,0,0,-1,1644,1730,5.79255,-4.15128
427,-706,0,0,0,0,0,0,0,0,0,-1,1651,1730,0,0
434,-706,0,0,0,0,0,0,0,0,0,-1,1658,1730,0,0
441,-706,0,0,0,0,0,0,0,0,0,-1,1665,1730,0,0
448,-706,0,0,0,0,0,0,0,0,0,-1,1672,1730,0,0
455,-706,0,0,0,0,0,0,0,0,0,-1,1679,1730,0,0
462,-706,0,0,0,0,0,0,0,0,0,-1,1686,1730,0,0
469,-706,0,0,0,0,0,0,0,0,0,-1,1693,1730,0,0
476,-706,0,0,0,0,0,0,0,0,0,-1,1700,1730,0,0
483,-706,0,0,0,0,0,0,0,0,0,-1,1707,1730,0,0
490,-706,0,0,0,0,0,0,0,0,0,-1,1714,1730,0,0
497,-706,0,0,0,0,0,0,0,0,0,-1,1721,1730,0,0
504,-706,0,0,0,0,0,0,0,0,0,-1,1728,1730,0,0
511,-706,0,0,0,0,0,0,0,0,0,-1,1735,1730,0,0
518,-706,0,0,0,0,0,0,0,0,0,-1,1742,1730,0,0
525,-706,0,0,0,0,0,0,0,0,0,-1,1749,1730,0,0
532,-706,0,0,0,0,0,0,0,0,0,-1,1756,1730,0,0
539,-706,0,0,0,0,0,0,0,0,0,-1,1763,1730,0,0
546,-706,0,0,0,0,0,0,0,0,0,-1,1770,1730,0,0
553,-706,0,0,0,0,0,0,0,0,0,-1,1777,1730,0,0
560,-706,0,0,0,0,0,0,0,0,0,-1,1784,1730,0,0
567,-706,0,0,0,0,0,0,0,0,0,-1,1791,1730,0,0
574,-706,0,0,0,0,0,0,0,0,0,-1,1798,1730,0,0
581,-706,0,0,0,0,0,0,0,0,0,-1,1805,1730,0,0
588,-706,0,0,0,0,0,0,0,0,0,-1,1812,1730,0,0
595,-706,0,0,0,0,0,0,0,0,0,-1,1819,1730,0,0
602,-706,0,0,0,0,0,0,0,0,0,-1,1826,1730,0,0
609,-706,0,0,0,0,0,0,0,0,0,-1,1833,1730,0,0
616,-706,0,0,0,0,0,0,0,0,0,-1,1840,1730,0,0
623,-706,0,0,0,0,0,0,0,0,0,-1,1847,1730,0,0
630,-706,0,0,0,0,0,0,0,0,0,-1,1854,1730,0,0
637,-706,0,0,0,0,0,0,0,0,0,-1,1861,1730,0,0
644,-706,0,0,0,0,0,0,0,0,0,-1,1868,1730,0,0
651,-706,0,0,0,0,0,0,0,0,0,-1,1875,1730,0,0
658,-706,0,0,0,0,0,0,0,0,0,-1,1882,1730,0,0
665,-706,0,0,0,0,0,0,0,0,0,-1,1889,1730,0,0
672,-706,0,0,0,0,0,0,0,0,0,-1,1896,1730,0,0
679,-706,0,0,0,0,0,0,0,0,0,-1,1903,1730,0,0
686,-706,0,0,0,0,0,0,0,0,0,-1,1910,1730,0,0
693,-706,0,0,0,0,0,0,0,0,0,-1,1917,1730,0,0
700,-706,0,0,0,0,0,0,0,0,0,-1,1924,1730,0,0
707,-706,0,0,0,0,0,0,0,0,0,-1,1931,1730,0,0
714,-706,0,0,0,0,0,0,0,0,0,-1,1938,1730,0,0
721,-706,0,0,0,0,0,0,0,0,0,-1,1945,1730,0,0
728,-706,0,0,0,0,0,0,0,0,0,-1,1952,1730,0,0
735,-706,0,0,0,0,0,0,0,0,0,-1,1959,1730,0,0
742,-706,0,0,0,0,0,0,0,0,0,-1,1966,1730,0,0
749,-706,0,0,0,0,0,0,0,0,0,-1,1973,1730,0,0
756,-706,0,0,0,0,0,0,0,0,0,-1,1980,1730,0,0
763,-706,0,0,0,0,0,0,0,0,0,-1,1987,1730,0,0
770,-706,0,0,0,0,0,0,0,0,0,-1,1994,1730,0,0
777,-706,0,0,0,0,0,0,0,0,0,-1,2001,1730,0,0
784,-706,0,0,0,0,0,0,0,0,0,-1,2008,1730,0,0
791,-706,0,0,0,0,0,0,0,0,0,-1,2015,1730,0,0
798,-706,0,0,0,0,0,0,0,0,0,-1,2022,1730,0,0
805,-706,0,0,0,0,0,0,0,0,0,-1,2029,1730,0,0
812,-706,0,0,0,0,0,0,0,0,0,-1,2036,1730,0,0
-700,-713,0,0,0,0,0,0,0,0,0,-1,524,1737,0,0
-693,-713,0,0,0,0,0,0,0,0,0,-1,531,1737,0,0
-686,-713,0,0,0,0,0,0,0,0,0,-1,538,1737,0,0
-679,-713,0,0,0,0,0,0,0,0,0,-1,545,1737,0,0
-672,-713,0,0,0,0,0,0,0,0,0,-1,552,1737,0,0
-665,-713,0,0,0,0,0,0,0,0,0,-1,559,1737,0,0
-658,-713,0,0,0,0,0,0,0,0,0,-1,566,1737,0,0
-651,-713,0,0,0,0,0,0,0,0,0,-1,573,1737,0,0
-644,-713,0,0,0,0,0,0,0,0,0,-1,580,1737,0,0
-637,-713,0,0,0,0,0,0,0,0,0,-1,587,1737,0,0
-630,-713,0,0,0,0,0,0,0,0,0,-1,594,1737,0,0
-623,-713,0,0,0,0,0,0,0,0,0,-1,601,1737,0,0
-616,-713,0,0,0,0,0,0,0,0,0,-1,608,1737,0,0
-609,-713,0,0,0,0,0,0,0,0,0,-1,615,1737,0,0
-602,-713,0,0,0,0,0,0,0,0,0,-1,622,1737,0,0
-595,-713,0,0,0,0,0,0,0,0,0,-1,629,1737,0,0
-588,-713,0,0,0,0,0,0,0,0,0,-1,636,1737,0,0
-581,-713,0,0,0,0,0,0,0,0,0,-1,643,1737,0,0
-574,-713,0,0,0,0,0,0,0,0,0,-1,650,1737,0,0
-567,-713,0,0,0,0,0,0,0,0,0,-1,657,1737,0,0
-560,-713,0,0,0,0,0,0,0,0,0,-1,664,1737,0,0
-553,-713,0,0,0,0,0,0,0,0,0,-1,671,1737,0,0
-546,-713,0,0,0,0,0,0,0,0,0,-1,678,1737,0,0
-539,-713,0,0,0,0,0,0,0,0,0,-1,685,1737,0,0
-532,-713,0,0,0,0,0,0,0,0,0,-1,692,1737,0,0
-525,-713,0,0,0,0,0,0,0,0,0,-1,699,1737,0,0
-518,-713,0,0,0,0,0,0,0,0,0,-1,706,1737,0,0
-511,-713,0,0,0,0,0,0,0,0,0,-1,713,1737,0,0
-504,-713,0,0,0,0,0,0,0,0,0,-1,720,1737,0,0
-497,-713,0,0,0,0,0,0,0,0,0,-1,727,1737,0,0
-490,-713,0,0,0,0,0,0,0,0,0,-1,734,1737,0,0
-483,-713,0,0,0,0,0,0,0,0,0,-1,741,1737,0,0
-476,-713,0,0,0,0,0,0,0,0,0,-1,748,1737,0,0
-469,-713,0,0,0,0,0,0,0,0,0,-1,755,1737,0,0
-462,-713,0,0,0,0,0,0,0,0,0,-1,762,1737,0,0
-455,-713,0,0,0,0,0,0,0,0,0,-1,769,1737,0,0
-448,-713,0,0,0,0,0,0,0,0,0,-1,776,1737,0,0
-441,-713,0,0,0,0,0,0,0,0,0,-1,783,1737,0,0
-434,-713,0,0,0,0,0,0,0,0,0,-1,790,1737,0,0
-427,-713,0,0,0,0,0,0,0,0,0,-1,797,1737,0,0
-420,-713,0,0,0,0,0,0,0,0,0,-1,804,1737,0,0
-413,-713,0,0,0,0,0,0,0,0,0,-1,811,1737,0,0
-406,-713,0,0,0,0,0,0,0,0,0,-1,818,1737,0,0
-399,-713,0,0,0,0,0,0,0,0,0,-1,825,1737,0,0
-392,-713,0,0,0,0,0,0,0,0,0,-1,832,1737,0,0
-385,-713,0,0,0,0,0,0,0,0,0,-1,839,1737,0,0
-378,-713,0,0,0,0,0,0,0,0,0,-1,846,1737,0,0
-371,-713,0,0,0,0,0,0,0,0,0,-1,853,1737,0,0
-364,-713,0,0,0,0,0,0,0,0,0,-1,860,1737,0,0
-357,-713,0,0,0,0,0,0,0,0,0,-1,867,1737,0,0
-350,-713,0,0,0,0,0,0,0,0,0,-1,874,1737,0,0
-343,-713,0,0,0,0,0,0,0,0,0,-1,881,1737,0,0
-336,-713,0,0,0,0,0,0,0,0,0,-1,888,1737,0,0
-329,-713,0,0,0,0,0,0,0,0,0,-1,895,1737,0,0
-322,-713,0,0,0,0,0,0,0,0,0,-1,902,1737,0,0
-315,-713,0,0,0,0,0,0,0,0,0,-1,909,1737,0,0
-308,-713,0,0,0,0,0,0,0,0,0,-1,916,1737,0,0
-301,-713,0,0,0,0,0,0,0,0,0,-1,923,1737,0,0
-294,-713,6.3161,13.046,0,0,0,0,0,0,0,-1,930,1737,6.31612,-13.046
-287,-713,6.25946,11.4591,0,0,0,0,0,0,0,-1,937,1737,6.25947,-11.4591
-280,-713,4.40155,8.97046,0,0,0,0,0,0,0,-1,944,1737,4.40153,-8.97041
-273,-713,7.62915,7.59583,0,0,0,0,0,0,0,-1,951,1737,7.62917,-7.59584
-266,-713,5.24536,7.62744,0,0,0,0,0,0,0,-1,958,1737,5.24535,-7.62748
-259,-713,2.67322,10.5743,0,0,0,0,0,0,0,-1,965,1737,2.67324,-10.5743
-252,-713,3.55267,8.86694,0,0,0,0,0,0,0,-1,972,1737,3.55265,-8.86693
-245,-713,2.70886,15.8289,0,0,0,0,0,0,0,-1,979,1737,2.70888,-15.8288
-238,-713,3.24066,15.1495,0,0,0,0,0,0,0,-1,986,1737,3.24064,-15.1495
-231,-713,1.80499,8.91479,0,0,0,0,0,0,0,-1,993,1737,1.80499,-8.91485
-224,-713,3.52472,10.2255,0,0,0,0,0,0,0,-1,1000,1737,3.5247,-10.2255
-217,-713,3.76978,10.1616,0.0268521,0.0307919,0.0228578,0.0517645,0.00587953,0.828382,0.0327264,0.0474046,1007,1737,3.76976,-10.1617
-210,-713,3.90808,10.4492,0.0215968,0.026092,0.0177542,0.0417403,0.00594855,0.848362,0.0260712,0.0496678,1014,1737,3.90811,-10.4492
-203,-713,3.93457,10.6299,0.0163742,0.02136,0.0134368,0.0325332,0.00520099,0.877118,0.0201798,0.0438798,1021,1737,3.9346,-10.6299
-196,-713,4.1228,10.8907,0.0118254,0.0170385,0.00998032,0.0247471,0.00411691,0.913129,0.0153114,0.0403143,1028,1737,4.12277,-10.8907
-189,-713,4.24146,10.8881,0,0,0,0,0,0,0,-1,1035,1737,4.24146,-10.8881
-182,-713,4.03198,11.1996,0.00362674,0.00988923,0.00366487,0.0115784,0.00193762,1.13892,0.00716095,0.024223,1042,1737,4.03202,-11.1996
-175,-713,4.05347,11.3278,-0.000351543,0.00680541,0.00126827,0.00702352,-0.000569645,1.40049,0.00488331,0.0223915,1049,1737,4.05344,-11.3278
-168,-713,4.04773,11.3804,-0.00275723,0.00496474,0.000191677,0.00496949,-0.00276198,1.54599,0.00452401,0.0241291,1056,1737,4.04772,-11.3803
-161,-713,4.01404,11.5194,-0.004299,0.00338518,-0.000249833,0.00339329,-0.00430711,-1.53833,0.00445625,0.0129514,1063,1737,4.01403,-11.5195
-154,-713,3.99158,11.619,-0.00484006,0.00236367,-0.000497406,0.00239785,-0.00487424,-1.50218,0.00427892,0.0110111,1070,1737,3.99158,-11.619
-147,-713,3.97534,11.7413,-0.00495111,0.00161283,-0.000529054,0.0016552,-0.00499348,-1.49088,0.00399665,0.018012,1077,1737,3.97539,-11.7414
-140,-713,3.98352,11.8624,-0.00480387,0.00132752,-0.000339992,0.00134631,-0.00482267,-1.51557,0.00374543,0.0177161,1084,1737,3.9835,-11.8624
-133,-713,3.97449,11.9165,-0.00419034,0.00107896,-0.000138974,0.00108262,-0.00419401,-1.54445,0.00321816,0.0107492,1091,1737,3.9745,-11.9165
-126,-713,3.96338,11.9867,-0.00359971,0.000578893,9.19918e-05,0.000580917,-0.00360174,1.5488,0.00261638,0.0164406,1098,1737,3.96344,-11.9867
-119,-713,3.96436,12.1154,-0.00276163,0.000344665,0.000374366,0.000389146,-0.00280611,1.45253,0.00201303,0.0248313,1105,1737,3.96438,-12.1153
-112,-713,3.95337,12.2101,-0.00191769,0.000107596,0.00053547,0.000240454,-0.00205055,1.32759,0.00145383,0.0126038,1112,1737,3.95339,-12.21
-105,-713,3.95947,12.278,-0.00125009,-7.75574e-05,0.00069278,0.000243729,-0.00157138,1.13656,0.00113757,0.0103408,1119,1737,3.95952,-12.278
-98,-713,3.96924,12.3466,-0.00063348,-0.000213625,0.000778548,0.000382801,-0.00122991,0.917086,0.000972971,0.00988434,1126,1737,3.96929,-12.3466
-91,-713,3.94507,12.425,-0.000179924,-0.000247525,0.000792452,0.000579448,-0.0010069,0.764085,0.000926893,0.0096248,1133,1737,3.94507,-12.425
-84,-713,3.93542,12.4923,0.000140562,-0.000232117,0.000890646,0.000864153,-0.000955708,0.682277,0.00105114,0.00902456,1140,1737,3.93548,-12.4923
-77,-713,3.96436,12.5896,0.000668613,-0.000247886,0.000966479,0.00127998,-0.000859251,0.564024,0.00124302,0.0125959,1147,1737,3.96433,-12.5895
-70,-713,3.95581,12.6621,0.000833237,-0.000361829,0.00070191,0.00115751,-0.0006861,0.432775,0.00107594,0.0147429,1154,1737,3.95585,-12.6621
-63,-713,3.95215,12.7043,0.000618171,-0.000344453,0.000486093,0.000820926,-0.000547208,0.39517,0.000795145,0.0129628,1161,1737,3.95213,-12.7044
-56,-713,3.94568,12.7629,0.000686165,-0.00033459,0.00034394,0.000791238,-0.000439663,0.296494,0.000720259,0.0124725,1168,1737,3.94562,-12.763
-49,-713,3.91882,12.8357,0.00092983,-0.000126923,0.000267019,0.000993468,-0.00019056,0.233962,0.000734123,0.0141999,1175,1737,3.9188,-12.8358
-42,-713,3.93164,12.8634,0.00108879,-0.000209772,0.000151375,0.0011062,-0.000227184,0.114526,0.000823705,0.0170394,1182,1737,3.93159,-12.8634
-35,-713,3.95776,12.9091,0.00123025,-0.000108554,4.7557e-05,0.00123193,-0.000110241,0.0354625,0.000860394,0.0143262,1189,1737,3.95776,-12.9091
-28,-713,3.98193,12.9778,0.00131855,-0.000135827,-6.52827e-05,0.00132147,-0.000138752,-0.0447671,0.000930687,0.0124589,1196,1737,3.98193,-12.9778
-21,-713,3.95911,13.0383,0.00134548,-0.000573623,-0.000164902,0.00135955,-0.000587689,-0.0850955,0.0011533,0.00972043,1203,1737,3.95906,-13.0383
-14,-713,3.96191,13.0691,0.00134392,-0.00129615,-0.000103866,0.001348,-0.00130023,-0.0392612,0.00152904,0.0109153,1210,1737,3.96185,-13.0691
-7,-713,3.98315,13.1071,0.00141674,-0.00190281,-3.57275e-05,0.00141713,-0.0019032,-0.0107611,0.00192383,0.00907865,1217,1737,3.98317,-13.1071
0,-713,3.98242,13.1466,0.00149355,-0.00306736,-3.29152e-05,0.00149379,-0.0030676,-0.00721629,0.00268526,0.0134095,1224,1737,3.98241,-13.1466
7,-713,3.99536,13.1702,0.00144581,-0.00377944,7.15735e-05,0.00144679,-0.00378042,0.0136942,0.00311657,0.0173599,1231,1737,3.99533,-13.1702
14,-713,4.01013,13.1981,0.00131404,-0.00466539,9.29333e-05,0.00131548,-0.00466684,0.0155372,0.00363006,0.0128631,1238,1737,4.01016,-13.1981
21,-713,4.00378,13.2164,0.00120307,-0.00552975,1.35007e-05,0.0012031,-0.00552978,0.00200519,0.00414615,0.0106274,1245,1737,4.00381,-13.2164
28,-713,3.98096,13.2402,0.00113242,-0.00627038,-0.000135659,0.00113491,-0.00627287,-0.0183172,0.00460705,0.0118777,1252,1737,3.98096,-13.2402
35,-713,3.99377,13.2859,0.00103297,-0.00691635,-0.000251319,0.00104091,-0.00692429,-0.0315731,0.00499942,0.0112954,1259,1737,3.99379,-13.2859
42,-713,4.01929,13.3402,0.000868452,-0.00702201,-0.000690413,0.000928407,-0.00708197,-0.0866225,0.00505925,0.0105675,1266,1737,4.01928,-13.3402
49,-713,4.02917,13.3291,0.000526448,-0.00730147,-0.00118073,0.000700668,-0.00747569,-0.146495,0.00523301,0.0104532,1273,1737,4.02911,-13.3291
56,-713,4.04224,13.3379,0.000390315,-0.00740261,-0.00164452,0.000723138,-0.00773543,-0.199687,0.00541412,0.0107057,1280,1737,4.0422,-13.3379
63,-713,4.03162,13.359,0.000603424,-0.00706847,-0.00193311,0.00106299,-0.00752804,-0.2334,0.00540796,0.0116907,1287,1737,4.0316,-13.359
70,-713,4.0343,13.3427,0.000760333,-0.00665838,-0.00218518,0.00135613,-0.00725417,-0.266183,0.00534581,0.0119974,1294,1737,4.0343,-13.3427
77,-713,4.04785,13.3447,0.000926186,-0.00574342,-0.00229127,0.00163747,-0.00645471,-0.301,0.00494026,0.0127727,1301,1737,4.04781,-13.3448
84,-713,4.0542,13.3813,0.00151436,-0.00503002,-0.0024408,0.00232441,-0.00584008,-0.320443,0.00485726,0.0128273,1308,1737,4.05416,-13.3813
91,-713,4.05981,13.3965,0.00226439,-0.00426823,-0.00255105,0.00314255,-0.00514639,-0.33153,0.00483201,0.0121404,1315,1737,4.05977,-13.3965
98,-713,4.0697,13.3794,0.00283827,-0.00361243,-0.00241382,0.00364149,-0.00441565,-0.321235,0.00465895,0.0115489,1322,1737,4.06967,-13.3794
105,-713,4.08057,13.3729,0.0036006,-0.00260197,-0.00210651,0.00424836,-0.00324973,-0.298328,0.0043418,0.0134048,1329,1737,4.08059,-13.3729
112,-713,4.08728,13.3889,0.00454415,-0.00214655,-0.00175178,0.00497505,-0.00257746,-0.241193,0.00443308,0.0134117,1336,1737,4.08731,-13.389
119,-713,4.09973,13.3894,0.00543981,-0.00155812,-0.00138838,0.0057052,-0.00182351,-0.188871,0.00453519,0.0133117,1343,1737,4.09975,-13.3894
126,-713,4.10083,13.3773,0.00620542,-0.000976667,-0.00108884,0.00636686,-0.00113811,-0.147199,0.0046704,0.0129805,1350,1737,4.10081,-13.3773
133,-713,4.1062,13.3574,0.0067021,-0.000573724,-0.000786229,0.00678609,-0.000657714,-0.106424,0.00475847,0.012778,1357,1737,4.10617,-13.3574
140,-713,4.12244,13.2926,0.00690857,-0.00025607,-0.000607552,0.00695972,-0.000307225,-0.0839994,0.00474554,0.0137271,1364,1737,4.12249,-13.2927
147,-713,4.11694,13.2421,0.00687293,-0.000242267,-0.000231205,0.00688044,-0.000249772,-0.0324489,0.00467244,0.0141866,1371,1737,4.11692,-13.2421
154,-713,4.10681,13.2354,0.00648882,0.000230236,-1.72976e-05,0.00648887,0.000230188,-0.0027638,0.00425126,0.013642,1378,1737,4.10678,-13.2354
161,-713,4.11438,13.2115,0.00562723,0.000536555,1.07445e-05,0.00562726,0.000536533,0.00211061,0.00358607,0.0102414,1385,1737,4.11434,-13.2115
168,-713,4.1145,13.1613,0.00459849,0.000730979,-9.23646e-05,0.00460069,0.000728775,-0.0238641,0.00285538,0.0103459,1392,1737,4.11451,-13.1612
175,-713,4.1355,13.1168,0.00377115,0.000582332,-0.000123588,0.00377593,0.000577549,-0.0386793,0.00234856,0.0130437,1399,1737,4.13545,-13.1168
182,-713,4.1427,13.0959,0.0029087,0.000283855,-0.000200054,0.00292386,0.000268696,-0.0756335,0.00186613,0.0110782,1406,1737,4.14269,-13.096
189,-713,4.14844,13.0543,0.00162616,0.000587776,-6.02926e-05,0.00162965,0.000584287,-0.057805,0.000953348,0.0106931,1413,1737,4.14847,-13.0544
196,-713,4.16943,13.0242,0.000686813,0.00084137,2.33466e-05,0.00084482,0.000683364,1.4241,0.000517853,0.0114337,1420,1737,4.1694,-13.0242
203,-713,4.18567,12.9839,0.000498547,0.00104298,-0.000135032,0.00107463,0.000466896,-1.34056,0.00062221,0.0146834,1427,1737,4.18564,-12.9839
210,-713,4.16138,12.9102,0.000233384,0.00120332,-0.000295653,0.00128633,0.000150369,-1.29706,0.000812086,0.0125833,1434,1737,4.16141,-12.9102
217,-713,4.14502,12.8601,-3.28342e-05,0.00136341,-0.000485558,0.00151567,-0.000185089,-1.26694,0.00107745,0.010667,1441,1737,4.14507,-12.8601
224,-713,4.13733,12.8092,-0.00020038,0.00151514,-0.00052105,0.00166099,-0.000346236,-1.29785,0.00123897,0.0115181,1448,1737,4.13735,-12.8093
231,-713,4.14783,12.7476,-0.000429854,0.00153619,-0.00051849,0.00166454,-0.000558211,-1.32812,0.00133524,0.0104616,1455,1737,4.14783,-12.7476
238,-713,4.14661,12.6753,-0.000530466,0.00165876,-0.000572948,0.00179964,-0.000671347,-1.32969,0.00147537,0.00872116,1462,1737,4.14659,-12.6753
245,-713,4.14502,12.6143,-0.000625257,0.00175078,-0.000620556,0.00190309,-0.000777566,-1.33011,0.0015925,0.0113583,1469,1737,4.14503,-12.6142
252,-713,4.15308,12.551,-0.000995273,0.00219524,-0.000594442,0.0023024,-0.00110243,-1.39245,0.00200606,0.0108838,1476,1737,4.15307,-12.5511
259,-713,4.17334,12.4741,-0.0014535,0.00271785,-0.00037556,0.00275139,-0.00148704,-1.48172,0.00248309,0.0114185,1483,1737,4.1734,-12.4741
266,-713,4.17029,12.431,-0.00188166,0.003357,8.82186e-05,0.00335848,-0.00188315,1.55396,0.00306595,0.010519,1490,1737,4.17023,-12.431
273,-713,4.13989,12.3539,-0.00225505,0.00425148,0.00055716,0.00429885,-0.00230242,1.48599,0.0038689,0.00896253,1497,1737,4.13988,-12.3538
280,-713,4.12817,12.2555,-0.00287369,0.0051234,0.00109802,0.00527142,-0.00302171,1.4368,0.00484641,0.00941186,1504,1737,4.12816,-12.2555
287,-713,4.11707,12.1461,-0.00320913,0.00579523,0.00182733,0.00615194,-0.00356584,1.37801,0.0056764,0.0102132,1511,1737,4.1171,-12.1461
294,-713,4.10889,12.0581,-0.00296983,0.00651026,0.00227202,0.00702665,-0.00348622,1.34731,0.00618328,0.0151161,1518,1737,4.10893,-12.0582
301,-713,4.09363,11.9591,-0.00252301,0.00702066,0.00238361,0.00758287,-0.00308522,1.33917,0.00633906,0.0165837,1525,1737,4.09363,-11.9591
308,-713,4.08203,11.8636,-0.00221122,0.00708508,0.00282167,0.00787449,-0.00300063,1.298,0.00648554,0.0188675,1532,1737,4.08209,-11.8637
315,-713,4.13464,11.8175,-0.00118683,0.00695652,0.0028388,0.00784845,-0.00207875,1.26637,0.00604554,0.0249706,1539,1737,4.13464,-11.8175
322,-713,4.15613,11.71,0.000450523,0.00645574,0.00248846,0.00735289,-0.000446625,1.22478,0.00505738,0.0301186,1546,1737,4.15619,-11.7099
329,-713,4.16956,11.6166,0.0026893,0.00553667,0.00158193,0.00624122,0.00198475,1.1518,0.00368208,0.0355573,1553,1737,4.16951,-11.6165
336,-713,3.90454,11.6699,0.00481713,0.00670059,0.00674044,0.0125648,-0.00104705,0.854806,0.00874645,0.0397305,1560,1737,3.90455,-11.6699
343,-713,4.32202,11.5012,0.00695304,0.00854846,0.016099,0.0238695,-0.008368,0.810153,0.0193163,0.0475535,1567,1737,4.32206,-11.5012
350,-713,4.80127,11.4829,0.00913318,0.010395,0.0247421,0.0345142,-0.014986,0.798145,0.0293109,0.0477491,1574,1737,4.80128,-11.4829
357,-713,3.97791,11.689,0,0,0,0,0,0,0,-1,1581,1737,3.97794,-11.689
364,-713,3.14893,11.0094,0,0,0,0,0,0,0,-1,1588,1737,3.14894,-11.0094
371,-713,4.01392,10.6919,0,0,0,0,0,0,0,-1,1595,1737,4.01388,-10.6918
378,-713,4.65076,10.6481,0,0,0,0,0,0,0,-1,1602,1737,4.65079,-10.6481
385,-713,1.78979,10.5552,0.0128653,0.0426686,0.121463,0.15014,-0.0946063,0.846436,0.142512,0.0439381,1609,1737,1.7898,-10.5551
392,-713,1.72632,11.7313,0.0111563,0.0526984,0.148079,0.181456,-0.117601,0.855079,0.173968,0.0456333,1616,1737,1.72632,-11.7314
399,-713,1.83801,13.4545,0,0,0,0,0,0,0,-1,1623,1737,1.838,-13.4544
406,-713,2.13525,15.2334,0,0,0,0,0,0,0,-1,1630,1737,2.13526,-15.2334
413,-713,2.59546,16.7579,0,0,0,0,0,0,0,-1,1637,1737,2.5955,-16.7579
420,-713,0,0,0,0,0,0,0,0,0,-1,1644,1737,0,0
427,-713,0,0,0,0,0,0,0,0,0,-1,1651,1737,0,0
434,-713,0,0,0,0,0,0,0,0,0,-1,1658,1737,0,0
441,-713,0,0,0,0,0,0,0,0,0,-1,1665,1737,0,0
448,-713,0,0,0,0,0,0,0,0,0,-1,1672,1737,0,0
455,-713,0,0,0,0,0,0,0,0,0,-1,1679,1737,0,0
462,-713,0,0,0,0,0,0,0,0,0,-1,1686,1737,0,0
469,-713,0,0,0,0,0,0,0,0,0,-1,1693,1737,0,0
476,-713,0,0,0,0,0,0,0,0,0,-1,1700,1737,0,0
483,-713,0,0,0,0,0,0,0,0,0,-1,1707,1737,0,0
490,-713,0,0,0,0,0,0,0,0,0,-1,1714,1737,0,0
497,-713,0,0,0,0,0,0,0,0,0,-1,1721,1737,0,0
504,-713,0,0,0,0,0,0,0,0,0,-1,1728,1737,0,0
511,-713,0,0,0,0,0,0,0,0,0,-1,1735,1737,0,0
518,-713,0,0,0,0,0,0,0,0,0,-1,1742,1737,0,0
525,-713,0,0,0,0,0,0,0,0,0,-1,1749,1737,0,0
532,-713,0,0,0,0,0,0,0,0,0,-1,1756,1737,0,0
539,-713,0,0,0,0,0,0,0,0,0,-1,1763,1737,0,0
546,-713,0,0,0,0,0,0,0,0,0,-1,1770,1737,0,0
553,-713,0,0,0,0,0,0,0,0,0,-1,1777,1737,0,0
560,-713,0,0,0,0,0,0,0,0,0,-1,1784,1737,0,0
567,-713,0,0,0,0,0,0,0,0,0,-1,1791,1737,0,0
574,-713,0,0,0,0,0,0,0,0,0,-1,1798,1737,0,0
581,-713,0,0,0,0,0,0,0,0,0,-1,1805,1737,0,0
588,-713,0,0,0,0,0,0,0,0,0,-1,1812,1737,0,0
595,-713,0,0,0,0,0,0,0,0,0,-1,1819,1737,0,0
602,-713,0,0,0,0,0,0,0,0,0,-1,1826,1737,0,0
609,-713,0,0,0,0,0,0,0,0,0,-1,1833,1737,0,0
616,-713,0,0,0,0,0,0,0,0,0,-1,1840,1737,0,0
623,-713,0,0,0,0,0,0,0,0,0,-1,1847,1737,0,0
630,-713,0,0,0,0,0,0,0,0,0,-1,1854,1737,0,0
637,-713,0,0,0,0,0,0,0,0,0,-1,1861,1737,0,0
644,-713,0,0,0,0,0,0,0,0,0,-1,1868,1737,0,0
651,-713,0,0,0,0,0,0,0,0,0,-1,1875,1737,0,0
658,-713,0,0,0,0,0,0,0,0,0,-1,1882,1737,0,0
665,-713,0,0,0,0,0,0,0,0,0,-1,1889,1737,0,0
672,-713,0,0,0,0,0,0,0,0,0,-1,1896,1737,0,0
679,-713,0,0,0,0,0,0,0,0,0,-1,1903,1737,0,0
686,-713,0,0,0,0,0,0,0,0,0,-1,1910,1737,0,0
693,-713,0,0,0,0,0,0,0,0,0,-1,1917,1737,0,0
700,-713,0,0,0,0,0,0,0,0,0,-1,1924,1737,0,0
707,-713,0,0,0,0,0,0,0,0,0,-1,1931,1737,0,0
714,-713,0,0,0,0,0,0,0,0,0,-1,1938,1737,0,0
721,-713,0,0,0,0,0,0,0,0,0,-1,1945,1737,0,0
728,-713,0,0,0,0,0,0,0,0,0,-1,1952,1737,0,0
735,-713,0,0,0,0,0,0,0,0,0,-1,1959,1737,0,0
742,-713,0,0,0,0,0,0,0,0,0,-1,1966,1737,0,0
749,-713,0,0,0,0,0,0,0,0,0,-1,1973,1737,0,0
756,-713,0,0,0,0,0,0,0,0,0,-1,1980,1737,0,0
763,-713,0,0,0,0,0,0,0,0,0,-1,1987,1737,0,0
770,-713,0,0,0,0,0,0,0,0,0,-1,1994,1737,0,0
777,-713,0,0,0,0,0,0,0,0,0,-1,2001,1737,0,0
784,-713,0,0,0,0,0,0,0,0,0,-1,2008,1737,0,0
791,-713,0,0,0,0,0,0,0,0,0,-1,2015,1737,0,0
798,-713,0,0,0,0,0,0,0,0,0,-1,2022,1737,0,0
805,-713,0,0,0,0,0,0,0,0,0,-1,2029,1737,0,0
812,-713,0,0,0,0,0,0,0,0,0,-1,2036,1737,0,0
-700,-720,0,0,0,0,0,0,0,0,0,-1,524,1744,0,0
-693,-720,0,0,0,0,0,0,0,0,0,-1,531,1744,0,0
-686,-720,0,0,0,0,0,0,0,0,0,-1,538,1744,0,0
-679,-720,0,0,0,0,0,0,0,0,0,-1,545,1744,0,0
-672,-720,0,0,0,0,0,0,0,0,0,-1,552,1744,0,0
-665,-720,0,0,0,0,0,0,0,0,0,-1,559,1744,0,0
-658,-720,0,0,0,0,0,0,0,0,0,-1,566,1744,0,0
-651,-720,0,0,0,0,0,0,0,0,0,-1,573,1744,0,0
-644,-720,0,0,0,0,0,0,0,0,0,-1,580,1744,0,0
-637,-720,0,0,0,0,0,0,0,0,0,-1,587,1744,0,0
-630,-720,0,0,0,0,0,0,0,0,0,-1,594,1744,0,0
-623,-720,0,0,0,0,0,0,0,0,0,-1,601,1744,0,0
-616,-720,0,0,0,0,0,0,0,0,0,-1,608,1744,0,0
-609,-720,0,0,0,0,0,0,0,0,0,-1,615,1744,0,0
-602,-720,0,0,0,0,0,0,0,0,0,-1,622,1744,0,0
-595,-720,0,0,0,0,0,0,0,0,0,-1,629,1744,0,0
-588,-720,0,0,0,0,0,0,0,0,0,-1,636,1744,0,0
-581,-720,0,0,0,0,0,0,0,0,0,-1,643,1744,0,0
-574,-720,0,0,0,0,0,0,0,0,0,-1,650,1744,0,0
-567,-720,0,0,0,0,0,0,0,0,0,-1,657,1744,0,0
-560,-720,0,0,0,0,0,0,0,0,0,-1,664,1744,0,0
-553,-720,0,0,0,0,0,0,0,0,0,-1,671,1744,0,0
-546,-720,0,0,0,0,0,0,0,0,0,-1,678,1744,0,0
-539,-720,0,0,0,0,0,0,0,0,0,-1,685,1744,0,0
-532,-720,0,0,0,0,0,0,0,0,0,-1,692,1744,0,0
-525,-720,0,0,0,0,0,0,0,0,0,-1,699,1744,0,0
-518,-720,0,0,0,0,0,0,0,0,0,-1,706,1744,0,0
-511,-720,0,0,0,0,0,0,0,0,0,-1,713,1744,0,0
-504,-720,0,0,0,0,0,0,0,0,0,-1,720,1744,0,0
-497,-720,0,0,0,0,0,0,0,0,0,-1,727,1744,0,0
-490,-720,0,0,0,0,0,0,0,0,0,-1,734,1744,0,0
-483,-720,0,0,0,0,0,0,0,0,0,-1,741,1744,0,0
-476,-720,0,0,0,0,0,0,0,0,0,-1,748,1744,0,0
-469,-720,0,0,0,0,0,0,0,0,0,-1,755,1744,0,0
-462,-720,0,0,0,0,0,0,0,0,0,-1,762,1744,0,0
-455,-720,0,0,0,0,0,0,0,0,0,-1,769,1744,0,0
-448,-720,0,0,0,0,0,0,0,0,0,-1,776,1744,0,0
-441,-720,0,0,0,0,0,0,0,0,0,-1,783,1744,0,0
-434,-720,0,0,0,0,0,0,0,0,0,-1,790,1744,0,0
-427,-720,0,0,0,0,0,0,0,0,0,-1,797,1744,0,0
-420,-720,0,0,0,0,0,0,0,0,0,-1,804,1744,0,0
-413,-720,0,0,0,0,0,0,0,0,0,-1,811,1744,0,0
-406,-720,0,0,0,0,0,0,0,0,0,-1,818,1744,0,0
-399,-720,0,0,0,0,0,0,0,0,0,-1,825,1744,0,0
-392,-720,0,0,0,0,0,0,0,0,0,-1,832,1744,0,0
-385,-720,0,0,0,0,0,0,0,0,0,-1,839,1744,0,0
-378,-720,0,0,0,0,0,0,0,0,0,-1,846,1744,0,0
-371,-720,0,0,0,0,0,0,0,0,0,-1,853,1744,0,0
-364,-720,0,0,0,0,0,0,0,0,0,-1,860,1744,0,0
-357,-720,0,0,0,0,0,0,0,0,0,-1,867,1744,0,0
-350,-720,0,0,0,0,0,0,0,0,0,-1,874,1744,0,0
-343,-720,0,0,0,0,0,0,0,0,0,-1,881,1744,0,0
-336,-720,0,0,0,0,0,0,0,0,0,-1,888,1744,0,0
-329,-720,0,0,0,0,0,0,0,0,0,-1,895,1744,0,0
-322,-720,0,0,0,0,0,0,0,0,0,-1,902,1744,0,0
-315,-720,0,0,0,0,0,0,0,0,0,-1,909,1744,0,0
-308,-720,0,0,0,0,0,0,0,0,0,-1,916,1744,0,0
-301,-720,0,0,0,0,0,0,0,0,0,-1,923,1744,0,0
-294,-720,0,0,0,0,0,0,0,0,0,-1,930,1744,0,0
-287,-720,0,0,0,0,0,0,0,0,0,-1,937,1744,0,0
-280,-720,5.10437,9.33765,0,0,0,0,0,0,0,-1,944,1744,5.10435,-9.33761
-273,-720,4.63739,8.22498,0,0,0,0,0,0,0,-1,951,1744,4.6374,-8.22496
-266,-720,4.37134,7.47217,0,0,0,0,0,0,0,-1,958,1744,4.37132,-7.47215
-259,-720,2.38904,5.20947,0,0,0,0,0,0,0,-1,965,1744,2.38906,-5.20952
-252,-720,3.71014,6.78967,0,0,0,0,0,0,0,-1,972,1744,3.71016,-6.78973
-245,-720,4.38489,14.8328,0,0,0,0,0,0,0,-1,979,1744,4.38488,-14.8328
-238,-720,4.51312,14.1652,0,0,0,0,0,0,0,-1,986,1744,4.51313,-14.1652
-231,-720,4.51538,13.5494,0,0,0,0,0,0,0,-1,993,1744,4.51538,-13.5494
-224,-720,4.28375,12.3938,0,0,0,0,0,0,0,-1,1000,1744,4.28374,-12.3937
-217,-720,3.927,9.97241,0,0,0,0,0,0,0,-1,1007,1744,3.92698,-9.97244
-210,-720,4.01447,10.3051,0,0,0,0,0,0,0,-1,1014,1744,4.01447,-10.3051
-203,-720,4.08789,10.3712,0,0,0,0,0,0,0,-1,1021,1744,4.08785,-10.3712
-196,-720,4.40649,10.7773,0,0,0,0,0,0,0,-1,1028,1744,4.40644,-10.7773
-189,-720,4.43201,10.4438,0,0,0,0,0,0,0,-1,1035,1744,4.43203,-10.4439
-182,-720,4.36035,10.9155,0.00342456,0.0127363,0.00389311,0.0141495,0.00201138,1.22259,0.00883917,0.0388668,1042,1744,4.36039,-10.9155
-175,-720,4.45288,11.2838,-0.00195225,0.0089115,0.0011155,0.00902486,-0.0020656,1.46952,0.00681034,0.0451394,1049,1744,4.45287,-11.2838
-168,-720,4.06091,11.4479,-0.00497072,0.0064771,-0.000137034,0.00647874,-0.00497236,-1.55883,0.00663034,0.0388647,1056,1744,4.06092,-11.4479
-161,-720,4.04492,11.4978,-0.00690293,0.00441123,-0.000665873,0.00445028,-0.00694199,-1.51221,0.00662956,0.0275509,1063,1744,4.04495,-11.4978
-154,-720,4.08459,11.641,-0.0076219,0.00312038,-0.00096543,0.00320646,-0.00770798,-1.48187,0.00647764,0.02057,1070,1744,4.08463,-11.641
-147,-720,4.05566,11.7878,-0.00775814,0.0022316,-0.000983804,0.00232757,-0.0078541,-1.47356,0.00616028,0.0202931,1077,1744,4.05568,-11.7879
-140,-720,4.0614,11.8872,-0.0075403,0.0019861,-0.000722361,0.00204057,-0.00759476,-1.49554,0.00586295,0.0169634,1084,1744,4.06136,-11.8872
-133,-720,4.04236,11.9258,-0.00669509,0.00188636,-0.000466446,0.00191164,-0.00672037,-1.51665,0.00523512,0.0117505,1091,1744,4.0424,-11.9258
-126,-720,4.04333,12.0223,-0.00585587,0.00149789,-0.000183919,0.00150249,-0.00586047,-1.54581,0.00449236,0.011131,1098,1744,4.04332,-12.0224
-119,-720,4.03333,12.1166,-0.00468413,0.00143197,0.000157279,0.00143601,-0.00468817,1.5451,0.00369825,0.0134098,1105,1744,4.03336,-12.1166
-112,-720,4.02161,12.1814,-0.00348838,0.00140121,0.000342219,0.00142505,-0.00351221,1.50126,0.0029342,0.0125127,1112,1744,4.02164,-12.1814
-105,-720,4.01855,12.2544,-0.00250203,0.00136442,0.000501154,0.00142832,-0.00256593,1.44397,0.00233705,0.012123,1119,1744,4.0186,-12.2544
-98,-720,4.01453,12.3226,-0.00159652,0.00139725,0.000564052,0.0015,-0.00169926,1.39061,0.00184829,0.010339,1126,1744,4.01454,-12.3227
-91,-720,4.00623,12.4147,-0.000916067,0.00146943,0.000536602,0.00158458,-0.00103121,1.35942,0.00152145,0.0100103,1133,1744,4.00621,-12.4147
-84,-720,3.99524,12.5166,-0.000437081,0.00152553,0.000641457,0.00171659,-0.000628136,1.28132,0.0014015,0.0098323,1140,1744,3.99523,-12.5167
-77,-720,3.99036,12.5996,0.000463637,0.00141939,0.000802596,0.0018756,7.42235e-06,1.05392,0.00124794,0.01157,1147,1744,3.99037,-12.5996
-70,-720,4.01831,12.6534,0.000771386,0.00108956,0.000418624,0.00137831,0.000482639,0.966982,0.000807588,0.0112437,1154,1744,4.01833,-12.6534
-63,-720,4.00671,12.7041,0.000474757,0.000999026,0.000138522,0.00103338,0.000440407,1.32773,0.000598783,0.0111398,1161,1744,4.00677,-12.7042
-56,-720,3.98767,12.7791,0.000329952,0.000858648,1.74954e-05,0.000859226,0.000329374,1.53775,0.000500555,0.0122272,1168,1744,3.98762,-12.7791
-49,-720,3.97302,12.8622,0.000261204,0.00074824,-4.31003e-05,0.000752025,0.00025742,-1.48321,0.000441321,0.0176198,1175,1744,3.97303,-12.8621
-42,-720,4.01013,12.8595,0.000252806,0.000569812,-8.06144e-05,0.000589134,0.000233484,-1.33554,0.000342566,0.0196607,1182,1744,4.01014,-12.8595
-35,-720,4.021,12.9098,0.000302961,0.000341026,-0.000155198,0.000478354,0.000165632,-0.84641,0.000280496,0.0172848,1189,1744,4.02106,-12.9098
-28,-720,4.02661,12.973,0.000341566,0.00011361,-0.000199218,0.000457107,-1.93102e-06,-0.525562,0.000305384,0.0109205,1196,1744,4.02661,-12.973
-21,-720,4.00439,13.0398,0.00045544,-0.000257512,-0.000244588,0.000531281,-0.000333353,-0.300677,0.000503538,0.00958423,1203,1744,4.00441,-13.0398
-14,-720,3.9989,13.0713,0.000581796,-0.000823457,-0.000207334,0.000611748,-0.000853409,-0.143471,0.000849736,0.010989,1210,1744,3.99894,-13.0712
-7,-720,4.00916,13.1309,0.000721608,-0.00131359,-0.000108243,0.000727349,-0.00131933,-0.052986,0.00119802,0.0112484,1217,1744,4.00916,-13.1309
0,-720,4.02832,13.1702,0.00084096,-0.00212373,-1.26595e-05,0.000841014,-0.00212378,-0.00426997,0.00176433,0.0122609,1224,1744,4.02832,-13.1702
7,-720,4.02942,13.1831,0.000881181,-0.00273838,0.000121235,0.000885237,-0.00274243,0.0334445,0.00218401,0.0149366,1231,1744,4.02943,-13.1831
14,-720,4.04431,13.2079,0.000848224,-0.0034011,0.000198109,0.00085744,-0.00341031,0.0464869,0.00260679,0.01379,1238,1744,4.04432,-13.2079
21,-720,4.03308,13.2355,0.000793672,-0.00404771,0.000198772,0.000801819,-0.00405586,0.0409649,0.00300703,0.010976,1245,1744,4.03303,-13.2354
28,-720,4.01379,13.2607,0.000736691,-0.00459887,0.000143389,0.000740541,-0.00460272,0.0268483,0.00334278,0.0115376,1252,1744,4.01375,-13.2607
35,-720,4.02332,13.301,0.000712621,-0.00504261,7.16689e-05,0.000713513,-0.0050435,0.0124503,0.00362366,0.0108755,1259,1744,4.02334,-13.301
42,-720,4.0282,13.3257,0.000672782,-0.00525189,-0.000227576,0.000681511,-0.00526061,-0.0383364,0.00375492,0.0103506,1266,1744,4.02823,-13.3257
49,-720,4.03784,13.3191,0.000475478,-0.00547405,-0.000617561,0.000538904,-0.00553748,-0.102346,0.00388377,0.0106624,1273,1744,4.0379,-13.3191
56,-720,4.04639,13.3403,0.000467726,-0.00557358,-0.00104916,0.00064474,-0.0057506,-0.167146,0.00406572,0.00913487,1280,1744,4.04634,-13.3403
63,-720,4.03882,13.354,0.000681865,-0.00538395,-0.00136795,0.00097609,-0.00567818,-0.211857,0.00414926,0.01125,1287,1744,4.03877,-13.354
70,-720,4.05859,13.3392,0.000846188,-0.00513446,-0.00169775,0.00129452,-0.0055828,-0.258183,0.00422008,0.0131982,1294,1744,4.0586,-13.3393
77,-720,4.06384,13.3511,0.00100703,-0.00449551,-0.00194188,0.00162331,-0.00511179,-0.307308,0.00405866,0.0154691,1301,1744,4.06378,-13.3511
84,-720,4.0542,13.3727,0.00133103,-0.00399563,-0.00214817,0.00208939,-0.00475399,-0.339368,0.00404963,0.0143809,1308,1744,4.05422,-13.3727
91,-720,4.05225,13.3833,0.00168441,-0.00346329,-0.00228525,0.00255252,-0.0043314,-0.363037,0.00401842,0.0124112,1315,1744,4.05224,-13.3833
98,-720,4.05762,13.3755,0.00197299,-0.00302467,-0.00228,0.00285684,-0.00390852,-0.369818,0.00392169,0.0117521,1322,1744,4.05764,-13.3755
105,-720,4.06702,13.3633,0.00233494,-0.00232479,-0.00210826,0.00314721,-0.00313706,-0.367754,0.00362823,0.0121753,1329,1744,4.06703,-13.3633
112,-720,4.07495,13.3706,0.00271805,-0.00190822,-0.00179651,0.00333374,-0.00252392,-0.330171,0.00339267,0.0106647,1336,1744,4.07496,-13.3707
119,-720,4.08472,13.3629,0.00300548,-0.00146634,-0.00146471,0.00344253,-0.00190338,-0.289971,0.00312881,0.0102326,1343,1744,4.08476,-13.3629
126,-720,4.08862,13.3586,0.00322515,-0.000980146,-0.00118688,0.003537,-0.001292,-0.256942,0.00288671,0.0109182,1350,1744,4.08863,-13.3586
133,-720,4.08679,13.3516,0.00327844,-0.000628311,-0.00088009,0.00346755,-0.000817419,-0.211655,0.00262691,0.012753,1357,1744,4.08681,-13.3515
140,-720,4.09045,13.3151,0.00315492,-0.000354114,-0.000649565,0.0032713,-0.000470497,-0.177289,0.00235343,0.0181993,1364,1744,4.09051,-13.315
147,-720,4.07642,13.2736,0.00295324,-0.000169848,-0.000372969,0.00299716,-0.000213771,-0.117227,0.00207304,0.0196117,1371,1744,4.07644,-13.2736
154,-720,4.07385,13.236,0.00265553,0.000201862,-0.000220411,0.00267517,0.00018222,-0.0888811,0.00172591,0.0135459,1378,1744,4.07391,-13.236
161,-720,4.0929,13.2081,0.00214932,0.000481382,-0.000171566,0.00216678,0.000463917,-0.101446,0.0013174,0.0100717,1385,1744,4.09291,-13.2081
168,-720,4.08423,13.1735,0.00170362,0.000704608,-0.000273416,0.00177356,0.000634674,-0.250412,0.00103766,0.0103108,1392,1744,4.08422,-13.1734
175,-720,4.09338,13.1188,0.00143966,0.00083301,-0.000382799,0.00162474,0.000647928,-0.450359,0.000944428,0.0153118,1399,1744,4.09343,-13.1188
182,-720,4.11597,13.1041,0.00114466,0.00102765,-0.000538216,0.00162754,0.00054477,-0.731262,0.000956621,0.0151952,1406,1744,4.11596,-13.1041
189,-720,4.12549,13.0823,0.000691701,0.00149034,-0.000619001,0.00182765,0.000354395,-1.07186,0.00111916,0.0131033,1413,1744,4.12543,-13.0823
196,-720,4.10596,13.0406,0.000376535,0.00193883,-0.000721498,0.00222105,9.43142e-05,-1.19793,0.00145028,0.0122239,1420,1744,4.10591,-13.0407
203,-720,4.08496,12.9592,0.000228242,0.00242923,-0.00088889,0.00274338,-8.59059e-05,-1.23108,0.00185822,0.0136339,1427,1744,4.08502,-12.9592
210,-720,4.09546,12.9135,1.32535e-05,0.00279379,-0.00104178,0.00314081,-0.000333764,-1.24926,0.00221353,0.0123743,1434,1744,4.09546,-12.9135
217,-720,4.09705,12.8564,-0.000213134,0.00309399,-0.00119281,0.00347931,-0.000598456,-1.25834,0.00254261,0.0116825,1441,1744,4.09703,-12.8564
224,-720,4.10046,12.7905,-0.000427327,0.00330716,-0.00120512,0.00366228,-0.000782449,-1.28423,0.00273984,0.00884485,1448,1744,4.10052,-12.7906
231,-720,4.09546,12.7272,-0.000721719,0.00329275,-0.00114695,0.00359733,-0.0010263,-1.31123,0.00280365,0.00920164,1455,1744,4.09545,-12.7271
238,-720,4.0863,12.657,-0.000839036,0.00336627,-0.00116816,0.00366898,-0.00114174,-1.31724,0.00290241,0.00845619,1462,1744,4.08633,-12.657
245,-720,4.08459,12.605,-0.000959775,0.00336126,-0.00116898,0.00365723,-0.00125575,-1.32282,0.0029473,0.0104766,1469,1744,4.08457,-12.605
252,-720,4.08838,12.5433,-0.00147878,0.00383362,-0.00105324,0.00403482,-0.00167998,-1.38204,0.00339152,0.0103577,1476,1744,4.08843,-12.5433
259,-720,4.09912,12.4758,-0.00213443,0.00440635,-0.000679087,0.00447612,-0.00220419,-1.46843,0.00393052,0.00941785,1483,1744,4.09909,-12.4758
266,-720,4.08643,12.4259,-0.00276434,0.00514241,2.39671e-05,0.00514248,-0.00276441,1.56777,0.00463336,0.00814941,1490,1744,4.08642,-12.4259
273,-720,4.0614,12.3558,-0.00332161,0.00617998,0.000735558,0.00623659,-0.00337822,1.49399,0.00563228,0.0136431,1497,1744,4.06138,-12.3559
280,-720,4.02954,12.2561,-0.00420195,0.00716765,0.00158407,0.00738422,-0.00441853,1.43492,0.00688565,0.0177954,1504,1744,4.02958,-12.2562
287,-720,4.02905,12.1279,-0.0047159,0.00795994,0.00265429,0.0084933,-0.00524926,1.37249,0.00800762,0.0269239,1511,1744,4.0291,-12.1279
294,-720,4.0636,12.0093,-0.00449791,0.00887172,0.00332874,0.00965466,-0.00528084,1.33979,0.0087454,0.0327176,1518,1744,4.06357,-12.0093
301,-720,3.97058,11.9031,-0.00405327,0.00961206,0.00361611,0.01051,-0.00495117,1.32741,0.00911677,0.0343955,1525,1744,3.9706,-11.903
308,-720,3.81506,11.7297,-0.00376081,0.00989325,0.00433657,0.0111541,-0.00502168,1.28784,0.0095602,0.0350449,1532,1744,3.81512,-11.7297
315,-720,3.73877,11.5396,-0.00245527,0.00996226,0.00451018,0.0114275,-0.00392052,1.25668,0.00920773,0.0392549,1539,1744,3.73872,-11.5396
322,-720,3.93396,11.4972,-0.000274035,0.00943523,0.00419859,0.010999,-0.00183779,1.21427,0.00801579,0.0479393,1546,1744,3.93393,-11.4972
329,-720,4.17639,11.6542,0,0,0,0,0,0,0,-1,1553,1744,4.17639,-11.6542
336,-720,3.85034,11.8975,0,0,0,0,0,0,0,-1,1560,1744,3.85033,-11.8975
343,-720,4.31238,11.6841,0,0,0,0,0,0,0,-1,1567,1744,4.31233,-11.684
350,-720,4.64758,11.6998,0,0,0,0,0,0,0,-1,1574,1744,4.64755,-11.6998
357,-720,3.92322,10.9236,0,0,0,0,0,0,0,-1,1581,1744,3.92323,-10.9236
364,-720,2.86682,11.1908,0,0,0,0,0,0,0,-1,1588,1744,2.8668,-11.1909
371,-720,3.66003,10.7395,0,0,0,0,0,0,0,-1,1595,1744,3.66007,-10.7394
378,-720,2.21692,9.76758,0,0,0,0,0,0,0,-1,1602,1744,2.21689,-9.76754
385,-720,0.0605469,10.3186,0,0,0,0,0,0,0,-1,1609,1744,0.0605392,-10.3187
392,-720,-0.0305176,11.3309,0,0,0,0,0,0,0,-1,1616,1744,-0.0305729,-11.3309
399,-720,-0.0229492,11.1704,0,0,0,0,0,0,0,-1,1623,1744,-0.0229226,-11.1704
406,-720,0,0,0,0,0,0,0,0,0,-1,1630,1744,0,0
413,-720,0,0,0,0,0,0,0,0,0,-1,1637,1744,0,0
420,-720,0,0,0,0,0,0,0,0,0,-1,1644,1744,0,0
427,-720,0,0,0,0,0,0,0,0,0,-1,1651,1744,0,0
434,-720,0,0,0,0,0,0,0,0,0,-1,1658,1744,0,0
441,-720,0,0,0,0,0,0,0,0,0,-1,1665,1744,0,0
448,-720,0,0,0,0,0,0,0,0,0,-1,1672,1744,0,0
455,-720,0,0,0,0,0,0,0,0,0,-1,1679,1744,0,0
462,-720,0,0,0,0,0,0,0,0,0,-1,1686,1744,0,0
469,-720,0,0,0,0,0,0,0,0,0,-1,1693,1744,0,0
476,-720,0,0,0,0,0,0,0,0,0,-1,1700,1744,0,0
483,-720,0,0,0,0,0,0,0,0,0,-1,1707,1744,0,0
490,-720,0,0,0,0,0,0,0,0,0,-1,1714,1744,0,0
497,-720,0,0,0,0,0,0,0,0,0,-1,1721,1744,0,0
504,-720,0,0,0,0,0,0,0,0,0,-1,1728,1744,0,0
511,-720,0,0,0,0,0,0,0,0,0,-1,1735,1744,0,0
518,-720,0,0,0,0,0,0,0,0,0,-1,1742,1744,0,0
525,-720,0,0,0,0,0,0,0,0,0,-1,1749,1744,0,0
532,-720,0,0,0,0,0,0,0,0,0,-1,1756,1744,0,0
539,-720,0,0,0,0,0,0,0,0,0,-1,1763,1744,0,0
546,-720,0,0,0,0,0,0,0,0,0,-1,1770,1744,0,0
553,-720,0,0,0,0,0,0,0,0,0,-1,1777,1744,0,0
560,-720,0,0,0,0,0,0,0,0,0,-1,1784,1744,0,0
567,-720,0,0,0,0,0,0,0,0,0,-1,1791,1744,0,0
574,-720,0,0,0,0,0,0,0,0,0,-1,1798,1744,0,0
581,-720,0,0,0,0,0,0,0,0,0,-1,1805,1744,0,0
588,-720,0,0,0,0,0,0,0,0,0,-1,1812,1744,0,0
595,-720,0,0,0,0,0,0,0,0,0,-1,1819,1744,0,0
602,-720,0,0,0,0,0,0,0,0,0,-1,1826,1744,0,0
609,-720,0,0,0,0,0,0,0,0,0,-1,1833,1744,0,0
616,-720,0,0,0,0,0,0,0,0,0,-1,1840,1744,0,0
623,-720,0,0,0,0,0,0,0,0,0,-1,1847,1744,0,0
630,-720,0,0,0,0,0,0,0,0,0,-1,1854,1744,0,0
637,-720,0,0,0,0,0,0,0,0,0,-1,1861,1744,0,0
644,-720,0,0,0,0,0,0,0,0,0,-1,1868,1744,0,0
651,-720,0,0,0,0,0,0,0,0,0,-1,1875,1744,0,0
658,-720,0,0,0,0,0,0,0,0,0,-1,1882,1744,0,0
665,-720,0,0,0,0,0,0,0,0,0,-1,1889,1744,0,0
672,-720,0,0,0,0,0,0,0,0,0,-1,1896,1744,0,0
679,-720,0,0,0,0,0,0,0,0,0,-1,1903,1744,0,0
686,-720,0,0,0,0,0,0,0,0,0,-1,1910,1744,0,0
693,-720,0,0,0,0,0,0,0,0,0,-1,1917,1744,0,0
700,-720,0,0,0,0,0,0,0,0,0,-1,1924,1744,0,0
707,-720,0,0,0,0,0,0,0,0,0,-1,1931,1744,0,0
714,-720,0,0,0,0,0,0,0,0,0,-1,1938,1744,0,0
721,-720,0,0,0,0,0,0,0,0,0,-1,1945,1744,0,0
728,-720,0,0,0,0,0,0,0,0,0,-1,1952,1744,0,0
735,-720,0,0,0,0,0,0,0,0,0,-1,1959,1744,0,0
742,-720,0,0,0,0,0,0,0,0,0,-1,1966,1744,0,0
749,-720,0,0,0,0,0,0,0,0,0,-1,1973,1744,0,0
756,-720,0,0,0,0,0,0,0,0,0,-1,1980,1744,0,0
763,-720,0,0,0,0,0,0,0,0,0,-1,1987,1744,0,0
770,-720,0,0,0,0,0,0,0,0,0,-1,1994,1744,0,0
777,-720,0,0,0,0,0,0,0,0,0,-1,2001,1744,0,0
784,-720,0,0,0,0,0,0,0,0,0,-1,2008,1744,0,0
791,-720,0,0,0,0,0,0,0,0,0,-1,2015,1744,0,0
798,-720,0,0,0,0,0,0,0,0,0,-1,2022,1744,0,0
805,-720,0,0,0,0,0,0,0,0,0,-1,2029,1744,0,0
812,-720,0,0,0,0,0,0,0,0,0,-1,2036,1744,0,0
-700,-727,0,0,0,0,0,0,0,0,0,-1,524,1751,0,0
-693,-727,0,0,0,0,0,0,0,0,0,-1,531,1751,0,0
-686,-727,0,0,0,0,0,0,0,0,0,-1,538,1751,0,0
-679,-727,0,0,0,0,0,0,0,0,0,-1,545,1751,0,0
-672,-727,0,0,0,0,0,0,0,0,0,-1,552,1751,0,0
-665,-727,0,0,0,0,0,0,0,0,0,-1,559,1751,0,0
-658,-727,0,0,0,0,0,0,0,0,0,-1,566,1751,0,0
-651,-727,0,0,0,0,0,0,0,0,0,-1,573,1751,0,0
-644,-727,0,0,0,0,0,0,0,0,0,-1,580,1751,0,0
-637,-727,0,0,0,0,0,0,0,0,0,-1,587,1751,0,0
-630,-727,0,0,0,0,0,0,0,0,0,-1,594,1751,0,0
-623,-727,0,0,0,0,0,0,0,0,0,-1,601,1751,0,0
-616,-727,0,0,0,0,0,0,0,0,0,-1,608,1751,0,0
-609,-727,0,0,0,0,0,0,0,0,0,-1,615,1751,0,0
-602,-727,0,0,0,0,0,0,0,0,0,-1,622,1751,0,0
-595,-727,0,0,0,0,0,0,0,0,0,-1,629,1751,0,0
-588,-727,0,0,0,0,0,0,0,0,0,-1,636,1751,0,0
-581,-727,0,0,0,0,0,0,0,0,0,-1,643,1751,0,0
-574,-727,0,0,0,0,0,0,0,0,0,-1,650,1751,0,0
-567,-727,0,0,0,0,0,0,0,0,0,-1,657,1751,0,0
-560,-727,0,0,0,0,0,0,0,0,0,-1,664,1751,0,0
-553,-727,0,0,0,0,0,0,0,0,0,-1,671,1751,0,0
-546,-727,0,0,0,0,0,0,0,0,0,-1,678,1751,0,0
-539,-727,0,0,0,0,0,0,0,0,0,-1,685,1751,0,0
-532,-727,0,0,0,0,0,0,0,0,0,-1,692,1751,0,0
-525,-727,0,0,0,0,0,0,0,0,0,-1,699,1751,0,0
-518,-727,0,0,0,0,0,0,0,0,0,-1,706,1751,0,0
-511,-727,0,0,0,0,0,0,0,0,0,-1,713,1751,0,0
-504,-727,0,0,0,0,0,0,0,0,0,-1,720,1751,0,0
-497,-727,0,0,0,0,0,0,0,0,0,-1,727,1751,0,0
-490,-727,0,0,0,0,0,0,0,0,0,-1,734,1751,0,0
-483,-727,0,0,0,0,0,0,0,0,0,-1,741,1751,0,0
-476,-727,0,0,0,0,0,0,0,0,0,-1,748,1751,0,0
-469,-727,0,0,0,0,0,0,0,0,0,-1,755,1751,0,0
-462,-727,0,0,0,0,0,0,0,0,0,-1,762,1751,0,0
-455,-727,0,0,0,0,0,0,0,0,0,-1,769,1751,0,0
-448,-727,0,0,0,0,0,0,0,0,0,-1,776,1751,0,0
-441,-727,0,0,0,0,0,0,0,0,0,-1,783,1751,0,0
-434,-727,0,0,0,0,0,0,0,0,0,-1,790,1751,0,0
-427,-727,0,0,0,0,0,0,0,0,0,-1,797,1751,0,0
-420,-727,0,0,0,0,0,0,0,0,0,-1,804,1751,0,0
-413,-727,0,0,0,0,0,0,0,0,0,-1,811,1751,0,0
-406,-727,0,0,0,0,0,0,0,0,0,-1,818,1751,0,0
-399,-727,0,0,0,0,0,0,0,0,0,-1,825,1751,0,0
-392,-727,0,0,0,0,0,0,0,0,0,-1,832,1751,0,0
-385,-727,0,0,0,0,0,0,0,0,0,-1,839,1751,0,0
-378,-727,0,0,0,0,0,0,0,0,0,-1,846,1751,0,0
-371,-727,0,0,0,0,0,0,0,0,0,-1,853,1751,0,0
-364,-727,0,0,0,0,0,0,0,0,0,-1,860,1751,0,0
-357,-727,0,0,0,0,0,0,0,0,0,-1,867,1751,0,0
-350,-727,0,0,0,0,0,0,0,0,0,-1,874,1751,0,0
-343,-727,0,0,0,0,0,0,0,0,0,-1,881,1751,0,0
-336,-727,0,0,0,0,0,0,0,0,0,-1,888,1751,0,0
-329,-727,0,0,0,0,0,0,0,0,0,-1,895,1751,0,0
-322,-727,0,0,0,0,0,0,0,0,0,-1,902,1751,0,0
-315,-727,0,0,0,0,0,0,0,0,0,-1,909,1751,0,0
-308,-727,0,0,0,0,0,0,0,0,0,-1,916,1751,0,0
-301,-727,0,0,0,0,0,0,0,0,0,-1,923,1751,0,0
-294,-727,0,0,0,0,0,0,0,0,0,-1,930,1751,0,0
-287,-727,0,0,0,0,0,0,0,0,0,-1,937,1751,0,0
-280,-727,0,0,0,0,0,0,0,0,0,-1,944,1751,0,0
-273,-727,0,0,0,0,0,0,0,0,0,-1,951,1751,0,0
-266,-727,4.24805,7.61145,0,0,0,0,0,0,0,-1,958,1751,4.24802,-7.6115
-259,-727,3.65228,5.4082,0,0,0,0,0,0,0,-1,965,1751,3.65229,-5.40818
-252,-727,4.98651,6.28906,0,0,0,0,0,0,0,-1,972,1751,4.98649,-6.28908
-245,-727,6.25244,7.34888,0,0,0,0,0,0,0,-1,979,1751,6.25241,-7.3489
-238,-727,5.62982,12.9598,0,0,0,0,0,0,0,-1,986,1751,5.62984,-12.9599
-231,-727,5.30707,13.4872,0,0,0,0,0,0,0,-1,993,1751,5.30704,-13.4871
-224,-727,5.21381,12.4679,0,0,0,0,0,0,0,-1,1000,1751,5.21384,-12.4679
-217,-727,4.72906,10.7996,0,0,0,0,0,0,0,-1,1007,1751,4.72906,-10.7996
-210,-727,4.28949,14.816,0,0,0,0,0,0,0,-1,1014,1751,4.28949,-14.8161
-203,-727,3.97083,13.6768,0,0,0,0,0,0,0,-1,1021,1751,3.97082,-13.6767
-196,-727,3.91675,12.4885,0,0,0,0,0,0,0,-1,1028,1751,3.91672,-12.4885
-189,-727,4.72192,10.2058,0,0,0,0,0,0,0,-1,1035,1751,4.72197,-10.2059
-182,-727,4.66943,10.7427,0,0,0,0,0,0,0,-1,1042,1751,4.66946,-10.7426
-175,-727,4.83704,11.2638,0,0,0,0,0,0,0,-1,1049,1751,4.83698,-11.2639
-168,-727,4.02808,11.5114,0,0,0,0,0,0,0,-1,1056,1751,4.02806,-11.5113
-161,-727,4.13538,11.4115,0,0,0,0,0,0,0,-1,1063,1751,4.13541,-11.4115
-154,-727,4.11707,11.6801,-0.0116993,0.0039058,-0.0017152,0.0040921,-0.0118856,-1.4626,0.00958354,0.0421775,1070,1751,4.11701,-11.68
-147,-727,3.95874,11.8087,-0.0117899,0.00278497,-0.00167202,0.00297433,-0.0119792,-1.45803,0.00914037,0.0361106,1077,1751,3.95879,-11.8087
-140,-727,4.05518,11.7771,-0.0113322,0.00249129,-0.00127392,0.00260771,-0.0114486,-1.47966,0.00863393,0.0257162,1084,1751,4.05519,-11.7772
-133,-727,4.13794,11.8497,-0.0100246,0.00243215,-0.000907567,0.00249792,-0.0100904,-1.49845,0.0076959,0.0182596,1091,1751,4.13789,-11.8497
-126,-727,4.08679,11.9901,-0.00873921,0.00209887,-0.00052216,0.00212397,-0.00876431,-1.52277,0.00666465,0.0125844,1098,1751,4.08685,-11.9902
-119,-727,4.09619,12.1267,-0.00704193,0.00213687,-7.69461e-05,0.00213752,-0.00704257,-1.56241,0.00554659,0.0106057,1105,1751,4.09613,-12.1267
-112,-727,4.09399,12.1893,-0.00532954,0.00223357,0.000172094,0.00223748,-0.00533345,1.54806,0.00449126,0.011896,1112,1751,4.09402,-12.1894
-105,-727,4.0625,12.2698,-0.00388327,0.00225472,0.000361182,0.0022759,-0.00390445,1.51222,0.00360929,0.0122162,1119,1751,4.06251,-12.2697
-98,-727,4.08691,12.3496,-0.00258649,0.00236199,0.000420329,0.00239744,-0.00262194,1.48666,0.0028989,0.0110195,1126,1751,4.08685,-12.3496
-91,-727,4.09851,12.4231,-0.00160816,0.0024451,0.000365945,0.00247787,-0.00164094,1.48147,0.00239431,0.0111647,1133,1751,4.09851,-12.4231
-84,-727,4.06628,12.4971,-0.000927055,0.00246671,0.00048165,0.00253374,-0.000994088,1.43251,0.00210045,0.010611,1140,1751,4.06633,-12.4971
-77,-727,4.04993,12.5784,0.000442616,0.00222106,0.000750243,0.00249527,0.000168403,1.22038,0.00161032,0.0111638,1147,1751,4.0499,-12.5784
-70,-727,4.06335,12.655,0.000904385,0.00165314,0.000208201,0.00170714,0.000850386,1.31703,0.000985619,0.0129779,1154,1751,4.06333,-12.6551
-63,-727,4.0708,12.7064,0.00038613,0.00155451,-0.000182376,0.00158232,0.000358324,-1.4195,0.000958041,0.0108767,1161,1751,4.07085,-12.7064
-56,-727,4.05542,12.7782,2.80608e-05,0.00140933,-0.000295799,0.00147001,-3.26188e-05,-1.36847,0.000991059,0.0103764,1168,1751,4.05545,-12.7782
-49,-727,4.05249,12.8361,-0.000263165,0.00121604,-0.00031609,0.00128076,-0.000327879,-1.36885,0.000981557,0.0130635,1175,1751,4.05244,-12.8361
-42,-727,4.0531,12.8722,-0.000433971,0.00106022,-0.000286228,0.00111317,-0.000486924,-1.38786,0.000947109,0.015895,1182,1751,4.05314,-12.8722
-35,-727,4.02881,12.9077,-0.000444233,0.000715278,-0.000404599,0.0008425,-0.000571455,-1.26615,0.000821332,0.0144361,1189,1751,4.02882,-12.9077
-28,-727,4.04944,12.959,-0.000444954,0.000339227,-0.000428445,0.000527912,-0.000633639,-1.15596,0.000671547,0.00911843,1196,1751,4.04938,-12.959
-21,-727,4.04663,13.03,-0.000292877,-5.66694e-05,-0.000495907,0.000335003,-0.00068455,-0.902299,0.00060006,0.00987039,1203,1751,4.04669,-13.03
-14,-727,4.05139,13.0764,-0.000136585,-0.000589597,-0.000517764,0.00020205,-0.000928233,-0.579206,0.000696017,0.0109474,1210,1751,4.05139,-13.0764
-7,-727,4.05298,13.1327,6.06841e-05,-0.00112879,-0.000459425,0.000217468,-0.00128558,-0.328868,0.000937981,0.0144529,1217,1751,4.05296,-13.1326
0,-727,4.06433,13.1854,0.000255893,-0.00176539,-0.000374895,0.000323185,-0.00183269,-0.177606,0.00134255,0.0151128,1224,1751,4.06436,-13.1854
7,-727,4.06165,13.1837,0.000407276,-0.00234289,-0.000290782,0.000437685,-0.0023733,-0.104197,0.00174648,0.0144895,1231,1751,4.06164,-13.1837
14,-727,4.06335,13.2174,0.00048393,-0.00277227,-0.000266399,0.000505581,-0.00279392,-0.0810943,0.00205201,0.014398,1238,1751,4.06336,-13.2174
21,-727,4.04236,13.2688,0.000522181,-0.00315165,-0.00024747,0.000538776,-0.00316825,-0.0669571,0.00231277,0.0123462,1245,1751,4.04231,-13.2688
28,-727,4.05603,13.2831,0.000521137,-0.00342775,-0.000268219,0.000539272,-0.00344588,-0.0675095,0.0024965,0.0105807,1252,1751,4.05608,-13.2831
35,-727,4.07312,13.2888,0.000548783,-0.00358584,-0.000333001,0.000575431,-0.00361249,-0.0798537,0.00262127,0.0109867,1259,1751,4.07307,-13.2888
42,-727,4.05554,13.2985,0.000592628,-0.00372244,-0.000510681,0.000652242,-0.00378205,-0.11621,0.00276455,0.0113838,1266,1751,4.05551,-13.2984
49,-727,4.04883,13.311,0.000544412,-0.00379304,-0.00081098,0.000691083,-0.00393971,-0.178922,0.00288456,0.0103589,1273,1751,4.04885,-13.311
56,-727,4.04492,13.3447,0.000640139,-0.00385598,-0.00121872,0.000949234,-0.00416507,-0.248386,0.0031413,0.00849998,1280,1751,4.04493,-13.3448
63,-727,4.04675,13.3545,0.000825814,-0.00378022,-0.00153508,0.00129053,-0.00424494,-0.293962,0.00334419,0.010485,1287,1751,4.04671,-13.3545
70,-727,4.06274,13.3468,0.000952013,-0.00363437,-0.00193583,0.00165985,-0.00434221,-0.350548,0.00357878,0.0135965,1294,1751,4.06275,-13.3468
77,-727,4.07031,13.3801,0.00106104,-0.00326674,-0.00232206,0.00207117,-0.00427687,-0.410321,0.00373806,0.0162796,1301,1751,4.07027,-13.3802
84,-727,4.06653,13.3696,0.00118158,-0.00301549,-0.00260546,0.00242853,-0.00426244,-0.446374,0.0039111,0.0153112,1308,1751,4.06649,-13.3696
91,-727,4.07886,13.3429,0.00129521,-0.00273534,-0.00281432,0.0027414,-0.00418153,-0.47468,0.00402568,0.0151069,1315,1751,4.07886,-13.3429
98,-727,4.07434,13.3629,0.00139511,-0.00248364,-0.00292867,0.00296833,-0.00405685,-0.492945,0.00407219,0.0137741,1322,1751,4.07429,-13.3629
105,-727,4.06921,13.3597,0.00148824,-0.00211953,-0.00289942,0.00309912,-0.00373042,-0.507123,0.00394865,0.0135658,1329,1751,4.06923,-13.3598
112,-727,4.07715,13.3612,0.0015227,-0.00170079,-0.00267953,0.00303787,-0.00321596,-0.514636,0.00361113,0.0109141,1336,1751,4.07718,-13.3612
119,-727,4.08472,13.3551,0.00146912,-0.00135503,-0.00240832,0.00284881,-0.00273472,-0.520244,0.00322388,0.00830796,1343,1751,4.08471,-13.3551
126,-727,4.08521,13.3302,0.00139575,-0.00090585,-0.00221672,0.00274258,-0.00225268,-0.545975,0.00288864,0.0102091,1350,1751,4.08526,-13.3303
133,-727,4.08362,13.3223,0.00124219,-0.000555466,-0.00195299,0.00249326,-0.00180654,-0.569733,0.00249302,0.0144162,1357,1751,4.08365,-13.3223
140,-727,4.08337,13.3083,0.00103092,-0.000262521,-0.00170707,0.00220968,-0.00144127,-0.604328,0.00212338,0.0204028,1364,1751,4.08336,-13.3084
147,-727,4.0686,13.2761,0.00084654,-1.51219e-05,-0.00148853,0.00196533,-0.00113392,-0.644531,0.00181069,0.0181136,1371,1751,4.06859,-13.2762
154,-727,4.06421,13.2408,0.000661119,0.000271464,-0.00133247,0.00181293,-0.000880348,-0.712805,0.00158573,0.0116756,1378,1751,4.06417,-13.2408
161,-727,4.06946,13.21,0.000419408,0.000494187,-0.0011997,0.00165708,-0.000743489,-0.800976,0.00141903,0.00926899,1385,1751,4.06945,-13.21
168,-727,4.05469,13.1781,0.000436221,0.000747135,-0.00123143,0.00183288,-0.000649525,-0.848187,0.00148651,0.0116818,1392,1751,4.05469,-13.1781
175,-727,4.04944,13.146,0.000585451,0.00107494,-0.00116291,0.00201858,-0.000358185,-0.889115,0.00147964,0.0160364,1399,1751,4.0494,-13.146
182,-727,4.07788,13.1035,0.000574802,0.00164642,-0.00124431,0.00246539,-0.000244159,-0.988704,0.00173073,0.0187765,1406,1751,4.07786,-13.1035
189,-727,4.06323,13.0676,0.000270716,0.00236528,-0.00135937,0.00303401,-0.000398013,-1.11362,0.00216756,0.0122173,1413,1751,4.06326,-13.0676
196,-727,4.04541,13.0271,8.31155e-05,0.00307503,-0.00150508,0.00370114,-0.000542988,-1.17658,0.00266691,0.0125336,1420,1751,4.04545,-13.0272
203,-727,4.03699,12.9421,-6.21698e-05,0.00389167,-0.00169869,0.00452123,-0.000691736,-1.21587,0.00326922,0.0141498,1427,1751,4.03704,-12.9421
210,-727,4.04517,12.9056,-0.000265077,0.00448977,-0.00185164,0.00512577,-0.000901079,-1.23994,0.00375376,0.0136065,1434,1751,4.0452,-12.9057
217,-727,4.04602,12.858,-0.000485268,0.00495465,-0.00197101,0.00559372,-0.00112433,-1.25726,0.00415494,0.010814,1441,1751,4.04602,-12.8581
224,-727,4.04578,12.7802,-0.000779461,0.00526168,-0.00194033,0.0058312,-0.00134898,-1.2853,0.0044065,0.0117778,1448,1751,4.04582,-12.7802
231,-727,4.03894,12.7239,-0.00116272,0.00524253,-0.00181393,0.00572055,-0.00164074,-1.31313,0.00446232,0.00955315,1455,1751,4.03897,-12.7239
238,-727,4.04041,12.6528,-0.00130804,0.00529239,-0.00179363,0.00574831,-0.00176396,-1.32188,0.004536,0.0096077,1462,1751,4.04037,-12.6528
245,-727,4.03687,12.5906,-0.00146178,0.00520556,-0.0017347,0.00562989,-0.00188611,-1.3309,0.00451524,0.00911392,1469,1751,4.03682,-12.5906
252,-727,4.03088,12.5333,-0.00213653,0.00571703,-0.00151461,0.00599901,-0.0024185,-1.38673,0.00500426,0.0101173,1476,1751,4.03088,-12.5334
259,-727,4.03845,12.4702,-0.00300408,0.00636262,-0.000965554,0.00646112,-0.00310258,-1.46914,0.00563395,0.0133184,1483,1751,4.03841,-12.4702
266,-727,4.07141,12.4569,-0.00386344,0.00722574,1.42497e-05,0.00722576,-0.00386346,1.56951,0.00649972,0.0204387,1490,1751,4.07145,-12.457
273,-727,4.11951,12.4407,-0.00464992,0.00846522,0.00102527,0.00854488,-0.00472958,1.49325,0.00776882,0.0350252,1497,1751,4.11954,-12.4407
280,-727,3.94519,12.4067,-0.00585279,0.00964691,0.00227631,0.0099743,-0.00618017,1.42795,0.00941214,0.0488695,1504,1751,3.94517,-12.4067
287,-727,3.78906,12.2628,0,0,0,0,0,0,0,-1,1511,1751,3.78908,-12.2628
294,-727,4.02148,11.9235,0,0,0,0,0,0,0,-1,1518,1751,4.02145,-11.9235
301,-727,3.82251,11.4553,-0.00614379,0.0129614,0.00543021,0.014397,-0.00757934,1.31235,0.0128899,0.0463784,1525,1751,3.82253,-11.4554
308,-727,3.47192,11.4597,-0.00600528,0.0136667,0.00661065,0.0156818,-0.00802034,1.27492,0.0139207,0.0441389,1532,1751,3.47192,-11.4597
315,-727,3.31506,11.4877,-0.00442001,0.0141569,0.00708609,0.0165513,-0.00681437,1.24495,0.0138751,0.0446684,1539,1751,3.31504,-11.4876
322,-727,3.55664,11.135,0,0,0,0,0,0,0,-1,1546,1751,3.5566,-11.135
329,-727,6.61853,11.6267,0,0,0,0,0,0,0,-1,1553,1751,6.61859,-11.6267
336,-727,3.34875,7.61792,0,0,0,0,0,0,0,-1,1560,1751,3.34872,-7.61791
343,-727,2.41699,8.72095,0,0,0,0,0,0,0,-1,1567,1751,2.41702,-8.72098
350,-727,3.89783,7.50195,0,0,0,0,0,0,0,-1,1574,1751,3.89782,-7.50193
357,-727,1.34595,5.08008,0,0,0,0,0,0,0,-1,1581,1751,1.34592,-5.08005
364,-727,1.62598,6.45728,0,0,0,0,0,0,0,-1,1588,1751,1.62603,-6.45724
371,-727,1.81128,8.06897,0,0,0,0,0,0,0,-1,1595,1751,1.81125,-8.06896
378,-727,1.68237,9.37512,0,0,0,0,0,0,0,-1,1602,1751,1.68242,-9.3751
385,-727,1.4812,10.5988,0,0,0,0,0,0,0,-1,1609,1751,1.48121,-10.5987
392,-727,0,0,0,0,0,0,0,0,0,-1,1616,1751,0,0
399,-727,0,0,0,0,0,0,0,0,0,-1,1623,1751,0,0
406,-727,0,0,0,0,0,0,0,0,0,-1,1630,1751,0,0
413,-727,0,0,0,0,0,0,0,0,0,-1,1637,1751,0,0
420,-727,0,0,0,0,0,0,0,0,0,-1,1644,1751,0,0
427,-727,0,0,0,0,0,0,0,0,0,-1,1651,1751,0,0
434,-727,0,0,0,0,0,0,0,0,0,-1,1658,1751,0,0
441,-727,0,0,0,0,0,0,0,0,0,-1,1665,1751,0,0
448,-727,0,0,0,0,0,0,0,0,0,-1,1672,1751,0,0
455,-727,0,0,0,0,0,0,0,0,0,-1,1679,1751,0,0
462,-727,0,0,0,0,0,0,0,0,0,-1,1686,1751,0,0
469,-727,0,0,0,0,0,0,0,0,0,-1,1693,1751,0,0
476,-727,0,0,0,0,0,0,0,0,0,-1,1700,1751,0,0
483,-727,0,0,0,0,0,0,0,0,0,-1,1707,1751,0,0
490,-727,0,0,0,0,0,0,0,0,0,-1,1714,1751,0,0
497,-727,0,0,0,0,0,0,0,0,0,-1,1721,1751,0,0
504,-727,0,0,0,0,0,0,0,0,0,-1,1728,1751,0,0
511,-727,0,0,0,0,0,0,0,0,0,-1,1735,1751,0,0
518,-727,0,0,0,0,0,0,0,0,0,-1,1742,1751,0,0
525,-727,0,0,0,0,0,0,0,0,0,-1,1749,1751,0,0
532,-727,0,0,0,0,0,0,0,0,0,-1,1756,1751,0,0
539,-727,0,0,0,0,0,0,0,0,0,-1,1763,1751,0,0
546,-727,0,0,0,0,0,0,0,0,0,-1,1770,1751,0,0
553,-727,0,0,0,0,0,0,0,0,0,-1,1777,1751,0,0
560,-727,0,0,0,0,0,0,0,0,0,-1,1784,1751,0,0
567,-727,0,0,0,0,0,0,0,0,0,-1,1791,1751,0,0
574,-727,0,0,0,0,0,0,0,0,0,-1,1798,1751,0,0
581,-727,0,0,0,0,0,0,0,0,0,-1,1805,1751,0,0
588,-727,0,0,0,0,0,0,0,0,0,-1,1812,1751,0,0
595,-727,0,0,0,0,0,0,0,0,0,-1,1819,1751,0,0
602,-727,0,0,0,0,0,0,0,0,0,-1,1826,1751,0,0
609,-727,0,0,0,0,0,0,0,0,0,-1,1833,1751,0,0
616,-727,0,0,0,0,0,0,0,0,0,-1,1840,1751,0,0
623,-727,0,0,0,0,0,0,0,0,0,-1,1847,1751,0,0
630,-727,0,0,0,0,0,0,0,0,0,-1,1854,1751,0,0
637,-727,0,0,0,0,0,0,0,0,0,-1,1861,1751,0,0
644,-727,0,0,0,0,0,0,0,0,0,-1,1868,1751,0,0
651,-727,0,0,0,0,0,0,0,0,0,-1,1875,1751,0,0
658,-727,0,0,0,0,0,0,0,0,0,-1,1882,1751,0,0
665,-727,0,0,0,0,0,0,0,0,0,-1,1889,1751,0,0
672,-727,0,0,0,0,0,0,0,0,0,-1,1896,1751,0,0
679,-727,0,0,0,0,0,0,0,0,0,-1,1903,1751,0,0
686,-727,0,0,0,0,0,0,0,0,0,-1,1910,1751,0,0
693,-727,0,0,0,0,0,0,0,0,0,-1,1917,1751,0,0
700,-727,0,0,0,0,0,0,0,0,0,-1,1924,1751,0,0
707,-727,0,0,0,0,0,0,0,0,0,-1,1931,1751,0,0
714,-727,0,0,0,0,0,0,0,0,0,-1,1938,1751,0,0
721,-727,0,0,0,0,0,0,0,0,0,-1,1945,1751,0,0
728,-727,0,0,0,0,0,0,0,0,0,-1,1952,1751,0,0
735,-727,0,0,0,0,0,0,0,0,0,-1,1959,1751,0,0
742,-727,0,0,0,0,0,0,0,0,0,-1,1966,1751,0,0
749,-727,0,0,0,0,0,0,0,0,0,-1,1973,1751,0,0
756,-727,0,0,0,0,0,0,0,0,0,-1,1980,1751,0,0
763,-727,0,0,0,0,0,0,0,0,0,-1,1987,1751,0,0
770,-727,0,0,0,0,0,0,0,0,0,-1,1994,1751,0,0
777,-727,0,0,0,0,0,0,0,0,0,-1,2001,1751,0,0
784,-727,0,0,0,0,0,0,0,0,0,-1,2008,1751,0,0
791,-727,0,0,0,0,0,0,0,0,0,-1,2015,1751,0,0
798,-727,0,0,0,0,0,0,0,0,0,-1,2022,1751,0,0
805,-727,0,0,0,0,0,0,0,0,0,-1,2029,1751,0,0
812,-727,0,0,0,0,0,0,0,0,0,-1,2036,1751,0,0
-700,-734,0,0,0,0,0,0,0,0,0,-1,524,1758,0,0
-693,-734,0,0,0,0,0,0,0,0,0,-1,531,1758,0,0
-686,-734,0,0,0,0,0,0,0,0,0,-1,538,1758,0,0
-679,-734,0,0,0,0,0,0,0,0,0,-1,545,1758,0,0
-672,-734,0,0,0,0,0,0,0,0,0,-1,552,1758,0,0
-665,-734,0,0,0,0,0,0,0,0,0,-1,559,1758,0,0
-658,-734,0,0,0,0,0,0,0,0,0,-1,566,1758,0,0
-651,-734,0,0,0,0,0,0,0,0,0,-1,573,1758,0,0
-644,-734,0,0,0,0,0,0,0,0,0,-1,580,1758,0,0
-637,-734,0,0,0,0,0,0,0,0,0,-1,587,1758,0,0
-630,-734,0,0,0,0,0,0,0,0,0,-1,594,1758,0,0
-623,-734,0,0,0,0,0,0,0,0,0,-1,601,1758,0,0
-616,-734,0,0,0,0,0,0,0,0,0,-1,608,1758,0,0
-609,-734,0,0,0,0,0,0,0,0,0,-1,615,1758,0,0
-602,-734,0,0,0,0,0,0,0,0,0,-1,622,1758,0,0
-595,-734,0,0,0,0,0,0,0,0,0,-1,629,1758,0,0
-588,-734,0,0,0,0,0,0,0,0,0,-1,636,1758,0,0
-581,-734,0,0,0,0,0,0,0,0,0,-1,643,1758,0,0
-574,-734,0,0,0,0,0,0,0,0,0,-1,650,1758,0,0
-567,-734,0,0,0,0,0,0,0,0,0,-1,657,1758,0,0
-560,-734,0,0,0,0,0,0,0,0,0,-1,664,1758,0,0
-553,-734,0,0,0,0,0,0,0,0,0,-1,671,1758,0,0
-546,-734,0,0,0,0,0,0,0,0,0,-1,678,1758,0,0
-539,-734,0,0,0,0,0,0,0,0,0,-1,685,1758,0,0
-532,-734,0,0,0,0,0,0,0,0,0,-1,692,1758,0,0
-525,-734,0,0,0,0,0,0,0,0,0,-1,699,1758,0,0
-518,-734,0,0,0,0,0,0,0,0,0,-1,706,1758,0,0
-511,-734,0,0,0,0,0,0,0,0,0,-1,713,1758,0,0
-504,-734,0,0,0,0,0,0,0,0,0,-1,720,1758,0,0
-497,-734,0,0,0,0,0,0,0,0,0,-1,727,1758,0,0
-490,-734,0,0,0,0,0,0,0,0,0,-1,734,1758,0,0
-483,-734,0,0,0,0,0,0,0,0,0,-1,741,1758,0,0
-476,-734,0,0,0,0,0,0,0,0,0,-1,748,1758,0,0
-469,-734,0,0,0,0,0,0,0,0,0,-1,755,1758,0,0
-462,-734,0,0,0,0,0,0,0,0,0,-1,762,1758,0,0
-455,-734,0,0,0,0,0,0,0,0,0,-1,769,1758,0,0
-448,-734,0,0,0,0,0,0,0,0,0,-1,776,1758,0,0
-441,-734,0,0,0,0,0,0,0,0,0,-1,783,1758,0,0
-434,-734,0,0,0,0,0,0,0,0,0,-1,790,1758,0,0
-427,-734,0,0,0,0,0,0,0,0,0,-1,797,1758,0,0
-420,-734,0,0,0,0,0,0,0,0,0,-1,804,1758,0,0
-413,-734,0,0,0,0,0,0,0,0,0,-1,811,1758,0,0
-406,-734,0,0,0,0,0,0,0,0,0,-1,818,1758,0,0
-399,-734,0,0,0,0,0,0,0,0,0,-1,825,1758,0,0
-392,-734,0,0,0,0,0,0,0,0,0,-1,832,1758,0,0
-385,-734,0,0,0,0,0,0,0,0,0,-1,839,1758,0,0
-378,-734,0,0,0,0,0,0,0,0,0,-1,846,1758,0,0
-371,-734,0,0,0,0,0,0,0,0,0,-1,853,1758,0,0
-364,-734,0,0,0,0,0,0,0,0,0,-1,860,1758,0,0
-357,-734,0,0,0,0,0,0,0,0,0,-1,867,1758,0,0
-350,-734,0,0,0,0,0,0,0,0,0,-1,874,1758,0,0
-343,-734,0,0,0,0,0,0,0,0,0,-1,881,1758,0,0
-336,-734,0,0,0,0,0,0,0,0,0,-1,888,1758,0,0
-329,-734,0,0,0,0,0,0,0,0,0,-1,895,1758,0,0
-322,-734,0,0,0,0,0,0,0,0,0,-1,902,1758,0,0
-315,-734,0,0,0,0,0,0,0,0,0,-1,909,1758,0,0
-308,-734,0,0,0,0,0,0,0,0,0,-1,916,1758,0,0
-301,-734,0,0,0,0,0,0,0,0,0,-1,923,1758,0,0
-294,-734,0,0,0,0,0,0,0,0,0,-1,930,1758,0,0
-287,-734,0,0,0,0,0,0,0,0,0,-1,937,1758,0,0
-280,-734,0,0,0,0,0,0,0,0,0,-1,944,1758,0,0
-273,-734,0,0,0,0,0,0,0,0,0,-1,951,1758,0,0
-266,-734,0,0,0,0,0,0,0,0,0,-1,958,1758,0,0
-259,-734,0,0,0,0,0,0,0,0,0,-1,965,1758,0,0
-252,-734,5.57068,5.35791,0,0,0,0,0,0,0,-1,972,1758,5.57068,-5.3579
-245,-734,6.83002,6.19312,0,0,0,0,0,0,0,-1,979,1758,6.83001,-6.19311
-238,-734,4.79346,4.72571,0,0,0,0,0,0,0,-1,986,1758,4.79348,-4.72568
-231,-734,5.7038,13.3419,0,0,0,0,0,0,0,-1,993,1758,5.70378,-13.3419
-224,-734,6.11206,12.2222,0,0,0,0,0,0,0,-1,1000,1758,6.11204,-12.2222
-217,-734,6.52032,11.1024,0,0,0,0,0,0,0,-1,1007,1758,6.5203,-11.1024
-210,-734,4.36469,15.0829,0,0,0,0,0,0,0,-1,1014,1758,4.3647,-15.0828
-203,-734,3.97339,13.3999,0,0,0,0,0,0,0,-1,1021,1758,3.97338,-13.3999
-196,-734,3.84729,12.3807,0,0,0,0,0,0,0,-1,1028,1758,3.84734,-12.3807
-189,-734,3.4436,11.3749,0,0,0,0,0,0,0,-1,1035,1758,3.4436,-11.3749
-182,-734,3.55627,10.6559,0,0,0,0,0,0,0,-1,1042,1758,3.55632,-10.6559
-175,-734,3.50879,9.12256,0,0,0,0,0,0,0,-1,1049,1758,3.50878,-9.12255
-168,-734,3.44299,9.47632,0,0,0,0,0,0,0,-1,1056,1758,3.443,-9.47626
-161,-734,3.51257,9.94104,0,0,0,0,0,0,0,-1,1063,1758,3.51257,-9.94101
-154,-734,4.12927,11.8175,0,0,0,0,0,0,0,-1,1070,1758,4.12923,-11.8175
-147,-734,3.95435,11.9974,0,0,0,0,0,0,0,-1,1077,1758,3.95438,-11.9974
-140,-734,4.46411,11.8785,-0.0168465,0.00309266,-0.00214453,0.0033207,-0.0170746,-1.46486,0.0126362,0.0414202,1084,1758,4.46409,-11.8785
-133,-734,4.43835,11.8553,-0.0147805,0.00298411,-0.00155937,0.00311996,-0.0149164,-1.4839,0.011131,0.0359398,1091,1758,4.43829,-11.8553
-126,-734,4.08533,11.9225,-0.0127609,0.00259673,-0.000971417,0.00265793,-0.0128221,-1.50788,0.00955802,0.0320417,1098,1758,4.08539,-11.9225
-119,-734,3.96741,12.0914,-0.0102202,0.00266535,-0.000343074,0.00267448,-0.0102293,-1.5442,0.00786413,0.0317185,1105,1758,3.96739,-12.0914
-112,-734,4.1178,12.149,-0.00771032,0.0028114,3.99959e-05,0.00281155,-0.00771047,1.567,0.00629054,0.0258461,1112,1758,4.11778,-12.1491
-105,-734,4.13757,12.2581,-0.00555691,0.00281204,0.000310073,0.00282351,-0.00556838,1.53381,0.0049307,0.0197971,1119,1758,4.1376,-12.258
-98,-734,4.16345,12.3479,-0.00368627,0.00291954,0.000402033,0.00294392,-0.00371065,1.51023,0.00385051,0.0169038,1126,1758,4.16345,-12.3479
-91,-734,4.1897,12.3917,-0.00228121,0.0029394,0.000347426,0.00296241,-0.00230423,1.50464,0.0030486,0.0188814,1133,1758,4.1897,-12.3917
-84,-734,4.14624,12.474,-0.00131981,0.00286607,0.000476207,0.00291956,-0.0013733,1.45894,0.00253151,0.0153536,1140,1758,4.14618,-12.4741
-77,-734,4.13562,12.5757,0.000644882,0.00243292,0.000874917,0.0027898,0.000288001,1.1835,0.00177168,0.0143473,1147,1758,4.13563,-12.5757
-70,-734,4.12805,12.6168,0.00128154,0.0015965,0.000135375,0.00164669,0.00123135,1.21577,0.000988863,0.0122192,1154,1758,4.12805,-12.6169
-63,-734,4.12695,12.6876,0.000344324,0.00159071,-0.000440344,0.00173058,0.00020445,-1.26323,0.00109197,0.0110248,1161,1758,4.12699,-12.6877
-56,-734,4.12646,12.7545,-0.000306265,0.00156253,-0.00061546,0.00174701,-0.000490746,-1.27957,0.00135814,0.0110442,1168,1758,4.1265,-12.7545
-49,-734,4.12073,12.8073,-0.000789783,0.00150026,-0.00065216,0.00167296,-0.000962481,-1.31193,0.00153989,0.0116387,1175,1758,4.12072,-12.8073
-42,-734,4.10583,12.8678,-0.00125384,0.00156816,-0.00057894,0.00168232,-0.00136799,-1.37612,0.00176421,0.0130619,1182,1758,4.10584,-12.8679
-35,-734,4.09167,12.9087,-0.00148372,0.00131794,-0.000778065,0.00151952,-0.00168529,-1.31729,0.00185112,0.0136046,1189,1758,4.09173,-12.9086
-28,-734,4.09961,12.951,-0.00159685,0.00094557,-0.000720178,0.0011354,-0.00178668,-1.31307,0.00170097,0.00952773,1196,1758,4.09956,-12.951
-21,-734,4.12781,13.0083,-0.00136084,0.000584616,-0.000732055,0.000829305,-0.00160553,-1.24822,0.00142937,0.0138735,1203,1758,4.12785,-13.0083
-14,-734,4.09717,13.0909,-0.0010747,0.000151527,-0.000643515,0.000427244,-0.00135041,-1.166,0.00107147,0.0144278,1210,1758,4.09718,-13.091
-7,-734,4.10828,13.1127,-0.000685564,-0.000350393,-0.000461396,-2.70909e-05,-0.00100887,-0.959597,0.000663732,0.017377,1217,1758,4.10823,-13.1127
0,-734,4.10889,13.1498,-0.000245515,-0.000970931,-0.000300397,-0.000137271,-0.00107917,-0.345853,0.000678338,0.0181394,1224,1758,4.10883,-13.1498
7,-734,4.0907,13.1936,9.80682e-05,-0.0016172,-0.000195344,0.000120034,-0.00163916,-0.111975,0.0011349,0.0134278,1231,1758,4.0907,-13.1937
14,-734,4.07874,13.243,0.000382733,-0.00201531,-0.000173913,0.00039528,-0.00202786,-0.0720204,0.00150111,0.013568,1238,1758,4.07876,-13.243
21,-734,4.06555,13.2795,0.000621432,-0.00238133,-0.000138971,0.00062785,-0.00238775,-0.0461495,0.00183723,0.0115936,1245,1758,4.06559,-13.2796
28,-734,4.0769,13.2925,0.00079098,-0.00263511,-0.000146535,0.000797236,-0.00264137,-0.0426665,0.00207827,0.0106002,1252,1758,4.07688,-13.2925
35,-734,4.08325,13.3191,0.0010038,-0.00276808,-0.000246182,0.0010198,-0.00278408,-0.0649008,0.00227355,0.0127361,1259,1758,4.08321,-13.319
42,-734,4.08521,13.3,0.00122071,-0.00285289,-0.00043781,0.00126723,-0.00289942,-0.105864,0.00246637,0.0112253,1266,1758,4.08524,-13.3001
49,-734,4.07483,13.3103,0.00138751,-0.00283685,-0.000739112,0.00151309,-0.00296244,-0.168306,0.00262872,0.00965722,1273,1758,4.07487,-13.3103
56,-734,4.0553,13.3512,0.00169428,-0.00277385,-0.00117636,0.00198507,-0.00306464,-0.242332,0.00293757,0.00860876,1280,1758,4.05534,-13.3512
63,-734,4.06201,13.3544,0.00201621,-0.00270163,-0.00154866,0.00247915,-0.00316457,-0.29047,0.0032664,0.0112804,1287,1758,4.06203,-13.3544
70,-734,4.05432,13.3583,0.00208532,-0.00242925,-0.00205391,0.0028799,-0.00322383,-0.36913,0.00352586,0.0121132,1294,1758,4.05435,-13.3583
77,-734,4.06311,13.4204,0.00192497,-0.00204609,-0.00263497,0.00323874,-0.00335986,-0.46252,0.00380992,0.0162674,1301,1758,4.06313,-13.4204
84,-734,4.0658,13.3895,0.00184747,-0.00178171,-0.00306331,0.0035933,-0.00352755,-0.518006,0.00411128,0.0156445,1308,1758,4.06577,-13.3895
91,-734,4.08179,13.3545,0.00170256,-0.00154278,-0.00345947,0.00390101,-0.00374124,-0.566106,0.00441258,0.0168796,1315,1758,4.08184,-13.3545
98,-734,4.08508,13.3757,0.00149333,-0.00132723,-0.00377744,0.00411517,-0.00394907,-0.606739,0.00465622,0.0138996,1322,1758,4.08506,-13.3757
105,-734,4.08826,13.3749,0.00121635,-0.00104987,-0.0039502,0.00419274,-0.00402627,-0.645724,0.00474557,0.0148293,1329,1758,4.08821,-13.3749
112,-734,4.08997,13.3491,0.000911289,-0.000711832,-0.00391549,0.00409844,-0.00389898,-0.68321,0.00461779,0.0123986,1336,1758,4.08999,-13.3492
119,-734,4.08313,13.3234,0.000520366,-0.000546298,-0.00382114,0.00384522,-0.00387115,-0.716059,0.00445505,0.01312,1343,1758,4.08315,-13.3233
126,-734,4.07495,13.3159,0.000162823,-0.00021398,-0.0038049,0.00378399,-0.00383514,-0.760661,0.00439894,0.0155809,1350,1758,4.0749,-13.3159
133,-734,4.06067,13.2927,-0.000207151,4.20554e-05,-0.00365306,0.00357264,-0.00373773,-0.802446,0.004221,0.0139897,1357,1758,4.06064,-13.2928
140,-734,4.05737,13.2656,-0.000583349,0.000280625,-0.0034287,0.00330445,-0.00360717,-0.848064,0.0039917,0.0191022,1364,1758,4.05735,-13.2656
147,-734,4.05164,13.2374,-0.000836347,0.000484183,-0.0031867,0.00307831,-0.00343047,-0.88755,0.00375968,0.014043,1371,1758,4.05169,-13.2375
154,-734,4.03845,13.2555,-0.00105421,0.000796198,-0.00296314,0.00297522,-0.00323323,-0.936721,0.00358548,0.0100406,1378,1758,4.03843,-13.2555
161,-734,4.04407,13.2191,-0.00138471,0.000995095,-0.00270312,0.00275862,-0.00314823,-0.992734,0.00341279,0.00902104,1385,1758,4.04409,-13.2191
168,-734,4.01233,13.1713,-0.00126501,0.00131122,-0.00263195,0.00295336,-0.00290716,-1.01297,0.00338361,0.0137652,1392,1758,4.01228,-13.1713
175,-734,3.99817,13.151,-0.000533971,0.00152988,-0.00224546,0.00296918,-0.00197327,-1.00079,0.00287277,0.0165891,1399,1758,3.99821,-13.151
182,-734,4.02783,13.0839,0.00040715,0.00218471,-0.00205674,0.00353649,-0.00094463,-0.989345,0.00272761,0.0144007,1406,1758,4.02783,-13.0838
189,-734,4.02161,13.0347,4.80207e-06,0.00319861,-0.00214111,0.00427275,-0.00106933,-1.10581,0.00326387,0.0107446,1413,1758,4.02161,-13.0347
196,-734,4.01245,13.012,-0.000221817,0.00418384,-0.00228543,0.00515522,-0.0011932,-1.1689,0.00389594,0.0113112,1420,1758,4.01242,-13.0119
203,-734,4.01904,12.9448,-0.000416324,0.00535599,-0.00250985,0.00629465,-0.00135499,-1.21291,0.00471347,0.0110521,1427,1758,4.01907,-12.9448
210,-734,4.01624,12.8992,-0.000655131,0.00622995,-0.00266324,0.00713987,-0.00156505,-1.24157,0.00535834,0.0114451,1434,1758,4.01626,-12.8992
217,-734,4.00085,12.8524,-0.000907767,0.0069044,-0.00275916,0.00778062,-0.00178399,-1.2633,0.00587277,0.0101607,1441,1758,4.0008,-12.8524
224,-734,4.00305,12.7783,-0.00131036,0.00735855,-0.00267603,0.00811807,-0.00206988,-1.29424,0.00621793,0.0112597,1448,1758,4.00311,-12.7783
231,-734,4.00159,12.7251,-0.00180354,0.00738944,-0.00246445,0.00800843,-0.00242253,-1.32472,0.00630359,0.0119554,1455,1758,4.00155,-12.7251
238,-734,4.01184,12.6536,-0.00198978,0.00745218,-0.00238498,0.00802041,-0.00255801,-1.3369,0.00637309,0.0144614,1462,1758,4.0119,-12.6535
245,-734,4.00354,12.546,-0.00218997,0.00730173,-0.00223647,0.0078023,-0.00269054,-1.35061,0.00629311,0.0197979,1469,1758,4.00354,-12.546
252,-734,3.99048,12.5039,-0.00303994,0.00786902,-0.00187842,0.00818341,-0.00335432,-1.40497,0.00685304,0.0258596,1476,1758,3.99046,-12.5039
259,-734,4.05713,12.4928,-0.00415846,0.00863459,-0.00111667,0.00873133,-0.0042552,-1.48438,0.00764479,0.0366268,1483,1758,4.05714,-12.4928
266,-734,4.02173,12.4539,-0.00531072,0.00969454,0.000201695,0.00969725,-0.00531343,1.55736,0.00878876,0.0466533,1490,1758,4.02176,-12.4539
273,-734,3.96436,12.4149,-0.0064195,0.0112487,0.00159404,0.0113913,-0.00656216,1.48154,0.0104897,0.0492257,1497,1758,3.96433,-12.4149
280,-734,4.16882,12.6277,0,0,0,0,0,0,0,-1,1504,1758,4.16883,-12.6276
287,-734,12.9742,6.39514,0,0,0,0,0,0,0,-1,1511,1758,12.9743,-6.39518
294,-734,3.91785,11.4979,0,0,0,0,0,0,0,-1,1518,1758,3.91779,-11.4979
301,-734,3.72888,11.0223,0,0,0,0,0,0,0,-1,1525,1758,3.72884,-11.0224
308,-734,3.53992,10.5469,0,0,0,0,0,0,0,-1,1532,1758,3.53989,-10.5469
315,-734,3.21057,11.5992,0,0,0,0,0,0,0,-1,1539,1758,3.21057,-11.5992
322,-734,4.17163,11.5508,0,0,0,0,0,0,0,-1,1546,1758,4.17163,-11.5508
329,-734,5.45972,12.4125,0,0,0,0,0,0,0,-1,1553,1758,5.45969,-12.4125
336,-734,5.92188,13.8751,0,0,0,0,0,0,0,-1,1560,1758,5.92183,-13.8751
343,-734,5.54968,5.14221,0,0,0,0,0,0,0,-1,1567,1758,5.54973,-5.14225
350,-734,5.07397,6.73242,0,0,0,0,0,0,0,-1,1574,1758,5.07402,-6.73243
357,-734,5.05542,7.19189,0,0,0,0,0,0,0,-1,1581,1758,5.05541,-7.19184
364,-734,1.31287,6.05872,0,0,0,0,0,0,0,-1,1588,1758,1.31283,-6.05868
371,-734,1.57007,7.77197,0,0,0,0,0,0,0,-1,1595,1758,1.57008,-7.77196
378,-734,0,0,0,0,0,0,0,0,0,-1,1602,1758,0,0
385,-734,0,0,0,0,0,0,0,0,0,-1,1609,1758,0,0
392,-734,0,0,0,0,0,0,0,0,0,-1,1616,1758,0,0
399,-734,0,0,0,0,0,0,0,0,0,-1,1623,1758,0,0
406,-734,0,0,0,0,0,0,0,0,0,-1,1630,1758,0,0
413,-734,0,0,0,0,0,0,0,0,0,-1,1637,1758,0,0
420,-734,0,0,0,0,0,0,0,0,0,-1,1644,1758,0,0
427,-734,0,0,0,0,0,0,0,0,0,-1,1651,1758,0,0
434,-734,0,0,0,0,0,0,0,0,0,-1,1658,1758,0,0
441,-734,0,0,0,0,0,0,0,0,0,-1,1665,1758,0,0
448,-734,0,0,0,0,0,0,0,0,0,-1,1672,1758,0,0
455,-734,0,0,0,0,0,0,0,0,0,-1,1679,1758,0,0
462,-734,0,0,0,0,0,0,0,0,0,-1,1686,1758,0,0
469,-734,0,0,0,0,0,0,0,0,0,-1,1693,1758,0,0
476,-734,0,0,0,0,0,0,0,0,0,-1,1700,1758,0,0
483,-734,0,0,0,0,0,0,0,0,0,-1,1707,1758,0,0
490,-734,0,0,0,0,0,0,0,0,0,-1,1714,1758,0,0
497,-734,0,0,0,0,0,0,0,0,0,-1,1721,1758,0,0
504,-734,0,0,0,0,0,0,0,0,0,-1,1728,1758,0,0
511,-734,0,0,0,0,0,0,0,0,0,-1,1735,1758,0,0
518,-734,0,0,0,0,0,0,0,0,0,-1,1742,1758,0,0
525,-734,0,0,0,0,0,0,0,0,0,-1,1749,1758,0,0
532,-734,0,0,0,0,0,0,0,0,0,-1,1756,1758,0,0
539,-734,0,0,0,0,0,0,0,0,0,-1,1763,1758,0,0
546,-734,0,0,0,0,0,0,0,0,0,-1,1770,1758,0,0
553,-734,0,0,0,0,0,0,0,0,0,-1,1777,1758,0,0
560,-734,0,0,0,0,0,0,0,0,0,-1,1784,1758,0,0
567,-734,0,0,0,0,0,0,0,0,0,-1,1791,1758,0,0
574,-734,0,0,0,0,0,0,0,0,0,-1,1798,1758,0,0
581,-734,0,0,0,0,0,0,0,0,0,-1,1805,1758,0,0
588,-734,0,0,0,0,0,0,0,0,0,-1,1812,1758,0,0
595,-734,0,0,0,0,0,0,0,0,0,-1,1819,1758,0,0
602,-734,0,0,0,0,0,0,0,0,0,-1,1826,1758,0,0
609,-734,0,0,0,0,0,0,0,0,0,-1,1833,1758,0,0
616,-734,0,0,0,0,0,0,0,0,0,-1,1840,1758,0,0
623,-734,0,0,0,0,0,0,0,0,0,-1,1847,1758,0,0
630,-734,0,0,0,0,0,0,0,0,0,-1,1854,1758,0,0
637,-734,0,0,0,0,0,0,0,0,0,-1,1861,1758,0,0
644,-734,0,0,0,0,0,0,0,0,0,-1,1868,1758,0,0
651,-734,0,0,0,0,0,0,0,0,0,-1,1875,1758,0,0
658,-734,0,0,0,0,0,0,0,0,0,-1,1882,1758,0,0
665,-734,0,0,0,0,0,0,0,0,0,-1,1889,1758,0,0
672,-734,0,0,0,0,0,0,0,0,0,-1,1896,1758,0,0
679,-734,0,0,0,0,0,0,0,0,0,-1,1903,1758,0,0
686,-734,0,0,0,0,0,0,0,0,0,-1,1910,1758,0,0
693,-734,0,0,0,0,0,0,0,0,0,-1,1917,1758,0,0
700,-734,0,0,0,0,0,0,0,0,0,-1,1924,1758,0,0
707,-734,0,0,0,0,0,0,0,0,0,-1,1931,1758,0,0
714,-734,0,0,0,0,0,0,0,0,0,-1,1938,1758,0,0
721,-734,0,0,0,0,0,0,0,0,0,-1,1945,1758,0,0
728,-734,0,0,0,0,0,0,0,0,0,-1,1952,1758,0,0
735,-734,0,0,0,0,0,0,0,0,0,-1,1959,1758,0,0
742,-734,0,0,0,0,0,0,0,0,0,-1,1966,1758,0,0
749,-734,0,0,0,0,0,0,0,0,0,-1,1973,1758,0,0
756,-734,0,0,0,0,0,0,0,0,0,-1,1980,1758,0,0
763,-734,0,0,0,0,0,0,0,0,0,-1,1987,1758,0,0
770,-734,0,0,0,0,0,0,0,0,0,-1,1994,1758,0,0
777,-734,0,0,0,0,0,0,0,0,0,-1,2001,1758,0,0
784,-734,0,0,0,0,0,0,0,0,0,-1,2008,1758,0,0
791,-734,0,0,0,0,0,0,0,0,0,-1,2015,1758,0,0
798,-734,0,0,0,0,0,0,0,0,0,-1,2022,1758,0,0
805,-734,0,0,0,0,0,0,0,0,0,-1,2029,1758,0,0
812,-734,0,0,0,0,0,0,0,0,0,-1,2036,1758,0,0
-700,-741,0,0,0,0,0,0,0,0,0,-1,524,1765,0,0
-693,-741,0,0,0,0,0,0,0,0,0,-1,531,1765,0,0
-686,-741,0,0,0,0,0,0,0,0,0,-1,538,1765,0,0
-679,-741,0,0,0,0,0,0,0,0,0,-1,545,1765,0,0
-672,-741,0,0,0,0,0,0,0,0,0,-1,552,1765,0,0
-665,-741,0,0,0,0,0,0,0,0,0,-1,559,1765,0,0
-658,-741,0,0,0,0,0,0,0,0,0,-1,566,1765,0,0
-651,-741,0,0,0,0,0,0,0,0,0,-1,573,1765,0,0
-644,-741,0,0,0,0,0,0,0,0,0,-1,580,1765,0,0
-637,-741,0,0,0,0,0,0,0,0,0,-1,587,1765,0,0
-630,-741,0,0,0,0,0,0,0,0,0,-1,594,1765,0,0
-623,-741,0,0,0,0,0,0,0,0,0,-1,601,1765,0,0
-616,-741,0,0,0,0,0,0,0,0,0,-1,608,1765,0,0
-609,-741,0,0,0,0,0,0,0,0,0,-1,615,1765,0,0
-602,-741,0,0,0,0,0,0,0,0,0,-1,622,1765,0,0
-595,-741,0,0,0,0,0,0,0,0,0,-1,629,1765,0,0
-588,-741,0,0,0,0,0,0,0,0,0,-1,636,1765,0,0
-581,-741,0,0,0,0,0,0,0,0,0,-1,643,1765,0,0
-574,-741,0,0,0,0,0,0,0,0,0,-1,650,1765,0,0
-567,-741,0,0,0,0,0,0,0,0,0,-1,657,1765,0,0
-560,-741,0,0,0,0,0,0,0,0,0,-1,664,1765,0,0
-553,-741,0,0,0,0,0,0,0,0,0,-1,671,1765,0,0
-546,-741,0,0,0,0,0,0,0,0,0,-1,678,1765,0,0
-539,-741,0,0,0,0,0,0,0,0,0,-1,685,1765,0,0
-532,-741,0,0,0,0,0,0,0,0,0,-1,692,1765,0,0
-525,-741,0,0,0,0,0,0,0,0,0,-1,699,1765,0,0
-518,-741,0,0,0,0,0,0,0,0,0,-1,706,1765,0,0
-511,-741,0,0,0,0,0,0,0,0,0,-1,713,1765,0,0
-504,-741,0,0,0,0,0,0,0,0,0,-1,720,1765,0,0
-497,-741,0,0,0,0,0,0,0,0,0,-1,727,1765,0,0
-490,-741,0,0,0,0,0,0,0,0,0,-1,734,1765,0,0
-483,-741,0,0,0,0,0,0,0,0,0,-1,741,1765,0,0
-476,-741,0,0,0,0,0,0,0,0,0,-1,748,1765,0,0
-469,-741,0,0,0,0,0,0,0,0,0,-1,755,1765,0,0
-462,-741,0,0,0,0,0,0,0,0,0,-1,762,1765,0,0
-455,-741,0,0,0,0,0,0,0,0,0,-1,769,1765,0,0
-448,-741,0,0,0,0,0,0,0,0,0,-1,776,1765,0,0
-441,-741,0,0,0,0,0,0,0,0,0,-1,783,1765,0,0
-434,-741,0,0,0,0,0,0,0,0,0,-1,790,1765,0,0
-427,-741,0,0,0,0,0,0,0,0,0,-1,797,1765,0,0
-420,-741,0,0,0,0,0,0,0,0,0,-1,804,1765,0,0
-413,-741,0,0,0,0,0,0,0,0,0,-1,811,1765,0,0
-406,-741,0,0,0,0,0,0,0,0,0,-1,818,1765,0,0
-399,-741,0,0,0,0,0,0,0,0,0,-1,825,1765,0,0
-392,-741,0,0,0,0,0,0,0,0,0,-1,832,1765,0,0
-385,-741,0,0,0,0,0,0,0,0,0,-1,839,1765,0,0
-378,-741,0,0,0,0,0,0,0,0,0,-1,846,1765,0,0
-371,-741,0,0,0,0,0,0,0,0,0,-1,853,1765,0,0
-364,-741,0,0,0,0,0,0,0,0,0,-1,860,1765,0,0
-357,-741,0,0,0,0,0,0,0,0,0,-1,867,1765,0,0
-350,-741,0,0,0,0,0,0,0,0,0,-1,874,1765,0,0
-343,-741,0,0,0,0,0,0,0,0,0,-1,881,1765,0,0
-336,-741,0,0,0,0,0,0,0,0,0,-1,888,1765,0,0
-329,-741,0,0,0,0,0,0,0,0,0,-1,895,1765,0,0
-322,-741,0,0,0,0,0,0,0,0,0,-1,902,1765,0,0
-315,-741,0,0,0,0,0,0,0,0,0,-1,909,1765,0,0
-308,-741,0,0,0,0,0,0,0,0,0,-1,916,1765,0,0
-301,-741,0,0,0,0,0,0,0,0,0,-1,923,1765,0,0
-294,-741,0,0,0,0,0,0,0,0,0,-1,930,1765,0,0
-287,-741,0,0,0,0,0,0,0,0,0,-1,937,1765,0,0
-280,-741,0,0,0,0,0,0,0,0,0,-1,944,1765,0,0
-273,-741,0,0,0,0,0,0,0,0,0,-1,951,1765,0,0
-266,-741,0,0,0,0,0,0,0,0,0,-1,958,1765,0,0
-259,-741,0,0,0,0,0,0,0,0,0,-1,965,1765,0,0
-252,-741,0,0,0,0,0,0,0,0,0,-1,972,1765,0,0
-245,-741,0,0,0,0,0,0,0,0,0,-1,979,1765,0,0
-238,-741,5.22742,8.96448,0,0,0,0,0,0,0,-1,986,1765,5.22743,-8.96451
-231,-741,5.78656,12.7001,0,0,0,0,0,0,0,-1,993,1765,5.78654,-12.7001
-224,-741,6.48383,11.9122,0,0,0,0,0,0,0,-1,1000,1765,6.48384,-11.9123
-217,-741,7.18115,11.1244,0,0,0,0,0,0,0,-1,1007,1765,7.18114,-11.1244
-210,-741,4.37836,15.1417,0,0,0,0,0,0,0,-1,1014,1765,4.37838,-15.1417
-203,-741,3.72192,13.4611,0,0,0,0,0,0,0,-1,1021,1765,3.72188,-13.461
-196,-741,3.70251,12.59,0,0,0,0,0,0,0,-1,1028,1765,3.70254,-12.59
-189,-741,3.76379,11.6814,0,0,0,0,0,0,0,-1,1035,1765,3.7638,-11.6814
-182,-741,3.81067,10.8192,0,0,0,0,0,0,0,-1,1042,1765,3.81065,-10.8193
-175,-741,3.19373,8.96411,0,0,0,0,0,0,0,-1,1049,1765,3.19376,-8.96417
-168,-741,2.96594,8.87219,0,0,0,0,0,0,0,-1,1056,1765,2.96592,-8.87218
-161,-741,2.7699,9.14465,0,0,0,0,0,0,0,-1,1063,1765,2.76992,-9.14465
-154,-741,2.46143,9.75415,0,0,0,0,0,0,0,-1,1070,1765,2.46145,-9.75416
-147,-741,4.229,9.21167,0,0,0,0,0,0,0,-1,1077,1765,4.22896,-9.21167
-140,-741,4.92273,12.0171,0,0,0,0,0,0,0,-1,1084,1765,4.92272,-12.0171
-133,-741,5.14722,11.8746,-0.0216958,0.00391867,-0.00270088,0.00420036,-0.0219775,-1.46688,0.0162339,0.048056,1091,1765,5.1472,-11.8746
-126,-741,3.83508,11.687,-0.01848,0.00344239,-0.00176457,0.00358351,-0.0186212,-1.49099,0.013765,0.0434455,1098,1765,3.83509,-11.687
-119,-741,4.03003,12.1414,-0.0146493,0.00353572,-0.000819466,0.00357257,-0.0146862,-1.52586,0.0111737,0.043206,1105,1765,4.03004,-12.1413
-112,-741,4.10364,12.213,-0.0109204,0.00369077,-0.000193289,0.00369333,-0.010923,-1.55757,0.0087761,0.0403366,1112,1765,4.10366,-12.213
-105,-741,4.12341,12.2621,-0.00768965,0.00363978,0.000238209,0.00364479,-0.00769466,1.54978,0.00668457,0.0348601,1119,1765,4.12346,-12.262
-98,-741,4.23584,12.3273,-0.004963,0.00373504,0.000422491,0.00375551,-0.00498347,1.52238,0.00506203,0.0372703,1126,1765,4.23582,-12.3273
-91,-741,4.18213,12.2776,-0.00292032,0.00368409,0.000414023,0.00370994,-0.00294617,1.50843,0.00385133,0.0465556,1133,1765,4.18218,-12.2776
-84,-741,4.31079,12.4244,-0.00154893,0.00350206,0.000561064,0.00356363,-0.0016105,1.46149,0.00305741,0.0490853,1140,1765,4.31079,-12.4245
-77,-741,4.57239,12.2997,0,0,0,0,0,0,0,-1,1147,1765,4.57242,-12.2997
-70,-741,4.19458,12.522,0,0,0,0,0,0,0,-1,1154,1765,4.19462,-12.522
-63,-741,4.15503,12.6406,0,0,0,0,0,0,0,-1,1161,1765,4.15498,-12.6406
-56,-741,4.20532,12.7225,0,0,0,0,0,0,0,-1,1168,1765,4.20535,-12.7225
-49,-741,4.18689,12.8032,0,0,0,0,0,0,0,-1,1175,1765,4.18693,-12.8032
-42,-741,4.15259,12.8694,0,0,0,0,0,0,0,-1,1182,1765,4.15258,-12.8694
-35,-741,4.15295,12.9225,-0.00298044,0.00210655,-0.00118101,0.00236737,-0.00324125,-1.35344,0.00325121,0.0170936,1189,1765,4.15292,-12.9225
-28,-741,4.16174,12.9849,-0.00334336,0.00186703,-0.000980396,0.0020454,-0.00352173,-1.39083,0.00325164,0.0128368,1196,1765,4.16172,-12.9849
-21,-741,4.16809,13.0238,-0.00306606,0.00162501,-0.000945416,0.00180838,-0.00324943,-1.37922,0.00295937,0.0164134,1203,1765,4.16803,-13.0237
-14,-741,4.14355,13.0685,-0.00260604,0.00139486,-0.000679514,0.00150712,-0.0027183,-1.40707,0.00247273,0.0168816,1210,1765,4.14358,-13.0685
-7,-741,4.15649,13.0654,-0.00196735,0.00103318,-0.000326484,0.0010683,-0.00200247,-1.46366,0.00180004,0.0155863,1217,1765,4.15654,-13.0655
0,-741,4.1676,13.1136,-0.00127418,0.000483063,-7.88926e-05,0.000486598,-0.00127771,-1.52602,0.0010522,0.0160584,1224,1765,4.16762,-13.1136
7,-741,4.12964,13.1986,-0.000624443,-0.00011029,9.11381e-05,-9.46129e-05,-0.00064012,1.40045,0.000398966,0.0168693,1231,1765,4.1297,-13.1986
14,-741,4.12805,13.2308,8.6682e-07,-0.000410503,0.000165456,5.91554e-05,-0.000468791,0.338714,0.000333997,0.014813,1238,1765,4.12803,-13.2309
21,-741,4.11206,13.2561,0.000597743,-0.000637717,0.000276545,0.00065682,-0.000696794,0.210461,0.000781623,0.0116651,1245,1765,4.11205,-13.2561
28,-741,4.08704,13.2979,0.00111939,-0.00076388,0.000328959,0.0011752,-0.000819686,0.168047,0.00115783,0.0126206,1252,1765,4.08699,-13.2978
35,-741,4.09583,13.3165,0.001659,-0.000826227,0.000237863,0.00168156,-0.000848788,0.0945667,0.00148704,0.0139825,1259,1765,4.09585,-13.3166
42,-741,4.11523,13.316,0.00217286,-0.000821081,4.35033e-05,0.00217349,-0.000821713,0.0145264,0.00178702,0.0139729,1266,1765,4.11527,-13.316
49,-741,4.0896,13.3198,0.00261073,-0.000703195,-0.000284025,0.0026349,-0.000727362,-0.0848816,0.00204269,0.0096599,1273,1765,4.08955,-13.3198
56,-741,4.07056,13.3448,0.00318939,-0.000504697,-0.000761916,0.00334036,-0.000655674,-0.19562,0.00247459,0.00940788,1280,1765,4.07056,-13.3449
63,-741,4.07434,13.348,0.00354753,-0.000457944,-0.00125133,0.00390631,-0.000816726,-0.279231,0.00291484,0.0134953,1287,1765,4.07431,-13.348
70,-741,4.06079,13.3729,0.00346725,-9.84639e-05,-0.00193064,0.00431231,-0.000943522,-0.412586,0.00323556,0.0155249,1294,1765,4.06078,-13.373
77,-741,4.0553,13.4214,0.0030282,0.000341498,-0.00277895,0.00477146,-0.00140176,-0.560257,0.00373692,0.0132238,1301,1765,4.05525,-13.4214
84,-741,4.04407,13.41,0.00260565,0.000605044,-0.00343526,0.00518328,-0.00197259,-0.643722,0.00426781,0.0159988,1308,1765,4.04408,-13.4101
91,-741,4.04199,13.4009,0.00204119,0.000757553,-0.00412218,0.00557121,-0.00277247,-0.708169,0.00490673,0.0129927,1315,1765,4.04201,-13.4008
98,-741,4.04761,13.3794,0.00137561,0.000874686,-0.00473689,0.00586865,-0.00361836,-0.758986,0.00552845,0.0101652,1322,1765,4.04761,-13.3794
105,-741,4.06348,13.3488,0.000629142,0.00104651,-0.00516958,0.00601161,-0.00433596,-0.805571,0.00600023,0.010593,1329,1765,4.06351,-13.3488
112,-741,4.07886,13.3344,-0.000160506,0.00122467,-0.0054059,0.00598217,-0.004918,-0.84911,0.0063032,0.010706,1336,1765,4.07886,-13.3343
119,-741,4.06995,13.3073,-0.00099783,0.00116132,-0.0055611,0.00574667,-0.00558317,-0.881271,0.00654151,0.0135851,1343,1765,4.06998,-13.3072
126,-741,4.06934,13.2963,-0.00173051,0.00129478,-0.00577267,0.0057497,-0.00618543,-0.913535,0.00689228,0.0186033,1350,1765,4.06929,-13.2962
133,-741,4.05176,13.2855,-0.00239669,0.00143072,-0.00576099,0.00558754,-0.00655351,-0.945756,0.00701703,0.0135835,1357,1765,4.05176,-13.2855
140,-741,4.02466,13.2566,-0.00295233,0.00163639,-0.00558346,0.00537851,-0.00669445,-0.980341,0.00698412,0.0109354,1364,1765,4.02463,-13.2566
147,-741,4.02222,13.2478,-0.00326394,0.00182729,-0.00532397,0.00518293,-0.00661958,-1.0084,0.00683098,0.0104925,1371,1765,4.02228,-13.2478
154,-741,4.01965,13.2566,-0.00346684,0.00219651,-0.00500778,0.00511777,-0.0063881,-1.04271,0.0066564,0.0093591,1378,1765,4.01961,-13.2566
161,-741,4.01367,13.2253,-0.00382368,0.00240114,-0.00455832,0.00480828,-0.00623082,-1.08494,0.00639104,0.0109818,1385,1765,4.01368,-13.2254
168,-741,4.00232,13.1785,-0.00306447,0.00275317,-0.00430583,0.00504064,-0.00535194,-1.08246,0.00600106,0.021344,1392,1765,4.0023,-13.1785
175,-741,4.16199,13.0133,-0.0015218,0.00234702,-0.00365853,0.00455107,-0.00372584,-1.02859,0.00478659,0.0483406,1399,1765,4.162,-13.0134
182,-741,4.35498,12.7849,0,0,0,0,0,0,0,-1,1406,1765,4.35493,-12.7849
189,-741,3.98999,13.0345,0,0,0,0,0,0,0,-1,1413,1765,3.98995,-13.0345
196,-741,3.96582,13.0116,0,0,0,0,0,0,0,-1,1420,1765,3.96584,-13.0116
203,-741,3.99792,12.8446,-0.000819847,0.0069822,-0.0036374,0.00841491,-0.00225255,-1.19558,0.00649238,0.0444606,1427,1765,3.99791,-12.8447
210,-741,3.95728,12.8828,-0.00114365,0.00823956,-0.00383792,0.00960937,-0.00251346,-1.22797,0.00738798,0.0257115,1434,1765,3.9573,-12.8828
217,-741,3.97156,12.8441,-0.00147396,0.00921404,-0.00392687,0.0105017,-0.0027616,-1.25394,0.00808052,0.0191893,1441,1765,3.97162,-12.8441
224,-741,3.98254,12.7533,-0.00202947,0.00989893,-0.00376798,0.0109895,-0.00312001,-1.28907,0.00855804,0.0255995,1448,1765,3.98257,-12.7534
231,-741,3.96582,12.6599,-0.00266115,0.0100692,-0.00344557,0.010942,-0.00353389,-1.32272,0.0087148,0.0320585,1455,1765,3.96578,-12.6599
238,-741,3.8949,12.535,-0.00289922,0.0102191,-0.00329435,0.0109999,-0.00368004,-1.33807,0.00881969,0.0343419,1462,1765,3.89489,-12.5351
245,-741,3.90417,12.4133,-0.0031537,0.0100602,-0.00303849,0.0107254,-0.0038189,-1.35527,0.008707,0.0434306,1469,1765,3.90412,-12.4133
252,-741,4.01196,12.3514,-0.00420478,0.0107382,-0.00250878,0.0111481,-0.00461473,-1.40882,0.00935762,0.0494806,1476,1765,4.012,-12.3514
259,-741,4.13379,12.412,0,0,0,0,0,0,0,-1,1483,1765,4.13383,-12.412
266,-741,3.95129,12.4847,0,0,0,0,0,0,0,-1,1490,1765,3.95125,-12.4847
273,-741,3.65967,12.2971,0,0,0,0,0,0,0,-1,1497,1765,3.65965,-12.2971
280,-741,13.5908,6.68396,0,0,0,0,0,0,0,-1,1504,1765,13.5908,-6.68398
287,-741,12.5033,6.37781,0,0,0,0,0,0,0,-1,1511,1765,12.5033,-6.37782
294,-741,11.3553,5.93811,0,0,0,0,0,0,0,-1,1518,1765,11.3553,-5.93806
301,-741,3.68481,10.5104,0,0,0,0,0,0,0,-1,1525,1765,3.68477,-10.5104
308,-741,9.0719,6.11353,0,0,0,0,0,0,0,-1,1532,1765,9.07189,-6.11348
315,-741,7.94568,6.22974,0,0,0,0,0,0,0,-1,1539,1765,7.94567,-6.22972
322,-741,3.08521,12.3561,0,0,0,0,0,0,0,-1,1546,1765,3.08526,-12.3561
329,-741,4.46472,13.5316,0,0,0,0,0,0,0,-1,1553,1765,4.46467,-13.5316
336,-741,4.74475,14.6453,0,0,0,0,0,0,0,-1,1560,1765,4.7447,-14.6452
343,-741,5.42297,5.93701,0,0,0,0,0,0,0,-1,1567,1765,5.42296,-5.937
350,-741,4.90369,5.44666,0,0,0,0,0,0,0,-1,1574,1765,4.90368,-5.44664
357,-741,4.02063,5.16626,0,0,0,0,0,0,0,-1,1581,1765,4.02058,-5.1662
364,-741,0,0,0,0,0,0,0,0,0,-1,1588,1765,0,0
371,-741,0,0,0,0,0,0,0,0,0,-1,1595,1765,0,0
378,-741,0,0,0,0,0,0,0,0,0,-1,1602,1765,0,0
385,-741,0,0,0,0,0,0,0,0,0,-1,1609,1765,0,0
392,-741,0,0,0,0,0,0,0,0,0,-1,1616,1765,0,0
399,-741,0,0,0,0,0,0,0,0,0,-1,1623,1765,0,0
406,-741,0,0,0,0,0,0,0,0,0,-1,1630,1765,0,0
413,-741,0,0,0,0,0,0,0,0,0,-1,1637,1765,0,0
420,-741,0,0,0,0,0,0,0,0,0,-1,1644,1765,0,0
427,-741,0,0,0,0,0,0,0,0,0,-1,1651,1765,0,0
434,-741,0,0,0,0,0,0,0,0,0,-1,1658,1765,0,0
441,-741,0,0,0,0,0,0,0,0,0,-1,1665,1765,0,0
448,-741,0,0,0,0,0,0,0,0,0,-1,1672,1765,0,0
455,-741,0,0,0,0,0,0,0,0,0,-1,1679,1765,0,0
462,-741,0,0,0,0,0,0,0,0,0,-1,1686,1765,0,0
469,-741,0,0,0,0,0,0,0,0,0,-1,1693,1765,0,0
476,-741,0,0,0,0,0,0,0,0,0,-1,1700,1765,0,0
483,-741,0,0,0,0,0,0,0,0,0,-1,1707,1765,0,0
490,-741,0,0,0,0,0,0,0,0,0,-1,1714,1765,0,0
497,-741,0,0,0,0,0,0,0,0,0,-1,1721,1765,0,0
504,-741,0,0,0,0,0,0,0,0,0,-1,1728,1765,0,0
511,-741,0,0,0,0,0,0,0,0,0,-1,1735,1765,0,0
518,-741,0,0,0,0,0,0,0,0,0,-1,1742,1765,0,0
525,-741,0,0,0,0,0,0,0,0,0,-1,1749,1765,0,0
532,-741,0,0,0,0,0,0,0,0,0,-1,1756,1765,0,0
539,-741,0,0,0,0,0,0,0,0,0,-1,1763,1765,0,0
546,-741,0,0,0,0,0,0,0,0,0,-1,1770,1765,0,0
553,-741,0,0,0,0,0,0,0,0,0,-1,1777,1765,0,0
560,-741,0,0,0,0,0,0,0,0,0,-1,1784,1765,0,0
567,-741,0,0,0,0,0,0,0,0,0,-1,1791,1765,0,0
574,-741,0,0,0,0,0,0,0,0,0,-1,1798,1765,0,0
581,-741,0,0,0,0,0,0,0,0,0,-1,1805,1765,0,0
588,-741,0,0,0,0,0,0,0,0,0,-1,1812,1765,0,0
595,-741,0,0,0,0,0,0,0,0,0,-1,1819,1765,0,0
602,-741,0,0,0,0,0,0,0,0,0,-1,1826,1765,0,0
609,-741,0,0,0,0,0,0,0,0,0,-1,1833,1765,0,0
616,-741,0,0,0,0,0,0,0,0,0,-1,1840,1765,0,0
623,-741,0,0,0,0,0,0,0,0,0,-1,1847,1765,0,0
630,-741,0,0,0,0,0,0,0,0,0,-1,1854,1765,0,0
637,-741,0,0,0,0,0,0,0,0,0,-1,1861,1765,0,0
644,-741,0,0,0,0,0,0,0,0,0,-1,1868,1765,0,0
651,-741,0,0,0,0,0,0,0,0,0,-1,1875,1765,0,0
658,-741,0,0,0,0,0,0,0,0,0,-1,1882,1765,0,0
665,-741,0,0,0,0,0,0,0,0,0,-1,1889,1765,0,0
672,-741,0,0,0,0,0,0,0,0,0,-1,1896,1765,0,0
679,-741,0,0,0,0,0,0,0,0,0,-1,1903,1765,0,0
686,-741,0,0,0,0,0,0,0,0,0,-1,1910,1765,0,0
693,-741,0,0,0,0,0,0,0,0,0,-1,1917,1765,0,0
700,-741,0,0,0,0,0,0,0,0,0,-1,1924,1765,0,0
707,-741,0,0,0,0,0,0,0,0,0,-1,1931,1765,0,0
714,-741,0,0,0,0,0,0,0,0,0,-1,1938,1765,0,0
721,-741,0,0,0,0,0,0,0,0,0,-1,1945,1765,0,0
728,-741,0,0,0,0,0,0,0,0,0,-1,1952,1765,0,0
735,-741,0,0,0,0,0,0,0,0,0,-1,1959,1765,0,0
742,-741,0,0,0,0,0,0,0,0,0,-1,1966,1765,0,0
749,-741,0,0,0,0,0,0,0,0,0,-1,1973,1765,0,0
756,-741,0,0,0,0,0,0,0,0,0,-1,1980,1765,0,0
763,-741,0,0,0,0,0,0,0,0,0,-1,1987,1765,0,0
770,-741,0,0,0,0,0,0,0,0,0,-1,1994,1765,0,0
777,-741,0,0,0,0,0,0,0,0,0,-1,2001,1765,0,0
784,-741,0,0,0,0,0,0,0,0,0,-1,2008,1765,0,0
791,-741,0,0,0,0,0,0,0,0,0,-1,2015,1765,0,0
798,-741,0,0,0,0,0,0,0,0,0,-1,2022,1765,0,0
805,-741,0,0,0,0,0,0,0,0,0,-1,2029,1765,0,0
812,-741,0,0,0,0,0,0,0,0,0,-1,2036,1765,0,0
-700,-748,0,0,0,0,0,0,0,0,0,-1,524,1772,0,0
-693,-748,0,0,0,0,0,0,0,0,0,-1,531,1772,0,0
-686,-748,0,0,0,0,0,0,0,0,0,-1,538,1772,0,0
-679,-748,0,0,0,0,0,0,0,0,0,-1,545,1772,0,0
-672,-748,0,0,0,0,0,0,0,0,0,-1,552,1772,0,0
-665,-748,0,0,0,0,0,0,0,0,0,-1,559,1772,0,0
-658,-748,0,0,0,0,0,0,0,0,0,-1,566,1772,0,0
-651,-748,0,0,0,0,0,0,0,0,0,-1,573,1772,0,0
-644,-748,0,0,0,0,0,0,0,0,0,-1,580,1772,0,0
-637,-748,0,0,0,0,0,0,0,0,0,-1,587,1772,0,0
-630,-748,0,0,0,0,0,0,0,0,0,-1,594,1772,0,0
-623,-748,0,0,0,0,0,0,0,0,0,-1,601,1772,0,0
-616,-748,0,0,0,0,0,0,0,0,0,-1,608,1772,0,0
-609,-748,0,0,0,0,0,0,0,0,0,-1,615,1772,0,0
-602,-748,0,0,0,0,0,0,0,0,0,-1,622,1772,0,0
-595,-748,0,0,0,0,0,0,0,0,0,-1,629,1772,0,0
-588,-748,0,0,0,0,0,0,0,0,0,-1,636,1772,0,0
-581,-748,0,0,0,0,0,0,0,0,0,-1,643,1772,0,0
-574,-748,0,0,0,0,0,0,0,0,0,-1,650,1772,0,0
-567,-748,0,0,0,0,0,0,0,0,0,-1,657,1772,0,0
-560,-748,0,0,0,0,0,0,0,0,0,-1,664,1772,0,0
-553,-748,0,0,0,0,0,0,0,0,0,-1,671,1772,0,0
-546,-748,0,0,0,0,0,0,0,0,0,-1,678,1772,0,0
-539,-748,0,0,0,0,0,0,0,0,0,-1,685,1772,0,0
-532,-748,0,0,0,0,0,0,0,0,0,-1,692,1772,0,0
-525,-748,0,0,0,0,0,0,0,0,0,-1,699,1772,0,0
-518,-748,0,0,0,0,0,0,0,0,0,-1,706,1772,0,0
-511,-748,0,0,0,0,0,0,0,0,0,-1,713,1772,0,0
-504,-748,0,0,0,0,0,0,0,0,0,-1,720,1772,0,0
-497,-748,0,0,0,0,0,0,0,0,0,-1,727,1772,0,0
-490,-748,0,0,0,0,0,0,0,0,0,-1,734,1772,0,0
-483,-748,0,0,0,0,0,0,0,0,0,-1,741,1772,0,0
-476,-748,0,0,0,0,0,0,0,0,0,-1,748,1772,0,0
-469,-748,0,0,0,0,0,0,0,0,0,-1,755,1772,0,0
-462,-748,0,0,0,0,0,0,0,0,0,-1,762,1772,0,0
-455,-748,0,0,0,0,0,0,0,0,0,-1,769,1772,0,0
-448,-748,0,0,0,0,0,0,0,0,0,-1,776,1772,0,0
-441,-748,0,0,0,0,0,0,0,0,0,-1,783,1772,0,0
-434,-748,0,0,0,0,0,0,0,0,0,-1,790,1772,0,0
-427,-748,0,0,0,0,0,0,0,0,0,-1,797,1772,0,0
-420,-748,0,0,0,0,0,0,0,0,0,-1,804,1772,0,0
-413,-748,0,0,0,0,0,0,0,0,0,-1,811,1772,0,0
-406,-748,0,0,0,0,0,0,0,0,0,-1,818,1772,0,0
-399,-748,0,0,0,0,0,0,0,0,0,-1,825,1772,0,0
-392,-748,0,0,0,0,0,0,0,0,0,-1,832,1772,0,0
-385,-748,0,0,0,0,0,0,0,0,0,-1,839,1772,0,0
-378,-748,0,0,0,0,0,0,0,0,0,-1,846,1772,0,0
-371,-748,0,0,0,0,0,0,0,0,0,-1,853,1772,0,0
-364,-748,0,0,0,0,0,0,0,0,0,-1,860,1772,0,0
-357,-748,0,0,0,0,0,0,0,0,0,-1,867,1772,0,0
-350,-748,0,0,0,0,0,0,0,0,0,-1,874,1772,0,0
-343,-748,0,0,0,0,0,0,0,0,0,-1,881,1772,0,0
-336,-748,0,0,0,0,0,0,0,0,0,-1,888,1772,0,0
-329,-748,0,0,0,0,0,0,0,0,0,-1,895,1772,0,0
-322,-748,0,0,0,0,0,0,0,0,0,-1,902,1772,0,0
-315,-748,0,0,0,0,0,0,0,0,0,-1,909,1772,0,0
-308,-748,0,0,0,0,0,0,0,0,0,-1,916,1772,0,0
-301,-748,0,0,0,0,0,0,0,0,0,-1,923,1772,0,0
-294,-748,0,0,0,0,0,0,0,0,0,-1,930,1772,0,0
-287,-748,0,0,0,0,0,0,0,0,0,-1,937,1772,0,0
-280,-748,0,0,0,0,0,0,0,0,0,-1,944,1772,0,0
-273,-748,0,0,0,0,0,0,0,0,0,-1,951,1772,0,0
-266,-748,0,0,0,0,0,0,0,0,0,-1,958,1772,0,0
-259,-748,0,0,0,0,0,0,0,0,0,-1,965,1772,0,0
-252,-748,0,0,0,0,0,0,0,0,0,-1,972,1772,0,0
-245,-748,0,0,0,0,0,0,0,0,0,-1,979,1772,0,0
-238,-748,0,0,0,0,0,0,0,0,0,-1,986,1772,0,0
-231,-748,0,0,0,0,0,0,0,0,0,-1,993,1772,0,0
-224,-748,0,0,0,0,0,0,0,0,0,-1,1000,1772,0,0
-217,-748,7.80432,8.96252,0,0,0,0,0,0,0,-1,1007,1772,7.80431,-8.96246
-210,-748,8.3371,9.15466,0,0,0,0,0,0,0,-1,1014,1772,8.33709,-9.1547
-203,-748,4.14246,10.7653,0,0,0,0,0,0,0,-1,1021,1772,4.14242,-10.7653
-196,-748,3.47681,12.8356,0,0,0,0,0,0,0,-1,1028,1772,3.47681,-12.8356
-189,-748,3.56079,12.1328,0,0,0,0,0,0,0,-1,1035,1772,3.56079,-12.1328
-182,-748,3.6189,11.4628,0,0,0,0,0,0,0,-1,1042,1772,3.61887,-11.4628
-175,-748,3.73718,9.88293,0,0,0,0,0,0,0,-1,1049,1772,3.73717,-9.88289
-168,-748,2.64819,8.55664,0,0,0,0,0,0,0,-1,1056,1772,2.64817,-8.55666
-161,-748,2.37683,8.34314,0,0,0,0,0,0,0,-1,1063,1772,2.3768,-8.34318
-154,-748,-3.82056,10.7404,0,0,0,0,0,0,0,-1,1070,1772,-3.82062,-10.7403
-147,-748,-4.87122,10.7748,0,0,0,0,0,0,0,-1,1077,1772,-4.87117,-10.7748
-140,-748,5.38965,8.78552,0,0,0,0,0,0,0,-1,1084,1772,5.38969,-8.78552
-133,-748,5.74121,11.7333,0,0,0,0,0,0,0,-1,1091,1772,5.74125,-11.7333
-126,-748,3.55566,11.4333,0,0,0,0,0,0,0,-1,1098,1772,3.55571,-11.4334
-119,-748,4.00439,12.1655,0,0,0,0,0,0,0,-1,1105,1772,4.00445,-12.1655
-112,-748,4.10327,12.286,0,0,0,0,0,0,0,-1,1112,1772,4.10323,-12.286
-105,-748,4.35181,12.3457,0,0,0,0,0,0,0,-1,1119,1772,4.35181,-12.3458
-98,-748,4.31702,12.3107,0,0,0,0,0,0,0,-1,1126,1772,4.31696,-12.3107
-91,-748,4.19897,11.9054,0,0,0,0,0,0,0,-1,1133,1772,4.19895,-11.9055
-84,-748,4.58337,12.1158,0,0,0,0,0,0,0,-1,1140,1772,4.58332,-12.1158
-77,-748,4.47766,12.0061,0,0,0,0,0,0,0,-1,1147,1772,4.47769,-12.006
-70,-748,4.57324,12.0996,0,0,0,0,0,0,0,-1,1154,1772,4.57326,-12.0996
-63,-748,4.89355,12.1653,0,0,0,0,0,0,0,-1,1161,1772,4.89356,-12.1653
-56,-748,3.05762,7.87817,0,0,0,0,0,0,0,-1,1168,1772,3.05768,-7.87822
-49,-748,3.04102,7.82471,0,0,0,0,0,0,0,-1,1175,1772,3.04096,-7.82468
-42,-748,3.62585,10.0979,0,0,0,0,0,0,0,-1,1182,1772,3.62584,-10.0979
-35,-748,4.21643,12.9041,0,0,0,0,0,0,0,-1,1189,1772,4.21644,-12.904
-28,-748,4.22571,13.0299,-0.00599272,0.00359072,-0.0011701,0.00373152,-0.00613352,-1.45104,0.00575159,0.0466143,1196,1772,4.22572,-13.0299
-21,-748,4.23181,13.0615,-0.0056425,0.00341422,-0.00113305,0.00355382,-0.0057821,-1.44821,0.00544103,0.0222798,1203,1772,4.23187,-13.0615
-14,-748,4.19165,13.0444,-0.00472355,0.00334282,-0.0006287,0.00339153,-0.00477226,-1.49348,0.00473578,0.0156963,1210,1772,4.19169,-13.0444
-7,-748,4.18152,13.0588,-0.00359604,0.00309758,-7.33124e-05,0.00309838,-0.00359684,-1.55985,0.00386906,0.0163436,1217,1772,4.18147,-13.0588
0,-748,4.18042,13.0969,-0.00241402,0.00270732,0.000383199,0.00273584,-0.00244253,1.49652,0.00299133,0.0162725,1224,1772,4.18037,-13.097
7,-748,4.16174,13.1564,-0.00123884,0.00218374,0.000703085,0.00232254,-0.00137765,1.37588,0.0021594,0.0142988,1231,1772,4.16171,-13.1564
14,-748,4.15747,13.225,-5.85161e-05,0.00196189,0.000897671,0.0023031,-0.000399729,1.20755,0.00168453,0.0152803,1238,1772,4.15748,-13.2249
21,-748,4.15857,13.2664,0.00110129,0.0019266,0.00115462,0.00274009,0.000287804,0.957022,0.00173875,0.0115296,1245,1772,4.15861,-13.2663
28,-748,4.11743,13.2905,0.00216849,0.00199655,0.00135959,0.00344482,0.000720215,0.753824,0.0020981,0.0116605,1252,1772,4.1174,-13.2905
35,-748,4.12061,13.3046,0.00321238,0.00212335,0.00140687,0.00417644,0.00115929,0.600757,0.00248952,0.0119457,1259,1772,4.12062,-13.3045
42,-748,4.13159,13.3025,0.00413104,0.00228164,0.00127573,0.00478195,0.00163072,0.471796,0.002807,0.0132777,1266,1772,4.13162,-13.3025
49,-748,4.10803,13.3138,0.00491543,0.00251833,0.000954642,0.00524916,0.00218461,0.336301,0.00304476,0.0103662,1273,1772,4.10802,-13.3138
56,-748,4.0896,13.3285,0.00582448,0.00279927,0.000417287,0.00588099,0.00274276,0.134589,0.00339795,0.00965618,1280,1772,4.08957,-13.3285
63,-748,4.08997,13.3309,0.00643203,0.00279642,-0.000170885,0.00644004,0.0027884,-0.0468655,0.00372928,0.0112208,1287,1772,4.08997,-13.331
70,-748,4.08191,13.3546,0.00633091,0.00318797,-0.00111386,0.00668562,0.00283325,-0.308304,0.00387487,0.013663,1294,1772,4.08185,-13.3546
77,-748,4.07336,13.3823,0.00560389,0.00366467,-0.00235855,0.00718436,0.0020842,-0.590377,0.00426798,0.013123,1301,1772,4.07331,-13.3824
84,-748,4.04041,13.3982,0.00486455,0.0038355,-0.00339497,0.00778377,0.000916286,-0.710193,0.00491232,0.0143522,1308,1772,4.04036,-13.3982
91,-748,4.03552,13.3988,0.00385156,0.00382895,-0.00456651,0.00840678,-0.000726267,-0.784161,0.00586162,0.0117211,1315,1772,4.03549,-13.3988
98,-748,4.03186,13.3822,0.00269267,0.00379176,-0.00567135,0.00894012,-0.0024557,-0.833696,0.00692533,0.0108006,1322,1772,4.03182,-13.3822
105,-748,4.03003,13.3469,0.00138777,0.00379183,-0.00659663,0.00929506,-0.00411545,-0.875519,0.00793273,0.0116879,1329,1772,4.03,-13.3469
112,-748,4.05444,13.3417,-1.78716e-05,0.0038516,-0.00726924,0.00943917,-0.00560544,-0.91546,0.00877951,0.0141077,1336,1772,4.05446,-13.3417
119,-748,4.05225,13.3275,-0.00148618,0.00367784,-0.00780246,0.00931441,-0.00712276,-0.945188,0.00951808,0.0125216,1343,1772,4.05223,-13.3275
126,-748,4.05688,13.3146,-0.00283401,0.00370184,-0.00835292,0.00940334,-0.00853551,-0.971861,0.010361,0.0142585,1350,1772,4.05689,-13.3145
133,-748,4.01038,13.3033,-0.00405007,0.00384626,-0.00858673,0.00934902,-0.00955283,-1.00088,0.0109132,0.00836389,1357,1772,4.01043,-13.3034
140,-748,3.96802,13.2887,-0.00503609,0.00409485,-0.00857864,0.00924723,-0.0101885,-1.02993,0.0112256,0.0107301,1364,1772,3.96807,-13.2887
147,-748,4.01782,13.2555,-0.00550825,0.0043672,-0.00828345,0.00907296,-0.010214,-1.05417,0.0111418,0.0128199,1371,1772,4.01777,-13.2555
154,-748,3.99536,13.2286,-0.00576066,0.00481856,-0.00785685,0.0090005,-0.00994259,-1.08167,0.0109413,0.0115674,1378,1772,3.99539,-13.2286
161,-748,3.96606,13.2313,-0.00621398,0.00500796,-0.00719916,0.00852447,-0.00973049,-1.11642,0.0105472,0.0187845,1385,1772,3.96605,-13.2313
168,-748,3.95642,13.2351,0,0,0,0,0,0,0,-1,1392,1772,3.95642,-13.2351
175,-748,4.18945,12.9236,0,0,0,0,0,0,0,-1,1399,1772,4.1895,-12.9236
182,-748,7.62476,10.3058,0,0,0,0,0,0,0,-1,1406,1772,7.62476,-10.3058
189,-748,6.15857,6.95898,0,0,0,0,0,0,0,-1,1413,1772,6.15862,-6.95896
196,-748,3.9425,8.46021,0,0,0,0,0,0,0,-1,1420,1772,3.9425,-8.46026
203,-748,3.95435,12.5299,0,0,0,0,0,0,0,-1,1427,1772,3.95435,-12.53
210,-748,3.91675,12.8051,0,0,0,0,0,0,0,-1,1434,1772,3.91674,-12.8051
217,-748,3.98462,12.8206,-0.00224439,0.0121969,-0.00544671,0.0140208,-0.00406832,-1.24767,0.010958,0.0396154,1441,1772,3.98459,-12.8206
224,-748,4.06116,12.6774,-0.00303189,0.0132206,-0.00520631,0.0147453,-0.00455663,-1.2859,0.01165,0.0432661,1448,1772,4.06111,-12.6774
231,-748,4.03357,12.4021,-0.00385363,0.0136395,-0.00474791,0.0148451,-0.0050592,-1.32214,0.0119457,0.0432223,1455,1772,4.03353,-12.4021
238,-748,3.74292,12.3541,-0.00418214,0.0139679,-0.00449197,0.0150188,-0.00523301,-1.34098,0.0121389,0.0477783,1462,1772,3.74287,-12.3541
245,-748,3.83081,12.2379,0,0,0,0,0,0,0,-1,1469,1772,3.83077,-12.238
252,-748,4.04175,12.1427,0,0,0,0,0,0,0,-1,1476,1772,4.04178,-12.1427
259,-748,4.04822,10.3733,0,0,0,0,0,0,0,-1,1483,1772,4.04822,-10.3733
266,-748,14.0199,7.45471,0,0,0,0,0,0,0,-1,1490,1772,14.0199,-7.45473
273,-748,14.1729,6.96057,0,0,0,0,0,0,0,-1,1497,1772,14.1729,-6.96055
280,-748,13.0918,6.70703,0,0,0,0,0,0,0,-1,1504,1772,13.0917,-6.70698
287,-748,11.9857,6.42688,0,0,0,0,0,0,0,-1,1511,1772,11.9857,-6.42691
294,-748,10.8501,6.18701,0,0,0,0,0,0,0,-1,1518,1772,10.8502,-6.18701
301,-748,9.63281,6.07544,0,0,0,0,0,0,0,-1,1525,1772,9.63282,-6.0754
308,-748,8.88904,6.61414,0,0,0,0,0,0,0,-1,1532,1772,8.889,-6.61419
315,-748,7.85876,6.81372,0,0,0,0,0,0,0,-1,1539,1772,7.85879,-6.81372
322,-748,2.9469,13.4518,0,0,0,0,0,0,0,-1,1546,1772,2.94694,-13.4518
329,-748,3.48315,14.6533,0,0,0,0,0,0,0,-1,1553,1772,3.48316,-14.6534
336,-748,3.76001,15.8163,0,0,0,0,0,0,0,-1,1560,1772,3.75995,-15.8163
343,-748,0,0,0,0,0,0,0,0,0,-1,1567,1772,0,0
350,-748,0,0,0,0,0,0,0,0,0,-1,1574,1772,0,0
357,-748,0,0,0,0,0,0,0,0,0,-1,1581,1772,0,0
364,-748,0,0,0,0,0,0,0,0,0,-1,1588,1772,0,0
371,-748,0,0,0,0,0,0,0,0,0,-1,1595,1772,0,0
378,-748,0,0,0,0,0,0,0,0,0,-1,1602,1772,0,0
385,-748,0,0,0,0,0,0,0,0,0,-1,1609,1772,0,0
392,-748,0,0,0,0,0,0,0,0,0,-1,1616,1772,0,0
399,-748,0,0,0,0,0,0,0,0,0,-1,1623,1772,0,0
406,-748,0,0,0,0,0,0,0,0,0,-1,1630,1772,0,0
413,-748,0,0,0,0,0,0,0,0,0,-1,1637,1772,0,0
420,-748,0,0,0,0,0,0,0,0,0,-1,1644,1772,0,0
427,-748,0,0,0,0,0,0,0,0,0,-1,1651,1772,0,0
434,-748,0,0,0,0,0,0,0,0,0,-1,1658,1772,0,0
441,-748,0,0,0,0,0,0,0,0,0,-1,1665,1772,0,0
448,-748,0,0,0,0,0,0,0,0,0,-1,1672,1772,0,0
455,-748,0,0,0,0,0,0,0,0,0,-1,1679,1772,0,0
462,-748,0,0,0,0,0,0,0,0,0,-1,1686,1772,0,0
469,-748,0,0,0,0,0,0,0,0,0,-1,1693,1772,0,0
476,-748,0,0,0,0,0,0,0,0,0,-1,1700,1772,0,0
483,-748,0,0,0,0,0,0,0,0,0,-1,1707,1772,0,0
490,-748,0,0,0,0,0,0,0,0,0,-1,1714,1772,0,0
497,-748,0,0,0,0,0,0,0,0,0,-1,1721,1772,0,0
504,-748,0,0,0,0,0,0,0,0,0,-1,1728,1772,0,0
511,-748,0,0,0,0,0,0,0,0,0,-1,1735,1772,0,0
518,-748,0,0,0,0,0,0,0,0,0,-1,1742,1772,0,0
525,-748,0,0,0,0,0,0,0,0,0,-1,1749,1772,0,0
532,-748,0,0,0,0,0,0,0,0,0,-1,1756,1772,0,0
539,-748,0,0,0,0,0,0,0,0,0,-1,1763,1772,0,0
546,-748,0,0,0,0,0,0,0,0,0,-1,1770,1772,0,0
553,-748,0,0,0,0,0,0,0,0,0,-1,1777,1772,0,0
560,-748,0,0,0,0,0,0,0,0,0,-1,1784,1772,0,0
567,-748,0,0,0,0,0,0,0,0,0,-1,1791,1772,0,0
574,-748,0,0,0,0,0,0,0,0,0,-1,1798,1772,0,0
581,-748,0,0,0,0,0,0,0,0,0,-1,1805,1772,0,0
588,-748,0,0,0,0,0,0,0,0,0,-1,1812,1772,0,0
595,-748,0,0,0,0,0,0,0,0,0,-1,1819,1772,0,0
602,-748,0,0,0,0,0,0,0,0,0,-1,1826,1772,0,0
609,-748,0,0,0,0,0,0,0,0,0,-1,1833,1772,0,0
616,-748,0,0,0,0,0,0,0,0,0,-1,1840,1772,0,0
623,-748,0,0,0,0,0,0,0,0,0,-1,1847,1772,0,0
630,-748,0,0,0,0,0,0,0,0,0,-1,1854,1772,0,0
637,-748,0,0,0,0,0,0,0,0,0,-1,1861,1772,0,0
644,-748,0,0,0,0,0,0,0,0,0,-1,1868,1772,0,0
651,-748,0,0,0,0,0,0,0,0,0,-1,1875,1772,0,0
658,-748,0,0,0,0,0,0,0,0,0,-1,1882,1772,0,0
665,-748,0,0,0,0,0,0,0,0,0,-1,1889,1772,0,0
672,-748,0,0,0,0,0,0,0,0,0,-1,1896,1772,0,0
679,-748,0,0,0,0,0,0,0,0,0,-1,1903,1772,0,0
686,-748,0,0,0,0,0,0,0,0,0,-1,1910,1772,0,0
693,-748,0,0,0,0,0,0,0,0,0,-1,1917,1772,0,0
700,-748,0,0,0,0,0,0,0,0,0,-1,1924,1772,0,0
707,-748,0,0,0,0,0,0,0,0,0,-1,1931,1772,0,0
714,-748,0,0,0,0,0,0,0,0,0,-1,1938,1772,0,0
721,-748,0,0,0,0,0,0,0,0,0,-1,1945,1772,0,0
728,-748,0,0,0,0,0,0,0,0,0,-1,1952,1772,0,0
735,-748,0,0,0,0,0,0,0,0,0,-1,1959,1772,0,0
742,-748,0,0,0,0,0,0,0,0,0,-1,1966,1772,0,0
749,-748,0,0,0,0,0,0,0,0,0,-1,1973,1772,0,0
756,-748,0,0,0,0,0,0,0,0,0,-1,1980,1772,0,0
763,-748,0,0,0,0,0,0,0,0,0,-1,1987,1772,0,0
770,-748,0,0,0,0,0,0,0,0,0,-1,1994,1772,0,0
777,-748,0,0,0,0,0,0,0,0,0,-1,2001,1772,0,0
784,-748,0,0,0,0,0,0,0,0,0,-1,2008,1772,0,0
791,-748,0,0,0,0,0,0,0,0,0,-1,2015,1772,0,0
798,-748,0,0,0,0,0,0,0,0,0,-1,2022,1772,0,0
805,-748,0,0,0,0,0,0,0,0,0,-1,2029,1772,0,0
812,-748,0,0,0,0,0,0,0,0,0,-1,2036,1772,0,0
-700,-755,0,0,0,0,0,0,0,0,0,-1,524,1779,0,0
-693,-755,0,0,0,0,0,0,0,0,0,-1,531,1779,0,0
-686,-755,0,0,0,0,0,0,0,0,0,-1,538,1779,0,0
-679,-755,0,0,0,0,0,0,0,0,0,-1,545,1779,0,0
-672,-755,0,0,0,0,0,0,0,0,0,-1,552,1779,0,0
-665,-755,0,0,0,0,0,0,0,0,0,-1,559,1779,0,0
-658,-755,0,0,0,0,0,0,0,0,0,-1,566,1779,0,0
-651,-755,0,0,0,0,0,0,0,0,0,-1,573,1779,0,0
-644,-755,0,0,0,0,0,0,0,0,0,-1,580,1779,0,0
-637,-755,0,0,0,0,0,0,0,0,0,-1,587,1779,0,0
-630,-755,0,0,0,0,0,0,0,0,0,-1,594,1779,0,0
-623,-755,0,0,0,0,0,0,0,0,0,-1,601,1779,0,0
-616,-755,0,0,0,0,0,0,0,0,0,-1,608,1779,0,0
-609,-755,0,0,0,0,0,0,0,0,0,-1,615,1779,0,0
-602,-755,0,0,0,0,0,0,0,0,0,-1,622,1779,0,0
-595,-755,0,0,0,0,0,0,0,0,0,-1,629,1779,0,0
-588,-755,0,0,0,0,0,0,0,0,0,-1,636,1779,0,0
-581,-755,0,0,0,0,0,0,0,0,0,-1,643,1779,0,0
-574,-755,0,0,0,0,0,0,0,0,0,-1,650,1779,0,0
-567,-755,0,0,0,0,0,0,0,0,0,-1,657,1779,0,0
-560,-755,0,0,0,0,0,0,0,0,0,-1,664,1779,0,0
-553,-755,0,0,0,0,0,0,0,0,0,-1,671,1779,0,0
-546,-755,0,0,0,0,0,0,0,0,0,-1,678,1779,0,0
-539,-755,0,0,0,0,0,0,0,0,0,-1,685,1779,0,0
-532,-755,0,0,0,0,0,0,0,0,0,-1,692,1779,0,0
-525,-755,0,0,0,0,0,0,0,0,0,-1,699,1779,0,0
-518,-755,0,0,0,0,0,0,0,0,0,-1,706,1779,0,0
-511,-755,0,0,0,0,0,0,0,0,0,-1,713,1779,0,0
-504,-755,0,0,0,0,0,0,0,0,0,-1,720,1779,0,0
-497,-755,0,0,0,0,0,0,0,0,0,-1,727,1779,0,0
-490,-755,0,0,0,0,0,0,0,0,0,-1,734,1779,0,0
-483,-755,0,0,0,0,0,0,0,0,0,-1,741,1779,0,0
-476,-755,0,0,0,0,0,0,0,0,0,-1,748,1779,0,0
-469,-755,0,0,0,0,0,0,0,0,0,-1,755,1779,0,0
-462,-755,0,0,0,0,0,0,0,0,0,-1,762,1779,0,0
-455,-755,0,0,0,0,0,0,0,0,0,-1,769,1779,0,0
-448,-755,0,0,0,0,0,0,0,0,0,-1,776,1779,0,0
-441,-755,0,0,0,0,0,0,0,0,0,-1,783,1779,0,0
-434,-755,0,0,0,0,0,0,0,0,0,-1,790,1779,0,0
-427,-755,0,0,0,0,0,0,0,0,0,-1,797,1779,0,0
-420,-755,0,0,0,0,0,0,0,0,0,-1,804,1779,0,0
-413,-755,0,0,0,0,0,0,0,0,0,-1,811,1779,0,0
-406,-755,0,0,0,0,0,0,0,0,0,-1,818,1779,0,0
-399,-755,0,0,0,0,0,0,0,0,0,-1,825,1779,0,0
-392,-755,0,0,0,0,0,0,0,0,0,-1,832,1779,0,0
-385,-755,0,0,0,0,0,0,0,0,0,-1,839,1779,0,0
-378,-755,0,0,0,0,0,0,0,0,0,-1,846,1779,0,0
-371,-755,0,0,0,0,0,0,0,0,0,-1,853,1779,0,0
-364,-755,0,0,0,0,0,0,0,0,0,-1,860,1779,0,0
-357,-755,0,0,0,0,0,0,0,0,0,-1,867,1779,0,0
-350,-755,0,0,0,0,0,0,0,0,0,-1,874,1779,0,0
-343,-755,0,0,0,0,0,0,0,0,0,-1,881,1779,0,0
-336,-755,0,0,0,0,0,0,0,0,0,-1,888,1779,0,0
-329,-755,0,0,0,0,0,0,0,0,0,-1,895,1779,0,0
-322,-755,0,0,0,0,0,0,0,0,0,-1,902,1779,0,0
-315,-755,0,0,0,0,0,0,0,0,0,-1,909,1779,0,0
-308,-755,0,0,0,0,0,0,0,0,0,-1,916,1779,0,0
-301,-755,0,0,0,0,0,0,0,0,0,-1,923,1779,0,0
-294,-755,0,0,0,0,0,0,0,0,0,-1,930,1779,0,0
-287,-755,0,0,0,0,0,0,0,0,0,-1,937,1779,0,0
-280,-755,0,0,0,0,0,0,0,0,0,-1,944,1779,0,0
-273,-755,0,0,0,0,0,0,0,0,0,-1,951,1779,0,0
-266,-755,0,0,0,0,0,0,0,0,0,-1,958,1779,0,0
-259,-755,0,0,0,0,0,0,0,0,0,-1,965,1779,0,0
-252,-755,0,0,0,0,0,0,0,0,0,-1,972,1779,0,0
-245,-755,0,0,0,0,0,0,0,0,0,-1,979,1779,0,0
-238,-755,0,0,0,0,0,0,0,0,0,-1,986,1779,0,0
-231,-755,0,0,0,0,0,0,0,0,0,-1,993,1779,0,0
-224,-755,0,0,0,0,0,0,0,0,0,-1,1000,1779,0,0
-217,-755,0,0,0,0,0,0,0,0,0,-1,1007,1779,0,0
-210,-755,0,0,0,0,0,0,0,0,0,-1,1014,1779,0,0
-203,-755,9.17322,10.2322,0,0,0,0,0,0,0,-1,1021,1779,9.17323,-10.2322
-196,-755,5.41724,13.5709,0,0,0,0,0,0,0,-1,1028,1779,5.41718,-13.571
-189,-755,4.85864,12.9271,0,0,0,0,0,0,0,-1,1035,1779,4.85866,-12.9272
-182,-755,4.35339,12.1057,0,0,0,0,0,0,0,-1,1042,1779,4.35337,-12.1057
-175,-755,3.88025,10.7515,0,0,0,0,0,0,0,-1,1049,1779,3.88029,-10.7515
-168,-755,3.58789,9.15454,0,0,0,0,0,0,0,-1,1056,1779,3.58791,-9.15456
-161,-755,-2.95337,11.1847,0,0,0,0,0,0,0,-1,1063,1779,-2.9534,-11.1847
-154,-755,-4.14355,11.0377,0,0,0,0,0,0,0,-1,1070,1779,-4.1436,-11.0378
-147,-755,-5.40332,10.7094,0,0,0,0,0,0,0,-1,1077,1779,-5.40328,-10.7094
-140,-755,3.29346,10.2112,0,0,0,0,0,0,0,-1,1084,1779,3.2935,-10.2112
-133,-755,3.33801,10.3369,0,0,0,0,0,0,0,-1,1091,1779,3.33801,-10.3369
-126,-755,3.823,10.9164,0,0,0,0,0,0,0,-1,1098,1779,3.82302,-10.9164
-119,-755,5.02649,11.8407,0,0,0,0,0,0,0,-1,1105,1779,5.02644,-11.8407
-112,-755,4.97888,12.0901,0,0,0,0,0,0,0,-1,1112,1779,4.97891,-12.0901
-105,-755,4.88867,12.2737,0,0,0,0,0,0,0,-1,1119,1779,4.88871,-12.2737
-98,-755,4.81104,12.3594,0,0,0,0,0,0,0,-1,1126,1779,4.81108,-12.3593
-91,-755,3.4447,11.2358,0,0,0,0,0,0,0,-1,1133,1779,3.44475,-11.2358
-84,-755,0.32251,8.17041,0,0,0,0,0,0,0,-1,1140,1779,0.322463,-8.17038
-77,-755,-0.369141,6.3689,0,0,0,0,0,0,0,-1,1147,1779,-0.369121,-6.36889
-70,-755,4.7063,11.8752,0,0,0,0,0,0,0,-1,1154,1779,4.70631,-11.8752
-63,-755,-1.36316,7.3147,0,0,0,0,0,0,0,-1,1161,1779,-1.36312,-7.31473
-56,-755,0.0483398,5.06079,0,0,0,0,0,0,0,-1,1168,1779,0.0483138,-5.06084
-49,-755,-1.32263,5.33716,0,0,0,0,0,0,0,-1,1175,1779,-1.32264,-5.33718
-42,-755,-2.03613,4.01672,0,0,0,0,0,0,0,-1,1182,1779,-2.0361,-4.01671
-35,-755,-2.72498,2.37476,0,0,0,0,0,0,0,-1,1189,1779,-2.72502,-2.37473
-28,-755,4.17468,13.1075,0,0,0,0,0,0,0,-1,1196,1779,4.1747,-13.1076
-21,-755,4.39026,12.9888,0,0,0,0,0,0,0,-1,1203,1779,4.39029,-12.9888
-14,-755,4.31982,13.0143,-0.00705892,0.00591584,-0.000510122,0.00593587,-0.00707895,-1.53156,0.00752376,0.0315625,1210,1779,4.31977,-13.0143
-7,-755,4.22913,13.0559,-0.00515382,0.00571461,0.000275317,0.00572157,-0.00516079,1.54549,0.00628572,0.0236912,1217,1779,4.22919,-13.0559
0,-755,4.19873,13.099,-0.00323825,0.00546273,0.00104372,0.00558617,-0.0033617,1.45307,0.005219,0.0146653,1224,1779,4.1987,-13.099
7,-755,4.17712,13.1455,-0.00121883,0.00502275,0.00164088,0.00542784,-0.00162392,1.32876,0.00426421,0.0126215,1231,1779,4.17713,-13.1455
14,-755,4.17529,13.2119,0.000699855,0.00481157,0.00202516,0.00564151,-0.000130083,1.18186,0.00380511,0.0111984,1238,1779,4.17528,-13.2119
21,-755,4.14746,13.255,0.00259798,0.00503603,0.00255277,0.0066459,0.000988107,1.00815,0.00414072,0.0157725,1245,1779,4.14746,-13.255
28,-755,4.15173,13.2825,0.00433782,0.00537667,0.00303501,0.00793638,0.00177811,0.870149,0.00480907,0.0182731,1252,1779,4.1517,-13.2825
35,-755,4.16345,13.3567,0.00597397,0.00578271,0.00333968,0.00921939,0.00253729,0.771085,0.0054992,0.0171986,1259,1779,4.1634,-13.3567
42,-755,4.15137,13.3145,0.00734217,0.00619352,0.0033659,0.0101824,0.0033533,0.700897,0.00599189,0.0140517,1266,1779,4.15137,-13.3145
49,-755,4.13257,13.3124,0.00849025,0.00664594,0.00313881,0.0108396,0.00429663,0.642523,0.00630286,0.0097802,1273,1779,4.1326,-13.3123
56,-755,4.11047,13.3287,0.00973213,0.0070807,0.00261327,0.0113367,0.00547611,0.550663,0.00654652,0.00841556,1280,1779,4.11047,-13.3287
63,-755,4.11182,13.3414,0.0105601,0.00709913,0.00199307,0.0114691,0.00619013,0.427898,0.00662866,0.00803713,1287,1779,4.11185,-13.3415
70,-755,4.11609,13.3591,0.0103583,0.00756946,0.00082159,0.0105823,0.00734542,0.266221,0.00626132,0.0105706,1294,1779,4.11608,-13.3591
77,-755,4.09863,13.3577,0.00923356,0.00803762,-0.000851413,0.00967601,0.00759518,-0.479255,0.00588108,0.0105969,1301,1779,4.09861,-13.3577
84,-755,4.09985,13.3566,0.00805528,0.00807005,-0.00234471,0.0104074,0.00571794,-0.786974,0.00601848,0.0106058,1308,1779,4.09988,-13.3566
91,-755,4.08459,13.3505,0.00639494,0.00787544,-0.00411383,0.0113151,0.00295529,-0.874416,0.00677661,0.0112084,1315,1779,4.08455,-13.3504
98,-755,4.05823,13.3546,0.00455665,0.00760383,-0.00586034,0.0121354,2.5081e-05,-0.912574,0.00808192,0.0129147,1322,1779,4.05821,-13.3546
105,-755,4.08142,13.3784,0.00245306,0.00732869,-0.00750708,0.0127839,-0.00300211,-0.942394,0.00967972,0.0157396,1329,1779,4.08139,-13.3784
112,-755,4.0885,13.3579,0.000103659,0.00719044,-0.00885936,0.0131887,-0.00589464,-0.975634,0.0112829,0.0203279,1336,1779,4.08845,-13.3579
119,-755,4.01086,13.3539,-0.00228324,0.0069079,-0.00995081,0.0132731,-0.00864841,-1.00172,0.0127499,0.0205896,1343,1779,4.01088,-13.3538
126,-755,4.00452,13.3949,-0.00459697,0.00673439,-0.0111123,0.013542,-0.0114046,-1.02115,0.0144206,0.022508,1350,1779,4.0045,-13.3949
133,-755,3.98315,13.3348,-0.00671226,0.00687408,-0.0118176,0.0137119,-0.0135501,-1.04625,0.0157398,0.0233726,1357,1779,3.98314,-13.3349
140,-755,3.9209,13.307,-0.00845638,0.00719544,-0.0121642,0.0138337,-0.0150947,-1.07124,0.0167071,0.029327,1364,1779,3.92095,-13.307
147,-755,4.00684,13.2982,-0.00924979,0.00765229,-0.0118751,0.0137765,-0.015374,-1.09465,0.0168384,0.0301778,1371,1779,4.00689,-13.2982
154,-755,4.02393,13.2805,-0.00969317,0.00833439,-0.0114232,0.0138718,-0.0152306,-1.11942,0.0168084,0.0320141,1378,1779,4.02394,-13.2805
161,-755,3.94116,13.303,0,0,0,0,0,0,0,-1,1385,1779,3.94111,-13.303
168,-755,3.98181,7.35901,0,0,0,0,0,0,0,-1,1392,1779,3.98184,-7.35904
175,-755,8.17065,1.34363,0,0,0,0,0,0,0,-1,1399,1779,8.1706,-1.34368
182,-755,8.09216,2.96924,0,0,0,0,0,0,0,-1,1406,1779,8.09213,-2.9693
189,-755,8.04419,4.68042,0,0,0,0,0,0,0,-1,1413,1779,8.04419,-4.68046
196,-755,7.74841,7.4541,0,0,0,0,0,0,0,-1,1420,1779,7.74842,-7.45405
203,-755,4.80554,6.88696,0,0,0,0,0,0,0,-1,1427,1779,4.80554,-6.88697
210,-755,3.07959,4.92688,0,0,0,0,0,0,0,-1,1434,1779,3.07955,-4.9269
217,-755,3.97852,12.8214,0,0,0,0,0,0,0,-1,1441,1779,3.97846,-12.8214
224,-755,4.16162,12.6672,0,0,0,0,0,0,0,-1,1448,1779,4.16157,-12.6672
231,-755,4.32385,12.25,0,0,0,0,0,0,0,-1,1455,1779,4.3239,-12.25
238,-755,3.92126,12.2094,0,0,0,0,0,0,0,-1,1462,1779,3.92121,-12.2094
245,-755,14.3478,8.20337,0,0,0,0,0,0,0,-1,1469,1779,14.3478,-8.20333
252,-755,14.7816,7.94434,0,0,0,0,0,0,0,-1,1476,1779,14.7817,-7.94429
259,-755,14.3679,7.71399,0,0,0,0,0,0,0,-1,1483,1779,14.3679,-7.71404
266,-755,14.0226,7.61597,0,0,0,0,0,0,0,-1,1490,1779,14.0226,-7.61594
273,-755,14.1566,6.96606,0,0,0,0,0,0,0,-1,1497,1779,14.1566,-6.96602
280,-755,12.9016,6.86536,0,0,0,0,0,0,0,-1,1504,1779,12.9016,-6.86532
287,-755,11.5734,6.62097,0,0,0,0,0,0,0,-1,1511,1779,11.5733,-6.62094
294,-755,10.3236,6.42993,0,0,0,0,0,0,0,-1,1518,1779,10.3236,-6.42995
301,-755,9.052,6.31702,0,0,0,0,0,0,0,-1,1525,1779,9.05205,-6.31701
308,-755,8.76111,7.19995,0,0,0,0,0,0,0,-1,1532,1779,8.76106,-7.19997
315,-755,7.66003,7.40503,0,0,0,0,0,0,0,-1,1539,1779,7.66006,-7.40499
322,-755,0,0,0,0,0,0,0,0,0,-1,1546,1779,0,0
329,-755,0,0,0,0,0,0,0,0,0,-1,1553,1779,0,0
336,-755,0,0,0,0,0,0,0,0,0,-1,1560,1779,0,0
343,-755,0,0,0,0,0,0,0,0,0,-1,1567,1779,0,0
350,-755,0,0,0,0,0,0,0,0,0,-1,1574,1779,0,0
357,-755,0,0,0,0,0,0,0,0,0,-1,1581,1779,0,0
364,-755,0,0,0,0,0,0,0,0,0,-1,1588,1779,0,0
371,-755,0,0,0,0,0,0,0,0,0,-1,1595,1779,0,0
378,-755,0,0,0,0,0,0,0,0,0,-1,1602,1779,0,0
385,-755,0,0,0,0,0,0,0,0,0,-1,1609,1779,0,0
392,-755,0,0,0,0,0,0,0,0,0,-1,1616,1779,0,0
399,-755,0,0,0,0,0,0,0,0,0,-1,1623,1779,0,0
406,-755,0,0,0,0,0,0,0,0,0,-1,1630,1779,0,0
413,-755,0,0,0,0,0,0,0,0,0,-1,1637,1779,0,0
420,-755,0,0,0,0,0,0,0,0,0,-1,1644,1779,0,0
427,-755,0,0,0,0,0,0,0,0,0,-1,1651,1779,0,0
434,-755,0,0,0,0,0,0,0,0,0,-1,1658,1779,0,0
441,-755,0,0,0,0,0,0,0,0,0,-1,1665,1779,0,0
448,-755,0,0,0,0,0,0,0,0,0,-1,1672,1779,0,0
455,-755,0,0,0,0,0,0,0,0,0,-1,1679,1779,0,0
462,-755,0,0,0,0,0,0,0,0,0,-1,1686,1779,0,0
469,-755,0,0,0,0,0,0,0,0,0,-1,1693,1779,0,0
476,-755,0,0,0,0,0,0,0,0,0,-1,1700,1779,0,0
483,-755,0,0,0,0,0,0,0,0,0,-1,1707,1779,0,0
490,-755,0,0,0,0,0,0,0,0,0,-1,1714,1779,0,0
497,-755,0,0,0,0,0,0,0,0,0,-1,1721,1779,0,0
504,-755,0,0,0,0,0,0,0,0,0,-1,1728,1779,0,0
511,-755,0,0,0,0,0,0,0,0,0,-1,1735,1779,0,0
518,-755,0,0,0,0,0,0,0,0,0,-1,1742,1779,0,0
525,-755,0,0,0,0,0,0,0,0,0,-1,1749,1779,0,0
532,-755,0,0,0,0,0,0,0,0,0,-1,1756,1779,0,0
539,-755,0,0,0,0,0,0,0,0,0,-1,1763,1779,0,0
546,-755,0,0,0,0,0,0,0,0,0,-1,1770,1779,0,0
553,-755,0,0,0,0,0,0,0,0,0,-1,1777,1779,0,0
560,-755,0,0,0,0,0,0,0,0,0,-1,1784,1779,0,0
567,-755,0,0,0,0,0,0,0,0,0,-1,1791,1779,0,0
574,-755,0,0,0,0,0,0,0,0,0,-1,1798,1779,0,0
581,-755,0,0,0,0,0,0,0,0,0,-1,1805,1779,0,0
588,-755,0,0,0,0,0,0,0,0,0,-1,1812,1779,0,0
595,-755,0,0,0,0,0,0,0,0,0,-1,1819,1779,0,0
602,-755,0,0,0,0,0,0,0,0,0,-1,1826,1779,0,0
609,-755,0,0,0,0,0,0,0,0,0,-1,1833,1779,0,0
616,-755,0,0,0,0,0,0,0,0,0,-1,1840,1779,0,0
623,-755,0,0,0,0,0,0,0,0,0,-1,1847,1779,0,0
630,-755,0,0,0,0,0,0,0,0,0,-1,1854,1779,0,0
637,-755,0,0,0,0,0,0,0,0,0,-1,1861,1779,0,0
644,-755,0,0,0,0,0,0,0,0,0,-1,1868,1779,0,0
651,-755,0,0,0,0,0,0,0,0,0,-1,1875,1779,0,0
658,-755,0,0,0,0,0,0,0,0,0,-1,1882,1779,0,0
665,-755,0,0,0,0,0,0,0,0,0,-1,1889,1779,0,0
672,-755,0,0,0,0,0,0,0,0,0,-1,1896,1779,0,0
679,-755,0,0,0,0,0,0,0,0,0,-1,1903,1779,0,0
686,-755,0,0,0,0,0,0,0,0,0,-1,1910,1779,0,0
693,-755,0,0,0,0,0,0,0,0,0,-1,1917,1779,0,0
700,-755,0,0,0,0,0,0,0,0,0,-1,1924,1779,0,0
707,-755,0,0,0,0,0,0,0,0,0,-1,1931,1779,0,0
714,-755,0,0,0,0,0,0,0,0,0,-1,1938,1779,0,0
721,-755,0,0,0,0,0,0,0,0,0,-1,1945,1779,0,0
728,-755,0,0,0,0,0,0,0,0,0,-1,1952,1779,0,0
735,-755,0,0,0,0,0,0,0,0,0,-1,1959,1779,0,0
742,-755,0,0,0,0,0,0,0,0,0,-1,1966,1779,0,0
749,-755,0,0,0,0,0,0,0,0,0,-1,1973,1779,0,0
756,-755,0,0,0,0,0,0,0,0,0,-1,1980,1779,0,0
763,-755,0,0,0,0,0,0,0,0,0,-1,1987,1779,0,0
770,-755,0,0,0,0,0,0,0,0,0,-1,1994,1779,0,0
777,-755,0,0,0,0,0,0,0,0,0,-1,2001,1779,0,0
784,-755,0,0,0,0,0,0,0,0,0,-1,2008,1779,0,0
791,-755,0,0,0,0,0,0,0,0,0,-1,2015,1779,0,0
798,-755,0,0,0,0,0,0,0,0,0,-1,2022,1779,0,0
805,-755,0,0,0,0,0,0,0,0,0,-1,2029,1779,0,0
812,-755,0,0,0,0,0,0,0,0,0,-1,2036,1779,0,0
-700,-762,0,0,0,0,0,0,0,0,0,-1,524,1786,0,0
-693,-762,0,0,0,0,0,0,0,0,0,-1,531,1786,0,0
-686,-762,0,0,0,0,0,0,0,0,0,-1,538,1786,0,0
-679,-762,0,0,0,0,0,0,0,0,0,-1,545,1786,0,0
-672,-762,0,0,0,0,0,0,0,0,0,-1,552,1786,0,0
-665,-762,0,0,0,0,0,0,0,0,0,-1,559,1786,0,0
-658,-762,0,0,0,0,0,0,0,0,0,-1,566,1786,0,0
-651,-762,0,0,0,0,0,0,0,0,0,-1,573,1786,0,0
-644,-762,0,0,0,0,0,0,0,0,0,-1,580,1786,0,0
-637,-762,0,0,0,0,0,0,0,0,0,-1,587,1786,0,0
-630,-762,0,0,0,0,0,0,0,0,0,-1,594,1786,0,0
-623,-762,0,0,0,0,0,0,0,0,0,-1,601,1786,0,0
-616,-762,0,0,0,0,0,0,0,0,0,-1,608,1786,0,0
-609,-762,0,0,0,0,0,0,0,0,0,-1,615,1786,0,0
-602,-762,0,0,0,0,0,0,0,0,0,-1,622,1786,0,0
-595,-762,0,0,0,0,0,0,0,0,0,-1,629,1786,0,0
-588,-762,0,0,0,0,0,0,0,0,0,-1,636,1786,0,0
-581,-762,0,0,0,0,0,0,0,0,0,-1,643,1786,0,0
-574,-762,0,0,0,0,0,0,0,0,0,-1,650,1786,0,0
-567,-762,0,0,0,0,0,0,0,0,0,-1,657,1786,0,0
-560,-762,0,0,0,0,0,0,0,0,0,-1,664,1786,0,0
-553,-762,0,0,0,0,0,0,0,0,0,-1,671,1786,0,0
-546,-762,0,0,0,0,0,0,0,0,0,-1,678,1786,0,0
-539,-762,0,0,0,0,0,0,0,0,0,-1,685,1786,0,0
-532,-762,0,0,0,0,0,0,0,0,0,-1,692,1786,0,0
-525,-762,0,0,0,0,0,0,0,0,0,-1,699,1786,0,0
-518,-762,0,0,0,0,0,0,0,0,0,-1,706,1786,0,0
-511,-762,0,0,0,0,0,0,0,0,0,-1,713,1786,0,0
-504,-762,0,0,0,0,0,0,0,0,0,-1,720,1786,0,0
-497,-762,0,0,0,0,0,0,0,0,0,-1,727,1786,0,0
-490,-762,0,0,0,0,0,0,0,0,0,-1,734,1786,0,0
-483,-762,0,0,0,0,0,0,0,0,0,-1,741,1786,0,0
-476,-762,0,0,0,0,0,0,0,0,0,-1,748,1786,0,0
-469,-762,0,0,0,0,0,0,0,0,0,-1,755,1786,0,0
-462,-762,0,0,0,0,0,0,0,0,0,-1,762,1786,0,0
-455,-762,0,0,0,0,0,0,0,0,0,-1,769,1786,0,0
-448,-762,0,0,0,0,0,0,0,0,0,-1,776,1786,0,0
-441,-762,0,0,0,0,0,0,0,0,0,-1,783,1786,0,0
-434,-762,0,0,0,0,0,0,0,0,0,-1,790,1786,0,0
-427,-762,0,0,0,0,0,0,0,0,0,-1,797,1786,0,0
-420,-762,0,0,0,0,0,0,0,0,0,-1,804,1786,0,0
-413,-762,0,0,0,0,0,0,0,0,0,-1,811,1786,0,0
-406,-762,0,0,0,0,0,0,0,0,0,-1,818,1786,0,0
-399,-762,0,0,0,0,0,0,0,0,0,-1,825,1786,0,0
-392,-762,0,0,0,0,0,0,0,0,0,-1,832,1786,0,0
-385,-762,0,0,0,0,0,0,0,0,0,-1,839,1786,0,0
-378,-762,0,0,0,0,0,0,0,0,0,-1,846,1786,0,0
-371,-762,0,0,0,0,0,0,0,0,0,-1,853,1786,0,0
-364,-762,0,0,0,0,0,0,0,0,0,-1,860,1786,0,0
-357,-762,0,0,0,0,0,0,0,0,0,-1,867,1786,0,0
-350,-762,0,0,0,0,0,0,0,0,0,-1,874,1786,0,0
-343,-762,0,0,0,0,0,0,0,0,0,-1,881,1786,0,0
-336,-762,0,0,0,0,0,0,0,0,0,-1,888,1786,0,0
-329,-762,0,0,0,0,0,0,0,0,0,-1,895,1786,0,0
-322,-762,0,0,0,0,0,0,0,0,0,-1,902,1786,0,0
-315,-762,0,0,0,0,0,0,0,0,0,-1,909,1786,0,0
-308,-762,0,0,0,0,0,0,0,0,0,-1,916,1786,0,0
-301,-762,0,0,0,0,0,0,0,0,0,-1,923,1786,0,0
-294,-762,0,0,0,0,0,0,0,0,0,-1,930,1786,0,0
-287,-762,0,0,0,0,0,0,0,0,0,-1,937,1786,0,0
-280,-762,0,0,0,0,0,0,0,0,0,-1,944,1786,0,0
-273,-762,0,0,0,0,0,0,0,0,0,-1,951,1786,0,0
-266,-762,0,0,0,0,0,0,0,0,0,-1,958,1786,0,0
-259,-762,0,0,0,0,0,0,0,0,0,-1,965,1786,0,0
-252,-762,0,0,0,0,0,0,0,0,0,-1,972,1786,0,0
-245,-762,0,0,0,0,0,0,0,0,0,-1,979,1786,0,0
-238,-762,0,0,0,0,0,0,0,0,0,-1,986,1786,0,0
-231,-762,0,0,0,0,0,0,0,0,0,-1,993,1786,0,0
-224,-762,0,0,0,0,0,0,0,0,0,-1,1000,1786,0,0
-217,-762,0,0,0,0,0,0,0,0,0,-1,1007,1786,0,0
-210,-762,0,0,0,0,0,0,0,0,0,-1,1014,1786,0,0
-203,-762,0,0,0,0,0,0,0,0,0,-1,1021,1786,0,0
-196,-762,0,0,0,0,0,0,0,0,0,-1,1028,1786,0,0
-189,-762,0,0,0,0,0,0,0,0,0,-1,1035,1786,0,0
-182,-762,4.44226,13.2462,0,0,0,0,0,0,0,-1,1042,1786,4.44227,-13.2462
-175,-762,4.07861,11.6385,0,0,0,0,0,0,0,-1,1049,1786,4.07866,-11.6386
-168,-762,3.71509,10.031,0,0,0,0,0,0,0,-1,1056,1786,3.71504,-10.031
-161,-762,-3.15735,11.7089,0,0,0,0,0,0,0,-1,1063,1786,-3.15736,-11.7088
-154,-762,-4.57129,10.9923,0,0,0,0,0,0,0,-1,1070,1786,-4.57132,-10.9923
-147,-762,-1.09119,4.58313,0,0,0,0,0,0,0,-1,1077,1786,-1.09124,-4.58313
-140,-762,4.99792,5.28589,0,0,0,0,0,0,0,-1,1084,1786,4.99793,-5.28587
-133,-762,3.75159,9.08374,0,0,0,0,0,0,0,-1,1091,1786,3.75161,-9.08378
-126,-762,4.12476,10.2291,0,0,0,0,0,0,0,-1,1098,1786,4.1247,-10.2291
-119,-762,4.25244,10.6255,0,0,0,0,0,0,0,-1,1105,1786,4.25249,-10.6255
-112,-762,5.35559,11.9761,0,0,0,0,0,0,0,-1,1112,1786,5.35554,-11.976
-105,-762,5.33875,12.1794,0,0,0,0,0,0,0,-1,1119,1786,5.33876,-12.1794
-98,-762,4.10583,11.7058,0,0,0,0,0,0,0,-1,1126,1786,4.10584,-11.7058
-91,-762,3.62683,11.6086,0,0,0,0,0,0,0,-1,1133,1786,3.62689,-11.6086
-84,-762,0.741455,9.28662,0,0,0,0,0,0,0,-1,1140,1786,0.741428,-9.28659
-77,-762,0.0256348,7.2218,0,0,0,0,0,0,0,-1,1147,1786,0.0255824,-7.22184
-70,-762,-1.15259,5.96057,0,0,0,0,0,0,0,-1,1154,1786,-1.15258,-5.96057
-63,-762,0.350098,6.29749,0,0,0,0,0,0,0,-1,1161,1786,0.350114,-6.29743
-56,-762,-0.578979,5.10254,0,0,0,0,0,0,0,-1,1168,1786,-0.578951,-5.10249
-49,-762,-2.04541,3.66321,0,0,0,0,0,0,0,-1,1175,1786,-2.0454,-3.66319
-42,-762,-2.23462,3.474,0,0,0,0,0,0,0,-1,1182,1786,-2.23459,-3.47399
-35,-762,-3.28992,1.68164,0,0,0,0,0,0,0,-1,1189,1786,-3.28998,-1.68164
-28,-762,-3.75378,1.37769,0,0,0,0,0,0,0,-1,1196,1786,-3.75373,-1.37767
-21,-762,4.62183,12.9133,0,0,0,0,0,0,0,-1,1203,1786,4.62186,-12.9133
-14,-762,4.47864,12.9664,-0.0108401,0.0101651,-0.000284469,0.010169,-0.010844,-1.55726,0.0121339,0.0488751,1210,1786,4.47863,-12.9665
-7,-762,4.32275,13.0444,-0.00800282,0.0097521,0.00073076,0.00978213,-0.00803285,1.52973,0.010302,0.0490065,1217,1786,4.32277,-13.0445
0,-762,4.29346,13.0958,-0.00514693,0.00939703,0.00183637,0.00962532,-0.00537521,1.44712,0.00877567,0.0369673,1224,1786,4.29344,-13.0958
7,-762,4.26245,13.156,-0.00205617,0.00884776,0.00276914,0.0095107,-0.00271911,1.33582,0.00741493,0.0212713,1231,1786,4.26243,-13.156
14,-762,4.23853,13.271,0.0008832,0.0084615,0.00342261,0.00977841,-0.000433716,1.20349,0.00666822,0.0331128,1238,1786,4.2385,-13.271
21,-762,4.08594,13.3334,0.00376166,0.00878572,0.00423581,0.0111984,0.00134901,1.05304,0.007059,0.0397823,1245,1786,4.08599,-13.3334
28,-762,4.01331,13.4248,0.00639063,0.00928435,0.00499658,0.0130393,0.00263565,0.926329,0.00796113,0.0379666,1252,1786,4.01335,-13.4248
35,-762,4.16858,13.3972,0.00880201,0.00990289,0.00555254,0.0149322,0.0037727,0.834804,0.00896585,0.040546,1259,1786,4.16858,-13.3972
42,-762,4.21582,13.2887,0.0107811,0.0105461,0.00572324,0.0163881,0.00493915,0.77513,0.00970728,0.0398479,1266,1786,4.21579,-13.2887
49,-762,4.18896,13.2904,0.0124396,0.0112071,0.00556663,0.017424,0.00622273,0.730269,0.0101957,0.0318405,1273,1786,4.18894,-13.2904
56,-762,4.18555,13.3352,0.0141585,0.0117996,0.0050191,0.0181349,0.00782326,0.669999,0.010503,0.0212635,1280,1786,4.1856,-13.3352
63,-762,4.1637,13.368,0.0152907,0.0118038,0.00431497,0.0182011,0.00889335,0.593401,0.0105093,0.0180876,1287,1786,4.16368,-13.3681
70,-762,4.11243,13.3849,0.014977,0.0124093,0.00284649,0.0168158,0.0105705,0.57354,0.00981507,0.0175574,1294,1786,4.11246,-13.3849
77,-762,4.11768,13.3502,0.0133522,0.0129192,0.000641096,0.0138124,0.012459,0.622533,0.00879193,0.0247733,1301,1786,4.11773,-13.3502
84,-762,4.17822,13.3514,0.0116167,0.0128582,-0.00140203,0.0137708,0.0107041,-0.993813,0.00834821,0.0300084,1308,1786,4.17819,-13.3514
91,-762,4.18933,13.3503,0.00917868,0.0125497,-0.00386255,0.0150785,0.0066499,-0.991131,0.00872574,0.038757,1315,1786,4.18931,-13.3504
98,-762,4.1095,13.3381,0.00646423,0.0121352,-0.0063507,0.0162547,0.00234475,-0.995361,0.0101456,0.0424777,1322,1786,4.10944,-13.3382
105,-762,4.12769,13.4485,0.00332009,0.0116751,-0.0088208,0.0172576,-0.00226244,-1.00655,0.0123286,0.0405567,1329,1786,4.12769,-13.4485
112,-762,4.28992,13.4556,-0.000236025,0.0114412,-0.0109641,0.0180243,-0.00681916,-1.03006,0.0148217,0.04313,1336,1786,4.28995,-13.4555
119,-762,4.22241,13.5322,-0.00387717,0.0111874,-0.0127508,0.0184645,-0.0111543,-1.05219,0.0172732,0.0454558,1343,1786,4.22242,-13.5322
126,-762,3.97974,13.5437,-0.00747914,0.0110082,-0.0145917,0.0190377,-0.0155087,-1.06774,0.01998,0.046254,1350,1786,3.97976,-13.5437
133,-762,4.00549,13.3621,-0.010791,0.0113856,-0.0158188,0.0196153,-0.0190206,-1.09108,0.0223073,0.0487315,1357,1786,4.00555,-13.3621
140,-762,4.02954,13.2922,-0.01351,0.0120358,-0.0165706,0.0201849,-0.0216592,-1.11374,0.0241637,0.0490681,1364,1786,4.02959,-13.2923
147,-762,4.03674,13.3424,-0.0147626,0.012902,-0.016357,0.0204913,-0.0223519,-1.13638,0.0247433,0.0453225,1371,1786,4.03679,-13.3424
154,-762,4.14746,13.3041,0,0,0,0,0,0,0,-1,1378,1786,4.14751,-13.3041
161,-762,7.93408,-0.126221,0,0,0,0,0,0,0,-1,1385,1786,7.93402,0.126232
168,-762,8.19287,0.880615,0,0,0,0,0,0,0,-1,1392,1786,8.19291,-0.880603
175,-762,8.33997,1.95947,0,0,0,0,0,0,0,-1,1399,1786,8.33997,-1.95942
182,-762,8.28418,3.56482,0,0,0,0,0,0,0,-1,1406,1786,8.28415,-3.56485
189,-762,8.21179,5.23389,0,0,0,0,0,0,0,-1,1413,1786,8.21183,-5.23383
196,-762,8.05969,6.95483,0,0,0,0,0,0,0,-1,1420,1786,8.05972,-6.9548
203,-762,6.1261,3.35522,0,0,0,0,0,0,0,-1,1427,1786,6.12607,-3.35529
210,-762,3.74841,6.60901,0,0,0,0,0,0,0,-1,1434,1786,3.74835,-6.609
217,-762,1.37061,9.86267,0,0,0,0,0,0,0,-1,1441,1786,1.37064,-9.86271
224,-762,3.13306,13.1436,0,0,0,0,0,0,0,-1,1448,1786,3.1331,-13.1435
231,-762,5.34241,11.6335,0,0,0,0,0,0,0,-1,1455,1786,5.34245,-11.6335
238,-762,14.4207,7.9989,0,0,0,0,0,0,0,-1,1462,1786,14.4207,-7.99893
245,-762,14.3199,8.01099,0,0,0,0,0,0,0,-1,1469,1786,14.3199,-8.01103
252,-762,14.2721,7.83008,0,0,0,0,0,0,0,-1,1476,1786,14.2722,-7.83009
259,-762,14.2466,7.72559,0,0,0,0,0,0,0,-1,1483,1786,14.2466,-7.72563
266,-762,14.0593,7.7666,0,0,0,0,0,0,0,-1,1490,1786,14.0593,-7.76659
273,-762,13.5664,7.50964,0,0,0,0,0,0,0,-1,1497,1786,13.5664,-7.50959
280,-762,12.9194,7.54028,0,0,0,0,0,0,0,-1,1504,1786,12.9194,-7.54034
287,-762,11.2643,7.0968,0,0,0,0,0,0,0,-1,1511,1786,11.2643,-7.09675
294,-762,9.81226,6.87488,0,0,0,0,0,0,0,-1,1518,1786,9.81229,-6.87487
301,-762,8.52734,6.77954,0,0,0,0,0,0,0,-1,1525,1786,8.5273,-6.77957
308,-762,0,0,0,0,0,0,0,0,0,-1,1532,1786,0,0
315,-762,0,0,0,0,0,0,0,0,0,-1,1539,1786,0,0
322,-762,0,0,0,0,0,0,0,0,0,-1,1546,1786,0,0
329,-762,0,0,0,0,0,0,0,0,0,-1,1553,1786,0,0
336,-762,0,0,0,0,0,0,0,0,0,-1,1560,1786,0,0
343,-762,0,0,0,0,0,0,0,0,0,-1,1567,1786,0,0
350,-762,0,0,0,0,0,0,0,0,0,-1,1574,1786,0,0
357,-762,0,0,0,0,0,0,0,0,0,-1,1581,1786,0,0
364,-762,0,0,0,0,0,0,0,0,0,-1,1588,1786,0,0
371,-762,0,0,0,0,0,0,0,0,0,-1,1595,1786,0,0
378,-762,0,0,0,0,0,0,0,0,0,-1,1602,1786,0,0
385,-762,0,0,0,0,0,0,0,0,0,-1,1609,1786,0,0
392,-762,0,0,0,0,0,0,0,0,0,-1,1616,1786,0,0
399,-762,0,0,0,0,0,0,0,0,0,-1,1623,1786,0,0
406,-762,0,0,0,0,0,0,0,0,0,-1,1630,1786,0,0
413,-762,0,0,0,0,0,0,0,0,0,-1,1637,1786,0,0
420,-762,0,0,0,0,0,0,0,0,0,-1,1644,1786,0,0
427,-762,0,0,0,0,0,0,0,0,0,-1,1651,1786,0,0
434,-762,0,0,0,0,0,0,0,0,0,-1,1658,1786,0,0
441,-762,0,0,0,0,0,0,0,0,0,-1,1665,1786,0,0
448,-762,0,0,0,0,0,0,0,0,0,-1,1672,1786,0,0
455,-762,0,0,0,0,0,0,0,0,0,-1,1679,1786,0,0
462,-762,0,0,0,0,0,0,0,0,0,-1,1686,1786,0,0
469,-762,0,0,0,0,0,0,0,0,0,-1,1693,1786,0,0
476,-762,0,0,0,0,0,0,0,0,0,-1,1700,1786,0,0
483,-762,0,0,0,0,0,0,0,0,0,-1,1707,1786,0,0
490,-762,0,0,0,0,0,0,0,0,0,-1,1714,1786,0,0
497,-762,0,0,0,0,0,0,0,0,0,-1,1721,1786,0,0
504,-762,0,0,0,0,0,0,0,0,0,-1,1728,1786,0,0
511,-762,0,0,0,0,0,0,0,0,0,-1,1735,1786,0,0
518,-762,0,0,0,0,0,0,0,0,0,-1,1742,1786,0,0
525,-762,0,0,0,0,0,0,0,0,0,-1,1749,1786,0,0
532,-762,0,0,0,0,0,0,0,0,0,-1,1756,1786,0,0
539,-762,0,0,0,0,0,0,0,0,0,-1,1763,1786,0,0
546,-762,0,0,0,0,0,0,0,0,0,-1,1770,1786,0,0
553,-762,0,0,0,0,0,0,0,0,0,-1,1777,1786,0,0
560,-762,0,0,0,0,0,0,0,0,0,-1,1784,1786,0,0
567,-762,0,0,0,0,0,0,0,0,0,-1,1791,1786,0,0
574,-762,0,0,0,0,0,0,0,0,0,-1,1798,1786,0,0
581,-762,0,0,0,0,0,0,0,0,0,-1,1805,1786,0,0
588,-762,0,0,0,0,0,0,0,0,0,-1,1812,1786,0,0
595,-762,0,0,0,0,0,0,0,0,0,-1,1819,1786,0,0
602,-762,0,0,0,0,0,0,0,0,0,-1,1826,1786,0,0
609,-762,0,0,0,0,0,0,0,0,0,-1,1833,1786,0,0
616,-762,0,0,0,0,0,0,0,0,0,-1,1840,1786,0,0
623,-762,0,0,0,0,0,0,0,0,0,-1,1847,1786,0,0
630,-762,0,0,0,0,0,0,0,0,0,-1,1854,1786,0,0
637,-762,0,0,0,0,0,0,0,0,0,-1,1861,1786,0,0
644,-762,0,0,0,0,0,0,0,0,0,-1,1868,1786,0,0
651,-762,0,0,0,0,0,0,0,0,0,-1,1875,1786,0,0
658,-762,0,0,0,0,0,0,0,0,0,-1,1882,1786,0,0
665,-762,0,0,0,0,0,0,0,0,0,-1,1889,1786,0,0
672,-762,0,0,0,0,0,0,0,0,0,-1,1896,1786,0,0
679,-762,0,0,0,0,0,0,0,0,0,-1,1903,1786,0,0
686,-762,0,0,0,0,0,0,0,0,0,-1,1910,1786,0,0
693,-762,0,0,0,0,0,0,0,0,0,-1,1917,1786,0,0
700,-762,0,0,0,0,0,0,0,0,0,-1,1924,1786,0,0
707,-762,0,0,0,0,0,0,0,0,0,-1,1931,1786,0,0
714,-762,0,0,0,0,0,0,0,0,0,-1,1938,1786,0,0
721,-762,0,0,0,0,0,0,0,0,0,-1,1945,1786,0,0
728,-762,0,0,0,0,0,0,0,0,0,-1,1952,1786,0,0
735,-762,0,0,0,0,0,0,0,0,0,-1,1959,1786,0,0
742,-762,0,0,0,0,0,0,0,0,0,-1,1966,1786,0,0
749,-762,0,0,0,0,0,0,0,0,0,-1,1973,1786,0,0
756,-762,0,0,0,0,0,0,0,0,0,-1,1980,1786,0,0
763,-762,0,0,0,0,0,0,0,0,0,-1,1987,1786,0,0
770,-762,0,0,0,0,0,0,0,0,0,-1,1994,1786,0,0
777,-762,0,0,0,0,0,0,0,0,0,-1,2001,1786,0,0
784,-762,0,0,0,0,0,0,0,0,0,-1,2008,1786,0,0
791,-762,0,0,0,0,0,0,0,0,0,-1,2015,1786,0,0
798,-762,0,0,0,0,0,0,0,0,0,-1,2022,1786,0,0
805,-762,0,0,0,0,0,0,0,0,0,-1,2029,1786,0,0
812,-762,0,0,0,0,0,0,0,0,0,-1,2036,1786,0,0
-700,-769,0,0,0,0,0,0,0,0,0,-1,524,1793,0,0
-693,-769,0,0,0,0,0,0,0,0,0,-1,531,1793,0,0
-686,-769,0,0,0,0,0,0,0,0,0,-1,538,1793,0,0
-679,-769,0,0,0,0,0,0,0,0,0,-1,545,1793,0,0
-672,-769,0,0,0,0,0,0,0,0,0,-1,552,1793,0,0
-665,-769,0,0,0,0,0,0,0,0,0,-1,559,1793,0,0
-658,-769,0,0,0,0,0,0,0,0,0,-1,566,1793,0,0
-651,-769,0,0,0,0,0,0,0,0,0,-1,573,1793,0,0
-644,-769,0,0,0,0,0,0,0,0,0,-1,580,1793,0,0
-637,-769,0,0,0,0,0,0,0,0,0,-1,587,1793,0,0
-630,-769,0,0,0,0,0,0,0,0,0,-1,594,1793,0,0
-623,-769,0,0,0,0,0,0,0,0,0,-1,601,1793,0,0
-616,-769,0,0,0,0,0,0,0,0,0,-1,608,1793,0,0
-609,-769,0,0,0,0,0,0,0,0,0,-1,615,1793,0,0
-602,-769,0,0,0,0,0,0,0,0,0,-1,622,1793,0,0
-595,-769,0,0,0,0,0,0,0,0,0,-1,629,1793,0,0
-588,-769,0,0,0,0,0,0,0,0,0,-1,636,1793,0,0
-581,-769,0,0,0,0,0,0,0,0,0,-1,643,1793,0,0
-574,-769,0,0,0,0,0,0,0,0,0,-1,650,1793,0,0
-567,-769,0,0,0,0,0,0,0,0,0,-1,657,1793,0,0
-560,-769,0,0,0,0,0,0,0,0,0,-1,664,1793,0,0
-553,-769,0,0,0,0,0,0,0,0,0,-1,671,1793,0,0
-546,-769,0,0,0,0,0,0,0,0,0,-1,678,1793,0,0
-539,-769,0,0,0,0,0,0,0,0,0,-1,685,1793,0,0
-532,-769,0,0,0,0,0,0,0,0,0,-1,692,1793,0,0
-525,-769,0,0,0,0,0,0,0,0,0,-1,699,1793,0,0
-518,-769,0,0,0,0,0,0,0,0,0,-1,706,1793,0,0
-511,-769,0,0,0,0,0,0,0,0,0,-1,713,1793,0,0
-504,-769,0,0,0,0,0,0,0,0,0,-1,720,1793,0,0
-497,-769,0,0,0,0,0,0,0,0,0,-1,727,1793,0,0
-490,-769,0,0,0,0,0,0,0,0,0,-1,734,1793,0,0
-483,-769,0,0,0,0,0,0,0,0,0,-1,741,1793,0,0
-476,-769,0,0,0,0,0,0,0,0,0,-1,748,1793,0,0
-469,-769,0,0,0,0,0,0,0,0,0,-1,755,1793,0,0
-462,-769,0,0,0,0,0,0,0,0,0,-1,762,1793,0,0
-455,-769,0,0,0,0,0,0,0,0,0,-1,769,1793,0,0
-448,-769,0,0,0,0,0,0,0,0,0,-1,776,1793,0,0
-441,-769,0,0,0,0,0,0,0,0,0,-1,783,1793,0,0
-434,-769,0,0,0,0,0,0,0,0,0,-1,790,1793,0,0
-427,-769,0,0,0,0,0,0,0,0,0,-1,797,1793,0,0
-420,-769,0,0,0,0,0,0,0,0,0,-1,804,1793,0,0
-413,-769,0,0,0,0,0,0,0,0,0,-1,811,1793,0,0
-406,-769,0,0,0,0,0,0,0,0,0,-1,818,1793,0,0
-399,-769,0,0,0,0,0,0,0,0,0,-1,825,1793,0,0
-392,-769,0,0,0,0,0,0,0,0,0,-1,832,1793,0,0
-385,-769,0,0,0,0,0,0,0,0,0,-1,839,1793,0,0
-378,-769,0,0,0,0,0,0,0,0,0,-1,846,1793,0,0
-371,-769,0,0,0,0,0,0,0,0,0,-1,853,1793,0,0
-364,-769,0,0,0,0,0,0,0,0,0,-1,860,1793,0,0
-357,-769,0,0,0,0,0,0,0,0,0,-1,867,1793,0,0
-350,-769,0,0,0,0,0,0,0,0,0,-1,874,1793,0,0
-343,-769,0,0,0,0,0,0,0,0,0,-1,881,1793,0,0
-336,-769,0,0,0,0,0,0,0,0,0,-1,888,1793,0,0
-329,-769,0,0,0,0,0,0,0,0,0,-1,895,1793,0,0
-322,-769,0,0,0,0,0,0,0,0,0,-1,902,1793,0,0
-315,-769,0,0,0,0,0,0,0,0,0,-1,909,1793,0,0
-308,-769,0,0,0,0,0,0,0,0,0,-1,916,1793,0,0
-301,-769,0,0,0,0,0,0,0,0,0,-1,923,1793,0,0
-294,-769,0,0,0,0,0,0,0,0,0,-1,930,1793,0,0
-287,-769,0,0,0,0,0,0,0,0,0,-1,937,1793,0,0
-280,-769,0,0,0,0,0,0,0,0,0,-1,944,1793,0,0
-273,-769,0,0,0,0,0,0,0,0,0,-1,951,1793,0,0
-266,-769,0,0,0,0,0,0,0,0,0,-1,958,1793,0,0
-259,-769,0,0,0,0,0,0,0,0,0,-1,965,1793,0,0
-252,-769,0,0,0,0,0,0,0,0,0,-1,972,1793,0,0
-245,-769,0,0,0,0,0,0,0,0,0,-1,979,1793,0,0
-238,-769,0,0,0,0,0,0,0,0,0,-1,986,1793,0,0
-231,-769,0,0,0,0,0,0,0,0,0,-1,993,1793,0,0
-224,-769,0,0,0,0,0,0,0,0,0,-1,1000,1793,0,0
-217,-769,0,0,0,0,0,0,0,0,0,-1,1007,1793,0,0
-210,-769,0,0,0,0,0,0,0,0,0,-1,1014,1793,0,0
-203,-769,0,0,0,0,0,0,0,0,0,-1,1021,1793,0,0
-196,-769,0,0,0,0,0,0,0,0,0,-1,1028,1793,0,0
-189,-769,0,0,0,0,0,0,0,0,0,-1,1035,1793,0,0
-182,-769,0,0,0,0,0,0,0,0,0,-1,1042,1793,0,0
-175,-769,0,0,0,0,0,0,0,0,0,-1,1049,1793,0,0
-168,-769,0,0,0,0,0,0,0,0,0,-1,1056,1793,0,0
-161,-769,-3.39258,12.5125,0,0,0,0,0,0,0,-1,1063,1793,-3.39257,-12.5125
-154,-769,-0.813232,5.32874,0,0,0,0,0,0,0,-1,1070,1793,-0.813269,-5.32872
-147,-769,4.26587,4.7002,0,0,0,0,0,0,0,-1,1077,1793,4.26593,-4.70022
-140,-769,4.10376,5.28589,0,0,0,0,0,0,0,-1,1084,1793,4.10371,-5.28584
-133,-769,6.422,8.21777,0,0,0,0,0,0,0,-1,1091,1793,6.42198,-8.21773
-126,-769,5.81738,11.5902,0,0,0,0,0,0,0,-1,1098,1793,5.81743,-11.5903
-119,-769,5.33301,11.7186,0,0,0,0,0,0,0,-1,1105,1793,5.33298,-11.7187
-112,-769,4.97327,12.0045,0,0,0,0,0,0,0,-1,1112,1793,4.97326,-12.0045
-105,-769,4.49243,12.3553,0,0,0,0,0,0,0,-1,1119,1793,4.49238,-12.3554
-98,-769,3.81458,12.3632,0,0,0,0,0,0,0,-1,1126,1793,3.81461,-12.3632
-91,-769,3.12756,12.333,0,0,0,0,0,0,0,-1,1133,1793,3.12753,-12.3331
-84,-769,0.499512,11.1804,0,0,0,0,0,0,0,-1,1140,1793,0.49948,-11.1805
-77,-769,0.665771,9.61877,0,0,0,0,0,0,0,-1,1147,1793,0.665754,-9.61882
-70,-769,0.99707,7.63843,0,0,0,0,0,0,0,-1,1154,1793,0.997071,-7.63837
-63,-769,-0.0517578,6.57178,0,0,0,0,0,0,0,-1,1161,1793,-0.0517467,-6.5718
-56,-769,-1.22949,5.21887,0,0,0,0,0,0,0,-1,1168,1793,-1.22948,-5.21891
-49,-769,-2.41443,3.95471,0,0,0,0,0,0,0,-1,1175,1793,-2.41446,-3.95471
-42,-769,-3.1991,2.64941,0,0,0,0,0,0,0,-1,1182,1793,-3.19914,-2.64944
-35,-769,-3.50183,1.73389,0,0,0,0,0,0,0,-1,1189,1793,-3.50189,-1.7339
-28,-769,-3.96985,1.14075,0,0,0,0,0,0,0,-1,1196,1793,-3.96985,-1.14078
-21,-769,3.54541,10.4323,0,0,0,0,0,0,0,-1,1203,1793,3.54539,-10.4322
-14,-769,4.61121,12.9542,0,0,0,0,0,0,0,-1,1210,1793,4.61117,-12.9542
-7,-769,4.41821,13.0449,0,0,0,0,0,0,0,-1,1217,1793,4.41825,-13.0449
0,-769,4.38611,13.1532,0,0,0,0,0,0,0,-1,1224,1793,4.38613,-13.1533
7,-769,4.35303,13.1829,0,0,0,0,0,0,0,-1,1231,1793,4.35306,-13.1828
14,-769,4.32654,13.3228,0,0,0,0,0,0,0,-1,1238,1793,4.32655,-13.3227
21,-769,3.83337,13.5576,0.00513891,0.0141196,0.00657686,0.0175928,0.00166569,1.08492,0.0112146,0.0448204,1245,1793,3.83337,-13.5576
28,-769,4.01233,13.3781,0.00899221,0.01481,0.00773983,0.0201695,0.00363269,0.965149,0.0124139,0.044685,1252,1793,4.01227,-13.3781
35,-769,4.18213,13.3306,0.0124576,0.0157147,0.00868814,0.0229256,0.00524669,0.878047,0.0138697,0.0477268,1259,1793,4.18213,-13.3305
42,-769,4.36218,13.3616,0.0152627,0.0166807,0.00912626,0.0251255,0.00681797,0.824164,0.0150033,0.0455274,1266,1793,4.36223,-13.3615
49,-769,4.33789,13.5978,0.0176005,0.017634,0.00915442,0.0267717,0.00846281,0.786314,0.0158012,0.042929,1273,1793,4.33794,-13.5978
56,-769,4.29639,13.5477,0.0199238,0.0184472,0.00868517,0.027902,0.010469,0.742995,0.0162756,0.0436,1280,1793,4.29639,-13.5478
63,-769,4.19873,13.3232,0.0214186,0.0184504,0.00796281,0.0280344,0.0118346,0.693265,0.016251,0.0431999,1287,1793,4.19868,-13.3232
70,-769,4.13977,13.3617,0.0209588,0.0192117,0.00620955,0.026356,0.0138146,0.715515,0.0152225,0.0431902,1294,1793,4.1398,-13.3617
77,-769,4.04114,13.3507,0.0187029,0.0197192,0.00340336,0.0226521,0.0157699,0.859506,0.0134096,0.0459383,1301,1793,4.04113,-13.3507
84,-769,4.00903,13.4027,0.0162358,0.0195079,0.000699348,0.0196511,0.0160926,1.36882,0.0120904,0.0462752,1308,1793,4.00903,-13.4027
91,-769,4.31213,13.3563,0.0127882,0.0190681,-0.00258526,0.0199954,0.0118609,-1.22639,0.011611,0.0438687,1315,1793,4.3121,-13.3563
98,-769,4.37976,13.309,0.00892707,0.018467,-0.00599281,0.0213565,0.00603764,-1.12153,0.0127124,0.0454166,1322,1793,4.37977,-13.309
105,-769,4.82007,13.328,0.00439173,0.0177381,-0.00956659,0.022729,-0.000599183,-1.08994,0.0153563,0.0461045,1329,1793,4.8201,-13.328
112,-769,4.51636,14.5828,0,0,0,0,0,0,0,-1,1336,1793,4.5163,-14.5828
119,-769,4.36902,14.0394,-0.00619056,0.0172189,-0.0156104,0.0250254,-0.013997,-1.10708,0.0228275,0.0486151,1343,1793,4.36905,-14.0394
126,-769,4.19348,13.5114,-0.0115835,0.017128,-0.0184133,0.0261204,-0.0205759,-1.1165,0.0270234,0.0485671,1350,1793,4.19348,-13.5113
133,-769,4.05029,13.4056,0,0,0,0,0,0,0,-1,1357,1793,4.05026,-13.4057
140,-769,4.15955,13.3392,0,0,0,0,0,0,0,-1,1364,1793,4.15959,-13.3393
147,-769,4.06482,13.3912,0,0,0,0,0,0,0,-1,1371,1793,4.06487,-13.3912
154,-769,6.37561,1.00024,0,0,0,0,0,0,0,-1,1378,1793,6.37566,-1.00028
161,-769,6.57019,1.53223,0,0,0,0,0,0,0,-1,1385,1793,6.57019,-1.53226
168,-769,8.27637,0.756958,0,0,0,0,0,0,0,-1,1392,1793,8.27639,-0.756944
175,-769,8.47144,2.41174,0,0,0,0,0,0,0,-1,1399,1793,8.47147,-2.4118
182,-769,8.41479,4.05994,0,0,0,0,0,0,0,-1,1406,1793,8.41479,-4.05997
189,-769,8.25049,5.68433,0,0,0,0,0,0,0,-1,1413,1793,8.25054,-5.68428
196,-769,7.97729,7.42847,0,0,0,0,0,0,0,-1,1420,1793,7.9773,-7.42848
203,-769,6.67419,5.07715,0,0,0,0,0,0,0,-1,1427,1793,6.67423,-5.07717
210,-769,4.46021,8.59021,0,0,0,0,0,0,0,-1,1434,1793,4.46023,-8.59018
217,-769,2.24622,12.1031,0,0,0,0,0,0,0,-1,1441,1793,2.24623,-12.1032
224,-769,3.1051,13.2957,0,0,0,0,0,0,0,-1,1448,1793,3.10508,-13.2957
231,-769,14.5472,7.77954,0,0,0,0,0,0,0,-1,1455,1793,14.5473,-7.7795
238,-769,14.3885,7.7948,0,0,0,0,0,0,0,-1,1462,1793,14.3886,-7.79483
245,-769,14.2802,7.80811,0,0,0,0,0,0,0,-1,1469,1793,14.2801,-7.80812
252,-769,14.0621,8.04382,0,0,0,0,0,0,0,-1,1476,1793,14.0621,-8.04379
259,-769,14.1978,7.74963,0,0,0,0,0,0,0,-1,1483,1793,14.1978,-7.74958
266,-769,14.0602,7.95435,0,0,0,0,0,0,0,-1,1490,1793,14.0602,-7.9543
273,-769,13.2054,8.23303,0,0,0,0,0,0,0,-1,1497,1793,13.2055,-8.23302
280,-769,12.5576,8.24451,0,0,0,0,0,0,0,-1,1504,1793,12.5576,-8.24453
287,-769,0,0,0,0,0,0,0,0,0,-1,1511,1793,0,0
294,-769,0,0,0,0,0,0,0,0,0,-1,1518,1793,0,0
301,-769,0,0,0,0,0,0,0,0,0,-1,1525,1793,0,0
308,-769,0,0,0,0,0,0,0,0,0,-1,1532,1793,0,0
315,-769,0,0,0,0,0,0,0,0,0,-1,1539,1793,0,0
322,-769,0,0,0,0,0,0,0,0,0,-1,1546,1793,0,0
329,-769,0,0,0,0,0,0,0,0,0,-1,1553,1793,0,0
336,-769,0,0,0,0,0,0,0,0,0,-1,1560,1793,0,0
343,-769,0,0,0,0,0,0,0,0,0,-1,1567,1793,0,0
350,-769,0,0,0,0,0,0,0,0,0,-1,1574,1793,0,0
357,-769,0,0,0,0,0,0,0,0,0,-1,1581,1793,0,0
364,-769,0,0,0,0,0,0,0,0,0,-1,1588,1793,0,0
371,-769,0,0,0,0,0,0,0,0,0,-1,1595,1793,0,0
378,-769,0,0,0,0,0,0,0,0,0,-1,1602,1793,0,0
385,-769,0,0,0,0,0,0,0,0,0,-1,1609,1793,0,0
392,-769,0,0,0,0,0,0,0,0,0,-1,1616,1793,0,0
399,-769,0,0,0,0,0,0,0,0,0,-1,1623,1793,0,0
406,-769,0,0,0,0,0,0,0,0,0,-1,1630,1793,0,0
413,-769,0,0,0,0,0,0,0,0,0,-1,1637,1793,0,0
420,-769,0,0,0,0,0,0,0,0,0,-1,1644,1793,0,0
427,-769,0,0,0,0,0,0,0,0,0,-1,1651,1793,0,0
434,-769,0,0,0,0,0,0,0,0,0,-1,1658,1793,0,0
441,-769,0,0,0,0,0,0,0,0,0,-1,1665,1793,0,0
448,-769,0,0,0,0,0,0,0,0,0,-1,1672,1793,0,0
455,-769,0,0,0,0,0,0,0,0,0,-1,1679,1793,0,0
462,-769,0,0,0,0,0,0,0,0,0,-1,1686,1793,0,0
469,-769,0,0,0,0,0,0,0,0,0,-1,1693,1793,0,0
476,-769,0,0,0,0,0,0,0,0,0,-1,1700,1793,0,0
483,-769,0,0,0,0,0,0,0,0,0,-1,1707,1793,0,0
490,-769,0,0,0,0,0,0,0,0,0,-1,1714,1793,0,0
497,-769,0,0,0,0,0,0,0,0,0,-1,1721,1793,0,0
504,-769,0,0,0,0,0,0,0,0,0,-1,1728,1793,0,0
511,-769,0,0,0,0,0,0,0,0,0,-1,1735,1793,0,0
518,-769,0,0,0,0,0,0,0,0,0,-1,1742,1793,0,0
525,-769,0,0,0,0,0,0,0,0,0,-1,1749,1793,0,0
532,-769,0,0,0,0,0,0,0,0,0,-1,1756,1793,0,0
539,-769,0,0,0,0,0,0,0,0,0,-1,1763,1793,0,0
546,-769,0,0,0,0,0,0,0,0,0,-1,1770,1793,0,0
553,-769,0,0,0,0,0,0,0,0,0,-1,1777,1793,0,0
560,-769,0,0,0,0,0,0,0,0,0,-1,1784,1793,0,0
567,-769,0,0,0,0,0,0,0,0,0,-1,1791,1793,0,0
574,-769,0,0,0,0,0,0,0,0,0,-1,1798,1793,0,0
581,-769,0,0,0,0,0,0,0,0,0,-1,1805,1793,0,0
588,-769,0,0,0,0,0,0,0,0,0,-1,1812,1793,0,0
595,-769,0,0,0,0,0,0,0,0,0,-1,1819,1793,0,0
602,-769,0,0,0,0,0,0,0,0,0,-1,1826,1793,0,0
609,-769,0,0,0,0,0,0,0,0,0,-1,1833,1793,0,0
616,-769,0,0,0,0,0,0,0,0,0,-1,1840,1793,0,0
623,-769,0,0,0,0,0,0,0,0,0,-1,1847,1793,0,0
630,-769,0,0,0,0,0,0,0,0,0,-1,1854,1793,0,0
637,-769,0,0,0,0,0,0,0,0,0,-1,1861,1793,0,0
644,-769,0,0,0,0,0,0,0,0,0,-1,1868,1793,0,0
651,-769,0,0,0,0,0,0,0,0,0,-1,1875,1793,0,0
658,-769,0,0,0,0,0,0,0,0,0,-1,1882,1793,0,0
665,-769,0,0,0,0,0,0,0,0,0,-1,1889,1793,0,0
672,-769,0,0,0,0,0,0,0,0,0,-1,1896,1793,0,0
679,-769,0,0,0,0,0,0,0,0,0,-1,1903,1793,0,0
686,-769,0,0,0,0,0,0,0,0,0,-1,1910,1793,0,0
693,-769,0,0,0,0,0,0,0,0,0,-1,1917,1793,0,0
700,-769,0,0,0,0,0,0,0,0,0,-1,1924,1793,0,0
707,-769,0,0,0,0,0,0,0,0,0,-1,1931,1793,0,0
714,-769,0,0,0,0,0,0,0,0,0,-1,1938,1793,0,0
721,-769,0,0,0,0,0,0,0,0,0,-1,1945,1793,0,0
728,-769,0,0,0,0,0,0,0,0,0,-1,1952,1793,0,0
735,-769,0,0,0,0,0,0,0,0,0,-1,1959,1793,0,0
742,-769,0,0,0,0,0,0,0,0,0,-1,1966,1793,0,0
749,-769,0,0,0,0,0,0,0,0,0,-1,1973,1793,0,0
756,-769,0,0,0,0,0,0,0,0,0,-1,1980,1793,0,0
763,-769,0,0,0,0,0,0,0,0,0,-1,1987,1793,0,0
770,-769,0,0,0,0,0,0,0,0,0,-1,1994,1793,0,0
777,-769,0,0,0,0,0,0,0,0,0,-1,2001,1793,0,0
784,-769,0,0,0,0,0,0,0,0,0,-1,2008,1793,0,0
791,-769,0,0,0,0,0,0,0,0,0,-1,2015,1793,0,0
798,-769,0,0,0,0,0,0,0,0,0,-1,2022,1793,0,0
805,-769,0,0,0,0,0,0,0,0,0,-1,2029,1793,0,0
812,-769,0,0,0,0,0,0,0,0,0,-1,2036,1793,0,0
-700,-776,0,0,0,0,0,0,0,0,0,-1,524,1800,0,0
-693,-776,0,0,0,0,0,0,0,0,0,-1,531,1800,0,0
-686,-776,0,0,0,0,0,0,0,0,0,-1,538,1800,0,0
-679,-776,0,0,0,0,0,0,0,0,0,-1,545,1800,0,0
-672,-776,0,0,0,0,0,0,0,0,0,-1,552,1800,0,0
-665,-776,0,0,0,0,0,0,0,0,0,-1,559,1800,0,0
-658,-776,0,0,0,0,0,0,0,0,0,-1,566,1800,0,0
-651,-776,0,0,0,0,0,0,0,0,0,-1,573,1800,0,0
-644,-776,0,0,0,0,0,0,0,0,0,-1,580,1800,0,0
-637,-776,0,0,0,0,0,0,0,0,0,-1,587,1800,0,0
-630,-776,0,0,0,0,0,0,0,0,0,-1,594,1800,0,0
-623,-776,0,0,0,0,0,0,0,0,0,-1,601,1800,0,0
-616,-776,0,0,0,0,0,0,0,0,0,-1,608,1800,0,0
-609,-776,0,0,0,0,0,0,0,0,0,-1,615,1800,0,0
-602,-776,0,0,0,0,0,0,0,0,0,-1,622,1800,0,0
-595,-776,0,0,0,0,0,0,0,0,0,-1,629,1800,0,0
-588,-776,0,0,0,0,0,0,0,0,0,-1,636,1800,0,0
-581,-776,0,0,0,0,0,0,0,0,0,-1,643,1800,0,0
-574,-776,0,0,0,0,0,0,0,0,0,-1,650,1800,0,0
-567,-776,0,0,0,0,0,0,0,0,0,-1,657,1800,0,0
-560,-776,0,0,0,0,0,0,0,0,0,-1,664,1800,0,0
-553,-776,0,0,0,0,0,0,0,0,0,-1,671,1800,0,0
-546,-776,0,0,0,0,0,0,0,0,0,-1,678,1800,0,0
-539,-776,0,0,0,0,0,0,0,0,0,-1,685,1800,0,0
-532,-776,0,0,0,0,0,0,0,0,0,-1,692,1800,0,0
-525,-776,0,0,0,0,0,0,0,0,0,-1,699,1800,0,0
-518,-776,0,0,0,0,0,0,0,0,0,-1,706,1800,0,0
-511,-776,0,0,0,0,0,0,0,0,0,-1,713,1800,0,0
-504,-776,0,0,0,0,0,0,0,0,0,-1,720,1800,0,0
-497,-776,0,0,0,0,0,0,0,0,0,-1,727,1800,0,0
-490,-776,0,0,0,0,0,0,0,0,0,-1,734,1800,0,0
-483,-776,0,0,0,0,0,0,0,0,0,-1,741,1800,0,0
-476,-776,0,0,0,0,0,0,0,0,0,-1,748,1800,0,0
-469,-776,0,0,0,0,0,0,0,0,0,-1,755,1800,0,0
-462,-776,0,0,0,0,0,0,0,0,0,-1,762,1800,0,0
-455,-776,0,0,0,0,0,0,0,0,0,-1,769,1800,0,0
-448,-776,0,0,0,0,0,0,0,0,0,-1,776,1800,0,0
-441,-776,0,0,0,0,0,0,0,0,0,-1,783,1800,0,0
-434,-776,0,0,0,0,0,0,0,0,0,-1,790,1800,0,0
-427,-776,0,0,0,0,0,0,0,0,0,-1,797,1800,0,0
-420,-776,0,0,0,0,0,0,0,0,0,-1,804,1800,0,0
-413,-776,0,0,0,0,0,0,0,0,0,-1,811,1800,0,0
-406,-776,0,0,0,0,0,0,0,0,0,-1,818,1800,0,0
-399,-776,0,0,0,0,0,0,0,0,0,-1,825,1800,0,0
-392,-776,0,0,0,0,0,0,0,0,0,-1,832,1800,0,0
-385,-776,0,0,0,0,0,0,0,0,0,-1,839,1800,0,0
-378,-776,0,0,0,0,0,0,0,0,0,-1,846,1800,0,0
-371,-776,0,0,0,0,0,0,0,0,0,-1,853,1800,0,0
-364,-776,0,0,0,0,0,0,0,0,0,-1,860,1800,0,0
-357,-776,0,0,0,0,0,0,0,0,0,-1,867,1800,0,0
-350,-776,0,0,0,0,0,0,0,0,0,-1,874,1800,0,0
-343,-776,0,0,0,0,0,0,0,0,0,-1,881,1800,0,0
-336,-776,0,0,0,0,0,0,0,0,0,-1,888,1800,0,0
-329,-776,0,0,0,0,0,0,0,0,0,-1,895,1800,0,0
-322,-776,0,0,0,0,0,0,0,0,0,-1,902,1800,0,0
-315,-776,0,0,0,0,0,0,0,0,0,-1,909,1800,0,0
-308,-776,0,0,0,0,0,0,0,0,0,-1,916,1800,0,0
-301,-776,0,0,0,0,0,0,0,0,0,-1,923,1800,0,0
-294,-776,0,0,0,0,0,0,0,0,0,-1,930,1800,0,0
-287,-776,0,0,0,0,0,0,0,0,0,-1,937,1800,0,0
-280,-776,0,0,0,0,0,0,0,0,0,-1,944,1800,0,0
-273,-776,0,0,0,0,0,0,0,0,0,-1,951,1800,0,0
-266,-776,0,0,0,0,0,0,0,0,0,-1,958,1800,0,0
-259,-776,0,0,0,0,0,0,0,0,0,-1,965,1800,0,0
-252,-776,0,0,0,0,0,0,0,0,0,-1,972,1800,0,0
-245,-776,0,0,0,0,0,0,0,0,0,-1,979,1800,0,0
-238,-776,0,0,0,0,0,0,0,0,0,-1,986,1800,0,0
-231,-776,0,0,0,0,0,0,0,0,0,-1,993,1800,0,0
-224,-776,0,0,0,0,0,0,0,0,0,-1,1000,1800,0,0
-217,-776,0,0,0,0,0,0,0,0,0,-1,1007,1800,0,0
-210,-776,0,0,0,0,0,0,0,0,0,-1,1014,1800,0,0
-203,-776,0,0,0,0,0,0,0,0,0,-1,1021,1800,0,0
-196,-776,0,0,0,0,0,0,0,0,0,-1,1028,1800,0,0
-189,-776,0,0,0,0,0,0,0,0,0,-1,1035,1800,0,0
-182,-776,0,0,0,0,0,0,0,0,0,-1,1042,1800,0,0
-175,-776,0,0,0,0,0,0,0,0,0,-1,1049,1800,0,0
-168,-776,0,0,0,0,0,0,0,0,0,-1,1056,1800,0,0
-161,-776,0,0,0,0,0,0,0,0,0,-1,1063,1800,0,0
-154,-776,0,0,0,0,0,0,0,0,0,-1,1070,1800,0,0
-147,-776,0,0,0,0,0,0,0,0,0,-1,1077,1800,0,0
-140,-776,2.98499,5.20911,0,0,0,0,0,0,0,-1,1084,1800,2.98493,-5.2091
-133,-776,6.72363,9.35828,0,0,0,0,0,0,0,-1,1091,1800,6.72358,-9.35824
-126,-776,4.9613,13.2006,0,0,0,0,0,0,0,-1,1098,1800,4.96128,-13.2005
-119,-776,4.56226,13.1111,0,0,0,0,0,0,0,-1,1105,1800,4.56223,-13.111
-112,-776,4.21924,12.8807,0,0,0,0,0,0,0,-1,1112,1800,4.21927,-12.8807
-105,-776,4.21753,13.0876,0,0,0,0,0,0,0,-1,1119,1800,4.21753,-13.0877
-98,-776,3.59863,13.1719,0,0,0,0,0,0,0,-1,1126,1800,3.59867,-13.1718
-91,-776,0.946411,13.2373,0,0,0,0,0,0,0,-1,1133,1800,0.946353,-13.2373
-84,-776,0.643555,12.5964,0,0,0,0,0,0,0,-1,1140,1800,0.643591,-12.5964
-77,-776,0.5448,11.2938,0,0,0,0,0,0,0,-1,1147,1800,0.544827,-11.2939
-70,-776,-2.7771,5.02222,0,0,0,0,0,0,0,-1,1154,1800,-2.77711,-5.02221
-63,-776,-0.453613,6.84619,0,0,0,0,0,0,0,-1,1161,1800,-0.453608,-6.84617
-56,-776,-2.95715,5.41614,0,0,0,0,0,0,0,-1,1168,1800,-2.95718,-5.4161
-49,-776,-2.81018,4.39587,0,0,0,0,0,0,0,-1,1175,1800,-2.8102,-4.39592
-42,-776,-3.41272,3.0249,0,0,0,0,0,0,0,-1,1182,1800,-3.41269,-3.02488
-35,-776,-3.71753,1.63635,0,0,0,0,0,0,0,-1,1189,1800,-3.71755,-1.63631
-28,-776,-4.03979,0.716064,0,0,0,0,0,0,0,-1,1196,1800,-4.03977,-0.716055
-21,-776,3.37305,11.3751,0,0,0,0,0,0,0,-1,1203,1800,3.37306,-11.3751
-14,-776,6.12109,14.5323,0,0,0,0,0,0,0,-1,1210,1800,6.12111,-14.5323
-7,-776,5.66699,14.4318,0,0,0,0,0,0,0,-1,1217,1800,5.66701,-14.4317
0,-776,5.10791,14.3243,0,0,0,0,0,0,0,-1,1224,1800,5.10795,-14.3243
7,-776,4.44873,13.2046,0,0,0,0,0,0,0,-1,1231,1800,4.44877,-13.2046
14,-776,3.55127,13.9252,0.000593845,0.0208007,0.00788737,0.0235148,-0.00212029,1.23938,0.016429,0.0427881,1238,1800,3.55121,-13.9252
21,-776,3.72937,13.7771,0.00664737,0.0212873,0.00964662,0.0260768,0.00185787,1.10996,0.0167995,0.0428171,1245,1800,3.72941,-13.7771
28,-776,3.98157,13.5187,0.0121232,0.0222234,0.0113668,0.0296114,0.00473516,0.994443,0.0183672,0.0450662,1252,1800,3.98155,-13.5187
35,-776,4.21301,13.4088,0,0,0,0,0,0,0,-1,1259,1800,4.21299,-13.4089
42,-776,4.24194,13.5605,0.0208553,0.0249301,0.0137642,0.036807,0.00897852,0.858876,0.02216,0.0441719,1266,1800,4.24195,-13.5605
49,-776,4.45605,13.9034,0.0240667,0.0262943,0.0141403,0.0393646,0.0109964,0.824701,0.0234532,0.0445106,1273,1800,4.4561,-13.9034
56,-776,4.58728,14.0081,0.0271312,0.0274224,0.0139037,0.0411812,0.0133724,0.790634,0.0242581,0.0461306,1280,1800,4.58734,-14.008
63,-776,4.34753,12.998,0.0290331,0.0274603,0.0132684,0.0415384,0.014955,0.755798,0.0242934,0.0498672,1287,1800,4.34752,-12.9981
70,-776,4.14514,13.2821,0,0,0,0,0,0,0,-1,1294,1800,4.14517,-13.2821
77,-776,4.01453,13.3828,0,0,0,0,0,0,0,-1,1301,1800,4.01447,-13.3829
84,-776,4.37439,13.4594,0.0219748,0.0284404,0.00437172,0.0306448,0.0197704,1.10377,0.0179396,0.0463396,1308,1800,4.37443,-13.4593
91,-776,4.5835,13.3977,0.0172677,0.0278664,0.000165929,0.027869,0.0172651,1.55515,0.0162427,0.0447189,1315,1800,4.58346,-13.3977
98,-776,5.02124,13.0979,0.0119665,0.0270258,-0.00432247,0.0281783,0.010814,-1.31023,0.0164146,0.0470041,1322,1800,5.02122,-13.0979
105,-776,5.38989,13.0358,0.00565343,0.0259198,-0.00931047,0.0295477,0.00202557,-1.19924,0.0190592,0.0482835,1329,1800,5.38985,-13.0358
112,-776,5.72192,13.098,0,0,0,0,0,0,0,-1,1336,1800,5.72192,-13.098
119,-776,4.57776,13.6714,-0.00938543,0.0253728,-0.0182341,0.0331832,-0.0171959,-1.1661,0.0295706,0.0472651,1343,1800,4.57779,-13.6713
126,-776,4.3551,13.1473,-0.017146,0.0254782,-0.0223491,0.0350479,-0.0267158,-1.16622,0.0357673,0.0460328,1350,1800,4.35504,-13.1474
133,-776,4.21753,12.6605,0,0,0,0,0,0,0,-1,1357,1800,4.21756,-12.6606
140,-776,4.39331,10.0631,0,0,0,0,0,0,0,-1,1364,1800,4.39332,-10.0631
147,-776,6.46301,-0.617188,0,0,0,0,0,0,0,-1,1371,1800,6.46305,0.61724
154,-776,6.43774,0.344116,0,0,0,0,0,0,0,-1,1378,1800,6.43776,-0.344162
161,-776,6.50293,1.1731,0,0,0,0,0,0,0,-1,1385,1800,6.5029,-1.17313
168,-776,8.44971,1.22913,0,0,0,0,0,0,0,-1,1392,1800,8.44974,-1.22915
175,-776,8.61523,2.87061,0,0,0,0,0,0,0,-1,1399,1800,8.6152,-2.87063
182,-776,8.54065,4.60645,0,0,0,0,0,0,0,-1,1406,1800,8.5407,-4.60643
189,-776,8.35303,6.28223,0,0,0,0,0,0,0,-1,1413,1800,8.35297,-6.28225
196,-776,8.0387,8.21704,0,0,0,0,0,0,0,-1,1420,1800,8.03865,-8.217
203,-776,7.91736,9.79919,0,0,0,0,0,0,0,-1,1427,1800,7.91735,-9.79922
210,-776,5.03577,10.4949,0,0,0,0,0,0,0,-1,1434,1800,5.03574,-10.4948
217,-776,1.48315,8.46082,0,0,0,0,0,0,0,-1,1441,1800,1.48314,-8.46081
224,-776,3.09253,14.9313,0,0,0,0,0,0,0,-1,1448,1800,3.09254,-14.9313
231,-776,14.7521,7.10779,0,0,0,0,0,0,0,-1,1455,1800,14.7521,-7.10776
238,-776,14.3297,7.43896,0,0,0,0,0,0,0,-1,1462,1800,14.3298,-7.43896
245,-776,14.3101,7.75525,0,0,0,0,0,0,0,-1,1469,1800,14.3101,-7.75528
252,-776,14.1051,8.22339,0,0,0,0,0,0,0,-1,1476,1800,14.1052,-8.22336
259,-776,14.1882,7.69055,0,0,0,0,0,0,0,-1,1483,1800,14.1882,-7.69061
266,-776,0,0,0,0,0,0,0,0,0,-1,1490,1800,0,0
273,-776,0,0,0,0,0,0,0,0,0,-1,1497,1800,0,0
280,-776,0,0,0,0,0,0,0,0,0,-1,1504,1800,0,0
287,-776,0,0,0,0,0,0,0,0,0,-1,1511,1800,0,0
294,-776,0,0,0,0,0,0,0,0,0,-1,1518,1800,0,0
301,-776,0,0,0,0,0,0,0,0,0,-1,1525,1800,0,0
308,-776,0,0,0,0,0,0,0,0,0,-1,1532,1800,0,0
315,-776,0,0,0,0,0,0,0,0,0,-1,1539,1800,0,0
322,-776,0,0,0,0,0,0,0,0,0,-1,1546,1800,0,0
329,-776,0,0,0,0,0,0,0,0,0,-1,1553,1800,0,0
336,-776,0,0,0,0,0,0,0,0,0,-1,1560,1800,0,0
343,-776,0,0,0,0,0,0,0,0,0,-1,1567,1800,0,0
350,-776,0,0,0,0,0,0,0,0,0,-1,1574,1800,0,0
357,-776,0,0,0,0,0,0,0,0,0,-1,1581,1800,0,0
364,-776,0,0,0,0,0,0,0,0,0,-1,1588,1800,0,0
371,-776,0,0,0,0,0,0,0,0,0,-1,1595,1800,0,0
378,-776,0,0,0,0,0,0,0,0,0,-1,1602,1800,0,0
385,-776,0,0,0,0,0,0,0,0,0,-1,1609,1800,0,0
392,-776,0,0,0,0,0,0,0,0,0,-1,1616,1800,0,0
399,-776,0,0,0,0,0,0,0,0,0,-1,1623,1800,0,0
406,-776,0,0,0,0,0,0,0,0,0,-1,1630,1800,0,0
413,-776,0,0,0,0,0,0,0,0,0,-1,1637,1800,0,0
420,-776,0,0,0,0,0,0,0,0,0,-1,1644,1800,0,0
427,-776,0,0,0,0,0,0,0,0,0,-1,1651,1800,0,0
434,-776,0,0,0,0,0,0,0,0,0,-1,1658,1800,0,0
441,-776,0,0,0,0,0,0,0,0,0,-1,1665,1800,0,0
448,-776,0,0,0,0,0,0,0,0,0,-1,1672,1800,0,0
455,-776,0,0,0,0,0,0,0,0,0,-1,1679,1800,0,0
462,-776,0,0,0,0,0,0,0,0,0,-1,1686,1800,0,0
469,-776,0,0,0,0,0,0,0,0,0,-1,1693,1800,0,0
476,-776,0,0,0,0,0,0,0,0,0,-1,1700,1800,0,0
483,-776,0,0,0,0,0,0,0,0,0,-1,1707,1800,0,0
490,-776,0,0,0,0,0,0,0,0,0,-1,1714,1800,0,0
497,-776,0,0,0,0,0,0,0,0,0,-1,1721,1800,0,0
504,-776,0,0,0,0,0,0,0,0,0,-1,1728,1800,0,0
511,-776,0,0,0,0,0,0,0,0,0,-1,1735,1800,0,0
518,-776,0,0,0,0,0,0,0,0,0,-1,1742,1800,0,0
525,-776,0,0,0,0,0,0,0,0,0,-1,1749,1800,0,0
532,-776,0,0,0,0,0,0,0,0,0,-1,1756,1800,0,0
539,-776,0,0,0,0,0,0,0,0,0,-1,1763,1800,0,0
546,-776,0,0,0,0,0,0,0,0,0,-1,1770,1800,0,0
553,-776,0,0,0,0,0,0,0,0,0,-1,1777,1800,0,0
560,-776,0,0,0,0,0,0,0,0,0,-1,1784,1800,0,0
567,-776,0,0,0,0,0,0,0,0,0,-1,1791,1800,0,0
574,-776,0,0,0,0,0,0,0,0,0,-1,1798,1800,0,0
581,-776,0,0,0,0,0,0,0,0,0,-1,1805,1800,0,0
588,-776,0,0,0,0,0,0,0,0,0,-1,1812,1800,0,0
595,-776,0,0,0,0,0,0,0,0,0,-1,1819,1800,0,0
602,-776,0,0,0,0,0,0,0,0,0,-1,1826,1800,0,0
609,-776,0,0,0,0,0,0,0,0,0,-1,1833,1800,0,0
616,-776,0,0,0,0,0,0,0,0,0,-1,1840,1800,0,0
623,-776,0,0,0,0,0,0,0,0,0,-1,1847,1800,0,0
630,-776,0,0,0,0,0,0,0,0,0,-1,1854,1800,0,0
637,-776,0,0,0,0,0,0,0,0,0,-1,1861,1800,0,0
644,-776,0,0,0,0,0,0,0,0,0,-1,1868,1800,0,0
651,-776,0,0,0,0,0,0,0,0,0,-1,1875,1800,0,0
658,-776,0,0,0,0,0,0,0,0,0,-1,1882,1800,0,0
665,-776,0,0,0,0,0,0,0,0,0,-1,1889,1800,0,0
672,-776,0,0,0,0,0,0,0,0,0,-1,1896,1800,0,0
679,-776,0,0,0,0,0,0,0,0,0,-1,1903,1800,0,0
686,-776,0,0,0,0,0,0,0,0,0,-1,1910,1800,0,0
693,-776,0,0,0,0,0,0,0,0,0,-1,1917,1800,0,0
700,-776,0,0,0,0,0,0,0,0,0,-1,1924,1800,0,0
707,-776,0,0,0,0,0,0,0,0,0,-1,1931,1800,0,0
714,-776,0,0,0,0,0,0,0,0,0,-1,1938,1800,0,0
721,-776,0,0,0,0,0,0,0,0,0,-1,1945,1800,0,0
728,-776,0,0,0,0,0,0,0,0,0,-1,1952,1800,0,0
735,-776,0,0,0,0,0,0,0,0,0,-1,1959,1800,0,0
742,-776,0,0,0,0,0,0,0,0,0,-1,1966,1800,0,0
749,-776,0,0,0,0,0,0,0,0,0,-1,1973,1800,0,0
756,-776,0,0,0,0,0,0,0,0,0,-1,1980,1800,0,0
763,-776,0,0,0,0,0,0,0,0,0,-1,1987,1800,0,0
770,-776,0,0,0,0,0,0,0,0,0,-1,1994,1800,0,0
777,-776,0,0,0,0,0,0,0,0,0,-1,2001,1800,0,0
784,-776,0,0,0,0,0,0,0,0,0,-1,2008,1800,0,0
791,-776,0,0,0,0,0,0,0,0,0,-1,2015,1800,0,0
798,-776,0,0,0,0,0,0,0,0,0,-1,2022,1800,0,0
805,-776,0,0,0,0,0,0,0,0,0,-1,2029,1800,0,0
812,-776,0,0,0,0,0,0,0,0,0,-1,2036,1800,0,0
-700,-783,0,0,0,0,0,0,0,0,0,-1,524,1807,0,0
-693,-783,0,0,0,0,0,0,0,0,0,-1,531,1807,0,0
-686,-783,0,0,0,0,0,0,0,0,0,-1,538,1807,0,0
-679,-783,0,0,0,0,0,0,0,0,0,-1,545,1807,0,0
-672,-783,0,0,0,0,0,0,0,0,0,-1,552,1807,0,0
-665,-783,0,0,0,0,0,0,0,0,0,-1,559,1807,0,0
-658,-783,0,0,0,0,0,0,0,0,0,-1,566,1807,0,0
-651,-783,0,0,0,0,0,0,0,0,0,-1,573,1807,0,0
-644,-783,0,0,0,0,0,0,0,0,0,-1,580,1807,0,0
-637,-783,0,0,0,0,0,0,0,0,0,-1,587,1807,0,0
-630,-783,0,0,0,0,0,0,0,0,0,-1,594,1807,0,0
-623,-783,0,0,0,0,0,0,0,0,0,-1,601,1807,0,0
-616,-783,0,0,0,0,0,0,0,0,0,-1,608,1807,0,0
-609,-783,0,0,0,0,0,0,0,0,0,-1,615,1807,0,0
-602,-783,0,0,0,0,0,0,0,0,0,-1,622,1807,0,0
-595,-783,0,0,0,0,0,0,0,0,0,-1,629,1807,0,0
-588,-783,0,0,0,0,0,0,0,0,0,-1,636,1807,0,0
-581,-783,0,0,0,0,0,0,0,0,0,-1,643,1807,0,0
-574,-783,0,0,0,0,0,0,0,0,0,-1,650,1807,0,0
-567,-783,0,0,0,0,0,0,0,0,0,-1,657,1807,0,0
-560,-783,0,0,0,0,0,0,0,0,0,-1,664,1807,0,0
-553,-783,0,0,0,0,0,0,0,0,0,-1,671,1807,0,0
-546,-783,0,0,0,0,0,0,0,0,0,-1,678,1807,0,0
-539,-783,0,0,0,0,0,0,0,0,0,-1,685,1807,0,0
-532,-783,0,0,0,0,0,0,0,0,0,-1,692,1807,0,0
-525,-783,0,0,0,0,0,0,0,0,0,-1,699,1807,0,0
-518,-783,0,0,0,0,0,0,0,0,0,-1,706,1807,0,0
-511,-783,0,0,0,0,0,0,0,0,0,-1,713,1807,0,0
-504,-783,0,0,0,0,0,0,0,0,0,-1,720,1807,0,0
-497,-783,0,0,0,0,0,0,0,0,0,-1,727,1807,0,0
-490,-783,0,0,0,0,0,0,0,0,0,-1,734,1807,0,0
-483,-783,0,0,0,0,0,0,0,0,0,-1,741,1807,0,0
-476,-783,0,0,0,0,0,0,0,0,0,-1,748,1807,0,0
-469,-783,0,0,0,0,0,0,0,0,0,-1,755,1807,0,0
-462,-783,0,0,0,0,0,0,0,0,0,-1,762,1807,0,0
-455,-783,0,0,0,0,0,0,0,0,0,-1,769,1807,0,0
-448,-783,0,0,0,0,0,0,0,0,0,-1,776,1807,0,0
-441,-783,0,0,0,0,0,0,0,0,0,-1,783,1807,0,0
-434,-783,0,0,0,0,0,0,0,0,0,-1,790,1807,0,0
-427,-783,0,0,0,0,0,0,0,0,0,-1,797,1807,0,0
-420,-783,0,0,0,0,0,0,0,0,0,-1,804,1807,0,0
-413,-783,0,0,0,0,0,0,0,0,0,-1,811,1807,0,0
-406,-783,0,0,0,0,0,0,0,0,0,-1,818,1807,0,0
-399,-783,0,0,0,0,0,0,0,0,0,-1,825,1807,0,0
-392,-783,0,0,0,0,0,0,0,0,0,-1,832,1807,0,0
-385,-783,0,0,0,0,0,0,0,0,0,-1,839,1807,0,0
-378,-783,0,0,0,0,0,0,0,0,0,-1,846,1807,0,0
-371,-783,0,0,0,0,0,0,0,0,0,-1,853,1807,0,0
-364,-783,0,0,0,0,0,0,0,0,0,-1,860,1807,0,0
-357,-783,0,0,0,0,0,0,0,0,0,-1,867,1807,0,0
-350,-783,0,0,0,0,0,0,0,0,0,-1,874,1807,0,0
-343,-783,0,0,0,0,0,0,0,0,0,-1,881,1807,0,0
-336,-783,0,0,0,0,0,0,0,0,0,-1,888,1807,0,0
-329,-783,0,0,0,0,0,0,0,0,0,-1,895,1807,0,0
-322,-783,0,0,0,0,0,0,0,0,0,-1,902,1807,0,0
-315,-783,0,0,0,0,0,0,0,0,0,-1,909,1807,0,0
-308,-783,0,0,0,0,0,0,0,0,0,-1,916,1807,0,0
-301,-783,0,0,0,0,0,0,0,0,0,-1,923,1807,0,0
-294,-783,0,0,0,0,0,0,0,0,0,-1,930,1807,0,0
-287,-783,0,0,0,0,0,0,0,0,0,-1,937,1807,0,0
-280,-783,0,0,0,0,0,0,0,0,0,-1,944,1807,0,0
-273,-783,0,0,0,0,0,0,0,0,0,-1,951,1807,0,0
-266,-783,0,0,0,0,0,0,0,0,0,-1,958,1807,0,0
-259,-783,0,0,0,0,0,0,0,0,0,-1,965,1807,0,0
-252,-783,0,0,0,0,0,0,0,0,0,-1,972,1807,0,0
-245,-783,0,0,0,0,0,0,0,0,0,-1,979,1807,0,0
-238,-783,0,0,0,0,0,0,0,0,0,-1,986,1807,0,0
-231,-783,0,0,0,0,0,0,0,0,0,-1,993,1807,0,0
-224,-783,0,0,0,0,0,0,0,0,0,-1,1000,1807,0,0
-217,-783,0,0,0,0,0,0,0,0,0,-1,1007,1807,0,0
-210,-783,0,0,0,0,0,0,0,0,0,-1,1014,1807,0,0
-203,-783,0,0,0,0,0,0,0,0,0,-1,1021,1807,0,0
-196,-783,0,0,0,0,0,0,0,0,0,-1,1028,1807,0,0
-189,-783,0,0,0,0,0,0,0,0,0,-1,1035,1807,0,0
-182,-783,0,0,0,0,0,0,0,0,0,-1,1042,1807,0,0
-175,-783,0,0,0,0,0,0,0,0,0,-1,1049,1807,0,0
-168,-783,0,0,0,0,0,0,0,0,0,-1,1056,1807,0,0
-161,-783,0,0,0,0,0,0,0,0,0,-1,1063,1807,0,0
-154,-783,0,0,0,0,0,0,0,0,0,-1,1070,1807,0,0
-147,-783,0,0,0,0,0,0,0,0,0,-1,1077,1807,0,0
-140,-783,0,0,0,0,0,0,0,0,0,-1,1084,1807,0,0
-133,-783,0,0,0,0,0,0,0,0,0,-1,1091,1807,0,0
-126,-783,0,0,0,0,0,0,0,0,0,-1,1098,1807,0,0
-119,-783,0,0,0,0,0,0,0,0,0,-1,1105,1807,0,0
-112,-783,5.35229,15.2482,0,0,0,0,0,0,0,-1,1112,1807,5.35229,-15.2482
-105,-783,4.41919,14.488,0,0,0,0,0,0,0,-1,1119,1807,4.41917,-14.4881
-98,-783,3.11047,14.0786,0,0,0,0,0,0,0,-1,1126,1807,3.11046,-14.0786
-91,-783,1.01868,14.7838,0,0,0,0,0,0,0,-1,1133,1807,1.01872,-14.7838
-84,-783,0.684692,13.7784,0,0,0,0,0,0,0,-1,1140,1807,0.684752,-13.7784
-77,-783,0.332764,12.7788,0,0,0,0,0,0,0,-1,1147,1807,0.332743,-12.7788
-70,-783,-1.93176,5.12817,0,0,0,0,0,0,0,-1,1154,1807,-1.93171,-5.12813
-63,-783,-2.46729,4.38416,0,0,0,0,0,0,0,-1,1161,1807,-2.46723,-4.38411
-56,-783,-2.11902,6.73853,0,0,0,0,0,0,0,-1,1168,1807,-2.11904,-6.73854
-49,-783,-3.17688,4.59705,0,0,0,0,0,0,0,-1,1175,1807,-3.17685,-4.5971
-42,-783,-3.72876,3.1405,0,0,0,0,0,0,0,-1,1182,1807,-3.72874,-3.14055
-35,-783,-3.97046,1.59399,0,0,0,0,0,0,0,-1,1189,1807,-3.97041,-1.59401
-28,-783,-4.12195,0.270386,0,0,0,0,0,0,0,-1,1196,1807,-4.12197,-0.270408
-21,-783,3.95068,11.5028,0,0,0,0,0,0,0,-1,1203,1807,3.95063,-11.5028
-14,-783,5.90564,14.4192,0,0,0,0,0,0,0,-1,1210,1807,5.90558,-14.4192
-7,-783,5.39636,14.338,0,0,0,0,0,0,0,-1,1217,1807,5.39634,-14.338
0,-783,4.80115,14.2545,0,0,0,0,0,0,0,-1,1224,1807,4.80121,-14.2545
7,-783,4.34875,14.339,-0.00930401,0.0315272,0.00849927,0.0332257,-0.0110025,1.37355,0.026588,0.044226,1231,1807,4.34871,-14.339
14,-783,4.02612,14.0581,-0.000196607,0.0299329,0.0110369,0.0335432,-0.00380698,1.25465,0.0237332,0.0451023,1238,1807,4.02617,-14.0581
21,-783,3.59351,13.8737,0.00821857,0.0304977,0.0135209,0.0368769,0.00183942,1.12996,0.023995,0.04545,1245,1807,3.59347,-13.8736
28,-783,3.35803,12.3684,0,0,0,0,0,0,0,-1,1252,1807,3.35807,-12.3685
35,-783,3.65332,12.8986,0.0223634,0.0335631,0.0183013,0.0471021,0.00882441,0.933867,0.0289123,0.0486644,1259,1807,3.65331,-12.8985
42,-783,3.92053,13.4161,0.0276205,0.0355776,0.0198333,0.0518274,0.0113707,0.884385,0.0314541,0.0478606,1266,1807,3.92048,-13.4161
49,-783,4.60254,13.7083,0.0319126,0.0375023,0.0207723,0.0556669,0.013748,0.85227,0.033483,0.0448038,1273,1807,4.60253,-13.7082
56,-783,4.15112,15.8336,0,0,0,0,0,0,0,-1,1280,1807,4.15117,-15.8336
63,-783,4.42053,12.9084,0,0,0,0,0,0,0,-1,1287,1807,4.42051,-12.9084
70,-783,4.83582,17.7717,0,0,0,0,0,0,0,-1,1294,1807,4.83579,-17.7718
77,-783,4.05029,13.5049,0,0,0,0,0,0,0,-1,1301,1807,4.05023,-13.5049
84,-783,4.52185,13.3452,0.0288549,0.0400169,0.0100756,0.0459539,0.0229179,1.03832,0.0265315,0.0469806,1308,1807,4.52181,-13.3452
91,-783,4.79614,13.3934,0.0226359,0.0393202,0.00490701,0.0406564,0.0212997,1.30494,0.0234819,0.0457683,1315,1807,4.79619,-13.3935
98,-783,4.89868,13.4055,0.0155999,0.0381821,-0.000791199,0.0382098,0.0155722,-1.53582,0.0221858,0.0478013,1322,1807,4.89871,-13.4055
105,-783,5.42786,13.3046,0.00712052,0.0365733,-0.00751701,0.0383808,0.00531294,-1.33481,0.024013,0.0490283,1329,1807,5.42789,-13.3045
112,-783,6.41736,13.5837,-0.00295456,0.0356788,-0.0141581,0.0403118,-0.00758756,-1.25455,0.0297282,0.0449319,1336,1807,6.41732,-13.5837
119,-783,7.22925,13.6541,-0.0135248,0.0359476,-0.0202197,0.0431601,-0.0207372,-1.22816,0.0376406,0.0429023,1343,1807,7.2293,-13.6541
126,-783,4.4967,12.8337,-0.0242661,0.0363342,-0.0260867,0.0460167,-0.0339486,-1.21539,0.0463429,0.0458979,1350,1807,4.49667,-12.8337
133,-783,4.44226,12.344,0,0,0,0,0,0,0,-1,1357,1807,4.44229,-12.344
140,-783,5.98425,10.7552,0,0,0,0,0,0,0,-1,1364,1807,5.98426,-10.7552
147,-783,6.45825,-1.2334,0,0,0,0,0,0,0,-1,1371,1807,6.45822,1.23339
154,-783,6.37024,-0.145874,0,0,0,0,0,0,0,-1,1378,1807,6.37018,0.145866
161,-783,6.57568,1.16174,0,0,0,0,0,0,0,-1,1385,1807,6.57562,-1.1617
168,-783,8.62561,1.79944,0,0,0,0,0,0,0,-1,1392,1807,8.62561,-1.79946
175,-783,8.78699,3.40857,0,0,0,0,0,0,0,-1,1399,1807,8.78697,-3.40854
182,-783,8.70984,5.14661,0,0,0,0,0,0,0,-1,1406,1807,8.70989,-5.14666
189,-783,8.55762,6.79871,0,0,0,0,0,0,0,-1,1413,1807,8.55766,-6.79872
196,-783,8.25488,8.66626,0,0,0,0,0,0,0,-1,1420,1807,8.25492,-8.66628
203,-783,7.86755,10.5735,0,0,0,0,0,0,0,-1,1427,1807,7.8676,-10.5734
210,-783,5.6969,8.99231,0,0,0,0,0,0,0,-1,1434,1807,5.69693,-8.99234
217,-783,5.28503,3.80872,0,0,0,0,0,0,0,-1,1441,1807,5.285,-3.80868
224,-783,3.22571,6.62903,0,0,0,0,0,0,0,-1,1448,1807,3.2257,-6.62907
231,-783,4.27942,4.56262,0,0,0,0,0,0,0,-1,1455,1807,4.27948,-4.56267
238,-783,0,0,0,0,0,0,0,0,0,-1,1462,1807,0,0
245,-783,0,0,0,0,0,0,0,0,0,-1,1469,1807,0,0
252,-783,0,0,0,0,0,0,0,0,0,-1,1476,1807,0,0
259,-783,0,0,0,0,0,0,0,0,0,-1,1483,1807,0,0
266,-783,0,0,0,0,0,0,0,0,0,-1,1490,1807,0,0
273,-783,0,0,0,0,0,0,0,0,0,-1,1497,1807,0,0
280,-783,0,0,0,0,0,0,0,0,0,-1,1504,1807,0,0
287,-783,0,0,0,0,0,0,0,0,0,-1,1511,1807,0,0
294,-783,0,0,0,0,0,0,0,0,0,-1,1518,1807,0,0
301,-783,0,0,0,0,0,0,0,0,0,-1,1525,1807,0,0
308,-783,0,0,0,0,0,0,0,0,0,-1,1532,1807,0,0
315,-783,0,0,0,0,0,0,0,0,0,-1,1539,1807,0,0
322,-783,0,0,0,0,0,0,0,0,0,-1,1546,1807,0,0
329,-783,0,0,0,0,0,0,0,0,0,-1,1553,1807,0,0
336,-783,0,0,0,0,0,0,0,0,0,-1,1560,1807,0,0
343,-783,0,0,0,0,0,0,0,0,0,-1,1567,1807,0,0
350,-783,0,0,0,0,0,0,0,0,0,-1,1574,1807,0,0
357,-783,0,0,0,0,0,0,0,0,0,-1,1581,1807,0,0
364,-783,0,0,0,0,0,0,0,0,0,-1,1588,1807,0,0
371,-783,0,0,0,0,0,0,0,0,0,-1,1595,1807,0,0
378,-783,0,0,0,0,0,0,0,0,0,-1,1602,1807,0,0
385,-783,0,0,0,0,0,0,0,0,0,-1,1609,1807,0,0
392,-783,0,0,0,0,0,0,0,0,0,-1,1616,1807,0,0
399,-783,0,0,0,0,0,0,0,0,0,-1,1623,1807,0,0
406,-783,0,0,0,0,0,0,0,0,0,-1,1630,1807,0,0
413,-783,0,0,0,0,0,0,0,0,0,-1,1637,1807,0,0
420,-783,0,0,0,0,0,0,0,0,0,-1,1644,1807,0,0
427,-783,0,0,0,0,0,0,0,0,0,-1,1651,1807,0,0
434,-783,0,0,0,0,0,0,0,0,0,-1,1658,1807,0,0
441,-783,0,0,0,0,0,0,0,0,0,-1,1665,1807,0,0
448,-783,0,0,0,0,0,0,0,0,0,-1,1672,1807,0,0
455,-783,0,0,0,0,0,0,0,0,0,-1,1679,1807,0,0
462,-783,0,0,0,0,0,0,0,0,0,-1,1686,1807,0,0
469,-783,0,0,0,0,0,0,0,0,0,-1,1693,1807,0,0
476,-783,0,0,0,0,0,0,0,0,0,-1,1700,1807,0,0
483,-783,0,0,0,0,0,0,0,0,0,-1,1707,1807,0,0
490,-783,0,0,0,0,0,0,0,0,0,-1,1714,1807,0,0
497,-783,0,0,0,0,0,0,0,0,0,-1,1721,1807,0,0
504,-783,0,0,0,0,0,0,0,0,0,-1,1728,1807,0,0
511,-783,0,0,0,0,0,0,0,0,0,-1,1735,1807,0,0
518,-783,0,0,0,0,0,0,0,0,0,-1,1742,1807,0,0
525,-783,0,0,0,0,0,0,0,0,0,-1,1749,1807,0,0
532,-783,0,0,0,0,0,0,0,0,0,-1,1756,1807,0,0
539,-783,0,0,0,0,0,0,0,0,0,-1,1763,1807,0,0
546,-783,0,0,0,0,0,0,0,0,0,-1,1770,1807,0,0
553,-783,0,0,0,0,0,0,0,0,0,-1,1777,1807,0,0
560,-783,0,0,0,0,0,0,0,0,0,-1,1784,1807,0,0
567,-783,0,0,0,0,0,0,0,0,0,-1,1791,1807,0,0
574,-783,0,0,0,0,0,0,0,0,0,-1,1798,1807,0,0
581,-783,0,0,0,0,0,0,0,0,0,-1,1805,1807,0,0
588,-783,0,0,0,0,0,0,0,0,0,-1,1812,1807,0,0
595,-783,0,0,0,0,0,0,0,0,0,-1,1819,1807,0,0
602,-783,0,0,0,0,0,0,0,0,0,-1,1826,1807,0,0
609,-783,0,0,0,0,0,0,0,0,0,-1,1833,1807,0,0
616,-783,0,0,0,0,0,0,0,0,0,-1,1840,1807,0,0
623,-783,0,0,0,0,0,0,0,0,0,-1,1847,1807,0,0
630,-783,0,0,0,0,0,0,0,0,0,-1,1854,1807,0,0
637,-783,0,0,0,0,0,0,0,0,0,-1,1861,1807,0,0
644,-783,0,0,0,0,0,0,0,0,0,-1,1868,1807,0,0
651,-783,0,0,0,0,0,0,0,0,0,-1,1875,1807,0,0
658,-783,0,0,0,0,0,0,0,0,0,-1,1882,1807,0,0
665,-783,0,0,0,0,0,0,0,0,0,-1,1889,1807,0,0
672,-783,0,0,0,0,0,0,0,0,0,-1,1896,1807,0,0
679,-783,0,0,0,0,0,0,0,0,0,-1,1903,1807,0,0
686,-783,0,0,0,0,0,0,0,0,0,-1,1910,1807,0,0
693,-783,0,0,0,0,0,0,0,0,0,-1,1917,1807,0,0
700,-783,0,0,0,0,0,0,0,0,0,-1,1924,1807,0,0
707,-783,0,0,0,0,0,0,0,0,0,-1,1931,1807,0,0
714,-783,0,0,0,0,0,0,0,0,0,-1,1938,1807,0,0
721,-783,0,0,0,0,0,0,0,0,0,-1,1945,1807,0,0
728,-783,0,0,0,0,0,0,0,0,0,-1,1952,1807,0,0
735,-783,0,0,0,0,0,0,0,0,0,-1,1959,1807,0,0
742,-783,0,0,0,0,0,0,0,0,0,-1,1966,1807,0,0
749,-783,0,0,0,0,0,0,0,0,0,-1,1973,1807,0,0
756,-783,0,0,0,0,0,0,0,0,0,-1,1980,1807,0,0
763,-783,0,0,0,0,0,0,0,0,0,-1,1987,1807,0,0
770,-783,0,0,0,0,0,0,0,0,0,-1,1994,1807,0,0
777,-783,0,0,0,0,0,0,0,0,0,-1,2001,1807,0,0
784,-783,0,0,0,0,0,0,0,0,0,-1,2008,1807,0,0
791,-783,0,0,0,0,0,0,0,0,0,-1,2015,1807,0,0
798,-783,0,0,0,0,0,0,0,0,0,-1,2022,1807,0,0
805,-783,0,0,0,0,0,0,0,0,0,-1,2029,1807,0,0
812,-783,0,0,0,0,0,0,0,0,0,-1,2036,1807,0,0
-700,-790,0,0,0,0,0,0,0,0,0,-1,524,1814,0,0
-693,-790,0,0,0,0,0,0,0,0,0,-1,531,1814,0,0
-686,-790,0,0,0,0,0,0,0,0,0,-1,538,1814,0,0
-679,-790,0,0,0,0,0,0,0,0,0,-1,545,1814,0,0
-672,-790,0,0,0,0,0,0,0,0,0,-1,552,1814,0,0
-665,-790,0,0,0,0,0,0,0,0,0,-1,559,1814,0,0
-658,-790,0,0,0,0,0,0,0,0,0,-1,566,1814,0,0
-651,-790,0,0,0,0,0,0,0,0,0,-1,573,1814,0,0
-644,-790,0,0,0,0,0,0,0,0,0,-1,580,1814,0,0
-637,-790,0,0,0,0,0,0,0,0,0,-1,587,1814,0,0
-630,-790,0,0,0,0,0,0,0,0,0,-1,594,1814,0,0
-623,-790,0,0,0,0,0,0,0,0,0,-1,601,1814,0,0
-616,-790,0,0,0,0,0,0,0,0,0,-1,608,1814,0,0
-609,-790,0,0,0,0,0,0,0,0,0,-1,615,1814,0,0
-602,-790,0,0,0,0,0,0,0,0,0,-1,622,1814,0,0
-595,-790,0,0,0,0,0,0,0,0,0,-1,629,1814,0,0
-588,-790,0,0,0,0,0,0,0,0,0,-1,636,1814,0,0
-581,-790,0,0,0,0,0,0,0,0,0,-1,643,1814,0,0
-574,-790,0,0,0,0,0,0,0,0,0,-1,650,1814,0,0
-567,-790,0,0,0,0,0,0,0,0,0,-1,657,1814,0,0
-560,-790,0,0,0,0,0,0,0,0,0,-1,664,1814,0,0
-553,-790,0,0,0,0,0,0,0,0,0,-1,671,1814,0,0
-546,-790,0,0,0,0,0,0,0,0,0,-1,678,1814,0,0
-539,-790,0,0,0,0,0,0,0,0,0,-1,685,1814,0,0
-532,-790,0,0,0,0,0,0,0,0,0,-1,692,1814,0,0
-525,-790,0,0,0,0,0,0,0,0,0,-1,699,1814,0,0
-518,-790,0,0,0,0,0,0,0,0,0,-1,706,1814,0,0
-511,-790,0,0,0,0,0,0,0,0,0,-1,713,1814,0,0
-504,-790,0,0,0,0,0,0,0,0,0,-1,720,1814,0,0
-497,-790,0,0,0,0,0,0,0,0,0,-1,727,1814,0,0
-490,-790,0,0,0,0,0,0,0,0,0,-1,734,1814,0,0
-483,-790,0,0,0,0,0,0,0,0,0,-1,741,1814,0,0
-476,-790,0,0,0,0,0,0,0,0,0,-1,748,1814,0,0
-469,-790,0,0,0,0,0,0,0,0,0,-1,755,1814,0,0
-462,-790,0,0,0,0,0,0,0,0,0,-1,762,1814,0,0
-455,-790,0,0,0,0,0,0,0,0,0,-1,769,1814,0,0
-448,-790,0,0,0,0,0,0,0,0,0,-1,776,1814,0,0
-441,-790,0,0,0,0,0,0,0,0,0,-1,783,1814,0,0
-434,-790,0,0,0,0,0,0,0,0,0,-1,790,1814,0,0
-427,-790,0,0,0,0,0,0,0,0,0,-1,797,1814,0,0
-420,-790,0,0,0,0,0,0,0,0,0,-1,804,1814,0,0
-413,-790,0,0,0,0,0,0,0,0,0,-1,811,1814,0,0
-406,-790,0,0,0,0,0,0,0,0,0,-1,818,1814,0,0
-399,-790,0,0,0,0,0,0,0,0,0,-1,825,1814,0,0
-392,-790,0,0,0,0,0,0,0,0,0,-1,832,1814,0,0
-385,-790,0,0,0,0,0,0,0,0,0,-1,839,1814,0,0
-378,-790,0,0,0,0,0,0,0,0,0,-1,846,1814,0,0
-371,-790,0,0,0,0,0,0,0,0,0,-1,853,1814,0,0
-364,-790,0,0,0,0,0,0,0,0,0,-1,860,1814,0,0
-357,-790,0,0,0,0,0,0,0,0,0,-1,867,1814,0,0
-350,-790,0,0,0,0,0,0,0,0,0,-1,874,1814,0,0
-343,-790,0,0,0,0,0,0,0,0,0,-1,881,1814,0,0
-336,-790,0,0,0,0,0,0,0,0,0,-1,888,1814,0,0
-329,-790,0,0,0,0,0,0,0,0,0,-1,895,1814,0,0
-322,-790,0,0,0,0,0,0,0,0,0,-1,902,1814,0,0
-315,-790,0,0,0,0,0,0,0,0,0,-1,909,1814,0,0
-308,-790,0,0,0,0,0,0,0,0,0,-1,916,1814,0,0
-301,-790,0,0,0,0,0,0,0,0,0,-1,923,1814,0,0
-294,-790,0,0,0,0,0,0,0,0,0,-1,930,1814,0,0
-287,-790,0,0,0,0,0,0,0,0,0,-1,937,1814,0,0
-280,-790,0,0,0,0,0,0,0,0,0,-1,944,1814,0,0
-273,-790,0,0,0,0,0,0,0,0,0,-1,951,1814,0,0
-266,-790,0,0,0,0,0,0,0,0,0,-1,958,1814,0,0
-259,-790,0,0,0,0,0,0,0,0,0,-1,965,1814,0,0
-252,-790,0,0,0,0,0,0,0,0,0,-1,972,1814,0,0
-245,-790,0,0,0,0,0,0,0,0,0,-1,979,1814,0,0
-238,-790,0,0,0,0,0,0,0,0,0,-1,986,1814,0,0
-231,-790,0,0,0,0,0,0,0,0,0,-1,993,1814,0,0
-224,-790,0,0,0,0,0,0,0,0,0,-1,1000,1814,0,0
-217,-790,0,0,0,0,0,0,0,0,0,-1,1007,1814,0,0
-210,-790,0,0,0,0,0,0,0,0,0,-1,1014,1814,0,0
-203,-790,0,0,0,0,0,0,0,0,0,-1,1021,1814,0,0
-196,-790,0,0,0,0,0,0,0,0,0,-1,1028,1814,0,0
-189,-790,0,0,0,0,0,0,0,0,0,-1,1035,1814,0,0
-182,-790,0,0,0,0,0,0,0,0,0,-1,1042,1814,0,0
-175,-790,0,0,0,0,0,0,0,0,0,-1,1049,1814,0,0
-168,-790,0,0,0,0,0,0,0,0,0,-1,1056,1814,0,0
-161,-790,0,0,0,0,0,0,0,0,0,-1,1063,1814,0,0
-154,-790,0,0,0,0,0,0,0,0,0,-1,1070,1814,0,0
-147,-790,0,0,0,0,0,0,0,0,0,-1,1077,1814,0,0
-140,-790,0,0,0,0,0,0,0,0,0,-1,1084,1814,0,0
-133,-790,0,0,0,0,0,0,0,0,0,-1,1091,1814,0,0
-126,-790,0,0,0,0,0,0,0,0,0,-1,1098,1814,0,0
-119,-790,0,0,0,0,0,0,0,0,0,-1,1105,1814,0,0
-112,-790,0,0,0,0,0,0,0,0,0,-1,1112,1814,0,0
-105,-790,0,0,0,0,0,0,0,0,0,-1,1119,1814,0,0
-98,-790,0,0,0,0,0,0,0,0,0,-1,1126,1814,0,0
-91,-790,0,0,0,0,0,0,0,0,0,-1,1133,1814,0,0
-84,-790,0,0,0,0,0,0,0,0,0,-1,1140,1814,0,0
-77,-790,-0.969238,5.30847,0,0,0,0,0,0,0,-1,1147,1814,-0.969277,-5.3085
-70,-790,-1.23169,4.98914,0,0,0,0,0,0,0,-1,1154,1814,-1.23163,-4.98916
-63,-790,-1.69128,4.32263,0,0,0,0,0,0,0,-1,1161,1814,-1.69128,-4.32258
-56,-790,-2.24756,3.75305,0,0,0,0,0,0,0,-1,1168,1814,-2.24758,-3.75302
-49,-790,-3.11011,3.35779,0,0,0,0,0,0,0,-1,1175,1814,-3.11006,-3.35781
-42,-790,0.593262,1.19165,0,0,0,0,0,0,0,-1,1182,1814,0.593225,-1.19165
-35,-790,0.307129,-0.20105,0,0,0,0,0,0,0,-1,1189,1814,0.307178,0.201006
-28,-790,-2.78467,0.785156,0,0,0,0,0,0,0,-1,1196,1814,-2.78471,-0.785183
-21,-790,5.36719,9.96191,0,0,0,0,0,0,0,-1,1203,1814,5.36715,-9.9619
-14,-790,5.37476,11.564,0,0,0,0,0,0,0,-1,1210,1814,5.37476,-11.564
-7,-790,5.09607,14.2325,0,0,0,0,0,0,0,-1,1217,1814,5.09604,-14.2325
0,-790,4.32544,14.2227,0,0,0,0,0,0,0,-1,1224,1814,4.32544,-14.2227
7,-790,3.96265,14.0114,-0.0142928,0.0434933,0.0111016,0.0455527,-0.0163522,1.38738,0.0370425,0.0443197,1231,1814,3.96268,-14.0113
14,-790,3.56042,13.7057,-0.00153824,0.0413602,0.0148528,0.0460007,-0.00617877,1.26797,0.0329206,0.0421982,1238,1814,3.56042,-13.7057
21,-790,3.18311,13.5677,0.00985926,0.0420262,0.0182884,0.0502972,0.0015882,1.14607,0.0330148,0.0424104,1245,1814,3.18306,-13.5678
28,-790,2.42053,12.0099,0,0,0,0,0,0,0,-1,1252,1814,2.42049,-12.0099
35,-790,3.4458,12.8331,0.0286906,0.0461496,0.0250946,0.0639897,0.0108504,0.952783,0.0395424,0.0471672,1259,1814,3.44581,-12.8331
42,-790,3.7561,13.3097,0.0356261,0.048924,0.0275588,0.0706246,0.0139255,0.903768,0.0431961,0.0481657,1266,1814,3.75609,-13.3097
49,-790,3.83484,13.7258,0,0,0,0,0,0,0,-1,1273,1814,3.83481,-13.7259
56,-790,4.38025,15.2518,0.0461215,0.0537114,0.0302654,0.0804188,0.0194141,0.847768,0.0484554,0.0492605,1280,1814,4.38024,-15.2519
63,-790,4.74756,15.9561,0.0488681,0.0540173,0.0302997,0.0818516,0.0210338,0.827782,0.0490825,0.0452479,1287,1814,4.74751,-15.9561
70,-790,5.10913,16.9015,0.0476708,0.0553862,0.0281529,0.0799445,0.0231125,0.853487,0.0475048,0.0433471,1294,1814,5.10909,-16.9015
77,-790,5.46448,17.481,0.0426837,0.0555424,0.0234305,0.0734097,0.0248164,0.919302,0.0431178,0.0431036,1301,1814,5.46446,-17.4809
84,-790,4.849,13.1549,0,0,0,0,0,0,0,-1,1308,1814,4.84905,-13.1549
91,-790,4.8822,13.2262,0,0,0,0,0,0,0,-1,1315,1814,4.88217,-13.2262
98,-790,4.89404,13.3495,0,0,0,0,0,0,0,-1,1322,1814,4.89404,-13.3495
105,-790,5.1748,13.5243,0,0,0,0,0,0,0,-1,1329,1814,5.17482,-13.5242
112,-790,6.47852,13.8134,-0.00444577,0.0487523,-0.012411,0.0515053,-0.00719877,-1.35251,0.0369708,0.0491477,1336,1814,6.47852,-13.8133
119,-790,4.48682,13.0743,-0.0185318,0.0492751,-0.02091,0.0552047,-0.0244614,-1.29447,0.047123,0.0445488,1343,1814,4.48678,-13.0744
126,-790,4.58801,12.5396,-0.0328607,0.0499539,-0.0290651,0.0591366,-0.0420434,-1.26479,0.0586935,0.0475031,1350,1814,4.58805,-12.5396
133,-790,4.69556,12.0029,0,0,0,0,0,0,0,-1,1357,1814,4.69555,-12.003
140,-790,8.65356,11.2858,0,0,0,0,0,0,0,-1,1364,1814,8.65356,-11.2857
147,-790,11.1719,11.4811,0,0,0,0,0,0,0,-1,1371,1814,11.1719,-11.4811
154,-790,6.34485,-0.540405,0,0,0,0,0,0,0,-1,1378,1814,6.34482,0.540409
161,-790,6.62683,1.1134,0,0,0,0,0,0,0,-1,1385,1814,6.62682,-1.11344
168,-790,7.04077,2.23279,0,0,0,0,0,0,0,-1,1392,1814,7.04082,-2.23275
175,-790,9.03918,3.98535,0,0,0,0,0,0,0,-1,1399,1814,9.0392,-3.98535
182,-790,8.96997,5.67896,0,0,0,0,0,0,0,-1,1406,1814,8.97001,-5.6789
189,-790,8.59729,6.86975,0,0,0,0,0,0,0,-1,1413,1814,8.59728,-6.86972
196,-790,8.21924,9.29053,0,0,0,0,0,0,0,-1,1420,1814,8.21924,-9.29048
203,-790,0,0,0,0,0,0,0,0,0,-1,1427,1814,0,0
210,-790,0,0,0,0,0,0,0,0,0,-1,1434,1814,0,0
217,-790,0,0,0,0,0,0,0,0,0,-1,1441,1814,0,0
224,-790,0,0,0,0,0,0,0,0,0,-1,1448,1814,0,0
231,-790,0,0,0,0,0,0,0,0,0,-1,1455,1814,0,0
238,-790,0,0,0,0,0,0,0,0,0,-1,1462,1814,0,0
245,-790,0,0,0,0,0,0,0,0,0,-1,1469,1814,0,0
252,-790,0,0,0,0,0,0,0,0,0,-1,1476,1814,0,0
259,-790,0,0,0,0,0,0,0,0,0,-1,1483,1814,0,0
266,-790,0,0,0,0,0,0,0,0,0,-1,1490,1814,0,0
273,-790,0,0,0,0,0,0,0,0,0,-1,1497,1814,0,0
280,-790,0,0,0,0,0,0,0,0,0,-1,1504,1814,0,0
287,-790,0,0,0,0,0,0,0,0,0,-1,1511,1814,0,0
294,-790,0,0,0,0,0,0,0,0,0,-1,1518,1814,0,0
301,-790,0,0,0,0,0,0,0,0,0,-1,1525,1814,0,0
308,-790,0,0,0,0,0,0,0,0,0,-1,1532,1814,0,0
315,-790,0,0,0,0,0,0,0,0,0,-1,1539,1814,0,0
322,-790,0,0,0,0,0,0,0,0,0,-1,1546,1814,0,0
329,-790,0,0,0,0,0,0,0,0,0,-1,1553,1814,0,0
336,-790,0,0,0,0,0,0,0,0,0,-1,1560,1814,0,0
343,-790,0,0,0,0,0,0,0,0,0,-1,1567,1814,0,0
350,-790,0,0,0,0,0,0,0,0,0,-1,1574,1814,0,0
357,-790,0,0,0,0,0,0,0,0,0,-1,1581,1814,0,0
364,-790,0,0,0,0,0,0,0,0,0,-1,1588,1814,0,0
371,-790,0,0,0,0,0,0,0,0,0,-1,1595,1814,0,0
378,-790,0,0,0,0,0,0,0,0,0,-1,1602,1814,0,0
385,-790,0,0,0,0,0,0,0,0,0,-1,1609,1814,0,0
392,-790,0,0,0,0,0,0,0,0,0,-1,1616,1814,0,0
399,-790,0,0,0,0,0,0,0,0,0,-1,1623,1814,0,0
406,-790,0,0,0,0,0,0,0,0,0,-1,1630,1814,0,0
413,-790,0,0,0,0,0,0,0,0,0,-1,1637,1814,0,0
420,-790,0,0,0,0,0,0,0,0,0,-1,1644,1814,0,0
427,-790,0,0,0,0,0,0,0,0,0,-1,1651,1814,0,0
434,-790,0,0,0,0,0,0,0,0,0,-1,1658,1814,0,0
441,-790,0,0,0,0,0,0,0,0,0,-1,1665,1814,0,0
448,-790,0,0,0,0,0,0,0,0,0,-1,1672,1814,0,0
455,-790,0,0,0,0,0,0,0,0,0,-1,1679,1814,0,0
462,-790,0,0,0,0,0,0,0,0,0,-1,1686,1814,0,0
469,-790,0,0,0,0,0,0,0,0,0,-1,1693,1814,0,0
476,-790,0,0,0,0,0,0,0,0,0,-1,1700,1814,0,0
483,-790,0,0,0,0,0,0,0,0,0,-1,1707,1814,0,0
490,-790,0,0,0,0,0,0,0,0,0,-1,1714,1814,0,0
497,-790,0,0,0,0,0,0,0,0,0,-1,1721,1814,0,0
504,-790,0,0,0,0,0,0,0,0,0,-1,1728,1814,0,0
511,-790,0,0,0,0,0,0,0,0,0,-1,1735,1814,0,0
518,-790,0,0,0,0,0,0,0,0,0,-1,1742,1814,0,0
525,-790,0,0,0,0,0,0,0,0,0,-1,1749,1814,0,0
532,-790,0,0,0,0,0,0,0,0,0,-1,1756,1814,0,0
539,-790,0,0,0,0,0,0,0,0,0,-1,1763,1814,0,0
546,-790,0,0,0,0,0,0,0,0,0,-1,1770,1814,0,0
553,-790,0,0,0,0,0,0,0,0,0,-1,1777,1814,0,0
560,-790,0,0,0,0,0,0,0,0,0,-1,1784,1814,0,0
567,-790,0,0,0,0,0,0,0,0,0,-1,1791,1814,0,0
574,-790,0,0,0,0,0,0,0,0,0,-1,1798,1814,0,0
581,-790,0,0,0,0,0,0,0,0,0,-1,1805,1814,0,0
588,-790,0,0,0,0,0,0,0,0,0,-1,1812,1814,0,0
595,-790,0,0,0,0,0,0,0,0,0,-1,1819,1814,0,0
602,-790,0,0,0,0,0,0,0,0,0,-1,1826,1814,0,0
609,-790,0,0,0,0,0,0,0,0,0,-1,1833,1814,0,0
616,-790,0,0,0,0,0,0,0,0,0,-1,1840,1814,0,0
623,-790,0,0,0,0,0,0,0,0,0,-1,1847,1814,0,0
630,-790,0,0,0,0,0,0,0,0,0,-1,1854,1814,0,0
637,-790,0,0,0,0,0,0,0,0,0,-1,1861,1814,0,0
644,-790,0,0,0,0,0,0,0,0,0,-1,1868,1814,0,0
651,-790,0,0,0,0,0,0,0,0,0,-1,1875,1814,0,0
658,-790,0,0,0,0,0,0,0,0,0,-1,1882,1814,0,0
665,-790,0,0,0,0,0,0,0,0,0,-1,1889,1814,0,0
672,-790,0,0,0,0,0,0,0,0,0,-1,1896,1814,0,0
679,-790,0,0,0,0,0,0,0,0,0,-1,1903,1814,0,0
686,-790,0,0,0,0,0,0,0,0,0,-1,1910,1814,0,0
693,-790,0,0,0,0,0,0,0,0,0,-1,1917,1814,0,0
700,-790,0,0,0,0,0,0,0,0,0,-1,1924,1814,0,0
707,-790,0,0,0,0,0,0,0,0,0,-1,1931,1814,0,0
714,-790,0,0,0,0,0,0,0,0,0,-1,1938,1814,0,0
721,-790,0,0,0,0,0,0,0,0,0,-1,1945,1814,0,0
728,-790,0,0,0,0,0,0,0,0,0,-1,1952,1814,0,0
735,-790,0,0,0,0,0,0,0,0,0,-1,1959,1814,0,0
742,-790,0,0,0,0,0,0,0,0,0,-1,1966,1814,0,0
749,-790,0,0,0,0,0,0,0,0,0,-1,1973,1814,0,0
756,-790,0,0,0,0,0,0,0,0,0,-1,1980,1814,0,0
763,-790,0,0,0,0,0,0,0,0,0,-1,1987,1814,0,0
770,-790,0,0,0,0,0,0,0,0,0,-1,1994,1814,0,0
777,-790,0,0,0,0,0,0,0,0,0,-1,2001,1814,0,0
784,-790,0,0,0,0,0,0,0,0,0,-1,2008,1814,0,0
791,-790,0,0,0,0,0,0,0,0,0,-1,2015,1814,0,0
798,-790,0,0,0,0,0,0,0,0,0,-1,2022,1814,0,0
805,-790,0,0,0,0,0,0,0,0,0,-1,2029,1814,0,0
812,-790,0,0,0,0,0,0,0,0,0,-1,2036,1814,0,0
-700,-797,0,0,0,0,0,0,0,0,0,-1,524,1821,0,0
-693,-797,0,0,0,0,0,0,0,0,0,-1,531,1821,0,0
-686,-797,0,0,0,0,0,0,0,0,0,-1,538,1821,0,0
-679,-797,0,0,0,0,0,0,0,0,0,-1,545,1821,0,0
-672,-797,0,0,0,0,0,0,0,0,0,-1,552,1821,0,0
-665,-797,0,0,0,0,0,0,0,0,0,-1,559,1821,0,0
-658,-797,0,0,0,0,0,0,0,0,0,-1,566,1821,0,0
-651,-797,0,0,0,0,0,0,0,0,0,-1,573,1821,0,0
-644,-797,0,0,0,0,0,0,0,0,0,-1,580,1821,0,0
-637,-797,0,0,0,0,0,0,0,0,0,-1,587,1821,0,0
-630,-797,0,0,0,0,0,0,0,0,0,-1,594,1821,0,0
-623,-797,0,0,0,0,0,0,0,0,0,-1,601,1821,0,0
-616,-797,0,0,0,0,0,0,0,0,0,-1,608,1821,0,0
-609,-797,0,0,0,0,0,0,0,0,0,-1,615,1821,0,0
-602,-797,0,0,0,0,0,0,0,0,0,-1,622,1821,0,0
-595,-797,0,0,0,0,0,0,0,0,0,-1,629,1821,0,0
-588,-797,0,0,0,0,0,0,0,0,0,-1,636,1821,0,0
-581,-797,0,0,0,0,0,0,0,0,0,-1,643,1821,0,0
-574,-797,0,0,0,0,0,0,0,0,0,-1,650,1821,0,0
-567,-797,0,0,0,0,0,0,0,0,0,-1,657,1821,0,0
-560,-797,0,0,0,0,0,0,0,0,0,-1,664,1821,0,0
-553,-797,0,0,0,0,0,0,0,0,0,-1,671,1821,0,0
-546,-797,0,0,0,0,0,0,0,0,0,-1,678,1821,0,0
-539,-797,0,0,0,0,0,0,0,0,0,-1,685,1821,0,0
-532,-797,0,0,0,0,0,0,0,0,0,-1,692,1821,0,0
-525,-797,0,0,0,0,0,0,0,0,0,-1,699,1821,0,0
-518,-797,0,0,0,0,0,0,0,0,0,-1,706,1821,0,0
-511,-797,0,0,0,0,0,0,0,0,0,-1,713,1821,0,0
-504,-797,0,0,0,0,0,0,0,0,0,-1,720,1821,0,0
-497,-797,0,0,0,0,0,0,0,0,0,-1,727,1821,0,0
-490,-797,0,0,0,0,0,0,0,0,0,-1,734,1821,0,0
-483,-797,0,0,0,0,0,0,0,0,0,-1,741,1821,0,0
-476,-797,0,0,0,0,0,0,0,0,0,-1,748,1821,0,0
-469,-797,0,0,0,0,0,0,0,0,0,-1,755,1821,0,0
-462,-797,0,0,0,0,0,0,0,0,0,-1,762,1821,0,0
-455,-797,0,0,0,0,0,0,0,0,0,-1,769,1821,0,0
-448,-797,0,0,0,0,0,0,0,0,0,-1,776,1821,0,0
-441,-797,0,0,0,0,0,0,0,0,0,-1,783,1821,0,0
-434,-797,0,0,0,0,0,0,0,0,0,-1,790,1821,0,0
-427,-797,0,0,0,0,0,0,0,0,0,-1,797,1821,0,0
-420,-797,0,0,0,0,0,0,0,0,0,-1,804,1821,0,0
-413,-797,0,0,0,0,0,0,0,0,0,-1,811,1821,0,0
-406,-797,0,0,0,0,0,0,0,0,0,-1,818,1821,0,0
-399,-797,0,0,0,0,0,0,0,0,0,-1,825,1821,0,0
-392,-797,0,0,0,0,0,0,0,0,0,-1,832,1821,0,0
-385,-797,0,0,0,0,0,0,0,0,0,-1,839,1821,0,0
-378,-797,0,0,0,0,0,0,0,0,0,-1,846,1821,0,0
-371,-797,0,0,0,0,0,0,0,0,0,-1,853,1821,0,0
-364,-797,0,0,0,0,0,0,0,0,0,-1,860,1821,0,0
-357,-797,0,0,0,0,0,0,0,0,0,-1,867,1821,0,0
-350,-797,0,0,0,0,0,0,0,0,0,-1,874,1821,0,0
-343,-797,0,0,0,0,0,0,0,0,0,-1,881,1821,0,0
-336,-797,0,0,0,0,0,0,0,0,0,-1,888,1821,0,0
-329,-797,0,0,0,0,0,0,0,0,0,-1,895,1821,0,0
-322,-797,0,0,0,0,0,0,0,0,0,-1,902,1821,0,0
-315,-797,0,0,0,0,0,0,0,0,0,-1,909,1821,0,0
-308,-797,0,0,0,0,0,0,0,0,0,-1,916,1821,0,0
-301,-797,0,0,0,0,0,0,0,0,0,-1,923,1821,0,0
-294,-797,0,0,0,0,0,0,0,0,0,-1,930,1821,0,0
-287,-797,0,0,0,0,0,0,0,0,0,-1,937,1821,0,0
-280,-797,0,0,0,0,0,0,0,0,0,-1,944,1821,0,0
-273,-797,0,0,0,0,0,0,0,0,0,-1,951,1821,0,0
-266,-797,0,0,0,0,0,0,0,0,0,-1,958,1821,0,0
-259,-797,0,0,0,0,0,0,0,0,0,-1,965,1821,0,0
-252,-797,0,0,0,0,0,0,0,0,0,-1,972,1821,0,0
-245,-797,0,0,0,0,0,0,0,0,0,-1,979,1821,0,0
-238,-797,0,0,0,0,0,0,0,0,0,-1,986,1821,0,0
-231,-797,0,0,0,0,0,0,0,0,0,-1,993,1821,0,0
-224,-797,0,0,0,0,0,0,0,0,0,-1,1000,1821,0,0
-217,-797,0,0,0,0,0,0,0,0,0,-1,1007,1821,0,0
-210,-797,0,0,0,0,0,0,0,0,0,-1,1014,1821,0,0
-203,-797,0,0,0,0,0,0,0,0,0,-1,1021,1821,0,0
-196,-797,0,0,0,0,0,0,0,0,0,-1,1028,1821,0,0
-189,-797,0,0,0,0,0,0,0,0,0,-1,1035,1821,0,0
-182,-797,0,0,0,0,0,0,0,0,0,-1,1042,1821,0,0
-175,-797,0,0,0,0,0,0,0,0,0,-1,1049,1821,0,0
-168,-797,0,0,0,0,0,0,0,0,0,-1,1056,1821,0,0
-161,-797,0,0,0,0,0,0,0,0,0,-1,1063,1821,0,0
-154,-797,0,0,0,0,0,0,0,0,0,-1,1070,1821,0,0
-147,-797,0,0,0,0,0,0,0,0,0,-1,1077,1821,0,0
-140,-797,0,0,0,0,0,0,0,0,0,-1,1084,1821,0,0
-133,-797,0,0,0,0,0,0,0,0,0,-1,1091,1821,0,0
-126,-797,0,0,0,0,0,0,0,0,0,-1,1098,1821,0,0
-119,-797,0,0,0,0,0,0,0,0,0,-1,1105,1821,0,0
-112,-797,0,0,0,0,0,0,0,0,0,-1,1112,1821,0,0
-105,-797,0,0,0,0,0,0,0,0,0,-1,1119,1821,0,0
-98,-797,0,0,0,0,0,0,0,0,0,-1,1126,1821,0,0
-91,-797,0,0,0,0,0,0,0,0,0,-1,1133,1821,0,0
-84,-797,0,0,0,0,0,0,0,0,0,-1,1140,1821,0,0
-77,-797,0,0,0,0,0,0,0,0,0,-1,1147,1821,0,0
-70,-797,0,0,0,0,0,0,0,0,0,-1,1154,1821,0,0
-63,-797,0,0,0,0,0,0,0,0,0,-1,1161,1821,0,0
-56,-797,0,0,0,0,0,0,0,0,0,-1,1168,1821,0,0
-49,-797,0,0,0,0,0,0,0,0,0,-1,1175,1821,0,0
-42,-797,0.579834,0.692871,0,0,0,0,0,0,0,-1,1182,1821,0.579856,-0.692816
-35,-797,-0.185425,5.55396,0,0,0,0,0,0,0,-1,1189,1821,-0.18542,-5.55396
-28,-797,-0.310181,4.71509,0,0,0,0,0,0,0,-1,1196,1821,-0.310228,-4.71503
-21,-797,5.16907,10.7031,0,0,0,0,0,0,0,-1,1203,1821,5.16903,-10.7031
-14,-797,5.5625,10.8151,0,0,0,0,0,0,0,-1,1210,1821,5.56254,-10.8151
-7,-797,5.81348,12.6852,0,0,0,0,0,0,0,-1,1217,1821,5.81343,-12.6852
0,-797,3.81409,13.9207,0,0,0,0,0,0,0,-1,1224,1821,3.81409,-13.9206
7,-797,3.4281,13.6195,-0.0207206,0.0582493,0.0141084,0.0606942,-0.0231654,1.39921,0.0500063,0.0486097,1231,1821,3.42805,-13.6195
14,-797,3.02551,13.2488,-0.00336435,0.0555558,0.0194409,0.0613923,-0.00920079,1.27914,0.0443146,0.0429225,1238,1821,3.02557,-13.2488
21,-797,1.32397,10.5833,0,0,0,0,0,0,0,-1,1245,1821,1.32396,-10.5833
28,-797,2.40637,11.5358,0,0,0,0,0,0,0,-1,1252,1821,2.40642,-11.5358
35,-797,3.56335,12.5167,0.0360289,0.0617651,0.033498,0.0847816,0.0130124,0.96878,0.0527216,0.0451941,1259,1821,3.56339,-12.5167
42,-797,4.19263,13.0879,0.0449421,0.0654398,0.0372314,0.0938072,0.0165747,0.919709,0.0578107,0.0477325,1266,1821,4.19264,-13.0879
49,-797,4.35864,13.791,0.0519916,0.0689615,0.040184,0.101547,0.0194065,0.889446,0.0622456,0.0478471,1273,1821,4.35865,-13.791
56,-797,4.5625,14.6261,0.057949,0.0718236,0.0421887,0.107642,0.022131,0.866886,0.0656397,0.0463589,1280,1821,4.56252,-14.6261
63,-797,4.89648,15.5009,0.0610657,0.0724204,0.0429301,0.110047,0.0234392,0.85114,0.0669338,0.0434219,1287,1821,4.89651,-15.5008
70,-797,5.38538,15.9833,0.0594725,0.0740127,0.040995,0.108377,0.0251079,0.873156,0.0655063,0.0418915,1294,1821,5.38543,-15.9833
77,-797,5.91187,16.9878,0.0532864,0.0739188,0.0357801,0.10084,0.026365,0.925753,0.0603884,0.0404116,1301,1821,5.91187,-16.9878
84,-797,6.42163,17.9177,0.0460141,0.0726679,0.0300526,0.092216,0.026466,0.994095,0.0548276,0.0455175,1308,1821,6.42164,-17.9178
91,-797,5.0791,13.1976,0,0,0,0,0,0,0,-1,1315,1821,5.07905,-13.1976
98,-797,6.4541,12.8418,0,0,0,0,0,0,0,-1,1322,1821,6.45409,-12.8418
105,-797,7.13428,11.7462,0,0,0,0,0,0,0,-1,1329,1821,7.13424,-11.7462
112,-797,6.57373,13.9645,0,0,0,0,0,0,0,-1,1336,1821,6.57375,-13.9645
119,-797,4.47412,12.5648,-0.0240789,0.065843,-0.0192277,0.0697819,-0.0280178,-1.36874,0.0581555,0.0449521,1343,1821,4.47417,-12.5648
126,-797,4.60803,12.0349,-0.0425707,0.0666658,-0.0303345,0.0745242,-0.0504291,-1.31731,0.0725876,0.0488418,1350,1821,4.60803,-12.0349
133,-797,4.73438,11.4967,0,0,0,0,0,0,0,-1,1357,1821,4.73436,-11.4967
140,-797,9.34973,10.4178,0,0,0,0,0,0,0,-1,1364,1821,9.34969,-10.4178
147,-797,11.9623,10.4932,0,0,0,0,0,0,0,-1,1371,1821,11.9622,-10.4932
154,-797,14.49,10.5256,0,0,0,0,0,0,0,-1,1378,1821,14.49,-10.5256
161,-797,6.79199,1.12952,0,0,0,0,0,0,0,-1,1385,1821,6.79203,-1.12957
168,-797,0,0,0,0,0,0,0,0,0,-1,1392,1821,0,0
175,-797,0,0,0,0,0,0,0,0,0,-1,1399,1821,0,0
182,-797,0,0,0,0,0,0,0,0,0,-1,1406,1821,0,0
189,-797,0,0,0,0,0,0,0,0,0,-1,1413,1821,0,0
196,-797,0,0,0,0,0,0,0,0,0,-1,1420,1821,0,0
203,-797,0,0,0,0,0,0,0,0,0,-1,1427,1821,0,0
210,-797,0,0,0,0,0,0,0,0,0,-1,1434,1821,0,0
217,-797,0,0,0,0,0,0,0,0,0,-1,1441,1821,0,0
224,-797,0,0,0,0,0,0,0,0,0,-1,1448,1821,0,0
231,-797,0,0,0,0,0,0,0,0,0,-1,1455,1821,0,0
238,-797,0,0,0,0,0,0,0,0,0,-1,1462,1821,0,0
245,-797,0,0,0,0,0,0,0,0,0,-1,1469,1821,0,0
252,-797,0,0,0,0,0,0,0,0,0,-1,1476,1821,0,0
259,-797,0,0,0,0,0,0,0,0,0,-1,1483,1821,0,0
266,-797,0,0,0,0,0,0,0,0,0,-1,1490,1821,0,0
273,-797,0,0,0,0,0,0,0,0,0,-1,1497,1821,0,0
280,-797,0,0,0,0,0,0,0,0,0,-1,1504,1821,0,0
287,-797,0,0,0,0,0,0,0,0,0,-1,1511,1821,0,0
294,-797,0,0,0,0,0,0,0,0,0,-1,1518,1821,0,0
301,-797,0,0,0,0,0,0,0,0,0,-1,1525,1821,0,0
308,-797,0,0,0,0,0,0,0,0,0,-1,1532,1821,0,0
315,-797,0,0,0,0,0,0,0,0,0,-1,1539,1821,0,0
322,-797,0,0,0,0,0,0,0,0,0,-1,1546,1821,0,0
329,-797,0,0,0,0,0,0,0,0,0,-1,1553,1821,0,0
336,-797,0,0,0,0,0,0,0,0,0,-1,1560,1821,0,0
343,-797,0,0,0,0,0,0,0,0,0,-1,1567,1821,0,0
350,-797,0,0,0,0,0,0,0,0,0,-1,1574,1821,0,0
357,-797,0,0,0,0,0,0,0,0,0,-1,1581,1821,0,0
364,-797,0,0,0,0,0,0,0,0,0,-1,1588,1821,0,0
371,-797,0,0,0,0,0,0,0,0,0,-1,1595,1821,0,0
378,-797,0,0,0,0,0,0,0,0,0,-1,1602,1821,0,0
385,-797,0,0,0,0,0,0,0,0,0,-1,1609,1821,0,0
392,-797,0,0,0,0,0,0,0,0,0,-1,1616,1821,0,0
399,-797,0,0,0,0,0,0,0,0,0,-1,1623,1821,0,0
406,-797,0,0,0,0,0,0,0,0,0,-1,1630,1821,0,0
413,-797,0,0,0,0,0,0,0,0,0,-1,1637,1821,0,0
420,-797,0,0,0,0,0,0,0,0,0,-1,1644,1821,0,0
427,-797,0,0,0,0,0,0,0,0,0,-1,1651,1821,0,0
434,-797,0,0,0,0,0,0,0,0,0,-1,1658,1821,0,0
441,-797,0,0,0,0,0,0,0,0,0,-1,1665,1821,0,0
448,-797,0,0,0,0,0,0,0,0,0,-1,1672,1821,0,0
455,-797,0,0,0,0,0,0,0,0,0,-1,1679,1821,0,0
462,-797,0,0,0,0,0,0,0,0,0,-1,1686,1821,0,0
469,-797,0,0,0,0,0,0,0,0,0,-1,1693,1821,0,0
476,-797,0,0,0,0,0,0,0,0,0,-1,1700,1821,0,0
483,-797,0,0,0,0,0,0,0,0,0,-1,1707,1821,0,0
490,-797,0,0,0,0,0,0,0,0,0,-1,1714,1821,0,0
497,-797,0,0,0,0,0,0,0,0,0,-1,1721,1821,0,0
504,-797,0,0,0,0,0,0,0,0,0,-1,1728,1821,0,0
511,-797,0,0,0,0,0,0,0,0,0,-1,1735,1821,0,0
518,-797,0,0,0,0,0,0,0,0,0,-1,1742,1821,0,0
525,-797,0,0,0,0,0,0,0,0,0,-1,1749,1821,0,0
532,-797,0,0,0,0,0,0,0,0,0,-1,1756,1821,0,0
539,-797,0,0,0,0,0,0,0,0,0,-1,1763,1821,0,0
546,-797,0,0,0,0,0,0,0,0,0,-1,1770,1821,0,0
553,-797,0,0,0,0,0,0,0,0,0,-1,1777,1821,0,0
560,-797,0,0,0,0,0,0,0,0,0,-1,1784,1821,0,0
567,-797,0,0,0,0,0,0,0,0,0,-1,1791,1821,0,0
574,-797,0,0,0,0,0,0,0,0,0,-1,1798,1821,0,0
581,-797,0,0,0,0,0,0,0,0,0,-1,1805,1821,0,0
588,-797,0,0,0,0,0,0,0,0,0,-1,1812,1821,0,0
595,-797,0,0,0,0,0,0,0,0,0,-1,1819,1821,0,0
602,-797,0,0,0,0,0,0,0,0,0,-1,1826,1821,0,0
609,-797,0,0,0,0,0,0,0,0,0,-1,1833,1821,0,0
616,-797,0,0,0,0,0,0,0,0,0,-1,1840,1821,0,0
623,-797,0,0,0,0,0,0,0,0,0,-1,1847,1821,0,0
630,-797,0,0,0,0,0,0,0,0,0,-1,1854,1821,0,0
637,-797,0,0,0,0,0,0,0,0,0,-1,1861,1821,0,0
644,-797,0,0,0,0,0,0,0,0,0,-1,1868,1821,0,0
651,-797,0,0,0,0,0,0,0,0,0,-1,1875,1821,0,0
658,-797,0,0,0,0,0,0,0,0,0,-1,1882,1821,0,0
665,-797,0,0,0,0,0,0,0,0,0,-1,1889,1821,0,0
672,-797,0,0,0,0,0,0,0,0,0,-1,1896,1821,0,0
679,-797,0,0,0,0,0,0,0,0,0,-1,1903,1821,0,0
686,-797,0,0,0,0,0,0,0,0,0,-1,1910,1821,0,0
693,-797,0,0,0,0,0,0,0,0,0,-1,1917,1821,0,0
700,-797,0,0,0,0,0,0,0,0,0,-1,1924,1821,0,0
707,-797,0,0,0,0,0,0,0,0,0,-1,1931,1821,0,0
714,-797,0,0,0,0,0,0,0,0,0,-1,1938,1821,0,0
721,-797,0,0,0,0,0,0,0,0,0,-1,1945,1821,0,0
728,-797,0,0,0,0,0,0,0,0,0,-1,1952,1821,0,0
735,-797,0,0,0,0,0,0,0,0,0,-1,1959,1821,0,0
742,-797,0,0,0,0,0,0,0,0,0,-1,1966,1821,0,0
749,-797,0,0,0,0,0,0,0,0,0,-1,1973,1821,0,0
756,-797,0,0,0,0,0,0,0,0,0,-1,1980,1821,0,0
763,-797,0,0,0,0,0,0,0,0,0,-1,1987,1821,0,0
770,-797,0,0,0,0,0,0,0,0,0,-1,1994,1821,0,0
777,-797,0,0,0,0,0,0,0,0,0,-1,2001,1821,0,0
784,-797,0,0,0,0,0,0,0,0,0,-1,2008,1821,0,0
791,-797,0,0,0,0,0,0,0,0,0,-1,2015,1821,0,0
798,-797,0,0,0,0,0,0,0,0,0,-1,2022,1821,0,0
805,-797,0,0,0,0,0,0,0,0,0,-1,2029,1821,0,0
812,-797,0,0,0,0,0,0,0,0,0,-1,2036,1821,0,0
-700,-804,0,0,0,0,0,0,0,0,0,-1,524,1828,0,0
-693,-804,0,0,0,0,0,0,0,0,0,-1,531,1828,0,0
-686,-804,0,0,0,0,0,0,0,0,0,-1,538,1828,0,0
-679,-804,0,0,0,0,0,0,0,0,0,-1,545,1828,0,0
-672,-804,0,0,0,0,0,0,0,0,0,-1,552,1828,0,0
-665,-804,0,0,0,0,0,0,0,0,0,-1,559,1828,0,0
-658,-804,0,0,0,0,0,0,0,0,0,-1,566,1828,0,0
-651,-804,0,0,0,0,0,0,0,0,0,-1,573,1828,0,0
-644,-804,0,0,0,0,0,0,0,0,0,-1,580,1828,0,0
-637,-804,0,0,0,0,0,0,0,0,0,-1,587,1828,0,0
-630,-804,0,0,0,0,0,0,0,0,0,-1,594,1828,0,0
-623,-804,0,0,0,0,0,0,0,0,0,-1,601,1828,0,0
-616,-804,0,0,0,0,0,0,0,0,0,-1,608,1828,0,0
-609,-804,0,0,0,0,0,0,0,0,0,-1,615,1828,0,0
-602,-804,0,0,0,0,0,0,0,0,0,-1,622,1828,0,0
-595,-804,0,0,0,0,0,0,0,0,0,-1,629,1828,0,0
-588,-804,0,0,0,0,0,0,0,0,0,-1,636,1828,0,0
-581,-804,0,0,0,0,0,0,0,0,0,-1,643,1828,0,0
-574,-804,0,0,0,0,0,0,0,0,0,-1,650,1828,0,0
-567,-804,0,0,0,0,0,0,0,0,0,-1,657,1828,0,0
-560,-804,0,0,0,0,0,0,0,0,0,-1,664,1828,0,0
-553,-804,0,0,0,0,0,0,0,0,0,-1,671,1828,0,0
-546,-804,0,0,0,0,0,0,0,0,0,-1,678,1828,0,0
-539,-804,0,0,0,0,0,0,0,0,0,-1,685,1828,0,0
-532,-804,0,0,0,0,0,0,0,0,0,-1,692,1828,0,0
-525,-804,0,0,0,0,0,0,0,0,0,-1,699,1828,0,0
-518,-804,0,0,0,0,0,0,0,0,0,-1,706,1828,0,0
-511,-804,0,0,0,0,0,0,0,0,0,-1,713,1828,0,0
-504,-804,0,0,0,0,0,0,0,0,0,-1,720,1828,0,0
-497,-804,0,0,0,0,0,0,0,0,0,-1,727,1828,0,0
-490,-804,0,0,0,0,0,0,0,0,0,-1,734,1828,0,0
-483,-804,0,0,0,0,0,0,0,0,0,-1,741,1828,0,0
-476,-804,0,0,0,0,0,0,0,0,0,-1,748,1828,0,0
-469,-804,0,0,0,0,0,0,0,0,0,-1,755,1828,0,0
-462,-804,0,0,0,0,0,0,0,0,0,-1,762,1828,0,0
-455,-804,0,0,0,0,0,0,0,0,0,-1,769,1828,0,0
-448,-804,0,0,0,0,0,0,0,0,0,-1,776,1828,0,0
-441,-804,0,0,0,0,0,0,0,0,0,-1,783,1828,0,0
-434,-804,0,0,0,0,0,0,0,0,0,-1,790,1828,0,0
-427,-804,0,0,0,0,0,0,0,0,0,-1,797,1828,0,0
-420,-804,0,0,0,0,0,0,0,0,0,-1,804,1828,0,0
-413,-804,0,0,0,0,0,0,0,0,0,-1,811,1828,0,0
-406,-804,0,0,0,0,0,0,0,0,0,-1,818,1828,0,0
-399,-804,0,0,0,0,0,0,0,0,0,-1,825,1828,0,0
-392,-804,0,0,0,0,0,0,0,0,0,-1,832,1828,0,0
-385,-804,0,0,0,0,0,0,0,0,0,-1,839,1828,0,0
-378,-804,0,0,0,0,0,0,0,0,0,-1,846,1828,0,0
-371,-804,0,0,0,0,0,0,0,0,0,-1,853,1828,0,0
-364,-804,0,0,0,0,0,0,0,0,0,-1,860,1828,0,0
-357,-804,0,0,0,0,0,0,0,0,0,-1,867,1828,0,0
-350,-804,0,0,0,0,0,0,0,0,0,-1,874,1828,0,0
-343,-804,0,0,0,0,0,0,0,0,0,-1,881,1828,0,0
-336,-804,0,0,0,0,0,0,0,0,0,-1,888,1828,0,0
-329,-804,0,0,0,0,0,0,0,0,0,-1,895,1828,0,0
-322,-804,0,0,0,0,0,0,0,0,0,-1,902,1828,0,0
-315,-804,0,0,0,0,0,0,0,0,0,-1,909,1828,0,0
-308,-804,0,0,0,0,0,0,0,0,0,-1,916,1828,0,0
-301,-804,0,0,0,0,0,0,0,0,0,-1,923,1828,0,0
-294,-804,0,0,0,0,0,0,0,0,0,-1,930,1828,0,0
-287,-804,0,0,0,0,0,0,0,0,0,-1,937,1828,0,0
-280,-804,0,0,0,0,0,0,0,0,0,-1,944,1828,0,0
-273,-804,0,0,0,0,0,0,0,0,0,-1,951,1828,0,0
-266,-804,0,0,0,0,0,0,0,0,0,-1,958,1828,0,0
-259,-804,0,0,0,0,0,0,0,0,0,-1,965,1828,0,0
-252,-804,0,0,0,0,0,0,0,0,0,-1,972,1828,0,0
-245,-804,0,0,0,0,0,0,0,0,0,-1,979,1828,0,0
-238,-804,0,0,0,0,0,0,0,0,0,-1,986,1828,0,0
-231,-804,0,0,0,0,0,0,0,0,0,-1,993,1828,0,0
-224,-804,0,0,0,0,0,0,0,0,0,-1,1000,1828,0,0
-217,-804,0,0,0,0,0,0,0,0,0,-1,1007,1828,0,0
-210,-804,0,0,0,0,0,0,0,0,0,-1,1014,1828,0,0
-203,-804,0,0,0,0,0,0,0,0,0,-1,1021,1828,0,0
-196,-804,0,0,0,0,0,0,0,0,0,-1,1028,1828,0,0
-189,-804,0,0,0,0,0,0,0,0,0,-1,1035,1828,0,0
-182,-804,0,0,0,0,0,0,0,0,0,-1,1042,1828,0,0
-175,-804,0,0,0,0,0,0,0,0,0,-1,1049,1828,0,0
-168,-804,0,0,0,0,0,0,0,0,0,-1,1056,1828,0,0
-161,-804,0,0,0,0,0,0,0,0,0,-1,1063,1828,0,0
-154,-804,0,0,0,0,0,0,0,0,0,-1,1070,1828,0,0
-147,-804,0,0,0,0,0,0,0,0,0,-1,1077,1828,0,0
-140,-804,0,0,0,0,0,0,0,0,0,-1,1084,1828,0,0
-133,-804,0,0,0,0,0,0,0,0,0,-1,1091,1828,0,0
-126,-804,0,0,0,0,0,0,0,0,0,-1,1098,1828,0,0
-119,-804,0,0,0,0,0,0,0,0,0,-1,1105,1828,0,0
-112,-804,0,0,0,0,0,0,0,0,0,-1,1112,1828,0,0
-105,-804,0,0,0,0,0,0,0,0,0,-1,1119,1828,0,0
-98,-804,0,0,0,0,0,0,0,0,0,-1,1126,1828,0,0
-91,-804,0,0,0,0,0,0,0,0,0,-1,1133,1828,0,0
-84,-804,0,0,0,0,0,0,0,0,0,-1,1140,1828,0,0
-77,-804,0,0,0,0,0,0,0,0,0,-1,1147,1828,0,0
-70,-804,0,0,0,0,0,0,0,0,0,-1,1154,1828,0,0
-63,-804,0,0,0,0,0,0,0,0,0,-1,1161,1828,0,0
-56,-804,0,0,0,0,0,0,0,0,0,-1,1168,1828,0,0
-49,-804,0,0,0,0,0,0,0,0,0,-1,1175,1828,0,0
-42,-804,0,0,0,0,0,0,0,0,0,-1,1182,1828,0,0
-35,-804,0,0,0,0,0,0,0,0,0,-1,1189,1828,0,0
-28,-804,0,0,0,0,0,0,0,0,0,-1,1196,1828,0,0
-21,-804,0,0,0,0,0,0,0,0,0,-1,1203,1828,0,0
-14,-804,0,0,0,0,0,0,0,0,0,-1,1210,1828,0,0
-7,-804,0,0,0,0,0,0,0,0,0,-1,1217,1828,0,0
0,-804,0,0,0,0,0,0,0,0,0,-1,1224,1828,0,0
7,-804,0,0,0,0,0,0,0,0,0,-1,1231,1828,0,0
14,-804,0,0,0,0,0,0,0,0,0,-1,1238,1828,0,0
21,-804,0,0,0,0,0,0,0,0,0,-1,1245,1828,0,0
28,-804,0,0,0,0,0,0,0,0,0,-1,1252,1828,0,0
35,-804,3.49475,12.3121,0.0445492,0.0810367,0.0438643,0.1103,0.015286,0.982473,0.0690046,0.0423499,1259,1828,3.49472,-12.3121
42,-804,4.40271,12.5801,0.0556718,0.0857353,0.0492659,0.122212,0.0191955,0.93347,0.0758895,0.0463773,1266,1828,4.40269,-12.5801
49,-804,4.0918,13.0125,0.0642972,0.0902829,0.0538034,0.13264,0.0219401,0.903874,0.0820965,0.0440158,1273,1828,4.09181,-13.0125
56,-804,4.73083,13.9813,0.0712561,0.0940052,0.0573235,0.141072,0.0241895,0.883339,0.0871115,0.0487678,1280,1828,4.73079,-13.9813
63,-804,4.89294,14.7368,0,0,0,0,0,0,0,-1,1287,1828,4.8929,-14.7368
70,-804,5.45386,15.0065,0.0725404,0.0968803,0.0577568,0.143735,0.0256853,0.889234,0.0885129,0.0461366,1294,1828,5.45381,-15.0064
77,-804,5.77026,16.3203,0.0650046,0.0964741,0.0523081,0.135363,0.0261159,0.931497,0.082919,0.0430297,1301,1828,5.77032,-16.3203
84,-804,6.31323,17.3871,0.0561391,0.0949589,0.0461873,0.125649,0.025449,0.984315,0.0767034,0.0432038,1308,1828,6.31322,-17.3871
91,-804,0,0,0,0,0,0,0,0,0,-1,1315,1828,0,0
98,-804,0,0,0,0,0,0,0,0,0,-1,1322,1828,0,0
105,-804,0,0,0,0,0,0,0,0,0,-1,1329,1828,0,0
112,-804,0,0,0,0,0,0,0,0,0,-1,1336,1828,0,0
119,-804,0,0,0,0,0,0,0,0,0,-1,1343,1828,0,0
126,-804,0,0,0,0,0,0,0,0,0,-1,1350,1828,0,0
133,-804,0,0,0,0,0,0,0,0,0,-1,1357,1828,0,0
140,-804,0,0,0,0,0,0,0,0,0,-1,1364,1828,0,0
147,-804,0,0,0,0,0,0,0,0,0,-1,1371,1828,0,0
154,-804,0,0,0,0,0,0,0,0,0,-1,1378,1828,0,0
161,-804,0,0,0,0,0,0,0,0,0,-1,1385,1828,0,0
168,-804,0,0,0,0,0,0,0,0,0,-1,1392,1828,0,0
175,-804,0,0,0,0,0,0,0,0,0,-1,1399,1828,0,0
182,-804,0,0,0,0,0,0,0,0,0,-1,1406,1828,0,0
189,-804,0,0,0,0,0,0,0,0,0,-1,1413,1828,0,0
196,-804,0,0,0,0,0,0,0,0,0,-1,1420,1828,0,0
203,-804,0,0,0,0,0,0,0,0,0,-1,1427,1828,0,0
210,-804,0,0,0,0,0,0,0,0,0,-1,1434,1828,0,0
217,-804,0,0,0,0,0,0,0,0,0,-1,1441,1828,0,0
224,-804,0,0,0,0,0,0,0,0,0,-1,1448,1828,0,0
231,-804,0,0,0,0,0,0,0,0,0,-1,1455,1828,0,0
238,-804,0,0,0,0,0,0,0,0,0,-1,1462,1828,0,0
245,-804,0,0,0,0,0,0,0,0,0,-1,1469,1828,0,0
252,-804,0,0,0,0,0,0,0,0,0,-1,1476,1828,0,0
259,-804,0,0,0,0,0,0,0,0,0,-1,1483,1828,0,0
266,-804,0,0,0,0,0,0,0,0,0,-1,1490,1828,0,0
273,-804,0,0,0,0,0,0,0,0,0,-1,1497,1828,0,0
280,-804,0,0,0,0,0,0,0,0,0,-1,1504,1828,0,0
287,-804,0,0,0,0,0,0,0,0,0,-1,1511,1828,0,0
294,-804,0,0,0,0,0,0,0,0,0,-1,1518,1828,0,0
301,-804,0,0,0,0,0,0,0,0,0,-1,1525,1828,0,0
308,-804,0,0,0,0,0,0,0,0,0,-1,1532,1828,0,0
315,-804,0,0,0,0,0,0,0,0,0,-1,1539,1828,0,0
322,-804,0,0,0,0,0,0,0,0,0,-1,1546,1828,0,0
329,-804,0,0,0,0,0,0,0,0,0,-1,1553,1828,0,0
336,-804,0,0,0,0,0,0,0,0,0,-1,1560,1828,0,0
343,-804,0,0,0,0,0,0,0,0,0,-1,1567,1828,0,0
350,-804,0,0,0,0,0,0,0,0,0,-1,1574,1828,0,0
357,-804,0,0,0,0,0,0,0,0,0,-1,1581,1828,0,0
364,-804,0,0,0,0,0,0,0,0,0,-1,1588,1828,0,0
371,-804,0,0,0,0,0,0,0,0,0,-1,1595,1828,0,0
378,-804,0,0,0,0,0,0,0,0,0,-1,1602,1828,0,0
385,-804,0,0,0,0,0,0,0,0,0,-1,1609,1828,0,0
392,-804,0,0,0,0,0,0,0,0,0,-1,1616,1828,0,0
399,-804,0,0,0,0,0,0,0,0,0,-1,1623,1828,0,0
406,-804,0,0,0,0,0,0,0,0,0,-1,1630,1828,0,0
413,-804,0,0,0,0,0,0,0,0,0,-1,1637,1828,0,0
420,-804,0,0,0,0,0,0,0,0,0,-1,1644,1828,0,0
427,-804,0,0,0,0,0,0,0,0,0,-1,1651,1828,0,0
434,-804,0,0,0,0,0,0,0,0,0,-1,1658,1828,0,0
441,-804,0,0,0,0,0,0,0,0,0,-1,1665,1828,0,0
448,-804,0,0,0,0,0,0,0,0,0,-1,1672,1828,0,0
455,-804,0,0,0,0,0,0,0,0,0,-1,1679,1828,0,0
462,-804,0,0,0,0,0,0,0,0,0,-1,1686,1828,0,0
469,-804,0,0,0,0,0,0,0,0,0,-1,1693,1828,0,0
476,-804,0,0,0,0,0,0,0,0,0,-1,1700,1828,0,0
483,-804,0,0,0,0,0,0,0,0,0,-1,1707,1828,0,0
490,-804,0,0,0,0,0,0,0,0,0,-1,1714,1828,0,0
497,-804,0,0,0,0,0,0,0,0,0,-1,1721,1828,0,0
504,-804,0,0,0,0,0,0,0,0,0,-1,1728,1828,0,0
511,-804,0,0,0,0,0,0,0,0,0,-1,1735,1828,0,0
518,-804,0,0,0,0,0,0,0,0,0,-1,1742,1828,0,0
525,-804,0,0,0,0,0,0,0,0,0,-1,1749,1828,0,0
532,-804,0,0,0,0,0,0,0,0,0,-1,1756,1828,0,0
539,-804,0,0,0,0,0,0,0,0,0,-1,1763,1828,0,0
546,-804,0,0,0,0,0,0,0,0,0,-1,1770,1828,0,0
553,-804,0,0,0,0,0,0,0,0,0,-1,1777,1828,0,0
560,-804,0,0,0,0,0,0,0,0,0,-1,1784,1828,0,0
567,-804,0,0,0,0,0,0,0,0,0,-1,1791,1828,0,0
574,-804,0,0,0,0,0,0,0,0,0,-1,1798,1828,0,0
581,-804,0,0,0,0,0,0,0,0,0,-1,1805,1828,0,0
588,-804,0,0,0,0,0,0,0,0,0,-1,1812,1828,0,0
595,-804,0,0,0,0,0,0,0,0,0,-1,1819,1828,0,0
602,-804,0,0,0,0,0,0,0,0,0,-1,1826,1828,0,0
609,-804,0,0,0,0,0,0,0,0,0,-1,1833,1828,0,0
616,-804,0,0,0,0,0,0,0,0,0,-1,1840,1828,0,0
623,-804,0,0,0,0,0,0,0,0,0,-1,1847,1828,0,0
630,-804,0,0,0,0,0,0,0,0,0,-1,1854,1828,0,0
637,-804,0,0,0,0,0,0,0,0,0,-1,1861,1828,0,0
644,-804,0,0,0,0,0,0,0,0,0,-1,1868,1828,0,0
651,-804,0,0,0,0,0,0,0,0,0,-1,1875,1828,0,0
658,-804,0,0,0,0,0,0,0,0,0,-1,1882,1828,0,0
665,-804,0,0,0,0,0,0,0,0,0,-1,1889,1828,0,0
672,-804,0,0,0,0,0,0,0,0,0,-1,1896,1828,0,0
679,-804,0,0,0,0,0,0,0,0,0,-1,1903,1828,0,0
686,-804,0,0,0,0,0,0,0,0,0,-1,1910,1828,0,0
693,-804,0,0,0,0,0,0,0,0,0,-1,1917,1828,0,0
700,-804,0,0,0,0,0,0,0,0,0,-1,1924,1828,0,0
707,-804,0,0,0,0,0,0,0,0,0,-1,1931,1828,0,0
714,-804,0,0,0,0,0,0,0,0,0,-1,1938,1828,0,0
721,-804,0,0,0,0,0,0,0,0,0,-1,1945,1828,0,0
728,-804,0,0,0,0,0,0,0,0,0,-1,1952,1828,0,0
735,-804,0,0,0,0,0,0,0,0,0,-1,1959,1828,0,0
742,-804,0,0,0,0,0,0,0,0,0,-1,1966,1828,0,0
749,-804,0,0,0,0,0,0,0,0,0,-1,1973,1828,0,0
756,-804,0,0,0,0,0,0,0,0,0,-1,1980,1828,0,0
763,-804,0,0,0,0,0,0,0,0,0,-1,1987,1828,0,0
770,-804,0,0,0,0,0,0,0,0,0,-1,1994,1828,0,0
777,-804,0,0,0,0,0,0,0,0,0,-1,2001,1828,0,0
784,-804,0,0,0,0,0,0,0,0,0,-1,2008,1828,0,0
791,-804,0,0,0,0,0,0,0,0,0,-1,2015,1828,0,0
798,-804,0,0,0,0,0,0,0,0,0,-1,2022,1828,0,0
805,-804,0,0,0,0,0,0,0,0,0,-1,2029,1828,0,0
812,-804,0,0,0,0,0,0,0,0,0,-1,2036,1828,0,0

